"N","Time","avg(GlobalElementId)","avg(ObjectId)","avg(PedigreeElementId)","avg(alpha)","avg(strain_x (0))","avg(strain_x (1))","avg(strain_x (2))","avg(strain_x (Magnitude))","avg(strain_yy)","avg(stress_x (0))","avg(stress_x (1))","avg(stress_x (2))","avg(stress_x (Magnitude))","avg(stress_yy)","avg(vtkOriginalCellIds)","max(GlobalElementId)","max(ObjectId)","max(PedigreeElementId)","max(alpha)","max(strain_x (0))","max(strain_x (1))","max(strain_x (2))","max(strain_x (Magnitude))","max(strain_yy)","max(stress_x (0))","max(stress_x (1))","max(stress_x (2))","max(stress_x (Magnitude))","max(stress_yy)","max(vtkOriginalCellIds)","med(GlobalElementId)","med(ObjectId)","med(PedigreeElementId)","med(alpha)","med(strain_x (0))","med(strain_x (1))","med(strain_x (2))","med(strain_x (Magnitude))","med(strain_yy)","med(stress_x (0))","med(stress_x (1))","med(stress_x (2))","med(stress_x (Magnitude))","med(stress_yy)","med(vtkOriginalCellIds)","min(GlobalElementId)","min(ObjectId)","min(PedigreeElementId)","min(alpha)","min(strain_x (0))","min(strain_x (1))","min(strain_x (2))","min(strain_x (Magnitude))","min(strain_yy)","min(stress_x (0))","min(stress_x (1))","min(stress_x (2))","min(stress_x (Magnitude))","min(stress_yy)","min(vtkOriginalCellIds)","q1(GlobalElementId)","q1(ObjectId)","q1(PedigreeElementId)","q1(alpha)","q1(strain_x (0))","q1(strain_x (1))","q1(strain_x (2))","q1(strain_x (Magnitude))","q1(strain_yy)","q1(stress_x (0))","q1(stress_x (1))","q1(stress_x (2))","q1(stress_x (Magnitude))","q1(stress_yy)","q1(vtkOriginalCellIds)","q3(GlobalElementId)","q3(ObjectId)","q3(PedigreeElementId)","q3(alpha)","q3(strain_x (0))","q3(strain_x (1))","q3(strain_x (2))","q3(strain_x (Magnitude))","q3(strain_yy)","q3(stress_x (0))","q3(stress_x (1))","q3(stress_x (2))","q3(stress_x (Magnitude))","q3(stress_yy)","q3(vtkOriginalCellIds)","std(GlobalElementId)","std(ObjectId)","std(PedigreeElementId)","std(alpha)","std(strain_x (0))","std(strain_x (1))","std(strain_x (2))","std(strain_x (Magnitude))","std(strain_yy)","std(stress_x (0))","std(stress_x (1))","std(stress_x (2))","std(stress_x (Magnitude))","std(stress_yy)","std(vtkOriginalCellIds)","vtkValidPointMask"
1820,0,12139,1,12139,1,0,0,0,0,0,0,0,0,0,0,12138,13096,1,13096,1,0,0,0,0,0,0,0,0,0,0,13095,12138,1,12138,1,0,0,0,0,0,0,0,0,0,0,12137,11203,1,11203,1,0,0,0,0,0,0,0,0,0,0,11202,11683,1,11683,1,0,0,0,0,0,0,0,0,0,0,11682,12593,1,12593,1,0,0,0,0,0,0,0,0,0,0,12592,527.79,0,527.79,0,0,0,0,0,0,0,0,0,0,0,527.79,1
1820,0.01,12139,1,12139,1,-6.1103e-09,-5.7153e-09,0,1.2475e-06,-6.8487e-10,-74314,-1601.6,0,4.3582e+05,-1406.4,12138,13096,1,13096,1,3.1642e-06,1.8141e-07,0,3.165e-06,4.7011e-07,8.9715e+05,43917,0,1.0193e+06,17558,13095,12138,1,12138,1,3.0325e-08,-1.4211e-09,0,1.2877e-06,-8.9472e-09,9865.6,-429.6,0,4.2662e+05,-165.49,12137,11203,1,11203,1,-2.5062e-06,-9.559e-08,0,3.7883e-08,-6.3648e-07,-1.0193e+06,-23228,0,11846,-48168,11202,11683,1,11683,1,-1.2516e-06,-1.3128e-08,0,6.1767e-07,-2.2522e-07,-5.088e+05,-3911.1,0,2.2774e+05,-1428.5,11682,12593,1,12593,1,1.2877e-06,4.4614e-09,0,1.8666e-06,2.3259e-07,3.7833e+05,1316.5,0,6.203e+05,1325.9,12592,527.79,0,527.79,0,1.4418e-06,1.9854e-08,0,7.2255e-07,2.6968e-07,5.0332e+05,5405.7,0,2.6238e+05,6461.7,527.79,1
1820,0.02,12139,1,12139,1,4.6848e-07,-1.4551e-09,0,2.8721e-06,-8.9255e-08,-372.07,-402.94,0,9.7739e+05,-1491.2,12138,13096,1,13096,1,5.9766e-06,1.637e-08,0,5.9766e-06,9.4598e-07,1.6992e+06,4497.4,0,2.0504e+06,97.843,13095,12138,1,12138,1,4.6524e-07,-9.8908e-10,0,2.853e-06,-8.919e-08,1.5055e+05,-300.32,0,9.7994e+05,-585.33,12137,11203,1,11203,1,-5.0411e-06,-2.7419e-08,0,1.4429e-07,-1.1204e-06,-2.0504e+06,-7532.4,0,58999,-9617.4,11202,11683,1,11683,1,-2.3841e-06,-1.8311e-09,0,1.4269e-06,-6.2852e-07,-9.6987e+05,-513.26,0,5.0981e+05,-2359.7,11682,12593,1,12593,1,3.3215e-06,-1.4401e-10,0,4.2782e-06,4.4687e-07,9.7994e+05,-43.054,0,1.4279e+06,-88.138,12592,527.79,0,527.79,0,3.2933e-06,4.4481e-09,0,1.6769e-06,6.1735e-07,1.1264e+06,1247.4,0,5.5944e+05,1960.4,527.79,1
1820,0.03,12139,1,12139,1,7.0514e-07,-1.2235e-09,0,4.3218e-06,-1.3077e-07,-259.42,-341.58,0,1.4708e+06,-918.61,12138,13096,1,13096,1,8.9908e-06,8.7601e-09,0,8.9908e-06,1.4225e-06,2.5563e+06,2983.8,0,3.0832e+06,56.92,13095,12138,1,12138,1,7.0363e-07,-7.2303e-10,0,4.2903e-06,-1.339e-07,2.2778e+05,-220.92,0,1.4744e+06,-214.65,12137,11203,1,11203,1,-7.5804e-06,-1.5566e-08,0,2.1562e-07,-1.6801e-06,-3.0832e+06,-4328.5,0,88137,-8175.7,11202,11683,1,11683,1,-3.5855e-06,-2.1503e-09,0,2.1465e-06,-9.3375e-07,-1.4583e+06,-636.82,0,7.6668e+05,-1042.4,11682,12593,1,12593,1,4.9953e-06,2.2926e-11,0,6.4359e-06,6.7322e-07,1.4744e+06,6.4948,0,2.148e+06,-54.676,12592,527.79,0,527.79,0,4.9557e-06,2.6663e-09,0,2.5235e-06,9.2762e-07,1.6951e+06,788.75,0,8.4197e+05,1458.8,527.79,1
1820,0.04,12139,1,12139,1,9.3317e-07,-5.2224e-10,0,5.7161e-06,-1.7101e-07,-8.4923,-147.89,0,1.9453e+06,-463.53,12138,13096,1,13096,1,1.1889e-05,1.3653e-08,0,1.1889e-05,1.8809e-06,3.3805e+06,3905.9,0,4.0761e+06,89.592,13095,12138,1,12138,1,9.3246e-07,-4.6008e-10,0,5.679e-06,-1.7606e-07,3.024e+05,-130.77,0,1.9519e+06,-61.564,12137,11203,1,11203,1,-1.0022e-05,-1.3496e-08,0,2.8409e-07,-2.2215e-06,-4.0761e+06,-3860.5,0,1.1616e+05,-5787.4,11202,11683,1,11683,1,-4.7457e-06,-9.605e-10,0,2.8397e-06,-1.2338e-06,-1.9302e+06,-286.28,0,1.0148e+06,-375.57,11682,12593,1,12593,1,6.6125e-06,-1.3641e-10,0,8.5186e-06,8.9193e-07,1.9519e+06,-41.433,0,2.8433e+06,-16.816,12592,527.79,0,527.79,0,6.5544e-06,1.5813e-09,0,3.3377e-06,1.2269e-06,2.242e+06,449.12,0,1.1135e+06,937.14,527.79,1
1820,0.05,12139,1,12139,1,1.1677e-06,-6.3437e-11,0,7.1528e-06,-2.1382e-07,-18.738,-21.13,0,2.4343e+06,-522.42,12138,13096,1,13096,1,1.4878e-05,1.3055e-08,0,1.4878e-05,2.354e-06,4.23e+06,3760.1,0,5.1011e+06,54.491,13095,12138,1,12138,1,1.1666e-06,-1.2117e-10,0,7.1065e-06,-2.1838e-07,3.7835e+05,-35.543,0,2.4424e+06,-75.695,12137,11203,1,11203,1,-1.2542e-05,-1.0854e-08,0,3.5532e-07,-2.7799e-06,-5.1011e+06,-3099.9,0,1.4531e+05,-6383.6,11202,11683,1,11683,1,-5.9383e-06,-4.3481e-10,0,3.5533e-06,-1.5438e-06,-2.4152e+06,-125.17,0,1.2699e+06,-447.38,11682,12593,1,12593,1,8.2744e-06,4.0988e-10,0,1.0659e-05,1.1161e-06,2.4424e+06,113.28,0,3.5578e+06,-13.591,12592,527.79,0,527.79,0,8.2019e-06,1.46e-09,0,4.1766e-06,1.5352e-06,2.8055e+06,419.36,0,1.3934e+06,1028.3,527.79,1
1820,0.06,12139,1,12139,1,1.4016e-06,4.9311e-12,0,8.5881e-06,-2.5592e-07,-118.17,3.5082,0,2.9228e+06,-351.07,12138,13096,1,13096,1,1.7862e-05,8.3622e-09,0,1.7862e-05,2.8261e-06,5.0786e+06,2391.3,0,6.1241e+06,83.073,13095,12138,1,12138,1,1.4008e-06,2.6447e-11,0,8.5325e-06,-2.5935e-07,4.5436e+05,7.8278,0,2.9324e+06,-38.984,12137,11203,1,11203,1,-1.5057e-05,-1.1476e-08,0,4.2686e-07,-3.3376e-06,-6.1241e+06,-3277.1,0,1.7452e+05,-6038.8,11202,11683,1,11683,1,-7.1306e-06,-5.0209e-10,0,4.2662e-06,-1.8526e-06,-2.9e+06,-154.4,0,1.5248e+06,-248.4,11682,12593,1,12593,1,9.9344e-06,7.7632e-10,0,1.2798e-05,1.3409e-06,2.9324e+06,230.16,0,4.2718e+06,5.1505,12592,527.79,0,527.79,0,9.8477e-06,1.4769e-09,0,5.0147e-06,1.8433e-06,3.3685e+06,417.8,0,1.6731e+06,818.85,527.79,1
1820,0.07,12139,1,12139,1,1.6396e-06,3.283e-09,0,1.0045e-05,-2.9901e-07,-37.721,950.57,0,3.4187e+06,-274.7,12138,13096,1,13096,1,2.0911e-05,9.4068e-09,0,2.0911e-05,3.3085e-06,5.9454e+06,2828.6,0,7.1693e+06,112.06,13095,12138,1,12138,1,1.6375e-06,2.9906e-09,0,9.9753e-06,-3.0274e-07,5.3139e+05,879.23,0,3.4283e+06,-91.032,12137,11203,1,11203,1,-1.7627e-05,-1.4957e-09,0,4.9853e-07,-3.9073e-06,-7.1693e+06,-507.56,0,2.0389e+05,-4716,11202,11683,1,11683,1,-8.3358e-06,8.484e-10,0,4.9876e-06,-2.166e-06,-3.3902e+06,252.1,0,1.7827e+06,-211.61,11682,12593,1,12593,1,1.1614e-05,5.4771e-09,0,1.4964e-05,1.5674e-06,3.4283e+06,1613.1,0,4.9943e+06,-18.256,12592,527.79,0,527.79,0,1.1519e-05,2.7501e-09,0,5.8657e-06,2.156e-06,3.94e+06,789.27,0,1.957e+06,605.71,527.79,1
1820,0.08,12139,1,12139,1,1.8675e-06,-6.9774e-10,0,1.1442e-05,-3.407e-07,-80.124,-200.23,0,3.8941e+06,-359.04,12138,13096,1,13096,1,2.3795e-05,7.1071e-09,0,2.3795e-05,3.765e-06,6.7656e+06,2031.6,0,8.1588e+06,54.281,13095,12138,1,12138,1,1.867e-06,-6.4013e-10,0,1.1367e-05,-3.449e-07,6.0593e+05,-183.43,0,3.9067e+06,-56.096,12137,11203,1,11203,1,-2.006e-05,-9.3525e-09,0,5.6839e-07,-4.4461e-06,-8.1588e+06,-2671.3,0,2.3243e+05,-5714.6,11202,11683,1,11683,1,-9.4997e-06,-1.1455e-09,0,5.6837e-06,-2.468e-06,-3.8635e+06,-339.73,0,2.0314e+06,-279.14,11682,12593,1,12593,1,1.3235e-05,-1.4978e-10,0,1.7051e-05,1.7864e-06,3.9067e+06,-41.481,0,5.6912e+06,-6.7252,12592,527.79,0,527.79,0,1.312e-05,1.0317e-09,0,6.6813e-06,2.4559e-06,4.4879e+06,296.43,0,2.2291e+06,822.77,527.79,1
1820,0.09,12139,1,12139,1,2.1006e-06,-2.2427e-09,0,1.2869e-05,-3.8278e-07,21.441,-645.45,0,4.3798e+06,-228.91,12138,13096,1,13096,1,2.6781e-05,6.7026e-10,0,2.6781e-05,4.2374e-06,7.6145e+06,229.54,0,9.1823e+06,104.29,13095,12138,1,12138,1,2.0998e-06,-1.9154e-09,0,1.2786e-05,-3.873e-07,6.815e+05,-560.53,0,4.3945e+06,-34.978,12137,11203,1,11203,1,-2.2576e-05,-1.5025e-08,0,6.3866e-07,-5.004e-06,-9.1823e+06,-4283,0,2.6107e+05,-5908.3,11202,11683,1,11683,1,-1.0685e-05,-3.6099e-09,0,6.3934e-06,-2.7761e-06,-4.3457e+06,-1075.7,0,2.285e+06,-154.25,11682,12593,1,12593,1,1.4887e-05,-4.9932e-10,0,1.918e-05,2.0095e-06,4.3945e+06,-135.45,0,6.4017e+06,5.3784,12592,527.79,0,527.79,0,1.4757e-05,2.1274e-09,0,7.5146e-06,2.7622e-06,5.0477e+06,601.11,0,2.5071e+06,680.91,527.79,1
1820,0.1,12139,1,12139,1,2.3359e-06,-1.935e-09,0,1.4312e-05,-4.254e-07,-56.275,-561.67,0,4.8709e+06,-161.37,12138,13096,1,13096,1,2.9768e-05,1.0089e-09,0,2.9768e-05,4.7099e-06,8.4638e+06,345.5,0,1.0206e+07,152.16,13095,12138,1,12138,1,2.3347e-06,-1.66e-09,0,1.4215e-05,-4.2495e-07,7.5787e+05,-467.61,0,4.8854e+06,-65.448,12137,11203,1,11203,1,-2.5094e-05,-5.8718e-09,0,7.1044e-07,-5.5621e-06,-1.0206e+07,-1733.3,0,2.9052e+05,-2976.1,11202,11683,1,11683,1,-1.188e-05,-3.0093e-09,0,7.1077e-06,-3.0858e-06,-4.8314e+06,-889.26,0,2.5403e+06,-168.28,11682,12593,1,12593,1,1.655e-05,-8.1089e-10,0,2.1323e-05,2.234e-06,4.8854e+06,-235.62,0,7.1169e+06,-16.197,12592,527.79,0,527.79,0,1.6412e-05,1.5439e-09,0,8.3574e-06,3.0719e-06,5.6137e+06,445.48,0,2.7884e+06,334.69,527.79,1
1820,0.11,12139,1,12139,1,2.5709e-06,2.1861e-10,0,1.5751e-05,-4.6771e-07,13.643,63.141,0,5.3606e+06,3.5884,12138,13096,1,13096,1,3.2751e-05,7.8817e-10,0,3.2751e-05,5.182e-06,9.3119e+06,216.46,0,1.1229e+07,20.679,13095,12138,1,12138,1,2.5708e-06,1.7895e-10,0,1.5648e-05,-4.6451e-07,8.3462e+05,53.32,0,5.3779e+06,3.1622,12137,11203,1,11203,1,-2.7609e-05,-2.5396e-10,0,7.8213e-07,-6.1195e-06,-1.1229e+07,-70.854,0,3.197e+05,-13.005,11202,11683,1,11683,1,-1.3077e-05,-5.6748e-13,0,7.8239e-06,-3.3963e-06,-5.3183e+06,-0.092876,0,2.7964e+06,-1.9804,11682,12593,1,12593,1,1.8219e-05,4.1662e-10,0,2.3472e-05,2.4594e-06,5.3779e+06,122.79,0,7.8342e+06,9.4592,12592,527.79,0,527.79,0,1.8061e-05,2.4804e-10,0,9.1975e-06,3.3807e-06,6.1781e+06,71.137,0,3.0687e+06,7.1074,527.79,1
1820,0.12,12139,1,12139,1,2.8036e-06,-1.6004e-10,0,1.7177e-05,-5.1002e-07,1.0907,-46.517,0,5.8459e+06,14.384,12138,13096,1,13096,1,3.5717e-05,1.8637e-09,0,3.5717e-05,5.6512e-06,1.0155e+07,508.09,0,1.2246e+07,72.92,13095,12138,1,12138,1,2.8035e-06,-1.0046e-10,0,1.7064e-05,-5.0648e-07,9.1015e+05,-27.954,0,5.8648e+06,12.472,12137,11203,1,11203,1,-3.0109e-05,-1.821e-09,0,8.5302e-07,-6.6736e-06,-1.2246e+07,-500.12,0,3.4867e+05,-43.26,11202,11683,1,11683,1,-1.4261e-05,-6.7844e-10,0,8.5323e-06,-3.7038e-06,-5.7998e+06,-198.87,0,3.0495e+06,-2.1797,11682,12593,1,12593,1,1.9868e-05,2.6351e-10,0,2.5597e-05,2.6821e-06,5.8648e+06,74.57,0,8.5435e+06,28.342,12592,527.79,0,527.79,0,1.9697e-05,7.3868e-10,0,1.003e-05,3.6868e-06,6.7374e+06,214.37,0,3.3465e+06,22.144,527.79,1
1820,0.13,12139,1,12139,1,3.0388e-06,2.4608e-10,0,1.8619e-05,-5.5286e-07,-5.8555,71.289,0,6.3364e+06,-1.3822,12138,13096,1,13096,1,3.8711e-05,5.9725e-10,0,3.8711e-05,6.125e-06,1.1006e+07,161.99,0,1.3273e+07,5.7218,13095,12138,1,12138,1,3.0387e-06,2.3803e-10,0,1.8496e-05,-5.4909e-07,9.8652e+05,70.224,0,6.3566e+06,-0.66891,12137,11203,1,11203,1,-3.2633e-05,-7.55e-11,0,9.2448e-07,-7.2331e-06,-1.3273e+07,-25.856,0,3.7789e+05,-12.115,11202,11683,1,11683,1,-1.5457e-05,1.3085e-10,0,9.2478e-06,-4.0144e-06,-6.2862e+06,37.136,0,3.3053e+06,-2.6519,11682,12593,1,12593,1,2.1534e-05,3.5554e-10,0,2.7743e-05,2.907e-06,6.3566e+06,104.66,0,9.26e+06,0.88584,12592,527.79,0,527.79,0,2.1349e-05,1.5799e-10,0,1.0872e-05,3.9962e-06,7.3027e+06,44.821,0,3.6273e+06,3.2596,527.79,1
1820,0.14,12139,1,12139,1,3.2732e-06,-4.5445e-11,0,2.0055e-05,-5.9548e-07,-46.928,-13.402,0,6.8253e+06,3.3635,12138,13096,1,13096,1,4.1696e-05,1.3624e-10,0,4.1696e-05,6.5975e-06,1.1855e+07,37.319,0,1.4297e+07,12.59,13095,12138,1,12138,1,3.2731e-06,-4.32e-11,0,1.9923e-05,-5.9142e-07,1.0626e+06,-12.081,0,6.8471e+06,3.6258,12137,11203,1,11203,1,-3.515e-05,-3.243e-10,0,9.9601e-07,-7.7909e-06,-1.4297e+07,-92.397,0,4.0712e+05,-6.8492,11202,11683,1,11683,1,-1.665e-05,-9.7256e-11,0,9.9614e-06,-4.3241e-06,-6.7714e+06,-30.262,0,3.5604e+06,0.52401,11682,12593,1,12593,1,2.3196e-05,2.8725e-11,0,2.9884e-05,3.1313e-06,6.8471e+06,8.8259,0,9.9745e+06,6.449,12592,527.79,0,527.79,0,2.2997e-05,9.557e-11,0,1.1711e-05,4.3045e-06,7.8662e+06,28.108,0,3.9072e+06,4.1069,527.79,1
1820,0.15,12139,1,12139,1,3.5052e-06,-5.557e-10,0,2.1477e-05,-6.3772e-07,-23.465,-161.32,0,7.3091e+06,-2.4663,12138,13096,1,13096,1,4.4659e-05,8.8864e-10,0,4.4659e-05,7.0661e-06,1.2697e+07,241.56,0,1.5312e+07,274.45,13095,12138,1,12138,1,3.5052e-06,-4.3057e-10,0,2.1336e-05,-6.3334e-07,1.138e+06,-120.68,0,7.3328e+06,1.1765,12137,11203,1,11203,1,-3.7647e-05,-2.1048e-09,0,1.0666e-06,-8.348e-06,-1.5312e+07,-587.31,0,4.3597e+05,-1315.1,11202,11683,1,11683,1,-1.783e-05,-1.0684e-09,0,1.0668e-05,-4.6309e-06,-7.2516e+06,-313.98,0,3.8129e+06,-8.4395,11682,12593,1,12593,1,2.4841e-05,-2.3451e-11,0,3.2004e-05,3.3535e-06,7.3328e+06,-7.2027,0,1.0682e+07,15.069,12592,527.79,0,527.79,0,2.4627e-05,6.7307e-10,0,1.2541e-05,4.6096e-06,8.4237e+06,194.07,0,4.1841e+06,71.842,527.79,1
1820,0.16,12139,1,12139,1,3.7381e-06,-1.8498e-10,0,2.2903e-05,-6.8011e-07,7.4853,-53.854,0,7.7945e+06,-13.882,12138,13096,1,13096,1,4.7621e-05,2.2861e-09,0,4.7621e-05,7.5346e-06,1.354e+07,637.43,0,1.6327e+07,443.36,13095,12138,1,12138,1,3.738e-06,-1.4455e-10,0,2.2752e-05,-6.7564e-07,1.2135e+06,-44.28,0,7.8196e+06,-2.7665,12137,11203,1,11203,1,-4.0144e-05,-2.7611e-09,0,1.1373e-06,-8.9026e-06,-1.6327e+07,-786.95,0,4.6489e+05,-1760.6,11202,11683,1,11683,1,-1.9014e-05,-7.6177e-10,0,1.1376e-05,-4.9384e-06,-7.7329e+06,-222.18,0,4.066e+06,-32.223,11682,12593,1,12593,1,2.649e-05,3.0023e-10,0,3.4128e-05,3.5761e-06,7.8196e+06,87.298,0,1.1391e+07,19.121,12592,527.79,0,527.79,0,2.6262e-05,8.9758e-10,0,1.3373e-05,4.9157e-06,8.9831e+06,259.17,0,4.4619e+06,93.745,527.79,1
1820,0.17,12139,1,12139,1,3.9763e-06,2.87e-10,0,2.4362e-05,-7.2359e-07,12.527,84.8,0,8.2911e+06,-64.618,12138,13096,1,13096,1,5.0653e-05,2.8664e-09,0,5.0653e-05,8.0146e-06,1.4402e+07,937.31,0,1.7367e+07,171.89,13095,12138,1,12138,1,3.9761e-06,1.7227e-10,0,2.42e-05,-7.1876e-07,1.2908e+06,53.341,0,8.3172e+06,-44.554,12137,11203,1,11203,1,-4.27e-05,-2.4992e-09,0,1.2093e-06,-9.4661e-06,-1.7367e+07,-752.5,0,4.9433e+05,-907.62,11202,11683,1,11683,1,-2.0224e-05,-2.9736e-10,0,1.21e-05,-5.2527e-06,-8.2251e+06,-84.909,0,4.3248e+06,-100.37,11682,12593,1,12593,1,2.8176e-05,1.0401e-09,0,3.6301e-05,3.8036e-06,8.3172e+06,306.33,0,1.2116e+07,-3.2201,12592,527.79,0,527.79,0,2.7935e-05,1.0851e-09,0,1.4226e-05,5.229e-06,9.5555e+06,316.75,0,4.7463e+06,117.02,527.79,1
1820,0.18,12139,1,12139,1,4.2063e-06,-2.5037e-10,0,2.5772e-05,-7.655e-07,-21.422,-72.653,0,8.7709e+06,-89.753,12138,13096,1,13096,1,5.3585e-05,7.8803e-10,0,5.3585e-05,8.4784e-06,1.5235e+07,225.25,0,1.8373e+07,156.17,13095,12138,1,12138,1,4.2063e-06,-1.7553e-10,0,2.5602e-05,-7.6062e-07,1.3655e+06,-52.826,0,8.799e+06,-50.409,12137,11203,1,11203,1,-4.5172e-05,-1.9276e-09,0,1.2798e-06,-1.0016e-05,-1.8373e+07,-549.35,0,5.2313e+05,-1247.6,11202,11683,1,11683,1,-2.1396e-05,-4.6361e-10,0,1.2801e-05,-5.5573e-06,-8.7016e+06,-138.77,0,4.5753e+06,-163.12,11682,12593,1,12593,1,2.9809e-05,-2.8011e-12,0,3.8403e-05,4.024e-06,8.799e+06,-0.95961,0,1.2818e+07,9.6046,12592,527.79,0,527.79,0,2.9552e-05,3.5208e-10,0,1.5049e-05,5.5316e-06,1.0108e+07,99.419,0,5.0209e+06,153.42,527.79,1
1820,0.19,12139,1,12139,1,4.4321e-06,-1.084e-09,0,2.7201e-05,-8.076e-07,-2727.6,-304.42,0,9.2576e+06,-484.25,12138,13096,1,13096,1,5.6564e-05,4.0297e-09,0,5.6564e-05,8.9507e-06,1.6082e+07,1062.3,0,1.9396e+07,172.91,13095,12138,1,12138,1,4.4316e-06,-8.4793e-10,0,2.7026e-05,-8.0192e-07,1.4386e+06,-270.79,0,9.2852e+06,-458.93,12137,11203,1,11203,1,-4.7688e-05,-5.286e-09,0,1.3549e-06,-1.0573e-05,-1.9396e+07,-1440.1,0,5.5387e+05,-1538.3,11202,11683,1,11683,1,-2.2589e-05,-1.8966e-09,0,1.3509e-05,-5.8653e-06,-9.1871e+06,-513.09,0,4.8303e+06,-795.06,11682,12593,1,12593,1,3.1456e-05,-1.7711e-10,0,4.0532e-05,4.2481e-06,9.2852e+06,-54.387,0,1.3528e+07,-183.09,12592,527.79,0,527.79,0,3.1191e-05,1.7014e-09,0,1.5882e-05,5.839e-06,1.0669e+07,441.32,0,5.2998e+06,337.37,527.79,1
1820,0.2,12139,1,12139,1,4.6719e-06,2.5578e-10,0,2.865e-05,-8.5101e-07,-1566.5,79.871,0,9.7507e+06,-395.99,12138,13096,1,13096,1,5.9571e-05,2.8419e-09,0,5.9571e-05,9.4261e-06,1.6937e+07,928.17,0,2.0426e+07,11.757,13095,12138,1,12138,1,4.6717e-06,1.7493e-10,0,2.8462e-05,-8.4515e-07,1.5166e+06,52.668,0,9.7805e+06,-300.92,12137,11203,1,11203,1,-5.0221e-05,-5.4196e-09,0,1.4254e-06,-1.1135e-05,-2.0426e+07,-1298.3,0,5.8266e+05,-2121.3,11202,11683,1,11683,1,-2.3789e-05,-1.7793e-10,0,1.423e-05,-6.1788e-06,-9.675e+06,-53.053,0,5.0865e+06,-590.44,11682,12593,1,12593,1,3.3134e-05,7.699e-10,0,4.2692e-05,4.4737e-06,9.7805e+06,227.66,0,1.425e+07,-151.28,12592,527.79,0,527.79,0,3.2853e-05,9.1048e-10,0,1.6729e-05,6.1501e-06,1.1238e+07,255.02,0,5.582e+06,313.9,527.79,1
1820,0.21,12139,1,12139,1,4.9001e-06,2.8539e-10,0,3.0062e-05,-8.9261e-07,-2380.1,85.738,0,1.0231e+07,-436.42,12138,13096,1,13096,1,6.2506e-05,6.4786e-09,0,6.2506e-05,9.8913e-06,1.7772e+07,1774.2,0,2.1434e+07,78.787,13095,12138,1,12138,1,4.9001e-06,2.7057e-10,0,2.9867e-05,-8.8659e-07,1.5908e+06,81.626,0,1.0262e+07,-461.91,12137,11203,1,11203,1,-5.2699e-05,-4.317e-09,0,1.4971e-06,-1.1682e-05,-2.1434e+07,-1182.5,0,6.1194e+05,-1875.5,11202,11683,1,11683,1,-2.4965e-05,-6.836e-10,0,1.4931e-05,-6.4826e-06,-1.0153e+07,-197.17,0,5.3379e+06,-638.41,11682,12593,1,12593,1,3.4766e-05,1.0328e-09,0,4.4796e-05,4.6949e-06,1.0262e+07,325.63,0,1.4952e+07,-157.12,12592,527.79,0,527.79,0,3.4472e-05,1.8067e-09,0,1.7553e-05,6.4532e-06,1.1792e+07,484.37,0,5.8571e+06,301.81,527.79,1
1820,0.22,12139,1,12139,1,5.1405e-06,-8.1606e-11,0,3.1515e-05,-9.3622e-07,-1230.4,-5.372,0,1.0726e+07,-378.01,12138,13096,1,13096,1,6.5525e-05,2.6984e-09,0,6.5525e-05,1.0368e-05,1.863e+07,724.01,0,2.2468e+07,78.824,13095,12138,1,12138,1,5.1404e-06,2.8431e-11,0,3.1309e-05,-9.3006e-07,1.6688e+06,9.4996,0,1.0759e+07,-373.99,12137,11203,1,11203,1,-5.5241e-05,-2.1241e-09,0,1.566e-06,-1.2246e-05,-2.2468e+07,-586.78,0,6.4019e+05,-1333,11202,11683,1,11683,1,-2.6167e-05,-6.9783e-10,0,1.5653e-05,-6.7964e-06,-1.0642e+07,-175.43,0,5.5952e+06,-593.88,11682,12593,1,12593,1,3.6448e-05,3.383e-10,0,4.6961e-05,4.921e-06,1.0759e+07,112.28,0,1.5674e+07,-129.85,12592,527.79,0,527.79,0,3.6138e-05,7.9756e-10,0,1.8402e-05,6.7649e-06,1.2362e+07,223.22,0,6.1401e+06,261.02,527.79,1
1820,0.23,12139,1,12139,1,5.3673e-06,-7.0537e-10,0,3.2927e-05,-9.7769e-07,-2506.8,-185.69,0,1.1206e+07,-467.81,12138,13096,1,13096,1,6.8463e-05,6.0597e-09,0,6.8463e-05,1.0834e-05,1.9466e+07,1659.5,0,2.3477e+07,52.31,13095,12138,1,12138,1,5.3672e-06,-4.5722e-10,0,3.2713e-05,-9.7097e-07,1.7424e+06,-140.57,0,1.124e+07,-448.71,12137,11203,1,11203,1,-5.7721e-05,-5.7647e-09,0,1.6396e-06,-1.2794e-05,-2.3477e+07,-1519.8,0,6.7022e+05,-1758,11202,11683,1,11683,1,-2.7343e-05,-1.6032e-09,0,1.6354e-05,-7.1003e-06,-1.112e+07,-399.81,0,5.8465e+06,-751.96,11682,12593,1,12593,1,3.8079e-05,2.0327e-10,0,4.9065e-05,5.1421e-06,1.124e+07,66.678,0,1.6377e+07,-154.52,12592,527.79,0,527.79,0,3.7757e-05,1.9395e-09,0,1.9226e-05,7.068e-06,1.2915e+07,507.92,0,6.4152e+06,333.32,527.79,1
1820,0.24,12139,1,12139,1,5.6088e-06,-5.7741e-10,0,3.4384e-05,-1.0215e-06,-1208.2,-171.32,0,1.1702e+07,-427.72,12138,13096,1,13096,1,7.1494e-05,3.4863e-09,0,7.1494e-05,1.1312e-05,2.0327e+07,835.11,0,2.4514e+07,101.18,13095,12138,1,12138,1,5.6084e-06,-3.8826e-10,0,3.4158e-05,-1.0146e-06,1.8207e+06,-112.69,0,1.1738e+07,-433.99,12137,11203,1,11203,1,-6.0271e-05,-4.1714e-09,0,1.7093e-06,-1.336e-05,-2.4514e+07,-1362.1,0,6.9873e+05,-1495,11202,11683,1,11683,1,-2.8547e-05,-1.3051e-09,0,1.7078e-05,-7.4147e-06,-1.161e+07,-363.7,0,6.1044e+06,-609.56,11682,12593,1,12593,1,3.9767e-05,1.2797e-10,0,5.1235e-05,5.3686e-06,1.1738e+07,40.333,0,1.7101e+07,-198.22,12592,527.79,0,527.79,0,3.9428e-05,1.11e-09,0,2.0077e-05,7.3806e-06,1.3487e+07,320.41,0,6.699e+06,268.64,527.79,1
1820,0.25,12139,1,12139,1,5.8371e-06,7.1548e-10,0,3.5798e-05,-1.0631e-06,-2105.8,192.94,0,1.2183e+07,-459.43,12138,13096,1,13096,1,7.443e-05,7.2503e-09,0,7.443e-05,1.1778e-05,2.1162e+07,1911.6,0,2.5522e+07,28.375,13095,12138,1,12138,1,5.8367e-06,3.881e-10,0,3.5565e-05,-1.0559e-06,1.8948e+06,127.26,0,1.2221e+07,-452.64,12137,11203,1,11203,1,-6.275e-05,-4.662e-09,0,1.7812e-06,-1.3911e-05,-2.5522e+07,-1116.7,0,7.2808e+05,-1680.6,11202,11683,1,11683,1,-2.9725e-05,-1.526e-10,0,1.7781e-05,-7.7201e-06,-1.2089e+07,-49.369,0,6.3558e+06,-635.36,11682,12593,1,12593,1,4.1401e-05,1.3745e-09,0,5.3343e-05,5.59e-06,1.2221e+07,358.84,0,1.7805e+07,-194.93,12592,527.79,0,527.79,0,4.1049e-05,1.8998e-09,0,2.0903e-05,7.6843e-06,1.4041e+07,491.16,0,6.9746e+06,298.66,527.79,1
1820,0.26,12139,1,12139,1,6.0701e-06,-1.1912e-10,0,3.7226e-05,-1.1056e-06,-2125.1,-40.381,0,1.267e+07,-492.89,12138,13096,1,13096,1,7.7405e-05,4.8109e-09,0,7.7405e-05,1.2248e-05,2.2008e+07,1267.7,0,2.6541e+07,121.9,13095,12138,1,12138,1,6.0701e-06,-2.3008e-10,0,3.6986e-05,-1.0978e-06,1.9706e+06,-73.457,0,1.2708e+07,-409.89,12137,11203,1,11203,1,-6.5255e-05,-8.7455e-09,0,1.8509e-06,-1.4466e-05,-2.6541e+07,-2094.9,0,7.566e+05,-2273.8,11202,11683,1,11683,1,-3.0911e-05,-7.2982e-10,0,1.8489e-05,-8.027e-06,-1.2572e+07,-227.68,0,6.6099e+06,-690.32,11682,12593,1,12593,1,4.3051e-05,5.1427e-10,0,5.5469e-05,5.8129e-06,1.2708e+07,165.15,0,1.8514e+07,-216.14,12592,527.79,0,527.79,0,4.2687e-05,1.8525e-09,0,2.1737e-05,7.9908e-06,1.4602e+07,482.09,0,7.2528e+06,351.96,527.79,1
1820,0.27,12139,1,12139,1,6.3069e-06,4.3121e-12,0,3.866e-05,-1.1485e-06,-1137.5,5.8955,0,1.3157e+07,-399.43,12138,13096,1,13096,1,8.038e-05,5.4043e-09,0,8.038e-05,1.2719e-05,2.2854e+07,1480.5,0,2.7561e+07,111.47,13095,12138,1,12138,1,6.3066e-06,-2.1838e-12,0,3.8407e-05,-1.1408e-06,2.0473e+06,-0.54094,0,1.3198e+07,-377.06,12137,11203,1,11203,1,-6.7763e-05,-4.1446e-09,0,1.9213e-06,-1.5021e-05,-2.7561e+07,-1135,0,7.8537e+05,-1405.1,11202,11683,1,11683,1,-3.2099e-05,-4.3574e-10,0,1.9202e-05,-8.337e-06,-1.3054e+07,-117.69,0,6.8638e+06,-637.75,11682,12593,1,12593,1,4.4713e-05,4.3607e-10,0,5.7607e-05,6.0364e-06,1.3198e+07,143.37,0,1.9228e+07,-119.37,12592,527.79,0,527.79,0,4.4331e-05,1.4677e-09,0,2.2574e-05,8.2984e-06,1.5164e+07,391.45,0,7.5319e+06,290.42,527.79,1
1820,0.28,12139,1,12139,1,6.5411e-06,-3.0551e-10,0,4.0093e-05,-1.1911e-06,-1034.3,-87.573,0,1.3645e+07,-399.02,12138,13096,1,13096,1,8.3361e-05,3.9529e-09,0,8.3361e-05,1.319e-05,2.3701e+07,1082.7,0,2.8583e+07,78.11,13095,12138,1,12138,1,6.5408e-06,-2.195e-10,0,3.983e-05,-1.1827e-06,2.1234e+06,-64.515,0,1.3688e+07,-368.66,12137,11203,1,11203,1,-7.0275e-05,-5.1773e-09,0,1.9925e-06,-1.5582e-05,-2.8583e+07,-1417.9,0,8.1442e+05,-2330.1,11202,11683,1,11683,1,-3.3288e-05,-7.5976e-10,0,1.9914e-05,-8.646e-06,-1.3538e+07,-230.74,0,7.118e+06,-604.28,11682,12593,1,12593,1,4.6371e-05,1.955e-10,0,5.9744e-05,6.2603e-06,1.3688e+07,57.078,0,1.9941e+07,-125.96,12592,527.79,0,527.79,0,4.5974e-05,1.1969e-09,0,2.3411e-05,8.6061e-06,1.5726e+07,321.65,0,7.8112e+06,314.21,527.79,1
1820,0.29,12139,1,12139,1,6.7797e-06,-3.6133e-10,0,4.1542e-05,-1.2344e-06,-283.08,-104.24,0,1.4138e+07,-354.46,12138,13096,1,13096,1,8.6372e-05,1.5831e-09,0,8.6372e-05,1.3666e-05,2.4558e+07,379.16,0,2.9615e+07,86.443,13095,12138,1,12138,1,6.7795e-06,-3.2975e-10,0,4.1267e-05,-1.2257e-06,2.2009e+06,-92.571,0,1.4183e+07,-286.58,12137,11203,1,11203,1,-7.2812e-05,-3.3881e-09,0,2.0631e-06,-1.6144e-05,-2.9615e+07,-1108.5,0,8.4338e+05,-2005.9,11202,11683,1,11683,1,-3.4488e-05,-6.4997e-10,0,2.0634e-05,-8.9579e-06,-1.4026e+07,-172.39,0,7.3748e+06,-559.06,11682,12593,1,12593,1,4.8047e-05,6.7599e-11,0,6.1902e-05,6.4861e-06,1.4183e+07,21.342,0,2.0661e+07,-111.42,12592,527.79,0,527.79,0,4.7636e-05,6.0539e-10,0,2.4258e-05,8.9171e-06,1.6294e+07,190.99,0,8.0934e+06,288.3,527.79,1
1820,0.3,12139,1,12139,1,7.0082e-06,3.559e-11,0,4.2956e-05,-1.276e-06,-1103.5,4.2402,0,1.462e+07,-364.53,12138,13096,1,13096,1,8.9314e-05,5.0116e-09,0,8.9314e-05,1.4132e-05,2.5394e+07,1372.9,0,3.0624e+07,67.525,13095,12138,1,12138,1,7.0079e-06,-1.6252e-11,0,4.2675e-05,-1.2672e-06,2.2751e+06,-4.6687,0,1.4665e+07,-338.3,12137,11203,1,11203,1,-7.5294e-05,-4.3583e-09,0,2.1346e-06,-1.669e-05,-3.0624e+07,-1193.7,0,8.7258e+05,-1109.4,11202,11683,1,11683,1,-3.5666e-05,-5.7431e-10,0,2.1336e-05,-9.2632e-06,-1.4505e+07,-166.38,0,7.6264e+06,-550.69,11682,12593,1,12593,1,4.9682e-05,3.6134e-10,0,6.401e-05,6.7074e-06,1.4665e+07,118.28,0,2.1365e+07,-124.92,12592,527.79,0,527.79,0,4.9257e-05,1.4873e-09,0,2.5083e-05,9.2205e-06,1.6849e+07,398.14,0,8.369e+06,266.63,527.79,1
1820,0.31,12139,1,12139,1,7.2424e-06,-5.0223e-10,0,4.4392e-05,-1.3185e-06,-1166.6,-133.31,0,1.5108e+07,-353.14,12138,13096,1,13096,1,9.2296e-05,3.5746e-09,0,9.2296e-05,1.4604e-05,2.6242e+07,979.17,0,3.1647e+07,18.173,13095,12138,1,12138,1,7.2418e-06,-1.9053e-10,0,4.4101e-05,-1.3095e-06,2.351e+06,-62.705,0,1.5155e+07,-341.41,12137,11203,1,11203,1,-7.781e-05,-4.6452e-09,0,2.206e-06,-1.7248e-05,-3.1647e+07,-1272.2,0,9.0177e+05,-1021,11202,11683,1,11683,1,-3.6858e-05,-1.0002e-09,0,2.2049e-05,-9.573e-06,-1.499e+07,-257.03,0,7.8814e+06,-548.53,11682,12593,1,12593,1,5.1342e-05,7.573e-11,0,6.6149e-05,6.9316e-06,1.5155e+07,25.121,0,2.2079e+07,-114.88,12592,527.79,0,527.79,0,5.0904e-05,1.1897e-09,0,2.5921e-05,9.5287e-06,1.7412e+07,317.09,0,8.6487e+06,242.53,527.79,1
1820,0.32,12139,1,12139,1,7.482e-06,-4.9333e-10,0,4.5844e-05,-1.3619e-06,-175.1,-140.07,0,1.5602e+07,-251.16,12138,13096,1,13096,1,9.5316e-05,1.4786e-09,0,9.5316e-05,1.5081e-05,2.7101e+07,483.63,0,3.2681e+07,300.58,13095,12138,1,12138,1,7.4818e-06,-4.3589e-10,0,4.554e-05,-1.3525e-06,2.4289e+06,-126.67,0,1.5651e+07,-202.58,12137,11203,1,11203,1,-8.0351e-05,-3.703e-09,0,2.2764e-06,-1.7813e-05,-3.2681e+07,-1209.2,0,9.3051e+05,-1330.5,11202,11683,1,11683,1,-3.8058e-05,-1.0293e-09,0,2.277e-05,-9.8853e-06,-1.5478e+07,-280.74,0,8.1384e+06,-378.46,11682,12593,1,12593,1,5.3022e-05,7.3389e-11,0,6.831e-05,7.1576e-06,1.5651e+07,20.555,0,2.28e+07,-82.821,12592,527.79,0,527.79,0,5.2568e-05,7.3554e-10,0,2.6769e-05,9.8399e-06,1.7981e+07,229.7,0,8.9313e+06,221.97,527.79,1
1820,0.33,12139,1,12139,1,7.7153e-06,-6.7527e-11,0,4.7273e-05,-1.4043e-06,-176.59,-10.91,0,1.6088e+07,-247.52,12138,13096,1,13096,1,9.8285e-05,1.5273e-09,0,9.8285e-05,1.5551e-05,2.7945e+07,498.78,0,3.37e+07,47.543,13095,12138,1,12138,1,7.7148e-06,-1.0056e-10,0,4.6961e-05,-1.3948e-06,2.5046e+06,-29.006,0,1.6139e+07,-209.72,12137,11203,1,11203,1,-8.2855e-05,-1.4035e-09,0,2.3473e-06,-1.8366e-05,-3.37e+07,-455.81,0,9.5953e+05,-735.22,11202,11683,1,11683,1,-3.9246e-05,-3.4654e-10,0,2.348e-05,-1.0194e-05,-1.5961e+07,-99.918,0,8.3923e+06,-383.76,11682,12593,1,12593,1,5.4676e-05,1.7655e-10,0,7.0442e-05,7.3808e-06,1.6139e+07,54.256,0,2.3512e+07,-99.626,12592,527.79,0,527.79,0,5.4207e-05,5.0209e-10,0,2.7604e-05,1.0147e-05,1.8542e+07,154.26,0,9.2098e+06,182.2,527.79,1
1820,0.34,12139,1,12139,1,7.9501e-06,-8.7055e-11,0,4.8711e-05,-1.4472e-06,-133.88,-23.157,0,1.6578e+07,-311.28,12138,13096,1,13096,1,0.00010128,2.1352e-09,0,0.00010128,1.6024e-05,2.8795e+07,697.24,0,3.4724e+07,241.23,13095,12138,1,12138,1,7.9497e-06,-2.3148e-11,0,4.8389e-05,-1.4374e-06,2.5808e+06,-7.1659,0,1.663e+07,-231.01,12137,11203,1,11203,1,-8.5375e-05,-2.953e-09,0,2.4187e-06,-1.8929e-05,-3.4724e+07,-965.54,0,9.8871e+05,-2124.9,11202,11683,1,11683,1,-4.0439e-05,-5.1391e-10,0,2.4194e-05,-1.0504e-05,-1.6446e+07,-143.48,0,8.6475e+06,-445.02,11682,12593,1,12593,1,5.6339e-05,3.5892e-10,0,7.2583e-05,7.6051e-06,1.663e+07,100.91,0,2.4226e+07,-105.23,12592,527.79,0,527.79,0,5.5855e-05,6.9527e-10,0,2.8443e-05,1.0456e-05,1.9106e+07,218.06,0,9.4899e+06,280.07,527.79,1
1820,0.35,12139,1,12139,1,8.1796e-06,-1.8489e-10,0,5.0118e-05,-1.4892e-06,-241.22,-54.616,0,1.7057e+07,-410.59,12138,13096,1,13096,1,0.0001042,4.8838e-09,0,0.0001042,1.6487e-05,2.9628e+07,1337.8,0,3.5729e+07,112.09,13095,12138,1,12138,1,8.1792e-06,-7.6722e-11,0,4.9789e-05,-1.4789e-06,2.6553e+06,-24.319,0,1.7111e+07,-319.54,12137,11203,1,11203,1,-8.7844e-05,-5.8142e-09,0,2.4894e-06,-1.9476e-05,-3.5729e+07,-1592.6,0,1.0176e+06,-2391.1,11202,11683,1,11683,1,-4.1609e-05,-8.1764e-10,0,2.4894e-05,-1.0808e-05,-1.6922e+07,-238.93,0,8.8977e+06,-630.16,11682,12593,1,12593,1,5.7968e-05,4.8665e-10,0,7.4683e-05,7.8253e-06,1.7111e+07,140.02,0,2.4927e+07,-66.941,12592,527.79,0,527.79,0,5.7469e-05,1.4853e-09,0,2.9265e-05,1.0758e-05,1.9658e+07,407.18,0,9.7641e+06,406.51,527.79,1
1820,0.36,12139,1,12139,1,8.4147e-06,-5.6105e-11,0,5.1559e-05,-1.5315e-06,-244.09,-14.934,0,1.7547e+07,-215.52,12138,13096,1,13096,1,0.0001072,2.7667e-09,0,0.0001072,1.6961e-05,3.0479e+07,904.76,0,3.6755e+07,213.59,13095,12138,1,12138,1,8.4141e-06,-1.3412e-11,0,5.1219e-05,-1.5215e-06,2.7316e+06,-3.7593,0,1.7603e+07,-184.12,12137,11203,1,11203,1,-9.0368e-05,-2.559e-09,0,2.561e-06,-2.0033e-05,-3.6755e+07,-837.7,0,1.0468e+06,-1310.1,11202,11683,1,11683,1,-4.2804e-05,-3.3841e-10,0,2.561e-05,-1.1118e-05,-1.7408e+07,-92.496,0,9.1532e+06,-329.68,11682,12593,1,12593,1,5.9634e-05,2.5419e-10,0,7.6829e-05,8.0502e-06,1.7603e+07,73.624,0,2.5643e+07,-64.076,12592,527.79,0,527.79,0,5.9122e-05,7.4148e-10,0,3.0107e-05,1.1067e-05,2.0223e+07,237.81,0,1.0045e+07,203.99,527.79,1
1820,0.37,12139,1,12139,1,8.6467e-06,-1.0881e-10,0,5.2981e-05,-1.5739e-06,-263.7,-30.822,0,1.8031e+07,-297.22,12138,13096,1,13096,1,0.00011015,4.7916e-09,0,0.00011015,1.7429e-05,3.132e+07,1312.7,0,3.7769e+07,111.17,13095,12138,1,12138,1,8.6464e-06,-1.0319e-10,0,5.2633e-05,-1.5632e-06,2.807e+06,-32.081,0,1.8089e+07,-256.32,12137,11203,1,11203,1,-9.2861e-05,-4.0955e-09,0,2.6313e-06,-2.0585e-05,-3.7769e+07,-1167.4,0,1.0756e+06,-1352.1,11202,11683,1,11683,1,-4.3986e-05,-8.0658e-10,0,2.6315e-05,-1.1425e-05,-1.7889e+07,-241.69,0,9.406e+06,-486.34,11682,12593,1,12593,1,6.1279e-05,4.9173e-10,0,7.8949e-05,8.2723e-06,1.8089e+07,149.49,0,2.6351e+07,-77.409,12592,527.79,0,527.79,0,6.0752e-05,1.412e-09,0,3.0937e-05,1.1372e-05,2.0781e+07,383.27,0,1.0322e+07,240.08,527.79,1
1820,0.38,12139,1,12139,1,8.8816e-06,-1.406e-10,0,5.4419e-05,-1.6165e-06,-190.67,-40.717,0,1.852e+07,-235.9,12138,13096,1,13096,1,0.00011314,2.3134e-09,0,0.00011314,1.7902e-05,3.2169e+07,633.77,0,3.8793e+07,123.21,13095,12138,1,12138,1,8.8812e-06,-8.2538e-11,0,5.406e-05,-1.606e-06,2.8832e+06,-23.694,0,1.8579e+07,-209.45,12137,11203,1,11203,1,-9.5379e-05,-2.2462e-09,0,2.7028e-06,-2.1142e-05,-3.8793e+07,-615.28,0,1.1048e+06,-794.49,11202,11683,1,11683,1,-4.5179e-05,-2.8885e-10,0,2.703e-05,-1.1734e-05,-1.8374e+07,-87.647,0,9.661e+06,-343.54,11682,12593,1,12593,1,6.2942e-05,5.7172e-11,0,8.1091e-05,8.4967e-06,1.8579e+07,17.335,0,2.7066e+07,-80.325,12592,527.79,0,527.79,0,6.2401e-05,6.0139e-10,0,3.1776e-05,1.168e-05,2.1345e+07,164.21,0,1.0602e+07,176.1,527.79,1
1820,0.39,12139,1,12139,1,9.1165e-06,-4.5191e-10,0,5.5856e-05,-1.6588e-06,2.324,-130.37,0,1.9009e+07,-84.844,12138,13096,1,13096,1,0.00011613,2.0076e-09,0,0.00011613,1.8375e-05,3.302e+07,573.32,0,3.9819e+07,148.6,13095,12138,1,12138,1,9.1163e-06,-3.0108e-10,0,5.5488e-05,-1.648e-06,2.9596e+06,-87.606,0,1.907e+07,-53.141,12137,11203,1,11203,1,-9.79e-05,-2.6602e-09,0,2.7737e-06,-2.17e-05,-3.9819e+07,-758.17,0,1.1338e+06,-478.16,11202,11683,1,11683,1,-4.6372e-05,-8.9105e-10,0,2.7744e-05,-1.2044e-05,-1.8859e+07,-266.69,0,9.9161e+06,-166.05,11682,12593,1,12593,1,6.4605e-05,3.1877e-11,0,8.3233e-05,8.7212e-06,1.907e+07,10.2,0,2.7781e+07,-0.011718,12592,527.79,0,527.79,0,6.4048e-05,7.418e-10,0,3.2615e-05,1.1989e-05,2.1908e+07,206.64,0,1.0882e+07,104.25,527.79,1
1820,0.4,12139,1,12139,1,9.3517e-06,-8.8441e-10,0,5.7296e-05,-1.7021e-06,6.1646,-257.13,0,1.9499e+07,-278.28,12138,13096,1,13096,1,0.00011913,5.0696e-10,0,0.00011913,1.885e-05,3.3872e+07,121.43,0,4.0847e+07,80.532,13095,12138,1,12138,1,9.3512e-06,-9.3838e-10,0,5.6918e-05,-1.6905e-06,3.0358e+06,-273.79,0,1.9562e+07,-205.27,12137,11203,1,11203,1,-0.00010043,-3.3031e-09,0,2.8448e-06,-2.2265e-05,-4.0847e+07,-941.3,0,1.1628e+06,-1946.8,11202,11683,1,11683,1,-4.7566e-05,-1.3083e-09,0,2.8459e-05,-1.2355e-05,-1.9345e+07,-390.47,0,1.0172e+07,-452.45,11682,12593,1,12593,1,6.627e-05,-3.874e-10,0,8.5378e-05,8.9458e-06,1.9562e+07,-114.94,0,2.8497e+07,-26.027,12592,527.79,0,527.79,0,6.57e-05,6.7482e-10,0,3.3456e-05,1.2298e-05,2.2473e+07,193.46,0,1.1162e+07,288.87,527.79,1
1820,0.41,12139,1,12139,1,9.5843e-06,-5.8653e-10,0,5.8723e-05,-1.7441e-06,-75.858,-170.51,0,1.9985e+07,-164.74,12138,13096,1,13096,1,0.0001221,8.0522e-10,0,0.0001221,1.9319e-05,3.4715e+07,229.78,0,4.1863e+07,89.083,13095,12138,1,12138,1,9.584e-06,-5.4336e-10,0,5.8336e-05,-1.7323e-06,3.1114e+06,-159.23,0,2.0049e+07,-96.902,12137,11203,1,11203,1,-0.00010293,-2.7401e-09,0,2.9162e-06,-2.2818e-05,-4.1863e+07,-780.92,0,1.192e+06,-1754.7,11202,11683,1,11683,1,-4.8752e-05,-8.7645e-10,0,2.9168e-05,-1.2662e-05,-1.9827e+07,-268.6,0,1.0425e+07,-249.57,11682,12593,1,12593,1,6.7921e-05,-2.0307e-10,0,8.7504e-05,9.1689e-06,2.0049e+07,-57.897,0,2.9207e+07,-0.83894,12592,527.79,0,527.79,0,6.7336e-05,5.1423e-10,0,3.429e-05,1.2604e-05,2.3033e+07,144.4,0,1.144e+07,221.63,527.79,1
1820,0.42,12139,1,12139,1,9.8166e-06,-4.8368e-10,0,6.0147e-05,-1.7865e-06,-120.26,-143.81,0,2.047e+07,-184.63,12138,13096,1,13096,1,0.00012506,3.0928e-09,0,0.00012506,1.9787e-05,3.5557e+07,846.67,0,4.2879e+07,57.238,13095,12138,1,12138,1,9.8164e-06,-2.7229e-10,0,5.9751e-05,-1.7745e-06,3.1868e+06,-75.513,0,2.0536e+07,-153.6,12137,11203,1,11203,1,-0.00010542,-4.3076e-09,0,2.987e-06,-2.3368e-05,-4.2879e+07,-1209.3,0,1.2209e+06,-900.9,11202,11683,1,11683,1,-4.9935e-05,-1.0144e-09,0,2.9876e-05,-1.2969e-05,-2.0308e+07,-310.11,0,1.0678e+07,-322.04,11682,12593,1,12593,1,6.9569e-05,1.0765e-10,0,8.9628e-05,9.3913e-06,2.0536e+07,30.705,0,2.9915e+07,-37.308,12592,527.79,0,527.79,0,6.8969e-05,1.0748e-09,0,3.5121e-05,1.291e-05,2.3591e+07,302.78,0,1.1718e+07,159.06,527.79,1
1820,0.43,12139,1,12139,1,1.005e-05,-2.7319e-10,0,6.1577e-05,-1.8289e-06,-115.41,-79.793,0,2.0957e+07,-175.45,12138,13096,1,13096,1,0.00012803,4.112e-09,0,0.00012803,2.0257e-05,3.6402e+07,1126.5,0,4.3897e+07,152.28,13095,12138,1,12138,1,1.005e-05,-2.0536e-10,0,6.1172e-05,-1.8165e-06,3.2625e+06,-62.375,0,2.1024e+07,-139.87,12137,11203,1,11203,1,-0.00010793,-3.851e-09,0,3.0582e-06,-2.3924e-05,-4.3897e+07,-1054.9,0,1.2501e+06,-762.86,11202,11683,1,11683,1,-5.1122e-05,-8.2238e-10,0,3.0586e-05,-1.3278e-05,-2.0791e+07,-255.65,0,1.0932e+07,-291.72,11682,12593,1,12593,1,7.1222e-05,1.6095e-10,0,9.1758e-05,9.6145e-06,2.1024e+07,45.515,0,3.0626e+07,-34.037,12592,527.79,0,527.79,0,7.0609e-05,1.0741e-09,0,3.5956e-05,1.3217e-05,2.4152e+07,296.14,0,1.1997e+07,164.74,527.79,1
1820,0.44,12139,1,12139,1,1.0285e-05,-2.674e-10,0,6.3013e-05,-1.8716e-06,-51.436,-79.647,0,2.1445e+07,-197.16,12138,13096,1,13096,1,0.00013101,3.432e-09,0,0.00013101,2.073e-05,3.7251e+07,951.14,0,4.4921e+07,39.37,13095,12138,1,12138,1,1.0284e-05,-2.3758e-10,0,6.2599e-05,-1.8591e-06,3.3388e+06,-70.534,0,2.1514e+07,-183.76,12137,11203,1,11203,1,-0.00011044,-2.5058e-09,0,3.1292e-06,-2.448e-05,-4.4921e+07,-695.56,0,1.2791e+06,-640.13,11202,11683,1,11683,1,-5.2314e-05,-7.0158e-10,0,3.1299e-05,-1.3587e-05,-2.1276e+07,-214.22,0,1.1187e+07,-326.03,11682,12593,1,12593,1,7.2884e-05,9.9049e-11,0,9.3898e-05,9.8387e-06,2.1514e+07,27.1,0,3.1341e+07,-42.834,12592,527.79,0,527.79,0,7.2256e-05,7.7303e-10,0,3.6795e-05,1.3525e-05,2.4716e+07,214.78,0,1.2276e+07,158.87,527.79,1
1820,0.45,12139,1,12139,1,1.052e-05,-8.3385e-10,0,6.4454e-05,-1.9145e-06,9.3477,-245.92,0,2.1936e+07,-195.05,12138,13096,1,13096,1,0.00013402,1.3944e-09,0,0.00013402,2.1205e-05,3.8104e+07,382.32,0,4.595e+07,158.85,13095,12138,1,12138,1,1.052e-05,-7.493e-10,0,6.403e-05,-1.9016e-06,3.4152e+06,-221.86,0,2.2006e+07,-134.69,12137,11203,1,11203,1,-0.00011298,-3.2783e-09,0,3.2003e-06,-2.5043e-05,-4.595e+07,-934.98,0,1.3081e+06,-1207.2,11202,11683,1,11683,1,-5.351e-05,-1.4827e-09,0,3.2015e-05,-1.3898e-05,-2.1762e+07,-443.72,0,1.1443e+07,-322.29,11682,12593,1,12593,1,7.4551e-05,-1.4397e-10,0,9.6046e-05,1.0064e-05,2.2006e+07,-38.321,0,3.2057e+07,-39.283,12592,527.79,0,527.79,0,7.3908e-05,8.1855e-10,0,3.7636e-05,1.3834e-05,2.5281e+07,239.78,0,1.2557e+07,191.24,527.79,1
1820,0.46,12139,1,12139,1,1.0751e-05,-6.0592e-10,0,6.587e-05,-1.9563e-06,109.22,-176.95,0,2.2417e+07,-94.049,12138,13096,1,13096,1,0.00013696,4.3315e-09,0,0.00013696,2.167e-05,3.894e+07,1234.4,0,4.6958e+07,133.1,13095,12138,1,12138,1,1.0751e-05,-3.5572e-10,0,6.5437e-05,-1.9436e-06,3.4903e+06,-107.51,0,2.249e+07,-39.884,12137,11203,1,11203,1,-0.00011545,-4.7259e-09,0,3.2707e-06,-2.559e-05,-4.6958e+07,-1347.2,0,1.3369e+06,-717.35,11202,11683,1,11683,1,-5.4685e-05,-1.4659e-09,0,3.2719e-05,-1.4203e-05,-2.224e+07,-430.59,0,1.1694e+07,-158.18,11682,12593,1,12593,1,7.6188e-05,1.3857e-10,0,9.8155e-05,1.0285e-05,2.249e+07,40.794,0,3.2762e+07,7.7242,12592,527.79,0,527.79,0,7.5531e-05,1.2884e-09,0,3.8463e-05,1.4138e-05,2.5836e+07,367.51,0,1.2833e+07,150.26,527.79,1
1820,0.47,12139,1,12139,1,1.0986e-05,-5.046e-11,0,6.731e-05,-1.9992e-06,-6.7001,-14.377,0,2.2908e+07,-173.03,12138,13096,1,13096,1,0.00013994,1.8405e-09,0,0.00013994,2.2143e-05,3.979e+07,525.74,0,4.7982e+07,112.72,13095,12138,1,12138,1,1.0986e-05,-4.4398e-11,0,6.6867e-05,-1.9858e-06,3.5666e+06,-12.978,0,2.2981e+07,-97.36,12137,11203,1,11203,1,-0.00011797,-1.5827e-09,0,3.3424e-06,-2.6152e-05,-4.7982e+07,-450.82,0,1.3662e+06,-1432.4,11202,11683,1,11683,1,-5.5881e-05,-1.428e-10,0,3.3433e-05,-1.4514e-05,-2.2727e+07,-42.249,0,1.195e+07,-286.81,11682,12593,1,12593,1,7.7853e-05,3.5111e-11,0,0.0001003,1.051e-05,2.2981e+07,11.244,0,3.3477e+07,-24.758,12592,527.79,0,527.79,0,7.7183e-05,3.1544e-10,0,3.9304e-05,1.4447e-05,2.6401e+07,87.688,0,1.3113e+07,197.68,527.79,1
1820,0.48,12139,1,12139,1,1.122e-05,1.5624e-10,0,6.8742e-05,-2.0414e-06,4.6816,43.435,0,2.3395e+07,-55.87,12138,13096,1,13096,1,0.00014292,3.3252e-09,0,0.00014292,2.2614e-05,4.0637e+07,940.97,0,4.9004e+07,174.07,13095,12138,1,12138,1,1.122e-05,3.8974e-11,0,6.829e-05,-2.0278e-06,3.6424e+06,12.131,0,2.347e+07,-0.50872,12137,11203,1,11203,1,-0.00012048,-1.8344e-09,0,3.4137e-06,-2.6709e-05,-4.9004e+07,-522.86,0,1.3953e+06,-1561.7,11202,11683,1,11683,1,-5.707e-05,-3.2034e-10,0,3.4145e-05,-1.4822e-05,-2.321e+07,-92.673,0,1.2204e+07,-112.73,11682,12593,1,12593,1,7.9509e-05,5.3682e-10,0,0.00010243,1.0733e-05,2.347e+07,153.28,0,3.419e+07,47.495,12592,527.79,0,527.79,0,7.8825e-05,8.0077e-10,0,4.014e-05,1.4755e-05,2.6963e+07,227.31,0,1.3392e+07,179.25,527.79,1
1820,0.49,12139,1,12139,1,1.1456e-05,-3.7191e-10,0,7.0193e-05,-2.0846e-06,-34.938,-107.76,0,2.3889e+07,-100.73,12138,13096,1,13096,1,0.00014594,5.7229e-10,0,0.00014594,2.3091e-05,4.1494e+07,187.58,0,5.0038e+07,205.78,13095,12138,1,12138,1,1.1456e-05,-3.309e-10,0,6.9729e-05,-2.0703e-06,3.7192e+06,-100.73,0,2.3965e+07,-30.866,12137,11203,1,11203,1,-0.00012303,-1.3848e-09,0,3.4855e-06,-2.7273e-05,-5.0038e+07,-452.7,0,1.4247e+06,-1606.1,11202,11683,1,11683,1,-5.8273e-05,-7.1555e-10,0,3.4865e-05,-1.5135e-05,-2.3699e+07,-212.27,0,1.2461e+07,-157.41,11682,12593,1,12593,1,8.1186e-05,1.4899e-12,0,0.00010459,1.0959e-05,2.3965e+07,0.3153,0,3.4911e+07,-0.54546,12592,527.79,0,527.79,0,8.0488e-05,4.3675e-10,0,4.0987e-05,1.5066e-05,2.7532e+07,127.03,0,1.3675e+07,204.98,527.79,1
1820,0.5,12139,1,12139,1,1.1689e-05,-3.7141e-10,0,7.1617e-05,-2.1269e-06,-8.1763,-106.36,0,2.4373e+07,-125.8,12138,13096,1,13096,1,0.0001489,1.0742e-09,0,0.0001489,2.356e-05,4.2336e+07,305.45,0,5.1053e+07,179.37,13095,12138,1,12138,1,1.1689e-05,-2.6662e-10,0,7.1145e-05,-2.1127e-06,3.7947e+06,-78.352,0,2.4451e+07,-73.116,12137,11203,1,11203,1,-0.00012552,-2.5834e-09,0,3.5562e-06,-2.7824e-05,-5.1053e+07,-736.17,0,1.4536e+06,-1036.3,11202,11683,1,11683,1,-5.9456e-05,-6.7544e-10,0,3.5573e-05,-1.5442e-05,-2.4181e+07,-205.23,0,1.2714e+07,-240.22,11682,12593,1,12593,1,8.2834e-05,-2.7207e-11,0,0.00010672,1.1182e-05,2.4451e+07,-7.2177,0,3.5619e+07,7.3687,12592,527.79,0,527.79,0,8.2121e-05,5.2845e-10,0,4.1819e-05,1.5372e-05,2.809e+07,148.67,0,1.3952e+07,166.67,527.79,1
1820,0.51,12139,1,12139,1,1.1921e-05,-3.7254e-10,0,7.3035e-05,-2.169e-06,28.729,-108.15,0,2.4856e+07,-93.33,12138,13096,1,13096,1,0.00015185,3.1876e-09,0,0.00015185,2.4027e-05,4.3175e+07,909.7,0,5.2065e+07,104.39,13095,12138,1,12138,1,1.192e-05,-1.9232e-10,0,7.2555e-05,-2.1544e-06,3.8699e+06,-56.247,0,2.4936e+07,-50.698,12137,11203,1,11203,1,-0.00012801,-4.0188e-09,0,3.6267e-06,-2.8377e-05,-5.2065e+07,-1145.5,0,1.4824e+06,-1446.1,11202,11683,1,11683,1,-6.0634e-05,-1.0672e-09,0,3.6277e-05,-1.5748e-05,-2.466e+07,-313.69,0,1.2966e+07,-188.22,11682,12593,1,12593,1,8.4475e-05,2.4863e-10,0,0.00010883,1.1404e-05,2.4936e+07,73.2,0,3.6325e+07,25.031,12592,527.79,0,527.79,0,8.3747e-05,1.1411e-09,0,4.2647e-05,1.5676e-05,2.8646e+07,326.1,0,1.4229e+07,155.83,527.79,1
1820,0.52,12139,1,12139,1,1.2155e-05,3.3019e-10,0,7.4472e-05,-2.2114e-06,5.8397,95.96,0,2.5345e+07,-16.034,12138,13096,1,13096,1,0.00015484,1.7979e-09,0,0.00015484,2.4499e-05,4.4024e+07,512.47,0,5.3088e+07,194.69,13095,12138,1,12138,1,1.2155e-05,2.8624e-10,0,7.3981e-05,-2.1965e-06,3.946e+06,86.863,0,2.5426e+07,4.2705,12137,11203,1,11203,1,-0.00013053,-1.2154e-09,0,3.6981e-06,-2.8932e-05,-5.3088e+07,-346.45,0,1.5116e+06,-477.65,11202,11683,1,11683,1,-6.1826e-05,1.0152e-10,0,3.6991e-05,-1.6057e-05,-2.5144e+07,28.857,0,1.3221e+07,-51.184,11682,12593,1,12593,1,8.6136e-05,5.122e-10,0,0.00011097,1.1628e-05,2.5426e+07,159.63,0,3.7039e+07,39.23,12592,527.79,0,527.79,0,8.5395e-05,3.0856e-10,0,4.3486e-05,1.5984e-05,2.921e+07,87.301,0,1.4509e+07,94.014,527.79,1
1820,0.53,12139,1,12139,1,1.2392e-05,-3.8202e-10,0,7.5924e-05,-2.2546e-06,-0.84055,-109.63,0,2.5839e+07,-53.796,12138,13096,1,13096,1,0.00015785,1.1321e-09,0,0.00015785,2.4976e-05,4.4882e+07,373.4,0,5.4123e+07,344.67,13095,12138,1,12138,1,1.2392e-05,-1.7649e-10,0,7.5423e-05,-2.2396e-06,4.023e+06,-51.682,0,2.5921e+07,-19.54,12137,11203,1,11203,1,-0.00013307,-2.5876e-09,0,3.7699e-06,-2.9496e-05,-5.4123e+07,-794.77,0,1.541e+06,-513.2,11202,11683,1,11683,1,-6.3031e-05,-9.843e-10,0,3.7711e-05,-1.6371e-05,-2.5634e+07,-281.88,0,1.3479e+07,-99.178,11682,12593,1,12593,1,8.7814e-05,1.7761e-10,0,0.00011313,1.1854e-05,2.5921e+07,55.622,0,3.7761e+07,19.874,12592,527.79,0,527.79,0,8.706e-05,8.1376e-10,0,4.4334e-05,1.6296e-05,2.978e+07,237.43,0,1.4792e+07,144.2,527.79,1
1820,0.54,12139,1,12139,1,1.2625e-05,-7.3613e-10,0,7.7349e-05,-2.2968e-06,15.354,-213.58,0,2.6324e+07,4.9427,12138,13096,1,13096,1,0.00016082,1.7434e-10,0,0.00016082,2.5446e-05,4.5725e+07,54.275,0,5.514e+07,120.63,13095,12138,1,12138,1,1.2624e-05,-7.9872e-10,0,7.6839e-05,-2.2812e-06,4.0985e+06,-241.35,0,2.6408e+07,15.934,12137,11203,1,11203,1,-0.00013557,-1.6565e-09,0,3.8408e-06,-3.0051e-05,-5.514e+07,-472.92,0,1.5699e+06,-814.11,11202,11683,1,11683,1,-6.4215e-05,-1.079e-09,0,3.842e-05,-1.6678e-05,-2.6116e+07,-321.21,0,1.3732e+07,-4.8855,11682,12593,1,12593,1,8.9464e-05,-4.05e-10,0,0.00011526,1.2077e-05,2.6408e+07,-114.92,0,3.847e+07,38.554,12592,527.79,0,527.79,0,8.8694e-05,4.3304e-10,0,4.5166e-05,1.6602e-05,3.0339e+07,123.46,0,1.5069e+07,73.882,527.79,1
1820,0.55,12139,1,12139,1,1.2856e-05,-2.971e-10,0,7.8764e-05,-2.3388e-06,37.71,-86.666,0,2.6806e+07,10.7,12138,13096,1,13096,1,0.00016376,3.0992e-09,0,0.00016376,2.5911e-05,4.6562e+07,884.23,0,5.6149e+07,155,13095,12138,1,12138,1,1.2855e-05,-2.195e-10,0,7.8246e-05,-2.3229e-06,4.1735e+06,-60.65,0,2.6892e+07,16.29,12137,11203,1,11203,1,-0.00013805,-2.6621e-09,0,3.9112e-06,-3.0599e-05,-5.6149e+07,-758.9,0,1.5987e+06,-379.1,11202,11683,1,11683,1,-6.539e-05,-1.0082e-09,0,3.9123e-05,-1.6983e-05,-2.6594e+07,-295.22,0,1.3983e+07,-10.021,11682,12593,1,12593,1,9.1102e-05,2.4337e-10,0,0.00011737,1.2298e-05,2.6892e+07,72.891,0,3.9175e+07,39.182,12592,527.79,0,527.79,0,9.0317e-05,9.9932e-10,0,4.5992e-05,1.6905e-05,3.0894e+07,287.37,0,1.5345e+07,48.428,527.79,1
1820,0.56,12139,1,12139,1,1.3094e-05,3.7333e-11,0,8.0222e-05,-2.3821e-06,1.1149,12.101,0,2.7302e+07,-11.238,12138,13096,1,13096,1,0.00016679,2.6362e-09,0,0.00016679,2.639e-05,4.7423e+07,743.6,0,5.7188e+07,194.48,13095,12138,1,12138,1,1.3093e-05,5.5739e-11,0,7.9693e-05,-2.3662e-06,4.2508e+06,16.289,0,2.7389e+07,-12.678,12137,11203,1,11203,1,-0.0001406,-2.9341e-09,0,3.9832e-06,-3.1165e-05,-5.7188e+07,-837.1,0,1.6282e+06,-295.34,11202,11683,1,11683,1,-6.66e-05,-5.7391e-10,0,3.9847e-05,-1.7297e-05,-2.7086e+07,-169.53,0,1.4242e+07,-38.811,11682,12593,1,12593,1,9.2786e-05,7.2329e-10,0,0.00011954,1.2525e-05,2.7389e+07,210.44,0,3.9899e+07,15.017,12592,527.79,0,527.79,0,9.1989e-05,1.0884e-09,0,4.6844e-05,1.7218e-05,3.1466e+07,313.25,0,1.5629e+07,59.82,527.79,1
1820,0.57,12139,1,12139,1,1.3323e-05,-4.449e-11,0,8.1631e-05,-2.4239e-06,18.032,-12.67,0,2.7781e+07,0.35528,12138,13096,1,13096,1,0.00016972,1.9734e-09,0,0.00016972,2.6854e-05,4.8255e+07,562.55,0,5.8191e+07,179.47,13095,12138,1,12138,1,1.3323e-05,-4.5143e-11,0,8.1093e-05,-2.4075e-06,4.3254e+06,-12.198,0,2.787e+07,14.129,12137,11203,1,11203,1,-0.00014307,-2.167e-09,0,4.0536e-06,-3.1712e-05,-5.8191e+07,-617.82,0,1.6569e+06,-248.61,11202,11683,1,11683,1,-6.777e-05,-3.6076e-10,0,4.0547e-05,-1.7601e-05,-2.7562e+07,-108.01,0,1.4492e+07,-37.742,11682,12593,1,12593,1,9.4417e-05,2.8675e-10,0,0.00012164,1.2746e-05,2.787e+07,81.58,0,4.06e+07,45.731,12592,527.79,0,527.79,0,9.3604e-05,5.6012e-10,0,4.7666e-05,1.7521e-05,3.2018e+07,159.69,0,1.5903e+07,67.538,527.79,1
1820,0.58,12139,1,12139,1,1.3558e-05,4.9358e-10,0,8.3071e-05,-2.4667e-06,-3.5225,142.9,0,2.8271e+07,-15.188,12138,13096,1,13096,1,0.00017272,3.3768e-09,0,0.00017272,2.7328e-05,4.9108e+07,947.46,0,5.9219e+07,176.57,13095,12138,1,12138,1,1.3558e-05,1.7899e-10,0,8.2524e-05,-2.4502e-06,4.4017e+06,53.942,0,2.8362e+07,26,12137,11203,1,11203,1,-0.0001456,-1.0142e-09,0,4.1251e-06,-3.2274e-05,-5.9219e+07,-289.06,0,1.6862e+06,-1449.1,11202,11683,1,11683,1,-6.8966e-05,-1.1373e-10,0,4.1262e-05,-1.7911e-05,-2.8048e+07,-32.475,0,1.4748e+07,-33.25,11682,12593,1,12593,1,9.6083e-05,9.6663e-10,0,0.00012379,1.2971e-05,2.8362e+07,281.33,0,4.1317e+07,64.97,12592,527.79,0,527.79,0,9.5255e-05,8.7825e-10,0,4.8507e-05,1.783e-05,3.2583e+07,252,0,1.6184e+07,152.34,527.79,1
1820,0.59,12139,1,12139,1,1.3791e-05,-4.922e-10,0,8.4494e-05,-2.5089e-06,40.686,-143.06,0,2.8756e+07,48.149,12138,13096,1,13096,1,0.00017568,2.7835e-09,0,0.00017568,2.7797e-05,4.995e+07,792.31,0,6.0235e+07,176.8,13095,12138,1,12138,1,1.3791e-05,-3.1978e-10,0,8.3939e-05,-2.4918e-06,4.4772e+06,-93.7,0,2.8848e+07,48.253,12137,11203,1,11203,1,-0.0001481,-3.3362e-09,0,4.1958e-06,-3.2825e-05,-6.0235e+07,-949.18,0,1.715e+06,-127.94,11202,11683,1,11683,1,-7.0148e-05,-1.4478e-09,0,4.1969e-05,-1.8218e-05,-2.8529e+07,-426.15,0,1.5e+07,18.885,11682,12593,1,12593,1,9.773e-05,2.9068e-10,0,0.00012591,1.3193e-05,2.8848e+07,86.112,0,4.2025e+07,81.02,12592,527.79,0,527.79,0,9.6887e-05,1.2955e-09,0,4.9338e-05,1.8135e-05,3.3141e+07,373.86,0,1.6461e+07,44.847,527.79,1
1820,0.6,12139,1,12139,1,1.4025e-05,-9.2767e-10,0,8.593e-05,-2.5516e-06,-6.4385,-270.21,0,2.9245e+07,0.15248,12138,13096,1,13096,1,0.00017867,1.6562e-09,0,0.00017867,2.8269e-05,5.08e+07,473,0,6.1259e+07,136.74,13095,12138,1,12138,1,1.4025e-05,-7.9358e-10,0,8.5365e-05,-2.5344e-06,4.5532e+06,-235.56,0,2.9339e+07,7.8146,12137,11203,1,11203,1,-0.00015062,-3.06e-09,0,4.2672e-06,-3.3384e-05,-6.1259e+07,-872.53,0,1.7442e+06,-244.68,11202,11683,1,11683,1,-7.134e-05,-1.7017e-09,0,4.2683e-05,-1.8528e-05,-2.9014e+07,-504.31,0,1.5255e+07,-20.786,11682,12593,1,12593,1,9.939e-05,-8.816e-11,0,0.00012805,1.3417e-05,2.9339e+07,-26.227,0,4.2739e+07,33.893,12592,527.79,0,527.79,0,9.8534e-05,9.7227e-10,0,5.0177e-05,1.8444e-05,3.3704e+07,280.73,0,1.6741e+07,55.138,527.79,1
1820,0.61,12139,1,12139,1,1.4258e-05,-2.5698e-10,0,8.7358e-05,-2.5941e-06,-38.031,-74.685,0,2.9731e+07,-28.449,12138,13096,1,13096,1,0.00018163,3.2332e-09,0,0.00018163,2.8738e-05,5.1642e+07,922.88,0,6.2275e+07,98.129,13095,12138,1,12138,1,1.4258e-05,-1.1978e-10,0,8.6783e-05,-2.5767e-06,4.6288e+06,-36.154,0,2.9826e+07,-0.32399,12137,11203,1,11203,1,-0.00015311,-3.583e-09,0,4.3383e-06,-3.3937e-05,-6.2275e+07,-1021.3,0,1.7733e+06,-395.66,11202,11683,1,11683,1,-7.2525e-05,-7.4658e-10,0,4.3392e-05,-1.8836e-05,-2.9496e+07,-220.32,0,1.5509e+07,-49.218,11682,12593,1,12593,1,0.00010104,1.7615e-10,0,0.00013018,1.364e-05,2.9826e+07,54.685,0,4.3449e+07,29.62,12592,527.79,0,527.79,0,0.00010017,9.1401e-10,0,5.1011e-05,1.875e-05,3.4265e+07,256.35,0,1.7019e+07,89.097,527.79,1
1820,0.62,12139,1,12139,1,1.4492e-05,-5.4196e-10,0,8.8789e-05,-2.6365e-06,6.6919,-157.03,0,3.0218e+07,-13.441,12138,13096,1,13096,1,0.00018461,2.5857e-09,0,0.00018461,2.9209e-05,5.2489e+07,738.32,0,6.3296e+07,229.13,13095,12138,1,12138,1,1.4492e-05,-2.3645e-10,0,8.8206e-05,-2.6188e-06,4.7047e+06,-70.504,0,3.0315e+07,11.601,12137,11203,1,11203,1,-0.00015562,-4.3428e-09,0,4.4092e-06,-3.4494e-05,-6.3296e+07,-1237.6,0,1.8022e+06,-407.14,11202,11683,1,11683,1,-7.3714e-05,-1.3811e-09,0,4.4103e-05,-1.9145e-05,-2.9979e+07,-406.7,0,1.5763e+07,-69.702,11682,12593,1,12593,1,0.0001027,2.9973e-10,0,0.00013231,1.3864e-05,3.0315e+07,85.058,0,4.4161e+07,53.739,12592,527.79,0,527.79,0,0.00010181,1.311e-09,0,5.1846e-05,1.9057e-05,3.4826e+07,375.63,0,1.7298e+07,92.033,527.79,1
1820,0.63,12139,1,12139,1,1.4726e-05,8.4154e-11,0,9.0227e-05,-2.6794e-06,-72.68,24.456,0,3.0707e+07,-85.602,12138,13096,1,13096,1,0.00018759,3.0725e-09,0,0.00018759,2.9682e-05,5.3337e+07,876.83,0,6.432e+07,215.14,13095,12138,1,12138,1,1.4726e-05,1.7566e-11,0,8.9633e-05,-2.6611e-06,4.7808e+06,5.0337,0,3.0805e+07,-46.526,12137,11203,1,11203,1,-0.00015814,-2.2817e-09,0,4.4805e-06,-3.5052e-05,-6.432e+07,-649.81,0,1.8314e+06,-518.19,11202,11683,1,11683,1,-7.4907e-05,-4.6192e-10,0,4.4817e-05,-1.9455e-05,-3.0464e+07,-135.37,0,1.6018e+07,-175.19,11682,12593,1,12593,1,0.00010436,5.5779e-10,0,0.00013445,1.4088e-05,3.0805e+07,167.06,0,4.4876e+07,20.213,12592,527.79,0,527.79,0,0.00010346,8.9587e-10,0,5.2686e-05,1.9366e-05,3.539e+07,255.45,0,1.7578e+07,133.78,527.79,1
1820,0.64,12139,1,12139,1,1.4959e-05,6.0065e-11,0,9.1653e-05,-2.7217e-06,68.007,17.417,0,3.1192e+07,-58.431,12138,13096,1,13096,1,0.00019056,3.4798e-09,0,0.00019056,3.0151e-05,5.418e+07,993.04,0,6.5336e+07,175.64,13095,12138,1,12138,1,1.4959e-05,1.8184e-11,0,9.1049e-05,-2.7033e-06,4.8565e+06,4.8801,0,3.1292e+07,-12.674,12137,11203,1,11203,1,-0.00016064,-2.9522e-09,0,4.5511e-06,-3.5606e-05,-6.5336e+07,-840.93,0,1.8603e+06,-555.82,11202,11683,1,11683,1,-7.609e-05,-5.4874e-10,0,4.5525e-05,-1.9762e-05,-3.0946e+07,-165.29,0,1.6271e+07,-120.26,11682,12593,1,12593,1,0.00010601,6.4857e-10,0,0.00013657,1.431e-05,3.1292e+07,189.67,0,4.5585e+07,32.91,12592,527.79,0,527.79,0,0.0001051,1.0419e-09,0,5.3518e-05,1.9672e-05,3.5949e+07,297,0,1.7856e+07,127.51,527.79,1
1820,0.65,12139,1,12139,1,1.5194e-05,-2.7028e-10,0,9.309e-05,-2.7642e-06,-1.2362,-78.595,0,3.1682e+07,6.0268,12138,13096,1,13096,1,0.00019355,8.8983e-10,0,0.00019355,3.0624e-05,5.503e+07,254.05,0,6.6361e+07,56.041,13095,12138,1,12138,1,1.5194e-05,-2.2496e-10,0,9.2477e-05,-2.7454e-06,4.9326e+06,-66.033,0,3.1783e+07,1.7195,12137,11203,1,11203,1,-0.00016316,-1.1335e-09,0,4.6227e-06,-3.6164e-05,-6.6361e+07,-321.45,0,1.8896e+06,-47.587,11202,11683,1,11683,1,-7.7284e-05,-6.2082e-10,0,4.6239e-05,-2.0072e-05,-3.1431e+07,-182.84,0,1.6526e+07,-3.3586,11682,12593,1,12593,1,0.00010767,2.0888e-11,0,0.00013872,1.4535e-05,3.1783e+07,5.6467,0,4.63e+07,14.705,12592,527.79,0,527.79,0,0.00010674,4.3694e-10,0,5.4358e-05,1.998e-05,3.6513e+07,126.35,0,1.8136e+07,16.143,527.79,1
1820,0.66,12139,1,12139,1,1.5427e-05,-6.3604e-10,0,9.4519e-05,-2.8067e-06,-20.759,-185.17,0,3.2168e+07,-36.044,12138,13096,1,13096,1,0.00019652,3.335e-09,0,0.00019652,3.1094e-05,5.5876e+07,949.8,0,6.7381e+07,121.67,13095,12138,1,12138,1,1.5427e-05,-4.6478e-10,0,9.3897e-05,-2.7878e-06,5.0082e+06,-139.48,0,3.2271e+07,-6.813,12137,11203,1,11203,1,-0.00016567,-3.4622e-09,0,4.6938e-06,-3.6721e-05,-6.7381e+07,-987.27,0,1.9186e+06,-698.03,11202,11683,1,11683,1,-7.847e-05,-1.5129e-09,0,4.6948e-05,-2.038e-05,-3.1913e+07,-445.02,0,1.678e+07,-84.991,11682,12593,1,12593,1,0.00010932,1.6757e-10,0,0.00014085,1.4758e-05,3.2271e+07,47.228,0,4.701e+07,34.86,12592,527.79,0,527.79,0,0.00010838,1.1968e-09,0,5.5191e-05,2.0287e-05,3.7073e+07,343.02,0,1.8414e+07,96.631,527.79,1
1820,0.67,12139,1,12139,1,1.5661e-05,-7.4922e-10,0,9.5953e-05,-2.8493e-06,-8.3607,-216.76,0,3.2656e+07,-47.291,12138,13096,1,13096,1,0.0001995,2.744e-09,0,0.0001995,3.1566e-05,5.6724e+07,773.78,0,6.8403e+07,149.72,13095,12138,1,12138,1,1.5661e-05,-3.8268e-10,0,9.5322e-05,-2.8301e-06,5.0843e+06,-111.34,0,3.2761e+07,-10.054,12137,11203,1,11203,1,-0.00016818,-4.9152e-09,0,4.7647e-06,-3.7277e-05,-6.8403e+07,-1400.8,0,1.9476e+06,-554.43,11202,11683,1,11683,1,-7.9661e-05,-1.7637e-09,0,4.7661e-05,-2.0689e-05,-3.2398e+07,-518.25,0,1.7035e+07,-114.63,11682,12593,1,12593,1,0.00011098,2.438e-10,0,0.00014298,1.4982e-05,3.2761e+07,73.022,0,4.7724e+07,39.697,12592,527.79,0,527.79,0,0.00011003,1.5485e-09,0,5.6029e-05,2.0595e-05,3.7635e+07,445.14,0,1.8694e+07,116.33,527.79,1
1820,0.68,12139,1,12139,1,1.5897e-05,4.0801e-10,0,9.7401e-05,-2.8922e-06,-2.7908,118.2,0,3.3149e+07,11.54,12138,13096,1,13096,1,0.00020251,9.4327e-10,0,0.00020251,3.2042e-05,5.7578e+07,248.61,0,6.9434e+07,97.697,13095,12138,1,12138,1,1.5897e-05,4.5946e-10,0,9.676e-05,-2.8725e-06,5.161e+06,135.56,0,3.3255e+07,7.7057,12137,11203,1,11203,1,-0.00017071,-2.3162e-10,0,4.8367e-06,-3.7838e-05,-6.9434e+07,-55.317,0,1.977e+06,-217.12,11202,11683,1,11683,1,-8.0862e-05,2.082e-10,0,4.838e-05,-2.1001e-05,-3.2886e+07,58.437,0,1.7292e+07,1.2904,11682,12593,1,12593,1,0.00011266,6.1928e-10,0,0.00014514,1.5208e-05,3.3255e+07,184.71,0,4.8444e+07,20.394,12592,527.79,0,527.79,0,0.00011169,2.743e-10,0,5.6875e-05,2.0906e-05,3.8204e+07,78.071,0,1.8976e+07,18.946,527.79,1
1820,0.69,12139,1,12139,1,1.6133e-05,3.4859e-10,0,9.8842e-05,-2.935e-06,67.357,102.16,0,3.3639e+07,18.865,12138,13096,1,13096,1,0.0002055,2.7668e-09,0,0.0002055,3.2515e-05,5.8429e+07,836.57,0,7.046e+07,249.3,13095,12138,1,12138,1,1.6132e-05,1.6874e-10,0,9.8189e-05,-2.9151e-06,5.2374e+06,48.353,0,3.3746e+07,14.331,12137,11203,1,11203,1,-0.00017324,-1.9652e-09,0,4.9077e-06,-3.8399e-05,-7.046e+07,-560.35,0,2.0061e+06,-446.22,11202,11683,1,11683,1,-8.2057e-05,-2.2764e-10,0,4.9095e-05,-2.1312e-05,-3.3372e+07,-69.301,0,1.7547e+07,-16.656,11682,12593,1,12593,1,0.00011432,9.9636e-10,0,0.00014728,1.5433e-05,3.3746e+07,286.73,0,4.9159e+07,49.847,12592,527.79,0,527.79,0,0.00011334,9.3459e-10,0,5.7716e-05,2.1215e-05,3.8769e+07,273.41,0,1.9257e+07,64.735,527.79,1
1820,0.7,12139,1,12139,1,1.6363e-05,-6.4589e-10,0,0.00010026,-2.9769e-06,-11.751,-187.38,0,3.412e+07,15.181,12138,13096,1,13096,1,0.00020845,1.219e-09,0,0.00020845,3.2981e-05,5.9267e+07,347.97,0,7.147e+07,83.963,13095,12138,1,12138,1,1.6363e-05,-4.927e-10,0,9.9596e-05,-2.9566e-06,5.3123e+06,-139.92,0,3.4229e+07,10.744,12137,11203,1,11203,1,-0.00017572,-2.5128e-09,0,4.9786e-06,-3.8948e-05,-7.147e+07,-699.18,0,2.035e+06,-57.411,11202,11683,1,11683,1,-8.3232e-05,-1.2844e-09,0,4.9798e-05,-2.1617e-05,-3.385e+07,-376.52,0,1.7799e+07,-4.9349,11682,12593,1,12593,1,0.00011596,-1.2108e-11,0,0.00014939,1.5654e-05,3.4229e+07,-3.1378,0,4.9864e+07,34.364,12592,527.79,0,527.79,0,0.00011496,8.302e-10,0,5.8541e-05,2.1518e-05,3.9323e+07,239.33,0,1.9532e+07,25.498,527.79,1
1820,0.71,12139,1,12139,1,1.6598e-05,-1.9708e-10,0,0.0001017,-3.0198e-06,6.3186,-56.045,0,3.461e+07,-15.449,12138,13096,1,13096,1,0.00021144,2.9059e-10,0,0.00021144,3.3454e-05,6.0117e+07,91.773,0,7.2495e+07,195.96,13095,12138,1,12138,1,1.6598e-05,-1.678e-10,0,0.00010103,-2.9995e-06,5.3886e+06,-48.594,0,3.4721e+07,10.644,12137,11203,1,11203,1,-0.00017824,-1.1417e-09,0,5.05e-06,-3.9508e-05,-7.2495e+07,-325.66,0,2.0642e+06,-876.51,11202,11683,1,11683,1,-8.4428e-05,-2.7035e-10,0,5.0513e-05,-2.1927e-05,-3.4337e+07,-81.313,0,1.8054e+07,-36.99,11682,12593,1,12593,1,0.00011763,-8.5135e-11,0,0.00015154,1.5879e-05,3.4721e+07,-24.806,0,5.058e+07,34.889,12592,527.79,0,527.79,0,0.00011661,1.8115e-10,0,5.9383e-05,2.1828e-05,3.9888e+07,50,0,1.9813e+07,98.507,527.79,1
1820,0.72,12139,1,12139,1,1.683e-05,-1.1635e-10,0,0.00010311,-3.0619e-06,-20.265,-33.823,0,3.5093e+07,-6.6661,12138,13096,1,13096,1,0.00021438,2.3549e-09,0,0.00021438,3.3921e-05,6.0955e+07,644.76,0,7.3506e+07,154.45,13095,12138,1,12138,1,1.683e-05,-4.179e-11,0,0.00010243,-3.0411e-06,5.4637e+06,-11.732,0,3.5205e+07,14.971,12137,11203,1,11203,1,-0.00018072,-3.1398e-09,0,5.1206e-06,-4.0058e-05,-7.3506e+07,-894.71,0,2.0931e+06,-703.33,11202,11683,1,11683,1,-8.5605e-05,-5.5942e-10,0,5.1217e-05,-2.2233e-05,-3.4815e+07,-164.26,0,1.8306e+07,-38.608,11682,12593,1,12593,1,0.00011926,3.5231e-10,0,0.00015365,1.61e-05,3.5205e+07,104.81,0,5.1285e+07,46.172,12592,527.79,0,527.79,0,0.00011824,8.5222e-10,0,6.021e-05,2.2132e-05,4.0444e+07,239.23,0,2.0089e+07,88.636,527.79,1
1820,0.73,12139,1,12139,1,1.7063e-05,-2.3048e-10,0,0.00010454,-3.1042e-06,-31.524,-66.943,0,3.5579e+07,28.592,12138,13096,1,13096,1,0.00021736,3.7822e-09,0,0.00021736,3.4391e-05,6.18e+07,1079.3,0,7.4525e+07,143.67,13095,12138,1,12138,1,1.7063e-05,-9.5538e-11,0,0.00010385,-3.0829e-06,5.5394e+06,-27.199,0,3.5693e+07,24.264,12137,11203,1,11203,1,-0.00018323,-4.0255e-09,0,5.1915e-06,-4.0613e-05,-7.4525e+07,-1147.4,0,2.122e+06,-423.77,11202,11683,1,11683,1,-8.6791e-05,-1.1856e-09,0,5.1927e-05,-2.2541e-05,-3.5298e+07,-349.8,0,1.8559e+07,-3.7141,11682,12593,1,12593,1,0.00012092,6.9941e-10,0,0.00015578,1.6323e-05,3.5693e+07,202.12,0,5.1995e+07,62.444,12592,527.79,0,527.79,0,0.00011988,1.5018e-09,0,6.1044e-05,2.2438e-05,4.1004e+07,435.05,0,2.0367e+07,44.815,527.79,1
1820,0.74,12139,1,12139,1,1.7297e-05,1.547e-11,0,0.00010598,-3.1468e-06,-61.54,3.6236,0,3.6067e+07,25.8,12138,13096,1,13096,1,0.00022034,2.8917e-09,0,0.00022034,3.4863e-05,6.2648e+07,804.34,0,7.5547e+07,139.34,13095,12138,1,12138,1,1.7297e-05,-5.4389e-11,0,0.00010528,-3.1253e-06,5.6154e+06,-15.158,0,3.6183e+07,21.62,12137,11203,1,11203,1,-0.00018574,-2.1402e-09,0,5.2629e-06,-4.117e-05,-7.5547e+07,-603.9,0,2.1512e+06,-45.82,11202,11683,1,11683,1,-8.7982e-05,-6.3859e-10,0,5.264e-05,-2.285e-05,-3.5782e+07,-182.61,0,1.8814e+07,-0.64294,11682,12593,1,12593,1,0.00012258,5.4323e-10,0,0.00015792,1.6547e-05,3.6183e+07,161.12,0,5.2709e+07,47.393,12592,527.79,0,527.79,0,0.00012152,9.9329e-10,0,6.1882e-05,2.2746e-05,4.1567e+07,285.76,0,2.0647e+07,35.16,527.79,1
1820,0.75,12139,1,12139,1,1.7532e-05,-5.499e-10,0,0.00010742,-3.1896e-06,36.456,-159.25,0,3.6557e+07,31.544,12138,13096,1,13096,1,0.00022333,1.4e-09,0,0.00022333,3.5337e-05,6.3499e+07,399,0,7.6574e+07,228.21,13095,12138,1,12138,1,1.7532e-05,-3.1372e-10,0,0.00010671,-3.1679e-06,5.6918e+06,-89.893,0,3.6674e+07,39.051,12137,11203,1,11203,1,-0.00018827,-3.0146e-09,0,5.334e-06,-4.1729e-05,-7.6574e+07,-856.5,0,2.1803e+06,-339.13,11202,11683,1,11683,1,-8.9177e-05,-1.1064e-09,0,5.3355e-05,-2.3161e-05,-3.6268e+07,-324.79,0,1.907e+07,4.1911,11682,12593,1,12593,1,0.00012424,5.4469e-11,0,0.00016006,1.6772e-05,3.6674e+07,14.846,0,5.3425e+07,79.645,12592,527.79,0,527.79,0,0.00012317,8.7007e-10,0,6.2723e-05,2.3055e-05,4.2132e+07,248.86,0,2.0927e+07,78.15,527.79,1
1820,0.76,12139,1,12139,1,1.7765e-05,-9.0179e-11,0,0.00010884,-3.232e-06,-26.145,-25.773,0,3.7043e+07,11.527,12138,13096,1,13096,1,0.0002263,1.4622e-09,0,0.0002263,3.5806e-05,6.4343e+07,411.58,0,7.7591e+07,46.628,13095,12138,1,12138,1,1.7765e-05,-2.2331e-11,0,0.00010813,-3.2099e-06,5.7674e+06,-6.3518,0,3.7162e+07,10.918,12137,11203,1,11203,1,-0.00019077,-1.5388e-09,0,5.4052e-06,-4.2284e-05,-7.7591e+07,-419.96,0,2.2094e+06,-19.485,11202,11683,1,11683,1,-9.0363e-05,-4.7551e-10,0,5.4064e-05,-2.3469e-05,-3.675e+07,-142.29,0,1.9323e+07,-1.4555,11682,12593,1,12593,1,0.00012589,2.5278e-10,0,0.00016219,1.6995e-05,3.7162e+07,74.981,0,5.4135e+07,24.511,12592,527.79,0,527.79,0,0.00012481,5.9351e-10,0,6.3557e-05,2.3362e-05,4.2692e+07,171.35,0,2.1205e+07,14.894,527.79,1
1820,0.77,12139,1,12139,1,1.7999e-05,1.0165e-10,0,0.00011028,-3.2746e-06,28.321,29.292,0,3.7532e+07,27.648,12138,13096,1,13096,1,0.00022928,1.6091e-09,0,0.00022928,3.6278e-05,6.5191e+07,459.01,0,7.8614e+07,127.17,13095,12138,1,12138,1,1.7999e-05,-2.4094e-13,0,0.00010955,-3.2524e-06,5.8435e+06,-0.05085,0,3.7652e+07,20.466,12137,11203,1,11203,1,-0.00019328,-7.1793e-10,0,5.4762e-06,-4.2841e-05,-7.8614e+07,-204.84,0,2.2384e+06,-103.98,11202,11683,1,11683,1,-9.1554e-05,-1.2662e-10,0,5.4777e-05,-2.3778e-05,-3.7235e+07,-38.098,0,1.9578e+07,4.63,11682,12593,1,12593,1,0.00012755,2.7973e-10,0,0.00016433,1.7219e-05,3.7652e+07,78.809,0,5.4849e+07,47.695,12592,527.79,0,527.79,0,0.00012645,3.5585e-10,0,6.4395e-05,2.367e-05,4.3255e+07,101.74,0,2.1485e+07,31.608,527.79,1
1820,0.78,12139,1,12139,1,1.8233e-05,-4.3842e-10,0,0.00011171,-3.3171e-06,-53.758,-127.22,0,3.8019e+07,10.798,12138,13096,1,13096,1,0.00023226,1.7735e-09,0,0.00023226,3.675e-05,6.6039e+07,506.29,0,7.9636e+07,75.216,13095,12138,1,12138,1,1.8233e-05,-3.29e-10,0,0.00011098,-3.2945e-06,5.9193e+06,-96.883,0,3.8141e+07,7.6986,12137,11203,1,11203,1,-0.0001958,-2.3207e-09,0,5.5476e-06,-4.3398e-05,-7.9636e+07,-645.98,0,2.2676e+06,-37.089,11202,11683,1,11683,1,-9.2744e-05,-1.0597e-09,0,5.5489e-05,-2.4087e-05,-3.7719e+07,-313.01,0,1.9832e+07,-6.8232,11682,12593,1,12593,1,0.00012921,1.0397e-10,0,0.00016647,1.7443e-05,3.8141e+07,29.149,0,5.5562e+07,27.853,12592,527.79,0,527.79,0,0.0001281,8.5e-10,0,6.5231e-05,2.3977e-05,4.3817e+07,245.84,0,2.1764e+07,22.826,527.79,1
1820,0.79,12139,1,12139,1,1.8467e-05,-1.3721e-10,0,0.00011315,-3.3597e-06,10.63,-39.731,0,3.8507e+07,18.34,12138,13096,1,13096,1,0.00023524,3.9653e-10,0,0.00023524,3.7221e-05,6.6884e+07,113.17,0,8.0656e+07,105.68,13095,12138,1,12138,1,1.8467e-05,-9.98e-11,0,0.0001124,-3.3368e-06,5.9953e+06,-28.691,0,3.863e+07,12.679,12137,11203,1,11203,1,-0.00019831,-6.6223e-10,0,5.6186e-06,-4.3954e-05,-8.0656e+07,-188.82,0,2.2966e+06,-60.098,11202,11683,1,11683,1,-9.3933e-05,-2.8179e-10,0,5.62e-05,-2.4396e-05,-3.8202e+07,-83.239,0,2.0087e+07,3.5329,11682,12593,1,12593,1,0.00013087,1.4144e-12,0,0.0001686,1.7666e-05,3.863e+07,0.48451,0,5.6274e+07,31.989,12592,527.79,0,527.79,0,0.00012974,1.9535e-10,0,6.6068e-05,2.4285e-05,4.4379e+07,55.95,0,2.2043e+07,22.605,527.79,1
1820,0.8,12139,1,12139,1,1.87e-05,2.3824e-10,0,0.00011457,-3.4021e-06,-28.4,69.087,0,3.8993e+07,11.656,12138,13096,1,13096,1,0.00023821,2.221e-09,0,0.00023821,3.7691e-05,6.773e+07,620.67,0,8.1676e+07,68.34,13095,12138,1,12138,1,1.87e-05,6.7698e-11,0,0.00011382,-3.379e-06,6.071e+06,17.781,0,3.9118e+07,7.5061,12137,11203,1,11203,1,-0.00020081,-1.3466e-09,0,5.6897e-06,-4.451e-05,-8.1676e+07,-380.83,0,2.3257e+06,-47.282,11202,11683,1,11683,1,-9.512e-05,-2.8772e-10,0,5.691e-05,-2.4704e-05,-3.8685e+07,-86.148,0,2.0341e+07,-6.0174,11682,12593,1,12593,1,0.00013252,7.7889e-10,0,0.00017073,1.7889e-05,3.9118e+07,224.66,0,5.6985e+07,28.361,12592,527.79,0,527.79,0,0.00013138,7.8693e-10,0,6.6903e-05,2.4592e-05,4.4939e+07,228.87,0,2.2322e+07,21.316,527.79,1
1820,0.81,12139,1,12139,1,1.8934e-05,-3.8324e-10,0,0.00011601,-3.4446e-06,48.458,-111.35,0,3.948e+07,17.533,12138,13096,1,13096,1,0.00024119,2.5282e-09,0,0.00024119,3.8162e-05,6.8577e+07,718.14,0,8.2697e+07,88.853,13095,12138,1,12138,1,1.8934e-05,-1.7393e-10,0,0.00011524,-3.4211e-06,6.1469e+06,-48.513,0,3.9607e+07,15.482,12137,11203,1,11203,1,-0.00020332,-3.5133e-09,0,5.7606e-06,-4.5066e-05,-8.2697e+07,-996.71,0,2.3546e+06,-57.52,11202,11683,1,11683,1,-9.6308e-05,-1.2107e-09,0,5.7621e-05,-2.5013e-05,-3.9168e+07,-350.11,0,2.0595e+07,-8.4394,11682,12593,1,12593,1,0.00013418,4.0634e-10,0,0.00017286,1.8113e-05,3.9607e+07,116.8,0,5.7697e+07,45.956,12592,527.79,0,527.79,0,0.00013302,1.2392e-09,0,6.7738e-05,2.4899e-05,4.5501e+07,359.16,0,2.26e+07,31.639,527.79,1
1820,0.82,12139,1,12139,1,1.917e-05,-2.8756e-10,0,0.00011745,-3.4875e-06,10.588,-83.941,0,3.9972e+07,29.298,12138,13096,1,13096,1,0.00024419,3.3923e-10,0,0.00024419,3.8637e-05,6.9429e+07,96.581,0,8.3725e+07,110.19,13095,12138,1,12138,1,1.917e-05,-2.2256e-10,0,0.00011668,-3.4637e-06,6.2234e+06,-65.104,0,4.01e+07,26.305,12137,11203,1,11203,1,-0.00020585,-1.2192e-09,0,5.8323e-06,-4.5626e-05,-8.3725e+07,-347.68,0,2.384e+06,-47.145,11202,11683,1,11683,1,-9.7506e-05,-4.9823e-10,0,5.8338e-05,-2.5324e-05,-3.9656e+07,-147.43,0,2.0851e+07,10.063,11682,12593,1,12593,1,0.00013585,-8.1086e-11,0,0.00017501,1.8338e-05,4.01e+07,-23.022,0,5.8415e+07,44.49,12592,527.79,0,527.79,0,0.00013468,3.1535e-10,0,6.8582e-05,2.5209e-05,4.6067e+07,90.707,0,2.2882e+07,24.996,527.79,1
1820,0.83,12139,1,12139,1,1.9402e-05,4.59e-10,0,0.00011888,-3.5299e-06,6.3786,133.56,0,4.0457e+07,17.838,12138,13096,1,13096,1,0.00024716,1.0193e-09,0,0.00024716,3.9106e-05,7.0273e+07,294.45,0,8.4743e+07,151.87,13095,12138,1,12138,1,1.9402e-05,5.0274e-10,0,0.00011809,-3.5057e-06,6.299e+06,151.03,0,4.0587e+07,13.026,12137,11203,1,11203,1,-0.00020835,-1.5438e-10,0,5.9031e-06,-4.6181e-05,-8.4743e+07,-52.87,0,2.4129e+06,-30.933,11202,11683,1,11683,1,-9.8691e-05,2.3324e-10,0,5.9047e-05,-2.5632e-05,-4.0137e+07,67.761,0,2.1104e+07,2.1335,11682,12593,1,12593,1,0.0001375,6.9125e-10,0,0.00017714,1.8561e-05,4.0587e+07,207.76,0,5.9124e+07,31.808,12592,527.79,0,527.79,0,0.00013631,3.0627e-10,0,6.9415e-05,2.5515e-05,4.6627e+07,88.198,0,2.316e+07,22.224,527.79,1
1820,0.84,12139,1,12139,1,1.9635e-05,-2.2116e-10,0,0.0001203,-3.5721e-06,-6.9191,-64.672,0,4.0942e+07,19.397,12138,13096,1,13096,1,0.00025012,2.9547e-09,0,0.00025012,3.9575e-05,7.1115e+07,829.14,0,8.5758e+07,87.124,13095,12138,1,12138,1,1.9635e-05,-1.5033e-10,0,0.00011951,-3.5478e-06,6.3744e+06,-45.795,0,4.1073e+07,16.104,12137,11203,1,11203,1,-0.00021085,-3.2121e-09,0,5.9741e-06,-4.6734e-05,-8.5758e+07,-886.95,0,2.4419e+06,-38.769,11202,11683,1,11683,1,-9.9873e-05,-1.0392e-09,0,5.9754e-05,-2.5939e-05,-4.0618e+07,-304.61,0,2.1357e+07,-6.888,11682,12593,1,12593,1,0.00013914,5.0576e-10,0,0.00017926,1.8783e-05,4.1073e+07,144.74,0,5.9833e+07,45.845,12592,527.79,0,527.79,0,0.00013795,1.2472e-09,0,7.0246e-05,2.5821e-05,4.7185e+07,360.53,0,2.3437e+07,29.949,527.79,1
1820,0.85,12139,1,12139,1,1.9868e-05,-3.4843e-11,0,0.00012173,-3.6146e-06,11.171,-10.102,0,4.1429e+07,40.704,12138,13096,1,13096,1,0.00025309,2.8306e-09,0,0.00025309,4.0046e-05,7.1961e+07,807.99,0,8.6778e+07,146.28,13095,12138,1,12138,1,1.9868e-05,1.3672e-11,0,0.00012093,-3.59e-06,6.4503e+06,3.7712,0,4.1562e+07,39.226,12137,11203,1,11203,1,-0.00021336,-3.0378e-09,0,6.045e-06,-4.729e-05,-8.6778e+07,-865.79,0,2.4709e+06,-181.53,11202,11683,1,11683,1,-0.00010106,-6.9865e-10,0,6.0465e-05,-2.6247e-05,-4.1101e+07,-201.28,0,2.1611e+07,11.667,11682,12593,1,12593,1,0.0001408,6.7535e-10,0,0.0001814,1.9007e-05,4.1562e+07,198.88,0,6.0545e+07,76.783,12592,527.79,0,527.79,0,0.00013959,1.0954e-09,0,7.1082e-05,2.6128e-05,4.7747e+07,316.6,0,2.3716e+07,46.924,527.79,1
1820,0.86,12139,1,12139,1,2.0102e-05,-4.8316e-10,0,0.00012316,-3.6572e-06,-3.2253,-141.08,0,4.1917e+07,6.08,12138,13096,1,13096,1,0.00025608,2.1505e-09,0,0.00025608,4.0517e-05,7.2809e+07,584.03,0,8.78e+07,79.251,13095,12138,1,12138,1,2.0102e-05,-2.4685e-10,0,0.00012235,-3.6323e-06,6.5262e+06,-70.59,0,4.2051e+07,2.6918,12137,11203,1,11203,1,-0.00021587,-3.3343e-09,0,6.1162e-06,-4.7847e-05,-8.78e+07,-923.29,0,2.5e+06,-53.196,11202,11683,1,11683,1,-0.00010225,-1.2554e-09,0,6.1177e-05,-2.6556e-05,-4.1585e+07,-367.03,0,2.1866e+07,-17.091,11682,12593,1,12593,1,0.00014246,2.2271e-10,0,0.00018353,1.9231e-05,4.2051e+07,65.901,0,6.1258e+07,27.079,12592,527.79,0,527.79,0,0.00014123,1.125e-09,0,7.1918e-05,2.6435e-05,4.8309e+07,326.02,0,2.3995e+07,28.733,527.79,1
1820,0.87,12139,1,12139,1,2.0337e-05,-2.6617e-10,0,0.0001246,-3.6998e-06,42.449,-77.742,0,4.2405e+07,13.644,12138,13096,1,13096,1,0.00025906,2.1974e-09,0,0.00025906,4.0989e-05,7.3657e+07,627.21,0,8.8823e+07,115.78,13095,12138,1,12138,1,2.0337e-05,-1.3059e-10,0,0.00012378,-3.6748e-06,6.6023e+06,-36.124,0,4.2541e+07,19.341,12137,11203,1,11203,1,-0.00021838,-2.3574e-09,0,6.1873e-06,-4.8404e-05,-8.8823e+07,-672.09,0,2.5291e+06,-176.09,11202,11683,1,11683,1,-0.00010344,-7.8154e-10,0,6.189e-05,-2.6866e-05,-4.207e+07,-227.91,0,2.212e+07,-2.3117,11682,12593,1,12593,1,0.00014412,1.897e-10,0,0.00018567,1.9455e-05,4.2541e+07,57.12,0,6.1971e+07,38.923,12592,527.79,0,527.79,0,0.00014288,7.9551e-10,0,7.2757e-05,2.6743e-05,4.8872e+07,228.54,0,2.4275e+07,38.588,527.79,1
1820,0.88,12139,1,12139,1,2.057e-05,-2.3843e-10,0,0.00012603,-3.7423e-06,30.587,-69.362,0,4.2892e+07,0.5449,12138,13096,1,13096,1,0.00026203,2.995e-09,0,0.00026203,4.146e-05,7.4502e+07,851.07,0,8.9842e+07,190.65,13095,12138,1,12138,1,2.057e-05,-8.7913e-11,0,0.0001252,-3.7169e-06,6.678e+06,-25.469,0,4.3029e+07,28.358,12137,11203,1,11203,1,-0.00022089,-3.5659e-09,0,6.2584e-06,-4.896e-05,-8.9842e+07,-999.48,0,2.5581e+06,-461.46,11202,11683,1,11683,1,-0.00010463,-1.0775e-09,0,6.26e-05,-2.7174e-05,-4.2553e+07,-317.21,0,2.2374e+07,-22.868,11682,12593,1,12593,1,0.00014577,5.9636e-10,0,0.0001878,1.9678e-05,4.3029e+07,173.36,0,6.2683e+07,60.727,12592,527.79,0,527.79,0,0.00014452,1.3017e-09,0,7.3592e-05,2.705e-05,4.9433e+07,374.31,0,2.4553e+07,98.57,527.79,1
1820,0.89,12139,1,12139,1,2.0806e-05,-4.396e-10,0,0.00012747,-3.7852e-06,26.687,-128.04,0,4.3383e+07,-0.27577,12138,13096,1,13096,1,0.00026503,2.6063e-10,0,0.00026503,4.1934e-05,7.5355e+07,69.953,0,9.0871e+07,20.46,13095,12138,1,12138,1,2.0806e-05,-3.2288e-10,0,0.00012663,-3.7594e-06,6.7545e+06,-94.055,0,4.3522e+07,-0.30268,12137,11203,1,11203,1,-0.00022342,-1.5848e-09,0,6.33e-06,-4.952e-05,-9.0871e+07,-437.7,0,2.5874e+06,-18.615,11202,11683,1,11683,1,-0.00010583,-7.4744e-10,0,6.3317e-05,-2.7485e-05,-4.304e+07,-219.45,0,2.263e+07,-6.8094,11682,12593,1,12593,1,0.00014744,-6.031e-11,0,0.00018995,1.9903e-05,4.3522e+07,-18.99,0,6.34e+07,6.5251,12592,527.79,0,527.79,0,0.00014617,4.4423e-10,0,7.4435e-05,2.736e-05,4.9999e+07,128.54,0,2.4834e+07,8.464,527.79,1
1820,0.9,12139,1,12139,1,2.1038e-05,6.1759e-11,0,0.0001289,-3.8274e-06,-0.27189,16.705,0,4.3867e+07,14.865,12138,13096,1,13096,1,0.00026799,2.6117e-09,0,0.00026799,4.2402e-05,7.6196e+07,727.05,0,9.1885e+07,82.053,13095,12138,1,12138,1,2.1038e-05,4.1859e-12,0,0.00012805,-3.8014e-06,6.8299e+06,1.3587,0,4.4008e+07,12.833,12137,11203,1,11203,1,-0.00022591,-2.0235e-09,0,6.4009e-06,-5.0073e-05,-9.1885e+07,-576.98,0,2.6163e+06,-114.31,11202,11683,1,11683,1,-0.00010701,-4.9058e-10,0,6.4024e-05,-2.7792e-05,-4.352e+07,-138.24,0,2.2883e+07,-4.3633,11682,12593,1,12593,1,0.00014909,5.9877e-10,0,0.00019207,2.0126e-05,4.4008e+07,173.47,0,6.4108e+07,37.402,12592,527.79,0,527.79,0,0.0001478,8.6455e-10,0,7.5265e-05,2.7666e-05,5.0557e+07,248.16,0,2.5112e+07,27.739,527.79,1
1820,0.91,12139,1,12139,1,2.1272e-05,-2.6866e-11,0,0.00013033,-3.8699e-06,-17.715,-8.0922,0,4.4355e+07,17.223,12138,13096,1,13096,1,0.00027097,2.5731e-09,0,0.00027097,4.2874e-05,7.7043e+07,734.35,0,9.2906e+07,99.919,13095,12138,1,12138,1,2.1272e-05,-5.2839e-11,0,0.00012947,-3.8435e-06,6.9058e+06,-16.141,0,4.4497e+07,10.705,12137,11203,1,11203,1,-0.00022842,-1.9212e-09,0,6.472e-06,-5.063e-05,-9.2906e+07,-547.7,0,2.6454e+06,-41.202,11202,11683,1,11683,1,-0.0001082,-5.5942e-10,0,6.4736e-05,-2.8101e-05,-4.4004e+07,-164.26,0,2.3137e+07,-3.7722,11682,12593,1,12593,1,0.00015074,4.3188e-10,0,0.00019421,2.0349e-05,4.4497e+07,123.64,0,6.4821e+07,33.823,12592,527.79,0,527.79,0,0.00014945,8.3531e-10,0,7.6102e-05,2.7973e-05,5.1119e+07,242.35,0,2.5391e+07,28.281,527.79,1
1820,0.92,12139,1,12139,1,2.1507e-05,-7.5399e-10,0,0.00013177,-3.9127e-06,-14.629,-219.27,0,4.4845e+07,1.1786,12138,13096,1,13096,1,0.00027397,2.4838e-10,0,0.00027397,4.3348e-05,7.7895e+07,85.061,0,9.3934e+07,65.06,13095,12138,1,12138,1,2.1507e-05,-7.2401e-10,0,0.0001309,-3.886e-06,6.9821e+06,-212.09,0,4.4988e+07,-0.33778,12137,11203,1,11203,1,-0.00023095,-1.9038e-09,0,6.5435e-06,-5.119e-05,-9.3934e+07,-520.77,0,2.6746e+06,-55.158,11202,11683,1,11683,1,-0.00010939,-1.1746e-09,0,6.5451e-05,-2.8411e-05,-4.449e+07,-350.28,0,2.3393e+07,-5.5011,11682,12593,1,12593,1,0.00015241,-3.0655e-10,0,0.00019635,2.0574e-05,4.4988e+07,-87.971,0,6.5537e+07,6.8419,12592,527.79,0,527.79,0,0.0001511,5.4215e-10,0,7.6943e-05,2.8282e-05,5.1684e+07,156.26,0,2.5671e+07,12.729,527.79,1
1820,0.93,12139,1,12139,1,2.1741e-05,-7.0309e-10,0,0.0001332,-3.9553e-06,8.8834,-204.76,0,4.5333e+07,14.303,12138,13096,1,13096,1,0.00027695,8.3166e-10,0,0.00027695,4.382e-05,7.8743e+07,236.97,0,9.4956e+07,117.5,13095,12138,1,12138,1,2.1741e-05,-4.6689e-10,0,0.00013233,-3.9283e-06,7.0581e+06,-139.79,0,4.5478e+07,12.702,12137,11203,1,11203,1,-0.00023346,-2.5113e-09,0,6.6146e-06,-5.1747e-05,-9.4956e+07,-703.24,0,2.7037e+06,-99.029,11202,11683,1,11683,1,-0.00011058,-1.2778e-09,0,6.6163e-05,-2.8721e-05,-4.4975e+07,-373,0,2.3648e+07,-0.87389,11682,12593,1,12593,1,0.00015407,-7.0972e-11,0,0.00019849,2.0798e-05,4.5478e+07,-19.935,0,6.625e+07,28.693,12592,527.79,0,527.79,0,0.00015274,7.761e-10,0,7.778e-05,2.859e-05,5.2246e+07,224.69,0,2.5951e+07,24.777,527.79,1
1820,0.94,12139,1,12139,1,2.1972e-05,-3.7232e-10,0,0.00013462,-3.9973e-06,-124.52,-108.37,0,4.5816e+07,38.866,12138,13096,1,13096,1,0.0002799,2.8632e-09,0,0.0002799,4.4287e-05,7.9582e+07,793.72,0,9.5969e+07,128.3,13095,12138,1,12138,1,2.1972e-05,-1.4477e-10,0,0.00013374,-3.97e-06,7.1333e+06,-40.669,0,4.5963e+07,38.091,12137,11203,1,11203,1,-0.00023595,-3.8471e-09,0,6.6856e-06,-5.2299e-05,-9.5969e+07,-1071.7,0,2.7327e+06,-48.751,11202,11683,1,11683,1,-0.00011176,-1.2743e-09,0,6.6869e-05,-2.9027e-05,-4.5454e+07,-372.08,0,2.39e+07,10.789,11682,12593,1,12593,1,0.00015571,5.0614e-10,0,0.00020061,2.102e-05,4.5963e+07,147.61,0,6.6957e+07,66.416,12592,527.79,0,527.79,0,0.00015437,1.3759e-09,0,7.861e-05,2.8895e-05,5.2803e+07,398.92,0,2.6228e+07,35.409,527.79,1
1820,0.95,12139,1,12139,1,2.2207e-05,3.718e-11,0,0.00013606,-4.04e-06,40.201,10.759,0,4.6305e+07,39.38,12138,13096,1,13096,1,0.00028288,2.3233e-09,0,0.00028288,4.4759e-05,8.043e+07,663.03,0,9.6991e+07,165.47,13095,12138,1,12138,1,2.2207e-05,9.651e-12,0,0.00013516,-4.0124e-06,7.2095e+06,2.7089,0,4.6453e+07,38.763,12137,11203,1,11203,1,-0.00023847,-2.0267e-09,0,6.7564e-06,-5.2856e-05,-9.6991e+07,-566.18,0,2.7617e+06,-47.574,11202,11683,1,11683,1,-0.00011296,-4.948e-10,0,6.7582e-05,-2.9336e-05,-4.5939e+07,-141.71,0,2.4155e+07,13.5,11682,12593,1,12593,1,0.00015737,5.8025e-10,0,0.00020274,2.1244e-05,4.6453e+07,172.64,0,6.7671e+07,64.232,12592,527.79,0,527.79,0,0.00015602,8.4487e-10,0,7.9448e-05,2.9203e-05,5.3366e+07,244.62,0,2.6507e+07,32.948,527.79,1
1820,0.96,12139,1,12139,1,2.2441e-05,-1.0107e-10,0,0.00013749,-4.0827e-06,16.465,-29.851,0,4.6793e+07,5.5445,12138,13096,1,13096,1,0.00028586,1.6543e-09,0,0.00028586,4.523e-05,8.1277e+07,452.98,0,9.8012e+07,36.402,13095,12138,1,12138,1,2.2441e-05,-8.0217e-11,0,0.00013659,-4.0549e-06,7.2854e+06,-25.043,0,4.6943e+07,5.6823,12137,11203,1,11203,1,-0.00024098,-1.5092e-09,0,6.8277e-06,-5.3412e-05,-9.8012e+07,-417.26,0,2.7908e+06,-67.571,11202,11683,1,11683,1,-0.00011415,-4.9494e-10,0,6.8293e-05,-2.9646e-05,-4.6423e+07,-143.91,0,2.4409e+07,-5.7592,11682,12593,1,12593,1,0.00015903,2.3274e-10,0,0.00020488,2.1468e-05,4.6943e+07,67.999,0,6.8383e+07,20.119,12592,527.79,0,527.79,0,0.00015766,5.9837e-10,0,8.0285e-05,2.9511e-05,5.3929e+07,173.31,0,2.6786e+07,17.44,527.79,1
1820,0.97,12139,1,12139,1,2.2674e-05,2.8035e-11,0,0.00013892,-4.1252e-06,-13.974,7.7826,0,4.728e+07,4.2405,12138,13096,1,13096,1,0.00028884,1.8741e-09,0,0.00028884,4.5701e-05,8.2123e+07,534.78,0,9.9033e+07,54.529,13095,12138,1,12138,1,2.2674e-05,-7.2166e-12,0,0.00013801,-4.097e-06,7.3612e+06,-2.2314,0,4.7431e+07,5.1647,12137,11203,1,11203,1,-0.00024349,-1.4232e-09,0,6.8988e-06,-5.3968e-05,-9.9033e+07,-405.74,0,2.8199e+06,-36.184,11202,11683,1,11683,1,-0.00011533,-3.9595e-10,0,6.9004e-05,-2.9954e-05,-4.6906e+07,-115.58,0,2.4663e+07,-8.5036,11682,12593,1,12593,1,0.00016068,3.9959e-10,0,0.00020701,2.1691e-05,4.7431e+07,117.21,0,6.9095e+07,17.289,12592,527.79,0,527.79,0,0.0001593,6.3407e-10,0,8.1121e-05,2.9818e-05,5.449e+07,182.49,0,2.7065e+07,17.233,527.79,1
1820,0.98,12139,1,12139,1,2.2909e-05,4.8129e-10,0,0.00014036,-4.1679e-06,2.8861,139.63,0,4.777e+07,4.797,12138,13096,1,13096,1,0.00029183,9.3036e-10,0,0.00029183,4.6174e-05,8.2974e+07,255.92,0,1.0006e+08,49.239,13095,12138,1,12138,1,2.2909e-05,5.3195e-10,0,0.00013944,-4.1395e-06,7.4375e+06,161.27,0,4.7922e+07,3.3227,12137,11203,1,11203,1,-0.00024601,-1.2611e-10,0,6.9701e-06,-5.4528e-05,-1.0006e+08,-43.188,0,2.849e+06,-30.331,11202,11683,1,11683,1,-0.00011653,2.6734e-10,0,6.9719e-05,-3.0264e-05,-4.7392e+07,79.834,0,2.4919e+07,-0.73281,11682,12593,1,12593,1,0.00016235,7.0485e-10,0,0.00020916,2.1916e-05,4.7922e+07,208.69,0,6.9811e+07,10.477,12592,527.79,0,527.79,0,0.00016095,2.8093e-10,0,8.1961e-05,3.0127e-05,5.5054e+07,79.867,0,2.7346e+07,8.983,527.79,1
1820,0.99,12139,1,12139,1,2.3142e-05,1.5814e-10,0,0.00014179,-4.2102e-06,-4.901,45.958,0,4.8254e+07,9.0164,12138,13096,1,13096,1,0.00029479,2.7206e-09,0,0.00029479,4.6643e-05,8.3816e+07,773.97,0,1.0107e+08,69.945,13095,12138,1,12138,1,2.3142e-05,3.5118e-11,0,0.00014085,-4.1815e-06,7.513e+06,10.074,0,4.8409e+07,6.6434,12137,11203,1,11203,1,-0.00024851,-1.8214e-09,0,7.041e-06,-5.5081e-05,-1.0107e+08,-500.84,0,2.878e+06,-41.068,11202,11683,1,11683,1,-0.00011771,-4.2442e-10,0,7.0427e-05,-3.0572e-05,-4.7873e+07,-124.67,0,2.5172e+07,-9.9165,11682,12593,1,12593,1,0.000164,7.0309e-10,0,0.00021128,2.2138e-05,4.8409e+07,203.93,0,7.052e+07,27.756,12592,527.79,0,527.79,0,0.00016258,8.9751e-10,0,8.2793e-05,3.0432e-05,5.5613e+07,260.74,0,2.7623e+07,23.572,527.79,1
1820,1,12139,1,12139,1,2.3378e-05,-5.1672e-10,0,0.00014323,-4.2531e-06,2.6996,-149.97,0,4.8746e+07,0.98417,12138,13096,1,13096,1,0.0002978,1.7394e-10,0,0.0002978,4.7118e-05,8.4671e+07,59.568,0,1.021e+08,23.05,13095,12138,1,12138,1,2.3378e-05,-4.925e-10,0,0.00014229,-4.2241e-06,7.5895e+06,-142.26,0,4.8902e+07,0.77123,12137,11203,1,11203,1,-0.00025104,-1.3273e-09,0,7.1126e-06,-5.5642e-05,-1.021e+08,-365.4,0,2.9073e+06,-24.794,11202,11683,1,11683,1,-0.00011891,-8.1068e-10,0,7.1144e-05,-3.0883e-05,-4.8361e+07,-241.77,0,2.5428e+07,-4.1559,11682,12593,1,12593,1,0.00016567,-2.2038e-10,0,0.00021343,2.2364e-05,4.8902e+07,-62.498,0,7.1238e+07,7.32,12592,527.79,0,527.79,0,0.00016424,3.7761e-10,0,8.3636e-05,3.0742e-05,5.618e+07,108.53,0,2.7905e+07,8.6214,527.79,1
1820,1.01,12139,1,12139,1,2.3609e-05,1.7863e-10,0,0.00014465,-4.2952e-06,-28.398,51.518,0,4.9229e+07,4.7694,12138,13096,1,13096,1,0.00030075,3.2157e-09,0,0.00030075,4.7586e-05,8.551e+07,910.76,0,1.0312e+08,57.13,13095,12138,1,12138,1,2.3609e-05,-1.0526e-11,0,0.0001437,-4.266e-06,7.6647e+06,-3.153,0,4.9387e+07,8.55,12137,11203,1,11203,1,-0.00025353,-1.8822e-09,0,7.1833e-06,-5.6194e-05,-1.0312e+08,-532.89,0,2.9361e+06,-104.94,11202,11683,1,11683,1,-0.00012009,-5.8941e-10,0,7.185e-05,-3.1189e-05,-4.884e+07,-169.38,0,2.568e+07,-12.148,11682,12593,1,12593,1,0.00016731,7.9142e-10,0,0.00021555,2.2586e-05,4.9387e+07,240.93,0,7.1944e+07,29.822,12592,527.79,0,527.79,0,0.00016587,1.1041e-09,0,8.4465e-05,3.1047e-05,5.6736e+07,320.08,0,2.8181e+07,32.775,527.79,1
1820,1.02,12139,1,12139,1,2.3844e-05,7.7869e-11,0,0.00014609,-4.3379e-06,-32.024,22.173,0,4.9718e+07,8.3374,12138,13096,1,13096,1,0.00030373,1.7079e-09,0,0.00030373,4.8058e-05,8.6359e+07,477.17,0,1.0414e+08,57.006,13095,12138,1,12138,1,2.3844e-05,1.3723e-13,0,0.00014513,-4.3084e-06,7.7409e+06,0.070133,0,4.9877e+07,5.9986,12137,11203,1,11203,1,-0.00025605,-1.1064e-09,0,7.2547e-06,-5.6752e-05,-1.0414e+08,-312.55,0,2.9653e+06,-51.765,11202,11683,1,11683,1,-0.00012128,-3.4732e-10,0,7.2563e-05,-3.1499e-05,-4.9325e+07,-97.246,0,2.5935e+07,-4.8538,11682,12593,1,12593,1,0.00016897,4.6255e-10,0,0.00021769,2.281e-05,4.9877e+07,137.55,0,7.2659e+07,22.873,12592,527.79,0,527.79,0,0.00016752,6.1588e-10,0,8.5304e-05,3.1356e-05,5.73e+07,177.87,0,2.8461e+07,20.425,527.79,1
1820,1.03,12139,1,12139,1,2.4077e-05,1.744e-10,0,0.00014752,-4.3804e-06,17.709,50.671,0,5.0205e+07,-1.4173,12138,13096,1,13096,1,0.00030671,3.0665e-09,0,0.00030671,4.8528e-05,8.7204e+07,836.1,0,1.0516e+08,59.484,13095,12138,1,12138,1,2.4077e-05,1.0891e-11,0,0.00014655,-4.3505e-06,7.8166e+06,2.6523,0,5.0365e+07,0.070222,12137,11203,1,11203,1,-0.00025855,-2.0595e-09,0,7.3255e-06,-5.7307e-05,-1.0516e+08,-569.45,0,2.9943e+06,-90.887,11202,11683,1,11683,1,-0.00012247,-5.1764e-10,0,7.3273e-05,-3.1807e-05,-4.9808e+07,-152.83,0,2.6189e+07,-19.814,11682,12593,1,12593,1,0.00017062,8.1592e-10,0,0.00021982,2.3033e-05,5.0365e+07,238.3,0,7.337e+07,22.337,12592,527.79,0,527.79,0,0.00016915,1.0653e-09,0,8.6139e-05,3.1662e-05,5.7861e+07,308.8,0,2.8739e+07,30.774,527.79,1
1820,1.04,12139,1,12139,1,2.4311e-05,-3.492e-10,0,0.00014895,-4.4229e-06,-16.304,-101.85,0,5.0692e+07,14.694,12138,13096,1,13096,1,0.00030968,1.5134e-09,0,0.00030968,4.8999e-05,8.8051e+07,421.99,0,1.0618e+08,82.355,13095,12138,1,12138,1,2.4311e-05,-1.7915e-10,0,0.00014797,-4.3926e-06,7.8925e+06,-50.822,0,5.0855e+07,11.842,12137,11203,1,11203,1,-0.00026106,-2.2934e-09,0,7.3967e-06,-5.7864e-05,-1.0618e+08,-630.99,0,3.0234e+06,-29.833,11202,11683,1,11683,1,-0.00012366,-8.6342e-10,0,7.3985e-05,-3.2116e-05,-5.0291e+07,-253.12,0,2.6443e+07,-3.5192,11682,12593,1,12593,1,0.00017228,1.2675e-10,0,0.00022195,2.3257e-05,5.0855e+07,36.228,0,7.4082e+07,33.683,12592,527.79,0,527.79,0,0.0001708,7.6168e-10,0,8.6975e-05,3.197e-05,5.8423e+07,219.87,0,2.9019e+07,21.524,527.79,1
1820,1.05,12139,1,12139,1,2.4545e-05,-1.3442e-10,0,0.00015038,-4.4654e-06,-5.4248,-39.841,0,5.118e+07,13.221,12138,13096,1,13096,1,0.00031266,2.1722e-09,0,0.00031266,4.947e-05,8.8897e+07,592.33,0,1.072e+08,105.24,13095,12138,1,12138,1,2.4545e-05,-1.106e-10,0,0.00014939,-4.435e-06,7.9684e+06,-32.667,0,5.1343e+07,8.4179,12137,11203,1,11203,1,-0.00026357,-1.8816e-09,0,7.4678e-06,-5.842e-05,-1.072e+08,-517.62,0,3.0525e+06,-36.228,11202,11683,1,11683,1,-0.00012485,-6.6124e-10,0,7.4696e-05,-3.2425e-05,-5.0775e+07,-198.83,0,2.6697e+07,-5.9017,11682,12593,1,12593,1,0.00017394,2.9974e-10,0,0.00022409,2.348e-05,5.1343e+07,83.367,0,7.4794e+07,28.684,12592,527.79,0,527.79,0,0.00017244,8.0855e-10,0,8.7811e-05,3.2277e-05,5.8984e+07,232.75,0,2.9298e+07,25.693,527.79,1
1820,1.06,12139,1,12139,1,2.4778e-05,-3.3148e-10,0,0.00015181,-4.5079e-06,11.808,-96.625,0,5.1666e+07,12.769,12138,13096,1,13096,1,0.00031564,2.5223e-09,0,0.00031564,4.9941e-05,8.9743e+07,694.68,0,1.0822e+08,104.92,13095,12138,1,12138,1,2.4778e-05,-1.8696e-10,0,0.00015081,-4.4771e-06,8.0442e+06,-59.516,0,5.1832e+07,7.1163,12137,11203,1,11203,1,-0.00026608,-2.8721e-09,0,7.5388e-06,-5.8976e-05,-1.0822e+08,-794.07,0,3.0815e+06,-56.483,11202,11683,1,11683,1,-0.00012603,-1.0763e-09,0,7.5406e-05,-3.2733e-05,-5.1258e+07,-312.55,0,2.6951e+07,-11.58,11682,12593,1,12593,1,0.00017559,2.8868e-10,0,0.00022622,2.3704e-05,5.1832e+07,84.497,0,7.5506e+07,32.469,12592,527.79,0,527.79,0,0.00017408,1.0972e-09,0,8.8647e-05,3.2584e-05,5.9545e+07,318.2,0,2.9576e+07,30.949,527.79,1
1820,1.07,12139,1,12139,1,2.5012e-05,-2.1899e-10,0,0.00015324,-4.5504e-06,57.702,-64.269,0,5.2154e+07,9.6688,12138,13096,1,13096,1,0.00031861,2.3605e-09,0,0.00031861,5.0412e-05,9.0589e+07,652.89,0,1.0924e+08,66.274,13095,12138,1,12138,1,2.5012e-05,-1.1263e-10,0,0.00015223,-4.5194e-06,8.1201e+06,-32.851,0,5.2321e+07,8.0048,12137,11203,1,11203,1,-0.00026859,-2.5798e-09,0,7.6098e-06,-5.9532e-05,-1.0924e+08,-711.7,0,3.1105e+06,-63.575,11202,11683,1,11683,1,-0.00012722,-8.6748e-10,0,7.6117e-05,-3.3042e-05,-5.1741e+07,-249.63,0,2.7206e+07,-11.263,11682,12593,1,12593,1,0.00017725,3.3384e-10,0,0.00022835,2.3927e-05,5.2321e+07,99.644,0,7.6218e+07,34.116,12592,527.79,0,527.79,0,0.00017572,9.7323e-10,0,8.9483e-05,3.2891e-05,6.0107e+07,281.34,0,2.9855e+07,26.385,527.79,1
1820,1.08,12139,1,12139,1,2.5246e-05,-2.9042e-10,0,0.00015468,-4.593e-06,26.907,-84.388,0,5.2641e+07,-15.506,12138,13096,1,13096,1,0.00032159,1.6316e-09,0,0.00032159,5.0883e-05,9.1436e+07,460.94,0,1.1026e+08,30.694,13095,12138,1,12138,1,2.5246e-05,-1.4944e-10,0,0.00015366,-4.5618e-06,8.196e+06,-43.622,0,5.281e+07,-11.819,12137,11203,1,11203,1,-0.0002711,-2.2561e-09,0,7.6809e-06,-6.0088e-05,-1.1026e+08,-637.01,0,3.1396e+06,-112.98,11202,11683,1,11683,1,-0.00012841,-7.91e-10,0,7.6829e-05,-3.3351e-05,-5.2225e+07,-231.67,0,2.746e+07,-34.566,11682,12593,1,12593,1,0.0001789,1.7261e-10,0,0.00023049,2.4151e-05,5.281e+07,50.732,0,7.693e+07,6.8088,12592,527.79,0,527.79,0,0.00017736,7.3985e-10,0,9.0319e-05,3.3199e-05,6.0669e+07,213.26,0,3.0134e+07,28.013,527.79,1
1820,1.09,12139,1,12139,1,2.5481e-05,2.7993e-10,0,0.00015612,-4.6359e-06,11.195,81.456,0,5.3133e+07,-6.1486,12138,13096,1,13096,1,0.00032459,1.1077e-09,0,0.00032459,5.1358e-05,9.2289e+07,304.58,0,1.1129e+08,26.073,13095,12138,1,12138,1,2.5481e-05,2.0056e-10,0,0.00015509,-4.6043e-06,8.2725e+06,57.145,0,5.3303e+07,-4.7727,12137,11203,1,11203,1,-0.00027363,-5.2028e-10,0,7.7526e-06,-6.0649e-05,-1.1129e+08,-143,0,3.1689e+06,-54.983,11202,11683,1,11683,1,-0.00012961,3.0934e-11,0,7.7546e-05,-3.3662e-05,-5.2712e+07,8.6738,0,2.7716e+07,-12.199,11682,12593,1,12593,1,0.00018057,5.1615e-10,0,0.00023264,2.4376e-05,5.3303e+07,151.55,0,7.7648e+07,1.2474,12592,527.79,0,527.79,0,0.00017902,3.3823e-10,0,9.1163e-05,3.3509e-05,6.1236e+07,97.768,0,3.0416e+07,10.926,527.79,1
1820,1.1,12139,1,12139,1,2.5713e-05,-9.3829e-10,0,0.00015754,-4.6779e-06,2.3231,-273.41,0,5.3615e+07,7.1199,12138,13096,1,13096,1,0.00032755,2.3047e-09,0,0.00032755,5.1826e-05,9.3129e+07,635.15,0,1.123e+08,110.64,13095,12138,1,12138,1,2.5713e-05,-6.0639e-10,0,0.0001565,-4.646e-06,8.3476e+06,-173.41,0,5.3787e+07,3.2277,12137,11203,1,11203,1,-0.00027612,-4.6364e-09,0,7.8231e-06,-6.1201e-05,-1.123e+08,-1285.7,0,3.1977e+06,-63.256,11202,11683,1,11683,1,-0.00013079,-1.9458e-09,0,7.8251e-05,-3.3968e-05,-5.3191e+07,-574.07,0,2.7968e+07,-19.667,11682,12593,1,12593,1,0.00018221,8.2422e-11,0,0.00023475,2.4598e-05,5.3787e+07,22.131,0,7.8354e+07,31.545,12592,527.79,0,527.79,0,0.00018064,1.4718e-09,0,9.199e-05,3.3813e-05,6.1791e+07,426.74,0,3.0692e+07,36.106,527.79,1
1820,1.11,12139,1,12139,1,2.5949e-05,-3.5604e-10,0,0.00015898,-4.7209e-06,8.444,-103.57,0,5.4107e+07,-1.9234,12138,13096,1,13096,1,0.00033054,5.8819e-12,0,0.00033054,5.23e-05,9.3982e+07,2.0155,0,1.1333e+08,4.5017,13095,12138,1,12138,1,2.5949e-05,-3.7364e-10,0,0.00015794,-4.6887e-06,8.4242e+06,-111.54,0,5.428e+07,-1.7604,12137,11203,1,11203,1,-0.00027865,-8.1638e-10,0,7.8948e-06,-6.1761e-05,-1.1333e+08,-226.14,0,3.227e+06,-23.592,11202,11683,1,11683,1,-0.00013199,-4.8333e-10,0,7.8968e-05,-3.4279e-05,-5.3679e+07,-139.83,0,2.8224e+07,-2.9807,11682,12593,1,12593,1,0.00018389,-2.1512e-10,0,0.0002369,2.4823e-05,5.428e+07,-61.206,0,7.9072e+07,-0.13075,12592,527.79,0,527.79,0,0.0001823,1.9115e-10,0,9.2835e-05,3.4123e-05,6.2358e+07,54.99,0,3.0974e+07,3.1171,527.79,1
1820,1.12,12139,1,12139,1,2.6181e-05,-2.2169e-10,0,0.00016041,-4.7631e-06,-32.442,-64.378,0,5.4591e+07,-3.2532,12138,13096,1,13096,1,0.0003335,1.641e-09,0,0.0003335,5.2768e-05,9.4822e+07,468.34,0,1.1435e+08,33.215,13095,12138,1,12138,1,2.618e-05,-8.6383e-11,0,0.00015935,-4.7307e-06,8.4995e+06,-24.849,0,5.4766e+07,-2.162,12137,11203,1,11203,1,-0.00028114,-2.2664e-09,0,7.9656e-06,-6.2314e-05,-1.1435e+08,-646.08,0,3.2559e+06,-76.021,11202,11683,1,11683,1,-0.00013317,-7.2618e-10,0,7.9675e-05,-3.4586e-05,-5.4159e+07,-210.93,0,2.8477e+07,-19.997,11682,12593,1,12593,1,0.00018553,2.6915e-10,0,0.00023902,2.5045e-05,5.4766e+07,76.633,0,7.978e+07,13.577,12592,527.79,0,527.79,0,0.00018393,7.6059e-10,0,9.3664e-05,3.4428e-05,6.2916e+07,220.13,0,3.125e+07,20.675,527.79,1
1820,1.13,12139,1,12139,1,2.6416e-05,3.0967e-10,0,0.00016185,-4.8059e-06,17.968,89.774,0,5.5082e+07,1.4627,12138,13096,1,13096,1,0.0003365,9.263e-10,0,0.0003365,5.3242e-05,9.5675e+07,252.79,0,1.1537e+08,21.562,13095,12138,1,12138,1,2.6416e-05,2.8102e-10,0,0.00016078,-4.7732e-06,8.576e+06,83.887,0,5.5258e+07,1.9427,12137,11203,1,11203,1,-0.00028367,-1.5649e-10,0,8.037e-06,-6.2874e-05,-1.1537e+08,-53.593,0,3.2851e+06,-35.184,11202,11683,1,11683,1,-0.00013437,1.3369e-10,0,8.0391e-05,-3.4897e-05,-5.4646e+07,40.132,0,2.8733e+07,-3.4524,11682,12593,1,12593,1,0.0001872,4.6184e-10,0,0.00024117,2.527e-05,5.5258e+07,135.22,0,8.0497e+07,8.2762,12592,527.79,0,527.79,0,0.00018559,2.3991e-10,0,9.4507e-05,3.4738e-05,6.3482e+07,68.712,0,3.1532e+07,9.7716,527.79,1
1820,1.14,12139,1,12139,1,2.6649e-05,-3.6111e-10,0,0.00016327,-4.8482e-06,-4.3726,-105.53,0,5.5567e+07,3.2701,12138,13096,1,13096,1,0.00033947,2.5841e-09,0,0.00033947,5.3712e-05,9.6519e+07,707.03,0,1.1639e+08,74.545,13095,12138,1,12138,1,2.6649e-05,-2.1197e-10,0,0.0001622,-4.8152e-06,8.6515e+06,-59.37,0,5.5745e+07,1.6718,12137,11203,1,11203,1,-0.00028617,-2.8323e-09,0,8.108e-06,-6.3429e-05,-1.1639e+08,-782.86,0,3.3142e+06,-63.627,11202,11683,1,11683,1,-0.00013555,-1.2418e-09,0,8.11e-05,-3.5205e-05,-5.5128e+07,-361.27,0,2.8986e+07,-18.149,11682,12593,1,12593,1,0.00018885,3.3531e-10,0,0.0002433,2.5493e-05,5.5745e+07,105.23,0,8.1207e+07,25.17,12592,527.79,0,527.79,0,0.00018722,1.1894e-09,0,9.534e-05,3.5044e-05,6.4041e+07,344.67,0,3.1809e+07,28.963,527.79,1
1820,1.15,12139,1,12139,1,2.6883e-05,4.696e-10,0,0.00016471,-4.8909e-06,4.3453,135.51,0,5.6056e+07,5.5412,12138,13096,1,13096,1,0.00034245,2.1968e-09,0,0.00034245,5.4184e-05,9.7367e+07,607.19,0,1.1742e+08,49.787,13095,12138,1,12138,1,2.6883e-05,2.4928e-10,0,0.00016362,-4.8576e-06,8.7276e+06,70.149,0,5.6235e+07,5.3715,12137,11203,1,11203,1,-0.00028868,-5.9323e-10,0,8.1792e-06,-6.3986e-05,-1.1742e+08,-162.5,0,3.3432e+06,-60.342,11202,11683,1,11683,1,-0.00013674,-5.4686e-11,0,8.1812e-05,-3.5514e-05,-5.5612e+07,-16.75,0,2.9241e+07,-7.2828,11682,12593,1,12593,1,0.00019051,9.5169e-10,0,0.00024544,2.5717e-05,5.6235e+07,282.63,0,8.192e+07,21.598,12592,527.79,0,527.79,0,0.00018887,6.8627e-10,0,9.6178e-05,3.5352e-05,6.4604e+07,197.02,0,3.2089e+07,21.328,527.79,1
1820,1.16,12139,1,12139,1,2.7117e-05,1.0896e-10,0,0.00016614,-4.9334e-06,8.3808,31.104,0,5.6543e+07,7.3884,12138,13096,1,13096,1,0.00034542,1.6662e-09,0,0.00034542,5.4654e-05,9.8213e+07,472.23,0,1.1844e+08,52.434,13095,12138,1,12138,1,2.7117e-05,2.0188e-11,0,0.00016505,-4.8998e-06,8.8034e+06,5.3712,0,5.6724e+07,4.2807,12137,11203,1,11203,1,-0.00029119,-1.0671e-09,0,8.2503e-06,-6.4542e-05,-1.1844e+08,-297.18,0,3.3723e+06,-47.133,11202,11683,1,11683,1,-0.00013793,-2.6122e-10,0,8.2523e-05,-3.5823e-05,-5.6096e+07,-79.118,0,2.9495e+07,-6.205,11682,12593,1,12593,1,0.00019216,4.8988e-10,0,0.00024757,2.5941e-05,5.6724e+07,139.16,0,8.2632e+07,22.863,12592,527.79,0,527.79,0,0.00019051,5.7476e-10,0,9.7014e-05,3.566e-05,6.5165e+07,166.08,0,3.2368e+07,19.118,527.79,1
1820,1.17,12139,1,12139,1,2.735e-05,1.8716e-10,0,0.00016757,-4.9758e-06,1.7399,54.613,0,5.703e+07,10.933,12138,13096,1,13096,1,0.0003484,2.2076e-09,0,0.0003484,5.5125e-05,9.9058e+07,629.88,0,1.1945e+08,73.158,13095,12138,1,12138,1,2.735e-05,4.052e-11,0,0.00016647,-4.942e-06,8.8792e+06,12.189,0,5.7212e+07,6.4872,12137,11203,1,11203,1,-0.0002937,-9.4895e-10,0,8.3213e-06,-6.5098e-05,-1.1945e+08,-268.11,0,3.4013e+06,-61.009,11202,11683,1,11683,1,-0.00013912,-2.4104e-10,0,8.3234e-05,-3.6131e-05,-5.6579e+07,-73.623,0,2.9749e+07,-4.4305,11682,12593,1,12593,1,0.00019382,5.616e-10,0,0.0002497,2.6164e-05,5.7212e+07,163.46,0,8.3344e+07,24.934,12592,527.79,0,527.79,0,0.00019215,6.4688e-10,0,9.7849e-05,3.5967e-05,6.5726e+07,188.08,0,3.2647e+07,21.128,527.79,1
1820,1.18,12139,1,12139,1,2.7584e-05,-3.5462e-10,0,0.000169,-5.0183e-06,43.421,-102.76,0,5.7517e+07,1.6831,12138,13096,1,13096,1,0.00035137,1.4338e-09,0,0.00035137,5.5596e-05,9.9904e+07,408.3,0,1.2047e+08,48.58,13095,12138,1,12138,1,2.7584e-05,-2.1155e-10,0,0.00016789,-4.9842e-06,8.9551e+06,-62.898,0,5.7701e+07,0.93868,12137,11203,1,11203,1,-0.00029621,-2.0337e-09,0,8.3922e-06,-6.5653e-05,-1.2047e+08,-564.31,0,3.4303e+06,-48.694,11202,11683,1,11683,1,-0.00014031,-8.6119e-10,0,8.3945e-05,-3.644e-05,-5.7062e+07,-250.5,0,3.0003e+07,-11.018,11682,12593,1,12593,1,0.00019547,9.0911e-11,0,0.00025183,2.6387e-05,5.7701e+07,26.31,0,8.4055e+07,15.494,12592,527.79,0,527.79,0,0.00019379,6.9947e-10,0,9.8684e-05,3.6274e-05,6.6288e+07,203.6,0,3.2925e+07,18.028,527.79,1
1820,1.19,12139,1,12139,1,2.7819e-05,-2.6006e-10,0,0.00017044,-5.0611e-06,10.861,-75.876,0,5.8007e+07,0.33342,12138,13096,1,13096,1,0.00035437,2.325e-11,0,0.00035437,5.6069e-05,1.0076e+08,6.1019,0,1.215e+08,15.496,13095,12138,1,12138,1,2.7819e-05,-2.2492e-10,0,0.00016932,-5.0266e-06,9.0314e+06,-66.182,0,5.8192e+07,-0.59671,12137,11203,1,11203,1,-0.00029873,-8.9478e-10,0,8.4639e-06,-6.6212e-05,-1.215e+08,-247.93,0,3.4596e+06,-14.802,11202,11683,1,11683,1,-0.0001415,-3.619e-10,0,8.466e-05,-3.675e-05,-5.7548e+07,-106.04,0,3.0259e+07,-2.7475,11682,12593,1,12593,1,0.00019714,-1.0909e-10,0,0.00025398,2.6612e-05,5.8192e+07,-31.805,0,8.4772e+07,2.9097,12592,527.79,0,527.79,0,0.00019544,1.8678e-10,0,9.9526e-05,3.6583e-05,6.6853e+07,54.241,0,3.3206e+07,5.2969,527.79,1
1820,1.2,12139,1,12139,1,2.8051e-05,4.1464e-11,0,0.00017187,-5.1034e-06,72.799,11.736,0,5.8491e+07,0.68133,12138,13096,1,13096,1,0.00035733,2.6714e-09,0,0.00035733,5.6537e-05,1.016e+08,762,0,1.2252e+08,65.534,13095,12138,1,12138,1,2.8051e-05,-4.2182e-11,0,0.00017073,-5.0686e-06,9.1068e+06,-13.008,0,5.8678e+07,-1.4706,12137,11203,1,11203,1,-0.00030122,-1.8542e-09,0,8.5344e-06,-6.6766e-05,-1.2252e+08,-515.34,0,3.4885e+06,-54.029,11202,11683,1,11683,1,-0.00014268,-5.6088e-10,0,8.5367e-05,-3.7057e-05,-5.8029e+07,-162.31,0,3.0511e+07,-13.565,11682,12593,1,12593,1,0.00019879,5.3018e-10,0,0.0002561,2.6835e-05,5.8678e+07,153.42,0,8.5479e+07,15.668,12592,527.79,0,527.79,0,0.00019707,9.0032e-10,0,0.00010036,3.6888e-05,6.7411e+07,260.99,0,3.3483e+07,21.489,527.79,1
1820,1.21,12139,1,12139,1,2.8285e-05,-7.9584e-10,0,0.0001733,-5.146e-06,-17.296,-230.58,0,5.8979e+07,-10.273,12138,13096,1,13096,1,0.00036031,3.1145e-10,0,0.00036031,5.701e-05,1.0245e+08,106.35,0,1.2354e+08,28.809,13095,12138,1,12138,1,2.8285e-05,-8.3561e-10,0,0.00017216,-5.1109e-06,9.1827e+06,-243.64,0,5.9168e+07,-7.8242,12137,11203,1,11203,1,-0.00030374,-1.9168e-09,0,8.6057e-06,-6.7324e-05,-1.2354e+08,-523.36,0,3.5176e+06,-61.891,11202,11683,1,11683,1,-0.00014387,-1.2661e-09,0,8.6079e-05,-3.7366e-05,-5.8513e+07,-370.47,0,3.0766e+07,-21.047,11682,12593,1,12593,1,0.00020044,-3.4879e-10,0,0.00025824,2.7058e-05,5.9168e+07,-101.66,0,8.6193e+07,1.4698,12592,527.79,0,527.79,0,0.00019872,5.7897e-10,0,0.00010119,3.7196e-05,6.7974e+07,165.47,0,3.3763e+07,16.032,527.79,1
1820,1.22,12139,1,12139,1,2.8518e-05,-5.4971e-11,0,0.00017473,-5.1884e-06,11.652,-16.213,0,5.9465e+07,8.26,12138,13096,1,13096,1,0.00036328,1.7773e-09,0,0.00036328,5.7479e-05,1.0329e+08,496.64,0,1.2456e+08,47.623,13095,12138,1,12138,1,2.8518e-05,-4.9857e-11,0,0.00017358,-5.153e-06,9.2585e+06,-13.983,0,5.9656e+07,6.1596,12137,11203,1,11203,1,-0.00030624,-1.7175e-09,0,8.6768e-06,-6.7877e-05,-1.2456e+08,-476.35,0,3.5466e+06,-38.659,11202,11683,1,11683,1,-0.00014506,-4.8767e-10,0,8.6789e-05,-3.7674e-05,-5.8995e+07,-140.87,0,3.102e+07,-5.3277,11682,12593,1,12593,1,0.0002021,3.2816e-10,0,0.00026037,2.7282e-05,5.9656e+07,95.864,0,8.6903e+07,23.831,12592,527.79,0,527.79,0,0.00020036,6.6683e-10,0,0.00010203,3.7503e-05,6.8534e+07,193.8,0,3.4041e+07,16.766,527.79,1
1820,1.23,12139,1,12139,1,2.8753e-05,-3.8662e-11,0,0.00017617,-5.2311e-06,-0.0047005,-11.258,0,5.9955e+07,1.2507,12138,13096,1,13096,1,0.00036627,1.2406e-09,0,0.00036627,5.7952e-05,1.0414e+08,354.08,0,1.2558e+08,33.585,13095,12138,1,12138,1,2.8753e-05,-2.5544e-11,0,0.00017501,-5.1954e-06,9.3346e+06,-6.6778,0,6.0146e+07,-0.60598,12137,11203,1,11203,1,-0.00030876,-9.2926e-10,0,8.7482e-06,-6.8436e-05,-1.2558e+08,-256.22,0,3.5758e+06,-41.083,11202,11683,1,11683,1,-0.00014625,-3.4271e-10,0,8.7503e-05,-3.7984e-05,-5.948e+07,-101.44,0,3.1275e+07,-8.58,11682,12593,1,12593,1,0.00020376,2.1878e-10,0,0.00026251,2.7506e-05,6.0146e+07,65.309,0,8.7618e+07,12.436,12592,527.79,0,527.79,0,0.00020201,4.376e-10,0,0.00010287,3.7811e-05,6.9098e+07,126.69,0,3.4321e+07,13.705,527.79,1
1820,1.24,12139,1,12139,1,2.8986e-05,2.8279e-11,0,0.00017759,-5.2734e-06,-3.4813,7.9033,0,6.044e+07,7.1006,12138,13096,1,13096,1,0.00036923,3.1801e-09,0,0.00036923,5.8421e-05,1.0498e+08,883.88,0,1.266e+08,80.189,13095,12138,1,12138,1,2.8986e-05,-2.9718e-11,0,0.00017642,-5.2375e-06,9.4102e+06,-7.8885,0,6.0634e+07,4.5629,12137,11203,1,11203,1,-0.00031126,-2.2608e-09,0,8.819e-06,-6.899e-05,-1.266e+08,-624.54,0,3.6048e+06,-55.377,11202,11683,1,11683,1,-0.00014744,-7.1087e-10,0,8.8211e-05,-3.8292e-05,-5.9962e+07,-204.31,0,3.1528e+07,-13.074,11682,12593,1,12593,1,0.00020541,6.2857e-10,0,0.00026463,2.7729e-05,6.0634e+07,181.78,0,8.8328e+07,27.441,12592,527.79,0,527.79,0,0.00020364,1.0828e-09,0,0.0001037,3.8117e-05,6.9657e+07,313.64,0,3.4599e+07,27.031,527.79,1
1820,1.25,12139,1,12139,1,2.9221e-05,3.5202e-10,0,0.00017903,-5.3161e-06,-1.7679,101.98,0,6.093e+07,0.10168,12138,13096,1,13096,1,0.00037222,9.4806e-10,0,0.00037222,5.8895e-05,1.0583e+08,263.82,0,1.2762e+08,42.763,13095,12138,1,12138,1,2.922e-05,3.5238e-10,0,0.00017785,-5.2799e-06,9.4864e+06,105.03,0,6.1124e+07,-1.0067,12137,11203,1,11203,1,-0.00031378,-2.49e-10,0,8.8904e-06,-6.9549e-05,-1.2762e+08,-85.27,0,3.6339e+06,-22.568,11202,11683,1,11683,1,-0.00014863,1.2101e-10,0,8.8926e-05,-3.8602e-05,-6.0448e+07,35.901,0,3.1783e+07,-7.4982,11682,12593,1,12593,1,0.00020707,5.8092e-10,0,0.00026678,2.7953e-05,6.1124e+07,171.77,0,8.9043e+07,5.5163,12592,527.79,0,527.79,0,0.00020529,2.906e-10,0,0.00010454,3.8426e-05,7.0221e+07,83.271,0,3.4879e+07,11.243,527.79,1
1820,1.26,12139,1,12139,1,2.9453e-05,-2.5597e-10,0,0.00018046,-5.3584e-06,-29.01,-74.892,0,6.1415e+07,18.524,12138,13096,1,13096,1,0.00037519,2.2693e-09,0,0.00037519,5.9364e-05,1.0668e+08,633.99,0,1.2864e+08,119.43,13095,12138,1,12138,1,2.9453e-05,-1.5892e-10,0,0.00017927,-5.3219e-06,9.562e+06,-43.293,0,6.1612e+07,11.992,12137,11203,1,11203,1,-0.00031628,-2.2439e-09,0,8.9614e-06,-7.0103e-05,-1.2864e+08,-621.63,0,3.663e+06,-29.468,11202,11683,1,11683,1,-0.00014982,-9.201e-10,0,8.9634e-05,-3.891e-05,-6.093e+07,-260.23,0,3.2037e+07,-6.1145,11682,12593,1,12593,1,0.00020872,2.5894e-10,0,0.0002689,2.8176e-05,6.1612e+07,77.735,0,8.9753e+07,37.342,12592,527.79,0,527.79,0,0.00020693,9.2125e-10,0,0.00010537,3.8732e-05,7.0781e+07,265.16,0,3.5157e+07,31.208,527.79,1
1820,1.27,12139,1,12139,1,2.9688e-05,-4.1797e-10,0,0.00018189,-5.4011e-06,-14.036,-121.22,0,6.1904e+07,4.6824,12138,13096,1,13096,1,0.00037818,1.0285e-09,0,0.00037818,5.9836e-05,1.0752e+08,282.34,0,1.2966e+08,71.48,13095,12138,1,12138,1,2.9688e-05,-2.8664e-10,0,0.0001807,-5.3643e-06,9.6381e+06,-82.481,0,6.2102e+07,2.4094,12137,11203,1,11203,1,-0.0003188,-2.1131e-09,0,9.0326e-06,-7.0661e-05,-1.2966e+08,-581.72,0,3.6921e+06,-26.189,11202,11683,1,11683,1,-0.00015101,-8.9405e-10,0,9.0348e-05,-3.9219e-05,-6.1414e+07,-260.52,0,3.2292e+07,-8.1404,11682,12593,1,12593,1,0.00021038,8.4328e-11,0,0.00027104,2.84e-05,6.2102e+07,23.218,0,9.0467e+07,15.112,12592,527.79,0,527.79,0,0.00020857,6.5908e-10,0,0.00010621,3.904e-05,7.1344e+07,190.54,0,3.5437e+07,16.592,527.79,1
1820,1.28,12139,1,12139,1,2.9922e-05,-1.8824e-10,0,0.00018333,-5.4437e-06,12.297,-54.527,0,6.2391e+07,4.2644,12138,13096,1,13096,1,0.00038115,1.3168e-09,0,0.00038115,6.0307e-05,1.0837e+08,375.76,0,1.3069e+08,35.806,13095,12138,1,12138,1,2.9922e-05,-1.0041e-10,0,0.00018212,-5.4066e-06,9.714e+06,-27.183,0,6.2591e+07,1.7556,12137,11203,1,11203,1,-0.00032131,-1.4869e-09,0,9.1037e-06,-7.1218e-05,-1.3069e+08,-417.96,0,3.7211e+06,-45.045,11202,11683,1,11683,1,-0.0001522,-6.0078e-10,0,9.1059e-05,-3.9528e-05,-6.1898e+07,-171.57,0,3.2546e+07,-8.7826,11682,12593,1,12593,1,0.00021204,1.6444e-10,0,0.00027318,2.8624e-05,6.2591e+07,47.55,0,9.1179e+07,19.044,12592,527.79,0,527.79,0,0.00021022,5.8446e-10,0,0.00010705,3.9348e-05,7.1906e+07,168.01,0,3.5716e+07,16.531,527.79,1
1820,1.29,12139,1,12139,1,3.0155e-05,1.6304e-10,0,0.00018476,-5.4862e-06,-2.4632,46.733,0,6.2879e+07,6.1207,12138,13096,1,13096,1,0.00038413,1.339e-09,0,0.00038413,6.0778e-05,1.0922e+08,368.41,0,1.3171e+08,50.332,13095,12138,1,12138,1,3.0155e-05,1.2403e-10,0,0.00018354,-5.4489e-06,9.7899e+06,35.649,0,6.308e+07,8.1759,12137,11203,1,11203,1,-0.00032382,-9.298e-10,0,9.1748e-06,-7.1774e-05,-1.3171e+08,-260.33,0,3.7502e+06,-105.49,11202,11683,1,11683,1,-0.00015339,-1.2364e-10,0,9.177e-05,-3.9837e-05,-6.2381e+07,-35.474,0,3.28e+07,-3.2544,11682,12593,1,12593,1,0.0002137,4.5535e-10,0,0.00027531,2.8847e-05,6.308e+07,136.69,0,9.1891e+07,18.865,12592,527.79,0,527.79,0,0.00021186,4.0275e-10,0,0.00010788,3.9655e-05,7.2467e+07,115.7,0,3.5995e+07,19.928,527.79,1
1820,1.3,12139,1,12139,1,3.0389e-05,-3.9886e-10,0,0.00018619,-5.5288e-06,0.69762,-116.01,0,6.3367e+07,2.7688,12138,13096,1,13096,1,0.00038711,7.8541e-10,0,0.00038711,6.1251e-05,1.1007e+08,216.49,0,1.3273e+08,39.841,13095,12138,1,12138,1,3.0389e-05,-2.9109e-10,0,0.00018497,-5.4911e-06,9.8659e+06,-85.191,0,6.357e+07,1.2162,12137,11203,1,11203,1,-0.00032633,-1.5177e-09,0,9.246e-06,-7.2331e-05,-1.3273e+08,-417.3,0,3.7793e+06,-31.057,11202,11683,1,11683,1,-0.00015458,-8.1458e-10,0,9.2483e-05,-4.0146e-05,-6.2866e+07,-241.34,0,3.3055e+07,-7.6067,11682,12593,1,12593,1,0.00021536,-1.6254e-11,0,0.00027745,2.9072e-05,6.357e+07,-4.2797,0,9.2605e+07,13.283,12592,527.79,0,527.79,0,0.0002135,5.1742e-10,0,0.00010872,3.9963e-05,7.303e+07,149.83,0,3.6274e+07,13.895,527.79,1
1820,1.31,12139,1,12139,1,3.0623e-05,-1.3409e-10,0,0.00018762,-5.5712e-06,4.0249,-38.954,0,6.3854e+07,6.1157,12138,13096,1,13096,1,0.00039008,1.0297e-09,0,0.00039008,6.1721e-05,1.1091e+08,293.76,0,1.3375e+08,32.93,13095,12138,1,12138,1,3.0623e-05,-7.7765e-11,0,0.00018639,-5.5333e-06,9.9417e+06,-21.579,0,6.4058e+07,5.1137,12137,11203,1,11203,1,-0.00032884,-1.3274e-09,0,9.317e-06,-7.2886e-05,-1.3375e+08,-366.7,0,3.8083e+06,-31.965,11202,11683,1,11683,1,-0.00015576,-4.5844e-10,0,9.3193e-05,-4.0454e-05,-6.3349e+07,-135.63,0,3.3309e+07,-4.4721,11682,12593,1,12593,1,0.00021701,1.7123e-10,0,0.00027958,2.9295e-05,6.4058e+07,50.066,0,9.3316e+07,17.548,12592,527.79,0,527.79,0,0.00021514,4.8964e-10,0,0.00010956,4.027e-05,7.3591e+07,142,0,3.6553e+07,13.106,527.79,1
1820,1.32,12139,1,12139,1,3.0857e-05,7.5325e-10,0,0.00018906,-5.6138e-06,8.3622,217.38,0,6.4341e+07,8.6677,12138,13096,1,13096,1,0.00039307,2.1196e-09,0,0.00039307,6.2193e-05,1.1176e+08,575.57,0,1.3477e+08,44.254,13095,12138,1,12138,1,3.0857e-05,6.9774e-10,0,0.00018781,-5.5755e-06,1.0018e+07,205.28,0,6.4547e+07,9.2813,12137,11203,1,11203,1,-0.00033136,-2.4653e-10,0,9.3881e-06,-7.3444e-05,-1.3477e+08,-84.427,0,3.8374e+06,-32.151,11202,11683,1,11683,1,-0.00015695,2.4484e-10,0,9.3905e-05,-4.0763e-05,-6.3833e+07,73.669,0,3.3563e+07,-2.4745,11682,12593,1,12593,1,0.00021867,1.198e-09,0,0.00028172,2.9519e-05,6.4547e+07,354.35,0,9.4029e+07,20.318,12592,527.79,0,527.79,0,0.00021679,6.0963e-10,0,0.00011039,4.0578e-05,7.4153e+07,172.67,0,3.6832e+07,14.595,527.79,1
1820,1.33,12139,1,12139,1,3.109e-05,2.511e-10,0,0.00019049,-5.6562e-06,8.8682,72.881,0,6.4828e+07,6.2556,12138,13096,1,13096,1,0.00039604,2.2684e-09,0,0.00039604,6.2663e-05,1.126e+08,620.47,0,1.3579e+08,46.218,13095,12138,1,12138,1,3.109e-05,1.0045e-10,0,0.00018923,-5.6177e-06,1.0093e+07,29.739,0,6.5035e+07,5.1816,12137,11203,1,11203,1,-0.00033386,-1.1166e-09,0,9.4592e-06,-7.3999e-05,-1.3579e+08,-308.44,0,3.8664e+06,-34.886,11202,11683,1,11683,1,-0.00015814,-1.7137e-10,0,9.4615e-05,-4.1072e-05,-6.4315e+07,-48.717,0,3.3817e+07,-7.3129,11682,12593,1,12593,1,0.00022032,6.5666e-10,0,0.00028385,2.9742e-05,6.5035e+07,190.18,0,9.474e+07,20.23,12592,527.79,0,527.79,0,0.00021842,6.7214e-10,0,0.00011123,4.0885e-05,7.4714e+07,194.29,0,3.7111e+07,17.307,527.79,1
1820,1.34,12139,1,12139,1,3.1324e-05,-2.7756e-10,0,0.00019192,-5.6989e-06,-12.334,-80.363,0,6.5317e+07,0.29829,12138,13096,1,13096,1,0.00039902,1.4766e-10,0,0.00039902,6.3135e-05,1.1345e+08,50.569,0,1.3681e+08,35.399,13095,12138,1,12138,1,3.1324e-05,-3.0951e-10,0,0.00019066,-5.66e-06,1.0169e+07,-93.089,0,6.5525e+07,0.072545,12137,11203,1,11203,1,-0.00033637,-6.7773e-10,0,9.5305e-06,-7.4556e-05,-1.3681e+08,-181.43,0,3.8956e+06,-28.402,11202,11683,1,11683,1,-0.00015933,-4.3599e-10,0,9.5328e-05,-4.1381e-05,-6.48e+07,-127.04,0,3.4072e+07,-4.907,11682,12593,1,12593,1,0.00022198,-1.1849e-10,0,0.00028598,2.9966e-05,6.5525e+07,-35.642,0,9.5454e+07,5.3725,12592,527.79,0,527.79,0,0.00022007,2.0528e-10,0,0.00011207,4.1193e-05,7.5277e+07,58.598,0,3.739e+07,10.925,527.79,1
1820,1.35,12139,1,12139,1,3.1561e-05,-1.2409e-10,0,0.00019337,-5.7419e-06,-4.8069,-35.699,0,6.581e+07,-6.3784,12138,13096,1,13096,1,0.00040203,8.0472e-10,0,0.00040203,6.3611e-05,1.1431e+08,218.46,0,1.3784e+08,22.562,13095,12138,1,12138,1,3.1561e-05,-3.7642e-11,0,0.00019209,-5.7028e-06,1.0246e+07,-10.797,0,6.602e+07,-4.6079,12137,11203,1,11203,1,-0.00033891,-1.1268e-09,0,9.6023e-06,-7.5119e-05,-1.3784e+08,-305.3,0,3.925e+06,-40.637,11202,11683,1,11683,1,-0.00016053,-4.0959e-10,0,9.6047e-05,-4.1693e-05,-6.5289e+07,-120.28,0,3.4329e+07,-15.428,11682,12593,1,12593,1,0.00022366,1.1813e-10,0,0.00028814,3.0192e-05,6.602e+07,36.71,0,9.6174e+07,3.0545,12592,527.79,0,527.79,0,0.00022173,3.8728e-10,0,0.00011291,4.1504e-05,7.5845e+07,111.53,0,3.7673e+07,11.808,527.79,1
1820,1.36,12139,1,12139,1,3.1792e-05,-6.2236e-10,0,0.00019479,-5.784e-06,-2.9122,-180.73,0,6.6292e+07,-0.95123,12138,13096,1,13096,1,0.00040499,1.1564e-10,0,0.00040499,6.4078e-05,1.1515e+08,39.603,0,1.3886e+08,19.87,13095,12138,1,12138,1,3.1792e-05,-5.8346e-10,0,0.00019351,-5.7446e-06,1.0321e+07,-168.43,0,6.6504e+07,-0.40785,12137,11203,1,11203,1,-0.0003414,-1.5883e-09,0,9.6728e-06,-7.5671e-05,-1.3886e+08,-437.62,0,3.9538e+06,-24.853,11202,11683,1,11683,1,-0.00016171,-9.7296e-10,0,9.6752e-05,-4.1999e-05,-6.5768e+07,-291.26,0,3.4581e+07,-6.5514,11682,12593,1,12593,1,0.0002253,-2.3915e-10,0,0.00029026,3.0414e-05,6.6504e+07,-72.253,0,9.688e+07,4.4605,12592,527.79,0,527.79,0,0.00022336,4.59e-10,0,0.00011374,4.1808e-05,7.6402e+07,132.18,0,3.7949e+07,7.7322,527.79,1
1820,1.37,12139,1,12139,1,3.2025e-05,-1.3156e-10,0,0.00019622,-5.8264e-06,-4.8175,-38.33,0,6.6778e+07,8.6477,12138,13096,1,13096,1,0.00040795,1.7108e-09,0,0.00040795,6.4548e-05,1.1599e+08,467.55,0,1.3987e+08,62.59,13095,12138,1,12138,1,3.2025e-05,-8.9971e-11,0,0.00019492,-5.7867e-06,1.0397e+07,-24.652,0,6.6992e+07,4.5228,12137,11203,1,11203,1,-0.0003439,-1.4113e-09,0,9.7438e-06,-7.6225e-05,-1.3987e+08,-390.32,0,3.9828e+06,-42.652,11202,11683,1,11683,1,-0.0001629,-6.0872e-10,0,9.7462e-05,-4.2307e-05,-6.625e+07,-171.87,0,3.4834e+07,-5.7283,11682,12593,1,12593,1,0.00022695,2.1655e-10,0,0.00029239,3.0637e-05,6.6992e+07,64.711,0,9.759e+07,22.533,12592,527.79,0,527.79,0,0.000225,6.4673e-10,0,0.00011458,4.2115e-05,7.6962e+07,186.81,0,3.8227e+07,19.694,527.79,1
1820,1.38,12139,1,12139,1,3.226e-05,-3.0961e-10,0,0.00019765,-5.869e-06,1.6415,-89.743,0,6.7267e+07,1.2678,12138,13096,1,13096,1,0.00041094,8.0206e-10,0,0.00041094,6.502e-05,1.1684e+08,220.87,0,1.409e+08,42.75,13095,12138,1,12138,1,3.226e-05,-2.5662e-10,0,0.00019635,-5.829e-06,1.0473e+07,-71.183,0,6.7482e+07,-0.057575,12137,11203,1,11203,1,-0.00034642,-1.2159e-09,0,9.815e-06,-7.6783e-05,-1.409e+08,-333.36,0,4.0119e+06,-26.549,11202,11683,1,11683,1,-0.00016409,-6.5034e-10,0,9.8174e-05,-4.2617e-05,-6.6735e+07,-191.72,0,3.5089e+07,-5.7774,11682,12593,1,12593,1,0.00022861,1.5222e-11,0,0.00029452,3.0861e-05,6.7482e+07,4.4839,0,9.8304e+07,6.7913,12592,527.79,0,527.79,0,0.00022664,4.3327e-10,0,0.00011541,4.2423e-05,7.7525e+07,125.39,0,3.8507e+07,11.607,527.79,1
1820,1.39,12139,1,12139,1,3.2495e-05,2.3311e-10,0,0.00019909,-5.9118e-06,-15.446,67.822,0,6.7757e+07,-6.1689,12138,13096,1,13096,1,0.00041393,1.3837e-09,0,0.00041393,6.5493e-05,1.1769e+08,380.04,0,1.4192e+08,27.45,13095,12138,1,12138,1,3.2494e-05,1.3724e-10,0,0.00019778,-5.8715e-06,1.0549e+07,39.445,0,6.7973e+07,-6.0035,12137,11203,1,11203,1,-0.00034894,-1.0134e-09,0,9.8865e-06,-7.7341e-05,-1.4192e+08,-275.93,0,4.0411e+06,-45.073,11202,11683,1,11683,1,-0.00016528,-1.1209e-10,0,9.8889e-05,-4.2927e-05,-6.722e+07,-31.246,0,3.5344e+07,-16.149,11682,12593,1,12593,1,0.00023027,6.2753e-10,0,0.00029667,3.1085e-05,6.7973e+07,183.2,0,9.9019e+07,3.0685,12592,527.79,0,527.79,0,0.00022829,5.345e-10,0,0.00011625,4.2732e-05,7.8089e+07,154.55,0,3.8787e+07,13.506,527.79,1
1820,1.4,12139,1,12139,1,3.2726e-05,-9.6634e-10,0,0.00020051,-5.9538e-06,-75.441,-280.24,0,6.8239e+07,16.83,12138,13096,1,13096,1,0.00041688,2.0453e-09,0,0.00041688,6.5961e-05,1.1853e+08,555.56,0,1.4294e+08,76.845,13095,12138,1,12138,1,3.2726e-05,-7.2665e-10,0,0.00019919,-5.9132e-06,1.0624e+07,-214.28,0,6.8458e+07,16.362,12137,11203,1,11203,1,-0.00035143,-4.1974e-09,0,9.9572e-06,-7.7894e-05,-1.4294e+08,-1143.6,0,4.07e+06,-53.327,11202,11683,1,11683,1,-0.00016646,-1.9847e-09,0,9.9594e-05,-4.3233e-05,-6.77e+07,-586.83,0,3.5596e+07,-6.3202,11682,12593,1,12593,1,0.00023191,2.5561e-11,0,0.00029878,3.1307e-05,6.8458e+07,7.3208,0,9.9725e+07,44.774,12592,527.79,0,527.79,0,0.00022992,1.3582e-09,0,0.00011708,4.3036e-05,7.8645e+07,389.39,0,3.9063e+07,29.757,527.79,1
1820,1.41,12139,1,12139,1,3.2961e-05,-7.3994e-10,0,0.00020195,-5.9966e-06,-16.231,-214.39,0,6.8729e+07,-8.0132,12138,13096,1,13096,1,0.00041987,2.7374e-10,0,0.00041987,6.6434e-05,1.1938e+08,93.746,0,1.4396e+08,30.975,13095,12138,1,12138,1,3.296e-05,-7.261e-10,0,0.00020062,-5.9557e-06,1.0701e+07,-212.27,0,6.8948e+07,-6.0575,12137,11203,1,11203,1,-0.00035395,-1.9249e-09,0,1.0028e-05,-7.8452e-05,-1.4396e+08,-530.14,0,4.0991e+06,-52.65,11202,11683,1,11683,1,-0.00016766,-1.1902e-09,0,0.00010031,-4.3543e-05,-6.8185e+07,-355.06,0,3.5852e+07,-14.787,11682,12593,1,12593,1,0.00023358,-2.86e-10,0,0.00030092,3.1531e-05,6.8948e+07,-82.024,0,1.0044e+08,-0.20905,12592,527.79,0,527.79,0,0.00023157,5.7818e-10,0,0.00011792,4.3345e-05,7.9209e+07,165.53,0,3.9344e+07,11.13,527.79,1
1820,1.42,12139,1,12139,1,3.3194e-05,3.0564e-10,0,0.00020338,-6.039e-06,1.8471,87.964,0,6.9215e+07,15.564,12138,13096,1,13096,1,0.00042284,2.7511e-09,0,0.00042284,6.6904e-05,1.2022e+08,758.9,0,1.4498e+08,100.99,13095,12138,1,12138,1,3.3194e-05,1.2319e-10,0,0.00020204,-5.9978e-06,1.0776e+07,37.721,0,6.9437e+07,13.089,12137,11203,1,11203,1,-0.00035645,-1.4732e-09,0,1.0099e-05,-7.9007e-05,-1.4498e+08,-407.7,0,4.1281e+06,-34.111,11202,11683,1,11683,1,-0.00016884,-2.0379e-10,0,0.00010102,-4.3851e-05,-6.8668e+07,-61.743,0,3.6106e+07,-5.7951,11682,12593,1,12593,1,0.00023523,8.0435e-10,0,0.00030306,3.1755e-05,6.9437e+07,237.13,0,1.0115e+08,30.133,12592,527.79,0,527.79,0,0.00023321,8.3462e-10,0,0.00011876,4.3652e-05,7.977e+07,240.34,0,3.9622e+07,25.664,527.79,1
1820,1.43,12139,1,12139,1,3.3427e-05,2.1493e-10,0,0.0002048,-6.0814e-06,6.3385,61.394,0,6.9701e+07,22.691,12138,13096,1,13096,1,0.00042581,2.7648e-09,0,0.00042581,6.7373e-05,1.2107e+08,756.18,0,1.46e+08,93.872,13095,12138,1,12138,1,3.3427e-05,8.026e-11,0,0.00020346,-6.0399e-06,1.0852e+07,22.735,0,6.9924e+07,19.777,12137,11203,1,11203,1,-0.00035895,-1.8612e-09,0,1.017e-05,-7.9561e-05,-1.46e+08,-516.57,0,4.1571e+06,-31.943,11202,11683,1,11683,1,-0.00017003,-2.8549e-10,0,0.00010173,-4.4159e-05,-6.915e+07,-87.577,0,3.6359e+07,-0.82189,11682,12593,1,12593,1,0.00023688,7.7149e-10,0,0.00030518,3.1978e-05,6.9924e+07,218.96,0,1.0186e+08,42.997,12592,527.79,0,527.79,0,0.00023484,8.678e-10,0,0.00011959,4.3958e-05,8.033e+07,250.31,0,3.99e+07,27.234,527.79,1
1820,1.44,12139,1,12139,1,3.3661e-05,-2.5894e-10,0,0.00020624,-6.124e-06,10.74,-75.14,0,7.019e+07,8.1945,12138,13096,1,13096,1,0.00042879,1.7072e-09,0,0.00042879,6.7845e-05,1.2192e+08,470.37,0,1.4702e+08,51.896,13095,12138,1,12138,1,3.3661e-05,-1.2952e-10,0,0.00020488,-6.0823e-06,1.0928e+07,-38.43,0,7.0414e+07,7.4086,12137,11203,1,11203,1,-0.00036147,-2.4038e-09,0,1.0242e-05,-8.0119e-05,-1.4702e+08,-663.37,0,4.1862e+06,-44.348,11202,11683,1,11683,1,-0.00017122,-8.1132e-10,0,0.00010244,-4.4469e-05,-6.9635e+07,-236.79,0,3.6614e+07,-8.3348,11682,12593,1,12593,1,0.00023854,2.4437e-10,0,0.00030732,3.2202e-05,7.0414e+07,70.715,0,1.0258e+08,25.294,12592,527.79,0,527.79,0,0.00023649,8.3435e-10,0,0.00012043,4.4266e-05,8.0893e+07,242.28,0,4.018e+07,21.322,527.79,1
1820,1.45,12139,1,12139,1,3.3896e-05,-7.5352e-10,0,0.00020767,-6.1667e-06,1.6326,-219.28,0,7.0678e+07,3.2733,12138,13096,1,13096,1,0.00043178,6.3565e-10,0,0.00043178,6.8318e-05,1.2277e+08,174.8,0,1.4804e+08,45.57,13095,12138,1,12138,1,3.3896e-05,-6.3281e-10,0,0.00020631,-6.1246e-06,1.1004e+07,-181.74,0,7.0904e+07,2.6229,12137,11203,1,11203,1,-0.00036399,-2.2595e-09,0,1.0313e-05,-8.0677e-05,-1.4804e+08,-624.66,0,4.2154e+06,-34.63,11202,11683,1,11683,1,-0.00017241,-1.337e-09,0,0.00010315,-4.4778e-05,-7.0119e+07,-391.26,0,3.6869e+07,-7.1186,11682,12593,1,12593,1,0.0002402,-1.415e-10,0,0.00030946,3.2426e-05,7.0904e+07,-42.522,0,1.0329e+08,13.953,12592,527.79,0,527.79,0,0.00023813,7.103e-10,0,0.00012127,4.4574e-05,8.1456e+07,205.88,0,4.0459e+07,14.982,527.79,1
1820,1.46,12139,1,12139,1,3.413e-05,7.8002e-10,0,0.00020911,-6.2092e-06,27.152,226.32,0,7.1166e+07,-0.91605,12138,13096,1,13096,1,0.00043476,2.6829e-09,0,0.00043476,6.8789e-05,1.2361e+08,732.68,0,1.4907e+08,50.036,13095,12138,1,12138,1,3.4129e-05,6.6387e-10,0,0.00020773,-6.1669e-06,1.108e+07,195.73,0,7.1393e+07,-0.80385,12137,11203,1,11203,1,-0.0003665,-4.9539e-10,0,1.0384e-05,-8.1234e-05,-1.4907e+08,-135.74,0,4.2444e+06,-78.469,11202,11683,1,11683,1,-0.0001736,1.0794e-10,0,0.00010387,-4.5087e-05,-7.0603e+07,29.549,0,3.7123e+07,-17.409,11682,12593,1,12593,1,0.00024186,1.3284e-09,0,0.0003116,3.2649e-05,7.1393e+07,395.39,0,1.04e+08,18.389,12592,527.79,0,527.79,0,0.00023978,7.7045e-10,0,0.0001221,4.4882e-05,8.2018e+07,221.43,0,4.0739e+07,26.539,527.79,1
1820,1.47,12139,1,12139,1,3.4362e-05,-6.8042e-10,0,0.00021053,-6.2514e-06,-16.24,-198.51,0,7.165e+07,13.953,12138,13096,1,13096,1,0.00043772,1.9314e-09,0,0.00043772,6.9258e-05,1.2445e+08,519.28,0,1.5008e+08,68.83,13095,12138,1,12138,1,3.4362e-05,-3.5811e-10,0,0.00020915,-6.2088e-06,1.1156e+07,-106.76,0,7.188e+07,12.329,12137,11203,1,11203,1,-0.00036899,-3.6874e-09,0,1.0455e-05,-8.1787e-05,-1.5008e+08,-1017.2,0,4.2734e+06,-60.611,11202,11683,1,11683,1,-0.00017478,-1.5086e-09,0,0.00010457,-4.5394e-05,-7.1084e+07,-438.69,0,3.7376e+07,-9.4284,11682,12593,1,12593,1,0.00024351,1.0287e-10,0,0.00031372,3.2872e-05,7.188e+07,28.898,0,1.0471e+08,39.472,12592,527.79,0,527.79,0,0.00024141,1.1778e-09,0,0.00012293,4.5187e-05,8.2576e+07,340.97,0,4.1016e+07,27.93,527.79,1
1820,1.48,12139,1,12139,1,3.4596e-05,-1.9222e-10,0,0.00021197,-6.2941e-06,-45.5,-55.963,0,7.214e+07,7.2845,12138,13096,1,13096,1,0.0004407,2.085e-09,0,0.0004407,6.973e-05,1.253e+08,591.14,0,1.511e+08,66.448,13095,12138,1,12138,1,3.4596e-05,-1.5135e-10,0,0.00021057,-6.2513e-06,1.1232e+07,-44.642,0,7.237e+07,6.6657,12137,11203,1,11203,1,-0.00037151,-1.774e-09,0,1.0526e-05,-8.2345e-05,-1.511e+08,-488.57,0,4.3026e+06,-45.741,11202,11683,1,11683,1,-0.00017598,-7.512e-10,0,0.00010529,-4.5704e-05,-7.1569e+07,-217.4,0,3.7631e+07,-6.4056,11682,12593,1,12593,1,0.00024517,2e-10,0,0.00031586,3.3096e-05,7.237e+07,59.746,0,1.0543e+08,22.489,12592,527.79,0,527.79,0,0.00024306,7.6774e-10,0,0.00012377,4.5496e-05,8.314e+07,222.54,0,4.1296e+07,21.423,527.79,1
1820,1.49,12139,1,12139,1,3.483e-05,-7.3164e-11,0,0.0002134,-6.3366e-06,22.742,-21.598,0,7.2626e+07,11.439,12138,13096,1,13096,1,0.00044367,2.5124e-09,0,0.00044367,7.02e-05,1.2615e+08,692.34,0,1.5212e+08,68.716,13095,12138,1,12138,1,3.483e-05,-7.2101e-11,0,0.00021199,-6.2934e-06,1.1307e+07,-22.339,0,7.2858e+07,10.8,12137,11203,1,11203,1,-0.00037401,-2.1221e-09,0,1.0597e-05,-8.2899e-05,-1.5212e+08,-585.21,0,4.3315e+06,-68.869,11202,11683,1,11683,1,-0.00017716,-6.733e-10,0,0.000106,-4.6012e-05,-7.2051e+07,-195.31,0,3.7885e+07,-6.3938,11682,12593,1,12593,1,0.00024682,4.4236e-10,0,0.00031799,3.3319e-05,7.2858e+07,129.84,0,1.0614e+08,31.7,12592,527.79,0,527.79,0,0.0002447,9.047e-10,0,0.00012461,4.5802e-05,8.3701e+07,262.17,0,4.1574e+07,25.304,527.79,1
1820,1.5,12139,1,12139,1,3.5064e-05,-5.4908e-10,0,0.00021483,-6.3792e-06,25.64,-159.68,0,7.3114e+07,1.9034,12138,13096,1,13096,1,0.00044666,1.4685e-09,0,0.00044666,7.0672e-05,1.27e+08,411.46,0,1.5315e+08,42.982,13095,12138,1,12138,1,3.5064e-05,-2.9905e-10,0,0.00021342,-6.3358e-06,1.1383e+07,-84.646,0,7.3348e+07,1.6651,12137,11203,1,11203,1,-0.00037653,-3.1864e-09,0,1.0668e-05,-8.3457e-05,-1.5315e+08,-879.5,0,4.3606e+06,-45.617,11202,11683,1,11683,1,-0.00017835,-1.1882e-09,0,0.00010671,-4.6321e-05,-7.2536e+07,-346.04,0,3.8139e+07,-15.967,11682,12593,1,12593,1,0.00024848,9.7729e-11,0,0.00032013,3.3543e-05,7.3348e+07,28.2,0,1.0685e+08,20.328,12592,527.79,0,527.79,0,0.00024634,9.7098e-10,0,0.00012545,4.611e-05,8.4263e+07,281.26,0,4.1854e+07,21.178,527.79,1
1820,1.51,12139,1,12139,1,3.5299e-05,2.9919e-10,0,0.00021627,-6.422e-06,-0.33476,86.516,0,7.3604e+07,3.3281,12138,13096,1,13096,1,0.00044965,1.0334e-09,0,0.00044965,7.1146e-05,1.2785e+08,284.1,0,1.5417e+08,31.733,13095,12138,1,12138,1,3.5299e-05,2.7317e-10,0,0.00021485,-6.3782e-06,1.146e+07,78.799,0,7.384e+07,3.0857,12137,11203,1,11203,1,-0.00037905,-1.8632e-10,0,1.074e-05,-8.4016e-05,-1.5417e+08,-55.262,0,4.3899e+06,-21.235,11202,11683,1,11683,1,-0.00017955,3.9258e-11,0,0.00010742,-4.6632e-05,-7.3022e+07,11.011,0,3.8395e+07,-1.0587,11682,12593,1,12593,1,0.00025015,5.2376e-10,0,0.00032227,3.3768e-05,7.384e+07,153.78,0,1.0757e+08,8.3737,12592,527.79,0,527.79,0,0.00024799,2.9357e-10,0,0.00012629,4.6419e-05,8.4829e+07,84.43,0,4.2135e+07,8.3032,527.79,1
1820,1.52,12139,1,12139,1,3.5533e-05,5.0677e-10,0,0.00021771,-6.4646e-06,34.073,147.42,0,7.4093e+07,2.211,12138,13096,1,13096,1,0.00045264,1.1322e-09,0,0.00045264,7.1618e-05,1.287e+08,308.56,0,1.5519e+08,25.684,13095,12138,1,12138,1,3.5533e-05,5.4397e-10,0,0.00021627,-6.4206e-06,1.1536e+07,162.17,0,7.433e+07,0.80837,12137,11203,1,11203,1,-0.00038157,-1.1677e-10,0,1.0811e-05,-8.4574e-05,-1.5519e+08,-39.988,0,4.419e+06,-16.471,11202,11683,1,11683,1,-0.00018074,2.5879e-10,0,0.00010814,-4.6941e-05,-7.3507e+07,78.023,0,3.865e+07,-2.2168,11682,12593,1,12593,1,0.00025181,7.5308e-10,0,0.00032441,3.3992e-05,7.433e+07,215.82,0,1.0828e+08,6.1422,12592,527.79,0,527.79,0,0.00024964,3.2012e-10,0,0.00012713,4.6728e-05,8.5392e+07,92.189,0,4.2414e+07,7.3537,527.79,1
1820,1.53,12139,1,12139,1,3.5766e-05,-2.3236e-13,0,0.00021913,-6.507e-06,24.652,-0.33023,0,7.4578e+07,-3.6398,12138,13096,1,13096,1,0.0004556,1.4641e-09,0,0.0004556,7.2087e-05,1.2954e+08,417.69,0,1.5621e+08,36.072,13095,12138,1,12138,1,3.5766e-05,1.1217e-11,0,0.00021769,-6.4627e-06,1.1611e+07,3.4109,0,7.4816e+07,-3.5792,12137,11203,1,11203,1,-0.00038407,-1.1456e-09,0,1.0882e-05,-8.5128e-05,-1.5621e+08,-326.57,0,4.448e+06,-89.008,11202,11683,1,11683,1,-0.00018192,-3.4427e-10,0,0.00010885,-4.7249e-05,-7.3988e+07,-99.819,0,3.8903e+07,-14.92,11682,12593,1,12593,1,0.00025346,3.1071e-10,0,0.00032654,3.4215e-05,7.4816e+07,90.497,0,1.0899e+08,8.6235,12592,527.79,0,527.79,0,0.00025128,5.0997e-10,0,0.00012796,4.7034e-05,8.5951e+07,147.13,0,4.2692e+07,18.384,527.79,1
1820,1.54,12139,1,12139,1,3.5999e-05,-3.8434e-12,0,0.00022056,-6.5494e-06,4.9238,-1.8095,0,7.5065e+07,-0.16175,12138,13096,1,13096,1,0.00045857,2.0849e-09,0,0.00045857,7.2557e-05,1.3038e+08,587.08,0,1.5723e+08,46.998,13095,12138,1,12138,1,3.5999e-05,-5.1836e-11,0,0.00021911,-6.5048e-06,1.1687e+07,-16.244,0,7.5305e+07,0.96168,12137,11203,1,11203,1,-0.00038657,-1.3775e-09,0,1.0953e-05,-8.5683e-05,-1.5723e+08,-381.98,0,4.477e+06,-60.677,11202,11683,1,11683,1,-0.00018311,-4.5454e-10,0,0.00010956,-4.7557e-05,-7.4471e+07,-134.7,0,3.9157e+07,-11.584,11682,12593,1,12593,1,0.00025511,3.1505e-10,0,0.00032867,3.4438e-05,7.5305e+07,95.876,0,1.097e+08,14.075,12592,527.79,0,527.79,0,0.00025292,6.8872e-10,0,0.00012879,4.7341e-05,8.6512e+07,198.66,0,4.2971e+07,20.28,527.79,1
1820,1.55,12139,1,12139,1,3.6234e-05,-6.1902e-10,0,0.000222,-6.5921e-06,35.815,-179.58,0,7.5553e+07,-5.8927,12138,13096,1,13096,1,0.00046156,1.7008e-10,0,0.00046156,7.303e-05,1.3123e+08,58.244,0,1.5825e+08,19.075,13095,12138,1,12138,1,3.6234e-05,-6.6792e-10,0,0.00022054,-6.5471e-06,1.1763e+07,-196.47,0,7.5795e+07,-5.2702,12137,11203,1,11203,1,-0.00038909,-1.3493e-09,0,1.1024e-05,-8.6241e-05,-1.5825e+08,-371.45,0,4.506e+06,-29.036,11202,11683,1,11683,1,-0.0001843,-9.3787e-10,0,0.00011027,-4.7866e-05,-7.4955e+07,-275.07,0,3.9412e+07,-11.627,11682,12593,1,12593,1,0.00025677,-3.1471e-10,0,0.0003308,3.4662e-05,7.5795e+07,-87.921,0,1.1041e+08,-0.81383,12592,527.79,0,527.79,0,0.00025456,4.0747e-10,0,0.00012963,4.7649e-05,8.7075e+07,116.44,0,4.325e+07,7.433,527.79,1
1820,1.56,12139,1,12139,1,3.6466e-05,-6.5153e-10,0,0.00022342,-6.6342e-06,61.539,-189.78,0,7.6037e+07,12.686,12138,13096,1,13096,1,0.00046452,2.6578e-09,0,0.00046452,7.3498e-05,1.3207e+08,740.51,0,1.5927e+08,115.27,13095,12138,1,12138,1,3.6466e-05,-4.9501e-10,0,0.00022195,-6.589e-06,1.1839e+07,-144.74,0,7.6281e+07,4.0272,12137,11203,1,11203,1,-0.00039159,-3.186e-09,0,1.1095e-05,-8.6794e-05,-1.5927e+08,-883.41,0,4.5349e+06,-98.528,11202,11683,1,11683,1,-0.00018548,-1.5544e-09,0,0.00011098,-4.8173e-05,-7.5436e+07,-458.72,0,3.9664e+07,-11.125,11682,12593,1,12593,1,0.00025842,1.1058e-10,0,0.00033293,3.4884e-05,7.6281e+07,31.208,0,1.1112e+08,34.434,12592,527.79,0,527.79,0,0.00025619,1.2369e-09,0,0.00013046,4.7954e-05,8.7632e+07,358.78,0,4.3527e+07,37.291,527.79,1
1820,1.57,12139,1,12139,1,3.67e-05,-2.3658e-10,0,0.00022486,-6.6768e-06,12.399,-69.105,0,7.6525e+07,10.061,12138,13096,1,13096,1,0.0004675,1.7307e-09,0,0.0004675,7.3969e-05,1.3292e+08,472.12,0,1.6029e+08,75.39,13095,12138,1,12138,1,3.67e-05,-1.6041e-10,0,0.00022337,-6.6313e-06,1.1915e+07,-45.942,0,7.677e+07,9.4037,12137,11203,1,11203,1,-0.0003941,-2.2786e-09,0,1.1166e-05,-8.735e-05,-1.6029e+08,-627.44,0,4.5641e+06,-56.109,11202,11683,1,11683,1,-0.00018667,-6.6921e-10,0,0.00011169,-4.8482e-05,-7.592e+07,-195.32,0,3.9919e+07,-5.2005,11682,12593,1,12593,1,0.00026007,1.6869e-10,0,0.00033506,3.5108e-05,7.677e+07,47.375,0,1.1183e+08,28.385,12592,527.79,0,527.79,0,0.00025784,7.1934e-10,0,0.0001313,4.8262e-05,8.8195e+07,207.95,0,4.3807e+07,20.938,527.79,1
1820,1.58,12139,1,12139,1,3.6934e-05,-3.1767e-10,0,0.00022629,-6.7194e-06,-3.6069,-92.639,0,7.7014e+07,5.959,12138,13096,1,13096,1,0.00047048,1.792e-09,0,0.00047048,7.4442e-05,1.3377e+08,493.17,0,1.6131e+08,46.022,13095,12138,1,12138,1,3.6934e-05,-1.6337e-10,0,0.0002248,-6.6737e-06,1.1991e+07,-45.711,0,7.726e+07,4.232,12137,11203,1,11203,1,-0.00039661,-2.2507e-09,0,1.1237e-05,-8.7909e-05,-1.6131e+08,-619.49,0,4.5932e+06,-45.788,11202,11683,1,11683,1,-0.00018787,-9.3049e-10,0,0.0001124,-4.8792e-05,-7.6405e+07,-270.05,0,4.0174e+07,-9.5736,11682,12593,1,12593,1,0.00026173,1.9555e-10,0,0.0003372,3.5332e-05,7.726e+07,56.941,0,1.1255e+08,22.639,12592,527.79,0,527.79,0,0.00025948,8.4154e-10,0,0.00013214,4.857e-05,8.8758e+07,243.56,0,4.4086e+07,19.777,527.79,1
1820,1.59,12139,1,12139,1,3.717e-05,-5.5687e-10,0,0.00022774,-6.7624e-06,12.285,-162.55,0,7.7506e+07,-4.1,12138,13096,1,13096,1,0.00047348,1.7829e-10,0,0.00047348,7.4916e-05,1.3462e+08,56.134,0,1.6234e+08,59.067,13095,12138,1,12138,1,3.717e-05,-2.9788e-10,0,0.00022623,-6.7163e-06,1.2067e+07,-86.533,0,7.7753e+07,-5.9592,12137,11203,1,11203,1,-0.00039914,-2.4273e-09,0,1.1309e-05,-8.8469e-05,-1.6234e+08,-691.97,0,4.6225e+06,-53.414,11202,11683,1,11683,1,-0.00018906,-9.7137e-10,0,0.00011312,-4.9103e-05,-7.6892e+07,-283.94,0,4.043e+07,-15.175,11682,12593,1,12593,1,0.0002634,-1.8045e-11,0,0.00033935,3.5558e-05,7.7753e+07,-5.8577,0,1.1327e+08,3.8229,12592,527.79,0,527.79,0,0.00026114,6.5213e-10,0,0.00013298,4.888e-05,8.9325e+07,190.6,0,4.4368e+07,18.621,527.79,1
1820,1.6,12139,1,12139,1,3.7401e-05,-4.2179e-10,0,0.00022915,-6.8043e-06,89.36,-122.39,0,7.7986e+07,6.9405,12138,13096,1,13096,1,0.00047643,3.3034e-09,0,0.00047643,7.5382e-05,1.3546e+08,921.27,0,1.6335e+08,103.81,13095,12138,1,12138,1,3.7401e-05,-3.2053e-10,0,0.00022764,-6.758e-06,1.2142e+07,-94.695,0,7.8236e+07,3.5738,12137,11203,1,11203,1,-0.00040162,-3.2044e-09,0,1.1379e-05,-8.9019e-05,-1.6335e+08,-888.1,0,4.6511e+06,-68.329,11202,11683,1,11683,1,-0.00019024,-1.4285e-09,0,0.00011382,-4.9408e-05,-7.737e+07,-414.48,0,4.0681e+07,-18.858,11682,12593,1,12593,1,0.00026504,3.3939e-10,0,0.00034146,3.5779e-05,7.8236e+07,92.618,0,1.1397e+08,29.767,12592,527.79,0,527.79,0,0.00026276,1.3434e-09,0,0.00013381,4.9183e-05,8.9879e+07,390.45,0,4.4643e+07,34.376,527.79,1
1820,1.61,12139,1,12139,1,3.7636e-05,-8.121e-10,0,0.00023059,-6.8471e-06,5.7564,-235.91,0,7.8477e+07,-7.5877,12138,13096,1,13096,1,0.00047942,1.6578e-10,0,0.00047942,7.5856e-05,1.3631e+08,56.773,0,1.6438e+08,17.316,13095,12138,1,12138,1,3.7636e-05,-8.7015e-10,0,0.00022907,-6.8005e-06,1.2218e+07,-256.16,0,7.8728e+07,-6.5472,12137,11203,1,11203,1,-0.00040415,-1.7852e-09,0,1.1451e-05,-8.9579e-05,-1.6438e+08,-492.47,0,4.6804e+06,-40.666,11202,11683,1,11683,1,-0.00019143,-1.2108e-09,0,0.00011454,-4.9719e-05,-7.7856e+07,-350.72,0,4.0937e+07,-13.355,11682,12593,1,12593,1,0.00026671,-4.2365e-10,0,0.00034361,3.6003e-05,7.8728e+07,-123.76,0,1.1469e+08,-0.77388,12592,527.79,0,527.79,0,0.00026441,5.136e-10,0,0.00013465,4.9492e-05,9.0444e+07,147.38,0,4.4924e+07,9.7088,527.79,1
1820,1.62,12139,1,12139,1,3.7869e-05,-6.6695e-10,0,0.00023202,-6.8895e-06,-25.3,-194.31,0,7.8964e+07,12.369,12138,13096,1,13096,1,0.0004824,1.1814e-09,0,0.0004824,7.6327e-05,1.3716e+08,319.94,0,1.654e+08,68.079,13095,12138,1,12138,1,3.7869e-05,-5.2797e-10,0,0.00023049,-6.8426e-06,1.2294e+07,-151.87,0,7.9216e+07,10.661,12137,11203,1,11203,1,-0.00040666,-2.3301e-09,0,1.1522e-05,-9.0135e-05,-1.654e+08,-644.33,0,4.7096e+06,-50.93,11202,11683,1,11683,1,-0.00019262,-1.3065e-09,0,0.00011525,-5.0027e-05,-7.8339e+07,-385.3,0,4.1191e+07,-3.5331,11682,12593,1,12593,1,0.00026836,-7.3956e-11,0,0.00034574,3.6227e-05,7.9216e+07,-20.415,0,1.154e+08,27.161,12592,527.79,0,527.79,0,0.00026605,7.912e-10,0,0.00013548,4.9799e-05,9.1005e+07,228.49,0,4.5203e+07,22.064,527.79,1
1820,1.63,12139,1,12139,1,3.8102e-05,-7.3646e-10,0,0.00023344,-6.9318e-06,-22.572,-214.67,0,7.9448e+07,10.74,12138,13096,1,13096,1,0.00048536,3.2363e-09,0,0.00048536,7.6796e-05,1.38e+08,887.7,0,1.6642e+08,97.654,13095,12138,1,12138,1,3.8102e-05,-3.8075e-10,0,0.00023191,-6.8846e-06,1.237e+07,-108.42,0,7.9703e+07,9.9053,12137,11203,1,11203,1,-0.00040916,-5.1485e-09,0,1.1593e-05,-9.0689e-05,-1.6642e+08,-1425.1,0,4.7385e+06,-78.649,11202,11683,1,11683,1,-0.00019381,-1.916e-09,0,0.00011595,-5.0335e-05,-7.882e+07,-552.45,0,4.1444e+07,-20.031,11682,12593,1,12593,1,0.00027001,3.5536e-10,0,0.00034786,3.645e-05,7.9703e+07,103.81,0,1.1611e+08,45.713,12592,527.79,0,527.79,0,0.00026769,1.7548e-09,0,0.00013631,5.0105e-05,9.1564e+07,508.55,0,4.548e+07,40.7,527.79,1
1820,1.64,12139,1,12139,1,3.8338e-05,-4.1156e-10,0,0.00023489,-6.9749e-06,7.3058,-119.13,0,7.9941e+07,-7.3709,12138,13096,1,13096,1,0.00048837,2.172e-09,0,0.00048837,7.7271e-05,1.3885e+08,620.01,0,1.6745e+08,54.739,13095,12138,1,12138,1,3.8338e-05,-1.8929e-10,0,0.00023335,-6.9276e-06,1.2446e+07,-56.992,0,8.0197e+07,-5.4757,12137,11203,1,11203,1,-0.00041169,-3.4296e-09,0,1.1664e-05,-9.125e-05,-1.6745e+08,-977.81,0,4.7678e+06,-198.44,11202,11683,1,11683,1,-0.00019501,-1.0905e-09,0,0.00011667,-5.0647e-05,-7.9309e+07,-320.81,0,4.1701e+07,-27.651,11682,12593,1,12593,1,0.00027168,2.2769e-10,0,0.00035002,3.6675e-05,8.0197e+07,66.976,0,1.1683e+08,20.279,12592,527.79,0,527.79,0,0.00026934,1.0574e-09,0,0.00013716,5.0416e-05,9.2132e+07,302.46,0,4.5762e+07,35.601,527.79,1
1820,1.65,12139,1,12139,1,3.857e-05,-5.6413e-11,0,0.00023631,-7.0171e-06,-104.18,-15.602,0,8.0425e+07,-13.068,12138,13096,1,13096,1,0.00049132,4.9146e-09,0,0.00049132,7.7739e-05,1.3969e+08,1402.1,0,1.6846e+08,81.943,13095,12138,1,12138,1,3.857e-05,-1.0347e-10,0,0.00023476,-6.9695e-06,1.2522e+07,-30.39,0,8.0682e+07,-8.9511,12137,11203,1,11203,1,-0.00041418,-3.9489e-09,0,1.1735e-05,-9.1802e-05,-1.6846e+08,-1125.8,0,4.7969e+06,-232.85,11202,11683,1,11683,1,-0.00019619,-1.0463e-09,0,0.00011738,-5.0953e-05,-7.9789e+07,-307.49,0,4.1953e+07,-41.171,11682,12593,1,12593,1,0.00027333,7.4957e-10,0,0.00035214,3.6897e-05,8.0682e+07,219.12,0,1.1753e+08,24.664,12592,527.79,0,527.79,0,0.00027097,1.5168e-09,0,0.00013799,5.0721e-05,9.2689e+07,435.77,0,4.6039e+07,49.388,527.79,1
1820,1.66,12139,1,12139,1,3.8804e-05,-1.8209e-10,0,0.00023775,-7.0596e-06,17.131,-53.172,0,8.0912e+07,-4.0201,12138,13096,1,13096,1,0.0004943,3.5873e-09,0,0.0004943,7.821e-05,1.4054e+08,1023.8,0,1.6948e+08,72.674,13095,12138,1,12138,1,3.8804e-05,-1.3782e-10,0,0.00023618,-7.0117e-06,1.2598e+07,-39.138,0,8.1171e+07,0.34677,12137,11203,1,11203,1,-0.00041669,-3.1539e-09,0,1.1806e-05,-9.2359e-05,-1.6948e+08,-899.27,0,4.8258e+06,-335.32,11202,11683,1,11683,1,-0.00019738,-1.0792e-09,0,0.00011809,-5.1262e-05,-8.0272e+07,-322.86,0,4.2207e+07,-32.417,11682,12593,1,12593,1,0.00027498,5.5338e-10,0,0.00035427,3.7121e-05,8.1171e+07,161.76,0,1.1825e+08,31.984,12592,527.79,0,527.79,0,0.00027262,1.3062e-09,0,0.00013883,5.1028e-05,9.3251e+07,375.87,0,4.6318e+07,47.457,527.79,1
1820,1.67,12139,1,12139,1,3.9037e-05,-1.1508e-09,0,0.00023918,-7.1021e-06,8.4711,-334.54,0,8.1399e+07,-3.4455,12138,13096,1,13096,1,0.00049728,1.8025e-09,0,0.00049728,7.8681e-05,1.4139e+08,514.53,0,1.705e+08,71.425,13095,12138,1,12138,1,3.9037e-05,-7.3286e-10,0,0.0002376,-7.0538e-06,1.2673e+07,-211.97,0,8.166e+07,-4.2335,12137,11203,1,11203,1,-0.0004192,-5.3279e-09,0,1.1877e-05,-9.2915e-05,-1.705e+08,-1499.2,0,4.8548e+06,-154.58,11202,11683,1,11683,1,-0.00019856,-2.1618e-09,0,0.0001188,-5.157e-05,-8.0755e+07,-637.5,0,4.2461e+07,-33.618,11682,12593,1,12593,1,0.00027664,1.4408e-11,0,0.0003564,3.7344e-05,8.166e+07,3.9471,0,1.1896e+08,29.843,12592,527.79,0,527.79,0,0.00027426,1.5152e-09,0,0.00013966,5.1335e-05,9.3812e+07,436.48,0,4.6596e+07,37.858,527.79,1
1820,1.68,12139,1,12139,1,3.9271e-05,1.6391e-10,0,0.00024061,-7.1447e-06,-8.6612,47.244,0,8.1888e+07,-17.966,12138,13096,1,13096,1,0.00050026,4.3145e-09,0,0.00050026,7.9153e-05,1.4224e+08,1230.3,0,1.7152e+08,93.253,13095,12138,1,12138,1,3.9271e-05,-8.1047e-12,0,0.00023903,-7.0962e-06,1.2749e+07,-2.0557,0,8.215e+07,-2.7427,12137,11203,1,11203,1,-0.00042171,-2.9704e-09,0,1.1948e-05,-9.3473e-05,-1.7152e+08,-846.89,0,4.8839e+06,-376.48,11202,11683,1,11683,1,-0.00019976,-6.9937e-10,0,0.00011951,-5.188e-05,-8.124e+07,-205.21,0,4.2716e+07,-50.109,11682,12593,1,12593,1,0.0002783,8.9525e-10,0,0.00035854,3.7569e-05,8.215e+07,266.82,0,1.1967e+08,29.322,12592,527.79,0,527.79,0,0.0002759,1.3019e-09,0,0.0001405,5.1644e-05,9.4375e+07,375.16,0,4.6876e+07,68.216,527.79,1
1820,1.69,12139,1,12139,1,3.9505e-05,1.8041e-11,0,0.00024204,-7.1871e-06,11.675,4.8819,0,8.2374e+07,20.931,12138,13096,1,13096,1,0.00050323,5.3738e-09,0,0.00050323,7.9623e-05,1.4308e+08,1474.4,0,1.7254e+08,157.61,13095,12138,1,12138,1,3.9504e-05,-1.1987e-10,0,0.00024045,-7.138e-06,1.2825e+07,-34.153,0,8.2637e+07,19.214,12137,11203,1,11203,1,-0.00042422,-3.5615e-09,0,1.2019e-05,-9.4027e-05,-1.7254e+08,-973.2,0,4.913e+06,-114.06,11202,11683,1,11683,1,-0.00020094,-1.1867e-09,0,0.00012022,-5.2188e-05,-8.1722e+07,-355.82,0,4.297e+07,-15.278,11682,12593,1,12593,1,0.00027995,9.1841e-10,0,0.00036067,3.7792e-05,8.2637e+07,261.27,0,1.2038e+08,60.585,12592,527.79,0,527.79,0,0.00027754,1.7876e-09,0,0.00014133,5.195e-05,9.4935e+07,513.54,0,4.7155e+07,51.679,527.79,1
1820,1.7,12139,1,12139,1,3.9741e-05,-6.9735e-10,0,0.00024349,-7.2301e-06,18.709,-202.66,0,8.2866e+07,-0.52041,12138,13096,1,13096,1,0.00050624,1.4817e-10,0,0.00050624,8.0098e-05,1.4394e+08,50.744,0,1.7357e+08,23.524,13095,12138,1,12138,1,3.9741e-05,-6.2205e-10,0,0.00024188,-7.1808e-06,1.2902e+07,-180.57,0,8.3131e+07,-1.6059,12137,11203,1,11203,1,-0.00042675,-1.8356e-09,0,1.2091e-05,-9.4589e-05,-1.7357e+08,-505.24,0,4.9422e+06,-26.316,11202,11683,1,11683,1,-0.00020214,-1.093e-09,0,0.00012094,-5.25e-05,-8.2211e+07,-319.04,0,4.3226e+07,-7.6796,11682,12593,1,12593,1,0.00028162,-2.5529e-10,0,0.00036282,3.8017e-05,8.3131e+07,-76.186,0,1.211e+08,6.656,12592,527.79,0,527.79,0,0.0002792,5.176e-10,0,0.00014218,5.2261e-05,9.5503e+07,149.11,0,4.7436e+07,9.1863,527.79,1
1820,1.71,12139,1,12139,1,3.9972e-05,-8.4225e-10,0,0.0002449,-7.2721e-06,-26.187,-244.87,0,8.3348e+07,11.744,12138,13096,1,13096,1,0.00050919,2.8811e-09,0,0.00050919,8.0566e-05,1.4477e+08,792.19,0,1.7458e+08,110.65,13095,12138,1,12138,1,3.9972e-05,-4.7191e-10,0,0.00024329,-7.2225e-06,1.2977e+07,-130.58,0,8.3615e+07,8.0055,12137,11203,1,11203,1,-0.00042924,-5.0252e-09,0,1.2162e-05,-9.5141e-05,-1.7458e+08,-1395.2,0,4.9711e+06,-75.835,11202,11683,1,11683,1,-0.00020332,-2.0238e-09,0,0.00012165,-5.2806e-05,-8.269e+07,-592.18,0,4.3478e+07,-19.967,11682,12593,1,12593,1,0.00028326,2.4472e-10,0,0.00036494,3.8239e-05,8.3615e+07,73.767,0,1.2181e+08,44.206,12592,527.79,0,527.79,0,0.00028083,1.6753e-09,0,0.00014301,5.2565e-05,9.6059e+07,483.96,0,4.7713e+07,40.41,527.79,1
1820,1.72,12139,1,12139,1,4.0206e-05,-5.4882e-10,0,0.00024634,-7.3147e-06,-9.5531,-159.74,0,8.3837e+07,9.7585,12138,13096,1,13096,1,0.00051217,2.2119e-09,0,0.00051217,8.1037e-05,1.4562e+08,619.27,0,1.7561e+08,67.215,13095,12138,1,12138,1,4.0206e-05,-2.708e-10,0,0.00024472,-7.2649e-06,1.3053e+07,-76.353,0,8.4105e+07,6.5768,12137,11203,1,11203,1,-0.00043175,-3.363e-09,0,1.2233e-05,-9.5697e-05,-1.7561e+08,-936.46,0,5.0002e+06,-69.004,11202,11683,1,11683,1,-0.00020451,-1.4295e-09,0,0.00012236,-5.3115e-05,-8.3174e+07,-411.43,0,4.3733e+07,-13.379,11682,12593,1,12593,1,0.00028492,2.2029e-10,0,0.00036708,3.8463e-05,8.4105e+07,64.977,0,1.2252e+08,34.694,12592,527.79,0,527.79,0,0.00028247,1.1905e-09,0,0.00014384,5.2873e-05,9.6621e+07,344.69,0,4.7992e+07,29.469,527.79,1
1820,1.73,12139,1,12139,1,4.044e-05,-1.8977e-10,0,0.00024777,-7.3573e-06,51.399,-55.732,0,8.4325e+07,9.5394,12138,13096,1,13096,1,0.00051514,2.7381e-09,0,0.00051514,8.1508e-05,1.4647e+08,739.41,0,1.7663e+08,65.136,13095,12138,1,12138,1,4.044e-05,-7.9392e-11,0,0.00024614,-7.3072e-06,1.3129e+07,-22.693,0,8.4594e+07,8.5384,12137,11203,1,11203,1,-0.00043426,-2.7133e-09,0,1.2304e-05,-9.6254e-05,-1.7663e+08,-748.61,0,5.0292e+06,-85.6,11202,11683,1,11683,1,-0.0002057,-9.3972e-10,0,0.00012307,-5.3424e-05,-8.3658e+07,-278.35,0,4.3987e+07,-12.251,11682,12593,1,12593,1,0.00028658,4.7024e-10,0,0.00036921,3.8686e-05,8.4594e+07,137.46,0,1.2323e+08,34.162,12592,527.79,0,527.79,0,0.00028411,1.1162e-09,0,0.00014468,5.318e-05,9.7184e+07,322.23,0,4.8271e+07,29.39,527.79,1
1820,1.74,12139,1,12139,1,4.0675e-05,3.0786e-11,0,0.00024921,-7.4e-06,-14.967,8.7292,0,8.4814e+07,7.5112,12138,13096,1,13096,1,0.00051813,2.1788e-09,0,0.00051813,8.198e-05,1.4732e+08,611.52,0,1.7765e+08,53.757,13095,12138,1,12138,1,4.0675e-05,-5.8605e-11,0,0.00024757,-7.3496e-06,1.3205e+07,-16.85,0,8.5085e+07,3.6647,12137,11203,1,11203,1,-0.00043678,-1.2677e-09,0,1.2375e-05,-9.6811e-05,-1.7765e+08,-358.72,0,5.0585e+06,-39.226,11202,11683,1,11683,1,-0.00020689,-5.0299e-10,0,0.00012378,-5.3733e-05,-8.4143e+07,-147.02,0,4.4242e+07,-5.2409,11682,12593,1,12593,1,0.00028824,4.2778e-10,0,0.00037135,3.8911e-05,8.5085e+07,130.6,0,1.2395e+08,20.388,12592,527.79,0,527.79,0,0.00028576,7.3489e-10,0,0.00014552,5.3489e-05,9.7747e+07,211.16,0,4.8551e+07,19.082,527.79,1
1820,1.75,12139,1,12139,1,4.0908e-05,4.376e-12,0,0.00025064,-7.4424e-06,23.38,0.50334,0,8.5299e+07,9.8541,12138,13096,1,13096,1,0.0005211,2.175e-09,0,0.0005211,8.245e-05,1.4816e+08,590.78,0,1.7867e+08,67.993,13095,12138,1,12138,1,4.0908e-05,5.4617e-12,0,0.00024899,-7.3916e-06,1.3281e+07,1.5648,0,8.5572e+07,8.1375,12137,11203,1,11203,1,-0.00043928,-1.9006e-09,0,1.2446e-05,-9.7366e-05,-1.7867e+08,-525.77,0,5.0874e+06,-35.972,11202,11683,1,11683,1,-0.00020808,-4.8669e-10,0,0.00012449,-5.4041e-05,-8.4624e+07,-139.62,0,4.4496e+07,-7.8641,11682,12593,1,12593,1,0.00028989,4.2546e-10,0,0.00037348,3.9134e-05,8.5572e+07,127.45,0,1.2466e+08,24.906,12592,527.79,0,527.79,0,0.0002874,7.8493e-10,0,0.00014635,5.3795e-05,9.8307e+07,226.19,0,4.8829e+07,21.181,527.79,1
1820,1.76,12139,1,12139,1,4.1142e-05,-4.7967e-10,0,0.00025207,-7.4851e-06,34.89,-139.79,0,8.5789e+07,1.1322,12138,13096,1,13096,1,0.00052409,1.2782e-09,0,0.00052409,8.2923e-05,1.4901e+08,346.7,0,1.7969e+08,44.416,13095,12138,1,12138,1,4.1142e-05,-3.1771e-10,0,0.00025041,-7.4341e-06,1.3357e+07,-93.745,0,8.6063e+07,-0.012035,12137,11203,1,11203,1,-0.0004418,-2.4323e-09,0,1.2518e-05,-9.7925e-05,-1.7969e+08,-675.23,0,5.1165e+06,-32.719,11202,11683,1,11683,1,-0.00020927,-1.0422e-09,0,0.00012521,-5.4351e-05,-8.511e+07,-304.68,0,4.4751e+07,-12.766,11682,12593,1,12593,1,0.00029156,8.3305e-11,0,0.00037562,3.9358e-05,8.6063e+07,25,0,1.2537e+08,13.459,12592,527.79,0,527.79,0,0.00028905,7.8436e-10,0,0.00014719,5.4104e-05,9.8871e+07,227.14,0,4.911e+07,16.965,527.79,1
1820,1.77,12139,1,12139,1,4.1376e-05,-8.8173e-10,0,0.0002535,-7.5275e-06,3.1943,-256.44,0,8.6275e+07,0.75304,12138,13096,1,13096,1,0.00052707,1.3949e-09,0,0.00052707,8.3395e-05,1.4986e+08,386.65,0,1.8071e+08,74.972,13095,12138,1,12138,1,4.1376e-05,-5.6162e-10,0,0.00025184,-7.4763e-06,1.3433e+07,-165.65,0,8.6552e+07,-0.24093,12137,11203,1,11203,1,-0.00044431,-3.5998e-09,0,1.2589e-05,-9.8481e-05,-1.8071e+08,-994.58,0,5.1456e+06,-71.368,11202,11683,1,11683,1,-0.00021046,-1.8193e-09,0,0.00012592,-5.466e-05,-8.5593e+07,-532.66,0,4.5005e+07,-21.908,11682,12593,1,12593,1,0.00029321,7.634e-11,0,0.00037775,3.9581e-05,8.6552e+07,22.078,0,1.2608e+08,22.428,12592,527.79,0,527.79,0,0.00029069,1.2171e-09,0,0.00014803,5.4411e-05,9.9432e+07,352.6,0,4.9388e+07,30.576,527.79,1
1820,1.78,12139,1,12139,1,4.161e-05,-6.1741e-10,0,0.00025494,-7.5701e-06,23.222,-179.46,0,8.6763e+07,2.3421,12138,13096,1,13096,1,0.00053004,7.1388e-10,0,0.00053004,8.3865e-05,1.507e+08,201.81,0,1.8173e+08,37.725,13095,12138,1,12138,1,4.161e-05,-4.5081e-10,0,0.00025326,-7.5185e-06,1.3509e+07,-128.78,0,8.7041e+07,2.2002,12137,11203,1,11203,1,-0.00044682,-2.3986e-09,0,1.266e-05,-9.9037e-05,-1.8173e+08,-663.48,0,5.1746e+06,-32.654,11202,11683,1,11683,1,-0.00021165,-1.1257e-09,0,0.00012663,-5.4969e-05,-8.6077e+07,-331.88,0,4.5259e+07,-10.056,11682,12593,1,12593,1,0.00029487,-4.2179e-11,0,0.00037989,3.9805e-05,8.7041e+07,-12.051,0,1.268e+08,14.348,12592,527.79,0,527.79,0,0.00029233,7.2164e-10,0,0.00014886,5.4718e-05,9.9994e+07,208.47,0,4.9667e+07,14.856,527.79,1
1820,1.79,12139,1,12139,1,4.1843e-05,-4.909e-10,0,0.00025637,-7.6125e-06,1.4823,-142.61,0,8.725e+07,10.11,12138,13096,1,13096,1,0.00053302,1.7662e-09,0,0.00053302,8.4336e-05,1.5155e+08,482.15,0,1.8275e+08,57.051,13095,12138,1,12138,1,4.1843e-05,-2.9648e-10,0,0.00025468,-7.5606e-06,1.3584e+07,-84.405,0,8.7529e+07,8.4802,12137,11203,1,11203,1,-0.00044933,-2.9532e-09,0,1.2731e-05,-9.9593e-05,-1.8275e+08,-813.97,0,5.2038e+06,-37.669,11202,11683,1,11683,1,-0.00021284,-1.154e-09,0,0.00012734,-5.5277e-05,-8.656e+07,-335.23,0,4.5513e+07,-8.2098,11682,12593,1,12593,1,0.00029652,1.1436e-10,0,0.00038202,4.0029e-05,8.7529e+07,32.753,0,1.2751e+08,29.483,12592,527.79,0,527.79,0,0.00029397,9.5925e-10,0,0.0001497,5.5025e-05,1.0056e+08,276.15,0,4.9946e+07,23.015,527.79,1
1820,1.8,12139,1,12139,1,4.2077e-05,-4.9489e-10,0,0.0002578,-7.6552e-06,24.41,-143.82,0,8.7738e+07,2.2267,12138,13096,1,13096,1,0.000536,1.154e-09,0,0.000536,8.4808e-05,1.524e+08,318.21,0,1.8378e+08,51.576,13095,12138,1,12138,1,4.2077e-05,-3.3512e-10,0,0.0002561,-7.603e-06,1.366e+07,-97.625,0,8.8019e+07,-0.85032,12137,11203,1,11203,1,-0.00045184,-2.2073e-09,0,1.2802e-05,-0.00010015,-1.8378e+08,-611.44,0,5.2328e+06,-31.302,11202,11683,1,11683,1,-0.00021403,-1.0751e-09,0,0.00012805,-5.5586e-05,-8.7044e+07,-316.73,0,4.5768e+07,-12.544,11682,12593,1,12593,1,0.00029818,7.2136e-11,0,0.00038416,4.0252e-05,8.8019e+07,21.802,0,1.2822e+08,15.953,12592,527.79,0,527.79,0,0.00029562,7.7477e-10,0,0.00015054,5.5333e-05,1.0112e+08,224.15,0,5.0225e+07,18.334,527.79,1
1820,1.81,12139,1,12139,1,4.231e-05,-4.4163e-10,0,0.00025923,-7.6975e-06,3.8536,-129.04,0,8.8224e+07,9.2618,12138,13096,1,13096,1,0.00053897,3.0626e-09,0,0.00053897,8.5277e-05,1.5324e+08,841.94,0,1.8479e+08,100.5,13095,12138,1,12138,1,4.231e-05,-2.1245e-10,0,0.00025752,-7.645e-06,1.3736e+07,-59.63,0,8.8506e+07,7.0751,12137,11203,1,11203,1,-0.00045434,-4.0941e-09,0,1.2873e-05,-0.0001007,-1.8479e+08,-1143.4,0,5.2619e+06,-65.308,11202,11683,1,11683,1,-0.00021521,-1.4349e-09,0,0.00012876,-5.5894e-05,-8.7526e+07,-414.19,0,4.6021e+07,-18.905,11682,12593,1,12593,1,0.00029983,4.7914e-10,0,0.00038628,4.0475e-05,8.8506e+07,134.77,0,1.2893e+08,37.948,12592,527.79,0,527.79,0,0.00029725,1.4905e-09,0,0.00015137,5.5639e-05,1.0168e+08,432.33,0,5.0503e+07,36.961,527.79,1
1820,1.82,12139,1,12139,1,4.2544e-05,1.8453e-11,0,0.00026066,-7.7401e-06,9.8356,4.8677,0,8.8712e+07,4.3854,12138,13096,1,13096,1,0.00054194,2.7331e-09,0,0.00054194,8.5749e-05,1.5409e+08,749.83,0,1.8582e+08,58.183,13095,12138,1,12138,1,4.2544e-05,-8.1298e-11,0,0.00025895,-7.6874e-06,1.3812e+07,-25.234,0,8.8996e+07,4.3109,12137,11203,1,11203,1,-0.00045686,-1.9521e-09,0,1.2944e-05,-0.00010126,-1.8582e+08,-539.98,0,5.2909e+06,-61.344,11202,11683,1,11683,1,-0.0002164,-6.1621e-10,0,0.00012947,-5.6203e-05,-8.801e+07,-179.42,0,4.6276e+07,-12.029,11682,12593,1,12593,1,0.00030149,5.5192e-10,0,0.00038842,4.0699e-05,8.8996e+07,163.57,0,1.2964e+08,22.334,12592,527.79,0,527.79,0,0.0002989,9.4543e-10,0,0.00015221,5.5947e-05,1.0224e+08,273.83,0,5.0783e+07,23.063,527.79,1
1820,1.83,12139,1,12139,1,4.2777e-05,-6.7886e-11,0,0.00026209,-7.7825e-06,0.79302,-20.588,0,8.9198e+07,9.2504,12138,13096,1,13096,1,0.00054491,3.1189e-09,0,0.00054491,8.6218e-05,1.5493e+08,854.02,0,1.8683e+08,61.41,13095,12138,1,12138,1,4.2777e-05,-7.4012e-11,0,0.00026037,-7.7295e-06,1.3888e+07,-21.878,0,8.9483e+07,8.837,12137,11203,1,11203,1,-0.00045936,-2.4249e-09,0,1.3015e-05,-0.00010182,-1.8683e+08,-669.88,0,5.3199e+06,-72.535,11202,11683,1,11683,1,-0.00021759,-8.1135e-10,0,0.00013018,-5.6511e-05,-8.8492e+07,-235.14,0,4.6529e+07,-11.138,11682,12593,1,12593,1,0.00030314,5.4775e-10,0,0.00039055,4.0922e-05,8.9483e+07,158.31,0,1.3035e+08,31.238,12592,527.79,0,527.79,0,0.00030053,1.0967e-09,0,0.00015304,5.6254e-05,1.028e+08,317.42,0,5.1061e+07,26.329,527.79,1
1820,1.84,12139,1,12139,1,4.3015e-05,2.2992e-10,0,0.00026355,-7.8258e-06,-38.938,66.18,0,8.9694e+07,1.9882,12138,13096,1,13096,1,0.00054794,7.1019e-10,0,0.00054794,8.6698e-05,1.5579e+08,189.75,0,1.8787e+08,23.314,13095,12138,1,12138,1,4.3015e-05,2.3218e-10,0,0.00026181,-7.7725e-06,1.3965e+07,68.172,0,8.9981e+07,3.6509,12137,11203,1,11203,1,-0.00046191,-1.394e-10,0,1.3087e-05,-0.00010238,-1.8787e+08,-47.676,0,5.3495e+06,-40.932,11202,11683,1,11683,1,-0.0002188,6.2217e-11,0,0.00013091,-5.6825e-05,-8.8984e+07,17.671,0,4.6788e+07,-1.0904,11682,12593,1,12593,1,0.00030483,3.8214e-10,0,0.00039272,4.115e-05,8.9981e+07,112.67,0,1.3108e+08,6.1388,12592,527.79,0,527.79,0,0.00030221,1.9958e-10,0,0.00015389,5.6567e-05,1.0337e+08,56.598,0,5.1345e+07,7.6482,527.79,1
1820,1.85,12139,1,12139,1,4.3246e-05,-2.2322e-10,0,0.00026496,-7.8678e-06,9.944,-64.842,0,9.0176e+07,7.1477,12138,13096,1,13096,1,0.00055089,1.6986e-09,0,0.00055089,8.7164e-05,1.5663e+08,464.53,0,1.8888e+08,63.035,13095,12138,1,12138,1,4.3246e-05,-1.4832e-10,0,0.00026322,-7.8142e-06,1.404e+07,-41.77,0,9.0464e+07,3.6145,12137,11203,1,11203,1,-0.00046439,-1.6698e-09,0,1.3158e-05,-0.00010293,-1.8888e+08,-459.73,0,5.3782e+06,-30.822,11202,11683,1,11683,1,-0.00021997,-7.702e-10,0,0.00013161,-5.7131e-05,-8.9462e+07,-225.04,0,4.7039e+07,-7.4779,11682,12593,1,12593,1,0.00030647,1.956e-10,0,0.00039483,4.1371e-05,9.0464e+07,56.103,0,1.3178e+08,19.627,12592,527.79,0,527.79,0,0.00030383,7.3275e-10,0,0.00015472,5.687e-05,1.0393e+08,212.17,0,5.1621e+07,19.037,527.79,1
1820,1.86,12139,1,12139,1,4.3481e-05,-6.7746e-10,0,0.0002664,-7.9105e-06,50.097,-197.24,0,9.0664e+07,-0.099719,12138,13096,1,13096,1,0.00055388,5.9527e-10,0,0.00055388,8.7636e-05,1.5748e+08,156.9,0,1.8991e+08,40.476,13095,12138,1,12138,1,4.3481e-05,-4.9752e-10,0,0.00026465,-7.8566e-06,1.4116e+07,-142.1,0,9.0955e+07,-1.9075,12137,11203,1,11203,1,-0.00046691,-2.3519e-09,0,1.3229e-05,-0.00010349,-1.8991e+08,-663.15,0,5.4073e+06,-36.797,11202,11683,1,11683,1,-0.00022117,-1.238e-09,0,0.00013232,-5.744e-05,-8.9947e+07,-364.75,0,4.7294e+07,-13.069,11682,12593,1,12593,1,0.00030813,-7.725e-11,0,0.00039697,4.1595e-05,9.0955e+07,-21.919,0,1.325e+08,13.353,12592,527.79,0,527.79,0,0.00030548,7.2655e-10,0,0.00015556,5.7179e-05,1.0449e+08,210.31,0,5.1901e+07,15.363,527.79,1
1820,1.87,12139,1,12139,1,4.3716e-05,2.1991e-10,0,0.00026784,-7.9532e-06,1.8533,64.2,0,9.1154e+07,-1.8132,12138,13096,1,13096,1,0.00055686,5.9666e-10,0,0.00055686,8.8109e-05,1.5833e+08,161.35,0,1.9093e+08,4.0948,13095,12138,1,12138,1,4.3716e-05,2.1651e-10,0,0.00026608,-7.8991e-06,1.4192e+07,63.542,0,9.1446e+07,0.096462,12137,11203,1,11203,1,-0.00046943,1.5718e-11,0,1.33e-05,-0.00010405,-1.9093e+08,4.82,0,5.4366e+06,-32.4,11202,11683,1,11683,1,-0.00022236,1.3749e-10,0,0.00013304,-5.775e-05,-9.0433e+07,39.723,0,4.755e+07,-2.2833,11682,12593,1,12593,1,0.00030979,2.9103e-10,0,0.00039911,4.182e-05,9.1446e+07,84.35,0,1.3321e+08,1.0865,12592,527.79,0,527.79,0,0.00030713,1.1211e-10,0,0.0001564,5.7488e-05,1.0505e+08,32.612,0,5.2181e+07,5.2178,527.79,1
1820,1.88,12139,1,12139,1,4.3948e-05,-3.4646e-10,0,0.00026926,-7.9955e-06,4.478,-100.01,0,9.1639e+07,-8.9179,12138,13096,1,13096,1,0.00055983,1.821e-10,0,0.00055983,8.8578e-05,1.5917e+08,62.361,0,1.9195e+08,12.977,13095,12138,1,12138,1,4.3948e-05,-3.8739e-10,0,0.00026749,-7.9411e-06,1.4268e+07,-114.69,0,9.1932e+07,-4.1764,12137,11203,1,11203,1,-0.00047193,-8.2666e-10,0,1.3371e-05,-0.0001046,-1.9195e+08,-226.65,0,5.4654e+06,-61.945,11202,11683,1,11683,1,-0.00022354,-5.6016e-10,0,0.00013374,-5.8057e-05,-9.0914e+07,-162.12,0,4.7802e+07,-13.101,11682,12593,1,12593,1,0.00031144,-1.3919e-10,0,0.00040123,4.2042e-05,9.1932e+07,-39.683,0,1.3392e+08,-1.051,12592,527.79,0,527.79,0,0.00030876,2.6613e-10,0,0.00015723,5.7793e-05,1.0561e+08,75.796,0,5.2458e+07,12.506,527.79,1
1820,1.89,12139,1,12139,1,4.4181e-05,-5.8119e-10,0,0.00027069,-8.0378e-06,21.653,-169.73,0,9.2124e+07,6.8052,12138,13096,1,13096,1,0.00056279,2.5409e-09,0,0.00056279,8.9048e-05,1.6002e+08,705.46,0,1.9296e+08,81.201,13095,12138,1,12138,1,4.4181e-05,-3.5676e-10,0,0.00026891,-7.9831e-06,1.4343e+07,-99.928,0,9.2419e+07,5.9734,12137,11203,1,11203,1,-0.00047443,-3.7956e-09,0,1.3442e-05,-0.00010516,-1.9296e+08,-1053.4,0,5.4944e+06,-60.588,11202,11683,1,11683,1,-0.00022473,-1.5067e-09,0,0.00013445,-5.8365e-05,-9.1396e+07,-438.33,0,4.8056e+07,-15.894,11682,12593,1,12593,1,0.00031309,2.1058e-10,0,0.00040336,4.2265e-05,9.2419e+07,66.74,0,1.3463e+08,29.584,12592,527.79,0,527.79,0,0.00031039,1.346e-09,0,0.00015806,5.8099e-05,1.0617e+08,390.28,0,5.2736e+07,30.492,527.79,1
1820,1.9,12139,1,12139,1,4.4415e-05,2.4298e-10,0,0.00027212,-8.0804e-06,5.6611,70.503,0,9.2612e+07,3.6308,12138,13096,1,13096,1,0.00056577,2.4566e-09,0,0.00056577,8.9518e-05,1.6086e+08,669.86,0,1.9398e+08,38.685,13095,12138,1,12138,1,4.4414e-05,9.1441e-11,0,0.00027033,-8.0253e-06,1.4419e+07,26.353,0,9.2908e+07,3.813,12137,11203,1,11203,1,-0.00047694,-1.4956e-09,0,1.3513e-05,-0.00010571,-1.9398e+08,-415.61,0,5.5235e+06,-46.806,11202,11683,1,11683,1,-0.00022592,-2.561e-10,0,0.00013517,-5.8674e-05,-9.1879e+07,-75.131,0,4.831e+07,-9.8371,11682,12593,1,12593,1,0.00031474,7.5207e-10,0,0.0004055,4.2488e-05,9.2908e+07,218.27,0,1.3534e+08,19.103,12592,527.79,0,527.79,0,0.00031204,7.9398e-10,0,0.0001589,5.8407e-05,1.0673e+08,230.02,0,5.3015e+07,18.254,527.79,1
1820,1.91,12139,1,12139,1,4.4648e-05,-3.2253e-10,0,0.00027355,-8.1229e-06,19.07,-94.129,0,9.3099e+07,7.1471,12138,13096,1,13096,1,0.00056875,3.0106e-09,0,0.00056875,8.9989e-05,1.6171e+08,841.39,0,1.9501e+08,107.76,13095,12138,1,12138,1,4.4648e-05,-1.7027e-10,0,0.00027175,-8.0676e-06,1.4495e+07,-48.637,0,9.3397e+07,1.9498,12137,11203,1,11203,1,-0.00047945,-3.2466e-09,0,1.3584e-05,-0.00010627,-1.9501e+08,-909.16,0,5.5526e+06,-71.803,11202,11683,1,11683,1,-0.0002271,-1.1493e-09,0,0.00013588,-5.8983e-05,-9.2363e+07,-331.33,0,4.8564e+07,-20.996,11682,12593,1,12593,1,0.0003164,3.8397e-10,0,0.00040763,4.2712e-05,9.3397e+07,109.35,0,1.3606e+08,33.265,12592,527.79,0,527.79,0,0.00031368,1.234e-09,0,0.00015973,5.8714e-05,1.073e+08,357.92,0,5.3294e+07,36.608,527.79,1
1820,1.92,12139,1,12139,1,4.4884e-05,-5.3422e-10,0,0.000275,-8.1658e-06,22.27,-155.5,0,9.359e+07,-0.43911,12138,13096,1,13096,1,0.00057175,5.5521e-11,0,0.00057175,9.0464e-05,1.6256e+08,19.015,0,1.9603e+08,22.167,13095,12138,1,12138,1,4.4884e-05,-4.8984e-10,0,0.00027319,-8.1102e-06,1.4572e+07,-142.06,0,9.389e+07,-1.4224,12137,11203,1,11203,1,-0.00048198,-1.2794e-09,0,1.3656e-05,-0.00010683,-1.9603e+08,-353.73,0,5.5819e+06,-25.185,11202,11683,1,11683,1,-0.0002283,-8.1875e-10,0,0.00013659,-5.9294e-05,-9.285e+07,-245.28,0,4.8821e+07,-5.3297,11682,12593,1,12593,1,0.00031807,-2.2859e-10,0,0.00040978,4.2937e-05,9.389e+07,-67.486,0,1.3677e+08,3.8304,12592,527.79,0,527.79,0,0.00031533,3.5876e-10,0,0.00016058,5.9024e-05,1.0786e+08,103.45,0,5.3576e+07,7.5418,527.79,1
1820,1.93,12139,1,12139,1,4.5118e-05,-5.5455e-10,0,0.00027643,-8.2084e-06,-33.786,-161.42,0,9.4079e+07,3.1477,12138,13096,1,13096,1,0.00057473,1.4275e-10,0,0.00057473,9.0936e-05,1.6341e+08,48.887,0,1.9706e+08,18.798,13095,12138,1,12138,1,4.5118e-05,-4.9459e-10,0,0.00027461,-8.1524e-06,1.4648e+07,-145.09,0,9.438e+07,3.2817,12137,11203,1,11203,1,-0.0004845,-1.4265e-09,0,1.3727e-05,-0.00010739,-1.9706e+08,-396.26,0,5.611e+06,-16.222,11202,11683,1,11683,1,-0.00022949,-8.5243e-10,0,0.00013731,-5.9603e-05,-9.3335e+07,-250.28,0,4.9075e+07,-2.3325,11682,12593,1,12593,1,0.00031973,-2.3923e-10,0,0.00041192,4.3161e-05,9.438e+07,-69.792,0,1.3749e+08,8.7198,12592,527.79,0,527.79,0,0.00031698,3.9135e-10,0,0.00016142,5.9332e-05,1.0843e+08,112.83,0,5.3855e+07,7.0005,527.79,1
1820,1.94,12139,1,12139,1,4.535e-05,-2.9152e-10,0,0.00027785,-8.2505e-06,-14.237,-84.946,0,9.4562e+07,6.4196,12138,13096,1,13096,1,0.00057768,1.697e-09,0,0.00057768,9.1403e-05,1.6425e+08,473.08,0,1.9807e+08,54.178,13095,12138,1,12138,1,4.535e-05,-1.0574e-10,0,0.00027602,-8.1943e-06,1.4723e+07,-30.239,0,9.4865e+07,5.0875,12137,11203,1,11203,1,-0.00048698,-2.7155e-09,0,1.3798e-05,-0.00010794,-1.9807e+08,-753.17,0,5.6399e+06,-31.53,11202,11683,1,11683,1,-0.00023067,-8.5628e-10,0,0.00013801,-5.991e-05,-9.3814e+07,-249.82,0,4.9327e+07,-11.768,11682,12593,1,12593,1,0.00032137,2.6948e-10,0,0.00041403,4.3383e-05,9.4865e+07,78.778,0,1.3819e+08,23.834,12592,527.79,0,527.79,0,0.00031861,9.0067e-10,0,0.00016225,5.9637e-05,1.0898e+08,261.29,0,5.4132e+07,20.649,527.79,1
1820,1.95,12139,1,12139,1,4.5584e-05,-4.7888e-10,0,0.00027928,-8.293e-06,-4.1957,-139.3,0,9.5049e+07,7.3732,12138,13096,1,13096,1,0.00058066,1.626e-09,0,0.00058066,9.1875e-05,1.651e+08,446.32,0,1.9909e+08,74.523,13095,12138,1,12138,1,4.5583e-05,-2.5069e-10,0,0.00027745,-8.2365e-06,1.4799e+07,-71.421,0,9.5353e+07,5.453,12137,11203,1,11203,1,-0.00048949,-2.7064e-09,0,1.3869e-05,-0.0001085,-1.9909e+08,-748.37,0,5.6689e+06,-39.991,11202,11683,1,11683,1,-0.00023186,-1.1427e-09,0,0.00013872,-6.0218e-05,-9.4298e+07,-331.25,0,4.9582e+07,-9.5544,11682,12593,1,12593,1,0.00032303,1.2808e-10,0,0.00041617,4.3607e-05,9.5353e+07,37.166,0,1.3891e+08,24.594,12592,527.79,0,527.79,0,0.00032025,9.1135e-10,0,0.00016308,5.9944e-05,1.0954e+08,263.88,0,5.4411e+07,20.78,527.79,1
1820,1.96,12139,1,12139,1,4.5818e-05,-6.1049e-11,0,0.00028072,-8.3357e-06,15.162,-17.635,0,9.5538e+07,8.0576,12138,13096,1,13096,1,0.00058364,2.0075e-09,0,0.00058364,9.2346e-05,1.6594e+08,553.62,0,2.0011e+08,50.337,13095,12138,1,12138,1,4.5818e-05,1.4051e-11,0,0.00027887,-8.2789e-06,1.4875e+07,4.2799,0,9.5843e+07,6.6205,12137,11203,1,11203,1,-0.00049201,-2.256e-09,0,1.394e-05,-0.00010905,-2.0011e+08,-619.47,0,5.698e+06,-47.554,11202,11683,1,11683,1,-0.00023305,-5.3348e-10,0,0.00013944,-6.0528e-05,-9.4782e+07,-155.6,0,4.9836e+07,-8.1403,11682,12593,1,12593,1,0.00032469,4.1536e-10,0,0.00041831,4.3831e-05,9.5843e+07,122.66,0,1.3962e+08,26.085,12592,527.79,0,527.79,0,0.00032189,8.0085e-10,0,0.00016392,6.0252e-05,1.1011e+08,231.33,0,5.469e+07,20.269,527.79,1
1820,1.97,12139,1,12139,1,4.605e-05,3.3691e-11,0,0.00028215,-8.378e-06,26.925,10.597,0,9.6023e+07,19.567,12138,13096,1,13096,1,0.00058661,3.6982e-09,0,0.00058661,9.2815e-05,1.6679e+08,1025.9,0,2.0113e+08,126.93,13095,12138,1,12138,1,4.605e-05,2.1144e-11,0,0.00028029,-8.3208e-06,1.495e+07,6.1338,0,9.633e+07,14.581,12137,11203,1,11203,1,-0.00049451,-3.0768e-09,0,1.4011e-05,-0.00010961,-2.0113e+08,-851.56,0,5.7269e+06,-45.134,11202,11683,1,11683,1,-0.00023424,-7.4637e-10,0,0.00014014,-6.0835e-05,-9.5263e+07,-217.48,0,5.0089e+07,-11.257,11682,12593,1,12593,1,0.00032634,7.5557e-10,0,0.00042043,4.4053e-05,9.633e+07,220.36,0,1.4033e+08,44.39,12592,527.79,0,527.79,0,0.00032353,1.2913e-09,0,0.00016475,6.0558e-05,1.1067e+08,375.98,0,5.4968e+07,37.526,527.79,1
1820,1.98,12139,1,12139,1,4.6285e-05,-7.7282e-10,0,0.00028358,-8.4206e-06,-18.289,-224.68,0,9.6512e+07,3.7834,12138,13096,1,13096,1,0.0005896,5.6396e-10,0,0.0005896,9.3288e-05,1.6764e+08,161.42,0,2.0215e+08,44.311,13095,12138,1,12138,1,4.6285e-05,-6.184e-10,0,0.00028171,-8.3632e-06,1.5026e+07,-176.77,0,9.682e+07,2.9509,12137,11203,1,11203,1,-0.00049703,-2.638e-09,0,1.4082e-05,-0.00011016,-2.0215e+08,-730.54,0,5.7561e+06,-32.952,11202,11683,1,11683,1,-0.00023543,-1.3748e-09,0,0.00014086,-6.1145e-05,-9.5748e+07,-405.7,0,5.0345e+07,-8.3447,11682,12593,1,12593,1,0.000328,-1.1264e-10,0,0.00042257,4.4278e-05,9.682e+07,-33.832,0,1.4104e+08,16.122,12592,527.79,0,527.79,0,0.00032518,7.7169e-10,0,0.00016559,6.0866e-05,1.1123e+08,223.73,0,5.5248e+07,15.918,527.79,1
1820,1.99,12139,1,12139,1,4.6519e-05,-6.1915e-10,0,0.00028502,-8.4632e-06,35.261,-180.75,0,9.7e+07,3.9927,12138,13096,1,13096,1,0.00059258,1.0316e-09,0,0.00059258,9.376e-05,1.6848e+08,280.74,0,2.0318e+08,38.436,13095,12138,1,12138,1,4.6519e-05,-4.1965e-10,0,0.00028314,-8.4056e-06,1.5102e+07,-124.62,0,9.731e+07,4.0999,12137,11203,1,11203,1,-0.00049954,-2.5086e-09,0,1.4153e-05,-0.00011072,-2.0318e+08,-694.65,0,5.7852e+06,-45.701,11202,11683,1,11683,1,-0.00023662,-1.1809e-09,0,0.00014157,-6.1454e-05,-9.6233e+07,-344.78,0,5.0599e+07,-9.1843,11682,12593,1,12593,1,0.00032966,-5.1238e-11,0,0.00042471,4.4502e-05,9.731e+07,-14.782,0,1.4176e+08,17.833,12592,527.79,0,527.79,0,0.00032682,7.8264e-10,0,0.00016643,6.1174e-05,1.1179e+08,226.39,0,5.5527e+07,16.124,527.79,1
1820,2,12139,1,12139,1,4.6753e-05,2.7636e-10,0,0.00028645,-8.5057e-06,13.576,79.864,0,9.7487e+07,14.594,12138,13096,1,13096,1,0.00059555,2.3543e-09,0,0.00059555,9.4231e-05,1.6933e+08,644.68,0,2.042e+08,69.692,13095,12138,1,12138,1,4.6753e-05,1.337e-10,0,0.00028456,-8.4478e-06,1.5178e+07,35.828,0,9.7799e+07,12.276,12137,11203,1,11203,1,-0.00050205,-1.2464e-09,0,1.4225e-05,-0.00011128,-2.042e+08,-350.57,0,5.8143e+06,-23.135,11202,11683,1,11683,1,-0.00023781,-9.5566e-11,0,0.00014228,-6.1763e-05,-9.6716e+07,-26.33,0,5.0853e+07,0.63964,11682,12593,1,12593,1,0.00033131,6.1376e-10,0,0.00042684,4.4725e-05,9.7799e+07,180.69,0,1.4247e+08,24.849,12592,527.79,0,527.79,0,0.00032846,5.9876e-10,0,0.00016726,6.1481e-05,1.1235e+08,169.14,0,5.5806e+07,18.13,527.79,1
1820,2.01,12139,1,12139,1,4.699e-05,-2.5482e-10,0,0.0002879,-8.5489e-06,7.9794,-73.581,0,9.7981e+07,-11.569,12138,13096,1,13096,1,0.00059857,9.2612e-10,0,0.00059857,9.4708e-05,1.7019e+08,251.56,0,2.0523e+08,19.301,13095,12138,1,12138,1,4.699e-05,-1.3368e-10,0,0.000286,-8.4907e-06,1.5255e+07,-39.513,0,9.8294e+07,-10.156,12137,11203,1,11203,1,-0.00050459,-1.899e-09,0,1.4296e-05,-0.00011184,-2.0523e+08,-510.51,0,5.8437e+06,-42.694,11202,11683,1,11683,1,-0.00023901,-6.1735e-10,0,0.000143,-6.2075e-05,-9.7206e+07,-180.74,0,5.1111e+07,-25.177,11682,12593,1,12593,1,0.00033299,9.467e-11,0,0.000429,4.4951e-05,9.8294e+07,26.41,0,1.4319e+08,1.6778,12592,527.79,0,527.79,0,0.00033013,5.5199e-10,0,0.00016811,6.1793e-05,1.1292e+08,158.82,0,5.6089e+07,14.42,527.79,1
1820,2.02,12139,1,12139,1,4.722e-05,1.3813e-10,0,0.00028931,-8.5908e-06,21.974,40.382,0,9.8462e+07,2.8787,12138,13096,1,13096,1,0.00060151,3.5e-09,0,0.00060151,9.5173e-05,1.7102e+08,946.53,0,2.0624e+08,69.948,13095,12138,1,12138,1,4.722e-05,1.8424e-11,0,0.00028741,-8.5323e-06,1.533e+07,5.0767,0,9.8777e+07,2.9785,12137,11203,1,11203,1,-0.00050707,-2.651e-09,0,1.4367e-05,-0.00011239,-2.0624e+08,-733.48,0,5.8725e+06,-77.13,11202,11683,1,11683,1,-0.00024019,-6.8983e-10,0,0.0001437,-6.238e-05,-9.7683e+07,-201.96,0,5.1362e+07,-20.845,11682,12593,1,12593,1,0.00033463,8.9413e-10,0,0.00043111,4.5172e-05,9.8777e+07,260.42,0,1.4389e+08,28.97,12592,527.79,0,527.79,0,0.00033175,1.2586e-09,0,0.00016894,6.2096e-05,1.1348e+08,364.46,0,5.6364e+07,30.343,527.79,1
1820,2.03,12139,1,12139,1,4.7454e-05,-1.2199e-10,0,0.00029074,-8.6332e-06,5.6906,-36.111,0,9.8949e+07,14.47,12138,13096,1,13096,1,0.00060448,3.0577e-09,0,0.00060448,9.5643e-05,1.7187e+08,856.09,0,2.0726e+08,114.19,13095,12138,1,12138,1,4.7454e-05,-1.2266e-10,0,0.00028883,-8.5744e-06,1.5406e+07,-36.842,0,9.9265e+07,6.3655,12137,11203,1,11203,1,-0.00050957,-2.3668e-09,0,1.4438e-05,-0.00011295,-2.0726e+08,-667.2,0,5.9015e+06,-68.326,11202,11683,1,11683,1,-0.00024137,-8.9064e-10,0,0.00014441,-6.2689e-05,-9.8166e+07,-262.72,0,5.1616e+07,-10.816,11682,12593,1,12593,1,0.00033628,4.9845e-10,0,0.00043324,4.5396e-05,9.9265e+07,145.83,0,1.446e+08,38.468,12592,527.79,0,527.79,0,0.00033339,1.0942e-09,0,0.00016977,6.2403e-05,1.1404e+08,317.13,0,5.6643e+07,34.876,527.79,1
1820,2.04,12139,1,12139,1,4.7687e-05,4.2656e-10,0,0.00029217,-8.6757e-06,-2.8949,123.66,0,9.9436e+07,10.076,12138,13096,1,13096,1,0.00060746,2.8681e-09,0,0.00060746,9.6115e-05,1.7272e+08,783.04,0,2.0828e+08,78.815,13095,12138,1,12138,1,4.7687e-05,1.8169e-10,0,0.00029025,-8.6166e-06,1.5482e+07,52.396,0,9.9754e+07,10.995,12137,11203,1,11203,1,-0.00051208,-1.5116e-09,0,1.4509e-05,-0.0001135,-2.0828e+08,-418.32,0,5.9305e+06,-64.767,11202,11683,1,11683,1,-0.00024256,-1.9522e-10,0,0.00014512,-6.2997e-05,-9.8649e+07,-58.341,0,5.187e+07,-10.245,11682,12593,1,12593,1,0.00033794,1.0497e-09,0,0.00043537,4.5619e-05,9.9754e+07,305.67,0,1.4532e+08,31.546,12592,527.79,0,527.79,0,0.00033503,9.4021e-10,0,0.00017061,6.271e-05,1.146e+08,272.15,0,5.6922e+07,27.968,527.79,1
1820,2.05,12139,1,12139,1,4.7921e-05,-3.8782e-10,0,0.00029361,-8.7184e-06,10.794,-112.33,0,9.9924e+07,5.4627,12138,13096,1,13096,1,0.00061044,1.9965e-09,0,0.00061044,9.6586e-05,1.7356e+08,554.84,0,2.093e+08,85.016,13095,12138,1,12138,1,4.7921e-05,-2.1728e-10,0,0.00029167,-8.659e-06,1.5558e+07,-61.938,0,1.0024e+08,1.4329,12137,11203,1,11203,1,-0.0005146,-2.9365e-09,0,1.458e-05,-0.00011406,-2.093e+08,-821.92,0,5.9596e+06,-55.73,11202,11683,1,11683,1,-0.00024375,-1.044e-09,0,0.00014584,-6.3307e-05,-9.9134e+07,-306.23,0,5.2125e+07,-15.948,11682,12593,1,12593,1,0.0003396,2.1178e-10,0,0.00043751,4.5843e-05,1.0024e+08,63.617,0,1.4603e+08,24.059,12592,527.79,0,527.79,0,0.00033667,1.0112e-09,0,0.00017144,6.3018e-05,1.1516e+08,292.65,0,5.7201e+07,27.473,527.79,1
1820,2.06,12139,1,12139,1,4.8156e-05,2.0287e-10,0,0.00029505,-8.7611e-06,12.216,58.855,0,1.0041e+08,4.5529,12138,13096,1,13096,1,0.00061343,1.1273e-09,0,0.00061343,9.7059e-05,1.7441e+08,309.44,0,2.1033e+08,33.907,13095,12138,1,12138,1,4.8156e-05,1.4012e-10,0,0.0002931,-8.7014e-06,1.5634e+07,41.951,0,1.0073e+08,3.2388,12137,11203,1,11203,1,-0.00051712,-6.9758e-10,0,1.4652e-05,-0.00011462,-2.1033e+08,-193.12,0,5.9888e+06,-30.179,11202,11683,1,11683,1,-0.00024495,-5.4508e-11,0,0.00014655,-6.3617e-05,-9.9619e+07,-15.753,0,5.238e+07,-3.2152,11682,12593,1,12593,1,0.00034126,4.7751e-10,0,0.00043966,4.6068e-05,1.0073e+08,141.14,0,1.4674e+08,12.707,12592,527.79,0,527.79,0,0.00033832,3.6665e-10,0,0.00017229,6.3327e-05,1.1573e+08,106.06,0,5.7482e+07,10.995,527.79,1
1820,2.07,12139,1,12139,1,4.8388e-05,-4.2231e-10,0,0.00029647,-8.8032e-06,12.483,-123.35,0,1.009e+08,11.878,12138,13096,1,13096,1,0.00061638,2.2215e-09,0,0.00061638,9.7527e-05,1.7525e+08,604.53,0,2.1134e+08,70.632,13095,12138,1,12138,1,4.8388e-05,-2.261e-10,0,0.00029451,-8.7432e-06,1.5709e+07,-66.375,0,1.0122e+08,11.359,12137,11203,1,11203,1,-0.00051961,-3.1305e-09,0,1.4722e-05,-0.00011517,-2.1134e+08,-862.29,0,6.0177e+06,-60.348,11202,11683,1,11683,1,-0.00024613,-1.1042e-09,0,0.00014726,-6.3923e-05,-1.001e+08,-322.11,0,5.2632e+07,-10.643,11682,12593,1,12593,1,0.0003429,1.7669e-10,0,0.00044177,4.6289e-05,1.0122e+08,53.643,0,1.4745e+08,35.615,12592,527.79,0,527.79,0,0.00033995,1.0269e-09,0,0.00017311,6.3632e-05,1.1628e+08,296.46,0,5.7758e+07,26.952,527.79,1
1820,2.08,12139,1,12139,1,4.8623e-05,-1.5799e-10,0,0.00029791,-8.846e-06,31.299,-46.477,0,1.0139e+08,17.884,12138,13096,1,13096,1,0.00061938,3.1404e-09,0,0.00061938,9.8e-05,1.761e+08,865.57,0,2.1236e+08,118.26,13095,12138,1,12138,1,4.8623e-05,-9.8137e-11,0,0.00029594,-8.7857e-06,1.5785e+07,-27.728,0,1.0171e+08,11.471,12137,11203,1,11203,1,-0.00052213,-2.903e-09,0,1.4794e-05,-0.00011573,-2.1236e+08,-802.64,0,6.0469e+06,-41.373,11202,11683,1,11683,1,-0.00024732,-9.6219e-10,0,0.00014797,-6.4233e-05,-1.0058e+08,-277.72,0,5.2887e+07,-11.264,11682,12593,1,12593,1,0.00034457,5.3661e-10,0,0.00044392,4.6514e-05,1.0171e+08,153.09,0,1.4817e+08,41.462,12592,527.79,0,527.79,0,0.0003416,1.2066e-09,0,0.00017395,6.3941e-05,1.1685e+08,349.94,0,5.8039e+07,35.07,527.79,1
1820,2.09,12139,1,12139,1,4.8857e-05,-8.1219e-10,0,0.00029934,-8.8886e-06,2.9114,-236.29,0,1.0187e+08,2.5175,12138,13096,1,13096,1,0.00062236,6.9886e-10,0,0.00062236,9.8472e-05,1.7695e+08,192.77,0,2.1339e+08,46.907,13095,12138,1,12138,1,4.8857e-05,-7.0411e-10,0,0.00029737,-8.828e-06,1.5861e+07,-204.55,0,1.022e+08,2.3212,12137,11203,1,11203,1,-0.00052464,-2.5494e-09,0,1.4865e-05,-0.00011629,-2.1339e+08,-703.83,0,6.076e+06,-47.377,11202,11683,1,11683,1,-0.00024851,-1.4058e-09,0,0.00014868,-6.4542e-05,-1.0107e+08,-418.1,0,5.3142e+07,-7.8766,11682,12593,1,12593,1,0.00034622,-1.6719e-10,0,0.00044605,4.6738e-05,1.022e+08,-50.029,0,1.4888e+08,14.908,12592,527.79,0,527.79,0,0.00034325,7.7221e-10,0,0.00017479,6.4248e-05,1.1741e+08,223.28,0,5.8318e+07,17.233,527.79,1
1820,2.1,12139,1,12139,1,4.909e-05,-6.3589e-10,0,0.00030077,-8.931e-06,-4.2857,-184.91,0,1.0236e+08,5.1937,12138,13096,1,13096,1,0.00062533,2.5289e-09,0,0.00062533,9.8943e-05,1.778e+08,699.63,0,2.1441e+08,78.54,13095,12138,1,12138,1,4.909e-05,-3.3388e-10,0,0.00029879,-8.8702e-06,1.5937e+07,-94.259,0,1.0269e+08,2.6552,12137,11203,1,11203,1,-0.00052715,-3.9162e-09,0,1.4936e-05,-0.00011684,-2.1441e+08,-1086,0,6.105e+06,-66.589,11202,11683,1,11683,1,-0.0002497,-1.6223e-09,0,0.00014939,-6.4851e-05,-1.0155e+08,-473.39,0,5.3396e+07,-19.696,11682,12593,1,12593,1,0.00034788,2.7013e-10,0,0.00044818,4.6961e-05,1.0269e+08,79.439,0,1.4959e+08,31.467,12592,527.79,0,527.79,0,0.00034488,1.3872e-09,0,0.00017563,6.4555e-05,1.1797e+08,402.1,0,5.8596e+07,31.086,527.79,1
1820,2.11,12139,1,12139,1,4.9325e-05,-1.9902e-10,0,0.00030221,-8.9737e-06,-0.57719,-57.706,0,1.0285e+08,6.1303,12138,13096,1,13096,1,0.00062831,1.1414e-09,0,0.00062831,9.9414e-05,1.7865e+08,314.64,0,2.1543e+08,48.297,13095,12138,1,12138,1,4.9325e-05,-8.2628e-11,0,0.00030022,-8.9126e-06,1.6013e+07,-23.965,0,1.0318e+08,3.831,12137,11203,1,11203,1,-0.00052966,-1.7212e-09,0,1.5007e-05,-0.0001174,-2.1543e+08,-483.41,0,6.1342e+06,-43.049,11202,11683,1,11683,1,-0.00025089,-5.635e-10,0,0.00015011,-6.516e-05,-1.0204e+08,-165.24,0,5.3651e+07,-6.5628,11682,12593,1,12593,1,0.00034954,1.5747e-10,0,0.00045032,4.7185e-05,1.0318e+08,45.989,0,1.5031e+08,18.842,12592,527.79,0,527.79,0,0.00034653,5.7691e-10,0,0.00017647,6.4864e-05,1.1853e+08,166.33,0,5.8876e+07,16.044,527.79,1
1820,2.12,12139,1,12139,1,4.9557e-05,1.9826e-10,0,0.00030363,-9.016e-06,25.848,57.279,0,1.0334e+08,13.632,12138,13096,1,13096,1,0.00063128,2.5469e-09,0,0.00063128,9.9884e-05,1.7949e+08,694.68,0,2.1645e+08,65.057,13095,12138,1,12138,1,4.9557e-05,7.3374e-11,0,0.00030163,-8.9546e-06,1.6089e+07,21.469,0,1.0367e+08,12.203,12137,11203,1,11203,1,-0.00053216,-1.7365e-09,0,1.5078e-05,-0.00011795,-2.1645e+08,-479.75,0,6.1631e+06,-41.243,11202,11683,1,11683,1,-0.00025207,-2.5587e-10,0,0.00015082,-6.5468e-05,-1.0252e+08,-76.424,0,5.3904e+07,-5.4177,11682,12593,1,12593,1,0.00035119,6.7464e-10,0,0.00045245,4.7408e-05,1.0367e+08,194.72,0,1.5101e+08,33.683,12592,527.79,0,527.79,0,0.00034817,7.8766e-10,0,0.0001773,6.517e-05,1.1909e+08,228.26,0,5.9154e+07,22.511,527.79,1
1820,2.13,12139,1,12139,1,4.9791e-05,-1.6112e-10,0,0.00030506,-9.0585e-06,7.148,-46.896,0,1.0382e+08,13.063,12138,13096,1,13096,1,0.00063426,2.7879e-09,0,0.00063426,0.00010035,1.8033e+08,762.27,0,2.1747e+08,105.24,13095,12138,1,12138,1,4.9791e-05,-8.8826e-11,0,0.00030305,-8.9967e-06,1.6165e+07,-25.008,0,1.0415e+08,13.221,12137,11203,1,11203,1,-0.00053467,-2.9417e-09,0,1.5149e-05,-0.00011851,-2.1747e+08,-812.79,0,6.1921e+06,-62.315,11202,11683,1,11683,1,-0.00025326,-9.853e-10,0,0.00015153,-6.5776e-05,-1.03e+08,-281.46,0,5.4158e+07,-11.65,11682,12593,1,12593,1,0.00035284,5.451e-10,0,0.00045458,4.7632e-05,1.0415e+08,169.51,0,1.5173e+08,36.738,12592,527.79,0,527.79,0,0.00034981,1.1872e-09,0,0.00017813,6.5477e-05,1.1965e+08,344.31,0,5.9433e+07,32.274,527.79,1
1820,2.14,12139,1,12139,1,5.0027e-05,-1.8619e-10,0,0.00030651,-9.1015e-06,3.7891,-54.231,0,1.0432e+08,0.098028,12138,13096,1,13096,1,0.00063726,2.7156e-10,0,0.00063726,0.00010083,1.8119e+08,82.487,0,2.185e+08,13.193,13095,12138,1,12138,1,5.0027e-05,-1.0428e-10,0,0.00030449,-9.0395e-06,1.6241e+07,-30.694,0,1.0465e+08,0.82718,12137,11203,1,11203,1,-0.00053721,-9.2163e-10,0,1.5221e-05,-0.00011907,-2.185e+08,-256.52,0,6.2215e+06,-22.081,11202,11683,1,11683,1,-0.00025446,-3.663e-10,0,0.00015225,-6.6089e-05,-1.0349e+08,-106.57,0,5.4415e+07,-4.5178,11682,12593,1,12593,1,0.00035452,6.5613e-12,0,0.00045674,4.7858e-05,1.0465e+08,1.8634,0,1.5245e+08,5.4987,12592,527.79,0,527.79,0,0.00035147,2.7441e-10,0,0.00017898,6.5788e-05,1.2022e+08,79.854,0,5.9715e+07,7.4584,527.79,1
1820,2.15,12139,1,12139,1,5.026e-05,5.8787e-12,0,0.00030794,-9.1438e-06,4.8004,1.639,0,1.048e+08,5.9456,12138,13096,1,13096,1,0.00064022,1.7421e-09,0,0.00064022,0.0001013,1.8203e+08,481.66,0,2.1951e+08,61.356,13095,12138,1,12138,1,5.026e-05,5.5846e-12,0,0.00030591,-9.0815e-06,1.6317e+07,1.7782,0,1.0513e+08,4.7147,12137,11203,1,11203,1,-0.0005397,-1.2806e-09,0,1.5292e-05,-0.00011962,-2.1951e+08,-354.39,0,6.2504e+06,-33.528,11202,11683,1,11683,1,-0.00025565,-3.5115e-10,0,0.00015295,-6.6396e-05,-1.0397e+08,-101.17,0,5.4668e+07,-6.2062,11682,12593,1,12593,1,0.00035617,2.9574e-10,0,0.00045886,4.808e-05,1.0513e+08,84.956,0,1.5315e+08,17.001,12592,527.79,0,527.79,0,0.0003531,5.5742e-10,0,0.00017981,6.6093e-05,1.2078e+08,161.23,0,5.9992e+07,16.799,527.79,1
1820,2.16,12139,1,12139,1,5.0493e-05,9.8772e-11,0,0.00030937,-9.1862e-06,8.5423,28.672,0,1.0529e+08,8.4073,12138,13096,1,13096,1,0.0006432,1.8835e-09,0,0.0006432,0.00010177,1.8288e+08,521.72,0,2.2053e+08,39.34,13095,12138,1,12138,1,5.0493e-05,1.7072e-11,0,0.00030733,-9.1237e-06,1.6393e+07,4.7083,0,1.0562e+08,7.1506,12137,11203,1,11203,1,-0.00054221,-1.4433e-09,0,1.5363e-05,-0.00012018,-2.2053e+08,-399.78,0,6.2795e+06,-30.733,11202,11683,1,11683,1,-0.00025683,-3.2335e-10,0,0.00015366,-6.6704e-05,-1.0445e+08,-94.089,0,5.4922e+07,-5.5987,11682,12593,1,12593,1,0.00035782,5.1359e-10,0,0.00046099,4.8303e-05,1.0562e+08,148.59,0,1.5387e+08,24.922,12592,527.79,0,527.79,0,0.00035474,6.5796e-10,0,0.00018065,6.64e-05,1.2134e+08,191.4,0,6.0271e+07,17.3,527.79,1
1820,2.17,12139,1,12139,1,5.0727e-05,-5.9649e-10,0,0.0003108,-9.2288e-06,9.9497,-173.29,0,1.0577e+08,-1.3414,12138,13096,1,13096,1,0.00064618,3.4285e-10,0,0.00064618,0.00010224,1.8372e+08,101.62,0,2.2155e+08,29.648,13095,12138,1,12138,1,5.0727e-05,-4.6982e-10,0,0.00030875,-9.1659e-06,1.6468e+07,-135.32,0,1.0611e+08,-2.043,12137,11203,1,11203,1,-0.00054472,-2.1791e-09,0,1.5434e-05,-0.00012074,-2.2155e+08,-605.58,0,6.3085e+06,-27.056,11202,11683,1,11683,1,-0.00025802,-1.0172e-09,0,0.00015438,-6.7013e-05,-1.0494e+08,-297.96,0,5.5176e+07,-10.86,11682,12593,1,12593,1,0.00035948,-7.6705e-11,0,0.00046313,4.8527e-05,1.0611e+08,-23.365,0,1.5458e+08,6.8972,12592,527.79,0,527.79,0,0.00035638,6.108e-10,0,0.00018148,6.6708e-05,1.219e+08,177.05,0,6.055e+07,12.314,527.79,1
1820,2.18,12139,1,12139,1,5.0961e-05,-3.5915e-10,0,0.00031223,-9.2714e-06,0.52631,-104.2,0,1.0626e+08,1.2286,12138,13096,1,13096,1,0.00064916,1.2543e-10,0,0.00064916,0.00010271,1.8457e+08,42.954,0,2.2258e+08,14.443,13095,12138,1,12138,1,5.0961e-05,-3.2657e-10,0,0.00031017,-9.2082e-06,1.6544e+07,-92.856,0,1.066e+08,1.7993,12137,11203,1,11203,1,-0.00054724,-1.034e-09,0,1.5505e-05,-0.00012129,-2.2258e+08,-286.92,0,6.3376e+06,-20.253,11202,11683,1,11683,1,-0.00025921,-5.8773e-10,0,0.00015509,-6.7322e-05,-1.0542e+08,-173.52,0,5.5431e+07,-1.6111,11682,12593,1,12593,1,0.00036114,-9.5676e-11,0,0.00046526,4.8751e-05,1.066e+08,-30.329,0,1.5529e+08,5.578,12592,527.79,0,527.79,0,0.00035803,3.0343e-10,0,0.00018232,6.7016e-05,1.2247e+08,87.357,0,6.083e+07,6.4816,527.79,1
1820,2.19,12139,1,12139,1,5.1195e-05,1.4863e-10,0,0.00031367,-9.3139e-06,-21.884,42.584,0,1.0675e+08,6.86,12138,13096,1,13096,1,0.00065214,1.0979e-09,0,0.00065214,0.00010318,1.8542e+08,293.91,0,2.236e+08,31.483,13095,12138,1,12138,1,5.1195e-05,9.3423e-11,0,0.0003116,-9.2504e-06,1.662e+07,27.777,0,1.0709e+08,7.3963,12137,11203,1,11203,1,-0.00054975,-7.3639e-10,0,1.5576e-05,-0.00012185,-2.236e+08,-205.71,0,6.3668e+06,-28.321,11202,11683,1,11683,1,-0.0002604,-7.6145e-11,0,0.0001558,-6.7631e-05,-1.0591e+08,-22.123,0,5.5685e+07,0.88965,11682,12593,1,12593,1,0.00036279,3.8269e-10,0,0.0004674,4.8975e-05,1.0709e+08,114.28,0,1.56e+08,15.618,12592,527.79,0,527.79,0,0.00035967,3.366e-10,0,0.00018316,6.7323e-05,1.2303e+08,96.828,0,6.1109e+07,10.903,527.79,1
1820,2.2,12139,1,12139,1,5.1429e-05,5.9211e-10,0,0.0003151,-9.3565e-06,-3.2017,171.06,0,1.0724e+08,5.1771,12138,13096,1,13096,1,0.00065512,2.9216e-09,0,0.00065512,0.00010366,1.8627e+08,797.97,0,2.2462e+08,62.471,13095,12138,1,12138,1,5.1429e-05,3.4051e-10,0,0.00031302,-9.2927e-06,1.6696e+07,100.28,0,1.0758e+08,4.1769,12137,11203,1,11203,1,-0.00055226,-5.4067e-10,0,1.5647e-05,-0.00012241,-2.2462e+08,-150.44,0,6.3958e+06,-53.33,11202,11683,1,11683,1,-0.00026159,-1.0913e-11,0,0.00015651,-6.794e-05,-1.0639e+08,-2.8296,0,5.594e+07,-7.5288,11682,12593,1,12593,1,0.00036445,1.0441e-09,0,0.00046953,4.9198e-05,1.0758e+08,305.92,0,1.5672e+08,18.36,12592,527.79,0,527.79,0,0.00036131,7.6909e-10,0,0.00018399,6.7631e-05,1.2359e+08,220.08,0,6.1388e+07,19.796,527.79,1
1820,2.21,12139,1,12139,1,5.1661e-05,-2.3808e-10,0,0.00031652,-9.3987e-06,5.8643,-69.761,0,1.0772e+08,18.091,12138,13096,1,13096,1,0.00065808,2.3533e-09,0,0.00065808,0.00010412,1.8711e+08,655.83,0,2.2563e+08,87.659,13095,12138,1,12138,1,5.1661e-05,-1.3124e-10,0,0.00031444,-9.3346e-06,1.6772e+07,-38.369,0,1.0807e+08,15.408,12137,11203,1,11203,1,-0.00055476,-2.5802e-09,0,1.5718e-05,-0.00012296,-2.2563e+08,-713.79,0,6.4247e+06,-43.53,11202,11683,1,11683,1,-0.00026278,-8.8078e-10,0,0.00015722,-6.8247e-05,-1.0687e+08,-257.89,0,5.6192e+07,-4.0503,11682,12593,1,12593,1,0.0003661,3.051e-10,0,0.00047165,4.9421e-05,1.0807e+08,89.161,0,1.5743e+08,39.279,12592,527.79,0,527.79,0,0.00036295,9.6531e-10,0,0.00018482,6.7936e-05,1.2415e+08,279.34,0,6.1665e+07,26.742,527.79,1
1820,2.22,12139,1,12139,1,5.1896e-05,-4.3159e-10,0,0.00031796,-9.4415e-06,17.197,-125.36,0,1.0821e+08,-0.084361,12138,13096,1,13096,1,0.00066107,1.3328e-09,0,0.00066107,0.0001046,1.8796e+08,366.78,0,2.2666e+08,45.427,13095,12138,1,12138,1,5.1896e-05,-2.8998e-10,0,0.00031587,-9.3772e-06,1.6848e+07,-81.858,0,1.0856e+08,-0.69057,12137,11203,1,11203,1,-0.00055728,-2.2797e-09,0,1.5789e-05,-0.00012352,-2.2666e+08,-631,0,6.4539e+06,-43.628,11202,11683,1,11683,1,-0.00026397,-1.0126e-09,0,0.00015793,-6.8557e-05,-1.0736e+08,-290.49,0,5.6448e+07,-13.614,11682,12593,1,12593,1,0.00036776,9.8549e-11,0,0.0004738,4.9645e-05,1.0856e+08,30.527,0,1.5814e+08,13.331,12592,527.79,0,527.79,0,0.0003646,7.7637e-10,0,0.00018566,6.8245e-05,1.2471e+08,224.24,0,6.1945e+07,17.243,527.79,1
1820,2.23,12139,1,12139,1,5.213e-05,-5.2889e-10,0,0.00031939,-9.484e-06,19.623,-153.56,0,1.087e+08,6.3666,12138,13096,1,13096,1,0.00066405,1.1856e-09,0,0.00066405,0.00010507,1.8881e+08,324.56,0,2.2768e+08,66.56,13095,12138,1,12138,1,5.213e-05,-3.6869e-10,0,0.00031729,-9.4194e-06,1.6924e+07,-109.23,0,1.0905e+08,3.6017,12137,11203,1,11203,1,-0.00055979,-2.2105e-09,0,1.5861e-05,-0.00012408,-2.2768e+08,-611.24,0,6.483e+06,-34.918,11202,11683,1,11683,1,-0.00026516,-1.0837e-09,0,0.00015864,-6.8866e-05,-1.0784e+08,-319.7,0,5.6702e+07,-8.0231,11682,12593,1,12593,1,0.00036942,2.9159e-11,0,0.00047593,4.9869e-05,1.0905e+08,7.8765,0,1.5885e+08,19.042,12592,527.79,0,527.79,0,0.00036624,7.5363e-10,0,0.0001865,6.8553e-05,1.2528e+08,217.69,0,6.2225e+07,18.835,527.79,1
1820,2.24,12139,1,12139,1,5.2362e-05,-3.3736e-10,0,0.00032082,-9.5263e-06,-2.7272,-99.044,0,1.0918e+08,7.7922,12138,13096,1,13096,1,0.00066701,2.1466e-09,0,0.00066701,0.00010554,1.8965e+08,584.42,0,2.287e+08,62.926,13095,12138,1,12138,1,5.2362e-05,-2.3243e-10,0,0.0003187,-9.4614e-06,1.6999e+07,-62.466,0,1.0953e+08,7.3113,12137,11203,1,11203,1,-0.00056228,-2.5171e-09,0,1.5931e-05,-0.00012463,-2.287e+08,-696.52,0,6.5119e+06,-60.194,11202,11683,1,11683,1,-0.00026634,-9.9437e-10,0,0.00015935,-6.9173e-05,-1.0832e+08,-292.1,0,5.6955e+07,-8.2773,11682,12593,1,12593,1,0.00037107,1.8323e-10,0,0.00047805,5.0091e-05,1.0953e+08,58.756,0,1.5956e+08,26.118,12592,527.79,0,527.79,0,0.00036787,9.4919e-10,0,0.00018733,6.8858e-05,1.2583e+08,274.11,0,6.2502e+07,22.996,527.79,1
1820,2.25,12139,1,12139,1,5.2597e-05,-6.4016e-10,0,0.00032226,-9.5691e-06,13.691,-185.63,0,1.0967e+08,-3.1379,12138,13096,1,13096,1,0.00067001,1.6214e-10,0,0.00067001,0.00010601,1.905e+08,55.528,0,2.2972e+08,24.972,13095,12138,1,12138,1,5.2597e-05,-5.4402e-10,0,0.00032013,-9.5039e-06,1.7076e+07,-162.39,0,1.1002e+08,-2.2289,12137,11203,1,11203,1,-0.00056481,-1.9114e-09,0,1.6003e-05,-0.00012519,-2.2972e+08,-527.61,0,6.5411e+06,-29.732,11202,11683,1,11683,1,-0.00026754,-1.0634e-09,0,0.00016007,-6.9484e-05,-1.0881e+08,-313.65,0,5.721e+07,-11.506,11682,12593,1,12593,1,0.00037273,-1.5308e-10,0,0.0004802,5.0316e-05,1.1002e+08,-43.939,0,1.6028e+08,4.241,12592,527.79,0,527.79,0,0.00036952,5.5307e-10,0,0.00018817,6.9167e-05,1.264e+08,158.93,0,6.2783e+07,10.908,527.79,1
1820,2.26,12139,1,12139,1,5.2831e-05,-6.4767e-10,0,0.00032369,-9.6116e-06,5.1728,-188.17,0,1.1016e+08,-3.1893,12138,13096,1,13096,1,0.00067299,5.5483e-10,0,0.00067299,0.00010648,1.9135e+08,161.26,0,2.3075e+08,32.067,13095,12138,1,12138,1,5.2831e-05,-4.774e-10,0,0.00032156,-9.5462e-06,1.7152e+07,-136.91,0,1.1051e+08,-2.4426,12137,11203,1,11203,1,-0.00056732,-2.443e-09,0,1.6074e-05,-0.00012575,-2.3075e+08,-678.21,0,6.5702e+06,-37.928,11202,11683,1,11683,1,-0.00026873,-1.1634e-09,0,0.00016078,-6.9793e-05,-1.0929e+08,-340.16,0,5.7465e+07,-14.083,11682,12593,1,12593,1,0.00037439,-3.9752e-11,0,0.00048234,5.054e-05,1.1051e+08,-11.944,0,1.6099e+08,7.9593,12592,527.79,0,527.79,0,0.00037117,7.237e-10,0,0.00018901,6.9475e-05,1.2696e+08,209.9,0,6.3062e+07,14.756,527.79,1
1820,2.27,12139,1,12139,1,5.3065e-05,-5.9459e-10,0,0.00032512,-9.6542e-06,17.429,-172.94,0,1.1065e+08,0.80167,12138,13096,1,13096,1,0.00067597,1.539e-10,0,0.00067597,0.00010695,1.9219e+08,52.704,0,2.3177e+08,27.597,13095,12138,1,12138,1,5.3065e-05,-4.5515e-10,0,0.00032298,-9.5885e-06,1.7228e+07,-130.6,0,1.11e+08,0.07525,12137,11203,1,11203,1,-0.00056983,-1.8339e-09,0,1.6145e-05,-0.0001263,-2.3177e+08,-505.39,0,6.5993e+06,-32.127,11202,11683,1,11683,1,-0.00026992,-1.0251e-09,0,0.00016149,-7.0102e-05,-1.0977e+08,-302.92,0,5.7719e+07,-8.3787,11682,12593,1,12593,1,0.00037605,-1.0566e-10,0,0.00048447,5.0764e-05,1.11e+08,-31.14,0,1.617e+08,10.524,12592,527.79,0,527.79,0,0.00037281,5.4717e-10,0,0.00018985,6.9783e-05,1.2752e+08,158.12,0,6.3341e+07,11.832,527.79,1
1820,2.28,12139,1,12139,1,5.3297e-05,-1.7166e-10,0,0.00032655,-9.6964e-06,-7.3523,-50.025,0,1.1113e+08,12.401,12138,13096,1,13096,1,0.00067892,2.9326e-09,0,0.00067892,0.00010742,1.9303e+08,801.89,0,2.3278e+08,107.22,13095,12138,1,12138,1,5.3297e-05,-1.0725e-10,0,0.0003244,-9.6303e-06,1.7303e+07,-30.611,0,1.1149e+08,11.914,12137,11203,1,11203,1,-0.00057233,-3.0813e-09,0,1.6216e-05,-0.00012686,-2.3278e+08,-851.21,0,6.6283e+06,-64.582,11202,11683,1,11683,1,-0.0002711,-1.0332e-09,0,0.0001622,-7.0409e-05,-1.1026e+08,-297.97,0,5.7972e+07,-13.061,11682,12593,1,12593,1,0.00037769,5.7341e-10,0,0.00048659,5.0986e-05,1.1149e+08,175.92,0,1.6241e+08,37.761,12592,527.79,0,527.79,0,0.00037444,1.2421e-09,0,0.00019068,7.0088e-05,1.2808e+08,360.29,0,6.3618e+07,33.077,527.79,1
1820,2.29,12139,1,12139,1,5.3532e-05,-1.7225e-10,0,0.00032799,-9.7392e-06,-46.345,-49.948,0,1.1162e+08,6.2183,12138,13096,1,13096,1,0.00068191,9.6578e-10,0,0.00068191,0.00010789,1.9388e+08,270.09,0,2.3381e+08,32.003,13095,12138,1,12138,1,5.3532e-05,-1.0126e-10,0,0.00032583,-9.6728e-06,1.7379e+07,-28.428,0,1.1198e+08,5.8734,12137,11203,1,11203,1,-0.00057485,-1.4856e-09,0,1.6287e-05,-0.00012741,-2.3381e+08,-409.32,0,6.6575e+06,-29.314,11202,11683,1,11683,1,-0.00027229,-4.7566e-10,0,0.00016291,-7.0719e-05,-1.1074e+08,-139.36,0,5.8228e+07,-3.0893,11682,12593,1,12593,1,0.00037936,1.1773e-10,0,0.00048874,5.1211e-05,1.1198e+08,33.769,0,1.6313e+08,16.127,12592,527.79,0,527.79,0,0.00037609,4.8149e-10,0,0.00019152,7.0397e-05,1.2865e+08,139.52,0,6.3899e+07,11.521,527.79,1
1820,2.3,12139,1,12139,1,5.3766e-05,-1.2578e-10,0,0.00032942,-9.7817e-06,-0.96827,-37.054,0,1.1211e+08,6.8265,12138,13096,1,13096,1,0.00068489,1.4263e-09,0,0.00068489,0.00010837,1.9473e+08,387.08,0,2.3483e+08,40.307,13095,12138,1,12138,1,5.3766e-05,-5.8922e-11,0,0.00032725,-9.715e-06,1.7455e+07,-16.268,0,1.1247e+08,6.2939,12137,11203,1,11203,1,-0.00057736,-1.3999e-09,0,1.6358e-05,-0.00012797,-2.3483e+08,-388.06,0,6.6865e+06,-28.111,11202,11683,1,11683,1,-0.00027348,-5.0395e-10,0,0.00016362,-7.1028e-05,-1.1122e+08,-147.28,0,5.8482e+07,-4.0537,11682,12593,1,12593,1,0.00038101,1.8781e-10,0,0.00049087,5.1434e-05,1.1247e+08,55.755,0,1.6384e+08,17.456,12592,527.79,0,527.79,0,0.00037774,5.5588e-10,0,0.00019235,7.0704e-05,1.2921e+08,160.59,0,6.4178e+07,13.852,527.79,1
1820,2.31,12139,1,12139,1,5.4e-05,-3.7723e-10,0,0.00033085,-9.8242e-06,15.671,-109.75,0,1.126e+08,5.4182,12138,13096,1,13096,1,0.00068787,1.2099e-09,0,0.00068787,0.00010884,1.9558e+08,329.09,0,2.3585e+08,43.718,13095,12138,1,12138,1,5.4e-05,-2.0854e-10,0,0.00032867,-9.7573e-06,1.7531e+07,-59.244,0,1.1296e+08,4.4753,12137,11203,1,11203,1,-0.00057987,-2.2476e-09,0,1.643e-05,-0.00012853,-2.3585e+08,-619.28,0,6.7156e+06,-30.876,11202,11683,1,11683,1,-0.00027467,-8.6214e-10,0,0.00016434,-7.1337e-05,-1.1171e+08,-252.47,0,5.8736e+07,-8.2663,11682,12593,1,12593,1,0.00038267,8.9607e-11,0,0.00049301,5.1658e-05,1.1296e+08,27.738,0,1.6455e+08,18.574,12592,527.79,0,527.79,0,0.00037938,7.0953e-10,0,0.00019319,7.1012e-05,1.2977e+08,204.78,0,6.4457e+07,16.093,527.79,1
1820,2.32,12139,1,12139,1,5.4234e-05,-6.7637e-10,0,0.00033228,-9.8668e-06,28.693,-196.6,0,1.1309e+08,0.33793,12138,13096,1,13096,1,0.00069085,5.2389e-10,0,0.00069085,0.00010931,1.9643e+08,145.26,0,2.3687e+08,50.016,13095,12138,1,12138,1,5.4234e-05,-6.0054e-10,0,0.00033009,-9.7996e-06,1.7607e+07,-175.76,0,1.1345e+08,-0.89888,12137,11203,1,11203,1,-0.00058238,-2.3453e-09,0,1.6501e-05,-0.00012908,-2.3687e+08,-647.04,0,6.7446e+06,-32.975,11202,11683,1,11683,1,-0.00027586,-1.14e-09,0,0.00016505,-7.1646e-05,-1.1219e+08,-335.41,0,5.899e+07,-10.772,11682,12593,1,12593,1,0.00038433,-1.1575e-10,0,0.00049514,5.1882e-05,1.1345e+08,-35.473,0,1.6526e+08,7.8917,12592,527.79,0,527.79,0,0.00038102,6.5704e-10,0,0.00019403,7.1319e-05,1.3033e+08,189.48,0,6.4736e+07,15.653,527.79,1
1820,2.33,12139,1,12139,1,5.4468e-05,-4.6075e-11,0,0.00033372,-9.9094e-06,7.6731,-12.987,0,1.1357e+08,-2.871,12138,13096,1,13096,1,0.00069383,9.1982e-11,0,0.00069383,0.00010978,1.9727e+08,31.498,0,2.3789e+08,6.2046,13095,12138,1,12138,1,5.4468e-05,-2.4963e-11,0,0.00033152,-9.8419e-06,1.7683e+07,-7.3843,0,1.1394e+08,-2.1453,12137,11203,1,11203,1,-0.00058489,-3.1136e-10,0,1.6572e-05,-0.00012964,-2.3789e+08,-87.553,0,6.7738e+06,-20.797,11202,11683,1,11683,1,-0.00027705,-9.9475e-11,0,0.00016576,-7.1955e-05,-1.1268e+08,-28.896,0,5.9245e+07,-5.5797,11682,12593,1,12593,1,0.00038599,2.2694e-11,0,0.00049728,5.2105e-05,1.1394e+08,6.7907,0,1.6598e+08,-0.080791,12592,527.79,0,527.79,0,0.00038267,8.8272e-11,0,0.00019487,7.1627e-05,1.3089e+08,25.679,0,6.5015e+07,4.1292,527.79,1
1820,2.34,12139,1,12139,1,5.47e-05,2.8337e-10,0,0.00033514,-9.9516e-06,-1.5252,81.983,0,1.1406e+08,14.379,12138,13096,1,13096,1,0.00069679,4.911e-09,0,0.00069679,0.00011025,1.9812e+08,1361.1,0,2.3891e+08,105.47,13095,12138,1,12138,1,5.47e-05,2.4909e-11,0,0.00033293,-9.8838e-06,1.7758e+07,7.1888,0,1.1442e+08,13.446,12137,11203,1,11203,1,-0.00058739,-3.5397e-09,0,1.6643e-05,-0.00013019,-2.3891e+08,-977.92,0,6.8027e+06,-86.141,11202,11683,1,11683,1,-0.00027823,-8.3452e-10,0,0.00016647,-7.2262e-05,-1.1316e+08,-240.08,0,5.9498e+07,-18.661,11682,12593,1,12593,1,0.00038763,1.3226e-09,0,0.0004994,5.2328e-05,1.1442e+08,385.45,0,1.6669e+08,50.501,12592,527.79,0,527.79,0,0.0003843,1.7255e-09,0,0.0001957,7.1933e-05,1.3145e+08,498.53,0,6.5293e+07,41.605,527.79,1
1820,2.35,12139,1,12139,1,5.4934e-05,-4.5114e-10,0,0.00033658,-9.9942e-06,-15.772,-130.54,0,1.1455e+08,4.2853,12138,13096,1,13096,1,0.00069978,1.2005e-09,0,0.00069978,0.00011072,1.9896e+08,335.38,0,2.3993e+08,42.97,13095,12138,1,12138,1,5.4934e-05,-2.3253e-10,0,0.00033436,-9.9261e-06,1.7834e+07,-64.321,0,1.1491e+08,3.0144,12137,11203,1,11203,1,-0.00058991,-2.8442e-09,0,1.6714e-05,-0.00013075,-2.3993e+08,-785.64,0,6.8318e+06,-32.201,11202,11683,1,11683,1,-0.00027943,-9.6544e-10,0,0.00016718,-7.2571e-05,-1.1364e+08,-284.15,0,5.9753e+07,-10.734,11682,12593,1,12593,1,0.00038929,1.0143e-10,0,0.00050154,5.2552e-05,1.1491e+08,30.304,0,1.674e+08,18.871,12592,527.79,0,527.79,0,0.00038594,8.3485e-10,0,0.00019653,7.2241e-05,1.3202e+08,240.97,0,6.5572e+07,17.995,527.79,1
1820,2.36,12139,1,12139,1,5.5169e-05,3.3148e-11,0,0.00033802,-1.0037e-05,2.9736,9.3334,0,1.1504e+08,-0.32866,12138,13096,1,13096,1,0.00070276,3.4e-10,0,0.00070276,0.00011119,1.9981e+08,93.605,0,2.4095e+08,15.993,13095,12138,1,12138,1,5.5169e-05,1.8743e-11,0,0.00033579,-9.9686e-06,1.7911e+07,5.2273,0,1.154e+08,1.0861,12137,11203,1,11203,1,-0.00059242,-3.9329e-10,0,1.6785e-05,-0.00013131,-2.4095e+08,-109,0,6.861e+06,-24.093,11202,11683,1,11683,1,-0.00028062,-5.3859e-11,0,0.00016789,-7.2881e-05,-1.1413e+08,-15.648,0,6.0008e+07,-5.67,11682,12593,1,12593,1,0.00039096,1.4125e-10,0,0.00050368,5.2776e-05,1.154e+08,41.899,0,1.6812e+08,4.7296,12592,527.79,0,527.79,0,0.00038759,1.4575e-10,0,0.00019738,7.255e-05,1.3258e+08,42.306,0,6.5853e+07,6.8867,527.79,1
1820,2.37,12139,1,12139,1,5.5402e-05,-5.225e-10,0,0.00033944,-1.0079e-05,42.692,-153.52,0,1.1552e+08,3.5578,12138,13096,1,13096,1,0.00070572,1.6807e-09,0,0.00070572,0.00011166,2.0065e+08,460.08,0,2.4197e+08,58.782,13095,12138,1,12138,1,5.5401e-05,-3.321e-10,0,0.0003372,-1.0011e-05,1.7986e+07,-95.377,0,1.1589e+08,3.2452,12137,11203,1,11203,1,-0.00059492,-2.9944e-09,0,1.6856e-05,-0.00013186,-2.4197e+08,-828.73,0,6.8898e+06,-51.841,11202,11683,1,11683,1,-0.0002818,-1.1611e-09,0,0.0001686,-7.3188e-05,-1.1461e+08,-339.72,0,6.0261e+07,-12.659,11682,12593,1,12593,1,0.0003926,4.3562e-11,0,0.0005058,5.2999e-05,1.1589e+08,11.742,0,1.6882e+08,19.723,12592,527.79,0,527.79,0,0.00038922,9.4951e-10,0,0.00019821,7.2855e-05,1.3314e+08,274.09,0,6.613e+07,22.017,527.79,1
1820,2.38,12139,1,12139,1,5.5636e-05,1.9256e-10,0,0.00034088,-1.0122e-05,-54.052,55.849,0,1.1601e+08,13.325,12138,13096,1,13096,1,0.00070871,2.7597e-09,0,0.00070871,0.00011214,2.015e+08,756.18,0,2.43e+08,88.332,13095,12138,1,12138,1,5.5636e-05,5.6804e-11,0,0.00033863,-1.0053e-05,1.8062e+07,15.992,0,1.1638e+08,14.034,12137,11203,1,11203,1,-0.00059744,-1.8501e-09,0,1.6928e-05,-0.00013242,-2.43e+08,-512.27,0,6.9191e+06,-52.357,11202,11683,1,11683,1,-0.00028299,-4.3308e-10,0,0.00016932,-7.3498e-05,-1.1509e+08,-127.78,0,6.0516e+07,-7.1448,11682,12593,1,12593,1,0.00039427,7.8668e-10,0,0.00050795,5.3224e-05,1.1638e+08,224.95,0,1.6954e+08,32.947,12592,527.79,0,527.79,0,0.00039087,9.5161e-10,0,0.00019905,7.3164e-05,1.337e+08,275.95,0,6.641e+07,27.246,527.79,1
1820,2.39,12139,1,12139,1,5.5869e-05,-2.634e-10,0,0.00034231,-1.0164e-05,0.0026902,-77.053,0,1.165e+08,6.3968,12138,13096,1,13096,1,0.00071169,1.9597e-09,0,0.00071169,0.00011261,2.0235e+08,535.74,0,2.4401e+08,57.522,13095,12138,1,12138,1,5.5869e-05,-1.2276e-10,0,0.00034005,-1.0095e-05,1.8138e+07,-36.605,0,1.1687e+08,4.5427,12137,11203,1,11203,1,-0.00059995,-2.5893e-09,0,1.6998e-05,-0.00013298,-2.4401e+08,-716.49,0,6.9481e+06,-39.102,11202,11683,1,11683,1,-0.00028418,-8.545e-10,0,0.00017003,-7.3806e-05,-1.1558e+08,-244.14,0,6.077e+07,-11.661,11682,12593,1,12593,1,0.00039592,2.7942e-10,0,0.00051008,5.3447e-05,1.1687e+08,80.016,0,1.7025e+08,22.843,12592,527.79,0,527.79,0,0.00039251,8.8548e-10,0,0.00019988,7.347e-05,1.3426e+08,256.64,0,6.6689e+07,22.08,527.79,1
1820,2.4,12139,1,12139,1,5.6104e-05,-3.9848e-10,0,0.00034374,-1.0207e-05,3.2843,-115.26,0,1.1699e+08,-2.8301,12138,13096,1,13096,1,0.00071467,4.5877e-10,0,0.00071467,0.00011308,2.032e+08,133.08,0,2.4504e+08,33.015,13095,12138,1,12138,1,5.6104e-05,-2.8459e-10,0,0.00034148,-1.0137e-05,1.8214e+07,-83.275,0,1.1736e+08,-1.3333,12137,11203,1,11203,1,-0.00060246,-1.6658e-09,0,1.707e-05,-0.00013353,-2.4504e+08,-461.19,0,6.9772e+06,-40.983,11202,11683,1,11683,1,-0.00028537,-7.705e-10,0,0.00017074,-7.4116e-05,-1.1606e+08,-223.89,0,6.1024e+07,-12.136,11682,12593,1,12593,1,0.00039758,4.6207e-11,0,0.00051221,5.3671e-05,1.1736e+08,13.78,0,1.7096e+08,6.4297,12592,527.79,0,527.79,0,0.00039416,5.1755e-10,0,0.00020072,7.3779e-05,1.3483e+08,149.73,0,6.6968e+07,15.184,527.79,1
1820,2.41,12139,1,12139,1,5.6337e-05,-1.906e-10,0,0.00034517,-1.0249e-05,26.337,-55.584,0,1.1747e+08,3.5945,12138,13096,1,13096,1,0.00071764,1.4068e-09,0,0.00071764,0.00011355,2.0404e+08,384.86,0,2.4606e+08,36.477,13095,12138,1,12138,1,5.6337e-05,-4.9856e-11,0,0.0003429,-1.018e-05,1.829e+07,-14.565,0,1.1785e+08,2.5498,12137,11203,1,11203,1,-0.00060496,-2.1444e-09,0,1.7141e-05,-0.00013409,-2.4606e+08,-592.99,0,7.0062e+06,-41.203,11202,11683,1,11683,1,-0.00028656,-6.6851e-10,0,0.00017145,-7.4424e-05,-1.1654e+08,-194.3,0,6.1278e+07,-10.545,11682,12593,1,12593,1,0.00039923,2.982e-10,0,0.00051434,5.3894e-05,1.1785e+08,86.836,0,1.7167e+08,18.579,12592,527.79,0,527.79,0,0.0003958,7.3989e-10,0,0.00020155,7.4085e-05,1.3539e+08,214.39,0,6.7246e+07,17.335,527.79,1
1820,2.42,12139,1,12139,1,5.6572e-05,-3.2319e-10,0,0.00034661,-1.0292e-05,24.628,-93.057,0,1.1796e+08,-8.77,12138,13096,1,13096,1,0.00072064,1.9939e-10,0,0.00072064,0.00011402,2.0489e+08,68.284,0,2.4708e+08,14.462,13095,12138,1,12138,1,5.6572e-05,-3.0437e-10,0,0.00034433,-1.0222e-05,1.8366e+07,-86.801,0,1.1834e+08,-9.126,12137,11203,1,11203,1,-0.00060749,-1.0537e-09,0,1.7212e-05,-0.00013465,-2.4708e+08,-288.29,0,7.0354e+06,-34.793,11202,11683,1,11683,1,-0.00028776,-5.5695e-10,0,0.00017216,-7.4735e-05,-1.1703e+08,-163.61,0,6.1534e+07,-15.288,11682,12593,1,12593,1,0.0004009,-8.8164e-11,0,0.00051649,5.4119e-05,1.1834e+08,-24.527,0,1.7239e+08,-1.6297,12592,527.79,0,527.79,0,0.00039745,3.1125e-10,0,0.00020239,7.4395e-05,1.3595e+08,89.094,0,6.7527e+07,9.0598,527.79,1
1820,2.43,12139,1,12139,1,5.6805e-05,-1.5444e-10,0,0.00034804,-1.0334e-05,-32.252,-45.079,0,1.1845e+08,9.9872,12138,13096,1,13096,1,0.0007236,1.5497e-09,0,0.0007236,0.00011449,2.0574e+08,424.28,0,2.481e+08,44.484,13095,12138,1,12138,1,5.6804e-05,-6.7983e-11,0,0.00034574,-1.0264e-05,1.8442e+07,-21.079,0,1.1883e+08,9.4305,12137,11203,1,11203,1,-0.00060999,-1.7908e-09,0,1.7283e-05,-0.0001352,-2.481e+08,-493.67,0,7.0644e+06,-23.557,11202,11683,1,11683,1,-0.00028894,-5.8132e-10,0,0.00017287,-7.5042e-05,-1.1751e+08,-166.35,0,6.1787e+07,-2.5038,11682,12593,1,12593,1,0.00040255,2.2348e-10,0,0.00051861,5.4341e-05,1.1883e+08,66.158,0,1.731e+08,23.337,12592,527.79,0,527.79,0,0.00039908,6.4777e-10,0,0.00020323,7.47e-05,1.3651e+08,187.73,0,6.7805e+07,15.473,527.79,1
1820,2.44,12139,1,12139,1,5.7039e-05,-5.0918e-10,0,0.00034947,-1.0377e-05,7.0947,-147.54,0,1.1894e+08,-4.6437,12138,13096,1,13096,1,0.00072658,1.9462e-10,0,0.00072658,0.00011496,2.0659e+08,66.649,0,2.4912e+08,22.584,13095,12138,1,12138,1,5.7039e-05,-4.7252e-10,0,0.00034717,-1.0306e-05,1.8518e+07,-139.67,0,1.1932e+08,-3.7105,12137,11203,1,11203,1,-0.00061251,-1.4403e-09,0,1.7354e-05,-0.00013576,-2.4912e+08,-395.99,0,7.0935e+06,-32.628,11202,11683,1,11683,1,-0.00029013,-8.5897e-10,0,0.00017358,-7.5351e-05,-1.1799e+08,-255.89,0,6.2042e+07,-10.549,11682,12593,1,12593,1,0.00040421,-1.3651e-10,0,0.00052075,5.4565e-05,1.1932e+08,-40.724,0,1.7381e+08,1.5461,12592,527.79,0,527.79,0,0.00040073,4.3974e-10,0,0.00020406,7.5008e-05,1.3707e+08,126.26,0,6.8085e+07,8.983,527.79,1
1820,2.45,12139,1,12139,1,5.7273e-05,-1.0577e-11,0,0.0003509,-1.042e-05,-0.89066,-3.6131,0,1.1942e+08,2.9482,12138,13096,1,13096,1,0.00072956,1.8395e-09,0,0.00072956,0.00011543,2.0743e+08,494.62,0,2.5014e+08,47.258,13095,12138,1,12138,1,5.7273e-05,-3.0264e-11,0,0.00034859,-1.0349e-05,1.8594e+07,-9.4132,0,1.198e+08,2.1154,12137,11203,1,11203,1,-0.00061501,-1.649e-09,0,1.7425e-05,-0.00013632,-2.5014e+08,-457.39,0,7.1226e+06,-43.345,11202,11683,1,11683,1,-0.00029132,-4.3327e-10,0,0.0001743,-7.566e-05,-1.1848e+08,-125.54,0,6.2296e+07,-10.112,11682,12593,1,12593,1,0.00040586,3.6539e-10,0,0.00052289,5.4789e-05,1.198e+08,109.38,0,1.7453e+08,15.231,12592,527.79,0,527.79,0,0.00040237,6.7252e-10,0,0.0002049,7.5316e-05,1.3763e+08,194.78,0,6.8363e+07,17.245,527.79,1
1820,2.46,12139,1,12139,1,5.7506e-05,-4.2851e-12,0,0.00035233,-1.0462e-05,12.27,-0.83357,0,1.1991e+08,10.387,12138,13096,1,13096,1,0.00073253,1.5656e-09,0,0.00073253,0.0001159,2.0828e+08,443.35,0,2.5116e+08,55.903,13095,12138,1,12138,1,5.7506e-05,-2.598e-12,0,0.00035001,-1.0391e-05,1.8669e+07,-0.87435,0,1.2029e+08,9.1358,12137,11203,1,11203,1,-0.00061752,-1.2687e-09,0,1.7496e-05,-0.00013687,-2.5116e+08,-346.19,0,7.1517e+06,-24.994,11202,11683,1,11683,1,-0.00029251,-3.9584e-10,0,0.00017501,-7.5969e-05,-1.1896e+08,-117.93,0,6.255e+07,-2.1495,11682,12593,1,12593,1,0.00040752,3.233e-10,0,0.00052502,5.5012e-05,1.2029e+08,91.27,0,1.7524e+08,23.043,12592,527.79,0,527.79,0,0.00040401,5.8515e-10,0,0.00020574,7.5623e-05,1.382e+08,168.5,0,6.8642e+07,16.373,527.79,1
1820,2.47,12139,1,12139,1,5.7741e-05,-2.1326e-10,0,0.00035377,-1.0505e-05,-10.603,-61.952,0,1.204e+08,4.1148,12138,13096,1,13096,1,0.00073552,8.8582e-10,0,0.00073552,0.00011638,2.0913e+08,250.97,0,2.5219e+08,43.35,13095,12138,1,12138,1,5.7741e-05,-1.5698e-10,0,0.00035144,-1.0433e-05,1.8745e+07,-45.471,0,1.2078e+08,2.1663,12137,11203,1,11203,1,-0.00062004,-1.287e-09,0,1.7568e-05,-0.00013743,-2.5219e+08,-356.39,0,7.1808e+06,-23.281,11202,11683,1,11683,1,-0.0002937,-5.1957e-10,0,0.00017572,-7.6278e-05,-1.1945e+08,-150.55,0,6.2805e+07,-4.5008,11682,12593,1,12593,1,0.00040918,5.3198e-11,0,0.00052716,5.5236e-05,1.2078e+08,16.139,0,1.7595e+08,10.726,12592,527.79,0,527.79,0,0.00040566,4.3006e-10,0,0.00020657,7.5931e-05,1.3876e+08,124.81,0,6.8922e+07,11.651,527.79,1
1820,2.48,12139,1,12139,1,5.7974e-05,1.1764e-10,0,0.0003552,-1.0547e-05,11.156,34.176,0,1.2088e+08,6.5094,12138,13096,1,13096,1,0.00073849,2.4265e-09,0,0.00073849,0.00011685,2.0997e+08,670.19,0,2.532e+08,64.31,13095,12138,1,12138,1,5.7974e-05,-4.2418e-11,0,0.00035286,-1.0475e-05,1.8821e+07,-11.12,0,1.2127e+08,5.4141,12137,11203,1,11203,1,-0.00062254,-1.6365e-09,0,1.7639e-05,-0.00013798,-2.532e+08,-455.21,0,7.2098e+06,-44.666,11202,11683,1,11683,1,-0.00029488,-3.5886e-10,0,0.00017643,-7.6586e-05,-1.1993e+08,-105.3,0,6.3058e+07,-8.9618,11682,12593,1,12593,1,0.00041083,5.3278e-10,0,0.00052929,5.5459e-05,1.2127e+08,156.44,0,1.7666e+08,22.346,12592,527.79,0,527.79,0,0.0004073,7.7779e-10,0,0.00020741,7.6237e-05,1.3932e+08,226.83,0,6.92e+07,22.066,527.79,1
1820,2.49,12139,1,12139,1,5.8207e-05,3.7587e-10,0,0.00035663,-1.059e-05,-44.133,108.46,0,1.2137e+08,18.927,12138,13096,1,13096,1,0.00074146,4.116e-09,0,0.00074146,0.00011732,2.1082e+08,1112.4,0,2.5422e+08,107.04,13095,12138,1,12138,1,5.8207e-05,3.5864e-11,0,0.00035428,-1.0517e-05,1.8897e+07,9.8949,0,1.2176e+08,16.205,12137,11203,1,11203,1,-0.00062505,-1.9341e-09,0,1.771e-05,-0.00013854,-2.5422e+08,-532.71,0,7.2389e+06,-62.619,11202,11683,1,11683,1,-0.00029607,-4.1573e-10,0,0.00017714,-7.6895e-05,-1.2041e+08,-121.26,0,6.3312e+07,-4.1252,11682,12593,1,12593,1,0.00041249,1.0631e-09,0,0.00053142,5.5683e-05,1.2176e+08,308.72,0,1.7737e+08,42.739,12592,527.79,0,527.79,0,0.00040894,1.1938e-09,0,0.00020824,7.6545e-05,1.3988e+08,343.63,0,6.9479e+07,32.873,527.79,1
1820,2.5,12139,1,12139,1,5.8442e-05,2.1487e-10,0,0.00035807,-1.0632e-05,-15.981,62.076,0,1.2186e+08,7.2017,12138,13096,1,13096,1,0.00074445,1.9388e-09,0,0.00074445,0.00011779,2.1167e+08,528.15,0,2.5525e+08,73.159,13095,12138,1,12138,1,5.8442e-05,7.5713e-11,0,0.00035571,-1.056e-05,1.8973e+07,22.508,0,1.2225e+08,4.8434,12137,11203,1,11203,1,-0.00062757,-1.2737e-09,0,1.7781e-05,-0.0001391,-2.5525e+08,-352.97,0,7.268e+06,-45.49,11202,11683,1,11683,1,-0.00029726,-1.6687e-10,0,0.00017785,-7.7204e-05,-1.209e+08,-50.73,0,6.3567e+07,-8.1313,11682,12593,1,12593,1,0.00041415,6.1186e-10,0,0.00053356,5.5907e-05,1.2225e+08,179.76,0,1.7809e+08,23.11,12592,527.79,0,527.79,0,0.00041058,6.2558e-10,0,0.00020908,7.6853e-05,1.4044e+08,180.93,0,6.9759e+07,22.447,527.79,1
1820,2.51,12139,1,12139,1,5.8676e-05,-5.6727e-10,0,0.0003595,-1.0675e-05,3.1581,-165.01,0,1.2235e+08,2.0289,12138,13096,1,13096,1,0.00074744,1.9426e-10,0,0.00074744,0.00011826,2.1251e+08,59.224,0,2.5627e+08,32.965,13095,12138,1,12138,1,5.8676e-05,-4.8517e-10,0,0.00035713,-1.0602e-05,1.9049e+07,-142.87,0,1.2274e+08,1.4186,12137,11203,1,11203,1,-0.00063008,-1.6148e-09,0,1.7852e-05,-0.00013966,-2.5627e+08,-445.02,0,7.2971e+06,-24.525,11202,11683,1,11683,1,-0.00029846,-9.4256e-10,0,0.00017857,-7.7514e-05,-1.2138e+08,-277.28,0,6.3822e+07,-5.3871,11682,12593,1,12593,1,0.00041581,-1.3421e-10,0,0.0005357,5.6131e-05,1.2274e+08,-38.446,0,1.788e+08,8.4923,12592,527.79,0,527.79,0,0.00041223,4.7929e-10,0,0.00020992,7.7161e-05,1.4101e+08,138.27,0,7.0038e+07,10.098,527.79,1
1820,2.52,12139,1,12139,1,5.8911e-05,4.9986e-10,0,0.00036094,-1.0718e-05,-9.2421,145.41,0,1.2284e+08,-4.6327,12138,13096,1,13096,1,0.00075042,1.868e-09,0,0.00075042,0.00011873,2.1336e+08,514.42,0,2.573e+08,28.66,13095,12138,1,12138,1,5.891e-05,3.5554e-10,0,0.00035856,-1.0645e-05,1.9125e+07,105.2,0,1.2323e+08,-4.1938,12137,11203,1,11203,1,-0.0006326,-7.0173e-10,0,1.7924e-05,-0.00014021,-2.573e+08,-193.58,0,7.3263e+06,-51.863,11202,11683,1,11683,1,-0.00029965,7.0215e-12,0,0.00017928,-7.7824e-05,-1.2187e+08,1.7758,0,6.4077e+07,-13.526,11682,12593,1,12593,1,0.00041747,9.6734e-10,0,0.00053784,5.6355e-05,1.2323e+08,283.86,0,1.7952e+08,6.9785,12592,527.79,0,527.79,0,0.00041388,6.2047e-10,0,0.00021076,7.747e-05,1.4157e+08,179.75,0,7.0319e+07,16.135,527.79,1
1820,2.53,12139,1,12139,1,5.9143e-05,-9.4916e-10,0,0.00036236,-1.076e-05,21.067,-275.62,0,1.2332e+08,-11.683,12138,13096,1,13096,1,0.00075339,2.5909e-10,0,0.00075339,0.0001192,2.1421e+08,88.728,0,2.5831e+08,27.881,13095,12138,1,12138,1,5.9143e-05,-8.1873e-10,0,0.00035997,-1.0687e-05,1.9201e+07,-242.3,0,1.2372e+08,-9.8857,12137,11203,1,11203,1,-0.0006351,-2.7146e-09,0,1.7994e-05,-0.00014077,-2.5831e+08,-750.18,0,7.3551e+06,-52.163,11202,11683,1,11683,1,-0.00030083,-1.5534e-09,0,0.00017999,-7.8131e-05,-1.2235e+08,-458.89,0,6.433e+07,-23.793,11682,12593,1,12593,1,0.00041912,-3.1525e-10,0,0.00053996,5.6578e-05,1.2372e+08,-90.785,0,1.8022e+08,0.58932,12592,527.79,0,527.79,0,0.00041551,7.9466e-10,0,0.00021159,7.7775e-05,1.4213e+08,229.41,0,7.0596e+07,15.416,527.79,1
1820,2.54,12139,1,12139,1,5.9377e-05,-6.1579e-10,0,0.00036379,-1.0802e-05,36.142,-178.33,0,1.2381e+08,3.3324,12138,13096,1,13096,1,0.00075636,4.6767e-10,0,0.00075636,0.00011967,2.1505e+08,136.74,0,2.5933e+08,40.035,13095,12138,1,12138,1,5.9376e-05,-4.916e-10,0,0.0003614,-1.0729e-05,1.9277e+07,-145.95,0,1.2421e+08,3.3245,12137,11203,1,11203,1,-0.00063761,-2.1088e-09,0,1.8065e-05,-0.00014132,-2.5933e+08,-579.17,0,7.3841e+06,-48.79,11202,11683,1,11683,1,-0.00030202,-1.1484e-09,0,0.0001807,-7.8439e-05,-1.2283e+08,-341.09,0,6.4584e+07,-5.8936,11682,12593,1,12593,1,0.00042077,-2.2417e-11,0,0.00054209,5.6801e-05,1.2421e+08,-6.0731,0,1.8094e+08,14.465,12592,527.79,0,527.79,0,0.00041715,6.7269e-10,0,0.00021243,7.8082e-05,1.4269e+08,194.08,0,7.0875e+07,15.129,527.79,1
1820,2.55,12139,1,12139,1,5.9611e-05,-6.5128e-10,0,0.00036523,-1.0845e-05,-17.498,-188.94,0,1.243e+08,-2.6828,12138,13096,1,13096,1,0.00075935,1.2879e-10,0,0.00075935,0.00012015,2.159e+08,44.107,0,2.6036e+08,22.052,13095,12138,1,12138,1,5.9611e-05,-5.8008e-10,0,0.00036282,-1.0771e-05,1.9353e+07,-170.8,0,1.247e+08,-1.8351,12137,11203,1,11203,1,-0.00064012,-1.7568e-09,0,1.8137e-05,-0.00014188,-2.6036e+08,-482.42,0,7.4134e+06,-42.592,11202,11683,1,11683,1,-0.00030321,-1.0487e-09,0,0.00018141,-7.8749e-05,-1.2332e+08,-307.68,0,6.4839e+07,-10.051,11682,12593,1,12593,1,0.00042243,-2.3187e-10,0,0.00054423,5.7025e-05,1.247e+08,-68.384,0,1.8165e+08,4.8531,12592,527.79,0,527.79,0,0.0004188,5.0056e-10,0,0.00021327,7.8391e-05,1.4325e+08,144.05,0,7.1154e+07,10.438,527.79,1
1820,2.56,12139,1,12139,1,5.9845e-05,1.9345e-10,0,0.00036666,-1.0888e-05,23.206,55.443,0,1.2479e+08,12.765,12138,13096,1,13096,1,0.00076232,2.5504e-09,0,0.00076232,0.00012062,2.1675e+08,708.18,0,2.6138e+08,83.992,13095,12138,1,12138,1,5.9845e-05,8.0107e-12,0,0.00036424,-1.0813e-05,1.9429e+07,2.2817,0,1.2518e+08,7.8705,12137,11203,1,11203,1,-0.00064263,-9.5552e-10,0,1.8208e-05,-0.00014244,-2.6138e+08,-265.92,0,7.4424e+06,-32.833,11202,11683,1,11683,1,-0.0003044,-2.1486e-10,0,0.00018212,-7.9058e-05,-1.238e+08,-65.465,0,6.5093e+07,-4.1107,11682,12593,1,12593,1,0.00042409,5.1032e-10,0,0.00054637,5.7249e-05,1.2518e+08,148.36,0,1.8236e+08,27.854,12592,527.79,0,527.79,0,0.00042044,6.536e-10,0,0.0002141,7.8698e-05,1.4381e+08,188.72,0,7.1433e+07,23.493,527.79,1
1820,2.57,12139,1,12139,1,6.008e-05,1.8781e-12,0,0.0003681,-1.093e-05,8.8097,0.5838,0,1.2528e+08,-1.8379,12138,13096,1,13096,1,0.00076532,1.7742e-10,0,0.00076532,0.00012109,2.176e+08,49.09,0,2.624e+08,7.6685,13095,12138,1,12138,1,6.008e-05,1.208e-11,0,0.00036568,-1.0856e-05,1.9505e+07,3.2679,0,1.2568e+08,-0.94189,12137,11203,1,11203,1,-0.00064516,-2.2537e-10,0,1.8279e-05,-0.000143,-2.624e+08,-61.471,0,7.4717e+06,-40.899,11202,11683,1,11683,1,-0.0003056,-5.0321e-11,0,0.00018284,-7.9369e-05,-1.2429e+08,-15.135,0,6.5349e+07,-3.8737,11682,12593,1,12593,1,0.00042576,5.8383e-11,0,0.00054852,5.7474e-05,1.2568e+08,16.862,0,1.8308e+08,2.1093,12592,527.79,0,527.79,0,0.00042209,8.0607e-11,0,0.00021494,7.9007e-05,1.4438e+08,23.204,0,7.1714e+07,6.233,527.79,1
1820,2.58,12139,1,12139,1,6.0312e-05,-2.1713e-10,0,0.00036952,-1.0973e-05,6.6414,-62.54,0,1.2576e+08,6.5255,12138,13096,1,13096,1,0.00076827,1.0613e-09,0,0.00076827,0.00012156,2.1844e+08,297.36,0,2.6342e+08,44.816,13095,12138,1,12138,1,6.0312e-05,-7.3197e-11,0,0.00036709,-1.0898e-05,1.958e+07,-21.542,0,1.2616e+08,5.9825,12137,11203,1,11203,1,-0.00064765,-1.9287e-09,0,1.835e-05,-0.00014355,-2.6342e+08,-537.14,0,7.5006e+06,-25.229,11202,11683,1,11683,1,-0.00030678,-5.8022e-10,0,0.00018354,-7.9675e-05,-1.2477e+08,-165.1,0,6.5602e+07,-6.5883,11682,12593,1,12593,1,0.0004274,1.5477e-10,0,0.00055063,5.7696e-05,1.2616e+08,46.929,0,1.8379e+08,19.72,12592,527.79,0,527.79,0,0.00042372,5.9455e-10,0,0.00021577,7.9312e-05,1.4494e+08,172.1,0,7.1991e+07,14.973,527.79,1
1820,2.59,12139,1,12139,1,6.0544e-05,-6.5274e-10,0,0.00037095,-1.1015e-05,-53.714,-189.14,0,1.2624e+08,7.2722,12138,13096,1,13096,1,0.00077123,3.1253e-09,0,0.00077123,0.00012203,2.1928e+08,864.44,0,2.6443e+08,98.429,13095,12138,1,12138,1,6.0544e-05,-3.8073e-10,0,0.0003685,-1.094e-05,1.9655e+07,-114.95,0,1.2665e+08,7.3624,12137,11203,1,11203,1,-0.00065015,-4.708e-09,0,1.8421e-05,-0.0001441,-2.6443e+08,-1302.7,0,7.5295e+06,-77.205,11202,11683,1,11683,1,-0.00030796,-1.7452e-09,0,0.00018425,-7.9982e-05,-1.2525e+08,-509.61,0,6.5854e+07,-23.454,11682,12593,1,12593,1,0.00042905,3.3439e-10,0,0.00055275,5.7918e-05,1.2665e+08,94.65,0,1.8449e+08,41.868,12592,527.79,0,527.79,0,0.00042535,1.6025e-09,0,0.0002166,7.9618e-05,1.455e+08,464.35,0,7.2268e+07,37.521,527.79,1
1820,2.6,12139,1,12139,1,6.0779e-05,-5.191e-10,0,0.00037239,-1.1058e-05,-3.522,-150.12,0,1.2673e+08,11.275,12138,13096,1,13096,1,0.00077422,6.5925e-10,0,0.00077422,0.0001225,2.2013e+08,186.36,0,2.6546e+08,45.925,13095,12138,1,12138,1,6.0779e-05,-3.3887e-10,0,0.00036993,-1.0982e-05,1.9732e+07,-101.78,0,1.2714e+08,10.001,12137,11203,1,11203,1,-0.00065266,-2.2673e-09,0,1.8492e-05,-0.00014466,-2.6546e+08,-617.05,0,7.5586e+06,-22.198,11202,11683,1,11683,1,-0.00030915,-9.6237e-10,0,0.00018497,-8.0292e-05,-1.2573e+08,-283.61,0,6.611e+07,-1.8558,11682,12593,1,12593,1,0.00043071,-3.1491e-11,0,0.0005549,5.8143e-05,1.2714e+08,-9.0657,0,1.8521e+08,23.752,12592,527.79,0,527.79,0,0.000427,6.4032e-10,0,0.00021744,7.9926e-05,1.4606e+08,182.66,0,7.2549e+07,15.836,527.79,1
1820,2.61,12139,1,12139,1,6.1014e-05,-3.4106e-10,0,0.00037382,-1.11e-05,20.949,-98.418,0,1.2722e+08,-7.945,12138,13096,1,13096,1,0.00077721,1.6877e-10,0,0.00077721,0.00012297,2.2098e+08,57.798,0,2.6648e+08,13.005,13095,12138,1,12138,1,6.1014e-05,-3.7167e-10,0,0.00037136,-1.1025e-05,1.9808e+07,-112.13,0,1.2763e+08,-7.3928,12137,11203,1,11203,1,-0.00065519,-8.8383e-10,0,1.8563e-05,-0.00014522,-2.6648e+08,-244.04,0,7.5878e+06,-30.76,11202,11683,1,11683,1,-0.00031035,-5.4434e-10,0,0.00018568,-8.0602e-05,-1.2622e+08,-151.93,0,6.6365e+07,-14.204,11682,12593,1,12593,1,0.00043237,-1.2696e-10,0,0.00055704,5.8367e-05,1.2763e+08,-37.315,0,1.8593e+08,-1.3252,12592,527.79,0,527.79,0,0.00042865,2.704e-10,0,0.00021828,8.0235e-05,1.4662e+08,77.549,0,7.2829e+07,8.5249,527.79,1
1820,2.62,12139,1,12139,1,6.1247e-05,-1.1012e-10,0,0.00037526,-1.1143e-05,5.4205,-32.304,0,1.2771e+08,5.833,12138,13096,1,13096,1,0.00078019,1.2331e-09,0,0.00078019,0.00012344,2.2183e+08,339.72,0,2.675e+08,52.54,13095,12138,1,12138,1,6.1247e-05,-3.7747e-11,0,0.00037278,-1.1067e-05,1.9884e+07,-11.349,0,1.2812e+08,4.7039,12137,11203,1,11203,1,-0.00065769,-1.3823e-09,0,1.8635e-05,-0.00014578,-2.675e+08,-383.53,0,7.6169e+06,-38.114,11202,11683,1,11683,1,-0.00031154,-4.3749e-10,0,0.00018639,-8.0911e-05,-1.267e+08,-127.3,0,6.6619e+07,-6.0364,11682,12593,1,12593,1,0.00043403,1.9111e-10,0,0.00055917,5.8591e-05,1.2812e+08,56.568,0,1.8664e+08,15.86,12592,527.79,0,527.79,0,0.0004303,5.2069e-10,0,0.00021912,8.0543e-05,1.4719e+08,150.49,0,7.3108e+07,15.813,527.79,1
1820,2.63,12139,1,12139,1,6.1481e-05,2.7948e-10,0,0.00037668,-1.1185e-05,6.4248,80.226,0,1.282e+08,7.0852,12138,13096,1,13096,1,0.00078316,2.3652e-09,0,0.00078316,0.00012391,2.2267e+08,662.35,0,2.6852e+08,57.71,13095,12138,1,12138,1,6.148e-05,9.6351e-11,0,0.0003742,-1.1109e-05,1.996e+07,27.397,0,1.2861e+08,6.0446,12137,11203,1,11203,1,-0.0006602,-1.1518e-09,0,1.8706e-05,-0.00014633,-2.6852e+08,-319.78,0,7.6459e+06,-51.263,11202,11683,1,11683,1,-0.00031272,-1.5681e-10,0,0.0001871,-8.1219e-05,-1.2718e+08,-46.894,0,6.6873e+07,-5.51,11682,12593,1,12593,1,0.00043568,6.6043e-10,0,0.0005613,5.8814e-05,1.2861e+08,188.25,0,1.8735e+08,22.422,12592,527.79,0,527.79,0,0.00043193,6.9647e-10,0,0.00021995,8.0849e-05,1.4775e+08,201.02,0,7.3386e+07,19.725,527.79,1
1820,2.64,12139,1,12139,1,6.1715e-05,3.9378e-10,0,0.00037812,-1.1228e-05,-11.867,113.94,0,1.2869e+08,2.2233,12138,13096,1,13096,1,0.00078615,1.0927e-09,0,0.00078615,0.00012439,2.2352e+08,293.7,0,2.6954e+08,29.512,13095,12138,1,12138,1,6.1715e-05,3.7545e-10,0,0.00037563,-1.1151e-05,2.0036e+07,109.39,0,1.291e+08,2.5232,12137,11203,1,11203,1,-0.00066272,-1.6492e-10,0,1.8777e-05,-0.00014689,-2.6954e+08,-56.479,0,7.6751e+06,-27.999,11202,11683,1,11683,1,-0.00031391,9.4619e-11,0,0.00018781,-8.1528e-05,-1.2767e+08,27.603,0,6.7128e+07,-4.8663,11682,12593,1,12593,1,0.00043734,6.6615e-10,0,0.00056344,5.9038e-05,1.291e+08,199.02,0,1.8806e+08,11.163,12592,527.79,0,527.79,0,0.00043358,3.3774e-10,0,0.00022079,8.1157e-05,1.4831e+08,96.63,0,7.3666e+07,11.815,527.79,1
1820,2.65,12139,1,12139,1,6.1948e-05,-4.882e-10,0,0.00037955,-1.127e-05,-1.2779,-141.98,0,1.2917e+08,0.037028,12138,13096,1,13096,1,0.00078911,5.2748e-10,0,0.00078911,0.00012486,2.2436e+08,144.97,0,2.7056e+08,25.289,13095,12138,1,12138,1,6.1948e-05,-2.8367e-10,0,0.00037705,-1.1193e-05,2.0111e+07,-82.797,0,1.2958e+08,0.090512,12137,11203,1,11203,1,-0.00066522,-2.2203e-09,0,1.8848e-05,-0.00014744,-2.7056e+08,-617.38,0,7.704e+06,-31.924,11202,11683,1,11683,1,-0.0003151,-9.1817e-10,0,0.00018852,-8.1836e-05,-1.2815e+08,-265.49,0,6.7381e+07,-10.315,11682,12593,1,12593,1,0.000439,1.4849e-11,0,0.00056557,5.9261e-05,1.2958e+08,4.5604,0,1.8877e+08,10.625,12592,527.79,0,527.79,0,0.00043522,6.2745e-10,0,0.00022163,8.1464e-05,1.4887e+08,181.96,0,7.3944e+07,12.317,527.79,1
1820,2.66,12139,1,12139,1,6.2182e-05,-3.6247e-11,0,0.00038098,-1.1313e-05,9.3342,-10.406,0,1.2966e+08,5.4069,12138,13096,1,13096,1,0.0007921,9.4642e-10,0,0.0007921,0.00012533,2.2521e+08,263.86,0,2.7159e+08,35.066,13095,12138,1,12138,1,6.2182e-05,1.6381e-11,0,0.00037847,-1.1236e-05,2.0188e+07,4.7636,0,1.3008e+08,4.0861,12137,11203,1,11203,1,-0.00066773,-1.4729e-09,0,1.8919e-05,-0.000148,-2.7159e+08,-406.32,0,7.7332e+06,-27.332,11202,11683,1,11683,1,-0.00031629,-3.6398e-10,0,0.00018924,-8.2146e-05,-1.2863e+08,-105.12,0,6.7636e+07,-5.9664,11682,12593,1,12593,1,0.00044066,3.4218e-10,0,0.00056771,5.9486e-05,1.3008e+08,99.537,0,1.8949e+08,17.316,12592,527.79,0,527.79,0,0.00043687,5.3698e-10,0,0.00022247,8.1772e-05,1.4943e+08,155.33,0,7.4224e+07,14.479,527.79,1
1820,2.67,12139,1,12139,1,6.2416e-05,3.2418e-10,0,0.00038241,-1.1355e-05,17.074,93.717,0,1.3015e+08,11.265,12138,13096,1,13096,1,0.00079507,1.8722e-09,0,0.00079507,0.0001258,2.2606e+08,516.3,0,2.7261e+08,68.435,13095,12138,1,12138,1,6.2416e-05,1.7607e-10,0,0.0003799,-1.1278e-05,2.0263e+07,50.273,0,1.3056e+08,7.0205,12137,11203,1,11203,1,-0.00067024,-3.091e-10,0,1.899e-05,-0.00014856,-2.7261e+08,-88.16,0,7.7622e+06,-25.959,11202,11683,1,11683,1,-0.00031748,-1.5854e-11,0,0.00018995,-8.2454e-05,-1.2912e+08,-4.3866,0,6.789e+07,-0.78831,11682,12593,1,12593,1,0.00044231,5.4662e-10,0,0.00056984,5.9709e-05,1.3056e+08,157.5,0,1.902e+08,19.145,12592,527.79,0,527.79,0,0.0004385,4.4174e-10,0,0.0002233,8.2079e-05,1.4999e+08,126.67,0,7.4503e+07,17.738,527.79,1
1820,2.68,12139,1,12139,1,6.2649e-05,2.672e-10,0,0.00038384,-1.1398e-05,10.795,77.425,0,1.3063e+08,6.0379,12138,13096,1,13096,1,0.00079805,1.9966e-09,0,0.00079805,0.00012627,2.269e+08,544.76,0,2.7362e+08,63.815,13095,12138,1,12138,1,6.2649e-05,1.3083e-10,0,0.00038132,-1.132e-05,2.0339e+07,35.572,0,1.3105e+08,4.5847,12137,11203,1,11203,1,-0.00067275,-1.1363e-09,0,1.9061e-05,-0.00014911,-2.7362e+08,-315.25,0,7.7912e+06,-40.024,11202,11683,1,11683,1,-0.00031867,-1.1914e-10,0,0.00019066,-8.2763e-05,-1.296e+08,-37.126,0,6.8144e+07,-8.368,11682,12593,1,12593,1,0.00044396,6.6212e-10,0,0.00057197,5.9932e-05,1.3105e+08,193.48,0,1.9091e+08,19.813,12592,527.79,0,527.79,0,0.00044014,6.1817e-10,0,0.00022414,8.2386e-05,1.5055e+08,178.95,0,7.4781e+07,19.712,527.79,1
1820,2.69,12139,1,12139,1,6.2883e-05,9.3899e-11,0,0.00038528,-1.144e-05,-7.9132,27.206,0,1.3112e+08,7.088,12138,13096,1,13096,1,0.00080103,1.778e-09,0,0.00080103,0.00012674,2.2775e+08,498.13,0,2.7465e+08,70.243,13095,12138,1,12138,1,6.2883e-05,3.2343e-11,0,0.00038274,-1.1362e-05,2.0415e+07,10.186,0,1.3154e+08,6.4534,12137,11203,1,11203,1,-0.00067526,-1.4793e-09,0,1.9132e-05,-0.00014967,-2.7465e+08,-410.81,0,7.8204e+06,-33.58,11202,11683,1,11683,1,-0.00031986,-2.3832e-10,0,0.00019137,-8.3072e-05,-1.3009e+08,-69.69,0,6.8399e+07,-6.4027,11682,12593,1,12593,1,0.00044562,4.447e-10,0,0.00057411,6.0156e-05,1.3154e+08,128.43,0,1.9162e+08,18.146,12592,527.79,0,527.79,0,0.00044179,6.0483e-10,0,0.00022497,8.2694e-05,1.5112e+08,174.68,0,7.5061e+07,18,527.79,1
1820,2.7,12139,1,12139,1,6.3116e-05,-4.4314e-11,0,0.0003867,-1.1483e-05,18.644,-13.134,0,1.3161e+08,11.376,12138,13096,1,13096,1,0.00080399,3.1481e-09,0,0.00080399,0.00012721,2.286e+08,860.51,0,2.7566e+08,108.31,13095,12138,1,12138,1,6.3116e-05,-9.0132e-11,0,0.00038416,-1.1404e-05,2.0491e+07,-24.698,0,1.3203e+08,12.551,12137,11203,1,11203,1,-0.00067776,-2.7731e-09,0,1.9203e-05,-0.00015022,-2.7566e+08,-766.95,0,7.8493e+06,-77.761,11202,11683,1,11683,1,-0.00032104,-8.8323e-10,0,0.00019208,-8.338e-05,-1.3057e+08,-254.06,0,6.8652e+07,-13.609,11682,12593,1,12593,1,0.00044727,6.6394e-10,0,0.00057624,6.0379e-05,1.3203e+08,204.71,0,1.9233e+08,36.916,12592,527.79,0,527.79,0,0.00044342,1.2314e-09,0,0.00022581,8.3e-05,1.5168e+08,357.25,0,7.5338e+07,34.91,527.79,1
1820,2.71,12139,1,12139,1,6.335e-05,-1.4368e-10,0,0.00038814,-1.1525e-05,7.5054,-41.807,0,1.321e+08,11.263,12138,13096,1,13096,1,0.00080697,2.7314e-09,0,0.00080697,0.00012768,2.2944e+08,749.15,0,2.7669e+08,95.212,13095,12138,1,12138,1,6.335e-05,-9.1599e-11,0,0.00038558,-1.1447e-05,2.0567e+07,-26.313,0,1.3252e+08,9.7855,12137,11203,1,11203,1,-0.00068027,-2.6911e-09,0,1.9274e-05,-0.00015078,-2.7669e+08,-744.1,0,7.8784e+06,-58.258,11202,11683,1,11683,1,-0.00032223,-9.1168e-10,0,0.00019279,-8.3689e-05,-1.3105e+08,-263.22,0,6.8906e+07,-11.551,11682,12593,1,12593,1,0.00044893,5.0404e-10,0,0.00057837,6.0603e-05,1.3252e+08,146.66,0,1.9304e+08,33.582,12592,527.79,0,527.79,0,0.00044507,1.1126e-09,0,0.00022664,8.3308e-05,1.5224e+08,322.92,0,7.5618e+07,29.8,527.79,1
1820,2.72,12139,1,12139,1,6.3585e-05,7.4198e-10,0,0.00038958,-1.1568e-05,7.3094,214.6,0,1.3259e+08,1.5671,12138,13096,1,13096,1,0.00080997,1.8997e-09,0,0.00080997,0.00012816,2.303e+08,519.28,0,2.7771e+08,53.812,13095,12138,1,12138,1,6.3585e-05,7.9698e-10,0,0.00038701,-1.1489e-05,2.0643e+07,238.14,0,1.3301e+08,1.6579,12137,11203,1,11203,1,-0.0006828,-2.206e-10,0,1.9346e-05,-0.00015134,-2.7771e+08,-75.55,0,7.9076e+06,-43.054,11202,11683,1,11683,1,-0.00032343,3.7279e-10,0,0.00019351,-8.3999e-05,-1.3154e+08,109.98,0,6.9162e+07,-6.3745,11682,12593,1,12593,1,0.0004506,1.1009e-09,0,0.00058052,6.0828e-05,1.3301e+08,318.52,0,1.9376e+08,9.5591,12592,527.79,0,527.79,0,0.00044672,4.8164e-10,0,0.00022749,8.3617e-05,1.528e+08,136.38,0,7.5899e+07,14.802,527.79,1
1820,2.73,12139,1,12139,1,6.3818e-05,-4.4726e-10,0,0.00039101,-1.161e-05,-10.773,-130.06,0,1.3307e+08,1.5775,12138,13096,1,13096,1,0.00081294,1.0817e-09,0,0.00081294,0.00012863,2.3114e+08,295.69,0,2.7873e+08,44.076,13095,12138,1,12138,1,6.3818e-05,-2.5981e-10,0,0.00038843,-1.1531e-05,2.0719e+07,-73.886,0,1.335e+08,0.95585,12137,11203,1,11203,1,-0.0006853,-2.3595e-09,0,1.9417e-05,-0.0001519,-2.7873e+08,-650.83,0,7.9366e+06,-44.442,11202,11683,1,11683,1,-0.00032461,-9.5302e-10,0,0.00019422,-8.4307e-05,-1.3202e+08,-274.83,0,6.9416e+07,-11.883,11682,12593,1,12593,1,0.00045225,7.8365e-11,0,0.00058265,6.105e-05,1.335e+08,23.384,0,1.9447e+08,14.285,12592,527.79,0,527.79,0,0.00044836,7.238e-10,0,0.00022832,8.3923e-05,1.5336e+08,208.54,0,7.6176e+07,16.915,527.79,1
1820,2.74,12139,1,12139,1,6.4052e-05,-3.6879e-10,0,0.00039244,-1.1653e-05,11.254,-107.5,0,1.3356e+08,-0.94504,12138,13096,1,13096,1,0.00081592,1.6712e-09,0,0.00081592,0.0001291,2.3199e+08,451.28,0,2.7975e+08,47.914,13095,12138,1,12138,1,6.4052e-05,-1.6923e-10,0,0.00038985,-1.1574e-05,2.0794e+07,-49.63,0,1.3399e+08,-0.53449,12137,11203,1,11203,1,-0.00068781,-2.5489e-09,0,1.9488e-05,-0.00015245,-2.7975e+08,-706.79,0,7.9657e+06,-47.95,11202,11683,1,11683,1,-0.0003258,-1.0183e-09,0,0.00019493,-8.4616e-05,-1.325e+08,-294.51,0,6.967e+07,-17.299,11682,12593,1,12593,1,0.00045391,2.2873e-10,0,0.00058478,6.1274e-05,1.3399e+08,66.727,0,1.9518e+08,15.619,12592,527.79,0,527.79,0,0.00045,9.3002e-10,0,0.00022915,8.4231e-05,1.5393e+08,269.92,0,7.6455e+07,21.025,527.79,1
1820,2.75,12139,1,12139,1,6.4286e-05,-7.9944e-11,0,0.00039387,-1.1696e-05,11.594,-23.195,0,1.3405e+08,5.7247,12138,13096,1,13096,1,0.0008189,1.8598e-09,0,0.0008189,0.00012957,2.3283e+08,509.28,0,2.8077e+08,60.342,13095,12138,1,12138,1,6.4286e-05,-7.3812e-11,0,0.00039128,-1.1616e-05,2.0871e+07,-23.292,0,1.3448e+08,3.9888,12137,11203,1,11203,1,-0.00069033,-1.5771e-09,0,1.9559e-05,-0.00015301,-2.8077e+08,-435.9,0,7.9948e+06,-48.4,11202,11683,1,11683,1,-0.00032699,-5.0877e-10,0,0.00019564,-8.4925e-05,-1.3299e+08,-150.27,0,6.9925e+07,-8.7381,11682,12593,1,12593,1,0.00045557,2.429e-10,0,0.00058692,6.1498e-05,1.3448e+08,69.837,0,1.959e+08,19.419,12592,527.79,0,527.79,0,0.00045165,6.7171e-10,0,0.00022999,8.4539e-05,1.5449e+08,194.26,0,7.6735e+07,19.064,527.79,1
1820,2.76,12139,1,12139,1,6.4519e-05,-1.1057e-10,0,0.0003953,-1.1738e-05,29.949,-31.996,0,1.3453e+08,-0.70563,12138,13096,1,13096,1,0.00082187,1.1415e-09,0,0.00082187,0.00013004,2.3368e+08,316.34,0,2.8179e+08,23.749,13095,12138,1,12138,1,6.4519e-05,-5.845e-11,0,0.0003927,-1.1658e-05,2.0946e+07,-16.995,0,1.3496e+08,-0.87795,12137,11203,1,11203,1,-0.00069283,-1.3346e-09,0,1.963e-05,-0.00015356,-2.8179e+08,-370.91,0,8.0238e+06,-32.276,11202,11683,1,11683,1,-0.00032818,-4.2878e-10,0,0.00019635,-8.5233e-05,-1.3347e+08,-124.2,0,7.0178e+07,-10.22,11682,12593,1,12593,1,0.00045722,1.7588e-10,0,0.00058905,6.1721e-05,1.3496e+08,52.099,0,1.9661e+08,9.1523,12592,527.79,0,527.79,0,0.00045328,4.796e-10,0,0.00023083,8.4845e-05,1.5505e+08,139.11,0,7.7013e+07,11.492,527.79,1
1820,2.77,12139,1,12139,1,6.4753e-05,-5.7764e-10,0,0.00039674,-1.1781e-05,5.9014,-167.43,0,1.3502e+08,2.9421,12138,13096,1,13096,1,0.00082485,1.0809e-09,0,0.00082485,0.00013051,2.3453e+08,310,0,2.8282e+08,54.313,13095,12138,1,12138,1,6.4753e-05,-4.3566e-10,0,0.00039412,-1.17e-05,2.1022e+07,-122.87,0,1.3545e+08,2.785,12137,11203,1,11203,1,-0.00069534,-2.3642e-09,0,1.9701e-05,-0.00015412,-2.8282e+08,-651.87,0,8.0529e+06,-48.788,11202,11683,1,11683,1,-0.00032937,-1.1063e-09,0,0.00019706,-8.5542e-05,-1.3395e+08,-323.03,0,7.0433e+07,-8.9027,11682,12593,1,12593,1,0.00045888,-1.2342e-11,0,0.00059118,6.1945e-05,1.3545e+08,-3.5237,0,1.9732e+08,15.412,12592,527.79,0,527.79,0,0.00045493,7.4236e-10,0,0.00023166,8.5153e-05,1.5561e+08,214.91,0,7.7293e+07,18.141,527.79,1
1820,2.78,12139,1,12139,1,6.4987e-05,-2.359e-10,0,0.00039817,-1.1823e-05,-10.753,-68.235,0,1.3551e+08,4.2109,12138,13096,1,13096,1,0.00082782,1.9581e-09,0,0.00082782,0.00013098,2.3537e+08,534.02,0,2.8383e+08,59.259,13095,12138,1,12138,1,6.4987e-05,-6.4277e-11,0,0.00039554,-1.1742e-05,2.1098e+07,-18.651,0,1.3594e+08,2.8002,12137,11203,1,11203,1,-0.00069785,-2.9453e-09,0,1.9772e-05,-0.00015468,-2.8383e+08,-815.44,0,8.082e+06,-55.829,11202,11683,1,11683,1,-0.00033056,-8.0229e-10,0,0.00019777,-8.5851e-05,-1.3444e+08,-234.47,0,7.0687e+07,-15.045,11682,12593,1,12593,1,0.00046053,3.5128e-10,0,0.00059331,6.2168e-05,1.3594e+08,104.41,0,1.9803e+08,22.04,12592,527.79,0,527.79,0,0.00045657,9.5701e-10,0,0.0002325,8.546e-05,1.5617e+08,276.63,0,7.7571e+07,23.786,527.79,1
1820,2.79,12139,1,12139,1,6.5221e-05,2.5525e-10,0,0.0003996,-1.1866e-05,-4.562,73.674,0,1.36e+08,7.2807,12138,13096,1,13096,1,0.0008308,2.2479e-09,0,0.0008308,0.00013145,2.3622e+08,613.03,0,2.8486e+08,83.353,13095,12138,1,12138,1,6.5221e-05,5.0987e-11,0,0.00039697,-1.1785e-05,2.1174e+07,14.628,0,1.3643e+08,6.8296,12137,11203,1,11203,1,-0.00070036,-1.1701e-09,0,1.9844e-05,-0.00015523,-2.8486e+08,-325.28,0,8.111e+06,-66.353,11202,11683,1,11683,1,-0.00033175,-2.2669e-10,0,0.00019848,-8.616e-05,-1.3492e+08,-67.147,0,7.0941e+07,-8.3359,11682,12593,1,12593,1,0.00046219,6.9853e-10,0,0.00059545,6.2392e-05,1.3643e+08,204.4,0,1.9875e+08,23.826,12592,527.79,0,527.79,0,0.00045821,7.2534e-10,0,0.00023334,8.5768e-05,1.5673e+08,209.71,0,7.7851e+07,26.19,527.79,1
1820,2.8,12139,1,12139,1,6.5454e-05,3.5233e-10,0,0.00040103,-1.1908e-05,20.74,102.02,0,1.3648e+08,8.6769,12138,13096,1,13096,1,0.00083377,3.1479e-09,0,0.00083377,0.00013192,2.3706e+08,860.42,0,2.8587e+08,88.01,13095,12138,1,12138,1,6.5454e-05,1.1778e-10,0,0.00039839,-1.1827e-05,2.125e+07,36.139,0,1.3692e+08,8.6753,12137,11203,1,11203,1,-0.00070287,-1.8121e-09,0,1.9914e-05,-0.00015579,-2.8587e+08,-501.96,0,8.14e+06,-66.831,11202,11683,1,11683,1,-0.00033293,-2.9024e-10,0,0.00019919,-8.6468e-05,-1.354e+08,-83.747,0,7.1195e+07,-12.823,11682,12593,1,12593,1,0.00046384,9.8481e-10,0,0.00059758,6.2615e-05,1.3692e+08,285.86,0,1.9946e+08,30.609,12592,527.79,0,527.79,0,0.00045985,1.0106e-09,0,0.00023417,8.6074e-05,1.5729e+08,292.66,0,7.8129e+07,29.361,527.79,1
1820,2.81,12139,1,12139,1,6.5689e-05,-3.3314e-10,0,0.00040247,-1.1951e-05,4.2465,-96.559,0,1.3697e+08,1.8356,12138,13096,1,13096,1,0.00083676,1.2286e-09,0,0.00083676,0.0001324,2.3791e+08,340.13,0,2.869e+08,40.64,13095,12138,1,12138,1,6.5688e-05,-2.1823e-10,0,0.00039981,-1.1869e-05,2.1326e+07,-65.26,0,1.3741e+08,1.4819,12137,11203,1,11203,1,-0.00070538,-1.8751e-09,0,1.9986e-05,-0.00015635,-2.869e+08,-518.06,0,8.1692e+06,-33.303,11202,11683,1,11683,1,-0.00033413,-8.1757e-10,0,0.00019991,-8.6778e-05,-1.3589e+08,-233.45,0,7.145e+07,-9.8572,11682,12593,1,12593,1,0.0004655,8.7843e-11,0,0.00059972,6.284e-05,1.3741e+08,25.779,0,2.0017e+08,13.63,12592,527.79,0,527.79,0,0.0004615,6.5331e-10,0,0.00023501,8.6383e-05,1.5786e+08,188.89,0,7.8409e+07,14.947,527.79,1
1820,2.82,12139,1,12139,1,6.5922e-05,5.0031e-10,0,0.0004039,-1.1993e-05,6.0387,144.67,0,1.3746e+08,5.2486,12138,13096,1,13096,1,0.00083974,3.4379e-09,0,0.00083974,0.00013287,2.3876e+08,963.67,0,2.8792e+08,55.278,13095,12138,1,12138,1,6.5922e-05,1.5987e-10,0,0.00040124,-1.1912e-05,2.1402e+07,48.866,0,1.379e+08,4.9419,12137,11203,1,11203,1,-0.0007079,-1.103e-09,0,2.0057e-05,-0.0001569,-2.8792e+08,-308.3,0,8.1983e+06,-78.605,11202,11683,1,11683,1,-0.00033532,-2.0606e-10,0,0.00020062,-8.7087e-05,-1.3637e+08,-62.946,0,7.1704e+07,-11.49,11682,12593,1,12593,1,0.00046716,1.0978e-09,0,0.00060186,6.3063e-05,1.379e+08,321.9,0,2.0088e+08,26.847,12592,527.79,0,527.79,0,0.00046314,1.0206e-09,0,0.00023585,8.669e-05,1.5842e+08,295.12,0,7.8688e+07,26.985,527.79,1
1820,2.83,12139,1,12139,1,6.6157e-05,7.1507e-11,0,0.00040534,-1.2036e-05,13.962,20.596,0,1.3795e+08,1.5176,12138,13096,1,13096,1,0.00084273,4.5295e-10,0,0.00084273,0.00013334,2.3961e+08,126.77,0,2.8894e+08,16.78,13095,12138,1,12138,1,6.6157e-05,2.6751e-11,0,0.00040266,-1.1954e-05,2.1478e+07,7.0967,0,1.3839e+08,1.8081,12137,11203,1,11203,1,-0.00071041,-1.1505e-10,0,2.0128e-05,-0.00015746,-2.8894e+08,-39.348,0,8.2274e+06,-31.878,11202,11683,1,11683,1,-0.00033651,-2.2544e-11,0,0.00020133,-8.7397e-05,-1.3686e+08,-6.5855,0,7.1959e+07,-1.3568,11682,12593,1,12593,1,0.00046882,1.5545e-10,0,0.000604,6.3288e-05,1.3839e+08,45.138,0,2.016e+08,6.515,12592,527.79,0,527.79,0,0.00046479,1.2565e-10,0,0.00023669,8.6999e-05,1.5898e+08,36.359,0,7.8968e+07,7.2672,527.79,1
1820,2.84,12139,1,12139,1,6.639e-05,-2.3668e-11,0,0.00040676,-1.2078e-05,0.7498,-6.9719,0,1.3843e+08,6.1604,12138,13096,1,13096,1,0.0008457,1.45e-09,0,0.0008457,0.00013381,2.4045e+08,403.76,0,2.8996e+08,39.245,13095,12138,1,12138,1,6.639e-05,-4.7113e-11,0,0.00040408,-1.1996e-05,2.1554e+07,-13.646,0,1.3888e+08,5.4694,12137,11203,1,11203,1,-0.00071291,-1.1462e-09,0,2.0199e-05,-0.00015802,-2.8996e+08,-318.73,0,8.2563e+06,-43.595,11202,11683,1,11683,1,-0.00033769,-3.4239e-10,0,0.00020204,-8.7705e-05,-1.3734e+08,-98.37,0,7.2213e+07,-4.2091,11682,12593,1,12593,1,0.00047047,2.4538e-10,0,0.00060612,6.3511e-05,1.3888e+08,70.534,0,2.0231e+08,18.981,12592,527.79,0,527.79,0,0.00046643,4.8901e-10,0,0.00023752,8.7305e-05,1.5954e+08,142.04,0,7.9246e+07,14.936,527.79,1
1820,2.85,12139,1,12139,1,6.6625e-05,8.1209e-12,0,0.0004082,-1.2121e-05,3.484,2.1387,0,1.3892e+08,2.8625,12138,13096,1,13096,1,0.00084868,1.124e-09,0,0.00084868,0.00013428,2.4129e+08,310.91,0,2.9098e+08,24.78,13095,12138,1,12138,1,6.6625e-05,-2.6484e-11,0,0.00040551,-1.2039e-05,2.163e+07,-7.691,0,1.3937e+08,2.6559,12137,11203,1,11203,1,-0.00071543,-8.0911e-10,0,2.027e-05,-0.00015857,-2.9098e+08,-225.85,0,8.2853e+06,-32.625,11202,11683,1,11683,1,-0.00033888,-2.5237e-10,0,0.00020275,-8.8014e-05,-1.3782e+08,-72.8,0,7.2467e+07,-4.4137,11682,12593,1,12593,1,0.00047213,2.2602e-10,0,0.00060826,6.3734e-05,1.3937e+08,66.604,0,2.0302e+08,11.857,12592,527.79,0,527.79,0,0.00046807,3.8443e-10,0,0.00023836,8.7613e-05,1.6011e+08,111.46,0,7.9525e+07,10.674,527.79,1
1820,2.86,12139,1,12139,1,6.6859e-05,2.2108e-11,0,0.00040963,-1.2164e-05,6.4226,6.2581,0,1.3941e+08,-1.0837,12138,13096,1,13096,1,0.00085165,1.0918e-09,0,0.00085165,0.00013475,2.4214e+08,302.79,0,2.92e+08,21.62,13095,12138,1,12138,1,6.6859e-05,-1.7796e-11,0,0.00040693,-1.2081e-05,2.1706e+07,-5.1482,0,1.3986e+08,-0.78802,12137,11203,1,11203,1,-0.00071794,-9.1493e-10,0,2.0341e-05,-0.00015913,-2.92e+08,-255.96,0,8.3143e+06,-34.671,11202,11683,1,11683,1,-0.00034007,-2.334e-10,0,0.00020347,-8.8323e-05,-1.3831e+08,-69.02,0,7.2722e+07,-8.6817,11682,12593,1,12593,1,0.00047379,2.72e-10,0,0.0006104,6.3958e-05,1.3986e+08,78.172,0,2.0373e+08,7.9883,12592,527.79,0,527.79,0,0.00046971,4.0494e-10,0,0.00023919,8.792e-05,1.6067e+08,117.88,0,7.9804e+07,11.904,527.79,1
1820,2.87,12139,1,12139,1,6.7093e-05,1.9813e-10,0,0.00041107,-1.2206e-05,3.7883,57.277,0,1.399e+08,2.8928,12138,13096,1,13096,1,0.00085464,8.729e-10,0,0.00085464,0.00013522,2.4298e+08,242.45,0,2.9303e+08,30.309,13095,12138,1,12138,1,6.7093e-05,1.3444e-10,0,0.00040836,-1.2123e-05,2.1782e+07,39.536,0,1.4035e+08,2.5729,12137,11203,1,11203,1,-0.00072045,-1.0383e-10,0,2.0412e-05,-0.00015969,-2.9303e+08,-35.558,0,8.3433e+06,-29.632,11202,11683,1,11683,1,-0.00034126,3.8815e-11,0,0.00020418,-8.8632e-05,-1.3879e+08,10.635,0,7.2976e+07,-1.4066,11682,12593,1,12593,1,0.00047545,3.1906e-10,0,0.00061254,6.4182e-05,1.4035e+08,91.506,0,2.0445e+08,7.3063,12592,527.79,0,527.79,0,0.00047136,2.1338e-10,0,0.00024003,8.8229e-05,1.6123e+08,61.331,0,8.0084e+07,8.8812,527.79,1
1820,2.88,12139,1,12139,1,6.7328e-05,1.3828e-10,0,0.0004125,-1.2249e-05,-8.743,40.01,0,1.4039e+08,1.376,12138,13096,1,13096,1,0.00085762,3.9255e-10,0,0.00085762,0.0001357,2.4383e+08,108.79,0,2.9405e+08,13.929,13095,12138,1,12138,1,6.7328e-05,1.4867e-10,0,0.00040978,-1.2166e-05,2.1858e+07,43.82,0,1.4084e+08,3.0345,12137,11203,1,11203,1,-0.00072297,-1.0803e-10,0,2.0483e-05,-0.00016024,-2.9405e+08,-36.994,0,8.3723e+06,-29.292,11202,11683,1,11683,1,-0.00034245,2.9798e-11,0,0.00020489,-8.8941e-05,-1.3928e+08,8.1866,0,7.3231e+07,-0.97907,11682,12593,1,12593,1,0.00047711,2.4249e-10,0,0.00061467,6.4406e-05,1.4084e+08,71.419,0,2.0516e+08,5.8138,12592,527.79,0,527.79,0,0.000473,1.2927e-10,0,0.00024087,8.8536e-05,1.6179e+08,37.118,0,8.0363e+07,6.8469,527.79,1
1820,2.89,12139,1,12139,1,6.7561e-05,2.0467e-10,0,0.00041393,-1.2291e-05,0.67079,59.287,0,1.4087e+08,2.8654,12138,13096,1,13096,1,0.00086059,1.4672e-09,0,0.00086059,0.00013617,2.4467e+08,404.93,0,2.9507e+08,31.618,13095,12138,1,12138,1,6.7561e-05,9.5231e-11,0,0.0004112,-1.2208e-05,2.1934e+07,26.136,0,1.4132e+08,3.02,12137,11203,1,11203,1,-0.00072547,-6.1309e-10,0,2.0553e-05,-0.0001608,-2.9507e+08,-172.18,0,8.4012e+06,-27.871,11202,11683,1,11683,1,-0.00034364,-7.299e-11,0,0.0002056,-8.925e-05,-1.3976e+08,-21.813,0,7.3485e+07,-5.3689,11682,12593,1,12593,1,0.00047876,4.6814e-10,0,0.0006168,6.4629e-05,1.4132e+08,136.37,0,2.0587e+08,11.27,12592,527.79,0,527.79,0,0.00047464,4.2121e-10,0,0.0002417,8.8843e-05,1.6235e+08,121.82,0,8.0641e+07,11.809,527.79,1
1820,2.9,12139,1,12139,1,6.7796e-05,3.0034e-10,0,0.00041537,-1.2334e-05,0.64558,87.005,0,1.4136e+08,-2.4514,12138,13096,1,13096,1,0.00086359,8.1637e-10,0,0.00086359,0.00013664,2.4552e+08,225.86,0,2.9609e+08,12.76,13095,12138,1,12138,1,6.7796e-05,2.881e-10,0,0.00041263,-1.225e-05,2.201e+07,85.17,0,1.4181e+08,-1.9858,12137,11203,1,11203,1,-0.00072799,-1.135e-10,0,2.0624e-05,-0.00016136,-2.9609e+08,-38.871,0,8.4303e+06,-31.238,11202,11683,1,11683,1,-0.00034483,1.1512e-10,0,0.00020632,-8.956e-05,-1.4024e+08,34.449,0,7.374e+07,-5.624,11682,12593,1,12593,1,0.00048043,4.7298e-10,0,0.00061895,6.4853e-05,1.4181e+08,140,0,2.0659e+08,1.5449,12592,527.79,0,527.79,0,0.00047629,2.3695e-10,0,0.00024254,8.9152e-05,1.6292e+08,68.063,0,8.0922e+07,6.0501,527.79,1
1820,2.91,12139,1,12139,1,6.803e-05,3.3474e-11,0,0.0004168,-1.2377e-05,-0.33379,9.5377,0,1.4185e+08,1.4883,12138,13096,1,13096,1,0.00086656,1.7287e-10,0,0.00086656,0.00013711,2.4636e+08,47.644,0,2.9711e+08,13.294,13095,12138,1,12138,1,6.803e-05,2.7901e-11,0,0.00041405,-1.2292e-05,2.2086e+07,8.3917,0,1.423e+08,1.9502,12137,11203,1,11203,1,-0.0007305,-7.5402e-11,0,2.0695e-05,-0.00016191,-2.9711e+08,-25.724,0,8.4592e+06,-31.317,11202,11683,1,11683,1,-0.00034602,-9.4209e-12,0,0.00020703,-8.9868e-05,-1.4073e+08,-2.5622,0,7.3994e+07,-0.61842,11682,12593,1,12593,1,0.00048208,8.0178e-11,0,0.00062108,6.5077e-05,1.423e+08,23.032,0,2.073e+08,5.4086,12592,527.79,0,527.79,0,0.00047793,5.9478e-11,0,0.00024338,8.9459e-05,1.6348e+08,17.187,0,8.12e+07,6.0755,527.79,1
1820,2.92,12139,1,12139,1,6.8264e-05,9.9531e-11,0,0.00041823,-1.2419e-05,-9.0227,28.884,0,1.4234e+08,-1.317,12138,13096,1,13096,1,0.00086954,4.1523e-10,0,0.00086954,0.00013758,2.4721e+08,109.98,0,2.9814e+08,10.42,13095,12138,1,12138,1,6.8264e-05,9.5591e-11,0,0.00041548,-1.2335e-05,2.2162e+07,27.784,0,1.4279e+08,0.55488,12137,11203,1,11203,1,-0.00073301,-8.3492e-11,0,2.0766e-05,-0.00016247,-2.9814e+08,-28.593,0,8.4882e+06,-49.101,11202,11683,1,11683,1,-0.00034721,5.0267e-11,0,0.00020774,-9.0178e-05,-1.4121e+08,14.675,0,7.4249e+07,-2.1569,11682,12593,1,12593,1,0.00048374,1.4477e-10,0,0.00062321,6.5301e-05,1.4279e+08,42.756,0,2.0801e+08,3.3204,12592,527.79,0,527.79,0,0.00047958,7.5607e-11,0,0.00024422,8.9767e-05,1.6404e+08,21.437,0,8.1479e+07,8.3753,527.79,1
1820,2.93,12139,1,12139,1,6.8498e-05,3.4208e-10,0,0.00041967,-1.2462e-05,-0.8197,99.178,0,1.4282e+08,-2.3258,12138,13096,1,13096,1,0.00087252,8.3877e-10,0,0.00087252,0.00013805,2.4805e+08,226.63,0,2.9916e+08,14.823,13095,12138,1,12138,1,6.8498e-05,3.4662e-10,0,0.0004169,-1.2377e-05,2.2238e+07,103.45,0,1.4328e+08,-1.8179,12137,11203,1,11203,1,-0.00073552,-9.0434e-11,0,2.0837e-05,-0.00016303,-2.9916e+08,-30.97,0,8.5172e+06,-34.122,11202,11683,1,11683,1,-0.0003484,1.6967e-10,0,0.00020845,-9.0487e-05,-1.4169e+08,47.923,0,7.4503e+07,-5.1103,11682,12593,1,12593,1,0.0004854,5.0943e-10,0,0.00062535,6.5524e-05,1.4328e+08,151.94,0,2.0872e+08,1.1261,12592,527.79,0,527.79,0,0.00048122,2.3356e-10,0,0.00024505,9.0074e-05,1.646e+08,66.705,0,8.1758e+07,6.0144,527.79,1
1820,2.94,12139,1,12139,1,6.8732e-05,1.7474e-10,0,0.00042109,-1.2504e-05,7.1351,50.702,0,1.4331e+08,1.4218,12138,13096,1,13096,1,0.00087549,9.3491e-10,0,0.00087549,0.00013852,2.4889e+08,255.07,0,3.0017e+08,22.859,13095,12138,1,12138,1,6.8732e-05,1.0747e-10,0,0.00041832,-1.2419e-05,2.2314e+07,31.1,0,1.4377e+08,1.814,12137,11203,1,11203,1,-0.00073802,-9.3939e-11,0,2.0908e-05,-0.00016358,-3.0017e+08,-29.998,0,8.5461e+06,-28.968,11202,11683,1,11683,1,-0.00034959,1.2397e-11,0,0.00020916,-9.0794e-05,-1.4218e+08,3.5059,0,7.4756e+07,-2.3884,11682,12593,1,12593,1,0.00048705,2.8553e-10,0,0.00062748,6.5747e-05,1.4377e+08,82.876,0,2.0943e+08,7.2555,12592,527.79,0,527.79,0,0.00048286,2.0782e-10,0,0.00024589,9.0381e-05,1.6516e+08,59.98,0,8.2036e+07,8.138,527.79,1
1820,2.95,12139,1,12139,1,6.8966e-05,7.0757e-11,0,0.00042253,-1.2547e-05,2.4602,20.464,0,1.438e+08,2.6125,12138,13096,1,13096,1,0.00087847,5.1434e-10,0,0.00087847,0.00013899,2.4974e+08,145.86,0,3.012e+08,21.475,13095,12138,1,12138,1,6.8966e-05,3.6102e-11,0,0.00041974,-1.2462e-05,2.239e+07,10.177,0,1.4426e+08,3.331,12137,11203,1,11203,1,-0.00074054,-2.4747e-10,0,2.0979e-05,-0.00016414,-3.012e+08,-77.673,0,8.575e+06,-32.163,11202,11683,1,11683,1,-0.00035077,-5.6261e-11,0,0.00020987,-9.1103e-05,-1.4266e+08,-16.089,0,7.5011e+07,-0.92019,11682,12593,1,12593,1,0.00048871,1.7987e-10,0,0.00062961,6.5971e-05,1.4426e+08,53.622,0,2.1015e+08,8.191,12592,527.79,0,527.79,0,0.0004845,1.5971e-10,0,0.00024672,9.0688e-05,1.6572e+08,46.524,0,8.2315e+07,8.5572,527.79,1
1820,2.96,12139,1,12139,1,6.92e-05,6.0119e-11,0,0.00042396,-1.259e-05,-8.0102,17.206,0,1.4428e+08,0.15897,12138,13096,1,13096,1,0.00088145,2.3679e-10,0,0.00088145,0.00013946,2.5058e+08,63.102,0,3.0222e+08,8.5885,13095,12138,1,12138,1,6.92e-05,4.0155e-11,0,0.00042116,-1.2504e-05,2.2466e+07,11.19,0,1.4475e+08,0.61817,12137,11203,1,11203,1,-0.00074305,-4.8775e-11,0,2.1049e-05,-0.0001647,-3.0222e+08,-16.704,0,8.604e+06,-34.831,11202,11683,1,11683,1,-0.00035196,8.3764e-12,0,0.00021058,-9.1412e-05,-1.4314e+08,2.5142,0,7.5265e+07,-0.73034,11682,12593,1,12593,1,0.00049036,1.0638e-10,0,0.00063175,6.6195e-05,1.4475e+08,31.109,0,2.1086e+08,3.6109,12592,527.79,0,527.79,0,0.00048614,6.8102e-11,0,0.00024756,9.0996e-05,1.6629e+08,19.43,0,8.2594e+07,6.0903,527.79,1
1820,2.97,12139,1,12139,1,6.9435e-05,3.3907e-10,0,0.0004254,-1.2632e-05,1.3658,98.261,0,1.4477e+08,-2.0745,12138,13096,1,13096,1,0.00088444,1.0395e-09,0,0.00088444,0.00013994,2.5143e+08,285.96,0,3.0324e+08,17.407,13095,12138,1,12138,1,6.9435e-05,2.8136e-10,0,0.00042259,-1.2546e-05,2.2542e+07,82.393,0,1.4524e+08,-1.9289,12137,11203,1,11203,1,-0.00074557,-1.7971e-10,0,2.112e-05,-0.00016525,-3.0324e+08,-46.625,0,8.633e+06,-33.208,11202,11683,1,11683,1,-0.00035316,5.7538e-11,0,0.0002113,-9.1722e-05,-1.4363e+08,17.096,0,7.552e+07,-7.213,11682,12593,1,12593,1,0.00049203,5.8813e-10,0,0.00063389,6.6419e-05,1.4524e+08,175.11,0,2.1157e+08,4.4247,12592,527.79,0,527.79,0,0.00048779,3.2209e-10,0,0.0002484,9.1304e-05,1.6685e+08,92.467,0,8.2874e+07,8.4702,527.79,1
1820,2.98,12139,1,12139,1,6.9668e-05,1.4235e-10,0,0.00042682,-1.2675e-05,3.9752,41.152,0,1.4526e+08,2.1019,12138,13096,1,13096,1,0.0008874,4.8042e-10,0,0.0008874,0.00014041,2.5227e+08,131.94,0,3.0426e+08,19.392,13095,12138,1,12138,1,6.9668e-05,1.2341e-10,0,0.00042401,-1.2588e-05,2.2618e+07,35.67,0,1.4573e+08,2.0905,12137,11203,1,11203,1,-0.00074807,-8.8558e-11,0,2.1191e-05,-0.00016581,-3.0426e+08,-30.328,0,8.6619e+06,-32.11,11202,11683,1,11683,1,-0.00035434,4.2413e-11,0,0.000212,-9.203e-05,-1.4411e+08,12.256,0,7.5774e+07,-0.64815,11682,12593,1,12593,1,0.00049368,2.321e-10,0,0.00063601,6.6642e-05,1.4573e+08,69.558,0,2.1228e+08,6.8504,12592,527.79,0,527.79,0,0.00048943,1.2885e-10,0,0.00024923,9.1611e-05,1.6741e+08,36.941,0,8.3152e+07,8.0697,527.79,1
1820,2.99,12139,1,12139,1,6.9903e-05,3.8501e-10,0,0.00042826,-1.2717e-05,-2.612,111.4,0,1.4575e+08,2.9247,12138,13096,1,13096,1,0.00089039,9.9342e-10,0,0.00089039,0.00014088,2.5312e+08,273.11,0,3.0528e+08,26.583,13095,12138,1,12138,1,6.9903e-05,3.8369e-10,0,0.00042544,-1.2631e-05,2.2694e+07,114.81,0,1.4622e+08,2.9787,12137,11203,1,11203,1,-0.00075059,-1.461e-10,0,2.1262e-05,-0.00016637,-3.0528e+08,-50.034,0,8.6909e+06,-32.808,11202,11683,1,11683,1,-0.00035553,1.7057e-10,0,0.00021272,-9.234e-05,-1.4459e+08,48.028,0,7.6029e+07,-3.066,11682,12593,1,12593,1,0.00049534,5.8891e-10,0,0.00063815,6.6866e-05,1.4622e+08,176.44,0,2.13e+08,9.2753,12592,527.79,0,527.79,0,0.00049107,2.8671e-10,0,0.00025007,9.1919e-05,1.6797e+08,81.688,0,8.3432e+07,9.2465,527.79,1
1820,3,12139,1,12139,1,7.0137e-05,-2.2299e-10,0,0.00042969,-1.276e-05,1.1044,-64.691,0,1.4623e+08,-2.4279,12138,13096,1,13096,1,0.00089337,6.2969e-11,0,0.00089337,0.00014135,2.5396e+08,21.565,0,3.063e+08,6.4649,13095,12138,1,12138,1,7.0137e-05,-1.9827e-10,0,0.00042686,-1.2673e-05,2.277e+07,-57.733,0,1.4671e+08,-1.4245,12137,11203,1,11203,1,-0.00075309,-6.3346e-10,0,2.1333e-05,-0.00016692,-3.063e+08,-171.41,0,8.7198e+06,-37.746,11202,11683,1,11683,1,-0.00035672,-3.4805e-10,0,0.00021343,-9.2648e-05,-1.4508e+08,-102.94,0,7.6283e+07,-4.2418,11682,12593,1,12593,1,0.00049699,-9.0079e-11,0,0.00064029,6.7089e-05,1.4671e+08,-26.252,0,2.1371e+08,0.73312,12592,527.79,0,527.79,0,0.00049271,1.7203e-10,0,0.00025091,9.2226e-05,1.6853e+08,49.241,0,8.371e+07,5.5678,527.79,1
1820,3.01,12139,1,12139,1,7.037e-05,1.1118e-10,0,0.00043112,-1.2802e-05,-0.13467,31.956,0,1.4672e+08,2.6657,12138,13096,1,13096,1,0.00089633,1.1662e-09,0,0.00089633,0.00014182,2.548e+08,313.76,0,3.0732e+08,37.634,13095,12138,1,12138,1,7.037e-05,8.6413e-12,0,0.00042828,-1.2715e-05,2.2846e+07,2.4692,0,1.4719e+08,2.0672,12137,11203,1,11203,1,-0.00075559,-4.7465e-10,0,2.1403e-05,-0.00016748,-3.0732e+08,-137.46,0,8.7487e+06,-30.92,11202,11683,1,11683,1,-0.00035791,-1.1238e-10,0,0.00021414,-9.2956e-05,-1.4556e+08,-32.896,0,7.6536e+07,-4.2011,11682,12593,1,12593,1,0.00049865,2.9758e-10,0,0.00064241,6.7312e-05,1.4719e+08,86.505,0,2.1442e+08,9.4456,12592,527.79,0,527.79,0,0.00049435,3.3725e-10,0,0.00025174,9.2532e-05,1.6909e+08,97.087,0,8.3988e+07,11.648,527.79,1
1820,3.02,12139,1,12139,1,7.0605e-05,2.9421e-10,0,0.00043256,-1.2845e-05,3.7149,85.258,0,1.4721e+08,-2.0186,12138,13096,1,13096,1,0.00089933,6.3643e-10,0,0.00089933,0.00014229,2.5565e+08,175.25,0,3.0835e+08,10.738,13095,12138,1,12138,1,7.0605e-05,3.2257e-10,0,0.00042971,-1.2758e-05,2.2922e+07,95.713,0,1.4768e+08,-1.0525,12137,11203,1,11203,1,-0.00075811,-9.8519e-11,0,2.1474e-05,-0.00016804,-3.0835e+08,-33.739,0,8.7778e+06,-30.827,11202,11683,1,11683,1,-0.0003591,1.4082e-10,0,0.00021485,-9.3267e-05,-1.4605e+08,41.819,0,7.6791e+07,-4.4388,11682,12593,1,12593,1,0.00050031,4.5231e-10,0,0.00064456,6.7537e-05,1.4768e+08,132.66,0,2.1514e+08,1.4505,12592,527.79,0,527.79,0,0.000496,1.9807e-10,0,0.00025258,9.2841e-05,1.6966e+08,56.27,0,8.4268e+07,5.5296,527.79,1
1820,3.03,12139,1,12139,1,7.0839e-05,7.4333e-11,0,0.00043399,-1.2888e-05,3.725,21.361,0,1.477e+08,4.6832,12138,13096,1,13096,1,0.0009023,4.1452e-10,0,0.0009023,0.00014276,2.5649e+08,125.13,0,3.0936e+08,26.404,13095,12138,1,12138,1,7.0839e-05,4.1394e-11,0,0.00043113,-1.28e-05,2.2998e+07,12.186,0,1.4817e+08,4.1866,12137,11203,1,11203,1,-0.00076062,-1.7888e-10,0,2.1545e-05,-0.00016859,-3.0936e+08,-61.029,0,8.8067e+06,-31.051,11202,11683,1,11683,1,-0.00036029,-4.3178e-11,0,0.00021556,-9.3575e-05,-1.4653e+08,-12.052,0,7.7045e+07,0.26027,11682,12593,1,12593,1,0.00050196,1.8446e-10,0,0.00064669,6.776e-05,1.4817e+08,54.776,0,2.1585e+08,9.6768,12592,527.79,0,527.79,0,0.00049764,1.4109e-10,0,0.00025342,9.3148e-05,1.7022e+08,40.92,0,8.4547e+07,8.6048,527.79,1
1820,3.04,12139,1,12139,1,7.1073e-05,-2.6005e-10,0,0.00043542,-1.293e-05,-4.0215,-75.615,0,1.4818e+08,-2.2014,12138,13096,1,13096,1,0.00090528,5.7316e-11,0,0.00090528,0.00014323,2.5733e+08,19.628,0,3.1039e+08,6.3467,13095,12138,1,12138,1,7.1073e-05,-2.6832e-10,0,0.00043255,-1.2842e-05,2.3074e+07,-78.567,0,1.4866e+08,-1.2742,12137,11203,1,11203,1,-0.00076313,-5.9514e-10,0,2.1616e-05,-0.00016915,-3.1039e+08,-163.53,0,8.8356e+06,-35.385,11202,11683,1,11683,1,-0.00036148,-3.8746e-10,0,0.00021627,-9.3884e-05,-1.4701e+08,-115.45,0,7.73e+07,-3.3711,11682,12593,1,12593,1,0.00050362,-1.3559e-10,0,0.00064882,6.7983e-05,1.4866e+08,-36.875,0,2.1656e+08,0.37646,12592,527.79,0,527.79,0,0.00049928,1.6949e-10,0,0.00025425,9.3455e-05,1.7078e+08,48.584,0,8.4826e+07,4.768,527.79,1
1820,3.05,12139,1,12139,1,7.1308e-05,-1.5381e-11,0,0.00043686,-1.2973e-05,-0.29914,-4.2169,0,1.4867e+08,-6.2522,12138,13096,1,13096,1,0.00090827,8.5929e-10,0,0.00090827,0.00014371,2.5818e+08,232.55,0,3.1141e+08,19.082,13095,12138,1,12138,1,7.1308e-05,2.0533e-11,0,0.00043398,-1.2885e-05,2.315e+07,5.5973,0,1.4915e+08,-5.5231,12137,11203,1,11203,1,-0.00076565,-1.044e-09,0,2.1687e-05,-0.00016971,-3.1141e+08,-278.82,0,8.8647e+06,-45.077,11202,11683,1,11683,1,-0.00036267,-2.6016e-10,0,0.00021699,-9.4194e-05,-1.475e+08,-77.166,0,7.7555e+07,-15.578,11682,12593,1,12593,1,0.00050529,2.5558e-10,0,0.00065097,6.8208e-05,1.4915e+08,76.456,0,2.1727e+08,2.2035,12592,527.79,0,527.79,0,0.00050093,3.92e-10,0,0.00025509,9.3764e-05,1.7134e+08,113.29,0,8.5106e+07,11.006,527.79,1
1820,3.06,12139,1,12139,1,7.1542e-05,2.0134e-10,0,0.00043829,-1.3016e-05,3.7512,58.463,0,1.4916e+08,-3.1053,12138,13096,1,13096,1,0.00091124,7.751e-10,0,0.00091124,0.00014418,2.5902e+08,208.76,0,3.1243e+08,7.3536,13095,12138,1,12138,1,7.1542e-05,1.6857e-10,0,0.0004354,-1.2927e-05,2.3226e+07,48.393,0,1.4964e+08,-1.0207,12137,11203,1,11203,1,-0.00076816,-1.2255e-10,0,2.1758e-05,-0.00017026,-3.1243e+08,-31.791,0,8.8936e+06,-45.791,11202,11683,1,11683,1,-0.00036386,4.2432e-11,0,0.0002177,-9.4502e-05,-1.4798e+08,12.033,0,7.7809e+07,-5.1035,11682,12593,1,12593,1,0.00050694,3.2977e-10,0,0.0006531,6.8431e-05,1.4964e+08,97.189,0,2.1799e+08,2.4104,12592,527.79,0,527.79,0,0.00050257,1.9267e-10,0,0.00025593,9.4071e-05,1.7191e+08,55.484,0,8.5384e+07,7.8931,527.79,1
1820,3.07,12139,1,12139,1,7.1776e-05,2.4551e-10,0,0.00043972,-1.3058e-05,-6.5962,70.992,0,1.4965e+08,-2.2771,12138,13096,1,13096,1,0.00091422,7.3313e-10,0,0.00091422,0.00014465,2.5987e+08,201.46,0,3.1345e+08,10.128,13095,12138,1,12138,1,7.1776e-05,2.0934e-10,0,0.00043682,-1.2969e-05,2.3302e+07,61.309,0,1.5013e+08,-1.4464,12137,11203,1,11203,1,-0.00077067,-9.9715e-11,0,2.1829e-05,-0.00017082,-3.1345e+08,-34.148,0,8.9225e+06,-32.173,11202,11683,1,11683,1,-0.00036505,5.5156e-11,0,0.00021841,-9.4811e-05,-1.4846e+08,17.024,0,7.8063e+07,-4.6227,11682,12593,1,12593,1,0.0005086,4.1572e-10,0,0.00065523,6.8655e-05,1.5013e+08,123.56,0,2.187e+08,2.5041,12592,527.79,0,527.79,0,0.00050421,2.2309e-10,0,0.00025676,9.4379e-05,1.7247e+08,63.646,0,8.5663e+07,6.661,527.79,1
1820,3.08,12139,1,12139,1,7.201e-05,8.7519e-11,0,0.00044115,-1.3101e-05,8.1901,25.152,0,1.5013e+08,-0.65024,12138,13096,1,13096,1,0.00091719,3.1172e-10,0,0.00091719,0.00014512,2.6071e+08,82.443,0,3.1447e+08,11.025,13095,12138,1,12138,1,7.201e-05,8.4993e-11,0,0.00043824,-1.3012e-05,2.3378e+07,25.182,0,1.5062e+08,0.92115,12137,11203,1,11203,1,-0.00077317,-6.6468e-11,0,2.1899e-05,-0.00017137,-3.1447e+08,-22.762,0,8.9514e+06,-37.151,11202,11683,1,11683,1,-0.00036623,2.1804e-11,0,0.00021912,-9.512e-05,-1.4895e+08,6.1993,0,7.8317e+07,-2.2873,11682,12593,1,12593,1,0.00051025,1.4728e-10,0,0.00065736,6.8878e-05,1.5062e+08,43.546,0,2.1941e+08,3.1404,12592,527.79,0,527.79,0,0.00050586,8.3167e-11,0,0.0002576,9.4686e-05,1.7303e+08,23.793,0,8.5942e+07,6.791,527.79,1
1820,3.09,12139,1,12139,1,7.2244e-05,2.3911e-10,0,0.00044258,-1.3143e-05,-3.9394,69.244,0,1.5062e+08,-1.2763,12138,13096,1,13096,1,0.00092017,7.2762e-10,0,0.00092017,0.00014559,2.6155e+08,197.13,0,3.1549e+08,12.561,13095,12138,1,12138,1,7.2244e-05,1.9701e-10,0,0.00043967,-1.3054e-05,2.3454e+07,56.516,0,1.5111e+08,-1.0531,12137,11203,1,11203,1,-0.00077569,-7.9437e-11,0,2.197e-05,-0.00017193,-3.1549e+08,-20.605,0,8.9804e+06,-34.868,11202,11683,1,11683,1,-0.00036742,4.1066e-11,0,0.00021983,-9.5429e-05,-1.4943e+08,11.856,0,7.8571e+07,-4.5132,11682,12593,1,12593,1,0.00051191,4.1754e-10,0,0.0006595,6.9102e-05,1.5111e+08,123.59,0,2.2012e+08,3.5187,12592,527.79,0,527.79,0,0.0005075,2.2311e-10,0,0.00025844,9.4993e-05,1.7359e+08,63.992,0,8.6221e+07,6.8246,527.79,1
1820,3.1,12139,1,12139,1,7.2478e-05,2.3875e-10,0,0.00044401,-1.3186e-05,1.2302,69.181,0,1.5111e+08,0.72324,12138,13096,1,13096,1,0.00092315,4.9136e-10,0,0.00092315,0.00014606,2.624e+08,131.35,0,3.1651e+08,16.547,13095,12138,1,12138,1,7.2478e-05,2.6682e-10,0,0.00044109,-1.3096e-05,2.353e+07,81.161,0,1.516e+08,1.0106,12137,11203,1,11203,1,-0.00077819,-8.0032e-11,0,2.2041e-05,-0.00017249,-3.1651e+08,-26.371,0,9.0093e+06,-34.431,11202,11683,1,11683,1,-0.00036861,1.2165e-10,0,0.00022054,-9.5738e-05,-1.4991e+08,35.689,0,7.8825e+07,-0.98849,11682,12593,1,12593,1,0.00051357,3.6119e-10,0,0.00066163,6.9325e-05,1.516e+08,107.06,0,2.2083e+08,3.1788,12592,527.79,0,527.79,0,0.00050914,1.5516e-10,0,0.00025927,9.53e-05,1.7415e+08,44.064,0,8.6499e+07,6.1925,527.79,1
1820,3.11,12139,1,12139,1,7.2711e-05,3.2916e-10,0,0.00044544,-1.3228e-05,1.9928,95.403,0,1.5159e+08,4.5924,12138,13096,1,13096,1,0.00092612,1.0837e-09,0,0.00092612,0.00014653,2.6324e+08,299.36,0,3.1753e+08,28.523,13095,12138,1,12138,1,7.2711e-05,2.5854e-10,0,0.00044251,-1.3138e-05,2.3606e+07,75.436,0,1.5208e+08,3.7094,12137,11203,1,11203,1,-0.0007807,-1.2305e-10,0,2.2111e-05,-0.00017304,-3.1753e+08,-42.14,0,9.0382e+06,-33.359,11202,11683,1,11683,1,-0.0003698,5.5183e-11,0,0.00022125,-9.6046e-05,-1.504e+08,16.7,0,7.9079e+07,-2.4629,11682,12593,1,12593,1,0.00051522,5.5628e-10,0,0.00066376,6.9548e-05,1.5208e+08,165.46,0,2.2155e+08,12.29,12592,527.79,0,527.79,0,0.00051078,3.0866e-10,0,0.00026011,9.5607e-05,1.7471e+08,88.84,0,8.6778e+07,10.756,527.79,1
1820,3.12,12139,1,12139,1,7.2946e-05,1.6551e-10,0,0.00044688,-1.3271e-05,0.54831,47.794,0,1.5208e+08,1.9105,12138,13096,1,13096,1,0.0009291,4.8859e-10,0,0.0009291,0.000147,2.6408e+08,136.15,0,3.1855e+08,12.795,13095,12138,1,12138,1,7.2946e-05,1.5896e-10,0,0.00044393,-1.3181e-05,2.3682e+07,46.464,0,1.5257e+08,2.3058,12137,11203,1,11203,1,-0.00078321,-5.2204e-11,0,2.2182e-05,-0.0001736,-3.1855e+08,-17.879,0,9.0671e+06,-32.028,11202,11683,1,11683,1,-0.00037099,6.0772e-11,0,0.00022197,-9.6355e-05,-1.5088e+08,18.07,0,7.9333e+07,-0.09544,11682,12593,1,12593,1,0.00051688,2.5511e-10,0,0.0006659,6.9772e-05,1.5257e+08,75.343,0,2.2226e+08,5.6556,12592,527.79,0,527.79,0,0.00051242,1.3007e-10,0,0.00026094,9.5915e-05,1.7527e+08,36.922,0,8.7057e+07,6.0093,527.79,1
1820,3.13,12139,1,12139,1,7.318e-05,2.014e-10,0,0.00044831,-1.3314e-05,1.8019,57.886,0,1.5257e+08,0.94754,12138,13096,1,13096,1,0.00093208,7.5393e-10,0,0.00093208,0.00014747,2.6492e+08,210.52,0,3.1957e+08,16.163,13095,12138,1,12138,1,7.318e-05,1.343e-10,0,0.00044535,-1.3223e-05,2.3758e+07,39.083,0,1.5306e+08,1.4642,12137,11203,1,11203,1,-0.00078572,-9.7258e-11,0,2.2253e-05,-0.00017416,-3.1957e+08,-33.307,0,9.0959e+06,-34.176,11202,11683,1,11683,1,-0.00037217,4.6618e-11,0,0.00022268,-9.6664e-05,-1.5136e+08,13.241,0,7.9588e+07,-2.3783,11682,12593,1,12593,1,0.00051853,3.2331e-10,0,0.00066803,6.9995e-05,1.5306e+08,94.235,0,2.2297e+08,6.7047,12592,527.79,0,527.79,0,0.00051406,2.0898e-10,0,0.00026178,9.6222e-05,1.7583e+08,59.273,0,8.7335e+07,7.8606,527.79,1
1820,3.14,12139,1,12139,1,7.3415e-05,-2.2322e-10,0,0.00044974,-1.3356e-05,-1.2511,-64.44,0,1.5306e+08,-4.9237,12138,13096,1,13096,1,0.00093506,1.3041e-10,0,0.00093506,0.00014795,2.6577e+08,44.661,0,3.2059e+08,11.692,13095,12138,1,12138,1,7.3415e-05,-2.1397e-10,0,0.00044678,-1.3266e-05,2.3834e+07,-62.208,0,1.5355e+08,-3.7775,12137,11203,1,11203,1,-0.00078823,-6.5728e-10,0,2.2323e-05,-0.00017471,-3.2059e+08,-179.94,0,9.1247e+06,-37.242,11202,11683,1,11683,1,-0.00037336,-3.8114e-10,0,0.00022339,-9.6973e-05,-1.5185e+08,-114.68,0,7.9842e+07,-7.3859,11682,12593,1,12593,1,0.00052019,-5.0615e-11,0,0.00067017,7.0219e-05,1.5355e+08,-15.093,0,2.2368e+08,-0.77779,12592,527.79,0,527.79,0,0.00051571,2.0366e-10,0,0.00026262,9.653e-05,1.764e+08,58.209,0,8.7614e+07,5.9685,527.79,1
1820,3.15,12139,1,12139,1,7.3649e-05,-2.3691e-11,0,0.00045117,-1.3399e-05,-3.6096,-7.0116,0,1.5354e+08,0.79713,12138,13096,1,13096,1,0.00093803,5.4199e-10,0,0.00093803,0.00014842,2.6661e+08,149.31,0,3.2161e+08,14.149,13095,12138,1,12138,1,7.3649e-05,-1.1346e-11,0,0.0004482,-1.3308e-05,2.391e+07,-3.2812,0,1.5404e+08,1.2273,12137,11203,1,11203,1,-0.00079073,-6.0424e-10,0,2.2393e-05,-0.00017527,-3.2161e+08,-169.81,0,9.1535e+06,-32.599,11202,11683,1,11683,1,-0.00037455,-1.5977e-10,0,0.0002241,-9.7282e-05,-1.5233e+08,-45.514,0,8.0096e+07,-3.1277,11682,12593,1,12593,1,0.00052185,1.1582e-10,0,0.0006723,7.0442e-05,1.5404e+08,33.254,0,2.2439e+08,6.8643,12592,527.79,0,527.79,0,0.00051735,2.2052e-10,0,0.00026345,9.6837e-05,1.7696e+08,64.075,0,8.7893e+07,7.8998,527.79,1
1820,3.16,12139,1,12139,1,7.3883e-05,-2.8504e-10,0,0.0004526,-1.3442e-05,-3.4438,-82.887,0,1.5403e+08,0.84249,12138,13096,1,13096,1,0.00094101,4.9508e-10,0,0.00094101,0.00014889,2.6745e+08,137.85,0,3.2263e+08,22.052,13095,12138,1,12138,1,7.3883e-05,-2.122e-10,0,0.00044962,-1.335e-05,2.3986e+07,-61.724,0,1.5453e+08,0.59777,12137,11203,1,11203,1,-0.00079324,-1.1332e-09,0,2.2464e-05,-0.00017582,-3.2263e+08,-314.75,0,9.1822e+06,-36.383,11202,11683,1,11683,1,-0.00037574,-5.5512e-10,0,0.00022481,-9.759e-05,-1.5281e+08,-163.36,0,8.035e+07,-5.1423,11682,12593,1,12593,1,0.0005235,-2.429e-12,0,0.00067443,7.0665e-05,1.5453e+08,-0.63602,0,2.251e+08,8.4764,12592,527.79,0,527.79,0,0.00051899,3.6226e-10,0,0.00026429,9.7144e-05,1.7752e+08,104.86,0,8.8171e+07,9.4823,527.79,1
1820,3.17,12139,1,12139,1,7.4118e-05,-2.3254e-12,0,0.00045404,-1.3484e-05,3.8358,-0.82101,0,1.5452e+08,0.68349,12138,13096,1,13096,1,0.00094399,8.0337e-10,0,0.00094399,0.00014936,2.683e+08,219.59,0,3.2366e+08,17.554,13095,12138,1,12138,1,7.4118e-05,-1.0946e-11,0,0.00045105,-1.3393e-05,2.4063e+07,-3.3084,0,1.5502e+08,0.94482,12137,11203,1,11203,1,-0.00079575,-6.0389e-10,0,2.2534e-05,-0.00017638,-3.2366e+08,-169.29,0,9.211e+06,-34.775,11202,11683,1,11683,1,-0.00037693,-1.7711e-10,0,0.00022552,-9.79e-05,-1.533e+08,-51.564,0,8.0605e+07,-4.2277,11682,12593,1,12593,1,0.00052516,1.5015e-10,0,0.00067657,7.0889e-05,1.5502e+08,42.931,0,2.2581e+08,8.2878,12592,527.79,0,527.79,0,0.00052063,2.6973e-10,0,0.00026512,9.7452e-05,1.7808e+08,78.198,0,8.845e+07,9.5437,527.79,1
1820,3.18,12139,1,12139,1,7.4353e-05,-1.1727e-10,0,0.00045547,-1.3527e-05,-2.3847,-34.094,0,1.5501e+08,-0.92925,12138,13096,1,13096,1,0.00094698,6.1638e-11,0,0.00094698,0.00014983,2.6914e+08,21.084,0,3.2468e+08,8.2589,13095,12138,1,12138,1,7.4353e-05,-7.4882e-11,0,0.00045247,-1.3435e-05,2.4139e+07,-22.13,0,1.5551e+08,-0.35441,12137,11203,1,11203,1,-0.00079827,-4.3888e-10,0,2.2604e-05,-0.00017694,-3.2468e+08,-120.52,0,9.2397e+06,-39.828,11202,11683,1,11683,1,-0.00037812,-2.218e-10,0,0.00022623,-9.8209e-05,-1.5378e+08,-65.197,0,8.0859e+07,-2.7474,11682,12593,1,12593,1,0.00052682,-4.8642e-12,0,0.00067871,7.1113e-05,1.5551e+08,-1.4669,0,2.2653e+08,3.3123,12592,527.79,0,527.79,0,0.00052228,1.3546e-10,0,0.00026596,9.776e-05,1.7864e+08,39.16,0,8.8729e+07,6.534,527.79,1
1820,3.19,12139,1,12139,1,7.4588e-05,9.7325e-11,0,0.0004569,-1.357e-05,-5.3458,27.674,0,1.5549e+08,1.2303,12138,13096,1,13096,1,0.00094995,6.3813e-10,0,0.00094995,0.0001503,2.6999e+08,175.53,0,3.257e+08,18.211,13095,12138,1,12138,1,7.4588e-05,2.4629e-11,0,0.00045389,-1.3478e-05,2.4215e+07,6.7618,0,1.56e+08,1.5315,12137,11203,1,11203,1,-0.00080078,-2.3777e-10,0,2.2675e-05,-0.0001775,-3.257e+08,-75.524,0,9.2685e+06,-33.65,11202,11683,1,11683,1,-0.0003793,-5.1383e-11,0,0.00022695,-9.8518e-05,-1.5426e+08,-14.645,0,8.1113e+07,-2.6252,11682,12593,1,12593,1,0.00052848,2.3346e-10,0,0.00068084,7.1336e-05,1.56e+08,66.82,0,2.2724e+08,6.1148,12592,527.79,0,527.79,0,0.00052392,2.0844e-10,0,0.0002668,9.8067e-05,1.792e+08,59.742,0,8.9008e+07,7.9422,527.79,1
1820,3.2,12139,1,12139,1,7.4823e-05,1.4919e-10,0,0.00045834,-1.3613e-05,3.1482,43.067,0,1.5598e+08,0.12158,12138,13096,1,13096,1,0.00095293,4.9407e-10,0,0.00095293,0.00015077,2.7083e+08,134.64,0,3.2672e+08,15.888,13095,12138,1,12138,1,7.4823e-05,1.4158e-10,0,0.00045532,-1.352e-05,2.4291e+07,40.793,0,1.5649e+08,1.862,12137,11203,1,11203,1,-0.00080329,-1.0787e-10,0,2.2745e-05,-0.00017805,-3.2672e+08,-36.943,0,9.2972e+06,-35.493,11202,11683,1,11683,1,-0.00038049,3.4298e-11,0,0.00022766,-9.8827e-05,-1.5475e+08,9.4688,0,8.1368e+07,-2.3968,11682,12593,1,12593,1,0.00053014,2.5739e-10,0,0.00068297,7.156e-05,1.5649e+08,77.688,0,2.2795e+08,5.6125,12592,527.79,0,527.79,0,0.00052556,1.4241e-10,0,0.00026764,9.8374e-05,1.7976e+08,40.813,0,8.9287e+07,8.7427,527.79,1
1820,3.21,12139,1,12139,1,7.5057e-05,1.4905e-10,0,0.00045977,-1.3655e-05,2.1298,42.942,0,1.5647e+08,-0.11897,12138,13096,1,13096,1,0.00095591,4.5072e-10,0,0.00095591,0.00015124,2.7167e+08,124.7,0,3.2774e+08,15.952,13095,12138,1,12138,1,7.5057e-05,1.3375e-10,0,0.00045674,-1.3562e-05,2.4367e+07,39.464,0,1.5698e+08,0.9955,12137,11203,1,11203,1,-0.0008058,-8.601e-11,0,2.2815e-05,-0.00017861,-3.2774e+08,-29.455,0,9.326e+06,-40.039,11202,11683,1,11683,1,-0.00038168,5.4603e-11,0,0.00022837,-9.9136e-05,-1.5523e+08,14.687,0,8.1622e+07,-2.6373,11682,12593,1,12593,1,0.0005318,2.3579e-10,0,0.00068511,7.1784e-05,1.5698e+08,69.609,0,2.2866e+08,5.272,12592,527.79,0,527.79,0,0.00052721,1.258e-10,0,0.00026847,9.8682e-05,1.8033e+08,35.828,0,8.9565e+07,9.3427,527.79,1
1820,3.22,12139,1,12139,1,7.5292e-05,1.8885e-11,0,0.0004612,-1.3698e-05,-0.9524,5.4924,0,1.5695e+08,-1.6678,12138,13096,1,13096,1,0.00095889,6.0706e-11,0,0.00095889,0.00015171,2.7252e+08,16.908,0,3.2876e+08,2.0295,13095,12138,1,12138,1,7.5292e-05,1.7523e-11,0,0.00045816,-1.3605e-05,2.4444e+07,4.9673,0,1.5747e+08,-0.019498,12137,11203,1,11203,1,-0.00080831,-6.6902e-11,0,2.2886e-05,-0.00017917,-3.2876e+08,-22.894,0,9.3547e+06,-37.303,11202,11683,1,11683,1,-0.00038287,5.7847e-12,0,0.00022908,-9.9445e-05,-1.5571e+08,1.5419,0,8.1876e+07,-0.92294,11682,12593,1,12593,1,0.00053345,3.7607e-11,0,0.00068724,7.2007e-05,1.5747e+08,11.097,0,2.2937e+08,0.68754,12592,527.79,0,527.79,0,0.00052885,2.3286e-11,0,0.00026931,9.8989e-05,1.8089e+08,6.9067,0,8.9844e+07,5.2008,527.79,1
1820,3.23,12139,1,12139,1,7.5527e-05,-9.9882e-11,0,0.00046264,-1.3741e-05,2.6601,-29.188,0,1.5744e+08,-1.0397,12138,13096,1,13096,1,0.00096187,1.0494e-10,0,0.00096187,0.00015218,2.7336e+08,30.364,0,3.2978e+08,9.6976,13095,12138,1,12138,1,7.5527e-05,-9.7651e-11,0,0.00045959,-1.3647e-05,2.452e+07,-28.487,0,1.5796e+08,0.034704,12137,11203,1,11203,1,-0.00081082,-2.7014e-10,0,2.2956e-05,-0.00017972,-3.2978e+08,-82.753,0,9.3834e+06,-34.656,11202,11683,1,11683,1,-0.00038406,-1.6177e-10,0,0.00022979,-9.9754e-05,-1.562e+08,-48.154,0,8.2131e+07,-1.1073,11682,12593,1,12593,1,0.00053511,-3.3333e-11,0,0.00068938,7.2231e-05,1.5796e+08,-9.9875,0,2.3008e+08,0.68328,12592,527.79,0,527.79,0,0.00053049,7.8654e-11,0,0.00027015,9.9297e-05,1.8145e+08,22.882,0,9.0123e+07,5.4192,527.79,1
1820,3.24,12139,1,12139,1,7.5762e-05,9.6315e-11,0,0.00046407,-1.3783e-05,-0.96952,27.919,0,1.5793e+08,-2.6634,12138,13096,1,13096,1,0.00096485,3.9828e-10,0,0.00096485,0.00015266,2.742e+08,105.59,0,3.308e+08,6.6577,13095,12138,1,12138,1,7.5762e-05,7.318e-11,0,0.00046101,-1.369e-05,2.4596e+07,21.487,0,1.5845e+08,-1.904,12137,11203,1,11203,1,-0.00081333,-2.0407e-10,0,2.3026e-05,-0.00018028,-3.308e+08,-54.447,0,9.4122e+06,-38.885,11202,11683,1,11683,1,-0.00038525,-2.0432e-13,0,0.00023051,-0.00010006,-1.5668e+08,-0.067993,0,8.2385e+07,-4.1952,11682,12593,1,12593,1,0.00053677,1.933e-10,0,0.00069152,7.2454e-05,1.5845e+08,57.271,0,2.3079e+08,1.299,12592,527.79,0,527.79,0,0.00053214,1.2865e-10,0,0.00027098,9.9605e-05,1.8201e+08,36.952,0,9.0402e+07,6.0253,527.79,1
1820,3.25,12139,1,12139,1,7.5996e-05,1.9395e-10,0,0.0004655,-1.3826e-05,4.0024,56.114,0,1.5842e+08,-1.5283,12138,13096,1,13096,1,0.00096783,6.3699e-10,0,0.00096783,0.00015313,2.7505e+08,175.93,0,3.3182e+08,12.955,13095,12138,1,12138,1,7.5996e-05,1.6149e-10,0,0.00046243,-1.3732e-05,2.4672e+07,46.784,0,1.5894e+08,-0.75685,12137,11203,1,11203,1,-0.00081584,-1.2733e-10,0,2.3096e-05,-0.00018084,-3.3182e+08,-33.032,0,9.4409e+06,-34.885,11202,11683,1,11683,1,-0.00038644,1.2543e-11,0,0.00023122,-0.00010037,-1.5716e+08,3.3644,0,8.2639e+07,-3.8054,11682,12593,1,12593,1,0.00053843,3.552e-10,0,0.00069365,7.2678e-05,1.5894e+08,105.96,0,2.3151e+08,3.0452,12592,527.79,0,527.79,0,0.00053378,2.0265e-10,0,0.00027182,9.9912e-05,1.8257e+08,58.247,0,9.068e+07,6.8887,527.79,1
1820,3.26,12139,1,12139,1,7.6227e-05,-4.485e-10,0,0.00046691,-1.3868e-05,-84.755,-129.41,0,1.589e+08,31.421,12138,13096,1,13096,1,0.00097078,2.6352e-09,0,0.00097078,0.00015359,2.7588e+08,743.11,0,3.3283e+08,241.67,13095,12138,1,12138,1,7.6227e-05,-1.6405e-10,0,0.00046384,-1.3774e-05,2.4747e+07,-47.93,0,1.5942e+08,26.889,12137,11203,1,11203,1,-0.00081832,-3.22e-09,0,2.3166e-05,-0.00018139,-3.3283e+08,-887.91,0,9.4693e+06,-45.899,11202,11683,1,11683,1,-0.00038761,-1.3933e-09,0,0.00023192,-0.00010068,-1.5764e+08,-394.84,0,8.289e+07,1.3545,11682,12593,1,12593,1,0.00054006,3.8084e-10,0,0.00069576,7.2899e-05,1.5942e+08,109.68,0,2.3221e+08,57.845,12592,527.79,0,527.79,0,0.0005354,1.2856e-09,0,0.00027264,0.00010022,1.8313e+08,370.23,0,9.0955e+07,38.767,527.79,1
1820,3.27,12139,1,12139,1,7.6465e-05,3.9118e-11,0,0.00046836,-1.3911e-05,1.3803,11.2,0,1.5939e+08,-0.50084,12138,13096,1,13096,1,0.00097379,5.826e-10,0,0.00097379,0.00015407,2.7673e+08,160.95,0,3.3386e+08,10.213,13095,12138,1,12138,1,7.6465e-05,4.0083e-12,0,0.00046528,-1.3817e-05,2.4824e+07,1.297,0,1.5991e+08,0.10335,12137,11203,1,11203,1,-0.00082085,-3.724e-10,0,2.3237e-05,-0.00018195,-3.3386e+08,-109.5,0,9.4983e+06,-34.102,11202,11683,1,11683,1,-0.00038881,-8.2692e-11,0,0.00023264,-0.00010099,-1.5813e+08,-24.328,0,8.3148e+07,-3.7214,11682,12593,1,12593,1,0.00054174,1.5468e-10,0,0.00069792,7.3125e-05,1.5991e+08,44.743,0,2.3293e+08,4.334,12592,527.79,0,527.79,0,0.00053706,1.9281e-10,0,0.00027349,0.00010053,1.8369e+08,56.073,0,9.1237e+07,6.7556,527.79,1
1820,3.28,12139,1,12139,1,7.67e-05,6.1262e-11,0,0.0004698,-1.3954e-05,-10.527,17.613,0,1.5988e+08,0.77775,12138,13096,1,13096,1,0.00097677,3.7375e-10,0,0.00097677,0.00015454,2.7758e+08,103.63,0,3.3489e+08,16.736,13095,12138,1,12138,1,7.67e-05,3.1988e-11,0,0.0004667,-1.3859e-05,2.4901e+07,9.538,0,1.604e+08,0.99175,12137,11203,1,11203,1,-0.00082337,-6.3472e-11,0,2.3307e-05,-0.00018251,-3.3489e+08,-21.738,0,9.5271e+06,-39.567,11202,11683,1,11683,1,-0.00039,9.29e-12,0,0.00023335,-0.0001013,-1.5861e+08,2.6794,0,8.3402e+07,-1.0105,11682,12593,1,12593,1,0.0005434,8.5282e-11,0,0.00070005,7.3348e-05,1.604e+08,24.495,0,2.3364e+08,3.3957,12592,527.79,0,527.79,0,0.00053871,8.0762e-11,0,0.00027433,0.00010083,1.8426e+08,23.196,0,9.1516e+07,7.2939,527.79,1
1820,3.29,12139,1,12139,1,7.6935e-05,1.635e-11,0,0.00047123,-1.3997e-05,1.4757,4.5587,0,1.6036e+08,1.2428,12138,13096,1,13096,1,0.00097975,2.9225e-10,0,0.00097975,0.00015501,2.7842e+08,80.898,0,3.3591e+08,15.993,13095,12138,1,12138,1,7.6935e-05,-4.3373e-12,0,0.00046812,-1.3902e-05,2.4977e+07,-1.4022,0,1.6089e+08,1.3794,12137,11203,1,11203,1,-0.00082588,-1.5954e-10,0,2.3377e-05,-0.00018306,-3.3591e+08,-54.414,0,9.5557e+06,-37.673,11202,11683,1,11683,1,-0.00039119,-5.245e-11,0,0.00023406,-0.00010161,-1.591e+08,-15.172,0,8.3656e+07,-1.1883,11682,12593,1,12593,1,0.00054506,7.5264e-11,0,0.00070219,7.3572e-05,1.6089e+08,21.7,0,2.3435e+08,5.5228,12592,527.79,0,527.79,0,0.00054035,1.0195e-10,0,0.00027517,0.00010114,1.8482e+08,29.494,0,9.1795e+07,7.2538,527.79,1
1820,3.3,12139,1,12139,1,7.717e-05,2.6371e-10,0,0.00047266,-1.404e-05,-11.38,76.248,0,1.6085e+08,-0.74565,12138,13096,1,13096,1,0.00098273,7.0023e-10,0,0.00098273,0.00015548,2.7926e+08,192.75,0,3.3693e+08,15.27,13095,12138,1,12138,1,7.717e-05,2.668e-10,0,0.00046955,-1.3944e-05,2.5053e+07,77.743,0,1.6138e+08,0.97046,12137,11203,1,11203,1,-0.00082839,-1.2689e-10,0,2.3447e-05,-0.00018362,-3.3693e+08,-43.456,0,9.5844e+06,-33.034,11202,11683,1,11683,1,-0.00039238,8.3534e-11,0,0.00023477,-0.00010192,-1.5958e+08,24.117,0,8.3911e+07,-3.1296,11682,12593,1,12593,1,0.00054672,4.336e-10,0,0.00070432,7.3795e-05,1.6138e+08,127.36,0,2.3506e+08,3.9442,12592,527.79,0,527.79,0,0.00054199,2.1115e-10,0,0.000276,0.00010145,1.8538e+08,60.281,0,9.2074e+07,7.3765,527.79,1
1820,3.31,12139,1,12139,1,7.7405e-05,2.1642e-10,0,0.0004741,-1.4082e-05,0.57379,62.749,0,1.6134e+08,1.2425,12138,13096,1,13096,1,0.00098571,9.5412e-10,0,0.00098571,0.00015595,2.8011e+08,264.7,0,3.3795e+08,18.646,13095,12138,1,12138,1,7.7405e-05,1.2297e-10,0,0.00047097,-1.3987e-05,2.5129e+07,36.042,0,1.6187e+08,1.8038,12137,11203,1,11203,1,-0.0008309,-9.9179e-11,0,2.3517e-05,-0.00018418,-3.3795e+08,-33.966,0,9.6131e+06,-35.075,11202,11683,1,11683,1,-0.00039357,1.2259e-11,0,0.00023549,-0.00010223,-1.6006e+08,3.5334,0,8.4165e+07,-2.6528,11682,12593,1,12593,1,0.00054838,3.7425e-10,0,0.00070646,7.4019e-05,1.6187e+08,107.85,0,2.3577e+08,7.1066,12592,527.79,0,527.79,0,0.00054363,2.5124e-10,0,0.00027684,0.00010176,1.8594e+08,72.734,0,9.2352e+07,8.7276,527.79,1
1820,3.32,12139,1,12139,1,7.7637e-05,6.6851e-10,0,0.00047551,-1.4125e-05,-1.6829,194.16,0,1.6182e+08,1.8259,12138,13096,1,13096,1,0.00098866,3.2172e-09,0,0.00098866,0.00015642,2.8094e+08,888.71,0,3.3896e+08,67.077,13095,12138,1,12138,1,7.7637e-05,5.1519e-10,0,0.00047238,-1.4029e-05,2.5205e+07,152.82,0,1.6236e+08,2.9226,12137,11203,1,11203,1,-0.00083339,-5.9499e-10,0,2.3587e-05,-0.00018473,-3.3896e+08,-174.89,0,9.6415e+06,-72.223,11202,11683,1,11683,1,-0.00039474,6.5629e-12,0,0.00023619,-0.00010253,-1.6054e+08,1.8822,0,8.4417e+07,-8.9234,11682,12593,1,12593,1,0.00055002,1.1771e-09,0,0.00070857,7.424e-05,1.6236e+08,348.84,0,2.3648e+08,19.825,12592,527.79,0,527.79,0,0.00054526,7.9116e-10,0,0.00027767,0.00010206,1.865e+08,229.66,0,9.2628e+07,25.108,527.79,1
1820,3.33,12139,1,12139,1,7.7874e-05,1.9501e-09,0,0.00047695,-1.4168e-05,56.531,562.39,0,1.6231e+08,-0.028286,12138,13096,1,13096,1,0.00099166,5.1557e-09,0,0.00099166,0.00015689,2.8178e+08,1369.9,0,3.3999e+08,115.66,13095,12138,1,12138,1,7.7874e-05,1.9288e-09,0,0.0004738,-1.4071e-05,2.5282e+07,564.35,0,1.6285e+08,-5.6258,12137,11203,1,11203,1,-0.00083591,-9.0556e-10,0,2.3654e-05,-0.00018529,-3.3999e+08,-310.12,0,9.669e+06,-125.79,11202,11683,1,11683,1,-0.00039593,6.5407e-10,0,0.0002369,-0.00010284,-1.6102e+08,194.97,0,8.4671e+07,-30.727,11682,12593,1,12593,1,0.00055168,3.1529e-09,0,0.0007107,7.4463e-05,1.6285e+08,934.06,0,2.3719e+08,37.98,12592,527.79,0,527.79,0,0.0005469,1.5604e-09,0,0.0002785,0.00010237,1.8706e+08,442.68,0,9.2905e+07,52.429,527.79,1
1820,3.34,12139,1,12139,1,7.8119e-05,-1.2588e-09,0,0.00047838,-1.4212e-05,27.883,-362.3,0,1.6279e+08,-6.4798,12138,13096,1,13096,1,0.00099465,6.6419e-10,0,0.00099465,0.00015736,2.8258e+08,227.46,0,3.41e+08,98.679,13095,12138,1,12138,1,7.8119e-05,-1.2732e-09,0,0.00047523,-1.4116e-05,2.5361e+07,-367.66,0,1.6334e+08,-6.4199,12137,11203,1,11203,1,-0.00083841,-3.3031e-09,0,2.3715e-05,-0.00018585,-3.41e+08,-912.19,0,9.6941e+06,-108.7,11202,11683,1,11683,1,-0.00039711,-2.1486e-09,0,0.00023761,-0.00010315,-1.615e+08,-621.38,0,8.4925e+07,-26.43,11682,12593,1,12593,1,0.00055335,-3.118e-10,0,0.00071284,7.4685e-05,1.6334e+08,-93.095,0,2.3789e+08,14.142,12592,527.79,0,527.79,0,0.00054855,1.0661e-09,0,0.00027934,0.00010268,1.8761e+08,304.48,0,9.3181e+07,37.045,527.79,1
1820,3.35,12139,1,12139,1,7.8365e-05,-1.3454e-09,0,0.00047983,-1.4257e-05,-168.46,-387.57,0,1.6328e+08,6.6528,12138,13096,1,13096,1,0.00099766,7.8798e-10,0,0.00099766,0.00015784,2.8338e+08,269.85,0,3.4203e+08,110.94,13095,12138,1,12138,1,7.8364e-05,-1.3068e-09,0,0.00047666,-1.416e-05,2.5441e+07,-377.28,0,1.6384e+08,5.7144,12137,11203,1,11203,1,-0.00084093,-3.9207e-09,0,2.3777e-05,-0.00018641,-3.4203e+08,-1077.6,0,9.7195e+06,-126.99,11202,11683,1,11683,1,-0.0003983,-2.2442e-09,0,0.00023833,-0.00010347,-1.6199e+08,-668.06,0,8.5181e+07,-11.061,11682,12593,1,12593,1,0.00055503,-3.9406e-10,0,0.000715,7.4909e-05,1.6384e+08,-112.69,0,2.386e+08,27.277,12592,527.79,0,527.79,0,0.0005502,1.1894e-09,0,0.00028019,0.00010299,1.8817e+08,340.06,0,9.3457e+07,36.924,527.79,1
1820,3.36,12139,1,12139,1,7.861e-05,7.3508e-10,0,0.00048126,-1.4302e-05,-2.7933,211.54,0,1.6376e+08,-0.59232,12138,13096,1,13096,1,0.0010006,2.3283e-09,0,0.0010006,0.0001583,2.8418e+08,625.18,0,3.4304e+08,46.8,13095,12138,1,12138,1,7.861e-05,6.4432e-10,0,0.00047809,-1.4205e-05,2.5521e+07,189.27,0,1.6433e+08,-0.59934,12137,11203,1,11203,1,-0.00084342,-1.9863e-10,0,2.3837e-05,-0.00018697,-3.4304e+08,-68.022,0,9.7443e+06,-49.64,11202,11683,1,11683,1,-0.00039948,2.0691e-10,0,0.00023904,-0.00010378,-1.6247e+08,58.746,0,8.5435e+07,-11.105,11682,12593,1,12593,1,0.0005567,1.1712e-09,0,0.00071713,7.5131e-05,1.6433e+08,344.4,0,2.3931e+08,10.704,12592,527.79,0,527.79,0,0.00055185,6.1905e-10,0,0.00028103,0.00010329,1.8873e+08,175.88,0,9.3732e+07,17.492,527.79,1
1820,3.37,12139,1,12139,1,7.8853e-05,-4.6725e-10,0,0.00048269,-1.4346e-05,39.229,-134.03,0,1.6424e+08,-9.3107,12138,13096,1,13096,1,0.0010036,6.3109e-10,0,0.0010036,0.00015877,2.8497e+08,194.81,0,3.4405e+08,89.168,13095,12138,1,12138,1,7.8853e-05,-4.1183e-10,0,0.0004795,-1.4249e-05,2.56e+07,-118.23,0,1.6482e+08,-6.5699,12137,11203,1,11203,1,-0.0008459,-1.5893e-09,0,2.3897e-05,-0.00018752,-3.4405e+08,-437.05,0,9.7688e+06,-115.53,11202,11683,1,11683,1,-0.00040065,-7.9862e-10,0,0.00023975,-0.00010409,-1.6294e+08,-229.74,0,8.5687e+07,-22.52,11682,12593,1,12593,1,0.00055835,-1.1632e-10,0,0.00071925,7.5351e-05,1.6482e+08,-34.389,0,2.4001e+08,11.168,12592,527.79,0,527.79,0,0.00055348,4.7019e-10,0,0.00028186,0.0001036,1.8928e+08,134.65,0,9.4004e+07,32.256,527.79,1
1820,3.38,12139,1,12139,1,7.9097e-05,-3.1998e-09,0,0.00048412,-1.439e-05,32.879,-926.61,0,1.6473e+08,15.813,12138,13096,1,13096,1,0.0010066,1.4511e-09,0,0.0010066,0.00015924,2.8577e+08,416.32,0,3.4508e+08,276.73,13095,12138,1,12138,1,7.9096e-05,-2.9655e-09,0,0.00048092,-1.4293e-05,2.5679e+07,-877.34,0,1.6531e+08,4.5833,12137,11203,1,11203,1,-0.00084843,-8.9658e-09,0,2.3957e-05,-0.00018808,-3.4508e+08,-2467.3,0,9.7935e+06,-229.76,11202,11683,1,11683,1,-0.00040182,-5.621e-09,0,0.00024046,-0.0001044,-1.6342e+08,-1686.6,0,8.594e+07,-27.71,11682,12593,1,12593,1,0.00056002,-5.5072e-10,0,0.00072138,7.5572e-05,1.6531e+08,-141.96,0,2.4071e+08,43.762,12592,527.79,0,527.79,0,0.00055512,2.8848e-09,0,0.0002827,0.00010391,1.8984e+08,829.23,0,9.4278e+07,86.701,527.79,1
1820,3.39,12139,1,12139,1,7.9341e-05,-5.2137e-09,0,0.00048555,-1.4435e-05,-33.047,-1507.3,0,1.6521e+08,7.7289,12138,13096,1,13096,1,0.0010096,2.2933e-09,0,0.0010096,0.00015972,2.8657e+08,785.34,0,3.461e+08,396.86,13095,12138,1,12138,1,7.9339e-05,-5.2442e-09,0,0.00048234,-1.4337e-05,2.5758e+07,-1506.7,0,1.658e+08,-8.0237,12137,11203,1,11203,1,-0.00085094,-1.3256e-08,0,2.4017e-05,-0.00018864,-3.461e+08,-3650.2,0,9.8182e+06,-367.44,11202,11683,1,11683,1,-0.000403,-8.687e-09,0,0.00024117,-0.00010471,-1.639e+08,-2554.3,0,8.6194e+07,-62.362,11682,12593,1,12593,1,0.00056168,-1.468e-09,0,0.00072351,7.5793e-05,1.658e+08,-451.62,0,2.4142e+08,77.283,12592,527.79,0,527.79,0,0.00055676,4.2547e-09,0,0.00028353,0.00010421,1.9039e+08,1218.7,0,9.4551e+07,136.07,527.79,1
1820,3.4,12139,1,12139,1,7.9592e-05,-1.3449e-09,0,0.00048702,-1.4481e-05,20.749,-390.51,0,1.6571e+08,-7.5219,12138,13096,1,13096,1,0.0010127,6.6636e-10,0,0.0010127,0.00016019,2.8738e+08,228.2,0,3.4713e+08,104.99,13095,12138,1,12138,1,7.9591e-05,-1.365e-09,0,0.0004838,-1.4383e-05,2.584e+07,-404.92,0,1.6631e+08,-4.5551,12137,11203,1,11203,1,-0.00085347,-3.5568e-09,0,2.408e-05,-0.00018921,-3.4713e+08,-986.08,0,9.8439e+06,-121.78,11202,11683,1,11683,1,-0.00040421,-2.2257e-09,0,0.0002419,-0.00010503,-1.6439e+08,-648.86,0,8.6454e+07,-31.4,11682,12593,1,12593,1,0.00056339,-4.5229e-10,0,0.0007257,7.6021e-05,1.6631e+08,-135.18,0,2.4214e+08,15.531,12592,527.79,0,527.79,0,0.00055844,1.0795e-09,0,0.00028439,0.00010453,1.9096e+08,309.57,0,9.4833e+07,40.703,527.79,1
1820,3.41,12139,1,12139,1,7.9835e-05,-1.899e-09,0,0.00048844,-1.4525e-05,72.379,-550.24,0,1.6619e+08,5.5822,12138,13096,1,13096,1,0.0010156,6.3155e-10,0,0.0010156,0.00016066,2.8816e+08,216.28,0,3.4814e+08,114.13,13095,12138,1,12138,1,7.9835e-05,-1.8362e-09,0,0.00048522,-1.4427e-05,2.5919e+07,-526.78,0,1.6679e+08,6.2058,12137,11203,1,11203,1,-0.00085595,-4.9078e-09,0,2.4139e-05,-0.00018976,-3.4814e+08,-1365.1,0,9.8682e+06,-102.58,11202,11683,1,11683,1,-0.00040538,-3.0872e-09,0,0.00024261,-0.00010534,-1.6487e+08,-921.34,0,8.6706e+07,-11.209,11682,12593,1,12593,1,0.00056505,-6.4429e-10,0,0.00072782,7.6241e-05,1.6679e+08,-191.53,0,2.4284e+08,23.349,12592,527.79,0,527.79,0,0.00056007,1.4767e-09,0,0.00028523,0.00010483,1.9151e+08,423.73,0,9.5105e+07,36.187,527.79,1
1820,3.42,12139,1,12139,1,8.0077e-05,-3.3841e-09,0,0.00048985,-1.4569e-05,143.29,-976.88,0,1.6666e+08,4.8527,12138,13096,1,13096,1,0.0010186,4.469e-09,0,0.0010186,0.00016112,2.8896e+08,1249,0,3.4915e+08,402.72,13095,12138,1,12138,1,8.0076e-05,-2.8593e-09,0,0.00048662,-1.447e-05,2.5997e+07,-816.79,0,1.6728e+08,-1.1262,12137,11203,1,11203,1,-0.00085845,-1.2248e-08,0,2.4197e-05,-0.00019032,-3.4915e+08,-3369.3,0,9.8923e+06,-330.01,11202,11683,1,11683,1,-0.00040654,-6.846e-09,0,0.00024331,-0.00010564,-1.6534e+08,-2061.1,0,8.6957e+07,-57.109,11682,12593,1,12593,1,0.0005667,3.0246e-10,0,0.00072993,7.6459e-05,1.6728e+08,86.604,0,2.4354e+08,66.867,12592,527.79,0,527.79,0,0.00056169,4.1443e-09,0,0.00028605,0.00010514,1.9206e+08,1193.1,0,9.5375e+07,126.81,527.79,1
1820,3.43,12139,1,12139,1,8.0328e-05,-8.1041e-10,0,0.00049133,-1.4615e-05,31.137,-234.73,0,1.6716e+08,-9.4622,12138,13096,1,13096,1,0.0010216,6.0064e-10,0,0.0010216,0.0001616,2.8976e+08,200.04,0,3.5018e+08,68.063,13095,12138,1,12138,1,8.0328e-05,-8.3296e-10,0,0.00048808,-1.4516e-05,2.6079e+07,-245.01,0,1.6779e+08,-5.658,12137,11203,1,11203,1,-0.00086098,-2.375e-09,0,2.426e-05,-0.00019089,-3.5018e+08,-658.18,0,9.9181e+06,-116.42,11202,11683,1,11683,1,-0.00040775,-1.4408e-09,0,0.00024404,-0.00010596,-1.6583e+08,-425.59,0,8.7217e+07,-23.782,11682,12593,1,12593,1,0.00056841,-1.4467e-10,0,0.00073212,7.6687e-05,1.6779e+08,-42.296,0,2.4426e+08,10.847,12592,527.79,0,527.79,0,0.00056338,7.7305e-10,0,0.00028691,0.00010545,1.9263e+08,221.59,0,9.5657e+07,34.58,527.79,1
1820,3.44,12139,1,12139,1,8.057e-05,-1.6544e-09,0,0.00049274,-1.4659e-05,-102.6,-478.04,0,1.6764e+08,3.9136,12138,13096,1,13096,1,0.0010246,1.0195e-09,0,0.0010246,0.00016206,2.9055e+08,294,0,3.5119e+08,146.61,13095,12138,1,12138,1,8.057e-05,-1.6045e-09,0,0.00048949,-1.456e-05,2.6157e+07,-463.15,0,1.6827e+08,-0.087652,12137,11203,1,11203,1,-0.00086346,-4.803e-09,0,2.4319e-05,-0.00019144,-3.5119e+08,-1323.1,0,9.9424e+06,-157.11,11202,11683,1,11683,1,-0.00040892,-2.9796e-09,0,0.00024474,-0.00010627,-1.663e+08,-895.87,0,8.7468e+07,-16.848,11682,12593,1,12593,1,0.00057006,-1.9653e-10,0,0.00073423,7.6906e-05,1.6827e+08,-56.587,0,2.4496e+08,29.176,12592,527.79,0,527.79,0,0.000565,1.5988e-09,0,0.00028774,0.00010576,1.9318e+08,459.17,0,9.5927e+07,50.693,527.79,1
1820,3.45,12139,1,12139,1,8.0817e-05,-9.2515e-10,0,0.00049419,-1.4704e-05,-72.68,-266.09,0,1.6812e+08,-9.8174,12138,13096,1,13096,1,0.0010276,9.0052e-10,0,0.0010276,0.00016254,2.9135e+08,301.97,0,3.5221e+08,118.04,13095,12138,1,12138,1,8.0817e-05,-8.9458e-10,0,0.00049092,-1.4605e-05,2.6237e+07,-265.18,0,1.6877e+08,-8.9935,12137,11203,1,11203,1,-0.00086597,-3.231e-09,0,2.438e-05,-0.000192,-3.5221e+08,-863.67,0,9.9672e+06,-148.58,11202,11683,1,11683,1,-0.0004101,-1.3739e-09,0,0.00024546,-0.00010658,-1.6679e+08,-392.01,0,8.7724e+07,-32.328,11682,12593,1,12593,1,0.00057174,-3.2551e-10,0,0.00073638,7.7129e-05,1.6877e+08,-90.327,0,2.4567e+08,10.712,12592,527.79,0,527.79,0,0.00056666,8.4761e-10,0,0.00028859,0.00010607,1.9374e+08,238.26,0,9.6204e+07,39.954,527.79,1
1820,3.46,12139,1,12139,1,8.1061e-05,-2.1668e-09,0,0.00049561,-1.4748e-05,-71.635,-627.08,0,1.686e+08,16.279,12138,13096,1,13096,1,0.0010306,2.6926e-09,0,0.0010306,0.00016301,2.9214e+08,732.51,0,3.5323e+08,196.47,13095,12138,1,12138,1,8.1061e-05,-1.6967e-09,0,0.00049234,-1.4649e-05,2.6317e+07,-492.49,0,1.6926e+08,16.043,12137,11203,1,11203,1,-0.00086847,-7.8934e-09,0,2.4439e-05,-0.00019256,-3.5323e+08,-2168,0,9.9916e+06,-160.04,11202,11683,1,11683,1,-0.00041127,-4.3553e-09,0,0.00024617,-0.00010689,-1.6726e+08,-1301.7,0,8.7976e+07,-27.791,11682,12593,1,12593,1,0.0005734,1.7099e-10,0,0.00073851,7.7349e-05,1.6926e+08,47.512,0,2.4637e+08,61.424,12592,527.79,0,527.79,0,0.00056829,2.6284e-09,0,0.00028942,0.00010637,1.9429e+08,756.94,0,9.6475e+07,67.741,527.79,1
1820,3.47,12139,1,12139,1,8.1312e-05,1.7755e-09,0,0.00049708,-1.4794e-05,-75.222,511.99,0,1.691e+08,-14.047,12138,13096,1,13096,1,0.0010336,5.0416e-09,0,0.0010336,0.00016348,2.9295e+08,1382.5,0,3.5426e+08,72.12,13095,12138,1,12138,1,8.1311e-05,1.7074e-09,0,0.00049379,-1.4694e-05,2.6398e+07,493.81,0,1.6976e+08,-12.171,12137,11203,1,11203,1,-0.00087101,-1.057e-09,0,2.45e-05,-0.00019313,-3.5426e+08,-361.97,0,1.0017e+07,-115.65,11202,11683,1,11683,1,-0.00041248,7.7741e-10,0,0.00024689,-0.00010721,-1.6775e+08,227.43,0,8.8235e+07,-28.43,11682,12593,1,12593,1,0.0005751,2.6226e-09,0,0.00074068,7.7575e-05,1.6976e+08,775.44,0,2.4709e+08,7.1362,12592,527.79,0,527.79,0,0.00056997,1.3666e-09,0,0.00029028,0.00010669,1.9486e+08,389.31,0,9.6756e+07,31.725,527.79,1
1820,3.48,12139,1,12139,1,8.1556e-05,-5.9845e-10,0,0.0004985,-1.4838e-05,32.187,-171.19,0,1.6958e+08,-11.116,12138,13096,1,13096,1,0.0010366,4.7866e-10,0,0.0010366,0.00016395,2.9373e+08,163.92,0,3.5527e+08,49.359,13095,12138,1,12138,1,8.1556e-05,-5.9295e-10,0,0.0004952,-1.4738e-05,2.6477e+07,-172.86,0,1.7025e+08,-6.3048,12137,11203,1,11203,1,-0.00087349,-1.7079e-09,0,2.4558e-05,-0.00019368,-3.5527e+08,-469.75,0,1.0041e+07,-150.65,11202,11683,1,11683,1,-0.00041365,-1.0408e-09,0,0.0002476,-0.00010752,-1.6823e+08,-307.74,0,8.8487e+07,-23.171,11682,12593,1,12593,1,0.00057676,-1.6308e-10,0,0.0007428,7.7795e-05,1.7025e+08,-47.929,0,2.4779e+08,8.9245,12592,527.79,0,527.79,0,0.0005716,5.5362e-10,0,0.00029111,0.00010699,1.9541e+08,157.34,0,9.7028e+07,31.323,527.79,1
1820,3.49,12139,1,12139,1,8.1803e-05,-1.6397e-09,0,0.00049994,-1.4883e-05,85.427,-474.03,0,1.7006e+08,-5.3291,12138,13096,1,13096,1,0.0010396,1.2476e-09,0,0.0010396,0.00016442,2.9453e+08,352.3,0,3.563e+08,209.86,13095,12138,1,12138,1,8.1802e-05,-1.6276e-09,0,0.00049663,-1.4783e-05,2.6557e+07,-477.65,0,1.7075e+08,-5.0911,12137,11203,1,11203,1,-0.00087601,-4.887e-09,0,2.4618e-05,-0.00019424,-3.563e+08,-1351.8,0,1.0065e+07,-198.97,11202,11683,1,11683,1,-0.00041483,-2.9032e-09,0,0.00024832,-0.00010783,-1.6871e+08,-842.54,0,8.8742e+07,-49.541,11682,12593,1,12593,1,0.00057844,-2.3915e-10,0,0.00074495,7.8018e-05,1.7075e+08,-65.194,0,2.4849e+08,26.108,12592,527.79,0,527.79,0,0.00057325,1.558e-09,0,0.00029195,0.0001073,1.9597e+08,446.92,0,9.7302e+07,68.287,527.79,1
1820,3.5,12139,1,12139,1,8.2049e-05,-1.6282e-09,0,0.00050138,-1.4928e-05,-29.458,-471.44,0,1.7055e+08,7.793,12138,13096,1,13096,1,0.0010426,7.7654e-10,0,0.0010426,0.00016489,2.9532e+08,265.93,0,3.5731e+08,128.63,13095,12138,1,12138,1,8.2048e-05,-1.5232e-09,0,0.00049806,-1.4828e-05,2.6637e+07,-446.16,0,1.7124e+08,4.7276,12137,11203,1,11203,1,-0.00087851,-4.7236e-09,0,2.4678e-05,-0.0001948,-3.5731e+08,-1301,0,1.009e+07,-111.53,11202,11683,1,11683,1,-0.00041601,-2.8596e-09,0,0.00024903,-0.00010814,-1.6919e+08,-857.74,0,8.8997e+07,-13.756,11682,12593,1,12593,1,0.00058011,-2.5802e-10,0,0.00074709,7.824e-05,1.7124e+08,-73.956,0,2.492e+08,28.783,12592,527.79,0,527.79,0,0.0005749,1.506e-09,0,0.00029279,0.00010761,1.9653e+08,432.72,0,9.7577e+07,45.073,527.79,1
1820,3.51,12139,1,12139,1,8.2294e-05,-1.0297e-09,0,0.00050281,-1.4973e-05,-11.167,-298.12,0,1.7103e+08,-0.10994,12138,13096,1,13096,1,0.0010456,2.9218e-09,0,0.0010456,0.00016536,2.9611e+08,795.04,0,3.5833e+08,118.69,13095,12138,1,12138,1,8.2294e-05,-6.4723e-10,0,0.00049948,-1.4872e-05,2.6717e+07,-191.66,0,1.7173e+08,0.17613,12137,11203,1,11203,1,-0.00088101,-5.0372e-09,0,2.4737e-05,-0.00019536,-3.5833e+08,-1384.7,0,1.0114e+07,-133.91,11202,11683,1,11683,1,-0.00041719,-2.4033e-09,0,0.00024974,-0.00010845,-1.6967e+08,-713.17,0,8.925e+07,-32.312,11682,12593,1,12593,1,0.00058178,3.056e-10,0,0.00074922,7.8461e-05,1.7173e+08,90.64,0,2.4991e+08,33.561,12592,527.79,0,527.79,0,0.00057654,1.7931e-09,0,0.00029363,0.00010792,1.9708e+08,517.59,0,9.785e+07,48.745,527.79,1
1820,3.52,12139,1,12139,1,8.2547e-05,-2.1836e-09,0,0.00050425,-1.5019e-05,148.55,-631.98,0,1.7151e+08,5.4327,12138,13096,1,13096,1,0.0010486,1.1238e-09,0,0.0010486,0.00016583,2.9689e+08,384.85,0,3.5935e+08,146.06,13095,12138,1,12138,1,8.2547e-05,-1.6732e-09,0,0.00050091,-1.4918e-05,2.6799e+07,-477.76,0,1.7223e+08,1.6709,12137,11203,1,11203,1,-0.00088351,-7.6491e-09,0,2.479e-05,-0.00019592,-3.5935e+08,-2110.1,0,1.0136e+07,-168.85,11202,11683,1,11683,1,-0.00041836,-4.0582e-09,0,0.00025045,-0.00010877,-1.7015e+08,-1202,0,8.9504e+07,-36.866,11682,12593,1,12593,1,0.00058346,-9.8632e-11,0,0.00075136,7.8682e-05,1.7223e+08,-26.849,0,2.506e+08,49.838,12592,527.79,0,527.79,0,0.00057819,2.3425e-09,0,0.00029447,0.00010822,1.9764e+08,674.64,0,9.8122e+07,59.51,527.79,1
1820,3.53,12139,1,12139,1,8.2808e-05,-1.5829e-09,0,0.0005057,-1.5066e-05,24.169,-460.08,0,1.7199e+08,4.6959,12138,13096,1,13096,1,0.0010516,7.031e-10,0,0.0010516,0.0001663,2.9765e+08,240.78,0,3.6037e+08,125.68,13095,12138,1,12138,1,8.2808e-05,-1.5656e-09,0,0.00050235,-1.4965e-05,2.6884e+07,-452.89,0,1.7273e+08,0.54777,12137,11203,1,11203,1,-0.00088602,-4.3035e-09,0,2.4837e-05,-0.00019649,-3.6037e+08,-1188.3,0,1.0156e+07,-102.97,11202,11683,1,11683,1,-0.00041954,-2.6822e-09,0,0.00025117,-0.00010908,-1.7062e+08,-803.54,0,8.976e+07,-15.091,11682,12593,1,12593,1,0.00058515,-4.112e-10,0,0.00075352,7.8903e-05,1.7273e+08,-116.98,0,2.513e+08,23.352,12592,527.79,0,527.79,0,0.00057985,1.3323e-09,0,0.00029532,0.00010853,1.9819e+08,383.38,0,9.8393e+07,39.607,527.79,1
1820,3.54,12139,1,12139,1,8.3067e-05,4.6626e-10,0,0.00050713,-1.5113e-05,102.78,130.49,0,1.7247e+08,-10.335,12138,13096,1,13096,1,0.0010546,5.5853e-09,0,0.0010546,0.00016676,2.984e+08,1517,0,3.6137e+08,82.693,13095,12138,1,12138,1,8.3066e-05,8.065e-12,0,0.00050376,-1.5012e-05,2.6968e+07,1.9475,0,1.7322e+08,-7.9487,12137,11203,1,11203,1,-0.00088849,-2.8989e-09,0,2.4883e-05,-0.00019704,-3.6137e+08,-819.21,0,1.0175e+07,-154.51,11202,11683,1,11683,1,-0.0004207,-7.7435e-10,0,0.00025188,-0.0001094,-1.711e+08,-227.42,0,9.0012e+07,-47.077,11682,12593,1,12593,1,0.00058683,1.5453e-09,0,0.00075565,7.9122e-05,1.7322e+08,446.99,0,2.5198e+08,29.314,12592,527.79,0,527.79,0,0.00058148,1.7817e-09,0,0.00029616,0.00010884,1.9874e+08,515.19,0,9.866e+07,51.26,527.79,1
1820,3.55,12139,1,12139,1,8.3329e-05,-2.412e-09,0,0.00050858,-1.5161e-05,99.662,-696.16,0,1.7296e+08,8.982,12138,13096,1,13096,1,0.0010577,1.244e-09,0,0.0010577,0.00016724,2.9917e+08,426.01,0,3.6241e+08,171.15,13095,12138,1,12138,1,8.3329e-05,-2.0854e-09,0,0.00050521,-1.506e-05,2.7053e+07,-613.15,0,1.7373e+08,7.4925,12137,11203,1,11203,1,-0.00089103,-7.6455e-09,0,2.4929e-05,-0.00019762,-3.6241e+08,-2104.7,0,1.0194e+07,-199.82,11202,11683,1,11683,1,-0.00042188,-4.2653e-09,0,0.00025261,-0.00010971,-1.7158e+08,-1269.4,0,9.027e+07,-30.748,11682,12593,1,12593,1,0.00058854,-3.8129e-10,0,0.00075782,7.9344e-05,1.7373e+08,-114.76,0,2.5268e+08,53.56,12592,527.79,0,527.79,0,0.00058315,2.2919e-09,0,0.00029701,0.00010915,1.9929e+08,656.99,0,9.8933e+07,63.12,527.79,1
1820,3.56,12139,1,12139,1,8.3591e-05,-1.0866e-09,0,0.00051003,-1.5209e-05,56.058,-316.93,0,1.7344e+08,-0.65622,12138,13096,1,13096,1,0.0010607,4.4928e-10,0,0.0010607,0.00016771,2.9993e+08,149.96,0,3.6342e+08,90.359,13095,12138,1,12138,1,8.3591e-05,-1.0727e-09,0,0.00050665,-1.5107e-05,2.7138e+07,-318.01,0,1.7423e+08,-2.3261,12137,11203,1,11203,1,-0.00089352,-2.924e-09,0,2.4976e-05,-0.00019818,-3.6342e+08,-808.96,0,1.0213e+07,-83.817,11202,11683,1,11683,1,-0.00042305,-1.8554e-09,0,0.00025332,-0.00011003,-1.7205e+08,-551.7,0,9.0525e+07,-13.139,11682,12593,1,12593,1,0.00059024,-2.7381e-10,0,0.00075997,7.9565e-05,1.7423e+08,-77.099,0,2.5337e+08,11.715,12592,527.79,0,527.79,0,0.00058481,9.17e-10,0,0.00029786,0.00010946,1.9985e+08,264.83,0,9.9204e+07,27.33,527.79,1
1820,3.57,12139,1,12139,1,8.3849e-05,1.351e-09,0,0.00051146,-1.5256e-05,43.377,386.89,0,1.7391e+08,-14.932,12138,13096,1,13096,1,0.0010637,3.9535e-09,0,0.0010637,0.00016817,3.0068e+08,1047.8,0,3.6443e+08,179.88,13095,12138,1,12138,1,8.3849e-05,1.3333e-09,0,0.00050806,-1.5154e-05,2.7222e+07,394.51,0,1.7472e+08,-21.023,12137,11203,1,11203,1,-0.00089599,-1.2597e-09,0,2.502e-05,-0.00019874,-3.6443e+08,-377.5,0,1.0232e+07,-143.07,11202,11683,1,11683,1,-0.00042421,1.1821e-10,0,0.00025403,-0.00011034,-1.7253e+08,34.051,0,9.0776e+07,-50.63,11682,12593,1,12593,1,0.00059191,2.4934e-09,0,0.00076209,7.9782e-05,1.7472e+08,739.14,0,2.5405e+08,16.23,12592,527.79,0,527.79,0,0.00058644,1.3715e-09,0,0.0002987,0.00010977,2.0039e+08,392.17,0,9.947e+07,55.315,527.79,1
1820,3.58,12139,1,12139,1,8.4109e-05,-2.939e-09,0,0.00051289,-1.5303e-05,8.5381,-848.29,0,1.7439e+08,42.544,12138,13096,1,13096,1,0.0010667,4.0901e-09,0,0.0010667,0.00016864,3.0144e+08,1152.2,0,3.6544e+08,259.36,13095,12138,1,12138,1,8.4109e-05,-1.9577e-09,0,0.00050949,-1.5201e-05,2.7307e+07,-557.61,0,1.7522e+08,25.853,12137,11203,1,11203,1,-0.0008985,-1.2059e-08,0,2.5066e-05,-0.0001993,-3.6544e+08,-3313.5,0,1.0251e+07,-147.96,11202,11683,1,11683,1,-0.00042538,-6.0626e-09,0,0.00025474,-0.00011066,-1.73e+08,-1776.2,0,9.103e+07,-41.826,11682,12593,1,12593,1,0.0005936,3.3375e-10,0,0.00076423,8.0002e-05,1.7522e+08,93.902,0,2.5473e+08,134.1,12592,527.79,0,527.79,0,0.00058809,4.0162e-09,0,0.00029954,0.00011008,2.0094e+08,1156.3,0,9.9738e+07,97.669,527.79,1
1820,3.59,12139,1,12139,1,8.4373e-05,-1.1512e-09,0,0.00051435,-1.5351e-05,54.493,-335.91,0,1.7488e+08,6.4068,12138,13096,1,13096,1,0.0010698,3.1803e-09,0,0.0010698,0.00016911,3.0219e+08,865.81,0,3.6646e+08,141.21,13095,12138,1,12138,1,8.4373e-05,-7.2864e-10,0,0.00051093,-1.525e-05,2.7392e+07,-203.8,0,1.7572e+08,-0.63967,12137,11203,1,11203,1,-0.00090101,-5.5519e-09,0,2.5112e-05,-0.00019987,-3.6646e+08,-1532.4,0,1.027e+07,-116.27,11202,11683,1,11683,1,-0.00042656,-2.7039e-09,0,0.00025547,-0.00011098,-1.7348e+08,-800.32,0,9.1287e+07,-32.749,11682,12593,1,12593,1,0.0005953,2.9824e-10,0,0.0007664,8.0224e-05,1.7572e+08,85.33,0,2.5543e+08,47.449,12592,527.79,0,527.79,0,0.00058975,1.9992e-09,0,0.00030039,0.00011039,2.015e+08,579.56,0,1.0001e+08,50.255,527.79,1
1820,3.6,12139,1,12139,1,8.4633e-05,-5.7605e-10,0,0.00051578,-1.5399e-05,56.256,-168.01,0,1.7535e+08,21.099,12138,13096,1,13096,1,0.0010728,6.1317e-09,0,0.0010728,0.00016958,3.0294e+08,1669.6,0,3.6747e+08,166,13095,12138,1,12138,1,8.4633e-05,-9.5563e-11,0,0.00051235,-1.5297e-05,2.7477e+07,-25.644,0,1.7622e+08,11.473,12137,11203,1,11203,1,-0.00090348,-6.9935e-09,0,2.5156e-05,-0.00020043,-3.6747e+08,-1931.8,0,1.0289e+07,-115.38,11202,11683,1,11683,1,-0.00042772,-2.5642e-09,0,0.00025618,-0.00011129,-1.7395e+08,-747.67,0,9.154e+07,-32.806,11682,12593,1,12593,1,0.00059698,1.1793e-09,0,0.00076853,8.0442e-05,1.7622e+08,346.31,0,2.5611e+08,77.757,12592,527.79,0,527.79,0,0.00059139,2.8497e-09,0,0.00030123,0.0001107,2.0204e+08,825.14,0,1.0028e+08,67.937,527.79,1
1820,3.61,12139,1,12139,1,8.4896e-05,-5.9629e-10,0,0.00051723,-1.5447e-05,132.31,-175.38,0,1.7584e+08,9.0894,12138,13096,1,13096,1,0.0010758,1.3109e-09,0,0.0010758,0.00017005,3.037e+08,373.9,0,3.6849e+08,161.98,13095,12138,1,12138,1,8.4896e-05,-3.691e-10,0,0.00051379,-1.5344e-05,2.7562e+07,-106.2,0,1.7672e+08,7.6596,12137,11203,1,11203,1,-0.00090599,-3.4143e-09,0,2.5201e-05,-0.00020099,-3.6849e+08,-955.94,0,1.0307e+07,-75.539,11202,11683,1,11683,1,-0.00042889,-1.443e-09,0,0.00025689,-0.00011161,-1.7443e+08,-421.12,0,9.1795e+07,-16.146,11682,12593,1,12593,1,0.00059869,2.2925e-10,0,0.00077068,8.0663e-05,1.7672e+08,67.852,0,2.568e+08,33.867,12592,527.79,0,527.79,0,0.00059306,1.0991e-09,0,0.00030208,0.00011101,2.026e+08,322.85,0,1.0055e+08,37.377,527.79,1
1820,3.62,12139,1,12139,1,8.516e-05,-1.5398e-09,0,0.00051869,-1.5495e-05,31.066,-445.23,0,1.7632e+08,18.055,12138,13096,1,13096,1,0.0010788,6.7427e-10,0,0.0010788,0.00017052,3.0446e+08,230.91,0,3.6952e+08,120.75,13095,12138,1,12138,1,8.516e-05,-1.6065e-09,0,0.00051523,-1.5392e-05,2.7648e+07,-482.08,0,1.7723e+08,12.122,12137,11203,1,11203,1,-0.00090852,-4.2423e-09,0,2.5246e-05,-0.00020156,-3.6952e+08,-1169.9,0,1.0326e+07,-55.578,11202,11683,1,11683,1,-0.00043007,-2.3252e-09,0,0.00025762,-0.00011192,-1.7491e+08,-654.29,0,9.2052e+07,-3.5979,11682,12593,1,12593,1,0.00060039,-6.4639e-10,0,0.00077285,8.0885e-05,1.7723e+08,-183.58,0,2.575e+08,33.736,12592,527.79,0,527.79,0,0.00059472,1.1645e-09,0,0.00030293,0.00011132,2.0315e+08,332.95,0,1.0082e+08,31.383,527.79,1
1820,3.63,12139,1,12139,1,8.5423e-05,-2.0332e-09,0,0.00052013,-1.5543e-05,37.266,-588.58,0,1.768e+08,17.838,12138,13096,1,13096,1,0.0010819,1.0822e-09,0,0.0010819,0.00017099,3.0522e+08,370.6,0,3.7054e+08,147.43,13095,12138,1,12138,1,8.5423e-05,-2.0363e-09,0,0.00051667,-1.544e-05,2.7733e+07,-600.02,0,1.7773e+08,12.546,12137,11203,1,11203,1,-0.00091103,-5.6808e-09,0,2.5291e-05,-0.00020213,-3.7054e+08,-1563.4,0,1.0344e+07,-175.95,11202,11683,1,11683,1,-0.00043124,-3.2844e-09,0,0.00025833,-0.00011224,-1.7539e+08,-977.43,0,9.2307e+07,-13.37,11682,12593,1,12593,1,0.00060209,-7.0616e-10,0,0.000775,8.1105e-05,1.7773e+08,-202.61,0,2.5819e+08,52.034,12592,527.79,0,527.79,0,0.00059638,1.6602e-09,0,0.00030378,0.00011163,2.037e+08,475.22,0,1.0109e+08,53.97,527.79,1
1820,3.64,12139,1,12139,1,8.5697e-05,9.9006e-10,0,0.00052159,-1.5593e-05,-23.535,283.39,0,1.7728e+08,-9.2453,12138,13096,1,13096,1,0.0010849,3.0788e-09,0,0.0010849,0.00017146,3.0596e+08,847.57,0,3.7156e+08,44.526,13095,12138,1,12138,1,8.5697e-05,7.4305e-10,0,0.00051811,-1.549e-05,2.7822e+07,208.56,0,1.7824e+08,-5.6852,12137,11203,1,11203,1,-0.00091353,-5.4648e-10,0,2.5327e-05,-0.0002027,-3.7156e+08,-187.15,0,1.036e+07,-77.552,11202,11683,1,11683,1,-0.00043242,3.8366e-10,0,0.00025906,-0.00011256,-1.7586e+08,115.39,0,9.2564e+07,-25.367,11682,12593,1,12593,1,0.00060381,1.5933e-09,0,0.00077717,8.1326e-05,1.7824e+08,460.89,0,2.5887e+08,10.567,12592,527.79,0,527.79,0,0.00059805,8.5069e-10,0,0.00030464,0.00011194,2.0426e+08,241.13,0,1.0136e+08,25.39,527.79,1
1820,3.65,12139,1,12139,1,8.5978e-05,-6.6807e-10,0,0.00052303,-1.5644e-05,8.6676,-192.1,0,1.7776e+08,21.222,12138,13096,1,13096,1,0.001088,3.225e-09,0,0.001088,0.00017193,3.0667e+08,903.29,0,3.7256e+08,184.82,13095,12138,1,12138,1,8.5978e-05,-5.6391e-10,0,0.00051954,-1.5541e-05,2.7914e+07,-166.99,0,1.7874e+08,6.5445,12137,11203,1,11203,1,-0.000916,-3.3118e-09,0,2.5352e-05,-0.00020327,-3.7256e+08,-913.33,0,1.0371e+07,-109.96,11202,11683,1,11683,1,-0.00043356,-1.752e-09,0,0.00025977,-0.00011288,-1.7633e+08,-513.71,0,9.2817e+07,-13.927,11682,12593,1,12593,1,0.00060552,1.6109e-10,0,0.00077931,8.1542e-05,1.7874e+08,48.325,0,2.5954e+08,47.439,12592,527.79,0,527.79,0,0.0005997,1.3481e-09,0,0.00030548,0.00011225,2.0479e+08,389,0,1.0162e+08,55.34,527.79,1
1820,3.66,12139,1,12139,1,8.6261e-05,-5.0048e-10,0,0.00052448,-1.5696e-05,-31.209,-145.01,0,1.7823e+08,2.6657,12138,13096,1,13096,1,0.001091,2.6269e-09,0,0.001091,0.0001724,3.0738e+08,738,0,3.7358e+08,101.57,13095,12138,1,12138,1,8.6261e-05,-2.772e-10,0,0.00052098,-1.5593e-05,2.8006e+07,-81.507,0,1.7925e+08,0.21929,12137,11203,1,11203,1,-0.0009185,-3.3835e-09,0,2.5377e-05,-0.00020384,-3.7358e+08,-938.44,0,1.0382e+07,-159.95,11202,11683,1,11683,1,-0.00043472,-1.5502e-09,0,0.00026049,-0.0001132,-1.768e+08,-457.37,0,9.3072e+07,-29.637,11682,12593,1,12593,1,0.00060724,3.7254e-10,0,0.00078147,8.1759e-05,1.7925e+08,107.3,0,2.6021e+08,38.299,12592,527.79,0,527.79,0,0.00060136,1.2928e-09,0,0.00030633,0.00011256,2.0534e+08,376.22,0,1.0188e+08,47.447,527.79,1
1820,3.67,12139,1,12139,1,8.6544e-05,-3.5515e-10,0,0.00052593,-1.5747e-05,28.004,-104.53,0,1.787e+08,-0.0064725,12138,13096,1,13096,1,0.0010941,1.5772e-09,0,0.0010941,0.00017286,3.0809e+08,441.69,0,3.7459e+08,100.65,13095,12138,1,12138,1,8.6544e-05,-7.1895e-11,0,0.00052241,-1.5644e-05,2.8098e+07,-20.573,0,1.7976e+08,-4.6333,12137,11203,1,11203,1,-0.00092097,-2.744e-09,0,2.5402e-05,-0.0002044,-3.7459e+08,-763.75,0,1.0392e+07,-76.347,11202,11683,1,11683,1,-0.00043587,-9.8149e-10,0,0.00026121,-0.00011352,-1.7727e+08,-282.82,0,9.3326e+07,-19.295,11682,12593,1,12593,1,0.00060896,3.0054e-10,0,0.00078362,8.1975e-05,1.7976e+08,89.035,0,2.6087e+08,15.525,12592,527.79,0,527.79,0,0.00060301,9.5765e-10,0,0.00030719,0.00011287,2.0588e+08,280.39,0,1.0214e+08,31.714,527.79,1
1820,3.68,12139,1,12139,1,8.6831e-05,-8.9372e-11,0,0.0005274,-1.58e-05,7.2802,-26.842,0,1.7919e+08,-4.0301,12138,13096,1,13096,1,0.0010972,4.7842e-10,0,0.0010972,0.00017333,3.0881e+08,141.14,0,3.7561e+08,54.734,13095,12138,1,12138,1,8.6831e-05,-9.5819e-11,0,0.00052387,-1.5697e-05,2.8191e+07,-29.526,0,1.8027e+08,-5.0712,12137,11203,1,11203,1,-0.0009235,-4.046e-10,0,2.5427e-05,-0.00020498,-3.7561e+08,-112.37,0,1.0403e+07,-51.484,11202,11683,1,11683,1,-0.00043704,-1.7863e-10,0,0.00026194,-0.00011385,-1.7774e+08,-54.467,0,9.3584e+07,-14.365,11682,12593,1,12593,1,0.0006107,-7.6148e-12,0,0.00078581,8.2196e-05,1.8027e+08,-1.942,0,2.6155e+08,1.6172,12592,527.79,0,527.79,0,0.0006047,1.4745e-10,0,0.00030805,0.00011318,2.0643e+08,43.599,0,1.0241e+08,16.289,527.79,1
1820,3.69,12139,1,12139,1,8.7115e-05,1.9963e-10,0,0.00052885,-1.5851e-05,21.973,56.754,0,1.7966e+08,11.055,12138,13096,1,13096,1,0.0011002,1.372e-09,0,0.0011002,0.0001738,3.0952e+08,384.01,0,3.7662e+08,76.722,13095,12138,1,12138,1,8.7115e-05,1.0127e-10,0,0.0005253,-1.5748e-05,2.8283e+07,28.549,0,1.8078e+08,6.2374,12137,11203,1,11203,1,-0.00092598,-9.7586e-10,0,2.545e-05,-0.00020555,-3.7662e+08,-278.55,0,1.0413e+07,-38.068,11202,11683,1,11683,1,-0.00043819,-1.9551e-10,0,0.00026265,-0.00011417,-1.7821e+08,-57.064,0,9.3838e+07,-4.6467,11682,12593,1,12593,1,0.00061242,5.8877e-10,0,0.00078796,8.2412e-05,1.8078e+08,175.44,0,2.6221e+08,22.073,12592,527.79,0,527.79,0,0.00060635,5.0467e-10,0,0.0003089,0.00011349,2.0697e+08,145.86,0,1.0267e+08,22.131,527.79,1
1820,3.7,12139,1,12139,1,8.7401e-05,2.4906e-10,0,0.0005303,-1.5904e-05,26.916,72.357,0,1.8014e+08,0.23711,12138,13096,1,13096,1,0.0011033,7.941e-10,0,0.0011033,0.00017427,3.1024e+08,229.28,0,3.7764e+08,43.421,13095,12138,1,12138,1,8.7401e-05,2.6353e-10,0,0.00052675,-1.58e-05,2.8376e+07,77.172,0,1.8129e+08,-4.1647,12137,11203,1,11203,1,-0.00092848,-2.77e-10,0,2.5474e-05,-0.00020612,-3.7764e+08,-92.84,0,1.0424e+07,-40.479,11202,11683,1,11683,1,-0.00043935,-9.4053e-12,0,0.00026337,-0.00011449,-1.7868e+08,-2.8874,0,9.4094e+07,-8.9951,11682,12593,1,12593,1,0.00061415,4.9536e-10,0,0.00079012,8.263e-05,1.8129e+08,145,0,2.6289e+08,9.8867,12592,527.79,0,527.79,0,0.00060802,2.8454e-10,0,0.00030976,0.0001138,2.0751e+08,82.594,0,1.0293e+08,16.432,527.79,1
1820,3.71,12139,1,12139,1,8.7685e-05,-1.3522e-10,0,0.00053175,-1.5955e-05,21.275,-37.963,0,1.8061e+08,3.1319,12138,13096,1,13096,1,0.0011063,1.8651e-09,0,0.0011063,0.00017474,3.1094e+08,524.5,0,3.7865e+08,71.675,13095,12138,1,12138,1,8.7685e-05,-1.2046e-10,0,0.00052818,-1.5852e-05,2.8469e+07,-35.026,0,1.818e+08,1.3209,12137,11203,1,11203,1,-0.00093096,-1.3001e-09,0,2.5497e-05,-0.00020669,-3.7865e+08,-358.71,0,1.0434e+07,-107.47,11202,11683,1,11683,1,-0.0004405,-6.0334e-10,0,0.00026409,-0.00011481,-1.7915e+08,-177.04,0,9.4348e+07,-9.8714,11682,12593,1,12593,1,0.00061587,1.8916e-10,0,0.00079228,8.2846e-05,1.818e+08,53.093,0,2.6355e+08,18.721,12592,527.79,0,527.79,0,0.00060967,6.0371e-10,0,0.00031061,0.00011411,2.0805e+08,175.2,0,1.032e+08,26.779,527.79,1
1820,3.72,12139,1,12139,1,8.797e-05,9.014e-10,0,0.0005332,-1.6007e-05,15.736,260.46,0,1.8108e+08,34.107,12138,13096,1,13096,1,0.0011094,4.3656e-09,0,0.0011094,0.0001752,3.1165e+08,1220.1,0,3.7966e+08,199.43,13095,12138,1,12138,1,8.797e-05,4.3236e-10,0,0.00052962,-1.5904e-05,2.8561e+07,124.35,0,1.823e+08,21.015,12137,11203,1,11203,1,-0.00093345,-9.1004e-10,0,2.552e-05,-0.00020726,-3.7966e+08,-263.63,0,1.0444e+07,-59.111,11202,11683,1,11683,1,-0.00044165,-1.1968e-10,0,0.00026481,-0.00011513,-1.7962e+08,-37.176,0,9.4603e+07,-4.3655,11682,12593,1,12593,1,0.00061759,1.8334e-09,0,0.00079443,8.3063e-05,1.823e+08,536.17,0,2.6422e+08,59.971,12592,527.79,0,527.79,0,0.00061133,1.321e-09,0,0.00031146,0.00011442,2.086e+08,381.93,0,1.0346e+08,52.382,527.79,1
1820,3.73,12139,1,12139,1,8.8258e-05,-8.2479e-10,0,0.00053466,-1.606e-05,31.518,-237.81,0,1.8156e+08,3.6001,12138,13096,1,13096,1,0.0011125,1.0419e-09,0,0.0011125,0.00017567,3.1236e+08,312.14,0,3.8068e+08,96.784,13095,12138,1,12138,1,8.8258e-05,-6.8614e-10,0,0.00053107,-1.5957e-05,2.8655e+07,-196.06,0,1.8282e+08,-2.259,12137,11203,1,11203,1,-0.00093595,-2.7352e-09,0,2.5542e-05,-0.00020784,-3.8068e+08,-756.89,0,1.0454e+07,-74.159,11202,11683,1,11683,1,-0.00044281,-1.5379e-09,0,0.00026553,-0.00011545,-1.8009e+08,-451.29,0,9.4859e+07,-16.89,11682,12593,1,12593,1,0.00061933,-1.146e-10,0,0.0007966,8.3281e-05,1.8282e+08,-33.145,0,2.6489e+08,18.949,12592,527.79,0,527.79,0,0.000613,8.8588e-10,0,0.00031232,0.00011474,2.0914e+08,256.69,0,1.0372e+08,28.888,527.79,1
1820,3.74,12139,1,12139,1,8.8544e-05,-5.4502e-10,0,0.00053612,-1.6112e-05,-9.6854,-159.8,0,1.8203e+08,-0.35824,12138,13096,1,13096,1,0.0011155,-2.6605e-12,0,0.0011155,0.00017614,3.1307e+08,-0.59597,0,3.8169e+08,28.221,13095,12138,1,12138,1,8.8544e-05,-5.1575e-10,0,0.00053251,-1.6009e-05,2.8748e+07,-151.63,0,1.8333e+08,-1.1244,12137,11203,1,11203,1,-0.00093844,-1.2691e-09,0,2.5565e-05,-0.00020841,-3.8169e+08,-359.93,0,1.0464e+07,-55.962,11202,11683,1,11683,1,-0.00044396,-7.8872e-10,0,0.00026625,-0.00011578,-1.8056e+08,-234.77,0,9.5114e+07,-5.4687,11682,12593,1,12593,1,0.00062105,-2.8775e-10,0,0.00079876,8.3498e-05,1.8333e+08,-81.217,0,2.6555e+08,4.0532,12592,527.79,0,527.79,0,0.00061467,3.1778e-10,0,0.00031317,0.00011505,2.0968e+08,94.182,0,1.0398e+08,9.7006,527.79,1
1820,3.75,12139,1,12139,1,8.8828e-05,9.1487e-10,0,0.00053755,-1.6164e-05,7.9176,263.65,0,1.825e+08,48.962,12138,13096,1,13096,1,0.0011186,5.8882e-09,0,0.0011186,0.0001766,3.1377e+08,1644.3,0,3.8269e+08,262.75,13095,12138,1,12138,1,8.8828e-05,3.94e-10,0,0.00053393,-1.606e-05,2.884e+07,111.42,0,1.8383e+08,36.368,12137,11203,1,11203,1,-0.0009409,-2.5445e-09,0,2.5585e-05,-0.00020897,-3.8269e+08,-705.18,0,1.0473e+07,-69.122,11202,11683,1,11683,1,-0.0004451,-3.466e-10,0,0.00026697,-0.00011609,-1.8102e+08,-105.18,0,9.5365e+07,-7.4272,11682,12593,1,12593,1,0.00062276,2.1481e-09,0,0.0008009,8.3712e-05,1.8383e+08,611.14,0,2.6621e+08,75.266,12592,527.79,0,527.79,0,0.0006163,1.7873e-09,0,0.00031402,0.00011535,2.1022e+08,516.85,0,1.0424e+08,71.547,527.79,1
1820,3.76,12139,1,12139,1,8.9117e-05,-1.1569e-10,0,0.00053902,-1.6217e-05,10.324,-32.223,0,1.8298e+08,-2.2623,12138,13096,1,13096,1,0.0011216,3.0355e-10,0,0.0011216,0.00017707,3.1448e+08,103.85,0,3.8371e+08,33.345,13095,12138,1,12138,1,8.9117e-05,-1.1457e-10,0,0.00053538,-1.6113e-05,2.8934e+07,-33.15,0,1.8434e+08,-1.4361,12137,11203,1,11203,1,-0.00094341,-8.6036e-10,0,2.5608e-05,-0.00020955,-3.8371e+08,-246.74,0,1.0483e+07,-48.627,11202,11683,1,11683,1,-0.00044627,-1.9996e-10,0,0.00026769,-0.00011642,-1.815e+08,-54.585,0,9.5623e+07,-8.8639,11682,12593,1,12593,1,0.0006245,2.2686e-11,0,0.00080308,8.3931e-05,1.8434e+08,7.0246,0,2.6688e+08,3.5968,12592,527.79,0,527.79,0,0.00061798,1.9145e-10,0,0.00031488,0.00011567,2.1077e+08,56.902,0,1.0451e+08,11.087,527.79,1
1820,3.77,12139,1,12139,1,8.9417e-05,1.2064e-09,0,0.00054047,-1.6272e-05,-35.148,351.18,0,1.8345e+08,2.1624,12138,13096,1,13096,1,0.0011247,3.0561e-09,0,0.0011247,0.00017754,3.1517e+08,842.88,0,3.8472e+08,77.807,13095,12138,1,12138,1,8.9417e-05,1.2658e-09,0,0.00053683,-1.6168e-05,2.9031e+07,380.08,0,1.8486e+08,-3.9808,12137,11203,1,11203,1,-0.0009459,-7.7389e-10,0,2.5617e-05,-0.00021012,-3.8472e+08,-265.02,0,1.0487e+07,-78.997,11202,11683,1,11683,1,-0.00044741,5.53e-10,0,0.00026841,-0.00011674,-1.8196e+08,165.76,0,9.5877e+07,-20.648,11682,12593,1,12593,1,0.00062624,1.8442e-09,0,0.00080524,8.4146e-05,1.8486e+08,540.77,0,2.6754e+08,24.923,12592,527.79,0,527.79,0,0.00061965,9.0859e-10,0,0.00031574,0.00011598,2.113e+08,262.52,0,1.0476e+08,34.328,527.79,1
1820,3.78,12139,1,12139,1,8.973e-05,1.936e-10,0,0.00054193,-1.6329e-05,137.96,59.693,0,1.8392e+08,-2.312,12138,13096,1,13096,1,0.0011278,2.033e-09,0,0.0011278,0.000178,3.1582e+08,605.13,0,3.8572e+08,43.835,13095,12138,1,12138,1,8.973e-05,2.0779e-11,0,0.00053826,-1.6225e-05,2.9133e+07,5.7475,0,1.8537e+08,-0.99781,12137,11203,1,11203,1,-0.00094835,-1.218e-09,0,2.5612e-05,-0.0002107,-3.8572e+08,-334.98,0,1.0487e+07,-61.968,11202,11683,1,11683,1,-0.00044853,-2.8158e-10,0,0.00026913,-0.00011707,-1.8242e+08,-79.569,0,9.6131e+07,-17.062,11682,12593,1,12593,1,0.00062799,6.5988e-10,0,0.0008074,8.4357e-05,1.8537e+08,195.13,0,2.6818e+08,11.291,12592,527.79,0,527.79,0,0.00062131,6.8183e-10,0,0.0003166,0.00011629,2.1183e+08,198.52,0,1.0502e+08,19.081,527.79,1
1820,3.79,12139,1,12139,1,9.0043e-05,-1.8863e-09,0,0.00054338,-1.6386e-05,74.726,-546.83,0,1.8438e+08,9.9239,12138,13096,1,13096,1,0.0011309,2.2991e-09,0,0.0011309,0.00017847,3.1649e+08,661.34,0,3.8673e+08,144.81,13095,12138,1,12138,1,9.0043e-05,-1.4658e-09,0,0.00053971,-1.6283e-05,2.9235e+07,-417.39,0,1.8589e+08,-0.42131,12137,11203,1,11203,1,-0.00095084,-6.6956e-09,0,2.5608e-05,-0.00021128,-3.8673e+08,-1849,0,1.0486e+07,-134.72,11202,11683,1,11683,1,-0.00044967,-3.7619e-09,0,0.00026985,-0.0001174,-1.8288e+08,-1113.4,0,9.6385e+07,-31.427,11682,12593,1,12593,1,0.00062975,3.7761e-11,0,0.00080956,8.457e-05,1.8589e+08,9.7004,0,2.6882e+08,50.686,12592,527.79,0,527.79,0,0.00062297,2.2237e-09,0,0.00031746,0.0001166,2.1236e+08,643.84,0,1.0527e+08,54.838,527.79,1
1820,3.8,12139,1,12139,1,9.0359e-05,-3.4845e-10,0,0.00054485,-1.6444e-05,12.126,-105.43,0,1.8485e+08,-0.4673,12138,13096,1,13096,1,0.001134,1.394e-09,0,0.001134,0.00017893,3.1715e+08,413.75,0,3.8774e+08,54.957,13095,12138,1,12138,1,9.0359e-05,-1.0991e-10,0,0.00054116,-1.634e-05,2.9337e+07,-31.262,0,1.8642e+08,-1.435,12137,11203,1,11203,1,-0.00095331,-2.57e-09,0,2.5604e-05,-0.00021186,-3.8774e+08,-722.7,0,1.0485e+07,-51.59,11202,11683,1,11683,1,-0.0004508,-9.3853e-10,0,0.00027058,-0.00011773,-1.8334e+08,-280.71,0,9.6641e+07,-16.682,11682,12593,1,12593,1,0.00063152,2.6329e-10,0,0.00081174,8.4784e-05,1.8642e+08,72.438,0,2.6947e+08,13.654,12592,527.79,0,527.79,0,0.00062465,8.5558e-10,0,0.00031832,0.00011692,2.1289e+08,254.05,0,1.0553e+08,22.149,527.79,1
1820,3.81,12139,1,12139,1,9.0674e-05,-8.2507e-11,0,0.00054631,-1.6501e-05,68.817,-25.106,0,1.8531e+08,15.281,12138,13096,1,13096,1,0.0011371,3.4758e-09,0,0.0011371,0.00017939,3.1781e+08,978.41,0,3.8874e+08,165.37,13095,12138,1,12138,1,9.0674e-05,-4.1649e-11,0,0.0005426,-1.6398e-05,2.944e+07,-12.737,0,1.8693e+08,7.4788,12137,11203,1,11203,1,-0.00095578,-3.0841e-09,0,2.5598e-05,-0.00021243,-3.8874e+08,-860.96,0,1.0484e+07,-57.07,11202,11683,1,11683,1,-0.00045193,-9.3559e-10,0,0.0002713,-0.00011806,-1.838e+08,-277.06,0,9.6896e+07,-17.676,11682,12593,1,12593,1,0.00063328,6.2643e-10,0,0.00081391,8.4996e-05,1.8693e+08,184.58,0,2.7011e+08,34.812,12592,527.79,0,527.79,0,0.00062632,1.252e-09,0,0.00031918,0.00011723,2.1342e+08,365.56,0,1.0578e+08,42.642,527.79,1
1820,3.82,12139,1,12139,1,9.0992e-05,-3.1089e-10,0,0.00054778,-1.6559e-05,67.695,-90.413,0,1.8578e+08,7.3141,12138,13096,1,13096,1,0.0011403,3.8783e-09,0,0.0011403,0.00017986,3.1848e+08,1112.4,0,3.8976e+08,142.27,13095,12138,1,12138,1,9.0992e-05,-1.6754e-10,0,0.00054406,-1.6456e-05,2.9543e+07,-45.856,0,1.8746e+08,0.47214,12137,11203,1,11203,1,-0.00095827,-3.3776e-09,0,2.5592e-05,-0.00021302,-3.8976e+08,-938.87,0,1.0483e+07,-81.381,11202,11683,1,11683,1,-0.00045307,-1.42e-09,0,0.00027203,-0.00011839,-1.8426e+08,-421.1,0,9.7152e+07,-24.006,11682,12593,1,12593,1,0.00063505,5.408e-10,0,0.00081609,8.521e-05,1.8746e+08,156.32,0,2.7076e+08,35.459,12592,527.79,0,527.79,0,0.000628,1.5385e-09,0,0.00032005,0.00011754,2.1396e+08,449.67,0,1.0603e+08,43.855,527.79,1
1820,3.83,12139,1,12139,1,9.131e-05,-2.3857e-09,0,0.00054925,-1.6617e-05,52.943,-694.13,0,1.8625e+08,-7.2207,12138,13096,1,13096,1,0.0011434,1.1269e-09,0,0.0011434,0.00018033,3.1914e+08,385.93,0,3.9077e+08,143.94,13095,12138,1,12138,1,9.1309e-05,-2.4047e-09,0,0.00054551,-1.6514e-05,2.9646e+07,-698.55,0,1.8798e+08,-8.4836,12137,11203,1,11203,1,-0.00096077,-6.4007e-09,0,2.5585e-05,-0.0002136,-3.9077e+08,-1771.7,0,1.0481e+07,-208.8,11202,11683,1,11683,1,-0.0004542,-4.0324e-09,0,0.00027275,-0.00011872,-1.8472e+08,-1204.4,0,9.7407e+07,-33.349,11682,12593,1,12593,1,0.00063682,-6.6212e-10,0,0.00081827,8.5423e-05,1.8798e+08,-189.09,0,2.714e+08,27.202,12592,527.79,0,527.79,0,0.00062967,2.0011e-09,0,0.00032092,0.00011785,2.1449e+08,579.54,0,1.0629e+08,62.329,527.79,1
1820,3.84,12139,1,12139,1,9.1627e-05,-9.4274e-10,0,0.00055071,-1.6675e-05,99.852,-279.64,0,1.8672e+08,-2.9893,12138,13096,1,13096,1,0.0011465,1.7507e-09,0,0.0011465,0.00018079,3.1979e+08,503.41,0,3.9177e+08,110.33,13095,12138,1,12138,1,9.1627e-05,-3.8847e-10,0,0.00054696,-1.6573e-05,2.975e+07,-115.89,0,1.885e+08,-6.6319,12137,11203,1,11203,1,-0.00096323,-5.0401e-09,0,2.5577e-05,-0.00021418,-3.9177e+08,-1398.4,0,1.0479e+07,-139.47,11202,11683,1,11683,1,-0.00045533,-2.2819e-09,0,0.00027348,-0.00011905,-1.8518e+08,-675.85,0,9.7662e+07,-35.643,11682,12593,1,12593,1,0.00063858,4.6593e-10,0,0.00082044,8.5635e-05,1.885e+08,127.95,0,2.7204e+08,26.647,12592,527.79,0,527.79,0,0.00063134,1.7557e-09,0,0.00032178,0.00011817,2.1502e+08,513.87,0,1.0654e+08,46.325,527.79,1
1820,3.85,12139,1,12139,1,9.1945e-05,-1.0316e-10,0,0.00055217,-1.6733e-05,-18.893,-33.254,0,1.8718e+08,-3.809,12138,13096,1,13096,1,0.0011496,1.1088e-09,0,0.0011496,0.00018125,3.2045e+08,307.37,0,3.9277e+08,101.8,13095,12138,1,12138,1,9.1945e-05,1.8643e-10,0,0.0005484,-1.6631e-05,2.9853e+07,53.05,0,1.8902e+08,-3.6941,12137,11203,1,11203,1,-0.00096569,-3.1197e-09,0,2.557e-05,-0.00021476,-3.9277e+08,-874.39,0,1.0477e+07,-147.84,11202,11683,1,11683,1,-0.00045646,-5.7562e-10,0,0.0002742,-0.00011937,-1.8564e+08,-170.52,0,9.7917e+07,-26.111,11682,12593,1,12593,1,0.00064035,5.8865e-10,0,0.0008226,8.5848e-05,1.8902e+08,173.58,0,2.7268e+08,20.806,12592,527.79,0,527.79,0,0.00063301,9.3735e-10,0,0.00032264,0.00011848,2.1555e+08,276.15,0,1.0679e+08,48.434,527.79,1
1820,3.86,12139,1,12139,1,9.2265e-05,-9.2851e-10,0,0.00055364,-1.6792e-05,11.441,-270.69,0,1.8765e+08,7.9545,12138,13096,1,13096,1,0.0011527,1.737e-09,0,0.0011527,0.00018172,3.211e+08,496.06,0,3.9379e+08,130.61,13095,12138,1,12138,1,9.2265e-05,-7.5796e-10,0,0.00054986,-1.6689e-05,2.9957e+07,-215.83,0,1.8954e+08,1.0892,12137,11203,1,11203,1,-0.00096818,-3.4795e-09,0,2.5562e-05,-0.00021534,-3.9379e+08,-968.26,0,1.0475e+07,-65.509,11202,11683,1,11683,1,-0.00045759,-1.8786e-09,0,0.00027493,-0.0001197,-1.861e+08,-559.24,0,9.8173e+07,-15.341,11682,12593,1,12593,1,0.00064212,2.9604e-11,0,0.00082479,8.6061e-05,1.8954e+08,8.3915,0,2.7332e+08,23.021,12592,527.79,0,527.79,0,0.00063469,1.1751e-09,0,0.00032351,0.00011879,2.1608e+08,341.69,0,1.0705e+08,35.306,527.79,1
1820,3.87,12139,1,12139,1,9.2585e-05,-3.2573e-09,0,0.00055511,-1.685e-05,-1.6903,-949.27,0,1.8812e+08,-12.638,12138,13096,1,13096,1,0.0011559,1.2435e-09,0,0.0011559,0.00018219,3.2177e+08,425.83,0,3.948e+08,144.32,13095,12138,1,12138,1,9.2584e-05,-3.5646e-09,0,0.00055131,-1.6748e-05,3.0061e+07,-1055.4,0,1.9007e+08,-3.3065,12137,11203,1,11203,1,-0.00097068,-7.3178e-09,0,2.5552e-05,-0.00021593,-3.948e+08,-2031,0,1.0472e+07,-257.4,11202,11683,1,11683,1,-0.00045872,-4.9742e-09,0,0.00027565,-0.00012004,-1.8656e+08,-1483.9,0,9.8428e+07,-39.971,11682,12593,1,12593,1,0.00064389,-1.5785e-09,0,0.00082696,8.6274e-05,1.9007e+08,-464.95,0,2.7397e+08,22.919,12592,527.79,0,527.79,0,0.00063637,2.2108e-09,0,0.00032438,0.00011911,2.1661e+08,639.53,0,1.073e+08,68.436,527.79,1
1820,3.88,12139,1,12139,1,9.2903e-05,-2.7975e-09,0,0.00055656,-1.6908e-05,42.696,-821.5,0,1.8858e+08,17.496,12138,13096,1,13096,1,0.0011589,2.6294e-09,0,0.0011589,0.00018265,3.2241e+08,718.72,0,3.958e+08,219.53,13095,12138,1,12138,1,9.2903e-05,-2.3744e-09,0,0.00055275,-1.6806e-05,3.0164e+07,-682.47,0,1.9059e+08,14.054,12137,11203,1,11203,1,-0.00097313,-9.2518e-09,0,2.5542e-05,-0.0002165,-3.958e+08,-2564.2,0,1.047e+07,-208.36,11202,11683,1,11683,1,-0.00045984,-5.3832e-09,0,0.00027637,-0.00012036,-1.8702e+08,-1611.2,0,9.8682e+07,-21.383,11682,12593,1,12593,1,0.00064565,-1.0916e-10,0,0.00082912,8.6485e-05,1.9059e+08,-30.192,0,2.746e+08,58.07,12592,527.79,0,527.79,0,0.00063802,3.0198e-09,0,0.00032524,0.00011942,2.1714e+08,878.77,0,1.0755e+08,74.164,527.79,1
1820,3.89,12139,1,12139,1,9.3224e-05,-2.4495e-09,0,0.00055803,-1.6967e-05,28.189,-720.08,0,1.8904e+08,-8.2955,12138,13096,1,13096,1,0.0011621,1.1621e-09,0,0.0011621,0.00018312,3.2306e+08,378.66,0,3.9681e+08,133.7,13095,12138,1,12138,1,9.3223e-05,-2.4099e-09,0,0.0005542,-1.6865e-05,3.0269e+07,-712.79,0,1.9111e+08,-3.5342,12137,11203,1,11203,1,-0.00097561,-6.8533e-09,0,2.5532e-05,-0.00021708,-3.9681e+08,-1905.7,0,1.0467e+07,-232.13,11202,11683,1,11683,1,-0.00046097,-4.236e-09,0,0.0002771,-0.00012069,-1.8748e+08,-1281.9,0,9.8937e+07,-32.489,11682,12593,1,12593,1,0.00064742,-5.6672e-10,0,0.00083129,8.6697e-05,1.9111e+08,-154.99,0,2.7524e+08,28.102,12592,527.79,0,527.79,0,0.0006397,2.1269e-09,0,0.0003261,0.00011973,2.1767e+08,622.78,0,1.078e+08,63.101,527.79,1
1820,3.9,12139,1,12139,1,9.3547e-05,-1.6334e-09,0,0.0005595,-1.7026e-05,-3.2767,-482.1,0,1.8951e+08,3.0038,12138,13096,1,13096,1,0.0011652,7.0555e-10,0,0.0011652,0.00018358,3.2371e+08,221.45,0,3.9782e+08,89.147,13095,12138,1,12138,1,9.3546e-05,-1.4013e-09,0,0.00055566,-1.6924e-05,3.0374e+07,-414.56,0,1.9163e+08,3.6084,12137,11203,1,11203,1,-0.00097809,-5.0144e-09,0,2.5522e-05,-0.00021766,-3.9782e+08,-1395.1,0,1.0464e+07,-106.37,11202,11683,1,11683,1,-0.00046211,-2.9327e-09,0,0.00027783,-0.00012103,-1.8794e+08,-871.36,0,9.9194e+07,-15.545,11682,12593,1,12593,1,0.0006492,-2.603e-10,0,0.00083348,8.6911e-05,1.9163e+08,-74.235,0,2.7588e+08,27.62,12592,527.79,0,527.79,0,0.00064138,1.5195e-09,0,0.00032697,0.00012004,2.182e+08,446.01,0,1.0806e+08,36.19,527.79,1
1820,3.91,12139,1,12139,1,9.3888e-05,-1.0463e-09,0,0.00056099,-1.7088e-05,-92.392,-308.93,0,1.8998e+08,-10.567,12138,13096,1,13096,1,0.0011684,2.6155e-10,0,0.0011684,0.00018405,3.2435e+08,72.46,0,3.9883e+08,52.115,13095,12138,1,12138,1,9.3888e-05,-1.0062e-09,0,0.00055713,-1.6986e-05,3.0485e+07,-302.13,0,1.9216e+08,-8.8196,12137,11203,1,11203,1,-0.00098058,-3.1413e-09,0,2.5496e-05,-0.00021826,-3.9883e+08,-859.85,0,1.0455e+07,-75.735,11202,11683,1,11683,1,-0.00046324,-1.5946e-09,0,0.00027856,-0.00012136,-1.884e+08,-480.99,0,9.9452e+07,-20.913,11682,12593,1,12593,1,0.00065101,-4.0968e-10,0,0.00083569,8.7123e-05,1.9216e+08,-108.8,0,2.7652e+08,4.2677,12592,527.79,0,527.79,0,0.00064308,8.2531e-10,0,0.00032786,0.00012036,2.1873e+08,238.44,0,1.0831e+08,23.087,527.79,1
1820,3.92,12139,1,12139,1,9.4239e-05,-1.505e-09,0,0.00056244,-1.7152e-05,21.27,-437.61,0,1.9042e+08,12.501,12138,13096,1,13096,1,0.0011715,2.3016e-09,0,0.0011715,0.0001845,3.2495e+08,629.53,0,3.9981e+08,200.26,13095,12138,1,12138,1,9.4238e-05,-1.2315e-09,0,0.00055856,-1.7051e-05,3.0599e+07,-362.21,0,1.9268e+08,8.6735,12137,11203,1,11203,1,-0.000983,-5.7073e-09,0,2.5452e-05,-0.00021884,-3.9981e+08,-1574.1,0,1.0439e+07,-159.27,11202,11683,1,11683,1,-0.00046432,-3.1158e-09,0,0.00027928,-0.0001217,-1.8884e+08,-933.75,0,9.9702e+07,-13.177,11682,12593,1,12593,1,0.0006528,1.7453e-10,0,0.00083784,8.7327e-05,1.9268e+08,50.381,0,2.7712e+08,35.398,12592,527.79,0,527.79,0,0.00064473,1.964e-09,0,0.00032872,0.00012067,2.1924e+08,563.52,0,1.0855e+08,56.81,527.79,1
1820,3.93,12139,1,12139,1,9.4592e-05,-1.9808e-09,0,0.00056392,-1.7217e-05,-42.195,-577.38,0,1.9088e+08,9.7037,12138,13096,1,13096,1,0.0011747,2.2751e-09,0,0.0011747,0.00018497,3.2556e+08,640.33,0,4.0082e+08,192.8,13095,12138,1,12138,1,9.4592e-05,-1.6409e-09,0,0.00056002,-1.7116e-05,3.0714e+07,-461.44,0,1.9321e+08,11.684,12137,11203,1,11203,1,-0.00098547,-7.3888e-09,0,2.5412e-05,-0.00021943,-4.0082e+08,-2045.5,0,1.0424e+07,-206.69,11202,11683,1,11683,1,-0.00046543,-3.9681e-09,0,0.00028001,-0.00012203,-1.8929e+08,-1187.3,0,9.9958e+07,-22.525,11682,12593,1,12593,1,0.00065462,1.7739e-10,0,0.00084003,8.7536e-05,1.9321e+08,51.463,0,2.7774e+08,48.821,12592,527.79,0,527.79,0,0.00064642,2.4138e-09,0,0.00032959,0.00012099,2.1976e+08,697.82,0,1.0879e+08,66.59,527.79,1
1820,3.94,12139,1,12139,1,9.4948e-05,-2.2917e-09,0,0.00056539,-1.7282e-05,-46.8,-670.64,0,1.9134e+08,13.814,12138,13096,1,13096,1,0.0011778,1.73e-09,0,0.0011778,0.00018543,3.2617e+08,543.35,0,4.0182e+08,164.01,13095,12138,1,12138,1,9.4948e-05,-1.65e-09,0,0.00056148,-1.7181e-05,3.083e+07,-474.64,0,1.9373e+08,16.044,12137,11203,1,11203,1,-0.00098793,-8.7089e-09,0,2.5368e-05,-0.00022002,-4.0182e+08,-2415.3,0,1.0408e+07,-173.01,11202,11683,1,11683,1,-0.00046653,-4.3902e-09,0,0.00028074,-0.00012237,-1.8974e+08,-1319.9,0,1.0021e+08,-30.172,11682,12593,1,12593,1,0.00065643,7.5394e-11,0,0.00084222,8.7743e-05,1.9373e+08,24.41,0,2.7836e+08,64.113,12592,527.79,0,527.79,0,0.0006481,2.7078e-09,0,0.00033047,0.0001213,2.2027e+08,786.09,0,1.0904e+08,66.992,527.79,1
1820,3.95,12139,1,12139,1,9.5308e-05,-1.235e-09,0,0.00056688,-1.7348e-05,-21.831,-367.56,0,1.918e+08,-4.7656,12138,13096,1,13096,1,0.001181,1.4678e-09,0,0.001181,0.00018589,3.2677e+08,405.75,0,4.0282e+08,106.74,13095,12138,1,12138,1,9.5308e-05,-9.5355e-10,0,0.00056295,-1.7247e-05,3.0946e+07,-282.64,0,1.9426e+08,-1.45,12137,11203,1,11203,1,-0.0009904,-4.5143e-09,0,2.5323e-05,-0.00022061,-4.0282e+08,-1264.3,0,1.0392e+07,-136.46,11202,11683,1,11683,1,-0.00046764,-2.4626e-09,0,0.00028147,-0.00012271,-1.9019e+08,-745.55,0,1.0047e+08,-28.16,11682,12593,1,12593,1,0.00065826,2.4501e-11,0,0.00084443,8.7952e-05,1.9426e+08,7.7174,0,2.7898e+08,22.053,12592,527.79,0,527.79,0,0.0006498,1.4621e-09,0,0.00033135,0.00012162,2.2079e+08,431.59,0,1.0928e+08,40.294,527.79,1
1820,3.96,12139,1,12139,1,9.5668e-05,-5.9042e-11,0,0.00056837,-1.7414e-05,50.743,-22.163,0,1.9226e+08,-17.428,12138,13096,1,13096,1,0.0011842,5.0192e-10,0,0.0011842,0.00018635,3.2738e+08,121.32,0,4.0382e+08,22.721,13095,12138,1,12138,1,9.5669e-05,-7.4321e-11,0,0.00056442,-1.7313e-05,3.1064e+07,-22.782,0,1.9479e+08,-11.817,12137,11203,1,11203,1,-0.00099286,-6.5488e-10,0,2.5278e-05,-0.0002212,-4.0382e+08,-186.27,0,1.0375e+07,-117.86,11202,11683,1,11683,1,-0.00046875,-2.4011e-10,0,0.00028221,-0.00012305,-1.9064e+08,-74.108,0,1.0073e+08,-25.135,11682,12593,1,12593,1,0.00066009,1.2607e-10,0,0.00084663,8.816e-05,1.9479e+08,38.378,0,2.796e+08,-1.6927,12592,527.79,0,527.79,0,0.0006515,2.676e-10,0,0.00033224,0.00012194,2.2131e+08,74.554,0,1.0953e+08,24.293,527.79,1
1820,3.97,12139,1,12139,1,9.6023e-05,-4.0936e-10,0,0.00056982,-1.7479e-05,61.308,-120.55,0,1.927e+08,31.837,12138,13096,1,13096,1,0.0011873,6.6979e-09,0,0.0011873,0.00018681,3.2796e+08,1836.7,0,4.048e+08,204.44,13095,12138,1,12138,1,9.6023e-05,-2.7709e-10,0,0.00056585,-1.7378e-05,3.1179e+07,-79.966,0,1.9531e+08,27.841,12137,11203,1,11203,1,-0.00099527,-6.6858e-09,0,2.523e-05,-0.00022179,-4.048e+08,-1845.9,0,1.0358e+07,-152.79,11202,11683,1,11683,1,-0.00046983,-2.3238e-09,0,0.00028293,-0.00012339,-1.9108e+08,-687.73,0,1.0098e+08,-23.938,11682,12593,1,12593,1,0.00066188,1.2387e-09,0,0.00084878,8.8363e-05,1.9531e+08,360.16,0,2.802e+08,93.895,12592,527.79,0,527.79,0,0.00065315,2.7849e-09,0,0.0003331,0.00012224,2.2182e+08,804.24,0,1.0976e+08,71.572,527.79,1
1820,3.98,12139,1,12139,1,9.6381e-05,-2.4021e-09,0,0.0005713,-1.7544e-05,-16.457,-695,0,1.9316e+08,10.522,12138,13096,1,13096,1,0.0011905,4.8884e-09,0,0.0011905,0.00018727,3.2857e+08,1359.6,0,4.0581e+08,313.05,13095,12138,1,12138,1,9.638e-05,-1.7906e-09,0,0.00056731,-1.7444e-05,3.1295e+07,-505.46,0,1.9584e+08,1.6797,12137,11203,1,11203,1,-0.00099775,-9.9231e-09,0,2.5185e-05,-0.00022238,-4.0581e+08,-2744.1,0,1.0341e+07,-210.86,11202,11683,1,11683,1,-0.00047093,-5.1618e-09,0,0.00028366,-0.00012373,-1.9153e+08,-1539.5,0,1.0123e+08,-52.078,11682,12593,1,12593,1,0.00066369,3.1522e-10,0,0.00085097,8.8571e-05,1.9584e+08,89.669,0,2.8081e+08,70.485,12592,527.79,0,527.79,0,0.00065483,3.4265e-09,0,0.00033398,0.00012256,2.2233e+08,991.87,0,1.1001e+08,93.729,527.79,1
1820,3.99,12139,1,12139,1,9.6742e-05,-2.1358e-09,0,0.00057278,-1.7611e-05,-122.52,-625.7,0,1.9361e+08,-4.8017,12138,13096,1,13096,1,0.0011937,1.395e-09,0,0.0011937,0.00018773,3.2917e+08,442.92,0,4.0681e+08,110.01,13095,12138,1,12138,1,9.6742e-05,-1.7912e-09,0,0.00056878,-1.7511e-05,3.1413e+07,-520.2,0,1.9636e+08,2.5136,12137,11203,1,11203,1,-0.0010002,-7.3104e-09,0,2.5138e-05,-0.00022298,-4.0681e+08,-2036.6,0,1.0324e+07,-204.36,11202,11683,1,11683,1,-0.00047204,-3.865e-09,0,0.00028439,-0.00012407,-1.9198e+08,-1169.6,0,1.0149e+08,-34.204,11682,12593,1,12593,1,0.00066552,-2.3402e-10,0,0.00085317,8.8778e-05,1.9636e+08,-63.513,0,2.8143e+08,38.686,12592,527.79,0,527.79,0,0.00065653,2.2155e-09,0,0.00033486,0.00012288,2.2285e+08,647.49,0,1.1025e+08,59.76,527.79,1
1820,4,12139,1,12139,1,9.7106e-05,-1.742e-09,0,0.00057427,-1.7677e-05,-4.6097,-513.73,0,1.9407e+08,-3.0069,12138,13096,1,13096,1,0.0011969,9.4416e-10,0,0.0011969,0.0001882,3.2977e+08,280.95,0,4.0782e+08,94.855,13095,12138,1,12138,1,9.7106e-05,-1.6444e-09,0,0.00057025,-1.7577e-05,3.1531e+07,-491.95,0,1.9689e+08,2.6025,12137,11203,1,11203,1,-0.0010027,-5.0195e-09,0,2.5089e-05,-0.00022357,-4.0782e+08,-1403.8,0,1.0306e+07,-158.62,11202,11683,1,11683,1,-0.00047314,-2.9195e-09,0,0.00028512,-0.00012441,-1.9243e+08,-878.63,0,1.0175e+08,-22.943,11682,12593,1,12593,1,0.00066735,-5.5402e-10,0,0.00085537,8.8986e-05,1.9689e+08,-156.5,0,2.8204e+08,26.562,12592,527.79,0,527.79,0,0.00065822,1.5043e-09,0,0.00033574,0.00012319,2.2337e+08,440.34,0,1.105e+08,43.382,527.79,1
1820,4.01,12139,1,12139,1,9.747e-05,2.1236e-10,0,0.00057576,-1.7744e-05,-8.1193,53.643,0,1.9453e+08,3.5275,12138,13096,1,13096,1,0.0012001,3.6816e-09,0,0.0012001,0.00018865,3.3036e+08,1009.7,0,4.0881e+08,112.56,13095,12138,1,12138,1,9.747e-05,2.0594e-10,0,0.00057171,-1.7644e-05,3.165e+07,59.17,0,1.9742e+08,0.92249,12137,11203,1,11203,1,-0.0010051,-2.0433e-09,0,2.5039e-05,-0.00022416,-4.0881e+08,-571.19,0,1.0288e+07,-130.42,11202,11683,1,11683,1,-0.00047424,-4.4489e-10,0,0.00028586,-0.00012475,-1.9287e+08,-138.82,0,1.02e+08,-14.89,11682,12593,1,12593,1,0.00066918,6.658e-10,0,0.00085757,8.9194e-05,1.9742e+08,186.86,0,2.8265e+08,20.894,12592,527.79,0,527.79,0,0.00065991,1.0222e-09,0,0.00033662,0.00012351,2.2389e+08,295.71,0,1.1074e+08,37.59,527.79,1
1820,4.02,12139,1,12139,1,9.7834e-05,-9.2502e-11,0,0.00057724,-1.781e-05,-43.151,-27.751,0,1.9498e+08,3.3756,12138,13096,1,13096,1,0.0012033,3.2046e-09,0,0.0012033,0.00018912,3.3095e+08,888.73,0,4.0981e+08,88.937,13095,12138,1,12138,1,9.7834e-05,-5.1931e-11,0,0.00057318,-1.7711e-05,3.1768e+07,-15.301,0,1.9795e+08,3.7875,12137,11203,1,11203,1,-0.0010076,-2.3375e-09,0,2.4989e-05,-0.00022475,-4.0981e+08,-647.57,0,1.027e+07,-81.747,11202,11683,1,11683,1,-0.00047534,-9.3836e-10,0,0.00028659,-0.00012509,-1.9332e+08,-277.14,0,1.0226e+08,-19.104,11682,12593,1,12593,1,0.00067101,5.2693e-10,0,0.00085977,8.9401e-05,1.9795e+08,146.57,0,2.8327e+08,28.278,12592,527.79,0,527.79,0,0.00066161,1.1695e-09,0,0.00033751,0.00012383,2.244e+08,340.81,0,1.1098e+08,33.728,527.79,1
1820,4.03,12139,1,12139,1,9.8193e-05,-2.0136e-09,0,0.00057868,-1.7876e-05,83.017,-582.43,0,1.9543e+08,22.155,12138,13096,1,13096,1,0.0012064,4.8278e-09,0,0.0012064,0.00018957,3.3153e+08,1340.6,0,4.1079e+08,240.4,13095,12138,1,12138,1,9.8193e-05,-1.2028e-09,0,0.00057461,-1.7777e-05,3.1885e+07,-356.74,0,1.9847e+08,19.956,12137,11203,1,11203,1,-0.00101,-9.7111e-09,0,2.4936e-05,-0.00022534,-4.1079e+08,-2676.6,0,1.025e+07,-179.67,11202,11683,1,11683,1,-0.00047641,-4.6233e-09,0,0.0002873,-0.00012542,-1.9376e+08,-1348.3,0,1.0251e+08,-37.167,11682,12593,1,12593,1,0.0006728,6.0787e-10,0,0.00086191,8.9602e-05,1.9847e+08,178.73,0,2.8386e+08,84.177,12592,527.79,0,527.79,0,0.00066325,3.4566e-09,0,0.00033837,0.00012413,2.249e+08,999.4,0,1.1122e+08,81.725,527.79,1
1820,4.04,12139,1,12139,1,9.8557e-05,-2.0763e-09,0,0.00058017,-1.7943e-05,68.846,-608.28,0,1.9588e+08,-1.9918,12138,13096,1,13096,1,0.0012096,3.3749e-09,0,0.0012096,0.00019003,3.3213e+08,945.38,0,4.118e+08,170.65,13095,12138,1,12138,1,9.8557e-05,-1.4408e-09,0,0.00057608,-1.7844e-05,3.2003e+07,-423.32,0,1.99e+08,0.48357,12137,11203,1,11203,1,-0.0010125,-8.6652e-09,0,2.4887e-05,-0.00022593,-4.118e+08,-2404.7,0,1.0232e+07,-243.19,11202,11683,1,11683,1,-0.00047752,-4.2086e-09,0,0.00028804,-0.00012577,-1.9421e+08,-1264.8,0,1.0276e+08,-48.472,11682,12593,1,12593,1,0.00067463,2.6121e-10,0,0.00086411,8.981e-05,1.99e+08,76.461,0,2.8447e+08,49.965,12592,527.79,0,527.79,0,0.00066495,2.8459e-09,0,0.00033925,0.00012445,2.2542e+08,830.96,0,1.1146e+08,72.025,527.79,1
1820,4.05,12139,1,12139,1,9.8925e-05,-2.1505e-09,0,0.00058166,-1.801e-05,-46.283,-630.83,0,1.9634e+08,-8.3761,12138,13096,1,13096,1,0.0012128,1.0572e-09,0,0.0012128,0.0001905,3.3272e+08,340.79,0,4.128e+08,125.83,13095,12138,1,12138,1,9.8925e-05,-2.0307e-09,0,0.00057755,-1.7912e-05,3.2123e+07,-596.29,0,1.9953e+08,-1.8472,12137,11203,1,11203,1,-0.0010149,-6.1681e-09,0,2.4834e-05,-0.00022653,-4.128e+08,-1720.9,0,1.0213e+07,-202.77,11202,11683,1,11683,1,-0.00047862,-3.6711e-09,0,0.00028877,-0.00012611,-1.9465e+08,-1118.8,0,1.0302e+08,-28.153,11682,12593,1,12593,1,0.00067647,-4.9015e-10,0,0.00086632,9.0018e-05,1.9953e+08,-141.34,0,2.8508e+08,21.009,12592,527.79,0,527.79,0,0.00066665,1.8969e-09,0,0.00034014,0.00012477,2.2594e+08,554.52,0,1.117e+08,52.732,527.79,1
1820,4.06,12139,1,12139,1,9.9313e-05,-1.6005e-10,0,0.00058317,-1.8081e-05,-2.6334,-57.505,0,1.9679e+08,-7.3129,12138,13096,1,13096,1,0.001216,2.7882e-09,0,0.001216,0.00019096,3.3329e+08,773.6,0,4.138e+08,123.84,13095,12138,1,12138,1,9.9314e-05,-5.1062e-11,0,0.00057903,-1.7983e-05,3.2249e+07,-15.356,0,2.0006e+08,-10.325,12137,11203,1,11203,1,-0.0010174,-1.988e-09,0,2.4762e-05,-0.00022713,-4.138e+08,-572.31,0,1.0186e+07,-123.99,11202,11683,1,11683,1,-0.00047971,-9.316e-10,0,0.00028951,-0.00012646,-1.951e+08,-280.83,0,1.0328e+08,-23.488,11682,12593,1,12593,1,0.00067834,4.0713e-10,0,0.00086854,9.0223e-05,2.0006e+08,101.37,0,2.8569e+08,6.9908,12592,527.79,0,527.79,0,0.00066836,9.5069e-10,0,0.00034103,0.00012509,2.2645e+08,280.71,0,1.1194e+08,40.801,527.79,1
1820,4.07,12139,1,12139,1,9.9714e-05,-2.971e-09,0,0.00058463,-1.8154e-05,201.28,-864.42,0,1.9723e+08,15.634,12138,13096,1,13096,1,0.0012192,5.0514e-09,0,0.0012192,0.00019141,3.3383e+08,1403.8,0,4.1478e+08,284.32,13095,12138,1,12138,1,9.9714e-05,-2.3283e-09,0,0.00058048,-1.8057e-05,3.2379e+07,-665.82,0,2.0056e+08,9.8021,12137,11203,1,11203,1,-0.0010198,-1.1167e-08,0,2.4673e-05,-0.00022773,-4.1478e+08,-3080.2,0,1.0152e+07,-236.44,11202,11683,1,11683,1,-0.00048076,-6.0364e-09,0,0.00029024,-0.0001268,-1.9552e+08,-1788,0,1.0353e+08,-37.673,11682,12593,1,12593,1,0.00068019,1.7786e-10,0,0.00087071,9.042e-05,2.0056e+08,51.964,0,2.8626e+08,76.101,12592,527.79,0,527.79,0,0.00067003,3.8086e-09,0,0.00034191,0.0001254,2.2694e+08,1105.8,0,1.1217e+08,88.854,527.79,1
1820,4.08,12139,1,12139,1,0.00010012,-3.6187e-10,0,0.00058615,-1.8229e-05,21.612,-118.44,0,1.9768e+08,-18.258,12138,13096,1,13096,1,0.0012225,1.9776e-09,0,0.0012225,0.00019187,3.3438e+08,578.99,0,4.1578e+08,55.74,13095,12138,1,12138,1,0.00010012,4.025e-11,0,0.00058197,-1.8132e-05,3.2512e+07,12.909,0,2.0108e+08,-11.698,12137,11203,1,11203,1,-0.0010223,-3.0484e-09,0,2.4585e-05,-0.00022834,-4.1578e+08,-866.09,0,1.0119e+07,-123.77,11202,11683,1,11683,1,-0.00048185,-1.2941e-09,0,0.00029098,-0.00012715,-1.9597e+08,-392.46,0,1.0379e+08,-41.657,11682,12593,1,12593,1,0.00068209,5.404e-10,0,0.00087295,9.0624e-05,2.0108e+08,142.54,0,2.8686e+08,8.8636,12592,527.79,0,527.79,0,0.00067175,1.1899e-09,0,0.00034281,0.00012572,2.2745e+08,358.3,0,1.1241e+08,39.429,527.79,1
1820,4.09,12139,1,12139,1,0.00010053,-1.7933e-09,0,0.00058765,-1.8304e-05,41.533,-524.95,0,1.9812e+08,-6.2028,12138,13096,1,13096,1,0.0012258,9.0979e-10,0,0.0012258,0.00019233,3.3494e+08,308.19,0,4.1678e+08,94.01,13095,12138,1,12138,1,0.00010053,-1.6598e-09,0,0.00058345,-1.8208e-05,3.2645e+07,-487.73,0,2.0159e+08,-3.05,12137,11203,1,11203,1,-0.0010247,-5.5684e-09,0,2.4493e-05,-0.00022895,-4.1678e+08,-1547.1,0,1.0085e+07,-152.76,11202,11683,1,11683,1,-0.00048292,-3.2058e-09,0,0.00029173,-0.00012751,-1.964e+08,-956.89,0,1.0405e+08,-30.999,11682,12593,1,12593,1,0.00068398,-2.9913e-10,0,0.00087518,9.0826e-05,2.0159e+08,-81.548,0,2.8745e+08,24.403,12592,527.79,0,527.79,0,0.00067347,1.6962e-09,0,0.00034372,0.00012604,2.2795e+08,497.13,0,1.1264e+08,45.125,527.79,1
1820,4.1,12139,1,12139,1,0.00010094,-1.5437e-09,0,0.00058914,-1.8379e-05,9.6187,-456.29,0,1.9856e+08,3.8863,12138,13096,1,13096,1,0.001229,1.2821e-09,0,0.001229,0.00019279,3.3547e+08,369.06,0,4.1776e+08,91.242,13095,12138,1,12138,1,0.00010094,-1.159e-09,0,0.00058492,-1.8283e-05,3.2778e+07,-337.07,0,2.021e+08,4.4877,12137,11203,1,11203,1,-0.0010271,-5.716e-09,0,2.4399e-05,-0.00022955,-4.1776e+08,-1589.2,0,1.005e+07,-109.42,11202,11683,1,11683,1,-0.00048398,-2.9993e-09,0,0.00029246,-0.00012786,-1.9683e+08,-896.43,0,1.043e+08,-21.542,11682,12593,1,12593,1,0.00068586,6.1493e-11,0,0.00087737,9.1025e-05,2.021e+08,16.307,0,2.8802e+08,34.297,12592,527.79,0,527.79,0,0.00067516,1.8094e-09,0,0.0003446,0.00012636,2.2845e+08,532.14,0,1.1287e+08,39.34,527.79,1
1820,4.11,12139,1,12139,1,0.00010135,-1.933e-09,0,0.00059065,-1.8454e-05,63.315,-568.81,0,1.9901e+08,-9.7256,12138,13096,1,13096,1,0.0012323,1.1111e-09,0,0.0012323,0.00019325,3.3602e+08,367.21,0,4.1876e+08,99.365,13095,12138,1,12138,1,0.00010135,-1.8783e-09,0,0.00058641,-1.8359e-05,3.2912e+07,-544.31,0,2.0262e+08,-6.3112,12137,11203,1,11203,1,-0.0010296,-5.7099e-09,0,2.4307e-05,-0.00023016,-4.1876e+08,-1592.4,0,1.0015e+07,-148.83,11202,11683,1,11683,1,-0.00048505,-3.3751e-09,0,0.0002932,-0.00012821,-1.9727e+08,-1020.4,0,1.0456e+08,-31.34,11682,12593,1,12593,1,0.00068776,-4.1921e-10,0,0.00087961,9.1228e-05,2.0262e+08,-114.2,0,2.8861e+08,21.247,12592,527.79,0,527.79,0,0.00067687,1.7453e-09,0,0.00034551,0.00012668,2.2895e+08,512.76,0,1.1311e+08,45.897,527.79,1
1820,4.12,12139,1,12139,1,0.00010176,-2.7774e-09,0,0.00059212,-1.8529e-05,33.372,-815.87,0,1.9944e+08,9.0387,12138,13096,1,13096,1,0.0012355,1.2872e-09,0,0.0012355,0.0001937,3.3654e+08,430.6,0,4.1974e+08,158.27,13095,12138,1,12138,1,0.00010176,-2.4137e-09,0,0.00058786,-1.8434e-05,3.3044e+07,-708.54,0,2.0313e+08,12.571,12137,11203,1,11203,1,-0.001032,-8.7535e-09,0,2.421e-05,-0.00023076,-4.1974e+08,-2431.7,0,9.9787e+06,-166.24,11202,11683,1,11683,1,-0.0004861,-5.0183e-09,0,0.00029393,-0.00012856,-1.9769e+08,-1496.6,0,1.0481e+08,-21.929,11682,12593,1,12593,1,0.00068962,-3.1853e-10,0,0.00088179,9.1425e-05,2.0313e+08,-98.525,0,2.8918e+08,47.828,12592,527.79,0,527.79,0,0.00067855,2.6914e-09,0,0.00034639,0.00012699,2.2944e+08,787.88,0,1.1333e+08,57.445,527.79,1
1820,4.13,12139,1,12139,1,0.00010217,-1.3967e-09,0,0.00059364,-1.8605e-05,30.872,-419.59,0,1.9989e+08,-18.546,12138,13096,1,13096,1,0.0012388,5.7836e-10,0,0.0012388,0.00019416,3.3709e+08,144.16,0,4.2074e+08,54.273,13095,12138,1,12138,1,0.00010217,-1.6346e-09,0,0.00058935,-1.851e-05,3.3179e+07,-483.9,0,2.0365e+08,-10.85,12137,11203,1,11203,1,-0.0010344,-3.185e-09,0,2.4116e-05,-0.00023137,-4.2074e+08,-879,0,9.9437e+06,-127.72,11202,11683,1,11683,1,-0.00048718,-2.2999e-09,0,0.00029467,-0.00012891,-1.9813e+08,-720,0,1.0507e+08,-30.544,11682,12593,1,12593,1,0.00069152,-4.3549e-10,0,0.00088402,9.1627e-05,2.0365e+08,-123.5,0,2.8977e+08,1.3509,12592,527.79,0,527.79,0,0.00068027,1.0809e-09,0,0.0003473,0.00012731,2.2995e+08,322.28,0,1.1357e+08,32.202,527.79,1
1820,4.14,12139,1,12139,1,0.00010258,-2.3578e-09,0,0.00059512,-1.868e-05,7.204,-692.33,0,2.0033e+08,19.2,12138,13096,1,13096,1,0.001242,1.2117e-09,0,0.001242,0.00019461,3.3762e+08,414.95,0,4.2172e+08,135.61,13095,12138,1,12138,1,0.00010258,-1.9462e-09,0,0.00059081,-1.8586e-05,3.3313e+07,-559.33,0,2.0415e+08,17.404,12137,11203,1,11203,1,-0.0010369,-7.876e-09,0,2.4018e-05,-0.00023197,-4.2172e+08,-2181.1,0,9.9068e+06,-105.44,11202,11683,1,11683,1,-0.00048823,-4.3172e-09,0,0.0002954,-0.00012926,-1.9856e+08,-1289.5,0,1.0532e+08,-13.167,11682,12593,1,12593,1,0.00069339,-1.6224e-10,0,0.00088622,9.1825e-05,2.0415e+08,-42.629,0,2.9034e+08,57.674,12592,527.79,0,527.79,0,0.00068196,2.4261e-09,0,0.00034818,0.00012763,2.3044e+08,706.4,0,1.138e+08,48.583,527.79,1
1820,4.15,12139,1,12139,1,0.000103,-7.5494e-10,0,0.00059663,-1.8756e-05,-16.113,-232.6,0,2.0077e+08,-8.6086,12138,13096,1,13096,1,0.0012453,4.058e-10,0,0.0012453,0.00019507,3.3815e+08,93.135,0,4.2271e+08,29.186,13095,12138,1,12138,1,0.000103,-5.822e-10,0,0.0005923,-1.8662e-05,3.3448e+07,-174.36,0,2.0467e+08,-3.2819,12137,11203,1,11203,1,-0.0010393,-2.5708e-09,0,2.3921e-05,-0.00023258,-4.2271e+08,-738.31,0,9.8707e+06,-76.73,11202,11683,1,11683,1,-0.0004893,-1.4312e-09,0,0.00029615,-0.00012961,-1.99e+08,-438.86,0,1.0558e+08,-21.963,11682,12593,1,12593,1,0.0006953,-2.7693e-11,0,0.00088844,9.2027e-05,2.0467e+08,-6.7922,0,2.9093e+08,7.6422,12592,527.79,0,527.79,0,0.00068368,8.1674e-10,0,0.00034909,0.00012795,2.3094e+08,248.49,0,1.1403e+08,21.349,527.79,1
1820,4.16,12139,1,12139,1,0.00010341,1.1264e-09,0,0.00059812,-1.8832e-05,10.372,319.98,0,2.0121e+08,-0.43625,12138,13096,1,13096,1,0.0012485,3.5872e-09,0,0.0012485,0.00019552,3.3868e+08,955.07,0,4.2369e+08,91.847,13095,12138,1,12138,1,0.00010341,9.8221e-10,0,0.00059376,-1.8739e-05,3.3583e+07,283.57,0,2.0518e+08,-4.2055,12137,11203,1,11203,1,-0.0010417,-1.1215e-09,0,2.3821e-05,-0.00023318,-4.2369e+08,-323.7,0,9.8333e+06,-108.71,11202,11683,1,11683,1,-0.00049035,1.2123e-10,0,0.00029688,-0.00012996,-1.9942e+08,32.651,0,1.0583e+08,-28.347,11682,12593,1,12593,1,0.00069718,2.0956e-09,0,0.00089065,9.2225e-05,2.0518e+08,619.08,0,2.915e+08,30.127,12592,527.79,0,527.79,0,0.00068537,1.1556e-09,0,0.00034998,0.00012826,2.3144e+08,330.2,0,1.1426e+08,40.535,527.79,1
1820,4.17,12139,1,12139,1,0.00010383,-9.8654e-10,0,0.00059962,-1.8909e-05,65.411,-281.43,0,2.0165e+08,-13.555,12138,13096,1,13096,1,0.0012518,6.0636e-10,0,0.0012518,0.00019598,3.3921e+08,207.65,0,4.2468e+08,102.96,13095,12138,1,12138,1,0.00010383,-1.097e-09,0,0.00059524,-1.8816e-05,3.3719e+07,-320.61,0,2.057e+08,-15.163,12137,11203,1,11203,1,-0.0010441,-2.5034e-09,0,2.3721e-05,-0.00023379,-4.2468e+08,-683.09,0,9.7961e+06,-125.84,11202,11683,1,11683,1,-0.00049141,-1.6647e-09,0,0.00029762,-0.00013032,-1.9986e+08,-484.86,0,1.0609e+08,-39.049,11682,12593,1,12593,1,0.00069907,-2.3968e-10,0,0.00089287,9.2425e-05,2.057e+08,-74.703,0,2.9208e+08,6.8372,12592,527.79,0,527.79,0,0.00068708,8.2845e-10,0,0.00035088,0.00012858,2.3194e+08,234.6,0,1.1449e+08,36.81,527.79,1
1820,4.18,12139,1,12139,1,0.00010424,-2.3203e-09,0,0.0006011,-1.8984e-05,59.948,-676.21,0,2.0208e+08,11.056,12138,13096,1,13096,1,0.001255,2.3329e-09,0,0.001255,0.00019643,3.3972e+08,651.05,0,4.2566e+08,176.2,13095,12138,1,12138,1,0.00010424,-1.8299e-09,0,0.0005967,-1.8892e-05,3.3853e+07,-538.41,0,2.062e+08,5.7579,12137,11203,1,11203,1,-0.0010466,-8.0499e-09,0,2.3619e-05,-0.00023439,-4.2566e+08,-2227.2,0,9.7579e+06,-142.6,11202,11683,1,11683,1,-0.00049245,-4.5296e-09,0,0.00029835,-0.00013067,-2.0028e+08,-1348.8,0,1.0634e+08,-26.39,11682,12593,1,12593,1,0.00070094,4.9549e-12,0,0.00089505,9.262e-05,2.062e+08,1.6272,0,2.9265e+08,48.701,12592,527.79,0,527.79,0,0.00068875,2.6373e-09,0,0.00035177,0.0001289,2.3242e+08,765.59,0,1.1472e+08,57.702,527.79,1
1820,4.19,12139,1,12139,1,0.00010466,-2.263e-09,0,0.00060261,-1.9061e-05,104.49,-665.67,0,2.0253e+08,-3.9321,12138,13096,1,13096,1,0.0012583,1.3311e-09,0,0.0012583,0.00019689,3.4026e+08,455.84,0,4.2666e+08,138.73,13095,12138,1,12138,1,0.00010466,-1.9014e-09,0,0.00059819,-1.8969e-05,3.3989e+07,-550.15,0,2.0672e+08,0.22978,12137,11203,1,11203,1,-0.001049,-7.6392e-09,0,2.3518e-05,-0.00023501,-4.2666e+08,-2123,0,9.7203e+06,-143.26,11202,11683,1,11683,1,-0.00049352,-3.9553e-09,0,0.00029909,-0.00013102,-2.0071e+08,-1178.5,0,1.066e+08,-33.768,11682,12593,1,12593,1,0.00070285,-4.2889e-10,0,0.00089728,9.2821e-05,2.0672e+08,-114.56,0,2.9323e+08,25.752,12592,527.79,0,527.79,0,0.00069047,2.24e-09,0,0.00035267,0.00012922,2.3292e+08,659.53,0,1.1495e+08,50.702,527.79,1
1820,4.2,12139,1,12139,1,0.00010513,-1.1305e-09,0,0.00060412,-1.9146e-05,-84.663,-345.64,0,2.0295e+08,0.62424,12138,13096,1,13096,1,0.0012617,2.1034e-09,0,0.0012617,0.00019734,3.4074e+08,564.54,0,4.2763e+08,118.86,13095,12138,1,12138,1,0.00010513,-5.1643e-10,0,0.00059967,-1.9055e-05,3.4141e+07,-151.74,0,2.072e+08,1.3456,12137,11203,1,11203,1,-0.0010514,-5.6111e-09,0,2.3371e-05,-0.00023562,-4.2763e+08,-1580.3,0,9.665e+06,-119.27,11202,11683,1,11683,1,-0.00049454,-2.4909e-09,0,0.00029983,-0.00013138,-2.0113e+08,-748.24,0,1.0685e+08,-29.408,11682,12593,1,12593,1,0.0007048,2.8096e-10,0,0.0008995,9.3014e-05,2.072e+08,73.398,0,2.9378e+08,36.571,12592,527.79,0,527.79,0,0.00069218,1.8616e-09,0,0.00035358,0.00012954,2.334e+08,554.72,0,1.1517e+08,45.51,527.79,1
1820,4.21,12139,1,12139,1,0.00010562,-1.8671e-09,0,0.00060565,-1.9238e-05,-30.704,-552.09,0,2.0337e+08,-36.944,12138,13096,1,13096,1,0.0012651,1.0922e-09,0,0.0012651,0.00019779,3.4121e+08,333.92,0,4.2861e+08,105,13095,12138,1,12138,1,0.00010562,-1.5181e-09,0,0.00060117,-1.9147e-05,3.4302e+07,-436.23,0,2.0767e+08,-31.568,12137,11203,1,11203,1,-0.0010538,-6.4271e-09,0,2.3196e-05,-0.00023626,-4.2861e+08,-1799.9,0,9.5989e+06,-191.71,11202,11683,1,11683,1,-0.00049555,-3.2721e-09,0,0.00030058,-0.00013175,-2.0154e+08,-980.61,0,1.0711e+08,-81.243,11682,12593,1,12593,1,0.0007068,-2.3319e-10,0,0.00090176,9.3202e-05,2.0767e+08,-62.676,0,2.9432e+08,3.0027,12592,527.79,0,527.79,0,0.00069392,1.9125e-09,0,0.00035451,0.00012986,2.3387e+08,568.64,0,1.1539e+08,56.572,527.79,1
1820,4.22,12139,1,12139,1,0.00010613,-6.7359e-11,0,0.00060719,-1.933e-05,61.939,-35.039,0,2.0379e+08,-30.13,12138,13096,1,13096,1,0.0012685,7.6355e-10,0,0.0012685,0.00019824,3.4166e+08,181.81,0,4.2958e+08,28.503,13095,12138,1,12138,1,0.00010613,1.338e-11,0,0.00060268,-1.9241e-05,3.4467e+07,3.8844,0,2.0814e+08,-27.672,12137,11203,1,11203,1,-0.0010562,-1.4345e-09,0,2.3013e-05,-0.00023689,-4.2958e+08,-484.2,0,9.5298e+06,-117.23,11202,11683,1,11683,1,-0.00049655,-4.0256e-10,0,0.00030134,-0.00013213,-2.0195e+08,-127.54,0,1.0737e+08,-47.847,11682,12593,1,12593,1,0.00070881,3.3328e-10,0,0.00090402,9.3391e-05,2.0814e+08,83.265,0,2.9486e+08,-9.1492,12592,527.79,0,527.79,0,0.00069566,5.1426e-10,0,0.00035544,0.00013019,2.3435e+08,154.07,0,1.1561e+08,27.999,527.79,1
1820,4.23,12139,1,12139,1,0.00010664,-1.4455e-09,0,0.00060871,-1.9423e-05,11.402,-424.52,0,2.0421e+08,0.76276,12138,13096,1,13096,1,0.0012719,1.8946e-09,0,0.0012719,0.00019869,3.4211e+08,512.75,0,4.3055e+08,116.13,13095,12138,1,12138,1,0.00010664,-1.0129e-09,0,0.00060418,-1.9335e-05,3.4632e+07,-297.18,0,2.0861e+08,-3.0004,12137,11203,1,11203,1,-0.0010586,-5.4718e-09,0,2.2829e-05,-0.00023752,-4.3055e+08,-1520.9,0,9.4603e+06,-93.957,11202,11683,1,11683,1,-0.00049754,-2.9172e-09,0,0.00030209,-0.0001325,-2.0235e+08,-863.9,0,1.0762e+08,-31.2,11682,12593,1,12593,1,0.00071082,5.3697e-11,0,0.00090627,9.3578e-05,2.0861e+08,16.073,0,2.9539e+08,31.78,12592,527.79,0,527.79,0,0.00069739,1.8375e-09,0,0.00035637,0.00013051,2.3481e+08,537.14,0,1.1582e+08,40.957,527.79,1
1820,4.24,12139,1,12139,1,0.00010715,-1.0247e-09,0,0.00061025,-1.9517e-05,-14.837,-306.29,0,2.0463e+08,-19.337,12138,13096,1,13096,1,0.0012753,1.2278e-09,0,0.0012753,0.00019914,3.4256e+08,350.94,0,4.3153e+08,72.511,13095,12138,1,12138,1,0.00010715,-7.1374e-10,0,0.00060569,-1.9429e-05,3.4798e+07,-206.27,0,2.0908e+08,-20.699,12137,11203,1,11203,1,-0.001061,-3.9768e-09,0,2.2643e-05,-0.00023816,-4.3153e+08,-1123.6,0,9.39e+06,-132.69,11202,11683,1,11683,1,-0.00049854,-2.1415e-09,0,0.00030284,-0.00013288,-2.0276e+08,-644.26,0,1.0788e+08,-49.54,11682,12593,1,12593,1,0.00071284,6.5072e-11,0,0.00090854,9.3766e-05,2.0908e+08,17.104,0,2.9592e+08,11.286,12592,527.79,0,527.79,0,0.00069914,1.298e-09,0,0.0003573,0.00013083,2.3529e+08,389.48,0,1.1604e+08,38.853,527.79,1
1820,4.25,12139,1,12139,1,0.00010766,-1.976e-10,0,0.00061179,-1.9611e-05,-133.4,-64.915,0,2.0504e+08,-27.491,12138,13096,1,13096,1,0.0012787,7.6852e-10,0,0.0012787,0.00019959,3.4301e+08,245.28,0,4.325e+08,88.281,13095,12138,1,12138,1,0.00010766,-2.1639e-10,0,0.0006072,-1.9524e-05,3.4964e+07,-64.028,0,2.0955e+08,-21.289,12137,11203,1,11203,1,-0.0010634,-1.1956e-09,0,2.2454e-05,-0.00023879,-4.325e+08,-338.89,0,9.319e+06,-133.3,11202,11683,1,11683,1,-0.00049954,-6.5839e-10,0,0.0003036,-0.00013325,-2.0316e+08,-197.59,0,1.0814e+08,-55.775,11682,12593,1,12593,1,0.00071486,3.0588e-10,0,0.0009108,9.3954e-05,2.0955e+08,78.24,0,2.9646e+08,-3.8067,12592,527.79,0,527.79,0,0.00070088,5.096e-10,0,0.00035824,0.00013116,2.3576e+08,151.72,0,1.1625e+08,36.717,527.79,1
1820,4.26,12139,1,12139,1,0.00010817,-1.1641e-09,0,0.00061331,-1.9705e-05,3.3945,-343.7,0,2.0546e+08,-1.1322,12138,13096,1,13096,1,0.0012821,1.1704e-09,0,0.0012821,0.00020004,3.4345e+08,313.83,0,4.3347e+08,85.251,13095,12138,1,12138,1,0.00010817,-9.1317e-10,0,0.00060869,-1.9619e-05,3.5131e+07,-266.63,0,2.1001e+08,0.16252,12137,11203,1,11203,1,-0.0010657,-4.0426e-09,0,2.2264e-05,-0.00023942,-4.3347e+08,-1121.2,0,9.2474e+06,-90.244,11202,11683,1,11683,1,-0.00050052,-2.1679e-09,0,0.00030435,-0.00013362,-2.0356e+08,-656.23,0,1.0839e+08,-21.924,11682,12593,1,12593,1,0.00071686,-6.1281e-11,0,0.00091304,9.4139e-05,2.1001e+08,-17.6,0,2.9698e+08,18.196,12592,527.79,0,527.79,0,0.0007026,1.2733e-09,0,0.00035916,0.00013148,2.3622e+08,373.79,0,1.1646e+08,30.835,527.79,1
1820,4.27,12139,1,12139,1,0.00010868,-2.3196e-09,0,0.00061483,-1.9798e-05,-108.7,-679.18,0,2.0587e+08,-33.088,12138,13096,1,13096,1,0.0012855,1.5085e-09,0,0.0012855,0.00020048,3.4389e+08,482.28,0,4.3444e+08,149.01,13095,12138,1,12138,1,0.00010868,-2.0846e-09,0,0.00061019,-1.9713e-05,3.5297e+07,-595.68,0,2.1048e+08,-32.663,12137,11203,1,11203,1,-0.0010681,-7.5939e-09,0,2.2073e-05,-0.00024006,-4.3444e+08,-2113.7,0,9.1757e+06,-232.22,11202,11683,1,11683,1,-0.00050151,-4.4196e-09,0,0.00030509,-0.000134,-2.0396e+08,-1323.1,0,1.0865e+08,-77.337,11682,12593,1,12593,1,0.00071887,-1.4949e-11,0,0.00091528,9.4324e-05,2.1048e+08,-5.1451,0,2.9751e+08,4.1432,12592,527.79,0,527.79,0,0.00070433,2.4375e-09,0,0.00036009,0.0001318,2.3668e+08,710.91,0,1.1667e+08,65.004,527.79,1
1820,4.28,12139,1,12139,1,0.0001092,1.6505e-09,0,0.00061637,-1.9893e-05,38.313,456.72,0,2.0629e+08,33.418,12138,13096,1,13096,1,0.0012889,6.545e-09,0,0.0012889,0.00020093,3.4433e+08,1771.6,0,4.3541e+08,155.65,13095,12138,1,12138,1,0.0001092,1.3934e-09,0,0.0006117,-1.9808e-05,3.5465e+07,387.96,0,2.1095e+08,31.628,12137,11203,1,11203,1,-0.0010705,-1.3986e-09,0,2.188e-05,-0.00024069,-4.3541e+08,-478.2,0,9.1029e+06,-162.03,11202,11683,1,11683,1,-0.0005025,1.145e-10,0,0.00030585,-0.00013437,-2.0437e+08,31.977,0,1.089e+08,-2.6652,11682,12593,1,12593,1,0.00072089,3.0035e-09,0,0.00091755,9.4512e-05,2.1095e+08,837.66,0,2.9803e+08,73.157,12592,527.79,0,527.79,0,0.00070607,1.816e-09,0,0.00036102,0.00013213,2.3715e+08,513.6,0,1.1689e+08,52.758,527.79,1
1820,4.29,12139,1,12139,1,0.00010971,-1.9973e-09,0,0.00061791,-1.9988e-05,-24.389,-571.54,0,2.067e+08,-40.324,12138,13096,1,13096,1,0.0012923,1.2983e-09,0,0.0012923,0.00020138,3.4476e+08,443.4,0,4.3638e+08,93.662,13095,12138,1,12138,1,0.00010971,-1.3695e-09,0,0.0006132,-1.9905e-05,3.5633e+07,-380.33,0,2.1141e+08,-36.086,12137,11203,1,11203,1,-0.0010729,-7.4899e-09,0,2.1685e-05,-0.00024133,-4.3638e+08,-2072.5,0,9.03e+06,-185.61,11202,11683,1,11683,1,-0.00050349,-3.8911e-09,0,0.0003066,-0.00013475,-2.0477e+08,-1131.9,0,1.0916e+08,-91.405,11682,12593,1,12593,1,0.00072292,-5.6983e-12,0,0.0009198,9.4697e-05,2.1141e+08,-1.8226,0,2.9856e+08,7.1063,12592,527.79,0,527.79,0,0.0007078,2.3661e-09,0,0.00036195,0.00013245,2.3761e+08,689.83,0,1.171e+08,62.24,527.79,1
1820,4.3,12139,1,12139,1,0.00011023,7.2024e-11,0,0.00061945,-2.0084e-05,-22.704,8.8482,0,2.0712e+08,-15.035,12138,13096,1,13096,1,0.0012958,1.5008e-09,0,0.0012958,0.00020183,3.452e+08,421.11,0,4.3735e+08,49.426,13095,12138,1,12138,1,0.00011024,2.4432e-10,0,0.00061472,-2.0001e-05,3.5803e+07,70.351,0,2.1188e+08,-11.068,12137,11203,1,11203,1,-0.0010753,-1.876e-09,0,2.1488e-05,-0.00024196,-4.3735e+08,-558.71,0,8.9562e+06,-83.276,11202,11683,1,11683,1,-0.00050448,-3.4497e-10,0,0.00030736,-0.00013513,-2.0517e+08,-107.14,0,1.0942e+08,-37.982,11682,12593,1,12593,1,0.00072495,5.8478e-10,0,0.00092207,9.4884e-05,2.1188e+08,153.45,0,2.9909e+08,4.5955,12592,527.79,0,527.79,0,0.00070955,7.0553e-10,0,0.00036289,0.00013278,2.3808e+08,213.12,0,1.1731e+08,28.291,527.79,1
1820,4.31,12139,1,12139,1,0.00011076,-1.5612e-09,0,0.00062098,-2.018e-05,-15.427,-454.88,0,2.0752e+08,-39.104,12138,13096,1,13096,1,0.0012992,7.3586e-10,0,0.0012992,0.00020227,3.4562e+08,251.13,0,4.3832e+08,39.269,13095,12138,1,12138,1,0.00011076,-1.4273e-09,0,0.00061621,-2.0098e-05,3.5973e+07,-405.22,0,2.1234e+08,-35.436,12137,11203,1,11203,1,-0.0010777,-4.6967e-09,0,2.1289e-05,-0.0002426,-4.3832e+08,-1310.8,0,8.8816e+06,-151.83,11202,11683,1,11683,1,-0.00050546,-2.7326e-09,0,0.00030811,-0.0001355,-2.0557e+08,-817.94,0,1.0967e+08,-68.29,11682,12593,1,12593,1,0.00072697,-4.0064e-10,0,0.00092432,9.5068e-05,2.1234e+08,-106.03,0,2.9961e+08,-8.2494,12592,527.79,0,527.79,0,0.00071128,1.4276e-09,0,0.00036382,0.0001331,2.3854e+08,418.78,0,1.1753e+08,37.751,527.79,1
1820,4.32,12139,1,12139,1,0.00011127,-3.064e-09,0,0.00062249,-2.0275e-05,-114.51,-898.93,0,2.0793e+08,-10.487,12138,13096,1,13096,1,0.0013026,4.6999e-09,0,0.0013026,0.00020272,3.4605e+08,1282.4,0,4.3928e+08,227.78,13095,12138,1,12138,1,0.00011127,-2.2816e-09,0,0.0006177,-2.0194e-05,3.6141e+07,-657.42,0,2.128e+08,-7.8538,12137,11203,1,11203,1,-0.00108,-1.1923e-08,0,2.1088e-05,-0.00024323,-4.3928e+08,-3317.2,0,8.8066e+06,-246.91,11202,11683,1,11683,1,-0.00050642,-6.4229e-09,0,0.00030885,-0.00013587,-2.0596e+08,-1925.4,0,1.0993e+08,-80.562,11682,12593,1,12593,1,0.00072897,3.2609e-10,0,0.00092655,9.525e-05,2.128e+08,92.789,0,3.0012e+08,60.693,12592,527.79,0,527.79,0,0.00071299,4.0486e-09,0,0.00036475,0.00013342,2.39e+08,1180.3,0,1.1773e+08,95.631,527.79,1
1820,4.33,12139,1,12139,1,0.0001118,-1.8948e-09,0,0.00062404,-2.0371e-05,-62.392,-572.35,0,2.0835e+08,-51.862,12138,13096,1,13096,1,0.001306,1.1249e-09,0,0.001306,0.00020317,3.4648e+08,269.98,0,4.4025e+08,61.814,13095,12138,1,12138,1,0.0001118,-1.575e-09,0,0.00061922,-2.0291e-05,3.6312e+07,-451.36,0,2.1327e+08,-36.982,12137,11203,1,11203,1,-0.0010824,-6.1839e-09,0,2.0887e-05,-0.00024387,-4.4025e+08,-1770.4,0,8.7317e+06,-229.26,11202,11683,1,11683,1,-0.00050742,-3.4988e-09,0,0.00030961,-0.00013625,-2.0636e+08,-1051.2,0,1.1018e+08,-104.9,11682,12593,1,12593,1,0.00073102,-2.9786e-10,0,0.00092882,9.5437e-05,2.1327e+08,-83.443,0,3.0065e+08,0.58193,12592,527.79,0,527.79,0,0.00071475,1.8712e-09,0,0.00036569,0.00013375,2.3947e+08,570.17,0,1.1795e+08,64.541,527.79,1
1820,4.34,12139,1,12139,1,0.00011233,-3.6594e-10,0,0.00062556,-2.0468e-05,16.453,-127.31,0,2.0875e+08,-16.575,12138,13096,1,13096,1,0.0013094,3.645e-09,0,0.0013094,0.00020361,3.4689e+08,997.18,0,4.4121e+08,136.9,13095,12138,1,12138,1,0.00011233,-3.042e-11,0,0.00062071,-2.0389e-05,3.6483e+07,-8.6861,0,2.1373e+08,-14.534,12137,11203,1,11203,1,-0.0010848,-4.0621e-09,0,2.0681e-05,-0.0002445,-4.4121e+08,-1172.5,0,8.6548e+06,-163.97,11202,11683,1,11683,1,-0.00050838,-1.7962e-09,0,0.00031035,-0.00013663,-2.0676e+08,-541.78,0,1.1044e+08,-55.86,11682,12593,1,12593,1,0.00073304,8.0015e-10,0,0.00093106,9.5619e-05,2.1373e+08,209.38,0,3.0116e+08,25.369,12592,527.79,0,527.79,0,0.00071647,1.7527e-09,0,0.00036662,0.00013407,2.3992e+08,521.07,0,1.1816e+08,55.937,527.79,1
1820,4.35,12139,1,12139,1,0.00011285,-2.9023e-09,0,0.00062711,-2.0564e-05,-100.75,-848.35,0,2.0917e+08,-32.86,12138,13096,1,13096,1,0.0013129,2.5817e-09,0,0.0013129,0.00020406,3.4732e+08,734.31,0,4.4219e+08,195.8,13095,12138,1,12138,1,0.00011285,-2.3282e-09,0,0.00062223,-2.0486e-05,3.6655e+07,-674.43,0,2.142e+08,-29.66,12137,11203,1,11203,1,-0.0010872,-1.0309e-08,0,2.0479e-05,-0.00024515,-4.4219e+08,-2874.6,0,8.5794e+06,-255.32,11202,11683,1,11683,1,-0.00050937,-5.7026e-09,0,0.00031111,-0.00013701,-2.0716e+08,-1717.3,0,1.1069e+08,-95.254,11682,12593,1,12593,1,0.00073508,1.0094e-10,0,0.00093334,9.5805e-05,2.142e+08,31.714,0,3.0168e+08,26.457,12592,527.79,0,527.79,0,0.00071822,3.2795e-09,0,0.00036756,0.00013439,2.4039e+08,959.57,0,1.1837e+08,88.327,527.79,1
1820,4.36,12139,1,12139,1,0.00011338,-8.7918e-10,0,0.00062863,-2.0661e-05,-192.95,-278.67,0,2.0957e+08,-5.6645,12138,13096,1,13096,1,0.0013163,7.4036e-09,0,0.0013163,0.0002045,3.4772e+08,2048.1,0,4.4314e+08,196.4,13095,12138,1,12138,1,0.00011338,-1.9027e-10,0,0.00062372,-2.0584e-05,3.6827e+07,-48.482,0,2.1464e+08,5.631,12137,11203,1,11203,1,-0.0010895,-8.3233e-09,0,2.0268e-05,-0.00024578,-4.4314e+08,-2349.7,0,8.5009e+06,-256.02,11202,11683,1,11683,1,-0.00051033,-3.6742e-09,0,0.00031186,-0.00013738,-2.0755e+08,-1085.9,0,1.1095e+08,-73.938,11682,12593,1,12593,1,0.0007371,1.4183e-09,0,0.00093558,9.5986e-05,2.1466e+08,398.76,0,3.0219e+08,70.025,12592,527.79,0,527.79,0,0.00071994,3.5347e-09,0,0.00036849,0.00013472,2.4084e+08,1044.3,0,1.1857e+08,95.806,527.79,1
1820,4.37,12139,1,12139,1,0.00011391,-1.0482e-09,0,0.00063018,-2.0759e-05,-20.686,-319.52,0,2.0998e+08,-30.751,12138,13096,1,13096,1,0.0013198,3.5485e-09,0,0.0013198,0.00020495,3.4815e+08,1029.6,0,4.4411e+08,111.62,13095,12138,1,12138,1,0.00011392,-3.5787e-10,0,0.00062524,-2.0683e-05,3.7001e+07,-93.615,0,2.151e+08,-18.595,12137,11203,1,11203,1,-0.0010919,-6.187e-09,0,2.0061e-05,-0.00024642,-4.4411e+08,-1751.2,0,8.4239e+06,-208.16,11202,11683,1,11683,1,-0.00051132,-2.7903e-09,0,0.00031262,-0.00013776,-2.0795e+08,-832.51,0,1.1121e+08,-84.543,11682,12593,1,12593,1,0.00073915,5.3419e-10,0,0.00093785,9.6171e-05,2.1513e+08,144.88,0,3.0271e+08,26.447,12592,527.79,0,527.79,0,0.00072169,2.2202e-09,0,0.00036943,0.00013504,2.4131e+08,670.01,0,1.1879e+08,68.925,527.79,1
1820,4.38,12139,1,12139,1,0.00011445,-2.6273e-09,0,0.00063171,-2.0858e-05,-147.81,-772.32,0,2.1039e+08,-53.235,12138,13096,1,13096,1,0.0013232,1.7109e-09,0,0.0013232,0.00020539,3.4856e+08,538.76,0,4.4508e+08,143.06,13095,12138,1,12138,1,0.00011445,-2.1495e-09,0,0.00062674,-2.0782e-05,3.7175e+07,-612.02,0,2.1555e+08,-41.565,12137,11203,1,11203,1,-0.0010943,-9.0462e-09,0,1.9849e-05,-0.00024706,-4.4508e+08,-2540,0,8.3451e+06,-278.69,11202,11683,1,11683,1,-0.00051229,-5.0579e-09,0,0.00031337,-0.00013814,-2.0834e+08,-1522.4,0,1.1146e+08,-110.95,11682,12593,1,12593,1,0.00074119,-5.6952e-11,0,0.0009401,9.6353e-05,2.1559e+08,-15.801,0,3.0322e+08,6.3953,12592,527.79,0,527.79,0,0.00072343,2.8255e-09,0,0.00037037,0.00013537,2.4176e+08,837.35,0,1.1899e+08,83.134,527.79,1
1820,4.39,12139,1,12139,1,0.00011499,1.0562e-09,0,0.00063326,-2.0956e-05,-37.596,280.07,0,2.108e+08,-12.67,12138,13096,1,13096,1,0.0013266,4.6551e-09,0,0.0013266,0.00020583,3.4897e+08,1279.5,0,4.4603e+08,74.229,13095,12138,1,12138,1,0.00011499,1e-09,0,0.00062825,-2.0882e-05,3.735e+07,268.24,0,2.16e+08,-1.9438,12137,11203,1,11203,1,-0.0010966,-1.1336e-09,0,1.9635e-05,-0.0002477,-4.4603e+08,-387.6,0,8.2657e+06,-119.01,11202,11683,1,11683,1,-0.00051326,4.8228e-11,0,0.00031412,-0.00013852,-2.0874e+08,15.041,0,1.1172e+08,-51.603,11682,12593,1,12593,1,0.00074324,1.9843e-09,0,0.00094237,9.6537e-05,2.1605e+08,522.18,0,3.0374e+08,22.04,12592,527.79,0,527.79,0,0.00072517,1.3039e-09,0,0.00037131,0.00013569,2.4222e+08,372.03,0,1.192e+08,48.07,527.79,1
1820,4.4,12139,1,12139,1,0.00011552,-1.716e-09,0,0.00063477,-2.1054e-05,-72.508,-499.84,0,2.112e+08,-12.047,12138,13096,1,13096,1,0.00133,1.8334e-09,0,0.00133,0.00020628,3.4936e+08,536.67,0,4.4699e+08,121.65,13095,12138,1,12138,1,0.00011552,-1.1654e-09,0,0.00062974,-2.0981e-05,3.7524e+07,-340.87,0,2.1645e+08,-9.9918,12137,11203,1,11203,1,-0.001099,-6.7665e-09,0,1.9421e-05,-0.00024833,-4.4699e+08,-1875,0,8.1864e+06,-139.43,11202,11683,1,11683,1,-0.00051422,-3.2381e-09,0,0.00031487,-0.0001389,-2.0913e+08,-945.64,0,1.1197e+08,-57.518,11682,12593,1,12593,1,0.00074526,1.0672e-11,0,0.00094461,9.6717e-05,2.1651e+08,2.9198,0,3.0424e+08,28.687,12592,527.79,0,527.79,0,0.00072689,2.0637e-09,0,0.00037224,0.00013601,2.4267e+08,606.69,0,1.1941e+08,57.868,527.79,1
1820,4.41,12139,1,12139,1,0.00011606,-2.472e-09,0,0.0006363,-2.1153e-05,-118.23,-727.54,0,2.1161e+08,-32.778,12138,13096,1,13096,1,0.0013335,1.7703e-09,0,0.0013335,0.00020672,3.4977e+08,521.35,0,4.4795e+08,105.25,13095,12138,1,12138,1,0.00011606,-1.8197e-09,0,0.00063124,-2.108e-05,3.7698e+07,-517.48,0,2.1689e+08,-22.747,12137,11203,1,11203,1,-0.0011014,-9.0798e-09,0,1.9206e-05,-0.00024897,-4.4795e+08,-2540.1,0,8.1067e+06,-213.45,11202,11683,1,11683,1,-0.00051518,-4.8485e-09,0,0.00031562,-0.00013928,-2.0952e+08,-1437,0,1.1222e+08,-83.71,11682,12593,1,12593,1,0.0007473,1.0673e-10,0,0.00094686,9.6898e-05,2.1697e+08,30.677,0,3.0475e+08,21.558,12592,527.79,0,527.79,0,0.00072862,2.864e-09,0,0.00037318,0.00013634,2.4313e+08,844.79,0,1.1962e+08,69.647,527.79,1
1820,4.42,12139,1,12139,1,0.0001166,-2.0794e-09,0,0.00063785,-2.1252e-05,-86.485,-624.21,0,2.1202e+08,-61.6,12138,13096,1,13096,1,0.0013369,1.2481e-09,0,0.0013369,0.00020717,3.5017e+08,351.08,0,4.4892e+08,93.183,13095,12138,1,12138,1,0.0001166,-2.0595e-09,0,0.00063275,-2.118e-05,3.7874e+07,-597.86,0,2.1735e+08,-56.26,12137,11203,1,11203,1,-0.0011037,-5.6814e-09,0,1.8988e-05,-0.00024961,-4.4892e+08,-1611.2,0,8.0258e+06,-243.34,11202,11683,1,11683,1,-0.00051615,-3.5555e-09,0,0.00031637,-0.00013966,-2.0992e+08,-1083.2,0,1.1248e+08,-106.21,11682,12593,1,12593,1,0.00074935,-6.7331e-10,0,0.00094912,9.7081e-05,2.1743e+08,-170.95,0,3.0526e+08,-19.809,12592,527.79,0,527.79,0,0.00073037,1.7684e-09,0,0.00037412,0.00013666,2.4358e+08,533.82,0,1.1983e+08,62.486,527.79,1
1820,4.43,12139,1,12139,1,0.00011714,-3.2628e-09,0,0.00063937,-2.1351e-05,-150.88,-964.7,0,2.1241e+08,-8.093,12138,13096,1,13096,1,0.0013404,5.8336e-09,0,0.0013404,0.00020761,3.5056e+08,1584.2,0,4.4987e+08,288.89,13095,12138,1,12138,1,0.00011714,-2.1604e-09,0,0.00063424,-2.128e-05,3.805e+07,-624,0,2.1779e+08,-4.4444,12137,11203,1,11203,1,-0.0011061,-1.4118e-08,0,1.8767e-05,-0.00025025,-4.4987e+08,-3937.3,0,7.9442e+06,-289.3,11202,11683,1,11683,1,-0.0005171,-7.2358e-09,0,0.00031712,-0.00014004,-2.103e+08,-2145.3,0,1.1273e+08,-94.461,11682,12593,1,12593,1,0.00075138,6.5576e-10,0,0.00095136,9.726e-05,2.1788e+08,174.65,0,3.0576e+08,75.239,12592,527.79,0,527.79,0,0.00073208,4.801e-09,0,0.00037505,0.00013698,2.4403e+08,1400,0,1.2003e+08,116.67,527.79,1
1820,4.44,12139,1,12139,1,0.00011768,-1.2705e-09,0,0.00064092,-2.1452e-05,-75.531,-401.43,0,2.1282e+08,-50.126,12138,13096,1,13096,1,0.0013438,4.1469e-09,0,0.0013438,0.00020805,3.5096e+08,1160.4,0,4.5084e+08,133.8,13095,12138,1,12138,1,0.00011768,-6.0091e-10,0,0.00063577,-2.1382e-05,3.8228e+07,-161.37,0,2.1824e+08,-31.723,12137,11203,1,11203,1,-0.0011085,-6.9108e-09,0,1.8546e-05,-0.0002509,-4.5084e+08,-1989.2,0,7.8625e+06,-273.41,11202,11683,1,11683,1,-0.00051808,-3.47e-09,0,0.00031788,-0.00014042,-2.107e+08,-1043.8,0,1.1299e+08,-113.86,11682,12593,1,12593,1,0.00075345,7.8528e-10,0,0.00095364,9.7443e-05,2.1835e+08,195.3,0,3.0627e+08,13.471,12592,527.79,0,527.79,0,0.00073384,2.5225e-09,0,0.000376,0.00013731,2.4449e+08,762.9,0,1.2024e+08,84.121,527.79,1
1820,4.45,12139,1,12139,1,0.00011823,-1.8729e-09,0,0.00064247,-2.1553e-05,-79.576,-563.05,0,2.1323e+08,-53.426,12138,13096,1,13096,1,0.0013473,8.6319e-10,0,0.0013473,0.00020849,3.5135e+08,191.14,0,4.518e+08,64.226,13095,12138,1,12138,1,0.00011823,-1.7797e-09,0,0.00063728,-2.1484e-05,3.8407e+07,-512.14,0,2.1869e+08,-38.893,12137,11203,1,11203,1,-0.0011108,-5.3177e-09,0,1.8321e-05,-0.00025154,-4.518e+08,-1531.8,0,7.7796e+06,-225.19,11202,11683,1,11683,1,-0.00051904,-3.1108e-09,0,0.00031863,-0.0001408,-2.1109e+08,-940.06,0,1.1325e+08,-111.28,11682,12593,1,12593,1,0.00075551,-5.9495e-10,0,0.00095591,9.7624e-05,2.1881e+08,-152.76,0,3.0677e+08,3.89,12592,527.79,0,527.79,0,0.00073559,1.5752e-09,0,0.00037695,0.00013763,2.4495e+08,481.61,0,1.2045e+08,69.733,527.79,1
1820,4.46,12139,1,12139,1,0.00011878,-2.7901e-09,0,0.00064398,-2.1653e-05,-190.46,-825.99,0,2.1363e+08,-9.2436,12138,13096,1,13096,1,0.0013507,4.6378e-09,0,0.0013507,0.00020893,3.5174e+08,1270.2,0,4.5275e+08,198.2,13095,12138,1,12138,1,0.00011878,-1.7963e-09,0,0.00063877,-2.1585e-05,3.8584e+07,-529.76,0,2.1913e+08,-4.4097,12137,11203,1,11203,1,-0.0011132,-1.1986e-08,0,1.8095e-05,-0.00025218,-4.5275e+08,-3350.2,0,7.6961e+06,-230.48,11202,11683,1,11683,1,-0.00051998,-6.0863e-09,0,0.00031938,-0.00014118,-2.1147e+08,-1807.5,0,1.135e+08,-81.884,11682,12593,1,12593,1,0.00075754,4.9662e-10,0,0.00095814,9.7802e-05,2.1926e+08,134.66,0,3.0726e+08,64.044,12592,527.79,0,527.79,0,0.0007373,4.0501e-09,0,0.00037788,0.00013795,2.4539e+08,1186.6,0,1.2065e+08,92.537,527.79,1
1820,4.47,12139,1,12139,1,0.00011933,-2.1574e-09,0,0.00064552,-2.1753e-05,80.202,-652.34,0,2.1403e+08,-50.495,12138,13096,1,13096,1,0.0013542,2.7349e-09,0,0.0013542,0.00020937,3.5212e+08,805.26,0,4.537e+08,109.16,13095,12138,1,12138,1,0.00011933,-1.2893e-09,0,0.00064027,-2.1686e-05,3.8762e+07,-387.54,0,2.1958e+08,-27.922,12137,11203,1,11203,1,-0.0011155,-9.0397e-09,0,1.7869e-05,-0.00025281,-4.537e+08,-2558.2,0,7.6127e+06,-275.13,11202,11683,1,11683,1,-0.00052094,-4.5355e-09,0,0.00032013,-0.00014156,-2.1186e+08,-1359,0,1.1375e+08,-127.68,11682,12593,1,12593,1,0.00075959,3.9941e-10,0,0.00096039,9.7982e-05,2.1972e+08,105.64,0,3.0777e+08,25.328,12592,527.79,0,527.79,0,0.00073904,2.9819e-09,0,0.00037882,0.00013828,2.4584e+08,897.37,0,1.2085e+08,91.488,527.79,1
1820,4.48,12139,1,12139,1,0.00011988,-1.358e-09,0,0.00064708,-2.1855e-05,-188.84,-418.02,0,2.1444e+08,-52.589,12138,13096,1,13096,1,0.0013577,3.4596e-09,0,0.0013577,0.00020982,3.5252e+08,987.31,0,4.5468e+08,157.21,13095,12138,1,12138,1,0.00011988,-8.0703e-10,0,0.0006418,-2.1789e-05,3.8943e+07,-230.73,0,2.2003e+08,-53.169,12137,11203,1,11203,1,-0.0011179,-6.9192e-09,0,1.7641e-05,-0.00025346,-4.5468e+08,-1955.7,0,7.5289e+06,-245.34,11202,11683,1,11683,1,-0.00052191,-3.4892e-09,0,0.00032089,-0.00014195,-2.1226e+08,-1062.3,0,1.1401e+08,-115.11,11682,12593,1,12593,1,0.00076168,6.4005e-10,0,0.00096269,9.8165e-05,2.2019e+08,168.43,0,3.0828e+08,8.9518,12592,527.79,0,527.79,0,0.00074081,2.424e-09,0,0.00037978,0.00013861,2.463e+08,725.65,0,1.2106e+08,80.942,527.79,1
1820,4.49,12139,1,12139,1,0.00012044,-1.7609e-09,0,0.00064861,-2.1958e-05,-104.92,-530.62,0,2.1483e+08,-39.309,12138,13096,1,13096,1,0.0013611,1.673e-09,0,0.0013611,0.00021026,3.5289e+08,496.16,0,4.5562e+08,122.26,13095,12138,1,12138,1,0.00012044,-1.0549e-09,0,0.0006433,-2.1893e-05,3.9124e+07,-316.41,0,2.2048e+08,-31.961,12137,11203,1,11203,1,-0.0011202,-7.4385e-09,0,1.7406e-05,-0.0002541,-4.5562e+08,-2102.2,0,7.4425e+06,-273.57,11202,11683,1,11683,1,-0.00052285,-3.7371e-09,0,0.00032164,-0.00014233,-2.1264e+08,-1121.8,0,1.1427e+08,-94.669,11682,12593,1,12593,1,0.00076373,2.5343e-10,0,0.00096494,9.8342e-05,2.2064e+08,67.464,0,3.0877e+08,13.091,12592,527.79,0,527.79,0,0.00074254,2.3172e-09,0,0.00038072,0.00013893,2.4675e+08,696.55,0,1.2126e+08,70.226,527.79,1
1820,4.5,12139,1,12139,1,0.000121,-2.7227e-09,0,0.00065016,-2.206e-05,49.904,-803.51,0,2.1524e+08,-87.439,12138,13096,1,13096,1,0.0013646,1.7821e-09,0,0.0013646,0.00021071,3.5328e+08,531.43,0,4.5659e+08,114.39,13095,12138,1,12138,1,0.000121,-2.9773e-09,0,0.00064481,-2.1996e-05,3.9305e+07,-849.64,0,2.2093e+08,-73.128,12137,11203,1,11203,1,-0.0011226,-7.7323e-09,0,1.7175e-05,-0.00025475,-4.5659e+08,-2184.9,0,7.3574e+06,-355.55,11202,11683,1,11683,1,-0.00052381,-4.552e-09,0,0.0003224,-0.00014272,-2.1303e+08,-1321.5,0,1.1452e+08,-162.47,11682,12593,1,12593,1,0.00076581,-9.2555e-10,0,0.00096721,9.8523e-05,2.211e+08,-263.27,0,3.0927e+08,-14.312,12592,527.79,0,527.79,0,0.00074429,2.3104e-09,0,0.00038167,0.00013926,2.472e+08,682.12,0,1.2147e+08,96.829,527.79,1
1820,4.51,12139,1,12139,1,0.00012155,-3.2881e-09,0,0.00065169,-2.2163e-05,45.649,-977.02,0,2.1564e+08,-53.251,12138,13096,1,13096,1,0.0013681,1.8899e-09,0,0.0013681,0.00021115,3.5365e+08,572.43,0,4.5754e+08,102.05,13095,12138,1,12138,1,0.00012155,-3.1019e-09,0,0.00064631,-2.2099e-05,3.9487e+07,-905.15,0,2.2137e+08,-52.274,12137,11203,1,11203,1,-0.0011249,-9.946e-09,0,1.6937e-05,-0.0002554,-4.5754e+08,-2804.2,0,7.27e+06,-286.69,11202,11683,1,11683,1,-0.00052475,-5.6524e-09,0,0.00032315,-0.0001431,-2.1342e+08,-1688.2,0,1.1478e+08,-110.18,11682,12593,1,12593,1,0.00076786,-9.641e-10,0,0.00096946,9.87e-05,2.2156e+08,-247.59,0,3.0976e+08,6.3693,12592,527.79,0,527.79,0,0.00074602,2.9153e-09,0,0.00038261,0.00013958,2.4765e+08,864.02,0,1.2167e+08,76.321,527.79,1
1820,4.52,12139,1,12139,1,0.00012211,8.2944e-10,0,0.00065323,-2.2265e-05,-49.634,200.98,0,2.1604e+08,4.2313,12138,13096,1,13096,1,0.0013715,3.4802e-09,0,0.0013715,0.00021158,3.5402e+08,918.45,0,4.5848e+08,145.88,13095,12138,1,12138,1,0.00012211,7.3043e-10,0,0.00064782,-2.2202e-05,3.9669e+07,198.59,0,2.2181e+08,6.8061,12137,11203,1,11203,1,-0.0011273,-1.6345e-09,0,1.6702e-05,-0.00025603,-4.5848e+08,-548.44,0,7.1835e+06,-166.37,11202,11683,1,11683,1,-0.0005257,-2.2919e-10,0,0.00032391,-0.00014348,-2.138e+08,-73.01,0,1.1503e+08,-33.049,11682,12593,1,12593,1,0.00076993,1.9418e-09,0,0.00097172,9.8879e-05,2.2201e+08,504.56,0,3.1025e+08,36.059,12592,527.79,0,527.79,0,0.00074776,1.3533e-09,0,0.00038356,0.0001399,2.481e+08,371.26,0,1.2188e+08,55.047,527.79,1
1820,4.53,12139,1,12139,1,0.00012267,-3.234e-09,0,0.00065475,-2.2368e-05,-129.57,-939.42,0,2.1643e+08,-34.607,12138,13096,1,13096,1,0.001375,2.4437e-09,0,0.001375,0.00021202,3.5439e+08,715.93,0,4.5944e+08,185.88,13095,12138,1,12138,1,0.00012267,-2.6067e-09,0,0.00064931,-2.2306e-05,3.985e+07,-745.35,0,2.2225e+08,-33.622,12137,11203,1,11203,1,-0.0011296,-1.1634e-08,0,1.6466e-05,-0.00025668,-4.5944e+08,-3244.7,0,7.0969e+06,-314.42,11202,11683,1,11683,1,-0.00052664,-6.2343e-09,0,0.00032465,-0.00014386,-2.1418e+08,-1870.6,0,1.1528e+08,-101.11,11682,12593,1,12593,1,0.00077198,1.0854e-10,0,0.00097396,9.9055e-05,2.2246e+08,31.408,0,3.1073e+08,40.563,12592,527.79,0,527.79,0,0.00074948,3.6167e-09,0,0.0003845,0.00014022,2.4854e+08,1050.5,0,1.2208e+08,92.489,527.79,1
1820,4.54,12139,1,12139,1,0.00012323,2.1567e-09,0,0.00065631,-2.2471e-05,-19.388,590.58,0,2.1683e+08,17.083,12138,13096,1,13096,1,0.0013784,5.902e-09,0,0.0013784,0.00021246,3.5477e+08,1602.2,0,4.604e+08,171.89,13095,12138,1,12138,1,0.00012324,2.0972e-09,0,0.00065083,-2.241e-05,4.0034e+07,596.05,0,2.227e+08,16.75,12137,11203,1,11203,1,-0.001132,-8.1175e-10,0,1.6226e-05,-0.00025732,-4.604e+08,-277.99,0,7.0091e+06,-238.67,11202,11683,1,11683,1,-0.0005276,5.3536e-10,0,0.00032542,-0.00014425,-2.1457e+08,159.89,0,1.1554e+08,-18.681,11682,12593,1,12593,1,0.00077407,3.7183e-09,0,0.00097625,9.9236e-05,2.2293e+08,1021.2,0,3.1123e+08,55.992,12592,527.79,0,527.79,0,0.00075124,1.8256e-09,0,0.00038546,0.00014055,2.4899e+08,499.09,0,1.2228e+08,66.445,527.79,1
1820,4.55,12139,1,12139,1,0.0001238,-2.5618e-09,0,0.00065785,-2.2576e-05,61.777,-730.32,0,2.1723e+08,-62.163,12138,13096,1,13096,1,0.0013819,1.4644e-09,0,0.0013819,0.0002129,3.5512e+08,501.5,0,4.6135e+08,121.61,13095,12138,1,12138,1,0.0001238,-2.4053e-09,0,0.00065233,-2.2516e-05,4.0218e+07,-696.32,0,2.2314e+08,-61.935,12137,11203,1,11203,1,-0.0011343,-7.5845e-09,0,1.5983e-05,-0.00025797,-4.6135e+08,-2104.7,0,6.92e+06,-257.7,11202,11683,1,11683,1,-0.00052853,-4.4307e-09,0,0.00032617,-0.00014463,-2.1495e+08,-1303.7,0,1.1579e+08,-110.73,11682,12593,1,12593,1,0.00077614,-6.636e-10,0,0.0009785,9.9412e-05,2.2338e+08,-185.56,0,3.1172e+08,-14.618,12592,527.79,0,527.79,0,0.00075297,2.3199e-09,0,0.0003864,0.00014088,2.4943e+08,666.84,0,1.2248e+08,68.576,527.79,1
1820,4.56,12139,1,12139,1,0.00012437,3.4324e-10,0,0.0006594,-2.268e-05,15.043,79.449,0,2.1763e+08,-16.506,12138,13096,1,13096,1,0.0013854,1.731e-09,0,0.0013854,0.00021334,3.5548e+08,447.33,0,4.623e+08,107.08,13095,12138,1,12138,1,0.00012437,4.9505e-10,0,0.00065385,-2.2621e-05,4.0404e+07,137.94,0,2.2359e+08,-15.887,12137,11203,1,11203,1,-0.0011366,-2.3804e-09,0,1.5739e-05,-0.00025861,-4.623e+08,-672.12,0,6.8307e+06,-126.27,11202,11683,1,11683,1,-0.00052948,-1.5408e-10,0,0.00032692,-0.00014502,-2.1534e+08,-48.924,0,1.1605e+08,-55.47,11682,12593,1,12593,1,0.00077822,1.0885e-09,0,0.00098078,9.9591e-05,2.2384e+08,291.19,0,3.1221e+08,12.916,12592,527.79,0,527.79,0,0.00075473,9.189e-10,0,0.00038736,0.0001412,2.4988e+08,263.16,0,1.2269e+08,51.329,527.79,1
1820,4.57,12139,1,12139,1,0.00012494,1.5029e-09,0,0.00066094,-2.2784e-05,53.74,423.65,0,2.1802e+08,31.547,12138,13096,1,13096,1,0.0013889,5.2152e-09,0,0.0013889,0.00021378,3.5584e+08,1406.3,0,4.6325e+08,171.81,13095,12138,1,12138,1,0.00012494,1.4293e-09,0,0.00065536,-2.2727e-05,4.0589e+07,404.11,0,2.2403e+08,28.377,12137,11203,1,11203,1,-0.001139,-9.2594e-10,0,1.5493e-05,-0.00025926,-4.6325e+08,-317.1,0,6.7404e+06,-157.39,11202,11683,1,11683,1,-0.00053042,3.6665e-10,0,0.00032768,-0.00014541,-2.1572e+08,104.66,0,1.163e+08,-0.98397,11682,12593,1,12593,1,0.0007803,2.5084e-09,0,0.00098304,9.9767e-05,2.2429e+08,734.47,0,3.1269e+08,63.466,12592,527.79,0,527.79,0,0.00075646,1.3929e-09,0,0.0003883,0.00014153,2.5032e+08,394.24,0,1.2289e+08,50.283,527.79,1
1820,4.58,12139,1,12139,1,0.00012555,-8.8463e-10,0,0.00066249,-2.2896e-05,-51.561,-240.5,0,2.1841e+08,-9.258,12138,13096,1,13096,1,0.0013924,3.0698e-09,0,0.0013924,0.00021422,3.5618e+08,925.75,0,4.642e+08,118.49,13095,12138,1,12138,1,0.00012555,-6.7676e-10,0,0.00065688,-2.284e-05,4.0787e+07,-170.48,0,2.2446e+08,-6.8576,12137,11203,1,11203,1,-0.0011413,-4.5429e-09,0,1.521e-05,-0.00025991,-4.642e+08,-1255.3,0,6.6368e+06,-135.36,11202,11683,1,11683,1,-0.00053133,-2.1479e-09,0,0.00032844,-0.0001458,-2.1609e+08,-601.12,0,1.1656e+08,-46.497,11682,12593,1,12593,1,0.00078243,3.4833e-10,0,0.00098532,9.9939e-05,2.2473e+08,101.96,0,3.1317e+08,26.981,12592,527.79,0,527.79,0,0.00075822,1.6587e-09,0,0.00038927,0.00014185,2.5076e+08,481.55,0,1.2309e+08,51.429,527.79,1
1820,4.59,12139,1,12139,1,0.00012617,2.4936e-09,0,0.00066406,-2.301e-05,-45.091,710.2,0,2.1879e+08,14.355,12138,13096,1,13096,1,0.001396,7.116e-09,0,0.001396,0.00021466,3.5651e+08,1978,0,4.6515e+08,166.94,13095,12138,1,12138,1,0.00012617,2.4944e-09,0,0.00065841,-2.2955e-05,4.0989e+07,709.68,0,2.2489e+08,18.778,12137,11203,1,11203,1,-0.0011436,-1.2779e-09,0,1.4918e-05,-0.00026058,-4.6515e+08,-430.77,0,6.5297e+06,-227.62,11202,11683,1,11683,1,-0.00053224,8.0915e-10,0,0.0003292,-0.0001462,-2.1646e+08,207.52,0,1.1681e+08,-25.393,11682,12593,1,12593,1,0.00078458,4.1512e-09,0,0.00098762,0.00010011,2.2516e+08,1154.6,0,3.1363e+08,63.452,12592,527.79,0,527.79,0,0.00075999,2.1154e-09,0,0.00039024,0.00014218,2.5119e+08,604.65,0,1.2328e+08,73.196,527.79,1
1820,4.6,12139,1,12139,1,0.00012679,1.1477e-09,0,0.00066563,-2.3125e-05,-19.828,350.23,0,2.1918e+08,-4.225,12138,13096,1,13096,1,0.0013996,3.9318e-09,0,0.0013996,0.00021509,3.5683e+08,1120.7,0,4.661e+08,85.411,13095,12138,1,12138,1,0.00012679,1.0822e-09,0,0.00065994,-2.3071e-05,4.1193e+07,319.79,0,2.2531e+08,4.4648,12137,11203,1,11203,1,-0.001146,-8.7733e-10,0,1.4619e-05,-0.00026124,-4.661e+08,-204.16,0,6.4201e+06,-132.9,11202,11683,1,11683,1,-0.00053315,8.717e-11,0,0.00032997,-0.0001466,-2.1683e+08,27.06,0,1.1707e+08,-26.038,11682,12593,1,12593,1,0.00078674,2.0909e-09,0,0.00098991,0.00010028,2.256e+08,626.83,0,3.141e+08,22.081,12592,527.79,0,527.79,0,0.00076176,1.1921e-09,0,0.00039122,0.00014251,2.5162e+08,359.01,0,1.2348e+08,43.078,527.79,1
1820,4.61,12139,1,12139,1,0.00012742,-7.1034e-10,0,0.00066719,-2.3241e-05,11.53,-182.19,0,2.1956e+08,-22.582,12138,13096,1,13096,1,0.0014031,9.8104e-10,0,0.0014031,0.00021553,3.5714e+08,335.64,0,4.6703e+08,105.23,13095,12138,1,12138,1,0.00012742,-7.1713e-10,0,0.00066146,-2.3187e-05,4.1397e+07,-199.19,0,2.2574e+08,-21.504,12137,11203,1,11203,1,-0.0011483,-2.1199e-09,0,1.4319e-05,-0.0002619,-4.6703e+08,-518.51,0,6.3101e+06,-135.78,11202,11683,1,11683,1,-0.00053404,-1.4842e-09,0,0.00033073,-0.000147,-2.1719e+08,-388.58,0,1.1732e+08,-48.723,11682,12593,1,12593,1,0.00078889,2.7127e-11,0,0.0009922,0.00010045,2.2603e+08,8.0936,0,3.1456e+08,-1.0206,12592,527.79,0,527.79,0,0.00076352,8.1298e-10,0,0.00039219,0.00014284,2.5205e+08,218.48,0,1.2367e+08,40.969,527.79,1
1820,4.62,12139,1,12139,1,0.00012805,-1.3181e-09,0,0.00066877,-2.3357e-05,25.089,-374.74,0,2.1995e+08,-37.125,12138,13096,1,13096,1,0.0014067,9.239e-10,0,0.0014067,0.00021596,3.5746e+08,316.39,0,4.6798e+08,108.8,13095,12138,1,12138,1,0.00012805,-1.1987e-09,0,0.000663,-2.3305e-05,4.1602e+07,-346.84,0,2.2616e+08,-30.367,12137,11203,1,11203,1,-0.0011506,-4.2126e-09,0,1.402e-05,-0.00026257,-4.6798e+08,-1129,0,6.2007e+06,-179.21,11202,11683,1,11683,1,-0.00053495,-2.2698e-09,0,0.0003315,-0.0001474,-2.1756e+08,-655.33,0,1.1758e+08,-84.294,11682,12593,1,12593,1,0.00079105,-2.106e-10,0,0.0009945,0.00010062,2.2646e+08,-64.047,0,3.1502e+08,8.0862,12592,527.79,0,527.79,0,0.00076529,1.26e-09,0,0.00039317,0.00014317,2.5248e+08,351.83,0,1.2387e+08,61.492,527.79,1
1820,4.63,12139,1,12139,1,0.00012868,1.2106e-09,0,0.00067032,-2.3473e-05,41.294,336.3,0,2.2032e+08,-9.6633,12138,13096,1,13096,1,0.0014103,2.6744e-09,0,0.0014103,0.00021639,3.5777e+08,719.13,0,4.6892e+08,43.413,13095,12138,1,12138,1,0.00012868,1.2492e-09,0,0.00066452,-2.3422e-05,4.1807e+07,355.09,0,2.2658e+08,-7.2207,12137,11203,1,11203,1,-0.0011529,-2.2348e-10,0,1.3714e-05,-0.00026323,-4.6892e+08,-76.534,0,6.0886e+06,-82.955,11202,11683,1,11683,1,-0.00053584,6.5129e-10,0,0.00033226,-0.0001478,-2.1792e+08,196.86,0,1.1783e+08,-22.509,11682,12593,1,12593,1,0.0007932,1.7425e-09,0,0.00099678,0.00010079,2.2689e+08,461.73,0,3.1548e+08,7.8625,12592,527.79,0,527.79,0,0.00076705,6.6208e-10,0,0.00039414,0.0001435,2.529e+08,174.07,0,1.2406e+08,23.479,527.79,1
1820,4.64,12139,1,12139,1,0.00012931,1.4769e-09,0,0.00067189,-2.3589e-05,13.86,425.63,0,2.207e+08,9.1834,12138,13096,1,13096,1,0.0014139,3.9783e-09,0,0.0014139,0.00021683,3.5808e+08,1112.4,0,4.6986e+08,73.69,13095,12138,1,12138,1,0.00012931,1.4316e-09,0,0.00066605,-2.3539e-05,4.2013e+07,418.44,0,2.2701e+08,6.7648,12137,11203,1,11203,1,-0.0011552,-2.4183e-10,0,1.341e-05,-0.0002639,-4.6986e+08,-72.412,0,5.9775e+06,-70.611,11202,11683,1,11683,1,-0.00053674,5.9562e-10,0,0.00033302,-0.0001482,-2.1829e+08,171.55,0,1.1809e+08,-8.8263,11682,12593,1,12593,1,0.00079537,2.2519e-09,0,0.00099908,0.00010096,2.2732e+08,651.99,0,3.1594e+08,28.002,12592,527.79,0,527.79,0,0.00076881,1.063e-09,0,0.00039512,0.00014383,2.5333e+08,303.9,0,1.2425e+08,29.951,527.79,1
1820,4.65,12139,1,12139,1,0.00012995,-7.0176e-10,0,0.00067345,-2.3706e-05,29.389,-188.68,0,2.2108e+08,-22.997,12138,13096,1,13096,1,0.0014174,8.4856e-10,0,0.0014174,0.00021726,3.5838e+08,290.29,0,4.708e+08,105.23,13095,12138,1,12138,1,0.00012995,-7.052e-10,0,0.00066758,-2.3657e-05,4.222e+07,-205.79,0,2.2743e+08,-20.602,12137,11203,1,11203,1,-0.0011575,-1.8919e-09,0,1.3101e-05,-0.00026456,-4.708e+08,-484.2,0,5.8645e+06,-146.78,11202,11683,1,11683,1,-0.00053763,-1.2476e-09,0,0.00033379,-0.0001486,-2.1865e+08,-335.09,0,1.1834e+08,-45.423,11682,12593,1,12593,1,0.00079753,-1.7786e-10,0,0.0010014,0.00010112,2.2775e+08,-51.691,0,3.1639e+08,-2.8481,12592,527.79,0,527.79,0,0.00077057,6.5631e-10,0,0.00039609,0.00014416,2.5375e+08,176.1,0,1.2445e+08,39.718,527.79,1
1820,4.66,12139,1,12139,1,0.00013058,-6.1173e-09,0,0.00067499,-2.3822e-05,-9.9785,-1749.4,0,2.2145e+08,-16.683,12138,13096,1,13096,1,0.001421,2.6002e-09,0,0.001421,0.0002177,3.5869e+08,890.45,0,4.7174e+08,276.24,13095,12138,1,12138,1,0.00013058,-5.6328e-09,0,0.00066909,-2.3775e-05,4.2426e+07,-1613,0,2.2784e+08,5.4065,12137,11203,1,11203,1,-0.0011599,-1.8757e-08,0,1.2791e-05,-0.00026523,-4.7174e+08,-5198.5,0,5.751e+06,-390.18,11202,11683,1,11683,1,-0.0005385,-1.0001e-08,0,0.00033454,-0.000149,-2.1901e+08,-2914.8,0,1.1859e+08,-117.15,11682,12593,1,12593,1,0.00079967,-1.5211e-09,0,0.0010036,0.00010129,2.2817e+08,-433.75,0,3.1684e+08,93.558,12592,527.79,0,527.79,0,0.00077231,5.417e-09,0,0.00039705,0.00014448,2.5417e+08,1551.4,0,1.2463e+08,150.51,527.79,1
1820,4.67,12139,1,12139,1,0.00013122,2.9431e-09,0,0.00067658,-2.394e-05,3.078,785.92,0,2.2184e+08,-28.683,12138,13096,1,13096,1,0.0014246,7.0005e-09,0,0.0014246,0.00021813,3.59e+08,1722.8,0,4.7268e+08,214.22,13095,12138,1,12138,1,0.00013122,2.9254e-09,0,0.00067063,-2.3894e-05,4.2635e+07,866.34,0,2.2827e+08,-12.541,12137,11203,1,11203,1,-0.0011622,-9.4836e-10,0,1.2478e-05,-0.00026589,-4.7268e+08,-324.77,0,5.6367e+06,-311.15,11202,11683,1,11683,1,-0.00053941,1.0774e-09,0,0.00033532,-0.00014941,-2.1938e+08,323.59,0,1.1885e+08,-59.349,11682,12593,1,12593,1,0.00080186,4.986e-09,0,0.001006,0.00010146,2.2861e+08,1287.8,0,3.173e+08,10.99,12592,527.79,0,527.79,0,0.0007741,2.2023e-09,0,0.00039804,0.00014481,2.546e+08,556.42,0,1.2483e+08,76.134,527.79,1
1820,4.68,12139,1,12139,1,0.00013187,2.0256e-11,0,0.00067815,-2.4058e-05,27.874,6.2219,0,2.2221e+08,-6.3893,12138,13096,1,13096,1,0.0014282,5.9879e-09,0,0.0014282,0.00021856,3.5928e+08,1688.8,0,4.7361e+08,183.86,13095,12138,1,12138,1,0.00013187,-1.7604e-10,0,0.00067216,-2.4014e-05,4.2845e+07,-50.646,0,2.2869e+08,-7.7066,12137,11203,1,11203,1,-0.0011644,-2.8519e-09,0,1.2165e-05,-0.00026655,-4.7361e+08,-803.83,0,5.5226e+06,-164.72,11202,11683,1,11683,1,-0.00054029,-1.1936e-09,0,0.00033608,-0.00014981,-2.1973e+08,-342.58,0,1.1911e+08,-39.836,11682,12593,1,12593,1,0.00080403,7.3781e-10,0,0.0010082,0.00010163,2.2904e+08,215.92,0,3.1775e+08,18.897,12592,527.79,0,527.79,0,0.00077586,1.7926e-09,0,0.00039902,0.00014514,2.5502e+08,523.6,0,1.2502e+08,57.572,527.79,1
1820,4.69,12139,1,12139,1,0.00013251,8.4221e-11,0,0.0006797,-2.4177e-05,50.259,27.05,0,2.2259e+08,-30.365,12138,13096,1,13096,1,0.0014318,5.4114e-09,0,0.0014318,0.00021899,3.5956e+08,1576.6,0,4.7454e+08,109.84,13095,12138,1,12138,1,0.00013251,5.5564e-11,0,0.00067368,-2.4133e-05,4.3054e+07,14.258,0,2.2911e+08,-25.524,12137,11203,1,11203,1,-0.0011667,-3.1661e-09,0,1.1847e-05,-0.00026722,-4.7454e+08,-892.46,0,5.4065e+06,-170.44,11202,11683,1,11683,1,-0.00054117,-1.2047e-09,0,0.00033684,-0.00015021,-2.2009e+08,-343.02,0,1.1936e+08,-80.547,11682,12593,1,12593,1,0.00080619,9.8858e-10,0,0.0010105,0.00010179,2.2946e+08,283.71,0,3.1819e+08,13.714,12592,527.79,0,527.79,0,0.00077761,1.7604e-09,0,0.0004,0.00014547,2.5544e+08,527.32,0,1.2521e+08,59.382,527.79,1
1820,4.7,12139,1,12139,1,0.00013316,7.7698e-11,0,0.00068127,-2.4295e-05,93.716,18.896,0,2.2296e+08,19.103,12138,13096,1,13096,1,0.0014354,8.2646e-09,0,0.0014354,0.00021943,3.5986e+08,2330.3,0,4.7548e+08,324.96,13095,12138,1,12138,1,0.00013316,-2.0125e-10,0,0.00067521,-2.4253e-05,4.3264e+07,-48.812,0,2.2953e+08,9.9779,12137,11203,1,11203,1,-0.001169,-4.9655e-09,0,1.153e-05,-0.00026789,-4.7548e+08,-1395.5,0,5.2909e+06,-188.58,11202,11683,1,11683,1,-0.00054205,-1.6753e-09,0,0.0003376,-0.00015061,-2.2045e+08,-496.26,0,1.1962e+08,-40.348,11682,12593,1,12593,1,0.00080837,1.4279e-09,0,0.0010128,0.00010196,2.2989e+08,416.83,0,3.1864e+08,75.437,12592,527.79,0,527.79,0,0.00077938,2.7055e-09,0,0.00040098,0.0001458,2.5586e+08,795.12,0,1.254e+08,87.835,527.79,1
1820,4.71,12139,1,12139,1,0.00013381,-7.3013e-10,0,0.00068285,-2.4415e-05,-38.349,-202.89,0,2.2334e+08,-39.688,12138,13096,1,13096,1,0.001439,1.59e-09,0,0.001439,0.00021986,3.6015e+08,544,0,4.7642e+08,692.1,13095,12138,1,12138,1,0.00013381,-8.197e-10,0,0.00067675,-2.4374e-05,4.3476e+07,-220.98,0,2.2995e+08,-39.169,12137,11203,1,11203,1,-0.0011714,-3.0994e-09,0,1.1208e-05,-0.00026856,-4.7642e+08,-881.33,0,5.1731e+06,-217.91,11202,11683,1,11683,1,-0.00054294,-1.4918e-09,0,0.00033837,-0.00015102,-2.2081e+08,-422.42,0,1.1987e+08,-97.735,11682,12593,1,12593,1,0.00081055,1.3852e-10,0,0.0010151,0.00010212,2.3032e+08,35.962,0,3.1909e+08,-2.4536,12592,527.79,0,527.79,0,0.00078115,1.0175e-09,0,0.00040196,0.00014613,2.5629e+08,304.74,0,1.256e+08,96.401,527.79,1
1820,4.72,12139,1,12139,1,0.00013446,-3.4103e-09,0,0.00068439,-2.4534e-05,-43.728,-980.21,0,2.2371e+08,-38.506,12138,13096,1,13096,1,0.0014426,5.2418e-09,0,0.0014426,0.00022029,3.6043e+08,1523.7,0,4.7735e+08,289.64,13095,12138,1,12138,1,0.00013446,-2.8481e-09,0,0.00067825,-2.4494e-05,4.3687e+07,-802.41,0,2.3036e+08,-27.856,12137,11203,1,11203,1,-0.0011736,-1.2845e-08,0,1.0883e-05,-0.00026922,-4.7735e+08,-3585.9,0,5.0549e+06,-319.73,11202,11683,1,11683,1,-0.0005438,-6.8674e-09,0,0.00033913,-0.00015142,-2.2116e+08,-2015.2,0,1.2012e+08,-128.61,11682,12593,1,12593,1,0.00081271,2.4844e-10,0,0.0010174,0.00010229,2.3074e+08,62.796,0,3.1953e+08,50.473,12592,527.79,0,527.79,0,0.00078289,4.2463e-09,0,0.00040293,0.00014645,2.5669e+08,1235.3,0,1.2578e+08,125.94,527.79,1
1820,4.73,12139,1,12139,1,0.0001351,-1.3313e-09,0,0.00068595,-2.4653e-05,-51.594,-416.1,0,2.2408e+08,-28.52,12138,13096,1,13096,1,0.0014461,5.4871e-09,0,0.0014461,0.00022072,3.607e+08,1571.4,0,4.7828e+08,148.86,13095,12138,1,12138,1,0.0001351,-6.605e-10,0,0.00067978,-2.4615e-05,4.3898e+07,-179.09,0,2.3077e+08,-10.112,12137,11203,1,11203,1,-0.0011759,-8.1146e-09,0,1.0558e-05,-0.00026989,-4.7828e+08,-2359.8,0,4.9365e+06,-227.27,11202,11683,1,11683,1,-0.00054467,-3.5793e-09,0,0.00033988,-0.00015182,-2.2152e+08,-1062.2,0,1.2038e+08,-106.86,11682,12593,1,12593,1,0.00081488,7.4937e-10,0,0.0010197,0.00010245,2.3116e+08,184.78,0,3.1997e+08,44.613,12592,527.79,0,527.79,0,0.00078465,2.984e-09,0,0.00040391,0.00014678,2.5711e+08,898.53,0,1.2597e+08,88.555,527.79,1
1820,4.74,12139,1,12139,1,0.00013576,-3.6087e-09,0,0.00068752,-2.4773e-05,37.957,-1056.4,0,2.2445e+08,-46.72,12138,13096,1,13096,1,0.0014498,2.0102e-09,0,0.0014498,0.00022115,3.6099e+08,671.21,0,4.7921e+08,249.52,13095,12138,1,12138,1,0.00013576,-2.4745e-09,0,0.00068131,-2.4736e-05,4.4111e+07,-706.1,0,2.3119e+08,-35.968,12137,11203,1,11203,1,-0.0011782,-1.4893e-08,0,1.0232e-05,-0.00027056,-4.7921e+08,-4181.9,0,4.8177e+06,-337.84,11202,11683,1,11683,1,-0.00054554,-6.0606e-09,0,0.00034065,-0.00015223,-2.2187e+08,-1780.9,0,1.2063e+08,-119.26,11682,12593,1,12593,1,0.00081706,-2.292e-10,0,0.001022,0.00010262,2.3158e+08,-59.293,0,3.2041e+08,25.893,12592,527.79,0,527.79,0,0.00078641,4.1438e-09,0,0.00040489,0.00014711,2.5753e+08,1230.6,0,1.2616e+08,114.68,527.79,1
1820,4.75,12139,1,12139,1,0.00013641,-8.8563e-10,0,0.00068909,-2.4894e-05,8.431,-299.01,0,2.2482e+08,-40.281,12138,13096,1,13096,1,0.0014534,4.5533e-09,0,0.0014534,0.00022158,3.6126e+08,1298.8,0,4.8014e+08,181.21,13095,12138,1,12138,1,0.00013642,-2.3336e-11,0,0.00068285,-2.4859e-05,4.4326e+07,-8.0044,0,2.3161e+08,-19.923,12137,11203,1,11203,1,-0.0011805,-9.8933e-09,0,9.9007e-06,-0.00027123,-4.8014e+08,-2857.3,0,4.6972e+06,-866.92,11202,11683,1,11683,1,-0.00054642,-2.9274e-09,0,0.00034142,-0.00015263,-2.2223e+08,-849.86,0,1.2089e+08,-108.73,11682,12593,1,12593,1,0.00081926,1.3791e-09,0,0.0010243,0.00010278,2.3201e+08,348.24,0,3.2085e+08,30.364,12592,527.79,0,527.79,0,0.00078818,3.3364e-09,0,0.00040588,0.00014744,2.5795e+08,999.08,0,1.2635e+08,113.45,527.79,1
1820,4.76,12139,1,12139,1,0.00013708,-2.9021e-09,0,0.00069066,-2.5016e-05,10.221,-855.41,0,2.2519e+08,-63.848,12138,13096,1,13096,1,0.001457,5.1655e-09,0,0.001457,0.00022201,3.6154e+08,1486.2,0,4.8108e+08,284.27,13095,12138,1,12138,1,0.00013708,-1.8699e-09,0,0.00068437,-2.4981e-05,4.4541e+07,-500.74,0,2.3202e+08,-42.663,12137,11203,1,11203,1,-0.0011828,-1.3237e-08,0,9.5678e-06,-0.0002719,-4.8108e+08,-3841.5,0,4.5764e+06,-3030.9,11202,11683,1,11683,1,-0.00054729,-5.9857e-09,0,0.00034218,-0.00015304,-2.2258e+08,-1772.2,0,1.2114e+08,-125.15,11682,12593,1,12593,1,0.00082144,3.6715e-10,0,0.0010265,0.00010294,2.3243e+08,94.015,0,3.2129e+08,35.191,12592,527.79,0,527.79,0,0.00078994,4.2645e-09,0,0.00040686,0.00014776,2.5836e+08,1273.3,0,1.2654e+08,215.89,527.79,1
1820,4.77,12139,1,12139,1,0.00013776,2.3745e-09,0,0.00069227,-2.5142e-05,-166.94,639.94,0,2.2557e+08,-54.221,12138,13096,1,13096,1,0.0014606,6.2269e-09,0,0.0014606,0.00022244,3.6182e+08,1650.2,0,4.8202e+08,201.36,13095,12138,1,12138,1,0.00013776,2.5818e-09,0,0.00068593,-2.5109e-05,4.4764e+07,736.97,0,2.3244e+08,-33.329,12137,11203,1,11203,1,-0.0011851,-1.4001e-09,0,9.2172e-06,-0.00027258,-4.8202e+08,-479.46,0,4.4484e+06,-1976.6,11202,11683,1,11683,1,-0.00054817,5.0405e-10,0,0.00034297,-0.00015345,-2.2294e+08,146.78,0,1.2139e+08,-73.4,11682,12593,1,12593,1,0.00082369,4.0458e-09,0,0.0010289,0.00010311,2.3285e+08,1130.4,0,3.2173e+08,13.345,12592,527.79,0,527.79,0,0.00079175,2.1038e-09,0,0.00040788,0.0001481,2.5879e+08,568.04,0,1.2673e+08,225.72,527.79,1
1820,4.78,12139,1,12139,1,0.00013848,4.2432e-10,0,0.00069387,-2.5274e-05,29.254,127.36,0,2.2593e+08,-58.856,12138,13096,1,13096,1,0.0014644,1.7556e-09,0,0.0014644,0.00022287,3.6205e+08,547.66,0,4.8295e+08,76.568,13095,12138,1,12138,1,0.00013848,4.5885e-10,0,0.00068749,-2.5242e-05,4.4998e+07,138.27,0,2.3284e+08,-39.071,12137,11203,1,11203,1,-0.0011874,-8.499e-10,0,8.8369e-06,-0.00027327,-4.8295e+08,-194.95,0,4.3095e+06,-669.42,11202,11683,1,11683,1,-0.00054901,1.8359e-11,0,0.00034374,-0.00015388,-2.2328e+08,5.2837,0,1.2164e+08,-72.465,11682,12593,1,12593,1,0.00082597,7.9819e-10,0,0.0010312,0.00010327,2.3326e+08,244.54,0,3.2215e+08,-15.407,12592,527.79,0,527.79,0,0.00079356,5.4911e-10,0,0.00040889,0.00014844,2.5919e+08,148.71,0,1.2692e+08,97.823,527.79,1
1820,4.79,12139,1,12139,1,0.0001392,2.0627e-09,0,0.00069546,-2.5406e-05,6.3291,595.21,0,2.2628e+08,-10.396,12138,13096,1,13096,1,0.0014681,5.4002e-09,0,0.0014681,0.0002233,3.6228e+08,1608.1,0,4.8387e+08,122.55,13095,12138,1,12138,1,0.0001392,2.1195e-09,0,0.00068904,-2.5376e-05,4.5232e+07,597.79,0,2.3324e+08,3.1168,12137,11203,1,11203,1,-0.0011897,-9.8891e-10,0,8.4479e-06,-0.00027396,-4.8387e+08,-338.66,0,4.1677e+06,-722.17,11202,11683,1,11683,1,-0.00054983,7.9428e-10,0,0.00034452,-0.0001543,-2.2361e+08,220,0,1.2189e+08,-26.437,11682,12593,1,12593,1,0.00082824,3.3079e-09,0,0.0010336,0.00010342,2.3366e+08,971.13,0,3.2256e+08,37.131,12592,527.79,0,527.79,0,0.00079534,1.5753e-09,0,0.0004099,0.00014877,2.5959e+08,460.91,0,1.271e+08,113.39,527.79,1
1820,4.8,12139,1,12139,1,0.00013992,-3.506e-09,0,0.00069704,-2.5538e-05,-88.439,-979.88,0,2.2663e+08,-32.287,12138,13096,1,13096,1,0.0014718,2.5208e-09,0,0.0014718,0.00022372,3.6251e+08,788.78,0,4.8479e+08,233.13,13095,12138,1,12138,1,0.00013992,-3.272e-09,0,0.00069057,-2.551e-05,4.5466e+07,-927.99,0,2.3363e+08,-25.566,12137,11203,1,11203,1,-0.0011919,-1.1539e-08,0,8.058e-06,-0.00027464,-4.8479e+08,-3597,0,4.0257e+06,-2014.7,11202,11683,1,11683,1,-0.00055065,-5.9542e-09,0,0.00034529,-0.00015471,-2.2395e+08,-1703.4,0,1.2214e+08,-60.973,11682,12593,1,12593,1,0.00083049,-6.9237e-10,0,0.0010359,0.00010358,2.3406e+08,-195.35,0,3.2297e+08,13.623,12592,527.79,0,527.79,0,0.00079711,3.1905e-09,0,0.0004109,0.0001491,2.5998e+08,897.55,0,1.2728e+08,187.81,527.79,1
1820,4.81,12139,1,12139,1,0.00014064,-3.53e-09,0,0.00069863,-2.567e-05,-202.27,-1035.7,0,2.2699e+08,-43.245,12138,13096,1,13096,1,0.0014755,2.3787e-09,0,0.0014755,0.00022415,3.6274e+08,796.94,0,4.8571e+08,265.25,13095,12138,1,12138,1,0.00014064,-3.2905e-09,0,0.00069212,-2.5644e-05,4.57e+07,-950.34,0,2.3402e+08,-43.984,12137,11203,1,11203,1,-0.0011942,-1.0887e-08,0,7.6676e-06,-0.00027533,-4.8571e+08,-3064.8,0,3.8835e+06,-359.38,11202,11683,1,11683,1,-0.00055147,-6.4437e-09,0,0.00034605,-0.00015513,-2.2428e+08,-1923.1,0,1.2239e+08,-102.1,11682,12593,1,12593,1,0.00083275,-3.5552e-10,0,0.0010382,0.00010373,2.3446e+08,-95.638,0,3.2338e+08,4.9566,12592,527.79,0,527.79,0,0.00079889,3.4699e-09,0,0.00041191,0.00014943,2.6038e+08,1022,0,1.2746e+08,98.545,527.79,1
1820,4.82,12139,1,12139,1,0.00014137,-1.5971e-09,0,0.00070023,-2.5804e-05,-89.522,-509.68,0,2.2735e+08,-81.43,12138,13096,1,13096,1,0.0014792,1.6425e-09,0,0.0014792,0.00022457,3.6297e+08,401.71,0,4.8663e+08,116.11,13095,12138,1,12138,1,0.00014137,-1.759e-09,0,0.00069368,-2.5779e-05,4.5937e+07,-503.79,0,2.3442e+08,-54.733,12137,11203,1,11203,1,-0.0011965,-5.081e-09,0,7.2713e-06,-0.00027602,-4.8663e+08,-1537.7,0,3.7391e+06,-354.34,11202,11683,1,11683,1,-0.00055231,-3.3631e-09,0,0.00034683,-0.00015556,-2.2462e+08,-1046.7,0,1.2264e+08,-141.69,11682,12593,1,12593,1,0.00083504,5.5572e-11,0,0.0010405,0.00010389,2.3486e+08,13.599,0,3.238e+08,-15.776,12592,527.79,0,527.79,0,0.0008007,1.8619e-09,0,0.00041293,0.00014977,2.6078e+08,559.74,0,1.2764e+08,86.295,527.79,1
1820,4.83,12139,1,12139,1,0.0001421,-8.1686e-10,0,0.00070182,-2.5938e-05,104.74,-280.11,0,2.277e+08,-17.813,12138,13096,1,13096,1,0.0014829,3.9459e-09,0,0.0014829,0.00022499,3.6318e+08,1031.5,0,4.8755e+08,130.82,13095,12138,1,12138,1,0.0001421,-5.6127e-10,0,0.00069523,-2.5915e-05,4.6175e+07,-158.35,0,2.3482e+08,-3.1643,12137,11203,1,11203,1,-0.0011987,-4.9392e-09,0,6.8718e-06,-0.00027671,-4.8755e+08,-1438.2,0,3.5936e+06,-218.72,11202,11683,1,11683,1,-0.00055312,-2.5665e-09,0,0.00034761,-0.00015598,-2.2495e+08,-800.66,0,1.2288e+08,-49.747,11682,12593,1,12593,1,0.00083732,7.9241e-10,0,0.0010428,0.00010404,2.3526e+08,200.34,0,3.242e+08,21.068,12592,527.79,0,527.79,0,0.00080248,2.0425e-09,0,0.00041394,0.0001501,2.6118e+08,602.4,0,1.2782e+08,62.956,527.79,1
1820,4.84,12139,1,12139,1,0.00014283,-1.9132e-09,0,0.00070343,-2.6073e-05,-31.751,-578.86,0,2.2805e+08,-65.341,12138,13096,1,13096,1,0.0014867,1.384e-09,0,0.0014867,0.00022542,3.6341e+08,388.8,0,4.8848e+08,91.607,13095,12138,1,12138,1,0.00014283,-2.1141e-09,0,0.00069679,-2.6052e-05,4.6415e+07,-593.57,0,2.3521e+08,-45.509,12137,11203,1,11203,1,-0.001201,-5.3094e-09,0,6.4732e-06,-0.0002774,-4.8848e+08,-1519.9,0,3.4485e+06,-301.45,11202,11683,1,11683,1,-0.00055395,-3.3842e-09,0,0.00034839,-0.00015641,-2.2529e+08,-1046.7,0,1.2313e+08,-109.16,11682,12593,1,12593,1,0.00083962,-4.9168e-10,0,0.0010452,0.0001042,2.3566e+08,-125.64,0,3.2461e+08,-9.1457,12592,527.79,0,527.79,0,0.00080428,1.7498e-09,0,0.00041497,0.00015043,2.6158e+08,524.98,0,1.2801e+08,77.609,527.79,1
1820,4.85,12139,1,12139,1,0.00014357,-1.1456e-09,0,0.00070504,-2.6209e-05,-47.068,-366.1,0,2.2841e+08,-20.526,12138,13096,1,13096,1,0.0014904,7.9399e-10,0,0.0014904,0.00022585,3.6362e+08,167.94,0,4.894e+08,67.384,13095,12138,1,12138,1,0.00014357,-1.2197e-09,0,0.00069835,-2.6189e-05,4.6656e+07,-364.8,0,2.3561e+08,-10.745,12137,11203,1,11203,1,-0.0012033,-3.4473e-09,0,6.0675e-06,-0.0002781,-4.894e+08,-1047.2,0,3.3007e+06,-179.91,11202,11683,1,11683,1,-0.00055477,-2.1634e-09,0,0.00034917,-0.00015683,-2.2562e+08,-686.62,0,1.2338e+08,-44.801,11682,12593,1,12593,1,0.00084192,6.2015e-13,0,0.0010475,0.00010435,2.3606e+08,0.49271,0,3.2502e+08,8.8918,12592,527.79,0,527.79,0,0.00080609,1.2054e-09,0,0.00041599,0.00015077,2.6198e+08,369.71,0,1.2819e+08,47.607,527.79,1
1820,4.86,12139,1,12139,1,0.00014431,-1.0196e-09,0,0.00070663,-2.6345e-05,64.184,-321.15,0,2.2876e+08,-13.189,12138,13096,1,13096,1,0.0014941,1.0327e-09,0,0.0014941,0.00022627,3.6383e+08,277.75,0,4.9031e+08,97.775,13095,12138,1,12138,1,0.00014432,-8.0216e-10,0,0.0006999,-2.6327e-05,4.6897e+07,-232.23,0,2.36e+08,-16.793,12137,11203,1,11203,1,-0.0012055,-4.3186e-09,0,5.6589e-06,-0.00027879,-4.9031e+08,-1230.1,0,3.1518e+06,-131.99,11202,11683,1,11683,1,-0.00055558,-2.0542e-09,0,0.00034994,-0.00015726,-2.2595e+08,-623.25,0,1.2363e+08,-41.903,11682,12593,1,12593,1,0.00084421,8.6752e-11,0,0.0010498,0.00010451,2.3646e+08,25.75,0,3.2542e+08,18.18,12592,527.79,0,527.79,0,0.00080788,1.3262e-09,0,0.00041701,0.0001511,2.6237e+08,396.06,0,1.2837e+08,43.88,527.79,1
1820,4.87,12139,1,12139,1,0.00014506,1.2455e-09,0,0.00070824,-2.6481e-05,75.324,327.61,0,2.2911e+08,-2.6109,12138,13096,1,13096,1,0.0014979,2.9998e-09,0,0.0014979,0.00022669,3.6404e+08,748.2,0,4.9123e+08,80.583,13095,12138,1,12138,1,0.00014506,1.279e-09,0,0.00070145,-2.6465e-05,4.7139e+07,365.11,0,2.3639e+08,-2.9544,12137,11203,1,11203,1,-0.0012078,-6.3035e-10,0,5.2511e-06,-0.00027948,-4.9123e+08,-215.86,0,3.0032e+06,-109.48,11202,11683,1,11683,1,-0.0005564,3.4859e-10,0,0.00035073,-0.00015768,-2.2628e+08,101.93,0,1.2388e+08,-16.535,11682,12593,1,12593,1,0.00084651,2.2451e-09,0,0.0010522,0.00010466,2.3686e+08,576.29,0,3.2583e+08,9.9927,12592,527.79,0,527.79,0,0.00080968,1.0454e-09,0,0.00041803,0.00015144,2.6276e+08,269.87,0,1.2855e+08,24.891,527.79,1
1820,4.88,12139,1,12139,1,0.0001458,-2.565e-09,0,0.00070982,-2.6618e-05,-55.375,-729.5,0,2.2945e+08,-51.566,12138,13096,1,13096,1,0.0015016,1.095e-09,0,0.0015016,0.00022712,3.6424e+08,374.98,0,4.9214e+08,100.36,13095,12138,1,12138,1,0.0001458,-2.839e-09,0,0.000703,-2.6604e-05,4.7381e+07,-819.51,0,2.3678e+08,-41.147,12137,11203,1,11203,1,-0.00121,-5.7889e-09,0,4.8406e-06,-0.00028017,-4.9214e+08,-1615,0,2.8537e+06,-242.6,11202,11683,1,11683,1,-0.0005572,-3.9748e-09,0,0.0003515,-0.00015811,-2.2661e+08,-1146.8,0,1.2412e+08,-94.42,11682,12593,1,12593,1,0.0008488,-1.1746e-09,0,0.0010545,0.00010481,2.3725e+08,-341.96,0,3.2622e+08,-3.8754,12592,527.79,0,527.79,0,0.00081146,1.8078e-09,0,0.00041905,0.00015177,2.6315e+08,516.09,0,1.2872e+08,62.773,527.79,1
1820,4.89,12139,1,12139,1,0.00014655,-2.4297e-09,0,0.00071143,-2.6755e-05,-47.278,-720.18,0,2.298e+08,-16.285,12138,13096,1,13096,1,0.0015054,1.352e-09,0,0.0015054,0.00022754,3.6445e+08,412.89,0,4.9307e+08,105.26,13095,12138,1,12138,1,0.00014655,-2.5157e-09,0,0.00070456,-2.6743e-05,4.7624e+07,-712.56,0,2.3717e+08,-14.994,12137,11203,1,11203,1,-0.0012123,-6.4878e-09,0,4.4261e-06,-0.00028087,-4.9307e+08,-1824.6,0,2.7026e+06,-211.37,11202,11683,1,11683,1,-0.00055801,-4.115e-09,0,0.00035228,-0.00015853,-2.2694e+08,-1239.1,0,1.2437e+08,-58.085,11682,12593,1,12593,1,0.00085111,-7.9941e-10,0,0.0010568,0.00010496,2.3764e+08,-211.35,0,3.2662e+08,24.231,12592,527.79,0,527.79,0,0.00081326,2.0319e-09,0,0.00042008,0.00015211,2.6354e+08,603.76,0,1.2891e+08,59.72,527.79,1
1820,4.9,12139,1,12139,1,0.0001473,-2.9178e-09,0,0.00071303,-2.6893e-05,21.856,-874.05,0,2.3015e+08,-32.826,12138,13096,1,13096,1,0.0015092,1.5003e-09,0,0.0015092,0.00022796,3.6464e+08,400.46,0,4.9398e+08,167.49,13095,12138,1,12138,1,0.0001473,-3.0698e-09,0,0.00070612,-2.6882e-05,4.7869e+07,-873.44,0,2.3756e+08,-26.555,12137,11203,1,11203,1,-0.0012145,-7.2996e-09,0,4.0053e-06,-0.00028157,-4.9398e+08,-2085.4,0,2.5492e+06,-256.05,11202,11683,1,11683,1,-0.00055881,-4.9023e-09,0,0.00035305,-0.00015896,-2.2727e+08,-1528.4,0,1.2462e+08,-88.172,11682,12593,1,12593,1,0.00085342,-1.0222e-09,0,0.0010592,0.00010512,2.3804e+08,-256,0,3.2702e+08,18.214,12592,527.79,0,527.79,0,0.00081506,2.3295e-09,0,0.0004211,0.00015244,2.6393e+08,705.54,0,1.2908e+08,75.121,527.79,1
1820,4.91,12139,1,12139,1,0.00014805,-2.3201e-09,0,0.00071462,-2.7031e-05,-88.159,-713.46,0,2.3049e+08,4.0038,12138,13096,1,13096,1,0.0015129,3.1811e-09,0,0.0015129,0.00022838,3.6483e+08,816.05,0,4.9489e+08,199.94,13095,12138,1,12138,1,0.00014805,-1.9139e-09,0,0.00070766,-2.7022e-05,4.8113e+07,-542.3,0,2.3795e+08,9.8737,12137,11203,1,11203,1,-0.0012168,-8.9773e-09,0,3.5837e-06,-0.00028226,-4.9489e+08,-2539.4,0,2.3955e+06,-216.7,11202,11683,1,11683,1,-0.00055961,-4.9318e-09,0,0.00035382,-0.00015939,-2.2759e+08,-1472.2,0,1.2486e+08,-42.637,11682,12593,1,12593,1,0.00085571,2.1148e-10,0,0.0010615,0.00010526,2.3843e+08,56.792,0,3.274e+08,57.341,12592,527.79,0,527.79,0,0.00081683,2.9905e-09,0,0.00042212,0.00015277,2.6432e+08,886.71,0,1.2926e+08,76.919,527.79,1
1820,4.92,12139,1,12139,1,0.0001488,-2.7565e-09,0,0.00071622,-2.7169e-05,-32.106,-838.15,0,2.3084e+08,-34.163,12138,13096,1,13096,1,0.0015166,1.928e-09,0,0.0015166,0.0002288,3.6502e+08,490,0,4.958e+08,135.36,13095,12138,1,12138,1,0.0001488,-2.3984e-09,0,0.00070922,-2.7162e-05,4.8359e+07,-685.24,0,2.3834e+08,-23.871,12137,11203,1,11203,1,-0.001219,-9.1631e-09,0,3.1634e-06,-0.00028296,-4.958e+08,-2611.3,0,2.2423e+06,-302.55,11202,11683,1,11683,1,-0.00056041,-5.2808e-09,0,0.0003546,-0.00015981,-2.2791e+08,-1595.5,0,1.2511e+08,-93.124,11682,12593,1,12593,1,0.00085802,-1.3342e-10,0,0.0010638,0.00010542,2.3882e+08,-33.374,0,3.278e+08,27.687,12592,527.79,0,527.79,0,0.00081863,2.8733e-09,0,0.00042314,0.0001531,2.6471e+08,870.56,0,1.2944e+08,88.109,527.79,1
1820,4.93,12139,1,12139,1,0.00014956,-1.3377e-09,0,0.00071784,-2.7309e-05,-21.302,-438.48,0,2.3119e+08,-66.402,12138,13096,1,13096,1,0.0015204,1.8455e-09,0,0.0015204,0.00022923,3.6521e+08,384.86,0,4.9672e+08,100.77,13095,12138,1,12138,1,0.00014957,-1.5579e-09,0,0.00071079,-2.7304e-05,4.8607e+07,-460.63,0,2.3873e+08,-40.307,12137,11203,1,11203,1,-0.0012213,-4.6397e-09,0,2.7384e-06,-0.00028366,-4.9672e+08,-1422.5,0,2.0873e+06,-343.24,11202,11683,1,11683,1,-0.00056122,-2.8653e-09,0,0.00035538,-0.00016024,-2.2824e+08,-896.83,0,1.2536e+08,-123.73,11682,12593,1,12593,1,0.00086035,2.1339e-10,0,0.0010662,0.00010557,2.3921e+08,51.242,0,3.2819e+08,6.8682,12592,527.79,0,527.79,0,0.00082044,1.7695e-09,0,0.00042418,0.00015344,2.651e+08,527.37,0,1.2962e+08,101.79,527.79,1
1820,4.94,12139,1,12139,1,0.00015033,-1.9421e-10,0,0.00071943,-2.7449e-05,-93.065,-103.7,0,2.3152e+08,3.9154,12138,13096,1,13096,1,0.0015241,2.4107e-09,0,0.0015241,0.00022964,3.6539e+08,620.72,0,4.9761e+08,139.28,13095,12138,1,12138,1,0.00015033,-1.1977e-10,0,0.00071233,-2.7446e-05,4.8855e+07,-37.465,0,2.3911e+08,5.547,12137,11203,1,11203,1,-0.0012235,-4.0358e-09,0,2.3084e-06,-0.00028434,-4.9761e+08,-1237.5,0,1.9305e+06,-157.99,11202,11683,1,11683,1,-0.000562,-1.1854e-09,0,0.00035616,-0.00016067,-2.2856e+08,-382.95,0,1.256e+08,-30.329,11682,12593,1,12593,1,0.00086265,1.0177e-09,0,0.0010685,0.00010572,2.396e+08,245.62,0,3.2857e+08,31.875,12592,527.79,0,527.79,0,0.00082222,1.4503e-09,0,0.0004252,0.00015377,2.6548e+08,421.93,0,1.2979e+08,53.715,527.79,1
1820,4.95,12139,1,12139,1,0.00015109,-4.2355e-09,0,0.00072102,-2.7588e-05,-195.06,-1229.2,0,2.3187e+08,-49.372,12138,13096,1,13096,1,0.0015279,2.2045e-09,0,0.0015279,0.00023007,3.6558e+08,754.95,0,4.9853e+08,234.5,13095,12138,1,12138,1,0.00015109,-4.3855e-09,0,0.00071388,-2.7587e-05,4.9102e+07,-1204.9,0,2.3949e+08,-45.998,12137,11203,1,11203,1,-0.0012257,-1.1216e-08,0,1.8818e-06,-0.00028505,-4.9853e+08,-3152.2,0,1.775e+06,-386.41,11202,11683,1,11683,1,-0.00056279,-7.1282e-09,0,0.00035693,-0.0001611,-2.2888e+08,-2118.3,0,1.2585e+08,-112.9,11682,12593,1,12593,1,0.00086496,-1.2458e-09,0,0.0010708,0.00010586,2.3999e+08,-343.76,0,3.2896e+08,10.025,12592,527.79,0,527.79,0,0.00082401,3.503e-09,0,0.00042623,0.00015411,2.6586e+08,1027.8,0,1.2997e+08,98.422,527.79,1
1820,4.96,12139,1,12139,1,0.00015185,-3.3289e-09,0,0.00072261,-2.7728e-05,50.762,-1010,0,2.322e+08,-24.008,12138,13096,1,13096,1,0.0015317,2.1433e-09,0,0.0015317,0.00023048,3.6574e+08,620.67,0,4.9943e+08,317.52,13095,12138,1,12138,1,0.00015185,-2.638e-09,0,0.00071543,-2.7729e-05,4.9351e+07,-749.37,0,2.3987e+08,-21.893,12137,11203,1,11203,1,-0.0012279,-1.2718e-08,0,1.4455e-06,-0.00028574,-4.9943e+08,-3599.7,0,1.6158e+06,-352.14,11202,11683,1,11683,1,-0.00056356,-6.0786e-09,0,0.0003577,-0.00016153,-2.292e+08,-1842.3,0,1.2609e+08,-92.404,11682,12593,1,12593,1,0.00086727,-5.8008e-11,0,0.0010731,0.00010601,2.4037e+08,-12.405,0,3.2934e+08,52.259,12592,527.79,0,527.79,0,0.00082579,3.748e-09,0,0.00042725,0.00015444,2.6624e+08,1124.4,0,1.3014e+08,128.99,527.79,1
1820,4.97,12139,1,12139,1,0.00015263,2.6749e-09,0,0.00072425,-2.7871e-05,-89.097,687.33,0,2.3256e+08,-20.911,12138,13096,1,13096,1,0.0015354,6.85e-09,0,0.0015354,0.00023091,3.6595e+08,1769.1,0,5.0035e+08,122.69,13095,12138,1,12138,1,0.00015263,2.7813e-09,0,0.00071701,-2.7874e-05,4.9604e+07,765.54,0,2.4027e+08,-9.1142,12137,11203,1,11203,1,-0.0012302,-1.6315e-09,0,1.0091e-06,-0.00028644,-5.0035e+08,-558.47,0,1.4567e+06,-252.84,11202,11683,1,11683,1,-0.00056438,2.9971e-10,0,0.00035851,-0.00016197,-2.2953e+08,83.947,0,1.2635e+08,-52.36,11682,12593,1,12593,1,0.00086964,4.9614e-09,0,0.0010755,0.00010617,2.4077e+08,1271.6,0,3.2974e+08,30.985,12592,527.79,0,527.79,0,0.00082763,2.483e-09,0,0.00042831,0.00015478,2.6664e+08,645.36,0,1.3033e+08,73.844,527.79,1
1820,4.98,12139,1,12139,1,0.00015345,1.555e-09,0,0.00072589,-2.8022e-05,-74.982,432.31,0,2.3289e+08,-30.395,12138,13096,1,13096,1,0.0015393,6.1632e-09,0,0.0015393,0.00023132,3.6609e+08,1753.8,0,5.0126e+08,137.69,13095,12138,1,12138,1,0.00015345,1.4565e-09,0,0.0007186,-2.8027e-05,4.9872e+07,373.29,0,2.4064e+08,-19.044,12137,11203,1,11203,1,-0.0012324,-9.154e-10,0,5.3086e-07,-0.00028716,-5.0126e+08,-259.94,0,1.2821e+06,-225.74,11202,11683,1,11683,1,-0.00056514,3.0283e-10,0,0.0003593,-0.00016241,-2.2984e+08,90.398,0,1.2658e+08,-52.548,11682,12593,1,12593,1,0.00087205,2.2947e-09,0,0.0010779,0.00010631,2.4114e+08,638.43,0,3.3011e+08,6.3255,12592,527.79,0,527.79,0,0.00082946,1.5207e-09,0,0.00042937,0.00015512,2.6701e+08,447.83,0,1.305e+08,55.155,527.79,1
1820,4.99,12139,1,12139,1,0.00015428,-2.4372e-09,0,0.00072749,-2.8174e-05,-42.884,-675.04,0,2.332e+08,-51.926,12138,13096,1,13096,1,0.0015432,2.4562e-09,0,0.0015432,0.00023173,3.6622e+08,840.25,0,5.0215e+08,93.284,13095,12138,1,12138,1,0.00015428,-2.1093e-09,0,0.00072015,-2.8181e-05,5.0141e+07,-533.91,0,2.41e+08,-46.78,12137,11203,1,11203,1,-0.0012346,-8.4121e-09,0,3.8278e-08,-0.00028787,-5.0215e+08,-2342.5,0,1.1021e+06,-239.15,11202,11683,1,11683,1,-0.00056587,-4.6406e-09,0,0.00036007,-0.00016285,-2.3014e+08,-1323.1,0,1.2681e+08,-102.7,11682,12593,1,12593,1,0.00087443,-2.5722e-10,0,0.0010802,0.00010645,2.415e+08,-61.28,0,3.3046e+08,9.9217,12592,527.79,0,527.79,0,0.00083125,2.661e-09,0,0.00043041,0.00015545,2.6737e+08,774.55,0,1.3067e+08,76.16,527.79,1
1820,5,12139,1,12139,1,0.00015511,3.539e-09,0,0.00072917,-2.8326e-05,-115.69,981.84,0,2.3354e+08,-27.303,12138,13096,1,13096,1,0.0015471,7.8173e-09,0,0.0015471,0.00023216,3.6638e+08,2032.9,0,5.0306e+08,157.73,13095,12138,1,12138,1,0.00015511,3.874e-09,0,0.00072174,-2.8335e-05,5.0411e+07,1118.9,0,2.4137e+08,-8.3474,12137,11203,1,11203,1,-0.0012369,-1.46e-09,0,4.4558e-07,-0.00028859,-5.0306e+08,-499.99,0,9.2375e+05,-289.89,11202,11683,1,11683,1,-0.00056663,1.6519e-09,0,0.00036087,-0.0001633,-2.3045e+08,475.55,0,1.2705e+08,-83.631,11682,12593,1,12593,1,0.00087685,5.4306e-09,0,0.0010826,0.00010659,2.4188e+08,1534,0,3.3083e+08,42.392,12592,527.79,0,527.79,0,0.00083309,2.4162e-09,0,0.00043143,0.0001558,2.6775e+08,657.83,0,1.3084e+08,98.015,527.79,1
1820,5.01,12139,1,12139,1,0.00015595,-1.8816e-09,0,0.00073084,-2.8481e-05,95.684,-500.72,0,2.3386e+08,-43.829,12138,13096,1,13096,1,0.0015509,1.0408e-09,0,0.0015509,0.00023257,3.665e+08,356.43,0,5.0396e+08,127.32,13095,12138,1,12138,1,0.00015595,-1.8148e-09,0,0.00072333,-2.8492e-05,5.0685e+07,-525.65,0,2.4174e+08,-33.149,12137,11203,1,11203,1,-0.0012391,-4.7402e-09,0,9.4623e-07,-0.00028931,-5.0396e+08,-1214.3,0,7.4041e+05,-249.14,11202,11683,1,11683,1,-0.00056738,-3.2843e-09,0,0.00036166,-0.00016375,-2.3075e+08,-853.19,0,1.2728e+08,-102.77,11682,12593,1,12593,1,0.00087927,-6.0071e-10,0,0.001085,0.00010673,2.4225e+08,-164.36,0,3.3119e+08,17.349,12592,527.79,0,527.79,0,0.00083492,1.5671e-09,0,0.00043244,0.00015614,2.6812e+08,405.98,0,1.3101e+08,85.106,527.79,1
1820,5.02,12139,1,12139,1,0.00015679,-1.332e-09,0,0.00073252,-2.8635e-05,7.9144,-382.86,0,2.3419e+08,-7.3834,12138,13096,1,13096,1,0.0015549,1.0893e-09,0,0.0015549,0.00023299,3.6663e+08,331.91,0,5.0486e+08,86.036,13095,12138,1,12138,1,0.00015679,-9.1148e-10,0,0.00072491,-2.8649e-05,5.0959e+07,-261.89,0,2.421e+08,-2.2576,12137,11203,1,11203,1,-0.0012413,-5.2081e-09,0,1.4507e-06,-0.00029004,-5.0486e+08,-1454.5,0,5.5763e+05,-143.49,11202,11683,1,11683,1,-0.00056812,-2.627e-09,0,0.00036246,-0.0001642,-2.3105e+08,-769.78,0,1.2752e+08,-39.645,11682,12593,1,12593,1,0.0008817,7.6717e-11,0,0.0010874,0.00010687,2.4261e+08,18.042,0,3.3155e+08,28.835,12592,527.79,0,527.79,0,0.00083675,1.5772e-09,0,0.00043345,0.00015648,2.6848e+08,457.44,0,1.3119e+08,44.351,527.79,1
1820,5.03,12139,1,12139,1,0.00015763,-1.8891e-09,0,0.00073417,-2.879e-05,18.667,-552.94,0,2.3451e+08,-30.704,12138,13096,1,13096,1,0.0015587,1.0287e-09,0,0.0015587,0.0002334,3.6675e+08,312.69,0,5.0575e+08,115.27,13095,12138,1,12138,1,0.00015763,-1.5704e-09,0,0.00072648,-2.8805e-05,5.1233e+07,-436.39,0,2.4246e+08,-28.15,12137,11203,1,11203,1,-0.0012435,-6.0046e-09,0,1.9558e-06,-0.00029076,-5.0575e+08,-1689.6,0,3.7212e+05,-192.44,11202,11683,1,11683,1,-0.00056885,-3.4459e-09,0,0.00036324,-0.00016464,-2.3135e+08,-1021.5,0,1.2775e+08,-84.898,11682,12593,1,12593,1,0.00088411,-2.7366e-10,0,0.0010897,0.00010701,2.4297e+08,-68.766,0,3.3189e+08,26.133,12592,527.79,0,527.79,0,0.00083856,1.826e-09,0,0.00043444,0.00015681,2.6884e+08,549.03,0,1.3135e+08,73.419,527.79,1
1820,5.04,12139,1,12139,1,0.00015847,-5.5202e-09,0,0.00073581,-2.8943e-05,-8.4814,-1592.4,0,2.3482e+08,-34.214,12138,13096,1,13096,1,0.0015626,2.2376e-09,0,0.0015626,0.00023381,3.6687e+08,750.26,0,5.0664e+08,371.79,13095,12138,1,12138,1,0.00015847,-5.3355e-09,0,0.00072803,-2.8961e-05,5.1505e+07,-1472.8,0,2.4282e+08,-37,12137,11203,1,11203,1,-0.0012456,-1.5251e-08,0,2.4583e-06,-0.00029147,-5.0664e+08,-4282.1,0,1.8731e+05,-420.87,11202,11683,1,11683,1,-0.00056956,-9.3666e-09,0,0.00036402,-0.00016509,-2.3164e+08,-2774.6,0,1.2798e+08,-166,11682,12593,1,12593,1,0.0008865,-1.5567e-09,0,0.0010921,0.00010714,2.4333e+08,-396.38,0,3.3223e+08,94.642,12592,527.79,0,527.79,0,0.00084035,4.5751e-09,0,0.00043543,0.00015715,2.692e+08,1350.4,0,1.3152e+08,178.47,527.79,1
1820,5.05,12139,1,12139,1,0.0001593,-4.5685e-09,0,0.00073746,-2.9097e-05,-127.67,-1374.9,0,2.3514e+08,-34.137,12138,13096,1,13096,1,0.0015665,5.5534e-09,0,0.0015665,0.00023422,3.6698e+08,1534.1,0,5.0753e+08,355.31,13095,12138,1,12138,1,0.00015931,-3.4599e-09,0,0.0007296,-2.9117e-05,5.1778e+07,-975.73,0,2.4318e+08,-17.201,12137,11203,1,11203,1,-0.0012478,-1.6637e-08,0,2.9553e-06,-0.00029219,-5.0753e+08,-4743.3,0,4183,-2043.2,11202,11683,1,11683,1,-0.00057029,-9.4252e-09,0,0.00036481,-0.00016553,-2.3193e+08,-2797.3,0,1.2821e+08,-139.8,11682,12593,1,12593,1,0.00088891,3.1895e-10,0,0.0010944,0.00010728,2.4369e+08,96.143,0,3.3258e+08,74.561,12592,527.79,0,527.79,0,0.00084216,5.5603e-09,0,0.00043643,0.00015748,2.6956e+08,1670.9,0,1.3169e+08,168.88,527.79,1
1820,5.06,12139,1,12139,1,0.00016016,-5.1801e-10,0,0.00073918,-2.9255e-05,13.336,-238.1,0,2.3549e+08,-127.29,12138,13096,1,13096,1,0.0015704,5.8849e-09,0,0.0015704,0.00023464,3.6713e+08,1329.8,0,5.0844e+08,123.67,13095,12138,1,12138,1,0.00016016,-1.1819e-09,0,0.00073121,-2.9277e-05,5.2058e+07,-359.26,0,2.4355e+08,-88.267,12137,11203,1,11203,1,-0.0012501,-5.3695e-09,0,3.4651e-06,-0.00029292,-5.0844e+08,-1671.5,0,1.7778e+05,-1429.5,11202,11683,1,11683,1,-0.00057106,-2.7046e-09,0,0.00036562,-0.00016599,-2.3225e+08,-844.01,0,1.2845e+08,-204.9,11682,12593,1,12593,1,0.00089139,1.2128e-09,0,0.0010968,0.00010742,2.4407e+08,252.38,0,3.3295e+08,-17.109,12592,527.79,0,527.79,0,0.00084404,2.6894e-09,0,0.00043747,0.00015783,2.6994e+08,720.74,0,1.3184e+08,175.49,527.79,1
1820,5.07,12139,1,12139,1,0.00016103,-1.3602e-09,0,0.00074084,-2.9413e-05,-18.244,-443.56,0,2.3581e+08,-27.134,12138,13096,1,13096,1,0.0015743,2.761e-09,0,0.0015743,0.00023504,3.6721e+08,732.46,0,5.0932e+08,122.32,13095,12138,1,12138,1,0.00016103,-8.1162e-10,0,0.00073279,-2.9438e-05,5.2339e+07,-237.74,0,2.439e+08,-8.8049,12137,11203,1,11203,1,-0.0012522,-7.2303e-09,0,3.9947e-06,-0.00029364,-5.0932e+08,-2130,0,3.7136e+05,-431.13,11202,11683,1,11683,1,-0.00057176,-3.3202e-09,0,0.0003664,-0.00016644,-2.3253e+08,-991.74,0,1.2868e+08,-77.084,11682,12593,1,12593,1,0.00089382,6.896e-10,0,0.0010992,0.00010756,2.4442e+08,155.79,0,3.3328e+08,27.898,12592,527.79,0,527.79,0,0.00084584,2.44e-09,0,0.00043847,0.00015817,2.7029e+08,729.39,0,1.3198e+08,87.786,527.79,1
1820,5.08,12139,1,12139,1,0.00016188,-6.7595e-10,0,0.00074251,-2.957e-05,-49.012,-241.48,0,2.3614e+08,-36.464,12138,13096,1,13096,1,0.0015782,4.6654e-09,0,0.0015782,0.00023545,3.6732e+08,1414.5,0,5.1021e+08,90.576,13095,12138,1,12138,1,0.00016188,-3.131e-10,0,0.00073437,-2.9597e-05,5.2618e+07,-94.307,0,2.4426e+08,-7.8609,12137,11203,1,11203,1,-0.0012544,-6.7146e-09,0,4.5144e-06,-0.00029436,-5.1021e+08,-2038.7,0,5.6116e+05,-1112.4,11202,11683,1,11683,1,-0.00057249,-2.0799e-09,0,0.00036719,-0.00016689,-2.3283e+08,-649.7,0,1.2891e+08,-60.807,11682,12593,1,12593,1,0.00089626,7.9299e-10,0,0.0011016,0.00010769,2.4478e+08,175.99,0,3.3363e+08,25.135,12592,527.79,0,527.79,0,0.00084767,1.9688e-09,0,0.00043948,0.00015851,2.7065e+08,598.64,0,1.3213e+08,137.7,527.79,1
1820,5.09,12139,1,12139,1,0.00016274,-3.8704e-09,0,0.00074417,-2.9728e-05,42.277,-1123.8,0,2.3647e+08,17.064,12138,13096,1,13096,1,0.0015821,4.3711e-09,0,0.0015821,0.00023587,3.6743e+08,1330.3,0,5.111e+08,365.6,13095,12138,1,12138,1,0.00016274,-3.4009e-09,0,0.00073594,-2.9757e-05,5.2898e+07,-946.74,0,2.4462e+08,20.994,12137,11203,1,11203,1,-0.0012566,-1.3924e-08,0,5.0388e-06,-0.00029509,-5.111e+08,-4226.4,0,7.5303e+05,-2259.3,11202,11683,1,11683,1,-0.0005732,-7.2858e-09,0,0.00036798,-0.00016734,-2.3312e+08,-2117.1,0,1.2914e+08,-54.774,11682,12593,1,12593,1,0.00089869,-2.3915e-10,0,0.0011039,0.00010783,2.4513e+08,-66.418,0,3.3397e+08,98.27,12592,527.79,0,527.79,0,0.00084948,4.0557e-09,0,0.00044048,0.00015884,2.71e+08,1209.5,0,1.3227e+08,182.28,527.79,1
1820,5.1,12139,1,12139,1,0.00016361,-3.6053e-09,0,0.00074585,-2.9886e-05,147.86,-1078.9,0,2.368e+08,-40.602,12138,13096,1,13096,1,0.0015861,1.8606e-09,0,0.0015861,0.00023628,3.6753e+08,421.99,0,5.12e+08,208.29,13095,12138,1,12138,1,0.00016361,-3.4556e-09,0,0.00073753,-2.9919e-05,5.318e+07,-969.4,0,2.4498e+08,-23.331,12137,11203,1,11203,1,-0.0012588,-1.0722e-08,0,5.5604e-06,-0.00029582,-5.12e+08,-3095.4,0,9.4357e+05,-372.39,11202,11683,1,11683,1,-0.00057392,-6.2059e-09,0,0.00036877,-0.00016779,-2.3341e+08,-1853.1,0,1.2937e+08,-101.68,11682,12593,1,12593,1,0.00090114,-8.5997e-10,0,0.0011063,0.00010796,2.4549e+08,-225.05,0,3.3431e+08,27.563,12592,527.79,0,527.79,0,0.00085132,3.1985e-09,0,0.0004415,0.00015919,2.7136e+08,985.34,0,1.3241e+08,105.49,527.79,1
1820,5.11,12139,1,12139,1,0.00016448,-2.7406e-10,0,0.00074756,-3.0047e-05,11.148,-156.48,0,2.3714e+08,-65.376,12138,13096,1,13096,1,0.00159,3.7011e-09,0,0.00159,0.0002367,3.6764e+08,812.9,0,5.1289e+08,308.31,13095,12138,1,12138,1,0.00016449,-3.2818e-10,0,0.00073914,-3.0082e-05,5.3465e+07,-99.543,0,2.4534e+08,-43.002,12137,11203,1,11203,1,-0.001261,-3.2828e-09,0,6.0903e-06,-0.00029655,-5.1289e+08,-1123.1,0,1.1371e+06,-396.06,11202,11683,1,11683,1,-0.00057466,-1.782e-09,0,0.00036958,-0.00016825,-2.3371e+08,-558.02,0,1.2961e+08,-116.68,11682,12593,1,12593,1,0.00090363,9.9964e-10,0,0.0011087,0.0001081,2.4586e+08,210.85,0,3.3466e+08,-8.1857,12592,527.79,0,527.79,0,0.00085318,1.7753e-09,0,0.00044254,0.00015953,2.7173e+08,497.21,0,1.3256e+08,99.9,527.79,1
1820,5.12,12139,1,12139,1,0.00016537,-1.5623e-09,0,0.00074924,-3.0209e-05,68.551,-488.23,0,2.3746e+08,-23.24,12138,13096,1,13096,1,0.001594,1.1619e-09,0,0.001594,0.0002371,3.6772e+08,228.99,0,5.1378e+08,165.01,13095,12138,1,12138,1,0.00016537,-1.2632e-09,0,0.00074073,-3.0246e-05,5.3752e+07,-359.9,0,2.4569e+08,-19.807,12137,11203,1,11203,1,-0.0012632,-5.7206e-09,0,6.6349e-06,-0.00029728,-5.1378e+08,-1693.8,0,1.336e+06,-237.6,11202,11683,1,11683,1,-0.00057536,-2.938e-09,0,0.00037037,-0.00016871,-2.34e+08,-897.45,0,1.2984e+08,-67.742,11682,12593,1,12593,1,0.0009061,-8.5375e-11,0,0.0011111,0.00010824,2.4621e+08,-24.452,0,3.3499e+08,20.82,12592,527.79,0,527.79,0,0.00085501,1.7683e-09,0,0.00044355,0.00015987,2.7208e+08,542.87,0,1.327e+08,71.658,527.79,1
1820,5.13,12139,1,12139,1,0.00016625,-1.9387e-09,0,0.00075093,-3.037e-05,-66.714,-593.16,0,2.3779e+08,-9.9231,12138,13096,1,13096,1,0.0015979,1.423e-09,0,0.0015979,0.00023752,3.6782e+08,313.66,0,5.1468e+08,153,13095,12138,1,12138,1,0.00016625,-1.4778e-09,0,0.00074233,-3.041e-05,5.4039e+07,-416.68,0,2.4605e+08,-4.0794,12137,11203,1,11203,1,-0.0012654,-7.2969e-09,0,7.173e-06,-0.00029801,-5.1468e+08,-2100.4,0,1.5326e+06,-177.25,11202,11683,1,11683,1,-0.00057608,-3.7364e-09,0,0.00037117,-0.00016917,-2.3429e+08,-1116,0,1.3007e+08,-61.43,11682,12593,1,12593,1,0.00090858,-1.5578e-11,0,0.0011135,0.00010837,2.4657e+08,-4.5026,0,3.3533e+08,37.853,12592,527.79,0,527.79,0,0.00085686,2.2301e-09,0,0.00044458,0.00016022,2.7244e+08,678.35,0,1.3284e+08,65.411,527.79,1
1820,5.14,12139,1,12139,1,0.00016713,-1.3039e-09,0,0.00075261,-3.0532e-05,66.312,-419.62,0,2.3811e+08,-53.009,12138,13096,1,13096,1,0.0016019,1.1494e-09,0,0.0016019,0.00023793,3.679e+08,229.87,0,5.1556e+08,65.713,13095,12138,1,12138,1,0.00016713,-7.6847e-10,0,0.00074391,-3.0575e-05,5.4328e+07,-230.51,0,2.464e+08,-36.921,12137,11203,1,11203,1,-0.0012676,-5.29e-09,0,7.7181e-06,-0.00029874,-5.1556e+08,-1657.2,0,1.7316e+06,-234.65,11202,11683,1,11683,1,-0.00057678,-2.602e-09,0,0.00037196,-0.00016963,-2.3457e+08,-803.63,0,1.303e+08,-112.24,11682,12593,1,12593,1,0.00091105,1.1681e-10,0,0.0011159,0.0001085,2.4692e+08,32.572,0,3.3566e+08,0.70365,12592,527.79,0,527.79,0,0.00085869,1.7456e-09,0,0.0004456,0.00016056,2.7279e+08,538.49,0,1.3298e+08,68.095,527.79,1
1820,5.15,12139,1,12139,1,0.00016802,-7.803e-10,0,0.00075429,-3.0694e-05,-24.461,-264.65,0,2.3844e+08,-35.141,12138,13096,1,13096,1,0.0016058,1.3594e-09,0,0.0016058,0.00023833,3.6798e+08,285.54,0,5.1645e+08,74.597,13095,12138,1,12138,1,0.00016802,-7.5655e-10,0,0.0007455,-3.074e-05,5.4616e+07,-226.73,0,2.4675e+08,-30.406,12137,11203,1,11203,1,-0.0012698,-3.9728e-09,0,8.2626e-06,-0.00029947,-5.1645e+08,-1244.7,0,1.9303e+06,-297.81,11202,11683,1,11683,1,-0.00057749,-1.5038e-09,0,0.00037276,-0.00017008,-2.3486e+08,-471.45,0,1.3054e+08,-72.394,11682,12593,1,12593,1,0.00091353,2.0305e-10,0,0.0011183,0.00010864,2.4727e+08,49.804,0,3.3599e+08,3.7168,12592,527.79,0,527.79,0,0.00086052,1.2183e-09,0,0.00044662,0.0001609,2.7314e+08,368.21,0,1.3313e+08,53.017,527.79,1
1820,5.16,12139,1,12139,1,0.00016891,5.6094e-10,0,0.00075598,-3.0858e-05,20.809,123.78,0,2.3876e+08,-34.672,12138,13096,1,13096,1,0.0016098,4.0373e-09,0,0.0016098,0.00023874,3.6806e+08,958.88,0,5.1733e+08,80.449,13095,12138,1,12138,1,0.00016891,2.9215e-10,0,0.0007471,-3.0905e-05,5.4905e+07,83.692,0,2.471e+08,-30.752,12137,11203,1,11203,1,-0.0012719,-2.3299e-09,0,8.8122e-06,-0.0003002,-5.1733e+08,-653.52,0,2.131e+06,-161.31,11202,11683,1,11683,1,-0.00057819,-4.1525e-10,0,0.00037355,-0.00017054,-2.3515e+08,-128.47,0,1.3077e+08,-70.606,11682,12593,1,12593,1,0.00091601,1.5748e-09,0,0.0011207,0.00010877,2.4762e+08,401.87,0,3.3632e+08,1.38,12592,527.79,0,527.79,0,0.00086236,1.5088e-09,0,0.00044765,0.00016124,2.735e+08,393.47,0,1.3327e+08,50.144,527.79,1
1820,5.17,12139,1,12139,1,0.0001698,-1.0894e-09,0,0.00075767,-3.1021e-05,19.572,-320.39,0,2.3909e+08,-0.91411,12138,13096,1,13096,1,0.0016137,9.2585e-10,0,0.0016137,0.00023915,3.6814e+08,206.04,0,5.1822e+08,90.674,13095,12138,1,12138,1,0.0001698,-9.395e-10,0,0.00074869,-3.1072e-05,5.5196e+07,-264.89,0,2.4745e+08,-3.1447,12137,11203,1,11203,1,-0.0012741,-3.6458e-09,0,9.3653e-06,-0.00030094,-5.1822e+08,-1027.1,0,2.3328e+06,-112.37,11202,11683,1,11683,1,-0.00057889,-2.022e-09,0,0.00037435,-0.000171,-2.3543e+08,-593.13,0,1.31e+08,-24.054,11682,12593,1,12593,1,0.00091849,-1.3265e-10,0,0.001123,0.0001089,2.4797e+08,-37.797,0,3.3665e+08,18.16,12592,527.79,0,527.79,0,0.0008642,1.1522e-09,0,0.00044868,0.00016158,2.7385e+08,331.72,0,1.3341e+08,35.017,527.79,1
1820,5.18,12139,1,12139,1,0.00017069,-6.1919e-09,0,0.00075931,-3.1185e-05,-182.04,-1756.6,0,2.3939e+08,42.302,12138,13096,1,13096,1,0.0016177,4.5168e-09,0,0.0016177,0.00023956,3.6819e+08,1267.3,0,5.1909e+08,560.08,13095,12138,1,12138,1,0.00017069,-5.9759e-09,0,0.00075024,-3.1238e-05,5.5486e+07,-1638.8,0,2.4779e+08,13.891,12137,11203,1,11203,1,-0.0012763,-1.8474e-08,0,9.9252e-06,-0.00030167,-5.1909e+08,-5169.6,0,2.5372e+06,-301.24,11202,11683,1,11683,1,-0.00057955,-1.1445e-08,0,0.00037512,-0.00017146,-2.357e+08,-3305.9,0,1.3122e+08,-102.58,11682,12593,1,12593,1,0.00092094,-5.0798e-10,0,0.0011254,0.00010902,2.483e+08,-132.38,0,3.3695e+08,155.26,12592,527.79,0,527.79,0,0.00086598,6.0044e-09,0,0.00044968,0.00016191,2.7417e+08,1719.3,0,1.3354e+08,177.87,527.79,1
1820,5.19,12139,1,12139,1,0.00017163,2.8599e-09,0,0.00076106,-3.1356e-05,-130.52,704.51,0,2.3972e+08,-75.225,12138,13096,1,13096,1,0.0016217,8.3969e-09,0,0.0016217,0.00023996,3.6828e+08,1928.2,0,5.1998e+08,140.61,13095,12138,1,12138,1,0.00017163,2.6085e-09,0,0.00075188,-3.1413e-05,5.5788e+07,698.73,0,2.4814e+08,-41.008,12137,11203,1,11203,1,-0.0012784,-8.6517e-10,0,1.0503e-05,-0.00030241,-5.1998e+08,-296.28,0,2.7479e+06,-434.67,11202,11683,1,11683,1,-0.00058026,5.0592e-10,0,0.00037595,-0.00017193,-2.3599e+08,122.79,0,1.3145e+08,-122.09,11682,12593,1,12593,1,0.00092352,4.8826e-09,0,0.0011278,0.00010916,2.4866e+08,1187.5,0,3.3729e+08,-4.8574,12592,527.79,0,527.79,0,0.00086789,2.6137e-09,0,0.00045074,0.00016227,2.7453e+08,616.59,0,1.3368e+08,112.4,527.79,1
1820,5.2,12139,1,12139,1,0.00017258,-3.9718e-09,0,0.00076274,-3.1531e-05,163.94,-1138.5,0,2.4002e+08,-30.171,12138,13096,1,13096,1,0.0016258,6.3312e-09,0,0.0016258,0.00024036,3.683e+08,1810,0,5.2084e+08,329.5,13095,12138,1,12138,1,0.00017259,-3.3734e-09,0,0.00075347,-3.159e-05,5.6095e+07,-882.96,0,2.4846e+08,-40.181,12137,11203,1,11203,1,-0.0012806,-1.4503e-08,0,1.1125e-05,-0.00030316,-5.2084e+08,-4101.7,0,2.9748e+06,-376.85,11202,11683,1,11683,1,-0.00058088,-8.209e-09,0,0.00037674,-0.0001724,-2.3624e+08,-2367.8,0,1.3166e+08,-119,11682,12593,1,12593,1,0.00092606,1.4703e-10,0,0.0011302,0.00010928,2.4898e+08,41.193,0,3.3757e+08,44.089,12592,527.79,0,527.79,0,0.00086971,4.8967e-09,0,0.00045177,0.0001626,2.7485e+08,1426,0,1.3381e+08,127.79,527.79,1
1820,5.21,12139,1,12139,1,0.00017354,-5.0089e-09,0,0.00076446,-3.1706e-05,92.035,-1468.9,0,2.4033e+08,-110.31,12138,13096,1,13096,1,0.0016299,3.8937e-09,0,0.0016299,0.00024077,3.6834e+08,1332,0,5.2173e+08,248.29,13095,12138,1,12138,1,0.00017354,-4.2173e-09,0,0.00075508,-3.1768e-05,5.6401e+07,-1093.9,0,2.488e+08,-90.479,12137,11203,1,11203,1,-0.0012828,-1.748e-08,0,1.1728e-05,-0.00030392,-5.2173e+08,-5027.8,0,3.1946e+06,-461.33,11202,11683,1,11683,1,-0.00058154,-9.9411e-09,0,0.00037755,-0.00017288,-2.3651e+08,-2889.5,0,1.3188e+08,-231.45,11682,12593,1,12593,1,0.00092862,-3.6517e-11,0,0.0011326,0.0001094,2.4931e+08,-7.1983,0,3.3788e+08,-4.6564,12592,527.79,0,527.79,0,0.00087157,5.5359e-09,0,0.00045282,0.00016295,2.7519e+08,1662.8,0,1.3395e+08,148.72,527.79,1
1820,5.22,12139,1,12139,1,0.0001745,-2.1014e-09,0,0.00076618,-3.1882e-05,216.69,-704.98,0,2.4064e+08,-87.619,12138,13096,1,13096,1,0.0016339,8.1444e-09,0,0.0016339,0.00024118,3.6837e+08,2326.5,0,5.226e+08,183.03,13095,12138,1,12138,1,0.0001745,-8.1368e-10,0,0.00075669,-3.1947e-05,5.6712e+07,-223.09,0,2.4913e+08,-57.873,12137,11203,1,11203,1,-0.0012849,-1.3473e-08,0,1.2342e-05,-0.00030468,-5.226e+08,-4140.1,0,3.4185e+06,-450.61,11202,11683,1,11683,1,-0.00058219,-6.3022e-09,0,0.00037836,-0.00017335,-2.3677e+08,-1890.6,0,1.3209e+08,-205.77,11682,12593,1,12593,1,0.00093121,1.9611e-09,0,0.0011351,0.00010952,2.4964e+08,435.34,0,3.3818e+08,41.798,12592,527.79,0,527.79,0,0.00087343,5.1231e-09,0,0.00045388,0.0001633,2.7553e+08,1548.3,0,1.3408e+08,155.11,527.79,1
1820,5.23,12139,1,12139,1,0.00017547,-3.6298e-09,0,0.0007679,-3.206e-05,132.37,-1116.6,0,2.4094e+08,-129.41,12138,13096,1,13096,1,0.0016381,5.8827e-09,0,0.0016381,0.00024158,3.684e+08,1865.1,0,5.2348e+08,283.23,13095,12138,1,12138,1,0.00017547,-2.5946e-09,0,0.00075831,-3.2128e-05,5.7023e+07,-702.19,0,2.4946e+08,-93.201,12137,11203,1,11203,1,-0.0012871,-1.4687e-08,0,1.2967e-05,-0.00030544,-5.2348e+08,-4426.7,0,3.646e+06,-511.64,11202,11683,1,11683,1,-0.00058284,-8.0563e-09,0,0.00037917,-0.00017383,-2.3704e+08,-2407.7,0,1.3231e+08,-267.82,11682,12593,1,12593,1,0.0009338,6.5463e-10,0,0.0011375,0.00010965,2.4997e+08,146.26,0,3.3847e+08,-3.1979,12592,527.79,0,527.79,0,0.0008753,5.0541e-09,0,0.00045493,0.00016364,2.7586e+08,1550.4,0,1.3421e+08,173.47,527.79,1
1820,5.24,12139,1,12139,1,0.00017645,-3.5184e-09,0,0.00076965,-3.224e-05,-16.323,-1101.1,0,2.4125e+08,-166.53,12138,13096,1,13096,1,0.0016422,2.6135e-09,0,0.0016422,0.00024199,3.6842e+08,511.74,0,5.2436e+08,140.62,13095,12138,1,12138,1,0.00017645,-2.9041e-09,0,0.00075994,-3.231e-05,5.7338e+07,-776.68,0,2.4979e+08,-100.85,12137,11203,1,11203,1,-0.0012892,-1.2264e-08,0,1.3595e-05,-0.0003062,-5.2436e+08,-3893.5,0,3.8746e+06,-578.32,11202,11683,1,11683,1,-0.0005835,-6.6693e-09,0,0.00037999,-0.00017431,-2.3731e+08,-2012.6,0,1.3253e+08,-320.53,11682,12593,1,12593,1,0.00093641,-2.721e-10,0,0.0011399,0.00010977,2.503e+08,-76.397,0,3.3878e+08,-11.956,12592,527.79,0,527.79,0,0.00087719,3.9682e-09,0,0.000456,0.00016399,2.762e+08,1230.6,0,1.3435e+08,188.55,527.79,1
1820,5.25,12139,1,12139,1,0.00017743,-3.3141e-09,0,0.00077135,-3.2419e-05,91.96,-1046.2,0,2.4155e+08,-106.19,12138,13096,1,13096,1,0.0016462,4.9156e-09,0,0.0016462,0.00024238,3.6843e+08,1411.8,0,5.2522e+08,172.17,13095,12138,1,12138,1,0.00017743,-1.344e-09,0,0.00076154,-3.2492e-05,5.7653e+07,-380.38,0,2.5011e+08,-69.8,12137,11203,1,11203,1,-0.0012913,-1.6587e-08,0,1.4232e-05,-0.00030695,-5.2522e+08,-4961,0,4.1063e+06,-499.03,11202,11683,1,11683,1,-0.00058412,-7.8766e-09,0,0.00038079,-0.00017479,-2.3756e+08,-2316.3,0,1.3274e+08,-232.88,11682,12593,1,12593,1,0.00093899,1.5404e-09,0,0.0011423,0.00010989,2.5062e+08,355.38,0,3.3894e+08,21.71,12592,527.79,0,527.79,0,0.00087903,5.6665e-09,0,0.00045705,0.00016434,2.7651e+08,1711.7,0,1.3447e+08,161.16,527.79,1
1820,5.26,12139,1,12139,1,0.0001784,-5.8459e-09,0,0.00077304,-3.2597e-05,100.21,-1756.1,0,2.4184e+08,-152.88,12138,13096,1,13096,1,0.0016503,8.9842e-09,0,0.0016503,0.00024278,3.6844e+08,2636.1,0,5.2608e+08,310.22,13095,12138,1,12138,1,0.0001784,-3.4673e-09,0,0.00076313,-3.2673e-05,5.7965e+07,-901.32,0,2.5043e+08,-106.64,12137,11203,1,11203,1,-0.0012935,-2.6231e-08,0,1.486e-05,-0.00030771,-5.2608e+08,-7598.3,0,4.3349e+06,-787.13,11202,11683,1,11683,1,-0.00058474,-1.3314e-08,0,0.00038158,-0.00017526,-2.3781e+08,-3874.2,0,1.3296e+08,-314.22,11682,12593,1,12593,1,0.00094155,1.7342e-09,0,0.0011447,0.00011,2.5093e+08,386.94,0,3.39e+08,31.976,12592,527.79,0,527.79,0,0.00088086,8.8885e-09,0,0.00045809,0.00016468,2.7683e+08,2661.8,0,1.346e+08,235.14,527.79,1
1820,5.27,12139,1,12139,1,0.00017938,-2.5588e-09,0,0.00077479,-3.2776e-05,-269.54,-881.25,0,2.4216e+08,-167.46,12138,13096,1,13096,1,0.0016545,8.563e-09,0,0.0016545,0.00024319,3.6847e+08,2528.6,0,5.2697e+08,186.74,13095,12138,1,12138,1,0.00017939,-3.2758e-11,0,0.00076477,-3.2856e-05,5.8281e+07,-10.166,0,2.5077e+08,-104.54,12137,11203,1,11203,1,-0.0012956,-1.8099e-08,0,1.5486e-05,-0.00030847,-5.2697e+08,-5693.8,0,4.5621e+06,-731.91,11202,11683,1,11683,1,-0.0005854,-7.8737e-09,0,0.00038241,-0.00017575,-2.3808e+08,-2402.4,0,1.3318e+08,-348.45,11682,12593,1,12593,1,0.00094418,2.9799e-09,0,0.0011472,0.00011013,2.5127e+08,674.82,0,3.3908e+08,22.882,12592,527.79,0,527.79,0,0.00088277,6.7849e-09,0,0.00045917,0.00016503,2.7718e+08,2063.2,0,1.3474e+08,228.64,527.79,1
1820,5.28,12139,1,12139,1,0.00018038,2.3986e-10,0,0.00077655,-3.296e-05,49.196,-85.535,0,2.4246e+08,-185.49,12138,13096,1,13096,1,0.0016586,7.9138e-09,0,0.0016586,0.00024359,3.6848e+08,1648.8,0,5.2783e+08,153.71,13095,12138,1,12138,1,0.00018039,5.527e-10,0,0.00076642,-3.3043e-05,5.8603e+07,144.37,0,2.511e+08,-125.8,12137,11203,1,11203,1,-0.0012978,-7.5777e-09,0,1.614e-05,-0.00030923,-5.2783e+08,-2592.3,0,4.7994e+06,-644.05,11202,11683,1,11683,1,-0.00058604,-2.3319e-09,0,0.00038323,-0.00017624,-2.3834e+08,-708.35,0,1.334e+08,-360.58,11682,12593,1,12593,1,0.00094682,2.5432e-09,0,0.0011497,0.00011025,2.516e+08,663.66,0,3.3914e+08,-6.1578,12592,527.79,0,527.79,0,0.00088467,3.844e-09,0,0.00046025,0.00016538,2.7751e+08,1081.1,0,1.3487e+08,214.45,527.79,1
1820,5.29,12139,1,12139,1,0.00018139,-2.9391e-09,0,0.00077829,-3.3145e-05,103.2,-918.33,0,2.4276e+08,-155.94,12138,13096,1,13096,1,0.0016627,2.9635e-09,0,0.0016627,0.000244,3.6848e+08,573.39,0,5.2871e+08,105.53,13095,12138,1,12138,1,0.00018139,-2.2091e-09,0,0.00076805,-3.323e-05,5.8926e+07,-594.59,0,2.5142e+08,-107.6,12137,11203,1,11203,1,-0.0012999,-1.1402e-08,0,1.68e-05,-0.00031,-5.2871e+08,-3578.3,0,5.039e+06,-524.16,11202,11683,1,11683,1,-0.00058667,-5.8561e-09,0,0.00038404,-0.00017673,-2.3859e+08,-1740.5,0,1.3361e+08,-293.83,11682,12593,1,12593,1,0.00094946,7.2754e-11,0,0.0011521,0.00011037,2.5192e+08,18.567,0,3.3919e+08,-18.606,12592,527.79,0,527.79,0,0.00088655,3.718e-09,0,0.00046132,0.00016573,2.7783e+08,1142.9,0,1.35e+08,168.18,527.79,1
1820,5.3,12139,1,12139,1,0.00018239,-2.638e-09,0,0.00078003,-3.3329e-05,60.818,-851.45,0,2.4306e+08,-115.72,12138,13096,1,13096,1,0.0016669,2.9384e-09,0,0.0016669,0.0002444,3.6847e+08,555.62,0,5.2958e+08,184.65,13095,12138,1,12138,1,0.0001824,-1.8428e-09,0,0.00076968,-3.3416e-05,5.9248e+07,-515.52,0,2.5174e+08,-91.535,12137,11203,1,11203,1,-0.001302,-1.125e-08,0,1.7455e-05,-0.00031077,-5.2958e+08,-3528.9,0,5.2763e+06,-441.23,11202,11683,1,11683,1,-0.00058729,-5.2738e-09,0,0.00038485,-0.00017721,-2.3885e+08,-1609.4,0,1.3383e+08,-247.65,11682,12593,1,12593,1,0.00095209,3.3251e-10,0,0.0011545,0.00011048,2.5223e+08,81.339,0,3.3924e+08,3.6488,12592,527.79,0,527.79,0,0.00088843,3.6387e-09,0,0.0004624,0.00016608,2.7815e+08,1112.7,0,1.3513e+08,148.86,527.79,1
1820,5.31,12139,1,12139,1,0.0001834,-2.3408e-09,0,0.00078176,-3.3513e-05,-30.141,-771.16,0,2.4336e+08,-65.67,12138,13096,1,13096,1,0.001671,4.3521e-09,0,0.001671,0.0002448,3.6847e+08,1209.2,0,5.3044e+08,209.75,13095,12138,1,12138,1,0.0001834,-1.18e-09,0,0.0007713,-3.3603e-05,5.9571e+07,-336.17,0,2.5206e+08,-43.885,12137,11203,1,11203,1,-0.0013042,-1.2411e-08,0,1.8111e-05,-0.00031154,-5.3044e+08,-3805.2,0,5.5138e+06,-381.16,11202,11683,1,11683,1,-0.00058791,-5.8533e-09,0,0.00038567,-0.0001777,-2.391e+08,-1772.8,0,1.3404e+08,-169.13,11682,12593,1,12593,1,0.00095472,1.4102e-09,0,0.001157,0.0001106,2.5255e+08,328.29,0,3.3929e+08,35.193,12592,527.79,0,527.79,0,0.0008903,4.3106e-09,0,0.00046347,0.00016643,2.7848e+08,1297.4,0,1.3526e+08,132.14,527.79,1
1820,5.32,12139,1,12139,1,0.00018441,-1.404e-09,0,0.0007835,-3.3698e-05,-31.025,-509.46,0,2.4365e+08,-77.797,12138,13096,1,13096,1,0.0016752,4.6508e-09,0,0.0016752,0.00024519,3.6846e+08,1339.5,0,5.313e+08,148.23,13095,12138,1,12138,1,0.00018441,-1.1861e-10,0,0.00077293,-3.3791e-05,5.9896e+07,-36.38,0,2.5238e+08,-46.961,12137,11203,1,11203,1,-0.0013063,-1.0931e-08,0,1.8772e-05,-0.0003123,-5.313e+08,-3425.2,0,5.7533e+06,-367.41,11202,11683,1,11683,1,-0.00058852,-4.5127e-09,0,0.00038648,-0.00017818,-2.3935e+08,-1376.2,0,1.3426e+08,-197.88,11682,12593,1,12593,1,0.00095735,2.054e-09,0,0.0011594,0.00011072,2.5287e+08,463.12,0,3.3933e+08,33.371,12592,527.79,0,527.79,0,0.00089218,4.0331e-09,0,0.00046454,0.00016678,2.788e+08,1210.1,0,1.3539e+08,131.18,527.79,1
1820,5.33,12139,1,12139,1,0.00018542,-7.2682e-10,0,0.00078524,-3.3883e-05,117.72,-307.83,0,2.4394e+08,-102.97,12138,13096,1,13096,1,0.0016793,3.7888e-09,0,0.0016793,0.00024559,3.6844e+08,767.15,0,5.3216e+08,119.09,13095,12138,1,12138,1,0.00018543,2.9285e-10,0,0.00077455,-3.398e-05,6.0221e+07,77.474,0,2.527e+08,-70.832,12137,11203,1,11203,1,-0.0013084,-8.0221e-09,0,1.9439e-05,-0.00031306,-5.3216e+08,-2643.2,0,5.9941e+06,-418.05,11202,11683,1,11683,1,-0.00058913,-2.7021e-09,0,0.00038729,-0.00017867,-2.396e+08,-841.66,0,1.3447e+08,-227.38,11682,12593,1,12593,1,0.00095999,1.6058e-09,0,0.0011619,0.00011083,2.5318e+08,402.37,0,3.3937e+08,10.03,12592,527.79,0,527.79,0,0.00089405,3.1146e-09,0,0.00046561,0.00016713,2.7912e+08,929.59,0,1.3551e+08,138.03,527.79,1
1820,5.34,12139,1,12139,1,0.00018644,-1.286e-09,0,0.00078699,-3.407e-05,-32.829,-443.04,0,2.4424e+08,-100.35,12138,13096,1,13096,1,0.0016835,3.1559e-09,0,0.0016835,0.00024599,3.6843e+08,620.36,0,5.3303e+08,94.661,13095,12138,1,12138,1,0.00018644,-7.7805e-10,0,0.00077619,-3.4169e-05,6.0548e+07,-217.64,0,2.5302e+08,-70.68,12137,11203,1,11203,1,-0.0013105,-6.7694e-09,0,2.0108e-05,-0.00031383,-5.3303e+08,-2229.1,0,6.2355e+06,-337.69,11202,11683,1,11683,1,-0.00058975,-3.0944e-09,0,0.00038811,-0.00017916,-2.3985e+08,-952.46,0,1.3469e+08,-184.35,11682,12593,1,12593,1,0.00096264,6.3704e-10,0,0.0011643,0.00011095,2.535e+08,152.42,0,3.3941e+08,-8.0619,12592,527.79,0,527.79,0,0.00089594,2.4554e-09,0,0.0004667,0.00016748,2.7944e+08,739.11,0,1.3564e+08,108.42,527.79,1
1820,5.35,12139,1,12139,1,0.00018746,-2.9021e-09,0,0.0007887,-3.4257e-05,84.237,-888.11,0,2.4453e+08,-56.542,12138,13096,1,13096,1,0.0016876,3.3867e-09,0,0.0016876,0.00024638,3.684e+08,960.65,0,5.3388e+08,165.97,13095,12138,1,12138,1,0.00018746,-1.7443e-09,0,0.0007778,-3.4359e-05,6.0875e+07,-460.89,0,2.5332e+08,-36.416,12137,11203,1,11203,1,-0.0013126,-1.302e-08,0,2.0782e-05,-0.0003146,-5.3388e+08,-3809.9,0,6.4787e+06,-342.06,11202,11683,1,11683,1,-0.00059034,-6.0527e-09,0,0.00038891,-0.00017965,-2.4009e+08,-1779.8,0,1.3489e+08,-138.62,11682,12593,1,12593,1,0.00096527,6.2644e-10,0,0.0011667,0.00011106,2.538e+08,147.84,0,3.3943e+08,37.041,12592,527.79,0,527.79,0,0.00089779,4.139e-09,0,0.00046776,0.00016782,2.7975e+08,1247.8,0,1.3577e+08,112.83,527.79,1
1820,5.36,12139,1,12139,1,0.00018848,8.1784e-10,0,0.00079046,-3.4444e-05,119.05,125.46,0,2.4482e+08,-126.68,12138,13096,1,13096,1,0.0016917,6.1189e-09,0,0.0016917,0.00024678,3.6839e+08,1285.6,0,5.3474e+08,34.654,13095,12138,1,12138,1,0.00018849,6.8674e-10,0,0.00077943,-3.4549e-05,6.1203e+07,182.82,0,2.5364e+08,-99.353,12137,11203,1,11203,1,-0.0013147,-3.0758e-09,0,2.1452e-05,-0.00031537,-5.3474e+08,-1052.6,0,6.7199e+06,-361.36,11202,11683,1,11683,1,-0.00059096,-8.3321e-10,0,0.00038973,-0.00018014,-2.4034e+08,-271.33,0,1.3511e+08,-229.17,11682,12593,1,12593,1,0.00096793,2.0295e-09,0,0.0011692,0.00011118,2.5412e+08,467.24,0,3.3947e+08,-20.913,12592,527.79,0,527.79,0,0.00089969,2.2642e-09,0,0.00046885,0.00016817,2.8007e+08,575.64,0,1.359e+08,112.38,527.79,1
1820,5.37,12139,1,12139,1,0.00018951,-2.337e-09,0,0.00079218,-3.4632e-05,136.6,-713.75,0,2.4511e+08,-32.138,12138,13096,1,13096,1,0.0016959,5.8129e-09,0,0.0016959,0.00024718,3.6835e+08,1647.3,0,5.356e+08,197.83,13095,12138,1,12138,1,0.00018951,-1.0729e-09,0,0.00078105,-3.4741e-05,6.1533e+07,-274.78,0,2.5395e+08,-20.426,12137,11203,1,11203,1,-0.0013169,-1.308e-08,0,2.2137e-05,-0.00031614,-5.356e+08,-3776.4,0,6.9664e+06,-308.09,11202,11683,1,11683,1,-0.00059154,-5.7116e-09,0,0.00039054,-0.00018063,-2.4058e+08,-1678.3,0,1.3532e+08,-117.1,11682,12593,1,12593,1,0.00097057,1.1659e-09,0,0.0011716,0.00011129,2.5442e+08,263.3,0,3.3949e+08,54.281,12592,527.79,0,527.79,0,0.00090155,4.4534e-09,0,0.00046993,0.00016852,2.8038e+08,1315,0,1.3602e+08,111.98,527.79,1
1820,5.38,12139,1,12139,1,0.00019054,-8.7043e-10,0,0.00079395,-3.4822e-05,156.08,-327.09,0,2.454e+08,-87.887,12138,13096,1,13096,1,0.0017001,3.3607e-09,0,0.0017001,0.00024758,3.6833e+08,1078.7,0,5.3647e+08,130.62,13095,12138,1,12138,1,0.00019055,2.6598e-10,0,0.0007827,-3.4933e-05,6.1865e+07,76.928,0,2.5427e+08,-61.773,12137,11203,1,11203,1,-0.001319,-8.6535e-09,0,2.2818e-05,-0.00031691,-5.3647e+08,-2727.8,0,7.2106e+06,-304.26,11202,11683,1,11683,1,-0.00059216,-2.9255e-09,0,0.00039136,-0.00018112,-2.4083e+08,-864.62,0,1.3553e+08,-197.04,11682,12593,1,12593,1,0.00097326,1.6616e-09,0,0.0011741,0.0001114,2.5473e+08,383.77,0,3.3953e+08,8.1829,12592,527.79,0,527.79,0,0.00090345,3.1479e-09,0,0.00047102,0.00016887,2.807e+08,951.75,0,1.3615e+08,116.08,527.79,1
1820,5.39,12139,1,12139,1,0.0001916,3.3793e-10,0,0.00079571,-3.5015e-05,78.262,16.645,0,2.4569e+08,-102.05,12138,13096,1,13096,1,0.0017043,4.4611e-09,0,0.0017043,0.00024797,3.6829e+08,923.95,0,5.3732e+08,50.512,13095,12138,1,12138,1,0.0001916,4.3304e-10,0,0.00078434,-3.5129e-05,6.2202e+07,112.43,0,2.5458e+08,-76.181,12137,11203,1,11203,1,-0.0013211,-3.9197e-09,0,2.352e-05,-0.00031769,-5.3732e+08,-1341.4,0,7.4625e+06,-316.86,11202,11683,1,11683,1,-0.00059275,-8.2618e-10,0,0.00039218,-0.00018162,-2.4107e+08,-269.21,0,1.3575e+08,-195.45,11682,12593,1,12593,1,0.00097595,1.4586e-09,0,0.0011765,0.00011152,2.5504e+08,379.1,0,3.3955e+08,-9.2041,12592,527.79,0,527.79,0,0.00090536,1.9528e-09,0,0.00047212,0.00016923,2.8101e+08,538.48,0,1.3627e+08,105.37,527.79,1
1820,5.4,12139,1,12139,1,0.00019268,3.1825e-09,0,0.00079747,-3.5214e-05,118.69,835.26,0,2.4597e+08,-57.396,12138,13096,1,13096,1,0.0017085,8.4751e-09,0,0.0017085,0.00024836,3.6824e+08,2298.2,0,5.3817e+08,277.9,13095,12138,1,12138,1,0.00019269,3.3001e-09,0,0.00078599,-3.533e-05,6.254e+07,843.17,0,2.5487e+08,-50.626,12137,11203,1,11203,1,-0.0013232,-3.3114e-09,0,2.4255e-05,-0.00031847,-5.3817e+08,-1132.9,0,7.7258e+06,-397.18,11202,11683,1,11683,1,-0.00059331,4.6241e-10,0,0.00039299,-0.00018212,-2.4129e+08,131.86,0,1.3595e+08,-144.28,11682,12593,1,12593,1,0.00097867,5.7575e-09,0,0.001179,0.00011162,2.5533e+08,1578.1,0,3.3955e+08,35.205,12592,527.79,0,527.79,0,0.00090725,3.0783e-09,0,0.00047322,0.00016958,2.8131e+08,856.67,0,1.3639e+08,141.7,527.79,1
1820,5.41,12139,1,12139,1,0.00019378,7.9044e-10,0,0.00079926,-3.5415e-05,-112.55,238.64,0,2.4625e+08,-63.744,12138,13096,1,13096,1,0.0017129,6.5109e-09,0,0.0017129,0.00024876,3.6817e+08,2110.2,0,5.3903e+08,180.47,13095,12138,1,12138,1,0.00019378,2.0876e-10,0,0.00078766,-3.5534e-05,6.2883e+07,51.948,0,2.5518e+08,-47.667,12137,11203,1,11203,1,-0.0013253,-2.0717e-09,0,2.4997e-05,-0.00031927,-5.3903e+08,-708.97,0,7.9913e+06,-250.88,11202,11683,1,11683,1,-0.00059388,-5.1198e-10,0,0.00039383,-0.00018263,-2.4152e+08,-127.95,0,1.3615e+08,-158.37,11682,12593,1,12593,1,0.00098145,1.5549e-09,0,0.0011815,0.00011173,2.5563e+08,434.16,0,3.3955e+08,11.082,12592,527.79,0,527.79,0,0.00090918,1.9064e-09,0,0.00047434,0.00016993,2.8162e+08,589.67,0,1.3652e+08,102.77,527.79,1
1820,5.42,12139,1,12139,1,0.00019489,2.0524e-09,0,0.00080104,-3.5619e-05,-41.844,598.07,0,2.4652e+08,-50.744,12138,13096,1,13096,1,0.0017172,8.0187e-09,0,0.0017172,0.00024915,3.681e+08,2481.4,0,5.3988e+08,196.19,13095,12138,1,12138,1,0.0001949,1.7952e-09,0,0.00078931,-3.5741e-05,6.3229e+07,468.66,0,2.5547e+08,-23.854,12137,11203,1,11203,1,-0.0013274,-2.1164e-09,0,2.5753e-05,-0.00032007,-5.3988e+08,-723.38,0,8.2611e+06,-458.13,11202,11683,1,11683,1,-0.00059442,1.7403e-12,0,0.00039466,-0.00018314,-2.4175e+08,0.47045,0,1.3635e+08,-92.54,11682,12593,1,12593,1,0.00098421,3.7909e-09,0,0.001184,0.00011183,2.5591e+08,1090.6,0,3.3953e+08,34.574,12592,527.79,0,527.79,0,0.00091109,2.5189e-09,0,0.00047546,0.00017029,2.8192e+08,761.68,0,1.3664e+08,126.96,527.79,1
1820,5.43,12139,1,12139,1,0.00019601,3.6088e-09,0,0.00080284,-3.5823e-05,-21.553,1068.2,0,2.468e+08,-68.232,12138,13096,1,13096,1,0.0017216,1.0567e-08,0,0.0017216,0.00024955,3.6803e+08,3326.9,0,5.4074e+08,203.86,13095,12138,1,12138,1,0.00019601,3.4034e-09,0,0.00079098,-3.5948e-05,6.3577e+07,930.93,0,2.5576e+08,-43.58,12137,11203,1,11203,1,-0.0013295,-2.418e-09,0,2.6509e-05,-0.00032088,-5.4074e+08,-534.61,0,8.5305e+06,-452.4,11202,11683,1,11683,1,-0.00059497,9.4241e-10,0,0.0003955,-0.00018366,-2.4197e+08,236.1,0,1.3655e+08,-143.1,11682,12593,1,12593,1,0.000987,6.1326e-09,0,0.0011865,0.00011194,2.562e+08,1795.3,0,3.3952e+08,23.828,12592,527.79,0,527.79,0,0.00091301,3.2606e-09,0,0.00047658,0.00017065,2.8222e+08,994.37,0,1.3676e+08,125.27,527.79,1
1820,5.44,12139,1,12139,1,0.00019713,9.1526e-10,0,0.00080463,-3.6029e-05,-90.13,363.43,0,2.4707e+08,-77.719,12138,13096,1,13096,1,0.0017259,5.0844e-09,0,0.0017259,0.00024994,3.6794e+08,1739.3,0,5.4159e+08,219.6,13095,12138,1,12138,1,0.00019713,1.1624e-09,0,0.00079264,-3.6157e-05,6.3927e+07,350.09,0,2.5606e+08,-65.721,12137,11203,1,11203,1,-0.0013316,-4.171e-09,0,2.7271e-05,-0.00032168,-5.4159e+08,-831.34,0,8.8016e+06,-319.26,11202,11683,1,11683,1,-0.00059551,-6.8086e-10,0,0.00039634,-0.00018417,-2.4219e+08,-134.32,0,1.3675e+08,-162.81,11682,12593,1,12593,1,0.00098979,2.6454e-09,0,0.001189,0.00011204,2.5649e+08,840.38,0,3.395e+08,-4.1728,12592,527.79,0,527.79,0,0.00091494,2.3255e-09,0,0.00047771,0.000171,2.8251e+08,658.36,0,1.3688e+08,103.39,527.79,1
1820,5.45,12139,1,12139,1,0.00019826,2.5972e-09,0,0.0008064,-3.6235e-05,106.57,814.78,0,2.4733e+08,-35.795,12138,13096,1,13096,1,0.0017302,9.8532e-09,0,0.0017302,0.00025033,3.6785e+08,3139.4,0,5.4243e+08,316.79,13095,12138,1,12138,1,0.00019826,2.204e-09,0,0.00079429,-3.6365e-05,6.4277e+07,613.73,0,2.5634e+08,-15.894,12137,11203,1,11203,1,-0.0013336,-2.5343e-09,0,2.8043e-05,-0.00032247,-5.4243e+08,-491.23,0,9.0756e+06,-394.93,11202,11683,1,11683,1,-0.00059604,-2.0594e-10,0,0.00039716,-0.00018468,-2.424e+08,-50.719,0,1.3694e+08,-110.75,11682,12593,1,12593,1,0.00099256,4.9504e-09,0,0.0011915,0.00011214,2.5677e+08,1478.6,0,3.3947e+08,39.511,12592,527.79,0,527.79,0,0.00091684,3.2035e-09,0,0.00047882,0.00017136,2.828e+08,971.96,0,1.37e+08,125.3,527.79,1
1820,5.46,12139,1,12139,1,0.00019938,1.3468e-09,0,0.0008082,-3.6442e-05,-196.51,494.73,0,2.4761e+08,-57.916,12138,13096,1,13096,1,0.0017345,7.6994e-09,0,0.0017345,0.00025072,3.6777e+08,2631.9,0,5.4328e+08,342.54,13095,12138,1,12138,1,0.00019938,1.0098e-09,0,0.00079596,-3.6574e-05,6.4628e+07,316.85,0,2.5663e+08,-40.827,12137,11203,1,11203,1,-0.0013357,-3.6549e-09,0,2.8809e-05,-0.00032328,-5.4328e+08,-714.64,0,9.3472e+06,-401.46,11202,11683,1,11683,1,-0.00059658,-7.7938e-10,0,0.000398,-0.0001852,-2.4263e+08,-168.76,0,1.3714e+08,-141.38,11682,12593,1,12593,1,0.00099536,3.2126e-09,0,0.001194,0.00011224,2.5706e+08,1018.7,0,3.3945e+08,9.419,12592,527.79,0,527.79,0,0.00091877,2.7814e-09,0,0.00047995,0.00017171,2.831e+08,822.14,0,1.3712e+08,127.25,527.79,1
1820,5.47,12139,1,12139,1,0.00020052,-8.3695e-10,0,0.00081,-3.665e-05,-1.9741,-118.21,0,2.4788e+08,-69.84,12138,13096,1,13096,1,0.0017389,6.2867e-09,0,0.0017389,0.00025111,3.6768e+08,2150.5,0,5.4412e+08,215.7,13095,12138,1,12138,1,0.00020052,-1.1205e-09,0,0.00079763,-3.6786e-05,6.4983e+07,-283.86,0,2.5692e+08,-59.551,12137,11203,1,11203,1,-0.0013378,-5.0338e-09,0,2.9591e-05,-0.00032408,-5.4412e+08,-1169.8,0,9.6237e+06,-358.78,11202,11683,1,11683,1,-0.00059712,-3.3744e-09,0,0.00039883,-0.00018572,-2.4284e+08,-766.43,0,1.3734e+08,-163.71,11682,12593,1,12593,1,0.00099816,1.0415e-09,0,0.0011965,0.00011234,2.5734e+08,344.7,0,3.3942e+08,4.13,12592,527.79,0,527.79,0,0.00092069,2.8279e-09,0,0.00048109,0.00017207,2.8339e+08,787.08,0,1.3724e+08,108.57,527.79,1
1820,5.48,12139,1,12139,1,0.00020166,2.5423e-09,0,0.00081179,-3.6859e-05,-26.03,770.91,0,2.4814e+08,-53.736,12138,13096,1,13096,1,0.0017432,1.0044e-08,0,0.0017432,0.0002515,3.6757e+08,3193.4,0,5.4496e+08,133.9,13095,12138,1,12138,1,0.00020166,1.7234e-09,0,0.00079929,-3.6998e-05,6.5337e+07,460.85,0,2.572e+08,-35.526,12137,11203,1,11203,1,-0.0013399,-2.9884e-09,0,3.0379e-05,-0.00032488,-5.4496e+08,-878.11,0,9.9019e+06,-417.03,11202,11683,1,11683,1,-0.00059763,-2.0152e-10,0,0.00039966,-0.00018624,-2.4305e+08,-39.004,0,1.3753e+08,-120.29,11682,12593,1,12593,1,0.001001,5.0091e-09,0,0.001199,0.00011244,2.5761e+08,1457.4,0,3.3938e+08,33.569,12592,527.79,0,527.79,0,0.00092261,3.2406e-09,0,0.00048221,0.00017243,2.8368e+08,997.87,0,1.3735e+08,116.94,527.79,1
1820,5.49,12139,1,12139,1,0.00020281,1.1071e-09,0,0.0008136,-3.7069e-05,-67.603,397,0,2.4841e+08,-99.81,12138,13096,1,13096,1,0.0017476,5.8378e-09,0,0.0017476,0.00025189,3.6747e+08,1996.9,0,5.4581e+08,165.24,13095,12138,1,12138,1,0.00020281,1.1733e-09,0,0.00080097,-3.7211e-05,6.5694e+07,325.41,0,2.5749e+08,-82.51,12137,11203,1,11203,1,-0.001342,-3.7127e-09,0,3.1164e-05,-0.00032569,-5.4581e+08,-730.07,0,1.0178e+07,-337.06,11202,11683,1,11683,1,-0.00059817,-1.9294e-10,0,0.0004005,-0.00018676,-2.4327e+08,-54.608,0,1.3773e+08,-196.42,11682,12593,1,12593,1,0.0010038,2.3636e-09,0,0.0012015,0.00011254,2.579e+08,759.82,0,3.3935e+08,-11.456,12592,527.79,0,527.79,0,0.00092455,2.1908e-09,0,0.00048336,0.00017279,2.8397e+08,638.53,0,1.3747e+08,108.7,527.79,1
1820,5.5,12139,1,12139,1,0.00020396,8.3849e-10,0,0.00081541,-3.7282e-05,-126.04,317.71,0,2.4868e+08,-79.982,12138,13096,1,13096,1,0.001752,3.867e-09,0,0.001752,0.00025228,3.6736e+08,1322.8,0,5.4666e+08,80.028,13095,12138,1,12138,1,0.00020397,1.3007e-09,0,0.00080265,-3.7426e-05,6.6054e+07,377.24,0,2.5777e+08,-71.033,12137,11203,1,11203,1,-0.001344,-4.2083e-09,0,3.1961e-05,-0.0003265,-5.4666e+08,-854.28,0,1.0459e+07,-266.14,11202,11683,1,11683,1,-0.00059869,-3.9284e-10,0,0.00040134,-0.00018728,-2.4348e+08,-93.692,0,1.3793e+08,-146.02,11682,12593,1,12593,1,0.0010066,2.3768e-09,0,0.001204,0.00011264,2.5817e+08,747.5,0,3.393e+08,-11.126,12592,527.79,0,527.79,0,0.00092649,1.9475e-09,0,0.0004845,0.00017315,2.8426e+08,532.62,0,1.3759e+08,77.212,527.79,1
1820,5.51,12139,1,12139,1,0.00020513,-1.6814e-09,0,0.00081721,-3.7495e-05,168.24,-385.83,0,2.4894e+08,-59.543,12138,13096,1,13096,1,0.0017563,1.461e-09,0,0.0017563,0.00025266,3.6725e+08,500.23,0,5.4748e+08,144.03,13095,12138,1,12138,1,0.00020513,-1.4172e-09,0,0.00080432,-3.7641e-05,6.6415e+07,-395.79,0,2.5805e+08,-45.383,12137,11203,1,11203,1,-0.0013461,-5.8388e-09,0,3.2765e-05,-0.0003273,-5.4748e+08,-1290.2,0,1.0741e+07,-281.64,11202,11683,1,11683,1,-0.0005992,-3.1696e-09,0,0.00040216,-0.0001878,-2.4369e+08,-736.41,0,1.3812e+08,-117.73,11682,12593,1,12593,1,0.0010095,-7.1717e-11,0,0.0012065,0.00011274,2.5845e+08,-14.795,0,3.3925e+08,-7.9462,12592,527.79,0,527.79,0,0.00092842,1.8473e-09,0,0.00048565,0.0001735,2.8455e+08,437.22,0,1.3771e+08,78.538,527.79,1
1820,5.52,12139,1,12139,1,0.00020631,-3.7623e-09,0,0.00081901,-3.7712e-05,7.8338,-1002.6,0,2.4918e+08,-54.401,12138,13096,1,13096,1,0.0017608,4.4201e-09,0,0.0017608,0.00025305,3.6712e+08,1475.1,0,5.4832e+08,190.24,13095,12138,1,12138,1,0.00020631,-2.9609e-09,0,0.00080599,-3.786e-05,6.6773e+07,-713.28,0,2.5832e+08,-61.791,12137,11203,1,11203,1,-0.0013481,-1.3589e-08,0,3.3598e-05,-0.00032812,-5.4832e+08,-3736.6,0,1.1031e+07,-290.71,11202,11683,1,11683,1,-0.00059968,-7.6218e-09,0,0.00040299,-0.00018833,-2.4388e+08,-2081,0,1.3831e+08,-135.23,11682,12593,1,12593,1,0.0010123,4.1461e-10,0,0.001209,0.00011283,2.5871e+08,92,0,3.3919e+08,31.875,12592,527.79,0,527.79,0,0.00093033,4.7575e-09,0,0.00048679,0.00017386,2.8482e+08,1325.4,0,1.3782e+08,107.5,527.79,1
1820,5.53,12139,1,12139,1,0.00020754,2.9304e-09,0,0.00082085,-3.7936e-05,-39.611,753.04,0,2.4944e+08,32.867,12138,13096,1,13096,1,0.0017653,1.4773e-08,0,0.0017653,0.00025343,3.6699e+08,4207,0,5.4916e+08,499.82,13095,12138,1,12138,1,0.00020754,2.7112e-09,0,0.0008077,-3.8087e-05,6.7137e+07,658.05,0,2.5858e+08,18.653,12137,11203,1,11203,1,-0.0013502,-3.4633e-09,0,3.4458e-05,-0.00032895,-5.4916e+08,-1185.2,0,1.1328e+07,-279.8,11202,11683,1,11683,1,-0.00060016,-1.663e-10,0,0.00040384,-0.00018887,-2.4408e+08,-43.179,0,1.3849e+08,-31.239,11682,12593,1,12593,1,0.0010152,5.1585e-09,0,0.0012115,0.00011292,2.5897e+08,1312.8,0,3.3912e+08,81.655,12592,527.79,0,527.79,0,0.0009323,3.6816e-09,0,0.00048796,0.00017422,2.8509e+08,1055.5,0,1.3794e+08,127.31,527.79,1
1820,5.54,12139,1,12139,1,0.0002088,-2.6025e-09,0,0.00082271,-3.8167e-05,-112.78,-683.18,0,2.4968e+08,-144.24,12138,13096,1,13096,1,0.0017698,4.0795e-09,0,0.0017698,0.00025382,3.6684e+08,1396.1,0,5.4999e+08,110.68,13095,12138,1,12138,1,0.0002088,-2.8627e-09,0,0.00080941,-3.8321e-05,6.7508e+07,-668.09,0,2.5884e+08,-142.47,12137,11203,1,11203,1,-0.0013522,-9.0169e-09,0,3.535e-05,-0.0003298,-5.4999e+08,-2572.2,0,1.1635e+07,-394.91,11202,11683,1,11683,1,-0.00060061,-4.8975e-09,0,0.0004047,-0.00018942,-2.4426e+08,-1330.4,0,1.3866e+08,-249.09,11682,12593,1,12593,1,0.0010182,2.0404e-11,0,0.0012141,0.000113,2.5922e+08,4.5811,0,3.3904e+08,-41.077,12592,527.79,0,527.79,0,0.00093428,3.0638e-09,0,0.00048915,0.00017459,2.8536e+08,904.55,0,1.3805e+08,122.09,527.79,1
1820,5.55,12139,1,12139,1,0.00021007,3.5875e-10,0,0.00082459,-3.8401e-05,60.21,69.115,0,2.4992e+08,-117.84,12138,13096,1,13096,1,0.0017744,3.4524e-09,0,0.0017744,0.0002542,3.6667e+08,1181,0,5.5082e+08,83.955,13095,12138,1,12138,1,0.00021007,5.9147e-10,0,0.00081113,-3.8557e-05,6.7885e+07,144.79,0,2.591e+08,-92.379,12137,11203,1,11203,1,-0.0013543,-4.1582e-09,0,3.6254e-05,-0.00033064,-5.5082e+08,-1422.4,0,1.1946e+07,-356.12,11202,11683,1,11683,1,-0.00060106,-7.5799e-10,0,0.00040557,-0.00018997,-2.4445e+08,-202.85,0,1.3884e+08,-214.24,11682,12593,1,12593,1,0.0010212,1.6427e-09,0,0.0012167,0.00011309,2.5947e+08,407.22,0,3.3895e+08,-19.469,12592,527.79,0,527.79,0,0.00093627,1.6903e-09,0,0.00049035,0.00017496,2.8563e+08,502.86,0,1.3816e+08,113.29,527.79,1
1820,5.56,12139,1,12139,1,0.00021136,1.7185e-09,0,0.00082647,-3.8637e-05,14.472,450.97,0,2.5016e+08,-72.818,12138,13096,1,13096,1,0.001779,5.3007e-09,0,0.001779,0.00025459,3.6649e+08,1750.9,0,5.5165e+08,60.376,13095,12138,1,12138,1,0.00021136,1.8826e-09,0,0.00081286,-3.8795e-05,6.8264e+07,484.92,0,2.5936e+08,-63.448,12137,11203,1,11203,1,-0.0013563,-1.668e-09,0,3.7172e-05,-0.0003315,-5.5165e+08,-571.04,0,1.2261e+07,-249.28,11202,11683,1,11683,1,-0.0006015,1.0153e-10,0,0.00040643,-0.00019053,-2.4463e+08,24.784,0,1.3902e+08,-125.12,11682,12593,1,12593,1,0.0010242,3.1807e-09,0,0.0012193,0.00011317,2.5971e+08,811.59,0,3.3884e+08,-11.627,12592,527.79,0,527.79,0,0.00093827,1.7441e-09,0,0.00049155,0.00017533,2.859e+08,493.26,0,1.3827e+08,71.405,527.79,1
1820,5.57,12139,1,12139,1,0.00021265,-1.3491e-09,0,0.00082833,-3.8874e-05,-137.91,-348.02,0,2.504e+08,-91.25,12138,13096,1,13096,1,0.0017837,4.9001e-09,0,0.0017837,0.00025497,3.6631e+08,1676.1,0,5.5248e+08,91.628,13095,12138,1,12138,1,0.00021265,-1.2895e-09,0,0.00081458,-3.9034e-05,6.8644e+07,-287.58,0,2.596e+08,-89.228,12137,11203,1,11203,1,-0.0013583,-6.544e-09,0,3.8095e-05,-0.00033235,-5.5248e+08,-1865.1,0,1.2577e+07,-293.64,11202,11683,1,11683,1,-0.00060193,-3.4248e-09,0,0.00040729,-0.00019108,-2.448e+08,-920.76,0,1.3919e+08,-165.92,11682,12593,1,12593,1,0.0010272,6.0339e-10,0,0.0012219,0.00011325,2.5995e+08,164.8,0,3.3873e+08,-11.984,12592,527.79,0,527.79,0,0.00094025,2.5934e-09,0,0.00049275,0.0001757,2.8615e+08,775.6,0,1.3838e+08,93.621,527.79,1
1820,5.58,12139,1,12139,1,0.00021394,-3.5068e-09,0,0.00083019,-3.9111e-05,143.45,-972.18,0,2.5063e+08,-124.32,12138,13096,1,13096,1,0.0017883,3.9906e-09,0,0.0017883,0.00025535,3.6612e+08,1365,0,5.533e+08,139.22,13095,12138,1,12138,1,0.00021394,-2.74e-09,0,0.00081629,-3.9273e-05,6.9024e+07,-682.71,0,2.5985e+08,-109.67,12137,11203,1,11203,1,-0.0013604,-1.2579e-08,0,3.902e-05,-0.0003332,-5.533e+08,-3599.3,0,1.2892e+07,-398.64,11202,11683,1,11683,1,-0.00060235,-6.6546e-09,0,0.00040815,-0.00019163,-2.4497e+08,-1886.3,0,1.3936e+08,-226.02,11682,12593,1,12593,1,0.0010302,-1.2194e-10,0,0.0012244,0.00011333,2.6019e+08,-31.835,0,3.3862e+08,-29.972,12592,527.79,0,527.79,0,0.00094222,4.0773e-09,0,0.00049395,0.00017606,2.8641e+08,1212.6,0,1.3849e+08,122.34,527.79,1
1820,5.59,12139,1,12139,1,0.00021524,-4.14e-10,0,0.00083209,-3.935e-05,147.2,-189.68,0,2.5087e+08,-122.47,12138,13096,1,13096,1,0.0017929,3.9303e-09,0,0.0017929,0.00025573,3.6594e+08,1344.4,0,5.5413e+08,82.553,13095,12138,1,12138,1,0.00021525,3.5125e-10,0,0.00081803,-3.9514e-05,6.9408e+07,95.79,0,2.601e+08,-90.529,12137,11203,1,11203,1,-0.0013624,-6.7053e-09,0,3.9945e-05,-0.00033406,-5.5413e+08,-2291.7,0,1.3207e+07,-381.82,11202,11683,1,11683,1,-0.00060279,-2.2044e-09,0,0.00040903,-0.0001922,-2.4515e+08,-654.89,0,1.3954e+08,-232.96,11682,12593,1,12593,1,0.0010333,1.6109e-09,0,0.0012271,0.00011342,2.6044e+08,360.81,0,3.3852e+08,-14.171,12592,527.79,0,527.79,0,0.00094424,2.7016e-09,0,0.00049517,0.00017644,2.8667e+08,827.1,0,1.386e+08,122.37,527.79,1
1820,5.6,12139,1,12139,1,0.00021656,-1.8017e-09,0,0.00083397,-3.9591e-05,4.8166,-559.5,0,2.511e+08,-127.61,12138,13096,1,13096,1,0.0017976,2.3154e-09,0,0.0017976,0.00025612,3.6574e+08,792.35,0,5.5496e+08,157.73,13095,12138,1,12138,1,0.00021657,-3.7751e-10,0,0.00081977,-3.9758e-05,6.9794e+07,-91.507,0,2.6035e+08,-104.67,12137,11203,1,11203,1,-0.0013645,-1.0238e-08,0,4.0891e-05,-0.00033493,-5.5496e+08,-3223.6,0,1.3529e+07,-399.84,11202,11683,1,11683,1,-0.00060321,-3.9231e-09,0,0.0004099,-0.00019276,-2.4532e+08,-1131.2,0,1.3971e+08,-245.7,11682,12593,1,12593,1,0.0010363,7.5497e-10,0,0.0012297,0.00011349,2.6067e+08,178.43,0,3.3839e+08,-20.569,12592,527.79,0,527.79,0,0.00094624,3.3522e-09,0,0.00049639,0.00017681,2.8693e+08,1031.9,0,1.3871e+08,134.96,527.79,1
1820,5.61,12139,1,12139,1,0.00021788,-3.3023e-09,0,0.00083585,-3.9833e-05,-8.0365,-994.52,0,2.5133e+08,-128.3,12138,13096,1,13096,1,0.0018023,4.6987e-09,0,0.0018023,0.0002565,3.6554e+08,1475.6,0,5.5579e+08,155.94,13095,12138,1,12138,1,0.00021788,-1.6091e-09,0,0.0008215,-4.0002e-05,7.0181e+07,-409.13,0,2.6059e+08,-119.79,12137,11203,1,11203,1,-0.0013665,-1.5682e-08,0,4.1837e-05,-0.00033579,-5.5579e+08,-4683.2,0,1.3849e+07,-493.86,11202,11683,1,11683,1,-0.00060362,-7.5028e-09,0,0.00041076,-0.00019332,-2.4549e+08,-2140.3,0,1.3988e+08,-239.84,11682,12593,1,12593,1,0.0010394,9.4816e-10,0,0.0012323,0.00011357,2.6091e+08,211.55,0,3.3826e+08,-3.0931,12592,527.79,0,527.79,0,0.00094823,5.2131e-09,0,0.0004976,0.00017718,2.8718e+08,1569.1,0,1.3882e+08,148.29,527.79,1
1820,5.62,12139,1,12139,1,0.0002192,1.0335e-09,0,0.00083774,-4.0076e-05,62.298,123.08,0,2.5156e+08,-103.76,12138,13096,1,13096,1,0.001807,9.4065e-09,0,0.001807,0.00025687,3.6534e+08,2714.5,0,5.566e+08,321.72,13095,12138,1,12138,1,0.00021921,1.7081e-09,0,0.00082322,-4.0247e-05,7.057e+07,383.93,0,2.6083e+08,-62.303,12137,11203,1,11203,1,-0.0013685,-8.3202e-09,0,4.2787e-05,-0.00033665,-5.566e+08,-2846.1,0,1.417e+07,-454.8,11202,11683,1,11683,1,-0.00060403,-2.0585e-09,0,0.00041163,-0.00019389,-2.4565e+08,-664.54,0,1.4005e+08,-259.6,11682,12593,1,12593,1,0.0010425,4.7192e-09,0,0.0012349,0.00011365,2.6114e+08,1039.1,0,3.3814e+08,28.523,12592,527.79,0,527.79,0,0.00095024,4.3225e-09,0,0.00049883,0.00017755,2.8743e+08,1248.3,0,1.3893e+08,174.48,527.79,1
1820,5.63,12139,1,12139,1,0.00022053,-4.1885e-09,0,0.0008396,-4.0319e-05,165.04,-1242,0,2.5178e+08,-140.25,12138,13096,1,13096,1,0.0018116,1.3811e-08,0,0.0018116,0.00025725,3.6512e+08,4085.1,0,5.5742e+08,413.6,13095,12138,1,12138,1,0.00022053,-2.3911e-09,0,0.00082494,-4.0492e-05,7.0957e+07,-568.94,0,2.6107e+08,-123.93,12137,11203,1,11203,1,-0.0013705,-2.1371e-08,0,4.3746e-05,-0.00033751,-5.5742e+08,-6342.5,0,1.4494e+07,-668.36,11202,11683,1,11683,1,-0.00060441,-1.0699e-08,0,0.00041249,-0.00019444,-2.4581e+08,-3012.5,0,1.4021e+08,-320.67,11682,12593,1,12593,1,0.0010455,1.7677e-09,0,0.0012374,0.00011372,2.6136e+08,402.3,0,3.3799e+08,20.73,12592,527.79,0,527.79,0,0.0009522,8.023e-09,0,0.00050003,0.00017791,2.8767e+08,2397.6,0,1.3903e+08,231.86,527.79,1
1820,5.64,12139,1,12139,1,0.00022186,-1.2105e-09,0,0.00084153,-4.0564e-05,-3.6831,-505.81,0,2.5202e+08,-272.37,12138,13096,1,13096,1,0.0018164,8.7997e-09,0,0.0018164,0.00025764,3.6493e+08,1667.9,0,5.5826e+08,211.62,13095,12138,1,12138,1,0.00022187,-1.0756e-09,0,0.0008267,-4.074e-05,7.1348e+07,-282.64,0,2.6132e+08,-217.03,12137,11203,1,11203,1,-0.0013726,-1.0401e-08,0,4.4699e-05,-0.00033839,-5.5826e+08,-3557.8,0,1.4815e+07,-776.31,11202,11683,1,11683,1,-0.00060485,-4.2168e-09,0,0.00041338,-0.00019502,-2.4599e+08,-1223.2,0,1.4039e+08,-503.33,11682,12593,1,12593,1,0.0010486,1.54e-09,0,0.0012401,0.0001138,2.6161e+08,382.71,0,3.3788e+08,-37.757,12592,527.79,0,527.79,0,0.00095425,4.5053e-09,0,0.00050128,0.00017829,2.8794e+08,1274.9,0,1.3915e+08,260.51,527.79,1
1820,5.65,12139,1,12139,1,0.00022321,-3.2396e-09,0,0.0008434,-4.0811e-05,172.15,-1051.7,0,2.5223e+08,-188,12138,13096,1,13096,1,0.0018211,8.5898e-09,0,0.0018211,0.00025801,3.6468e+08,2642.1,0,5.5907e+08,231.88,13095,12138,1,12138,1,0.00022322,-7.6515e-10,0,0.00082842,-4.0989e-05,7.1742e+07,-216.38,0,2.6155e+08,-115.26,12137,11203,1,11203,1,-0.0013746,-1.8841e-08,0,4.5681e-05,-0.00033925,-5.5907e+08,-6024.7,0,1.5145e+07,-685.96,11202,11683,1,11683,1,-0.00060521,-8.3332e-09,0,0.00041424,-0.00019558,-2.4614e+08,-2474.6,0,1.4055e+08,-398.64,11682,12593,1,12593,1,0.0010517,1.8986e-09,0,0.0012427,0.00011388,2.6182e+08,414.24,0,3.3772e+08,16.068,12592,527.79,0,527.79,0,0.00095623,6.8239e-09,0,0.0005025,0.00017866,2.8818e+08,2081.2,0,1.3925e+08,236.86,527.79,1
1820,5.66,12139,1,12139,1,0.00022457,-1.2541e-09,0,0.00084533,-4.106e-05,64.676,-554.21,0,2.5247e+08,-253.83,12138,13096,1,13096,1,0.0018258,9.1271e-09,0,0.0018258,0.0002584,3.6448e+08,1933.7,0,5.599e+08,284.55,13095,12138,1,12138,1,0.00022458,5.1274e-11,0,0.00083019,-4.124e-05,7.2138e+07,13.3,0,2.6179e+08,-183.56,12137,11203,1,11203,1,-0.0013766,-1.2554e-08,0,4.6652e-05,-0.00034013,-5.599e+08,-4294.2,0,1.5471e+07,-798.53,11202,11683,1,11683,1,-0.00060563,-5.1317e-09,0,0.00041513,-0.00019616,-2.463e+08,-1616.3,0,1.4072e+08,-481.89,11682,12593,1,12593,1,0.0010548,2.3241e-09,0,0.0012453,0.00011395,2.6206e+08,526.97,0,3.3759e+08,-40.878,12592,527.79,0,527.79,0,0.00095828,5.3112e-09,0,0.00050376,0.00017904,2.8844e+08,1556.9,0,1.3936e+08,260.53,527.79,1
1820,5.67,12139,1,12139,1,0.00022593,-3.8572e-09,0,0.00084723,-4.1311e-05,-88.678,-1257.5,0,2.5268e+08,-255.96,12138,13096,1,13096,1,0.0018306,5.6692e-09,0,0.0018306,0.00025877,3.6424e+08,1025.2,0,5.6071e+08,347.52,13095,12138,1,12138,1,0.00022594,-2.7329e-09,0,0.00083193,-4.1493e-05,7.2536e+07,-707.91,0,2.6202e+08,-194.42,12137,11203,1,11203,1,-0.0013786,-1.6058e-08,0,4.7647e-05,-0.00034101,-5.6071e+08,-5429.1,0,1.5804e+07,-810.13,11202,11683,1,11683,1,-0.000606,-7.996e-09,0,0.000416,-0.00019673,-2.4646e+08,-2446.4,0,1.4088e+08,-503.61,11682,12593,1,12593,1,0.0010579,4.7511e-10,0,0.001248,0.00011402,2.6228e+08,124.66,0,3.3743e+08,-27.402,12592,527.79,0,527.79,0,0.00096029,5.6517e-09,0,0.000505,0.00017941,2.8868e+08,1721,0,1.3947e+08,272.07,527.79,1
1820,5.68,12139,1,12139,1,0.00022731,1.2783e-09,0,0.00084918,-4.1564e-05,9.5982,87.037,0,2.5292e+08,-162.46,12138,13096,1,13096,1,0.0018353,1.3193e-08,0,0.0018353,0.00025915,3.6403e+08,2616.2,0,5.6154e+08,605.95,13095,12138,1,12138,1,0.00022732,7.1275e-10,0,0.00083371,-4.1747e-05,7.2938e+07,173.55,0,2.6226e+08,-117.12,12137,11203,1,11203,1,-0.0013806,-7.5296e-09,0,4.864e-05,-0.00034189,-5.6154e+08,-2576.7,0,1.6136e+07,-649.84,11202,11683,1,11683,1,-0.00060641,-2.4063e-09,0,0.00041688,-0.00019731,-2.4662e+08,-813.63,0,1.4106e+08,-371.65,11682,12593,1,12593,1,0.0010611,4.4504e-09,0,0.0012506,0.0001141,2.6251e+08,941.48,0,3.3729e+08,0.64434,12592,527.79,0,527.79,0,0.00096235,5.1492e-09,0,0.00050627,0.00017979,2.8894e+08,1294,0,1.3958e+08,255.92,527.79,1
1820,5.69,12139,1,12139,1,0.0002287,-1.3452e-09,0,0.00085107,-4.1817e-05,-100.2,-541.97,0,2.5312e+08,-130.37,12138,13096,1,13096,1,0.0018401,6.1867e-09,0,0.0018401,0.00025952,3.6376e+08,1796.2,0,5.6234e+08,398.59,13095,12138,1,12138,1,0.0002287,4.1006e-10,0,0.00083545,-4.2003e-05,7.3339e+07,105.8,0,2.6248e+08,-88.923,12137,11203,1,11203,1,-0.0013826,-1.1908e-08,0,4.9658e-05,-0.00034276,-5.6234e+08,-4069.4,0,1.6476e+07,-506.91,11202,11683,1,11683,1,-0.00060676,-5.1294e-09,0,0.00041775,-0.00019789,-2.4676e+08,-1568.8,0,1.4135e+08,-305.21,11682,12593,1,12593,1,0.0010642,2.7911e-09,0,0.0012532,0.00011417,2.6272e+08,573.66,0,3.3711e+08,18.906,12592,527.79,0,527.79,0,0.00096435,4.9003e-09,0,0.00050751,0.00018016,2.8916e+08,1468.7,0,1.3968e+08,195.3,527.79,1
1820,5.7,12139,1,12139,1,0.00023008,4.809e-10,0,0.00085302,-4.2072e-05,-38.243,-54.53,0,2.5335e+08,-131.92,12138,13096,1,13096,1,0.0018449,8.4257e-09,0,0.0018449,0.0002599,3.6354e+08,1691.5,0,5.6316e+08,492.38,13095,12138,1,12138,1,0.00023009,7.7235e-10,0,0.00083722,-4.2259e-05,7.3742e+07,182.36,0,2.6272e+08,-93.984,12137,11203,1,11203,1,-0.0013846,-7.2996e-09,0,5.0662e-05,-0.00034365,-5.6316e+08,-2497.9,0,1.6811e+07,-518.1,11202,11683,1,11683,1,-0.00060715,-2.6673e-09,0,0.00041864,-0.00019847,-2.4692e+08,-812.92,0,1.4178e+08,-297.53,11682,12593,1,12593,1,0.0010673,3.2389e-09,0,0.0012559,0.00011424,2.6294e+08,746.84,0,3.3696e+08,4.275,12592,527.79,0,527.79,0,0.0009664,3.9521e-09,0,0.00050879,0.00018054,2.8942e+08,1084.1,0,1.3979e+08,199.02,527.79,1
1820,5.71,12139,1,12139,1,0.00023148,-2.7336e-09,0,0.00085492,-4.2328e-05,55.717,-880.26,0,2.5356e+08,-113.78,12138,13096,1,13096,1,0.0018497,8.4521e-09,0,0.0018497,0.00026028,3.6327e+08,2485.4,0,5.6398e+08,413.59,13095,12138,1,12138,1,0.00023148,-8.5302e-10,0,0.00083898,-4.2517e-05,7.4147e+07,-227.16,0,2.6294e+08,-71.233,12137,11203,1,11203,1,-0.0013866,-1.5857e-08,0,5.1686e-05,-0.00034453,-5.6398e+08,-4945.2,0,1.7152e+07,-543.29,11202,11683,1,11683,1,-0.0006075,-7.3917e-09,0,0.00041951,-0.00019905,-2.4707e+08,-2189.4,0,1.4221e+08,-292.8,11682,12593,1,12593,1,0.0010705,1.7253e-09,0,0.0012585,0.00011431,2.6315e+08,357.51,0,3.3678e+08,60.044,12592,527.79,0,527.79,0,0.00096841,5.7802e-09,0,0.00051004,0.00018092,2.8965e+08,1743.6,0,1.399e+08,209.79,527.79,1
1820,5.72,12139,1,12139,1,0.00023286,-3.4173e-09,0,0.00085681,-4.2582e-05,-550.78,-1100,0,2.5376e+08,-150.88,12138,13096,1,13096,1,0.0018544,5.5001e-09,0,0.0018544,0.00026065,3.63e+08,1840.1,0,5.6477e+08,574.81,13095,12138,1,12138,1,0.00023287,-7.3108e-10,0,0.0008407,-4.2774e-05,7.4549e+07,-188.99,0,2.6315e+08,-104.8,12137,11203,1,11203,1,-0.0013886,-1.9124e-08,0,5.2698e-05,-0.00034541,-5.6477e+08,-6083.8,0,1.7488e+07,-755.35,11202,11683,1,11683,1,-0.00060785,-8.4655e-09,0,0.00042038,-0.00019962,-2.472e+08,-2503.5,0,1.4264e+08,-399.05,11682,12593,1,12593,1,0.0010736,1.8261e-09,0,0.0012611,0.00011437,2.6336e+08,406.56,0,3.366e+08,69.115,12592,527.79,0,527.79,0,0.00097041,6.702e-09,0,0.00051129,0.00018128,2.8988e+08,2037,0,1.4e+08,289.47,527.79,1
1820,5.73,12139,1,12139,1,0.00023425,-2.9677e-09,0,0.00085874,-4.2838e-05,39.561,-1032.2,0,2.5398e+08,-165.31,12138,13096,1,13096,1,0.0018592,8.6916e-09,0,0.0018592,0.00026102,3.6276e+08,2593.2,0,5.6559e+08,661.59,13095,12138,1,12138,1,0.00023427,-3.7209e-10,0,0.00084246,-4.3032e-05,7.4953e+07,-105.52,0,2.6338e+08,-105.59,12137,11203,1,11203,1,-0.0013906,-1.8548e-08,0,5.3711e-05,-0.00034629,-5.6559e+08,-6160.9,0,1.7824e+07,-761.89,11202,11683,1,11683,1,-0.00060821,-8.4378e-09,0,0.00042126,-0.00020021,-2.4735e+08,-2482.5,0,1.4308e+08,-414.08,11682,12593,1,12593,1,0.0010768,2.4864e-09,0,0.0012638,0.00011444,2.6357e+08,522.1,0,3.3643e+08,50.52,12592,527.79,0,527.79,0,0.00097244,7.0392e-09,0,0.00051255,0.00018166,2.9012e+08,2135.3,0,1.4011e+08,295.54,527.79,1
1820,5.74,12139,1,12139,1,0.00023567,-1.572e-09,0,0.00086068,-4.3098e-05,52.092,-680.86,0,2.5419e+08,-269.57,12138,13096,1,13096,1,0.0018641,9.8474e-09,0,0.0018641,0.0002614,3.6251e+08,1907.1,0,5.6641e+08,652.81,13095,12138,1,12138,1,0.00023568,-2.4637e-10,0,0.00084424,-4.3294e-05,7.5363e+07,-49.979,0,2.6361e+08,-207.06,12137,11203,1,11203,1,-0.0013926,-1.3922e-08,0,5.4743e-05,-0.00034719,-5.6641e+08,-4761.9,0,1.8166e+07,-945.17,11202,11683,1,11683,1,-0.00060858,-6.1348e-09,0,0.00042216,-0.00020079,-2.475e+08,-1900.3,0,1.4352e+08,-538.12,11682,12593,1,12593,1,0.0010799,2.5316e-09,0,0.0012664,0.00011451,2.6379e+08,564.64,0,3.3626e+08,-25.246,12592,527.79,0,527.79,0,0.0009745,5.9473e-09,0,0.00051384,0.00018204,2.9036e+08,1726.6,0,1.4022e+08,330.88,527.79,1
1820,5.75,12139,1,12139,1,0.0002371,-1.9542e-09,0,0.00086262,-4.336e-05,28.685,-787.65,0,2.544e+08,-260.48,12138,13096,1,13096,1,0.0018689,9.7314e-09,0,0.0018689,0.00026177,3.6224e+08,1799.2,0,5.6721e+08,801.2,13095,12138,1,12138,1,0.00023711,-2.1345e-09,0,0.00084601,-4.3558e-05,7.5775e+07,-621.05,0,2.6382e+08,-218.71,12137,11203,1,11203,1,-0.0013946,-1.307e-08,0,5.5792e-05,-0.00034808,-5.6721e+08,-4470.5,0,1.8513e+07,-1019.1,11202,11683,1,11683,1,-0.00060892,-5.4145e-09,0,0.00042304,-0.00020138,-2.4764e+08,-1698.5,0,1.4395e+08,-569.57,11682,12593,1,12593,1,0.0010831,1.3787e-09,0,0.0012691,0.00011458,2.64e+08,319.41,0,3.3607e+08,-2.0848,12592,527.79,0,527.79,0,0.00097654,5.5502e-09,0,0.00051512,0.00018242,2.906e+08,1558.1,0,1.4032e+08,378.32,527.79,1
1820,5.76,12139,1,12139,1,0.00023853,-3.0744e-09,0,0.00086457,-4.3623e-05,-79.176,-1096.4,0,2.5461e+08,-197.88,12138,13096,1,13096,1,0.0018738,6.9973e-09,0,0.0018738,0.00026215,3.6196e+08,1232.4,0,5.6804e+08,575.38,13095,12138,1,12138,1,0.00023854,-1.703e-09,0,0.00084779,-4.3823e-05,7.6189e+07,-488.56,0,2.6404e+08,-153.11,12137,11203,1,11203,1,-0.0013966,-1.6013e-08,0,5.6842e-05,-0.00034898,-5.6804e+08,-5454,0,1.886e+07,-754.84,11202,11683,1,11683,1,-0.00060927,-7.8141e-09,0,0.00042393,-0.00020198,-2.4778e+08,-2370.8,0,1.444e+08,-412.58,11682,12593,1,12593,1,0.0010864,1.4283e-09,0,0.0012718,0.00011464,2.642e+08,310.19,0,3.3589e+08,-6.2413,12592,527.79,0,527.79,0,0.0009786,6.0754e-09,0,0.00051642,0.0001828,2.9083e+08,1801.1,0,1.4043e+08,263.66,527.79,1
1820,5.77,12139,1,12139,1,0.00023998,1.5555e-09,0,0.00086652,-4.3887e-05,14.087,102.6,0,2.5482e+08,-97.738,12138,13096,1,13096,1,0.0018786,1.2593e-08,0,0.0018786,0.00026252,3.6169e+08,2407.9,0,5.6883e+08,875.05,13095,12138,1,12138,1,0.00023999,1.8042e-09,0,0.00084956,-4.4089e-05,7.6606e+07,436.44,0,2.6426e+08,-64.283,12137,11203,1,11203,1,-0.0013985,-1.0335e-08,0,5.7903e-05,-0.00034987,-5.6883e+08,-3536.6,0,1.9211e+07,-553.51,11202,11683,1,11683,1,-0.0006096,-3.1673e-09,0,0.00042482,-0.00020257,-2.4792e+08,-996.94,0,1.4484e+08,-311.68,11682,12593,1,12593,1,0.0010896,6.8042e-09,0,0.0012744,0.00011471,2.6441e+08,1505.2,0,3.3569e+08,38.317,12592,527.79,0,527.79,0,0.00098065,6.1163e-09,0,0.00051771,0.00018318,2.9106e+08,1614.2,0,1.4053e+08,262.04,527.79,1
1820,5.78,12139,1,12139,1,0.00024143,2.0511e-09,0,0.0008685,-4.4155e-05,-42.847,314.92,0,2.5503e+08,-122.18,12138,13096,1,13096,1,0.0018835,1.4087e-08,0,0.0018835,0.00026289,3.6142e+08,2798.6,0,5.6964e+08,986.6,13095,12138,1,12138,1,0.00024144,1.1585e-09,0,0.00085137,-4.4358e-05,7.7025e+07,276.21,0,2.6448e+08,-109.02,12137,11203,1,11203,1,-0.0014005,-5.2675e-09,0,5.898e-05,-0.00035077,-5.6964e+08,-1803,0,1.9566e+07,-618.82,11202,11683,1,11683,1,-0.00060995,-1.5731e-09,0,0.00042571,-0.00020317,-2.4806e+08,-538.08,0,1.4528e+08,-342.3,11682,12593,1,12593,1,0.0010928,4.9774e-09,0,0.0012771,0.00011477,2.6461e+08,1064.9,0,3.355e+08,13.932,12592,527.79,0,527.79,0,0.00098274,4.8752e-09,0,0.00051903,0.00018357,2.913e+08,1155.9,0,1.4064e+08,290.83,527.79,1
1820,5.79,12139,1,12139,1,0.0002429,1.2772e-09,0,0.00087046,-4.4424e-05,-276.18,198.74,0,2.5523e+08,-55.942,12138,13096,1,13096,1,0.0018884,8.1551e-09,0,0.0018884,0.00026326,3.6111e+08,1580.7,0,5.7044e+08,827.74,13095,12138,1,12138,1,0.00024291,1.3224e-09,0,0.00085316,-4.4629e-05,7.7446e+07,305.8,0,2.6469e+08,-45.358,12137,11203,1,11203,1,-0.0014025,-4.116e-09,0,6.0069e-05,-0.00035167,-5.7044e+08,-1408.8,0,1.9925e+07,-422.63,11202,11683,1,11683,1,-0.00061027,-1.1176e-09,0,0.0004266,-0.00020377,-2.4819e+08,-365.62,0,1.4572e+08,-200.08,11682,12593,1,12593,1,0.0010961,3.299e-09,0,0.0012798,0.00011484,2.6481e+08,768.4,0,3.3528e+08,31.451,12592,527.79,0,527.79,0,0.0009848,3.028e-09,0,0.00052033,0.00018395,2.9152e+08,767.53,0,1.4074e+08,209.6,527.79,1
1820,5.8,12139,1,12139,1,0.00024437,-1.366e-09,0,0.00087244,-4.4694e-05,-95.542,-461.47,0,2.5543e+08,-89.31,12138,13096,1,13096,1,0.0018933,3.8602e-09,0,0.0018933,0.00026364,3.6082e+08,694.64,0,5.7126e+08,699.4,13095,12138,1,12138,1,0.00024438,-1.7507e-09,0,0.00085499,-4.4901e-05,7.7869e+07,-488.06,0,2.649e+08,-72.814,12137,11203,1,11203,1,-0.0014045,-5.6035e-09,0,6.0964e-05,-0.00035259,-5.7126e+08,-1916.6,0,2.0284e+07,-525.66,11202,11683,1,11683,1,-0.0006106,-3.0368e-09,0,0.00042748,-0.00020437,-2.4832e+08,-828.93,0,1.4617e+08,-246.65,11682,12593,1,12593,1,0.0010994,4.1272e-10,0,0.0012825,0.0001149,2.6501e+08,103.91,0,3.3508e+08,20.273,12592,527.79,0,527.79,0,0.00098688,2.319e-09,0,0.00052165,0.00018433,2.9176e+08,643.06,0,1.4085e+08,221.38,527.79,1
1820,5.81,12139,1,12139,1,0.00024585,-5.4388e-10,0,0.00087439,-4.4965e-05,71.408,-267.45,0,2.5563e+08,-42.884,12138,13096,1,13096,1,0.0018982,4.0753e-09,0,0.0018982,0.00026401,3.605e+08,736.78,0,5.7206e+08,781.09,13095,12138,1,12138,1,0.00024585,-1.2188e-10,0,0.00085677,-4.5175e-05,7.8293e+07,-38.863,0,2.651e+08,-54.757,12137,11203,1,11203,1,-0.0014065,-5.7728e-09,0,6.0121e-05,-0.00035349,-5.7206e+08,-1974.5,0,2.0643e+07,-316.74,11202,11683,1,11683,1,-0.0006109,-2.4141e-09,0,0.00042837,-0.00020497,-2.4845e+08,-735.5,0,1.4661e+08,-168.77,11682,12593,1,12593,1,0.0011026,1.2367e-09,0,0.0012851,0.00011496,2.652e+08,248.97,0,3.3486e+08,20.641,12592,527.79,0,527.79,0,0.00098893,2.4466e-09,0,0.00052296,0.00018471,2.9197e+08,686.15,0,1.4095e+08,184.09,527.79,1
1820,5.82,12139,1,12139,1,0.00024733,-2.47e-09,0,0.00087636,-4.5237e-05,-31.857,-785.45,0,2.5583e+08,-48.618,12138,13096,1,13096,1,0.0019032,3.0137e-09,0,0.0019032,0.00026439,3.602e+08,529.98,0,5.7287e+08,850.68,13095,12138,1,12138,1,0.00024733,-2.2972e-09,0,0.00085856,-4.5448e-05,7.8717e+07,-660.72,0,2.6531e+08,-58.184,12137,11203,1,11203,1,-0.0014085,-8.7498e-09,0,5.9284e-05,-0.00035441,-5.7287e+08,-2768.3,0,2.1002e+07,-412.36,11202,11683,1,11683,1,-0.00061122,-4.8423e-09,0,0.00042927,-0.00020557,-2.4858e+08,-1456.2,0,1.4706e+08,-189.74,11682,12593,1,12593,1,0.0011059,1.6887e-11,0,0.0012878,0.00011502,2.654e+08,3.4742,0,3.3464e+08,37.855,12592,527.79,0,527.79,0,0.00099101,3.0055e-09,0,0.00052428,0.0001851,2.922e+08,894.96,0,1.4106e+08,207.33,527.79,1
1820,5.83,12139,1,12139,1,0.00024882,-2.0444e-09,0,0.00087833,-4.551e-05,-41.428,-719.76,0,2.5602e+08,-11.52,12138,13096,1,13096,1,0.0019082,4.2501e-09,0,0.0019082,0.00026476,3.5989e+08,855.06,0,5.7367e+08,963.56,13095,12138,1,12138,1,0.00024882,-1.5954e-09,0,0.00086036,-4.5723e-05,7.9144e+07,-464.22,0,2.6551e+08,-33.542,12137,11203,1,11203,1,-0.0014105,-9.9458e-09,0,5.8431e-05,-0.00035533,-5.7367e+08,-3191.5,0,2.1363e+07,-343.47,11202,11683,1,11683,1,-0.00061152,-5.2056e-09,0,0.00043016,-0.00020618,-2.487e+08,-1575.9,0,1.4751e+08,-150.74,11682,12593,1,12593,1,0.0011092,1.4044e-09,0,0.0012905,0.00011507,2.6559e+08,309.23,0,3.3442e+08,59.974,12592,527.79,0,527.79,0,0.00099308,3.8084e-09,0,0.0005256,0.00018548,2.9242e+08,1101.6,0,1.4116e+08,212.44,527.79,1
1820,5.84,12139,1,12139,1,0.00025042,1.8132e-09,0,0.00088037,-4.5803e-05,-736.34,270.4,0,2.562e+08,66.793,12138,13096,1,13096,1,0.0019133,9.0666e-09,0,0.0019133,0.00026512,3.5957e+08,1844.2,0,5.7446e+08,1376.5,13095,12138,1,12138,1,0.00025042,1.2779e-09,0,0.00086222,-4.6018e-05,7.9568e+07,272.14,0,2.6569e+08,11.233,12137,11203,1,11203,1,-0.0014124,-4.4748e-09,0,5.7485e-05,-0.00035627,-5.7446e+08,-1531.6,0,2.1746e+07,-256.53,11202,11683,1,11683,1,-0.00061177,-1.4466e-09,0,0.00043109,-0.00020681,-2.488e+08,-456.76,0,1.4793e+08,-99.352,11682,12593,1,12593,1,0.0011126,5.4434e-09,0,0.0012933,0.00011512,2.6575e+08,1146.3,0,3.3418e+08,92.812,12592,527.79,0,527.79,0,0.00099522,3.8453e-09,0,0.00052699,0.00018588,2.9263e+08,929.72,0,1.4127e+08,271.55,527.79,1
1820,5.85,12139,1,12139,1,0.00025212,6.7992e-10,0,0.00088249,-4.6114e-05,-4.3374,29.089,0,2.5637e+08,63.311,12138,13096,1,13096,1,0.0019187,6.4661e-09,0,0.0019187,0.00026549,3.592e+08,1228.8,0,5.7527e+08,1459.7,13095,12138,1,12138,1,0.00025212,1.9887e-10,0,0.00086412,-4.633e-05,8.001e+07,52.245,0,2.6586e+08,-10.522,12137,11203,1,11203,1,-0.0014144,-3.9067e-09,0,5.6474e-05,-0.00035726,-5.7527e+08,-1336.8,0,2.2155e+07,-279.08,11202,11683,1,11683,1,-0.00061198,-1.3481e-09,0,0.00043204,-0.00020747,-2.4889e+08,-456.63,0,1.4837e+08,-100.45,11682,12593,1,12593,1,0.0011162,2.9827e-09,0,0.0012961,0.00011517,2.6591e+08,608.11,0,3.3391e+08,100.81,12592,527.79,0,527.79,0,0.00099742,2.6749e-09,0,0.00052843,0.00018628,2.9283e+08,664.65,0,1.4137e+08,291.26,527.79,1
1820,5.86,12139,1,12139,1,0.00025388,-4.4269e-10,0,0.00088463,-4.6434e-05,141.16,-233.52,0,2.5653e+08,136.32,12138,13096,1,13096,1,0.0019242,7.2757e-09,0,0.0019242,0.00026587,3.5879e+08,1627.1,0,5.7607e+08,1759.5,13095,12138,1,12138,1,0.00025387,-4.7841e-10,0,0.00086605,-4.6652e-05,8.0465e+07,-148.88,0,2.6602e+08,26.398,12137,11203,1,11203,1,-0.0014164,-6.7226e-09,0,5.5412e-05,-0.00035827,-5.7607e+08,-1950,0,2.254e+07,-335.05,11202,11683,1,11683,1,-0.00061216,-2.8976e-09,0,0.00043301,-0.00020815,-2.4896e+08,-868.53,0,1.4881e+08,-69.508,11682,12593,1,12593,1,0.0011199,1.9736e-09,0,0.001299,0.0001152,2.6605e+08,416.43,0,3.336e+08,232.09,12592,527.79,0,527.79,0,0.00099964,3.0176e-09,0,0.00052989,0.0001867,2.9301e+08,797.55,0,1.4147e+08,341.96,527.79,1
1820,5.87,12139,1,12139,1,0.00025567,3.9648e-09,0,0.00088679,-4.6761e-05,-303.38,922.83,0,2.5668e+08,282.32,12138,13096,1,13096,1,0.0019296,1.3349e-08,0,0.0019296,0.00026624,3.5838e+08,3147.1,0,5.7687e+08,2477.7,13095,12138,1,12138,1,0.00025566,3.0963e-09,0,0.00086798,-4.698e-05,8.0927e+07,842.52,0,2.6617e+08,153.41,12137,11203,1,11203,1,-0.0014183,-5.6606e-09,0,5.4318e-05,-0.00035928,-5.7687e+08,-1129.1,0,2.21e+07,-173.07,11202,11683,1,11683,1,-0.00061232,1.5858e-10,0,0.00043399,-0.00020884,-2.4902e+08,54.275,0,1.4926e+08,34.196,11682,12593,1,12593,1,0.0011236,8.0921e-09,0,0.001302,0.00011524,2.6618e+08,1829.9,0,3.3328e+08,324.44,12592,527.79,0,527.79,0,0.0010019,4.3525e-09,0,0.00053138,0.00018711,2.932e+08,1018.9,0,1.4157e+08,430.84,527.79,1
1820,5.88,12139,1,12139,1,0.00025749,-1.4177e-09,0,0.000889,-4.7094e-05,-761.1,-368.8,0,2.5684e+08,248.14,12138,13096,1,13096,1,0.0019353,4.7332e-09,0,0.0019353,0.00026661,3.5793e+08,1620.4,0,5.7768e+08,2508.5,13095,12138,1,12138,1,0.00025749,-1.4459e-09,0,0.00086997,-4.7315e-05,8.1397e+07,-373.95,0,2.6632e+08,56.305,12137,11203,1,11203,1,-0.0014203,-1.2326e-08,0,5.3213e-05,-0.00036033,-5.7768e+08,-2529.5,0,2.1657e+07,-247.25,11202,11683,1,11683,1,-0.00061248,-1.9665e-09,0,0.00043498,-0.00020954,-2.4909e+08,-579.9,0,1.4972e+08,-37.539,11682,12593,1,12593,1,0.0011275,-4.4146e-10,0,0.001305,0.00011527,2.6632e+08,-106.02,0,3.3295e+08,368.22,12592,527.79,0,527.79,0,0.0010042,1.8012e-09,0,0.0005329,0.00018754,2.9338e+08,442.42,0,1.4168e+08,478.78,527.79,1
1820,5.89,12139,1,12139,1,0.00025935,2.5804e-09,0,0.00089121,-4.7434e-05,-287.61,673.06,0,2.5698e+08,393.95,12138,13096,1,13096,1,0.001941,1.447e-08,0,0.001941,0.00026699,3.5748e+08,3140.3,0,5.7849e+08,2773.1,13095,12138,1,12138,1,0.00025934,2.1678e-09,0,0.00087195,-4.7655e-05,8.1873e+07,591.29,0,2.6645e+08,214.82,12137,11203,1,11203,1,-0.0014223,-1.2359e-08,0,5.2064e-05,-0.00036138,-5.7849e+08,-2460.1,0,2.1196e+07,-167.09,11202,11683,1,11683,1,-0.00061261,4.1781e-10,0,0.00043598,-0.00021025,-2.4914e+08,129.06,0,1.5017e+08,81.231,11682,12593,1,12593,1,0.0011313,4.99e-09,0,0.0013079,0.0001153,2.6645e+08,1278.2,0,3.3259e+08,513.9,12592,527.79,0,527.79,0,0.0010065,3.765e-09,0,0.00053443,0.00018796,2.9356e+08,882.37,0,1.4178e+08,495.37,527.79,1
1820,5.9,12139,1,12139,1,0.00026123,-9.8856e-10,0,0.00089345,-4.7778e-05,495.31,-199.44,0,2.5713e+08,358.16,12138,13096,1,13096,1,0.0019467,9.6242e-09,0,0.0019467,0.00026736,3.5701e+08,3294.2,0,5.7929e+08,3137.5,13095,12138,1,12138,1,0.00026122,-7.2606e-10,0,0.00087396,-4.8e-05,8.2354e+07,-207.42,0,2.6658e+08,89.55,12137,11203,1,11203,1,-0.0014243,-1.7519e-08,0,5.0902e-05,-0.00036244,-5.7929e+08,-3478.3,0,2.0731e+07,-176.58,11202,11683,1,11683,1,-0.00061274,-1.9248e-09,0,0.00043698,-0.00021096,-2.4919e+08,-451.17,0,1.5064e+08,-52.158,11682,12593,1,12593,1,0.0011352,1.2924e-10,0,0.0013109,0.00011533,2.6658e+08,37.815,0,3.3236e+08,534.07,12592,527.79,0,527.79,0,0.0010088,3.2348e-09,0,0.00053598,0.00018839,2.9373e+08,770.48,0,1.4188e+08,612.88,527.79,1
1820,5.91,12139,1,12139,1,0.00026313,-7.5919e-10,0,0.00089571,-4.8126e-05,325,-148.06,0,2.5727e+08,530.26,12138,13096,1,13096,1,0.0019526,1.5245e-08,0,0.0019526,0.00026774,3.5654e+08,3839.9,0,5.8011e+08,3723.1,13095,12138,1,12138,1,0.00026312,-1.9654e-10,0,0.000876,-4.8349e-05,8.2841e+07,-57.183,0,2.667e+08,246.07,12137,11203,1,11203,1,-0.0014263,-2.3298e-08,0,4.9722e-05,-0.00036351,-5.8011e+08,-4641.4,0,2.0259e+07,-158.34,11202,11683,1,11683,1,-0.00061287,-2.0196e-09,0,0.00043799,-0.00021168,-2.4925e+08,-520.6,0,1.511e+08,67.656,11682,12593,1,12593,1,0.0011391,1.007e-09,0,0.001314,0.00011535,2.667e+08,260.48,0,3.3227e+08,735.84,12592,527.79,0,527.79,0,0.0010111,4.8902e-09,0,0.00053755,0.00018883,2.9391e+08,1110.4,0,1.4198e+08,697.27,527.79,1
1820,5.92,12139,1,12139,1,0.00026507,2.0717e-09,0,0.00089799,-4.8479e-05,-61.86,585.99,0,2.5741e+08,647.22,12138,13096,1,13096,1,0.0019585,1.8223e-08,0,0.0019585,0.00026812,3.5605e+08,6235.5,0,5.8093e+08,4567.1,13095,12138,1,12138,1,0.00026505,2.2025e-09,0,0.00087804,-4.8702e-05,8.3331e+07,535.52,0,2.6682e+08,281.41,12137,11203,1,11203,1,-0.0014283,-1.9873e-08,0,4.8519e-05,-0.00036459,-5.8093e+08,-3739.4,0,1.978e+07,-104.25,11202,11683,1,11683,1,-0.00061298,-3.2987e-10,0,0.00043901,-0.00021241,-2.4929e+08,-77.514,0,1.5157e+08,74.109,11682,12593,1,12593,1,0.0011431,3.9549e-09,0,0.001317,0.00011538,2.6682e+08,1039.5,0,3.3217e+08,907.39,12592,527.79,0,527.79,0,0.0010135,4.8548e-09,0,0.00053914,0.00018926,2.9408e+08,1309,0,1.4208e+08,844.67,527.79,1
1820,5.93,12139,1,12139,1,0.00026702,1.382e-09,0,0.00090027,-4.8835e-05,340.16,477.84,0,2.5755e+08,847.91,12138,13096,1,13096,1,0.0019644,2.3205e-08,0,0.0019644,0.0002685,3.5555e+08,6717.2,0,5.8174e+08,5093.8,13095,12138,1,12138,1,0.00026699,1.9875e-09,0,0.00088008,-4.9058e-05,8.3825e+07,526.1,0,2.6693e+08,522.38,12137,11203,1,11203,1,-0.0014303,-3.1639e-08,0,4.7295e-05,-0.00036568,-5.8174e+08,-6049.9,0,1.9293e+07,-185.98,11202,11683,1,11683,1,-0.00061307,-1.6527e-09,0,0.00044002,-0.00021314,-2.4933e+08,-388.21,0,1.5204e+08,178.04,11682,12593,1,12593,1,0.0011471,4.6201e-09,0,0.0013201,0.0001154,2.6693e+08,1309.7,0,3.3206e+08,1180.8,12592,527.79,0,527.79,0,0.0010159,7.0915e-09,0,0.00054073,0.0001897,2.9425e+08,1725.1,0,1.4218e+08,941.51,527.79,1
1820,5.94,12139,1,12139,1,0.00026898,1.5458e-09,0,0.00090256,-4.9194e-05,443.76,600.39,0,2.5768e+08,965.79,12138,13096,1,13096,1,0.0019703,2.7099e-08,0,0.0019703,0.00026887,3.5504e+08,8203.7,0,5.8255e+08,5516.1,13095,12138,1,12138,1,0.00026895,2.0434e-09,0,0.00088213,-4.9417e-05,8.4321e+07,555.35,0,2.6704e+08,581.86,12137,11203,1,11203,1,-0.0014323,-3.6745e-08,0,4.606e-05,-0.00036678,-5.8255e+08,-6969,0,1.8803e+07,-127.82,11202,11683,1,11683,1,-0.00061316,-1.787e-09,0,0.00044103,-0.00021388,-2.4936e+08,-424.25,0,1.5251e+08,187.47,11682,12593,1,12593,1,0.0011511,5.5149e-09,0,0.0013232,0.00011542,2.6704e+08,1620.4,0,3.3195e+08,1391.4,12592,527.79,0,527.79,0,0.0010182,8.5223e-09,0,0.00054234,0.00019014,2.9441e+08,2090.7,0,1.4228e+08,1068.6,527.79,1
1820,5.95,12139,1,12139,1,0.00027096,-2.6078e-09,0,0.00090489,-4.9556e-05,-1391.2,-399.47,0,2.5782e+08,1137,12138,13096,1,13096,1,0.0019763,2.6076e-08,0,0.0019763,0.00026926,3.5455e+08,8925,0,5.8338e+08,5911.2,13095,12138,1,12138,1,0.00027093,-1.4749e-09,0,0.00088423,-4.978e-05,8.4821e+07,-393.07,0,2.6715e+08,765.83,12137,11203,1,11203,1,-0.0014343,-4.6973e-08,0,4.4818e-05,-0.00036788,-5.8338e+08,-9021.9,0,1.8311e+07,-56.524,11202,11683,1,11683,1,-0.00061327,-6.7773e-09,0,0.00044208,-0.00021463,-2.4941e+08,-1566.4,0,1.5298e+08,282.96,11682,12593,1,12593,1,0.0011551,2.2512e-09,0,0.0013263,0.00011544,2.6715e+08,659.01,0,3.3184e+08,1576.8,12592,527.79,0,527.79,0,0.0010206,1.0415e-08,0,0.00054397,0.00019058,2.9459e+08,2444.1,0,1.4238e+08,1159.8,527.79,1
1820,5.96,12139,1,12139,1,0.00027298,2.2577e-09,0,0.00090722,-4.9925e-05,295.07,834.16,0,2.5795e+08,1264.3,12138,13096,1,13096,1,0.0019824,3.2972e-08,0,0.0019824,0.00026964,3.5401e+08,10324,0,5.842e+08,6974.3,13095,12138,1,12138,1,0.00027294,3.7713e-09,0,0.0008863,-5.0149e-05,8.5328e+07,1026.6,0,2.6726e+08,868.72,12137,11203,1,11203,1,-0.0014364,-5.1228e-08,0,4.3544e-05,-0.000369,-5.842e+08,-9730.3,0,1.7808e+07,-437.19,11202,11683,1,11683,1,-0.00061332,-2.3386e-09,0,0.00044311,-0.00021538,-2.4943e+08,-575.57,0,1.5346e+08,294.23,11682,12593,1,12593,1,0.0011592,8.4021e-09,0,0.0013294,0.00011546,2.6726e+08,2488.3,0,3.3172e+08,1807.4,12592,527.79,0,527.79,0,0.001023,1.2098e-08,0,0.00054561,0.00019103,2.9475e+08,2878.8,0,1.4248e+08,1326.8,527.79,1
1820,5.97,12139,1,12139,1,0.00027502,3.259e-10,0,0.00090955,-5.0296e-05,214.65,446.74,0,2.5807e+08,1441.3,12138,13096,1,13096,1,0.0019884,3.8099e-08,0,0.0019884,0.00027001,3.5348e+08,11188,0,5.8501e+08,7524,13095,12138,1,12138,1,0.00027497,2.5874e-09,0,0.0008884,-5.052e-05,8.5836e+07,734.12,0,2.6736e+08,985.33,12137,11203,1,11203,1,-0.0014383,-6.1638e-08,0,4.2254e-05,-0.00037012,-5.8501e+08,-11794,0,1.7301e+07,-193.4,11202,11683,1,11683,1,-0.00061338,-4.8653e-09,0,0.00044415,-0.00021613,-2.4945e+08,-1057.4,0,1.5394e+08,334.2,11682,12593,1,12593,1,0.0011634,7.5126e-09,0,0.0013325,0.00011547,2.6736e+08,2210.5,0,3.3159e+08,2031.7,12592,527.79,0,527.79,0,0.0010255,1.4278e-08,0,0.00054727,0.00019147,2.949e+08,3290.2,0,1.4258e+08,1488.3,527.79,1
1820,5.98,12139,1,12139,1,0.00027707,-4.153e-10,0,0.00091193,-5.0672e-05,-367.62,292.08,0,2.582e+08,1600.9,12138,13096,1,13096,1,0.0019946,3.852e-08,0,0.0019946,0.0002704,3.5295e+08,13063,0,5.8584e+08,8251.9,13095,12138,1,12138,1,0.00027702,1.4052e-09,0,0.00089053,-5.0896e-05,8.635e+07,376.5,0,2.6746e+08,1076.3,12137,11203,1,11203,1,-0.0014404,-6.4864e-08,0,4.0956e-05,-0.00037126,-5.8584e+08,-12249,0,1.6792e+07,-140.29,11202,11683,1,11683,1,-0.00061345,-6.1961e-09,0,0.0004452,-0.0002169,-2.4948e+08,-1364.4,0,1.5442e+08,374.15,11682,12593,1,12593,1,0.0011675,7.0547e-09,0,0.0013357,0.00011549,2.6746e+08,2026.3,0,3.3146e+08,2263.3,12592,527.79,0,527.79,0,0.0010279,1.4883e-08,0,0.00054895,0.00019193,2.9507e+08,3550.6,0,1.4269e+08,1652,527.79,1
1820,5.99,12139,1,12139,1,0.00027916,8.8368e-10,0,0.00091431,-5.1053e-05,146.9,663.8,0,2.5833e+08,1805.8,12138,13096,1,13096,1,0.0020008,4.5075e-08,0,0.0020008,0.00027078,3.5239e+08,14748,0,5.8667e+08,9269.2,13095,12138,1,12138,1,0.00027909,3.1032e-09,0,0.00089265,-5.1276e-05,8.6868e+07,848.87,0,2.6756e+08,1251.2,12137,11203,1,11203,1,-0.0014424,-7.3429e-08,0,3.9627e-05,-0.0003724,-5.8667e+08,-13758,0,1.6273e+07,-254.71,11202,11683,1,11683,1,-0.00061349,-5.6684e-09,0,0.00044626,-0.00021767,-2.495e+08,-1219.8,0,1.5491e+08,421.7,11682,12593,1,12593,1,0.0011717,9.8022e-09,0,0.0013389,0.0001155,2.6756e+08,2797.9,0,3.3132e+08,2559.6,12592,527.79,0,527.79,0,0.0010304,1.7065e-08,0,0.00055064,0.00019238,2.9523e+08,4079.4,0,1.4279e+08,1842.8,527.79,1
1820,6,12139,1,12139,1,0.00028127,-2.3805e-09,0,0.00091673,-5.1439e-05,-146.56,-100.48,0,2.5845e+08,2040.8,12138,13096,1,13096,1,0.0020071,5.0965e-08,0,0.0020071,0.00027117,3.5185e+08,16408,0,5.875e+08,9878.4,13095,12138,1,12138,1,0.0002812,2.9328e-11,0,0.00089482,-5.1662e-05,8.7393e+07,6.2037,0,2.6765e+08,1507.2,12137,11203,1,11203,1,-0.0014445,-8.4333e-08,0,3.8284e-05,-0.00037355,-5.875e+08,-15823,0,1.5751e+07,-43.35,11202,11683,1,11683,1,-0.00061355,-1.0553e-08,0,0.00044733,-0.00021846,-2.4952e+08,-2364.5,0,1.554e+08,507.46,11682,12593,1,12593,1,0.001176,7.3359e-09,0,0.0013421,0.00011552,2.6765e+08,2107.6,0,3.3118e+08,2866,12592,527.79,0,527.79,0,0.0010329,1.9734e-08,0,0.00055236,0.00019284,2.9539e+08,4630.8,0,1.429e+08,2004.1,527.79,1
1820,6.01,12139,1,12139,1,0.00028341,2.2875e-10,0,0.00091915,-5.183e-05,-765.75,564.34,0,2.5857e+08,2304.4,12138,13096,1,13096,1,0.0020134,5.9241e-08,0,0.0020134,0.00027155,3.5126e+08,18521,0,5.8833e+08,11247,13095,12138,1,12138,1,0.00028333,2.5307e-09,0,0.00089697,-5.2051e-05,8.792e+07,671.94,0,2.6774e+08,1630.2,12137,11203,1,11203,1,-0.0014465,-9.2558e-08,0,3.6917e-05,-0.00037472,-5.8833e+08,-17176,0,1.5221e+07,-230.13,11202,11683,1,11683,1,-0.00061357,-8.192e-09,0,0.0004484,-0.00021924,-2.4953e+08,-1791,0,1.5589e+08,552.32,11682,12593,1,12593,1,0.0011803,1.1258e-08,0,0.0013453,0.00011553,2.6774e+08,3194.8,0,3.3103e+08,3287.5,12592,527.79,0,527.79,0,0.0010354,2.1711e-08,0,0.0005541,0.00019331,2.9554e+08,5173.6,0,1.43e+08,2280.8,527.79,1
1820,6.02,12139,1,12139,1,0.00028556,-1.0246e-09,0,0.00092158,-5.2223e-05,-870.88,330.02,0,2.5868e+08,2653.3,12138,13096,1,13096,1,0.0020198,7.1033e-08,0,0.0020198,0.00027193,3.5068e+08,20042,0,5.8915e+08,12186,13095,12138,1,12138,1,0.00028548,2.1164e-09,0,0.00089914,-5.2444e-05,8.8452e+07,565.61,0,2.6782e+08,2032.6,12137,11203,1,11203,1,-0.0014485,-1.0808e-07,0,3.5529e-05,-0.00037589,-5.8915e+08,-20191,0,1.4686e+07,-131.2,11202,11683,1,11683,1,-0.00061358,-1.1478e-08,0,0.00044948,-0.00022003,-2.4953e+08,-2465.3,0,1.5609e+08,694.91,11682,12593,1,12593,1,0.0011846,1.1807e-08,0,0.0013485,0.00011553,2.6782e+08,3373.2,0,3.3086e+08,3715.6,12592,527.79,0,527.79,0,0.0010379,2.5819e-08,0,0.00055584,0.00019377,2.9569e+08,5940.8,0,1.431e+08,2496.6,527.79,1
1820,6.03,12139,1,12139,1,0.00028775,-3.9323e-09,0,0.00092406,-5.2624e-05,-157.7,-384.11,0,2.588e+08,2873.8,12138,13096,1,13096,1,0.0020262,7.4355e-08,0,0.0020262,0.00027232,3.5011e+08,22430,0,5.8999e+08,13152,13095,12138,1,12138,1,0.00028766,-1.6448e-09,0,0.00090136,-5.2844e-05,8.8991e+07,-421.64,0,2.6791e+08,2187.8,12137,11203,1,11203,1,-0.0014506,-1.1697e-07,0,3.4127e-05,-0.00037708,-5.8999e+08,-21707,0,1.4149e+07,-81.708,11202,11683,1,11683,1,-0.00061361,-1.5414e-08,0,0.00045058,-0.00022084,-2.4954e+08,-3586.3,0,1.5626e+08,724.93,11682,12593,1,12593,1,0.001189,9.5669e-09,0,0.0013519,0.00011554,2.6791e+08,2676.8,0,3.3071e+08,4061.2,12592,527.79,0,527.79,0,0.0010404,2.7613e-08,0,0.00055762,0.00019424,2.9585e+08,6493.2,0,1.4321e+08,2740.4,527.79,1
1820,6.04,12139,1,12139,1,0.00028997,-4.759e-10,0,0.00092652,-5.3028e-05,88.408,474.02,0,2.589e+08,3241.5,12138,13096,1,13096,1,0.0020327,9.2571e-08,0,0.0020327,0.0002727,3.4949e+08,24263,0,5.9081e+08,14737,13095,12138,1,12138,1,0.00028986,2.5421e-09,0,0.00090354,-5.3246e-05,8.9532e+07,668.77,0,2.6798e+08,2555.1,12137,11203,1,11203,1,-0.0014526,-1.315e-07,0,3.2693e-05,-0.00037827,-5.9081e+08,-24384,0,1.3601e+07,-71.85,11202,11683,1,11683,1,-0.00061358,-1.2742e-08,0,0.00045166,-0.00022165,-2.4953e+08,-2918.4,0,1.5642e+08,841.79,11682,12593,1,12593,1,0.0011934,1.4938e-08,0,0.0013551,0.00011554,2.6798e+08,4155.5,0,3.3053e+08,4575.1,12592,527.79,0,527.79,0,0.0010429,3.1797e-08,0,0.0005594,0.00019471,2.9598e+08,7278.9,0,1.4331e+08,3026.2,527.79,1
1820,6.05,12139,1,12139,1,0.00029221,-5.5971e-10,0,0.00092905,-5.3438e-05,-107.63,515.85,0,2.5902e+08,3524,12138,13096,1,13096,1,0.0020393,9.7257e-08,0,0.0020393,0.0002731,3.4889e+08,27912,0,5.9167e+08,16043,13095,12138,1,12138,1,0.0002921,2.0398e-09,0,0.0009058,-5.3655e-05,9.008e+07,509.77,0,2.6807e+08,2742.7,12137,11203,1,11203,1,-0.0014547,-1.3904e-07,0,3.1252e-05,-0.00037949,-5.9167e+08,-25396,0,1.3054e+07,-114.48,11202,11683,1,11683,1,-0.00061359,-1.4273e-08,0,0.00045278,-0.00022247,-2.4953e+08,-3307.3,0,1.5659e+08,900.27,11682,12593,1,12593,1,0.0011979,1.6145e-08,0,0.0013585,0.00011555,2.6807e+08,4438.7,0,3.3037e+08,5017.4,12592,527.79,0,527.79,0,0.0010455,3.3728e-08,0,0.00056123,0.00019519,2.9614e+08,7998.1,0,1.4342e+08,3313.9,527.79,1
1820,6.06,12139,1,12139,1,0.0002945,-3.615e-09,0,0.0009316,-5.3857e-05,28.183,-192,0,2.5913e+08,3993.7,12138,13096,1,13096,1,0.002046,1.1185e-07,0,0.002046,0.0002735,3.4827e+08,29969,0,5.9251e+08,17229,13095,12138,1,12138,1,0.00029438,-3.7992e-10,0,0.00090807,-5.4071e-05,9.0637e+07,-111.92,0,2.6814e+08,3232.5,12137,11203,1,11203,1,-0.0014568,-1.6132e-07,0,2.9766e-05,-0.00038072,-5.9251e+08,-29614,0,1.2493e+07,-83.594,11202,11683,1,11683,1,-0.00061358,-1.972e-08,0,0.0004539,-0.0002233,-2.4953e+08,-4671,0,1.5676e+08,1067.2,11682,12593,1,12593,1,0.0012024,1.5801e-08,0,0.0013619,0.00011555,2.6814e+08,4326.5,0,3.3018e+08,5681.7,12592,527.79,0,527.79,0,0.0010482,3.9342e-08,0,0.00056308,0.00019567,2.9629e+08,9063.7,0,1.4353e+08,3618.9,527.79,1
1820,6.07,12139,1,12139,1,0.00029682,-4.5399e-10,0,0.00093416,-5.428e-05,229.72,625.19,0,2.5923e+08,4437.8,12138,13096,1,13096,1,0.0020527,1.3126e-07,0,0.0020527,0.00027389,3.4762e+08,33046,0,5.9336e+08,19023,13095,12138,1,12138,1,0.00029668,3.1099e-09,0,0.00091034,-5.4492e-05,9.1198e+07,849.51,0,2.6821e+08,3708.7,12137,11203,1,11203,1,-0.0014589,-1.7667e-07,0,2.8257e-05,-0.00038196,-5.9336e+08,-32280,0,1.1926e+07,-255.18,11202,11683,1,11683,1,-0.00061353,-1.8094e-08,0,0.00045503,-0.00022414,-2.4951e+08,-4149.8,0,1.5692e+08,1255.2,11682,12593,1,12593,1,0.001207,2.1215e-08,0,0.0013653,0.00011555,2.6821e+08,5776.3,0,3.2999e+08,6280.8,12592,527.79,0,527.79,0,0.0010508,4.4101e-08,0,0.00056495,0.00019616,2.9643e+08,10041,0,1.4364e+08,3938.3,527.79,1
1820,6.08,12139,1,12139,1,0.00029917,-4.0291e-09,0,0.00093676,-5.471e-05,341.4,-175.24,0,2.5934e+08,4815.3,12138,13096,1,13096,1,0.0020595,1.3551e-07,0,0.0020595,0.00027429,3.4699e+08,37162,0,5.9422e+08,20723,13095,12138,1,12138,1,0.00029902,-4.2032e-11,0,0.00091266,-5.4919e-05,9.1765e+07,-10.831,0,2.6827e+08,3962.5,12137,11203,1,11203,1,-0.001461,-1.9368e-07,0,2.6725e-05,-0.00038321,-5.9422e+08,-35114,0,1.1353e+07,-251.08,11202,11683,1,11683,1,-0.0006135,-2.4003e-08,0,0.00045617,-0.00022499,-2.4949e+08,-5631.9,0,1.5708e+08,1266.7,11682,12593,1,12593,1,0.0012116,1.926e-08,0,0.0013687,0.00011555,2.6827e+08,5191.2,0,3.298e+08,6808.9,12592,527.79,0,527.79,0,0.0010535,4.738e-08,0,0.00056685,0.00019665,2.9658e+08,11050,0,1.4375e+08,4352.7,527.79,1
1820,6.09,12139,1,12139,1,0.00030155,-1.1979e-08,0,0.00093937,-5.5145e-05,-756.97,-2196.1,0,2.5943e+08,5528.8,12138,13096,1,13096,1,0.0020664,1.5327e-07,0,0.0020664,0.00027468,3.4633e+08,39363,0,5.9507e+08,22562,13095,12138,1,12138,1,0.0003014,-9.6289e-09,0,0.00091499,-5.5352e-05,9.234e+07,-2423.2,0,2.6832e+08,4615.1,12137,11203,1,11203,1,-0.0014631,-2.2382e-07,0,2.5166e-05,-0.00038448,-5.9507e+08,-40920,0,1.0773e+07,-381.89,11202,11683,1,11683,1,-0.00061344,-3.6027e-08,0,0.00045734,-0.00022586,-2.4947e+08,-8778.7,0,1.5724e+08,1498.4,11682,12593,1,12593,1,0.0012163,1.5105e-08,0,0.0013722,0.00011555,2.6832e+08,3850.8,0,3.2958e+08,7904.7,12592,527.79,0,527.79,0,0.0010561,5.4253e-08,0,0.00056876,0.00019715,2.9671e+08,12535,0,1.4386e+08,4875.8,527.79,1
1820,6.1,12139,1,12139,1,0.00030398,6.4779e-10,0,0.00094203,-5.5588e-05,-80.499,800.36,0,2.5954e+08,6003,12138,13096,1,13096,1,0.0020734,1.8456e-07,0,0.0020734,0.00027509,3.4564e+08,44642,0,5.9595e+08,25147,13095,12138,1,12138,1,0.00030381,4.0378e-09,0,0.00091735,-5.5791e-05,9.2921e+07,1023.4,0,2.6839e+08,5141.3,12137,11203,1,11203,1,-0.0014652,-2.3012e-07,0,2.3587e-05,-0.00038577,-5.9595e+08,-41241,0,1.0189e+07,-163.76,11202,11683,1,11683,1,-0.00061337,-2.4613e-08,0,0.00045849,-0.00022673,-2.4944e+08,-5929,0,1.574e+08,1688.2,11682,12593,1,12593,1,0.0012211,2.9426e-08,0,0.0013757,0.00011554,2.6839e+08,7752.5,0,3.2939e+08,8529.4,12592,527.79,0,527.79,0,0.0010589,5.8988e-08,0,0.00057072,0.00019765,2.9686e+08,13603,0,1.4398e+08,5233.3,527.79,1
1820,6.11,12139,1,12139,1,0.00030645,-7.8687e-09,0,0.00094472,-5.6038e-05,-66.462,-1214.2,0,2.5963e+08,6753.4,12138,13096,1,13096,1,0.0020805,2.0071e-07,0,0.0020805,0.00027549,3.4497e+08,48914,0,5.9681e+08,26827,13095,12138,1,12138,1,0.00030626,-5.8977e-09,0,0.00091976,-5.6238e-05,9.3511e+07,-1493.8,0,2.6844e+08,5870.1,12137,11203,1,11203,1,-0.0014674,-2.6461e-07,0,2.196e-05,-0.00038708,-5.9681e+08,-47637,0,9.5887e+06,-186.6,11202,11683,1,11683,1,-0.0006133,-3.7223e-08,0,0.00045968,-0.00022762,-2.4941e+08,-9283.8,0,1.5756e+08,1935.4,11682,12593,1,12593,1,0.0012259,2.4849e-08,0,0.0013793,0.00011553,2.6844e+08,6498.8,0,3.2922e+08,9688,12592,527.79,0,527.79,0,0.0010616,6.6691e-08,0,0.00057271,0.00019816,2.9699e+08,15379,0,1.4409e+08,5770.7,527.79,1
1820,6.12,12139,1,12139,1,0.00030896,-6.8258e-09,0,0.00094745,-5.6497e-05,688.61,-1063.7,0,2.5972e+08,7401,12138,13096,1,13096,1,0.0020878,2.2747e-07,0,0.0020878,0.0002759,3.4427e+08,54005,0,5.9769e+08,29443,13095,12138,1,12138,1,0.00030877,-5.2655e-09,0,0.00092218,-5.6693e-05,9.4111e+07,-1340.1,0,2.6849e+08,6448,12137,11203,1,11203,1,-0.0014695,-2.8641e-07,0,2.0307e-05,-0.00038841,-5.9769e+08,-51165,0,8.9818e+06,-206.17,11202,11683,1,11683,1,-0.00061321,-4.0184e-08,0,0.00046088,-0.00022852,-2.4938e+08,-9983.8,0,1.5772e+08,2096.6,11682,12593,1,12593,1,0.0012309,2.9437e-08,0,0.0013829,0.00011552,2.6849e+08,7497.6,0,3.2899e+08,10625,12592,527.79,0,527.79,0,0.0010644,7.3569e-08,0,0.00057473,0.00019868,2.9713e+08,17005,0,1.442e+08,6291.8,527.79,1
1820,6.13,12139,1,12139,1,0.00031151,-8.8829e-09,0,0.00095021,-5.6963e-05,608.79,-1667.9,0,2.5981e+08,8244.7,12138,13096,1,13096,1,0.0020951,2.5846e-07,0,0.0020951,0.00027631,3.4354e+08,58733,0,5.9857e+08,32178,13095,12138,1,12138,1,0.00031131,-7.9696e-09,0,0.00092462,-5.7156e-05,9.4717e+07,-2054.9,0,2.6853e+08,7241.2,12137,11203,1,11203,1,-0.0014717,-3.1915e-07,0,1.8615e-05,-0.00038976,-5.9857e+08,-56867,0,8.3633e+06,-287.37,11202,11683,1,11683,1,-0.0006131,-4.7103e-08,0,0.00046209,-0.00022944,-2.4933e+08,-11727,0,1.5788e+08,2336.2,11682,12593,1,12593,1,0.0012359,3.1779e-08,0,0.0013865,0.00011551,2.6853e+08,8119.3,0,3.2875e+08,11884,12592,527.79,0,527.79,0,0.0010672,8.2812e-08,0,0.00057678,0.0001992,2.9726e+08,18938,0,1.4432e+08,6898.9,527.79,1
1820,6.14,12139,1,12139,1,0.00031412,-6.2358e-09,0,0.00095304,-5.7438e-05,-731.08,-1104.8,0,2.599e+08,9163,12138,13096,1,13096,1,0.0021026,2.9299e-07,0,0.0021026,0.00027673,3.4282e+08,64888,0,5.9949e+08,35245,13095,12138,1,12138,1,0.0003139,-5.9734e-09,0,0.00092714,-5.7625e-05,9.5333e+07,-1548.7,0,2.6858e+08,8137.4,12137,11203,1,11203,1,-0.0014739,-3.492e-07,0,1.69e-05,-0.00039114,-5.9949e+08,-61853,0,7.7385e+06,-132.84,11202,11683,1,11683,1,-0.00061301,-4.8658e-08,0,0.00046333,-0.00023037,-2.4929e+08,-12200,0,1.5804e+08,2630.5,11682,12593,1,12593,1,0.001241,3.9e-08,0,0.0013903,0.0001155,2.6858e+08,9779.9,0,3.2853e+08,13259,12592,527.79,0,527.79,0,0.0010701,9.221e-08,0,0.00057889,0.00019973,2.9741e+08,20955,0,1.4444e+08,7542.7,527.79,1
1820,6.15,12139,1,12139,1,0.00031678,-7.0067e-09,0,0.00095588,-5.7923e-05,318.6,-1360.7,0,2.5998e+08,10107,12138,13096,1,13096,1,0.0021101,3.2646e-07,0,0.0021101,0.00027715,3.4206e+08,70853,0,6.0038e+08,38712,13095,12138,1,12138,1,0.00031654,-7.1214e-09,0,0.00092966,-5.8105e-05,9.596e+07,-1817.2,0,2.6861e+08,9039.4,12137,11203,1,11203,1,-0.0014761,-3.8911e-07,0,1.5126e-05,-0.00039253,-6.0038e+08,-68781,0,7.094e+06,-202.57,11202,11683,1,11683,1,-0.00061287,-5.4668e-08,0,0.00046457,-0.00023131,-2.4923e+08,-13847,0,1.582e+08,2890.8,11682,12593,1,12593,1,0.0012461,4.3753e-08,0,0.001394,0.00011548,2.6861e+08,10762,0,3.2827e+08,14603,12592,527.79,0,527.79,0,0.001073,1.0301e-07,0,0.00058102,0.00020027,2.9753e+08,23252,0,1.4456e+08,8286.3,527.79,1
1820,6.16,12139,1,12139,1,0.00031949,3.5615e-10,0,0.0009588,-5.8418e-05,156.43,410.41,0,2.6007e+08,11080,12138,13096,1,13096,1,0.0021179,3.6783e-07,0,0.0021179,0.00027758,3.4129e+08,78984,0,6.0131e+08,42471,13095,12138,1,12138,1,0.00031923,2.039e-09,0,0.00093226,-5.8593e-05,9.6595e+07,512.44,0,2.6865e+08,9906.5,12137,11203,1,11203,1,-0.0014784,-4.2019e-07,0,1.3324e-05,-0.00039396,-6.0131e+08,-73489,0,6.4416e+06,-21.258,11202,11683,1,11683,1,-0.00061274,-5.2281e-08,0,0.00046582,-0.00023228,-2.4918e+08,-13069,0,1.5836e+08,3211.5,11682,12593,1,12593,1,0.0012514,5.5944e-08,0,0.0013978,0.00011547,2.6865e+08,13933,0,3.2801e+08,16042,12592,527.79,0,527.79,0,0.001076,1.135e-07,0,0.00058321,0.00020082,2.9768e+08,25616,0,1.4469e+08,9081.2,527.79,1
1820,6.17,12139,1,12139,1,0.00032228,2.3038e-09,0,0.00096178,-5.8925e-05,254.45,1016.4,0,2.6016e+08,12177,12138,13096,1,13096,1,0.0021259,4.0576e-07,0,0.0021259,0.00027802,3.405e+08,87770,0,6.0225e+08,46279,13095,12138,1,12138,1,0.00032198,5.9237e-09,0,0.00093488,-5.909e-05,9.7241e+07,1484.4,0,2.6869e+08,11121,12137,11203,1,11203,1,-0.0014807,-4.6711e-07,0,1.1465e-05,-0.00039543,-6.0225e+08,-81129,0,5.7708e+06,-155.12,11202,11683,1,11683,1,-0.00061259,-5.6386e-08,0,0.00046709,-0.00023326,-2.4912e+08,-14048,0,1.5852e+08,3581.1,11682,12593,1,12593,1,0.0012567,6.4514e-08,0,0.0014017,0.00011545,2.6869e+08,16232,0,3.2774e+08,17663,12592,527.79,0,527.79,0,0.0010791,1.2635e-07,0,0.00058545,0.00020138,2.9781e+08,28481,0,1.4482e+08,9878.2,527.79,1
1820,6.18,12139,1,12139,1,0.00032512,6.8944e-10,0,0.0009648,-5.9442e-05,-167.21,833.75,0,2.6023e+08,13588,12138,13096,1,13096,1,0.002134,4.5331e-07,0,0.002134,0.00027846,3.3971e+08,97883,0,6.0319e+08,49793,13095,12138,1,12138,1,0.00032479,5.2503e-09,0,0.00093757,-5.9598e-05,9.7898e+07,1314.2,0,2.6871e+08,12462,12137,11203,1,11203,1,-0.0014831,-5.2201e-07,0,9.5555e-06,-0.00039691,-6.0319e+08,-90200,0,5.0837e+06,18.438,11202,11683,1,11683,1,-0.00061242,-6.4847e-08,0,0.00046838,-0.00023426,-2.4905e+08,-16072,0,1.5868e+08,3986.9,11682,12593,1,12593,1,0.0012622,7.1492e-08,0,0.0014056,0.00011542,2.6871e+08,17838,0,3.2747e+08,19776,12592,527.79,0,527.79,0,0.0010821,1.4181e-07,0,0.00058773,0.00020195,2.9794e+08,31839,0,1.4495e+08,10902,527.79,1
1820,6.19,12139,1,12139,1,0.00032804,-7.391e-09,0,0.00096789,-5.9971e-05,-94.893,-975.7,0,2.6031e+08,15130,12138,13096,1,13096,1,0.0021423,4.9625e-07,0,0.0021423,0.00027891,3.3891e+08,1.0833e+05,0,6.0416e+08,53919,13095,12138,1,12138,1,0.00032766,-5.6142e-09,0,0.00094033,-6.0118e-05,9.857e+07,-1432.4,0,2.6873e+08,13972,12137,11203,1,11203,1,-0.0014854,-5.8794e-07,0,7.5977e-06,-0.00039844,-6.0416e+08,-1.0133e+05,0,4.3801e+06,-54.284,11202,11683,1,11683,1,-0.00061225,-8.1775e-08,0,0.00046972,-0.00023528,-2.4898e+08,-20251,0,1.5884e+08,4554.6,11682,12593,1,12593,1,0.0012678,7.3034e-08,0,0.0014097,0.0001154,2.6873e+08,17954,0,3.272e+08,22222,12592,527.79,0,527.79,0,0.0010853,1.5843e-07,0,0.00059008,0.00020253,2.9807e+08,35597,0,1.4508e+08,11989,527.79,1
1820,6.2,12139,1,12139,1,0.00033103,-6.2046e-09,0,0.00097104,-6.0512e-05,-59.458,-692.08,0,2.6038e+08,16810,12138,13096,1,13096,1,0.0021507,5.5952e-07,0,0.0021507,0.00027936,3.3806e+08,1.1976e+05,0,6.0513e+08,59144,13095,12138,1,12138,1,0.00033061,-4.7108e-09,0,0.00094312,-6.0649e-05,9.9256e+07,-1244.8,0,2.6874e+08,15646,12137,11203,1,11203,1,-0.0014878,-6.5528e-07,0,5.5829e-06,-0.0004,-6.0513e+08,-1.1241e+05,0,3.657e+06,61.861,11202,11683,1,11683,1,-0.00061205,-9.035e-08,0,0.00047106,-0.00023632,-2.489e+08,-22497,0,1.59e+08,5050.2,11682,12593,1,12593,1,0.0012735,8.4454e-08,0,0.0014137,0.00011538,2.6874e+08,20742,0,3.269e+08,24706,12592,527.79,0,527.79,0,0.0010885,1.7817e-07,0,0.00059248,0.00020313,2.982e+08,39760,0,1.4522e+08,13190,527.79,1
1820,6.21,12139,1,12139,1,0.00033409,-4.6261e-09,0,0.00097427,-6.1068e-05,-142.08,-256.2,0,2.6045e+08,18639,12138,13096,1,13096,1,0.0021594,6.2505e-07,0,0.0021594,0.00027982,3.372e+08,1.3308e+05,0,6.0613e+08,64673,13095,12138,1,12138,1,0.00033363,-1.619e-09,0,0.00094598,-6.1192e-05,9.9955e+07,-438.94,0,2.6875e+08,17493,12137,11203,1,11203,1,-0.0014903,-7.2881e-07,0,3.5117e-06,-0.0004016,-6.0613e+08,-1.243e+05,0,2.9147e+06,71.876,11202,11683,1,11683,1,-0.00061184,-9.8617e-08,0,0.00047243,-0.00023739,-2.4881e+08,-24654,0,1.5916e+08,5599.3,11682,12593,1,12593,1,0.0012794,9.7152e-08,0,0.0014179,0.00011535,2.6875e+08,24022,0,3.266e+08,27566,12592,527.79,0,527.79,0,0.0010918,1.9936e-07,0,0.00059495,0.00020373,2.9833e+08,44365,0,1.4536e+08,14511,527.79,1
1820,6.22,12139,1,12139,1,0.00033725,-1.1993e-10,0,0.00097758,-6.1639e-05,123.84,970.58,0,2.6052e+08,20733,12138,13096,1,13096,1,0.0021684,7.0699e-07,0,0.0021684,0.00028029,3.3631e+08,1.4837e+05,0,6.0715e+08,70386,13095,12138,1,12138,1,0.00033673,5.066e-09,0,0.00094891,-6.1749e-05,1.0067e+08,1270.1,0,2.6876e+08,19551,12137,11203,1,11203,1,-0.0014928,-8.1061e-07,0,1.3713e-06,-0.00040325,-6.0715e+08,-1.3739e+05,0,2.1486e+06,114.58,11202,11683,1,11683,1,-0.00061161,-1.0622e-07,0,0.00047382,-0.00023849,-2.4872e+08,-26379,0,1.5932e+08,6286.5,11682,12593,1,12593,1,0.0012854,1.1379e-07,0,0.0014222,0.00011532,2.6876e+08,28301,0,3.2627e+08,30658,12592,527.79,0,527.79,0,0.0010952,2.2455e-07,0,0.00059749,0.00020436,2.9846e+08,49604,0,1.455e+08,15990,527.79,1
1820,6.23,12139,1,12139,1,0.0003405,-9.6098e-09,0,0.00098099,-6.2226e-05,-147.4,-1096.7,0,2.6059e+08,23057,12138,13096,1,13096,1,0.0021775,7.8039e-07,0,0.0021775,0.00028077,3.3541e+08,1.6331e+05,0,6.0818e+08,76800,13095,12138,1,12138,1,0.00033991,-6.8019e-09,0,0.00095124,-6.2321e-05,1.014e+08,-1745.5,0,2.6875e+08,21801,12137,11203,1,11203,1,-0.0014953,-9.1622e-07,0,1.545e-07,-0.00040493,-6.0818e+08,-1.5494e+05,0,1.3586e+06,108.08,11202,11683,1,11683,1,-0.00061136,-1.2932e-07,0,0.00047584,-0.00023961,-2.4862e+08,-31956,0,1.5948e+08,6976,11682,12593,1,12593,1,0.0012915,1.1961e-07,0,0.0014275,0.00011528,2.6875e+08,29693,0,3.2595e+08,34255,12592,527.79,0,527.79,0,0.0010986,2.5171e-07,0,0.00060004,0.00020499,2.9859e+08,55427,0,1.4565e+08,17663,527.79,1
1820,6.24,12139,1,12139,1,0.00034385,-1.0686e-08,0,0.00098467,-6.2833e-05,535.75,-1312.3,0,2.6066e+08,25607,12138,13096,1,13096,1,0.0021871,8.7807e-07,0,0.0021871,0.00028128,3.3449e+08,1.82e+05,0,6.0926e+08,83602,13095,12138,1,12138,1,0.00034321,-9.1634e-09,0,0.00095376,-6.2911e-05,1.0216e+08,-2285.1,0,2.6876e+08,24383,12137,11203,1,11203,1,-0.001498,-1.0175e-06,0,1.7133e-06,-0.00040669,-6.0926e+08,-1.7099e+05,0,5.4398e+05,107.74,11202,11683,1,11683,1,-0.00061112,-1.4596e-07,0,0.00047764,-0.00024077,-2.4851e+08,-36104,0,1.5965e+08,7696.3,11682,12593,1,12593,1,0.0012979,1.3369e-07,0,0.0014322,0.00011525,2.6876e+08,33146,0,3.2562e+08,38320,12592,527.79,0,527.79,0,0.0011022,2.8238e-07,0,0.00060249,0.00020565,2.9873e+08,62022,0,1.4581e+08,19466,527.79,1
1820,6.25,12139,1,12139,1,0.00034732,1.8277e-09,0,0.00098842,-6.3458e-05,-53.611,1776.6,0,2.6072e+08,28605,12138,13096,1,13096,1,0.0021969,9.9505e-07,0,0.0021969,0.00028178,3.3349e+08,2.0368e+05,0,6.1034e+08,91669,13095,12138,1,12138,1,0.0003466,1.08e-08,0,0.00095676,-6.3515e-05,1.0293e+08,2770.4,0,2.6874e+08,27138,12137,11203,1,11203,1,-0.0015006,-1.1286e-06,0,3.9182e-06,-0.00040849,-6.1034e+08,-1.8815e+05,0,50057,195.66,11202,11683,1,11683,1,-0.0006108,-1.5167e-07,0,0.00047925,-0.00024196,-2.4838e+08,-37183,0,1.5982e+08,8660.6,11682,12593,1,12593,1,0.0013044,1.6402e-07,0,0.0014369,0.00011521,2.6874e+08,40634,0,3.2524e+08,42834,12592,527.79,0,527.79,0,0.0011058,3.174e-07,0,0.00060501,0.00020633,2.9886e+08,69408,0,1.4595e+08,21511,527.79,1
1820,6.26,12139,1,12139,1,0.00035092,-5.2995e-09,0,0.00099233,-6.4104e-05,-344.77,486.78,0,2.6085e+08,31875,12138,13096,1,13096,1,0.0022071,1.1102e-06,0,0.0022071,0.00028231,3.3252e+08,2.2751e+05,0,6.1149e+08,99776,13095,12138,1,12138,1,0.00035009,3.6198e-09,0,0.00095988,-6.4139e-05,1.0372e+08,879.93,0,2.6873e+08,30456,12137,11203,1,11203,1,-0.0015035,-1.272e-06,0,6.1567e-06,-0.00041037,-6.1149e+08,-2.1095e+05,0,5.5214e+05,270.34,11202,11683,1,11683,1,-0.00061053,-1.784e-07,0,0.00048093,-0.00024319,-2.4827e+08,-43628,0,1.5999e+08,9662.1,11682,12593,1,12593,1,0.0013112,1.81e-07,0,0.0014419,0.00011517,2.6873e+08,44709,0,3.2487e+08,47996,12592,527.79,0,527.79,0,0.0011096,3.5769e-07,0,0.00060764,0.00020703,2.99e+08,77985,0,1.4602e+08,23792,527.79,1
1820,6.27,12139,1,12139,1,0.00035465,-5.7805e-09,0,0.00099634,-6.4775e-05,-53.002,687.05,0,2.6096e+08,35684,12138,13096,1,13096,1,0.0022176,1.2512e-06,0,0.0022176,0.00028285,3.3149e+08,2.5443e+05,0,6.1264e+08,1.0889e+05,13095,12138,1,12138,1,0.00035372,4.5629e-09,0,0.00096305,-6.4783e-05,1.0454e+08,1130.6,0,2.687e+08,34246,12137,11203,1,11203,1,-0.0015063,-1.4312e-06,0,8.4954e-06,-0.00041231,-6.1264e+08,-2.3601e+05,0,1.3801e+06,254.86,11202,11683,1,11683,1,-0.00061018,-2.0283e-07,0,0.00048265,-0.00024445,-2.4813e+08,-49223,0,1.6015e+08,10814,11682,12593,1,12593,1,0.0013182,2.0722e-07,0,0.0014469,0.00011513,2.687e+08,50646,0,3.2384e+08,54257,12592,527.79,0,527.79,0,0.0011135,4.0492e-07,0,0.00061036,0.00020775,2.9913e+08,87780,0,1.4608e+08,26387,527.79,1
1820,6.28,12139,1,12139,1,0.00035853,-7.837e-09,0,0.0010005,-6.547e-05,468.99,578.89,0,2.6108e+08,39893,12138,13096,1,13096,1,0.0022286,1.4082e-06,0,0.0022286,0.00028341,3.3044e+08,2.8463e+05,0,6.1384e+08,1.1911e+05,13095,12138,1,12138,1,0.00035747,4.6447e-09,0,0.00096633,-6.5448e-05,1.0538e+08,1166,0,2.6867e+08,38532,12137,11203,1,11203,1,-0.0015092,-1.6133e-06,0,1.0901e-05,-0.00041433,-6.1384e+08,-2.6443e+05,0,2.2324e+06,208.33,11202,11683,1,11683,1,-0.00060983,-2.3138e-07,0,0.00048445,-0.00024576,-2.4799e+08,-56024,0,1.6032e+08,12124,11682,12593,1,12593,1,0.0013254,2.3582e-07,0,0.0014521,0.00011508,2.6867e+08,56765,0,3.228e+08,61017,12592,527.79,0,527.79,0,0.0011176,4.5782e-07,0,0.00061319,0.0002085,2.9926e+08,98898,0,1.4614e+08,29272,527.79,1
1820,6.29,12139,1,12139,1,0.00036257,-1.3184e-08,0,0.0010048,-6.6193e-05,-326.49,-221.59,0,2.612e+08,44790,12138,13096,1,13096,1,0.0022401,1.5873e-06,0,0.0022401,0.00028398,3.2936e+08,3.191e+05,0,6.1508e+08,1.2999e+05,13095,12138,1,12138,1,0.00036137,-1.6326e-09,0,0.00096972,-6.6137e-05,1.0626e+08,-409.79,0,2.6863e+08,43695,12137,11203,1,11203,1,-0.0015123,-1.8239e-06,0,1.3387e-05,-0.00041645,-6.1508e+08,-2.9736e+05,0,3.1112e+06,412.74,11202,11683,1,11683,1,-0.00060947,-2.6625e-07,0,0.00048632,-0.00024713,-2.4784e+08,-64831,0,1.605e+08,13710,11682,12593,1,12593,1,0.0013329,2.6165e-07,0,0.0014576,0.00011503,2.6863e+08,63701,0,3.2171e+08,69078,12592,527.79,0,527.79,0,0.0011218,5.1971e-07,0,0.00061615,0.00020928,2.994e+08,1.1163e+05,0,1.4622e+08,32571,527.79,1
1820,6.3,12139,1,12139,1,0.0003668,-1.0098e-08,0,0.0010094,-6.6947e-05,-1052.5,897.43,0,2.6132e+08,50291,12138,13096,1,13096,1,0.0022521,1.7994e-06,0,0.0022521,0.00028459,3.2821e+08,3.5958e+05,0,6.1638e+08,1.4249e+05,13095,12138,1,12138,1,0.00036543,6.4636e-09,0,0.00097322,-6.6853e-05,1.0716e+08,1648.6,0,2.6858e+08,49626,12137,11203,1,11203,1,-0.0015155,-2.0503e-06,0,1.5979e-05,-0.00041866,-6.1638e+08,-3.3171e+05,0,4.0243e+06,503.19,11202,11683,1,11683,1,-0.00060906,-3.0033e-07,0,0.00048828,-0.00024854,-2.4767e+08,-72694,0,1.6068e+08,15480,11682,12593,1,12593,1,0.0013407,3.0619e-07,0,0.0014633,0.00011498,2.6858e+08,73481,0,3.2057e+08,78289,12592,527.79,0,527.79,0,0.0011262,5.8901e-07,0,0.00061925,0.00021009,2.9954e+08,1.2623e+05,0,1.4629e+08,36300,527.79,1
1820,6.31,12139,1,12139,1,0.00037123,-1.7861e-08,0,0.0010141,-6.7737e-05,-666.7,-348.09,0,2.6143e+08,56684,12138,13096,1,13096,1,0.0022648,2.0416e-06,0,0.0022648,0.00028521,3.2705e+08,4.0408e+05,0,6.1772e+08,1.5552e+05,13095,12138,1,12138,1,0.00036968,-2.2312e-09,0,0.00097684,-6.7599e-05,1.081e+08,-531.37,0,2.6852e+08,56087,12137,11203,1,11203,1,-0.0015188,-2.3316e-06,0,1.8662e-05,-0.00042099,-6.1772e+08,-3.7509e+05,0,4.9653e+06,604.3,11202,11683,1,11683,1,-0.00060863,-3.5013e-07,0,0.00049033,-0.00025002,-2.4749e+08,-84282,0,1.6085e+08,17606,11682,12593,1,12593,1,0.0013488,3.4109e-07,0,0.0014693,0.00011492,2.6852e+08,82836,0,3.1939e+08,89105,12592,527.79,0,527.79,0,0.0011307,6.7311e-07,0,0.0006225,0.00021093,2.9968e+08,1.433e+05,0,1.4637e+08,40574,527.79,1
1820,6.32,12139,1,12139,1,0.00037587,-1.7135e-08,0,0.001019,-6.8563e-05,-388.54,317.44,0,2.6154e+08,63975,12138,13096,1,13096,1,0.002278,2.3314e-06,0,0.002278,0.00028586,3.2581e+08,4.5616e+05,0,6.1912e+08,1.7056e+05,13095,12138,1,12138,1,0.00037411,1.3998e-09,0,0.00098057,-6.8374e-05,1.0908e+08,444.29,0,2.6845e+08,63725,12137,11203,1,11203,1,-0.0015222,-2.6401e-06,0,2.1464e-05,-0.00042343,-6.1912e+08,-4.2163e+05,0,5.9435e+06,472.78,11202,11683,1,11683,1,-0.00060814,-3.9994e-07,0,0.00049248,-0.00025155,-2.4729e+08,-96169,0,1.6103e+08,19915,11682,12593,1,12593,1,0.0013573,3.9659e-07,0,0.0014754,0.00011486,2.6845e+08,95676,0,3.1813e+08,1.0178e+05,12592,527.79,0,527.79,0,0.0011355,7.6856e-07,0,0.00062591,0.00021181,2.9982e+08,1.6288e+05,0,1.4646e+08,45489,527.79,1
1820,6.33,12139,1,12139,1,0.00038078,-2.3907e-08,0,0.0010242,-6.9433e-05,161.46,-629.79,0,2.6167e+08,72447,12138,13096,1,13096,1,0.0022922,2.6586e-06,0,0.0022922,0.00028656,3.2457e+08,5.1442e+05,0,6.2062e+08,1.8716e+05,13095,12138,1,12138,1,0.00037878,-5.7352e-09,0,0.0009845,-6.9185e-05,1.1011e+08,-1485.6,0,2.6838e+08,73069,12137,11203,1,11203,1,-0.0015259,-3.0128e-06,0,2.4363e-05,-0.00042603,-6.2062e+08,-4.7811e+05,0,6.9492e+06,672.73,11202,11683,1,11683,1,-0.00060766,-4.6712e-07,0,0.00049476,-0.00025317,-2.4709e+08,-1.1093e+05,0,1.6107e+08,22745,11682,12593,1,12593,1,0.0013663,4.546e-07,0,0.001482,0.0001148,2.6838e+08,1.0923e+05,0,3.1685e+08,1.17e+05,12592,527.79,0,527.79,0,0.0011406,8.8252e-07,0,0.00062954,0.00021275,2.9998e+08,1.8577e+05,0,1.4656e+08,51086,527.79,1
1820,6.34,12139,1,12139,1,0.00038598,-2.8838e-08,0,0.0010297,-7.0353e-05,498.87,-1212.2,0,2.6178e+08,82224,12138,13096,1,13096,1,0.0023071,3.0535e-06,0,0.0023071,0.00028728,3.2323e+08,5.8209e+05,0,6.2216e+08,2.0491e+05,13095,12138,1,12138,1,0.0003837,-9.6915e-09,0,0.00098854,-7.0037e-05,1.1118e+08,-2486.5,0,2.6828e+08,83076,12137,11203,1,11203,1,-0.0015297,-3.4341e-06,0,2.7426e-05,-0.00042878,-6.2216e+08,-5.4101e+05,0,8.0038e+06,556.89,11202,11683,1,11683,1,-0.00060709,-5.4231e-07,0,0.00049716,-0.00025486,-2.4686e+08,-1.2856e+05,0,1.6109e+08,26033,11682,12593,1,12593,1,0.0013757,5.2619e-07,0,0.0014889,0.00011473,2.6828e+08,1.2582e+05,0,3.1545e+08,1.3363e+05,12592,527.79,0,527.79,0,0.0011458,1.0145e-06,0,0.00063337,0.00021372,3.0013e+08,2.1235e+05,0,1.4666e+08,57582,527.79,1
1820,6.35,12139,1,12139,1,0.00039148,-2.6707e-08,0,0.0010355,-7.1325e-05,-61.673,3.1372,0,2.6189e+08,93332,12138,13096,1,13096,1,0.0023231,3.5097e-06,0,0.0023231,0.00028805,3.2183e+08,6.63e+05,0,6.2381e+08,2.2464e+05,13095,12138,1,12138,1,0.00038887,-1.7003e-09,0,0.00099276,-7.0929e-05,1.123e+08,-445.75,0,2.6817e+08,93947,12137,11203,1,11203,1,-0.0015338,-3.9139e-06,0,3.061e-05,-0.00043172,-6.2381e+08,-6.1143e+05,0,9.0898e+06,1019.2,11202,11683,1,11683,1,-0.00060649,-6.2122e-07,0,0.00049973,-0.00025664,-2.4661e+08,-1.4847e+05,0,1.6124e+08,29847,11682,12593,1,12593,1,0.0013856,6.1546e-07,0,0.0014962,0.00011466,2.6817e+08,1.4614e+05,0,3.14e+08,1.5314e+05,12592,527.79,0,527.79,0,0.0011514,1.1684e-06,0,0.00063744,0.00021476,3.0028e+08,2.4321e+05,0,1.4678e+08,64941,527.79,1
1820,6.36,12139,1,12139,1,0.00039732,-3.66e-08,0,0.0010416,-7.2351e-05,-840.08,-1332.1,0,2.6199e+08,1.0677e+05,12138,13096,1,13096,1,0.0023401,4.0494e-06,0,0.0023401,0.00028884,3.2039e+08,7.5055e+05,0,6.2551e+08,2.4666e+05,13095,12138,1,12138,1,0.00039434,-1.4581e-08,0,0.00099712,-7.1863e-05,1.1348e+08,-3035.2,0,2.6803e+08,1.0712e+05,12137,11203,1,11203,1,-0.001538,-4.5151e-06,0,3.3926e-05,-0.00043485,-6.2551e+08,-7.0081e+05,0,1.021e+07,737.51,11202,11683,1,11683,1,-0.00060582,-7.2644e-07,0,0.00050243,-0.00025852,-2.4633e+08,-1.7365e+05,0,1.6139e+08,34785,11682,12593,1,12593,1,0.001396,7.0699e-07,0,0.0015039,0.00011458,2.6803e+08,1.6911e+05,0,3.1245e+08,1.7731e+05,12592,527.79,0,527.79,0,0.0011573,1.3567e-06,0,0.00064177,0.00021584,3.0043e+08,2.7973e+05,0,1.469e+08,73714,527.79,1
1820,6.37,12139,1,12139,1,0.00040356,-3.3343e-08,0,0.0010481,-7.3447e-05,-619.9,266.1,0,2.6211e+08,1.2183e+05,12138,13096,1,13096,1,0.0023585,4.6855e-06,0,0.0023585,0.00028971,3.1887e+08,8.5911e+05,0,6.2738e+08,2.7037e+05,13095,12138,1,12138,1,0.00040013,-7.421e-10,0,0.0010017,-7.2849e-05,1.1472e+08,-212.14,0,2.679e+08,1.2223e+05,12137,11203,1,11203,1,-0.0015426,-5.1679e-06,0,3.7405e-05,-0.00043823,-6.2738e+08,-7.9476e+05,0,1.137e+07,1619.5,11202,11683,1,11683,1,-0.00060511,-8.3754e-07,0,0.00050536,-0.0002605,-2.4604e+08,-2.0096e+05,0,1.6153e+08,40017,11682,12593,1,12593,1,0.0014071,8.3051e-07,0,0.0015121,0.00011449,2.679e+08,1.9826e+05,0,3.1083e+08,2.0259e+05,12592,527.79,0,527.79,0,0.0011636,1.5715e-06,0,0.00064642,0.00021701,3.006e+08,3.2224e+05,0,1.4705e+08,83788,527.79,1
1820,6.38,12139,1,12139,1,0.00041027,-4.0852e-08,0,0.0010551,-7.4622e-05,-1248.7,-52.302,0,2.6222e+08,1.3954e+05,12138,13096,1,13096,1,0.0023785,5.4282e-06,0,0.0023785,0.00029064,3.1729e+08,9.8627e+05,0,6.2938e+08,2.9514e+05,13095,12138,1,12138,1,0.0004063,-7.229e-09,0,0.0010065,-7.3894e-05,1.1604e+08,-1799.3,0,2.6773e+08,1.4064e+05,12137,11203,1,11203,1,-0.0015475,-5.9606e-06,0,4.1042e-05,-0.0004419,-6.2938e+08,-9.0849e+05,0,1.2566e+07,1801,11202,11683,1,11683,1,-0.00060434,-9.8611e-07,0,0.00050852,-0.00026262,-2.4573e+08,-2.3614e+05,0,1.6168e+08,46316,11682,12593,1,12593,1,0.0014189,9.6922e-07,0,0.001521,0.00011441,2.6773e+08,2.3196e+05,0,3.091e+08,2.333e+05,12592,527.79,0,527.79,0,0.0011704,1.8309e-06,0,0.00065145,0.00021825,3.0077e+08,3.7307e+05,0,1.4721e+08,95606,527.79,1
1820,6.39,12139,1,12139,1,0.00041752,-4.4099e-08,0,0.0010626,-7.5884e-05,-144.8,772.96,0,2.6232e+08,1.6054e+05,12138,13096,1,13096,1,0.0024002,6.3167e-06,0,0.0024002,0.00029164,3.1561e+08,1.1339e+06,0,6.3151e+08,3.2335e+05,13095,12138,1,12138,1,0.0004129,6.4585e-10,0,0.0010114,-7.5001e-05,1.1743e+08,117.8,0,2.6754e+08,1.6175e+05,12137,11203,1,11203,1,-0.0015527,-6.9088e-06,0,4.4869e-05,-0.0004459,-6.3151e+08,-1.0436e+06,0,1.3807e+07,2285.9,11202,11683,1,11683,1,-0.00060346,-1.1553e-06,0,0.00051194,-0.00026486,-2.4536e+08,-2.7498e+05,0,1.6181e+08,52778,11682,12593,1,12593,1,0.0014315,1.1422e-06,0,0.0015305,0.0001143,2.6754e+08,2.7234e+05,0,3.0723e+08,2.7063e+05,12592,527.79,0,527.79,0,0.0011776,2.1456e-06,0,0.00065688,0.00021959,3.0094e+08,4.3374e+05,0,1.4738e+08,1.0971e+05,527.79,1
1820,6.4,12139,1,12139,1,0.00042535,-5.2366e-08,0,0.0010706,-7.7242e-05,-518.3,850.55,0,2.6241e+08,1.8538e+05,12138,13096,1,13096,1,0.0024239,7.3931e-06,0,0.0024239,0.00029271,3.1386e+08,1.3073e+06,0,6.3382e+08,3.6526e+05,13095,12138,1,12138,1,0.00041995,-1.6011e-10,0,0.0010166,-7.6176e-05,1.1892e+08,-89.019,0,2.6731e+08,1.8849e+05,12137,11203,1,11203,1,-0.0015584,-8.038e-06,0,4.8865e-05,-0.00045027,-6.3382e+08,-1.2029e+06,0,1.5083e+07,2527.2,11202,11683,1,11683,1,-0.0006025,-1.3542e-06,0,0.00051566,-0.00026725,-2.4497e+08,-3.2525e+05,0,1.6193e+08,59097,11682,12593,1,12593,1,0.0014449,1.3517e-06,0,0.0015407,0.0001142,2.6731e+08,3.2315e+05,0,3.0523e+08,3.0763e+05,12592,527.79,0,527.79,0,0.0011854,2.5275e-06,0,0.00066277,0.00022102,3.0112e+08,5.0658e+05,0,1.4757e+08,1.2657e+05,527.79,1
1820,6.41,12139,1,12139,1,0.00043385,-6.2392e-08,0,0.0010794,-7.871e-05,503.27,974.69,0,2.6249e+08,2.1472e+05,12138,13096,1,13096,1,0.0024501,8.6774e-06,0,0.0024501,0.00029387,3.1203e+08,1.5108e+06,0,6.3631e+08,4.3034e+05,13095,12138,1,12138,1,0.00042753,-2.3544e-09,0,0.001022,-7.7428e-05,1.205e+08,-633.31,0,2.6704e+08,2.1922e+05,12137,11203,1,11203,1,-0.0015645,-9.3865e-06,0,5.3048e-05,-0.00045509,-6.3631e+08,-1.3914e+06,0,1.6399e+07,2917,11202,11683,1,11683,1,-0.00060143,-1.6085e-06,0,0.00051973,-0.00026982,-2.4452e+08,-3.846e+05,0,1.6204e+08,65838,11682,12593,1,12593,1,0.0014594,1.6217e-06,0,0.0015544,0.00011405,2.6704e+08,3.8575e+05,0,3.0308e+08,3.5528e+05,12592,527.79,0,527.79,0,0.0011938,2.9918e-06,0,0.0006692,0.00022257,3.013e+08,5.9401e+05,0,1.4779e+08,1.468e+05,527.79,1
1820,6.42,12139,1,12139,1,0.00044314,-7.4149e-08,0,0.0010889,-8.0306e-05,-306.48,1186,0,2.6257e+08,2.4935e+05,12138,13096,1,13096,1,0.0024793,1.0224e-05,0,0.0024793,0.00029516,3.1011e+08,1.7532e+06,0,6.3907e+08,5.1769e+05,13095,12138,1,12138,1,0.00043571,-5.4489e-09,0,0.0010291,-7.8769e-05,1.2219e+08,-1390.8,0,2.6673e+08,2.5769e+05,12137,11203,1,11203,1,-0.0015713,-1.0983e-05,0,5.7424e-05,-0.00046046,-6.3907e+08,-1.6219e+06,0,1.7755e+07,3050.4,11202,11683,1,11683,1,-0.00060026,-1.9267e-06,0,0.00052368,-0.00027257,-2.4404e+08,-4.5861e+05,0,1.6213e+08,76439,11682,12593,1,12593,1,0.0014749,1.9526e-06,0,0.0015655,0.00011388,2.6673e+08,4.5826e+05,0,3.0077e+08,4.1529e+05,12592,527.79,0,527.79,0,0.001203,3.5579e-06,0,0.00067627,0.00022426,3.0149e+08,6.9968e+05,0,1.4805e+08,1.7132e+05,527.79,1
1820,6.43,12139,1,12139,1,0.00045334,-8.944e-08,0,0.0010992,-8.205e-05,340.38,1267.5,0,2.6262e+08,2.9053e+05,12138,13096,1,13096,1,0.002512,1.209e-05,0,0.002512,0.00029657,3.0809e+08,2.0386e+06,0,6.4209e+08,6.2749e+05,13095,12138,1,12138,1,0.00044457,-8.6405e-09,0,0.0010425,-8.0212e-05,1.24e+08,-2097,0,2.6637e+08,2.9545e+05,12137,11203,1,11203,1,-0.0015787,-1.2899e-05,0,6.2008e-05,-0.00046647,-6.4209e+08,-1.8988e+06,0,1.9156e+07,3170.3,11202,11683,1,11683,1,-0.00059892,-2.3209e-06,0,0.00052306,-0.00027555,-2.4349e+08,-5.4925e+05,0,1.622e+08,91792,11682,12593,1,12593,1,0.0014918,2.3453e-06,0,0.0015752,0.00011368,2.6637e+08,5.4996e+05,0,2.9825e+08,4.7068e+05,12592,527.79,0,527.79,0,0.0012129,4.2555e-06,0,0.00068407,0.0002261,3.0168e+08,8.2816e+05,0,1.4833e+08,2.0152e+05,527.79,1
1820,6.44,12139,1,12139,1,0.0004646,-1.1526e-07,0,0.0011106,-8.3963e-05,4.098,-270.74,0,2.6267e+08,3.3956e+05,12138,13096,1,13096,1,0.0025489,1.4368e-05,0,0.0025489,0.00029813,3.06e+08,2.3743e+06,0,6.4544e+08,7.6675e+05,13095,12138,1,12138,1,0.00045423,-2.2458e-08,0,0.0010571,-8.1772e-05,1.2597e+08,-4377.1,0,2.6593e+08,3.3159e+05,12137,11203,1,11203,1,-0.001587,-1.5207e-05,0,6.039e-05,-0.00047327,-6.4544e+08,-2.2301e+06,0,2.0595e+07,3472.7,11202,11683,1,11683,1,-0.00059745,-2.8637e-06,0,0.00052239,-0.00027878,-2.4288e+08,-6.6601e+05,0,1.6225e+08,1.0942e+05,11682,12593,1,12593,1,0.0015102,2.8241e-06,0,0.0015849,0.00011345,2.6593e+08,6.6145e+05,0,2.9551e+08,5.4985e+05,12592,527.79,0,527.79,0,0.0012239,5.1251e-06,0,0.00069274,0.00022812,3.0188e+08,9.8522e+05,0,1.4866e+08,2.3928e+05,527.79,1
1820,6.45,12139,1,12139,1,0.00047715,-1.3631e-07,0,0.0011232,-8.6085e-05,566.29,-256.15,0,2.6269e+08,3.9727e+05,12138,13096,1,13096,1,0.0025913,1.7108e-05,0,0.0025913,0.0002999,3.0378e+08,2.7719e+06,0,6.4922e+08,9.4281e+05,13095,12138,1,12138,1,0.00046485,-3.006e-08,0,0.0010731,-8.3479e-05,1.2809e+08,-6227.7,0,2.6542e+08,3.8142e+05,12137,11203,1,11203,1,-0.0015962,-1.7928e-05,0,5.1884e-05,-0.00048106,-6.4922e+08,-2.6275e+06,0,2.1104e+07,2900.7,11202,11683,1,11683,1,-0.00059575,-3.5002e-06,0,0.00052156,-0.00028231,-2.4218e+08,-8.0775e+05,0,1.6226e+08,1.2692e+05,11682,12593,1,12593,1,0.0015304,3.4338e-06,0,0.0015948,0.00011314,2.6542e+08,7.9616e+05,0,2.925e+08,6.3928e+05,12592,527.79,0,527.79,0,0.0012361,6.1991e-06,0,0.00070249,0.00023036,3.0209e+08,1.1772e+06,0,1.4905e+08,2.8691e+05,527.79,1
1820,6.46,12139,1,12139,1,0.00049124,-1.6081e-07,0,0.0011373,-8.8457e-05,1187.7,68.809,0,2.6269e+08,4.6574e+05,12138,13096,1,13096,1,0.0026405,2.0448e-05,0,0.0026405,0.00030191,3.0146e+08,3.2424e+06,0,6.5352e+08,1.1704e+06,13095,12138,1,12138,1,0.0004766,-3.8872e-08,0,0.0010875,-8.5357e-05,1.3043e+08,-7894.2,0,2.6481e+08,4.3023e+05,12137,11203,1,11203,1,-0.0016068,-2.1171e-05,0,4.2083e-05,-0.00049012,-6.5352e+08,-3.1029e+06,0,1.7304e+07,2666.5,11202,11683,1,11683,1,-0.00059383,-4.2817e-06,0,0.00052238,-0.0002862,-2.4139e+08,-9.8612e+05,0,1.6368e+08,1.4115e+05,11682,12593,1,12593,1,0.0015527,4.1919e-06,0,0.0016059,0.00011275,2.6481e+08,9.7743e+05,0,2.8841e+08,7.4121e+05,12592,527.79,0,527.79,0,0.0012497,7.5524e-06,0,0.00071356,0.00023286,3.0231e+08,1.4143e+06,0,1.495e+08,3.4877e+05,527.79,1
1820,6.47,12139,1,12139,1,0.00050724,-1.8618e-07,0,0.0011532,-9.1137e-05,-998.72,1456.3,0,2.6266e+08,5.4678e+05,12138,13096,1,13096,1,0.0026986,2.452e-05,0,0.0026986,0.00030423,2.9902e+08,3.7938e+06,0,6.5848e+08,1.4669e+06,13095,12138,1,12138,1,0.00048979,-4.4132e-08,0,0.0011025,-8.7467e-05,1.33e+08,-8199.6,0,2.6407e+08,4.635e+05,12137,11203,1,11203,1,-0.001619,-2.5003e-05,0,3.0622e-05,-0.00050082,-6.5848e+08,-3.6768e+06,0,1.3015e+07,2020.3,11202,11683,1,11683,1,-0.00059159,-5.3362e-06,0,0.00052492,-0.00029053,-2.4046e+08,-1.209e+06,0,1.6603e+08,1.534e+05,11682,12593,1,12593,1,0.0015776,5.1912e-06,0,0.0016182,0.00011235,2.6407e+08,1.1935e+06,0,2.8362e+08,8.8766e+05,12592,527.79,0,527.79,0,0.0012652,9.2676e-06,0,0.00072626,0.00023569,3.0255e+08,1.7092e+06,0,1.5003e+08,4.3098e+05,527.79,1
1820,6.48,12139,1,12139,1,0.00052561,-2.2107e-07,0,0.0011713,-9.4201e-05,-220.83,2152.7,0,2.6256e+08,6.4169e+05,12138,13096,1,13096,1,0.0027683,2.9432e-05,0,0.0027683,0.0003069,2.9645e+08,4.4323e+06,0,6.6421e+08,1.8583e+06,13095,12138,1,12138,1,0.00050475,-5.8396e-08,0,0.0011222,-8.9857e-05,1.3587e+08,-10708,0,2.6261e+08,5.0771e+05,12137,11203,1,11203,1,-0.0016331,-2.957e-05,0,1.6996e-05,-0.00051364,-6.6421e+08,-4.3531e+06,0,8.1311e+06,473.72,11202,11683,1,11683,1,-0.00058888,-6.6309e-06,0,0.00052733,-0.00029583,-2.3935e+08,-1.4881e+06,0,1.6864e+08,1.5194e+05,11682,12593,1,12593,1,0.0016166,6.5583e-06,0,0.0016323,0.00011192,2.6261e+08,1.484e+06,0,2.7845e+08,1.0543e+06,12592,527.79,0,527.79,0,0.0012827,1.1469e-05,0,0.00074101,0.0002389,3.0277e+08,2.0764e+06,0,1.5066e+08,5.4318e+05,527.79,1
1820,6.49,12139,1,12139,1,0.00054699,-2.7885e-07,0,0.0011923,-9.7753e-05,252.98,-576.65,0,2.624e+08,7.5279e+05,12138,13096,1,13096,1,0.0028539,3.5414e-05,0,0.0028539,0.0003101,2.9376e+08,5.1849e+06,0,6.7103e+08,2.3882e+06,13095,12138,1,12138,1,0.00052205,-9.5311e-08,0,0.0011377,-9.2609e-05,1.3913e+08,-21010,0,2.6043e+08,5.3706e+05,12137,11203,1,11203,1,-0.0016499,-3.5483e-05,0,5.953e-07,-0.0005294,-6.7103e+08,-5.1699e+06,0,2.338e+06,-1.2882e+05,11202,11683,1,11683,1,-0.00058568,-8.5155e-06,0,0.00052958,-0.00030448,-2.3803e+08,-1.8649e+06,0,1.7158e+08,1.3614e+05,11682,12593,1,12593,1,0.0016652,8.272e-06,0,0.0016654,0.00011141,2.6041e+08,1.8529e+06,0,2.7348e+08,1.252e+06,12592,527.79,0,527.79,0,0.0013031,1.4318e-05,0,0.00075848,0.00024264,3.0302e+08,2.5396e+06,0,1.5144e+08,6.998e+05,527.79,1
1820,6.5,12139,1,12139,1,0.00057231,-3.1991e-07,0,0.0012174,-0.0001019,-752.62,1769.3,0,2.6224e+08,8.8154e+05,12138,13096,1,13096,1,0.002962,4.3425e-05,0,0.002962,0.00031398,2.9082e+08,6.1643e+06,0,6.793e+08,3.0927e+06,13095,12138,1,12138,1,0.00054246,-1.1093e-07,0,0.0011494,-9.5681e-05,1.4287e+08,-24605,0,2.5651e+08,5.706e+05,12137,11203,1,11203,1,-0.0016703,-4.3502e-05,0,8.318e-06,-0.00054931,-6.793e+08,-6.1487e+06,0,2.0163e+06,-5.0787e+05,11202,11683,1,11683,1,-0.00058174,-1.0787e-05,0,0.00054247,-0.00031377,-2.3641e+08,-2.3381e+06,0,1.7494e+08,94096,11682,12593,1,12593,1,0.0017208,1.0609e-05,0,0.0017211,0.00011078,2.565e+08,2.3504e+06,0,2.6888e+08,1.5434e+06,12592,527.79,0,527.79,0,0.0013272,1.8069e-05,0,0.00077895,0.00024702,3.0329e+08,3.1298e+06,0,1.5226e+08,9.2378e+05,527.79,1
1820,6.51,12139,1,12139,1,0.00060293,-3.8413e-07,0,0.0012478,-0.0001068,38.257,1352.1,0,2.6212e+08,1.0321e+06,12138,13096,1,13096,1,0.0031029,5.4727e-05,0,0.0031029,0.00031879,2.8764e+08,7.4738e+06,0,6.8957e+08,4.0928e+06,13095,12138,1,12138,1,0.00057159,-1.5453e-07,0,0.0011606,-9.9091e-05,1.4728e+08,-34215,0,2.5259e+08,5.7972e+05,12137,11203,1,11203,1,-0.0016955,-5.4796e-05,0,1.2843e-05,-0.00057526,-6.8957e+08,-7.4582e+06,0,3.5518e+06,-1.0737e+06,11202,11683,1,11683,1,-0.00057679,-1.3892e-05,0,0.00057159,-0.00032379,-2.3437e+08,-2.9466e+06,0,1.7936e+08,34039,11682,12593,1,12593,1,0.0017787,1.3612e-05,0,0.0017792,0.00011001,2.5258e+08,2.9542e+06,0,2.662e+08,1.8775e+06,12592,527.79,0,527.79,0,0.0013565,2.3137e-05,0,0.00080398,0.00025227,3.0357e+08,3.8948e+06,0,1.5306e+08,1.2491e+06,527.79,1
1820,6.52,12139,1,12139,1,0.00064106,-4.5392e-07,0,0.0012856,-0.00011279,-1208.2,1169.1,0,2.6191e+08,1.2071e+06,12138,13096,1,13096,1,0.0032941,7.1188e-05,0,0.0032941,0.00032495,2.8406e+08,9.2596e+06,0,7.027e+08,5.5297e+06,13095,12138,1,12138,1,0.00062064,-2.3114e-07,0,0.001178,-0.00010306,1.5528e+08,-49690,0,2.4831e+08,5.8466e+05,12137,11203,1,11203,1,-0.0017278,-7.1283e-05,0,1.6502e-05,-0.00061048,-7.027e+08,-9.2486e+06,0,4.8441e+06,-1.869e+06,11202,11683,1,11683,1,-0.00057031,-1.8052e-05,0,0.00062068,-0.00033459,-2.317e+08,-3.8186e+06,0,1.8711e+08,4022.5,11682,12593,1,12593,1,0.0018293,1.7552e-05,0,0.0018302,0.00010924,2.4826e+08,3.8177e+06,0,2.6316e+08,2.3042e+06,12592,527.79,0,527.79,0,0.0013932,3.0184e-05,0,0.00083628,0.00025874,3.039e+08,4.9025e+06,0,1.5409e+08,1.7295e+06,527.79,1
1820,6.53,12139,1,12139,1,0.00069029,-5.2208e-07,0,0.001334,-0.00012034,-1169.1,4125.5,0,2.6147e+08,1.4097e+06,12138,13096,1,13096,1,0.0035674,9.6458e-05,0,0.0035674,0.00033312,2.7978e+08,1.1768e+07,0,7.2007e+08,7.643e+06,13095,12138,1,12138,1,0.00067529,-3.2677e-07,0,0.001206,-0.00010808,1.6484e+08,-66676,0,2.4332e+08,5.4018e+05,12137,11203,1,11203,1,-0.0017706,-9.6462e-05,0,1.9391e-05,-0.00066089,-7.2007e+08,-1.1744e+07,0,5.9312e+06,-2.9531e+06,11202,11683,1,11683,1,-0.00056137,-2.4144e-05,0,0.00063447,-0.00034359,-2.2798e+08,-5.0539e+06,0,1.8453e+08,-1.0469e+05,11682,12593,1,12593,1,0.0019022,2.3262e-05,0,0.0019027,0.00010841,2.4321e+08,5.0235e+06,0,2.5916e+08,2.9347e+06,12592,527.79,0,527.79,0,0.0014413,4.0404e-05,0,0.00088047,0.000267,3.0426e+08,6.2629e+06,0,1.5559e+08,2.4516e+06,527.79,1
1820,6.54,12139,1,12139,1,0.0007569,-6.4163e-07,0,0.001399,-0.00013016,-1729.7,882.91,0,2.6068e+08,1.6498e+06,12138,13096,1,13096,1,0.0039874,0.00013757,0,0.0039874,0.00034452,2.7452e+08,1.5425e+07,0,7.4428e+08,1.0878e+07,13095,12138,1,12138,1,0.0007406,-5.41e-07,0,0.0012555,-0.00011523,1.7586e+08,-97653,0,2.3934e+08,4.7361e+05,12137,11203,1,11203,1,-0.0018301,-0.00013769,0,1.0846e-05,-0.00073839,-7.4428e+08,-1.541e+07,0,5.4193e+06,-4.4557e+06,11202,11683,1,11683,1,-0.00054842,-3.3222e-05,0,0.0006258,-0.00035223,-2.2258e+08,-6.7289e+06,0,1.8415e+08,-4.9525e+05,11682,12593,1,12593,1,0.0019925,3.1317e-05,0,0.001995,0.00010759,2.3916e+08,6.6771e+06,0,2.5785e+08,3.6837e+06,12592,527.79,0,527.79,0,0.0015088,5.6183e-05,0,0.00094581,0.00027813,3.0474e+08,8.1688e+06,0,1.5794e+08,3.5633e+06,527.79,1
1820,6.55,12139,1,12139,1,0.00085335,-7.3448e-07,0,0.0014935,-0.00014338,-1879.3,3367,0,2.5957e+08,1.9338e+06,12138,13096,1,13096,1,0.0047002,0.00021276,0,0.0047002,0.0003614,2.6766e+08,2.1126e+07,0,7.8002e+08,1.613e+07,13095,12138,1,12138,1,0.00080167,-8.0923e-07,0,0.0013176,-0.00012657,1.7465e+08,-1.3462e+05,0,2.3403e+08,3.4784e+05,12137,11203,1,11203,1,-0.0019181,-0.00021289,0,2.2225e-05,-0.0008701,-7.8002e+08,-2.1112e+07,0,7.4218e+06,-6.6633e+06,11202,11683,1,11683,1,-0.00052816,-4.5919e-05,0,0.00062657,-0.0003702,-2.1405e+08,-9.1141e+06,0,1.7828e+08,-1.3662e+06,11682,12593,1,12593,1,0.0021087,4.2918e-05,0,0.0021123,0.00010684,2.3367e+08,9.1236e+06,0,2.5836e+08,4.7738e+06,12592,527.79,0,527.79,0,0.0016129,8.2841e-05,0,0.0010512,0.0002942,3.0544e+08,1.0964e+07,0,1.6125e+08,5.3456e+06,527.79,1
1820,6.56,12139,1,12139,1,0.0010055,-8.5692e-07,0,0.001643,-0.00016151,-11.231,4725.3,0,2.5769e+08,2.2824e+06,12138,13096,1,13096,1,0.0060969,0.00037365,0,0.0060969,0.00038846,2.809e+08,3.0625e+07,0,8.3711e+08,2.489e+07,13095,12138,1,12138,1,0.00092513,-9.4467e-07,0,0.0013949,-0.0001509,1.6154e+08,-1.2468e+05,0,2.2646e+08,1.3996e+05,12137,11203,1,11203,1,-0.0020586,-0.00037396,0,2.3576e-05,-0.0011282,-8.3711e+08,-3.0592e+07,0,7.769e+06,-1.0478e+07,11202,11683,1,11683,1,-0.00049202,-6.8118e-05,0,0.00072817,-0.00037916,-1.9874e+08,-1.278e+07,0,1.6618e+08,-3.0412e+06,11682,12593,1,12593,1,0.0022238,6.4458e-05,0,0.0022353,9.9177e-05,2.2806e+08,1.2775e+07,0,2.6488e+08,6.313e+06,12592,527.79,0,527.79,0,0.0017978,0.00013394,0,0.0012493,0.00031964,3.067e+08,1.5264e+07,0,1.669e+08,8.2984e+06,527.79,1
1820,6.565,12139,1,12139,1,0.0012714,-9.9092e-07,0,0.0019056,-0.00018396,-736.6,6591.6,0,2.5389e+08,2.71e+06,12138,13096,1,13096,1,0.0094741,0.0007969,0,0.0094741,0.00043459,3.0702e+08,4.7146e+07,0,9.339e+08,3.9596e+07,13095,12138,1,12138,1,0.0010777,-1.8166e-06,0,0.0014815,-0.00017321,1.4734e+08,-2.3892e+05,0,2.1478e+08,-88013,12137,11203,1,11203,1,-0.0022968,-0.00079721,0,3.2871e-05,-0.0017504,-9.339e+08,-4.7124e+07,0,8.5262e+06,-1.7319e+07,11202,11683,1,11683,1,-0.00041661,-0.0001054,0,0.00074039,-0.00037833,-1.6399e+08,-1.7373e+07,0,1.5162e+08,-6.0116e+06,11682,12593,1,12593,1,0.0023425,0.00010222,0,0.0023694,8.7463e-05,2.1662e+08,1.7671e+07,0,2.8373e+08,8.9388e+06,12592,527.79,0,527.79,0,0.0021975,0.00025068,0,0.0016959,0.00036432,3.0863e+08,2.2081e+07,0,1.7675e+08,1.3242e+07,527.79,1
1820,6.565,12139,1,12139,1,0.0013272,-1.021e-06,0,0.0019621,-0.00018536,0.0030432,6922.6,0,2.5334e+08,2.7861e+06,12138,13096,1,13096,1,0.01071,0.00095167,0,0.01071,0.00044498,3.1674e+08,5.0956e+07,0,9.5568e+08,4.3574e+07,13095,12138,1,12138,1,0.0011036,-2.0159e-06,0,0.0014922,-0.00017593,1.4264e+08,-2.4608e+05,0,2.123e+08,-1.1409e+05,12137,11203,1,11203,1,-0.0023504,-0.00095031,0,3.5023e-05,-0.0019723,-9.5568e+08,-5.0904e+07,0,8.9593e+06,-1.8935e+07,11202,11683,1,11683,1,-0.00039336,-0.00011348,0,0.00073492,-0.00037087,-1.5651e+08,-1.8524e+07,0,1.4796e+08,-6.6865e+06,11682,12593,1,12593,1,0.0023538,0.000111,0,0.0023804,8.6268e-05,2.1461e+08,1.8694e+07,0,2.8589e+08,9.4296e+06,12592,527.79,0,527.79,0,0.0023061,0.00028812,0,0.0018197,0.00037248,3.0946e+08,2.3646e+07,0,1.792e+08,1.4467e+07,527.79,1
