"N","Time","avg(GlobalElementId)","avg(ObjectId)","avg(PedigreeElementId)","avg(alpha)","avg(strain_x (0))","avg(strain_x (1))","avg(strain_x (2))","avg(strain_x (Magnitude))","avg(strain_yy)","avg(stress_x (0))","avg(stress_x (1))","avg(stress_x (2))","avg(stress_x (Magnitude))","avg(stress_yy)","avg(vtkOriginalCellIds)","max(GlobalElementId)","max(ObjectId)","max(PedigreeElementId)","max(alpha)","max(strain_x (0))","max(strain_x (1))","max(strain_x (2))","max(strain_x (Magnitude))","max(strain_yy)","max(stress_x (0))","max(stress_x (1))","max(stress_x (2))","max(stress_x (Magnitude))","max(stress_yy)","max(vtkOriginalCellIds)","med(GlobalElementId)","med(ObjectId)","med(PedigreeElementId)","med(alpha)","med(strain_x (0))","med(strain_x (1))","med(strain_x (2))","med(strain_x (Magnitude))","med(strain_yy)","med(stress_x (0))","med(stress_x (1))","med(stress_x (2))","med(stress_x (Magnitude))","med(stress_yy)","med(vtkOriginalCellIds)","min(GlobalElementId)","min(ObjectId)","min(PedigreeElementId)","min(alpha)","min(strain_x (0))","min(strain_x (1))","min(strain_x (2))","min(strain_x (Magnitude))","min(strain_yy)","min(stress_x (0))","min(stress_x (1))","min(stress_x (2))","min(stress_x (Magnitude))","min(stress_yy)","min(vtkOriginalCellIds)","q1(GlobalElementId)","q1(ObjectId)","q1(PedigreeElementId)","q1(alpha)","q1(strain_x (0))","q1(strain_x (1))","q1(strain_x (2))","q1(strain_x (Magnitude))","q1(strain_yy)","q1(stress_x (0))","q1(stress_x (1))","q1(stress_x (2))","q1(stress_x (Magnitude))","q1(stress_yy)","q1(vtkOriginalCellIds)","q3(GlobalElementId)","q3(ObjectId)","q3(PedigreeElementId)","q3(alpha)","q3(strain_x (0))","q3(strain_x (1))","q3(strain_x (2))","q3(strain_x (Magnitude))","q3(strain_yy)","q3(stress_x (0))","q3(stress_x (1))","q3(stress_x (2))","q3(stress_x (Magnitude))","q3(stress_yy)","q3(vtkOriginalCellIds)","std(GlobalElementId)","std(ObjectId)","std(PedigreeElementId)","std(alpha)","std(strain_x (0))","std(strain_x (1))","std(strain_x (2))","std(strain_x (Magnitude))","std(strain_yy)","std(stress_x (0))","std(stress_x (1))","std(stress_x (2))","std(stress_x (Magnitude))","std(stress_yy)","std(vtkOriginalCellIds)","vtkValidPointMask"
1820,0,12054,1,12054,1,0,0,0,0,0,0,0,0,0,0,12053,12991,1,12991,1,0,0,0,0,0,0,0,0,0,0,12990,12054,1,12054,1,0,0,0,0,0,0,0,0,0,0,12053,11097,1,11097,1,0,0,0,0,0,0,0,0,0,0,11096,11599,1,11599,1,0,0,0,0,0,0,0,0,0,0,11598,12509,1,12509,1,0,0,0,0,0,0,0,0,0,0,12508,527.81,0,527.81,0,0,0,0,0,0,0,0,0,0,0,527.81,1
1820,0.01,12054,1,12054,1,2.1988e-08,-2.197e-09,0,1.3122e-06,-4.6726e-09,-31365,-695.5,0,4.9352e+05,-511.31,12053,12991,1,12991,1,2.8514e-06,1.1769e-07,0,2.8519e-06,4.8594e-07,9.7176e+05,33939,0,1.0538e+06,17083,12990,12054,1,12054,1,2.367e-08,-1.3255e-09,0,1.3556e-06,-7.7302e-09,8436,-411.78,0,4.8715e+05,-179.52,12053,11097,1,11097,1,-2.5908e-06,-1.2772e-07,0,1.007e-08,-5.7522e-07,-1.0538e+06,-36799,0,3815.6,-17164,11096,11599,1,11599,1,-1.2873e-06,-1.0727e-08,0,6.3944e-07,-2.5129e-07,-5.2372e+05,-3471,0,2.5319e+05,-2073.4,11598,12509,1,12509,1,1.3555e-06,3.5206e-09,0,1.9387e-06,2.4073e-07,4.7243e+05,1113.4,0,7.2148e+05,673.54,12508,527.81,0,527.81,0,1.516e-06,1.5739e-08,0,7.5908e-07,2.8379e-07,5.694e+05,4814.3,0,2.8553e+05,4092.9,527.81,1
1820,0.02,12054,1,12054,1,2.2621e-07,-2.0957e-09,0,2.8349e-06,-4.3111e-08,-62.62,-662.39,0,1.0611e+06,-752.8,12053,12991,1,12991,1,5.7112e-06,8.8165e-09,0,5.7112e-06,9.8616e-07,1.9519e+06,2697.6,0,2.1383e+06,55.311,12990,12054,1,12054,1,2.233e-07,-1.8406e-09,0,2.8348e-06,-4.2734e-08,80501,-602,0,1.0675e+06,-304.58,12053,11097,1,11097,1,-5.2572e-06,-1.3398e-08,0,2.0056e-08,-1.0691e-06,-2.1383e+06,-4099.4,0,5365.6,-4007.3,11096,11599,1,11599,1,-2.6074e-06,-3.0793e-09,0,1.4164e-06,-5.7537e-07,-1.0606e+06,-979.21,0,5.3479e+05,-1202.9,11598,12509,1,12509,1,3.0603e-06,-5.184e-10,0,4.2501e-06,4.8802e-07,1.0675e+06,-164.82,0,1.5874e+06,-58.284,12508,527.81,0,527.81,0,3.2703e-06,2.5957e-09,0,1.6447e-06,6.131e-07,1.2239e+06,804.61,0,6.0942e+05,910.51,527.81,1
1820,0.03,12054,1,12054,1,3.4043e-07,-1.9106e-09,0,4.2652e-06,-6.3407e-08,51.209,-608.75,0,1.5964e+06,-551.33,12053,12991,1,12991,1,8.5811e-06,7.4125e-09,0,8.5811e-06,1.4819e-06,2.9328e+06,2295.7,0,3.213e+06,87.125,12990,12054,1,12054,1,3.3867e-07,-1.8927e-09,0,4.2633e-06,-6.4101e-08,1.2211e+05,-601.89,0,1.6059e+06,-128.06,12053,11097,1,11097,1,-7.8996e-06,-9.5711e-09,0,3.4041e-08,-1.6063e-06,-3.213e+06,-3104,0,9556.8,-3785.6,11096,11599,1,11599,1,-3.9214e-06,-3.1055e-09,0,2.1306e-06,-8.6271e-07,-1.595e+06,-1005.8,0,8.0451e+05,-788.8,11598,12509,1,12509,1,4.6028e-06,-6.2618e-10,0,6.3926e-06,7.3526e-07,1.6059e+06,-195.91,0,2.3875e+06,-32.398,12508,527.81,0,527.81,0,4.9202e-06,1.8795e-09,0,2.4745e-06,9.2191e-07,1.8414e+06,598.46,0,9.1689e+05,822.33,527.81,1
1820,0.04,12054,1,12054,1,4.5154e-07,-3.9453e-09,0,5.6577e-06,-8.3119e-08,127.19,-1257.4,0,2.1176e+06,-343.82,12053,12991,1,12991,1,1.1405e-05,5.3699e-09,0,1.1405e-05,1.9694e-06,3.898e+06,1663.7,0,4.2701e+06,370.63,12990,12054,1,12054,1,4.492e-07,-3.2315e-09,0,5.6591e-06,-8.4732e-08,1.6205e+05,-1033.9,0,2.1322e+06,-78.696,12053,11097,1,11097,1,-1.0499e-05,-2.2384e-08,0,4.4854e-08,-2.1351e-06,-4.2701e+06,-6934.3,0,12532,-3860.2,11096,11599,1,11599,1,-5.2064e-06,-5.8403e-09,0,2.8295e-06,-1.1442e-06,-2.1176e+06,-1859.1,0,1.0678e+06,-382.27,11598,12509,1,12509,1,6.1107e-06,-1.1661e-09,0,8.4889e-06,9.7648e-07,2.1322e+06,-375.01,0,3.1703e+06,16.547,12508,527.81,0,527.81,0,6.5265e-06,3.9524e-09,0,3.2822e-06,1.2229e-06,2.4425e+06,1253.6,0,1.2161e+06,690.49,527.81,1
1820,0.05,12054,1,12054,1,5.6717e-07,-1.1614e-09,0,7.1137e-06,-1.0354e-07,4.1575,-368.99,0,2.6626e+06,-91.489,12053,12991,1,12991,1,1.4288e-05,6.8232e-10,0,1.4288e-05,2.4673e-06,4.8833e+06,219.36,0,5.3496e+06,135.07,12990,12054,1,12054,1,5.6618e-07,-1.0833e-09,0,7.1084e-06,-1.0482e-07,2.0452e+05,-347.38,0,2.6782e+06,-26.186,12053,11097,1,11097,1,-1.3153e-05,-4.5233e-09,0,5.8027e-08,-2.6745e-06,-5.3496e+06,-1539.9,0,16755,-2078.5,11096,11599,1,11599,1,-6.5411e-06,-1.8088e-09,0,3.5542e-06,-1.4351e-06,-2.6604e+06,-573.62,0,1.3418e+06,-97.828,11598,12509,1,12509,1,7.6752e-06,-4.2241e-10,0,1.0662e-05,1.228e-06,2.6782e+06,-135.4,0,3.982e+06,2.3303,12508,527.81,0,527.81,0,8.2064e-06,9.82e-10,0,4.1272e-06,1.5374e-06,3.0712e+06,313.18,0,1.5293e+06,232.03,527.81,1
1820,0.06,12054,1,12054,1,6.8055e-07,-9.797e-10,0,8.5368e-06,-1.2472e-07,-63.117,-311.5,0,3.1953e+06,-300.8,12053,12991,1,12991,1,1.7144e-05,2.6881e-09,0,1.7144e-05,2.9605e-06,5.8594e+06,836.57,0,6.419e+06,119.88,12990,12054,1,12054,1,6.7932e-07,-8.0029e-10,0,8.5309e-06,-1.2811e-07,2.4518e+05,-254.71,0,3.2141e+06,-56.494,12053,11097,1,11097,1,-1.5782e-05,-8.179e-09,0,6.9138e-08,-3.209e-06,-6.419e+06,-2785.2,0,19355,-3728.5,11096,11599,1,11599,1,-7.8501e-06,-1.4407e-09,0,4.2654e-06,-1.7229e-06,-3.1929e+06,-454.87,0,1.6103e+06,-269.52,11598,12509,1,12509,1,9.2113e-06,-3.0656e-10,0,1.2796e-05,1.4733e-06,3.2141e+06,-96.961,0,4.779e+06,8.081,12508,527.81,0,527.81,0,9.848e-06,1.0663e-09,0,4.9528e-06,1.845e-06,3.6856e+06,341.48,0,1.8352e+06,642.59,527.81,1
1820,0.07,12054,1,12054,1,7.9273e-07,-2.2267e-10,0,9.9419e-06,-1.4468e-07,35.652,-70.217,0,3.7212e+06,-110.34,12053,12991,1,12991,1,1.9964e-05,6.6341e-09,0,1.9964e-05,3.4476e-06,6.8232e+06,2053.2,0,7.4751e+06,116.88,12990,12054,1,12054,1,7.9233e-07,-1.1148e-10,0,9.9375e-06,-1.4514e-07,2.8621e+05,-34.017,0,3.7442e+06,-36.787,12053,11097,1,11097,1,-1.8378e-05,-6.9079e-09,0,8.2457e-08,-3.7368e-06,-7.4751e+06,-2139.1,0,23905,-2449.7,11096,11599,1,11599,1,-9.1445e-06,-1.414e-09,0,4.9688e-06,-2.0064e-06,-3.7193e+06,-447.84,0,1.8759e+06,-119.05,11598,12509,1,12509,1,1.073e-05,7.7613e-10,0,1.4906e-05,1.7168e-06,3.7442e+06,244.38,0,5.5668e+06,21.333,12508,527.81,0,527.81,0,1.1469e-05,1.842e-09,0,5.7678e-06,2.1487e-06,4.2922e+06,584.51,0,2.1372e+06,295.5,527.81,1
1820,0.08,12054,1,12054,1,9.0678e-07,-1.2892e-09,0,1.1372e-05,-1.6531e-07,54.261,-409.78,0,4.2566e+06,-51.284,12053,12991,1,12991,1,2.2844e-05,2.3e-09,0,2.2844e-05,3.9449e-06,7.8073e+06,712.44,0,8.5532e+06,136.1,12990,12054,1,12054,1,9.0634e-07,-1.0226e-09,0,1.1368e-05,-1.6504e-07,3.2748e+05,-331.73,0,4.283e+06,-10.08,12053,11097,1,11097,1,-2.1029e-05,-4.587e-09,0,9.4516e-08,-4.2758e-06,-8.5532e+06,-1481.5,0,27445,-2023.7,11096,11599,1,11599,1,-1.046e-05,-2.3667e-09,0,5.6833e-06,-2.2949e-06,-4.2544e+06,-757.89,0,2.1458e+06,-67.164,11598,12509,1,12509,1,1.2274e-05,-8.5903e-11,0,1.7051e-05,1.9637e-06,4.283e+06,-28.93,0,6.3679e+06,26.485,12508,527.81,0,527.81,0,1.3119e-05,1.3592e-09,0,6.5977e-06,2.4578e-06,4.9097e+06,430.67,0,2.4447e+06,171.46,527.81,1
1820,0.09,12054,1,12054,1,1.0188e-06,3.0014e-10,0,1.2774e-05,-1.8568e-07,168.94,96.299,0,4.7813e+06,-34.301,12053,12991,1,12991,1,2.5651e-05,8.2737e-09,0,2.5651e-05,4.4294e-06,8.7669e+06,2562.4,0,9.6039e+06,176.27,12990,12054,1,12054,1,1.0185e-06,3.1482e-10,0,1.2768e-05,-1.854e-07,3.6813e+05,100.89,0,4.8108e+06,-21.062,12053,11097,1,11097,1,-2.3612e-05,-6.0913e-09,0,1.0652e-07,-4.8013e-06,-9.6039e+06,-1968,0,30951,-2215.8,11096,11599,1,11599,1,-1.1749e-05,-1.4038e-09,0,6.3839e-06,-2.5776e-06,-4.7785e+06,-440.82,0,2.4102e+06,-87.07,11598,12509,1,12509,1,1.3787e-05,2.0403e-09,0,1.9151e-05,2.206e-06,4.8108e+06,659.36,0,7.1523e+06,60.61,12508,527.81,0,527.81,0,1.4736e-05,2.6665e-09,0,7.4108e-06,2.7608e-06,5.5148e+06,846.43,0,2.7459e+06,160.68,527.81,1
1820,0.1,12054,1,12054,1,1.1331e-06,-1.0327e-09,0,1.4211e-05,-2.0653e-07,54.903,-327.98,0,5.3191e+06,-50.43,12053,12991,1,12991,1,2.8543e-05,2.1015e-09,0,2.8543e-05,4.929e-06,9.7551e+06,675.69,0,1.0687e+07,156.78,12990,12054,1,12054,1,1.1327e-06,-4.3317e-10,0,1.4206e-05,-2.0632e-07,4.0935e+05,-138.41,0,5.3523e+06,-11.885,12053,11097,1,11097,1,-2.6275e-05,-6.0782e-09,0,1.1795e-07,-5.3425e-06,-1.0687e+07,-1934.8,0,34217,-872.58,11096,11599,1,11599,1,-1.3072e-05,-2.0705e-09,0,7.1026e-06,-2.8678e-06,-5.3166e+06,-651.89,0,2.6814e+06,-83.014,11598,12509,1,12509,1,1.5339e-05,2.863e-10,0,2.1308e-05,2.454e-06,5.3523e+06,92.591,0,7.9578e+06,29.483,12508,527.81,0,527.81,0,1.6394e-05,1.7651e-09,0,8.2445e-06,3.0713e-06,6.1352e+06,560.66,0,3.0549e+06,137.12,527.81,1
1820,0.11,12054,1,12054,1,1.245e-06,-1.1697e-09,0,1.5612e-05,-2.269e-07,138.04,-371.82,0,5.8437e+06,-40.914,12053,12991,1,12991,1,3.1366e-05,7.3072e-09,0,3.1366e-05,5.4165e-06,1.072e+07,2359.3,0,1.1744e+07,265.3,12990,12054,1,12054,1,1.2446e-06,-4.7853e-10,0,1.5608e-05,-2.2663e-07,4.4978e+05,-144.35,0,5.8805e+06,-24.683,12053,11097,1,11097,1,-2.8874e-05,-8.9906e-09,0,1.2997e-07,-5.871e-06,-1.1744e+07,-2854.6,0,37760,-1001.9,11096,11599,1,11599,1,-1.4362e-05,-3.4953e-09,0,7.8034e-06,-3.151e-06,-5.8412e+06,-1095.2,0,2.9461e+06,-114.89,11598,12509,1,12509,1,1.6852e-05,9.744e-10,0,2.341e-05,2.6963e-06,5.8805e+06,302.48,0,8.743e+06,77.718,12508,527.81,0,527.81,0,1.801e-05,3.3301e-09,0,9.0574e-06,3.3742e-06,6.7402e+06,1059.5,0,3.3561e+06,173.95,527.81,1
1820,0.12,12054,1,12054,1,1.361e-06,-1.1019e-09,0,1.7072e-05,-2.4798e-07,-18.214,-350.12,0,6.3902e+06,-26.23,12053,12991,1,12991,1,3.4274e-05,2.4374e-10,0,3.4274e-05,5.9187e-06,1.1714e+07,83.481,0,1.2833e+07,91.587,12990,12054,1,12054,1,1.3606e-06,-1.0934e-09,0,1.7061e-05,-2.4786e-07,4.9175e+05,-351.98,0,6.4282e+06,-5.1932,12053,11097,1,11097,1,-3.1551e-05,-2.6725e-09,0,1.4192e-07,-6.4151e-06,-1.2833e+07,-821.58,0,41199,-538.3,11096,11599,1,11599,1,-1.57e-05,-1.6021e-09,0,8.5305e-06,-3.4441e-06,-6.3856e+06,-510.21,0,3.2206e+06,-25.681,11598,12509,1,12509,1,1.8422e-05,-5.7978e-10,0,2.5592e-05,2.9476e-06,6.4282e+06,-186.38,0,9.5576e+06,6.9137,12508,527.81,0,527.81,0,1.9695e-05,6.9204e-10,0,9.9048e-06,3.6897e-06,7.3707e+06,219.37,0,3.6701e+06,84.302,527.81,1
1820,0.13,12054,1,12054,1,1.4706e-06,-4.7986e-09,0,1.845e-05,-2.6789e-07,-115.27,-1525.1,0,6.906e+06,-4.7913,12053,12991,1,12991,1,3.7091e-05,2.621e-09,0,3.7091e-05,6.4055e-06,1.2676e+07,897.67,0,1.3888e+07,466.29,12990,12054,1,12054,1,1.4695e-06,-4.0153e-09,0,1.8446e-05,-2.6768e-07,5.3109e+05,-1274.5,0,6.9494e+06,8.6503,12053,11097,1,11097,1,-3.4145e-05,-1.4933e-08,0,1.5251e-07,-6.9426e-06,-1.3888e+07,-4789.6,0,44198,-840.81,11096,11599,1,11599,1,-1.6973e-05,-8.1244e-09,0,9.2224e-06,-3.7236e-06,-6.9035e+06,-2564.5,0,3.4816e+06,-87.91,11598,12509,1,12509,1,1.9916e-05,-1.1288e-09,0,2.7667e-05,3.1866e-06,6.9494e+06,-361.32,0,1.0333e+07,117.8,12508,527.81,0,527.81,0,2.1284e-05,4.3697e-09,0,1.0704e-05,3.9876e-06,7.9655e+06,1388.1,0,3.9662e+06,192.19,527.81,1
1820,0.14,12054,1,12054,1,1.5894e-06,-3.3896e-09,0,1.9937e-05,-2.8961e-07,12,-1078.5,0,7.4623e+06,-32.701,12053,12991,1,12991,1,4.0042e-05,7.2836e-10,0,4.0042e-05,6.915e-06,1.3685e+07,247.51,0,1.4993e+07,246.98,12990,12054,1,12054,1,1.5881e-06,-3.5572e-09,0,1.9923e-05,-2.8955e-07,5.7402e+05,-1140.4,0,7.5062e+06,-3.9143,12053,11097,1,11097,1,-3.6861e-05,-8.1767e-09,0,1.6569e-07,-7.4949e-06,-1.4993e+07,-2482.9,0,48077,-653.56,11096,11599,1,11599,1,-1.8333e-05,-5.0934e-09,0,9.9607e-06,-4.0215e-06,-7.4564e+06,-1627,0,3.7605e+06,-84.995,11598,12509,1,12509,1,2.1511e-05,-1.6319e-09,0,2.9884e-05,3.4417e-06,7.5062e+06,-523.78,0,1.1161e+07,37.267,12508,527.81,0,527.81,0,2.2999e-05,2.2123e-09,0,1.1567e-05,4.3087e-06,8.6073e+06,704.25,0,4.2859e+06,115.67,527.81,1
1820,0.15,12054,1,12054,1,1.6992e-06,-1.0202e-09,0,2.1314e-05,-3.0953e-07,3.7135,-324.74,0,7.9779e+06,-3.5298,12053,12991,1,12991,1,4.2797e-05,2.2726e-09,0,4.2797e-05,7.3906e-06,1.4627e+07,730.19,0,1.6024e+07,601.96,12990,12054,1,12054,1,1.6989e-06,-7.5274e-10,0,2.1304e-05,-3.0939e-07,6.1413e+05,-244.42,0,8.0267e+06,-0.83537,12053,11097,1,11097,1,-3.9397e-05,-5.6052e-09,0,1.7743e-07,-8.0105e-06,-1.6024e+07,-1808.1,0,51532,-538.93,11096,11599,1,11599,1,-1.9604e-05,-1.9358e-09,0,1.0652e-05,-4.3004e-06,-7.9735e+06,-620.25,0,4.0215e+06,-31.614,11598,12509,1,12509,1,2.3003e-05,9.456e-11,0,3.1955e-05,3.6808e-06,8.0267e+06,28.238,0,1.1934e+07,36.616,12508,527.81,0,527.81,0,2.4588e-05,1.4092e-09,0,1.2366e-05,4.6065e-06,9.202e+06,448.58,0,4.5819e+06,88.726,527.81,1
1820,0.16,12054,1,12054,1,1.8153e-06,1.9713e-10,0,2.2771e-05,-3.3067e-07,-5.6788,62.651,0,8.5231e+06,-0.26921,12053,12991,1,12991,1,4.5706e-05,4.48e-10,0,4.5706e-05,7.893e-06,1.5621e+07,138.42,0,1.7113e+07,9.576,12990,12054,1,12054,1,1.8152e-06,2.0723e-10,0,2.2757e-05,-3.2992e-07,6.5617e+05,65.042,0,8.5744e+06,0.35416,12053,11097,1,11097,1,-4.2075e-05,-5.2525e-11,0,1.8977e-07,-8.5549e-06,-1.7113e+07,-17.989,0,55210,-35.096,11096,11599,1,11599,1,-2.0942e-05,7.7556e-11,0,1.1379e-05,-4.5936e-06,-8.5175e+06,24.187,0,4.2958e+06,-2.2124,11598,12509,1,12509,1,2.4572e-05,3.1671e-10,0,3.4136e-05,3.9317e-06,8.5744e+06,101.23,0,1.2748e+07,3.229,12508,527.81,0,527.81,0,2.6268e-05,1.3598e-10,0,1.3211e-05,4.9212e-06,9.8308e+06,43.142,0,4.8951e+06,5.7899,527.81,1
1820,0.17,12054,1,12054,1,1.9287e-06,1.8657e-10,0,2.4191e-05,-3.5132e-07,46.108,59.279,0,9.0546e+06,-1.4458,12053,12991,1,12991,1,4.8557e-05,7.5775e-10,0,4.8557e-05,8.3853e-06,1.6595e+07,243.49,0,1.8181e+07,14.175,12990,12054,1,12054,1,1.9287e-06,1.3573e-10,0,2.4177e-05,-3.5051e-07,6.9717e+05,43.267,0,9.1093e+06,-1.5406,12053,11097,1,11097,1,-4.47e-05,-2.1134e-10,0,2.017e-07,-9.0886e-06,-1.8181e+07,-67.955,0,58686,-27.694,11096,11599,1,11599,1,-2.2248e-05,3.8476e-12,0,1.2088e-05,-4.8802e-06,-9.0488e+06,1.3177,0,4.5638e+06,-5.6309,11598,12509,1,12509,1,2.6105e-05,3.4687e-10,0,3.6265e-05,4.177e-06,9.1093e+06,110.21,0,1.3544e+07,2.8845,12508,527.81,0,527.81,0,2.7906e-05,2.1429e-10,0,1.4035e-05,5.2281e-06,1.0444e+07,68.071,0,5.2004e+06,5.9154,527.81,1
1820,0.18,12054,1,12054,1,2.0421e-06,-5.254e-11,0,2.5615e-05,-3.7218e-07,4.3107,-16.848,0,9.5877e+06,-76.297,12053,12991,1,12991,1,5.1414e-05,3.1736e-10,0,5.1414e-05,8.8786e-06,1.7572e+07,98.281,0,1.9251e+07,251.48,12990,12054,1,12054,1,2.0421e-06,-5.6985e-11,0,2.56e-05,-3.7152e-07,7.3816e+05,-17.986,0,9.6454e+06,-41.656,12053,11097,1,11097,1,-4.733e-05,-3.4229e-10,0,2.1344e-07,-9.6245e-06,-1.9251e+07,-109.03,0,62064,-466.5,11096,11599,1,11599,1,-2.3558e-05,-1.1542e-10,0,1.28e-05,-5.1676e-06,-9.5814e+06,-36.527,0,4.8324e+06,-147.78,11598,12509,1,12509,1,2.7642e-05,6.3575e-12,0,3.84e-05,4.4228e-06,9.6454e+06,2.0696,0,1.4341e+07,-11.807,12508,527.81,0,527.81,0,2.9549e-05,9.6443e-11,0,1.4861e-05,5.536e-06,1.1059e+07,30.174,0,5.5065e+06,97.13,527.81,1
1820,0.19,12054,1,12054,1,2.1553e-06,4.2938e-10,0,2.7035e-05,-3.9279e-07,-18.233,136.29,0,1.0119e+07,-73.993,12053,12991,1,12991,1,5.4268e-05,2.1546e-09,0,5.4268e-05,9.3717e-06,1.8547e+07,667.16,0,2.0319e+07,109.03,12990,12054,1,12054,1,2.1551e-06,2.7162e-10,0,2.702e-05,-3.9201e-07,7.7902e+05,85.301,0,1.018e+07,-50.452,12053,11097,1,11097,1,-4.9958e-05,-4.9528e-10,0,2.2515e-07,-1.0158e-05,-2.0319e+07,-153.4,0,65464,-428.06,11096,11599,1,11599,1,-2.4864e-05,2.3531e-11,0,1.351e-05,-5.4541e-06,-1.0113e+07,7.0151,0,5.1005e+06,-136.83,11598,12509,1,12509,1,2.9175e-05,7.3855e-10,0,4.053e-05,4.6681e-06,1.018e+07,236.42,0,1.5136e+07,-10.683,12508,527.81,0,527.81,0,3.1188e-05,5.1298e-10,0,1.5685e-05,5.843e-06,1.1672e+07,161.9,0,5.8118e+06,79.482,527.81,1
1820,0.2,12054,1,12054,1,2.2685e-06,1.7712e-10,0,2.8459e-05,-4.1349e-07,-129.25,56.077,0,1.0652e+07,-109.29,12053,12991,1,12991,1,5.7122e-05,1.127e-09,0,5.7122e-05,9.8645e-06,1.9523e+07,348.95,0,2.1388e+07,54.354,12990,12054,1,12054,1,2.2684e-06,1.5011e-10,0,2.8442e-05,-4.126e-07,8.1995e+05,50.003,0,1.0716e+07,-90.919,12053,11097,1,11097,1,-5.2585e-05,-7.2935e-10,0,2.3663e-07,-1.0693e-05,-2.1388e+07,-225.86,0,68755,-471.35,11096,11599,1,11599,1,-2.6173e-05,6.7929e-12,0,1.4221e-05,-5.7414e-06,-1.0645e+07,2.3267,0,5.3689e+06,-174.53,11598,12509,1,12509,1,3.071e-05,3.0848e-10,0,4.2663e-05,4.9139e-06,1.0716e+07,100.93,0,1.5933e+07,-28.572,12508,527.81,0,527.81,0,3.283e-05,2.95e-10,0,1.6511e-05,6.1506e-06,1.2286e+07,90.196,0,6.1178e+06,90.353,527.81,1
1820,0.21,12054,1,12054,1,2.382e-06,-5.9801e-11,0,2.9885e-05,-4.341e-07,-169.65,-17.86,0,1.1186e+07,-77.886,12053,12991,1,12991,1,5.9984e-05,5.9982e-10,0,5.9984e-05,1.0359e-05,2.0501e+07,185.81,0,2.2459e+07,116.58,12990,12054,1,12054,1,2.382e-06,-2.5185e-11,0,2.9867e-05,-4.3316e-07,8.6102e+05,-8.5246,0,1.1253e+07,-50.168,12053,11097,1,11097,1,-5.5219e-05,-6.877e-10,0,2.4835e-07,-1.1228e-05,-2.2459e+07,-210.2,0,72158,-452.51,11096,11599,1,11599,1,-2.7485e-05,-1.3191e-10,0,1.4934e-05,-6.0288e-06,-1.1179e+07,-39.573,0,5.6378e+06,-123.45,11598,12509,1,12509,1,3.2249e-05,5.5625e-11,0,4.4801e-05,5.1601e-06,1.1253e+07,17.875,0,1.6731e+07,-17.62,12508,527.81,0,527.81,0,3.4475e-05,2.1285e-10,0,1.7338e-05,6.4588e-06,1.2902e+07,64.449,0,6.4244e+06,86.014,527.81,1
1820,0.22,12054,1,12054,1,2.4957e-06,-8.8539e-11,0,3.1307e-05,-4.548e-07,-92.826,-27.904,0,1.1718e+07,-79.025,12053,12991,1,12991,1,6.2839e-05,8.5393e-10,0,6.2839e-05,1.0852e-05,2.1477e+07,264.27,0,2.3529e+07,75.503,12990,12054,1,12054,1,2.4955e-06,-8.4291e-11,0,3.1289e-05,-4.5392e-07,9.0205e+05,-27.586,0,1.1789e+07,-46.765,12053,11097,1,11097,1,-5.7848e-05,-9.4878e-10,0,2.6046e-07,-1.1763e-05,-2.3529e+07,-293.75,0,75699,-691.32,11096,11599,1,11599,1,-2.8793e-05,-1.8546e-10,0,1.5644e-05,-6.3159e-06,-1.1711e+07,-60.865,0,5.9063e+06,-143.16,11598,12509,1,12509,1,3.3784e-05,2.806e-11,0,4.6933e-05,5.4057e-06,1.1789e+07,9.0286,0,1.7528e+07,-0.53234,12508,527.81,0,527.81,0,3.6116e-05,2.3387e-10,0,1.8163e-05,6.7663e-06,1.3516e+07,71.143,0,6.7302e+06,99.074,527.81,1
1820,0.23,12054,1,12054,1,2.609e-06,5.9067e-11,0,3.2728e-05,-4.754e-07,-62.492,18.705,0,1.225e+07,-59.15,12053,12991,1,12991,1,6.5692e-05,2.0751e-09,0,6.5692e-05,1.1344e-05,2.2452e+07,642.56,0,2.4597e+07,52.69,12990,12054,1,12054,1,2.609e-06,-1.6567e-12,0,3.2709e-05,-4.7437e-07,9.4307e+05,-0.50959,0,1.2324e+07,-46.782,12053,11097,1,11097,1,-6.0474e-05,-1.2974e-09,0,2.7248e-07,-1.2296e-05,-2.4597e+07,-401.69,0,79225,-227,11096,11599,1,11599,1,-3.01e-05,-3.0273e-10,0,1.6355e-05,-6.6028e-06,-1.2242e+07,-95.588,0,6.1744e+06,-113.69,11598,12509,1,12509,1,3.5318e-05,3.5446e-10,0,4.9063e-05,5.6512e-06,1.2324e+07,112.08,0,1.8323e+07,-0.66762,12508,527.81,0,527.81,0,3.7755e-05,5.6742e-10,0,1.8988e-05,7.0733e-06,1.413e+07,177.6,0,7.0357e+06,65.229,527.81,1
1820,0.24,12054,1,12054,1,2.7226e-06,1.0729e-10,0,3.4153e-05,-4.9612e-07,-46.081,34.186,0,1.2783e+07,-70.115,12053,12991,1,12991,1,6.8551e-05,9.2662e-10,0,6.8551e-05,1.1838e-05,2.3429e+07,286.92,0,2.5667e+07,71.133,12990,12054,1,12054,1,2.7226e-06,6.4465e-11,0,3.4133e-05,-4.9509e-07,9.8415e+05,21.212,0,1.286e+07,-59.026,12053,11097,1,11097,1,-6.3106e-05,-3.0767e-10,0,2.8444e-07,-1.2831e-05,-2.5667e+07,-95.23,0,82721,-259.2,11096,11599,1,11599,1,-3.141e-05,8.3606e-12,0,1.7066e-05,-6.8901e-06,-1.2775e+07,2.7321,0,6.4432e+06,-130.22,11598,12509,1,12509,1,3.6855e-05,1.8529e-10,0,5.1199e-05,5.8971e-06,1.286e+07,60.524,0,1.9121e+07,-3.2481,12508,527.81,0,527.81,0,3.9399e-05,1.6879e-10,0,1.9814e-05,7.3813e-06,1.4745e+07,51.977,0,7.3419e+06,70.752,527.81,1
1820,0.25,12054,1,12054,1,2.8359e-06,1.323e-10,0,3.5576e-05,-5.1686e-07,-106.38,42.628,0,1.3316e+07,-107.7,12053,12991,1,12991,1,7.1407e-05,1.1784e-09,0,7.1407e-05,1.2331e-05,2.4405e+07,364.88,0,2.6737e+07,54.65,12990,12054,1,12054,1,2.8358e-06,9.938e-11,0,3.5555e-05,-5.1568e-07,1.0251e+06,33.387,0,1.3396e+07,-101.58,12053,11097,1,11097,1,-6.5735e-05,-5.7625e-10,0,2.9613e-07,-1.3366e-05,-2.6737e+07,-178.4,0,86084,-426.43,11096,11599,1,11599,1,-3.2719e-05,-2.0908e-12,0,1.7777e-05,-7.1774e-06,-1.3308e+07,-0.68154,0,6.7116e+06,-189.66,11598,12509,1,12509,1,3.8391e-05,2.5961e-10,0,5.3332e-05,6.1428e-06,1.3396e+07,84.075,0,1.9918e+07,-2.9297,12508,527.81,0,527.81,0,4.104e-05,2.3238e-10,0,2.064e-05,7.6889e-06,1.5359e+07,71.362,0,7.6478e+06,109.51,527.81,1
1820,0.26,12054,1,12054,1,2.9497e-06,5.1673e-11,0,3.7e-05,-5.3753e-07,-23.207,16.914,0,1.3849e+07,-86.565,12053,12991,1,12991,1,7.4266e-05,4.9784e-10,0,7.4266e-05,1.2825e-05,2.5382e+07,154.2,0,2.7807e+07,66.131,12990,12054,1,12054,1,2.9497e-06,6.1934e-11,0,3.6978e-05,-5.3636e-07,1.0662e+06,20.532,0,1.3933e+07,-72.155,12053,11097,1,11097,1,-6.8366e-05,-4.7828e-10,0,3.0822e-07,-1.3901e-05,-2.7807e+07,-148.07,0,89629,-340.62,11096,11599,1,11599,1,-3.4029e-05,1.6913e-11,0,1.8489e-05,-7.4647e-06,-1.384e+07,5.2645,0,6.9803e+06,-142.21,11598,12509,1,12509,1,3.9928e-05,1.1658e-10,0,5.5468e-05,6.3887e-06,1.3933e+07,37.887,0,2.0715e+07,-5.7001,12508,527.81,0,527.81,0,4.2683e-05,1.1784e-10,0,2.1466e-05,7.9967e-06,1.5974e+07,36.381,0,7.9541e+06,89.594,527.81,1
1820,0.27,12054,1,12054,1,3.0632e-06,1.2868e-10,0,3.8423e-05,-5.5814e-07,-0.2873,40.654,0,1.4382e+07,-62.207,12053,12991,1,12991,1,7.7124e-05,1.0507e-09,0,7.7124e-05,1.3319e-05,2.6358e+07,325.31,0,2.8877e+07,44.744,12990,12054,1,12054,1,3.0632e-06,4.7982e-11,0,3.8401e-05,-5.569e-07,1.1073e+06,15.761,0,1.4469e+07,-37.851,12053,11097,1,11097,1,-7.0997e-05,-5.0787e-10,0,3.2023e-07,-1.4436e-05,-2.8877e+07,-157.25,0,93141,-326.94,11096,11599,1,11599,1,-3.5338e-05,-6.4365e-11,0,1.92e-05,-7.7517e-06,-1.4373e+07,-20.234,0,7.2489e+06,-130.2,11598,12509,1,12509,1,4.1464e-05,3.1029e-10,0,5.7601e-05,6.6345e-06,1.4469e+07,98.94,0,2.1512e+07,10.97,12508,527.81,0,527.81,0,4.4325e-05,2.7936e-10,0,2.2292e-05,8.3042e-06,1.6588e+07,87.766,0,8.26e+06,82.483,527.81,1
1820,0.28,12054,1,12054,1,3.1766e-06,3.4549e-10,0,3.9845e-05,-5.7882e-07,22.862,109.9,0,1.4914e+07,-71.489,12053,12991,1,12991,1,7.9979e-05,1.5291e-09,0,7.9979e-05,1.3812e-05,2.7334e+07,473.56,0,2.9946e+07,68.644,12990,12054,1,12054,1,3.1765e-06,2.5339e-10,0,3.9822e-05,-5.7752e-07,1.1482e+06,80.538,0,1.5004e+07,-31.712,12053,11097,1,11097,1,-7.3625e-05,-5.1467e-10,0,3.321e-07,-1.497e-05,-2.9946e+07,-159.32,0,96601,-393.55,11096,11599,1,11599,1,-3.6645e-05,9.2257e-12,0,1.9911e-05,-8.0385e-06,-1.4904e+07,3.092,0,7.5171e+06,-143.09,11598,12509,1,12509,1,4.2998e-05,6.2683e-10,0,5.9732e-05,6.8799e-06,1.5004e+07,200.3,0,2.2308e+07,6.5031,12508,527.81,0,527.81,0,4.5965e-05,3.9807e-10,0,2.3116e-05,8.6114e-06,1.7202e+07,125.87,0,8.5655e+06,94.065,527.81,1
1820,0.29,12054,1,12054,1,3.29e-06,3.0095e-11,0,4.1269e-05,-5.9938e-07,-31.842,9.5537,0,1.5447e+07,-34.994,12053,12991,1,12991,1,8.2833e-05,8.1218e-10,0,8.2833e-05,1.4304e-05,2.831e+07,251.36,0,3.1015e+07,92.977,12990,12054,1,12054,1,3.2899e-06,1.3076e-11,0,4.1245e-05,-5.981e-07,1.1892e+06,4.2523,0,1.554e+07,-18.299,12053,11097,1,11097,1,-7.6253e-05,-4.4654e-10,0,3.4371e-07,-1.5505e-05,-3.1015e+07,-138.28,0,99975,-235.62,11096,11599,1,11599,1,-3.7955e-05,-2.5325e-11,0,2.0622e-05,-8.3255e-06,-1.5437e+07,-8.4023,0,7.7857e+06,-69.983,11598,12509,1,12509,1,4.4534e-05,6.9167e-11,0,6.1867e-05,7.1258e-06,1.554e+07,22.268,0,2.3105e+07,1.6457,12508,527.81,0,527.81,0,4.7608e-05,1.3984e-10,0,2.3943e-05,8.9191e-06,1.7817e+07,42.908,0,8.8717e+06,54.691,527.81,1
1820,0.3,12054,1,12054,1,3.403e-06,1.3877e-10,0,4.2691e-05,-6.2007e-07,-162.63,44.163,0,1.5979e+07,-72.395,12053,12991,1,12991,1,8.5689e-05,1.0346e-09,0,8.5689e-05,1.4798e-05,2.9286e+07,316.27,0,3.2084e+07,65.368,12990,12054,1,12054,1,3.4029e-06,1.2147e-10,0,4.2666e-05,-6.1874e-07,1.2301e+06,40.01,0,1.6076e+07,-50.642,12053,11097,1,11097,1,-7.8883e-05,-4.8408e-10,0,3.551e-07,-1.6039e-05,-3.2084e+07,-148.03,0,1.032e+05,-284.23,11096,11599,1,11599,1,-3.9263e-05,7.0442e-12,0,2.1333e-05,-8.6126e-06,-1.5969e+07,2.4106,0,8.054e+06,-124.53,11598,12509,1,12509,1,4.6069e-05,2.3631e-10,0,6.3999e-05,7.3714e-06,1.6076e+07,77.061,0,2.3901e+07,-10.733,12508,527.81,0,527.81,0,4.9249e-05,2.4242e-10,0,2.4768e-05,9.2266e-06,1.8431e+07,73.97,0,9.1775e+06,71.551,527.81,1
1820,0.31,12054,1,12054,1,3.5171e-06,1.8697e-10,0,4.4116e-05,-6.408e-07,11.022,59.657,0,1.6513e+07,-54.513,12053,12991,1,12991,1,8.8549e-05,5.5453e-10,0,8.8549e-05,1.5292e-05,3.0263e+07,186.15,0,3.3155e+07,110.96,12990,12054,1,12054,1,3.517e-06,1.8613e-10,0,4.409e-05,-6.3946e-07,1.2713e+06,59.525,0,1.6612e+07,-30.397,12053,11097,1,11097,1,-8.1515e-05,-2.163e-10,0,3.677e-07,-1.6575e-05,-3.3155e+07,-66.992,0,1.0695e+05,-423.35,11096,11599,1,11599,1,-4.0573e-05,8.1578e-11,0,2.2045e-05,-8.9e-06,-1.6502e+07,25.753,0,8.3228e+06,-95.066,11598,12509,1,12509,1,4.7607e-05,2.9388e-10,0,6.6135e-05,7.6173e-06,1.6612e+07,93.95,0,2.4699e+07,-6.0973,12508,527.81,0,527.81,0,5.0892e-05,1.4534e-10,0,2.5595e-05,9.5345e-06,1.9046e+07,46.686,0,9.4838e+06,70.339,527.81,1
1820,0.32,12054,1,12054,1,3.6303e-06,9.903e-11,0,4.5538e-05,-6.6133e-07,-26.918,31.542,0,1.7045e+07,-15.581,12053,12991,1,12991,1,9.1404e-05,1.5129e-09,0,9.1404e-05,1.5785e-05,3.1239e+07,468.54,0,3.4224e+07,58.186,12990,12054,1,12054,1,3.6303e-06,1.7814e-11,0,4.5512e-05,-6.5977e-07,1.3123e+06,5.5696,0,1.7148e+07,0.034488,12053,11097,1,11097,1,-8.4143e-05,-8.2887e-10,0,3.7941e-07,-1.7109e-05,-3.4224e+07,-256.61,0,1.1037e+05,-177.07,11096,11599,1,11599,1,-4.1881e-05,-1.4388e-10,0,2.2756e-05,-9.1868e-06,-1.7034e+07,-45.726,0,8.5912e+06,-34.057,11598,12509,1,12509,1,4.9142e-05,3.2156e-10,0,6.8267e-05,7.863e-06,1.7148e+07,102.37,0,2.5495e+07,12.965,12508,527.81,0,527.81,0,5.2533e-05,3.9478e-10,0,2.642e-05,9.8418e-06,1.966e+07,125,0,9.7895e+06,39.49,527.81,1
1820,0.33,12054,1,12054,1,3.7437e-06,2.5499e-10,0,4.6959e-05,-6.8219e-07,-12.694,80.997,0,1.7577e+07,-98.994,12053,12991,1,12991,1,9.4257e-05,2.1599e-09,0,9.4257e-05,1.6277e-05,3.2214e+07,668.88,0,3.5292e+07,71.409,12990,12054,1,12054,1,3.7436e-06,1.1006e-10,0,4.6932e-05,-6.807e-07,1.3532e+06,34.616,0,1.7683e+07,-54.009,12053,11097,1,11097,1,-8.677e-05,-1.1137e-09,0,3.9131e-07,-1.7644e-05,-3.5292e+07,-344.81,0,1.1381e+05,-828.97,11096,11599,1,11599,1,-4.3188e-05,-1.3752e-10,0,2.3466e-05,-9.4739e-06,-1.7566e+07,-43.56,0,8.8593e+06,-163.92,11598,12509,1,12509,1,5.0676e-05,6.273e-10,0,7.0398e-05,8.1084e-06,1.7683e+07,198.43,0,2.6291e+07,5.6247,12508,527.81,0,527.81,0,5.4172e-05,5.9726e-10,0,2.7244e-05,1.0149e-05,2.0274e+07,188.44,0,1.0095e+07,138.45,527.81,1
1820,0.34,12054,1,12054,1,3.8575e-06,-8.564e-11,0,4.8386e-05,-7.0286e-07,-7.8181,-26.774,0,1.8111e+07,-79.807,12053,12991,1,12991,1,9.7119e-05,2.6907e-10,0,9.7119e-05,1.6772e-05,3.3192e+07,91.601,0,3.6364e+07,116.33,12990,12054,1,12054,1,3.8574e-06,-6.4662e-11,0,4.8358e-05,-7.013e-07,1.3944e+06,-21.111,0,1.822e+07,-60.881,12053,11097,1,11097,1,-8.9404e-05,-7.6042e-10,0,4.0312e-07,-1.8179e-05,-3.6364e+07,-235.45,0,1.1725e+05,-340.07,11096,11599,1,11599,1,-4.45e-05,-1.1996e-10,0,2.4179e-05,-9.7615e-06,-1.8099e+07,-38.54,0,9.1283e+06,-146.05,11598,12509,1,12509,1,5.2215e-05,-6.3009e-12,0,7.2536e-05,8.3547e-06,1.822e+07,-1.9917,0,2.709e+07,-6.9072,12508,527.81,0,527.81,0,5.5818e-05,1.4166e-10,0,2.8072e-05,1.0457e-05,2.089e+07,43.607,0,1.0402e+07,86.308,527.81,1
1820,0.35,12054,1,12054,1,3.9706e-06,3.6372e-10,0,4.9805e-05,-7.2335e-07,0.16407,115.52,0,1.8642e+07,-35.375,12053,12991,1,12991,1,9.997e-05,1.9408e-09,0,9.997e-05,1.7264e-05,3.4167e+07,600.97,0,3.7431e+07,42.38,12990,12054,1,12054,1,3.9705e-06,2.3239e-10,0,4.9776e-05,-7.2179e-07,1.4352e+06,73.038,0,1.8754e+07,-24.964,12053,11097,1,11097,1,-9.2029e-05,-6.7303e-10,0,4.1507e-07,-1.8712e-05,-3.7431e+07,-208.36,0,1.2073e+05,-172.71,11096,11599,1,11599,1,-4.5805e-05,-4.377e-11,0,2.4888e-05,-1.0048e-05,-1.863e+07,-13.869,0,9.3961e+06,-71.176,11598,12509,1,12509,1,5.3747e-05,7.2107e-10,0,7.4664e-05,8.5997e-06,1.8754e+07,227.36,0,2.7884e+07,4.365,12508,527.81,0,527.81,0,5.7455e-05,5.093e-10,0,2.8895e-05,1.0764e-05,2.1502e+07,160.91,0,1.0707e+07,47.997,527.81,1
1820,0.36,12054,1,12054,1,4.0845e-06,1.996e-10,0,5.1233e-05,-7.4412e-07,11.824,63.756,0,1.9177e+07,-41.47,12053,12991,1,12991,1,0.00010284,9.0237e-10,0,0.00010284,1.7759e-05,3.5146e+07,279.28,0,3.8504e+07,145.66,12990,12054,1,12054,1,4.0844e-06,1.975e-10,0,5.1203e-05,-7.4239e-07,1.4764e+06,61.439,0,1.9292e+07,-12.827,12053,11097,1,11097,1,-9.4666e-05,-5.3469e-10,0,4.2692e-07,-1.9249e-05,-3.8504e+07,-165.57,0,1.2418e+05,-323.37,11096,11599,1,11599,1,-4.7119e-05,6.1198e-11,0,2.5601e-05,-1.0335e-05,-1.9164e+07,19.941,0,9.6655e+06,-86.71,11598,12509,1,12509,1,5.5287e-05,3.3464e-10,0,7.6805e-05,8.8462e-06,1.9292e+07,108.8,0,2.8684e+07,6.5857,12508,527.81,0,527.81,0,5.9103e-05,1.805e-10,0,2.9724e-05,1.1073e-05,2.2119e+07,57.461,0,1.1014e+07,84.403,527.81,1
1820,0.37,12054,1,12054,1,4.1977e-06,1.78e-11,0,5.2654e-05,-7.6478e-07,5.2032,5.5903,0,1.9708e+07,-58.314,12053,12991,1,12991,1,0.00010568,7.9671e-10,0,0.00010568,1.8251e-05,3.612e+07,246.71,0,3.9571e+07,51.947,12990,12054,1,12054,1,4.1976e-06,2.162e-12,0,5.2623e-05,-7.632e-07,1.5174e+06,0.62425,0,1.9827e+07,-36.279,12053,11097,1,11097,1,-9.7289e-05,-5.5797e-10,0,4.3878e-07,-1.9782e-05,-3.9571e+07,-172.76,0,1.2764e+05,-299.27,11096,11599,1,11599,1,-4.8425e-05,-6.654e-11,0,2.6311e-05,-1.0622e-05,-1.9696e+07,-21.759,0,9.9335e+06,-99.327,11598,12509,1,12509,1,5.682e-05,9.7378e-11,0,7.8934e-05,9.0916e-06,1.9827e+07,31.051,0,2.9479e+07,0.12665,12508,527.81,0,527.81,0,6.0741e-05,1.7562e-10,0,3.0548e-05,1.138e-05,2.2732e+07,54.368,0,1.1319e+07,70.544,527.81,1
1820,0.38,12054,1,12054,1,4.3112e-06,1.6056e-10,0,5.4079e-05,-7.8533e-07,0.84884,51.037,0,2.0242e+07,-4.7403,12053,12991,1,12991,1,0.00010855,3.8994e-10,0,0.00010855,1.8745e-05,3.7097e+07,120.71,0,4.0642e+07,51.81,12990,12054,1,12054,1,4.3112e-06,1.6917e-10,0,5.4046e-05,-7.8356e-07,1.5584e+06,55.241,0,2.0363e+07,-1.8951,12053,11097,1,11097,1,-9.9922e-05,-5.3159e-11,0,4.5074e-07,-2.0317e-05,-4.0642e+07,-16.637,0,1.3113e+05,-64.328,11096,11599,1,11599,1,-4.9735e-05,8.0225e-11,0,2.7023e-05,-1.0909e-05,-2.0228e+07,24.287,0,1.0202e+07,-13.292,11598,12509,1,12509,1,5.8358e-05,2.4213e-10,0,8.107e-05,9.3375e-06,2.0363e+07,77.629,0,3.0276e+07,4.1631,12508,527.81,0,527.81,0,6.2385e-05,1.0455e-10,0,3.1374e-05,1.1687e-05,2.3347e+07,33.099,0,1.1625e+07,17.442,527.81,1
1820,0.39,12054,1,12054,1,4.4248e-06,-4.2765e-10,0,5.5504e-05,-8.0605e-07,-30.768,-136.12,0,2.0775e+07,-18.452,12053,12991,1,12991,1,0.00011141,1.7691e-10,0,0.00011141,1.9239e-05,3.8076e+07,60.589,0,4.1714e+07,55.213,12990,12054,1,12054,1,4.4246e-06,-4.4872e-10,0,5.5471e-05,-8.0424e-07,1.5994e+06,-141.9,0,2.09e+07,-5.6931,12053,11097,1,11097,1,-0.00010256,-9.5583e-10,0,4.6243e-07,-2.0853e-05,-4.1714e+07,-295.95,0,1.3452e+05,-125.3,11096,11599,1,11599,1,-5.1046e-05,-6.8764e-10,0,2.7735e-05,-1.1197e-05,-2.0762e+07,-223.23,0,1.0471e+07,-39.355,11598,12509,1,12509,1,5.9896e-05,-1.8686e-10,0,8.3206e-05,9.5837e-06,2.09e+07,-57.458,0,3.1074e+07,6.23,12508,527.81,0,527.81,0,6.4029e-05,3.0062e-10,0,3.2201e-05,1.1996e-05,2.3963e+07,95.492,0,1.1932e+07,34.822,527.81,1
1820,0.4,12054,1,12054,1,4.538e-06,-1.0195e-11,0,5.6924e-05,-8.2663e-07,-5.3674,-3.1201,0,2.1306e+07,1.3564,12053,12991,1,12991,1,0.00011425,9.6547e-10,0,0.00011425,1.9731e-05,3.9049e+07,310.39,0,4.278e+07,50.703,12990,12054,1,12054,1,4.538e-06,-2.4925e-11,0,5.689e-05,-8.2477e-07,1.6404e+06,-7.7344,0,2.1435e+07,8.0994,12053,11097,1,11097,1,-0.00010518,-6.5584e-10,0,4.7439e-07,-2.1386e-05,-4.278e+07,-203.06,0,1.3801e+05,-133.2,11096,11599,1,11599,1,-5.2352e-05,-1.9585e-10,0,2.8445e-05,-1.1484e-05,-2.1293e+07,-61.015,0,1.0739e+07,-5.7732,11598,12509,1,12509,1,6.1428e-05,1.3547e-10,0,8.5335e-05,9.8289e-06,2.1435e+07,43.01,0,3.1869e+07,18.162,12508,527.81,0,527.81,0,6.5667e-05,2.8662e-10,0,3.3025e-05,1.2302e-05,2.4576e+07,91.299,0,1.2237e+07,27.276,527.81,1
1820,0.41,12054,1,12054,1,4.6516e-06,1.6478e-10,0,5.8347e-05,-8.4739e-07,34.321,52.377,0,2.1839e+07,-27.33,12053,12991,1,12991,1,0.00011711,8.3148e-10,0,0.00011711,2.0224e-05,4.0026e+07,257.4,0,4.385e+07,65.308,12990,12054,1,12054,1,4.6516e-06,1.2889e-10,0,5.8312e-05,-8.4551e-07,1.6814e+06,40.504,0,2.1971e+07,-10.953,12053,11097,1,11097,1,-0.00010781,-4.0114e-10,0,4.8636e-07,-2.1921e-05,-4.385e+07,-124.21,0,1.415e+05,-183.11,11096,11599,1,11599,1,-5.3661e-05,1.0278e-11,0,2.9156e-05,-1.1771e-05,-2.1825e+07,3.2776,0,1.1008e+07,-54.443,11598,12509,1,12509,1,6.2964e-05,2.9097e-10,0,8.7469e-05,1.0075e-05,2.1971e+07,92.656,0,3.2666e+07,2.7295,12508,527.81,0,527.81,0,6.7309e-05,1.868e-10,0,3.3851e-05,1.261e-05,2.519e+07,58.832,0,1.2543e+07,42.554,527.81,1
1820,0.42,12054,1,12054,1,4.7655e-06,6.4215e-12,0,5.9777e-05,-8.6807e-07,-7.2886,2.0445,0,2.2375e+07,1.54,12053,12991,1,12991,1,0.00011998,2.4065e-10,0,0.00011998,2.072e-05,4.1006e+07,78.824,0,4.4924e+07,48.014,12990,12054,1,12054,1,4.7655e-06,-1.0722e-11,0,5.9742e-05,-8.6621e-07,1.7226e+06,-3.3354,0,2.2509e+07,2.6666,12053,11097,1,11097,1,-0.00011045,-1.0087e-10,0,4.9824e-07,-2.2457e-05,-4.4924e+07,-30.852,0,1.4494e+05,-150.08,11096,11599,1,11599,1,-5.4976e-05,-3.8102e-11,0,2.9871e-05,-1.2059e-05,-2.236e+07,-11.982,0,1.1277e+07,-3.1971,11598,12509,1,12509,1,6.4507e-05,3.0574e-11,0,8.9613e-05,1.0322e-05,2.2509e+07,9.6562,0,3.3467e+07,13,12508,527.81,0,527.81,0,6.8959e-05,6.5746e-11,0,3.4681e-05,1.2919e-05,2.5808e+07,21.003,0,1.285e+07,22.607,527.81,1
1820,0.43,12054,1,12054,1,4.8785e-06,2.0581e-10,0,6.1193e-05,-8.8865e-07,44.359,65.416,0,2.2904e+07,1.8811,12053,12991,1,12991,1,0.00012283,8.8925e-10,0,0.00012283,2.1211e-05,4.1978e+07,285.76,0,4.5989e+07,74.816,12990,12054,1,12054,1,4.8785e-06,1.5358e-10,0,6.1157e-05,-8.8683e-07,1.7635e+06,48.053,0,2.3043e+07,5.9283,12053,11097,1,11097,1,-0.00011307,-2.7183e-10,0,5.1013e-07,-2.299e-05,-4.5989e+07,-87.382,0,1.484e+05,-198.02,11096,11599,1,11599,1,-5.6278e-05,3.7721e-13,0,3.0579e-05,-1.2345e-05,-2.289e+07,0.10872,0,1.1544e+07,-5.444,11598,12509,1,12509,1,6.6036e-05,3.8285e-10,0,9.1735e-05,1.0566e-05,2.3043e+07,122.26,0,3.426e+07,16.991,12508,527.81,0,527.81,0,7.0592e-05,2.3831e-10,0,3.5502e-05,1.3225e-05,2.6419e+07,75.739,0,1.3155e+07,30.806,527.81,1
1820,0.44,12054,1,12054,1,4.9921e-06,4.8803e-11,0,6.262e-05,-9.0943e-07,-2.4244,15.399,0,2.3438e+07,-29.822,12053,12991,1,12991,1,0.00012569,3.8974e-10,0,0.00012569,2.1705e-05,4.2956e+07,132.68,0,4.7061e+07,86.901,12990,12054,1,12054,1,4.9921e-06,5.2136e-11,0,6.2582e-05,-9.0737e-07,1.8045e+06,16.851,0,2.358e+07,-21.749,12053,11097,1,11097,1,-0.0001157,-4.788e-10,0,5.219e-07,-2.3526e-05,-4.7061e+07,-163.04,0,1.5182e+05,-198.29,11096,11599,1,11599,1,-5.759e-05,-2.1617e-11,0,3.1291e-05,-1.2633e-05,-2.3423e+07,-6.8198,0,1.1814e+07,-56.532,11598,12509,1,12509,1,6.7574e-05,1.504e-10,0,9.3873e-05,1.0812e-05,2.358e+07,47.082,0,3.5058e+07,-5.3539,12508,527.81,0,527.81,0,7.2238e-05,1.3222e-10,0,3.633e-05,1.3533e-05,2.7035e+07,42.887,0,1.3461e+07,43.482,527.81,1
1820,0.45,12054,1,12054,1,5.1053e-06,3.9717e-11,0,6.4039e-05,-9.2996e-07,25.145,12.494,0,2.397e+07,5.197,12053,12991,1,12991,1,0.00012854,7.1598e-10,0,0.00012854,2.2197e-05,4.393e+07,221.7,0,4.8128e+07,84.629,12990,12054,1,12054,1,5.1053e-06,8.3596e-12,0,6.4001e-05,-9.2796e-07,1.8455e+06,2.5998,0,2.4114e+07,10.308,12053,11097,1,11097,1,-0.00011833,-6.9475e-10,0,5.3381e-07,-2.4059e-05,-4.8128e+07,-220.79,0,1.5529e+05,-292.62,11096,11599,1,11599,1,-5.8896e-05,-1.2069e-10,0,3.2001e-05,-1.2919e-05,-2.3954e+07,-38.105,0,1.2081e+07,-0.96037,11598,12509,1,12509,1,6.9106e-05,2.356e-10,0,9.6002e-05,1.1057e-05,2.4114e+07,74.308,0,3.5853e+07,20.307,12508,527.81,0,527.81,0,7.3875e-05,2.6691e-10,0,3.7153e-05,1.384e-05,2.7647e+07,84.586,0,1.3767e+07,36.454,527.81,1
1820,0.46,12054,1,12054,1,5.219e-06,-1.4795e-11,0,6.5466e-05,-9.5076e-07,-11.861,-4.657,0,2.4504e+07,-29.528,12053,12991,1,12991,1,0.0001314,3.7956e-10,0,0.0001314,2.2692e-05,4.4909e+07,129.16,0,4.92e+07,79.591,12990,12054,1,12054,1,5.219e-06,3.0824e-12,0,6.5427e-05,-9.4862e-07,1.8866e+06,0.9584,0,2.4651e+07,-4.4697,12053,11097,1,11097,1,-0.00012096,-5.5719e-10,0,5.4556e-07,-2.4595e-05,-4.92e+07,-189.65,0,1.5872e+05,-245.68,11096,11599,1,11599,1,-6.0208e-05,-9.7482e-11,0,3.2714e-05,-1.3207e-05,-2.4488e+07,-30.221,0,1.2351e+07,-63.09,11598,12509,1,12509,1,7.0646e-05,6.9882e-11,0,9.8141e-05,1.1304e-05,2.4651e+07,22.333,0,3.6652e+07,8.3676,12508,527.81,0,527.81,0,7.5521e-05,1.408e-10,0,3.7981e-05,1.4149e-05,2.8264e+07,45.241,0,1.4073e+07,59.479,527.81,1
1820,0.47,12054,1,12054,1,5.3325e-06,-1.0808e-10,0,6.689e-05,-9.7148e-07,-20.049,-34.517,0,2.5037e+07,-48.789,12053,12991,1,12991,1,0.00013426,2.6571e-10,0,0.00013426,2.3185e-05,4.5885e+07,90.409,0,5.027e+07,99.689,12990,12054,1,12054,1,5.3325e-06,-1.0093e-10,0,6.685e-05,-9.6923e-07,1.9276e+06,-32.488,0,2.5188e+07,-37.544,12053,11097,1,11097,1,-0.00012359,-5.69e-10,0,5.5734e-07,-2.513e-05,-5.027e+07,-193.68,0,1.6212e+05,-280.17,11096,11599,1,11599,1,-6.1517e-05,-1.8451e-10,0,3.3425e-05,-1.3494e-05,-2.5021e+07,-58.35,0,1.2619e+07,-97.37,11598,12509,1,12509,1,7.2182e-05,-1.7503e-11,0,0.00010027,1.155e-05,2.5188e+07,-5.4669,0,3.7449e+07,3.0436,12508,527.81,0,527.81,0,7.7164e-05,1.1619e-10,0,3.8807e-05,1.4456e-05,2.8878e+07,37.804,0,1.4379e+07,68.265,527.81,1
1820,0.48,12054,1,12054,1,5.4459e-06,1.9913e-10,0,6.831e-05,-9.9204e-07,50.236,63.515,0,2.5568e+07,-14.375,12053,12991,1,12991,1,0.00013711,9.2339e-10,0,0.00013711,2.3678e-05,4.686e+07,285.9,0,5.1337e+07,60.356,12990,12054,1,12054,1,5.4459e-06,1.3275e-10,0,6.8269e-05,-9.8998e-07,1.9686e+06,42.815,0,2.5722e+07,-2.4343,12053,11097,1,11097,1,-0.00012622,-2.6608e-10,0,5.6945e-07,-2.5663e-05,-5.1337e+07,-83.797,0,1.6566e+05,-216.16,11096,11599,1,11599,1,-6.2823e-05,-1.1705e-11,0,3.4135e-05,-1.3781e-05,-2.5552e+07,-3.7509,0,1.2887e+07,-38.537,11598,12509,1,12509,1,7.3715e-05,3.7759e-10,0,0.0001024,1.1795e-05,2.5722e+07,121.64,0,3.8244e+07,14.055,12508,527.81,0,527.81,0,7.8802e-05,2.431e-10,0,3.9631e-05,1.4763e-05,2.9491e+07,77.251,0,1.4685e+07,42.863,527.81,1
1820,0.49,12054,1,12054,1,5.5592e-06,1.6203e-10,0,6.9731e-05,-1.0126e-06,37.244,51.595,0,2.61e+07,-0.94376,12053,12991,1,12991,1,0.00013996,1.2305e-09,0,0.00013996,2.417e-05,4.7835e+07,381.03,0,5.2405e+07,43.378,12990,12054,1,12054,1,5.5591e-06,8.2403e-11,0,6.969e-05,-1.0103e-06,2.0095e+06,26.514,0,2.6258e+07,0.20089,12053,11097,1,11097,1,-0.00012884,-6.5644e-10,0,5.8128e-07,-2.6197e-05,-5.2405e+07,-203.24,0,1.6912e+05,-55.984,11096,11599,1,11599,1,-6.4131e-05,-6.0276e-11,0,3.4845e-05,-1.4067e-05,-2.6083e+07,-19.453,0,1.3155e+07,-10.466,11598,12509,1,12509,1,7.5249e-05,3.8115e-10,0,0.00010453,1.204e-05,2.6258e+07,120.39,0,3.904e+07,9.6319,12508,527.81,0,527.81,0,8.0441e-05,3.4411e-10,0,4.0455e-05,1.507e-05,3.0105e+07,109.35,0,1.499e+07,14.734,527.81,1
1820,0.5,12054,1,12054,1,5.6726e-06,-1.2191e-11,0,7.1154e-05,-1.0333e-06,22.292,-3.7924,0,2.6633e+07,-6.044,12053,12991,1,12991,1,0.00014282,1.2865e-09,0,0.00014282,2.4663e-05,4.8811e+07,398.43,0,5.3475e+07,38.35,12990,12054,1,12054,1,5.6725e-06,-8.7716e-12,0,7.1112e-05,-1.0311e-06,2.0505e+06,-2.762,0,2.6793e+07,-0.089478,12053,11097,1,11097,1,-0.00013147,-9.8366e-10,0,5.9311e-07,-2.6732e-05,-5.3475e+07,-309.4,0,1.7255e+05,-139.2,11096,11599,1,11599,1,-6.5439e-05,-2.8524e-10,0,3.5556e-05,-1.4354e-05,-2.6616e+07,-92.461,0,1.3424e+07,-15.881,11598,12509,1,12509,1,7.6784e-05,2.1338e-10,0,0.00010667,1.2286e-05,2.6793e+07,66.037,0,3.9836e+07,10.21,12508,527.81,0,527.81,0,8.2083e-05,4.3344e-10,0,4.1281e-05,1.5378e-05,3.0719e+07,137.93,0,1.5296e+07,26.542,527.81,1
1820,0.51,12054,1,12054,1,5.7863e-06,-4.5237e-11,0,7.2582e-05,-1.0541e-06,-8.2943,-14.35,0,2.7167e+07,-25.263,12053,12991,1,12991,1,0.00014568,1.8118e-10,0,0.00014568,2.5158e-05,4.979e+07,56.086,0,5.4547e+07,121.48,12990,12054,1,12054,1,5.7863e-06,-3.6512e-11,0,7.2538e-05,-1.0518e-06,2.0916e+06,-11.524,0,2.7331e+07,-4.3016,12053,11097,1,11097,1,-0.00013411,-2.7334e-10,0,6.049e-07,-2.7268e-05,-5.4547e+07,-84.677,0,1.7597e+05,-280.82,11096,11599,1,11599,1,-6.6752e-05,-8.2073e-11,0,3.6269e-05,-1.4642e-05,-2.715e+07,-26.101,0,1.3693e+07,-49.191,11598,12509,1,12509,1,7.8325e-05,-1.3529e-12,0,0.00010881,1.2532e-05,2.7331e+07,-0.45562,0,4.0635e+07,14.447,12508,527.81,0,527.81,0,8.373e-05,6.2974e-11,0,4.2109e-05,1.5686e-05,3.1336e+07,19.94,0,1.5603e+07,68.831,527.81,1
1820,0.52,12054,1,12054,1,5.9006e-06,-1.099e-10,0,7.4011e-05,-1.0749e-06,119.68,-34.956,0,2.7702e+07,-7.9451,12053,12991,1,12991,1,0.00014855,5.1878e-10,0,0.00014855,2.5653e-05,5.0771e+07,160.6,0,5.5621e+07,28.834,12990,12054,1,12054,1,5.9005e-06,-2.4894e-11,0,7.3967e-05,-1.0724e-06,2.1329e+06,-8.5254,0,2.7869e+07,-8.309,12053,11097,1,11097,1,-0.00013675,-1.0299e-09,0,6.1722e-07,-2.7805e-05,-5.5621e+07,-350.58,0,1.796e+05,-59.159,11096,11599,1,11599,1,-6.8066e-05,-2.9954e-10,0,3.6983e-05,-1.4931e-05,-2.7684e+07,-96.02,0,1.3963e+07,-16.311,11598,12509,1,12509,1,7.9867e-05,9.0117e-11,0,0.00011095,1.2779e-05,2.7869e+07,27.941,0,4.1436e+07,0.68833,12508,527.81,0,527.81,0,8.5379e-05,3.1202e-10,0,4.2938e-05,1.5995e-05,3.1953e+07,99.504,0,1.591e+07,14.793,527.81,1
1820,0.53,12054,1,12054,1,6.0129e-06,1.4577e-10,0,7.5424e-05,-1.0953e-06,-4.0794,46.469,0,2.8231e+07,1.7537,12053,12991,1,12991,1,0.00015139,1.4972e-09,0,0.00015139,2.6144e-05,5.1741e+07,463.55,0,5.6684e+07,38.462,12990,12054,1,12054,1,6.0129e-06,5.2911e-11,0,7.538e-05,-1.0928e-06,2.1735e+06,16.357,0,2.8401e+07,3.6254,12053,11097,1,11097,1,-0.00013936,-9.3642e-10,0,6.2861e-07,-2.8336e-05,-5.6684e+07,-289.92,0,1.8288e+05,-98.077,11096,11599,1,11599,1,-6.9367e-05,-1.4266e-10,0,3.769e-05,-1.5216e-05,-2.8213e+07,-45.76,0,1.4229e+07,-7.7124,11598,12509,1,12509,1,8.1393e-05,4.4435e-10,0,0.00011307,1.3023e-05,2.8401e+07,142.85,0,4.2227e+07,15.807,12508,527.81,0,527.81,0,8.7009e-05,4.7643e-10,0,4.3758e-05,1.6301e-05,3.2563e+07,151.76,0,1.6214e+07,19.824,527.81,1
1820,0.54,12054,1,12054,1,6.1261e-06,2.6259e-10,0,7.6845e-05,-1.1159e-06,-21.433,83.616,0,2.8763e+07,4.2773,12053,12991,1,12991,1,0.00015424,1.941e-09,0,0.00015424,2.6636e-05,5.2715e+07,615.99,0,5.7752e+07,39.111,12990,12054,1,12054,1,6.1261e-06,1.29e-10,0,7.68e-05,-1.1133e-06,2.2144e+06,41.951,0,2.8936e+07,4.0326,12053,11097,1,11097,1,-0.00014199,-9.2063e-10,0,6.4038e-07,-2.887e-05,-5.7752e+07,-291.85,0,1.863e+05,-63.12,11096,11599,1,11599,1,-7.0673e-05,-1.1391e-10,0,3.84e-05,-1.5502e-05,-2.8745e+07,-35.282,0,1.4497e+07,-8.385,11598,12509,1,12509,1,8.2926e-05,6.5263e-10,0,0.0001152,1.3269e-05,2.8936e+07,206.42,0,4.3023e+07,17.953,12508,527.81,0,527.81,0,8.8648e-05,5.804e-10,0,4.4582e-05,1.6608e-05,3.3176e+07,184.94,0,1.6519e+07,16.043,527.81,1
1820,0.55,12054,1,12054,1,6.2402e-06,2.5475e-10,0,7.8273e-05,-1.1367e-06,63.013,80.952,0,2.9297e+07,-4.8503,12053,12991,1,12991,1,0.00015711,7.3635e-10,0,0.00015711,2.7131e-05,5.3695e+07,224.31,0,5.8825e+07,40.341,12990,12054,1,12054,1,6.2402e-06,2.2253e-10,0,7.8226e-05,-1.1342e-06,2.2557e+06,71.771,0,2.9474e+07,-0.56814,12053,11097,1,11097,1,-0.00014463,-1.1254e-10,0,6.5253e-07,-2.9407e-05,-5.8825e+07,-36.195,0,1.8985e+05,-150.17,11096,11599,1,11599,1,-7.1986e-05,6.2179e-11,0,3.9113e-05,-1.579e-05,-2.9278e+07,20.093,0,1.4767e+07,-10.992,11598,12509,1,12509,1,8.4467e-05,4.4084e-10,0,0.00011734,1.3515e-05,2.9474e+07,141.58,0,4.3822e+07,8.112,12508,527.81,0,527.81,0,9.0295e-05,2.1832e-10,0,4.5411e-05,1.6916e-05,3.3793e+07,69.303,0,1.6826e+07,21.44,527.81,1
1820,0.56,12054,1,12054,1,6.3536e-06,1.703e-10,0,7.9696e-05,-1.1573e-06,38.461,54.137,0,2.983e+07,-0.44935,12053,12991,1,12991,1,0.00015996,5.8635e-10,0,0.00015996,2.7624e-05,5.467e+07,186.64,0,5.9894e+07,11.912,12990,12054,1,12054,1,6.3535e-06,1.6395e-10,0,7.9648e-05,-1.1546e-06,2.2967e+06,51.724,0,3.001e+07,-0.82093,12053,11097,1,11097,1,-0.00014726,-9.2771e-11,0,6.6434e-07,-2.9941e-05,-5.9894e+07,-31.773,0,1.9328e+05,-24.006,11096,11599,1,11599,1,-7.3295e-05,3.6544e-11,0,3.9824e-05,-1.6077e-05,-2.9811e+07,11.743,0,1.5035e+07,-3.4948,11598,12509,1,12509,1,8.6002e-05,2.9464e-10,0,0.00011947,1.3761e-05,3.001e+07,94.999,0,4.4618e+07,3.031,12508,527.81,0,527.81,0,9.1936e-05,1.5547e-10,0,4.6236e-05,1.7224e-05,3.4407e+07,49.263,0,1.7132e+07,4.8674,527.81,1
1820,0.57,12054,1,12054,1,6.4669e-06,1.291e-10,0,8.1117e-05,-1.178e-06,28.984,41.239,0,3.0362e+07,4.3679,12053,12991,1,12991,1,0.00016282,1.1916e-09,0,0.00016282,2.8117e-05,5.5646e+07,376.31,0,6.0963e+07,72.037,12990,12054,1,12054,1,6.4668e-06,2.8618e-11,0,8.1069e-05,-1.1754e-06,2.3376e+06,9.2762,0,3.0545e+07,3.941,12053,11097,1,11097,1,-0.00014988,-5.6557e-10,0,6.7613e-07,-3.0475e-05,-6.0963e+07,-181.81,0,1.9672e+05,-181.72,11096,11599,1,11599,1,-7.4602e-05,-1.0505e-10,0,4.0535e-05,-1.6364e-05,-3.0343e+07,-32.992,0,1.5303e+07,-5.0388,11598,12509,1,12509,1,8.7536e-05,3.3181e-10,0,0.0001216,1.4006e-05,3.0545e+07,105.65,0,4.5414e+07,13.242,12508,527.81,0,527.81,0,9.3576e-05,3.5845e-10,0,4.7061e-05,1.7531e-05,3.5021e+07,114.29,0,1.7438e+07,27.423,527.81,1
1820,0.58,12054,1,12054,1,6.5805e-06,1.9554e-10,0,8.2543e-05,-1.1987e-06,32.563,62.153,0,3.0896e+07,-7.2097,12053,12991,1,12991,1,0.00016568,7.3262e-10,0,0.00016568,2.8611e-05,5.6624e+07,224.64,0,6.2034e+07,11.711,12990,12054,1,12054,1,6.5805e-06,1.2247e-10,0,8.2494e-05,-1.196e-06,2.3787e+06,38.89,0,3.1082e+07,-5.271,12053,11097,1,11097,1,-0.00015252,-1.504e-10,0,6.8807e-07,-3.101e-05,-6.2034e+07,-48.374,0,2.0018e+05,-65.293,11096,11599,1,11599,1,-7.5913e-05,-5.4782e-12,0,4.1247e-05,-1.6652e-05,-3.0876e+07,-1.583,0,1.5572e+07,-11.51,11598,12509,1,12509,1,8.9074e-05,3.7223e-10,0,0.00012374,1.4252e-05,3.1082e+07,118.89,0,4.6212e+07,-0.38139,12508,527.81,0,527.81,0,9.5221e-05,2.3113e-10,0,4.7888e-05,1.7839e-05,3.5636e+07,73.331,0,1.7744e+07,9.8799,527.81,1
1820,0.59,12054,1,12054,1,6.694e-06,1.515e-10,0,8.3967e-05,-1.2194e-06,-0.011793,48.231,0,3.1429e+07,-0.84471,12053,12991,1,12991,1,0.00016854,3.8401e-10,0,0.00016854,2.9104e-05,5.76e+07,118.9,0,6.3104e+07,32.427,12990,12054,1,12054,1,6.694e-06,1.4434e-10,0,8.3917e-05,-1.2166e-06,2.4197e+06,46.025,0,3.1618e+07,0.076936,12053,11097,1,11097,1,-0.00015515,-3.5625e-11,0,6.9988e-07,-3.1545e-05,-6.3104e+07,-12.197,0,2.0361e+05,-81.714,11096,11599,1,11599,1,-7.7223e-05,7.6825e-11,0,4.1958e-05,-1.6939e-05,-3.1408e+07,24.463,0,1.5841e+07,-3.9955,11598,12509,1,12509,1,9.0611e-05,2.2464e-10,0,0.00012588,1.4498e-05,3.1618e+07,72.154,0,4.701e+07,4.7483,12508,527.81,0,527.81,0,9.6864e-05,9.8038e-11,0,4.8714e-05,1.8147e-05,3.6251e+07,31.182,0,1.8051e+07,11.962,527.81,1
1820,0.6,12054,1,12054,1,6.8071e-06,2.1747e-10,0,8.5386e-05,-1.24e-06,4.1382,69.335,0,3.196e+07,-0.085306,12053,12991,1,12991,1,0.00017138,1.3101e-09,0,0.00017138,2.9597e-05,5.8574e+07,407.86,0,6.4171e+07,26.634,12990,12054,1,12054,1,6.807e-06,1.387e-10,0,8.5335e-05,-1.237e-06,2.4606e+06,44.948,0,3.2152e+07,0.95651,12053,11097,1,11097,1,-0.00015777,-5.5655e-10,0,7.1169e-07,-3.2079e-05,-6.4171e+07,-178.94,0,2.0705e+05,-31.79,11096,11599,1,11599,1,-7.8528e-05,-4.5864e-11,0,4.2668e-05,-1.7225e-05,-3.1939e+07,-14.419,0,1.6109e+07,-7.8079,11598,12509,1,12509,1,9.2142e-05,4.6721e-10,0,0.000128,1.4743e-05,3.2152e+07,147.4,0,4.7804e+07,7.897,12508,527.81,0,527.81,0,9.85e-05,3.6197e-10,0,4.9537e-05,1.8454e-05,3.6863e+07,115.6,0,1.8356e+07,10.484,527.81,1
1820,0.61,12054,1,12054,1,6.9207e-06,9.6971e-12,0,8.6812e-05,-1.2606e-06,-37.3,3.0938,0,3.2494e+07,3.8827,12053,12991,1,12991,1,0.00017425,5.6969e-10,0,0.00017425,3.0091e-05,5.9552e+07,183.19,0,6.5242e+07,65.636,12990,12054,1,12054,1,6.9207e-06,-1.9459e-12,0,8.6761e-05,-1.2578e-06,2.5017e+06,-0.65486,0,3.269e+07,5.2926,12053,11097,1,11097,1,-0.0001604,-4.4453e-10,0,7.2347e-07,-3.2614e-05,-6.5242e+07,-142.87,0,2.1046e+05,-128.28,11096,11599,1,11599,1,-7.984e-05,-1.2175e-10,0,4.338e-05,-1.7513e-05,-3.2473e+07,-38.134,0,1.6378e+07,-0.8607,11598,12509,1,12509,1,9.3682e-05,1.0076e-10,0,0.00013014,1.499e-05,3.269e+07,32.863,0,4.8603e+07,14.842,12508,527.81,0,527.81,0,0.00010015,1.8604e-10,0,5.0365e-05,1.8762e-05,3.7479e+07,59.088,0,1.8662e+07,22.539,527.81,1
1820,0.62,12054,1,12054,1,7.0342e-06,1.3199e-10,0,8.8232e-05,-1.2813e-06,78.664,41.965,0,3.3025e+07,-0.34332,12053,12991,1,12991,1,0.0001771,1.3112e-09,0,0.0001771,3.0583e-05,6.0527e+07,421.46,0,6.631e+07,30.377,12990,12054,1,12054,1,7.0342e-06,4.474e-11,0,8.818e-05,-1.2783e-06,2.5427e+06,14.569,0,3.3224e+07,-0.65321,12053,11097,1,11097,1,-0.00016303,-7.3241e-10,0,7.3562e-07,-3.3148e-05,-6.631e+07,-233.44,0,2.1404e+05,-29.625,11096,11599,1,11599,1,-8.1146e-05,-1.3414e-10,0,4.409e-05,-1.78e-05,-3.3004e+07,-43.013,0,1.6646e+07,-9.3067,11598,12509,1,12509,1,9.5215e-05,3.8255e-10,0,0.00013227,1.5235e-05,3.3224e+07,123.39,0,4.9398e+07,8.9528,12508,527.81,0,527.81,0,0.00010178,4.1537e-10,0,5.1189e-05,1.9069e-05,3.8092e+07,132.33,0,1.8967e+07,11.588,527.81,1
1820,0.63,12054,1,12054,1,7.1476e-06,2.2814e-10,0,8.9658e-05,-1.302e-06,-1.083,72.444,0,3.3559e+07,4.2673,12053,12991,1,12991,1,0.00017996,1.0172e-09,0,0.00017996,3.1077e-05,6.1504e+07,316.23,0,6.7381e+07,39.198,12990,12054,1,12054,1,7.1476e-06,1.3308e-10,0,8.9605e-05,-1.2989e-06,2.5837e+06,42.807,0,3.3761e+07,3.1648,12053,11097,1,11097,1,-0.00016566,-3.6849e-10,0,7.4727e-07,-3.3683e-05,-6.7381e+07,-118.48,0,2.1741e+05,-35.129,11096,11599,1,11599,1,-8.2457e-05,-2.1357e-11,0,4.4802e-05,-1.8087e-05,-3.3537e+07,-6.8652,0,1.6915e+07,-3.99,11598,12509,1,12509,1,9.6752e-05,4.4536e-10,0,0.00013441,1.5481e-05,3.3761e+07,143.29,0,5.0196e+07,10.681,12508,527.81,0,527.81,0,0.00010343,3.1778e-10,0,5.2016e-05,1.9377e-05,3.8708e+07,100.87,0,1.9274e+07,11.847,527.81,1
1820,0.64,12054,1,12054,1,7.2613e-06,2.9671e-10,0,9.1083e-05,-1.3227e-06,21.324,94.141,0,3.4092e+07,-2.131,12053,12991,1,12991,1,0.00018282,6.4592e-10,0,0.00018282,3.1571e-05,6.2482e+07,199.98,0,6.8452e+07,11.435,12990,12054,1,12054,1,7.2613e-06,3.1179e-10,0,9.1029e-05,-1.3196e-06,2.6248e+06,99.107,0,3.4298e+07,-1.5401,12053,11097,1,11097,1,-0.0001683,-8.3003e-11,0,7.5922e-07,-3.4219e-05,-6.8452e+07,-28.428,0,2.2089e+05,-33.217,11096,11599,1,11599,1,-8.3767e-05,1.344e-10,0,4.5514e-05,-1.8375e-05,-3.407e+07,41.276,0,1.7183e+07,-4.0789,11598,12509,1,12509,1,9.829e-05,4.7409e-10,0,0.00013654,1.5727e-05,3.4298e+07,151.38,0,5.0994e+07,1.6346,12508,527.81,0,527.81,0,0.00010507,2.0106e-10,0,5.2843e-05,1.9685e-05,3.9323e+07,63.547,0,1.958e+07,5.9566,527.81,1
1820,0.65,12054,1,12054,1,7.3748e-06,1.6624e-10,0,9.2507e-05,-1.3434e-06,22.261,52.826,0,3.4625e+07,-3.8281,12053,12991,1,12991,1,0.00018568,4.7113e-10,0,0.00018568,3.2064e-05,6.3458e+07,145.87,0,6.9521e+07,12.366,12990,12054,1,12054,1,7.3748e-06,1.6039e-10,0,9.2451e-05,-1.3403e-06,2.6658e+06,51.175,0,3.4834e+07,-2.4501,12053,11097,1,11097,1,-0.00017093,-9.5841e-11,0,7.7109e-07,-3.4753e-05,-6.9521e+07,-28.1,0,2.2434e+05,-30.038,11096,11599,1,11599,1,-8.5076e-05,4.2321e-11,0,4.6226e-05,-1.8662e-05,-3.4603e+07,13.295,0,1.7452e+07,-5.9033,11598,12509,1,12509,1,9.9826e-05,2.7532e-10,0,0.00013868,1.5973e-05,3.4834e+07,88.415,0,5.1791e+07,-0.70088,12508,527.81,0,527.81,0,0.00010672,1.3631e-10,0,5.3669e-05,1.9993e-05,3.9938e+07,43.217,0,1.9886e+07,5.8885,527.81,1
1820,0.66,12054,1,12054,1,7.4881e-06,2.0669e-10,0,9.3928e-05,-1.364e-06,20.147,65.946,0,3.5157e+07,-3.3862,12053,12991,1,12991,1,0.00018853,6.6088e-10,0,0.00018853,3.2557e-05,6.4434e+07,201.35,0,7.059e+07,13.387,12990,12054,1,12054,1,7.4881e-06,1.6178e-10,0,9.3872e-05,-1.3609e-06,2.7068e+06,50.242,0,3.5369e+07,-1.7834,12053,11097,1,11097,1,-0.00017355,-1.5877e-10,0,7.8295e-07,-3.5288e-05,-7.059e+07,-51.061,0,2.2779e+05,-49.651,11096,11599,1,11599,1,-8.6384e-05,2.402e-11,0,4.6936e-05,-1.8949e-05,-3.5134e+07,7.4624,0,1.772e+07,-7.205,11598,12509,1,12509,1,0.00010136,3.6692e-10,0,0.00014081,1.6218e-05,3.5369e+07,118.61,0,5.2586e+07,2.9979,12508,527.81,0,527.81,0,0.00010835,2.0951e-10,0,5.4493e-05,2.03e-05,4.0551e+07,67.001,0,2.0192e+07,9.2994,527.81,1
1820,0.67,12054,1,12054,1,7.6017e-06,1.4547e-10,0,9.5352e-05,-1.3847e-06,16.834,46.349,0,3.569e+07,2.7938,12053,12991,1,12991,1,0.00019139,4.6653e-10,0,0.00019139,3.3051e-05,6.541e+07,143.93,0,7.166e+07,34.752,12990,12054,1,12054,1,7.6017e-06,1.1392e-10,0,9.5296e-05,-1.3814e-06,2.7478e+06,35.869,0,3.5905e+07,0.77435,12053,11097,1,11097,1,-0.00017618,-8.1088e-11,0,7.948e-07,-3.5823e-05,-7.166e+07,-27.772,0,2.3124e+05,-20.676,11096,11599,1,11599,1,-8.7694e-05,2.8714e-11,0,4.7648e-05,-1.9236e-05,-3.5667e+07,9.0109,0,1.7989e+07,-2.4467,11598,12509,1,12509,1,0.0001029,2.5318e-10,0,0.00014294,1.6464e-05,3.5905e+07,80.78,0,5.3384e+07,5.7623,12508,527.81,0,527.81,0,0.00011,1.3992e-10,0,5.532e-05,2.0608e-05,4.1166e+07,44.643,0,2.0498e+07,9.1127,527.81,1
1820,0.68,12054,1,12054,1,7.715e-06,1.1846e-10,0,9.6774e-05,-1.4053e-06,27.121,37.584,0,3.6222e+07,0.72574,12053,12991,1,12991,1,0.00019424,5.7873e-10,0,0.00019424,3.3544e-05,6.6386e+07,186.09,0,7.2729e+07,30.621,12990,12054,1,12054,1,7.715e-06,6.0016e-11,0,9.6717e-05,-1.4021e-06,2.7888e+06,19.274,0,3.6441e+07,1.0846,12053,11097,1,11097,1,-0.00017881,-2.8181e-10,0,8.0668e-07,-3.6357e-05,-7.2729e+07,-90.579,0,2.3469e+05,-29.01,11096,11599,1,11599,1,-8.9002e-05,-2.8409e-11,0,4.8358e-05,-1.9523e-05,-3.6199e+07,-8.912,0,1.8257e+07,-3.667,11598,12509,1,12509,1,0.00010443,2.6201e-10,0,0.00014508,1.671e-05,3.6441e+07,82.739,0,5.418e+07,5.4585,12508,527.81,0,527.81,0,0.00011164,1.9753e-10,0,5.6145e-05,2.0915e-05,4.178e+07,62.646,0,2.0804e+07,8.1113,527.81,1
1820,0.69,12054,1,12054,1,7.8286e-06,1.1923e-10,0,9.8199e-05,-1.426e-06,-6.3292,37.916,0,3.6756e+07,-4.1377,12053,12991,1,12991,1,0.0001971,3.7167e-10,0,0.0001971,3.4037e-05,6.7363e+07,116.96,0,7.3799e+07,10.636,12990,12054,1,12054,1,7.8285e-06,1.0714e-10,0,9.814e-05,-1.4227e-06,2.8299e+06,34.256,0,3.6977e+07,-3.14,12053,11097,1,11097,1,-0.00018144,-1.5994e-10,0,8.1849e-07,-3.6892e-05,-7.3799e+07,-54.446,0,2.3813e+05,-37.338,11096,11599,1,11599,1,-9.0312e-05,1.7937e-11,0,4.907e-05,-1.981e-05,-3.6732e+07,5.5667,0,1.8526e+07,-7.0314,11598,12509,1,12509,1,0.00010597,2.1612e-10,0,0.00014721,1.6956e-05,3.6977e+07,68.811,0,5.4978e+07,0.042689,12508,527.81,0,527.81,0,0.00011328,1.167e-10,0,5.6971e-05,2.1223e-05,4.2395e+07,37.142,0,2.111e+07,6.2985,527.81,1
1820,0.7,12054,1,12054,1,7.9418e-06,1.1357e-10,0,9.9618e-05,-1.4466e-06,32.495,36.016,0,3.7287e+07,0.027672,12053,12991,1,12991,1,0.00019995,1.1239e-09,0,0.00019995,3.4529e-05,6.8337e+07,343.61,0,7.4866e+07,27.86,12990,12054,1,12054,1,7.9418e-06,3.2401e-11,0,9.9559e-05,-1.4433e-06,2.8708e+06,10.155,0,3.7512e+07,0.61397,12053,11097,1,11097,1,-0.00018407,-6.6791e-10,0,8.3037e-07,-3.7425e-05,-7.4866e+07,-214.7,0,2.4159e+05,-48.851,11096,11599,1,11599,1,-9.1617e-05,-1.1282e-10,0,4.9779e-05,-2.0096e-05,-3.7263e+07,-35.152,0,1.8794e+07,-8.6717,11598,12509,1,12509,1,0.0001075,3.4603e-10,0,0.00014934,1.7201e-05,3.7512e+07,111.23,0,5.5772e+07,9.2436,12508,527.81,0,527.81,0,0.00011492,3.627e-10,0,5.7794e-05,2.1529e-05,4.3008e+07,115.25,0,2.1415e+07,12.632,527.81,1
1820,0.71,12054,1,12054,1,8.0555e-06,1.969e-10,0,0.00010105,-1.4674e-06,-1.8798,62.623,0,3.7821e+07,-2.8258,12053,12991,1,12991,1,0.00020282,4.4925e-10,0,0.00020282,3.5024e-05,6.9316e+07,139.1,0,7.5939e+07,46.605,12990,12054,1,12054,1,8.0555e-06,2.1787e-10,0,0.00010099,-1.4641e-06,2.9119e+06,68.173,0,3.8049e+07,-2.2197,12053,11097,1,11097,1,-0.0001867,-8.6341e-11,0,8.4222e-07,-3.7962e-05,-7.5939e+07,-29.571,0,2.4504e+05,-98.835,11096,11599,1,11599,1,-9.293e-05,5.8205e-11,0,5.0493e-05,-2.0384e-05,-3.7797e+07,17.909,0,1.9063e+07,-5.0978,11598,12509,1,12509,1,0.00010904,3.357e-10,0,0.00015148,1.7447e-05,3.8049e+07,108.76,0,5.6572e+07,-0.31377,12508,527.81,0,527.81,0,0.00011657,1.5354e-10,0,5.8623e-05,2.1838e-05,4.3624e+07,48.718,0,2.1722e+07,9.3705,527.81,1
1820,0.72,12054,1,12054,1,8.169e-06,2.0147e-10,0,0.00010247,-1.488e-06,14.217,64.142,0,3.8354e+07,-2.2765,12053,12991,1,12991,1,0.00020567,6.2431e-10,0,0.00020567,3.5517e-05,7.0292e+07,192.35,0,7.7008e+07,15.408,12990,12054,1,12054,1,8.1689e-06,1.6225e-10,0,0.00010241,-1.4846e-06,2.9529e+06,52.049,0,3.8585e+07,-1.4452,12053,11097,1,11097,1,-0.00018933,-8.9142e-11,0,8.5413e-07,-3.8496e-05,-7.7008e+07,-28.514,0,2.485e+05,-32.565,11096,11599,1,11599,1,-9.4238e-05,5.9238e-11,0,5.1204e-05,-2.0671e-05,-3.8329e+07,18.627,0,1.9331e+07,-5.6803,11598,12509,1,12509,1,0.00011058,3.4997e-10,0,0.00015361,1.7693e-05,3.8585e+07,111.12,0,5.7368e+07,2.8683,12508,527.81,0,527.81,0,0.00011821,1.8044e-10,0,5.9448e-05,2.2145e-05,4.4238e+07,57.393,0,2.2028e+07,7.1557,527.81,1
1820,0.73,12054,1,12054,1,8.2822e-06,2.5733e-11,0,0.00010389,-1.5087e-06,4.9761,8.18,0,3.8886e+07,-2.3638,12053,12991,1,12991,1,0.00020852,1.0737e-09,0,0.00020852,3.601e-05,7.1267e+07,360.89,0,7.8076e+07,39.122,12990,12054,1,12054,1,8.2822e-06,-7.3009e-12,0,0.00010383,-1.5052e-06,2.9939e+06,-2.4176,0,3.912e+07,-4.1388,12053,11097,1,11097,1,-0.00019196,-6.8607e-10,0,8.6593e-07,-3.903e-05,-7.8076e+07,-220.52,0,2.5193e+05,-59.076,11096,11599,1,11599,1,-9.5546e-05,-2.5332e-10,0,5.1914e-05,-2.0958e-05,-3.8861e+07,-80.032,0,1.9599e+07,-12.644,11598,12509,1,12509,1,0.00011211,2.2672e-10,0,0.00015574,1.7938e-05,3.912e+07,72.683,0,5.8164e+07,6.8856,12508,527.81,0,527.81,0,0.00011985,3.814e-10,0,6.0273e-05,2.2453e-05,4.4852e+07,121.73,0,2.2333e+07,15.026,527.81,1
1820,0.74,12054,1,12054,1,8.3958e-06,1.601e-10,0,0.00010531,-1.5294e-06,27.266,50.85,0,3.9419e+07,0.44864,12053,12991,1,12991,1,0.00021138,8.8371e-10,0,0.00021138,3.6504e-05,7.2244e+07,279.04,0,7.9147e+07,22.391,12990,12054,1,12054,1,8.3958e-06,7.7591e-11,0,0.00010525,-1.5258e-06,3.0349e+06,25.395,0,3.9656e+07,-0.25161,12053,11097,1,11097,1,-0.00019459,-2.4574e-10,0,8.7782e-07,-3.9565e-05,-7.9147e+07,-79.012,0,2.554e+05,-24.344,11096,11599,1,11599,1,-9.6855e-05,-2.7908e-11,0,5.2626e-05,-2.1246e-05,-3.9393e+07,-9.2359,0,1.9868e+07,-5.5511,11598,12509,1,12509,1,0.00011365,3.3765e-10,0,0.00015788,1.8184e-05,3.9656e+07,106.64,0,5.8961e+07,6.6758,12508,527.81,0,527.81,0,0.00012149,2.5052e-10,0,6.1099e-05,2.276e-05,4.5467e+07,79.448,0,2.2639e+07,8.2966,527.81,1
1820,0.75,12054,1,12054,1,8.5092e-06,2.6812e-10,0,0.00010674,-1.55e-06,19.5,85.217,0,3.9951e+07,-2.1348,12053,12991,1,12991,1,0.00021424,1.1267e-09,0,0.00021424,3.6997e-05,7.322e+07,358.1,0,8.0216e+07,24.616,12990,12054,1,12054,1,8.5092e-06,1.5803e-10,0,0.00010667,-1.5464e-06,3.0759e+06,50.365,0,4.0192e+07,-1.5931,12053,11097,1,11097,1,-0.00019722,-2.1716e-10,0,8.897e-07,-4.01e-05,-8.0216e+07,-69.84,0,2.5885e+05,-37.302,11096,11599,1,11599,1,-9.8164e-05,-4.0268e-12,0,5.3336e-05,-2.1532e-05,-3.9925e+07,-1.2916,0,2.0137e+07,-8.5682,11598,12509,1,12509,1,0.00011518,4.8643e-10,0,0.00016001,1.843e-05,4.0192e+07,155.94,0,5.9757e+07,5.5444,12508,527.81,0,527.81,0,0.00012313,3.2972e-10,0,6.1924e-05,2.3068e-05,4.6081e+07,104.78,0,2.2945e+07,11.176,527.81,1
1820,0.76,12054,1,12054,1,8.6226e-06,2.8125e-10,0,0.00010816,-1.5707e-06,15.112,89.397,0,4.0484e+07,3.5961,12053,12991,1,12991,1,0.00021709,8.9305e-10,0,0.00021709,3.749e-05,7.4196e+07,280.19,0,8.1285e+07,35.817,12990,12054,1,12054,1,8.6226e-06,2.2968e-10,0,0.00010809,-1.567e-06,3.1169e+06,73.703,0,4.0728e+07,2.5715,12053,11097,1,11097,1,-0.00019985,-2.2356e-10,0,9.0154e-07,-4.0634e-05,-8.1285e+07,-71.928,0,2.623e+05,-43.042,11096,11599,1,11599,1,-9.9472e-05,2.7783e-11,0,5.4047e-05,-2.1819e-05,-4.0458e+07,8.5423,0,2.0405e+07,-5.2473,11598,12509,1,12509,1,0.00011672,5.0569e-10,0,0.00016214,1.8675e-05,4.0728e+07,161.2,0,6.0554e+07,11.25,12508,527.81,0,527.81,0,0.00012477,2.8307e-10,0,6.275e-05,2.3375e-05,4.6695e+07,89.92,0,2.3251e+07,11.441,527.81,1
1820,0.77,12054,1,12054,1,8.736e-06,1.9937e-10,0,0.00010958,-1.5913e-06,-3.1676,63.444,0,4.1016e+07,1.376,12053,12991,1,12991,1,0.00021995,1.2274e-09,0,0.00021995,3.7983e-05,7.5172e+07,390.77,0,8.2354e+07,29.867,12990,12054,1,12054,1,8.7359e-06,8.9558e-11,0,0.00010952,-1.5876e-06,3.1579e+06,28.216,0,4.1263e+07,1.8083,12053,11097,1,11097,1,-0.00020248,-3.9857e-10,0,9.1337e-07,-4.1168e-05,-8.2354e+07,-128.15,0,2.6573e+05,-27.451,11096,11599,1,11599,1,-0.00010078,-3.9395e-11,0,5.4758e-05,-2.2106e-05,-4.099e+07,-12.275,0,2.0673e+07,-5.5364,11598,12509,1,12509,1,0.00011825,3.9528e-10,0,0.00016427,1.8921e-05,4.1263e+07,124.67,0,6.135e+07,7.7167,12508,527.81,0,527.81,0,0.00012641,3.4016e-10,0,6.3575e-05,2.3683e-05,4.7309e+07,108.34,0,2.3557e+07,9.7612,527.81,1
1820,0.78,12054,1,12054,1,8.8495e-06,1.0356e-10,0,0.00011101,-1.612e-06,4.3069,32.94,0,4.1549e+07,-5.0053,12053,12991,1,12991,1,0.00022281,8.099e-10,0,0.00022281,3.8476e-05,7.6148e+07,260.39,0,8.3424e+07,26.343,12990,12054,1,12054,1,8.8495e-06,3.1876e-11,0,0.00011094,-1.6082e-06,3.1989e+06,9.888,0,4.1799e+07,-3.1707,12053,11097,1,11097,1,-0.00020511,-4.0249e-10,0,9.2525e-07,-4.1703e-05,-8.3424e+07,-129.49,0,2.6919e+05,-140.47,11096,11599,1,11599,1,-0.00010209,-6.8916e-11,0,5.547e-05,-2.2394e-05,-4.1522e+07,-22.331,0,2.0942e+07,-11.512,11598,12509,1,12509,1,0.00011979,2.7994e-10,0,0.00016641,1.9167e-05,4.1799e+07,88.193,0,6.2147e+07,4.5865,12508,527.81,0,527.81,0,0.00012805,2.5401e-10,0,6.4401e-05,2.399e-05,4.7924e+07,80.855,0,2.3863e+07,15.41,527.81,1
1820,0.79,12054,1,12054,1,8.9627e-06,9.6503e-11,0,0.00011243,-1.6326e-06,-5.8608,30.675,0,4.2081e+07,2.4743,12053,12991,1,12991,1,0.00022566,1.2915e-09,0,0.00022566,3.8969e-05,7.7123e+07,391.69,0,8.4492e+07,27.497,12990,12054,1,12054,1,8.9627e-06,4.2213e-11,0,0.00011236,-1.6288e-06,3.2398e+06,12.841,0,4.2334e+07,2.1354,12053,11097,1,11097,1,-0.00020773,-8.9605e-10,0,9.3705e-07,-4.2237e-05,-8.4492e+07,-284.58,0,2.7261e+05,-61.374,11096,11599,1,11599,1,-0.0001034,-1.7327e-10,0,5.618e-05,-2.268e-05,-4.2054e+07,-54.501,0,2.121e+07,-6.7158,11598,12509,1,12509,1,0.00012132,3.6277e-10,0,0.00016854,1.9412e-05,4.2334e+07,114.58,0,6.2943e+07,13.067,12508,527.81,0,527.81,0,0.00012969,4.4044e-10,0,6.5225e-05,2.4297e-05,4.8537e+07,140.17,0,2.4168e+07,13.207,527.81,1
1820,0.8,12054,1,12054,1,9.0766e-06,2.8847e-10,0,0.00011385,-1.6534e-06,33.321,91.857,0,4.2615e+07,-5.4693,12053,12991,1,12991,1,0.00022852,1.0023e-09,0,0.00022852,3.9464e-05,7.8102e+07,319.12,0,8.5564e+07,14.252,12990,12054,1,12054,1,9.0766e-06,2.075e-10,0,0.00011379,-1.6495e-06,3.281e+06,66.129,0,4.2872e+07,-4.3389,12053,11097,1,11097,1,-0.00021037,-1.5358e-10,0,9.4906e-07,-4.2773e-05,-8.5564e+07,-49.421,0,2.7613e+05,-38.453,11096,11599,1,11599,1,-0.00010471,1.9713e-11,0,5.6893e-05,-2.2968e-05,-4.2587e+07,6.4488,0,2.1479e+07,-10.8,11598,12509,1,12509,1,0.00012286,5.1858e-10,0,0.00017068,1.9659e-05,4.2872e+07,163.46,0,6.3742e+07,2.2965,12508,527.81,0,527.81,0,0.00013134,3.0636e-10,0,6.6053e-05,2.4606e-05,4.9153e+07,97.776,0,2.4475e+07,10.07,527.81,1
1820,0.81,12054,1,12054,1,9.1898e-06,1.6445e-10,0,0.00011527,-1.674e-06,-10.852,52.267,0,4.3147e+07,7.2746,12053,12991,1,12991,1,0.00023137,1.513e-09,0,0.00023137,3.9956e-05,7.9077e+07,480.92,0,8.6632e+07,55.565,12990,12054,1,12054,1,9.1898e-06,2.7645e-11,0,0.00011521,-1.67e-06,3.3219e+06,8.8817,0,4.3407e+07,3.9896,12053,11097,1,11097,1,-0.00021299,-4.6448e-10,0,9.6076e-07,-4.3307e-05,-8.6632e+07,-149.33,0,2.7952e+05,-20.735,11096,11599,1,11599,1,-0.00010602,-8.6262e-11,0,5.7603e-05,-2.3255e-05,-4.3119e+07,-27.718,0,2.1747e+07,-3.3066,11598,12509,1,12509,1,0.0001244,3.5395e-10,0,0.00017281,1.9904e-05,4.3407e+07,112.14,0,6.4538e+07,12.721,12508,527.81,0,527.81,0,0.00013298,3.9725e-10,0,6.6878e-05,2.4913e-05,4.9767e+07,126.38,0,2.4781e+07,15.219,527.81,1
1820,0.82,12054,1,12054,1,9.3034e-06,1.6367e-10,0,0.0001167,-1.6947e-06,14.659,51.831,0,4.368e+07,2.5129,12053,12991,1,12991,1,0.00023423,1.1477e-09,0,0.00023423,4.045e-05,8.0054e+07,355.04,0,8.7703e+07,43.766,12990,12054,1,12054,1,9.3034e-06,4.2478e-11,0,0.00011663,-1.6907e-06,3.363e+06,13.202,0,4.3943e+07,1.7675,12053,11097,1,11097,1,-0.00021563,-4.6389e-10,0,9.7272e-07,-4.3842e-05,-8.7703e+07,-149.14,0,2.83e+05,-33.23,11096,11599,1,11599,1,-0.00010733,-9.1122e-11,0,5.8315e-05,-2.3542e-05,-4.3652e+07,-28.908,0,2.2016e+07,-6.33,11598,12509,1,12509,1,0.00012593,3.9751e-10,0,0.00017494,2.015e-05,4.3943e+07,127.05,0,6.5335e+07,9.6338,12508,527.81,0,527.81,0,0.00013462,3.7167e-10,0,6.7704e-05,2.5221e-05,5.0382e+07,117.62,0,2.5087e+07,13.193,527.81,1
1820,0.83,12054,1,12054,1,9.4171e-06,-1.8598e-11,0,0.00011812,-1.7154e-06,-8.5629,-5.8828,0,4.4214e+07,0.58971,12053,12991,1,12991,1,0.00023709,1.9952e-10,0,0.00023709,4.0944e-05,8.1031e+07,64.166,0,8.8774e+07,28.031,12990,12054,1,12054,1,9.4171e-06,-1.497e-11,0,0.00011805,-1.7114e-06,3.4041e+06,-4.7696,0,4.448e+07,1.3164,12053,11097,1,11097,1,-0.00021826,-2.2584e-10,0,9.8458e-07,-4.4378e-05,-8.8774e+07,-72.597,0,2.8645e+05,-26.626,11096,11599,1,11599,1,-0.00010864,-8.0453e-11,0,5.9027e-05,-2.383e-05,-4.4185e+07,-25.102,0,2.2285e+07,-3.0129,11598,12509,1,12509,1,0.00012747,4.0209e-11,0,0.00017708,2.0396e-05,4.448e+07,12.355,0,6.6133e+07,4.4663,12508,527.81,0,527.81,0,0.00013627,8.4567e-11,0,6.8531e-05,2.5529e-05,5.0998e+07,26.897,0,2.5393e+07,6.0803,527.81,1
1820,0.84,12054,1,12054,1,9.5303e-06,1.7853e-10,0,0.00011955,-1.736e-06,-7.1339,56.732,0,4.4746e+07,1.2338,12053,12991,1,12991,1,0.00023995,1.0037e-09,0,0.00023995,4.1437e-05,8.2007e+07,313.94,0,8.9842e+07,22.701,12990,12054,1,12054,1,9.5303e-06,9.4746e-11,0,0.00011947,-1.7319e-06,3.445e+06,29.703,0,4.5015e+07,0.77894,12053,11097,1,11097,1,-0.00022089,-2.9385e-10,0,9.9641e-07,-4.4912e-05,-8.9842e+07,-94.515,0,2.8989e+05,-16.257,11096,11599,1,11599,1,-0.00010994,-1.5174e-11,0,5.9737e-05,-2.4117e-05,-4.4717e+07,-4.9542,0,2.2553e+07,-5.0367,11598,12509,1,12509,1,0.000129,3.3508e-10,0,0.00017921,2.0642e-05,4.5015e+07,105.95,0,6.6929e+07,6.8622,12508,527.81,0,527.81,0,0.00013791,2.659e-10,0,6.9356e-05,2.5836e-05,5.1611e+07,84.454,0,2.5699e+07,7.9307,527.81,1
1820,0.85,12054,1,12054,1,9.6436e-06,-1.6387e-10,0,0.00012097,-1.7566e-06,-16.061,-52.152,0,4.5278e+07,1.4022,12053,12991,1,12991,1,0.0002428,6.9891e-10,0,0.0002428,4.1929e-05,8.2981e+07,216.35,0,9.091e+07,20.281,12990,12054,1,12054,1,9.6435e-06,-1.0632e-10,0,0.00012089,-1.7525e-06,3.4859e+06,-33.923,0,4.555e+07,2.0085,12053,11097,1,11097,1,-0.00022351,-8.7654e-10,0,1.0082e-06,-4.5446e-05,-9.091e+07,-276.92,0,2.9332e+05,-37.008,11096,11599,1,11599,1,-0.00011125,-3.8055e-10,0,6.0447e-05,-2.4403e-05,-4.5248e+07,-119.75,0,2.2821e+07,-4.2533,11598,12509,1,12509,1,0.00013054,2.1716e-11,0,0.00018134,2.0887e-05,4.555e+07,6.813,0,6.7724e+07,8.5009,12508,527.81,0,527.81,0,0.00013955,3.0963e-10,0,7.018e-05,2.6143e-05,5.2225e+07,98.474,0,2.6004e+07,10.454,527.81,1
1820,0.86,12054,1,12054,1,9.7574e-06,1.6406e-10,0,0.00012239,-1.7774e-06,-6.3001,52.278,0,4.5812e+07,2.6371,12053,12991,1,12991,1,0.00024566,4.901e-10,0,0.00024566,4.2424e-05,8.396e+07,152.28,0,9.1983e+07,34.03,12990,12054,1,12054,1,9.7573e-06,1.5075e-10,0,0.00012232,-1.7732e-06,3.5271e+06,47.776,0,4.6088e+07,0.071097,12053,11097,1,11097,1,-0.00022615,-8.9599e-11,0,1.0201e-06,-4.5982e-05,-9.1983e+07,-30.526,0,2.968e+05,-26.988,11096,11599,1,11599,1,-0.00011256,6.3463e-11,0,6.116e-05,-2.4691e-05,-4.5782e+07,20.015,0,2.309e+07,-2.9234,11598,12509,1,12509,1,0.00013208,2.5683e-10,0,0.00018348,2.1133e-05,4.6088e+07,82.357,0,6.8523e+07,6.4934,12508,527.81,0,527.81,0,0.00014119,1.3966e-10,0,7.1008e-05,2.6452e-05,5.2841e+07,44.46,0,2.6311e+07,9.8433,527.81,1
1820,0.87,12054,1,12054,1,9.8708e-06,2.4814e-10,0,0.00012382,-1.798e-06,-13.039,78.931,0,4.6344e+07,3.219,12053,12991,1,12991,1,0.00024852,6.0616e-10,0,0.00024852,4.2917e-05,8.4937e+07,185.34,0,9.3052e+07,24.605,12990,12054,1,12054,1,9.8708e-06,2.715e-10,0,0.00012374,-1.7938e-06,3.5681e+06,87.49,0,4.6624e+07,1.9942,12053,11097,1,11097,1,-0.00022878,-8.5443e-11,0,1.032e-06,-4.6516e-05,-9.3052e+07,-28.386,0,3.0025e+05,-23.848,11096,11599,1,11599,1,-0.00011387,1.2157e-10,0,6.1871e-05,-2.4978e-05,-4.6314e+07,38.387,0,2.3359e+07,-0.47302,11598,12509,1,12509,1,0.00013361,3.6824e-10,0,0.00018561,2.1379e-05,4.6624e+07,115.93,0,6.932e+07,6.2618,12508,527.81,0,527.81,0,0.00014283,1.699e-10,0,7.1834e-05,2.6759e-05,5.3455e+07,53.919,0,2.6617e+07,6.513,527.81,1
1820,0.88,12054,1,12054,1,9.9842e-06,1.2812e-10,0,0.00012524,-1.8187e-06,-0.88375,40.724,0,4.6876e+07,8.5738,12053,12991,1,12991,1,0.00025137,1.258e-09,0,0.00025137,4.341e-05,8.5912e+07,395.5,0,9.4121e+07,65.428,12990,12054,1,12054,1,9.9842e-06,2.4043e-11,0,0.00012516,-1.8144e-06,3.6091e+06,7.646,0,4.7159e+07,6.2929,12053,11097,1,11097,1,-0.00023141,-6.3815e-10,0,1.0438e-06,-4.7051e-05,-9.4121e+07,-205.15,0,3.0368e+05,-35.489,11096,11599,1,11599,1,-0.00011518,-1.5097e-10,0,6.2582e-05,-2.5265e-05,-4.6846e+07,-47.814,0,2.3627e+07,-3.3794,11598,12509,1,12509,1,0.00013515,3.6812e-10,0,0.00018775,2.1625e-05,4.7159e+07,120.45,0,7.0116e+07,18.001,12508,527.81,0,527.81,0,0.00014447,4.2312e-10,0,7.2658e-05,2.7067e-05,5.4069e+07,134.28,0,2.6923e+07,17.871,527.81,1
1820,0.89,12054,1,12054,1,1.0098e-05,1.1706e-10,0,0.00012666,-1.8393e-06,-2.3854,37.147,0,4.7409e+07,-0.56869,12053,12991,1,12991,1,0.00025423,8.6877e-10,0,0.00025423,4.3903e-05,8.6887e+07,277.43,0,9.519e+07,12.605,12990,12054,1,12054,1,1.0098e-05,5.5345e-11,0,0.00012659,-1.8351e-06,3.6501e+06,17.1,0,4.7695e+07,0.42542,12053,11097,1,11097,1,-0.00023403,-2.9035e-10,0,1.0557e-06,-4.7585e-05,-9.519e+07,-90.244,0,3.0714e+05,-39.801,11096,11599,1,11599,1,-0.00011649,-2.5874e-11,0,6.3293e-05,-2.5552e-05,-4.7379e+07,-8.3963,0,2.3895e+07,-4.5457,11598,12509,1,12509,1,0.00013668,2.3999e-10,0,0.00018988,2.187e-05,4.7695e+07,76.782,0,7.0913e+07,4.9537,12508,527.81,0,527.81,0,0.00014612,2.2237e-10,0,7.3484e-05,2.7374e-05,5.4683e+07,70.641,0,2.7229e+07,7.4413,527.81,1
1820,0.9,12054,1,12054,1,1.0211e-05,1.7209e-10,0,0.00012808,-1.86e-06,9.7449,54.654,0,4.7942e+07,-0.86181,12053,12991,1,12991,1,0.00025709,8.809e-10,0,0.00025709,4.4396e-05,8.7864e+07,275.07,0,9.626e+07,22.845,12990,12054,1,12054,1,1.0211e-05,1.0207e-10,0,0.00012801,-1.8557e-06,3.6911e+06,33.416,0,4.8231e+07,0.46405,12053,11097,1,11097,1,-0.00023666,-3.1082e-10,0,1.0676e-06,-4.812e-05,-9.626e+07,-99.947,0,3.106e+05,-49.945,11096,11599,1,11599,1,-0.0001178,-3.4868e-11,0,6.4004e-05,-2.5839e-05,-4.7911e+07,-10.551,0,2.4164e+07,-6.5661,11598,12509,1,12509,1,0.00013822,3.8326e-10,0,0.00019201,2.2116e-05,4.8231e+07,121.48,0,7.1709e+07,7.0194,12508,527.81,0,527.81,0,0.00014776,2.6746e-10,0,7.4309e-05,2.7682e-05,5.5298e+07,84.75,0,2.7534e+07,10.976,527.81,1
1820,0.91,12054,1,12054,1,1.0325e-05,6.6433e-11,0,0.00012951,-1.8807e-06,3.7109,21.099,0,4.8475e+07,1.9568,12053,12991,1,12991,1,0.00025994,7.0536e-10,0,0.00025994,4.489e-05,8.8841e+07,222.97,0,9.733e+07,29.725,12990,12054,1,12054,1,1.0325e-05,-4.502e-13,0,0.00012943,-1.8763e-06,3.7322e+06,-0.15405,0,4.8767e+07,0.28593,12053,11097,1,11097,1,-0.0002393,-3.042e-10,0,1.0795e-06,-4.8655e-05,-9.733e+07,-97.788,0,3.1407e+05,-25.399,11096,11599,1,11599,1,-0.00011911,-8.9736e-11,0,6.4716e-05,-2.6127e-05,-4.8444e+07,-28.452,0,2.4433e+07,-3.4303,11598,12509,1,12509,1,0.00013976,1.8953e-10,0,0.00019415,2.2362e-05,4.8767e+07,60.812,0,7.2507e+07,7.1125,12508,527.81,0,527.81,0,0.0001494,2.2338e-10,0,7.5136e-05,2.7989e-05,5.5913e+07,71.015,0,2.7841e+07,9.456,527.81,1
1820,0.92,12054,1,12054,1,1.0438e-05,1.6021e-10,0,0.00013093,-1.9013e-06,-4.9921,51.127,0,4.9007e+07,-0.21234,12053,12991,1,12991,1,0.0002628,1.1052e-09,0,0.0002628,4.5382e-05,8.9816e+07,367.18,0,9.8397e+07,28.139,12990,12054,1,12054,1,1.0438e-05,7.0635e-11,0,0.00013085,-1.8969e-06,3.7731e+06,22.388,0,4.9302e+07,-0.26929,12053,11097,1,11097,1,-0.00024192,-6.1612e-10,0,1.0913e-06,-4.9188e-05,-9.8397e+07,-198.07,0,3.1749e+05,-23.257,11096,11599,1,11599,1,-0.00012041,-9.126e-11,0,6.5426e-05,-2.6413e-05,-4.8975e+07,-28.991,0,2.4701e+07,-8.7405,11598,12509,1,12509,1,0.00014129,4.4145e-10,0,0.00019628,2.2607e-05,4.9302e+07,137.62,0,7.3302e+07,8.177,12508,527.81,0,527.81,0,0.00015104,3.8344e-10,0,7.596e-05,2.8296e-05,5.6526e+07,122.47,0,2.8146e+07,10.099,527.81,1
1820,0.93,12054,1,12054,1,1.0552e-05,9.339e-11,0,0.00013236,-1.922e-06,1.5901,29.65,0,4.9541e+07,-1.3538,12053,12991,1,12991,1,0.00026566,3.4279e-10,0,0.00026566,4.5877e-05,9.0794e+07,104.87,0,9.9469e+07,10.859,12990,12054,1,12054,1,1.0552e-05,6.1613e-11,0,0.00013228,-1.9176e-06,3.8142e+06,19.308,0,4.9839e+07,-1.0357,12053,11097,1,11097,1,-0.00024456,-7.7203e-11,0,1.1032e-06,-4.9724e-05,-9.9469e+07,-26.441,0,3.2097e+05,-28.83,11096,11599,1,11599,1,-0.00012173,1.1552e-12,0,6.6139e-05,-2.6701e-05,-4.9509e+07,0.37842,0,2.497e+07,-3.9159,11598,12509,1,12509,1,0.00014283,1.8148e-10,0,0.00019842,2.2853e-05,4.9839e+07,58.028,0,7.4101e+07,1.8474,12508,527.81,0,527.81,0,0.00015268,1.0618e-10,0,7.6788e-05,2.8605e-05,5.7142e+07,33.534,0,2.8453e+07,4.6672,527.81,1
1820,0.94,12054,1,12054,1,1.0665e-05,1.2108e-10,0,0.00013378,-1.9427e-06,5.9317,38.599,0,5.0073e+07,-0.60057,12053,12991,1,12991,1,0.00026851,9.3856e-10,0,0.00026851,4.6369e-05,9.1769e+07,290.7,0,1.0054e+08,25.816,12990,12054,1,12054,1,1.0665e-05,3.9508e-11,0,0.0001337,-1.9382e-06,3.8551e+06,13.259,0,5.0374e+07,-0.74468,12053,11097,1,11097,1,-0.00024718,-4.3395e-10,0,1.1151e-06,-5.0258e-05,-1.0054e+08,-139.52,0,3.2442e+05,-37.35,11096,11599,1,11599,1,-0.00012303,-6.5142e-11,0,6.6849e-05,-2.6988e-05,-5.004e+07,-21.123,0,2.5238e+07,-7.8362,11598,12509,1,12509,1,0.00014436,2.9768e-10,0,0.00020055,2.3099e-05,5.0374e+07,94.375,0,7.4896e+07,5.5032,12508,527.81,0,527.81,0,0.00015432,2.8033e-10,0,7.7612e-05,2.8912e-05,5.7755e+07,89.338,0,2.8758e+07,9.2402,527.81,1
1820,0.95,12054,1,12054,1,1.0779e-05,-5.6306e-12,0,0.00013521,-1.9634e-06,-5.1159,-1.768,0,5.0607e+07,-0.8287,12053,12991,1,12991,1,0.00027138,2.3168e-10,0,0.00027138,4.6864e-05,9.2748e+07,74.466,0,1.0161e+08,14.238,12990,12054,1,12054,1,1.0779e-05,1.2215e-11,0,0.00013512,-1.9588e-06,3.8963e+06,4.0046,0,5.0912e+07,-0.96881,12053,11097,1,11097,1,-0.00024982,-2.708e-10,0,1.127e-06,-5.0794e-05,-1.0161e+08,-84.804,0,3.2789e+05,-11.794,11096,11599,1,11599,1,-0.00012435,-7.8237e-11,0,6.7562e-05,-2.7276e-05,-5.0574e+07,-25.627,0,2.5507e+07,-3.3227,11598,12509,1,12509,1,0.0001459,7.0381e-11,0,0.00020269,2.3345e-05,5.0912e+07,22.131,0,7.5696e+07,2.2135,12508,527.81,0,527.81,0,0.00015597,1.1161e-10,0,7.8441e-05,2.9221e-05,5.8372e+07,35.528,0,2.9065e+07,4.4396,527.81,1
1820,0.96,12054,1,12054,1,1.0892e-05,-8.1351e-11,0,0.00013662,-1.984e-06,10.636,-25.961,0,5.1138e+07,-0.66377,12053,12991,1,12991,1,0.00027422,7.6116e-10,0,0.00027422,4.7356e-05,9.3721e+07,244.74,0,1.0268e+08,19.815,12990,12054,1,12054,1,1.0892e-05,-6.5889e-11,0,0.00013654,-1.9794e-06,3.9372e+06,-20.318,0,5.1446e+07,-0.93893,12053,11097,1,11097,1,-0.00025244,-7.0323e-10,0,1.1388e-06,-5.1327e-05,-1.0268e+08,-226.05,0,3.3133e+05,-26.64,11096,11599,1,11599,1,-0.00012565,-3.1517e-10,0,6.8271e-05,-2.7562e-05,-5.1105e+07,-100.6,0,2.5775e+07,-6.5513,11598,12509,1,12509,1,0.00014743,9.7159e-11,0,0.00020481,2.359e-05,5.1446e+07,31.562,0,7.649e+07,6.6059,12508,527.81,0,527.81,0,0.00015761,3.2191e-10,0,7.9263e-05,2.9527e-05,5.8984e+07,102.54,0,2.937e+07,9.8967,527.81,1
1820,0.97,12054,1,12054,1,1.1005e-05,2.0027e-10,0,0.00013805,-2.0047e-06,-9.0955,63.734,0,5.1671e+07,1.2139,12053,12991,1,12991,1,0.00027708,4.9902e-10,0,0.00027708,4.785e-05,9.4699e+07,152.53,0,1.0375e+08,48.65,12990,12054,1,12054,1,1.1005e-05,2.2051e-10,0,0.00013797,-2e-06,3.9782e+06,70.734,0,5.1982e+07,0.76421,12053,11097,1,11097,1,-0.00025507,-9.8073e-11,0,1.1506e-06,-5.1863e-05,-1.0375e+08,-30.909,0,3.3477e+05,-25.885,11096,11599,1,11599,1,-0.00012696,9.4967e-11,0,6.8983e-05,-2.7849e-05,-5.1638e+07,28.56,0,2.6044e+07,-2.6973,11598,12509,1,12509,1,0.00014897,3.085e-10,0,0.00020695,2.3836e-05,5.1982e+07,99.612,0,7.7288e+07,3.3314,12508,527.81,0,527.81,0,0.00015925,1.455e-10,0,8.009e-05,2.9835e-05,5.9599e+07,46.176,0,2.9676e+07,8.0187,527.81,1
1820,0.98,12054,1,12054,1,1.1119e-05,1.2497e-10,0,0.00013947,-2.0254e-06,27.424,39.649,0,5.2203e+07,2.213,12053,12991,1,12991,1,0.00027994,1.0039e-09,0,0.00027994,4.8343e-05,9.5675e+07,311.64,0,1.0482e+08,40.639,12990,12054,1,12054,1,1.1119e-05,1.6816e-11,0,0.00013939,-2.0206e-06,4.0192e+06,5.2722,0,5.2518e+07,1.5455,12053,11097,1,11097,1,-0.0002577,-3.2951e-10,0,1.1626e-06,-5.2397e-05,-1.0482e+08,-105.94,0,3.3824e+05,-32.545,11096,11599,1,11599,1,-0.00012827,-8.1601e-11,0,6.9694e-05,-2.8136e-05,-5.217e+07,-25.534,0,2.6312e+07,-3.4196,11598,12509,1,12509,1,0.00015051,2.904e-10,0,0.00020908,2.4082e-05,5.2518e+07,94.082,0,7.8084e+07,7.7492,12508,527.81,0,527.81,0,0.00016089,2.9139e-10,0,8.0915e-05,3.0142e-05,6.0213e+07,92.647,0,2.9982e+07,11.26,527.81,1
1820,0.99,12054,1,12054,1,1.1232e-05,2.4654e-10,0,0.00014089,-2.0461e-06,52.837,78.307,0,5.2736e+07,-0.99539,12053,12991,1,12991,1,0.0002828,6.2104e-10,0,0.0002828,4.8836e-05,9.6652e+07,188.15,0,1.0589e+08,21.983,12990,12054,1,12054,1,1.1232e-05,2.5426e-10,0,0.00014081,-2.0413e-06,4.0603e+06,81.918,0,5.3054e+07,-1.9636,12053,11097,1,11097,1,-0.00026033,-1.0768e-10,0,1.1745e-06,-5.2932e-05,-1.0589e+08,-36.879,0,3.4172e+05,-38.808,11096,11599,1,11599,1,-0.00012958,9.888e-11,0,7.0405e-05,-2.8423e-05,-5.2702e+07,31.541,0,2.6581e+07,-5.8221,11598,12509,1,12509,1,0.00015204,3.9217e-10,0,0.00021122,2.4328e-05,5.3054e+07,127.27,0,7.8881e+07,4.1984,12508,527.81,0,527.81,0,0.00016253,1.8811e-10,0,8.1741e-05,3.045e-05,6.0828e+07,59.631,0,3.0288e+07,8.4131,527.81,1
1820,1,12054,1,12054,1,1.1346e-05,1.7214e-10,0,0.00014232,-2.0667e-06,4.548,54.735,0,5.3268e+07,0.070301,12053,12991,1,12991,1,0.00028565,1.2223e-09,0,0.00028565,4.9329e-05,9.7627e+07,378.95,0,1.0695e+08,32.961,12990,12054,1,12054,1,1.1346e-05,5.7031e-11,0,0.00014223,-2.0618e-06,4.1012e+06,17.431,0,5.359e+07,0.033623,12053,11097,1,11097,1,-0.00026296,-5.1301e-10,0,1.1862e-06,-5.3466e-05,-1.0695e+08,-164.93,0,3.4513e+05,-31.668,11096,11599,1,11599,1,-0.00013089,-8.16e-11,0,7.1116e-05,-2.871e-05,-5.3234e+07,-25.5,0,2.6849e+07,-8.4089,11598,12509,1,12509,1,0.00015358,4.1344e-10,0,0.00021335,2.4573e-05,5.359e+07,130.63,0,7.9677e+07,7.6508,12508,527.81,0,527.81,0,0.00016417,3.7244e-10,0,8.2566e-05,3.0757e-05,6.1442e+07,118.71,0,3.0594e+07,11.748,527.81,1
1820,1.01,12054,1,12054,1,1.1459e-05,2.5898e-10,0,0.00014374,-2.0874e-06,7.9389,82.313,0,5.3801e+07,0.50667,12053,12991,1,12991,1,0.00028851,9.4938e-10,0,0.00028851,4.9823e-05,9.8604e+07,293.95,0,1.0803e+08,34.589,12990,12054,1,12054,1,1.1459e-05,1.714e-10,0,0.00014365,-2.0825e-06,4.1422e+06,54.656,0,5.4126e+07,1.3019,12053,11097,1,11097,1,-0.00026559,-2.0743e-10,0,1.1981e-06,-5.4001e-05,-1.0803e+08,-66.719,0,3.4856e+05,-46.991,11096,11599,1,11599,1,-0.00013219,4.0627e-12,0,7.1827e-05,-2.8997e-05,-5.3767e+07,1.2529,0,2.7117e+07,-7.5147,11598,12509,1,12509,1,0.00015511,4.7223e-10,0,0.00021548,2.4819e-05,5.4126e+07,153.88,0,8.0474e+07,7.7056,12508,527.81,0,527.81,0,0.00016582,2.9722e-10,0,8.3392e-05,3.1065e-05,6.2056e+07,94.281,0,3.09e+07,11.731,527.81,1
1820,1.02,12054,1,12054,1,1.1573e-05,-7.695e-11,0,0.00014516,-2.1081e-06,36.669,-24.474,0,5.4334e+07,-1.5917,12053,12991,1,12991,1,0.00029137,4.6552e-10,0,0.00029137,5.0316e-05,9.958e+07,149.12,0,1.0909e+08,17.059,12990,12054,1,12054,1,1.1573e-05,-7.2061e-11,0,0.00014508,-2.1031e-06,4.1833e+06,-22.738,0,5.4662e+07,-1.0405,12053,11097,1,11097,1,-0.00026822,-4.6467e-10,0,1.2101e-06,-5.4536e-05,-1.0909e+08,-149.37,0,3.5207e+05,-26.289,11096,11599,1,11599,1,-0.0001335,-2.3818e-10,0,7.2539e-05,-2.9285e-05,-5.4299e+07,-75.762,0,2.7386e+07,-6.7269,11598,12509,1,12509,1,0.00015665,4.2651e-11,0,0.00021762,2.5065e-05,5.4662e+07,13.308,0,8.1271e+07,3.5357,12508,527.81,0,527.81,0,0.00016746,1.974e-10,0,8.4218e-05,3.1373e-05,6.2671e+07,62.775,0,3.1206e+07,7.4274,527.81,1
1820,1.03,12054,1,12054,1,1.1686e-05,1.5444e-10,0,0.00014659,-2.1287e-06,19.684,49.018,0,5.4867e+07,1.6726,12053,12991,1,12991,1,0.00029422,7.2563e-10,0,0.00029422,5.081e-05,1.0056e+08,231.95,0,1.1017e+08,36.152,12990,12054,1,12054,1,1.1686e-05,7.5421e-11,0,0.0001465,-2.1237e-06,4.2243e+06,24.272,0,5.5198e+07,0.38471,12053,11097,1,11097,1,-0.00027085,-1.8741e-10,0,1.2219e-06,-5.5071e-05,-1.1017e+08,-60.258,0,3.555e+05,-40.419,11096,11599,1,11599,1,-0.00013481,-2.5202e-11,0,7.325e-05,-2.9572e-05,-5.4832e+07,-8.2389,0,2.7655e+07,-4.76,11598,12509,1,12509,1,0.00015819,3.2647e-10,0,0.00021975,2.5311e-05,5.5198e+07,102.94,0,8.2068e+07,6.2705,12508,527.81,0,527.81,0,0.0001691,2.2669e-10,0,8.5044e-05,3.168e-05,6.3286e+07,71.866,0,3.1512e+07,10.774,527.81,1
1820,1.04,12054,1,12054,1,1.18e-05,8.1528e-11,0,0.00014801,-2.1494e-06,13.737,26.06,0,5.54e+07,1.4837,12053,12991,1,12991,1,0.00029708,1.1308e-09,0,0.00029708,5.1303e-05,1.0153e+08,363.54,0,1.1123e+08,43.147,12990,12054,1,12054,1,1.18e-05,-1.0583e-11,0,0.00014792,-2.1443e-06,4.2653e+06,-3.4719,0,5.5734e+07,-0.79076,12053,11097,1,11097,1,-0.00027348,-4.5876e-10,0,1.2337e-06,-5.5605e-05,-1.1123e+08,-147.48,0,3.5894e+05,-40.715,11096,11599,1,11599,1,-0.00013612,-1.6011e-10,0,7.3961e-05,-2.9859e-05,-5.5364e+07,-51.694,0,2.7923e+07,-6.3282,11598,12509,1,12509,1,0.00015972,2.7181e-10,0,0.00022188,2.5556e-05,5.5734e+07,85.908,0,8.2865e+07,9.7049,12508,527.81,0,527.81,0,0.00017074,3.5013e-10,0,8.587e-05,3.1988e-05,6.39e+07,111.67,0,3.1818e+07,13.76,527.81,1
1820,1.05,12054,1,12054,1,1.1913e-05,-4.5089e-11,0,0.00014943,-2.17e-06,3.4215,-14.438,0,5.5932e+07,-0.67689,12053,12991,1,12991,1,0.00029993,1.0106e-09,0,0.00029993,5.1796e-05,1.0251e+08,320.69,0,1.123e+08,25.96,12990,12054,1,12054,1,1.1913e-05,-5.1052e-11,0,0.00014934,-2.1649e-06,4.3063e+06,-15.496,0,5.6269e+07,-0.763,12053,11097,1,11097,1,-0.00027611,-7.4583e-10,0,1.2455e-06,-5.614e-05,-1.123e+08,-239.74,0,3.6237e+05,-37.027,11096,11599,1,11599,1,-0.00013743,-3.2947e-10,0,7.4672e-05,-3.0146e-05,-5.5896e+07,-105.44,0,2.8191e+07,-8.4517,11598,12509,1,12509,1,0.00016126,1.7364e-10,0,0.00022402,2.5802e-05,5.6269e+07,55.933,0,8.3661e+07,8.4046,12508,527.81,0,527.81,0,0.00017238,3.8408e-10,0,8.6695e-05,3.2295e-05,6.4514e+07,122.14,0,3.2124e+07,12.322,527.81,1
1820,1.06,12054,1,12054,1,1.2027e-05,-1.7443e-10,0,0.00015086,-2.1908e-06,-0.49862,-55.475,0,5.6467e+07,-0.18902,12053,12991,1,12991,1,0.0003028,7.5715e-11,0,0.0003028,5.2291e-05,1.0349e+08,25.932,0,1.1338e+08,10.558,12990,12054,1,12054,1,1.2027e-05,-1.8725e-10,0,0.00015077,-2.1856e-06,4.3474e+06,-60.583,0,5.6807e+07,0.36583,12053,11097,1,11097,1,-0.00027875,-3.8585e-10,0,1.2575e-06,-5.6676e-05,-1.1338e+08,-119.33,0,3.6585e+05,-15.329,11096,11599,1,11599,1,-0.00013874,-2.7699e-10,0,7.5385e-05,-3.0434e-05,-5.643e+07,-88.405,0,2.8461e+07,-2.9405,11598,12509,1,12509,1,0.0001628,-8.038e-11,0,0.00022615,2.6048e-05,5.6807e+07,-25.665,0,8.446e+07,2.7986,12508,527.81,0,527.81,0,0.00017403,1.2091e-10,0,8.7523e-05,3.2604e-05,6.513e+07,38.346,0,3.2431e+07,4.259,527.81,1
1820,1.07,12054,1,12054,1,1.214e-05,1.8577e-10,0,0.00015228,-2.2113e-06,13.054,59.011,0,5.6997e+07,2.6229,12053,12991,1,12991,1,0.00030565,1.3957e-09,0,0.00030565,5.2782e-05,1.0446e+08,438.75,0,1.1444e+08,35.818,12990,12054,1,12054,1,1.214e-05,5.0556e-11,0,0.00015219,-2.2062e-06,4.3883e+06,15.762,0,5.7341e+07,1.6469,12053,11097,1,11097,1,-0.00028137,-5.4643e-10,0,1.2693e-06,-5.7209e-05,-1.1444e+08,-175.67,0,3.6929e+05,-41.636,11096,11599,1,11599,1,-0.00014005,-1.1432e-10,0,7.6094e-05,-3.072e-05,-5.6961e+07,-36.084,0,2.8728e+07,-6.9981,11598,12509,1,12509,1,0.00016433,4.6482e-10,0,0.00022828,2.6293e-05,5.7341e+07,146.93,0,8.5255e+07,13.652,12508,527.81,0,527.81,0,0.00017567,4.3559e-10,0,8.8346e-05,3.291e-05,6.5743e+07,138.47,0,3.2735e+07,14.861,527.81,1
1820,1.08,12054,1,12054,1,1.2253e-05,-6.3432e-11,0,0.0001537,-2.232e-06,11.828,-20.136,0,5.7531e+07,-1.4912,12053,12991,1,12991,1,0.0003085,2.8959e-10,0,0.0003085,5.3276e-05,1.0544e+08,93.021,0,1.1551e+08,11.278,12990,12054,1,12054,1,1.2253e-05,-3.8328e-11,0,0.00015361,-2.2268e-06,4.4294e+06,-12.406,0,5.7877e+07,-1.7441,12053,11097,1,11097,1,-0.000284,-3.6622e-10,0,1.2812e-06,-5.7744e-05,-1.1551e+08,-117.75,0,3.7275e+05,-22.732,11096,11599,1,11599,1,-0.00014136,-1.7391e-10,0,7.6806e-05,-3.1007e-05,-5.7493e+07,-54.496,0,2.8997e+07,-5.1633,11598,12509,1,12509,1,0.00016586,3.0897e-11,0,0.00023042,2.6539e-05,5.7877e+07,10.106,0,8.6052e+07,2.4985,12508,527.81,0,527.81,0,0.00017731,1.4316e-10,0,8.9172e-05,3.3218e-05,6.6358e+07,45.563,0,3.3042e+07,5.7919,527.81,1
1820,1.09,12054,1,12054,1,1.2367e-05,8.8537e-11,0,0.00015513,-2.2527e-06,-1.8272,28.049,0,5.8063e+07,3.435,12053,12991,1,12991,1,0.00031136,7.947e-10,0,0.00031136,5.3769e-05,1.0641e+08,255.36,0,1.1658e+08,36.28,12990,12054,1,12054,1,1.2367e-05,4.395e-12,0,0.00015503,-2.2474e-06,4.4703e+06,1.2863,0,5.8413e+07,3.1224,12053,11097,1,11097,1,-0.00028663,-3.8108e-10,0,1.293e-06,-5.8278e-05,-1.1658e+08,-122.53,0,3.7619e+05,-22.165,11096,11599,1,11599,1,-0.00014267,-8.8283e-11,0,7.7517e-05,-3.1294e-05,-5.8026e+07,-27.22,0,2.9265e+07,-2.2183,11598,12509,1,12509,1,0.0001674,2.5038e-10,0,0.00023255,2.6785e-05,5.8413e+07,80.365,0,8.6849e+07,8.2748,12508,527.81,0,527.81,0,0.00017895,2.5165e-10,0,8.9998e-05,3.3526e-05,6.6972e+07,79.756,0,3.3348e+07,9.0704,527.81,1
1820,1.1,12054,1,12054,1,1.248e-05,1.6017e-11,0,0.00015655,-2.2734e-06,20.296,5.0731,0,5.8596e+07,-2.1139,12053,12991,1,12991,1,0.00031422,2.1318e-10,0,0.00031422,5.4263e-05,1.0739e+08,64.678,0,1.1765e+08,13.739,12990,12054,1,12054,1,1.248e-05,-6.7597e-12,0,0.00015646,-2.2681e-06,4.5114e+06,-2.2354,0,5.8949e+07,-1.1835,12053,11097,1,11097,1,-0.00028926,-1.9811e-10,0,1.3049e-06,-5.8813e-05,-1.1765e+08,-63.706,0,3.7967e+05,-36.458,11096,11599,1,11599,1,-0.00014398,-4.8784e-11,0,7.8228e-05,-3.1582e-05,-5.8558e+07,-15.35,0,2.9534e+07,-4.2268,11598,12509,1,12509,1,0.00016894,8.8297e-11,0,0.00023468,2.7031e-05,5.8949e+07,27.756,0,8.7646e+07,1.8943,12508,527.81,0,527.81,0,0.00018059,8.9264e-11,0,9.0824e-05,3.3834e-05,6.7587e+07,28.287,0,3.3654e+07,6.8421,527.81,1
1820,1.11,12054,1,12054,1,1.2594e-05,9.9278e-11,0,0.00015797,-2.294e-06,6.4582,31.714,0,5.9129e+07,1.82,12053,12991,1,12991,1,0.00031707,1.1538e-09,0,0.00031707,5.4756e-05,1.0837e+08,369.15,0,1.1872e+08,33.124,12990,12054,1,12054,1,1.2594e-05,1.7335e-11,0,0.00015788,-2.2887e-06,4.5524e+06,5.4484,0,5.9485e+07,0.55944,12053,11097,1,11097,1,-0.00029189,-6.4094e-10,0,1.3167e-06,-5.9348e-05,-1.1872e+08,-206.06,0,3.8309e+05,-42.34,11096,11599,1,11599,1,-0.00014528,-1.9283e-10,0,7.8939e-05,-3.1868e-05,-5.909e+07,-60.12,0,2.9802e+07,-7.0677,11598,12509,1,12509,1,0.00017047,3.6681e-10,0,0.00023682,2.7276e-05,5.9485e+07,116.33,0,8.8442e+07,10.45,12508,527.81,0,527.81,0,0.00018224,4.1374e-10,0,9.1649e-05,3.4141e-05,6.8201e+07,131.78,0,3.3959e+07,12.707,527.81,1
1820,1.12,12054,1,12054,1,1.2707e-05,1.9331e-10,0,0.00015939,-2.3147e-06,-3.1797,61.464,0,5.9661e+07,2.2871,12053,12991,1,12991,1,0.00031993,1.3547e-09,0,0.00031993,5.5249e-05,1.0934e+08,428.85,0,1.1979e+08,40.28,12990,12054,1,12054,1,1.2707e-05,3.5725e-11,0,0.0001593,-2.3093e-06,4.5934e+06,11.499,0,6.0021e+07,0.11365,12053,11097,1,11097,1,-0.00029452,-4.6257e-10,0,1.3286e-06,-5.9883e-05,-1.1979e+08,-148.71,0,3.8653e+05,-43.232,11096,11599,1,11599,1,-0.00014659,-1.1725e-10,0,7.965e-05,-3.2156e-05,-5.9623e+07,-37.671,0,3.0071e+07,-7.0848,11598,12509,1,12509,1,0.00017201,4.7465e-10,0,0.00023895,2.7522e-05,6.0021e+07,148.8,0,8.9239e+07,11.997,12508,527.81,0,527.81,0,0.00018388,4.348e-10,0,9.2475e-05,3.4448e-05,6.8815e+07,138.31,0,3.4265e+07,15.615,527.81,1
1820,1.13,12054,1,12054,1,1.2821e-05,2.056e-10,0,0.00016082,-2.3354e-06,-5.2443,65.376,0,6.0194e+07,0.23292,12053,12991,1,12991,1,0.00032279,6.9097e-10,0,0.00032279,5.5743e-05,1.1032e+08,212.77,0,1.2086e+08,14.917,12990,12054,1,12054,1,1.2821e-05,1.353e-10,0,0.00016072,-2.3299e-06,4.6344e+06,43.154,0,6.0557e+07,1.071,12053,11097,1,11097,1,-0.00029715,-7.6892e-11,0,1.3405e-06,-6.0418e-05,-1.2086e+08,-24.394,0,3.8999e+05,-23.52,11096,11599,1,11599,1,-0.0001479,4.0923e-11,0,8.0362e-05,-3.2443e-05,-6.0156e+07,13.231,0,3.034e+07,-2.7071,11598,12509,1,12509,1,0.00017354,3.499e-10,0,0.00024109,2.7768e-05,6.0557e+07,111.43,0,9.0036e+07,4.8768,12508,527.81,0,527.81,0,0.00018552,2.0822e-10,0,9.3301e-05,3.4756e-05,6.943e+07,66.084,0,3.4572e+07,6.6688,527.81,1
1820,1.14,12054,1,12054,1,1.2934e-05,1.709e-10,0,0.00016224,-2.356e-06,-3.9297,54.359,0,6.0727e+07,7.4378,12053,12991,1,12991,1,0.00032565,1.2378e-09,0,0.00032565,5.6236e-05,1.113e+08,387.24,0,1.2193e+08,57.805,12990,12054,1,12054,1,1.2934e-05,4.0651e-11,0,0.00016215,-2.3505e-06,4.6754e+06,12.705,0,6.1093e+07,5.0232,12053,11097,1,11097,1,-0.00029978,-4.3833e-10,0,1.3523e-06,-6.0952e-05,-1.2193e+08,-140.93,0,3.9343e+05,-37.042,11096,11599,1,11599,1,-0.00014921,-9.1065e-11,0,8.1073e-05,-3.273e-05,-6.0688e+07,-28.899,0,3.0608e+07,-3.6406,11598,12509,1,12509,1,0.00017508,3.8008e-10,0,0.00024322,2.8014e-05,6.1093e+07,119.83,0,9.0833e+07,14.581,12508,527.81,0,527.81,0,0.00018716,3.8125e-10,0,9.4126e-05,3.5064e-05,7.0044e+07,121.25,0,3.4877e+07,16.59,527.81,1
1820,1.15,12054,1,12054,1,1.3048e-05,1.6595e-10,0,0.00016367,-2.3767e-06,-0.45297,52.66,0,6.126e+07,0.8602,12053,12991,1,12991,1,0.0003285,6.0331e-10,0,0.0003285,5.673e-05,1.1227e+08,183.41,0,1.23e+08,25.124,12990,12054,1,12054,1,1.3048e-05,1.2387e-10,0,0.00016357,-2.3712e-06,4.7165e+06,39.57,0,6.1629e+07,0.43802,12053,11097,1,11097,1,-0.00030241,-1.049e-10,0,1.3642e-06,-6.1487e-05,-1.23e+08,-35.408,0,3.969e+05,-30.848,11096,11599,1,11599,1,-0.00015052,2.3271e-11,0,8.1785e-05,-3.3017e-05,-6.1221e+07,7.5053,0,3.0877e+07,-3.7112,11598,12509,1,12509,1,0.00017662,3.0086e-10,0,0.00024535,2.826e-05,6.1629e+07,97.276,0,9.163e+07,5.0887,12508,527.81,0,527.81,0,0.0001888,1.7579e-10,0,9.4953e-05,3.5372e-05,7.0659e+07,55.684,0,3.5184e+07,7.595,527.81,1
1820,1.16,12054,1,12054,1,1.3161e-05,1.5194e-10,0,0.00016509,-2.3974e-06,18.935,48.169,0,6.1792e+07,3.3325,12053,12991,1,12991,1,0.00033136,6.446e-10,0,0.00033136,5.7222e-05,1.1325e+08,201.38,0,1.2407e+08,33.876,12990,12054,1,12054,1,1.3161e-05,7.9659e-11,0,0.00016499,-2.3918e-06,4.7575e+06,25.586,0,6.2164e+07,2.1717,12053,11097,1,11097,1,-0.00030504,-1.5817e-10,0,1.3761e-06,-6.2021e-05,-1.2407e+08,-50.869,0,4.0036e+05,-32.287,11096,11599,1,11599,1,-0.00015183,-1.6447e-11,0,8.2495e-05,-3.3304e-05,-6.1752e+07,-5.1817,0,3.1145e+07,-3.0743,11598,12509,1,12509,1,0.00017815,2.9973e-10,0,0.00024748,2.8505e-05,6.2164e+07,95.933,0,9.2426e+07,7.8033,12508,527.81,0,527.81,0,0.00019044,2.0943e-10,0,9.5778e-05,3.5679e-05,7.1273e+07,66.222,0,3.5489e+07,9.701,527.81,1
1820,1.17,12054,1,12054,1,1.3275e-05,3.2069e-10,0,0.00016651,-2.4181e-06,-2.8459,101.92,0,6.2326e+07,-0.44305,12053,12991,1,12991,1,0.00033422,7.4192e-10,0,0.00033422,5.7716e-05,1.1423e+08,229.71,0,1.2514e+08,12.211,12990,12054,1,12054,1,1.3275e-05,3.1618e-10,0,0.00016641,-2.4124e-06,4.7985e+06,100.26,0,6.2701e+07,-0.090329,12053,11097,1,11097,1,-0.00030767,-1.0176e-10,0,1.3879e-06,-6.2557e-05,-1.2514e+08,-34.851,0,4.0381e+05,-17.772,11096,11599,1,11599,1,-0.00015314,1.6103e-10,0,8.3207e-05,-3.3591e-05,-6.2285e+07,51.886,0,3.1414e+07,-3.9479,11598,12509,1,12509,1,0.00017969,4.8397e-10,0,0.00024962,2.8751e-05,6.2701e+07,154.38,0,9.3224e+07,2.6901,12508,527.81,0,527.81,0,0.00019209,2.0717e-10,0,9.6605e-05,3.5987e-05,7.1889e+07,65.846,0,3.5796e+07,4.8446,527.81,1
1820,1.18,12054,1,12054,1,1.3388e-05,2.2077e-10,0,0.00016793,-2.4387e-06,11.807,70.175,0,6.2857e+07,-0.73559,12053,12991,1,12991,1,0.00033707,1.0835e-09,0,0.00033707,5.8209e-05,1.152e+08,335.55,0,1.2621e+08,26.079,12990,12054,1,12054,1,1.3388e-05,1.1528e-10,0,0.00016783,-2.433e-06,4.8395e+06,37.21,0,6.3236e+07,0.13787,12053,11097,1,11097,1,-0.00031029,-2.3228e-10,0,1.3998e-06,-6.3091e-05,-1.2621e+08,-74.715,0,4.0726e+05,-32.555,11096,11599,1,11599,1,-0.00015445,-3.0182e-11,0,8.3917e-05,-3.3878e-05,-6.2817e+07,-9.4475,0,3.1682e+07,-7.0807,11598,12509,1,12509,1,0.00018122,4.4139e-10,0,0.00025175,2.8996e-05,6.3236e+07,139.31,0,9.4019e+07,6.6626,12508,527.81,0,527.81,0,0.00019373,3.1156e-10,0,9.7429e-05,3.6294e-05,7.2502e+07,98.973,0,3.6101e+07,10.227,527.81,1
1820,1.19,12054,1,12054,1,1.3501e-05,5.1222e-11,0,0.00016936,-2.4594e-06,2.3101,16.333,0,6.339e+07,0.7269,12053,12991,1,12991,1,0.00033992,7.7136e-10,0,0.00033992,5.8702e-05,1.1618e+08,241.27,0,1.2728e+08,15.364,12990,12054,1,12054,1,1.3501e-05,1.865e-11,0,0.00016926,-2.4536e-06,4.8805e+06,5.6781,0,6.3772e+07,1.0915,12053,11097,1,11097,1,-0.00031292,-4.2139e-10,0,1.4116e-06,-6.3625e-05,-1.2728e+08,-132.36,0,4.107e+05,-30.651,11096,11599,1,11599,1,-0.00015575,-7.55e-11,0,8.4628e-05,-3.4165e-05,-6.3349e+07,-23.476,0,3.195e+07,-4.1445,11598,12509,1,12509,1,0.00018276,1.7245e-10,0,0.00025388,2.9242e-05,6.3772e+07,55.08,0,9.4816e+07,6.1993,12508,527.81,0,527.81,0,0.00019537,2.1526e-10,0,9.8254e-05,3.6601e-05,7.3116e+07,68.54,0,3.6407e+07,6.7175,527.81,1
1820,1.2,12054,1,12054,1,1.3615e-05,-7.4746e-11,0,0.00017078,-2.4801e-06,11.279,-23.612,0,6.3923e+07,0.85863,12053,12991,1,12991,1,0.00034278,6.6715e-10,0,0.00034278,5.9196e-05,1.1715e+08,215.09,0,1.2835e+08,28.77,12990,12054,1,12054,1,1.3615e-05,-6.6029e-11,0,0.00017068,-2.4742e-06,4.9215e+06,-21.086,0,6.4308e+07,-0.69794,12053,11097,1,11097,1,-0.00031555,-5.9096e-10,0,1.4235e-06,-6.416e-05,-1.2835e+08,-189.98,0,4.1417e+05,-24.156,11096,11599,1,11599,1,-0.00015706,-2.8678e-10,0,8.534e-05,-3.4453e-05,-6.3882e+07,-91.862,0,3.2219e+07,-6.1676,11598,12509,1,12509,1,0.00018429,7.2664e-11,0,0.00025602,2.9488e-05,6.4308e+07,23.628,0,9.5614e+07,8.2797,12508,527.81,0,527.81,0,0.00019701,2.7062e-10,0,9.9081e-05,3.6909e-05,7.3731e+07,86.34,0,3.6713e+07,10.695,527.81,1
1820,1.21,12054,1,12054,1,1.3728e-05,1.934e-10,0,0.0001722,-2.5007e-06,3.24,61.505,0,6.4456e+07,0.055862,12053,12991,1,12991,1,0.00034564,5.6311e-10,0,0.00034564,5.9689e-05,1.1813e+08,177.62,0,1.2942e+08,9.7303,12990,12054,1,12054,1,1.3728e-05,1.8966e-10,0,0.0001721,-2.4949e-06,4.9625e+06,60.466,0,6.4844e+07,-0.11653,12053,11097,1,11097,1,-0.00031818,-3.4255e-11,0,1.4354e-06,-6.4695e-05,-1.2942e+08,-11.71,0,4.1762e+05,-22.218,11096,11599,1,11599,1,-0.00015837,9.2292e-11,0,8.6051e-05,-3.474e-05,-6.4414e+07,29.236,0,3.2487e+07,-1.5682,11598,12509,1,12509,1,0.00018583,2.7947e-10,0,0.00025815,2.9734e-05,6.4844e+07,89.197,0,9.641e+07,2.3414,12508,527.81,0,527.81,0,0.00019865,1.3163e-10,0,9.9906e-05,3.7217e-05,7.4345e+07,41.923,0,3.7019e+07,4.279,527.81,1
1820,1.22,12054,1,12054,1,1.3842e-05,1.815e-10,0,0.00017363,-2.5214e-06,-17.731,57.57,0,6.4989e+07,-1.5554,12053,12991,1,12991,1,0.0003485,5.7337e-10,0,0.0003485,6.0183e-05,1.1911e+08,183.28,0,1.3049e+08,12.496,12990,12054,1,12054,1,1.3842e-05,1.4733e-10,0,0.00017353,-2.5155e-06,5.0036e+06,46.804,0,6.538e+07,-0.027966,12053,11097,1,11097,1,-0.00032082,-8.8231e-11,0,1.4472e-06,-6.523e-05,-1.3049e+08,-30.218,0,4.2104e+05,-39.143,11096,11599,1,11599,1,-0.00015968,3.6091e-11,0,8.6763e-05,-3.5027e-05,-6.4947e+07,11.257,0,3.2756e+07,-3.4301,11598,12509,1,12509,1,0.00018737,3.1327e-10,0,0.00026029,2.998e-05,6.538e+07,99.651,0,9.7208e+07,3.6378,12508,527.81,0,527.81,0,0.0002003,1.677e-10,0,0.00010073,3.7525e-05,7.496e+07,53.057,0,3.7325e+07,8.6356,527.81,1
1820,1.23,12054,1,12054,1,1.3955e-05,7.0895e-11,0,0.00017505,-2.5421e-06,4.4495,22.598,0,6.5522e+07,-0.99997,12053,12991,1,12991,1,0.00035136,2.3599e-10,0,0.00035136,6.0676e-05,1.2008e+08,71.681,0,1.3156e+08,7.7022,12990,12054,1,12054,1,1.3955e-05,7.9483e-11,0,0.00017495,-2.5361e-06,5.0446e+06,25.571,0,6.5916e+07,-0.070847,12053,11097,1,11097,1,-0.00032344,-6.4325e-11,0,1.4591e-06,-6.5764e-05,-1.3156e+08,-20.404,0,4.2452e+05,-22.23,11096,11599,1,11599,1,-0.00016099,2.1793e-11,0,8.7474e-05,-3.5314e-05,-6.5479e+07,6.4674,0,3.3025e+07,-2.5101,11598,12509,1,12509,1,0.0001889,1.1437e-10,0,0.00026242,3.0226e-05,6.5916e+07,37.068,0,9.8005e+07,1.368,12508,527.81,0,527.81,0,0.00020194,6.5402e-11,0,0.00010156,3.7832e-05,7.5575e+07,20.704,0,3.7631e+07,4.0957,527.81,1
1820,1.24,12054,1,12054,1,1.4069e-05,1.2778e-10,0,0.00017647,-2.5627e-06,4.3361,40.576,0,6.6054e+07,1.2457,12053,12991,1,12991,1,0.00035421,8.8732e-10,0,0.00035421,6.1169e-05,1.2106e+08,279.73,0,1.3263e+08,30.739,12990,12054,1,12054,1,1.4069e-05,4.8776e-11,0,0.00017637,-2.5567e-06,5.0856e+06,15.061,0,6.6452e+07,0.95696,12053,11097,1,11097,1,-0.00032607,-4.6335e-10,0,1.4709e-06,-6.6299e-05,-1.3263e+08,-148.96,0,4.2795e+05,-47.803,11096,11599,1,11599,1,-0.0001623,-9.4537e-11,0,8.8185e-05,-3.5601e-05,-6.6011e+07,-30.176,0,3.3293e+07,-7.1525,11598,12509,1,12509,1,0.00019044,3.6462e-10,0,0.00026455,3.0471e-05,6.6452e+07,117.27,0,9.8801e+07,9.3448,12508,527.81,0,527.81,0,0.00020358,3.1497e-10,0,0.00010238,3.814e-05,7.6189e+07,99.93,0,3.7937e+07,11.723,527.81,1
1820,1.25,12054,1,12054,1,1.4182e-05,2.2683e-10,0,0.0001779,-2.5834e-06,3.4112,72.337,0,6.6587e+07,3.8081,12053,12991,1,12991,1,0.00035707,9.0644e-10,0,0.00035707,6.1662e-05,1.2203e+08,298.47,0,1.337e+08,32.523,12990,12054,1,12054,1,1.4182e-05,1.4968e-10,0,0.00017779,-2.5773e-06,5.1266e+06,48.173,0,6.6988e+07,3.0191,12053,11097,1,11097,1,-0.0003287,-1.8668e-10,0,1.4828e-06,-6.6834e-05,-1.337e+08,-60.043,0,4.3142e+05,-18.126,11096,11599,1,11599,1,-0.00016361,-5.0647e-12,0,8.8896e-05,-3.5888e-05,-6.6544e+07,-1.7345,0,3.3561e+07,-2.969,11598,12509,1,12509,1,0.00019197,4.2695e-10,0,0.00026669,3.0717e-05,6.6988e+07,135.55,0,9.9598e+07,8.5217,12508,527.81,0,527.81,0,0.00020522,2.7141e-10,0,0.00010321,3.8447e-05,7.6803e+07,86.85,0,3.8243e+07,9.4803,527.81,1
1820,1.26,12054,1,12054,1,1.4296e-05,5.4123e-11,0,0.00017932,-2.6041e-06,12.453,17.196,0,6.7119e+07,-3.0743,12053,12991,1,12991,1,0.00035992,1.0981e-09,0,0.00035992,6.2155e-05,1.2301e+08,349.21,0,1.3476e+08,22.212,12990,12054,1,12054,1,1.4296e-05,-2.3745e-11,0,0.00017921,-2.598e-06,5.1676e+06,-7.0953,0,6.7524e+07,-1.0299,12053,11097,1,11097,1,-0.00033133,-5.5925e-10,0,1.4947e-06,-6.7368e-05,-1.3476e+08,-179.78,0,4.3487e+05,-49.907,11096,11599,1,11599,1,-0.00016492,-2.3544e-10,0,8.9607e-05,-3.6175e-05,-6.7076e+07,-74.269,0,3.383e+07,-9.8705,11598,12509,1,12509,1,0.00019351,2.785e-10,0,0.00026882,3.0963e-05,6.7524e+07,87.404,0,1.0039e+08,6.3826,12508,527.81,0,527.81,0,0.00020686,3.9125e-10,0,0.00010403,3.8755e-05,7.7418e+07,124.4,0,3.8549e+07,13.787,527.81,1
1820,1.27,12054,1,12054,1,1.4409e-05,-1.4789e-10,0,0.00018074,-2.6247e-06,2.0527,-46.867,0,6.7652e+07,3.0466,12053,12991,1,12991,1,0.00036278,2.2866e-10,0,0.00036278,6.2648e-05,1.2399e+08,76.014,0,1.3583e+08,17.536,12990,12054,1,12054,1,1.4409e-05,-1.3645e-10,0,0.00018063,-2.6185e-06,5.2086e+06,-44.103,0,6.8059e+07,2.514,12053,11097,1,11097,1,-0.00033396,-5.9101e-10,0,1.5065e-06,-6.7902e-05,-1.3583e+08,-181.66,0,4.383e+05,-21.419,11096,11599,1,11599,1,-0.00016623,-2.8065e-10,0,9.0317e-05,-3.6462e-05,-6.7608e+07,-90.499,0,3.4098e+07,-0.83238,11598,12509,1,12509,1,0.00019504,8.054e-12,0,0.00027095,3.1208e-05,6.8059e+07,2.3906,0,1.0119e+08,8.5014,12508,527.81,0,527.81,0,0.0002085,1.7799e-10,0,0.00010486,3.9062e-05,7.8031e+07,56.299,0,3.8854e+07,7.04,527.81,1
1820,1.28,12054,1,12054,1,1.4523e-05,1.9457e-10,0,0.00018217,-2.6454e-06,2.221,61.786,0,6.8184e+07,1.3323,12053,12991,1,12991,1,0.00036564,9.3615e-10,0,0.00036564,6.3142e-05,1.2496e+08,292.22,0,1.369e+08,32.326,12990,12054,1,12054,1,1.4523e-05,1.0644e-10,0,0.00018206,-2.6392e-06,5.2496e+06,33.724,0,6.8595e+07,1.1221,12053,11097,1,11097,1,-0.00033659,-1.6261e-10,0,1.5184e-06,-6.8437e-05,-1.369e+08,-52.308,0,4.4176e+05,-24.957,11096,11599,1,11599,1,-0.00016754,-1.7249e-11,0,9.1029e-05,-3.6749e-05,-6.814e+07,-5.5289,0,3.4367e+07,-3.962,11598,12509,1,12509,1,0.00019658,3.5942e-10,0,0.00027309,3.1454e-05,6.8595e+07,114.98,0,1.0199e+08,5.7269,12508,527.81,0,527.81,0,0.00021015,2.5784e-10,0,0.00010569,3.937e-05,7.8646e+07,81.714,0,3.9161e+07,9.3752,527.81,1
1820,1.29,12054,1,12054,1,1.4636e-05,3.6827e-11,0,0.00018359,-2.6661e-06,24.908,11.687,0,6.8718e+07,-0.46893,12053,12991,1,12991,1,0.00036849,3.219e-10,0,0.00036849,6.3635e-05,1.2594e+08,103.54,0,1.3797e+08,20.103,12990,12054,1,12054,1,1.4636e-05,-9.0987e-12,0,0.00018348,-2.6598e-06,5.2907e+06,-2.8505,0,6.9132e+07,0.031565,12053,11097,1,11097,1,-0.00033922,-1.1229e-10,0,1.5304e-06,-6.8972e-05,-1.3797e+08,-36.086,0,4.4525e+05,-28.221,11096,11599,1,11599,1,-0.00016885,-3.2612e-11,0,9.1741e-05,-3.7037e-05,-6.8673e+07,-10.311,0,3.4636e+07,-2.9567,11598,12509,1,12509,1,0.00019812,8.5247e-11,0,0.00027522,3.17e-05,6.9132e+07,26.744,0,1.0279e+08,2.2214,12508,527.81,0,527.81,0,0.00021179,9.8159e-11,0,0.00010651,3.9678e-05,7.9261e+07,31.168,0,3.9467e+07,5.5977,527.81,1
1820,1.3,12054,1,12054,1,1.4749e-05,1.1115e-11,0,0.00018501,-2.6867e-06,4.9045,3.6426,0,6.925e+07,-0.5661,12053,12991,1,12991,1,0.00037135,8.2039e-10,0,0.00037135,6.4128e-05,1.2692e+08,262.53,0,1.3904e+08,26.383,12990,12054,1,12054,1,1.4749e-05,-2.9402e-11,0,0.0001849,-2.6804e-06,5.3316e+06,-9.0188,0,6.9667e+07,-0.013855,12053,11097,1,11097,1,-0.00034185,-4.9341e-10,0,1.5421e-06,-6.9506e-05,-1.3904e+08,-155.98,0,4.4867e+05,-47.49,11096,11599,1,11599,1,-0.00017015,-1.7249e-10,0,9.2451e-05,-3.7323e-05,-6.9205e+07,-54.816,0,3.4904e+07,-5.2844,11598,12509,1,12509,1,0.00019965,1.7763e-10,0,0.00027735,3.1945e-05,6.9667e+07,53.985,0,1.0358e+08,6.0299,12508,527.81,0,527.81,0,0.00021343,2.6791e-10,0,0.00010734,3.9985e-05,7.9875e+07,85.565,0,3.9772e+07,11.626,527.81,1
1820,1.31,12054,1,12054,1,1.4863e-05,2.7361e-10,0,0.00018644,-2.7074e-06,-12.792,86.903,0,6.9783e+07,0.16156,12053,12991,1,12991,1,0.00037421,1.0908e-09,0,0.00037421,6.4622e-05,1.2789e+08,338.48,0,1.4011e+08,34.917,12990,12054,1,12054,1,1.4863e-05,1.6451e-10,0,0.00018633,-2.7011e-06,5.3726e+06,52.517,0,7.0203e+07,0.62476,12053,11097,1,11097,1,-0.00034448,-1.8042e-10,0,1.5539e-06,-7.0042e-05,-1.4011e+08,-58.054,0,4.5209e+05,-34.307,11096,11599,1,11599,1,-0.00017146,2.9085e-12,0,9.3163e-05,-3.7611e-05,-6.9738e+07,0.99594,0,3.5172e+07,-5.5561,11598,12509,1,12509,1,0.00020119,4.9068e-10,0,0.00027949,3.2191e-05,7.0203e+07,157.44,0,1.0438e+08,6.6685,12508,527.81,0,527.81,0,0.00021507,3.2312e-10,0,0.00010816,4.0293e-05,8.049e+07,102.37,0,4.0078e+07,9.8188,527.81,1
1820,1.32,12054,1,12054,1,1.4976e-05,1.4633e-10,0,0.00018786,-2.7281e-06,12.871,46.528,0,7.0316e+07,-0.90112,12053,12991,1,12991,1,0.00037706,4.9781e-10,0,0.00037706,6.5115e-05,1.2887e+08,152.21,0,1.4118e+08,14.988,12990,12054,1,12054,1,1.4976e-05,1.0664e-10,0,0.00018775,-2.7217e-06,5.4137e+06,34.299,0,7.0739e+07,-0.76359,12053,11097,1,11097,1,-0.00034711,-9.9325e-11,0,1.5659e-06,-7.0576e-05,-1.4118e+08,-34.018,0,4.5558e+05,-30.269,11096,11599,1,11599,1,-0.00017277,5.8363e-12,0,9.3874e-05,-3.7898e-05,-7.027e+07,1.8222,0,3.5441e+07,-4.8484,11598,12509,1,12509,1,0.00020272,2.8121e-10,0,0.00028162,3.2437e-05,7.0739e+07,90.006,0,1.0518e+08,3.2134,12508,527.81,0,527.81,0,0.00021671,1.5912e-10,0,0.00010899,4.06e-05,8.1104e+07,50.551,0,4.0385e+07,6.4736,527.81,1
1820,1.33,12054,1,12054,1,1.509e-05,9.2579e-11,0,0.00018928,-2.7487e-06,15.429,29.429,0,7.0848e+07,3.7621,12053,12991,1,12991,1,0.00037992,8.3361e-10,0,0.00037992,6.5609e-05,1.2985e+08,264.43,0,1.4225e+08,41.274,12990,12054,1,12054,1,1.509e-05,9.3909e-12,0,0.00018917,-2.7423e-06,5.4547e+06,2.9731,0,7.1275e+07,2.0539,12053,11097,1,11097,1,-0.00034974,-3.5798e-10,0,1.5778e-06,-7.1111e-05,-1.4225e+08,-115.08,0,4.5904e+05,-38.51,11096,11599,1,11599,1,-0.00017408,-1.052e-10,0,9.4585e-05,-3.8185e-05,-7.0803e+07,-33.867,0,3.571e+07,-3.3497,11598,12509,1,12509,1,0.00020426,2.6252e-10,0,0.00028376,3.2683e-05,7.1275e+07,85.655,0,1.0597e+08,10.733,12508,527.81,0,527.81,0,0.00021836,2.8303e-10,0,0.00010981,4.0908e-05,8.1719e+07,90.07,0,4.0691e+07,11.99,527.81,1
1820,1.34,12054,1,12054,1,1.5203e-05,2.0193e-10,0,0.0001907,-2.7694e-06,3.4392,64.16,0,7.138e+07,-0.9867,12053,12991,1,12991,1,0.00038277,1.0675e-09,0,0.00038277,6.6102e-05,1.3082e+08,341.95,0,1.4332e+08,26.094,12990,12054,1,12054,1,1.5203e-05,8.9473e-11,0,0.00019059,-2.7629e-06,5.4957e+06,27.782,0,7.1811e+07,-0.39239,12053,11097,1,11097,1,-0.00035237,-3.2267e-10,0,1.5896e-06,-7.1645e-05,-1.4332e+08,-103.77,0,4.6247e+05,-34.626,11096,11599,1,11599,1,-0.00017539,-4.0874e-11,0,9.5296e-05,-3.8472e-05,-7.1334e+07,-12.661,0,3.5978e+07,-6.7084,11598,12509,1,12509,1,0.00020579,4.1603e-10,0,0.00028589,3.2928e-05,7.1811e+07,131.38,0,1.0677e+08,5.2747,12508,527.81,0,527.81,0,0.00022,3.2049e-10,0,0.00011064,4.1215e-05,8.2333e+07,101.81,0,4.0996e+07,10.085,527.81,1
1820,1.35,12054,1,12054,1,1.5317e-05,1.3131e-10,0,0.00019213,-2.7901e-06,0.69868,41.908,0,7.1914e+07,-1.1979,12053,12991,1,12991,1,0.00038563,7.4089e-10,0,0.00038563,6.6595e-05,1.318e+08,238.07,0,1.4439e+08,14.596,12990,12054,1,12054,1,1.5317e-05,6.6496e-11,0,0.00019201,-2.7835e-06,5.5367e+06,21.16,0,7.2347e+07,-0.71397,12053,11097,1,11097,1,-0.000355,-2.7068e-10,0,1.6015e-06,-7.218e-05,-1.4439e+08,-87.056,0,4.6593e+05,-34.1,11096,11599,1,11599,1,-0.0001767,-3.8771e-11,0,9.6007e-05,-3.8759e-05,-7.1867e+07,-12.181,0,3.6246e+07,-5.5718,11598,12509,1,12509,1,0.00020733,2.972e-10,0,0.00028802,3.3174e-05,7.2347e+07,92.737,0,1.0757e+08,3.4098,12508,527.81,0,527.81,0,0.00022164,2.1938e-10,0,0.00011147,4.1523e-05,8.2948e+07,70.061,0,4.1302e+07,6.6875,527.81,1
1820,1.36,12054,1,12054,1,1.543e-05,-5.5934e-11,0,0.00019355,-2.8107e-06,8.0079,-17.861,0,7.2447e+07,0.9394,12053,12991,1,12991,1,0.00038849,2.8046e-10,0,0.00038849,6.7089e-05,1.3277e+08,90.184,0,1.4546e+08,20.813,12990,12054,1,12054,1,1.543e-05,-4.6121e-11,0,0.00019344,-2.8042e-06,5.5778e+06,-14.733,0,7.2883e+07,0.41959,12053,11097,1,11097,1,-0.00035763,-3.0918e-10,0,1.6133e-06,-7.2715e-05,-1.4546e+08,-99.398,0,4.6939e+05,-28.527,11096,11599,1,11599,1,-0.00017801,-1.5015e-10,0,9.6719e-05,-3.9047e-05,-7.24e+07,-47.641,0,3.6515e+07,-2.7073,11598,12509,1,12509,1,0.00020887,1.952e-11,0,0.00029016,3.342e-05,7.2883e+07,5.8253,0,1.0836e+08,4.5818,12508,527.81,0,527.81,0,0.00022328,1.1703e-10,0,0.00011229,4.1831e-05,8.3563e+07,37.199,0,4.1609e+07,6.712,527.81,1
1820,1.37,12054,1,12054,1,1.5544e-05,2.0446e-10,0,0.00019498,-2.8314e-06,20.215,64.968,0,7.2979e+07,-1.1315,12053,12991,1,12991,1,0.00039135,6.8802e-10,0,0.00039135,6.7582e-05,1.3375e+08,220.51,0,1.4653e+08,15.452,12990,12054,1,12054,1,1.5544e-05,1.433e-10,0,0.00019486,-2.8248e-06,5.6188e+06,45.575,0,7.3419e+07,-0.19984,12053,11097,1,11097,1,-0.00036026,-8.813e-11,0,1.6252e-06,-7.325e-05,-1.4653e+08,-30.101,0,4.7285e+05,-32.158,11096,11599,1,11599,1,-0.00017932,3.5267e-11,0,9.743e-05,-3.9334e-05,-7.2932e+07,11.472,0,3.6784e+07,-4.0524,11598,12509,1,12509,1,0.0002104,3.4416e-10,0,0.00029229,3.3666e-05,7.3419e+07,108.45,0,1.0916e+08,3.0657,12508,527.81,0,527.81,0,0.00022492,2.0566e-10,0,0.00011312,4.2138e-05,8.4177e+07,65.218,0,4.1914e+07,6.9869,527.81,1
1820,1.38,12054,1,12054,1,1.5657e-05,-7.0731e-12,0,0.0001964,-2.8521e-06,7.6386,-2.2039,0,7.3511e+07,-3.0651,12053,12991,1,12991,1,0.0003942,7.0295e-10,0,0.0003942,6.8075e-05,1.3473e+08,225.8,0,1.476e+08,15.179,12990,12054,1,12054,1,1.5657e-05,-3.7621e-11,0,0.00019628,-2.8454e-06,5.6597e+06,-11.897,0,7.3954e+07,-2.221,12053,11097,1,11097,1,-0.00036289,-4.6225e-10,0,1.6371e-06,-7.3784e-05,-1.476e+08,-148.61,0,4.7629e+05,-38.468,11096,11599,1,11599,1,-0.00018062,-1.77e-10,0,9.8141e-05,-3.962e-05,-7.3464e+07,-55.011,0,3.7052e+07,-8.1938,11598,12509,1,12509,1,0.00021194,1.3297e-10,0,0.00029442,3.3911e-05,7.3954e+07,42.051,0,1.0996e+08,4.0598,12508,527.81,0,527.81,0,0.00022656,2.4116e-10,0,0.00011394,4.2446e-05,8.4791e+07,76.841,0,4.222e+07,9.5415,527.81,1
1820,1.39,12054,1,12054,1,1.5771e-05,9.6384e-11,0,0.00019782,-2.8727e-06,-1.5879,30.644,0,7.4044e+07,2.7222,12053,12991,1,12991,1,0.00039706,5.8237e-10,0,0.00039706,6.8568e-05,1.357e+08,187.19,0,1.4867e+08,17.656,12990,12054,1,12054,1,1.5771e-05,5.5957e-11,0,0.0001977,-2.866e-06,5.7007e+06,18.795,0,7.449e+07,3.4908,12053,11097,1,11097,1,-0.00036552,-2.8539e-10,0,1.6489e-06,-7.4319e-05,-1.4867e+08,-91.784,0,4.7973e+05,-24.923,11096,11599,1,11599,1,-0.00018193,-4.1533e-11,0,9.8852e-05,-3.9908e-05,-7.3996e+07,-12.809,0,3.732e+07,-2.4002,11598,12509,1,12509,1,0.00021347,2.4686e-10,0,0.00029656,3.4157e-05,7.449e+07,77.908,0,1.1075e+08,7.9552,12508,527.81,0,527.81,0,0.00022821,1.769e-10,0,0.00011477,4.2753e-05,8.5405e+07,56.244,0,4.2526e+07,6.7494,527.81,1
1820,1.4,12054,1,12054,1,1.5884e-05,2.2103e-10,0,0.00019924,-2.8934e-06,2.9924,70.147,0,7.4577e+07,-0.91367,12053,12991,1,12991,1,0.00039991,9.4577e-10,0,0.00039991,6.9061e-05,1.3668e+08,295.98,0,1.4974e+08,17.402,12990,12054,1,12054,1,1.5884e-05,1.3693e-10,0,0.00019913,-2.8866e-06,5.7417e+06,43.448,0,7.5026e+07,-0.5451,12053,11097,1,11097,1,-0.00036815,-1.9277e-10,0,1.6608e-06,-7.4853e-05,-1.4974e+08,-62.012,0,4.8318e+05,-28.794,11096,11599,1,11599,1,-0.00018324,-1.0271e-11,0,9.9563e-05,-4.0195e-05,-7.4529e+07,-3.2517,0,3.7589e+07,-6.0828,11598,12509,1,12509,1,0.00021501,4.1499e-10,0,0.00029869,3.4403e-05,7.5026e+07,134.02,0,1.1155e+08,4.7673,12508,527.81,0,527.81,0,0.00022985,2.756e-10,0,0.00011559,4.3061e-05,8.6019e+07,87.399,0,4.2832e+07,8.0047,527.81,1
1820,1.41,12054,1,12054,1,1.5998e-05,2.1548e-10,0,0.00020067,-2.9141e-06,9.3298,68.62,0,7.511e+07,0.31794,12053,12991,1,12991,1,0.00040277,9.6476e-10,0,0.00040277,6.9555e-05,1.3766e+08,308.37,0,1.5081e+08,34.512,12990,12054,1,12054,1,1.5998e-05,9.7443e-11,0,0.00020055,-2.9072e-06,5.7828e+06,30.31,0,7.5562e+07,1.1172,12053,11097,1,11097,1,-0.00037078,-2.9743e-10,0,1.6726e-06,-7.5388e-05,-1.5081e+08,-95.659,0,4.8664e+05,-39.552,11096,11599,1,11599,1,-0.00018455,-4.8735e-11,0,0.00010027,-4.0482e-05,-7.5061e+07,-15.726,0,3.7857e+07,-6.395,11598,12509,1,12509,1,0.00021655,4.6681e-10,0,0.00030082,3.4649e-05,7.5562e+07,146.74,0,1.1235e+08,7.7696,12508,527.81,0,527.81,0,0.00023149,3.3995e-10,0,0.00011642,4.3368e-05,8.6634e+07,108.23,0,4.3138e+07,12.452,527.81,1
1820,1.42,12054,1,12054,1,1.6111e-05,3.576e-10,0,0.00020209,-2.9347e-06,3.6766,113.72,0,7.5643e+07,-1.5202,12053,12991,1,12991,1,0.00040563,9.1271e-10,0,0.00040563,7.0049e-05,1.3863e+08,278.53,0,1.5188e+08,14.793,12990,12054,1,12054,1,1.6111e-05,3.2245e-10,0,0.00020197,-2.9279e-06,5.8238e+06,102.83,0,7.6098e+07,-0.65357,12053,11097,1,11097,1,-0.00037341,-8.8738e-11,0,1.6845e-06,-7.5923e-05,-1.5188e+08,-28.409,0,4.9009e+05,-30.555,11096,11599,1,11599,1,-0.00018586,1.3976e-10,0,0.00010099,-4.0769e-05,-7.5594e+07,44.215,0,3.8126e+07,-5.878,11598,12509,1,12509,1,0.00021808,5.7303e-10,0,0.00030296,3.4894e-05,7.6098e+07,182.71,0,1.1314e+08,3.8483,12508,527.81,0,527.81,0,0.00023313,2.6822e-10,0,0.00011725,4.3676e-05,8.7249e+07,85.189,0,4.3444e+07,7.364,527.81,1
1820,1.43,12054,1,12054,1,1.6224e-05,2.1894e-10,0,0.00020351,-2.9554e-06,7.2967,69.495,0,7.6175e+07,0.67834,12053,12991,1,12991,1,0.00040848,1.1596e-09,0,0.00040848,7.0541e-05,1.3961e+08,372.77,0,1.5295e+08,24.774,12990,12054,1,12054,1,1.6224e-05,9.3386e-11,0,0.00020339,-2.9485e-06,5.8648e+06,29.303,0,7.6634e+07,2.2188,12053,11097,1,11097,1,-0.00037604,-4.196e-10,0,1.6963e-06,-7.6457e-05,-1.5295e+08,-134.93,0,4.9353e+05,-40.678,11096,11599,1,11599,1,-0.00018717,-6.384e-11,0,0.0001017,-4.1056e-05,-7.6126e+07,-20.227,0,3.8394e+07,-6.0114,11598,12509,1,12509,1,0.00021962,4.75e-10,0,0.00030509,3.514e-05,7.6634e+07,151.64,0,1.1394e+08,9.3626,12508,527.81,0,527.81,0,0.00023477,3.8015e-10,0,0.00011807,4.3983e-05,8.7863e+07,120.57,0,4.375e+07,12.138,527.81,1
1820,1.44,12054,1,12054,1,1.6338e-05,-8.1328e-11,0,0.00020494,-2.976e-06,-1.2201,-25.761,0,7.6707e+07,-0.0091481,12053,12991,1,12991,1,0.00041134,5.2265e-10,0,0.00041134,7.1034e-05,1.4058e+08,166.73,0,1.5401e+08,14.024,12990,12054,1,12054,1,1.6338e-05,-5.9705e-11,0,0.00020481,-2.9691e-06,5.9058e+06,-18.598,0,7.7169e+07,0.41117,12053,11097,1,11097,1,-0.00037866,-5.7003e-10,0,1.7082e-06,-7.6991e-05,-1.5401e+08,-176.49,0,4.9699e+05,-30.018,11096,11599,1,11599,1,-0.00018848,-2.2489e-10,0,0.00010241,-4.1343e-05,-7.6658e+07,-71.521,0,3.8663e+07,-4.0272,11598,12509,1,12509,1,0.00022115,3.4692e-11,0,0.00030722,3.5386e-05,7.7169e+07,10.794,0,1.1474e+08,5.4368,12508,527.81,0,527.81,0,0.00023641,2.1137e-10,0,0.0001189,4.4291e-05,8.8477e+07,67.271,0,4.4055e+07,6.9109,527.81,1
1820,1.45,12054,1,12054,1,1.6451e-05,1.1897e-10,0,0.00020636,-2.9967e-06,3.76,37.784,0,7.724e+07,-0.95758,12053,12991,1,12991,1,0.0004142,1.226e-09,0,0.0004142,7.1528e-05,1.4156e+08,385.67,0,1.5509e+08,37.722,12990,12054,1,12054,1,1.6451e-05,2.7177e-12,0,0.00020624,-2.9897e-06,5.9468e+06,0.84505,0,7.7706e+07,-0.48521,12053,11097,1,11097,1,-0.00038129,-4.1863e-10,0,1.7201e-06,-7.7526e-05,-1.5509e+08,-134.59,0,5.0044e+05,-32.667,11096,11599,1,11599,1,-0.00018979,-1.2109e-10,0,0.00010312,-4.163e-05,-7.719e+07,-39.183,0,3.8931e+07,-6.6815,11598,12509,1,12509,1,0.00022269,2.9538e-10,0,0.00030936,3.5631e-05,7.7706e+07,93.83,0,1.1553e+08,5.8523,12508,527.81,0,527.81,0,0.00023806,3.5531e-10,0,0.00011972,4.4599e-05,8.9092e+07,113.05,0,4.4362e+07,12.375,527.81,1
1820,1.46,12054,1,12054,1,1.6565e-05,2.6856e-10,0,0.00020778,-3.0174e-06,-0.52798,85.351,0,7.7773e+07,-0.60291,12053,12991,1,12991,1,0.00041705,6.2858e-10,0,0.00041705,7.2021e-05,1.4254e+08,192,0,1.5616e+08,11.721,12990,12054,1,12054,1,1.6565e-05,2.7183e-10,0,0.00020766,-3.0103e-06,5.9878e+06,87.742,0,7.8242e+07,-0.2654,12053,11097,1,11097,1,-0.00038393,-8.0144e-11,0,1.7319e-06,-7.8061e-05,-1.5616e+08,-27.449,0,5.0389e+05,-22.571,11096,11599,1,11599,1,-0.0001911,1.1771e-10,0,0.00010383,-4.1917e-05,-7.7723e+07,37.261,0,3.92e+07,-3.8054,11598,12509,1,12509,1,0.00022423,4.2649e-10,0,0.00031149,3.5877e-05,7.8242e+07,136.03,0,1.1633e+08,2.5467,12508,527.81,0,527.81,0,0.0002397,1.8744e-10,0,0.00012055,4.4906e-05,8.9706e+07,59.397,0,4.4668e+07,4.7995,527.81,1
1820,1.47,12054,1,12054,1,1.6678e-05,1.2182e-10,0,0.00020921,-3.038e-06,1.1492,38.771,0,7.8305e+07,0.32891,12053,12991,1,12991,1,0.00041991,5.948e-10,0,0.00041991,7.2514e-05,1.4351e+08,185.02,0,1.5722e+08,10.676,12990,12054,1,12054,1,1.6678e-05,8.8656e-11,0,0.00020908,-3.0309e-06,6.0288e+06,28.573,0,7.8777e+07,0.55833,12053,11097,1,11097,1,-0.00038655,-2.2072e-10,0,1.7438e-06,-7.8595e-05,-1.5722e+08,-70.724,0,5.0734e+05,-22.99,11096,11599,1,11599,1,-0.0001924,1.2794e-11,0,0.00010454,-4.2204e-05,-7.8255e+07,4.0729,0,3.9468e+07,-2.595,11598,12509,1,12509,1,0.00022576,2.2893e-10,0,0.00031362,3.6123e-05,7.8777e+07,73.11,0,1.1713e+08,3.8397,12508,527.81,0,527.81,0,0.00024134,1.5734e-10,0,0.00012137,4.5214e-05,9.032e+07,50.035,0,4.4973e+07,5.0324,527.81,1
1820,1.48,12054,1,12054,1,1.6792e-05,1.9509e-10,0,0.00021063,-3.0587e-06,6.3836,61.994,0,7.8839e+07,-1.0186,12053,12991,1,12991,1,0.00042277,6.4178e-10,0,0.00042277,7.3008e-05,1.4449e+08,200.54,0,1.583e+08,16.699,12990,12054,1,12054,1,1.6792e-05,1.3297e-10,0,0.00021051,-3.0516e-06,6.0699e+06,42.085,0,7.9314e+07,-0.1169,12053,11097,1,11097,1,-0.00038918,-6.811e-11,0,1.7557e-06,-7.9131e-05,-1.583e+08,-23.328,0,5.108e+05,-30.704,11096,11599,1,11599,1,-0.00019371,4.2841e-11,0,0.00010525,-4.2492e-05,-7.8788e+07,13.452,0,3.9737e+07,-3.4553,11598,12509,1,12509,1,0.0002273,3.2966e-10,0,0.00031576,3.6369e-05,7.9314e+07,105.86,0,1.1792e+08,2.9233,12508,527.81,0,527.81,0,0.00024298,1.9004e-10,0,0.0001222,4.5522e-05,9.0935e+07,60.291,0,4.528e+07,6.024,527.81,1
1820,1.49,12054,1,12054,1,1.6905e-05,2.7528e-10,0,0.00021205,-3.0794e-06,4.7945,87.484,0,7.9371e+07,-0.83811,12053,12991,1,12991,1,0.00042562,9.7485e-10,0,0.00042562,7.3501e-05,1.4547e+08,309.77,0,1.5936e+08,15.982,12990,12054,1,12054,1,1.6905e-05,2.0437e-10,0,0.00021193,-3.0722e-06,6.1109e+06,64.3,0,7.9849e+07,-0.43047,12053,11097,1,11097,1,-0.00039181,-7.9166e-11,0,1.7675e-06,-7.9665e-05,-1.5936e+08,-27.114,0,5.1424e+05,-34.015,11096,11599,1,11599,1,-0.00019502,7.2019e-11,0,0.00010596,-4.2779e-05,-7.932e+07,22.894,0,4.0005e+07,-4.0379,11598,12509,1,12509,1,0.00022883,4.3313e-10,0,0.00031789,3.6614e-05,7.9849e+07,140.01,0,1.1872e+08,3.7678,12508,527.81,0,527.81,0,0.00024462,2.515e-10,0,0.00012303,4.5829e-05,9.1549e+07,79.824,0,4.5585e+07,6.9499,527.81,1
1820,1.5,12054,1,12054,1,1.7019e-05,2.0117e-10,0,0.00021348,-3.1001e-06,2.9544,63.724,0,7.9904e+07,4.912,12053,12991,1,12991,1,0.00042848,8.5519e-10,0,0.00042848,7.3995e-05,1.4644e+08,274.83,0,1.6043e+08,41.448,12990,12054,1,12054,1,1.7019e-05,1.0778e-10,0,0.00021335,-3.0928e-06,6.1519e+06,34.897,0,8.0386e+07,3.6611,12053,11097,1,11097,1,-0.00039444,-2.3327e-10,0,1.7794e-06,-8.02e-05,-1.6043e+08,-75.031,0,5.1769e+05,-33.52,11096,11599,1,11599,1,-0.00019633,-2.0463e-11,0,0.00010667,-4.3066e-05,-7.9852e+07,-6.5651,0,4.0274e+07,-3.0633,11598,12509,1,12509,1,0.00023037,4.1054e-10,0,0.00032002,3.686e-05,8.0386e+07,130.01,0,1.1952e+08,11.105,12508,527.81,0,527.81,0,0.00024627,2.8024e-10,0,0.00012385,4.6137e-05,9.2164e+07,88.417,0,4.5892e+07,12.041,527.81,1
1820,1.51,12054,1,12054,1,1.7132e-05,5.4014e-11,0,0.0002149,-3.1207e-06,20.328,17.145,0,8.0437e+07,-0.97351,12053,12991,1,12991,1,0.00043134,6.8923e-10,0,0.00043134,7.4488e-05,1.4742e+08,212.44,0,1.615e+08,16.694,12990,12054,1,12054,1,1.7132e-05,3.867e-12,0,0.00021477,-3.1134e-06,6.1929e+06,1.3117,0,8.0921e+07,-0.61396,12053,11097,1,11097,1,-0.00039707,-3.6158e-10,0,1.7913e-06,-8.0735e-05,-1.615e+08,-116.26,0,5.2117e+05,-25.921,11096,11599,1,11599,1,-0.00019764,-9.8976e-11,0,0.00010739,-4.3353e-05,-8.0385e+07,-30.798,0,4.0542e+07,-5.8992,11598,12509,1,12509,1,0.0002319,1.9167e-10,0,0.00032216,3.7106e-05,8.0921e+07,60.827,0,1.2031e+08,5.5885,12508,527.81,0,527.81,0,0.00024791,2.2684e-10,0,0.00012468,4.6444e-05,9.2778e+07,72.043,0,4.6197e+07,8.3738,527.81,1
1820,1.52,12054,1,12054,1,1.7246e-05,1.4617e-10,0,0.00021632,-3.1414e-06,3.0539,46.51,0,8.097e+07,1.1416,12053,12991,1,12991,1,0.0004342,7.7767e-10,0,0.0004342,7.4981e-05,1.4839e+08,249.89,0,1.6257e+08,24.191,12990,12054,1,12054,1,1.7246e-05,5.7245e-11,0,0.0002162,-3.1341e-06,6.234e+06,18.287,0,8.1458e+07,1.529,12053,11097,1,11097,1,-0.0003997,-2.4967e-10,0,1.8031e-06,-8.127e-05,-1.6257e+08,-80.276,0,5.246e+05,-35.567,11096,11599,1,11599,1,-0.00019895,-3.6465e-11,0,0.0001081,-4.364e-05,-8.0917e+07,-11.3,0,4.0811e+07,-4.397,11598,12509,1,12509,1,0.00023344,3.205e-10,0,0.00032429,3.7352e-05,8.1458e+07,100.45,0,1.2111e+08,7.2807,12508,527.81,0,527.81,0,0.00024955,2.4693e-10,0,0.0001255,4.6752e-05,9.3393e+07,78.47,0,4.6504e+07,8.8701,527.81,1
1820,1.53,12054,1,12054,1,1.7359e-05,4.5235e-11,0,0.00021775,-3.1621e-06,-0.88352,14.367,0,8.1502e+07,0.23331,12053,12991,1,12991,1,0.00043705,2.7163e-10,0,0.00043705,7.5475e-05,1.4937e+08,82.468,0,1.6364e+08,13.581,12990,12054,1,12054,1,1.7359e-05,2.3633e-11,0,0.00021762,-3.1547e-06,6.275e+06,7.4508,0,8.1993e+07,0.32807,12053,11097,1,11097,1,-0.00040233,-1.4517e-10,0,1.815e-06,-8.1804e-05,-1.6364e+08,-46.706,0,5.2806e+05,-28.005,11096,11599,1,11599,1,-0.00020026,-2.9843e-11,0,0.00010881,-4.3927e-05,-8.145e+07,-9.4676,0,4.1079e+07,-2.5897,11598,12509,1,12509,1,0.00023498,1.1734e-10,0,0.00032643,3.7598e-05,8.1993e+07,37.03,0,1.2191e+08,3.7696,12508,527.81,0,527.81,0,0.00025119,9.1687e-11,0,0.00012633,4.706e-05,9.4008e+07,29.063,0,4.681e+07,5.3611,527.81,1
1820,1.54,12054,1,12054,1,1.7473e-05,2.2458e-10,0,0.00021917,-3.1827e-06,10.056,71.379,0,8.2035e+07,-2.2683,12053,12991,1,12991,1,0.00043991,5.4449e-10,0,0.00043991,7.5968e-05,1.5035e+08,166.42,0,1.6471e+08,11.099,12990,12054,1,12054,1,1.7472e-05,2.4154e-10,0,0.00021904,-3.1753e-06,6.316e+06,76.711,0,8.2529e+07,-1.9738,12053,11097,1,11097,1,-0.00040496,-8.2685e-11,0,1.8269e-06,-8.2339e-05,-1.6471e+08,-28.319,0,5.3151e+05,-33.56,11096,11599,1,11599,1,-0.00020157,9.961e-11,0,0.00010952,-4.4214e-05,-8.1982e+07,31.317,0,4.1348e+07,-5.0745,11598,12509,1,12509,1,0.00023651,3.48e-10,0,0.00032856,3.7843e-05,8.2529e+07,110.59,0,1.227e+08,1.448,12508,527.81,0,527.81,0,0.00025283,1.5979e-10,0,0.00012715,4.7367e-05,9.4622e+07,50.609,0,4.7115e+07,5.2994,527.81,1
1820,1.55,12054,1,12054,1,1.7586e-05,-5.92e-12,0,0.00022059,-3.2034e-06,-1.1322,-1.8746,0,8.2567e+07,-0.38617,12053,12991,1,12991,1,0.00044276,2.9783e-10,0,0.00044276,7.646e-05,1.5132e+08,95.76,0,1.6578e+08,11.07,12990,12054,1,12054,1,1.7586e-05,4.9274e-13,0,0.00022046,-3.1959e-06,6.357e+06,0.15207,0,8.3065e+07,0.16402,12053,11097,1,11097,1,-0.00040759,-3.7281e-10,0,1.8387e-06,-8.2873e-05,-1.6578e+08,-119.89,0,5.3496e+05,-24.35,11096,11599,1,11599,1,-0.00020287,-6.6744e-11,0,0.00011023,-4.4501e-05,-8.2514e+07,-21.68,0,4.1616e+07,-2.6752,11598,12509,1,12509,1,0.00023805,7.1546e-11,0,0.00033069,3.8089e-05,8.3065e+07,22.568,0,1.235e+08,2.5286,12508,527.81,0,527.81,0,0.00025447,1.2028e-10,0,0.00012798,4.7674e-05,9.5236e+07,38.267,0,4.7421e+07,4.7915,527.81,1
1820,1.56,12054,1,12054,1,1.7699e-05,4.6913e-11,0,0.00022201,-3.224e-06,3.2921,14.834,0,8.3099e+07,0.0013614,12053,12991,1,12991,1,0.00044562,1.2602e-09,0,0.00044562,7.6954e-05,1.523e+08,386.39,0,1.6685e+08,27.065,12990,12054,1,12054,1,1.7699e-05,-2.8208e-11,0,0.00022188,-3.2165e-06,6.3979e+06,-8.8956,0,8.36e+07,-0.069734,12053,11097,1,11097,1,-0.00041022,-7.4393e-10,0,1.8505e-06,-8.3407e-05,-1.6685e+08,-237.12,0,5.384e+05,-41.737,11096,11599,1,11599,1,-0.00020418,-2.1641e-10,0,0.00011094,-4.4788e-05,-8.3046e+07,-69.152,0,4.1884e+07,-7.763,11598,12509,1,12509,1,0.00023958,2.7448e-10,0,0.00033282,3.8334e-05,8.36e+07,86.939,0,1.243e+08,8.5489,12508,527.81,0,527.81,0,0.00025611,4.0875e-10,0,0.0001288,4.7982e-05,9.585e+07,129.95,0,4.7727e+07,10.507,527.81,1
1820,1.57,12054,1,12054,1,1.7813e-05,3.0355e-10,0,0.00022344,-3.2447e-06,3.5569,96.635,0,8.3632e+07,-1.9268,12053,12991,1,12991,1,0.00044848,8.5858e-10,0,0.00044848,7.7447e-05,1.5328e+08,269.02,0,1.6792e+08,21.708,12990,12054,1,12054,1,1.7813e-05,2.7688e-10,0,0.00022331,-3.2371e-06,6.4389e+06,87.881,0,8.4136e+07,-1.7494,12053,11097,1,11097,1,-0.00041285,-1.1894e-10,0,1.8624e-06,-8.3943e-05,-1.6792e+08,-38.311,0,5.4186e+05,-40.813,11096,11599,1,11599,1,-0.00020549,6.4374e-11,0,0.00011165,-4.5075e-05,-8.3578e+07,20.541,0,4.2153e+07,-7.6915,11598,12509,1,12509,1,0.00024112,5.3044e-10,0,0.00033496,3.858e-05,8.4136e+07,169.13,0,1.2509e+08,3.8446,12508,527.81,0,527.81,0,0.00025776,2.6624e-10,0,0.00012963,4.8289e-05,9.6464e+07,84.846,0,4.8033e+07,8.9955,527.81,1
1820,1.58,12054,1,12054,1,1.7926e-05,1.3582e-10,0,0.00022486,-3.2654e-06,5.5637,43.282,0,8.4166e+07,2.817,12053,12991,1,12991,1,0.00045133,7.8167e-10,0,0.00045133,7.7941e-05,1.5425e+08,250.78,0,1.6899e+08,36.385,12990,12054,1,12054,1,1.7926e-05,5.5978e-11,0,0.00022473,-3.2577e-06,6.48e+06,17.227,0,8.4673e+07,1.6675,12053,11097,1,11097,1,-0.00041548,-2.4684e-10,0,1.8743e-06,-8.4478e-05,-1.6899e+08,-79.381,0,5.4531e+05,-32.498,11096,11599,1,11599,1,-0.0002068,-3.7803e-11,0,0.00011236,-4.5363e-05,-8.4111e+07,-11.585,0,4.2422e+07,-4.326,11598,12509,1,12509,1,0.00024266,2.9243e-10,0,0.00033709,3.8826e-05,8.4673e+07,91.514,0,1.2589e+08,7.2783,12508,527.81,0,527.81,0,0.0002594,2.3648e-10,0,0.00013046,4.8597e-05,9.708e+07,75.362,0,4.8339e+07,10.867,527.81,1
1820,1.59,12054,1,12054,1,1.804e-05,1.9492e-10,0,0.00022629,-3.2861e-06,-16.613,62.047,0,8.4698e+07,-1.1984,12053,12991,1,12991,1,0.00045419,8.2528e-10,0,0.00045419,7.8434e-05,1.5523e+08,276.51,0,1.7006e+08,15.879,12990,12054,1,12054,1,1.804e-05,1.2525e-10,0,0.00022615,-3.2784e-06,6.521e+06,40.178,0,8.5209e+07,-0.045587,12053,11097,1,11097,1,-0.00041811,-1.8789e-10,0,1.8861e-06,-8.5012e-05,-1.7006e+08,-60.447,0,5.4874e+05,-35.836,11096,11599,1,11599,1,-0.00020811,-1.0666e-11,0,0.00011308,-4.565e-05,-8.4644e+07,-3.3773,0,4.269e+07,-6.1049,11598,12509,1,12509,1,0.00024419,3.7309e-10,0,0.00033923,3.9072e-05,8.5209e+07,119.84,0,1.2669e+08,4.2173,12508,527.81,0,527.81,0,0.00026104,2.3941e-10,0,0.00013128,4.8905e-05,9.7694e+07,76.318,0,4.8645e+07,7.0066,527.81,1
1820,1.6,12054,1,12054,1,1.8153e-05,-8.0084e-11,0,0.00022771,-3.3067e-06,-6.0799,-25.464,0,8.5231e+07,-1.1684,12053,12991,1,12991,1,0.00045704,1.7898e-11,0,0.00045704,7.8927e-05,1.562e+08,6.1301,0,1.7113e+08,7.6963,12990,12054,1,12054,1,1.8153e-05,-7.1212e-11,0,0.00022757,-3.299e-06,6.562e+06,-22.615,0,8.5744e+07,-1.0845,12053,11097,1,11097,1,-0.00042074,-3.0655e-10,0,1.898e-06,-8.5546e-05,-1.7113e+08,-98.581,0,5.5221e+05,-20.729,11096,11599,1,11599,1,-0.00020942,-9.3009e-11,0,0.00011379,-4.5937e-05,-8.5176e+07,-29.831,0,4.2959e+07,-2.4671,11598,12509,1,12509,1,0.00024573,-4.7159e-11,0,0.00034136,3.9317e-05,8.5744e+07,-15.135,0,1.2748e+08,0.69406,12508,527.81,0,527.81,0,0.00026268,5.4266e-11,0,0.00013211,4.9212e-05,9.8308e+07,17.323,0,4.8951e+07,3.4832,527.81,1
1820,1.61,12054,1,12054,1,1.8267e-05,3.7337e-10,0,0.00022913,-3.3274e-06,-1.3357,118.71,0,8.5763e+07,1.937,12053,12991,1,12991,1,0.0004599,1.0701e-09,0,0.0004599,7.9421e-05,1.5718e+08,335.64,0,1.722e+08,29.11,12990,12054,1,12054,1,1.8267e-05,3.3487e-10,0,0.000229,-3.3196e-06,6.603e+06,106.78,0,8.628e+07,1.2719,12053,11097,1,11097,1,-0.00042337,-1.1475e-10,0,1.9099e-06,-8.6082e-05,-1.722e+08,-36.975,0,5.5566e+05,-34.684,11096,11599,1,11599,1,-0.00021073,1.1316e-10,0,0.0001145,-4.6224e-05,-8.5708e+07,36.266,0,4.3227e+07,-4.7419,11598,12509,1,12509,1,0.00024726,6.1163e-10,0,0.00034349,3.9563e-05,8.628e+07,195.5,0,1.2828e+08,8.1161,12508,527.81,0,527.81,0,0.00026432,3.0567e-10,0,0.00013293,4.952e-05,9.8922e+07,96.969,0,4.9257e+07,9.682,527.81,1
1820,1.62,12054,1,12054,1,1.838e-05,8.1896e-10,0,0.00023055,-3.348e-06,-5.131,260.16,0,8.6296e+07,13.763,12053,12991,1,12991,1,0.00046276,2.0759e-09,0,0.00046276,7.9914e-05,1.5816e+08,647.03,0,1.7327e+08,1191.6,12990,12054,1,12054,1,1.838e-05,8.4145e-10,0,0.00023042,-3.34e-06,6.644e+06,267.41,0,8.6815e+07,-4.1565,12053,11097,1,11097,1,-0.000426,-5.3653e-10,0,1.9215e-06,-8.6616e-05,-1.7327e+08,-183.76,0,5.5913e+05,-73.288,11096,11599,1,11599,1,-0.00021204,3.7419e-10,0,0.00011521,-4.651e-05,-8.624e+07,124.25,0,4.3495e+07,-18.199,11598,12509,1,12509,1,0.0002488,1.2675e-09,0,0.00034562,3.9809e-05,8.6815e+07,404.14,0,1.2908e+08,6.9227,12508,527.81,0,527.81,0,0.00026596,6.0053e-10,0,0.00013376,4.9827e-05,9.9536e+07,190.83,0,4.9563e+07,116.95,527.81,1
1820,1.63,12054,1,12054,1,1.8494e-05,2.3925e-10,0,0.00023198,-3.3687e-06,-5.8649,75.942,0,8.6829e+07,3.2822,12053,12991,1,12991,1,0.00046562,7.5335e-10,0,0.00046562,8.0408e-05,1.5913e+08,228.23,0,1.7434e+08,32.274,12990,12054,1,12054,1,1.8494e-05,2.0016e-10,0,0.00023184,-3.3608e-06,6.6851e+06,63.831,0,8.7352e+07,2.9829,12053,11097,1,11097,1,-0.00042863,-1.1189e-10,0,1.9336e-06,-8.7151e-05,-1.7434e+08,-36.46,0,5.6256e+05,-32.901,11096,11599,1,11599,1,-0.00021335,2.371e-11,0,0.00011592,-4.6798e-05,-8.6773e+07,7.6784,0,4.3764e+07,-4.1041,11598,12509,1,12509,1,0.00025033,4.4803e-10,0,0.00034776,4.0055e-05,8.7352e+07,143.59,0,1.2988e+08,7.7033,12508,527.81,0,527.81,0,0.00026761,2.3551e-10,0,0.00013458,5.0135e-05,1.0015e+08,74.39,0,4.9869e+07,9.8337,527.81,1
1820,1.64,12054,1,12054,1,1.8607e-05,3.0135e-10,0,0.0002334,-3.3894e-06,-4.7837,95.909,0,8.7362e+07,-4.7025,12053,12991,1,12991,1,0.00046847,1.1615e-09,0,0.00046847,8.0901e-05,1.6011e+08,362.57,0,1.7541e+08,13.68,12990,12054,1,12054,1,1.8607e-05,1.9273e-10,0,0.00023326,-3.3815e-06,6.7261e+06,62.168,0,8.7888e+07,-3.9991,12053,11097,1,11097,1,-0.00043126,-1.5974e-10,0,1.9455e-06,-8.7686e-05,-1.7541e+08,-51.403,0,5.66e+05,-39.925,11096,11599,1,11599,1,-0.00021466,-3.6648e-12,0,0.00011663,-4.7085e-05,-8.7305e+07,-1.0699,0,4.4033e+07,-11.094,11598,12509,1,12509,1,0.00025187,5.501e-10,0,0.00034989,4.03e-05,8.7888e+07,175.74,0,1.3067e+08,3.9363,12508,527.81,0,527.81,0,0.00026925,3.5063e-10,0,0.00013541,5.0443e-05,1.0077e+08,111.64,0,5.0175e+07,10.823,527.81,1
1820,1.65,12054,1,12054,1,1.8721e-05,1.7913e-10,0,0.00023482,-3.4101e-06,-1.4407,56.934,0,8.7895e+07,-4.8243,12053,12991,1,12991,1,0.00047133,8.4987e-10,0,0.00047133,8.1394e-05,1.6109e+08,272.53,0,1.7648e+08,14.764,12990,12054,1,12054,1,1.8721e-05,5.4069e-11,0,0.00023469,-3.4021e-06,6.7671e+06,17.205,0,8.8424e+07,-1.8059,12053,11097,1,11097,1,-0.00043389,-2.0222e-10,0,1.9573e-06,-8.822e-05,-1.7648e+08,-65.047,0,5.6946e+05,-43.25,11096,11599,1,11599,1,-0.00021596,-3.9301e-11,0,0.00011734,-4.7372e-05,-8.7838e+07,-12.35,0,4.4301e+07,-9.7945,11598,12509,1,12509,1,0.00025341,3.6573e-10,0,0.00035203,4.0546e-05,8.8424e+07,115.48,0,1.3147e+08,3.1451,12508,527.81,0,527.81,0,0.00027089,2.8606e-10,0,0.00013624,5.075e-05,1.0138e+08,91.001,0,5.0481e+07,10.933,527.81,1
1820,1.66,12054,1,12054,1,1.8831e-05,-1.9331e-09,0,0.00023622,-3.4301e-06,-119.65,-614.12,0,8.8417e+07,56.555,12053,12991,1,12991,1,0.00047415,1.039e-09,0,0.00047415,8.1881e-05,1.6205e+08,355.85,0,1.7753e+08,1480.4,12990,12054,1,12054,1,1.8831e-05,-1.9872e-09,0,0.00023608,-3.4221e-06,6.8071e+06,-641.08,0,8.8949e+07,29.889,12053,11097,1,11097,1,-0.00043648,-6.1422e-09,0,1.9681e-06,-8.8747e-05,-1.7753e+08,-1974,0,5.727e+05,-214.68,11096,11599,1,11599,1,-0.00021725,-2.7776e-09,0,0.00011804,-4.7654e-05,-8.836e+07,-894.18,0,4.4564e+07,-1.2001,11598,12509,1,12509,1,0.00025491,-8.6559e-10,0,0.00035412,4.0787e-05,8.8949e+07,-279.81,0,1.3225e+08,72.501,12508,527.81,0,527.81,0,0.0002725,1.4378e-09,0,0.00013705,5.1052e-05,1.0198e+08,456.6,0,5.0781e+07,151.77,527.81,1
1820,1.67,12054,1,12054,1,1.8947e-05,-1.6152e-10,0,0.00023767,-3.4514e-06,5.7929,-51.323,0,8.896e+07,-1.2326,12053,12991,1,12991,1,0.00047704,1.9151e-10,0,0.00047704,8.238e-05,1.6304e+08,65.537,0,1.7862e+08,11.123,12990,12054,1,12054,1,1.8947e-05,-1.4749e-10,0,0.00023753,-3.4433e-06,6.8491e+06,-46.964,0,8.9495e+07,-0.5743,12053,11097,1,11097,1,-0.00043914,-4.9869e-10,0,1.9811e-06,-8.9289e-05,-1.7862e+08,-154.4,0,5.7638e+05,-34.288,11096,11599,1,11599,1,-0.00021858,-3.0777e-10,0,0.00011876,-4.7946e-05,-8.8902e+07,-98.149,0,4.4838e+07,-3.9198,11598,12509,1,12509,1,0.00025648,-9.069e-12,0,0.00035629,4.1038e-05,8.9495e+07,-2.76,0,1.3306e+08,3.2266,12508,527.81,0,527.81,0,0.00027417,1.6938e-10,0,0.00013789,5.1365e-05,1.0261e+08,53.893,0,5.1092e+07,6.7093,527.81,1
1820,1.68,12054,1,12054,1,1.9061e-05,5.398e-11,0,0.00023909,-3.4721e-06,0.28548,17.111,0,8.9492e+07,-1.225,12053,12991,1,12991,1,0.0004799,7.4249e-10,0,0.0004799,8.2873e-05,1.6401e+08,238.66,0,1.7969e+08,13.035,12990,12054,1,12054,1,1.9061e-05,3.2063e-12,0,0.00023895,-3.4639e-06,6.8901e+06,1.0578,0,9.0032e+07,0.05728,12053,11097,1,11097,1,-0.00044177,-3.5139e-10,0,1.9929e-06,-8.9824e-05,-1.7969e+08,-112.99,0,5.7982e+05,-33.76,11096,11599,1,11599,1,-0.00021989,-8.1065e-11,0,0.00011948,-4.8234e-05,-8.9435e+07,-25.945,0,4.5107e+07,-4.6915,11598,12509,1,12509,1,0.00025801,1.6106e-10,0,0.00035843,4.1283e-05,9.0032e+07,51.283,0,1.3386e+08,3.9594,12508,527.81,0,527.81,0,0.00027582,2.1006e-10,0,0.00013871,5.1673e-05,1.0322e+08,66.823,0,5.1398e+07,7.3724,527.81,1
1820,1.69,12054,1,12054,1,1.9174e-05,-1.688e-12,0,0.00024052,-3.4927e-06,1.4524,-0.52194,0,9.0025e+07,-0.4871,12053,12991,1,12991,1,0.00048275,6.3217e-10,0,0.00048275,8.3367e-05,1.6499e+08,203.17,0,1.8075e+08,17.518,12990,12054,1,12054,1,1.9174e-05,-2.4277e-11,0,0.00024037,-3.4846e-06,6.9311e+06,-7.681,0,9.0567e+07,-0.16664,12053,11097,1,11097,1,-0.0004444,-4.3308e-10,0,2.0048e-06,-9.0358e-05,-1.8075e+08,-139.25,0,5.8328e+05,-28.868,11096,11599,1,11599,1,-0.0002212,-1.5229e-10,0,0.00012019,-4.8521e-05,-8.9967e+07,-47.307,0,4.5375e+07,-4.8496,11598,12509,1,12509,1,0.00025955,1.1724e-10,0,0.00036056,4.1529e-05,9.0567e+07,37.561,0,1.3466e+08,4.7187,12508,527.81,0,527.81,0,0.00027746,2.1911e-10,0,0.00013954,5.1981e-05,1.0384e+08,69.697,0,5.1704e+07,7.2913,527.81,1
1820,1.7,12054,1,12054,1,1.9288e-05,-7.0504e-12,0,0.00024194,-3.5134e-06,-3.1691,-2.2371,0,9.0558e+07,-0.82212,12053,12991,1,12991,1,0.00048561,1.8858e-10,0,0.00048561,8.3861e-05,1.6597e+08,60.602,0,1.8183e+08,10.44,12990,12054,1,12054,1,1.9288e-05,-9.4467e-12,0,0.0002418,-3.5052e-06,6.9722e+06,-2.8936,0,9.1104e+07,0.52853,12053,11097,1,11097,1,-0.00044704,-1.0997e-10,0,2.0167e-06,-9.0894e-05,-1.8183e+08,-35.354,0,5.8673e+05,-29.769,11096,11599,1,11599,1,-0.00022251,-3.9558e-11,0,0.0001209,-4.8808e-05,-9.05e+07,-12.406,0,4.5644e+07,-1.8761,11598,12509,1,12509,1,0.00026109,1.3277e-11,0,0.0003627,4.1775e-05,9.1104e+07,4.0784,0,1.3545e+08,2.299,12508,527.81,0,527.81,0,0.0002791,4.6186e-11,0,0.00014037,5.2288e-05,1.0445e+08,14.739,0,5.2011e+07,5.6444,527.81,1
1820,1.71,12054,1,12054,1,1.9401e-05,2.5614e-10,0,0.00024336,-3.5341e-06,5.2098,81.447,0,9.109e+07,-1.3884,12053,12991,1,12991,1,0.00048847,1.0051e-09,0,0.00048847,8.4354e-05,1.6694e+08,322.44,0,1.8289e+08,16.145,12990,12054,1,12054,1,1.9401e-05,1.6182e-10,0,0.00024322,-3.5258e-06,7.0132e+06,51.199,0,9.1639e+07,-0.35628,12053,11097,1,11097,1,-0.00044967,-1.8492e-10,0,2.0285e-06,-9.1428e-05,-1.8289e+08,-59.511,0,5.9018e+05,-48.62,11096,11599,1,11599,1,-0.00022382,2.9934e-12,0,0.00012161,-4.9095e-05,-9.1032e+07,0.86331,0,4.5912e+07,-7.2906,11598,12509,1,12509,1,0.00026262,4.7127e-10,0,0.00036483,4.2021e-05,9.1639e+07,149.24,0,1.3625e+08,6.5558,12508,527.81,0,527.81,0,0.00028074,2.9988e-10,0,0.00014119,5.2596e-05,1.0507e+08,95.405,0,5.2316e+07,10.018,527.81,1
1820,1.72,12054,1,12054,1,1.9512e-05,-1.0323e-09,0,0.00024475,-3.5541e-06,-17.18,-328.36,0,9.1611e+07,48.579,12053,12991,1,12991,1,0.00049127,3.4212e-09,0,0.00049127,8.4838e-05,1.679e+08,1098.9,0,1.8394e+08,1167.8,12990,12054,1,12054,1,1.9512e-05,-3.9542e-10,0,0.00024461,-3.5454e-06,7.0533e+06,-123.5,0,9.2163e+07,28.577,12053,11097,1,11097,1,-0.00045225,-6.6806e-09,0,2.0398e-06,-9.1953e-05,-1.8394e+08,-2147,0,5.935e+05,-151.89,11096,11599,1,11599,1,-0.0002251,-2.2727e-09,0,0.0001223,-4.9376e-05,-9.1552e+07,-722.74,0,4.6175e+07,-17.775,11598,12509,1,12509,1,0.00026412,2.8606e-10,0,0.00036691,4.2261e-05,9.2163e+07,90.896,0,1.3703e+08,82.075,12508,527.81,0,527.81,0,0.00028235,1.9904e-09,0,0.000142,5.2896e-05,1.0567e+08,633.72,0,5.2615e+07,143.66,527.81,1
1820,1.73,12054,1,12054,1,1.9628e-05,-5.4223e-11,0,0.00024621,-3.5754e-06,5.8987,-17.252,0,9.2156e+07,0.50693,12053,12991,1,12991,1,0.00049418,7.9703e-10,0,0.00049418,8.534e-05,1.689e+08,250.7,0,1.8503e+08,26.786,12990,12054,1,12054,1,1.9628e-05,-6.5995e-11,0,0.00024606,-3.567e-06,7.0952e+06,-20.903,0,9.2711e+07,-0.053949,12053,11097,1,11097,1,-0.00045492,-5.1815e-10,0,2.0522e-06,-9.2497e-05,-1.8503e+08,-166.56,0,5.9708e+05,-25.566,11096,11599,1,11599,1,-0.00022643,-2.5499e-10,0,0.00012303,-4.9669e-05,-9.2096e+07,-80.855,0,4.6449e+07,-4.9905,11598,12509,1,12509,1,0.00026569,6.7377e-11,0,0.00036909,4.2512e-05,9.2711e+07,20.588,0,1.3784e+08,6.604,12508,527.81,0,527.81,0,0.00028403,2.6678e-10,0,0.00014284,5.3211e-05,1.063e+08,84.935,0,5.2928e+07,9.7427,527.81,1
1820,1.74,12054,1,12054,1,1.9742e-05,2.1954e-10,0,0.00024763,-3.5961e-06,4.3735,69.967,0,9.2689e+07,-0.33031,12053,12991,1,12991,1,0.00049704,7.38e-10,0,0.00049704,8.5834e-05,1.6987e+08,223.58,0,1.861e+08,20.798,12990,12054,1,12054,1,1.9742e-05,1.6971e-10,0,0.00024749,-3.5877e-06,7.1362e+06,53.019,0,9.3247e+07,0.39449,12053,11097,1,11097,1,-0.00045756,-1.2302e-10,0,2.0641e-06,-9.3033e-05,-1.861e+08,-38.22,0,6.0054e+05,-36.663,11096,11599,1,11599,1,-0.00022774,3.4608e-11,0,0.00012374,-4.9956e-05,-9.2629e+07,10.597,0,4.6718e+07,-5.5738,11598,12509,1,12509,1,0.00026723,3.9871e-10,0,0.00037123,4.2758e-05,9.3247e+07,128.05,0,1.3864e+08,4.8192,12508,527.81,0,527.81,0,0.00028567,2.205e-10,0,0.00014367,5.3519e-05,1.0691e+08,70.292,0,5.3234e+07,8.1921,527.81,1
1820,1.75,12054,1,12054,1,1.9855e-05,1.2086e-10,0,0.00024906,-3.6167e-06,-9.2409,38.412,0,9.3221e+07,2.2738,12053,12991,1,12991,1,0.00049989,1.008e-09,0,0.00049989,8.6327e-05,1.7085e+08,317.24,0,1.8717e+08,30.432,12990,12054,1,12054,1,1.9855e-05,2.6757e-11,0,0.00024891,-3.6083e-06,7.1772e+06,8.2162,0,9.3783e+07,1.5421,12053,11097,1,11097,1,-0.00046018,-4.1737e-10,0,2.0759e-06,-9.3567e-05,-1.8717e+08,-134.19,0,6.0397e+05,-30.187,11096,11599,1,11599,1,-0.00022905,-9.6684e-11,0,0.00012445,-5.0243e-05,-9.3161e+07,-30.684,0,4.6986e+07,-4.4854,11598,12509,1,12509,1,0.00026876,3.1564e-10,0,0.00037336,4.3004e-05,9.3783e+07,100.84,0,1.3944e+08,9.947,12508,527.81,0,527.81,0,0.00028731,3.2498e-10,0,0.00014449,5.3826e-05,1.0752e+08,103.25,0,5.354e+07,11.186,527.81,1
1820,1.76,12054,1,12054,1,1.9969e-05,2.2112e-10,0,0.00025048,-3.6374e-06,-5.6419,70.163,0,9.3754e+07,0.75209,12053,12991,1,12991,1,0.00050275,8.773e-10,0,0.00050275,8.682e-05,1.7182e+08,282.11,0,1.8824e+08,24.764,12990,12054,1,12054,1,1.9969e-05,1.4547e-10,0,0.00025033,-3.6289e-06,7.2182e+06,45.705,0,9.4319e+07,1.6643,12053,11097,1,11097,1,-0.00046281,-1.6988e-10,0,2.0878e-06,-9.4101e-05,-1.8824e+08,-54.661,0,6.0742e+05,-43.422,11096,11599,1,11599,1,-0.00023036,-6.0956e-12,0,0.00012517,-5.053e-05,-9.3694e+07,-1.8985,0,4.7255e+07,-5.3523,11598,12509,1,12509,1,0.0002703,4.1392e-10,0,0.0003755,4.3249e-05,9.4319e+07,132.63,0,1.4023e+08,6.5358,12508,527.81,0,527.81,0,0.00028895,2.6355e-10,0,0.00014532,5.4134e-05,1.0814e+08,83.449,0,5.3846e+07,8.5306,527.81,1
1820,1.77,12054,1,12054,1,2.0082e-05,1.7689e-10,0,0.0002519,-3.6581e-06,-4.8276,56.356,0,9.4287e+07,0.49478,12053,12991,1,12991,1,0.00050561,5.4943e-10,0,0.00050561,8.7314e-05,1.728e+08,178.73,0,1.8931e+08,18.788,12990,12054,1,12054,1,2.0082e-05,1.6189e-10,0,0.00025175,-3.6495e-06,7.2592e+06,51.074,0,9.4855e+07,0.05508,12053,11097,1,11097,1,-0.00046544,-9.6692e-11,0,2.0997e-06,-9.4636e-05,-1.8931e+08,-33.116,0,6.1089e+05,-34.732,11096,11599,1,11599,1,-0.00023167,2.2582e-11,0,0.00012588,-5.0818e-05,-9.4226e+07,6.9625,0,4.7523e+07,-3.5417,11598,12509,1,12509,1,0.00027184,3.2371e-10,0,0.00037763,4.3495e-05,9.4855e+07,103.92,0,1.4103e+08,5.2061,12508,527.81,0,527.81,0,0.00029059,1.7107e-10,0,0.00014614,5.4441e-05,1.0875e+08,54.523,0,5.4152e+07,6.9063,527.81,1
1820,1.78,12054,1,12054,1,2.0196e-05,-5.1739e-12,0,0.00025333,-3.6788e-06,-0.98071,-1.6353,0,9.482e+07,0.12024,12053,12991,1,12991,1,0.00050846,2.7384e-10,0,0.00050846,8.7807e-05,1.7378e+08,88.071,0,1.9038e+08,15.688,12990,12054,1,12054,1,2.0196e-05,-1.2137e-11,0,0.00025318,-3.6702e-06,7.3003e+06,-3.819,0,9.5391e+07,0.18906,12053,11097,1,11097,1,-0.00046807,-2.1457e-10,0,2.1116e-06,-9.5171e-05,-1.9038e+08,-68.982,0,6.1434e+05,-29.82,11096,11599,1,11599,1,-0.00023298,-9.4079e-11,0,0.00012659,-5.1105e-05,-9.4759e+07,-29.432,0,4.7792e+07,-3.188,11598,12509,1,12509,1,0.00027337,6.9007e-11,0,0.00037976,4.3741e-05,9.5391e+07,21.925,0,1.4183e+08,4.3258,12508,527.81,0,527.81,0,0.00029224,1.1684e-10,0,0.00014697,5.4749e-05,1.0937e+08,37.161,0,5.4458e+07,6.1446,527.81,1
1820,1.79,12054,1,12054,1,2.0309e-05,1.5715e-10,0,0.00025475,-3.6994e-06,6.3418,50.001,0,9.5352e+07,1.0061,12053,12991,1,12991,1,0.00051132,1.03e-09,0,0.00051132,8.83e-05,1.7475e+08,330.11,0,1.9145e+08,30.172,12990,12054,1,12054,1,2.0309e-05,4.9417e-11,0,0.0002546,-3.6907e-06,7.3412e+06,16.64,0,9.5926e+07,1.3596,12053,11097,1,11097,1,-0.0004707,-4.5093e-10,0,2.1234e-06,-9.5705e-05,-1.9145e+08,-144.99,0,6.1779e+05,-34.082,11096,11599,1,11599,1,-0.00023429,-8.3468e-11,0,0.0001273,-5.1392e-05,-9.529e+07,-26.178,0,4.806e+07,-7.0175,11598,12509,1,12509,1,0.00027491,3.8563e-10,0,0.00038189,4.3986e-05,9.5926e+07,122.68,0,1.4262e+08,8.9774,12508,527.81,0,527.81,0,0.00029388,3.3726e-10,0,0.00014779,5.5056e-05,1.0998e+08,107.4,0,5.4764e+07,11.531,527.81,1
1820,1.8,12054,1,12054,1,2.0422e-05,7.3512e-11,0,0.00025617,-3.7201e-06,-2.878,23.363,0,9.5885e+07,5.5706,12053,12991,1,12991,1,0.00051418,8.3011e-10,0,0.00051418,8.8793e-05,1.7573e+08,266.54,0,1.9252e+08,57.077,12990,12054,1,12054,1,2.0422e-05,1.1564e-12,0,0.00025602,-3.7113e-06,7.3823e+06,0.39576,0,9.6462e+07,2.2782,12053,11097,1,11097,1,-0.00047333,-3.3181e-10,0,2.1352e-06,-9.624e-05,-1.9252e+08,-106.7,0,6.2122e+05,-39.772,11096,11599,1,11599,1,-0.0002356,-8.6293e-11,0,0.00012801,-5.1679e-05,-9.5823e+07,-27.917,0,4.8328e+07,-2.861,11598,12509,1,12509,1,0.00027644,2.0169e-10,0,0.00038403,4.4232e-05,9.6462e+07,64.042,0,1.4342e+08,9.2005,12508,527.81,0,527.81,0,0.00029552,2.4164e-10,0,0.00014862,5.5364e-05,1.106e+08,76.871,0,5.507e+07,14.248,527.81,1
1820,1.81,12054,1,12054,1,2.0536e-05,-3.3936e-11,0,0.0002576,-3.7408e-06,0.21569,-10.737,0,9.6418e+07,-0.22884,12053,12991,1,12991,1,0.00051703,2.3423e-10,0,0.00051703,8.9287e-05,1.7671e+08,80.181,0,1.9359e+08,12.951,12990,12054,1,12054,1,2.0536e-05,-2.9672e-11,0,0.00025744,-3.732e-06,7.4233e+06,-9.6007,0,9.6999e+07,0.092999,12053,11097,1,11097,1,-0.00047596,-2.5632e-10,0,2.1472e-06,-9.6775e-05,-1.9359e+08,-82.408,0,6.247e+05,-28.907,11096,11599,1,11599,1,-0.00023691,-1.2621e-10,0,0.00012872,-5.1966e-05,-9.6356e+07,-40.571,0,4.8597e+07,-3.5352,11598,12509,1,12509,1,0.00027798,3.5639e-11,0,0.00038616,4.4478e-05,9.6999e+07,11.895,0,1.4422e+08,4.0732,12508,527.81,0,527.81,0,0.00029716,1.1514e-10,0,0.00014945,5.5672e-05,1.1121e+08,36.663,0,5.5376e+07,6.2066,527.81,1
1820,1.82,12054,1,12054,1,2.0649e-05,1.9271e-10,0,0.00025902,-3.7614e-06,-8.7346,61.212,0,9.695e+07,7.0231,12053,12991,1,12991,1,0.00051989,8.2298e-10,0,0.00051989,8.978e-05,1.7768e+08,264.6,0,1.9466e+08,47.277,12990,12054,1,12054,1,2.0649e-05,1.2325e-10,0,0.00025886,-3.7526e-06,7.4643e+06,40.455,0,9.7534e+07,6.575,12053,11097,1,11097,1,-0.00047859,-3.9082e-10,0,2.159e-06,-9.7309e-05,-1.9466e+08,-125.45,0,6.2813e+05,-26.947,11096,11599,1,11599,1,-0.00023821,-4.1163e-11,0,0.00012943,-5.2253e-05,-9.6888e+07,-13.05,0,4.8865e+07,-3.3799,11598,12509,1,12509,1,0.00027951,4.2748e-10,0,0.0003883,4.4724e-05,9.7534e+07,137.49,0,1.4501e+08,14.584,12508,527.81,0,527.81,0,0.0002988,3.0159e-10,0,0.00015027,5.5979e-05,1.1183e+08,95.737,0,5.5682e+07,12.977,527.81,1
1820,1.83,12054,1,12054,1,2.0763e-05,2.5944e-10,0,0.00026044,-3.782e-06,10.11,82.497,0,9.7482e+07,7.6092,12053,12991,1,12991,1,0.00052275,1.3014e-09,0,0.00052275,9.0273e-05,1.7866e+08,403.45,0,1.9573e+08,63.376,12990,12054,1,12054,1,2.0763e-05,1.2686e-10,0,0.00026029,-3.7731e-06,7.5053e+06,40.826,0,9.807e+07,6.3434,12053,11097,1,11097,1,-0.00048122,-4.7925e-10,0,2.1708e-06,-9.7844e-05,-1.9573e+08,-154.11,0,6.3158e+05,-35.685,11096,11599,1,11599,1,-0.00023952,-5.3593e-11,0,0.00013014,-5.254e-05,-9.742e+07,-17.544,0,4.9134e+07,-5.9538,11598,12509,1,12509,1,0.00028105,5.5705e-10,0,0.00039043,4.4969e-05,9.807e+07,178.93,0,1.4581e+08,16.966,12508,527.81,0,527.81,0,0.00030044,4.2874e-10,0,0.0001511,5.6286e-05,1.1244e+08,136.18,0,5.5987e+07,18.147,527.81,1
1820,1.84,12054,1,12054,1,2.0876e-05,1.9939e-10,0,0.00026186,-3.8027e-06,-2.7989,63.284,0,9.8015e+07,5.0417,12053,12991,1,12991,1,0.0005256,1.2324e-09,0,0.0005256,9.0766e-05,1.7963e+08,392.41,0,1.968e+08,46.597,12990,12054,1,12054,1,2.0876e-05,8.5254e-11,0,0.00026171,-3.7938e-06,7.5463e+06,27.257,0,9.8606e+07,4.3344,12053,11097,1,11097,1,-0.00048385,-4.7894e-10,0,2.1826e-06,-9.8378e-05,-1.968e+08,-154.02,0,6.3502e+05,-58.709,11096,11599,1,11599,1,-0.00024083,-7.9292e-11,0,0.00013085,-5.2827e-05,-9.7952e+07,-25.393,0,4.9402e+07,-5.4099,11598,12509,1,12509,1,0.00028258,4.6409e-10,0,0.00039256,4.5215e-05,9.8606e+07,147.41,0,1.4661e+08,13.871,12508,527.81,0,527.81,0,0.00030208,3.8132e-10,0,0.00015192,5.6594e-05,1.1305e+08,121.32,0,5.6293e+07,13.959,527.81,1
1820,1.85,12054,1,12054,1,2.099e-05,6.0079e-11,0,0.00026329,-3.8234e-06,12.15,19.066,0,9.8548e+07,2.6313,12053,12991,1,12991,1,0.00052846,9.3624e-10,0,0.00052846,9.126e-05,1.8061e+08,300.81,0,1.9787e+08,37.227,12990,12054,1,12054,1,2.099e-05,-7.783e-12,0,0.00026313,-3.8145e-06,7.5874e+06,-2.3196,0,9.9142e+07,2.3703,12053,11097,1,11097,1,-0.00048648,-5.0772e-10,0,2.1946e-06,-9.8913e-05,-1.9787e+08,-163.2,0,6.3851e+05,-42.25,11096,11599,1,11599,1,-0.00024214,-1.4875e-10,0,0.00013157,-5.3114e-05,-9.8485e+07,-45.949,0,4.9671e+07,-5.2209,11598,12509,1,12509,1,0.00028412,2.3761e-10,0,0.0003947,4.5461e-05,9.9142e+07,75.905,0,1.474e+08,11.2,12508,527.81,0,527.81,0,0.00030373,3.2103e-10,0,0.00015275,5.6902e-05,1.1367e+08,102.09,0,5.66e+07,12.71,527.81,1
1820,1.86,12054,1,12054,1,2.1103e-05,1.3602e-10,0,0.00026471,-3.8441e-06,1.0825,43.179,0,9.9081e+07,6.1085,12053,12991,1,12991,1,0.00053132,9.3183e-10,0,0.00053132,9.1753e-05,1.8159e+08,297.33,0,1.9894e+08,44.991,12990,12054,1,12054,1,2.1103e-05,4.7466e-11,0,0.00026455,-3.8351e-06,7.6284e+06,14.81,0,9.9678e+07,4.7394,12053,11097,1,11097,1,-0.00048911,-4.8499e-10,0,2.2064e-06,-9.9448e-05,-1.9894e+08,-155.94,0,6.4195e+05,-50.645,11096,11599,1,11599,1,-0.00024345,-8.7021e-11,0,0.00013228,-5.3401e-05,-9.9017e+07,-26.492,0,4.9939e+07,-3.5926,11598,12509,1,12509,1,0.00028566,3.621e-10,0,0.00039683,4.5707e-05,9.9678e+07,112.89,0,1.482e+08,13.705,12508,527.81,0,527.81,0,0.00030537,3.22e-10,0,0.00015358,5.7209e-05,1.1428e+08,102.46,0,5.6905e+07,13.624,527.81,1
1820,1.87,12054,1,12054,1,2.1217e-05,1.7446e-10,0,0.00026613,-3.8648e-06,8.2038,55.251,0,9.9614e+07,0.63957,12053,12991,1,12991,1,0.00053417,8.35e-10,0,0.00053417,9.2247e-05,1.8256e+08,263.39,0,2.0001e+08,16.101,12990,12054,1,12054,1,2.1217e-05,8.1878e-11,0,0.00026598,-3.8557e-06,7.6694e+06,26.782,0,1.0021e+08,1.8754,12053,11097,1,11097,1,-0.00049174,-3.3926e-10,0,2.2184e-06,-9.9983e-05,-2.0001e+08,-109.11,0,6.4543e+05,-40.631,11096,11599,1,11599,1,-0.00024476,-3.444e-11,0,0.00013299,-5.3689e-05,-9.9549e+07,-10.889,0,5.0208e+07,-5.6085,11598,12509,1,12509,1,0.00028719,3.7212e-10,0,0.00039896,4.5952e-05,1.0021e+08,117.98,0,1.49e+08,8.2284,12508,527.81,0,527.81,0,0.00030701,2.8798e-10,0,0.0001544,5.7517e-05,1.149e+08,91.195,0,5.7211e+07,9.0745,527.81,1
1820,1.88,12054,1,12054,1,2.133e-05,2.0055e-10,0,0.00026756,-3.8854e-06,-10.135,63.798,0,1.0015e+08,0.62844,12053,12991,1,12991,1,0.00053703,1.1894e-09,0,0.00053703,9.274e-05,1.8354e+08,376.65,0,2.0108e+08,19.727,12990,12054,1,12054,1,2.133e-05,1.0366e-10,0,0.0002674,-3.8763e-06,7.7104e+06,33.067,0,1.0075e+08,1.2203,12053,11097,1,11097,1,-0.00049437,-3.8074e-10,0,2.2302e-06,-0.00010052,-2.0108e+08,-122.45,0,6.4886e+05,-58.63,11096,11599,1,11599,1,-0.00024607,-5.2639e-11,0,0.0001337,-5.3976e-05,-1.0008e+08,-16.586,0,5.0476e+07,-5.296,11598,12509,1,12509,1,0.00028873,4.3108e-10,0,0.0004011,4.6198e-05,1.0075e+08,137.68,0,1.4979e+08,9.6406,12508,527.81,0,527.81,0,0.00030865,3.3363e-10,0,0.00015523,5.7824e-05,1.1551e+08,106.14,0,5.7517e+07,12.131,527.81,1
1820,1.89,12054,1,12054,1,2.1444e-05,1.5869e-10,0,0.00026898,-3.9061e-06,5.9797,50.419,0,1.0068e+08,4.5726,12053,12991,1,12991,1,0.00053988,1.2061e-09,0,0.00053988,9.3233e-05,1.8452e+08,381.99,0,2.0215e+08,38.47,12990,12054,1,12054,1,2.1444e-05,4.5195e-11,0,0.00026882,-3.8969e-06,7.7514e+06,13.996,0,1.0129e+08,3.6589,12053,11097,1,11097,1,-0.000497,-3.617e-10,0,2.2421e-06,-0.00010105,-2.0215e+08,-116.31,0,6.5233e+05,-41.661,11096,11599,1,11599,1,-0.00024738,-5.7693e-11,0,0.00013441,-5.4263e-05,-1.0061e+08,-17.384,0,5.0745e+07,-2.7783,11598,12509,1,12509,1,0.00029026,3.3212e-10,0,0.00040323,4.6444e-05,1.0129e+08,105.68,0,1.5059e+08,10.699,12508,527.81,0,527.81,0,0.00031029,3.1571e-10,0,0.00015605,5.8132e-05,1.1613e+08,100.53,0,5.7823e+07,11.219,527.81,1
1820,1.9,12054,1,12054,1,2.1557e-05,3.2392e-10,0,0.0002704,-3.9267e-06,-8.5417,102.93,0,1.0121e+08,0.48876,12053,12991,1,12991,1,0.00054274,1.0177e-09,0,0.00054274,9.3726e-05,1.8549e+08,312.58,0,2.0322e+08,21.719,12990,12054,1,12054,1,2.1557e-05,2.5017e-10,0,0.00027024,-3.9176e-06,7.7924e+06,81.119,0,1.0182e+08,1.0426,12053,11097,1,11097,1,-0.00049963,-2.2037e-10,0,2.254e-06,-0.00010159,-2.0322e+08,-70.916,0,6.5577e+05,-61.185,11096,11599,1,11599,1,-0.00024868,1.2566e-11,0,0.00013512,-5.455e-05,-1.0115e+08,4.0433,0,5.1013e+07,-6.6766,11598,12509,1,12509,1,0.0002918,6.2791e-10,0,0.00040536,4.6689e-05,1.0182e+08,199.13,0,1.5139e+08,10.136,12508,527.81,0,527.81,0,0.00031193,3.4617e-10,0,0.00015688,5.8439e-05,1.1674e+08,109.99,0,5.8129e+07,12.648,527.81,1
1820,1.91,12054,1,12054,1,2.1671e-05,3.2461e-10,0,0.00027183,-3.9474e-06,-4.1639,103.16,0,1.0174e+08,2.7503,12053,12991,1,12991,1,0.0005456,1.0109e-09,0,0.0005456,9.422e-05,1.8647e+08,309.09,0,2.0429e+08,29.44,12990,12054,1,12054,1,2.167e-05,2.6828e-10,0,0.00027167,-3.9382e-06,7.8334e+06,85.977,0,1.0236e+08,3.3443,12053,11097,1,11097,1,-0.00050226,-1.3646e-10,0,2.2658e-06,-0.00010212,-2.0429e+08,-43.943,0,6.5924e+05,-35.617,11096,11599,1,11599,1,-0.00024999,4.1971e-11,0,0.00013583,-5.4837e-05,-1.0168e+08,13.205,0,5.1282e+07,-5.9457,11598,12509,1,12509,1,0.00029334,5.8041e-10,0,0.0004075,4.6935e-05,1.0236e+08,185.1,0,1.5219e+08,10.274,12508,527.81,0,527.81,0,0.00031358,3.0988e-10,0,0.0001577,5.8747e-05,1.1736e+08,98.184,0,5.8435e+07,10.963,527.81,1
1820,1.92,12054,1,12054,1,2.1784e-05,6.8349e-11,0,0.00027325,-3.9681e-06,0.25528,21.755,0,1.0228e+08,4.0843,12053,12991,1,12991,1,0.00054845,8.5271e-10,0,0.00054845,9.4713e-05,1.8744e+08,273.84,0,2.0536e+08,37.483,12990,12054,1,12054,1,2.1784e-05,-8.2513e-12,0,0.00027309,-3.9588e-06,7.8745e+06,-2.7743,0,1.0289e+08,1.4003,12053,11097,1,11097,1,-0.00050489,-2.9216e-10,0,2.2778e-06,-0.00010266,-2.0536e+08,-93.924,0,6.6271e+05,-39.816,11096,11599,1,11599,1,-0.0002513,-1.0251e-10,0,0.00013654,-5.5124e-05,-1.0221e+08,-32.556,0,5.155e+07,-2.6149,11598,12509,1,12509,1,0.00029487,1.957e-10,0,0.00040963,4.7181e-05,1.0289e+08,61.074,0,1.5298e+08,9.4295,12508,527.81,0,527.81,0,0.00031522,2.4302e-10,0,0.00015853,5.9055e-05,1.1797e+08,77.536,0,5.8741e+07,11.662,527.81,1
1820,1.93,12054,1,12054,1,2.1898e-05,1.5932e-10,0,0.00027467,-3.9888e-06,3.77,50.682,0,1.0281e+08,-0.52874,12053,12991,1,12991,1,0.00055131,6.6213e-10,0,0.00055131,9.5206e-05,1.8842e+08,217.78,0,2.0642e+08,13.44,12990,12054,1,12054,1,2.1897e-05,1.2058e-10,0,0.00027451,-3.9794e-06,7.9155e+06,36.405,0,1.0343e+08,-0.18215,12053,11097,1,11097,1,-0.00050752,-2.6475e-10,0,2.2897e-06,-0.00010319,-2.0642e+08,-85.161,0,6.6617e+05,-44.56,11096,11599,1,11599,1,-0.00025261,-1.7287e-11,0,0.00013725,-5.5411e-05,-1.0274e+08,-5.516,0,5.1819e+07,-4.9922,11598,12509,1,12509,1,0.00029641,3.4125e-10,0,0.00041176,4.7427e-05,1.0343e+08,109.85,0,1.5378e+08,5.118,12508,527.81,0,527.81,0,0.00031686,2.1739e-10,0,0.00015935,5.9362e-05,1.1858e+08,69.251,0,5.9047e+07,8.429,527.81,1
1820,1.94,12054,1,12054,1,2.2011e-05,2.4355e-10,0,0.00027609,-4.0094e-06,1.1048,77.354,0,1.0334e+08,8.6419,12053,12991,1,12991,1,0.00055417,1.4292e-09,0,0.00055417,9.5699e-05,1.894e+08,451.84,0,2.0749e+08,56.814,12990,12054,1,12054,1,2.2011e-05,1.1146e-10,0,0.00027593,-4e-06,7.9565e+06,35.405,0,1.0396e+08,7.3492,12053,11097,1,11097,1,-0.00051014,-5.6351e-10,0,2.3014e-06,-0.00010373,-2.0749e+08,-181.19,0,6.6959e+05,-53.813,11096,11599,1,11599,1,-0.00025392,-7.1574e-11,0,0.00013797,-5.5698e-05,-1.0328e+08,-23.071,0,5.2087e+07,-4.1608,11598,12509,1,12509,1,0.00029794,5.3996e-10,0,0.0004139,4.7672e-05,1.0396e+08,170.63,0,1.5457e+08,17.661,12508,527.81,0,527.81,0,0.0003185,4.4122e-10,0,0.00016018,5.967e-05,1.192e+08,140.4,0,5.9353e+07,16.916,527.81,1
1820,1.95,12054,1,12054,1,2.2124e-05,1.8633e-10,0,0.00027752,-4.0301e-06,-3.1621,59.333,0,1.0387e+08,0.98174,12053,12991,1,12991,1,0.00055702,8.6041e-10,0,0.00055702,9.6192e-05,1.9037e+08,272.79,0,2.0856e+08,21.543,12990,12054,1,12054,1,2.2124e-05,1.3337e-10,0,0.00027735,-4.0207e-06,7.9975e+06,42.437,0,1.045e+08,0.62425,12053,11097,1,11097,1,-0.00051277,-2.1513e-10,0,2.3134e-06,-0.00010426,-2.0856e+08,-69.215,0,6.7308e+05,-30.785,11096,11599,1,11599,1,-0.00025523,-8.7112e-12,0,0.00013868,-5.5985e-05,-1.0381e+08,-2.5533,0,5.2356e+07,-4.0867,11598,12509,1,12509,1,0.00029948,3.3861e-10,0,0.00041603,4.7918e-05,1.045e+08,107.93,0,1.5537e+08,5.0164,12508,527.81,0,527.81,0,0.00032014,2.3241e-10,0,0.00016101,5.9977e-05,1.1981e+08,74.119,0,5.9659e+07,7.9903,527.81,1
1820,1.96,12054,1,12054,1,2.2238e-05,1.2275e-10,0,0.00027894,-4.0507e-06,7.1531,38.956,0,1.0441e+08,6.2373,12053,12991,1,12991,1,0.00055988,1.4343e-09,0,0.00055988,9.6685e-05,1.9135e+08,452.94,0,2.0963e+08,45.302,12990,12054,1,12054,1,2.2238e-05,2.7405e-11,0,0.00027878,-4.0413e-06,8.0385e+06,8.505,0,1.0504e+08,5.4331,12053,11097,1,11097,1,-0.0005154,-7.1718e-10,0,2.3252e-06,-0.00010479,-2.0963e+08,-230.58,0,6.7651e+05,-53.378,11096,11599,1,11599,1,-0.00025654,-1.5908e-10,0,0.00013939,-5.6272e-05,-1.0434e+08,-51.614,0,5.2624e+07,-4.7303,11598,12509,1,12509,1,0.00030101,3.8733e-10,0,0.00041816,4.8164e-05,1.0504e+08,121.81,0,1.5617e+08,16.291,12508,527.81,0,527.81,0,0.00032178,4.4079e-10,0,0.00016183,6.0285e-05,1.2043e+08,140.29,0,5.9965e+07,15.01,527.81,1
1820,1.97,12054,1,12054,1,2.2351e-05,1.6651e-10,0,0.00028037,-4.0714e-06,-15.091,53.083,0,1.0494e+08,2.1344,12053,12991,1,12991,1,0.00056274,9.9287e-10,0,0.00056274,9.7179e-05,1.9233e+08,314.83,0,2.107e+08,38.735,12990,12054,1,12054,1,2.2351e-05,6.9706e-11,0,0.0002802,-4.0619e-06,8.0796e+06,21.993,0,1.0557e+08,2.6362,12053,11097,1,11097,1,-0.00051804,-4.1161e-10,0,2.3371e-06,-0.00010533,-2.107e+08,-132.37,0,6.7997e+05,-52.135,11096,11599,1,11599,1,-0.00025785,-4.8475e-11,0,0.0001401,-5.656e-05,-1.0487e+08,-15.288,0,5.2893e+07,-5.6547,11598,12509,1,12509,1,0.00030255,3.7383e-10,0,0.0004203,4.841e-05,1.0557e+08,117.25,0,1.5697e+08,9.6391,12508,527.81,0,527.81,0,0.00032343,3.0559e-10,0,0.00016266,6.0593e-05,1.2104e+08,97.436,0,6.0271e+07,11.931,527.81,1
1820,1.98,12054,1,12054,1,2.2465e-05,1.7407e-10,0,0.00028179,-4.0921e-06,5.729,55.429,0,1.0547e+08,4.8031,12053,12991,1,12991,1,0.00056559,1.0437e-09,0,0.00056559,9.7673e-05,1.933e+08,330.91,0,2.1177e+08,42.207,12990,12054,1,12054,1,2.2465e-05,5.4073e-11,0,0.00028162,-4.0825e-06,8.1206e+06,17.717,0,1.0611e+08,4.7444,12053,11097,1,11097,1,-0.00052066,-4.6988e-10,0,2.349e-06,-0.00010586,-2.1177e+08,-151.08,0,6.8345e+05,-31.771,11096,11599,1,11599,1,-0.00025916,-9.031e-11,0,0.00014081,-5.6847e-05,-1.054e+08,-27.125,0,5.3161e+07,-4.475,11598,12509,1,12509,1,0.00030409,4.2287e-10,0,0.00042243,4.8655e-05,1.0611e+08,133.25,0,1.5776e+08,13.366,12508,527.81,0,527.81,0,0.00032507,3.64e-10,0,0.00016348,6.09e-05,1.2166e+08,115.76,0,6.0577e+07,13.578,527.81,1
1820,1.99,12054,1,12054,1,2.2578e-05,1.2949e-10,0,0.00028321,-4.1128e-06,1.4947,41.176,0,1.0601e+08,0.50439,12053,12991,1,12991,1,0.00056845,5.2866e-10,0,0.00056845,9.8166e-05,1.9428e+08,171.16,0,2.1284e+08,12.058,12990,12054,1,12054,1,2.2578e-05,1.1084e-10,0,0.00028304,-4.1032e-06,8.1616e+06,35.31,0,1.0664e+08,0.54035,12053,11097,1,11097,1,-0.00052329,-4.0123e-11,0,2.3609e-06,-0.0001064,-2.1284e+08,-12.951,0,6.8692e+05,-31.917,11096,11599,1,11599,1,-0.00026047,3.9443e-11,0,0.00014152,-5.7134e-05,-1.0594e+08,12.413,0,5.343e+07,-0.81501,11598,12509,1,12509,1,0.00030562,1.9246e-10,0,0.00042457,4.8901e-05,1.0664e+08,61.263,0,1.5856e+08,3.043,12508,527.81,0,527.81,0,0.00032671,1.1122e-10,0,0.00016431,6.1208e-05,1.2227e+08,35.503,0,6.0883e+07,5.3237,527.81,1
1820,2,12054,1,12054,1,2.2692e-05,1.8329e-10,0,0.00028463,-4.1334e-06,-14.65,58.298,0,1.0654e+08,-0.71686,12053,12991,1,12991,1,0.00057131,1.0608e-09,0,0.00057131,9.8659e-05,1.9525e+08,333.11,0,2.1391e+08,19.611,12990,12054,1,12054,1,2.2692e-05,7.6138e-11,0,0.00028447,-4.1238e-06,8.2026e+06,23.555,0,1.0718e+08,0.11134,12053,11097,1,11097,1,-0.00052592,-3.7895e-10,0,2.3727e-06,-0.00010693,-2.1391e+08,-121.88,0,6.9034e+05,-34.413,11096,11599,1,11599,1,-0.00026177,-5.3827e-11,0,0.00014223,-5.7421e-05,-1.0647e+08,-16.997,0,5.3698e+07,-6.8026,11598,12509,1,12509,1,0.00030716,3.9167e-10,0,0.0004267,4.9147e-05,1.0718e+08,124.69,0,1.5936e+08,7.2011,12508,527.81,0,527.81,0,0.00032835,3.2331e-10,0,0.00016513,6.1515e-05,1.2288e+08,102.81,0,6.1189e+07,9.5718,527.81,1
1820,2.01,12054,1,12054,1,2.2805e-05,-4.8228e-10,0,0.00028605,-4.154e-06,108.29,-153.52,0,1.0707e+08,32.963,12053,12991,1,12991,1,0.00057415,2.2366e-09,0,0.00057415,9.915e-05,1.9623e+08,718.34,0,2.1498e+08,1779,12990,12054,1,12054,1,2.2805e-05,-2.3193e-10,0,0.00028588,-4.1439e-06,8.2436e+06,-72.896,0,1.0771e+08,11.558,12053,11097,1,11097,1,-0.00052854,-3.14e-09,0,2.3847e-06,-0.00010747,-2.1498e+08,-1008.6,0,6.9394e+05,-116.19,11096,11599,1,11599,1,-0.00026307,-9.5739e-10,0,0.00014294,-5.7706e-05,-1.07e+08,-305.15,0,5.3965e+07,-10.426,11598,12509,1,12509,1,0.00030868,1.3069e-10,0,0.00042882,4.9391e-05,1.0771e+08,41.687,0,1.6015e+08,35.276,12508,527.81,0,527.81,0,0.00032998,8.4287e-10,0,0.00016595,6.1821e-05,1.235e+08,267.92,0,6.1492e+07,140,527.81,1
1820,2.02,12054,1,12054,1,2.2917e-05,-2.2904e-09,0,0.00028745,-4.1744e-06,98.583,-729.91,0,1.0759e+08,23.678,12053,12991,1,12991,1,0.00057699,3.0725e-09,0,0.00057699,9.964e-05,1.972e+08,986.22,0,2.1604e+08,1900.2,12990,12054,1,12054,1,2.2916e-05,-2.2352e-09,0,0.00028728,-4.1644e-06,8.2839e+06,-707.74,0,1.0824e+08,9.3984,12053,11097,1,11097,1,-0.00053115,-6.4075e-09,0,2.3965e-06,-0.000108,-2.1604e+08,-2015.9,0,6.973e+05,-272.28,11096,11599,1,11599,1,-0.00026437,-4.0727e-09,0,0.00014364,-5.799e-05,-1.0752e+08,-1304.5,0,5.423e+07,-48.748,11598,12509,1,12509,1,0.0003102,-3.8125e-10,0,0.00043092,4.9634e-05,1.0824e+08,-119.54,0,1.6093e+08,67.231,12508,527.81,0,527.81,0,0.0003316,2.1094e-09,0,0.00016677,6.2124e-05,1.241e+08,670.89,0,6.1794e+07,157.03,527.81,1
1820,2.03,12054,1,12054,1,2.3031e-05,-1.8255e-09,0,0.00028888,-4.1952e-06,75.344,-581.38,0,1.0813e+08,23.297,12053,12991,1,12991,1,0.00057986,1.8066e-09,0,0.00057986,0.00010014,1.9817e+08,579.55,0,2.1711e+08,1019.4,12990,12054,1,12054,1,2.303e-05,-1.6075e-09,0,0.00028871,-4.1851e-06,8.3251e+06,-504.66,0,1.0878e+08,3.5374,12053,11097,1,11097,1,-0.00053379,-6.2609e-09,0,2.4085e-06,-0.00010853,-2.1711e+08,-2012.3,0,7.0084e+05,-147.19,11096,11599,1,11599,1,-0.00026568,-3.2667e-09,0,0.00014436,-5.8279e-05,-1.0806e+08,-1049.7,0,5.45e+07,-40.678,11598,12509,1,12509,1,0.00031174,-7.4492e-11,0,0.00043307,4.9881e-05,1.0878e+08,-21.771,0,1.6173e+08,52.109,12508,527.81,0,527.81,0,0.00033325,1.9054e-09,0,0.0001676,6.2433e-05,1.2472e+08,606.04,0,6.2101e+07,140.01,527.81,1
1820,2.04,12054,1,12054,1,2.3144e-05,-8.4928e-10,0,0.0002903,-4.2158e-06,145.49,-270.4,0,1.0866e+08,31.858,12053,12991,1,12991,1,0.00058269,4.8315e-09,0,0.00058269,0.00010062,1.9914e+08,1553.9,0,2.1817e+08,1871.3,12990,12054,1,12054,1,2.3144e-05,-2.9112e-10,0,0.00029013,-4.2058e-06,8.3661e+06,-96.169,0,1.0931e+08,6.1137,12053,11097,1,11097,1,-0.0005364,-6.2492e-09,0,2.4206e-06,-0.00010906,-2.1817e+08,-2009.1,0,7.0438e+05,-126.84,11096,11599,1,11599,1,-0.00026698,-2.3527e-09,0,0.00014506,-5.8564e-05,-1.0859e+08,-756.69,0,5.4767e+07,-48.567,11598,12509,1,12509,1,0.00031327,5.7814e-10,0,0.00043519,5.0125e-05,1.0931e+08,183.21,0,1.6253e+08,62.718,12508,527.81,0,527.81,0,0.00033488,2.2424e-09,0,0.00016842,6.2739e-05,1.2533e+08,713.27,0,6.2405e+07,191.42,527.81,1
1820,2.05,12054,1,12054,1,2.3259e-05,-2.2029e-09,0,0.00029173,-4.2367e-06,139.69,-701.87,0,1.0919e+08,19.136,12053,12991,1,12991,1,0.00058558,2.4654e-09,0,0.00058558,0.00010112,2.0013e+08,794.2,0,2.1925e+08,2262.2,12990,12054,1,12054,1,2.3258e-05,-2.2519e-09,0,0.00029156,-4.2266e-06,8.4075e+06,-718.56,0,1.0985e+08,2.589,12053,11097,1,11097,1,-0.00053906,-5.5044e-09,0,2.4327e-06,-0.0001096,-2.1925e+08,-1704.3,0,7.079e+05,-195.38,11096,11599,1,11599,1,-0.0002683,-3.7449e-09,0,0.00014578,-5.8853e-05,-1.0912e+08,-1199,0,5.5037e+07,-43.656,11598,12509,1,12509,1,0.00031482,-7.0779e-10,0,0.00043734,5.0372e-05,1.0985e+08,-218.24,0,1.6333e+08,50.149,12508,527.81,0,527.81,0,0.00033654,1.7627e-09,0,0.00016925,6.3049e-05,1.2595e+08,561.22,0,6.2714e+07,175.67,527.81,1
1820,2.06,12054,1,12054,1,2.3372e-05,-1.6518e-09,0,0.00029315,-4.2574e-06,226.4,-526.15,0,1.0973e+08,8.0899,12053,12991,1,12991,1,0.00058843,2.6175e-09,0,0.00058843,0.00010162,2.011e+08,842.27,0,2.2032e+08,1629.1,12990,12054,1,12054,1,2.3372e-05,-1.0527e-09,0,0.00029298,-4.2473e-06,8.4486e+06,-335.01,0,1.1039e+08,-11.099,12053,11097,1,11097,1,-0.00054168,-6.9135e-09,0,2.4449e-06,-0.00011014,-2.2032e+08,-2191.4,0,7.1148e+05,-202,11096,11599,1,11599,1,-0.00026961,-3.1609e-09,0,0.00014649,-5.914e-05,-1.0966e+08,-1008.9,0,5.5306e+07,-52.291,11598,12509,1,12509,1,0.00031635,1.0551e-10,0,0.00043947,5.0618e-05,1.1039e+08,32.487,0,1.6413e+08,38.512,12508,527.81,0,527.81,0,0.00033818,2.1428e-09,0,0.00017008,6.3356e-05,1.2656e+08,681.44,0,6.3019e+07,148.59,527.81,1
1820,2.07,12054,1,12054,1,2.3485e-05,-2.986e-09,0,0.00029457,-4.2779e-06,266.56,-950.74,0,1.1026e+08,17.919,12053,12991,1,12991,1,0.00059128,3.4415e-09,0,0.00059128,0.00010211,2.0207e+08,1106,0,2.2139e+08,1154.4,12990,12054,1,12054,1,2.3485e-05,-2.1217e-09,0,0.0002944,-4.2675e-06,8.4893e+06,-666.01,0,1.1092e+08,-7.2264,12053,11097,1,11097,1,-0.00054431,-1.1404e-08,0,2.4568e-06,-0.00011067,-2.2139e+08,-3555.7,0,7.15e+05,-262.42,11096,11599,1,11599,1,-0.00027091,-5.6814e-09,0,0.0001472,-5.9426e-05,-1.1019e+08,-1794.7,0,5.5573e+07,-89.247,11598,12509,1,12509,1,0.00031788,3.3156e-11,0,0.0004416,5.0862e-05,1.1092e+08,10.442,0,1.6492e+08,91.153,12508,527.81,0,527.81,0,0.00033981,3.5918e-09,0,0.0001709,6.3662e-05,1.2717e+08,1142.7,0,6.3323e+07,175.9,527.81,1
1820,2.08,12054,1,12054,1,2.3599e-05,-1.2107e-09,0,0.000296,-4.2988e-06,91.068,-385.41,0,1.1079e+08,-1.6092,12053,12991,1,12991,1,0.00059414,1.3616e-09,0,0.00059414,0.0001026,2.0305e+08,437.41,0,2.2246e+08,384.98,12990,12054,1,12054,1,2.3599e-05,-8.2134e-10,0,0.00029583,-4.2888e-06,8.5307e+06,-263.61,0,1.1146e+08,-3.8908,12053,11097,1,11097,1,-0.00054694,-4.8397e-09,0,2.4687e-06,-0.00011121,-2.2246e+08,-1555.6,0,7.1838e+05,-115.5,11096,11599,1,11599,1,-0.00027223,-2.1444e-09,0,0.00014791,-5.9715e-05,-1.1072e+08,-684.88,0,5.5843e+07,-33.104,11598,12509,1,12509,1,0.00031943,-3.998e-11,0,0.00044374,5.111e-05,1.1146e+08,-12.302,0,1.6572e+08,23.8,12508,527.81,0,527.81,0,0.00034147,1.4205e-09,0,0.00017173,6.3972e-05,1.2779e+08,451.92,0,6.3632e+07,51.996,527.81,1
1820,2.09,12054,1,12054,1,2.3714e-05,-1.7862e-09,0,0.00029744,-4.3196e-06,0.98607,-568.64,0,1.1133e+08,11.38,12053,12991,1,12991,1,0.00059702,5.3189e-10,0,0.00059702,0.0001031,2.0403e+08,182.17,0,2.2354e+08,1035,12990,12054,1,12054,1,2.3713e-05,-2.0623e-09,0,0.00029726,-4.3095e-06,8.5719e+06,-653.61,0,1.12e+08,4.5417,12053,11097,1,11097,1,-0.00054959,-3.6025e-09,0,2.4805e-06,-0.00011175,-2.2354e+08,-1158.1,0,7.2192e+05,-98.413,11096,11599,1,11599,1,-0.00027355,-2.6908e-09,0,0.00014863,-6.0004e-05,-1.1126e+08,-868.69,0,5.6113e+07,-16.403,11598,12509,1,12509,1,0.00032097,-9.5852e-10,0,0.00044589,5.1357e-05,1.12e+08,-304.65,0,1.6652e+08,24.064,12508,527.81,0,527.81,0,0.00034312,1.0856e-09,0,0.00017256,6.4282e-05,1.2841e+08,346.06,0,6.394e+07,83.955,527.81,1
1820,2.1,12054,1,12054,1,2.3829e-05,-1.6336e-09,0,0.00029888,-4.3405e-06,24.907,-520.23,0,1.1187e+08,3.7143,12053,12991,1,12991,1,0.0005999,3.4539e-10,0,0.0005999,0.0001036,2.0501e+08,118.29,0,2.2462e+08,583.16,12990,12054,1,12054,1,2.3828e-05,-1.657e-09,0,0.0002987,-4.3305e-06,8.6134e+06,-523.72,0,1.1254e+08,1.3861,12053,11097,1,11097,1,-0.00055224,-3.8885e-09,0,2.4929e-06,-0.00011229,-2.2462e+08,-1204.1,0,7.2547e+05,-179.93,11096,11599,1,11599,1,-0.00027487,-2.5489e-09,0,0.00014935,-6.0294e-05,-1.118e+08,-811.63,0,5.6385e+07,-22.241,11598,12509,1,12509,1,0.00032253,-7.7422e-10,0,0.00044805,5.1605e-05,1.1254e+08,-242.82,0,1.6733e+08,21.114,12508,527.81,0,527.81,0,0.00034478,1.0932e-09,0,0.0001734,6.4593e-05,1.2903e+08,348.72,0,6.4249e+07,60.909,527.81,1
1820,2.11,12054,1,12054,1,2.3942e-05,-2.1859e-09,0,0.00030028,-4.3612e-06,298.69,-696.89,0,1.1239e+08,-10.459,12053,12991,1,12991,1,0.00060274,1.1383e-09,0,0.00060274,0.00010409,2.0598e+08,384.64,0,2.2568e+08,1019.1,12990,12054,1,12054,1,2.3941e-05,-2.3229e-09,0,0.0003001,-4.3513e-06,8.6543e+06,-731.38,0,1.1307e+08,-8.117,12053,11097,1,11097,1,-0.00055485,-5.4842e-09,0,2.5053e-06,-0.00011282,-2.2568e+08,-1762.2,0,7.2912e+05,-473.79,11096,11599,1,11599,1,-0.00027616,-3.5916e-09,0,0.00015005,-6.0578e-05,-1.1232e+08,-1148.2,0,5.665e+07,-86.677,11598,12509,1,12509,1,0.00032404,-9.2013e-10,0,0.00045015,5.1848e-05,1.1307e+08,-273.37,0,1.6812e+08,54.552,12508,527.81,0,527.81,0,0.0003464,1.6855e-09,0,0.00017421,6.4897e-05,1.2964e+08,537.01,0,6.4552e+07,134.93,527.81,1
1820,2.12,12054,1,12054,1,2.4053e-05,-7.3536e-10,0,0.00030169,-4.3814e-06,53.711,-234.2,0,1.1292e+08,14.353,12053,12991,1,12991,1,0.00060555,3.4884e-09,0,0.00060555,0.00010457,2.0694e+08,1121.1,0,2.2673e+08,1026.9,12990,12054,1,12054,1,2.4053e-05,-4.3612e-10,0,0.00030151,-4.3713e-06,8.6948e+06,-136.71,0,1.136e+08,1.6212,12053,11097,1,11097,1,-0.00055745,-4.424e-09,0,2.5167e-06,-0.00011334,-2.2673e+08,-1405.6,0,7.324e+05,-228.87,11096,11599,1,11599,1,-0.00027746,-1.833e-09,0,0.00015076,-6.0862e-05,-1.1285e+08,-585.27,0,5.6916e+07,-34.09,11598,12509,1,12509,1,0.00032557,2.9207e-10,0,0.00045227,5.2092e-05,1.136e+08,92.482,0,1.6891e+08,45.202,12508,527.81,0,527.81,0,0.00034803,1.5769e-09,0,0.00017503,6.5201e-05,1.3025e+08,501.33,0,6.4854e+07,114.42,527.81,1
1820,2.13,12054,1,12054,1,2.4168e-05,-2.0942e-09,0,0.00030313,-4.4024e-06,69.797,-666.86,0,1.1346e+08,8.023,12053,12991,1,12991,1,0.00060845,7.4739e-10,0,0.00060845,0.00010507,2.0793e+08,255.97,0,2.2782e+08,875.83,12990,12054,1,12054,1,2.4168e-05,-2.1792e-09,0,0.00030295,-4.3921e-06,8.7362e+06,-690.89,0,1.1415e+08,-1.877,12053,11097,1,11097,1,-0.00056011,-4.5418e-09,0,2.5289e-06,-0.00011389,-2.2782e+08,-1406.3,0,7.36e+05,-149.42,11096,11599,1,11599,1,-0.00027878,-3.3282e-09,0,0.00015147,-6.1152e-05,-1.1339e+08,-1077.8,0,5.7187e+07,-41.058,11598,12509,1,12509,1,0.00032712,-9.5302e-10,0,0.00045442,5.234e-05,1.1415e+08,-307.11,0,1.6971e+08,37.487,12508,527.81,0,527.81,0,0.00034969,1.4308e-09,0,0.00017586,6.5512e-05,1.3087e+08,455.83,0,6.5163e+07,102.03,527.81,1
1820,2.14,12054,1,12054,1,2.4281e-05,-4.5775e-10,0,0.00030455,-4.423e-06,36.541,-145.7,0,1.1399e+08,17.484,12053,12991,1,12991,1,0.00061128,2.2817e-09,0,0.00061128,0.00010556,2.089e+08,733.42,0,2.2888e+08,930.75,12990,12054,1,12054,1,2.4281e-05,-2.7138e-10,0,0.00030437,-4.4125e-06,8.7773e+06,-85.202,0,1.1468e+08,2.931,12053,11097,1,11097,1,-0.00056272,-3.0051e-09,0,2.5409e-06,-0.00011442,-2.2888e+08,-966.18,0,7.3951e+05,-75.356,11096,11599,1,11599,1,-0.00028009,-9.8487e-10,0,0.00015218,-6.1439e-05,-1.1392e+08,-314.57,0,5.7455e+07,-16.52,11598,12509,1,12509,1,0.00032865,1.1664e-10,0,0.00045655,5.2585e-05,1.1468e+08,35.777,0,1.705e+08,24.331,12508,527.81,0,527.81,0,0.00035132,8.5858e-10,0,0.00017669,6.5819e-05,1.3148e+08,273.19,0,6.5468e+07,104.91,527.81,1
1820,2.15,12054,1,12054,1,2.4396e-05,-2.0631e-09,0,0.00030598,-4.4439e-06,50.627,-657.2,0,1.1453e+08,-9.0165,12053,12991,1,12991,1,0.00061418,7.6195e-10,0,0.00061418,0.00010606,2.0989e+08,260.96,0,2.2996e+08,165.58,12990,12054,1,12054,1,2.4396e-05,-2.1975e-09,0,0.0003058,-4.4338e-06,8.8185e+06,-703.14,0,1.1522e+08,-4.17,12053,11097,1,11097,1,-0.00056538,-4.5386e-09,0,2.553e-06,-0.00011496,-2.2996e+08,-1459.1,0,7.4301e+05,-352.99,11096,11599,1,11599,1,-0.0002814,-3.2633e-09,0,0.0001529,-6.1728e-05,-1.1445e+08,-1046,0,5.7726e+07,-37.503,11598,12509,1,12509,1,0.0003302,-1.0561e-09,0,0.0004587,5.2832e-05,1.1522e+08,-327.5,0,1.7131e+08,28.058,12508,527.81,0,527.81,0,0.00035298,1.3935e-09,0,0.00017752,6.6129e-05,1.321e+08,444.26,0,6.5777e+07,59.785,527.81,1
1820,2.16,12054,1,12054,1,2.4508e-05,-1.0612e-09,0,0.00030739,-4.4644e-06,161.01,-337.87,0,1.1505e+08,-2.1439,12053,12991,1,12991,1,0.00061699,3.0479e-09,0,0.00061699,0.00010655,2.1085e+08,979.85,0,2.3101e+08,515.41,12990,12054,1,12054,1,2.4508e-05,-6.5408e-10,0,0.00030721,-4.4539e-06,8.8593e+06,-211.49,0,1.1575e+08,-8.3056,12053,11097,1,11097,1,-0.00056797,-5.3049e-09,0,2.5651e-06,-0.00011548,-2.3101e+08,-1642.4,0,7.4655e+05,-137.23,11096,11599,1,11599,1,-0.0002827,-2.3298e-09,0,0.0001536,-6.2012e-05,-1.1498e+08,-738.55,0,5.7991e+07,-45.625,11598,12509,1,12509,1,0.00033171,2.0765e-10,0,0.00046081,5.3075e-05,1.1575e+08,63.696,0,1.7209e+08,38.952,12508,527.81,0,527.81,0,0.0003546,1.8066e-09,0,0.00017833,6.6432e-05,1.3271e+08,574.89,0,6.6078e+07,73.25,527.81,1
1820,2.17,12054,1,12054,1,2.4623e-05,-1.1399e-09,0,0.00030883,-4.4852e-06,21.914,-362.92,0,1.1559e+08,5.0306,12053,12991,1,12991,1,0.00061987,4.8007e-10,0,0.00061987,0.00010704,2.1183e+08,164.42,0,2.3209e+08,740.97,12990,12054,1,12054,1,2.4623e-05,-1.0945e-09,0,0.00030864,-4.4747e-06,8.9007e+06,-347.77,0,1.1629e+08,-0.1457,12053,11097,1,11097,1,-0.00057063,-3.136e-09,0,2.577e-06,-0.00011602,-2.3209e+08,-1007.8,0,7.5007e+05,-82.357,11096,11599,1,11599,1,-0.00028402,-1.8021e-09,0,0.00015432,-6.2302e-05,-1.1552e+08,-571.59,0,5.8262e+07,-17.545,11598,12509,1,12509,1,0.00033327,-4.4851e-10,0,0.00046296,5.3323e-05,1.1629e+08,-138.92,0,1.729e+08,16.509,12508,527.81,0,527.81,0,0.00035626,8.5909e-10,0,0.00017917,6.6743e-05,1.3333e+08,273.71,0,6.6387e+07,62.2,527.81,1
1820,2.18,12054,1,12054,1,2.4736e-05,-1.1113e-09,0,0.00031023,-4.5057e-06,154.6,-353.81,0,1.1612e+08,6.6285,12053,12991,1,12991,1,0.0006227,4.2163e-09,0,0.0006227,0.00010753,2.1279e+08,1354.2,0,2.3315e+08,895.86,12990,12054,1,12054,1,2.4735e-05,-6.755e-10,0,0.00031005,-4.4955e-06,8.9414e+06,-216.14,0,1.1682e+08,-5.8074,12053,11097,1,11097,1,-0.00057323,-5.5865e-09,0,2.5891e-06,-0.00011655,-2.3315e+08,-1729.8,0,7.5355e+05,-387.27,11096,11599,1,11599,1,-0.00028531,-2.6053e-09,0,0.00015502,-6.2586e-05,-1.1604e+08,-834.41,0,5.8528e+07,-52.222,11598,12509,1,12509,1,0.00033479,2.5784e-10,0,0.00046507,5.3566e-05,1.1682e+08,83.925,0,1.7369e+08,58.261,12508,527.81,0,527.81,0,0.00035788,2.0259e-09,0,0.00017998,6.7047e-05,1.3393e+08,644.68,0,6.669e+07,105.17,527.81,1
1820,2.19,12054,1,12054,1,2.4849e-05,-1.9274e-09,0,0.00031166,-4.5264e-06,55.169,-613.65,0,1.1665e+08,37.872,12053,12991,1,12991,1,0.00062557,1.789e-09,0,0.00062557,0.00010803,2.1377e+08,574.82,0,2.3423e+08,2662.6,12990,12054,1,12054,1,2.4849e-05,-1.74e-09,0,0.00031148,-4.5153e-06,8.9825e+06,-547.44,0,1.1736e+08,4.5883,12053,11097,1,11097,1,-0.00057587,-5.8681e-09,0,2.6008e-06,-0.00011709,-2.3423e+08,-1886.3,0,7.5716e+05,-124.27,11096,11599,1,11599,1,-0.00028663,-3.1115e-09,0,0.00015574,-6.2874e-05,-1.1658e+08,-995.97,0,5.8797e+07,-26.334,11598,12509,1,12509,1,0.00033632,-5.741e-10,0,0.00046721,5.3813e-05,1.1736e+08,-183.18,0,1.7449e+08,41.198,12508,527.81,0,527.81,0,0.00035953,1.6561e-09,0,0.00018081,6.7356e-05,1.3455e+08,526.95,0,6.6996e+07,213.39,527.81,1
1820,2.2,12054,1,12054,1,2.4962e-05,-1.0997e-09,0,0.00031307,-4.5469e-06,58.286,-349.38,0,1.1718e+08,40.428,12053,12991,1,12991,1,0.0006284,6.3109e-09,0,0.0006284,0.00010852,2.1474e+08,2028.2,0,2.3529e+08,1511.5,12990,12054,1,12054,1,2.4962e-05,-4.0045e-10,0,0.00031289,-4.536e-06,9.0233e+06,-123.27,0,1.1789e+08,9.169,12053,11097,1,11097,1,-0.00057848,-8.8139e-09,0,2.613e-06,-0.00011762,-2.3529e+08,-2833.2,0,7.6066e+05,-141.04,11096,11599,1,11599,1,-0.00028792,-3.3e-09,0,0.00015644,-6.3158e-05,-1.171e+08,-1071.2,0,5.9063e+07,-59.943,11598,12509,1,12509,1,0.00033785,9.4615e-10,0,0.00046933,5.4056e-05,1.1789e+08,291.3,0,1.7528e+08,95.699,12508,527.81,0,527.81,0,0.00036115,3.2545e-09,0,0.00018163,6.766e-05,1.3516e+08,1035.8,0,6.7299e+07,184.08,527.81,1
1820,2.21,12054,1,12054,1,2.5076e-05,-1.2426e-09,0,0.00031449,-4.5676e-06,11.865,-394.79,0,1.1771e+08,28.184,12053,12991,1,12991,1,0.00063126,5.647e-09,0,0.00063126,0.00010901,2.1571e+08,1797.7,0,2.3636e+08,1163.5,12990,12054,1,12054,1,2.5075e-05,-5.3959e-10,0,0.00031431,-4.5569e-06,9.0644e+06,-175.22,0,1.1843e+08,7.6989,12053,11097,1,11097,1,-0.0005811,-8.3777e-09,0,2.6251e-06,-0.00011815,-2.3636e+08,-2593.8,0,7.6416e+05,-176.12,11096,11599,1,11599,1,-0.00028923,-3.5247e-09,0,0.00015715,-6.3445e-05,-1.1764e+08,-1103.1,0,5.9331e+07,-56.238,11598,12509,1,12509,1,0.00033938,8.8298e-10,0,0.00047146,5.4302e-05,1.1843e+08,273.19,0,1.7607e+08,100.84,12508,527.81,0,527.81,0,0.00036279,3.1685e-09,0,0.00018246,6.7968e-05,1.3577e+08,1008.2,0,6.7605e+07,129.67,527.81,1
1820,2.22,12054,1,12054,1,2.5191e-05,-4.9679e-10,0,0.00031593,-4.5887e-06,13.207,-157.65,0,1.1825e+08,7.5041,12053,12991,1,12991,1,0.00063414,1.6851e-09,0,0.00063414,0.00010951,2.1669e+08,541.08,0,2.3743e+08,678.92,12990,12054,1,12054,1,2.5191e-05,-1.9996e-10,0,0.00031575,-4.5782e-06,9.1062e+06,-61.532,0,1.1897e+08,-0.48706,12053,11097,1,11097,1,-0.00058375,-3.3108e-09,0,2.6378e-06,-0.00011869,-2.3743e+08,-1023.7,0,7.6787e+05,-259.37,11096,11599,1,11599,1,-0.00029055,-1.2268e-09,0,0.00015787,-6.3736e-05,-1.1818e+08,-393.96,0,5.9603e+07,-23.319,11598,12509,1,12509,1,0.00034094,2.4508e-10,0,0.00047362,5.455e-05,1.1897e+08,76.44,0,1.7688e+08,21.534,12508,527.81,0,527.81,0,0.00036446,1.0972e-09,0,0.00018329,6.8279e-05,1.3639e+08,349.46,0,6.7915e+07,65.588,527.81,1
1820,2.23,12054,1,12054,1,2.5304e-05,-2.1466e-09,0,0.00031734,-4.6091e-06,151.82,-682.68,0,1.1878e+08,42.406,12053,12991,1,12991,1,0.00063698,6.6934e-09,0,0.00063698,0.00011,2.1766e+08,2150.7,0,2.385e+08,1589.6,12990,12054,1,12054,1,2.5303e-05,-1.4555e-09,0,0.00031715,-4.598e-06,9.1467e+06,-470.39,0,1.195e+08,5.8631,12053,11097,1,11097,1,-0.00058637,-1.0396e-08,0,2.65e-06,-0.00011922,-2.385e+08,-3337.7,0,7.7155e+05,-240.19,11096,11599,1,11599,1,-0.00029185,-5.0938e-09,0,0.00015858,-6.402e-05,-1.187e+08,-1635.3,0,5.9868e+07,-59.528,11598,12509,1,12509,1,0.00034245,6.5339e-10,0,0.00047573,5.4793e-05,1.195e+08,202.57,0,1.7767e+08,119.96,12508,527.81,0,527.81,0,0.00036608,3.8696e-09,0,0.00018411,6.8583e-05,1.37e+08,1231.6,0,6.8216e+07,180.92,527.81,1
1820,2.24,12054,1,12054,1,2.5418e-05,-1.6042e-09,0,0.00031876,-4.6299e-06,94.123,-509.88,0,1.1931e+08,46.273,12053,12991,1,12991,1,0.00063983,5.8549e-09,0,0.00063983,0.00011049,2.1864e+08,1881.8,0,2.3957e+08,1942.5,12990,12054,1,12054,1,2.5417e-05,-6.9575e-10,0,0.00031857,-4.6189e-06,9.1879e+06,-222.78,0,1.2003e+08,13.749,12053,11097,1,11097,1,-0.000589,-1.0143e-08,0,2.6621e-06,-0.00011976,-2.3957e+08,-3194.1,0,7.7513e+05,-163.78,11096,11599,1,11599,1,-0.00029316,-4.055e-09,0,0.00015929,-6.4307e-05,-1.1923e+08,-1289.9,0,6.0137e+07,-63.171,11598,12509,1,12509,1,0.00034399,8.4023e-10,0,0.00047786,5.5039e-05,1.2003e+08,265.1,0,1.7846e+08,109.04,12508,527.81,0,527.81,0,0.00036772,3.5709e-09,0,0.00018493,6.889e-05,1.3761e+08,1135.9,0,6.8522e+07,211.49,527.81,1
1820,2.25,12054,1,12054,1,2.5533e-05,-4.6078e-11,0,0.00032021,-4.651e-06,23.63,-14.55,0,1.1985e+08,12.101,12053,12991,1,12991,1,0.00064271,2.1524e-09,0,0.00064271,0.00011099,2.1962e+08,690.92,0,2.4064e+08,904.04,12990,12054,1,12054,1,2.5533e-05,-2.2687e-11,0,0.00032002,-4.6401e-06,9.2299e+06,-7.0263,0,1.2058e+08,1.2796,12053,11097,1,11097,1,-0.00059165,-1.8043e-09,0,2.6748e-06,-0.0001203,-2.4064e+08,-580.08,0,7.7878e+05,-56.535,11096,11599,1,11599,1,-0.00029449,-4.9956e-10,0,0.00016001,-6.4598e-05,-1.1977e+08,-158.74,0,6.0409e+07,-11.548,11598,12509,1,12509,1,0.00034555,2.9252e-10,0,0.00048003,5.5288e-05,1.2058e+08,93.637,0,1.7927e+08,20.246,12508,527.81,0,527.81,0,0.00036939,6.8035e-10,0,0.00018577,6.9204e-05,1.3824e+08,216.88,0,6.8833e+07,74.974,527.81,1
1820,2.26,12054,1,12054,1,2.5646e-05,-1.7513e-09,0,0.00032161,-4.6714e-06,61.172,-557,0,1.2038e+08,53.257,12053,12991,1,12991,1,0.00064556,5.2288e-09,0,0.00064556,0.00011148,2.2059e+08,1678.4,0,2.4171e+08,2635.5,12990,12054,1,12054,1,2.5645e-05,-9.3123e-10,0,0.00032142,-4.6604e-06,9.2705e+06,-297.84,0,1.2111e+08,15.323,12053,11097,1,11097,1,-0.00059427,-9.2759e-09,0,2.6867e-06,-0.00012083,-2.4171e+08,-2913.2,0,7.8227e+05,-164.69,11096,11599,1,11599,1,-0.00029578,-4.125e-09,0,0.00016071,-6.4882e-05,-1.203e+08,-1312.9,0,6.0675e+07,-54.752,11598,12509,1,12509,1,0.00034707,5.4335e-10,0,0.00048214,5.5531e-05,1.2111e+08,174.37,0,1.8006e+08,112.05,12508,527.81,0,527.81,0,0.00037101,3.277e-09,0,0.00018659,6.9507e-05,1.3885e+08,1042.1,0,6.9134e+07,212.24,527.81,1
1820,2.27,12054,1,12054,1,2.5758e-05,-3.3474e-09,0,0.00032302,-4.6919e-06,-6.5636,-1064.6,0,1.209e+08,62.908,12053,12991,1,12991,1,0.00064841,8.3066e-09,0,0.00064841,0.00011197,2.2156e+08,2667.5,0,2.4278e+08,1934.8,12990,12054,1,12054,1,2.5758e-05,-2.448e-09,0,0.00032284,-4.6805e-06,9.311e+06,-764.13,0,1.2164e+08,24.709,12053,11097,1,11097,1,-0.00059689,-1.3675e-08,0,2.6985e-06,-0.00012136,-2.4278e+08,-4362.1,0,7.8579e+05,-241.01,11096,11599,1,11599,1,-0.00029708,-7.17e-09,0,0.00016142,-6.5167e-05,-1.2083e+08,-2262,0,6.0941e+07,-70.262,11598,12509,1,12509,1,0.00034859,3.0901e-10,0,0.00048425,5.5775e-05,1.2164e+08,96.956,0,1.8085e+08,163.15,12508,527.81,0,527.81,0,0.00037264,4.7989e-09,0,0.0001874,6.9812e-05,1.3945e+08,1527.1,0,6.9437e+07,210.43,527.81,1
1820,2.28,12054,1,12054,1,2.5872e-05,-8.5175e-10,0,0.00032444,-4.7126e-06,62.065,-270.32,0,1.2143e+08,46.965,12053,12991,1,12991,1,0.00065123,9.7601e-09,0,0.00065123,0.00011246,2.2253e+08,3061.9,0,2.4383e+08,1772.5,12990,12054,1,12054,1,2.5872e-05,-2.3684e-10,0,0.00032425,-4.7016e-06,9.3523e+06,-71.714,0,1.2217e+08,22.076,12053,11097,1,11097,1,-0.00059948,-1.0998e-08,0,2.7111e-06,-0.00012189,-2.4383e+08,-3446.4,0,7.8948e+05,-219.39,11096,11599,1,11599,1,-0.00029838,-3.8216e-09,0,0.00016212,-6.5453e-05,-1.2136e+08,-1215.4,0,6.1208e+07,-81.313,11598,12509,1,12509,1,0.00035012,1.7471e-09,0,0.00048637,5.6019e-05,1.2217e+08,540.46,0,1.8164e+08,138.35,12508,527.81,0,527.81,0,0.00037427,4.3981e-09,0,0.00018823,7.0118e-05,1.4007e+08,1400.4,0,6.9742e+07,213.09,527.81,1
1820,2.29,12054,1,12054,1,2.5988e-05,-2.8209e-09,0,0.00032588,-4.7338e-06,99.98,-897.02,0,1.2197e+08,22.957,12053,12991,1,12991,1,0.00065415,4.4611e-09,0,0.00065415,0.00011296,2.2352e+08,1412.9,0,2.4492e+08,405.77,12990,12054,1,12054,1,2.5987e-05,-1.9714e-09,0,0.0003257,-4.7225e-06,9.3939e+06,-623.55,0,1.2272e+08,2.0601,12053,11097,1,11097,1,-0.00060217,-1.1609e-08,0,2.7237e-06,-0.00012244,-2.4492e+08,-3594.4,0,7.9317e+05,-232.97,11096,11599,1,11599,1,-0.00029971,-5.8049e-09,0,0.00016285,-6.5745e-05,-1.219e+08,-1843,0,6.1481e+07,-73.697,11598,12509,1,12509,1,0.00035168,2.7382e-10,0,0.00048854,5.6268e-05,1.2272e+08,92.145,0,1.8245e+08,106.75,12508,527.81,0,527.81,0,0.00037594,3.877e-09,0,0.00018906,7.043e-05,1.4069e+08,1233.4,0,7.0052e+07,125.97,527.81,1
1820,2.3,12054,1,12054,1,2.6103e-05,-7.4124e-10,0,0.00032733,-4.7548e-06,-2.2681,-235.92,0,1.2252e+08,3.0019,12053,12991,1,12991,1,0.00065701,4.318e-10,0,0.00065701,0.00011346,2.245e+08,147.89,0,2.4599e+08,533.86,12990,12054,1,12054,1,2.6103e-05,-8.7785e-10,0,0.00032713,-4.7441e-06,9.4357e+06,-273.33,0,1.2326e+08,-1.2201,12053,11097,1,11097,1,-0.0006048,-2.2192e-09,0,2.7363e-06,-0.00012297,-2.4599e+08,-712.83,0,7.9684e+05,-350.51,11096,11599,1,11599,1,-0.00030103,-1.1703e-09,0,0.00016357,-6.6035e-05,-1.2244e+08,-377.74,0,6.1752e+07,-14.346,11598,12509,1,12509,1,0.00035323,-3.2651e-10,0,0.0004907,5.6517e-05,1.2326e+08,-109.52,0,1.8326e+08,13.892,12508,527.81,0,527.81,0,0.0003776,5.4248e-10,0,0.0001899,7.0742e-05,1.4131e+08,172.51,0,7.0362e+07,52.397,527.81,1
1820,2.31,12054,1,12054,1,2.6216e-05,-1.6659e-09,0,0.00032874,-4.7754e-06,-9.3821,-529.73,0,1.2304e+08,19.511,12053,12991,1,12991,1,0.00065986,1.0931e-09,0,0.00065986,0.00011395,2.2547e+08,374.39,0,2.4706e+08,745.72,12990,12054,1,12054,1,2.6216e-05,-1.1794e-09,0,0.00032855,-4.7643e-06,9.4766e+06,-376.41,0,1.2379e+08,3.9649,12053,11097,1,11097,1,-0.00060743,-5.9209e-09,0,2.7484e-06,-0.00012351,-2.4706e+08,-1897.2,0,8.0043e+05,-141.3,11096,11599,1,11599,1,-0.00030233,-2.9704e-09,0,0.00016427,-6.6321e-05,-1.2297e+08,-939.27,0,6.2019e+07,-31.604,11598,12509,1,12509,1,0.00035476,-1.2129e-10,0,0.00049282,5.6761e-05,1.2379e+08,-39.833,0,1.8405e+08,47.445,12508,527.81,0,527.81,0,0.00037923,1.7825e-09,0,0.00019072,7.1048e-05,1.4192e+08,566.98,0,7.0666e+07,93.563,527.81,1
1820,2.32,12054,1,12054,1,2.633e-05,-1.1536e-11,0,0.00033016,-4.7961e-06,61.351,-3.2149,0,1.2357e+08,26.732,12053,12991,1,12991,1,0.00066269,5.3159e-09,0,0.00066269,0.00011444,2.2644e+08,1708.7,0,2.4812e+08,1249.9,12990,12054,1,12054,1,2.633e-05,3.7689e-11,0,0.00032996,-4.785e-06,9.5179e+06,12.145,0,1.2433e+08,8.5934,12053,11097,1,11097,1,-0.00061003,-4.8772e-09,0,2.7608e-06,-0.00012404,-2.4812e+08,-1568.1,0,8.0409e+05,-176.65,11096,11599,1,11599,1,-0.00030363,-1.3501e-09,0,0.00016498,-6.6607e-05,-1.2349e+08,-421.49,0,6.2287e+07,-37.074,11598,12509,1,12509,1,0.00035629,1.2512e-09,0,0.00049494,5.7006e-05,1.2433e+08,394.06,0,1.8484e+08,68.533,12508,527.81,0,527.81,0,0.00038087,2.0595e-09,0,0.00019155,7.1354e-05,1.4253e+08,655.96,0,7.097e+07,128.58,527.81,1
1820,2.33,12054,1,12054,1,2.6442e-05,-8.8485e-10,0,0.00033156,-4.8165e-06,-68.268,-280.8,0,1.241e+08,30.905,12053,12991,1,12991,1,0.00066552,6.8503e-09,0,0.00066552,0.00011493,2.274e+08,2123.6,0,2.4918e+08,1171.1,12990,12054,1,12054,1,2.6441e-05,-2.2236e-10,0,0.00033137,-4.8052e-06,9.5582e+06,-73.525,0,1.2486e+08,12.095,12053,11097,1,11097,1,-0.00061264,-9.0538e-09,0,2.7723e-06,-0.00012457,-2.4918e+08,-2812.2,0,8.0754e+05,-155.64,11096,11599,1,11599,1,-0.00030493,-3.1926e-09,0,0.00016568,-6.689e-05,-1.2402e+08,-1004.5,0,6.2552e+07,-57.02,11598,12509,1,12509,1,0.00035781,1.1466e-09,0,0.00049705,5.7249e-05,1.2486e+08,379.04,0,1.8563e+08,99.062,12508,527.81,0,527.81,0,0.00038249,3.384e-09,0,0.00019236,7.1657e-05,1.4314e+08,1077.1,0,7.1272e+07,139.92,527.81,1
1820,2.34,12054,1,12054,1,2.6556e-05,-2.0159e-09,0,0.00033299,-4.8373e-06,-29.887,-640.98,0,1.2463e+08,30.391,12053,12991,1,12991,1,0.00066839,4.8638e-09,0,0.00066839,0.00011542,2.2838e+08,1506.2,0,2.5026e+08,1632.2,12990,12054,1,12054,1,2.6555e-05,-1.2298e-09,0,0.00033279,-4.826e-06,9.5995e+06,-395.76,0,1.2539e+08,8.7893,12053,11097,1,11097,1,-0.00061528,-9.5467e-09,0,2.7849e-06,-0.0001251,-2.5026e+08,-2955.7,0,8.1117e+05,-189.01,11096,11599,1,11599,1,-0.00030624,-4.5539e-09,0,0.0001664,-6.7178e-05,-1.2455e+08,-1460.1,0,6.282e+07,-58.326,11598,12509,1,12509,1,0.00035935,4.6061e-10,0,0.00049919,5.7494e-05,1.2539e+08,139.39,0,1.8643e+08,102.05,12508,527.81,0,527.81,0,0.00038413,3.3656e-09,0,0.00019319,7.1965e-05,1.4375e+08,1070.4,0,7.1578e+07,142.36,527.81,1
1820,2.35,12054,1,12054,1,2.6671e-05,-1.8257e-09,0,0.00033442,-4.8582e-06,18.465,-580.63,0,1.2517e+08,22.361,12053,12991,1,12991,1,0.00067127,3.7141e-09,0,0.00067127,0.00011592,2.2936e+08,1194.6,0,2.5133e+08,1289.9,12990,12054,1,12054,1,2.667e-05,-1.3759e-09,0,0.00033422,-4.8469e-06,9.641e+06,-427.96,0,1.2593e+08,1.0692,12053,11097,1,11097,1,-0.00061792,-8.4476e-09,0,2.7975e-06,-0.00012564,-2.5133e+08,-2615.4,0,8.1487e+05,-204.46,11096,11599,1,11599,1,-0.00030755,-3.4952e-09,0,0.00016711,-6.7467e-05,-1.2509e+08,-1100.7,0,6.3091e+07,-47.713,11598,12509,1,12509,1,0.0003609,2.2659e-10,0,0.00050134,5.7742e-05,1.2593e+08,75.241,0,1.8723e+08,78.091,12508,527.81,0,527.81,0,0.00038578,2.5512e-09,0,0.00019402,7.2275e-05,1.4437e+08,811.54,0,7.1886e+07,130.73,527.81,1
1820,2.36,12054,1,12054,1,2.6785e-05,-1.387e-10,0,0.00033585,-4.879e-06,20.368,-43.739,0,1.257e+08,32.964,12053,12991,1,12991,1,0.00067411,6.7538e-09,0,0.00067411,0.00011641,2.3033e+08,2171.3,0,2.524e+08,1500.2,12990,12054,1,12054,1,2.6785e-05,4.1756e-11,0,0.00033565,-4.8677e-06,9.6824e+06,12.862,0,1.2647e+08,19.204,12053,11097,1,11097,1,-0.00062054,-5.7176e-09,0,2.8099e-06,-0.00012618,-2.524e+08,-1834.7,0,8.1859e+05,-146.17,11096,11599,1,11599,1,-0.00030886,-1.577e-09,0,0.00016782,-6.7754e-05,-1.2562e+08,-496.77,0,6.3359e+07,-35.221,11598,12509,1,12509,1,0.00036243,1.0444e-09,0,0.00050347,5.7988e-05,1.2647e+08,331.62,0,1.8803e+08,79.291,12508,527.81,0,527.81,0,0.00038743,2.3221e-09,0,0.00019484,7.2583e-05,1.4499e+08,739.4,0,7.2192e+07,138.89,527.81,1
1820,2.37,12054,1,12054,1,2.6899e-05,-3.4982e-09,0,0.00033727,-4.8998e-06,123.2,-1112.8,0,1.2623e+08,32.59,12053,12991,1,12991,1,0.000677,2.7196e-09,0,0.000677,0.00011691,2.3132e+08,844.18,0,2.5348e+08,1177.2,12990,12054,1,12054,1,2.6898e-05,-2.6628e-09,0,0.00033707,-4.8882e-06,9.7234e+06,-862.86,0,1.27e+08,8.7985,12053,11097,1,11097,1,-0.0006232,-1.2672e-08,0,2.8224e-06,-0.00012672,-2.5348e+08,-4073.3,0,8.2227e+05,-251.53,11096,11599,1,11599,1,-0.00031017,-6.5532e-09,0,0.00016854,-6.8042e-05,-1.2615e+08,-2067,0,6.3628e+07,-69.618,11598,12509,1,12509,1,0.00036397,3.303e-11,0,0.00050561,5.8233e-05,1.27e+08,10.525,0,1.8882e+08,113.39,12508,527.81,0,527.81,0,0.00038907,3.9796e-09,0,0.00019567,7.289e-05,1.456e+08,1265.8,0,7.2497e+07,146.04,527.81,1
1820,2.38,12054,1,12054,1,2.7014e-05,-3.3557e-09,0,0.0003387,-4.9207e-06,39.227,-1068.3,0,1.2677e+08,6.3635,12053,12991,1,12991,1,0.00067987,1.2639e-09,0,0.00067987,0.0001174,2.3229e+08,413.2,0,2.5455e+08,1646.7,12990,12054,1,12054,1,2.7013e-05,-3.5904e-09,0,0.0003385,-4.9091e-06,9.7647e+06,-1144.7,0,1.2754e+08,-2.7253,12053,11097,1,11097,1,-0.00062584,-7.0281e-09,0,2.8345e-06,-0.00012725,-2.5455e+08,-2258.5,0,8.2593e+05,-302.94,11096,11599,1,11599,1,-0.00031149,-5.3513e-09,0,0.00016925,-6.8331e-05,-1.2669e+08,-1724.9,0,6.3898e+07,-53.004,11598,12509,1,12509,1,0.00036551,-1.5318e-09,0,0.00050775,5.848e-05,1.2754e+08,-490.83,0,1.8963e+08,56.37,12508,527.81,0,527.81,0,0.00039073,2.2621e-09,0,0.0001965,7.3201e-05,1.4622e+08,720.16,0,7.2806e+07,142.18,527.81,1
1820,2.39,12054,1,12054,1,2.7129e-05,1.5172e-10,0,0.00034015,-4.9418e-06,29.453,48.112,0,1.2731e+08,-0.62173,12053,12991,1,12991,1,0.00068274,1.2611e-09,0,0.00068274,0.0001179,2.3327e+08,405.35,0,2.5562e+08,663.63,12990,12054,1,12054,1,2.7129e-05,1.6909e-10,0,0.00033994,-4.9305e-06,9.8069e+06,52.143,0,1.2809e+08,-3.3855,12053,11097,1,11097,1,-0.00062848,-6.8217e-10,0,2.8476e-06,-0.00012779,-2.5562e+08,-208.54,0,8.2963e+05,-249.65,11096,11599,1,11599,1,-0.00031281,6.553e-11,0,0.00016997,-6.8622e-05,-1.2723e+08,21.25,0,6.417e+07,-12.288,11598,12509,1,12509,1,0.00036707,2.7323e-10,0,0.00050992,5.8729e-05,1.2809e+08,87.264,0,1.9043e+08,5.8461,12508,527.81,0,527.81,0,0.00039239,2.1581e-10,0,0.00019734,7.3512e-05,1.4684e+08,68.783,0,7.3116e+07,64.755,527.81,1
1820,2.4,12054,1,12054,1,2.7241e-05,-1.1791e-09,0,0.00034154,-4.9622e-06,36.799,-374.96,0,1.2783e+08,14.906,12053,12991,1,12991,1,0.00068556,9.4103e-10,0,0.00068556,0.00011838,2.3423e+08,322.29,0,2.5668e+08,602.89,12990,12054,1,12054,1,2.7241e-05,-7.1479e-10,0,0.00034134,-4.9505e-06,9.8473e+06,-228.35,0,1.2861e+08,-3.8857,12053,11097,1,11097,1,-0.00063107,-5.5645e-09,0,2.8596e-06,-0.00012832,-2.5668e+08,-1789,0,8.3324e+05,-100.48,11096,11599,1,11599,1,-0.0003141,-1.955e-09,0,0.00017067,-6.8904e-05,-1.2775e+08,-630.08,0,6.4434e+07,-31.243,11598,12509,1,12509,1,0.00036858,-3.1271e-11,0,0.00051201,5.8971e-05,1.2861e+08,-9.3547,0,1.9122e+08,34.758,12508,527.81,0,527.81,0,0.000394,1.4735e-09,0,0.00019815,7.3814e-05,1.4745e+08,468.74,0,7.3416e+07,89.158,527.81,1
1820,2.41,12054,1,12054,1,2.7356e-05,-9.0196e-10,0,0.00034298,-4.9831e-06,8.976,-286.64,0,1.2837e+08,22.958,12053,12991,1,12991,1,0.00068844,1.0758e-09,0,0.00068844,0.00011888,2.3521e+08,367.79,0,2.5776e+08,1007.4,12990,12054,1,12054,1,2.7356e-05,-4.9165e-10,0,0.00034278,-4.9716e-06,9.8889e+06,-158.01,0,1.2916e+08,5.6114,12053,11097,1,11097,1,-0.00063372,-4.4363e-09,0,2.872e-06,-0.00012886,-2.5776e+08,-1425.6,0,8.3688e+05,-263.83,11096,11599,1,11599,1,-0.00031542,-1.7998e-09,0,0.00017139,-6.9194e-05,-1.2829e+08,-573.65,0,6.4705e+07,-21.007,11598,12509,1,12509,1,0.00037013,1.72e-10,0,0.00051417,5.9219e-05,1.2916e+08,53.519,0,1.9202e+08,45.362,12508,527.81,0,527.81,0,0.00039566,1.3481e-09,0,0.00019898,7.4125e-05,1.4807e+08,429.19,0,7.3724e+07,101.28,527.81,1
1820,2.42,12054,1,12054,1,2.747e-05,4.3321e-10,0,0.00034441,-5.0039e-06,-50.247,138.1,0,1.2891e+08,6.2197,12053,12991,1,12991,1,0.00069129,2.033e-09,0,0.00069129,0.00011937,2.3619e+08,653.12,0,2.5883e+08,267.06,12990,12054,1,12054,1,2.747e-05,4.6287e-10,0,0.0003442,-4.9924e-06,9.9301e+06,148.97,0,1.2969e+08,2.6726,12053,11097,1,11097,1,-0.00063635,-1.7466e-09,0,2.8843e-06,-0.00012939,-2.5883e+08,-561.66,0,8.4048e+05,-213.67,11096,11599,1,11599,1,-0.00031673,2.2062e-11,0,0.0001721,-6.9481e-05,-1.2882e+08,7.5541,0,6.4974e+07,-19.327,11598,12509,1,12509,1,0.00037167,9.7561e-10,0,0.0005163,5.9465e-05,1.2969e+08,308.26,0,1.9282e+08,26.235,12508,527.81,0,527.81,0,0.0003973,6.8952e-10,0,0.00019981,7.4433e-05,1.4868e+08,219.94,0,7.4031e+07,39.181,527.81,1
1820,2.43,12054,1,12054,1,2.7583e-05,-2.5145e-10,0,0.00034581,-5.0243e-06,46.807,-79.291,0,1.2943e+08,10.966,12053,12991,1,12991,1,0.00069411,7.6226e-09,0,0.00069411,0.00011986,2.3715e+08,2449.2,0,2.5988e+08,190.73,12990,12054,1,12054,1,2.7582e-05,-2.7444e-11,0,0.0003456,-5.0129e-06,9.9706e+06,-8.0951,0,1.3022e+08,5.6399,12053,11097,1,11097,1,-0.00063894,-7.174e-09,0,2.8965e-06,-0.00012992,-2.5988e+08,-2306,0,8.4404e+05,-401.18,11096,11599,1,11599,1,-0.00031802,-2.2537e-09,0,0.0001728,-6.9764e-05,-1.2935e+08,-711.92,0,6.5238e+07,-52.835,11598,12509,1,12509,1,0.00037318,1.5245e-09,0,0.0005184,5.9707e-05,1.3022e+08,479.48,0,1.936e+08,96.422,12508,527.81,0,527.81,0,0.00039892,3.0162e-09,0,0.00020062,7.4735e-05,1.4929e+08,960.47,0,7.4331e+07,97.196,527.81,1
1820,2.44,12054,1,12054,1,2.77e-05,-7.873e-10,0,0.00034725,-5.0458e-06,24.705,-250.19,0,1.2997e+08,-17.737,12053,12991,1,12991,1,0.00069701,9.6971e-10,0,0.00069701,0.00012036,2.3813e+08,311.6,0,2.6097e+08,75.414,12990,12054,1,12054,1,2.77e-05,-7.5916e-10,0,0.00034705,-5.0345e-06,1.0013e+07,-233.57,0,1.3076e+08,-0.54278,12053,11097,1,11097,1,-0.00064161,-2.7367e-09,0,2.911e-06,-0.00013046,-2.6097e+08,-879.77,0,8.4844e+05,-451.89,11096,11599,1,11599,1,-0.00031935,-1.4436e-09,0,0.00017352,-7.0056e-05,-1.2989e+08,-456.61,0,6.5511e+07,-29.12,11598,12509,1,12509,1,0.00037475,-8.7248e-11,0,0.00052057,5.9956e-05,1.3076e+08,-28.139,0,1.9441e+08,18.695,12508,527.81,0,527.81,0,0.00040059,7.8823e-10,0,0.00020146,7.5048e-05,1.4991e+08,250.77,0,7.4641e+07,73.508,527.81,1
1820,2.45,12054,1,12054,1,2.7818e-05,-1.9962e-09,0,0.00034866,-5.0673e-06,135.72,-634.56,0,1.3049e+08,-5.7059,12053,12991,1,12991,1,0.00069986,8.6739e-10,0,0.00069986,0.00012085,2.3907e+08,297.07,0,2.6203e+08,157.68,12990,12054,1,12054,1,2.7818e-05,-1.8942e-09,0,0.00034845,-5.056e-06,1.0056e+07,-605.86,0,1.313e+08,4.3163,12053,11097,1,11097,1,-0.00064422,-5.6337e-09,0,2.9285e-06,-0.00013099,-2.6203e+08,-1810.9,0,8.5409e+05,-502.99,11096,11599,1,11599,1,-0.00032064,-3.2259e-09,0,0.00017423,-7.0342e-05,-1.3041e+08,-1034.3,0,6.5777e+07,-31.089,11598,12509,1,12509,1,0.00037627,-6.9208e-10,0,0.00052268,6.0198e-05,1.313e+08,-211.67,0,1.952e+08,37.116,12508,527.81,0,527.81,0,0.00040221,1.5863e-09,0,0.00020228,7.5353e-05,1.5051e+08,504.58,0,7.4941e+07,70.962,527.81,1
1820,2.46,12054,1,12054,1,2.7938e-05,-8.0465e-10,0,0.0003501,-5.0891e-06,-97.235,-256.03,0,1.3103e+08,-3.7649,12053,12991,1,12991,1,0.00070274,1.8679e-09,0,0.00070274,0.00012135,2.4003e+08,600.33,0,2.631e+08,104.25,12990,12054,1,12054,1,2.7937e-05,-5.2181e-10,0,0.00034989,-5.0777e-06,1.0099e+07,-167.24,0,1.3184e+08,8.9757,12053,11097,1,11097,1,-0.00064686,-4.0334e-09,0,2.9453e-06,-0.00013153,-2.631e+08,-1296.5,0,8.5945e+05,-474.67,11096,11599,1,11599,1,-0.00032195,-1.7119e-09,0,0.00017494,-7.0632e-05,-1.3095e+08,-540.63,0,6.6048e+07,-22.597,11598,12509,1,12509,1,0.00037783,1.8673e-10,0,0.00052483,6.0445e-05,1.3184e+08,58.433,0,1.96e+08,37.452,12508,527.81,0,527.81,0,0.00040387,1.2234e-09,0,0.00020311,7.5663e-05,1.5113e+08,389.54,0,7.5247e+07,77.376,527.81,1
1820,2.47,12054,1,12054,1,2.8057e-05,-6.0547e-10,0,0.00035152,-5.1108e-06,13.26,-192.69,0,1.3156e+08,-9.1879,12053,12991,1,12991,1,0.00070559,1.5686e-09,0,0.00070559,0.00012184,2.4097e+08,504.05,0,2.6417e+08,77.698,12990,12054,1,12054,1,2.8057e-05,-2.7101e-10,0,0.00035131,-5.0993e-06,1.0142e+07,-87.194,0,1.3238e+08,-3.7825,12053,11097,1,11097,1,-0.00064948,-3.7934e-09,0,2.9632e-06,-0.00013207,-2.6417e+08,-1219.3,0,8.6525e+05,-453.85,11096,11599,1,11599,1,-0.00032325,-1.2919e-09,0,0.00017566,-7.092e-05,-1.3147e+08,-406.1,0,6.6316e+07,-27.165,11598,12509,1,12509,1,0.00037937,1.9134e-10,0,0.00052697,6.0689e-05,1.3238e+08,60.161,0,1.968e+08,27.019,12508,527.81,0,527.81,0,0.00040551,1.071e-09,0,0.00020394,7.597e-05,1.5174e+08,341.26,0,7.5549e+07,71.242,527.81,1
1820,2.48,12054,1,12054,1,2.8175e-05,-2.4471e-09,0,0.00035294,-5.1323e-06,-58.171,-778.43,0,1.3209e+08,18.556,12053,12991,1,12991,1,0.00070846,2.9662e-09,0,0.00070846,0.00012233,2.4192e+08,952.2,0,2.6524e+08,644.47,12990,12054,1,12054,1,2.8174e-05,-2.0106e-09,0,0.00035273,-5.1209e-06,1.0185e+07,-632.69,0,1.3291e+08,24.733,12053,11097,1,11097,1,-0.00065211,-8.8241e-09,0,2.9799e-06,-0.0001326,-2.6524e+08,-2837,0,8.7075e+05,-538.95,11096,11599,1,11599,1,-0.00032455,-4.5575e-09,0,0.00017636,-7.1207e-05,-1.32e+08,-1462.8,0,6.6583e+07,-43.683,11598,12509,1,12509,1,0.0003809,-9.6277e-11,0,0.00052909,6.0933e-05,1.3291e+08,-31.649,0,1.9759e+08,93.811,12508,527.81,0,527.81,0,0.00040714,2.739e-09,0,0.00020476,7.6276e-05,1.5235e+08,871.9,0,7.585e+07,105.97,527.81,1
1820,2.49,12054,1,12054,1,2.8295e-05,-1.5202e-09,0,0.00035437,-5.1542e-06,-69.988,-483.58,0,1.3262e+08,-1.852,12053,12991,1,12991,1,0.00071133,2.3067e-09,0,0.00071133,0.00012282,2.4287e+08,741.22,0,2.6631e+08,161.28,12990,12054,1,12054,1,2.8295e-05,-1.0721e-09,0,0.00035416,-5.1427e-06,1.0228e+07,-342.95,0,1.3345e+08,10.389,12053,11097,1,11097,1,-0.00065474,-6.544e-09,0,2.9979e-06,-0.00013314,-2.6631e+08,-2103.4,0,8.7636e+05,-553.14,11096,11599,1,11599,1,-0.00032586,-2.945e-09,0,0.00017708,-7.1497e-05,-1.3254e+08,-937.28,0,6.6853e+07,-33.967,11598,12509,1,12509,1,0.00038245,1.6786e-10,0,0.00053124,6.1179e-05,1.3345e+08,50.551,0,1.9839e+08,49.409,12508,527.81,0,527.81,0,0.00040879,1.9904e-09,0,0.00020559,7.6585e-05,1.5296e+08,633.67,0,7.6155e+07,92.976,527.81,1
1820,2.5,12054,1,12054,1,2.8414e-05,-7.5702e-10,0,0.00035579,-5.176e-06,59.678,-241.24,0,1.3315e+08,4.489,12053,12991,1,12991,1,0.00071418,4.2858e-09,0,0.00071418,0.00012331,2.4381e+08,1377,0,2.6737e+08,469.8,12990,12054,1,12054,1,2.8414e-05,-4.0191e-10,0,0.00035558,-5.1643e-06,1.0272e+07,-127.21,0,1.3399e+08,5.1508,12053,11097,1,11097,1,-0.00065735,-5.2933e-09,0,3.0159e-06,-0.00013367,-2.6737e+08,-1701.3,0,8.822e+05,-509.89,11096,11599,1,11599,1,-0.00032716,-2.0528e-09,0,0.00017779,-7.1785e-05,-1.3306e+08,-660.37,0,6.712e+07,-40.313,11598,12509,1,12509,1,0.00038399,4.0852e-10,0,0.00053336,6.1423e-05,1.3399e+08,129.49,0,1.9919e+08,60.595,12508,527.81,0,527.81,0,0.00041043,1.8884e-09,0,0.00020641,7.6892e-05,1.5357e+08,601.15,0,7.6457e+07,80.387,527.81,1
1820,2.51,12054,1,12054,1,2.8534e-05,-1.613e-09,0,0.00035722,-5.1978e-06,-10.71,-513.08,0,1.3368e+08,-2.492,12053,12991,1,12991,1,0.00071706,2.7932e-09,0,0.00071706,0.00012381,2.4477e+08,897.51,0,2.6844e+08,170.59,12990,12054,1,12054,1,2.8534e-05,-1.0283e-09,0,0.00035701,-5.1862e-06,1.0315e+07,-330.91,0,1.3453e+08,-1.2211,12053,11097,1,11097,1,-0.00065999,-7.0885e-09,0,3.0335e-06,-0.00013421,-2.6844e+08,-2278.3,0,8.8791e+05,-578.03,11096,11599,1,11599,1,-0.00032847,-3.3397e-09,0,0.0001785,-7.2074e-05,-1.336e+08,-1054.8,0,6.739e+07,-45.688,11598,12509,1,12509,1,0.00038554,1.7219e-10,0,0.00053551,6.1669e-05,1.3453e+08,51.779,0,1.9999e+08,59.446,12508,527.81,0,527.81,0,0.00041208,2.2525e-09,0,0.00020724,7.7201e-05,1.5419e+08,717.27,0,7.6761e+07,96.013,527.81,1
1820,2.52,12054,1,12054,1,2.8654e-05,-2.1328e-09,0,0.00035864,-5.2196e-06,3.1052,-678.11,0,1.3422e+08,-13.528,12053,12991,1,12991,1,0.00071993,1.2821e-09,0,0.00071993,0.0001243,2.4572e+08,439.12,0,2.6951e+08,193.16,12990,12054,1,12054,1,2.8653e-05,-2.2337e-09,0,0.00035843,-5.2079e-06,1.0358e+07,-687.94,0,1.3507e+08,6.7361,12053,11097,1,11097,1,-0.00066262,-6.1664e-09,0,3.0515e-06,-0.00013475,-2.6951e+08,-1981.7,0,8.9372e+05,-494.62,11096,11599,1,11599,1,-0.00032977,-3.6438e-09,0,0.00017921,-7.2362e-05,-1.3413e+08,-1159.4,0,6.7658e+07,-45.953,11598,12509,1,12509,1,0.00038708,-5.8271e-10,0,0.00053764,6.1914e-05,1.3507e+08,-177.25,0,2.0079e+08,43.075,12508,527.81,0,527.81,0,0.00041373,1.8193e-09,0,0.00020807,7.7509e-05,1.548e+08,578.29,0,7.7064e+07,87.406,527.81,1
1820,2.53,12054,1,12054,1,2.8774e-05,-1.2576e-09,0,0.00036007,-5.2414e-06,-10.791,-400.4,0,1.3475e+08,2.4412,12053,12991,1,12991,1,0.0007228,1.1239e-09,0,0.0007228,0.0001248,2.4666e+08,360.61,0,2.7058e+08,216.99,12990,12054,1,12054,1,2.8773e-05,-8.1988e-10,0,0.00035986,-5.2297e-06,1.0402e+07,-261.1,0,1.3561e+08,0.13976,12053,11097,1,11097,1,-0.00066525,-4.9895e-09,0,3.0694e-06,-0.00013529,-2.7058e+08,-1603.8,0,8.9954e+05,-491.18,11096,11599,1,11599,1,-0.00033108,-2.2504e-09,0,0.00017993,-7.2652e-05,-1.3466e+08,-720.03,0,6.7928e+07,-25.495,11598,12509,1,12509,1,0.00038863,-2.088e-11,0,0.00053979,6.2159e-05,1.3561e+08,-6.4651,0,2.0159e+08,34.678,12508,527.81,0,527.81,0,0.00041537,1.4754e-09,0,0.0002089,7.7818e-05,1.5541e+08,470.21,0,7.7368e+07,56.76,527.81,1
1820,2.54,12054,1,12054,1,2.8893e-05,-1.2916e-09,0,0.0003615,-5.2633e-06,51.262,-410.92,0,1.3528e+08,-9.0197,12053,12991,1,12991,1,0.00072566,1.5547e-09,0,0.00072566,0.00012529,2.4761e+08,499.41,0,2.7165e+08,77.609,12990,12054,1,12054,1,2.8893e-05,-1.1461e-09,0,0.00036128,-5.2516e-06,1.0445e+07,-359.27,0,1.3615e+08,8.0315,12053,11097,1,11097,1,-0.00066787,-4.6758e-09,0,3.0876e-06,-0.00013582,-2.7165e+08,-1502.8,0,9.054e+05,-537.06,11096,11599,1,11599,1,-0.00033239,-2.2237e-09,0,0.00018064,-7.294e-05,-1.3519e+08,-715.25,0,6.8197e+07,-19.475,11598,12509,1,12509,1,0.00039017,-2.0355e-10,0,0.00054192,6.2404e-05,1.3615e+08,-67.159,0,2.0238e+08,28.948,12508,527.81,0,527.81,0,0.00041702,1.2644e-09,0,0.00020973,7.8126e-05,1.5602e+08,402.8,0,7.7671e+07,77.915,527.81,1
1820,2.55,12054,1,12054,1,2.9013e-05,-1.3312e-09,0,0.00036293,-5.2851e-06,-25.24,-423.46,0,1.3581e+08,-16.401,12053,12991,1,12991,1,0.00072853,7.3461e-10,0,0.00072853,0.00012578,2.4856e+08,251.6,0,2.7272e+08,517.56,12990,12054,1,12054,1,2.9013e-05,-1.1966e-09,0,0.00036271,-5.274e-06,1.0489e+07,-380.69,0,1.3669e+08,2.9374,12053,11097,1,11097,1,-0.00067051,-5.1237e-09,0,3.1055e-06,-0.00013636,-2.7272e+08,-1646.4,0,9.1107e+05,-1052.2,11096,11599,1,11599,1,-0.00033369,-2.1305e-09,0,0.00018135,-7.3229e-05,-1.3572e+08,-678.54,0,6.8466e+07,-28.088,11598,12509,1,12509,1,0.00039172,-3.7379e-10,0,0.00054406,6.2649e-05,1.3669e+08,-120.93,0,2.0318e+08,26.743,12508,527.81,0,527.81,0,0.00041866,1.1956e-09,0,0.00021055,7.8434e-05,1.5664e+08,380.78,0,7.7975e+07,127.92,527.81,1
1820,2.56,12054,1,12054,1,2.9133e-05,-1.7967e-09,0,0.00036435,-5.3069e-06,19.396,-571.48,0,1.3634e+08,0.023548,12053,12991,1,12991,1,0.0007314,1.8795e-09,0,0.0007314,0.00012627,2.495e+08,603.74,0,2.7379e+08,157.38,12990,12054,1,12054,1,2.9132e-05,-1.4701e-09,0,0.00036413,-5.2951e-06,1.0532e+07,-459.4,0,1.3723e+08,11.041,12053,11097,1,11097,1,-0.00067313,-6.3485e-09,0,3.1235e-06,-0.0001369,-2.7379e+08,-2040.6,0,9.1702e+05,-626.53,11096,11599,1,11599,1,-0.00033499,-3.3038e-09,0,0.00018206,-7.3517e-05,-1.3625e+08,-1046.8,0,6.8734e+07,-31.626,11598,12509,1,12509,1,0.00039326,-1.6049e-10,0,0.00054619,6.2893e-05,1.3723e+08,-49.373,0,2.0398e+08,58.826,12508,527.81,0,527.81,0,0.0004203,1.8756e-09,0,0.00021138,7.8741e-05,1.5724e+08,597.02,0,7.8277e+07,96.586,527.81,1
1820,2.57,12054,1,12054,1,2.9256e-05,-1.561e-09,0,0.00036578,-5.3294e-06,22.024,-496.33,0,1.3687e+08,2.2913,12053,12991,1,12991,1,0.00073428,1.5483e-09,0,0.00073428,0.00012677,2.5045e+08,497.39,0,2.7486e+08,126.17,12990,12054,1,12054,1,2.9256e-05,-1.3145e-09,0,0.00036556,-5.3175e-06,1.0577e+07,-418.37,0,1.3777e+08,6.7781,12053,11097,1,11097,1,-0.00067577,-5.607e-09,0,3.1442e-06,-0.00013743,-2.7486e+08,-1802.2,0,9.2386e+05,-564.97,11096,11599,1,11599,1,-0.0003363,-2.7257e-09,0,0.00018278,-7.3808e-05,-1.3678e+08,-869.89,0,6.9004e+07,-20.695,11598,12509,1,12509,1,0.00039482,-1.692e-10,0,0.00054834,6.314e-05,1.3777e+08,-51.192,0,2.0478e+08,42.293,12508,527.81,0,527.81,0,0.00042196,1.5607e-09,0,0.00021221,7.9051e-05,1.5786e+08,496.38,0,7.8581e+07,79.207,527.81,1
1820,2.58,12054,1,12054,1,2.9384e-05,-2.1382e-09,0,0.00036723,-5.3527e-06,11.831,-679.43,0,1.3741e+08,1.9511,12053,12991,1,12991,1,0.00073719,7.3669e-10,0,0.00073719,0.00012727,2.5138e+08,252.31,0,2.7594e+08,111.74,12990,12054,1,12054,1,2.9383e-05,-2.3526e-09,0,0.000367,-5.3409e-06,1.0623e+07,-746.41,0,1.3832e+08,6.1385,12053,11097,1,11097,1,-0.00067842,-5.4978e-09,0,3.1694e-06,-0.00013798,-2.7594e+08,-1767.1,0,9.3245e+05,-607.27,11096,11599,1,11599,1,-0.00033762,-3.1639e-09,0,0.0001835,-7.4101e-05,-1.3732e+08,-989.11,0,6.9276e+07,-16.645,11598,12509,1,12509,1,0.00039638,-1.0703e-09,0,0.0005505,6.3386e-05,1.3832e+08,-329.57,0,2.0558e+08,41.98,12508,527.81,0,527.81,0,0.00042362,1.3996e-09,0,0.00021305,7.9363e-05,1.5847e+08,444.27,0,7.8884e+07,86.858,527.81,1
1820,2.59,12054,1,12054,1,2.9511e-05,2.9981e-10,0,0.00036865,-5.3759e-06,-8.7212,94.711,0,1.3794e+08,-12.999,12053,12991,1,12991,1,0.00074004,1.4529e-09,0,0.00074004,0.00012775,2.523e+08,466.98,0,2.7699e+08,31.561,12990,12054,1,12054,1,2.9511e-05,3.171e-10,0,0.00036842,-5.364e-06,1.0669e+07,100.51,0,1.3886e+08,-3.1201,12053,11097,1,11097,1,-0.00068102,-6.3568e-10,0,3.1947e-06,-0.00013851,-2.7699e+08,-204.38,0,9.4108e+05,-581.95,11096,11599,1,11599,1,-0.00033891,1.4529e-10,0,0.00018421,-7.4391e-05,-1.3784e+08,47.82,0,6.9544e+07,-7.0309,11598,12509,1,12509,1,0.00039793,4.5539e-10,0,0.00055263,6.3629e-05,1.3886e+08,144.51,0,2.0637e+08,0.45665,12508,527.81,0,527.81,0,0.00042526,2.1764e-10,0,0.00021387,7.967e-05,1.5908e+08,68.913,0,7.9183e+07,70.215,527.81,1
1820,2.6,12054,1,12054,1,2.9638e-05,1.4691e-09,0,0.00037008,-5.3992e-06,-26.792,466.91,0,1.3847e+08,-19.326,12053,12991,1,12991,1,0.00074294,3.3235e-09,0,0.00074294,0.00012825,2.5323e+08,1067.9,0,2.7807e+08,81.11,12990,12054,1,12054,1,2.9638e-05,1.6126e-09,0,0.00036985,-5.3871e-06,1.0715e+07,520.64,0,1.394e+08,-9.3722,12053,11097,1,11097,1,-0.00068366,-3.38e-10,0,3.2199e-06,-0.00013905,-2.7807e+08,-115.76,0,9.497e+05,-619.63,11096,11599,1,11599,1,-0.00034022,7.8637e-10,0,0.00018493,-7.4682e-05,-1.3837e+08,254.11,0,6.9813e+07,-26.695,11598,12509,1,12509,1,0.00039949,2.2053e-09,0,0.00055478,6.3874e-05,1.394e+08,708.07,0,2.0717e+08,6.8957,12508,527.81,0,527.81,0,0.00042692,8.8209e-10,0,0.00021471,7.998e-05,1.5969e+08,280.05,0,7.9484e+07,80.314,527.81,1
1820,2.61,12054,1,12054,1,2.9764e-05,-1.6859e-09,0,0.00037149,-5.4221e-06,27.794,-535.18,0,1.3899e+08,9.7679,12053,12991,1,12991,1,0.00074579,2.1866e-09,0,0.00074579,0.00012874,2.5415e+08,702.34,0,2.7913e+08,172.18,12990,12054,1,12054,1,2.9764e-05,-1.2727e-09,0,0.00037126,-5.4101e-06,1.0761e+07,-401.83,0,1.3994e+08,9.1904,12053,11097,1,11097,1,-0.00068626,-6.6891e-09,0,3.245e-06,-0.00013959,-2.7913e+08,-2149.7,0,9.5837e+05,-647.52,11096,11599,1,11599,1,-0.0003415,-3.0491e-09,0,0.00018563,-7.497e-05,-1.389e+08,-975.9,0,7.0079e+07,-17.291,11598,12509,1,12509,1,0.00040103,-6.7629e-11,0,0.0005569,6.4115e-05,1.3994e+08,-19.985,0,2.0795e+08,51.436,12508,527.81,0,527.81,0,0.00042854,1.9234e-09,0,0.00021552,8.0284e-05,1.6029e+08,610.75,0,7.978e+07,92.07,527.81,1
1820,2.62,12054,1,12054,1,2.9891e-05,1.2218e-09,0,0.00037292,-5.4453e-06,49.022,387.27,0,1.3952e+08,-12.086,12053,12991,1,12991,1,0.00074866,6.0053e-09,0,0.00074866,0.00012923,2.5507e+08,1930.1,0,2.8019e+08,175.58,12990,12054,1,12054,1,2.9891e-05,7.3854e-10,0,0.00037269,-5.4334e-06,1.0807e+07,235.34,0,1.4048e+08,-0.76816,12053,11097,1,11097,1,-0.00068888,-1.85e-09,0,3.2706e-06,-0.00014012,-2.8019e+08,-594.74,0,9.6705e+05,-728.48,11096,11599,1,11599,1,-0.0003428,-4.1706e-11,0,0.00018634,-7.526e-05,-1.3942e+08,-13.788,0,7.0348e+07,-41.216,11598,12509,1,12509,1,0.00040258,2.2474e-09,0,0.00055903,6.4359e-05,1.4048e+08,710.09,0,2.0875e+08,30.76,12508,527.81,0,527.81,0,0.00043018,1.5573e-09,0,0.00021635,8.0592e-05,1.609e+08,493.86,0,8.0079e+07,91.92,527.81,1
1820,2.63,12054,1,12054,1,3.002e-05,-1.2654e-09,0,0.00037436,-5.4687e-06,21.515,-401.8,0,1.4005e+08,-4.8981,12053,12991,1,12991,1,0.00075155,9.951e-10,0,0.00075155,0.00012972,2.56e+08,319.69,0,2.8126e+08,78.345,12990,12054,1,12054,1,3.0019e-05,-1.0657e-09,0,0.00037412,-5.4567e-06,1.0854e+07,-341.56,0,1.4102e+08,0.14131,12053,11097,1,11097,1,-0.00069151,-4.491e-09,0,3.2964e-06,-0.00014067,-2.8126e+08,-1443.3,0,9.7587e+05,-661.64,11096,11599,1,11599,1,-0.0003441,-2.0342e-09,0,0.00018706,-7.5552e-05,-1.3995e+08,-642.23,0,7.0618e+07,-14.836,11598,12509,1,12509,1,0.00040414,-3.2301e-10,0,0.00056118,6.4604e-05,1.4102e+08,-103.2,0,2.0955e+08,23.76,12508,527.81,0,527.81,0,0.00043184,1.0975e-09,0,0.00021718,8.0903e-05,1.6151e+08,349,0,8.0381e+07,77.76,527.81,1
1820,2.64,12054,1,12054,1,3.0147e-05,3.0661e-10,0,0.00037579,-5.492e-06,-10.179,97.406,0,1.4058e+08,-0.88249,12053,12991,1,12991,1,0.00075443,3.2049e-09,0,0.00075443,0.00013021,2.5692e+08,1030,0,2.8233e+08,77.739,12990,12054,1,12054,1,3.0147e-05,2.1427e-10,0,0.00037555,-5.4799e-06,1.09e+07,70.16,0,1.4157e+08,5.492,12053,11097,1,11097,1,-0.00069413,-2.4159e-09,0,3.3223e-06,-0.0001412,-2.8233e+08,-776.39,0,9.8474e+05,-675.54,11096,11599,1,11599,1,-0.0003454,-2.3436e-10,0,0.00018777,-7.5842e-05,-1.4048e+08,-74.538,0,7.0887e+07,-11.782,11598,12509,1,12509,1,0.0004057,9.3218e-10,0,0.00056332,6.4848e-05,1.4157e+08,294.71,0,2.1034e+08,29.926,12508,527.81,0,527.81,0,0.00043349,9.3102e-10,0,0.00021801,8.1211e-05,1.6212e+08,296.33,0,8.068e+07,81.899,527.81,1
1820,2.65,12054,1,12054,1,3.0276e-05,-1.249e-09,0,0.00037718,-5.5154e-06,-6.8811,-396.15,0,1.411e+08,12.292,12053,12991,1,12991,1,0.00075727,8.0516e-09,0,0.00075727,0.0001307,2.5783e+08,2586.3,0,2.8338e+08,292.85,12990,12054,1,12054,1,3.0276e-05,-5.584e-10,0,0.00037695,-5.5034e-06,1.0947e+07,-177.53,0,1.421e+08,1.2518,12053,11097,1,11097,1,-0.00069672,-9.9567e-09,0,3.3506e-06,-0.00014173,-2.8338e+08,-3199.4,0,9.9475e+05,-791.86,11096,11599,1,11599,1,-0.00034667,-3.8445e-09,0,0.00018847,-7.6128e-05,-1.41e+08,-1225.3,0,7.1151e+07,-69.712,11598,12509,1,12509,1,0.00040722,1.1155e-09,0,0.00056542,6.5086e-05,1.421e+08,347.49,0,2.1111e+08,108.54,12508,527.81,0,527.81,0,0.0004351,3.7164e-09,0,0.00021882,8.1513e-05,1.6271e+08,1184.1,0,8.0972e+07,136.82,527.81,1
1820,2.66,12054,1,12054,1,3.0415e-05,-4.9368e-10,0,0.00037864,-5.5409e-06,-7.5639,-157.03,0,1.4163e+08,-5.8299,12053,12991,1,12991,1,0.0007602,5.5547e-09,0,0.0007602,0.0001312,2.5874e+08,1784.3,0,2.8446e+08,182.3,12990,12054,1,12054,1,3.0415e-05,-2.4968e-10,0,0.0003784,-5.5288e-06,1.0998e+07,-76.256,0,1.4265e+08,-2.2647,12053,11097,1,11097,1,-0.00069936,-5.4559e-09,0,3.3863e-06,-0.00014228,-2.8446e+08,-1753.2,0,1.0073e+06,-798.52,11096,11599,1,11599,1,-0.00034798,-1.9925e-09,0,0.0001892,-7.6425e-05,-1.4153e+08,-619.14,0,7.1424e+07,-44.725,11598,12509,1,12509,1,0.00040881,7.0125e-10,0,0.0005676,6.5332e-05,1.4265e+08,216.68,0,2.1191e+08,57.306,12508,527.81,0,527.81,0,0.00043678,2.0434e-09,0,0.00021967,8.1827e-05,1.6333e+08,652.62,0,8.1273e+07,122.35,527.81,1
1820,2.67,12054,1,12054,1,3.0554e-05,-1.1393e-09,0,0.00038007,-5.5662e-06,2.7686,-362.26,0,1.4216e+08,-24.341,12053,12991,1,12991,1,0.00076309,1.6329e-09,0,0.00076309,0.00013169,2.5964e+08,524.58,0,2.8552e+08,86.456,12990,12054,1,12054,1,3.0554e-05,-8.1118e-10,0,0.00037983,-5.5541e-06,1.1048e+07,-255.72,0,1.432e+08,-12.182,12053,11097,1,11097,1,-0.00070198,-5.389e-09,0,3.4231e-06,-0.00014282,-2.8552e+08,-1731.7,0,1.0204e+06,-800.4,11096,11599,1,11599,1,-0.00034927,-1.9635e-09,0,0.00018991,-7.6718e-05,-1.4206e+08,-625.12,0,7.1693e+07,-34.425,11598,12509,1,12509,1,0.00041038,-5.7488e-11,0,0.00056974,6.5574e-05,1.432e+08,-17.913,0,2.1269e+08,15.932,12508,527.81,0,527.81,0,0.00043842,1.2998e-09,0,0.00022049,8.2136e-05,1.6393e+08,414.44,0,8.1567e+07,111.92,527.81,1
1820,2.68,12054,1,12054,1,3.0692e-05,-3.3415e-09,0,0.00038149,-5.5914e-06,-23.241,-1061.7,0,1.4268e+08,-16.031,12053,12991,1,12991,1,0.000766,2.2137e-09,0,0.000766,0.00013218,2.6055e+08,758.18,0,2.8659e+08,306.61,12990,12054,1,12054,1,3.0691e-05,-2.9647e-09,0,0.00038125,-5.5794e-06,1.1098e+07,-948.67,0,1.4374e+08,-7.6246,12053,11097,1,11097,1,-0.00070461,-1.1088e-08,0,3.459e-06,-0.00014337,-2.8659e+08,-3563.2,0,1.0331e+06,-1030.8,11096,11599,1,11599,1,-0.00035056,-5.5914e-09,0,0.00019062,-7.701e-05,-1.4258e+08,-1767.7,0,7.1961e+07,-72.67,11598,12509,1,12509,1,0.00041194,-8.2857e-10,0,0.00057187,6.5815e-05,1.4374e+08,-261.8,0,2.1347e+08,57.939,12508,527.81,0,527.81,0,0.00044007,3.0282e-09,0,0.00022132,8.2443e-05,1.6453e+08,962.37,0,8.1861e+07,150.28,527.81,1
1820,2.69,12054,1,12054,1,3.0831e-05,-1.8039e-09,0,0.00038294,-5.6169e-06,-34.554,-574.35,0,1.4321e+08,-19.707,12053,12991,1,12991,1,0.0007689,2.3377e-09,0,0.0007689,0.00013267,2.6145e+08,750.71,0,2.8766e+08,190.55,12990,12054,1,12054,1,3.0831e-05,-1.5488e-09,0,0.00038269,-5.6048e-06,1.1149e+07,-501.24,0,1.443e+08,-8.9187,12053,11097,1,11097,1,-0.00070723,-6.899e-09,0,3.4959e-06,-0.00014391,-2.8766e+08,-2216.6,0,1.0462e+06,-950.78,11096,11599,1,11599,1,-0.00035186,-3.2984e-09,0,0.00019134,-7.7305e-05,-1.4311e+08,-1040,0,7.2232e+07,-56.398,11598,12509,1,12509,1,0.00041352,-1.3488e-10,0,0.00057403,6.606e-05,1.443e+08,-42.118,0,2.1426e+08,36.056,12508,527.81,0,527.81,0,0.00044173,1.9377e-09,0,0.00022216,8.2754e-05,1.6514e+08,616.9,0,8.2159e+07,122.97,527.81,1
1820,2.7,12054,1,12054,1,3.0969e-05,-2.8217e-09,0,0.00038435,-5.6421e-06,-81.099,-896.99,0,1.4373e+08,-8.0721,12053,12991,1,12991,1,0.00077178,2.1667e-09,0,0.00077178,0.00013316,2.6235e+08,696.03,0,2.8872e+08,289.76,12990,12054,1,12054,1,3.0969e-05,-2.325e-09,0,0.00038411,-5.63e-06,1.1199e+07,-761.85,0,1.4484e+08,-2.0717,12053,11097,1,11097,1,-0.00070984,-9.686e-09,0,3.5326e-06,-0.00014445,-2.8872e+08,-3112,0,1.0593e+06,-1007.7,11096,11599,1,11599,1,-0.00035314,-5.0418e-09,0,0.00019205,-7.7596e-05,-1.4363e+08,-1589.8,0,7.2499e+07,-68.962,11598,12509,1,12509,1,0.00041507,-3.3088e-10,0,0.00057616,6.6299e-05,1.4484e+08,-106.85,0,2.1504e+08,59.854,12508,527.81,0,527.81,0,0.00044336,2.8911e-09,0,0.00022298,8.306e-05,1.6573e+08,919.28,0,8.2451e+07,125.63,527.81,1
1820,2.71,12054,1,12054,1,3.1109e-05,-1.1436e-09,0,0.0003858,-5.6676e-06,-11.671,-364.46,0,1.4426e+08,21.836,12053,12991,1,12991,1,0.00077468,4.679e-09,0,0.00077468,0.00013365,2.6325e+08,1501.8,0,2.8978e+08,1055.8,12990,12054,1,12054,1,3.1109e-05,-7.2846e-10,0,0.00038554,-5.6546e-06,1.1251e+07,-229.55,0,1.4539e+08,2.0114,12053,11097,1,11097,1,-0.00071246,-6.5061e-09,0,3.5701e-06,-0.00014499,-2.8978e+08,-2090.7,0,1.0728e+06,-316.29,11096,11599,1,11599,1,-0.00035444,-2.7701e-09,0,0.00019277,-7.7891e-05,-1.4416e+08,-889.55,0,7.277e+07,-39.355,11598,12509,1,12509,1,0.00041665,3.0819e-10,0,0.00057832,6.6544e-05,1.4539e+08,92.514,0,2.1583e+08,69.712,12508,527.81,0,527.81,0,0.00044502,2.1713e-09,0,0.00022382,8.3372e-05,1.6634e+08,692.54,0,8.2748e+07,112.41,527.81,1
1820,2.72,12054,1,12054,1,3.1249e-05,-2.5121e-09,0,0.00038724,-5.6932e-06,-82.936,-798.66,0,1.4479e+08,-11.969,12053,12991,1,12991,1,0.00077759,1.3857e-09,0,0.00077759,0.00013415,2.6415e+08,474.6,0,2.9085e+08,186.61,12990,12054,1,12054,1,3.1249e-05,-2.6864e-09,0,0.00038698,-5.6812e-06,1.1301e+07,-861.53,0,1.4594e+08,-0.16021,12053,11097,1,11097,1,-0.00071509,-6.8585e-09,0,3.6074e-06,-0.00014553,-2.9085e+08,-2204.9,0,1.0859e+06,-1069.2,11096,11599,1,11599,1,-0.00035573,-3.912e-09,0,0.00019349,-7.8185e-05,-1.4468e+08,-1242.1,0,7.304e+07,-55.178,11598,12509,1,12509,1,0.00041823,-1.1794e-09,0,0.00058047,6.6786e-05,1.4594e+08,-381.54,0,2.1661e+08,35.548,12508,527.81,0,527.81,0,0.00044668,1.7581e-09,0,0.00022465,8.3682e-05,1.6695e+08,558.36,0,8.3045e+07,113.13,527.81,1
1820,2.73,12054,1,12054,1,3.1389e-05,-5.4296e-10,0,0.00038866,-5.7187e-06,-23.314,-173.07,0,1.4531e+08,2.2573,12053,12991,1,12991,1,0.00078047,7.0167e-09,0,0.00078047,0.00013463,2.6504e+08,2253.4,0,2.9191e+08,229.48,12990,12054,1,12054,1,3.1389e-05,-2.0598e-10,0,0.00038841,-5.7066e-06,1.1352e+07,-67.565,0,1.4648e+08,-0.84104,12053,11097,1,11097,1,-0.00071769,-6.8916e-09,0,3.6454e-06,-0.00014607,-2.9191e+08,-2213.9,0,1.0996e+06,-1118.5,11096,11599,1,11599,1,-0.00035702,-2.3534e-09,0,0.0001942,-7.8478e-05,-1.4521e+08,-750.08,0,7.3308e+07,-48.161,11598,12509,1,12509,1,0.0004198,9.5676e-10,0,0.00058261,6.7028e-05,1.4648e+08,301.04,0,2.1739e+08,80.691,12508,527.81,0,527.81,0,0.00044833,2.5305e-09,0,0.00022548,8.399e-05,1.6755e+08,806.79,0,8.3338e+07,142.69,527.81,1
1820,2.74,12054,1,12054,1,3.1535e-05,-2.3807e-09,0,0.00039011,-5.7455e-06,298.4,-757.96,0,1.4584e+08,-23.651,12053,12991,1,12991,1,0.00078341,4.3866e-09,0,0.00078341,0.00013513,2.6595e+08,1408.7,0,2.9299e+08,191.23,12990,12054,1,12054,1,3.1535e-05,-2.0716e-09,0,0.00038985,-5.7334e-06,1.1406e+07,-658.98,0,1.4704e+08,-3.3195,12053,11097,1,11097,1,-0.00072034,-9.1838e-09,0,3.6889e-06,-0.00014662,-2.9299e+08,-2950.8,0,1.1152e+06,-1179.7,11096,11599,1,11599,1,-0.00035831,-4.6863e-09,0,0.00019492,-7.8775e-05,-1.4573e+08,-1493.7,0,7.358e+07,-74.198,11598,12509,1,12509,1,0.00042138,-5.5078e-11,0,0.00058477,6.7271e-05,1.4704e+08,-16.366,0,2.1818e+08,67.419,12508,527.81,0,527.81,0,0.00044999,2.7386e-09,0,0.00022631,8.4302e-05,1.6815e+08,873.79,0,8.3634e+07,164.6,527.81,1
1820,2.75,12054,1,12054,1,3.1688e-05,-8.9594e-10,0,0.00039154,-5.7734e-06,100.69,-286.62,0,1.4636e+08,-8.6301,12053,12991,1,12991,1,0.00078631,4.7778e-09,0,0.00078631,0.00013562,2.6681e+08,1534.3,0,2.9404e+08,116.55,12990,12054,1,12054,1,3.1688e-05,-5.3851e-10,0,0.00039128,-5.7612e-06,1.1461e+07,-169.84,0,1.4759e+08,-3.3823,12053,11097,1,11097,1,-0.00072293,-5.9953e-09,0,3.7393e-06,-0.00014716,-2.9404e+08,-1925.9,0,1.1336e+06,-1124.3,11096,11599,1,11599,1,-0.00035959,-2.1967e-09,0,0.00019564,-7.9071e-05,-1.4625e+08,-692.15,0,7.3849e+07,-38.187,11598,12509,1,12509,1,0.00042297,2.5411e-10,0,0.00058692,6.7511e-05,1.4759e+08,78.15,0,2.1895e+08,40.762,12508,527.81,0,527.81,0,0.00045164,1.783e-09,0,0.00022715,8.4611e-05,1.6875e+08,570.13,0,8.3923e+07,105.77,527.81,1
1820,2.76,12054,1,12054,1,3.1842e-05,-9.8569e-10,0,0.00039298,-5.8015e-06,156.19,-314.2,0,1.4688e+08,-9.2442,12053,12991,1,12991,1,0.00078923,5.5547e-09,0,0.00078923,0.00013611,2.6769e+08,1784.3,0,2.951e+08,125.53,12990,12054,1,12054,1,3.1842e-05,-6.2938e-10,0,0.00039271,-5.7894e-06,1.1518e+07,-196.82,0,1.4814e+08,-0.21842,12053,11097,1,11097,1,-0.00072554,-6.7231e-09,0,3.7909e-06,-0.00014771,-2.951e+08,-2159.6,0,1.1524e+06,-1202.8,11096,11599,1,11599,1,-0.00036087,-2.4744e-09,0,0.00019636,-7.9368e-05,-1.4677e+08,-783.69,0,7.4119e+07,-41.296,11598,12509,1,12509,1,0.00042455,3.0791e-10,0,0.00058907,6.7752e-05,1.4814e+08,95.225,0,2.1972e+08,45.11,12508,527.81,0,527.81,0,0.0004533,2.0509e-09,0,0.00022798,8.4921e-05,1.6935e+08,654.85,0,8.4213e+07,118.33,527.81,1
1820,2.77,12054,1,12054,1,3.1996e-05,-2.5947e-10,0,0.00039443,-5.8298e-06,6.4781,-83.25,0,1.4741e+08,-9.8984,12053,12991,1,12991,1,0.00079215,3.029e-09,0,0.00079215,0.0001366,2.6856e+08,972.82,0,2.9617e+08,65.654,12990,12054,1,12054,1,3.1996e-05,-9.3728e-11,0,0.00039415,-5.8176e-06,1.1574e+07,-30.413,0,1.487e+08,-1.9652,12053,11097,1,11097,1,-0.00072816,-3.7648e-09,0,3.8426e-06,-0.00014826,-2.9617e+08,-1209.4,0,1.1712e+06,-1208.6,11096,11599,1,11599,1,-0.00036216,-6.7247e-10,0,0.00019708,-7.9666e-05,-1.473e+08,-216.87,0,7.439e+07,-19.657,11598,12509,1,12509,1,0.00042615,1.5737e-10,0,0.00059123,6.7993e-05,1.487e+08,48.028,0,2.205e+08,14.596,12508,527.81,0,527.81,0,0.00045496,7.3232e-10,0,0.00022882,8.5233e-05,1.6995e+08,235.19,0,8.4505e+07,89.554,527.81,1
1820,2.78,12054,1,12054,1,3.2151e-05,-6.2785e-10,0,0.00039586,-5.8581e-06,82.475,-199.71,0,1.4793e+08,-3.6577,12053,12991,1,12991,1,0.00079508,4.1721e-09,0,0.00079508,0.00013709,2.6944e+08,1339.8,0,2.9723e+08,129.56,12990,12054,1,12054,1,3.2151e-05,-3.4176e-10,0,0.00039559,-5.8459e-06,1.1631e+07,-107.41,0,1.4926e+08,-2.3555,12053,11097,1,11097,1,-0.00073077,-3.7648e-09,0,3.8952e-06,-0.0001488,-2.9723e+08,-1165.6,0,1.1904e+06,-1264,11096,11599,1,11599,1,-0.00036343,-1.6712e-09,0,0.00019779,-7.9963e-05,-1.4782e+08,-530.09,0,7.4659e+07,-33.867,11598,12509,1,12509,1,0.00042774,3.0878e-10,0,0.00059338,6.8233e-05,1.4926e+08,97.532,0,2.2127e+08,35.068,12508,527.81,0,527.81,0,0.00045661,1.3882e-09,0,0.00022965,8.5542e-05,1.7054e+08,442.64,0,8.4794e+07,83.388,527.81,1
1820,2.79,12054,1,12054,1,3.2306e-05,-1.8066e-09,0,0.0003973,-5.8864e-06,80.971,-575.09,0,1.4845e+08,-12.17,12053,12991,1,12991,1,0.000798,2.4646e-09,0,0.000798,0.00013758,2.7031e+08,791.28,0,2.9829e+08,117.48,12990,12054,1,12054,1,3.2306e-05,-1.8089e-09,0,0.00039702,-5.8741e-06,1.1687e+07,-570.87,0,1.4981e+08,1.1308,12053,11097,1,11097,1,-0.00073339,-5.8049e-09,0,3.9476e-06,-0.00014935,-2.9829e+08,-1866.6,0,1.2095e+06,-1284.7,11096,11599,1,11599,1,-0.00036471,-3.1305e-09,0,0.00019851,-8.0259e-05,-1.4834e+08,-1000.1,0,7.4928e+07,-36.103,11598,12509,1,12509,1,0.00042932,-4.4176e-10,0,0.00059552,6.8473e-05,1.4981e+08,-142.22,0,2.2204e+08,26.888,12508,527.81,0,527.81,0,0.00045827,1.5588e-09,0,0.00023048,8.5852e-05,1.7114e+08,496.94,0,8.5083e+07,82.411,527.81,1
1820,2.8,12054,1,12054,1,3.2462e-05,-1.634e-09,0,0.00039874,-5.9149e-06,83.521,-520.52,0,1.4897e+08,-15.226,12053,12991,1,12991,1,0.00080093,1.6954e-09,0,0.00080093,0.00013807,2.7118e+08,544.25,0,2.9936e+08,115.78,12990,12054,1,12054,1,3.2462e-05,-1.7957e-09,0,0.00039846,-5.9027e-06,1.1744e+07,-563.98,0,1.5037e+08,5.6106,12053,11097,1,11097,1,-0.00073601,-3.9481e-09,0,4.0006e-06,-0.0001499,-2.9936e+08,-1227.5,0,1.2288e+06,-1373.1,11096,11599,1,11599,1,-0.00036599,-2.8294e-09,0,0.00019923,-8.0558e-05,-1.4886e+08,-911.68,0,7.5199e+07,-33.465,11598,12509,1,12509,1,0.00043092,-4.5103e-10,0,0.00059768,6.8714e-05,1.5037e+08,-143.18,0,2.2281e+08,28.859,12508,527.81,0,527.81,0,0.00045993,1.3327e-09,0,0.00023132,8.6163e-05,1.7174e+08,424.2,0,8.5373e+07,102.52,527.81,1
1820,2.81,12054,1,12054,1,3.2618e-05,-1.5295e-09,0,0.00040018,-5.9434e-06,20.014,-487.48,0,1.495e+08,2.4025,12053,12991,1,12991,1,0.00080386,1.3851e-09,0,0.00080386,0.00013856,2.7205e+08,448.75,0,3.0042e+08,83.727,12990,12054,1,12054,1,3.2618e-05,-1.4721e-09,0,0.00039989,-5.9308e-06,1.1801e+07,-465.64,0,1.5092e+08,7.4006,12053,11097,1,11097,1,-0.00073862,-4.1941e-09,0,4.054e-06,-0.00015044,-3.0042e+08,-1301,0,1.2484e+06,-1174.5,11096,11599,1,11599,1,-0.00036727,-2.4565e-09,0,0.00019995,-8.0855e-05,-1.4938e+08,-782.2,0,7.5469e+07,-17.081,11598,12509,1,12509,1,0.00043251,-5.1002e-10,0,0.00059984,6.8954e-05,1.5092e+08,-161.44,0,2.2359e+08,28.695,12508,527.81,0,527.81,0,0.00046159,1.2208e-09,0,0.00023215,8.6473e-05,1.7234e+08,389.65,0,8.5663e+07,48.842,527.81,1
1820,2.82,12054,1,12054,1,3.2777e-05,-7.3806e-10,0,0.00040165,-5.9724e-06,1.3338,-235.54,0,1.5003e+08,-7.7353,12053,12991,1,12991,1,0.00080682,2.3986e-10,0,0.00080682,0.00013906,2.7294e+08,80.929,0,3.015e+08,108.67,12990,12054,1,12054,1,3.2777e-05,-5.6547e-10,0,0.00040135,-5.959e-06,1.1859e+07,-181.71,0,1.5149e+08,-2.9048,12053,11097,1,11097,1,-0.00074127,-3.2396e-09,0,4.1084e-06,-0.000151,-3.015e+08,-1003,0,1.2684e+06,-469.78,11096,11599,1,11599,1,-0.00036858,-1.1461e-09,0,0.00020068,-8.1158e-05,-1.4991e+08,-366.33,0,7.5744e+07,-15.617,11598,12509,1,12509,1,0.00043413,-1.4526e-10,0,0.00060203,6.9198e-05,1.5149e+08,-45.311,0,2.2437e+08,5.9635,12508,527.81,0,527.81,0,0.00046328,7.2937e-10,0,0.000233,8.6789e-05,1.7294e+08,231.92,0,8.5958e+07,33.516,527.81,1
1820,2.83,12054,1,12054,1,3.2932e-05,-1.5326e-09,0,0.00040305,-6.0007e-06,64.847,-487.88,0,1.5054e+08,12.518,12053,12991,1,12991,1,0.00080969,2.4916e-09,0,0.00080969,0.00013954,2.7378e+08,777.58,0,3.0254e+08,124.99,12990,12054,1,12054,1,3.2931e-05,-1.3154e-09,0,0.00040275,-5.9867e-06,1.1916e+07,-420.86,0,1.5203e+08,9.4607,12053,11097,1,11097,1,-0.00074383,-5.5936e-09,0,4.1632e-06,-0.00015154,-3.0254e+08,-1731.7,0,1.2886e+06,-125.26,11096,11599,1,11599,1,-0.00036982,-3.0636e-09,0,0.00020138,-8.1449e-05,-1.5042e+08,-986.94,0,7.6007e+07,-26.054,11598,12509,1,12509,1,0.00043569,6.584e-11,0,0.00060413,6.9433e-05,1.5203e+08,21.688,0,2.2512e+08,56.016,12508,527.81,0,527.81,0,0.00046489,1.9144e-09,0,0.00023381,8.7092e-05,1.7352e+08,608.86,0,8.6238e+07,54.176,527.81,1
1820,2.84,12054,1,12054,1,3.3095e-05,-2.3518e-09,0,0.00040449,-6.0305e-06,16.466,-748.65,0,1.5105e+08,18.771,12053,12991,1,12991,1,0.00081262,3.2894e-09,0,0.00081262,0.00014003,2.7464e+08,1030.5,0,3.036e+08,224.99,12990,12054,1,12054,1,3.3094e-05,-1.8239e-09,0,0.00040419,-6.0164e-06,1.1975e+07,-589.33,0,1.5258e+08,14.191,12053,11097,1,11097,1,-0.00074643,-8.9952e-09,0,4.2239e-06,-0.00015208,-3.036e+08,-2786,0,1.3109e+06,-231.95,11096,11599,1,11599,1,-0.00037109,-4.3418e-09,0,0.00020209,-8.1747e-05,-1.5093e+08,-1377.2,0,7.6276e+07,-33.971,11598,12509,1,12509,1,0.00043728,-1.5289e-11,0,0.00060628,6.9671e-05,1.5258e+08,-5.055,0,2.2589e+08,84.319,12508,527.81,0,527.81,0,0.00046654,2.8469e-09,0,0.00023465,8.7401e-05,1.7411e+08,906.27,0,8.6524e+07,89.133,527.81,1
1820,2.85,12054,1,12054,1,3.3267e-05,-1.8736e-09,0,0.00040593,-6.0621e-06,-47.589,-597.33,0,1.5157e+08,15.435,12053,12991,1,12991,1,0.00081558,4.1377e-09,0,0.00081558,0.00014051,2.7549e+08,1305.5,0,3.0466e+08,252.51,12990,12054,1,12054,1,3.3267e-05,-1.197e-09,0,0.00040563,-6.048e-06,1.2039e+07,-374.6,0,1.5314e+08,5.9089,12053,11097,1,11097,1,-0.00074904,-8.9041e-09,0,4.2937e-06,-0.00015264,-3.0466e+08,-2761,0,1.3367e+06,-203.67,11096,11599,1,11599,1,-0.00037236,-3.9605e-09,0,0.00020281,-8.2049e-05,-1.5145e+08,-1256.4,0,7.6547e+07,-50.324,11598,12509,1,12509,1,0.0004389,3.4205e-10,0,0.00060844,6.9909e-05,1.5314e+08,102.99,0,2.2665e+08,79.429,12508,527.81,0,527.81,0,0.0004682,2.9981e-09,0,0.00023548,8.7713e-05,1.7471e+08,955.49,0,8.6808e+07,94.12,527.81,1
1820,2.86,12054,1,12054,1,3.3443e-05,-5.5846e-10,0,0.00040739,-6.0942e-06,-83.387,-179.13,0,1.5209e+08,-1.9253,12053,12991,1,12991,1,0.00081854,3.5044e-09,0,0.00081854,0.000141,2.7634e+08,1129.7,0,3.0572e+08,132.14,12990,12054,1,12054,1,3.3443e-05,-3.5738e-10,0,0.00040708,-6.0816e-06,1.2103e+07,-111.75,0,1.5371e+08,2.9306,12053,11097,1,11097,1,-0.00075165,-4.7795e-09,0,4.3648e-06,-0.00015319,-3.0572e+08,-1540.4,0,1.3629e+06,-1456.1,11096,11599,1,11599,1,-0.00037364,-1.1145e-09,0,0.00020354,-8.2354e-05,-1.5197e+08,-355.79,0,7.682e+07,-16.79,11598,12509,1,12509,1,0.00044053,1.1742e-10,0,0.00061063,7.015e-05,1.5371e+08,35.113,0,2.2742e+08,25.915,12508,527.81,0,527.81,0,0.00046989,9.1593e-10,0,0.00023633,8.8027e-05,1.753e+08,294.32,0,8.7096e+07,60.6,527.81,1
1820,2.87,12054,1,12054,1,3.3617e-05,-1.7239e-09,0,0.00040882,-6.126e-06,-15.417,-548.21,0,1.5261e+08,16.264,12053,12991,1,12991,1,0.00082148,2.5391e-09,0,0.00082148,0.00014149,2.7717e+08,798.14,0,3.0678e+08,181,12990,12054,1,12054,1,3.3616e-05,-1.323e-09,0,0.00040851,-6.1117e-06,1.2167e+07,-420.95,0,1.5426e+08,13.627,12053,11097,1,11097,1,-0.00075424,-6.6503e-09,0,4.4373e-06,-0.00015374,-3.0678e+08,-2061,0,1.39e+06,-133.83,11096,11599,1,11599,1,-0.00037489,-3.3628e-09,0,0.00020425,-8.2653e-05,-1.5248e+08,-1066.3,0,7.7088e+07,-31.999,11598,12509,1,12509,1,0.00044213,5.5806e-11,0,0.00061276,7.0385e-05,1.5426e+08,17.938,0,2.2817e+08,62.934,12508,527.81,0,527.81,0,0.00047153,2.1839e-09,0,0.00023716,8.8335e-05,1.7589e+08,694.11,0,8.7375e+07,65.711,527.81,1
1820,2.88,12054,1,12054,1,3.3792e-05,2.3857e-10,0,0.00041028,-6.1582e-06,-18.62,74.166,0,1.5313e+08,-1.5653,12053,12991,1,12991,1,0.00082444,3.1495e-09,0,0.00082444,0.00014198,2.7802e+08,1010.8,0,3.0784e+08,64.586,12990,12054,1,12054,1,3.3792e-05,1.9407e-10,0,0.00040996,-6.144e-06,1.2231e+07,63.264,0,1.5482e+08,0.47655,12053,11097,1,11097,1,-0.00075685,-1.5392e-09,0,4.509e-06,-0.00015429,-3.0784e+08,-476.5,0,1.4166e+06,-169.51,11096,11599,1,11599,1,-0.00037617,-3.749e-10,0,0.00020498,-8.2957e-05,-1.53e+08,-121.41,0,7.7361e+07,-24.121,11598,12509,1,12509,1,0.00044376,7.2156e-10,0,0.00061495,7.0625e-05,1.5482e+08,226.84,0,2.2893e+08,23.53,12508,527.81,0,527.81,0,0.00047321,9.4039e-10,0,0.000238,8.865e-05,1.7648e+08,300.21,0,8.7662e+07,32.83,527.81,1
1820,2.89,12054,1,12054,1,3.3968e-05,8.3608e-10,0,0.00041173,-6.1904e-06,-52.799,264.86,0,1.5364e+08,3.8644,12053,12991,1,12991,1,0.0008274,5.4316e-09,0,0.0008274,0.00014247,2.7886e+08,1681.1,0,3.089e+08,182.28,12990,12054,1,12054,1,3.3968e-05,2.3234e-10,0,0.0004114,-6.1759e-06,1.2296e+07,72.34,0,1.5538e+08,3.6861,12053,11097,1,11097,1,-0.00075946,-2.3462e-09,0,4.5821e-06,-0.00015484,-3.089e+08,-733.52,0,1.4437e+06,-187.65,11096,11599,1,11599,1,-0.00037743,-4.0108e-10,0,0.0002057,-8.3259e-05,-1.5351e+08,-127.15,0,7.7631e+07,-35.891,11598,12509,1,12509,1,0.00044537,2.0253e-09,0,0.00061711,7.0862e-05,1.5538e+08,635.56,0,2.2969e+08,46.146,12508,527.81,0,527.81,0,0.00047487,1.7836e-09,0,0.00023884,8.8961e-05,1.7707e+08,565.55,0,8.7945e+07,62.443,527.81,1
1820,2.9,12054,1,12054,1,3.4144e-05,-1.4004e-09,0,0.00041316,-6.2224e-06,-45.19,-444.09,0,1.5416e+08,12.822,12053,12991,1,12991,1,0.00083034,2.5397e-09,0,0.00083034,0.00014295,2.797e+08,802.41,0,3.0995e+08,134.9,12990,12054,1,12054,1,3.4143e-05,-1.0699e-09,0,0.00041283,-6.2079e-06,1.236e+07,-333.67,0,1.5593e+08,9.6403,12053,11097,1,11097,1,-0.00076205,-5.5273e-09,0,4.6557e-06,-0.00015539,-3.0995e+08,-1712.5,0,1.471e+06,-101.91,11096,11599,1,11599,1,-0.00037869,-2.8165e-09,0,0.00020642,-8.356e-05,-1.5402e+08,-888.67,0,7.79e+07,-28.409,11598,12509,1,12509,1,0.00044698,1.6267e-11,0,0.00061925,7.1098e-05,1.5593e+08,5.1595,0,2.3044e+08,55.029,12508,527.81,0,527.81,0,0.00047652,1.8722e-09,0,0.00023967,8.927e-05,1.7765e+08,595.22,0,8.8225e+07,54.568,527.81,1
1820,2.91,12054,1,12054,1,3.4321e-05,-1.9335e-09,0,0.00041462,-6.2549e-06,3.5332,-615.37,0,1.5467e+08,9.0965,12053,12991,1,12991,1,0.00083331,1.7143e-09,0,0.00083331,0.00014345,2.8054e+08,549.77,0,3.1102e+08,153.1,12990,12054,1,12054,1,3.432e-05,-1.6613e-09,0,0.00041428,-6.2403e-06,1.2425e+07,-517.63,0,1.565e+08,4.1483,12053,11097,1,11097,1,-0.00076467,-6.4579e-09,0,4.7292e-06,-0.00015595,-3.1102e+08,-2006.9,0,1.4983e+06,-142.73,11096,11599,1,11599,1,-0.00037996,-3.4092e-09,0,0.00020714,-8.3863e-05,-1.5454e+08,-1096.3,0,7.8171e+07,-26.075,11598,12509,1,12509,1,0.0004486,-1.6415e-10,0,0.00062142,7.1336e-05,1.565e+08,-53.492,0,2.3121e+08,56.83,12508,527.81,0,527.81,0,0.00047819,2.0046e-09,0,0.00024051,8.9582e-05,1.7824e+08,638.82,0,8.8509e+07,61.826,527.81,1
1820,2.92,12054,1,12054,1,3.4499e-05,2.3685e-10,0,0.00041606,-6.2874e-06,-48.651,73.571,0,1.5519e+08,-2.9701,12053,12991,1,12991,1,0.00083625,1.6383e-09,0,0.00083625,0.00014393,2.8137e+08,501.24,0,3.1207e+08,49.682,12990,12054,1,12054,1,3.4499e-05,1.2181e-10,0,0.00041572,-6.2728e-06,1.249e+07,37.65,0,1.5705e+08,-1.2798,12053,11097,1,11097,1,-0.00076725,-1.1358e-09,0,4.804e-06,-0.0001565,-3.1207e+08,-364.38,0,1.5261e+06,-86.163,11096,11599,1,11599,1,-0.00038122,-1.9479e-10,0,0.00020786,-8.4166e-05,-1.5505e+08,-64.77,0,7.8442e+07,-20.652,11598,12509,1,12509,1,0.00045022,7.484e-10,0,0.00062358,7.1573e-05,1.5705e+08,237.69,0,2.3196e+08,15.586,12508,527.81,0,527.81,0,0.00047986,6.9339e-10,0,0.00024135,8.9894e-05,1.7883e+08,220.91,0,8.8792e+07,25.364,527.81,1
1820,2.93,12054,1,12054,1,3.4676e-05,-9.3896e-10,0,0.0004175,-6.3199e-06,3.8463,-298.29,0,1.557e+08,8.4403,12053,12991,1,12991,1,0.0008392,3.5611e-09,0,0.0008392,0.00014442,2.822e+08,1116.5,0,3.1312e+08,131.39,12990,12054,1,12054,1,3.4676e-05,-6.2197e-10,0,0.00041715,-6.3051e-06,1.2555e+07,-197.68,0,1.5761e+08,4.3713,12053,11097,1,11097,1,-0.00076984,-5.1198e-09,0,4.8794e-06,-0.00015705,-3.1312e+08,-1584.8,0,1.5541e+06,-113.9,11096,11599,1,11599,1,-0.00038248,-2.3132e-09,0,0.00020858,-8.4466e-05,-1.5556e+08,-743.1,0,7.871e+07,-31.844,11598,12509,1,12509,1,0.00045183,3.3377e-10,0,0.00062573,7.1809e-05,1.5761e+08,105.2,0,2.3271e+08,51.359,12508,527.81,0,527.81,0,0.00048151,1.9091e-09,0,0.00024218,9.0203e-05,1.7942e+08,606.94,0,8.9071e+07,54.426,527.81,1
1820,2.94,12054,1,12054,1,3.4856e-05,-1.2353e-09,0,0.00041896,-6.3528e-06,-23.073,-393.02,0,1.5623e+08,-0.87118,12053,12991,1,12991,1,0.00084219,3.3596e-10,0,0.00084219,0.00014491,2.8305e+08,107.92,0,3.1419e+08,49.107,12990,12054,1,12054,1,3.4856e-05,-1.3568e-09,0,0.00041861,-6.338e-06,1.2621e+07,-431.9,0,1.5818e+08,2.0105,12053,11097,1,11097,1,-0.00077248,-2.6833e-09,0,4.9549e-06,-0.00015761,-3.1419e+08,-838.27,0,1.5822e+06,-108.57,11096,11599,1,11599,1,-0.00038375,-1.8674e-09,0,0.00020931,-8.4772e-05,-1.5608e+08,-602.6,0,7.8984e+07,-15.106,11598,12509,1,12509,1,0.00045347,-6.2987e-10,0,0.00062792,7.2048e-05,1.5818e+08,-196.55,0,2.3348e+08,18.639,12508,527.81,0,527.81,0,0.00048319,7.894e-10,0,0.00024303,9.0519e-05,1.8001e+08,251.39,0,8.9357e+07,27.875,527.81,1
1820,2.95,12054,1,12054,1,3.5047e-05,-1.1338e-09,0,0.0004204,-6.3879e-06,94.682,-361.65,0,1.5673e+08,-7.4718,12053,12991,1,12991,1,0.00084514,1.3251e-09,0,0.00084514,0.00014539,2.8386e+08,421.93,0,3.1524e+08,103.21,12990,12054,1,12054,1,3.5047e-05,-1.0188e-09,0,0.00042004,-6.373e-06,1.2692e+07,-315.85,0,1.5872e+08,-6.5202,12053,11097,1,11097,1,-0.00077505,-3.953e-09,0,5.0441e-06,-0.00015816,-3.1524e+08,-1225.2,0,1.6155e+06,-144.09,11096,11599,1,11599,1,-0.00038499,-2.1264e-09,0,0.00021002,-8.5076e-05,-1.5659e+08,-682.38,0,7.9252e+07,-40.337,11598,12509,1,12509,1,0.00045509,1.1246e-11,0,0.00063006,7.2281e-05,1.5872e+08,3.8558,0,2.3422e+08,27.404,12508,527.81,0,527.81,0,0.00048485,1.2902e-09,0,0.00024386,9.0828e-05,1.8059e+08,411,0,8.9632e+07,48.004,527.81,1
1820,2.96,12054,1,12054,1,3.5243e-05,-1.6461e-09,0,0.00042184,-6.4237e-06,80.53,-524.94,0,1.5724e+08,0.59888,12053,12991,1,12991,1,0.00084811,3.8321e-09,0,0.00084811,0.00014588,2.8467e+08,1197.8,0,3.1629e+08,194.19,12990,12054,1,12054,1,3.5243e-05,-1.2536e-09,0,0.00042148,-6.4088e-06,1.2763e+07,-401.5,0,1.5927e+08,2.0711,12053,11097,1,11097,1,-0.00077762,-7.1906e-09,0,5.1371e-06,-0.00015871,-3.1629e+08,-2225.8,0,1.6504e+06,-224.91,11096,11599,1,11599,1,-0.00038623,-3.5242e-09,0,0.00021074,-8.538e-05,-1.5709e+08,-1108.3,0,7.952e+07,-52.151,11598,12509,1,12509,1,0.00045672,2.9613e-10,0,0.00063221,7.2514e-05,1.5927e+08,94.309,0,2.3496e+08,66.769,12508,527.81,0,527.81,0,0.0004865,2.4864e-09,0,0.0002447,9.1137e-05,1.8116e+08,791.59,0,8.9906e+07,88.23,527.81,1
1820,2.97,12054,1,12054,1,3.5442e-05,3.3196e-10,0,0.00042331,-6.4601e-06,13.647,103.01,0,1.5776e+08,-0.93472,12053,12991,1,12991,1,0.00085111,3.6035e-09,0,0.00085111,0.00014636,2.8548e+08,1130.3,0,3.1735e+08,86.022,12990,12054,1,12054,1,3.5442e-05,2.7406e-10,0,0.00042294,-6.4451e-06,1.2837e+07,82.296,0,1.5983e+08,-3.4257,12053,11097,1,11097,1,-0.00078023,-2.2084e-09,0,5.2316e-06,-0.00015927,-3.1735e+08,-691.87,0,1.6858e+06,-108.54,11096,11599,1,11599,1,-0.0003875,-3.3798e-10,0,0.00021147,-8.569e-05,-1.576e+08,-106.42,0,7.9795e+07,-32.802,11598,12509,1,12509,1,0.00045838,9.9252e-10,0,0.00063441,7.2751e-05,1.5983e+08,315.31,0,2.3572e+08,29.9,12508,527.81,0,527.81,0,0.00048819,1.1695e-09,0,0.00024555,9.1453e-05,1.8175e+08,374.08,0,9.0186e+07,38.205,527.81,1
1820,2.98,12054,1,12054,1,3.5643e-05,-9.1237e-10,0,0.00042477,-6.4969e-06,35.845,-290.01,0,1.5827e+08,-7.5366,12053,12991,1,12991,1,0.00085412,4.4637e-10,0,0.00085412,0.00014685,2.863e+08,152.88,0,3.1841e+08,47.579,12990,12054,1,12054,1,3.5643e-05,-8.4163e-10,0,0.00042439,-6.4818e-06,1.291e+07,-267.11,0,1.6038e+08,-4.3577,12053,11097,1,11097,1,-0.00078283,-2.5609e-09,0,5.3288e-06,-0.00015984,-3.1841e+08,-794.07,0,1.7222e+06,-86.772,11096,11599,1,11599,1,-0.00038875,-1.4494e-09,0,0.0002122,-8.5999e-05,-1.5811e+08,-458.04,0,8.0067e+07,-20.069,11598,12509,1,12509,1,0.00046003,-3.2761e-10,0,0.00063659,7.2986e-05,1.6038e+08,-101.16,0,2.3646e+08,8.044,12508,527.81,0,527.81,0,0.00048987,7.2825e-10,0,0.00024639,9.1767e-05,1.8233e+08,232.55,0,9.0463e+07,24.133,527.81,1
1820,2.99,12054,1,12054,1,3.584e-05,-1.7098e-09,0,0.00042619,-6.5331e-06,176.24,-544.23,0,1.5876e+08,-0.20265,12053,12991,1,12991,1,0.00085706,4.8278e-09,0,0.00085706,0.00014733,2.8709e+08,1509.5,0,3.1944e+08,277.81,12990,12054,1,12054,1,3.584e-05,-9.1628e-10,0,0.00042581,-6.518e-06,1.2983e+07,-289.51,0,1.6092e+08,-7.6502,12053,11097,1,11097,1,-0.00078538,-9.4518e-09,0,5.4253e-06,-0.00016039,-3.1944e+08,-2925.6,0,1.7584e+06,-224.91,11096,11599,1,11599,1,-0.00038997,-4.0042e-09,0,0.0002129,-8.6301e-05,-1.5861e+08,-1278,0,8.0332e+07,-76.451,11598,12509,1,12509,1,0.00046165,6.2172e-10,0,0.00063871,7.3215e-05,1.6092e+08,192.6,0,2.3719e+08,80.824,12508,527.81,0,527.81,0,0.00049149,3.3165e-09,0,0.00024721,9.2072e-05,1.829e+08,1055,0,9.0731e+07,107.07,527.81,1
1820,3,12054,1,12054,1,3.604e-05,-1.351e-09,0,0.00042766,-6.5697e-06,108.45,-431.77,0,1.5928e+08,-4.4684,12053,12991,1,12991,1,0.00086008,3.6652e-09,0,0.00086008,0.00014782,2.879e+08,1146.4,0,3.205e+08,244.25,12990,12054,1,12054,1,3.604e-05,-4.9597e-10,0,0.00042727,-6.5545e-06,1.3057e+07,-156.32,0,1.6148e+08,-6.1757,12053,11097,1,11097,1,-0.00078799,-7.9781e-09,0,5.5209e-06,-0.00016095,-3.205e+08,-2469.5,0,1.7942e+06,-233.96,11096,11599,1,11599,1,-0.00039122,-3.0392e-09,0,0.00021363,-8.6611e-05,-1.5912e+08,-970.75,0,8.0605e+07,-71.641,11598,12509,1,12509,1,0.00046331,5.052e-10,0,0.0006409,7.3451e-05,1.6148e+08,158.48,0,2.3794e+08,53.843,12508,527.81,0,527.81,0,0.00049318,2.6658e-09,0,0.00024806,9.2388e-05,1.8348e+08,851.5,0,9.101e+07,95.54,527.81,1
1820,3.01,12054,1,12054,1,3.6242e-05,-2.502e-09,0,0.00042911,-6.6067e-06,71.432,-797.28,0,1.5979e+08,-6.1273,12053,12991,1,12991,1,0.00086308,1.7486e-09,0,0.00086308,0.00014831,2.8871e+08,598.86,0,3.2156e+08,258.77,12990,12054,1,12054,1,3.6242e-05,-1.6259e-09,0,0.00042871,-6.5914e-06,1.3131e+07,-517.97,0,1.6201e+08,-14.771,12053,11097,1,11097,1,-0.00079059,-1.0067e-08,0,5.6195e-06,-0.00016151,-3.2156e+08,-3116,0,1.8312e+06,-226.05,11096,11599,1,11599,1,-0.00039247,-4.494e-09,0,0.00021436,-8.6919e-05,-1.5963e+08,-1441.9,0,8.0876e+07,-76.117,11598,12509,1,12509,1,0.00046495,4.1814e-11,0,0.00064307,7.3685e-05,1.6203e+08,12.737,0,2.3868e+08,61.307,12508,527.81,0,527.81,0,0.00049485,3.024e-09,0,0.00024891,9.27e-05,1.8406e+08,965.07,0,9.1285e+07,102.82,527.81,1
1820,3.02,12054,1,12054,1,3.6445e-05,-1.9253e-09,0,0.00043057,-6.6438e-06,39.758,-615.35,0,1.603e+08,-4.9523,12053,12991,1,12991,1,0.00086607,1.9995e-09,0,0.00086607,0.00014879,2.8951e+08,636.21,0,3.2261e+08,220.58,12990,12054,1,12054,1,3.6445e-05,-1.1668e-09,0,0.00043016,-6.6285e-06,1.3205e+07,-375.27,0,1.6255e+08,-8.3569,12053,11097,1,11097,1,-0.00079317,-8.3007e-09,0,5.7183e-06,-0.00016207,-3.2261e+08,-2578,0,1.8682e+06,-181.6,11096,11599,1,11599,1,-0.00039372,-3.7062e-09,0,0.00021508,-8.7227e-05,-1.6013e+08,-1173.5,0,8.1147e+07,-62.909,11598,12509,1,12509,1,0.00046661,2.0381e-10,0,0.00064524,7.3919e-05,1.6259e+08,65.359,0,2.3943e+08,48.101,12508,527.81,0,527.81,0,0.00049652,2.5854e-09,0,0.00024975,9.3013e-05,1.8464e+08,826.72,0,9.156e+07,84.205,527.81,1
1820,3.03,12054,1,12054,1,3.6648e-05,-1.3027e-09,0,0.00043201,-6.681e-06,68.287,-416.82,0,1.608e+08,4.9577,12053,12991,1,12991,1,0.00086905,4.2723e-09,0,0.00086905,0.00014928,2.903e+08,1340.7,0,3.2366e+08,226.19,12990,12054,1,12054,1,3.6648e-05,-5.4481e-10,0,0.0004316,-6.6655e-06,1.328e+07,-166.54,0,1.6309e+08,-3.6192,12053,11097,1,11097,1,-0.00079575,-7.7919e-09,0,5.8186e-06,-0.00016262,-3.2366e+08,-2411.8,0,1.9059e+06,-173.64,11096,11599,1,11599,1,-0.00039495,-3.1057e-09,0,0.0002158,-8.7534e-05,-1.6064e+08,-997.3,0,8.1417e+07,-58.206,11598,12509,1,12509,1,0.00046825,5.3427e-10,0,0.0006474,7.4151e-05,1.6314e+08,165.17,0,2.4017e+08,70.597,12508,527.81,0,527.81,0,0.00049819,2.7254e-09,0,0.00025059,9.3324e-05,1.8522e+08,870.26,0,9.1833e+07,87.282,527.81,1
1820,3.04,12054,1,12054,1,3.6858e-05,-1.7216e-09,0,0.00043346,-6.7194e-06,-29.147,-550.89,0,1.6131e+08,-17.417,12053,12991,1,12991,1,0.00087204,5.8488e-09,0,0.00087204,0.00014976,2.911e+08,1808.5,0,3.2471e+08,298.25,12990,12054,1,12054,1,3.6858e-05,-7.0043e-10,0,0.00043304,-6.704e-06,1.3357e+07,-220.6,0,1.6362e+08,-32.963,12053,11097,1,11097,1,-0.00079832,-9.8629e-09,0,5.9252e-06,-0.00016318,-3.2471e+08,-3077,0,1.9459e+06,-295.09,11096,11599,1,11599,1,-0.00039619,-4.4501e-09,0,0.00021652,-8.7843e-05,-1.6114e+08,-1417.2,0,8.1687e+07,-108.91,11598,12509,1,12509,1,0.0004699,8.4289e-10,0,0.00064957,7.4383e-05,1.6368e+08,263.85,0,2.409e+08,74.264,12508,527.81,0,527.81,0,0.00049985,3.6488e-09,0,0.00025143,9.3636e-05,1.8579e+08,1166.7,0,9.2105e+07,117.91,527.81,1
1820,3.05,12054,1,12054,1,3.7095e-05,-9.9536e-10,0,0.00043491,-6.763e-06,-96.502,-320.46,0,1.618e+08,-20.018,12053,12991,1,12991,1,0.00087506,9.153e-09,0,0.00087506,0.00015024,2.9185e+08,2833.3,0,3.2574e+08,347.84,12990,12054,1,12054,1,3.7095e-05,-2.2823e-11,0,0.00043449,-6.7475e-06,1.3445e+07,-7.0822,0,1.6414e+08,-34.747,12053,11097,1,11097,1,-0.00080086,-1.1363e-08,0,6.0595e-06,-0.00016375,-3.2574e+08,-3546.2,0,1.9967e+06,-330.86,11096,11599,1,11599,1,-0.00039739,-4.2421e-09,0,0.00021724,-8.8156e-05,-1.6163e+08,-1297.6,0,8.1956e+07,-136.5,11598,12509,1,12509,1,0.00047158,1.9342e-09,0,0.00065173,7.4609e-05,1.6421e+08,609.72,0,2.4162e+08,90.474,12508,527.81,0,527.81,0,0.00050151,4.607e-09,0,0.00025227,9.3947e-05,1.8635e+08,1472.4,0,9.2368e+07,145.85,527.81,1
1820,3.06,12054,1,12054,1,3.734e-05,-4.0511e-10,0,0.00043642,-6.8078e-06,-17.537,-131.84,0,1.6231e+08,-26.305,12053,12991,1,12991,1,0.00087816,3.1309e-09,0,0.00087816,0.00015073,2.9264e+08,992.38,0,3.268e+08,96.958,12990,12054,1,12054,1,3.734e-05,-5.261e-11,0,0.00043597,-6.7921e-06,1.3535e+07,-15.754,0,1.6468e+08,-26.606,12053,11097,1,11097,1,-0.00080348,-3.8307e-09,0,6.198e-06,-0.00016433,-3.268e+08,-1224.8,0,2.0491e+06,-149.13,11096,11599,1,11599,1,-0.00039863,-1.4506e-09,0,0.00021799,-8.8479e-05,-1.6213e+08,-467.13,0,8.2233e+07,-70.941,11598,12509,1,12509,1,0.00047331,5.3579e-10,0,0.00065396,7.4842e-05,1.6475e+08,167.5,0,2.4236e+08,16.863,12508,527.81,0,527.81,0,0.00050323,1.5439e-09,0,0.00025313,9.4269e-05,1.8693e+08,499.33,0,9.2641e+07,52.804,527.81,1
1820,3.07,12054,1,12054,1,3.7585e-05,-1.5452e-09,0,0.00043787,-6.8527e-06,-85.286,-492.9,0,1.628e+08,-17.117,12053,12991,1,12991,1,0.00088121,6.734e-09,0,0.00088121,0.00015121,2.9339e+08,2084.5,0,3.2784e+08,316.27,12990,12054,1,12054,1,3.7585e-05,-5.5395e-10,0,0.00043742,-6.837e-06,1.3626e+07,-169.57,0,1.652e+08,-29.248,12053,11097,1,11097,1,-0.00080604,-1.0094e-08,0,6.3396e-06,-0.00016489,-3.2784e+08,-3138.5,0,2.1027e+06,-339.17,11096,11599,1,11599,1,-0.00039984,-4.4674e-09,0,0.00021871,-8.8795e-05,-1.6262e+08,-1422.8,0,8.2503e+07,-114.21,11598,12509,1,12509,1,0.00047501,1.1099e-09,0,0.00065613,7.5068e-05,1.6527e+08,353.18,0,2.4307e+08,86.398,12508,527.81,0,527.81,0,0.0005049,3.8628e-09,0,0.00025398,9.4581e-05,1.8749e+08,1232.2,0,9.2902e+07,133.25,527.81,1
1820,3.08,12054,1,12054,1,3.783e-05,-8.4825e-10,0,0.00043935,-6.8978e-06,-72.495,-273.08,0,1.6331e+08,-23.453,12053,12991,1,12991,1,0.00088429,2.3662e-09,0,0.00088429,0.00015169,2.9416e+08,758.99,0,3.2889e+08,116.91,12990,12054,1,12054,1,3.7831e-05,-3.5279e-10,0,0.00043889,-6.8819e-06,1.3716e+07,-109.15,0,1.6573e+08,-25.348,12053,11097,1,11097,1,-0.00080862,-4.5359e-09,0,6.4803e-06,-0.00016547,-3.2889e+08,-1434.3,0,2.1559e+06,-147.04,11096,11599,1,11599,1,-0.00040106,-2.0548e-09,0,0.00021945,-8.9116e-05,-1.6312e+08,-646.04,0,8.2778e+07,-66.202,11598,12509,1,12509,1,0.00047673,2.8629e-10,0,0.00065834,7.5298e-05,1.6581e+08,86.959,0,2.438e+08,19.843,12508,527.81,0,527.81,0,0.0005066,1.621e-09,0,0.00025484,9.4899e-05,1.8806e+08,523.05,0,9.3171e+07,55.916,527.81,1
1820,3.09,12054,1,12054,1,3.8076e-05,-1.3941e-09,0,0.0004408,-6.9428e-06,26.339,-445.71,0,1.638e+08,-19.349,12053,12991,1,12991,1,0.00088731,7.5499e-09,0,0.00088731,0.00015217,2.949e+08,2376.9,0,3.2992e+08,248.94,12990,12054,1,12054,1,3.8076e-05,-6.9445e-10,0,0.00044033,-6.9268e-06,1.3807e+07,-222.15,0,1.6624e+08,-30.883,12053,11097,1,11097,1,-0.00081115,-9.157e-09,0,6.6235e-06,-0.00016603,-3.2992e+08,-2848.8,0,2.2101e+06,-322.02,11096,11599,1,11599,1,-0.00040225,-4.1506e-09,0,0.00022017,-8.9429e-05,-1.6361e+08,-1340.7,0,8.3046e+07,-111.43,11598,12509,1,12509,1,0.00047841,9.2555e-10,0,0.00066049,7.5522e-05,1.6633e+08,287.27,0,2.4451e+08,73.555,12508,527.81,0,527.81,0,0.00050826,3.7113e-09,0,0.00025567,9.5209e-05,1.8861e+08,1184.8,0,9.3429e+07,116.9,527.81,1
1820,3.1,12054,1,12054,1,3.8322e-05,-3.244e-09,0,0.00044227,-6.988e-06,53.492,-1034.2,0,1.643e+08,-41.418,12053,12991,1,12991,1,0.00089039,4.9569e-09,0,0.00089039,0.00015265,2.9567e+08,1570.5,0,3.3098e+08,223.37,12990,12054,1,12054,1,3.8322e-05,-2.5463e-09,0,0.00044179,-6.9721e-06,1.3898e+07,-804.77,0,1.6676e+08,-46.438,12053,11097,1,11097,1,-0.00081374,-1.203e-08,0,6.765e-06,-0.00016661,-3.3098e+08,-3756.3,0,2.2636e+06,-359.87,11096,11599,1,11599,1,-0.00040347,-6.6701e-09,0,0.0002209,-8.9749e-05,-1.641e+08,-2104.3,0,8.3319e+07,-140.04,11598,12509,1,12509,1,0.00048012,1.0085e-10,0,0.00066269,7.575e-05,1.6687e+08,33.754,0,2.4523e+08,70.411,12508,527.81,0,527.81,0,0.00050995,4.1207e-09,0,0.00025652,9.5525e-05,1.8917e+08,1318.6,0,9.3695e+07,132.39,527.81,1
1820,3.11,12054,1,12054,1,3.8574e-05,-1.2564e-09,0,0.00044377,-7.0341e-06,53.68,-404.82,0,1.648e+08,-41.685,12053,12991,1,12991,1,0.00089348,5.2512e-10,0,0.00089348,0.00015314,2.9643e+08,147.15,0,3.3203e+08,41.795,12990,12054,1,12054,1,3.8574e-05,-1.109e-09,0,0.00044327,-7.0179e-06,1.3991e+07,-341.24,0,1.6729e+08,-43.001,12053,11097,1,11097,1,-0.00081632,-3.7031e-09,0,6.9106e-06,-0.00016718,-3.3203e+08,-1201,0,2.3187e+06,-162.31,11096,11599,1,11599,1,-0.0004047,-2.0219e-09,0,0.00022164,-9.0071e-05,-1.646e+08,-654.69,0,8.3595e+07,-69.373,11598,12509,1,12509,1,0.00048185,-3.8148e-10,0,0.00066491,7.5981e-05,1.674e+08,-118.29,0,2.4596e+08,-9.008,12508,527.81,0,527.81,0,0.00051166,1.0835e-09,0,0.00025739,9.5845e-05,1.8975e+08,354.16,0,9.3964e+07,40.773,527.81,1
1820,3.12,12054,1,12054,1,3.8825e-05,-1.1323e-09,0,0.00044522,-7.08e-06,120.7,-362.81,0,1.6529e+08,-17.709,12053,12991,1,12991,1,0.00089651,4.3038e-09,0,0.00089651,0.00015361,2.9717e+08,1358.2,0,3.3306e+08,160.17,12990,12054,1,12054,1,3.8825e-05,-6.8877e-10,0,0.00044472,-7.0637e-06,1.4083e+07,-221.06,0,1.6781e+08,-25.329,12053,11097,1,11097,1,-0.00081886,-6.2165e-09,0,7.0585e-06,-0.00016775,-3.3306e+08,-1940.6,0,2.3747e+06,-201.61,11096,11599,1,11599,1,-0.00040589,-2.9621e-09,0,0.00022236,-9.0387e-05,-1.6509e+08,-938.48,0,8.3864e+07,-74.546,11598,12509,1,12509,1,0.00048354,4.9303e-10,0,0.00066708,7.6205e-05,1.6793e+08,147.7,0,2.4667e+08,39.582,12508,527.81,0,527.81,0,0.00051333,2.405e-09,0,0.00025823,9.6157e-05,1.903e+08,768.14,0,9.4222e+07,74.199,527.81,1
1820,3.13,12054,1,12054,1,3.9073e-05,-2.0518e-09,0,0.00044667,-7.1256e-06,155.87,-655.06,0,1.6578e+08,-31.087,12053,12991,1,12991,1,0.00089956,6.873e-09,0,0.00089956,0.00015409,2.9791e+08,2165.2,0,3.3409e+08,243.94,12990,12054,1,12054,1,3.9073e-05,-1.3678e-09,0,0.00044616,-7.1093e-06,1.4175e+07,-427.04,0,1.6833e+08,-42.746,12053,11097,1,11097,1,-0.0008214,-1.05e-08,0,7.2041e-06,-0.00016832,-3.3409e+08,-3270.8,0,2.4298e+06,-326.98,11096,11599,1,11599,1,-0.00040709,-5.1167e-09,0,0.00022308,-9.0703e-05,-1.6557e+08,-1609.9,0,8.4133e+07,-128.08,11598,12509,1,12509,1,0.00048523,7.1905e-10,0,0.00066924,7.6429e-05,1.6845e+08,221.05,0,2.4738e+08,68.819,12508,527.81,0,527.81,0,0.00051499,3.9804e-09,0,0.00025907,9.6468e-05,1.9085e+08,1271.2,0,9.4482e+07,122.81,527.81,1
1820,3.14,12054,1,12054,1,3.9326e-05,-2.1515e-09,0,0.00044817,-7.172e-06,16.407,-687.57,0,1.6628e+08,-33.454,12053,12991,1,12991,1,0.00090267,1.0274e-09,0,0.00090267,0.00015458,2.9868e+08,337.59,0,3.3515e+08,92.264,12990,12054,1,12054,1,3.9327e-05,-1.8675e-09,0,0.00044764,-7.1556e-06,1.4269e+07,-571.58,0,1.6886e+08,-28.421,12053,11097,1,11097,1,-0.00082401,-6.5851e-09,0,7.3511e-06,-0.0001689,-3.3515e+08,-2072.2,0,2.4854e+06,-216.09,11096,11599,1,11599,1,-0.00040832,-3.9018e-09,0,0.00022382,-9.1027e-05,-1.6607e+08,-1240.1,0,8.441e+07,-79.707,11598,12509,1,12509,1,0.00048697,-2.2227e-10,0,0.00067147,7.666e-05,1.6899e+08,-69.191,0,2.4811e+08,18.871,12508,527.81,0,527.81,0,0.0005167,2.0728e-09,0,0.00025994,9.6789e-05,1.9142e+08,668.08,0,9.475e+07,65.492,527.81,1
1820,3.15,12054,1,12054,1,3.9582e-05,-2.1844e-09,0,0.00044963,-7.2188e-06,7.8831,-698.25,0,1.6678e+08,-23.901,12053,12991,1,12991,1,0.00090573,2.8962e-09,0,0.00090573,0.00015506,2.9942e+08,903.54,0,3.3619e+08,159.29,12990,12054,1,12054,1,3.9582e-05,-1.6326e-09,0,0.0004491,-7.2022e-06,1.4363e+07,-517.98,0,1.6938e+08,-27.222,12053,11097,1,11097,1,-0.00082656,-8.219e-09,0,7.5023e-06,-0.00016947,-3.3619e+08,-2570.2,0,2.5427e+06,-249.26,11096,11599,1,11599,1,-0.00040952,-4.5174e-09,0,0.00022455,-9.1346e-05,-1.6656e+08,-1425.7,0,8.4681e+07,-91.913,11598,12509,1,12509,1,0.00048868,1.3654e-10,0,0.00067365,7.6886e-05,1.6952e+08,41.628,0,2.4882e+08,48.324,12508,527.81,0,527.81,0,0.00051838,2.8126e-09,0,0.00026078,9.7103e-05,1.9198e+08,900.42,0,9.501e+07,88.461,527.81,1
1820,3.16,12054,1,12054,1,3.9837e-05,-1.9178e-09,0,0.0004511,-7.2656e-06,41.877,-613.81,0,1.6727e+08,-28.488,12053,12991,1,12991,1,0.0009088,2.947e-09,0,0.0009088,0.00015554,3.0016e+08,921.58,0,3.3723e+08,150.08,12990,12054,1,12054,1,3.9837e-05,-1.4171e-09,0,0.00045056,-7.2489e-06,1.4457e+07,-442.23,0,1.699e+08,-28.693,12053,11097,1,11097,1,-0.00082912,-7.5891e-09,0,7.653e-06,-0.00017004,-3.3723e+08,-2377.2,0,2.5998e+06,-244.26,11096,11599,1,11599,1,-0.00041072,-4.1077e-09,0,0.00022528,-9.1666e-05,-1.6705e+08,-1300.5,0,8.4953e+07,-91.513,11598,12509,1,12509,1,0.0004904,2.4473e-10,0,0.00067584,7.7112e-05,1.7005e+08,73.512,0,2.4954e+08,38.541,12508,527.81,0,527.81,0,0.00052007,2.6304e-09,0,0.00026164,9.7418e-05,1.9254e+08,843.14,0,9.5273e+07,84.346,527.81,1
1820,3.17,12054,1,12054,1,4.0093e-05,-2.0555e-09,0,0.00045257,-7.3125e-06,70.343,-657.88,0,1.6776e+08,-34.653,12053,12991,1,12991,1,0.00091186,3.3382e-09,0,0.00091186,0.00015602,3.009e+08,1033.1,0,3.3827e+08,156.69,12990,12054,1,12054,1,4.0093e-05,-1.5387e-09,0,0.00045201,-7.2957e-06,1.4552e+07,-488.71,0,1.7042e+08,-34.224,12053,11097,1,11097,1,-0.00083167,-8.3248e-09,0,7.8051e-06,-0.00017061,-3.3827e+08,-2604.1,0,2.6574e+06,-278,11096,11599,1,11599,1,-0.00041192,-4.4118e-09,0,0.00022601,-9.1985e-05,-1.6754e+08,-1393.1,0,8.5224e+07,-102.14,11598,12509,1,12509,1,0.00049211,3.5206e-10,0,0.00067802,7.7337e-05,1.7057e+08,110.18,0,2.5025e+08,44.196,12508,527.81,0,527.81,0,0.00052174,2.8881e-09,0,0.00026248,9.7731e-05,1.931e+08,924.61,0,9.5532e+07,93.714,527.81,1
1820,3.18,12054,1,12054,1,4.035e-05,-7.3067e-11,0,0.00045405,-7.3597e-06,28.233,-28.151,0,1.6826e+08,-15.841,12053,12991,1,12991,1,0.00091492,3.4029e-09,0,0.00091492,0.00015649,3.0164e+08,1085,0,3.3931e+08,93.905,12990,12054,1,12054,1,4.035e-05,1.4546e-11,0,0.00045348,-7.3426e-06,1.4647e+07,4.5662,0,1.7094e+08,-15.804,12053,11097,1,11097,1,-0.00083422,-2.7878e-09,0,7.9579e-06,-0.00017119,-3.3931e+08,-909.87,0,2.7152e+06,-158.99,11096,11599,1,11599,1,-0.00041313,-9.491e-10,0,0.00022674,-9.2306e-05,-1.6803e+08,-304.3,0,8.5497e+07,-47.874,11598,12509,1,12509,1,0.00049383,6.5226e-10,0,0.00068022,7.7564e-05,1.711e+08,201.83,0,2.5096e+08,15.437,12508,527.81,0,527.81,0,0.00052344,1.2917e-09,0,0.00026334,9.8048e-05,1.9366e+08,415.72,0,9.5795e+07,42.882,527.81,1
1820,3.19,12054,1,12054,1,4.0609e-05,-6.7658e-10,0,0.00045551,-7.4072e-06,82.687,-216.53,0,1.6875e+08,-23.821,12053,12991,1,12991,1,0.00091799,4.495e-09,0,0.00091799,0.00015697,3.0237e+08,1415.9,0,3.4034e+08,124.52,12990,12054,1,12054,1,4.0609e-05,-3.1127e-10,0,0.00045493,-7.3901e-06,1.4742e+07,-98.949,0,1.7146e+08,-26.571,12053,11097,1,11097,1,-0.00083677,-5.1578e-09,0,8.1134e-06,-0.00017176,-3.4034e+08,-1606.6,0,2.7741e+06,-199.29,11096,11599,1,11599,1,-0.00041432,-2.3187e-09,0,0.00022747,-9.2626e-05,-1.6851e+08,-727.95,0,8.5768e+07,-77.476,11598,12509,1,12509,1,0.00049554,6.8962e-10,0,0.0006824,7.7788e-05,1.7163e+08,213.15,0,2.5167e+08,35.096,12508,527.81,0,527.81,0,0.00052512,2.1529e-09,0,0.00026419,9.8362e-05,1.9421e+08,687.44,0,9.6053e+07,71.249,527.81,1
1820,3.2,12054,1,12054,1,4.0867e-05,-2.9993e-09,0,0.00045696,-7.4545e-06,124.8,-954.64,0,1.6924e+08,-44.59,12053,12991,1,12991,1,0.00092106,4.8506e-09,0,0.00092106,0.00015745,3.0311e+08,1511.2,0,3.4138e+08,212.21,12990,12054,1,12054,1,4.0867e-05,-2.25e-09,0,0.00045638,-7.4375e-06,1.4838e+07,-715.95,0,1.7197e+08,-45.548,12053,11097,1,11097,1,-0.00083932,-1.1854e-08,0,8.268e-06,-0.00017233,-3.4138e+08,-3693.4,0,2.8326e+06,-360.02,11096,11599,1,11599,1,-0.00041551,-6.2025e-09,0,0.00022819,-9.2944e-05,-1.69e+08,-1988.4,0,8.6037e+07,-133.56,11598,12509,1,12509,1,0.00049725,3.3331e-10,0,0.00068457,7.8011e-05,1.7215e+08,107.47,0,2.5237e+08,57.017,12508,527.81,0,527.81,0,0.00052678,4.0589e-09,0,0.00026503,9.8674e-05,1.9476e+08,1295.7,0,9.631e+07,127.94,527.81,1
1820,3.21,12054,1,12054,1,4.1128e-05,-1.5883e-09,0,0.00045845,-7.5024e-06,21.19,-510.69,0,1.6973e+08,-42.417,12053,12991,1,12991,1,0.00092415,4.0032e-09,0,0.00092415,0.00015793,3.0384e+08,1259.9,0,3.4243e+08,170.34,12990,12054,1,12054,1,4.1128e-05,-1.1752e-09,0,0.00045785,-7.4851e-06,1.4934e+07,-364.76,0,1.725e+08,-40.201,12053,11097,1,11097,1,-0.00084189,-7.0712e-09,0,8.4232e-06,-0.00017291,-3.4243e+08,-2228,0,2.8914e+06,-268.95,11096,11599,1,11599,1,-0.00041672,-3.6807e-09,0,0.00022893,-9.3267e-05,-1.6949e+08,-1180.9,0,8.6311e+07,-104.33,11598,12509,1,12509,1,0.00049898,4.3734e-10,0,0.00068678,7.8239e-05,1.7269e+08,127.08,0,2.5309e+08,30.376,12508,527.81,0,527.81,0,0.00052848,2.5829e-09,0,0.00026589,9.8992e-05,1.9533e+08,829.96,0,9.6573e+07,94.694,527.81,1
1820,3.22,12054,1,12054,1,4.1391e-05,-1.4574e-09,0,0.00045992,-7.5506e-06,-71.87,-467.88,0,1.7022e+08,-22.271,12053,12991,1,12991,1,0.00092723,4.5378e-09,0,0.00092723,0.00015841,3.0457e+08,1409.7,0,3.4346e+08,166.14,12990,12054,1,12054,1,4.1391e-05,-1.0769e-09,0,0.00045931,-7.5331e-06,1.5031e+07,-333.26,0,1.7301e+08,-20.288,12053,11097,1,11097,1,-0.00084444,-6.9091e-09,0,8.5824e-06,-0.00017348,-3.4346e+08,-2169.2,0,2.9517e+06,-236.39,11096,11599,1,11599,1,-0.00041792,-3.6915e-09,0,0.00022966,-9.3588e-05,-1.6998e+08,-1169.9,0,8.6583e+07,-87.7,11598,12509,1,12509,1,0.0005007,5.537e-10,0,0.00068896,7.8463e-05,1.7321e+08,169.3,0,2.538e+08,49.324,12508,527.81,0,527.81,0,0.00053017,2.6642e-09,0,0.00026674,9.9307e-05,1.9588e+08,852.95,0,9.6831e+07,90.708,527.81,1
1820,3.23,12054,1,12054,1,4.1656e-05,-1.9793e-09,0,0.0004614,-7.5992e-06,-90.462,-632.68,0,1.7072e+08,-35.42,12053,12991,1,12991,1,0.00093033,9.053e-10,0,0.00093033,0.00015889,3.0531e+08,284.31,0,3.4451e+08,116.39,12990,12054,1,12054,1,4.1656e-05,-1.9686e-09,0,0.00046078,-7.5815e-06,1.5129e+07,-621.42,0,1.7354e+08,-19.88,12053,11097,1,11097,1,-0.00084702,-5.1094e-09,0,8.7421e-06,-0.00017406,-3.4451e+08,-1608.8,0,3.0122e+06,-246.89,11096,11599,1,11599,1,-0.00041912,-3.6109e-09,0,0.00023039,-9.3912e-05,-1.7047e+08,-1148.7,0,8.6857e+07,-69.413,11598,12509,1,12509,1,0.00050244,-2.7966e-10,0,0.00069117,7.869e-05,1.7375e+08,-87.937,0,2.5451e+08,5.8279,12508,527.81,0,527.81,0,0.00053187,1.7818e-09,0,0.0002676,9.9625e-05,1.9644e+08,573.13,0,9.7093e+07,66.081,527.81,1
1820,3.24,12054,1,12054,1,4.1922e-05,-4.3924e-10,0,0.00046287,-7.6479e-06,45.29,-144.1,0,1.7121e+08,-11.031,12053,12991,1,12991,1,0.00093338,2.802e-09,0,0.00093338,0.00015937,3.0602e+08,880.86,0,3.4554e+08,75.799,12990,12054,1,12054,1,4.1922e-05,-1.774e-10,0,0.00046223,-7.6301e-06,1.5227e+07,-56.053,0,1.7405e+08,-12.728,12053,11097,1,11097,1,-0.00084954,-3.2327e-09,0,8.9043e-06,-0.00017463,-3.4554e+08,-1017.1,0,3.0736e+06,-159.07,11096,11599,1,11599,1,-0.00042031,-1.4157e-09,0,0.00023112,-9.4232e-05,-1.7095e+08,-454.26,0,8.7128e+07,-41.54,11598,12509,1,12509,1,0.00050416,4.0102e-10,0,0.00069335,7.8913e-05,1.7427e+08,124.26,0,2.5522e+08,24.03,12508,527.81,0,527.81,0,0.00053355,1.3282e-09,0,0.00026845,9.9939e-05,1.9699e+08,425.47,0,9.7349e+07,42.986,527.81,1
1820,3.25,12054,1,12054,1,4.2187e-05,-1.6508e-09,0,0.00046434,-7.6966e-06,-12.418,-525.48,0,1.717e+08,-22.367,12053,12991,1,12991,1,0.00093648,5.91e-10,0,0.00093648,0.00015985,3.0675e+08,202.41,0,3.4658e+08,63.737,12990,12054,1,12054,1,4.2187e-05,-1.4981e-09,0,0.0004637,-7.6787e-06,1.5325e+07,-471.13,0,1.7457e+08,-18.472,12053,11097,1,11097,1,-0.0008521,-4.6032e-09,0,9.066e-06,-0.00017521,-3.4658e+08,-1438.6,0,3.1348e+06,-141.75,11096,11599,1,11599,1,-0.00042151,-2.7829e-09,0,0.00023185,-9.4554e-05,-1.7144e+08,-892.76,0,8.74e+07,-48.769,11598,12509,1,12509,1,0.00050588,-4.4951e-10,0,0.00069554,7.9137e-05,1.748e+08,-138.8,0,2.5593e+08,8.1142,12508,527.81,0,527.81,0,0.00053523,1.3881e-09,0,0.0002693,0.00010025,1.9755e+08,445.39,0,9.7608e+07,39.458,527.81,1
1820,3.26,12054,1,12054,1,4.2454e-05,-2.0836e-09,0,0.0004658,-7.7455e-06,92.385,-664.85,0,1.7218e+08,-25.57,12053,12991,1,12991,1,0.00093954,4.6534e-09,0,0.00093954,0.00016032,3.0747e+08,1446.8,0,3.4761e+08,227.23,12990,12054,1,12054,1,4.2454e-05,-1.7394e-09,0,0.00046514,-7.7275e-06,1.5424e+07,-549.78,0,1.7509e+08,-28.031,12053,11097,1,11097,1,-0.00085463,-8.0854e-09,0,9.2285e-06,-0.00017578,-3.4761e+08,-2523.3,0,3.1964e+06,-256.01,11096,11599,1,11599,1,-0.00042269,-4.624e-09,0,0.00023257,-9.4874e-05,-1.7192e+08,-1461.4,0,8.7669e+07,-92.74,11598,12509,1,12509,1,0.0005076,2.9538e-10,0,0.00069771,7.9359e-05,1.7532e+08,93.557,0,2.5662e+08,45.403,12508,527.81,0,527.81,0,0.0005369,3.0016e-09,0,0.00027015,0.00010057,1.9809e+08,957.41,0,9.7862e+07,100.18,527.81,1
1820,3.27,12054,1,12054,1,4.2723e-05,3.0177e-10,0,0.00046729,-7.7948e-06,39.827,90.995,0,1.7268e+08,-13.566,12053,12991,1,12991,1,0.00094264,1.8378e-09,0,0.00094264,0.0001608,3.082e+08,598.05,0,3.4865e+08,33.337,12990,12054,1,12054,1,4.2723e-05,2.7341e-10,0,0.00046662,-7.7766e-06,1.5523e+07,79.512,0,1.7561e+08,-11.453,12053,11097,1,11097,1,-0.00085719,-1.2511e-09,0,9.3925e-06,-0.00017636,-3.4865e+08,-428.09,0,3.2585e+06,-136.5,11096,11599,1,11599,1,-0.0004239,-1.4365e-10,0,0.00023331,-9.52e-05,-1.7241e+08,-47.166,0,8.7945e+07,-30.276,11598,12509,1,12509,1,0.00050934,8.4349e-10,0,0.00069993,7.9586e-05,1.7585e+08,260.33,0,2.5733e+08,5.5765,12508,527.81,0,527.81,0,0.00053861,7.0219e-10,0,0.00027101,0.00010089,1.9865e+08,225.42,0,9.8124e+07,26.566,527.81,1
1820,3.28,12054,1,12054,1,4.2994e-05,-1.1868e-09,0,0.00046876,-7.8445e-06,62.735,-376.76,0,1.7317e+08,-13.657,12053,12991,1,12991,1,0.00094573,1.0717e-09,0,0.00094573,0.00016128,3.0891e+08,353.07,0,3.4968e+08,72.51,12990,12054,1,12054,1,4.2994e-05,-9.1118e-10,0,0.00046808,-7.8262e-06,1.5624e+07,-283.6,0,1.7613e+08,-15.433,12053,11097,1,11097,1,-0.00085974,-4.1218e-09,0,9.5602e-06,-0.00017693,-3.4968e+08,-1284.7,0,3.322e+06,-123.41,11096,11599,1,11599,1,-0.00042508,-2.2903e-09,0,0.00023404,-9.5522e-05,-1.7289e+08,-723.5,0,8.8216e+07,-45.162,11598,12509,1,12509,1,0.00051107,-4.221e-11,0,0.00070211,7.9808e-05,1.7638e+08,-13.509,0,2.5797e+08,18.96,12508,527.81,0,527.81,0,0.00054029,1.3438e-09,0,0.00027186,0.0001012,1.992e+08,429.3,0,9.8379e+07,40.482,527.81,1
1820,3.29,12054,1,12054,1,4.3264e-05,-7.3039e-10,0,0.00047021,-7.894e-06,49.565,-234.17,0,1.7365e+08,-9.5775,12053,12991,1,12991,1,0.00094878,4.7827e-09,0,0.00094878,0.00016175,3.0962e+08,1509.4,0,3.5071e+08,151.24,12990,12054,1,12054,1,4.3264e-05,-3.6618e-10,0,0.00046952,-7.8755e-06,1.5723e+07,-113.62,0,1.7664e+08,-17.703,12053,11097,1,11097,1,-0.00086225,-5.2888e-09,0,9.7262e-06,-0.0001775,-3.5071e+08,-1650,0,3.3849e+06,-200.67,11096,11599,1,11599,1,-0.00042626,-2.3953e-09,0,0.00023476,-9.5842e-05,-1.7337e+08,-763.9,0,8.8484e+07,-62.111,11598,12509,1,12509,1,0.00051279,5.8393e-10,0,0.00070428,8.0029e-05,1.769e+08,180,0,2.586e+08,43.228,12508,527.81,0,527.81,0,0.00054196,2.2228e-09,0,0.0002727,0.00010151,1.9975e+08,709.14,0,9.8632e+07,67.988,527.81,1
1820,3.3,12054,1,12054,1,4.3535e-05,-1.0248e-09,0,0.00047169,-7.9438e-06,21.57,-327.41,0,1.7414e+08,-25.016,12053,12991,1,12991,1,0.00095188,3.6165e-09,0,0.00095188,0.00016223,3.1034e+08,1143,0,3.5175e+08,121.51,12990,12054,1,12054,1,4.3535e-05,-7.4705e-10,0,0.00047098,-7.9253e-06,1.5823e+07,-234.61,0,1.7716e+08,-25.697,12053,11097,1,11097,1,-0.00086481,-5.1177e-09,0,9.8931e-06,-0.00017808,-3.5175e+08,-1602.3,0,3.4481e+06,-174.39,11096,11599,1,11599,1,-0.00042745,-2.6574e-09,0,0.00023549,-9.6165e-05,-1.7385e+08,-834.21,0,8.8757e+07,-74.533,11598,12509,1,12509,1,0.00051452,4.3123e-10,0,0.00070648,8.0253e-05,1.7743e+08,129.62,0,2.5924e+08,27.533,12508,527.81,0,527.81,0,0.00054365,1.9976e-09,0,0.00027356,0.00010183,2.003e+08,639.37,0,9.8889e+07,65.86,527.81,1
1820,3.31,12054,1,12054,1,4.3809e-05,-1.6943e-09,0,0.00047316,-7.994e-06,129.85,-540.26,0,1.7463e+08,-31.135,12053,12991,1,12991,1,0.00095497,3.0981e-09,0,0.00095497,0.00016271,3.1105e+08,988.65,0,3.5278e+08,129.43,12990,12054,1,12054,1,4.3809e-05,-1.213e-09,0,0.00047244,-7.9754e-06,1.5925e+07,-383.32,0,1.7767e+08,-34.155,12053,11097,1,11097,1,-0.00086735,-6.848e-09,0,1.0063e-05,-0.00017866,-3.5278e+08,-2144,0,3.5124e+06,-202.19,11096,11599,1,11599,1,-0.00042863,-3.6202e-09,0,0.00023622,-9.6489e-05,-1.7434e+08,-1145.2,0,8.9028e+07,-87.861,11598,12509,1,12509,1,0.00051625,1.8924e-10,0,0.00070867,8.0475e-05,1.7795e+08,56.913,0,2.5987e+08,30.016,12508,527.81,0,527.81,0,0.00054533,2.3915e-09,0,0.00027441,0.00010214,2.0085e+08,765.56,0,9.9144e+07,73.318,527.81,1
1820,3.32,12054,1,12054,1,4.4084e-05,-1.7015e-09,0,0.00047463,-8.0444e-06,119.89,-543.48,0,1.7511e+08,-26.092,12053,12991,1,12991,1,0.00095806,4.434e-09,0,0.00095806,0.00016318,3.1175e+08,1405.8,0,3.5381e+08,167.64,12990,12054,1,12054,1,4.4084e-05,-1.1496e-09,0,0.0004739,-8.0256e-06,1.6026e+07,-354.59,0,1.7819e+08,-33.694,12053,11097,1,11097,1,-0.00086988,-7.7388e-09,0,1.0233e-05,-0.00017923,-3.5381e+08,-2423.9,0,3.5769e+06,-229.89,11096,11599,1,11599,1,-0.00042981,-3.8908e-09,0,0.00023695,-9.6811e-05,-1.7482e+08,-1249.7,0,8.9299e+07,-92.643,11598,12509,1,12509,1,0.00051798,3.6173e-10,0,0.00071085,8.0697e-05,1.7848e+08,106.86,0,2.605e+08,43.987,12508,527.81,0,527.81,0,0.00054701,2.8337e-09,0,0.00027526,0.00010246,2.014e+08,906.77,0,9.9397e+07,85.555,527.81,1
1820,3.33,12054,1,12054,1,4.4365e-05,-4.152e-10,0,0.0004761,-8.0958e-06,345.37,-134.33,0,1.756e+08,4.7594,12053,12991,1,12991,1,0.00096115,4.6733e-09,0,0.00096115,0.00016366,3.1245e+08,1496.7,0,3.5484e+08,163.7,12990,12054,1,12054,1,4.4365e-05,-9.4174e-11,0,0.00047536,-8.0768e-06,1.613e+07,-27.513,0,1.787e+08,-0.051952,12053,11097,1,11097,1,-0.00087241,-5.3264e-09,0,1.041e-05,-0.00017981,-3.5484e+08,-1670.5,0,3.644e+06,-137.14,11096,11599,1,11599,1,-0.00043099,-1.7525e-09,0,0.00023768,-9.7136e-05,-1.753e+08,-562.59,0,8.957e+07,-37.266,11598,12509,1,12509,1,0.00051973,7.4349e-10,0,0.00071304,8.0919e-05,1.79e+08,233.04,0,2.6113e+08,47.449,12508,527.81,0,527.81,0,0.0005487,2.0267e-09,0,0.00027612,0.00010277,2.0194e+08,648.04,0,9.9651e+07,61.089,527.81,1
1820,3.34,12054,1,12054,1,4.4663e-05,-1.9603e-09,0,0.0004776,-8.1505e-06,223.79,-621.65,0,1.7608e+08,-17.42,12053,12991,1,12991,1,0.00096431,9.3874e-10,0,0.00096431,0.00016414,3.1316e+08,312.38,0,3.5588e+08,84.895,12990,12054,1,12054,1,4.4662e-05,-1.998e-09,0,0.00047684,-8.1314e-06,1.624e+07,-626.33,0,1.7922e+08,-7.1717,12053,11097,1,11097,1,-0.00087498,-4.4838e-09,0,1.0602e-05,-0.0001804,-3.5588e+08,-1382.4,0,3.7168e+06,-181.01,11096,11599,1,11599,1,-0.00043218,-3.2785e-09,0,0.00023842,-9.7467e-05,-1.7578e+08,-1057,0,8.9841e+07,-37.338,11598,12509,1,12509,1,0.0005215,-8.1303e-10,0,0.00071526,8.1141e-05,1.7952e+08,-244.82,0,2.6176e+08,11.134,12508,527.81,0,527.81,0,0.00055041,1.4848e-09,0,0.00027698,0.00010309,2.0249e+08,472.48,0,9.9905e+07,44.818,527.81,1
1820,3.35,12054,1,12054,1,4.4963e-05,-1.2104e-09,0,0.00047907,-8.2054e-06,-37.747,-386.77,0,1.7656e+08,29.914,12053,12991,1,12991,1,0.00096743,2.9076e-09,0,0.00096743,0.00016461,3.1384e+08,921.38,0,3.5691e+08,194.25,12990,12054,1,12054,1,4.4962e-05,-8.3037e-10,0,0.00047831,-8.1862e-06,1.6351e+07,-268.65,0,1.7972e+08,23.231,12053,11097,1,11097,1,-0.0008775,-5.9632e-09,0,1.0797e-05,-0.00018098,-3.5691e+08,-1856.2,0,3.7907e+06,-158.03,11096,11599,1,11599,1,-0.00043334,-2.7925e-09,0,0.00023915,-9.7796e-05,-1.7625e+08,-893.3,0,9.011e+07,-19.147,11598,12509,1,12509,1,0.00052327,4.1346e-10,0,0.00071746,8.136e-05,1.8003e+08,124.44,0,2.6237e+08,78.263,12508,527.81,0,527.81,0,0.0005521,2.0993e-09,0,0.00027784,0.00010341,2.0303e+08,667.36,0,1.0015e+08,70.059,527.81,1
1820,3.36,12054,1,12054,1,4.5263e-05,-1.5119e-09,0,0.00048054,-8.2605e-06,236.6,-481.68,0,1.7704e+08,27.603,12053,12991,1,12991,1,0.00097054,4.1694e-09,0,0.00097054,0.00016508,3.1452e+08,1332,0,3.5793e+08,192.34,12990,12054,1,12054,1,4.5263e-05,-9.356e-10,0,0.00047976,-8.2412e-06,1.6462e+07,-279.45,0,1.8023e+08,19.49,12053,11097,1,11097,1,-0.00088,-7.7351e-09,0,1.0994e-05,-0.00018156,-3.5793e+08,-2413.8,0,3.8655e+06,-151.79,11096,11599,1,11599,1,-0.00043449,-3.4792e-09,0,0.00023988,-9.8123e-05,-1.7672e+08,-1107.5,0,9.0376e+07,-28.921,11598,12509,1,12509,1,0.00052502,3.2132e-10,0,0.00071964,8.1576e-05,1.8054e+08,101.37,0,2.6298e+08,92.861,12508,527.81,0,527.81,0,0.00055377,2.6774e-09,0,0.00027869,0.00010372,2.0357e+08,852.97,0,1.004e+08,79.842,527.81,1
1820,3.37,12054,1,12054,1,4.5565e-05,-2.6912e-10,0,0.00048203,-8.3159e-06,246.76,-88.555,0,1.7752e+08,6.948,12053,12991,1,12991,1,0.00097367,4.7374e-09,0,0.00097367,0.00016556,3.152e+08,1525.6,0,3.5896e+08,165.62,12990,12054,1,12054,1,4.5565e-05,7.4349e-11,0,0.00048123,-8.2964e-06,1.6574e+07,20.775,0,1.8073e+08,1.7091,12053,11097,1,11097,1,-0.00088253,-5.5175e-09,0,1.1191e-05,-0.00018214,-3.5896e+08,-1734.8,0,3.94e+06,-139.83,11096,11599,1,11599,1,-0.00043566,-1.6057e-09,0,0.00024062,-9.8454e-05,-1.7719e+08,-503.36,0,9.0645e+07,-39.371,11598,12509,1,12509,1,0.0005268,9.1761e-10,0,0.00072185,8.1796e-05,1.8106e+08,288.89,0,2.636e+08,52.088,12508,527.81,0,527.81,0,0.00055547,2.0703e-09,0,0.00027955,0.00010404,2.0411e+08,662,0,1.0065e+08,63.666,527.81,1
1820,3.38,12054,1,12054,1,4.5872e-05,4.2283e-10,0,0.00048354,-8.3723e-06,-19.931,130.67,0,1.7801e+08,-20.001,12053,12991,1,12991,1,0.00097684,1.1836e-09,0,0.00097684,0.00016604,3.159e+08,344.92,0,3.6e+08,12.108,12990,12054,1,12054,1,4.5872e-05,4.24e-10,0,0.00048272,-8.3527e-06,1.6688e+07,136.2,0,1.8125e+08,-19.237,12053,11097,1,11097,1,-0.0008851,-1.0166e-10,0,1.1391e-05,-0.00018274,-3.6e+08,-34.817,0,4.016e+06,-95.905,11096,11599,1,11599,1,-0.00043685,1.7029e-10,0,0.00024136,-9.8789e-05,-1.7768e+08,55.332,0,9.0919e+07,-32.877,11598,12509,1,12509,1,0.0005286,6.0799e-10,0,0.00072409,8.2019e-05,1.8159e+08,191.1,0,2.6422e+08,-5.4594,12508,527.81,0,527.81,0,0.0005572,3.0688e-10,0,0.00028043,0.00010436,2.0466e+08,91.13,0,1.0091e+08,16.5,527.81,1
1820,3.39,12054,1,12054,1,4.6179e-05,-2.8185e-10,0,0.00048499,-8.4284e-06,117.57,-87.919,0,1.7848e+08,31.387,12053,12991,1,12991,1,0.00097994,4.0267e-09,0,0.00097994,0.0001665,3.1656e+08,1277.5,0,3.6101e+08,170.14,12990,12054,1,12054,1,4.6178e-05,2.6586e-11,0,0.00048417,-8.4086e-06,1.6801e+07,9.1098,0,1.8175e+08,22.525,12053,11097,1,11097,1,-0.00088759,-4.8586e-09,0,1.1595e-05,-0.00018331,-3.6101e+08,-1502.9,0,4.0934e+06,-92.791,11096,11599,1,11599,1,-0.00043799,-1.5586e-09,0,0.00024208,-9.9115e-05,-1.7814e+08,-483.45,0,9.1184e+07,-14.921,11598,12509,1,12509,1,0.00053035,8.72e-10,0,0.00072625,8.2232e-05,1.8209e+08,271.56,0,2.6482e+08,77.54,12508,527.81,0,527.81,0,0.00055886,1.893e-09,0,0.00028127,0.00010467,2.0519e+08,599.5,0,1.0115e+08,59.817,527.81,1
1820,3.4,12054,1,12054,1,4.6484e-05,-6.2649e-10,0,0.00048648,-8.4845e-06,89.597,-199.22,0,1.7896e+08,1.4391,12053,12991,1,12991,1,0.00098309,2.0619e-09,0,0.00098309,0.00016698,3.1724e+08,679.33,0,3.6204e+08,78.026,12990,12054,1,12054,1,4.6484e-05,-4.0896e-10,0,0.00048564,-8.4646e-06,1.6914e+07,-125.97,0,1.8226e+08,-0.006972,12053,11097,1,11097,1,-0.00089012,-3.4807e-09,0,1.1795e-05,-0.0001839,-3.6204e+08,-1095.7,0,4.1692e+06,-86.522,11096,11599,1,11599,1,-0.00043916,-1.4639e-09,0,0.00024282,-9.9447e-05,-1.7862e+08,-462.38,0,9.1453e+07,-22.843,11598,12509,1,12509,1,0.00053213,1.6842e-10,0,0.00072846,8.2452e-05,1.8261e+08,51.674,0,2.6543e+08,28.857,12508,527.81,0,527.81,0,0.00056056,1.1732e-09,0,0.00028213,0.00010499,2.0573e+08,375.76,0,1.014e+08,34.112,527.81,1
1820,3.41,12054,1,12054,1,4.6793e-05,-9.7357e-10,0,0.00048795,-8.5411e-06,216.98,-308.86,0,1.7943e+08,9.5671,12053,12991,1,12991,1,0.00098622,4.3278e-09,0,0.00098622,0.00016745,3.1791e+08,1390.8,0,3.6306e+08,164.33,12990,12054,1,12054,1,4.6792e-05,-8.0877e-10,0,0.0004871,-8.5211e-06,1.7028e+07,-256.06,0,1.8276e+08,7.9939,12053,11097,1,11097,1,-0.00089263,-5.423e-09,0,1.1999e-05,-0.00018448,-3.6306e+08,-1689.7,0,4.2467e+06,-186.3,11096,11599,1,11599,1,-0.00044031,-2.4707e-09,0,0.00024355,-9.9776e-05,-1.7908e+08,-798.73,0,9.172e+07,-26.42,11598,12509,1,12509,1,0.00053389,3.2736e-10,0,0.00073065,8.2667e-05,1.8312e+08,99.206,0,2.6603e+08,55.972,12508,527.81,0,527.81,0,0.00056225,2.0058e-09,0,0.00028299,0.0001053,2.0626e+08,637.88,0,1.0164e+08,62.319,527.81,1
1820,3.42,12054,1,12054,1,4.7102e-05,-1.0151e-09,0,0.00048944,-8.5979e-06,62.852,-322.53,0,1.7991e+08,-0.78961,12053,12991,1,12991,1,0.00098936,3.8087e-09,0,0.00098936,0.00016793,3.1859e+08,1265.6,0,3.6409e+08,178.23,12990,12054,1,12054,1,4.7101e-05,-1.0394e-09,0,0.00048857,-8.5776e-06,1.7142e+07,-338.19,0,1.8327e+08,10.296,12053,11097,1,11097,1,-0.00089516,-3.9622e-09,0,1.2203e-05,-0.00018507,-3.6409e+08,-1212.2,0,4.3239e+06,-276.37,11096,11599,1,11599,1,-0.00044147,-2.6201e-09,0,0.00024428,-0.00010011,-1.7955e+08,-825.94,0,9.1988e+07,-20.586,11598,12509,1,12509,1,0.00053567,4.5394e-10,0,0.00073285,8.2885e-05,1.8363e+08,145.4,0,2.6664e+08,34.366,12508,527.81,0,527.81,0,0.00056394,1.7861e-09,0,0.00028385,0.00010562,2.068e+08,567.62,0,1.0189e+08,68.287,527.81,1
1820,3.43,12054,1,12054,1,4.7415e-05,-3.7899e-10,0,0.00049093,-8.6553e-06,149.99,-123.52,0,1.8039e+08,-0.018705,12053,12991,1,12991,1,0.00099251,3.2127e-09,0,0.00099251,0.0001684,3.1925e+08,1047.6,0,3.6512e+08,106.42,12990,12054,1,12054,1,4.7415e-05,-1.8915e-10,0,0.00049004,-8.635e-06,1.7258e+07,-60.228,0,1.8377e+08,8.2185,12053,11097,1,11097,1,-0.00089768,-3.5431e-09,0,1.2411e-05,-0.00018566,-3.6512e+08,-1116.7,0,4.4027e+06,-161.81,11096,11599,1,11599,1,-0.00044263,-1.3532e-09,0,0.00024502,-0.00010044,-1.8003e+08,-426.94,0,9.2258e+07,-19.612,11598,12509,1,12509,1,0.00053746,4.6182e-10,0,0.00073506,8.3103e-05,1.8415e+08,132.62,0,2.6725e+08,32.599,12508,527.81,0,527.81,0,0.00056564,1.3469e-09,0,0.00028471,0.00010594,2.0734e+08,430.34,0,1.0214e+08,51.379,527.81,1
1820,3.44,12054,1,12054,1,4.7729e-05,-1.1215e-09,0,0.00049242,-8.713e-06,102.29,-356.11,0,1.8086e+08,-4.2769,12053,12991,1,12991,1,0.00099567,1.0492e-09,0,0.00099567,0.00016887,3.1993e+08,359.35,0,3.6615e+08,108.56,12990,12054,1,12054,1,4.7729e-05,-9.8315e-10,0,0.00049152,-8.6927e-06,1.7374e+07,-303.52,0,1.8428e+08,-3.0985,12053,11097,1,11097,1,-0.00090021,-3.6781e-09,0,1.262e-05,-0.00018625,-3.6615e+08,-1150.7,0,4.4821e+06,-129.87,11096,11599,1,11599,1,-0.00044379,-2.0439e-09,0,0.00024576,-0.00010077,-1.805e+08,-651.19,0,9.2527e+07,-30.995,11598,12509,1,12509,1,0.00053925,-1.235e-10,0,0.00073727,8.3321e-05,1.8466e+08,-36.959,0,2.6785e+08,22.034,12508,527.81,0,527.81,0,0.00056735,1.1795e-09,0,0.00028558,0.00010626,2.0788e+08,376.02,0,1.0239e+08,45.274,527.81,1
1820,3.45,12054,1,12054,1,4.8046e-05,8.7722e-11,0,0.00049391,-8.7711e-06,39.1,23.647,0,1.8134e+08,2.8211,12053,12991,1,12991,1,0.00099882,2.0197e-09,0,0.00099882,0.00016935,3.2059e+08,657.9,0,3.6717e+08,88.373,12990,12054,1,12054,1,4.8046e-05,6.7388e-11,0,0.00049299,-8.7505e-06,1.7492e+07,19.568,0,1.8479e+08,4.383,12053,11097,1,11097,1,-0.00090273,-2.3573e-09,0,1.2831e-05,-0.00018683,-3.6717e+08,-748.41,0,4.562e+06,-118.57,11096,11599,1,11599,1,-0.00044495,-4.159e-10,0,0.0002465,-0.00010111,-1.8097e+08,-136.26,0,9.2798e+07,-22.69,11598,12509,1,12509,1,0.00054104,7.8851e-10,0,0.00073949,8.3539e-05,1.8517e+08,244.83,0,2.6846e+08,26.949,12508,527.81,0,527.81,0,0.00056905,9.5572e-10,0,0.00028644,0.00010658,2.0842e+08,304.46,0,1.0264e+08,33.222,527.81,1
1820,3.46,12054,1,12054,1,4.8363e-05,-1.2107e-09,0,0.00049538,-8.8293e-06,128.53,-381.61,0,1.8181e+08,5.3314,12053,12991,1,12991,1,0.001002,1.3753e-09,0,0.001002,0.00016982,3.2125e+08,461.2,0,3.6819e+08,90.182,12990,12054,1,12054,1,4.8363e-05,-1.0767e-09,0,0.00049445,-8.8087e-06,1.7609e+07,-350.86,0,1.8529e+08,7.0245,12053,11097,1,11097,1,-0.00090524,-3.9587e-09,0,1.3045e-05,-0.00018742,-3.6819e+08,-1228.9,0,4.6428e+06,-130.94,11096,11599,1,11599,1,-0.00044609,-2.3893e-09,0,0.00024723,-0.00010144,-1.8144e+08,-754.2,0,9.3064e+07,-18.664,11598,12509,1,12509,1,0.00054282,2.4683e-11,0,0.00074168,8.3754e-05,1.8568e+08,6.8177,0,2.6905e+08,39.041,12508,527.81,0,527.81,0,0.00057074,1.3909e-09,0,0.0002873,0.00010689,2.0895e+08,440.48,0,1.0288e+08,43.908,527.81,1
1820,3.47,12054,1,12054,1,4.8681e-05,-9.8568e-10,0,0.00049688,-8.8876e-06,64.317,-314.26,0,1.8229e+08,-12.77,12053,12991,1,12991,1,0.0010051,4.1434e-10,0,0.0010051,0.00017029,3.2191e+08,134.48,0,3.6922e+08,57.771,12990,12054,1,12054,1,4.8681e-05,-1.1261e-09,0,0.00049593,-8.8669e-06,1.7727e+07,-356.15,0,1.858e+08,-5.1638,12053,11097,1,11097,1,-0.00090776,-2.2171e-09,0,1.3257e-05,-0.00018801,-3.6922e+08,-671.6,0,4.7232e+06,-109.79,11096,11599,1,11599,1,-0.00044725,-1.5563e-09,0,0.00024796,-0.00010177,-1.8191e+08,-497.7,0,9.3366e+07,-28.516,11598,12509,1,12509,1,0.00054461,-4.2411e-10,0,0.00074389,8.3971e-05,1.862e+08,-123.04,0,2.6965e+08,3.9137,12508,527.81,0,527.81,0,0.00057244,6.7767e-10,0,0.00028816,0.00010721,2.0948e+08,217.58,0,1.0313e+08,29.009,527.81,1
1820,3.48,12054,1,12054,1,4.9008e-05,4.5753e-11,0,0.00049835,-8.9477e-06,-8.5021,10.337,0,1.8276e+08,-17.748,12053,12991,1,12991,1,0.0010083,2.0634e-09,0,0.0010083,0.00017076,3.2256e+08,627.26,0,3.7023e+08,113.16,12990,12054,1,12054,1,4.9008e-05,2.9045e-10,0,0.00049739,-8.927e-06,1.7848e+07,89.056,0,1.8629e+08,-12.21,12053,11097,1,11097,1,-0.00091026,-3.1951e-09,0,1.348e-05,-0.0001886,-3.7023e+08,-1003.4,0,4.8077e+06,-142.43,11096,11599,1,11599,1,-0.00044838,-6.8677e-10,0,0.0002487,-0.00010211,-1.8237e+08,-214.65,0,9.37e+07,-59.078,11598,12509,1,12509,1,0.0005464,1.0165e-09,0,0.00074609,8.4184e-05,1.867e+08,319.17,0,2.7024e+08,18.574,12508,527.81,0,527.81,0,0.00057413,1.2894e-09,0,0.00028902,0.00010753,2.1001e+08,409.14,0,1.0337e+08,54.473,527.81,1
1820,3.49,12054,1,12054,1,4.9349e-05,-2.5613e-09,0,0.00049986,-9.0102e-06,-78.827,-811.18,0,1.8323e+08,-24.782,12053,12991,1,12991,1,0.0010115,1.1837e-09,0,0.0010115,0.00017124,3.2321e+08,400.77,0,3.7127e+08,186.38,12990,12054,1,12054,1,4.9348e-05,-2.6287e-09,0,0.00049888,-8.9895e-06,1.7974e+07,-823.28,0,1.8679e+08,-16.037,12053,11097,1,11097,1,-0.0009128,-5.9867e-09,0,1.3714e-05,-0.0001892,-3.7127e+08,-1871,0,4.8966e+06,-289.87,11096,11599,1,11599,1,-0.00044953,-4.0525e-09,0,0.00024944,-0.00010245,-1.8283e+08,-1280.6,0,9.4036e+07,-66.633,11598,12509,1,12509,1,0.00054823,-1.1875e-09,0,0.00074832,8.4399e-05,1.8721e+08,-376.42,0,2.7083e+08,28.475,12508,527.81,0,527.81,0,0.00057585,1.8425e-09,0,0.0002899,0.00010785,2.1054e+08,587.17,0,1.0361e+08,88.112,527.81,1
1820,3.5,12054,1,12054,1,4.9691e-05,1.6157e-10,0,0.00050133,-9.0729e-06,-58.381,43.262,0,1.8369e+08,9.7991,12053,12991,1,12991,1,0.0010146,6.5538e-09,0,0.0010146,0.00017169,3.2383e+08,2023.3,0,3.7226e+08,179.9,12990,12054,1,12054,1,4.9691e-05,2.0581e-10,0,0.00050033,-9.0519e-06,1.8101e+07,62.686,0,1.8728e+08,2.7889,12053,11097,1,11097,1,-0.00091524,-4.9754e-09,0,1.3952e-05,-0.00018978,-3.7226e+08,-1564,0,4.9868e+06,-165.15,11096,11599,1,11599,1,-0.00045064,-1.3421e-09,0,0.00025017,-0.00010278,-1.8329e+08,-424.86,0,9.4368e+07,-44.523,11598,12509,1,12509,1,0.00055002,1.4939e-09,0,0.0007505,8.4608e-05,1.877e+08,459.87,0,2.7139e+08,63.721,12508,527.81,0,527.81,0,0.00057752,2.3438e-09,0,0.00029075,0.00010816,2.1106e+08,744.31,0,1.0385e+08,71.301,527.81,1
1820,3.51,12054,1,12054,1,5.0035e-05,-2.2768e-09,0,0.00050284,-9.1362e-06,-58.682,-722.27,0,1.8416e+08,-50.198,12053,12991,1,12991,1,0.0010179,1.1598e-09,0,0.0010179,0.00017217,3.2449e+08,397.22,0,3.733e+08,133.27,12990,12054,1,12054,1,5.0035e-05,-2.6713e-09,0,0.00050182,-9.1153e-06,1.8228e+07,-854.92,0,1.8778e+08,-33.034,12053,11097,1,11097,1,-0.00091779,-4.5641e-09,0,1.4191e-05,-0.00019038,-3.733e+08,-1439.3,0,5.0772e+06,-299.29,11096,11599,1,11599,1,-0.00045179,-3.6512e-09,0,0.00025091,-0.00010312,-1.8375e+08,-1168.7,0,9.4706e+07,-101.2,11598,12509,1,12509,1,0.00055186,-1.0652e-09,0,0.00075273,8.4823e-05,1.8821e+08,-331.83,0,2.7198e+08,8.9606,12508,527.81,0,527.81,0,0.00057924,1.6265e-09,0,0.00029163,0.00010848,2.1159e+08,517.09,0,1.0409e+08,84.247,527.81,1
1820,3.52,12054,1,12054,1,5.0385e-05,-2.0579e-09,0,0.00050433,-9.2002e-06,-86.283,-657.63,0,1.8463e+08,-20.563,12053,12991,1,12991,1,0.0010211,1.2226e-09,0,0.0010211,0.00017264,3.2512e+08,418.72,0,3.7431e+08,165.75,12990,12054,1,12054,1,5.0384e-05,-2.0997e-09,0,0.0005033,-9.1793e-06,1.8357e+07,-665.41,0,1.8828e+08,-14.828,12053,11097,1,11097,1,-0.00092029,-5.2166e-09,0,1.4433e-05,-0.00019098,-3.7431e+08,-1645.2,0,5.1689e+06,-214.86,11096,11599,1,11599,1,-0.00045291,-3.4577e-09,0,0.00025165,-0.00010346,-1.8421e+08,-1111.9,0,9.5044e+07,-65.938,11598,12509,1,12509,1,0.00055368,-7.3835e-10,0,0.00075495,8.5035e-05,1.8871e+08,-225.14,0,2.7256e+08,26.903,12508,527.81,0,527.81,0,0.00058095,1.6594e-09,0,0.00029249,0.0001088,2.1211e+08,533.03,0,1.0433e+08,75.753,527.81,1
1820,3.53,12054,1,12054,1,5.0734e-05,-3.0347e-09,0,0.00050582,-9.2643e-06,-90.474,-966.35,0,1.8509e+08,-28.688,12053,12991,1,12991,1,0.0010243,1.2472e-09,0,0.0010243,0.00017311,3.2575e+08,399.7,0,3.7533e+08,199.28,12990,12054,1,12054,1,5.0733e-05,-3.2003e-09,0,0.00050477,-9.2433e-06,1.8486e+07,-1011.9,0,1.8877e+08,-20.535,12053,11097,1,11097,1,-0.00092279,-6.9042e-09,0,1.4676e-05,-0.00019158,-3.7533e+08,-2172.6,0,5.2611e+06,-255.16,11096,11599,1,11599,1,-0.00045404,-4.7721e-09,0,0.00025239,-0.0001038,-1.8467e+08,-1528.2,0,9.538e+07,-83.004,11598,12509,1,12509,1,0.00055551,-1.4295e-09,0,0.00075716,8.5246e-05,1.8921e+08,-419.3,0,2.7313e+08,24.29,12508,527.81,0,527.81,0,0.00058265,2.1189e-09,0,0.00029336,0.00010912,2.1263e+08,682.2,0,1.0457e+08,88.835,527.81,1
1820,3.54,12054,1,12054,1,5.1083e-05,-3.3639e-09,0,0.0005073,-9.3284e-06,218.8,-1072.4,0,1.8555e+08,-17.083,12053,12991,1,12991,1,0.0010274,2.0731e-09,0,0.0010274,0.00017357,3.2637e+08,710.02,0,3.7634e+08,364.41,12990,12054,1,12054,1,5.1083e-05,-2.883e-09,0,0.00050623,-9.3075e-06,1.8615e+07,-916.03,0,1.8926e+08,-24.633,12053,11097,1,11097,1,-0.00092527,-1.0954e-08,0,1.4922e-05,-0.00019217,-3.7634e+08,-3435.6,0,5.354e+06,-319.99,11096,11599,1,11599,1,-0.00045515,-6.0652e-09,0,0.00025312,-0.00010414,-1.8512e+08,-1936.8,0,9.5716e+07,-99.2,11598,12509,1,12509,1,0.00055732,-3.3291e-10,0,0.00075936,8.5455e-05,1.8971e+08,-108.76,0,2.737e+08,54.606,12508,527.81,0,527.81,0,0.00058433,3.3622e-09,0,0.00029422,0.00010943,2.1315e+08,1074.3,0,1.048e+08,128.72,527.81,1
1820,3.55,12054,1,12054,1,5.1433e-05,-3.9195e-09,0,0.00050879,-9.3928e-06,-101.9,-1249.7,0,1.8602e+08,-47.522,12053,12991,1,12991,1,0.0010306,1.9924e-09,0,0.0010306,0.00017404,3.27e+08,636.19,0,3.7736e+08,266.85,12990,12054,1,12054,1,5.1433e-05,-3.9446e-09,0,0.00050771,-9.3718e-06,1.8745e+07,-1237.8,0,1.8975e+08,-40.782,12053,11097,1,11097,1,-0.00092777,-9.7096e-09,0,1.5166e-05,-0.00019277,-3.7736e+08,-3069.9,0,5.4465e+06,-463.35,11096,11599,1,11599,1,-0.00045628,-6.7049e-09,0,0.00025386,-0.00010448,-1.8558e+08,-2147.1,0,9.6053e+07,-137.96,11598,12509,1,12509,1,0.00055915,-1.1766e-09,0,0.00076157,8.5666e-05,1.9021e+08,-375.61,0,2.7428e+08,51.2,12508,527.81,0,527.81,0,0.00058604,3.1854e-09,0,0.00029509,0.00010975,2.1367e+08,1023.6,0,1.0504e+08,136.04,527.81,1
1820,3.56,12054,1,12054,1,5.1788e-05,-9.4459e-10,0,0.00051028,-9.4577e-06,-35.605,-313.39,0,1.8648e+08,-18.912,12053,12991,1,12991,1,0.0010338,5.3367e-09,0,0.0010338,0.00017451,3.2761e+08,1650.5,0,3.7836e+08,187.3,12990,12054,1,12054,1,5.1788e-05,-5.9765e-10,0,0.00050918,-9.4367e-06,1.8876e+07,-187.13,0,1.9025e+08,-8.2439,12053,11097,1,11097,1,-0.00093024,-6.3849e-09,0,1.5415e-05,-0.00019336,-3.7836e+08,-2020.6,0,5.5407e+06,-288.34,11096,11599,1,11599,1,-0.0004574,-2.8011e-09,0,0.0002546,-0.00010482,-1.8603e+08,-896.64,0,9.6392e+07,-75.231,11598,12509,1,12509,1,0.00056098,7.7782e-10,0,0.00076378,8.5877e-05,1.9071e+08,223.08,0,2.7484e+08,38.055,12508,527.81,0,527.81,0,0.00058774,2.4808e-09,0,0.00029595,0.00011007,2.1419e+08,792.67,0,1.0528e+08,91.248,527.81,1
1820,3.57,12054,1,12054,1,5.2145e-05,-3.035e-09,0,0.00051178,-9.5233e-06,21.872,-965.42,0,1.8695e+08,-53.248,12053,12991,1,12991,1,0.001037,1.6998e-09,0,0.001037,0.00017498,3.2824e+08,566.38,0,3.7938e+08,188.47,12990,12054,1,12054,1,5.2145e-05,-3.1188e-09,0,0.00051067,-9.5023e-06,1.9008e+07,-962.25,0,1.9074e+08,-45.574,12053,11097,1,11097,1,-0.00093275,-7.8582e-09,0,1.5667e-05,-0.00019396,-3.7938e+08,-2477.5,0,5.6362e+06,-275.24,11096,11599,1,11599,1,-0.00045852,-4.7612e-09,0,0.00025534,-0.00010516,-1.8649e+08,-1508.2,0,9.6732e+07,-121.04,11598,12509,1,12509,1,0.00056281,-1.3414e-09,0,0.000766,8.6088e-05,1.9121e+08,-401.82,0,2.7541e+08,12.293,12508,527.81,0,527.81,0,0.00058945,2.2753e-09,0,0.00029683,0.00011039,2.1471e+08,731.61,0,1.0552e+08,98.429,527.81,1
1820,3.58,12054,1,12054,1,5.2505e-05,-3.0611e-09,0,0.00051329,-9.5893e-06,-34.837,-976.67,0,1.8741e+08,-27.593,12053,12991,1,12991,1,0.0010403,1.3243e-09,0,0.0010403,0.00017545,3.2886e+08,395.11,0,3.804e+08,187.15,12990,12054,1,12054,1,5.2504e-05,-3.0151e-09,0,0.00051216,-9.5682e-06,1.9141e+07,-938.07,0,1.9124e+08,-22.367,12053,11097,1,11097,1,-0.00093526,-7.4779e-09,0,1.592e-05,-0.00019456,-3.804e+08,-2367.4,0,5.7318e+06,-250.65,11096,11599,1,11599,1,-0.00045965,-4.9179e-09,0,0.00025608,-0.00010551,-1.8695e+08,-1569,0,9.7074e+07,-82.297,11598,12509,1,12509,1,0.00056466,-1.3466e-09,0,0.00076824,8.63e-05,1.9171e+08,-406.87,0,2.7599e+08,23.586,12508,527.81,0,527.81,0,0.00059117,2.2586e-09,0,0.0002977,0.00011071,2.1524e+08,729.59,0,1.0576e+08,85.367,527.81,1
1820,3.59,12054,1,12054,1,5.2865e-05,-2.7338e-09,0,0.00051478,-9.6555e-06,-80.116,-873.24,0,1.8787e+08,-14.403,12053,12991,1,12991,1,0.0010435,1.1682e-09,0,0.0010435,0.00017591,3.2947e+08,375.4,0,3.8141e+08,159.05,12990,12054,1,12054,1,5.2865e-05,-2.7587e-09,0,0.00051362,-9.6343e-06,1.9275e+07,-868.45,0,1.9172e+08,-9.3021,12053,11097,1,11097,1,-0.00093773,-6.6054e-09,0,1.6175e-05,-0.00019515,-3.8141e+08,-2094,0,5.8284e+06,-200.99,11096,11599,1,11599,1,-0.00046076,-4.3304e-09,0,0.00025681,-0.00010585,-1.874e+08,-1383.5,0,9.7414e+07,-60.372,11598,12509,1,12509,1,0.00056649,-1.1729e-09,0,0.00077044,8.6508e-05,1.922e+08,-346.47,0,2.7655e+08,27.687,12508,527.81,0,527.81,0,0.00059287,1.9736e-09,0,0.00029857,0.00011103,2.1575e+08,639.1,0,1.0599e+08,67.301,527.81,1
1820,3.6,12054,1,12054,1,5.3226e-05,-2.3774e-09,0,0.00051627,-9.7217e-06,-30.936,-760.14,0,1.8833e+08,1.6674,12053,12991,1,12991,1,0.0010467,2.5603e-09,0,0.0010467,0.00017638,3.3008e+08,791.88,0,3.8242e+08,260.12,12990,12054,1,12054,1,5.3226e-05,-2.0188e-09,0,0.0005151,-9.7006e-06,1.9408e+07,-621.93,0,1.9222e+08,6.2381,12053,11097,1,11097,1,-0.00094022,-8.1771e-09,0,1.6431e-05,-0.00019575,-3.8242e+08,-2578.3,0,5.9252e+06,-237.23,11096,11599,1,11599,1,-0.00046188,-4.7394e-09,0,0.00025755,-0.00010619,-1.8786e+08,-1506.7,0,9.7755e+07,-68.395,11598,12509,1,12509,1,0.00056833,5.0562e-11,0,0.00077266,8.6718e-05,1.927e+08,16.528,0,2.7711e+08,65.487,12508,527.81,0,527.81,0,0.00059457,2.7522e-09,0,0.00029944,0.00011135,2.1627e+08,879.89,0,1.0623e+08,99.356,527.81,1
1820,3.61,12054,1,12054,1,5.3592e-05,-4.0112e-09,0,0.00051779,-9.7889e-06,-3.1378,-1274.1,0,1.888e+08,-43.607,12053,12991,1,12991,1,0.0010499,1.4481e-09,0,0.0010499,0.00017685,3.307e+08,430.92,0,3.8344e+08,138.98,12990,12054,1,12054,1,5.3591e-05,-4.3644e-09,0,0.00051659,-9.7677e-06,1.9543e+07,-1367.1,0,1.9271e+08,-23.266,12053,11097,1,11097,1,-0.00094273,-8.388e-09,0,1.669e-05,-0.00019636,-3.8344e+08,-2622.9,0,6.0231e+06,-367.08,11096,11599,1,11599,1,-0.000463,-6.3323e-09,0,0.0002583,-0.00010654,-1.8831e+08,-2019.6,0,9.8098e+07,-122.18,11598,12509,1,12509,1,0.00057018,-1.8563e-09,0,0.00077489,8.6929e-05,1.932e+08,-565.5,0,2.7768e+08,42.096,12508,527.81,0,527.81,0,0.0005963,2.6958e-09,0,0.00030032,0.00011167,2.1679e+08,864.63,0,1.0647e+08,109.18,527.81,1
1820,3.62,12054,1,12054,1,5.3958e-05,-1.9662e-09,0,0.00051927,-9.8559e-06,-56.136,-633.52,0,1.8925e+08,2.2127,12053,12991,1,12991,1,0.0010531,1.4501e-09,0,0.0010531,0.00017731,3.313e+08,427.02,0,3.8444e+08,210.99,12990,12054,1,12054,1,5.3957e-05,-1.6085e-09,0,0.00051806,-9.8349e-06,1.9679e+07,-506.11,0,1.932e+08,1.0194,12053,11097,1,11097,1,-0.00094518,-6.7488e-09,0,1.6951e-05,-0.00019695,-3.8444e+08,-2133.1,0,6.1214e+06,-171.42,11096,11599,1,11599,1,-0.0004641,-3.7428e-09,0,0.00025903,-0.00010688,-1.8876e+08,-1195,0,9.8439e+07,-48.251,11598,12509,1,12509,1,0.00057202,-9.4952e-11,0,0.00077709,8.7136e-05,1.937e+08,-27.108,0,2.7823e+08,41.616,12508,527.81,0,527.81,0,0.00059798,2.1696e-09,0,0.00030118,0.00011198,2.173e+08,695.57,0,1.067e+08,74.664,527.81,1
1820,3.63,12054,1,12054,1,5.4323e-05,-2.8626e-09,0,0.00052075,-9.9229e-06,13.458,-911.25,0,1.8971e+08,-10.295,12053,12991,1,12991,1,0.0010563,1.4399e-09,0,0.0010563,0.00017777,3.319e+08,445.42,0,3.8544e+08,207.91,12990,12054,1,12054,1,5.4323e-05,-2.4629e-09,0,0.00051953,-9.9019e-06,1.9814e+07,-762.65,0,1.9368e+08,-8.9174,12053,11097,1,11097,1,-0.00094765,-8.8709e-09,0,1.7212e-05,-0.00019755,-3.8544e+08,-2796.8,0,6.2201e+06,-218.95,11096,11599,1,11599,1,-0.00046521,-5.1883e-09,0,0.00025977,-0.00010722,-1.8921e+08,-1646.5,0,9.878e+07,-66.46,11598,12509,1,12509,1,0.00057385,-2.9025e-10,0,0.0007793,8.7343e-05,1.9419e+08,-98.221,0,2.7878e+08,41.733,12508,527.81,0,527.81,0,0.00059968,2.7935e-09,0,0.00030205,0.0001123,2.1782e+08,895.91,0,1.0693e+08,79.745,527.81,1
1820,3.64,12054,1,12054,1,5.4707e-05,-7.3255e-10,0,0.00052227,-9.9933e-06,30.431,-241.7,0,1.9017e+08,-7.3348,12053,12991,1,12991,1,0.0010596,9.3092e-10,0,0.0010596,0.00017824,3.325e+08,246.58,0,3.8646e+08,102.37,12990,12054,1,12054,1,5.4707e-05,-2.6741e-10,0,0.00052103,-9.9724e-06,1.9956e+07,-83.353,0,1.9417e+08,-9.0973,12053,11097,1,11097,1,-0.00095014,-3.6791e-09,0,1.7489e-05,-0.00019815,-3.8646e+08,-1202.4,0,6.3248e+06,-134.27,11096,11599,1,11599,1,-0.00046632,-1.4887e-09,0,0.00026052,-0.00010757,-1.8966e+08,-470.71,0,9.9123e+07,-34.936,11598,12509,1,12509,1,0.00057574,2.2477e-10,0,0.00078154,8.7553e-05,1.9469e+08,65.082,0,2.7934e+08,18.004,12508,527.81,0,527.81,0,0.00060141,1.1775e-09,0,0.00030293,0.00011262,2.1833e+08,382.51,0,1.0717e+08,39.899,527.81,1
1820,3.65,12054,1,12054,1,5.5099e-05,-1.2725e-09,0,0.00052378,-1.0065e-05,-72.867,-406.48,0,1.9062e+08,17.727,12053,12991,1,12991,1,0.0010628,2.686e-09,0,0.0010628,0.0001787,3.3309e+08,852.46,0,3.8746e+08,131.4,12990,12054,1,12054,1,5.5099e-05,-8.5677e-10,0,0.00052251,-1.0044e-05,2.0101e+07,-267.61,0,1.9466e+08,11.119,12053,11097,1,11097,1,-0.00095262,-5.5839e-09,0,1.7776e-05,-0.00019876,-3.8746e+08,-1763.2,0,6.4332e+06,-107.87,11096,11599,1,11599,1,-0.00046741,-2.7379e-09,0,0.00026126,-0.00010792,-1.9011e+08,-846.85,0,9.9463e+07,-22.749,11598,12509,1,12509,1,0.00057761,1.6934e-10,0,0.00078377,8.7758e-05,1.9517e+08,50.696,0,2.7988e+08,60.199,12508,527.81,0,527.81,0,0.00060312,1.924e-09,0,0.00030381,0.00011294,2.1884e+08,616.4,0,1.074e+08,52.729,527.81,1
1820,3.66,12054,1,12054,1,5.5491e-05,-1.6578e-09,0,0.00052527,-1.0137e-05,-33.199,-527.38,0,1.9107e+08,-13.97,12053,12991,1,12991,1,0.0010661,3.1569e-09,0,0.0010661,0.00017917,3.3367e+08,1016.4,0,3.8846e+08,122.16,12990,12054,1,12054,1,5.5492e-05,-1.3284e-09,0,0.00052399,-1.0117e-05,2.0246e+07,-410.2,0,1.9513e+08,-13.312,12053,11097,1,11097,1,-0.00095507,-6.1016e-09,0,1.8063e-05,-0.00019936,-3.8846e+08,-1929.3,0,6.5416e+06,-189.63,11096,11599,1,11599,1,-0.00046849,-3.4544e-09,0,0.00026199,-0.00010826,-1.9055e+08,-1080.7,0,9.9803e+07,-59.926,11598,12509,1,12509,1,0.00057948,5.3617e-11,0,0.00078598,8.7961e-05,1.9566e+08,15.514,0,2.8042e+08,34.585,12508,527.81,0,527.81,0,0.00060482,2.1528e-09,0,0.00030468,0.00011326,2.1934e+08,690.89,0,1.0763e+08,63.717,527.81,1
1820,3.67,12054,1,12054,1,5.5882e-05,-2.7077e-09,0,0.00052675,-1.0209e-05,-201.05,-859.07,0,1.9151e+08,41.812,12053,12991,1,12991,1,0.0010693,7.3097e-09,0,0.0010693,0.00017962,3.3424e+08,2272.7,0,3.8946e+08,389.84,12990,12054,1,12054,1,5.5882e-05,-1.3562e-09,0,0.00052545,-1.0188e-05,2.0391e+07,-413.82,0,1.9561e+08,25.26,12053,11097,1,11097,1,-0.00095752,-1.494e-08,0,1.8349e-05,-0.00019996,-3.8946e+08,-4686.7,0,6.6496e+06,-270.22,11096,11599,1,11599,1,-0.00046957,-6.324e-09,0,0.00026273,-0.00010861,-1.9098e+08,-2014,0,1.0014e+08,-68.226,11598,12509,1,12509,1,0.00058133,9.8579e-10,0,0.00078818,8.8162e-05,1.9614e+08,303.42,0,2.8095e+08,125.81,12508,527.81,0,527.81,0,0.00060651,5.1399e-09,0,0.00030554,0.00011357,2.1984e+08,1636,0,1.0785e+08,141.12,527.81,1
1820,3.68,12054,1,12054,1,5.6278e-05,-2.1728e-09,0,0.00052828,-1.0282e-05,-71.03,-695.03,0,1.9197e+08,-19.737,12053,12991,1,12991,1,0.0010726,2.1634e-09,0,0.0010726,0.00018009,3.3483e+08,740.71,0,3.9047e+08,123.25,12990,12054,1,12054,1,5.6279e-05,-1.7265e-09,0,0.00052695,-1.0262e-05,2.0538e+07,-537,0,1.961e+08,-13.279,12053,11097,1,11097,1,-0.00096001,-7.6514e-09,0,1.8637e-05,-0.00020058,-3.9047e+08,-2457.1,0,6.7584e+06,-229.98,11096,11599,1,11599,1,-0.00047067,-3.8922e-09,0,0.00026348,-0.00010896,-1.9143e+08,-1265.3,0,1.0049e+08,-64.674,11598,12509,1,12509,1,0.00058323,-9.9793e-11,0,0.00079043,8.837e-05,1.9663e+08,-30.645,0,2.815e+08,32.545,12508,527.81,0,527.81,0,0.00060825,2.4165e-09,0,0.00030643,0.0001139,2.2036e+08,784.91,0,1.0809e+08,73.582,527.81,1
1820,3.69,12054,1,12054,1,5.6682e-05,-1.9185e-09,0,0.0005298,-1.0356e-05,-86.399,-613.71,0,1.9243e+08,-8.9156,12053,12991,1,12991,1,0.0010759,1.3611e-09,0,0.0010759,0.00018056,3.3541e+08,466.01,0,3.9148e+08,121.83,12990,12054,1,12054,1,5.6682e-05,-1.6376e-09,0,0.00052845,-1.0336e-05,2.0687e+07,-502.32,0,1.9658e+08,0.32583,12053,11097,1,11097,1,-0.00096249,-6.2011e-09,0,1.8934e-05,-0.00020119,-3.9148e+08,-1974.2,0,6.8703e+06,-210.09,11096,11599,1,11599,1,-0.00047176,-3.5087e-09,0,0.00026423,-0.00010932,-1.9188e+08,-1113.2,0,1.0083e+08,-37.427,11598,12509,1,12509,1,0.00058513,-1.3351e-10,0,0.00079267,8.8575e-05,1.9712e+08,-42.603,0,2.8204e+08,33.791,12508,527.81,0,527.81,0,0.00060997,1.9993e-09,0,0.00030732,0.00011422,2.2086e+08,647.19,0,1.0832e+08,66.831,527.81,1
1820,3.7,12054,1,12054,1,5.7087e-05,-1.76e-09,0,0.00053132,-1.043e-05,-49.621,-562.59,0,1.9288e+08,-12.445,12053,12991,1,12991,1,0.0010792,1.1696e-09,0,0.0010792,0.00018102,3.3599e+08,364.11,0,3.9249e+08,93.532,12990,12054,1,12054,1,5.7087e-05,-1.8292e-09,0,0.00052995,-1.041e-05,2.0836e+07,-567.35,0,1.9706e+08,7.2263,12053,11097,1,11097,1,-0.00096498,-4.4378e-09,0,1.9232e-05,-0.0002018,-3.9249e+08,-1403,0,6.9827e+06,-240.56,11096,11599,1,11599,1,-0.00047286,-3.1171e-09,0,0.00026498,-0.00010967,-1.9232e+08,-997.22,0,1.0118e+08,-28.796,11598,12509,1,12509,1,0.00058704,-4.9578e-10,0,0.00079492,8.8781e-05,1.9761e+08,-147.96,0,2.8257e+08,28.351,12508,527.81,0,527.81,0,0.00061171,1.5054e-09,0,0.0003082,0.00011455,2.2137e+08,484.6,0,1.0855e+08,68.396,527.81,1
1820,3.71,12054,1,12054,1,5.7495e-05,-2.1035e-10,0,0.00053284,-1.0505e-05,-3.9717,-75.048,0,1.9333e+08,-15.496,12053,12991,1,12991,1,0.0010824,6.2342e-10,0,0.0010824,0.00018148,3.3656e+08,170.89,0,3.9349e+08,30.602,12990,12054,1,12054,1,5.7495e-05,-2.8869e-10,0,0.00053144,-1.0486e-05,2.0987e+07,-94.706,0,1.9755e+08,-3.685,12053,11097,1,11097,1,-0.00096743,-9.9211e-10,0,1.9533e-05,-0.00020241,-3.9349e+08,-306.53,0,7.0961e+06,-142.96,11096,11599,1,11599,1,-0.00047395,-5.6618e-10,0,0.00026572,-0.00011002,-1.9276e+08,-189.51,0,1.0152e+08,-27.197,11598,12509,1,12509,1,0.00058894,1.5712e-10,0,0.00079717,8.8985e-05,1.981e+08,42.843,0,2.8311e+08,7.6704,12508,527.81,0,527.81,0,0.00061343,4.3158e-10,0,0.00030909,0.00011487,2.2188e+08,134.83,0,1.0878e+08,36.41,527.81,1
1820,3.72,12054,1,12054,1,5.7902e-05,-1.2204e-09,0,0.00053433,-1.058e-05,-60.021,-386.62,0,1.9378e+08,5.8597,12053,12991,1,12991,1,0.0010857,4.4398e-10,0,0.0010857,0.00018194,3.3712e+08,152.06,0,3.9449e+08,67.257,12990,12054,1,12054,1,5.7901e-05,-1.2313e-09,0,0.00053292,-1.056e-05,2.1137e+07,-386.04,0,1.9802e+08,10.085,12053,11097,1,11097,1,-0.00096988,-3.1418e-09,0,1.9835e-05,-0.00020302,-3.9449e+08,-986.44,0,7.2099e+06,-139.28,11096,11599,1,11599,1,-0.00047502,-1.8101e-09,0,0.00026646,-0.00011037,-1.932e+08,-574.29,0,1.0187e+08,-10.156,11598,12509,1,12509,1,0.00059082,-5.4728e-10,0,0.00079938,8.9186e-05,1.9858e+08,-163.45,0,2.8363e+08,30.793,12508,527.81,0,527.81,0,0.00061514,8.8448e-10,0,0.00030996,0.00011519,2.2238e+08,283.78,0,1.09e+08,35.406,527.81,1
1820,3.73,12054,1,12054,1,5.8309e-05,4.0981e-10,0,0.00053585,-1.0654e-05,-65.055,123.38,0,1.9423e+08,28.133,12053,12991,1,12991,1,0.001089,4.1934e-09,0,0.001089,0.00018241,3.3769e+08,1301.1,0,3.9549e+08,171.92,12990,12054,1,12054,1,5.8309e-05,2.2345e-10,0,0.00053441,-1.0635e-05,2.1288e+07,68.669,0,1.985e+08,22.99,12053,11097,1,11097,1,-0.00097235,-1.6178e-09,0,2.0136e-05,-0.00020363,-3.9549e+08,-515.1,0,7.3231e+06,-75.484,11096,11599,1,11599,1,-0.0004761,-4.7407e-10,0,0.00026721,-0.00011073,-1.9364e+08,-150.25,0,1.0221e+08,-6.7692,11598,12509,1,12509,1,0.00059272,1.0293e-09,0,0.00080162,8.939e-05,1.9906e+08,324.4,0,2.8416e+08,56.099,12508,527.81,0,527.81,0,0.00061686,1.2632e-09,0,0.00031085,0.00011551,2.2288e+08,398.89,0,1.0923e+08,51.048,527.81,1
1820,3.74,12054,1,12054,1,5.8719e-05,-1.8922e-09,0,0.00053735,-1.073e-05,-11.786,-595.55,0,1.9467e+08,10.96,12053,12991,1,12991,1,0.0010922,1.032e-09,0,0.0010922,0.00018287,3.3824e+08,353.44,0,3.9649e+08,121.58,12990,12054,1,12054,1,5.8719e-05,-1.6187e-09,0,0.00053589,-1.0711e-05,2.1439e+07,-504.9,0,1.9897e+08,11.184,12053,11097,1,11097,1,-0.0009748,-5.8902e-09,0,2.0441e-05,-0.00020424,-3.9649e+08,-1843.6,0,7.4381e+06,-136.05,11096,11599,1,11599,1,-0.00047717,-3.157e-09,0,0.00026795,-0.00011108,-1.9408e+08,-993.86,0,1.0256e+08,-16.966,11598,12509,1,12509,1,0.00059461,-4.2722e-10,0,0.00080384,8.959e-05,1.9954e+08,-129.3,0,2.8468e+08,38.762,12508,527.81,0,527.81,0,0.00061856,1.7408e-09,0,0.00031172,0.00011583,2.2338e+08,555.29,0,1.0946e+08,50.446,527.81,1
1820,3.75,12054,1,12054,1,5.9131e-05,-8.1253e-11,0,0.00053886,-1.0805e-05,6.867,-32.442,0,1.9512e+08,-0.44686,12053,12991,1,12991,1,0.0010955,2.7393e-09,0,0.0010955,0.00018333,3.388e+08,875.33,0,3.9748e+08,142.99,12990,12054,1,12054,1,5.9132e-05,-5.0276e-11,0,0.00053738,-1.0787e-05,2.1592e+07,-14.27,0,1.9945e+08,1.1207,12053,11097,1,11097,1,-0.00097725,-1.4966e-09,0,2.0746e-05,-0.00020485,-3.9748e+08,-506.69,0,7.5527e+06,-121.38,11096,11599,1,11599,1,-0.00047825,-7.7649e-10,0,0.00026869,-0.00011143,-1.9451e+08,-244.91,0,1.029e+08,-28.638,11598,12509,1,12509,1,0.00059651,3.7995e-10,0,0.00080607,8.9793e-05,2.0003e+08,111.05,0,2.8521e+08,22.863,12508,527.81,0,527.81,0,0.00062029,8.6197e-10,0,0.00031261,0.00011615,2.2388e+08,276.65,0,1.0968e+08,43.183,527.81,1
1820,3.76,12054,1,12054,1,5.9545e-05,-7.3083e-10,0,0.00054036,-1.0881e-05,26.583,-232.75,0,1.9556e+08,19.057,12053,12991,1,12991,1,0.0010988,3.8224e-09,0,0.0010988,0.00018378,3.3935e+08,1236.8,0,3.9847e+08,158.23,12990,12054,1,12054,1,5.9545e-05,-4.0852e-10,0,0.00053886,-1.0863e-05,2.1745e+07,-118.87,0,1.9992e+08,17.662,12053,11097,1,11097,1,-0.00097969,-4.9749e-09,0,2.1055e-05,-0.00020546,-3.9847e+08,-1559.9,0,7.669e+06,-149.19,11096,11599,1,11599,1,-0.00047931,-2.0157e-09,0,0.00026943,-0.00011179,-1.9495e+08,-641.13,0,1.0325e+08,-23.511,11598,12509,1,12509,1,0.0005984,4.3334e-10,0,0.00080829,8.9993e-05,2.005e+08,130.19,0,2.8572e+08,65.493,12508,527.81,0,527.81,0,0.00062199,1.851e-09,0,0.00031348,0.00011647,2.2437e+08,589.23,0,1.0991e+08,59.931,527.81,1
1820,3.77,12054,1,12054,1,5.9962e-05,-1.5819e-09,0,0.00054188,-1.0958e-05,-7.506,-500.75,0,1.9601e+08,-11.787,12053,12991,1,12991,1,0.0011021,8.0098e-10,0,0.0011021,0.00018425,3.3992e+08,249.39,0,3.9948e+08,73.258,12990,12054,1,12054,1,5.9962e-05,-1.5989e-09,0,0.00054036,-1.094e-05,2.1898e+07,-483.32,0,2.004e+08,-1.6435,12053,11097,1,11097,1,-0.00098217,-4.172e-09,0,2.1364e-05,-0.00020607,-3.9948e+08,-1325.3,0,7.7852e+06,-185.29,11096,11599,1,11599,1,-0.00048039,-2.4136e-09,0,0.00027018,-0.00011214,-1.9539e+08,-765.01,0,1.036e+08,-28.573,11598,12509,1,12509,1,0.00060032,-6.6247e-10,0,0.00081054,9.0196e-05,2.0099e+08,-197.79,0,2.8625e+08,18.769,12508,527.81,0,527.81,0,0.00062372,1.2177e-09,0,0.00031437,0.00011679,2.2488e+08,392.46,0,1.1014e+08,50.585,527.81,1
1820,3.78,12054,1,12054,1,6.0384e-05,1.1169e-10,0,0.0005434,-1.1036e-05,17.139,28.128,0,1.9645e+08,-18.303,12053,12991,1,12991,1,0.0011054,8.5881e-10,0,0.0011054,0.00018471,3.4047e+08,244.42,0,4.0048e+08,29.085,12990,12054,1,12054,1,6.0384e-05,2.2238e-11,0,0.00054185,-1.1018e-05,2.2054e+07,6.4279,0,2.0088e+08,-16.943,12053,11097,1,11097,1,-0.00098462,-5.7601e-10,0,2.1679e-05,-0.00020669,-4.0048e+08,-183.96,0,7.9035e+06,-106.9,11096,11599,1,11599,1,-0.00048147,-1.6219e-10,0,0.00027093,-0.0001125,-1.9582e+08,-54.33,0,1.0394e+08,-31.826,11598,12509,1,12509,1,0.00060224,3.9702e-10,0,0.00081278,9.0398e-05,2.0147e+08,112.11,0,2.8677e+08,-3.7026,12508,527.81,0,527.81,0,0.00062545,3.5595e-10,0,0.00031526,0.00011711,2.2538e+08,106.42,0,1.1036e+08,21.022,527.81,1
1820,3.79,12054,1,12054,1,6.0807e-05,-1.002e-09,0,0.00054491,-1.1113e-05,10.115,-315.98,0,1.969e+08,9.8664,12053,12991,1,12991,1,0.0011087,7.7792e-10,0,0.0011087,0.00018517,3.4101e+08,266.43,0,4.0148e+08,80.887,12990,12054,1,12054,1,6.0806e-05,-1.0297e-09,0,0.00054334,-1.1096e-05,2.221e+07,-308.37,0,2.0136e+08,17.12,12053,11097,1,11097,1,-0.00098708,-2.9195e-09,0,2.1996e-05,-0.0002073,-4.0148e+08,-910.47,0,8.0226e+06,-123.39,11096,11599,1,11599,1,-0.00048253,-1.8797e-09,0,0.00027167,-0.00011285,-1.9626e+08,-590.26,0,1.0425e+08,-7.5765,11598,12509,1,12509,1,0.00060415,-1.0121e-10,0,0.00081501,9.0598e-05,2.0195e+08,-29.823,0,2.8728e+08,37.485,12508,527.81,0,527.81,0,0.00062717,1.0116e-09,0,0.00031614,0.00011743,2.2587e+08,319.67,0,1.1058e+08,40.729,527.81,1
1820,3.8,12054,1,12054,1,6.1241e-05,-4.0563e-09,0,0.00054641,-1.1193e-05,332.33,-1277.5,0,1.9733e+08,-7.3912,12053,12991,1,12991,1,0.001112,1.7125e-09,0,0.001112,0.00018563,3.4155e+08,585.31,0,4.0248e+08,195.15,12990,12054,1,12054,1,6.124e-05,-4.044e-09,0,0.00054482,-1.1177e-05,2.2369e+07,-1282.3,0,2.0182e+08,-6.6708,12053,11097,1,11097,1,-0.00098953,-9.5439e-09,0,2.2324e-05,-0.00020792,-4.0248e+08,-2959.3,0,8.1457e+06,-289.57,11096,11599,1,11599,1,-0.00048358,-6.6807e-09,0,0.00027241,-0.00011321,-1.9668e+08,-2126.9,0,1.0451e+08,-79.793,11598,12509,1,12509,1,0.00060606,-1.4504e-09,0,0.00081723,9.0794e-05,2.0242e+08,-448.01,0,2.8778e+08,68.369,12508,527.81,0,527.81,0,0.00062887,3.0725e-09,0,0.00031702,0.00011775,2.2636e+08,976.71,0,1.108e+08,101.74,527.81,1
1820,3.81,12054,1,12054,1,6.1681e-05,-1.8743e-09,0,0.00054792,-1.1274e-05,68.361,-604.27,0,1.9777e+08,-7.9316,12053,12991,1,12991,1,0.0011153,3.3441e-09,0,0.0011153,0.00018608,3.4207e+08,1033.1,0,4.0346e+08,154.86,12990,12054,1,12054,1,6.1681e-05,-1.6064e-09,0,0.0005463,-1.1258e-05,2.2531e+07,-492.78,0,2.0229e+08,2.6935,12053,11097,1,11097,1,-0.00099194,-6.5834e-09,0,2.2656e-05,-0.00020853,-4.0346e+08,-2138.2,0,8.2702e+06,-240.73,11096,11599,1,11599,1,-0.00048463,-4.0297e-09,0,0.00027316,-0.00011357,-1.9711e+08,-1273.9,0,1.0478e+08,-60.317,11598,12509,1,12509,1,0.00060799,2.0134e-10,0,0.00081947,9.0991e-05,2.029e+08,62.098,0,2.8828e+08,52.47,12508,527.81,0,527.81,0,0.00063059,2.4366e-09,0,0.00031791,0.00011807,2.2685e+08,782.65,0,1.1102e+08,76.951,527.81,1
1820,3.82,12054,1,12054,1,6.2127e-05,-1.4716e-09,0,0.00054945,-1.1355e-05,43.429,-473.47,0,1.982e+08,-19.088,12053,12991,1,12991,1,0.0011186,1.6517e-09,0,0.0011186,0.00018654,3.4261e+08,565.5,0,4.0445e+08,92.312,12990,12054,1,12054,1,6.2127e-05,-1.2144e-09,0,0.00054781,-1.134e-05,2.2694e+07,-377.89,0,2.0276e+08,-5.7472,12053,11097,1,11097,1,-0.00099438,-4.8229e-09,0,2.2996e-05,-0.00020915,-4.0445e+08,-1582.4,0,8.3978e+06,-192.25,11096,11599,1,11599,1,-0.00048568,-2.9751e-09,0,0.00027391,-0.00011393,-1.9754e+08,-942.75,0,1.0505e+08,-61.4,11598,12509,1,12509,1,0.00060994,2.308e-11,0,0.00082172,9.1189e-05,2.0337e+08,7.1362,0,2.8879e+08,23.715,12508,527.81,0,527.81,0,0.00063232,1.6879e-09,0,0.0003188,0.00011839,2.2734e+08,546.87,0,1.1125e+08,57.041,527.81,1
1820,3.83,12054,1,12054,1,6.2579e-05,-3.6646e-10,0,0.00055099,-1.1439e-05,-13.752,-124.18,0,1.9865e+08,-20.917,12053,12991,1,12991,1,0.001122,5.801e-10,0,0.001122,0.000187,3.4314e+08,156.48,0,4.0545e+08,13.568,12990,12054,1,12054,1,6.258e-05,-4.6197e-10,0,0.00054932,-1.1424e-05,2.286e+07,-146.41,0,2.0323e+08,-10.865,12053,11097,1,11097,1,-0.00099683,-1.1035e-09,0,2.3341e-05,-0.00020978,-4.0545e+08,-333.91,0,8.5272e+06,-135.63,11096,11599,1,11599,1,-0.00048674,-7.8899e-10,0,0.00027466,-0.00011429,-1.9797e+08,-260.19,0,1.0532e+08,-36.857,11598,12509,1,12509,1,0.0006119,3.4283e-11,0,0.00082398,9.1388e-05,2.0385e+08,9.861,0,2.893e+08,-0.12142,12508,527.81,0,527.81,0,0.00063407,4.6268e-10,0,0.0003197,0.00011872,2.2783e+08,146.79,0,1.1147e+08,27.157,527.81,1
1820,3.84,12054,1,12054,1,6.3035e-05,8.8302e-11,0,0.00055251,-1.1522e-05,-6.0764,23.641,0,1.9908e+08,-9.0392,12053,12991,1,12991,1,0.0011253,6.5028e-10,0,0.0011253,0.00018746,3.4366e+08,187.35,0,4.0643e+08,28.097,12990,12054,1,12054,1,6.3035e-05,3.288e-11,0,0.00055082,-1.1508e-05,2.3027e+07,9.4911,0,2.0369e+08,-7.2823,12053,11097,1,11097,1,-0.00099926,-2.6564e-10,0,2.369e-05,-0.0002104,-4.0643e+08,-85.141,0,8.6582e+06,-101.04,11096,11599,1,11599,1,-0.00048778,-1.2969e-10,0,0.00027541,-0.00011466,-1.9839e+08,-41.497,0,1.0558e+08,-17.533,11598,12509,1,12509,1,0.00061385,2.7295e-10,0,0.00082623,9.1584e-05,2.0432e+08,83.107,0,2.8979e+08,0.51632,12508,527.81,0,527.81,0,0.0006358,2.494e-10,0,0.00032059,0.00011904,2.2832e+08,75.13,0,1.1169e+08,16.762,527.81,1
1820,3.85,12054,1,12054,1,6.3489e-05,-2.729e-09,0,0.00055402,-1.1606e-05,-12.961,-855.84,0,1.9951e+08,18.186,12053,12991,1,12991,1,0.0011287,1.4338e-09,0,0.0011287,0.00018791,3.4418e+08,491.06,0,4.0743e+08,155.47,12990,12054,1,12054,1,6.3488e-05,-2.6154e-09,0,0.00055231,-1.1592e-05,2.3193e+07,-809.28,0,2.0416e+08,24.535,12053,11097,1,11097,1,-0.0010017,-6.8589e-09,0,2.4038e-05,-0.00021102,-4.0743e+08,-2131.8,0,8.7885e+06,-202.62,11096,11599,1,11599,1,-0.00048882,-4.6553e-09,0,0.00027615,-0.00011502,-1.9881e+08,-1474.5,0,1.0584e+08,-29.295,11598,12509,1,12509,1,0.0006158,-9.8418e-10,0,0.00082846,9.1778e-05,2.0478e+08,-283.71,0,2.9028e+08,73.414,12508,527.81,0,527.81,0,0.00063752,2.2724e-09,0,0.00032148,0.00011936,2.288e+08,716.07,0,1.1191e+08,74.125,527.81,1
1820,3.86,12054,1,12054,1,6.3941e-05,-2.256e-09,0,0.00055551,-1.1688e-05,-13.268,-718.9,0,1.9993e+08,4.8405,12053,12991,1,12991,1,0.001132,7.3499e-09,0,0.001132,0.00018836,3.4467e+08,2261.1,0,4.084e+08,293.26,12990,12054,1,12054,1,6.3941e-05,-1.5336e-09,0,0.00055377,-1.1676e-05,2.3359e+07,-453.82,0,2.0461e+08,4.0366,12053,11097,1,11097,1,-0.0010041,-1.1237e-08,0,2.4383e-05,-0.00021163,-4.084e+08,-3538,0,8.9179e+06,-271.12,11096,11599,1,11599,1,-0.00048983,-5.7172e-09,0,0.00027689,-0.00011538,-1.9923e+08,-1794.6,0,1.0611e+08,-88.698,11598,12509,1,12509,1,0.00061772,8.6814e-10,0,0.00083066,9.1969e-05,2.0524e+08,251.87,0,2.9075e+08,99.387,12508,527.81,0,527.81,0,0.0006392,4.3683e-09,0,0.00032235,0.00011968,2.2927e+08,1383.1,0,1.1212e+08,122.2,527.81,1
1820,3.87,12054,1,12054,1,6.4396e-05,-2.4635e-09,0,0.00055705,-1.1772e-05,158,-784.13,0,2.0037e+08,-27.025,12053,12991,1,12991,1,0.0011353,1.9635e-09,0,0.0011353,0.00018882,3.452e+08,672.26,0,4.0939e+08,199.1,12990,12054,1,12054,1,6.4397e-05,-2.1595e-09,0,0.00055528,-1.176e-05,2.3526e+07,-667.66,0,2.0508e+08,-18.279,12053,11097,1,11097,1,-0.0010065,-7.7402e-09,0,2.4732e-05,-0.00021226,-4.0939e+08,-2521,0,9.0484e+06,-256.74,11096,11599,1,11599,1,-0.00049089,-4.6316e-09,0,0.00027764,-0.00011574,-1.9965e+08,-1459.4,0,1.0637e+08,-84.448,11598,12509,1,12509,1,0.00061968,-1.5168e-10,0,0.00083293,9.2166e-05,2.0572e+08,-46.562,0,2.9125e+08,32.889,12508,527.81,0,527.81,0,0.00064095,2.5377e-09,0,0.00032325,0.00012,2.2977e+08,819.01,0,1.1234e+08,82.269,527.81,1
1820,3.88,12054,1,12054,1,6.486e-05,-4.4008e-09,0,0.00055857,-1.1857e-05,-112.59,-1391.6,0,2.008e+08,-6.0415,12053,12991,1,12991,1,0.0011387,2.0666e-09,0,0.0011387,0.00018928,3.4571e+08,653.93,0,4.1039e+08,195.53,12990,12054,1,12054,1,6.4859e-05,-4.2314e-09,0,0.00055678,-1.1846e-05,2.3695e+07,-1301,0,2.0554e+08,8.2876,12053,11097,1,11097,1,-0.001009,-1.1087e-08,0,2.5086e-05,-0.00021289,-4.1039e+08,-3534.2,0,9.1811e+06,-291.51,11096,11599,1,11599,1,-0.00049192,-7.3185e-09,0,0.0002784,-0.00011611,-2.0008e+08,-2300.5,0,1.0664e+08,-74.124,11598,12509,1,12509,1,0.00062164,-1.6907e-09,0,0.00083518,9.2361e-05,2.0619e+08,-544.84,0,2.9174e+08,66.371,12508,527.81,0,527.81,0,0.00064268,3.3993e-09,0,0.00032415,0.00012033,2.3025e+08,1093.4,0,1.1256e+08,96.851,527.81,1
1820,3.89,12054,1,12054,1,6.5323e-05,-1.8456e-09,0,0.00056008,-1.1942e-05,-28.516,-600.28,0,2.0123e+08,-6.2198,12053,12991,1,12991,1,0.001142,5.6599e-09,0,0.001142,0.00018973,3.4621e+08,1748.5,0,4.1136e+08,220.98,12990,12054,1,12054,1,6.5324e-05,-1.2124e-09,0,0.00055827,-1.1932e-05,2.3865e+07,-354.7,0,2.06e+08,3.9321,12053,11097,1,11097,1,-0.0010114,-9.217e-09,0,2.5443e-05,-0.0002135,-4.1136e+08,-2999.1,0,9.3147e+06,-235.81,11096,11599,1,11599,1,-0.00049294,-4.6653e-09,0,0.00027914,-0.00011647,-2.0049e+08,-1480.5,0,1.069e+08,-84.857,11598,12509,1,12509,1,0.0006236,8.0251e-10,0,0.00083741,9.2553e-05,2.0665e+08,219.04,0,2.9222e+08,71.804,12508,527.81,0,527.81,0,0.00064439,3.5165e-09,0,0.00032504,0.00012065,2.3072e+08,1123.6,0,1.1278e+08,100.04,527.81,1
1820,3.9,12054,1,12054,1,6.5789e-05,-2.7928e-09,0,0.00056161,-1.2028e-05,2.9716,-889.67,0,2.0166e+08,-28.89,12053,12991,1,12991,1,0.0011454,2.3359e-09,0,0.0011454,0.00019018,3.4672e+08,799.73,0,4.1235e+08,159.83,12990,12054,1,12054,1,6.5789e-05,-2.3342e-09,0,0.00055977,-1.2018e-05,2.4035e+07,-705.9,0,2.0647e+08,-10.179,12053,11097,1,11097,1,-0.0010138,-9.0445e-09,0,2.5803e-05,-0.00021413,-4.1235e+08,-2937,0,9.4491e+06,-261.7,11096,11599,1,11599,1,-0.00049398,-5.3847e-09,0,0.00027989,-0.00011683,-2.0091e+08,-1714.7,0,1.0717e+08,-100.39,11598,12509,1,12509,1,0.00062556,-4.8017e-11,0,0.00083966,9.2748e-05,2.0712e+08,-13.744,0,2.927e+08,38.871,12508,527.81,0,527.81,0,0.00064613,3.0303e-09,0,0.00032593,0.00012097,2.3121e+08,977.31,0,1.1299e+08,91.38,527.81,1
1820,3.91,12054,1,12054,1,6.6259e-05,-2.3744e-09,0,0.00056314,-1.2114e-05,81.807,-759.48,0,2.0209e+08,-27.81,12053,12991,1,12991,1,0.0011488,2.5453e-09,0,0.0011488,0.00019064,3.4722e+08,871.42,0,4.1334e+08,151.43,12990,12054,1,12054,1,6.626e-05,-1.8939e-09,0,0.00056127,-1.2105e-05,2.4207e+07,-573.06,0,2.0693e+08,-7.6595,12053,11097,1,11097,1,-0.0010162,-8.1104e-09,0,2.6166e-05,-0.00021476,-4.1334e+08,-2643,0,9.5849e+06,-246.12,11096,11599,1,11599,1,-0.00049501,-4.7944e-09,0,0.00028064,-0.0001172,-2.0133e+08,-1517,0,1.0743e+08,-97.516,11598,12509,1,12509,1,0.00062753,5.5244e-11,0,0.00084192,9.2941e-05,2.0759e+08,18.527,0,2.9322e+08,41.658,12508,527.81,0,527.81,0,0.00064786,2.7861e-09,0,0.00032683,0.00012129,2.3169e+08,898.77,0,1.1321e+08,89.751,527.81,1
1820,3.92,12054,1,12054,1,6.6733e-05,-2.429e-09,0,0.00056467,-1.2201e-05,33.4,-774.67,0,2.0252e+08,-21.281,12053,12991,1,12991,1,0.0011521,1.4359e-09,0,0.0011521,0.00019109,3.4772e+08,414.72,0,4.1432e+08,119.09,12990,12054,1,12054,1,6.6733e-05,-2.09e-09,0,0.00056278,-1.2193e-05,2.438e+07,-635.15,0,2.0739e+08,-8.9632,12053,11097,1,11097,1,-0.0010187,-7.3047e-09,0,2.6532e-05,-0.00021538,-4.1432e+08,-2379.7,0,9.7216e+06,-215.63,11096,11599,1,11599,1,-0.00049604,-4.4646e-09,0,0.00028139,-0.00011757,-2.0175e+08,-1412.7,0,1.077e+08,-75.746,11598,12509,1,12509,1,0.00062951,-2.6807e-10,0,0.00084417,9.3135e-05,2.0805e+08,-73.461,0,2.9378e+08,33.356,12508,527.81,0,527.81,0,0.0006496,2.3519e-09,0,0.00032773,0.00012162,2.3217e+08,760.88,0,1.1343e+08,70.955,527.81,1
1820,3.93,12054,1,12054,1,6.7206e-05,-1.3372e-09,0,0.00056617,-1.2288e-05,-5.3647,-434.04,0,2.0294e+08,-11.393,12053,12991,1,12991,1,0.0011555,8.3074e-09,0,0.0011555,0.00019154,3.4819e+08,2600.3,0,4.1529e+08,217.27,12990,12054,1,12054,1,6.7206e-05,-8.9637e-10,0,0.00056426,-1.228e-05,2.4553e+07,-277.34,0,2.0784e+08,-0.37311,12053,11097,1,11097,1,-0.001021,-8.6261e-09,0,2.69e-05,-0.000216,-4.1529e+08,-2786.3,0,9.8589e+06,-283.94,11096,11599,1,11599,1,-0.00049705,-4.3772e-09,0,0.00028213,-0.00011793,-2.0216e+08,-1379.4,0,1.0796e+08,-91.045,11598,12509,1,12509,1,0.00063147,1.1256e-09,0,0.00084639,9.3324e-05,2.0851e+08,344.1,0,2.9432e+08,73.969,12508,527.81,0,527.81,0,0.00065131,3.808e-09,0,0.00032862,0.00012194,2.3264e+08,1210.2,0,1.1364e+08,112.14,527.81,1
1820,3.94,12054,1,12054,1,6.7681e-05,-2.9003e-09,0,0.00056771,-1.2375e-05,61.138,-918.04,0,2.0337e+08,-35.603,12053,12991,1,12991,1,0.0011589,2.519e-09,0,0.0011589,0.000192,3.487e+08,862.43,0,4.1629e+08,159.62,12990,12054,1,12054,1,6.7682e-05,-2.5477e-09,0,0.00056577,-1.2369e-05,2.4727e+07,-773.09,0,2.0831e+08,-11.629,12053,11097,1,11097,1,-0.0010235,-8.7384e-09,0,2.7267e-05,-0.00021663,-4.1629e+08,-2823.5,0,9.9961e+06,-262.53,11096,11599,1,11599,1,-0.00049809,-5.5746e-09,0,0.00028289,-0.0001183,-2.0258e+08,-1755.3,0,1.0823e+08,-108.46,11598,12509,1,12509,1,0.00063345,-1.3557e-10,0,0.00084866,9.3519e-05,2.0898e+08,-37.653,0,2.9489e+08,38.795,12508,527.81,0,527.81,0,0.00065305,2.9789e-09,0,0.00032952,0.00012226,2.3312e+08,958.63,0,1.1386e+08,97.624,527.81,1
1820,3.95,12054,1,12054,1,6.8163e-05,-2.3224e-09,0,0.00056925,-1.2464e-05,31.347,-741.79,0,2.038e+08,-25.408,12053,12991,1,12991,1,0.0011622,2.6042e-09,0,0.0011622,0.00019245,3.4919e+08,891.59,0,4.1727e+08,153.12,12990,12054,1,12054,1,6.8164e-05,-1.9161e-09,0,0.00056727,-1.2458e-05,2.4903e+07,-600.79,0,2.0877e+08,-4.4532,12053,11097,1,11097,1,-0.0010259,-7.5107e-09,0,2.7641e-05,-0.00021726,-4.1727e+08,-2450.4,0,1.0136e+07,-248.39,11096,11599,1,11599,1,-0.00049911,-4.6705e-09,0,0.00028364,-0.00011867,-2.03e+08,-1478.1,0,1.0849e+08,-94.441,11598,12509,1,12509,1,0.00063544,-1.9654e-11,0,0.00085092,9.3711e-05,2.0944e+08,-5.5434,0,2.9544e+08,45.513,12508,527.81,0,527.81,0,0.00065479,2.6377e-09,0,0.00033042,0.00012259,2.336e+08,850.85,0,1.1407e+08,89.147,527.81,1
1820,3.96,12054,1,12054,1,6.8656e-05,-1.6365e-09,0,0.00057079,-1.2555e-05,21.873,-527.72,0,2.0423e+08,-23.18,12053,12991,1,12991,1,0.0011657,1.2192e-09,0,0.0011657,0.00019291,3.4967e+08,308.8,0,4.1826e+08,92.916,12990,12054,1,12054,1,6.8657e-05,-1.5544e-09,0,0.00056879,-1.2549e-05,2.5082e+07,-484.21,0,2.0923e+08,-8.679,12053,11097,1,11097,1,-0.0010283,-4.2482e-09,0,2.8025e-05,-0.0002179,-4.1826e+08,-1399.8,0,1.0279e+07,-234.92,11096,11599,1,11599,1,-0.00050014,-3.0935e-09,0,0.0002844,-0.00011904,-2.0342e+08,-1005.1,0,1.0876e+08,-36.596,11598,12509,1,12509,1,0.00063745,-2.0584e-10,0,0.0008532,9.3904e-05,2.0991e+08,-55.138,0,2.9599e+08,11.227,12508,527.81,0,527.81,0,0.00065655,1.5764e-09,0,0.00033134,0.00012292,2.3408e+08,512.09,0,1.1429e+08,61.977,527.81,1
1820,3.97,12054,1,12054,1,6.9159e-05,-1.457e-09,0,0.00057232,-1.2647e-05,32.73,-469.35,0,2.0465e+08,-15.221,12053,12991,1,12991,1,0.001169,9.6494e-10,0,0.001169,0.00019336,3.5014e+08,265.7,0,4.1923e+08,119.74,12990,12054,1,12054,1,6.9159e-05,-1.5307e-09,0,0.00057029,-1.2642e-05,2.5263e+07,-476.17,0,2.0968e+08,-2.5048,12053,11097,1,11097,1,-0.0010307,-3.5782e-09,0,2.8421e-05,-0.00021853,-4.1923e+08,-1162.3,0,1.0425e+07,-222.09,11096,11599,1,11599,1,-0.00050113,-2.7578e-09,0,0.00028515,-0.00011942,-2.0382e+08,-884.34,0,1.0902e+08,-21.4,11598,12509,1,12509,1,0.00063945,-2.6039e-10,0,0.00085544,9.4091e-05,2.1036e+08,-73.676,0,2.9653e+08,14.347,12508,527.81,0,527.81,0,0.00065828,1.3448e-09,0,0.00033224,0.00012324,2.3455e+08,433.33,0,1.145e+08,55.041,527.81,1
1820,3.98,12054,1,12054,1,6.9662e-05,-1.5548e-09,0,0.00057385,-1.2739e-05,-55.962,-498.2,0,2.0506e+08,14.032,12053,12991,1,12991,1,0.0011724,3.119e-09,0,0.0011724,0.0001938,3.506e+08,1009,0,4.202e+08,175.35,12990,12054,1,12054,1,6.9662e-05,-1.2706e-09,0,0.00057179,-1.2735e-05,2.5444e+07,-396.78,0,2.1012e+08,13.64,12053,11097,1,11097,1,-0.0010331,-6.6446e-09,0,2.8817e-05,-0.00021916,-4.202e+08,-2088.4,0,1.0572e+07,-202.34,11096,11599,1,11599,1,-0.00050213,-3.3489e-09,0,0.0002859,-0.00011979,-2.0423e+08,-1047.4,0,1.0927e+08,-26.197,11598,12509,1,12509,1,0.00064146,1.7525e-10,0,0.00085769,9.4279e-05,2.1082e+08,47.597,0,2.9707e+08,66.326,12508,527.81,0,527.81,0,0.00066001,2.1741e-09,0,0.00033314,0.00012356,2.3501e+08,692.1,0,1.1471e+08,66.845,527.81,1
1820,3.99,12054,1,12054,1,7.0168e-05,-2.6217e-09,0,0.00057538,-1.2832e-05,-54.535,-831.01,0,2.0548e+08,-15.279,12053,12991,1,12991,1,0.0011759,1.1987e-09,0,0.0011759,0.00019425,3.5107e+08,396.7,0,4.2118e+08,196.45,12990,12054,1,12054,1,7.0168e-05,-2.7498e-09,0,0.0005733,-1.2829e-05,2.5626e+07,-801.15,0,2.1057e+08,-0.34427,12053,11097,1,11097,1,-0.0010355,-6.2609e-09,0,2.9215e-05,-0.00021979,-4.2118e+08,-1998.6,0,1.0719e+07,-305.78,11096,11599,1,11599,1,-0.00050313,-4.6413e-09,0,0.00028665,-0.00012016,-2.0463e+08,-1491.9,0,1.0953e+08,-34.04,11598,12509,1,12509,1,0.00064347,-6.0133e-10,0,0.00085995,9.4466e-05,2.1127e+08,-166.62,0,2.9761e+08,21.896,12508,527.81,0,527.81,0,0.00066174,2.1739e-09,0,0.00033404,0.00012388,2.3548e+08,700.58,0,1.1492e+08,76.112,527.81,1
1820,4,12054,1,12054,1,7.0678e-05,-9.4498e-10,0,0.00057692,-1.2926e-05,43.623,-311.11,0,2.059e+08,-19.355,12053,12991,1,12991,1,0.0011793,1.6467e-09,0,0.0011793,0.0001947,3.5153e+08,553.66,0,4.2215e+08,69.556,12990,12054,1,12054,1,7.0679e-05,-6.6646e-10,0,0.0005748,-1.2924e-05,2.581e+07,-209.58,0,2.1102e+08,-12.848,12053,11097,1,11097,1,-0.0010379,-4.0602e-09,0,2.9618e-05,-0.00022043,-4.2215e+08,-1329.3,0,1.0869e+07,-196.58,11096,11599,1,11599,1,-0.00050413,-2.0835e-09,0,0.00028741,-0.00012054,-2.0504e+08,-664.26,0,1.0979e+08,-43.854,11598,12509,1,12509,1,0.00064549,2.6057e-10,0,0.00086222,9.4654e-05,2.1172e+08,72.918,0,2.9815e+08,18.447,12508,527.81,0,527.81,0,0.00066349,1.4028e-09,0,0.00033495,0.00012421,2.3595e+08,453.2,0,1.1513e+08,52.351,527.81,1
1820,4.01,12054,1,12054,1,7.1194e-05,-1.9735e-09,0,0.00057847,-1.3021e-05,-61.857,-626.79,0,2.0632e+08,-12.46,12053,12991,1,12991,1,0.0011827,1.2065e-09,0,0.0011827,0.00019516,3.52e+08,356.78,0,4.2314e+08,76.138,12990,12054,1,12054,1,7.1194e-05,-2.0297e-09,0,0.00057633,-1.3019e-05,2.5995e+07,-632.28,0,2.1148e+08,-1.2365,12053,11097,1,11097,1,-0.0010403,-4.6733e-09,0,3.0025e-05,-0.00022107,-4.2314e+08,-1476.7,0,1.1019e+07,-194.48,11096,11599,1,11599,1,-0.00050514,-3.4539e-09,0,0.00028817,-0.00012091,-2.0545e+08,-1101.7,0,1.1006e+08,-27.497,11598,12509,1,12509,1,0.00064752,-6.6355e-10,0,0.0008645,9.4843e-05,2.1218e+08,-200.48,0,2.9869e+08,22.235,12508,527.81,0,527.81,0,0.00066525,1.5943e-09,0,0.00033587,0.00012454,2.3642e+08,512.63,0,1.1534e+08,50.954,527.81,1
1820,4.02,12054,1,12054,1,7.1712e-05,-6.9879e-10,0,0.00058,-1.3116e-05,34.953,-232.2,0,2.0673e+08,13.579,12053,12991,1,12991,1,0.0011861,3.9122e-09,0,0.0011861,0.0001956,3.5245e+08,1249,0,4.241e+08,177.11,12990,12054,1,12054,1,7.1712e-05,-4.1008e-10,0,0.00057783,-1.3115e-05,2.6181e+07,-122.94,0,2.1192e+08,9.4074,12053,11097,1,11097,1,-0.0010427,-4.9711e-09,0,3.0436e-05,-0.00022171,-4.241e+08,-1572.7,0,1.1171e+07,-130.02,11096,11599,1,11599,1,-0.00050612,-2.2437e-09,0,0.00028892,-0.00012129,-2.0585e+08,-721.63,0,1.1031e+08,-24.541,11598,12509,1,12509,1,0.00064955,6.7069e-10,0,0.00086675,9.5028e-05,2.1263e+08,188.91,0,2.9922e+08,53.465,12508,527.81,0,527.81,0,0.00066698,1.9602e-09,0,0.00033677,0.00012486,2.3688e+08,621.73,0,1.1555e+08,57.245,527.81,1
1820,4.03,12054,1,12054,1,7.2229e-05,-2.0633e-09,0,0.00058154,-1.3211e-05,-56.093,-653.89,0,2.0715e+08,-1.1692,12053,12991,1,12991,1,0.0011896,1.8238e-09,0,0.0011896,0.00019605,3.529e+08,624.25,0,4.2507e+08,160.16,12990,12054,1,12054,1,7.2229e-05,-1.9597e-09,0,0.00057933,-1.3211e-05,2.6367e+07,-582.05,0,2.1237e+08,1.2911,12053,11097,1,11097,1,-0.0010451,-5.8297e-09,0,3.0846e-05,-0.00022234,-4.2507e+08,-1847.9,0,1.1323e+07,-185.66,11096,11599,1,11599,1,-0.00050711,-3.9487e-09,0,0.00028967,-0.00012167,-2.0625e+08,-1240,0,1.1057e+08,-26.651,11598,12509,1,12509,1,0.00065157,-1.3464e-10,0,0.00086901,9.5213e-05,2.1308e+08,-44.616,0,2.9975e+08,35.082,12508,527.81,0,527.81,0,0.00066871,2.076e-09,0,0.00033768,0.00012518,2.3734e+08,665.66,0,1.1575e+08,61.653,527.81,1
1820,4.04,12054,1,12054,1,7.2759e-05,-1.8486e-09,0,0.00058306,-1.3308e-05,26.373,-589.86,0,2.0755e+08,29.987,12053,12991,1,12991,1,0.001193,9.0142e-09,0,0.001193,0.00019649,3.5333e+08,2806,0,4.2603e+08,397.19,12990,12054,1,12054,1,7.2759e-05,-1.1969e-09,0,0.00058083,-1.3309e-05,2.6556e+07,-339.1,0,2.128e+08,20.341,12053,11097,1,11097,1,-0.0010474,-1.0666e-08,0,3.1269e-05,-0.00022298,-4.2603e+08,-3364.7,0,1.1478e+07,-305.54,11096,11599,1,11599,1,-0.00050807,-5.4319e-09,0,0.00029042,-0.00012204,-2.0664e+08,-1681.5,0,1.1082e+08,-73.148,11598,12509,1,12509,1,0.00065359,1.0547e-09,0,0.00087124,9.5394e-05,2.1352e+08,317.91,0,3.0026e+08,133.65,12508,527.81,0,527.81,0,0.00067043,4.4356e-09,0,0.00033858,0.00012551,2.3779e+08,1402,0,1.1596e+08,144.88,527.81,1
1820,4.05,12054,1,12054,1,7.3306e-05,-3.1088e-09,0,0.00058464,-1.3408e-05,16.645,-981.49,0,2.0797e+08,-23.253,12053,12991,1,12991,1,0.0011965,1.4352e-09,0,0.0011965,0.00019695,3.5379e+08,412.9,0,4.2702e+08,177.24,12990,12054,1,12054,1,7.3307e-05,-2.8687e-09,0,0.00058237,-1.3411e-05,2.6748e+07,-882.38,0,2.1326e+08,-12.243,12053,11097,1,11097,1,-0.0010499,-7.769e-09,0,3.1706e-05,-0.00022363,-4.2702e+08,-2529.1,0,1.1637e+07,-266.59,11096,11599,1,11599,1,-0.00050907,-5.1104e-09,0,0.00029119,-0.00012243,-2.0705e+08,-1636,0,1.1108e+08,-92.974,11598,12509,1,12509,1,0.00065568,-1.1498e-09,0,0.00087357,9.5581e-05,2.1398e+08,-340.68,0,3.008e+08,47.015,12508,527.81,0,527.81,0,0.00067222,2.441e-09,0,0.00033951,0.00012584,2.3827e+08,791.13,0,1.1617e+08,90.205,527.81,1
1820,4.06,12054,1,12054,1,7.3867e-05,-3.3395e-11,0,0.0005862,-1.3511e-05,92.55,-31.576,0,2.0838e+08,-21.586,12053,12991,1,12991,1,0.0012,1.2672e-09,0,0.0012,0.00019739,3.5421e+08,421.37,0,4.2798e+08,78.084,12990,12054,1,12054,1,7.3868e-05,1.9585e-10,0,0.0005839,-1.3514e-05,2.6946e+07,60.737,0,2.1369e+08,-9.1367,12053,11097,1,11097,1,-0.0010522,-2.0816e-09,0,3.2157e-05,-0.00022428,-4.2798e+08,-712.49,0,1.1802e+07,-189.5,11096,11599,1,11599,1,-0.00051003,-8.1298e-10,0,0.00029195,-0.00012282,-2.0744e+08,-267.11,0,1.1134e+08,-58.362,11598,12509,1,12509,1,0.00065777,8.3209e-10,0,0.00087585,9.5763e-05,2.1442e+08,231.99,0,3.0132e+08,18.581,12508,527.81,0,527.81,0,0.00067398,9.7198e-10,0,0.00034044,0.00012617,2.3872e+08,306.59,0,1.1638e+08,51.384,527.81,1
1820,4.07,12054,1,12054,1,7.4429e-05,-1.1324e-09,0,0.00058776,-1.3614e-05,22.445,-361.12,0,2.0878e+08,-24.734,12053,12991,1,12991,1,0.0012035,5.2455e-10,0,0.0012035,0.00019784,3.5464e+08,179.66,0,4.2895e+08,57.09,12990,12054,1,12054,1,7.4429e-05,-1.1928e-09,0,0.00058543,-1.3618e-05,2.7143e+07,-364.68,0,2.1413e+08,-11.082,12053,11097,1,11097,1,-0.0010546,-4.0787e-09,0,3.2611e-05,-0.00022493,-4.2895e+08,-1248,0,1.1967e+07,-164.82,11096,11599,1,11599,1,-0.000511,-1.6517e-09,0,0.00029272,-0.0001232,-2.0783e+08,-542.95,0,1.1159e+08,-46.496,11598,12509,1,12509,1,0.00065986,-3.2498e-10,0,0.00087815,9.5944e-05,2.1486e+08,-97.375,0,3.0184e+08,4.8538,12508,527.81,0,527.81,0,0.00067575,9.3935e-10,0,0.00034137,0.0001265,2.3918e+08,297.31,0,1.1658e+08,41.056,527.81,1
1820,4.08,12054,1,12054,1,7.4992e-05,-4.0108e-09,0,0.0005893,-1.3718e-05,143.97,-1254.1,0,2.0918e+08,37.24,12053,12991,1,12991,1,0.001207,1.3814e-09,0,0.001207,0.00019829,3.5506e+08,456.72,0,4.2992e+08,299.42,12990,12054,1,12054,1,7.4991e-05,-4.3061e-09,0,0.00058694,-1.3722e-05,2.734e+07,-1303.7,0,2.1456e+08,28.792,12053,11097,1,11097,1,-0.001057,-8.52e-09,0,3.3065e-05,-0.00022558,-4.2992e+08,-2656.4,0,1.2133e+07,-210.89,11096,11599,1,11599,1,-0.00051195,-6.2394e-09,0,0.00029347,-0.00012359,-2.0822e+08,-1982,0,1.1184e+08,-28.138,11598,12509,1,12509,1,0.00066193,-2.0244e-09,0,0.00088041,9.6123e-05,2.153e+08,-584.96,0,3.0235e+08,100.93,12508,527.81,0,527.81,0,0.0006775,2.7042e-09,0,0.00034228,0.00012682,2.3962e+08,861.44,0,1.1678e+08,101.81,527.81,1
1820,4.09,12054,1,12054,1,7.5555e-05,-2.0419e-09,0,0.00059086,-1.3821e-05,48.282,-656.46,0,2.0959e+08,19.986,12053,12991,1,12991,1,0.0012105,1.1052e-09,0,0.0012105,0.00019873,3.5548e+08,328.92,0,4.3088e+08,183.6,12990,12054,1,12054,1,7.5554e-05,-1.919e-09,0,0.00058846,-1.3826e-05,2.7538e+07,-595.69,0,2.15e+08,17.683,12053,11097,1,11097,1,-0.0010594,-5.4374e-09,0,3.3517e-05,-0.00022623,-4.3088e+08,-1772.9,0,1.2297e+07,-172.35,11096,11599,1,11599,1,-0.00051291,-3.5797e-09,0,0.00029424,-0.00012398,-2.0861e+08,-1145.5,0,1.1209e+08,-29.293,11598,12509,1,12509,1,0.00066402,-4.954e-10,0,0.0008827,9.6303e-05,2.1574e+08,-135.72,0,3.0286e+08,64.276,12508,527.81,0,527.81,0,0.00067925,1.8065e-09,0,0.00034321,0.00012715,2.4008e+08,585.3,0,1.1699e+08,67.746,527.81,1
1820,4.1,12054,1,12054,1,7.6123e-05,-5.0959e-10,0,0.00059242,-1.3925e-05,14.331,-177.82,0,2.0999e+08,8.724,12053,12991,1,12991,1,0.001214,1.61e-09,0,0.001214,0.00019917,3.5589e+08,472.07,0,4.3184e+08,90.669,12990,12054,1,12054,1,7.6123e-05,-3.8154e-10,0,0.00058999,-1.3931e-05,2.7738e+07,-118.13,0,2.1544e+08,13.934,12053,11097,1,11097,1,-0.0010617,-2.5077e-09,0,3.3977e-05,-0.00022688,-4.3184e+08,-857.93,0,1.2465e+07,-119.18,11096,11599,1,11599,1,-0.00051387,-1.4396e-09,0,0.000295,-0.00012437,-2.09e+08,-464.9,0,1.1235e+08,-19.207,11598,12509,1,12509,1,0.00066612,4.54e-10,0,0.00088499,9.6483e-05,2.1617e+08,128.89,0,3.0338e+08,39.911,12508,527.81,0,527.81,0,0.00068101,1.0869e-09,0,0.00034413,0.00012748,2.4053e+08,345.92,0,1.1719e+08,43.49,527.81,1
1820,4.11,12054,1,12054,1,7.6692e-05,-1.8528e-09,0,0.00059395,-1.403e-05,48.893,-585.69,0,2.1038e+08,32.163,12053,12991,1,12991,1,0.0012175,3.4776e-09,0,0.0012175,0.00019961,3.5629e+08,1080,0,4.3279e+08,292.4,12990,12054,1,12054,1,7.6692e-05,-1.1813e-09,0,0.00059149,-1.4036e-05,2.7937e+07,-371.22,0,2.1586e+08,27.959,12053,11097,1,11097,1,-0.0010641,-7.9578e-09,0,3.444e-05,-0.00022753,-4.3279e+08,-2492.2,0,1.2633e+07,-170.88,11096,11599,1,11599,1,-0.0005148,-4.1224e-09,0,0.00029575,-0.00012475,-2.0938e+08,-1263,0,1.1259e+08,-41.249,11598,12509,1,12509,1,0.00066819,3.0654e-10,0,0.00088724,9.6658e-05,2.166e+08,86.187,0,3.0387e+08,87.85,12508,527.81,0,527.81,0,0.00068274,2.7781e-09,0,0.00034504,0.0001278,2.4096e+08,875.71,0,1.1739e+08,95.147,527.81,1
1820,4.12,12054,1,12054,1,7.7263e-05,1.3077e-09,0,0.00059551,-1.4135e-05,-3.136,390.42,0,2.1079e+08,-36.167,12053,12991,1,12991,1,0.001221,2.9383e-09,0,0.001221,0.00020006,3.5671e+08,936.33,0,4.3375e+08,61.262,12990,12054,1,12054,1,7.7264e-05,1.4071e-09,0,0.00059302,-1.4142e-05,2.8137e+07,418.59,0,2.163e+08,-27.446,12053,11097,1,11097,1,-0.0010664,-4.1172e-10,0,3.4902e-05,-0.00022818,-4.3375e+08,-140.99,0,1.2801e+07,-177.45,11096,11599,1,11599,1,-0.00051576,3.9692e-10,0,0.00029651,-0.00012514,-2.0977e+08,122.31,0,1.1285e+08,-68.623,11598,12509,1,12509,1,0.00067029,2.1785e-09,0,0.00088953,9.6839e-05,2.1704e+08,634.4,0,3.0438e+08,-1.2903,12508,527.81,0,527.81,0,0.00068451,9.8549e-10,0,0.00034598,0.00012813,2.4142e+08,298.61,0,1.1759e+08,42.783,527.81,1
1820,4.13,12054,1,12054,1,7.7843e-05,-5.8272e-10,0,0.00059708,-1.4241e-05,-50.003,-180.86,0,2.1119e+08,-12.302,12053,12991,1,12991,1,0.0012245,2.9772e-10,0,0.0012245,0.0002005,3.5711e+08,98.782,0,4.3472e+08,38.377,12990,12054,1,12054,1,7.7844e-05,-6.3432e-10,0,0.00059456,-1.4249e-05,2.834e+07,-196.18,0,2.1673e+08,-8.5256,12053,11097,1,11097,1,-0.0010688,-1.4307e-09,0,3.5375e-05,-0.00022884,-4.3472e+08,-465.83,0,1.2972e+07,-116.44,11096,11599,1,11599,1,-0.00051671,-9.0834e-10,0,0.00029728,-0.00012553,-2.1016e+08,-277.91,0,1.131e+08,-29.489,11598,12509,1,12509,1,0.0006724,-2.2673e-10,0,0.00089184,9.7018e-05,2.1748e+08,-72.8,0,3.0489e+08,8.3523,12508,527.81,0,527.81,0,0.00068629,4.3424e-10,0,0.00034691,0.00012846,2.4187e+08,137.27,0,1.178e+08,26.9,527.81,1
1820,4.14,12054,1,12054,1,7.8425e-05,-1.465e-09,0,0.00059863,-1.4348e-05,-47.319,-457.04,0,2.1158e+08,23.74,12053,12991,1,12991,1,0.001228,1.1751e-09,0,0.001228,0.00020094,3.5751e+08,402.45,0,4.3568e+08,210.35,12990,12054,1,12054,1,7.8425e-05,-1.0594e-09,0,0.00059607,-1.4357e-05,2.8544e+07,-320.85,0,2.1716e+08,11.435,12053,11097,1,11097,1,-0.0010712,-5.2338e-09,0,3.5848e-05,-0.00022949,-4.3568e+08,-1627.8,0,1.3144e+07,-99.798,11096,11599,1,11599,1,-0.00051765,-2.7623e-09,0,0.00029804,-0.00012592,-2.1054e+08,-852.72,0,1.1335e+08,-24.455,11598,12509,1,12509,1,0.0006745,2.9323e-11,0,0.00089411,9.7193e-05,2.1791e+08,7.6862,0,3.0539e+08,56.273,12508,527.81,0,527.81,0,0.00068803,1.6359e-09,0,0.00034783,0.00012879,2.4231e+08,514.61,0,1.1799e+08,66.252,527.81,1
1820,4.15,12054,1,12054,1,7.9007e-05,-1.844e-09,0,0.00060018,-1.4455e-05,11.068,-580.55,0,2.1197e+08,19.296,12053,12991,1,12991,1,0.0012315,1.7897e-09,0,0.0012315,0.00020139,3.579e+08,564.67,0,4.3664e+08,223.55,12990,12054,1,12054,1,7.9007e-05,-1.4648e-09,0,0.00059759,-1.4465e-05,2.8747e+07,-444.41,0,2.1759e+08,22.275,12053,11097,1,11097,1,-0.0010735,-6.432e-09,0,3.632e-05,-0.00023014,-4.3664e+08,-2027,0,1.3315e+07,-163.44,11096,11599,1,11599,1,-0.00051858,-3.6373e-09,0,0.0002988,-0.00012631,-2.1092e+08,-1137.3,0,1.136e+08,-41.674,11598,12509,1,12509,1,0.0006766,8.2547e-11,0,0.00089639,9.7369e-05,2.1834e+08,26.655,0,3.0589e+08,72.746,12508,527.81,0,527.81,0,0.00068979,2.1524e-09,0,0.00034876,0.00012911,2.4275e+08,682.62,0,1.1819e+08,79.435,527.81,1
1820,4.16,12054,1,12054,1,7.9591e-05,-3.1271e-09,0,0.00060173,-1.4562e-05,170.82,-981.61,0,2.1237e+08,12.973,12053,12991,1,12991,1,0.0012351,2.0888e-09,0,0.0012351,0.00020183,3.5829e+08,715.41,0,4.3759e+08,401.96,12990,12054,1,12054,1,7.9592e-05,-2.5172e-09,0,0.0005991,-1.4573e-05,2.8952e+07,-763.65,0,2.1801e+08,19.316,12053,11097,1,11097,1,-0.0010759,-1.0447e-08,0,3.6796e-05,-0.0002308,-4.3759e+08,-3280.5,0,1.3487e+07,-339.12,11096,11599,1,11599,1,-0.00051951,-6.0407e-09,0,0.00029956,-0.0001267,-2.113e+08,-1878,0,1.1385e+08,-101.25,11598,12509,1,12509,1,0.0006787,6.6075e-11,0,0.00089867,9.7544e-05,2.1877e+08,20.832,0,3.0638e+08,109.78,12508,527.81,0,527.81,0,0.00069153,3.4177e-09,0,0.00034968,0.00012944,2.4319e+08,1083.8,0,1.1839e+08,155.75,527.81,1
1820,4.17,12054,1,12054,1,8.0179e-05,-9.4382e-10,0,0.00060329,-1.467e-05,101.54,-314.99,0,2.1276e+08,-5.1052,12053,12991,1,12991,1,0.0012386,3.1183e-09,0,0.0012386,0.00020226,3.5868e+08,974.34,0,4.3854e+08,151.69,12990,12054,1,12054,1,8.018e-05,-3.1654e-10,0,0.00060063,-1.4682e-05,2.9157e+07,-103.76,0,2.1844e+08,2.7393,12053,11097,1,11097,1,-0.0010782,-5.5631e-09,0,3.7273e-05,-0.00023145,-4.3854e+08,-1847,0,1.366e+07,-192.09,11096,11599,1,11599,1,-0.00052045,-2.4418e-09,0,0.00030032,-0.00012709,-2.1168e+08,-789.41,0,1.141e+08,-47.671,11598,12509,1,12509,1,0.00068081,6.0279e-10,0,0.00090095,9.772e-05,2.192e+08,169.13,0,3.0688e+08,41.956,12508,527.81,0,527.81,0,0.00069329,2.0941e-09,0,0.00035061,0.00012977,2.4363e+08,671.52,0,1.1859e+08,68.59,527.81,1
1820,4.18,12054,1,12054,1,8.0773e-05,-3.0226e-09,0,0.00060486,-1.4779e-05,-8.5388,-948.76,0,2.1316e+08,-16.49,12053,12991,1,12991,1,0.0012421,1.1134e-09,0,0.0012421,0.00020271,3.5907e+08,316.5,0,4.3951e+08,161.3,12990,12054,1,12054,1,8.0773e-05,-3.0042e-09,0,0.00060216,-1.4792e-05,2.9364e+07,-905.52,0,2.1887e+08,-1.5968,12053,11097,1,11097,1,-0.0010806,-6.9139e-09,0,3.7758e-05,-0.00023211,-4.3951e+08,-2231.5,0,1.3835e+07,-283.99,11096,11599,1,11599,1,-0.00052139,-4.8628e-09,0,0.00030108,-0.00012749,-2.1206e+08,-1539.7,0,1.1435e+08,-66.605,11598,12509,1,12509,1,0.00068294,-1.3217e-09,0,0.00090325,9.7896e-05,2.1963e+08,-385.98,0,3.0738e+08,36.097,12508,527.81,0,527.81,0,0.00069506,2.1785e-09,0,0.00035155,0.0001301,2.4407e+08,703.4,0,1.1879e+08,78.684,527.81,1
1820,4.19,12054,1,12054,1,8.137e-05,-3.8091e-09,0,0.00060642,-1.4889e-05,-171.73,-1197.7,0,2.1355e+08,28.115,12053,12991,1,12991,1,0.0012457,1.9802e-09,0,0.0012457,0.00020315,3.5946e+08,678.19,0,4.4047e+08,374.3,12990,12054,1,12054,1,8.137e-05,-3.1569e-09,0,0.00060369,-1.4902e-05,2.9573e+07,-971.09,0,2.1929e+08,32.772,12053,11097,1,11097,1,-0.0010829,-1.138e-08,0,3.8245e-05,-0.00023277,-4.4047e+08,-3588.7,0,1.4011e+07,-244.94,11096,11599,1,11599,1,-0.00052232,-6.7311e-09,0,0.00030185,-0.00012788,-2.1244e+08,-2110.6,0,1.146e+08,-60.065,11598,12509,1,12509,1,0.00068506,-7.1167e-10,0,0.00090554,9.8071e-05,2.2006e+08,-206.58,0,3.0787e+08,99.772,12508,527.81,0,527.81,0,0.00069682,3.5151e-09,0,0.00035248,0.00013042,2.4451e+08,1120.9,0,1.1899e+08,121.7,527.81,1
1820,4.2,12054,1,12054,1,8.1972e-05,-2.7241e-09,0,0.00060798,-1.4999e-05,42.718,-870.57,0,2.1394e+08,-15.434,12053,12991,1,12991,1,0.0012492,1.5871e-09,0,0.0012492,0.00020359,3.5983e+08,417.32,0,4.4142e+08,221.52,12990,12054,1,12054,1,8.1972e-05,-2.5404e-09,0,0.00060521,-1.5014e-05,2.9782e+07,-758.19,0,2.1972e+08,0.181,12053,11097,1,11097,1,-0.0010853,-7.4275e-09,0,3.8737e-05,-0.00023343,-4.4142e+08,-2439.3,0,1.4189e+07,-306.85,11096,11599,1,11599,1,-0.00052324,-4.6695e-09,0,0.00030261,-0.00012828,-2.1281e+08,-1507.2,0,1.1484e+08,-86.31,11598,12509,1,12509,1,0.00068719,-7.6117e-10,0,0.00090783,9.8245e-05,2.2049e+08,-215.7,0,3.0836e+08,54.624,12508,527.81,0,527.81,0,0.00069859,2.403e-09,0,0.00035342,0.00013075,2.4495e+08,779.32,0,1.1919e+08,103.15,527.81,1
1820,4.21,12054,1,12054,1,8.2577e-05,-1.8766e-09,0,0.00060955,-1.511e-05,9.474,-606.35,0,2.1433e+08,-20.218,12053,12991,1,12991,1,0.0012528,7.202e-10,0,0.0012528,0.00020403,3.602e+08,175.45,0,4.4237e+08,67.755,12990,12054,1,12054,1,8.2577e-05,-2.1923e-09,0,0.00060675,-1.5126e-05,2.9993e+07,-660.98,0,2.2014e+08,-4.8851,12053,11097,1,11097,1,-0.0010876,-3.8509e-09,0,3.9232e-05,-0.00023409,-4.4237e+08,-1317.4,0,1.4368e+07,-204.87,11096,11599,1,11599,1,-0.00052417,-3.2212e-09,0,0.00030338,-0.00012867,-2.1319e+08,-1050.6,0,1.1509e+08,-56.513,11598,12509,1,12509,1,0.00068933,-5.0968e-10,0,0.00091013,9.8419e-05,2.2092e+08,-157.78,0,3.0885e+08,22.431,12508,527.81,0,527.81,0,0.00070036,1.4582e-09,0,0.00035436,0.00013108,2.4539e+08,476.82,0,1.1938e+08,56.726,527.81,1
1820,4.22,12054,1,12054,1,8.3193e-05,5.867e-10,0,0.00061111,-1.5223e-05,4.4287,158.84,0,2.1472e+08,7.3366,12053,12991,1,12991,1,0.0012563,4.7963e-09,0,0.0012563,0.00020446,3.6057e+08,1458.7,0,4.433e+08,127.49,12990,12054,1,12054,1,8.3193e-05,3.7151e-10,0,0.00060827,-1.524e-05,3.0206e+07,97.197,0,2.2056e+08,10.76,12053,11097,1,11097,1,-0.0010899,-1.8467e-09,0,3.974e-05,-0.00023475,-4.433e+08,-632.08,0,1.455e+07,-142.88,11096,11599,1,11599,1,-0.00052508,-4.7639e-10,0,0.00030414,-0.00012907,-2.1356e+08,-154.77,0,1.1534e+08,-21.453,11598,12509,1,12509,1,0.00069147,1.5776e-09,0,0.00091241,9.859e-05,2.2134e+08,463.59,0,3.0933e+08,43.217,12508,527.81,0,527.81,0,0.00070212,1.5023e-09,0,0.00035529,0.00013141,2.4582e+08,458.5,0,1.1958e+08,45.229,527.81,1
1820,4.23,12054,1,12054,1,8.3843e-05,-2.1641e-09,0,0.00061269,-1.5342e-05,-243.24,-674.41,0,2.1509e+08,35.015,12053,12991,1,12991,1,0.0012599,1.6422e-09,0,0.0012599,0.0002049,3.6092e+08,562.43,0,4.4426e+08,182.96,12990,12054,1,12054,1,8.3843e-05,-1.7919e-09,0,0.00060981,-1.5359e-05,3.0424e+07,-550.45,0,2.2097e+08,27.817,12053,11097,1,11097,1,-0.0010923,-7.3331e-09,0,4.0283e-05,-0.00023542,-4.4426e+08,-2278.8,0,1.4742e+07,-88.538,11096,11599,1,11599,1,-0.00052597,-3.9787e-09,0,0.00030491,-0.00012947,-2.1392e+08,-1233.9,0,1.1557e+08,-6.9495,11598,12509,1,12509,1,0.00069366,-1.0031e-10,0,0.00091472,9.8758e-05,2.2175e+08,-28.761,0,3.098e+08,75.052,12508,527.81,0,527.81,0,0.00070389,2.2482e-09,0,0.00035624,0.00013174,2.4624e+08,705.92,0,1.1977e+08,59.555,527.81,1
1820,4.24,12054,1,12054,1,8.4508e-05,-1.5068e-09,0,0.00061427,-1.5464e-05,-6.6785,-481.97,0,2.1547e+08,-1.8104,12053,12991,1,12991,1,0.0012636,3.9147e-09,0,0.0012636,0.00020534,3.6126e+08,1219.2,0,4.452e+08,225.18,12990,12054,1,12054,1,8.4507e-05,-9.6301e-10,0,0.00061135,-1.5482e-05,3.0648e+07,-289.57,0,2.2138e+08,4.5229,12053,11097,1,11097,1,-0.0010946,-7.3857e-09,0,4.0834e-05,-0.0002361,-4.452e+08,-2327.3,0,1.4937e+07,-213.43,11096,11599,1,11599,1,-0.00052685,-3.7177e-09,0,0.00030568,-0.00012988,-2.1428e+08,-1159,0,1.1581e+08,-67.187,11598,12509,1,12509,1,0.00069587,4.9313e-10,0,0.00091704,9.8924e-05,2.2216e+08,129.37,0,3.1027e+08,57.269,12508,527.81,0,527.81,0,0.00070567,2.7545e-09,0,0.00035719,0.00013207,2.4666e+08,868.48,0,1.1996e+08,91.245,527.81,1
1820,4.25,12054,1,12054,1,8.5182e-05,-5.2384e-10,0,0.00061587,-1.5587e-05,29.594,-182.5,0,2.1584e+08,3.0139,12053,12991,1,12991,1,0.0012673,6.4974e-09,0,0.0012673,0.00020577,3.6159e+08,2018.6,0,4.4614e+08,231.23,12990,12054,1,12054,1,8.5183e-05,-5.4934e-11,0,0.00061291,-1.5606e-05,3.0874e+07,-16.619,0,2.2178e+08,5.0283,12053,11097,1,11097,1,-0.0010969,-6.0496e-09,0,4.14e-05,-0.00023678,-4.4614e+08,-1915,0,1.5135e+07,-258.33,11096,11599,1,11599,1,-0.00052773,-2.5349e-09,0,0.00030646,-0.0001303,-2.1464e+08,-787.21,0,1.1605e+08,-57.746,11598,12509,1,12509,1,0.0006981,1.1006e-09,0,0.00091938,9.909e-05,2.2256e+08,297.24,0,3.1074e+08,69.156,12508,527.81,0,527.81,0,0.00070747,2.6754e-09,0,0.00035815,0.00013241,2.4708e+08,845.29,0,1.2016e+08,100.12,527.81,1
1820,4.26,12054,1,12054,1,8.5863e-05,-9.62e-10,0,0.00061748,-1.5712e-05,66.847,-311.25,0,2.1622e+08,-57.579,12053,12991,1,12991,1,0.001271,9.7621e-10,0,0.001271,0.00020621,3.6193e+08,301.47,0,4.4709e+08,80.864,12990,12054,1,12054,1,8.5864e-05,-9.6019e-10,0,0.00061448,-1.5731e-05,3.1102e+07,-280.75,0,2.2219e+08,-41.468,12053,11097,1,11097,1,-0.0010992,-3.1161e-09,0,4.1967e-05,-0.00023747,-4.4709e+08,-1033.3,0,1.5335e+07,-261.51,11096,11599,1,11599,1,-0.00052862,-1.7942e-09,0,0.00030725,-0.00013071,-2.15e+08,-584.1,0,1.1629e+08,-107.66,11598,12509,1,12509,1,0.00070035,-8.9047e-11,0,0.00092173,9.9257e-05,2.2298e+08,-26.816,0,3.1121e+08,-8.0733,12508,527.81,0,527.81,0,0.00070928,1.0767e-09,0,0.00035912,0.00013275,2.4751e+08,349.37,0,1.2035e+08,65.476,527.81,1
1820,4.27,12054,1,12054,1,8.655e-05,-2.8324e-09,0,0.00061906,-1.5837e-05,4.2749,-885.9,0,2.1658e+08,17.226,12053,12991,1,12991,1,0.0012746,2.1462e-09,0,0.0012746,0.00020664,3.6224e+08,702.8,0,4.4803e+08,264.35,12990,12054,1,12054,1,8.655e-05,-2.0951e-09,0,0.00061602,-1.5857e-05,3.133e+07,-650.03,0,2.2259e+08,14.812,12053,11097,1,11097,1,-0.0011015,-9.8975e-09,0,4.2545e-05,-0.00023815,-4.4803e+08,-3091,0,1.5537e+07,-211.74,11096,11599,1,11599,1,-0.00052947,-5.3544e-09,0,0.00030802,-0.00013113,-2.1535e+08,-1660.1,0,1.1652e+08,-49.079,11598,12509,1,12509,1,0.00070258,-4.7496e-11,0,0.00092404,9.9419e-05,2.2337e+08,-13.843,0,3.1166e+08,85.763,12508,527.81,0,527.81,0,0.00071106,3.1642e-09,0,0.00036008,0.00013308,2.4792e+08,1001.2,0,1.2054e+08,105.61,527.81,1
1820,4.28,12054,1,12054,1,8.7235e-05,-1.8045e-09,0,0.00062066,-1.5963e-05,-173.93,-579.22,0,2.1696e+08,-18.365,12053,12991,1,12991,1,0.0012783,9.7761e-10,0,0.0012783,0.00020708,3.6256e+08,234.35,0,4.4897e+08,105.31,12990,12054,1,12054,1,8.7235e-05,-1.6476e-09,0,0.00061758,-1.5984e-05,3.1559e+07,-494.21,0,2.2299e+08,-3.4398,12053,11097,1,11097,1,-0.0011038,-4.69e-09,0,4.3118e-05,-0.00023883,-4.4897e+08,-1588.4,0,1.5738e+07,-241.42,11096,11599,1,11599,1,-0.00053034,-3.2503e-09,0,0.0003088,-0.00013154,-2.157e+08,-1050.4,0,1.1676e+08,-58.584,11598,12509,1,12509,1,0.00070482,-3.8546e-10,0,0.00092638,9.9583e-05,2.2378e+08,-108.31,0,3.1212e+08,33.26,12508,527.81,0,527.81,0,0.00071286,1.6352e-09,0,0.00036104,0.00013341,2.4834e+08,534.2,0,1.2073e+08,69.824,527.81,1
1820,4.29,12054,1,12054,1,8.7926e-05,-2.6997e-09,0,0.00062224,-1.6089e-05,389.68,-850.3,0,2.1732e+08,26.566,12053,12991,1,12991,1,0.001282,4.4024e-09,0,0.001282,0.00020751,3.6287e+08,1343.5,0,4.499e+08,363.44,12990,12054,1,12054,1,8.7926e-05,-1.8357e-09,0,0.00061912,-1.6111e-05,3.1789e+07,-563.41,0,2.2339e+08,22.234,12053,11097,1,11097,1,-0.0011061,-1.1419e-08,0,4.37e-05,-0.00023952,-4.499e+08,-3560.2,0,1.5942e+07,-281.61,11096,11599,1,11599,1,-0.00053119,-5.7604e-09,0,0.00030956,-0.00013196,-2.1605e+08,-1772.5,0,1.1699e+08,-60.4,11598,12509,1,12509,1,0.00070705,4.5814e-10,0,0.00092869,9.9744e-05,2.2418e+08,126.67,0,3.1256e+08,103.24,12508,527.81,0,527.81,0,0.00071463,3.9169e-09,0,0.000362,0.00013374,2.4874e+08,1226.3,0,1.2091e+08,130.4,527.81,1
1820,4.3,12054,1,12054,1,8.8616e-05,-3.2817e-09,0,0.00062384,-1.6215e-05,429.86,-1036.2,0,2.1769e+08,-75.841,12053,12991,1,12991,1,0.0012857,2.0015e-09,0,0.0012857,0.00020794,3.6319e+08,573.6,0,4.5084e+08,230.63,12990,12054,1,12054,1,8.8616e-05,-3.2249e-09,0,0.00062067,-1.6238e-05,3.2019e+07,-955.49,0,2.2379e+08,-45.162,12053,11097,1,11097,1,-0.0011084,-9.4086e-09,0,4.4279e-05,-0.0002402,-4.5084e+08,-2957.3,0,1.6145e+07,-507.46,11096,11599,1,11599,1,-0.00053206,-5.7311e-09,0,0.00031034,-0.00013237,-2.164e+08,-1821.3,0,1.1722e+08,-160.11,11598,12509,1,12509,1,0.00070929,-9.7781e-10,0,0.00093102,9.9906e-05,2.2458e+08,-276.2,0,3.1302e+08,28.285,12508,527.81,0,527.81,0,0.00071643,2.9067e-09,0,0.00036297,0.00013408,2.4916e+08,926.8,0,1.211e+08,150.58,527.81,1
1820,4.31,12054,1,12054,1,8.9319e-05,-1.11e-09,0,0.00062545,-1.6344e-05,-162.48,-371.73,0,2.1806e+08,1.5649,12053,12991,1,12991,1,0.0012894,1.1029e-09,0,0.0012894,0.00020838,3.635e+08,316.29,0,4.5178e+08,196.5,12990,12054,1,12054,1,8.9319e-05,-7.8919e-10,0,0.00062226,-1.6367e-05,3.2252e+07,-244.53,0,2.242e+08,1.2232,12053,11097,1,11097,1,-0.0011108,-4.7858e-09,0,4.4015e-05,-0.00024089,-4.5178e+08,-1550.3,0,1.635e+07,-221.26,11096,11599,1,11599,1,-0.00053293,-2.2925e-09,0,0.00031112,-0.00013279,-2.1675e+08,-733.92,0,1.1746e+08,-40.593,11598,12509,1,12509,1,0.00071157,2.7505e-10,0,0.00093337,0.00010007,2.2498e+08,80.362,0,3.1348e+08,37.562,12508,527.81,0,527.81,0,0.00071825,1.6061e-09,0,0.00036395,0.00013442,2.4958e+08,512.95,0,1.2129e+08,78.579,527.81,1
1820,4.32,12054,1,12054,1,9.0028e-05,-4.3081e-09,0,0.00062705,-1.6473e-05,377.64,-1342.6,0,2.1842e+08,-35.086,12053,12991,1,12991,1,0.0012931,1.4476e-09,0,0.0012931,0.00020881,3.638e+08,436.01,0,4.5272e+08,170.76,12990,12054,1,12054,1,9.0027e-05,-4.6488e-09,0,0.0006238,-1.6498e-05,3.2487e+07,-1438.8,0,2.2459e+08,-26.924,12053,11097,1,11097,1,-0.0011131,-9.0452e-09,0,4.3641e-05,-0.00024158,-4.5272e+08,-2875.4,0,1.6559e+07,-324.89,11096,11599,1,11599,1,-0.00053377,-6.7341e-09,0,0.0003119,-0.00013321,-2.171e+08,-2118.2,0,1.1769e+08,-100.04,11598,12509,1,12509,1,0.00071383,-2.0568e-09,0,0.0009357,0.00010023,2.2538e+08,-588.97,0,3.1392e+08,41.638,12508,527.81,0,527.81,0,0.00072004,2.8492e-09,0,0.00036491,0.00013475,2.4998e+08,915.43,0,1.2148e+08,100.94,527.81,1
1820,4.33,12054,1,12054,1,9.0735e-05,2.0988e-09,0,0.00062865,-1.6603e-05,217.25,606.13,0,2.1878e+08,3.0101,12053,12991,1,12991,1,0.0012968,5.6165e-09,0,0.0012968,0.00020924,3.6411e+08,1617.5,0,4.5364e+08,207.69,12990,12054,1,12054,1,9.0736e-05,2.1329e-09,0,0.00062536,-1.6628e-05,3.2723e+07,634.44,0,2.2498e+08,-4.184,12053,11097,1,11097,1,-0.0011153,-1.2812e-09,0,4.3262e-05,-0.00024226,-4.5364e+08,-438.79,0,1.6766e+07,-203.85,11096,11599,1,11599,1,-0.00053462,4.0024e-10,0,0.00031268,-0.00013363,-2.1744e+08,128.91,0,1.1792e+08,-51.425,11598,12509,1,12509,1,0.0007161,3.833e-09,0,0.00093804,0.00010039,2.2578e+08,1098,0,3.1436e+08,54.371,12508,527.81,0,527.81,0,0.00072184,1.9222e-09,0,0.00036589,0.00013509,2.5039e+08,556.95,0,1.2167e+08,81.806,527.81,1
1820,4.34,12054,1,12054,1,9.1436e-05,-3.6553e-09,0,0.00063017,-1.6731e-05,65.615,-1118.7,0,2.1911e+08,64.32,12053,12991,1,12991,1,0.0013004,1.046e-08,0,0.0013004,0.00020965,3.6436e+08,3178.4,0,4.5453e+08,424.13,12990,12054,1,12054,1,9.1435e-05,-2.5948e-09,0,0.00062684,-1.6757e-05,3.2954e+07,-780.95,0,2.2535e+08,43.576,12053,11097,1,11097,1,-0.0011175,-1.6327e-08,0,4.2886e-05,-0.00024293,-4.5453e+08,-4981.4,0,1.6975e+07,-274.86,11096,11599,1,11599,1,-0.00053541,-8.3119e-09,0,0.00031342,-0.00013404,-2.1776e+08,-2543.5,0,1.1814e+08,-48.481,11598,12509,1,12509,1,0.00071828,5.7063e-10,0,0.00094027,0.00010054,2.2614e+08,158.04,0,3.1477e+08,189.55,12508,527.81,0,527.81,0,0.00072354,6.0974e-09,0,0.00036681,0.0001354,2.5076e+08,1876.7,0,1.2184e+08,157.27,527.81,1
1820,4.35,12054,1,12054,1,9.214e-05,-4.068e-09,0,0.00063183,-1.686e-05,10.943,-1265.9,0,2.195e+08,-75.79,12053,12991,1,12991,1,0.0013042,1.8191e-09,0,0.0013042,0.0002101,3.647e+08,553.21,0,4.5552e+08,133.82,12990,12054,1,12054,1,9.2142e-05,-3.9263e-09,0,0.00062846,-1.6887e-05,3.3188e+07,-1179.6,0,2.2577e+08,-58.424,12053,11097,1,11097,1,-0.0011199,-1.0101e-08,0,4.2525e-05,-0.00024364,-4.5552e+08,-3162.8,0,1.7179e+07,-392.66,11096,11599,1,11599,1,-0.00053632,-6.4973e-09,0,0.00031423,-0.00013447,-2.1813e+08,-2034.3,0,1.1838e+08,-159.14,11598,12509,1,12509,1,0.0007206,-1.7215e-09,0,0.00094269,0.00010071,2.2656e+08,-491.84,0,3.1525e+08,17.735,12508,527.81,0,527.81,0,0.00072541,3.0815e-09,0,0.00036782,0.00013575,2.512e+08,987.98,0,1.2204e+08,114.26,527.81,1
1820,4.36,12054,1,12054,1,9.287e-05,-1.5827e-09,0,0.00063342,-1.6993e-05,-339.27,-520.72,0,2.1985e+08,14.052,12053,12991,1,12991,1,0.0013079,5.8391e-09,0,0.0013079,0.00021052,3.6496e+08,1764.5,0,4.5643e+08,225.92,12990,12054,1,12054,1,9.2871e-05,-7.504e-10,0,0.00063002,-1.7021e-05,3.3429e+07,-225.8,0,2.2616e+08,25.408,12053,11097,1,11097,1,-0.0011222,-8.8731e-09,0,4.2124e-05,-0.00024433,-4.5643e+08,-2812,0,1.7131e+07,-205.64,11096,11599,1,11599,1,-0.00053714,-4.3211e-09,0,0.000315,-0.00013489,-2.1846e+08,-1335.8,0,1.1861e+08,-64.797,11598,12509,1,12509,1,0.00072288,8.6893e-10,0,0.00094501,0.00010087,2.2695e+08,229.3,0,3.1567e+08,90.308,12508,527.81,0,527.81,0,0.0007272,3.4524e-09,0,0.00036879,0.00013609,2.516e+08,1089.2,0,1.2222e+08,103.29,527.81,1
1820,4.37,12054,1,12054,1,9.3594e-05,1.1544e-09,0,0.00063503,-1.7126e-05,-458,323.14,0,2.2021e+08,19.579,12053,12991,1,12991,1,0.0013116,7.7908e-09,0,0.0013116,0.00021095,3.6525e+08,2377.6,0,4.5735e+08,303.66,12990,12054,1,12054,1,9.3596e-05,9.7991e-10,0,0.00063157,-1.7155e-05,3.3668e+07,282.03,0,2.2655e+08,12.795,12053,11097,1,11097,1,-0.0011244,-4.0394e-09,0,4.1734e-05,-0.00024502,-4.5735e+08,-1382.5,0,1.6973e+07,-239.88,11096,11599,1,11599,1,-0.00053797,-6.3641e-10,0,0.00031578,-0.00013531,-2.188e+08,-209.7,0,1.1884e+08,-48.884,11598,12509,1,12509,1,0.00072516,3.0046e-09,0,0.00094735,0.00010102,2.2734e+08,858.35,0,3.1611e+08,83.019,12508,527.81,0,527.81,0,0.000729,2.4882e-09,0,0.00036977,0.00013642,2.52e+08,775.41,0,1.2241e+08,102.7,527.81,1
1820,4.38,12054,1,12054,1,9.4324e-05,-2.0404e-09,0,0.00063663,-1.7259e-05,-43.155,-627.53,0,2.2057e+08,-7.9186,12053,12991,1,12991,1,0.0013154,3.3761e-09,0,0.0013154,0.00021138,3.6553e+08,1142.1,0,4.5828e+08,249.26,12990,12054,1,12054,1,9.4325e-05,-1.5749e-09,0,0.00063313,-1.7289e-05,3.3908e+07,-461.77,0,2.2694e+08,-4.2513,12053,11097,1,11097,1,-0.0011267,-7.8765e-09,0,4.1344e-05,-0.00024572,-4.5828e+08,-2458,0,1.6816e+07,-210.8,11096,11599,1,11599,1,-0.0005388,-4.2318e-09,0,0.00031656,-0.00013574,-2.1914e+08,-1293.3,0,1.1907e+08,-79.285,11598,12509,1,12509,1,0.00072746,1.515e-10,0,0.00094969,0.00010118,2.2773e+08,41.493,0,3.1654e+08,51.44,12508,527.81,0,527.81,0,0.0007308,2.6985e-09,0,0.00037075,0.00013676,2.524e+08,848.64,0,1.2259e+08,90.835,527.81,1
1820,4.39,12054,1,12054,1,9.5059e-05,1.9567e-09,0,0.00063824,-1.7394e-05,85.865,577.6,0,2.2093e+08,-32.199,12053,12991,1,12991,1,0.0013191,5.9179e-09,0,0.0013191,0.00021181,3.6581e+08,1812.3,0,4.5921e+08,187.6,12990,12054,1,12054,1,9.5061e-05,1.9521e-09,0,0.00063469,-1.7424e-05,3.415e+07,550.25,0,2.2733e+08,-32.917,12053,11097,1,11097,1,-0.001129,-2.2554e-09,0,4.0941e-05,-0.00024641,-4.5921e+08,-772.11,0,1.6653e+07,-254.15,11096,11599,1,11599,1,-0.00053963,2.1832e-10,0,0.00031735,-0.00013616,-2.1948e+08,67.183,0,1.193e+08,-94.119,11598,12509,1,12509,1,0.00072975,3.7381e-09,0,0.00095204,0.00010134,2.2812e+08,1106.7,0,3.1697e+08,28.929,12508,527.81,0,527.81,0,0.00073261,2.0265e-09,0,0.00037173,0.00013709,2.528e+08,625.45,0,1.2277e+08,90.226,527.81,1
1820,4.4,12054,1,12054,1,9.5799e-05,-6.1019e-11,0,0.00063985,-1.7529e-05,343.06,-13.773,0,2.2128e+08,-35.659,12053,12991,1,12991,1,0.0013229,2.4408e-09,0,0.0013229,0.00021223,3.6607e+08,834.89,0,4.6013e+08,210.35,12990,12054,1,12054,1,9.58e-05,1.8769e-11,0,0.00063626,-1.7561e-05,3.4393e+07,4.9748,0,2.2771e+08,-38.818,12053,11097,1,11097,1,-0.0011313,-3.6718e-09,0,4.0539e-05,-0.0002471,-4.6013e+08,-1142.6,0,1.649e+07,-265.24,11096,11599,1,11599,1,-0.00054045,-7.8321e-10,0,0.00031813,-0.00013659,-2.1981e+08,-240.28,0,1.1953e+08,-89.51,11598,12509,1,12509,1,0.00073205,1.0216e-09,0,0.00095438,0.00010149,2.2851e+08,313.23,0,3.174e+08,14.153,12508,527.81,0,527.81,0,0.00073441,1.4146e-09,0,0.00037271,0.00013743,2.532e+08,448.95,0,1.2296e+08,80.004,527.81,1
1820,4.41,12054,1,12054,1,9.6541e-05,-4.9185e-09,0,0.00064146,-1.7665e-05,269.66,-1495.2,0,2.2163e+08,-20.882,12053,12991,1,12991,1,0.0013267,2.0332e-09,0,0.0013267,0.00021267,3.6635e+08,696.36,0,4.6107e+08,206.29,12990,12054,1,12054,1,9.6541e-05,-4.9186e-09,0,0.00063782,-1.7697e-05,3.4637e+07,-1467.2,0,2.281e+08,-12.793,12053,11097,1,11097,1,-0.0011336,-1.1371e-08,0,4.0131e-05,-0.00024781,-4.6107e+08,-3481,0,1.6326e+07,-284.19,11096,11599,1,11599,1,-0.00054128,-7.8395e-09,0,0.00031891,-0.00013702,-2.2015e+08,-2385.2,0,1.1975e+08,-91.77,11598,12509,1,12509,1,0.00073436,-2.1309e-09,0,0.00095673,0.00010165,2.289e+08,-611.74,0,3.1783e+08,52.181,12508,527.81,0,527.81,0,0.00073622,3.5153e-09,0,0.0003737,0.00013777,2.536e+08,1087.1,0,1.2314e+08,98.221,527.81,1
1820,4.42,12054,1,12054,1,9.7288e-05,-1.6281e-09,0,0.00064308,-1.7802e-05,-106.33,-526.5,0,2.2198e+08,-18.85,12053,12991,1,12991,1,0.0013304,1.342e-09,0,0.0013304,0.00021309,3.666e+08,439.38,0,4.6199e+08,160.61,12990,12054,1,12054,1,9.7288e-05,-1.2369e-09,0,0.0006394,-1.7835e-05,3.4882e+07,-393.51,0,2.2849e+08,-27.597,12053,11097,1,11097,1,-0.0011359,-5.8752e-09,0,3.9718e-05,-0.00024851,-4.6199e+08,-1839.1,0,1.6159e+07,-213.57,11096,11599,1,11599,1,-0.0005421,-2.9168e-09,0,0.00031969,-0.00013745,-2.2048e+08,-944.66,0,1.1999e+08,-88.164,11598,12509,1,12509,1,0.00073668,-1.7459e-10,0,0.00095908,0.0001018,2.2929e+08,-51.408,0,3.1826e+08,50.193,12508,527.81,0,527.81,0,0.00073804,1.81e-09,0,0.00037469,0.0001381,2.5399e+08,579.91,0,1.2332e+08,86.295,527.81,1
1820,4.43,12054,1,12054,1,9.8042e-05,-1.0878e-09,0,0.00064469,-1.7939e-05,-43.691,-359.74,0,2.2233e+08,-1.935,12053,12991,1,12991,1,0.0013342,7.4682e-10,0,0.0013342,0.00021352,3.6686e+08,193.57,0,4.6291e+08,136.46,12990,12054,1,12054,1,9.8042e-05,-6.9304e-10,0,0.00064097,-1.7974e-05,3.5129e+07,-222.01,0,2.2887e+08,-6.6632,12053,11097,1,11097,1,-0.0011381,-4.1809e-09,0,3.9301e-05,-0.00024921,-4.6291e+08,-1400.2,0,1.5991e+07,-147.75,11096,11599,1,11599,1,-0.00054292,-2.0663e-09,0,0.00032047,-0.00013787,-2.2081e+08,-670.4,0,1.2021e+08,-37.438,11598,12509,1,12509,1,0.000739,9.16e-11,0,0.00096143,0.00010196,2.2967e+08,25.046,0,3.1868e+08,34.977,12508,527.81,0,527.81,0,0.00073984,1.3903e-09,0,0.00037568,0.00013844,2.5439e+08,448.16,0,1.235e+08,53.386,527.81,1
1820,4.44,12054,1,12054,1,9.88e-05,-5.6676e-11,0,0.00064631,-1.8078e-05,95.611,-39.119,0,2.2268e+08,-9.4776,12053,12991,1,12991,1,0.001338,1.396e-09,0,0.001338,0.00021394,3.6711e+08,379.52,0,4.6383e+08,106.23,12990,12054,1,12054,1,9.88e-05,-6.2775e-12,0,0.00064253,-1.8113e-05,3.5377e+07,-1.68,0,2.2925e+08,-8.6286,12053,11097,1,11097,1,-0.0011404,-1.578e-09,0,3.8881e-05,-0.0002499,-4.6383e+08,-540.21,0,1.5822e+07,-105.34,11096,11599,1,11599,1,-0.00054373,-6.1583e-10,0,0.00032126,-0.00013831,-2.2115e+08,-203.6,0,1.2044e+08,-26.843,11598,12509,1,12509,1,0.00074133,6.0737e-10,0,0.00096379,0.00010211,2.3005e+08,157.23,0,3.191e+08,8.7541,12508,527.81,0,527.81,0,0.00074166,7.2615e-10,0,0.00037667,0.00013878,2.5478e+08,223.17,0,1.2369e+08,32.999,527.81,1
1820,4.45,12054,1,12054,1,9.956e-05,-1.5435e-09,0,0.00064791,-1.8217e-05,-161.55,-479.3,0,2.2303e+08,25.201,12053,12991,1,12991,1,0.0013418,1.8365e-09,0,0.0013418,0.00021437,3.6736e+08,522.23,0,4.6475e+08,144.7,12990,12054,1,12054,1,9.956e-05,-1.3393e-09,0,0.00064409,-1.8253e-05,3.5625e+07,-395.02,0,2.2963e+08,29.946,12053,11097,1,11097,1,-0.0011426,-5.2504e-09,0,3.8458e-05,-0.00025061,-4.6475e+08,-1627.4,0,1.5652e+07,-162.93,11096,11599,1,11599,1,-0.00054453,-3.1036e-09,0,0.00032204,-0.00013874,-2.2147e+08,-946.08,0,1.2066e+08,-15.07,11598,12509,1,12509,1,0.00074365,9.0185e-11,0,0.00096614,0.00010226,2.3043e+08,27.265,0,3.1951e+08,69.865,12508,527.81,0,527.81,0,0.00074346,1.8042e-09,0,0.00037766,0.00013912,2.5517e+08,560.47,0,1.2386e+08,60.401,527.81,1
1820,4.46,12054,1,12054,1,0.00010033,-8.1784e-10,0,0.00064954,-1.8357e-05,4.4351,-266.2,0,2.2338e+08,-12.436,12053,12991,1,12991,1,0.0013456,6.6613e-10,0,0.0013456,0.00021479,3.6761e+08,153.84,0,4.6567e+08,106.03,12990,12054,1,12054,1,0.00010033,-8.6831e-10,0,0.00064567,-1.8394e-05,3.5875e+07,-272.29,0,2.3002e+08,-10.287,12053,11097,1,11097,1,-0.0011449,-2.2861e-09,0,3.8029e-05,-0.00025131,-4.6567e+08,-771.14,0,1.5479e+07,-112.62,11096,11599,1,11599,1,-0.00054534,-1.5056e-09,0,0.00032283,-0.00013917,-2.218e+08,-477.81,0,1.2089e+08,-35.682,11598,12509,1,12509,1,0.00074599,-1.1908e-10,0,0.0009685,0.00010242,2.3081e+08,-33.477,0,3.1993e+08,11.813,12508,527.81,0,527.81,0,0.00074528,8.274e-10,0,0.00037866,0.00013945,2.5556e+08,265.13,0,1.2405e+08,37.711,527.81,1
1820,4.47,12054,1,12054,1,0.00010109,-3.8038e-10,0,0.00065114,-1.8498e-05,73.121,-131.66,0,2.2372e+08,15.704,12053,12991,1,12991,1,0.0013493,2.903e-09,0,0.0013493,0.00021521,3.6784e+08,816.04,0,4.6658e+08,120.85,12990,12054,1,12054,1,0.00010109,-1.8958e-10,0,0.00064722,-1.8536e-05,3.6125e+07,-58.562,0,2.3039e+08,18.08,12053,11097,1,11097,1,-0.0011471,-2.8213e-09,0,3.7594e-05,-0.00025201,-4.6658e+08,-874.09,0,1.5304e+07,-99.747,11096,11599,1,11599,1,-0.00054613,-1.3129e-09,0,0.00032361,-0.0001396,-2.2212e+08,-418.31,0,1.2111e+08,-17.56,11598,12509,1,12509,1,0.00074832,4.3321e-10,0,0.00097083,0.00010257,2.3119e+08,111.48,0,3.2033e+08,52.079,12508,527.81,0,527.81,0,0.00074707,1.2104e-09,0,0.00037964,0.00013979,2.5594e+08,370.92,0,1.2422e+08,44.032,527.81,1
1820,4.48,12054,1,12054,1,0.00010186,3.7021e-09,0,0.00065275,-1.8639e-05,202.98,1109.9,0,2.2406e+08,-7.1874,12053,12991,1,12991,1,0.0013531,8.8642e-09,0,0.0013531,0.00021564,3.6809e+08,2617.4,0,4.675e+08,273.53,12990,12054,1,12054,1,0.00010186,3.8185e-09,0,0.00064878,-1.8678e-05,3.6376e+07,1125.7,0,2.3076e+08,-22.376,12053,11097,1,11097,1,-0.0011494,-1.538e-09,0,3.7157e-05,-0.00025271,-4.675e+08,-526.74,0,1.5128e+07,-298.59,11096,11599,1,11599,1,-0.00054692,1.5965e-09,0,0.00032439,-0.00014003,-2.2244e+08,466.36,0,1.2133e+08,-75.835,11598,12509,1,12509,1,0.00075065,5.8569e-09,0,0.00097318,0.00010271,2.3156e+08,1780.4,0,3.2074e+08,56.405,12508,527.81,0,527.81,0,0.00074888,2.6864e-09,0,0.00038064,0.00014012,2.5633e+08,814.92,0,1.244e+08,95.632,527.81,1
1820,4.49,12054,1,12054,1,0.00010264,-8.558e-11,0,0.00065437,-1.878e-05,-36.12,-4.2897,0,2.244e+08,-1.1037,12053,12991,1,12991,1,0.0013569,2.1335e-09,0,0.0013569,0.00021606,3.6832e+08,713.76,0,4.6841e+08,137.49,12990,12054,1,12054,1,0.00010264,-1.0291e-10,0,0.00065036,-1.8821e-05,3.6628e+07,-25.387,0,2.3114e+08,-6.3236,12053,11097,1,11097,1,-0.0011516,-1.6577e-09,0,3.6719e-05,-0.00025342,-4.6841e+08,-477.01,0,1.4952e+07,-82.803,11096,11599,1,11599,1,-0.00054772,-8.685e-10,0,0.00032518,-0.00014047,-2.2277e+08,-231.07,0,1.2156e+08,-23.632,11598,12509,1,12509,1,0.000753,5.1721e-10,0,0.00097554,0.00010287,2.3194e+08,172.24,0,3.2115e+08,15.013,12508,527.81,0,527.81,0,0.0007507,9.3955e-10,0,0.00038164,0.00014046,2.5672e+08,286.06,0,1.2458e+08,36.415,527.81,1
1820,4.5,12054,1,12054,1,0.00010342,-1.4206e-11,0,0.00065598,-1.8924e-05,-107.66,4.2061,0,2.2474e+08,4.5688,12053,12991,1,12991,1,0.0013607,1.3072e-09,0,0.0013607,0.00021647,3.6854e+08,447.08,0,4.6931e+08,144.52,12990,12054,1,12054,1,0.00010342,6.0058e-11,0,0.00065192,-1.8965e-05,3.6882e+07,16.283,0,2.3151e+08,1.3865,12053,11097,1,11097,1,-0.0011539,-1.8625e-09,0,3.6274e-05,-0.00025412,-4.6931e+08,-562.6,0,1.4773e+07,-126.87,11096,11599,1,11599,1,-0.0005485,-4.3008e-10,0,0.00032596,-0.0001409,-2.2308e+08,-123.31,0,1.2178e+08,-26.136,11598,12509,1,12509,1,0.00075534,5.4779e-10,0,0.00097788,0.00010301,2.3231e+08,172.35,0,3.2155e+08,34.306,12508,527.81,0,527.81,0,0.0007525,7.4169e-10,0,0.00038263,0.0001408,2.571e+08,231.08,0,1.2476e+08,44.394,527.81,1
1820,4.51,12054,1,12054,1,0.00010421,-9.944e-10,0,0.0006576,-1.9067e-05,-108.88,-297.37,0,2.2508e+08,15.029,12053,12991,1,12991,1,0.0013645,3.5694e-09,0,0.0013645,0.0002169,3.6877e+08,1084.4,0,4.7023e+08,221.07,12990,12054,1,12054,1,0.00010421,-8.0886e-10,0,0.00065349,-1.9109e-05,3.7136e+07,-248.79,0,2.3189e+08,11.62,12053,11097,1,11097,1,-0.0011561,-4.2646e-09,0,3.5827e-05,-0.00025483,-4.7023e+08,-1293.7,0,1.4594e+07,-140.54,11096,11599,1,11599,1,-0.00054929,-2.3971e-09,0,0.00032675,-0.00014134,-2.2341e+08,-717.99,0,1.22e+08,-25.307,11598,12509,1,12509,1,0.0007577,2.1191e-10,0,0.00098024,0.00010316,2.3269e+08,68.956,0,3.2196e+08,49.498,12508,527.81,0,527.81,0,0.00075431,1.6666e-09,0,0.00038364,0.00014114,2.5748e+08,506.29,0,1.2493e+08,62.256,527.81,1
1820,4.52,12054,1,12054,1,0.000105,-6.8517e-10,0,0.00065922,-1.9212e-05,-198.5,-215.76,0,2.2542e+08,24.164,12053,12991,1,12991,1,0.0013684,3.1405e-09,0,0.0013684,0.00021732,3.6898e+08,940.2,0,4.7114e+08,127.26,12990,12054,1,12054,1,0.000105,-3.8088e-10,0,0.00065507,-1.9255e-05,3.7393e+07,-106.29,0,2.3226e+08,29.522,12053,11097,1,11097,1,-0.0011584,-4.1455e-09,0,3.5372e-05,-0.00025554,-4.7114e+08,-1277.7,0,1.4412e+07,-99.18,11096,11599,1,11599,1,-0.00055007,-1.9878e-09,0,0.00032753,-0.00014177,-2.2372e+08,-599.43,0,1.2223e+08,-17.165,11598,12509,1,12509,1,0.00076007,4.1879e-10,0,0.0009826,0.00010331,2.3306e+08,119.97,0,3.2236e+08,67.194,12508,527.81,0,527.81,0,0.00075613,1.6436e-09,0,0.00038464,0.00014147,2.5786e+08,506.15,0,1.2511e+08,54.775,527.81,1
1820,4.53,12054,1,12054,1,0.00010579,2.7153e-09,0,0.00066083,-1.9357e-05,-91.434,808.66,0,2.2575e+08,34.774,12053,12991,1,12991,1,0.0013722,9.0428e-09,0,0.0013722,0.00021774,3.6919e+08,2721.4,0,4.7204e+08,242.71,12990,12054,1,12054,1,0.00010579,2.4531e-09,0,0.00065662,-1.9401e-05,3.765e+07,718.95,0,2.3262e+08,24.537,12053,11097,1,11097,1,-0.0011606,-1.0359e-09,0,3.4909e-05,-0.00025624,-4.7204e+08,-354.77,0,1.4226e+07,-187.39,11096,11599,1,11599,1,-0.00055083,6.0777e-10,0,0.00032831,-0.00014221,-2.2403e+08,178.97,0,1.2244e+08,-25.057,11598,12509,1,12509,1,0.00076242,4.6212e-09,0,0.00098494,0.00010345,2.3342e+08,1381.8,0,3.2275e+08,92.125,12508,527.81,0,527.81,0,0.00075792,2.3698e-09,0,0.00038564,0.00014181,2.5823e+08,720.78,0,1.2528e+08,83.909,527.81,1
1820,4.54,12054,1,12054,1,0.00010659,-9.7929e-11,0,0.00066246,-1.9503e-05,-101.3,-14.517,0,2.2609e+08,-9.9579,12053,12991,1,12991,1,0.001376,2.7665e-09,0,0.001376,0.00021816,3.6941e+08,941.52,0,4.7296e+08,88.997,12990,12054,1,12054,1,0.00010659,-9.9683e-11,0,0.00065821,-1.9549e-05,3.7907e+07,-26.787,0,2.33e+08,-9.1639,12053,11097,1,11097,1,-0.0011628,-2.8139e-09,0,3.4451e-05,-0.00025696,-4.7296e+08,-842.84,0,1.4043e+07,-105.76,11096,11599,1,11599,1,-0.00055162,-9.9402e-10,0,0.0003291,-0.00014265,-2.2435e+08,-274.63,0,1.2267e+08,-36.942,11598,12509,1,12509,1,0.0007648,6.9584e-10,0,0.00098731,0.0001036,2.338e+08,224.5,0,3.2315e+08,19.485,12508,527.81,0,527.81,0,0.00075975,1.2669e-09,0,0.00038665,0.00014215,2.5862e+08,395.56,0,1.2546e+08,38.052,527.81,1
1820,4.55,12054,1,12054,1,0.0001074,-2.5968e-09,0,0.00066408,-1.9651e-05,46.627,-778.26,0,2.2642e+08,15.993,12053,12991,1,12991,1,0.0013799,4.3839e-09,0,0.0013799,0.00021858,3.6962e+08,1372.5,0,4.7387e+08,241.76,12990,12054,1,12054,1,0.0001074,-2.1148e-09,0,0.00065978,-1.9697e-05,3.8167e+07,-629.14,0,2.3336e+08,15.846,12053,11097,1,11097,1,-0.0011651,-9.8884e-09,0,3.3981e-05,-0.00025767,-4.7387e+08,-2996.8,0,1.3855e+07,-238.34,11096,11599,1,11599,1,-0.00055238,-5.5493e-09,0,0.00032989,-0.00014309,-2.2466e+08,-1657.3,0,1.2289e+08,-64.093,11598,12509,1,12509,1,0.00076718,3.0649e-10,0,0.00098967,0.00010375,2.3416e+08,88.667,0,3.2354e+08,85.938,12508,527.81,0,527.81,0,0.00076156,3.4977e-09,0,0.00038766,0.00014249,2.5899e+08,1066.9,0,1.2563e+08,100.46,527.81,1
1820,4.56,12054,1,12054,1,0.00010821,2.5049e-09,0,0.00066572,-1.9799e-05,-15.202,733.15,0,2.2675e+08,-22.205,12053,12991,1,12991,1,0.0013837,5.1275e-09,0,0.0013837,0.000219,3.6983e+08,1445.6,0,4.7478e+08,190.69,12990,12054,1,12054,1,0.00010821,2.7678e-09,0,0.00066137,-1.9847e-05,3.8429e+07,802.45,0,2.3373e+08,-21.408,12053,11097,1,11097,1,-0.0011673,-6.7667e-10,0,3.3507e-05,-0.00025839,-4.7478e+08,-231.75,0,1.3666e+07,-163.71,11096,11599,1,11599,1,-0.00055316,1.0918e-09,0,0.00033069,-0.00014353,-2.2498e+08,319.6,0,1.2311e+08,-64.551,11598,12509,1,12509,1,0.00076958,3.9316e-09,0,0.00099206,0.0001039,2.3453e+08,1174.8,0,3.2394e+08,11.773,12508,527.81,0,527.81,0,0.0007634,1.6779e-09,0,0.00038868,0.00014283,2.5937e+08,488.67,0,1.2581e+08,64.474,527.81,1
1820,4.57,12054,1,12054,1,0.00010903,1.0176e-09,0,0.00066736,-1.995e-05,59.166,313.13,0,2.2709e+08,-13.4,12053,12991,1,12991,1,0.0013876,2.2178e-09,0,0.0013876,0.00021942,3.7002e+08,754.03,0,4.7569e+08,73.938,12990,12054,1,12054,1,0.00010903,1.0517e-09,0,0.00066295,-1.9998e-05,3.8693e+07,304.59,0,2.341e+08,-9.1072,12053,11097,1,11097,1,-0.0011695,-3.2723e-10,0,3.3029e-05,-0.0002591,-4.7569e+08,-73.849,0,1.3476e+07,-132.86,11096,11599,1,11599,1,-0.00055392,4.8497e-10,0,0.00033147,-0.00014398,-2.2529e+08,135.73,0,1.2333e+08,-35.378,11598,12509,1,12509,1,0.00077198,1.5739e-09,0,0.00099443,0.00010404,2.349e+08,490.77,0,3.2432e+08,10.248,12508,527.81,0,527.81,0,0.00076523,6.8116e-10,0,0.0003897,0.00014317,2.5975e+08,219.22,0,1.2599e+08,35.608,527.81,1
1820,4.58,12054,1,12054,1,0.00010985,3.3199e-09,0,0.00066897,-2.01e-05,-82.162,1010.1,0,2.2741e+08,46.953,12053,12991,1,12991,1,0.0013915,9.1382e-09,0,0.0013915,0.00021984,3.7021e+08,2783.3,0,4.7659e+08,427.29,12990,12054,1,12054,1,0.00010985,3.2082e-09,0,0.00066452,-2.0149e-05,3.8956e+07,931.62,0,2.3446e+08,26.078,12053,11097,1,11097,1,-0.0011718,-1.508e-09,0,3.2545e-05,-0.00025982,-4.7659e+08,-516.49,0,1.3283e+07,-216.75,11096,11599,1,11599,1,-0.00055467,5.3659e-10,0,0.00033226,-0.00014442,-2.2559e+08,149.64,0,1.2354e+08,-41.939,11598,12509,1,12509,1,0.00077437,6.0086e-09,0,0.00099678,0.00010418,2.3526e+08,1850.9,0,3.247e+08,124.97,12508,527.81,0,527.81,0,0.00076704,3.0401e-09,0,0.00039071,0.00014351,2.6011e+08,937.99,0,1.2616e+08,124.23,527.81,1
1820,4.59,12054,1,12054,1,0.00011068,-1.6069e-09,0,0.00067062,-2.0251e-05,32.98,-448.72,0,2.2774e+08,-41.3,12053,12991,1,12991,1,0.0013953,6.596e-10,0,0.0013953,0.00022025,3.7041e+08,225.9,0,4.7749e+08,223.78,12990,12054,1,12054,1,0.00011068,-1.5342e-09,0,0.00066611,-2.0301e-05,3.9222e+07,-464.58,0,2.3482e+08,-47.512,12053,11097,1,11097,1,-0.001174,-4.0665e-09,0,3.2057e-05,-0.00026054,-4.7749e+08,-1080.9,0,1.3089e+07,-146.02,11096,11599,1,11599,1,-0.00055543,-2.66e-09,0,0.00033305,-0.00014487,-2.259e+08,-736.87,0,1.2376e+08,-85.125,11598,12509,1,12509,1,0.00077679,-4.5267e-10,0,0.00099916,0.00010433,2.3562e+08,-139.49,0,3.2509e+08,-16.484,12508,527.81,0,527.81,0,0.00076888,1.2875e-09,0,0.00039173,0.00014385,2.6049e+08,346.85,0,1.2633e+08,62.742,527.81,1
1820,4.6,12054,1,12054,1,0.00011151,-2.6161e-09,0,0.00067225,-2.0403e-05,-25.382,-779.45,0,2.2807e+08,2.0598,12053,12991,1,12991,1,0.0013992,1.1952e-09,0,0.0013992,0.00022067,3.7059e+08,409.33,0,4.784e+08,236.16,12990,12054,1,12054,1,0.00011151,-2.6616e-09,0,0.00066769,-2.0454e-05,3.9488e+07,-788.51,0,2.3519e+08,6.2443,12053,11097,1,11097,1,-0.0011762,-6.0873e-09,0,3.1566e-05,-0.00026126,-4.784e+08,-1809.9,0,1.2894e+07,-177.28,11096,11599,1,11599,1,-0.00055618,-4.1665e-09,0,0.00033385,-0.00014531,-2.2621e+08,-1249.9,0,1.2398e+08,-58.721,11598,12509,1,12509,1,0.0007792,-1.2015e-09,0,0.0010015,0.00010447,2.3598e+08,-326.53,0,3.2547e+08,51.825,12508,527.81,0,527.81,0,0.0007707,1.9336e-09,0,0.00039276,0.00014419,2.6086e+08,579.72,0,1.2651e+08,75.782,527.81,1
1820,4.61,12054,1,12054,1,0.00011234,-3.7351e-09,0,0.00067386,-2.0556e-05,637.51,-1138.5,0,2.2838e+08,33.73,12053,12991,1,12991,1,0.0014031,2.0975e-09,0,0.0014031,0.00022109,3.7076e+08,718.35,0,4.7929e+08,367.83,12990,12054,1,12054,1,0.00011234,-3.6308e-09,0,0.00066925,-2.0607e-05,3.9755e+07,-1072.9,0,2.3554e+08,26.034,12053,11097,1,11097,1,-0.0011784,-1.0255e-08,0,3.1066e-05,-0.00026198,-4.7929e+08,-3121.8,0,1.2695e+07,-238.65,11096,11599,1,11599,1,-0.00055691,-6.2156e-09,0,0.00033462,-0.00014576,-2.265e+08,-1899.1,0,1.2419e+08,-69.688,11598,12509,1,12509,1,0.00078159,-1.15e-09,0,0.0010039,0.0001046,2.3634e+08,-339.17,0,3.2584e+08,126.15,12508,527.81,0,527.81,0,0.0007725,3.1026e-09,0,0.00039376,0.00014452,2.6122e+08,955.33,0,1.2667e+08,127.02,527.81,1
1820,4.62,12054,1,12054,1,0.00011317,1.7392e-09,0,0.0006755,-2.0708e-05,145.9,471.73,0,2.2871e+08,-21.183,12053,12991,1,12991,1,0.001407,5.7961e-09,0,0.001407,0.0002215,3.7095e+08,1667.1,0,4.8019e+08,285.51,12990,12054,1,12054,1,0.00011317,1.7107e-09,0,0.00067084,-2.0761e-05,4.0022e+07,473.91,0,2.359e+08,-8.6199,12053,11097,1,11097,1,-0.0011806,-1.3539e-09,0,3.0568e-05,-0.00026269,-4.8019e+08,-463.63,0,1.2498e+07,-338.18,11096,11599,1,11599,1,-0.00055767,-1.2762e-10,0,0.00033542,-0.0001462,-2.2681e+08,-32.161,0,1.2441e+08,-88.987,11598,12509,1,12509,1,0.00078401,3.4912e-09,0,0.0010062,0.00010475,2.367e+08,932.42,0,3.2622e+08,49.074,12508,527.81,0,527.81,0,0.00077433,2.0073e-09,0,0.00039479,0.00014486,2.6159e+08,570.57,0,1.2685e+08,112.22,527.81,1
1820,4.63,12054,1,12054,1,0.00011402,3.5271e-10,0,0.00067715,-2.0863e-05,47.383,88.74,0,2.2904e+08,-12.284,12053,12991,1,12991,1,0.0014109,1.7279e-09,0,0.0014109,0.00022192,3.7112e+08,446.73,0,4.8109e+08,171.61,12990,12054,1,12054,1,0.00011402,1.2553e-10,0,0.00067244,-2.0918e-05,4.0292e+07,36.675,0,2.3626e+08,-13.025,12053,11097,1,11097,1,-0.0011828,-8.1136e-10,0,3.0068e-05,-0.00026342,-4.8109e+08,-197.95,0,1.23e+07,-233.01,11096,11599,1,11599,1,-0.00055842,-1.3906e-10,0,0.00033622,-0.00014666,-2.2712e+08,-46.314,0,1.2463e+08,-64.85,11598,12509,1,12509,1,0.00078646,8.5787e-10,0,0.0010087,0.00010489,2.3706e+08,224.36,0,3.266e+08,40.25,12508,527.81,0,527.81,0,0.00077618,6.2082e-10,0,0.00039583,0.00014521,2.6196e+08,166.08,0,1.2702e+08,77.824,527.81,1
1820,4.64,12054,1,12054,1,0.00011487,-3.7378e-09,0,0.00067877,-2.1019e-05,247.13,-1126,0,2.2936e+08,47.98,12053,12991,1,12991,1,0.0014148,2.0404e-09,0,0.0014148,0.00022233,3.7129e+08,698.79,0,4.82e+08,288.04,12990,12054,1,12054,1,0.00011487,-3.6393e-09,0,0.00067402,-2.1074e-05,4.0563e+07,-1060.3,0,2.3661e+08,35.996,12053,11097,1,11097,1,-0.001185,-1.0221e-08,0,2.9554e-05,-0.00026415,-4.82e+08,-3077.2,0,1.2097e+07,-151.51,11096,11599,1,11599,1,-0.00055914,-6.3506e-09,0,0.000337,-0.00014711,-2.2741e+08,-1932.8,0,1.2484e+08,-24.684,11598,12509,1,12509,1,0.00078888,-8.4498e-10,0,0.001011,0.00010503,2.3741e+08,-254.57,0,3.2696e+08,106.78,12508,527.81,0,527.81,0,0.00077799,3.2129e-09,0,0.00039685,0.00014554,2.6232e+08,977.68,0,1.2719e+08,96.16,527.81,1
1820,4.65,12054,1,12054,1,0.00011573,-3.1365e-09,0,0.00068042,-2.1175e-05,-159.94,-987.55,0,2.2968e+08,-28.708,12053,12991,1,12991,1,0.0014188,1.8635e-09,0,0.0014188,0.00022275,3.7146e+08,535.1,0,4.829e+08,299.54,12990,12054,1,12054,1,0.00011573,-3.0656e-09,0,0.00067561,-2.1231e-05,4.0835e+07,-922.05,0,2.3697e+08,-7.7497,12053,11097,1,11097,1,-0.0011873,-7.9708e-09,0,2.9038e-05,-0.00026488,-4.829e+08,-2621.7,0,1.1894e+07,-511.86,11096,11599,1,11599,1,-0.00055988,-5.5087e-09,0,0.0003378,-0.00014756,-2.2771e+08,-1730.5,0,1.2506e+08,-127.45,11598,12509,1,12509,1,0.00079134,-8.6472e-10,0,0.0010134,0.00010517,2.3776e+08,-227.54,0,3.2734e+08,96.297,12508,527.81,0,527.81,0,0.00077984,2.7151e-09,0,0.00039789,0.00014589,2.6268e+08,868.58,0,1.2736e+08,176.96,527.81,1
1820,4.66,12054,1,12054,1,0.00011659,4.4039e-10,0,0.00068207,-2.1334e-05,68.931,73.901,0,2.3e+08,-22.747,12053,12991,1,12991,1,0.0014227,3.6839e-09,0,0.0014227,0.00022316,3.7161e+08,920.21,0,4.8378e+08,324.78,12990,12054,1,12054,1,0.00011659,9.0351e-11,0,0.00067721,-2.1391e-05,4.111e+07,24.05,0,2.3732e+08,-21.189,12053,11097,1,11097,1,-0.0011894,-1.7584e-09,0,2.8511e-05,-0.0002656,-4.8378e+08,-602.01,0,1.1686e+07,-293.97,11096,11599,1,11599,1,-0.00056061,-9.7109e-10,0,0.00033859,-0.00014801,-2.2801e+08,-330.8,0,1.2527e+08,-95.729,11598,12509,1,12509,1,0.00079379,1.6476e-09,0,0.0010158,0.0001053,2.3812e+08,430.17,0,3.277e+08,39.65,12508,527.81,0,527.81,0,0.00078168,1.5248e-09,0,0.00039893,0.00014623,2.6304e+08,423.12,0,1.2753e+08,113.06,527.81,1
1820,4.67,12054,1,12054,1,0.00011746,-2.9807e-09,0,0.00068371,-2.1492e-05,-14.246,-918.87,0,2.3031e+08,23.567,12053,12991,1,12991,1,0.0014266,1.7953e-09,0,0.0014266,0.00022358,3.7177e+08,614.86,0,4.8469e+08,254.86,12990,12054,1,12054,1,0.00011746,-2.7733e-09,0,0.00067879,-2.155e-05,4.1385e+07,-838.89,0,2.3767e+08,16.688,12053,11097,1,11097,1,-0.0011917,-8.2684e-09,0,2.7991e-05,-0.00026634,-4.8469e+08,-2520.4,0,1.1481e+07,-235.46,11096,11599,1,11599,1,-0.00056133,-5.1082e-09,0,0.00033939,-0.00014847,-2.283e+08,-1549.9,0,1.2548e+08,-53.776,11598,12509,1,12509,1,0.00079625,-8.0057e-10,0,0.0010182,0.00010544,2.3847e+08,-225.96,0,3.2806e+08,101.97,12508,527.81,0,527.81,0,0.00078351,2.5559e-09,0,0.00039996,0.00014657,2.634e+08,794.95,0,1.277e+08,107.24,527.81,1
1820,4.68,12054,1,12054,1,0.00011833,-1.0745e-09,0,0.00068536,-2.1652e-05,69.302,-365.88,0,2.3063e+08,11.366,12053,12991,1,12991,1,0.0014305,2.7028e-09,0,0.0014305,0.00022399,3.7191e+08,704,0,4.8558e+08,260.91,12990,12054,1,12054,1,0.00011833,-8.0577e-10,0,0.00068039,-2.1711e-05,4.1661e+07,-240.03,0,2.3802e+08,5.542,12053,11097,1,11097,1,-0.0011939,-4.8398e-09,0,2.7458e-05,-0.00026706,-4.8558e+08,-1529.2,0,1.1272e+07,-195.7,11096,11599,1,11599,1,-0.00056205,-2.6211e-09,0,0.00034018,-0.00014892,-2.2859e+08,-827.62,0,1.257e+08,-44.352,11598,12509,1,12509,1,0.00079871,4.688e-10,0,0.0010206,0.00010558,2.3882e+08,139.34,0,3.2843e+08,69.68,12508,527.81,0,527.81,0,0.00078535,1.8676e-09,0,0.00040101,0.00014691,2.6376e+08,577.24,0,1.2787e+08,81.037,527.81,1
1820,4.69,12054,1,12054,1,0.00011921,-3.677e-10,0,0.00068701,-2.1813e-05,-192,-148.48,0,2.3094e+08,10.444,12053,12991,1,12991,1,0.0014345,1.9118e-09,0,0.0014345,0.0002244,3.7206e+08,489.31,0,4.8647e+08,270.26,12990,12054,1,12054,1,0.00011921,-3.3703e-10,0,0.00068198,-2.1873e-05,4.1939e+07,-105.72,0,2.3838e+08,4.3068,12053,11097,1,11097,1,-0.001196,-2.3265e-09,0,2.6924e-05,-0.0002678,-4.8647e+08,-796.35,0,1.1063e+07,-109.12,11096,11599,1,11599,1,-0.00056277,-1.3369e-09,0,0.00034098,-0.00014938,-2.2889e+08,-441.31,0,1.2591e+08,-30.521,11598,12509,1,12509,1,0.00080119,6.5113e-10,0,0.001023,0.00010572,2.3917e+08,153.73,0,3.2878e+08,35.967,12508,527.81,0,527.81,0,0.00078719,1.0993e-09,0,0.00040205,0.00014726,2.6412e+08,334.93,0,1.2804e+08,62.368,527.81,1
1820,4.7,12054,1,12054,1,0.00012009,7.1121e-10,0,0.00068865,-2.1974e-05,-241.09,185.4,0,2.3125e+08,29.595,12053,12991,1,12991,1,0.0014384,2.6241e-09,0,0.0014384,0.00022481,3.722e+08,689.07,0,4.8735e+08,282.65,12990,12054,1,12054,1,0.00012009,5.8221e-10,0,0.00068357,-2.2035e-05,4.2218e+07,160.27,0,2.3872e+08,14.22,12053,11097,1,11097,1,-0.0011982,-4.1414e-10,0,2.6383e-05,-0.00026852,-4.8735e+08,-141.81,0,1.0851e+07,-62.864,11096,11599,1,11599,1,-0.00056347,-4.131e-11,0,0.00034178,-0.00014984,-2.2917e+08,-13.907,0,1.2612e+08,-12.178,11598,12509,1,12509,1,0.00080366,1.4814e-09,0,0.0010253,0.00010585,2.3951e+08,384.97,0,3.2913e+08,50.576,12508,527.81,0,527.81,0,0.00078902,8.1654e-10,0,0.00040309,0.0001476,2.6447e+08,219.3,0,1.282e+08,60.578,527.81,1
1820,4.71,12054,1,12054,1,0.00012098,2.1433e-09,0,0.00069029,-2.2136e-05,582.61,629.07,0,2.3156e+08,80.322,12053,12991,1,12991,1,0.0014424,1.0753e-08,0,0.0014424,0.00022522,3.7234e+08,3179.2,0,4.8824e+08,459.03,12990,12054,1,12054,1,0.00012098,1.6125e-09,0,0.00068514,-2.2198e-05,4.2497e+07,486.15,0,2.3906e+08,50.9,12053,11097,1,11097,1,-0.0012004,-2.6271e-09,0,2.5838e-05,-0.00026925,-4.8824e+08,-774.88,0,1.0639e+07,-218.27,11096,11599,1,11599,1,-0.00056417,-2.8772e-10,0,0.00034258,-0.00015029,-2.2946e+08,-78.753,0,1.2633e+08,-19.243,11598,12509,1,12509,1,0.00080612,4.1527e-09,0,0.0010277,0.00010598,2.3985e+08,1218.4,0,3.2948e+08,181.92,12508,527.81,0,527.81,0,0.00079085,2.8596e-09,0,0.00040413,0.00014794,2.6482e+08,847.07,0,1.2837e+08,131.51,527.81,1
1820,4.72,12054,1,12054,1,0.00012186,2.831e-09,0,0.00069195,-2.2298e-05,26.156,863.32,0,2.3187e+08,27.953,12053,12991,1,12991,1,0.0014464,7.8734e-09,0,0.0014464,0.00022564,3.7247e+08,2377.8,0,4.8914e+08,347.75,12990,12054,1,12054,1,0.00012186,2.9627e-09,0,0.00068675,-2.2361e-05,4.2777e+07,859.29,0,2.3941e+08,11.35,12053,11097,1,11097,1,-0.0012026,-1.5145e-09,0,2.5294e-05,-0.00026999,-4.8914e+08,-433.62,0,1.0427e+07,-184.76,11096,11599,1,11599,1,-0.00056488,1.1712e-09,0,0.00034337,-0.00015075,-2.2975e+08,305.27,0,1.2654e+08,-58.977,11598,12509,1,12509,1,0.00080861,4.5907e-09,0,0.0010301,0.00010612,2.402e+08,1426.8,0,3.2984e+08,114.38,12508,527.81,0,527.81,0,0.0007927,2.154e-09,0,0.00040519,0.00014828,2.6517e+08,674.55,0,1.2854e+08,111.28,527.81,1
1820,4.73,12054,1,12054,1,0.00012276,9.5685e-11,0,0.00069361,-2.2463e-05,410.69,68.402,0,2.3218e+08,-2.5431,12053,12991,1,12991,1,0.0014503,3.0997e-09,0,0.0014503,0.00022605,3.726e+08,1015.2,0,4.9002e+08,343.24,12990,12054,1,12054,1,0.00012276,1.12e-10,0,0.00068836,-2.2527e-05,4.3061e+07,33.671,0,2.3976e+08,-18.748,12053,11097,1,11097,1,-0.0012048,-1.9766e-09,0,2.4734e-05,-0.00027073,-4.9002e+08,-495.52,0,1.0209e+07,-199.88,11096,11599,1,11599,1,-0.00056559,-1.0481e-09,0,0.00034417,-0.00015122,-2.3003e+08,-258.14,0,1.2675e+08,-56.221,11598,12509,1,12509,1,0.00081112,9.2615e-10,0,0.0010325,0.00010625,2.4054e+08,298.34,0,3.3019e+08,20.903,12508,527.81,0,527.81,0,0.00079455,1.2736e-09,0,0.00040624,0.00014863,2.6553e+08,380.91,0,1.2871e+08,91.701,527.81,1
1820,4.74,12054,1,12054,1,0.00012367,-3.7567e-10,0,0.00069527,-2.2629e-05,75.921,-88.304,0,2.3249e+08,23.664,12053,12991,1,12991,1,0.0014543,3.4462e-09,0,0.0014543,0.00022645,3.7272e+08,1048.6,0,4.9091e+08,296.94,12990,12054,1,12054,1,0.00012367,-2.3114e-10,0,0.00068996,-2.2694e-05,4.3345e+07,-62.111,0,2.401e+08,20.665,12053,11097,1,11097,1,-0.001207,-3.4065e-09,0,2.4174e-05,-0.00027147,-4.9091e+08,-986.52,0,9.9912e+06,-107.14,11096,11599,1,11599,1,-0.00056628,-1.5568e-09,0,0.00034498,-0.00015168,-2.3032e+08,-449.34,0,1.2696e+08,-19.861,11598,12509,1,12509,1,0.00081362,6.4553e-10,0,0.0010349,0.00010638,2.4088e+08,210.76,0,3.3053e+08,56.302,12508,527.81,0,527.81,0,0.0007964,1.5651e-09,0,0.0004073,0.00014897,2.6587e+08,464.86,0,1.2887e+08,64.75,527.81,1
1820,4.75,12054,1,12054,1,0.00012458,-1.3276e-10,0,0.00069692,-2.2796e-05,-42.515,-32.092,0,2.328e+08,9.4287,12053,12991,1,12991,1,0.0014583,5.4162e-10,0,0.0014583,0.00022686,3.7284e+08,185.45,0,4.9179e+08,282.74,12990,12054,1,12054,1,0.00012458,-7.0374e-11,0,0.00069156,-2.2862e-05,4.3631e+07,-19.941,0,2.4044e+08,-3.0025,12053,11097,1,11097,1,-0.0012091,-1.7536e-09,0,2.3611e-05,-0.00027221,-4.9179e+08,-482.98,0,9.7728e+06,-104.36,11096,11599,1,11599,1,-0.00056698,-3.6665e-10,0,0.00034578,-0.00015215,-2.306e+08,-101.7,0,1.2716e+08,-34.76,11598,12509,1,12509,1,0.00081613,1.4418e-10,0,0.0010373,0.00010651,2.4122e+08,42.235,0,3.3088e+08,35.793,12508,527.81,0,527.81,0,0.00079825,4.2261e-10,0,0.00040836,0.00014931,2.6622e+08,125.27,0,1.2904e+08,68.356,527.81,1
1820,4.76,12054,1,12054,1,0.00012549,3.3807e-09,0,0.00069857,-2.2963e-05,237.04,1003.4,0,2.331e+08,51.657,12053,12991,1,12991,1,0.0014623,8.3389e-09,0,0.0014623,0.00022727,3.7296e+08,2455.6,0,4.9268e+08,372.25,12990,12054,1,12054,1,0.00012549,3.5938e-09,0,0.00069315,-2.303e-05,4.3916e+07,1045,0,2.4077e+08,23.119,12053,11097,1,11097,1,-0.0012113,-1.1519e-09,0,2.3038e-05,-0.00027295,-4.9268e+08,-377.17,0,9.5515e+06,-146.79,11096,11599,1,11599,1,-0.00056765,1.62e-09,0,0.00034657,-0.00015261,-2.3087e+08,467.37,0,1.2737e+08,-40.712,11598,12509,1,12509,1,0.00081864,5.2356e-09,0,0.0010397,0.00010664,2.4155e+08,1585.5,0,3.3121e+08,143.63,12508,527.81,0,527.81,0,0.00080009,2.2956e-09,0,0.00040941,0.00014966,2.6656e+08,692.86,0,1.292e+08,116.1,527.81,1
1820,4.77,12054,1,12054,1,0.00012641,7.1528e-10,0,0.00070023,-2.3131e-05,111.77,244.54,0,2.334e+08,40.074,12053,12991,1,12991,1,0.0014663,4.6205e-09,0,0.0014663,0.00022768,3.7306e+08,1389.5,0,4.9356e+08,419.38,12990,12054,1,12054,1,0.00012641,6.7145e-10,0,0.00069475,-2.3198e-05,4.4203e+07,197.9,0,2.4111e+08,11.367,12053,11097,1,11097,1,-0.0012135,-1.817e-09,0,2.2463e-05,-0.00027369,-4.9356e+08,-453.37,0,9.3293e+06,-177.37,11096,11599,1,11599,1,-0.00056834,-4.7806e-10,0,0.00034737,-0.00015307,-2.3115e+08,-119.19,0,1.2758e+08,-48.068,11598,12509,1,12509,1,0.00082116,1.7768e-09,0,0.0010421,0.00010677,2.4189e+08,563.98,0,3.3155e+08,127.74,12508,527.81,0,527.81,0,0.00080193,1.2922e-09,0,0.00041048,0.00015,2.6691e+08,391.5,0,1.2936e+08,121.5,527.81,1
1820,4.78,12054,1,12054,1,0.00012732,-5.2998e-11,0,0.00070186,-2.3298e-05,4.5774,19.763,0,2.3369e+08,194.42,12053,12991,1,12991,1,0.0014703,1.6617e-08,0,0.0014703,0.00022808,3.7316e+08,4932.4,0,4.9443e+08,842.16,12990,12054,1,12054,1,0.00012733,-6.3128e-10,0,0.00069633,-2.3367e-05,4.449e+07,-190.59,0,2.4144e+08,188.26,12053,11097,1,11097,1,-0.0012156,-1.3021e-08,0,2.1884e-05,-0.00027443,-4.9443e+08,-3724.6,0,9.1061e+06,-297.36,11096,11599,1,11599,1,-0.000569,-3.4791e-09,0,0.00034816,-0.00015354,-2.3142e+08,-994.85,0,1.2778e+08,10.664,11598,12509,1,12509,1,0.00082365,3.4783e-09,0,0.0010445,0.0001069,2.4221e+08,1022.4,0,3.3187e+08,324.03,12508,527.81,0,527.81,0,0.00080375,5.8133e-09,0,0.00041152,0.00015034,2.6724e+08,1717.7,0,1.2952e+08,223.81,527.81,1
1820,4.79,12054,1,12054,1,0.00012825,2.4274e-09,0,0.00070355,-2.3468e-05,-118.31,749.34,0,2.34e+08,-12.286,12053,12991,1,12991,1,0.0014744,7.4397e-09,0,0.0014744,0.0002285,3.7328e+08,2262.5,0,4.9533e+08,410.6,12990,12054,1,12054,1,0.00012825,2.5934e-09,0,0.00069796,-2.3538e-05,4.478e+07,735.35,0,2.4178e+08,-7.8776,12053,11097,1,11097,1,-0.0012178,-1.9932e-09,0,2.1304e-05,-0.00027518,-4.9533e+08,-447.61,0,8.8832e+06,-363.69,11096,11599,1,11599,1,-0.0005697,5.5557e-10,0,0.00034897,-0.00015401,-2.3171e+08,160.64,0,1.2799e+08,-115.4,11598,12509,1,12509,1,0.00082621,4.2253e-09,0,0.0010469,0.00010703,2.4256e+08,1289.8,0,3.3222e+08,96.102,12508,527.81,0,527.81,0,0.00080563,2.2246e-09,0,0.00041261,0.00015069,2.6759e+08,696.87,0,1.2969e+08,153,527.81,1
1820,4.8,12054,1,12054,1,0.00012919,1.5074e-09,0,0.00070522,-2.3641e-05,67.099,493.61,0,2.3429e+08,-3.8703,12053,12991,1,12991,1,0.0014784,6.6173e-09,0,0.0014784,0.0002289,3.7336e+08,2042.7,0,4.962e+08,471.41,12990,12054,1,12054,1,0.00012919,9.5252e-10,0,0.00069957,-2.3711e-05,4.5073e+07,298.6,0,2.4211e+08,-13.68,12053,11097,1,11097,1,-0.00122,-1.1177e-09,0,2.0705e-05,-0.00027593,-4.962e+08,-285.09,0,8.6531e+06,-240.52,11096,11599,1,11599,1,-0.00057037,-1.0741e-10,0,0.00034977,-0.00015448,-2.3198e+08,-29.227,0,1.2819e+08,-72.285,11598,12509,1,12509,1,0.00082876,2.9728e-09,0,0.0010493,0.00010716,2.4289e+08,947.36,0,3.3254e+08,58.178,12508,527.81,0,527.81,0,0.00080748,1.8887e-09,0,0.00041368,0.00015103,2.6793e+08,606.61,0,1.2985e+08,114.11,527.81,1
1820,4.81,12054,1,12054,1,0.00013013,2.1839e-09,0,0.00070688,-2.3813e-05,239.34,687.64,0,2.3459e+08,8.904,12053,12991,1,12991,1,0.0014825,8.6544e-09,0,0.0014825,0.00022931,3.7346e+08,2606.5,0,4.9709e+08,407.65,12990,12054,1,12054,1,0.00013014,1.6619e-09,0,0.00070118,-2.3885e-05,4.5366e+07,490.04,0,2.4245e+08,4.6929,12053,11097,1,11097,1,-0.0012222,-2.0004e-09,0,2.0109e-05,-0.00027668,-4.9709e+08,-559.92,0,8.4247e+06,-299.12,11096,11599,1,11599,1,-0.00057103,-8.4924e-11,0,0.00035058,-0.00015495,-2.3225e+08,-26.224,0,1.284e+08,-75.701,11598,12509,1,12509,1,0.00083131,4.3807e-09,0,0.0010518,0.00010728,2.4322e+08,1343.9,0,3.3287e+08,94.298,12508,527.81,0,527.81,0,0.00080934,2.6308e-09,0,0.00041475,0.00015138,2.6827e+08,820.33,0,1.3002e+08,121.71,527.81,1
1820,4.82,12054,1,12054,1,0.00013108,-2.6907e-09,0,0.00070854,-2.3986e-05,-50.415,-739.68,0,2.3488e+08,52.865,12053,12991,1,12991,1,0.0014864,2.9283e-09,0,0.0014864,0.00022971,3.7355e+08,1001.9,0,4.9796e+08,430.43,12990,12054,1,12054,1,0.00013108,-2.3374e-09,0,0.00070277,-2.4059e-05,4.566e+07,-624.57,0,2.4277e+08,34.982,12053,11097,1,11097,1,-0.0012243,-9.5042e-09,0,1.9505e-05,-0.00027742,-4.9796e+08,-2761.7,0,8.1936e+06,-132.7,11096,11599,1,11599,1,-0.00057169,-5.2899e-09,0,0.00035139,-0.00015542,-2.3251e+08,-1492.5,0,1.286e+08,-23.067,11598,12509,1,12509,1,0.00083385,2.3369e-10,0,0.0010542,0.00010741,2.4354e+08,65.557,0,3.332e+08,117.22,12508,527.81,0,527.81,0,0.00081119,3.3203e-09,0,0.00041583,0.00015172,2.686e+08,959.07,0,1.3018e+08,98.595,527.81,1
1820,4.83,12054,1,12054,1,0.00013203,1.2211e-09,0,0.00071024,-2.4161e-05,-31.82,360.62,0,2.3519e+08,-5.2306,12053,12991,1,12991,1,0.0014905,4.6668e-09,0,0.0014905,0.00023012,3.7364e+08,1400.7,0,4.9884e+08,284.36,12990,12054,1,12054,1,0.00013203,1.1536e-09,0,0.00070441,-2.4235e-05,4.5956e+07,306.87,0,2.4311e+08,-2.7804,12053,11097,1,11097,1,-0.0012265,-6.4914e-10,0,1.8908e-05,-0.00027818,-4.9884e+08,-158.77,0,7.9655e+06,-227.03,11096,11599,1,11599,1,-0.00057237,1.8173e-10,0,0.0003522,-0.0001559,-2.3279e+08,48.096,0,1.2881e+08,-53.491,11598,12509,1,12509,1,0.00083644,1.9816e-09,0,0.0010566,0.00010754,2.4388e+08,592.42,0,3.3353e+08,41.234,12508,527.81,0,527.81,0,0.00081308,1.1914e-09,0,0.00041692,0.00015207,2.6895e+08,372.98,0,1.3034e+08,89.647,527.81,1
1820,4.84,12054,1,12054,1,0.000133,-4.5038e-10,0,0.0007119,-2.4338e-05,-114.22,-118.22,0,2.3547e+08,34.996,12053,12991,1,12991,1,0.0014946,3.9803e-09,0,0.0014946,0.00023052,3.737e+08,1176.8,0,4.9971e+08,407.45,12990,12054,1,12054,1,0.000133,-2.5692e-10,0,0.000706,-2.4412e-05,4.6253e+07,-61.984,0,2.4343e+08,25.279,12053,11097,1,11097,1,-0.0012286,-4.8417e-09,0,1.8288e-05,-0.00027893,-4.9971e+08,-1395.8,0,7.7291e+06,-147.34,11096,11599,1,11599,1,-0.000573,-1.4622e-09,0,0.000353,-0.00015637,-2.3305e+08,-422.04,0,1.29e+08,-27.58,11598,12509,1,12509,1,0.000839,7.2737e-10,0,0.001059,0.00010766,2.4419e+08,216.87,0,3.3384e+08,73.155,12508,527.81,0,527.81,0,0.00081492,1.7848e-09,0,0.00041799,0.00015241,2.6927e+08,535.48,0,1.305e+08,91.98,527.81,1
1820,4.85,12054,1,12054,1,0.00013396,-9.866e-10,0,0.00071358,-2.4514e-05,-238.03,-288.79,0,2.3576e+08,34.039,12053,12991,1,12991,1,0.0014987,2.5882e-09,0,0.0014987,0.00023093,3.7379e+08,753.75,0,5.0059e+08,322.5,12990,12054,1,12054,1,0.00013396,-3.6312e-10,0,0.00070763,-2.4589e-05,4.6551e+07,-96.943,0,2.4376e+08,27.666,12053,11097,1,11097,1,-0.0012308,-6.2514e-09,0,1.7675e-05,-0.00027969,-5.0059e+08,-1853.2,0,7.4959e+06,-142.6,11096,11599,1,11599,1,-0.00057367,-2.3165e-09,0,0.00035381,-0.00015685,-2.3332e+08,-682.02,0,1.2921e+08,-26.644,11598,12509,1,12509,1,0.00084158,5.2778e-10,0,0.0010614,0.00010778,2.4452e+08,155.86,0,3.3416e+08,82.977,12508,527.81,0,527.81,0,0.00081679,2.0912e-09,0,0.00041908,0.00015276,2.6961e+08,630.29,0,1.3066e+08,82.789,527.81,1
1820,4.86,12054,1,12054,1,0.00013493,-6.5426e-10,0,0.00071527,-2.4692e-05,119.63,-206.95,0,2.3605e+08,1.14,12053,12991,1,12991,1,0.0015028,6.8776e-10,0,0.0015028,0.00023133,3.7385e+08,149.96,0,5.0147e+08,393.65,12990,12054,1,12054,1,0.00013493,-4.6185e-10,0,0.00070925,-2.4768e-05,4.6853e+07,-131.91,0,2.4408e+08,-15.046,12053,11097,1,11097,1,-0.0012329,-2.8997e-09,0,1.7047e-05,-0.00028045,-5.0147e+08,-874.25,0,7.2573e+06,-143.68,11096,11599,1,11599,1,-0.00057432,-1.0778e-09,0,0.00035462,-0.00015733,-2.3358e+08,-336.6,0,1.2941e+08,-52.154,11598,12509,1,12509,1,0.00084418,-7.557e-11,0,0.0010639,0.00010791,2.4485e+08,-20.661,0,3.3447e+08,30.968,12508,527.81,0,527.81,0,0.00081867,8.3337e-10,0,0.00042018,0.00015311,2.6994e+08,261.78,0,1.3083e+08,91.42,527.81,1
1820,4.87,12054,1,12054,1,0.00013591,1.2759e-09,0,0.00071694,-2.4872e-05,-230.28,357.02,0,2.3634e+08,50.631,12053,12991,1,12991,1,0.0015069,6.3418e-09,0,0.0015069,0.00023174,3.7392e+08,1792.3,0,5.0233e+08,375.96,12990,12054,1,12054,1,0.00013591,9.7582e-10,0,0.00071086,-2.4948e-05,4.7154e+07,261.36,0,2.4441e+08,35.236,12053,11097,1,11097,1,-0.0012351,-8.0881e-10,0,1.6414e-05,-0.0002812,-5.0233e+08,-277,0,7.0173e+06,-141.69,11096,11599,1,11599,1,-0.00057495,-1.5589e-11,0,0.00035543,-0.00015781,-2.3384e+08,-5.3417,0,1.2961e+08,-6.417,11598,12509,1,12509,1,0.00084677,2.2346e-09,0,0.0010663,0.00010803,2.4516e+08,636.31,0,3.3478e+08,102.03,12508,527.81,0,527.81,0,0.00082053,1.531e-09,0,0.00042127,0.00015346,2.7027e+08,443.67,0,1.3099e+08,88.089,527.81,1
1820,4.88,12054,1,12054,1,0.0001369,1.0068e-09,0,0.00071864,-2.5052e-05,-15.181,297.83,0,2.3663e+08,18.067,12053,12991,1,12991,1,0.001511,2.3696e-09,0,0.001511,0.00023214,3.7398e+08,747.65,0,5.0321e+08,363.79,12990,12054,1,12054,1,0.0001369,1.1218e-09,0,0.0007125,-2.513e-05,4.7457e+07,334.07,0,2.4473e+08,9.739,12053,11097,1,11097,1,-0.0012372,-8.3593e-10,0,1.5782e-05,-0.00028197,-5.0321e+08,-286.28,0,6.7777e+06,-166.26,11096,11599,1,11599,1,-0.0005756,3.7909e-10,0,0.00035625,-0.00015829,-2.341e+08,99.066,0,1.2981e+08,-46.107,11598,12509,1,12509,1,0.00084939,1.7322e-09,0,0.0010687,0.00010815,2.4549e+08,511.64,0,3.351e+08,65.429,12508,527.81,0,527.81,0,0.00082242,8.2719e-10,0,0.00042237,0.00015381,2.706e+08,246.64,0,1.3115e+08,97.675,527.81,1
1820,4.89,12054,1,12054,1,0.00013789,2.2894e-09,0,0.00072032,-2.5234e-05,-272.29,686.44,0,2.3691e+08,67.154,12053,12991,1,12991,1,0.0015151,6.0459e-09,0,0.0015151,0.00023255,3.7403e+08,1735.4,0,5.0409e+08,476.99,12990,12054,1,12054,1,0.00013789,2.292e-09,0,0.00071412,-2.5312e-05,4.7761e+07,699.38,0,2.4505e+08,53.134,12053,11097,1,11097,1,-0.0012394,-9.4307e-10,0,1.5137e-05,-0.00028273,-5.0409e+08,-309.41,0,6.5338e+06,-123.41,11096,11599,1,11599,1,-0.00057623,1.0191e-09,0,0.00035706,-0.00015877,-2.3436e+08,265.04,0,1.3001e+08,7.5827,11598,12509,1,12509,1,0.000852,3.5425e-09,0,0.0010712,0.00010827,2.458e+08,1069.7,0,3.354e+08,114.8,12508,527.81,0,527.81,0,0.00082429,1.6698e-09,0,0.00042347,0.00015416,2.7092e+08,510.62,0,1.3131e+08,89.315,527.81,1
1820,4.9,12054,1,12054,1,0.00013888,1.4905e-09,0,0.000722,-2.5416e-05,-120.05,471.23,0,2.3719e+08,77.918,12053,12991,1,12991,1,0.0015193,7.3082e-09,0,0.0015193,0.00023295,3.7408e+08,2126.9,0,5.0495e+08,482.28,12990,12054,1,12054,1,0.00013888,9.7776e-10,0,0.00071574,-2.5495e-05,4.8067e+07,295.67,0,2.4537e+08,66.246,12053,11097,1,11097,1,-0.0012415,-2.5976e-09,0,1.4487e-05,-0.0002835,-5.0495e+08,-637.09,0,6.2883e+06,-159.87,11096,11599,1,11599,1,-0.00057686,-2.441e-10,0,0.00035786,-0.00015926,-2.3461e+08,-64.054,0,1.302e+08,7.8608,11598,12509,1,12509,1,0.00085462,3.1816e-09,0,0.0010736,0.00010839,2.4612e+08,963.73,0,3.357e+08,139.89,12508,527.81,0,527.81,0,0.00082616,2.1689e-09,0,0.00042457,0.0001545,2.7125e+08,648.36,0,1.3146e+08,104.39,527.81,1
1820,4.91,12054,1,12054,1,0.00013988,-1.7572e-09,0,0.0007237,-2.5599e-05,-108.58,-468.77,0,2.3748e+08,57.552,12053,12991,1,12991,1,0.0015234,1.369e-09,0,0.0015234,0.00023335,3.7413e+08,468.86,0,5.0582e+08,602.35,12990,12054,1,12054,1,0.00013988,-1.4238e-09,0,0.00071737,-2.5679e-05,4.8374e+07,-396.48,0,2.4568e+08,20.923,12053,11097,1,11097,1,-0.0012436,-6.2863e-09,0,1.3835e-05,-0.00028426,-5.0582e+08,-1684.1,0,6.0424e+06,-81.444,11096,11599,1,11599,1,-0.00057749,-3.3079e-09,0,0.00035868,-0.00015974,-2.3487e+08,-882.91,0,1.304e+08,-16.008,11598,12509,1,12509,1,0.00085725,3.0252e-11,0,0.0010761,0.00010851,2.4643e+08,8.0238,0,3.3601e+08,88.194,12508,527.81,0,527.81,0,0.00082804,1.9935e-09,0,0.00042568,0.00015485,2.7157e+08,546.14,0,1.3162e+08,115.88,527.81,1
1820,4.92,12054,1,12054,1,0.00014089,1.0726e-09,0,0.00072538,-2.5784e-05,-140.36,317.1,0,2.3775e+08,49.48,12053,12991,1,12991,1,0.0015275,4.2557e-09,0,0.0015275,0.00023375,3.7416e+08,1182.9,0,5.0668e+08,463.48,12990,12054,1,12054,1,0.00014089,8.0389e-10,0,0.00071899,-2.5865e-05,4.8682e+07,228.29,0,2.46e+08,28.862,12053,11097,1,11097,1,-0.0012457,-5.0158e-10,0,1.318e-05,-0.00028502,-5.0668e+08,-146.54,0,5.7957e+06,-124.8,11096,11599,1,11599,1,-0.0005781,3.3027e-10,0,0.00035949,-0.00016023,-2.3512e+08,93.498,0,1.306e+08,-19.303,11598,12509,1,12509,1,0.00085988,1.7168e-09,0,0.0010785,0.00010863,2.4674e+08,523.41,0,3.363e+08,98.781,12508,527.81,0,527.81,0,0.00082991,1.0045e-09,0,0.00042679,0.0001552,2.7189e+08,298,0,1.3178e+08,98.245,527.81,1
1820,4.93,12054,1,12054,1,0.0001419,-3.3023e-09,0,0.00072705,-2.5968e-05,279.54,-946.93,0,2.3802e+08,64.517,12053,12991,1,12991,1,0.0015317,3.2826e-09,0,0.0015317,0.00023414,3.742e+08,876.15,0,5.0754e+08,484.14,12990,12054,1,12054,1,0.00014189,-2.3233e-09,0,0.00072059,-2.605e-05,4.8989e+07,-663,0,2.463e+08,55.265,12053,11097,1,11097,1,-0.0012479,-1.2932e-08,0,1.2515e-05,-0.00028579,-5.0754e+08,-3729.4,0,5.5453e+06,-209.44,11096,11599,1,11599,1,-0.0005787,-6.0451e-09,0,0.0003603,-0.00016071,-2.3536e+08,-1734.9,0,1.3079e+08,-27.816,11598,12509,1,12509,1,0.00086249,5.1335e-11,0,0.0010809,0.00010874,2.4705e+08,15.501,0,3.3659e+08,145.94,12508,527.81,0,527.81,0,0.00083176,4.0146e-09,0,0.00042788,0.00015555,2.722e+08,1154.7,0,1.3193e+08,114.65,527.81,1
1820,4.94,12054,1,12054,1,0.00014291,-3.5549e-09,0,0.00072875,-2.6154e-05,561.16,-1069.1,0,2.3831e+08,-29.788,12053,12991,1,12991,1,0.0015359,2.3965e-09,0,0.0015359,0.00023455,3.7424e+08,731.16,0,5.0842e+08,429.8,12990,12054,1,12054,1,0.00014291,-2.9757e-09,0,0.00072224,-2.6236e-05,4.9299e+07,-860.49,0,2.4662e+08,-40.076,12053,11097,1,11097,1,-0.00125,-1.1991e-08,0,1.185e-05,-0.00028657,-5.0842e+08,-3572.3,0,5.2957e+06,-288.37,11096,11599,1,11599,1,-0.00057932,-5.8849e-09,0,0.00036111,-0.0001612,-2.3562e+08,-1746.6,0,1.3098e+08,-120.58,11598,12509,1,12509,1,0.00086514,-1.0881e-09,0,0.0010833,0.00010886,2.4736e+08,-268.69,0,3.3688e+08,43.67,12508,527.81,0,527.81,0,0.00083365,3.352e-09,0,0.000429,0.0001559,2.7253e+08,1022.1,0,1.3209e+08,117.95,527.81,1
1820,4.95,12054,1,12054,1,0.00014393,-2.3355e-09,0,0.00073045,-2.6342e-05,253.43,-747.08,0,2.3858e+08,15.721,12053,12991,1,12991,1,0.00154,3.0493e-09,0,0.00154,0.00023495,3.7426e+08,726.86,0,5.0929e+08,577.38,12990,12054,1,12054,1,0.00014393,-1.763e-09,0,0.00072388,-2.6425e-05,4.9611e+07,-523.2,0,2.4693e+08,-1.5514,12053,11097,1,11097,1,-0.0012521,-9.4688e-09,0,1.1171e-05,-0.00028734,-5.0929e+08,-2842.1,0,5.0408e+06,-200.7,11096,11599,1,11599,1,-0.00057993,-4.5722e-09,0,0.00036192,-0.00016169,-2.3587e+08,-1414.8,0,1.3118e+08,-74.694,11598,12509,1,12509,1,0.00086781,1.1982e-10,0,0.0010858,0.00010897,2.4767e+08,37.343,0,3.3718e+08,71.295,12508,527.81,0,527.81,0,0.00083554,3.0186e-09,0,0.00043012,0.00015625,2.7284e+08,927.61,0,1.3225e+08,125.22,527.81,1
1820,4.96,12054,1,12054,1,0.00014496,-1.7876e-09,0,0.00073214,-2.653e-05,-210.16,-597.26,0,2.3885e+08,63.948,12053,12991,1,12991,1,0.0015442,3.8262e-09,0,0.0015442,0.00023534,3.7428e+08,952.93,0,5.1014e+08,779.71,12990,12054,1,12054,1,0.00014496,-8.9304e-10,0,0.00072551,-2.6614e-05,4.9924e+07,-280.8,0,2.4724e+08,21.038,12053,11097,1,11097,1,-0.0012542,-1.03e-08,0,1.049e-05,-0.00028811,-5.1014e+08,-3083.4,0,4.7854e+06,-197.99,11096,11599,1,11599,1,-0.00058053,-3.9596e-09,0,0.00036274,-0.00016218,-2.3611e+08,-1219.3,0,1.3137e+08,-47.03,11598,12509,1,12509,1,0.00087046,9.2822e-10,0,0.0010882,0.00010909,2.4797e+08,232.93,0,3.3746e+08,148.6,12508,527.81,0,527.81,0,0.00083742,3.3867e-09,0,0.00043124,0.0001566,2.7315e+08,1021.2,0,1.3241e+08,161.01,527.81,1
1820,4.97,12054,1,12054,1,0.000146,2.4513e-10,0,0.00073387,-2.6721e-05,-274.85,-8.9007,0,2.3913e+08,14.329,12053,12991,1,12991,1,0.0015484,3.6177e-09,0,0.0015484,0.00023575,3.7431e+08,824.36,0,5.1101e+08,626.58,12990,12054,1,12054,1,0.000146,9.4051e-11,0,0.00072716,-2.6806e-05,5.024e+07,29.543,0,2.4755e+08,-6.5036,12053,11097,1,11097,1,-0.0012564,-3.902e-09,0,9.8059e-06,-0.00028889,-5.1101e+08,-1335.4,0,4.5291e+06,-199.4,11096,11599,1,11599,1,-0.00058115,-1.0898e-09,0,0.00036357,-0.00016268,-2.3636e+08,-362.76,0,1.3156e+08,-75.578,11598,12509,1,12509,1,0.00087315,2.0115e-09,0,0.0010907,0.0001092,2.4828e+08,471.97,0,3.3775e+08,61.748,12508,527.81,0,527.81,0,0.00083933,1.9173e-09,0,0.00043238,0.00015695,2.7348e+08,542.56,0,1.3257e+08,136.12,527.81,1
1820,4.98,12054,1,12054,1,0.00014705,1.0276e-09,0,0.00073557,-2.6913e-05,244.06,243.46,0,2.394e+08,15.944,12053,12991,1,12991,1,0.0015526,5.2688e-09,0,0.0015526,0.00023614,3.7432e+08,1326.8,0,5.1186e+08,571.12,12990,12054,1,12054,1,0.00014705,8.3599e-10,0,0.00072879,-2.6999e-05,5.0559e+07,226.75,0,2.4785e+08,-2.5916,12053,11097,1,11097,1,-0.0012585,-1.7673e-09,0,9.1084e-06,-0.00028966,-5.1186e+08,-604.85,0,4.2685e+06,-1035.1,11096,11599,1,11599,1,-0.00058173,-1.8199e-10,0,0.00036439,-0.00016318,-2.366e+08,-61.382,0,1.3176e+08,-41.677,11598,12509,1,12509,1,0.00087584,2.3902e-09,0,0.0010932,0.00010932,2.4858e+08,587.92,0,3.3803e+08,56.226,12508,527.81,0,527.81,0,0.00084122,1.5527e-09,0,0.00043351,0.0001573,2.7379e+08,417.18,0,1.3272e+08,160.38,527.81,1
1820,4.99,12054,1,12054,1,0.0001481,-2.569e-09,0,0.00073728,-2.7106e-05,-52.826,-775.26,0,2.3967e+08,63.599,12053,12991,1,12991,1,0.0015568,1.581e-09,0,0.0015568,0.00023654,3.7432e+08,433.99,0,5.1273e+08,604.51,12990,12054,1,12054,1,0.0001481,-2.3596e-09,0,0.00073043,-2.7192e-05,5.0876e+07,-703.66,0,2.4816e+08,32.894,12053,11097,1,11097,1,-0.0012606,-7.5837e-09,0,8.4143e-06,-0.00029045,-5.1273e+08,-2398,0,4.009e+06,-473.01,11096,11599,1,11599,1,-0.00058232,-4.2749e-09,0,0.00036521,-0.00016367,-2.3684e+08,-1292.7,0,1.3195e+08,-27.12,11598,12509,1,12509,1,0.00087853,-7.4444e-10,0,0.0010956,0.00010943,2.4888e+08,-209.92,0,3.3831e+08,125.63,12508,527.81,0,527.81,0,0.00084312,2.2566e-09,0,0.00043464,0.00015766,2.741e+08,685.64,0,1.3288e+08,137.39,527.81,1
1820,5,12054,1,12054,1,0.00014916,-5.0944e-10,0,0.00073899,-2.7299e-05,-45.004,-200.57,0,2.3994e+08,37.681,12053,12991,1,12991,1,0.001561,1.7933e-09,0,0.001561,0.00023694,3.7432e+08,394.83,0,5.1358e+08,636.61,12990,12054,1,12054,1,0.00014916,-6.3358e-10,0,0.00073208,-2.7387e-05,5.1196e+07,-196.43,0,2.4846e+08,-4.8103,12053,11097,1,11097,1,-0.0012627,-3.215e-09,0,7.7062e-06,-0.00029123,-5.1358e+08,-1100.6,0,3.7448e+06,-1608.5,11096,11599,1,11599,1,-0.00058291,-1.626e-09,0,0.00036603,-0.00016417,-2.3707e+08,-525.3,0,1.3214e+08,-44.608,11598,12509,1,12509,1,0.00088123,6.1866e-10,0,0.0010981,0.00010954,2.4918e+08,137.47,0,3.3858e+08,74.663,12508,527.81,0,527.81,0,0.00084501,1.2104e-09,0,0.00043578,0.00015801,2.7441e+08,360.18,0,1.3303e+08,158.93,527.81,1
1820,5.01,12054,1,12054,1,0.00015022,9.2505e-10,0,0.0007407,-2.7494e-05,-325.55,223.35,0,2.402e+08,81.899,12053,12991,1,12991,1,0.0015653,6.8951e-09,0,0.0015653,0.00023733,3.7432e+08,1728,0,5.1443e+08,608.97,12990,12054,1,12054,1,0.00015022,4.5375e-10,0,0.00073372,-2.7583e-05,5.1516e+07,114.34,0,2.4876e+08,54.346,12053,11097,1,11097,1,-0.0012648,-2.1301e-09,0,6.9972e-06,-0.00029201,-5.1443e+08,-681.38,0,3.4805e+06,-156.38,11096,11599,1,11599,1,-0.00058349,-4.8989e-10,0,0.00036686,-0.00016467,-2.3731e+08,-158.96,0,1.3233e+08,-4.5255,11598,12509,1,12509,1,0.00088394,2.1848e-09,0,0.0011006,0.00010965,2.4948e+08,580.53,0,3.3886e+08,135.42,12508,527.81,0,527.81,0,0.00084691,1.9754e-09,0,0.00043692,0.00015836,2.7471e+08,535.74,0,1.3319e+08,132.22,527.81,1
1820,5.02,12054,1,12054,1,0.00015129,-1.0011e-09,0,0.0007424,-2.7689e-05,88.971,-309.24,0,2.4046e+08,94.526,12053,12991,1,12991,1,0.0015695,4.1379e-09,0,0.0015695,0.00023773,3.7431e+08,1022.9,0,5.1529e+08,658.45,12990,12054,1,12054,1,0.00015129,-5.7435e-10,0,0.00073536,-2.7779e-05,5.1838e+07,-170.37,0,2.4906e+08,42.02,12053,11097,1,11097,1,-0.0012669,-5.809e-09,0,6.281e-06,-0.00029279,-5.1529e+08,-1699.3,0,3.2137e+06,-94.953,11096,11599,1,11599,1,-0.00058406,-2.1639e-09,0,0.00036767,-0.00016517,-2.3754e+08,-653.8,0,1.3251e+08,-16.628,11598,12509,1,12509,1,0.00088664,2.3748e-10,0,0.001103,0.00010976,2.4977e+08,63.992,0,3.3913e+08,166.62,12508,527.81,0,527.81,0,0.0008488,1.907e-09,0,0.00043806,0.00015871,2.7501e+08,543.87,0,1.3334e+08,151.79,527.81,1
1820,5.03,12054,1,12054,1,0.00015237,-5.2489e-10,0,0.00074413,-2.7886e-05,-66.05,-184.29,0,2.4073e+08,97.263,12053,12991,1,12991,1,0.0015738,4.6122e-09,0,0.0015738,0.00023812,3.743e+08,1152.2,0,5.1615e+08,667.34,12990,12054,1,12054,1,0.00015237,-2.2424e-10,0,0.00073701,-2.7977e-05,5.2162e+07,-71.242,0,2.4936e+08,50.27,12053,11097,1,11097,1,-0.001269,-5.0365e-09,0,5.5601e-06,-0.00029358,-5.1615e+08,-1488.4,0,2.9454e+06,-104.28,11096,11599,1,11599,1,-0.00058464,-1.6622e-09,0,0.0003685,-0.00016568,-2.3778e+08,-511.55,0,1.327e+08,-2.5328,11598,12509,1,12509,1,0.00088938,6.775e-10,0,0.0011055,0.00010987,2.5007e+08,157.04,0,3.394e+08,160.01,12508,527.81,0,527.81,0,0.00085071,1.8961e-09,0,0.00043921,0.00015907,2.7532e+08,541.57,0,1.335e+08,144.09,527.81,1
1820,5.04,12054,1,12054,1,0.00015345,-2.9693e-10,0,0.00074585,-2.8084e-05,116.4,-118.15,0,2.4099e+08,61.767,12053,12991,1,12991,1,0.001578,3.5926e-09,0,0.001578,0.00023852,3.7428e+08,867.17,0,5.17e+08,638.69,12990,12054,1,12054,1,0.00015345,-3.0962e-10,0,0.00073866,-2.8177e-05,5.2487e+07,-91.221,0,2.4966e+08,8.1114,12053,11097,1,11097,1,-0.0012711,-2.5036e-09,0,4.8279e-06,-0.00029437,-5.17e+08,-768.42,0,2.673e+06,-106.67,11096,11599,1,11599,1,-0.0005852,-1.0326e-09,0,0.00036932,-0.00016618,-2.3801e+08,-322.96,0,1.3289e+08,-23.186,11598,12509,1,12509,1,0.00089211,4.4992e-10,0,0.001108,0.00010998,2.5036e+08,104.36,0,3.3966e+08,103.38,12508,527.81,0,527.81,0,0.00085261,1.0521e-09,0,0.00044036,0.00015942,2.7562e+08,301.2,0,1.3365e+08,140.73,527.81,1
1820,5.05,12054,1,12054,1,0.00015454,1.1159e-09,0,0.00074758,-2.8284e-05,28.462,292.31,0,2.4125e+08,69.249,12053,12991,1,12991,1,0.0015823,6.081e-09,0,0.0015823,0.00023891,3.7427e+08,1514,0,5.1785e+08,634.21,12990,12054,1,12054,1,0.00015454,8.1057e-10,0,0.00074031,-2.8378e-05,5.2814e+07,224.95,0,2.4995e+08,27.026,12053,11097,1,11097,1,-0.0012732,-6.7803e-10,0,4.0937e-06,-0.00029516,-5.1785e+08,-232.2,0,2.4e+06,-117.99,11096,11599,1,11599,1,-0.00058577,8.6234e-11,0,0.00037016,-0.00016669,-2.3824e+08,26.398,0,1.3308e+08,-21.801,11598,12509,1,12509,1,0.00089486,1.907e-09,0,0.0011105,0.00011009,2.5065e+08,492.04,0,3.3993e+08,117.17,12508,527.81,0,527.81,0,0.00085453,1.2856e-09,0,0.00044152,0.00015978,2.7593e+08,336.7,0,1.3381e+08,137.78,527.81,1
1820,5.06,12054,1,12054,1,0.00015564,-1.8104e-09,0,0.00074929,-2.8484e-05,-482.53,-526.49,0,2.415e+08,146.27,12053,12991,1,12991,1,0.0015866,3.5191e-09,0,0.0015866,0.0002393,3.7423e+08,833.38,0,5.187e+08,791.45,12990,12054,1,12054,1,0.00015563,-1.5184e-09,0,0.00074196,-2.8579e-05,5.3141e+07,-425.52,0,2.5024e+08,83.477,12053,11097,1,11097,1,-0.0012753,-7.2266e-09,0,3.353e-06,-0.00029595,-5.187e+08,-2064.4,0,2.1248e+06,-109.13,11096,11599,1,11599,1,-0.00058632,-3.195e-09,0,0.00037098,-0.00016719,-2.3846e+08,-937.27,0,1.3326e+08,30.28,11598,12509,1,12509,1,0.00089759,-2.3391e-10,0,0.0011129,0.00011019,2.5093e+08,-63.653,0,3.4018e+08,217.5,12508,527.81,0,527.81,0,0.00085642,2.2092e-09,0,0.00044267,0.00016013,2.7622e+08,618.91,0,1.3396e+08,166.66,527.81,1
1820,5.07,12054,1,12054,1,0.00015674,-2.4929e-09,0,0.00075101,-2.8685e-05,-133.01,-749.44,0,2.4176e+08,130.72,12053,12991,1,12991,1,0.0015909,2.4834e-09,0,0.0015909,0.0002397,3.7421e+08,738.61,0,5.1956e+08,711.86,12990,12054,1,12054,1,0.00015673,-2.2128e-09,0,0.00074362,-2.8781e-05,5.347e+07,-656.38,0,2.5053e+08,84.909,12053,11097,1,11097,1,-0.0012774,-9.5466e-09,0,2.6066e-06,-0.00029675,-5.1956e+08,-2794.8,0,1.8477e+06,-145.58,11096,11599,1,11599,1,-0.00058688,-4.2467e-09,0,0.0003718,-0.0001677,-2.3869e+08,-1284.2,0,1.3345e+08,23.34,11598,12509,1,12509,1,0.00090035,-3.7925e-10,0,0.0011154,0.0001103,2.5122e+08,-103.89,0,3.4044e+08,210.55,12508,527.81,0,527.81,0,0.00085834,2.7175e-09,0,0.00044384,0.00016048,2.7652e+08,792.36,0,1.3411e+08,156.35,527.81,1
1820,5.08,12054,1,12054,1,0.00015785,-2.2311e-10,0,0.00075275,-2.8889e-05,58.846,-129.88,0,2.4201e+08,53.458,12053,12991,1,12991,1,0.0015952,2.7635e-09,0,0.0015952,0.00024009,3.7417e+08,623.69,0,5.2041e+08,775.99,12990,12054,1,12054,1,0.00015785,-3.3953e-10,0,0.00074529,-2.8986e-05,5.3802e+07,-106.55,0,2.5082e+08,-1.8834,12053,11097,1,11097,1,-0.0012795,-4.7298e-09,0,1.8474e-06,-0.00029755,-5.2041e+08,-1619.1,0,1.566e+06,-164.42,11096,11599,1,11599,1,-0.00058743,-1.3325e-09,0,0.00037263,-0.00016821,-2.3891e+08,-448.69,0,1.3363e+08,-47.651,11598,12509,1,12509,1,0.00090313,1.0065e-09,0,0.0011179,0.0001104,2.5151e+08,230.48,0,3.4069e+08,103.14,12508,527.81,0,527.81,0,0.00086026,1.4858e-09,0,0.00044501,0.00016084,2.7682e+08,431.84,0,1.3427e+08,172.36,527.81,1
1820,5.09,12054,1,12054,1,0.00015897,-9.5426e-10,0,0.00075448,-2.9093e-05,138.67,-320.19,0,2.4226e+08,142.86,12053,12991,1,12991,1,0.0015995,7.4588e-09,0,0.0015995,0.00024048,3.7413e+08,1796.2,0,5.2126e+08,739.87,12990,12054,1,12054,1,0.00015896,-7.7606e-10,0,0.00074694,-2.9192e-05,5.4134e+07,-251.73,0,2.5111e+08,127.05,12053,11097,1,11097,1,-0.0012816,-6.1881e-09,0,1.0867e-06,-0.00029834,-5.2126e+08,-1811,0,1.2839e+06,-137.77,11096,11599,1,11599,1,-0.00058797,-2.8445e-09,0,0.00037346,-0.00016872,-2.3913e+08,-854.24,0,1.3381e+08,34.061,11598,12509,1,12509,1,0.0009059,7.3202e-10,0,0.0011204,0.00011051,2.5179e+08,179.6,0,3.4094e+08,218.03,12508,527.81,0,527.81,0,0.00086217,2.6255e-09,0,0.00044618,0.0001612,2.7711e+08,727.85,0,1.3442e+08,147.34,527.81,1
1820,5.1,12054,1,12054,1,0.00016008,-9.2985e-10,0,0.00075619,-2.9297e-05,-88.306,-320.26,0,2.4251e+08,150.69,12053,12991,1,12991,1,0.0016038,8.1935e-09,0,0.0016038,0.00024087,3.7407e+08,2023.1,0,5.2209e+08,802.51,12990,12054,1,12054,1,0.00016008,-5.0658e-10,0,0.00074858,-2.9397e-05,5.4466e+07,-150.47,0,2.5139e+08,103.19,12053,11097,1,11097,1,-0.0012836,-7.6807e-09,0,3.2178e-07,-0.00029914,-5.2209e+08,-2105.3,0,1.0004e+06,-109.41,11096,11599,1,11599,1,-0.00058849,-3.0434e-09,0,0.00037428,-0.00016923,-2.3934e+08,-934.08,0,1.3399e+08,27.293,11598,12509,1,12509,1,0.00090866,8.87e-10,0,0.0011229,0.00011061,2.5206e+08,212.18,0,3.4118e+08,235.04,12508,527.81,0,527.81,0,0.00086407,2.9962e-09,0,0.00044734,0.00016155,2.774e+08,842.66,0,1.3457e+08,169.02,527.81,1
1820,5.11,12054,1,12054,1,0.0001612,-3.0567e-09,0,0.00075795,-2.9502e-05,-126.3,-929.99,0,2.4275e+08,157.44,12053,12991,1,12991,1,0.0016082,5.325e-09,0,0.0016082,0.00024126,3.7403e+08,1284.6,0,5.2294e+08,769.62,12990,12054,1,12054,1,0.0001612,-2.7402e-09,0,0.00075023,-2.9603e-05,5.4799e+07,-769.79,0,2.5167e+08,123.38,12053,11097,1,11097,1,-0.0012857,-1.0201e-08,0,4.2974e-07,-0.00029994,-5.2294e+08,-2993.3,0,7.1657e+05,-190.4,11096,11599,1,11599,1,-0.00058903,-6.0497e-09,0,0.00037512,-0.00016975,-2.3956e+08,-1778.3,0,1.3417e+08,38.738,11598,12509,1,12509,1,0.00091144,-1.7533e-10,0,0.0011254,0.00011071,2.5234e+08,-48.287,0,3.4143e+08,244.1,12508,527.81,0,527.81,0,0.00086598,3.5646e-09,0,0.00044846,0.0001619,2.7769e+08,1050.9,0,1.3472e+08,166.78,527.81,1
1820,5.12,12054,1,12054,1,0.00016234,2.131e-09,0,0.00075975,-2.971e-05,39.554,515.7,0,2.4301e+08,63.827,12053,12991,1,12991,1,0.0016125,8.9461e-09,0,0.0016125,0.00024165,3.7399e+08,2201.7,0,5.2378e+08,832.64,12990,12054,1,12054,1,0.00016234,1.729e-09,0,0.0007519,-2.9812e-05,5.5136e+07,444.31,0,2.5196e+08,12.036,12053,11097,1,11097,1,-0.0012878,-1.3142e-09,0,1.2007e-06,-0.00030074,-5.2378e+08,-450,0,4.2741e+05,-212.04,11096,11599,1,11599,1,-0.00058957,-2.2094e-10,0,0.00037596,-0.00017027,-2.3978e+08,-75.575,0,1.3436e+08,-55.151,11598,12509,1,12509,1,0.00091425,4.4108e-09,0,0.0011279,0.00011081,2.5262e+08,1073.1,0,3.4168e+08,126.91,12508,527.81,0,527.81,0,0.00086791,2.4954e-09,0,0.00044955,0.00016226,2.7798e+08,633.09,0,1.3487e+08,190.85,527.81,1
1820,5.13,12054,1,12054,1,0.00016349,-6.7957e-10,0,0.00076156,-2.992e-05,-14.233,-239.29,0,2.4325e+08,119.33,12053,12991,1,12991,1,0.0016169,4.7154e-09,0,0.0016169,0.00024204,3.7391e+08,1108.8,0,5.2463e+08,867.62,12990,12054,1,12054,1,0.00016348,-7.5974e-10,0,0.00075357,-3.0023e-05,5.5475e+07,-233.17,0,2.5224e+08,45.437,12053,11097,1,11097,1,-0.0012899,-3.7131e-09,0,1.9956e-06,-0.00030155,-5.2463e+08,-1043,0,1.3815e+05,-91.314,11096,11599,1,11599,1,-0.00059009,-1.81e-09,0,0.00037679,-0.00017079,-2.4e+08,-566.42,0,1.3453e+08,-9.0164,11598,12509,1,12509,1,0.00091707,4.5776e-10,0,0.0011304,0.00011091,2.529e+08,120.85,0,3.4191e+08,185.78,12508,527.81,0,527.81,0,0.00086984,1.5268e-09,0,0.00045065,0.00016262,2.7827e+08,435.31,0,1.3502e+08,193.29,527.81,1
1820,5.14,12054,1,12054,1,0.00016464,-2.3648e-09,0,0.00076336,-3.013e-05,-284.97,-721.32,0,2.4351e+08,175.7,12053,12991,1,12991,1,0.0016213,3.3992e-09,0,0.0016213,0.00024244,3.7385e+08,778.37,0,5.2548e+08,880.91,12990,12054,1,12054,1,0.00016463,-2.4661e-09,0,0.00075524,-3.0235e-05,5.5814e+07,-724.49,0,2.5252e+08,120.36,12053,11097,1,11097,1,-0.001292,-7.684e-09,0,2.7881e-06,-0.00030236,-5.2548e+08,-2248.7,0,1.4999e+05,-163.45,11096,11599,1,11599,1,-0.00059061,-4.2685e-09,0,0.00037763,-0.00017131,-2.4021e+08,-1276.4,0,1.3471e+08,48.582,11598,12509,1,12509,1,0.00091989,-3.1043e-10,0,0.0011329,0.00011101,2.5317e+08,-77.809,0,3.4215e+08,253.19,12508,527.81,0,527.81,0,0.00087177,2.5023e-09,0,0.00045174,0.00016298,2.7856e+08,738.06,0,1.3515e+08,184.23,527.81,1
1820,5.15,12054,1,12054,1,0.0001658,1.863e-09,0,0.00076517,-3.0342e-05,-468.65,454.26,0,2.4377e+08,143.45,12053,12991,1,12991,1,0.0016256,9.943e-09,0,0.0016256,0.00024282,3.7378e+08,2434.4,0,5.2631e+08,902.86,12990,12054,1,12054,1,0.00016579,1.1857e-09,0,0.00075692,-3.0448e-05,5.6156e+07,308.19,0,2.528e+08,81.47,12053,11097,1,11097,1,-0.001294,-1.0094e-09,0,3.5834e-06,-0.00030317,-5.2631e+08,-345.58,0,4.4362e+05,-104.61,11096,11599,1,11599,1,-0.00059114,-2.3372e-10,0,0.00037847,-0.00017183,-2.4042e+08,-76.528,0,1.3489e+08,5.0684,11598,12509,1,12509,1,0.00092272,3.6271e-09,0,0.0011354,0.00011111,2.5345e+08,904.54,0,3.4239e+08,219.07,12508,527.81,0,527.81,0,0.00087371,2.4447e-09,0,0.00045284,0.00016334,2.7884e+08,620.94,0,1.3527e+08,193.52,527.81,1
1820,5.16,12054,1,12054,1,0.00016696,-1.9172e-09,0,0.00076697,-3.0556e-05,-360.28,-581.44,0,2.4403e+08,138.69,12053,12991,1,12991,1,0.00163,3.95e-09,0,0.00163,0.00024321,3.737e+08,898.28,0,5.2716e+08,936.44,12990,12054,1,12054,1,0.00016696,-2.1544e-09,0,0.0007586,-3.0663e-05,5.6499e+07,-616.45,0,2.5307e+08,75.379,12053,11097,1,11097,1,-0.0012961,-5.5718e-09,0,4.3968e-06,-0.00030398,-5.2716e+08,-1627.5,0,7.4363e+05,-900.61,11096,11599,1,11599,1,-0.00059164,-3.3796e-09,0,0.0003793,-0.00017235,-2.4062e+08,-1044.3,0,1.3507e+08,22.509,11598,12509,1,12509,1,0.00092556,-4.1588e-10,0,0.0011379,0.00011121,2.5372e+08,-98.981,0,3.4261e+08,210.24,12508,527.81,0,527.81,0,0.00087564,1.9056e-09,0,0.00045395,0.0001637,2.7913e+08,557.36,0,1.3538e+08,217.09,527.81,1
1820,5.17,12054,1,12054,1,0.00016813,-1.2686e-09,0,0.00076878,-3.077e-05,-451.08,-418.34,0,2.4429e+08,183.9,12053,12991,1,12991,1,0.0016344,7.8741e-09,0,0.0016344,0.0002436,3.7361e+08,1868,0,5.2799e+08,1054.6,12990,12054,1,12054,1,0.00016813,-1.1219e-09,0,0.00076027,-3.0878e-05,5.6843e+07,-355.54,0,2.5335e+08,103.39,12053,11097,1,11097,1,-0.0012981,-7.1415e-09,0,5.2066e-06,-0.0003048,-5.2799e+08,-2221.3,0,1.0424e+06,-314.07,11096,11599,1,11599,1,-0.00059214,-3.2705e-09,0,0.00038014,-0.00017288,-2.4083e+08,-979.69,0,1.3524e+08,37.016,11598,12509,1,12509,1,0.00092841,6.9789e-10,0,0.0011404,0.0001113,2.5398e+08,165.79,0,3.4284e+08,269.95,12508,527.81,0,527.81,0,0.00087757,2.8135e-09,0,0.00045505,0.00016406,2.794e+08,783.81,0,1.3549e+08,222.5,527.81,1
1820,5.18,12054,1,12054,1,0.00016931,7.0662e-10,0,0.0007706,-3.0985e-05,-739.84,132.67,0,2.4455e+08,149.46,12053,12991,1,12991,1,0.0016389,7.8402e-09,0,0.0016389,0.00024399,3.7354e+08,1892.6,0,5.2883e+08,992.46,12990,12054,1,12054,1,0.00016931,2.1282e-10,0,0.00076196,-3.1095e-05,5.7189e+07,55.218,0,2.5362e+08,82.06,12053,11097,1,11097,1,-0.0013002,-2.4996e-09,0,6.0224e-06,-0.00030562,-5.2883e+08,-689.57,0,1.3428e+06,-90.932,11096,11599,1,11599,1,-0.00059266,-8.8373e-10,0,0.00038099,-0.00017341,-2.4104e+08,-290.45,0,1.3542e+08,18.737,11598,12509,1,12509,1,0.00093128,2.145e-09,0,0.001143,0.0001114,2.5425e+08,493.18,0,3.4307e+08,217.89,12508,527.81,0,527.81,0,0.00087952,2.0228e-09,0,0.00045617,0.00016442,2.7969e+08,528.74,0,1.3561e+08,195.43,527.81,1
1820,5.19,12054,1,12054,1,0.0001705,-2.5117e-09,0,0.00077242,-3.1203e-05,-322.69,-757.07,0,2.4481e+08,164.57,12053,12991,1,12991,1,0.0016433,4.0594e-09,0,0.0016433,0.00024438,3.7344e+08,917.36,0,5.2968e+08,1058.9,12990,12054,1,12054,1,0.0001705,-2.7897e-09,0,0.00076365,-3.1315e-05,5.7537e+07,-799.11,0,2.5389e+08,98.165,12053,11097,1,11097,1,-0.0013023,-7.0719e-09,0,6.8559e-06,-0.00030644,-5.2968e+08,-1933,0,1.6498e+06,-114.4,11096,11599,1,11599,1,-0.00059315,-4.3018e-09,0,0.00038183,-0.00017394,-2.4124e+08,-1341,0,1.3559e+08,31.813,11598,12509,1,12509,1,0.00093415,-6.3227e-10,0,0.0011455,0.0001115,2.5452e+08,-154.01,0,3.4329e+08,224.76,12508,527.81,0,527.81,0,0.00088147,2.3235e-09,0,0.00045728,0.00016478,2.7997e+08,683.06,0,1.3572e+08,201.35,527.81,1
1820,5.2,12054,1,12054,1,0.0001717,-9.9401e-10,0,0.00077424,-3.1421e-05,-80.782,-354.6,0,2.4506e+08,175.35,12053,12991,1,12991,1,0.0016478,7.5974e-09,0,0.0016478,0.00024476,3.7334e+08,1735.1,0,5.3051e+08,1100,12990,12054,1,12054,1,0.00017169,-1.1699e-09,0,0.00076532,-3.1534e-05,5.7886e+07,-357.73,0,2.5416e+08,90.5,12053,11097,1,11097,1,-0.0013043,-6.281e-09,0,7.6877e-06,-0.00030726,-5.3051e+08,-1742.1,0,1.9556e+06,-125.8,11096,11599,1,11599,1,-0.00059363,-2.8008e-09,0,0.00038267,-0.00017447,-2.4143e+08,-872.24,0,1.3576e+08,26.477,11598,12509,1,12509,1,0.00093703,9.3204e-10,0,0.001148,0.00011159,2.5478e+08,217.15,0,3.4349e+08,236.23,12508,527.81,0,527.81,0,0.0008834,2.5706e-09,0,0.00045839,0.00016514,2.8024e+08,714.15,0,1.3582e+08,224.49,527.81,1
1820,5.21,12054,1,12054,1,0.0001729,-1.7534e-09,0,0.00077607,-3.164e-05,-264.68,-574.29,0,2.4532e+08,183.79,12053,12991,1,12991,1,0.0016522,5.0333e-09,0,0.0016522,0.00024516,3.7324e+08,1132.7,0,5.3135e+08,1117.2,12990,12054,1,12054,1,0.0001729,-1.972e-09,0,0.00076702,-3.1755e-05,5.8237e+07,-578.82,0,2.5443e+08,101.58,12053,11097,1,11097,1,-0.0013064,-6.6334e-09,0,8.5248e-06,-0.00030809,-5.3135e+08,-1945.9,0,2.263e+06,-126.22,11096,11599,1,11599,1,-0.00059413,-3.5924e-09,0,0.00038352,-0.000175,-2.4163e+08,-1150.2,0,1.3594e+08,39.401,11598,12509,1,12509,1,0.00093993,3.9192e-10,0,0.0011505,0.00011168,2.5504e+08,100.19,0,3.4346e+08,241.6,12508,527.81,0,527.81,0,0.00088536,2.4766e-09,0,0.00045952,0.0001655,2.8052e+08,722.79,0,1.3594e+08,219.53,527.81,1
1820,5.22,12054,1,12054,1,0.00017411,9.99e-10,0,0.0007779,-3.1862e-05,-400.97,189.92,0,2.4557e+08,181.35,12053,12991,1,12991,1,0.0016567,1.0394e-08,0,0.0016567,0.00024554,3.7314e+08,2451.2,0,5.3218e+08,1195.2,12990,12054,1,12054,1,0.00017411,3.5628e-10,0,0.0007687,-3.1978e-05,5.859e+07,101.82,0,2.5469e+08,79.849,12053,11097,1,11097,1,-0.0013084,-2.1611e-09,0,9.3724e-06,-0.00030891,-5.3218e+08,-739.72,0,2.5739e+06,-61.832,11096,11599,1,11599,1,-0.0005946,-9.5388e-10,0,0.00038436,-0.00017554,-2.4183e+08,-315.94,0,1.3611e+08,28.688,11598,12509,1,12509,1,0.00094283,2.6867e-09,0,0.0011531,0.00011178,2.553e+08,615.3,0,3.4341e+08,247.12,12508,527.81,0,527.81,0,0.00088731,2.462e-09,0,0.00046065,0.00016587,2.8079e+08,624.14,0,1.3604e+08,240.06,527.81,1
1820,5.23,12054,1,12054,1,0.00017533,-1.9565e-10,0,0.00077973,-3.2083e-05,-1015.9,-120.47,0,2.4582e+08,247.89,12053,12991,1,12991,1,0.0016612,9.8575e-09,0,0.0016612,0.00024592,3.7302e+08,2321.8,0,5.3301e+08,1206.7,12990,12054,1,12054,1,0.00017532,-5.112e-10,0,0.0007704,-3.2202e-05,5.8943e+07,-156.58,0,2.5496e+08,156.87,12053,11097,1,11097,1,-0.0013105,-5.0722e-09,0,1.0228e-05,-0.00030974,-5.3301e+08,-1285.7,0,2.8874e+06,-107.73,11096,11599,1,11599,1,-0.00059508,-2.0027e-09,0,0.00038521,-0.00017607,-2.4202e+08,-606.59,0,1.3628e+08,76.694,11598,12509,1,12509,1,0.00094574,1.1688e-09,0,0.0011556,0.00011187,2.5555e+08,258.53,0,3.4337e+08,339.5,12508,527.81,0,527.81,0,0.00088927,2.5897e-09,0,0.00046178,0.00016623,2.8106e+08,687.74,0,1.3615e+08,249.85,527.81,1
1820,5.24,12054,1,12054,1,0.00017656,-1.7393e-09,0,0.00078157,-3.2308e-05,-372.23,-552.98,0,2.4607e+08,230.87,12053,12991,1,12991,1,0.0016657,5.9785e-09,0,0.0016657,0.00024631,3.729e+08,1336.5,0,5.3385e+08,1347.2,12990,12054,1,12054,1,0.00017655,-1.9039e-09,0,0.0007721,-3.2428e-05,5.9299e+07,-559.5,0,2.5522e+08,125.57,12053,11097,1,11097,1,-0.0013125,-7.3921e-09,0,1.1092e-05,-0.00031057,-5.3385e+08,-1884.8,0,3.2038e+06,-98.61,11096,11599,1,11599,1,-0.00059555,-3.486e-09,0,0.00038606,-0.00017661,-2.4221e+08,-1072.6,0,1.3645e+08,47.668,11598,12509,1,12509,1,0.00094866,1.3707e-10,0,0.0011582,0.00011196,2.5581e+08,38.322,0,3.4332e+08,315.06,12508,527.81,0,527.81,0,0.00089123,2.4092e-09,0,0.00046291,0.00016659,2.8133e+08,685.26,0,1.3626e+08,268.94,527.81,1
1820,5.25,12054,1,12054,1,0.00017779,-1.9218e-09,0,0.0007834,-3.2532e-05,-706.55,-620.62,0,2.4631e+08,265.9,12053,12991,1,12991,1,0.0016702,7.1998e-09,0,0.0016702,0.00024669,3.7278e+08,1606,0,5.3468e+08,1311.1,12990,12054,1,12054,1,0.00017778,-2.1182e-09,0,0.00077379,-3.2654e-05,5.9654e+07,-620.81,0,2.5547e+08,164.49,12053,11097,1,11097,1,-0.0013146,-7.8693e-09,0,1.1957e-05,-0.00031141,-5.3468e+08,-2278.9,0,3.5201e+06,-152.95,11096,11599,1,11599,1,-0.00059601,-4.0748e-09,0,0.00038691,-0.00017715,-2.424e+08,-1233.1,0,1.3662e+08,66.603,11598,12509,1,12509,1,0.00095158,4.6559e-10,0,0.0011607,0.00011205,2.5606e+08,116.05,0,3.4326e+08,373.27,12508,527.81,0,527.81,0,0.00089318,2.9796e-09,0,0.00046404,0.00016696,2.816e+08,846.03,0,1.3637e+08,283.69,527.81,1
1820,5.26,12054,1,12054,1,0.00017903,-1.382e-09,0,0.00078527,-3.276e-05,698.53,-492.21,0,2.4656e+08,199.26,12053,12991,1,12991,1,0.0016747,5.5079e-09,0,0.0016747,0.00024708,3.7266e+08,1223.3,0,5.3552e+08,1340.3,12990,12054,1,12054,1,0.00017903,-1.6833e-09,0,0.0007755,-3.2883e-05,6.0015e+07,-487.83,0,2.5574e+08,80.894,12053,11097,1,11097,1,-0.0013166,-6.4883e-09,0,1.2833e-05,-0.00031225,-5.3552e+08,-2220.9,0,3.8397e+06,-109.13,11096,11599,1,11599,1,-0.00059648,-3.6609e-09,0,0.00038777,-0.0001777,-2.4259e+08,-1136.3,0,1.3679e+08,3.0148,11598,12509,1,12509,1,0.00095454,8.0745e-10,0,0.0011633,0.00011214,2.5632e+08,204.91,0,3.4321e+08,296.19,12508,527.81,0,527.81,0,0.00089516,2.4629e-09,0,0.0004652,0.00016732,2.8187e+08,722.65,0,1.3648e+08,285.62,527.81,1
1820,5.27,12054,1,12054,1,0.00018028,2.229e-09,0,0.00078709,-3.2988e-05,50.821,521.09,0,2.4679e+08,217.01,12053,12991,1,12991,1,0.0016792,1.5641e-08,0,0.0016792,0.00024745,3.7252e+08,3691.6,0,5.3632e+08,1467.9,12990,12054,1,12054,1,0.00018027,7.9326e-10,0,0.00077719,-3.3113e-05,6.0375e+07,224.83,0,2.5598e+08,117.82,12053,11097,1,11097,1,-0.0013186,-4.4613e-09,0,1.3719e-05,-0.00031307,-5.3632e+08,-1083.2,0,4.1625e+06,-236.89,11096,11599,1,11599,1,-0.00059692,-7.9725e-10,0,0.0003886,-0.00017824,-2.4277e+08,-263.15,0,1.3695e+08,5.8312,11598,12509,1,12509,1,0.00095748,4.4793e-09,0,0.0011658,0.00011222,2.5655e+08,1100.8,0,3.4313e+08,345.1,12508,527.81,0,527.81,0,0.00089711,3.8835e-09,0,0.00046633,0.00016768,2.8213e+08,970.97,0,1.3658e+08,310.44,527.81,1
1820,5.28,12054,1,12054,1,0.00018154,-4.131e-09,0,0.00078896,-3.3216e-05,255.98,-1217.6,0,2.4704e+08,294.89,12053,12991,1,12991,1,0.0016838,4.4009e-09,0,0.0016838,0.00024785,3.7239e+08,971.14,0,5.3717e+08,1440.4,12990,12054,1,12054,1,0.00018153,-4.5322e-09,0,0.00077891,-3.3343e-05,6.0735e+07,-1301.6,0,2.5624e+08,183.48,12053,11097,1,11097,1,-0.0013207,-1.1057e-08,0,1.4611e-05,-0.00031392,-5.3717e+08,-2994.8,0,4.4871e+06,-173.42,11096,11599,1,11599,1,-0.00059738,-6.6397e-09,0,0.00038946,-0.00017879,-2.4296e+08,-2043.6,0,1.3712e+08,56.214,11598,12509,1,12509,1,0.00096045,-1.3981e-09,0,0.0011684,0.00011231,2.5681e+08,-350.7,0,3.4307e+08,464.51,12508,527.81,0,527.81,0,0.00089909,3.4523e-09,0,0.00046749,0.00016805,2.824e+08,1005.8,0,1.3669e+08,314.1,527.81,1
1820,5.29,12054,1,12054,1,0.0001828,-6.8057e-10,0,0.00079082,-3.3448e-05,163.42,-302.5,0,2.4728e+08,266.83,12053,12991,1,12991,1,0.0016884,1.0211e-08,0,0.0016884,0.00024823,3.7224e+08,2257.4,0,5.38e+08,1493,12990,12054,1,12054,1,0.0001828,-1.1518e-09,0,0.00078062,-3.3577e-05,6.11e+07,-350.62,0,2.565e+08,138.95,12053,11097,1,11097,1,-0.0013227,-6.1933e-09,0,1.5506e-05,-0.00031477,-5.38e+08,-1653.4,0,4.8124e+06,-135.17,11096,11599,1,11599,1,-0.00059783,-3.0669e-09,0,0.00039033,-0.00017934,-2.4314e+08,-1004.9,0,1.3728e+08,47.948,11598,12509,1,12509,1,0.00096344,1.6246e-09,0,0.001171,0.0001124,2.5705e+08,369.07,0,3.4299e+08,392.13,12508,527.81,0,527.81,0,0.00090107,3.1e-09,0,0.00046865,0.00016842,2.8266e+08,836.33,0,1.368e+08,316.2,527.81,1
1820,5.3,12054,1,12054,1,0.00018408,-4.6462e-10,0,0.0007927,-3.3682e-05,-176.68,-240.88,0,2.4753e+08,226.93,12053,12991,1,12991,1,0.001693,7.9279e-09,0,0.001693,0.00024861,3.7209e+08,1749.4,0,5.3883e+08,1522.9,12990,12054,1,12054,1,0.00018408,-7.4559e-10,0,0.00078235,-3.3812e-05,6.1467e+07,-228.85,0,2.5675e+08,85.654,12053,11097,1,11097,1,-0.0013248,-6.7444e-09,0,1.6413e-05,-0.00031562,-5.3883e+08,-2308.9,0,5.1415e+06,-62.574,11096,11599,1,11599,1,-0.00059828,-2.5719e-09,0,0.00039119,-0.00017989,-2.4332e+08,-830.54,0,1.3745e+08,21.967,11598,12509,1,12509,1,0.00096644,1.4653e-09,0,0.0011736,0.00011248,2.573e+08,333.5,0,3.4292e+08,321.79,12508,527.81,0,527.81,0,0.00090307,2.528e-09,0,0.00046982,0.00016879,2.8292e+08,707.49,0,1.369e+08,310.73,527.81,1
1820,5.31,12054,1,12054,1,0.00018537,-1.5033e-09,0,0.00079453,-3.3915e-05,-292.36,-524.63,0,2.4775e+08,356.05,12053,12991,1,12991,1,0.0016976,1.5129e-08,0,0.0016976,0.00024899,3.7192e+08,3456.8,0,5.3964e+08,1627,12990,12054,1,12054,1,0.00018536,-1.734e-09,0,0.00078404,-3.4047e-05,6.1833e+07,-543.13,0,2.5699e+08,273.18,12053,11097,1,11097,1,-0.0013268,-1.1324e-08,0,1.7333e-05,-0.00031646,-5.3964e+08,-2865.9,0,5.4744e+06,-139.6,11096,11599,1,11599,1,-0.00059869,-4.9102e-09,0,0.00039203,-0.00018044,-2.4349e+08,-1453.2,0,1.3761e+08,89.52,11598,12509,1,12509,1,0.00096942,1.2899e-09,0,0.0011761,0.00011256,2.5753e+08,296.19,0,3.4282e+08,505.86,12508,527.81,0,527.81,0,0.00090502,4.7699e-09,0,0.00047096,0.00016915,2.8317e+08,1267,0,1.37e+08,348.56,527.81,1
1820,5.32,12054,1,12054,1,0.00018665,3.9757e-09,0,0.00079642,-3.4151e-05,245.97,997.06,0,2.48e+08,191.08,12053,12991,1,12991,1,0.0017021,1.3483e-08,0,0.0017021,0.00024937,3.7179e+08,3117.4,0,5.4047e+08,1806.7,12990,12054,1,12054,1,0.00018665,3.6694e-09,0,0.00078579,-3.4286e-05,6.2202e+07,1076,0,2.5724e+08,64.793,12053,11097,1,11097,1,-0.0013288,-3.2418e-09,0,1.825e-05,-0.0003173,-5.4047e+08,-1110,0,5.8055e+06,-238.89,11096,11599,1,11599,1,-0.00059914,4.5354e-10,0,0.00039289,-0.000181,-2.4367e+08,140.65,0,1.3778e+08,-25.277,11598,12509,1,12509,1,0.00097244,7.4645e-09,0,0.0011787,0.00011265,2.5778e+08,1835.5,0,3.4274e+08,276.46,12508,527.81,0,527.81,0,0.00090702,3.9253e-09,0,0.00047214,0.00016953,2.8344e+08,991.46,0,1.3711e+08,357.06,527.81,1
1820,5.33,12054,1,12054,1,0.00018796,-2.8784e-09,0,0.0007983,-3.4388e-05,64.278,-831.47,0,2.4823e+08,277.03,12053,12991,1,12991,1,0.0017068,5.2993e-09,0,0.0017068,0.00024976,3.7161e+08,1143.4,0,5.413e+08,1772.3,12990,12054,1,12054,1,0.00018795,-3.0444e-09,0,0.00078751,-3.4525e-05,6.2573e+07,-871.7,0,2.5749e+08,158.04,12053,11097,1,11097,1,-0.0013309,-9.9832e-09,0,1.919e-05,-0.00031817,-5.413e+08,-2935.2,0,6.1446e+06,-103.16,11096,11599,1,11599,1,-0.00059956,-5.064e-09,0,0.00039376,-0.00018156,-2.4384e+08,-1478.9,0,1.3794e+08,60.531,11598,12509,1,12509,1,0.00097547,-5.4637e-10,0,0.0011813,0.00011273,2.5801e+08,-148.41,0,3.4265e+08,372.29,12508,527.81,0,527.81,0,0.00090902,2.9327e-09,0,0.00047332,0.0001699,2.8369e+08,811.54,0,1.3722e+08,333.29,527.81,1
1820,5.34,12054,1,12054,1,0.00018927,-3.0103e-09,0,0.00080018,-3.4628e-05,-65.288,-921.24,0,2.4846e+08,317.92,12053,12991,1,12991,1,0.0017115,8.8142e-09,0,0.0017115,0.00025014,3.7144e+08,1924.1,0,5.4213e+08,1858.7,12990,12054,1,12054,1,0.00018926,-3.5433e-09,0,0.00078924,-3.4765e-05,6.2946e+07,-994.85,0,2.5773e+08,203.03,12053,11097,1,11097,1,-0.0013329,-9.4465e-09,0,2.0122e-05,-0.00031903,-5.4213e+08,-3104.4,0,6.4801e+06,-161.2,11096,11599,1,11599,1,-0.00059998,-5.9791e-09,0,0.00039463,-0.00018212,-2.4401e+08,-1769.4,0,1.381e+08,69.378,11598,12509,1,12509,1,0.00097851,-1.9513e-10,0,0.0011839,0.00011281,2.5825e+08,-57.501,0,3.4255e+08,438.75,12508,527.81,0,527.81,0,0.00091102,3.6856e-09,0,0.0004745,0.00017027,2.8395e+08,1034.1,0,1.3732e+08,366.25,527.81,1
1820,5.35,12054,1,12054,1,0.00019058,-3.1466e-09,0,0.00080205,-3.4868e-05,-297.82,-1000.6,0,2.4869e+08,391.63,12053,12991,1,12991,1,0.0017161,1.4575e-08,0,0.0017161,0.00025052,3.7126e+08,3178.7,0,5.4295e+08,1863.5,12990,12054,1,12054,1,0.00019057,-3.4663e-09,0,0.00079095,-3.5006e-05,6.3319e+07,-1030.6,0,2.5797e+08,304.56,12053,11097,1,11097,1,-0.0013349,-1.3293e-08,0,2.1065e-05,-0.00031989,-5.4295e+08,-3812.5,0,6.8184e+06,-198.18,11096,11599,1,11599,1,-0.00060039,-7.4074e-09,0,0.00039549,-0.00018268,-2.4418e+08,-2133.5,0,1.3825e+08,88.33,11598,12509,1,12509,1,0.00098155,8.4677e-10,0,0.0011865,0.00011289,2.5848e+08,201.81,0,3.4244e+08,565.85,12508,527.81,0,527.81,0,0.000913,5.4906e-09,0,0.00047568,0.00017063,2.8419e+08,1507.4,0,1.3742e+08,403.98,527.81,1
1820,5.36,12054,1,12054,1,0.00019191,-7.4063e-10,0,0.00080395,-3.511e-05,82.565,-368.36,0,2.4892e+08,294.72,12053,12991,1,12991,1,0.0017208,1.3776e-08,0,0.0017208,0.0002509,3.7108e+08,3003,0,5.4377e+08,1888.8,12990,12054,1,12054,1,0.0001919,-1.4029e-09,0,0.00079269,-3.5251e-05,6.3695e+07,-392.55,0,2.5821e+08,147.71,12053,11097,1,11097,1,-0.0013369,-7.18e-09,0,2.2014e-05,-0.00032076,-5.4377e+08,-2456.7,0,7.1581e+06,-126.32,11096,11599,1,11599,1,-0.0006008,-3.9537e-09,0,0.00039637,-0.00018324,-2.4435e+08,-1250.1,0,1.3841e+08,31.885,11598,12509,1,12509,1,0.00098461,1.8598e-09,0,0.0011891,0.00011297,2.5871e+08,429.86,0,3.4234e+08,426.8,12508,527.81,0,527.81,0,0.00091501,4.0267e-09,0,0.00047687,0.00017101,2.8445e+08,1091.3,0,1.3753e+08,394.23,527.81,1
1820,5.37,12054,1,12054,1,0.00019324,2.9496e-09,0,0.00080584,-3.5353e-05,-406.59,672.68,0,2.4914e+08,344.06,12053,12991,1,12991,1,0.0017254,1.871e-08,0,0.0017254,0.00025127,3.709e+08,4269.1,0,5.4457e+08,2029.7,12990,12054,1,12054,1,0.00019323,1.4634e-09,0,0.00079442,-3.5496e-05,6.4073e+07,413.11,0,2.5845e+08,173.22,12053,11097,1,11097,1,-0.0013389,-3.9447e-09,0,2.2978e-05,-0.00032161,-5.4457e+08,-1269.7,0,7.5025e+06,-75.065,11096,11599,1,11599,1,-0.0006012,-4.9382e-10,0,0.00039723,-0.00018381,-2.4451e+08,-162.2,0,1.3857e+08,55.997,11598,12509,1,12509,1,0.00098768,5.8431e-09,0,0.0011917,0.00011305,2.5894e+08,1364.3,0,3.4222e+08,489.25,12508,527.81,0,527.81,0,0.00091701,4.2265e-09,0,0.00047806,0.00017138,2.8469e+08,1008.8,0,1.3763e+08,418.85,527.81,1
1820,5.38,12054,1,12054,1,0.00019459,-3.2367e-09,0,0.00080774,-3.5598e-05,-145.35,-988.4,0,2.4937e+08,355.99,12053,12991,1,12991,1,0.0017302,1.1257e-08,0,0.0017302,0.00025166,3.707e+08,2484.3,0,5.4541e+08,2054.7,12990,12054,1,12054,1,0.00019457,-3.5455e-09,0,0.00079617,-3.5743e-05,6.4451e+07,-1028.5,0,2.5868e+08,236.33,12053,11097,1,11097,1,-0.001341,-1.1499e-08,0,2.3951e-05,-0.00032249,-5.4541e+08,-3265.9,0,7.8488e+06,-181.39,11096,11599,1,11599,1,-0.0006016,-6.6296e-09,0,0.0003981,-0.00018437,-2.4467e+08,-1940.4,0,1.3873e+08,56.437,11598,12509,1,12509,1,0.00099076,6.0126e-12,0,0.0011943,0.00011312,2.5917e+08,2.9208,0,3.4211e+08,487.44,12508,527.81,0,527.81,0,0.00091902,4.372e-09,0,0.00047926,0.00017175,2.8494e+08,1210.3,0,1.3773e+08,424.62,527.81,1
1820,5.39,12054,1,12054,1,0.00019594,-1.0883e-09,0,0.00080965,-3.5846e-05,77.433,-438.52,0,2.496e+08,357.4,12053,12991,1,12991,1,0.0017349,1.3688e-08,0,0.0017349,0.00025204,3.705e+08,2957.8,0,5.4623e+08,2109.5,12990,12054,1,12054,1,0.00019593,-1.7359e-09,0,0.00079792,-3.5993e-05,6.4834e+07,-490.95,0,2.5892e+08,176.03,12053,11097,1,11097,1,-0.001343,-8.3819e-09,0,2.4929e-05,-0.00032336,-5.4623e+08,-2814.5,0,8.196e+06,-97.654,11096,11599,1,11599,1,-0.000602,-4.1255e-09,0,0.00039898,-0.00018495,-2.4483e+08,-1298.9,0,1.3888e+08,55.272,11598,12509,1,12509,1,0.00099387,1.384e-09,0,0.0011969,0.0001132,2.5939e+08,299,0,3.4199e+08,512.59,12508,527.81,0,527.81,0,0.00092105,3.8002e-09,0,0.00048047,0.00017213,2.8519e+08,1024.5,0,1.3784e+08,445.49,527.81,1
1820,5.4,12054,1,12054,1,0.00019731,-3.4623e-09,0,0.00081155,-3.6095e-05,212.65,-1094.9,0,2.4982e+08,397.13,12053,12991,1,12991,1,0.0017397,1.4268e-08,0,0.0017397,0.00025242,3.7029e+08,3075.7,0,5.4705e+08,2192.3,12990,12054,1,12054,1,0.0001973,-4.0842e-09,0,0.00079966,-3.6243e-05,6.5217e+07,-1169.3,0,2.5915e+08,285.99,12053,11097,1,11097,1,-0.001345,-1.265e-08,0,2.5919e-05,-0.00032424,-5.4705e+08,-4088.5,0,8.5466e+06,-181.31,11096,11599,1,11599,1,-0.00060238,-7.4766e-09,0,0.00039985,-0.00018552,-2.4499e+08,-2196.5,0,1.3903e+08,76.667,11598,12509,1,12509,1,0.00099698,4.0559e-10,0,0.0011995,0.00011327,2.5961e+08,105.06,0,3.4185e+08,546.97,12508,527.81,0,527.81,0,0.00092306,5.1729e-09,0,0.00048168,0.0001725,2.8543e+08,1451.3,0,1.3794e+08,448.46,527.81,1
1820,5.41,12054,1,12054,1,0.00019868,1.415e-09,0,0.00081348,-3.6346e-05,-104.48,215.15,0,2.5004e+08,380.01,12053,12991,1,12991,1,0.0017444,1.6625e-08,0,0.0017444,0.00025279,3.701e+08,3590.9,0,5.4786e+08,2378.3,12990,12054,1,12054,1,0.00019867,6.3351e-10,0,0.00080142,-3.6496e-05,6.5603e+07,167.26,0,2.5938e+08,161.08,12053,11097,1,11097,1,-0.001347,-8.6346e-09,0,2.691e-05,-0.00032511,-5.4786e+08,-2955.9,0,8.8961e+06,-39.101,11096,11599,1,11599,1,-0.00060277,-1.926e-09,0,0.00040073,-0.0001861,-2.4515e+08,-624.95,0,1.3919e+08,34.614,11598,12509,1,12509,1,0.0010001,4.4576e-09,0,0.0012022,0.00011335,2.5984e+08,1014.7,0,3.4173e+08,556.26,12508,527.81,0,527.81,0,0.0009251,4.2426e-09,0,0.0004829,0.00017288,2.8567e+08,1076.9,0,1.3804e+08,496.03,527.81,1
1820,5.42,12054,1,12054,1,0.00020006,-1.5927e-09,0,0.00081538,-3.6598e-05,-81.613,-569.98,0,2.5025e+08,483.3,12053,12991,1,12991,1,0.0017491,1.8025e-08,0,0.0017491,0.00025317,3.6986e+08,3897.6,0,5.4867e+08,2382.3,12990,12054,1,12054,1,0.00020005,-2.4218e-09,0,0.00080317,-3.675e-05,6.5989e+07,-700.98,0,2.596e+08,373.37,12053,11097,1,11097,1,-0.001349,-1.2471e-08,0,2.7921e-05,-0.00032599,-5.4867e+08,-2850.9,0,9.252e+06,-131.51,11096,11599,1,11599,1,-0.00060313,-5.3978e-09,0,0.0004016,-0.00018667,-2.4529e+08,-1626.7,0,1.3934e+08,117.47,11598,12509,1,12509,1,0.0010032,1.3837e-09,0,0.0012048,0.00011342,2.6005e+08,289.24,0,3.4158e+08,665.49,12508,527.81,0,527.81,0,0.00092711,5.192e-09,0,0.00048411,0.00017325,2.8591e+08,1347.5,0,1.3814e+08,489.63,527.81,1
1820,5.43,12054,1,12054,1,0.00020145,-1.1031e-10,0,0.00081731,-3.6851e-05,-225.09,-172,0,2.5047e+08,467.6,12053,12991,1,12991,1,0.0017539,1.9117e-08,0,0.0017539,0.00025355,3.6965e+08,4135.9,0,5.4949e+08,2529.8,12990,12054,1,12054,1,0.00020144,-9.9455e-10,0,0.00080493,-3.7005e-05,6.6377e+07,-296.24,0,2.5983e+08,277.01,12053,11097,1,11097,1,-0.001351,-1.0258e-08,0,2.8928e-05,-0.00032687,-5.4949e+08,-2567.1,0,9.6048e+06,-108.82,11096,11599,1,11599,1,-0.00060351,-3.4889e-09,0,0.00040249,-0.00018725,-2.4545e+08,-1095.7,0,1.3949e+08,98.209,11598,12509,1,12509,1,0.0010064,2.3563e-09,0,0.0012074,0.00011349,2.6027e+08,499.57,0,3.4144e+08,662.81,12508,527.81,0,527.81,0,0.00092914,4.6422e-09,0,0.00048534,0.00017363,2.8615e+08,1174.5,0,1.3824e+08,527.57,527.81,1
1820,5.44,12054,1,12054,1,0.00020285,-4.7581e-10,0,0.00081923,-3.7107e-05,-75.622,-264.49,0,2.5069e+08,450.27,12053,12991,1,12991,1,0.0017587,1.5599e-08,0,0.0017587,0.00025392,3.6942e+08,3330.7,0,5.503e+08,2640.6,12990,12054,1,12054,1,0.00020284,-1.0696e-09,0,0.00080669,-3.7262e-05,6.6768e+07,-315.17,0,2.6005e+08,210.1,12053,11097,1,11097,1,-0.001353,-1.122e-08,0,2.9953e-05,-0.00032776,-5.503e+08,-3568.4,0,9.9626e+06,-71.846,11096,11599,1,11599,1,-0.00060387,-3.4959e-09,0,0.00040337,-0.00018784,-2.4559e+08,-1089.9,0,1.3964e+08,66.744,11598,12509,1,12509,1,0.0010096,2.0563e-09,0,0.0012101,0.00011356,2.6048e+08,455.78,0,3.4129e+08,647.27,12508,527.81,0,527.81,0,0.00093118,4.1148e-09,0,0.00048657,0.00017401,2.8638e+08,1068.5,0,1.3834e+08,561.8,527.81,1
1820,5.45,12054,1,12054,1,0.00020426,6.0559e-09,0,0.00082115,-3.7364e-05,60.108,1533,0,2.5089e+08,524.82,12053,12991,1,12991,1,0.0017635,2.8593e-08,0,0.0017635,0.0002543,3.692e+08,6440.5,0,5.511e+08,2828.6,12990,12054,1,12054,1,0.00020425,4.3325e-09,0,0.00080847,-3.7522e-05,6.716e+07,1252.5,0,2.6027e+08,351.62,12053,11097,1,11097,1,-0.001355,-9.7256e-09,0,3.0984e-05,-0.00032863,-5.511e+08,-2098.9,0,1.0322e+07,-154.69,11096,11599,1,11599,1,-0.00060422,7.5027e-10,0,0.00040423,-0.00018842,-2.4573e+08,225.68,0,1.3979e+08,120.53,11598,12509,1,12509,1,0.0010127,1.1357e-08,0,0.0012127,0.00011363,2.6069e+08,2773.9,0,3.4114e+08,722.22,12508,527.81,0,527.81,0,0.0009332,6.9245e-09,0,0.0004878,0.00017438,2.8661e+08,1668.4,0,1.3844e+08,560.79,527.81,1
1820,5.46,12054,1,12054,1,0.00020568,-3.672e-10,0,0.0008231,-3.7623e-05,279.38,-105.12,0,2.5111e+08,438.56,12053,12991,1,12991,1,0.0017683,1.243e-08,0,0.0017683,0.00025467,3.6895e+08,2641.5,0,5.5192e+08,3107.4,12990,12054,1,12054,1,0.00020567,-1.7908e-10,0,0.00081024,-3.7783e-05,6.7554e+07,-50.204,0,2.6049e+08,177.22,12053,11097,1,11097,1,-0.001357,-1.2649e-08,0,3.2033e-05,-0.00032953,-5.5192e+08,-3793.1,0,1.0685e+07,-70.745,11096,11599,1,11599,1,-0.00060458,-1.1837e-09,0,0.00040513,-0.00018901,-2.4588e+08,-318.4,0,1.3994e+08,44.376,11598,12509,1,12509,1,0.0010159,6.222e-10,0,0.0012154,0.0001137,2.609e+08,173.51,0,3.4099e+08,608.6,12508,527.81,0,527.81,0,0.00093526,3.1478e-09,0,0.00048905,0.00017477,2.8685e+08,841.29,0,1.3854e+08,594.46,527.81,1
1820,5.47,12054,1,12054,1,0.00020711,3.8556e-10,0,0.00082505,-3.7884e-05,-256.29,79.691,0,2.5132e+08,554.29,12053,12991,1,12991,1,0.0017732,2.1337e-08,0,0.0017732,0.00025505,3.6871e+08,4618.6,0,5.5273e+08,3184.7,12990,12054,1,12054,1,0.0002071,-2.8172e-11,0,0.00081202,-3.8046e-05,6.7951e+07,-8.9795,0,2.6071e+08,340.26,12053,11097,1,11097,1,-0.001359,-1.4242e-08,0,3.3081e-05,-0.00033043,-5.5273e+08,-3102.2,0,1.1047e+07,-79.103,11096,11599,1,11599,1,-0.00060493,-1.5147e-09,0,0.00040602,-0.0001896,-2.4602e+08,-406.26,0,1.4009e+08,120.6,11598,12509,1,12509,1,0.0010191,1.7348e-09,0,0.001218,0.00011377,2.6111e+08,486.66,0,3.4082e+08,769.23,12508,527.81,0,527.81,0,0.00093732,4.5356e-09,0,0.00049031,0.00017515,2.8708e+08,1088.6,0,1.3864e+08,603.42,527.81,1
1820,5.48,12054,1,12054,1,0.00020854,-1.3294e-09,0,0.00082697,-3.8146e-05,48.052,-395.46,0,2.5151e+08,578.93,12053,12991,1,12991,1,0.001778,2.3859e-08,0,0.001778,0.00025542,3.6844e+08,5190.7,0,5.5352e+08,3260,12990,12054,1,12054,1,0.00020853,-1.2566e-09,0,0.00081377,-3.8309e-05,6.8347e+07,-394.48,0,2.6091e+08,392.41,12053,11097,1,11097,1,-0.0013609,-1.9959e-08,0,3.414e-05,-0.00033132,-5.5352e+08,-4502.7,0,1.1412e+07,-178.26,11096,11599,1,11599,1,-0.00060524,-4.5923e-09,0,0.00040689,-0.00019019,-2.4615e+08,-1333.6,0,1.4022e+08,141.33,11598,12509,1,12509,1,0.0010223,1.3511e-09,0,0.0012207,0.00011383,2.613e+08,324.95,0,3.4064e+08,808.68,12508,527.81,0,527.81,0,0.00093933,6.1813e-09,0,0.00049154,0.00017552,2.873e+08,1483.7,0,1.3873e+08,616.91,527.81,1
1820,5.49,12054,1,12054,1,0.00020999,-5.9012e-10,0,0.00082894,-3.841e-05,-35.892,-238.61,0,2.5173e+08,506.42,12053,12991,1,12991,1,0.0017829,1.7084e-08,0,0.0017829,0.0002558,3.6821e+08,3603.3,0,5.5435e+08,3165.8,12990,12054,1,12054,1,0.00020997,-8.53e-10,0,0.00081557,-3.8575e-05,6.8746e+07,-246.42,0,2.6114e+08,238.92,12053,11097,1,11097,1,-0.0013629,-1.3247e-08,0,3.5193e-05,-0.00033223,-5.5435e+08,-4069.6,0,1.1773e+07,-27.376,11096,11599,1,11599,1,-0.0006056,-2.2187e-09,0,0.0004078,-0.00019078,-2.463e+08,-700.13,0,1.4037e+08,74.096,11598,12509,1,12509,1,0.0010256,9.473e-10,0,0.0012234,0.0001139,2.6151e+08,211.37,0,3.4049e+08,702.97,12508,527.81,0,527.81,0,0.00094142,3.8905e-09,0,0.00049281,0.00017591,2.8754e+08,1008.4,0,1.3884e+08,628.86,527.81,1
1820,5.5,12054,1,12054,1,0.00021146,1.1734e-09,0,0.00083091,-3.8678e-05,-222.66,248.37,0,2.5193e+08,565.27,12053,12991,1,12991,1,0.0017879,2.1191e-08,0,0.0017879,0.00025617,3.6794e+08,4495.6,0,5.5516e+08,3356.5,12990,12054,1,12054,1,0.00021144,7.0074e-10,0,0.00081736,-3.8845e-05,6.915e+07,193.6,0,2.6135e+08,304.76,12053,11097,1,11097,1,-0.0013649,-1.2828e-08,0,3.6273e-05,-0.00033313,-5.5516e+08,-3979.9,0,1.2142e+07,-32.299,11096,11599,1,11599,1,-0.00060593,-6.8185e-10,0,0.00040869,-0.00019139,-2.4643e+08,-206.15,0,1.4052e+08,109.35,11598,12509,1,12509,1,0.0010288,2.8354e-09,0,0.0012261,0.00011396,2.6171e+08,703.11,0,3.403e+08,773.03,12508,527.81,0,527.81,0,0.00094349,4.4905e-09,0,0.00049409,0.00017629,2.8777e+08,1127.3,0,1.3894e+08,653.98,527.81,1
1820,5.51,12054,1,12054,1,0.00021293,-1.9566e-10,0,0.00083288,-3.8947e-05,-393.24,-111.08,0,2.5214e+08,659.54,12053,12991,1,12991,1,0.0017928,2.3077e-08,0,0.0017928,0.00025655,3.6767e+08,4859.2,0,5.5596e+08,3620.1,12990,12054,1,12054,1,0.00021291,-6.95e-10,0,0.00081916,-3.9115e-05,6.9555e+07,-198.94,0,2.6155e+08,395.64,12053,11097,1,11097,1,-0.0013669,-1.724e-08,0,3.7363e-05,-0.00033405,-5.5596e+08,-4092.1,0,1.2512e+07,-80.957,11096,11599,1,11599,1,-0.00060625,-2.3433e-09,0,0.00040959,-0.00019199,-2.4656e+08,-663.8,0,1.4066e+08,146.36,11598,12509,1,12509,1,0.0010321,1.6012e-09,0,0.0012288,0.00011403,2.6191e+08,416.21,0,3.4012e+08,920.18,12508,527.81,0,527.81,0,0.00094556,5.2363e-09,0,0.00049536,0.00017668,2.8799e+08,1283.3,0,1.3904e+08,711.81,527.81,1
1820,5.52,12054,1,12054,1,0.00021442,-1.0076e-09,0,0.00083486,-3.9219e-05,-32.397,-343.29,0,2.5234e+08,674.39,12053,12991,1,12991,1,0.0017978,2.2789e-08,0,0.0017978,0.00025692,3.674e+08,4770.2,0,5.5678e+08,3715,12990,12054,1,12054,1,0.0002144,-1.5214e-09,0,0.00082096,-3.9388e-05,6.9962e+07,-413.8,0,2.6176e+08,415.7,12053,11097,1,11097,1,-0.0013689,-1.9365e-08,0,3.8461e-05,-0.00033496,-5.5678e+08,-4765.8,0,1.2885e+07,-64.912,11096,11599,1,11599,1,-0.00060657,-3.4875e-09,0,0.00041049,-0.00019259,-2.4669e+08,-1017.6,0,1.408e+08,143.05,11598,12509,1,12509,1,0.0010354,1.1933e-09,0,0.0012315,0.00011409,2.6211e+08,307.32,0,3.3993e+08,945.01,12508,527.81,0,527.81,0,0.00094764,5.551e-09,0,0.00049665,0.00017706,2.8821e+08,1377.7,0,1.3914e+08,731.24,527.81,1
1820,5.53,12054,1,12054,1,0.00021591,-2.1464e-09,0,0.00083684,-3.9493e-05,278.17,-676.76,0,2.5253e+08,701.64,12053,12991,1,12991,1,0.0018028,2.415e-08,0,0.0018028,0.0002573,3.6712e+08,5042.4,0,5.5759e+08,3906.2,12990,12054,1,12054,1,0.00021589,-2.8638e-09,0,0.00082276,-3.9663e-05,7.0371e+07,-793.86,0,2.6197e+08,464.28,12053,11097,1,11097,1,-0.0013709,-2.1377e-08,0,3.9567e-05,-0.00033589,-5.5759e+08,-5208.6,0,1.3258e+07,-163.98,11096,11599,1,11599,1,-0.00060687,-6.0257e-09,0,0.0004114,-0.0001932,-2.4681e+08,-1769.8,0,1.4094e+08,144.26,11598,12509,1,12509,1,0.0010387,1.3314e-09,0,0.0012342,0.00011415,2.623e+08,306.77,0,3.3973e+08,984.22,12508,527.81,0,527.81,0,0.00094973,6.467e-09,0,0.00049794,0.00017745,2.8843e+08,1604.5,0,1.3923e+08,762.81,527.81,1
1820,5.54,12054,1,12054,1,0.00021742,-1.8091e-09,0,0.00083883,-3.9768e-05,-68.876,-634.9,0,2.5273e+08,725.44,12053,12991,1,12991,1,0.0018078,2.4658e-08,0,0.0018078,0.00025768,3.6683e+08,5135.7,0,5.584e+08,4024,12990,12054,1,12054,1,0.0002174,-2.663e-09,0,0.00082457,-3.9939e-05,7.0782e+07,-729,0,2.6217e+08,436.43,12053,11097,1,11097,1,-0.0013729,-1.9507e-08,0,4.0679e-05,-0.00033681,-5.584e+08,-5942.3,0,1.3632e+07,-98.639,11096,11599,1,11599,1,-0.00060718,-5.7699e-09,0,0.00041231,-0.00019381,-2.4694e+08,-1755.5,0,1.4107e+08,151.34,11598,12509,1,12509,1,0.001042,1.4462e-09,0,0.0012369,0.00011421,2.6249e+08,319.62,0,3.3953e+08,1020.1,12508,527.81,0,527.81,0,0.00095182,6.3832e-09,0,0.00049924,0.00017784,2.8866e+08,1626.8,0,1.3933e+08,795.1,527.81,1
1820,5.55,12054,1,12054,1,0.00021894,-1.384e-09,0,0.00084084,-4.0046e-05,-250.12,-552.08,0,2.5293e+08,760.02,12053,12991,1,12991,1,0.0018128,2.9015e-08,0,0.0018128,0.00025805,3.6654e+08,6027.3,0,5.5921e+08,4102.2,12990,12054,1,12054,1,0.00021892,-2.6105e-09,0,0.00082638,-4.0219e-05,7.1196e+07,-716.88,0,2.6237e+08,444.44,12053,11097,1,11097,1,-0.0013749,-1.9835e-08,0,4.1805e-05,-0.00033774,-5.5921e+08,-5811.7,0,1.401e+07,-75.251,11096,11599,1,11599,1,-0.00060748,-5.943e-09,0,0.00041322,-0.00019443,-2.4706e+08,-1808.3,0,1.4121e+08,153.53,11598,12509,1,12509,1,0.0010453,1.7078e-09,0,0.0012396,0.00011427,2.6268e+08,394.39,0,3.3933e+08,1071.4,12508,527.81,0,527.81,0,0.00095393,7.0665e-09,0,0.00050054,0.00017823,2.8887e+08,1782.2,0,1.3943e+08,836.91,527.81,1
1820,5.56,12054,1,12054,1,0.00022047,-9.6205e-10,0,0.00084283,-4.0325e-05,-144.53,-450.98,0,2.5311e+08,781.54,12053,12991,1,12991,1,0.0018179,3.3073e-08,0,0.0018179,0.00025842,3.6623e+08,6877.1,0,5.6001e+08,4300.4,12990,12054,1,12054,1,0.00022045,-2.3422e-09,0,0.00082819,-4.0499e-05,7.1611e+07,-630.55,0,2.6256e+08,429.99,12053,11097,1,11097,1,-0.0013769,-2.0943e-08,0,4.2943e-05,-0.00033867,-5.6001e+08,-5399.7,0,1.439e+07,-103.82,11096,11599,1,11599,1,-0.00060776,-5.9664e-09,0,0.00041413,-0.00019504,-2.4717e+08,-1792.9,0,1.4135e+08,135.19,11598,12509,1,12509,1,0.0010487,2.0987e-09,0,0.0012423,0.00011432,2.6286e+08,473.69,0,3.3911e+08,1115.7,12508,527.81,0,527.81,0,0.00095601,7.6889e-09,0,0.00050185,0.00017861,2.8908e+08,1896.7,0,1.3953e+08,893.26,527.81,1
1820,5.57,12054,1,12054,1,0.00022201,-1.0251e-09,0,0.00084485,-4.0607e-05,-321.16,-478.25,0,2.5331e+08,819.45,12053,12991,1,12991,1,0.0018229,2.8597e-08,0,0.0018229,0.0002588,3.6594e+08,5910.2,0,5.6082e+08,4417.9,12990,12054,1,12054,1,0.00022199,-1.8873e-09,0,0.00083003,-4.0782e-05,7.2029e+07,-536.59,0,2.6276e+08,468.95,12053,11097,1,11097,1,-0.0013789,-2.0633e-08,0,4.4087e-05,-0.00033961,-5.6082e+08,-7043.5,0,1.4771e+07,-21.843,11096,11599,1,11599,1,-0.00060806,-5.2046e-09,0,0.00041505,-0.00019566,-2.4729e+08,-1630.3,0,1.4148e+08,166.9,11598,12509,1,12509,1,0.0010521,2.546e-09,0,0.0012451,0.00011438,2.6305e+08,556.38,0,3.389e+08,1139.9,12508,527.81,0,527.81,0,0.00095814,7.25e-09,0,0.00050317,0.00017901,2.893e+08,1883,0,1.3963e+08,909.18,527.81,1
1820,5.58,12054,1,12054,1,0.00022356,-9.3308e-10,0,0.00084684,-4.089e-05,-232.79,-454.13,0,2.5349e+08,912.62,12053,12991,1,12991,1,0.001828,3.6679e-08,0,0.001828,0.00025917,3.6562e+08,7610.2,0,5.6161e+08,4647.5,12990,12054,1,12054,1,0.00022354,-2.4962e-09,0,0.00083184,-4.1067e-05,7.2448e+07,-697.24,0,2.6295e+08,609.45,12053,11097,1,11097,1,-0.0013808,-2.459e-08,0,4.5247e-05,-0.00034054,-5.6161e+08,-6106.6,0,1.5156e+07,-93.719,11096,11599,1,11599,1,-0.00060832,-6.4739e-09,0,0.00041595,-0.00019628,-2.474e+08,-2008.3,0,1.4161e+08,198.46,11598,12509,1,12509,1,0.0010554,2.7411e-09,0,0.0012478,0.00011443,2.6323e+08,658,0,3.3867e+08,1271.6,12508,527.81,0,527.81,0,0.00096023,8.8936e-09,0,0.00050449,0.00017939,2.8951e+08,2167.4,0,1.3972e+08,957.96,527.81,1
1820,5.59,12054,1,12054,1,0.00022513,-1.3979e-09,0,0.00084888,-4.1176e-05,400.93,-595.63,0,2.5368e+08,874.09,12053,12991,1,12991,1,0.0018331,3.4729e-08,0,0.0018331,0.00025954,3.6531e+08,7139.3,0,5.6243e+08,4744.9,12990,12054,1,12054,1,0.0002251,-2.9647e-09,0,0.00083369,-4.1354e-05,7.287e+07,-802.91,0,2.6315e+08,528.91,12053,11097,1,11097,1,-0.0013828,-2.3289e-08,0,4.6412e-05,-0.00034149,-5.6243e+08,-6924.3,0,1.5541e+07,-155.85,11096,11599,1,11599,1,-0.00060861,-7.1961e-09,0,0.00041688,-0.00019691,-2.4752e+08,-2151.7,0,1.4175e+08,153.01,11598,12509,1,12509,1,0.0010588,2.5407e-09,0,0.0012506,0.00011449,2.6341e+08,571.47,0,3.3845e+08,1240,12508,527.81,0,527.81,0,0.00096237,8.62e-09,0,0.00050583,0.00017979,2.8973e+08,2170.7,0,1.3982e+08,986.61,527.81,1
1820,5.6,12054,1,12054,1,0.00022671,-2.3058e-09,0,0.00085091,-4.1465e-05,82.536,-859.27,0,2.5386e+08,937.16,12053,12991,1,12991,1,0.0018383,3.5732e-08,0,0.0018383,0.00025992,3.6498e+08,7360.5,0,5.6324e+08,5053.7,12990,12054,1,12054,1,0.00022667,-3.9502e-09,0,0.00083552,-4.1644e-05,7.3295e+07,-1105.3,0,2.6333e+08,537.7,12053,11097,1,11097,1,-0.0013848,-2.5797e-08,0,4.7592e-05,-0.00034244,-5.6324e+08,-7674.9,0,1.593e+07,-153.18,11096,11599,1,11599,1,-0.00060887,-8.7203e-09,0,0.0004178,-0.00019754,-2.4762e+08,-2671.1,0,1.4188e+08,155.78,11598,12509,1,12509,1,0.0010622,2.394e-09,0,0.0012534,0.00011454,2.6359e+08,507.2,0,3.3821e+08,1346.2,12508,527.81,0,527.81,0,0.00096449,9.3446e-09,0,0.00050717,0.00018018,2.8993e+08,2372.8,0,1.3992e+08,1067.1,527.81,1
1820,5.61,12054,1,12054,1,0.0002283,-1.4742e-09,0,0.00085295,-4.1755e-05,-12.322,-679.51,0,2.5405e+08,993.96,12053,12991,1,12991,1,0.0018434,3.8582e-08,0,0.0018434,0.00026029,3.6465e+08,7889.4,0,5.6404e+08,5236.2,12990,12054,1,12054,1,0.00022826,-2.9991e-09,0,0.00083737,-4.1935e-05,7.3721e+07,-834.99,0,2.6352e+08,582.89,12053,11097,1,11097,1,-0.0013868,-2.5748e-08,0,4.8779e-05,-0.00034339,-5.6404e+08,-8159.6,0,1.6319e+07,-93.937,11096,11599,1,11599,1,-0.00060913,-8.0758e-09,0,0.00041873,-0.00019817,-2.4773e+08,-2411.6,0,1.4217e+08,191.2,11598,12509,1,12509,1,0.0010657,3.3119e-09,0,0.0012561,0.00011459,2.6376e+08,712.22,0,3.3798e+08,1403.3,12508,527.81,0,527.81,0,0.00096663,9.7693e-09,0,0.00050852,0.00018058,2.9014e+08,2470.7,0,1.4002e+08,1106.8,527.81,1
1820,5.62,12054,1,12054,1,0.0002299,6.3315e-10,0,0.000855,-4.2048e-05,203.08,-127.24,0,2.5423e+08,1049,12053,12991,1,12991,1,0.0018486,4.2159e-08,0,0.0018486,0.00026066,3.6432e+08,8654.4,0,5.6484e+08,5408.9,12990,12054,1,12054,1,0.00022986,-9.987e-10,0,0.00083922,-4.223e-05,7.4151e+07,-285.29,0,2.6371e+08,637.88,12053,11097,1,11097,1,-0.0013887,-2.5428e-08,0,4.9981e-05,-0.00034434,-5.6484e+08,-8302.9,0,1.6713e+07,-83.644,11096,11599,1,11599,1,-0.00060938,-5.5662e-09,0,0.00041965,-0.00019881,-2.4783e+08,-1682.5,0,1.426e+08,202.52,11598,12509,1,12509,1,0.0010691,5.5946e-09,0,0.0012589,0.00011464,2.6394e+08,1248.2,0,3.3773e+08,1478.6,12508,527.81,0,527.81,0,0.00096877,1.0197e-08,0,0.00050988,0.00018098,2.9034e+08,2534,0,1.4012e+08,1150.9,527.81,1
1820,5.63,12054,1,12054,1,0.00023152,1.5685e-09,0,0.00085706,-4.2344e-05,-52.229,139.83,0,2.5441e+08,1166.4,12053,12991,1,12991,1,0.0018538,4.6144e-08,0,0.0018538,0.00026103,3.6398e+08,9464.6,0,5.6564e+08,5667.4,12990,12054,1,12054,1,0.00023148,-2.5951e-10,0,0.00084109,-4.2526e-05,7.4584e+07,-68.034,0,2.6389e+08,795.94,12053,11097,1,11097,1,-0.0013907,-2.7819e-08,0,5.1198e-05,-0.0003453,-5.6564e+08,-8230.1,0,1.7111e+07,-67.584,11096,11599,1,11599,1,-0.00060964,-4.3472e-09,0,0.00042059,-0.00019945,-2.4794e+08,-1326.9,0,1.4303e+08,273.1,11598,12509,1,12509,1,0.0010726,6.5823e-09,0,0.0012617,0.0001147,2.6411e+08,1537.6,0,3.3748e+08,1637.9,12508,527.81,0,527.81,0,0.00097092,1.0805e-08,0,0.00051125,0.00018138,2.9055e+08,2632.7,0,1.4021e+08,1194.6,527.81,1
1820,5.64,12054,1,12054,1,0.00023315,4.3655e-10,0,0.00085913,-4.2642e-05,-104.65,-125.88,0,2.5459e+08,1213.9,12053,12991,1,12991,1,0.0018591,4.5574e-08,0,0.0018591,0.00026141,3.6363e+08,9265,0,5.6645e+08,6061.1,12990,12054,1,12054,1,0.00023311,-9.0349e-10,0,0.00084296,-4.2826e-05,7.5019e+07,-241.94,0,2.6407e+08,827.48,12053,11097,1,11097,1,-0.0013927,-3.0543e-08,0,5.2431e-05,-0.00034627,-5.6645e+08,-8988.6,0,1.7512e+07,-56.288,11096,11599,1,11599,1,-0.00060988,-5.0835e-09,0,0.00042152,-0.00020009,-2.4803e+08,-1541.6,0,1.4347e+08,277.4,11598,12509,1,12509,1,0.0010761,5.1033e-09,0,0.0012645,0.00011474,2.6427e+08,1176.3,0,3.3722e+08,1695.8,12508,527.81,0,527.81,0,0.00097309,1.0792e-08,0,0.00051263,0.00018178,2.9075e+08,2671.7,0,1.4031e+08,1251.1,527.81,1
1820,5.65,12054,1,12054,1,0.0002348,-3.1365e-09,0,0.0008612,-4.2943e-05,205.17,-1073.6,0,2.5476e+08,1265,12053,12991,1,12991,1,0.0018643,4.2396e-08,0,0.0018643,0.00026178,3.6326e+08,8545.8,0,5.6726e+08,6576.8,12990,12054,1,12054,1,0.00023476,-4.1763e-09,0,0.00084483,-4.3128e-05,7.5456e+07,-1146.7,0,2.6425e+08,813.39,12053,11097,1,11097,1,-0.0013947,-3.6887e-08,0,5.367e-05,-0.00034725,-5.6726e+08,-11018,0,1.7915e+07,-170.07,11096,11599,1,11599,1,-0.0006101,-9.2263e-09,0,0.00042246,-0.00020074,-2.4812e+08,-2801,0,1.439e+08,263.57,11598,12509,1,12509,1,0.0010796,2.6179e-09,0,0.0012673,0.00011479,2.6444e+08,588.64,0,3.3696e+08,1787.6,12508,527.81,0,527.81,0,0.00097525,1.1515e-08,0,0.00051401,0.00018218,2.9095e+08,2939.6,0,1.4041e+08,1358.6,527.81,1
1820,5.66,12054,1,12054,1,0.00023645,8.5075e-10,0,0.00086328,-4.3245e-05,-168.06,-75.597,0,2.5493e+08,1383.5,12053,12991,1,12991,1,0.0018696,5.2364e-08,0,0.0018696,0.00026215,3.6291e+08,10562,0,5.6806e+08,6685.1,12990,12054,1,12054,1,0.00023641,-5.9466e-10,0,0.00084671,-4.3431e-05,7.5895e+07,-174.31,0,2.6442e+08,963.58,12053,11097,1,11097,1,-0.0013967,-3.3744e-08,0,5.4914e-05,-0.00034822,-5.6806e+08,-10614,0,1.8317e+07,-61.86,11096,11599,1,11599,1,-0.00061034,-5.618e-09,0,0.00042341,-0.00020139,-2.4822e+08,-1689.7,0,1.4434e+08,321.27,11598,12509,1,12509,1,0.0010832,6.3095e-09,0,0.0012702,0.00011484,2.646e+08,1475,0,3.3669e+08,1950.1,12508,527.81,0,527.81,0,0.00097743,1.2578e-08,0,0.0005154,0.00018258,2.9115e+08,3112.8,0,1.4051e+08,1393.5,527.81,1
1820,5.67,12054,1,12054,1,0.00023812,4.8797e-09,0,0.00086537,-4.355e-05,-103.55,1031.1,0,2.551e+08,1525.4,12053,12991,1,12991,1,0.0018749,6.1125e-08,0,0.0018749,0.00026252,3.6254e+08,12480,0,5.6885e+08,6991.2,12990,12054,1,12054,1,0.00023808,3.6067e-09,0,0.00084861,-4.3738e-05,7.6339e+07,964.58,0,2.6459e+08,1174.4,12053,11097,1,11097,1,-0.0013986,-3.4303e-08,0,5.6181e-05,-0.00034919,-5.6885e+08,-9498.7,0,1.8726e+07,-118.56,11096,11599,1,11599,1,-0.00061055,-2.5802e-09,0,0.00042434,-0.00020205,-2.4831e+08,-717.95,0,1.4478e+08,406.02,11598,12509,1,12509,1,0.0010867,1.1238e-08,0,0.001273,0.00011488,2.6475e+08,2779.9,0,3.3641e+08,2147.7,12508,527.81,0,527.81,0,0.0009796,1.3813e-08,0,0.0005168,0.00018298,2.9134e+08,3321.1,0,1.406e+08,1437.1,527.81,1
1820,5.68,12054,1,12054,1,0.0002398,2.6165e-09,0,0.00086746,-4.3857e-05,-289.76,535.33,0,2.5527e+08,1580.5,12053,12991,1,12991,1,0.0018802,5.8062e-08,0,0.0018802,0.00026289,3.6215e+08,11743,0,5.6965e+08,7590.5,12990,12054,1,12054,1,0.00023976,1.9514e-09,0,0.0008505,-4.4047e-05,7.6783e+07,518.91,0,2.6476e+08,1178.1,12053,11097,1,11097,1,-0.0014006,-3.9882e-08,0,5.7463e-05,-0.00035018,-5.6965e+08,-10229,0,1.9139e+07,-79.727,11096,11599,1,11599,1,-0.00061077,-3.5879e-09,0,0.00042529,-0.0002027,-2.4839e+08,-1002.8,0,1.4522e+08,403.16,11598,12509,1,12509,1,0.0010903,8.051e-09,0,0.0012758,0.00011492,2.6491e+08,2066.2,0,3.3613e+08,2235,12508,527.81,0,527.81,0,0.00098179,1.3419e-08,0,0.00051821,0.00018339,2.9154e+08,3275.1,0,1.407e+08,1529.6,527.81,1
1820,5.69,12054,1,12054,1,0.0002415,-7.78e-10,0,0.00086957,-4.4167e-05,-120.89,-319.86,0,2.5544e+08,1627,12053,12991,1,12991,1,0.0018856,5.6006e-08,0,0.0018856,0.00026326,3.6176e+08,11249,0,5.7046e+08,7944.3,12990,12054,1,12054,1,0.00024146,-1.5337e-09,0,0.00085241,-4.4359e-05,7.723e+07,-407.51,0,2.6493e+08,1219,12053,11097,1,11097,1,-0.0014026,-4.7143e-08,0,5.8752e-05,-0.00035117,-5.7046e+08,-11546,0,1.9553e+07,-103.87,11096,11599,1,11599,1,-0.00061097,-7.0709e-09,0,0.00042624,-0.00020337,-2.4848e+08,-1928,0,1.4566e+08,405.72,11598,12509,1,12509,1,0.0010939,4.9009e-09,0,0.0012787,0.00011496,2.6507e+08,1250.2,0,3.3584e+08,2272.1,12508,527.81,0,527.81,0,0.00098399,1.4099e-08,0,0.00051963,0.0001838,2.9173e+08,3451.3,0,1.408e+08,1591,527.81,1
1820,5.7,12054,1,12054,1,0.00024321,4.9094e-09,0,0.00087166,-4.4479e-05,-251.78,1162.3,0,2.5559e+08,1861.7,12053,12991,1,12991,1,0.0018909,7.2353e-08,0,0.0018909,0.00026363,3.6138e+08,14818,0,5.7124e+08,8315.4,12990,12054,1,12054,1,0.00024317,4.3011e-09,0,0.00085431,-4.4672e-05,7.7679e+07,1187.4,0,2.6509e+08,1492,12053,11097,1,11097,1,-0.0014045,-4.8833e-08,0,6.0051e-05,-0.00035215,-5.7124e+08,-9771.5,0,1.9968e+07,-148.8,11096,11599,1,11599,1,-0.00061116,-3.4664e-09,0,0.00042718,-0.00020403,-2.4855e+08,-927.28,0,1.461e+08,534.65,11598,12509,1,12509,1,0.0010975,1.1947e-08,0,0.0012815,0.000115,2.6521e+08,3100.6,0,3.3555e+08,2649.9,12508,527.81,0,527.81,0,0.00098617,1.6562e-08,0,0.00052105,0.0001842,2.9192e+08,3866.1,0,1.4089e+08,1675.6,527.81,1
1820,5.71,12054,1,12054,1,0.00024493,1.6344e-09,0,0.0008738,-4.4794e-05,198.6,415.33,0,2.5576e+08,1828,12053,12991,1,12991,1,0.0018964,6.388e-08,0,0.0018964,0.00026401,3.6098e+08,12890,0,5.7206e+08,8678,12990,12054,1,12054,1,0.0002449,1.7574e-09,0,0.00085629,-4.4989e-05,7.8132e+07,455.95,0,2.6526e+08,1394.8,12053,11097,1,11097,1,-0.0014065,-5.3146e-08,0,6.0877e-05,-0.00035316,-5.7206e+08,-10742,0,2.0389e+07,-114.91,11096,11599,1,11599,1,-0.00061137,-4.9269e-09,0,0.00042812,-0.0002047,-2.4864e+08,-1304.1,0,1.4655e+08,471.6,11598,12509,1,12509,1,0.0011012,7.7639e-09,0,0.0012844,0.00011504,2.6537e+08,2104.9,0,3.3526e+08,2586.3,12508,527.81,0,527.81,0,0.0009884,1.5577e-08,0,0.0005225,0.00018461,2.9211e+08,3694.6,0,1.4099e+08,1745,527.81,1
1820,5.72,12054,1,12054,1,0.00024668,2.4933e-09,0,0.00087595,-4.5113e-05,-53.871,660.21,0,2.5593e+08,1871.7,12053,12991,1,12991,1,0.0019019,6.45e-08,0,0.0019019,0.00026438,3.6058e+08,12913,0,5.7287e+08,9382.4,12990,12054,1,12054,1,0.00024664,2.7209e-09,0,0.00085823,-4.531e-05,7.8588e+07,719.82,0,2.6542e+08,1380.3,12053,11097,1,11097,1,-0.0014085,-5.1408e-08,0,5.982e-05,-0.00035417,-5.7287e+08,-12296,0,2.0814e+07,-69.796,11096,11599,1,11599,1,-0.00061156,-4.4732e-09,0,0.00042908,-0.00020538,-2.4871e+08,-1124,0,1.47e+08,465.15,11598,12509,1,12509,1,0.0011049,9.1251e-09,0,0.0012873,0.00011508,2.6552e+08,2499.7,0,3.3495e+08,2613.8,12508,527.81,0,527.81,0,0.00099064,1.5613e-08,0,0.00052396,0.00018503,2.923e+08,3868.2,0,1.4109e+08,1841.3,527.81,1
1820,5.73,12054,1,12054,1,0.00024844,1.3298e-09,0,0.00087809,-4.5435e-05,164.17,383.89,0,2.5608e+08,2021.1,12053,12991,1,12991,1,0.0019074,6.906e-08,0,0.0019074,0.00026475,3.6015e+08,13784,0,5.7367e+08,9878.9,12990,12054,1,12054,1,0.0002484,1.7536e-09,0,0.00086016,-4.5633e-05,7.9047e+07,460.09,0,2.6558e+08,1542.3,12053,11097,1,11097,1,-0.0014105,-5.9377e-08,0,5.8744e-05,-0.00035518,-5.7367e+08,-12897,0,2.124e+07,-129.88,11096,11599,1,11599,1,-0.00061172,-6.2324e-09,0,0.00043004,-0.00020606,-2.4878e+08,-1574.8,0,1.4744e+08,505.45,11598,12509,1,12509,1,0.0011085,8.646e-09,0,0.0012902,0.00011512,2.6566e+08,2387.1,0,3.3463e+08,2840.3,12508,527.81,0,527.81,0,0.00099286,1.7292e-08,0,0.00052542,0.00018544,2.9249e+08,4179.5,0,1.4119e+08,1944.7,527.81,1
1820,5.74,12054,1,12054,1,0.00025022,2.4278e-09,0,0.00088026,-4.576e-05,427.3,693.13,0,2.5624e+08,2144.4,12053,12991,1,12991,1,0.001913,7.5695e-08,0,0.001913,0.00026513,3.5974e+08,15115,0,5.7448e+08,10469,12990,12054,1,12054,1,0.00025017,2.8904e-09,0,0.00086211,-4.5959e-05,7.9509e+07,770.48,0,2.6574e+08,1665.4,12053,11097,1,11097,1,-0.0014125,-6.1947e-08,0,5.7665e-05,-0.00035621,-5.7448e+08,-13334,0,2.1668e+07,-105.24,11096,11599,1,11599,1,-0.0006119,-6.0326e-09,0,0.00043101,-0.00020674,-2.4885e+08,-1485.6,0,1.4789e+08,548.02,11598,12509,1,12509,1,0.0011123,1.044e-08,0,0.0012931,0.00011516,2.658e+08,2900.7,0,3.3432e+08,2995.6,12508,527.81,0,527.81,0,0.00099512,1.8679e-08,0,0.0005269,0.00018586,2.9267e+08,4511.6,0,1.4129e+08,2040.9,527.81,1
1820,5.75,12054,1,12054,1,0.00025201,2.2042e-09,0,0.00088244,-4.6088e-05,-86.153,667.04,0,2.564e+08,2263,12053,12991,1,12991,1,0.0019185,8.0131e-08,0,0.0019185,0.0002655,3.5931e+08,15992,0,5.7529e+08,11000,12990,12054,1,12054,1,0.00025197,2.4592e-09,0,0.00086408,-4.6288e-05,7.9974e+07,663.51,0,2.6589e+08,1764.9,12053,11097,1,11097,1,-0.0014144,-6.6415e-08,0,5.6567e-05,-0.00035724,-5.7529e+08,-13681,0,2.21e+07,-87.192,11096,11599,1,11599,1,-0.00061207,-6.7473e-09,0,0.00043199,-0.00020743,-2.4892e+08,-1696.7,0,1.4835e+08,593.24,11598,12509,1,12509,1,0.001116,1.0697e-08,0,0.001296,0.00011519,2.6594e+08,2997.2,0,3.3399e+08,3159.7,12508,527.81,0,527.81,0,0.00099738,1.9869e-08,0,0.00052839,0.00018628,2.9286e+08,4764.3,0,1.4139e+08,2140.4,527.81,1
1820,5.76,12054,1,12054,1,0.00025382,-2.9754e-10,0,0.00088462,-4.6419e-05,272.08,19.727,0,2.5654e+08,2372.6,12053,12991,1,12991,1,0.0019241,8.1236e-08,0,0.0019241,0.00026587,3.5887e+08,16032,0,5.7608e+08,11679,12990,12054,1,12054,1,0.00025377,4.8147e-10,0,0.00086604,-4.6619e-05,8.0443e+07,123.45,0,2.6604e+08,1839,12053,11097,1,11097,1,-0.0014164,-7.4784e-08,0,5.5454e-05,-0.00035827,-5.7608e+08,-15479,0,2.2537e+07,-88.813,11096,11599,1,11599,1,-0.00061222,-9.7864e-09,0,0.00043297,-0.00020812,-2.4898e+08,-2457,0,1.488e+08,600.52,11598,12509,1,12509,1,0.0011198,8.9743e-09,0,0.001299,0.00011522,2.6607e+08,2474.7,0,3.3365e+08,3305.7,12508,527.81,0,527.81,0,0.00099964,2.1297e-08,0,0.00052988,0.0001867,2.9303e+08,5079.9,0,1.4148e+08,2281.9,527.81,1
1820,5.77,12054,1,12054,1,0.00025565,4.9657e-09,0,0.00088681,-4.6752e-05,137.49,1364.4,0,2.567e+08,2578.2,12053,12991,1,12991,1,0.0019298,9.2402e-08,0,0.0019298,0.00026625,3.5843e+08,18353,0,5.769e+08,12143,12990,12054,1,12054,1,0.0002556,5.6734e-09,0,0.000868,-4.6954e-05,8.0913e+07,1494.7,0,2.6619e+08,2022.8,12053,11097,1,11097,1,-0.0014184,-7.2535e-08,0,5.4334e-05,-0.00035931,-5.769e+08,-15172,0,2.2106e+07,-147.9,11096,11599,1,11599,1,-0.00061237,-5.6831e-09,0,0.00043395,-0.00020882,-2.4904e+08,-1411.2,0,1.4925e+08,675.02,11598,12509,1,12509,1,0.0011236,1.4955e-08,0,0.0013019,0.00011526,2.662e+08,4194.8,0,3.3332e+08,3626.4,12508,527.81,0,527.81,0,0.0010019,2.2474e-08,0,0.00053139,0.00018712,2.9321e+08,5418.9,0,1.4158e+08,2398.3,527.81,1
1820,5.78,12054,1,12054,1,0.00025749,-2.7418e-09,0,0.00088902,-4.7089e-05,34.623,-570.03,0,2.5684e+08,2632.8,12053,12991,1,12991,1,0.0019354,8.9894e-08,0,0.0019354,0.00026662,3.5798e+08,17655,0,5.777e+08,13003,12990,12054,1,12054,1,0.00025744,-2.2585e-09,0,0.00087,-4.7291e-05,8.1387e+07,-607.4,0,2.6633e+08,2022.2,12053,11097,1,11097,1,-0.0014204,-8.535e-08,0,5.3196e-05,-0.00036035,-5.777e+08,-17248,0,2.1649e+07,-145.77,11096,11599,1,11599,1,-0.00061251,-1.4422e-08,0,0.00043494,-0.00020953,-2.491e+08,-3539,0,1.4971e+08,668.29,11598,12509,1,12509,1,0.0011274,8.0151e-09,0,0.0013049,0.00011528,2.6633e+08,2214.8,0,3.3297e+08,3689.2,12508,527.81,0,527.81,0,0.0010042,2.4176e-08,0,0.00053291,0.00018754,2.9339e+08,5708.1,0,1.4168e+08,2540.3,527.81,1
1820,5.79,12054,1,12054,1,0.00025935,-2.275e-09,0,0.00089123,-4.7427e-05,-11.249,-557.78,0,2.5699e+08,2775.9,12053,12991,1,12991,1,0.0019411,9.4225e-08,0,0.0019411,0.00026699,3.5752e+08,18264,0,5.785e+08,13294,12990,12054,1,12054,1,0.00025929,-1.3013e-09,0,0.00087198,-4.7629e-05,8.1865e+07,-350.33,0,2.6646e+08,2201,12053,11097,1,11097,1,-0.0014223,-8.9485e-08,0,5.2051e-05,-0.0003614,-5.785e+08,-19298,0,2.119e+07,-132.44,11096,11599,1,11599,1,-0.00061264,-1.3884e-08,0,0.00043594,-0.00021023,-2.4915e+08,-3513.8,0,1.5017e+08,712.41,11598,12509,1,12509,1,0.0011313,8.4434e-09,0,0.0013079,0.00011531,2.6646e+08,2263,0,3.3261e+08,3863.7,12508,527.81,0,527.81,0,0.0010065,2.5236e-08,0,0.00053444,0.00018797,2.9356e+08,5972.4,0,1.4178e+08,2622.9,527.81,1
1820,5.8,12054,1,12054,1,0.00026123,5.8332e-09,0,0.00089347,-4.7771e-05,-362.36,1463.2,0,2.5714e+08,2967.8,12053,12991,1,12991,1,0.0019469,1.0745e-07,0,0.0019469,0.00026737,3.5706e+08,21067,0,5.7932e+08,13749,12990,12054,1,12054,1,0.00026117,6.1997e-09,0,0.00087399,-4.7973e-05,8.2345e+07,1611.8,0,2.6658e+08,2382.6,12053,11097,1,11097,1,-0.0014244,-8.144e-08,0,5.0889e-05,-0.00036247,-5.7932e+08,-18916,0,2.0725e+07,-144.85,11096,11599,1,11599,1,-0.00061277,-6.7844e-09,0,0.00043695,-0.00021095,-2.492e+08,-1726.1,0,1.5063e+08,790.81,11598,12509,1,12509,1,0.0011351,1.7426e-08,0,0.0013109,0.00011534,2.6658e+08,4683.1,0,3.3237e+08,4153.4,12508,527.81,0,527.81,0,0.0010088,2.5989e-08,0,0.00053599,0.0001884,2.9374e+08,6321.9,0,1.4188e+08,2728.5,527.81,1
1820,5.81,12054,1,12054,1,0.00026313,1.1537e-09,0,0.00089572,-4.8118e-05,-13.595,347.57,0,2.5728e+08,3200.3,12053,12991,1,12991,1,0.0019527,1.1284e-07,0,0.0019527,0.00026775,3.5657e+08,21996,0,5.8013e+08,14904,12990,12054,1,12054,1,0.00026307,1.6811e-09,0,0.00087602,-4.8321e-05,8.283e+07,443.17,0,2.667e+08,2585.7,12053,11097,1,11097,1,-0.0014263,-9.8857e-08,0,4.9704e-05,-0.00036353,-5.8013e+08,-20101,0,2.0252e+07,-85.291,11096,11599,1,11599,1,-0.00061289,-1.2075e-08,0,0.00043794,-0.00021167,-2.4925e+08,-3014.9,0,1.511e+08,875.15,11598,12509,1,12509,1,0.0011391,1.3667e-08,0,0.0013139,0.00011537,2.667e+08,3698,0,3.3227e+08,4457.5,12508,527.81,0,527.81,0,0.0010112,2.9061e-08,0,0.00053756,0.00018883,2.9391e+08,6807,0,1.4198e+08,2946.3,527.81,1
1820,5.82,12054,1,12054,1,0.00026506,1.1057e-09,0,0.00089798,-4.847e-05,329.94,294.28,0,2.5742e+08,3353,12053,12991,1,12991,1,0.0019586,1.1777e-07,0,0.0019586,0.00026812,3.5609e+08,22848,0,5.8094e+08,15595,12990,12054,1,12054,1,0.00026499,1.6307e-09,0,0.00087805,-4.8673e-05,8.332e+07,419.94,0,2.6682e+08,2720.2,12053,11097,1,11097,1,-0.0014283,-1.0238e-07,0,4.8504e-05,-0.00036461,-5.8094e+08,-22206,0,1.9773e+07,-149.36,11096,11599,1,11599,1,-0.000613,-1.2336e-08,0,0.00043896,-0.00021239,-2.493e+08,-3168.7,0,1.5156e+08,889.31,11598,12509,1,12509,1,0.001143,1.4167e-08,0,0.0013169,0.00011539,2.6682e+08,3804.1,0,3.3217e+08,4718.4,12508,527.81,0,527.81,0,0.0010135,3.0208e-08,0,0.00053914,0.00018926,2.9408e+08,7164.1,0,1.4208e+08,3081.6,527.81,1
1820,5.83,12054,1,12054,1,0.000267,1.7558e-09,0,0.00090028,-4.8825e-05,-52.575,479.31,0,2.5756e+08,3567.1,12053,12991,1,12991,1,0.0019645,1.2682e-07,0,0.0019645,0.00026851,3.556e+08,24606,0,5.8176e+08,16566,12990,12054,1,12054,1,0.00026693,2.209e-09,0,0.00088011,-4.9028e-05,8.3814e+07,583.7,0,2.6694e+08,2898,12053,11097,1,11097,1,-0.0014304,-1.0792e-07,0,4.7291e-05,-0.0003657,-5.8176e+08,-23478,0,1.9291e+07,-132.92,11096,11599,1,11599,1,-0.00061311,-1.3197e-08,0,0.00043998,-0.00021313,-2.4934e+08,-3289.5,0,1.5203e+08,984,11598,12509,1,12509,1,0.001147,1.5565e-08,0,0.00132,0.00011542,2.6694e+08,4204.7,0,3.3207e+08,4952.7,12508,527.81,0,527.81,0,0.0010159,3.269e-08,0,0.00054074,0.0001897,2.9426e+08,7676.2,0,1.4218e+08,3272.2,527.81,1
1820,5.84,12054,1,12054,1,0.00026897,3.751e-09,0,0.00090256,-4.9184e-05,183.97,940.29,0,2.5769e+08,3865.4,12053,12991,1,12991,1,0.0019704,1.4385e-07,0,0.0019704,0.00026888,3.551e+08,27768,0,5.8257e+08,17660,12990,12054,1,12054,1,0.00026889,3.7201e-09,0,0.00088215,-4.9387e-05,8.431e+07,967.14,0,2.6705e+08,3108.6,12053,11097,1,11097,1,-0.0014323,-1.1334e-07,0,4.6052e-05,-0.0003668,-5.8257e+08,-24609,0,1.8799e+07,-122.13,11096,11599,1,11599,1,-0.00061319,-1.252e-08,0,0.000441,-0.00021386,-2.4937e+08,-3146.8,0,1.525e+08,1042.6,11598,12509,1,12509,1,0.001151,1.8565e-08,0,0.0013231,0.00011544,2.6705e+08,5006.1,0,3.3195e+08,5466.6,12508,527.81,0,527.81,0,0.0010182,3.5426e-08,0,0.00054234,0.00019014,2.9442e+08,8292.4,0,1.4228e+08,3528.3,527.81,1
1820,5.85,12054,1,12054,1,0.00027095,-7.7361e-11,0,0.00090489,-4.9546e-05,-777.66,-11.22,0,2.5783e+08,4089,12053,12991,1,12991,1,0.0019764,1.4241e-07,0,0.0019764,0.00026926,3.5459e+08,27179,0,5.834e+08,18430,12990,12054,1,12054,1,0.00027087,7.4374e-10,0,0.00088425,-4.9749e-05,8.481e+07,197.64,0,2.6716e+08,3330.2,12053,11097,1,11097,1,-0.0014344,-1.2487e-07,0,4.4812e-05,-0.0003679,-5.834e+08,-27636,0,1.8308e+07,-74.052,11096,11599,1,11599,1,-0.00061329,-1.712e-08,0,0.00044204,-0.00021461,-2.4941e+08,-4319.4,0,1.5298e+08,1163.5,11598,12509,1,12509,1,0.0011551,1.5971e-08,0,0.0013262,0.00011546,2.6716e+08,4275.6,0,3.3185e+08,5724.1,12508,527.81,0,527.81,0,0.0010206,3.7142e-08,0,0.00054397,0.00019058,2.9459e+08,8733.4,0,1.4238e+08,3693.7,527.81,1
1820,5.86,12054,1,12054,1,0.00027297,1.7523e-09,0,0.00090722,-4.9914e-05,-488.65,413.2,0,2.5795e+08,4309.7,12053,12991,1,12991,1,0.0019825,1.5307e-07,0,0.0019825,0.00026964,3.5407e+08,29165,0,5.8421e+08,19278,12990,12054,1,12054,1,0.00027288,1.9396e-09,0,0.00088633,-5.0117e-05,8.5317e+07,523.11,0,2.6727e+08,3524.2,12053,11097,1,11097,1,-0.0014364,-1.3111e-07,0,4.3538e-05,-0.00036902,-5.8421e+08,-29797,0,1.7805e+07,-152.24,11096,11599,1,11599,1,-0.00061336,-1.6061e-08,0,0.00044308,-0.00021536,-2.4944e+08,-4073.9,0,1.5345e+08,1190.9,11598,12509,1,12509,1,0.0011592,1.9e-08,0,0.0013293,0.00011548,2.6727e+08,5102.9,0,3.3172e+08,6051.9,12508,527.81,0,527.81,0,0.0010231,3.9764e-08,0,0.00054562,0.00019103,2.9475e+08,9341.2,0,1.4248e+08,3884.3,527.81,1
1820,5.87,12054,1,12054,1,0.000275,2.547e-10,0,0.00090956,-5.0285e-05,10.6,44.565,0,2.5808e+08,4563.3,12053,12991,1,12991,1,0.0019886,1.6374e-07,0,0.0019886,0.00027002,3.5353e+08,30979,0,5.8503e+08,20416,12990,12054,1,12054,1,0.00027491,6.9701e-10,0,0.00088842,-5.0487e-05,8.5826e+07,195.29,0,2.6737e+08,3721.9,12053,11097,1,11097,1,-0.0014384,-1.4066e-07,0,4.2252e-05,-0.00037014,-5.8503e+08,-31061,0,1.7299e+07,-64.85,11096,11599,1,11599,1,-0.00061342,-1.9294e-08,0,0.00044411,-0.00021612,-2.4947e+08,-4875.6,0,1.5393e+08,1257.9,11598,12509,1,12509,1,0.0011633,1.8291e-08,0,0.0013325,0.00011549,2.6737e+08,4792.7,0,3.3159e+08,6451.2,12508,527.81,0,527.81,0,0.0010255,4.223e-08,0,0.00054727,0.00019148,2.9491e+08,9901.5,0,1.4259e+08,4123.9,527.81,1
1820,5.88,12054,1,12054,1,0.00027705,4.7193e-09,0,0.00091192,-5.066e-05,65.733,1127.8,0,2.5821e+08,4846.4,12053,12991,1,12991,1,0.0019947,1.7503e-07,0,0.0019947,0.0002704,3.5301e+08,33207,0,5.8585e+08,21248,12990,12054,1,12054,1,0.00027696,4.7442e-09,0,0.00089053,-5.0862e-05,8.6339e+07,1230.5,0,2.6747e+08,4029,12053,11097,1,11097,1,-0.0014404,-1.4771e-07,0,4.0948e-05,-0.00037127,-5.8585e+08,-33059,0,1.6788e+07,-360.77,11096,11599,1,11599,1,-0.00061348,-1.5628e-08,0,0.00044517,-0.00021688,-2.4949e+08,-4016.9,0,1.5441e+08,1346.5,11598,12509,1,12509,1,0.0011675,2.4814e-08,0,0.0013356,0.00011551,2.6747e+08,6521.5,0,3.3146e+08,6828.7,12508,527.81,0,527.81,0,0.0010279,4.5425e-08,0,0.00054895,0.00019193,2.9507e+08,10619,0,1.4269e+08,4319.2,527.81,1
1820,5.89,12054,1,12054,1,0.00027914,2.4244e-10,0,0.00091432,-5.1041e-05,364.15,51.945,0,2.5834e+08,5123.9,12053,12991,1,12991,1,0.0020009,1.8168e-07,0,0.0020009,0.00027079,3.5245e+08,34113,0,5.8669e+08,22808,12990,12054,1,12054,1,0.00027904,5.4202e-10,0,0.00089269,-5.1243e-05,8.6859e+07,138.54,0,2.6757e+08,4265.3,12053,11097,1,11097,1,-0.0014425,-1.5963e-07,0,3.9626e-05,-0.00037242,-5.8669e+08,-35704,0,1.6272e+07,-113.59,11096,11599,1,11599,1,-0.00061354,-2.1948e-08,0,0.00044623,-0.00021766,-2.4952e+08,-5501.1,0,1.549e+08,1376.8,11598,12509,1,12509,1,0.0011717,2.1588e-08,0,0.0013388,0.00011552,2.6757e+08,5656.1,0,3.3133e+08,7233.1,12508,527.81,0,527.81,0,0.0010304,4.775e-08,0,0.00055065,0.00019239,2.9524e+08,11274,0,1.4279e+08,4615.9,527.81,1
1820,5.9,12054,1,12054,1,0.00028127,-1.8147e-09,0,0.00091675,-5.1429e-05,143.16,-543.91,0,2.5846e+08,5488.4,12053,12991,1,12991,1,0.0020073,1.9365e-07,0,0.0020073,0.00027118,3.5189e+08,36060,0,5.8753e+08,24043,12990,12054,1,12054,1,0.00028115,-2.5014e-09,0,0.00089486,-5.1628e-05,8.7384e+07,-648.03,0,2.6767e+08,4575,12053,11097,1,11097,1,-0.0014445,-1.7144e-07,0,3.8273e-05,-0.00037359,-5.8753e+08,-39289,0,1.5746e+07,-75.026,11096,11599,1,11599,1,-0.00061359,-2.5997e-08,0,0.00044729,-0.00021844,-2.4953e+08,-6667.5,0,1.5539e+08,1479.7,11598,12509,1,12509,1,0.001176,2.14e-08,0,0.0013421,0.00011554,2.6767e+08,5433.7,0,3.3119e+08,7787.9,12508,527.81,0,527.81,0,0.0010329,5.1264e-08,0,0.00055239,0.00019285,2.954e+08,12194,0,1.429e+08,4903.7,527.81,1
1820,5.91,12054,1,12054,1,0.00028342,2.7617e-09,0,0.00091919,-5.1821e-05,-73.076,554.09,0,2.5858e+08,5981.3,12053,12991,1,12991,1,0.0020137,2.1359e-07,0,0.0020137,0.00027157,3.5133e+08,39958,0,5.8837e+08,25067,12990,12054,1,12054,1,0.00028328,2.9157e-09,0,0.00089704,-5.2019e-05,8.7916e+07,768.09,0,2.6776e+08,5123.9,12053,11097,1,11097,1,-0.0014466,-1.8479e-07,0,3.6894e-05,-0.00037477,-5.8837e+08,-41974,0,1.5212e+07,-132.48,11096,11599,1,11599,1,-0.00061362,-2.3811e-08,0,0.00044838,-0.00021923,-2.4955e+08,-6049.7,0,1.5589e+08,1676.9,11598,12509,1,12509,1,0.0011803,2.8144e-08,0,0.0013453,0.00011555,2.6776e+08,7365.3,0,3.3104e+08,8455.1,12508,527.81,0,527.81,0,0.0010354,5.6581e-08,0,0.00055413,0.00019332,2.9555e+08,13307,0,1.4301e+08,5196.4,527.81,1
1820,5.92,12054,1,12054,1,0.00028559,4.8941e-09,0,0.00092164,-5.2218e-05,-737.5,1066.5,0,2.587e+08,6478.4,12053,12991,1,12991,1,0.0020201,2.3778e-07,0,0.0020201,0.00027196,3.5075e+08,44187,0,5.892e+08,26676,12990,12054,1,12054,1,0.00028545,4.8407e-09,0,0.00089923,-5.2414e-05,8.845e+07,1239.1,0,2.6784e+08,5582.1,12053,11097,1,11097,1,-0.0014486,-1.987e-07,0,3.5497e-05,-0.00037595,-5.892e+08,-45198,0,1.4673e+07,-128.06,11096,11599,1,11599,1,-0.00061364,-2.4437e-08,0,0.00044946,-0.00022003,-2.4955e+08,-6232.7,0,1.5611e+08,1842.1,11598,12509,1,12509,1,0.0011846,3.279e-08,0,0.0013486,0.00011556,2.6784e+08,8597.9,0,3.3088e+08,9251,12508,527.81,0,527.81,0,0.0010379,6.2276e-08,0,0.00055589,0.00019378,2.957e+08,14519,0,1.4311e+08,5570,527.81,1
1820,5.93,12054,1,12054,1,0.0002878,-3.4798e-10,0,0.00092415,-5.2621e-05,-81.735,-214.99,0,2.5882e+08,6901.3,12053,12991,1,12991,1,0.0020266,2.4883e-07,0,0.0020266,0.00027236,3.5016e+08,45803,0,5.9006e+08,28561,12990,12054,1,12054,1,0.00028765,-1.0614e-09,0,0.00090147,-5.2815e-05,8.8993e+07,-278.63,0,2.6793e+08,5958.2,12053,11097,1,11097,1,-0.0014508,-2.1655e-07,0,3.4082e-05,-0.00037716,-5.9006e+08,-48996,0,1.4131e+07,-14.85,11096,11599,1,11599,1,-0.00061367,-3.1813e-08,0,0.00045056,-0.00022084,-2.4956e+08,-8063.1,0,1.5628e+08,1935,11598,12509,1,12509,1,0.0011891,2.9933e-08,0,0.0013519,0.00011557,2.6793e+08,7630.5,0,3.3072e+08,9873.2,12508,527.81,0,527.81,0,0.0010405,6.6199e-08,0,0.00055769,0.00019426,2.9587e+08,15545,0,1.4322e+08,5949.1,527.81,1
1820,5.94,12054,1,12054,1,0.00029005,1.1187e-09,0,0.00092667,-5.3031e-05,-207.18,94.781,0,2.5893e+08,7437.1,12053,12991,1,12991,1,0.0020332,2.7055e-07,0,0.0020332,0.00027275,3.4955e+08,49612,0,5.9091e+08,30127,12990,12054,1,12054,1,0.00028988,7.7199e-10,0,0.00090372,-5.3222e-05,8.9542e+07,200.37,0,2.6801e+08,6472.9,12053,11097,1,11097,1,-0.0014528,-2.3312e-07,0,3.263e-05,-0.00037837,-5.9091e+08,-52482,0,1.3577e+07,18.403,11096,11599,1,11599,1,-0.00061366,-3.3541e-08,0,0.00045167,-0.00022166,-2.4956e+08,-8433.8,0,1.5645e+08,2101.3,11598,12509,1,12509,1,0.0011935,3.3496e-08,0,0.0013552,0.00011557,2.6801e+08,8745.7,0,3.3055e+08,10624,12508,527.81,0,527.81,0,0.0010431,7.1972e-08,0,0.00055951,0.00019474,2.9602e+08,16819,0,1.4333e+08,6310.6,527.81,1
1820,5.95,12054,1,12054,1,0.00029232,3.3662e-10,0,0.00092921,-5.3446e-05,-450.65,-162.81,0,2.5904e+08,8042.3,12053,12991,1,12991,1,0.0020399,2.9077e-07,0,0.0020399,0.00027314,3.4893e+08,53352,0,5.9176e+08,31806,12990,12054,1,12054,1,0.00029214,-5.7409e-10,0,0.00090599,-5.3633e-05,9.0096e+07,-129.89,0,2.6809e+08,7048.3,12053,11097,1,11097,1,-0.0014549,-2.5554e-07,0,3.1157e-05,-0.0003796,-5.9176e+08,-56976,0,1.3017e+07,-26.997,11096,11599,1,11599,1,-0.00061366,-3.7236e-08,0,0.00045278,-0.00022249,-2.4956e+08,-9469.4,0,1.5661e+08,2302.8,11598,12509,1,12509,1,0.0011981,3.6489e-08,0,0.0013586,0.00011558,2.6809e+08,9258.5,0,3.3037e+08,11563,12508,527.81,0,527.81,0,0.0010457,7.8645e-08,0,0.00056135,0.00019522,2.9617e+08,18221,0,1.4344e+08,6726.5,527.81,1
1820,5.96,12054,1,12054,1,0.00029463,-1.7928e-09,0,0.00093178,-5.3867e-05,-324.66,-811.68,0,2.5915e+08,8686.6,12053,12991,1,12991,1,0.0020467,3.1934e-07,0,0.0020467,0.00027354,3.483e+08,58090,0,5.9262e+08,34174,12990,12054,1,12054,1,0.00029442,-4.6193e-09,0,0.00090827,-5.4049e-05,9.0654e+07,-1213,0,2.6816e+08,7636.1,12053,11097,1,11097,1,-0.0014571,-2.7352e-07,0,2.966e-05,-0.00038085,-5.9262e+08,-61716,0,1.2452e+07,-31.315,11096,11599,1,11599,1,-0.00061363,-4.3265e-08,0,0.0004539,-0.00022333,-2.4955e+08,-11090,0,1.5678e+08,2493.3,11598,12509,1,12509,1,0.0012026,3.6641e-08,0,0.001362,0.00011558,2.6816e+08,9218.6,0,3.3019e+08,12506,12508,527.81,0,527.81,0,0.0010484,8.5086e-08,0,0.00056322,0.00019571,2.9632e+08,19724,0,1.4355e+08,7245.7,527.81,1
1820,5.97,12054,1,12054,1,0.00029696,-3.5996e-09,0,0.00093435,-5.4293e-05,-142.86,-1422.8,0,2.5925e+08,9326.1,12053,12991,1,12991,1,0.0020535,3.432e-07,0,0.0020535,0.00027394,3.4765e+08,62187,0,5.9346e+08,36077,12990,12054,1,12054,1,0.00029673,-7.3209e-09,0,0.00091054,-5.4469e-05,9.1215e+07,-1907.2,0,2.6822e+08,8269.6,12053,11097,1,11097,1,-0.0014591,-2.9594e-07,0,2.8133e-05,-0.00038209,-5.9346e+08,-66937,0,1.1878e+07,-224.44,11096,11599,1,11599,1,-0.00061358,-4.9489e-08,0,0.00045501,-0.00022416,-2.4953e+08,-12665,0,1.5694e+08,2705,11598,12509,1,12509,1,0.0012072,3.8406e-08,0,0.0013653,0.00011558,2.6822e+08,9695,0,3.2999e+08,13470,12508,527.81,0,527.81,0,0.001051,9.2052e-08,0,0.00056509,0.0001962,2.9645e+08,21351,0,1.4365e+08,7726,527.81,1
1820,5.98,12054,1,12054,1,0.00029933,1.103e-09,0,0.000937,-5.4726e-05,-676.25,-439.39,0,2.5937e+08,9938.2,12053,12991,1,12991,1,0.0020604,3.7173e-07,0,0.0020604,0.00027435,3.4704e+08,67071,0,5.9435e+08,37466,12990,12054,1,12054,1,0.00029907,-2.8236e-09,0,0.00091291,-5.4897e-05,9.1786e+07,-758.03,0,2.683e+08,8897.1,12053,11097,1,11097,1,-0.0014613,-3.1175e-07,0,2.6596e-05,-0.00038338,-5.9435e+08,-72102,0,1.1304e+07,-70.319,11096,11599,1,11599,1,-0.00061357,-4.8394e-08,0,0.00045616,-0.00022502,-2.4952e+08,-12385,0,1.5711e+08,2864.8,11598,12509,1,12509,1,0.0012119,4.6478e-08,0,0.0013688,0.00011558,2.683e+08,11664,0,3.298e+08,14341,12508,527.81,0,527.81,0,0.0010537,9.9483e-08,0,0.00056702,0.0001967,2.9661e+08,23007,0,1.4377e+08,8133.4,527.81,1
1820,5.99,12054,1,12054,1,0.00030176,2.3448e-09,0,0.00093967,-5.5168e-05,-1035.4,-263.34,0,2.5947e+08,10783,12053,12991,1,12991,1,0.0020675,4.0823e-07,0,0.0020675,0.00027476,3.4638e+08,73360,0,5.9523e+08,39950,12990,12054,1,12054,1,0.00030148,-1.5869e-09,0,0.0009153,-5.5333e-05,9.2367e+07,-407,0,2.6837e+08,9702.2,12053,11097,1,11097,1,-0.0014635,-3.3686e-07,0,2.5009e-05,-0.00038468,-5.9523e+08,-78024,0,1.0714e+07,-3.0577,11096,11599,1,11599,1,-0.00061353,-5.2327e-08,0,0.00045733,-0.0002259,-2.4951e+08,-13285,0,1.5728e+08,3138.5,11598,12509,1,12509,1,0.0012166,5.1405e-08,0,0.0013724,0.00011558,2.6837e+08,12980,0,3.296e+08,15668,12508,527.81,0,527.81,0,0.0010565,1.0866e-07,0,0.00056898,0.00019721,2.9676e+08,24992,0,1.4388e+08,8741.6,527.81,1
1820,6,12054,1,12054,1,0.00030423,4.7602e-09,0,0.00094237,-5.5619e-05,248.7,247.03,0,2.5957e+08,11564,12053,12991,1,12991,1,0.0020746,4.4479e-07,0,0.0020746,0.00027516,3.4571e+08,79674,0,5.9611e+08,42130,12990,12054,1,12054,1,0.00030393,1.1568e-09,0,0.00091771,-5.578e-05,9.2959e+07,263.46,0,2.6842e+08,10506,12053,11097,1,11097,1,-0.0014656,-3.6618e-07,0,2.3383e-05,-0.00038599,-5.9611e+08,-82556,0,1.0112e+07,-100.72,11096,11599,1,11599,1,-0.00061347,-5.4295e-08,0,0.00045851,-0.00022679,-2.4948e+08,-14044,0,1.5744e+08,3388.1,11598,12509,1,12509,1,0.0012215,5.8663e-08,0,0.0013759,0.00011557,2.6842e+08,14641,0,3.2943e+08,16777,12508,527.81,0,527.81,0,0.0010592,1.1837e-07,0,0.00057097,0.00019772,2.969e+08,26990,0,1.44e+08,9299.3,527.81,1
1820,6.01,12054,1,12054,1,0.00030674,1.1662e-09,0,0.00094511,-5.6077e-05,522.15,-666.65,0,2.5966e+08,12489,12053,12991,1,12991,1,0.0020819,4.7485e-07,0,0.0020819,0.00027558,3.45e+08,84617,0,5.97e+08,45477,12990,12054,1,12054,1,0.00030642,-4.4934e-09,0,0.00092013,-5.623e-05,9.3556e+07,-1161,0,2.6848e+08,11380,12053,11097,1,11097,1,-0.0014678,-3.9914e-07,0,2.1729e-05,-0.00038733,-5.97e+08,-89737,0,9.5024e+06,-77.241,11096,11599,1,11599,1,-0.00061337,-6.2692e-08,0,0.00045969,-0.00022768,-2.4944e+08,-16187,0,1.576e+08,3634.1,11598,12509,1,12509,1,0.0012264,5.952e-08,0,0.0013795,0.00011557,2.6848e+08,14881,0,3.2924e+08,18233,12508,527.81,0,527.81,0,0.001062,1.2755e-07,0,0.00057299,0.00019824,2.9704e+08,29169,0,1.4411e+08,10050,527.81,1
1820,6.02,12054,1,12054,1,0.0003093,5.3442e-09,0,0.0009479,-5.6543e-05,-285.3,231.59,0,2.5976e+08,13446,12053,12991,1,12991,1,0.0020893,5.1718e-07,0,0.0020893,0.000276,3.4431e+08,91820,0,5.9791e+08,48203,12990,12054,1,12054,1,0.00030894,3.0922e-10,0,0.00092263,-5.6689e-05,9.4162e+07,85.397,0,2.6853e+08,12296,12053,11097,1,11097,1,-0.0014701,-4.2578e-07,0,2.0045e-05,-0.00038869,-5.9791e+08,-95985,0,8.8847e+06,26.929,11096,11599,1,11599,1,-0.00061331,-6.4259e-08,0,0.0004609,-0.0002286,-2.4941e+08,-16583,0,1.5777e+08,3940,11598,12509,1,12509,1,0.0012314,6.8437e-08,0,0.0013832,0.00011556,2.6853e+08,17211,0,3.2903e+08,19706,12508,527.81,0,527.81,0,0.0010649,1.3823e-07,0,0.00057506,0.00019876,2.9718e+08,31520,0,1.4423e+08,10736,527.81,1
1820,6.03,12054,1,12054,1,0.00031191,7.8564e-10,0,0.00095072,-5.7019e-05,-217.27,-991.2,0,2.5986e+08,14617,12053,12991,1,12991,1,0.0020968,5.5941e-07,0,0.0020968,0.00027642,3.4357e+08,98843,0,5.9881e+08,51431,12990,12054,1,12054,1,0.00031152,-5.925e-09,0,0.00092513,-5.7157e-05,9.4777e+07,-1518.4,0,2.6858e+08,13494,12053,11097,1,11097,1,-0.0014723,-4.706e-07,0,1.8315e-05,-0.00039008,-5.9881e+08,-1.0379e+05,0,8.2524e+06,-98.337,11096,11599,1,11599,1,-0.00061319,-7.5575e-08,0,0.00046211,-0.00022953,-2.4937e+08,-19381,0,1.5793e+08,4314.7,11598,12509,1,12509,1,0.0012365,7.1159e-08,0,0.0013868,0.00011555,2.6858e+08,17370,0,3.2879e+08,21446,12508,527.81,0,527.81,0,0.0010678,1.5115e-07,0,0.00057716,0.0001993,2.9732e+08,34287,0,1.4435e+08,11540,527.81,1
1820,6.04,12054,1,12054,1,0.00031458,1.4818e-11,0,0.00095362,-5.7505e-05,445.48,-1386.3,0,2.5995e+08,15695,12053,12991,1,12991,1,0.0021045,5.9978e-07,0,0.0021045,0.00027686,3.4284e+08,1.0536e+05,0,5.9975e+08,54991,12990,12054,1,12054,1,0.00031415,-7.2342e-09,0,0.00092769,-5.7633e-05,9.5404e+07,-1842.5,0,2.6863e+08,14499,12053,11097,1,11097,1,-0.0014746,-5.076e-07,0,1.6547e-05,-0.0003915,-5.9975e+08,-1.1468e+05,0,7.6085e+06,-73.985,11096,11599,1,11599,1,-0.00061309,-8.3604e-08,0,0.00046335,-0.00023047,-2.4932e+08,-21419,0,1.581e+08,4627.4,11598,12509,1,12509,1,0.0012416,7.5237e-08,0,0.0013906,0.00011554,2.6863e+08,18670,0,3.2855e+08,23035,12508,527.81,0,527.81,0,0.0010707,1.6328e-07,0,0.00057932,0.00019984,2.9747e+08,37261,0,1.4448e+08,12399,527.81,1
1820,6.05,12054,1,12054,1,0.00031731,5.1402e-09,0,0.00095654,-5.8001e-05,-202.9,-318.3,0,2.6004e+08,17116,12053,12991,1,12991,1,0.0021123,6.626e-07,0,0.0021123,0.00027729,3.4209e+08,1.1598e+05,0,6.0068e+08,58419,12990,12054,1,12054,1,0.00031684,-3.2819e-09,0,0.0009303,-5.8118e-05,9.604e+07,-838.74,0,2.6866e+08,15956,12053,11097,1,11097,1,-0.0014769,-5.5381e-07,0,1.4727e-05,-0.00039294,-6.0068e+08,-1.2303e+05,0,6.9479e+06,-31.026,11096,11599,1,11599,1,-0.00061297,-8.6567e-08,0,0.0004646,-0.00023143,-2.4927e+08,-22298,0,1.5826e+08,5113,11598,12509,1,12509,1,0.0012469,8.8769e-08,0,0.0013944,0.00011552,2.6866e+08,21910,0,3.2831e+08,25212,12508,527.81,0,527.81,0,0.0010737,1.8016e-07,0,0.00058151,0.0002004,2.976e+08,40713,0,1.446e+08,13369,527.81,1
1820,6.06,12054,1,12054,1,0.00032009,4.0379e-09,0,0.00095952,-5.8507e-05,130.15,-761.83,0,2.6012e+08,18632,12053,12991,1,12991,1,0.0021203,7.234e-07,0,0.0021203,0.00027773,3.4132e+08,1.2606e+05,0,6.0162e+08,62656,12990,12054,1,12054,1,0.00031957,-5.7182e-09,0,0.00093295,-5.8612e-05,9.6686e+07,-1465.8,0,2.687e+08,17552,12053,11097,1,11097,1,-0.0014792,-6.0628e-07,0,1.2869e-05,-0.0003944,-6.0162e+08,-1.3391e+05,0,6.2754e+06,-2.6421,11096,11599,1,11599,1,-0.00061283,-9.6808e-08,0,0.00046587,-0.00023241,-2.4922e+08,-25007,0,1.5842e+08,5597.3,11598,12509,1,12509,1,0.0012523,9.6022e-08,0,0.0013983,0.00011551,2.687e+08,23535,0,3.2805e+08,27460,12508,527.81,0,527.81,0,0.0010768,1.9746e-07,0,0.00058375,0.00020096,2.9774e+08,44454,0,1.4473e+08,14436,527.81,1
1820,6.07,12054,1,12054,1,0.00032295,4.7543e-09,0,0.00096259,-5.9025e-05,-382.87,-799.68,0,2.6022e+08,20199,12053,12991,1,12991,1,0.0021286,7.843e-07,0,0.0021286,0.00027818,3.4055e+08,1.3599e+05,0,6.0261e+08,66981,12990,12054,1,12054,1,0.00032238,-5.7844e-09,0,0.00093569,-5.9118e-05,9.7348e+07,-1478.6,0,2.6874e+08,19119,12053,11097,1,11097,1,-0.0014816,-6.6091e-07,0,1.0963e-05,-0.00039592,-6.0261e+08,-1.4654e+05,0,5.5884e+06,30.178,11096,11599,1,11599,1,-0.00061271,-1.068e-07,0,0.00046717,-0.00023342,-2.4917e+08,-27240,0,1.5859e+08,6107.2,11598,12509,1,12509,1,0.0012578,1.0628e-07,0,0.0014023,0.00011549,2.6874e+08,25941,0,3.278e+08,29954,12508,527.81,0,527.81,0,0.0010799,2.1582e-07,0,0.00058606,0.00020154,2.9789e+08,48512,0,1.4487e+08,15534,527.81,1
1820,6.08,12054,1,12054,1,0.00032588,7.0529e-09,0,0.00096571,-5.9557e-05,180.07,-507.88,0,2.603e+08,22059,12053,12991,1,12991,1,0.002137,8.7191e-07,0,0.002137,0.00027864,3.3974e+08,1.5044e+05,0,6.0359e+08,71742,12990,12054,1,12054,1,0.00032526,-3.5792e-09,0,0.00093846,-5.9637e-05,9.8024e+07,-908.07,0,2.6877e+08,20865,12053,11097,1,11097,1,-0.001484,-7.2241e-07,0,8.9875e-06,-0.00039747,-6.0359e+08,-1.5925e+05,0,4.8775e+06,45.364,11096,11599,1,11599,1,-0.00061254,-1.1656e-07,0,0.00046849,-0.00023445,-2.491e+08,-29759,0,1.5876e+08,6575.5,11598,12509,1,12509,1,0.0012634,1.182e-07,0,0.0014063,0.00011547,2.6877e+08,28867,0,3.2752e+08,32769,12508,527.81,0,527.81,0,0.0010831,2.3836e-07,0,0.00058842,0.00020213,2.9802e+08,53302,0,1.45e+08,16872,527.81,1
1820,6.09,12054,1,12054,1,0.00032891,1.2898e-08,0,0.00096893,-6.0105e-05,337.76,677.33,0,2.6038e+08,23919,12053,12991,1,12991,1,0.0021456,9.4941e-07,0,0.0021456,0.00027911,3.3892e+08,1.6298e+05,0,6.046e+08,76577,12990,12054,1,12054,1,0.00032823,3.2903e-09,0,0.00094133,-6.0171e-05,9.8717e+07,812.97,0,2.6879e+08,22721,12053,11097,1,11097,1,-0.0014865,-7.8537e-07,0,6.9537e-06,-0.00039906,-6.046e+08,-1.7343e+05,0,4.1469e+06,109.31,11096,11599,1,11599,1,-0.00061237,-1.2435e-07,0,0.00046986,-0.0002355,-2.4903e+08,-31469,0,1.5893e+08,7135.7,11598,12509,1,12509,1,0.0012692,1.3617e-07,0,0.0014104,0.00011545,2.6879e+08,33370,0,3.2725e+08,35684,12508,527.81,0,527.81,0,0.0010864,2.6067e-07,0,0.00059086,0.00020273,2.9816e+08,58306,0,1.4514e+08,18203,527.81,1
1820,6.1,12054,1,12054,1,0.00033201,1.2174e-08,0,0.0009722,-6.0665e-05,303.69,408.36,0,2.6045e+08,26323,12053,12991,1,12991,1,0.0021544,1.0436e-06,0,0.0021544,0.00027958,3.3806e+08,1.7835e+05,0,6.0561e+08,82658,12990,12054,1,12054,1,0.00033127,1.1901e-09,0,0.00094424,-6.0718e-05,9.9425e+07,337.31,0,2.688e+08,25054,12053,11097,1,11097,1,-0.001489,-8.7754e-07,0,4.8512e-06,-0.00040069,-6.0561e+08,-1.8819e+05,0,3.3925e+06,160.64,11096,11599,1,11599,1,-0.00061216,-1.3758e-07,0,0.00047124,-0.00023658,-2.4894e+08,-35002,0,1.5909e+08,7875.2,11598,12509,1,12509,1,0.0012751,1.4963e-07,0,0.0014146,0.00011543,2.688e+08,36719,0,3.2694e+08,39387,12508,527.81,0,527.81,0,0.0010897,2.891e-07,0,0.00059335,0.00020335,2.983e+08,64083,0,1.4528e+08,19843,527.81,1
1820,6.11,12054,1,12054,1,0.00033518,8.4712e-09,0,0.00097554,-6.1238e-05,105.05,-625.65,0,2.6053e+08,28788,12053,12991,1,12991,1,0.0021635,1.1427e-06,0,0.0021635,0.00028007,3.3717e+08,1.9418e+05,0,6.0666e+08,88687,12990,12054,1,12054,1,0.00033438,-3.3268e-09,0,0.00094721,-6.1274e-05,1.0015e+08,-783.29,0,2.6882e+08,27437,12053,11097,1,11097,1,-0.0014916,-9.6924e-07,0,2.6992e-06,-0.00040236,-6.0666e+08,-2.0526e+05,0,2.6213e+06,142.9,11096,11599,1,11599,1,-0.00061196,-1.5875e-07,0,0.00047263,-0.00023768,-2.4886e+08,-40166,0,1.5926e+08,8597.9,11598,12509,1,12509,1,0.0012811,1.6002e-07,0,0.0014189,0.0001154,2.6882e+08,38730,0,3.2662e+08,43315,12508,527.81,0,527.81,0,0.0010931,3.1788e-07,0,0.00059591,0.00020398,2.9844e+08,70313,0,1.4543e+08,21529,527.81,1
1820,6.12,12054,1,12054,1,0.00033848,1.5223e-08,0,0.000979,-6.1834e-05,376.76,616.44,0,2.6061e+08,31365,12053,12991,1,12991,1,0.0021729,1.2482e-06,0,0.0021729,0.00028056,3.3628e+08,2.1114e+05,0,6.0772e+08,95395,12990,12054,1,12054,1,0.00033759,2.5404e-09,0,0.00095032,-6.1848e-05,1.0089e+08,663.38,0,2.6883e+08,30056,12053,11097,1,11097,1,-0.0014942,-1.0619e-06,0,4.6002e-07,-0.00040409,-6.0772e+08,-2.2397e+05,0,1.8203e+06,235.52,11096,11599,1,11599,1,-0.00061173,-1.6926e-07,0,0.00047407,-0.00023882,-2.4876e+08,-43059,0,1.5943e+08,9390.4,11598,12509,1,12509,1,0.0012874,1.8517e-07,0,0.0014233,0.00011537,2.6883e+08,44677,0,3.2631e+08,47365,12508,527.81,0,527.81,0,0.0010966,3.5006e-07,0,0.00059857,0.00020463,2.9858e+08,77259,0,1.4559e+08,23322,527.81,1
1820,6.13,12054,1,12054,1,0.00034188,1.2555e-08,0,0.00098266,-6.2447e-05,-49.453,-232.58,0,2.6068e+08,34472,12053,12991,1,12991,1,0.0021827,1.3677e-06,0,0.0021827,0.00028108,3.3535e+08,2.2997e+05,0,6.0883e+08,1.0263e+05,12990,12054,1,12054,1,0.00034091,-1.3698e-09,0,0.00095189,-6.2441e-05,1.0165e+08,-311.85,0,2.6883e+08,33146,12053,11097,1,11097,1,-0.0014969,-1.1792e-06,0,3.0636e-07,-0.00040588,-6.0883e+08,-2.4773e+05,0,9.9135e+05,332.87,11096,11599,1,11599,1,-0.00061149,-1.9174e-07,0,0.00047691,-0.00023999,-2.4866e+08,-48607,0,1.5961e+08,10352,11598,12509,1,12509,1,0.0012938,2.0318e-07,0,0.0014297,0.00011534,2.6883e+08,48474,0,3.2597e+08,52568,12508,527.81,0,527.81,0,0.0011003,3.8701e-07,0,0.00060117,0.0002053,2.9872e+08,85308,0,1.4575e+08,25452,527.81,1
1820,6.14,12054,1,12054,1,0.00034541,1.2907e-08,0,0.0009865,-6.3082e-05,183.21,-457.89,0,2.6075e+08,37964,12053,12991,1,12991,1,0.0021927,1.5164e-06,0,0.0021927,0.0002816,3.3438e+08,2.5358e+05,0,6.0996e+08,1.1092e+05,12990,12054,1,12054,1,0.00034433,-4.5238e-09,0,0.00095458,-6.3051e-05,1.0243e+08,-1098.9,0,2.6883e+08,36824,12053,11097,1,11097,1,-0.0014997,-1.3114e-06,0,2.0121e-06,-0.00040773,-6.0996e+08,-2.7248e+05,0,1.2823e+05,398.81,11096,11599,1,11599,1,-0.00061121,-2.1557e-07,0,0.00047857,-0.0002412,-2.4855e+08,-54349,0,1.5978e+08,11472,11598,12509,1,12509,1,0.0013004,2.2571e-07,0,0.0014345,0.0001153,2.6883e+08,53871,0,3.2562e+08,58223,12508,527.81,0,527.81,0,0.001104,4.3114e-07,0,0.00060375,0.00020599,2.9886e+08,94573,0,1.4591e+08,27801,527.81,1
1820,6.15,12054,1,12054,1,0.00034906,1.8638e-08,0,0.00099046,-6.3737e-05,324.52,580.67,0,2.6084e+08,42011,12053,12991,1,12991,1,0.0022031,1.689e-06,0,0.0022031,0.00028214,3.334e+08,2.811e+05,0,6.1111e+08,1.1966e+05,12990,12054,1,12054,1,0.00034787,2.2348e-09,0,0.00095771,-6.3679e-05,1.0324e+08,552.15,0,2.6881e+08,41109,12053,11097,1,11097,1,-0.0015025,-1.4582e-06,0,4.2579e-06,-0.00040965,-6.1111e+08,-2.9864e+05,0,1.098e+05,354.63,11096,11599,1,11599,1,-0.00061092,-2.3832e-07,0,0.00048027,-0.00024244,-2.4843e+08,-59621,0,1.5995e+08,12810,11598,12509,1,12509,1,0.0013073,2.5518e-07,0,0.0014395,0.00011527,2.6881e+08,61037,0,3.2526e+08,64827,12508,527.81,0,527.81,0,0.0011079,4.8185e-07,0,0.00060641,0.0002067,2.9899e+08,1.0493e+05,0,1.4602e+08,30539,527.81,1
1820,6.16,12054,1,12054,1,0.00035284,1.918e-08,0,0.00099455,-6.4414e-05,-11.818,426.38,0,2.6097e+08,46462,12053,12991,1,12991,1,0.0022139,1.8696e-06,0,0.0022139,0.00028269,3.3237e+08,3.0922e+05,0,6.123e+08,1.2961e+05,12990,12054,1,12054,1,0.00035153,1.7172e-09,0,0.00096093,-6.4327e-05,1.0407e+08,443.71,0,2.6879e+08,45774,12053,11097,1,11097,1,-0.0015055,-1.6288e-06,0,6.5864e-06,-0.00041163,-6.123e+08,-3.2971e+05,0,7.1192e+05,407.88,11096,11599,1,11599,1,-0.00061061,-2.6802e-07,0,0.00048204,-0.00024372,-2.483e+08,-67172,0,1.6013e+08,14334,11598,12509,1,12509,1,0.0013143,2.8221e-07,0,0.0014447,0.00011523,2.6879e+08,68667,0,3.2452e+08,72189,12508,527.81,0,527.81,0,0.0011118,5.3703e-07,0,0.00060917,0.00020744,2.9914e+08,1.164e+05,0,1.4608e+08,33544,527.81,1
1820,6.17,12054,1,12054,1,0.00035675,2.3526e-08,0,0.00099878,-6.5114e-05,-401.96,1100.7,0,2.611e+08,51463,12053,12991,1,12991,1,0.0022251,2.0821e-06,0,0.0022251,0.00028326,3.3132e+08,3.4228e+05,0,6.1353e+08,1.3971e+05,12990,12054,1,12054,1,0.00035532,5.9889e-09,0,0.00096424,-6.4996e-05,1.0493e+08,1453.2,0,2.6877e+08,51000,12053,11097,1,11097,1,-0.0015085,-1.8123e-06,0,8.9818e-06,-0.0004137,-6.1353e+08,-3.6345e+05,0,1.5587e+06,457.87,11096,11599,1,11599,1,-0.00061028,-3.0127e-07,0,0.00048388,-0.00024505,-2.4817e+08,-74278,0,1.6031e+08,15911,11598,12509,1,12509,1,0.0013216,3.1441e-07,0,0.00145,0.00011519,2.6877e+08,77369,0,3.2346e+08,80551,12508,527.81,0,527.81,0,0.001116,5.9981e-07,0,0.00061204,0.0002082,2.9928e+08,1.2947e+05,0,1.4615e+08,36869,527.81,1
1820,6.18,12054,1,12054,1,0.00036087,2.076e-08,0,0.0010032,-6.585e-05,109.75,37.438,0,2.6123e+08,56749,12053,12991,1,12991,1,0.002237,2.2949e-06,0,0.002237,0.00028387,3.3023e+08,3.7489e+05,0,6.1483e+08,1.5184e+05,12990,12054,1,12054,1,0.00035927,-1.2524e-09,0,0.00096767,-6.569e-05,1.0581e+08,-299.68,0,2.6874e+08,56248,12053,11097,1,11097,1,-0.0015117,-2.0253e-06,0,1.1479e-05,-0.00041588,-6.1483e+08,-4.0298e+05,0,2.4424e+06,657.59,11096,11599,1,11599,1,-0.00060992,-3.4238e-07,0,0.00048581,-0.00024643,-2.4802e+08,-84513,0,1.6049e+08,17530,11598,12509,1,12509,1,0.0013293,3.527e-07,0,0.0014556,0.00011514,2.6874e+08,85377,0,3.2237e+08,89926,12508,527.81,0,527.81,0,0.0011203,6.6905e-07,0,0.00061506,0.000209,2.9943e+08,1.4408e+05,0,1.4623e+08,40474,527.81,1
1820,6.19,12054,1,12054,1,0.00036518,2.5942e-08,0,0.0010078,-6.6616e-05,-178.67,682.89,0,2.6135e+08,63283,12053,12991,1,12991,1,0.0022494,2.577e-06,0,0.0022494,0.00028449,3.291e+08,4.1843e+05,0,6.1616e+08,1.6434e+05,12990,12054,1,12054,1,0.00036339,4.2556e-09,0,0.00097121,-6.6413e-05,1.0673e+08,1108.4,0,2.687e+08,63117,12053,11097,1,11097,1,-0.001515,-2.2718e-06,0,1.4071e-05,-0.00041815,-6.1616e+08,-4.4806e+05,0,3.3576e+06,720,11096,11599,1,11599,1,-0.00060953,-3.8805e-07,0,0.00048782,-0.00024787,-2.4786e+08,-94711,0,1.6068e+08,19737,11598,12509,1,12509,1,0.0013372,4.0107e-07,0,0.0014614,0.00011509,2.687e+08,96913,0,3.2122e+08,1.0128e+05,12508,527.81,0,527.81,0,0.0011247,7.5416e-07,0,0.00061822,0.00020982,2.9958e+08,1.6156e+05,0,1.463e+08,44805,527.81,1
1820,6.2,12054,1,12054,1,0.0003697,2.212e-08,0,0.0010127,-6.742e-05,-38.04,-750.13,0,2.6148e+08,70519,12053,12991,1,12991,1,0.0022624,2.8794e-06,0,0.0022624,0.00028514,3.2792e+08,4.642e+05,0,6.1757e+08,1.7845e+05,12990,12054,1,12054,1,0.0003677,-6.4016e-09,0,0.00097487,-6.7166e-05,1.0769e+08,-1556.9,0,2.6865e+08,71247,12053,11097,1,11097,1,-0.0015184,-2.5631e-06,0,1.6767e-05,-0.00042055,-6.1757e+08,-5.0023e+05,0,4.3061e+06,853.19,11096,11599,1,11599,1,-0.0006091,-4.4297e-07,0,0.00048994,-0.00024936,-2.4768e+08,-1.0871e+05,0,1.6087e+08,22160,11598,12509,1,12509,1,0.0013455,4.4806e-07,0,0.0014675,0.00011504,2.6865e+08,1.0854e+05,0,3.2001e+08,1.1409e+05,12508,527.81,0,527.81,0,0.0011294,8.5056e-07,0,0.00062155,0.00021069,2.9973e+08,1.8126e+05,0,1.4639e+08,49632,527.81,1
1820,6.21,12054,1,12054,1,0.00037445,2.8556e-08,0,0.0010177,-6.8262e-05,-464.52,-14.441,0,2.616e+08,78953,12053,12991,1,12991,1,0.0022761,3.244e-06,0,0.0022761,0.00028581,3.2669e+08,5.1955e+05,0,6.1901e+08,1.9332e+05,12990,12054,1,12054,1,0.0003722,-9.2416e-10,0,0.00097863,-6.7949e-05,1.0869e+08,-208.99,0,2.6858e+08,79862,12053,11097,1,11097,1,-0.001522,-2.8917e-06,0,1.9562e-05,-0.00042308,-6.1901e+08,-5.58e+05,0,5.2849e+06,965.3,11096,11599,1,11599,1,-0.00060863,-4.9942e-07,0,0.00049215,-0.00025093,-2.4749e+08,-1.2281e+05,0,1.6106e+08,24958,11598,12509,1,12509,1,0.0013541,5.137e-07,0,0.0014739,0.00011498,2.6858e+08,1.2353e+05,0,3.1874e+08,1.2851e+05,12508,527.81,0,527.81,0,0.0011343,9.6349e-07,0,0.00062505,0.0002116,2.9988e+08,2.0405e+05,0,1.4648e+08,55219,527.81,1
1820,6.22,12054,1,12054,1,0.00037943,3.7154e-08,0,0.001023,-6.9143e-05,12.409,1204.5,0,2.6173e+08,88302,12053,12991,1,12991,1,0.0022907,3.6612e-06,0,0.0022907,0.00028653,3.2543e+08,5.8209e+05,0,6.2055e+08,2.0915e+05,12990,12054,1,12054,1,0.0003769,1.0794e-08,0,0.00098254,-6.8765e-05,1.0974e+08,2541.9,0,2.6851e+08,88906,12053,11097,1,11097,1,-0.0015258,-3.2572e-06,0,2.2434e-05,-0.00042575,-6.2055e+08,-6.2383e+05,0,6.2867e+06,1062.4,11096,11599,1,11599,1,-0.00060816,-5.6561e-07,0,0.0004945,-0.00025256,-2.4729e+08,-1.3711e+05,0,1.6116e+08,28269,11598,12509,1,12509,1,0.0013632,5.8764e-07,0,0.0014806,0.00011493,2.6851e+08,1.4153e+05,0,3.1743e+08,1.4495e+05,12508,527.81,0,527.81,0,0.0011395,1.0916e-06,0,0.00062873,0.00021254,3.0004e+08,2.3023e+05,0,1.4658e+08,61431,527.81,1
1820,6.23,12054,1,12054,1,0.00038474,3.2402e-08,0,0.0010286,-7.0079e-05,-190.54,-939.67,0,2.6184e+08,99129,12053,12991,1,12991,1,0.0023061,4.1066e-06,0,0.0023061,0.00028728,3.241e+08,6.4808e+05,0,6.2216e+08,2.277e+05,12990,12054,1,12054,1,0.00038187,-7.2539e-09,0,0.00098659,-6.9619e-05,1.1081e+08,-1699.5,0,2.6842e+08,99387,12053,11097,1,11097,1,-0.0015297,-3.7097e-06,0,2.5478e-05,-0.0004286,-6.2216e+08,-7.0076e+05,0,7.3388e+06,1123.3,11096,11599,1,11599,1,-0.00060759,-6.5623e-07,0,0.00049698,-0.00025427,-2.4706e+08,-1.6036e+05,0,1.6109e+08,32021,11598,12509,1,12509,1,0.0013727,6.6788e-07,0,0.0014877,0.00011486,2.6842e+08,1.601e+05,0,3.1603e+08,1.6453e+05,12508,527.81,0,527.81,0,0.0011449,1.2424e-06,0,0.00063265,0.00021355,3.0019e+08,2.6052e+05,0,1.4668e+08,68558,527.81,1
1820,6.24,12054,1,12054,1,0.00039036,4.2274e-08,0,0.0010345,-7.1068e-05,-71.397,141.71,0,2.6196e+08,1.1184e+05,12053,12991,1,12991,1,0.0023226,4.6694e-06,0,0.0023226,0.00028807,3.2273e+08,7.3182e+05,0,6.2386e+08,2.4912e+05,12990,12054,1,12054,1,0.0003871,-2.9079e-10,0,0.0009908,-7.0517e-05,1.1195e+08,-69.285,0,2.6831e+08,1.1189e+05,12053,11097,1,11097,1,-0.0015339,-4.2201e-06,0,2.8629e-05,-0.00043164,-6.2386e+08,-7.8815e+05,0,8.4199e+06,1440.8,11096,11599,1,11599,1,-0.000607,-7.4574e-07,0,0.00049961,-0.00025608,-2.4682e+08,-1.8153e+05,0,1.6119e+08,36562,11598,12509,1,12509,1,0.0013827,7.6975e-07,0,0.0014951,0.00011479,2.6831e+08,1.8393e+05,0,3.1456e+08,1.8542e+05,12508,527.81,0,527.81,0,0.0011506,1.4223e-06,0,0.00063682,0.0002146,3.0035e+08,2.9605e+05,0,1.468e+08,76986,527.81,1
1820,6.25,12054,1,12054,1,0.00039633,4.678e-08,0,0.0010408,-7.2116e-05,-293.87,-113.75,0,2.6207e+08,1.2641e+05,12053,12991,1,12991,1,0.0023403,5.3119e-06,0,0.0023403,0.0002889,3.2128e+08,8.2601e+05,0,6.2564e+08,2.7239e+05,12990,12054,1,12054,1,0.00039263,-2.5696e-09,0,0.00099515,-7.1459e-05,1.1315e+08,-587.2,0,2.6818e+08,1.2703e+05,12053,11097,1,11097,1,-0.0015383,-4.8222e-06,0,3.1923e-05,-0.00043488,-6.2564e+08,-8.9025e+05,0,9.5394e+06,1460.3,11096,11599,1,11599,1,-0.00060634,-8.6593e-07,0,0.00050242,-0.00025797,-2.4654e+08,-2.0913e+05,0,1.6134e+08,42091,11598,12509,1,12509,1,0.0013933,8.84e-07,0,0.001503,0.00011471,2.6818e+08,2.1038e+05,0,3.1299e+08,2.1088e+05,12508,527.81,0,527.81,0,0.0011567,1.6322e-06,0,0.00064125,0.00021572,3.0051e+08,3.374e+05,0,1.4693e+08,86678,527.81,1
1820,6.26,12054,1,12054,1,0.00040272,5.6571e-08,0,0.0010475,-7.3233e-05,-183.54,552.54,0,2.622e+08,1.4328e+05,12053,12991,1,12991,1,0.0023594,6.062e-06,0,0.0023594,0.0002898,3.1979e+08,9.3502e+05,0,6.2758e+08,2.981e+05,12990,12054,1,12054,1,0.00039849,2.4211e-09,0,0.00099973,-7.2453e-05,1.1441e+08,588.5,0,2.6805e+08,1.4465e+05,12053,11097,1,11097,1,-0.001543,-5.5201e-06,0,3.5349e-05,-0.0004384,-6.2758e+08,-1.0088e+06,0,1.069e+07,1947.2,11096,11599,1,11599,1,-0.00060565,-9.9793e-07,0,0.00050545,-0.00025999,-2.4626e+08,-2.4069e+05,0,1.6149e+08,47422,11598,12509,1,12509,1,0.0014046,1.0277e-06,0,0.0015115,0.00011464,2.6805e+08,2.4323e+05,0,3.1135e+08,2.4102e+05,12508,527.81,0,527.81,0,0.0011632,1.8793e-06,0,0.00064603,0.00021692,3.0069e+08,3.8593e+05,0,1.4708e+08,98002,527.81,1
1820,6.27,12054,1,12054,1,0.00040959,6.0415e-08,0,0.0010546,-7.4429e-05,-245.77,-360.18,0,2.6231e+08,1.6299e+05,12053,12991,1,12991,1,0.0023801,6.9365e-06,0,0.0023801,0.00029077,3.1821e+08,1.0603e+06,0,6.2965e+08,3.2756e+05,12990,12054,1,12054,1,0.00040473,-2.4894e-09,0,0.0010045,-7.3504e-05,1.1575e+08,-497.01,0,2.6789e+08,1.6571e+05,12053,11097,1,11097,1,-0.0015481,-6.3551e-06,0,3.8947e-05,-0.00044221,-6.2965e+08,-1.1485e+06,0,1.1884e+07,2307.7,11096,11599,1,11599,1,-0.00060487,-1.1734e-06,0,0.00050872,-0.00026212,-2.4594e+08,-2.7843e+05,0,1.6163e+08,53106,11598,12509,1,12509,1,0.0014165,1.184e-06,0,0.0015206,0.00011455,2.6789e+08,2.8141e+05,0,3.0958e+08,2.7574e+05,12508,527.81,0,527.81,0,0.0011701,2.1745e-06,0,0.00065117,0.00021819,3.0087e+08,4.4341e+05,0,1.4724e+08,1.1132e+05,527.81,1
1820,6.28,12054,1,12054,1,0.00041699,7.2223e-08,0,0.0010623,-7.5715e-05,-13.881,87.695,0,2.6241e+08,1.8603e+05,12053,12991,1,12991,1,0.0024027,7.9777e-06,0,0.0024027,0.0002918,3.1656e+08,1.2091e+06,0,6.3186e+08,3.7243e+05,12990,12054,1,12054,1,0.0004114,-3.6259e-10,0,0.0010094,-7.4618e-05,1.1717e+08,-25.43,0,2.6769e+08,1.8815e+05,12053,11097,1,11097,1,-0.0015536,-7.3417e-06,0,4.2707e-05,-0.00044636,-6.3186e+08,-1.3089e+06,0,1.3112e+07,2525.2,11096,11599,1,11599,1,-0.00060401,-1.37e-06,0,0.00051226,-0.00026439,-2.4558e+08,-3.2489e+05,0,1.6176e+08,58125,11598,12509,1,12509,1,0.0014293,1.3971e-06,0,0.0015303,0.00011444,2.6769e+08,3.2922e+05,0,3.0769e+08,3.082e+05,12508,527.81,0,527.81,0,0.0011775,2.5293e-06,0,0.00065673,0.00021956,3.0105e+08,5.1166e+05,0,1.4741e+08,1.271e+05,527.81,1
1820,6.29,12054,1,12054,1,0.00042499,8.5207e-08,0,0.0010706,-7.7098e-05,-349.74,447.95,0,2.6251e+08,2.1324e+05,12053,12991,1,12991,1,0.0024274,9.2065e-06,0,0.0024274,0.00029292,3.1484e+08,1.3829e+06,0,6.3426e+08,4.3559e+05,12990,12054,1,12054,1,0.00041853,3.6088e-09,0,0.0010145,-7.58e-05,1.1867e+08,1097,0,2.6747e+08,2.1914e+05,12053,11097,1,11097,1,-0.0015595,-8.5217e-06,0,4.662e-05,-0.00045091,-6.3426e+08,-1.4971e+06,0,1.4373e+07,2759.8,11096,11599,1,11599,1,-0.00060307,-1.608e-06,0,0.00051613,-0.00026681,-2.4519e+08,-3.81e+05,0,1.6188e+08,65214,11598,12509,1,12509,1,0.0014429,1.6447e-06,0,0.0015409,0.00011431,2.6747e+08,3.8629e+05,0,3.0567e+08,3.5609e+05,12508,527.81,0,527.81,0,0.0011855,2.9576e-06,0,0.00066277,0.00022103,3.0123e+08,5.9312e+05,0,1.4762e+08,1.4605e+05,527.81,1
1820,6.3,12054,1,12054,1,0.0004337,1.0795e-07,0,0.0010795,-7.8596e-05,-107.35,2471.6,0,2.626e+08,2.4519e+05,12053,12991,1,12991,1,0.0024547,1.0674e-05,0,0.0024547,0.00029413,3.1305e+08,1.5935e+06,0,6.3686e+08,5.1672e+05,12990,12054,1,12054,1,0.00042621,1.7154e-08,0,0.0010198,-7.7063e-05,1.2028e+08,4641.9,0,2.6719e+08,2.5209e+05,12053,11097,1,11097,1,-0.0015658,-9.9337e-06,0,5.0736e-05,-0.00045594,-6.3686e+08,-1.7153e+06,0,1.5676e+07,2985.6,11096,11599,1,11599,1,-0.00060201,-1.8852e-06,0,0.00052035,-0.00026941,-2.4475e+08,-4.4836e+05,0,1.6199e+08,76917,11598,12509,1,12509,1,0.0014576,1.9476e-06,0,0.0015554,0.00011416,2.6719e+08,4.5757e+05,0,3.0349e+08,4.054e+05,12508,527.81,0,527.81,0,0.0011941,3.4787e-06,0,0.00066937,0.00022262,3.0142e+08,6.907e+05,0,1.4784e+08,1.6888e+05,527.81,1
1820,6.31,12054,1,12054,1,0.0004432,1.1913e-07,0,0.0010892,-8.0222e-05,51.558,1612.9,0,2.6268e+08,2.8261e+05,12053,12991,1,12991,1,0.0024852,1.2384e-05,0,0.0024852,0.00029546,3.1114e+08,1.8465e+06,0,6.3972e+08,6.1678e+05,12990,12054,1,12054,1,0.00043449,1.5763e-08,0,0.0010277,-7.8415e-05,1.22e+08,3957.2,0,2.6688e+08,2.8469e+05,12053,11097,1,11097,1,-0.0015729,-1.1627e-05,0,5.5025e-05,-0.00046154,-6.3972e+08,-1.9746e+06,0,1.7015e+07,3059.3,11096,11599,1,11599,1,-0.00060083,-2.2387e-06,0,0.00052396,-0.0002722,-2.4427e+08,-5.3491e+05,0,1.6208e+08,90392,11598,12509,1,12509,1,0.0014734,2.3095e-06,0,0.0015664,0.00011398,2.6688e+08,5.416e+05,0,3.0113e+08,4.5479e+05,12508,527.81,0,527.81,0,0.0012034,4.1084e-06,0,0.00067662,0.00022434,3.0161e+08,8.0788e+05,0,1.481e+08,1.9656e+05,527.81,1
1820,6.32,12054,1,12054,1,0.00045366,1.3188e-07,0,0.0010998,-8.2003e-05,133.18,194.88,0,2.6274e+08,3.2688e+05,12053,12991,1,12991,1,0.0025194,1.4416e-05,0,0.0025194,0.00029694,3.0915e+08,2.1475e+06,0,6.4288e+08,7.4272e+05,12990,12054,1,12054,1,0.00044346,8.2903e-09,0,0.0010412,-7.9869e-05,1.2384e+08,2415.8,0,2.6651e+08,3.187e+05,12053,11097,1,11097,1,-0.0015807,-1.3667e-05,0,5.9504e-05,-0.00046784,-6.4288e+08,-2.2816e+06,0,1.839e+07,2989.3,11096,11599,1,11599,1,-0.00059949,-2.6824e-06,0,0.00052334,-0.00027521,-2.4371e+08,-6.3518e+05,0,1.6214e+08,1.0568e+05,11598,12509,1,12509,1,0.0014905,2.7656e-06,0,0.0015764,0.00011376,2.6651e+08,6.4584e+05,0,2.9857e+08,5.2933e+05,12508,527.81,0,527.81,0,0.0012137,4.8823e-06,0,0.00068464,0.00022623,3.0181e+08,9.5012e+05,0,1.4839e+08,2.3084e+05,527.81,1
1820,6.33,12054,1,12054,1,0.00046522,1.614e-07,0,0.0011115,-8.396e-05,-254.13,1488.1,0,2.6279e+08,3.7927e+05,12053,12991,1,12991,1,0.0025583,1.6854e-05,0,0.0025583,0.00029858,3.071e+08,2.507e+06,0,6.464e+08,9.0159e+05,12990,12054,1,12054,1,0.00045325,2.06e-08,0,0.001056,-8.1446e-05,1.2584e+08,5662.2,0,2.6608e+08,3.6373e+05,12053,11097,1,11097,1,-0.0015893,-1.6127e-05,0,5.9375e-05,-0.000475,-6.464e+08,-2.6374e+06,0,1.9794e+07,3068.5,11096,11599,1,11599,1,-0.00059801,-3.2446e-06,0,0.0005226,-0.00027848,-2.431e+08,-7.6688e+05,0,1.6218e+08,1.2146e+05,11598,12509,1,12509,1,0.0015092,3.3612e-06,0,0.0015863,0.0001135,2.6608e+08,7.7613e+05,0,2.9578e+08,6.0896e+05,12508,527.81,0,527.81,0,0.001225,5.8423e-06,0,0.00069358,0.00022831,3.0202e+08,1.1234e+06,0,1.4873e+08,2.7389e+05,527.81,1
1820,6.34,12054,1,12054,1,0.00047812,1.8497e-07,0,0.0011245,-8.6134e-05,-118.7,563.74,0,2.6282e+08,4.4074e+05,12053,12991,1,12991,1,0.002603,1.9706e-05,0,0.002603,0.00030043,3.0493e+08,2.935e+06,0,6.5036e+08,1.1041e+06,12990,12054,1,12054,1,0.00046402,1.8582e-08,0,0.0010722,-8.3172e-05,1.28e+08,4576.1,0,2.6555e+08,4.0756e+05,12053,11097,1,11097,1,-0.0015991,-1.9093e-05,0,5.0503e-05,-0.00048323,-6.5036e+08,-3.0586e+06,0,2.0539e+07,2641.7,11096,11599,1,11599,1,-0.0005963,-3.9385e-06,0,0.0005217,-0.00028206,-2.424e+08,-9.284e+05,0,1.6216e+08,1.3373e+05,11598,12509,1,12509,1,0.0015296,4.032e-06,0,0.0015968,0.00011315,2.6555e+08,9.3823e+05,0,2.9231e+08,6.9954e+05,12508,527.81,0,527.81,0,0.0012376,7.0313e-06,0,0.00070365,0.00023062,3.0224e+08,1.335e+06,0,1.4913e+08,3.2884e+05,527.81,1
1820,6.35,12054,1,12054,1,0.00049262,2.2729e-07,0,0.001139,-8.8567e-05,-197.33,2448.4,0,2.628e+08,5.1319e+05,12053,12991,1,12991,1,0.0026551,2.3094e-05,0,0.0026551,0.00030253,3.0268e+08,3.4456e+06,0,6.5485e+08,1.3651e+06,12990,12054,1,12054,1,0.00047598,3.7473e-08,0,0.00109,-8.5084e-05,1.3037e+08,9983.3,0,2.6491e+08,4.4156e+05,12053,11097,1,11097,1,-0.0016101,-2.2678e-05,0,4.0235e-05,-0.00049281,-6.5485e+08,-3.5457e+06,0,1.6573e+07,2095.9,11096,11599,1,11599,1,-0.00059432,-4.7825e-06,0,0.00052052,-0.000286,-2.4158e+08,-1.1217e+06,0,1.6366e+08,1.4278e+05,11598,12509,1,12509,1,0.0015523,4.9835e-06,0,0.0016083,0.0001128,2.6491e+08,1.1299e+06,0,2.8777e+08,8.3548e+05,12508,527.81,0,527.81,0,0.0012516,8.5248e-06,0,0.00071506,0.00023319,3.0245e+08,1.5954e+06,0,1.4959e+08,4.0072e+05,527.81,1
1820,6.36,12054,1,12054,1,0.00050909,2.611e-07,0,0.0011553,-9.1319e-05,-487.97,1214.1,0,2.6276e+08,5.9824e+05,12053,12991,1,12991,1,0.0027168,2.7061e-05,0,0.0027168,0.00030496,3.0031e+08,4.0529e+06,0,6.6004e+08,1.7039e+06,12990,12054,1,12054,1,0.00048939,3.4898e-08,0,0.0011057,-8.7213e-05,1.33e+08,8521,0,2.6413e+08,4.8365e+05,12053,11097,1,11097,1,-0.0016229,-2.6999e-05,0,2.821e-05,-0.00050417,-6.6004e+08,-4.1193e+06,0,1.21e+07,994.67,11096,11599,1,11599,1,-0.00059202,-5.896e-06,0,0.00052268,-0.0002904,-2.4063e+08,-1.3709e+06,0,1.6605e+08,1.5361e+05,11598,12509,1,12509,1,0.0015824,6.1728e-06,0,0.0016213,0.00011244,2.6413e+08,1.3675e+06,0,2.8292e+08,9.7538e+05,12508,527.81,0,527.81,0,0.0012674,1.0413e-05,0,0.00072821,0.0002361,3.0268e+08,1.9176e+06,0,1.5014e+08,4.9658e+05,527.81,1
1820,6.37,12054,1,12054,1,0.00052803,3.1593e-07,0,0.001174,-9.4471e-05,-178.74,2704.7,0,2.6266e+08,6.9713e+05,12053,12991,1,12991,1,0.0027913,3.2011e-05,0,0.0027913,0.00030779,2.9784e+08,4.776e+06,0,6.6611e+08,2.1508e+06,12990,12054,1,12054,1,0.00050468,6.022e-08,0,0.0011266,-8.9647e-05,1.3594e+08,14956,0,2.6228e+08,5.0887e+05,12053,11097,1,11097,1,-0.0016378,-3.2195e-05,0,1.3883e-05,-0.00051788,-6.6611e+08,-4.7762e+06,0,6.9958e+06,-44729,11096,11599,1,11599,1,-0.00058928,-7.3716e-06,0,0.00052481,-0.00029768,-2.395e+08,-1.6941e+06,0,1.6873e+08,1.4299e+05,11598,12509,1,12509,1,0.0016279,7.7486e-06,0,0.0016361,0.000112,2.6228e+08,1.6927e+06,0,2.7813e+08,1.1443e+06,12508,527.81,0,527.81,0,0.0012856,1.2826e-05,0,0.00074354,0.00023942,3.0292e+08,2.3186e+06,0,1.5079e+08,6.2776e+05,527.81,1
1820,6.38,12054,1,12054,1,0.00055016,3.7316e-07,0,0.0011957,-9.8129e-05,-800.69,3103.8,0,2.6247e+08,8.1115e+05,12053,12991,1,12991,1,0.0028834,3.857e-05,0,0.0028834,0.00031117,2.952e+08,5.6354e+06,0,6.7331e+08,2.7434e+06,12990,12054,1,12054,1,0.00052246,7.7359e-08,0,0.0011399,-9.2443e-05,1.3927e+08,19809,0,2.6003e+08,5.3542e+05,12053,11097,1,11097,1,-0.0016555,-3.8782e-05,0,3.1204e-06,-0.00053484,-6.7331e+08,-5.5948e+06,0,8.8153e+05,-3.4098e+05,11096,11599,1,11599,1,-0.00058594,-9.4093e-06,0,0.0005267,-0.00030631,-2.3813e+08,-2.0709e+06,0,1.7174e+08,1.0316e+05,11598,12509,1,12509,1,0.0016771,9.7541e-06,0,0.0016772,0.00011147,2.6e+08,2.1039e+06,0,2.7335e+08,1.3885e+06,12508,527.81,0,527.81,0,0.0013067,1.5948e-05,0,0.0007617,0.00024328,3.0316e+08,2.8225e+06,0,1.516e+08,8.1153e+05,527.81,1
1820,6.39,12054,1,12054,1,0.00057646,4.4206e-07,0,0.0012218,-0.00010239,680.12,3753.7,0,2.6232e+08,9.4395e+05,12053,12991,1,12991,1,0.0030006,4.7613e-05,0,0.0030006,0.00031528,2.9238e+08,6.713e+06,0,6.8209e+08,3.5598e+06,12990,12054,1,12054,1,0.00054358,1.028e-07,0,0.0011507,-9.5416e-05,1.4313e+08,25722,0,2.5598e+08,5.5604e+05,12053,11097,1,11097,1,-0.0016771,-4.7793e-05,0,9.871e-06,-0.00055643,-6.8209e+08,-6.675e+06,0,2.5166e+06,-7.9466e+05,11096,11599,1,11599,1,-0.00058185,-1.1687e-05,0,0.00054359,-0.00031524,-2.3644e+08,-2.6095e+06,0,1.7521e+08,59287,11598,12509,1,12509,1,0.0017308,1.2105e-05,0,0.0017312,0.00011083,2.5595e+08,2.6096e+06,0,2.6895e+08,1.6952e+06,12508,527.81,0,527.81,0,0.0013319,2.008e-05,0,0.00078309,0.00024782,3.0341e+08,3.4662e+06,0,1.5239e+08,1.0733e+06,527.81,1
1820,6.4,12054,1,12054,1,0.00060839,5.1583e-07,0,0.0012535,-0.00010745,-60.147,3699.4,0,2.6218e+08,1.0982e+06,12053,12991,1,12991,1,0.0031549,6.0363e-05,0,0.0031549,0.00032044,2.8925e+08,8.1687e+06,0,6.9308e+08,4.7093e+06,12990,12054,1,12054,1,0.00058284,1.4742e-07,0,0.0011618,-9.8811e-05,1.4835e+08,34870,0,2.5192e+08,5.5837e+05,12053,11097,1,11097,1,-0.0017041,-6.0601e-05,0,1.4389e-05,-0.00058484,-6.9308e+08,-8.1245e+06,0,4.035e+06,-1.4364e+06,11096,11599,1,11599,1,-0.00057668,-1.4929e-05,0,0.00058284,-0.00032513,-2.3431e+08,-3.2864e+06,0,1.8133e+08,22178,11598,12509,1,12509,1,0.0017831,1.5447e-05,0,0.0017838,0.00011011,2.5189e+08,3.328e+06,0,2.6611e+08,2.0308e+06,12508,527.81,0,527.81,0,0.0013626,2.5676e-05,0,0.00080961,0.00025328,3.037e+08,4.3008e+06,0,1.5322e+08,1.4521e+06,527.81,1
1820,6.41,12054,1,12054,1,0.00064854,6.1402e-07,0,0.0012932,-0.00011368,-445.74,3483.6,0,2.6191e+08,1.2778e+06,12053,12991,1,12991,1,0.0033671,7.9312e-05,0,0.0033671,0.00032709,2.8586e+08,1.0163e+07,0,7.0724e+08,6.3663e+06,12990,12054,1,12054,1,0.00063066,1.9901e-07,0,0.0011841,-0.00010284,1.5744e+08,46100,0,2.4764e+08,5.498e+05,12053,11097,1,11097,1,-0.001739,-7.9428e-05,0,1.7968e-05,-0.00062395,-7.0724e+08,-1.013e+07,0,5.3287e+06,-2.3354e+06,11096,11599,1,11599,1,-0.00056978,-1.9433e-05,0,0.0006307,-0.00033484,-2.3146e+08,-4.2935e+06,0,1.8644e+08,-21527,11598,12509,1,12509,1,0.0018315,2.0319e-05,0,0.0018327,0.0001094,2.4755e+08,4.3003e+06,0,2.631e+08,2.553e+06,12508,527.81,0,527.81,0,0.0014016,3.3553e-05,0,0.00084444,0.00026008,3.0401e+08,5.4095e+06,0,1.5432e+08,2.01e+06,527.81,1
1820,6.42,12054,1,12054,1,0.00070104,7.1563e-07,0,0.0013446,-0.00012162,-1788.8,4716.6,0,2.6137e+08,1.4841e+06,12053,12991,1,12991,1,0.0036763,0.00010844,0,0.0036763,0.000336,2.8136e+08,1.2967e+07,0,7.2618e+08,8.8149e+06,12990,12054,1,12054,1,0.0006876,3.1447e-07,0,0.001211,-0.00010839,1.6694e+08,67322,0,2.4305e+08,4.808e+05,12053,11097,1,11097,1,-0.0017856,-0.0001086,0,2.0671e-05,-0.00068097,-7.2618e+08,-1.2925e+07,0,6.4167e+06,-3.4696e+06,11096,11599,1,11599,1,-0.00056012,-2.5628e-05,0,0.00063273,-0.00034386,-2.2743e+08,-5.5894e+06,0,1.8389e+08,-2.5649e+05,11598,12509,1,12509,1,0.0019194,2.7165e-05,0,0.0019215,0.00010869,2.4296e+08,5.6406e+06,0,2.5933e+08,3.1936e+06,12508,527.81,0,527.81,0,0.0014536,4.5066e-05,0,0.00089309,0.00026888,3.0435e+08,6.9065e+06,0,1.5597e+08,2.8455e+06,527.81,1
1820,6.43,12054,1,12054,1,0.00077329,8.4393e-07,0,0.0014149,-0.00013203,-1876.1,6270.9,0,2.6039e+08,1.7272e+06,12053,12991,1,12991,1,0.0041631,0.00015701,0,0.0041631,0.00034857,2.7577e+08,1.7096e+07,0,7.5283e+08,1.2586e+07,12990,12054,1,12054,1,0.00074745,5.1457e-07,0,0.0012684,-0.00011618,1.773e+08,1.0276e+05,0,2.3906e+08,3.9862e+05,12053,11097,1,11097,1,-0.0018512,-0.00015717,0,7.1063e-06,-0.00077082,-7.5283e+08,-1.7063e+07,0,8.7406e+05,-5.0777e+06,11096,11599,1,11599,1,-0.00054571,-3.4351e-05,0,0.00062539,-0.00035234,-2.2139e+08,-7.4892e+06,0,1.855e+08,-7.5026e+05,11598,12509,1,12509,1,0.0019997,3.7158e-05,0,0.0020034,0.00010796,2.39e+08,7.4415e+06,0,2.5787e+08,3.9772e+06,12508,527.81,0,527.81,0,0.0015282,6.3219e-05,0,0.00096687,0.00028093,3.048e+08,9.0223e+06,0,1.5856e+08,4.137e+06,527.81,1
1820,6.44,12054,1,12054,1,0.00087996,1.0072e-06,0,0.0015195,-0.00014607,-1575.7,10268,0,2.5914e+08,2.0173e+06,12053,12991,1,12991,1,0.005019,0.00024993,0,0.005019,0.00036758,2.7046e+08,2.3702e+07,0,7.9305e+08,1.8749e+07,12990,12054,1,12054,1,0.00080835,7.8088e-07,0,0.0013159,-0.0001317,1.7169e+08,1.54e+05,0,2.3288e+08,1.8807e+05,12053,11097,1,11097,1,-0.0019501,-0.0002502,0,2.3344e-05,-0.00092906,-7.9305e+08,-2.3643e+07,0,7.7168e+06,-7.7223e+06,11096,11599,1,11599,1,-0.00052253,-4.8619e-05,0,0.00063453,-0.00037059,-2.1159e+08,-1.0195e+07,0,1.7573e+08,-1.7846e+06,11598,12509,1,12509,1,0.0021127,5.1757e-05,0,0.0021149,0.00010559,2.3248e+08,1.0212e+07,0,2.6031e+08,5.2475e+06,12508,527.81,0,527.81,0,0.0016476,9.4792e-05,0,0.00109,0.0002987,3.0551e+08,1.2164e+07,0,1.6215e+08,6.2186e+06,527.81,1
1820,6.45,12054,1,12054,1,0.0010529,1.1868e-06,0,0.0016893,-0.00016505,-1885.2,8438.3,0,2.568e+08,2.3785e+06,12053,12991,1,12991,1,0.0067905,0.00045797,0,0.0067905,0.00039867,2.8616e+08,3.4829e+07,0,8.5857e+08,2.9146e+07,12990,12054,1,12054,1,0.0009485,4.3146e-07,0,0.0013971,-0.00015482,1.5849e+08,68152,0,2.243e+08,70077,12053,11097,1,11097,1,-0.0021114,-0.00045898,0,1.4623e-05,-0.0012564,-8.5857e+08,-3.478e+07,0,4.4937e+06,-1.2272e+07,11096,11599,1,11599,1,-0.00047976,-7.2144e-05,0,0.00074734,-0.00037314,-1.9342e+08,-1.4277e+07,0,1.6244e+08,-3.9095e+06,11598,12509,1,12509,1,0.0022454,7.7672e-05,0,0.0022575,9.5787e-05,2.2528e+08,1.4131e+07,0,2.7009e+08,6.9786e+06,12508,527.81,0,527.81,0,0.0018712,0.00015805,0,0.0013343,0.00032774,3.0687e+08,1.7067e+07,0,1.6875e+08,9.68e+06,527.81,1
1820,6.46,12054,1,12054,1,0.0013662,1.4558e-06,0,0.0019997,-0.00018572,-164.46,14939,0,2.5215e+08,2.8225e+06,12053,12991,1,12991,1,0.011456,0.0010454,0,0.011456,0.00045283,3.2004e+08,5.4184e+07,0,9.7191e+08,4.6293e+07,12990,12054,1,12054,1,0.0011064,8.6809e-07,0,0.0014859,-0.00017676,1.425e+08,1.4892e+05,0,2.1099e+08,-1.5139e+05,12053,11097,1,11097,1,-0.0023904,-0.0010464,0,2.7171e-05,-0.0021087,-9.7191e+08,-5.409e+07,0,8.1757e+06,-2.0395e+07,11096,11599,1,11599,1,-0.00037579,-0.00011533,0,0.0007286,-0.00036462,-1.5084e+08,-1.9439e+07,0,1.4595e+08,-7.3901e+06,11598,12509,1,12509,1,0.0023489,0.00011995,0,0.0023825,8.6431e-05,2.1292e+08,1.9109e+07,0,2.8555e+08,9.9653e+06,12508,527.81,0,527.81,0,0.0023929,0.00031103,0,0.0019207,0.00038018,3.0907e+08,2.48e+07,0,1.8035e+08,1.5394e+07,527.81,1
1820,6.47,12054,1,12054,1,0.0019891,1.895e-06,0,0.0026293,-0.00016714,-1322.6,21862,0,2.4048e+08,3.2831e+06,12053,12991,1,12991,1,0.028673,0.0033033,0,0.028673,0.00054654,3.7715e+08,8.519e+07,0,1.165e+09,6.9143e+07,12990,12054,1,12054,1,0.0012587,1.5399e-06,0,0.0015399,-0.00018582,1.2007e+08,1.9581e+05,0,1.86e+08,-3.7925e+05,12053,11097,1,11097,1,-0.002866,-0.0033324,0,4.5178e-05,-0.0050871,-1.165e+09,-8.5212e+07,0,1.1254e+07,-3.3321e+07,11096,11599,1,11599,1,-0.00019773,-0.00018507,0,0.00084792,-0.0002657,-8.4955e+07,-2.6236e+07,0,1.2048e+08,-1.2411e+07,11598,12509,1,12509,1,0.0024208,0.0001852,0,0.0025821,7.0715e-05,1.8783e+08,2.5626e+07,0,2.8885e+08,1.4284e+07,12508,527.81,0,527.81,0,0.0039904,0.00075636,0,0.0036793,0.00048997,3.106e+08,3.5518e+07,0,1.9968e+08,2.3123e+07,527.81,1
