"N","Time","avg(GlobalElementId)","avg(ObjectId)","avg(PedigreeElementId)","avg(alpha)","avg(strain_x (0))","avg(strain_x (1))","avg(strain_x (2))","avg(strain_x (Magnitude))","avg(strain_yy)","avg(stress_x (0))","avg(stress_x (1))","avg(stress_x (2))","avg(stress_x (Magnitude))","avg(stress_yy)","avg(vtkOriginalCellIds)","max(GlobalElementId)","max(ObjectId)","max(PedigreeElementId)","max(alpha)","max(strain_x (0))","max(strain_x (1))","max(strain_x (2))","max(strain_x (Magnitude))","max(strain_yy)","max(stress_x (0))","max(stress_x (1))","max(stress_x (2))","max(stress_x (Magnitude))","max(stress_yy)","max(vtkOriginalCellIds)","med(GlobalElementId)","med(ObjectId)","med(PedigreeElementId)","med(alpha)","med(strain_x (0))","med(strain_x (1))","med(strain_x (2))","med(strain_x (Magnitude))","med(strain_yy)","med(stress_x (0))","med(stress_x (1))","med(stress_x (2))","med(stress_x (Magnitude))","med(stress_yy)","med(vtkOriginalCellIds)","min(GlobalElementId)","min(ObjectId)","min(PedigreeElementId)","min(alpha)","min(strain_x (0))","min(strain_x (1))","min(strain_x (2))","min(strain_x (Magnitude))","min(strain_yy)","min(stress_x (0))","min(stress_x (1))","min(stress_x (2))","min(stress_x (Magnitude))","min(stress_yy)","min(vtkOriginalCellIds)","q1(GlobalElementId)","q1(ObjectId)","q1(PedigreeElementId)","q1(alpha)","q1(strain_x (0))","q1(strain_x (1))","q1(strain_x (2))","q1(strain_x (Magnitude))","q1(strain_yy)","q1(stress_x (0))","q1(stress_x (1))","q1(stress_x (2))","q1(stress_x (Magnitude))","q1(stress_yy)","q1(vtkOriginalCellIds)","q3(GlobalElementId)","q3(ObjectId)","q3(PedigreeElementId)","q3(alpha)","q3(strain_x (0))","q3(strain_x (1))","q3(strain_x (2))","q3(strain_x (Magnitude))","q3(strain_yy)","q3(stress_x (0))","q3(stress_x (1))","q3(stress_x (2))","q3(stress_x (Magnitude))","q3(stress_yy)","q3(vtkOriginalCellIds)","std(GlobalElementId)","std(ObjectId)","std(PedigreeElementId)","std(alpha)","std(strain_x (0))","std(strain_x (1))","std(strain_x (2))","std(strain_x (Magnitude))","std(strain_yy)","std(stress_x (0))","std(stress_x (1))","std(stress_x (2))","std(stress_x (Magnitude))","std(stress_yy)","std(vtkOriginalCellIds)","vtkValidPointMask"
2054,0,12506,1,12506,1,0,0,0,0,0,0,0,0,0,0,12505,13656,1,13656,1,0,0,0,0,0,0,0,0,0,0,13655,12505,1,12505,1,0,0,0,0,0,0,0,0,0,0,12504,11321,1,11321,1,0,0,0,0,0,0,0,0,0,0,11320,11952,1,11952,1,0,0,0,0,0,0,0,0,0,0,11951,13059,1,13059,1,0,0,0,0,0,0,0,0,0,0,13058,640.53,0,640.53,0,0,0,0,0,0,0,0,0,0,0,640.53,1
2054,0.01,12506,1,12506,1,1.0464e-06,-7.1091e-09,0,1.5054e-06,-1.9694e-07,44500,-764.74,0,2.3117e+05,-1768.1,12505,13656,1,13656,1,3.6377e-06,1.4016e-07,0,3.6377e-06,2.7389e-07,2.9204e+05,12153,0,5.8939e+05,8743.7,13655,12505,1,12505,1,1.0054e-06,-2.2204e-09,0,1.2538e-06,-1.957e-07,1.7221e+05,-351.99,0,2.3067e+05,-1073.8,12504,11321,1,11321,1,-1.4495e-06,-1.3136e-07,0,7.8692e-10,-7.9681e-07,-5.8939e+05,-21060,0,4220.5,-52894,11320,11952,1,11952,1,-2.6299e-07,-1.656e-08,0,6.5047e-07,-4.4714e-07,-1.0708e+05,-1969,0,1.6321e+05,-2608.1,11951,13059,1,13059,1,2.3471e-06,4.3055e-09,0,2.3477e-06,4.8569e-08,2.3809e+05,982.12,0,2.6693e+05,-1.9722,13058,640.53,0,640.53,0,1.4964e-06,2.4447e-08,0,1.0335e-06,2.8262e-07,2.5981e+05,3380.5,0,1.2661e+05,3737.9,640.53,1
2054,0.02,12506,1,12506,1,2.2416e-06,-2.4994e-09,0,3.1364e-06,-4.193e-07,1.1007e+05,-406.27,0,4.745e+05,-2741.6,12505,13656,1,13656,1,7.4632e-06,4.277e-08,0,7.4632e-06,5.4918e-07,5.9891e+05,8943.6,0,1.1926e+06,1430.8,13655,12505,1,12505,1,2.2431e-06,1.0621e-09,0,2.6749e-06,-4.4194e-07,3.703e+05,168.54,0,4.8624e+05,-1354.6,12504,11321,1,11321,1,-2.9318e-06,-1.1015e-07,0,1.8024e-08,-1.3999e-06,-1.1926e+06,-20816,0,14425,-28442,11320,11952,1,11952,1,-4.2751e-07,-1.2393e-08,0,1.2462e-06,-9.1164e-07,-1.7409e+05,-2142.2,0,3.4031e+05,-3662.8,11951,13059,1,13059,1,4.9047e-06,1.1403e-08,0,4.9048e-06,7.6903e-08,4.9839e+05,1954.3,0,5.4537e+05,-215.2,13058,640.53,0,640.53,0,3.0806e-06,2.5094e-08,0,2.1624e-06,5.7429e-07,5.2555e+05,4039.9,0,2.5117e+05,4270.8,640.53,1
2054,0.03,12506,1,12506,1,3.3632e-06,6.3876e-10,0,4.7096e-06,-6.1656e-07,1.6497e+05,99.164,0,7.1329e+05,-128.78,12505,13656,1,13656,1,1.1085e-05,1.0214e-08,0,1.1085e-05,8.2074e-07,8.8994e+05,1317.4,0,1.77e+06,68.592,13655,12505,1,12505,1,3.3598e-06,4.5933e-10,0,4.0054e-06,-6.2006e-07,5.5479e+05,67.735,0,7.272e+05,-81.509,12504,11321,1,11321,1,-4.3525e-06,-7.0615e-09,0,2.8483e-08,-2.0561e-06,-1.77e+06,-1171.8,0,23670,-3442.4,11320,11952,1,11952,1,-6.4565e-07,-1.4594e-09,0,1.88e-06,-1.3623e-06,-2.6198e+05,-243.45,0,5.131e+05,-136.75,11951,13059,1,13059,1,7.3745e-06,2.9069e-09,0,7.3745e-06,1.299e-07,7.4952e+05,473.94,0,8.2021e+05,-40.294,13058,640.53,0,640.53,0,4.627e-06,3.3985e-09,0,3.2457e-06,8.6132e-07,7.9069e+05,523.95,0,3.7868e+05,253.15,640.53,1
2054,0.04,12506,1,12506,1,4.4874e-06,7.7387e-10,0,6.2843e-06,-8.2243e-07,2.2005e+05,95.242,0,9.5183e+05,-103.58,12505,13656,1,13656,1,1.4786e-05,1.1449e-08,0,1.4786e-05,1.0949e-06,1.187e+06,1691.5,0,2.3608e+06,107.05,13655,12505,1,12505,1,4.4838e-06,-1.2267e-10,0,5.3455e-06,-8.2133e-07,7.4045e+05,-12.416,0,9.7032e+05,-68.627,12504,11321,1,11321,1,-5.8055e-06,-5.3099e-09,0,3.7923e-08,-2.7424e-06,-2.3608e+06,-823.8,0,31539,-781.87,11320,11952,1,11952,1,-8.6232e-07,-1.0698e-09,0,2.5091e-06,-1.8177e-06,-3.4989e+05,-186.57,0,6.849e+05,-118.84,11951,13059,1,13059,1,9.8399e-06,2.3075e-09,0,9.8399e-06,1.7373e-07,1.0001e+06,332.22,0,1.0944e+06,-36.052,13058,640.53,0,640.53,0,6.1742e-06,3.1881e-09,0,4.3307e-06,1.1494e-06,1.0552e+06,459.72,0,5.0536e+05,115.88,640.53,1
2054,0.05,12506,1,12506,1,5.6097e-06,-2.6532e-09,0,7.8562e-06,-1.0288e-06,2.7506e+05,-290.44,0,1.1899e+06,-606.59,12505,13656,1,13656,1,1.8803e-05,3.3542e-07,0,1.8817e-05,1.3697e-06,1.5075e+06,22833,0,2.9542e+06,39413,13655,12505,1,12505,1,5.6043e-06,-1.2945e-09,0,6.682e-06,-1.0281e-06,9.2554e+05,-249.23,0,1.213e+06,-75.292,12504,11321,1,11321,1,-7.2645e-06,-2.4029e-06,0,4.7761e-08,-3.6125e-06,-2.9542e+06,-1.7389e+05,0,39592,-1.6306e+05,11320,11952,1,11952,1,-1.078e-06,-7.2505e-09,0,3.137e-06,-2.2714e-06,-4.3744e+05,-1019.1,0,8.5628e+05,-229.75,11951,13059,1,13059,1,1.2299e-05,4.3767e-09,0,1.2299e-05,2.1697e-07,1.25e+06,666.15,0,1.3679e+06,25.609,13058,640.53,0,640.53,0,7.7185e-06,5.9391e-08,0,5.4142e-06,1.4377e-06,1.3191e+06,4358.6,0,6.3178e+05,6063.1,640.53,1
2054,0.06,12506,1,12506,1,6.6705e-06,-8.4231e-10,0,9.3415e-06,-1.2221e-06,3.2713e+05,-132.48,0,1.4148e+06,-8.6553,12505,13656,1,13656,1,2.1971e-05,8.9551e-10,0,2.1971e-05,1.6268e-06,1.7638e+06,118.96,0,3.5076e+06,80.163,13655,12505,1,12505,1,6.6692e-06,-7.0891e-10,0,7.9508e-06,-1.2208e-06,1.1013e+06,-115.41,0,1.4434e+06,-10.482,12504,11321,1,11321,1,-8.6255e-06,-2.9968e-09,0,5.8088e-08,-4.0749e-06,-3.5076e+06,-509.64,0,47368,-72.55,11320,11952,1,11952,1,-1.2817e-06,-1.58e-09,0,3.729e-06,-2.7014e-06,-5.2005e+05,-245.66,0,1.0179e+06,-33.242,11951,13059,1,13059,1,1.4624e-05,-8.2344e-11,0,1.4624e-05,2.5856e-07,1.4864e+06,-10.639,0,1.6266e+06,12.545,13058,640.53,0,640.53,0,9.1779e-06,8.982e-10,0,6.4378e-06,1.7087e-06,1.5684e+06,137.76,0,7.5112e+05,30.514,640.53,1
2054,0.07,12506,1,12506,1,7.7902e-06,-1.8823e-10,0,1.091e-05,-1.4272e-06,3.8204e+05,-29.418,0,1.6523e+06,-7.5921,12505,13656,1,13656,1,2.5653e-05,9.3191e-10,0,2.5653e-05,1.8994e-06,2.0594e+06,126.4,0,4.0954e+06,44.129,13655,12505,1,12505,1,7.7899e-06,-1.9553e-10,0,9.2868e-06,-1.426e-06,1.2864e+06,-33.522,0,1.6858e+06,-6.0462,12504,11321,1,11321,1,-1.0071e-05,-9.6576e-10,0,6.7996e-08,-4.7577e-06,-4.0954e+06,-168.21,0,55365,-65.733,11320,11952,1,11952,1,-1.4969e-06,-4.5815e-10,0,4.3547e-06,-3.1546e-06,-6.0735e+05,-68.472,0,1.1887e+06,-16.402,11951,13059,1,13059,1,1.7078e-05,2.5821e-11,0,1.7078e-05,3.0201e-07,1.7358e+06,2.4899,0,1.8995e+06,1.2613,13058,640.53,0,640.53,0,1.0719e-05,3.7028e-10,0,7.5185e-06,1.9955e-06,1.8317e+06,55.749,0,8.772e+05,13.797,640.53,1
2054,0.08,12506,1,12506,1,8.9047e-06,7.0928e-11,0,1.247e-05,-1.6313e-06,4.3672e+05,12.26,0,1.8887e+06,10.23,12505,13656,1,13656,1,2.9321e-05,1.0676e-09,0,2.9321e-05,2.171e-06,2.3539e+06,190.98,0,4.6808e+06,51.079,13655,12505,1,12505,1,8.9048e-06,3.6408e-11,0,1.0616e-05,-1.63e-06,1.4705e+06,5.0574,0,1.9271e+06,14.14,12504,11321,1,11321,1,-1.1511e-05,-4.4617e-10,0,7.738e-08,-5.438e-06,-4.6808e+06,-83.279,0,63155,-90.121,11320,11952,1,11952,1,-1.711e-06,-8.6102e-11,0,4.9773e-06,-3.6056e-06,-6.9418e+05,-14.639,0,1.3587e+06,-1.8206,11951,13059,1,13059,1,1.952e-05,1.8337e-10,0,1.952e-05,3.4526e-07,1.984e+06,28.285,0,2.1711e+06,23.651,13058,640.53,0,640.53,0,1.2252e-05,2.8683e-10,0,8.5941e-06,2.281e-06,2.0937e+06,43.661,0,1.0027e+06,18.677,640.53,1
2054,0.09,12506,1,12506,1,1.0017e-05,-1.9488e-09,0,1.4028e-05,-1.8354e-06,4.9119e+05,-86.289,0,2.1247e+06,-73.665,12505,13656,1,13656,1,3.3087e-05,1.4822e-07,0,3.3087e-05,2.4427e-06,2.6564e+06,10182,0,5.2667e+06,10579,13655,12505,1,12505,1,1.0013e-05,-1.5088e-11,0,1.1937e-05,-1.8333e-06,1.6536e+06,-2.7593,0,2.1666e+06,32.757,12504,11321,1,11321,1,-1.2951e-05,-4.6685e-07,0,8.6922e-08,-6.1376e-06,-5.2667e+06,-31706,0,71029,-16451,11320,11952,1,11952,1,-1.9248e-06,-7.1563e-10,0,5.6e-06,-4.0566e-06,-7.8093e+05,-111.16,0,1.5286e+06,-57.5,11951,13059,1,13059,1,2.1965e-05,9.1985e-10,0,2.1965e-05,3.8843e-07,2.2324e+06,164.52,0,2.4435e+06,185.78,13058,640.53,0,640.53,0,1.3783e-05,2.1614e-08,0,9.668e-06,2.5664e-06,2.3553e+06,1512.2,0,1.128e+06,1346.7,640.53,1
2054,0.1,12506,1,12506,1,1.1135e-05,-8.0244e-10,0,1.559e-05,-2.0404e-06,5.4655e+05,-17.501,0,2.361e+06,-132.74,12505,13656,1,13656,1,3.6763e-05,1.6934e-07,0,3.6763e-05,2.7139e-06,2.9511e+06,11689,0,5.8513e+06,12745,13655,12505,1,12505,1,1.1135e-05,1.3277e-10,0,1.3268e-05,-2.0388e-06,1.8388e+06,26.785,0,2.4074e+06,63.054,12504,11321,1,11321,1,-1.4389e-05,-3.0963e-07,0,9.1541e-08,-6.8378e-06,-5.8513e+06,-20980,0,77260,-19338,11320,11952,1,11952,1,-2.1365e-06,-9.7584e-10,0,6.2194e-06,-4.5084e-06,-8.6685e+05,-157.76,0,1.6974e+06,-174.36,11951,13059,1,13059,1,2.441e-05,1.5441e-09,0,2.441e-05,4.3119e-07,2.481e+06,297.86,0,2.7158e+06,235.28,13058,640.53,0,640.53,0,1.5316e-05,1.859e-08,0,1.0745e-05,2.8522e-06,2.617e+06,1323.7,0,1.2532e+06,1322.2,640.53,1
2054,0.11,12506,1,12506,1,1.2242e-05,-9.1376e-10,0,1.7143e-05,-2.2436e-06,6.0056e+05,-22.775,0,2.5964e+06,-277.54,12505,13656,1,13656,1,4.0538e-05,8.5892e-07,0,4.0538e-05,2.9851e-06,3.255e+06,58438,0,6.436e+06,17148,13655,12505,1,12505,1,1.2238e-05,-4.4428e-10,0,1.4583e-05,-2.2425e-06,2.0209e+06,-87.051,0,2.6445e+06,11.78,12504,11321,1,11321,1,-1.5827e-05,-3.2455e-07,0,1.0237e-07,-7.5243e-06,-6.436e+06,-22203,0,85520,-31487,11320,11952,1,11952,1,-2.3493e-06,-1.7563e-09,0,6.8413e-06,-4.959e-06,-9.5313e+05,-251.99,0,1.867e+06,-288.74,11951,13059,1,13059,1,2.6849e-05,1.6145e-09,0,2.6849e-05,4.7413e-07,2.7288e+06,319.78,0,2.9864e+06,167.78,13058,640.53,0,640.53,0,1.6841e-05,2.9824e-08,0,1.1813e-05,3.1362e-06,2.8781e+06,2111.7,0,1.3783e+06,2112.8,640.53,1
2054,0.12,12506,1,12506,1,1.3351e-05,1.4093e-10,0,1.8695e-05,-2.4463e-06,6.5495e+05,55.068,0,2.8314e+06,-109.51,12505,13656,1,13656,1,4.4021e-05,1.4735e-07,0,4.4021e-05,3.2548e-06,3.5343e+06,10001,0,7.0177e+06,7088.1,13655,12505,1,12505,1,1.3351e-05,3.8485e-10,0,1.5914e-05,-2.4438e-06,2.2047e+06,109.09,0,2.8858e+06,-10.446,12504,11321,1,11321,1,-1.7257e-05,-7.0957e-08,0,1.1386e-07,-8.1654e-06,-7.0177e+06,-4899.5,0,93947,-12778,11320,11952,1,11952,1,-2.5639e-06,-3.5062e-10,0,7.4612e-06,-5.4057e-06,-1.0403e+06,-64.42,0,2.0365e+06,-132.46,11951,13059,1,13059,1,2.9268e-05,1.6902e-09,0,2.9268e-05,5.1736e-07,2.9747e+06,253.59,0,3.2557e+06,126.69,13058,640.53,0,640.53,0,1.8368e-05,9.0845e-09,0,1.2885e-05,3.4202e-06,3.1386e+06,662.4,0,1.5031e+06,819.38,640.53,1
2054,0.13,12506,1,12506,1,1.4467e-05,-2.4052e-10,0,2.0256e-05,-2.6511e-06,7.1022e+05,46.509,0,3.0674e+06,-193.19,12505,13656,1,13656,1,4.7916e-05,1.0575e-07,0,4.7916e-05,3.5256e-06,3.8488e+06,7660.8,0,7.6014e+06,24974,13655,12505,1,12505,1,1.4467e-05,5.3761e-10,0,1.7241e-05,-2.6466e-06,2.389e+06,117.03,0,3.1304e+06,-2.8043,12504,11321,1,11321,1,-1.8693e-05,-3.4096e-07,0,1.2147e-07,-8.8884e-06,-7.6014e+06,-23236,0,1.0123e+05,-23707,11320,11952,1,11952,1,-2.7746e-06,5.3072e-11,0,8.08e-06,-5.8571e-06,-1.1257e+06,15.789,0,2.2051e+06,-244.61,11951,13059,1,13059,1,3.1709e-05,1.6434e-09,0,3.1709e-05,5.6e-07,3.2228e+06,242.25,0,3.527e+06,96.57,13058,640.53,0,640.53,0,1.9899e-05,1.54e-08,0,1.396e-05,3.7056e-06,3.4e+06,1082.1,0,1.6281e+06,1508.9,640.53,1
2054,0.14,12506,1,12506,1,1.5573e-05,-4.5695e-09,0,2.1808e-05,-2.8533e-06,7.6388e+05,-356.49,0,3.3028e+06,-112.76,12505,13656,1,13656,1,5.1535e-05,1.7682e-07,0,5.1535e-05,3.7968e-06,4.1376e+06,12392,0,8.1861e+06,26891,13655,12505,1,12505,1,1.557e-05,-9.1266e-10,0,1.8559e-05,-2.8492e-06,2.5713e+06,-174.31,0,3.3643e+06,41.458,12504,11321,1,11321,1,-2.013e-05,-6.1221e-07,0,1.3281e-07,-9.5637e-06,-8.1861e+06,-41594,0,1.0959e+05,-28251,11320,11952,1,11952,1,-2.9906e-06,-2.956e-09,0,8.7037e-06,-6.3072e-06,-1.2133e+06,-393.34,0,2.3755e+06,-307.94,11951,13059,1,13059,1,3.4142e-05,6.0777e-10,0,3.4142e-05,6.038e-07,3.4702e+06,126.11,0,3.7991e+06,349.54,13058,640.53,0,640.53,0,2.1427e-05,2.5549e-08,0,1.5031e-05,3.9895e-06,3.6612e+06,1821.7,0,1.7533e+06,2080.5,640.53,1
2054,0.15,12506,1,12506,1,1.669e-05,1.8802e-10,0,2.3369e-05,-3.0578e-06,8.1912e+05,49.494,0,3.539e+06,-40.591,12505,13656,1,13656,1,5.4977e-05,2.4266e-08,0,5.4977e-05,4.0675e-06,4.4136e+06,1647,0,8.7699e+06,1440.4,13655,12505,1,12505,1,1.6689e-05,2.5691e-10,0,1.9891e-05,-3.0541e-06,2.7559e+06,66.076,0,3.6113e+06,-8.9603,12504,11321,1,11321,1,-2.1566e-05,-3.5701e-08,0,1.415e-07,-1.02e-05,-8.7699e+06,-2423.9,0,1.1718e+05,-2749.8,11320,11952,1,11952,1,-3.2025e-06,-2.2484e-10,0,9.3235e-06,-6.757e-06,-1.2993e+06,-42.6,0,2.5446e+06,-71.477,11951,13059,1,13059,1,3.6582e-05,1.1899e-09,0,3.6582e-05,6.4627e-07,3.7181e+06,183.66,0,4.069e+06,121.88,13058,640.53,0,640.53,0,2.2958e-05,3.9042e-09,0,1.6106e-05,4.2747e-06,3.9228e+06,297.11,0,1.8785e+06,428.37,640.53,1
2054,0.16,12506,1,12506,1,1.7799e-05,2.8132e-10,0,2.4922e-05,-3.2615e-06,8.7365e+05,60.448,0,3.7742e+06,-145.31,12505,13656,1,13656,1,5.8649e-05,3.4856e-08,0,5.8649e-05,4.3377e-06,4.7084e+06,2523.1,0,9.3523e+06,2671.6,13655,12505,1,12505,1,1.7798e-05,4.0044e-10,0,2.1212e-05,-3.2579e-06,2.9391e+06,95.975,0,3.8515e+06,0.42188,12504,11321,1,11321,1,-2.2998e-05,-5.9732e-08,0,1.503e-07,-1.0892e-05,-9.3523e+06,-4046.7,0,1.2479e+05,-5829.9,11320,11952,1,11952,1,-3.4148e-06,-1.0891e-10,0,9.9423e-06,-7.2061e-06,-1.3855e+06,-24.469,0,2.7134e+06,-101.14,11951,13059,1,13059,1,3.9013e-05,1.2952e-09,0,3.9013e-05,6.8916e-07,3.9652e+06,188.36,0,4.3394e+06,68.585,13058,640.53,0,640.53,0,2.4484e-05,5.8988e-09,0,1.7176e-05,4.5592e-06,4.1834e+06,425.59,0,2.0033e+06,721.92,640.53,1
2054,0.17,12506,1,12506,1,1.8907e-05,-5.8289e-10,0,2.6474e-05,-3.4639e-06,9.2772e+05,-51.637,0,4.0094e+06,-21.356,12505,13656,1,13656,1,6.2289e-05,8.719e-08,0,6.2289e-05,4.6082e-06,5.0008e+06,5922.1,0,9.9356e+06,2345,13655,12505,1,12505,1,1.8905e-05,-1.7195e-10,0,2.2534e-05,-3.4599e-06,3.1219e+06,-42.017,0,4.0907e+06,27.968,12504,11321,1,11321,1,-2.4433e-05,-4.9634e-08,0,1.6184e-07,-1.1555e-05,-9.9356e+06,-3497.1,0,1.3327e+05,-7153.9,11320,11952,1,11952,1,-3.6293e-06,-8.1145e-10,0,1.0564e-05,-7.6544e-06,-1.4725e+06,-116.32,0,2.8831e+06,-28.811,11951,13059,1,13059,1,4.1444e-05,2.9117e-10,0,4.1444e-05,7.3247e-07,4.2123e+06,68.953,0,4.6101e+06,118.85,13058,640.53,0,640.53,0,2.601e-05,5.8239e-09,0,1.8246e-05,4.8428e-06,4.4443e+06,420.52,0,2.1283e+06,540.36,640.53,1
2054,0.18,12506,1,12506,1,2.0015e-05,3.9626e-10,0,2.8027e-05,-3.6669e-06,9.818e+05,56.183,0,4.2448e+06,-46.936,12505,13656,1,13656,1,6.5968e-05,6.3597e-08,0,6.5968e-05,4.879e-06,5.2965e+06,4373.4,0,1.052e+07,7264.7,13655,12505,1,12505,1,2.0015e-05,2.7885e-10,0,2.3859e-05,-3.6637e-06,3.3051e+06,53.956,0,4.331e+06,-6.7961,12504,11321,1,11321,1,-2.5869e-05,-9.5333e-08,0,1.7302e-07,-1.2234e-05,-1.052e+07,-6447.6,0,1.4164e+05,-8593.6,11320,11952,1,11952,1,-3.8443e-06,-7.0511e-12,0,1.1186e-05,-8.1038e-06,-1.5597e+06,-2.1918,0,3.0532e+06,-66.83,11951,13059,1,13059,1,4.3873e-05,8.2508e-10,0,4.3873e-05,7.7569e-07,4.4592e+06,123.22,0,4.8803e+06,39.078,13058,640.53,0,640.53,0,2.7536e-05,4.9806e-09,0,1.9316e-05,5.1268e-06,4.7054e+06,350.86,0,2.2534e+06,504.64,640.53,1
2054,0.19,12506,1,12506,1,2.1138e-05,-3.0802e-10,0,2.9597e-05,-3.8725e-06,1.0375e+06,-20.853,0,4.4821e+06,9.9132,12505,13656,1,13656,1,6.9645e-05,4.1148e-08,0,6.9645e-05,5.1512e-06,5.5911e+06,2792.9,0,1.1106e+07,2685.2,13655,12505,1,12505,1,2.1137e-05,-6.164e-11,0,2.5192e-05,-3.869e-06,3.4904e+06,-13.805,0,4.5743e+06,9.5821,12504,11321,1,11321,1,-2.7311e-05,-3.352e-08,0,1.788e-07,-1.2924e-05,-1.1106e+07,-2293.6,0,1.4831e+05,-4636.6,11320,11952,1,11952,1,-4.0553e-06,-5.2846e-10,0,1.1807e-05,-8.5571e-06,-1.6453e+06,-81.508,0,3.2223e+06,-38.469,11951,13059,1,13059,1,4.633e-05,4.133e-10,0,4.633e-05,8.1845e-07,4.7089e+06,85.261,0,5.1531e+06,100.01,13058,640.53,0,640.53,0,2.9076e-05,4.1586e-09,0,2.0398e-05,5.4134e-06,4.9681e+06,298.61,0,2.379e+06,520.33,640.53,1
2054,0.2,12506,1,12506,1,2.2247e-05,-8.2739e-11,0,3.1153e-05,-4.0761e-06,1.0914e+06,65.622,0,4.7181e+06,-83.246,12505,13656,1,13656,1,7.3306e-05,4.5294e-08,0,7.3306e-05,5.4231e-06,5.885e+06,3065.5,0,1.1693e+07,3464.2,13655,12505,1,12505,1,2.2245e-05,5.6114e-10,0,2.6516e-05,-4.0717e-06,3.6734e+06,108,0,4.8142e+06,-7.1466,12504,11321,1,11321,1,-2.8754e-05,-1.1353e-07,0,1.9114e-07,-1.36e-05,-1.1693e+07,-7965.9,0,1.5709e+05,-9965.8,11320,11952,1,11952,1,-4.272e-06,-1.7649e-10,0,1.2432e-05,-9.0074e-06,-1.7332e+06,-35.795,0,3.3933e+06,-90.764,11951,13059,1,13059,1,4.8767e-05,1.6871e-09,0,4.8767e-05,8.6203e-07,4.9566e+06,279.32,0,5.4244e+06,77.341,13058,640.53,0,640.53,0,3.0607e-05,6.8271e-09,0,2.147e-05,5.6987e-06,5.23e+06,509.11,0,2.5046e+06,641.77,640.53,1
2054,0.21,12506,1,12506,1,2.3353e-05,3.4574e-10,0,3.2699e-05,-4.2781e-06,1.1459e+06,45.777,0,4.9522e+06,53.861,12505,13656,1,13656,1,7.6937e-05,1.3857e-07,0,7.6937e-05,5.6917e-06,6.1766e+06,9536.6,0,1.2272e+07,5864.1,13655,12505,1,12505,1,2.3352e-05,2.4985e-10,0,2.7834e-05,-4.2751e-06,3.8562e+06,57.509,0,5.0526e+06,40.931,12504,11321,1,11321,1,-3.0178e-05,-6.0617e-08,0,1.9969e-07,-1.4273e-05,-1.2272e+07,-4138.3,0,1.6453e+05,-8602.6,11320,11952,1,11952,1,-4.4829e-06,-2.1036e-10,0,1.3047e-05,-9.4545e-06,-1.8188e+06,-47.339,0,3.5612e+06,-17.828,11951,13059,1,13059,1,5.1189e-05,8.6833e-10,0,5.1189e-05,9.0475e-07,5.2027e+06,138.4,0,5.6937e+06,176.22,13058,640.53,0,640.53,0,3.2126e-05,7.4652e-09,0,2.2536e-05,5.9809e-06,5.4893e+06,526.01,0,2.6287e+06,653.37,640.53,1
2054,0.22,12506,1,12506,1,2.4465e-05,-3.0313e-11,0,3.4259e-05,-4.4821e-06,1.2001e+06,31.49,0,5.1886e+06,-8.2844,12505,13656,1,13656,1,8.0638e-05,2.3619e-07,0,8.0638e-05,5.9639e-06,6.4739e+06,16207,0,1.2859e+07,12403,13655,12505,1,12505,1,2.4461e-05,2.6722e-10,0,2.9158e-05,-4.4769e-06,4.0393e+06,50.578,0,5.2925e+06,22.643,12504,11321,1,11321,1,-3.1621e-05,-1.6511e-07,0,2.1122e-07,-1.4952e-05,-1.2859e+07,-11596,0,1.7307e+05,-13087,11320,11952,1,11952,1,-4.6987e-06,-4.575e-10,0,1.3672e-05,-9.9057e-06,-1.9064e+06,-89.265,0,3.7319e+06,-55.275,11951,13059,1,13059,1,5.363e-05,9.0379e-10,0,5.363e-05,9.4823e-07,5.4508e+06,151.31,0,5.9654e+06,190.25,13058,640.53,0,640.53,0,3.3659e-05,1.3e-08,0,2.3611e-05,6.2666e-06,5.7515e+06,927.9,0,2.7543e+06,953.95,640.53,1
2054,0.23,12506,1,12506,1,2.5567e-05,-3.0614e-09,0,3.5804e-05,-4.6847e-06,1.2539e+06,-206.54,0,5.4228e+06,-189.81,12505,13656,1,13656,1,8.4323e-05,3.4364e-07,0,8.4323e-05,6.2335e-06,6.7699e+06,23629,0,1.344e+07,8375.6,13655,12505,1,12505,1,2.5565e-05,-2.7309e-10,0,3.0474e-05,-4.6798e-06,4.2215e+06,-55.678,0,5.5297e+06,18.322,12504,11321,1,11321,1,-3.305e-05,-2.5937e-07,0,2.2186e-07,-1.5641e-05,-1.344e+07,-17582,0,1.8123e+05,-19758,11320,11952,1,11952,1,-4.9125e-06,-2.7702e-09,0,1.4291e-05,-1.0354e-05,-1.9931e+06,-277.81,0,3.9011e+06,-157.99,11951,13059,1,13059,1,5.6053e-05,5.4693e-10,0,5.6053e-05,9.9126e-07,5.6971e+06,128.17,0,6.2354e+06,169.44,13058,640.53,0,640.53,0,3.5177e-05,1.9546e-08,0,2.4675e-05,6.5502e-06,6.0113e+06,1393.6,0,2.8789e+06,1478.9,640.53,1
2054,0.24,12506,1,12506,1,2.6688e-05,1.4118e-09,0,3.7372e-05,-4.8897e-06,1.3092e+06,164.67,0,5.6601e+06,-84.465,12505,13656,1,13656,1,8.7916e-05,1.2874e-07,0,8.7916e-05,6.5061e-06,7.0581e+06,8742.8,0,1.4028e+07,2516.1,13655,12505,1,12505,1,2.6686e-05,7.3109e-10,0,3.1812e-05,-4.8848e-06,4.4068e+06,148.59,0,5.7758e+06,-4.1226,12504,11321,1,11321,1,-3.4495e-05,-5.7036e-08,0,2.3039e-07,-1.6309e-05,-1.4028e+07,-4007.6,0,1.8879e+05,-9518.8,11320,11952,1,11952,1,-5.1257e-06,6.5041e-11,0,1.4915e-05,-1.0806e-05,-2.0796e+06,12.605,0,4.0711e+06,-100.08,11951,13059,1,13059,1,5.8502e-05,1.7283e-09,0,5.8502e-05,1.0343e-06,5.946e+06,265.03,0,6.5068e+06,109.76,13058,640.53,0,640.53,0,3.6717e-05,6.3934e-09,0,2.5756e-05,6.8364e-06,6.2742e+06,454.98,0,3.0047e+06,615.57,640.53,1
2054,0.25,12506,1,12506,1,2.7793e-05,3.9197e-10,0,3.8921e-05,-5.0917e-06,1.3632e+06,71.981,0,5.8947e+06,11.881,12505,13656,1,13656,1,9.1558e-05,1.823e-08,0,9.1558e-05,6.7757e-06,7.3504e+06,1233.2,0,1.4609e+07,915.81,13655,12505,1,12505,1,2.7792e-05,4.7612e-10,0,3.313e-05,-5.0867e-06,4.5894e+06,79.8,0,6.0148e+06,0.32522,12504,11321,1,11321,1,-3.5925e-05,-2.4329e-08,0,2.4139e-07,-1.698e-05,-1.4609e+07,-1667.2,0,1.9707e+05,-1463.3,11320,11952,1,11952,1,-5.3393e-06,-1.1129e-10,0,1.5534e-05,-1.1253e-05,-2.1663e+06,-25.691,0,4.2402e+06,-42.535,11951,13059,1,13059,1,6.0926e-05,1.1271e-09,0,6.0926e-05,1.0774e-06,6.1924e+06,183.74,0,6.7763e+06,66.319,13058,640.53,0,640.53,0,3.8239e-05,1.989e-09,0,2.6823e-05,7.1192e-06,6.5344e+06,174.96,0,3.1293e+06,177.1,640.53,1
2054,0.26,12506,1,12506,1,2.891e-05,8.9727e-10,0,4.0483e-05,-5.2965e-06,1.4182e+06,136.68,0,6.1312e+06,-20.619,12505,13656,1,13656,1,9.5215e-05,3.4851e-08,0,9.5215e-05,7.0475e-06,7.6441e+06,2356.5,0,1.5195e+07,2014.8,13655,12505,1,12505,1,2.8908e-05,8.0846e-10,0,3.446e-05,-5.2917e-06,4.7738e+06,141.9,0,6.2566e+06,34.833,12504,11321,1,11321,1,-3.7366e-05,-2.3435e-08,0,2.4885e-07,-1.7677e-05,-1.5195e+07,-1604.7,0,2.0425e+05,-4787.6,11320,11952,1,11952,1,-5.5516e-06,3.0855e-10,0,1.6155e-05,-1.1705e-05,-2.2524e+06,62.983,0,4.4096e+06,-42.622,11951,13059,1,13059,1,6.3371e-05,1.4814e-09,0,6.3371e-05,1.1204e-06,6.4409e+06,234.7,0,7.0485e+06,145.64,13058,640.53,0,640.53,0,3.9773e-05,3.5455e-09,0,2.79e-05,7.4052e-06,6.7964e+06,262.93,0,3.2547e+06,530.32,640.53,1
2054,0.27,12506,1,12506,1,3.0019e-05,4.2178e-10,0,4.2038e-05,-5.4997e-06,1.4723e+06,74.746,0,6.3669e+06,-11.55,12505,13656,1,13656,1,9.8875e-05,2.7108e-08,0,9.8875e-05,7.3185e-06,7.9378e+06,1840.9,0,1.5779e+07,1065.4,13655,12505,1,12505,1,3.0018e-05,3.8263e-10,0,3.5784e-05,-5.4948e-06,4.9569e+06,62.396,0,6.4962e+06,-6.3372,12504,11321,1,11321,1,-3.8803e-05,-1.6987e-08,0,2.6125e-07,-1.8344e-05,-1.5779e+07,-1146.5,0,2.1303e+05,-3113.5,11320,11952,1,11952,1,-5.7671e-06,-2.2786e-10,0,1.6779e-05,-1.2155e-05,-2.3399e+06,-30.466,0,4.58e+06,-34.151,11951,13059,1,13059,1,6.5808e-05,1.281e-09,0,6.5808e-05,1.1637e-06,6.6885e+06,198.96,0,7.3192e+06,21.379,13058,640.53,0,640.53,0,4.1302e-05,2.0298e-09,0,2.8972e-05,7.6895e-06,7.0578e+06,195.09,0,3.38e+06,180.79,640.53,1
2054,0.28,12506,1,12506,1,3.1132e-05,2.3795e-09,0,4.3597e-05,-5.7036e-06,1.5269e+06,239.21,0,6.603e+06,-42.901,12505,13656,1,13656,1,0.00010266,4.8774e-07,0,0.00010266,7.5901e-06,8.2428e+06,33138,0,1.6365e+07,15366,13655,12505,1,12505,1,3.1132e-05,1.0456e-09,0,3.7112e-05,-5.7001e-06,5.1408e+06,207.84,0,6.7375e+06,33.469,12504,11321,1,11321,1,-4.0243e-05,-1.1295e-07,0,2.7098e-07,-1.9053e-05,-1.6365e+07,-7637.4,0,2.2096e+05,-28911,11320,11952,1,11952,1,-5.9812e-06,2.7431e-10,0,1.7401e-05,-1.2605e-05,-2.4267e+06,45.394,0,4.7499e+06,-28.114,11951,13059,1,13059,1,6.8245e-05,2.3608e-09,0,6.8245e-05,1.2069e-06,6.9362e+06,327.87,0,7.5909e+06,131.87,13058,640.53,0,640.53,0,4.2833e-05,1.8608e-08,0,3.0046e-05,7.9747e-06,7.3195e+06,1284.5,0,3.5053e+06,1566.1,640.53,1
2054,0.29,12506,1,12506,1,3.224e-05,8.2713e-10,0,4.5148e-05,-5.9064e-06,1.5812e+06,146.53,0,6.838e+06,2.4591,12505,13656,1,13656,1,0.00010618,3.2532e-08,0,0.00010618,7.8602e-06,8.524e+06,2206.8,0,1.6947e+07,936.57,13655,12505,1,12505,1,3.2238e-05,8.0873e-10,0,3.8432e-05,-5.9011e-06,5.3236e+06,148.49,0,6.9767e+06,-3.1478,12504,11321,1,11321,1,-4.1675e-05,-1.9054e-08,0,2.8115e-07,-1.9692e-05,-1.6947e+07,-1288.3,0,2.2897e+05,-1265.7,11320,11952,1,11952,1,-6.1943e-06,2.6757e-10,0,1.802e-05,-1.3055e-05,-2.5132e+06,47.61,0,4.919e+06,-31.62,11951,13059,1,13059,1,7.0675e-05,1.7264e-09,0,7.0675e-05,1.2499e-06,7.1832e+06,264.52,0,7.861e+06,37.868,13058,640.53,0,640.53,0,4.4358e-05,2.2138e-09,0,3.1115e-05,8.2583e-06,7.58e+06,196.89,0,3.6301e+06,147.01,640.53,1
2054,0.3,12506,1,12506,1,3.3346e-05,6.1111e-10,0,4.6697e-05,-6.1088e-06,1.6356e+06,94.618,0,7.0724e+06,73.155,12505,13656,1,13656,1,0.00010984,2.9654e-08,0,0.00010984,8.1295e-06,8.818e+06,2038.8,0,1.7528e+07,1652.1,13655,12505,1,12505,1,3.3346e-05,5.008e-10,0,3.9751e-05,-6.1038e-06,5.5065e+06,99.65,0,7.2167e+06,26.941,12504,11321,1,11321,1,-4.3102e-05,-1.5735e-08,0,2.8924e-07,-2.0372e-05,-1.7528e+07,-1063.1,0,2.3632e+05,-2611.2,11320,11952,1,11952,1,-6.4061e-06,1.6287e-10,0,1.8637e-05,-1.3501e-05,-2.5991e+06,21.129,0,5.0874e+06,-26.466,11951,13059,1,13059,1,7.3098e-05,1.0156e-09,0,7.3098e-05,1.2927e-06,7.4295e+06,178.58,0,8.13e+06,146.97,13058,640.53,0,640.53,0,4.5879e-05,2.3501e-09,0,3.2182e-05,8.5413e-06,7.8399e+06,183.38,0,3.7545e+06,259.65,640.53,1
2054,0.31,12506,1,12506,1,3.4465e-05,9.7241e-10,0,4.8264e-05,-6.3142e-06,1.6905e+06,121.62,0,7.3099e+06,-10.323,12505,13656,1,13656,1,0.00011352,3.1832e-08,0,0.00011352,8.4023e-06,9.1134e+06,2180.5,0,1.8116e+07,877.57,13655,12505,1,12505,1,3.4463e-05,7.2348e-10,0,4.1084e-05,-6.3083e-06,5.6911e+06,128.99,0,7.4585e+06,2.746,12504,11321,1,11321,1,-4.455e-05,-1.6854e-08,0,2.9925e-07,-2.1058e-05,-1.8116e+07,-1141,0,2.4437e+05,-2734.5,11320,11952,1,11952,1,-6.6209e-06,1.3769e-11,0,1.9263e-05,-1.3955e-05,-2.6863e+06,2.7329,0,5.2581e+06,-27.407,11951,13059,1,13059,1,7.5553e-05,1.6659e-09,0,7.5553e-05,1.336e-06,7.679e+06,250.43,0,8.4033e+06,49.866,13058,640.53,0,640.53,0,4.7419e-05,2.6217e-09,0,3.3263e-05,8.8283e-06,8.1031e+06,224.24,0,3.8806e+06,215.05,640.53,1
2054,0.32,12506,1,12506,1,3.5573e-05,4.9144e-10,0,4.9816e-05,-6.517e-06,1.7446e+06,78.8,0,7.5449e+06,4.2565,12505,13656,1,13656,1,0.00011717,1.9672e-08,0,0.00011717,8.6725e-06,9.4067e+06,1382.8,0,1.8699e+07,1512.4,13655,12505,1,12505,1,3.5572e-05,4.29e-10,0,4.2406e-05,-6.5112e-06,5.874e+06,79.004,0,7.6983e+06,-3.326,12504,11321,1,11321,1,-4.5982e-05,-1.8585e-08,0,3.1016e-07,-2.173e-05,-1.8699e+07,-1259.7,0,2.5261e+05,-1761.9,11320,11952,1,11952,1,-6.8348e-06,-6.1053e-11,0,1.9883e-05,-1.4404e-05,-2.773e+06,-7.4413,0,5.4276e+06,-28.259,11951,13059,1,13059,1,7.798e-05,1.337e-09,0,7.798e-05,1.3791e-06,7.9257e+06,195.01,0,8.6732e+06,29.609,13058,640.53,0,640.53,0,4.8943e-05,1.8767e-09,0,3.4332e-05,9.1121e-06,8.3637e+06,171.66,0,4.0054e+06,173.87,640.53,1
2054,0.33,12506,1,12506,1,3.6683e-05,9.0672e-10,0,5.1372e-05,-6.7206e-06,1.7991e+06,149.64,0,7.7805e+06,-29.822,12505,13656,1,13656,1,0.00012081,1.8752e-08,0,0.00012081,8.9435e-06,9.6984e+06,1436,0,1.9283e+07,1536.4,13655,12505,1,12505,1,3.6682e-05,8.3984e-10,0,4.3731e-05,-6.7147e-06,6.0575e+06,160,0,7.9385e+06,-7.7627,12504,11321,1,11321,1,-4.7419e-05,-2.1919e-08,0,3.2019e-07,-2.2408e-05,-1.9283e+07,-1483.3,0,2.6061e+05,-1769.1,11320,11952,1,11952,1,-7.0486e-06,3.4225e-10,0,2.0505e-05,-1.4854e-05,-2.8598e+06,63.841,0,5.5972e+06,-34.358,11951,13059,1,13059,1,8.0416e-05,1.8166e-09,0,8.0416e-05,1.4222e-06,8.1733e+06,260.71,0,8.9442e+06,12.963,13058,640.53,0,640.53,0,5.0472e-05,2.2822e-09,0,3.5404e-05,9.3967e-06,8.6249e+06,192.93,0,4.1305e+06,183.52,640.53,1
2054,0.34,12506,1,12506,1,3.7796e-05,4.9132e-10,0,5.293e-05,-6.9245e-06,1.8537e+06,68.006,0,8.0165e+06,-27.973,12505,13656,1,13656,1,0.00012446,2.1792e-08,0,0.00012446,9.2146e-06,9.9922e+06,1478.9,0,1.9868e+07,872.15,13655,12505,1,12505,1,3.7795e-05,4.1209e-10,0,4.5057e-05,-6.9183e-06,6.2412e+06,74.647,0,8.1793e+06,-15.327,12504,11321,1,11321,1,-4.8856e-05,-1.5304e-08,0,3.2969e-07,-2.3084e-05,-1.9868e+07,-1074,0,2.6847e+05,-1503.5,11320,11952,1,11952,1,-7.262e-06,-1.8225e-10,0,2.1126e-05,-1.5304e-05,-2.9464e+06,-41.145,0,5.7669e+06,-35.262,11951,13059,1,13059,1,8.2855e-05,1.1873e-09,0,8.2855e-05,1.4653e-06,8.4212e+06,170.61,0,9.2154e+06,12.884,13058,640.53,0,640.53,0,5.2003e-05,2.1211e-09,0,3.6478e-05,9.6817e-06,8.8865e+06,180.78,0,4.2558e+06,144.68,640.53,1
2054,0.35,12506,1,12506,1,3.8908e-05,6.3853e-10,0,5.4487e-05,-7.1282e-06,1.9083e+06,105.1,0,8.2523e+06,-13.226,12505,13656,1,13656,1,0.00012812,2.8578e-08,0,0.00012812,9.4857e-06,1.0286e+07,1933.8,0,2.0452e+07,1305.7,13655,12505,1,12505,1,3.8907e-05,5.6737e-10,0,4.6382e-05,-7.1217e-06,6.4248e+06,107.01,0,8.4199e+06,-18.545,12504,11321,1,11321,1,-5.0294e-05,-1.6015e-08,0,3.3916e-07,-2.3762e-05,-2.0452e+07,-1082.5,0,2.7631e+05,-1408.1,11320,11952,1,11952,1,-7.4754e-06,-2.5372e-11,0,2.1748e-05,-1.5755e-05,-3.033e+06,-4.1576,0,5.9365e+06,-35.663,11951,13059,1,13059,1,8.5293e-05,1.5095e-09,0,8.5293e-05,1.5084e-06,8.669e+06,224.98,0,9.4866e+06,19.018,13058,640.53,0,640.53,0,5.3533e-05,1.9486e-09,0,3.7551e-05,9.9665e-06,9.1479e+06,183.58,0,4.3809e+06,123.97,640.53,1
2054,0.36,12506,1,12506,1,4.0017e-05,-7.0512e-10,0,5.6041e-05,-7.3314e-06,1.9623e+06,-19.629,0,8.4879e+06,-64.313,12505,13656,1,13656,1,0.00013197,2.3564e-07,0,0.00013197,9.7566e-06,1.0595e+07,15951,0,2.1036e+07,9108.8,13655,12505,1,12505,1,4.0014e-05,8.5831e-11,0,4.7702e-05,-7.3252e-06,6.6076e+06,20.061,0,8.6548e+06,43.976,12504,11321,1,11321,1,-5.1729e-05,-2.5165e-07,0,3.4914e-07,-2.4486e-05,-2.1036e+07,-16995,0,2.8428e+05,-19234,11320,11952,1,11952,1,-7.69e-06,-6.6255e-10,0,2.237e-05,-1.6205e-05,-3.12e+06,-81.03,0,6.1064e+06,-32.999,11951,13059,1,13059,1,8.773e-05,6.7755e-10,0,8.773e-05,1.5519e-06,8.9167e+06,130.35,0,9.758e+06,138.84,13058,640.53,0,640.53,0,5.506e-05,1.7846e-08,0,3.8621e-05,1.0251e-05,9.4091e+06,1278.9,0,4.5061e+06,1286,640.53,1
2054,0.37,12506,1,12506,1,4.1129e-05,6.8264e-10,0,5.7598e-05,-7.535e-06,2.0171e+06,104.9,0,8.7235e+06,11.769,12505,13656,1,13656,1,0.00013547,1.4278e-08,0,0.00013547,1.0027e-05,1.0875e+07,999.12,0,2.162e+07,1312.3,13655,12505,1,12505,1,4.1128e-05,6.0538e-10,0,4.903e-05,-7.5284e-06,6.7916e+06,97.052,0,8.9006e+06,12.283,12504,11321,1,11321,1,-5.3166e-05,-1.9508e-08,0,3.5867e-07,-2.5127e-05,-2.162e+07,-1325.7,0,2.9212e+05,-1322.7,11320,11952,1,11952,1,-7.9024e-06,-4.5715e-11,0,2.299e-05,-1.6654e-05,-3.2062e+06,-6.785,0,6.2755e+06,-23.923,11951,13059,1,13059,1,9.0163e-05,1.583e-09,0,9.0163e-05,1.5946e-06,9.164e+06,232.19,0,1.0028e+07,43.652,13058,640.53,0,640.53,0,5.6589e-05,1.485e-09,0,3.9695e-05,1.0535e-05,9.6702e+06,175.52,0,4.6311e+06,113.26,640.53,1
2054,0.38,12506,1,12506,1,4.224e-05,1.0978e-09,0,5.9154e-05,-7.7386e-06,2.0716e+06,173.35,0,8.9592e+06,-12.979,12505,13656,1,13656,1,0.0001391,1.4835e-08,0,0.0001391,1.0298e-05,1.1168e+07,1005.2,0,2.2204e+07,647.3,13655,12505,1,12505,1,4.2239e-05,8.9912e-10,0,5.0354e-05,-7.7316e-06,6.975e+06,152.14,0,9.141e+06,-7.812,12504,11321,1,11321,1,-5.4602e-05,-1.6499e-08,0,3.6858e-07,-2.5798e-05,-2.2204e+07,-1116.6,0,3.0009e+05,-1054.4,11320,11952,1,11952,1,-8.1161e-06,2.2053e-10,0,2.3611e-05,-1.7104e-05,-3.2929e+06,33.242,0,6.4451e+06,-34.616,11951,13059,1,13059,1,9.2599e-05,2.0763e-09,0,9.2599e-05,1.6376e-06,9.4115e+06,318.64,0,1.0299e+07,10.712,13058,640.53,0,640.53,0,5.8118e-05,1.5849e-09,0,4.0767e-05,1.082e-05,9.9315e+06,196.6,0,4.7562e+06,89.715,640.53,1
2054,0.39,12506,1,12506,1,4.3351e-05,1.3299e-09,0,6.0709e-05,-7.942e-06,2.1261e+06,185.24,0,9.1947e+06,-1.8315,12505,13656,1,13656,1,0.00014275,2.5558e-08,0,0.00014275,1.0569e-05,1.1461e+07,1729.8,0,2.2788e+07,821.17,13655,12505,1,12505,1,4.3349e-05,1.1026e-09,0,5.1678e-05,-7.9349e-06,7.1584e+06,178.85,0,9.3814e+06,-5.815,12504,11321,1,11321,1,-5.6038e-05,-1.604e-08,0,3.7812e-07,-2.648e-05,-2.2788e+07,-1084.4,0,3.0794e+05,-1195,11320,11952,1,11952,1,-8.3294e-06,1.8732e-10,0,2.4232e-05,-1.7554e-05,-3.3795e+06,29.988,0,6.6145e+06,-33.952,11951,13059,1,13059,1,9.5033e-05,2.1764e-09,0,9.5033e-05,1.6807e-06,9.6589e+06,316.07,0,1.057e+07,45.292,13058,640.53,0,640.53,0,5.9646e-05,2.1325e-09,0,4.1839e-05,1.1105e-05,1.0193e+07,203.66,0,4.8813e+06,145.3,640.53,1
2054,0.4,12506,1,12506,1,4.4462e-05,7.5572e-10,0,6.2266e-05,-8.1457e-06,2.1806e+06,114.24,0,9.4305e+06,-0.33681,12505,13656,1,13656,1,0.00014642,2.5388e-08,0,0.00014642,1.084e-05,1.1755e+07,1741.8,0,2.3372e+07,1914.9,13655,12505,1,12505,1,4.4461e-05,6.9705e-10,0,5.3004e-05,-8.1384e-06,7.3419e+06,116.71,0,9.622e+06,3.8566,12504,11321,1,11321,1,-5.7474e-05,-2.5048e-08,0,3.8821e-07,-2.7155e-05,-2.3372e+07,-1696.1,0,3.1595e+05,-1668,11320,11952,1,11952,1,-8.5433e-06,9.3931e-11,0,2.4853e-05,-1.8004e-05,-3.4662e+06,19.136,0,6.7842e+06,-28.702,11951,13059,1,13059,1,9.747e-05,1.4864e-09,0,9.747e-05,1.7239e-06,9.9066e+06,214.23,0,1.0841e+07,34.303,13058,640.53,0,640.53,0,6.1175e-05,1.7265e-09,0,4.2912e-05,1.1389e-05,1.0454e+07,161.72,0,5.0064e+06,136.94,640.53,1
2054,0.41,12506,1,12506,1,4.5571e-05,9.7881e-10,0,6.3819e-05,-8.3488e-06,2.2349e+06,152.66,0,9.6657e+06,-2.4394,12505,13656,1,13656,1,0.00015006,1.2776e-08,0,0.00015006,1.111e-05,1.2047e+07,865.03,0,2.3955e+07,704.47,13655,12505,1,12505,1,4.557e-05,8.0932e-10,0,5.4326e-05,-8.3412e-06,7.5251e+06,130.1,0,9.8619e+06,-5.4522,12504,11321,1,11321,1,-5.8908e-05,-1.3366e-08,0,3.9795e-07,-2.7831e-05,-2.3955e+07,-904.63,0,3.2384e+05,-1390,11320,11952,1,11952,1,-8.7564e-06,2.9472e-10,0,2.5473e-05,-1.8453e-05,-3.5527e+06,56.948,0,6.9534e+06,-21.811,11951,13059,1,13059,1,9.9901e-05,1.693e-09,0,9.9901e-05,1.7669e-06,1.0154e+07,250.7,0,1.1111e+07,25.05,13058,640.53,0,640.53,0,6.2701e-05,1.3927e-09,0,4.3982e-05,1.1673e-05,1.0715e+07,143.05,0,5.1313e+06,93.511,640.53,1
2054,0.42,12506,1,12506,1,4.6685e-05,8.6744e-10,0,6.5378e-05,-8.5528e-06,2.2896e+06,132.29,0,9.9019e+06,-4.3092,12505,13656,1,13656,1,0.00015375,9.5108e-09,0,0.00015375,1.1382e-05,1.2343e+07,654.15,0,2.454e+07,2599.1,13655,12505,1,12505,1,4.6683e-05,7.4451e-10,0,5.5653e-05,-8.5452e-06,7.709e+06,134.8,0,1.0103e+07,-6.2243,12504,11321,1,11321,1,-6.0347e-05,-1.3278e-08,0,4.0735e-07,-2.8513e-05,-2.454e+07,-899.69,0,3.3167e+05,-616.54,11320,11952,1,11952,1,-8.9701e-06,1.138e-10,0,2.6095e-05,-1.8904e-05,-3.6394e+06,21.048,0,7.1233e+06,-22.888,11951,13059,1,13059,1,0.00010234,1.6861e-09,0,0.00010234,1.81e-06,1.0402e+07,246.89,0,1.1383e+07,11.182,13058,640.53,0,640.53,0,6.4233e-05,1.1998e-09,0,4.5056e-05,1.1959e-05,1.0976e+07,151.42,0,5.2567e+06,79.768,640.53,1
2054,0.43,12506,1,12506,1,4.7793e-05,1.2641e-09,0,6.6929e-05,-8.7558e-06,2.3439e+06,195.22,0,1.0137e+07,-0.63811,12505,13656,1,13656,1,0.00015737,1.1867e-08,0,0.00015737,1.1652e-05,1.2634e+07,803.35,0,2.5123e+07,283.9,13655,12505,1,12505,1,4.7791e-05,1.0207e-09,0,5.6974e-05,-8.7479e-06,7.8919e+06,171.88,0,1.0343e+07,0.94934,12504,11321,1,11321,1,-6.178e-05,-8.7615e-10,0,4.1724e-07,-2.9187e-05,-2.5123e+07,-59.05,0,3.396e+05,-199.69,11320,11952,1,11952,1,-9.183e-06,3.7426e-10,0,2.6715e-05,-1.9352e-05,-3.7258e+06,53.082,0,7.2923e+06,-14.71,11951,13059,1,13059,1,0.00010477,2.1221e-09,0,0.00010477,1.853e-06,1.0649e+07,325.76,0,1.1653e+07,13.715,13058,640.53,0,640.53,0,6.5757e-05,1.0753e-09,0,4.6126e-05,1.2242e-05,1.1237e+07,156.25,0,5.3814e+06,23.487,640.53,1
2054,0.44,12506,1,12506,1,4.8907e-05,9.957e-10,0,6.8489e-05,-8.9598e-06,2.3985e+06,155.03,0,1.0373e+07,2.5432,12505,13656,1,13656,1,0.00016104,3.6683e-09,0,0.00016104,1.1924e-05,1.2928e+07,551.44,0,2.5708e+07,82.833,13655,12505,1,12505,1,4.8905e-05,7.6409e-10,0,5.8301e-05,-8.9518e-06,8.0758e+06,132.95,0,1.0584e+07,2.2977,12504,11321,1,11321,1,-6.3219e-05,-1.1209e-09,0,4.2676e-07,-2.9867e-05,-2.5708e+07,-204.35,0,3.4746e+05,-61.423,11320,11952,1,11952,1,-9.3969e-06,1.4013e-10,0,2.7337e-05,-1.9804e-05,-3.8126e+06,16.127,0,7.4622e+06,-13.923,11951,13059,1,13059,1,0.00010721,1.9105e-09,0,0.00010721,1.8961e-06,1.0897e+07,292.16,0,1.1925e+07,17.88,13058,640.53,0,640.53,0,6.729e-05,1.1428e-09,0,4.7201e-05,1.2528e-05,1.1499e+07,169.37,0,5.5069e+06,23.491,640.53,1
2054,0.45,12506,1,12506,1,5.0015e-05,8.3072e-10,0,7.0042e-05,-9.163e-06,2.4529e+06,133.7,0,1.0608e+07,-12.815,12505,13656,1,13656,1,0.00016473,3.3509e-08,0,0.00016473,1.2194e-05,1.3225e+07,2276.6,0,2.6291e+07,2044.7,13655,12505,1,12505,1,5.0014e-05,7.5682e-10,0,5.9624e-05,-9.1546e-06,8.2589e+06,128.58,0,1.0824e+07,-3.5195,12504,11321,1,11321,1,-6.4652e-05,-3.7752e-08,0,4.368e-07,-3.0552e-05,-2.6291e+07,-2654.2,0,3.5546e+05,-2447.6,11320,11952,1,11952,1,-9.6103e-06,1.641e-12,0,2.7957e-05,-2.0252e-05,-3.8992e+06,0.16456,0,7.6315e+06,-37.682,11951,13059,1,13059,1,0.00010964,1.9964e-09,0,0.00010964,1.9392e-06,1.1144e+07,285.16,0,1.2195e+07,39.062,13058,640.53,0,640.53,0,6.8816e-05,2.8305e-09,0,4.8271e-05,1.2812e-05,1.176e+07,242.31,0,5.6317e+06,217.31,640.53,1
2054,0.46,12506,1,12506,1,5.1134e-05,7.0732e-10,0,7.1609e-05,-9.368e-06,2.5077e+06,112.49,0,1.0846e+07,-15.81,12505,13656,1,13656,1,0.00016837,2.4192e-08,0,0.00016837,1.2467e-05,1.3517e+07,1654.2,0,2.6879e+07,587.5,13655,12505,1,12505,1,5.1132e-05,5.074e-10,0,6.0957e-05,-9.3596e-06,8.4436e+06,85.341,0,1.1066e+07,-14.77,12504,11321,1,11321,1,-6.6098e-05,-6.016e-09,0,4.4663e-07,-3.1227e-05,-2.6879e+07,-410.71,0,3.6343e+05,-1844.9,11320,11952,1,11952,1,-9.8253e-06,-7.3392e-11,0,2.8583e-05,-2.0706e-05,-3.9864e+06,-8.3449,0,7.8023e+06,-29.282,11951,13059,1,13059,1,0.0001121,1.5046e-09,0,0.0001121,1.9825e-06,1.1393e+07,247.31,0,1.2468e+07,-2.5051,13058,640.53,0,640.53,0,7.0355e-05,1.3386e-09,0,4.9351e-05,1.3098e-05,1.2023e+07,180.61,0,5.7577e+06,77.251,640.53,1
2054,0.47,12506,1,12506,1,5.2243e-05,8.0901e-10,0,7.3161e-05,-9.5711e-06,2.5622e+06,124.89,0,1.1081e+07,-15.734,12505,13656,1,13656,1,0.00017202,1.2213e-08,0,0.00017202,1.2737e-05,1.381e+07,825.63,0,2.7462e+07,197.74,13655,12505,1,12505,1,5.2241e-05,6.1608e-10,0,6.2279e-05,-9.5626e-06,8.6268e+06,102.73,0,1.1306e+07,-11.587,12504,11321,1,11321,1,-6.7531e-05,-1.64e-09,0,4.5605e-07,-3.1904e-05,-2.7462e+07,-254.67,0,3.7122e+05,-771.99,11320,11952,1,11952,1,-1.0038e-05,-1.812e-11,0,2.9202e-05,-2.1154e-05,-4.0727e+06,-2.0298,0,7.9713e+06,-29.874,11951,13059,1,13059,1,0.00011453,1.7359e-09,0,0.00011453,2.0255e-06,1.164e+07,270.26,0,1.2738e+07,-0.16822,13058,640.53,0,640.53,0,7.188e-05,1.1982e-09,0,5.0421e-05,1.3382e-05,1.2283e+07,176.6,0,5.8825e+06,32.257,640.53,1
2054,0.48,12506,1,12506,1,5.3355e-05,6.6521e-10,0,7.4717e-05,-9.7748e-06,2.6169e+06,102.64,0,1.1316e+07,-11.904,12505,13656,1,13656,1,0.00017568,2.0175e-09,0,0.00017568,1.3007e-05,1.4103e+07,373.3,0,2.8045e+07,50.706,13655,12505,1,12505,1,5.3355e-05,6.0356e-10,0,6.3605e-05,-9.7665e-06,8.8106e+06,92.463,0,1.1546e+07,-8.0379,12504,11321,1,11321,1,-6.8964e-05,-8.9322e-11,0,4.6379e-07,-3.2582e-05,-2.8045e+07,-29.683,0,3.7845e+05,-97.52,11320,11952,1,11952,1,-1.025e-05,2.926e-10,0,2.9821e-05,-2.1604e-05,-4.1587e+06,52.752,0,8.14e+06,-32.989,11951,13059,1,13059,1,0.00011696,9.1718e-10,0,0.00011696,2.0683e-06,1.1887e+07,131.97,0,1.3009e+07,14.153,13058,640.53,0,640.53,0,7.3408e-05,4.4236e-10,0,5.1493e-05,1.3667e-05,1.2544e+07,70.516,0,6.0074e+06,29.615,640.53,1
2054,0.49,12506,1,12506,1,5.4465e-05,6.0161e-11,0,7.6274e-05,-9.9782e-06,2.6711e+06,9.9588,0,1.1552e+07,15.678,12505,13656,1,13656,1,0.00017933,7.913e-10,0,0.00017933,1.3278e-05,1.4397e+07,163.31,0,2.8629e+07,52.729,13655,12505,1,12505,1,5.4465e-05,5.5244e-11,0,6.4931e-05,-9.9696e-06,8.994e+06,5.6084,0,1.1787e+07,17.197,12504,11321,1,11321,1,-7.0402e-05,-1.1163e-09,0,4.7537e-07,-3.326e-05,-2.8629e+07,-98.302,0,3.8696e+05,-29.795,11320,11952,1,11952,1,-1.0465e-05,-2.9419e-12,0,3.0444e-05,-2.2054e-05,-4.2461e+06,-0.47052,0,8.3104e+06,4.8589,11951,13059,1,13059,1,0.0001194,1.0625e-10,0,0.0001194,2.1118e-06,1.2135e+07,15.84,0,1.328e+07,26.092,13058,640.53,0,640.53,0,7.4938e-05,1.5275e-10,0,5.2566e-05,1.3952e-05,1.2806e+07,29.756,0,6.1328e+06,14.023,640.53,1
2054,0.5,12506,1,12506,1,5.5575e-05,3.5329e-10,0,7.7828e-05,-1.0182e-05,2.7256e+06,56.591,0,1.1787e+07,-9.908,12505,13656,1,13656,1,0.00018299,2.1781e-09,0,0.00018299,1.3549e-05,1.4691e+07,380.65,0,2.9213e+07,147.54,13655,12505,1,12505,1,5.5574e-05,3.0134e-10,0,6.6252e-05,-1.0172e-05,9.177e+06,47.679,0,1.2027e+07,-13.542,12504,11321,1,11321,1,-7.1837e-05,-1.6429e-09,0,4.8528e-07,-3.3938e-05,-2.9213e+07,-259.68,0,3.9493e+05,-77.741,11320,11952,1,11952,1,-1.0678e-05,-1.7272e-10,0,3.1064e-05,-2.2504e-05,-4.3325e+06,-24.937,0,8.4797e+06,-27.675,11951,13059,1,13059,1,0.00012183,9.5021e-10,0,0.00012183,2.1547e-06,1.2382e+07,161.58,0,1.355e+07,-3.7998,13058,640.53,0,640.53,0,7.6465e-05,8.3054e-10,0,5.3637e-05,1.4236e-05,1.3067e+07,129.16,0,6.2577e+06,29.613,640.53,1
2054,0.51,12506,1,12506,1,5.6683e-05,1.4907e-09,0,7.9379e-05,-1.0385e-05,2.7799e+06,233.84,0,1.2023e+07,-8.7364,12505,13656,1,13656,1,0.00018664,4.4535e-09,0,0.00018664,1.382e-05,1.4984e+07,682.63,0,2.9796e+07,141.29,13655,12505,1,12505,1,5.6681e-05,1.2368e-09,0,6.7572e-05,-1.0375e-05,9.3599e+06,215.81,0,1.2266e+07,-7.8256,12504,11321,1,11321,1,-7.3272e-05,-1.062e-09,0,4.9469e-07,-3.4616e-05,-2.9796e+07,-131.89,0,4.0274e+05,-68.989,11320,11952,1,11952,1,-1.0891e-05,4.353e-10,0,3.1684e-05,-2.2952e-05,-4.4189e+06,58.982,0,8.6488e+06,-27.677,11951,13059,1,13059,1,0.00012426,2.5769e-09,0,0.00012426,2.1976e-06,1.2629e+07,397.78,0,1.3821e+07,5.6127,13058,640.53,0,640.53,0,7.7989e-05,1.3403e-09,0,5.4706e-05,1.452e-05,1.3327e+07,200.59,0,6.3825e+06,26.111,640.53,1
2054,0.52,12506,1,12506,1,5.7798e-05,1.7668e-10,0,8.094e-05,-1.0589e-05,2.8345e+06,32.059,0,1.2259e+07,1.4265,12505,13656,1,13656,1,0.00019031,1.9663e-09,0,0.00019031,1.4091e-05,1.5278e+07,453.8,0,3.0381e+07,232.58,13655,12505,1,12505,1,5.7796e-05,1.2086e-10,0,6.8901e-05,-1.0579e-05,9.544e+06,17.072,0,1.2508e+07,-8.2684,12504,11321,1,11321,1,-7.471e-05,-1.8675e-09,0,5.0498e-07,-3.5295e-05,-3.0381e+07,-294.88,0,4.1082e+05,-52.838,11320,11952,1,11952,1,-1.1106e-05,-3.4918e-10,0,3.2307e-05,-2.3403e-05,-4.5059e+06,-52.422,0,8.8189e+06,-21.404,11951,13059,1,13059,1,0.0001267,8.2097e-10,0,0.0001267,2.2409e-06,1.2878e+07,129.6,0,1.4092e+07,3.0608,13058,640.53,0,640.53,0,7.9523e-05,8.5982e-10,0,5.5782e-05,1.4805e-05,1.3589e+07,142.85,0,6.508e+06,42.655,640.53,1
2054,0.53,12506,1,12506,1,5.8906e-05,4.5674e-10,0,8.2492e-05,-1.0792e-05,2.8889e+06,65.927,0,1.2494e+07,-3.059,12505,13656,1,13656,1,0.00019396,2.3545e-09,0,0.00019396,1.4361e-05,1.5571e+07,329.12,0,3.0964e+07,68.261,13655,12505,1,12505,1,5.8905e-05,3.3797e-10,0,7.0223e-05,-1.0782e-05,9.7271e+06,60.782,0,1.2748e+07,-1.4781,12504,11321,1,11321,1,-7.6143e-05,-1.3609e-09,0,5.1433e-07,-3.5972e-05,-3.0964e+07,-232.26,0,4.186e+05,-71.74,11320,11952,1,11952,1,-1.1318e-05,-6.0424e-11,0,3.2926e-05,-2.3852e-05,-4.5922e+06,-7.0195,0,8.988e+06,-16.391,11951,13059,1,13059,1,0.00012913,1.0887e-09,0,0.00012913,2.2839e-06,1.3125e+07,161.51,0,1.4363e+07,10.339,13058,640.53,0,640.53,0,8.1048e-05,8.1737e-10,0,5.6851e-05,1.5089e-05,1.385e+07,119.81,0,6.6328e+06,22.61,640.53,1
2054,0.54,12506,1,12506,1,6.0018e-05,6.6549e-10,0,8.4049e-05,-1.0995e-05,2.9434e+06,105.13,0,1.273e+07,-14.75,12505,13656,1,13656,1,0.00019763,3.2456e-08,0,0.00019763,1.4632e-05,1.5866e+07,2353.3,0,3.1549e+07,1590.1,13655,12505,1,12505,1,6.0016e-05,4.8155e-10,0,7.1548e-05,-1.0986e-05,9.9106e+06,78.663,0,1.2988e+07,-3.9229,12504,11321,1,11321,1,-7.7581e-05,-3.629e-08,0,5.2423e-07,-3.6655e-05,-3.1549e+07,-2456.1,0,4.2656e+05,-2158.6,11320,11952,1,11952,1,-1.1532e-05,-4.5207e-11,0,3.3548e-05,-2.4303e-05,-4.6789e+06,-5.8926,0,9.1577e+06,-22.925,11951,13059,1,13059,1,0.00013157,1.3946e-09,0,0.00013157,2.327e-06,1.3372e+07,226.63,0,1.4634e+07,8.5999,13058,640.53,0,640.53,0,8.2578e-05,2.4721e-09,0,5.7924e-05,1.5374e-05,1.4111e+07,220.55,0,6.758e+06,173.52,640.53,1
2054,0.55,12506,1,12506,1,6.113e-05,-1.28e-11,0,8.5607e-05,-1.1199e-05,2.9979e+06,-2.5892,0,1.2966e+07,8.5729,12505,13656,1,13656,1,0.00020128,5.1183e-10,0,0.00020128,1.4903e-05,1.6159e+07,105.74,0,3.2133e+07,71.781,13655,12505,1,12505,1,6.113e-05,-9.9911e-12,0,7.2876e-05,-1.1189e-05,1.0095e+07,-1.1428,0,1.3229e+07,6.9507,12504,11321,1,11321,1,-7.9017e-05,-5.5033e-10,0,5.3434e-07,-3.733e-05,-3.2133e+07,-102.85,0,4.3458e+05,-20.952,11320,11952,1,11952,1,-1.1746e-05,-8.207e-11,0,3.417e-05,-2.4753e-05,-4.7657e+06,-13.395,0,9.3274e+06,3.165,11951,13059,1,13059,1,0.00013401,6.693e-11,0,0.00013401,2.3703e-06,1.362e+07,9.2011,0,1.4905e+07,10.774,13058,640.53,0,640.53,0,8.4109e-05,1.8112e-10,0,5.8998e-05,1.5659e-05,1.4373e+07,28.626,0,6.8833e+06,10.933,640.53,1
2054,0.56,12506,1,12506,1,6.2237e-05,1.1517e-09,0,8.7157e-05,-1.1402e-05,3.0522e+06,183.21,0,1.32e+07,-11.578,12505,13656,1,13656,1,0.00020493,3.096e-08,0,0.00020493,1.5173e-05,1.6452e+07,2092.1,0,3.2715e+07,901.66,13655,12505,1,12505,1,6.2235e-05,9.3489e-10,0,7.4193e-05,-1.1392e-05,1.0277e+07,161.22,0,1.3468e+07,-5.1585,12504,11321,1,11321,1,-8.045e-05,-1.843e-08,0,5.4377e-07,-3.8007e-05,-3.2715e+07,-1249.6,0,4.4238e+05,-1955.7,11320,11952,1,11952,1,-1.1959e-05,3.251e-10,0,3.4789e-05,-2.5201e-05,-4.852e+06,41.327,0,9.4963e+06,-17.757,11951,13059,1,13059,1,0.00013643,1.9462e-09,0,0.00013643,2.4131e-06,1.3867e+07,313.62,0,1.5175e+07,8.1223,13058,640.53,0,640.53,0,8.5631e-05,1.8109e-09,0,6.0066e-05,1.5942e-05,1.4633e+07,192.34,0,7.0079e+06,118.49,640.53,1
2054,0.57,12506,1,12506,1,6.335e-05,6.0724e-11,0,8.8716e-05,-1.1606e-05,3.1068e+06,10.904,0,1.3437e+07,16.985,12505,13656,1,13656,1,0.00020859,6.7014e-10,0,0.00020859,1.5444e-05,1.6746e+07,138.5,0,3.33e+07,122.42,13655,12505,1,12505,1,6.335e-05,5.6617e-11,0,7.5523e-05,-1.1596e-05,1.0461e+07,8.1335,0,1.371e+07,17.39,12504,11321,1,11321,1,-8.1887e-05,-2.9513e-10,0,5.5371e-07,-3.8686e-05,-3.33e+07,-81.585,0,4.5035e+05,-76.977,11320,11952,1,11952,1,-1.2173e-05,-1.6037e-11,0,3.5411e-05,-2.5652e-05,-4.9388e+06,-1.9394,0,9.6662e+06,8.4499,11951,13059,1,13059,1,0.00013887,1.3932e-10,0,0.00013887,2.4564e-06,1.4115e+07,23.61,0,1.5446e+07,26.869,13058,640.53,0,640.53,0,8.7163e-05,1.1925e-10,0,6.1141e-05,1.6228e-05,1.4895e+07,22.84,0,7.1333e+06,18.229,640.53,1
2054,0.58,12506,1,12506,1,6.4461e-05,7.1445e-10,0,9.0272e-05,-1.181e-05,3.1613e+06,122.83,0,1.3672e+07,-22.825,12505,13656,1,13656,1,0.00021226,3.7074e-09,0,0.00021226,1.5716e-05,1.704e+07,458.16,0,3.3884e+07,902.26,13655,12505,1,12505,1,6.446e-05,7.1853e-10,0,7.6846e-05,-1.1799e-05,1.0644e+07,123.38,0,1.395e+07,-17.935,12504,11321,1,11321,1,-8.3324e-05,-3.6027e-08,0,5.6295e-07,-3.9367e-05,-3.3884e+07,-2436.8,0,4.5812e+05,-1524.5,11320,11952,1,11952,1,-1.2386e-05,1.1376e-10,0,3.6032e-05,-2.6102e-05,-5.0253e+06,20.109,0,9.8357e+06,-37.316,11951,13059,1,13059,1,0.00014131,1.6775e-09,0,0.00014131,2.4992e-06,1.4362e+07,246.19,0,1.5717e+07,0.97251,13058,640.53,0,640.53,0,8.8691e-05,2.032e-09,0,6.2213e-05,1.6512e-05,1.5156e+07,190.41,0,7.2583e+06,105.41,640.53,1
2054,0.59,12506,1,12506,1,6.557e-05,1.5637e-09,0,9.1824e-05,-1.2013e-05,3.2157e+06,181.29,0,1.3907e+07,-98.104,12505,13656,1,13656,1,0.00021598,3.4087e-07,0,0.00021598,1.5986e-05,1.734e+07,23081,0,3.4467e+07,7269.1,13655,12505,1,12505,1,6.5568e-05,4.7183e-10,0,7.8166e-05,-1.2003e-05,1.0827e+07,81.049,0,1.4189e+07,-13.101,12504,11321,1,11321,1,-8.4758e-05,-3.2513e-08,0,5.7254e-07,-4.0063e-05,-3.4467e+07,-2218.7,0,4.6596e+05,-22032,11320,11952,1,11952,1,-1.2599e-05,3.2427e-11,0,3.6652e-05,-2.6551e-05,-5.1118e+06,3.1802,0,1.0005e+07,-26.692,11951,13059,1,13059,1,0.00014374,1.1491e-09,0,0.00014374,2.5423e-06,1.461e+07,208.39,0,1.5988e+07,19.829,13058,640.53,0,640.53,0,9.0216e-05,1.4314e-08,0,6.3282e-05,1.6796e-05,1.5417e+07,990.34,0,7.3832e+06,1122.6,640.53,1
2054,0.6,12506,1,12506,1,6.6682e-05,9.7671e-10,0,9.3382e-05,-1.2216e-05,3.2702e+06,149.6,0,1.4143e+07,-7.3027,12505,13656,1,13656,1,0.00021956,3.1476e-09,0,0.00021956,1.6257e-05,1.7627e+07,465.67,0,3.5052e+07,39.883,13655,12505,1,12505,1,6.668e-05,7.3629e-10,0,7.9493e-05,-1.2206e-05,1.1011e+07,128.16,0,1.443e+07,-5.9792,12504,11321,1,11321,1,-8.6195e-05,-4.792e-10,0,5.8263e-07,-4.0721e-05,-3.5052e+07,-58.842,0,4.7398e+05,-53.914,11320,11952,1,11952,1,-1.2813e-05,2.8352e-10,0,3.7273e-05,-2.7001e-05,-5.1985e+06,44.427,0,1.0175e+07,-17.657,11951,13059,1,13059,1,0.00014618,1.6583e-09,0,0.00014618,2.5854e-06,1.4857e+07,247.69,0,1.6259e+07,1.7007,13058,640.53,0,640.53,0,9.1747e-05,8.8815e-10,0,6.4356e-05,1.7081e-05,1.5678e+07,125.68,0,7.5084e+06,16.322,640.53,1
2054,0.61,12506,1,12506,1,6.7791e-05,-3.3637e-10,0,9.4935e-05,-1.2419e-05,3.3246e+06,-52.189,0,1.4379e+07,18.628,12505,13656,1,13656,1,0.00022321,5.1969e-10,0,0.00022321,1.6527e-05,1.792e+07,107.31,0,3.5634e+07,55.361,13655,12505,1,12505,1,6.7791e-05,-3.4508e-10,0,8.0817e-05,-1.2409e-05,1.1194e+07,-54.461,0,1.4671e+07,21.695,12504,11321,1,11321,1,-8.7628e-05,-8.1006e-10,0,5.9254e-07,-4.1399e-05,-3.5634e+07,-153.47,0,4.8194e+05,-34.222,11320,11952,1,11952,1,-1.3026e-05,-5.1128e-10,0,3.7893e-05,-2.745e-05,-5.285e+06,-82.054,0,1.0344e+07,11.834,11951,13059,1,13059,1,0.00014861,-1.6904e-10,0,0.00014861,2.6286e-06,1.5104e+07,-24.194,0,1.6529e+07,30.477,13058,640.53,0,640.53,0,9.3273e-05,2.4077e-10,0,6.5427e-05,1.7365e-05,1.5939e+07,40.568,0,7.6333e+06,17.088,640.53,1
2054,0.62,12506,1,12506,1,6.8906e-05,3.4653e-10,0,9.6497e-05,-1.2624e-05,3.3793e+06,56.558,0,1.4615e+07,17.274,12505,13656,1,13656,1,0.00022688,1.0657e-08,0,0.00022688,1.6799e-05,1.8214e+07,720.07,0,3.622e+07,115.1,13655,12505,1,12505,1,6.8906e-05,2.7877e-10,0,8.2146e-05,-1.2613e-05,1.1379e+07,44.969,0,1.4912e+07,22.169,12504,11321,1,11321,1,-8.9068e-05,-8.2514e-10,0,6.0223e-07,-4.208e-05,-3.622e+07,-55.979,0,4.8984e+05,-749.79,11320,11952,1,11952,1,-1.324e-05,1.2999e-10,0,3.8516e-05,-2.7901e-05,-5.3719e+06,17.831,0,1.0514e+07,10.866,11951,13059,1,13059,1,0.00015105,4.8081e-10,0,0.00015105,2.6718e-06,1.5353e+07,80.83,0,1.6801e+07,32.271,13058,640.53,0,640.53,0,9.4807e-05,3.755e-10,0,6.6503e-05,1.7651e-05,1.6201e+07,50.886,0,7.7588e+06,32.996,640.53,1
2054,0.63,12506,1,12506,1,7.0015e-05,1.0114e-09,0,9.805e-05,-1.2827e-05,3.4337e+06,158.93,0,1.485e+07,-7.3605,12505,13656,1,13656,1,0.00023054,3.1751e-09,0,0.00023054,1.707e-05,1.8508e+07,499.67,0,3.6804e+07,35.427,13655,12505,1,12505,1,7.0014e-05,7.8042e-10,0,8.3467e-05,-1.2816e-05,1.1562e+07,128.96,0,1.5152e+07,-5.5449,12504,11321,1,11321,1,-9.0504e-05,-2.701e-10,0,6.1168e-07,-4.2757e-05,-3.6804e+07,-54.298,0,4.9765e+05,-46.385,11320,11952,1,11952,1,-1.3453e-05,2.6469e-10,0,3.9136e-05,-2.8351e-05,-5.4583e+06,38.227,0,1.0683e+07,-15.321,11951,13059,1,13059,1,0.00015349,1.7016e-09,0,0.00015349,2.7146e-06,1.56e+07,271.65,0,1.7071e+07,2.7071,13058,640.53,0,640.53,0,9.6333e-05,9.1451e-10,0,6.7573e-05,1.7935e-05,1.6462e+07,138.81,0,7.8837e+06,13.709,640.53,1
2054,0.64,12506,1,12506,1,7.1128e-05,1.3454e-09,0,9.9608e-05,-1.3031e-05,3.4883e+06,211.87,0,1.5086e+07,-14.181,12505,13656,1,13656,1,0.0002342,3.8392e-09,0,0.0002342,1.7341e-05,1.8802e+07,584.98,0,3.7389e+07,46.327,13655,12505,1,12505,1,7.1126e-05,1.1109e-09,0,8.4793e-05,-1.3019e-05,1.1745e+07,193.66,0,1.5393e+07,-12.308,12504,11321,1,11321,1,-9.1943e-05,-5.0726e-10,0,6.2123e-07,-4.3437e-05,-3.7389e+07,-64.956,0,5.0552e+05,-87.213,11320,11952,1,11952,1,-1.3667e-05,4.6476e-10,0,3.9758e-05,-2.8801e-05,-5.545e+06,76.318,0,1.0853e+07,-22.918,11951,13059,1,13059,1,0.00015592,2.196e-09,0,0.00015592,2.7577e-06,1.5848e+07,341.86,0,1.7343e+07,-2.1755,13058,640.53,0,640.53,0,9.7864e-05,1.0803e-09,0,6.8647e-05,1.822e-05,1.6723e+07,161.01,0,8.009e+06,18.829,640.53,1
2054,0.65,12506,1,12506,1,7.2241e-05,8.2694e-10,0,0.00010117,-1.3235e-05,3.5428e+06,131.24,0,1.5322e+07,-11.67,12505,13656,1,13656,1,0.00023787,3.2994e-09,0,0.00023787,1.7612e-05,1.9096e+07,540.6,0,3.7974e+07,60.259,13655,12505,1,12505,1,7.2239e-05,6.6389e-10,0,8.612e-05,-1.3223e-05,1.1929e+07,111.55,0,1.5633e+07,-12.142,12504,11321,1,11321,1,-9.3381e-05,-1.4813e-09,0,6.3117e-07,-4.4116e-05,-3.7974e+07,-213.15,0,5.135e+05,-69.913,11320,11952,1,11952,1,-1.3881e-05,-3.6195e-11,0,4.0381e-05,-2.9252e-05,-5.6319e+06,-5.3454,0,1.1023e+07,-29.613,11951,13059,1,13059,1,0.00015836,1.7092e-09,0,0.00015836,2.8009e-06,1.6096e+07,284.06,0,1.7614e+07,0.4564,13058,640.53,0,640.53,0,9.9396e-05,1.1855e-09,0,6.9721e-05,1.8505e-05,1.6985e+07,184.27,0,8.1343e+06,24.683,640.53,1
2054,0.66,12506,1,12506,1,7.3349e-05,1.2734e-09,0,0.00010272,-1.3438e-05,3.5972e+06,198.21,0,1.5557e+07,-10.585,12505,13656,1,13656,1,0.00024152,3.9482e-09,0,0.00024152,1.7882e-05,1.9389e+07,596.67,0,3.8556e+07,36.808,13655,12505,1,12505,1,7.3347e-05,1.0183e-09,0,8.744e-05,-1.3426e-05,1.2112e+07,170.78,0,1.5873e+07,-7.9019,12504,11321,1,11321,1,-9.4813e-05,-5.6063e-10,0,6.4064e-07,-4.4793e-05,-3.8556e+07,-104.59,0,5.2128e+05,-56.536,11320,11952,1,11952,1,-1.4094e-05,3.5021e-10,0,4.0999e-05,-2.9701e-05,-5.7181e+06,48.26,0,1.1192e+07,-21.569,11951,13059,1,13059,1,0.00016079,2.1537e-09,0,0.00016079,2.8439e-06,1.6343e+07,338.02,0,1.7884e+07,2.7767,13058,640.53,0,640.53,0,0.00010092,1.1422e-09,0,7.079e-05,1.8789e-05,1.7246e+07,171.74,0,8.259e+06,16.812,640.53,1
2054,0.67,12506,1,12506,1,7.4462e-05,1.2782e-09,0,0.00010428,-1.3642e-05,3.6518e+06,199.1,0,1.5794e+07,-9.9089,12505,13656,1,13656,1,0.00024518,3.7076e-09,0,0.00024518,1.8154e-05,1.9684e+07,546.69,0,3.9142e+07,50.257,13655,12505,1,12505,1,7.4461e-05,1.0465e-09,0,8.8768e-05,-1.363e-05,1.2296e+07,182.21,0,1.6114e+07,-10.773,12504,11321,1,11321,1,-9.6253e-05,-5.6715e-10,0,6.506e-07,-4.5473e-05,-3.9142e+07,-76.511,0,5.2929e+05,-56.42,11320,11952,1,11952,1,-1.4308e-05,3.9077e-10,0,4.1622e-05,-3.0151e-05,-5.8051e+06,55.415,0,1.1362e+07,-21.904,11951,13059,1,13059,1,0.00016323,2.2076e-09,0,0.00016323,2.8871e-06,1.6591e+07,332.33,0,1.8156e+07,-0.71532,13058,640.53,0,640.53,0,0.00010245,1.0975e-09,0,7.1865e-05,1.9074e-05,1.7508e+07,162.58,0,8.3845e+06,19.057,640.53,1
2054,0.68,12506,1,12506,1,7.5573e-05,5.0175e-10,0,0.00010583,-1.3845e-05,3.7063e+06,76.019,0,1.6029e+07,-14.866,12505,13656,1,13656,1,0.00024884,2.6197e-09,0,0.00024884,1.8425e-05,1.9977e+07,374.2,0,3.9725e+07,28.616,13655,12505,1,12505,1,7.5572e-05,3.2093e-10,0,9.0093e-05,-1.3833e-05,1.2479e+07,51.896,0,1.6355e+07,-14.003,12504,11321,1,11321,1,-9.7687e-05,-1.4885e-09,0,6.6027e-07,-4.615e-05,-3.9725e+07,-212.55,0,5.3716e+05,-78.365,11320,11952,1,11952,1,-1.4521e-05,-1.0584e-10,0,4.2243e-05,-3.0601e-05,-5.8916e+06,-14.555,0,1.1531e+07,-25.953,11951,13059,1,13059,1,0.00016567,1.152e-09,0,0.00016567,2.9301e-06,1.6838e+07,187.36,0,1.8426e+07,-5.9639,13058,640.53,0,640.53,0,0.00010398,9.5499e-10,0,7.2937e-05,1.9359e-05,1.7769e+07,140.07,0,8.5095e+06,16.328,640.53,1
2054,0.69,12506,1,12506,1,7.6681e-05,7.9256e-10,0,0.00010739,-1.4048e-05,3.7606e+06,122.69,0,1.6264e+07,-11.302,12505,13656,1,13656,1,0.00025249,2.6097e-09,0,0.00025249,1.8695e-05,2.027e+07,389.6,0,4.0308e+07,28.465,13655,12505,1,12505,1,7.668e-05,6.4037e-10,0,9.1414e-05,-1.4036e-05,1.2662e+07,111.38,0,1.6594e+07,-11.292,12504,11321,1,11321,1,-9.912e-05,-6.5641e-10,0,6.7008e-07,-4.6827e-05,-4.0308e+07,-119.68,0,5.4509e+05,-44.129,11320,11952,1,11952,1,-1.4734e-05,2.1923e-10,0,4.2862e-05,-3.105e-05,-5.9781e+06,28.844,0,1.17e+07,-20.457,11951,13059,1,13059,1,0.0001681,1.3552e-09,0,0.0001681,2.9731e-06,1.7085e+07,211.48,0,1.8697e+07,-2.1749,13058,640.53,0,640.53,0,0.0001055,7.7817e-10,0,7.4006e-05,1.9642e-05,1.8029e+07,116.71,0,8.6343e+06,14.434,640.53,1
2054,0.7,12506,1,12506,1,7.7795e-05,3.4071e-10,0,0.00010895,-1.4252e-05,3.8153e+06,47.79,0,1.65e+07,-8.3963,12505,13656,1,13656,1,0.00025615,2.8263e-09,0,0.00025615,1.8966e-05,2.0564e+07,416.33,0,4.0893e+07,47.178,13655,12505,1,12505,1,7.7794e-05,2.1863e-10,0,9.2742e-05,-1.424e-05,1.2846e+07,36.265,0,1.6836e+07,-8.3487,12504,11321,1,11321,1,-0.00010056,-2.0931e-09,0,6.7945e-07,-4.7508e-05,-4.0893e+07,-337.91,0,5.5288e+05,-61.603,11320,11952,1,11952,1,-1.4948e-05,-3.2882e-10,0,4.3485e-05,-3.1501e-05,-6.0648e+06,-53.413,0,1.187e+07,-23.377,11951,13059,1,13059,1,0.00017054,1.1049e-09,0,0.00017054,3.0162e-06,1.7333e+07,173.87,0,1.8968e+07,6.0724,13058,640.53,0,640.53,0,0.00010704,1.1131e-09,0,7.5082e-05,1.9928e-05,1.8291e+07,164.31,0,8.7597e+06,19.938,640.53,1
2054,0.71,12506,1,12506,1,7.8907e-05,8.0679e-10,0,0.0001105,-1.4456e-05,3.8698e+06,123.78,0,1.6736e+07,-13.731,12505,13656,1,13656,1,0.00025982,3.4991e-09,0,0.00025982,1.9238e-05,2.0858e+07,531.66,0,4.1478e+07,34.453,13655,12505,1,12505,1,7.8906e-05,6.077e-10,0,9.4067e-05,-1.4443e-05,1.303e+07,104,0,1.7076e+07,-11.112,12504,11321,1,11321,1,-0.000102,-1.5323e-09,0,6.894e-07,-4.8187e-05,-4.1478e+07,-232,0,5.6086e+05,-71.422,11320,11952,1,11952,1,-1.5162e-05,2.9166e-12,0,4.4107e-05,-3.1951e-05,-6.1516e+06,0.30922,0,1.204e+07,-29.817,11951,13059,1,13059,1,0.00017298,1.7129e-09,0,0.00017298,3.0594e-06,1.7581e+07,264.23,0,1.924e+07,1.0143,13058,640.53,0,640.53,0,0.00010857,1.1693e-09,0,7.6155e-05,2.0213e-05,1.8553e+07,175.49,0,8.885e+06,21.301,640.53,1
2054,0.72,12506,1,12506,1,8.0012e-05,1.1101e-09,0,0.00011205,-1.4659e-05,3.9237e+06,155.19,0,1.6971e+07,-180.83,12505,13656,1,13656,1,0.00026372,7.908e-07,0,0.00026372,1.9508e-05,2.1172e+07,53539,0,4.206e+07,10017,13655,12505,1,12505,1,8.0009e-05,7.6015e-11,0,9.5383e-05,-1.4646e-05,1.3212e+07,9.7551,0,1.7314e+07,11.642,12504,11321,1,11321,1,-0.00010343,-2.3336e-07,0,6.9927e-07,-4.8923e-05,-4.206e+07,-16368,0,5.688e+05,-27611,11320,11952,1,11952,1,-1.5375e-05,-4.604e-10,0,4.4726e-05,-3.24e-05,-6.2381e+06,-72.875,0,1.2209e+07,-20.589,11951,13059,1,13059,1,0.00017541,9.4911e-10,0,0.00017541,3.1025e-06,1.7828e+07,208.37,0,1.951e+07,77.344,13058,640.53,0,640.53,0,0.00011009,2.9988e-08,0,7.7221e-05,2.0497e-05,1.8813e+07,2077.6,0,9.0096e+06,1549.7,640.53,1
2054,0.73,12506,1,12506,1,8.1126e-05,2.6841e-10,0,0.00011361,-1.4863e-05,3.9786e+06,37.056,0,1.7207e+07,-8.7739,12505,13656,1,13656,1,0.00026712,2.3863e-09,0,0.00026712,1.9778e-05,2.1445e+07,335.97,0,4.2644e+07,41.352,13655,12505,1,12505,1,8.1125e-05,1.7583e-10,0,9.6713e-05,-1.485e-05,1.3396e+07,27.112,0,1.7557e+07,-8.0839,12504,11321,1,11321,1,-0.00010487,-1.9046e-09,0,7.0868e-07,-4.9542e-05,-4.2644e+07,-282.61,0,5.766e+05,-73.498,11320,11952,1,11952,1,-1.5588e-05,-3.213e-10,0,4.5347e-05,-3.285e-05,-6.3245e+06,-53.651,0,1.2378e+07,-21.799,11951,13059,1,13059,1,0.00017784,9.7454e-10,0,0.00017784,3.1454e-06,1.8075e+07,148.52,0,1.978e+07,5.4214,13058,640.53,0,640.53,0,0.00011162,9.724e-10,0,7.8297e-05,2.0781e-05,1.9074e+07,143.07,0,9.1348e+06,19.906,640.53,1
2054,0.74,12506,1,12506,1,8.2235e-05,1.0078e-10,0,0.00011516,-1.5066e-05,4.033e+06,-3.1574,0,1.7442e+07,-176.19,12505,13656,1,13656,1,0.00027083,2.7774e-07,0,0.00027083,2.0049e-05,2.1742e+07,19038,0,4.3226e+07,6705.7,13655,12505,1,12505,1,8.2234e-05,-4.7711e-10,0,9.8035e-05,-1.5055e-05,1.358e+07,-77.589,0,1.7796e+07,19.837,12504,11321,1,11321,1,-0.0001063,-9.2812e-08,0,7.1781e-07,-5.0271e-05,-4.3226e+07,-6714.6,0,5.8428e+05,-26160,11320,11952,1,11952,1,-1.5801e-05,-8.1575e-10,0,4.5966e-05,-3.3299e-05,-6.4109e+06,-115.18,0,1.2548e+07,8.4986,11951,13059,1,13059,1,0.00018027,-1.1561e-10,0,0.00018027,3.1886e-06,1.8322e+07,-16.015,0,2.0051e+07,49.157,13058,640.53,0,640.53,0,0.00011315,1.487e-08,0,7.9366e-05,2.1066e-05,1.9335e+07,1033.4,0,9.2596e+06,1508.1,640.53,1
2054,0.75,12506,1,12506,1,8.3351e-05,9.2334e-10,0,0.00011673,-1.527e-05,4.0877e+06,147.81,0,1.7679e+07,7.6012,12505,13656,1,13656,1,0.00027445,1.9546e-09,0,0.00027445,2.0321e-05,2.2033e+07,330.77,0,4.3814e+07,32.404,13655,12505,1,12505,1,8.3351e-05,9.971e-10,0,9.9367e-05,-1.5257e-05,1.3764e+07,157.74,0,1.8038e+07,9.0443,12504,11321,1,11321,1,-0.00010774,8.5568e-11,0,7.2838e-07,-5.0901e-05,-4.3814e+07,5.803,0,5.9249e+05,-36.057,11320,11952,1,11952,1,-1.6016e-05,5.4833e-10,0,4.659e-05,-3.375e-05,-6.498e+06,97.137,0,1.2718e+07,3.0776,11951,13059,1,13059,1,0.00018272,1.2613e-09,0,0.00018272,3.2319e-06,1.8571e+07,200.7,0,2.0323e+07,15.261,13058,640.53,0,640.53,0,0.00011468,4.228e-10,0,8.0444e-05,2.1351e-05,1.9598e+07,69.695,0,9.3853e+06,12.543,640.53,1
2054,0.76,12506,1,12506,1,8.4462e-05,1.3001e-11,0,0.00011828,-1.5474e-05,4.1422e+06,-2.1068,0,1.7915e+07,-7.511,12505,13656,1,13656,1,0.0002781,1.5936e-09,0,0.0002781,2.0592e-05,2.2326e+07,260.46,0,4.4397e+07,60.847,13655,12505,1,12505,1,8.4461e-05,2.0712e-11,0,0.00010069,-1.546e-05,1.3947e+07,2.915,0,1.8279e+07,-8.4152,12504,11321,1,11321,1,-0.00010918,-2.3863e-09,0,7.3794e-07,-5.1578e-05,-4.4397e+07,-324.57,0,6.0035e+05,-84.236,11320,11952,1,11952,1,-1.6229e-05,-3.2146e-10,0,4.7211e-05,-3.42e-05,-6.5847e+06,-57.702,0,1.2887e+07,-21.571,11951,13059,1,13059,1,0.00018515,5.9116e-10,0,0.00018515,3.2749e-06,1.8819e+07,82,0,2.0594e+07,9.2075,13058,640.53,0,640.53,0,0.00011621,7.807e-10,0,8.1516e-05,2.1636e-05,1.9859e+07,117.52,0,9.5105e+06,24.571,640.53,1
2054,0.77,12506,1,12506,1,8.5572e-05,1.4082e-09,0,0.00011984,-1.5677e-05,4.1967e+06,221.05,0,1.815e+07,-14.517,12505,13656,1,13656,1,0.00028176,4.1055e-09,0,0.00028176,2.0863e-05,2.262e+07,613.92,0,4.4982e+07,46.554,13655,12505,1,12505,1,8.557e-05,1.1627e-09,0,0.00010201,-1.5663e-05,1.413e+07,203.46,0,1.8519e+07,-15.603,12504,11321,1,11321,1,-0.00011061,-5.3411e-10,0,7.4757e-07,-5.2257e-05,-4.4982e+07,-64.613,0,6.0823e+05,-64.731,11320,11952,1,11952,1,-1.6442e-05,4.8734e-10,0,4.7832e-05,-3.465e-05,-6.6711e+06,77.289,0,1.3057e+07,-30.646,11951,13059,1,13059,1,0.00018759,2.3212e-09,0,0.00018759,3.3178e-06,1.9066e+07,360.26,0,2.0865e+07,0.30492,13058,640.53,0,640.53,0,0.00011774,1.1369e-09,0,8.2587e-05,2.192e-05,2.012e+07,169.38,0,9.6354e+06,21.987,640.53,1
2054,0.78,12506,1,12506,1,8.6681e-05,-2.4291e-10,0,0.00012139,-1.588e-05,4.251e+06,-33.255,0,1.8385e+07,25.303,12505,13656,1,13656,1,0.00028541,6.9054e-09,0,0.00028541,2.1133e-05,2.2913e+07,469.92,0,4.5564e+07,944.2,13655,12505,1,12505,1,8.6681e-05,-1.708e-10,0,0.00010334,-1.5867e-05,1.4314e+07,-26.712,0,1.8759e+07,26.43,12504,11321,1,11321,1,-0.00011205,-3.4713e-08,0,7.5757e-07,-5.2936e-05,-4.5564e+07,-2349.4,0,6.162e+05,-1191.9,11320,11952,1,11952,1,-1.6656e-05,-4.2186e-10,0,4.8452e-05,-3.5099e-05,-6.7577e+06,-64.689,0,1.3226e+07,14.539,11951,13059,1,13059,1,0.00019002,-6.4463e-13,0,0.00019002,3.361e-06,1.9313e+07,-0.165,0,2.1135e+07,39.914,13058,640.53,0,640.53,0,0.00011926,1.1154e-09,0,8.3658e-05,2.2204e-05,2.038e+07,85.618,0,9.7603e+06,58.862,640.53,1
2054,0.79,12506,1,12506,1,8.7794e-05,1.2967e-10,0,0.00012295,-1.6084e-05,4.3056e+06,15.975,0,1.8621e+07,-17.149,12505,13656,1,13656,1,0.00028907,2.6803e-08,0,0.00028907,2.1404e-05,2.3207e+07,1815.2,0,4.6149e+07,454.08,13655,12505,1,12505,1,8.7793e-05,8.4011e-11,0,0.00010466,-1.607e-05,1.4497e+07,10.764,0,1.8999e+07,-14.136,12504,11321,1,11321,1,-0.00011348,-2.7197e-09,0,7.6721e-07,-5.3613e-05,-4.6149e+07,-349.94,0,6.2408e+05,-1515.9,11320,11952,1,11952,1,-1.6869e-05,-4.0922e-10,0,4.9074e-05,-3.5549e-05,-6.8444e+06,-67.291,0,1.3396e+07,-28.943,11951,13059,1,13059,1,0.00019246,7.7101e-10,0,0.00019246,3.404e-06,1.9561e+07,116.8,0,2.1406e+07,-4.5203,13058,640.53,0,640.53,0,0.00012079,1.1557e-09,0,8.4731e-05,2.2489e-05,2.0642e+07,146.23,0,9.8856e+06,59.157,640.53,1
2054,0.8,12506,1,12506,1,8.8906e-05,6.9459e-10,0,0.0001245,-1.6288e-05,4.3601e+06,105.7,0,1.8857e+07,-15.844,12505,13656,1,13656,1,0.00029274,2.6512e-09,0,0.00029274,2.1675e-05,2.3501e+07,379.95,0,4.6733e+07,40.17,13655,12505,1,12505,1,8.8905e-05,4.8607e-10,0,0.00010599,-1.6274e-05,1.4681e+07,87.215,0,1.924e+07,-16.907,12504,11321,1,11321,1,-0.00011492,-7.7359e-10,0,7.7686e-07,-5.4292e-05,-4.6733e+07,-128.78,0,6.3196e+05,-55.329,11320,11952,1,11952,1,-1.7083e-05,7.9693e-11,0,4.9696e-05,-3.6e-05,-6.9311e+06,8.7625,0,1.3566e+07,-26.026,11951,13059,1,13059,1,0.0001949,1.2812e-09,0,0.0001949,3.4471e-06,1.9809e+07,202.02,0,2.1677e+07,-9.1779,13058,640.53,0,640.53,0,0.00012232,8.6661e-10,0,8.5805e-05,2.2774e-05,2.0904e+07,125.8,0,1.0011e+07,14.717,640.53,1
2054,0.81,12506,1,12506,1,9.0018e-05,5.2865e-10,0,0.00012606,-1.6492e-05,4.4147e+06,84.581,0,1.9093e+07,13.016,12505,13656,1,13656,1,0.0002964,1.9244e-09,0,0.0002964,2.1946e-05,2.3795e+07,334.78,0,4.7318e+07,61.514,13655,12505,1,12505,1,9.0018e-05,4.6355e-10,0,0.00010731,-1.6477e-05,1.4865e+07,73.006,0,1.9481e+07,13.247,12504,11321,1,11321,1,-0.00011636,-3.2868e-11,0,7.8671e-07,-5.4971e-05,-4.7318e+07,-6.6492,0,6.3991e+05,-31.764,11320,11952,1,11952,1,-1.7297e-05,2.5607e-10,0,5.0317e-05,-3.645e-05,-7.0178e+06,42.802,0,1.3735e+07,3.6799,11951,13059,1,13059,1,0.00019733,6.4178e-10,0,0.00019733,3.4904e-06,2.0056e+07,103.74,0,2.1948e+07,23.741,13058,640.53,0,640.53,0,0.00012386,3.846e-10,0,8.6878e-05,2.3059e-05,2.1165e+07,62.546,0,1.0136e+07,15.764,640.53,1
2054,0.82,12506,1,12506,1,9.1129e-05,2.8606e-10,0,0.00012762,-1.6695e-05,4.4692e+06,46.32,0,1.9329e+07,-0.9345,12505,13656,1,13656,1,0.00030005,1.6234e-09,0,0.00030005,2.2217e-05,2.4089e+07,277.56,0,4.7901e+07,27.467,13655,12505,1,12505,1,9.1129e-05,1.7291e-10,0,0.00010864,-1.6681e-05,1.5048e+07,26.464,0,1.9721e+07,-0.86367,12504,11321,1,11321,1,-0.00011779,-4.1209e-10,0,7.9637e-07,-5.5649e-05,-4.7901e+07,-77.1,0,6.4779e+05,-35.722,11320,11952,1,11952,1,-1.751e-05,-2.8578e-12,0,5.0938e-05,-3.69e-05,-7.1044e+06,-0.3255,0,1.3905e+07,-6.1616,11951,13059,1,13059,1,0.00019977,4.9474e-10,0,0.00019977,3.5334e-06,2.0304e+07,83.809,0,2.2219e+07,5.5286,13058,640.53,0,640.53,0,0.00012538,4.2679e-10,0,8.7951e-05,2.3343e-05,2.1426e+07,68.371,0,1.0261e+07,10.143,640.53,1
2054,0.83,12506,1,12506,1,9.2237e-05,2.569e-10,0,0.00012917,-1.6898e-05,4.5235e+06,42.767,0,1.9564e+07,15.02,12505,13656,1,13656,1,0.0003037,1.2424e-09,0,0.0003037,2.2487e-05,2.4381e+07,201.47,0,4.8484e+07,52.453,13655,12505,1,12505,1,9.2237e-05,1.7303e-10,0,0.00010996,-1.6884e-05,1.5231e+07,31.652,0,1.9961e+07,19.274,12504,11321,1,11321,1,-0.00011923,-2.4936e-10,0,8.0602e-07,-5.6326e-05,-4.8484e+07,-37.472,0,6.5566e+05,-41.359,11320,11952,1,11952,1,-1.7723e-05,5.7526e-11,0,5.1557e-05,-3.7348e-05,-7.1908e+06,7.201,0,1.4074e+07,3.3583,11951,13059,1,13059,1,0.0002022,3.9603e-10,0,0.0002022,3.5764e-06,2.0551e+07,68.653,0,2.2489e+07,29.953,13058,640.53,0,640.53,0,0.00012691,3.141e-10,0,8.902e-05,2.3627e-05,2.1687e+07,49.1,0,1.0386e+07,20.477,640.53,1
2054,0.84,12506,1,12506,1,9.3351e-05,-2.2809e-10,0,0.00013073,-1.7102e-05,4.5781e+06,-36.223,0,1.98e+07,5.2616,12505,13656,1,13656,1,0.00030737,6.1179e-10,0,0.00030737,2.2759e-05,2.4676e+07,94.793,0,4.907e+07,26.851,13655,12505,1,12505,1,9.3351e-05,-2.1478e-10,0,0.00011129,-1.7087e-05,1.5415e+07,-36.085,0,2.0202e+07,8.0474,12504,11321,1,11321,1,-0.00012067,-8.0655e-10,0,8.1592e-07,-5.7006e-05,-4.907e+07,-142.67,0,6.6364e+05,-42.834,11320,11952,1,11952,1,-1.7937e-05,-4.658e-10,0,5.218e-05,-3.78e-05,-7.2777e+06,-70.442,0,1.4244e+07,-0.060673,11951,13059,1,13059,1,0.00020464,-3.9731e-11,0,0.00020464,3.6196e-06,2.0799e+07,-4.9206,0,2.2761e+07,14.647,13058,640.53,0,640.53,0,0.00012844,2.8987e-10,0,9.0095e-05,2.3912e-05,2.1949e+07,44.593,0,1.0511e+07,12.964,640.53,1
2054,0.85,12506,1,12506,1,9.446e-05,1.3808e-11,0,0.00013228,-1.7305e-05,4.6328e+06,3.8753,0,2.0035e+07,-0.044648,12505,13656,1,13656,1,0.00031103,2.3349e-08,0,0.00031103,2.3028e-05,2.497e+07,1584.4,0,4.9651e+07,587.7,13655,12505,1,12505,1,9.446e-05,-1.3759e-11,0,0.00011261,-1.7291e-05,1.5598e+07,-1.9677,0,2.0442e+07,8.7738,12504,11321,1,11321,1,-0.0001221,-2.8397e-09,0,8.2391e-07,-5.7686e-05,-4.9651e+07,-205.38,0,6.7095e+05,-1511,11320,11952,1,11952,1,-1.8149e-05,-2.4131e-10,0,5.2798e-05,-3.8248e-05,-7.3634e+06,-31.876,0,1.4412e+07,-4.5579,11951,13059,1,13059,1,0.00020707,2.0189e-10,0,0.00020707,3.6623e-06,2.1046e+07,34.323,0,2.3031e+07,14.279,13058,640.53,0,640.53,0,0.00012997,9.0941e-10,0,9.1165e-05,2.4196e-05,2.2209e+07,77.014,0,1.0636e+07,70.319,640.53,1
2054,0.86,12506,1,12506,1,9.5572e-05,4.6634e-10,0,0.00013384,-1.7509e-05,4.687e+06,73.343,0,2.0271e+07,11.889,12505,13656,1,13656,1,0.00031468,1.0795e-09,0,0.00031468,2.33e-05,2.5263e+07,176.02,0,5.0237e+07,33.583,13655,12505,1,12505,1,9.5572e-05,4.8293e-10,0,0.00011394,-1.7494e-05,1.5782e+07,75.083,0,2.0683e+07,12.93,12504,11321,1,11321,1,-0.00012354,5.2172e-12,0,8.3533e-07,-5.8363e-05,-5.0237e+07,0.37095,0,6.7941e+05,-26.441,11320,11952,1,11952,1,-1.8364e-05,2.5133e-10,0,5.3421e-05,-3.8699e-05,-7.4508e+06,46.65,0,1.4583e+07,7.6452,11951,13059,1,13059,1,0.00020951,6.4709e-10,0,0.00020951,3.7058e-06,2.1294e+07,99.691,0,2.3302e+07,18.355,13058,640.53,0,640.53,0,0.0001315,2.4118e-10,0,9.2239e-05,2.4481e-05,2.2471e+07,36.639,0,1.0761e+07,10.642,640.53,1
2054,0.87,12506,1,12506,1,9.6683e-05,7.7295e-10,0,0.0001354,-1.7713e-05,4.7415e+06,125.1,0,2.0507e+07,10.902,12505,13656,1,13656,1,0.00031834,1.8398e-09,0,0.00031834,2.3571e-05,2.5557e+07,303.16,0,5.0822e+07,38.475,13655,12505,1,12505,1,9.6683e-05,7.1964e-10,0,0.00011526,-1.7697e-05,1.5966e+07,121.36,0,2.0923e+07,14.128,12504,11321,1,11321,1,-0.00012497,1.2222e-10,0,8.4495e-07,-5.9042e-05,-5.0822e+07,8.2997,0,6.8728e+05,-42.678,11320,11952,1,11952,1,-1.8578e-05,4.6609e-10,0,5.4042e-05,-3.9149e-05,-7.5374e+06,76.519,0,1.4752e+07,4.8854,11951,13059,1,13059,1,0.00021194,1.0406e-09,0,0.00021194,3.7489e-06,2.1541e+07,172.42,0,2.3573e+07,20.744,13058,640.53,0,640.53,0,0.00013303,3.8137e-10,0,9.3311e-05,2.4766e-05,2.2732e+07,65.717,0,1.0887e+07,15.577,640.53,1
2054,0.88,12506,1,12506,1,9.7795e-05,-1.9484e-10,0,0.00013695,-1.7916e-05,4.7961e+06,-30.638,0,2.0742e+07,-3.1723,12505,13656,1,13656,1,0.000322,1.1644e-09,0,0.000322,2.3842e-05,2.5851e+07,174.21,0,5.1406e+07,22.216,13655,12505,1,12505,1,9.7795e-05,-1.9516e-10,0,0.00011659,-1.7901e-05,1.6149e+07,-30.653,0,2.1164e+07,-3.3193,12504,11321,1,11321,1,-0.00012641,-1.1123e-09,0,8.5475e-07,-5.972e-05,-5.1406e+07,-181.15,0,6.9522e+05,-31.567,11320,11952,1,11952,1,-1.8791e-05,-5.8847e-10,0,5.4664e-05,-3.9599e-05,-7.6241e+06,-96.193,0,1.4922e+07,-12.591,11951,13059,1,13059,1,0.00021438,1.5001e-10,0,0.00021438,3.7918e-06,2.1789e+07,24.371,0,2.3845e+07,5.1415,13058,640.53,0,640.53,0,0.00013456,5.2762e-10,0,9.4384e-05,2.5051e-05,2.2994e+07,81.51,0,1.1012e+07,12.175,640.53,1
2054,0.89,12506,1,12506,1,9.8903e-05,4.9232e-10,0,0.00013851,-1.8119e-05,4.8504e+06,78.755,0,2.0978e+07,2.5,12505,13656,1,13656,1,0.00032565,1.3555e-09,0,0.00032565,2.4112e-05,2.6144e+07,233.01,0,5.1988e+07,19.056,13655,12505,1,12505,1,9.8903e-05,5.1439e-10,0,0.00011791,-1.8104e-05,1.6332e+07,79.849,0,2.1404e+07,3.7393,12504,11321,1,11321,1,-0.00012784,4.8738e-11,0,8.6442e-07,-6.0397e-05,-5.1988e+07,3.3098,0,7.0308e+05,-22.751,11320,11952,1,11952,1,-1.9004e-05,2.8011e-10,0,5.5283e-05,-4.0048e-05,-7.7105e+06,50.631,0,1.5091e+07,0.19361,11951,13059,1,13059,1,0.00021681,6.3888e-10,0,0.00021681,3.8349e-06,2.2036e+07,102.98,0,2.4115e+07,6.8648,13058,640.53,0,640.53,0,0.00013608,2.5157e-10,0,9.5454e-05,2.5335e-05,2.3254e+07,41.036,0,1.1137e+07,7.4861,640.53,1
2054,0.9,12506,1,12506,1,0.00010001,5.0499e-10,0,0.00014006,-1.8323e-05,4.905e+06,81.941,0,2.1213e+07,5.8489,12505,13656,1,13656,1,0.00032931,1.3495e-09,0,0.00032931,2.4383e-05,2.6437e+07,267.72,0,5.2571e+07,35.7,13655,12505,1,12505,1,0.00010001,4.3461e-10,0,0.00011923,-1.8307e-05,1.6515e+07,71.866,0,2.1644e+07,9.3057,12504,11321,1,11321,1,-0.00012928,-1.8535e-11,0,8.7339e-07,-6.1075e-05,-5.2571e+07,-1.262,0,7.1073e+05,-30.726,11320,11952,1,11952,1,-1.9217e-05,2.6467e-10,0,5.5903e-05,-4.0497e-05,-7.7967e+06,43.16,0,1.526e+07,-2.0179,11951,13059,1,13059,1,0.00021924,6.8413e-10,0,0.00021924,3.8778e-06,2.2283e+07,112.92,0,2.4385e+07,14.165,13058,640.53,0,640.53,0,0.00013761,3.0305e-10,0,9.6525e-05,2.5619e-05,2.3515e+07,51.907,0,1.1261e+07,12.371,640.53,1
2054,0.91,12506,1,12506,1,0.00010113,7.1287e-10,0,0.00014162,-1.8527e-05,4.9596e+06,113.19,0,2.1449e+07,-4.1131,12505,13656,1,13656,1,0.00033298,1.8618e-09,0,0.00033298,2.4655e-05,2.6732e+07,289.23,0,5.3158e+07,12.412,13655,12505,1,12505,1,0.00010113,6.077e-10,0,0.00012056,-1.8511e-05,1.6699e+07,103.35,0,2.1885e+07,-4.0645,12504,11321,1,11321,1,-0.00013072,5.041e-11,0,8.8363e-07,-6.1756e-05,-5.3158e+07,3.4176,0,7.1883e+05,-22.317,11320,11952,1,11952,1,-1.9432e-05,3.5288e-10,0,5.6527e-05,-4.0949e-05,-7.8839e+06,55.641,0,1.543e+07,-9.8566,11951,13059,1,13059,1,0.00022169,1.0512e-09,0,0.00022169,3.9211e-06,2.2532e+07,165.64,0,2.4657e+07,1.6546,13058,640.53,0,640.53,0,0.00013914,4.431e-10,0,9.7601e-05,2.5905e-05,2.3777e+07,69.005,0,1.1387e+07,6.7734,640.53,1
2054,0.92,12506,1,12506,1,0.00010224,3.1928e-10,0,0.00014318,-1.8731e-05,5.0143e+06,49.452,0,2.1685e+07,-4.0324,12505,13656,1,13656,1,0.00033663,1.113e-09,0,0.00033663,2.4925e-05,2.7025e+07,229.54,0,5.374e+07,25.595,13655,12505,1,12505,1,0.00010224,2.4766e-10,0,0.00012188,-1.8715e-05,1.6883e+07,44.267,0,2.2126e+07,-3.8015,12504,11321,1,11321,1,-0.00013215,-1.6712e-10,0,8.9179e-07,-6.2433e-05,-5.374e+07,-26.926,0,7.2621e+05,-38.727,11320,11952,1,11952,1,-1.9643e-05,1.0616e-10,0,5.7146e-05,-4.1398e-05,-7.9699e+06,14.623,0,1.5599e+07,-15.318,11951,13059,1,13059,1,0.00022412,5.2654e-10,0,0.00022412,3.9638e-06,2.2779e+07,74.133,0,2.4928e+07,7.8929,13058,640.53,0,640.53,0,0.00014067,2.7341e-10,0,9.8673e-05,2.6189e-05,2.4038e+07,43.949,0,1.1512e+07,14.048,640.53,1
2054,0.93,12506,1,12506,1,0.00010335,4.1937e-10,0,0.00014473,-1.8934e-05,5.0685e+06,67.07,0,2.1921e+07,-0.81582,12505,13656,1,13656,1,0.00034029,1.5801e-09,0,0.00034029,2.5196e-05,2.7319e+07,258.39,0,5.4325e+07,24.753,13655,12505,1,12505,1,0.00010335,3.2081e-10,0,0.00012321,-1.8918e-05,1.7066e+07,52.411,0,2.2366e+07,2.3378,12504,11321,1,11321,1,-0.00013359,1.7853e-11,0,9.0328e-07,-6.3112e-05,-5.4325e+07,1.2095,0,7.3469e+05,-36.613,11320,11952,1,11952,1,-1.9858e-05,2.1302e-10,0,5.7769e-05,-4.1848e-05,-8.0571e+06,32.746,0,1.5769e+07,-4.5507,11951,13059,1,13059,1,0.00022656,5.2332e-10,0,0.00022656,4.0072e-06,2.3027e+07,89.93,0,2.5199e+07,5.3434,13058,640.53,0,640.53,0,0.0001422,3.1192e-10,0,9.9744e-05,2.6474e-05,2.4299e+07,49.255,0,1.1637e+07,11.119,640.53,1
2054,0.94,12506,1,12506,1,0.00010446,1.9413e-10,0,0.00014629,-1.9137e-05,5.1229e+06,32.183,0,2.2156e+07,1.9805,12505,13656,1,13656,1,0.00034394,1.0701e-09,0,0.00034394,2.5466e-05,2.7612e+07,176.43,0,5.4908e+07,40.659,13655,12505,1,12505,1,0.00010446,1.2993e-10,0,0.00012453,-1.9121e-05,1.7249e+07,20.943,0,2.2606e+07,2.0143,12504,11321,1,11321,1,-0.00013502,-2.1522e-10,0,9.1311e-07,-6.3789e-05,-5.4908e+07,-44.341,0,7.4262e+05,-13.053,11320,11952,1,11952,1,-2.0072e-05,3.8767e-11,0,5.8389e-05,-4.2297e-05,-8.1436e+06,3.8418,0,1.5939e+07,-1.8296,11951,13059,1,13059,1,0.00022899,3.0138e-10,0,0.00022899,4.0503e-06,2.3274e+07,50.477,0,2.5469e+07,5.4192,13058,640.53,0,640.53,0,0.00014372,2.4133e-10,0,0.00010082,2.6758e-05,2.456e+07,40.187,0,1.1762e+07,5.8332,640.53,1
2054,0.95,12506,1,12506,1,0.00010557,6.1045e-10,0,0.00014784,-1.934e-05,5.1773e+06,96.402,0,2.2391e+07,-2.5406,12505,13656,1,13656,1,0.0003476,1.3398e-09,0,0.0003476,2.5737e-05,2.7906e+07,214,0,5.5492e+07,13.007,13655,12505,1,12505,1,0.00010557,5.2734e-10,0,0.00012585,-1.9324e-05,1.7433e+07,93.132,0,2.2846e+07,0.2675,12504,11321,1,11321,1,-0.00013646,2.789e-11,0,9.227e-07,-6.4467e-05,-5.5492e+07,2.3858,0,7.5049e+05,-24.594,11320,11952,1,11952,1,-2.0285e-05,2.7056e-10,0,5.9009e-05,-4.2747e-05,-8.2301e+06,41.316,0,1.6108e+07,-5.488,11951,13059,1,13059,1,0.00023142,9.7746e-10,0,0.00023142,4.0932e-06,2.3521e+07,150.12,0,2.574e+07,2.5068,13058,640.53,0,640.53,0,0.00014525,3.9349e-10,0,0.00010189,2.7042e-05,2.4821e+07,60.261,0,1.1887e+07,7.9335,640.53,1
2054,0.96,12506,1,12506,1,0.00010668,-6.003e-11,0,0.00014939,-1.9544e-05,5.2318e+06,-9.8595,0,2.2627e+07,-0.48215,12505,13656,1,13656,1,0.00035125,2.8118e-10,0,0.00035125,2.6008e-05,2.8199e+07,42.65,0,5.6075e+07,14.613,13655,12505,1,12505,1,0.00010668,-4.7718e-11,0,0.00012718,-1.9527e-05,1.7616e+07,-7.7216,0,2.3087e+07,0.53573,12504,11321,1,11321,1,-0.00013789,-2.5407e-10,0,9.3241e-07,-6.5145e-05,-5.6075e+07,-37.106,0,7.5837e+05,-23.287,11320,11952,1,11952,1,-2.0498e-05,-1.2115e-10,0,5.963e-05,-4.3196e-05,-8.3167e+06,-21.367,0,1.6277e+07,-4.1411,11951,13059,1,13059,1,0.00023386,-1.4376e-12,0,0.00023386,4.1363e-06,2.3768e+07,-0.20634,0,2.6011e+07,3.7332,13058,640.53,0,640.53,0,0.00014678,9.3397e-11,0,0.00010296,2.7326e-05,2.5082e+07,14.313,0,1.2012e+07,6.7087,640.53,1
2054,0.97,12506,1,12506,1,0.00010779,-2.1304e-10,0,0.00015095,-1.9748e-05,5.2863e+06,-32.561,0,2.2863e+07,7.6352,12505,13656,1,13656,1,0.00035492,2.5609e-10,0,0.00035492,2.6279e-05,2.8493e+07,47.468,0,5.666e+07,59.853,13655,12505,1,12505,1,0.00010779,-2.0064e-10,0,0.0001285,-1.9731e-05,1.78e+07,-34.743,0,2.3328e+07,7.4678,12504,11321,1,11321,1,-0.00013933,-7.987e-10,0,9.4228e-07,-6.5825e-05,-5.666e+07,-75.953,0,7.6633e+05,-19.203,11320,11952,1,11952,1,-2.0712e-05,-3.32e-10,0,6.0252e-05,-4.3647e-05,-8.4035e+06,-50.813,0,1.6447e+07,4.4842,11951,13059,1,13059,1,0.0002363,-1.0784e-10,0,0.0002363,4.1795e-06,2.4017e+07,-15.87,0,2.6282e+07,10.988,13058,640.53,0,640.53,0,0.00014831,1.4539e-10,0,0.00010403,2.7612e-05,2.5344e+07,22.551,0,1.2137e+07,7.2136,640.53,1
2054,0.98,12506,1,12506,1,0.0001089,5.0611e-10,0,0.00015251,-1.9951e-05,5.3408e+06,80.273,0,2.3098e+07,2.2828,12505,13656,1,13656,1,0.00035857,1.1301e-09,0,0.00035857,2.655e-05,2.8787e+07,175.5,0,5.7244e+07,17.657,13655,12505,1,12505,1,0.0001089,4.4669e-10,0,0.00012983,-1.9934e-05,1.7983e+07,79.885,0,2.3568e+07,1.1612,12504,11321,1,11321,1,-0.00014077,3.6773e-11,0,9.5195e-07,-6.6503e-05,-5.7244e+07,2.5005,0,7.7421e+05,-12.118,11320,11952,1,11952,1,-2.0925e-05,2.8171e-10,0,6.0872e-05,-4.4096e-05,-8.49e+06,46.243,0,1.6617e+07,-1.546,11951,13059,1,13059,1,0.00023873,7.516e-10,0,0.00023873,4.2226e-06,2.4264e+07,115.5,0,2.6553e+07,5.8338,13058,640.53,0,640.53,0,0.00014984,2.7466e-10,0,0.0001051,2.7896e-05,2.5605e+07,42.517,0,1.2262e+07,6.2502,640.53,1
2054,0.99,12506,1,12506,1,0.00011001,3.0241e-10,0,0.00015407,-2.0155e-05,5.3954e+06,49.298,0,2.3334e+07,-0.82855,12505,13656,1,13656,1,0.00036224,1.5795e-09,0,0.00036224,2.6821e-05,2.9081e+07,253.57,0,5.7828e+07,20.693,13655,12505,1,12505,1,0.00011001,1.9671e-10,0,0.00013115,-2.0138e-05,1.8167e+07,29.317,0,2.3808e+07,1.3396,12504,11321,1,11321,1,-0.00014221,-2.9979e-10,0,9.6132e-07,-6.7182e-05,-5.7828e+07,-54.804,0,7.82e+05,-33.872,11320,11952,1,11952,1,-2.1139e-05,-5.465e-12,0,6.1494e-05,-4.4547e-05,-8.5767e+06,-0.88159,0,1.6786e+07,-6.75,11951,13059,1,13059,1,0.00024117,5.1143e-10,0,0.00024117,4.2656e-06,2.4512e+07,87.191,0,2.6824e+07,6.1678,13058,640.53,0,640.53,0,0.00015137,4.116e-10,0,0.00010618,2.8181e-05,2.5867e+07,64.515,0,1.2388e+07,9.5237,640.53,1
2054,1,12506,1,12506,1,0.00011112,6.4758e-10,0,0.00015562,-2.0358e-05,5.4499e+06,103.49,0,2.357e+07,-2.8404,12505,13656,1,13656,1,0.00036589,1.2965e-09,0,0.00036589,2.7091e-05,2.9374e+07,214.77,0,5.8412e+07,17.141,13655,12505,1,12505,1,0.00011112,6.9451e-10,0,0.00013248,-2.0341e-05,1.835e+07,111.12,0,2.4049e+07,-1.9142,12504,11321,1,11321,1,-0.00014364,6.3223e-11,0,9.7058e-07,-6.786e-05,-5.8412e+07,4.2872,0,7.8975e+05,-27.302,11320,11952,1,11952,1,-2.1352e-05,3.9762e-10,0,6.2114e-05,-4.4996e-05,-8.663e+06,69.003,0,1.6955e+07,-9.8078,11951,13059,1,13059,1,0.0002436,8.8719e-10,0,0.0002436,4.3086e-06,2.4759e+07,140.41,0,2.7094e+07,3.4512,13058,640.53,0,640.53,0,0.00015289,2.8994e-10,0,0.00010725,2.8465e-05,2.6127e+07,47.808,0,1.2513e+07,8.3606,640.53,1
2054,1.01,12506,1,12506,1,0.00011224,1.3315e-10,0,0.00015718,-2.0562e-05,5.5043e+06,22.772,0,2.3805e+07,9.4225,12505,13656,1,13656,1,0.00036955,6.5039e-10,0,0.00036955,2.7363e-05,2.9668e+07,116.87,0,5.8996e+07,37.008,13655,12505,1,12505,1,0.00011224,1.0529e-10,0,0.0001338,-2.0544e-05,1.8534e+07,18.882,0,2.4289e+07,11.436,12504,11321,1,11321,1,-0.00014508,-2.2634e-10,0,9.81e-07,-6.8539e-05,-5.8996e+07,-15.916,0,7.9789e+05,-29.546,11320,11952,1,11952,1,-2.1566e-05,4.9152e-11,0,6.2736e-05,-4.5447e-05,-8.7499e+06,6.0844,0,1.7125e+07,3.6387,11951,13059,1,13059,1,0.00024604,2.0349e-10,0,0.00024604,4.3519e-06,2.5007e+07,34.609,0,2.7366e+07,16.023,13058,640.53,0,640.53,0,0.00015443,1.1078e-10,0,0.00010832,2.875e-05,2.6389e+07,19.859,0,1.2638e+07,9.981,640.53,1
2054,1.02,12506,1,12506,1,0.00011335,9.4677e-10,0,0.00015874,-2.0766e-05,5.5589e+06,145.67,0,2.4042e+07,-14.385,12505,13656,1,13656,1,0.00037322,3.5353e-09,0,0.00037322,2.7634e-05,2.9963e+07,522.25,0,5.9582e+07,32.719,13655,12505,1,12505,1,0.00011335,6.9199e-10,0,0.00013513,-2.0748e-05,1.8717e+07,115.56,0,2.453e+07,-12.969,12504,11321,1,11321,1,-0.00014652,-9.0094e-10,0,9.9048e-07,-6.922e-05,-5.9582e+07,-152.56,0,8.0572e+05,-55.935,11320,11952,1,11952,1,-2.178e-05,1.7732e-10,0,6.3359e-05,-4.5898e-05,-8.8367e+06,25.059,0,1.7295e+07,-24.61,11951,13059,1,13059,1,0.00024848,1.6576e-09,0,0.00024848,4.3949e-06,2.5255e+07,264.7,0,2.7637e+07,-4.1106,13058,640.53,0,640.53,0,0.00015596,1.059e-09,0,0.0001094,2.9035e-05,2.6651e+07,157.99,0,1.2763e+07,15.219,640.53,1
2054,1.03,12506,1,12506,1,0.00011446,2.0339e-10,0,0.00016029,-2.0969e-05,5.6133e+06,33.331,0,2.4276e+07,0.95149,12505,13656,1,13656,1,0.00037686,7.0319e-10,0,0.00037686,2.7904e-05,3.0255e+07,145.06,0,6.0163e+07,20.726,13655,12505,1,12505,1,0.00011446,1.6284e-10,0,0.00013645,-2.0951e-05,1.8901e+07,28.897,0,2.477e+07,3.8172,12504,11321,1,11321,1,-0.00014795,-2.282e-12,0,9.9988e-07,-6.9895e-05,-6.0163e+07,-0.75767,0,8.135e+05,-39.389,11320,11952,1,11952,1,-2.1993e-05,9.8951e-11,0,6.3977e-05,-4.6346e-05,-8.923e+06,15.276,0,1.7464e+07,-4.067,11951,13059,1,13059,1,0.00025091,2.7558e-10,0,0.00025091,4.4379e-06,2.5502e+07,45.536,0,2.7907e+07,9.1378,13058,640.53,0,640.53,0,0.00015748,1.3729e-10,0,0.00011047,2.9319e-05,2.6911e+07,23.577,0,1.2888e+07,12.185,640.53,1
2054,1.04,12506,1,12506,1,0.00011557,8.6908e-10,0,0.00016185,-2.1173e-05,5.6679e+06,131.02,0,2.4513e+07,-19.075,12505,13656,1,13656,1,0.00038054,2.9625e-09,0,0.00038054,2.8176e-05,3.055e+07,426.7,0,6.0751e+07,34.533,13655,12505,1,12505,1,0.00011557,6.7437e-10,0,0.00013778,-2.1155e-05,1.9085e+07,115.48,0,2.5011e+07,-19.172,12504,11321,1,11321,1,-0.00014939,-6.7303e-10,0,1.01e-06,-7.0577e-05,-6.0751e+07,-90.959,0,8.2153e+05,-60.562,11320,11952,1,11952,1,-2.2207e-05,1.5788e-10,0,6.4601e-05,-4.6798e-05,-9.01e+06,25.34,0,1.7634e+07,-27.844,11951,13059,1,13059,1,0.00025335,1.5423e-09,0,0.00025335,4.4811e-06,2.575e+07,228.53,0,2.8179e+07,-11.931,13058,640.53,0,640.53,0,0.00015902,8.7185e-10,0,0.00011154,2.9605e-05,2.7173e+07,123.94,0,1.3014e+07,14.506,640.53,1
2054,1.05,12506,1,12506,1,0.00011668,2.5395e-10,0,0.0001634,-2.1376e-05,5.7223e+06,41.863,0,2.4748e+07,10.631,12505,13656,1,13656,1,0.00038418,7.0239e-10,0,0.00038418,2.8446e-05,3.0843e+07,141.69,0,6.1332e+07,37.039,13655,12505,1,12505,1,0.00011668,2.048e-10,0,0.0001391,-2.1358e-05,1.9268e+07,36.498,0,2.5251e+07,12.698,12504,11321,1,11321,1,-0.00015082,2.4486e-12,0,1.0195e-06,-7.1253e-05,-6.1332e+07,0.18068,0,8.2937e+05,-28.773,11320,11952,1,11952,1,-2.242e-05,1.1131e-10,0,6.522e-05,-4.7246e-05,-9.0964e+06,15.853,0,1.7803e+07,3.9814,11951,13059,1,13059,1,0.00025578,3.7859e-10,0,0.00025578,4.5241e-06,2.5997e+07,63.53,0,2.8449e+07,20.305,13058,640.53,0,640.53,0,0.00016054,1.6908e-10,0,0.00011261,2.9888e-05,2.7434e+07,29.118,0,1.3138e+07,13.932,640.53,1
2054,1.06,12506,1,12506,1,0.00011779,-3.1503e-10,0,0.00016496,-2.158e-05,5.7769e+06,-47.86,0,2.4984e+07,3.7428,12505,13656,1,13656,1,0.00038786,5.0325e-10,0,0.00038786,2.8718e-05,3.1137e+07,87.847,0,6.1919e+07,43.082,13655,12505,1,12505,1,0.00011779,-3.0342e-10,0,0.00014043,-2.1562e-05,1.9452e+07,-50.622,0,2.5492e+07,8.4138,12504,11321,1,11321,1,-0.00015226,-9.7253e-10,0,1.0295e-06,-7.1934e-05,-6.1919e+07,-143.24,0,8.3737e+05,-59.795,11320,11952,1,11952,1,-2.2634e-05,-5.5609e-10,0,6.5843e-05,-4.7697e-05,-9.1833e+06,-82.883,0,1.7973e+07,-1.2532,11951,13059,1,13059,1,0.00025822,-1.1025e-10,0,0.00025822,4.5674e-06,2.6245e+07,-15.745,0,2.8721e+07,14.694,13058,640.53,0,640.53,0,0.00016207,3.0693e-10,0,0.00011369,3.0174e-05,2.7696e+07,45.479,0,1.3264e+07,17.119,640.53,1
2054,1.07,12506,1,12506,1,0.00011891,1.1963e-10,0,0.00016652,-2.1784e-05,5.8314e+06,15.37,0,2.522e+07,-14.362,12505,13656,1,13656,1,0.00039151,1.7229e-09,0,0.00039151,2.8989e-05,3.1431e+07,266.65,0,6.2502e+07,28.135,13655,12505,1,12505,1,0.00011891,1.1604e-10,0,0.00014175,-2.1765e-05,1.9635e+07,19.683,0,2.5732e+07,-12.806,12504,11321,1,11321,1,-0.0001537,-2.1852e-09,0,1.0388e-06,-7.2612e-05,-6.2502e+07,-295.49,0,8.4514e+05,-59.755,11320,11952,1,11952,1,-2.2847e-05,-2.5804e-10,0,6.6464e-05,-4.8147e-05,-9.2697e+06,-42.015,0,1.8143e+07,-24.878,11951,13059,1,13059,1,0.00026066,7.2063e-10,0,0.00026066,4.6102e-06,2.6493e+07,99.838,0,2.8992e+07,-5.5073,13058,640.53,0,640.53,0,0.0001636,8.1001e-10,0,0.00011476,3.0458e-05,2.7957e+07,119.71,0,1.3389e+07,16.299,640.53,1
2054,1.08,12506,1,12506,1,0.00012001,5.9459e-10,0,0.00016807,-2.1987e-05,5.8858e+06,92.804,0,2.5455e+07,-10.634,12505,13656,1,13656,1,0.00039516,2.4183e-09,0,0.00039516,2.9259e-05,3.1724e+07,359.8,0,6.3085e+07,32.913,13655,12505,1,12505,1,0.00012001,4.1383e-10,0,0.00014307,-2.1968e-05,1.9818e+07,67.465,0,2.5972e+07,-10.788,12504,11321,1,11321,1,-0.00015513,-8.917e-10,0,1.0489e-06,-7.3289e-05,-6.3085e+07,-133.5,0,8.5316e+05,-43.642,11320,11952,1,11952,1,-2.3061e-05,1.3391e-11,0,6.7084e-05,-4.8597e-05,-9.3564e+06,1.4588,0,1.8312e+07,-19.214,11951,13059,1,13059,1,0.00026309,1.1894e-09,0,0.00026309,4.6533e-06,2.674e+07,194.76,0,2.9262e+07,-3.1601,13058,640.53,0,640.53,0,0.00016513,8.1507e-10,0,0.00011583,3.0743e-05,2.8218e+07,122.73,0,1.3514e+07,12.703,640.53,1
2054,1.09,12506,1,12506,1,0.00012113,9.977e-10,0,0.00016963,-2.219e-05,5.9403e+06,157.77,0,2.5691e+07,9.8535,12505,13656,1,13656,1,0.00039883,1.8156e-09,0,0.00039883,2.953e-05,3.2018e+07,297.74,0,6.367e+07,38.229,13655,12505,1,12505,1,0.00012113,1.1056e-09,0,0.0001444,-2.2172e-05,2.0002e+07,170.36,0,2.6213e+07,10.091,12504,11321,1,11321,1,-0.00015657,3.5678e-11,0,1.0585e-06,-7.3968e-05,-6.367e+07,2.4312,0,8.6102e+05,-24.823,11320,11952,1,11952,1,-2.3274e-05,5.8775e-10,0,6.7704e-05,-4.9046e-05,-9.4429e+06,100.04,0,1.8482e+07,3.8223,11951,13059,1,13059,1,0.00026552,1.3866e-09,0,0.00026552,4.6965e-06,2.6987e+07,217.44,0,2.9533e+07,16.852,13058,640.53,0,640.53,0,0.00016666,4.7089e-10,0,0.0001169,3.1027e-05,2.8479e+07,72.906,0,1.3639e+07,8.9871,640.53,1
2054,1.1,12506,1,12506,1,0.00012223,5.5603e-11,0,0.00017118,-2.2394e-05,5.9946e+06,5.5263,0,2.5926e+07,-9.5251,12505,13656,1,13656,1,0.00040247,9.0868e-10,0,0.00040247,2.98e-05,3.2311e+07,133.59,0,6.4252e+07,20.094,13655,12505,1,12505,1,0.00012223,7.8286e-11,0,0.00014572,-2.2374e-05,2.0185e+07,13.3,0,2.6453e+07,-8.3714,12504,11321,1,11321,1,-0.000158,-1.3713e-09,0,1.0683e-06,-7.4644e-05,-6.4252e+07,-196.81,0,8.6894e+05,-38.89,11320,11952,1,11952,1,-2.3487e-05,-1.5782e-10,0,6.8325e-05,-4.9495e-05,-9.5294e+06,-26.69,0,1.8651e+07,-14.321,11951,13059,1,13059,1,0.00026796,4.3004e-10,0,0.00026796,4.7394e-06,2.7234e+07,58.128,0,2.9803e+07,-4.53,13058,640.53,0,640.53,0,0.00016818,4.6911e-10,0,0.00011797,3.1311e-05,2.874e+07,69.994,0,1.3764e+07,10.895,640.53,1
2054,1.11,12506,1,12506,1,0.00012335,8.1766e-10,0,0.00017274,-2.2598e-05,6.0493e+06,125.2,0,2.6162e+07,-17.993,12505,13656,1,13656,1,0.00040614,3.4859e-09,0,0.00040614,3.0072e-05,3.2606e+07,503.28,0,6.4838e+07,66.643,13655,12505,1,12505,1,0.00012335,6.3721e-10,0,0.00014705,-2.2578e-05,2.0369e+07,106.53,0,2.6694e+07,-14.578,12504,11321,1,11321,1,-0.00015944,-1.7301e-09,0,1.0779e-06,-7.5326e-05,-6.4838e+07,-245.12,0,8.7682e+05,-70.755,11320,11952,1,11952,1,-2.3701e-05,-2.3631e-11,0,6.8948e-05,-4.9947e-05,-9.6163e+06,-2.7339,0,1.8821e+07,-34.915,11951,13059,1,13059,1,0.0002704,1.7894e-09,0,0.0002704,4.7825e-06,2.7483e+07,276.92,0,3.0075e+07,-3.3387,13058,640.53,0,640.53,0,0.00016971,1.211e-09,0,0.00011905,3.1597e-05,2.9002e+07,178.69,0,1.3889e+07,22.91,640.53,1
2054,1.12,12506,1,12506,1,0.00012446,9.2719e-10,0,0.0001743,-2.2802e-05,6.1038e+06,145.18,0,2.6398e+07,-18.195,12505,13656,1,13656,1,0.0004098,2.8631e-09,0,0.0004098,3.0343e-05,3.2899e+07,421.27,0,6.5423e+07,10.636,13655,12505,1,12505,1,0.00012446,7.7823e-10,0,0.00014837,-2.2782e-05,2.0552e+07,133.33,0,2.6935e+07,-17.138,12504,11321,1,11321,1,-0.00016088,-7.3254e-10,0,1.0878e-06,-7.6004e-05,-6.5423e+07,-104.93,0,8.8477e+05,-56.89,11320,11952,1,11952,1,-2.3915e-05,2.214e-10,0,6.9569e-05,-5.0397e-05,-9.703e+06,31.977,0,1.8991e+07,-25.61,11951,13059,1,13059,1,0.00027284,1.68e-09,0,0.00027284,4.8257e-06,2.773e+07,259.44,0,3.0346e+07,-10.097,13058,640.53,0,640.53,0,0.00017124,9.1079e-10,0,0.00012012,3.1881e-05,2.9263e+07,136.47,0,1.4014e+07,10.732,640.53,1
2054,1.13,12506,1,12506,1,0.00012557,8.9345e-10,0,0.00017585,-2.3005e-05,6.1584e+06,137.18,0,2.6634e+07,-25.821,12505,13656,1,13656,1,0.00041347,3.6842e-09,0,0.00041347,3.0614e-05,3.3194e+07,533.16,0,6.6007e+07,28.185,13655,12505,1,12505,1,0.00012557,6.9766e-10,0,0.0001497,-2.2985e-05,2.0736e+07,122.6,0,2.7175e+07,-25.199,12504,11321,1,11321,1,-0.00016232,-1.6367e-09,0,1.0971e-06,-7.6684e-05,-6.6007e+07,-265.27,0,8.9254e+05,-74.788,11320,11952,1,11952,1,-2.4128e-05,2.8347e-11,0,7.0191e-05,-5.0847e-05,-9.7896e+06,2.8225,0,1.916e+07,-41.381,11951,13059,1,13059,1,0.00027528,1.8615e-09,0,0.00027528,4.8687e-06,2.7978e+07,293.42,0,3.0617e+07,-12.09,13058,640.53,0,640.53,0,0.00017277,1.2767e-09,0,0.00012119,3.2166e-05,2.9525e+07,188.88,0,1.4139e+07,20.754,640.53,1
2054,1.14,12506,1,12506,1,0.00012668,2.2397e-10,0,0.0001774,-2.3208e-05,6.2126e+06,35.199,0,2.6869e+07,0.011278,12505,13656,1,13656,1,0.0004171,5.7294e-10,0,0.0004171,3.0884e-05,3.3486e+07,90.444,0,6.6588e+07,20.869,13655,12505,1,12505,1,0.00012668,1.8743e-10,0,0.00015102,-2.3188e-05,2.0919e+07,30.944,0,2.7415e+07,0.44366,12504,11321,1,11321,1,-0.00016375,-3.904e-11,0,1.1072e-06,-7.7358e-05,-6.6588e+07,-2.6271,0,9.0053e+05,-23.869,11320,11952,1,11952,1,-2.4341e-05,1.1506e-10,0,7.0809e-05,-5.1294e-05,-9.8758e+06,18.959,0,1.9329e+07,-6.7952,11951,13059,1,13059,1,0.0002777,3.2342e-10,0,0.0002777,4.9118e-06,2.8224e+07,50.776,0,3.0887e+07,5.9741,13058,640.53,0,640.53,0,0.0001743,1.4163e-10,0,0.00012226,3.245e-05,2.9785e+07,21.69,0,1.4264e+07,9.0763,640.53,1
2054,1.15,12506,1,12506,1,0.00012779,2.0006e-10,0,0.00017896,-2.3412e-05,6.2673e+06,28.527,0,2.7105e+07,-20.652,12505,13656,1,13656,1,0.00042078,1.9635e-09,0,0.00042078,3.1155e-05,3.378e+07,280.34,0,6.7174e+07,13.735,13655,12505,1,12505,1,0.00012779,1.7736e-10,0,0.00015235,-2.3392e-05,2.1103e+07,26.576,0,2.7656e+07,-19.218,12504,11321,1,11321,1,-0.00016519,-1.9451e-09,0,1.1169e-06,-7.8039e-05,-6.7174e+07,-276.62,0,9.0844e+05,-53.325,11320,11952,1,11952,1,-2.4555e-05,-3.4527e-10,0,7.1432e-05,-5.1746e-05,-9.9627e+06,-56.053,0,1.9499e+07,-29.805,11951,13059,1,13059,1,0.00028014,8.4989e-10,0,0.00028014,4.9549e-06,2.8473e+07,133.94,0,3.1159e+07,-11.407,13058,640.53,0,640.53,0,0.00017583,9.0119e-10,0,0.00012334,3.2735e-05,3.0047e+07,133.4,0,1.439e+07,12.275,640.53,1
2054,1.16,12506,1,12506,1,0.0001289,4.945e-10,0,0.00018052,-2.3616e-05,6.3217e+06,73.857,0,2.7341e+07,-14.807,12505,13656,1,13656,1,0.00042443,2.3929e-09,0,0.00042443,3.1426e-05,3.4074e+07,353.86,0,6.7758e+07,60.692,13655,12505,1,12505,1,0.0001289,4.1816e-10,0,0.00015367,-2.3595e-05,2.1286e+07,73.526,0,2.7896e+07,-12.83,12504,11321,1,11321,1,-0.00016662,-1.6712e-09,0,1.1265e-06,-7.8717e-05,-6.7758e+07,-260.16,0,9.1634e+05,-57.902,11320,11952,1,11952,1,-2.4769e-05,-8.4606e-11,0,7.2053e-05,-5.2196e-05,-1.0049e+07,-9.1311,0,1.9669e+07,-25.617,11951,13059,1,13059,1,0.00028258,1.2258e-09,0,0.00028258,4.998e-06,2.872e+07,184,0,3.143e+07,-4.5841,13058,640.53,0,640.53,0,0.00017736,9.2892e-10,0,0.00012441,3.302e-05,3.0308e+07,139.15,0,1.4515e+07,16.66,640.53,1
2054,1.17,12506,1,12506,1,0.00013001,-5.2174e-10,0,0.00018207,-2.3819e-05,6.3762e+06,-85.368,0,2.7576e+07,-5.2258,12505,13656,1,13656,1,0.00042808,-7.859e-11,0,0.00042808,3.1696e-05,3.4367e+07,-5.3294,0,6.8341e+07,10.088,13655,12505,1,12505,1,0.00013001,-4.4256e-10,0,0.00015499,-2.3798e-05,2.1469e+07,-78.936,0,2.8136e+07,-3.6346,12504,11321,1,11321,1,-0.00016806,-1.1891e-09,0,1.1358e-06,-7.9395e-05,-6.8341e+07,-193.36,0,9.2407e+05,-32.045,11320,11952,1,11952,1,-2.4981e-05,-7.993e-10,0,7.2672e-05,-5.2645e-05,-1.0136e+07,-127.26,0,1.9838e+07,-11.005,11951,13059,1,13059,1,0.00028501,-2.4882e-10,0,0.00028501,5.041e-06,2.8968e+07,-40.527,0,3.17e+07,1.0878,13058,640.53,0,640.53,0,0.00017888,3.0976e-10,0,0.00012548,3.3304e-05,3.0569e+07,51.853,0,1.4639e+07,8.3204,640.53,1
2054,1.18,12506,1,12506,1,0.00013112,-2.7428e-10,0,0.00018363,-2.4022e-05,6.4305e+06,-43.354,0,2.7811e+07,0.69859,12505,13656,1,13656,1,0.00043174,2.6758e-10,0,0.00043174,3.1967e-05,3.466e+07,40.274,0,6.8924e+07,15.132,13655,12505,1,12505,1,0.00013112,-2.4054e-10,0,0.00015632,-2.4002e-05,2.1653e+07,-39.819,0,2.8377e+07,1.7345,12504,11321,1,11321,1,-0.00016949,-7.3567e-10,0,1.1461e-06,-8.0072e-05,-6.8924e+07,-123.81,0,9.3217e+05,-21.903,11320,11952,1,11952,1,-2.5195e-05,-4.8658e-10,0,7.3293e-05,-5.3094e-05,-1.0222e+07,-74.258,0,2.0007e+07,-2.3612,11951,13059,1,13059,1,0.00028744,-8.3342e-11,0,0.00028744,5.0841e-06,2.9215e+07,-11.788,0,3.1971e+07,4.2914,13058,640.53,0,640.53,0,0.00018041,2.4313e-10,0,0.00012655,3.3588e-05,3.083e+07,36.74,0,1.4765e+07,6.1814,640.53,1
2054,1.19,12506,1,12506,1,0.00013224,-2.6623e-10,0,0.00018518,-2.4226e-05,6.4851e+06,-43.835,0,2.8047e+07,-1.2251,12505,13656,1,13656,1,0.0004354,3.4254e-10,0,0.0004354,3.2238e-05,3.4954e+07,52.53,0,6.9509e+07,12.081,13655,12505,1,12505,1,0.00013224,-2.3484e-10,0,0.00015764,-2.4205e-05,2.1836e+07,-40.163,0,2.8617e+07,-0.46695,12504,11321,1,11321,1,-0.00017093,-9.0712e-10,0,1.1559e-06,-8.0752e-05,-6.9509e+07,-156.83,0,9.4009e+05,-22.558,11320,11952,1,11952,1,-2.5409e-05,-4.4762e-10,0,7.3915e-05,-5.3545e-05,-1.0309e+07,-74.019,0,2.0177e+07,-3.4779,11951,13059,1,13059,1,0.00028988,-6.2335e-11,0,0.00028988,5.1273e-06,2.9463e+07,-9.9666,0,3.2242e+07,1.747,13058,640.53,0,640.53,0,0.00018194,2.6559e-10,0,0.00012762,3.3873e-05,3.1091e+07,42.157,0,1.489e+07,5.3834,640.53,1
2054,1.2,12506,1,12506,1,0.00013334,9.6758e-11,0,0.00018673,-2.4429e-05,6.5394e+06,14.737,0,2.8282e+07,2.0056,12505,13656,1,13656,1,0.00043904,4.8138e-10,0,0.00043904,3.2508e-05,3.5247e+07,82.402,0,7.009e+07,27.388,13655,12505,1,12505,1,0.00013334,6.7933e-11,0,0.00015896,-2.4408e-05,2.2019e+07,11.043,0,2.8857e+07,2.7355,12504,11321,1,11321,1,-0.00017236,-6.2453e-11,0,1.1653e-06,-8.1427e-05,-7.009e+07,-14.562,0,9.4786e+05,-20.399,11320,11952,1,11952,1,-2.5621e-05,2.2393e-11,0,7.4534e-05,-5.3993e-05,-1.0395e+07,3.4459,0,2.0346e+07,-2.6754,11951,13059,1,13059,1,0.00029231,1.4478e-10,0,0.00029231,5.1702e-06,2.9709e+07,20.521,0,3.2512e+07,7.317,13058,640.53,0,640.53,0,0.00018346,9.6169e-11,0,0.00012869,3.4157e-05,3.1351e+07,14.549,0,1.5014e+07,8.5195,640.53,1
2054,1.21,12506,1,12506,1,0.00013446,8.0273e-10,0,0.0001883,-2.4633e-05,6.5941e+06,123.59,0,2.8519e+07,-18.057,12505,13656,1,13656,1,0.00044272,3.4409e-09,0,0.00044272,3.2781e-05,3.5542e+07,522.43,0,7.0678e+07,53.952,13655,12505,1,12505,1,0.00013446,6.6445e-10,0,0.00016029,-2.4612e-05,2.2203e+07,117.76,0,2.9098e+07,-16.135,12504,11321,1,11321,1,-0.0001738,-1.9601e-09,0,1.175e-06,-8.211e-05,-7.0678e+07,-302.15,0,9.5582e+05,-84.368,11320,11952,1,11952,1,-2.5836e-05,-3.5603e-11,0,7.5158e-05,-5.4445e-05,-1.0482e+07,-4.0161,0,2.0516e+07,-37.762,11951,13059,1,13059,1,0.00029475,1.8128e-09,0,0.00029475,5.2133e-06,2.9958e+07,274.51,0,3.2784e+07,-4.2985,13058,640.53,0,640.53,0,0.000185,1.264e-09,0,0.00012977,3.4442e-05,3.1614e+07,192.01,0,1.514e+07,28.863,640.53,1
2054,1.22,12506,1,12506,1,0.00013558,6.0232e-10,0,0.00018986,-2.4838e-05,6.6489e+06,90.931,0,2.8756e+07,-29.581,12505,13656,1,13656,1,0.0004464,2.9089e-09,0,0.0004464,3.3053e-05,3.5837e+07,448.25,0,7.1265e+07,32.763,13655,12505,1,12505,1,0.00013557,4.2305e-10,0,0.00016162,-2.4816e-05,2.2388e+07,71.535,0,2.934e+07,-28.514,12504,11321,1,11321,1,-0.00017525,-1.7552e-09,0,1.1845e-06,-8.2792e-05,-7.1265e+07,-250.61,0,9.6365e+05,-83.834,11320,11952,1,11952,1,-2.605e-05,-5.791e-11,0,7.5782e-05,-5.4897e-05,-1.0569e+07,-7.4914,0,2.0686e+07,-43.445,11951,13059,1,13059,1,0.0002972,1.409e-09,0,0.0002972,5.2565e-06,3.0207e+07,210.28,0,3.3056e+07,-16.855,13058,640.53,0,640.53,0,0.00018654,1.0309e-09,0,0.00013085,3.4728e-05,3.1876e+07,151.71,0,1.5266e+07,18.345,640.53,1
2054,1.23,12506,1,12506,1,0.00013668,1.7311e-10,0,0.0001914,-2.5039e-05,6.7029e+06,26.758,0,2.8989e+07,-0.54236,12505,13656,1,13656,1,0.00045002,5.6306e-10,0,0.00045002,3.3321e-05,3.6128e+07,92.856,0,7.1843e+07,7.0687,13655,12505,1,12505,1,0.00013668,1.282e-10,0,0.00016294,-2.5018e-05,2.257e+07,21.377,0,2.9578e+07,-0.3829,12504,11321,1,11321,1,-0.00017667,-1.003e-11,0,1.1947e-06,-8.3463e-05,-7.1843e+07,-0.67465,0,9.7164e+05,-10.139,11320,11952,1,11952,1,-2.6262e-05,5.8958e-11,0,7.6397e-05,-5.5343e-05,-1.0655e+07,9.7402,0,2.0854e+07,-1.5288,11951,13059,1,13059,1,0.00029961,2.6354e-10,0,0.00029961,5.2994e-06,3.0452e+07,41.264,0,3.3325e+07,0.55466,13058,640.53,0,640.53,0,0.00018805,1.3931e-10,0,0.00013191,3.501e-05,3.2135e+07,20.38,0,1.539e+07,2.0708,640.53,1
2054,1.24,12506,1,12506,1,0.00013779,5.5314e-10,0,0.00019297,-2.5244e-05,6.7576e+06,82.618,0,2.9226e+07,-15.872,12505,13656,1,13656,1,0.0004537,2.2917e-09,0,0.0004537,3.3593e-05,3.6423e+07,321.3,0,7.243e+07,20.229,13655,12505,1,12505,1,0.00013779,4.2929e-10,0,0.00016427,-2.5222e-05,2.2754e+07,75.048,0,2.982e+07,-13.236,12504,11321,1,11321,1,-0.00017811,-1.1051e-09,0,1.2043e-06,-8.4145e-05,-7.243e+07,-166.02,0,9.7955e+05,-58.429,11320,11952,1,11952,1,-2.6477e-05,-1.7037e-11,0,7.7021e-05,-5.5795e-05,-1.0742e+07,-1.6016,0,2.1025e+07,-23.734,11951,13059,1,13059,1,0.00030206,1.1948e-09,0,0.00030206,5.3426e-06,3.0701e+07,175.79,0,3.3597e+07,-6.4593,13058,640.53,0,640.53,0,0.00018959,7.8285e-10,0,0.00013299,3.5296e-05,3.2398e+07,114.03,0,1.5515e+07,14.309,640.53,1
2054,1.25,12506,1,12506,1,0.0001389,3.9335e-10,0,0.00019452,-2.5447e-05,6.812e+06,59.346,0,2.9461e+07,-14.218,12505,13656,1,13656,1,0.00045735,1.9333e-09,0,0.00045735,3.3863e-05,3.6716e+07,291.51,0,7.3013e+07,22.191,13655,12505,1,12505,1,0.0001389,3.1125e-10,0,0.00016559,-2.5425e-05,2.2937e+07,52.403,0,3.006e+07,-15.819,12504,11321,1,11321,1,-0.00017954,-1.2739e-09,0,1.2139e-06,-8.4822e-05,-7.3013e+07,-188.55,0,9.874e+05,-49.684,11320,11952,1,11952,1,-2.669e-05,-4.1405e-11,0,7.7641e-05,-5.6244e-05,-1.0829e+07,-5.1083,0,2.1194e+07,-25.369,11951,13059,1,13059,1,0.00030449,9.1535e-10,0,0.00030449,5.3856e-06,3.0948e+07,136.67,0,3.3867e+07,-5.9195,13058,640.53,0,640.53,0,0.00019111,6.8045e-10,0,0.00013406,3.558e-05,3.2658e+07,100.96,0,1.564e+07,15.703,640.53,1
2054,1.26,12506,1,12506,1,0.00014001,6.9036e-10,0,0.00019607,-2.5651e-05,6.8665e+06,104.8,0,2.9697e+07,-15.543,12505,13656,1,13656,1,0.00046101,2.5884e-09,0,0.00046101,3.4134e-05,3.701e+07,371.6,0,7.3597e+07,24.406,13655,12505,1,12505,1,0.00014001,4.9648e-10,0,0.00016691,-2.5628e-05,2.312e+07,87.715,0,3.03e+07,-14.39,12504,11321,1,11321,1,-0.00018098,-7.4759e-10,0,1.2236e-06,-8.5501e-05,-7.3597e+07,-116.09,0,9.953e+05,-50.662,11320,11952,1,11952,1,-2.6903e-05,6.5798e-11,0,7.8262e-05,-5.6694e-05,-1.0915e+07,9.1906,0,2.1363e+07,-26.317,11951,13059,1,13059,1,0.00030693,1.333e-09,0,0.00030693,5.4286e-06,3.1195e+07,205.06,0,3.4138e+07,-5.9611,13058,640.53,0,640.53,0,0.00019264,8.1551e-10,0,0.00013513,3.5865e-05,3.292e+07,118.9,0,1.5765e+07,13.766,640.53,1
2054,1.27,12506,1,12506,1,0.00014112,3.471e-10,0,0.00019763,-2.5854e-05,6.921e+06,52.2,0,2.9932e+07,-16.022,12505,13656,1,13656,1,0.00046466,1.8499e-09,0,0.00046466,3.4405e-05,3.7304e+07,274.88,0,7.418e+07,12.745,13655,12505,1,12505,1,0.00014112,2.7265e-10,0,0.00016824,-2.5832e-05,2.3304e+07,46.13,0,3.0541e+07,-13.997,12504,11321,1,11321,1,-0.00018242,-1.221e-09,0,1.2334e-06,-8.6179e-05,-7.418e+07,-185.31,0,1.0032e+06,-43.794,11320,11952,1,11952,1,-2.7116e-05,-5.5984e-11,0,7.8883e-05,-5.7143e-05,-1.1002e+07,-5.5744,0,2.1533e+07,-23.867,11951,13059,1,13059,1,0.00030936,8.3725e-10,0,0.00030936,5.4717e-06,3.1443e+07,126.6,0,3.4409e+07,-8.1391,13058,640.53,0,640.53,0,0.00019417,6.5003e-10,0,0.0001362,3.6149e-05,3.3181e+07,97.56,0,1.589e+07,10.805,640.53,1
2054,1.28,12506,1,12506,1,0.00014224,2.366e-10,0,0.00019919,-2.6058e-05,6.9755e+06,35.859,0,3.0168e+07,-14.098,12505,13656,1,13656,1,0.00046833,1.6999e-09,0,0.00046833,3.4676e-05,3.7598e+07,254.39,0,7.4765e+07,13.167,13655,12505,1,12505,1,0.00014223,1.6035e-10,0,0.00016957,-2.6036e-05,2.3488e+07,26.061,0,3.0781e+07,-12.289,12504,11321,1,11321,1,-0.00018385,-1.3459e-09,0,1.2432e-06,-8.6858e-05,-7.4765e+07,-198.62,0,1.0111e+06,-41.605,11320,11952,1,11952,1,-2.733e-05,-1.5233e-10,0,7.9505e-05,-5.7594e-05,-1.1089e+07,-24.56,0,2.1703e+07,-22.101,11951,13059,1,13059,1,0.0003118,6.9864e-10,0,0.0003118,5.5149e-06,3.1691e+07,110.13,0,3.468e+07,-6.3539,13058,640.53,0,640.53,0,0.0001957,6.6892e-10,0,0.00013727,3.6435e-05,3.3442e+07,100.3,0,1.6016e+07,10.228,640.53,1
2054,1.29,12506,1,12506,1,0.00014335,4.9476e-10,0,0.00020075,-2.6262e-05,7.0301e+06,74.836,0,3.0404e+07,-19.147,12505,13656,1,13656,1,0.00047199,2.5431e-09,0,0.00047199,3.4948e-05,3.7892e+07,387.75,0,7.5351e+07,33.518,13655,12505,1,12505,1,0.00014335,3.5376e-10,0,0.00017089,-2.6239e-05,2.3671e+07,59.303,0,3.1022e+07,-17.956,12504,11321,1,11321,1,-0.00018529,-1.5433e-09,0,1.2529e-06,-8.7538e-05,-7.5351e+07,-223.86,0,1.0191e+06,-62.528,11320,11952,1,11952,1,-2.7544e-05,-1.3497e-10,0,8.0127e-05,-5.8045e-05,-1.1175e+07,-21.016,0,2.1873e+07,-29.957,11951,13059,1,13059,1,0.00031424,1.2367e-09,0,0.00031424,5.558e-06,3.1939e+07,190.88,0,3.4952e+07,-7.4645,13058,640.53,0,640.53,0,0.00019723,9.3697e-10,0,0.00013835,3.672e-05,3.3704e+07,140.73,0,1.6141e+07,14.181,640.53,1
2054,1.3,12506,1,12506,1,0.00014446,5.8276e-10,0,0.0002023,-2.6465e-05,7.0845e+06,87.947,0,3.064e+07,-14.251,12505,13656,1,13656,1,0.00047565,2.2687e-09,0,0.00047565,3.5218e-05,3.8185e+07,329.04,0,7.5934e+07,29.366,13655,12505,1,12505,1,0.00014446,4.8728e-10,0,0.00017221,-2.6442e-05,2.3855e+07,85.058,0,3.1262e+07,-12.814,12504,11321,1,11321,1,-0.00018673,-1.37e-09,0,1.2625e-06,-8.8216e-05,-7.5934e+07,-194.41,0,1.0269e+06,-64.111,11320,11952,1,11952,1,-2.7758e-05,-1.9095e-11,0,8.0747e-05,-5.8494e-05,-1.1262e+07,-1.6193,0,2.2042e+07,-24.656,11951,13059,1,13059,1,0.00031668,1.2717e-09,0,0.00031668,5.6011e-06,3.2186e+07,184,0,3.5222e+07,-3.7024,13058,640.53,0,640.53,0,0.00019876,8.0949e-10,0,0.00013942,3.7004e-05,3.3965e+07,119.66,0,1.6266e+07,17.022,640.53,1
2054,1.31,12506,1,12506,1,0.00014557,5.2318e-10,0,0.00020386,-2.6669e-05,7.139e+06,78.039,0,3.0875e+07,-15.387,12505,13656,1,13656,1,0.0004793,2.8131e-09,0,0.0004793,3.5489e-05,3.8479e+07,402.4,0,7.6517e+07,47.708,13655,12505,1,12505,1,0.00014557,3.8263e-10,0,0.00017354,-2.6646e-05,2.4038e+07,65.806,0,3.1503e+07,-15.302,12504,11321,1,11321,1,-0.00018816,-1.7088e-09,0,1.2722e-06,-8.8894e-05,-7.6517e+07,-238.37,0,1.0348e+06,-67.741,11320,11952,1,11952,1,-2.7971e-05,-1.0624e-10,0,8.1368e-05,-5.8944e-05,-1.1348e+07,-13.691,0,2.2211e+07,-29.674,11951,13059,1,13059,1,0.00031911,1.3132e-09,0,0.00031911,5.6441e-06,3.2433e+07,196.42,0,3.5493e+07,-2.2437,13058,640.53,0,640.53,0,0.00020029,1.0036e-09,0,0.00014049,3.7288e-05,3.4226e+07,146.56,0,1.6391e+07,21.28,640.53,1
2054,1.32,12506,1,12506,1,0.00014668,4.2643e-10,0,0.00020541,-2.6872e-05,7.1935e+06,63.076,0,3.1111e+07,-21.491,12505,13656,1,13656,1,0.00048296,2.5264e-09,0,0.00048296,3.576e-05,3.8773e+07,362.97,0,7.7102e+07,22.414,13655,12505,1,12505,1,0.00014668,3.2365e-10,0,0.00017486,-2.6849e-05,2.4221e+07,55.223,0,3.1743e+07,-18.348,12504,11321,1,11321,1,-0.0001896,-1.8451e-09,0,1.2818e-06,-8.9572e-05,-7.7102e+07,-275.38,0,1.0427e+06,-65.76,11320,11952,1,11952,1,-2.8184e-05,-1.508e-10,0,8.1989e-05,-5.9394e-05,-1.1435e+07,-21.982,0,2.2381e+07,-37.366,11951,13059,1,13059,1,0.00032154,1.1893e-09,0,0.00032154,5.6871e-06,3.2681e+07,174.35,0,3.5764e+07,-9.2522,13058,640.53,0,640.53,0,0.00020182,9.5886e-10,0,0.00014156,3.7573e-05,3.4487e+07,140.57,0,1.6516e+07,19.285,640.53,1
2054,1.33,12506,1,12506,1,0.00014779,2.2012e-10,0,0.00020697,-2.7076e-05,7.248e+06,31.55,0,3.1347e+07,-15.49,12505,13656,1,13656,1,0.00048662,1.6494e-09,0,0.00048662,3.6031e-05,3.9066e+07,238.52,0,7.7685e+07,15.379,13655,12505,1,12505,1,0.00014779,2.1358e-10,0,0.00017619,-2.7052e-05,2.4405e+07,34.396,0,3.1984e+07,-12.524,12504,11321,1,11321,1,-0.00019104,-1.9368e-09,0,1.2917e-06,-9.0251e-05,-7.7685e+07,-289.77,0,1.0506e+06,-54.408,11320,11952,1,11952,1,-2.8398e-05,-1.6679e-10,0,8.261e-05,-5.9843e-05,-1.1522e+07,-25.128,0,2.255e+07,-26.64,11951,13059,1,13059,1,0.00032398,8.0937e-10,0,0.00032398,5.7303e-06,3.2928e+07,119.44,0,3.6035e+07,-4.5268,13058,640.53,0,640.53,0,0.00020334,7.4899e-10,0,0.00014264,3.7858e-05,3.4749e+07,113.46,0,1.6641e+07,14.498,640.53,1
2054,1.34,12506,1,12506,1,0.0001489,8.0852e-10,0,0.00020852,-2.7279e-05,7.3024e+06,126.16,0,3.1582e+07,-15.064,12505,13656,1,13656,1,0.00049027,2.5505e-09,0,0.00049027,3.6301e-05,3.936e+07,388.9,0,7.8269e+07,20.971,13655,12505,1,12505,1,0.0001489,6.5541e-10,0,0.00017751,-2.7256e-05,2.4588e+07,112.36,0,3.2224e+07,-12.794,12504,11321,1,11321,1,-0.00019247,-7.2423e-10,0,1.3014e-06,-9.0929e-05,-7.8269e+07,-102.31,0,1.0585e+06,-45.673,11320,11952,1,11952,1,-2.8611e-05,2.0586e-10,0,8.323e-05,-6.0293e-05,-1.1608e+07,29.551,0,2.272e+07,-25.762,11951,13059,1,13059,1,0.00032641,1.4388e-09,0,0.00032641,5.7733e-06,3.3176e+07,218.83,0,3.6305e+07,-6.176,13058,640.53,0,640.53,0,0.00020487,7.76e-10,0,0.00014371,3.8142e-05,3.5009e+07,115.54,0,1.6766e+07,13.656,640.53,1
2054,1.35,12506,1,12506,1,0.00015001,1.1375e-10,0,0.00021008,-2.7482e-05,7.3568e+06,17.456,0,3.1817e+07,5.9675,12505,13656,1,13656,1,0.00049392,4.0011e-10,0,0.00049392,3.6571e-05,3.9653e+07,77.674,0,7.8851e+07,26.408,13655,12505,1,12505,1,0.00015001,7.9816e-11,0,0.00017883,-2.7459e-05,2.4771e+07,14.235,0,3.2464e+07,7.3878,12504,11321,1,11321,1,-0.0001939,-3.0885e-11,0,1.3112e-06,-9.1605e-05,-7.8851e+07,-6.201,0,1.0664e+06,-18.637,11320,11952,1,11952,1,-2.8824e-05,3.0417e-11,0,8.385e-05,-6.0742e-05,-1.1695e+07,4.4845,0,2.2889e+07,1.5707,11951,13059,1,13059,1,0.00032884,1.8623e-10,0,0.00032884,5.8165e-06,3.3423e+07,28.11,0,3.6576e+07,11.16,13058,640.53,0,640.53,0,0.0002064,9.9898e-11,0,0.00014478,3.8426e-05,3.527e+07,15.009,0,1.6891e+07,8.0138,640.53,1
2054,1.36,12506,1,12506,1,0.00015112,5.216e-10,0,0.00021163,-2.7686e-05,7.4114e+06,80.83,0,3.2053e+07,-7.6038,12505,13656,1,13656,1,0.00049759,1.9127e-09,0,0.00049759,3.6843e-05,3.9947e+07,290.13,0,7.9437e+07,37.856,13655,12505,1,12505,1,0.00015112,4.0289e-10,0,0.00018016,-2.7662e-05,2.4955e+07,69.114,0,3.2705e+07,-7.8299,12504,11321,1,11321,1,-0.00019534,-7.1171e-10,0,1.3209e-06,-9.2285e-05,-7.9437e+07,-106.36,0,1.0743e+06,-34.709,11320,11952,1,11952,1,-2.9038e-05,6.2472e-11,0,8.4472e-05,-6.1193e-05,-1.1782e+07,9.0444,0,2.3059e+07,-18.008,11951,13059,1,13059,1,0.00033128,1.0091e-09,0,0.00033128,5.8595e-06,3.3671e+07,154.58,0,3.6847e+07,-0.1675,13058,640.53,0,640.53,0,0.00020793,6.1069e-10,0,0.00014585,3.8711e-05,3.5532e+07,91.038,0,1.7016e+07,12.866,640.53,1
2054,1.37,12506,1,12506,1,0.00015223,7.5288e-10,0,0.00021319,-2.789e-05,7.4659e+06,116.84,0,3.2289e+07,-11.531,12505,13656,1,13656,1,0.00050125,2.6188e-09,0,0.00050125,3.7114e-05,4.0241e+07,385.06,0,8.0021e+07,36.147,13655,12505,1,12505,1,0.00015223,5.7158e-10,0,0.00018148,-2.7866e-05,2.5139e+07,98.44,0,3.2945e+07,-11.016,12504,11321,1,11321,1,-0.00019678,-6.5298e-10,0,1.3306e-06,-9.2964e-05,-8.0021e+07,-91.786,0,1.0822e+06,-48.78,11320,11952,1,11952,1,-2.9252e-05,1.293e-10,0,8.5094e-05,-6.1643e-05,-1.1868e+07,18.485,0,2.3228e+07,-23.869,11951,13059,1,13059,1,0.00033372,1.3992e-09,0,0.00033372,5.9026e-06,3.3919e+07,212.81,0,3.7118e+07,-1.8327,13058,640.53,0,640.53,0,0.00020946,7.9072e-10,0,0.00014692,3.8996e-05,3.5793e+07,117.61,0,1.7142e+07,15.749,640.53,1
2054,1.38,12506,1,12506,1,0.00015335,-2.4793e-11,0,0.00021475,-2.8093e-05,7.5204e+06,-4.8958,0,3.2525e+07,-4.5048,12505,13656,1,13656,1,0.00050491,2.3555e-10,0,0.00050491,3.7385e-05,4.0534e+07,35.298,0,8.0605e+07,3.7319,13655,12505,1,12505,1,0.00015335,-3.224e-11,0,0.00018281,-2.8069e-05,2.5322e+07,-5.4392,0,3.3186e+07,-3.8241,12504,11321,1,11321,1,-0.00019821,-1.9415e-10,0,1.3402e-06,-9.3642e-05,-8.0605e+07,-34.039,0,1.0901e+06,-18.671,11320,11952,1,11952,1,-2.9465e-05,-6.2121e-11,0,8.5715e-05,-6.2093e-05,-1.1955e+07,-10.577,0,2.3398e+07,-7.3608,11951,13059,1,13059,1,0.00033616,-5.0763e-12,0,0.00033616,5.9457e-06,3.4166e+07,-0.81845,0,3.7389e+07,-1.3597,13058,640.53,0,640.53,0,0.00021099,6.7595e-11,0,0.000148,3.9281e-05,3.6055e+07,10.458,0,1.7267e+07,4.3205,640.53,1
2054,1.39,12506,1,12506,1,0.00015446,-5.8629e-11,0,0.0002163,-2.8297e-05,7.5749e+06,-9.5612,0,3.276e+07,-7.082,12505,13656,1,13656,1,0.00050856,6.4177e-10,0,0.00050856,3.7655e-05,4.0828e+07,97.503,0,8.1189e+07,23.853,13655,12505,1,12505,1,0.00015446,-8.1954e-11,0,0.00018414,-2.8273e-05,2.5506e+07,-14.35,0,3.3426e+07,-4.0647,12504,11321,1,11321,1,-0.00019965,-3.5249e-10,0,1.35e-06,-9.4321e-05,-8.1189e+07,-56.323,0,1.098e+06,-38.729,11320,11952,1,11952,1,-2.9679e-05,-1.9497e-10,0,8.6336e-05,-6.2542e-05,-1.2041e+07,-28.95,0,2.3567e+07,-12.001,11951,13059,1,13059,1,0.00033859,1.1381e-11,0,0.00033859,5.9888e-06,3.4414e+07,1.0376,0,3.766e+07,-1.4046,13058,640.53,0,640.53,0,0.00021252,1.9229e-10,0,0.00014907,3.9565e-05,3.6316e+07,27.908,0,1.7392e+07,9.4676,640.53,1
2054,1.4,12506,1,12506,1,0.00015556,5.0834e-10,0,0.00021785,-2.85e-05,7.6292e+06,78.239,0,3.2995e+07,-7.5925,12505,13656,1,13656,1,0.00051222,1.8031e-09,0,0.00051222,3.7926e-05,4.1121e+07,267.12,0,8.1772e+07,39.738,13655,12505,1,12505,1,0.00015556,3.9227e-10,0,0.00018546,-2.8475e-05,2.5689e+07,66.834,0,3.3666e+07,-8.8129,12504,11321,1,11321,1,-0.00020108,-5.6477e-10,0,1.3596e-06,-9.4998e-05,-8.1772e+07,-82.265,0,1.1059e+06,-37.102,11320,11952,1,11952,1,-2.9892e-05,6.3137e-11,0,8.6955e-05,-6.2991e-05,-1.2128e+07,9.4027,0,2.3737e+07,-19.198,11951,13059,1,13059,1,0.00034102,9.4002e-10,0,0.00034102,6.0317e-06,3.4661e+07,143.66,0,3.793e+07,-0.26947,13058,640.53,0,640.53,0,0.00021404,5.6191e-10,0,0.00015014,3.9849e-05,3.6576e+07,84.047,0,1.7517e+07,15.148,640.53,1
2054,1.41,12506,1,12506,1,0.00015668,2.2015e-10,0,0.00021942,-2.8704e-05,7.6839e+06,33.562,0,3.3232e+07,-5.6091,12505,13656,1,13656,1,0.00051589,1.3986e-09,0,0.00051589,3.8198e-05,4.1416e+07,206.69,0,8.2358e+07,3.9591,13655,12505,1,12505,1,0.00015668,1.3174e-10,0,0.00018679,-2.868e-05,2.5873e+07,21.524,0,3.3908e+07,-5.2351,12504,11321,1,11321,1,-0.00020253,-5.4662e-10,0,1.3695e-06,-9.5679e-05,-8.2358e+07,-89.418,0,1.1139e+06,-22.499,11320,11952,1,11952,1,-3.0106e-05,-6.432e-11,0,8.7579e-05,-6.3443e-05,-1.2215e+07,-9.6447,0,2.3907e+07,-8.9412,11951,13059,1,13059,1,0.00034347,4.3761e-10,0,0.00034347,6.0751e-06,3.4909e+07,71.743,0,3.8202e+07,-1.321,13058,640.53,0,640.53,0,0.00021558,4.0203e-10,0,0.00015122,4.0135e-05,3.6839e+07,60.813,0,1.7642e+07,5.1311,640.53,1
2054,1.42,12506,1,12506,1,0.00015779,5.1634e-10,0,0.00022097,-2.8907e-05,7.7383e+06,80.112,0,3.3467e+07,-12.144,12505,13656,1,13656,1,0.00051954,1.8153e-09,0,0.00051954,3.8468e-05,4.1709e+07,274.23,0,8.2941e+07,19.441,13655,12505,1,12505,1,0.00015779,3.8913e-10,0,0.00018811,-2.8883e-05,2.6056e+07,67.655,0,3.4147e+07,-10.496,12504,11321,1,11321,1,-0.00020396,-6.3009e-10,0,1.3791e-06,-9.6356e-05,-8.2941e+07,-88.754,0,1.1217e+06,-39.275,11320,11952,1,11952,1,-3.0319e-05,8.7661e-11,0,8.8199e-05,-6.3892e-05,-1.2301e+07,11.615,0,2.4076e+07,-20.79,11951,13059,1,13059,1,0.0003459,9.9095e-10,0,0.0003459,6.118e-06,3.5156e+07,149.29,0,3.8472e+07,-4.119,13058,640.53,0,640.53,0,0.0002171,5.7533e-10,0,0.00015229,4.0419e-05,3.7099e+07,85.466,0,1.7767e+07,10.642,640.53,1
2054,1.43,12506,1,12506,1,0.0001589,2.8275e-10,0,0.00022253,-2.9111e-05,7.7928e+06,42.863,0,3.3703e+07,-7.5115,12505,13656,1,13656,1,0.0005232,1.7456e-09,0,0.0005232,3.8739e-05,4.2003e+07,257.79,0,8.3525e+07,37.182,13655,12505,1,12505,1,0.0001589,2.1173e-10,0,0.00018943,-2.9086e-05,2.624e+07,35.318,0,3.4388e+07,-7.24,12504,11321,1,11321,1,-0.0002054,-1.2751e-09,0,1.3888e-06,-9.7035e-05,-8.3525e+07,-192.85,0,1.1296e+06,-44.201,11320,11952,1,11952,1,-3.0533e-05,-1.2005e-10,0,8.882e-05,-6.4342e-05,-1.2388e+07,-17.606,0,2.4245e+07,-18.027,11951,13059,1,13059,1,0.00034833,7.8815e-10,0,0.00034833,6.1611e-06,3.5404e+07,123.51,0,3.8743e+07,1.0815,13058,640.53,0,640.53,0,0.00021863,6.6277e-10,0,0.00015336,4.0703e-05,3.7361e+07,98.785,0,1.7892e+07,14.871,640.53,1
2054,1.44,12506,1,12506,1,0.00016001,3.3362e-10,0,0.00022408,-2.9314e-05,7.8472e+06,51.034,0,3.3938e+07,-8.0213,12505,13656,1,13656,1,0.00052685,1.4843e-09,0,0.00052685,3.9009e-05,4.2296e+07,227.93,0,8.4108e+07,27.452,13655,12505,1,12505,1,0.00016001,2.6263e-10,0,0.00019075,-2.9289e-05,2.6423e+07,45.919,0,3.4628e+07,-9.1361,12504,11321,1,11321,1,-0.00020683,-9.1844e-10,0,1.3985e-06,-9.7712e-05,-8.4108e+07,-140.51,0,1.1375e+06,-38.359,11320,11952,1,11952,1,-3.0746e-05,-1.7046e-11,0,8.944e-05,-6.4791e-05,-1.2474e+07,-2.0479,0,2.4415e+07,-19.204,11951,13059,1,13059,1,0.00035077,7.6569e-10,0,0.00035077,6.2041e-06,3.5651e+07,115.86,0,3.9014e+07,3.7133,13058,640.53,0,640.53,0,0.00022016,5.4527e-10,0,0.00015443,4.0987e-05,3.7621e+07,81.783,0,1.8017e+07,14.637,640.53,1
2054,1.45,12506,1,12506,1,0.00016112,3.6059e-10,0,0.00022564,-2.9518e-05,7.9017e+06,55.775,0,3.4174e+07,-9.9184,12505,13656,1,13656,1,0.00053051,1.4975e-09,0,0.00053051,3.928e-05,4.259e+07,230.53,0,8.4692e+07,14.905,13655,12505,1,12505,1,0.00016112,2.6508e-10,0,0.00019208,-2.9493e-05,2.6606e+07,45.075,0,3.4868e+07,-7.9597,12504,11321,1,11321,1,-0.00020827,-7.2892e-10,0,1.4083e-06,-9.8391e-05,-8.4692e+07,-108.25,0,1.1454e+06,-31.132,11320,11952,1,11952,1,-3.0959e-05,7.6012e-12,0,9.0061e-05,-6.5241e-05,-1.2561e+07,0.81756,0,2.4584e+07,-17.774,11951,13059,1,13059,1,0.0003532,7.8519e-10,0,0.0003532,6.2472e-06,3.5899e+07,120.56,0,3.9285e+07,-2.8425,13058,640.53,0,640.53,0,0.00022169,5.2362e-10,0,0.0001555,4.1272e-05,3.7883e+07,78.32,0,1.8142e+07,9.5371,640.53,1
2054,1.46,12506,1,12506,1,0.00016223,1.7507e-12,0,0.00022719,-2.9722e-05,7.9562e+06,-2.7575,0,3.441e+07,-9.2045,12505,13656,1,13656,1,0.00053417,1.3004e-09,0,0.00053417,3.9551e-05,4.2884e+07,190.32,0,8.5277e+07,36.787,13655,12505,1,12505,1,0.00016223,2.1573e-11,0,0.00019341,-2.9696e-05,2.679e+07,3.9811,0,3.5109e+07,-10.669,12504,11321,1,11321,1,-0.0002097,-1.7159e-09,0,1.4179e-06,-9.907e-05,-8.5277e+07,-262.48,0,1.1533e+06,-47.019,11320,11952,1,11952,1,-3.1173e-05,-3.4266e-10,0,9.0682e-05,-6.5691e-05,-1.2648e+07,-59.36,0,2.4754e+07,-21.677,11951,13059,1,13059,1,0.00035564,4.6602e-10,0,0.00035564,6.2903e-06,3.6146e+07,70.933,0,3.9556e+07,3.3241,13058,640.53,0,640.53,0,0.00022321,6.5419e-10,0,0.00015657,4.1557e-05,3.8144e+07,98.321,0,1.8267e+07,17.062,640.53,1
2054,1.47,12506,1,12506,1,0.00016334,1.7009e-10,0,0.00022875,-2.9925e-05,8.0106e+06,24.677,0,3.4645e+07,-7.5246,12505,13656,1,13656,1,0.00053782,9.6977e-10,0,0.00053782,3.9822e-05,4.3177e+07,146.33,0,8.586e+07,23.808,13655,12505,1,12505,1,0.00016334,1.4445e-10,0,0.00019473,-2.9899e-05,2.6973e+07,24.349,0,3.5349e+07,-7.168,12504,11321,1,11321,1,-0.00021114,-8.9578e-10,0,1.4276e-06,-9.9747e-05,-8.586e+07,-130.62,0,1.1612e+06,-32.971,11320,11952,1,11952,1,-3.1386e-05,-6.2796e-11,0,9.1303e-05,-6.6141e-05,-1.2734e+07,-10.492,0,2.4923e+07,-13.838,11951,13059,1,13059,1,0.00035807,4.6935e-10,0,0.00035807,6.3333e-06,3.6393e+07,70.075,0,3.9826e+07,-2.2684,13058,640.53,0,640.53,0,0.00022474,3.9605e-10,0,0.00015765,4.1841e-05,3.8405e+07,59.274,0,1.8392e+07,10.585,640.53,1
2054,1.48,12506,1,12506,1,0.00016445,2.5222e-10,0,0.0002303,-3.0128e-05,8.0652e+06,38.426,0,3.4881e+07,-6.8963,12505,13656,1,13656,1,0.00054148,1.0268e-09,0,0.00054148,4.0093e-05,4.3471e+07,154.05,0,8.6444e+07,15.578,13655,12505,1,12505,1,0.00016445,2.0444e-10,0,0.00019605,-3.0103e-05,2.7157e+07,35.625,0,3.559e+07,-6.4301,12504,11321,1,11321,1,-0.00021257,-6.4991e-10,0,1.4374e-06,-0.00010043,-8.6444e+07,-92.388,0,1.1691e+06,-27.616,11320,11952,1,11952,1,-3.16e-05,-3.3178e-13,0,9.1924e-05,-6.6591e-05,-1.2821e+07,-0.10921,0,2.5093e+07,-12.291,11951,13059,1,13059,1,0.00036051,5.5545e-10,0,0.00036051,6.3764e-06,3.6641e+07,82.537,0,4.0097e+07,-2.6188,13058,640.53,0,640.53,0,0.00022627,3.6547e-10,0,0.00015872,4.2126e-05,3.8666e+07,54.325,0,1.8518e+07,8.1058,640.53,1
2054,1.49,12506,1,12506,1,0.00016556,3.7515e-10,0,0.00023186,-3.0332e-05,8.1196e+06,57.487,0,3.5116e+07,-8.0736,12505,13656,1,13656,1,0.00054514,1.5251e-09,0,0.00054514,4.0364e-05,4.3764e+07,232.38,0,8.7028e+07,23.265,13655,12505,1,12505,1,0.00016556,2.8569e-10,0,0.00019738,-3.0306e-05,2.734e+07,48.446,0,3.583e+07,-6.6723,12504,11321,1,11321,1,-0.00021401,-7.2441e-10,0,1.4472e-06,-0.0001011,-8.7028e+07,-104.54,0,1.177e+06,-34.444,11320,11952,1,11952,1,-3.1813e-05,6.7414e-12,0,9.2545e-05,-6.704e-05,-1.2907e+07,0.73298,0,2.5262e+07,-17.605,11951,13059,1,13059,1,0.00036294,8.0293e-10,0,0.00036294,6.4195e-06,3.6889e+07,120.11,0,4.0368e+07,-0.1496,13058,640.53,0,640.53,0,0.0002278,5.1593e-10,0,0.00015979,4.241e-05,3.8927e+07,76.949,0,1.8643e+07,11.436,640.53,1
2054,1.5,12506,1,12506,1,0.00016668,-1.138e-10,0,0.00023342,-3.0536e-05,8.1742e+06,-18.127,0,3.5352e+07,-3.6432,12505,13656,1,13656,1,0.0005488,4.413e-10,0,0.0005488,4.0635e-05,4.4058e+07,63.694,0,8.7613e+07,24.544,13655,12505,1,12505,1,0.00016668,-8.1756e-11,0,0.0001987,-3.051e-05,2.7524e+07,-13.016,0,3.6071e+07,-0.33602,12504,11321,1,11321,1,-0.00021545,-5.5513e-10,0,1.4568e-06,-0.00010178,-8.7613e+07,-84.745,0,1.1849e+06,-38.566,11320,11952,1,11952,1,-3.2027e-05,-2.397e-10,0,9.3167e-05,-6.7491e-05,-1.2994e+07,-39.814,0,2.5432e+07,-10.588,11951,13059,1,13059,1,0.00036538,8.778e-12,0,0.00036538,6.4627e-06,3.7136e+07,1.1306,0,4.0639e+07,4.2152,13058,640.53,0,640.53,0,0.00022933,1.8658e-10,0,0.00016086,4.2695e-05,3.9189e+07,28.241,0,1.8768e+07,12.058,640.53,1
2054,1.51,12506,1,12506,1,0.00016779,1.9567e-10,0,0.00023497,-3.0739e-05,8.2287e+06,29.811,0,3.5588e+07,-2.094,12505,13656,1,13656,1,0.00055246,6.6039e-10,0,0.00055246,4.0906e-05,4.4352e+07,94.522,0,8.8197e+07,15.576,13655,12505,1,12505,1,0.00016779,1.6015e-10,0,0.00020003,-3.0713e-05,2.7707e+07,26.273,0,3.6311e+07,-1.0029,12504,11321,1,11321,1,-0.00021688,-4.6854e-11,0,1.4666e-06,-0.00010246,-8.8197e+07,-3.1664,0,1.1928e+06,-25.444,11320,11952,1,11952,1,-3.224e-05,9.0095e-11,0,9.3788e-05,-6.7941e-05,-1.3081e+07,15.995,0,2.5602e+07,-6.6298,11951,13059,1,13059,1,0.00036782,2.7996e-10,0,0.00036782,6.5058e-06,3.7384e+07,41.784,0,4.091e+07,2.6251,13058,640.53,0,640.53,0,0.00023086,1.3647e-10,0,0.00016194,4.298e-05,3.945e+07,19.063,0,1.8893e+07,7.2021,640.53,1
2054,1.52,12506,1,12506,1,0.0001689,-4.4269e-11,0,0.00023653,-3.0943e-05,8.2833e+06,-8.1772,0,3.5824e+07,-10.824,12505,13656,1,13656,1,0.00055612,4.4922e-10,0,0.00055612,4.1177e-05,4.4646e+07,70.581,0,8.8781e+07,-1.0336,13655,12505,1,12505,1,0.0001689,-5.1696e-11,0,0.00020135,-3.0917e-05,2.7891e+07,-7.7529,0,3.6552e+07,-10.033,12504,11321,1,11321,1,-0.00021832,-4.8143e-10,0,1.4759e-06,-0.00010314,-8.8781e+07,-71.786,0,1.2006e+06,-23.245,11320,11952,1,11952,1,-3.2454e-05,-1.6447e-10,0,9.4409e-05,-6.8391e-05,-1.3167e+07,-27.442,0,2.5771e+07,-13.255,11951,13059,1,13059,1,0.00037025,5.5269e-11,0,0.00037025,6.5488e-06,3.7632e+07,8.85,0,4.1182e+07,-7.9552,13058,640.53,0,640.53,0,0.00023239,1.8625e-10,0,0.00016301,4.3265e-05,3.9712e+07,27.837,0,1.9018e+07,3.8065,640.53,1
2054,1.53,12506,1,12506,1,0.00017001,2.1089e-10,0,0.00023808,-3.1146e-05,8.3376e+06,33.311,0,3.6059e+07,-3.9486,12505,13656,1,13656,1,0.00055978,8.1678e-10,0,0.00055978,4.1447e-05,4.4939e+07,123.02,0,8.9364e+07,8.5066,13655,12505,1,12505,1,0.00017001,1.8211e-10,0,0.00020268,-3.112e-05,2.8074e+07,29.751,0,3.6792e+07,-1.7933,12504,11321,1,11321,1,-0.00021975,-7.4335e-12,0,1.486e-06,-0.00010382,-8.9364e+07,-0.49521,0,1.2086e+06,-23.69,11320,11952,1,11952,1,-3.2667e-05,1.0547e-10,0,9.503e-05,-6.884e-05,-1.3254e+07,18.742,0,2.5941e+07,-6.9739,11951,13059,1,13059,1,0.00037269,2.2799e-10,0,0.00037269,6.5919e-06,3.7879e+07,38.519,0,4.1452e+07,-0.030824,13058,640.53,0,640.53,0,0.00023392,1.5371e-10,0,0.00016408,4.3549e-05,3.9973e+07,22.785,0,1.9143e+07,5.7796,640.53,1
2054,1.54,12506,1,12506,1,0.00017112,-3.3846e-10,0,0.00023964,-3.135e-05,8.3923e+06,-53.938,0,3.6295e+07,-3.7707,12505,13656,1,13656,1,0.00056344,2.4227e-10,0,0.00056344,4.1719e-05,4.5234e+07,35.35,0,8.995e+07,27.873,13655,12505,1,12505,1,0.00017112,-3.0649e-10,0,0.000204,-3.1323e-05,2.8258e+07,-53.177,0,3.7033e+07,-2.3529,12504,11321,1,11321,1,-0.00022119,-8.6067e-10,0,1.4954e-06,-0.0001045,-8.995e+07,-144.06,0,1.2164e+06,-39.769,11320,11952,1,11952,1,-3.2881e-05,-5.3627e-10,0,9.5651e-05,-6.9291e-05,-1.3341e+07,-83.802,0,2.611e+07,-11.47,11951,13059,1,13059,1,0.00037513,-1.3388e-10,0,0.00037513,6.635e-06,3.8127e+07,-21.174,0,4.1723e+07,5.2923,13058,640.53,0,640.53,0,0.00023545,2.5692e-10,0,0.00016515,4.3834e-05,4.0234e+07,39.256,0,1.9268e+07,13.441,640.53,1
2054,1.55,12506,1,12506,1,0.00017223,1.8841e-10,0,0.0002412,-3.1553e-05,8.4466e+06,29.223,0,3.6531e+07,-2.3748,12505,13656,1,13656,1,0.00056709,6.4837e-10,0,0.00056709,4.1989e-05,4.5527e+07,96.98,0,9.0532e+07,21.969,13655,12505,1,12505,1,0.00017223,1.3595e-10,0,0.00020533,-3.1526e-05,2.8441e+07,22.858,0,3.7273e+07,-0.048127,12504,11321,1,11321,1,-0.00022263,-1.783e-11,0,1.5051e-06,-0.00010518,-9.0532e+07,-1.2016,0,1.2243e+06,-31.059,11320,11952,1,11952,1,-3.3094e-05,6.4738e-11,0,9.6271e-05,-6.974e-05,-1.3427e+07,11.071,0,2.6279e+07,-10.566,11951,13059,1,13059,1,0.00037756,2.8046e-10,0,0.00037756,6.678e-06,3.8374e+07,43.792,0,4.1994e+07,5.501,13058,640.53,0,640.53,0,0.00023697,1.5503e-10,0,0.00016622,4.4118e-05,4.0495e+07,22.911,0,1.9393e+07,10.893,640.53,1
2054,1.56,12506,1,12506,1,0.00017334,-3.1514e-11,0,0.00024275,-3.1757e-05,8.5012e+06,-5.9531,0,3.6767e+07,-6.3217,12505,13656,1,13656,1,0.00057075,5.2304e-10,0,0.00057075,4.226e-05,4.5821e+07,74.728,0,9.1117e+07,6.6819,13655,12505,1,12505,1,0.00017334,-6.1516e-11,0,0.00020665,-3.173e-05,2.8625e+07,-10.252,0,3.7514e+07,-4.9763,12504,11321,1,11321,1,-0.00022406,-2.6324e-10,0,1.515e-06,-0.00010585,-9.1117e+07,-38.607,0,1.2323e+06,-28.168,11320,11952,1,11952,1,-3.3308e-05,-1.3999e-10,0,9.6893e-05,-7.0191e-05,-1.3514e+07,-21.846,0,2.6449e+07,-11.4,11951,13059,1,13059,1,0.00038,1.7639e-11,0,0.00038,6.7211e-06,3.8622e+07,2.5829,0,4.2265e+07,-0.52041,13058,640.53,0,640.53,0,0.0002385,1.4301e-10,0,0.0001673,4.4403e-05,4.0757e+07,20.976,0,1.9519e+07,7.2985,640.53,1
2054,1.57,12506,1,12506,1,0.00017445,3.7323e-10,0,0.00024431,-3.1961e-05,8.5556e+06,55.652,0,3.7002e+07,-6.1921,12505,13656,1,13656,1,0.00057441,1.6701e-09,0,0.00057441,4.2531e-05,4.6114e+07,252.53,0,9.1701e+07,53.805,13655,12505,1,12505,1,0.00017445,3.0152e-10,0,0.00020797,-3.1933e-05,2.8808e+07,50.235,0,3.7754e+07,-7.8076,12504,11321,1,11321,1,-0.0002255,-1.1199e-09,0,1.5248e-06,-0.00010653,-9.1701e+07,-167.98,0,1.2402e+06,-54.724,11320,11952,1,11952,1,-3.3521e-05,-4.5314e-11,0,9.7514e-05,-7.064e-05,-1.36e+07,-5.5327,0,2.6619e+07,-18.538,11951,13059,1,13059,1,0.00038243,7.7973e-10,0,0.00038243,6.7641e-06,3.8869e+07,120.82,0,4.2536e+07,3.5571,13058,640.53,0,640.53,0,0.00024003,6.236e-10,0,0.00016837,4.4688e-05,4.1018e+07,93.262,0,1.9644e+07,19.959,640.53,1
2054,1.58,12506,1,12506,1,0.00017556,1.0449e-10,0,0.00024586,-3.2164e-05,8.61e+06,15.626,0,3.7237e+07,-6.7707,12505,13656,1,13656,1,0.00057806,6.9963e-10,0,0.00057806,4.2801e-05,4.6407e+07,106.29,0,9.2284e+07,5.1371,13655,12505,1,12505,1,0.00017556,6.9607e-11,0,0.0002093,-3.2136e-05,2.8991e+07,11.396,0,3.7994e+07,-5.2881,12504,11321,1,11321,1,-0.00022693,-5.1052e-10,0,1.5346e-06,-0.00010721,-9.2284e+07,-82.21,0,1.2481e+06,-20.164,11320,11952,1,11952,1,-3.3734e-05,-7.3548e-11,0,9.8134e-05,-7.1089e-05,-1.3687e+07,-11.585,0,2.6788e+07,-10.266,11951,13059,1,13059,1,0.00038486,3.062e-10,0,0.00038486,6.8072e-06,3.9116e+07,48.995,0,4.2806e+07,-3.4017,13058,640.53,0,640.53,0,0.00024156,2.8097e-10,0,0.00016944,4.4972e-05,4.1279e+07,41.756,0,1.9769e+07,4.7367,640.53,1
2054,1.59,12506,1,12506,1,0.00017668,2.2909e-10,0,0.00024742,-3.2367e-05,8.6645e+06,34.773,0,3.7473e+07,-6.9245,12505,13656,1,13656,1,0.00058172,8.5196e-10,0,0.00058172,4.3072e-05,4.6701e+07,126.48,0,9.2868e+07,10.166,13655,12505,1,12505,1,0.00017667,1.7673e-10,0,0.00021062,-3.234e-05,2.9175e+07,30.232,0,3.8235e+07,-5.8342,12504,11321,1,11321,1,-0.00022837,-3.6061e-10,0,1.5442e-06,-0.00010789,-9.2868e+07,-52.249,0,1.256e+06,-20.181,11320,11952,1,11952,1,-3.3948e-05,9.1166e-12,0,9.8755e-05,-7.1539e-05,-1.3774e+07,1.1375,0,2.6958e+07,-11.239,11951,13059,1,13059,1,0.0003873,4.6155e-10,0,0.0003873,6.8503e-06,3.9364e+07,68.849,0,4.3077e+07,-3.1109,13058,640.53,0,640.53,0,0.00024309,2.7948e-10,0,0.00017051,4.5257e-05,4.154e+07,41.278,0,1.9894e+07,5.5537,640.53,1
2054,1.6,12506,1,12506,1,0.00017779,2.2317e-10,0,0.00024898,-3.2571e-05,8.7191e+06,33.73,0,3.7709e+07,-8.142,12505,13656,1,13656,1,0.00058539,9.3355e-10,0,0.00058539,4.3344e-05,4.6996e+07,139.6,0,9.3453e+07,10.171,13655,12505,1,12505,1,0.00017779,1.7618e-10,0,0.00021195,-3.2544e-05,2.9359e+07,29.71,0,3.8476e+07,-7.256,12504,11321,1,11321,1,-0.00022981,-5.5906e-10,0,1.5538e-06,-0.00010857,-9.3453e+07,-82.003,0,1.2639e+06,-27.87,11320,11952,1,11952,1,-3.4162e-05,-7.6768e-12,0,9.9378e-05,-7.199e-05,-1.386e+07,-0.89177,0,2.7127e+07,-12.833,11951,13059,1,13059,1,0.00038974,4.9494e-10,0,0.00038974,6.8935e-06,3.9612e+07,73.945,0,4.3349e+07,-3.1424,13058,640.53,0,640.53,0,0.00024462,3.3337e-10,0,0.00017159,4.5542e-05,4.1802e+07,49.547,0,2.0019e+07,7.1726,640.53,1
2054,1.61,12506,1,12506,1,0.0001789,2.168e-11,0,0.00025053,-3.2775e-05,8.7735e+06,2.1116,0,3.7945e+07,-8.9023,12505,13656,1,13656,1,0.00058904,8.3273e-10,0,0.00058904,4.3614e-05,4.7289e+07,127.25,0,9.4036e+07,9.3612,13655,12505,1,12505,1,0.0001789,2.4313e-11,0,0.00021327,-3.2747e-05,2.9542e+07,3.6114,0,3.8716e+07,-6.9284,12504,11321,1,11321,1,-0.00023124,-9.8756e-10,0,1.5637e-06,-0.00010925,-9.4036e+07,-154.75,0,1.2718e+06,-27.596,11320,11952,1,11952,1,-3.4375e-05,-2.3256e-10,0,9.9998e-05,-7.2439e-05,-1.3947e+07,-38.892,0,2.7297e+07,-14.912,11951,13059,1,13059,1,0.00039217,3.1917e-10,0,0.00039217,6.9365e-06,3.9859e+07,49.647,0,4.3619e+07,-3.0665,13058,640.53,0,640.53,0,0.00024614,4.1502e-10,0,0.00017266,4.5826e-05,4.2063e+07,62.278,0,2.0144e+07,7.5642,640.53,1
2054,1.62,12506,1,12506,1,0.00018001,3.8557e-10,0,0.00025209,-3.2978e-05,8.828e+06,59.426,0,3.818e+07,-7.6654,12505,13656,1,13656,1,0.0005927,1.2996e-09,0,0.0005927,4.3885e-05,4.7582e+07,199.07,0,9.462e+07,20.663,13655,12505,1,12505,1,0.00018001,3.1256e-10,0,0.0002146,-3.295e-05,2.9725e+07,54.615,0,3.8956e+07,-6.6475,12504,11321,1,11321,1,-0.00023268,-5.4759e-10,0,1.5734e-06,-0.00010992,-9.462e+07,-78.367,0,1.2797e+06,-32.203,11320,11952,1,11952,1,-3.4588e-05,5.2591e-11,0,0.00010062,-7.2889e-05,-1.4033e+07,7.6209,0,2.7466e+07,-14.398,11951,13059,1,13059,1,0.00039461,7.4585e-10,0,0.00039461,6.9795e-06,4.0107e+07,110.6,0,4.389e+07,-2.1082,13058,640.53,0,640.53,0,0.00024767,4.3073e-10,0,0.00017373,4.611e-05,4.2324e+07,64.274,0,2.0269e+07,10.113,640.53,1
2054,1.63,12506,1,12506,1,0.00018112,2.4443e-10,0,0.00025364,-3.3182e-05,8.8826e+06,37.642,0,3.8416e+07,-9.1491,12505,13656,1,13656,1,0.00059636,1.0339e-09,0,0.00059636,4.4156e-05,4.7877e+07,156.91,0,9.5205e+07,7.0664,13655,12505,1,12505,1,0.00018112,1.8042e-10,0,0.00021592,-3.3154e-05,2.9909e+07,31.038,0,3.9197e+07,-7.6695,12504,11321,1,11321,1,-0.00023412,-5.5904e-10,0,1.5831e-06,-0.0001106,-9.5205e+07,-79.944,0,1.2876e+06,-22.369,11320,11952,1,11952,1,-3.4802e-05,2.4913e-12,0,0.00010124,-7.334e-05,-1.412e+07,0.19872,0,2.7636e+07,-14.205,11951,13059,1,13059,1,0.00039705,5.3494e-10,0,0.00039705,7.0227e-06,4.0355e+07,82.428,0,4.4161e+07,-4.829,13058,640.53,0,640.53,0,0.0002492,3.6613e-10,0,0.0001748,4.6396e-05,4.2585e+07,54.558,0,2.0394e+07,6.0347,640.53,1
2054,1.64,12506,1,12506,1,0.00018223,4.9718e-11,0,0.0002552,-3.3385e-05,8.937e+06,6.9797,0,3.8651e+07,-7.8065,12505,13656,1,13656,1,0.00060001,6.0648e-10,0,0.00060001,4.4427e-05,4.817e+07,87.493,0,9.5788e+07,3.5322,13655,12505,1,12505,1,0.00018223,2.0318e-11,0,0.00021725,-3.3357e-05,3.0092e+07,3.2005,0,3.9437e+07,-7.3731,12504,11321,1,11321,1,-0.00023555,-4.7842e-10,0,1.5928e-06,-0.00011128,-9.5788e+07,-71.051,0,1.2955e+06,-17.368,11320,11952,1,11952,1,-3.5015e-05,-1.0127e-10,0,0.00010186,-7.3789e-05,-1.4207e+07,-17.459,0,2.7805e+07,-10.497,11951,13059,1,13059,1,0.00039948,1.9307e-10,0,0.00039948,7.0657e-06,4.0602e+07,31.734,0,4.4432e+07,-5.095,13058,640.53,0,640.53,0,0.00025073,2.3999e-10,0,0.00017587,4.668e-05,4.2846e+07,35.38,0,2.0519e+07,3.513,640.53,1
2054,1.65,12506,1,12506,1,0.00018334,-3.907e-11,0,0.00025676,-3.3589e-05,8.9916e+06,-6.567,0,3.8887e+07,-7.9842,12505,13656,1,13656,1,0.00060368,5.7002e-10,0,0.00060368,4.4698e-05,4.8464e+07,81.869,0,9.6373e+07,8.558,13655,12505,1,12505,1,0.00018334,-6.3139e-11,0,0.00021857,-3.356e-05,3.0276e+07,-10.767,0,3.9678e+07,-5.8159,12504,11321,1,11321,1,-0.00023699,-2.945e-10,0,1.6024e-06,-0.00011196,-9.6373e+07,-45.883,0,1.3034e+06,-29.673,11320,11952,1,11952,1,-3.5229e-05,-1.7409e-10,0,0.00010248,-7.4239e-05,-1.4293e+07,-25.776,0,2.7975e+07,-10.902,11951,13059,1,13059,1,0.00040192,3.2239e-11,0,0.00040192,7.1089e-06,4.085e+07,4.8017,0,4.4703e+07,-3.1974,13058,640.53,0,640.53,0,0.00025226,1.724e-10,0,0.00017695,4.6965e-05,4.3108e+07,24.998,0,2.0645e+07,6.657,640.53,1
2054,1.66,12506,1,12506,1,0.00018445,1.2023e-10,0,0.00025831,-3.3793e-05,9.046e+06,18.996,0,3.9123e+07,-3.6715,12505,13656,1,13656,1,0.00060733,6.6296e-10,0,0.00060733,4.4969e-05,4.8757e+07,100.61,0,9.6957e+07,13.02,13655,12505,1,12505,1,0.00018445,7.1865e-11,0,0.0002199,-3.3764e-05,3.0459e+07,13.026,0,3.9918e+07,-2.4043,12504,11321,1,11321,1,-0.00023842,-1.5365e-11,0,1.6122e-06,-0.00011264,-9.6957e+07,-2.8874,0,1.3113e+06,-23.638,11320,11952,1,11952,1,-3.5443e-05,3.1657e-11,0,0.0001031,-7.4689e-05,-1.438e+07,4.1826,0,2.8144e+07,-8.1895,11951,13059,1,13059,1,0.00040435,1.6135e-10,0,0.00040435,7.1519e-06,4.1097e+07,26.04,0,4.4974e+07,1.0995,13058,640.53,0,640.53,0,0.00025379,1.3195e-10,0,0.00017802,4.7249e-05,4.3369e+07,19.615,0,2.077e+07,6.7141,640.53,1
2054,1.67,12506,1,12506,1,0.00018557,-6.382e-11,0,0.00025987,-3.3996e-05,9.1006e+06,-11.842,0,3.9359e+07,-2.9428,12505,13656,1,13656,1,0.000611,1.3793e-10,0,0.000611,4.524e-05,4.9051e+07,28.419,0,9.7541e+07,13.136,13655,12505,1,12505,1,0.00018557,-3.0474e-11,0,0.00022122,-3.3967e-05,3.0643e+07,-4.0942,0,4.0159e+07,-2.7675,12504,11321,1,11321,1,-0.00023986,-6.5735e-10,0,1.6218e-06,-0.00011332,-9.7541e+07,-104.09,0,1.3191e+06,-24.859,11320,11952,1,11952,1,-3.5656e-05,-1.0515e-10,0,0.00010372,-7.5139e-05,-1.4467e+07,-24.364,0,2.8314e+07,-5.9176,11951,13059,1,13059,1,0.00040679,4.2011e-11,0,0.00040679,7.1951e-06,4.1345e+07,4.8719,0,4.5245e+07,0.98867,13058,640.53,0,640.53,0,0.00025532,1.501e-10,0,0.00017909,4.7534e-05,4.363e+07,23.816,0,2.0895e+07,6.1993,640.53,1
2054,1.68,12506,1,12506,1,0.00018668,2.7721e-10,0,0.00026142,-3.42e-05,9.155e+06,41.865,0,3.9594e+07,-8.7543,12505,13656,1,13656,1,0.00061465,1.2413e-09,0,0.00061465,4.5511e-05,4.9345e+07,187.71,0,9.8125e+07,19.001,13655,12505,1,12505,1,0.00018668,1.9269e-10,0,0.00022255,-3.417e-05,3.0826e+07,33.376,0,4.0399e+07,-7.6772,12504,11321,1,11321,1,-0.0002413,-5.6021e-10,0,1.6317e-06,-0.000114,-9.8125e+07,-86.61,0,1.3271e+06,-32.294,11320,11952,1,11952,1,-3.587e-05,-1.9342e-11,0,0.00010435,-7.5589e-05,-1.4553e+07,-2.4229,0,2.8484e+07,-15.266,11951,13059,1,13059,1,0.00040922,6.1816e-10,0,0.00040922,7.2381e-06,4.1592e+07,92.765,0,4.5516e+07,-3.0928,13058,640.53,0,640.53,0,0.00025685,4.1875e-10,0,0.00018017,4.7818e-05,4.3891e+07,62.205,0,2.102e+07,8.8659,640.53,1
2054,1.69,12506,1,12506,1,0.00018779,6.8493e-11,0,0.00026298,-3.4403e-05,9.2094e+06,9.4197,0,3.983e+07,-6.3795,12505,13656,1,13656,1,0.00061831,6.3064e-10,0,0.00061831,4.5781e-05,4.9638e+07,93.193,0,9.8708e+07,5.6833,13655,12505,1,12505,1,0.00018779,4.2099e-11,0,0.00022387,-3.4374e-05,3.101e+07,6.2232,0,4.0639e+07,-5.2663,12504,11321,1,11321,1,-0.00024273,-5.7001e-10,0,1.6414e-06,-0.00011467,-9.8708e+07,-85.026,0,1.335e+06,-19.153,11320,11952,1,11952,1,-3.6083e-05,-8.9373e-11,0,0.00010497,-7.6038e-05,-1.464e+07,-15.367,0,2.8653e+07,-10.056,11951,13059,1,13059,1,0.00041166,2.5945e-10,0,0.00041166,7.2811e-06,4.184e+07,39.965,0,4.5786e+07,-3.2906,13058,640.53,0,640.53,0,0.00025837,2.6258e-10,0,0.00018124,4.8103e-05,4.4152e+07,38.99,0,2.1145e+07,4.3415,640.53,1
2054,1.7,12506,1,12506,1,0.0001889,1.4119e-10,0,0.00026454,-3.4607e-05,9.264e+06,20.851,0,4.0066e+07,-7.8536,12505,13656,1,13656,1,0.00062197,7.8831e-10,0,0.00062197,4.6052e-05,4.9932e+07,117.6,0,9.9293e+07,6.7303,13655,12505,1,12505,1,0.0001889,9.8735e-11,0,0.0002252,-3.4577e-05,3.1193e+07,16.646,0,4.088e+07,-6.2738,12504,11321,1,11321,1,-0.00024417,-5.8363e-10,0,1.6511e-06,-0.00011535,-9.9293e+07,-85.411,0,1.3429e+06,-20.42,11320,11952,1,11952,1,-3.6297e-05,-4.9265e-11,0,0.00010559,-7.6489e-05,-1.4727e+07,-7.8956,0,2.8823e+07,-12.289,11951,13059,1,13059,1,0.0004141,3.8561e-10,0,0.0004141,7.3242e-06,4.2088e+07,57.099,0,4.6058e+07,-3.7645,13058,640.53,0,640.53,0,0.0002599,3.0327e-10,0,0.00018231,4.8388e-05,4.4414e+07,44.999,0,2.127e+07,5.439,640.53,1
2054,1.71,12506,1,12506,1,0.00019001,-9.3104e-11,0,0.00026609,-3.4811e-05,9.3185e+06,-15.48,0,4.0302e+07,-5.7762,12505,13656,1,13656,1,0.00062563,3.004e-10,0,0.00062563,4.6323e-05,5.0226e+07,42.234,0,9.9878e+07,7.5426,13655,12505,1,12505,1,0.00019001,-9.5662e-11,0,0.00022652,-3.4781e-05,3.1377e+07,-17.319,0,4.1121e+07,-3.9374,12504,11321,1,11321,1,-0.00024561,-2.5156e-10,0,1.6607e-06,-0.00011603,-9.9878e+07,-41.138,0,1.3508e+06,-25.547,11320,11952,1,11952,1,-3.651e-05,-1.8763e-10,0,0.00010621,-7.6939e-05,-1.4813e+07,-29.081,0,2.8992e+07,-10.02,11951,13059,1,13059,1,0.00041653,-3.1778e-11,0,0.00041653,7.3674e-06,4.2335e+07,-4.5254,0,4.6329e+07,-1.0796,13058,640.53,0,640.53,0,0.00026143,1.0682e-10,0,0.00018338,4.8673e-05,4.4675e+07,15.982,0,2.1395e+07,6.1301,640.53,1
2054,1.72,12506,1,12506,1,0.00019112,-2.7626e-10,0,0.00026765,-3.5014e-05,9.373e+06,-44.24,0,4.0537e+07,-8.0958,12505,13656,1,13656,1,0.00062929,7.7867e-11,0,0.00062929,4.6594e-05,5.052e+07,14.658,0,1.0046e+08,0.90903,13655,12505,1,12505,1,0.00019112,-2.2904e-10,0,0.00022784,-3.4984e-05,3.156e+07,-40.177,0,4.1361e+07,-7.2215,12504,11321,1,11321,1,-0.00024704,-7.8788e-10,0,1.6705e-06,-0.00011671,-1.0046e+08,-120.25,0,1.3587e+06,-20.657,11320,11952,1,11952,1,-3.6724e-05,-4.3853e-10,0,0.00010683,-7.7389e-05,-1.49e+07,-68.705,0,2.9162e+07,-9.6929,11951,13059,1,13059,1,0.00041897,-1.0202e-10,0,0.00041897,7.4104e-06,4.2583e+07,-18.783,0,4.6599e+07,-5.6068,13058,640.53,0,640.53,0,0.00026296,2.0477e-10,0,0.00018446,4.8957e-05,4.4936e+07,31.281,0,2.152e+07,3.6229,640.53,1
2054,1.73,12506,1,12506,1,0.00019223,1.4252e-11,0,0.0002692,-3.5217e-05,9.4274e+06,1.414,0,4.0772e+07,-6.794,12505,13656,1,13656,1,0.00063294,4.786e-10,0,0.00063294,4.6865e-05,5.0813e+07,69.383,0,1.0104e+08,0.09084,13655,12505,1,12505,1,0.00019223,-1.8748e-12,0,0.00022917,-3.5187e-05,3.1744e+07,-0.17002,0,4.1601e+07,-6.3464,12504,11321,1,11321,1,-0.00024848,-4.0391e-10,0,1.6802e-06,-0.00011739,-1.0104e+08,-58.531,0,1.3666e+06,-18.111,11320,11952,1,11952,1,-3.6937e-05,-8.4733e-11,0,0.00010745,-7.7838e-05,-1.4986e+07,-14.374,0,2.9331e+07,-9.2918,11951,13059,1,13059,1,0.0004214,1.0252e-10,0,0.0004214,7.4535e-06,4.283e+07,16.301,0,4.687e+07,-4.0674,13058,640.53,0,640.53,0,0.00026449,1.7009e-10,0,0.00018553,4.9241e-05,4.5197e+07,24.982,0,2.1645e+07,3.6775,640.53,1
2054,1.74,12506,1,12506,1,0.00019334,-5.3303e-11,0,0.00027076,-3.5421e-05,9.4819e+06,-8.7315,0,4.1008e+07,-3.5812,12505,13656,1,13656,1,0.0006366,4.7405e-10,0,0.0006366,4.7136e-05,5.1107e+07,69.211,0,1.0163e+08,10.008,13655,12505,1,12505,1,0.00019334,-7.1202e-11,0,0.00023049,-3.5391e-05,3.1927e+07,-12.173,0,4.1842e+07,-2.2395,12504,11321,1,11321,1,-0.00024991,-2.9001e-10,0,1.69e-06,-0.00011807,-1.0163e+08,-50.283,0,1.3745e+06,-24.001,11320,11952,1,11952,1,-3.7151e-05,-1.763e-10,0,0.00010807,-7.8288e-05,-1.5073e+07,-26.082,0,2.9501e+07,-5.8773,11951,13059,1,13059,1,0.00042384,1.0161e-11,0,0.00042384,7.4966e-06,4.3078e+07,1.134,0,4.7141e+07,0.0096874,13058,640.53,0,640.53,0,0.00026602,1.4918e-10,0,0.0001866,4.9526e-05,4.5459e+07,21.878,0,2.177e+07,5.5142,640.53,1
2054,1.75,12506,1,12506,1,0.00019446,3.4449e-10,0,0.00027232,-3.5625e-05,9.5365e+06,52.238,0,4.1244e+07,-10.17,12505,13656,1,13656,1,0.00064027,1.4869e-09,0,0.00064027,4.7407e-05,5.1401e+07,232.86,0,1.0221e+08,32.165,13655,12505,1,12505,1,0.00019446,2.785e-10,0,0.00023182,-3.5594e-05,3.2111e+07,48.514,0,4.2083e+07,-10.485,12504,11321,1,11321,1,-0.00025135,-9.6949e-10,0,1.6993e-06,-0.00011875,-1.0221e+08,-144.8,0,1.3823e+06,-43.208,11320,11952,1,11952,1,-3.7364e-05,-2.1334e-11,0,0.00010869,-7.8739e-05,-1.516e+07,-2.661,0,2.9671e+07,-21.474,11951,13059,1,13059,1,0.00042628,7.7472e-10,0,0.00042628,7.5396e-06,4.3326e+07,116.05,0,4.7413e+07,-1.0409,13058,640.53,0,640.53,0,0.00026755,5.47e-10,0,0.00018767,4.9811e-05,4.572e+07,82.216,0,2.1896e+07,15.494,640.53,1
2054,1.76,12506,1,12506,1,0.00019557,-3.0339e-10,0,0.00027387,-3.5828e-05,9.591e+06,-48.93,0,4.148e+07,-3.0542,12505,13656,1,13656,1,0.00064392,-3.5204e-11,0,0.00064392,4.7678e-05,5.1695e+07,-2.389,0,1.028e+08,8.4486,13655,12505,1,12505,1,0.00019557,-2.8491e-10,0,0.00023314,-3.5798e-05,3.2294e+07,-49.798,0,4.2323e+07,-1.5097,12504,11321,1,11321,1,-0.00025279,-6.2619e-10,0,1.7093e-06,-0.00011943,-1.028e+08,-97.739,0,1.3903e+06,-18.702,11320,11952,1,11952,1,-3.7578e-05,-4.5312e-10,0,0.00010931,-7.9189e-05,-1.5246e+07,-71.999,0,2.984e+07,-7.1841,11951,13059,1,13059,1,0.00042871,-1.7079e-10,0,0.00042871,7.5828e-06,4.3573e+07,-28.702,0,4.7683e+07,1.6158,13058,640.53,0,640.53,0,0.00026908,1.5353e-10,0,0.00018875,5.0096e-05,4.5982e+07,25.035,0,2.2021e+07,5.859,640.53,1
2054,1.77,12506,1,12506,1,0.00019668,9.5701e-11,0,0.00027543,-3.6032e-05,9.6455e+06,14.043,0,4.1716e+07,-8.3327,12505,13656,1,13656,1,0.00064758,5.3041e-10,0,0.00064758,4.7949e-05,5.1988e+07,76.474,0,1.0338e+08,3.8689,13655,12505,1,12505,1,0.00019668,6.4335e-11,0,0.00023447,-3.6001e-05,3.2478e+07,10.014,0,4.2563e+07,-7.6695,12504,11321,1,11321,1,-0.00025422,-4.8276e-11,0,1.7188e-06,-0.0001201,-1.0338e+08,-11.757,0,1.3981e+06,-26.915,11320,11952,1,11952,1,-3.7791e-05,2.4887e-11,0,0.00010994,-7.9639e-05,-1.5333e+07,3.9579,0,3.0009e+07,-13.13,11951,13059,1,13059,1,0.00043115,1.1866e-10,0,0.00043115,7.6258e-06,4.3821e+07,18.217,0,4.7954e+07,-2.794,13058,640.53,0,640.53,0,0.00027061,1.0749e-10,0,0.00018982,5.038e-05,4.6243e+07,14.901,0,2.2146e+07,6.5442,640.53,1
2054,1.78,12506,1,12506,1,0.00019779,2.2616e-10,0,0.00027699,-3.6236e-05,9.7e+06,34.721,0,4.1951e+07,-3.6933,12505,13656,1,13656,1,0.00065124,1.0455e-09,0,0.00065124,4.822e-05,5.2282e+07,170.59,0,1.0397e+08,12.692,13655,12505,1,12505,1,0.00019779,1.1037e-10,0,0.00023579,-3.6205e-05,3.2661e+07,19.353,0,4.2804e+07,-3.2117,12504,11321,1,11321,1,-0.00025566,-5.376e-11,0,1.7288e-06,-0.00012078,-1.0397e+08,-4.3788,0,1.4061e+06,-25.24,11320,11952,1,11952,1,-3.8005e-05,2.23e-11,0,0.00011056,-8.0089e-05,-1.542e+07,2.4942,0,3.0179e+07,-8.1341,11951,13059,1,13059,1,0.00043358,3.3562e-10,0,0.00043358,7.669e-06,4.4068e+07,57.053,0,4.8225e+07,0.85083,13058,640.53,0,640.53,0,0.00027214,2.6732e-10,0,0.00019089,5.0665e-05,4.6504e+07,39.187,0,2.2271e+07,6.8446,640.53,1
2054,1.79,12506,1,12506,1,0.0001989,6.1286e-11,0,0.00027854,-3.6439e-05,9.7544e+06,8.3343,0,4.2187e+07,-2.6936,12505,13656,1,13656,1,0.0006549,3.1202e-10,0,0.0006549,4.849e-05,5.2576e+07,45.639,0,1.0455e+08,4.5029,13655,12505,1,12505,1,0.0001989,4.2494e-11,0,0.00023712,-3.6408e-05,3.2845e+07,7.413,0,4.3044e+07,-2.3958,12504,11321,1,11321,1,-0.0002571,-1.6481e-10,0,1.7385e-06,-0.00012146,-1.0455e+08,-26.389,0,1.414e+06,-14.869,11320,11952,1,11952,1,-3.8218e-05,-1.4579e-11,0,0.00011118,-8.0538e-05,-1.5506e+07,-1.4737,0,3.0349e+07,-4.9491,11951,13059,1,13059,1,0.00043602,1.2407e-10,0,0.00043602,7.712e-06,4.4316e+07,17.143,0,4.8496e+07,-0.043192,13058,640.53,0,640.53,0,0.00027366,9.2516e-11,0,0.00019196,5.095e-05,4.6765e+07,13.169,0,2.2396e+07,3.3706,640.53,1
2054,1.8,12506,1,12506,1,0.00020001,-4.1098e-11,0,0.0002801,-3.6642e-05,9.8088e+06,-6.7648,0,4.2422e+07,-4.4243,12505,13656,1,13656,1,0.00065855,5.2747e-10,0,0.00065855,4.8761e-05,5.2869e+07,77.408,0,1.0513e+08,9.0933,13655,12505,1,12505,1,0.00020001,-6.4921e-11,0,0.00023844,-3.6611e-05,3.3028e+07,-11.098,0,4.3284e+07,-2.3266,12504,11321,1,11321,1,-0.00025853,-2.5796e-10,0,1.7482e-06,-0.00012214,-1.0513e+08,-43.247,0,1.4219e+06,-26.64,11320,11952,1,11952,1,-3.8432e-05,-1.6763e-10,0,0.0001118,-8.0988e-05,-1.5593e+07,-24.442,0,3.0518e+07,-6.622,11951,13059,1,13059,1,0.00043845,1.417e-11,0,0.00043845,7.7551e-06,4.4563e+07,2.5432,0,4.8767e+07,-0.38414,13058,640.53,0,640.53,0,0.00027519,1.5487e-10,0,0.00019303,5.1234e-05,4.7026e+07,22.606,0,2.2521e+07,5.963,640.53,1
2054,1.81,12506,1,12506,1,0.00020112,1.4625e-10,0,0.00028165,-3.6845e-05,9.8632e+06,21.988,0,4.2657e+07,-4.8358,12505,13656,1,13656,1,0.0006622,5.9695e-10,0,0.0006622,4.9031e-05,5.3162e+07,88.291,0,1.0572e+08,8.3345,13655,12505,1,12505,1,0.00020112,1.0974e-10,0,0.00023976,-3.6814e-05,3.3211e+07,18.613,0,4.3524e+07,-3.869,12504,11321,1,11321,1,-0.00025996,-2.8008e-10,0,1.7579e-06,-0.00012282,-1.0572e+08,-40.675,0,1.4298e+06,-14.32,11320,11952,1,11952,1,-3.8645e-05,-1.3505e-12,0,0.00011242,-8.1437e-05,-1.5679e+07,-0.2901,0,3.0687e+07,-8.195,11951,13059,1,13059,1,0.00044088,3.1279e-10,0,0.00044088,7.798e-06,4.481e+07,46.202,0,4.9037e+07,-2.0593,13058,640.53,0,640.53,0,0.00027672,1.9995e-10,0,0.0001941,5.1518e-05,4.7287e+07,29.507,0,2.2646e+07,4.0926,640.53,1
2054,1.82,12506,1,12506,1,0.00020223,-3.8456e-10,0,0.00028321,-3.705e-05,9.918e+06,-61.706,0,4.2894e+07,-10.46,12505,13656,1,13656,1,0.00066588,-2.0833e-11,0,0.00066588,4.9303e-05,5.3457e+07,-1.4145,0,1.063e+08,17.19,13655,12505,1,12505,1,0.00020223,-3.3914e-10,0,0.00024109,-3.7018e-05,3.3395e+07,-57.748,0,4.3766e+07,-8.0914,12504,11321,1,11321,1,-0.00026141,-9.095e-10,0,1.7672e-06,-0.0001235,-1.063e+08,-150.84,0,1.4375e+06,-41.655,11320,11952,1,11952,1,-3.8859e-05,-5.6136e-10,0,0.00011304,-8.1888e-05,-1.5766e+07,-89.475,0,3.0857e+07,-18.717,11951,13059,1,13059,1,0.00044333,-1.9274e-10,0,0.00044333,7.8412e-06,4.5059e+07,-33.27,0,4.9309e+07,-1.2851,13058,640.53,0,640.53,0,0.00027825,2.302e-10,0,0.00019518,5.1804e-05,4.7549e+07,36.684,0,2.2772e+07,12.02,640.53,1
2054,1.83,12506,1,12506,1,0.00020335,1.9997e-10,0,0.00028477,-3.7254e-05,9.9726e+06,28.041,0,4.313e+07,-14.424,12505,13656,1,13656,1,0.00066955,1.7709e-09,0,0.00066955,4.9575e-05,5.3752e+07,268.19,0,1.0689e+08,43.475,13655,12505,1,12505,1,0.00020335,1.7977e-10,0,0.00024242,-3.7222e-05,3.3579e+07,29.455,0,4.4007e+07,-14.544,12504,11321,1,11321,1,-0.00026285,-1.8927e-09,0,1.7771e-06,-0.00012418,-1.0689e+08,-285.38,0,1.4455e+06,-62.333,11320,11952,1,11952,1,-3.9073e-05,-2.3282e-10,0,0.00011366,-8.234e-05,-1.5853e+07,-40.193,0,3.1027e+07,-30.407,11951,13059,1,13059,1,0.00044577,7.8711e-10,0,0.00044577,7.8844e-06,4.5307e+07,119.94,0,4.9581e+07,0.2227,13058,640.53,0,640.53,0,0.00027978,7.9203e-10,0,0.00019626,5.2089e-05,4.7811e+07,119.36,0,2.2897e+07,21.564,640.53,1
2054,1.84,12506,1,12506,1,0.00020445,2.4923e-10,0,0.00028632,-3.7457e-05,1.0027e+07,37.499,0,4.3365e+07,-8.2651,12505,13656,1,13656,1,0.00067319,1.1801e-09,0,0.00067319,4.9845e-05,5.4044e+07,177.27,0,1.0747e+08,14.445,13655,12505,1,12505,1,0.00020445,1.766e-10,0,0.00024374,-3.7424e-05,3.3762e+07,30.21,0,4.4246e+07,-6.3085,12504,11321,1,11321,1,-0.00026428,-6.5764e-10,0,1.7871e-06,-0.00012485,-1.0747e+08,-95.716,0,1.4535e+06,-28.016,11320,11952,1,11952,1,-3.9286e-05,-3.2768e-11,0,0.00011428,-8.2787e-05,-1.5939e+07,-5.1735,0,3.1196e+07,-14.602,11951,13059,1,13059,1,0.00044819,5.8748e-10,0,0.00044819,7.9274e-06,4.5553e+07,86.647,0,4.985e+07,-2.7362,13058,640.53,0,640.53,0,0.00028131,4.1654e-10,0,0.00019732,5.2372e-05,4.8071e+07,61.674,0,2.3022e+07,7.6463,640.53,1
2054,1.85,12506,1,12506,1,0.00020557,-1.2976e-10,0,0.00028788,-3.766e-05,1.0081e+07,-21.163,0,4.3601e+07,-5.1622,12505,13656,1,13656,1,0.00067685,3.5062e-10,0,0.00067685,5.0116e-05,5.4338e+07,48.88,0,1.0805e+08,9.3492,13655,12505,1,12505,1,0.00020557,-1.2148e-10,0,0.00024507,-3.7628e-05,3.3946e+07,-21.337,0,4.4487e+07,-4.9344,12504,11321,1,11321,1,-0.00026571,-4.1439e-10,0,1.7965e-06,-0.00012553,-1.0805e+08,-68.383,0,1.4613e+06,-25.164,11320,11952,1,11952,1,-3.9499e-05,-2.7563e-10,0,0.0001149,-8.3238e-05,-1.6026e+07,-41.414,0,3.1366e+07,-8.7714,11951,13059,1,13059,1,0.00045063,-2.1667e-11,0,0.00045063,7.9705e-06,4.5801e+07,-3.916,0,5.0121e+07,-1.0116,13058,640.53,0,640.53,0,0.00028284,1.5863e-10,0,0.0001984,5.2657e-05,4.8333e+07,23.533,0,2.3147e+07,5.9919,640.53,1
2054,1.86,12506,1,12506,1,0.00020668,-1.867e-10,0,0.00028944,-3.7864e-05,1.0136e+07,-30.213,0,4.3837e+07,-7.2257,12505,13656,1,13656,1,0.00068051,3.3307e-10,0,0.00068051,5.0387e-05,5.4632e+07,46.914,0,1.0864e+08,7.0117,13655,12505,1,12505,1,0.00020668,-1.7225e-10,0,0.00024639,-3.7832e-05,3.4129e+07,-31.103,0,4.4728e+07,-4.9456,12504,11321,1,11321,1,-0.00026715,-5.6385e-10,0,1.8065e-06,-0.00012621,-1.0864e+08,-84.292,0,1.4693e+06,-29.707,11320,11952,1,11952,1,-3.9713e-05,-3.468e-10,0,0.00011553,-8.3689e-05,-1.6113e+07,-53.339,0,3.1536e+07,-11.097,11951,13059,1,13059,1,0.00045307,-5.9336e-11,0,0.00045307,8.0137e-06,4.6049e+07,-9.2074,0,5.0393e+07,-2.0035,13058,640.53,0,640.53,0,0.00028437,1.7833e-10,0,0.00019947,5.2942e-05,4.8594e+07,26.843,0,2.3272e+07,6.7814,640.53,1
2054,1.87,12506,1,12506,1,0.00020779,-9.9577e-11,0,0.00029099,-3.8068e-05,1.019e+07,-15.952,0,4.4073e+07,-3.8066,12505,13656,1,13656,1,0.00068417,4.8234e-10,0,0.00068417,5.0658e-05,5.4926e+07,70.528,0,1.0922e+08,22.208,13655,12505,1,12505,1,0.00020779,-7.8995e-11,0,0.00024772,-3.8035e-05,3.4313e+07,-12.546,0,4.4968e+07,-0.23163,12504,11321,1,11321,1,-0.00026859,-4.9703e-10,0,1.8162e-06,-0.00012689,-1.0922e+08,-75.561,0,1.4772e+06,-36.68,11320,11952,1,11952,1,-3.9927e-05,-2.1003e-10,0,0.00011615,-8.4138e-05,-1.6199e+07,-35.463,0,3.1705e+07,-9.1028,11951,13059,1,13059,1,0.00045551,3.8978e-12,0,0.00045551,8.0568e-06,4.6297e+07,0.48964,0,5.0664e+07,2.7438,13058,640.53,0,640.53,0,0.0002859,1.7425e-10,0,0.00020054,5.3227e-05,4.8856e+07,26.193,0,2.3397e+07,10.64,640.53,1
2054,1.88,12506,1,12506,1,0.0002089,3.4243e-10,0,0.00029255,-3.8271e-05,1.0245e+07,53.464,0,4.4308e+07,-4.3707,12505,13656,1,13656,1,0.00068783,9.9212e-10,0,0.00068783,5.0929e-05,5.522e+07,146.21,0,1.0981e+08,4.8833,13655,12505,1,12505,1,0.0002089,3.2365e-10,0,0.00024904,-3.8239e-05,3.4496e+07,52.806,0,4.5209e+07,-2.5537,12504,11321,1,11321,1,-0.00027003,-5.3213e-12,0,1.8259e-06,-0.00012757,-1.0981e+08,-0.35036,0,1.4851e+06,-23.263,11320,11952,1,11952,1,-4.014e-05,1.8105e-10,0,0.00011677,-8.4588e-05,-1.6286e+07,32.321,0,3.1875e+07,-8.0732,11951,13059,1,13059,1,0.00045794,4.545e-10,0,0.00045794,8.0999e-06,4.6544e+07,71.34,0,5.0935e+07,-0.084746,13058,640.53,0,640.53,0,0.00028743,1.9994e-10,0,0.00020162,5.3512e-05,4.9117e+07,29.17,0,2.3522e+07,5.4358,640.53,1
2054,1.89,12506,1,12506,1,0.00021001,2.5455e-11,0,0.0002941,-3.8474e-05,1.0299e+07,1.9084,0,4.4543e+07,-9.69,12505,13656,1,13656,1,0.00069148,9.698e-10,0,0.00069148,5.1199e-05,5.5513e+07,145.33,0,1.1039e+08,18.824,13655,12505,1,12505,1,0.00021001,2.7452e-11,0,0.00025036,-3.8442e-05,3.4679e+07,4.9719,0,4.5449e+07,-8.251,12504,11321,1,11321,1,-0.00027146,-1.2285e-09,0,1.8356e-06,-0.00012825,-1.1039e+08,-184.34,0,1.493e+06,-33.164,11320,11952,1,11952,1,-4.0353e-05,-2.3851e-10,0,0.00011739,-8.5037e-05,-1.6372e+07,-40.945,0,3.2044e+07,-18.967,11951,13059,1,13059,1,0.00046037,3.9099e-10,0,0.00046037,8.1428e-06,4.6791e+07,57.89,0,5.1205e+07,-1.7555,13058,640.53,0,640.53,0,0.00028895,4.7591e-10,0,0.00020269,5.3796e-05,4.9378e+07,71.658,0,2.3647e+07,10.836,640.53,1
2054,1.9,12506,1,12506,1,0.00021112,4.2903e-10,0,0.00029566,-3.8678e-05,1.0354e+07,66.526,0,4.4779e+07,-10.402,12505,13656,1,13656,1,0.00069514,1.5565e-09,0,0.00069514,5.147e-05,5.5807e+07,238.16,0,1.1097e+08,13.601,13655,12505,1,12505,1,0.00021112,3.2243e-10,0,0.00025169,-3.8645e-05,3.4863e+07,56.315,0,4.5689e+07,-8.0094,12504,11321,1,11321,1,-0.0002729,-5.8895e-10,0,1.8454e-06,-0.00012892,-1.1097e+08,-82.965,0,1.5009e+06,-31.214,11320,11952,1,11952,1,-4.0567e-05,5.6464e-11,0,0.00011801,-8.5487e-05,-1.6459e+07,6.8978,0,3.2213e+07,-18.072,11951,13059,1,13059,1,0.00046281,8.4905e-10,0,0.00046281,8.1859e-06,4.7039e+07,128.41,0,5.1476e+07,-3.9286,13058,640.53,0,640.53,0,0.00029048,5.0517e-10,0,0.00020376,5.408e-05,4.9639e+07,75.201,0,2.3772e+07,8.972,640.53,1
2054,1.91,12506,1,12506,1,0.00021223,-1.3627e-10,0,0.00029722,-3.8882e-05,1.0408e+07,-22.312,0,4.5015e+07,-4.2081,12505,13656,1,13656,1,0.0006988,4.2921e-10,0,0.0006988,5.1741e-05,5.6101e+07,61.263,0,1.1156e+08,13.936,13655,12505,1,12505,1,0.00021223,-1.3834e-10,0,0.00025302,-3.8849e-05,3.5047e+07,-23.211,0,4.593e+07,-1.0529,12504,11321,1,11321,1,-0.00027433,-4.4582e-10,0,1.855e-06,-0.0001296,-1.1156e+08,-70.764,0,1.5088e+06,-38.373,11320,11952,1,11952,1,-4.0781e-05,-2.3901e-10,0,0.00011863,-8.5938e-05,-1.6546e+07,-39.655,0,3.2383e+07,-7.7785,11951,13059,1,13059,1,0.00046525,-5.667e-11,0,0.00046525,8.2291e-06,4.7287e+07,-7.3351,0,5.1747e+07,1.8985,13058,640.53,0,640.53,0,0.00029201,1.5619e-10,0,0.00020483,5.4365e-05,4.9901e+07,23.692,0,2.3898e+07,9.3499,640.53,1
2054,1.92,12506,1,12506,1,0.00021335,1.5078e-10,0,0.00029877,-3.9086e-05,1.0463e+07,22.585,0,4.5251e+07,-4.8537,12505,13656,1,13656,1,0.00070246,5.2792e-10,0,0.00070246,5.2012e-05,5.6394e+07,87.128,0,1.1214e+08,17.32,13655,12505,1,12505,1,0.00021335,1.0319e-10,0,0.00025434,-3.9052e-05,3.523e+07,16.306,0,4.6171e+07,-4.0795,12504,11321,1,11321,1,-0.00027577,-5.4492e-11,0,1.8645e-06,-0.00013028,-1.1214e+08,-3.6843,0,1.5166e+06,-28.674,11320,11952,1,11952,1,-4.0994e-05,4.5024e-11,0,0.00011925,-8.6388e-05,-1.6632e+07,6.7773,0,3.2553e+07,-13.125,11951,13059,1,13059,1,0.00046768,2.4681e-10,0,0.00046768,8.2721e-06,4.7534e+07,35.31,0,5.2018e+07,3.2508,13058,640.53,0,640.53,0,0.00029354,1.3344e-10,0,0.0002059,5.465e-05,5.0162e+07,19.368,0,2.4023e+07,9.9308,640.53,1
2054,1.93,12506,1,12506,1,0.00021445,2.4559e-11,0,0.00030032,-3.9289e-05,1.0517e+07,3.3277,0,4.5486e+07,-4.9853,12505,13656,1,13656,1,0.00070611,5.9265e-10,0,0.00070611,5.2282e-05,5.6687e+07,86.823,0,1.1273e+08,10.828,13655,12505,1,12505,1,0.00021445,-1.76e-11,0,0.00025566,-3.9255e-05,3.5413e+07,-2.6686,0,4.6411e+07,-3.3361,12504,11321,1,11321,1,-0.0002772,-1.4036e-10,0,1.8744e-06,-0.00013096,-1.1273e+08,-26.571,0,1.5246e+06,-26.523,11320,11952,1,11952,1,-4.1207e-05,-5.3509e-11,0,0.00011987,-8.6837e-05,-1.6719e+07,-8.9475,0,3.2722e+07,-7.9665,11951,13059,1,13059,1,0.00047012,4.6605e-11,0,0.00047012,8.3151e-06,4.7781e+07,7.5986,0,5.2288e+07,-0.49027,13058,640.53,0,640.53,0,0.00029507,1.394e-10,0,0.00020697,5.4934e-05,5.0422e+07,20.175,0,2.4148e+07,6.4632,640.53,1
2054,1.94,12506,1,12506,1,0.00021557,-6.5049e-11,0,0.00030188,-3.9493e-05,1.0572e+07,-11.223,0,4.5722e+07,-5.0599,12505,13656,1,13656,1,0.00070978,4.5539e-10,0,0.00070978,5.2554e-05,5.6982e+07,65.052,0,1.1331e+08,5.0737,13655,12505,1,12505,1,0.00021557,-7.7302e-11,0,0.00025699,-3.9459e-05,3.5597e+07,-13.128,0,4.6651e+07,-3.9066,12504,11321,1,11321,1,-0.00027864,-3.1905e-10,0,1.8842e-06,-0.00013164,-1.1331e+08,-53.314,0,1.5325e+06,-20.435,11320,11952,1,11952,1,-4.1421e-05,-1.9418e-10,0,0.00012049,-8.7287e-05,-1.6806e+07,-30.928,0,3.2892e+07,-7.2825,11951,13059,1,13059,1,0.00047256,2.2545e-11,0,0.00047256,8.3583e-06,4.8029e+07,3.2339,0,5.256e+07,-2.1452,13058,640.53,0,640.53,0,0.0002966,1.6605e-10,0,0.00020805,5.5219e-05,5.0684e+07,24.574,0,2.4273e+07,4.079,640.53,1
2054,1.95,12506,1,12506,1,0.00021668,2.2654e-10,0,0.00030344,-3.9696e-05,1.0626e+07,33.897,0,4.5957e+07,-11.374,12505,13656,1,13656,1,0.00071343,1.3341e-09,0,0.00071343,5.2824e-05,5.7275e+07,205.28,0,1.1389e+08,19.694,13655,12505,1,12505,1,0.00021668,1.7127e-10,0,0.00025831,-3.9662e-05,3.578e+07,28.71,0,4.6891e+07,-9.6261,12504,11321,1,11321,1,-0.00028008,-9.9311e-10,0,1.8939e-06,-0.00013232,-1.1389e+08,-149.39,0,1.5404e+06,-36.585,11320,11952,1,11952,1,-4.1634e-05,-9.3586e-11,0,0.00012111,-8.7737e-05,-1.6892e+07,-14.63,0,3.3061e+07,-20.851,11951,13059,1,13059,1,0.00047499,6.5424e-10,0,0.00047499,8.4013e-06,4.8277e+07,96.822,0,5.2831e+07,-3.7462,13058,640.53,0,640.53,0,0.00029812,5.2074e-10,0,0.00020912,5.5503e-05,5.0945e+07,78.098,0,2.4398e+07,11.454,640.53,1
2054,1.96,12506,1,12506,1,0.00021779,2.2176e-10,0,0.00030499,-3.9899e-05,1.0681e+07,33.588,0,4.6193e+07,-8.1772,12505,13656,1,13656,1,0.00071709,1.105e-09,0,0.00071709,5.3095e-05,5.7568e+07,168.57,0,1.1448e+08,15.38,13655,12505,1,12505,1,0.00021779,1.6301e-10,0,0.00025963,-3.9865e-05,3.5964e+07,27.887,0,4.7132e+07,-6.6909,12504,11321,1,11321,1,-0.00028151,-6.8723e-10,0,1.9036e-06,-0.00013299,-1.1448e+08,-100.69,0,1.5483e+06,-27.556,11320,11952,1,11952,1,-4.1847e-05,-3.9892e-11,0,0.00012174,-8.8186e-05,-1.6979e+07,-5.5675,0,3.323e+07,-15.391,11951,13059,1,13059,1,0.00047742,5.5676e-10,0,0.00047742,8.4443e-06,4.8524e+07,82.457,0,5.3101e+07,-2.167,13058,640.53,0,640.53,0,0.00029965,4.0569e-10,0,0.00021019,5.5788e-05,5.1206e+07,60.552,0,2.4523e+07,8.6514,640.53,1
2054,1.97,12506,1,12506,1,0.0002189,2.6584e-10,0,0.00030655,-4.0103e-05,1.0735e+07,40.893,0,4.6429e+07,-5.9175,12505,13656,1,13656,1,0.00072075,9.7525e-10,0,0.00072075,5.3367e-05,5.7863e+07,140.38,0,1.1506e+08,3.6129,13655,12505,1,12505,1,0.0002189,1.8238e-10,0,0.00026096,-4.0069e-05,3.6148e+07,29.838,0,4.7373e+07,-4.6208,12504,11321,1,11321,1,-0.00028295,-4.96e-11,0,1.9133e-06,-0.00013367,-1.1506e+08,-3.3493,0,1.5561e+06,-21.886,11320,11952,1,11952,1,-4.2062e-05,1.1146e-10,0,0.00012236,-8.8637e-05,-1.7065e+07,19.549,0,3.34e+07,-8.6587,11951,13059,1,13059,1,0.00047986,3.6205e-10,0,0.00047986,8.4875e-06,4.8772e+07,57.588,0,5.3373e+07,-1.9113,13058,640.53,0,640.53,0,0.00030118,2.1819e-10,0,0.00021127,5.6073e-05,5.1468e+07,31.021,0,2.4648e+07,4.8098,640.53,1
2054,1.98,12506,1,12506,1,0.00022001,5.2218e-11,0,0.00030811,-4.0307e-05,1.079e+07,7.5852,0,4.6665e+07,-6.1762,12505,13656,1,13656,1,0.00072441,6.0013e-10,0,0.00072441,5.3637e-05,5.8157e+07,87.262,0,1.1565e+08,4.4475,13655,12505,1,12505,1,0.00022001,5.8197e-12,0,0.00026229,-4.0272e-05,3.6331e+07,0.66988,0,4.7613e+07,-4.6003,12504,11321,1,11321,1,-0.00028439,-1.7535e-10,0,1.923e-06,-0.00013435,-1.1565e+08,-24.828,0,1.5641e+06,-23.747,11320,11952,1,11952,1,-4.2275e-05,-3.0293e-11,0,0.00012298,-8.9087e-05,-1.7152e+07,-5.0522,0,3.357e+07,-9.1422,11951,13059,1,13059,1,0.0004823,8.98e-11,0,0.0004823,8.5306e-06,4.902e+07,14.629,0,5.3644e+07,-2.1975,13058,640.53,0,640.53,0,0.00030271,1.4029e-10,0,0.00021234,5.6358e-05,5.1729e+07,19.981,0,2.4773e+07,4.9967,640.53,1
2054,1.99,12506,1,12506,1,0.00022112,4.8784e-11,0,0.00030966,-4.051e-05,1.0844e+07,6.967,0,4.69e+07,-1.4368,12505,13656,1,13656,1,0.00072807,3.4482e-10,0,0.00072807,5.3908e-05,5.845e+07,51.974,0,1.1623e+08,12.428,13655,12505,1,12505,1,0.00022112,2.8046e-11,0,0.00026361,-4.0476e-05,3.6515e+07,4.5201,0,4.7854e+07,-0.48245,12504,11321,1,11321,1,-0.00028582,-2.977e-11,0,1.9327e-06,-0.00013503,-1.1623e+08,-7.2173,0,1.572e+06,-19.32,11320,11952,1,11952,1,-4.2488e-05,2.6451e-13,0,0.0001236,-8.9537e-05,-1.7239e+07,0.042686,0,3.3739e+07,-4.3104,11951,13059,1,13059,1,0.00048473,8.3174e-11,0,0.00048473,8.5737e-06,4.9267e+07,12.2,0,5.3914e+07,2.2315,13058,640.53,0,640.53,0,0.00030424,6.6079e-11,0,0.00021341,5.6642e-05,5.199e+07,9.3937,0,2.4898e+07,5.6578,640.53,1
2054,2,12506,1,12506,1,0.00022223,2.8095e-10,0,0.00031122,-4.0714e-05,1.0899e+07,41.969,0,4.7136e+07,-11.436,12505,13656,1,13656,1,0.00073173,1.5395e-09,0,0.00073173,5.4179e-05,5.8744e+07,232.31,0,1.1682e+08,22.884,13655,12505,1,12505,1,0.00022223,1.9676e-10,0,0.00026493,-4.0679e-05,3.6698e+07,32.441,0,4.8094e+07,-9.7449,12504,11321,1,11321,1,-0.00028726,-9.7442e-10,0,1.9424e-06,-0.00013571,-1.1682e+08,-142.6,0,1.5799e+06,-39.973,11320,11952,1,11952,1,-4.2702e-05,-8.0892e-11,0,0.00012422,-8.9987e-05,-1.7325e+07,-12.344,0,3.3909e+07,-20.476,11951,13059,1,13059,1,0.00048717,7.3955e-10,0,0.00048717,8.6167e-06,4.9515e+07,109.68,0,5.4185e+07,-3.2613,13058,640.53,0,640.53,0,0.00030577,5.6365e-10,0,0.00021448,5.6926e-05,5.2251e+07,83.917,0,2.5023e+07,11.506,640.53,1
2054,2.01,12506,1,12506,1,0.00022335,5.2113e-11,0,0.00031278,-4.0918e-05,1.0953e+07,7.7929,0,4.7372e+07,-8.9397,12505,13656,1,13656,1,0.00073539,6.4826e-10,0,0.00073539,5.445e-05,5.9038e+07,94.922,0,1.174e+08,2.7521,13655,12505,1,12505,1,0.00022335,9.8625e-12,0,0.00026626,-4.0883e-05,3.6882e+07,1.0061,0,4.8335e+07,-7.6017,12504,11321,1,11321,1,-0.0002887,-1.8442e-10,0,1.9519e-06,-0.00013639,-1.174e+08,-32.076,0,1.5877e+06,-26.193,11320,11952,1,11952,1,-4.2915e-05,-4.9803e-11,0,0.00012484,-9.0437e-05,-1.7412e+07,-7.9616,0,3.4079e+07,-10.817,11951,13059,1,13059,1,0.00048961,1.0861e-10,0,0.00048961,8.6598e-06,4.9762e+07,17.945,0,5.4456e+07,-5.6443,13058,640.53,0,640.53,0,0.0003073,1.6157e-10,0,0.00021556,5.7211e-05,5.2513e+07,23.564,0,2.5149e+07,4.7158,640.53,1
2054,2.02,12506,1,12506,1,0.00022446,4.4347e-10,0,0.00031433,-4.1121e-05,1.1008e+07,67.707,0,4.7607e+07,-8.7245,12505,13656,1,13656,1,0.00073904,1.6781e-09,0,0.00073904,5.4721e-05,5.9331e+07,254.43,0,1.1798e+08,32.46,13655,12505,1,12505,1,0.00022445,3.5332e-10,0,0.00026758,-4.1086e-05,3.7065e+07,60.698,0,4.8575e+07,-7.9863,12504,11321,1,11321,1,-0.00029013,-8.0839e-10,0,1.9619e-06,-0.00013707,-1.1798e+08,-116.88,0,1.5957e+06,-42.972,11320,11952,1,11952,1,-4.3129e-05,1.8595e-11,0,0.00012546,-9.0886e-05,-1.7499e+07,2.1742,0,3.4248e+07,-19.596,11951,13059,1,13059,1,0.00049204,8.8487e-10,0,0.00049204,8.7029e-06,5.001e+07,133.82,0,5.4727e+07,-0.76556,13058,640.53,0,640.53,0,0.00030883,5.6733e-10,0,0.00021663,5.7496e-05,5.2774e+07,84.646,0,2.5274e+07,14.272,640.53,1
2054,2.03,12506,1,12506,1,0.00022557,-1.5558e-11,0,0.00031589,-4.1325e-05,1.1062e+07,-2.9352,0,4.7843e+07,-5.0209,12505,13656,1,13656,1,0.0007427,3.9556e-10,0,0.0007427,5.4992e-05,5.9625e+07,57.579,0,1.1857e+08,11.406,13655,12505,1,12505,1,0.00022557,-1.6353e-11,0,0.00026891,-4.1289e-05,3.7249e+07,-2.913,0,4.8816e+07,-2.9767,12504,11321,1,11321,1,-0.00029157,-1.8216e-10,0,1.9713e-06,-0.00013775,-1.1857e+08,-29.677,0,1.6035e+06,-28.978,11320,11952,1,11952,1,-4.3342e-05,-5.9502e-11,0,0.00012608,-9.1337e-05,-1.7585e+07,-10.135,0,3.4418e+07,-10.683,11951,13059,1,13059,1,0.00049448,4.6103e-12,0,0.00049448,8.746e-06,5.0257e+07,0.58084,0,5.4998e+07,0.90215,13058,640.53,0,640.53,0,0.00031036,8.9703e-11,0,0.0002177,5.7781e-05,5.3035e+07,13.176,0,2.5399e+07,8.3382,640.53,1
2054,2.04,12506,1,12506,1,0.00022668,2.983e-10,0,0.00031744,-4.1528e-05,1.1117e+07,44.707,0,4.8079e+07,-9.1594,12505,13656,1,13656,1,0.00074636,1.3977e-09,0,0.00074636,5.5263e-05,5.9919e+07,208.83,0,1.1915e+08,24.724,13655,12505,1,12505,1,0.00022668,2.1976e-10,0,0.00027023,-4.1492e-05,3.7432e+07,38.41,0,4.9056e+07,-7.9954,12504,11321,1,11321,1,-0.000293,-7.9832e-10,0,1.9813e-06,-0.00013842,-1.1915e+08,-117.22,0,1.6115e+06,-36.719,11320,11952,1,11952,1,-4.3556e-05,-4.0487e-11,0,0.0001267,-9.1786e-05,-1.7672e+07,-5.3863,0,3.4587e+07,-18.258,11951,13059,1,13059,1,0.00049691,6.931e-10,0,0.00049691,8.7891e-06,5.0505e+07,103.49,0,5.5269e+07,-2.496,13058,640.53,0,640.53,0,0.00031188,4.9222e-10,0,0.00021877,5.8065e-05,5.3296e+07,73.295,0,2.5524e+07,11.164,640.53,1
2054,2.05,12506,1,12506,1,0.00022779,3.4164e-10,0,0.000319,-4.1732e-05,1.1171e+07,51.178,0,4.8314e+07,-11.057,12505,13656,1,13656,1,0.00075002,1.7333e-09,0,0.00075002,5.5534e-05,6.0212e+07,264.5,0,1.1974e+08,36.493,13655,12505,1,12505,1,0.00022779,2.692e-10,0,0.00027156,-4.1696e-05,3.7615e+07,46.003,0,4.9296e+07,-10.331,12504,11321,1,11321,1,-0.00029444,-1.2018e-09,0,1.9909e-06,-0.0001391,-1.1974e+08,-180.65,0,1.6193e+06,-50.585,11320,11952,1,11952,1,-4.3769e-05,-7.204e-11,0,0.00012733,-9.2236e-05,-1.7758e+07,-10.72,0,3.4757e+07,-25.2,11951,13059,1,13059,1,0.00049935,8.4325e-10,0,0.00049935,8.8321e-06,5.0752e+07,126.6,0,5.554e+07,0.14708,13058,640.53,0,640.53,0,0.00031341,6.526e-10,0,0.00021984,5.835e-05,5.3558e+07,98.001,0,2.5649e+07,17.459,640.53,1
2054,2.06,12506,1,12506,1,0.0002289,4.7069e-10,0,0.00032055,-4.1935e-05,1.1226e+07,72.386,0,4.855e+07,-9.1999,12505,13656,1,13656,1,0.00075367,1.6536e-09,0,0.00075367,5.5804e-05,6.0506e+07,249.58,0,1.2032e+08,21.921,13655,12505,1,12505,1,0.0002289,3.5358e-10,0,0.00027288,-4.1899e-05,3.7798e+07,60.991,0,4.9536e+07,-7.8142,12504,11321,1,11321,1,-0.00029587,-5.0005e-10,0,2.0007e-06,-0.00013978,-1.2032e+08,-70.813,0,1.6273e+06,-33.258,11320,11952,1,11952,1,-4.3983e-05,5.8656e-11,0,0.00012795,-9.2686e-05,-1.7845e+07,8.548,0,3.4926e+07,-17.474,11951,13059,1,13059,1,0.00050178,8.973e-10,0,0.00050178,8.8752e-06,5.1e+07,134.82,0,5.581e+07,-2.609,13058,640.53,0,640.53,0,0.00031494,5.1718e-10,0,0.00022091,5.8634e-05,5.3819e+07,76.623,0,2.5774e+07,9.9195,640.53,1
2054,2.07,12506,1,12506,1,0.00023001,6.036e-11,0,0.00032211,-4.2139e-05,1.128e+07,6.8778,0,4.8786e+07,-14.877,12505,13656,1,13656,1,0.00075734,1.25e-09,0,0.00075734,5.6075e-05,6.08e+07,187.64,0,1.209e+08,19.829,13655,12505,1,12505,1,0.00023001,5.0459e-11,0,0.00027421,-4.2103e-05,3.7982e+07,8.1781,0,4.9777e+07,-12.08,12504,11321,1,11321,1,-0.00029731,-1.5028e-09,0,2.0103e-06,-0.00014046,-1.209e+08,-225.41,0,1.6351e+06,-42.286,11320,11952,1,11952,1,-4.4196e-05,-2.6988e-10,0,0.00012857,-9.3136e-05,-1.7932e+07,-45.528,0,3.5096e+07,-25.217,11951,13059,1,13059,1,0.00050422,5.2613e-10,0,0.00050422,8.9183e-06,5.1248e+07,76.443,0,5.6082e+07,-6.4437,13058,640.53,0,640.53,0,0.00031647,5.9389e-10,0,0.00022199,5.8919e-05,5.408e+07,89.24,0,2.5899e+07,12.307,640.53,1
2054,2.08,12506,1,12506,1,0.00023112,5.5873e-10,0,0.00032367,-4.2342e-05,1.1335e+07,85.918,0,4.9021e+07,-11.621,12505,13656,1,13656,1,0.00076099,2.1686e-09,0,0.00076099,5.6346e-05,6.1093e+07,330.21,0,1.2149e+08,37.07,13655,12505,1,12505,1,0.00023112,4.3517e-10,0,0.00027553,-4.2306e-05,3.8166e+07,74.511,0,5.0017e+07,-10.291,12504,11321,1,11321,1,-0.00029875,-1.0097e-09,0,2.0201e-06,-0.00014114,-1.2149e+08,-146.29,0,1.643e+06,-51.247,11320,11952,1,11952,1,-4.441e-05,3.1574e-11,0,0.00012919,-9.3586e-05,-1.8018e+07,3.8486,0,3.5265e+07,-25.495,11951,13059,1,13059,1,0.00050665,1.1453e-09,0,0.00050665,8.9613e-06,5.1495e+07,173.07,0,5.6352e+07,-1.3758,13058,640.53,0,640.53,0,0.000318,7.3071e-10,0,0.00022306,5.9203e-05,5.4341e+07,109.2,0,2.6024e+07,17.359,640.53,1
2054,2.09,12506,1,12506,1,0.00023223,-1.0194e-10,0,0.00032522,-4.2546e-05,1.1389e+07,-17.382,0,4.9257e+07,-6.1199,12505,13656,1,13656,1,0.00076465,3.7237e-10,0,0.00076465,5.6617e-05,6.1387e+07,52.125,0,1.2207e+08,7.4836,13655,12505,1,12505,1,0.00023223,-1.0994e-10,0,0.00027686,-4.251e-05,3.8349e+07,-18.945,0,5.0258e+07,-3.6744,12504,11321,1,11321,1,-0.00030018,-2.8958e-10,0,2.0296e-06,-0.00014182,-1.2207e+08,-47.567,0,1.6509e+06,-33.429,11320,11952,1,11952,1,-4.4623e-05,-1.9887e-10,0,0.00012981,-9.4036e-05,-1.8105e+07,-32.21,0,3.5435e+07,-9.7254,11951,13059,1,13059,1,0.00050909,-3.6633e-11,0,0.00050909,9.0045e-06,5.1743e+07,-5.0141,0,5.6624e+07,-0.9222,13058,640.53,0,640.53,0,0.00031953,1.2478e-10,0,0.00022413,5.9488e-05,5.4603e+07,18.85,0,2.615e+07,7.4898,640.53,1
2054,2.1,12506,1,12506,1,0.00023334,3.6773e-10,0,0.00032678,-4.2749e-05,1.1444e+07,56.288,0,4.9492e+07,-8.9816,12505,13656,1,13656,1,0.00076831,1.4279e-09,0,0.00076831,5.6887e-05,6.168e+07,220.73,0,1.2265e+08,24.279,13655,12505,1,12505,1,0.00023334,2.893e-10,0,0.00027818,-4.2712e-05,3.8532e+07,50.439,0,5.0498e+07,-8.0706,12504,11321,1,11321,1,-0.00030162,-7.2951e-10,0,2.0395e-06,-0.00014249,-1.2265e+08,-108.01,0,1.6588e+06,-36.628,11320,11952,1,11952,1,-4.4836e-05,1.7658e-11,0,0.00013043,-9.4485e-05,-1.8191e+07,2.2834,0,3.5604e+07,-17.787,11951,13059,1,13059,1,0.00051152,7.6449e-10,0,0.00051152,9.0475e-06,5.199e+07,113.71,0,5.6894e+07,-2.3008,13058,640.53,0,640.53,0,0.00032105,4.8833e-10,0,0.0002252,5.9772e-05,5.4863e+07,72.897,0,2.6274e+07,11.992,640.53,1
2054,2.11,12506,1,12506,1,0.00023446,3.3699e-10,0,0.00032833,-4.2953e-05,1.1498e+07,50.674,0,4.9728e+07,-12.314,12505,13656,1,13656,1,0.00077197,1.6929e-09,0,0.00077197,5.7159e-05,6.1975e+07,254.13,0,1.2324e+08,31.659,13655,12505,1,12505,1,0.00023446,2.6601e-10,0,0.00027951,-4.2916e-05,3.8716e+07,45.693,0,5.0739e+07,-10.447,12504,11321,1,11321,1,-0.00030306,-1.2215e-09,0,2.0493e-06,-0.00014317,-1.2324e+08,-178.4,0,1.6667e+06,-46.651,11320,11952,1,11952,1,-4.505e-05,-6.2382e-11,0,0.00013105,-9.4936e-05,-1.8278e+07,-8.4285,0,3.5774e+07,-24.247,11951,13059,1,13059,1,0.00051396,8.3963e-10,0,0.00051396,9.0906e-06,5.2238e+07,125.14,0,5.7165e+07,-3.8303,13058,640.53,0,640.53,0,0.00032259,6.3358e-10,0,0.00022628,6.0057e-05,5.5125e+07,94.614,0,2.64e+07,15.114,640.53,1
2054,2.12,12506,1,12506,1,0.00023557,3.6724e-10,0,0.00032989,-4.3157e-05,1.1553e+07,54.998,0,4.9964e+07,-14.308,12505,13656,1,13656,1,0.00077563,1.8508e-09,0,0.00077563,5.743e-05,6.2269e+07,278.48,0,1.2382e+08,27.48,13655,12505,1,12505,1,0.00023557,2.6603e-10,0,0.00028083,-4.312e-05,3.89e+07,45.569,0,5.098e+07,-11.568,12504,11321,1,11321,1,-0.0003045,-1.1392e-09,0,2.0589e-06,-0.00014385,-1.2382e+08,-167.53,0,1.6746e+06,-46.512,11320,11952,1,11952,1,-4.5264e-05,-7.5061e-11,0,0.00013167,-9.5386e-05,-1.8365e+07,-10.787,0,3.5944e+07,-25.599,11951,13059,1,13059,1,0.0005164,9.1739e-10,0,0.0005164,9.1337e-06,5.2486e+07,135.91,0,5.7437e+07,-5.1146,13058,640.53,0,640.53,0,0.00032412,6.6747e-10,0,0.00022735,6.0342e-05,5.5387e+07,99.412,0,2.6525e+07,13.533,640.53,1
2054,2.13,12506,1,12506,1,0.00023668,2.7928e-10,0,0.00033145,-4.336e-05,1.1607e+07,41.865,0,5.02e+07,-10.558,12505,13656,1,13656,1,0.00077929,1.4493e-09,0,0.00077929,5.77e-05,6.2562e+07,219.01,0,1.2441e+08,24.017,13655,12505,1,12505,1,0.00023668,2.1548e-10,0,0.00028215,-4.3323e-05,3.9083e+07,37.677,0,5.122e+07,-8.7141,12504,11321,1,11321,1,-0.00030593,-1.0454e-09,0,2.0687e-06,-0.00014453,-1.2441e+08,-152.98,0,1.6826e+06,-38.694,11320,11952,1,11952,1,-4.5477e-05,-6.1932e-11,0,0.00013229,-9.5835e-05,-1.8451e+07,-9.4094,0,3.6113e+07,-20.443,11951,13059,1,13059,1,0.00051883,7.2628e-10,0,0.00051883,9.1768e-06,5.2733e+07,107.2,0,5.7707e+07,-2.9495,13058,640.53,0,640.53,0,0.00032564,5.4668e-10,0,0.00022842,6.0626e-05,5.5648e+07,81.629,0,2.665e+07,12.157,640.53,1
2054,2.14,12506,1,12506,1,0.00023779,4.2038e-10,0,0.000333,-4.3564e-05,1.1662e+07,64.751,0,5.0435e+07,-10.172,12505,13656,1,13656,1,0.00078294,1.5944e-09,0,0.00078294,5.7971e-05,6.2856e+07,243.35,0,1.2499e+08,23.096,13655,12505,1,12505,1,0.00023779,3.3402e-10,0,0.00028348,-4.3526e-05,3.9266e+07,57.099,0,5.146e+07,-8.5642,12504,11321,1,11321,1,-0.00030737,-7.7659e-10,0,2.0784e-06,-0.00014521,-1.2499e+08,-110.8,0,1.6904e+06,-38.457,11320,11952,1,11952,1,-4.5691e-05,3.1673e-11,0,0.00013292,-9.6285e-05,-1.8538e+07,3.721,0,3.6282e+07,-19.907,11951,13059,1,13059,1,0.00052127,8.7327e-10,0,0.00052127,9.2198e-06,5.298e+07,130,0,5.7978e+07,-2.2628,13058,640.53,0,640.53,0,0.00032717,5.4134e-10,0,0.00022949,6.0911e-05,5.5909e+07,80.758,0,2.6775e+07,12.353,640.53,1
2054,2.15,12506,1,12506,1,0.0002389,2.0659e-11,0,0.00033456,-4.3768e-05,1.1716e+07,2.6356,0,5.0672e+07,-5.6759,12505,13656,1,13656,1,0.00078661,6.2946e-10,0,0.00078661,5.8243e-05,6.315e+07,91.724,0,1.2558e+08,3.3401,13655,12505,1,12505,1,0.0002389,5.0628e-12,0,0.00028481,-4.373e-05,3.9451e+07,0.77112,0,5.1702e+07,-3.3939,12504,11321,1,11321,1,-0.0003088,-3.9684e-10,0,2.088e-06,-0.00014589,-1.2558e+08,-59.877,0,1.6983e+06,-30.382,11320,11952,1,11952,1,-4.5905e-05,-4.9061e-11,0,0.00013354,-9.6736e-05,-1.8625e+07,-8.2063,0,3.6452e+07,-8.3847,11951,13059,1,13059,1,0.00052371,6.0533e-11,0,0.00052371,9.2631e-06,5.3229e+07,9.1496,0,5.825e+07,-0.62272,13058,640.53,0,640.53,0,0.0003287,1.5695e-10,0,0.00023057,6.1197e-05,5.6171e+07,22.918,0,2.6901e+07,6.4824,640.53,1
2054,2.16,12506,1,12506,1,0.00024001,2.4363e-10,0,0.00033611,-4.3971e-05,1.1771e+07,36.448,0,5.0907e+07,-10.215,12505,13656,1,13656,1,0.00079026,1.4202e-09,0,0.00079026,5.8513e-05,6.3443e+07,215.02,0,1.2616e+08,24.183,13655,12505,1,12505,1,0.00024001,1.8171e-10,0,0.00028613,-4.3933e-05,3.9633e+07,30.467,0,5.1941e+07,-9.1478,12504,11321,1,11321,1,-0.00031024,-1.0594e-09,0,2.0978e-06,-0.00014657,-1.2616e+08,-154.73,0,1.7062e+06,-36.738,11320,11952,1,11952,1,-4.6118e-05,-9.2766e-11,0,0.00013416,-9.7185e-05,-1.8711e+07,-13.781,0,3.6621e+07,-20.885,11951,13059,1,13059,1,0.00052614,6.8939e-10,0,0.00052614,9.306e-06,5.3475e+07,102.46,0,5.852e+07,-1.6822,13058,640.53,0,640.53,0,0.00033023,5.4718e-10,0,0.00023164,6.148e-05,5.6431e+07,81.7,0,2.7025e+07,12.643,640.53,1
2054,2.17,12506,1,12506,1,0.00024113,6.6446e-10,0,0.00033768,-4.4175e-05,1.1825e+07,102.24,0,5.1143e+07,-16.026,12505,13656,1,13656,1,0.00079394,2.5524e-09,0,0.00079394,5.8785e-05,6.3738e+07,386.62,0,1.2675e+08,30.993,13655,12505,1,12505,1,0.00024113,5.0568e-10,0,0.00028746,-4.4137e-05,3.9818e+07,86.94,0,5.2183e+07,-12.38,12504,11321,1,11321,1,-0.00031168,-1.1014e-09,0,2.1075e-06,-0.00014725,-1.2675e+08,-157.37,0,1.7142e+06,-51.684,11320,11952,1,11952,1,-4.6332e-05,4.158e-11,0,0.00013478,-9.7637e-05,-1.8798e+07,4.9336,0,3.6792e+07,-29.572,11951,13059,1,13059,1,0.00052859,1.3521e-09,0,0.00052859,9.3493e-06,5.3724e+07,204.61,0,5.8792e+07,-4.8308,13058,640.53,0,640.53,0,0.00033176,8.4539e-10,0,0.00023272,6.1766e-05,5.6694e+07,125.67,0,2.7151e+07,15.921,640.53,1
2054,2.18,12506,1,12506,1,0.00024223,4.8167e-12,0,0.00033922,-4.4378e-05,1.188e+07,0.064222,0,5.1378e+07,-6.3572,12505,13656,1,13656,1,0.00079757,3.6204e-10,0,0.00079757,5.9054e-05,6.403e+07,54.272,0,1.2733e+08,1.3541,13655,12505,1,12505,1,0.00024223,-6.1188e-12,0,0.00028878,-4.434e-05,4e+07,-1.0489,0,5.2422e+07,-5.5471,12504,11321,1,11321,1,-0.00031311,-2.0956e-10,0,2.1171e-06,-0.00014792,-1.2733e+08,-33.357,0,1.722e+06,-18.256,11320,11952,1,11952,1,-4.6544e-05,-6.4368e-11,0,0.0001354,-9.8084e-05,-1.8884e+07,-10.707,0,3.696e+07,-8.4984,11951,13059,1,13059,1,0.00053101,5.1571e-11,0,0.00053101,9.3921e-06,5.397e+07,8.3158,0,5.9061e+07,-4.0073,13058,640.53,0,640.53,0,0.00033328,1.0915e-10,0,0.00023378,6.2049e-05,5.6953e+07,15.916,0,2.7275e+07,3.1545,640.53,1
2054,2.19,12506,1,12506,1,0.00024335,3.3292e-10,0,0.00034078,-4.4582e-05,1.1934e+07,49.928,0,5.1614e+07,-12.661,12505,13656,1,13656,1,0.00080124,1.7998e-09,0,0.00080124,5.9326e-05,6.4324e+07,270.86,0,1.2791e+08,29.126,13655,12505,1,12505,1,0.00024334,2.4524e-10,0,0.0002901,-4.4543e-05,4.0184e+07,41.482,0,5.2663e+07,-10.371,12504,11321,1,11321,1,-0.00031455,-1.2433e-09,0,2.127e-06,-0.0001486,-1.2791e+08,-181.52,0,1.7299e+06,-43.993,11320,11952,1,11952,1,-4.6758e-05,-9.0071e-11,0,0.00013602,-9.8535e-05,-1.8971e+07,-13.27,0,3.713e+07,-24.565,11951,13059,1,13059,1,0.00053345,8.8298e-10,0,0.00053345,9.4353e-06,5.4218e+07,130.41,0,5.9333e+07,-3.1937,13058,640.53,0,640.53,0,0.00033482,6.7276e-10,0,0.00023486,6.2335e-05,5.7215e+07,100.31,0,2.7401e+07,14.28,640.53,1
2054,2.2,12506,1,12506,1,0.00024446,4.1077e-10,0,0.00034234,-4.4785e-05,1.1989e+07,62.703,0,5.1849e+07,-14.152,12505,13656,1,13656,1,0.0008049,1.9839e-09,0,0.0008049,5.9597e-05,6.4618e+07,300.81,0,1.285e+08,24.819,13655,12505,1,12505,1,0.00024446,3.0014e-10,0,0.00029143,-4.4747e-05,4.0367e+07,52.196,0,5.2903e+07,-11.298,12504,11321,1,11321,1,-0.00031598,-1.2047e-09,0,2.1367e-06,-0.00014928,-1.285e+08,-173.91,0,1.7378e+06,-45.4,11320,11952,1,11952,1,-4.6972e-05,-5.2839e-11,0,0.00013664,-9.8985e-05,-1.9058e+07,-7.2819,0,3.73e+07,-26.067,11951,13059,1,13059,1,0.00053588,9.8967e-10,0,0.00053588,9.4783e-06,5.4466e+07,149.28,0,5.9604e+07,-3.9435,13058,640.53,0,640.53,0,0.00033634,7.1874e-10,0,0.00023593,6.2619e-05,5.7476e+07,107.19,0,2.7526e+07,14.147,640.53,1
2054,2.21,12506,1,12506,1,0.00024557,3.6671e-10,0,0.0003439,-4.4989e-05,1.2043e+07,55.046,0,5.2085e+07,-11.298,12505,13656,1,13656,1,0.00080856,1.8801e-09,0,0.00080856,5.9868e-05,6.4912e+07,284.38,0,1.2908e+08,31.905,13655,12505,1,12505,1,0.00024557,2.5908e-10,0,0.00029275,-4.495e-05,4.0551e+07,43.964,0,5.3144e+07,-10.348,12504,11321,1,11321,1,-0.00031742,-1.1134e-09,0,2.1464e-06,-0.00014996,-1.2908e+08,-165.24,0,1.7457e+06,-45.329,11320,11952,1,11952,1,-4.7186e-05,-7.5488e-11,0,0.00013726,-9.9435e-05,-1.9144e+07,-10.408,0,3.7469e+07,-23.472,11951,13059,1,13059,1,0.00053832,9.0877e-10,0,0.00053832,9.5215e-06,5.4714e+07,136,0,5.9875e+07,-1.607,13058,640.53,0,640.53,0,0.00033787,6.7413e-10,0,0.000237,6.2904e-05,5.7738e+07,100.51,0,2.7651e+07,15.074,640.53,1
2054,2.22,12506,1,12506,1,0.00024668,2.4031e-10,0,0.00034545,-4.5192e-05,1.2098e+07,35.795,0,5.2321e+07,-14.523,12505,13656,1,13656,1,0.00081221,1.5436e-09,0,0.00081221,6.0139e-05,6.5205e+07,233.87,0,1.2966e+08,18.001,13655,12505,1,12505,1,0.00024668,1.8073e-10,0,0.00029408,-4.5154e-05,4.0735e+07,29.202,0,5.3384e+07,-12.761,12504,11321,1,11321,1,-0.00031886,-1.2124e-09,0,2.1558e-06,-0.00015064,-1.2966e+08,-180.38,0,1.7535e+06,-42.43,11320,11952,1,11952,1,-4.7399e-05,-1.3055e-10,0,0.00013788,-9.9885e-05,-1.9231e+07,-21.01,0,3.7639e+07,-24.862,11951,13059,1,13059,1,0.00054076,7.3209e-10,0,0.00054076,9.5645e-06,5.4961e+07,108.76,0,6.0145e+07,-5.0852,13058,640.53,0,640.53,0,0.0003394,6.1463e-10,0,0.00023807,6.3188e-05,5.7999e+07,91.662,0,2.7776e+07,12.589,640.53,1
2054,2.23,12506,1,12506,1,0.00024779,4.2022e-10,0,0.00034701,-4.5396e-05,1.2152e+07,63.832,0,5.2556e+07,-12.652,12505,13656,1,13656,1,0.00081587,1.7942e-09,0,0.00081587,6.041e-05,6.5499e+07,269.43,0,1.3025e+08,30.338,13655,12505,1,12505,1,0.00024779,3.2443e-10,0,0.0002954,-4.5357e-05,4.0918e+07,56.783,0,5.3625e+07,-11.244,12504,11321,1,11321,1,-0.00032029,-1.0162e-09,0,2.1658e-06,-0.00015132,-1.3025e+08,-148.24,0,1.7615e+06,-45.723,11320,11952,1,11952,1,-4.7612e-05,-1.1317e-11,0,0.00013851,-0.00010033,-1.9318e+07,-1.3959,0,3.7808e+07,-23.845,11951,13059,1,13059,1,0.00054319,9.2786e-10,0,0.00054319,9.6076e-06,5.5209e+07,138.62,0,6.0417e+07,-4.9887,13058,640.53,0,640.53,0,0.00034093,6.2675e-10,0,0.00023915,6.3473e-05,5.826e+07,93.287,0,2.7901e+07,14.433,640.53,1
2054,2.24,12506,1,12506,1,0.0002489,4.5914e-10,0,0.00034856,-4.5599e-05,1.2207e+07,69.677,0,5.2792e+07,-11.966,12505,13656,1,13656,1,0.00081953,1.9959e-09,0,0.00081953,6.0681e-05,6.5793e+07,302.8,0,1.3083e+08,31.505,13655,12505,1,12505,1,0.0002489,3.4016e-10,0,0.00029673,-4.556e-05,4.1101e+07,59.143,0,5.3865e+07,-9.946,12504,11321,1,11321,1,-0.00032173,-1.0101e-09,0,2.1755e-06,-0.00015199,-1.3083e+08,-148.35,0,1.7694e+06,-44.867,11320,11952,1,11952,1,-4.7826e-05,-2.1718e-11,0,0.00013913,-0.00010078,-1.9404e+07,-2.9322,0,3.7978e+07,-24.444,11951,13059,1,13059,1,0.00054563,1.0253e-09,0,0.00054563,9.6507e-06,5.5456e+07,153.59,0,6.0687e+07,-2.2258,13058,640.53,0,640.53,0,0.00034246,6.8638e-10,0,0.00024022,6.3758e-05,5.8522e+07,102.29,0,2.8026e+07,14.75,640.53,1
2054,2.25,12506,1,12506,1,0.00025001,1.9927e-10,0,0.00035012,-4.5803e-05,1.2261e+07,28.517,0,5.3028e+07,-13.796,12505,13656,1,13656,1,0.0008232,1.6426e-09,0,0.0008232,6.0952e-05,6.6087e+07,246.22,0,1.3142e+08,24.321,13655,12505,1,12505,1,0.00025001,1.3633e-10,0,0.00029805,-4.5764e-05,4.1285e+07,22.901,0,5.4106e+07,-10.849,12504,11321,1,11321,1,-0.00032317,-1.4268e-09,0,2.1852e-06,-0.00015267,-1.3142e+08,-209.78,0,1.7774e+06,-44.934,11320,11952,1,11952,1,-4.804e-05,-2.0634e-10,0,0.00013975,-0.00010124,-1.9491e+07,-34.009,0,3.8148e+07,-24.789,11951,13059,1,13059,1,0.00054807,7.2775e-10,0,0.00054807,9.6938e-06,5.5704e+07,108.07,0,6.0959e+07,-4.2657,13058,640.53,0,640.53,0,0.00034399,6.7426e-10,0,0.00024129,6.4043e-05,5.8783e+07,100.55,0,2.8152e+07,13.119,640.53,1
2054,2.26,12506,1,12506,1,0.00025112,3.668e-10,0,0.00035167,-4.6006e-05,1.2316e+07,55.563,0,5.3263e+07,-10.28,12505,13656,1,13656,1,0.00082685,1.6919e-09,0,0.00082685,6.1222e-05,6.638e+07,255.42,0,1.32e+08,32.017,13655,12505,1,12505,1,0.00025112,2.7585e-10,0,0.00029937,-4.5967e-05,4.1468e+07,48.592,0,5.4346e+07,-9.1506,12504,11321,1,11321,1,-0.0003246,-1.0113e-09,0,2.195e-06,-0.00015335,-1.32e+08,-147.11,0,1.7852e+06,-43.909,11320,11952,1,11952,1,-4.8253e-05,-3.555e-11,0,0.00014037,-0.00010168,-1.9577e+07,-4.3757,0,3.8317e+07,-22.325,11951,13059,1,13059,1,0.0005505,8.4077e-10,0,0.0005505,9.7368e-06,5.5951e+07,126.51,0,6.1229e+07,-1.9236,13058,640.53,0,640.53,0,0.00034552,6.0311e-10,0,0.00024236,6.4327e-05,5.9044e+07,90.074,0,2.8276e+07,14.797,640.53,1
2054,2.27,12506,1,12506,1,0.00025224,-4.0798e-11,0,0.00035324,-4.6211e-05,1.237e+07,-7.772,0,5.35e+07,-6.8281,12505,13656,1,13656,1,0.00083052,5.2395e-10,0,0.00083052,6.1494e-05,6.6675e+07,73.846,0,1.3259e+08,3.6399,13655,12505,1,12505,1,0.00025224,-1.9813e-11,0,0.0003007,-4.6171e-05,4.1653e+07,-2.5889,0,5.4587e+07,-6.6667,12504,11321,1,11321,1,-0.00032604,-6.8556e-10,0,2.2047e-06,-0.00015403,-1.3259e+08,-102.58,0,1.7931e+06,-17.339,11320,11952,1,11952,1,-4.8467e-05,-1.8287e-10,0,0.00014099,-0.00010214,-1.9664e+07,-30.705,0,3.8487e+07,-9.3824,11951,13059,1,13059,1,0.00055294,1.1035e-10,0,0.00055294,9.7801e-06,5.62e+07,16.661,0,6.1501e+07,-4.0887,13058,640.53,0,640.53,0,0.00034705,2.4455e-10,0,0.00024344,6.4612e-05,5.9306e+07,36.488,0,2.8402e+07,3.3001,640.53,1
2054,2.28,12506,1,12506,1,0.00025334,-1.522e-10,0,0.00035478,-4.6413e-05,1.2424e+07,-24.897,0,5.3734e+07,-3.6014,12505,13656,1,13656,1,0.00083416,1.1552e-10,0,0.00083416,6.1763e-05,6.6967e+07,17.112,0,1.3317e+08,4.5988,13655,12505,1,12505,1,0.00025334,-1.3744e-10,0,0.00030202,-4.6374e-05,4.1835e+07,-25.897,0,5.4827e+07,-1.6645,12504,11321,1,11321,1,-0.00032747,-3.457e-10,0,2.2143e-06,-0.00015471,-1.3317e+08,-55.426,0,1.801e+06,-20.265,11320,11952,1,11952,1,-4.868e-05,-2.4844e-10,0,0.00014161,-0.00010258,-1.9751e+07,-39.165,0,3.8656e+07,-5.7477,11951,13059,1,13059,1,0.00055537,-7.6121e-11,0,0.00055537,9.823e-06,5.6446e+07,-12.176,0,6.177e+07,-0.42168,13058,640.53,0,640.53,0,0.00034857,9.8753e-11,0,0.00024451,6.4896e-05,5.9566e+07,15.786,0,2.8526e+07,4.6868,640.53,1
2054,2.29,12506,1,12506,1,0.00025446,-7.311e-11,0,0.00035635,-4.6617e-05,1.2479e+07,-12.601,0,5.3971e+07,-6.5476,12505,13656,1,13656,1,0.00083783,5.7179e-10,0,0.00083783,6.2035e-05,6.7262e+07,81.178,0,1.3375e+08,4.2408,13655,12505,1,12505,1,0.00025446,-7.9705e-11,0,0.00030335,-4.6578e-05,4.2019e+07,-13.729,0,5.5068e+07,-4.8157,12504,11321,1,11321,1,-0.00032891,-4.7528e-10,0,2.2241e-06,-0.00015539,-1.3375e+08,-71.453,0,1.8089e+06,-26.277,11320,11952,1,11952,1,-4.8894e-05,-2.1466e-10,0,0.00014223,-0.00010303,-1.9837e+07,-35.181,0,3.8826e+07,-9.5556,11951,13059,1,13059,1,0.00055781,3.51e-11,0,0.00055781,9.8662e-06,5.6694e+07,5.1204,0,6.2042e+07,-2.0915,13058,640.53,0,640.53,0,0.00035011,2.0709e-10,0,0.00024558,6.5181e-05,5.9828e+07,30.547,0,2.8652e+07,5.7036,640.53,1
2054,2.3,12506,1,12506,1,0.00025557,4.178e-10,0,0.0003579,-4.6821e-05,1.2533e+07,63.428,0,5.4206e+07,-11.774,12505,13656,1,13656,1,0.00084148,1.9694e-09,0,0.00084148,6.2306e-05,6.7555e+07,298.39,0,1.3434e+08,33.171,13655,12505,1,12505,1,0.00025557,3.0521e-10,0,0.00030467,-4.678e-05,4.2202e+07,52.939,0,5.5308e+07,-10.338,12504,11321,1,11321,1,-0.00033035,-1.1265e-09,0,2.2338e-06,-0.00015607,-1.3434e+08,-163.95,0,1.8168e+06,-48.466,11320,11952,1,11952,1,-4.9107e-05,-4.584e-11,0,0.00014285,-0.00010348,-1.9924e+07,-6.1748,0,3.8995e+07,-24.51,11951,13059,1,13059,1,0.00056024,9.8784e-10,0,0.00056024,9.9092e-06,5.6941e+07,147.26,0,6.2313e+07,-1.0631,13058,640.53,0,640.53,0,0.00035163,6.9944e-10,0,0.00024665,6.5465e-05,6.0089e+07,104.38,0,2.8777e+07,15.927,640.53,1
2054,2.31,12506,1,12506,1,0.00025668,-2.84e-14,0,0.00035946,-4.7024e-05,1.2588e+07,-0.63713,0,5.4442e+07,-1.1748,12505,13656,1,13656,1,0.00084514,4.3368e-10,0,0.00084514,6.2577e-05,6.7849e+07,63.639,0,1.3492e+08,26.987,13655,12505,1,12505,1,0.00025668,-3.0997e-12,0,0.000306,-4.6984e-05,4.2386e+07,-0.47131,0,5.5548e+07,0.77886,12504,11321,1,11321,1,-0.00033178,-3.4437e-10,0,2.2435e-06,-0.00015674,-1.3492e+08,-56.799,0,1.8247e+06,-35.326,11320,11952,1,11952,1,-4.9321e-05,-1.0538e-10,0,0.00014347,-0.00010393,-2.0011e+07,-18.036,0,3.9165e+07,-8.7459,11951,13059,1,13059,1,0.00056268,1.0059e-10,0,0.00056268,9.9524e-06,5.7189e+07,15.034,0,6.2584e+07,6.5444,13058,640.53,0,640.53,0,0.00035316,1.6523e-10,0,0.00024773,6.575e-05,6.035e+07,25.428,0,2.8902e+07,11.737,640.53,1
2054,2.32,12506,1,12506,1,0.00025779,5.0056e-10,0,0.00036101,-4.7228e-05,1.2642e+07,76.48,0,5.4677e+07,-11.762,12505,13656,1,13656,1,0.0008488,1.9586e-09,0,0.0008488,6.2848e-05,6.8143e+07,295.36,0,1.3551e+08,28.708,13655,12505,1,12505,1,0.00025779,3.818e-10,0,0.00030732,-4.7187e-05,4.2569e+07,64.745,0,5.5789e+07,-9.7824,12504,11321,1,11321,1,-0.00033322,-8.5596e-10,0,2.2532e-06,-0.00015742,-1.3551e+08,-122.72,0,1.8326e+06,-43.277,11320,11952,1,11952,1,-4.9534e-05,2.2365e-11,0,0.0001441,-0.00010438,-2.0097e+07,2.6478,0,3.9334e+07,-22.779,11951,13059,1,13059,1,0.00056511,1.0336e-09,0,0.00056511,9.9954e-06,5.7437e+07,153.74,0,6.2855e+07,-3.437,13058,640.53,0,640.53,0,0.00035469,6.4421e-10,0,0.0002488,6.6035e-05,6.0611e+07,95.683,0,2.9027e+07,13.41,640.53,1
2054,2.33,12506,1,12506,1,0.0002589,2.34e-10,0,0.00036257,-4.7431e-05,1.2697e+07,34.542,0,5.4913e+07,-13.505,12505,13656,1,13656,1,0.00085246,1.5907e-09,0,0.00085246,6.3118e-05,6.8436e+07,241.06,0,1.3609e+08,21.574,13655,12505,1,12505,1,0.0002589,1.7799e-10,0,0.00030865,-4.7391e-05,4.2753e+07,28.799,0,5.6029e+07,-10.663,12504,11321,1,11321,1,-0.00033466,-1.3142e-09,0,2.2628e-06,-0.0001581,-1.3609e+08,-192.7,0,1.8405e+06,-43.389,11320,11952,1,11952,1,-4.9747e-05,-1.48e-10,0,0.00014472,-0.00010483,-2.0184e+07,-24.379,0,3.9504e+07,-24.666,11951,13059,1,13059,1,0.00056755,7.44e-10,0,0.00056755,1.0038e-05,5.7684e+07,111.27,0,6.3126e+07,-4.0645,13058,640.53,0,640.53,0,0.00035622,6.3642e-10,0,0.00024987,6.6319e-05,6.0873e+07,95.121,0,2.9152e+07,13.232,640.53,1
2054,2.34,12506,1,12506,1,0.00026001,3.6068e-10,0,0.00036412,-4.7635e-05,1.2751e+07,54.731,0,5.5149e+07,-11.943,12505,13656,1,13656,1,0.00085612,1.6716e-09,0,0.00085612,6.3389e-05,6.873e+07,250.03,0,1.3667e+08,19.354,13655,12505,1,12505,1,0.00026001,2.5738e-10,0,0.00030997,-4.7594e-05,4.2936e+07,44.624,0,5.627e+07,-9.7826,12504,11321,1,11321,1,-0.00033609,-9.0326e-10,0,2.2726e-06,-0.00015878,-1.3667e+08,-130.17,0,1.8484e+06,-37.221,11320,11952,1,11952,1,-4.9961e-05,-3.5461e-11,0,0.00014534,-0.00010528,-2.027e+07,-5.5196,0,3.9673e+07,-20.281,11951,13059,1,13059,1,0.00056999,8.2916e-10,0,0.00056999,1.0082e-05,5.7932e+07,126.2,0,6.3397e+07,-4.4866,13058,640.53,0,640.53,0,0.00035775,5.888e-10,0,0.00025094,6.6604e-05,6.1134e+07,87.298,0,2.9277e+07,10.392,640.53,1
2054,2.35,12506,1,12506,1,0.00026112,4.9984e-10,0,0.00036568,-4.7838e-05,1.2806e+07,75.932,0,5.5384e+07,-12.863,12505,13656,1,13656,1,0.00085978,2.0951e-09,0,0.00085978,6.366e-05,6.9024e+07,315.75,0,1.3726e+08,36.5,13655,12505,1,12505,1,0.00026112,3.7533e-10,0,0.0003113,-4.7797e-05,4.312e+07,65.026,0,5.651e+07,-10.862,12504,11321,1,11321,1,-0.00033753,-1.0335e-09,0,2.2823e-06,-0.00015946,-1.3726e+08,-151.53,0,1.8563e+06,-49.749,11320,11952,1,11952,1,-5.0174e-05,-2.4835e-12,0,0.00014596,-0.00010573,-2.0357e+07,-0.45782,0,3.9843e+07,-26.042,11951,13059,1,13059,1,0.00057242,1.0726e-09,0,0.00057242,1.0125e-05,5.8179e+07,160.66,0,6.3667e+07,-3.3222,13058,640.53,0,640.53,0,0.00035928,7.0677e-10,0,0.00025202,6.6888e-05,6.1395e+07,105.12,0,2.9402e+07,16.09,640.53,1
2054,2.36,12506,1,12506,1,0.00026224,8.4393e-11,0,0.00036724,-4.8042e-05,1.2861e+07,11.982,0,5.5621e+07,-4.4163,12505,13656,1,13656,1,0.00086344,7.0985e-10,0,0.00086344,6.3931e-05,6.9318e+07,102.22,0,1.3784e+08,4.3077,13655,12505,1,12505,1,0.00026224,3.0066e-11,0,0.00031262,-4.8001e-05,4.3304e+07,4.6937,0,5.6751e+07,-2.6214,12504,11321,1,11321,1,-0.00033897,-2.2215e-10,0,2.2921e-06,-0.00016014,-1.3784e+08,-34.408,0,1.8642e+06,-24.251,11320,11952,1,11952,1,-5.0388e-05,-2.7175e-11,0,0.00014658,-0.00010618,-2.0444e+07,-3.5009,0,4.0013e+07,-7.1091,11951,13059,1,13059,1,0.00057486,1.3946e-10,0,0.00057486,1.0168e-05,5.8427e+07,22.182,0,6.3939e+07,-0.48437,13058,640.53,0,640.53,0,0.00036081,1.6919e-10,0,0.00025309,6.7174e-05,6.1657e+07,24.118,0,2.9528e+07,5.2833,640.53,1
2054,2.37,12506,1,12506,1,0.00026334,-3.1602e-11,0,0.00036879,-4.8245e-05,1.2915e+07,-5.6718,0,5.5855e+07,-3.7081,12505,13656,1,13656,1,0.00086708,2.622e-10,0,0.00086708,6.4201e-05,6.961e+07,39.594,0,1.3842e+08,5.59,13655,12505,1,12505,1,0.00026334,-4.3435e-11,0,0.00031394,-4.8204e-05,4.3486e+07,-7.279,0,5.699e+07,-2.7503,12504,11321,1,11321,1,-0.00034039,-1.3583e-10,0,2.3017e-06,-0.00016081,-1.3842e+08,-23.414,0,1.8721e+06,-18.568,11320,11952,1,11952,1,-5.0601e-05,-7.3215e-11,0,0.0001472,-0.00010663,-2.053e+07,-12.398,0,4.0181e+07,-6.3358,11951,13059,1,13059,1,0.00057728,-1.3065e-11,0,0.00057728,1.0211e-05,5.8674e+07,-1.668,0,6.4208e+07,-0.27556,13058,640.53,0,640.53,0,0.00036233,6.9277e-11,0,0.00025416,6.7457e-05,6.1917e+07,10.168,0,2.9652e+07,4.5252,640.53,1
2054,2.38,12506,1,12506,1,0.00026446,3.4124e-10,0,0.00037035,-4.8449e-05,1.2969e+07,50.297,0,5.6092e+07,-15.007,12505,13656,1,13656,1,0.00087075,1.873e-09,0,0.00087075,6.4473e-05,6.9905e+07,279.31,0,1.3901e+08,31.498,13655,12505,1,12505,1,0.00026446,2.4909e-10,0,0.00031527,-4.8408e-05,4.367e+07,42.211,0,5.7232e+07,-12.594,12504,11321,1,11321,1,-0.00034184,-1.2826e-09,0,2.3112e-06,-0.00016149,-1.3901e+08,-192.18,0,1.8799e+06,-50.423,11320,11952,1,11952,1,-5.0815e-05,-1.0312e-10,0,0.00014782,-0.00010708,-2.0617e+07,-16.763,0,4.0351e+07,-27.908,11951,13059,1,13059,1,0.00057973,9.0505e-10,0,0.00057973,1.0254e-05,5.8922e+07,133.68,0,6.448e+07,-4.7596,13058,640.53,0,640.53,0,0.00036386,6.944e-10,0,0.00025523,6.7742e-05,6.2179e+07,103.53,0,2.9778e+07,15.554,640.53,1
2054,2.39,12506,1,12506,1,0.00026557,5.9962e-10,0,0.00037191,-4.8653e-05,1.3024e+07,92.491,0,5.6328e+07,-14.086,12505,13656,1,13656,1,0.00087442,2.3189e-09,0,0.00087442,6.4744e-05,7.0199e+07,352.57,0,1.3959e+08,30.416,13655,12505,1,12505,1,0.00026557,4.6507e-10,0,0.0003166,-4.8611e-05,4.3854e+07,80.248,0,5.7472e+07,-11.68,12504,11321,1,11321,1,-0.00034328,-1.0999e-09,0,2.3212e-06,-0.00016217,-1.3959e+08,-156.71,0,1.8879e+06,-49.842,11320,11952,1,11952,1,-5.1029e-05,3.6039e-11,0,0.00014844,-0.00010753,-2.0704e+07,4.5215,0,4.0521e+07,-27.598,11951,13059,1,13059,1,0.00058217,1.2499e-09,0,0.00058217,1.0297e-05,5.917e+07,187.08,0,6.4752e+07,-3.7014,13058,640.53,0,640.53,0,0.00036539,7.8096e-10,0,0.00025631,6.8027e-05,6.2441e+07,116.46,0,2.9903e+07,16.153,640.53,1
2054,2.4,12506,1,12506,1,0.00026668,3.1222e-10,0,0.00037346,-4.8856e-05,1.3078e+07,47.195,0,5.6563e+07,-12.399,12505,13656,1,13656,1,0.00087807,1.6165e-09,0,0.00087807,6.5015e-05,7.0492e+07,242.79,0,1.4018e+08,23.911,13655,12505,1,12505,1,0.00026668,2.4197e-10,0,0.00031792,-4.8815e-05,4.4037e+07,41.086,0,5.7712e+07,-10.076,12504,11321,1,11321,1,-0.00034471,-1.1906e-09,0,2.3309e-06,-0.00016285,-1.4018e+08,-172.43,0,1.8958e+06,-40.717,11320,11952,1,11952,1,-5.1242e-05,-5.9752e-11,0,0.00014906,-0.00010798,-2.079e+07,-8.7394,0,4.0691e+07,-22.969,11951,13059,1,13059,1,0.0005846,8.1696e-10,0,0.0005846,1.034e-05,5.9417e+07,120.51,0,6.5022e+07,-4.1225,13058,640.53,0,640.53,0,0.00036692,6.1073e-10,0,0.00025738,6.8312e-05,6.2701e+07,90.941,0,3.0028e+07,13.081,640.53,1
2054,2.41,12506,1,12506,1,0.00026779,3.149e-10,0,0.00037502,-4.906e-05,1.3133e+07,47.954,0,5.6799e+07,-11.695,12505,13656,1,13656,1,0.00088173,1.6245e-09,0,0.00088173,6.5286e-05,7.0786e+07,246.59,0,1.4076e+08,21.715,13655,12505,1,12505,1,0.00026779,2.3409e-10,0,0.00031924,-4.9018e-05,4.4221e+07,40.866,0,5.7953e+07,-9.73,12504,11321,1,11321,1,-0.00034615,-1.103e-09,0,2.3406e-06,-0.00016353,-1.4076e+08,-159.08,0,1.9037e+06,-38.287,11320,11952,1,11952,1,-5.1455e-05,-6.3742e-11,0,0.00014969,-0.00010843,-2.0877e+07,-8.1362,0,4.086e+07,-22.408,11951,13059,1,13059,1,0.00058704,8.0553e-10,0,0.00058704,1.0383e-05,5.9665e+07,120.78,0,6.5293e+07,-3.0438,13058,640.53,0,640.53,0,0.00036845,6.0811e-10,0,0.00025845,6.8596e-05,6.2963e+07,90.773,0,3.0153e+07,12.735,640.53,1
2054,2.42,12506,1,12506,1,0.0002689,1.8738e-10,0,0.00037657,-4.9263e-05,1.3187e+07,27.622,0,5.7034e+07,-11.026,12505,13656,1,13656,1,0.00088538,1.1631e-09,0,0.00088538,6.5556e-05,7.1079e+07,172.99,0,1.4134e+08,17.625,13655,12505,1,12505,1,0.0002689,1.4439e-10,0,0.00032057,-4.9221e-05,4.4404e+07,23.538,0,5.8193e+07,-9.0606,12504,11321,1,11321,1,-0.00034758,-9.4576e-10,0,2.3502e-06,-0.00016421,-1.4134e+08,-138.57,0,1.9116e+06,-33.972,11320,11952,1,11952,1,-5.1669e-05,-9.1489e-11,0,0.00015031,-0.00010888,-2.0963e+07,-14.516,0,4.1029e+07,-19.613,11951,13059,1,13059,1,0.00058947,5.5745e-10,0,0.00058947,1.0426e-05,5.9912e+07,82.878,0,6.5564e+07,-4.2092,13058,640.53,0,640.53,0,0.00036998,4.6016e-10,0,0.00025952,6.8881e-05,6.3224e+07,68.795,0,3.0278e+07,10.144,640.53,1
2054,2.43,12506,1,12506,1,0.00027001,3.1777e-10,0,0.00037813,-4.9467e-05,1.3242e+07,47.34,0,5.727e+07,-12.878,12505,13656,1,13656,1,0.00088905,1.7358e-09,0,0.00088905,6.5827e-05,7.1374e+07,260.53,0,1.4193e+08,23.151,13655,12505,1,12505,1,0.00027001,2.2518e-10,0,0.00032189,-4.9425e-05,4.4588e+07,37.197,0,5.8434e+07,-9.8964,12504,11321,1,11321,1,-0.00034902,-1.1437e-09,0,2.36e-06,-0.00016489,-1.4193e+08,-167.9,0,1.9195e+06,-42.996,11320,11952,1,11952,1,-5.1883e-05,-1.0034e-10,0,0.00015093,-0.00010933,-2.105e+07,-15.374,0,4.1199e+07,-23.013,11951,13059,1,13059,1,0.00059191,8.3506e-10,0,0.00059191,1.0469e-05,6.016e+07,124.12,0,6.5835e+07,-4.2042,13058,640.53,0,640.53,0,0.00037151,6.4476e-10,0,0.0002606,6.9166e-05,6.3485e+07,95.925,0,3.0404e+07,12.152,640.53,1
2054,2.44,12506,1,12506,1,0.00027113,2.7168e-10,0,0.00037969,-4.9671e-05,1.3297e+07,40.213,0,5.7506e+07,-16.076,12505,13656,1,13656,1,0.00089271,1.8747e-09,0,0.00089271,6.6099e-05,7.1668e+07,284,0,1.4251e+08,25.719,13655,12505,1,12505,1,0.00027112,2.085e-10,0,0.00032322,-4.9628e-05,4.4771e+07,34.359,0,5.8675e+07,-12.76,12504,11321,1,11321,1,-0.00035046,-1.6142e-09,0,2.3696e-06,-0.00016557,-1.4251e+08,-236.22,0,1.9274e+06,-51.183,11320,11952,1,11952,1,-5.2096e-05,-1.8138e-10,0,0.00015155,-0.00010978,-2.1137e+07,-29.132,0,4.1369e+07,-29.615,11951,13059,1,13059,1,0.00059435,8.8393e-10,0,0.00059435,1.0512e-05,6.0408e+07,131.18,0,6.6106e+07,-4.5746,13058,640.53,0,640.53,0,0.00037304,7.6198e-10,0,0.00026167,6.9451e-05,6.3747e+07,113.83,0,3.0529e+07,15.793,640.53,1
2054,2.45,12506,1,12506,1,0.00027223,3.8713e-10,0,0.00038124,-4.9874e-05,1.3351e+07,58.891,0,5.7741e+07,-10.935,12505,13656,1,13656,1,0.00089636,1.7324e-09,0,0.00089636,6.6369e-05,7.1961e+07,261.33,0,1.431e+08,22.358,13655,12505,1,12505,1,0.00027223,2.7417e-10,0,0.00032454,-4.9831e-05,4.4954e+07,46.565,0,5.8915e+07,-8.8472,12504,11321,1,11321,1,-0.00035189,-8.4122e-10,0,2.3795e-06,-0.00016624,-1.431e+08,-121.95,0,1.9353e+06,-39.56,11320,11952,1,11952,1,-5.2309e-05,-2.4211e-11,0,0.00015217,-0.00011023,-2.1223e+07,-3.1575,0,4.1538e+07,-19.357,11951,13059,1,13059,1,0.00059678,8.6495e-10,0,0.00059678,1.0555e-05,6.0655e+07,131,0,6.6376e+07,-2.9762,13058,640.53,0,640.53,0,0.00037456,5.9602e-10,0,0.00026274,6.9734e-05,6.4007e+07,88.448,0,3.0654e+07,11.245,640.53,1
2054,2.46,12506,1,12506,1,0.00027335,4.3195e-10,0,0.0003828,-5.0078e-05,1.3405e+07,65.6,0,5.7977e+07,-11.797,12505,13656,1,13656,1,0.00090002,1.8828e-09,0,0.00090002,6.664e-05,7.2255e+07,283.41,0,1.4368e+08,27.827,13655,12505,1,12505,1,0.00027334,3.2527e-10,0,0.00032587,-5.0035e-05,4.5138e+07,56.487,0,5.9155e+07,-9.5482,12504,11321,1,11321,1,-0.00035333,-9.9555e-10,0,2.3892e-06,-0.00016692,-1.4368e+08,-144.2,0,1.9432e+06,-41.742,11320,11952,1,11952,1,-5.2523e-05,-1.7653e-11,0,0.00015279,-0.00011068,-2.131e+07,-2.1279,0,4.1708e+07,-22.988,11951,13059,1,13059,1,0.00059922,9.6546e-10,0,0.00059922,1.0599e-05,6.0903e+07,143.85,0,6.6648e+07,-3.2552,13058,640.53,0,640.53,0,0.00037609,6.4809e-10,0,0.00026381,7.0019e-05,6.4269e+07,96.368,0,3.0779e+07,13.348,640.53,1
2054,2.47,12506,1,12506,1,0.00027446,3.9935e-10,0,0.00038435,-5.0282e-05,1.346e+07,60.744,0,5.8213e+07,-12.857,12505,13656,1,13656,1,0.00090368,2.0467e-09,0,0.00090368,6.6911e-05,7.2549e+07,311.17,0,1.4427e+08,26.862,13655,12505,1,12505,1,0.00027446,2.9907e-10,0,0.00032719,-5.0238e-05,4.5322e+07,51.048,0,5.9396e+07,-11.952,12504,11321,1,11321,1,-0.00035476,-1.3351e-09,0,2.3989e-06,-0.0001676,-1.4427e+08,-193.96,0,1.9511e+06,-43.786,11320,11952,1,11952,1,-5.2737e-05,-8.0542e-11,0,0.00015341,-0.00011113,-2.1397e+07,-10.488,0,4.1877e+07,-26.124,11951,13059,1,13059,1,0.00060165,1.0125e-09,0,0.00060165,1.0642e-05,6.115e+07,151.35,0,6.6919e+07,-1.3318,13058,640.53,0,640.53,0,0.00037762,7.566e-10,0,0.00026489,7.0304e-05,6.453e+07,112.99,0,3.0904e+07,15.896,640.53,1
2054,2.48,12506,1,12506,1,0.00027557,1.481e-10,0,0.00038591,-5.0485e-05,1.3514e+07,20.964,0,5.8448e+07,-11.55,12505,13656,1,13656,1,0.00090733,1.3575e-09,0,0.00090733,6.7182e-05,7.2842e+07,203.74,0,1.4485e+08,19.97,13655,12505,1,12505,1,0.00027557,9.9191e-11,0,0.00032852,-5.0442e-05,4.5505e+07,16.258,0,5.9636e+07,-9.3432,12504,11321,1,11321,1,-0.0003562,-1.1984e-09,0,2.4086e-06,-0.00016828,-1.4485e+08,-177.7,0,1.959e+06,-39.721,11320,11952,1,11952,1,-5.295e-05,-1.9351e-10,0,0.00015403,-0.00011158,-2.1483e+07,-32.677,0,4.2047e+07,-20.371,11951,13059,1,13059,1,0.00060409,5.933e-10,0,0.00060409,1.0685e-05,6.1398e+07,87.799,0,6.7189e+07,-3.103,13058,640.53,0,640.53,0,0.00037915,5.6712e-10,0,0.00026596,7.0588e-05,6.4791e+07,84.7,0,3.1029e+07,11.307,640.53,1
2054,2.49,12506,1,12506,1,0.00027668,2.2035e-10,0,0.00038747,-5.0689e-05,1.3569e+07,32.245,0,5.8684e+07,-14.331,12505,13656,1,13656,1,0.000911,1.626e-09,0,0.000911,6.7453e-05,7.3136e+07,245.84,0,1.4543e+08,20.404,13655,12505,1,12505,1,0.00027668,1.5553e-10,0,0.00032984,-5.0645e-05,4.5689e+07,25.69,0,5.9877e+07,-11.188,12504,11321,1,11321,1,-0.00035764,-1.3058e-09,0,2.4182e-06,-0.00016896,-1.4543e+08,-193.63,0,1.9669e+06,-47.457,11320,11952,1,11952,1,-5.3163e-05,-1.8625e-10,0,0.00015465,-0.00011203,-2.157e+07,-29.285,0,4.2216e+07,-24.846,11951,13059,1,13059,1,0.00060652,7.3759e-10,0,0.00060652,1.0728e-05,6.1645e+07,109.99,0,6.746e+07,-4.782,13058,640.53,0,640.53,0,0.00038068,6.5666e-10,0,0.00026703,7.0873e-05,6.5053e+07,97.979,0,3.1154e+07,12.728,640.53,1
2054,2.5,12506,1,12506,1,0.00027779,7.5555e-11,0,0.00038902,-5.0892e-05,1.3623e+07,10.319,0,5.892e+07,-5.3908,12505,13656,1,13656,1,0.00091466,5.7048e-10,0,0.00091466,6.7724e-05,7.343e+07,80.396,0,1.4602e+08,5.0559,13655,12505,1,12505,1,0.00027779,4.6941e-11,0,0.00033117,-5.0849e-05,4.5873e+07,7.169,0,6.0118e+07,-5.0507,12504,11321,1,11321,1,-0.00035907,-4.0189e-10,0,2.4281e-06,-0.00016964,-1.4602e+08,-63.408,0,1.9748e+06,-16.842,11320,11952,1,11952,1,-5.3377e-05,-4.7113e-11,0,0.00015528,-0.00011248,-2.1657e+07,-7.5344,0,4.2386e+07,-7.5851,11951,13059,1,13059,1,0.00060896,2.0943e-10,0,0.00060896,1.0771e-05,6.1893e+07,30.449,0,6.7732e+07,-2.8167,13058,640.53,0,640.53,0,0.00038221,1.93e-10,0,0.0002681,7.1159e-05,6.5315e+07,28.022,0,3.128e+07,3.5242,640.53,1
2054,2.51,12506,1,12506,1,0.0002789,-3.5648e-11,0,0.00039058,-5.1096e-05,1.3678e+07,-7.3117,0,5.9155e+07,-5.766,12505,13656,1,13656,1,0.00091831,5.3994e-10,0,0.00091831,6.7994e-05,7.3723e+07,76.096,0,1.466e+08,7.684,13655,12505,1,12505,1,0.0002789,-6.8797e-11,0,0.00033249,-5.1052e-05,4.6056e+07,-11.538,0,6.0358e+07,-4.4524,12504,11321,1,11321,1,-0.00036051,-2.4592e-10,0,2.4377e-06,-0.00017031,-1.466e+08,-42.94,0,1.9827e+06,-26.385,11320,11952,1,11952,1,-5.3591e-05,-1.556e-10,0,0.0001559,-0.00011293,-2.1743e+07,-25.346,0,4.2556e+07,-10.266,11951,13059,1,13059,1,0.0006114,2.7009e-11,0,0.0006114,1.0814e-05,6.2141e+07,3.9893,0,6.8002e+07,-0.59938,13058,640.53,0,640.53,0,0.00038374,1.5966e-10,0,0.00026917,7.1443e-05,6.5575e+07,23.461,0,3.1404e+07,6.3429,640.53,1
2054,2.52,12506,1,12506,1,0.00028001,4.6975e-10,0,0.00039213,-5.1299e-05,1.3732e+07,71.755,0,5.9391e+07,-13.985,12505,13656,1,13656,1,0.00092197,2.0299e-09,0,0.00092197,6.8265e-05,7.4017e+07,308.85,0,1.4719e+08,28.665,13655,12505,1,12505,1,0.00028001,3.5525e-10,0,0.00033382,-5.1255e-05,4.6239e+07,61.336,0,6.0598e+07,-12.241,12504,11321,1,11321,1,-0.00036194,-1.0736e-09,0,2.4473e-06,-0.00017099,-1.4719e+08,-157.43,0,1.9906e+06,-46.86,11320,11952,1,11952,1,-5.3804e-05,-1.3948e-11,0,0.00015652,-0.00011338,-2.183e+07,-1.6653,0,4.2725e+07,-26.889,11951,13059,1,13059,1,0.00061383,1.052e-09,0,0.00061383,1.0857e-05,6.2388e+07,157.92,0,6.8273e+07,-3.594,13058,640.53,0,640.53,0,0.00038527,7.0727e-10,0,0.00027025,7.1727e-05,6.5836e+07,105.57,0,3.1529e+07,15.345,640.53,1
2054,2.53,12506,1,12506,1,0.00028112,2.466e-10,0,0.00039369,-5.1503e-05,1.3787e+07,38.836,0,5.9627e+07,-4.7376,12505,13656,1,13656,1,0.00092563,1.0581e-09,0,0.00092563,6.8536e-05,7.4311e+07,158.13,0,1.4777e+08,6.3503,13655,12505,1,12505,1,0.00028112,1.9142e-10,0,0.00033514,-5.1459e-05,4.6423e+07,32.458,0,6.0839e+07,-2.1868,12504,11321,1,11321,1,-0.00036338,1.0242e-11,0,2.4571e-06,-0.00017167,-1.4777e+08,0.70288,0,1.9985e+06,-27.509,11320,11952,1,11952,1,-5.4018e-05,1.0754e-10,0,0.00015714,-0.00011383,-2.1916e+07,18.533,0,4.2895e+07,-6.5643,11951,13059,1,13059,1,0.00061627,2.8682e-10,0,0.00061627,1.09e-05,6.2636e+07,47.684,0,6.8544e+07,-0.78648,13058,640.53,0,640.53,0,0.0003868,2.0137e-10,0,0.00027132,7.2012e-05,6.6098e+07,29.695,0,3.1655e+07,6.0798,640.53,1
2054,2.54,12506,1,12506,1,0.00028224,3.8603e-10,0,0.00039525,-5.1706e-05,1.3841e+07,58.365,0,5.9863e+07,-14.785,12505,13656,1,13656,1,0.00092929,2.0566e-09,0,0.00092929,6.8807e-05,7.4605e+07,312.06,0,1.4836e+08,25.237,13655,12505,1,12505,1,0.00028224,2.6955e-10,0,0.00033647,-5.1662e-05,4.6606e+07,46.119,0,6.1079e+07,-11.601,12504,11321,1,11321,1,-0.00036482,-1.2882e-09,0,2.4668e-06,-0.00017235,-1.4836e+08,-187.3,0,2.0064e+06,-49.858,11320,11952,1,11952,1,-5.4231e-05,-1.0859e-10,0,0.00015776,-0.00011428,-2.2003e+07,-14.817,0,4.3064e+07,-26.497,11951,13059,1,13059,1,0.0006187,9.9712e-10,0,0.0006187,1.0943e-05,6.2883e+07,149.5,0,6.8815e+07,-3.9192,13058,640.53,0,640.53,0,0.00038833,7.6058e-10,0,0.00027239,7.2297e-05,6.6359e+07,113.31,0,3.178e+07,14.427,640.53,1
2054,2.55,12506,1,12506,1,0.00028335,1.1695e-10,0,0.0003968,-5.191e-05,1.3896e+07,17.467,0,6.0099e+07,-9.3928,12505,13656,1,13656,1,0.00093295,7.8429e-10,0,0.00093295,6.9078e-05,7.4898e+07,114.51,0,1.4894e+08,1.7316,13655,12505,1,12505,1,0.00028335,6.3896e-11,0,0.00033779,-5.1866e-05,4.679e+07,10.948,0,6.132e+07,-7.58,12504,11321,1,11321,1,-0.00036625,-1.799e-10,0,2.4762e-06,-0.00017303,-1.4894e+08,-27.862,0,2.0142e+06,-32.171,11320,11952,1,11952,1,-5.4445e-05,7.7324e-12,0,0.00015838,-0.00011473,-2.209e+07,0.78186,0,4.3234e+07,-13.253,11951,13059,1,13059,1,0.00062114,1.6348e-10,0,0.00062114,1.0986e-05,6.3131e+07,26.444,0,6.9086e+07,-4.182,13058,640.53,0,640.53,0,0.00038986,1.7108e-10,0,0.00027347,7.2582e-05,6.6621e+07,24.347,0,3.1905e+07,6.6201,640.53,1
2054,2.56,12506,1,12506,1,0.00028446,3.0157e-10,0,0.00039835,-5.2113e-05,1.395e+07,45.376,0,6.0333e+07,-10.562,12505,13656,1,13656,1,0.0009366,1.4391e-09,0,0.0009366,6.9348e-05,7.5191e+07,214.85,0,1.4952e+08,22.602,13655,12505,1,12505,1,0.00028445,2.2731e-10,0,0.00033911,-5.2068e-05,4.6973e+07,39.656,0,6.1559e+07,-8.9396,12504,11321,1,11321,1,-0.00036769,-9.0716e-10,0,2.4862e-06,-0.00017371,-1.4952e+08,-131.86,0,2.0222e+06,-35.301,11320,11952,1,11952,1,-5.4658e-05,-3.7069e-11,0,0.000159,-0.00011518,-2.2176e+07,-5.1836,0,4.3403e+07,-20.038,11951,13059,1,13059,1,0.00062357,7.2383e-10,0,0.00062357,1.1029e-05,6.3378e+07,106.56,0,6.9356e+07,-3.7648,13058,640.53,0,640.53,0,0.00039138,5.1507e-10,0,0.00027453,7.2865e-05,6.6881e+07,76.547,0,3.203e+07,11.607,640.53,1
2054,2.57,12506,1,12506,1,0.00028557,1.5311e-10,0,0.00039991,-5.2317e-05,1.4005e+07,21.657,0,6.0569e+07,-11.57,12505,13656,1,13656,1,0.00094026,1.2647e-09,0,0.00094026,6.9619e-05,7.5485e+07,188.48,0,1.5011e+08,19.125,13655,12505,1,12505,1,0.00028557,1.0344e-10,0,0.00034044,-5.2272e-05,4.7156e+07,17.378,0,6.18e+07,-9.1613,12504,11321,1,11321,1,-0.00036912,-1.0875e-09,0,2.4959e-06,-0.00017439,-1.5011e+08,-160.82,0,2.0301e+06,-39.357,11320,11952,1,11952,1,-5.4871e-05,-1.6135e-10,0,0.00015962,-0.00011563,-2.2263e+07,-27.355,0,4.3572e+07,-20.407,11951,13059,1,13059,1,0.00062601,5.6115e-10,0,0.00062601,1.1072e-05,6.3626e+07,83.827,0,6.9627e+07,-3.8975,13058,640.53,0,640.53,0,0.00039291,5.187e-10,0,0.00027561,7.315e-05,6.7142e+07,77.388,0,3.2155e+07,10.737,640.53,1
2054,2.58,12506,1,12506,1,0.00028668,2.4197e-10,0,0.00040147,-5.2521e-05,1.4059e+07,35.244,0,6.0805e+07,-12.591,12505,13656,1,13656,1,0.00094392,1.573e-09,0,0.00094392,6.9891e-05,7.5779e+07,233.53,0,1.5069e+08,26.497,13655,12505,1,12505,1,0.00028668,1.8616e-10,0,0.00034176,-5.2476e-05,4.734e+07,30.208,0,6.2041e+07,-10.239,12504,11321,1,11321,1,-0.00037056,-1.3436e-09,0,2.5057e-06,-0.00017506,-1.5069e+08,-197.51,0,2.038e+06,-44.65,11320,11952,1,11952,1,-5.5085e-05,-1.3065e-10,0,0.00016024,-0.00011608,-2.2349e+07,-21.636,0,4.3742e+07,-23.43,11951,13059,1,13059,1,0.00062844,7.3882e-10,0,0.00062844,1.1115e-05,6.3873e+07,108.99,0,6.9899e+07,-4.208,13058,640.53,0,640.53,0,0.00039444,6.2415e-10,0,0.00027668,7.3435e-05,6.7404e+07,93.033,0,3.228e+07,13.435,640.53,1
2054,2.59,12506,1,12506,1,0.00028779,-6.0877e-11,0,0.00040302,-5.2723e-05,1.4114e+07,-10.471,0,6.104e+07,-4.2006,12505,13656,1,13656,1,0.00094757,2.2072e-10,0,0.00094757,7.0161e-05,7.6072e+07,32.82,0,1.5127e+08,4.3874,13655,12505,1,12505,1,0.00028779,-5.5933e-11,0,0.00034309,-5.2678e-05,4.7523e+07,-10.379,0,6.2281e+07,-3.102,12504,11321,1,11321,1,-0.00037199,-3.206e-10,0,2.5154e-06,-0.00017574,-1.5127e+08,-47.942,0,2.0459e+06,-17.869,11320,11952,1,11952,1,-5.5298e-05,-1.1434e-10,0,0.00016086,-0.00011653,-2.2436e+07,-19.124,0,4.3911e+07,-5.7745,11951,13059,1,13059,1,0.00063087,-1.3774e-11,0,0.00063087,1.1159e-05,6.412e+07,-1.885,0,7.0169e+07,-1.4622,13058,640.53,0,640.53,0,0.00039596,9.2205e-11,0,0.00027775,7.3719e-05,6.7664e+07,13.649,0,3.2405e+07,3.7329,640.53,1
2054,2.6,12506,1,12506,1,0.0002889,3.3786e-10,0,0.00040458,-5.2928e-05,1.4168e+07,51.145,0,6.1276e+07,-14.844,12505,13656,1,13656,1,0.00095124,1.6439e-09,0,0.00095124,7.0432e-05,7.6366e+07,248.2,0,1.5186e+08,17.398,13655,12505,1,12505,1,0.0002889,2.4206e-10,0,0.00034441,-5.2882e-05,4.7707e+07,41.623,0,6.2522e+07,-11.948,12504,11321,1,11321,1,-0.00037343,-1.0079e-09,0,2.5249e-06,-0.00017642,-1.5186e+08,-145.4,0,2.0537e+06,-45.441,11320,11952,1,11952,1,-5.5512e-05,-4.4424e-11,0,0.00016149,-0.00011698,-2.2523e+07,-6.6734,0,4.4081e+07,-24.293,11951,13059,1,13059,1,0.00063332,8.1742e-10,0,0.00063332,1.1202e-05,6.4369e+07,121.65,0,7.044e+07,-6.4387,13058,640.53,0,640.53,0,0.0003975,5.9113e-10,0,0.00027883,7.4004e-05,6.7926e+07,87.667,0,3.253e+07,11.367,640.53,1
2054,2.61,12506,1,12506,1,0.00029001,2.8285e-10,0,0.00040613,-5.3131e-05,1.4223e+07,42.58,0,6.1511e+07,-8.8964,12505,13656,1,13656,1,0.00095489,1.3095e-09,0,0.00095489,7.0703e-05,7.666e+07,199.1,0,1.5244e+08,26.291,13655,12505,1,12505,1,0.00029001,2.2093e-10,0,0.00034573,-5.3085e-05,4.789e+07,39.19,0,6.2762e+07,-8.1609,12504,11321,1,11321,1,-0.00037487,-8.4959e-10,0,2.5347e-06,-0.0001771,-1.5244e+08,-126.75,0,2.0617e+06,-38.558,11320,11952,1,11952,1,-5.5725e-05,-3.1896e-11,0,0.00016211,-0.00011743,-2.2609e+07,-4.0475,0,4.425e+07,-18.567,11951,13059,1,13059,1,0.00063575,6.512e-10,0,0.00063575,1.1245e-05,6.4616e+07,98.224,0,7.0711e+07,-1.7676,13058,640.53,0,640.53,0,0.00039902,4.7768e-10,0,0.0002799,7.4288e-05,6.8187e+07,71.464,0,3.2655e+07,12.695,640.53,1
2054,2.62,12506,1,12506,1,0.00029113,1.8102e-11,0,0.0004077,-5.3335e-05,1.4277e+07,1.3129,0,6.1748e+07,-4.8931,12505,13656,1,13656,1,0.00095856,3.8303e-10,0,0.00095856,7.0975e-05,7.6954e+07,53.726,0,1.5303e+08,6.3404,13655,12505,1,12505,1,0.00029113,2.0362e-11,0,0.00034707,-5.329e-05,4.8074e+07,3.2343,0,6.3003e+07,-4.148,12504,11321,1,11321,1,-0.00037631,-4.6084e-10,0,2.5445e-06,-0.00017778,-1.5303e+08,-80.9,0,2.0696e+06,-21.059,11320,11952,1,11952,1,-5.5939e-05,-5.0134e-11,0,0.00016273,-0.00011788,-2.2696e+07,-9.4283,0,4.4421e+07,-7.3336,11951,13059,1,13059,1,0.00063819,1.2002e-10,0,0.00063819,1.1288e-05,6.4864e+07,15.278,0,7.0983e+07,-2.0185,13058,640.53,0,640.53,0,0.00040056,1.4326e-10,0,0.00028097,7.4574e-05,6.845e+07,21.02,0,3.2781e+07,4.365,640.53,1
2054,2.63,12506,1,12506,1,0.00029223,-1.179e-10,0,0.00040924,-5.3538e-05,1.4332e+07,-19.47,0,6.1983e+07,-4.8215,12505,13656,1,13656,1,0.0009622,1.7733e-10,0,0.0009622,7.1244e-05,7.7246e+07,26.426,0,1.5361e+08,6.508,13655,12505,1,12505,1,0.00029223,-9.7286e-11,0,0.00034838,-5.3492e-05,4.8257e+07,-17.762,0,6.3242e+07,-3.8805,12504,11321,1,11321,1,-0.00037774,-4.447e-10,0,2.5542e-06,-0.00017845,-1.5361e+08,-66.777,0,2.0775e+06,-17.071,11320,11952,1,11952,1,-5.6152e-05,-2.0133e-10,0,0.00016335,-0.00011833,-2.2782e+07,-32.625,0,4.4589e+07,-6.3811,11951,13059,1,13059,1,0.00064062,-3.1889e-11,0,0.00064062,1.1331e-05,6.511e+07,-5.0088,0,7.1252e+07,-2.2842,13058,640.53,0,640.53,0,0.00040208,1.2329e-10,0,0.00028204,7.4857e-05,6.8709e+07,18.666,0,3.2905e+07,3.4397,640.53,1
2054,2.64,12506,1,12506,1,0.00029335,5.6299e-10,0,0.00041081,-5.3742e-05,1.4386e+07,85.919,0,6.2219e+07,-12.862,12505,13656,1,13656,1,0.00096587,2.2005e-09,0,0.00096587,7.1516e-05,7.7541e+07,332.46,0,1.542e+08,40.495,13655,12505,1,12505,1,0.00029335,4.4477e-10,0,0.00034971,-5.3696e-05,4.8441e+07,75.95,0,6.3484e+07,-11.4,12504,11321,1,11321,1,-0.00037918,-1.1234e-09,0,2.5639e-06,-0.00017914,-1.542e+08,-162.95,0,2.0854e+06,-57.021,11320,11952,1,11952,1,-5.6366e-05,1.8757e-11,0,0.00016397,-0.00011878,-2.2869e+07,2.8229,0,4.4759e+07,-27.019,11951,13059,1,13059,1,0.00064306,1.1626e-09,0,0.00064306,1.1374e-05,6.5359e+07,174.07,0,7.1524e+07,-1.8472,13058,640.53,0,640.53,0,0.00040361,7.4821e-10,0,0.00028311,7.5143e-05,6.8971e+07,111.54,0,3.3031e+07,18.505,640.53,1
2054,2.65,12506,1,12506,1,0.00029446,4.2227e-10,0,0.00041236,-5.3945e-05,1.4441e+07,64.114,0,6.2455e+07,-13.188,12505,13656,1,13656,1,0.00096953,1.9593e-09,0,0.00096953,7.1787e-05,7.7835e+07,296.53,0,1.5478e+08,27.582,13655,12505,1,12505,1,0.00029446,2.9744e-10,0,0.00035104,-5.3899e-05,4.8624e+07,51.09,0,6.3724e+07,-10.667,12504,11321,1,11321,1,-0.00038062,-1.0345e-09,0,2.5736e-06,-0.00017981,-1.5478e+08,-149.61,0,2.0933e+06,-47.285,11320,11952,1,11952,1,-5.6579e-05,-3.7975e-11,0,0.00016459,-0.00011923,-2.2956e+07,-5.0413,0,4.4929e+07,-24.899,11951,13059,1,13059,1,0.0006455,9.8617e-10,0,0.0006455,1.1417e-05,6.5606e+07,146.31,0,7.1795e+07,-3.6924,13058,640.53,0,640.53,0,0.00040514,6.8087e-10,0,0.00028419,7.5427e-05,6.9233e+07,101.32,0,3.3156e+07,14.113,640.53,1
2054,2.66,12506,1,12506,1,0.00029557,4.4312e-10,0,0.00041392,-5.4149e-05,1.4495e+07,67.66,0,6.2691e+07,-14.479,12505,13656,1,13656,1,0.00097319,2.026e-09,0,0.00097319,7.2058e-05,7.8129e+07,306.12,0,1.5536e+08,23.925,13655,12505,1,12505,1,0.00029557,3.1505e-10,0,0.00035236,-5.4103e-05,4.8808e+07,54.187,0,6.3965e+07,-11.651,12504,11321,1,11321,1,-0.00038205,-1.0868e-09,0,2.5833e-06,-0.00018049,-1.5536e+08,-155.72,0,2.1012e+06,-46.668,11320,11952,1,11952,1,-5.6793e-05,-2.5431e-11,0,0.00016521,-0.00011968,-2.3042e+07,-3.7913,0,4.5099e+07,-25.921,11951,13059,1,13059,1,0.00064793,1.013e-09,0,0.00064793,1.146e-05,6.5854e+07,153.07,0,7.2066e+07,-4.7315,13058,640.53,0,640.53,0,0.00040667,7.0856e-10,0,0.00028526,7.5712e-05,6.9494e+07,105.26,0,3.3281e+07,13.521,640.53,1
2054,2.67,12506,1,12506,1,0.00029668,5.1548e-10,0,0.00041547,-5.4352e-05,1.455e+07,79.2,0,6.2925e+07,-9.9106,12505,13656,1,13656,1,0.00097684,1.9019e-09,0,0.00097684,7.2328e-05,7.8422e+07,290.41,0,1.5595e+08,31.275,13655,12505,1,12505,1,0.00029668,4.0097e-10,0,0.00035368,-5.4306e-05,4.8991e+07,69.797,0,6.4204e+07,-8.7443,12504,11321,1,11321,1,-0.00038348,-7.8445e-10,0,2.5931e-06,-0.00018117,-1.5595e+08,-112.57,0,2.1091e+06,-44.526,11320,11952,1,11952,1,-5.7006e-05,4.2094e-11,0,0.00016583,-0.00012013,-2.3129e+07,4.818,0,4.5268e+07,-21.684,11951,13059,1,13059,1,0.00065036,1.026e-09,0,0.00065036,1.1503e-05,6.6101e+07,153.19,0,7.2336e+07,-1.4371,13058,640.53,0,640.53,0,0.0004082,6.234e-10,0,0.00028633,7.5996e-05,6.9755e+07,93.101,0,3.3406e+07,14.684,640.53,1
2054,2.68,12506,1,12506,1,0.00029779,-1.4021e-10,0,0.00041703,-5.4556e-05,1.4604e+07,-22.744,0,6.3162e+07,-3.5473,12505,13656,1,13656,1,0.00098051,3.1841e-10,0,0.00098051,7.2599e-05,7.8716e+07,46.741,0,1.5653e+08,13.89,13655,12505,1,12505,1,0.00029779,-1.379e-10,0,0.00035501,-5.451e-05,4.9175e+07,-24.574,0,6.4446e+07,-0.68942,12504,11321,1,11321,1,-0.00038492,-3.9928e-10,0,2.6028e-06,-0.00018185,-1.5653e+08,-64.011,0,2.117e+06,-27.817,11320,11952,1,11952,1,-5.722e-05,-2.3959e-10,0,0.00016645,-0.00012058,-2.3216e+07,-37.917,0,4.5438e+07,-7.0203,11951,13059,1,13059,1,0.0006528,-5.9257e-11,0,0.0006528,1.1546e-05,6.6349e+07,-8.3558,0,7.2608e+07,0.91472,13058,640.53,0,640.53,0,0.00040973,1.3613e-10,0,0.0002874,7.6281e-05,7.0017e+07,20.518,0,3.3531e+07,7.3493,640.53,1
2054,2.69,12506,1,12506,1,0.0002989,-5.3041e-11,0,0.00041859,-5.476e-05,1.4659e+07,-9.0455,0,6.3398e+07,-5.1398,12505,13656,1,13656,1,0.00098417,4.4074e-10,0,0.00098417,7.287e-05,7.901e+07,65.522,0,1.5712e+08,5.5168,13655,12505,1,12505,1,0.0002989,-6.2774e-11,0,0.00035634,-5.4713e-05,4.9359e+07,-11.588,0,6.4686e+07,-3.3772,12504,11321,1,11321,1,-0.00038636,-3.9478e-10,0,2.6124e-06,-0.00018253,-1.5712e+08,-67.918,0,2.1249e+06,-24.588,11320,11952,1,11952,1,-5.7434e-05,-1.2864e-10,0,0.00016708,-0.00012103,-2.3302e+07,-20.394,0,4.5607e+07,-7.7026,11951,13059,1,13059,1,0.00065524,-6.3625e-12,0,0.00065524,1.1589e-05,6.6597e+07,-0.6347,0,7.2879e+07,-1.0869,13058,640.53,0,640.53,0,0.00041126,1.3126e-10,0,0.00028848,7.6566e-05,7.0278e+07,19.305,0,3.3657e+07,5.6772,640.53,1
2054,2.7,12506,1,12506,1,0.00030001,-2.6431e-12,0,0.00042014,-5.4963e-05,1.4713e+07,-1.3664,0,6.3633e+07,-9.6215,12505,13656,1,13656,1,0.00098782,5.5108e-10,0,0.00098782,7.3141e-05,7.9303e+07,80.004,0,1.577e+08,1.1494,13655,12505,1,12505,1,0.00030001,-2.1454e-11,0,0.00035766,-5.4916e-05,4.9542e+07,-3.2355,0,6.4926e+07,-8.1718,12504,11321,1,11321,1,-0.00038779,-3.7429e-10,0,2.622e-06,-0.00018321,-1.577e+08,-55.006,0,2.1327e+06,-28.713,11320,11952,1,11952,1,-5.7647e-05,-1.14e-10,0,0.0001677,-0.00012148,-2.3389e+07,-19.028,0,4.5776e+07,-12.497,11951,13059,1,13059,1,0.00065767,7.8872e-11,0,0.00065767,1.1632e-05,6.6844e+07,12.764,0,7.3149e+07,-5.6098,13058,640.53,0,640.53,0,0.00041278,1.8001e-10,0,0.00028955,7.685e-05,7.0539e+07,26.016,0,3.3781e+07,5.314,640.53,1
2054,2.71,12506,1,12506,1,0.00030112,2.3262e-10,0,0.0004217,-5.5167e-05,1.4768e+07,34.262,0,6.3868e+07,-12.054,12505,13656,1,13656,1,0.00099148,1.4918e-09,0,0.00099148,7.3412e-05,7.9597e+07,223.56,0,1.5828e+08,24.06,13655,12505,1,12505,1,0.00030112,1.6978e-10,0,0.00035898,-5.5119e-05,4.9725e+07,27.972,0,6.5167e+07,-9.7962,12504,11321,1,11321,1,-0.00038923,-1.1634e-09,0,2.6319e-06,-0.00018388,-1.5828e+08,-170.05,0,2.1407e+06,-40.902,11320,11952,1,11952,1,-5.786e-05,-1.2204e-10,0,0.00016832,-0.00012193,-2.3475e+07,-20.057,0,4.5946e+07,-22.382,11951,13059,1,13059,1,0.00066011,6.9387e-10,0,0.00066011,1.1676e-05,6.7091e+07,103.18,0,7.342e+07,-3.8469,13058,640.53,0,640.53,0,0.00041431,5.8073e-10,0,0.00029062,7.7135e-05,7.08e+07,86.602,0,3.3907e+07,12.46,640.53,1
2054,2.72,12506,1,12506,1,0.00030223,2.7789e-10,0,0.00042325,-5.537e-05,1.4822e+07,41.776,0,6.4104e+07,-9.8881,12505,13656,1,13656,1,0.00099514,1.3952e-09,0,0.00099514,7.3683e-05,7.9891e+07,208.22,0,1.5887e+08,20.006,13655,12505,1,12505,1,0.00030223,1.9553e-10,0,0.00036031,-5.5323e-05,4.9909e+07,33.605,0,6.5407e+07,-8.0458,12504,11321,1,11321,1,-0.00039067,-8.2846e-10,0,2.6417e-06,-0.00018456,-1.5887e+08,-120.31,0,2.1486e+06,-36.522,11320,11952,1,11952,1,-5.8074e-05,-5.1299e-11,0,0.00016894,-0.00012238,-2.3562e+07,-7.2,0,4.6116e+07,-18.137,11951,13059,1,13059,1,0.00066254,6.8968e-10,0,0.00066254,1.1719e-05,6.7339e+07,102.37,0,7.3691e+07,-2.7219,13058,640.53,0,640.53,0,0.00041584,5.0133e-10,0,0.00029169,7.7419e-05,7.1061e+07,74.395,0,3.4032e+07,10.27,640.53,1
2054,2.73,12506,1,12506,1,0.00030334,-9.3987e-11,0,0.0004248,-5.5573e-05,1.4877e+07,-15.525,0,6.4339e+07,-2.4874,12505,13656,1,13656,1,0.00099879,1.3743e-10,0,0.00099879,7.3953e-05,8.0184e+07,21.782,0,1.5945e+08,7.7889,13655,12505,1,12505,1,0.00030334,-8.9368e-11,0,0.00036163,-5.5526e-05,5.0092e+07,-16.582,0,6.5647e+07,-1.3334,12504,11321,1,11321,1,-0.0003921,-2.8929e-10,0,2.6514e-06,-0.00018524,-1.5945e+08,-47.641,0,2.1565e+06,-16.772,11320,11952,1,11952,1,-5.8287e-05,-1.5659e-10,0,0.00016956,-0.00012283,-2.3649e+07,-24.87,0,4.6285e+07,-4.5528,11951,13059,1,13059,1,0.00066497,-4.5523e-11,0,0.00066497,1.1762e-05,6.7586e+07,-7.2176,0,7.3961e+07,0.34219,13058,640.53,0,640.53,0,0.00041737,7.4504e-11,0,0.00029276,7.7703e-05,7.1322e+07,11.586,0,3.4157e+07,3.9901,640.53,1
2054,2.74,12506,1,12506,1,0.00030446,2.41e-10,0,0.00042636,-5.5777e-05,1.4931e+07,35.729,0,6.4576e+07,-11.699,12505,13656,1,13656,1,0.0010025,1.4394e-09,0,0.0010025,7.4225e-05,8.0478e+07,215.9,0,1.6004e+08,19.485,13655,12505,1,12505,1,0.00030446,1.7058e-10,0,0.00036296,-5.573e-05,5.0276e+07,27.83,0,6.5888e+07,-9.1927,12504,11321,1,11321,1,-0.00039354,-1.0188e-09,0,2.661e-06,-0.00018592,-1.6004e+08,-149.03,0,2.1644e+06,-38.815,11320,11952,1,11952,1,-5.8501e-05,-1.0655e-10,0,0.00017018,-0.00012328,-2.3735e+07,-16.82,0,4.6455e+07,-20.355,11951,13059,1,13059,1,0.00066742,6.8264e-10,0,0.00066742,1.1805e-05,6.7834e+07,101.77,0,7.4233e+07,-4.0878,13058,640.53,0,640.53,0,0.0004189,5.4682e-10,0,0.00029384,7.7989e-05,7.1584e+07,81.369,0,3.4282e+07,10.609,640.53,1
2054,2.75,12506,1,12506,1,0.00030557,4.2782e-12,0,0.00042792,-5.5981e-05,1.4986e+07,-0.28642,0,6.4811e+07,-5.7384,12505,13656,1,13656,1,0.0010061,6.062e-10,0,0.0010061,7.4495e-05,8.0772e+07,88.112,0,1.6062e+08,14.285,13655,12505,1,12505,1,0.00030557,-1.2131e-11,0,0.00036428,-5.5933e-05,5.0459e+07,-1.8134,0,6.6129e+07,-3.1551,12504,11321,1,11321,1,-0.00039498,-2.3689e-10,0,2.6706e-06,-0.0001866,-1.6062e+08,-39.096,0,2.1722e+06,-40.508,11320,11952,1,11952,1,-5.8714e-05,-7.9585e-11,0,0.0001708,-0.00012373,-2.3822e+07,-13.803,0,4.6624e+07,-10.089,11951,13059,1,13059,1,0.00066985,5.2513e-11,0,0.00066985,1.1848e-05,6.8082e+07,8.3623,0,7.4504e+07,0.13635,13058,640.53,0,640.53,0,0.00042043,1.4334e-10,0,0.00029491,7.8273e-05,7.1845e+07,20.692,0,3.4407e+07,9.6263,640.53,1
2054,2.76,12506,1,12506,1,0.00030668,5.2279e-10,0,0.00042948,-5.6184e-05,1.504e+07,81.07,0,6.5047e+07,-9.3958,12505,13656,1,13656,1,0.0010098,1.7333e-09,0,0.0010098,7.4766e-05,8.1065e+07,262.55,0,1.612e+08,21.344,13655,12505,1,12505,1,0.00030668,4.1841e-10,0,0.0003656,-5.6136e-05,5.0642e+07,71.632,0,6.6369e+07,-7.778,12504,11321,1,11321,1,-0.00039641,-5.8354e-10,0,2.6805e-06,-0.00018728,-1.612e+08,-81.756,0,2.1802e+06,-34.879,11320,11952,1,11952,1,-5.8928e-05,9.0366e-11,0,0.00017142,-0.00012418,-2.3909e+07,14.295,0,4.6794e+07,-18.426,11951,13059,1,13059,1,0.00067228,9.8218e-10,0,0.00067228,1.1891e-05,6.8329e+07,147.49,0,7.4775e+07,-2.1184,13058,640.53,0,640.53,0,0.00042196,5.476e-10,0,0.00029598,7.8558e-05,7.2106e+07,81.601,0,3.4532e+07,11.432,640.53,1
2054,2.77,12506,1,12506,1,0.00030779,2.9484e-10,0,0.00043103,-5.6388e-05,1.5095e+07,44.577,0,6.5282e+07,-9.3609,12505,13656,1,13656,1,0.0010134,1.3953e-09,0,0.0010134,7.5037e-05,8.1359e+07,209.31,0,1.6179e+08,21.829,13655,12505,1,12505,1,0.00030779,2.1357e-10,0,0.00036693,-5.634e-05,5.0826e+07,36.744,0,6.6609e+07,-7.6912,12504,11321,1,11321,1,-0.00039785,-8.0466e-10,0,2.6902e-06,-0.00018796,-1.6179e+08,-116.94,0,2.1881e+06,-32.456,11320,11952,1,11952,1,-5.9141e-05,-3.7924e-11,0,0.00017204,-0.00012463,-2.3995e+07,-5.4489,0,4.6963e+07,-18.065,11951,13059,1,13059,1,0.00067472,7.0998e-10,0,0.00067472,1.1934e-05,6.8577e+07,105.06,0,7.5046e+07,-2.5049,13058,640.53,0,640.53,0,0.00042348,4.991e-10,0,0.00029705,7.8842e-05,7.2367e+07,74.274,0,3.4657e+07,10.536,640.53,1
2054,2.78,12506,1,12506,1,0.0003089,3.9236e-11,0,0.00043259,-5.6592e-05,1.5149e+07,5.011,0,6.5519e+07,-7.5706,12505,13656,1,13656,1,0.0010171,7.1887e-10,0,0.0010171,7.5308e-05,8.1653e+07,104.03,0,1.6237e+08,4.9554,13655,12505,1,12505,1,0.0003089,1.1348e-11,0,0.00036826,-5.6544e-05,5.101e+07,1.726,0,6.685e+07,-6.8449,12504,11321,1,11321,1,-0.00039929,-5.5998e-10,0,2.6999e-06,-0.00018864,-1.6237e+08,-85.037,0,2.196e+06,-22.286,11320,11952,1,11952,1,-5.9355e-05,-9.986e-11,0,0.00017267,-0.00012508,-2.4082e+07,-16.872,0,4.7133e+07,-10.204,11951,13059,1,13059,1,0.00067716,1.6827e-10,0,0.00067716,1.1977e-05,6.8825e+07,26.959,0,7.5317e+07,-4.0011,13058,640.53,0,640.53,0,0.00042502,2.4434e-10,0,0.00029813,7.9128e-05,7.2629e+07,35.713,0,3.4783e+07,4.2874,640.53,1
2054,2.79,12506,1,12506,1,0.00031001,2.1438e-10,0,0.00043415,-5.6795e-05,1.5204e+07,32.731,0,6.5754e+07,-4.6179,12505,13656,1,13656,1,0.0010207,7.6297e-10,0,0.0010207,7.5579e-05,8.1947e+07,111.46,0,1.6296e+08,4.0052,13655,12505,1,12505,1,0.00031001,1.7237e-10,0,0.00036958,-5.6747e-05,5.1193e+07,27.739,0,6.7091e+07,-3.2473,12504,11321,1,11321,1,-0.00040072,-3.9638e-11,0,2.7096e-06,-0.00018931,-1.6296e+08,-2.6768,0,2.2038e+06,-21.3,11320,11952,1,11952,1,-5.9568e-05,9.3059e-11,0,0.00017329,-0.00012553,-2.4168e+07,16.137,0,4.7302e+07,-7.3382,11951,13059,1,13059,1,0.00067959,2.8704e-10,0,0.00067959,1.202e-05,6.9072e+07,44.46,0,7.5588e+07,-1.0624,13058,640.53,0,640.53,0,0.00042654,1.6244e-10,0,0.0002992,7.9412e-05,7.289e+07,22.595,0,3.4908e+07,4.5023,640.53,1
2054,2.8,12506,1,12506,1,0.00031112,3.7162e-10,0,0.0004357,-5.6998e-05,1.5258e+07,56.601,0,6.5989e+07,-8.9547,12505,13656,1,13656,1,0.0010244,1.4936e-09,0,0.0010244,7.585e-05,8.224e+07,223.85,0,1.6354e+08,23.734,13655,12505,1,12505,1,0.00031112,2.8545e-10,0,0.0003709,-5.695e-05,5.1376e+07,48.934,0,6.7331e+07,-7.6676,12504,11321,1,11321,1,-0.00040216,-7.1931e-10,0,2.7193e-06,-0.00018999,-1.6354e+08,-103.89,0,2.2118e+06,-34.329,11320,11952,1,11952,1,-5.9782e-05,5.4004e-12,0,0.00017391,-0.00012598,-2.4255e+07,0.4962,0,4.7472e+07,-18.19,11951,13059,1,13059,1,0.00068203,7.884e-10,0,0.00068203,1.2063e-05,6.9319e+07,117.21,0,7.5858e+07,-2.0471,13058,640.53,0,640.53,0,0.00042807,5.0396e-10,0,0.00030027,7.9696e-05,7.3151e+07,74.937,0,3.5032e+07,11.162,640.53,1
2054,2.81,12506,1,12506,1,0.00031223,1.3599e-10,0,0.00043726,-5.7202e-05,1.5313e+07,19.312,0,6.6225e+07,-10.551,12505,13656,1,13656,1,0.0010281,1.181e-09,0,0.0010281,7.612e-05,8.2534e+07,176.45,0,1.6412e+08,17.033,13655,12505,1,12505,1,0.00031223,9.7671e-11,0,0.00037223,-5.7153e-05,5.156e+07,16.462,0,6.7571e+07,-8.2377,12504,11321,1,11321,1,-0.00040359,-1.0852e-09,0,2.729e-06,-0.00019067,-1.6412e+08,-159.63,0,2.2197e+06,-33.185,11320,11952,1,11952,1,-5.9995e-05,-1.594e-10,0,0.00017453,-0.00012643,-2.4342e+07,-26.284,0,4.7641e+07,-18.758,11951,13059,1,13059,1,0.00068446,5.265e-10,0,0.00068446,1.2106e-05,6.9567e+07,78.175,0,7.6129e+07,-3.435,13058,640.53,0,640.53,0,0.0004296,4.9565e-10,0,0.00030134,7.9981e-05,7.3412e+07,73.974,0,3.5158e+07,9.8218,640.53,1
2054,2.82,12506,1,12506,1,0.00031335,-3.7944e-11,0,0.00043881,-5.7406e-05,1.5367e+07,-7.5064,0,6.6461e+07,-8.4453,12505,13656,1,13656,1,0.0010317,3.3053e-10,0,0.0010317,7.6392e-05,8.2828e+07,46.98,0,1.6471e+08,4.725,13655,12505,1,12505,1,0.00031335,-4.9407e-11,0,0.00037356,-5.7357e-05,5.1744e+07,-8.7465,0,6.7812e+07,-6.9325,12504,11321,1,11321,1,-0.00040503,-2.844e-10,0,2.7385e-06,-0.00019135,-1.6471e+08,-44.485,0,2.2275e+06,-28.315,11320,11952,1,11952,1,-6.0209e-05,-8.323e-11,0,0.00017515,-0.00012688,-2.4428e+07,-15.751,0,4.7811e+07,-13.021,11951,13059,1,13059,1,0.0006869,-1.5993e-11,0,0.0006869,1.2149e-05,6.9815e+07,-1.7371,0,7.6401e+07,-3.0262,13058,640.53,0,640.53,0,0.00043113,9.0459e-11,0,0.00030242,8.0266e-05,7.3674e+07,13.467,0,3.5283e+07,6.2857,640.53,1
2054,2.83,12506,1,12506,1,0.00031446,2.439e-10,0,0.00044037,-5.7609e-05,1.5422e+07,36.199,0,6.6696e+07,-10.832,12505,13656,1,13656,1,0.0010354,1.3769e-09,0,0.0010354,7.6662e-05,8.3121e+07,205.58,0,1.6529e+08,21.653,13655,12505,1,12505,1,0.00031446,1.7899e-10,0,0.00037488,-5.756e-05,5.1927e+07,29.909,0,6.8052e+07,-8.7138,12504,11321,1,11321,1,-0.00040646,-9.9449e-10,0,2.7484e-06,-0.00019203,-1.6529e+08,-145.89,0,2.2354e+06,-36.23,11320,11952,1,11952,1,-6.0422e-05,-8.2233e-11,0,0.00017577,-0.00012733,-2.4515e+07,-13.176,0,4.798e+07,-20.087,11951,13059,1,13059,1,0.00068933,6.7385e-10,0,0.00068933,1.2192e-05,7.0062e+07,99.452,0,7.6671e+07,-3.3863,13058,640.53,0,640.53,0,0.00043266,5.2274e-10,0,0.00030349,8.055e-05,7.3935e+07,77.803,0,3.5408e+07,10.967,640.53,1
2054,2.84,12506,1,12506,1,0.00031557,3.4587e-10,0,0.00044192,-5.7813e-05,1.5476e+07,51.868,0,6.6932e+07,-10.957,12505,13656,1,13656,1,0.001039,1.6324e-09,0,0.001039,7.6933e-05,8.3415e+07,243.81,0,1.6588e+08,26.234,13655,12505,1,12505,1,0.00031557,2.5736e-10,0,0.0003762,-5.7763e-05,5.211e+07,44.675,0,6.8292e+07,-9.0381,12504,11321,1,11321,1,-0.0004079,-9.5038e-10,0,2.7581e-06,-0.00019271,-1.6588e+08,-139.21,0,2.2434e+06,-40.801,11320,11952,1,11952,1,-6.0636e-05,-4.9598e-11,0,0.00017639,-0.00012778,-2.4601e+07,-7.04,0,4.815e+07,-21.079,11951,13059,1,13059,1,0.00069177,8.2129e-10,0,0.00069177,1.2236e-05,7.031e+07,122.17,0,7.6942e+07,-3.2562,13058,640.53,0,640.53,0,0.00043419,5.7888e-10,0,0.00030456,8.0835e-05,7.4196e+07,86.052,0,3.5533e+07,12.207,640.53,1
2054,2.85,12506,1,12506,1,0.00031668,-4.8286e-11,0,0.00044348,-5.8017e-05,1.5531e+07,-7.9019,0,6.7168e+07,-7.3294,12505,13656,1,13656,1,0.0010427,7.7417e-10,0,0.0010427,7.7204e-05,8.3709e+07,115.25,0,1.6646e+08,8.8729,13655,12505,1,12505,1,0.00031668,-6.6515e-11,0,0.00037753,-5.7967e-05,5.2294e+07,-11.029,0,6.8533e+07,-5.9071,12504,11321,1,11321,1,-0.00040934,-5.1804e-10,0,2.7678e-06,-0.00019338,-1.6646e+08,-80.764,0,2.2512e+06,-29.058,11320,11952,1,11952,1,-6.085e-05,-2.216e-10,0,0.00017701,-0.00012823,-2.4688e+07,-35.014,0,4.832e+07,-9.9983,11951,13059,1,13059,1,0.00069421,7.5445e-11,0,0.00069421,1.2279e-05,7.0558e+07,12.007,0,7.7213e+07,-3.06,13058,640.53,0,640.53,0,0.00043572,2.591e-10,0,0.00030563,8.112e-05,7.4458e+07,38.161,0,3.5658e+07,6.2797,640.53,1
2054,2.86,12506,1,12506,1,0.00031779,-7.2973e-11,0,0.00044504,-5.822e-05,1.5585e+07,-12.318,0,6.7404e+07,-5.3839,12505,13656,1,13656,1,0.0010464,4.872e-10,0,0.0010464,7.7475e-05,8.4003e+07,71.473,0,1.6704e+08,4.0386,13655,12505,1,12505,1,0.00031779,-7.1671e-11,0,0.00037885,-5.8171e-05,5.2478e+07,-12.278,0,6.8774e+07,-4.0537,12504,11321,1,11321,1,-0.00041078,-4.7481e-10,0,2.7776e-06,-0.00019406,-1.6704e+08,-69.96,0,2.2592e+06,-22.605,11320,11952,1,11952,1,-6.1063e-05,-1.8988e-10,0,0.00017763,-0.00012868,-2.4775e+07,-31.556,0,4.8489e+07,-7.0401,11951,13059,1,13059,1,0.00069665,1.9412e-11,0,0.00069665,1.2322e-05,7.0805e+07,3.1818,0,7.7484e+07,-2.2837,13058,640.53,0,640.53,0,0.00043725,1.8534e-10,0,0.00030671,8.1404e-05,7.4719e+07,27.213,0,3.5783e+07,4.3861,640.53,1
2054,2.87,12506,1,12506,1,0.0003189,5.2543e-12,0,0.00044659,-5.8424e-05,1.564e+07,-0.50774,0,6.764e+07,-4.7177,12505,13656,1,13656,1,0.00105,6.0934e-10,0,0.00105,7.7746e-05,8.4296e+07,87.126,0,1.6763e+08,5.9917,13655,12505,1,12505,1,0.0003189,-2.7708e-11,0,0.00038018,-5.8374e-05,5.2661e+07,-4.1149,0,6.9014e+07,-3.4437,12504,11321,1,11321,1,-0.00041221,-3.0615e-10,0,2.7873e-06,-0.00019474,-1.6763e+08,-45.806,0,2.2671e+06,-20.606,11320,11952,1,11952,1,-6.1277e-05,-1.2159e-10,0,0.00017825,-0.00012913,-2.4862e+07,-21.037,0,4.8659e+07,-7.5354,11951,13059,1,13059,1,0.00069908,9.1498e-11,0,0.00069908,1.2365e-05,7.1053e+07,14.806,0,7.7755e+07,-1.0968,13058,640.53,0,640.53,0,0.00043878,1.9115e-10,0,0.00030778,8.1689e-05,7.498e+07,27.554,0,3.5909e+07,4.5624,640.53,1
2054,2.88,12506,1,12506,1,0.00032001,-2.9625e-13,0,0.00044815,-5.8627e-05,1.5694e+07,-1.2038,0,6.7875e+07,-5.658,12505,13656,1,13656,1,0.0010537,5.7114e-10,0,0.0010537,7.8017e-05,8.459e+07,82.422,0,1.6821e+08,4.2935,13655,12505,1,12505,1,0.00032001,-3.3661e-11,0,0.0003815,-5.8577e-05,5.2845e+07,-5.3237,0,6.9255e+07,-3.8898,12504,11321,1,11321,1,-0.00041365,-2.9131e-10,0,2.7969e-06,-0.00019542,-1.6821e+08,-42.38,0,2.2749e+06,-24.398,11320,11952,1,11952,1,-6.149e-05,-9.8411e-11,0,0.00017888,-0.00012958,-2.4948e+07,-16.618,0,4.8828e+07,-7.5288,11951,13059,1,13059,1,0.00070152,5.4838e-11,0,0.00070152,1.2408e-05,7.13e+07,8.8515,0,7.8026e+07,-2.1883,13058,640.53,0,640.53,0,0.0004403,1.5889e-10,0,0.00030885,8.1974e-05,7.5241e+07,22.676,0,3.6034e+07,4.9236,640.53,1
2054,2.89,12506,1,12506,1,0.00032112,5.4348e-10,0,0.0004497,-5.883e-05,1.5748e+07,84.826,0,6.811e+07,-8.2087,12505,13656,1,13656,1,0.0010573,1.5798e-09,0,0.0010573,7.8287e-05,8.4883e+07,240.37,0,1.688e+08,18.588,13655,12505,1,12505,1,0.00032112,4.4504e-10,0,0.00038282,-5.878e-05,5.3028e+07,76.224,0,6.9495e+07,-6.4983,12504,11321,1,11321,1,-0.00041508,-3.4116e-10,0,2.8067e-06,-0.0001961,-1.688e+08,-45.837,0,2.2828e+06,-29.832,11320,11952,1,11952,1,-6.1703e-05,1.5443e-10,0,0.0001795,-0.00013003,-2.5035e+07,22.826,0,4.8998e+07,-14.787,11951,13059,1,13059,1,0.00070395,9.6516e-10,0,0.00070395,1.2451e-05,7.1547e+07,144.16,0,7.8296e+07,-2.8419,13058,640.53,0,640.53,0,0.00044183,4.774e-10,0,0.00030992,8.2258e-05,7.5502e+07,71.308,0,3.6158e+07,9.1477,640.53,1
2054,2.9,12506,1,12506,1,0.00032223,2.0161e-10,0,0.00045126,-5.9034e-05,1.5803e+07,30.198,0,6.8346e+07,-8.1607,12505,13656,1,13656,1,0.001061,1.1411e-09,0,0.001061,7.8558e-05,8.5177e+07,172.7,0,1.6938e+08,19.332,13655,12505,1,12505,1,0.00032223,1.5283e-10,0,0.00038415,-5.8983e-05,5.3211e+07,25.362,0,6.9735e+07,-6.9762,12504,11321,1,11321,1,-0.00041652,-8.2292e-10,0,2.8164e-06,-0.00019677,-1.6938e+08,-120.84,0,2.2907e+06,-29.843,11320,11952,1,11952,1,-6.1916e-05,-6.9505e-11,0,0.00018012,-0.00013048,-2.5121e+07,-10.124,0,4.9167e+07,-16.438,11951,13059,1,13059,1,0.00070638,5.5261e-10,0,0.00070638,1.2494e-05,7.1795e+07,82.97,0,7.8567e+07,-1.7969,13058,640.53,0,640.53,0,0.00044336,4.3738e-10,0,0.00031099,8.2542e-05,7.5763e+07,65.401,0,3.6283e+07,10.151,640.53,1
2054,2.91,12506,1,12506,1,0.00032334,2.3599e-10,0,0.00045282,-5.9238e-05,1.5857e+07,35.4,0,6.8582e+07,-9.5679,12505,13656,1,13656,1,0.0010646,1.3094e-09,0,0.0010646,7.8829e-05,8.5471e+07,196.72,0,1.6996e+08,20.693,13655,12505,1,12505,1,0.00032334,1.7301e-10,0,0.00038547,-5.9187e-05,5.3395e+07,29.105,0,6.9976e+07,-8.057,12504,11321,1,11321,1,-0.00041795,-9.1212e-10,0,2.8261e-06,-0.00019745,-1.6996e+08,-132.73,0,2.2986e+06,-33.926,11320,11952,1,11952,1,-6.213e-05,-7.3104e-11,0,0.00018074,-0.00013093,-2.5208e+07,-10.41,0,4.9337e+07,-18.72,11951,13059,1,13059,1,0.00070882,6.4087e-10,0,0.00070882,1.2537e-05,7.2043e+07,94.786,0,7.8838e+07,-2.2771,13058,640.53,0,640.53,0,0.00044489,4.9496e-10,0,0.00031207,8.2827e-05,7.6025e+07,73.758,0,3.6409e+07,11.15,640.53,1
2054,2.92,12506,1,12506,1,0.00032446,4.1292e-10,0,0.00045437,-5.9441e-05,1.5912e+07,62.756,0,6.8818e+07,-9.2436,12505,13656,1,13656,1,0.0010683,1.6785e-09,0,0.0010683,7.91e-05,8.5765e+07,252.97,0,1.7055e+08,31.426,13655,12505,1,12505,1,0.00032446,3.1934e-10,0,0.0003868,-5.9391e-05,5.3578e+07,54.878,0,7.0216e+07,-8.3424,12504,11321,1,11321,1,-0.00041939,-8.3943e-10,0,2.8358e-06,-0.00019813,-1.7055e+08,-121.48,0,2.3066e+06,-42.141,11320,11952,1,11952,1,-6.2344e-05,1.7251e-12,0,0.00018136,-0.00013138,-2.5295e+07,0.13046,0,4.9506e+07,-20.252,11951,13059,1,13059,1,0.00071126,8.6933e-10,0,0.00071126,1.258e-05,7.229e+07,129.96,0,7.911e+07,-1.4091,13058,640.53,0,640.53,0,0.00044642,5.7176e-10,0,0.00031314,8.3112e-05,7.6286e+07,85.186,0,3.6534e+07,13.897,640.53,1
2054,2.93,12506,1,12506,1,0.00032557,2.0194e-10,0,0.00045593,-5.9645e-05,1.5967e+07,31.032,0,6.9054e+07,-6.508,12505,13656,1,13656,1,0.001072,8.8995e-10,0,0.001072,7.9372e-05,8.6059e+07,130.23,0,1.7113e+08,3.118,13655,12505,1,12505,1,0.00032557,1.1877e-10,0,0.00038813,-5.9594e-05,5.3762e+07,20.405,0,7.0457e+07,-5.2107,12504,11321,1,11321,1,-0.00042083,-4.5975e-11,0,2.8454e-06,-0.00019881,-1.7113e+08,-6.3601,0,2.3144e+06,-25.833,11320,11952,1,11952,1,-6.2558e-05,4.1397e-11,0,0.00018198,-0.00013183,-2.5381e+07,6.2918,0,4.9676e+07,-9.3496,11951,13059,1,13059,1,0.0007137,3.0513e-10,0,0.0007137,1.2623e-05,7.2538e+07,49.936,0,7.9381e+07,-3.1249,13058,640.53,0,640.53,0,0.00044795,2.1306e-10,0,0.00031421,8.3397e-05,7.6548e+07,30.598,0,3.6659e+07,4.5668,640.53,1
2054,2.94,12506,1,12506,1,0.00032668,2.4577e-10,0,0.00045748,-5.9848e-05,1.6021e+07,37.052,0,6.9288e+07,-7.7698,12505,13656,1,13656,1,0.0010756,1.212e-09,0,0.0010756,7.9642e-05,8.6352e+07,183.14,0,1.7171e+08,21.862,13655,12505,1,12505,1,0.00032668,1.9523e-10,0,0.00038945,-5.9797e-05,5.3945e+07,34.259,0,7.0697e+07,-6.4196,12504,11321,1,11321,1,-0.00042226,-8.6214e-10,0,2.8552e-06,-0.00019949,-1.7171e+08,-126,0,2.3223e+06,-34.421,11320,11952,1,11952,1,-6.277e-05,-4.068e-11,0,0.0001826,-0.00013228,-2.5468e+07,-5.846,0,4.9845e+07,-16.691,11951,13059,1,13059,1,0.00071613,6.2107e-10,0,0.00071613,1.2666e-05,7.2785e+07,91.946,0,7.9651e+07,-0.71735,13058,640.53,0,640.53,0,0.00044947,4.5817e-10,0,0.00031528,8.368e-05,7.6808e+07,68.541,0,3.6784e+07,11.205,640.53,1
2054,2.95,12506,1,12506,1,0.00032779,-1.3334e-10,0,0.00045904,-6.0052e-05,1.6076e+07,-21.584,0,6.9525e+07,-9.5376,12505,13656,1,13656,1,0.0010793,4.4299e-10,0,0.0010793,7.9913e-05,8.6646e+07,64.966,0,1.723e+08,13.858,13655,12505,1,12505,1,0.00032779,-1.3688e-10,0,0.00039078,-6.0001e-05,5.4129e+07,-23.93,0,7.0938e+07,-6.037,12504,11321,1,11321,1,-0.0004237,-4.3528e-10,0,2.8644e-06,-0.00020017,-1.723e+08,-69.98,0,2.3301e+06,-44.364,11320,11952,1,11952,1,-6.2984e-05,-2.3995e-10,0,0.00018322,-0.00013273,-2.5554e+07,-37.528,0,5.0015e+07,-13.974,11951,13059,1,13059,1,0.00071857,-4.6797e-11,0,0.00071857,1.271e-05,7.3033e+07,-6.3773,0,7.9922e+07,-2.173,13058,640.53,0,640.53,0,0.000451,1.6023e-10,0,0.00031636,8.3966e-05,7.707e+07,23.647,0,3.6909e+07,10.349,640.53,1
2054,2.96,12506,1,12506,1,0.0003289,3.069e-10,0,0.0004606,-6.0256e-05,1.613e+07,47.214,0,6.9761e+07,-3.9368,12505,13656,1,13656,1,0.0010829,8.9853e-10,0,0.0010829,8.0184e-05,8.694e+07,132.44,0,1.7288e+08,7.094,13655,12505,1,12505,1,0.0003289,2.688e-10,0,0.0003921,-6.0204e-05,5.4312e+07,42.827,0,7.1179e+07,-3.2668,12504,11321,1,11321,1,-0.00042514,-4.5941e-11,0,2.8746e-06,-0.00020085,-1.7288e+08,-3.1023,0,2.3381e+06,-18.886,11320,11952,1,11952,1,-6.3198e-05,1.4165e-10,0,0.00018384,-0.00013318,-2.5641e+07,26.102,0,5.0185e+07,-6.6549,11951,13059,1,13059,1,0.000721,4.1433e-10,0,0.000721,1.2753e-05,7.3281e+07,64.582,0,8.0193e+07,-0.6126,13058,640.53,0,640.53,0,0.00045253,2.0651e-10,0,0.00031743,8.4251e-05,7.7331e+07,29.241,0,3.7035e+07,4.3177,640.53,1
2054,2.97,12506,1,12506,1,0.00033001,7.2917e-11,0,0.00046215,-6.0459e-05,1.6184e+07,10.894,0,6.9996e+07,-4.5869,12505,13656,1,13656,1,0.0010866,7.8079e-10,0,0.0010866,8.0455e-05,8.7233e+07,115.77,0,1.7347e+08,15.068,13655,12505,1,12505,1,0.00033001,3.7301e-12,0,0.00039342,-6.0408e-05,5.4496e+07,0.5805,0,7.1419e+07,-2.2849,12504,11321,1,11321,1,-0.00042657,-1.122e-10,0,2.8843e-06,-0.00020153,-1.7347e+08,-21.665,0,2.346e+06,-29.223,11320,11952,1,11952,1,-6.3411e-05,-2.5711e-11,0,0.00018447,-0.00013363,-2.5728e+07,-3.5525,0,5.0354e+07,-9.0029,11951,13059,1,13059,1,0.00072344,1.0246e-10,0,0.00072344,1.2796e-05,7.3528e+07,16.985,0,8.0464e+07,-0.088072,13058,640.53,0,640.53,0,0.00045406,1.7278e-10,0,0.0003185,8.4535e-05,7.7592e+07,24.624,0,3.716e+07,6.7626,640.53,1
2054,2.98,12506,1,12506,1,0.00033112,2.3915e-10,0,0.00046371,-6.0662e-05,1.6239e+07,36.303,0,7.0231e+07,-10.803,12505,13656,1,13656,1,0.0010903,1.1502e-09,0,0.0010903,8.0725e-05,8.7526e+07,174.27,0,1.7405e+08,13.988,13655,12505,1,12505,1,0.00033112,1.7336e-10,0,0.00039475,-6.0611e-05,5.4679e+07,30.283,0,7.1659e+07,-8.6329,12504,11321,1,11321,1,-0.00042801,-7.2289e-10,0,2.8938e-06,-0.0002022,-1.7405e+08,-104.05,0,2.3538e+06,-31.722,11320,11952,1,11952,1,-6.3624e-05,-2.8108e-11,0,0.00018508,-0.00013408,-2.5814e+07,-4.0107,0,5.0523e+07,-17.935,11951,13059,1,13059,1,0.00072587,5.7954e-10,0,0.00072587,1.2839e-05,7.3775e+07,86.485,0,8.0735e+07,-4.821,13058,640.53,0,640.53,0,0.00045559,4.1871e-10,0,0.00031957,8.4819e-05,7.7853e+07,62.181,0,3.7284e+07,8.4039,640.53,1
2054,2.99,12506,1,12506,1,0.00033224,-4.9927e-12,0,0.00046527,-6.0867e-05,1.6294e+07,-2.2749,0,7.0468e+07,-6.1447,12505,13656,1,13656,1,0.0010939,5.509e-10,0,0.0010939,8.0997e-05,8.7821e+07,78.41,0,1.7464e+08,4.1836,13655,12505,1,12505,1,0.00033224,-3.1086e-11,0,0.00039608,-6.0815e-05,5.4863e+07,-4.6427,0,7.19e+07,-4.672,12504,11321,1,11321,1,-0.00042945,-3.2615e-10,0,2.9037e-06,-0.00020288,-1.7464e+08,-48.579,0,2.3618e+06,-25.137,11320,11952,1,11952,1,-6.3839e-05,-1.0656e-10,0,0.00018571,-0.00013453,-2.5901e+07,-18.473,0,5.0693e+07,-8.4072,11951,13059,1,13059,1,0.00072831,5.8451e-11,0,0.00072831,1.2882e-05,7.4024e+07,9.6741,0,8.1006e+07,-2.6954,13058,640.53,0,640.53,0,0.00045712,1.6295e-10,0,0.00032065,8.5105e-05,7.8115e+07,23.452,0,3.741e+07,4.7307,640.53,1
2054,3,12506,1,12506,1,0.00033334,3.3031e-10,0,0.00046682,-6.1069e-05,1.6348e+07,50.242,0,7.0702e+07,-8.579,12505,13656,1,13656,1,0.0010976,1.2369e-09,0,0.0010976,8.1267e-05,8.8114e+07,186.09,0,1.7522e+08,19.372,13655,12505,1,12505,1,0.00033334,2.6064e-10,0,0.00039739,-6.1017e-05,5.5046e+07,44.711,0,7.214e+07,-7.271,12504,11321,1,11321,1,-0.00043088,-5.6335e-10,0,2.9134e-06,-0.00020356,-1.7522e+08,-81.543,0,2.3697e+06,-34.088,11320,11952,1,11952,1,-6.4051e-05,1.3973e-11,0,0.00018633,-0.00013498,-2.5987e+07,1.5758,0,5.0862e+07,-16.1,11951,13059,1,13059,1,0.00073074,6.6687e-10,0,0.00073074,1.2925e-05,7.427e+07,100.29,0,8.1276e+07,-3.0826,13058,640.53,0,640.53,0,0.00045864,4.1391e-10,0,0.00032172,8.5388e-05,7.8376e+07,61.506,0,3.7535e+07,9.689,640.53,1
2054,3.01,12506,1,12506,1,0.00033446,3.3997e-11,0,0.00046838,-6.1274e-05,1.6403e+07,4.115,0,7.0939e+07,-5.9403,12505,13656,1,13656,1,0.0011012,6.8311e-10,0,0.0011012,8.1539e-05,8.8409e+07,98.896,0,1.7581e+08,5.9731,13655,12505,1,12505,1,0.00033446,1.0106e-11,0,0.00039872,-6.1222e-05,5.523e+07,1.6076,0,7.2381e+07,-5.6463,12504,11321,1,11321,1,-0.00043232,-4.8508e-10,0,2.9232e-06,-0.00020424,-1.7581e+08,-72.2,0,2.3776e+06,-21.104,11320,11952,1,11952,1,-6.4266e-05,-1.0965e-10,0,0.00018695,-0.00013543,-2.6074e+07,-18.631,0,5.1032e+07,-7.7103,11951,13059,1,13059,1,0.00073318,1.5803e-10,0,0.00073318,1.2968e-05,7.4519e+07,25.423,0,8.1548e+07,-3.0329,13058,640.53,0,640.53,0,0.00046018,2.3107e-10,0,0.00032279,8.5674e-05,7.8638e+07,33.877,0,3.766e+07,3.787,640.53,1
2054,3.02,12506,1,12506,1,0.00033557,-7.9719e-11,0,0.00046994,-6.1477e-05,1.6457e+07,-13.754,0,7.1175e+07,-3.6175,12505,13656,1,13656,1,0.0011049,3.1663e-10,0,0.0011049,8.181e-05,8.8702e+07,45.598,0,1.7639e+08,8.0825,13655,12505,1,12505,1,0.00033557,-8.589e-11,0,0.00040005,-6.1425e-05,5.5413e+07,-15.607,0,7.2621e+07,-1.5978,12504,11321,1,11321,1,-0.00043376,-3.2207e-10,0,2.9329e-06,-0.00020492,-1.7639e+08,-53.243,0,2.3855e+06,-25.099,11320,11952,1,11952,1,-6.4479e-05,-1.4745e-10,0,0.00018757,-0.00013588,-2.6161e+07,-24.28,0,5.1202e+07,-7.6823,11951,13059,1,13059,1,0.00073562,-4.0037e-11,0,0.00073562,1.3011e-05,7.4766e+07,-5.4517,0,8.1819e+07,1.3711,13058,640.53,0,640.53,0,0.00046171,9.5459e-11,0,0.00032387,8.5958e-05,7.8899e+07,14.483,0,3.7785e+07,6.8243,640.53,1
2054,3.03,12506,1,12506,1,0.00033668,1.509e-10,0,0.00047149,-6.168e-05,1.6511e+07,21.741,0,7.141e+07,-11.395,12505,13656,1,13656,1,0.0011085,1.1734e-09,0,0.0011085,8.208e-05,8.8995e+07,175.34,0,1.7697e+08,16.919,13655,12505,1,12505,1,0.00033668,1.1384e-10,0,0.00040137,-6.1628e-05,5.5596e+07,18.79,0,7.2861e+07,-9.1548,12504,11321,1,11321,1,-0.00043519,-1.0512e-09,0,2.9425e-06,-0.0002056,-1.7697e+08,-154.57,0,2.3934e+06,-36.391,11320,11952,1,11952,1,-6.4692e-05,-1.3699e-10,0,0.00018819,-0.00013633,-2.6247e+07,-22.665,0,5.1371e+07,-19.955,11951,13059,1,13059,1,0.00073805,5.4276e-10,0,0.00073805,1.3054e-05,7.5013e+07,80.62,0,8.2089e+07,-4.1629,13058,640.53,0,640.53,0,0.00046323,4.8749e-10,0,0.00032494,8.6242e-05,7.916e+07,72.818,0,3.791e+07,10.337,640.53,1
2054,3.04,12506,1,12506,1,0.00033779,-1.4548e-10,0,0.00047305,-6.1884e-05,1.6566e+07,-24.017,0,7.1646e+07,-6.0761,12505,13656,1,13656,1,0.0011122,4.3489e-10,0,0.0011122,8.2351e-05,8.9289e+07,63.264,0,1.7756e+08,4.9042,13655,12505,1,12505,1,0.00033779,-1.3481e-10,0,0.0004027,-6.1831e-05,5.578e+07,-23.781,0,7.3102e+07,-4.0578,12504,11321,1,11321,1,-0.00043663,-5.6731e-10,0,2.9523e-06,-0.00020628,-1.7756e+08,-85.298,0,2.4013e+06,-29.025,11320,11952,1,11952,1,-6.4906e-05,-2.9654e-10,0,0.00018881,-0.00013678,-2.6334e+07,-47.116,0,5.1541e+07,-8.131,11951,13059,1,13059,1,0.00074049,-1.8926e-11,0,0.00074049,1.3097e-05,7.5261e+07,-1.905,0,8.2361e+07,-2.2094,13058,640.53,0,640.53,0,0.00046476,2.009e-10,0,0.00032601,8.6527e-05,7.9421e+07,30.042,0,3.8035e+07,5.5622,640.53,1
2054,3.05,12506,1,12506,1,0.0003389,1.3694e-10,0,0.0004746,-6.2088e-05,1.662e+07,20.817,0,7.1881e+07,-4.4403,12505,13656,1,13656,1,0.0011159,7.6881e-10,0,0.0011159,8.2622e-05,8.9583e+07,115.65,0,1.7814e+08,6.9886,13655,12505,1,12505,1,0.0003389,6.49e-11,0,0.00040402,-6.2035e-05,5.5964e+07,11.072,0,7.3342e+07,-3.2782,12504,11321,1,11321,1,-0.00043806,-1.0648e-10,0,2.9621e-06,-0.00020695,-1.7814e+08,-15.883,0,2.4092e+06,-20.115,11320,11952,1,11952,1,-6.5119e-05,3.4641e-12,0,0.00018943,-0.00013723,-2.6421e+07,0.33054,0,5.171e+07,-7.2762,11951,13059,1,13059,1,0.00074292,2.1259e-10,0,0.00074292,1.314e-05,7.5509e+07,35.642,0,8.2631e+07,-0.94642,13058,640.53,0,640.53,0,0.00046629,1.9197e-10,0,0.00032708,8.6812e-05,7.9682e+07,27.743,0,3.816e+07,4.2911,640.53,1
2054,3.06,12506,1,12506,1,0.00034001,8.5396e-11,0,0.00047616,-6.2291e-05,1.6675e+07,12.537,0,7.2117e+07,-4.2929,12505,13656,1,13656,1,0.0011195,3.2303e-10,0,0.0011195,8.2892e-05,8.9876e+07,49.023,0,1.7872e+08,10.261,13655,12505,1,12505,1,0.00034001,7.1412e-11,0,0.00040534,-6.2238e-05,5.6147e+07,10.588,0,7.3583e+07,-3.8435,12504,11321,1,11321,1,-0.0004395,-2.9991e-11,0,2.9717e-06,-0.00020763,-1.7872e+08,-10.259,0,2.4171e+06,-18.745,11320,11952,1,11952,1,-6.5332e-05,3.3112e-11,0,0.00019005,-0.00013768,-2.6507e+07,5.4236,0,5.188e+07,-8.945,11951,13059,1,13059,1,0.00074535,1.3334e-10,0,0.00074535,1.3183e-05,7.5756e+07,18.917,0,8.2902e+07,0.19009,13058,640.53,0,640.53,0,0.00046782,6.6085e-11,0,0.00032815,8.7096e-05,7.9943e+07,9.3084,0,3.8285e+07,5.9466,640.53,1
2054,3.07,12506,1,12506,1,0.00034113,-7.2539e-12,0,0.00047772,-6.2495e-05,1.673e+07,-2.5873,0,7.2353e+07,-7.165,12505,13656,1,13656,1,0.0011232,6.5194e-10,0,0.0011232,8.3164e-05,9.0171e+07,93.452,0,1.7931e+08,5.8127,13655,12505,1,12505,1,0.00034113,-1.4255e-11,0,0.00040667,-6.2442e-05,5.6331e+07,-1.3795,0,7.3824e+07,-6.1881,12504,11321,1,11321,1,-0.00044094,-6.555e-10,0,2.9814e-06,-0.00020831,-1.7931e+08,-96.847,0,2.425e+06,-25.432,11320,11952,1,11952,1,-6.5547e-05,-1.3467e-10,0,0.00019068,-0.00013813,-2.6594e+07,-22.714,0,5.205e+07,-9.4553,11951,13059,1,13059,1,0.0007478,1.134e-10,0,0.0007478,1.3227e-05,7.6004e+07,17.908,0,8.3174e+07,-3.6601,13058,640.53,0,640.53,0,0.00046935,2.4024e-10,0,0.00032923,8.7382e-05,8.0206e+07,35.192,0,3.8411e+07,4.7834,640.53,1
2054,3.08,12506,1,12506,1,0.00034223,3.7382e-10,0,0.00047927,-6.2698e-05,1.6784e+07,57.27,0,7.2588e+07,-8.7357,12505,13656,1,13656,1,0.0011268,1.4044e-09,0,0.0011268,8.3434e-05,9.0464e+07,210.33,0,1.7989e+08,18.041,13655,12505,1,12505,1,0.00034223,2.9061e-10,0,0.00040799,-6.2645e-05,5.6514e+07,50.101,0,7.4063e+07,-7.1335,12504,11321,1,11321,1,-0.00044237,-6.2617e-10,0,2.9912e-06,-0.00020899,-1.7989e+08,-89.711,0,2.4329e+06,-30.911,11320,11952,1,11952,1,-6.5759e-05,2.2732e-11,0,0.0001913,-0.00013858,-2.668e+07,2.6622,0,5.2219e+07,-16.446,11951,13059,1,13059,1,0.00075023,7.6409e-10,0,0.00075023,1.327e-05,7.6251e+07,114.73,0,8.3444e+07,-2.4344,13058,640.53,0,640.53,0,0.00047088,4.682e-10,0,0.0003303,8.7665e-05,8.0466e+07,69.489,0,3.8536e+07,9.6271,640.53,1
2054,3.09,12506,1,12506,1,0.00034335,4.5402e-11,0,0.00048083,-6.2902e-05,1.6838e+07,5.9576,0,7.2824e+07,-4.6029,12505,13656,1,13656,1,0.0011305,6.5625e-10,0,0.0011305,8.3705e-05,9.0758e+07,95.549,0,1.8048e+08,8.0229,13655,12505,1,12505,1,0.00034335,3.8492e-12,0,0.00040932,-6.2848e-05,5.6698e+07,0.64315,0,7.4304e+07,-4.0901,12504,11321,1,11321,1,-0.00044381,-3.7313e-10,0,3.0009e-06,-0.00020967,-1.8048e+08,-56.04,0,2.4408e+06,-15.948,11320,11952,1,11952,1,-6.5973e-05,-1.0359e-10,0,0.00019192,-0.00013903,-2.6767e+07,-17.615,0,5.2389e+07,-6.981,11951,13059,1,13059,1,0.00075267,1.6958e-10,0,0.00075267,1.3313e-05,7.6499e+07,26.948,0,8.3715e+07,-2.1177,13058,640.53,0,640.53,0,0.00047241,2.217e-10,0,0.00033137,8.7951e-05,8.0727e+07,32.354,0,3.8661e+07,3.5295,640.53,1
2054,3.1,12506,1,12506,1,0.00034446,1.8203e-10,0,0.00048238,-6.3106e-05,1.6893e+07,27.875,0,7.306e+07,-5.7805,12505,13656,1,13656,1,0.0011342,8.3849e-10,0,0.0011342,8.3976e-05,9.1051e+07,124.05,0,1.8106e+08,6.6832,13655,12505,1,12505,1,0.00034446,1.0435e-10,0,0.00041064,-6.3052e-05,5.6881e+07,17.834,0,7.4545e+07,-4.5339,12504,11321,1,11321,1,-0.00044524,-9.1362e-11,0,3.0105e-06,-0.00021035,-1.8106e+08,-12.156,0,2.4487e+06,-21.061,11320,11952,1,11952,1,-6.6187e-05,2.7326e-11,0,0.00019254,-0.00013948,-2.6854e+07,3.8651,0,5.2558e+07,-7.9137,11951,13059,1,13059,1,0.0007551,2.8641e-10,0,0.0007551,1.3356e-05,7.6747e+07,46.841,0,8.3986e+07,-2.8915,13058,640.53,0,640.53,0,0.00047394,2.0999e-10,0,0.00033244,8.8235e-05,8.0989e+07,30.166,0,3.8786e+07,4.0631,640.53,1
2054,3.11,12506,1,12506,1,0.00034557,2.7222e-10,0,0.00048394,-6.3309e-05,1.6947e+07,42.053,0,7.3295e+07,-6.3611,12505,13656,1,13656,1,0.0011378,9.3894e-10,0,0.0011378,8.4247e-05,9.1345e+07,140.38,0,1.8164e+08,5.5911,13655,12505,1,12505,1,0.00034557,1.9215e-10,0,0.00041197,-6.3255e-05,5.7065e+07,32.195,0,7.4785e+07,-5.2681,12504,11321,1,11321,1,-0.00044668,-3.984e-11,0,3.0202e-06,-0.00021103,-1.8164e+08,-2.6892,0,2.4566e+06,-24.597,11320,11952,1,11952,1,-6.64e-05,1.1661e-10,0,0.00019316,-0.00013993,-2.694e+07,19.597,0,5.2728e+07,-9.8737,11951,13059,1,13059,1,0.00075754,3.855e-10,0,0.00075754,1.3399e-05,7.6994e+07,60.083,0,8.4257e+07,-2.478,13058,640.53,0,640.53,0,0.00047546,2.1667e-10,0,0.00033352,8.852e-05,8.125e+07,31.126,0,3.8911e+07,4.9013,640.53,1
2054,3.12,12506,1,12506,1,0.00034668,9.6817e-11,0,0.00048549,-6.3513e-05,1.7002e+07,14.214,0,7.3531e+07,-6.6702,12505,13656,1,13656,1,0.0011415,6.4465e-10,0,0.0011415,8.4518e-05,9.1639e+07,94.751,0,1.8223e+08,3.9817,13655,12505,1,12505,1,0.00034668,2.6404e-11,0,0.00041329,-6.3458e-05,5.7248e+07,5.0306,0,7.5026e+07,-5.3598,12504,11321,1,11321,1,-0.00044812,-4.0706e-11,0,3.0298e-06,-0.0002117,-1.8223e+08,-5.608,0,2.4645e+06,-25.74,11320,11952,1,11952,1,-6.6614e-05,3.1819e-12,0,0.00019378,-0.00014038,-2.7027e+07,0.40256,0,5.2897e+07,-10.156,11951,13059,1,13059,1,0.00075997,1.3349e-10,0,0.00075997,1.3442e-05,7.7242e+07,21.896,0,8.4528e+07,-2.2576,13058,640.53,0,640.53,0,0.00047699,1.4377e-10,0,0.00033459,8.8804e-05,8.1511e+07,19.949,0,3.9036e+07,5.2374,640.53,1
2054,3.13,12506,1,12506,1,0.00034779,5.2442e-10,0,0.00048705,-6.3716e-05,1.7056e+07,80.724,0,7.3766e+07,-9.3606,12505,13656,1,13656,1,0.0011451,1.6755e-09,0,0.0011451,8.4789e-05,9.1932e+07,250.39,0,1.8281e+08,24.307,13655,12505,1,12505,1,0.00034779,4.239e-10,0,0.00041462,-6.3661e-05,5.7431e+07,72.486,0,7.5266e+07,-8.2639,12504,11321,1,11321,1,-0.00044955,-4.9251e-10,0,3.0397e-06,-0.00021238,-1.8281e+08,-68.847,0,2.4724e+06,-36.616,11320,11952,1,11952,1,-6.6827e-05,1.0596e-10,0,0.0001944,-0.00014083,-2.7113e+07,16.844,0,5.3066e+07,-17.244,11951,13059,1,13059,1,0.00076241,9.5085e-10,0,0.00076241,1.3485e-05,7.7489e+07,141.23,0,8.4799e+07,-3.1982,13058,640.53,0,640.53,0,0.00047852,5.1511e-10,0,0.00033566,8.9089e-05,8.1772e+07,76.178,0,3.9161e+07,11.234,640.53,1
2054,3.14,12506,1,12506,1,0.0003489,-5.3251e-11,0,0.00048861,-6.392e-05,1.7111e+07,-9.5531,0,7.4002e+07,-4.5704,12505,13656,1,13656,1,0.0011488,3.8589e-10,0,0.0011488,8.506e-05,9.2226e+07,56.596,0,1.834e+08,6.0955,13655,12505,1,12505,1,0.0003489,-6.2696e-11,0,0.00041594,-6.3865e-05,5.7615e+07,-11.198,0,7.5507e+07,-2.7957,12504,11321,1,11321,1,-0.00045099,-3.481e-10,0,3.0494e-06,-0.00021306,-1.834e+08,-53.893,0,2.4803e+06,-21.119,11320,11952,1,11952,1,-6.7041e-05,-1.448e-10,0,0.00019502,-0.00014128,-2.72e+07,-23.955,0,5.3236e+07,-6.9408,11951,13059,1,13059,1,0.00076484,6.3363e-12,0,0.00076484,1.3528e-05,7.7737e+07,0.91998,0,8.507e+07,-1.1358,13058,640.53,0,640.53,0,0.00048005,1.3515e-10,0,0.00033673,8.9373e-05,8.2034e+07,19.755,0,3.9286e+07,4.7772,640.53,1
2054,3.15,12506,1,12506,1,0.00035001,3.7653e-11,0,0.00049016,-6.4123e-05,1.7165e+07,5.4546,0,7.4238e+07,-3.5326,12505,13656,1,13656,1,0.0011525,6.181e-10,0,0.0011525,8.5331e-05,9.252e+07,93.149,0,1.8398e+08,9.3641,13655,12505,1,12505,1,0.00035001,-1.1685e-11,0,0.00041727,-6.4069e-05,5.7799e+07,-2.0999,0,7.5747e+07,-1.1936,12504,11321,1,11321,1,-0.00045242,-8.8546e-11,0,3.0591e-06,-0.00021374,-1.8398e+08,-15.589,0,2.4882e+06,-25.599,11320,11952,1,11952,1,-6.7254e-05,-4.4304e-11,0,0.00019564,-0.00014173,-2.7287e+07,-6.1331,0,5.3406e+07,-5.4101,11951,13059,1,13059,1,0.00076728,5.2316e-11,0,0.00076728,1.3571e-05,7.7984e+07,8.3446,0,8.5341e+07,0.090221,13058,640.53,0,640.53,0,0.00048158,1.3682e-10,0,0.0003378,8.9658e-05,8.2295e+07,19.535,0,3.9412e+07,6.0728,640.53,1
2054,3.16,12506,1,12506,1,0.00035112,-2.2045e-11,0,0.00049172,-6.4327e-05,1.722e+07,-3.8994,0,7.4474e+07,-5.0533,12505,13656,1,13656,1,0.0011561,5.9549e-10,0,0.0011561,8.5602e-05,9.2814e+07,88.974,0,1.8456e+08,7.8134,13655,12505,1,12505,1,0.00035112,-4.6604e-11,0,0.00041859,-6.4272e-05,5.7982e+07,-7.9383,0,7.5988e+07,-2.168,12504,11321,1,11321,1,-0.00045386,-3.1382e-10,0,3.0688e-06,-0.00021442,-1.8456e+08,-45.557,0,2.4961e+06,-28.82,11320,11952,1,11952,1,-6.7468e-05,-1.3247e-10,0,0.00019627,-0.00014218,-2.7373e+07,-20.257,0,5.3575e+07,-7.21,11951,13059,1,13059,1,0.00076972,3.577e-11,0,0.00076972,1.3614e-05,7.8232e+07,5.5531,0,8.5612e+07,-1.1208,13058,640.53,0,640.53,0,0.00048311,1.6721e-10,0,0.00033888,8.9943e-05,8.2556e+07,24.248,0,3.9537e+07,6.3117,640.53,1
2054,3.17,12506,1,12506,1,0.00035224,5.2106e-11,0,0.00049327,-6.4531e-05,1.7274e+07,6.8682,0,7.4709e+07,-5.4934,12505,13656,1,13656,1,0.0011598,5.0656e-10,0,0.0011598,8.5872e-05,9.3107e+07,73.926,0,1.8515e+08,4.6115,13655,12505,1,12505,1,0.00035224,-2.5727e-13,0,0.00041992,-6.4475e-05,5.8166e+07,-0.037171,0,7.6228e+07,-3.9581,12504,11321,1,11321,1,-0.0004553,-1.0478e-10,0,3.0785e-06,-0.0002151,-1.8515e+08,-15.059,0,2.504e+06,-23.928,11320,11952,1,11952,1,-6.7681e-05,-1.4881e-11,0,0.00019689,-0.00014263,-2.746e+07,-2.7582,0,5.3745e+07,-8.1358,11951,13059,1,13059,1,0.00077215,7.4945e-11,0,0.00077215,1.3657e-05,7.848e+07,11.751,0,8.5883e+07,-1.8395,13058,640.53,0,640.53,0,0.00048464,1.1434e-10,0,0.00033995,9.0227e-05,8.2817e+07,15.69,0,3.9662e+07,4.786,640.53,1
2054,3.18,12506,1,12506,1,0.00035334,1.4928e-10,0,0.00049483,-6.4734e-05,1.7329e+07,21.916,0,7.4945e+07,-8.1215,12505,13656,1,13656,1,0.0011634,8.8531e-10,0,0.0011634,8.6143e-05,9.3401e+07,132.01,0,1.8573e+08,16.634,13655,12505,1,12505,1,0.00035334,1.0783e-10,0,0.00042124,-6.4678e-05,5.8349e+07,17.679,0,7.6468e+07,-6.4433,12504,11321,1,11321,1,-0.00045673,-6.5837e-10,0,3.0882e-06,-0.00021577,-1.8573e+08,-96.778,0,2.5119e+06,-25.896,11320,11952,1,11952,1,-6.7894e-05,-6.5194e-11,0,0.00019751,-0.00014308,-2.7546e+07,-10.37,0,5.3914e+07,-13.96,11951,13059,1,13059,1,0.00077458,4.2717e-10,0,0.00077458,1.37e-05,7.8727e+07,62.947,0,8.6153e+07,-3.2853,13058,640.53,0,640.53,0,0.00048616,3.4229e-10,0,0.00034102,9.0511e-05,8.3078e+07,50.92,0,3.9787e+07,7.0641,640.53,1
2054,3.19,12506,1,12506,1,0.00035445,1.8485e-11,0,0.00049638,-6.4937e-05,1.7383e+07,1.9822,0,7.518e+07,-2.4384,12505,13656,1,13656,1,0.0011671,2.7431e-10,0,0.0011671,8.6413e-05,9.3694e+07,42.071,0,1.8631e+08,13.001,13655,12505,1,12505,1,0.00035445,-3.0984e-12,0,0.00042256,-6.4881e-05,5.8532e+07,-0.26432,0,7.6708e+07,-2.0048,12504,11321,1,11321,1,-0.00045816,-1.7289e-10,0,3.098e-06,-0.00021645,-1.8631e+08,-25.76,0,2.5198e+06,-9.2068,11320,11952,1,11952,1,-6.8107e-05,-4.5778e-11,0,0.00019813,-0.00014352,-2.7633e+07,-8.2372,0,5.4083e+07,-3.4134,11951,13059,1,13059,1,0.00077701,7.4056e-11,0,0.00077701,1.3743e-05,7.8974e+07,11.171,0,8.6423e+07,-1.2512,13058,640.53,0,640.53,0,0.00048769,9.8075e-11,0,0.00034209,9.0796e-05,8.3339e+07,14.072,0,3.9912e+07,2.1833,640.53,1
2054,3.2,12506,1,12506,1,0.00035557,-1.0975e-10,0,0.00049794,-6.5141e-05,1.7438e+07,-17.78,0,7.5416e+07,-3.7883,12505,13656,1,13656,1,0.0011707,4.9989e-10,0,0.0011707,8.6685e-05,9.3988e+07,74.185,0,1.869e+08,26.374,13655,12505,1,12505,1,0.00035557,-7.8051e-11,0,0.00042389,-6.5085e-05,5.8716e+07,-12.615,0,7.6949e+07,-0.57879,12504,11321,1,11321,1,-0.0004596,-5.7035e-10,0,3.1075e-06,-0.00021713,-1.869e+08,-90.061,0,2.5276e+06,-43.261,11320,11952,1,11952,1,-6.8321e-05,-2.3828e-10,0,0.00019875,-0.00014398,-2.772e+07,-40.398,0,5.4253e+07,-9.0454,11951,13059,1,13059,1,0.00077946,1.4534e-11,0,0.00077946,1.3787e-05,7.9222e+07,1.5285,0,8.6695e+07,3.6053,13058,640.53,0,640.53,0,0.00048922,1.9755e-10,0,0.00034316,9.1081e-05,8.3601e+07,29.882,0,4.0037e+07,12.557,640.53,1
2054,3.21,12506,1,12506,1,0.00035668,1.4935e-10,0,0.0004995,-6.5345e-05,1.7492e+07,21.965,0,7.5652e+07,-6.5198,12505,13656,1,13656,1,0.0011744,5.0328e-10,0,0.0011744,8.6956e-05,9.4282e+07,73.41,0,1.8748e+08,8.8533,13655,12505,1,12505,1,0.00035668,1.1182e-10,0,0.00042521,-6.5289e-05,5.8899e+07,18.754,0,7.719e+07,-6.2733,12504,11321,1,11321,1,-0.00046104,-9.9296e-11,0,3.1173e-06,-0.00021781,-1.8748e+08,-16.432,0,2.5356e+06,-20.972,11320,11952,1,11952,1,-6.8535e-05,3.3657e-11,0,0.00019937,-0.00014443,-2.7806e+07,5.5131,0,5.4423e+07,-9.3753,11951,13059,1,13059,1,0.00078189,2.4851e-10,0,0.00078189,1.383e-05,7.9469e+07,35.946,0,8.6966e+07,-2.87,13058,640.53,0,640.53,0,0.00049075,1.3911e-10,0,0.00034424,9.1366e-05,8.3862e+07,19.252,0,4.0162e+07,4.3023,640.53,1
2054,3.22,12506,1,12506,1,0.00035779,2.7463e-10,0,0.00050105,-6.5548e-05,1.7547e+07,41.826,0,7.5887e+07,-6.975,12505,13656,1,13656,1,0.0011781,1.1237e-09,0,0.0011781,8.7226e-05,9.4575e+07,169.14,0,1.8807e+08,20.24,13655,12505,1,12505,1,0.00035779,2.0724e-10,0,0.00042654,-6.5492e-05,5.9082e+07,35.528,0,7.743e+07,-5.9572,12504,11321,1,11321,1,-0.00046248,-5.4089e-10,0,3.1271e-06,-0.00021849,-1.8807e+08,-77.722,0,2.5435e+06,-24.884,11320,11952,1,11952,1,-6.8748e-05,2.2721e-12,0,0.00019999,-0.00014488,-2.7893e+07,0.361,0,5.4592e+07,-14.091,11951,13059,1,13059,1,0.00078433,5.9081e-10,0,0.00078433,1.3873e-05,7.9717e+07,87.894,0,8.7236e+07,-1.4787,13058,640.53,0,640.53,0,0.00049228,3.8091e-10,0,0.00034531,9.165e-05,8.4123e+07,56.579,0,4.0287e+07,8.566,640.53,1
2054,3.23,12506,1,12506,1,0.0003589,-1.6532e-10,0,0.00050261,-6.5752e-05,1.7601e+07,-27.96,0,7.6124e+07,-3.682,12505,13656,1,13656,1,0.0011817,1.746e-10,0,0.0011817,8.7498e-05,9.487e+07,24.967,0,1.8865e+08,8.8424,13655,12505,1,12505,1,0.0003589,-1.3814e-10,0,0.00042787,-6.5696e-05,5.9267e+07,-26.284,0,7.7671e+07,-2.9559,12504,11321,1,11321,1,-0.00046392,-5.2171e-10,0,3.1368e-06,-0.00021917,-1.8865e+08,-82.042,0,2.5514e+06,-16.705,11320,11952,1,11952,1,-6.8963e-05,-2.6875e-10,0,0.00020061,-0.00014533,-2.798e+07,-45.203,0,5.4762e+07,-5.1055,11951,13059,1,13059,1,0.00078677,-6.2237e-11,0,0.00078677,1.3916e-05,7.9965e+07,-8.2847,0,8.7508e+07,-1.7021,13058,640.53,0,640.53,0,0.00049381,1.4511e-10,0,0.00034639,9.1936e-05,8.4385e+07,23.362,0,4.0413e+07,3.0367,640.53,1
2054,3.24,12506,1,12506,1,0.00036001,1.7461e-10,0,0.00050416,-6.5955e-05,1.7656e+07,25.061,0,7.6359e+07,-10.155,12505,13656,1,13656,1,0.0011854,1.2336e-09,0,0.0011854,8.7768e-05,9.5163e+07,184.07,0,1.8924e+08,20.686,13655,12505,1,12505,1,0.00036001,1.1918e-10,0,0.00042919,-6.5899e-05,5.945e+07,18.799,0,7.7911e+07,-8.6723,12504,11321,1,11321,1,-0.00046535,-9.4808e-10,0,3.1464e-06,-0.00021985,-1.8924e+08,-139.89,0,2.5593e+06,-38.502,11320,11952,1,11952,1,-6.9175e-05,-1.236e-10,0,0.00020123,-0.00014578,-2.8066e+07,-20.436,0,5.4931e+07,-18.458,11951,13059,1,13059,1,0.0007892,5.627e-10,0,0.0007892,1.3959e-05,8.0212e+07,82.108,0,8.7779e+07,-3.5509,13058,640.53,0,640.53,0,0.00049534,4.8115e-10,0,0.00034745,9.2219e-05,8.4646e+07,71.65,0,4.0537e+07,10.382,640.53,1
2054,3.25,12506,1,12506,1,0.00036112,2.0806e-10,0,0.00050572,-6.6159e-05,1.771e+07,31.08,0,7.6594e+07,-9.9032,12505,13656,1,13656,1,0.001189,1.196e-09,0,0.001189,8.8039e-05,9.5457e+07,179.2,0,1.8982e+08,15.223,13655,12505,1,12505,1,0.00036112,1.4786e-10,0,0.00043051,-6.6102e-05,5.9633e+07,24.467,0,7.8151e+07,-7.7159,12504,11321,1,11321,1,-0.00046679,-8.4892e-10,0,3.1562e-06,-0.00022052,-1.8982e+08,-123.11,0,2.5672e+06,-30.708,11320,11952,1,11952,1,-6.9389e-05,-7.6731e-11,0,0.00020185,-0.00014623,-2.8153e+07,-11.929,0,5.5101e+07,-17.264,11951,13059,1,13059,1,0.00079164,5.7447e-10,0,0.00079164,1.4002e-05,8.046e+07,85.145,0,8.8049e+07,-3.662,13058,640.53,0,640.53,0,0.00049687,4.5642e-10,0,0.00034853,9.2504e-05,8.4907e+07,67.752,0,4.0663e+07,8.6977,640.53,1
2054,3.26,12506,1,12506,1,0.00036223,1.7967e-10,0,0.00050728,-6.6362e-05,1.7765e+07,26.616,0,7.683e+07,-10.438,12505,13656,1,13656,1,0.0011927,1.0915e-09,0,0.0011927,8.831e-05,9.575e+07,164.23,0,1.904e+08,17.884,13655,12505,1,12505,1,0.00036223,1.299e-10,0,0.00043184,-6.6305e-05,5.9816e+07,21.898,0,7.8392e+07,-8.5209,12504,11321,1,11321,1,-0.00046822,-8.1227e-10,0,3.1658e-06,-0.0002212,-1.904e+08,-118.92,0,2.575e+06,-33.006,11320,11952,1,11952,1,-6.9602e-05,-7.9727e-11,0,0.00020247,-0.00014668,-2.8239e+07,-12.894,0,5.527e+07,-18.168,11951,13059,1,13059,1,0.00079407,5.2504e-10,0,0.00079407,1.4045e-05,8.0707e+07,78.013,0,8.832e+07,-3.861,13058,640.53,0,640.53,0,0.00049839,4.2259e-10,0,0.0003496,9.2788e-05,8.5168e+07,62.93,0,4.0788e+07,9.4525,640.53,1
2054,3.27,12506,1,12506,1,0.00036334,1.7118e-10,0,0.00050883,-6.6566e-05,1.7819e+07,25.41,0,7.7066e+07,-10.55,12505,13656,1,13656,1,0.0011963,1.1037e-09,0,0.0011963,8.8581e-05,9.6044e+07,165.2,0,1.9099e+08,17.968,13655,12505,1,12505,1,0.00036334,1.3309e-10,0,0.00043316,-6.6509e-05,6e+07,21.519,0,7.8632e+07,-8.6486,12504,11321,1,11321,1,-0.00046966,-9.1325e-10,0,3.1756e-06,-0.00022188,-1.9099e+08,-133.09,0,2.583e+06,-32.07,11320,11952,1,11952,1,-6.9816e-05,-9.2094e-11,0,0.0002031,-0.00014713,-2.8326e+07,-14.985,0,5.544e+07,-18.304,11951,13059,1,13059,1,0.00079651,5.3095e-10,0,0.00079651,1.4088e-05,8.0955e+07,78.917,0,8.8591e+07,-4.0397,13058,640.53,0,640.53,0,0.00049992,4.4622e-10,0,0.00035067,9.3073e-05,8.5429e+07,66.499,0,4.0913e+07,9.4321,640.53,1
2054,3.28,12506,1,12506,1,0.00036446,1.7045e-10,0,0.00051039,-6.677e-05,1.7874e+07,24.288,0,7.7302e+07,-12.243,12505,13656,1,13656,1,0.0012,1.4174e-09,0,0.0012,8.8852e-05,9.6338e+07,211.82,0,1.9157e+08,20.978,13655,12505,1,12505,1,0.00036446,1.2443e-10,0,0.00043449,-6.6713e-05,6.0184e+07,20.223,0,7.8873e+07,-9.6122,12504,11321,1,11321,1,-0.0004711,-1.257e-09,0,3.1853e-06,-0.00022256,-1.9157e+08,-185.67,0,2.5909e+06,-40.092,11320,11952,1,11952,1,-7.003e-05,-1.8511e-10,0,0.00020372,-0.00014758,-2.8413e+07,-30.676,0,5.561e+07,-22.246,11951,13059,1,13059,1,0.00079895,6.4321e-10,0,0.00079895,1.4131e-05,8.1203e+07,95.504,0,8.8863e+07,-3.5938,13058,640.53,0,640.53,0,0.00050145,5.886e-10,0,0.00035175,9.3358e-05,8.5691e+07,88.049,0,4.1038e+07,12.147,640.53,1
2054,3.29,12506,1,12506,1,0.00036557,2.9866e-10,0,0.00051194,-6.6973e-05,1.7928e+07,45.707,0,7.7537e+07,-9.28,12505,13656,1,13656,1,0.0012037,1.295e-09,0,0.0012037,8.9123e-05,9.6631e+07,196.01,0,1.9216e+08,18.663,13655,12505,1,12505,1,0.00036557,2.2817e-10,0,0.00043581,-6.6916e-05,6.0367e+07,39.055,0,7.9113e+07,-7.3727,12504,11321,1,11321,1,-0.00047253,-7.2492e-10,0,3.195e-06,-0.00022324,-1.9216e+08,-104.14,0,2.5988e+06,-29.903,11320,11952,1,11952,1,-7.0243e-05,-8.3912e-12,0,0.00020434,-0.00014802,-2.8499e+07,-0.97922,0,5.5779e+07,-17.106,11951,13059,1,13059,1,0.00080138,6.7706e-10,0,0.00080138,1.4174e-05,8.145e+07,101.16,0,8.9133e+07,-2.9565,13058,640.53,0,640.53,0,0.00050298,4.5873e-10,0,0.00035282,9.3642e-05,8.5952e+07,68.34,0,4.1163e+07,9.3796,640.53,1
2054,3.3,12506,1,12506,1,0.00036668,4.3026e-10,0,0.0005135,-6.7177e-05,1.7983e+07,66.2,0,7.7773e+07,-9.9893,12505,13656,1,13656,1,0.0012073,1.6103e-09,0,0.0012073,8.9394e-05,9.6926e+07,241.43,0,1.9274e+08,19.827,13655,12505,1,12505,1,0.00036668,3.4153e-10,0,0.00043714,-6.7119e-05,6.0551e+07,58.6,0,7.9354e+07,-7.8982,12504,11321,1,11321,1,-0.00047397,-7.8914e-10,0,3.2048e-06,-0.00022392,-1.9274e+08,-112.31,0,2.6067e+06,-36.417,11320,11952,1,11952,1,-7.0457e-05,3.262e-11,0,0.00020496,-0.00014848,-2.8586e+07,3.5684,0,5.5949e+07,-18.431,11951,13059,1,13059,1,0.00080382,8.8314e-10,0,0.00080382,1.4217e-05,8.1698e+07,132.47,0,8.9404e+07,-2.5925,13058,640.53,0,640.53,0,0.00050451,5.4541e-10,0,0.00035389,9.3927e-05,8.6213e+07,81.023,0,4.1288e+07,11.124,640.53,1
2054,3.31,12506,1,12506,1,0.00036779,1.3152e-10,0,0.00051506,-6.738e-05,1.8037e+07,19.586,0,7.8009e+07,-5.5122,12505,13656,1,13656,1,0.001211,7.3083e-10,0,0.001211,8.9665e-05,9.7219e+07,108.4,0,1.9333e+08,9.0881,13655,12505,1,12505,1,0.00036779,7.9657e-11,0,0.00043846,-6.7323e-05,6.0734e+07,13.712,0,7.9595e+07,-5.0299,12504,11321,1,11321,1,-0.0004754,-2.6572e-10,0,3.2144e-06,-0.0002246,-1.9333e+08,-38.402,0,2.6146e+06,-18.72,11320,11952,1,11952,1,-7.067e-05,-9.9029e-12,0,0.00020558,-0.00014893,-2.8673e+07,-1.3776,0,5.6118e+07,-7.1718,11951,13059,1,13059,1,0.00080625,2.4657e-10,0,0.00080625,1.4261e-05,8.1945e+07,39.11,0,8.9675e+07,-2.9906,13058,640.53,0,640.53,0,0.00050604,2.0558e-10,0,0.00035496,9.4212e-05,8.6475e+07,29.672,0,4.1413e+07,3.5788,640.53,1
2054,3.32,12506,1,12506,1,0.0003689,-5.4992e-11,0,0.00051661,-6.7584e-05,1.8092e+07,-10.017,0,7.8244e+07,-4.9253,12505,13656,1,13656,1,0.0012146,2.657e-10,0,0.0012146,8.9936e-05,9.7513e+07,40.106,0,1.9391e+08,7.7377,13655,12505,1,12505,1,0.0003689,-6.5513e-11,0,0.00043979,-6.7526e-05,6.0918e+07,-11.585,0,7.9835e+07,-3.5326,12504,11321,1,11321,1,-0.00047684,-2.4216e-10,0,3.224e-06,-0.00022527,-1.9391e+08,-41.086,0,2.6224e+06,-23.51,11320,11952,1,11952,1,-7.0883e-05,-1.0651e-10,0,0.0002062,-0.00014938,-2.8759e+07,-18.433,0,5.6288e+07,-8.3664,11951,13059,1,13059,1,0.00080869,-3.1831e-11,0,0.00080869,1.4304e-05,8.2193e+07,-3.644,0,8.9946e+07,-0.68861,13058,640.53,0,640.53,0,0.00050757,7.5418e-11,0,0.00035603,9.4497e-05,8.6736e+07,11.768,0,4.1538e+07,5.7594,640.53,1
2054,3.33,12506,1,12506,1,0.00037001,3.4829e-10,0,0.00051817,-6.7788e-05,1.8146e+07,54.294,0,7.848e+07,-2.3353,12505,13656,1,13656,1,0.0012183,1.0683e-09,0,0.0012183,9.0207e-05,9.7807e+07,161.35,0,1.9449e+08,16.96,13655,12505,1,12505,1,0.00037001,3.2255e-10,0,0.00044111,-6.773e-05,6.1101e+07,52.781,0,8.0076e+07,-1.2562,12504,11321,1,11321,1,-0.00047828,-1.4688e-11,0,3.2339e-06,-0.00022595,-1.9449e+08,-0.98369,0,2.6304e+06,-27.77,11320,11952,1,11952,1,-7.1097e-05,1.8129e-10,0,0.00020682,-0.00014983,-2.8846e+07,32.409,0,5.6457e+07,-7.4419,11951,13059,1,13059,1,0.00081113,4.6241e-10,0,0.00081113,1.4347e-05,8.2441e+07,71.717,0,9.0217e+07,2.7929,13058,640.53,0,640.53,0,0.0005091,2.1035e-10,0,0.00035711,9.4781e-05,8.6997e+07,30.461,0,4.1664e+07,8.0363,640.53,1
2054,3.34,12506,1,12506,1,0.00037112,1.0023e-10,0,0.00051973,-6.7991e-05,1.8201e+07,14.753,0,7.8716e+07,-3.8383,12505,13656,1,13656,1,0.001222,5.4632e-10,0,0.001222,9.0477e-05,9.81e+07,81.276,0,1.9508e+08,9.0171,13655,12505,1,12505,1,0.00037112,6.3023e-11,0,0.00044243,-6.7933e-05,6.1285e+07,9.9518,0,8.0316e+07,-2.1393,12504,11321,1,11321,1,-0.00047971,-3.3474e-11,0,3.2435e-06,-0.00022663,-1.9508e+08,-7.4863,0,2.6382e+06,-26.001,11320,11952,1,11952,1,-7.131e-05,3.2332e-11,0,0.00020744,-0.00015027,-2.8933e+07,5.5093,0,5.6627e+07,-6.7114,11951,13059,1,13059,1,0.00081356,1.2834e-10,0,0.00081356,1.439e-05,8.2688e+07,19.38,0,9.0488e+07,0.22953,13058,640.53,0,640.53,0,0.00051063,1.047e-10,0,0.00035818,9.5066e-05,8.7258e+07,14.14,0,4.1789e+07,5.9873,640.53,1
2054,3.35,12506,1,12506,1,0.00037223,-8.8386e-11,0,0.00052128,-6.8194e-05,1.8255e+07,-14.782,0,7.8951e+07,-2.5391,12505,13656,1,13656,1,0.0012256,3.1301e-10,0,0.0012256,9.0748e-05,9.8394e+07,47.052,0,1.9566e+08,13.328,13655,12505,1,12505,1,0.00037223,-9.1122e-11,0,0.00044376,-6.8136e-05,6.1468e+07,-15.019,0,8.0556e+07,-0.35098,12504,11321,1,11321,1,-0.00048115,-3.1133e-10,0,3.2533e-06,-0.00022731,-1.9566e+08,-50.767,0,2.6462e+06,-27.717,11320,11952,1,11952,1,-7.1524e-05,-1.5963e-10,0,0.00020806,-0.00015072,-2.9019e+07,-26.069,0,5.6796e+07,-5.4031,11951,13059,1,13059,1,0.00081599,-3.3934e-11,0,0.00081599,1.4433e-05,8.2935e+07,-5.0582,0,9.0758e+07,1.4696,13058,640.53,0,640.53,0,0.00051215,1.1254e-10,0,0.00035925,9.535e-05,8.7519e+07,16.797,0,4.1914e+07,6.8714,640.53,1
2054,3.36,12506,1,12506,1,0.00037335,-3.2785e-12,0,0.00052284,-6.8398e-05,1.831e+07,-1.3424,0,7.9187e+07,-4.9257,12505,13656,1,13656,1,0.0012293,6.1134e-10,0,0.0012293,9.1019e-05,9.8688e+07,90.47,0,1.9625e+08,11.905,13655,12505,1,12505,1,0.00037335,-4.5128e-11,0,0.00044508,-6.834e-05,6.1652e+07,-7.5038,0,8.0797e+07,-2.8535,12504,11321,1,11321,1,-0.00048258,-2.2072e-10,0,3.263e-06,-0.00022799,-1.9625e+08,-39.43,0,2.6541e+06,-28.03,11320,11952,1,11952,1,-7.1738e-05,-1.2222e-10,0,0.00020869,-0.00015117,-2.9106e+07,-18.201,0,5.6966e+07,-7.6769,11951,13059,1,13059,1,0.00081843,4.4665e-11,0,0.00081843,1.4476e-05,8.3183e+07,7.0822,0,9.103e+07,-0.49026,13058,640.53,0,640.53,0,0.00051368,1.6349e-10,0,0.00036032,9.5635e-05,8.7781e+07,23.408,0,4.2039e+07,6.6906,640.53,1
2054,3.37,12506,1,12506,1,0.00037446,-7.1792e-11,0,0.00052439,-6.8602e-05,1.8364e+07,-12.419,0,7.9422e+07,-6.6242,12505,13656,1,13656,1,0.0012329,4.0136e-10,0,0.0012329,9.129e-05,9.8981e+07,59.016,0,1.9683e+08,6.4954,13655,12505,1,12505,1,0.00037446,-8.1743e-11,0,0.00044641,-6.8543e-05,6.1835e+07,-14.215,0,8.1037e+07,-5.2469,12504,11321,1,11321,1,-0.00048402,-3.1115e-10,0,3.2726e-06,-0.00022867,-1.9683e+08,-45.812,0,2.6619e+06,-27.25,11320,11952,1,11952,1,-7.1951e-05,-1.852e-10,0,0.00020931,-0.00015162,-2.9192e+07,-28.75,0,5.7135e+07,-8.9168,11951,13059,1,13059,1,0.00082086,-5.8428e-12,0,0.00082086,1.4519e-05,8.343e+07,-0.56936,0,9.13e+07,-2.6528,13058,640.53,0,640.53,0,0.00051521,1.4004e-10,0,0.0003614,9.592e-05,8.8042e+07,20.383,0,4.2164e+07,5.2605,640.53,1
2054,3.38,12506,1,12506,1,0.00037557,3.9184e-10,0,0.00052595,-6.8805e-05,1.8419e+07,60.388,0,7.9658e+07,-8.3753,12505,13656,1,13656,1,0.0012366,1.2978e-09,0,0.0012366,9.1561e-05,9.9275e+07,194.37,0,1.9741e+08,19.927,13655,12505,1,12505,1,0.00037557,3.1439e-10,0,0.00044773,-6.8746e-05,6.2018e+07,54.633,0,8.1277e+07,-6.97,12504,11321,1,11321,1,-0.00048546,-4.7595e-10,0,3.2823e-06,-0.00022934,-1.9741e+08,-67.193,0,2.6698e+06,-30.137,11320,11952,1,11952,1,-7.2164e-05,6.1299e-11,0,0.00020993,-0.00015207,-2.9279e+07,9.8955,0,5.7305e+07,-14.977,11951,13059,1,13059,1,0.0008233,7.4467e-10,0,0.0008233,1.4562e-05,8.3678e+07,110.57,0,9.1571e+07,-3.0179,13058,640.53,0,640.53,0,0.00051674,4.1533e-10,0,0.00036247,9.6204e-05,8.8303e+07,61.605,0,4.2289e+07,8.8933,640.53,1
2054,3.39,12506,1,12506,1,0.00037668,7.0568e-11,0,0.00052751,-6.9009e-05,1.8473e+07,10.201,0,7.9894e+07,-4.4576,12505,13656,1,13656,1,0.0012403,7.315e-10,0,0.0012403,9.1832e-05,9.9569e+07,107.73,0,1.98e+08,8.1009,13655,12505,1,12505,1,0.00037668,1.0731e-11,0,0.00044906,-6.895e-05,6.2202e+07,1.1148,0,8.1518e+07,-3.2056,12504,11321,1,11321,1,-0.00048689,-1.641e-10,0,3.2921e-06,-0.00023002,-1.98e+08,-25.133,0,2.6777e+06,-23.561,11320,11952,1,11952,1,-7.2378e-05,-5.2047e-11,0,0.00021055,-0.00015252,-2.9366e+07,-8.9409,0,5.7475e+07,-6.8181,11951,13059,1,13059,1,0.00082574,1.3536e-10,0,0.00082574,1.4605e-05,8.3926e+07,22.768,0,9.1843e+07,-0.79679,13058,640.53,0,640.53,0,0.00051827,1.8773e-10,0,0.00036354,9.6489e-05,8.8565e+07,26.75,0,4.2414e+07,5.2195,640.53,1
2054,3.4,12506,1,12506,1,0.00037779,1.295e-10,0,0.00052906,-6.9212e-05,1.8528e+07,18.462,0,8.013e+07,-5.9602,12505,13656,1,13656,1,0.0012439,5.8085e-10,0,0.0012439,9.2103e-05,9.9863e+07,83.155,0,1.9858e+08,8.2273,13655,12505,1,12505,1,0.00037779,7.7232e-11,0,0.00045038,-6.9153e-05,6.2386e+07,13.101,0,8.1759e+07,-5.3779,12504,11321,1,11321,1,-0.00048833,-1.7106e-10,0,3.3016e-06,-0.0002307,-1.9858e+08,-25.632,0,2.6856e+06,-19.22,11320,11952,1,11952,1,-7.2591e-05,-1.4862e-11,0,0.00021117,-0.00015297,-2.9452e+07,-1.1905,0,5.7644e+07,-8.429,11951,13059,1,13059,1,0.00082817,2.5114e-10,0,0.00082817,1.4648e-05,8.4173e+07,36.656,0,9.2113e+07,-3.3338,13058,640.53,0,640.53,0,0.0005198,1.7473e-10,0,0.00036461,9.6774e-05,8.8826e+07,24.684,0,4.2539e+07,3.6519,640.53,1
2054,3.41,12506,1,12506,1,0.0003789,1.2477e-10,0,0.00053062,-6.9416e-05,1.8582e+07,18.441,0,8.0365e+07,-7.1824,12505,13656,1,13656,1,0.0012476,6.0409e-10,0,0.0012476,9.2373e-05,1.0016e+08,90.053,0,1.9917e+08,8.0752,13655,12505,1,12505,1,0.0003789,8.027e-11,0,0.00045171,-6.9357e-05,6.2569e+07,13.329,0,8.1999e+07,-6.455,12504,11321,1,11321,1,-0.00048976,-1.2768e-10,0,3.3112e-06,-0.00023138,-1.9917e+08,-18.254,0,2.6934e+06,-21.197,11320,11952,1,11952,1,-7.2805e-05,1.3393e-11,0,0.00021179,-0.00015342,-2.9539e+07,1.8567,0,5.7813e+07,-9.5469,11951,13059,1,13059,1,0.00083061,1.9248e-10,0,0.00083061,1.4691e-05,8.4421e+07,29.559,0,9.2384e+07,-4.2237,13058,640.53,0,640.53,0,0.00052133,1.4895e-10,0,0.00036569,9.7058e-05,8.9087e+07,20.831,0,4.2664e+07,4.2591,640.53,1
2054,3.42,12506,1,12506,1,0.00038001,-6.4981e-11,0,0.00053218,-6.962e-05,1.8637e+07,-11.316,0,8.0601e+07,-5.2739,12505,13656,1,13656,1,0.0012512,3.8961e-10,0,0.0012512,9.2645e-05,1.0045e+08,57.387,0,1.9975e+08,7.0247,13655,12505,1,12505,1,0.00038001,-7.2783e-11,0,0.00045303,-6.956e-05,6.2753e+07,-13.467,0,8.224e+07,-3.1505,12504,11321,1,11321,1,-0.0004912,-3.7572e-10,0,3.3212e-06,-0.00023206,-1.9975e+08,-54.028,0,2.7014e+06,-27.447,11320,11952,1,11952,1,-7.3019e-05,-1.4954e-10,0,0.00021241,-0.00015387,-2.9626e+07,-24.611,0,5.7983e+07,-7.626,11951,13059,1,13059,1,0.00083305,-1.3729e-11,0,0.00083305,1.4734e-05,8.4669e+07,-1.4324,0,9.2655e+07,-1.2588,13058,640.53,0,640.53,0,0.00052286,1.2558e-10,0,0.00036676,9.7343e-05,8.9349e+07,18.124,0,4.279e+07,5.7475,640.53,1
2054,3.43,12506,1,12506,1,0.00038113,5.1289e-10,0,0.00053373,-6.9823e-05,1.8691e+07,78.529,0,8.0837e+07,-14.73,12505,13656,1,13656,1,0.0012549,2.1169e-09,0,0.0012549,9.2916e-05,1.0074e+08,318.52,0,2.0034e+08,31.384,13655,12505,1,12505,1,0.00038113,4.0582e-10,0,0.00045436,-6.9764e-05,6.2936e+07,68.559,0,8.248e+07,-12.297,12504,11321,1,11321,1,-0.00049264,-1.1735e-09,0,3.3308e-06,-0.00023274,-2.0034e+08,-168.21,0,2.7093e+06,-52.1,11320,11952,1,11952,1,-7.3232e-05,6.3521e-12,0,0.00021304,-0.00015433,-2.9712e+07,0.67185,0,5.8153e+07,-28.454,11951,13059,1,13059,1,0.00083549,1.1215e-09,0,0.00083549,1.4777e-05,8.4917e+07,167.38,0,9.2927e+07,-4.1558,13058,640.53,0,640.53,0,0.00052439,7.3838e-10,0,0.00036783,9.7628e-05,8.961e+07,110.1,0,4.2915e+07,16.92,640.53,1
2054,3.44,12506,1,12506,1,0.00038224,1.0527e-10,0,0.00053529,-7.0027e-05,1.8746e+07,15.445,0,8.1073e+07,-6.0058,12505,13656,1,13656,1,0.0012585,6.679e-10,0,0.0012585,9.3186e-05,1.0104e+08,97.997,0,2.0092e+08,5.8498,13655,12505,1,12505,1,0.00038224,4.6112e-11,0,0.00045568,-6.9967e-05,6.312e+07,7.7486,0,8.2721e+07,-4.18,12504,11321,1,11321,1,-0.00049408,-1.1757e-10,0,3.3406e-06,-0.00023342,-2.0092e+08,-16.244,0,2.7172e+06,-25.722,11320,11952,1,11952,1,-7.3446e-05,3.4435e-12,0,0.00021366,-0.00015477,-2.9799e+07,0.39995,0,5.8322e+07,-8.2909,11951,13059,1,13059,1,0.00083792,1.5524e-10,0,0.00083792,1.4821e-05,8.5164e+07,25.007,0,9.3197e+07,-2.1436,13058,640.53,0,640.53,0,0.00052591,1.5309e-10,0,0.0003689,9.7912e-05,8.9871e+07,21.184,0,4.304e+07,5.2184,640.53,1
2054,3.45,12506,1,12506,1,0.00038335,-3.0043e-11,0,0.00053684,-7.023e-05,1.88e+07,-5.9099,0,8.1308e+07,-6.896,12505,13656,1,13656,1,0.0012622,4.5571e-10,0,0.0012622,9.3457e-05,1.0133e+08,67.829,0,2.015e+08,7.3382,13655,12505,1,12505,1,0.00038335,-5.1072e-11,0,0.000457,-7.017e-05,6.3303e+07,-8.8791,0,8.2961e+07,-5.7081,12504,11321,1,11321,1,-0.00049551,-2.4825e-10,0,3.3502e-06,-0.00023409,-2.015e+08,-37.285,0,2.7251e+06,-26.69,11320,11952,1,11952,1,-7.3659e-05,-1.2511e-10,0,0.00021428,-0.00015522,-2.9885e+07,-20.598,0,5.8492e+07,-9.5201,11951,13059,1,13059,1,0.00084035,2.0971e-11,0,0.00084035,1.4864e-05,8.5411e+07,3.4,0,9.3468e+07,-2.8428,13058,640.53,0,640.53,0,0.00052744,1.3644e-10,0,0.00036997,9.8197e-05,9.0132e+07,19.81,0,4.3165e+07,5.1448,640.53,1
2054,3.46,12506,1,12506,1,0.00038446,7.4911e-11,0,0.0005384,-7.0434e-05,1.8854e+07,10.957,0,8.1544e+07,-4.8717,12505,13656,1,13656,1,0.0012659,6.3741e-10,0,0.0012659,9.3728e-05,1.0162e+08,95.099,0,2.0209e+08,12.151,13655,12505,1,12505,1,0.00038446,2.6172e-11,0,0.00045833,-7.0373e-05,6.3486e+07,5.045,0,8.3201e+07,-3.9934,12504,11321,1,11321,1,-0.00049695,-3.0877e-10,0,3.3601e-06,-0.00023477,-2.0209e+08,-43.815,0,2.733e+06,-19.602,11320,11952,1,11952,1,-7.3872e-05,-4.4215e-11,0,0.0002149,-0.00015567,-2.9972e+07,-7.3147,0,5.8661e+07,-6.7015,11951,13059,1,13059,1,0.00084279,1.6163e-10,0,0.00084279,1.4907e-05,8.5659e+07,26.701,0,9.3739e+07,-2.1225,13058,640.53,0,640.53,0,0.00052897,1.9008e-10,0,0.00037105,9.8481e-05,9.0393e+07,27.312,0,4.329e+07,3.9604,640.53,1
2054,3.47,12506,1,12506,1,0.00038557,1.1245e-10,0,0.00053995,-7.0637e-05,1.8909e+07,16.789,0,8.1779e+07,-4.5646,12505,13656,1,13656,1,0.0012695,5.7512e-10,0,0.0012695,9.3998e-05,1.0192e+08,86.813,0,2.0267e+08,12.536,13655,12505,1,12505,1,0.00038557,6.1207e-11,0,0.00045965,-7.0577e-05,6.367e+07,10.447,0,8.3441e+07,-4.0277,12504,11321,1,11321,1,-0.00049838,-1.7665e-10,0,3.3698e-06,-0.00023545,-2.0267e+08,-24.952,0,2.7409e+06,-15.529,11320,11952,1,11952,1,-7.4086e-05,-4.1898e-12,0,0.00021552,-0.00015612,-3.0059e+07,-0.62766,0,5.8831e+07,-6.08,11951,13059,1,13059,1,0.00084522,2.0585e-10,0,0.00084522,1.495e-05,8.5906e+07,32.977,0,9.4009e+07,-2.4323,13058,640.53,0,640.53,0,0.0005305,1.6931e-10,0,0.00037212,9.8765e-05,9.0654e+07,24.252,0,4.3415e+07,3.2086,640.53,1
2054,3.48,12506,1,12506,1,0.00038668,4.6328e-11,0,0.00054151,-7.0841e-05,1.8963e+07,5.2896,0,8.2015e+07,-8.3993,12505,13656,1,13656,1,0.0012732,8.9032e-10,0,0.0012732,9.4269e-05,1.0221e+08,131.69,0,2.0325e+08,18.837,13655,12505,1,12505,1,0.00038668,3.6877e-11,0,0.00046098,-7.078e-05,6.3853e+07,5.6223,0,8.3682e+07,-6.8591,12504,11321,1,11321,1,-0.00049982,-1.0076e-09,0,3.3795e-06,-0.00023613,-2.0325e+08,-149.63,0,2.7488e+06,-27.377,11320,11952,1,11952,1,-7.4299e-05,-1.954e-10,0,0.00021614,-0.00015657,-3.0145e+07,-33.279,0,5.9e+07,-15.051,11951,13059,1,13059,1,0.00084766,3.7414e-10,0,0.00084766,1.4993e-05,8.6153e+07,54.571,0,9.428e+07,-2.4835,13058,640.53,0,640.53,0,0.00053203,4.1657e-10,0,0.00037319,9.905e-05,9.0916e+07,62.434,0,4.354e+07,8.4594,640.53,1
2054,3.49,12506,1,12506,1,0.00038779,-1.3981e-10,0,0.00054307,-7.1045e-05,1.9018e+07,-22.944,0,8.2251e+07,-6.7357,12505,13656,1,13656,1,0.0012768,4.7625e-10,0,0.0012768,9.4541e-05,1.0251e+08,70.983,0,2.0384e+08,5.4665,13655,12505,1,12505,1,0.00038779,-1.3856e-10,0,0.00046231,-7.0984e-05,6.4037e+07,-24.509,0,8.3923e+07,-3.971,12504,11321,1,11321,1,-0.00050126,-5.5726e-10,0,3.389e-06,-0.00023681,-2.0384e+08,-82.916,0,2.7567e+06,-32.798,11320,11952,1,11952,1,-7.4513e-05,-2.9046e-10,0,0.00021676,-0.00015702,-3.0232e+07,-45.105,0,5.917e+07,-8.8602,11951,13059,1,13059,1,0.0008501,-2.4788e-11,0,0.0008501,1.5036e-05,8.6402e+07,-4.1447,0,9.4552e+07,-2.1228,13058,640.53,0,640.53,0,0.00053356,1.909e-10,0,0.00037427,9.9336e-05,9.1177e+07,28.378,0,4.3666e+07,6.8696,640.53,1
2054,3.5,12506,1,12506,1,0.0003889,1.9004e-10,0,0.00054462,-7.1248e-05,1.9072e+07,27.886,0,8.2486e+07,-10.258,12505,13656,1,13656,1,0.0012805,1.3908e-09,0,0.0012805,9.4811e-05,1.028e+08,210.16,0,2.0442e+08,17.922,13655,12505,1,12505,1,0.0003889,1.3345e-10,0,0.00046363,-7.1187e-05,6.422e+07,22.721,0,8.4163e+07,-8.6501,12504,11321,1,11321,1,-0.00050269,-1.0812e-09,0,3.3989e-06,-0.00023749,-2.0442e+08,-163.02,0,2.7646e+06,-37.101,11320,11952,1,11952,1,-7.4726e-05,-1.5963e-10,0,0.00021738,-0.00015747,-3.0318e+07,-25.74,0,5.9339e+07,-18.803,11951,13059,1,13059,1,0.00085253,6.3107e-10,0,0.00085253,1.5079e-05,8.6649e+07,94.164,0,9.4822e+07,-1.8869,13058,640.53,0,640.53,0,0.00053509,5.5998e-10,0,0.00037534,9.962e-05,9.1438e+07,83.524,0,4.379e+07,11.006,640.53,1
2054,3.51,12506,1,12506,1,0.00039002,-4.2061e-11,0,0.00054618,-7.1452e-05,1.9127e+07,-8.5736,0,8.2722e+07,-6.2436,12505,13656,1,13656,1,0.0012842,4.8354e-10,0,0.0012842,9.5083e-05,1.0309e+08,68.939,0,2.0501e+08,8.9905,13655,12505,1,12505,1,0.00039002,-4.5874e-11,0,0.00046496,-7.1391e-05,6.4404e+07,-7.8359,0,8.4404e+07,-5.1221,12504,11321,1,11321,1,-0.00050413,-5.6613e-10,0,3.4086e-06,-0.00023817,-2.0501e+08,-85.232,0,2.7725e+06,-23.965,11320,11952,1,11952,1,-7.494e-05,-1.3448e-10,0,0.000218,-0.00015792,-3.0405e+07,-24.054,0,5.9509e+07,-9.9129,11951,13059,1,13059,1,0.00085497,4.14e-11,0,0.00085497,1.5122e-05,8.6897e+07,6.5278,0,9.5094e+07,-1.7433,13058,640.53,0,640.53,0,0.00053662,1.8346e-10,0,0.00037641,9.9905e-05,9.17e+07,27.114,0,4.3916e+07,5.4404,640.53,1
2054,3.52,12506,1,12506,1,0.00039112,2.5468e-10,0,0.00054773,-7.1655e-05,1.9181e+07,38.205,0,8.2957e+07,-8.9948,12505,13656,1,13656,1,0.0012878,1.1996e-09,0,0.0012878,9.5353e-05,1.0339e+08,178.13,0,2.0559e+08,20.997,13655,12505,1,12505,1,0.00039112,1.9218e-10,0,0.00046628,-7.1594e-05,6.4587e+07,34.271,0,8.4644e+07,-7.3255,12504,11321,1,11321,1,-0.00050556,-7.7176e-10,0,3.4183e-06,-0.00023884,-2.0559e+08,-112.18,0,2.7804e+06,-32.911,11320,11952,1,11952,1,-7.5153e-05,-3.3369e-11,0,0.00021862,-0.00015837,-3.0492e+07,-4.5711,0,5.9678e+07,-16.603,11951,13059,1,13059,1,0.0008574,6.1139e-10,0,0.0008574,1.5165e-05,8.7144e+07,90.831,0,9.5364e+07,-3.0324,13058,640.53,0,640.53,0,0.00053814,4.3503e-10,0,0.00037748,0.00010019,9.1961e+07,64.605,0,4.4041e+07,9.7543,640.53,1
2054,3.53,12506,1,12506,1,0.00039224,1.3844e-11,0,0.00054929,-7.1859e-05,1.9236e+07,1.2156,0,8.3193e+07,-4.2959,12505,13656,1,13656,1,0.0012915,5.1497e-10,0,0.0012915,9.5624e-05,1.0368e+08,76.745,0,2.0617e+08,9.6778,13655,12505,1,12505,1,0.00039224,-2.5636e-11,0,0.0004676,-7.1797e-05,6.4771e+07,-4.1219,0,8.4885e+07,-2.5536,12504,11321,1,11321,1,-0.000507,-1.7022e-10,0,3.428e-06,-0.00023952,-2.0617e+08,-24.29,0,2.7883e+06,-25.274,11320,11952,1,11952,1,-7.5367e-05,-7.8226e-11,0,0.00021924,-0.00015882,-3.0578e+07,-12.691,0,5.9848e+07,-6.183,11951,13059,1,13059,1,0.00085984,5.5567e-11,0,0.00085984,1.5208e-05,8.7392e+07,9.1396,0,9.5635e+07,-0.70594,13058,640.53,0,640.53,0,0.00053967,1.3779e-10,0,0.00037855,0.00010047,9.2222e+07,19.477,0,4.4166e+07,5.127,640.53,1
2054,3.54,12506,1,12506,1,0.00039335,-6.9556e-11,0,0.00055085,-7.2062e-05,1.929e+07,-11.499,0,8.3429e+07,-5.0151,12505,13656,1,13656,1,0.0012951,4.6542e-10,0,0.0012951,9.5895e-05,1.0397e+08,70.423,0,2.0676e+08,10.611,13655,12505,1,12505,1,0.00039335,-8.3826e-11,0,0.00046893,-7.2001e-05,6.4954e+07,-15.103,0,8.5125e+07,-2.2396,12504,11321,1,11321,1,-0.00050844,-2.7052e-10,0,3.4376e-06,-0.0002402,-2.0676e+08,-41.599,0,2.7962e+06,-31.065,11320,11952,1,11952,1,-7.558e-05,-1.8719e-10,0,0.00021987,-0.00015927,-3.0665e+07,-27.806,0,6.0017e+07,-7.2075,11951,13059,1,13059,1,0.00086227,-8.7025e-12,0,0.00086227,1.5251e-05,8.7639e+07,-1.0188,0,9.5906e+07,-0.63828,13058,640.53,0,640.53,0,0.0005412,1.4286e-10,0,0.00037963,0.00010076,9.2483e+07,20.628,0,4.4291e+07,7.0439,640.53,1
2054,3.55,12506,1,12506,1,0.00039446,9.2531e-13,0,0.0005524,-7.2266e-05,1.9345e+07,-0.90407,0,8.3665e+07,-5.6425,12505,13656,1,13656,1,0.0012988,3.8848e-10,0,0.0012988,9.6166e-05,1.0427e+08,58.317,0,2.0734e+08,7.6641,13655,12505,1,12505,1,0.00039446,-1.4584e-11,0,0.00047025,-7.2204e-05,6.5138e+07,-2.1446,0,8.5365e+07,-3.9766,12504,11321,1,11321,1,-0.00050987,-1.1464e-10,0,3.4473e-06,-0.00024088,-2.0734e+08,-20.706,0,2.8041e+06,-29.643,11320,11952,1,11952,1,-7.5794e-05,-3.9354e-11,0,0.00022049,-0.00015972,-3.0752e+07,-7.2841,0,6.0187e+07,-9.7156,11951,13059,1,13059,1,0.00086471,3.2666e-12,0,0.00086471,1.5294e-05,8.7887e+07,0.44185,0,9.6177e+07,-0.13214,13058,640.53,0,640.53,0,0.00054273,8.3319e-11,0,0.0003807,0.00010104,9.2745e+07,11.842,0,4.4416e+07,7.4069,640.53,1
2054,3.56,12506,1,12506,1,0.00039557,-5.8967e-11,0,0.00055396,-7.2469e-05,1.9399e+07,-10.308,0,8.39e+07,-2.8911,12505,13656,1,13656,1,0.0013024,2.2698e-10,0,0.0013024,9.6437e-05,1.0456e+08,34.997,0,2.0793e+08,10.785,13655,12505,1,12505,1,0.00039557,-6.3331e-11,0,0.00047158,-7.2407e-05,6.5321e+07,-12.063,0,8.5606e+07,-1.4424,12504,11321,1,11321,1,-0.00051131,-2.2008e-10,0,3.4571e-06,-0.00024156,-2.0793e+08,-34.116,0,2.812e+06,-20.72,11320,11952,1,11952,1,-7.6007e-05,-1.0965e-10,0,0.00022111,-0.00016017,-3.0838e+07,-18.151,0,6.0356e+07,-5.4287,11951,13059,1,13059,1,0.00086714,-3.2136e-11,0,0.00086714,1.5338e-05,8.8134e+07,-4.1803,0,9.6448e+07,0.42415,13058,640.53,0,640.53,0,0.00054426,7.0394e-11,0,0.00038177,0.00010133,9.3006e+07,10.685,0,4.4541e+07,5.0899,640.53,1
2054,3.57,12506,1,12506,1,0.00039668,1.3418e-10,0,0.00055552,-7.2673e-05,1.9454e+07,19.885,0,8.4136e+07,-7.4412,12505,13656,1,13656,1,0.0013061,6.9477e-10,0,0.0013061,9.6708e-05,1.0486e+08,101.97,0,2.0851e+08,7.6284,13655,12505,1,12505,1,0.00039668,8.4155e-11,0,0.0004729,-7.2611e-05,6.5505e+07,14.112,0,8.5847e+07,-6.2241,12504,11321,1,11321,1,-0.00051275,-1.8847e-10,0,3.4668e-06,-0.00024224,-2.0851e+08,-26.504,0,2.8199e+06,-25.15,11320,11952,1,11952,1,-7.6221e-05,1.0392e-11,0,0.00022173,-0.00016062,-3.0925e+07,1.61,0,6.0526e+07,-10.835,11951,13059,1,13059,1,0.00086958,2.1841e-10,0,0.00086958,1.5381e-05,8.8382e+07,33.452,0,9.6719e+07,-3.3107,13058,640.53,0,640.53,0,0.00054579,1.7301e-10,0,0.00038285,0.00010161,9.3267e+07,24.147,0,4.4666e+07,5.0225,640.53,1
2054,3.58,12506,1,12506,1,0.00039779,7.1108e-11,0,0.00055707,-7.2876e-05,1.9508e+07,10.19,0,8.4371e+07,-4.3962,12505,13656,1,13656,1,0.0013098,4.4364e-10,0,0.0013098,9.6978e-05,1.0515e+08,67.161,0,2.0909e+08,10.757,13655,12505,1,12505,1,0.00039779,3.993e-11,0,0.00047422,-7.2814e-05,6.5688e+07,6.6047,0,8.6087e+07,-3.5815,12504,11321,1,11321,1,-0.00051418,-1.7868e-10,0,3.4765e-06,-0.00024291,-2.0909e+08,-25.937,0,2.8278e+06,-17.454,11320,11952,1,11952,1,-7.6434e-05,-1.126e-11,0,0.00022235,-0.00016107,-3.1011e+07,-1.4178,0,6.0696e+07,-6.5172,11951,13059,1,13059,1,0.00087202,1.3249e-10,0,0.00087202,1.5424e-05,8.8629e+07,20.392,0,9.699e+07,-2.0949,13058,640.53,0,640.53,0,0.00054732,1.213e-10,0,0.00038392,0.0001019,9.3528e+07,17.144,0,4.4791e+07,3.3,640.53,1
2054,3.59,12506,1,12506,1,0.0003989,1.334e-10,0,0.00055863,-7.308e-05,1.9563e+07,20.024,0,8.4607e+07,-5.1864,12505,13656,1,13656,1,0.0013134,6.5852e-10,0,0.0013134,9.7249e-05,1.0544e+08,98.099,0,2.0968e+08,9.0784,13655,12505,1,12505,1,0.0003989,6.3993e-11,0,0.00047555,-7.3017e-05,6.5872e+07,11.026,0,8.6327e+07,-3.6913,12504,11321,1,11321,1,-0.00051562,-6.3809e-11,0,3.4862e-06,-0.00024359,-2.0968e+08,-8.3097,0,2.8357e+06,-24.874,11320,11952,1,11952,1,-7.6648e-05,1.9324e-11,0,0.00022297,-0.00016152,-3.1098e+07,3.1648,0,6.0865e+07,-7.4285,11951,13059,1,13059,1,0.00087445,1.9398e-10,0,0.00087445,1.5467e-05,8.8877e+07,31.282,0,9.7261e+07,-1.5969,13058,640.53,0,640.53,0,0.00054884,1.6085e-10,0,0.00038499,0.00010218,9.3789e+07,22.523,0,4.4916e+07,4.6949,640.53,1
2054,3.6,12506,1,12506,1,0.00040001,1.9145e-11,0,0.00056018,-7.3283e-05,1.9617e+07,2.3774,0,8.4843e+07,-4.0937,12505,13656,1,13656,1,0.0013171,5.5583e-10,0,0.0013171,9.752e-05,1.0574e+08,83.274,0,2.1026e+08,9.5761,13655,12505,1,12505,1,0.00040001,-2.012e-11,0,0.00047687,-7.3221e-05,6.6055e+07,-3.4967,0,8.6568e+07,-2.2537,12504,11321,1,11321,1,-0.00051705,-1.5489e-10,0,3.4959e-06,-0.00024427,-2.1026e+08,-27.607,0,2.8436e+06,-24.487,11320,11952,1,11952,1,-7.6861e-05,-7.0634e-11,0,0.00022359,-0.00016197,-3.1185e+07,-10.313,0,6.1035e+07,-6.3523,11951,13059,1,13059,1,0.00087689,4.9271e-11,0,0.00087689,1.551e-05,8.9124e+07,7.9612,0,9.7532e+07,-0.27302,13058,640.53,0,640.53,0,0.00055037,1.3714e-10,0,0.00038606,0.00010247,9.4051e+07,19.315,0,4.5042e+07,5.7965,640.53,1
2054,3.61,12506,1,12506,1,0.00040112,2.9562e-10,0,0.00056174,-7.3487e-05,1.9672e+07,45.664,0,8.5078e+07,-5.0914,12505,13656,1,13656,1,0.0013207,8.5681e-10,0,0.0013207,9.7791e-05,1.0603e+08,123.91,0,2.1085e+08,17.118,13655,12505,1,12505,1,0.00040112,2.382e-10,0,0.0004782,-7.3424e-05,6.6238e+07,40.693,0,8.6807e+07,-4.5287,12504,11321,1,11321,1,-0.00051849,-1.0843e-10,0,3.5056e-06,-0.00024495,-2.1085e+08,-14.134,0,2.8515e+06,-15.271,11320,11952,1,11952,1,-7.7074e-05,8.8037e-11,0,0.00022421,-0.00016242,-3.1271e+07,12.762,0,6.1204e+07,-7.7378,11951,13059,1,13059,1,0.00087932,5.0129e-10,0,0.00087932,1.5553e-05,8.9372e+07,75.89,0,9.7802e+07,-2.6676,13058,640.53,0,640.53,0,0.0005519,2.53e-10,0,0.00038713,0.00010275,9.4311e+07,36.812,0,4.5166e+07,3.9135,640.53,1
2054,3.62,12506,1,12506,1,0.00040223,2.9351e-10,0,0.00056329,-7.369e-05,1.9726e+07,45.618,0,8.5314e+07,-5.7796,12505,13656,1,13656,1,0.0013244,8.6285e-10,0,0.0013244,9.8061e-05,1.0632e+08,125.47,0,2.1143e+08,18.248,13655,12505,1,12505,1,0.00040223,2.455e-10,0,0.00047952,-7.3627e-05,6.6422e+07,42.047,0,8.7048e+07,-4.9442,12504,11321,1,11321,1,-0.00051992,-2.3309e-10,0,3.5152e-06,-0.00024563,-2.1143e+08,-32.271,0,2.8593e+06,-20.091,11320,11952,1,11952,1,-7.7288e-05,7.8302e-11,0,0.00022483,-0.00016287,-3.1358e+07,11.211,0,6.1373e+07,-8.4591,11951,13059,1,13059,1,0.00088175,5.2686e-10,0,0.00088175,1.5596e-05,8.9619e+07,79.608,0,9.8073e+07,-2.8265,13058,640.53,0,640.53,0,0.00055343,2.7328e-10,0,0.0003882,0.00010303,9.4573e+07,40.4,0,4.5292e+07,4.74,640.53,1
2054,3.63,12506,1,12506,1,0.00040335,5.6594e-11,0,0.00056485,-7.3894e-05,1.9781e+07,7.9419,0,8.555e+07,-5.6412,12505,13656,1,13656,1,0.0013281,4.8788e-10,0,0.0013281,9.8332e-05,1.0662e+08,69.252,0,2.1201e+08,15.465,13655,12505,1,12505,1,0.00040335,4.3381e-11,0,0.00048085,-7.3831e-05,6.6605e+07,6.8131,0,8.7288e+07,-5.3323,12504,11321,1,11321,1,-0.00052136,-4.6124e-10,0,3.5247e-06,-0.00024631,-2.1201e+08,-67.827,0,2.8672e+06,-16.97,11320,11952,1,11952,1,-7.7501e-05,-5.5354e-11,0,0.00022545,-0.00016332,-3.1444e+07,-9.0558,0,6.1543e+07,-8.2246,11951,13059,1,13059,1,0.00088419,1.8413e-10,0,0.00088419,1.5639e-05,8.9867e+07,29.813,0,9.8344e+07,-3.0711,13058,640.53,0,640.53,0,0.00055496,2.0478e-10,0,0.00038928,0.00010332,9.4834e+07,29.712,0,4.5417e+07,3.753,640.53,1
2054,3.64,12506,1,12506,1,0.00040446,-6.3177e-11,0,0.0005664,-7.4098e-05,1.9835e+07,-11.77,0,8.5785e+07,-5.487,12505,13656,1,13656,1,0.0013317,3.0803e-10,0,0.0013317,9.8603e-05,1.0691e+08,42.042,0,2.126e+08,18.867,13655,12505,1,12505,1,0.00040446,-4.3606e-11,0,0.00048217,-7.4034e-05,6.6789e+07,-6.4286,0,8.7528e+07,-5.2451,12504,11321,1,11321,1,-0.0005228,-6.003e-10,0,3.5343e-06,-0.00024699,-2.126e+08,-91.039,0,2.875e+06,-15.124,11320,11952,1,11952,1,-7.7714e-05,-1.6232e-10,0,0.00022607,-0.00016377,-3.1531e+07,-28.898,0,6.1712e+07,-7.845,11951,13059,1,13059,1,0.00088663,7.1225e-11,0,0.00088663,1.5682e-05,9.0114e+07,9.7157,0,9.8615e+07,-3.4367,13058,640.53,0,640.53,0,0.00055649,1.9175e-10,0,0.00039035,0.0001036,9.5095e+07,28.775,0,4.5542e+07,3.8038,640.53,1
2054,3.65,12506,1,12506,1,0.00040557,1.7506e-10,0,0.00056796,-7.4301e-05,1.989e+07,26.295,0,8.6021e+07,-6.155,12505,13656,1,13656,1,0.0013354,6.8817e-10,0,0.0013354,9.8874e-05,1.072e+08,96.992,0,2.1318e+08,17.127,13655,12505,1,12505,1,0.00040557,1.2853e-10,0,0.0004835,-7.4238e-05,6.6972e+07,22.008,0,8.7769e+07,-5.6537,12504,11321,1,11321,1,-0.00052423,-2.7167e-10,0,3.5438e-06,-0.00024766,-2.1318e+08,-40.184,0,2.8829e+06,-16.568,11320,11952,1,11952,1,-7.7928e-05,4.4797e-12,0,0.0002267,-0.00016422,-3.1617e+07,0.36297,0,6.1882e+07,-8.9727,11951,13059,1,13059,1,0.00088906,3.5271e-10,0,0.00088906,1.5725e-05,9.0362e+07,53.076,0,9.8886e+07,-3.6729,13058,640.53,0,640.53,0,0.00055802,2.274e-10,0,0.00039142,0.00010389,9.5356e+07,32.822,0,4.5667e+07,3.988,640.53,1
2054,3.66,12506,1,12506,1,0.00040668,5.2642e-10,0,0.00056952,-7.4505e-05,1.9944e+07,82.112,0,8.6257e+07,-8.8329,12505,13656,1,13656,1,0.001339,1.4194e-09,0,0.001339,9.9146e-05,1.075e+08,207.32,0,2.1377e+08,15.139,13655,12505,1,12505,1,0.00040668,4.3037e-10,0,0.00048482,-7.4441e-05,6.7156e+07,74.896,0,8.8009e+07,-7.895,12504,11321,1,11321,1,-0.00052567,-2.7381e-11,0,3.5533e-06,-0.00024834,-2.1377e+08,-1.8395,0,2.8907e+06,-22.846,11320,11952,1,11952,1,-7.8142e-05,2.0134e-10,0,0.00022732,-0.00016467,-3.1704e+07,32.009,0,6.2052e+07,-12.387,11951,13059,1,13059,1,0.0008915,8.3887e-10,0,0.0008915,1.5768e-05,9.061e+07,128.39,0,9.9157e+07,-5.289,13058,640.53,0,640.53,0,0.00055955,3.9009e-10,0,0.0003925,0.00010417,9.5618e+07,57.036,0,4.5792e+07,5.2689,640.53,1
2054,3.67,12506,1,12506,1,0.00040779,4.0845e-10,0,0.00057108,-7.4709e-05,1.9999e+07,62.671,0,8.6493e+07,-9.7231,12505,13656,1,13656,1,0.0013427,1.5777e-09,0,0.0013427,9.9417e-05,1.0779e+08,228.65,0,2.1435e+08,20.525,13655,12505,1,12505,1,0.00040779,3.1093e-10,0,0.00048615,-7.4645e-05,6.734e+07,52.911,0,8.8249e+07,-6.7045,12504,11321,1,11321,1,-0.00052711,-6.4656e-10,0,3.563e-06,-0.00024902,-2.1435e+08,-96.272,0,2.8986e+06,-35.032,11320,11952,1,11952,1,-7.8355e-05,3.3011e-11,0,0.00022794,-0.00016512,-3.1791e+07,3.0295,0,6.2221e+07,-17.035,11951,13059,1,13059,1,0.00089394,8.2533e-10,0,0.00089394,1.5811e-05,9.0858e+07,126.2,0,9.9428e+07,-3.367,13058,640.53,0,640.53,0,0.00056108,5.2395e-10,0,0.00039357,0.00010446,9.5879e+07,77.171,0,4.5917e+07,9.0601,640.53,1
2054,3.68,12506,1,12506,1,0.0004089,3.3839e-10,0,0.00057263,-7.4912e-05,2.0053e+07,52.666,0,8.6728e+07,-7.7132,12505,13656,1,13656,1,0.0013463,9.8346e-10,0,0.0013463,9.9687e-05,1.0809e+08,142.29,0,2.1493e+08,13.099,13655,12505,1,12505,1,0.0004089,2.6643e-10,0,0.00048747,-7.4848e-05,6.7523e+07,46.46,0,8.8489e+07,-7.5245,12504,11321,1,11321,1,-0.00052854,-2.4974e-11,0,3.5724e-06,-0.0002497,-2.1493e+08,-2.2984,0,2.9064e+06,-19.822,11320,11952,1,11952,1,-7.8568e-05,1.1944e-10,0,0.00022856,-0.00016557,-3.1877e+07,19.03,0,6.239e+07,-11.198,11951,13059,1,13059,1,0.00089637,5.1909e-10,0,0.00089637,1.5854e-05,9.1105e+07,82.116,0,9.9699e+07,-4.3281,13058,640.53,0,640.53,0,0.0005626,2.6888e-10,0,0.00039464,0.00010474,9.614e+07,38.838,0,4.6042e+07,4.6439,640.53,1
2054,3.69,12506,1,12506,1,0.00041002,1.4397e-10,0,0.00057419,-7.5116e-05,2.0108e+07,20.096,0,8.6964e+07,-6.9785,12505,13656,1,13656,1,0.00135,8.9728e-10,0,0.00135,9.9958e-05,1.0838e+08,126.58,0,2.1552e+08,18.675,13655,12505,1,12505,1,0.00041001,8.8172e-11,0,0.0004888,-7.5052e-05,6.7707e+07,14.243,0,8.873e+07,-5.8668,12504,11321,1,11321,1,-0.00052998,-5.7853e-10,0,3.5821e-06,-0.00025038,-2.1552e+08,-87.007,0,2.9143e+06,-23.035,11320,11952,1,11952,1,-7.8782e-05,-6.5636e-11,0,0.00022918,-0.00016602,-3.1964e+07,-10.46,0,6.256e+07,-10.701,11951,13059,1,13059,1,0.00089881,3.8118e-10,0,0.00089881,1.5897e-05,9.1353e+07,57.73,0,9.997e+07,-3.3912,13058,640.53,0,640.53,0,0.00056413,3.2477e-10,0,0.00039571,0.00010503,9.6402e+07,47.038,0,4.6168e+07,5.5051,640.53,1
2054,3.7,12506,1,12506,1,0.00041112,2.8921e-10,0,0.00057574,-7.5319e-05,2.0162e+07,44.477,0,8.7199e+07,-3.1557,12505,13656,1,13656,1,0.0013537,8.0246e-10,0,0.0013537,0.00010023,1.0867e+08,115.01,0,2.161e+08,20.752,13655,12505,1,12505,1,0.00041112,2.4085e-10,0,0.00049012,-7.5255e-05,6.789e+07,41.02,0,8.897e+07,-2.6233,12504,11321,1,11321,1,-0.00053141,-5.0315e-11,0,3.5917e-06,-0.00025106,-2.161e+08,-5.6799,0,2.9221e+06,-12.567,11320,11952,1,11952,1,-7.8995e-05,9.5551e-11,0,0.0002298,-0.00016647,-3.205e+07,15.177,0,6.2729e+07,-5.6601,11951,13059,1,13059,1,0.00090124,4.7874e-10,0,0.00090124,1.594e-05,9.16e+07,71.61,0,1.0024e+08,-1.2241,13058,640.53,0,640.53,0,0.00056566,2.2704e-10,0,0.00039678,0.00010531,9.6663e+07,32.884,0,4.6292e+07,3.8316,640.53,1
2054,3.71,12506,1,12506,1,0.00041224,1.4659e-10,0,0.0005773,-7.5523e-05,2.0217e+07,20.773,0,8.7435e+07,-10.482,12505,13656,1,13656,1,0.0013573,1.1439e-09,0,0.0013573,0.0001005,1.0897e+08,163.31,0,2.1669e+08,16.198,13655,12505,1,12505,1,0.00041224,7.9647e-11,0,0.00049145,-7.5459e-05,6.8074e+07,12.359,0,8.921e+07,-8.7308,12504,11321,1,11321,1,-0.00053285,-8.2607e-10,0,3.6012e-06,-0.00025174,-2.1669e+08,-127.01,0,2.93e+06,-31.846,11320,11952,1,11952,1,-7.9208e-05,-1.3525e-10,0,0.00023042,-0.00016692,-3.2137e+07,-21.89,0,6.2899e+07,-15.586,11951,13059,1,13059,1,0.00090369,4.6064e-10,0,0.00090369,1.5983e-05,9.1848e+07,71.462,0,1.0051e+08,-5.4966,13058,640.53,0,640.53,0,0.00056719,4.5018e-10,0,0.00039786,0.0001056,9.6924e+07,65.614,0,4.6418e+07,7.2197,640.53,1
2054,3.72,12506,1,12506,1,0.00041335,2.5212e-10,0,0.00057886,-7.5727e-05,2.0271e+07,37.832,0,8.7671e+07,-7.833,12505,13656,1,13656,1,0.001361,1.1141e-09,0,0.001361,0.00010077,1.0926e+08,158.41,0,2.1727e+08,20.741,13655,12505,1,12505,1,0.00041335,1.8088e-10,0,0.00049277,-7.5662e-05,6.8257e+07,31.351,0,8.9451e+07,-6.1426,12504,11321,1,11321,1,-0.00053429,-5.4074e-10,0,3.6108e-06,-0.00025242,-2.1727e+08,-80.352,0,2.9378e+06,-23.774,11320,11952,1,11952,1,-7.9422e-05,-2.9709e-12,0,0.00023104,-0.00016737,-3.2224e+07,-0.36007,0,6.3069e+07,-13.168,11951,13059,1,13059,1,0.00090612,5.4581e-10,0,0.00090612,1.6027e-05,9.2096e+07,82.984,0,1.0078e+08,-3.5534,13058,640.53,0,640.53,0,0.00056872,3.7834e-10,0,0.00039893,0.00010588,9.7185e+07,55.159,0,4.6543e+07,6.8157,640.53,1
2054,3.73,12506,1,12506,1,0.00041446,1.6933e-10,0,0.00058041,-7.593e-05,2.0326e+07,25.767,0,8.7906e+07,-4.0314,12505,13656,1,13656,1,0.0013646,5.7554e-10,0,0.0013646,0.00010104,1.0955e+08,81.424,0,2.1785e+08,19.07,13655,12505,1,12505,1,0.00041446,1.3614e-10,0,0.00049409,-7.5865e-05,6.844e+07,23.63,0,8.969e+07,-3.4863,12504,11321,1,11321,1,-0.00053572,-2.3503e-10,0,3.6203e-06,-0.00025309,-2.1785e+08,-33.293,0,2.9457e+06,-15.255,11320,11952,1,11952,1,-7.9635e-05,2.5489e-11,0,0.00023166,-0.00016782,-3.231e+07,3.8041,0,6.3238e+07,-6.0089,11951,13059,1,13059,1,0.00090855,3.2517e-10,0,0.00090855,1.607e-05,9.2343e+07,48.526,0,1.0105e+08,-2.0374,13058,640.53,0,640.53,0,0.00057025,1.9067e-10,0,0.0004,0.00010617,9.7446e+07,27.598,0,4.6668e+07,3.6938,640.53,1
2054,3.74,12506,1,12506,1,0.00041557,2.1857e-10,0,0.00058197,-7.6133e-05,2.038e+07,33.143,0,8.8141e+07,-5.0037,12505,13656,1,13656,1,0.0013683,7.401e-10,0,0.0013683,0.00010131,1.0985e+08,104.62,0,2.1844e+08,18.817,13655,12505,1,12505,1,0.00041557,1.7006e-10,0,0.00049542,-7.6068e-05,6.8624e+07,29.136,0,8.9931e+07,-4.2887,12504,11321,1,11321,1,-0.00053716,-2.0253e-10,0,3.6298e-06,-0.00025377,-2.1844e+08,-28.474,0,2.9535e+06,-16.039,11320,11952,1,11952,1,-7.9848e-05,3.8042e-11,0,0.00023228,-0.00016827,-3.2396e+07,6.0139,0,6.3407e+07,-7.5229,11951,13059,1,13059,1,0.00091099,4.0139e-10,0,0.00091099,1.6113e-05,9.259e+07,60.334,0,1.0132e+08,-2.714,13058,640.53,0,640.53,0,0.00057177,2.2763e-10,0,0.00040107,0.00010645,9.7707e+07,32.713,0,4.6793e+07,4.0613,640.53,1
2054,3.75,12506,1,12506,1,0.00041668,2.4665e-10,0,0.00058352,-7.6338e-05,2.0435e+07,37.356,0,8.8378e+07,-8.8323,12505,13656,1,13656,1,0.001372,9.5561e-10,0,0.001372,0.00010158,1.1014e+08,135.18,0,2.1902e+08,15.993,13655,12505,1,12505,1,0.00041668,1.7876e-10,0,0.00049674,-7.6272e-05,6.8808e+07,30.627,0,9.0171e+07,-8.0407,12504,11321,1,11321,1,-0.0005386,-3.3736e-10,0,3.6392e-06,-0.00025445,-2.1902e+08,-47.512,0,2.9613e+06,-23.535,11320,11952,1,11952,1,-8.0062e-05,2.1003e-11,0,0.00023291,-0.00016872,-3.2483e+07,2.9892,0,6.3577e+07,-12.351,11951,13059,1,13059,1,0.00091343,4.7914e-10,0,0.00091343,1.6156e-05,9.2838e+07,72.877,0,1.016e+08,-5.3025,13058,640.53,0,640.53,0,0.00057331,3.0402e-10,0,0.00040215,0.00010674,9.7969e+07,43.684,0,4.6918e+07,5.1878,640.53,1
2054,3.76,12506,1,12506,1,0.00041779,2.6401e-10,0,0.00058508,-7.6541e-05,2.0489e+07,40.258,0,8.8613e+07,-7.3434,12505,13656,1,13656,1,0.0013756,9.487e-10,0,0.0013756,0.00010185,1.1044e+08,135.18,0,2.1961e+08,17.602,13655,12505,1,12505,1,0.00041779,1.9508e-10,0,0.00049807,-7.6475e-05,6.8991e+07,33.91,0,9.0411e+07,-6.2902,12504,11321,1,11321,1,-0.00054003,-2.9199e-10,0,3.6489e-06,-0.00025513,-2.1961e+08,-40.834,0,2.9692e+06,-20.6,11320,11952,1,11952,1,-8.0275e-05,3.5044e-11,0,0.00023353,-0.00016917,-3.257e+07,5.2984,0,6.3746e+07,-10.905,11951,13059,1,13059,1,0.00091586,4.9697e-10,0,0.00091586,1.6199e-05,9.3086e+07,75.22,0,1.0187e+08,-4.0787,13058,640.53,0,640.53,0,0.00057483,2.9792e-10,0,0.00040322,0.00010702,9.823e+07,43.005,0,4.7043e+07,5.0168,640.53,1
2054,3.77,12506,1,12506,1,0.0004189,7.8231e-11,0,0.00058663,-7.6744e-05,2.0543e+07,11.239,0,8.8848e+07,-3.8015,12505,13656,1,13656,1,0.0013793,4.1758e-10,0,0.0013793,0.00010212,1.1073e+08,58.354,0,2.2019e+08,18.899,13655,12505,1,12505,1,0.0004189,5.1451e-11,0,0.00049939,-7.6678e-05,6.9174e+07,8.6191,0,9.0651e+07,-3.5595,12504,11321,1,11321,1,-0.00054146,-2.526e-10,0,3.6585e-06,-0.00025581,-2.2019e+08,-37.076,0,2.977e+06,-10.167,11320,11952,1,11952,1,-8.0488e-05,-1.623e-11,0,0.00023415,-0.00016962,-3.2656e+07,-2.4547,0,6.3915e+07,-5.8314,11951,13059,1,13059,1,0.00091829,1.9205e-10,0,0.00091829,1.6242e-05,9.3333e+07,28.945,0,1.0214e+08,-2.2362,13058,640.53,0,640.53,0,0.00057636,1.51e-10,0,0.00040429,0.0001073,9.849e+07,21.658,0,4.7168e+07,3.0867,640.53,1
2054,3.78,12506,1,12506,1,0.00042001,1.2148e-10,0,0.00058819,-7.6948e-05,2.0598e+07,17.973,0,8.9084e+07,-3.6559,12505,13656,1,13656,1,0.0013829,4.664e-10,0,0.0013829,0.00010239,1.1102e+08,65.151,0,2.2077e+08,19.229,13655,12505,1,12505,1,0.00042001,9.0488e-11,0,0.00050071,-7.6882e-05,6.9358e+07,15.568,0,9.0891e+07,-3.3581,12504,11321,1,11321,1,-0.0005429,-1.7407e-10,0,3.668e-06,-0.00025648,-2.2077e+08,-24.886,0,2.9849e+06,-11.273,11320,11952,1,11952,1,-8.0701e-05,4.8796e-12,0,0.00023477,-0.00017007,-3.2743e+07,0.76218,0,6.4085e+07,-5.4636,11951,13059,1,13059,1,0.00092073,2.3914e-10,0,0.00092073,1.6285e-05,9.358e+07,35.41,0,1.0241e+08,-2.1285,13058,640.53,0,640.53,0,0.00057789,1.4848e-10,0,0.00040536,0.00010759,9.8752e+07,21.164,0,4.7293e+07,3.1105,640.53,1
2054,3.79,12506,1,12506,1,0.00042113,6.2815e-11,0,0.00058975,-7.7151e-05,2.0653e+07,8.502,0,8.9319e+07,-4.2873,12505,13656,1,13656,1,0.0013866,4.0204e-10,0,0.0013866,0.00010267,1.1132e+08,55.41,0,2.2136e+08,19.55,13655,12505,1,12505,1,0.00042113,4.91e-11,0,0.00050204,-7.7085e-05,6.9541e+07,8.2911,0,9.1132e+07,-3.8376,12504,11321,1,11321,1,-0.00054434,-3.4292e-10,0,3.6775e-06,-0.00025716,-2.2136e+08,-51.207,0,2.9927e+06,-13.801,11320,11952,1,11952,1,-8.0915e-05,-3.371e-11,0,0.00023539,-0.00017052,-3.2829e+07,-5.412,0,6.4254e+07,-6.3711,11951,13059,1,13059,1,0.00092317,1.8566e-10,0,0.00092317,1.6328e-05,9.3828e+07,27.384,0,1.0268e+08,-2.4174,13058,640.53,0,640.53,0,0.00057942,1.5845e-10,0,0.00040644,0.00010787,9.9013e+07,23.064,0,4.7418e+07,3.6325,640.53,1
2054,3.8,12506,1,12506,1,0.00042224,1.3822e-10,0,0.0005913,-7.7355e-05,2.0707e+07,20.253,0,8.9555e+07,-5.5456,12505,13656,1,13656,1,0.0013903,6.2928e-10,0,0.0013903,0.00010294,1.1161e+08,88.607,0,2.2194e+08,17.167,13655,12505,1,12505,1,0.00042224,9.4436e-11,0,0.00050337,-7.7289e-05,6.9725e+07,15.778,0,9.1372e+07,-5.2915,12504,11321,1,11321,1,-0.00054577,-3.1106e-10,0,3.6871e-06,-0.00025784,-2.2194e+08,-45.117,0,3.0006e+06,-14.321,11320,11952,1,11952,1,-8.1128e-05,-6.7185e-12,0,0.00023601,-0.00017097,-3.2916e+07,-0.92878,0,6.4424e+07,-7.9264,11951,13059,1,13059,1,0.00092561,2.9303e-10,0,0.00092561,1.6371e-05,9.4076e+07,43.929,0,1.0295e+08,-3.3456,13058,640.53,0,640.53,0,0.00058095,2.1512e-10,0,0.00040751,0.00010816,9.9275e+07,30.582,0,4.7544e+07,3.6855,640.53,1
2054,3.81,12506,1,12506,1,0.00042335,6.4261e-11,0,0.00059286,-7.7559e-05,2.0762e+07,8.3905,0,8.9791e+07,-5.7605,12505,13656,1,13656,1,0.0013939,5.5516e-10,0,0.0013939,0.00010321,1.119e+08,77.284,0,2.2253e+08,21.83,13655,12505,1,12505,1,0.00042335,4.2953e-11,0,0.00050469,-7.7492e-05,6.9909e+07,6.6819,0,9.1612e+07,-4.8043,12504,11321,1,11321,1,-0.00054721,-4.9518e-10,0,3.6966e-06,-0.00025852,-2.2253e+08,-74.367,0,3.0084e+06,-17.589,11320,11952,1,11952,1,-8.1341e-05,-6.3943e-11,0,0.00023663,-0.00017142,-3.3002e+07,-11.844,0,6.4593e+07,-9.1749,11951,13059,1,13059,1,0.00092804,2.3469e-10,0,0.00092804,1.6414e-05,9.4323e+07,35.318,0,1.0322e+08,-2.8959,13058,640.53,0,640.53,0,0.00058248,2.2349e-10,0,0.00040858,0.00010844,9.9536e+07,32.863,0,4.7669e+07,5.0168,640.53,1
2054,3.82,12506,1,12506,1,0.00042446,1.9443e-11,0,0.00059442,-7.7763e-05,2.0816e+07,0.80166,0,9.0027e+07,-8.3829,12505,13656,1,13656,1,0.0013976,7.3249e-10,0,0.0013976,0.00010348,1.122e+08,103.23,0,2.2311e+08,19.604,13655,12505,1,12505,1,0.00042446,2.3091e-12,0,0.00050602,-7.7696e-05,7.0092e+07,0.32384,0,9.1853e+07,-6.8333,12504,11321,1,11321,1,-0.00054865,-8.3387e-10,0,3.7061e-06,-0.0002592,-2.2311e+08,-125.53,0,3.0163e+06,-24.001,11320,11952,1,11952,1,-8.1555e-05,-1.7197e-10,0,0.00023725,-0.00017187,-3.3089e+07,-30.395,0,6.4763e+07,-13.292,11951,13059,1,13059,1,0.00093048,2.639e-10,0,0.00093048,1.6457e-05,9.4571e+07,39.382,0,1.0349e+08,-4.4541,13058,640.53,0,640.53,0,0.00058401,3.3876e-10,0,0.00040966,0.00010873,9.9797e+07,49.987,0,4.7794e+07,6.2251,640.53,1
2054,3.83,12506,1,12506,1,0.00042557,9.7256e-11,0,0.00059597,-7.7966e-05,2.087e+07,14.057,0,9.0262e+07,-4.3111,12505,13656,1,13656,1,0.0014012,4.8952e-10,0,0.0014012,0.00010375,1.1249e+08,68.293,0,2.2369e+08,20.771,13655,12505,1,12505,1,0.00042557,7.1386e-11,0,0.00050734,-7.7899e-05,7.0275e+07,12.514,0,9.2092e+07,-3.6774,12504,11321,1,11321,1,-0.00055008,-3.111e-10,0,3.7157e-06,-0.00025988,-2.2369e+08,-45.834,0,3.0241e+06,-14.595,11320,11952,1,11952,1,-8.1768e-05,-1.7248e-11,0,0.00023787,-0.00017232,-3.3175e+07,-2.1383,0,6.4932e+07,-6.7483,11951,13059,1,13059,1,0.00093291,2.37e-10,0,0.00093291,1.65e-05,9.4818e+07,35.261,0,1.0376e+08,-2.2843,13058,640.53,0,640.53,0,0.00058553,1.7692e-10,0,0.00041072,0.00010901,1.0006e+08,25.722,0,4.7919e+07,3.9841,640.53,1
2054,3.84,12506,1,12506,1,0.00042668,1.1947e-10,0,0.00059753,-7.8169e-05,2.0925e+07,17.396,0,9.0498e+07,-5.6443,12505,13656,1,13656,1,0.0014049,6.5336e-10,0,0.0014049,0.00010402,1.1279e+08,91.886,0,2.2428e+08,21.876,13655,12505,1,12505,1,0.00042668,8.6646e-11,0,0.00050866,-7.8103e-05,7.0459e+07,14.902,0,9.2333e+07,-4.5148,12504,11321,1,11321,1,-0.00055152,-4.3944e-10,0,3.7252e-06,-0.00026056,-2.2428e+08,-66.071,0,3.0319e+06,-18.734,11320,11952,1,11952,1,-8.1981e-05,-2.9e-11,0,0.00023849,-0.00017277,-3.3262e+07,-4.4117,0,6.5102e+07,-9.4845,11951,13059,1,13059,1,0.00093535,3.1078e-10,0,0.00093535,1.6543e-05,9.5066e+07,46.243,0,1.0403e+08,-2.6624,13058,640.53,0,640.53,0,0.00058706,2.4188e-10,0,0.0004118,0.0001093,1.0032e+08,35.472,0,4.8044e+07,5.2392,640.53,1
2054,3.85,12506,1,12506,1,0.00042779,2.5395e-11,0,0.00059908,-7.8373e-05,2.0979e+07,2.4354,0,9.0733e+07,-4.0441,12505,13656,1,13656,1,0.0014085,4.1203e-10,0,0.0014085,0.00010429,1.1308e+08,57.08,0,2.2486e+08,21.141,13655,12505,1,12505,1,0.00042779,1.2187e-11,0,0.00050999,-7.8306e-05,7.0643e+07,1.9068,0,9.2573e+07,-3.4194,12504,11321,1,11321,1,-0.00055295,-4.4193e-10,0,3.7348e-06,-0.00026123,-2.2486e+08,-67.096,0,3.0398e+06,-12.348,11320,11952,1,11952,1,-8.2195e-05,-7.4593e-11,0,0.00023911,-0.00017322,-3.3348e+07,-13.979,0,6.5271e+07,-6.7788,11951,13059,1,13059,1,0.00093778,1.6107e-10,0,0.00093778,1.6586e-05,9.5314e+07,24.474,0,1.043e+08,-1.9674,13058,640.53,0,640.53,0,0.00058859,1.8197e-10,0,0.00041287,0.00010958,1.0058e+08,26.93,0,4.8169e+07,3.9852,640.53,1
2054,3.86,12506,1,12506,1,0.00042891,3.6558e-10,0,0.00060064,-7.8577e-05,2.1034e+07,56.45,0,9.0969e+07,-4.6051,12505,13656,1,13656,1,0.0014122,9.5689e-10,0,0.0014122,0.00010456,1.1337e+08,137.58,0,2.2545e+08,19.174,13655,12505,1,12505,1,0.00042891,3.0536e-10,0,0.00051131,-7.851e-05,7.0826e+07,52.195,0,9.2813e+07,-3.9973,12504,11321,1,11321,1,-0.00055439,-2.0011e-11,0,3.7443e-06,-0.00026191,-2.2545e+08,-1.3454,0,3.0476e+06,-15.097,11320,11952,1,11952,1,-8.2408e-05,1.404e-10,0,0.00023974,-0.00017367,-3.3435e+07,22.251,0,6.5441e+07,-7.143,11951,13059,1,13059,1,0.00094022,5.8653e-10,0,0.00094022,1.6629e-05,9.5561e+07,87.957,0,1.0458e+08,-2.4021,13058,640.53,0,640.53,0,0.00059012,2.6393e-10,0,0.00041394,0.00010987,1.0084e+08,38.164,0,4.8294e+07,4.0974,640.53,1
2054,3.87,12506,1,12506,1,0.00043002,3.2876e-10,0,0.0006022,-7.878e-05,2.1088e+07,50.941,0,9.1205e+07,-7.2263,12505,13656,1,13656,1,0.0014159,1.0188e-09,0,0.0014159,0.00010483,1.1367e+08,147.69,0,2.2603e+08,17.255,13655,12505,1,12505,1,0.00043002,2.5157e-10,0,0.00051264,-7.8713e-05,7.101e+07,43.029,0,9.3053e+07,-6.6473,12504,11321,1,11321,1,-0.00055583,-1.524e-10,0,3.7538e-06,-0.00026259,-2.2603e+08,-19.118,0,3.0554e+06,-18.284,11320,11952,1,11952,1,-8.2621e-05,9.34e-11,0,0.00024036,-0.00017412,-3.3522e+07,13.357,0,6.561e+07,-10.517,11951,13059,1,13059,1,0.00094266,5.5693e-10,0,0.00094266,1.6672e-05,9.5809e+07,85.956,0,1.0485e+08,-4.1441,13058,640.53,0,640.53,0,0.00059165,3.0103e-10,0,0.00041502,0.00011015,1.011e+08,43.614,0,4.8419e+07,4.5384,640.53,1
2054,3.88,12506,1,12506,1,0.00043113,3.3224e-10,0,0.00060375,-7.8984e-05,2.1143e+07,50.986,0,9.1441e+07,-7.3106,12505,13656,1,13656,1,0.0014195,1.0714e-09,0,0.0014195,0.0001051,1.1396e+08,153.43,0,2.2661e+08,18.906,13655,12505,1,12505,1,0.00043113,2.6245e-10,0,0.00051396,-7.8917e-05,7.1193e+07,44.95,0,9.3294e+07,-5.96,12504,11321,1,11321,1,-0.00055726,-2.5046e-10,0,3.7633e-06,-0.00026327,-2.2661e+08,-34.46,0,3.0633e+06,-23.085,11320,11952,1,11952,1,-8.2835e-05,7.5753e-11,0,0.00024098,-0.00017457,-3.3608e+07,11.337,0,6.578e+07,-11.185,11951,13059,1,13059,1,0.00094509,5.8954e-10,0,0.00094509,1.6715e-05,9.6057e+07,89.236,0,1.0512e+08,-3.712,13058,640.53,0,640.53,0,0.00059318,3.2277e-10,0,0.00041609,0.00011044,1.0136e+08,46.838,0,4.8544e+07,5.6087,640.53,1
2054,3.89,12506,1,12506,1,0.00043224,2.8141e-10,0,0.00060531,-7.9188e-05,2.1198e+07,42.672,0,9.1676e+07,-7.5143,12505,13656,1,13656,1,0.0014232,1.0539e-09,0,0.0014232,0.00010538,1.1425e+08,149.92,0,2.272e+08,21.105,13655,12505,1,12505,1,0.00043224,2.0777e-10,0,0.00051529,-7.912e-05,7.1377e+07,34.921,0,9.3534e+07,-6.1331,12504,11321,1,11321,1,-0.0005587,-3.2867e-10,0,3.7729e-06,-0.00026395,-2.272e+08,-46.592,0,3.0711e+06,-22.902,11320,11952,1,11952,1,-8.3048e-05,2.4774e-11,0,0.0002416,-0.00017502,-3.3695e+07,3.9329,0,6.5949e+07,-12.16,11951,13059,1,13059,1,0.00094753,5.41e-10,0,0.00094753,1.6758e-05,9.6304e+07,81.972,0,1.0539e+08,-3.8885,13058,640.53,0,640.53,0,0.00059471,3.2829e-10,0,0.00041716,0.00011072,1.0163e+08,47.525,0,4.8669e+07,5.9996,640.53,1
2054,3.9,12506,1,12506,1,0.00043335,2.1579e-10,0,0.00060687,-7.9391e-05,2.1252e+07,32.709,0,9.1912e+07,-8.1624,12505,13656,1,13656,1,0.0014268,9.5381e-10,0,0.0014268,0.00010565,1.1455e+08,136.69,0,2.2778e+08,17.815,13655,12505,1,12505,1,0.00043335,1.4554e-10,0,0.00051661,-7.9324e-05,7.156e+07,25.229,0,9.3774e+07,-7.237,12504,11321,1,11321,1,-0.00056014,-4.6779e-10,0,3.7824e-06,-0.00026463,-2.2778e+08,-68.478,0,3.079e+06,-22.701,11320,11952,1,11952,1,-8.3262e-05,2.5107e-12,0,0.00024222,-0.00017547,-3.3781e+07,0.25631,0,6.6119e+07,-12.076,11951,13059,1,13059,1,0.00094997,4.564e-10,0,0.00094997,1.6801e-05,9.6552e+07,70.678,0,1.0566e+08,-4.5303,13058,640.53,0,640.53,0,0.00059624,3.3413e-10,0,0.00041823,0.000111,1.0189e+08,48.288,0,4.8795e+07,5.3786,640.53,1
2054,3.91,12506,1,12506,1,0.00043446,1.6156e-10,0,0.00060842,-7.9595e-05,2.1306e+07,24.161,0,9.2147e+07,-4.302,12505,13656,1,13656,1,0.0014305,6.4584e-10,0,0.0014305,0.00010592,1.1484e+08,91.108,0,2.2837e+08,16.718,13655,12505,1,12505,1,0.00043446,1.0208e-10,0,0.00051794,-7.9527e-05,7.1744e+07,16.656,0,9.4014e+07,-3.4541,12504,11321,1,11321,1,-0.00056157,-9.9092e-11,0,3.7919e-06,-0.00026531,-2.2837e+08,-12.849,0,3.0868e+06,-16.1,11320,11952,1,11952,1,-8.3475e-05,2.3954e-11,0,0.00024284,-0.00017592,-3.3868e+07,3.5762,0,6.6288e+07,-6.0534,11951,13059,1,13059,1,0.0009524,2.5916e-10,0,0.0009524,1.6844e-05,9.68e+07,41.292,0,1.0593e+08,-2.0798,13058,640.53,0,640.53,0,0.00059777,1.8147e-10,0,0.00041931,0.00011129,1.0215e+08,25.08,0,4.892e+07,3.7076,640.53,1
2054,3.92,12506,1,12506,1,0.00043557,6.9128e-11,0,0.00060998,-7.9798e-05,2.1361e+07,9.4992,0,9.2383e+07,-6.132,12505,13656,1,13656,1,0.0014342,5.1386e-10,0,0.0014342,0.00010619,1.1514e+08,71.875,0,2.2895e+08,18.239,13655,12505,1,12505,1,0.00043557,4.4025e-11,0,0.00051926,-7.973e-05,7.1927e+07,6.7119,0,9.4254e+07,-5.7675,12504,11321,1,11321,1,-0.00056301,-4.2111e-10,0,3.8014e-06,-0.00026599,-2.2895e+08,-62.095,0,3.0946e+06,-15.775,11320,11952,1,11952,1,-8.3688e-05,-4.991e-11,0,0.00024346,-0.00017637,-3.3954e+07,-8.6823,0,6.6458e+07,-8.7947,11951,13059,1,13059,1,0.00095484,2.2047e-10,0,0.00095484,1.6887e-05,9.7047e+07,32.903,0,1.062e+08,-3.6494,13058,640.53,0,640.53,0,0.00059929,2.0738e-10,0,0.00042038,0.00011157,1.0241e+08,29.907,0,4.9045e+07,3.9604,640.53,1
2054,3.93,12506,1,12506,1,0.00043668,1.1758e-10,0,0.00061153,-8.0002e-05,2.1415e+07,16.925,0,9.2618e+07,-4.7821,12505,13656,1,13656,1,0.0014378,6.0477e-10,0,0.0014378,0.00010646,1.1543e+08,85.017,0,2.2953e+08,20.934,13655,12505,1,12505,1,0.00043668,7.6501e-11,0,0.00052058,-7.9933e-05,7.2111e+07,12.835,0,9.4494e+07,-4.151,12504,11321,1,11321,1,-0.00056444,-3.179e-10,0,3.811e-06,-0.00026666,-2.2953e+08,-46.985,0,3.1025e+06,-14.976,11320,11952,1,11952,1,-8.3901e-05,-2.3534e-11,0,0.00024408,-0.00017682,-3.4041e+07,-3.44,0,6.6627e+07,-7.5402,11951,13059,1,13059,1,0.00095727,2.7512e-10,0,0.00095727,1.693e-05,9.7294e+07,41.779,0,1.0647e+08,-2.5537,13058,640.53,0,640.53,0,0.00060082,2.0845e-10,0,0.00042145,0.00011186,1.0267e+08,30.023,0,4.917e+07,4.1118,640.53,1
2054,3.94,12506,1,12506,1,0.0004378,2.893e-10,0,0.00061309,-8.0206e-05,2.147e+07,44.101,0,9.2854e+07,-5.8565,12505,13656,1,13656,1,0.0014415,9.0066e-10,0,0.0014415,0.00010673,1.1572e+08,128.15,0,2.3012e+08,16.681,13655,12505,1,12505,1,0.0004378,2.1449e-10,0,0.00052191,-8.0137e-05,7.2294e+07,36.229,0,9.4735e+07,-5.5213,12504,11321,1,11321,1,-0.00056588,-4.3169e-11,0,3.8204e-06,-0.00026734,-2.3012e+08,-7.3915,0,3.1103e+06,-17.683,11320,11952,1,11952,1,-8.4115e-05,8.0512e-11,0,0.0002447,-0.00017727,-3.4128e+07,12.408,0,6.6797e+07,-7.6482,11951,13059,1,13059,1,0.00095971,4.7423e-10,0,0.00095971,1.6974e-05,9.7542e+07,72.213,0,1.0674e+08,-3.2556,13058,640.53,0,640.53,0,0.00060235,2.5353e-10,0,0.00042252,0.00011214,1.0293e+08,35.859,0,4.9295e+07,4.0139,640.53,1
2054,3.95,12506,1,12506,1,0.00043891,1.52e-10,0,0.00061465,-8.0409e-05,2.1524e+07,22.812,0,9.309e+07,-6.6098,12505,13656,1,13656,1,0.0014451,6.368e-10,0,0.0014451,0.000107,1.1602e+08,89.832,0,2.307e+08,17.501,13655,12505,1,12505,1,0.00043891,1.0604e-10,0,0.00052324,-8.0341e-05,7.2478e+07,18.06,0,9.4975e+07,-6.4875,12504,11321,1,11321,1,-0.00056732,-2.9521e-10,0,3.83e-06,-0.00026802,-2.307e+08,-41.884,0,3.1181e+06,-15.353,11320,11952,1,11952,1,-8.4328e-05,3.7841e-12,0,0.00024532,-0.00017772,-3.4214e+07,0.41785,0,6.6966e+07,-9.2655,11951,13059,1,13059,1,0.00096215,3.1343e-10,0,0.00096215,1.7017e-05,9.779e+07,47.564,0,1.0701e+08,-3.9892,13058,640.53,0,640.53,0,0.00060388,2.1858e-10,0,0.0004236,0.00011243,1.0319e+08,31.23,0,4.942e+07,3.9821,640.53,1
2054,3.96,12506,1,12506,1,0.00044002,1.2713e-10,0,0.0006162,-8.0613e-05,2.1579e+07,18.428,0,9.3325e+07,-6.5804,12505,13656,1,13656,1,0.0014488,6.332e-10,0,0.0014488,0.00010727,1.1631e+08,88.711,0,2.3129e+08,19.185,13655,12505,1,12505,1,0.00044002,8.1468e-11,0,0.00052456,-8.0544e-05,7.2661e+07,14.055,0,9.5215e+07,-6.1169,12504,11321,1,11321,1,-0.00056875,-3.2164e-10,0,3.8395e-06,-0.0002687,-2.3129e+08,-46.653,0,3.126e+06,-19.561,11320,11952,1,11952,1,-8.4541e-05,-1.8799e-11,0,0.00024594,-0.00017817,-3.4301e+07,-2.6478,0,6.7135e+07,-9.2955,11951,13059,1,13059,1,0.00096458,2.8818e-10,0,0.00096458,1.706e-05,9.8037e+07,43.683,0,1.0728e+08,-4.0838,13058,640.53,0,640.53,0,0.00060541,2.1509e-10,0,0.00042467,0.00011271,1.0345e+08,30.808,0,4.9545e+07,4.3461,640.53,1
2054,3.97,12506,1,12506,1,0.00044113,1.8107e-10,0,0.00061776,-8.0816e-05,2.1633e+07,26.803,0,9.3561e+07,-5.993,12505,13656,1,13656,1,0.0014524,7.7881e-10,0,0.0014524,0.00010754,1.166e+08,109.56,0,2.3187e+08,21.659,13655,12505,1,12505,1,0.00044113,1.3585e-10,0,0.00052588,-8.0747e-05,7.2845e+07,22.726,0,9.5455e+07,-4.931,12504,11321,1,11321,1,-0.00057019,-3.6739e-10,0,3.849e-06,-0.00026938,-2.3187e+08,-54.253,0,3.1338e+06,-18.001,11320,11952,1,11952,1,-8.4755e-05,-8.0612e-12,0,0.00024657,-0.00017862,-3.4387e+07,-0.951,0,6.7305e+07,-9.626,11951,13059,1,13059,1,0.00096702,3.9035e-10,0,0.00096702,1.7103e-05,9.8285e+07,58.113,0,1.0756e+08,-3.008,13058,640.53,0,640.53,0,0.00060694,2.6123e-10,0,0.00042574,0.000113,1.0371e+08,37.881,0,4.967e+07,5.1089,640.53,1
2054,3.98,12506,1,12506,1,0.00044224,1.5003e-10,0,0.00061931,-8.102e-05,2.1688e+07,22.491,0,9.3797e+07,-6.7424,12505,13656,1,13656,1,0.0014561,7.1712e-10,0,0.0014561,0.00010781,1.169e+08,101.82,0,2.3245e+08,17.254,13655,12505,1,12505,1,0.00044224,9.4345e-11,0,0.00052721,-8.0951e-05,7.3028e+07,16.459,0,9.5696e+07,-6.3313,12504,11321,1,11321,1,-0.00057162,-3.55e-10,0,3.8586e-06,-0.00027006,-2.3245e+08,-52.983,0,3.1417e+06,-16.003,11320,11952,1,11952,1,-8.4968e-05,-8.5286e-12,0,0.00024719,-0.00017907,-3.4474e+07,-1.0845,0,6.7474e+07,-9.6874,11951,13059,1,13059,1,0.00096945,3.1841e-10,0,0.00096945,1.7146e-05,9.8533e+07,50.691,0,1.0783e+08,-3.9425,13058,640.53,0,640.53,0,0.00060847,2.5382e-10,0,0.00042681,0.00011328,1.0398e+08,36.293,0,4.9795e+07,4.1247,640.53,1
2054,3.99,12506,1,12506,1,0.00044335,1.4087e-10,0,0.00062087,-8.1224e-05,2.1742e+07,20.983,0,9.4032e+07,-5.1737,12505,13656,1,13656,1,0.0014598,6.2075e-10,0,0.0014598,0.00010808,1.1719e+08,87.806,0,2.3304e+08,18.998,13655,12505,1,12505,1,0.00044335,9.2937e-11,0,0.00052853,-8.1154e-05,7.3212e+07,15.875,0,9.5936e+07,-4.8641,12504,11321,1,11321,1,-0.00057306,-2.8537e-10,0,3.8681e-06,-0.00027074,-2.3304e+08,-40.511,0,3.1495e+06,-13.838,11320,11952,1,11952,1,-8.5181e-05,-8.3393e-13,0,0.00024781,-0.00017952,-3.456e+07,-0.059886,0,6.7644e+07,-7.7116,11951,13059,1,13059,1,0.00097189,2.9545e-10,0,0.00097189,1.7189e-05,9.878e+07,44.717,0,1.081e+08,-2.8591,13058,640.53,0,640.53,0,0.00061,2.1192e-10,0,0.00042789,0.00011357,1.0424e+08,30.25,0,4.992e+07,3.714,640.53,1
2054,4,12506,1,12506,1,0.00044446,1.9764e-10,0,0.00062242,-8.1427e-05,2.1797e+07,30.28,0,9.4267e+07,-3.6231,12505,13656,1,13656,1,0.0014634,6.1939e-10,0,0.0014634,0.00010835,1.1748e+08,88.25,0,2.3362e+08,21.947,13655,12505,1,12505,1,0.00044446,1.5809e-10,0,0.00052986,-8.1357e-05,7.3395e+07,27.072,0,9.6175e+07,-3.0936,12504,11321,1,11321,1,-0.00057449,-1.3731e-10,0,3.8776e-06,-0.00027141,-2.3362e+08,-18.55,0,3.1573e+06,-12.96,11320,11952,1,11952,1,-8.5394e-05,4.6969e-11,0,0.00024843,-0.00017997,-3.4647e+07,7.1209,0,6.7813e+07,-5.8154,11951,13059,1,13059,1,0.00097432,3.5217e-10,0,0.00097432,1.7232e-05,9.9027e+07,52.509,0,1.0837e+08,-1.8038,13058,640.53,0,640.53,0,0.00061152,1.8719e-10,0,0.00042896,0.00011385,1.045e+08,27.112,0,5.0045e+07,3.7198,640.53,1
2054,4.01,12506,1,12506,1,0.00044558,2.3454e-10,0,0.00062398,-8.1631e-05,2.1851e+07,35.745,0,9.4503e+07,-4.6086,12505,13656,1,13656,1,0.0014671,7.488e-10,0,0.0014671,0.00010863,1.1778e+08,106.26,0,2.3421e+08,20.37,13655,12505,1,12505,1,0.00044558,1.816e-10,0,0.00053118,-8.1561e-05,7.3579e+07,31.115,0,9.6416e+07,-4.1075,12504,11321,1,11321,1,-0.00057593,-1.3976e-10,0,3.8871e-06,-0.00027209,-2.3421e+08,-18.808,0,3.1652e+06,-12.947,11320,11952,1,11952,1,-8.5608e-05,5.352e-11,0,0.00024905,-0.00018042,-3.4733e+07,8.0954,0,6.7983e+07,-7.1236,11951,13059,1,13059,1,0.00097676,4.1126e-10,0,0.00097676,1.7275e-05,9.9275e+07,61.836,0,1.0864e+08,-2.5356,13058,640.53,0,640.53,0,0.00061305,2.2216e-10,0,0.00043003,0.00011414,1.0476e+08,31.891,0,5.0171e+07,3.8431,640.53,1
2054,4.02,12506,1,12506,1,0.00044669,1.6817e-10,0,0.00062554,-8.1834e-05,2.1906e+07,25.143,0,9.4739e+07,-5.0832,12505,13656,1,13656,1,0.0014707,6.7636e-10,0,0.0014707,0.0001089,1.1807e+08,95.531,0,2.3479e+08,19.991,13655,12505,1,12505,1,0.00044669,1.2203e-10,0,0.00053251,-8.1764e-05,7.3762e+07,20.762,0,9.6656e+07,-4.6391,12504,11321,1,11321,1,-0.00057737,-2.777e-10,0,3.8966e-06,-0.00027277,-2.3479e+08,-39.652,0,3.173e+06,-14.25,11320,11952,1,11952,1,-8.5821e-05,7.1542e-12,0,0.00024967,-0.00018087,-3.482e+07,0.59347,0,6.8152e+07,-7.5921,11951,13059,1,13059,1,0.00097919,3.3342e-10,0,0.00097919,1.7318e-05,9.9523e+07,50.722,0,1.0891e+08,-2.8955,13058,640.53,0,640.53,0,0.00061458,2.1916e-10,0,0.0004311,0.00011442,1.0502e+08,31.409,0,5.0296e+07,3.861,640.53,1
2054,4.03,12506,1,12506,1,0.0004478,2.6835e-10,0,0.00062709,-8.2038e-05,2.196e+07,41.468,0,9.4975e+07,-5.4236,12505,13656,1,13656,1,0.0014744,7.9918e-10,0,0.0014744,0.00010917,1.1837e+08,115.05,0,2.3537e+08,20.013,13655,12505,1,12505,1,0.0004478,2.1395e-10,0,0.00053383,-8.1968e-05,7.3946e+07,36.985,0,9.6896e+07,-4.8708,12504,11321,1,11321,1,-0.0005788,-1.2248e-10,0,3.9061e-06,-0.00027345,-2.3537e+08,-15.621,0,3.1808e+06,-15.175,11320,11952,1,11952,1,-8.6034e-05,7.8698e-11,0,0.00025029,-0.00018132,-3.4906e+07,11.51,0,6.8322e+07,-8.1231,11951,13059,1,13059,1,0.00098163,4.5826e-10,0,0.00098163,1.7361e-05,9.977e+07,69.603,0,1.0918e+08,-3.0466,13058,640.53,0,640.53,0,0.00061611,2.3585e-10,0,0.00043218,0.0001147,1.0528e+08,34.219,0,5.0421e+07,4.0365,640.53,1
2054,4.04,12506,1,12506,1,0.00044891,1.6363e-10,0,0.00062865,-8.2242e-05,2.2015e+07,24.501,0,9.521e+07,-5.7378,12505,13656,1,13656,1,0.0014781,7.4989e-10,0,0.0014781,0.00010944,1.1866e+08,106.46,0,2.3596e+08,21.146,13655,12505,1,12505,1,0.00044891,1.1446e-10,0,0.00053516,-8.2171e-05,7.413e+07,19.804,0,9.7136e+07,-4.7433,12504,11321,1,11321,1,-0.00058024,-3.8891e-10,0,3.9156e-06,-0.00027413,-2.3596e+08,-56.878,0,3.1887e+06,-16.641,11320,11952,1,11952,1,-8.6248e-05,-7.4142e-12,0,0.00025091,-0.00018177,-3.4993e+07,-0.91159,0,6.8491e+07,-9.3526,11951,13059,1,13059,1,0.00098407,3.6479e-10,0,0.00098407,1.7404e-05,1.0002e+08,55.545,0,1.0945e+08,-2.9121,13058,640.53,0,640.53,0,0.00061764,2.6049e-10,0,0.00043325,0.00011499,1.0554e+08,37.881,0,5.0546e+07,4.7317,640.53,1
2054,4.05,12506,1,12506,1,0.00045002,2.1226e-10,0,0.00063021,-8.2445e-05,2.2069e+07,31.972,0,9.5446e+07,-5.8038,12505,13656,1,13656,1,0.0014817,7.7225e-10,0,0.0014817,0.00010971,1.1895e+08,109.1,0,2.3654e+08,19.082,13655,12505,1,12505,1,0.00045002,1.5941e-10,0,0.00053648,-8.2375e-05,7.4313e+07,27.305,0,9.7377e+07,-5.3736,12504,11321,1,11321,1,-0.00058168,-2.6236e-10,0,3.9251e-06,-0.00027481,-2.3654e+08,-36.682,0,3.1965e+06,-16.559,11320,11952,1,11952,1,-8.6461e-05,2.4137e-11,0,0.00025153,-0.00018222,-3.508e+07,3.6324,0,6.8661e+07,-8.4173,11951,13059,1,13059,1,0.00098651,3.9637e-10,0,0.00098651,1.7447e-05,1.0027e+08,59.608,0,1.0972e+08,-3.3755,13058,640.53,0,640.53,0,0.00061917,2.4212e-10,0,0.00043432,0.00011527,1.058e+08,34.494,0,5.0671e+07,4.19,640.53,1
