"N","Time","avg(GlobalElementId)","avg(ObjectId)","avg(PedigreeElementId)","avg(alpha)","avg(strain_x (0))","avg(strain_x (1))","avg(strain_x (2))","avg(strain_x (Magnitude))","avg(strain_yy)","avg(stress_x (0))","avg(stress_x (1))","avg(stress_x (2))","avg(stress_x (Magnitude))","avg(stress_yy)","avg(vtkOriginalCellIds)","max(GlobalElementId)","max(ObjectId)","max(PedigreeElementId)","max(alpha)","max(strain_x (0))","max(strain_x (1))","max(strain_x (2))","max(strain_x (Magnitude))","max(strain_yy)","max(stress_x (0))","max(stress_x (1))","max(stress_x (2))","max(stress_x (Magnitude))","max(stress_yy)","max(vtkOriginalCellIds)","med(GlobalElementId)","med(ObjectId)","med(PedigreeElementId)","med(alpha)","med(strain_x (0))","med(strain_x (1))","med(strain_x (2))","med(strain_x (Magnitude))","med(strain_yy)","med(stress_x (0))","med(stress_x (1))","med(stress_x (2))","med(stress_x (Magnitude))","med(stress_yy)","med(vtkOriginalCellIds)","min(GlobalElementId)","min(ObjectId)","min(PedigreeElementId)","min(alpha)","min(strain_x (0))","min(strain_x (1))","min(strain_x (2))","min(strain_x (Magnitude))","min(strain_yy)","min(stress_x (0))","min(stress_x (1))","min(stress_x (2))","min(stress_x (Magnitude))","min(stress_yy)","min(vtkOriginalCellIds)","q1(GlobalElementId)","q1(ObjectId)","q1(PedigreeElementId)","q1(alpha)","q1(strain_x (0))","q1(strain_x (1))","q1(strain_x (2))","q1(strain_x (Magnitude))","q1(strain_yy)","q1(stress_x (0))","q1(stress_x (1))","q1(stress_x (2))","q1(stress_x (Magnitude))","q1(stress_yy)","q1(vtkOriginalCellIds)","q3(GlobalElementId)","q3(ObjectId)","q3(PedigreeElementId)","q3(alpha)","q3(strain_x (0))","q3(strain_x (1))","q3(strain_x (2))","q3(strain_x (Magnitude))","q3(strain_yy)","q3(stress_x (0))","q3(stress_x (1))","q3(stress_x (2))","q3(stress_x (Magnitude))","q3(stress_yy)","q3(vtkOriginalCellIds)","std(GlobalElementId)","std(ObjectId)","std(PedigreeElementId)","std(alpha)","std(strain_x (0))","std(strain_x (1))","std(strain_x (2))","std(strain_x (Magnitude))","std(strain_yy)","std(stress_x (0))","std(stress_x (1))","std(stress_x (2))","std(stress_x (Magnitude))","std(stress_yy)","std(vtkOriginalCellIds)","vtkValidPointMask"
2044,0,12111,1,12111,1,0,0,0,0,0,0,0,0,0,0,12110,13208,1,13208,1,0,0,0,0,0,0,0,0,0,0,13207,12110,1,12110,1,0,0,0,0,0,0,0,0,0,0,12109,11089,1,11089,1,0,0,0,0,0,0,0,0,0,0,11088,11599,1,11599,1,0,0,0,0,0,0,0,0,0,0,11598,12621,1,12621,1,0,0,0,0,0,0,0,0,0,0,12620,591.1,0,591.1,0,0,0,0,0,0,0,0,0,0,0,591.1,1
2044,0.01,12111,1,12111,1,6.739e-09,-3.8322e-08,0,2.3733e-07,-6.1384e-10,2689.5,-13106,0,90417,224.42,12110,13208,1,13208,1,7.7688e-07,4.1621e-07,0,7.7772e-07,1.3454e-07,3.1491e+05,1.4234e+05,0,3.1515e+05,10979,13207,12110,1,12110,1,7.4541e-09,-3.5364e-08,0,2.1567e-07,-1.6387e-09,2722.3,-12111,0,80546,42.155,12109,11089,1,11089,1,-6.9762e-07,-3.2742e-07,0,1.1104e-08,-1.404e-07,-2.8432e+05,-1.1196e+05,0,4627.2,-12041,11088,11599,1,11599,1,-1.0721e-07,-1.4726e-07,0,1.5866e-07,-1.8333e-08,-43778,-50364,0,57927,-2893.8,11598,12621,1,12621,1,1.2157e-07,3.4881e-08,0,3.0159e-07,1.7164e-08,49629,11947,0,1.1393e+05,2709.6,12620,591.1,0,591.1,0,2.1489e-07,1.4911e-07,0,1.165e-07,3.9022e-08,87496,50997,0,47497,4023.2,591.1,1
2044,0.02,12111,1,12111,1,-7.2072e-09,5.6011e-09,0,1.3893e-06,2.0972e-09,-4093.3,1917.2,0,5.6005e+05,276.74,12110,13208,1,13208,1,3.6453e-06,5.9373e-07,0,3.7821e-06,7.0878e-07,1.4753e+06,2.0329e+05,0,1.5383e+06,26076,13207,12110,1,12110,1,-3.3282e-09,-1.0486e-08,0,1.3629e-06,-3.3845e-09,-2510.2,-3576.9,0,5.5087e+05,-199.92,12109,11089,1,11089,1,-3.7818e-06,-3.9165e-07,0,7.7171e-08,-6.8801e-07,-1.5382e+06,-1.3399e+05,0,30502,-15948,11088,11599,1,11599,1,-1.3604e-06,-1.1449e-07,0,7.3338e-07,-2.6598e-07,-5.5241e+05,-39215,0,2.9265e+05,-4106.8,11598,12621,1,12621,1,1.341e-06,9.301e-08,0,1.9749e-06,2.6945e-07,5.4237e+05,31790,0,8.0063e+05,3867.3,12620,591.1,0,591.1,0,1.58e-06,1.9555e-07,0,7.7682e-07,3.0307e-07,6.4069e+05,66863,0,3.1806e+05,6706.7,591.1,1
2044,0.03,12111,1,12111,1,9.4658e-09,2.1729e-08,0,2.6258e-06,-4.6706e-09,1273.3,7430.4,0,1.0623e+06,-1255.7,12110,13208,1,13208,1,6.093e-06,6.9985e-07,0,6.1726e-06,1.1534e-06,2.4661e+06,2.3943e+05,0,2.511e+06,23996,13207,12110,1,12110,1,1.4909e-08,-5.7703e-09,0,2.6038e-06,-9.6122e-09,5452.3,-1967.1,0,1.056e+06,-1566.1,12109,11089,1,11089,1,-6.1725e-06,-4.1209e-07,0,1.5514e-07,-1.1484e-06,-2.5109e+06,-1.41e+05,0,63659,-17505,11088,11599,1,11599,1,-2.5879e-06,-1.139e-07,0,1.3101e-06,-5.0986e-07,-1.0521e+06,-38925,0,5.2628e+05,-5586.3,11598,12621,1,12621,1,2.6109e-06,1.1718e-07,0,3.8694e-06,4.9764e-07,1.0564e+06,40117,0,1.5703e+06,2979.7,12620,591.1,0,591.1,0,3.0036e-06,2.1915e-07,0,1.4739e-06,5.7143e-07,1.2183e+06,74925,0,6.0083e+05,7196,591.1,1
2044,0.04,12111,1,12111,1,1.5985e-08,-1.6381e-08,0,4.2222e-06,-1.555e-09,2822.7,-5598.2,0,1.711e+06,572.61,12110,13208,1,13208,1,9.1675e-06,5.6674e-07,0,9.1677e-06,1.7051e-06,3.7115e+06,1.9403e+05,0,3.7116e+06,19511,13207,12110,1,12110,1,2.3335e-08,-1.9929e-08,0,4.2583e-06,7.4253e-09,8852.6,-6794,0,1.7272e+06,374.31,12109,11089,1,11089,1,-9.0833e-06,-4.3992e-07,0,2.6772e-07,-1.7151e-06,-3.6944e+06,-1.5054e+05,0,1.094e+05,-12821,11088,11599,1,11599,1,-4.2346e-06,-1.6531e-07,0,2.107e-06,-8.2408e-07,-1.7212e+06,-56408,0,8.5335e+05,-3680,11598,12621,1,12621,1,4.2749e-06,9.3868e-08,0,6.277e-06,8.1042e-07,1.7301e+06,32091,0,2.5482e+06,4341.4,12620,591.1,0,591.1,0,4.8531e-06,2.1228e-07,0,2.4006e-06,9.1693e-07,1.9689e+06,72572,0,9.7635e+05,6386.1,591.1,1
2044,0.05,12111,1,12111,1,2.6619e-09,3.4489e-08,0,5.1541e-06,3.4665e-10,-3466.4,11789,0,2.0886e+06,314.07,12110,13208,1,13208,1,1.1191e-05,7.1052e-07,0,1.1191e-05,2.0949e-06,4.5303e+06,2.4326e+05,0,4.5511e+06,20878,13207,12110,1,12110,1,-3.7404e-09,3.6071e-09,0,5.2144e-06,2.1756e-09,-1758.3,1232.5,0,2.1128e+06,145.2,12109,11089,1,11089,1,-1.1189e-05,-4.8159e-07,0,3.4767e-07,-2.0978e-06,-4.5511e+06,-1.6481e+05,0,1.4127e+05,-16136,11088,11599,1,11599,1,-5.2025e-06,-1.303e-07,0,2.565e-06,-9.9832e-07,-2.1142e+06,-44538,0,1.0385e+06,-4515,11598,12621,1,12621,1,5.2144e-06,1.8105e-07,0,7.6473e-06,1.0008e-06,2.1101e+06,62011,0,3.0999e+06,5604.6,12620,591.1,0,591.1,0,5.9236e-06,2.5824e-07,0,2.9291e-06,1.1198e-06,2.4032e+06,88289,0,1.1912e+06,6690.9,591.1,1
2044,0.06,12111,1,12111,1,1.2413e-08,-1.6453e-09,0,6.1654e-06,-5.5872e-09,-739.3,-563.5,0,2.4987e+06,-1420.8,12110,13208,1,13208,1,1.3084e-05,8.0023e-07,0,1.3084e-05,2.4386e-06,5.2965e+06,2.7383e+05,0,5.2965e+06,14322,13207,12110,1,12110,1,1.3763e-08,-1.2835e-08,0,6.2452e-06,-1.9891e-08,4936.5,-4390.8,0,2.537e+06,-951.25,12109,11089,1,11089,1,-1.2999e-05,-6.1218e-07,0,4.0477e-07,-2.4536e-06,-5.287e+06,-2.0949e+05,0,1.6434e+05,-18958,11088,11599,1,11599,1,-6.2324e-06,-1.9979e-07,0,3.0738e-06,-1.1996e-06,-2.5331e+06,-68130,0,1.2446e+06,-7027.6,11598,12621,1,12621,1,6.278e-06,1.605e-07,0,9.1175e-06,1.1955e-06,2.54e+06,54732,0,3.703e+06,5014.6,12620,591.1,0,591.1,0,7.087e-06,2.9556e-07,0,3.5046e-06,1.339e-06,2.8752e+06,1.0105e+05,0,1.425e+06,7714.7,591.1,1
2044,0.07,12111,1,12111,1,2.0557e-08,-3.7081e-08,0,8.0748e-06,-4.3501e-09,1059.7,-12675,0,3.2752e+06,-254.54,12110,13208,1,13208,1,1.6659e-05,5.5451e-07,0,1.6659e-05,3.1009e-06,6.7441e+06,1.8929e+05,0,6.7441e+06,21763,13207,12110,1,12110,1,1.6283e-08,-2.321e-08,0,8.2085e-06,-2.1495e-09,6339.1,-7912.3,0,3.3297e+06,-430.55,12109,11089,1,11089,1,-1.6542e-05,-4.7392e-07,0,5.4416e-07,-3.1201e-06,-6.7285e+06,-1.622e+05,0,2.2117e+05,-23698,11088,11599,1,11599,1,-8.1786e-06,-1.7252e-07,0,4.0338e-06,-1.5504e-06,-3.3255e+06,-59048,0,1.6371e+06,-4568.8,11598,12621,1,12621,1,8.2206e-06,6.7353e-08,0,1.199e-05,1.5449e-06,3.3287e+06,23015,0,4.8658e+06,3904.1,12620,591.1,0,591.1,0,9.3044e-06,2.0415e-07,0,4.6239e-06,1.752e-06,3.7753e+06,69796,0,1.8776e+06,6880.5,591.1,1
2044,0.08,12111,1,12111,1,2.1333e-08,-3.1408e-08,0,9.2407e-06,-6.7787e-09,147.91,-10735,0,3.7483e+06,-1221.8,12110,13208,1,13208,1,1.9007e-05,6.1854e-07,0,1.9007e-05,3.5407e-06,7.6944e+06,2.1171e+05,0,7.6945e+06,10713,13207,12110,1,12110,1,1.8215e-08,-2.6955e-08,0,9.4054e-06,-1.925e-08,6737.2,-9202.4,0,3.8161e+06,-945.07,12109,11089,1,11089,1,-1.888e-05,-5.1782e-07,0,6.2193e-07,-3.562e-06,-7.6794e+06,-1.7694e+05,0,2.5305e+05,-17470,11088,11599,1,11599,1,-9.3694e-06,-1.7612e-07,0,4.6073e-06,-1.7825e-06,-3.8098e+06,-60184,0,1.8687e+06,-5407.6,11598,12621,1,12621,1,9.4249e-06,8.4298e-08,0,1.3733e-05,1.7711e-06,3.8159e+06,28873,0,5.5715e+06,3794.5,12620,591.1,0,591.1,0,1.0649e-05,2.247e-07,0,5.2932e-06,2.0042e-06,4.3209e+06,76827,0,2.1493e+06,6115.1,591.1,1
2044,0.09,12111,1,12111,1,2.6954e-08,-1.3579e-08,0,1.0822e-05,-8.9924e-09,918.23,-4639.2,0,4.39e+06,-1718.6,12110,13208,1,13208,1,2.2087e-05,7.7893e-07,0,2.2088e-05,4.1213e-06,8.9415e+06,2.6673e+05,0,8.9415e+06,19770,13207,12110,1,12110,1,2.5348e-08,-2.2825e-08,0,1.0968e-05,-8.8569e-09,9150.8,-7790.8,0,4.4503e+06,-1086.2,12109,11089,1,11089,1,-2.198e-05,-5.0181e-07,0,7.3151e-07,-4.1405e-06,-8.9402e+06,-1.7147e+05,0,2.976e+05,-20316,11088,11599,1,11599,1,-1.0938e-05,-1.9374e-07,0,5.4011e-06,-2.0761e-06,-4.4481e+06,-66357,0,2.1905e+06,-5855.7,11598,12621,1,12621,1,1.0989e-05,1.1177e-07,0,1.6088e-05,2.0615e-06,4.4493e+06,38198,0,6.5274e+06,3568.2,12620,591.1,0,591.1,0,1.2472e-05,2.6419e-07,0,6.1994e-06,2.3478e-06,5.0605e+06,90324,0,2.5171e+06,7467.2,591.1,1
2044,0.1,12111,1,12111,1,2.6216e-08,-1.9118e-08,0,1.2446e-05,-4.9014e-09,-532.34,-6534.6,0,5.0498e+06,-59.753,12110,13208,1,13208,1,2.5133e-05,5.6608e-07,0,2.5133e-05,4.6873e-06,1.0174e+07,1.9387e+05,0,1.0174e+07,15897,13207,12110,1,12110,1,2.3352e-08,-1.6463e-08,0,1.2582e-05,-2.6551e-09,9328,-5632.1,0,5.1059e+06,-196.67,12109,11089,1,11089,1,-2.5003e-05,-4.5808e-07,0,8.3878e-07,-4.7112e-06,-1.017e+07,-1.5676e+05,0,3.4115e+05,-17826,11088,11599,1,11599,1,-1.254e-05,-1.6428e-07,0,6.2113e-06,-2.3793e-06,-5.0999e+06,-56088,0,2.5196e+06,-4135.7,11598,12621,1,12621,1,1.2611e-05,9.8946e-08,0,1.8552e-05,2.3605e-06,5.1064e+06,33890,0,7.5255e+06,4226,12620,591.1,0,591.1,0,1.4353e-05,2.1607e-07,0,7.1452e-06,2.6977e-06,5.824e+06,73874,0,2.9003e+06,5916.7,591.1,1
2044,0.11,12111,1,12111,1,3.5575e-08,-5.8067e-08,0,1.3977e-05,-4.8766e-09,2031.7,-19849,0,5.6709e+06,682.42,12110,13208,1,13208,1,2.8288e-05,5.603e-07,0,2.8289e-05,5.277e-06,1.1452e+07,1.9145e+05,0,1.1452e+07,21507,13207,12110,1,12110,1,3.4494e-08,-4.664e-08,0,1.415e-05,-1.7735e-09,13149,-15974,0,5.7421e+06,466.21,12109,11089,1,11089,1,-2.8137e-05,-4.1256e-07,0,9.4574e-07,-5.2999e-06,-1.1444e+07,-1.4112e+05,0,3.8507e+05,-11816,11088,11599,1,11599,1,-1.4107e-05,-2.1203e-07,0,6.9773e-06,-2.666e-06,-5.7365e+06,-72588,0,2.8294e+06,-4168.4,11598,12621,1,12621,1,1.4178e-05,4.7676e-08,0,2.0834e-05,2.6624e-06,5.7416e+06,16330,0,8.4509e+06,4474.3,12620,591.1,0,591.1,0,1.6121e-05,2.0631e-07,0,8.0301e-06,3.0289e-06,6.5415e+06,70533,0,3.2592e+06,6382,591.1,1
2044,0.12,12111,1,12111,1,3.124e-08,-3.1464e-08,0,1.4991e-05,-5.1858e-09,-728.27,-10757,0,6.0827e+06,205.91,12110,13208,1,13208,1,2.9931e-05,5.8684e-07,0,2.9931e-05,5.5903e-06,1.2117e+07,2.0097e+05,0,1.2124e+07,21540,13207,12110,1,12110,1,2.1113e-08,-2.4845e-08,0,1.5128e-05,-5.4106e-09,7694.2,-8492.9,0,6.1378e+06,-165.08,12109,11089,1,11089,1,-2.9807e-05,-5.1606e-07,0,1.0279e-06,-5.6117e-06,-1.2124e+07,-1.7633e+05,0,4.1782e+05,-22210,11088,11599,1,11599,1,-1.5088e-05,-1.626e-07,0,7.4818e-06,-2.857e-06,-6.1357e+06,-55524,0,3.0348e+06,-4428.1,11598,12621,1,12621,1,1.5156e-05,6.8937e-08,0,2.2373e-05,2.8393e-06,6.1371e+06,23557,0,9.0747e+06,4468.2,12620,591.1,0,591.1,0,1.729e-05,2.1032e-07,0,8.6112e-06,3.25e-06,7.0161e+06,71901,0,3.4948e+06,6289.7,591.1,1
2044,0.13,12111,1,12111,1,3.2176e-08,-2.225e-08,0,1.6737e-05,-2.1222e-09,-1661.7,-7608.5,0,6.7911e+06,1560.7,12110,13208,1,13208,1,3.3293e-05,5.3594e-07,0,3.3294e-05,6.218e-06,1.3478e+07,1.8355e+05,0,1.3483e+07,18628,13207,12110,1,12110,1,2.2297e-08,-2.1926e-08,0,1.6851e-05,-2.5205e-09,9009.3,-7480.4,0,6.8365e+06,948.03,12109,11089,1,11089,1,-3.315e-05,-4.3021e-07,0,1.1537e-06,-6.2397e-06,-1.3483e+07,-1.4726e+05,0,4.6859e+05,-14810,11088,11599,1,11599,1,-1.6811e-05,-1.6577e-07,0,8.3568e-06,-3.175e-06,-6.8358e+06,-56683,0,3.3911e+06,-3314.2,11598,12621,1,12621,1,1.6881e-05,9.2749e-08,0,2.4999e-05,3.1748e-06,6.8361e+06,31710,0,1.0144e+07,5481.8,12620,591.1,0,591.1,0,1.9306e-05,2.0774e-07,0,9.6193e-06,3.6267e-06,7.8343e+06,71019,0,3.9039e+06,6537.9,591.1,1
2044,0.14,12111,1,12111,1,4.255e-08,1.0002e-10,0,1.752e-05,-1.0967e-08,1302.4,35.748,0,7.1087e+06,-1347.9,12110,13208,1,13208,1,3.4768e-05,6.4001e-07,0,3.4793e-05,6.5175e-06,1.4075e+07,2.1919e+05,0,1.4152e+07,13252,13207,12110,1,12110,1,4.5715e-08,-4.9523e-09,0,1.7641e-05,-1.5202e-08,17188,-1692.7,0,7.1586e+06,-1379.9,12109,11089,1,11089,1,-3.4793e-05,-5.4356e-07,0,1.1891e-06,-6.5194e-06,-1.4152e+07,-1.8572e+05,0,4.8371e+05,-21233,11088,11599,1,11599,1,-1.7588e-05,-1.424e-07,0,8.7494e-06,-3.3423e-06,-7.1527e+06,-48680,0,3.5487e+06,-6157.9,11598,12621,1,12621,1,1.7688e-05,1.2992e-07,0,2.6141e-05,3.3126e-06,7.1614e+06,44377,0,1.0608e+07,4254.3,12620,591.1,0,591.1,0,2.0208e-05,2.3452e-07,0,1.0066e-05,3.7975e-06,8.2001e+06,80182,0,4.0853e+06,6852.4,591.1,1
2044,0.15,12111,1,12111,1,5.0511e-08,-3.1778e-08,0,1.948e-05,-1.1115e-08,2877.6,-10862,0,7.9047e+06,-791.3,12110,13208,1,13208,1,3.8713e-05,6.6521e-07,0,3.8713e-05,7.222e-06,1.5672e+07,2.2729e+05,0,1.5672e+07,21712,13207,12110,1,12110,1,4.8402e-08,-2.9835e-08,0,1.9606e-05,-9.7549e-09,18526,-10192,0,7.9577e+06,-662.02,12109,11089,1,11089,1,-3.8509e-05,-4.3969e-07,0,1.3225e-06,-7.2544e-06,-1.5663e+07,-1.5051e+05,0,5.3774e+05,-14865,11088,11599,1,11599,1,-1.9546e-05,-1.8238e-07,0,9.7389e-06,-3.6966e-06,-7.9486e+06,-62466,0,3.9531e+06,-5280.6,11598,12621,1,12621,1,1.966e-05,7.3579e-08,0,2.9118e-05,3.6847e-06,7.9616e+06,25202,0,1.1812e+07,3442.5,12620,591.1,0,591.1,0,2.2472e-05,2.1658e-07,0,1.1196e-05,4.2196e-06,9.1189e+06,74046,0,4.5437e+06,5969.5,591.1,1
2044,0.16,12111,1,12111,1,5.2464e-08,6.7646e-09,0,2.0656e-05,-1.1335e-08,2624.9,2314.8,0,8.382e+06,-735.44,12110,13208,1,13208,1,4.1039e-05,6.5637e-07,0,4.1039e-05,7.681e-06,1.6613e+07,2.2426e+05,0,1.6669e+07,18705,13207,12110,1,12110,1,5.2139e-08,-7.6009e-09,0,2.08e-05,-1.5165e-08,18711,-2597.3,0,8.4435e+06,-1122.5,12109,11089,1,11089,1,-4.098e-05,-4.8861e-07,0,1.4007e-06,-7.7035e-06,-1.6669e+07,-1.6694e+05,0,5.7054e+05,-17618,11088,11599,1,11599,1,-2.0747e-05,-1.131e-07,0,1.0315e-05,-3.9136e-06,-8.4372e+06,-38589,0,4.1833e+06,-5333.8,11598,12621,1,12621,1,2.086e-05,1.1218e-07,0,3.0841e-05,3.9061e-06,8.4488e+06,38274,0,1.2518e+07,4218.4,12620,591.1,0,591.1,0,2.383e-05,2.1237e-07,0,1.1875e-05,4.475e-06,9.6701e+06,72609,0,4.8191e+06,6910.5,591.1,1
2044,0.17,12111,1,12111,1,6.027e-08,-5.8167e-08,0,2.2476e-05,-1.1389e-08,4269.3,-19882,0,9.1205e+06,-151.04,12110,13208,1,13208,1,4.4643e-05,5.2584e-07,0,4.4643e-05,8.338e-06,1.8073e+07,1.8e+05,0,1.8084e+07,20324,13207,12110,1,12110,1,6.5654e-08,-4.8713e-08,0,2.2633e-05,-4.6981e-09,25216,-16637,0,9.187e+06,-10.685,12109,11089,1,11089,1,-4.4461e-05,-4.1221e-07,0,1.524e-06,-8.3658e-06,-1.8084e+07,-1.4111e+05,0,6.1923e+05,-12365,11088,11599,1,11599,1,-2.2575e-05,-2.0479e-07,0,1.1231e-05,-4.2635e-06,-9.1806e+06,-69898,0,4.5574e+06,-4617.1,11598,12621,1,12621,1,2.2688e-05,4.9164e-08,0,3.36e-05,4.2511e-06,9.1879e+06,16803,0,1.3633e+07,4051,12620,591.1,0,591.1,0,2.5932e-05,1.9485e-07,0,1.2927e-05,4.8679e-06,1.0523e+07,66616,0,5.2457e+06,5856.3,591.1,1
2044,0.18,12111,1,12111,1,3.7157e-08,-6.2367e-08,0,2.3772e-05,-5.0159e-09,-6114.6,-21320,0,9.6462e+06,700.48,12110,13208,1,13208,1,4.7347e-05,6.3785e-07,0,4.7348e-05,8.8612e-06,1.9167e+07,2.1829e+05,0,1.9221e+07,17762,13207,12110,1,12110,1,3.9585e-08,-4.5577e-08,0,2.3977e-05,-5.3105e-09,15373,-15558,0,9.7308e+06,137.13,12109,11089,1,11089,1,-4.7256e-05,-5.4479e-07,0,1.6346e-06,-8.8771e-06,-1.9221e+07,-1.8613e+05,0,6.6481e+05,-14511,11088,11599,1,11599,1,-2.3943e-05,-2.3853e-07,0,1.1865e-05,-4.5162e-06,-9.7375e+06,-81675,0,4.8149e+06,-3854.7,11598,12621,1,12621,1,2.4012e-05,5.9778e-08,0,3.5504e-05,4.5023e-06,9.7238e+06,20428,0,1.4407e+07,5153,12620,591.1,0,591.1,0,2.7425e-05,2.4674e-07,0,1.3669e-05,5.151e-06,1.1129e+07,84352,0,5.547e+06,6393.1,591.1,1
2044,0.19,12111,1,12111,1,7.2025e-08,-4.6783e-08,0,2.527e-05,-1.6108e-08,6332,-15993,0,1.0255e+07,-1223.9,12110,13208,1,13208,1,4.9975e-05,6.3834e-07,0,4.9975e-05,9.3354e-06,2.0231e+07,2.1852e+05,0,2.0248e+07,12431,13207,12110,1,12110,1,7.4088e-08,-3.8541e-08,0,2.5406e-05,-2.195e-08,28605,-13170,0,1.0312e+07,-690.99,12109,11089,1,11089,1,-4.9781e-05,-4.6532e-07,0,1.7195e-06,-9.3678e-06,-2.0248e+07,-1.5929e+05,0,6.9822e+05,-17698,11088,11599,1,11599,1,-2.534e-05,-2.0927e-07,0,1.2629e-05,-4.7875e-06,-1.0305e+07,-71679,0,5.1268e+06,-5530.3,11598,12621,1,12621,1,2.5474e-05,6.7772e-08,0,3.78e-05,4.7702e-06,1.0316e+07,23107,0,1.5336e+07,3535.2,12620,591.1,0,591.1,0,2.9156e-05,2.2299e-07,0,1.4533e-05,5.4731e-06,1.1831e+07,76234,0,5.8973e+06,6007.5,591.1,1
2044,0.2,12111,1,12111,1,5.3066e-08,-2.2125e-08,0,2.7059e-05,-1.1074e-08,-2855.6,-7562.2,0,1.0981e+07,-609.84,12110,13208,1,13208,1,5.3259e-05,5.1433e-07,0,5.3259e-05,9.9575e-06,2.156e+07,1.7615e+05,0,2.1601e+07,11996,13207,12110,1,12110,1,5.0267e-08,-1.9262e-08,0,2.7187e-05,-8.5656e-09,19170,-6584.6,0,1.1032e+07,-930.22,12109,11089,1,11089,1,-5.3107e-05,-3.9219e-07,0,1.8592e-06,-9.9851e-06,-2.1601e+07,-1.3399e+05,0,7.5622e+05,-15181,11088,11599,1,11599,1,-2.713e-05,-1.5253e-07,0,1.3523e-05,-5.1204e-06,-1.1034e+07,-52134,0,5.4874e+06,-4234.1,11598,12621,1,12621,1,2.724e-05,7.621e-08,0,4.0497e-05,5.0964e-06,1.1031e+07,26058,0,1.6427e+07,3283.2,12620,591.1,0,591.1,0,3.1223e-05,1.876e-07,0,1.5569e-05,5.8602e-06,1.2671e+07,64138,0,6.3176e+06,5043.3,591.1,1
2044,0.21,12111,1,12111,1,4.8367e-08,-3.4084e-08,0,2.8084e-05,-6.6806e-09,-5405.5,-11652,0,1.1396e+07,863.53,12110,13208,1,13208,1,5.53e-05,6.5225e-07,0,5.53e-05,1.0341e-05,2.2387e+07,2.2285e+05,0,2.2425e+07,16637,13207,12110,1,12110,1,3.6027e-08,-2.9072e-08,0,2.8224e-05,-2.1765e-08,14045,-9955.2,0,1.1451e+07,588.14,12109,11089,1,11089,1,-5.5134e-05,-5.1617e-07,0,1.9458e-06,-1.0364e-05,-2.2425e+07,-1.767e+05,0,7.9059e+05,-19404,11088,11599,1,11599,1,-2.8176e-05,-1.8913e-07,0,1.4028e-05,-5.3097e-06,-1.1458e+07,-64662,0,5.6948e+06,-4198.9,11598,12621,1,12621,1,2.8269e-05,7.8375e-08,0,4.2021e-05,5.3094e-06,1.1448e+07,26793,0,1.7044e+07,5889.1,12620,591.1,0,591.1,0,3.2403e-05,2.3274e-07,0,1.6153e-05,6.0843e-06,1.3149e+07,79569,0,6.5546e+06,6783.6,591.1,1
2044,0.22,12111,1,12111,1,7.9479e-08,2.2525e-08,0,2.9703e-05,-1.4691e-08,5596.3,7695.5,0,1.2053e+07,-60.989,12110,13208,1,13208,1,5.8508e-05,7.308e-07,0,5.8508e-05,1.096e-05,2.3685e+07,2.4953e+05,0,2.3781e+07,20745,13207,12110,1,12110,1,7.5375e-08,-5.5405e-09,0,2.985e-05,-2.0805e-08,29563,-1893.1,0,1.2116e+07,-556.53,12109,11089,1,11089,1,-5.8466e-05,-4.3669e-07,0,2.0301e-06,-1.0972e-05,-2.3781e+07,-1.4949e+05,0,8.2577e+05,-14952,11088,11599,1,11599,1,-2.9758e-05,-1.3091e-07,0,1.4846e-05,-5.6243e-06,-1.2104e+07,-44638,0,6.0207e+06,-4779.1,11598,12621,1,12621,1,2.9925e-05,1.4138e-07,0,4.4425e-05,5.5871e-06,1.2119e+07,48313,0,1.8027e+07,4376.6,12620,591.1,0,591.1,0,3.4272e-05,2.3555e-07,0,1.7086e-05,6.4346e-06,1.3908e+07,80522,0,6.9332e+06,6869.7,591.1,1
2044,0.23,12111,1,12111,1,5.9495e-08,-1.8719e-10,0,3.1093e-05,-1.0431e-08,-3725.2,-63.525,0,1.2618e+07,147.84,12110,13208,1,13208,1,6.097e-05,6.1305e-07,0,6.097e-05,1.1395e-05,2.4682e+07,2.0945e+05,0,2.4713e+07,13921,13207,12110,1,12110,1,5.1305e-08,-1.1485e-08,0,3.1203e-05,-1.3737e-08,19317,-3927.5,0,1.2665e+07,314.11,12109,11089,1,11089,1,-6.0759e-05,-4.2599e-07,0,2.1471e-06,-1.1427e-05,-2.4713e+07,-1.4554e+05,0,8.7304e+05,-15971,11088,11599,1,11599,1,-3.1153e-05,-1.3267e-07,0,1.5538e-05,-5.8695e-06,-1.267e+07,-45338,0,6.3055e+06,-4239.9,11598,12621,1,12621,1,3.1262e-05,9.5646e-08,0,4.6534e-05,5.8647e-06,1.266e+07,32708,0,1.888e+07,4736.2,12620,591.1,0,591.1,0,3.5878e-05,2.029e-07,0,1.789e-05,6.7336e-06,1.456e+07,69357,0,7.2591e+06,5928.3,591.1,1
2044,0.24,12111,1,12111,1,8.644e-08,3.8639e-09,0,3.2704e-05,-1.5667e-08,5750.8,1322.1,0,1.3272e+07,62.362,12110,13208,1,13208,1,6.4238e-05,6.6066e-07,0,6.4238e-05,1.2012e-05,2.6005e+07,2.2578e+05,0,2.6062e+07,19124,13207,12110,1,12110,1,8.9387e-08,-1.0311e-08,0,3.2804e-05,-1.7235e-08,34917,-3523.4,0,1.3316e+07,-148.69,12109,11089,1,11089,1,-6.4075e-05,-4.5754e-07,0,2.2338e-06,-1.204e-05,-2.6062e+07,-1.5632e+05,0,9.0836e+05,-16337,11088,11599,1,11599,1,-3.2711e-05,-1.6175e-07,0,1.6355e-05,-6.181e-06,-1.3305e+07,-55348,0,6.6342e+06,-4337.6,11598,12621,1,12621,1,3.2892e-05,1.3221e-07,0,4.8937e-05,6.1465e-06,1.3321e+07,45200,0,1.9855e+07,4747.4,12620,591.1,0,591.1,0,3.7737e-05,2.4397e-07,0,1.8817e-05,7.0838e-06,1.5314e+07,83409,0,7.6353e+06,6342.4,591.1,1
2044,0.25,12111,1,12111,1,7.832e-08,1.3496e-09,0,3.3901e-05,-1.2867e-08,1480.4,464.78,0,1.3757e+07,594.28,12110,13208,1,13208,1,6.6413e-05,6.8231e-07,0,6.6413e-05,1.2426e-05,2.6886e+07,2.3311e+05,0,2.6961e+07,21508,13207,12110,1,12110,1,8.191e-08,-1.8741e-08,0,3.4e-05,-1.0247e-08,31924,-6416.8,0,1.3801e+07,630.74,12109,11089,1,11089,1,-6.6284e-05,-4.4472e-07,0,2.3253e-06,-1.245e-05,-2.6961e+07,-1.5194e+05,0,9.4607e+05,-17912,11088,11599,1,11599,1,-3.3932e-05,-1.5201e-07,0,1.6955e-05,-6.4016e-06,-1.38e+07,-51954,0,6.8774e+06,-3898.8,11598,12621,1,12621,1,3.4081e-05,1.1016e-07,0,5.0736e-05,6.3829e-06,1.3802e+07,37662,0,2.0583e+07,5396.5,12620,591.1,0,591.1,0,3.9118e-05,2.2947e-07,0,1.9505e-05,7.3435e-06,1.5874e+07,78447,0,7.9144e+06,7108.1,591.1,1
2044,0.26,12111,1,12111,1,8.5726e-08,2.9863e-08,0,3.503e-05,-1.6001e-08,3335.2,10210,0,1.4215e+07,-146.33,12110,13208,1,13208,1,6.8901e-05,7.5925e-07,0,6.8901e-05,1.2889e-05,2.7893e+07,2.594e+05,0,2.7969e+07,16680,13207,12110,1,12110,1,8.433e-08,-1.8473e-09,0,3.5188e-05,-1.7861e-08,32596,-629.96,0,1.4283e+07,-87.879,12109,11089,1,11089,1,-6.8762e-05,-4.8365e-07,0,2.3978e-06,-1.2913e-05,-2.7969e+07,-1.6524e+05,0,9.7514e+05,-22784,11088,11599,1,11599,1,-3.5106e-05,-1.2777e-07,0,1.7515e-05,-6.6288e-06,-1.4278e+07,-43683,0,7.1044e+06,-5019.9,11598,12621,1,12621,1,3.528e-05,1.5715e-07,0,5.2406e-05,6.5924e-06,1.4288e+07,53708,0,2.1266e+07,5060.2,12620,591.1,0,591.1,0,4.042e-05,2.5371e-07,0,2.0154e-05,7.5885e-06,1.6402e+07,86739,0,8.1778e+06,6952.4,591.1,1
2044,0.27,12111,1,12111,1,8.051e-08,-5.2988e-09,0,3.6721e-05,-1.4563e-08,-265.75,-1807,0,1.4902e+07,38.435,12110,13208,1,13208,1,7.209e-05,7.5507e-07,0,7.209e-05,1.3478e-05,2.9183e+07,2.5797e+05,0,2.9232e+07,29319,13207,12110,1,12110,1,8.6714e-08,-1.8252e-08,0,3.6847e-05,-1.5923e-08,32829,-6234.7,0,1.4957e+07,884.03,12109,11089,1,11089,1,-7.187e-05,-4.6819e-07,0,2.518e-06,-1.3515e-05,-2.9232e+07,-1.5996e+05,0,1.0245e+06,-19871,11088,11599,1,11599,1,-3.6776e-05,-1.8136e-07,0,1.8363e-05,-6.9343e-06,-1.4957e+07,-61969,0,7.449e+06,-4499.4,11598,12621,1,12621,1,3.6933e-05,1.151e-07,0,5.4961e-05,6.9171e-06,1.4957e+07,39417,0,2.2296e+07,5073.9,12620,591.1,0,591.1,0,4.2372e-05,2.5201e-07,0,2.1128e-05,7.9531e-06,1.7195e+07,86153,0,8.5732e+06,7268.8,591.1,1
2044,0.28,12111,1,12111,1,8.6309e-08,-3.993e-08,0,3.8449e-05,-1.9567e-08,224.54,-13648,0,1.5603e+07,-1619.2,12110,13208,1,13208,1,7.534e-05,5.189e-07,0,7.534e-05,1.4087e-05,3.0499e+07,1.7763e+05,0,3.0558e+07,11763,13207,12110,1,12110,1,9.788e-08,-3.4056e-08,0,3.859e-05,-2.7634e-08,37092,-11654,0,1.5664e+07,-978.66,12109,11089,1,11089,1,-7.5128e-05,-4.0113e-07,0,2.6259e-06,-1.4125e-05,-3.0558e+07,-1.3732e+05,0,1.0687e+06,-17313,11088,11599,1,11599,1,-3.8501e-05,-1.7941e-07,0,1.9224e-05,-7.2639e-06,-1.5659e+07,-61299,0,7.801e+06,-4665.3,11598,12621,1,12621,1,3.8678e-05,5.7152e-08,0,5.7576e-05,7.2283e-06,1.5664e+07,19567,0,2.3356e+07,2720.3,12620,591.1,0,591.1,0,4.4371e-05,1.9427e-07,0,2.213e-05,8.3258e-06,1.8006e+07,66424,0,8.9794e+06,5888.2,591.1,1
2044,0.29,12111,1,12111,1,7.7066e-08,-5.6771e-08,0,3.9648e-05,-1.0968e-08,-4063.9,-19407,0,1.609e+07,1265.2,12110,13208,1,13208,1,7.7716e-05,5.643e-07,0,7.7716e-05,1.4526e-05,3.1461e+07,1.928e+05,0,3.151e+07,33336,13207,12110,1,12110,1,7.3449e-08,-5.2498e-08,0,3.9817e-05,2.5369e-09,28782,-17917,0,1.6156e+07,180.13,12109,11089,1,11089,1,-7.7468e-05,-4.4066e-07,0,2.7352e-06,-1.457e-05,-3.151e+07,-1.5055e+05,0,1.1127e+06,-12443,11088,11599,1,11599,1,-3.9725e-05,-1.8615e-07,0,1.9827e-05,-7.4941e-06,-1.6157e+07,-63631,0,8.0436e+06,-3497.7,11598,12621,1,12621,1,3.9895e-05,2.9778e-08,0,5.9362e-05,7.4557e-06,1.6156e+07,10166,0,2.4085e+07,3458.8,12620,591.1,0,591.1,0,4.5754e-05,1.9512e-07,0,2.2819e-05,8.5866e-06,1.8567e+07,66711,0,9.259e+06,8011.7,591.1,1
2044,0.3,12111,1,12111,1,7.6545e-08,-7.7809e-09,0,4.0791e-05,-1.5588e-08,-5674.4,-2659.6,0,1.6554e+07,-726.57,12110,13208,1,13208,1,7.963e-05,5.8052e-07,0,7.963e-05,1.4919e-05,3.2236e+07,1.9816e+05,0,3.2349e+07,12019,13207,12110,1,12110,1,7.6187e-08,-9.3338e-09,0,4.0895e-05,-1.7755e-08,28801,-3185,0,1.6594e+07,-491.94,12109,11089,1,11089,1,-7.9534e-05,-5.1349e-07,0,2.821e-06,-1.4926e-05,-3.2349e+07,-1.7578e+05,0,1.1474e+06,-17175,11088,11599,1,11599,1,-4.0814e-05,-1.2992e-07,0,2.0403e-05,-7.6971e-06,-1.66e+07,-44401,0,8.2741e+06,-5017.4,11598,12621,1,12621,1,4.0975e-05,9.3305e-08,0,6.1079e-05,7.6674e-06,1.6594e+07,31841,0,2.4783e+07,4624.2,12620,591.1,0,591.1,0,4.7071e-05,2.0932e-07,0,2.3475e-05,8.834e-06,1.9102e+07,71560,0,9.5251e+06,6473.8,591.1,1
2044,0.31,12111,1,12111,1,8.5597e-08,-9.4769e-09,0,4.2295e-05,-1.7691e-08,-3384,-3235.9,0,1.7164e+07,-905.75,12110,13208,1,13208,1,8.2743e-05,5.9946e-07,0,8.2743e-05,1.547e-05,3.3496e+07,2.0531e+05,0,3.3554e+07,15792,13207,12110,1,12110,1,8.8142e-08,-9.3749e-09,0,4.243e-05,-3.4656e-08,33398,-3205.7,0,1.722e+07,-682.98,12109,11089,1,11089,1,-8.2494e-05,-4.8269e-07,0,2.9068e-06,-1.5515e-05,-3.3553e+07,-1.6491e+05,0,1.1828e+06,-21660,11088,11599,1,11599,1,-4.2327e-05,-1.6459e-07,0,2.115e-05,-7.9874e-06,-1.7215e+07,-56262,0,8.5809e+06,-5185.4,11598,12621,1,12621,1,4.2521e-05,1.1638e-07,0,6.3331e-05,7.9479e-06,1.722e+07,39739,0,2.5699e+07,3593.8,12620,591.1,0,591.1,0,4.8808e-05,2.2969e-07,0,2.4342e-05,9.1588e-06,1.9806e+07,78534,0,9.8769e+06,6058.7,591.1,1
2044,0.32,12111,1,12111,1,1.0767e-07,-5.8579e-08,0,4.3529e-05,-1.7371e-08,4817.5,-20026,0,1.7665e+07,965.05,12110,13208,1,13208,1,8.5433e-05,6.6818e-07,0,8.5433e-05,1.5964e-05,3.4585e+07,2.2808e+05,0,3.4622e+07,31146,13207,12110,1,12110,1,1.1189e-07,-4.9215e-08,0,4.3712e-05,-1.0094e-08,42516,-16821,0,1.7744e+07,298.83,12109,11089,1,11089,1,-8.512e-05,-5.2685e-07,0,2.9738e-06,-1.6016e-05,-3.4622e+07,-1.8e+05,0,1.2108e+06,-15195,11088,11599,1,11599,1,-4.3594e-05,-2.3464e-07,0,2.1766e-05,-8.2312e-06,-1.773e+07,-80153,0,8.8323e+06,-4432.1,11598,12621,1,12621,1,4.3819e-05,6.1687e-08,0,6.5171e-05,8.1894e-06,1.7745e+07,21127,0,2.6444e+07,4607.2,12620,591.1,0,591.1,0,5.0231e-05,2.4556e-07,0,2.5051e-05,9.4273e-06,2.0384e+07,83953,0,1.0165e+07,8208.2,591.1,1
2044,0.33,12111,1,12111,1,1.1271e-07,-2.4677e-08,0,4.4794e-05,-1.9469e-08,5636.2,-8439.8,0,1.8178e+07,473.42,12110,13208,1,13208,1,8.7721e-05,7.4649e-07,0,8.7721e-05,1.6406e-05,3.5511e+07,2.5554e+05,0,3.5588e+07,25738,13207,12110,1,12110,1,1.0643e-07,-2.4131e-08,0,4.4926e-05,-2.1574e-08,41045,-8258.8,0,1.8236e+07,246.7,12109,11089,1,11089,1,-8.7496e-05,-6.2199e-07,0,3.0665e-06,-1.6444e-05,-3.5588e+07,-2.1292e+05,0,1.2474e+06,-18556,11088,11599,1,11599,1,-4.4807e-05,-2.0942e-07,0,2.2398e-05,-8.4579e-06,-1.8223e+07,-71601,0,9.0861e+06,-5680.6,11598,12621,1,12621,1,4.5039e-05,1.3264e-07,0,6.7053e-05,8.4246e-06,1.824e+07,45394,0,2.7206e+07,6317,12620,591.1,0,591.1,0,5.1689e-05,2.8063e-07,0,2.5775e-05,9.7023e-06,2.0976e+07,95938,0,1.0459e+07,7995.2,591.1,1
2044,0.34,12111,1,12111,1,9.203e-08,-1.0662e-08,0,4.5923e-05,-1.6473e-08,-3844,-3647.7,0,1.8636e+07,96.466,12110,13208,1,13208,1,8.97e-05,7.6227e-07,0,8.97e-05,1.6793e-05,3.6313e+07,2.6027e+05,0,3.6436e+07,16629,13207,12110,1,12110,1,8.8616e-08,-1.633e-08,0,4.604e-05,-2.5735e-08,34105,-5581.9,0,1.8689e+07,223.31,12109,11089,1,11089,1,-8.9579e-05,-5.9127e-07,0,3.1705e-06,-1.6817e-05,-3.6436e+07,-2.0241e+05,0,1.2892e+06,-22048,11088,11599,1,11599,1,-4.5956e-05,-1.814e-07,0,2.2969e-05,-8.675e-06,-1.8692e+07,-61972,0,9.3146e+06,-4761,11598,12621,1,12621,1,4.6136e-05,1.3177e-07,0,6.8761e-05,8.634e-06,1.8684e+07,45046,0,2.7901e+07,6232.7,12620,591.1,0,591.1,0,5.2993e-05,2.6578e-07,0,2.6426e-05,9.9465e-06,2.1505e+07,90855,0,1.0723e+07,7315,591.1,1
2044,0.35,12111,1,12111,1,1.1282e-07,-3.0152e-08,0,4.7781e-05,-2.1927e-08,2801.6,-10308,0,1.9391e+07,-568.67,12110,13208,1,13208,1,9.3473e-05,5.9945e-07,0,9.3473e-05,1.7466e-05,3.784e+07,2.0468e+05,0,3.7885e+07,13184,13207,12110,1,12110,1,1.0735e-07,-1.5244e-08,0,4.7942e-05,-3.1233e-08,42017,-5221.4,0,1.946e+07,-436.13,12109,11089,1,11089,1,-9.3142e-05,-5.4691e-07,0,3.2851e-06,-1.7523e-05,-3.7885e+07,-1.8717e+05,0,1.3358e+06,-21990,11088,11599,1,11599,1,-4.7819e-05,-1.8727e-07,0,2.3893e-05,-9.0234e-06,-1.9448e+07,-64140,0,9.692e+06,-5242.2,11598,12621,1,12621,1,4.8051e-05,1.0789e-07,0,7.156e-05,8.9854e-06,1.946e+07,36955,0,2.9032e+07,4407,12620,591.1,0,591.1,0,5.514e-05,2.376e-07,0,2.7502e-05,1.0346e-05,2.2376e+07,81233,0,1.1159e+07,6624.1,591.1,1
2044,0.36,12111,1,12111,1,1.0706e-07,-6.2693e-09,0,4.8625e-05,-2.2375e-08,-416.23,-2143.2,0,1.9733e+07,-1215.8,12110,13208,1,13208,1,9.5085e-05,7.5053e-07,0,9.5085e-05,1.7788e-05,3.8492e+07,2.5704e+05,0,3.859e+07,20082,13207,12110,1,12110,1,9.9685e-08,-1.5683e-08,0,4.8776e-05,-2.5556e-08,38071,-5349.8,0,1.9797e+07,-1298.5,12109,11089,1,11089,1,-9.4875e-05,-6.0318e-07,0,3.3515e-06,-1.7829e-05,-3.859e+07,-2.0648e+05,0,1.363e+06,-20777,11088,11599,1,11599,1,-4.865e-05,-1.8201e-07,0,2.4313e-05,-9.1842e-06,-1.9786e+07,-62339,0,9.8612e+06,-6789.6,11598,12621,1,12621,1,4.8884e-05,1.4021e-07,0,7.2795e-05,9.1424e-06,1.9797e+07,47912,0,2.9536e+07,4871.1,12620,591.1,0,591.1,0,5.6112e-05,2.7328e-07,0,2.7984e-05,1.0532e-05,2.277e+07,93430,0,1.1355e+07,7896.2,591.1,1
2044,0.37,12111,1,12111,1,1.0733e-07,-5.6246e-08,0,5.0333e-05,-2.0619e-08,-1701,-19229,0,2.0426e+07,-464.54,12110,13208,1,13208,1,9.8576e-05,6.1673e-07,0,9.8576e-05,1.843e-05,3.9906e+07,2.1112e+05,0,3.9969e+07,13743,13207,12110,1,12110,1,9.6798e-08,-3.4283e-08,0,5.0525e-05,-2.5158e-08,37638,-11695,0,2.0504e+07,-546.5,12109,11089,1,11089,1,-9.8268e-05,-5.5777e-07,0,3.4691e-06,-1.8479e-05,-3.9969e+07,-1.9057e+05,0,1.4104e+06,-22144,11088,11599,1,11599,1,-5.0422e-05,-2.165e-07,0,2.5161e-05,-9.5026e-06,-2.0507e+07,-73954,0,1.0209e+07,-5329.9,11598,12621,1,12621,1,5.0628e-05,7.1241e-08,0,7.538e-05,9.4802e-06,2.0504e+07,24362,0,3.0584e+07,4698,12620,591.1,0,591.1,0,5.8085e-05,2.3596e-07,0,2.8971e-05,1.0899e-05,2.3571e+07,80666,0,1.1755e+07,6601.3,591.1,1
2044,0.38,12111,1,12111,1,1.0973e-07,-7.346e-08,0,5.154e-05,-2.0386e-08,-1761.8,-25113,0,2.0915e+07,-183.2,12110,13208,1,13208,1,0.00010125,7.6387e-07,0,0.00010125,1.8933e-05,4.0989e+07,2.6098e+05,0,4.106e+07,24589,13207,12110,1,12110,1,1.04e-07,-4.641e-08,0,5.1792e-05,-3.9744e-08,39831,-15822,0,2.1015e+07,-296.42,12109,11089,1,11089,1,-0.00010095,-6.8543e-07,0,3.5516e-06,-1.8984e-05,-4.106e+07,-2.3464e+05,0,1.4438e+06,-30450,11088,11599,1,11599,1,-5.1679e-05,-2.8363e-07,0,2.5761e-05,-9.7437e-06,-2.1018e+07,-96993,0,1.0454e+07,-6872.1,11598,12621,1,12621,1,5.1891e-05,7.9124e-08,0,7.7146e-05,9.7168e-06,2.1015e+07,27023,0,3.1296e+07,6360.7,12620,591.1,0,591.1,0,5.9475e-05,3.0301e-07,0,2.9659e-05,1.1164e-05,2.4135e+07,1.036e+05,0,1.2035e+07,9278.5,591.1,1
2044,0.39,12111,1,12111,1,1.1333e-07,-6.6362e-08,0,5.3453e-05,-1.9886e-08,-1932.6,-22686,0,2.1692e+07,301.16,12110,13208,1,13208,1,0.00010471,6.3086e-07,0,0.00010471,1.9579e-05,4.2391e+07,2.1554e+05,0,4.2466e+07,21190,13207,12110,1,12110,1,1.034e-07,-4.5473e-08,0,5.3662e-05,-2.0224e-08,39183,-15575,0,2.1776e+07,113,12109,11089,1,11089,1,-0.0001044,-5.9987e-07,0,3.6867e-06,-1.9631e-05,-4.2466e+07,-2.0495e+05,0,1.499e+06,-18139,11088,11599,1,11599,1,-5.3537e-05,-2.5395e-07,0,2.6718e-05,-1.0096e-05,-2.1774e+07,-86650,0,1.0841e+07,-5037.1,11598,12621,1,12621,1,5.3769e-05,8.5065e-08,0,8.0044e-05,1.0062e-05,2.1775e+07,29016,0,3.2477e+07,5596.7,12620,591.1,0,591.1,0,6.1686e-05,2.6344e-07,0,3.0767e-05,1.1576e-05,2.5033e+07,90062,0,1.2484e+07,7188,591.1,1
2044,0.4,12111,1,12111,1,1.0324e-07,-4.3538e-08,0,5.5047e-05,-2.1037e-08,-7707.5,-14884,0,2.2339e+07,-987.66,12110,13208,1,13208,1,0.00010748,6.1196e-07,0,0.00010748,2.0101e-05,4.3512e+07,2.0949e+05,0,4.36e+07,21214,13207,12110,1,12110,1,1.0026e-07,-3.6763e-08,0,5.5214e-05,-3.3951e-08,37544,-12592,0,2.2404e+07,-638.66,12109,11089,1,11089,1,-0.00010719,-5.0075e-07,0,3.8134e-06,-2.0152e-05,-4.36e+07,-1.7109e+05,0,1.5513e+06,-26025,11088,11599,1,11599,1,-5.5103e-05,-1.8884e-07,0,2.7528e-05,-1.0385e-05,-2.2411e+07,-64540,0,1.117e+07,-5338.7,11598,12621,1,12621,1,5.5321e-05,6.4367e-08,0,8.2462e-05,1.0347e-05,2.2404e+07,22047,0,3.346e+07,4204,12620,591.1,0,591.1,0,6.3528e-05,2.1655e-07,0,3.1688e-05,1.192e-05,2.578e+07,74032,0,1.2857e+07,7024.9,591.1,1
2044,0.41,12111,1,12111,1,1.2026e-07,-2.8339e-08,0,5.6329e-05,-2.4211e-08,-1971.6,-9688.2,0,2.286e+07,-987.51,12110,13208,1,13208,1,0.0001098,6.6769e-07,0,0.0001098,2.0524e-05,4.4448e+07,2.2824e+05,0,4.4519e+07,16453,13207,12110,1,12110,1,1.0487e-07,-2.523e-08,0,5.6463e-05,-3.0523e-08,40093,-8621.2,0,2.2915e+07,-1099,12109,11089,1,11089,1,-0.00010945,-5.4092e-07,0,3.89e-06,-2.0584e-05,-4.4519e+07,-1.8516e+05,0,1.5824e+06,-17552,11088,11599,1,11599,1,-5.6326e-05,-1.7976e-07,0,2.8179e-05,-1.0625e-05,-2.2909e+07,-61543,0,1.1429e+07,-5862.6,11598,12621,1,12621,1,5.6582e-05,8.551e-08,0,8.4386e-05,1.0576e-05,2.2915e+07,29252,0,3.4237e+07,3734.9,12620,591.1,0,591.1,0,6.5006e-05,2.3677e-07,0,3.2424e-05,1.2197e-05,2.638e+07,80946,0,1.3156e+07,6510,591.1,1
2044,0.42,12111,1,12111,1,1.4103e-07,-2.1481e-08,0,5.7888e-05,-2.622e-08,5186.6,-7343.9,0,2.3492e+07,-202.46,12110,13208,1,13208,1,0.00011269,5.3468e-07,0,0.00011269,2.1067e-05,4.5617e+07,1.8257e+05,0,4.5691e+07,13098,13207,12110,1,12110,1,1.4105e-07,-1.6175e-08,0,5.7991e-05,-3.4569e-08,54598,-5540.2,0,2.354e+07,-87.946,12109,11089,1,11089,1,-0.00011233,-4.7649e-07,0,3.9768e-06,-2.1126e-05,-4.5691e+07,-1.628e+05,0,1.6174e+06,-13212,11088,11599,1,11599,1,-5.785e-05,-1.5365e-07,0,2.8986e-05,-1.0913e-05,-2.3529e+07,-52569,0,1.1755e+07,-4189.7,11598,12621,1,12621,1,5.8141e-05,9.3925e-08,0,8.6745e-05,1.0865e-05,2.3546e+07,32171,0,3.5195e+07,4247.8,12620,591.1,0,591.1,0,6.6807e-05,2.0035e-07,0,3.3325e-05,1.2533e-05,2.7111e+07,68493,0,1.3522e+07,4974.4,591.1,1
2044,0.43,12111,1,12111,1,1.312e-07,-4.1324e-08,0,5.9388e-05,-2.2759e-08,-50.426,-14130,0,2.4101e+07,470.89,12110,13208,1,13208,1,0.00011592,6.2313e-07,0,0.00011592,2.1673e-05,4.6926e+07,2.1277e+05,0,4.7011e+07,17044,13207,12110,1,12110,1,1.2389e-07,-3.0192e-08,0,5.9553e-05,-2.0947e-08,47971,-10313,0,2.4174e+07,666.73,12109,11089,1,11089,1,-0.00011558,-4.7556e-07,0,4.0909e-06,-2.1733e-05,-4.7011e+07,-1.6279e+05,0,1.6633e+06,-17758,11088,11599,1,11599,1,-5.9404e-05,-1.9479e-07,0,2.9707e-05,-1.1196e-05,-2.4161e+07,-66431,0,1.2051e+07,-4317.3,11598,12621,1,12621,1,5.9688e-05,6.7583e-08,0,8.8963e-05,1.1155e-05,2.4174e+07,23087,0,3.6096e+07,4591.8,12620,591.1,0,591.1,0,6.8539e-05,2.2557e-07,0,3.419e-05,1.2858e-05,2.7814e+07,77117,0,1.3872e+07,6237.1,591.1,1
2044,0.44,12111,1,12111,1,1.4553e-07,3.5773e-08,0,6.0561e-05,-2.5056e-08,4712.9,12227,0,2.4577e+07,628.62,12110,13208,1,13208,1,0.00011823,7.4117e-07,0,0.00011823,2.2134e-05,4.7862e+07,2.5322e+05,0,4.7995e+07,17479,13207,12110,1,12110,1,1.3133e-07,5.268e-09,0,6.073e-05,-2.4427e-08,51318,1804.1,0,2.4652e+07,588.43,12109,11089,1,11089,1,-0.000118,-4.5728e-07,0,4.1677e-06,-2.2166e-05,-4.7995e+07,-1.5623e+05,0,1.6948e+06,-21446,11088,11599,1,11599,1,-6.0592e-05,-9.9713e-08,0,3.0306e-05,-1.1424e-05,-2.4645e+07,-34059,0,1.2291e+07,-4577.7,11598,12621,1,12621,1,6.0879e-05,1.559e-07,0,9.0736e-05,1.1376e-05,2.4656e+07,53352,0,3.6812e+07,5916.9,12620,591.1,0,591.1,0,6.9891e-05,2.2966e-07,0,3.4862e-05,1.3114e-05,2.8362e+07,78509,0,1.4145e+07,6730.7,591.1,1
2044,0.45,12111,1,12111,1,1.4711e-07,-1.1487e-08,0,6.1999e-05,-2.6687e-08,3814.5,-3928.6,0,2.516e+07,59.892,12110,13208,1,13208,1,0.00012083,7.4552e-07,0,0.00012083,2.2582e-05,4.8909e+07,2.5471e+05,0,4.8983e+07,23748,13207,12110,1,12110,1,1.4687e-07,-1.5233e-08,0,6.2118e-05,-3.7094e-08,56862,-5200.8,0,2.5215e+07,6.5711,12109,11089,1,11089,1,-0.00012043,-5.2921e-07,0,4.2548e-06,-2.2652e-05,-4.8983e+07,-1.8116e+05,0,1.7306e+06,-24387,11088,11599,1,11599,1,-6.1965e-05,-1.8347e-07,0,3.1034e-05,-1.1702e-05,-2.5202e+07,-62679,0,1.2585e+07,-5411.5,11598,12621,1,12621,1,6.2277e-05,1.1881e-07,0,9.2888e-05,1.1636e-05,2.5221e+07,40589,0,3.7687e+07,4823.4,12620,591.1,0,591.1,0,7.155e-05,2.5775e-07,0,3.5689e-05,1.3426e-05,2.9035e+07,88116,0,1.4481e+07,7979.8,591.1,1
2044,0.46,12111,1,12111,1,1.1092e-07,-2.4332e-08,0,6.3543e-05,-1.7946e-08,-12265,-8320.6,0,2.5787e+07,873.57,12110,13208,1,13208,1,0.00012376,6.6992e-07,0,0.00012376,2.3158e-05,5.0094e+07,2.2888e+05,0,5.0232e+07,21235,13207,12110,1,12110,1,1.097e-07,-2.4748e-08,0,6.367e-05,-1.2173e-08,42620,-8457.8,0,2.5844e+07,-292.46,12109,11089,1,11089,1,-0.0001235,-4.6419e-07,0,4.3993e-06,-2.3201e-05,-5.0232e+07,-1.589e+05,0,1.7891e+06,-17479,11088,11599,1,11599,1,-6.3565e-05,-1.7582e-07,0,3.1785e-05,-1.1973e-05,-2.5854e+07,-60173,0,1.2896e+07,-4098.7,11598,12621,1,12621,1,6.3792e-05,7.8362e-08,0,9.5212e-05,1.1933e-05,2.5835e+07,26776,0,3.8631e+07,4813.3,12620,591.1,0,591.1,0,7.3334e-05,2.2539e-07,0,3.6581e-05,1.3758e-05,2.9759e+07,77054,0,1.4842e+07,6995.4,591.1,1
2044,0.47,12111,1,12111,1,1.474e-07,6.8134e-09,0,6.4724e-05,-2.6111e-08,1201.3,2329.1,0,2.6266e+07,309.22,12110,13208,1,13208,1,0.00012602,7.7297e-07,0,0.00012602,2.3579e-05,5.1006e+07,2.6393e+05,0,5.1155e+07,21337,13207,12110,1,12110,1,1.378e-07,-9.9796e-09,0,6.484e-05,-3.6229e-08,53233,-3410,0,2.6319e+07,223.79,12109,11089,1,11089,1,-0.00012577,-5.3928e-07,0,4.4586e-06,-2.3624e-05,-5.1155e+07,-1.8461e+05,0,1.8133e+06,-26645,11088,11599,1,11599,1,-6.4689e-05,-1.4878e-07,0,3.2397e-05,-1.2216e-05,-2.6312e+07,-50867,0,1.3138e+07,-4681.1,11598,12621,1,12621,1,6.4994e-05,1.2801e-07,0,9.696e-05,1.2151e-05,2.632e+07,43770,0,3.9349e+07,5844.2,12620,591.1,0,591.1,0,7.4695e-05,2.5145e-07,0,3.7257e-05,1.4015e-05,3.0311e+07,85955,0,1.5116e+07,7812.8,591.1,1
2044,0.48,12111,1,12111,1,1.5297e-07,-4.3529e-08,0,6.6166e-05,-2.731e-08,1976.5,-14881,0,2.6851e+07,236.16,12110,13208,1,13208,1,0.00012901,6.2278e-07,0,0.00012901,2.4123e-05,5.2216e+07,2.1278e+05,0,5.2318e+07,14978,13207,12110,1,12110,1,1.5068e-07,-3.1286e-08,0,6.6338e-05,-1.577e-08,58477,-10698,0,2.6928e+07,39.914,12109,11089,1,11089,1,-0.00012863,-5.2626e-07,0,4.5533e-06,-2.4188e-05,-5.2318e+07,-1.8015e+05,0,1.8519e+06,-12088,11088,11599,1,11599,1,-6.6184e-05,-2.0081e-07,0,3.3119e-05,-1.2479e-05,-2.6918e+07,-68594,0,1.3429e+07,-4670.1,11598,12621,1,12621,1,6.6491e-05,7.5871e-08,0,9.9142e-05,1.2435e-05,2.6928e+07,25943,0,4.0224e+07,4908,12620,591.1,0,591.1,0,7.6361e-05,2.3042e-07,0,3.8091e-05,1.4325e-05,3.0987e+07,78778,0,1.5455e+07,6057.3,591.1,1
2044,0.49,12111,1,12111,1,1.6598e-07,-3.4815e-08,0,6.7484e-05,-3.7074e-08,4920.4,-11906,0,2.7385e+07,-2855.3,12110,13208,1,13208,1,0.0001315,6.8869e-07,0,0.0001315,2.4583e-05,5.3217e+07,2.3587e+05,0,5.3322e+07,17550,13207,12110,1,12110,1,1.6733e-07,-3.8582e-08,0,6.7639e-05,-4.6719e-08,64116,-13182,0,2.7456e+07,-2330,12109,11089,1,11089,1,-0.0001311,-5.4582e-07,0,4.6227e-06,-2.4654e-05,-5.3322e+07,-1.8648e+05,0,1.8804e+06,-23085,11088,11599,1,11599,1,-6.7473e-05,-1.9769e-07,0,3.378e-05,-1.2731e-05,-2.7443e+07,-67561,0,1.37e+07,-6803.4,11598,12621,1,12621,1,6.7806e-05,7.303e-08,0,0.00010113,1.2663e-05,2.746e+07,25006,0,4.1027e+07,2268.3,12620,591.1,0,591.1,0,7.7882e-05,2.4811e-07,0,3.8851e-05,1.4611e-05,3.1603e+07,84815,0,1.5762e+07,6951.1,591.1,1
2044,0.5,12111,1,12111,1,1.5677e-07,2.8631e-08,0,6.8944e-05,-2.8181e-08,-279.63,9786.6,0,2.7977e+07,151.11,12110,13208,1,13208,1,0.00013429,7.1841e-07,0,0.00013429,2.5144e-05,5.4343e+07,2.4545e+05,0,5.4557e+07,17773,13207,12110,1,12110,1,1.6649e-07,7.5365e-09,0,6.9055e-05,-2.2677e-08,64913,2575.8,0,2.8031e+07,-226.59,12109,11089,1,11089,1,-0.00013413,-5.3004e-07,0,4.7274e-06,-2.518e-05,-5.4557e+07,-1.8144e+05,0,1.9229e+06,-15784,11088,11599,1,11599,1,-6.8917e-05,-1.4378e-07,0,3.4518e-05,-1.3003e-05,-2.8031e+07,-49140,0,1.3997e+07,-4925.4,11598,12621,1,12621,1,6.9231e-05,1.849e-07,0,0.0001033,1.293e-05,2.8037e+07,63180,0,4.191e+07,4898.7,12620,591.1,0,591.1,0,7.9567e-05,2.6346e-07,0,3.9691e-05,1.4927e-05,3.2286e+07,90071,0,1.6102e+07,6694.3,591.1,1
2044,0.51,12111,1,12111,1,1.6614e-07,-6.0234e-09,0,7.0181e-05,-3.3089e-08,1483.6,-2057.6,0,2.8479e+07,-1182.8,12110,13208,1,13208,1,0.0001366,6.8168e-07,0,0.0001366,2.5551e-05,5.5273e+07,2.3269e+05,0,5.5415e+07,17200,13207,12110,1,12110,1,1.7362e-07,-1.4392e-08,0,7.0292e-05,-2.5384e-08,66881,-4927.9,0,2.8533e+07,-853.42,12109,11089,1,11089,1,-0.00013624,-5.5739e-07,0,4.8097e-06,-2.561e-05,-5.5415e+07,-1.9071e+05,0,1.9567e+06,-20372,11088,11599,1,11599,1,-7.0129e-05,-1.8056e-07,0,3.5142e-05,-1.323e-05,-2.8522e+07,-61772,0,1.4249e+07,-6919.5,11598,12621,1,12621,1,7.0476e-05,1.4258e-07,0,0.00010516,1.3175e-05,2.8541e+07,48626,0,4.266e+07,4543.1,12620,591.1,0,591.1,0,8.0995e-05,2.5811e-07,0,4.0403e-05,1.5197e-05,3.2864e+07,88243,0,1.639e+07,7163.5,591.1,1
2044,0.52,12111,1,12111,1,1.599e-07,1.0376e-08,0,7.185e-05,-3.0091e-08,-3042.6,3546.8,0,2.9155e+07,-424.04,12110,13208,1,13208,1,0.00013995,7.5196e-07,0,0.00013995,2.6182e-05,5.6623e+07,2.5675e+05,0,5.6804e+07,20481,13207,12110,1,12110,1,1.633e-07,-8.0194e-09,0,7.1967e-05,-2.8564e-08,62510,-2743.3,0,2.9216e+07,-390.32,12109,11089,1,11089,1,-0.00013965,-4.9944e-07,0,4.9312e-06,-2.624e-05,-5.6804e+07,-1.7097e+05,0,2.0063e+06,-18526,11088,11599,1,11599,1,-7.183e-05,-1.6039e-07,0,3.5974e-05,-1.3535e-05,-2.9215e+07,-54914,0,1.4585e+07,-5598.7,11598,12621,1,12621,1,7.2144e-05,1.4731e-07,0,0.00010765,1.3485e-05,2.9218e+07,50456,0,4.3679e+07,4511.4,12620,591.1,0,591.1,0,8.2921e-05,2.5782e-07,0,4.1365e-05,1.5556e-05,3.3645e+07,88143,0,1.678e+07,7206.5,591.1,1
2044,0.53,12111,1,12111,1,1.7381e-07,-1.7955e-08,0,7.3246e-05,-3.2128e-08,523.62,-6136,0,2.9721e+07,-193.13,12110,13208,1,13208,1,0.00014237,6.1724e-07,0,0.00014237,2.6643e-05,5.7597e+07,2.1129e+05,0,5.7802e+07,17165,13207,12110,1,12110,1,1.7698e-07,-1.8366e-08,0,7.3349e-05,-4.241e-08,68195,-6260.3,0,2.9775e+07,-628.09,12109,11089,1,11089,1,-0.00014211,-4.9473e-07,0,5.0333e-06,-2.6691e-05,-5.7802e+07,-1.6903e+05,0,2.0476e+06,-17806,11088,11599,1,11599,1,-7.3179e-05,-1.5402e-07,0,3.6693e-05,-1.3801e-05,-2.9763e+07,-52536,0,1.4876e+07,-5052.2,11598,12621,1,12621,1,7.3534e-05,8.5493e-08,0,0.00010978,1.3746e-05,2.9779e+07,29233,0,4.4533e+07,4576.4,12620,591.1,0,591.1,0,8.4534e-05,2.1903e-07,0,4.2172e-05,1.5858e-05,3.4298e+07,74880,0,1.7106e+07,6271.1,591.1,1
2044,0.54,12111,1,12111,1,1.5424e-07,-3.9761e-08,0,7.4711e-05,-3.0031e-08,-9658.7,-13596,0,3.0315e+07,-864.68,12110,13208,1,13208,1,0.00014552,6.3001e-07,0,0.00014552,2.7213e-05,5.8865e+07,2.1505e+05,0,5.9028e+07,16313,13207,12110,1,12110,1,1.5145e-07,-3.3837e-08,0,7.4868e-05,-3.8406e-08,58082,-11541,0,3.0386e+07,-794.96,12109,11089,1,11089,1,-0.00014512,-5.2725e-07,0,5.1528e-06,-2.7283e-05,-5.9028e+07,-1.8049e+05,0,2.0955e+06,-24408,11088,11599,1,11599,1,-7.4694e-05,-2.0217e-07,0,3.7383e-05,-1.4081e-05,-3.038e+07,-69087,0,1.5162e+07,-5090.7,11598,12621,1,12621,1,7.503e-05,7.6028e-08,0,0.00011196,1.402e-05,3.0385e+07,25975,0,4.5415e+07,3644.1,12620,591.1,0,591.1,0,8.6225e-05,2.4245e-07,0,4.3016e-05,1.6175e-05,3.4984e+07,82883,0,1.7448e+07,6047.7,591.1,1
2044,0.55,12111,1,12111,1,1.9716e-07,-3.4609e-08,0,7.6029e-05,-3.8724e-08,5088.4,-11830,0,3.0848e+07,-1146.6,12110,13208,1,13208,1,0.00014799,6.4426e-07,0,0.00014799,2.7667e-05,5.9857e+07,2.2048e+05,0,6.0007e+07,17869,13207,12110,1,12110,1,1.9868e-07,-3.3982e-08,0,7.6182e-05,-4.8192e-08,75907,-11624,0,3.0924e+07,-1244.1,12109,11089,1,11089,1,-0.00014753,-5.2328e-07,0,5.2172e-06,-2.7746e-05,-6.0007e+07,-1.7878e+05,0,2.1224e+06,-18310,11088,11599,1,11599,1,-7.5992e-05,-1.9752e-07,0,3.8083e-05,-1.4335e-05,-3.0908e+07,-67527,0,1.5438e+07,-6289.8,11598,12621,1,12621,1,7.6374e-05,8.5554e-08,0,0.00011395,1.427e-05,3.0927e+07,29197,0,4.6216e+07,3911,12620,591.1,0,591.1,0,8.7745e-05,2.3925e-07,0,4.3773e-05,1.6462e-05,3.5599e+07,81793,0,1.7754e+07,6902.5,591.1,1
2044,0.56,12111,1,12111,1,2.0089e-07,6.073e-09,0,7.7638e-05,-3.7722e-08,4030.7,2076.4,0,3.15e+07,-443.27,12110,13208,1,13208,1,0.00015097,6.5854e-07,0,0.00015097,2.8259e-05,6.1055e+07,2.2499e+05,0,6.128e+07,13479,13207,12110,1,12110,1,2.0037e-07,-2.1051e-09,0,7.773e-05,-3.539e-08,78028,-718.91,0,3.1552e+07,-596.17,12109,11089,1,11089,1,-0.00015066,-5.2994e-07,0,5.3192e-06,-2.831e-05,-6.128e+07,-1.8106e+05,0,2.1637e+06,-13885,11088,11599,1,11599,1,-7.7544e-05,-1.4647e-07,0,3.8899e-05,-1.4629e-05,-3.154e+07,-50078,0,1.5769e+07,-5229.9,11598,12621,1,12621,1,7.7946e-05,1.4863e-07,0,0.00011638,1.456e-05,3.1564e+07,50726,0,4.7205e+07,4594.9,12620,591.1,0,591.1,0,8.9602e-05,2.3759e-07,0,4.47e-05,1.6808e-05,3.6351e+07,81223,0,1.8128e+07,5956.6,591.1,1
2044,0.57,12111,1,12111,1,2.0064e-07,5.7416e-09,0,7.9058e-05,-4.4172e-08,603,1963.8,0,3.2074e+07,-3189.1,12110,13208,1,13208,1,0.00015401,8.313e-07,0,0.00015401,2.882e-05,6.2276e+07,2.8457e+05,0,6.2519e+07,14296,13207,12110,1,12110,1,2.0553e-07,-1.0123e-08,0,7.9195e-05,-6.2957e-08,78951,-3457.5,0,3.2145e+07,-2706.2,12109,11089,1,11089,1,-0.00015371,-6.1276e-07,0,5.4152e-06,-2.8872e-05,-6.2519e+07,-2.0947e+05,0,2.2032e+06,-24457,11088,11599,1,11599,1,-7.8981e-05,-1.9515e-07,0,3.9591e-05,-1.4904e-05,-3.2126e+07,-66719,0,1.6054e+07,-9595.2,11598,12621,1,12621,1,7.9407e-05,1.8553e-07,0,0.00011846,1.4821e-05,3.2153e+07,63199,0,4.805e+07,3209.8,12620,591.1,0,591.1,0,9.1238e-05,3.0323e-07,0,4.5512e-05,1.7117e-05,3.7012e+07,1.0366e+05,0,1.8456e+07,7887.9,591.1,1
2044,0.58,12111,1,12111,1,2.1095e-07,-5.0234e-08,0,8.0462e-05,-3.9598e-08,2595.9,-17169,0,3.2643e+07,-461.33,12110,13208,1,13208,1,0.00015659,5.5427e-07,0,0.00015659,2.9269e-05,6.331e+07,1.8974e+05,0,6.3478e+07,17048,13207,12110,1,12110,1,2.0922e-07,-2.8842e-08,0,8.0644e-05,-4.1665e-08,81139,-9841.1,0,3.2733e+07,-671.54,12109,11089,1,11089,1,-0.00015607,-5.2388e-07,0,5.5199e-06,-2.9357e-05,-6.3478e+07,-1.7898e+05,0,2.245e+06,-13185,11088,11599,1,11599,1,-8.0419e-05,-1.8803e-07,0,4.0326e-05,-1.5172e-05,-3.2708e+07,-64236,0,1.6343e+07,-5058.2,11598,12621,1,12621,1,8.085e-05,6.2036e-08,0,0.00012061,1.5099e-05,3.2736e+07,21167,0,4.8909e+07,3900,12620,591.1,0,591.1,0,9.2863e-05,2.0895e-07,0,4.6328e-05,1.7419e-05,3.767e+07,71433,0,1.8786e+07,5875.7,591.1,1
2044,0.59,12111,1,12111,1,2.1757e-07,-7.6417e-08,0,8.2023e-05,-4.6008e-08,1930.7,-26120,0,3.3275e+07,-2649.1,12110,13208,1,13208,1,0.00016005,6.1372e-07,0,0.00016005,2.9919e-05,6.47e+07,2.1009e+05,0,6.4898e+07,13395,13207,12110,1,12110,1,2.1593e-07,-4.2807e-08,0,8.226e-05,-6.4073e-08,83407,-14620,0,3.3389e+07,-2298.5,12109,11089,1,11089,1,-0.00015956,-6.3245e-07,0,5.6196e-06,-3.0008e-05,-6.4898e+07,-2.1645e+05,0,2.2855e+06,-21271,11088,11599,1,11599,1,-8.2034e-05,-2.5997e-07,0,4.1079e-05,-1.5479e-05,-3.3366e+07,-88636,0,1.6651e+07,-8109.8,11598,12621,1,12621,1,8.2474e-05,6.9878e-08,0,0.00012291,1.5394e-05,3.3392e+07,23833,0,4.984e+07,2383.1,12620,591.1,0,591.1,0,9.4663e-05,2.6574e-07,0,4.7224e-05,1.7758e-05,3.8398e+07,90851,0,1.9148e+07,6836.3,591.1,1
2044,0.6,12111,1,12111,1,2.1544e-07,-3.7798e-08,0,8.3449e-05,-3.9506e-08,-2128.7,-12920,0,3.3851e+07,-95.423,12110,13208,1,13208,1,0.00016236,5.3474e-07,0,0.00016236,3.0356e-05,6.5621e+07,1.8314e+05,0,6.5838e+07,14704,13207,12110,1,12110,1,2.1186e-07,-2.3991e-08,0,8.3616e-05,-4.3638e-08,81995,-8191.7,0,3.3937e+07,-307.56,12109,11089,1,11089,1,-0.00016187,-4.9883e-07,0,5.7274e-06,-3.0439e-05,-6.5838e+07,-1.7076e+05,0,2.3296e+06,-13654,11088,11599,1,11599,1,-8.3409e-05,-1.8338e-07,0,4.1822e-05,-1.5729e-05,-3.3924e+07,-62768,0,1.6949e+07,-4368.6,11598,12621,1,12621,1,8.3828e-05,7.5789e-08,0,0.00012509,1.5663e-05,3.3937e+07,25849,0,5.0721e+07,4165.6,12620,591.1,0,591.1,0,9.6311e-05,2.1372e-07,0,4.805e-05,1.8066e-05,3.9063e+07,73063,0,1.948e+07,5882.2,591.1,1
2044,0.61,12111,1,12111,1,2.267e-07,-2.7207e-08,0,8.4357e-05,-3.7785e-08,-77.769,-9297.7,0,3.4217e+07,1508.7,12110,13208,1,13208,1,0.00016418,7.7293e-07,0,0.00016418,3.0691e-05,6.6348e+07,2.6452e+05,0,6.6565e+07,24989,13207,12110,1,12110,1,2.2718e-07,-2.9751e-08,0,8.4511e-05,-2.9344e-08,88394,-10177,0,3.43e+07,737.84,12109,11089,1,11089,1,-0.00016365,-6.0344e-07,0,5.7764e-06,-3.078e-05,-6.6565e+07,-2.0657e+05,0,2.3493e+06,-18432,11088,11599,1,11599,1,-8.429e-05,-2.2022e-07,0,4.2262e-05,-1.5901e-05,-3.4282e+07,-75145,0,1.7131e+07,-4249.1,11598,12621,1,12621,1,8.4738e-05,1.1823e-07,0,0.00012643,1.5831e-05,3.4303e+07,40378,0,5.1263e+07,6434.8,12620,591.1,0,591.1,0,9.7356e-05,2.828e-07,0,4.8567e-05,1.8266e-05,3.9485e+07,96679,0,1.9688e+07,8364.8,591.1,1
2044,0.62,12111,1,12111,1,2.4873e-07,-1.3267e-08,0,8.5787e-05,-4.535e-08,5784.8,-4536.7,0,3.4796e+07,51.574,12110,13208,1,13208,1,0.00016697,8.0886e-07,0,0.00016697,3.121e-05,6.7469e+07,2.7689e+05,0,6.7693e+07,18454,13207,12110,1,12110,1,2.5039e-07,-2.434e-08,0,8.5932e-05,-6.1124e-08,97668,-8318.8,0,3.4875e+07,88.24,12109,11089,1,11089,1,-0.00016643,-6.4968e-07,0,5.8627e-06,-3.1303e-05,-6.7693e+07,-2.2236e+05,0,2.3829e+06,-19130,11088,11599,1,11599,1,-8.5699e-05,-2.3354e-07,0,4.2985e-05,-1.6171e-05,-3.4855e+07,-79708,0,1.7424e+07,-5861.5,11598,12621,1,12621,1,8.6175e-05,1.6692e-07,0,0.00012858,1.6099e-05,3.4883e+07,57014,0,5.2129e+07,6589.1,12620,591.1,0,591.1,0,9.9006e-05,3.1745e-07,0,4.9389e-05,1.8576e-05,4.0152e+07,1.0852e+05,0,2.002e+07,8476.1,591.1,1
2044,0.63,12111,1,12111,1,2.4949e-07,-1.8313e-09,0,8.7643e-05,-4.8987e-08,1745.1,-622.77,0,3.5548e+07,-1436.8,12110,13208,1,13208,1,0.00017027,7.7938e-07,0,0.00017027,3.184e-05,6.8791e+07,2.6677e+05,0,6.9078e+07,20257,13207,12110,1,12110,1,2.5573e-07,-1.799e-08,0,8.7751e-05,-5.4664e-08,98477,-6136,0,3.5613e+07,-1233.2,12109,11089,1,11089,1,-0.00016983,-4.8151e-07,0,5.9859e-06,-3.1921e-05,-6.9078e+07,-1.6483e+05,0,2.4365e+06,-19064,11088,11599,1,11599,1,-8.7505e-05,-1.6561e-07,0,4.3905e-05,-1.6514e-05,-3.559e+07,-56590,0,1.781e+07,-6204.6,11598,12621,1,12621,1,8.8004e-05,1.1814e-07,0,0.00013139,1.6429e-05,3.562e+07,40433,0,5.327e+07,3680.4,12620,591.1,0,591.1,0,0.00010115,2.4841e-07,0,5.0461e-05,1.8975e-05,4.1019e+07,84923,0,2.0453e+07,7610.4,591.1,1
2044,0.64,12111,1,12111,1,2.8553e-07,1.3417e-08,0,8.8867e-05,-5.8076e-08,12135,4583.5,0,3.6041e+07,-2432.5,12110,13208,1,13208,1,0.00017302,8.3736e-07,0,0.00017302,3.234e-05,6.9884e+07,2.8609e+05,0,7.0155e+07,15357,13207,12110,1,12110,1,2.8147e-07,-1.1086e-08,0,8.9016e-05,-6.1728e-08,1.0897e+05,-3771.4,0,3.6125e+07,-1557.3,12109,11089,1,11089,1,-0.00017248,-5.6715e-07,0,6.0449e-06,-3.245e-05,-7.0155e+07,-1.9409e+05,0,2.4589e+06,-23138,11088,11599,1,11599,1,-8.872e-05,-1.8123e-07,0,4.4524e-05,-1.6761e-05,-3.6086e+07,-61756,0,1.8059e+07,-7808.3,11598,12621,1,12621,1,8.9306e-05,1.6964e-07,0,0.00013323,1.6655e-05,3.6144e+07,57911,0,5.3998e+07,4414.8,12620,591.1,0,591.1,0,0.00010256,2.9169e-07,0,5.1164e-05,1.9241e-05,4.1588e+07,99709,0,2.0735e+07,8473.6,591.1,1
2044,0.65,12111,1,12111,1,2.7536e-07,-1.9704e-08,0,9.0475e-05,-5.4171e-08,4375.9,-6736.7,0,3.6692e+07,-1608.3,12110,13208,1,13208,1,0.00017595,7.1648e-07,0,0.00017595,3.2887e-05,7.1059e+07,2.4527e+05,0,7.1348e+07,13080,13207,12110,1,12110,1,2.705e-07,-2.9461e-08,0,9.0613e-05,-6.199e-08,1.0473e+05,-10059,0,3.6772e+07,-1225,12109,11089,1,11089,1,-0.00017541,-5.3249e-07,0,6.17e-06,-3.2989e-05,-7.1348e+07,-1.8227e+05,0,2.5094e+06,-20621,11088,11599,1,11599,1,-9.0333e-05,-1.9789e-07,0,4.5328e-05,-1.7051e-05,-3.674e+07,-67745,0,1.8384e+07,-6152.3,11598,12621,1,12621,1,9.0886e-05,1.0529e-07,0,0.00013563,1.6963e-05,3.678e+07,35958,0,5.4973e+07,4153.2,12620,591.1,0,591.1,0,0.00010442,2.629e-07,0,5.2095e-05,1.9586e-05,4.2339e+07,89867,0,2.1111e+07,7306.3,591.1,1
2044,0.66,12111,1,12111,1,2.7926e-07,2.3524e-08,0,9.2047e-05,-5.4271e-08,1019.9,8040.8,0,3.7326e+07,-1360.8,12110,13208,1,13208,1,0.00017892,7.418e-07,0,0.00017892,3.3459e-05,7.2243e+07,2.5393e+05,0,7.2585e+07,19477,13207,12110,1,12110,1,2.7966e-07,1.2919e-09,0,9.2171e-05,-5.9302e-08,1.0849e+05,442.51,0,3.7402e+07,-922.89,12109,11089,1,11089,1,-0.00017845,-4.7486e-07,0,6.2737e-06,-3.3544e-05,-7.2585e+07,-1.6224e+05,0,2.5518e+06,-18577,11088,11599,1,11599,1,-9.1901e-05,-1.2829e-07,0,4.612e-05,-1.7352e-05,-3.738e+07,-43816,0,1.8714e+07,-6120,11598,12621,1,12621,1,9.2459e-05,1.41e-07,0,0.00013803,1.724e-05,3.7412e+07,48216,0,5.5938e+07,3604.1,12620,591.1,0,591.1,0,0.00010623,2.4622e-07,0,5.2999e-05,1.9928e-05,4.307e+07,84165,0,2.1475e+07,7208,591.1,1
2044,0.67,12111,1,12111,1,2.9799e-07,-2.3971e-08,0,9.3988e-05,-5.4244e-08,3231.5,-8194.4,0,3.811e+07,104.65,12110,13208,1,13208,1,0.00018252,5.2657e-07,0,0.00018252,3.4105e-05,7.3681e+07,1.7978e+05,0,7.3973e+07,13095,13207,12110,1,12110,1,2.9521e-07,-1.8548e-08,0,9.4104e-05,-6.0823e-08,1.1572e+05,-6344.6,0,3.8184e+07,118.22,12109,11089,1,11089,1,-0.00018187,-4.2982e-07,0,6.3931e-06,-3.4221e-05,-7.3973e+07,-1.4713e+05,0,2.5994e+06,-12763,11088,11599,1,11599,1,-9.3812e-05,-1.4403e-07,0,4.7077e-05,-1.771e-05,-3.8156e+07,-49030,0,1.9109e+07,-4105.6,11598,12621,1,12621,1,9.4398e-05,6.8366e-08,0,0.00014096,1.7607e-05,3.8191e+07,23395,0,5.7118e+07,4101.7,12620,591.1,0,591.1,0,0.00010848,1.8565e-07,0,5.4122e-05,2.0345e-05,4.3976e+07,63447,0,2.1927e+07,5326.9,591.1,1
2044,0.68,12111,1,12111,1,3.0039e-07,-3.2162e-08,0,9.5231e-05,-5.5606e-08,-1432.2,-10989,0,3.861e+07,-300.44,12110,13208,1,13208,1,0.000185,4.2018e-07,0,0.000185,3.4565e-05,7.4659e+07,1.4345e+05,0,7.4976e+07,10178,13207,12110,1,12110,1,2.9771e-07,-1.8712e-08,0,9.5379e-05,-7.5179e-08,1.149e+05,-6385.8,0,3.8698e+07,-305.3,12109,11089,1,11089,1,-0.00018433,-4.4583e-07,0,6.4903e-06,-3.4685e-05,-7.4976e+07,-1.5261e+05,0,2.6397e+06,-21057,11088,11599,1,11599,1,-9.5075e-05,-1.5315e-07,0,4.7709e-05,-1.7948e-05,-3.867e+07,-52123,0,1.9366e+07,-4147.1,11598,12621,1,12621,1,9.5674e-05,6.9186e-08,0,0.00014283,1.7841e-05,3.8701e+07,23697,0,5.7871e+07,3951.5,12620,591.1,0,591.1,0,0.00010991,1.8004e-07,0,5.484e-05,2.0614e-05,4.4553e+07,61532,0,2.2215e+07,5115.8,591.1,1
2044,0.69,12111,1,12111,1,3.0283e-07,1.8753e-08,0,9.6572e-05,-5.4823e-08,-4711.3,6411.7,0,3.9151e+07,206.17,12110,13208,1,13208,1,0.00018762,6.828e-07,0,0.00018762,3.5075e-05,7.5705e+07,2.3373e+05,0,7.6089e+07,18897,13207,12110,1,12110,1,3.1053e-07,-6.7385e-09,0,9.6683e-05,-5.0002e-08,1.2108e+05,-2289.9,0,3.9227e+07,165.22,12109,11089,1,11089,1,-0.00018707,-4.4543e-07,0,6.5711e-06,-3.5174e-05,-7.6089e+07,-1.5248e+05,0,2.6731e+06,-14802,11088,11599,1,11599,1,-9.6391e-05,-1.3372e-07,0,4.8382e-05,-1.8192e-05,-3.9206e+07,-45513,0,1.9638e+07,-4423.5,11598,12621,1,12621,1,9.6997e-05,1.3838e-07,0,0.00014483,1.8087e-05,3.9233e+07,47301,0,5.8681e+07,4892.2,12620,591.1,0,591.1,0,0.00011146,2.3262e-07,0,5.5606e-05,2.0907e-05,4.5175e+07,79506,0,2.2523e+07,6618.4,591.1,1
2044,0.7,12111,1,12111,1,3.1452e-07,-4.5285e-09,0,9.7631e-05,-5.8008e-08,-4370,-1545.9,0,3.9577e+07,-228.2,12110,13208,1,13208,1,0.00018959,6.4098e-07,0,0.00018959,3.542e-05,7.6482e+07,2.1883e+05,0,7.6843e+07,16102,13207,12110,1,12110,1,3.0619e-07,-8.9489e-09,0,9.776e-05,-7.7063e-08,1.1974e+05,-3041.8,0,3.966e+07,-406.9,12109,11089,1,11089,1,-0.00018892,-5.1573e-07,0,6.646e-06,-3.5545e-05,-7.6843e+07,-1.7654e+05,0,2.703e+06,-21610,11088,11599,1,11599,1,-9.744e-05,-1.463e-07,0,4.8903e-05,-1.8401e-05,-3.9631e+07,-50037,0,1.9849e+07,-5007.9,11598,12621,1,12621,1,9.8072e-05,1.0825e-07,0,0.00014643,1.8289e-05,3.9662e+07,37075,0,5.9319e+07,5151,12620,591.1,0,591.1,0,0.00011268,2.2513e-07,0,5.6218e-05,2.1136e-05,4.5667e+07,76936,0,2.2768e+07,6475.7,591.1,1
2044,0.71,12111,1,12111,1,3.404e-07,-2.0571e-08,0,9.9332e-05,-6.4146e-08,1331.7,-7025.4,0,4.0264e+07,-787.79,12110,13208,1,13208,1,0.00019303,5.6153e-07,0,0.00019303,3.6048e-05,7.7858e+07,1.9232e+05,0,7.8194e+07,18201,13207,12110,1,12110,1,3.4159e-07,-1.5572e-08,0,9.9473e-05,-6.4556e-08,1.3364e+05,-5333.6,0,4.0354e+07,-534.66,12109,11089,1,11089,1,-0.00019224,-5.0083e-07,0,6.7327e-06,-3.6191e-05,-7.8194e+07,-1.7144e+05,0,2.7385e+06,-12909,11088,11599,1,11599,1,-9.9119e-05,-1.6649e-07,0,4.9761e-05,-1.8728e-05,-4.0315e+07,-56984,0,2.0197e+07,-5295.8,11598,12621,1,12621,1,9.9821e-05,9.5277e-08,0,0.00014898,1.8598e-05,4.0366e+07,32507,0,6.0348e+07,3797.9,12620,591.1,0,591.1,0,0.00011464,2.1851e-07,0,5.7198e-05,2.1503e-05,4.646e+07,74676,0,2.3163e+07,5842.6,591.1,1
2044,0.72,12111,1,12111,1,3.3511e-07,-1.5924e-08,0,0.00010059,-6.0809e-08,-6308.5,-5439.1,0,4.0772e+07,177.7,12110,13208,1,13208,1,0.00019538,5.8336e-07,0,0.00019538,3.6497e-05,7.8783e+07,1.9914e+05,0,7.9164e+07,15666,13207,12110,1,12110,1,3.2592e-07,-1.2373e-08,0,0.00010074,-8.2374e-08,1.2723e+05,-4238,0,4.0863e+07,81.542,12109,11089,1,11089,1,-0.00019463,-4.9599e-07,0,6.8393e-06,-3.663e-05,-7.9164e+07,-1.6979e+05,0,2.7814e+06,-22853,11088,11599,1,11599,1,-0.0001004,-1.4773e-07,0,5.0391e-05,-1.896e-05,-4.0834e+07,-50450,0,2.0452e+07,-4337.2,11598,12621,1,12621,1,0.00010107,8.5579e-08,0,0.00015089,1.8842e-05,4.0863e+07,29312,0,6.1115e+07,5239.1,12620,591.1,0,591.1,0,0.0001161,2.0933e-07,0,5.7926e-05,2.1776e-05,4.7046e+07,71533,0,2.3454e+07,6135.7,591.1,1
2044,0.73,12111,1,12111,1,3.6076e-07,2.9697e-08,0,0.00010213,-7.0346e-08,-1435.7,10144,0,4.1393e+07,-1831,12110,13208,1,13208,1,0.0001986,7.462e-07,0,0.0001986,3.712e-05,8.0071e+07,2.5497e+05,0,8.0525e+07,12070,13207,12110,1,12110,1,3.5504e-07,-8.1213e-09,0,0.00010231,-7.4289e-08,1.3805e+05,-2763.9,0,4.1498e+07,-1151.7,12109,11089,1,11089,1,-0.00019798,-4.3506e-07,0,6.9172e-06,-3.7241e-05,-8.0525e+07,-1.4893e+05,0,2.8139e+06,-23129,11088,11599,1,11599,1,-0.00010192,-1.2074e-07,0,5.1163e-05,-1.9269e-05,-4.1457e+07,-41286,0,2.0765e+07,-5546.4,11598,12621,1,12621,1,0.00010267,1.3968e-07,0,0.0001532,1.9114e-05,4.1506e+07,47760,0,6.2041e+07,3834.5,12620,591.1,0,591.1,0,0.00011788,2.3735e-07,0,5.881e-05,2.211e-05,4.7761e+07,81103,0,2.381e+07,6957.2,591.1,1
2044,0.74,12111,1,12111,1,3.9415e-07,1.6044e-08,0,0.00010378,-7.1293e-08,6350.4,5481.6,0,4.2055e+07,381.57,12110,13208,1,13208,1,0.00020149,5.3554e-07,0,0.00020149,3.7645e-05,8.1214e+07,1.8281e+05,0,8.1665e+07,17487,13207,12110,1,12110,1,3.9308e-07,2.8008e-09,0,0.00010389,-9.0427e-08,1.5327e+05,955.54,0,4.2137e+07,195.6,12109,11089,1,11089,1,-0.00020078,-4.1497e-07,0,7.004e-06,-3.7776e-05,-8.1665e+07,-1.4205e+05,0,2.8487e+06,-19419,11088,11599,1,11599,1,-0.00010348,-9.7599e-08,0,5.1948e-05,-1.9559e-05,-4.2089e+07,-33161,0,2.1083e+07,-4022.8,11598,12621,1,12621,1,0.00010428,1.2147e-07,0,0.00015572,1.9413e-05,4.2152e+07,41523,0,6.3046e+07,4845.3,12620,591.1,0,591.1,0,0.00011977,1.8892e-07,0,5.9761e-05,2.2465e-05,4.8526e+07,64551,0,2.4192e+07,5876.9,591.1,1
2044,0.75,12111,1,12111,1,3.9819e-07,-1.566e-08,0,0.00010491,-7.4621e-08,1832.4,-5346,0,4.2509e+07,-721.53,12110,13208,1,13208,1,0.00020387,7.4845e-07,0,0.00020387,3.8069e-05,8.2151e+07,2.562e+05,0,8.2582e+07,20821,13207,12110,1,12110,1,4.0229e-07,-2.0804e-08,0,0.00010502,-8.2662e-08,1.5777e+05,-7097.7,0,4.2592e+07,-990.79,12109,11089,1,11089,1,-0.00020303,-5.2881e-07,0,7.071e-06,-3.822e-05,-8.2582e+07,-1.8065e+05,0,2.8765e+06,-15897,11088,11599,1,11599,1,-0.00010462,-1.9651e-07,0,5.2535e-05,-1.9779e-05,-4.2552e+07,-66866,0,2.132e+07,-5812.6,11598,12621,1,12621,1,0.00010542,1.2305e-07,0,0.00015735,1.963e-05,4.2604e+07,42052,0,6.3712e+07,3751.6,12620,591.1,0,591.1,0,0.00012108,2.6141e-07,0,6.0407e-05,2.271e-05,4.9047e+07,89327,0,2.445e+07,6686.7,591.1,1
2044,0.76,12111,1,12111,1,4.0315e-07,-2.4683e-08,0,0.00010596,-7.778e-08,-1237.8,-8434.3,0,4.2934e+07,-1678,12110,13208,1,13208,1,0.00020602,7.4173e-07,0,0.00020602,3.8472e-05,8.3002e+07,2.5403e+05,0,8.3448e+07,15389,13207,12110,1,12110,1,3.9693e-07,-2.3635e-08,0,0.00010612,-9.1295e-08,1.5575e+05,-8095.3,0,4.3038e+07,-981.34,12109,11089,1,11089,1,-0.00020516,-5.7524e-07,0,7.1456e-06,-3.8627e-05,-8.3448e+07,-1.965e+05,0,2.9061e+06,-23453,11088,11599,1,11599,1,-0.00010572,-2.1083e-07,0,5.3085e-05,-1.9986e-05,-4.3001e+07,-72003,0,2.1542e+07,-6985,11598,12621,1,12621,1,0.00010653,1.1153e-07,0,0.00015892,1.984e-05,4.3047e+07,37975,0,6.4337e+07,4173.3,12620,591.1,0,591.1,0,0.0001223,2.7628e-07,0,6.1016e-05,2.2941e-05,4.9538e+07,94391,0,2.4694e+07,7561.6,591.1,1
2044,0.77,12111,1,12111,1,4.094e-07,6.1286e-08,0,0.00010747,-7.5405e-08,-3733.7,20931,0,4.3541e+07,-206.1,12110,13208,1,13208,1,0.00020936,8.1384e-07,0,0.00020936,3.9109e-05,8.4331e+07,2.7778e+05,0,8.4837e+07,23573,13207,12110,1,12110,1,4.0717e-07,2.1183e-08,0,0.00010767,-8.5636e-08,1.6015e+05,7255.6,0,4.3667e+07,-160.75,12109,11089,1,11089,1,-0.00020858,-5.4701e-07,0,7.2482e-06,-3.9253e-05,-8.4837e+07,-1.8685e+05,0,2.9479e+06,-22088,11088,11599,1,11599,1,-0.00010729,-1.1781e-07,0,5.3876e-05,-2.0275e-05,-4.3639e+07,-40080,0,2.186e+07,-6408.4,11598,12621,1,12621,1,0.00010808,2.3209e-07,0,0.00016117,2.013e-05,4.3672e+07,79316,0,6.5247e+07,6533.7,12620,591.1,0,591.1,0,0.00012403,2.8218e-07,0,6.1882e-05,2.3267e-05,5.0238e+07,96402,0,2.5042e+07,7711.6,591.1,1
2044,0.78,12111,1,12111,1,4.1281e-07,-1.7725e-08,0,0.00010874,-7.6156e-08,-8736.5,-6052.7,0,4.405e+07,-278.32,12110,13208,1,13208,1,0.00021134,7.395e-07,0,0.00021134,3.9458e-05,8.5111e+07,2.5314e+05,0,8.5592e+07,22712,13207,12110,1,12110,1,4.0831e-07,-2.2279e-08,0,0.00010889,-1.0096e-07,1.6083e+05,-7631,0,4.4154e+07,-586.33,12109,11089,1,11089,1,-0.00021043,-5.9563e-07,0,7.3371e-06,-3.9622e-05,-8.5592e+07,-2.0346e+05,0,2.9838e+06,-24709,11088,11599,1,11599,1,-0.00010847,-2.04e-07,0,5.4461e-05,-2.0506e-05,-4.4118e+07,-69575,0,2.2099e+07,-6102.7,11598,12621,1,12621,1,0.0001093,1.2469e-07,0,0.0001631,2.0356e-05,4.4155e+07,42486,0,6.6018e+07,4843,12620,591.1,0,591.1,0,0.0001255,2.7872e-07,0,6.2612e-05,2.354e-05,5.0824e+07,95228,0,2.5334e+07,7794.6,591.1,1
2044,0.79,12111,1,12111,1,4.6469e-07,-9.0137e-09,0,0.00011037,-8.5865e-08,5904.6,-3074.4,0,4.4709e+07,-295.83,12110,13208,1,13208,1,0.00021438,7.2693e-07,0,0.00021438,4.0027e-05,8.6313e+07,2.483e+05,0,8.6834e+07,18688,13207,12110,1,12110,1,4.6471e-07,-1.6627e-08,0,0.00011048,-8.302e-08,1.8288e+05,-5694,0,4.4796e+07,-506.82,12109,11089,1,11089,1,-0.00021349,-5.3945e-07,0,7.3939e-06,-4.0192e-05,-8.6834e+07,-1.8465e+05,0,3.0081e+06,-16492,11088,11599,1,11599,1,-0.00011002,-1.8025e-07,0,5.5274e-05,-2.0815e-05,-4.4746e+07,-61243,0,2.2427e+07,-5849.7,11598,12621,1,12621,1,0.00011095,1.3084e-07,0,0.00016558,2.0651e-05,4.4814e+07,44721,0,6.7012e+07,4539.3,12620,591.1,0,591.1,0,0.00012738,2.4976e-07,0,6.3554e-05,2.3893e-05,5.1584e+07,85322,0,2.5711e+07,7284.5,591.1,1
2044,0.8,12111,1,12111,1,4.7158e-07,-3.9142e-08,0,0.00011192,-8.5471e-08,1120.7,-13369,0,4.533e+07,383.16,12110,13208,1,13208,1,0.00021762,6.5886e-07,0,0.00021762,4.0611e-05,8.7591e+07,2.2565e+05,0,8.8093e+07,20551,13207,12110,1,12110,1,4.6509e-07,-3.0897e-08,0,0.00011209,-8.2336e-08,1.8349e+05,-10544,0,4.5445e+07,43.946,12109,11089,1,11089,1,-0.00021658,-5.3246e-07,0,7.5022e-06,-4.0798e-05,-8.8093e+07,-1.8226e+05,0,3.0514e+06,-13103,11088,11599,1,11599,1,-0.00011161,-2.1107e-07,0,5.6072e-05,-2.1114e-05,-4.5397e+07,-71826,0,2.2751e+07,-4617.4,11598,12621,1,12621,1,0.00011256,8.2562e-08,0,0.00016791,2.0942e-05,4.5457e+07,28240,0,6.7935e+07,4370.3,12620,591.1,0,591.1,0,0.00012917,2.4939e-07,0,6.4447e-05,2.4227e-05,5.2301e+07,85184,0,2.6069e+07,6557.7,591.1,1
2044,0.81,12111,1,12111,1,4.9585e-07,-9.2794e-08,0,0.00011335,-9.1532e-08,3566,-31687,0,4.5904e+07,-282.19,12110,13208,1,13208,1,0.00022052,5.2253e-07,0,0.00022052,4.1152e-05,8.8733e+07,1.7847e+05,0,8.9262e+07,17038,13207,12110,1,12110,1,4.9639e-07,-7.0397e-08,0,0.00011356,-9.2023e-08,1.9608e+05,-24006,0,4.6038e+07,-351,12109,11089,1,11089,1,-0.00021946,-5.0698e-07,0,7.5715e-06,-4.1342e-05,-8.9262e+07,-1.7316e+05,0,3.0782e+06,-23311,11088,11599,1,11599,1,-0.00011306,-2.3325e-07,0,5.6786e-05,-2.1388e-05,-4.5984e+07,-79322,0,2.304e+07,-3591.8,11598,12621,1,12621,1,0.00011404,1.26e-08,0,0.00017009,2.1214e-05,4.6047e+07,4297,0,6.8793e+07,2945.2,12620,591.1,0,591.1,0,0.00013082,1.94e-07,0,6.5274e-05,2.4535e-05,5.2963e+07,66271,0,2.6399e+07,5372.6,591.1,1
2044,0.82,12111,1,12111,1,5.0404e-07,1.5819e-08,0,0.00011466,-9.1411e-08,-83.329,5396.6,0,4.6432e+07,388.57,12110,13208,1,13208,1,0.00022281,7.1503e-07,0,0.00022281,4.1597e-05,8.9639e+07,2.4488e+05,0,9.0237e+07,13994,13207,12110,1,12110,1,4.9925e-07,-5.3266e-09,0,0.00011479,-9.4407e-08,1.9702e+05,-1824.3,0,4.6534e+07,0.92388,12109,11089,1,11089,1,-0.00022185,-5.5576e-07,0,7.6674e-06,-4.177e-05,-9.0237e+07,-1.9018e+05,0,3.1183e+06,-14937,11088,11599,1,11599,1,-0.00011428,-1.5284e-07,0,5.7416e-05,-2.163e-05,-4.6484e+07,-52295,0,2.3293e+07,-4874.4,11598,12621,1,12621,1,0.0001153,1.5845e-07,0,0.00017206,2.1447e-05,4.6547e+07,54206,0,6.96e+07,6236.1,12620,591.1,0,591.1,0,0.00013234,2.6514e-07,0,6.6027e-05,2.4822e-05,5.3572e+07,90546,0,2.67e+07,6608.2,591.1,1
2044,0.83,12111,1,12111,1,5.3624e-07,2.8947e-08,0,0.00011619,-1.0474e-07,5198.2,9887.2,0,4.7048e+07,-2706.7,12110,13208,1,13208,1,0.00022603,6.659e-07,0,0.00022603,4.2191e-05,9.0905e+07,2.2742e+05,0,9.1521e+07,12371,13207,12110,1,12110,1,5.3841e-07,1.9105e-09,0,0.00011637,-1.1435e-07,2.1142e+05,653.35,0,4.717e+07,-2024.8,12109,11089,1,11089,1,-0.00022501,-4.6971e-07,0,7.7408e-06,-4.2384e-05,-9.1521e+07,-1.6078e+05,0,3.1498e+06,-21709,11088,11599,1,11599,1,-0.00011582,-1.2713e-07,0,5.8207e-05,-2.1943e-05,-4.7111e+07,-43227,0,2.3613e+07,-7751.6,11598,12621,1,12621,1,0.00011691,1.6927e-07,0,0.00017437,2.1718e-05,4.719e+07,57709,0,7.0525e+07,2903.6,12620,591.1,0,591.1,0,0.00013411,2.3993e-07,0,6.6912e-05,2.5153e-05,5.4282e+07,81955,0,2.7054e+07,7078.8,591.1,1
2044,0.84,12111,1,12111,1,5.345e-07,-7.7498e-09,0,0.00011734,-1.029e-07,-2874.2,-2640,0,4.7506e+07,-2098.7,12110,13208,1,13208,1,0.00022796,7.9608e-07,0,0.00022796,4.2556e-05,9.1651e+07,2.7186e+05,0,9.2319e+07,16639,13207,12110,1,12110,1,5.436e-07,-2.2603e-08,0,0.00011744,-1.1417e-07,2.1388e+05,-7698.2,0,4.7601e+07,-1478.9,12109,11089,1,11089,1,-0.00022697,-5.3999e-07,0,7.8163e-06,-4.2731e-05,-9.2319e+07,-1.8483e+05,0,3.1799e+06,-29389,11088,11599,1,11599,1,-0.00011694,-1.9575e-07,0,5.8776e-05,-2.2148e-05,-4.7563e+07,-66594,0,2.3843e+07,-7232.7,11598,12621,1,12621,1,0.00011799,1.3799e-07,0,0.00017609,2.1936e-05,4.7616e+07,47248,0,7.1208e+07,3382.4,12620,591.1,0,591.1,0,0.00013543,2.7329e-07,0,6.7567e-05,2.5402e-05,5.4809e+07,93345,0,2.7315e+07,7765.4,591.1,1
2044,0.85,12111,1,12111,1,5.6986e-07,-5.2807e-09,0,0.00011922,-1.0623e-07,4074.9,-1805.1,0,4.8262e+07,-747.35,12110,13208,1,13208,1,0.00023136,5.6772e-07,0,0.00023136,4.3174e-05,9.3002e+07,1.9432e+05,0,9.3659e+07,14795,13207,12110,1,12110,1,5.6266e-07,-5.4755e-09,0,0.00011931,-1.0417e-07,2.2225e+05,-1875.4,0,4.8354e+07,-764.15,12109,11089,1,11089,1,-0.00023027,-4.1777e-07,0,7.9229e-06,-4.338e-05,-9.3659e+07,-1.4299e+05,0,3.2229e+06,-17787,11088,11599,1,11599,1,-0.00011873,-1.3397e-07,0,5.9675e-05,-2.2491e-05,-4.8292e+07,-45649,0,2.4206e+07,-4491.7,11598,12621,1,12621,1,0.00011988,1.0087e-07,0,0.00017897,2.2277e-05,4.8374e+07,34358,0,7.2359e+07,3537.6,12620,591.1,0,591.1,0,0.0001376,1.9506e-07,0,6.8656e-05,2.5805e-05,5.5683e+07,66612,0,2.7752e+07,5487.6,591.1,1
2044,0.86,12111,1,12111,1,5.8971e-07,-4.1536e-08,0,0.0001208,-1.0943e-07,2202.7,-14175,0,4.8896e+07,-568.28,12110,13208,1,13208,1,0.00023461,5.2377e-07,0,0.00023461,4.3756e-05,9.4273e+07,1.7938e+05,0,9.4915e+07,14553,13207,12110,1,12110,1,5.92e-07,-3.4051e-08,0,0.00012093,-1.148e-07,2.333e+05,-11548,0,4.9009e+07,-448.86,12109,11089,1,11089,1,-0.00023335,-4.029e-07,0,8.0117e-06,-4.3982e-05,-9.4915e+07,-1.3757e+05,0,3.2585e+06,-11477,11088,11599,1,11599,1,-0.00012034,-1.7041e-07,0,6.0481e-05,-2.279e-05,-4.8948e+07,-58367,0,2.4532e+07,-4629.6,11598,12621,1,12621,1,0.00012152,5.6024e-08,0,0.0001814,2.2573e-05,4.9023e+07,19080,0,7.3314e+07,2667.5,12620,591.1,0,591.1,0,0.00013942,1.8914e-07,0,6.9569e-05,2.6147e-05,5.6413e+07,64595,0,2.8115e+07,5125.4,591.1,1
2044,0.87,12111,1,12111,1,6.0412e-07,-3.4882e-08,0,0.00012186,-1.116e-07,44.78,-11906,0,4.9319e+07,-372.15,12110,13208,1,13208,1,0.0002368,6.6857e-07,0,0.0002368,4.4165e-05,9.5122e+07,2.2828e+05,0,9.5791e+07,17206,13207,12110,1,12110,1,6.0089e-07,-2.3688e-08,0,0.00012202,-1.1221e-07,2.3706e+05,-8098,0,4.9445e+07,-419.82,12109,11089,1,11089,1,-0.00023551,-5.2571e-07,0,8.0788e-06,-4.4393e-05,-9.5791e+07,-1.797e+05,0,3.286e+06,-19810,11088,11599,1,11599,1,-0.00012141,-1.8256e-07,0,6.1034e-05,-2.3002e-05,-4.9381e+07,-62528,0,2.4754e+07,-4815.4,11598,12621,1,12621,1,0.00012262,7.4352e-08,0,0.00018298,2.2788e-05,4.946e+07,25466,0,7.3946e+07,4526.4,12620,591.1,0,591.1,0,0.00014065,2.288e-07,0,7.0174e-05,2.6379e-05,5.69e+07,78131,0,2.8355e+07,6564.3,591.1,1
2044,0.88,12111,1,12111,1,6.1536e-07,1.5973e-08,0,0.0001234,-1.1809e-07,-3177.8,5450.5,0,4.9937e+07,-2247.7,12110,13208,1,13208,1,0.00023971,7.0961e-07,0,0.00023971,4.4729e-05,9.6276e+07,2.4202e+05,0,9.7029e+07,17407,13207,12110,1,12110,1,6.0795e-07,-9.6417e-09,0,0.00012352,-1.2029e-07,2.392e+05,-3284.6,0,5.0051e+07,-1710.4,12109,11089,1,11089,1,-0.00023855,-4.4701e-07,0,8.1736e-06,-4.4936e-05,-9.7029e+07,-1.53e+05,0,3.3249e+06,-20070,11088,11599,1,11599,1,-0.00012292,-1.4986e-07,0,6.1801e-05,-2.3301e-05,-4.9995e+07,-51203,0,2.5064e+07,-7422.8,11598,12621,1,12621,1,0.00012415,1.4011e-07,0,0.00018529,2.306e-05,5.0069e+07,47933,0,7.4873e+07,3291.9,12620,591.1,0,591.1,0,0.00014242,2.4572e-07,0,7.1062e-05,2.6713e-05,5.7613e+07,83896,0,2.8711e+07,6998,591.1,1
2044,0.89,12111,1,12111,1,6.3035e-07,-5.507e-10,0,0.00012477,-1.1718e-07,-5701.8,-182.16,0,5.0487e+07,-719.84,12110,13208,1,13208,1,0.00024234,6.4871e-07,0,0.00024234,4.5194e-05,9.7296e+07,2.2217e+05,0,9.8043e+07,19595,13207,12110,1,12110,1,6.3903e-07,-1.9214e-08,0,0.00012488,-1.1406e-07,2.5146e+05,-6556.4,0,5.0598e+07,-88.148,12109,11089,1,11089,1,-0.00024104,-4.7131e-07,0,8.2533e-06,-4.5431e-05,-9.8043e+07,-1.6091e+05,0,3.3576e+06,-21085,11088,11599,1,11599,1,-0.00012425,-1.5398e-07,0,6.2476e-05,-2.3541e-05,-5.0537e+07,-52736,0,2.5336e+07,-5179.1,11598,12621,1,12621,1,0.00012551,1.1628e-07,0,0.00018733,2.3317e-05,5.0608e+07,39614,0,7.5705e+07,4837,12620,591.1,0,591.1,0,0.00014401,2.3295e-07,0,7.1853e-05,2.7009e-05,5.8246e+07,79531,0,2.9026e+07,7846.2,591.1,1
2044,0.9,12111,1,12111,1,6.6737e-07,8.0898e-09,0,0.00012632,-1.2446e-07,296.98,2762.4,0,5.1108e+07,-900.63,12110,13208,1,13208,1,0.00024524,5.9136e-07,0,0.00024524,4.5735e-05,9.8433e+07,2.0187e+05,0,9.9199e+07,16273,13207,12110,1,12110,1,6.6453e-07,-2.2742e-09,0,0.00012643,-1.1685e-07,2.6194e+05,-778.44,0,5.1219e+07,-522.59,12109,11089,1,11089,1,-0.00024389,-4.3491e-07,0,8.3405e-06,-4.5975e-05,-9.9199e+07,-1.4847e+05,0,3.3925e+06,-14764,11088,11599,1,11599,1,-0.00012574,-1.3674e-07,0,6.3232e-05,-2.3838e-05,-5.1144e+07,-46657,0,2.5641e+07,-5256.9,11598,12621,1,12621,1,0.0001271,1.2766e-07,0,0.00018964,2.3602e-05,5.1237e+07,43518,0,7.6642e+07,3757.1,12620,591.1,0,591.1,0,0.00014579,2.1537e-07,0,7.2747e-05,2.7343e-05,5.8963e+07,73529,0,2.9382e+07,5855.3,591.1,1
2044,0.91,12111,1,12111,1,6.802e-07,-2.3341e-08,0,0.00012779,-1.245e-07,-3981,-7966.6,0,5.1697e+07,55.56,12110,13208,1,13208,1,0.00024815,5.283e-07,0,0.00024815,4.6262e-05,9.9572e+07,1.8081e+05,0,1.0034e+08,14137,13207,12110,1,12110,1,6.7958e-07,-1.3117e-08,0,0.00012792,-1.257e-07,2.68e+05,-4461.8,0,5.182e+07,-13.211,12109,11089,1,11089,1,-0.0002467,-4.9157e-07,0,8.4302e-06,-4.6522e-05,-1.0034e+08,-1.6824e+05,0,3.4288e+06,-11731,11088,11599,1,11599,1,-0.00012723,-1.5496e-07,0,6.398e-05,-2.412e-05,-5.1749e+07,-53035,0,2.5942e+07,-4550.8,11598,12621,1,12621,1,0.0001286,8.7441e-08,0,0.00019188,2.3878e-05,5.1833e+07,29760,0,7.7533e+07,4593.6,12620,591.1,0,591.1,0,0.0001475,2.0811e-07,0,7.3596e-05,2.7662e-05,5.9642e+07,71041,0,2.972e+07,5698.9,591.1,1
2044,0.92,12111,1,12111,1,7.248e-07,-6.8918e-09,0,0.00012885,-1.3373e-07,5333.9,-2345.8,0,5.2116e+07,-339.65,12110,13208,1,13208,1,0.00025036,8.4536e-07,0,0.00025036,4.6664e-05,1.0043e+08,2.8952e+05,0,1.0123e+08,24766,13207,12110,1,12110,1,7.2635e-07,-2.7726e-08,0,0.00012897,-1.2559e-07,2.8597e+05,-9450.1,0,5.224e+07,-537.52,12109,11089,1,11089,1,-0.00024889,-5.2699e-07,0,8.4576e-06,-4.6938e-05,-1.0123e+08,-1.7988e+05,0,3.4407e+06,-16123,11088,11599,1,11599,1,-0.00012826,-1.9283e-07,0,6.4536e-05,-2.4331e-05,-5.2166e+07,-65463,0,2.6165e+07,-6095.2,11598,12621,1,12621,1,0.0001297,1.2018e-07,0,0.00019346,2.4076e-05,5.2264e+07,40948,0,7.814e+07,4786.9,12620,591.1,0,591.1,0,0.00014871,2.7593e-07,0,7.4197e-05,2.7892e-05,6.0124e+07,94201,0,2.9958e+07,7848.3,591.1,1
2044,0.93,12111,1,12111,1,7.3916e-07,-5.3346e-08,0,0.00013067,-1.3778e-07,2033.3,-18206,0,5.2848e+07,-951.75,12110,13208,1,13208,1,0.00025399,5.568e-07,0,0.00025399,4.7338e-05,1.0186e+08,1.9056e+05,0,1.0267e+08,13421,13207,12110,1,12110,1,7.2433e-07,-4.4537e-08,0,0.00013084,-1.4166e-07,2.8616e+05,-15255,0,5.2994e+07,-1101.7,12109,11089,1,11089,1,-0.00025243,-4.5949e-07,0,8.5824e-06,-4.7617e-05,-1.0267e+08,-1.5702e+05,0,3.4906e+06,-18074,11088,11599,1,11599,1,-0.00013009,-1.9701e-07,0,6.5434e-05,-2.4679e-05,-5.2912e+07,-66993,0,2.6529e+07,-5260.2,11598,12621,1,12621,1,0.00013158,5.6027e-08,0,0.00019627,2.4415e-05,5.3012e+07,19078,0,7.9253e+07,3198.2,12620,591.1,0,591.1,0,0.00015081,2.001e-07,0,7.5252e-05,2.8283e-05,6.0969e+07,68298,0,3.038e+07,5953.4,591.1,1
2044,0.94,12111,1,12111,1,7.7709e-07,-3.251e-08,0,0.00013158,-1.4361e-07,7343.1,-11091,0,5.3208e+07,-452.57,12110,13208,1,13208,1,0.00025591,7.925e-07,0,0.00025591,4.7683e-05,1.0258e+08,2.7048e+05,0,1.0342e+08,22981,13207,12110,1,12110,1,7.7408e-07,-4.3854e-08,0,0.00013175,-1.4096e-07,3.0501e+05,-14868,0,5.3357e+07,-322.94,12109,11089,1,11089,1,-0.00025427,-5.4628e-07,0,8.6017e-06,-4.7978e-05,-1.0342e+08,-1.8644e+05,0,3.4996e+06,-21659,11088,11599,1,11599,1,-0.00013097,-2.3962e-07,0,6.5901e-05,-2.4858e-05,-5.3268e+07,-81885,0,2.6716e+07,-5960.4,11598,12621,1,12621,1,0.00013252,9.2962e-08,0,0.00019761,2.4582e-05,5.3379e+07,31773,0,7.9763e+07,4560.2,12620,591.1,0,591.1,0,0.00015186,2.8801e-07,0,7.5772e-05,2.8484e-05,6.1383e+07,98286,0,3.0583e+07,8214.5,591.1,1
2044,0.95,12111,1,12111,1,7.8281e-07,-1.324e-08,0,0.00013342,-1.4375e-07,879.93,-4518.7,0,5.3949e+07,-99.95,12110,13208,1,13208,1,0.00025911,5.9193e-07,0,0.00025911,4.828e-05,1.0384e+08,2.0258e+05,0,1.0472e+08,19084,13207,12110,1,12110,1,7.7754e-07,-1.0804e-08,0,0.00013354,-1.4868e-07,3.0677e+05,-3668.8,0,5.4076e+07,-377.98,12109,11089,1,11089,1,-0.00025746,-4.65e-07,0,8.7287e-06,-4.8575e-05,-1.0472e+08,-1.5914e+05,0,3.5507e+06,-18309,11088,11599,1,11599,1,-0.00013276,-1.5489e-07,0,6.6798e-05,-2.52e-05,-5.3996e+07,-52853,0,2.7079e+07,-5184,11598,12621,1,12621,1,0.00013432,1.0025e-07,0,0.00020032,2.4914e-05,5.4096e+07,34247,0,8.0915e+07,4709.4,12620,591.1,0,591.1,0,0.00015399,2.1516e-07,0,7.6837e-05,2.888e-05,6.2238e+07,73426,0,3.101e+07,6445.4,591.1,1
2044,0.96,12111,1,12111,1,8.123e-07,-2.0795e-08,0,0.00013488,-1.5249e-07,578.55,-7091,0,5.4532e+07,-1499.6,12110,13208,1,13208,1,0.00026201,5.9159e-07,0,0.00026201,4.8816e-05,1.0497e+08,2.0246e+05,0,1.0588e+08,19685,13207,12110,1,12110,1,8.1368e-07,-1.6788e-08,0,0.00013503,-1.5533e-07,3.2071e+05,-5665,0,5.4674e+07,-1283,12109,11089,1,11089,1,-0.00026031,-4.6256e-07,0,8.8052e-06,-4.9121e-05,-1.0588e+08,-1.5815e+05,0,3.5818e+06,-20995,11088,11599,1,11599,1,-0.00013422,-1.5268e-07,0,6.7544e-05,-2.548e-05,-5.459e+07,-52058,0,2.7378e+07,-5863,11598,12621,1,12621,1,0.00013584,7.5083e-08,0,0.00020255,2.5188e-05,5.4695e+07,25579,0,8.1811e+07,3040.9,12620,591.1,0,591.1,0,0.00015568,2.0455e-07,0,7.7679e-05,2.9196e-05,6.2909e+07,69812,0,3.1343e+07,6892.6,591.1,1
2044,0.97,12111,1,12111,1,8.4991e-07,-1.0776e-08,0,0.00013597,-1.5785e-07,6172,-3678.4,0,5.4965e+07,-827.23,12110,13208,1,13208,1,0.00026413,6.2912e-07,0,0.00026413,4.92e-05,1.0578e+08,2.1421e+05,0,1.0671e+08,20218,13207,12110,1,12110,1,8.3996e-07,-1.2161e-08,0,0.0001361,-1.6623e-07,3.3258e+05,-4130.6,0,5.5102e+07,-1442.6,12109,11089,1,11089,1,-0.00026236,-5.2114e-07,0,8.847e-06,-4.9518e-05,-1.0671e+08,-1.7835e+05,0,3.5984e+06,-25797,11088,11599,1,11599,1,-0.00013525,-1.6399e-07,0,6.8071e-05,-2.5697e-05,-5.5008e+07,-55972,0,2.7591e+07,-6011.9,11598,12621,1,12621,1,0.00013695,1.1415e-07,0,0.00020415,2.5384e-05,5.5128e+07,38669,0,8.2434e+07,3654.2,12620,591.1,0,591.1,0,0.00015693,2.3595e-07,0,7.8306e-05,2.9432e-05,6.3408e+07,80515,0,3.159e+07,7283.2,591.1,1
2044,0.98,12111,1,12111,1,8.5775e-07,-7.4404e-09,0,0.00013733,-1.5848e-07,361.91,-2536.3,0,5.5509e+07,-512.6,12110,13208,1,13208,1,0.00026676,6.1683e-07,0,0.00026676,4.9676e-05,1.0681e+08,2.1125e+05,0,1.0775e+08,16585,13207,12110,1,12110,1,8.5121e-07,-1.0078e-08,0,0.00013746,-1.6001e-07,3.3639e+05,-3425.8,0,5.5649e+07,-679.83,12109,11089,1,11089,1,-0.00026492,-4.8854e-07,0,8.9303e-06,-5.001e-05,-1.0775e+08,-1.6703e+05,0,3.6325e+06,-19084,11088,11599,1,11599,1,-0.00013658,-1.4855e-07,0,6.8746e-05,-2.5946e-05,-5.5552e+07,-50598,0,2.7863e+07,-5151.3,11598,12621,1,12621,1,0.00013832,1.1154e-07,0,0.00020618,2.5626e-05,5.5672e+07,37956,0,8.3266e+07,4240,12620,591.1,0,591.1,0,0.0001585,2.1853e-07,0,7.909e-05,2.9726e-05,6.4035e+07,74570,0,3.1902e+07,6141.6,591.1,1
2044,0.99,12111,1,12111,1,8.6803e-07,-2.1738e-08,0,0.00013882,-1.6057e-07,-6020.4,-7413.5,0,5.6104e+07,-622.89,12110,13208,1,13208,1,0.00026989,8.3302e-07,0,0.00026989,5.0272e-05,1.0803e+08,2.8507e+05,0,1.0904e+08,24268,13207,12110,1,12110,1,8.6644e-07,-4.1878e-08,0,0.00013897,-1.6147e-07,3.4179e+05,-14137,0,5.6254e+07,-379.82,12109,11089,1,11089,1,-0.00026808,-5.061e-07,0,9.0187e-06,-5.0596e-05,-1.0904e+08,-1.732e+05,0,3.6685e+06,-21914,11088,11599,1,11599,1,-0.00013809,-2.3258e-07,0,6.9506e-05,-2.6232e-05,-5.6166e+07,-79316,0,2.8169e+07,-5272.5,11598,12621,1,12621,1,0.00013983,1.1387e-07,0,0.00020846,2.5915e-05,5.6269e+07,38759,0,8.4132e+07,4295.1,12620,591.1,0,591.1,0,0.00016022,2.9142e-07,0,7.9945e-05,3.0051e-05,6.4721e+07,99425,0,3.2242e+07,8292.9,591.1,1
2044,1,12111,1,12111,1,8.9937e-07,-3.5234e-08,0,0.00014013,-1.6745e-07,-4509.4,-12016,0,5.6624e+07,-1094,12110,13208,1,13208,1,0.00027246,6.1076e-07,0,0.00027246,5.0737e-05,1.0902e+08,2.0836e+05,0,1.1006e+08,12651,13207,12110,1,12110,1,8.976e-07,-2.3851e-08,0,0.00014031,-1.7466e-07,3.5422e+05,-8106.7,0,5.6792e+07,-981.01,12109,11089,1,11089,1,-0.00027058,-5.3416e-07,0,9.0896e-06,-5.1076e-05,-1.1006e+08,-1.8279e+05,0,3.6975e+06,-19431,11088,11599,1,11599,1,-0.0001394,-1.9532e-07,0,7.0177e-05,-2.6489e-05,-5.6701e+07,-66687,0,2.844e+07,-5117.3,11598,12621,1,12621,1,0.00014121,8.8352e-08,0,0.00021049,2.6152e-05,5.681e+07,29966,0,8.495e+07,3775.9,12620,591.1,0,591.1,0,0.00016173,2.3966e-07,0,8.0701e-05,3.0331e-05,6.532e+07,81756,0,3.2541e+07,6245.4,591.1,1
2044,1.01,12111,1,12111,1,9.3762e-07,2.6359e-08,0,0.00014213,-1.7174e-07,-950.93,9003.7,0,5.7426e+07,68.867,12110,13208,1,13208,1,0.00027621,7.02e-07,0,0.00027621,5.1447e-05,1.1049e+08,2.4041e+05,0,1.116e+08,20847,13207,12110,1,12110,1,9.3683e-07,-3.5061e-09,0,0.00014227,-1.7229e-07,3.7009e+05,-1179.3,0,5.7581e+07,43.334,12109,11089,1,11089,1,-0.00027438,-4.313e-07,0,9.1918e-06,-5.1782e-05,-1.116e+08,-1.4713e+05,0,3.7391e+06,-17062,11088,11599,1,11599,1,-0.00014133,-1.1405e-07,0,7.1162e-05,-2.6857e-05,-5.7483e+07,-38626,0,2.8837e+07,-4653.5,11598,12621,1,12621,1,0.00014322,1.4163e-07,0,0.00021344,2.651e-05,5.7608e+07,48075,0,8.6154e+07,4660,12620,591.1,0,591.1,0,0.00016404,2.2644e-07,0,8.1855e-05,3.0764e-05,6.6245e+07,77242,0,3.3001e+07,6412.2,591.1,1
2044,1.02,12111,1,12111,1,9.7876e-07,9.491e-09,0,0.00014352,-1.7885e-07,1283.4,3233.4,0,5.7979e+07,261.3,12110,13208,1,13208,1,0.00027878,6.4227e-07,0,0.00027878,5.1913e-05,1.1146e+08,2.1907e+05,0,1.1261e+08,16872,13207,12110,1,12110,1,9.7544e-07,-8.9774e-09,0,0.00014363,-1.8503e-07,3.8546e+05,-3024.6,0,5.8123e+07,39.997,12109,11089,1,11089,1,-0.00027687,-4.3144e-07,0,9.2583e-06,-5.2263e-05,-1.1261e+08,-1.4728e+05,0,3.7658e+06,-18062,11088,11599,1,11599,1,-0.00014264,-1.313e-07,0,7.1827e-05,-2.7118e-05,-5.8018e+07,-44670,0,2.9104e+07,-4186.2,11598,12621,1,12621,1,0.00014461,1.1417e-07,0,0.00021546,2.6761e-05,5.8147e+07,38806,0,8.6965e+07,4586.5,12620,591.1,0,591.1,0,0.00016565,2.2089e-07,0,8.2658e-05,3.1066e-05,6.6881e+07,75344,0,3.3316e+07,6263.1,591.1,1
2044,1.03,12111,1,12111,1,1.0113e-06,-4.5453e-09,0,0.00014492,-1.8843e-07,2639.5,-1546.5,0,5.8537e+07,-1248.8,12110,13208,1,13208,1,0.00028144,5.7011e-07,0,0.00028144,5.2398e-05,1.1249e+08,1.9525e+05,0,1.1367e+08,14814,13207,12110,1,12110,1,1.0057e-06,-8.5616e-09,0,0.00014503,-2.0442e-07,3.9691e+05,-2901.9,0,5.8684e+07,-1137.8,12109,11089,1,11089,1,-0.00027946,-4.1815e-07,0,9.3241e-06,-5.2762e-05,-1.1367e+08,-1.4307e+05,0,3.7929e+06,-20543,11088,11599,1,11599,1,-0.000144,-1.3994e-07,0,7.2529e-05,-2.7395e-05,-5.8572e+07,-47448,0,2.9387e+07,-4770.9,11598,12621,1,12621,1,0.00014604,1.0536e-07,0,0.00021753,2.7013e-05,5.8712e+07,35719,0,8.7799e+07,2617,12620,591.1,0,591.1,0,0.00016727,2.0317e-07,0,8.3467e-05,3.1367e-05,6.7525e+07,69300,0,3.3636e+07,5590.8,591.1,1
2044,1.04,12111,1,12111,1,1.0378e-06,-4.7768e-08,0,0.00014662,-1.9333e-07,443.74,-16283,0,5.9214e+07,-1273.7,12110,13208,1,13208,1,0.00028492,4.4823e-07,0,0.00028492,5.3031e-05,1.1384e+08,1.5351e+05,0,1.1503e+08,13215,13207,12110,1,12110,1,1.0401e-06,-3.8561e-08,0,0.00014676,-2.095e-07,4.0966e+05,-13093,0,5.9379e+07,-315.27,12109,11089,1,11089,1,-0.0002828,-3.7428e-07,0,9.3988e-06,-5.3412e-05,-1.1503e+08,-1.2795e+05,0,3.825e+06,-21497,11088,11599,1,11599,1,-0.00014573,-1.7626e-07,0,7.3402e-05,-2.7712e-05,-5.9273e+07,-60110,0,2.9737e+07,-4345.8,11598,12621,1,12621,1,0.00014779,4.8029e-08,0,0.00022017,2.7343e-05,5.9402e+07,16214,0,8.8842e+07,2786.3,12620,591.1,0,591.1,0,0.00016923,1.7434e-07,0,8.4447e-05,3.1734e-05,6.8306e+07,59464,0,3.4025e+07,5912.3,591.1,1
2044,1.05,12111,1,12111,1,1.0603e-06,1.1712e-08,0,0.00014767,-1.9927e-07,-3086.7,3991,0,5.9627e+07,-2049.3,12110,13208,1,13208,1,0.00028695,6.0775e-07,0,0.00028695,5.3419e-05,1.1461e+08,2.0695e+05,0,1.1588e+08,15187,13207,12110,1,12110,1,1.0555e-06,-1.4573e-10,0,0.00014776,-2.096e-07,4.166e+05,-49.91,0,5.9775e+07,-1728.2,12109,11089,1,11089,1,-0.00028489,-4.8604e-07,0,9.4675e-06,-5.3795e-05,-1.1588e+08,-1.6631e+05,0,3.8507e+06,-20411,11088,11599,1,11599,1,-0.00014671,-1.5375e-07,0,7.3892e-05,-2.7915e-05,-5.9672e+07,-52174,0,2.9934e+07,-6228,11598,12621,1,12621,1,0.00014883,1.5517e-07,0,0.0002217,2.7519e-05,5.9802e+07,52598,0,8.9432e+07,3031.7,12620,591.1,0,591.1,0,0.00017043,2.4094e-07,0,8.5046e-05,3.1962e-05,6.8781e+07,82165,0,3.4259e+07,6649.2,591.1,1
2044,1.06,12111,1,12111,1,1.0967e-06,-1.4287e-08,0,0.00014896,-1.9996e-07,1755.7,-4871.1,0,6.0144e+07,488.66,12110,13208,1,13208,1,0.00028941,7.0854e-07,0,0.00028941,5.3861e-05,1.1556e+08,2.4265e+05,0,1.1684e+08,25206,13207,12110,1,12110,1,1.0845e-06,-2.2883e-08,0,0.00014909,-1.9881e-07,4.2912e+05,-7783.3,0,6.0306e+07,-64.529,12109,11089,1,11089,1,-0.00028725,-4.8211e-07,0,9.5264e-06,-5.4257e-05,-1.1684e+08,-1.6453e+05,0,3.8751e+06,-21723,11088,11599,1,11599,1,-0.00014798,-1.793e-07,0,7.4555e-05,-2.8184e-05,-6.0187e+07,-61048,0,3.0199e+07,-4443.2,11598,12621,1,12621,1,0.00015019,1.0607e-07,0,0.00022362,2.777e-05,6.0335e+07,35997,0,9.0208e+07,4187.5,12620,591.1,0,591.1,0,0.00017193,2.4334e-07,0,8.5792e-05,3.2244e-05,6.9376e+07,82978,0,3.4554e+07,7620.4,591.1,1
2044,1.07,12111,1,12111,1,1.1291e-06,-4.7508e-08,0,0.00015062,-2.0864e-07,1889.6,-16186,0,6.0805e+07,-670.29,12110,13208,1,13208,1,0.00029287,4.5764e-07,0,0.00029287,5.4477e-05,1.169e+08,1.5673e+05,0,1.1817e+08,11436,13207,12110,1,12110,1,1.1126e-06,-2.6122e-08,0,0.0001508,-2.081e-07,4.3999e+05,-8883.5,0,6.0995e+07,-1206.1,12109,11089,1,11089,1,-0.00029052,-4.7857e-07,0,9.6216e-06,-5.4906e-05,-1.1817e+08,-1.6318e+05,0,3.9132e+06,-15526,11088,11599,1,11599,1,-0.00014966,-1.8421e-07,0,7.5398e-05,-2.8494e-05,-6.0871e+07,-62781,0,3.054e+07,-4435.7,11598,12621,1,12621,1,0.00015192,6.7232e-08,0,0.00022619,2.8075e-05,6.1021e+07,22824,0,9.1242e+07,3212.3,12620,591.1,0,591.1,0,0.00017384,2.0077e-07,0,8.675e-05,3.26e-05,7.0139e+07,68454,0,3.4934e+07,4825.6,591.1,1
2044,1.08,12111,1,12111,1,1.1571e-06,-1.6579e-08,0,0.0001521,-2.1583e-07,-1518.7,-5640.3,0,6.1393e+07,-1538.5,12110,13208,1,13208,1,0.00029552,6.7685e-07,0,0.00029552,5.4988e-05,1.1791e+08,2.3014e+05,0,1.1928e+08,21960,13207,12110,1,12110,1,1.1518e-06,-2.5623e-08,0,0.00015221,-2.3002e-07,4.5535e+05,-8654.5,0,6.1558e+07,-1725.3,12109,11089,1,11089,1,-0.00029326,-4.5054e-07,0,9.6842e-06,-5.54e-05,-1.1928e+08,-1.5415e+05,0,3.9398e+06,-26049,11088,11599,1,11599,1,-0.00015104,-1.7404e-07,0,7.6118e-05,-2.8777e-05,-6.1434e+07,-59298,0,3.0827e+07,-6181.6,11598,12621,1,12621,1,0.00015337,9.9819e-08,0,0.00022832,2.8331e-05,6.1585e+07,33919,0,9.2078e+07,2416.2,12620,591.1,0,591.1,0,0.00017555,2.329e-07,0,8.7601e-05,3.2922e-05,7.0815e+07,79422,0,3.5269e+07,7326.1,591.1,1
2044,1.09,12111,1,12111,1,1.2035e-06,-7.668e-08,0,0.00015338,-2.2159e-07,4408.4,-26125,0,6.1898e+07,-357.23,12110,13208,1,13208,1,0.00029834,4.9993e-07,0,0.00029834,5.5479e-05,1.1899e+08,1.7105e+05,0,1.2034e+08,17538,13207,12110,1,12110,1,1.1908e-06,-5.2215e-08,0,0.00015358,-2.3036e-07,4.7091e+05,-17864,0,6.2104e+07,-636.32,12109,11089,1,11089,1,-0.00029586,-5.0644e-07,0,9.7401e-06,-5.593e-05,-1.2034e+08,-1.7328e+05,0,3.9615e+06,-20981,11088,11599,1,11599,1,-0.00015236,-2.0915e-07,0,7.6795e-05,-2.9026e-05,-6.1971e+07,-70917,0,3.11e+07,-4375.3,11598,12621,1,12621,1,0.00015478,2.8576e-08,0,0.00023037,2.858e-05,6.2135e+07,9735.9,0,9.2892e+07,3779.6,12620,591.1,0,591.1,0,0.00017702,1.9334e-07,0,8.8337e-05,3.3197e-05,7.1398e+07,65915,0,3.5558e+07,6331.3,591.1,1
2044,1.1,12111,1,12111,1,1.2387e-06,-4.5349e-08,0,0.00015516,-2.2882e-07,4488.9,-15454,0,6.2609e+07,-688.94,12110,13208,1,13208,1,0.00030154,4.1261e-07,0,0.00030154,5.6065e-05,1.2022e+08,1.4132e+05,0,1.2161e+08,10562,13207,12110,1,12110,1,1.2222e-06,-3.1085e-08,0,0.00015531,-2.3229e-07,4.8379e+05,-10601,0,6.2797e+07,-410.25,12109,11089,1,11089,1,-0.00029898,-3.7656e-07,0,9.8377e-06,-5.6526e-05,-1.2161e+08,-1.2863e+05,0,4.0007e+06,-26512,11088,11599,1,11599,1,-0.00015406,-1.5407e-07,0,7.7654e-05,-2.9353e-05,-6.2661e+07,-52372,0,3.1445e+07,-3998.8,11598,12621,1,12621,1,0.00015654,4.8129e-08,0,0.00023296,2.8904e-05,6.2829e+07,16420,0,9.3921e+07,2907.1,12620,591.1,0,591.1,0,0.00017908,1.6293e-07,0,8.9369e-05,3.3581e-05,7.2218e+07,55536,0,3.5967e+07,5103.5,591.1,1
2044,1.11,12111,1,12111,1,1.2768e-06,-8.2388e-09,0,0.0001564,-2.3433e-07,4804.3,-2814.6,0,6.3099e+07,-61.894,12110,13208,1,13208,1,0.00030377,5.1689e-07,0,0.00030377,5.6467e-05,1.2106e+08,1.7684e+05,0,1.2249e+08,13802,13207,12110,1,12110,1,1.2605e-06,-5.6325e-09,0,0.00015653,-2.4419e-07,4.9847e+05,-1917.7,0,6.328e+07,134.3,12109,11089,1,11089,1,-0.00030116,-4.0999e-07,0,9.8858e-06,-5.6946e-05,-1.2249e+08,-1.3994e+05,0,4.021e+06,-18345,11088,11599,1,11599,1,-0.00015522,-1.1651e-07,0,7.8254e-05,-2.9593e-05,-6.3134e+07,-39832,0,3.1685e+07,-3620.6,11598,12621,1,12621,1,0.0001578,8.08e-08,0,0.00023475,2.9122e-05,6.3313e+07,27455,0,9.4628e+07,3951,12620,591.1,0,591.1,0,0.00018052,1.7501e-07,0,9.0082e-05,3.3851e-05,7.2782e+07,59648,0,3.6245e+07,5613.2,591.1,1
2044,1.12,12111,1,12111,1,1.2963e-06,-1.8768e-08,0,0.0001575,-2.4213e-07,237.33,-6391,0,6.3532e+07,-1851.6,12110,13208,1,13208,1,0.00030623,6.2411e-07,0,0.00030623,5.6925e-05,1.22e+08,2.127e+05,0,1.2347e+08,13482,13207,12110,1,12110,1,1.2916e-06,-1.5137e-08,0,0.00015765,-2.5032e-07,5.0977e+05,-5161.4,0,6.3728e+07,-1117.2,12109,11089,1,11089,1,-0.00030357,-4.9358e-07,0,9.9367e-06,-5.7409e-05,-1.2347e+08,-1.6821e+05,0,4.0418e+06,-18686,11088,11599,1,11599,1,-0.00015634,-1.8419e-07,0,7.8831e-05,-2.9812e-05,-6.3588e+07,-62918,0,3.1916e+07,-5608,11598,12621,1,12621,1,0.00015894,1.0655e-07,0,0.00023646,2.9327e-05,6.3757e+07,36354,0,9.5299e+07,2747.9,12620,591.1,0,591.1,0,0.00018178,2.3529e-07,0,9.071e-05,3.4088e-05,7.328e+07,80196,0,3.6491e+07,6155.8,591.1,1
2044,1.13,12111,1,12111,1,1.3253e-06,-1.4266e-08,0,0.00015913,-2.4633e-07,-914.1,-4859.2,0,6.4185e+07,-1386.3,12110,13208,1,13208,1,0.00030918,5.5195e-07,0,0.00030918,5.7467e-05,1.2314e+08,1.8883e+05,0,1.2465e+08,12528,13207,12110,1,12110,1,1.3199e-06,-1.1265e-08,0,0.00015925,-2.5577e-07,5.21e+05,-3817.1,0,6.4367e+07,-1271.3,12109,11089,1,11089,1,-0.00030645,-4.1863e-07,0,1.0027e-05,-5.796e-05,-1.2465e+08,-1.4322e+05,0,4.0787e+06,-16990,11088,11599,1,11599,1,-0.00015791,-1.3913e-07,0,7.9642e-05,-3.0115e-05,-6.4229e+07,-47350,0,3.2241e+07,-5142.9,11598,12621,1,12621,1,0.00016057,8.2683e-08,0,0.00023888,2.9627e-05,6.44e+07,28121,0,9.6253e+07,2848.9,12620,591.1,0,591.1,0,0.00018367,1.9312e-07,0,9.1654e-05,3.4442e-05,7.4032e+07,65813,0,3.6865e+07,5424.4,591.1,1
2044,1.14,12111,1,12111,1,1.3815e-06,-2.8466e-08,0,0.00016082,-2.5767e-07,4828.5,-9690.8,0,6.4854e+07,-1793.5,12110,13208,1,13208,1,0.00031266,4.9223e-07,0,0.00031266,5.81e-05,1.2447e+08,1.6772e+05,0,1.2603e+08,11844,13207,12110,1,12110,1,1.3799e-06,-2.1014e-08,0,0.00016097,-2.6683e-07,5.4443e+05,-7155.6,0,6.5056e+07,-984.39,12109,11089,1,11089,1,-0.00030984,-3.9837e-07,0,1.0087e-05,-5.8614e-05,-1.2603e+08,-1.3574e+05,0,4.1031e+06,-16519,11088,11599,1,11599,1,-0.00015958,-1.6584e-07,0,8.0494e-05,-3.0446e-05,-6.4908e+07,-56611,0,3.2584e+07,-4897.2,11598,12621,1,12621,1,0.00016234,7.0663e-08,0,0.00024146,2.9933e-05,6.5091e+07,24102,0,9.7278e+07,1953.9,12620,591.1,0,591.1,0,0.00018562,1.8972e-07,0,9.2629e-05,3.4806e-05,7.4804e+07,64652,0,3.7249e+07,5089.5,591.1,1
2044,1.15,12111,1,12111,1,1.4195e-06,-1.9308e-08,0,0.00016217,-2.6168e-07,4151.9,-6580,0,6.5389e+07,-548.77,12110,13208,1,13208,1,0.00031532,6.0623e-07,0,0.00031532,5.8587e-05,1.2547e+08,2.0657e+05,0,1.2707e+08,13452,13207,12110,1,12110,1,1.4114e-06,-2.4343e-08,0,0.00016231,-2.6366e-07,5.5742e+05,-8214.3,0,6.5588e+07,106.09,12109,11089,1,11089,1,-0.00031242,-4.1073e-07,0,1.015e-05,-5.9111e-05,-1.2707e+08,-1.3994e+05,0,4.128e+06,-17791,11088,11599,1,11599,1,-0.00016088,-1.8648e-07,0,8.1165e-05,-3.07e-05,-6.5435e+07,-63774,0,3.2851e+07,-4917.5,11598,12621,1,12621,1,0.00016373,9.9787e-08,0,0.00024347,3.0188e-05,6.5626e+07,34085,0,9.8067e+07,4124.3,12620,591.1,0,591.1,0,0.00018718,2.2719e-07,0,9.3408e-05,3.5102e-05,7.5419e+07,77392,0,3.7553e+07,6545.6,591.1,1
2044,1.16,12111,1,12111,1,1.4556e-06,-2.9025e-08,0,0.00016358,-2.7077e-07,3634.9,-9875.5,0,6.5945e+07,-1594.1,12110,13208,1,13208,1,0.00031793,5.2412e-07,0,0.00031793,5.9062e-05,1.2646e+08,1.7856e+05,0,1.2811e+08,13622,13207,12110,1,12110,1,1.4578e-06,-2.3566e-08,0,0.0001637,-2.7817e-07,5.7535e+05,-7983.7,0,6.6144e+07,-1332.4,12109,11089,1,11089,1,-0.00031497,-4.4924e-07,0,1.021e-05,-5.9598e-05,-1.2811e+08,-1.5305e+05,0,4.1529e+06,-16907,11088,11599,1,11599,1,-0.00016225,-1.6783e-07,0,8.1865e-05,-3.0972e-05,-6.5991e+07,-57338,0,3.3132e+07,-4955.2,11598,12621,1,12621,1,0.00016515,7.8651e-08,0,0.00024556,3.0432e-05,6.618e+07,26717,0,9.8889e+07,2650,12620,591.1,0,591.1,0,0.0001888,2.0238e-07,0,9.4217e-05,3.5404e-05,7.6059e+07,68957,0,3.787e+07,5770,591.1,1
2044,1.17,12111,1,12111,1,1.4732e-06,-1.7509e-08,0,0.00016489,-2.7108e-07,-3804,-5968.2,0,6.6463e+07,-396.82,12110,13208,1,13208,1,0.00032042,5.2249e-07,0,0.00032042,5.9521e-05,1.274e+08,1.7885e+05,0,1.291e+08,11276,13207,12110,1,12110,1,1.4624e-06,-9.4784e-09,0,0.00016501,-2.7641e-07,5.7836e+05,-3246.5,0,6.6664e+07,-320.4,12109,11089,1,11089,1,-0.00031741,-4.3081e-07,0,1.0285e-05,-6.0067e-05,-1.291e+08,-1.4734e+05,0,4.1829e+06,-22874,11088,11599,1,11599,1,-0.00016352,-1.4435e-07,0,8.2515e-05,-3.1219e-05,-6.6509e+07,-49253,0,3.3393e+07,-3940.4,11598,12621,1,12621,1,0.00016648,9.1352e-08,0,0.00024751,3.068e-05,6.6698e+07,31111,0,9.966e+07,3607.9,12620,591.1,0,591.1,0,0.00019031,1.9113e-07,0,9.4974e-05,3.5688e-05,7.6657e+07,65102,0,3.8167e+07,5606.5,591.1,1
2044,1.18,12111,1,12111,1,1.5083e-06,-2.3025e-08,0,0.0001663,-2.8227e-07,-5043.1,-7831.5,0,6.702e+07,-2403.3,12110,13208,1,13208,1,0.00032329,6.4586e-07,0,0.00032329,6.0042e-05,1.285e+08,2.2093e+05,0,1.3023e+08,10529,13207,12110,1,12110,1,1.5031e-06,-3.3044e-08,0,0.00016643,-2.9597e-07,5.9311e+05,-11248,0,6.723e+07,-758.84,12109,11089,1,11089,1,-0.00032019,-3.8818e-07,0,1.0353e-05,-6.0603e-05,-1.3023e+08,-1.3222e+05,0,4.2109e+06,-32963,11088,11599,1,11599,1,-0.00016491,-1.7001e-07,0,8.3221e-05,-3.1511e-05,-6.7074e+07,-57695,0,3.3675e+07,-5808.7,11598,12621,1,12621,1,0.00016793,7.3932e-08,0,0.00024964,3.094e-05,6.7261e+07,25165,0,1.005e+08,2488,12620,591.1,0,591.1,0,0.00019194,2.067e-07,0,9.5783e-05,3.5992e-05,7.7298e+07,70417,0,3.8484e+07,6886.4,591.1,1
2044,1.19,12111,1,12111,1,1.5633e-06,-2.3223e-08,0,0.00016764,-2.9059e-07,1893.2,-7896.6,0,6.7552e+07,-1624.5,12110,13208,1,13208,1,0.00032596,6.4207e-07,0,0.00032596,6.0525e-05,1.2951e+08,2.1868e+05,0,1.3128e+08,19963,13207,12110,1,12110,1,1.5611e-06,-2.3763e-08,0,0.00016779,-2.944e-07,6.1576e+05,-8035.8,0,6.777e+07,-1583.4,12109,11089,1,11089,1,-0.00032277,-4.6765e-07,0,1.0395e-05,-6.1104e-05,-1.3128e+08,-1.5997e+05,0,4.2285e+06,-17059,11088,11599,1,11599,1,-0.0001662,-1.6933e-07,0,8.3898e-05,-3.1758e-05,-6.76e+07,-57506,0,3.3947e+07,-6185.6,11598,12621,1,12621,1,0.00016935,8.1463e-08,0,0.00025168,3.1173e-05,6.781e+07,27521,0,1.013e+08,2726,12620,591.1,0,591.1,0,0.00019349,2.2266e-07,0,9.6559e-05,3.6285e-05,7.791e+07,75850,0,3.8788e+07,6530.8,591.1,1
2044,1.2,12111,1,12111,1,1.5934e-06,-2.3051e-08,0,0.00016887,-2.92e-07,-910.12,-7845.1,0,6.8035e+07,83.327,12110,13208,1,13208,1,0.0003282,5.5886e-07,0,0.0003282,6.0925e-05,1.3035e+08,1.9111e+05,0,1.3215e+08,19508,13207,12110,1,12110,1,1.5898e-06,-2.0346e-08,0,0.00016899,-2.9111e-07,6.2753e+05,-6945.7,0,6.8249e+07,-198.63,12109,11089,1,11089,1,-0.00032489,-4.3286e-07,0,1.0452e-05,-6.1521e-05,-1.3215e+08,-1.4789e+05,0,4.2517e+06,-16527,11088,11599,1,11599,1,-0.00016738,-1.4277e-07,0,8.4501e-05,-3.1987e-05,-6.808e+07,-48622,0,3.4187e+07,-4288.9,11598,12621,1,12621,1,0.00017059,6.6242e-08,0,0.00025348,3.1402e-05,6.8288e+07,22529,0,1.0201e+08,3829.1,12620,591.1,0,591.1,0,0.0001949,1.9048e-07,0,9.7265e-05,3.6549e-05,7.8467e+07,64874,0,3.9064e+07,6077.2,591.1,1
2044,1.21,12111,1,12111,1,1.6438e-06,-2.8286e-08,0,0.00017006,-3.0521e-07,5071.9,-9621.5,0,6.8507e+07,-1552.9,12110,13208,1,13208,1,0.00033104,8.1265e-07,0,0.00033104,6.1444e-05,1.3143e+08,2.7673e+05,0,1.3328e+08,21687,13207,12110,1,12110,1,1.6371e-06,-3.2789e-08,0,0.00017025,-3.0635e-07,6.4644e+05,-11197,0,6.875e+07,-951.03,12109,11089,1,11089,1,-0.00032767,-5.7133e-07,0,1.0482e-05,-6.2057e-05,-1.3328e+08,-1.9542e+05,0,4.2634e+06,-20397,11088,11599,1,11599,1,-0.00016859,-2.3687e-07,0,8.5136e-05,-3.2237e-05,-6.857e+07,-80660,0,3.4441e+07,-6781.6,11598,12621,1,12621,1,0.00017189,1.1561e-07,0,0.00025537,3.1629e-05,6.8792e+07,39314,0,1.0276e+08,3771.3,12620,591.1,0,591.1,0,0.00019628,2.9572e-07,0,9.795e-05,3.6811e-05,7.9009e+07,1.0071e+05,0,3.9331e+07,7646.8,591.1,1
2044,1.22,12111,1,12111,1,1.6832e-06,6.7463e-09,0,0.00017192,-3.1064e-07,3923.8,2305.7,0,6.9247e+07,-809.9,12110,13208,1,13208,1,0.00033443,7.1947e-07,0,0.00033443,6.2089e-05,1.3273e+08,2.4609e+05,0,1.3469e+08,20617,13207,12110,1,12110,1,1.6885e-06,-1.1883e-08,0,0.00017208,-3.205e-07,6.6542e+05,-4004.6,0,6.9481e+07,-742.67,12109,11089,1,11089,1,-0.00033113,-4.6203e-07,0,1.0569e-05,-6.2699e-05,-1.3469e+08,-1.575e+05,0,4.301e+06,-18679,11088,11599,1,11599,1,-0.00017037,-1.5183e-07,0,8.6042e-05,-3.2586e-05,-6.9297e+07,-51499,0,3.4805e+07,-5256.5,11598,12621,1,12621,1,0.00017377,1.2919e-07,0,0.00025811,3.1956e-05,6.9528e+07,44039,0,1.0384e+08,3948.2,12620,591.1,0,591.1,0,0.00019843,2.4073e-07,0,9.9024e-05,3.7211e-05,7.9862e+07,81986,0,3.9755e+07,7288.7,591.1,1
2044,1.23,12111,1,12111,1,1.7256e-06,-4.6502e-08,0,0.00017373,-3.2002e-07,-570.88,-15811,0,6.9961e+07,-1505.5,12110,13208,1,13208,1,0.00033797,4.1451e-07,0,0.00033797,6.2716e-05,1.3406e+08,1.4112e+05,0,1.3604e+08,12036,13207,12110,1,12110,1,1.7204e-06,-2.8028e-08,0,0.00017389,-3.1749e-07,6.793e+05,-9463,0,7.0204e+07,-1149.7,12109,11089,1,11089,1,-0.00033446,-4.169e-07,0,1.0664e-05,-6.3354e-05,-1.3604e+08,-1.4259e+05,0,4.3376e+06,-14887,11088,11599,1,11599,1,-0.00017215,-1.7594e-07,0,8.6957e-05,-3.293e-05,-7.002e+07,-59237,0,3.5172e+07,-5213.9,11598,12621,1,12621,1,0.00017562,6.5122e-08,0,0.00026085,3.2291e-05,7.0246e+07,22103,0,1.0492e+08,2053.8,12620,591.1,0,591.1,0,0.00020052,1.8178e-07,0,0.00010007,3.76e-05,8.0685e+07,61904,0,4.0164e+07,4835.3,591.1,1
2044,1.24,12111,1,12111,1,1.7821e-06,-1.9854e-08,0,0.0001753,-3.2809e-07,1380.4,-6759.6,0,7.0578e+07,-532.67,12110,13208,1,13208,1,0.0003409,5.4284e-07,0,0.0003409,6.3245e-05,1.3515e+08,1.8479e+05,0,1.3718e+08,13503,13207,12110,1,12110,1,1.7637e-06,-2.4303e-08,0,0.00017544,-3.2815e-07,6.9688e+05,-8303.9,0,7.0815e+07,-485.18,12109,11089,1,11089,1,-0.00033727,-3.6491e-07,0,1.0729e-05,-6.3904e-05,-1.3718e+08,-1.2421e+05,0,4.364e+06,-14809,11088,11599,1,11599,1,-0.00017364,-1.6111e-07,0,8.7714e-05,-3.3226e-05,-7.0626e+07,-54840,0,3.5473e+07,-3987,11598,12621,1,12621,1,0.00017721,7.8244e-08,0,0.00026314,3.2575e-05,7.0855e+07,26639,0,1.0582e+08,2769.6,12620,591.1,0,591.1,0,0.00020233,1.9466e-07,0,0.00010098,3.794e-05,8.1395e+07,66256,0,4.0515e+07,5229.4,591.1,1
2044,1.25,12111,1,12111,1,1.8156e-06,-2.2893e-09,0,0.00017639,-3.3396e-07,-2505.7,-767.52,0,7.1005e+07,-432.37,12110,13208,1,13208,1,0.00034306,5.4133e-07,0,0.00034306,6.3647e-05,1.3596e+08,1.8427e+05,0,1.3806e+08,13785,13207,12110,1,12110,1,1.8107e-06,-7.2548e-09,0,0.00017649,-3.3093e-07,7.1521e+05,-2422.9,0,7.123e+07,-187.8,12109,11089,1,11089,1,-0.00033944,-4.5373e-07,0,1.076e-05,-6.4319e-05,-1.3806e+08,-1.5518e+05,0,4.3764e+06,-18040,11088,11599,1,11599,1,-0.00017467,-1.5915e-07,0,8.8286e-05,-3.3434e-05,-7.1046e+07,-54123,0,3.57e+07,-4711.1,11598,12621,1,12621,1,0.00017831,1.4031e-07,0,0.00026474,3.2765e-05,7.1275e+07,47585,0,1.0644e+08,3866,12620,591.1,0,591.1,0,0.00020359,2.271e-07,0,0.0001016,3.8177e-05,8.1886e+07,77312,0,4.0758e+07,5794.9,591.1,1
2044,1.26,12111,1,12111,1,1.8658e-06,1.0091e-09,0,0.00017768,-3.4218e-07,2587.7,330.14,0,7.1513e+07,9.5829,12110,13208,1,13208,1,0.00034572,6.8033e-07,0,0.00034572,6.4127e-05,1.3696e+08,2.3154e+05,0,1.391e+08,15448,13207,12110,1,12110,1,1.8613e-06,-1.1156e-08,0,0.00017784,-3.4307e-07,7.3429e+05,-3722.2,0,7.1767e+07,17.61,12109,11089,1,11089,1,-0.000342,-4.6232e-07,0,1.0811e-05,-6.4808e-05,-1.391e+08,-1.5757e+05,0,4.3976e+06,-15402,11088,11599,1,11599,1,-0.00017593,-1.6333e-07,0,8.8916e-05,-3.37e-05,-7.1559e+07,-55424,0,3.5951e+07,-4983.1,11598,12621,1,12621,1,0.0001797,1.3297e-07,0,0.00026673,3.3008e-05,7.1814e+07,45341,0,1.0723e+08,4964.4,12620,591.1,0,591.1,0,0.00020508,2.3982e-07,0,0.00010235,3.8457e-05,8.2471e+07,81582,0,4.1047e+07,6229.3,591.1,1
2044,1.27,12111,1,12111,1,1.8791e-06,-4.5482e-08,0,0.00017915,-3.4471e-07,-9491.8,-15456,0,7.2094e+07,-89.857,12110,13208,1,13208,1,0.00034859,4.1155e-07,0,0.00034859,6.4642e-05,1.3804e+08,1.4018e+05,0,1.4021e+08,10825,13207,12110,1,12110,1,1.8704e-06,-2.6028e-08,0,0.00017933,-3.4154e-07,7.3847e+05,-8816,0,7.2363e+07,109.44,12109,11089,1,11089,1,-0.00034473,-4.2925e-07,0,1.0897e-05,-6.5344e-05,-1.4021e+08,-1.468e+05,0,4.4322e+06,-12374,11088,11599,1,11599,1,-0.00017742,-1.7603e-07,0,8.9659e-05,-3.3975e-05,-7.2163e+07,-59702,0,3.6251e+07,-3249.1,11598,12621,1,12621,1,0.00018121,6.11e-08,0,0.00026898,3.328e-05,7.2397e+07,20670,0,1.0812e+08,3145.9,12620,591.1,0,591.1,0,0.00020678,1.8274e-07,0,0.0001032,3.8772e-05,8.3141e+07,62209,0,4.1381e+07,4416.6,591.1,1
2044,1.28,12111,1,12111,1,1.9366e-06,-1.4889e-08,0,0.0001806,-3.5022e-07,-4928.4,-5065.4,0,7.2663e+07,2042.2,12110,13208,1,13208,1,0.00035106,5.0788e-07,0,0.00035106,6.51e-05,1.3895e+08,1.7369e+05,0,1.4122e+08,21847,13207,12110,1,12110,1,1.9189e-06,-1.3904e-08,0,0.0001807,-3.5581e-07,7.5887e+05,-4737.8,0,7.2902e+07,1353.5,12109,11089,1,11089,1,-0.00034719,-3.9394e-07,0,1.0952e-05,-6.5803e-05,-1.4122e+08,-1.3456e+05,0,4.4541e+06,-21360,11088,11599,1,11599,1,-0.00017875,-1.3168e-07,0,9.0351e-05,-3.4249e-05,-7.2703e+07,-44652,0,3.6526e+07,-2499.6,11598,12621,1,12621,1,0.00018263,7.6583e-08,0,0.00027103,3.3538e-05,7.2942e+07,26067,0,1.0891e+08,5398.5,12620,591.1,0,591.1,0,0.00020845,1.7991e-07,0,0.00010403,3.9086e-05,8.3795e+07,61218,0,4.1704e+07,6606.1,591.1,1
2044,1.29,12111,1,12111,1,2.007e-06,3.4038e-09,0,0.00018194,-3.6879e-07,4401.6,1159.3,0,7.3189e+07,-287.85,12110,13208,1,13208,1,0.000354,5.5963e-07,0,0.000354,6.5617e-05,1.4006e+08,1.9139e+05,0,1.4234e+08,14522,13207,12110,1,12110,1,1.9989e-06,-2.7133e-09,0,0.00018206,-3.7002e-07,7.8899e+05,-903.81,0,7.3443e+07,-399.32,12109,11089,1,11089,1,-0.00034994,-4.479e-07,0,1.0978e-05,-6.635e-05,-1.4234e+08,-1.5317e+05,0,4.4646e+06,-12759,11088,11599,1,11599,1,-0.00018003,-1.3867e-07,0,9.1031e-05,-3.4516e-05,-7.3224e+07,-47165,0,3.6797e+07,-4496.9,11598,12621,1,12621,1,0.00018406,1.3213e-07,0,0.00027306,3.3772e-05,7.3496e+07,44449,0,1.0971e+08,3785,12620,591.1,0,591.1,0,0.00020999,2.1316e-07,0,0.0001048,3.9376e-05,8.4401e+07,72536,0,4.2003e+07,5363.6,591.1,1
2044,1.3,12111,1,12111,1,2.0348e-06,3.5011e-08,0,0.00018303,-3.6827e-07,-1426.1,11887,0,7.3617e+07,2043.7,12110,13208,1,13208,1,0.00035633,7.7668e-07,0,0.00035633,6.6062e-05,1.4092e+08,2.6423e+05,0,1.4331e+08,25746,13207,12110,1,12110,1,2.0247e-06,4.6077e-09,0,0.00018321,-3.5963e-07,8.0013e+05,1557.2,0,7.3896e+07,1466.8,12109,11089,1,11089,1,-0.00035233,-4.885e-07,0,1.1015e-05,-6.6796e-05,-1.4331e+08,-1.6628e+05,0,4.4806e+06,-17710,11088,11599,1,11599,1,-0.00018113,-1.4053e-07,0,9.1601e-05,-3.4745e-05,-7.3671e+07,-47197,0,3.7023e+07,-3697.5,11598,12621,1,12621,1,0.00018525,1.8228e-07,0,0.0002748,3.3974e-05,7.3946e+07,62392,0,1.1038e+08,6899.8,12620,591.1,0,591.1,0,0.00021126,2.6831e-07,0,0.00010543,3.9616e-05,8.4893e+07,91250,0,4.2246e+07,8088.3,591.1,1
2044,1.31,12111,1,12111,1,2.0848e-06,-6.1224e-09,0,0.00018426,-3.8582e-07,2364.7,-2084.1,0,7.4099e+07,-1450.1,12110,13208,1,13208,1,0.00035861,7.7145e-07,0,0.00035861,6.6446e-05,1.4177e+08,2.6141e+05,0,1.4413e+08,13335,13207,12110,1,12110,1,2.0736e-06,-1.87e-08,0,0.00018441,-3.9943e-07,8.1782e+05,-6320.8,0,7.4372e+07,-833.54,12109,11089,1,11089,1,-0.00035435,-5.8559e-07,0,1.1068e-05,-6.7221e-05,-1.4413e+08,-2.0024e+05,0,4.5022e+06,-24140,11088,11599,1,11599,1,-0.0001823,-2.0188e-07,0,9.2211e-05,-3.4967e-05,-7.4149e+07,-67959,0,3.7267e+07,-6551.4,11598,12621,1,12621,1,0.00018648,1.4554e-07,0,0.00027659,3.4205e-05,7.4421e+07,49464,0,1.1109e+08,4384.4,12620,591.1,0,591.1,0,0.00021267,2.8514e-07,0,0.00010613,3.9881e-05,8.5447e+07,96985,0,4.252e+07,7645.1,591.1,1
2044,1.32,12111,1,12111,1,2.1312e-06,1.6603e-08,0,0.00018596,-3.912e-07,1705.9,5646.9,0,7.4771e+07,-145.82,12110,13208,1,13208,1,0.00036196,7.453e-07,0,0.00036196,6.709e-05,1.4304e+08,2.5469e+05,0,1.4553e+08,20411,13207,12110,1,12110,1,2.1323e-06,-6.6324e-09,0,0.0001861,-4.0497e-07,8.4106e+05,-2218.4,0,7.5049e+07,-270.93,12109,11089,1,11089,1,-0.0003578,-5.0248e-07,0,1.1127e-05,-6.7851e-05,-1.4553e+08,-1.7089e+05,0,4.5267e+06,-18291,11088,11599,1,11599,1,-0.00018394,-1.6587e-07,0,9.3052e-05,-3.5308e-05,-7.4817e+07,-56316,0,3.7604e+07,-5988.9,11598,12621,1,12621,1,0.00018824,1.6388e-07,0,0.00027913,3.451e-05,7.5103e+07,55258,0,1.1209e+08,5422.9,12620,591.1,0,591.1,0,0.00021463,2.6735e-07,0,0.00010711,4.0249e-05,8.6222e+07,90939,0,4.2904e+07,7516.7,591.1,1
2044,1.33,12111,1,12111,1,2.199e-06,-5.242e-08,0,0.00018761,-4.0504e-07,5713.1,-17826,0,7.5418e+07,-725.46,12110,13208,1,13208,1,0.00036542,6.0462e-07,0,0.00036542,6.7684e-05,1.4433e+08,2.0563e+05,0,1.4681e+08,15881,13207,12110,1,12110,1,2.1887e-06,-3.6629e-08,0,0.0001878,-4.1205e-07,8.6365e+05,-12224,0,7.5721e+07,-1117.4,12109,11089,1,11089,1,-0.00036094,-5.1898e-07,0,1.1194e-05,-6.8496e-05,-1.4681e+08,-1.7745e+05,0,4.552e+06,-12922,11088,11599,1,11599,1,-0.00018559,-2.2752e-07,0,9.3908e-05,-3.5622e-05,-7.5485e+07,-77520,0,3.7945e+07,-5341.3,11598,12621,1,12621,1,0.00018999,7.0808e-08,0,0.0002817,3.4819e-05,7.5775e+07,23833,0,1.1309e+08,3518.2,12620,591.1,0,591.1,0,0.00021654,2.4162e-07,0,0.00010807,4.0603e-05,8.6967e+07,82169,0,4.3274e+07,6014.2,591.1,1
2044,1.34,12111,1,12111,1,2.2417e-06,-3.0087e-08,0,0.00018915,-4.1134e-07,-118.44,-10224,0,7.6021e+07,-104.26,12110,13208,1,13208,1,0.00036813,4.391e-07,0,0.00036813,6.8172e-05,1.4531e+08,1.4932e+05,0,1.4786e+08,12010,13207,12110,1,12110,1,2.2321e-06,-1.6905e-08,0,0.00018931,-4.2147e-07,8.8104e+05,-5745.7,0,7.6314e+07,126,12109,11089,1,11089,1,-0.00036353,-4.0757e-07,0,1.1254e-05,-6.9002e-05,-1.4786e+08,-1.3861e+05,0,4.5778e+06,-13667,11088,11599,1,11599,1,-0.00018705,-1.529e-07,0,9.4655e-05,-3.591e-05,-7.6081e+07,-52027,0,3.8242e+07,-4562.1,11598,12621,1,12621,1,0.00019154,6.8026e-08,0,0.00028395,3.5098e-05,7.6365e+07,23133,0,1.1396e+08,3901.6,12620,591.1,0,591.1,0,0.00021831,1.7719e-07,0,0.00010896,4.0935e-05,8.7662e+07,60257,0,4.3618e+07,5341.4,591.1,1
2044,1.35,12111,1,12111,1,2.3025e-06,1.7216e-08,0,0.00019054,-4.2293e-07,2934.9,5842.1,0,7.6567e+07,-278.48,12110,13208,1,13208,1,0.00037085,6.157e-07,0,0.00037085,6.8681e-05,1.4634e+08,2.0982e+05,0,1.4898e+08,12200,13207,12110,1,12110,1,2.2934e-06,6.6763e-09,0,0.00019067,-4.3139e-07,9.0413e+05,2253.9,0,7.6857e+07,-548.75,12109,11089,1,11089,1,-0.00036628,-5.131e-07,0,1.1299e-05,-6.951e-05,-1.4898e+08,-1.7543e+05,0,4.5958e+06,-16977,11088,11599,1,11599,1,-0.00018834,-1.2351e-07,0,9.5327e-05,-3.6185e-05,-7.6605e+07,-41701,0,3.851e+07,-4898.9,11598,12621,1,12621,1,0.00019297,1.4893e-07,0,0.00028598,3.533e-05,7.6914e+07,50903,0,1.1476e+08,4456.8,12620,591.1,0,591.1,0,0.00021992,2.2887e-07,0,0.00010976,4.1238e-05,8.8289e+07,77821,0,4.3927e+07,5744.1,591.1,1
2044,1.36,12111,1,12111,1,2.3576e-06,-4.3059e-08,0,0.00019183,-4.3217e-07,4662.6,-14624,0,7.7069e+07,96.827,12110,13208,1,13208,1,0.00037351,5.1643e-07,0,0.00037351,6.9139e-05,1.473e+08,1.7558e+05,0,1.4996e+08,13445,13207,12110,1,12110,1,2.3472e-06,-2.7332e-08,0,0.00019201,-4.4082e-07,9.254e+05,-9255.3,0,7.7382e+07,236.92,12109,11089,1,11089,1,-0.0003687,-4.5805e-07,0,1.1335e-05,-7.001e-05,-1.4996e+08,-1.5575e+05,0,4.6105e+06,-14234,11088,11599,1,11599,1,-0.00018964,-1.7851e-07,0,9.6001e-05,-3.6438e-05,-7.7131e+07,-60642,0,3.8777e+07,-4524.9,11598,12621,1,12621,1,0.00019436,6.0178e-08,0,0.000288,3.5581e-05,7.7438e+07,20290,0,1.1554e+08,4517.3,12620,591.1,0,591.1,0,0.00022141,1.9921e-07,0,0.0001105,4.1517e-05,8.8868e+07,67728,0,4.4214e+07,5793.4,591.1,1
2044,1.37,12111,1,12111,1,2.3912e-06,1.4023e-08,0,0.00019313,-4.3941e-07,-1353.6,4762.9,0,7.7579e+07,-384.77,12110,13208,1,13208,1,0.00037608,6.5874e-07,0,0.00037608,6.9638e-05,1.4827e+08,2.2557e+05,0,1.5106e+08,15131,13207,12110,1,12110,1,2.3894e-06,-3.091e-09,0,0.00019324,-4.496e-07,9.4267e+05,-1042.3,0,7.787e+07,-64.902,12109,11089,1,11089,1,-0.00037138,-5.2004e-07,0,1.1383e-05,-7.049e-05,-1.5106e+08,-1.7753e+05,0,4.6298e+06,-19746,11088,11599,1,11599,1,-0.00019086,-1.7227e-07,0,9.665e-05,-3.6685e-05,-7.7629e+07,-58708,0,3.9036e+07,-5171.9,11598,12621,1,12621,1,0.00019563,1.7578e-07,0,0.00028991,3.5801e-05,7.7929e+07,59504,0,1.1628e+08,4414.3,12620,591.1,0,591.1,0,0.00022291,2.6858e-07,0,0.00011125,4.18e-05,8.9454e+07,91304,0,4.4504e+07,7039.5,591.1,1
2044,1.38,12111,1,12111,1,2.4601e-06,2.4645e-09,0,0.00019438,-4.4988e-07,6673.8,832.09,0,7.8067e+07,564.01,12110,13208,1,13208,1,0.00037837,7.2593e-07,0,0.00037837,7.0017e-05,1.4909e+08,2.4819e+05,0,1.5188e+08,21544,13207,12110,1,12110,1,2.455e-06,-5.555e-09,0,0.00019452,-4.4259e-07,9.6845e+05,-1877.9,0,7.8371e+07,-43.624,12109,11089,1,11089,1,-0.00037341,-5.38e-07,0,1.1409e-05,-7.0925e-05,-1.5188e+08,-1.8298e+05,0,4.6393e+06,-13237,11088,11599,1,11599,1,-0.00019204,-1.5687e-07,0,9.7263e-05,-3.6937e-05,-7.8111e+07,-53125,0,3.9279e+07,-5068.9,11598,12621,1,12621,1,0.00019697,1.3318e-07,0,0.00029176,3.6029e-05,7.8433e+07,45276,0,1.17e+08,5481.4,12620,591.1,0,591.1,0,0.00022435,2.4536e-07,0,0.00011197,4.207e-05,9.0015e+07,83402,0,4.4781e+07,6791.7,591.1,1
2044,1.39,12111,1,12111,1,2.4882e-06,-3.0147e-08,0,0.00019605,-4.5883e-07,-3944.4,-10227,0,7.8724e+07,-1083.1,12110,13208,1,13208,1,0.00038196,7.7326e-07,0,0.00038196,7.0679e-05,1.5044e+08,2.6436e+05,0,1.5331e+08,16576,13207,12110,1,12110,1,2.4855e-06,-4.1151e-08,0,0.00019622,-4.706e-07,9.8034e+05,-13966,0,7.9048e+07,-721.28,12109,11089,1,11089,1,-0.00037692,-4.7313e-07,0,1.1491e-05,-7.1596e-05,-1.5331e+08,-1.6175e+05,0,4.6741e+06,-24619,11088,11599,1,11599,1,-0.00019371,-2.3125e-07,0,9.8114e-05,-3.7254e-05,-7.8787e+07,-78584,0,3.962e+07,-5218.9,11598,12621,1,12621,1,0.0001987,1.0148e-07,0,0.00029433,3.6339e-05,7.9102e+07,34367,0,1.1801e+08,3914.8,12620,591.1,0,591.1,0,0.00022628,2.7219e-07,0,0.00011293,4.2429e-05,9.0771e+07,92545,0,4.5155e+07,7627.8,591.1,1
2044,1.4,12111,1,12111,1,2.5531e-06,-8.4271e-09,0,0.00019762,-4.6829e-07,-3084.2,-2846.5,0,7.9339e+07,-59.358,12110,13208,1,13208,1,0.00038482,6.975e-07,0,0.00038482,7.1188e-05,1.5148e+08,2.3703e+05,0,1.5441e+08,12573,13207,12110,1,12110,1,2.5456e-06,-1.8938e-08,0,0.00019777,-4.8024e-07,1.0041e+06,-6320.5,0,7.9659e+07,312.18,12109,11089,1,11089,1,-0.00037963,-4.6346e-07,0,1.1544e-05,-7.2131e-05,-1.5441e+08,-1.5747e+05,0,4.6952e+06,-17628,11088,11599,1,11599,1,-0.0001952,-1.7124e-07,0,9.8887e-05,-3.7556e-05,-7.9393e+07,-58170,0,3.9926e+07,-4378.9,11598,12621,1,12621,1,0.00020032,1.1239e-07,0,0.00029664,3.6619e-05,7.9716e+07,37976,0,1.1891e+08,4466.2,12620,591.1,0,591.1,0,0.0002281,2.3959e-07,0,0.00011384,4.2771e-05,9.148e+07,81443,0,4.5506e+07,6005.7,591.1,1
2044,1.41,12111,1,12111,1,2.631e-06,-1.4887e-08,0,0.00019893,-4.8385e-07,4801.7,-5050.5,0,7.9846e+07,-556.63,12110,13208,1,13208,1,0.0003874,6.2836e-07,0,0.0003874,7.1639e-05,1.5242e+08,2.1452e+05,0,1.5539e+08,17682,13207,12110,1,12110,1,2.6207e-06,-1.5673e-08,0,0.00019907,-4.8387e-07,1.0335e+06,-5326.5,0,8.0171e+07,-168.97,12109,11089,1,11089,1,-0.00038203,-4.7099e-07,0,1.1565e-05,-7.2612e-05,-1.5539e+08,-1.605e+05,0,4.7049e+06,-16169,11088,11599,1,11599,1,-0.00019642,-1.7564e-07,0,9.9545e-05,-3.7815e-05,-7.9891e+07,-59499,0,4.0186e+07,-5060.6,11598,12621,1,12621,1,0.00020169,1.165e-07,0,0.00029859,3.6854e-05,8.0234e+07,39232,0,1.1966e+08,4376.9,12620,591.1,0,591.1,0,0.0002296,2.3373e-07,0,0.0001146,4.3053e-05,9.2063e+07,79417,0,4.5794e+07,6263.9,591.1,1
2044,1.42,12111,1,12111,1,2.6741e-06,-3.3511e-08,0,0.00020067,-4.8704e-07,-1460,-11367,0,8.0531e+07,1387.9,12110,13208,1,13208,1,0.00039079,5.4653e-07,0,0.00039079,7.2259e-05,1.5368e+08,1.8568e+05,0,1.5673e+08,19931,13207,12110,1,12110,1,2.6623e-06,-3.2777e-08,0,0.00020083,-4.8467e-07,1.05e+06,-11054,0,8.0866e+07,886.27,12109,11089,1,11089,1,-0.00038533,-3.9458e-07,0,1.1647e-05,-7.3247e-05,-1.5673e+08,-1.3406e+05,0,4.7376e+06,-13308,11088,11599,1,11599,1,-0.00019814,-1.6263e-07,0,0.00010041,-3.8144e-05,-8.0588e+07,-55265,0,4.0532e+07,-3254.4,11598,12621,1,12621,1,0.00020349,5.6847e-08,0,0.00030122,3.7175e-05,8.0924e+07,19289,0,1.207e+08,4732.4,12620,591.1,0,591.1,0,0.00023162,1.8795e-07,0,0.00011561,4.3429e-05,9.2853e+07,63875,0,4.6186e+07,5693.1,591.1,1
2044,1.43,12111,1,12111,1,2.7487e-06,-1.8111e-09,0,0.00020183,-5.0094e-07,3703.4,-613.31,0,8.0978e+07,1322.2,12110,13208,1,13208,1,0.00039302,6.7148e-07,0,0.00039302,7.2675e-05,1.5449e+08,2.2874e+05,0,1.5765e+08,23551,13207,12110,1,12110,1,2.7324e-06,-9.7766e-09,0,0.00020195,-4.9666e-07,1.0784e+06,-3311.8,0,8.131e+07,971,12109,11089,1,11089,1,-0.00038758,-4.4668e-07,0,1.1648e-05,-7.3673e-05,-1.5765e+08,-1.5211e+05,0,4.7388e+06,-17037,11088,11599,1,11599,1,-0.00019921,-1.6042e-07,0,0.00010099,-3.8377e-05,-8.1024e+07,-54037,0,4.0761e+07,-3387.8,11598,12621,1,12621,1,0.0002047,1.2685e-07,0,0.00030291,3.7379e-05,8.1376e+07,42750,0,1.2134e+08,5332.9,12620,591.1,0,591.1,0,0.00023296,2.325e-07,0,0.00011627,4.3681e-05,9.3366e+07,78977,0,4.6438e+07,7236.8,591.1,1
2044,1.44,12111,1,12111,1,2.8039e-06,-4.0797e-08,0,0.0002036,-5.1447e-07,2167.2,-13835,0,8.1673e+07,-115.95,12110,13208,1,13208,1,0.00039663,4.7729e-07,0,0.00039663,7.3307e-05,1.5582e+08,1.6211e+05,0,1.5901e+08,16261,13207,12110,1,12110,1,2.7934e-06,-3.2095e-08,0,0.00020377,-5.1902e-07,1.1014e+06,-10820,0,8.2026e+07,78.103,12109,11089,1,11089,1,-0.00039094,-3.9247e-07,0,1.1725e-05,-7.4343e-05,-1.5901e+08,-1.3328e+05,0,4.7698e+06,-14568,11088,11599,1,11599,1,-0.00020094,-1.6434e-07,0,0.00010187,-3.872e-05,-8.1731e+07,-55591,0,4.1115e+07,-3936.1,11598,12621,1,12621,1,0.00020656,5.3601e-08,0,0.00030563,3.769e-05,8.2089e+07,18194,0,1.2241e+08,3011.7,12620,591.1,0,591.1,0,0.00023499,1.7797e-07,0,0.00011729,4.4061e-05,9.4166e+07,60470,0,4.6836e+07,4807.7,591.1,1
2044,1.45,12111,1,12111,1,2.8587e-06,2.26e-09,0,0.00020474,-5.2645e-07,-1626.1,764.87,0,8.211e+07,-940.91,12110,13208,1,13208,1,0.0003987,6.8298e-07,0,0.0003987,7.3698e-05,1.5657e+08,2.3274e+05,0,1.5987e+08,16272,13207,12110,1,12110,1,2.8506e-06,-7.9032e-09,0,0.00020485,-5.3741e-07,1.1226e+06,-2664.5,0,8.2453e+07,-459.66,12109,11089,1,11089,1,-0.00039304,-4.5585e-07,0,1.1749e-05,-7.4725e-05,-1.5987e+08,-1.5564e+05,0,4.7799e+06,-23486,11088,11599,1,11599,1,-0.00020199,-1.452e-07,0,0.00010243,-3.8943e-05,-8.2159e+07,-49317,0,4.1331e+07,-4727.1,11598,12621,1,12621,1,0.0002077,1.1306e-07,0,0.00030727,3.7898e-05,8.2516e+07,38323,0,1.2303e+08,4100.8,12620,591.1,0,591.1,0,0.00023631,2.2632e-07,0,0.00011795,4.431e-05,9.4668e+07,76882,0,4.7081e+07,6943.5,591.1,1
2044,1.46,12111,1,12111,1,2.9158e-06,-3.3548e-08,0,0.00020634,-5.3473e-07,-1445.2,-11361,0,8.2738e+07,-28.949,12110,13208,1,13208,1,0.00040195,4.8126e-07,0,0.00040195,7.426e-05,1.5776e+08,1.6297e+05,0,1.6107e+08,18658,13207,12110,1,12110,1,2.9134e-06,-2.4383e-08,0,0.00020649,-5.3853e-07,1.1485e+06,-8170.6,0,8.3097e+07,200.66,12109,11089,1,11089,1,-0.000396,-4.0003e-07,0,1.1796e-05,-7.5337e-05,-1.6107e+08,-1.3587e+05,0,4.7988e+06,-13746,11088,11599,1,11599,1,-0.00020356,-1.6049e-07,0,0.00010324,-3.9254e-05,-8.2793e+07,-54072,0,4.1657e+07,-4235.6,11598,12621,1,12621,1,0.0002094,6.0678e-08,0,0.00030972,3.8188e-05,8.3162e+07,20571,0,1.2399e+08,3577.4,12620,591.1,0,591.1,0,0.00023816,1.8283e-07,0,0.00011887,4.4654e-05,9.5391e+07,62099,0,4.744e+07,5605.1,591.1,1
2044,1.47,12111,1,12111,1,2.985e-06,-1.504e-09,0,0.00020757,-5.4831e-07,1135,-498.68,0,8.3212e+07,-387.79,12110,13208,1,13208,1,0.00040426,5.2916e-07,0,0.00040426,7.4672e-05,1.5857e+08,1.8086e+05,0,1.6198e+08,12453,13207,12110,1,12110,1,2.9747e-06,-2.5687e-09,0,0.00020769,-5.582e-07,1.1728e+06,-854.11,0,8.3566e+07,-553.43,12109,11089,1,11089,1,-0.00039823,-4.6425e-07,0,1.1827e-05,-7.5772e-05,-1.6198e+08,-1.5771e+05,0,4.8106e+06,-11590,11088,11599,1,11599,1,-0.00020467,-1.4068e-07,0,0.00010384,-3.9496e-05,-8.3247e+07,-47263,0,4.1891e+07,-4182,11598,12621,1,12621,1,0.00021068,1.2126e-07,0,0.0003115,3.8398e-05,8.3637e+07,40804,0,1.2467e+08,3532.6,12620,591.1,0,591.1,0,0.00023958,2.0909e-07,0,0.00011958,4.492e-05,9.5937e+07,71026,0,4.7709e+07,5110.1,591.1,1
2044,1.48,12111,1,12111,1,3.0406e-06,-1.607e-08,0,0.00020918,-5.5964e-07,-1241.9,-5436.3,0,8.3842e+07,-872.4,12110,13208,1,13208,1,0.00040759,5.7983e-07,0,0.00040759,7.5266e-05,1.5981e+08,1.9673e+05,0,1.6326e+08,13178,13207,12110,1,12110,1,3.0278e-06,-1.6753e-08,0,0.00020932,-5.6842e-07,1.1933e+06,-5618.9,0,8.421e+07,-42.96,12109,11089,1,11089,1,-0.00040138,-4.2218e-07,0,1.1885e-05,-7.6395e-05,-1.6326e+08,-1.4329e+05,0,4.8348e+06,-22248,11088,11599,1,11599,1,-0.00020624,-1.6771e-07,0,0.00010464,-3.9813e-05,-8.3886e+07,-56183,0,4.2211e+07,-4779,11598,12621,1,12621,1,0.00021236,1.0142e-07,0,0.00031395,3.8688e-05,8.4278e+07,34737,0,1.2563e+08,3170.7,12620,591.1,0,591.1,0,0.00024143,2.173e-07,0,0.00012051,4.5268e-05,9.6661e+07,73776,0,4.8067e+07,6083.4,591.1,1
2044,1.49,12111,1,12111,1,3.1095e-06,-2.7093e-08,0,0.00021062,-5.7124e-07,-812.88,-9176.3,0,8.4403e+07,-444.41,12110,13208,1,13208,1,0.00041047,4.8106e-07,0,0.00041047,7.5784e-05,1.6084e+08,1.6441e+05,0,1.6438e+08,12801,13207,12110,1,12110,1,3.0969e-06,-1.295e-08,0,0.0002108,-5.8005e-07,1.2208e+06,-4435.6,0,8.4789e+07,-869.93,12109,11089,1,11089,1,-0.00040414,-4.3878e-07,0,1.1922e-05,-7.6936e-05,-1.6438e+08,-1.4912e+05,0,4.8495e+06,-11257,11088,11599,1,11599,1,-0.00020765,-1.6385e-07,0,0.00010538,-4.0099e-05,-8.4457e+07,-55902,0,4.2504e+07,-3829.6,11598,12621,1,12621,1,0.0002139,8.2508e-08,0,0.00031615,3.8951e-05,8.4857e+07,27836,0,1.2648e+08,3265.6,12620,591.1,0,591.1,0,0.0002431,1.9831e-07,0,0.00012135,4.5581e-05,9.7306e+07,67352,0,4.8386e+07,4950.1,591.1,1
2044,1.5,12111,1,12111,1,3.1783e-06,-8.8717e-10,0,0.00021223,-5.8347e-07,-706.51,-282.83,0,8.503e+07,-280.01,12110,13208,1,13208,1,0.00041349,5.3974e-07,0,0.00041349,7.6335e-05,1.6194e+08,1.8265e+05,0,1.6556e+08,18324,13207,12110,1,12110,1,3.1724e-06,-4.5581e-09,0,0.00021236,-5.8433e-07,1.2501e+06,-1513.7,0,8.5402e+07,148.7,12109,11089,1,11089,1,-0.00040704,-3.8858e-07,0,1.1954e-05,-7.7501e-05,-1.6556e+08,-1.3184e+05,0,4.8632e+06,-14947,11088,11599,1,11599,1,-0.00020914,-1.3665e-07,0,0.00010619,-4.0409e-05,-8.5066e+07,-46049,0,4.2823e+07,-4182.6,11598,12621,1,12621,1,0.00021554,1.1064e-07,0,0.00031849,3.9233e-05,8.5478e+07,37589,0,1.2739e+08,3708.7,12620,591.1,0,591.1,0,0.00024496,1.971e-07,0,0.00012227,4.5929e-05,9.8028e+07,66908,0,4.8743e+07,5762.4,591.1,1
2044,1.51,12111,1,12111,1,3.2505e-06,-6.5928e-10,0,0.00021296,-5.9815e-07,4312.1,-214.41,0,8.5302e+07,-856.89,12110,13208,1,13208,1,0.00041501,6.3108e-07,0,0.00041501,7.6608e-05,1.6246e+08,2.1567e+05,0,1.6618e+08,15264,13207,12110,1,12110,1,3.25e-06,-7.5173e-09,0,0.00021307,-6.1256e-07,1.28e+06,-2521.1,0,8.5675e+07,-752.72,12109,11089,1,11089,1,-0.00040856,-4.9428e-07,0,1.194e-05,-7.7782e-05,-1.6618e+08,-1.6828e+05,0,4.8566e+06,-15236,11088,11599,1,11599,1,-0.00020982,-1.5571e-07,0,0.00010656,-4.0554e-05,-8.5339e+07,-52776,0,4.2966e+07,-5542.8,11598,12621,1,12621,1,0.00021633,1.2635e-07,0,0.00031962,3.9365e-05,8.5758e+07,42639,0,1.2779e+08,4221.7,12620,591.1,0,591.1,0,0.0002458,2.3715e-07,0,0.00012269,4.6088e-05,9.834e+07,80516,0,4.8894e+07,6354,591.1,1
2044,1.52,12111,1,12111,1,3.2818e-06,-2.0619e-08,0,0.00021413,-6.0384e-07,-990.75,-6966.9,0,8.5757e+07,-859.87,12110,13208,1,13208,1,0.00041745,7.3654e-07,0,0.00041745,7.7023e-05,1.6335e+08,2.5096e+05,0,1.6707e+08,17741,13207,12110,1,12110,1,3.2662e-06,-2.5815e-08,0,0.00021429,-6.1742e-07,1.2875e+06,-8813.2,0,8.6156e+07,-569.11,12109,11089,1,11089,1,-0.00041075,-5.5781e-07,0,1.1998e-05,-7.824e-05,-1.6707e+08,-1.8937e+05,0,4.8805e+06,-30170,11088,11599,1,11599,1,-0.00021097,-1.9531e-07,0,0.00010713,-4.0802e-05,-8.581e+07,-66136,0,4.3195e+07,-5909,11598,12621,1,12621,1,0.00021756,1.1093e-07,0,0.00032139,3.958e-05,8.6228e+07,37492,0,1.285e+08,4754.2,12620,591.1,0,591.1,0,0.00024714,2.6499e-07,0,0.00012336,4.6342e-05,9.8862e+07,89940,0,4.9153e+07,7860,591.1,1
2044,1.53,12111,1,12111,1,3.3625e-06,-2.4909e-08,0,0.00021586,-6.1536e-07,6279.3,-8451.1,0,8.6435e+07,527.7,12110,13208,1,13208,1,0.00042095,6.4885e-07,0,0.00042095,7.7657e-05,1.6464e+08,2.1953e+05,0,1.6844e+08,18683,13207,12110,1,12110,1,3.3556e-06,-2.5402e-08,0,0.00021603,-6.1686e-07,1.3221e+06,-8555,0,8.6843e+07,614.16,12109,11089,1,11089,1,-0.00041413,-4.6404e-07,0,1.2037e-05,-7.8898e-05,-1.6844e+08,-1.5785e+05,0,4.8958e+06,-12455,11088,11599,1,11599,1,-0.00021264,-1.9511e-07,0,0.00010801,-4.1125e-05,-8.6488e+07,-66657,0,4.3545e+07,-3576.9,11598,12621,1,12621,1,0.00021938,9.4752e-08,0,0.00032402,3.9891e-05,8.6924e+07,32341,0,1.2952e+08,4747.7,12620,591.1,0,591.1,0,0.00024914,2.4301e-07,0,0.00012436,4.6714e-05,9.9644e+07,82458,0,4.9541e+07,5940.1,591.1,1
2044,1.54,12111,1,12111,1,3.4669e-06,-7.74e-08,0,0.00021716,-6.3468e-07,2822.9,-26234,0,8.6919e+07,347.05,12110,13208,1,13208,1,0.00042397,4.7643e-07,0,0.00042397,7.8176e-05,1.6565e+08,1.6149e+05,0,1.6956e+08,18009,13207,12110,1,12110,1,3.4511e-06,-4.9395e-08,0,0.00021743,-6.3599e-07,1.3575e+06,-16654,0,8.7364e+07,288.28,12109,11089,1,11089,1,-0.00041688,-4.9398e-07,0,1.2036e-05,-7.9463e-05,-1.6956e+08,-1.6856e+05,0,4.8962e+06,-14166,11088,11599,1,11599,1,-0.00021391,-2.3396e-07,0,0.00010868,-4.1403e-05,-8.7004e+07,-79177,0,4.3799e+07,-4335.9,11598,12621,1,12621,1,0.00022088,4.7633e-08,0,0.00032609,4.0132e-05,8.744e+07,16012,0,1.3029e+08,4363,12620,591.1,0,591.1,0,0.00025064,2.0974e-07,0,0.00012512,4.6995e-05,1.002e+08,71131,0,4.9818e+07,5873.5,591.1,1
2044,1.55,12111,1,12111,1,3.5252e-06,-2.2254e-08,0,0.0002188,-6.4844e-07,-293.25,-7538.3,0,8.7562e+07,-946.41,12110,13208,1,13208,1,0.0004268,7.2656e-07,0,0.0004268,7.8679e-05,1.6666e+08,2.4821e+05,0,1.7066e+08,21616,13207,12110,1,12110,1,3.5102e-06,-2.8411e-08,0,0.000219,-6.476e-07,1.3804e+06,-9408.6,0,8.798e+07,-890.45,12109,11089,1,11089,1,-0.00041957,-4.7315e-07,0,1.2096e-05,-7.9992e-05,-1.7066e+08,-1.616e+05,0,4.9212e+06,-16215,11088,11599,1,11599,1,-0.00021541,-1.9863e-07,0,0.00010947,-4.1713e-05,-8.7614e+07,-67573,0,4.4108e+07,-5390.4,11598,12621,1,12621,1,0.00022251,9.9826e-08,0,0.00032842,4.0408e-05,8.8053e+07,33656,0,1.3119e+08,3375.6,12620,591.1,0,591.1,0,0.00025254,2.4845e-07,0,0.00012606,4.7353e-05,1.0094e+08,84268,0,5.0183e+07,6860.4,591.1,1
2044,1.56,12111,1,12111,1,3.5937e-06,2.723e-08,0,0.00022002,-6.5777e-07,-2492.7,9218.4,0,8.8028e+07,380.04,12110,13208,1,13208,1,0.00042909,7.0556e-07,0,0.00042909,7.9106e-05,1.6751e+08,2.4102e+05,0,1.716e+08,20684,13207,12110,1,12110,1,3.5906e-06,1.1251e-08,0,0.00022017,-6.5981e-07,1.4118e+06,3759.1,0,8.8451e+07,-184.51,12109,11089,1,11089,1,-0.00042188,-5.4385e-07,0,1.21e-05,-8.0419e-05,-1.716e+08,-1.8431e+05,0,4.9209e+06,-13539,11088,11599,1,11599,1,-0.00021656,-1.1085e-07,0,0.00011009,-4.1945e-05,-8.8084e+07,-37506,0,4.4354e+07,-5181.5,11598,12621,1,12621,1,0.00022376,1.5969e-07,0,0.00033023,4.0628e-05,8.8529e+07,53609,0,1.3188e+08,5256.8,12620,591.1,0,591.1,0,0.00025395,2.373e-07,0,0.00012677,4.7617e-05,1.0148e+08,80478,0,5.0446e+07,6666.7,591.1,1
2044,1.57,12111,1,12111,1,3.6592e-06,-5.0285e-08,0,0.00022142,-6.7085e-07,-1133.5,-17020,0,8.8568e+07,-60.659,12110,13208,1,13208,1,0.00043228,7.5046e-07,0,0.00043228,7.9657e-05,1.6864e+08,2.5635e+05,0,1.7277e+08,18494,13207,12110,1,12110,1,3.646e-06,-3.9077e-08,0,0.00022165,-6.723e-07,1.434e+06,-13037,0,8.9023e+07,-270.64,12109,11089,1,11089,1,-0.00042477,-5.5526e-07,0,1.2135e-05,-8.1018e-05,-1.7277e+08,-1.8964e+05,0,4.9367e+06,-17564,11088,11599,1,11599,1,-0.00021794,-2.4589e-07,0,0.00011081,-4.223e-05,-8.8643e+07,-83321,0,4.464e+07,-5417.5,11598,12621,1,12621,1,0.0002253,7.4944e-08,0,0.00033243,4.0896e-05,8.91e+07,25418,0,1.3273e+08,4349.2,12620,591.1,0,591.1,0,0.00025556,2.7039e-07,0,0.00012757,4.7918e-05,1.021e+08,91728,0,5.0753e+07,7020.6,591.1,1
2044,1.58,12111,1,12111,1,3.7316e-06,-3.4545e-08,0,0.00022294,-6.8737e-07,-1762,-11693,0,8.9157e+07,-1436.3,12110,13208,1,13208,1,0.00043516,6.5125e-07,0,0.00043516,8.0172e-05,1.6966e+08,2.2298e+05,0,1.739e+08,19134,13207,12110,1,12110,1,3.7224e-06,-2.5334e-08,0,0.00022316,-6.9038e-07,1.4627e+06,-8639.8,0,8.9612e+07,-1048.9,12109,11089,1,11089,1,-0.00042754,-5.1938e-07,0,1.2177e-05,-8.1559e-05,-1.739e+08,-1.7672e+05,0,4.9541e+06,-16854,11088,11599,1,11599,1,-0.00021938,-1.9406e-07,0,0.00011156,-4.2529e-05,-8.9228e+07,-65505,0,4.4934e+07,-6233.5,11598,12621,1,12621,1,0.00022688,8.2891e-08,0,0.00033468,4.1154e-05,8.9691e+07,28058,0,1.336e+08,3152.7,12620,591.1,0,591.1,0,0.00025731,2.4136e-07,0,0.00012845,4.8246e-05,1.0278e+08,81869,0,5.1088e+07,6272.4,591.1,1
2044,1.59,12111,1,12111,1,3.7922e-06,-3.2907e-08,0,0.00022463,-6.9533e-07,-8498.2,-11145,0,8.9813e+07,-143.21,12110,13208,1,13208,1,0.00043825,4.8969e-07,0,0.00043825,8.0722e-05,1.7077e+08,1.6589e+05,0,1.7509e+08,13301,13207,12110,1,12110,1,3.7829e-06,-1.5688e-08,0,0.00022483,-6.9485e-07,1.4874e+06,-5320.6,0,9.0268e+07,-383.84,12109,11089,1,11089,1,-0.00043047,-4.3959e-07,0,1.2234e-05,-8.2135e-05,-1.7509e+08,-1.5012e+05,0,4.9767e+06,-14011,11088,11599,1,11599,1,-0.00022098,-1.563e-07,0,0.00011238,-4.2851e-05,-8.9878e+07,-53173,0,4.526e+07,-3738.6,11598,12621,1,12621,1,0.00022861,7.0582e-08,0,0.00033717,4.1455e-05,9.0341e+07,23694,0,1.3456e+08,3433.1,12620,591.1,0,591.1,0,0.00025927,1.8541e-07,0,0.00012943,4.861e-05,1.0353e+08,62885,0,5.1462e+07,4808.7,591.1,1
2044,1.6,12111,1,12111,1,3.8729e-06,-4.1479e-08,0,0.00022565,-7.1104e-07,-5833.9,-14005,0,9.0199e+07,-502.07,12110,13208,1,13208,1,0.00044078,7.572e-07,0,0.00044078,8.1173e-05,1.7166e+08,2.5925e+05,0,1.7606e+08,16692,13207,12110,1,12110,1,3.866e-06,-3.4373e-08,0,0.0002259,-7.1586e-07,1.5192e+06,-11579,0,9.068e+07,566.77,12109,11089,1,11089,1,-0.00043286,-6.064e-07,0,1.2226e-05,-8.261e-05,-1.7606e+08,-2.0653e+05,0,4.9742e+06,-18325,11088,11599,1,11599,1,-0.00022198,-2.5838e-07,0,0.00011295,-4.3071e-05,-9.0286e+07,-86832,0,4.5483e+07,-5962.2,11598,12621,1,12621,1,0.00022976,1.1451e-07,0,0.00033879,4.1653e-05,9.076e+07,39163,0,1.3517e+08,5237,12620,591.1,0,591.1,0,0.00026044,2.9616e-07,0,0.00013001,4.8834e-05,1.0397e+08,1.0038e+05,0,5.1676e+07,7742.8,591.1,1
2044,1.61,12111,1,12111,1,3.9561e-06,-2.6473e-08,0,0.00022736,-7.2747e-07,683.2,-8964.5,0,9.0869e+07,-976.55,12110,13208,1,13208,1,0.00044377,5.8653e-07,0,0.00044377,8.1699e-05,1.7274e+08,1.9863e+05,0,1.772e+08,15467,13207,12110,1,12110,1,3.9418e-06,-2.0391e-08,0,0.00022757,-7.3124e-07,1.5485e+06,-6927.4,0,9.134e+07,-759.16,12109,11089,1,11089,1,-0.00043566,-4.998e-07,0,1.2277e-05,-8.3169e-05,-1.772e+08,-1.7054e+05,0,4.9949e+06,-16821,11088,11599,1,11599,1,-0.00022356,-1.7755e-07,0,0.00011376,-4.3396e-05,-9.0929e+07,-60294,0,4.5805e+07,-5564.7,11598,12621,1,12621,1,0.00023151,8.8787e-08,0,0.00034129,4.1949e-05,9.1426e+07,29960,0,1.3613e+08,3755.1,12620,591.1,0,591.1,0,0.00026243,2.2482e-07,0,0.00013101,4.9203e-05,1.0474e+08,76200,0,5.206e+07,6204.9,591.1,1
2044,1.62,12111,1,12111,1,4.0101e-06,-1.1241e-07,0,0.00022847,-7.3373e-07,-8857.2,-38038,0,9.1288e+07,515.38,12110,13208,1,13208,1,0.00044663,6.5517e-07,0,0.00044663,8.2219e-05,1.7375e+08,2.2432e+05,0,1.7833e+08,29025,13207,12110,1,12110,1,3.9879e-06,-9.9441e-08,0,0.00022878,-7.3186e-07,1.5673e+06,-33770,0,9.1805e+07,-18.212,12109,11089,1,11089,1,-0.00043843,-6.141e-07,0,1.2303e-05,-8.3707e-05,-1.7833e+08,-2.0871e+05,0,5.0047e+06,-15568,11088,11599,1,11599,1,-0.00022471,-3.1605e-07,0,0.00011436,-4.3632e-05,-9.1395e+07,-1.0747e+05,0,4.6043e+07,-4772.6,11598,12621,1,12621,1,0.00023275,2.9421e-08,0,0.00034309,4.2164e-05,9.1876e+07,9847.9,0,1.3682e+08,4751.6,12620,591.1,0,591.1,0,0.0002637,2.6353e-07,0,0.00013164,4.9445e-05,1.0522e+08,89297,0,5.2295e+07,7745.9,591.1,1
2044,1.63,12111,1,12111,1,4.1155e-06,-4.8076e-08,0,0.0002303,-7.558e-07,4165.9,-16283,0,9.2001e+07,-582.44,12110,13208,1,13208,1,0.00044975,5.1442e-07,0,0.00044975,8.2759e-05,1.7486e+08,1.7568e+05,0,1.7951e+08,14140,13207,12110,1,12110,1,4.1018e-06,-2.5169e-08,0,0.00023054,-7.6353e-07,1.6115e+06,-8457.4,0,9.2499e+07,-538.47,12109,11089,1,11089,1,-0.00044133,-5.3473e-07,0,1.2327e-05,-8.4289e-05,-1.7951e+08,-1.8231e+05,0,5.014e+06,-13748,11088,11599,1,11599,1,-0.00022637,-2.0237e-07,0,0.00011523,-4.3978e-05,-9.2071e+07,-68679,0,4.6386e+07,-5233.6,11598,12621,1,12621,1,0.00023463,8.596e-08,0,0.00034573,4.2464e-05,9.2587e+07,29228,0,1.3784e+08,3839.6,12620,591.1,0,591.1,0,0.00026581,2.2637e-07,0,0.0001327,4.9838e-05,1.0605e+08,76712,0,5.2702e+07,5787.6,591.1,1
2044,1.64,12111,1,12111,1,4.1955e-06,2.8992e-08,0,0.00023149,-7.6941e-07,1723,9800.2,0,9.245e+07,-148.75,12110,13208,1,13208,1,0.00045191,7.8992e-07,0,0.00045191,8.3162e-05,1.7565e+08,2.6916e+05,0,1.8037e+08,16488,13207,12110,1,12110,1,4.1876e-06,5.2592e-09,0,0.00023167,-7.8041e-07,1.6448e+06,1762.2,0,9.2945e+07,-421.05,12109,11089,1,11089,1,-0.00044345,-4.9522e-07,0,1.2333e-05,-8.4692e-05,-1.8037e+08,-1.6822e+05,0,5.0163e+06,-15859,11088,11599,1,11599,1,-0.00022742,-1.368e-07,0,0.0001158,-4.4205e-05,-9.2502e+07,-45682,0,4.6611e+07,-4970.6,11598,12621,1,12621,1,0.00023585,1.6248e-07,0,0.00034744,4.2665e-05,9.304e+07,55295,0,1.3849e+08,4970.8,12620,591.1,0,591.1,0,0.00026718,2.558e-07,0,0.00013339,5.0096e-05,1.0656e+08,86672,0,5.2953e+07,6686.9,591.1,1
2044,1.65,12111,1,12111,1,4.2756e-06,1.0025e-08,0,0.00023278,-7.8581e-07,6473.2,3388.8,0,9.2947e+07,-844.74,12110,13208,1,13208,1,0.00045443,7.3745e-07,0,0.00045443,8.3621e-05,1.7652e+08,2.5023e+05,0,1.8138e+08,17189,13207,12110,1,12110,1,4.262e-06,-4.2723e-09,0,0.00023294,-7.8274e-07,1.6742e+06,-1431.2,0,9.3442e+07,-973.47,12109,11089,1,11089,1,-0.00044594,-5.4662e-07,0,1.2344e-05,-8.5174e-05,-1.8138e+08,-1.8576e+05,0,5.0212e+06,-15939,11088,11599,1,11599,1,-0.00022862,-1.5897e-07,0,0.00011645,-4.4462e-05,-9.299e+07,-53901,0,4.6863e+07,-5842.6,11598,12621,1,12621,1,0.0002372,1.5868e-07,0,0.00034938,4.2885e-05,9.354e+07,53568,0,1.3921e+08,4191,12620,591.1,0,591.1,0,0.00026867,2.6044e-07,0,0.00013413,5.0376e-05,1.0713e+08,88210,0,5.3235e+07,6875,591.1,1
2044,1.66,12111,1,12111,1,4.3328e-06,5.0237e-08,0,0.00023433,-7.9747e-07,-1757.6,16987,0,9.3545e+07,-1370.2,12110,13208,1,13208,1,0.00045779,7.9497e-07,0,0.00045779,8.4206e-05,1.7773e+08,2.6805e+05,0,1.8265e+08,14801,13207,12110,1,12110,1,4.3131e-06,1.1398e-08,0,0.00023454,-8.172e-07,1.6924e+06,3903.9,0,9.4066e+07,-1072.8,12109,11089,1,11089,1,-0.00044906,-5.3682e-07,0,1.2407e-05,-8.5795e-05,-1.8265e+08,-1.8201e+05,0,5.0478e+06,-21652,11088,11599,1,11599,1,-0.00023016,-1.1288e-07,0,0.00011724,-4.4778e-05,-9.3617e+07,-38175,0,4.7177e+07,-6657.3,11598,12621,1,12621,1,0.00023885,1.9377e-07,0,0.00035175,4.317e-05,9.4157e+07,65762,0,1.4014e+08,5089.9,12620,591.1,0,591.1,0,0.00027046,2.6505e-07,0,0.00013502,5.0711e-05,1.0782e+08,89726,0,5.3574e+07,7810.6,591.1,1
2044,1.67,12111,1,12111,1,4.4356e-06,1.0703e-08,0,0.00023594,-8.1449e-07,4999.9,3600.1,0,9.4165e+07,-572.96,12110,13208,1,13208,1,0.00046067,6.6084e-07,0,0.00046067,8.4708e-05,1.7873e+08,2.2436e+05,0,1.8372e+08,14534,13207,12110,1,12110,1,4.4297e-06,1.3139e-09,0,0.00023612,-8.2474e-07,1.7401e+06,441.64,0,9.4681e+07,-625.29,12109,11089,1,11089,1,-0.0004517,-4.9362e-07,0,1.2393e-05,-8.6331e-05,-1.8372e+08,-1.6789e+05,0,5.0417e+06,-16491,11088,11599,1,11599,1,-0.00023163,-1.213e-07,0,0.00011802,-4.508e-05,-9.4212e+07,-41049,0,4.7485e+07,-5187.8,11598,12621,1,12621,1,0.00024053,1.2931e-07,0,0.00035411,4.3457e-05,9.4779e+07,43766,0,1.4104e+08,4532.1,12620,591.1,0,591.1,0,0.00027232,2.2309e-07,0,0.00013596,5.1057e-05,1.0853e+08,75540,0,5.3926e+07,5836.5,591.1,1
2044,1.68,12111,1,12111,1,4.5148e-06,-2.8392e-08,0,0.00023722,-8.3346e-07,2178.7,-9595,0,9.4651e+07,-2448.4,12110,13208,1,13208,1,0.00046344,6.9319e-07,0,0.00046344,8.5186e-05,1.7969e+08,2.3733e+05,0,1.8477e+08,13921,13207,12110,1,12110,1,4.5021e-06,-2.3409e-08,0,0.00023742,-8.4296e-07,1.7676e+06,-7766,0,9.5179e+07,-1173.5,12109,11089,1,11089,1,-0.00045426,-5.143e-07,0,1.2411e-05,-8.6853e-05,-1.8477e+08,-1.7411e+05,0,5.0501e+06,-28739,11088,11599,1,11599,1,-0.00023286,-2.151e-07,0,0.0001187,-4.5343e-05,-9.4712e+07,-73302,0,4.7749e+07,-6775.4,11598,12621,1,12621,1,0.00024191,1.0524e-07,0,0.00035607,4.369e-05,9.5278e+07,35609,0,1.4177e+08,3176.9,12620,591.1,0,591.1,0,0.0002738,2.5797e-07,0,0.0001367,5.1334e-05,1.0909e+08,87352,0,5.4201e+07,7786.7,591.1,1
2044,1.69,12111,1,12111,1,4.5814e-06,3.2516e-08,0,0.0002387,-8.3979e-07,-1857.5,10993,0,9.5221e+07,-5.0625,12110,13208,1,13208,1,0.0004663,7.6001e-07,0,0.0004663,8.572e-05,1.8072e+08,2.5546e+05,0,1.8592e+08,16220,13207,12110,1,12110,1,4.567e-06,9.0131e-09,0,0.00023888,-8.4662e-07,1.794e+06,3022.1,0,9.5758e+07,141.44,12109,11089,1,11089,1,-0.00045709,-5.216e-07,0,1.2466e-05,-8.739e-05,-1.8592e+08,-1.7807e+05,0,5.071e+06,-16168,11088,11599,1,11599,1,-0.00023428,-1.2516e-07,0,0.00011944,-4.5626e-05,-9.5288e+07,-42366,0,4.8042e+07,-5519.7,11598,12621,1,12621,1,0.00024345,1.8175e-07,0,0.00035829,4.3956e-05,9.5855e+07,60793,0,1.4262e+08,5791.7,12620,591.1,0,591.1,0,0.0002755,2.5585e-07,0,0.00013755,5.1656e-05,1.0975e+08,86594,0,5.4523e+07,6994.7,591.1,1
2044,1.7,12111,1,12111,1,4.6563e-06,-4.58e-08,0,0.0002397,-8.5576e-07,-2848,-15454,0,9.5598e+07,-939.04,12110,13208,1,13208,1,0.00046852,8.2755e-07,0,0.00046852,8.6075e-05,1.8145e+08,2.8253e+05,0,1.867e+08,18527,13207,12110,1,12110,1,4.6386e-06,-4.4985e-08,0,0.00023995,-8.6936e-07,1.8209e+06,-15135,0,9.616e+07,241.44,12109,11089,1,11089,1,-0.00045901,-5.8897e-07,0,1.2458e-05,-8.7806e-05,-1.867e+08,-2.0104e+05,0,5.0692e+06,-29656,11088,11599,1,11599,1,-0.00023524,-2.4435e-07,0,0.00011996,-4.5843e-05,-9.5679e+07,-82485,0,4.8242e+07,-5401.2,11598,12621,1,12621,1,0.00024458,7.334e-08,0,0.00035983,4.4134e-05,9.6255e+07,24544,0,1.4321e+08,5108.5,12620,591.1,0,591.1,0,0.00027666,2.8199e-07,0,0.00013813,5.1873e-05,1.1018e+08,95468,0,5.4735e+07,8529.8,591.1,1
2044,1.71,12111,1,12111,1,4.7377e-06,-2.406e-08,0,0.00024154,-8.7379e-07,-1437.2,-8121.8,0,9.6316e+07,-2251.7,12110,13208,1,13208,1,0.00047193,6.4112e-07,0,0.00047193,8.6682e-05,1.8268e+08,2.1956e+05,0,1.8802e+08,15574,13207,12110,1,12110,1,4.7278e-06,-1.9352e-08,0,0.00024174,-8.9065e-07,1.8563e+06,-6509.6,0,9.6866e+07,-1345,12109,11089,1,11089,1,-0.00046225,-5.2295e-07,0,1.2497e-05,-8.8443e-05,-1.8802e+08,-1.7732e+05,0,5.0835e+06,-18405,11088,11599,1,11599,1,-0.00023694,-1.745e-07,0,0.00012083,-4.6193e-05,-9.6373e+07,-58713,0,4.8589e+07,-7180.8,11598,12621,1,12621,1,0.00024646,9.1246e-08,0,0.00036253,4.4448e-05,9.6965e+07,30160,0,1.4425e+08,3222,12620,591.1,0,591.1,0,0.00027879,2.3593e-07,0,0.00013919,5.2269e-05,1.1101e+08,79901,0,5.5145e+07,6465.2,591.1,1
2044,1.72,12111,1,12111,1,4.8417e-06,-3.9429e-08,0,0.00024311,-8.9025e-07,-614.37,-13300,0,9.6911e+07,-1149.5,12110,13208,1,13208,1,0.00047515,6.9921e-07,0,0.00047515,8.7254e-05,1.8379e+08,2.387e+05,0,1.8926e+08,14281,13207,12110,1,12110,1,4.8308e-06,-2.9911e-08,0,0.00024332,-9.0527e-07,1.8954e+06,-9918.3,0,9.7475e+07,264.72,12109,11089,1,11089,1,-0.0004653,-5.3624e-07,0,1.2512e-05,-8.9046e-05,-1.8926e+08,-1.8267e+05,0,5.0909e+06,-29175,11088,11599,1,11599,1,-0.00023844,-2.0528e-07,0,0.00012165,-4.6505e-05,-9.698e+07,-69591,0,4.891e+07,-5582.5,11598,12621,1,12621,1,0.00024814,7.5978e-08,0,0.00036491,4.473e-05,9.7579e+07,25579,0,1.4515e+08,4781.2,12620,591.1,0,591.1,0,0.00028059,2.4647e-07,0,0.0001401,5.2608e-05,1.1169e+08,83414,0,5.548e+07,7804,591.1,1
2044,1.73,12111,1,12111,1,4.94e-06,-2.5168e-08,0,0.00024476,-9.091e-07,374.78,-8517.8,0,9.7543e+07,-1485.9,12110,13208,1,13208,1,0.00047831,6.3897e-07,0,0.00047831,8.7808e-05,1.8489e+08,2.1598e+05,0,1.9046e+08,19969,13207,12110,1,12110,1,4.9267e-06,-2.0965e-08,0,0.00024496,-9.1338e-07,1.9346e+06,-6950.8,0,9.8116e+07,-703.51,12109,11089,1,11089,1,-0.00046825,-4.8941e-07,0,1.2531e-05,-8.9638e-05,-1.9046e+08,-1.6591e+05,0,5.0982e+06,-24418,11088,11599,1,11599,1,-0.00023997,-1.7725e-07,0,0.00012245,-4.6835e-05,-9.7605e+07,-59868,0,4.9226e+07,-5280.3,11598,12621,1,12621,1,0.00024989,8.285e-08,0,0.00036737,4.5017e-05,9.8223e+07,27508,0,1.4608e+08,3342.8,12620,591.1,0,591.1,0,0.0002825,2.2624e-07,0,0.00014105,5.2965e-05,1.1242e+08,76553,0,5.5839e+07,6780.6,591.1,1
2044,1.74,12111,1,12111,1,5.023e-06,-8.6349e-09,0,0.00024595,-9.2532e-07,-3155.5,-2898.1,0,9.7989e+07,-1907.9,12110,13208,1,13208,1,0.00048059,7.4576e-07,0,0.00048059,8.8199e-05,1.8564e+08,2.5457e+05,0,1.9131e+08,11984,13207,12110,1,12110,1,5.0027e-06,-1.3193e-08,0,0.00024612,-9.4459e-07,1.9647e+06,-4345.2,0,9.856e+07,-812.09,12109,11089,1,11089,1,-0.00047035,-5.5668e-07,0,1.2537e-05,-9.0063e-05,-1.9131e+08,-1.8965e+05,0,5.101e+06,-28674,11088,11599,1,11599,1,-0.00024105,-1.7719e-07,0,0.00012304,-4.7068e-05,-9.8043e+07,-59724,0,4.9455e+07,-6351.6,11598,12621,1,12621,1,0.00025113,1.2225e-07,0,0.0003691,4.5222e-05,9.8665e+07,41551,0,1.4673e+08,4475.1,12620,591.1,0,591.1,0,0.00028387,2.5771e-07,0,0.00014174,5.3223e-05,1.1293e+08,87183,0,5.6089e+07,8081.9,591.1,1
2044,1.75,12111,1,12111,1,5.1108e-06,-4.209e-08,0,0.00024755,-9.3914e-07,-1244.4,-14198,0,9.8609e+07,-966.75,12110,13208,1,13208,1,0.00048385,5.9593e-07,0,0.00048385,8.8783e-05,1.8681e+08,2.0402e+05,0,1.9257e+08,21455,13207,12110,1,12110,1,5.1027e-06,-3.8814e-08,0,0.00024775,-9.4703e-07,2.0028e+06,-12828,0,9.9197e+07,-550.76,12109,11089,1,11089,1,-0.00047345,-4.1073e-07,0,1.2561e-05,-9.0673e-05,-1.9257e+08,-1.3943e+05,0,5.1107e+06,-20005,11088,11599,1,11599,1,-0.00024259,-1.8706e-07,0,0.00012385,-4.7386e-05,-9.8669e+07,-63093,0,4.9772e+07,-5310.5,11598,12621,1,12621,1,0.00025284,5.6617e-08,0,0.00037156,4.5508e-05,9.9304e+07,18943,0,1.4767e+08,2874.1,12620,591.1,0,591.1,0,0.00028573,2.0431e-07,0,0.00014267,5.3568e-05,1.1364e+08,69181,0,5.6443e+07,6369.5,591.1,1
2044,1.76,12111,1,12111,1,5.2154e-06,-5.2052e-08,0,0.0002488,-9.5677e-07,3526.8,-17581,0,9.908e+07,-294.72,12110,13208,1,13208,1,0.00048641,5.7108e-07,0,0.00048641,8.9229e-05,1.8767e+08,1.9557e+05,0,1.9354e+08,19414,13207,12110,1,12110,1,5.2021e-06,-4.3162e-08,0,0.00024902,-9.5649e-07,2.0423e+06,-14508,0,9.9683e+07,-341.18,12109,11089,1,11089,1,-0.00047583,-4.9831e-07,0,1.2549e-05,-9.1154e-05,-1.9354e+08,-1.6968e+05,0,5.105e+06,-18945,11088,11599,1,11599,1,-0.00024375,-1.9702e-07,0,0.00012448,-4.764e-05,-9.9144e+07,-66422,0,5.0018e+07,-4487.5,11598,12621,1,12621,1,0.0002542,5.6643e-08,0,0.00037347,4.5722e-05,9.9793e+07,18786,0,1.4838e+08,3199.8,12620,591.1,0,591.1,0,0.00028717,2.1495e-07,0,0.00014339,5.3839e-05,1.1418e+08,72686,0,5.6708e+07,5857.1,591.1,1
2044,1.77,12111,1,12111,1,5.2872e-06,1.2166e-08,0,0.00025025,-9.7129e-07,-1795.9,4120.8,0,9.9636e+07,-887.9,12110,13208,1,13208,1,0.00048914,6.7019e-07,0,0.00048914,8.9746e-05,1.8867e+08,2.2951e+05,0,1.9467e+08,17999,13207,12110,1,12110,1,5.2844e-06,-3.7482e-09,0,0.00025039,-9.7697e-07,2.0735e+06,-1263.5,0,1.0022e+08,-630.03,12109,11089,1,11089,1,-0.00047861,-4.5755e-07,0,1.2561e-05,-9.1663e-05,-1.9467e+08,-1.5501e+05,0,5.1107e+06,-15211,11088,11599,1,11599,1,-0.00024509,-1.4892e-07,0,0.00012522,-4.7918e-05,-9.9687e+07,-50098,0,5.0308e+07,-5648.2,11598,12621,1,12621,1,0.00025567,1.5122e-07,0,0.00037559,4.5977e-05,1.0034e+08,50567,0,1.4917e+08,4026.7,12620,591.1,0,591.1,0,0.00028885,2.3675e-07,0,0.00014423,5.4153e-05,1.1482e+08,80109,0,5.7023e+07,6508.1,591.1,1
2044,1.78,12111,1,12111,1,5.3859e-06,-8.3622e-09,0,0.00025166,-9.9068e-07,543.26,-2796.7,0,1.0017e+08,-1412.1,12110,13208,1,13208,1,0.00049182,7.1267e-07,0,0.00049182,9.0206e-05,1.8954e+08,2.4399e+05,0,1.9565e+08,16223,13207,12110,1,12110,1,5.3772e-06,-1.9035e-08,0,0.00025181,-1.0076e-06,2.1089e+06,-6246.2,0,1.0077e+08,-767.09,12109,11089,1,11089,1,-0.00048103,-4.999e-07,0,1.2582e-05,-9.2165e-05,-1.9565e+08,-1.7061e+05,0,5.121e+06,-31420,11088,11599,1,11599,1,-0.00024638,-1.7025e-07,0,0.00012588,-4.8226e-05,-1.0021e+08,-57557,0,5.0567e+07,-6580.8,11598,12621,1,12621,1,0.00025717,1.1582e-07,0,0.00037765,4.6229e-05,1.0089e+08,38840,0,1.4996e+08,4538.9,12620,591.1,0,591.1,0,0.00029047,2.4463e-07,0,0.00014504,5.446e-05,1.1544e+08,82772,0,5.7325e+07,7801.7,591.1,1
2044,1.79,12111,1,12111,1,5.472e-06,3.4377e-08,0,0.00025323,-1.0025e-06,-2674.9,11613,0,1.0077e+08,219.58,12110,13208,1,13208,1,0.0004952,6.4268e-07,0,0.0004952,9.0822e-05,1.9075e+08,2.1946e+05,0,1.9697e+08,19383,13207,12110,1,12110,1,5.4635e-06,3.078e-09,0,0.00025344,-1.0163e-06,2.145e+06,1054.2,0,1.0141e+08,13.256,12109,11089,1,11089,1,-0.00048427,-3.9936e-07,0,1.2596e-05,-9.2809e-05,-1.9697e+08,-1.3528e+05,0,5.1253e+06,-13556,11088,11599,1,11599,1,-0.00024794,-1.0003e-07,0,0.0001267,-4.8524e-05,-1.0085e+08,-33838,0,5.089e+07,-4248.1,11598,12621,1,12621,1,0.00025889,1.5027e-07,0,0.00038012,4.6508e-05,1.0152e+08,50109,0,1.509e+08,4521.5,12620,591.1,0,591.1,0,0.00029228,2.1347e-07,0,0.00014595,5.4796e-05,1.1612e+08,72193,0,5.7664e+07,5572.8,591.1,1
2044,1.8,12111,1,12111,1,5.5776e-06,3.542e-09,0,0.00025492,-1.0197e-06,-2475.3,1187.2,0,1.0141e+08,1133.6,12110,13208,1,13208,1,0.00049827,6.1917e-07,0,0.00049827,9.1346e-05,1.9179e+08,2.0906e+05,0,1.9814e+08,18136,13207,12110,1,12110,1,5.5653e-06,-7.2191e-09,0,0.00025504,-1.0168e-06,2.1851e+06,-2362.4,0,1.0203e+08,883.85,12109,11089,1,11089,1,-0.00048714,-4.2816e-07,0,1.2618e-05,-9.3375e-05,-1.9814e+08,-1.4611e+05,0,5.1345e+06,-11480,11088,11599,1,11599,1,-0.00024946,-1.3975e-07,0,0.00012753,-4.8834e-05,-1.0146e+08,-46391,0,5.1212e+07,-3953.3,11598,12621,1,12621,1,0.00026061,1.1957e-07,0,0.00038257,4.6799e-05,1.0215e+08,40641,0,1.5181e+08,5286.2,12620,591.1,0,591.1,0,0.00029423,2.1471e-07,0,0.00014693,5.5162e-05,1.1686e+08,72552,0,5.8029e+07,6356.3,591.1,1
2044,1.81,12111,1,12111,1,5.7067e-06,1.0022e-08,0,0.0002562,-1.0494e-06,7908.9,3384.4,0,1.0189e+08,-1334.6,12110,13208,1,13208,1,0.00050097,5.4216e-07,0,0.00050097,9.1787e-05,1.927e+08,1.8501e+05,0,1.9908e+08,11279,13207,12110,1,12110,1,5.6939e-06,-4.9892e-09,0,0.00025634,-1.0503e-06,2.2337e+06,-1637.9,0,1.0253e+08,-714.85,12109,11089,1,11089,1,-0.00048946,-3.9613e-07,0,1.2583e-05,-9.3881e-05,-1.9908e+08,-1.3402e+05,0,5.1205e+06,-14695,11088,11599,1,11599,1,-0.00025059,-1.158e-07,0,0.00012814,-4.9102e-05,-1.0193e+08,-38412,0,5.1448e+07,-5153.4,11598,12621,1,12621,1,0.00026203,1.1674e-07,0,0.00038447,4.7008e-05,1.0265e+08,38807,0,1.5254e+08,3014.2,12620,591.1,0,591.1,0,0.00029571,1.9422e-07,0,0.00014767,5.5437e-05,1.1741e+08,65648,0,5.8298e+07,5461.6,591.1,1
2044,1.82,12111,1,12111,1,5.7722e-06,1.3994e-08,0,0.00025749,-1.0583e-06,-1284.8,4738,0,1.0238e+08,-99.849,12110,13208,1,13208,1,0.00050347,6.4327e-07,0,0.00050347,9.2238e-05,1.9355e+08,2.17e+05,0,2.0008e+08,16935,13207,12110,1,12110,1,5.7584e-06,-1.4374e-09,0,0.00025763,-1.07e-06,2.2594e+06,-468.39,0,1.0302e+08,-93.545,12109,11089,1,11089,1,-0.00049191,-4.5457e-07,0,1.2615e-05,-9.4345e-05,-2.0008e+08,-1.5445e+05,0,5.1334e+06,-19533,11088,11599,1,11599,1,-0.00025183,-1.1922e-07,0,0.00012881,-4.9362e-05,-1.0243e+08,-40032,0,5.171e+07,-4829.5,11598,12621,1,12621,1,0.00026339,1.2595e-07,0,0.00038642,4.7246e-05,1.0315e+08,42623,0,1.5326e+08,4881.9,12620,591.1,0,591.1,0,0.00029719,2.1448e-07,0,0.00014841,5.5718e-05,1.1797e+08,72503,0,5.8573e+07,6734.4,591.1,1
2044,1.83,12111,1,12111,1,5.8857e-06,4.2503e-08,0,0.00025901,-1.082e-06,6649.7,14341,0,1.0296e+08,-1272,12110,13208,1,13208,1,0.00050685,6.0106e-07,0,0.00050685,9.2824e-05,1.9473e+08,2.0509e+05,0,2.0133e+08,13477,13207,12110,1,12110,1,5.8763e-06,1.2829e-08,0,0.0002592,-1.0813e-06,2.305e+06,4337.8,0,1.0363e+08,-785.24,12109,11089,1,11089,1,-0.00049499,-3.8085e-07,0,1.2604e-05,-9.4981e-05,-2.0133e+08,-1.2886e+05,0,5.1291e+06,-14333,11088,11599,1,11599,1,-0.00025327,-9.1132e-08,0,0.00012958,-4.967e-05,-1.0302e+08,-30853,0,5.2012e+07,-5482.6,11598,12621,1,12621,1,0.00026507,1.6654e-07,0,0.00038878,4.7511e-05,1.0376e+08,56412,0,1.5416e+08,3308.5,12620,591.1,0,591.1,0,0.00029896,2.0771e-07,0,0.00014929,5.6045e-05,1.1864e+08,70195,0,5.8904e+07,5661.6,591.1,1
2044,1.84,12111,1,12111,1,5.9765e-06,2.9881e-08,0,0.00026055,-1.0962e-06,757.34,10094,0,1.0354e+08,-248.57,12110,13208,1,13208,1,0.00050967,6.021e-07,0,0.00050967,9.3319e-05,1.9567e+08,2.0316e+05,0,2.0242e+08,15475,13207,12110,1,12110,1,5.9659e-06,6.6845e-09,0,0.00026071,-1.1062e-06,2.3393e+06,2289.6,0,1.0421e+08,-190.36,12109,11089,1,11089,1,-0.00049766,-4.0239e-07,0,1.2631e-05,-9.5506e-05,-2.0242e+08,-1.3676e+05,0,5.1402e+06,-18356,11088,11599,1,11599,1,-0.0002547,-8.4188e-08,0,0.00013034,-4.9976e-05,-1.036e+08,-28578,0,5.231e+07,-4747.5,11598,12621,1,12621,1,0.00026668,1.3416e-07,0,0.00039104,4.7782e-05,1.0434e+08,45138,0,1.55e+08,4375,12620,591.1,0,591.1,0,0.00030073,1.9491e-07,0,0.00015018,5.638e-05,1.1931e+08,65882,0,5.9232e+07,6309.7,591.1,1
2044,1.85,12111,1,12111,1,6.0606e-06,-6.4127e-08,0,0.00026172,-1.1128e-06,-4653.1,-21626,0,1.0398e+08,-783.45,12110,13208,1,13208,1,0.00051261,7.7427e-07,0,0.00051261,9.3824e-05,1.9667e+08,2.6121e+05,0,2.035e+08,22993,13207,12110,1,12110,1,6.0335e-06,-5.3196e-08,0,0.00026198,-1.1131e-06,2.3666e+06,-17492,0,1.0469e+08,143.62,12109,11089,1,11089,1,-0.00050032,-5.5765e-07,0,1.2632e-05,-9.6058e-05,-2.035e+08,-1.8833e+05,0,5.1395e+06,-23248,11088,11599,1,11599,1,-0.00025587,-2.8128e-07,0,0.00013096,-5.0227e-05,-1.0407e+08,-94515,0,5.2548e+07,-6070.3,11598,12621,1,12621,1,0.00026801,8.0572e-08,0,0.00039291,4.8e-05,1.0481e+08,26672,0,1.5571e+08,4270.1,12620,591.1,0,591.1,0,0.00030207,2.8687e-07,0,0.00015085,5.6633e-05,1.1981e+08,96840,0,5.9475e+07,7704.6,591.1,1
2044,1.86,12111,1,12111,1,6.1695e-06,-3.8498e-08,0,0.00026351,-1.1325e-06,-953.38,-12967,0,1.0467e+08,-667.16,12110,13208,1,13208,1,0.00051569,5.9828e-07,0,0.00051569,9.4359e-05,1.977e+08,2.0146e+05,0,2.0467e+08,18143,13207,12110,1,12110,1,6.1461e-06,-3.1883e-08,0,0.0002637,-1.1471e-06,2.4108e+06,-10836,0,1.0536e+08,-23.174,12109,11089,1,11089,1,-0.00050319,-4.3136e-07,0,1.2638e-05,-9.6633e-05,-2.0467e+08,-1.4696e+05,0,5.1429e+06,-20190,11088,11599,1,11599,1,-0.00025747,-1.9968e-07,0,0.00013181,-5.0567e-05,-1.0472e+08,-66867,0,5.2883e+07,-4913.9,11598,12621,1,12621,1,0.00026984,7.1206e-08,0,0.00039546,4.8295e-05,1.0548e+08,23908,0,1.5668e+08,3305,12620,591.1,0,591.1,0,0.00030414,2.2156e-07,0,0.00015189,5.7019e-05,1.206e+08,74859,0,5.9867e+07,6648.8,591.1,1
2044,1.87,12111,1,12111,1,6.2908e-06,-4.7572e-08,0,0.00026496,-1.1567e-06,984.25,-16020,0,1.0521e+08,-1466.7,12110,13208,1,13208,1,0.00051869,5.9662e-07,0,0.00051869,9.4871e-05,1.9871e+08,2.0216e+05,0,2.0577e+08,19812,13207,12110,1,12110,1,6.2742e-06,-3.7538e-08,0,0.00026518,-1.1696e-06,2.4605e+06,-12382,0,1.0592e+08,-505.7,12109,11089,1,11089,1,-0.00050591,-4.3208e-07,0,1.2624e-05,-9.7194e-05,-2.0577e+08,-1.457e+05,0,5.1378e+06,-21388,11088,11599,1,11599,1,-0.00025884,-1.8655e-07,0,0.00013256,-5.0863e-05,-1.0528e+08,-63158,0,5.3174e+07,-6000.3,11598,12621,1,12621,1,0.00027144,5.2305e-08,0,0.00039769,4.8559e-05,1.0606e+08,17854,0,1.5751e+08,3007.2,12620,591.1,0,591.1,0,0.00030582,2.0158e-07,0,0.00015273,5.7331e-05,1.2122e+08,68093,0,6.0172e+07,6237.6,591.1,1
2044,1.88,12111,1,12111,1,6.3934e-06,-1.7255e-08,0,0.00026626,-1.1737e-06,845.55,-5827.2,0,1.057e+08,-727.17,12110,13208,1,13208,1,0.00052103,5.3903e-07,0,0.00052103,9.5277e-05,1.9947e+08,1.8175e+05,0,2.0665e+08,11576,13207,12110,1,12110,1,6.3773e-06,-1.6144e-08,0,0.00026643,-1.1916e-06,2.5005e+06,-5462.7,0,1.064e+08,-474.85,12109,11089,1,11089,1,-0.00050806,-4.5011e-07,0,1.262e-05,-9.7632e-05,-2.0665e+08,-1.5281e+05,0,5.1356e+06,-17583,11088,11599,1,11599,1,-0.00025999,-1.5696e-07,0,0.00013319,-5.112e-05,-1.0575e+08,-52980,0,5.3418e+07,-4646.9,11598,12621,1,12621,1,0.0002728,9.4665e-08,0,0.00039958,4.878e-05,1.0654e+08,31647,0,1.582e+08,3814.6,12620,591.1,0,591.1,0,0.00030733,2.0708e-07,0,0.00015349,5.7614e-05,1.2179e+08,69903,0,6.0449e+07,5569.5,591.1,1
2044,1.89,12111,1,12111,1,6.481e-06,-4.6682e-08,0,0.00026768,-1.1888e-06,-3248.7,-15714,0,1.0623e+08,-344.19,12110,13208,1,13208,1,0.00052405,4.901e-07,0,0.00052405,9.5808e-05,2.0052e+08,1.6783e+05,0,2.0781e+08,13963,13207,12110,1,12110,1,6.4658e-06,-2.7949e-08,0,0.00026789,-1.1892e-06,2.536e+06,-9437.2,0,1.0696e+08,312.96,12109,11089,1,11089,1,-0.0005109,-4.486e-07,0,1.2628e-05,-9.8197e-05,-2.0781e+08,-1.5121e+05,0,5.1394e+06,-16985,11088,11599,1,11599,1,-0.00026136,-1.7251e-07,0,0.00013392,-5.1406e-05,-1.0631e+08,-58279,0,5.3704e+07,-4637,11598,12621,1,12621,1,0.00027434,6.1163e-08,0,0.00040176,4.9034e-05,1.071e+08,20455,0,1.5903e+08,3595.6,12620,591.1,0,591.1,0,0.00030896,1.9035e-07,0,0.00015431,5.7919e-05,1.224e+08,64296,0,6.075e+07,5458.7,591.1,1
2044,1.9,12111,1,12111,1,6.5993e-06,6.029e-08,0,0.00026894,-1.2119e-06,3324.5,20289,0,1.0671e+08,-875.73,12110,13208,1,13208,1,0.00052687,6.6038e-07,0,0.00052687,9.6324e-05,2.0151e+08,2.2259e+05,0,2.0893e+08,16721,13207,12110,1,12110,1,6.5888e-06,2.2659e-08,0,0.00026917,-1.2306e-06,2.5835e+06,7570.8,0,1.0747e+08,-1138.4,12109,11089,1,11089,1,-0.00051368,-4.4766e-07,0,1.2592e-05,-9.8724e-05,-2.0893e+08,-1.5188e+05,0,5.1244e+06,-21961,11088,11599,1,11599,1,-0.00026255,-7.5342e-08,0,0.00013458,-5.1671e-05,-1.0679e+08,-24924,0,5.3959e+07,-5667.7,11598,12621,1,12621,1,0.00027576,1.9538e-07,0,0.00040376,4.9247e-05,1.0761e+08,66394,0,1.5976e+08,4493.6,12620,591.1,0,591.1,0,0.00031041,2.2755e-07,0,0.00015503,5.8193e-05,1.2294e+08,76788,0,6.1015e+07,6485.7,591.1,1
2044,1.91,12111,1,12111,1,6.6996e-06,-6.8866e-09,0,0.00027051,-1.2282e-06,2643.9,-2274,0,1.073e+08,-18.594,12110,13208,1,13208,1,0.00052947,5.5754e-07,0,0.00052947,9.6773e-05,2.0234e+08,1.9092e+05,0,2.0989e+08,15106,13207,12110,1,12110,1,6.6871e-06,-7.7231e-09,0,0.00027064,-1.2264e-06,2.6214e+06,-2547,0,1.0803e+08,784.15,12109,11089,1,11089,1,-0.00051602,-4.6409e-07,0,1.2611e-05,-9.9211e-05,-2.0989e+08,-1.5658e+05,0,5.1328e+06,-14338,11088,11599,1,11599,1,-0.0002639,-1.4628e-07,0,0.0001353,-5.1974e-05,-1.0734e+08,-49592,0,5.4239e+07,-4187.6,11598,12621,1,12621,1,0.00027733,1.2785e-07,0,0.00040591,4.9509e-05,1.0817e+08,43571,0,1.6057e+08,4390.1,12620,591.1,0,591.1,0,0.00031222,2.1362e-07,0,0.00015594,5.8532e-05,1.2363e+08,72104,0,6.1353e+07,5743.6,591.1,1
2044,1.92,12111,1,12111,1,6.7905e-06,2.4901e-08,0,0.00027174,-1.2483e-06,-5250.6,8372.1,0,1.0776e+08,-1479.5,12110,13208,1,13208,1,0.00053218,6.0216e-07,0,0.00053218,9.7253e-05,2.0325e+08,2.0289e+05,0,2.1095e+08,9637.6,13207,12110,1,12110,1,6.7821e-06,8.6114e-09,0,0.00027191,-1.2664e-06,2.6582e+06,2880,0,1.0851e+08,-1404.6,12109,11089,1,11089,1,-0.00051864,-4.7785e-07,0,1.2597e-05,-9.9715e-05,-2.1095e+08,-1.6279e+05,0,5.1268e+06,-19790,11088,11599,1,11599,1,-0.0002651,-1.2386e-07,0,0.00013595,-5.2221e-05,-1.0783e+08,-41661,0,5.4492e+07,-6006.2,11598,12621,1,12621,1,0.00027868,1.7215e-07,0,0.00040786,4.9729e-05,1.0865e+08,57442,0,1.6128e+08,3755.8,12620,591.1,0,591.1,0,0.00031364,2.3018e-07,0,0.00015665,5.8798e-05,1.2415e+08,77673,0,6.1609e+07,5877.1,591.1,1
2044,1.93,12111,1,12111,1,6.8822e-06,1.8951e-08,0,0.00027298,-1.2595e-06,-5732.2,6385.9,0,1.0822e+08,862.32,12110,13208,1,13208,1,0.00053483,8.211e-07,0,0.00053483,9.773e-05,2.0413e+08,2.7749e+05,0,2.1196e+08,18594,13207,12110,1,12110,1,6.8599e-06,-1.0595e-08,0,0.00027316,-1.2606e-06,2.6902e+06,-3555.3,0,1.0899e+08,674.12,12109,11089,1,11089,1,-0.00052112,-5.669e-07,0,1.26e-05,-0.00010022,-2.1196e+08,-1.9121e+05,0,5.1285e+06,-24724,11088,11599,1,11599,1,-0.00026627,-1.999e-07,0,0.00013659,-5.2483e-05,-1.083e+08,-66474,0,5.4742e+07,-4483.6,11598,12621,1,12621,1,0.00028002,1.987e-07,0,0.00040974,4.9941e-05,1.0913e+08,66844,0,1.6197e+08,5654,12620,591.1,0,591.1,0,0.00031507,3.106e-07,0,0.00015737,5.9068e-05,1.2468e+08,1.0473e+05,0,6.187e+07,7281.3,591.1,1
2044,1.94,12111,1,12111,1,7.0029e-06,4.0168e-08,0,0.00027437,-1.282e-06,1639.8,13483,0,1.0875e+08,707.01,12110,13208,1,13208,1,0.00053762,7.5308e-07,0,0.00053762,9.8179e-05,2.0506e+08,2.5366e+05,0,2.1294e+08,15001,13207,12110,1,12110,1,6.9851e-06,9.2847e-09,0,0.00027458,-1.2728e-06,2.7391e+06,3180.1,0,1.0954e+08,674.58,12109,11089,1,11089,1,-0.00052353,-4.8844e-07,0,1.2568e-05,-0.00010074,-2.1294e+08,-1.6636e+05,0,5.1151e+06,-13890,11088,11599,1,11599,1,-0.00026755,-1.0889e-07,0,0.00013727,-5.2749e-05,-1.0882e+08,-36783,0,5.5005e+07,-4364.2,11598,12621,1,12621,1,0.00028156,1.8631e-07,0,0.00041183,5.0185e-05,1.0968e+08,61970,0,1.6278e+08,5908.1,12620,591.1,0,591.1,0,0.00031668,2.4071e-07,0,0.00015817,5.9367e-05,1.2529e+08,81127,0,6.2167e+07,6004.6,591.1,1
2044,1.95,12111,1,12111,1,7.1242e-06,-2.0105e-08,0,0.00027608,-1.3074e-06,3720.1,-6770.1,0,1.094e+08,-581.94,12110,13208,1,13208,1,0.00054078,6.4388e-07,0,0.00054078,9.8704e-05,2.0614e+08,2.1583e+05,0,2.141e+08,19875,13207,12110,1,12110,1,7.1071e-06,-1.2597e-08,0,0.00027624,-1.3161e-06,2.7841e+06,-4075.6,0,1.1017e+08,30.015,12109,11089,1,11089,1,-0.00052637,-5.0621e-07,0,1.2574e-05,-0.00010133,-2.141e+08,-1.7057e+05,0,5.1199e+06,-18945,11088,11599,1,11599,1,-0.00026907,-1.7472e-07,0,0.00013809,-5.309e-05,-1.0944e+08,-58653,0,5.5325e+07,-5665.3,11598,12621,1,12621,1,0.00028334,1.1691e-07,0,0.00041429,5.0488e-05,1.1032e+08,39257,0,1.637e+08,4058.7,12620,591.1,0,591.1,0,0.00031865,2.3236e-07,0,0.00015917,5.9738e-05,1.2603e+08,78304,0,6.2534e+07,6688.4,591.1,1
2044,1.96,12111,1,12111,1,7.2448e-06,4.2685e-08,0,0.00027744,-1.3239e-06,2400.3,14321,0,1.099e+08,1745.9,12110,13208,1,13208,1,0.00054382,7.9361e-07,0,0.00054382,9.9257e-05,2.0714e+08,2.6721e+05,0,2.1528e+08,19133,13207,12110,1,12110,1,7.2244e-06,9.8375e-09,0,0.00027765,-1.3108e-06,2.8327e+06,3264.9,0,1.1072e+08,1466.3,12109,11089,1,11089,1,-0.00052927,-5.0588e-07,0,1.2548e-05,-0.0001019,-2.1528e+08,-1.7212e+05,0,5.1072e+06,-13472,11088,11599,1,11599,1,-0.00027038,-1.2839e-07,0,0.00013881,-5.3366e-05,-1.0997e+08,-43325,0,5.5601e+07,-4062.4,11598,12621,1,12621,1,0.00028487,2.0075e-07,0,0.00041645,5.0715e-05,1.1087e+08,67684,0,1.6449e+08,6928.6,12620,591.1,0,591.1,0,0.00032022,2.631e-07,0,0.00015995,6.0032e-05,1.2661e+08,88636,0,6.2815e+07,6958,591.1,1
2044,1.97,12111,1,12111,1,7.3535e-06,-4.9132e-09,0,0.00027892,-1.3476e-06,1144.2,-1631.2,0,1.1046e+08,167.98,12110,13208,1,13208,1,0.0005466,6.8047e-07,0,0.0005466,9.9732e-05,2.0804e+08,2.2716e+05,0,2.163e+08,18745,13207,12110,1,12110,1,7.3325e-06,-1.1389e-08,0,0.00027908,-1.3552e-06,2.8725e+06,-3713.4,0,1.1126e+08,621.65,12109,11089,1,11089,1,-0.0005318,-5.2751e-07,0,1.2567e-05,-0.00010242,-2.163e+08,-1.7771e+05,0,5.1147e+06,-16260,11088,11599,1,11599,1,-0.00027168,-1.7353e-07,0,0.00013951,-5.3663e-05,-1.105e+08,-58598,0,5.5872e+07,-4311.5,11598,12621,1,12621,1,0.00028641,1.5036e-07,0,0.00041855,5.0978e-05,1.1141e+08,49732,0,1.6527e+08,4921.6,12620,591.1,0,591.1,0,0.00032193,2.5268e-07,0,0.00016081,6.035e-05,1.2725e+08,85157,0,6.3129e+07,5753.8,591.1,1
2044,1.98,12111,1,12111,1,7.4707e-06,-1.6435e-09,0,0.00028009,-1.3693e-06,3238.8,-586.23,0,1.1089e+08,101.11,12110,13208,1,13208,1,0.00054887,7.795e-07,0,0.00054887,0.00010012,2.0876e+08,2.6235e+05,0,2.1714e+08,20153,13207,12110,1,12110,1,7.4481e-06,-1.473e-08,0,0.00028025,-1.3661e-06,2.9188e+06,-4924.2,0,1.117e+08,-4.1841,12109,11089,1,11089,1,-0.00053385,-5.1561e-07,0,1.2519e-05,-0.00010285,-2.1714e+08,-1.7532e+05,0,5.0962e+06,-15851,11088,11599,1,11599,1,-0.00027275,-1.6657e-07,0,0.0001401,-5.3906e-05,-1.1094e+08,-55978,0,5.6098e+07,-4928,11598,12621,1,12621,1,0.00028768,1.2578e-07,0,0.00042032,5.1162e-05,1.1186e+08,42060,0,1.6592e+08,5098.1,12620,591.1,0,591.1,0,0.00032328,2.498e-07,0,0.00016149,6.0605e-05,1.2774e+08,84130,0,6.337e+07,6380.1,591.1,1
2044,1.99,12111,1,12111,1,7.5803e-06,-1.9979e-08,0,0.00028183,-1.3897e-06,2407.8,-6735.4,0,1.1155e+08,-50.743,12110,13208,1,13208,1,0.00055236,5.8407e-07,0,0.00055236,0.0001007,2.0995e+08,1.9854e+05,0,2.1842e+08,15727,13207,12110,1,12110,1,7.5653e-06,-1.3298e-08,0,0.000282,-1.3967e-06,2.9647e+06,-4369.6,0,1.1237e+08,439.41,12109,11089,1,11089,1,-0.000537,-5.0284e-07,0,1.252e-05,-0.00010349,-2.1842e+08,-1.704e+05,0,5.0963e+06,-16004,11088,11599,1,11599,1,-0.00027436,-1.7527e-07,0,0.00014095,-5.4253e-05,-1.1159e+08,-58800,0,5.6432e+07,-4572.7,11598,12621,1,12621,1,0.00028955,1.1982e-07,0,0.00042291,5.147e-05,1.1253e+08,40027,0,1.669e+08,4530,12620,591.1,0,591.1,0,0.00032529,2.2889e-07,0,0.0001625,6.0979e-05,1.285e+08,77156,0,6.3746e+07,5693.2,591.1,1
2044,2,12111,1,12111,1,7.7028e-06,2.2129e-08,0,0.00028321,-1.4086e-06,-1052.7,7417.6,0,1.1206e+08,1399.7,12110,13208,1,13208,1,0.00055516,7.3858e-07,0,0.00055516,0.00010122,2.1087e+08,2.4848e+05,0,2.1953e+08,18298,13207,12110,1,12110,1,7.6823e-06,-2.3266e-09,0,0.00028339,-1.3958e-06,3.0107e+06,-777.13,0,1.1291e+08,951.59,12109,11089,1,11089,1,-0.00053974,-4.6305e-07,0,1.2496e-05,-0.00010403,-2.1953e+08,-1.5747e+05,0,5.0872e+06,-13017,11088,11599,1,11599,1,-0.00027567,-1.3239e-07,0,0.00014168,-5.4527e-05,-1.1212e+08,-43768,0,5.6712e+07,-3815.8,11598,12621,1,12621,1,0.00029106,1.5142e-07,0,0.00042505,5.1705e-05,1.1306e+08,50582,0,1.6767e+08,5904.4,12620,591.1,0,591.1,0,0.00032689,2.3507e-07,0,0.0001633,6.128e-05,1.2909e+08,79177,0,6.4031e+07,6394.8,591.1,1
2044,2.01,12111,1,12111,1,7.8155e-06,-4.8341e-08,0,0.00028421,-1.4363e-06,1944.1,-16256,0,1.1242e+08,-1487.9,12110,13208,1,13208,1,0.00055758,7.7057e-07,0,0.00055758,0.00010159,2.1162e+08,2.5984e+05,0,2.2035e+08,13045,13207,12110,1,12110,1,7.7962e-06,-3.9849e-08,0,0.00028446,-1.4462e-06,3.0532e+06,-13259,0,1.133e+08,-547.2,12109,11089,1,11089,1,-0.00054175,-6.1528e-07,0,1.2466e-05,-0.00010447,-2.2035e+08,-2.0815e+05,0,5.0744e+06,-19023,11088,11599,1,11599,1,-0.00027659,-2.6253e-07,0,0.00014218,-5.476e-05,-1.125e+08,-88869,0,5.6903e+07,-6697.4,11598,12621,1,12621,1,0.00029224,1.1429e-07,0,0.0004266,5.1886e-05,1.1346e+08,38367,0,1.6824e+08,4244.8,12620,591.1,0,591.1,0,0.00032804,2.9599e-07,0,0.00016388,6.1498e-05,1.295e+08,99698,0,6.4235e+07,7099.4,591.1,1
2044,2.02,12111,1,12111,1,7.9219e-06,6.167e-08,0,0.00028586,-1.4507e-06,1991.4,20668,0,1.1305e+08,621.38,12110,13208,1,13208,1,0.00056098,8.144e-07,0,0.00056098,0.00010223,2.1282e+08,2.7287e+05,0,2.2175e+08,22549,13207,12110,1,12110,1,7.9096e-06,1.3263e-08,0,0.00028615,-1.4605e-06,3.0972e+06,4482.5,0,1.1396e+08,105.43,12109,11089,1,11089,1,-0.00054519,-4.6366e-07,0,1.2455e-05,-0.00010512,-2.2175e+08,-1.5778e+05,0,5.071e+06,-19832,11088,11599,1,11599,1,-0.00027817,-9.5577e-08,0,0.00014304,-5.5108e-05,-1.1314e+08,-32110,0,5.7238e+07,-5276.5,11598,12621,1,12621,1,0.00029405,2.0589e-07,0,0.00042918,5.2172e-05,1.1412e+08,69558,0,1.692e+08,5566.5,12620,591.1,0,591.1,0,0.00032994,2.5609e-07,0,0.00016483,6.1853e-05,1.3022e+08,86231,0,6.4589e+07,7597.5,591.1,1
2044,2.03,12111,1,12111,1,8.0478e-06,-3.0867e-08,0,0.00028685,-1.4748e-06,5439.2,-10368,0,1.134e+08,213.34,12110,13208,1,13208,1,0.00056266,7.1396e-07,0,0.00056266,0.00010246,2.1327e+08,2.388e+05,0,2.2223e+08,14311,13207,12110,1,12110,1,8.0216e-06,-2.5252e-08,0,0.00028705,-1.4896e-06,3.1389e+06,-8549.4,0,1.1428e+08,186.84,12109,11089,1,11089,1,-0.00054637,-6.3314e-07,0,1.2442e-05,-0.00010542,-2.2223e+08,-2.1308e+05,0,5.065e+06,-16541,11088,11599,1,11599,1,-0.00027895,-2.1813e-07,0,0.00014348,-5.5286e-05,-1.1346e+08,-73983,0,5.7404e+07,-5046,11598,12621,1,12621,1,0.00029507,1.2444e-07,0,0.00043049,5.2333e-05,1.1445e+08,41462,0,1.6967e+08,5921.2,12620,591.1,0,591.1,0,0.00033108,2.8038e-07,0,0.0001654,6.2067e-05,1.3063e+08,94376,0,6.4787e+07,6800.5,591.1,1
2044,2.04,12111,1,12111,1,8.1441e-06,5.275e-08,0,0.00028885,-1.4923e-06,-3686.8,17695,0,1.1417e+08,228.44,12110,13208,1,13208,1,0.00056676,7.6895e-07,0,0.00056676,0.00010323,2.1472e+08,2.607e+05,0,2.2391e+08,17520,13207,12110,1,12110,1,8.1365e-06,1.5512e-08,0,0.00028908,-1.5015e-06,3.1849e+06,5268.7,0,1.1508e+08,-209.01,12109,11089,1,11089,1,-0.0005505,-4.5769e-07,0,1.2452e-05,-0.0001062,-2.2391e+08,-1.5584e+05,0,5.0697e+06,-16135,11088,11599,1,11599,1,-0.0002809,-9.5935e-08,0,0.00014452,-5.5677e-05,-1.1425e+08,-32443,0,5.7812e+07,-5061,11598,12621,1,12621,1,0.0002972,1.9216e-07,0,0.00043359,5.2694e-05,1.1524e+08,64367,0,1.7084e+08,5373.7,12620,591.1,0,591.1,0,0.0003334,2.4409e-07,0,0.00016656,6.25e-05,1.3151e+08,82240,0,6.5222e+07,6694.3,591.1,1
2044,2.05,12111,1,12111,1,8.2897e-06,-6.142e-08,0,0.00029007,-1.5173e-06,-2465.9,-20614,0,1.1461e+08,955.07,12110,13208,1,13208,1,0.0005692,6.2374e-07,0,0.0005692,0.0001036,2.1542e+08,2.0964e+05,0,2.247e+08,23215,13207,12110,1,12110,1,8.2573e-06,-4.5499e-08,0,0.00029031,-1.5117e-06,3.2333e+06,-14980,0,1.1553e+08,546.74,12109,11089,1,11089,1,-0.00055245,-5.6582e-07,0,1.2422e-05,-0.00010665,-2.247e+08,-1.9037e+05,0,5.0588e+06,-13778,11088,11599,1,11599,1,-0.00028196,-2.2694e-07,0,0.0001451,-5.594e-05,-1.1468e+08,-76425,0,5.8033e+07,-3172.2,11598,12621,1,12621,1,0.00029856,6.1084e-08,0,0.00043537,5.2892e-05,1.1569e+08,20103,0,1.7148e+08,4368.9,12620,591.1,0,591.1,0,0.0003348,2.4136e-07,0,0.00016727,6.2761e-05,1.3201e+08,81243,0,6.5465e+07,6379.8,591.1,1
2044,2.06,12111,1,12111,1,8.4218e-06,1.4114e-09,0,0.00029192,-1.5427e-06,-1445.3,440.58,0,1.1531e+08,457.28,12110,13208,1,13208,1,0.00057274,6.925e-07,0,0.00057274,0.00010422,2.166e+08,2.3154e+05,0,2.2607e+08,20603,13207,12110,1,12110,1,8.3936e-06,-6.8134e-09,0,0.00029208,-1.5349e-06,3.2864e+06,-2208.5,0,1.1621e+08,564.98,12109,11089,1,11089,1,-0.0005558,-4.9771e-07,0,1.2396e-05,-0.00010731,-2.2607e+08,-1.6722e+05,0,5.0474e+06,-16739,11088,11599,1,11599,1,-0.0002836,-1.755e-07,0,0.00014601,-5.63e-05,-1.1535e+08,-58630,0,5.8387e+07,-4219.1,11598,12621,1,12621,1,0.00030048,1.6007e-07,0,0.00043803,5.3201e-05,1.1638e+08,53315,0,1.7247e+08,4775.1,12620,591.1,0,591.1,0,0.00033693,2.5255e-07,0,0.00016834,6.316e-05,1.3281e+08,84948,0,6.5861e+07,6573.4,591.1,1
2044,2.07,12111,1,12111,1,8.5761e-06,-8.9791e-08,0,0.00029338,-1.5705e-06,1318.8,-30126,0,1.1584e+08,636.86,12110,13208,1,13208,1,0.00057606,5.229e-07,0,0.00057606,0.00010477,2.1765e+08,1.7667e+05,0,2.2725e+08,21892,13207,12110,1,12110,1,8.5511e-06,-7.8155e-08,0,0.00029366,-1.5667e-06,3.3469e+06,-26117,0,1.168e+08,-564.86,12109,11089,1,11089,1,-0.00055872,-4.7617e-07,0,1.2368e-05,-0.00010793,-2.2725e+08,-1.6017e+05,0,5.0365e+06,-10464,11088,11599,1,11599,1,-0.00028501,-2.4937e-07,0,0.00014676,-5.6612e-05,-1.1592e+08,-84156,0,5.8676e+07,-3506.2,11598,12621,1,12621,1,0.00030217,2.4423e-08,0,0.00044035,5.3464e-05,1.1697e+08,7859.4,0,1.7333e+08,3406.9,12620,591.1,0,591.1,0,0.00033863,2.0852e-07,0,0.00016919,6.3477e-05,1.3343e+08,70228,0,6.6162e+07,6304.3,591.1,1
2044,2.08,12111,1,12111,1,8.7125e-06,-2.183e-08,0,0.00029484,-1.5917e-06,2824.4,-7348.1,0,1.1638e+08,2230.6,12110,13208,1,13208,1,0.00057865,5.6695e-07,0,0.00057865,0.0001052,2.1844e+08,1.9405e+05,0,2.2818e+08,21180,13207,12110,1,12110,1,8.6874e-06,-1.9826e-08,0,0.00029504,-1.5823e-06,3.4017e+06,-6664.4,0,1.1732e+08,1523.1,12109,11089,1,11089,1,-0.000561,-4.6028e-07,0,1.2319e-05,-0.00010841,-2.2818e+08,-1.5457e+05,0,5.017e+06,-15182,11088,11599,1,11599,1,-0.00028626,-1.6793e-07,0,0.00014747,-5.69e-05,-1.1643e+08,-55440,0,5.8947e+07,-2439.8,11598,12621,1,12621,1,0.00030372,9.4207e-08,0,0.00044245,5.3703e-05,1.175e+08,32190,0,1.7408e+08,5302.6,12620,591.1,0,591.1,0,0.00034031,2.117e-07,0,0.00017004,6.3792e-05,1.3405e+08,71185,0,6.6465e+07,6501.9,591.1,1
2044,2.09,12111,1,12111,1,8.8377e-06,-6.1724e-08,0,0.00029627,-1.6216e-06,396.06,-20666,0,1.1691e+08,-666.93,12110,13208,1,13208,1,0.0005817,5.6226e-07,0,0.0005817,0.00010572,2.1944e+08,1.9244e+05,0,2.2931e+08,19803,13207,12110,1,12110,1,8.8221e-06,-4.7179e-08,0,0.00029653,-1.6343e-06,3.4521e+06,-15340,0,1.1789e+08,-537.39,12109,11089,1,11089,1,-0.00056378,-4.7088e-07,0,1.2286e-05,-0.00010898,-2.2931e+08,-1.5811e+05,0,5.0037e+06,-16672,11088,11599,1,11599,1,-0.0002876,-2.0391e-07,0,0.00014817,-5.7202e-05,-1.1698e+08,-67999,0,5.9219e+07,-4722.2,11598,12621,1,12621,1,0.00030531,3.924e-08,0,0.00044464,5.3943e-05,1.1806e+08,12923,0,1.7491e+08,2813.3,12620,591.1,0,591.1,0,0.00034196,2.0646e-07,0,0.00017087,6.41e-05,1.3465e+08,69508,0,6.6761e+07,5926.7,591.1,1
2044,2.1,12111,1,12111,1,8.9828e-06,1.308e-08,0,0.00029777,-1.6521e-06,4491.6,4374.9,0,1.1746e+08,-2243.1,12110,13208,1,13208,1,0.00058434,6.2158e-07,0,0.00058434,0.00010621,2.2035e+08,2.1176e+05,0,2.3038e+08,10858,13207,12110,1,12110,1,8.9655e-06,-3.1783e-10,0,0.00029792,-1.6762e-06,3.508e+06,-101.77,0,1.1843e+08,-1114.9,12109,11089,1,11089,1,-0.00056642,-4.3507e-07,0,1.2247e-05,-0.00010949,-2.3038e+08,-1.4741e+05,0,4.9879e+06,-25366,11088,11599,1,11599,1,-0.00028889,-1.2059e-07,0,0.00014891,-5.7499e-05,-1.175e+08,-39803,0,5.9501e+07,-6500.9,11598,12621,1,12621,1,0.00030687,1.3106e-07,0,0.00044681,5.4194e-05,1.1861e+08,44648,0,1.7569e+08,4009.5,12620,591.1,0,591.1,0,0.00034369,2.0882e-07,0,0.00017174,6.4425e-05,1.3529e+08,70273,0,6.7074e+07,7800,591.1,1
2044,2.11,12111,1,12111,1,9.1089e-06,-6.0097e-08,0,0.00029924,-1.6699e-06,890.43,-20133,0,1.1801e+08,-57.254,12110,13208,1,13208,1,0.00058773,5.9902e-07,0,0.00058773,0.00010677,2.214e+08,2.0108e+05,0,2.3158e+08,20061,13207,12110,1,12110,1,9.0871e-06,-5.5104e-08,0,0.00029948,-1.6723e-06,3.5549e+06,-18078,0,1.1901e+08,62.327,12109,11089,1,11089,1,-0.00056934,-4.4634e-07,0,1.2249e-05,-0.00011011,-2.3158e+08,-1.5004e+05,0,4.9895e+06,-20618,11088,11599,1,11599,1,-0.00029031,-2.2293e-07,0,0.00014968,-5.7804e-05,-1.1808e+08,-74670,0,5.9797e+07,-4200.5,11598,12621,1,12621,1,0.00030854,5.4088e-08,0,0.00044912,5.4455e-05,1.1919e+08,17708,0,1.7653e+08,3135.9,12620,591.1,0,591.1,0,0.00034539,2.1835e-07,0,0.00017259,6.4744e-05,1.3591e+08,73465,0,6.7379e+07,6503.3,591.1,1
2044,2.12,12111,1,12111,1,9.2403e-06,-1.0349e-08,0,0.00030036,-1.7e-06,1780.6,-3459.7,0,1.1841e+08,-2560.1,12110,13208,1,13208,1,0.00058968,6.3294e-07,0,0.00058968,0.00010711,2.22e+08,2.1612e+05,0,2.3231e+08,11068,13207,12110,1,12110,1,9.22e-06,-1.2999e-08,0,0.00030052,-1.7191e-06,3.6059e+06,-4341.3,0,1.194e+08,-1363.5,12109,11089,1,11089,1,-0.00057114,-5.031e-07,0,1.2182e-05,-0.00011048,-2.3231e+08,-1.6958e+05,0,4.9622e+06,-25799,11088,11599,1,11599,1,-0.00029123,-1.6624e-07,0,0.00015021,-5.8035e-05,-1.1845e+08,-55692,0,5.9996e+07,-6592,11598,12621,1,12621,1,0.00030973,1.2147e-07,0,0.00045069,5.4631e-05,1.1959e+08,40755,0,1.7708e+08,3334.8,12620,591.1,0,591.1,0,0.00034668,2.3411e-07,0,0.00017324,6.4986e-05,1.3638e+08,78772,0,6.7604e+07,7539.3,591.1,1
2044,2.13,12111,1,12111,1,9.3616e-06,-5.0998e-08,0,0.00030217,-1.7165e-06,-709.04,-17111,0,1.1909e+08,-191.34,12110,13208,1,13208,1,0.0005936,5.5118e-07,0,0.0005936,0.00010777,2.2328e+08,1.8494e+05,0,2.3376e+08,23271,13207,12110,1,12110,1,9.3335e-06,-3.2142e-08,0,0.0003024,-1.7149e-06,3.6504e+06,-10578,0,1.2011e+08,-181.59,12109,11089,1,11089,1,-0.00057471,-4.6277e-07,0,1.2206e-05,-0.00011121,-2.3376e+08,-1.5558e+05,0,4.9724e+06,-21779,11088,11599,1,11599,1,-0.00029298,-2.0664e-07,0,0.00015114,-5.8394e-05,-1.1916e+08,-69784,0,6.0357e+07,-4490.6,11598,12621,1,12621,1,0.00031172,6.5213e-08,0,0.00045351,5.4955e-05,1.203e+08,21573,0,1.7814e+08,3504.5,12620,591.1,0,591.1,0,0.00034876,2.161e-07,0,0.00017429,6.5376e-05,1.3716e+08,72640,0,6.799e+07,6706.2,591.1,1
2044,2.14,12111,1,12111,1,9.5168e-06,2.6968e-09,0,0.00030342,-1.7507e-06,297.92,910.87,0,1.1954e+08,-2573.5,12110,13208,1,13208,1,0.00059585,6.2713e-07,0,0.00059585,0.00010817,2.2399e+08,2.1404e+05,0,2.3461e+08,10304,13207,12110,1,12110,1,9.4993e-06,-6.7804e-09,0,0.00030358,-1.7687e-06,3.7139e+06,-2239.9,0,1.2056e+08,-1433.9,12109,11089,1,11089,1,-0.0005768,-4.6603e-07,0,1.2119e-05,-0.00011164,-2.3461e+08,-1.5705e+05,0,4.9373e+06,-24881,11088,11599,1,11599,1,-0.00029402,-1.459e-07,0,0.00015175,-5.866e-05,-1.1959e+08,-48836,0,6.0587e+07,-6487,11598,12621,1,12621,1,0.00031306,1.3022e-07,0,0.0004553,5.5153e-05,1.2075e+08,43236,0,1.7877e+08,2982.5,12620,591.1,0,591.1,0,0.00035021,2.2444e-07,0,0.00017501,6.5647e-05,1.3767e+08,75498,0,6.824e+07,7167.5,591.1,1
2044,2.15,12111,1,12111,1,9.6311e-06,-9.9736e-08,0,0.00030488,-1.7654e-06,-4798.7,-33411,0,1.2008e+08,3.5795,12110,13208,1,13208,1,0.00059926,4.0743e-07,0,0.00059926,0.00010872,2.2505e+08,1.3602e+05,0,2.3582e+08,15333,13207,12110,1,12110,1,9.5956e-06,-7.3308e-08,0,0.00030515,-1.7694e-06,3.7517e+06,-24018,0,1.2114e+08,-387.12,12109,11089,1,11089,1,-0.00057979,-4.7199e-07,0,1.2127e-05,-0.00011227,-2.3582e+08,-1.5838e+05,0,4.9414e+06,-15738,11088,11599,1,11599,1,-0.00029544,-2.3684e-07,0,0.00015248,-5.8955e-05,-1.2017e+08,-78986,0,6.0875e+07,-3541.4,11598,12621,1,12621,1,0.00031471,1.307e-08,0,0.00045758,5.5415e-05,1.2132e+08,4419.3,0,1.7963e+08,3151.9,12620,591.1,0,591.1,0,0.0003519,1.8368e-07,0,0.00017586,6.596e-05,1.383e+08,61767,0,6.8546e+07,4816.2,591.1,1
2044,2.16,12111,1,12111,1,9.7729e-06,-2.9965e-08,0,0.00030622,-1.7946e-06,-3677.6,-10028,0,1.2057e+08,-1337.1,12110,13208,1,13208,1,0.0006017,5.9552e-07,0,0.0006017,0.00010913,2.2576e+08,2.0302e+05,0,2.367e+08,12108,13207,12110,1,12110,1,9.7547e-06,-1.8611e-08,0,0.00030643,-1.8007e-06,3.8132e+06,-6081.8,0,1.2162e+08,-506.51,12109,11089,1,11089,1,-0.00058194,-5.1723e-07,0,1.2068e-05,-0.00011272,-2.367e+08,-1.7502e+05,0,4.9169e+06,-22969,11088,11599,1,11599,1,-0.00029658,-1.8943e-07,0,0.00015315,-5.923e-05,-1.2063e+08,-63249,0,6.1125e+07,-5713.1,11598,12621,1,12621,1,0.00031616,1.0674e-07,0,0.00045953,5.5637e-05,1.2181e+08,35326,0,1.803e+08,3588.1,12620,591.1,0,591.1,0,0.00035345,2.3296e-07,0,0.00017664,6.6254e-05,1.3886e+08,78352,0,6.882e+07,6390.9,591.1,1
2044,2.17,12111,1,12111,1,9.893e-06,-9.4754e-08,0,0.00030786,-1.8126e-06,-11562,-31740,0,1.2118e+08,273.73,12110,13208,1,13208,1,0.00060541,4.416e-07,0,0.00060541,0.00010977,2.27e+08,1.4744e+05,0,2.381e+08,16098,13207,12110,1,12110,1,9.8571e-06,-6.7074e-08,0,0.00030816,-1.8149e-06,3.8527e+06,-21960,0,1.2228e+08,-102.25,12109,11089,1,11089,1,-0.00058539,-4.7564e-07,0,1.2068e-05,-0.00011342,-2.381e+08,-1.5943e+05,0,4.9178e+06,-15994,11088,11599,1,11599,1,-0.00029817,-2.4131e-07,0,0.00015397,-5.9563e-05,-1.2128e+08,-80471,0,6.1445e+07,-3570.7,11598,12621,1,12621,1,0.00031797,2.5219e-08,0,0.00046206,5.5928e-05,1.2245e+08,8304.3,0,1.8127e+08,3664.7,12620,591.1,0,591.1,0,0.00035534,1.9441e-07,0,0.00017759,6.6605e-05,1.3956e+08,65336,0,6.9164e+07,5177.2,591.1,1
2044,2.18,12111,1,12111,1,1.0069e-05,1.5762e-08,0,0.00030916,-1.847e-06,-1322.9,5279.5,0,1.2165e+08,-562.91,12110,13208,1,13208,1,0.00060749,6.8331e-07,0,0.00060749,0.00011014,2.2768e+08,2.3097e+05,0,2.3889e+08,14576,13207,12110,1,12110,1,1.0059e-05,-1.6082e-09,0,0.0003093,-1.8461e-06,3.9306e+06,-525.6,0,1.2272e+08,-366.87,12109,11089,1,11089,1,-0.00058732,-4.6582e-07,0,1.1976e-05,-0.00011381,-2.3889e+08,-1.5752e+05,0,4.8807e+06,-14654,11088,11599,1,11599,1,-0.00029922,-1.4611e-07,0,0.00015463,-5.9824e-05,-1.217e+08,-48031,0,6.1689e+07,-4808.1,11598,12621,1,12621,1,0.00031934,1.5514e-07,0,0.00046393,5.6139e-05,1.2292e+08,51284,0,1.8191e+08,4009.4,12620,591.1,0,591.1,0,0.00035683,2.3822e-07,0,0.00017834,6.6888e-05,1.4009e+08,80080,0,6.9423e+07,5950.2,591.1,1
2044,2.19,12111,1,12111,1,1.0193e-05,-7.5579e-08,0,0.00031063,-1.8679e-06,-6615.9,-25292,0,1.2219e+08,192.4,12110,13208,1,13208,1,0.00061064,3.8045e-07,0,0.00061064,0.00011065,2.2861e+08,1.2676e+05,0,2.3999e+08,14973,13207,12110,1,12110,1,1.0162e-05,-5.2627e-08,0,0.00031087,-1.8728e-06,3.9704e+06,-17453,0,1.2329e+08,104.54,12109,11089,1,11089,1,-0.00059004,-4.3006e-07,0,1.197e-05,-0.0001144,-2.3999e+08,-1.4411e+05,0,4.8787e+06,-14580,11088,11599,1,11599,1,-0.0003006,-1.8871e-07,0,0.00015535,-6.0129e-05,-1.2227e+08,-62755,0,6.1967e+07,-2938.7,11598,12621,1,12621,1,0.000321,1.9554e-08,0,0.00046617,5.6384e-05,1.2348e+08,6603.6,0,1.8273e+08,3150.7,12620,591.1,0,591.1,0,0.00035854,1.6112e-07,0,0.00017921,6.7204e-05,1.4072e+08,54143,0,6.9732e+07,4377.1,591.1,1
2044,2.2,12111,1,12111,1,1.0345e-05,3.3039e-08,0,0.00031186,-1.901e-06,-2517.7,11003,0,1.2263e+08,-1943.8,12110,13208,1,13208,1,0.00061326,8.2288e-07,0,0.00061326,0.00011113,2.2948e+08,2.7568e+05,0,2.4104e+08,13934,13207,12110,1,12110,1,1.0325e-05,-8.3019e-10,0,0.00031207,-1.9125e-06,4.0325e+06,-256.35,0,1.2376e+08,-1570.2,12109,11089,1,11089,1,-0.00059261,-5.4089e-07,0,1.1896e-05,-0.00011489,-2.4104e+08,-1.8264e+05,0,4.8488e+06,-25175,11088,11599,1,11599,1,-0.00030168,-1.6191e-07,0,0.000156,-6.0394e-05,-1.2271e+08,-53352,0,6.2213e+07,-7200.3,11598,12621,1,12621,1,0.00032238,2.0094e-07,0,0.00046804,5.6577e-05,1.2396e+08,66745,0,1.8339e+08,4298.5,12620,591.1,0,591.1,0,0.00035995,2.8773e-07,0,0.00017991,6.7473e-05,1.4122e+08,96516,0,6.9975e+07,7901.3,591.1,1
2044,2.21,12111,1,12111,1,1.0461e-05,-9.5021e-08,0,0.00031345,-1.9167e-06,-11438,-31785,0,1.2323e+08,268.86,12110,13208,1,13208,1,0.00061662,4.0918e-07,0,0.00061662,0.00011167,2.305e+08,1.3671e+05,0,2.4221e+08,15168,13207,12110,1,12110,1,1.0427e-05,-6.7076e-08,0,0.00031373,-1.9221e-06,4.0722e+06,-22153,0,1.2437e+08,91.281,12109,11089,1,11089,1,-0.00059548,-4.8302e-07,0,1.1908e-05,-0.00011552,-2.4221e+08,-1.6184e+05,0,4.8541e+06,-15273,11088,11599,1,11599,1,-0.00030319,-2.3052e-07,0,0.00015677,-6.0713e-05,-1.2332e+08,-76520,0,6.2512e+07,-3417.4,11598,12621,1,12621,1,0.00032412,1.8647e-08,0,0.00047045,5.6871e-05,1.2456e+08,6006.6,0,1.8429e+08,3592.2,12620,591.1,0,591.1,0,0.0003618,1.8418e-07,0,0.00018084,6.7814e-05,1.419e+08,61873,0,7.0311e+07,4825.4,591.1,1
2044,2.22,12111,1,12111,1,1.0631e-05,3.5171e-08,0,0.00031475,-1.9533e-06,-4801.3,11700,0,1.2369e+08,-1895.5,12110,13208,1,13208,1,0.00061904,8.037e-07,0,0.00061904,0.00011211,2.3129e+08,2.6914e+05,0,2.4316e+08,13223,13207,12110,1,12110,1,1.0614e-05,2.0586e-09,0,0.00031495,-1.964e-06,4.1438e+06,684.27,0,1.2484e+08,-1519.6,12109,11089,1,11089,1,-0.00059783,-5.2199e-07,0,1.181e-05,-0.00011597,-2.4316e+08,-1.7637e+05,0,4.8145e+06,-24015,11088,11599,1,11599,1,-0.00030428,-1.5485e-07,0,0.00015744,-6.0984e-05,-1.2376e+08,-51185,0,6.2763e+07,-7047.9,11598,12621,1,12621,1,0.00032554,1.9847e-07,0,0.00047236,5.7067e-05,1.2504e+08,66171,0,1.8496e+08,4169.1,12620,591.1,0,591.1,0,0.00036329,2.7999e-07,0,0.00018159,6.8099e-05,1.4244e+08,93900,0,7.057e+07,7555.4,591.1,1
2044,2.23,12111,1,12111,1,1.077e-05,-1.0233e-07,0,0.0003163,-1.9741e-06,-6580.8,-34219,0,1.2426e+08,45.798,12110,13208,1,13208,1,0.00062248,3.9832e-07,0,0.00062248,0.00011265,2.3231e+08,1.33e+05,0,2.4434e+08,14649,13207,12110,1,12110,1,1.0736e-05,-7.3778e-08,0,0.00031658,-1.9791e-06,4.1918e+06,-24392,0,1.2544e+08,-135.62,12109,11089,1,11089,1,-0.00060072,-4.8773e-07,0,1.1802e-05,-0.00011661,-2.4434e+08,-1.6335e+05,0,4.812e+06,-15280,11088,11599,1,11599,1,-0.00030573,-2.3905e-07,0,0.0001582,-6.1304e-05,-1.2435e+08,-79841,0,6.3055e+07,-3535.3,11598,12621,1,12621,1,0.00032728,1.1732e-08,0,0.00047473,5.7348e-05,1.2563e+08,3886.9,0,1.8583e+08,3256.4,12620,591.1,0,591.1,0,0.00036508,1.8467e-07,0,0.0001825,6.8429e-05,1.4309e+08,62020,0,7.0893e+07,4737.1,591.1,1
2044,2.24,12111,1,12111,1,1.0938e-05,3.1097e-08,0,0.00031769,-2.0096e-06,-2501.9,10331,0,1.2477e+08,-1921.5,12110,13208,1,13208,1,0.00062501,7.9729e-07,0,0.00062501,0.00011311,2.3315e+08,2.6687e+05,0,2.4534e+08,13385,13207,12110,1,12110,1,1.0921e-05,-2.8234e-10,0,0.00031788,-2.021e-06,4.2623e+06,-83.489,0,1.2594e+08,-1526.2,12109,11089,1,11089,1,-0.00060319,-5.2707e-07,0,1.1711e-05,-0.00011708,-2.4534e+08,-1.7797e+05,0,4.775e+06,-24293,11088,11599,1,11599,1,-0.00030691,-1.5806e-07,0,0.00015891,-6.159e-05,-1.2483e+08,-52430,0,6.3321e+07,-7009,11598,12621,1,12621,1,0.00032878,1.9401e-07,0,0.00047676,5.756e-05,1.2615e+08,64627,0,1.8655e+08,4208,12620,591.1,0,591.1,0,0.00036668,2.7992e-07,0,0.0001833,6.8734e-05,1.4366e+08,93834,0,7.1171e+07,7641.7,591.1,1
2044,2.25,12111,1,12111,1,1.1095e-05,-8.2354e-08,0,0.00031924,-2.0367e-06,-714.9,-27530,0,1.2533e+08,-1243.3,12110,13208,1,13208,1,0.00062834,4.2311e-07,0,0.00062834,0.00011363,2.3411e+08,1.4265e+05,0,2.4646e+08,11197,13207,12110,1,12110,1,1.1067e-05,-5.4644e-08,0,0.00031949,-2.0422e-06,4.318e+06,-17925,0,1.2653e+08,-362.04,12109,11089,1,11089,1,-0.00060595,-5.1239e-07,0,1.169e-05,-0.00011771,-2.4646e+08,-1.7161e+05,0,4.7693e+06,-17369,11088,11599,1,11599,1,-0.00030833,-2.3047e-07,0,0.00015968,-6.1914e-05,-1.2541e+08,-76961,0,6.3616e+07,-4603.8,11598,12621,1,12621,1,0.00033054,3.8293e-08,0,0.00047913,5.7837e-05,1.2674e+08,12605,0,1.874e+08,2889.2,12620,591.1,0,591.1,0,0.00036847,2.0504e-07,0,0.0001842,6.9065e-05,1.4432e+08,68802,0,7.1491e+07,5758.7,591.1,1
2044,2.26,12111,1,12111,1,1.1253e-05,1.1323e-08,0,0.00032059,-2.0668e-06,-1070.4,3794.6,0,1.2582e+08,-1706.1,12110,13208,1,13208,1,0.00063066,7.2682e-07,0,0.00063066,0.00011405,2.3486e+08,2.4877e+05,0,2.4738e+08,23209,13207,12110,1,12110,1,1.1246e-05,-2.0485e-09,0,0.00032074,-2.0753e-06,4.3871e+06,-657.36,0,1.27e+08,-1320.5,12109,11089,1,11089,1,-0.00060819,-4.9667e-07,0,1.161e-05,-0.00011815,-2.4738e+08,-1.6756e+05,0,4.7351e+06,-22804,11088,11599,1,11599,1,-0.00030947,-1.4825e-07,0,0.00016036,-6.2197e-05,-1.2587e+08,-49079,0,6.3872e+07,-6638.6,11598,12621,1,12621,1,0.00033196,1.4428e-07,0,0.00048105,5.8056e-05,1.2722e+08,47322,0,1.8808e+08,3842.7,12620,591.1,0,591.1,0,0.00037003,2.4494e-07,0,0.00018499,6.9361e-05,1.4487e+08,82230,0,7.1762e+07,7470.2,591.1,1
2044,2.27,12111,1,12111,1,1.1387e-05,-1.0277e-07,0,0.00032174,-2.0847e-06,-2270.6,-34325,0,1.2623e+08,1086.3,12110,13208,1,13208,1,0.00063369,5.044e-07,0,0.00063369,0.00011452,2.3571e+08,1.6823e+05,0,2.4839e+08,16836,13207,12110,1,12110,1,1.135e-05,-7.7655e-08,0,0.00032204,-2.0838e-06,4.429e+06,-25652,0,1.2746e+08,516.42,12109,11089,1,11089,1,-0.00061069,-5.7363e-07,0,1.1582e-05,-0.00011871,-2.4839e+08,-1.9199e+05,0,4.7237e+06,-14919,11088,11599,1,11599,1,-0.00031057,-2.7091e-07,0,0.00016093,-6.2437e-05,-1.2632e+08,-90120,0,6.4089e+07,-3233.4,11598,12621,1,12621,1,0.00033336,2.934e-08,0,0.00048291,5.826e-05,1.2768e+08,9920.1,0,1.8875e+08,4858.3,12620,591.1,0,591.1,0,0.00037136,2.2725e-07,0,0.00018566,6.9606e-05,1.4534e+08,76226,0,7.1992e+07,5915.6,591.1,1
2044,2.28,12111,1,12111,1,1.1512e-05,7.1886e-09,0,0.00032297,-2.1145e-06,-5580.2,2409.5,0,1.2667e+08,-1776.9,12110,13208,1,13208,1,0.00063562,8.237e-07,0,0.00063562,0.00011486,2.3633e+08,2.8188e+05,0,2.4914e+08,26966,13207,12110,1,12110,1,1.1505e-05,-9.5416e-09,0,0.00032314,-2.1242e-06,4.4866e+06,-3054.4,0,1.2788e+08,-1229.7,12109,11089,1,11089,1,-0.00061253,-5.3368e-07,0,1.1515e-05,-0.00011907,-2.4914e+08,-1.7998e+05,0,4.6975e+06,-24602,11088,11599,1,11599,1,-0.00031159,-1.7369e-07,0,0.00016156,-6.269e-05,-1.2673e+08,-58075,0,6.4322e+07,-7000,11598,12621,1,12621,1,0.00033461,1.4535e-07,0,0.0004846,5.8459e-05,1.281e+08,48202,0,1.8935e+08,4146.5,12620,591.1,0,591.1,0,0.00037277,2.7185e-07,0,0.00018637,6.9874e-05,1.4585e+08,91232,0,7.224e+07,8257.7,591.1,1
2044,2.29,12111,1,12111,1,1.1654e-05,-3.7428e-08,0,0.00032431,-2.1377e-06,-4086.5,-12461,0,1.2717e+08,-635.63,12110,13208,1,13208,1,0.00063868,6.8284e-07,0,0.00063868,0.00011535,2.3723e+08,2.3367e+05,0,2.5018e+08,13878,13207,12110,1,12110,1,1.1635e-05,-3.0984e-08,0,0.00032457,-2.1439e-06,4.5368e+06,-10084,0,1.2841e+08,-323.7,12109,11089,1,11089,1,-0.00061508,-5.8338e-07,0,1.1485e-05,-0.00011964,-2.5018e+08,-1.9541e+05,0,4.6847e+06,-14296,11088,11599,1,11599,1,-0.00031282,-2.1378e-07,0,0.00016221,-6.2971e-05,-1.2723e+08,-70437,0,6.4572e+07,-5855.7,11598,12621,1,12621,1,0.00033617,9.5407e-08,0,0.00048669,5.8686e-05,1.2863e+08,31778,0,1.901e+08,4439.7,12620,591.1,0,591.1,0,0.00037432,2.6004e-07,0,0.00018715,7.0163e-05,1.4642e+08,87144,0,7.2516e+07,6631,591.1,1
2044,2.3,12111,1,12111,1,1.1844e-05,-2.7852e-08,0,0.00032631,-2.1771e-06,1735.8,-9263.4,0,1.2791e+08,-2503.7,12110,13208,1,13208,1,0.00064242,5.0896e-07,0,0.00064242,0.00011598,2.3841e+08,1.7417e+05,0,2.5156e+08,10242,13207,12110,1,12110,1,1.1835e-05,-2.3985e-08,0,0.00032649,-2.1926e-06,4.6141e+06,-7956.6,0,1.2913e+08,-1696.1,12109,11089,1,11089,1,-0.00061848,-4.2114e-07,0,1.1419e-05,-0.00012034,-2.5156e+08,-1.4241e+05,0,4.6602e+06,-20777,11088,11599,1,11599,1,-0.00031455,-1.7385e-07,0,0.00016317,-6.3364e-05,-1.2794e+08,-57582,0,6.4942e+07,-6376.2,11598,12621,1,12621,1,0.00033829,9.2202e-08,0,0.0004896,5.9004e-05,1.2937e+08,30940,0,1.9116e+08,1479.8,12620,591.1,0,591.1,0,0.00037663,2.0588e-07,0,0.00018832,7.0592e-05,1.4727e+08,69130,0,7.2936e+07,5546.1,591.1,1
2044,2.31,12111,1,12111,1,1.2012e-05,-6.7256e-08,0,0.00032767,-2.2034e-06,-7203.6,-22455,0,1.2838e+08,-716.07,12110,13208,1,13208,1,0.00064564,6.1814e-07,0,0.00064564,0.00011652,2.3936e+08,2.1152e+05,0,2.5272e+08,14678,13207,12110,1,12110,1,1.1997e-05,-4.9613e-08,0,0.00032796,-2.2043e-06,4.6773e+06,-16304,0,1.2967e+08,228.01,12109,11089,1,11089,1,-0.00062133,-5.3097e-07,0,1.1344e-05,-0.00012094,-2.5272e+08,-1.7798e+05,0,4.6294e+06,-13902,11088,11599,1,11599,1,-0.00031584,-2.4328e-07,0,0.00016388,-6.3666e-05,-1.2846e+08,-80774,0,6.5207e+07,-5324.4,11598,12621,1,12621,1,0.0003399,5.6661e-08,0,0.00049176,5.9251e-05,1.2989e+08,18474,0,1.9193e+08,3738.2,12620,591.1,0,591.1,0,0.0003782,2.434e-07,0,0.0001891,7.0887e-05,1.4781e+08,81605,0,7.3198e+07,5969.1,591.1,1
2044,2.32,12111,1,12111,1,1.2237e-05,-8.545e-09,0,0.00032977,-2.2476e-06,8217,-2840.4,0,1.2916e+08,-1884.1,12110,13208,1,13208,1,0.00064932,5.257e-07,0,0.00064932,0.00011715,2.4058e+08,1.7633e+05,0,2.5408e+08,16147,13207,12110,1,12110,1,1.2225e-05,-1.2456e-08,0,0.00032992,-2.2551e-06,4.7643e+06,-3943.8,0,1.3042e+08,-882.99,12109,11089,1,11089,1,-0.00062466,-3.7871e-07,0,1.1279e-05,-0.00012163,-2.5408e+08,-1.2792e+05,0,4.6043e+06,-15944,11088,11599,1,11599,1,-0.00031762,-1.4014e-07,0,0.00016491,-6.4078e-05,-1.2919e+08,-46466,0,6.56e+07,-5675.4,11598,12621,1,12621,1,0.00034211,1.0536e-07,0,0.00049475,5.9589e-05,1.3066e+08,35237,0,1.9302e+08,1920.8,12620,591.1,0,591.1,0,0.00038063,1.9485e-07,0,0.00019033,7.1341e-05,1.4871e+08,65361,0,7.364e+07,5681.8,591.1,1
2044,2.33,12111,1,12111,1,1.24e-05,-6.6631e-08,0,0.00033043,-2.2709e-06,3089.8,-22244,0,1.2936e+08,896.02,12110,13208,1,13208,1,0.00065128,6.3646e-07,0,0.00065128,0.00011744,2.4097e+08,2.1123e+05,0,2.5472e+08,17742,13207,12110,1,12110,1,1.2376e-05,-5.3572e-08,0,0.0003307,-2.2688e-06,4.8243e+06,-17414,0,1.3068e+08,838.81,12109,11089,1,11089,1,-0.00062625,-5.7381e-07,0,1.1172e-05,-0.000122,-2.5472e+08,-1.9214e+05,0,4.5604e+06,-12528,11088,11599,1,11599,1,-0.00031822,-2.472e-07,0,0.00016527,-6.425e-05,-1.2943e+08,-82540,0,6.5726e+07,-4036,11598,12621,1,12621,1,0.00034304,6.7498e-08,0,0.0004959,5.9703e-05,1.3092e+08,22242,0,1.9336e+08,5427,12620,591.1,0,591.1,0,0.00038139,2.5564e-07,0,0.00019072,7.1486e-05,1.4893e+08,85613,0,7.3741e+07,6248.1,591.1,1
2044,2.34,12111,1,12111,1,1.2534e-05,-4.1629e-08,0,0.00033226,-2.298e-06,2971.5,-13899,0,1.3005e+08,-181.71,12110,13208,1,13208,1,0.00065471,5.4223e-07,0,0.00065471,0.00011802,2.4209e+08,1.8103e+05,0,2.5599e+08,22796,13207,12110,1,12110,1,1.2518e-05,-2.8769e-08,0,0.00033248,-2.2993e-06,4.8785e+06,-9414.9,0,1.3136e+08,-37.396,12109,11089,1,11089,1,-0.00062936,-4.5022e-07,0,1.1147e-05,-0.00012264,-2.5599e+08,-1.5182e+05,0,4.5517e+06,-13315,11088,11599,1,11599,1,-0.00031984,-1.9053e-07,0,0.00016615,-6.461e-05,-1.3009e+08,-63391,0,6.6065e+07,-4358.1,11598,12621,1,12621,1,0.00034496,8.2843e-08,0,0.00049856,6.0002e-05,1.316e+08,27345,0,1.9435e+08,4082.8,12620,591.1,0,591.1,0,0.0003835,2.0954e-07,0,0.00019178,7.1879e-05,1.4972e+08,70218,0,7.4134e+07,5538.9,591.1,1
2044,2.35,12111,1,12111,1,1.269e-05,-3.5676e-08,0,0.00033309,-2.3235e-06,-319.19,-11927,0,1.3032e+08,1111.7,12110,13208,1,13208,1,0.0006567,7.8719e-07,0,0.0006567,0.00011834,2.4259e+08,2.6111e+05,0,2.5667e+08,19952,13207,12110,1,12110,1,1.2667e-05,-3.5362e-08,0,0.00033335,-2.3215e-06,4.9361e+06,-11787,0,1.3166e+08,1047.4,12109,11089,1,11089,1,-0.00063104,-6.1041e-07,0,1.1059e-05,-0.00012301,-2.5667e+08,-2.0442e+05,0,4.5153e+06,-14526,11088,11599,1,11599,1,-0.00032056,-2.3777e-07,0,0.00016658,-6.4799e-05,-1.3038e+08,-79659,0,6.6221e+07,-4659.1,11598,12621,1,12621,1,0.00034598,1.2298e-07,0,0.00049985,6.0144e-05,1.319e+08,40622,0,1.9477e+08,6503.5,12620,591.1,0,591.1,0,0.00038445,2.9393e-07,0,0.00019226,7.2062e-05,1.5003e+08,98380,0,7.4278e+07,7181.8,591.1,1
2044,2.36,12111,1,12111,1,1.2871e-05,-3.085e-08,0,0.00033539,-2.3623e-06,5798.4,-10332,0,1.3119e+08,-1225,12110,13208,1,13208,1,0.00066108,6.5739e-07,0,0.00066108,0.0001191,2.4406e+08,2.1937e+05,0,2.5832e+08,21177,13207,12110,1,12110,1,1.285e-05,-2.9359e-08,0,0.0003356,-2.3728e-06,5.0054e+06,-9649.8,0,1.3252e+08,-1139.8,12109,11089,1,11089,1,-0.00063509,-4.2278e-07,0,1.1041e-05,-0.00012383,-2.5832e+08,-1.4275e+05,0,4.5101e+06,-18838,11088,11599,1,11599,1,-0.00032263,-1.8896e-07,0,0.00016771,-6.5255e-05,-1.3123e+08,-62496,0,6.6658e+07,-6089.6,11598,12621,1,12621,1,0.00034841,7.6956e-08,0,0.00050324,6.0516e-05,1.3277e+08,25714,0,1.9603e+08,3002.6,12620,591.1,0,591.1,0,0.00038711,2.2338e-07,0,0.0001936,7.2556e-05,1.5103e+08,74760,0,7.4772e+07,7163.5,591.1,1
2044,2.37,12111,1,12111,1,1.3061e-05,-8.8897e-08,0,0.00033616,-2.394e-06,2697.2,-29658,0,1.3142e+08,89.56,12110,13208,1,13208,1,0.00066323,6.2319e-07,0,0.00066323,0.00011943,2.4455e+08,2.0658e+05,0,2.5902e+08,17150,13207,12110,1,12110,1,1.3035e-05,-7.95e-08,0,0.00033648,-2.3925e-06,5.0774e+06,-25820,0,1.3282e+08,396.18,12109,11089,1,11089,1,-0.00063683,-5.7142e-07,0,1.0912e-05,-0.00012423,-2.5902e+08,-1.9126e+05,0,4.4573e+06,-13703,11088,11599,1,11599,1,-0.00032332,-2.8241e-07,0,0.00016813,-6.5452e-05,-1.315e+08,-93132,0,6.6809e+07,-4770,11598,12621,1,12621,1,0.00034946,4.4354e-08,0,0.00050453,6.0659e-05,1.3306e+08,14846,0,1.9643e+08,4065.7,12620,591.1,0,591.1,0,0.00038801,2.5616e-07,0,0.00019406,7.2725e-05,1.5129e+08,85749,0,7.4897e+07,6323.3,591.1,1
2044,2.38,12111,1,12111,1,1.3184e-05,2.3345e-09,0,0.00033783,-2.419e-06,-4404.3,796.52,0,1.3204e+08,-975.66,12110,13208,1,13208,1,0.00066585,6.8543e-07,0,0.00066585,0.00011993,2.455e+08,2.3454e+05,0,2.6011e+08,14744,13207,12110,1,12110,1,1.3176e-05,-5.2621e-09,0,0.00033798,-2.4367e-06,5.1306e+06,-1802.2,0,1.3341e+08,-592.53,12109,11089,1,11089,1,-0.0006395,-4.4835e-07,0,1.0887e-05,-0.00012472,-2.6011e+08,-1.512e+05,0,4.4484e+06,-26254,11088,11599,1,11599,1,-0.00032476,-1.384e-07,0,0.00016894,-6.5761e-05,-1.3209e+08,-45266,0,6.7118e+07,-5369.1,11598,12621,1,12621,1,0.00035112,1.1644e-07,0,0.0005069,6.0912e-05,1.3366e+08,39017,0,1.973e+08,3827.3,12620,591.1,0,591.1,0,0.00038993,2.247e-07,0,0.00019502,7.3082e-05,1.5201e+08,75331,0,7.5247e+07,6566.7,591.1,1
2044,2.39,12111,1,12111,1,1.3372e-05,-7.8749e-08,0,0.00033916,-2.4514e-06,-891.82,-26218,0,1.3251e+08,-132.58,12110,13208,1,13208,1,0.00066911,6.0268e-07,0,0.00066911,0.00012041,2.4636e+08,2.0449e+05,0,2.6116e+08,22488,13207,12110,1,12110,1,1.3359e-05,-6.3618e-08,0,0.00033945,-2.4555e-06,5.2002e+06,-20680,0,1.3393e+08,310.95,12109,11089,1,11089,1,-0.00064209,-5.1441e-07,0,1.0813e-05,-0.00012533,-2.6116e+08,-1.7212e+05,0,4.4186e+06,-14423,11088,11599,1,11599,1,-0.00032598,-2.3386e-07,0,0.00016963,-6.6065e-05,-1.3259e+08,-76965,0,6.7376e+07,-4819.7,11598,12621,1,12621,1,0.00035276,3.0367e-08,0,0.000509,6.1154e-05,1.3418e+08,9995.8,0,1.9804e+08,3931.6,12620,591.1,0,591.1,0,0.00039146,2.1895e-07,0,0.0001958,7.3371e-05,1.5254e+08,73339,0,7.5508e+07,6648.5,591.1,1
2044,2.4,12111,1,12111,1,1.3575e-05,-3.7532e-08,0,0.00034117,-2.4897e-06,2905.7,-12522,0,1.3325e+08,-604.46,12110,13208,1,13208,1,0.00067298,6.6388e-07,0,0.00067298,0.00012106,2.4754e+08,2.2716e+05,0,2.6257e+08,21356,13207,12110,1,12110,1,1.356e-05,-3.5732e-08,0,0.00034139,-2.495e-06,5.2785e+06,-11926,0,1.3465e+08,-736.98,12109,11089,1,11089,1,-0.00064555,-4.5297e-07,0,1.0734e-05,-0.00012605,-2.6257e+08,-1.525e+05,0,4.3878e+06,-17188,11088,11599,1,11599,1,-0.0003277,-2.0742e-07,0,0.00017059,-6.6468e-05,-1.3329e+08,-68001,0,6.7742e+07,-5525.1,11598,12621,1,12621,1,0.00035491,7.9474e-08,0,0.00051191,6.1468e-05,1.3491e+08,25797,0,1.9908e+08,3219.2,12620,591.1,0,591.1,0,0.00039378,2.3559e-07,0,0.00019697,7.3804e-05,1.5339e+08,78849,0,7.5924e+07,6783.7,591.1,1
2044,2.41,12111,1,12111,1,1.3765e-05,-8.1119e-08,0,0.00034207,-2.5226e-06,2170.6,-27027,0,1.3354e+08,266.68,12110,13208,1,13208,1,0.00067542,7.2681e-07,0,0.00067542,0.00012145,2.4816e+08,2.4557e+05,0,2.634e+08,25310,13207,12110,1,12110,1,1.3744e-05,-6.0884e-08,0,0.0003424,-2.5238e-06,5.3489e+06,-20425,0,1.35e+08,484.71,12109,11089,1,11089,1,-0.00064759,-6.1924e-07,0,1.0628e-05,-0.00012651,-2.634e+08,-2.0702e+05,0,4.3448e+06,-15309,11088,11599,1,11599,1,-0.00032853,-2.9125e-07,0,0.0001711,-6.6694e-05,-1.3362e+08,-95348,0,6.7924e+07,-5126.7,11598,12621,1,12621,1,0.0003561,6.2518e-08,0,0.00051342,6.1638e-05,1.3526e+08,20817,0,1.9957e+08,4975.6,12620,591.1,0,591.1,0,0.00039482,2.8011e-07,0,0.0001975,7.4002e-05,1.5372e+08,93716,0,7.6079e+07,7295.7,591.1,1
2044,2.42,12111,1,12111,1,1.3919e-05,-2.1246e-08,0,0.00034367,-2.5497e-06,3279.9,-7120.1,0,1.3413e+08,751.03,12110,13208,1,13208,1,0.00067819,7.4968e-07,0,0.00067819,0.00012191,2.4899e+08,2.5021e+05,0,2.6442e+08,26765,13207,12110,1,12110,1,1.3902e-05,-2.5577e-08,0,0.0003439,-2.5554e-06,5.4096e+06,-8503.7,0,1.3556e+08,-63.906,12109,11089,1,11089,1,-0.0006501,-4.9007e-07,0,1.0575e-05,-0.00012703,-2.6442e+08,-1.6508e+05,0,4.3244e+06,-15872,11088,11599,1,11599,1,-0.00032987,-1.9476e-07,0,0.00017184,-6.6999e-05,-1.3417e+08,-65263,0,6.8207e+07,-4393.2,11598,12621,1,12621,1,0.00035775,1.0761e-07,0,0.00051566,6.1883e-05,1.3583e+08,35238,0,2.0037e+08,4910.2,12620,591.1,0,591.1,0,0.00039667,2.553e-07,0,0.00019843,7.4347e-05,1.5439e+08,85360,0,7.6413e+07,7543.7,591.1,1
2044,2.43,12111,1,12111,1,1.4101e-05,-2.9211e-08,0,0.00034508,-2.5847e-06,1648.6,-9734.4,0,1.3462e+08,28.877,12110,13208,1,13208,1,0.00068115,7.7463e-07,0,0.00068115,0.0001224,2.4987e+08,2.6179e+05,0,2.6546e+08,24355,13207,12110,1,12110,1,1.4086e-05,-2.9484e-08,0,0.00034533,-2.5866e-06,5.4794e+06,-9635.5,0,1.3609e+08,176.55,12109,11089,1,11089,1,-0.00065266,-5.5166e-07,0,1.0496e-05,-0.00012758,-2.6546e+08,-1.8442e+05,0,4.2929e+06,-14923,11088,11599,1,11599,1,-0.00033112,-2.2063e-07,0,0.00017256,-6.7305e-05,-1.3468e+08,-73445,0,6.8474e+07,-5120,11598,12621,1,12621,1,0.00035937,1.1289e-07,0,0.00051781,6.2123e-05,1.3636e+08,37977,0,2.0113e+08,4863.4,12620,591.1,0,591.1,0,0.0003983,2.7167e-07,0,0.00019925,7.4652e-05,1.5496e+08,90855,0,7.669e+07,6982.3,591.1,1
2044,2.44,12111,1,12111,1,1.4296e-05,-5.1436e-09,0,0.00034693,-2.622e-06,58.96,-1707.1,0,1.353e+08,-629.39,12110,13208,1,13208,1,0.00068455,6.7965e-07,0,0.00068455,0.00012301,2.5095e+08,2.2997e+05,0,2.6677e+08,20488,13207,12110,1,12110,1,1.4285e-05,-1.6461e-08,0,0.00034711,-2.6267e-06,5.5565e+06,-5493.7,0,1.3676e+08,-666.25,12109,11089,1,11089,1,-0.00065588,-4.1163e-07,0,1.0416e-05,-0.00012821,-2.6677e+08,-1.3854e+05,0,4.2623e+06,-20553,11088,11599,1,11599,1,-0.00033274,-1.5543e-07,0,0.00017348,-6.767e-05,-1.3534e+08,-51676,0,6.8823e+07,-5116.2,11598,12621,1,12621,1,0.00036135,9.9969e-08,0,0.00052054,6.2421e-05,1.3703e+08,33388,0,2.021e+08,3604.1,12620,591.1,0,591.1,0,0.00040044,2.2486e-07,0,0.00020033,7.5051e-05,1.5574e+08,75232,0,7.7069e+07,6882.5,591.1,1
2044,2.45,12111,1,12111,1,1.4503e-05,-7.0152e-09,0,0.00034806,-2.6564e-06,4624.2,-2340.7,0,1.3568e+08,950.94,12110,13208,1,13208,1,0.00068702,7.9269e-07,0,0.00068702,0.00012336,2.5156e+08,2.696e+05,0,2.6757e+08,28501,13207,12110,1,12110,1,1.4486e-05,-1.8694e-08,0,0.00034824,-2.6562e-06,5.6339e+06,-5903.8,0,1.3717e+08,337.65,12109,11089,1,11089,1,-0.00065785,-5.1631e-07,0,1.0313e-05,-0.00012868,-2.6757e+08,-1.7238e+05,0,4.2204e+06,-22692,11088,11599,1,11599,1,-0.00033368,-1.8325e-07,0,0.00017407,-6.7942e-05,-1.3572e+08,-59145,0,6.9035e+07,-4909.9,11598,12621,1,12621,1,0.00036269,1.2958e-07,0,0.00052221,6.2615e-05,1.3745e+08,42991,0,2.0266e+08,5561.1,12620,591.1,0,591.1,0,0.00040174,2.6082e-07,0,0.00020099,7.5297e-05,1.5617e+08,87153,0,7.7276e+07,8616.1,591.1,1
2044,2.46,12111,1,12111,1,1.4667e-05,-8.7318e-09,0,0.00034958,-2.6901e-06,1476.7,-2898,0,1.3622e+08,-690.43,12110,13208,1,13208,1,0.00069,6.4396e-07,0,0.00069,0.00012387,2.5247e+08,2.1548e+05,0,2.6866e+08,13361,13207,12110,1,12110,1,1.4656e-05,-1.8745e-08,0,0.00034975,-2.697e-06,5.6975e+06,-6147.7,0,1.3772e+08,-552.03,12109,11089,1,11089,1,-0.00066052,-4.4703e-07,0,1.0257e-05,-0.00012923,-2.6866e+08,-1.5024e+05,0,4.1989e+06,-14964,11088,11599,1,11599,1,-0.000335,-1.5657e-07,0,0.0001748,-6.8234e-05,-1.3626e+08,-52545,0,6.9311e+07,-4500.3,11598,12621,1,12621,1,0.00036436,1.0369e-07,0,0.00052448,6.2841e-05,1.38e+08,33833,0,2.0347e+08,3188.3,12620,591.1,0,591.1,0,0.00040349,2.2331e-07,0,0.00020188,7.5621e-05,1.568e+08,74675,0,7.7586e+07,5263.1,591.1,1
2044,2.47,12111,1,12111,1,1.4838e-05,-4.4051e-08,0,0.00035069,-2.7229e-06,554.41,-14643,0,1.366e+08,-1205.8,12110,13208,1,13208,1,0.00069278,7.2341e-07,0,0.00069278,0.0001243,2.5322e+08,2.4501e+05,0,2.6959e+08,21779,13207,12110,1,12110,1,1.4823e-05,-3.6168e-08,0,0.00035095,-2.7344e-06,5.7613e+06,-11524,0,1.3815e+08,-215.04,12109,11089,1,11089,1,-0.00066281,-5.6812e-07,0,1.0164e-05,-0.00012975,-2.6959e+08,-1.8952e+05,0,4.1615e+06,-23939,11088,11599,1,11599,1,-0.00033601,-2.2137e-07,0,0.00017538,-6.8491e-05,-1.3667e+08,-73916,0,6.9526e+07,-6528.4,11598,12621,1,12621,1,0.00036573,8.3973e-08,0,0.00052625,6.3042e-05,1.3842e+08,27894,0,2.0407e+08,4831.6,12620,591.1,0,591.1,0,0.00040477,2.6161e-07,0,0.00020252,7.5864e-05,1.5723e+08,87401,0,7.7795e+07,7802.3,591.1,1
2044,2.48,12111,1,12111,1,1.5014e-05,-1.3885e-08,0,0.00035272,-2.7529e-06,-5694.4,-4588.4,0,1.3735e+08,-401.57,12110,13208,1,13208,1,0.0006965,5.4844e-07,0,0.0006965,0.00012493,2.5436e+08,1.8777e+05,0,2.7096e+08,17727,13207,12110,1,12110,1,1.4999e-05,-1.1573e-08,0,0.00035292,-2.7597e-06,5.8295e+06,-3719.5,0,1.3888e+08,-412.81,12109,11089,1,11089,1,-0.00066617,-4.5897e-07,0,1.013e-05,-0.00013045,-2.7096e+08,-1.5395e+05,0,4.1487e+06,-15681,11088,11599,1,11599,1,-0.0003378,-1.3943e-07,0,0.00017638,-6.8886e-05,-1.374e+08,-46204,0,6.9907e+07,-4797.5,11598,12621,1,12621,1,0.00036788,8.9e-08,0,0.00052919,6.3376e-05,1.3916e+08,29283,0,2.0513e+08,3788.1,12620,591.1,0,591.1,0,0.00040712,1.9695e-07,0,0.00020371,7.63e-05,1.5809e+08,65836,0,7.822e+07,5990.6,591.1,1
2044,2.49,12111,1,12111,1,1.5237e-05,-9.5419e-08,0,0.00035382,-2.7939e-06,-1829.5,-31717,0,1.3771e+08,-330.62,12110,13208,1,13208,1,0.00069942,5.0018e-07,0,0.00069942,0.0001254,2.5514e+08,1.699e+05,0,2.7197e+08,15584,13207,12110,1,12110,1,1.5219e-05,-6.5587e-08,0,0.00035415,-2.8044e-06,5.914e+06,-21337,0,1.3932e+08,118.57,12109,11089,1,11089,1,-0.00066866,-5.7219e-07,0,9.9883e-06,-0.000131,-2.7197e+08,-1.9107e+05,0,4.0916e+06,-20428,11088,11599,1,11599,1,-0.0003388,-2.4886e-07,0,0.00017696,-6.9161e-05,-1.378e+08,-83293,0,7.012e+07,-4793.1,11598,12621,1,12621,1,0.00036931,2.8762e-08,0,0.00053102,6.3563e-05,1.396e+08,9359.7,0,2.0574e+08,4735.9,12620,591.1,0,591.1,0,0.00040839,2.2104e-07,0,0.00020436,7.654e-05,1.585e+08,73878,0,7.8416e+07,6362.3,591.1,1
2044,2.5,12111,1,12111,1,1.5407e-05,-2.0384e-08,0,0.00035551,-2.8224e-06,-6340.7,-6750.3,0,1.3833e+08,681.81,12110,13208,1,13208,1,0.00070251,5.9962e-07,0,0.00070251,0.00012591,2.5603e+08,2.0387e+05,0,2.7309e+08,21371,13207,12110,1,12110,1,1.5386e-05,-1.5524e-08,0,0.00035574,-2.8311e-06,5.9776e+06,-5033.2,0,1.399e+08,342.9,12109,11089,1,11089,1,-0.00067141,-5.2232e-07,0,9.9446e-06,-0.00013157,-2.7309e+08,-1.7361e+05,0,4.0748e+06,-11640,11088,11599,1,11599,1,-0.00034022,-1.707e-07,0,0.00017779,-6.9492e-05,-1.3838e+08,-57087,0,7.0433e+07,-4025.5,11598,12621,1,12621,1,0.0003711,1.0986e-07,0,0.00053343,6.3825e-05,1.4019e+08,35766,0,2.0658e+08,5274,12620,591.1,0,591.1,0,0.00041033,2.2991e-07,0,0.00020534,7.6903e-05,1.5921e+08,76682,0,7.8761e+07,5876.5,591.1,1
2044,2.51,12111,1,12111,1,1.5611e-05,-4.2767e-08,0,0.00035658,-2.8654e-06,-1579.4,-14235,0,1.3868e+08,-1537.8,12110,13208,1,13208,1,0.00070497,5.7673e-07,0,0.00070497,0.0001263,2.5668e+08,1.9749e+05,0,2.7393e+08,11960,13207,12110,1,12110,1,1.5603e-05,-2.3543e-08,0,0.00035687,-2.8745e-06,6.0599e+06,-7651.7,0,1.4031e+08,-1270.8,12109,11089,1,11089,1,-0.00067347,-5.8323e-07,0,9.7932e-06,-0.00013203,-2.7393e+08,-1.9471e+05,0,4.0149e+06,-15933,11088,11599,1,11599,1,-0.00034114,-1.9818e-07,0,0.00017832,-6.9741e-05,-1.3875e+08,-66655,0,7.0624e+07,-6525.4,11598,12621,1,12621,1,0.00037242,9.2788e-08,0,0.00053511,6.3998e-05,1.406e+08,31069,0,2.0715e+08,3488,12620,591.1,0,591.1,0,0.00041157,2.4498e-07,0,0.00020597,7.7135e-05,1.5962e+08,81826,0,7.8958e+07,6167.6,591.1,1
2044,2.52,12111,1,12111,1,1.5774e-05,-1.4407e-08,0,0.00035826,-2.8903e-06,-8526.1,-4733.8,0,1.393e+08,396.32,12110,13208,1,13208,1,0.00070836,7.0742e-07,0,0.00070836,0.00012687,2.5771e+08,2.3981e+05,0,2.7517e+08,18972,13207,12110,1,12110,1,1.575e-05,-1.6041e-08,0,0.00035852,-2.8975e-06,6.1159e+06,-4977.2,0,1.4092e+08,457.47,12109,11089,1,11089,1,-0.00067652,-5.7132e-07,0,9.7861e-06,-0.00013266,-2.7517e+08,-1.8979e+05,0,4.0117e+06,-15636,11088,11599,1,11599,1,-0.00034264,-1.8512e-07,0,0.00017918,-7.0075e-05,-1.3936e+08,-61368,0,7.0948e+07,-4796.1,11598,12621,1,12621,1,0.00037424,1.2195e-07,0,0.0005376,6.4284e-05,1.412e+08,40675,0,2.0804e+08,6162.1,12620,591.1,0,591.1,0,0.00041351,2.6703e-07,0,0.00020695,7.7499e-05,1.6032e+08,89060,0,7.9301e+07,6772.3,591.1,1
2044,2.53,12111,1,12111,1,1.5975e-05,-1.1158e-08,0,0.00035938,-2.9315e-06,-6506.8,-3731.5,0,1.3967e+08,-1355.4,12110,13208,1,13208,1,0.0007105,6.1816e-07,0,0.0007105,0.00012719,2.5822e+08,2.1168e+05,0,2.7587e+08,11818,13207,12110,1,12110,1,1.5971e-05,-5.3253e-09,0,0.00035962,-2.9427e-06,6.2005e+06,-1708.5,0,1.4131e+08,-1452.5,12109,11089,1,11089,1,-0.00067824,-5.655e-07,0,9.6206e-06,-0.00013307,-2.7587e+08,-1.8883e+05,0,3.9468e+06,-15069,11088,11599,1,11599,1,-0.00034352,-1.6546e-07,0,0.00017971,-7.0323e-05,-1.3972e+08,-55019,0,7.114e+07,-6331.2,11598,12621,1,12621,1,0.00037554,1.3187e-07,0,0.00053923,6.4447e-05,1.416e+08,43040,0,2.0857e+08,3698.3,12620,591.1,0,591.1,0,0.0004148,2.4638e-07,0,0.0002076,7.7739e-05,1.6074e+08,82272,0,7.9508e+07,6198.1,591.1,1
2044,2.54,12111,1,12111,1,1.6191e-05,1.4824e-09,0,0.00036119,-2.9693e-06,2850.5,503.86,0,1.4033e+08,-575.33,12110,13208,1,13208,1,0.00071421,7.4463e-07,0,0.00071421,0.00012783,2.5942e+08,2.5163e+05,0,2.7724e+08,17099,13207,12110,1,12110,1,1.6175e-05,-9.8497e-09,0,0.00036141,-2.9775e-06,6.2789e+06,-3210.9,0,1.4198e+08,-179.05,12109,11089,1,11089,1,-0.00068161,-5.2487e-07,0,9.5619e-06,-0.00013376,-2.7724e+08,-1.7555e+05,0,3.9237e+06,-16243,11088,11599,1,11599,1,-0.00034512,-1.6544e-07,0,0.00018063,-7.0694e-05,-1.4037e+08,-55369,0,7.1483e+07,-5572.8,11598,12621,1,12621,1,0.00037754,1.3031e-07,0,0.00054194,6.4747e-05,1.4228e+08,43057,0,2.0955e+08,5062.8,12620,591.1,0,591.1,0,0.0004169,2.6371e-07,0,0.00020866,7.8132e-05,1.615e+08,87962,0,7.9879e+07,6569,591.1,1
2044,2.55,12111,1,12111,1,1.6394e-05,-3.6275e-08,0,0.00036246,-3.0037e-06,-2722.4,-12027,0,1.4076e+08,563.92,12110,13208,1,13208,1,0.0007169,5.5721e-07,0,0.0007169,0.00012824,2.6006e+08,1.8501e+05,0,2.7813e+08,16063,13207,12110,1,12110,1,1.6381e-05,-2.1866e-08,0,0.00036272,-3.0091e-06,6.3588e+06,-7130.4,0,1.4244e+08,531.91,12109,11089,1,11089,1,-0.00068381,-5.208e-07,0,9.433e-06,-0.00013426,-2.7813e+08,-1.7365e+05,0,3.873e+06,-14350,11088,11599,1,11599,1,-0.00034622,-1.6939e-07,0,0.00018125,-7.0974e-05,-1.4082e+08,-56631,0,7.1716e+07,-3920.8,11598,12621,1,12621,1,0.00037905,7.576e-08,0,0.00054389,6.4953e-05,1.4274e+08,24613,0,2.102e+08,5196.7,12620,591.1,0,591.1,0,0.00041836,2.1615e-07,0,0.00020941,7.8405e-05,1.6199e+08,72180,0,8.0115e+07,5684.5,591.1,1
2044,2.56,12111,1,12111,1,1.6619e-05,-3.6454e-09,0,0.00036423,-3.0477e-06,5063.8,-1200.5,0,1.4139e+08,-503.2,12110,13208,1,13208,1,0.00072039,6.6002e-07,0,0.00072039,0.00012883,2.6115e+08,2.2311e+05,0,2.794e+08,14569,13207,12110,1,12110,1,1.6606e-05,-1.2816e-08,0,0.00036444,-3.0563e-06,6.4439e+06,-4137.1,0,1.4308e+08,-220.74,12109,11089,1,11089,1,-0.00068693,-5.0288e-07,0,9.3451e-06,-0.00013491,-2.794e+08,-1.6809e+05,0,3.838e+06,-14825,11088,11599,1,11599,1,-0.00034773,-1.5705e-07,0,0.00018214,-7.1339e-05,-1.4143e+08,-51820,0,7.2046e+07,-5288.9,11598,12621,1,12621,1,0.000381,1.1854e-07,0,0.00054648,6.5235e-05,1.4339e+08,39531,0,2.1112e+08,4728.2,12620,591.1,0,591.1,0,0.0004204,2.4106e-07,0,0.00021044,7.8788e-05,1.6272e+08,80366,0,8.0473e+07,6171,591.1,1
2044,2.57,12111,1,12111,1,1.6835e-05,-4.0045e-08,0,0.00036556,-3.0852e-06,2686.2,-13286,0,1.4184e+08,281.12,12110,13208,1,13208,1,0.00072333,5.5439e-07,0,0.00072333,0.00012928,2.6188e+08,1.8395e+05,0,2.804e+08,15833,13207,12110,1,12110,1,1.6824e-05,-2.2642e-08,0,0.00036583,-3.0906e-06,6.5276e+06,-7414.3,0,1.4357e+08,213.77,12109,11089,1,11089,1,-0.00068937,-5.4943e-07,0,9.213e-06,-0.00013546,-2.804e+08,-1.8379e+05,0,3.7861e+06,-14318,11088,11599,1,11599,1,-0.00034888,-1.7424e-07,0,0.0001828,-7.1643e-05,-1.419e+08,-58427,0,7.2291e+07,-4560.2,11598,12621,1,12621,1,0.0003826,7.44e-08,0,0.00054856,6.5452e-05,1.4388e+08,24565,0,2.1181e+08,5107.8,12620,591.1,0,591.1,0,0.00042193,2.2032e-07,0,0.00021122,7.9074e-05,1.6323e+08,73544,0,8.0721e+07,5807.8,591.1,1
2044,2.58,12111,1,12111,1,1.7041e-05,-1.5161e-08,0,0.00036707,-3.1257e-06,3922,-5024,0,1.4238e+08,-805.75,12110,13208,1,13208,1,0.00072637,6.691e-07,0,0.00072637,0.00012977,2.6272e+08,2.261e+05,0,2.8145e+08,15483,13207,12110,1,12110,1,1.7026e-05,-1.8617e-08,0,0.00036731,-3.1342e-06,6.604e+06,-5855.7,0,1.4411e+08,-625.5,12109,11089,1,11089,1,-0.00069197,-5.6262e-07,0,9.1262e-06,-0.00013603,-2.8145e+08,-1.8798e+05,0,3.7515e+06,-16025,11088,11599,1,11599,1,-0.00035015,-1.7237e-07,0,0.00018356,-7.1957e-05,-1.4242e+08,-56847,0,7.2568e+07,-5833.5,11598,12621,1,12621,1,0.00038429,1.1034e-07,0,0.00055075,6.5693e-05,1.4442e+08,36258,0,2.1257e+08,4793.4,12620,591.1,0,591.1,0,0.00042368,2.5063e-07,0,0.0002121,7.9401e-05,1.6384e+08,83520,0,8.1019e+07,6416.9,591.1,1
2044,2.59,12111,1,12111,1,1.7233e-05,-1.5778e-08,0,0.00036845,-3.1586e-06,-1729.5,-5237.3,0,1.4285e+08,113.09,12110,13208,1,13208,1,0.00072916,5.9272e-07,0,0.00072916,0.00013022,2.6348e+08,1.9656e+05,0,2.8244e+08,13929,13207,12110,1,12110,1,1.7224e-05,-1.2474e-08,0,0.00036868,-3.1657e-06,6.6799e+06,-4068.7,0,1.446e+08,89.148,12109,11089,1,11089,1,-0.0006944,-5.3275e-07,0,9.0126e-06,-0.00013655,-2.8244e+08,-1.7828e+05,0,3.7071e+06,-14260,11088,11599,1,11599,1,-0.00035133,-1.5202e-07,0,0.00018425,-7.2252e-05,-1.429e+08,-50367,0,7.2823e+07,-4792.3,11598,12621,1,12621,1,0.00038586,1.0296e-07,0,0.00055284,6.5915e-05,1.4492e+08,34034,0,2.1327e+08,5085.1,12620,591.1,0,591.1,0,0.00042528,2.2707e-07,0,0.00021291,7.97e-05,1.6439e+08,75763,0,8.1286e+07,5747.2,591.1,1
2044,2.6,12111,1,12111,1,1.7452e-05,-1.1129e-08,0,0.00036999,-3.2002e-06,1898.1,-3693.7,0,1.434e+08,-443.7,12110,13208,1,13208,1,0.00073249,5.7874e-07,0,0.00073249,0.00013077,2.6443e+08,1.9616e+05,0,2.8362e+08,12314,13207,12110,1,12110,1,1.7436e-05,-1.6882e-10,0,0.00037024,-3.2097e-06,6.7598e+06,-47.86,0,1.4517e+08,-649.23,12109,11089,1,11089,1,-0.0006973,-5.7196e-07,0,8.9326e-06,-0.00013717,-2.8362e+08,-1.9101e+05,0,3.6753e+06,-12396,11088,11599,1,11599,1,-0.00035268,-1.5513e-07,0,0.00018503,-7.2581e-05,-1.4345e+08,-51183,0,7.3114e+07,-5454.6,11598,12621,1,12621,1,0.00038763,1.2596e-07,0,0.00055516,6.6169e-05,1.4549e+08,41239,0,2.1408e+08,4576.5,12620,591.1,0,591.1,0,0.00042705,2.383e-07,0,0.00021382,8.0032e-05,1.6501e+08,79375,0,8.1588e+07,5895.7,591.1,1
2044,2.61,12111,1,12111,1,1.7662e-05,1.1089e-08,0,0.00037118,-3.2372e-06,4362.2,3649.2,0,1.4379e+08,168.16,12110,13208,1,13208,1,0.00073483,6.9662e-07,0,0.00073483,0.00013116,2.6507e+08,2.3089e+05,0,2.8447e+08,15092,13207,12110,1,12110,1,1.7654e-05,2.0383e-09,0,0.00037139,-3.2436e-06,6.8441e+06,651.91,0,1.4558e+08,93.107,12109,11089,1,11089,1,-0.00069938,-5.6382e-07,0,8.779e-06,-0.00013761,-2.8447e+08,-1.8861e+05,0,3.6147e+06,-13680,11088,11599,1,11599,1,-0.00035364,-1.507e-07,0,0.00018563,-7.2841e-05,-1.4384e+08,-50732,0,7.3331e+07,-5492.2,11598,12621,1,12621,1,0.000389,1.5851e-07,0,0.00055692,6.6355e-05,1.4591e+08,51532,0,2.1466e+08,5720.2,12620,591.1,0,591.1,0,0.00042842,2.6066e-07,0,0.00021451,8.0289e-05,1.6547e+08,86889,0,8.1808e+07,6436.3,591.1,1
2044,2.62,12111,1,12111,1,1.7863e-05,-5.1192e-09,0,0.00037274,-3.2766e-06,4792.5,-1687.6,0,1.4435e+08,-880.34,12110,13208,1,13208,1,0.00073805,5.6206e-07,0,0.00073805,0.00013166,2.6595e+08,1.909e+05,0,2.8555e+08,11948,13207,12110,1,12110,1,1.785e-05,1.3574e-09,0,0.00037296,-3.2867e-06,6.9167e+06,445.05,0,1.4615e+08,-1102.5,12109,11089,1,11089,1,-0.00070204,-5.7462e-07,0,8.7117e-06,-0.00013821,-2.8555e+08,-1.9189e+05,0,3.5883e+06,-12741,11088,11599,1,11599,1,-0.00035499,-1.4286e-07,0,0.00018638,-7.3166e-05,-1.4438e+08,-47228,0,7.361e+07,-5943.3,11598,12621,1,12621,1,0.00039076,1.3317e-07,0,0.00055923,6.6603e-05,1.4647e+08,43930,0,2.1547e+08,3938.9,12620,591.1,0,591.1,0,0.00043022,2.3315e-07,0,0.00021543,8.0625e-05,1.661e+08,77652,0,8.212e+07,5845.7,591.1,1
2044,2.63,12111,1,12111,1,1.8067e-05,-5.6683e-08,0,0.00037395,-3.3125e-06,3610.9,-18783,0,1.4475e+08,-228.37,12110,13208,1,13208,1,0.00074103,6.1913e-07,0,0.00074103,0.00013214,2.6675e+08,2.0509e+05,0,2.8659e+08,16320,13207,12110,1,12110,1,1.8054e-05,-3.3864e-08,0,0.00037428,-3.3195e-06,6.9955e+06,-11282,0,1.4662e+08,-314.4,12109,11089,1,11089,1,-0.00070459,-6.2662e-07,0,8.5822e-06,-0.00013877,-2.8659e+08,-2.0938e+05,0,3.5368e+06,-13327,11088,11599,1,11599,1,-0.00035608,-2.2758e-07,0,0.00018701,-7.345e-05,-1.4483e+08,-74616,0,7.3842e+07,-5884.1,11598,12621,1,12621,1,0.00039227,8.1813e-08,0,0.00056119,6.6804e-05,1.4694e+08,27550,0,2.1613e+08,5133.4,12620,591.1,0,591.1,0,0.00043161,2.5896e-07,0,0.00021613,8.0887e-05,1.6657e+08,86297,0,8.2344e+07,6324.5,591.1,1
2044,2.64,12111,1,12111,1,1.8279e-05,3.9484e-08,0,0.00037562,-3.3529e-06,4391.5,13050,0,1.4535e+08,-890.73,12110,13208,1,13208,1,0.0007442,6.6699e-07,0,0.0007442,0.0001327,2.6778e+08,2.2531e+05,0,2.878e+08,13096,13207,12110,1,12110,1,1.8274e-05,1.5394e-08,0,0.00037582,-3.3646e-06,7.0785e+06,5144.2,0,1.4722e+08,-1146.4,12109,11089,1,11089,1,-0.00070759,-5.3998e-07,0,8.484e-06,-0.00013937,-2.878e+08,-1.8038e+05,0,3.4985e+06,-14722,11088,11599,1,11599,1,-0.00035752,-1.1367e-07,0,0.00018787,-7.3777e-05,-1.4541e+08,-37380,0,7.4157e+07,-6191.4,11598,12621,1,12621,1,0.00039405,1.9653e-07,0,0.00056368,6.7066e-05,1.4755e+08,65052,0,2.17e+08,4166.3,12620,591.1,0,591.1,0,0.00043355,2.5011e-07,0,0.00021711,8.1248e-05,1.6725e+08,83249,0,8.2679e+07,6240.4,591.1,1
2044,2.65,12111,1,12111,1,1.8486e-05,-7.578e-08,0,0.00037666,-3.3905e-06,2137.6,-25072,0,1.4569e+08,-734.56,12110,13208,1,13208,1,0.00074677,6.0446e-07,0,0.00074677,0.00013306,2.683e+08,2.0674e+05,0,2.8859e+08,14583,13207,12110,1,12110,1,1.8467e-05,-4.1851e-08,0,0.00037701,-3.4008e-06,7.1521e+06,-13804,0,1.476e+08,-882.37,12109,11089,1,11089,1,-0.00070952,-6.2585e-07,0,8.363e-06,-0.00013984,-2.8859e+08,-2.0904e+05,0,3.4508e+06,-13685,11088,11599,1,11599,1,-0.0003584,-2.303e-07,0,0.00018838,-7.4036e-05,-1.4577e+08,-74828,0,7.4345e+07,-6128.1,11598,12621,1,12621,1,0.00039542,4.7649e-08,0,0.00056531,6.7238e-05,1.4793e+08,15551,0,2.1752e+08,4346.4,12620,591.1,0,591.1,0,0.00043475,2.4283e-07,0,0.00021773,8.1474e-05,1.6764e+08,80954,0,8.2864e+07,6211,591.1,1
2044,2.66,12111,1,12111,1,1.8683e-05,-3.6453e-09,0,0.00037824,-3.4221e-06,3214.1,-1190.3,0,1.4625e+08,1100.4,12110,13208,1,13208,1,0.00074964,7.3931e-07,0,0.00074964,0.00013352,2.6915e+08,2.5193e+05,0,2.8957e+08,16924,13207,12110,1,12110,1,1.8669e-05,-1.3193e-08,0,0.00037848,-3.4276e-06,7.2298e+06,-4116,0,1.4813e+08,967.47,12109,11089,1,11089,1,-0.00071194,-5.6616e-07,0,8.2686e-06,-0.00014038,-2.8957e+08,-1.8907e+05,0,3.4129e+06,-13107,11088,11599,1,11599,1,-0.00035967,-1.7506e-07,0,0.00018915,-7.4344e-05,-1.4629e+08,-57128,0,7.4628e+07,-4624.9,11598,12621,1,12621,1,0.00039711,1.3501e-07,0,0.00056749,6.748e-05,1.4847e+08,44165,0,2.1829e+08,6534.3,12620,591.1,0,591.1,0,0.00043657,2.6752e-07,0,0.00021865,8.1815e-05,1.6828e+08,89070,0,8.318e+07,6379.6,591.1,1
2044,2.67,12111,1,12111,1,1.89e-05,-5.5238e-09,0,0.00037969,-3.4658e-06,-850.78,-1847.9,0,1.4675e+08,-527.56,12110,13208,1,13208,1,0.0007525,6.7968e-07,0,0.0007525,0.00013397,2.6984e+08,2.3246e+05,0,2.9056e+08,13451,13207,12110,1,12110,1,1.8889e-05,-4.2481e-09,0,0.00037992,-3.477e-06,7.3123e+06,-1364.6,0,1.4865e+08,-594.07,12109,11089,1,11089,1,-0.00071438,-5.4817e-07,0,8.1459e-06,-0.00014091,-2.9056e+08,-1.8327e+05,0,3.3659e+06,-13809,11088,11599,1,11599,1,-0.0003609,-1.4124e-07,0,0.00018986,-7.4661e-05,-1.4679e+08,-46990,0,7.4887e+07,-5765.6,11598,12621,1,12621,1,0.00039877,1.1331e-07,0,0.00056969,6.7711e-05,1.4899e+08,37223,0,2.1901e+08,4793.1,12620,591.1,0,591.1,0,0.00043824,2.3267e-07,0,0.0002195,8.2126e-05,1.6885e+08,77556,0,8.3456e+07,6048.2,591.1,1
2044,2.68,12111,1,12111,1,1.9123e-05,-5.6859e-09,0,0.00038107,-3.5021e-06,-64.594,-1832.4,0,1.4722e+08,1368.3,12110,13208,1,13208,1,0.00075558,7.6122e-07,0,0.00075558,0.00013446,2.7069e+08,2.5932e+05,0,2.9163e+08,16790,13207,12110,1,12110,1,1.9103e-05,-1.2817e-08,0,0.00038131,-3.5067e-06,7.3936e+06,-3911.4,0,1.4914e+08,1219.4,12109,11089,1,11089,1,-0.00071699,-6.1392e-07,0,8.0484e-06,-0.00014148,-2.9163e+08,-2.0475e+05,0,3.3265e+06,-12810,11088,11599,1,11599,1,-0.00036206,-1.8268e-07,0,0.00019056,-7.4955e-05,-1.4726e+08,-60398,0,7.5142e+07,-4694,11598,12621,1,12621,1,0.00040038,1.4264e-07,0,0.00057175,6.7934e-05,1.4948e+08,47294,0,2.1971e+08,7248.4,12620,591.1,0,591.1,0,0.00043984,2.8094e-07,0,0.00022031,8.2426e-05,1.6939e+08,93477,0,8.3718e+07,6721.5,591.1,1
2044,2.69,12111,1,12111,1,1.9856e-05,-2.1716e-09,0,0.00038475,-3.6391e-06,-188.59,-728.07,0,1.4842e+08,-1496.3,12110,13208,1,13208,1,0.00076214,3.1721e-08,0,0.00076214,0.00013546,2.724e+08,10113,0,2.9378e+08,142.85,13207,12110,1,12110,1,1.9876e-05,-2.5051e-09,0,0.00038483,-3.6547e-06,7.6458e+06,-837.91,0,1.5032e+08,-1331.3,12109,11089,1,11089,1,-0.00072227,-4.0938e-08,0,7.5486e-06,-0.00014272,-2.9378e+08,-12701,0,3.1374e+06,-4066.3,11088,11599,1,11599,1,-0.00036489,-1.251e-08,0,0.00019235,-7.5741e-05,-1.4842e+08,-4175.8,0,7.5688e+07,-2358.9,11598,12621,1,12621,1,0.00040465,8.134e-09,0,0.0005771,6.845e-05,1.5064e+08,2681.7,0,2.2148e+08,-468.92,12620,591.1,0,591.1,0,0.00044409,1.5027e-08,0,0.00022251,8.3216e-05,1.7079e+08,4897.4,0,8.4449e+07,1136.4,591.1,1
2044,2.7,12111,1,12111,1,2.032e-05,-3.7728e-10,0,0.00038642,-3.7214e-06,-72.546,-127.64,0,1.4891e+08,-287.45,12110,13208,1,13208,1,0.00076562,6.1543e-09,0,0.00076562,0.00013596,2.7301e+08,2082.7,0,2.9487e+08,53.114,13207,12110,1,12110,1,2.0322e-05,-3.5729e-10,0,0.00038644,-3.733e-06,7.8155e+06,-117.74,0,1.5085e+08,-240.76,12109,11089,1,11089,1,-0.00072495,-7.4788e-09,0,7.2643e-06,-0.00014336,-2.9487e+08,-2337.3,0,3.0249e+06,-937.87,11088,11599,1,11599,1,-0.0003661,-2.704e-09,0,0.0001932,-7.6129e-05,-1.4891e+08,-897.83,0,7.5974e+07,-432.67,11598,12621,1,12621,1,0.00040675,1.6762e-09,0,0.00057963,6.868e-05,1.5118e+08,548.66,0,2.2219e+08,-73.294,12620,591.1,0,591.1,0,0.00044603,2.9939e-09,0,0.00022351,8.3577e-05,1.7135e+08,979.58,0,8.4713e+07,240.41,591.1,1
2044,2.71,12111,1,12111,1,2.0622e-05,-1.3029e-09,0,0.00038793,-3.776e-06,158.33,-429.82,0,1.494e+08,-70.617,12110,13208,1,13208,1,0.00076879,1.9145e-09,0,0.00076879,0.00013645,2.7377e+08,655.64,0,2.9592e+08,105.58,13207,12110,1,12110,1,2.0622e-05,-1.2659e-09,0,0.00038793,-3.7872e-06,7.9248e+06,-404.58,0,1.5136e+08,-54.791,12109,11089,1,11089,1,-0.00072754,-4.0228e-09,0,7.084e-06,-0.00014396,-2.9592e+08,-1354.5,0,2.9544e+06,-288.32,11088,11599,1,11599,1,-0.0003673,-2.4152e-09,0,0.00019396,-7.6465e-05,-1.494e+08,-795.04,0,7.6233e+07,-105.39,11598,12621,1,12621,1,0.00040855,-1.6339e-10,0,0.00058189,6.8906e-05,1.5169e+08,-54.489,0,2.2291e+08,-18.508,12620,591.1,0,591.1,0,0.00044776,1.3884e-09,0,0.0002244,8.3901e-05,1.7191e+08,465.92,0,8.4987e+07,71.23,591.1,1
2044,2.72,12111,1,12111,1,2.0869e-05,2.7814e-10,0,0.00038938,-3.8211e-06,139.6,90.402,0,1.4989e+08,-15.459,12110,13208,1,13208,1,0.00077184,5.5467e-09,0,0.00077184,0.00013693,2.7456e+08,1898.5,0,2.9696e+08,160.59,13207,12110,1,12110,1,2.0869e-05,2.1913e-10,0,0.00038939,-3.8325e-06,8.0176e+06,73.067,0,1.5187e+08,-18.821,12109,11089,1,11089,1,-0.0007301,-3.9335e-09,0,6.9425e-06,-0.00014452,-2.9696e+08,-1313.9,0,2.899e+06,-205.25,11088,11599,1,11599,1,-0.00036852,-9.7983e-10,0,0.00019469,-7.6783e-05,-1.4989e+08,-321.74,0,7.6496e+07,-64.514,11598,12621,1,12621,1,0.00041026,1.3776e-09,0,0.00058408,6.9134e-05,1.5221e+08,447.61,0,2.2364e+08,34.025,12620,591.1,0,591.1,0,0.00044945,2.1086e-09,0,0.00022526,8.4216e-05,1.7248e+08,699.37,0,8.5262e+07,72.825,591.1,1
2044,2.73,12111,1,12111,1,2.1111e-05,-3.5986e-10,0,0.00039084,-3.8654e-06,24.161,-118.93,0,1.5039e+08,-14.295,12110,13208,1,13208,1,0.00077489,1.0024e-09,0,0.00077489,0.00013741,2.7535e+08,343.23,0,2.98e+08,52.164,13207,12110,1,12110,1,2.1111e-05,-2.3179e-10,0,0.00039085,-3.8773e-06,8.1083e+06,-76.862,0,1.5239e+08,-14.604,12109,11089,1,11089,1,-0.00073267,-1.8646e-09,0,6.8058e-06,-0.00014509,-2.98e+08,-632.81,0,2.8455e+06,-93.413,11088,11599,1,11599,1,-0.00036973,-7.0629e-10,0,0.00019542,-7.71e-05,-1.5038e+08,-232.38,0,7.676e+07,-34.361,11598,12621,1,12621,1,0.00041196,4.142e-11,0,0.00058627,6.9363e-05,1.5273e+08,13.042,0,2.2437e+08,5.4406,12620,591.1,0,591.1,0,0.00045113,6.0005e-10,0,0.00022612,8.4531e-05,1.7305e+08,200.31,0,8.5538e+07,28.776,591.1,1
2044,2.74,12111,1,12111,1,2.1353e-05,-7.9999e-10,0,0.0003923,-3.9098e-06,38.765,-263.82,0,1.5088e+08,-8.477,12110,13208,1,13208,1,0.00077794,2.1588e-09,0,0.00077794,0.00013789,2.7614e+08,717.99,0,2.9905e+08,96.728,13207,12110,1,12110,1,2.1353e-05,-5.7086e-10,0,0.0003923,-3.9221e-06,8.1993e+06,-182.54,0,1.529e+08,-15.084,12109,11089,1,11089,1,-0.00073524,-3.8474e-09,0,6.6675e-06,-0.00014566,-2.9905e+08,-1263.9,0,2.7914e+06,-127.92,11088,11599,1,11599,1,-0.00037095,-1.8438e-09,0,0.00019615,-7.7416e-05,-1.5088e+08,-607.17,0,7.7023e+07,-39.082,11598,12621,1,12621,1,0.00041365,1.9131e-10,0,0.00058845,6.959e-05,1.5325e+08,63.531,0,2.2509e+08,24.346,12620,591.1,0,591.1,0,0.00045281,1.3883e-09,0,0.00022698,8.4845e-05,1.7361e+08,458.89,0,8.5813e+07,43.354,591.1,1
2044,2.75,12111,1,12111,1,2.1597e-05,-1.1545e-09,0,0.00039374,-3.9544e-06,6.6204,-380.64,0,1.5137e+08,-15.455,12110,13208,1,13208,1,0.00078099,3.9966e-09,0,0.00078099,0.00013837,2.7693e+08,1321,0,3.0009e+08,165.63,13207,12110,1,12110,1,2.1596e-05,-8.319e-10,0,0.00039375,-3.9672e-06,8.2906e+06,-269.01,0,1.5342e+08,-22.022,12109,11089,1,11089,1,-0.00073779,-6.055e-09,0,6.5271e-06,-0.00014623,-3.0009e+08,-1988.4,0,2.7365e+06,-212.57,11088,11599,1,11599,1,-0.00037215,-2.7667e-09,0,0.00019687,-7.7732e-05,-1.5137e+08,-907.46,0,7.7284e+07,-59.737,11598,12621,1,12621,1,0.00041534,3.6643e-10,0,0.00059062,6.9816e-05,1.5376e+08,120.79,0,2.2582e+08,38.638,12620,591.1,0,591.1,0,0.00045448,2.2713e-09,0,0.00022783,8.5157e-05,1.7417e+08,750.65,0,8.6086e+07,72.22,591.1,1
2044,2.76,12111,1,12111,1,2.1843e-05,-2.1352e-09,0,0.00039521,-3.9996e-06,189.89,-704.2,0,1.5187e+08,-33.035,12110,13208,1,13208,1,0.00078406,8.7247e-10,0,0.00078406,0.00013885,2.7772e+08,298.83,0,3.0114e+08,108.91,13207,12110,1,12110,1,2.1843e-05,-2.1117e-09,0,0.00039521,-4.0127e-06,8.383e+06,-697.53,0,1.5393e+08,-23.953,12109,11089,1,11089,1,-0.00074037,-5.3765e-09,0,6.3849e-06,-0.00014681,-3.0114e+08,-1764.9,0,2.6809e+06,-237.59,11088,11599,1,11599,1,-0.00037336,-3.5363e-09,0,0.0001976,-7.805e-05,-1.5186e+08,-1166.1,0,7.7547e+07,-56.901,11598,12621,1,12621,1,0.00041705,-8.4488e-10,0,0.00059281,7.0044e-05,1.5428e+08,-269.64,0,2.2654e+08,9.5694,12620,591.1,0,591.1,0,0.00045617,1.6173e-09,0,0.00022869,8.5473e-05,1.7474e+08,537.18,0,8.6362e+07,62.279,591.1,1
2044,2.77,12111,1,12111,1,2.2091e-05,-7.5938e-10,0,0.00039666,-4.0449e-06,91.005,-252.55,0,1.5236e+08,-9.2953,12110,13208,1,13208,1,0.0007871,3.3394e-09,0,0.0007871,0.00013933,2.785e+08,1105.3,0,3.0217e+08,130.69,13207,12110,1,12110,1,2.2091e-05,-3.9247e-10,0,0.00039666,-4.0587e-06,8.4762e+06,-129.82,0,1.5444e+08,-14.34,12109,11089,1,11089,1,-0.00074292,-4.9981e-09,0,6.24e-06,-0.00014737,-3.0217e+08,-1640.1,0,2.6243e+06,-190.64,11088,11599,1,11599,1,-0.00037457,-2.0985e-09,0,0.00019833,-7.8367e-05,-1.5235e+08,-697.61,0,7.7809e+07,-53.731,11598,12621,1,12621,1,0.00041875,5.3916e-10,0,0.00059499,7.0271e-05,1.548e+08,172.1,0,2.2727e+08,34.859,12620,591.1,0,591.1,0,0.00045784,1.9276e-09,0,0.00022955,8.5787e-05,1.753e+08,636.89,0,8.6635e+07,62.005,591.1,1
2044,2.78,12111,1,12111,1,2.234e-05,-1.6759e-10,0,0.0003981,-4.0906e-06,224.61,-56.807,0,1.5284e+08,-3.7489,12110,13208,1,13208,1,0.00079014,7.8974e-09,0,0.00079014,0.00013981,2.7928e+08,2623.8,0,3.032e+08,307.38,13207,12110,1,12110,1,2.234e-05,-7.3439e-11,0,0.00039811,-4.1047e-06,8.5696e+06,-23.659,0,1.5495e+08,-16.301,12109,11089,1,11089,1,-0.00074545,-5.775e-09,0,6.0943e-06,-0.00014794,-3.032e+08,-1906.4,0,2.5674e+06,-250.67,11088,11599,1,11599,1,-0.00037577,-2.0312e-09,0,0.00019905,-7.8683e-05,-1.5284e+08,-665.64,0,7.8069e+07,-64.692,11598,12621,1,12621,1,0.00042045,1.0368e-09,0,0.00059716,7.0496e-05,1.5531e+08,336.14,0,2.2798e+08,46.112,12620,591.1,0,591.1,0,0.00045951,2.9028e-09,0,0.0002304,8.6099e-05,1.7586e+08,958.72,0,8.6907e+07,92.815,591.1,1
2044,2.79,12111,1,12111,1,2.2592e-05,-1.8892e-09,0,0.00039958,-4.1367e-06,93.217,-621.92,0,1.5334e+08,-24.972,12110,13208,1,13208,1,0.00079323,9.1076e-10,0,0.00079323,0.00014029,2.8007e+08,290.81,0,3.0426e+08,100.91,13207,12110,1,12110,1,2.2592e-05,-1.8566e-09,0,0.00039958,-4.1514e-06,8.6638e+06,-601.34,0,1.5547e+08,-19.784,12109,11089,1,11089,1,-0.00074804,-4.9835e-09,0,5.9481e-06,-0.00014852,-3.0426e+08,-1642.8,0,2.5103e+06,-184.52,11088,11599,1,11599,1,-0.00037698,-3.1322e-09,0,0.00019979,-7.9004e-05,-1.5333e+08,-1034.6,0,7.8334e+07,-61.359,11598,12621,1,12621,1,0.00042217,-6.77e-10,0,0.00059937,7.0724e-05,1.5583e+08,-221.08,0,2.2871e+08,14.16,12620,591.1,0,591.1,0,0.00046121,1.4821e-09,0,0.00023127,8.6417e-05,1.7642e+08,491.73,0,8.7184e+07,54.368,591.1,1
2044,2.8,12111,1,12111,1,2.2847e-05,-1.1502e-09,0,0.00040102,-4.1834e-06,224.08,-379.33,0,1.5382e+08,-3.3978,12110,13208,1,13208,1,0.00079627,4.4791e-09,0,0.00079627,0.00014077,2.8083e+08,1482.5,0,3.0529e+08,180.64,13207,12110,1,12110,1,2.2847e-05,-7.2389e-10,0,0.00040102,-4.1985e-06,8.7593e+06,-226.01,0,1.5598e+08,-19.196,12109,11089,1,11089,1,-0.00075057,-6.5796e-09,0,5.7956e-06,-0.00014909,-3.0529e+08,-2164.6,0,2.4508e+06,-145.58,11088,11599,1,11599,1,-0.00037817,-2.9685e-09,0,0.00020051,-7.9321e-05,-1.5382e+08,-983.27,0,7.8593e+07,-57.491,11598,12621,1,12621,1,0.00042387,5.2721e-10,0,0.00060153,7.0948e-05,1.5634e+08,164.46,0,2.2943e+08,52.027,12620,591.1,0,591.1,0,0.00046287,2.5797e-09,0,0.00023212,8.6728e-05,1.7698e+08,851.29,0,8.7453e+07,65.68,591.1,1
2044,2.81,12111,1,12111,1,2.3101e-05,-9.7201e-10,0,0.00040248,-4.23e-06,-9.7344,-321.16,0,1.5431e+08,-6.4623,12110,13208,1,13208,1,0.00079934,5.3104e-09,0,0.00079934,0.00014125,2.8161e+08,1740.4,0,3.0633e+08,179.43,13207,12110,1,12110,1,2.3101e-05,-4.6934e-10,0,0.00040248,-4.2467e-06,8.8545e+06,-157.49,0,1.5649e+08,-8.302,12109,11089,1,11089,1,-0.00075313,-6.8343e-09,0,5.646e-06,-0.00014966,-3.0633e+08,-2246.7,0,2.3924e+06,-1104.7,11088,11599,1,11599,1,-0.00037938,-2.6901e-09,0,0.00020124,-7.9641e-05,-1.5431e+08,-887.5,0,7.8855e+07,-67.534,11598,12621,1,12621,1,0.00042558,7.3021e-10,0,0.00060372,7.1174e-05,1.5686e+08,236.78,0,2.3015e+08,56.327,12620,591.1,0,591.1,0,0.00046456,2.7118e-09,0,0.00023298,8.7043e-05,1.7754e+08,895.3,0,8.7726e+07,90.739,591.1,1
2044,2.82,12111,1,12111,1,2.336e-05,3.8283e-10,0,0.00040395,-4.2773e-06,-19.299,124.19,0,1.548e+08,-0.2723,12110,13208,1,13208,1,0.00080241,2.4262e-09,0,0.00080241,0.00014173,2.8239e+08,829.24,0,3.0737e+08,79.719,13207,12110,1,12110,1,2.336e-05,2.2213e-10,0,0.00040395,-4.2934e-06,8.9515e+06,70.093,0,1.5701e+08,1.1332,12109,11089,1,11089,1,-0.00075569,-9.5105e-10,0,5.4919e-06,-0.00015023,-3.0737e+08,-325.63,0,2.3323e+06,-141.65,11088,11599,1,11599,1,-0.00038059,-1.7655e-10,0,0.00020197,-7.9962e-05,-1.548e+08,-59.372,0,7.9118e+07,-19.985,11598,12621,1,12621,1,0.00042731,9.0297e-10,0,0.00060592,7.1402e-05,1.5738e+08,293.79,0,2.3087e+08,24.002,12620,591.1,0,591.1,0,0.00046625,7.4188e-10,0,0.00023385,8.7361e-05,1.781e+08,246.53,0,8.8001e+07,32.118,591.1,1
2044,2.83,12111,1,12111,1,2.3621e-05,-1.64e-09,0,0.0004054,-4.3253e-06,47.323,-538.46,0,1.5529e+08,-10.151,12110,13208,1,13208,1,0.00080549,1.3599e-09,0,0.00080549,0.00014221,2.8316e+08,465.6,0,3.0841e+08,132.09,13207,12110,1,12110,1,2.3621e-05,-1.4213e-09,0,0.0004054,-4.3419e-06,9.049e+06,-455.55,0,1.5751e+08,-17.459,12109,11089,1,11089,1,-0.00075825,-5.7229e-09,0,5.3353e-06,-0.00015081,-3.0841e+08,-1874,0,2.2712e+06,-196.4,11088,11599,1,11599,1,-0.00038178,-3.0277e-09,0,0.0002027,-8.0282e-05,-1.5528e+08,-988.44,0,7.9378e+07,-46.413,11598,12621,1,12621,1,0.00042902,-1.0278e-11,0,0.0006081,7.1625e-05,1.5789e+08,-3.2469,0,2.3159e+08,29.629,12620,591.1,0,591.1,0,0.00046793,1.8138e-09,0,0.00023471,8.7674e-05,1.7866e+08,598.02,0,8.8271e+07,60.049,591.1,1
2044,2.84,12111,1,12111,1,2.3883e-05,-1.4689e-09,0,0.00040686,-4.3732e-06,26.509,-483.76,0,1.5578e+08,-14.657,12110,13208,1,13208,1,0.00080856,1.9435e-09,0,0.00080856,0.00014268,2.8392e+08,650.51,0,3.0944e+08,131.11,13207,12110,1,12110,1,2.3883e-05,-1.0914e-09,0,0.00040686,-4.3912e-06,9.1467e+06,-353.69,0,1.5802e+08,-13.193,12109,11089,1,11089,1,-0.00076079,-5.9232e-09,0,5.177e-06,-0.00015138,-3.0944e+08,-1938.9,0,2.2096e+06,-820.88,11088,11599,1,11599,1,-0.00038298,-2.9573e-09,0,0.00020343,-8.0603e-05,-1.5577e+08,-970.34,0,7.9638e+07,-47.765,11598,12621,1,12621,1,0.00043074,1.395e-10,0,0.00061029,7.185e-05,1.584e+08,45.519,0,2.323e+08,33.683,12620,591.1,0,591.1,0,0.00046961,1.9568e-09,0,0.00023557,8.7988e-05,1.7921e+08,645.97,0,8.8542e+07,88.265,591.1,1
2044,2.85,12111,1,12111,1,2.4147e-05,-3.0168e-10,0,0.00040831,-4.4215e-06,128.83,-101.05,0,1.5626e+08,-13.98,12110,13208,1,13208,1,0.00081162,3.9359e-09,0,0.00081162,0.00014316,2.8468e+08,1287.9,0,3.1047e+08,129.17,13207,12110,1,12110,1,2.4147e-05,-6.0344e-11,0,0.00040832,-4.4399e-06,9.2455e+06,-20.46,0,1.5853e+08,-14.63,12109,11089,1,11089,1,-0.00076333,-3.9728e-09,0,5.0168e-06,-0.00015195,-3.1047e+08,-1319.7,0,2.1471e+06,-716.21,11088,11599,1,11599,1,-0.00038417,-1.4811e-09,0,0.00020416,-8.0923e-05,-1.5625e+08,-490.4,0,7.9897e+07,-47.764,11598,12621,1,12621,1,0.00043246,6.728e-10,0,0.00061247,7.2074e-05,1.5891e+08,223.69,0,2.3302e+08,32.885,12620,591.1,0,591.1,0,0.00047129,1.7344e-09,0,0.00023643,8.8303e-05,1.7977e+08,572.19,0,8.8813e+07,84.883,591.1,1
2044,2.86,12111,1,12111,1,2.4413e-05,-5.8757e-10,0,0.00040977,-4.4703e-06,12.101,-193.76,0,1.5675e+08,-22.21,12110,13208,1,13208,1,0.00081471,1.7827e-09,0,0.00081471,0.00014364,2.8545e+08,610.15,0,3.1151e+08,72.908,13207,12110,1,12110,1,2.4413e-05,-3.247e-10,0,0.00040978,-4.4891e-06,9.3448e+06,-106.95,0,1.5904e+08,-15.732,12109,11089,1,11089,1,-0.00076588,-3.257e-09,0,4.8558e-06,-0.00015253,-3.1151e+08,-1065.4,0,2.0844e+06,-605.12,11088,11599,1,11599,1,-0.00038536,-1.4366e-09,0,0.00020489,-8.1246e-05,-1.5674e+08,-462.6,0,8.0158e+07,-44.298,11598,12621,1,12621,1,0.00043419,2.5187e-10,0,0.00061466,7.2298e-05,1.5943e+08,82.042,0,2.3373e+08,15.425,12620,591.1,0,591.1,0,0.00047298,1.1587e-09,0,0.0002373,8.8619e-05,1.8033e+08,382.89,0,8.9085e+07,72.144,591.1,1
2044,2.87,12111,1,12111,1,2.4681e-05,-5.49e-10,0,0.00041122,-4.5193e-06,-37.811,-180.93,0,1.5723e+08,-8.027,12110,13208,1,13208,1,0.00081778,3.7153e-09,0,0.00081778,0.00014411,2.862e+08,1214.9,0,3.1254e+08,156.77,13207,12110,1,12110,1,2.4681e-05,-1.4875e-10,0,0.00041123,-4.5385e-06,9.4448e+06,-48.788,0,1.5955e+08,-9.8188,12109,11089,1,11089,1,-0.00076842,-4.8821e-09,0,4.6915e-06,-0.0001531,-3.1254e+08,-1596.3,0,2.0204e+06,-455.95,11088,11599,1,11599,1,-0.00038655,-1.8907e-09,0,0.00020561,-8.1566e-05,-1.5722e+08,-612.08,0,8.0416e+07,-50.7,11598,12621,1,12621,1,0.00043591,7.2022e-10,0,0.00061684,7.2521e-05,1.5993e+08,231.23,0,2.3444e+08,35.463,12620,591.1,0,591.1,0,0.00047465,1.9664e-09,0,0.00023816,8.8932e-05,1.8088e+08,647.23,0,8.9353e+07,74.41,591.1,1
2044,2.88,12111,1,12111,1,2.4951e-05,-3.4491e-10,0,0.00041269,-4.5687e-06,100.62,-113.75,0,1.5771e+08,-7.1117,12110,13208,1,13208,1,0.00082086,5.1112e-09,0,0.00082086,0.00014459,2.8696e+08,1670.6,0,3.1358e+08,169.66,13207,12110,1,12110,1,2.495e-05,-1.2474e-10,0,0.00041269,-4.5883e-06,9.5455e+06,-40.663,0,1.6005e+08,-16.507,12109,11089,1,11089,1,-0.00077096,-4.991e-09,0,4.5258e-06,-0.00015368,-3.1358e+08,-1631.4,0,1.9558e+06,-357.8,11088,11599,1,11599,1,-0.00038774,-1.9312e-09,0,0.00020634,-8.1888e-05,-1.5771e+08,-631.4,0,8.0676e+07,-54.077,11598,12621,1,12621,1,0.00043764,9.0187e-10,0,0.00061903,7.2744e-05,1.6044e+08,297.45,0,2.3516e+08,51.239,12620,591.1,0,591.1,0,0.00047634,2.2919e-09,0,0.00023902,8.9247e-05,1.8143e+08,754.78,0,8.9623e+07,75.614,591.1,1
2044,2.89,12111,1,12111,1,2.5224e-05,-4.3422e-10,0,0.00041415,-4.6188e-06,81.571,-143.15,0,1.582e+08,-20.859,12110,13208,1,13208,1,0.00082396,1.3914e-09,0,0.00082396,0.00014507,2.8772e+08,476.22,0,3.1462e+08,61.46,13207,12110,1,12110,1,2.5224e-05,-2.4481e-10,0,0.00041416,-4.6388e-06,9.6474e+06,-78.58,0,1.6056e+08,-18.507,12109,11089,1,11089,1,-0.00077351,-2.3889e-09,0,4.3577e-06,-0.00015425,-3.1462e+08,-780.51,0,1.8903e+06,-176.15,11088,11599,1,11599,1,-0.00038893,-1.0364e-09,0,0.00020708,-8.2213e-05,-1.5819e+08,-339.76,0,8.0937e+07,-43.51,11598,12621,1,12621,1,0.00043938,1.5678e-10,0,0.00062123,7.2969e-05,1.6096e+08,49.209,0,2.3587e+08,4.4236,12620,591.1,0,591.1,0,0.00047803,8.7272e-10,0,0.00023989,8.9564e-05,1.8199e+08,289.36,0,8.9894e+07,34.844,591.1,1
2044,2.9,12111,1,12111,1,2.5499e-05,1.8435e-09,0,0.00041561,-4.6691e-06,-82.164,602.85,0,1.5868e+08,9.66,12110,13208,1,13208,1,0.00082707,4.8621e-09,0,0.00082707,0.00014555,2.8848e+08,1572.4,0,3.1566e+08,161.69,13207,12110,1,12110,1,2.5499e-05,1.8636e-09,0,0.00041562,-4.6895e-06,9.75e+06,598.25,0,1.6107e+08,7.4222,12109,11089,1,11089,1,-0.00077607,-7.9081e-10,0,4.1868e-06,-0.00015483,-3.1566e+08,-270.86,0,1.8238e+06,-187.27,11088,11599,1,11599,1,-0.00039012,7.0469e-10,0,0.00020781,-8.2536e-05,-1.5867e+08,231.39,0,8.1196e+07,-20.937,11598,12621,1,12621,1,0.00044111,2.9612e-09,0,0.00062342,7.3191e-05,1.6147e+08,956.88,0,2.3658e+08,44.47,12620,591.1,0,591.1,0,0.00047972,1.4317e-09,0,0.00024076,8.9879e-05,1.8254e+08,470.73,0,9.0163e+07,58.567,591.1,1
2044,2.91,12111,1,12111,1,2.5775e-05,-3.9893e-10,0,0.00041707,-4.7197e-06,-90.993,-128.17,0,1.5916e+08,0.43395,12110,13208,1,13208,1,0.00083013,3.9091e-09,0,0.00083013,0.00014602,2.8922e+08,1307.9,0,3.1668e+08,147.59,13207,12110,1,12110,1,2.5776e-05,-1.939e-10,0,0.00041707,-4.7405e-06,9.8529e+06,-62.942,0,1.6157e+08,-10.406,12109,11089,1,11089,1,-0.00077859,-4.2009e-09,0,4.0141e-06,-0.00015541,-3.1668e+08,-1405.7,0,1.7567e+06,-331.45,11088,11599,1,11599,1,-0.0003913,-1.6985e-09,0,0.00020854,-8.2859e-05,-1.5915e+08,-545.53,0,8.1454e+07,-47.004,11598,12621,1,12621,1,0.00044285,6.5991e-10,0,0.00062561,7.3413e-05,1.6197e+08,217.17,0,2.3729e+08,58.426,12620,591.1,0,591.1,0,0.0004814,1.8292e-09,0,0.00024162,9.0194e-05,1.8309e+08,600.26,0,9.043e+07,69.712,591.1,1
2044,2.92,12111,1,12111,1,2.6054e-05,-6.2145e-10,0,0.00041853,-4.7708e-06,116.48,-203.2,0,1.5964e+08,-31.417,12110,13208,1,13208,1,0.00083323,1.0932e-09,0,0.00083323,0.0001465,2.8996e+08,367.93,0,3.1771e+08,169.51,13207,12110,1,12110,1,2.6054e-05,-2.5866e-10,0,0.00041853,-4.792e-06,9.9565e+06,-83.981,0,1.6208e+08,-32.238,12109,11089,1,11089,1,-0.00078112,-5.2475e-09,0,3.8403e-06,-0.00015598,-3.1771e+08,-1755.6,0,1.6891e+06,-432.06,11088,11599,1,11599,1,-0.00039247,-9.9937e-10,0,0.00020926,-8.3183e-05,-1.5963e+08,-320.76,0,8.1712e+07,-76.251,11598,12621,1,12621,1,0.00044458,2.2591e-10,0,0.00062779,7.3635e-05,1.6248e+08,70.494,0,2.3799e+08,12.374,12620,591.1,0,591.1,0,0.00048308,1.1955e-09,0,0.00024248,9.0508e-05,1.8364e+08,392.93,0,9.0698e+07,79.082,591.1,1
2044,2.93,12111,1,12111,1,2.6334e-05,9.308e-11,0,0.00041999,-4.822e-06,-34.914,29.176,0,1.6012e+08,-9.6596,12110,13208,1,13208,1,0.00083632,4.5769e-09,0,0.00083632,0.00014697,2.907e+08,1531,0,3.1874e+08,132.81,13207,12110,1,12110,1,2.6334e-05,5.8255e-11,0,0.00041999,-4.8438e-06,1.0061e+07,18.556,0,1.6258e+08,-8.8167,12109,11089,1,11089,1,-0.00078365,-3.3106e-09,0,3.664e-06,-0.00015656,-3.1874e+08,-1107.4,0,1.6206e+06,-591.29,11088,11599,1,11599,1,-0.00039365,-9.4543e-10,0,0.00020999,-8.3507e-05,-1.6011e+08,-308.12,0,8.1969e+07,-37.796,11598,12621,1,12621,1,0.00044632,9.6258e-10,0,0.00062998,7.3856e-05,1.6299e+08,305.96,0,2.387e+08,30.951,12620,591.1,0,591.1,0,0.00048477,1.5238e-09,0,0.00024335,9.0823e-05,1.8419e+08,501.48,0,9.0965e+07,76.795,591.1,1
2044,2.94,12111,1,12111,1,2.6617e-05,1.7673e-09,0,0.00042145,-4.8739e-06,-96.42,577.33,0,1.606e+08,-3.671,12110,13208,1,13208,1,0.00083945,5.382e-09,0,0.00083945,0.00014745,2.9146e+08,1799.8,0,3.1978e+08,148.4,13207,12110,1,12110,1,2.6617e-05,1.8692e-09,0,0.00042146,-4.8961e-06,1.0166e+07,613.92,0,1.6309e+08,6.7919,12109,11089,1,11089,1,-0.00078621,-7.5798e-10,0,3.4857e-06,-0.00015714,-3.1978e+08,-242.32,0,1.5513e+06,-780.85,11088,11599,1,11599,1,-0.00039484,6.9109e-10,0,0.00021073,-8.3833e-05,-1.6059e+08,224.81,0,8.2229e+07,-18.14,11598,12621,1,12621,1,0.00044807,2.8403e-09,0,0.00063218,7.4079e-05,1.635e+08,927.68,0,2.3941e+08,29.123,12620,591.1,0,591.1,0,0.00048646,1.3271e-09,0,0.00024422,9.114e-05,1.8474e+08,436.42,0,9.1234e+07,85.688,591.1,1
2044,2.95,12111,1,12111,1,2.6903e-05,-1.0582e-09,0,0.00042292,-4.9262e-06,-193.39,-343.43,0,1.6108e+08,-9.0407,12110,13208,1,13208,1,0.00084254,6.3149e-10,0,0.00084254,0.00014793,2.9219e+08,216.29,0,3.2081e+08,79.925,13207,12110,1,12110,1,2.6903e-05,-1.0942e-09,0,0.00042292,-4.9488e-06,1.0273e+07,-356.14,0,1.6359e+08,-0.78479,12109,11089,1,11089,1,-0.00078874,-3.1997e-09,0,3.3042e-06,-0.00015772,-3.2081e+08,-1070,0,1.4808e+06,-897.37,11088,11599,1,11599,1,-0.00039602,-1.6257e-09,0,0.00021146,-8.4159e-05,-1.6107e+08,-528.29,0,8.2487e+07,-26.712,11598,12621,1,12621,1,0.00044982,-4.0319e-10,0,0.00063438,7.43e-05,1.6401e+08,-127.35,0,2.4011e+08,20.413,12620,591.1,0,591.1,0,0.00048815,8.5885e-10,0,0.00024509,9.1456e-05,1.8529e+08,279.78,0,9.1501e+07,70.185,591.1,1
2044,2.96,12111,1,12111,1,2.7191e-05,2.8013e-10,0,0.00042438,-4.979e-06,-77.93,90.725,0,1.6156e+08,-2.3389,12110,13208,1,13208,1,0.00084565,1.1212e-09,0,0.00084565,0.0001484,2.9293e+08,374.92,0,3.2184e+08,41.721,13207,12110,1,12110,1,2.7191e-05,2.9063e-10,0,0.00042438,-5.002e-06,1.038e+07,93.692,0,1.641e+08,1.7153,12109,11089,1,11089,1,-0.00079126,-2.1114e-10,0,3.1212e-06,-0.0001583,-3.2184e+08,-72.315,0,1.4095e+06,-962.53,11088,11599,1,11599,1,-0.00039719,2.6907e-11,0,0.00021219,-8.4485e-05,-1.6155e+08,8.807,0,8.2744e+07,-6.966,11598,12621,1,12621,1,0.00045157,5.1279e-10,0,0.00063657,7.4521e-05,1.6451e+08,167.52,0,2.4081e+08,9.8303,12620,591.1,0,591.1,0,0.00048984,2.6653e-10,0,0.00024596,9.1772e-05,1.8584e+08,86.337,0,9.1768e+07,41.999,591.1,1
2044,2.97,12111,1,12111,1,2.7481e-05,-6.3668e-10,0,0.00042584,-5.032e-06,68.252,-207.6,0,1.6203e+08,-2.1657,12110,13208,1,13208,1,0.00084875,4.3017e-09,0,0.00084875,0.00014888,2.9366e+08,1438,0,3.2287e+08,120.81,13207,12110,1,12110,1,2.7481e-05,-4.5922e-10,0,0.00042584,-5.0555e-06,1.0487e+07,-147.5,0,1.646e+08,-2.4239,12109,11089,1,11089,1,-0.00079379,-3.7396e-09,0,2.9358e-06,-0.00015888,-3.2287e+08,-1218.2,0,1.3376e+06,-1124.5,11088,11599,1,11599,1,-0.00039836,-1.8086e-09,0,0.00021292,-8.4811e-05,-1.6203e+08,-588.39,0,8.3e+07,-36.382,11598,12621,1,12621,1,0.00045332,3.5146e-10,0,0.00063876,7.474e-05,1.6502e+08,114.14,0,2.4151e+08,42.79,12620,591.1,0,591.1,0,0.00049152,1.506e-09,0,0.00024682,9.2086e-05,1.8638e+08,492.8,0,9.2033e+07,69.674,591.1,1
2044,2.98,12111,1,12111,1,2.7771e-05,-9.5898e-10,0,0.00042729,-5.0851e-06,29.245,-314.16,0,1.6251e+08,3.9574,12110,13208,1,13208,1,0.00085186,3.6015e-09,0,0.00085186,0.00014935,2.9438e+08,1193,0,3.2389e+08,162.23,13207,12110,1,12110,1,2.7771e-05,-7.1282e-10,0,0.00042729,-5.1077e-06,1.0595e+07,-235.6,0,1.651e+08,-0.0047921,12109,11089,1,11089,1,-0.00079631,-4.9138e-09,0,2.7489e-06,-0.00015946,-3.2389e+08,-1600.1,0,1.265e+06,-205.76,11088,11599,1,11599,1,-0.00039952,-2.4263e-09,0,0.00021365,-8.5136e-05,-1.625e+08,-793.24,0,8.3255e+07,-41.021,11598,12621,1,12621,1,0.00045506,3.43e-10,0,0.00064094,7.4959e-05,1.6552e+08,109.31,0,2.4221e+08,47.121,12620,591.1,0,591.1,0,0.0004932,1.9067e-09,0,0.00024769,9.24e-05,1.8692e+08,625.63,0,9.2296e+07,64.286,591.1,1
2044,2.99,12111,1,12111,1,2.8064e-05,1.1603e-09,0,0.00042876,-5.1389e-06,52.253,376.58,0,1.6299e+08,-14.24,12110,13208,1,13208,1,0.00085498,2.6396e-09,0,0.00085498,0.00014982,2.9512e+08,866.27,0,3.2492e+08,85.057,13207,12110,1,12110,1,2.8065e-05,1.2722e-09,0,0.00042876,-5.1618e-06,1.0704e+07,415.29,0,1.656e+08,-14.391,12109,11089,1,11089,1,-0.00079885,-2.0178e-10,0,2.56e-06,-0.00016004,-3.2492e+08,-69.11,0,1.1917e+06,-123.39,11088,11599,1,11599,1,-0.0004007,6.3472e-10,0,0.00021438,-8.5465e-05,-1.6298e+08,201.47,0,8.3514e+07,-29.066,11598,12621,1,12621,1,0.00045683,1.6616e-09,0,0.00064315,7.518e-05,1.6603e+08,530.74,0,2.4291e+08,3.3267,12620,591.1,0,591.1,0,0.0004949,6.8529e-10,0,0.00024857,9.2718e-05,1.8747e+08,223.89,0,9.2564e+07,31.294,591.1,1
2044,3,12111,1,12111,1,2.8362e-05,-5.7638e-10,0,0.00043023,-5.1933e-06,126.33,-187.09,0,1.6346e+08,-15.658,12110,13208,1,13208,1,0.0008581,5.3627e-10,0,0.0008581,0.0001503,2.9585e+08,180.93,0,3.2595e+08,57.497,13207,12110,1,12110,1,2.8362e-05,-5.2607e-10,0,0.00043023,-5.2164e-06,1.0814e+07,-170.48,0,1.661e+08,-12.44,12109,11089,1,11089,1,-0.00080138,-2.017e-09,0,2.3679e-06,-0.00016062,-3.2595e+08,-656.83,0,1.1171e+06,-168.32,11088,11599,1,11599,1,-0.00040187,-1.0562e-09,0,0.00021512,-8.5793e-05,-1.6345e+08,-341.5,0,8.3771e+07,-33.975,11598,12621,1,12621,1,0.00045859,-6.5288e-11,0,0.00064535,7.5399e-05,1.6653e+08,-21.624,0,2.4361e+08,8.0204,12620,591.1,0,591.1,0,0.00049659,6.1132e-10,0,0.00024944,9.3034e-05,1.8802e+08,199.09,0,9.283e+07,35.497,591.1,1
2044,3.01,12111,1,12111,1,2.8661e-05,1.9451e-10,0,0.00043169,-5.248e-06,21.922,62.62,0,1.6394e+08,0.45021,12110,13208,1,13208,1,0.00086121,2.1645e-09,0,0.00086121,0.00015077,2.9656e+08,711.2,0,3.2697e+08,55.771,13207,12110,1,12110,1,2.8661e-05,1.6303e-10,0,0.00043169,-5.2714e-06,1.0925e+07,53.75,0,1.666e+08,1.1495,12109,11089,1,11089,1,-0.00080389,-1.1136e-09,0,2.1741e-06,-0.00016121,-3.2697e+08,-362.23,0,1.0419e+06,-117.77,11088,11599,1,11599,1,-0.00040303,-2.7147e-10,0,0.00021584,-8.6121e-05,-1.6393e+08,-88.322,0,8.4025e+07,-19.576,11598,12621,1,12621,1,0.00046035,5.5423e-10,0,0.00064753,7.5618e-05,1.6703e+08,176.57,0,2.443e+08,24.245,12620,591.1,0,591.1,0,0.00049828,6.9377e-10,0,0.00025031,9.3349e-05,1.8856e+08,226.85,0,9.3093e+07,30.623,591.1,1
2044,3.02,12111,1,12111,1,2.8959e-05,2.4773e-10,0,0.00043315,-5.3027e-06,-91.01,80.659,0,1.6441e+08,-0.44078,12110,13208,1,13208,1,0.00086432,3.262e-09,0,0.00086432,0.00015124,2.9728e+08,1071.1,0,3.2799e+08,110.99,13207,12110,1,12110,1,2.8959e-05,1.245e-10,0,0.00043315,-5.3264e-06,1.1036e+07,40.073,0,1.671e+08,-4.1218,12109,11089,1,11089,1,-0.0008064,-1.4295e-09,0,1.9791e-06,-0.00016179,-3.2799e+08,-465.6,0,9.6631e+05,-110.13,11088,11599,1,11599,1,-0.00040419,-4.5531e-10,0,0.00021657,-8.6448e-05,-1.644e+08,-145.36,0,8.428e+07,-28.554,11598,12621,1,12621,1,0.00046211,7.404e-10,0,0.00064972,7.5836e-05,1.6753e+08,236.36,0,2.45e+08,26.459,12620,591.1,0,591.1,0,0.00049996,1.021e-09,0,0.00025118,9.3664e-05,1.891e+08,335.2,0,9.3356e+07,38.688,591.1,1
2044,3.03,12111,1,12111,1,2.9262e-05,-7.3644e-10,0,0.00043461,-5.3581e-06,-25.341,-239.63,0,1.6488e+08,-5.8582,12110,13208,1,13208,1,0.00086746,1.9085e-09,0,0.00086746,0.00015172,2.98e+08,645.27,0,3.2903e+08,88.67,13207,12110,1,12110,1,2.9262e-05,-6.2687e-10,0,0.00043462,-5.3821e-06,1.1148e+07,-199.83,0,1.676e+08,-5.1166,12109,11089,1,11089,1,-0.00080894,-3.2412e-09,0,1.7813e-06,-0.00016237,-3.2903e+08,-1053.4,0,8.8962e+05,-158.92,11088,11599,1,11599,1,-0.00040535,-1.6816e-09,0,0.00021731,-8.6778e-05,-1.6487e+08,-545.8,0,8.4536e+07,-35.31,11598,12621,1,12621,1,0.00046388,1.6136e-10,0,0.00065192,7.6054e-05,1.6804e+08,51.283,0,2.4569e+08,28.126,12620,591.1,0,591.1,0,0.00050165,1.17e-09,0,0.00025205,9.3981e-05,1.8964e+08,383.33,0,9.362e+07,44.326,591.1,1
2044,3.04,12111,1,12111,1,2.9567e-05,6.821e-10,0,0.00043608,-5.414e-06,-112.42,221.05,0,1.6535e+08,3.7811,12110,13208,1,13208,1,0.00087058,2.4898e-09,0,0.00087058,0.00015219,2.9872e+08,811.45,0,3.3005e+08,64.061,13207,12110,1,12110,1,2.9568e-05,4.737e-10,0,0.00043608,-5.4382e-06,1.1261e+07,151.23,0,1.681e+08,4.7161,12109,11089,1,11089,1,-0.00081145,-7.7176e-10,0,1.5802e-06,-0.00016295,-3.3005e+08,-259.4,0,8.1166e+05,-118,11088,11599,1,11599,1,-0.00040651,5.9244e-11,0,0.00021804,-8.7108e-05,-1.6534e+08,19.261,0,8.4791e+07,-14.411,11598,12621,1,12621,1,0.00046565,1.306e-09,0,0.00065412,7.6272e-05,1.6854e+08,421.57,0,2.4639e+08,24.066,12620,591.1,0,591.1,0,0.00050334,8.0264e-10,0,0.00025292,9.4297e-05,1.9018e+08,263.21,0,9.3883e+07,26.391,591.1,1
2044,3.05,12111,1,12111,1,2.9875e-05,-6.3609e-11,0,0.00043754,-5.4703e-06,117.03,-20.429,0,1.6582e+08,-7.0823,12110,13208,1,13208,1,0.00087371,2.4636e-09,0,0.00087371,0.00015266,2.9943e+08,814.22,0,3.3107e+08,77.622,13207,12110,1,12110,1,2.9875e-05,-1.6535e-11,0,0.00043754,-5.4949e-06,1.1374e+07,-5.3501,0,1.6859e+08,-8.4411,12109,11089,1,11089,1,-0.00081396,-1.8953e-09,0,1.3773e-06,-0.00016354,-3.3107e+08,-615.5,0,7.3304e+05,-124.67,11088,11599,1,11599,1,-0.00040767,-7.3067e-10,0,0.00021877,-8.7437e-05,-1.6581e+08,-237.01,0,8.5045e+07,-30.823,11598,12621,1,12621,1,0.00046742,3.8981e-10,0,0.00065631,7.6489e-05,1.6904e+08,128.51,0,2.4708e+08,19.863,12620,591.1,0,591.1,0,0.00050503,9.6813e-10,0,0.0002538,9.4612e-05,1.9072e+08,317.28,0,9.4146e+07,36.018,591.1,1
2044,3.06,12111,1,12111,1,3.0184e-05,4.0028e-10,0,0.00043901,-5.527e-06,7.7326,129.93,0,1.663e+08,-9.5314,12110,13208,1,13208,1,0.00087685,1.0292e-09,0,0.00087685,0.00015313,3.0014e+08,352.42,0,3.321e+08,59.44,13207,12110,1,12110,1,3.0185e-05,3.7152e-10,0,0.00043901,-5.5519e-06,1.1489e+07,118.02,0,1.6909e+08,-9.9738,12109,11089,1,11089,1,-0.00081648,-5.224e-11,0,1.1731e-06,-0.00016412,-3.321e+08,-15.14,0,6.5392e+05,-89.103,11088,11599,1,11599,1,-0.00040883,2.4311e-10,0,0.00021951,-8.7769e-05,-1.6628e+08,78.202,0,8.5301e+07,-22.237,11598,12621,1,12621,1,0.0004692,5.1387e-10,0,0.00065852,7.6707e-05,1.6954e+08,165.48,0,2.4777e+08,4.2619,12620,591.1,0,591.1,0,0.00050673,2.271e-10,0,0.00025467,9.493e-05,1.9126e+08,75.579,0,9.4409e+07,19.853,591.1,1
2044,3.07,12111,1,12111,1,3.0496e-05,-6.9709e-10,0,0.00044047,-5.584e-06,26.305,-226.59,0,1.6676e+08,-8.1934,12110,13208,1,13208,1,0.00087999,3.6192e-09,0,0.00087999,0.0001536,3.0084e+08,1180.2,0,3.3312e+08,166.73,13207,12110,1,12110,1,3.0496e-05,-6.5087e-10,0,0.00044047,-5.6092e-06,1.1604e+07,-203.97,0,1.6958e+08,-8.4793,12109,11089,1,11089,1,-0.00081899,-3.726e-09,0,9.6567e-07,-0.00016471,-3.3312e+08,-1209.5,0,5.7358e+05,-146.39,11088,11599,1,11599,1,-0.00040997,-2.0299e-09,0,0.00022024,-8.8099e-05,-1.6675e+08,-658.07,0,8.5554e+07,-48.294,11598,12621,1,12621,1,0.00047097,3.4353e-10,0,0.00066071,7.6923e-05,1.7004e+08,110.43,0,2.4845e+08,24.903,12620,591.1,0,591.1,0,0.00050841,1.6019e-09,0,0.00025554,9.5244e-05,1.918e+08,523.31,0,9.4669e+07,59.139,591.1,1
2044,3.08,12111,1,12111,1,3.081e-05,-6.2015e-10,0,0.00044194,-5.6415e-06,235.68,-202.41,0,1.6723e+08,-9.466,12110,13208,1,13208,1,0.00088313,1.9954e-09,0,0.00088313,0.00015408,3.0155e+08,674.86,0,3.3414e+08,118.72,13207,12110,1,12110,1,3.081e-05,-2.6114e-10,0,0.00044194,-5.667e-06,1.172e+07,-84.407,0,1.7008e+08,-15.731,12109,11089,1,11089,1,-0.00082151,-3.8644e-09,0,7.5601e-07,-0.0001653,-3.3414e+08,-1253.5,0,4.9242e+05,-144.95,11088,11599,1,11599,1,-0.00041113,-1.6426e-09,0,0.00022097,-8.8431e-05,-1.6722e+08,-529.08,0,8.5808e+07,-50.133,11598,12621,1,12621,1,0.00047275,3.6785e-10,0,0.00066291,7.714e-05,1.7054e+08,118.47,0,2.4914e+08,28.041,12620,591.1,0,591.1,0,0.0005101,1.4203e-09,0,0.00025642,9.5561e-05,1.9233e+08,464.99,0,9.4931e+07,51.19,591.1,1
2044,3.09,12111,1,12111,1,3.1126e-05,-1.0175e-09,0,0.0004434,-5.6993e-06,51.968,-332.52,0,1.677e+08,-22.55,12110,13208,1,13208,1,0.00088628,1.6923e-09,0,0.00088628,0.00015455,3.0225e+08,574.4,0,3.3516e+08,100.22,13207,12110,1,12110,1,3.1126e-05,-7.8541e-10,0,0.00044341,-5.7252e-06,1.1837e+07,-251.87,0,1.7058e+08,-19.756,12109,11089,1,11089,1,-0.00082403,-4.5429e-09,0,5.4569e-07,-0.00016588,-3.3516e+08,-1473.8,0,4.11e+05,-199.13,11088,11599,1,11599,1,-0.00041228,-2.1774e-09,0,0.0002217,-8.8763e-05,-1.6769e+08,-705.55,0,8.6062e+07,-61.991,11598,12621,1,12621,1,0.00047453,2.0178e-10,0,0.00066511,7.7356e-05,1.7104e+08,61.204,0,2.4983e+08,22.963,12620,591.1,0,591.1,0,0.0005118,1.4702e-09,0,0.0002573,9.5878e-05,1.9287e+08,482.58,0,9.5193e+07,58.062,591.1,1
2044,3.1,12111,1,12111,1,3.1445e-05,1.7004e-09,0,0.00044487,-5.7578e-06,-7.9131,550.76,0,1.6817e+08,0.17103,12110,13208,1,13208,1,0.00088943,3.9442e-09,0,0.00088943,0.00015502,3.0295e+08,1266.1,0,3.3619e+08,129.9,13207,12110,1,12110,1,3.1445e-05,1.7392e-09,0,0.00044487,-5.7838e-06,1.1955e+07,559.25,0,1.7107e+08,-1.1689,12109,11089,1,11089,1,-0.00082654,-5.9525e-10,0,3.3015e-07,-0.00016647,-3.3619e+08,-203.88,0,3.2759e+05,-192.27,11088,11599,1,11599,1,-0.00041343,7.5776e-10,0,0.00022244,-8.9095e-05,-1.6815e+08,237.29,0,8.6315e+07,-23.715,11598,12621,1,12621,1,0.00047632,2.6588e-09,0,0.00066731,7.7572e-05,1.7153e+08,860.06,0,2.5052e+08,22.559,12620,591.1,0,591.1,0,0.00051349,1.2129e-09,0,0.00025818,9.6194e-05,1.9341e+08,395.6,0,9.5453e+07,43.336,591.1,1
2044,3.11,12111,1,12111,1,3.1767e-05,-7.3957e-10,0,0.00044634,-5.8166e-06,133.8,-238.29,0,1.6863e+08,-1.1506,12110,13208,1,13208,1,0.00089258,3.1436e-09,0,0.00089258,0.00015549,3.0365e+08,1035.8,0,3.372e+08,136.44,13207,12110,1,12110,1,3.1767e-05,-2.8372e-10,0,0.00044634,-5.843e-06,1.2073e+07,-91.326,0,1.7156e+08,-6.6131,12109,11089,1,11089,1,-0.00082904,-4.9763e-09,0,1.1354e-07,-0.00016706,-3.372e+08,-1612.2,0,2.4378e+05,-192.85,11088,11599,1,11599,1,-0.00041457,-2.1217e-09,0,0.00022317,-8.9428e-05,-1.6862e+08,-685.89,0,8.6568e+07,-39.709,11598,12621,1,12621,1,0.00047811,5.9565e-10,0,0.00066951,7.7787e-05,1.7203e+08,193.55,0,2.512e+08,35.985,12620,591.1,0,591.1,0,0.00051518,1.9188e-09,0,0.00025905,9.651e-05,1.9394e+08,625.09,0,9.5713e+07,55.722,591.1,1
2044,3.12,12111,1,12111,1,3.2089e-05,-9.041e-10,0,0.00044781,-5.8757e-06,-9.9047,-294.87,0,1.691e+08,-5.9641,12110,13208,1,13208,1,0.00089573,2.883e-09,0,0.00089573,0.00015596,3.0434e+08,955.8,0,3.3822e+08,117.55,13207,12110,1,12110,1,3.2089e-05,-6.2048e-10,0,0.00044781,-5.9025e-06,1.2192e+07,-195.13,0,1.7206e+08,-4.2375,12109,11089,1,11089,1,-0.00083155,-4.6599e-09,0,1.0271e-07,-0.00016764,-3.3822e+08,-1512.9,0,1.5954e+05,-184.97,11088,11599,1,11599,1,-0.00041572,-2.252e-09,0,0.0002239,-8.9762e-05,-1.6909e+08,-735.8,0,8.682e+07,-51.002,11598,12621,1,12621,1,0.0004799,2.9865e-10,0,0.00067171,7.8002e-05,1.7253e+08,95.939,0,2.5188e+08,44.118,12620,591.1,0,591.1,0,0.00051688,1.731e-09,0,0.00025992,9.6827e-05,1.9447e+08,567.02,0,9.5973e+07,59.296,591.1,1
2044,3.13,12111,1,12111,1,3.2415e-05,-8.4397e-10,0,0.00044929,-5.9354e-06,122,-275.92,0,1.6956e+08,-16.768,12110,13208,1,13208,1,0.00089889,2.0042e-09,0,0.00089889,0.00015643,3.0503e+08,685.82,0,3.3924e+08,111.69,13207,12110,1,12110,1,3.2415e-05,-5.2223e-10,0,0.00044927,-5.9625e-06,1.2312e+07,-174.54,0,1.7255e+08,-17.946,12109,11089,1,11089,1,-0.00083406,-4.256e-09,0,3.2386e-07,-0.00016823,-3.3924e+08,-1382.7,0,73994,-149.54,11088,11599,1,11599,1,-0.00041686,-1.9653e-09,0,0.00022464,-9.0096e-05,-1.6955e+08,-640.37,0,8.7073e+07,-54.178,11598,12621,1,12621,1,0.00048169,3.6241e-10,0,0.00067391,7.8217e-05,1.7302e+08,109.25,0,2.5256e+08,19.492,12620,591.1,0,591.1,0,0.00051857,1.5121e-09,0,0.00026077,9.7144e-05,1.95e+08,495.4,0,9.6233e+07,49.467,591.1,1
2044,3.14,12111,1,12111,1,3.2743e-05,1.0342e-10,0,0.00045079,-5.9955e-06,27.652,31.146,0,1.7003e+08,-14.569,12110,13208,1,13208,1,0.00090205,7.1681e-10,0,0.00090205,0.0001569,3.0571e+08,245.44,0,3.4026e+08,45.168,13207,12110,1,12110,1,3.2744e-05,1.0913e-10,0,0.00045075,-6.0229e-06,1.2433e+07,34.147,0,1.7304e+08,-12.731,12109,11089,1,11089,1,-0.00083656,-2.619e-10,0,5.4633e-07,-0.00016882,-3.4026e+08,-89.687,0,11330,-95.224,11088,11599,1,11599,1,-0.000418,-5.6509e-11,0,0.00022537,-9.0431e-05,-1.7002e+08,-18.723,0,8.7326e+07,-26.349,11598,12621,1,12621,1,0.00048349,2.5405e-10,0,0.00067612,7.8432e-05,1.7352e+08,78.649,0,2.5325e+08,-1.6172,12620,591.1,0,591.1,0,0.00052027,2.0635e-10,0,0.00026163,9.7462e-05,1.9554e+08,66.662,0,9.6492e+07,19.829,591.1,1
2044,3.15,12111,1,12111,1,3.3074e-05,-6.2019e-10,0,0.00045226,-6.056e-06,-117.4,-201.8,0,1.705e+08,6.1459,12110,13208,1,13208,1,0.0009052,3.3595e-09,0,0.0009052,0.00015737,3.064e+08,1106.5,0,3.4128e+08,181.37,13207,12110,1,12110,1,3.3074e-05,-2.6456e-10,0,0.00045221,-6.0837e-06,1.2554e+07,-84.457,0,1.7353e+08,-1.2437,12109,11089,1,11089,1,-0.00083906,-4.3134e-09,0,7.7304e-07,-0.00016941,-3.4128e+08,-1395.1,0,98917,-185.61,11088,11599,1,11599,1,-0.00041913,-1.8337e-09,0,0.0002261,-9.0765e-05,-1.7048e+08,-593.11,0,8.7576e+07,-37.023,11598,12621,1,12621,1,0.00048528,4.618e-10,0,0.00067831,7.8644e-05,1.7401e+08,146.93,0,2.5392e+08,48.928,12620,591.1,0,591.1,0,0.00052196,1.7362e-09,0,0.00026248,9.7777e-05,1.9606e+08,565.34,0,9.6737e+07,61.762,591.1,1
2044,3.16,12111,1,12111,1,3.3405e-05,-3.0505e-11,0,0.00045374,-6.1166e-06,-208.66,-11.279,0,1.7096e+08,15.853,12110,13208,1,13208,1,0.00090836,5.547e-09,0,0.00090836,0.00015784,3.0708e+08,1810.1,0,3.4229e+08,159.88,13207,12110,1,12110,1,3.3405e-05,1.0691e-10,0,0.00045367,-6.1446e-06,1.2676e+07,35.727,0,1.7402e+08,7.9942,12109,11089,1,11089,1,-0.00084155,-4.4108e-09,0,9.9945e-07,-0.00017,-3.4229e+08,-1426,0,1.8637e+05,-163.62,11088,11599,1,11599,1,-0.00042027,-1.5447e-09,0,0.00022684,-9.1099e-05,-1.7094e+08,-506.89,0,8.7827e+07,-30.571,11598,12621,1,12621,1,0.00048708,1.1967e-09,0,0.00068051,7.8857e-05,1.745e+08,381.6,0,2.546e+08,66.591,12620,591.1,0,591.1,0,0.00052365,2.2195e-09,0,0.00026333,9.8093e-05,1.9659e+08,723.83,0,9.6983e+07,63.283,591.1,1
2044,3.17,12111,1,12111,1,3.374e-05,9.5244e-10,0,0.00045523,-6.178e-06,-19.884,307.81,0,1.7143e+08,-5.1825,12110,13208,1,13208,1,0.00091153,4.1819e-09,0,0.00091153,0.00015831,3.0776e+08,1368.7,0,3.4331e+08,71.616,13207,12110,1,12110,1,3.3741e-05,6.7667e-10,0,0.00045515,-6.2064e-06,1.28e+07,210.1,0,1.7451e+08,-4.483,12109,11089,1,11089,1,-0.00084405,-1.5866e-09,0,1.2296e-06,-0.00017059,-3.4331e+08,-532.35,0,2.7522e+05,-138.63,11088,11599,1,11599,1,-0.00042141,1.4631e-11,0,0.00022757,-9.1436e-05,-1.714e+08,4.9927,0,8.8079e+07,-31.12,11598,12621,1,12621,1,0.00048889,1.8579e-09,0,0.00068272,7.9071e-05,1.75e+08,599.76,0,2.5528e+08,22.418,12620,591.1,0,591.1,0,0.00052535,1.289e-09,0,0.00026418,9.8411e-05,1.9712e+08,423.19,0,9.7231e+07,34.43,591.1,1
2044,3.18,12111,1,12111,1,3.408e-05,2.1032e-10,0,0.00045673,-6.2401e-06,46.28,69.033,0,1.7191e+08,-14.281,12110,13208,1,13208,1,0.00091472,1.4296e-09,0,0.00091472,0.00015878,3.0844e+08,469.21,0,3.4433e+08,47.761,13207,12110,1,12110,1,3.408e-05,8.4372e-11,0,0.00045663,-6.2689e-06,1.2924e+07,26.214,0,1.75e+08,-13.815,12109,11089,1,11089,1,-0.00084656,-3.167e-10,0,1.4633e-06,-0.00017119,-3.4433e+08,-108.46,0,3.6545e+05,-91.942,11088,11599,1,11599,1,-0.00042255,-2.5652e-11,0,0.00022831,-9.1775e-05,-1.7186e+08,-8.1623,0,8.8332e+07,-26.012,11598,12621,1,12621,1,0.00049071,3.2268e-10,0,0.00068494,7.9286e-05,1.7549e+08,105.33,0,2.5596e+08,-2.8385,12620,591.1,0,591.1,0,0.00052706,3.5992e-10,0,0.00026504,9.873e-05,1.9766e+08,119.17,0,9.7479e+07,19.684,591.1,1
2044,3.19,12111,1,12111,1,3.442e-05,-1.1575e-09,0,0.00045821,-6.3023e-06,-377.49,-373.93,0,1.7237e+08,7.2942,12110,13208,1,13208,1,0.0009179,6.4233e-10,0,0.0009179,0.00015925,3.0911e+08,220,0,3.4534e+08,146.87,13207,12110,1,12110,1,3.4419e-05,-1.1681e-09,0,0.00045809,-6.3313e-06,1.3049e+07,-375.4,0,1.7549e+08,2.0863,12109,11089,1,11089,1,-0.00084906,-3.179e-09,0,1.6988e-06,-0.00017178,-3.4534e+08,-1026.5,0,4.5632e+05,-148.55,11088,11599,1,11599,1,-0.00042367,-1.9799e-09,0,0.00022905,-9.2111e-05,-1.7232e+08,-636.98,0,8.8581e+07,-16.82,11598,12621,1,12621,1,0.00049251,-3.4101e-10,0,0.00068714,7.9497e-05,1.7598e+08,-108.58,0,2.5663e+08,27.807,12620,591.1,0,591.1,0,0.00052875,9.7955e-10,0,0.00026589,9.9046e-05,1.9818e+08,317.68,0,9.7723e+07,42.158,591.1,1
2044,3.2,12111,1,12111,1,3.4761e-05,-1.5062e-09,0,0.00045969,-6.3648e-06,-49.023,-489.36,0,1.7283e+08,-0.065791,12110,13208,1,13208,1,0.00092107,1.971e-09,0,0.00092107,0.00015971,3.0978e+08,674.39,0,3.4636e+08,178.64,13207,12110,1,12110,1,3.4761e-05,-1.2962e-09,0,0.00045956,-6.3942e-06,1.3174e+07,-412.02,0,1.7598e+08,-0.027694,12109,11089,1,11089,1,-0.00085154,-5.749e-09,0,1.9348e-06,-0.00017237,-3.4636e+08,-1856.5,0,5.4747e+05,-197.41,11088,11599,1,11599,1,-0.00042479,-3.0326e-09,0,0.00022978,-9.2447e-05,-1.7278e+08,-986.13,0,8.8831e+07,-44.295,11598,12621,1,12621,1,0.00049432,1.3346e-10,0,0.00068933,7.9708e-05,1.7647e+08,40.982,0,2.573e+08,41.467,12620,591.1,0,591.1,0,0.00053044,1.8761e-09,0,0.00026675,9.9362e-05,1.987e+08,611.01,0,9.7967e+07,61.744,591.1,1
2044,3.21,12111,1,12111,1,3.5106e-05,8.9252e-10,0,0.00046118,-6.428e-06,93.247,285.87,0,1.733e+08,-0.40284,12110,13208,1,13208,1,0.00092424,5.3681e-09,0,0.00092424,0.00016018,3.1045e+08,1731.9,0,3.4736e+08,112.18,13207,12110,1,12110,1,3.5107e-05,3.6756e-10,0,0.00046103,-6.4578e-06,1.3301e+07,109.8,0,1.7646e+08,-2.1227,12109,11089,1,11089,1,-0.00085402,-1.2089e-09,0,2.1749e-06,-0.00017296,-3.4736e+08,-408.93,0,6.3999e+05,-157.99,11088,11599,1,11599,1,-0.00042592,-1.8445e-10,0,0.00023051,-9.2785e-05,-1.7324e+08,-57.703,0,8.9081e+07,-36.657,11598,12621,1,12621,1,0.00049613,1.7714e-09,0,0.00069154,7.992e-05,1.7696e+08,556.97,0,2.5797e+08,35.304,12620,591.1,0,591.1,0,0.00053214,1.5325e-09,0,0.0002676,9.968e-05,1.9923e+08,499.01,0,9.8212e+07,48.829,591.1,1
2044,3.22,12111,1,12111,1,3.5454e-05,1.0737e-09,0,0.00046268,-6.4916e-06,-75.821,347.69,0,1.7376e+08,4.8262,12110,13208,1,13208,1,0.00092744,3.2243e-09,0,0.00092744,0.00016065,3.1111e+08,1056.9,0,3.4838e+08,107.32,13207,12110,1,12110,1,3.5454e-05,9.3325e-10,0,0.0004625,-6.523e-06,1.3429e+07,298.19,0,1.7695e+08,6.8699,12109,11089,1,11089,1,-0.00085653,-3.4029e-10,0,2.4176e-06,-0.00017356,-3.4838e+08,-105.55,0,7.3354e+05,-1153.7,11088,11599,1,11599,1,-0.00042705,4.4857e-10,0,0.00023125,-9.3125e-05,-1.7369e+08,143.98,0,8.9331e+07,-15.566,11598,12621,1,12621,1,0.00049796,1.6499e-09,0,0.00069376,8.0133e-05,1.7746e+08,531.57,0,2.5864e+08,27.739,12620,591.1,0,591.1,0,0.00053384,8.2288e-10,0,0.00026846,9.9998e-05,1.9976e+08,270.26,0,9.8457e+07,54.594,591.1,1
2044,3.23,12111,1,12111,1,3.5805e-05,-1.1135e-09,0,0.00046416,-6.5559e-06,16.609,-357.97,0,1.7423e+08,-12.526,12110,13208,1,13208,1,0.00093062,7.2967e-10,0,0.00093062,0.00016111,3.1177e+08,249.91,0,3.4939e+08,120.14,13207,12110,1,12110,1,3.5805e-05,-1.0056e-09,0,0.00046397,-6.5874e-06,1.3557e+07,-316.95,0,1.7744e+08,-10.569,12109,11089,1,11089,1,-0.00085901,-3.4875e-09,0,2.6631e-06,-0.00017415,-3.4939e+08,-1124.2,0,8.281e+05,-1078.8,11088,11599,1,11599,1,-0.00042817,-1.7753e-09,0,0.00023199,-9.3463e-05,-1.7415e+08,-571.82,0,8.958e+07,-41.047,11598,12621,1,12621,1,0.00049978,-3.6767e-10,0,0.00069596,8.0343e-05,1.7794e+08,-117.05,0,2.5931e+08,19.137,12620,591.1,0,591.1,0,0.00053554,9.8945e-10,0,0.00026932,0.00010032,2.0028e+08,320.09,0,9.87e+07,58.319,591.1,1
2044,3.24,12111,1,12111,1,3.6155e-05,-1.2503e-09,0,0.00046564,-6.62e-06,-172.18,-405.77,0,1.7468e+08,14.512,12110,13208,1,13208,1,0.0009338,3.7199e-09,0,0.0009338,0.00016158,3.1243e+08,1198.7,0,3.504e+08,185.46,13207,12110,1,12110,1,3.6155e-05,-9.286e-10,0,0.00046543,-6.6517e-06,1.3685e+07,-297.04,0,1.7792e+08,13.262,12109,11089,1,11089,1,-0.00086149,-5.8737e-09,0,2.9093e-06,-0.00017474,-3.504e+08,-1892.5,0,9.2305e+05,-919.59,11088,11599,1,11599,1,-0.00042928,-2.9206e-09,0,0.00023272,-9.3801e-05,-1.746e+08,-941.3,0,8.9826e+07,-33.007,11598,12621,1,12621,1,0.00050159,2.7176e-10,0,0.00069815,8.0551e-05,1.7843e+08,82.699,0,2.5997e+08,64.635,12620,591.1,0,591.1,0,0.00053722,2.1516e-09,0,0.00027017,0.00010063,2.0079e+08,698.92,0,9.894e+07,85.169,591.1,1
2044,3.25,12111,1,12111,1,3.6509e-05,-1.618e-09,0,0.00046713,-6.6847e-06,130.98,-525.36,0,1.7515e+08,2.4098,12110,13208,1,13208,1,0.00093701,6.8038e-09,0,0.00093701,0.00016205,3.1309e+08,2196.8,0,3.5141e+08,277.94,13207,12110,1,12110,1,3.6509e-05,-8.5597e-10,0,0.00046691,-6.7167e-06,1.3815e+07,-274.2,0,1.784e+08,2.7732,12109,11089,1,11089,1,-0.00086398,-9.9243e-09,0,3.1574e-06,-0.00017534,-3.5141e+08,-3196.2,0,1.0186e+06,-791.55,11088,11599,1,11599,1,-0.0004304,-4.3942e-09,0,0.00023345,-9.4141e-05,-1.7506e+08,-1412.4,0,9.0075e+07,-71.403,11598,12621,1,12621,1,0.00050342,9.5983e-10,0,0.00070036,8.0762e-05,1.7892e+08,303.87,0,2.6064e+08,82.259,12620,591.1,0,591.1,0,0.00053892,3.8019e-09,0,0.00027102,0.00010095,2.0132e+08,1235.9,0,9.9182e+07,128.99,591.1,1
2044,3.26,12111,1,12111,1,3.6865e-05,2.2698e-09,0,0.00046863,-6.7501e-06,13.987,729.67,0,1.7561e+08,-22.699,12110,13208,1,13208,1,0.00094021,4.3707e-09,0,0.00094021,0.00016252,3.1375e+08,1392.7,0,3.5243e+08,141.32,13207,12110,1,12110,1,3.6866e-05,2.5542e-09,0,0.00046839,-6.7821e-06,1.3946e+07,816.5,0,1.7889e+08,-22.401,12109,11089,1,11089,1,-0.00086648,-6.7082e-10,0,3.4076e-06,-0.00017594,-3.5243e+08,-229.76,0,1.1149e+06,-526.13,11088,11599,1,11599,1,-0.00043152,1.218e-09,0,0.00023419,-9.4484e-05,-1.7551e+08,368.78,0,9.0327e+07,-44.524,11598,12621,1,12621,1,0.00050526,3.4273e-09,0,0.00070259,8.0974e-05,1.7941e+08,1124,0,2.6131e+08,7.7114,12620,591.1,0,591.1,0,0.00054064,1.3836e-09,0,0.00027189,0.00010127,2.0184e+08,447.77,0,9.9428e+07,71.116,591.1,1
2044,3.27,12111,1,12111,1,3.7228e-05,-1.0666e-09,0,0.00047013,-6.8165e-06,-72.558,-341.36,0,1.7607e+08,-15.91,12110,13208,1,13208,1,0.00094341,6.2779e-10,0,0.00094341,0.00016298,3.1439e+08,215.02,0,3.5344e+08,84.687,13207,12110,1,12110,1,3.7229e-05,-9.34e-10,0,0.00046987,-6.8486e-06,1.4078e+07,-296.78,0,1.7938e+08,-9.8605,12109,11089,1,11089,1,-0.00086895,-3.3231e-09,0,3.6658e-06,-0.00017653,-3.5344e+08,-1069.3,0,1.2143e+06,-350.42,11088,11599,1,11599,1,-0.00043264,-1.8294e-09,0,0.00023493,-9.4825e-05,-1.7597e+08,-588.95,0,9.0574e+07,-36.971,11598,12621,1,12621,1,0.00050709,-2.6126e-10,0,0.0007048,8.1183e-05,1.799e+08,-86.45,0,2.6197e+08,15.728,12620,591.1,0,591.1,0,0.00054234,9.66e-10,0,0.00027275,0.00010159,2.0236e+08,311.58,0,9.9668e+07,53.593,591.1,1
2044,3.28,12111,1,12111,1,3.7591e-05,2.4964e-09,0,0.00047161,-6.8828e-06,-25.873,803.8,0,1.7653e+08,8.1331,12110,13208,1,13208,1,0.00094662,5.8311e-09,0,0.00094662,0.00016345,3.1504e+08,1854.6,0,3.5445e+08,175.39,13207,12110,1,12110,1,3.7591e-05,2.6457e-09,0,0.00047134,-6.915e-06,1.4211e+07,851.49,0,1.7986e+08,-3.9196,12109,11089,1,11089,1,-0.00087144,-9.6222e-10,0,3.923e-06,-0.00017713,-3.5445e+08,-329.56,0,1.3133e+06,-175.38,11088,11599,1,11599,1,-0.00043374,9.9193e-10,0,0.00023567,-9.5166e-05,-1.7642e+08,314.46,0,9.0821e+07,-37.698,11598,12621,1,12621,1,0.00050893,3.9897e-09,0,0.000707,8.1391e-05,1.8038e+08,1284.3,0,2.6263e+08,53.481,12620,591.1,0,591.1,0,0.00054404,1.7953e-09,0,0.0002736,0.0001019,2.0288e+08,582.22,0,9.9908e+07,67.877,591.1,1
2044,3.29,12111,1,12111,1,3.7956e-05,-1.4727e-09,0,0.00047311,-6.9496e-06,-38.761,-470.3,0,1.7699e+08,-10.268,12110,13208,1,13208,1,0.00094982,8.2748e-10,0,0.00094982,0.00016391,3.1569e+08,283.41,0,3.5545e+08,98.658,13207,12110,1,12110,1,3.7956e-05,-1.2405e-09,0,0.00047281,-6.9819e-06,1.4344e+07,-389.31,0,1.8034e+08,-3.7383,12109,11089,1,11089,1,-0.00087391,-4.5898e-09,0,4.1821e-06,-0.00017773,-3.5545e+08,-1511.7,0,1.4129e+06,-381.38,11088,11599,1,11599,1,-0.00043486,-2.3939e-09,0,0.0002364,-9.5509e-05,-1.7687e+08,-769.13,0,9.1069e+07,-32.724,11598,12621,1,12621,1,0.00051077,-4.5399e-10,0,0.00070922,8.16e-05,1.8087e+08,-149.46,0,2.633e+08,24.662,12620,591.1,0,591.1,0,0.00054574,1.2886e-09,0,0.00027447,0.00010222,2.034e+08,414.11,0,1.0015e+08,61.671,591.1,1
2044,3.3,12111,1,12111,1,3.8324e-05,-3.8893e-10,0,0.0004746,-7.017e-06,242.37,-127.15,0,1.7745e+08,-22.48,12110,13208,1,13208,1,0.00095303,1.438e-09,0,0.00095303,0.00016437,3.1632e+08,473.45,0,3.5646e+08,98.665,13207,12110,1,12110,1,3.8324e-05,-6.2659e-11,0,0.00047429,-7.0495e-06,1.4478e+07,-19.46,0,1.8082e+08,-11.679,12109,11089,1,11089,1,-0.00087638,-3.2629e-09,0,4.446e-06,-0.00017833,-3.5646e+08,-1074.1,0,1.5144e+06,-532.03,11088,11599,1,11599,1,-0.00043596,-1.0271e-09,0,0.00023714,-9.5852e-05,-1.7732e+08,-329.99,0,9.1315e+07,-41.212,11598,12621,1,12621,1,0.00051261,3.4814e-10,0,0.00071143,8.1808e-05,1.8135e+08,111.12,0,2.6395e+08,13.491,12620,591.1,0,591.1,0,0.00054744,9.5996e-10,0,0.00027532,0.00010254,2.0391e+08,312.14,0,1.0039e+08,74.461,591.1,1
2044,3.31,12111,1,12111,1,3.8693e-05,-7.4074e-10,0,0.00047609,-7.0844e-06,-185.39,-240.22,0,1.779e+08,-1.2236,12110,13208,1,13208,1,0.00095625,3.3529e-09,0,0.00095625,0.00016484,3.1696e+08,1103.4,0,3.5747e+08,187.82,13207,12110,1,12110,1,3.8693e-05,-5.0944e-10,0,0.00047576,-7.1169e-06,1.4613e+07,-160.43,0,1.813e+08,6.1895,12109,11089,1,11089,1,-0.00087886,-4.8601e-09,0,4.7094e-06,-0.00017893,-3.5747e+08,-1599.4,0,1.6156e+06,-751.08,11088,11599,1,11599,1,-0.00043707,-1.9089e-09,0,0.00023788,-9.6195e-05,-1.7777e+08,-615.34,0,9.1561e+07,-37.114,11598,12621,1,12621,1,0.00051445,3.524e-10,0,0.00071364,8.2016e-05,1.8183e+08,112.06,0,2.6461e+08,51.138,12620,591.1,0,591.1,0,0.00054914,1.5038e-09,0,0.00027618,0.00010286,2.0443e+08,487.95,0,1.0063e+08,98.451,591.1,1
2044,3.32,12111,1,12111,1,3.9065e-05,1.6709e-09,0,0.00047759,-7.1526e-06,-56.954,535.99,0,1.7836e+08,3.3967,12110,13208,1,13208,1,0.00095946,5.2994e-09,0,0.00095946,0.0001653,3.176e+08,1743,0,3.5847e+08,133.32,13207,12110,1,12110,1,3.9066e-05,1.5622e-09,0,0.00047724,-7.1853e-06,1.4749e+07,494.13,0,1.8178e+08,8.763,12109,11089,1,11089,1,-0.00088133,-4.5093e-10,0,4.9763e-06,-0.00017953,-3.5847e+08,-148.47,0,1.7182e+06,-1002,11088,11599,1,11599,1,-0.00043817,7.463e-10,0,0.00023862,-9.6539e-05,-1.7822e+08,241.26,0,9.1808e+07,-17.58,11598,12621,1,12621,1,0.0005163,2.6191e-09,0,0.00071585,8.2223e-05,1.8232e+08,835.97,0,2.6527e+08,33.603,12620,591.1,0,591.1,0,0.00055085,1.1883e-09,0,0.00027705,0.00010318,2.0494e+08,385.7,0,1.0087e+08,86.683,591.1,1
2044,3.33,12111,1,12111,1,3.9441e-05,1.4804e-09,0,0.00047908,-7.2213e-06,9.2874,479.23,0,1.7882e+08,5.0782,12110,13208,1,13208,1,0.00096269,5.0059e-09,0,0.00096269,0.00016577,3.1823e+08,1626.5,0,3.5948e+08,136.39,13207,12110,1,12110,1,3.9441e-05,1.0496e-09,0,0.00047871,-7.2528e-06,1.4886e+07,334.56,0,1.8226e+08,-2.8325,12109,11089,1,11089,1,-0.0008838,-3.5144e-10,0,5.2466e-06,-0.00018013,-3.5948e+08,-97.996,0,1.822e+06,-172.53,11088,11599,1,11599,1,-0.00043927,5.3111e-10,0,0.00023936,-9.6883e-05,-1.7866e+08,165.2,0,9.2053e+07,-32.518,11598,12621,1,12621,1,0.00051815,2.31e-09,0,0.00071807,8.243e-05,1.828e+08,747.96,0,2.6592e+08,43.588,12620,591.1,0,591.1,0,0.00055255,1.2698e-09,0,0.00027791,0.00010349,2.0546e+08,416.36,0,1.011e+08,52.548,591.1,1
2044,3.34,12111,1,12111,1,3.9818e-05,7.185e-10,0,0.00048059,-7.2904e-06,16.725,235.48,0,1.7927e+08,-4.1528,12110,13208,1,13208,1,0.00096592,3.4591e-09,0,0.00096592,0.00016623,3.1887e+08,1137.2,0,3.6048e+08,105.33,13207,12110,1,12110,1,3.9818e-05,7.4815e-10,0,0.00048019,-7.3233e-06,1.5023e+07,238.93,0,1.8274e+08,-4.3356,12109,11089,1,11089,1,-0.00088628,-4.92e-10,0,5.5173e-06,-0.00018073,-3.6048e+08,-166.94,0,1.926e+06,-1398.1,11088,11599,1,11599,1,-0.00044037,1.7263e-10,0,0.0002401,-9.7229e-05,-1.7911e+08,55.3,0,9.23e+07,-20.097,11598,12621,1,12621,1,0.00052001,1.1967e-09,0,0.00072029,8.2638e-05,1.8328e+08,398.19,0,2.6657e+08,11.558,12620,591.1,0,591.1,0,0.00055426,6.6326e-10,0,0.00027877,0.00010381,2.0597e+08,218.55,0,1.0134e+08,51.561,591.1,1
2044,3.35,12111,1,12111,1,4.02e-05,9.9781e-10,0,0.00048208,-7.3602e-06,0.26254,324.64,0,1.7973e+08,4.7834,12110,13208,1,13208,1,0.00096915,2.2e-09,0,0.00096915,0.00016669,3.1949e+08,729.9,0,3.6149e+08,151.8,13207,12110,1,12110,1,4.02e-05,1.1283e-09,0,0.00048167,-7.3913e-06,1.5162e+07,358.42,0,1.8322e+08,0.73827,12109,11089,1,11089,1,-0.00088875,-6.3052e-10,0,5.7944e-06,-0.00018133,-3.6149e+08,-211.79,0,2.0322e+06,-98.969,11088,11599,1,11599,1,-0.00044147,3.7769e-10,0,0.00024084,-9.7575e-05,-1.7956e+08,109.72,0,9.2545e+07,-16.38,11598,12621,1,12621,1,0.00052187,1.7155e-09,0,0.0007225,8.2844e-05,1.8376e+08,562.86,0,2.6714e+08,20.726,12620,591.1,0,591.1,0,0.00055596,7.8898e-10,0,0.00027964,0.00010413,2.0648e+08,258.59,0,1.0158e+08,33.838,591.1,1
2044,3.36,12111,1,12111,1,4.0584e-05,-1.0666e-09,0,0.00048359,-7.4305e-06,41.659,-339.74,0,1.8018e+08,-20.96,12110,13208,1,13208,1,0.00097239,8.5033e-10,0,0.00097239,0.00016716,3.2012e+08,291.24,0,3.625e+08,116.53,13207,12110,1,12110,1,4.0584e-05,-1.0221e-09,0,0.00048315,-7.4612e-06,1.5302e+07,-317.81,0,1.837e+08,-18.765,12109,11089,1,11089,1,-0.00089123,-3.1178e-09,0,6.0721e-06,-0.00018193,-3.625e+08,-998.61,0,2.1387e+06,-288.37,11088,11599,1,11599,1,-0.00044257,-1.9443e-09,0,0.00024157,-9.7922e-05,-1.8001e+08,-622.8,0,9.2791e+07,-48.782,11598,12621,1,12621,1,0.00052374,-1.2022e-10,0,0.00072473,8.305e-05,1.8425e+08,-38.083,0,2.6771e+08,14.681,12620,591.1,0,591.1,0,0.00055768,1.0478e-09,0,0.0002805,0.00010445,2.07e+08,334.65,0,1.0182e+08,57.823,591.1,1
2044,3.37,12111,1,12111,1,4.0969e-05,1.1302e-09,0,0.00048507,-7.5009e-06,29.579,361.49,0,1.8063e+08,8.2704,12110,13208,1,13208,1,0.0009756,5.9106e-09,0,0.0009756,0.00016762,3.2073e+08,1911.4,0,3.6349e+08,186.3,13207,12110,1,12110,1,4.0969e-05,4.8657e-10,0,0.00048462,-7.5313e-06,1.5442e+07,152.62,0,1.8417e+08,2.1945,12109,11089,1,11089,1,-0.00089366,-4.1195e-10,0,6.3532e-06,-0.00018253,-3.6349e+08,-141.1,0,2.2465e+06,-171.6,11088,11599,1,11599,1,-0.00044365,8.4371e-11,0,0.00024231,-9.8267e-05,-1.8045e+08,26.717,0,9.3034e+07,-24.823,11598,12621,1,12621,1,0.00052559,1.7901e-09,0,0.00072693,8.3254e-05,1.8472e+08,569.18,0,2.6827e+08,27.42,12620,591.1,0,591.1,0,0.00055937,1.4504e-09,0,0.00028136,0.00010477,2.075e+08,468.51,0,1.0205e+08,50.794,591.1,1
2044,3.38,12111,1,12111,1,4.1356e-05,3.5863e-10,0,0.00048658,-7.5717e-06,-43.364,116.94,0,1.8108e+08,-9.1635,12110,13208,1,13208,1,0.00097885,2.2357e-09,0,0.00097885,0.00016808,3.2135e+08,733.29,0,3.6449e+08,84.838,13207,12110,1,12110,1,4.1357e-05,2.3869e-10,0,0.0004861,-7.602e-06,1.5582e+07,74.436,0,1.8465e+08,-8.629,12109,11089,1,11089,1,-0.00089613,-7.996e-10,0,6.6345e-06,-0.00018314,-3.6449e+08,-256.03,0,2.3543e+06,-106.36,11088,11599,1,11599,1,-0.00044475,-1.1586e-10,0,0.00024305,-9.8615e-05,-1.8089e+08,-35.388,0,9.3279e+07,-35.552,11598,12621,1,12621,1,0.00052746,7.0245e-10,0,0.00072915,8.346e-05,1.852e+08,223.31,0,2.6883e+08,16.053,12620,591.1,0,591.1,0,0.00056108,6.9273e-10,0,0.00028223,0.00010509,2.0801e+08,226.76,0,1.0229e+08,35.532,591.1,1
2044,3.39,12111,1,12111,1,4.1747e-05,-1.9087e-09,0,0.00048807,-7.6432e-06,-123,-611.74,0,1.8153e+08,1.0016,12110,13208,1,13208,1,0.0009821,8.2757e-10,0,0.0009821,0.00016854,3.2197e+08,283.45,0,3.6549e+08,161.01,13207,12110,1,12110,1,4.1747e-05,-1.7284e-09,0,0.00048758,-7.6732e-06,1.5724e+07,-550.1,0,1.8512e+08,-0.062956,12109,11089,1,11089,1,-0.0008986,-5.4058e-09,0,6.92e-06,-0.00018374,-3.6549e+08,-1730.1,0,2.4637e+06,-220.04,11088,11599,1,11599,1,-0.00044583,-2.7835e-09,0,0.00024379,-9.8962e-05,-1.8133e+08,-886.09,0,9.3522e+07,-35.567,11598,12621,1,12621,1,0.00052933,-8.9808e-10,0,0.00073137,8.3664e-05,1.8568e+08,-279.06,0,2.6939e+08,31.863,12620,591.1,0,591.1,0,0.00056278,1.444e-09,0,0.00028309,0.00010541,2.0852e+08,467.51,0,1.0252e+08,58.541,591.1,1
2044,3.4,12111,1,12111,1,4.2137e-05,-3.1844e-09,0,0.00048955,-7.7146e-06,165.71,-1024.8,0,1.8198e+08,-9.1837,12110,13208,1,13208,1,0.00098533,3.488e-09,0,0.00098533,0.000169,3.2258e+08,1193.1,0,3.6649e+08,400.19,13207,12110,1,12110,1,4.2137e-05,-2.2373e-09,0,0.00048904,-7.7445e-06,1.5866e+07,-704.35,0,1.8559e+08,-15.73,12109,11089,1,11089,1,-0.00090105,-1.3231e-08,0,7.2052e-06,-0.00018435,-3.6649e+08,-4234.1,0,2.573e+06,-362.37,11088,11599,1,11599,1,-0.0004469,-6.2303e-09,0,0.00024452,-9.9307e-05,-1.8177e+08,-1994.5,0,9.3762e+07,-106.03,11598,12621,1,12621,1,0.00053118,2.7931e-10,0,0.00073356,8.3865e-05,1.8615e+08,89.193,0,2.6994e+08,73.13,12620,591.1,0,591.1,0,0.00056447,4.1572e-09,0,0.00028394,0.00010572,2.0902e+08,1342.7,0,1.0275e+08,139,591.1,1
2044,3.41,12111,1,12111,1,4.2534e-05,9.1403e-10,0,0.00049107,-7.7872e-06,-27.357,284.8,0,1.8243e+08,-18.158,12110,13208,1,13208,1,0.00098858,2.2013e-09,0,0.00098858,0.00016947,3.2319e+08,695.97,0,3.6749e+08,83.733,13207,12110,1,12110,1,4.2535e-05,9.7282e-10,0,0.00049054,-7.8167e-06,1.601e+07,304.17,0,1.8607e+08,-18.095,12109,11089,1,11089,1,-0.00090351,-4.9654e-10,0,7.4935e-06,-0.00018495,-3.6749e+08,-170.05,0,2.6832e+06,-145.49,11088,11599,1,11599,1,-0.00044801,2.2777e-10,0,0.00024527,-9.9659e-05,-1.8222e+08,76.465,0,9.401e+07,-41.28,11598,12621,1,12621,1,0.00053308,1.5677e-09,0,0.00073581,8.4073e-05,1.8664e+08,487.26,0,2.7051e+08,5.8645,12620,591.1,0,591.1,0,0.0005662,7.5161e-10,0,0.00028482,0.00010605,2.0954e+08,234.49,0,1.0299e+08,33.33,591.1,1
2044,3.42,12111,1,12111,1,4.2936e-05,4.2322e-09,0,0.00049256,-7.8606e-06,104.64,1357,0,1.8288e+08,-7.7147,12110,13208,1,13208,1,0.00099185,1.0093e-08,0,0.00099185,0.00016993,3.238e+08,3189.4,0,3.685e+08,271.17,13207,12110,1,12110,1,4.2935e-05,4.2269e-09,0,0.00049201,-7.8895e-06,1.6155e+07,1331.3,0,1.8654e+08,-15.298,12109,11089,1,11089,1,-0.00090598,-9.5636e-10,0,7.792e-06,-0.00018556,-3.685e+08,-327.55,0,2.7974e+06,-336.7,11088,11599,1,11599,1,-0.00044907,1.6202e-09,0,0.000246,-0.00010001,-1.8265e+08,520.37,0,9.4249e+07,-85.947,11598,12621,1,12621,1,0.00053494,6.82e-09,0,0.00073801,8.4274e-05,1.8711e+08,2187.9,0,2.7105e+08,66.943,12620,591.1,0,591.1,0,0.0005679,3.0305e-09,0,0.00028568,0.00010636,2.1003e+08,982.86,0,1.0322e+08,108.59,591.1,1
2044,3.43,12111,1,12111,1,4.3336e-05,1.0656e-09,0,0.00049407,-7.9338e-06,8.4328,350.85,0,1.8333e+08,8.1391,12110,13208,1,13208,1,0.0009951,5.5862e-09,0,0.0009951,0.00017039,3.2439e+08,1822.3,0,3.6949e+08,234.08,13207,12110,1,12110,1,4.3337e-05,4.6046e-10,0,0.00049349,-7.9627e-06,1.6301e+07,149.11,0,1.8701e+08,5.5962,12109,11089,1,11089,1,-0.00090842,-1.3439e-09,0,8.0847e-06,-0.00018617,-3.6949e+08,-429.41,0,2.9093e+06,-182.17,11088,11599,1,11599,1,-0.00045016,-3.3132e-10,0,0.00024675,-0.00010036,-1.8309e+08,-100.9,0,9.4492e+07,-49.055,11598,12621,1,12621,1,0.00053683,2.311e-09,0,0.00074025,8.4478e-05,1.8758e+08,755.52,0,2.716e+08,56.461,12620,591.1,0,591.1,0,0.00056961,1.7903e-09,0,0.00028655,0.00010668,2.1054e+08,583.99,0,1.0345e+08,71.376,591.1,1
2044,3.44,12111,1,12111,1,4.3742e-05,-2.0406e-10,0,0.00049558,-8.0082e-06,12.745,-60.262,0,1.8378e+08,-26.681,12110,13208,1,13208,1,0.00099836,3.6136e-10,0,0.00099836,0.00017085,3.25e+08,123.76,0,3.7049e+08,74.11,13207,12110,1,12110,1,4.3743e-05,-1.159e-10,0,0.00049498,-8.0366e-06,1.6448e+07,-37.406,0,1.8748e+08,-26.4,12109,11089,1,11089,1,-0.00091087,-9.9993e-10,0,8.3854e-06,-0.00018677,-3.7049e+08,-292.39,0,3.0242e+06,-139.8,11088,11599,1,11599,1,-0.00045124,-4.9858e-10,0,0.00024749,-0.00010071,-1.8353e+08,-152.7,0,9.4736e+07,-42.471,11598,12621,1,12621,1,0.00053873,1.0674e-10,0,0.00074248,8.4682e-05,1.8806e+08,35.473,0,2.7216e+08,-7.6677,12620,591.1,0,591.1,0,0.00057133,3.6045e-10,0,0.00028743,0.000107,2.1105e+08,110.44,0,1.0369e+08,28.382,591.1,1
2044,3.45,12111,1,12111,1,4.415e-05,2.5385e-10,0,0.00049708,-8.0828e-06,-73.484,82.216,0,1.8422e+08,-2.2748,12110,13208,1,13208,1,0.0010016,3.6979e-09,0,0.0010016,0.0001713,3.2558e+08,1202.6,0,3.7148e+08,127.01,13207,12110,1,12110,1,4.415e-05,8.4365e-11,0,0.00049646,-8.1108e-06,1.6595e+07,25.504,0,1.8795e+08,-3.6931,12109,11089,1,11089,1,-0.0009133,-1.5226e-09,0,8.6889e-06,-0.00018738,-3.7148e+08,-486.06,0,3.1401e+06,-91.891,11088,11599,1,11599,1,-0.00045231,-5.1518e-10,0,0.00024823,-0.00010106,-1.8397e+08,-162.68,0,9.4976e+07,-27.338,11598,12621,1,12621,1,0.00054061,7.8454e-10,0,0.00074468,8.4882e-05,1.8853e+08,250.6,0,2.727e+08,15.7,12620,591.1,0,591.1,0,0.00057303,1.1231e-09,0,0.00028829,0.00010732,2.1155e+08,361.69,0,1.0392e+08,36.509,591.1,1
2044,3.46,12111,1,12111,1,4.4559e-05,7.8999e-10,0,0.00049858,-8.1575e-06,-8.0276,253.39,0,1.8466e+08,-8.7577,12110,13208,1,13208,1,0.0010049,5.2717e-09,0,0.0010049,0.00017176,3.2618e+08,1715.4,0,3.7247e+08,126.53,13207,12110,1,12110,1,4.4559e-05,3.8433e-10,0,0.00049794,-8.1851e-06,1.6743e+07,118.87,0,1.8842e+08,-12.322,12109,11089,1,11089,1,-0.00091575,-1.1771e-09,0,8.9919e-06,-0.00018799,-3.7247e+08,-384.71,0,3.2558e+06,-122.46,11088,11599,1,11599,1,-0.00045338,-5.1241e-11,0,0.00024897,-0.00010141,-1.844e+08,-15.762,0,9.5217e+07,-36.101,11598,12621,1,12621,1,0.0005425,1.3683e-09,0,0.00074691,8.5084e-05,1.89e+08,437.22,0,2.7324e+08,11.557,12620,591.1,0,591.1,0,0.00057474,1.3441e-09,0,0.00028916,0.00010764,2.1205e+08,435.29,0,1.0415e+08,41.856,591.1,1
2044,3.47,12111,1,12111,1,4.497e-05,-1.8477e-09,0,0.00050007,-8.2327e-06,156.25,-589.41,0,1.851e+08,0.19167,12110,13208,1,13208,1,0.0010081,7.4882e-09,0,0.0010081,0.00017222,3.2677e+08,2443.5,0,3.7347e+08,331.26,13207,12110,1,12110,1,4.497e-05,-1.3736e-09,0,0.00049941,-8.2599e-06,1.6891e+07,-435.8,0,1.8889e+08,-11.315,12109,11089,1,11089,1,-0.00091821,-1.0042e-08,0,9.2979e-06,-0.0001886,-3.7347e+08,-3201.9,0,3.3726e+06,-319.18,11088,11599,1,11599,1,-0.00045444,-4.9341e-09,0,0.0002497,-0.00010176,-1.8483e+08,-1562.8,0,9.5456e+07,-88.571,11598,12621,1,12621,1,0.00054438,8.2623e-10,0,0.00074911,8.5283e-05,1.8947e+08,257.77,0,2.7378e+08,95.254,12620,591.1,0,591.1,0,0.00057643,3.9439e-09,0,0.00029002,0.00010796,2.1254e+08,1267.4,0,1.0437e+08,124.13,591.1,1
2044,3.48,12111,1,12111,1,4.5383e-05,-1.1481e-09,0,0.00050157,-8.3083e-06,145.58,-372.18,0,1.8555e+08,-24.516,12110,13208,1,13208,1,0.0010114,7.5776e-09,0,0.0010114,0.00017268,3.2735e+08,2473.6,0,3.7446e+08,244.79,13207,12110,1,12110,1,4.5383e-05,-9.6046e-10,0,0.00050089,-8.3351e-06,1.704e+07,-302.57,0,1.8935e+08,-24.013,12109,11089,1,11089,1,-0.00092064,-7.217e-09,0,9.6034e-06,-0.0001892,-3.7446e+08,-2339.8,0,3.489e+06,-257.79,11088,11599,1,11599,1,-0.00045551,-3.6099e-09,0,0.00025045,-0.00010211,-1.8527e+08,-1146.3,0,9.5696e+07,-94.661,11598,12621,1,12621,1,0.00054627,7.2609e-10,0,0.00075134,8.5484e-05,1.8994e+08,228.92,0,2.7432e+08,38.473,12620,591.1,0,591.1,0,0.00057815,3.1233e-09,0,0.00029089,0.00010828,2.1304e+08,1012.1,0,1.046e+08,96.557,591.1,1
2044,3.49,12111,1,12111,1,4.5803e-05,-4.1518e-10,0,0.00050309,-8.385e-06,54.267,-137.9,0,1.8599e+08,-31.431,12110,13208,1,13208,1,0.0010147,1.885e-09,0,0.0010147,0.00017314,3.2794e+08,645.45,0,3.7546e+08,85.514,13207,12110,1,12110,1,4.5803e-05,6.7096e-12,0,0.00050239,-8.4115e-06,1.7192e+07,1.8914,0,1.8983e+08,-24.17,12109,11089,1,11089,1,-0.0009231,-3.5532e-09,0,9.9164e-06,-0.00018982,-3.7546e+08,-1165.6,0,3.6083e+06,-226.56,11088,11599,1,11599,1,-0.00045658,-1.3474e-09,0,0.0002512,-0.00010247,-1.8571e+08,-428.65,0,9.5938e+07,-78.203,11598,12621,1,12621,1,0.00054819,5.0084e-10,0,0.00075358,8.5687e-05,1.9042e+08,152.72,0,2.7486e+08,17.223,12620,591.1,0,591.1,0,0.00057988,1.2895e-09,0,0.00029177,0.0001086,2.1354e+08,421.98,0,1.0484e+08,61.452,591.1,1
2044,3.5,12111,1,12111,1,4.6225e-05,-1.3069e-09,0,0.00050459,-8.4621e-06,-111.33,-420.86,0,1.8643e+08,5.7109,12110,13208,1,13208,1,0.001018,3.4329e-09,0,0.001018,0.0001736,3.2852e+08,1130.9,0,3.7645e+08,255.61,13207,12110,1,12110,1,4.6225e-05,-1.1523e-09,0,0.00050386,-8.4879e-06,1.7344e+07,-352.82,0,1.9029e+08,13.676,12109,11089,1,11089,1,-0.00092553,-5.266e-09,0,1.0233e-05,-0.00019043,-3.7645e+08,-1688.1,0,3.7291e+06,-219.19,11088,11599,1,11599,1,-0.00045764,-2.9054e-09,0,0.00025193,-0.00010282,-1.8613e+08,-940.67,0,9.6176e+07,-25.246,11598,12621,1,12621,1,0.00055009,1.8646e-10,0,0.0007558,8.5885e-05,1.9089e+08,58.389,0,2.7539e+08,38.388,12620,591.1,0,591.1,0,0.00058158,1.9645e-09,0,0.00029263,0.00010892,2.1404e+08,636.35,0,1.0506e+08,63.478,591.1,1
2044,3.51,12111,1,12111,1,4.6649e-05,-1.0537e-09,0,0.00050611,-8.5397e-06,-63.229,-340.81,0,1.8688e+08,-12.316,12110,13208,1,13208,1,0.0010213,2.5629e-09,0,0.0010213,0.00017406,3.2911e+08,846.24,0,3.7745e+08,163.33,13207,12110,1,12110,1,4.6649e-05,-7.2332e-10,0,0.00050536,-8.5653e-06,1.7496e+07,-234.35,0,1.9076e+08,-4.9345,12109,11089,1,11089,1,-0.00092799,-5.0399e-09,0,1.0551e-05,-0.00019104,-3.7745e+08,-1630,0,3.8498e+06,-235.87,11088,11599,1,11599,1,-0.00045871,-2.4983e-09,0,0.00025268,-0.00010318,-1.8657e+08,-794.6,0,9.6418e+07,-63.512,11598,12621,1,12621,1,0.00055201,2.5767e-10,0,0.00075804,8.6087e-05,1.9136e+08,77.895,0,2.7593e+08,34.418,12620,591.1,0,591.1,0,0.00058331,1.7856e-09,0,0.00029351,0.00010924,2.1454e+08,579.13,0,1.0529e+08,65.247,591.1,1
2044,3.52,12111,1,12111,1,4.7078e-05,7.1592e-10,0,0.00050761,-8.618e-06,-52.09,224.56,0,1.8731e+08,16.904,12110,13208,1,13208,1,0.0010246,5.7123e-09,0,0.0010246,0.00017452,3.2968e+08,1827.2,0,3.7843e+08,248.73,13207,12110,1,12110,1,4.7078e-05,1.1642e-10,0,0.00050684,-8.6428e-06,1.7651e+07,33.705,0,1.9122e+08,12.387,12109,11089,1,11089,1,-0.00093041,-3.1751e-09,0,1.0874e-05,-0.00019165,-3.7843e+08,-1036.4,0,3.9727e+06,-267.62,11088,11599,1,11599,1,-0.00045976,-7.906e-10,0,0.00025342,-0.00010354,-1.87e+08,-260.69,0,9.672e+07,-32.516,11598,12621,1,12621,1,0.00055392,2.2972e-09,0,0.00076026,8.6285e-05,1.9183e+08,714.09,0,2.7646e+08,65.737,12620,591.1,0,591.1,0,0.00058502,2.1834e-09,0,0.00029438,0.00010956,2.1503e+08,703.58,0,1.0552e+08,71.139,591.1,1
2044,3.53,12111,1,12111,1,4.7505e-05,-1.4987e-09,0,0.0005091,-8.6963e-06,45.261,-475.19,0,1.8774e+08,-31.231,12110,13208,1,13208,1,0.0010278,5.9105e-09,0,0.0010278,0.00017497,3.3024e+08,1925.6,0,3.7941e+08,213.42,13207,12110,1,12110,1,4.7505e-05,-9.4055e-10,0,0.00050831,-8.7208e-06,1.7804e+07,-296.76,0,1.9168e+08,-55.38,12109,11089,1,11089,1,-0.00093282,-8.6409e-09,0,1.1197e-05,-0.00019226,-3.7941e+08,-2747.2,0,4.0956e+06,-286.61,11088,11599,1,11599,1,-0.0004608,-4.1702e-09,0,0.00025415,-0.00010389,-1.8742e+08,-1341.7,0,9.7042e+07,-103.63,11598,12621,1,12621,1,0.00055581,9.2858e-10,0,0.00076246,8.648e-05,1.9229e+08,277.24,0,2.7697e+08,36.669,12620,591.1,0,591.1,0,0.0005867,3.4907e-09,0,0.00029524,0.00010988,2.1552e+08,1120.9,0,1.0574e+08,98.353,591.1,1
2044,3.54,12111,1,12111,1,4.7936e-05,8.6377e-10,0,0.00051064,-8.7751e-06,-54.033,271.38,0,1.8819e+08,-28.541,12110,13208,1,13208,1,0.0010312,2.1718e-09,0,0.0010312,0.00017543,3.3082e+08,679.48,0,3.8042e+08,96.15,13207,12110,1,12110,1,4.7937e-05,8.913e-10,0,0.00050982,-8.7989e-06,1.796e+07,285.61,0,1.9215e+08,-19.169,12109,11089,1,11089,1,-0.00093529,-5.6156e-10,0,1.1519e-05,-0.00019288,-3.8042e+08,-192.32,0,4.218e+06,-194.93,11088,11599,1,11599,1,-0.00046188,2.2831e-10,0,0.00025491,-0.00010425,-1.8786e+08,72.46,0,9.7372e+07,-67.062,11598,12621,1,12621,1,0.00055775,1.5528e-09,0,0.00076472,8.6683e-05,1.9276e+08,488.77,0,2.7751e+08,12.183,12620,591.1,0,591.1,0,0.00058845,7.7177e-10,0,0.00029613,0.0001102,2.1602e+08,242.05,0,1.0598e+08,57.427,591.1,1
2044,3.55,12111,1,12111,1,4.8376e-05,1.7717e-09,0,0.00051215,-8.8554e-06,44.064,566.41,0,1.8863e+08,21.352,12110,13208,1,13208,1,0.0010345,4.6608e-09,0,0.0010345,0.00017589,3.3138e+08,1470.5,0,3.8141e+08,229.11,13207,12110,1,12110,1,4.8376e-05,1.6644e-09,0,0.0005113,-8.8788e-06,1.8117e+07,525.81,0,1.9262e+08,10.431,12109,11089,1,11089,1,-0.00093772,-6.3312e-10,0,1.1854e-05,-0.0001935,-3.8141e+08,-210.36,0,4.3451e+06,-173.02,11088,11599,1,11599,1,-0.00046292,4.8108e-10,0,0.00025565,-0.00010461,-1.8828e+08,142.43,0,9.7699e+07,-26.068,11598,12621,1,12621,1,0.00055968,3.0253e-09,0,0.00076695,8.688e-05,1.9323e+08,968.07,0,2.7803e+08,62.919,12620,591.1,0,591.1,0,0.00059017,1.4652e-09,0,0.00029701,0.00011052,2.1651e+08,474.15,0,1.062e+08,62.191,591.1,1
2044,3.56,12111,1,12111,1,4.8813e-05,-1.7721e-09,0,0.00051365,-8.9356e-06,61.968,-559.18,0,1.8906e+08,-43.911,12110,13208,1,13208,1,0.0010378,3.6333e-09,0,0.0010378,0.00017634,3.3194e+08,1197.6,0,3.8239e+08,201.49,13207,12110,1,12110,1,4.8814e-05,-1.7624e-09,0,0.00051278,-8.9584e-06,1.8274e+07,-549.98,0,1.9307e+08,-40.211,12109,11089,1,11089,1,-0.00094014,-6.2249e-09,0,1.2185e-05,-0.00019411,-3.8239e+08,-1976.2,0,4.4707e+06,-279.26,11088,11599,1,11599,1,-0.00046396,-3.7221e-09,0,0.00025639,-0.00010496,-1.8871e+08,-1189.8,0,9.8023e+07,-98.063,11598,12621,1,12621,1,0.00056159,2.092e-10,0,0.00076916,8.7075e-05,1.9369e+08,66.222,0,2.7855e+08,3.7473,12620,591.1,0,591.1,0,0.00059187,2.3424e-09,0,0.00029788,0.00011084,2.17e+08,746,0,1.0642e+08,83.439,591.1,1
2044,3.57,12111,1,12111,1,4.9254e-05,7.7938e-10,0,0.00051517,-9.0161e-06,64.429,243.73,0,1.895e+08,-15.332,12110,13208,1,13208,1,0.0010411,2.1177e-09,0,0.0010411,0.0001768,3.3251e+08,651.15,0,3.8338e+08,114.64,13207,12110,1,12110,1,4.9254e-05,7.3947e-10,0,0.00051428,-9.0384e-06,1.8432e+07,234.92,0,1.9354e+08,-17.864,12109,11089,1,11089,1,-0.00094258,-4.8045e-10,0,1.2518e-05,-0.00019473,-3.8338e+08,-164.55,0,4.5971e+06,-127.02,11088,11599,1,11599,1,-0.00046503,2.3981e-10,0,0.00025714,-0.00010532,-1.8914e+08,74.373,0,9.8353e+07,-49.708,11598,12621,1,12621,1,0.00056353,1.2802e-09,0,0.00077142,8.7275e-05,1.9416e+08,400.17,0,2.7908e+08,18.819,12620,591.1,0,591.1,0,0.00059361,6.3627e-10,0,0.00029876,0.00011116,2.1749e+08,198.94,0,1.0665e+08,50.243,591.1,1
2044,3.58,12111,1,12111,1,4.97e-05,9.9224e-10,0,0.00051668,-9.0977e-06,-16.402,316.73,0,1.8993e+08,6.8776,12110,13208,1,13208,1,0.0010444,4.8888e-09,0,0.0010444,0.00017725,3.3305e+08,1579,0,3.8437e+08,138.35,13207,12110,1,12110,1,4.97e-05,5.3785e-10,0,0.00051576,-9.1195e-06,1.8592e+07,167.33,0,1.94e+08,4.6444,12109,11089,1,11089,1,-0.000945,-7.4244e-10,0,1.286e-05,-0.00019535,-3.8437e+08,-238.04,0,4.7265e+06,-153.14,11088,11599,1,11599,1,-0.00046606,-5.019e-12,0,0.00025788,-0.00010568,-1.8956e+08,-1.5541,0,9.868e+07,-20.624,11598,12621,1,12621,1,0.00056547,1.7291e-09,0,0.00077365,8.747e-05,1.9462e+08,541.07,0,2.7959e+08,33.528,12620,591.1,0,591.1,0,0.00059532,1.2931e-09,0,0.00029964,0.00011148,2.1798e+08,416.21,0,1.0687e+08,41.811,591.1,1
2044,3.59,12111,1,12111,1,5.0148e-05,-1.0241e-09,0,0.0005182,-9.1796e-06,258.87,-322.81,0,1.9037e+08,-30.445,12110,13208,1,13208,1,0.0010477,7.5999e-10,0,0.0010477,0.00017771,3.3361e+08,260.3,0,3.8535e+08,124.8,13207,12110,1,12110,1,5.0148e-05,-8.5062e-10,0,0.00051726,-9.2007e-06,1.8752e+07,-263.06,0,1.9446e+08,-38.69,12109,11089,1,11089,1,-0.00094743,-3.2015e-09,0,1.32e-05,-0.00019596,-3.8535e+08,-1014.9,0,4.8555e+06,-194.61,11088,11599,1,11599,1,-0.00046711,-1.6467e-09,0,0.00025863,-0.00010604,-1.8999e+08,-519.94,0,9.9008e+07,-65.281,11598,12621,1,12621,1,0.0005674,-3.3045e-10,0,0.00077588,8.7667e-05,1.9508e+08,-101.9,0,2.801e+08,3.9671,12620,591.1,0,591.1,0,0.00059704,8.853e-10,0,0.00030052,0.00011181,2.1847e+08,282.05,0,1.071e+08,53.538,591.1,1
2044,3.6,12111,1,12111,1,5.0599e-05,-8.2571e-10,0,0.00051972,-9.262e-06,47.22,-264.59,0,1.908e+08,-19.764,12110,13208,1,13208,1,0.0010511,5.7761e-10,0,0.0010511,0.00017817,3.3416e+08,184.11,0,3.8634e+08,78.788,13207,12110,1,12110,1,5.0598e-05,-8.2785e-10,0,0.00051875,-9.2825e-06,1.8913e+07,-259.89,0,1.9492e+08,-20.01,12109,11089,1,11089,1,-0.00094986,-2.2655e-09,0,1.3544e-05,-0.00019659,-3.8634e+08,-719.77,0,4.9856e+06,-125.3,11088,11599,1,11599,1,-0.00046815,-1.4938e-09,0,0.00025938,-0.0001064,-1.9041e+08,-476.45,0,9.9337e+07,-40.806,11598,12621,1,12621,1,0.00056935,-1.4269e-10,0,0.00077813,8.7863e-05,1.9555e+08,-43.592,0,2.8062e+08,3.5236,12620,591.1,0,591.1,0,0.00059877,7.6709e-10,0,0.0003014,0.00011213,2.1896e+08,246.03,0,1.0732e+08,37.545,591.1,1
2044,3.61,12111,1,12111,1,5.1053e-05,3.1881e-11,0,0.00052123,-9.345e-06,-32.478,6.7432,0,1.9124e+08,-0.9984,12110,13208,1,13208,1,0.0010544,6.2199e-10,0,0.0010544,0.00017862,3.347e+08,186.01,0,3.8732e+08,82.652,13207,12110,1,12110,1,5.1053e-05,1.8075e-11,0,0.00052024,-9.365e-06,1.9076e+07,5.934,0,1.9538e+08,-4.2929,12109,11089,1,11089,1,-0.00095227,-8.172e-10,0,1.3892e-05,-0.0001972,-3.8732e+08,-279.69,0,5.1169e+06,-82.865,11088,11599,1,11599,1,-0.00046919,-1.7191e-10,0,0.00026012,-0.00010677,-1.9083e+08,-55.543,0,9.9666e+07,-17.718,11598,12621,1,12621,1,0.00057129,2.5388e-10,0,0.00078036,8.8059e-05,1.9601e+08,78.507,0,2.8113e+08,10.495,12620,591.1,0,591.1,0,0.00060049,3.0783e-10,0,0.00030228,0.00011245,2.1944e+08,97.289,0,1.0755e+08,26.19,591.1,1
2044,3.62,12111,1,12111,1,5.1509e-05,-1.6389e-09,0,0.00052275,-9.4284e-06,-42.563,-520.47,0,1.9167e+08,-3.3883,12110,13208,1,13208,1,0.0010577,1.4946e-09,0,0.0010577,0.00017908,3.3525e+08,473.78,0,3.8831e+08,147.15,13207,12110,1,12110,1,5.1508e-05,-1.4179e-09,0,0.00052173,-9.4478e-06,1.9238e+07,-441.9,0,1.9584e+08,-5.7916,12109,11089,1,11089,1,-0.00095471,-5.3169e-09,0,1.4242e-05,-0.00019783,-3.8831e+08,-1684.3,0,5.2493e+06,-218.07,11088,11599,1,11599,1,-0.00047022,-3.114e-09,0,0.00026087,-0.00010713,-1.9125e+08,-997.7,0,9.9995e+07,-47.055,11598,12621,1,12621,1,0.00057324,-1.3781e-10,0,0.0007826,8.8253e-05,1.9647e+08,-43.147,0,2.8163e+08,38.266,12620,591.1,0,591.1,0,0.0006022,1.7497e-09,0,0.00030316,0.00011277,2.1993e+08,557.43,0,1.0777e+08,64.613,591.1,1
2044,3.63,12111,1,12111,1,5.1968e-05,-8.126e-11,0,0.00052426,-9.5124e-06,77.884,-30.936,0,1.921e+08,-20.611,12110,13208,1,13208,1,0.001061,6.167e-10,0,0.001061,0.00017953,3.3578e+08,176.67,0,3.8929e+08,51.761,13207,12110,1,12110,1,5.1968e-05,-3.5642e-11,0,0.00052322,-9.5312e-06,1.9402e+07,-11.556,0,1.9629e+08,-18.396,12109,11089,1,11089,1,-0.00095711,-7.1683e-10,0,1.4594e-05,-0.00019845,-3.8929e+08,-245.34,0,5.3819e+06,-104.51,11088,11599,1,11599,1,-0.00047125,-3.6716e-10,0,0.00026161,-0.00010749,-1.9167e+08,-120.33,0,1.0032e+08,-40.3,11598,12621,1,12621,1,0.00057519,1.8158e-10,0,0.00078483,8.8447e-05,1.9693e+08,56.42,0,2.8214e+08,0.58943,12620,591.1,0,591.1,0,0.00060393,3.2659e-10,0,0.00030404,0.00011309,2.2041e+08,104.02,0,1.0799e+08,29.566,591.1,1
2044,3.64,12111,1,12111,1,5.2429e-05,-1.1846e-10,0,0.00052577,-9.5967e-06,-13.797,-39.148,0,1.9252e+08,-4.6071,12110,13208,1,13208,1,0.0010644,1.0573e-09,0,0.0010644,0.00017998,3.3632e+08,321.66,0,3.9027e+08,110.49,13207,12110,1,12110,1,5.2429e-05,-2.1945e-11,0,0.00052471,-9.6149e-06,1.9567e+07,-6.7475,0,1.9674e+08,-7.672,12109,11089,1,11089,1,-0.00095951,-1.6755e-09,0,1.4949e-05,-0.00019906,-3.9027e+08,-529.84,0,5.5161e+06,-139.27,11088,11599,1,11599,1,-0.00047228,-4.5316e-10,0,0.00026235,-0.00010785,-1.9209e+08,-145.24,0,1.0065e+08,-29.112,11598,12621,1,12621,1,0.00057714,2.8002e-10,0,0.00078706,8.864e-05,1.9739e+08,84.078,0,2.8264e+08,23.887,12620,591.1,0,591.1,0,0.00060564,5.7964e-10,0,0.00030492,0.00011341,2.2089e+08,183.81,0,1.0821e+08,42.235,591.1,1
2044,3.65,12111,1,12111,1,5.2894e-05,-1.6692e-09,0,0.00052729,-9.6816e-06,-25.442,-529.84,0,1.9295e+08,-0.84761,12110,13208,1,13208,1,0.0010677,6.1039e-10,0,0.0010677,0.00018043,3.3686e+08,209.06,0,3.9126e+08,108.78,13207,12110,1,12110,1,5.2893e-05,-1.572e-09,0,0.0005262,-9.6992e-06,1.9732e+07,-496.73,0,1.972e+08,-0.18157,12109,11089,1,11089,1,-0.00096194,-4.4e-09,0,1.5307e-05,-0.00019969,-3.9126e+08,-1401.4,0,5.6509e+06,-126.52,11088,11599,1,11599,1,-0.00047331,-2.8407e-09,0,0.0002631,-0.00010822,-1.9251e+08,-905.44,0,1.0098e+08,-29.951,11598,12621,1,12621,1,0.0005791,-3.9362e-10,0,0.0007893,8.8834e-05,1.9784e+08,-127.11,0,2.8314e+08,24.149,12620,591.1,0,591.1,0,0.00060737,1.3574e-09,0,0.0003058,0.00011373,2.2137e+08,434.8,0,1.0843e+08,39.915,591.1,1
2044,3.66,12111,1,12111,1,5.3362e-05,8.0503e-10,0,0.00052881,-9.7673e-06,11.535,250.25,0,1.9338e+08,-16.811,12110,13208,1,13208,1,0.0010711,1.8313e-09,0,0.0010711,0.00018088,3.3738e+08,556.49,0,3.9223e+08,86.441,13207,12110,1,12110,1,5.3362e-05,8.853e-10,0,0.00052769,-9.7843e-06,1.9899e+07,274.88,0,1.9765e+08,-17.491,12109,11089,1,11089,1,-0.00096434,-5.995e-10,0,1.5669e-05,-0.00020031,-3.9223e+08,-205.33,0,5.7869e+06,-128.49,11088,11599,1,11599,1,-0.00047433,3.4365e-10,0,0.00026385,-0.00010858,-1.9292e+08,102.73,0,1.0131e+08,-42.123,11598,12621,1,12621,1,0.00058106,1.3211e-09,0,0.00079154,8.9026e-05,1.983e+08,417.79,0,2.8364e+08,4.7772,12620,591.1,0,591.1,0,0.00060909,6.2626e-10,0,0.00030669,0.00011406,2.2185e+08,194.57,0,1.0865e+08,36.947,591.1,1
2044,3.67,12111,1,12111,1,5.3832e-05,8.0527e-10,0,0.00053031,-9.853e-06,265.74,256.72,0,1.938e+08,36.265,12110,13208,1,13208,1,0.0010744,1.0145e-08,0,0.0010744,0.00018133,3.379e+08,3223,0,3.9321e+08,468.03,13207,12110,1,12110,1,5.3832e-05,-1.5575e-10,0,0.00052917,-9.8695e-06,2.0066e+07,-45.283,0,1.981e+08,13.189,12109,11089,1,11089,1,-0.00096673,-3.5477e-09,0,1.6033e-05,-0.00020093,-3.9321e+08,-1120,0,5.9242e+06,-347.08,11088,11599,1,11599,1,-0.00047534,-1.1603e-09,0,0.00026459,-0.00010894,-1.9333e+08,-360.55,0,1.0164e+08,-23.905,11598,12621,1,12621,1,0.00058301,2.0772e-09,0,0.00079376,8.9217e-05,1.9875e+08,653.12,0,2.8412e+08,77.54,12620,591.1,0,591.1,0,0.00061079,2.9478e-09,0,0.00030756,0.00011437,2.2232e+08,937.8,0,1.0886e+08,132.2,591.1,1
2044,3.68,12111,1,12111,1,5.4302e-05,3.8168e-09,0,0.00053183,-9.939e-06,-85.547,1213.3,0,1.9422e+08,36.398,12110,13208,1,13208,1,0.0010778,1.268e-08,0,0.0010778,0.00018179,3.3843e+08,4051.8,0,3.942e+08,336.25,13207,12110,1,12110,1,5.4303e-05,3.291e-09,0,0.00053067,-9.9551e-06,2.0233e+07,1038.9,0,1.9856e+08,29.429,12109,11089,1,11089,1,-0.00096917,-1.4063e-09,0,1.6397e-05,-0.00020156,-3.942e+08,-431.15,0,6.0607e+06,-286.99,11088,11599,1,11599,1,-0.00047636,1.0523e-09,0,0.00026533,-0.00010931,-1.9375e+08,330.08,0,1.0197e+08,-27.751,11598,12621,1,12621,1,0.00058497,6.0942e-09,0,0.000796,8.9409e-05,1.9921e+08,1957.3,0,2.8462e+08,84.512,12620,591.1,0,591.1,0,0.00061251,3.3252e-09,0,0.00030845,0.0001147,2.228e+08,1072.7,0,1.0908e+08,86.546,591.1,1
2044,3.69,12111,1,12111,1,5.478e-05,2.1875e-09,0,0.00053336,-1.0026e-05,-25.64,706.11,0,1.9465e+08,10.29,12110,13208,1,13208,1,0.0010811,7.6269e-09,0,0.0010811,0.00018224,3.3895e+08,2465.7,0,3.9517e+08,208.12,13207,12110,1,12110,1,5.478e-05,1.7532e-09,0,0.00053216,-1.0042e-05,2.0403e+07,558,0,1.9901e+08,4.545,12109,11089,1,11089,1,-0.00097157,-8.5338e-10,0,1.6765e-05,-0.00020218,-3.9517e+08,-226.05,0,6.1989e+06,-208.42,11088,11599,1,11599,1,-0.00047738,4.0738e-10,0,0.00026609,-0.00010967,-1.9417e+08,126.66,0,1.023e+08,-32.845,11598,12621,1,12621,1,0.00058695,3.6814e-09,0,0.00079825,8.9601e-05,1.9966e+08,1172.8,0,2.8511e+08,42.569,12620,591.1,0,591.1,0,0.00061425,2.0432e-09,0,0.00030934,0.00011502,2.2328e+08,669.47,0,1.093e+08,61.408,591.1,1
2044,3.7,12111,1,12111,1,5.5261e-05,-5.5891e-11,0,0.00053488,-1.0114e-05,-32.658,-5.8954,0,1.9507e+08,-1.6634,12110,13208,1,13208,1,0.0010845,4.2813e-09,0,0.0010845,0.00018269,3.3946e+08,1424.1,0,3.9614e+08,142.26,13207,12110,1,12110,1,5.5262e-05,-1.803e-10,0,0.00053366,-1.0129e-05,2.0574e+07,-50.932,0,1.9946e+08,-6.6319,12109,11089,1,11089,1,-0.00097394,-2.4962e-09,0,1.714e-05,-0.0002028,-3.9614e+08,-773.9,0,6.3396e+06,-142.01,11088,11599,1,11599,1,-0.0004784,-1.2053e-09,0,0.00026683,-0.00011004,-1.9458e+08,-370.98,0,1.0264e+08,-40.672,11598,12621,1,12621,1,0.00058892,7.0816e-10,0,0.00080049,8.9792e-05,2.0012e+08,228.11,0,2.856e+08,36.094,12620,591.1,0,591.1,0,0.00061597,1.5149e-09,0,0.00031022,0.00011534,2.2376e+08,485.35,0,1.0952e+08,52.946,591.1,1
2044,3.71,12111,1,12111,1,5.5746e-05,1.4421e-09,0,0.00053641,-1.0203e-05,-40.101,459.57,0,1.955e+08,7.4418,12110,13208,1,13208,1,0.0010879,3.4321e-09,0,0.0010879,0.00018314,3.3998e+08,1086.8,0,3.9713e+08,156.94,13207,12110,1,12110,1,5.5746e-05,1.5333e-09,0,0.00053516,-1.0217e-05,2.0745e+07,472.82,0,1.9991e+08,2.7031,12109,11089,1,11089,1,-0.00097638,-8.3116e-10,0,1.7519e-05,-0.00020344,-3.9713e+08,-284.67,0,6.4816e+06,-190.04,11088,11599,1,11599,1,-0.00047942,4.3506e-10,0,0.00026758,-0.00011041,-1.9499e+08,130.64,0,1.0297e+08,-24.162,11598,12621,1,12621,1,0.00059091,2.502e-09,0,0.00080275,8.9984e-05,2.0057e+08,810.98,0,2.8609e+08,33.898,12620,591.1,0,591.1,0,0.00061771,1.1802e-09,0,0.00031112,0.00011567,2.2424e+08,380.2,0,1.0974e+08,46.61,591.1,1
2044,3.72,12111,1,12111,1,5.6234e-05,2.2375e-09,0,0.00053794,-1.0292e-05,19.67,715.71,0,1.9592e+08,19.898,12110,13208,1,13208,1,0.0010913,4.8378e-09,0,0.0010913,0.0001836,3.4049e+08,1562.1,0,3.9811e+08,243.97,13207,12110,1,12110,1,5.6234e-05,2.4389e-09,0,0.00053666,-1.0306e-05,2.0918e+07,764.7,0,2.0036e+08,7.3231,12109,11089,1,11089,1,-0.00097878,-8.8024e-10,0,1.7899e-05,-0.00020407,-3.9811e+08,-277.2,0,6.6238e+06,-205.37,11088,11599,1,11599,1,-0.00048043,9.1857e-10,0,0.00026833,-0.00011078,-1.954e+08,279.06,0,1.033e+08,-21.627,11598,12621,1,12621,1,0.0005929,3.6348e-09,0,0.00080499,9.0174e-05,2.0103e+08,1174.8,0,2.8657e+08,52.018,12620,591.1,0,591.1,0,0.00061944,1.5872e-09,0,0.00031201,0.00011599,2.2471e+08,515.73,0,1.0996e+08,62.978,591.1,1
2044,3.73,12111,1,12111,1,5.6724e-05,1.8367e-09,0,0.00053946,-1.0382e-05,48.653,592.3,0,1.9634e+08,-15.819,12110,13208,1,13208,1,0.0010946,9.1018e-09,0,0.0010946,0.00018404,3.41e+08,2939.5,0,3.9908e+08,261.26,13207,12110,1,12110,1,5.6724e-05,1.1748e-09,0,0.00053815,-1.0395e-05,2.1091e+07,369.36,0,2.0081e+08,-9.8521,12109,11089,1,11089,1,-0.00098117,-1.6839e-09,0,1.8282e-05,-0.0002047,-3.9908e+08,-528.07,0,6.767e+06,-262.6,11088,11599,1,11599,1,-0.00048143,-2.3927e-10,0,0.00026908,-0.00011115,-1.9581e+08,-76.086,0,1.0364e+08,-61.159,11598,12621,1,12621,1,0.00059488,3.5876e-09,0,0.00080723,9.0363e-05,2.0148e+08,1149.4,0,2.8705e+08,35.123,12620,591.1,0,591.1,0,0.00062116,2.4767e-09,0,0.00031289,0.00011631,2.2518e+08,794.7,0,1.1017e+08,71.229,591.1,1
2044,3.74,12111,1,12111,1,5.7215e-05,3.058e-10,0,0.00054098,-1.0472e-05,53.755,107.17,0,1.9676e+08,-3.2142,12110,13208,1,13208,1,0.001098,2.923e-09,0,0.001098,0.00018449,3.4149e+08,1000.6,0,4.0004e+08,91.293,13207,12110,1,12110,1,5.7215e-05,3.1279e-11,0,0.00053964,-1.0484e-05,2.1265e+07,9.8325,0,2.0125e+08,-2.0152,12109,11089,1,11089,1,-0.00098354,-1.451e-09,0,1.8668e-05,-0.00020532,-4.0004e+08,-456.47,0,6.9109e+06,-106.16,11088,11599,1,11599,1,-0.00048243,-4.3351e-10,0,0.00026982,-0.00011152,-1.9622e+08,-120.1,0,1.0397e+08,-24.973,11598,12621,1,12621,1,0.00059686,9.6302e-10,0,0.00080947,9.0551e-05,2.0192e+08,316.1,0,2.8752e+08,24.114,12620,591.1,0,591.1,0,0.00062288,1.0546e-09,0,0.00031378,0.00011663,2.2565e+08,340.38,0,1.1039e+08,35.788,591.1,1
2044,3.75,12111,1,12111,1,5.7712e-05,2.163e-09,0,0.00054251,-1.0563e-05,286.31,686.75,0,1.9718e+08,17.859,12110,13208,1,13208,1,0.0011014,7.2171e-09,0,0.0011014,0.00018494,3.42e+08,2303.8,0,4.0102e+08,260.4,13207,12110,1,12110,1,5.7713e-05,1.8577e-09,0,0.00054115,-1.0575e-05,2.144e+07,582.94,0,2.017e+08,6.003,12109,11089,1,11089,1,-0.00098596,-8.7918e-10,0,1.9058e-05,-0.00020595,-4.0102e+08,-288.61,0,7.0567e+06,-289.47,11088,11599,1,11599,1,-0.00048344,7.5973e-10,0,0.00027058,-0.00011189,-1.9663e+08,236.19,0,1.043e+08,-21.65,11598,12621,1,12621,1,0.00059886,3.3664e-09,0,0.00081173,9.0741e-05,2.0238e+08,1069.6,0,2.88e+08,42.312,12620,591.1,0,591.1,0,0.00062462,1.8309e-09,0,0.00031467,0.00011695,2.2612e+08,589.74,0,1.106e+08,68.363,591.1,1
2044,3.76,12111,1,12111,1,5.8212e-05,2.2135e-09,0,0.00054403,-1.0654e-05,-117.22,708.67,0,1.976e+08,17.227,12110,13208,1,13208,1,0.0011048,5.1761e-09,0,0.0011048,0.00018539,3.4249e+08,1707.6,0,4.02e+08,251.38,13207,12110,1,12110,1,5.8211e-05,2.2461e-09,0,0.00054264,-1.0665e-05,2.1616e+07,709.99,0,2.0215e+08,4.8497,12109,11089,1,11089,1,-0.00098835,-9.3054e-10,0,1.9449e-05,-0.00020658,-4.02e+08,-310.47,0,7.2023e+06,-143.37,11088,11599,1,11599,1,-0.00048443,7.6592e-10,0,0.00027133,-0.00011226,-1.9703e+08,236.81,0,1.0464e+08,-27.883,11598,12621,1,12621,1,0.00060086,3.7296e-09,0,0.00081397,9.0929e-05,2.0282e+08,1197.8,0,2.8847e+08,55.23,12620,591.1,0,591.1,0,0.00062635,1.7062e-09,0,0.00031557,0.00011728,2.2659e+08,555.95,0,1.1082e+08,62.931,591.1,1
2044,3.77,12111,1,12111,1,5.8714e-05,1.8284e-09,0,0.00054557,-1.0746e-05,-126.93,589.96,0,1.9802e+08,27.381,12110,13208,1,13208,1,0.0011082,6.4262e-09,0,0.0011082,0.00018584,3.4299e+08,2053.5,0,4.0297e+08,275.01,13207,12110,1,12110,1,5.8714e-05,1.4361e-09,0,0.00054415,-1.0757e-05,2.1793e+07,447.68,0,2.0259e+08,14.505,12109,11089,1,11089,1,-0.00099074,-8.1335e-10,0,1.9842e-05,-0.00020722,-4.0297e+08,-235.02,0,7.3489e+06,-156.82,11088,11599,1,11599,1,-0.00048544,3.1901e-10,0,0.00027208,-0.00011263,-1.9744e+08,101.36,0,1.0497e+08,-21.871,11598,12621,1,12621,1,0.00060287,3.1141e-09,0,0.00081623,9.1117e-05,2.0327e+08,1002,0,2.8895e+08,52.964,12620,591.1,0,591.1,0,0.00062808,1.7897e-09,0,0.00031646,0.0001176,2.2706e+08,580.41,0,1.1103e+08,71.303,591.1,1
2044,3.78,12111,1,12111,1,5.922e-05,2.1585e-09,0,0.00054707,-1.0838e-05,164.64,693.58,0,1.9842e+08,49.237,12110,13208,1,13208,1,0.0011116,1.4431e-08,0,0.0011116,0.00018628,3.4347e+08,4577.4,0,4.0393e+08,534.99,13207,12110,1,12110,1,5.922e-05,5.45e-10,0,0.00054563,-1.0849e-05,2.1972e+07,170.68,0,2.0303e+08,7.1523,12109,11089,1,11089,1,-0.00099311,-2.7176e-09,0,2.0244e-05,-0.00020784,-4.0393e+08,-849.86,0,7.4981e+06,-433.72,11088,11599,1,11599,1,-0.00048641,-6.1451e-10,0,0.00027282,-0.000113,-1.9784e+08,-179.94,0,1.0531e+08,-44.085,11598,12621,1,12621,1,0.00060486,4.0854e-09,0,0.00081846,9.1301e-05,2.0371e+08,1311,0,2.8941e+08,109.24,12620,591.1,0,591.1,0,0.00062979,3.8655e-09,0,0.00031734,0.00011792,2.2752e+08,1234.2,0,1.1124e+08,142.75,591.1,1
2044,3.79,12111,1,12111,1,5.9727e-05,-1.365e-10,0,0.00054862,-1.0931e-05,-29.861,-29.837,0,1.9885e+08,-29.153,12110,13208,1,13208,1,0.001115,1.5452e-09,0,0.001115,0.00018673,3.4396e+08,529.07,0,4.049e+08,143.72,13207,12110,1,12110,1,5.9728e-05,-2.7702e-10,0,0.00054714,-1.0941e-05,2.215e+07,-81.961,0,2.0348e+08,-35.671,12109,11089,1,11089,1,-0.00099549,-1.4986e-09,0,2.0643e-05,-0.00020848,-4.049e+08,-426.5,0,7.6462e+06,-113.74,11088,11599,1,11599,1,-0.00048742,-5.7302e-10,0,0.00027358,-0.00011338,-1.9825e+08,-168.64,0,1.0556e+08,-66.615,11598,12621,1,12621,1,0.00060688,2.7525e-10,0,0.00082072,9.1491e-05,2.0416e+08,92.413,0,2.8988e+08,-2.3915,12620,591.1,0,591.1,0,0.00063154,6.6498e-10,0,0.00031825,0.00011825,2.2799e+08,210.21,0,1.1146e+08,48.171,591.1,1
2044,3.8,12111,1,12111,1,6.0242e-05,-2.5773e-10,0,0.00055015,-1.1025e-05,27.547,-76.071,0,1.9926e+08,-12.079,12110,13208,1,13208,1,0.0011184,1.2622e-09,0,0.0011184,0.00018718,3.4444e+08,432.11,0,4.0587e+08,70.209,13207,12110,1,12110,1,6.0243e-05,-2.4862e-10,0,0.00054865,-1.1035e-05,2.2331e+07,-76.051,0,2.0392e+08,-14.111,12109,11089,1,11089,1,-0.00099787,-1.3352e-09,0,2.1052e-05,-0.00020911,-4.0587e+08,-417.77,0,7.7981e+06,-89,11088,11599,1,11599,1,-0.00048841,-7.6912e-10,0,0.00027433,-0.00011375,-1.9865e+08,-238.85,0,1.0581e+08,-29.02,11598,12621,1,12621,1,0.00060889,1.961e-10,0,0.00082298,9.1677e-05,2.0461e+08,59.595,0,2.9034e+08,1.5661,12620,591.1,0,591.1,0,0.00063328,6.187e-10,0,0.00031915,0.00011857,2.2846e+08,195.57,0,1.1167e+08,26.209,591.1,1
2044,3.81,12111,1,12111,1,6.0759e-05,1.6775e-09,0,0.00055168,-1.112e-05,96.736,529.58,0,1.9967e+08,12.326,12110,13208,1,13208,1,0.0011218,6.1548e-09,0,0.0011218,0.00018763,3.4492e+08,1943.5,0,4.0684e+08,159.82,13207,12110,1,12110,1,6.0759e-05,1.2629e-09,0,0.00055015,-1.1129e-05,2.2512e+07,393.88,0,2.0436e+08,16.299,12109,11089,1,11089,1,-0.0010003,-8.3836e-10,0,2.1462e-05,-0.00020975,-4.0684e+08,-287.14,0,7.9501e+06,-130.72,11088,11599,1,11599,1,-0.00048939,2.668e-10,0,0.00027508,-0.00011412,-1.9905e+08,81.116,0,1.0606e+08,-18.969,11598,12621,1,12621,1,0.00061091,2.8995e-09,0,0.00082523,9.1862e-05,2.0505e+08,915.2,0,2.908e+08,42.51,12620,591.1,0,591.1,0,0.00063501,1.6655e-09,0,0.00032004,0.00011889,2.2892e+08,531.35,0,1.1188e+08,44.992,591.1,1
2044,3.82,12111,1,12111,1,6.1278e-05,1.0992e-09,0,0.00055321,-1.1215e-05,284.42,353.59,0,2.0008e+08,-14.211,12110,13208,1,13208,1,0.0011252,4.1403e-09,0,0.0011252,0.00018807,3.4539e+08,1327.6,0,4.0781e+08,142.63,13207,12110,1,12110,1,6.1278e-05,8.2637e-10,0,0.00055165,-1.1224e-05,2.2694e+07,256.07,0,2.048e+08,-16.852,12109,11089,1,11089,1,-0.0010026,-7.3134e-10,0,2.1873e-05,-0.00021038,-4.0781e+08,-232.25,0,8.1021e+06,-173.36,11088,11599,1,11599,1,-0.00049037,4.2522e-11,0,0.00027583,-0.0001145,-1.9945e+08,13.261,0,1.0631e+08,-47.445,11598,12621,1,12621,1,0.00061293,2.0392e-09,0,0.00082748,9.2047e-05,2.0549e+08,648.18,0,2.9126e+08,24.673,12620,591.1,0,591.1,0,0.00063674,1.2121e-09,0,0.00032094,0.00011922,2.2938e+08,392.07,0,1.1209e+08,52.917,591.1,1
2044,3.83,12111,1,12111,1,6.18e-05,6.6093e-10,0,0.00055475,-1.131e-05,66.578,214.57,0,2.005e+08,-9.106,12110,13208,1,13208,1,0.0011286,1.4389e-09,0,0.0011286,0.00018852,3.4587e+08,491.57,0,4.0878e+08,50.121,13207,12110,1,12110,1,6.18e-05,7.177e-10,0,0.00055316,-1.1319e-05,2.2877e+07,225.69,0,2.0524e+08,-7.6737,12109,11089,1,11089,1,-0.001005,-2.131e-10,0,2.2287e-05,-0.00021102,-4.0878e+08,-56.113,0,8.2551e+06,-109.48,11088,11599,1,11599,1,-0.00049136,2.5898e-10,0,0.00027658,-0.00011488,-1.9985e+08,75.446,0,1.0656e+08,-24.439,11598,12621,1,12621,1,0.00061496,1.066e-09,0,0.00082975,9.2233e-05,2.0594e+08,349.84,0,2.9172e+08,8.5689,12620,591.1,0,591.1,0,0.00063849,4.7269e-10,0,0.00032184,0.00011954,2.2985e+08,156.64,0,1.123e+08,24.282,591.1,1
2044,3.84,12111,1,12111,1,6.2327e-05,1.9202e-09,0,0.00055628,-1.1407e-05,142.45,608.89,0,2.009e+08,-3.84,12110,13208,1,13208,1,0.0011321,5.428e-09,0,0.0011321,0.00018897,3.4634e+08,1688.9,0,4.0975e+08,210.99,13207,12110,1,12110,1,6.2326e-05,1.7315e-09,0,0.00055466,-1.1415e-05,2.3061e+07,541.08,0,2.0568e+08,-4.26,12109,11089,1,11089,1,-0.0010074,-7.7937e-10,0,2.2707e-05,-0.00021166,-4.0975e+08,-250.06,0,8.4102e+06,-177.26,11088,11599,1,11599,1,-0.00049233,5.2095e-10,0,0.00027733,-0.00011525,-2.0024e+08,154.02,0,1.068e+08,-40.842,11598,12621,1,12621,1,0.00061699,3.2791e-09,0,0.00083199,9.2416e-05,2.0638e+08,1037.6,0,2.9217e+08,29.931,12620,591.1,0,591.1,0,0.00064021,1.6382e-09,0,0.00032274,0.00011987,2.3031e+08,524.29,0,1.1251e+08,58.479,591.1,1
2044,3.85,12111,1,12111,1,6.2854e-05,1.588e-09,0,0.00055781,-1.1503e-05,18.53,507.24,0,2.0131e+08,1.3444,12110,13208,1,13208,1,0.0011355,6.4482e-09,0,0.0011355,0.00018941,3.468e+08,2026.7,0,4.1071e+08,112.28,13207,12110,1,12110,1,6.2853e-05,1.1112e-09,0,0.00055616,-1.1511e-05,2.3245e+07,346.28,0,2.0612e+08,6.2717,12109,11089,1,11089,1,-0.0010098,-1.135e-09,0,2.3126e-05,-0.00021229,-4.1071e+08,-343.16,0,8.5647e+06,-131.77,11088,11599,1,11599,1,-0.00049331,1.1495e-10,0,0.00027808,-0.00011563,-2.0064e+08,33.775,0,1.0705e+08,-30.144,11598,12621,1,12621,1,0.00061902,3.0008e-09,0,0.00083425,9.26e-05,2.0682e+08,955.32,0,2.9262e+08,36.967,12620,591.1,0,591.1,0,0.00064195,1.7955e-09,0,0.00032364,0.00012019,2.3076e+08,572.2,0,1.1272e+08,47.593,591.1,1
2044,3.86,12111,1,12111,1,6.3387e-05,2.2858e-09,0,0.00055935,-1.16e-05,156.09,726.79,0,2.0172e+08,0.95686,12110,13208,1,13208,1,0.0011389,7.0246e-09,0,0.0011389,0.00018986,3.4726e+08,2226.9,0,4.1168e+08,182.24,13207,12110,1,12110,1,6.3386e-05,2.0637e-09,0,0.00055767,-1.1608e-05,2.3431e+07,640.16,0,2.0655e+08,-6.1895,12109,11089,1,11089,1,-0.0010121,-7.5306e-10,0,2.3551e-05,-0.00021293,-4.1168e+08,-257.92,0,8.7212e+06,-175.19,11088,11599,1,11599,1,-0.00049428,8.0453e-10,0,0.00027884,-0.00011601,-2.0104e+08,248.41,0,1.073e+08,-43.764,11598,12621,1,12621,1,0.00062106,3.5993e-09,0,0.00083651,9.2784e-05,2.0726e+08,1151.4,0,2.9307e+08,45.774,12620,591.1,0,591.1,0,0.00064369,1.7947e-09,0,0.00032454,0.00012051,2.3122e+08,581.8,0,1.1293e+08,67.432,591.1,1
2044,3.87,12111,1,12111,1,6.3922e-05,1.451e-09,0,0.00056089,-1.1698e-05,24.639,467.6,0,2.0213e+08,-2.9336,12110,13208,1,13208,1,0.0011424,4.7032e-09,0,0.0011424,0.0001903,3.4772e+08,1510.9,0,4.1264e+08,159.5,13207,12110,1,12110,1,6.3922e-05,1.156e-09,0,0.00055917,-1.1706e-05,2.3618e+07,362.28,0,2.0699e+08,-4.2947,12109,11089,1,11089,1,-0.0010145,-5.7047e-10,0,2.3978e-05,-0.00021357,-4.1264e+08,-177.58,0,8.8784e+06,-155.9,11088,11599,1,11599,1,-0.00049525,3.4298e-10,0,0.00027959,-0.00011639,-2.0143e+08,103.72,0,1.0755e+08,-32.951,11598,12621,1,12621,1,0.0006231,2.4641e-09,0,0.00083877,9.2966e-05,2.077e+08,783.68,0,2.9351e+08,32,12620,591.1,0,591.1,0,0.00064542,1.3373e-09,0,0.00032544,0.00012084,2.3168e+08,436.61,0,1.1314e+08,50.838,591.1,1
2044,3.88,12111,1,12111,1,6.446e-05,3.018e-09,0,0.00056241,-1.1797e-05,107.65,958.45,0,2.0253e+08,-0.82974,12110,13208,1,13208,1,0.0011458,9.1572e-09,0,0.0011458,0.00019075,3.4817e+08,2881.6,0,4.136e+08,282.83,13207,12110,1,12110,1,6.446e-05,2.7019e-09,0,0.00056067,-1.1804e-05,2.3805e+07,826.04,0,2.0742e+08,2.1508,12109,11089,1,11089,1,-0.0010169,-1.1474e-09,0,2.4409e-05,-0.00021421,-4.136e+08,-352.95,0,9.0368e+06,-257.42,11088,11599,1,11599,1,-0.00049621,6.1617e-10,0,0.00028034,-0.00011676,-2.0182e+08,184.69,0,1.0779e+08,-56.005,11598,12621,1,12621,1,0.00062513,5.2482e-09,0,0.00084101,9.3147e-05,2.0813e+08,1656,0,2.9395e+08,59.565,12620,591.1,0,591.1,0,0.00064715,2.6795e-09,0,0.00032634,0.00012116,2.3213e+08,862.31,0,1.1334e+08,88.714,591.1,1
2044,3.89,12111,1,12111,1,6.5001e-05,-1.663e-09,0,0.00056396,-1.1895e-05,-46.397,-504.5,0,2.0294e+08,8.5827,12110,13208,1,13208,1,0.0011492,9.2697e-10,0,0.0011492,0.00019119,3.4863e+08,317.48,0,4.1456e+08,135.84,13207,12110,1,12110,1,6.5001e-05,-1.5079e-09,0,0.00056219,-1.1903e-05,2.3993e+07,-466.06,0,2.0786e+08,9.0334,12109,11089,1,11089,1,-0.0010192,-4.8846e-09,0,2.4842e-05,-0.00021485,-4.1456e+08,-1504.4,0,9.1954e+06,-184.14,11088,11599,1,11599,1,-0.00049719,-2.9582e-09,0,0.00028109,-0.00011715,-2.0222e+08,-902.62,0,1.0804e+08,-33.223,11598,12621,1,12621,1,0.00062719,-2.6864e-10,0,0.00084328,9.333e-05,2.0857e+08,-78.245,0,2.9439e+08,49.184,12620,591.1,0,591.1,0,0.0006489,1.583e-09,0,0.00032725,0.00012149,2.3259e+08,485.05,0,1.1355e+08,58.068,591.1,1
2044,3.9,12111,1,12111,1,6.5549e-05,3.404e-10,0,0.00056551,-1.1996e-05,-294.45,104.8,0,2.0335e+08,-1.4387,12110,13208,1,13208,1,0.0011527,9.7299e-10,0,0.0011527,0.00019163,3.4907e+08,310.29,0,4.1552e+08,67.267,13207,12110,1,12110,1,6.5549e-05,2.6601e-10,0,0.0005637,-1.2003e-05,2.4183e+07,83.81,0,2.0829e+08,-2.3409,12109,11089,1,11089,1,-0.0010216,-1.6037e-10,0,2.5284e-05,-0.00021549,-4.1552e+08,-49.524,0,9.3575e+06,-69.11,11088,11599,1,11599,1,-0.00049815,1.2489e-10,0,0.00028185,-0.00011753,-2.0261e+08,38.665,0,1.0828e+08,-23.327,11598,12621,1,12621,1,0.00062925,5.4616e-10,0,0.00084555,9.3513e-05,2.0901e+08,169.89,0,2.9487e+08,19.679,12620,591.1,0,591.1,0,0.00065065,2.6769e-10,0,0.00032816,0.00012181,2.3305e+08,81.172,0,1.1376e+08,27.283,591.1,1
2044,3.91,12111,1,12111,1,6.6099e-05,1.9523e-09,0,0.00056703,-1.2096e-05,-343.39,612.28,0,2.0374e+08,31.317,12110,13208,1,13208,1,0.0011561,7.6595e-09,0,0.0011561,0.00019207,3.4951e+08,2393.2,0,4.1648e+08,253.51,13207,12110,1,12110,1,6.6098e-05,1.4619e-09,0,0.0005652,-1.2103e-05,2.4374e+07,460.31,0,2.0872e+08,29.618,12109,11089,1,11089,1,-0.0010239,-7.5238e-10,0,2.5727e-05,-0.00021614,-4.1648e+08,-257.69,0,9.5196e+06,-153.01,11088,11599,1,11599,1,-0.0004991,3.4374e-10,0,0.0002826,-0.00011791,-2.03e+08,104.26,0,1.0853e+08,-15.616,11598,12621,1,12621,1,0.0006313,3.2617e-09,0,0.0008478,9.3691e-05,2.0944e+08,1027.5,0,2.9539e+08,79.734,12620,591.1,0,591.1,0,0.00065237,1.9123e-09,0,0.00032906,0.00012213,2.3349e+08,604.91,0,1.1396e+08,68.056,591.1,1
2044,3.92,12111,1,12111,1,6.6651e-05,-1.4496e-09,0,0.00056858,-1.2197e-05,5.3947,-445.75,0,2.0415e+08,-7.1032,12110,13208,1,13208,1,0.0011596,5.1484e-10,0,0.0011596,0.00019252,3.4996e+08,176.33,0,4.1744e+08,111.67,13207,12110,1,12110,1,6.6652e-05,-1.5197e-09,0,0.00056672,-1.2204e-05,2.4566e+07,-467.76,0,2.0916e+08,-4.5909,12109,11089,1,11089,1,-0.0010263,-3.4207e-09,0,2.617e-05,-0.00021678,-4.1744e+08,-1027.1,0,9.6814e+06,-119.77,11088,11599,1,11599,1,-0.00050006,-2.1478e-09,0,0.00028336,-0.00011829,-2.0339e+08,-661.86,0,1.0877e+08,-29.151,11598,12621,1,12621,1,0.00063337,-7.2029e-10,0,0.00085007,9.3873e-05,2.0987e+08,-227.46,0,2.9591e+08,20.696,12620,591.1,0,591.1,0,0.00065413,9.2106e-10,0,0.00032997,0.00012246,2.3395e+08,279.89,0,1.1417e+08,40.048,591.1,1
2044,3.93,12111,1,12111,1,6.7207e-05,-2.7713e-09,0,0.00057011,-1.2299e-05,-195.69,-868.87,0,2.0454e+08,46.592,12110,13208,1,13208,1,0.0011631,1.8555e-09,0,0.0011631,0.00019296,3.5039e+08,620.77,0,4.184e+08,385.84,13207,12110,1,12110,1,6.7206e-05,-2.6048e-09,0,0.00056822,-1.2305e-05,2.4758e+07,-804.77,0,2.0958e+08,45.345,12109,11089,1,11089,1,-0.0010287,-8.6537e-09,0,2.6619e-05,-0.00021743,-4.184e+08,-2697.8,0,9.8456e+06,-253.61,11088,11599,1,11599,1,-0.00050101,-5.1064e-09,0,0.00028411,-0.00011867,-2.0377e+08,-1581.7,0,1.0902e+08,-32.226,11598,12621,1,12621,1,0.00063542,-1.039e-10,0,0.00085232,9.405e-05,2.103e+08,-31.989,0,2.9642e+08,112.47,12620,591.1,0,591.1,0,0.00065586,2.7888e-09,0,0.00033088,0.00012278,2.3439e+08,877.46,0,1.1437e+08,120.47,591.1,1
2044,3.94,12111,1,12111,1,6.7763e-05,-1.8316e-09,0,0.00057164,-1.2401e-05,-248.73,-586.4,0,2.0494e+08,23.301,12110,13208,1,13208,1,0.0011665,2.4222e-09,0,0.0011665,0.0001934,3.5082e+08,785.61,0,4.1934e+08,229.74,13207,12110,1,12110,1,6.7762e-05,-1.6204e-09,0,0.00056971,-1.2407e-05,2.495e+07,-490.26,0,2.1001e+08,29.671,12109,11089,1,11089,1,-0.001031,-6.5598e-09,0,2.7066e-05,-0.00021807,-4.1934e+08,-2096.5,0,1.0008e+07,-324.24,11088,11599,1,11599,1,-0.00050195,-3.681e-09,0,0.00028486,-0.00011906,-2.0416e+08,-1169.1,0,1.0926e+08,-32.678,11598,12621,1,12621,1,0.00063748,1.4478e-10,0,0.00085457,9.4228e-05,2.1073e+08,44,0,2.9694e+08,87.81,12620,591.1,0,591.1,0,0.00065758,2.2212e-09,0,0.00033178,0.00012311,2.3484e+08,710.27,0,1.1457e+08,99.369,591.1,1
2044,3.95,12111,1,12111,1,6.8321e-05,-8.7176e-11,0,0.00057317,-1.2503e-05,-204.03,-40.712,0,2.0533e+08,28.959,12110,13208,1,13208,1,0.00117,9.0916e-09,0,0.00117,0.00019383,3.5124e+08,2848.7,0,4.2029e+08,204.6,13207,12110,1,12110,1,6.8322e-05,2.7223e-11,0,0.00057121,-1.2509e-05,2.5144e+07,7.4982,0,2.1043e+08,41.495,12109,11089,1,11089,1,-0.0010333,-6.187e-09,0,2.7518e-05,-0.00021871,-4.2029e+08,-1958.1,0,1.0173e+07,-194.01,11088,11599,1,11599,1,-0.00050289,-2.6853e-09,0,0.00028561,-0.00011944,-2.0454e+08,-846.93,0,1.095e+08,-40.475,11598,12621,1,12621,1,0.00063953,1.979e-09,0,0.00085682,9.4405e-05,2.1116e+08,598.25,0,2.9744e+08,96.677,12620,591.1,0,591.1,0,0.00065931,3.4286e-09,0,0.00033268,0.00012343,2.3528e+08,1082,0,1.1478e+08,90.802,591.1,1
2044,3.96,12111,1,12111,1,6.8886e-05,-6.5777e-10,0,0.00057473,-1.2606e-05,184.42,-212.82,0,2.0574e+08,-3.6858,12110,13208,1,13208,1,0.0011735,4.9987e-09,0,0.0011735,0.00019428,3.5168e+08,1639.9,0,4.2125e+08,283.27,13207,12110,1,12110,1,6.8886e-05,-3.2082e-10,0,0.00057274,-1.2613e-05,2.5339e+07,-98.676,0,2.1087e+08,-2.4965,12109,11089,1,11089,1,-0.0010357,-4.7791e-09,0,2.7976e-05,-0.00021936,-4.2125e+08,-1525.6,0,1.0339e+07,-229.59,11088,11599,1,11599,1,-0.00050385,-2.0759e-09,0,0.00028637,-0.00011983,-2.0493e+08,-667.34,0,1.0975e+08,-48.597,11598,12621,1,12621,1,0.00064162,4.103e-10,0,0.00085911,9.4586e-05,2.1159e+08,124.27,0,2.9796e+08,33.337,12620,591.1,0,591.1,0,0.00066107,1.9849e-09,0,0.0003336,0.00012376,2.3573e+08,639.92,0,1.1498e+08,75.036,591.1,1
2044,3.97,12111,1,12111,1,6.9462e-05,-2.3561e-09,0,0.00057629,-1.2711e-05,27.556,-739.84,0,2.0614e+08,-16.781,12110,13208,1,13208,1,0.001177,1.2947e-09,0,0.001177,0.00019473,3.5211e+08,443.42,0,4.2222e+08,231.38,13207,12110,1,12110,1,6.9462e-05,-2.5254e-09,0,0.00057426,-1.2718e-05,2.5537e+07,-766.71,0,2.113e+08,-13.815,12109,11089,1,11089,1,-0.0010381,-5.6083e-09,0,2.8442e-05,-0.00022001,-4.2222e+08,-1770.3,0,1.0509e+07,-275.95,11088,11599,1,11599,1,-0.0005048,-3.8588e-09,0,0.00028713,-0.00012022,-2.0531e+08,-1222.5,0,1.1e+08,-86.239,11598,12621,1,12621,1,0.00064373,-9.0946e-10,0,0.00086139,9.4765e-05,2.1203e+08,-280.3,0,2.9848e+08,46.209,12620,591.1,0,591.1,0,0.00066284,1.8016e-09,0,0.00033452,0.00012409,2.3618e+08,572.77,0,1.1519e+08,96.385,591.1,1
2044,3.98,12111,1,12111,1,7.0037e-05,-2.1177e-09,0,0.00057784,-1.2817e-05,-122.1,-673.9,0,2.0654e+08,-1.5168,12110,13208,1,13208,1,0.0011805,1.1928e-09,0,0.0011805,0.00019517,3.5253e+08,408.51,0,4.2318e+08,175.23,13207,12110,1,12110,1,7.0035e-05,-1.981e-09,0,0.00057578,-1.2824e-05,2.5735e+07,-619.38,0,2.1172e+08,11.558,12109,11089,1,11089,1,-0.0010404,-6.6051e-09,0,2.8907e-05,-0.00022066,-4.2318e+08,-2079.8,0,1.0678e+07,-320.87,11088,11599,1,11599,1,-0.00050574,-3.4603e-09,0,0.00028789,-0.0001206,-2.057e+08,-1120,0,1.1024e+08,-31.894,11598,12621,1,12621,1,0.00064582,-5.9218e-10,0,0.00086367,9.4943e-05,2.1246e+08,-186.09,0,2.9899e+08,53.955,12620,591.1,0,591.1,0,0.00066459,1.8452e-09,0,0.00033544,0.00012441,2.3663e+08,591.89,0,1.1539e+08,86.414,591.1,1
2044,3.99,12111,1,12111,1,7.0617e-05,-7.4785e-10,0,0.00057938,-1.2923e-05,108.85,-246.06,0,2.0692e+08,27.441,12110,13208,1,13208,1,0.001184,6.3871e-09,0,0.001184,0.0001956,3.5293e+08,1981.1,0,4.2412e+08,264.98,13207,12110,1,12110,1,7.0617e-05,-5.0003e-10,0,0.00057728,-1.293e-05,2.5934e+07,-150.14,0,2.1214e+08,9.4589,12109,11089,1,11089,1,-0.0010427,-5.8448e-09,0,2.938e-05,-0.00022131,-4.2412e+08,-1843.3,0,1.0849e+07,-195.97,11088,11599,1,11599,1,-0.00050666,-2.8532e-09,0,0.00028864,-0.00012099,-2.0607e+08,-884.77,0,1.1048e+08,-33.124,11598,12621,1,12621,1,0.0006479,8.6839e-10,0,0.00086592,9.5116e-05,2.1288e+08,252.05,0,2.9948e+08,94.246,12620,591.1,0,591.1,0,0.00066632,2.6475e-09,0,0.00033635,0.00012474,2.3706e+08,829.56,0,1.1559e+08,90.67,591.1,1
2044,4,12111,1,12111,1,7.1196e-05,-9.9968e-10,0,0.00058094,-1.3029e-05,-194.36,-321.22,0,2.0732e+08,1.7012,12110,13208,1,13208,1,0.0011875,5.7204e-10,0,0.0011875,0.00019604,3.5335e+08,181.79,0,4.2507e+08,100.77,13207,12110,1,12110,1,7.1197e-05,-8.8076e-10,0,0.0005788,-1.3036e-05,2.6134e+07,-269.32,0,2.1257e+08,6.1918,12109,11089,1,11089,1,-0.0010451,-3.0777e-09,0,2.9851e-05,-0.00022196,-4.2507e+08,-983.63,0,1.1019e+07,-146.19,11088,11599,1,11599,1,-0.00050761,-1.5284e-09,0,0.00028941,-0.00012138,-2.0646e+08,-496.43,0,1.1072e+08,-28.259,11598,12621,1,12621,1,0.00065,-3.4212e-10,0,0.00086821,9.5295e-05,2.1331e+08,-109.79,0,2.9999e+08,31.412,12620,591.1,0,591.1,0,0.00066808,8.4803e-10,0,0.00033727,0.00012506,2.3751e+08,277.82,0,1.1579e+08,41.873,591.1,1
2044,4.01,12111,1,12111,1,7.1784e-05,-1.1476e-09,0,0.00058249,-1.3136e-05,-184.99,-366.17,0,2.0772e+08,-19.061,12110,13208,1,13208,1,0.001191,3.5778e-10,0,0.001191,0.00019648,3.5375e+08,122.34,0,4.2602e+08,66.997,13207,12110,1,12110,1,7.1783e-05,-1.235e-09,0,0.00058032,-1.3144e-05,2.6335e+07,-384.41,0,2.1299e+08,-10.051,12109,11089,1,11089,1,-0.0010474,-3.47e-09,0,3.033e-05,-0.00022261,-4.2602e+08,-1088.4,0,1.1192e+07,-185.46,11088,11599,1,11599,1,-0.00050854,-1.7119e-09,0,0.00029016,-0.00012177,-2.0683e+08,-565.55,0,1.1097e+08,-38.381,11598,12621,1,12621,1,0.00065211,-4.802e-10,0,0.00087049,9.547e-05,2.1373e+08,-137.45,0,3.005e+08,6.6989,12620,591.1,0,591.1,0,0.00066984,7.9745e-10,0,0.00033819,0.00012539,2.3795e+08,259.08,0,1.1599e+08,40.465,591.1,1
2044,4.02,12111,1,12111,1,7.2368e-05,-1.3536e-09,0,0.00058399,-1.3243e-05,-12.306,-427.32,0,2.0809e+08,60.788,12110,13208,1,13208,1,0.0011944,1.2266e-08,0,0.0011944,0.00019691,3.5414e+08,3802.7,0,4.2695e+08,410.57,13207,12110,1,12110,1,7.2367e-05,-7.3915e-10,0,0.0005818,-1.325e-05,2.6535e+07,-210.72,0,2.134e+08,40.876,12109,11089,1,11089,1,-0.0010497,-1.161e-08,0,3.0809e-05,-0.00022325,-4.2695e+08,-3604.1,0,1.1365e+07,-268.92,11088,11599,1,11599,1,-0.00050943,-5.7282e-09,0,0.0002909,-0.00012215,-2.072e+08,-1785.3,0,1.112e+08,-33.865,11598,12621,1,12621,1,0.00065417,2.1537e-09,0,0.0008727,9.5638e-05,2.1414e+08,648.15,0,3.0097e+08,169.95,12620,591.1,0,591.1,0,0.00067153,5.5445e-09,0,0.00033909,0.00012571,2.3837e+08,1729.2,0,1.1618e+08,139.48,591.1,1
2044,4.03,12111,1,12111,1,7.2954e-05,2.6406e-09,0,0.00058558,-1.335e-05,434.97,811.21,0,2.085e+08,-45.638,12110,13208,1,13208,1,0.001198,8.7875e-09,0,0.001198,0.00019736,3.5457e+08,2807.1,0,4.2793e+08,326.85,13207,12110,1,12110,1,7.2955e-05,2.3805e-09,0,0.00058335,-1.3358e-05,2.6737e+07,706.73,0,2.1383e+08,-47.006,12109,11089,1,11089,1,-0.0010521,-1.3664e-09,0,3.1284e-05,-0.00022392,-4.2793e+08,-467.75,0,1.1536e+07,-278.99,11088,11599,1,11599,1,-0.00051039,5.7248e-10,0,0.00029167,-0.00012255,-2.0759e+08,168.03,0,1.1145e+08,-124.6,11598,12621,1,12621,1,0.0006563,4.5778e-09,0,0.00087502,9.582e-05,2.1458e+08,1395.9,0,3.0149e+08,8.7364,12620,591.1,0,591.1,0,0.00067332,2.4465e-09,0,0.00034003,0.00012604,2.3883e+08,774.82,0,1.1639e+08,107.99,591.1,1
2044,4.04,12111,1,12111,1,7.3557e-05,2.1749e-09,0,0.00058714,-1.3461e-05,77.37,682.81,0,2.0889e+08,-55.742,12110,13208,1,13208,1,0.0012016,5.245e-09,0,0.0012016,0.0001978,3.5496e+08,1659.1,0,4.2888e+08,78.081,13207,12110,1,12110,1,7.3558e-05,2.1997e-09,0,0.00058488,-1.3469e-05,2.6943e+07,667.93,0,2.1426e+08,-46.611,12109,11089,1,11089,1,-0.0010544,-9.1729e-10,0,3.1779e-05,-0.00022458,-4.2888e+08,-228.8,0,1.1715e+07,-249.69,11088,11599,1,11599,1,-0.00051132,8.4335e-10,0,0.00029244,-0.00012294,-2.0797e+08,250.71,0,1.1169e+08,-100.49,11598,12621,1,12621,1,0.00065844,3.4919e-09,0,0.00087732,9.5994e-05,2.15e+08,1099.6,0,3.0199e+08,-9.2803,12620,591.1,0,591.1,0,0.00067509,1.6121e-09,0,0.00034096,0.00012637,2.3927e+08,519.1,0,1.1659e+08,64.698,591.1,1
2044,4.05,12111,1,12111,1,7.4161e-05,-1.5954e-09,0,0.0005887,-1.3571e-05,10.56,-482.77,0,2.0928e+08,-4.6076,12110,13208,1,13208,1,0.0012051,7.7526e-10,0,0.0012051,0.00019824,3.5535e+08,265.52,0,4.2982e+08,96.604,13207,12110,1,12110,1,7.4162e-05,-1.7539e-09,0,0.0005864,-1.358e-05,2.7149e+07,-545.65,0,2.1467e+08,-4.2931,12109,11089,1,11089,1,-0.0010568,-3.4808e-09,0,3.2274e-05,-0.00022523,-4.2982e+08,-1067.1,0,1.1892e+07,-109.54,11088,11599,1,11599,1,-0.00051223,-2.5901e-09,0,0.0002932,-0.00012334,-2.0834e+08,-768.29,0,1.1193e+08,-26.024,11598,12621,1,12621,1,0.00066056,-6.5841e-10,0,0.00087959,9.6167e-05,2.1542e+08,-209.91,0,3.0248e+08,17.148,12620,591.1,0,591.1,0,0.00067684,1.1174e-09,0,0.00034188,0.0001267,2.397e+08,334.92,0,1.1679e+08,37.284,591.1,1
2044,4.06,12111,1,12111,1,7.4763e-05,5.7068e-10,0,0.00059024,-1.3681e-05,-432.42,175.23,0,2.0966e+08,32.394,12110,13208,1,13208,1,0.0012086,5.8184e-09,0,0.0012086,0.00019867,3.5573e+08,1802.7,0,4.3076e+08,252.78,13207,12110,1,12110,1,7.4763e-05,2.0008e-10,0,0.0005879,-1.369e-05,2.7354e+07,58.628,0,2.1509e+08,30.478,12109,11089,1,11089,1,-0.0010591,-2.0773e-09,0,3.2769e-05,-0.00022588,-4.3076e+08,-654.95,0,1.207e+07,-135.05,11088,11599,1,11599,1,-0.00051314,-6.3071e-10,0,0.00029395,-0.00012373,-2.0871e+08,-188.32,0,1.1217e+08,-11.151,11598,12621,1,12621,1,0.00066267,1.5431e-09,0,0.00088185,9.6338e-05,2.1584e+08,477.18,0,3.0297e+08,71.482,12620,591.1,0,591.1,0,0.00067858,1.6834e-09,0,0.0003428,0.00012702,2.4013e+08,525.55,0,1.1698e+08,65.066,591.1,1
2044,4.07,12111,1,12111,1,7.5369e-05,1.8723e-09,0,0.0005918,-1.3792e-05,130.57,582.87,0,2.1005e+08,-2.745,12110,13208,1,13208,1,0.0012121,5.8393e-09,0,0.0012121,0.00019911,3.5613e+08,1849,0,4.3171e+08,225.77,13207,12110,1,12110,1,7.5369e-05,1.7427e-09,0,0.00058943,-1.3801e-05,2.7561e+07,531.19,0,2.155e+08,-0.077288,12109,11089,1,11089,1,-0.0010614,-6.4473e-10,0,3.3267e-05,-0.00022654,-4.3171e+08,-220.81,0,1.2249e+07,-182.87,11088,11599,1,11599,1,-0.00051406,5.7754e-10,0,0.00029471,-0.00012412,-2.0908e+08,171.63,0,1.1241e+08,-52.401,11598,12621,1,12621,1,0.0006648,3.0594e-09,0,0.00088414,9.6511e-05,2.1626e+08,960.41,0,3.0346e+08,49.809,12620,591.1,0,591.1,0,0.00068034,1.4886e-09,0,0.00034373,0.00012735,2.4057e+08,474.9,0,1.1718e+08,73.994,591.1,1
2044,4.08,12111,1,12111,1,7.5982e-05,-8.1684e-10,0,0.00059337,-1.3904e-05,-19.482,-244.09,0,2.1043e+08,-12.179,12110,13208,1,13208,1,0.0012157,4.7203e-10,0,0.0012157,0.00019954,3.5651e+08,161.67,0,4.3266e+08,67.002,13207,12110,1,12110,1,7.5982e-05,-8.0644e-10,0,0.00059096,-1.3914e-05,2.7769e+07,-247.8,0,2.1592e+08,-9.3296,12109,11089,1,11089,1,-0.0010637,-2.0329e-09,0,3.3769e-05,-0.0002272,-4.3266e+08,-583.04,0,1.2428e+07,-93.695,11088,11599,1,11599,1,-0.00051498,-1.3515e-09,0,0.00029548,-0.00012452,-2.0945e+08,-400.48,0,1.1265e+08,-27.674,11598,12621,1,12621,1,0.00066694,-3.1055e-10,0,0.00088644,9.6684e-05,2.1668e+08,-95.822,0,3.0395e+08,5.7873,12620,591.1,0,591.1,0,0.00068211,6.2254e-10,0,0.00034466,0.00012768,2.41e+08,182.24,0,1.1738e+08,26.462,591.1,1
2044,4.09,12111,1,12111,1,7.6598e-05,5.044e-10,0,0.00059493,-1.4017e-05,-161.24,156.6,0,2.1082e+08,6.5661,12110,13208,1,13208,1,0.0012192,1.3521e-09,0,0.0012192,0.00019998,3.5689e+08,421.94,0,4.336e+08,74.735,13207,12110,1,12110,1,7.6598e-05,4.5145e-10,0,0.00059248,-1.4027e-05,2.7979e+07,143.06,0,2.1634e+08,6.3939,12109,11089,1,11089,1,-0.001066,-1.9716e-10,0,3.4278e-05,-0.00022786,-4.336e+08,-48.726,0,1.261e+07,-76.256,11088,11599,1,11599,1,-0.00051588,2.7555e-10,0,0.00029624,-0.00012492,-2.0982e+08,79.711,0,1.1289e+08,-8.6355,11598,12621,1,12621,1,0.00066908,6.7858e-10,0,0.00088872,9.6855e-05,2.1709e+08,212.33,0,3.0444e+08,24.4,12620,591.1,0,591.1,0,0.00068387,3.3169e-10,0,0.00034559,0.00012801,2.4143e+08,104.38,0,1.1758e+08,25.056,591.1,1
2044,4.1,12111,1,12111,1,7.7217e-05,-1.375e-10,0,0.00059649,-1.413e-05,-153.72,-40.531,0,2.112e+08,26.45,12110,13208,1,13208,1,0.0012228,3.1683e-09,0,0.0012228,0.00020042,3.5726e+08,980.86,0,4.3454e+08,163.85,13207,12110,1,12110,1,7.7217e-05,-9.2725e-11,0,0.000594,-1.4141e-05,2.8189e+07,-28.237,0,2.1675e+08,28.932,12109,11089,1,11089,1,-0.0010684,-2.2581e-09,0,3.4788e-05,-0.00022852,-4.3454e+08,-695.7,0,1.2793e+07,-116.69,11088,11599,1,11599,1,-0.00051679,-1.0188e-09,0,0.000297,-0.00012532,-2.1019e+08,-306.56,0,1.1313e+08,-4.6072,11598,12621,1,12621,1,0.00067122,4.6e-10,0,0.00089101,9.7025e-05,2.1751e+08,146.68,0,3.0492e+08,54.159,12620,591.1,0,591.1,0,0.00068563,1.1211e-09,0,0.00034652,0.00012834,2.4186e+08,345.76,0,1.1777e+08,45.309,591.1,1
2044,4.11,12111,1,12111,1,7.7839e-05,3.8175e-10,0,0.00059803,-1.4244e-05,388.79,118.23,0,2.1158e+08,7.205,12110,13208,1,13208,1,0.0012263,6.8658e-09,0,0.0012263,0.00020085,3.5762e+08,2140.2,0,4.3548e+08,184.85,13207,12110,1,12110,1,7.7838e-05,2.2725e-10,0,0.00059551,-1.4255e-05,2.84e+07,66.606,0,2.1716e+08,7.4065,12109,11089,1,11089,1,-0.0010707,-3.8658e-09,0,3.5301e-05,-0.00022918,-4.3548e+08,-1191.3,0,1.2976e+07,-185.97,11088,11599,1,11599,1,-0.00051767,-1.3804e-09,0,0.00029776,-0.00012571,-2.1055e+08,-419.05,0,1.1336e+08,-48.209,11598,12621,1,12621,1,0.00067335,1.8317e-09,0,0.00089327,9.7193e-05,2.1792e+08,549.57,0,3.0539e+08,57.182,12620,591.1,0,591.1,0,0.00068737,2.3465e-09,0,0.00034744,0.00012866,2.4229e+08,730.26,0,1.1797e+08,72.551,591.1,1
2044,4.12,12111,1,12111,1,7.846e-05,3.5115e-09,0,0.00059959,-1.4357e-05,-55.06,1085.3,0,2.1196e+08,-37.679,12110,13208,1,13208,1,0.0012299,9.9292e-09,0,0.0012299,0.00020129,3.58e+08,3122,0,4.3643e+08,193.71,13207,12110,1,12110,1,7.846e-05,3.0717e-09,0,0.00059704,-1.4369e-05,2.861e+07,913.9,0,2.1757e+08,-22.483,12109,11089,1,11089,1,-0.001073,-1.2129e-09,0,3.5814e-05,-0.00022985,-4.3643e+08,-360.3,0,1.3158e+07,-395.99,11088,11599,1,11599,1,-0.00051858,8.8015e-10,0,0.00029852,-0.00012611,-2.1092e+08,269.51,0,1.136e+08,-102.78,11598,12621,1,12621,1,0.0006755,5.9751e-09,0,0.00089556,9.7363e-05,2.1833e+08,1855.7,0,3.0588e+08,38.92,12620,591.1,0,591.1,0,0.00068912,2.94e-09,0,0.00034837,0.00012899,2.4271e+08,925.01,0,1.1816e+08,116.02,591.1,1
2044,4.13,12111,1,12111,1,7.9092e-05,2.5233e-09,0,0.00060116,-1.4473e-05,794.08,797.5,0,2.1234e+08,-31.994,12110,13208,1,13208,1,0.0012335,5.9486e-09,0,0.0012335,0.00020172,3.5837e+08,2035.3,0,4.3737e+08,265.51,13207,12110,1,12110,1,7.9093e-05,2.5125e-09,0,0.00059857,-1.4485e-05,2.8825e+07,760.98,0,2.1798e+08,-29.59,12109,11089,1,11089,1,-0.0010753,-1.0483e-09,0,3.6334e-05,-0.00023052,-4.3737e+08,-309.92,0,1.3344e+07,-350.23,11088,11599,1,11599,1,-0.00051948,9.3266e-10,0,0.00029929,-0.00012651,-2.1128e+08,265.91,0,1.1384e+08,-103.16,11598,12621,1,12621,1,0.00067767,4.1634e-09,0,0.00089786,9.7533e-05,2.1875e+08,1334.5,0,3.0636e+08,50.833,12620,591.1,0,591.1,0,0.0006909,1.9135e-09,0,0.00034931,0.00012932,2.4314e+08,621.51,0,1.1836e+08,111.71,591.1,1
2044,4.14,12111,1,12111,1,7.9725e-05,-6.5355e-10,0,0.00060272,-1.4589e-05,-163.9,-179.81,0,2.1272e+08,18.751,12110,13208,1,13208,1,0.0012371,2.0707e-09,0,0.0012371,0.00020215,3.5872e+08,708.75,0,4.383e+08,157.27,13207,12110,1,12110,1,7.9726e-05,-4.1847e-10,0,0.00060009,-1.4602e-05,2.9039e+07,-113.2,0,2.1839e+08,15.388,12109,11089,1,11089,1,-0.0010776,-3.7096e-09,0,3.6857e-05,-0.00023117,-4.383e+08,-1105.4,0,1.353e+07,-124.82,11088,11599,1,11599,1,-0.00052037,-1.7611e-09,0,0.00030005,-0.00012691,-2.1165e+08,-520.74,0,1.1408e+08,-12.937,11598,12621,1,12621,1,0.00067982,4.687e-10,0,0.00090014,9.7701e-05,2.1916e+08,152.01,0,3.0683e+08,57.664,12620,591.1,0,591.1,0,0.00069265,1.486e-09,0,0.00035025,0.00012965,2.4357e+08,452.74,0,1.1855e+08,48.934,591.1,1
2044,4.15,12111,1,12111,1,8.0364e-05,-9.9801e-11,0,0.0006043,-1.4706e-05,53.374,-25.961,0,2.131e+08,-9.8459,12110,13208,1,13208,1,0.0012407,4.9021e-10,0,0.0012407,0.00020259,3.5908e+08,167.85,0,4.3924e+08,59.384,13207,12110,1,12110,1,8.0365e-05,-1.2018e-10,0,0.00060163,-1.4719e-05,2.9254e+07,-35.059,0,2.188e+08,-6.2573,12109,11089,1,11089,1,-0.0010799,-7.0789e-10,0,3.739e-05,-0.00023184,-4.3924e+08,-223.08,0,1.3719e+07,-98.083,11088,11599,1,11599,1,-0.00052126,-3.6506e-10,0,0.00030082,-0.00012731,-2.1201e+08,-103.42,0,1.1432e+08,-25.288,11598,12621,1,12621,1,0.00068199,1.5171e-10,0,0.00090244,9.787e-05,2.1957e+08,49.21,0,3.0731e+08,8.2906,12620,591.1,0,591.1,0,0.00069443,3.0673e-10,0,0.00035119,0.00012998,2.4399e+08,96.506,0,1.1874e+08,27.21,591.1,1
2044,4.16,12111,1,12111,1,8.1007e-05,5.1724e-10,0,0.00060586,-1.4823e-05,66.834,159.83,0,2.1347e+08,-3.4193,12110,13208,1,13208,1,0.0012442,2.9395e-09,0,0.0012442,0.00020302,3.5943e+08,873.79,0,4.4018e+08,132.01,13207,12110,1,12110,1,8.1007e-05,5.3501e-10,0,0.00060315,-1.4837e-05,2.9471e+07,156.78,0,2.1921e+08,-6.9786,12109,11089,1,11089,1,-0.0010822,-1.0116e-09,0,3.7924e-05,-0.00023251,-4.4018e+08,-306.09,0,1.3908e+07,-172.63,11088,11599,1,11599,1,-0.00052215,-1.93e-10,0,0.00030158,-0.00012771,-2.1237e+08,-52.88,0,1.1455e+08,-33.122,11598,12621,1,12621,1,0.00068416,1.1077e-09,0,0.00090473,9.8036e-05,2.1998e+08,346.32,0,3.0778e+08,24.106,12620,591.1,0,591.1,0,0.00069619,7.6747e-10,0,0.00035213,0.00013031,2.4441e+08,235.92,0,1.1894e+08,51.574,591.1,1
2044,4.17,12111,1,12111,1,8.1651e-05,-9.6452e-10,0,0.00060742,-1.4941e-05,-254.17,-293.27,0,2.1384e+08,32.556,12110,13208,1,13208,1,0.0012478,2.8101e-09,0,0.0012478,0.00020345,3.5978e+08,856.93,0,4.4112e+08,221.51,13207,12110,1,12110,1,8.1651e-05,-7.2987e-10,0,0.00060468,-1.4956e-05,2.9688e+07,-218.28,0,2.1961e+08,31.975,12109,11089,1,11089,1,-0.0010845,-4.726e-09,0,3.8459e-05,-0.00023317,-4.4112e+08,-1449.6,0,1.4097e+07,-188.53,11088,11599,1,11599,1,-0.00052303,-2.3466e-09,0,0.00030234,-0.00012812,-2.1273e+08,-714.34,0,1.1479e+08,-15.849,11598,12621,1,12621,1,0.00068633,3.691e-10,0,0.00090702,9.8203e-05,2.2039e+08,116.45,0,3.0825e+08,74.899,12620,591.1,0,591.1,0,0.00069795,1.7138e-09,0,0.00035306,0.00013063,2.4483e+08,525.01,0,1.1913e+08,67.818,591.1,1
2044,4.18,12111,1,12111,1,8.2301e-05,-1.0109e-09,0,0.000609,-1.506e-05,25.688,-316.66,0,2.1422e+08,1.4945,12110,13208,1,13208,1,0.0012514,6.6216e-10,0,0.0012514,0.00020388,3.6012e+08,226.78,0,4.4205e+08,185.89,13207,12110,1,12110,1,8.23e-05,-1.0179e-09,0,0.00060621,-1.5075e-05,2.9906e+07,-307.51,0,2.2002e+08,-4.4822,12109,11089,1,11089,1,-0.0010868,-2.8229e-09,0,3.8998e-05,-0.00023384,-4.4205e+08,-892.55,0,1.4288e+07,-176.14,11088,11599,1,11599,1,-0.00052391,-1.6279e-09,0,0.00030311,-0.00012852,-2.1309e+08,-513.93,0,1.1502e+08,-33.575,11598,12621,1,12621,1,0.00068851,-3.9694e-10,0,0.00090932,9.8369e-05,2.2079e+08,-112.35,0,3.0871e+08,39.848,12620,591.1,0,591.1,0,0.00069972,8.3163e-10,0,0.00035401,0.00013096,2.4525e+08,264.56,0,1.1932e+08,49.177,591.1,1
2044,4.19,12111,1,12111,1,8.2955e-05,1.2623e-09,0,0.00061056,-1.518e-05,-64.729,381.54,0,2.1459e+08,-4.7851,12110,13208,1,13208,1,0.001255,3.4646e-09,0,0.001255,0.00020432,3.6046e+08,1042,0,4.4299e+08,176.17,13207,12110,1,12110,1,8.2955e-05,1.2138e-09,0,0.00060774,-1.5196e-05,3.0126e+07,359.67,0,2.2042e+08,-8.7167,12109,11089,1,11089,1,-0.0010891,-9.0041e-10,0,3.9543e-05,-0.00023451,-4.4299e+08,-308.38,0,1.4481e+07,-153.62,11088,11599,1,11599,1,-0.00052479,3.181e-10,0,0.00030387,-0.00012893,-2.1344e+08,89.421,0,1.1526e+08,-55.55,11598,12621,1,12621,1,0.00069069,2.2104e-09,0,0.00091161,9.8535e-05,2.212e+08,677.85,0,3.0918e+08,33.81,12620,591.1,0,591.1,0,0.00070148,1.1393e-09,0,0.00035495,0.00013129,2.4567e+08,346.5,0,1.1951e+08,68.977,591.1,1
2044,4.2,12111,1,12111,1,8.3612e-05,-9.042e-10,0,0.00061214,-1.53e-05,-87.765,-273.89,0,2.1496e+08,22.716,12110,13208,1,13208,1,0.0012587,8.4325e-10,0,0.0012587,0.00020475,3.608e+08,288.8,0,4.4392e+08,140.78,13207,12110,1,12110,1,8.3612e-05,-7.6527e-10,0,0.00060928,-1.5317e-05,3.0347e+07,-240.84,0,2.2083e+08,18.057,12109,11089,1,11089,1,-0.0010914,-3.1579e-09,0,4.0092e-05,-0.00023518,-4.4392e+08,-966.79,0,1.4675e+07,-123.37,11088,11599,1,11599,1,-0.00052566,-1.742e-09,0,0.00030464,-0.00012933,-2.138e+08,-522.54,0,1.1549e+08,-6.4108,11598,12621,1,12621,1,0.00069289,1.2668e-11,0,0.00091391,9.87e-05,2.2161e+08,4.26,0,3.0964e+08,51.23,12620,591.1,0,591.1,0,0.00070325,1.0162e-09,0,0.0003559,0.00013162,2.4609e+08,308.25,0,1.197e+08,45.958,591.1,1
2044,4.21,12111,1,12111,1,8.4273e-05,3.0982e-09,0,0.00061369,-1.5421e-05,204.93,950.2,0,2.1533e+08,36.658,12110,13208,1,13208,1,0.0012623,1.1246e-08,0,0.0012623,0.00020518,3.6113e+08,3449.6,0,4.4485e+08,390.26,13207,12110,1,12110,1,8.4273e-05,2.7038e-09,0,0.0006108,-1.5438e-05,3.0569e+07,815.41,0,2.2123e+08,19.969,12109,11089,1,11089,1,-0.0010937,-1.3333e-09,0,4.0644e-05,-0.00023585,-4.4485e+08,-456.65,0,1.4869e+07,-242.19,11088,11599,1,11599,1,-0.00052652,7.5486e-10,0,0.0003054,-0.00012974,-2.1415e+08,227.78,0,1.1572e+08,-47.331,11598,12621,1,12621,1,0.00069507,5.0781e-09,0,0.00091619,9.8862e-05,2.22e+08,1569.1,0,3.101e+08,116.84,12620,591.1,0,591.1,0,0.000705,2.7714e-09,0,0.00035683,0.00013195,2.465e+08,858.35,0,1.1989e+08,118.04,591.1,1
2044,4.22,12111,1,12111,1,8.4935e-05,9.2076e-10,0,0.00061527,-1.5542e-05,-204.86,300.52,0,2.157e+08,1.5186,12110,13208,1,13208,1,0.0012659,2.9125e-09,0,0.0012659,0.00020561,3.6146e+08,961.29,0,4.4578e+08,120.58,13207,12110,1,12110,1,8.4935e-05,8.0627e-10,0,0.00061233,-1.556e-05,3.079e+07,242.68,0,2.2163e+08,5.2573,12109,11089,1,11089,1,-0.001096,-8.2182e-10,0,4.1194e-05,-0.00023653,-4.4578e+08,-230.88,0,1.5063e+07,-124.83,11088,11599,1,11599,1,-0.0005274,9.5159e-12,0,0.00030617,-0.00013014,-2.145e+08,2.3291,0,1.1596e+08,-32.247,11598,12621,1,12621,1,0.00069727,1.785e-09,0,0.0009185,9.9027e-05,2.2241e+08,573.59,0,3.1056e+08,40.687,12620,591.1,0,591.1,0,0.00070678,9.8812e-10,0,0.00035778,0.00013228,2.4692e+08,322.25,0,1.2008e+08,52.105,591.1,1
2044,4.23,12111,1,12111,1,8.5607e-05,-7.6734e-10,0,0.00061685,-1.5665e-05,170.26,-223.5,0,2.1607e+08,-9.914,12110,13208,1,13208,1,0.0012695,1.1876e-09,0,0.0012695,0.00020604,3.6179e+08,405.58,0,4.4671e+08,97.474,13207,12110,1,12110,1,8.5608e-05,-7.0813e-10,0,0.00061387,-1.5684e-05,3.1015e+07,-209.67,0,2.2203e+08,-3.8139,12109,11089,1,11089,1,-0.0010983,-2.5273e-09,0,4.1757e-05,-0.0002372,-4.4671e+08,-734.67,0,1.5261e+07,-115.65,11088,11599,1,11599,1,-0.00052826,-1.5344e-09,0,0.00030693,-0.00013055,-2.1486e+08,-455.26,0,1.1619e+08,-35.937,11598,12621,1,12621,1,0.00069948,3.42e-11,0,0.0009208,9.919e-05,2.2281e+08,8.0699,0,3.1101e+08,14.845,12620,591.1,0,591.1,0,0.00070855,9.4067e-10,0,0.00035874,0.00013261,2.4733e+08,281.47,0,1.2027e+08,39.545,591.1,1
2044,4.24,12111,1,12111,1,8.6277e-05,1.0628e-09,0,0.0006184,-1.5787e-05,-340.48,329.63,0,2.1643e+08,60.088,12110,13208,1,13208,1,0.0012731,1.0244e-08,0,0.0012731,0.00020646,3.621e+08,3151,0,4.4764e+08,441.19,13207,12110,1,12110,1,8.6277e-05,1.9876e-10,0,0.00061538,-1.5807e-05,3.1239e+07,52.238,0,2.2242e+08,44.632,12109,11089,1,11089,1,-0.0011006,-5.9049e-09,0,4.232e-05,-0.00023787,-4.4764e+08,-1795.7,0,1.5459e+07,-268.87,11088,11599,1,11599,1,-0.00052911,-1.1939e-09,0,0.00030769,-0.00013096,-2.152e+08,-347.03,0,1.1642e+08,-27.922,11598,12621,1,12621,1,0.00070166,3.3649e-09,0,0.00092308,9.935e-05,2.232e+08,1013.2,0,3.1146e+08,147.61,12620,591.1,0,591.1,0,0.0007103,3.3583e-09,0,0.00035967,0.00013294,2.4773e+08,1038.4,0,1.2045e+08,126.72,591.1,1
2044,4.25,12111,1,12111,1,8.6952e-05,1.0641e-09,0,0.00062,-1.5911e-05,-39.96,339.12,0,2.168e+08,1.38,12110,13208,1,13208,1,0.0012768,5.8145e-09,0,0.0012768,0.0002069,3.6243e+08,1830.5,0,4.4857e+08,202.14,13207,12110,1,12110,1,8.6953e-05,4.5776e-10,0,0.00061693,-1.5932e-05,3.1465e+07,137.76,0,2.2283e+08,-4.7634,12109,11089,1,11089,1,-0.0011029,-1.2246e-09,0,4.2884e-05,-0.00023855,-4.4857e+08,-377.36,0,1.5656e+07,-173.22,11088,11599,1,11599,1,-0.00052998,-7.9964e-11,0,0.00030847,-0.00013137,-2.1556e+08,-23.905,0,1.1666e+08,-37.259,11598,12621,1,12621,1,0.00070389,2.1091e-09,0,0.00092541,9.9515e-05,2.2361e+08,651,0,3.1192e+08,33.695,12620,591.1,0,591.1,0,0.00071209,1.5537e-09,0,0.00036063,0.00013327,2.4815e+08,499.76,0,1.2064e+08,64.746,591.1,1
2044,4.26,12111,1,12111,1,8.7638e-05,-9.9942e-10,0,0.00062158,-1.6036e-05,-15.22,-295.28,0,2.1716e+08,-17.115,12110,13208,1,13208,1,0.0012804,4.8542e-10,0,0.0012804,0.00020732,3.6274e+08,166.25,0,4.495e+08,91.864,13207,12110,1,12110,1,8.7639e-05,-1.0629e-09,0,0.00061847,-1.6058e-05,3.1693e+07,-312.5,0,2.2322e+08,-17.362,12109,11089,1,11089,1,-0.0011051,-2.7411e-09,0,4.346e-05,-0.00023922,-4.495e+08,-842.58,0,1.5858e+07,-128.86,11088,11599,1,11599,1,-0.00053083,-1.6985e-09,0,0.00030924,-0.00013178,-2.159e+08,-492.23,0,1.1689e+08,-41.357,11598,12621,1,12621,1,0.00070611,-2.1835e-10,0,0.00092771,9.9676e-05,2.2401e+08,-71.295,0,3.1237e+08,8.2107,12620,591.1,0,591.1,0,0.00071387,8.4046e-10,0,0.00036159,0.0001336,2.4856e+08,251.86,0,1.2083e+08,34.879,591.1,1
2044,4.27,12111,1,12111,1,8.8324e-05,2.4877e-09,0,0.00062314,-1.6162e-05,189.63,763.13,0,2.1752e+08,38.706,12110,13208,1,13208,1,0.0012841,1.1582e-08,0,0.0012841,0.00020775,3.6305e+08,3552.9,0,4.5043e+08,354.43,13207,12110,1,12110,1,8.8324e-05,1.5375e-09,0,0.00062,-1.6184e-05,3.1921e+07,448.91,0,2.2362e+08,30.527,12109,11089,1,11089,1,-0.0011074,-1.7125e-09,0,4.4038e-05,-0.0002399,-4.5043e+08,-521.92,0,1.606e+07,-282.99,11088,11599,1,11599,1,-0.00053168,-1.173e-11,0,0.00031,-0.00013219,-2.1625e+08,-3.9009,0,1.1712e+08,-32.096,11598,12621,1,12621,1,0.00070833,4.5932e-09,0,0.00093001,9.9836e-05,2.244e+08,1398,0,3.1281e+08,108.76,12620,591.1,0,591.1,0,0.00071563,3.0405e-09,0,0.00036254,0.00013393,2.4897e+08,943.68,0,1.2102e+08,109.18,591.1,1
2044,4.28,12111,1,12111,1,8.9013e-05,2.0577e-09,0,0.00062473,-1.6288e-05,-21.464,646.83,0,2.1789e+08,4.6891,12110,13208,1,13208,1,0.0012878,6.9302e-09,0,0.0012878,0.00020818,3.6335e+08,2178.1,0,4.5136e+08,219.54,13207,12110,1,12110,1,8.9014e-05,1.7219e-09,0,0.00062155,-1.6311e-05,3.2151e+07,523.06,0,2.2401e+08,5.1865,12109,11089,1,11089,1,-0.0011097,-7.8678e-10,0,4.4173e-05,-0.00024058,-4.5136e+08,-187.65,0,1.6262e+07,-201.62,11088,11599,1,11599,1,-0.00053253,4.5478e-10,0,0.00031077,-0.00013261,-2.1659e+08,137.14,0,1.1735e+08,-47.017,11598,12621,1,12621,1,0.00071056,3.4654e-09,0,0.00093232,9.9997e-05,2.248e+08,1079,0,3.1327e+08,65.619,12620,591.1,0,591.1,0,0.00071742,1.8206e-09,0,0.0003635,0.00013426,2.4938e+08,588.33,0,1.212e+08,80.597,591.1,1
2044,4.29,12111,1,12111,1,8.9709e-05,3.3539e-10,0,0.00062632,-1.6415e-05,-226.04,122.37,0,2.1825e+08,1.3904,12110,13208,1,13208,1,0.0012914,1.8795e-09,0,0.0012914,0.00020861,3.6366e+08,643.44,0,4.5228e+08,129.73,13207,12110,1,12110,1,8.971e-05,3.0993e-10,0,0.0006231,-1.6439e-05,3.2382e+07,101.6,0,2.2441e+08,0.42792,12109,11089,1,11089,1,-0.001112,-8.5735e-10,0,4.3807e-05,-0.00024126,-4.5228e+08,-216.45,0,1.6466e+07,-84.128,11088,11599,1,11599,1,-0.00053339,-1.8178e-10,0,0.00031155,-0.00013302,-2.1694e+08,-48.852,0,1.1758e+08,-15.202,11598,12621,1,12621,1,0.00071281,7.6044e-10,0,0.00093464,0.00010016,2.252e+08,255.42,0,3.1371e+08,16.754,12620,591.1,0,591.1,0,0.00071921,6.6861e-10,0,0.00036446,0.0001346,2.4979e+08,213.14,0,1.2139e+08,30.867,591.1,1
2044,4.3,12111,1,12111,1,9.0412e-05,2.4387e-09,0,0.00062791,-1.6544e-05,188.19,757.86,0,2.1861e+08,28.712,12110,13208,1,13208,1,0.0012951,7.8218e-09,0,0.0012951,0.00020904,3.6396e+08,2396.1,0,4.5321e+08,296.87,13207,12110,1,12110,1,9.0411e-05,2.1323e-09,0,0.00062464,-1.6568e-05,3.2615e+07,637.21,0,2.248e+08,19.598,12109,11089,1,11089,1,-0.0011143,-1.0386e-09,0,4.3437e-05,-0.00024195,-4.5321e+08,-352.73,0,1.6673e+07,-202.79,11088,11599,1,11599,1,-0.00053422,5.2284e-10,0,0.00031232,-0.00013344,-2.1728e+08,149.58,0,1.1781e+08,-28.3,11598,12621,1,12621,1,0.00071505,4.2375e-09,0,0.00093696,0.00010032,2.2559e+08,1311.1,0,3.1415e+08,81.538,12620,591.1,0,591.1,0,0.00072098,2.1815e-09,0,0.00036542,0.00013493,2.5019e+08,687.43,0,1.2158e+08,86.456,591.1,1
2044,4.31,12111,1,12111,1,9.1115e-05,-1.9043e-09,0,0.0006295,-1.6672e-05,-84.051,-561.58,0,2.1897e+08,-16.114,12110,13208,1,13208,1,0.0012988,8.2889e-10,0,0.0012988,0.00020946,3.6425e+08,283.89,0,4.5414e+08,175.45,13207,12110,1,12110,1,9.1116e-05,-2.0545e-09,0,0.00062618,-1.6698e-05,3.2848e+07,-614.1,0,2.2519e+08,-8.2868,12109,11089,1,11089,1,-0.0011165,-4.3272e-09,0,4.3062e-05,-0.00024263,-4.5414e+08,-1230.5,0,1.6879e+07,-159.14,11088,11599,1,11599,1,-0.00053507,-3.0962e-09,0,0.00031309,-0.00013386,-2.1762e+08,-908.48,0,1.1804e+08,-46.833,11598,12621,1,12621,1,0.0007173,-6.8745e-10,0,0.00093928,0.00010048,2.2598e+08,-204.7,0,3.1459e+08,14.186,12620,591.1,0,591.1,0,0.00072277,1.4443e-09,0,0.00036639,0.00013526,2.506e+08,420.99,0,1.2176e+08,48.468,591.1,1
2044,4.32,12111,1,12111,1,9.182e-05,1.4126e-09,0,0.00063106,-1.6801e-05,-338.08,430.33,0,2.1932e+08,51.272,12110,13208,1,13208,1,0.0013024,6.9443e-09,0,0.0013024,0.00020988,3.6453e+08,2107.6,0,4.5504e+08,212.43,13207,12110,1,12110,1,9.182e-05,7.1285e-10,0,0.00062771,-1.6827e-05,3.3081e+07,218.64,0,2.2558e+08,56.362,12109,11089,1,11089,1,-0.0011188,-1.8241e-09,0,4.2688e-05,-0.00024331,-4.5504e+08,-534.67,0,1.7087e+07,-147.29,11088,11599,1,11599,1,-0.00053589,-1.2571e-10,0,0.00031385,-0.00013427,-2.1796e+08,-37.376,0,1.1827e+08,4.639,11598,12621,1,12621,1,0.00071953,2.9007e-09,0,0.00094156,0.00010063,2.2637e+08,878.44,0,3.1502e+08,101.97,12620,591.1,0,591.1,0,0.00072453,2.0354e-09,0,0.00036734,0.00013559,2.5099e+08,623.09,0,1.2194e+08,69.781,591.1,1
2044,4.33,12111,1,12111,1,9.2529e-05,-1.1896e-09,0,0.00063266,-1.6931e-05,-62.13,-356.08,0,2.1968e+08,-10.695,12110,13208,1,13208,1,0.0013061,4.6185e-10,0,0.0013061,0.00021031,3.6483e+08,158.18,0,4.5597e+08,101.45,13207,12110,1,12110,1,9.253e-05,-1.327e-09,0,0.00062926,-1.6958e-05,3.3316e+07,-398.09,0,2.2597e+08,-7.3686,12109,11089,1,11089,1,-0.0011211,-2.4895e-09,0,4.2311e-05,-0.00024399,-4.5597e+08,-757.02,0,1.7206e+07,-110.06,11088,11599,1,11599,1,-0.00053673,-1.8709e-09,0,0.00031463,-0.00013469,-2.183e+08,-556.36,0,1.185e+08,-34.772,11598,12621,1,12621,1,0.00072179,-5.1125e-10,0,0.0009439,0.00010079,2.2676e+08,-158.26,0,3.1546e+08,12.983,12620,591.1,0,591.1,0,0.00072633,8.3564e-10,0,0.00036832,0.00013592,2.514e+08,250.29,0,1.2213e+08,39.312,591.1,1
2044,4.34,12111,1,12111,1,9.3247e-05,-7.3727e-10,0,0.00063424,-1.7062e-05,-338.53,-228.97,0,2.2004e+08,34.003,12110,13208,1,13208,1,0.0013098,3.5236e-09,0,0.0013098,0.00021074,3.651e+08,1044.2,0,4.5689e+08,216.97,13207,12110,1,12110,1,9.3246e-05,-6.794e-10,0,0.0006308,-1.709e-05,3.3552e+07,-185.92,0,2.2635e+08,28.972,12109,11089,1,11089,1,-0.0011233,-3.9613e-09,0,4.1925e-05,-0.00024468,-4.5689e+08,-1224.9,0,1.7051e+07,-129.79,11088,11599,1,11599,1,-0.00053756,-2.0232e-09,0,0.0003154,-0.00013511,-2.1864e+08,-601.81,0,1.1873e+08,-17.608,11598,12621,1,12621,1,0.00072405,4.0567e-10,0,0.00094621,0.00010095,2.2715e+08,121.18,0,3.1589e+08,81.398,12620,591.1,0,591.1,0,0.0007281,1.5891e-09,0,0.00036928,0.00013625,2.5179e+08,486.99,0,1.2231e+08,68.435,591.1,1
2044,4.35,12111,1,12111,1,9.3964e-05,-1.0126e-09,0,0.00063582,-1.7193e-05,-284.16,-316.02,0,2.2039e+08,42.848,12110,13208,1,13208,1,0.0013135,1.7233e-09,0,0.0013135,0.00021116,3.6538e+08,537,0,4.5781e+08,353.02,13207,12110,1,12110,1,9.3964e-05,-1.9401e-10,0,0.00063234,-1.7222e-05,3.3789e+07,-58.999,0,2.2674e+08,32.413,12109,11089,1,11089,1,-0.0011256,-5.9123e-09,0,4.1535e-05,-0.00024536,-4.5781e+08,-1833.1,0,1.6893e+07,-214.22,11088,11599,1,11599,1,-0.00053838,-2.5957e-09,0,0.00031617,-0.00013552,-2.1897e+08,-791.57,0,1.1895e+08,-48.478,11598,12621,1,12621,1,0.00072631,6.3265e-10,0,0.00094851,0.0001011,2.2753e+08,185.64,0,3.1632e+08,120.98,12620,591.1,0,591.1,0,0.00072987,2.0043e-09,0,0.00037024,0.00013658,2.5219e+08,619.63,0,1.2249e+08,117.37,591.1,1
2044,4.36,12111,1,12111,1,9.4687e-05,1.0575e-09,0,0.00063742,-1.7326e-05,81.071,310.72,0,2.2074e+08,9.2887,12110,13208,1,13208,1,0.0013172,3.6239e-09,0,0.0013172,0.00021159,3.6566e+08,1095.2,0,4.5873e+08,205.31,13207,12110,1,12110,1,9.4688e-05,9.4228e-10,0,0.00063389,-1.7356e-05,3.4028e+07,269.56,0,2.2713e+08,5.719,12109,11089,1,11089,1,-0.0011278,-4.3707e-10,0,4.1145e-05,-0.00024605,-4.5873e+08,-149.69,0,1.6735e+07,-144.27,11088,11599,1,11599,1,-0.00053921,2.3032e-10,0,0.00031695,-0.00013595,-2.1931e+08,70.987,0,1.1918e+08,-26.86,11598,12621,1,12621,1,0.00072858,1.7727e-09,0,0.00095084,0.00010126,2.2792e+08,495.51,0,3.1675e+08,40.565,12620,591.1,0,591.1,0,0.00073167,9.5822e-10,0,0.00037122,0.00013692,2.5259e+08,288.53,0,1.2268e+08,61.154,591.1,1
2044,4.37,12111,1,12111,1,9.5418e-05,1.0469e-09,0,0.00063901,-1.7459e-05,-116.92,322.91,0,2.2109e+08,20.787,12110,13208,1,13208,1,0.0013209,3.5854e-09,0,0.0013209,0.00021201,3.6592e+08,1091.5,0,4.5965e+08,196.02,13207,12110,1,12110,1,9.5418e-05,8.363e-10,0,0.00063544,-1.749e-05,3.4268e+07,243.57,0,2.2751e+08,18.878,12109,11089,1,11089,1,-0.0011301,-3.5415e-10,0,4.0747e-05,-0.00024674,-4.5965e+08,-101.33,0,1.6575e+07,-106.24,11088,11599,1,11599,1,-0.00054002,3.0097e-10,0,0.00031772,-0.00013637,-2.1964e+08,90.685,0,1.1941e+08,-23.647,11598,12621,1,12621,1,0.00073086,1.7354e-09,0,0.00095316,0.00010141,2.2831e+08,543.71,0,3.1718e+08,63.463,12620,591.1,0,591.1,0,0.00073346,8.971e-10,0,0.00037219,0.00013725,2.5298e+08,283.09,0,1.2286e+08,55.102,591.1,1
2044,4.38,12111,1,12111,1,9.6152e-05,-1.4126e-09,0,0.0006406,-1.7594e-05,106.01,-421.91,0,2.2144e+08,19.364,12110,13208,1,13208,1,0.0013246,2.182e-09,0,0.0013246,0.00021243,3.6619e+08,682.51,0,4.6056e+08,189.8,13207,12110,1,12110,1,9.6152e-05,-1.0406e-09,0,0.00063698,-1.7625e-05,3.4509e+07,-318.56,0,2.2789e+08,17.748,12109,11089,1,11089,1,-0.0011323,-5.6089e-09,0,4.0343e-05,-0.00024743,-4.6056e+08,-1700.9,0,1.6411e+07,-124.05,11088,11599,1,11599,1,-0.00054083,-3.0341e-09,0,0.00031849,-0.00013679,-2.1997e+08,-907.35,0,1.1963e+08,-30.363,11598,12621,1,12621,1,0.00073314,2.4163e-10,0,0.00095548,0.00010156,2.2869e+08,70.902,0,3.176e+08,61.56,12620,591.1,0,591.1,0,0.00073523,1.9313e-09,0,0.00037316,0.00013758,2.5337e+08,585.65,0,1.2304e+08,63.59,591.1,1
2044,4.39,12111,1,12111,1,9.6887e-05,3.1279e-09,0,0.0006422,-1.7728e-05,-25.211,941.56,0,2.2179e+08,11.214,12110,13208,1,13208,1,0.0013284,8.4271e-09,0,0.0013284,0.00021286,3.6646e+08,2498.4,0,4.6149e+08,325.77,13207,12110,1,12110,1,9.6887e-05,2.9861e-09,0,0.00063854,-1.7761e-05,3.475e+07,891.33,0,2.2828e+08,-0.0038056,12109,11089,1,11089,1,-0.0011346,-1.2716e-09,0,3.9939e-05,-0.00024813,-4.6149e+08,-435.5,0,1.6248e+07,-304.71,11088,11599,1,11599,1,-0.00054165,8.6319e-10,0,0.00031927,-0.00013721,-2.203e+08,263.13,0,1.1986e+08,-46.719,11598,12621,1,12621,1,0.00073543,5.2016e-09,0,0.00095781,0.00010172,2.2907e+08,1586.6,0,3.1802e+08,61.217,12620,591.1,0,591.1,0,0.00073703,2.5165e-09,0,0.00037414,0.00013792,2.5377e+08,766.68,0,1.2322e+08,102.27,591.1,1
2044,4.4,12111,1,12111,1,9.7628e-05,-5.6994e-10,0,0.00064378,-1.7864e-05,-185.18,-154.01,0,2.2213e+08,31.652,12110,13208,1,13208,1,0.0013321,4.8243e-09,0,0.0013321,0.00021327,3.6671e+08,1509.9,0,4.6238e+08,240.57,13207,12110,1,12110,1,9.7629e-05,-3.7889e-10,0,0.00064008,-1.7897e-05,3.4993e+07,-108.18,0,2.2865e+08,25.713,12109,11089,1,11089,1,-0.0011368,-4.5105e-09,0,3.9528e-05,-0.00024881,-4.6238e+08,-1353.9,0,1.6083e+07,-164.66,11088,11599,1,11599,1,-0.00054245,-2.2337e-09,0,0.00032004,-0.00013763,-2.2062e+08,-645.42,0,1.2008e+08,-12.352,11598,12621,1,12621,1,0.00073771,7.5101e-10,0,0.00096012,0.00010187,2.2945e+08,239.16,0,3.1843e+08,73.36,12620,591.1,0,591.1,0,0.00073881,2.0984e-09,0,0.00037511,0.00013825,2.5415e+08,637.81,0,1.234e+08,73.051,591.1,1
2044,4.41,12111,1,12111,1,9.8369e-05,1.2681e-09,0,0.00064536,-1.7999e-05,5.2535,390.15,0,2.2247e+08,11.037,12110,13208,1,13208,1,0.0013358,1.5079e-08,0,0.0013358,0.00021369,3.6696e+08,4686.8,0,4.633e+08,510.39,13207,12110,1,12110,1,9.8369e-05,1.3805e-10,0,0.00064161,-1.8034e-05,3.5235e+07,38.49,0,2.2903e+08,20.77,12109,11089,1,11089,1,-0.0011391,-1.0317e-08,0,3.9117e-05,-0.0002495,-4.633e+08,-3112.6,0,1.5917e+07,-558.03,11088,11599,1,11599,1,-0.00054324,-2.1218e-09,0,0.00032081,-0.00013806,-2.2095e+08,-644.99,0,1.203e+08,-90.45,11598,12621,1,12621,1,0.00073998,5.1284e-09,0,0.00096242,0.00010202,2.2982e+08,1544.9,0,3.1884e+08,143.87,12620,591.1,0,591.1,0,0.00074057,5.4193e-09,0,0.00037608,0.00013858,2.5454e+08,1664.6,0,1.2357e+08,170.21,591.1,1
2044,4.42,12111,1,12111,1,9.9115e-05,1.307e-09,0,0.00064696,-1.8136e-05,53.009,413.63,0,2.2282e+08,1.7801,12110,13208,1,13208,1,0.0013396,9.1146e-09,0,0.0013396,0.00021412,3.6721e+08,2830.6,0,4.6421e+08,347.58,13207,12110,1,12110,1,9.9117e-05,4.1243e-10,0,0.00064317,-1.8172e-05,3.548e+07,115.31,0,2.2941e+08,-9.0316,12109,11089,1,11089,1,-0.0011413,-3.567e-09,0,3.8702e-05,-0.0002502,-4.6421e+08,-1113.2,0,1.575e+07,-296.08,11088,11599,1,11599,1,-0.00054405,-5.34e-10,0,0.00032158,-0.00013848,-2.2128e+08,-155.01,0,1.2053e+08,-83.292,11598,12621,1,12621,1,0.00074229,2.9955e-09,0,0.00096475,0.00010217,2.3021e+08,925.75,0,3.1927e+08,70.66,12620,591.1,0,591.1,0,0.00074237,2.6488e-09,0,0.00037706,0.00013891,2.5493e+08,845.02,0,1.2375e+08,129.39,591.1,1
2044,4.43,12111,1,12111,1,9.987e-05,3.6867e-09,0,0.00064856,-1.8274e-05,-94.247,1140.4,0,2.2317e+08,6.5275,12110,13208,1,13208,1,0.0013433,1.2205e-08,0,0.0013433,0.00021454,3.6746e+08,3736.7,0,4.6513e+08,447.82,13207,12110,1,12110,1,9.9872e-05,3.2391e-09,0,0.00064473,-1.8311e-05,3.5727e+07,930.47,0,2.2978e+08,0.64053,12109,11089,1,11089,1,-0.0011436,-2.2889e-09,0,3.8279e-05,-0.0002509,-4.6513e+08,-723.28,0,1.5579e+07,-366.63,11088,11599,1,11599,1,-0.00054485,3.2749e-10,0,0.00032236,-0.00013891,-2.216e+08,91.082,0,1.2075e+08,-93.479,11598,12621,1,12621,1,0.0007446,6.7933e-09,0,0.00096708,0.00010232,2.3058e+08,2102.4,0,3.1968e+08,96.921,12620,591.1,0,591.1,0,0.00074416,3.7151e-09,0,0.00037805,0.00013925,2.5532e+08,1175.6,0,1.2393e+08,145.19,591.1,1
2044,4.44,12111,1,12111,1,0.00010063,8.6604e-10,0,0.00065017,-1.8413e-05,176.86,302.74,0,2.2351e+08,-29.19,12110,13208,1,13208,1,0.0013471,4.9431e-09,0,0.0013471,0.00021496,3.677e+08,1691.7,0,4.6604e+08,246.79,13207,12110,1,12110,1,0.00010063,3.4875e-10,0,0.0006463,-1.8451e-05,3.5975e+07,104.67,0,2.3016e+08,-26.504,12109,11089,1,11089,1,-0.0011458,-1.8448e-09,0,3.7848e-05,-0.0002516,-4.6604e+08,-541.73,0,1.5406e+07,-240,11088,11599,1,11599,1,-0.00054565,-5.5582e-10,0,0.00032314,-0.00013934,-2.2193e+08,-151.93,0,1.2098e+08,-89.162,11598,12621,1,12621,1,0.00074692,2.2826e-09,0,0.00096942,0.00010248,2.3096e+08,730.75,0,3.2009e+08,29.289,12620,591.1,0,591.1,0,0.00074597,1.7585e-09,0,0.00037904,0.00013958,2.5571e+08,561.5,0,1.2411e+08,88.304,591.1,1
2044,4.45,12111,1,12111,1,0.0001014,1.5058e-09,0,0.00065178,-1.8554e-05,-28.269,486.1,0,2.2385e+08,-2.3538,12110,13208,1,13208,1,0.0013509,5.8958e-09,0,0.0013509,0.00021538,3.6793e+08,1829.4,0,4.6695e+08,270.25,13207,12110,1,12110,1,0.0001014,1.1358e-09,0,0.00064785,-1.8592e-05,3.6225e+07,334.13,0,2.3054e+08,-11.493,12109,11089,1,11089,1,-0.001148,-1.3661e-09,0,3.7418e-05,-0.00025229,-4.6695e+08,-400.51,0,1.5233e+07,-174.52,11088,11599,1,11599,1,-0.00054644,-1.2374e-10,0,0.00032392,-0.00013977,-2.2225e+08,-35.736,0,1.212e+08,-64.608,11598,12621,1,12621,1,0.00074925,2.9773e-09,0,0.00097176,0.00010263,2.3134e+08,953.99,0,3.205e+08,56.643,12620,591.1,0,591.1,0,0.00074777,1.8492e-09,0,0.00038003,0.00013992,2.5609e+08,591.66,0,1.2429e+08,86.645,591.1,1
2044,4.46,12111,1,12111,1,0.00010217,1.2609e-09,0,0.0006534,-1.8695e-05,45.701,409.21,0,2.242e+08,-18.487,12110,13208,1,13208,1,0.0013547,3.3594e-09,0,0.0013547,0.0002158,3.6817e+08,1149.7,0,4.6786e+08,202.54,13207,12110,1,12110,1,0.00010217,1.4275e-09,0,0.00064942,-1.8734e-05,3.6476e+07,434.52,0,2.3092e+08,-21.239,12109,11089,1,11089,1,-0.0011503,-9.6372e-10,0,3.6982e-05,-0.000253,-4.6786e+08,-226.75,0,1.5058e+07,-140.57,11088,11599,1,11599,1,-0.00054724,2.5917e-10,0,0.0003247,-0.0001402,-2.2257e+08,75.357,0,1.2143e+08,-61.867,11598,12621,1,12621,1,0.00075159,2.2501e-09,0,0.00097412,0.00010278,2.3172e+08,729.37,0,3.2091e+08,21.302,12620,591.1,0,591.1,0,0.00074958,1.1383e-09,0,0.00038103,0.00014026,2.5648e+08,368.06,0,1.2447e+08,62.714,591.1,1
2044,4.47,12111,1,12111,1,0.00010295,1.3869e-09,0,0.00065497,-1.8836e-05,63.327,446.67,0,2.2452e+08,62.633,12110,13208,1,13208,1,0.0013584,1.295e-08,0,0.0013584,0.00021622,3.6839e+08,3926.7,0,4.6875e+08,567.77,13207,12110,1,12110,1,0.00010295,1.3612e-10,0,0.00065095,-1.8877e-05,3.6727e+07,41.169,0,2.3128e+08,46.456,12109,11089,1,11089,1,-0.0011525,-5.947e-09,0,3.6539e-05,-0.00025369,-4.6875e+08,-1715.5,0,1.488e+07,-422.27,11088,11599,1,11599,1,-0.000548,-1.3385e-09,0,0.00032547,-0.00014063,-2.2288e+08,-370.63,0,1.2164e+08,-44.43,11598,12621,1,12621,1,0.0007539,3.8192e-09,0,0.00097642,0.00010292,2.3208e+08,1154,0,3.213e+08,132.91,12620,591.1,0,591.1,0,0.00075135,3.9541e-09,0,0.000382,0.00014058,2.5685e+08,1205.4,0,1.2464e+08,151.37,591.1,1
2044,4.48,12111,1,12111,1,0.00010372,1.4472e-09,0,0.00065661,-1.8978e-05,-53.858,466.17,0,2.2487e+08,-7.4294,12110,13208,1,13208,1,0.0013622,4.9601e-09,0,0.0013622,0.00021664,3.6863e+08,1664.8,0,4.6968e+08,264.25,13207,12110,1,12110,1,0.00010372,1.0932e-09,0,0.00065254,-1.902e-05,3.6979e+07,329.86,0,2.3166e+08,-2.541,12109,11089,1,11089,1,-0.0011548,-1.1116e-09,0,3.6101e-05,-0.0002544,-4.6968e+08,-260.13,0,1.4704e+07,-208.53,11088,11599,1,11599,1,-0.00054881,2.2466e-10,0,0.00032626,-0.00014107,-2.2321e+08,64.772,0,1.2187e+08,-55.601,11598,12621,1,12621,1,0.00075625,2.5989e-09,0,0.00097879,0.00010307,2.3246e+08,819.02,0,3.2171e+08,44.228,12620,591.1,0,591.1,0,0.00075318,1.5451e-09,0,0.00038301,0.00014092,2.5724e+08,500.21,0,1.2482e+08,77.539,591.1,1
2044,4.49,12111,1,12111,1,0.00010451,1.6254e-09,0,0.00065822,-1.9123e-05,10.188,518.16,0,2.2521e+08,5.0532,12110,13208,1,13208,1,0.001366,3.977e-09,0,0.001366,0.00021706,3.6884e+08,1360.1,0,4.7058e+08,188.97,13207,12110,1,12110,1,0.00010451,1.5321e-09,0,0.0006541,-1.9165e-05,3.7235e+07,473.75,0,2.3203e+08,1.2895,12109,11089,1,11089,1,-0.001157,-5.5392e-10,0,3.5647e-05,-0.0002551,-4.7058e+08,-126.79,0,1.4522e+07,-177.79,11088,11599,1,11599,1,-0.00054958,5.8493e-10,0,0.00032704,-0.0001415,-2.2352e+08,162.31,0,1.2209e+08,-38.075,11598,12621,1,12621,1,0.00075861,2.6222e-09,0,0.00098114,0.00010322,2.3283e+08,847.93,0,3.2211e+08,50.472,12620,591.1,0,591.1,0,0.00075498,1.2438e-09,0,0.00038401,0.00014126,2.5762e+08,411.18,0,1.25e+08,67.328,591.1,1
2044,4.5,12111,1,12111,1,0.0001053,-5.1936e-10,0,0.00065983,-1.9267e-05,52.301,-133.37,0,2.2554e+08,9.7034,12110,13208,1,13208,1,0.0013698,6.2885e-10,0,0.0013698,0.00021748,3.6906e+08,215.32,0,4.7148e+08,231.85,13207,12110,1,12110,1,0.0001053,-5.0855e-10,0,0.00065566,-1.9311e-05,3.749e+07,-138.61,0,2.324e+08,-7.5886,12109,11089,1,11089,1,-0.0011592,-1.9472e-09,0,3.5193e-05,-0.00025581,-4.7148e+08,-506.61,0,1.434e+07,-104.12,11088,11599,1,11599,1,-0.00055036,-1.1109e-09,0,0.00032783,-0.00014194,-2.2384e+08,-297.5,0,1.2231e+08,-30.269,11598,12621,1,12621,1,0.00076096,1.5284e-10,0,0.00098348,0.00010337,2.332e+08,52.275,0,3.225e+08,36.641,12620,591.1,0,591.1,0,0.00075679,7.1121e-10,0,0.00038501,0.0001416,2.58e+08,198.21,0,1.2517e+08,60.861,591.1,1
2044,4.51,12111,1,12111,1,0.00010609,2.1631e-09,0,0.00066143,-1.9412e-05,240.04,660.45,0,2.2587e+08,53.861,12110,13208,1,13208,1,0.0013736,7.9306e-09,0,0.0013736,0.00021789,3.6927e+08,2378.8,0,4.7238e+08,329.21,13207,12110,1,12110,1,0.00010609,1.7973e-09,0,0.0006572,-1.9456e-05,3.7746e+07,529.1,0,2.3276e+08,48.182,12109,11089,1,11089,1,-0.0011614,-1.7355e-09,0,3.4736e-05,-0.00025651,-4.7238e+08,-464,0,1.4157e+07,-185.9,11088,11599,1,11599,1,-0.00055111,7.3056e-11,0,0.0003286,-0.00014237,-2.2415e+08,23.933,0,1.2253e+08,-13.285,11598,12621,1,12621,1,0.0007633,4.0394e-09,0,0.00098581,0.00010351,2.3356e+08,1253.7,0,3.2289e+08,116.42,12620,591.1,0,591.1,0,0.00075857,2.3324e-09,0,0.000386,0.00014193,2.5836e+08,706.06,0,1.2534e+08,85.058,591.1,1
2044,4.52,12111,1,12111,1,0.00010689,1.0333e-09,0,0.00066306,-1.9557e-05,-215.36,333.96,0,2.2621e+08,14.54,12110,13208,1,13208,1,0.0013774,3.0868e-09,0,0.0013774,0.00021831,3.6948e+08,1056.1,0,4.7329e+08,216.71,13207,12110,1,12110,1,0.00010689,9.3032e-10,0,0.00065879,-1.9603e-05,3.8003e+07,298.28,0,2.3313e+08,9.235,12109,11089,1,11089,1,-0.0011636,-5.7944e-10,0,3.4278e-05,-0.00025722,-4.7329e+08,-143.84,0,1.3974e+07,-94.667,11088,11599,1,11599,1,-0.0005519,1.8015e-10,0,0.00032939,-0.00014281,-2.2447e+08,46.938,0,1.2275e+08,-20.771,11598,12621,1,12621,1,0.00076567,1.7964e-09,0,0.00098817,0.00010366,2.3393e+08,569.9,0,3.2329e+08,39.374,12620,591.1,0,591.1,0,0.0007604,9.6583e-10,0,0.00038701,0.00014227,2.5875e+08,314.23,0,1.2552e+08,53.713,591.1,1
2044,4.53,12111,1,12111,1,0.00010769,3.2308e-09,0,0.00066466,-1.9704e-05,-21.194,992.72,0,2.2653e+08,65.138,12110,13208,1,13208,1,0.0013813,8.1005e-09,0,0.0013813,0.00021873,3.6969e+08,2448,0,4.7419e+08,402.45,13207,12110,1,12110,1,0.00010769,3.2427e-09,0,0.00066034,-1.9751e-05,3.8262e+07,940.61,0,2.3349e+08,48.185,12109,11089,1,11089,1,-0.0011659,-1.2623e-09,0,3.3807e-05,-0.00025793,-4.7419e+08,-391.39,0,1.3786e+07,-153.93,11088,11599,1,11599,1,-0.00055265,8.2292e-10,0,0.00033017,-0.00014325,-2.2477e+08,230.55,0,1.2296e+08,-29.127,11598,12621,1,12621,1,0.00076803,5.6203e-09,0,0.0009905,0.0001038,2.3429e+08,1730,0,3.2367e+08,151.52,12620,591.1,0,591.1,0,0.00076219,2.647e-09,0,0.00038801,0.0001426,2.5912e+08,827.05,0,1.2569e+08,111.06,591.1,1
2044,4.54,12111,1,12111,1,0.0001085,-1.2607e-09,0,0.00066628,-1.9852e-05,-43.663,-341.41,0,2.2687e+08,13.56,12110,13208,1,13208,1,0.001385,9.4886e-10,0,0.001385,0.00021914,3.6989e+08,324.97,0,4.7509e+08,247.39,13207,12110,1,12110,1,0.0001085,-1.0955e-09,0,0.00066191,-1.9899e-05,3.8522e+07,-322.72,0,2.3386e+08,5.5049,12109,11089,1,11089,1,-0.0011681,-3.8802e-09,0,3.3335e-05,-0.00025863,-4.7509e+08,-1086.2,0,1.3598e+07,-75.57,11088,11599,1,11599,1,-0.00055341,-2.5004e-09,0,0.00033095,-0.00014369,-2.2508e+08,-683.46,0,1.2318e+08,-25.073,11598,12621,1,12621,1,0.00077041,1.1332e-10,0,0.00099286,0.00010394,2.3466e+08,37.986,0,3.2406e+08,38.714,12620,591.1,0,591.1,0,0.00076401,1.4153e-09,0,0.00038902,0.00014294,2.5949e+08,394.48,0,1.2587e+08,55.383,591.1,1
2044,4.55,12111,1,12111,1,0.00010931,3.5681e-11,0,0.00066791,-2.0001e-05,101.59,19.042,0,2.2719e+08,22.253,12110,13208,1,13208,1,0.0013889,2.2538e-09,0,0.0013889,0.00021956,3.7008e+08,662.17,0,4.7599e+08,223.34,13207,12110,1,12110,1,0.00010931,1.2786e-11,0,0.00066348,-2.0049e-05,3.8783e+07,3.3754,0,2.3422e+08,13.343,12109,11089,1,11089,1,-0.0011703,-1.1328e-09,0,3.2862e-05,-0.00025935,-4.7599e+08,-338.47,0,1.3409e+07,-78.174,11088,11599,1,11599,1,-0.00055417,-4.9602e-10,0,0.00033174,-0.00014413,-2.2539e+08,-141.5,0,1.234e+08,-11.192,11598,12621,1,12621,1,0.0007728,4.279e-10,0,0.00099522,0.00010409,2.3502e+08,139.03,0,3.2445e+08,35.684,12620,591.1,0,591.1,0,0.00076582,6.9812e-10,0,0.00039003,0.00014328,2.5986e+08,209.38,0,1.2604e+08,54.199,591.1,1
2044,4.56,12111,1,12111,1,0.00011013,-1.2233e-09,0,0.00066952,-2.0151e-05,-72.926,-363.31,0,2.2752e+08,36.825,12110,13208,1,13208,1,0.0013927,2.7651e-09,0,0.0013927,0.00021997,3.7027e+08,803.16,0,4.7689e+08,256.48,13207,12110,1,12110,1,0.00011013,-1.0231e-09,0,0.00066505,-2.02e-05,3.9046e+07,-316.11,0,2.3458e+08,34.025,12109,11089,1,11089,1,-0.0011725,-4.8342e-09,0,3.238e-05,-0.00026006,-4.7689e+08,-1453.9,0,1.3217e+07,-121.19,11088,11599,1,11599,1,-0.00055492,-2.724e-09,0,0.00033253,-0.00014457,-2.257e+08,-809.98,0,1.2362e+08,-13.384,11598,12621,1,12621,1,0.00077518,2.2411e-10,0,0.00099757,0.00010423,2.3538e+08,68.135,0,3.2483e+08,80.44,12620,591.1,0,591.1,0,0.00076763,1.7623e-09,0,0.00039104,0.00014362,2.6023e+08,527.77,0,1.2621e+08,67.685,591.1,1
2044,4.57,12111,1,12111,1,0.00011095,1.0085e-09,0,0.00067115,-2.0301e-05,-24.815,291.92,0,2.2785e+08,6.122,12110,13208,1,13208,1,0.0013966,3.0698e-09,0,0.0013966,0.00022039,3.7046e+08,852.56,0,4.7779e+08,329.34,13207,12110,1,12110,1,0.00011095,8.606e-10,0,0.00066663,-2.0352e-05,3.931e+07,262.07,0,2.3494e+08,-6.7374,12109,11089,1,11089,1,-0.0011747,-8.8914e-10,0,3.1895e-05,-0.00026077,-4.7779e+08,-304.42,0,1.3024e+07,-127.05,11088,11599,1,11599,1,-0.00055568,1.6424e-10,0,0.00033332,-0.00014501,-2.26e+08,47.169,0,1.2383e+08,-49.252,11598,12621,1,12621,1,0.00077758,1.7562e-09,0,0.00099994,0.00010437,2.3574e+08,527.01,0,3.2521e+08,37.401,12620,591.1,0,591.1,0,0.00076945,9.8175e-10,0,0.00039206,0.00014396,2.606e+08,282.65,0,1.2639e+08,84.879,591.1,1
2044,4.58,12111,1,12111,1,0.00011178,1.2379e-09,0,0.00067277,-2.0453e-05,-197.38,374.34,0,2.2817e+08,54.969,12110,13208,1,13208,1,0.0014005,3.331e-09,0,0.0014005,0.0002208,3.7064e+08,1009.6,0,4.7868e+08,325.36,13207,12110,1,12110,1,0.00011178,1.1746e-09,0,0.0006682,-2.0504e-05,3.9575e+07,348.07,0,2.353e+08,34.485,12109,11089,1,11089,1,-0.0011769,-9.8907e-10,0,3.1404e-05,-0.00026149,-4.7868e+08,-245.13,0,1.2829e+07,-117.05,11088,11599,1,11599,1,-0.00055642,3.9819e-10,0,0.0003341,-0.00014546,-2.263e+08,114.89,0,1.2405e+08,0.40469,11598,12621,1,12621,1,0.00077998,2.1008e-09,0,0.0010023,0.00010451,2.361e+08,639.81,0,3.2559e+08,93.279,12620,591.1,0,591.1,0,0.00077126,1.0487e-09,0,0.00039307,0.00014429,2.6097e+08,320.82,0,1.2656e+08,77.911,591.1,1
2044,4.59,12111,1,12111,1,0.00011261,-1.2062e-09,0,0.00067438,-2.0604e-05,-215.21,-348.1,0,2.2849e+08,72.576,12110,13208,1,13208,1,0.0014043,3.9294e-09,0,0.0014043,0.00022121,3.7082e+08,1110.2,0,4.7957e+08,289.26,13207,12110,1,12110,1,0.00011261,-7.92e-10,0,0.00066975,-2.0657e-05,3.984e+07,-256.35,0,2.3565e+08,64.055,12109,11089,1,11089,1,-0.0011791,-5.4193e-09,0,3.0908e-05,-0.0002622,-4.7957e+08,-1589.2,0,1.2633e+07,-73.574,11088,11599,1,11599,1,-0.00055715,-2.9463e-09,0,0.00033488,-0.0001459,-2.266e+08,-867.26,0,1.2426e+08,11.273,11598,12621,1,12621,1,0.00078237,3.3695e-10,0,0.0010046,0.00010465,2.3645e+08,100.98,0,3.2596e+08,122.68,12620,591.1,0,591.1,0,0.00077306,2.1386e-09,0,0.00039408,0.00014463,2.6133e+08,619.5,0,1.2672e+08,77.348,591.1,1
2044,4.6,12111,1,12111,1,0.00011344,4.4545e-09,0,0.000676,-2.0757e-05,-122.6,1326.1,0,2.2881e+08,77.424,12110,13208,1,13208,1,0.0014082,1.2679e-08,0,0.0014082,0.00022163,3.71e+08,3656.5,0,4.8048e+08,505.39,13207,12110,1,12110,1,0.00011344,4.123e-09,0,0.00067132,-2.081e-05,4.0105e+07,1216,0,2.3601e+08,44.96,12109,11089,1,11089,1,-0.0011813,-1.8509e-09,0,3.0413e-05,-0.00026292,-4.8048e+08,-633.91,0,1.2436e+07,-396.57,11088,11599,1,11599,1,-0.00055789,8.4547e-10,0,0.00033567,-0.00014634,-2.269e+08,261.31,0,1.2448e+08,-36.576,11598,12621,1,12621,1,0.00078477,7.696e-09,0,0.001007,0.00010479,2.368e+08,2304.2,0,3.2633e+08,171.53,12620,591.1,0,591.1,0,0.00077487,3.9733e-09,0,0.0003951,0.00014496,2.6169e+08,1193.1,0,1.2689e+08,156.57,591.1,1
2044,4.61,12111,1,12111,1,0.00011428,3.3173e-09,0,0.00067764,-2.0911e-05,218.7,1025.3,0,2.2913e+08,31.34,12110,13208,1,13208,1,0.0014121,7.5176e-09,0,0.0014121,0.00022205,3.7117e+08,2366.1,0,4.8137e+08,403.38,13207,12110,1,12110,1,0.00011428,3.4599e-09,0,0.00067291,-2.0965e-05,4.0374e+07,1020.8,0,2.3636e+08,7.7785,12109,11089,1,11089,1,-0.0011835,-1.2719e-09,0,2.9907e-05,-0.00026365,-4.8137e+08,-402.64,0,1.2236e+07,-204.5,11088,11599,1,11599,1,-0.00055862,1.4154e-09,0,0.00033645,-0.00014679,-2.272e+08,367.21,0,1.2469e+08,-56.02,11598,12621,1,12621,1,0.00078719,5.4647e-09,0,0.0010094,0.00010493,2.3716e+08,1700.3,0,3.2671e+08,131.46,12620,591.1,0,591.1,0,0.0007767,2.431e-09,0,0.00039612,0.0001453,2.6206e+08,774.57,0,1.2707e+08,127.93,591.1,1
2044,4.62,12111,1,12111,1,0.00011513,5.0892e-10,0,0.00067927,-2.1066e-05,202.41,199.09,0,2.2945e+08,20.191,12110,13208,1,13208,1,0.001416,2.4935e-09,0,0.001416,0.00022246,3.7133e+08,853.53,0,4.8226e+08,404.81,13207,12110,1,12110,1,0.00011513,6.8262e-10,0,0.0006745,-2.1121e-05,4.0645e+07,215.88,0,2.3672e+08,-13.741,12109,11089,1,11089,1,-0.0011857,-1.6526e-09,0,2.9394e-05,-0.00026436,-4.8226e+08,-401.27,0,1.2034e+07,-118.82,11088,11599,1,11599,1,-0.00055936,-5.8536e-10,0,0.00033724,-0.00014724,-2.275e+08,-142.17,0,1.2491e+08,-44.509,11598,12621,1,12621,1,0.00078962,1.5967e-09,0,0.0010117,0.00010507,2.3751e+08,533.13,0,3.2707e+08,44.351,12620,591.1,0,591.1,0,0.00077853,1.2346e-09,0,0.00039715,0.00014564,2.6242e+08,375.16,0,1.2724e+08,98.246,591.1,1
2044,4.63,12111,1,12111,1,0.00011599,-2.2987e-09,0,0.0006809,-2.1222e-05,-47.979,-655.01,0,2.2977e+08,53.582,12110,13208,1,13208,1,0.0014198,1.6319e-09,0,0.0014198,0.00022287,3.715e+08,558.9,0,4.8315e+08,409.05,13207,12110,1,12110,1,0.00011598,-1.9599e-09,0,0.00067606,-2.1279e-05,4.0917e+07,-557.72,0,2.3707e+08,39.946,12109,11089,1,11089,1,-0.0011879,-6.9e-09,0,2.8883e-05,-0.00026508,-4.8315e+08,-1988.1,0,1.1832e+07,-186.05,11088,11599,1,11599,1,-0.00056008,-4.1477e-09,0,0.00033804,-0.00014769,-2.2779e+08,-1198.3,0,1.2512e+08,-17.123,11598,12621,1,12621,1,0.00079205,-4.553e-10,0,0.0010141,0.00010521,2.3786e+08,-134.71,0,3.2744e+08,99.89,12620,591.1,0,591.1,0,0.00078035,2.2712e-09,0,0.00039818,0.00014598,2.6278e+08,647.02,0,1.274e+08,104.01,591.1,1
2044,4.64,12111,1,12111,1,0.00011684,2.2532e-09,0,0.00068254,-2.1379e-05,170.6,665.09,0,2.3009e+08,35.84,12110,13208,1,13208,1,0.0014238,5.2023e-09,0,0.0014238,0.00022328,3.7165e+08,1536.1,0,4.8404e+08,455.89,13207,12110,1,12110,1,0.00011684,2.3454e-09,0,0.00067765,-2.1436e-05,4.1189e+07,688.08,0,2.3742e+08,7.9773,12109,11089,1,11089,1,-0.0011901,-1.0763e-09,0,2.8366e-05,-0.00026581,-4.8404e+08,-368.59,0,1.1629e+07,-136.6,11088,11599,1,11599,1,-0.0005608,1.064e-09,0,0.00033882,-0.00014814,-2.2809e+08,306.84,0,1.2533e+08,-36.428,11598,12621,1,12621,1,0.00079449,3.4273e-09,0,0.0010165,0.00010534,2.3821e+08,1038,0,3.278e+08,79.441,12620,591.1,0,591.1,0,0.00078217,1.5557e-09,0,0.00039921,0.00014632,2.6314e+08,460.97,0,1.2757e+08,102.75,591.1,1
2044,4.65,12111,1,12111,1,0.00011771,-8.3167e-10,0,0.00068417,-2.1537e-05,150.73,-231.24,0,2.304e+08,24.242,12110,13208,1,13208,1,0.0014276,1.3829e-09,0,0.0014276,0.00022369,3.718e+08,473.53,0,4.8492e+08,326.93,13207,12110,1,12110,1,0.0001177,-6.3302e-10,0,0.00067923,-2.1596e-05,4.1463e+07,-182.78,0,2.3777e+08,16.093,12109,11089,1,11089,1,-0.0011922,-2.9991e-09,0,2.7841e-05,-0.00026653,-4.8492e+08,-856.89,0,1.1423e+07,-118.95,11088,11599,1,11599,1,-0.00056152,-1.6958e-09,0,0.00033961,-0.00014859,-2.2838e+08,-482.83,0,1.2554e+08,-22.072,11598,12621,1,12621,1,0.00079693,8.9047e-11,0,0.0010188,0.00010548,2.3856e+08,25.925,0,3.2816e+08,54.005,12620,591.1,0,591.1,0,0.000784,1.0642e-09,0,0.00040024,0.00014666,2.6349e+08,303.45,0,1.2774e+08,69.047,591.1,1
2044,4.66,12111,1,12111,1,0.00011857,1.0511e-09,0,0.00068581,-2.1696e-05,45.156,315.62,0,2.3071e+08,89.266,12110,13208,1,13208,1,0.0014316,6.0507e-09,0,0.0014316,0.0002241,3.7195e+08,1788,0,4.8582e+08,380.7,13207,12110,1,12110,1,0.00011857,4.9832e-10,0,0.00068081,-2.1755e-05,4.1738e+07,153.99,0,2.3812e+08,67.762,12109,11089,1,11089,1,-0.0011944,-2.4153e-09,0,2.7314e-05,-0.00026726,-4.8582e+08,-619.05,0,1.1216e+07,-104.04,11088,11599,1,11599,1,-0.00056224,-1.2215e-10,0,0.00034041,-0.00014905,-2.2867e+08,-34.155,0,1.2575e+08,11.204,11598,12621,1,12621,1,0.00079939,2.1111e-09,0,0.0010212,0.00010562,2.3891e+08,622.98,0,3.2852e+08,167.72,12620,591.1,0,591.1,0,0.00078582,1.724e-09,0,0.00040128,0.000147,2.6385e+08,505.41,0,1.2791e+08,105.5,591.1,1
2044,4.67,12111,1,12111,1,0.00011945,1.8498e-09,0,0.00068744,-2.1856e-05,9.5987,563.04,0,2.3102e+08,42.293,12110,13208,1,13208,1,0.0014355,6.4594e-09,0,0.0014355,0.00022451,3.7209e+08,1885.3,0,4.867e+08,479.88,13207,12110,1,12110,1,0.00011944,1.6639e-09,0,0.00068239,-2.1916e-05,4.2013e+07,486.88,0,2.3846e+08,21.334,12109,11089,1,11089,1,-0.0011966,-2.8789e-09,0,2.678e-05,-0.00026799,-4.867e+08,-748.97,0,1.1007e+07,-158.13,11088,11599,1,11599,1,-0.00056294,-4.5011e-11,0,0.00034119,-0.0001495,-2.2896e+08,-15.417,0,1.2596e+08,-39.037,11598,12621,1,12621,1,0.00080183,3.6503e-09,0,0.0010236,0.00010575,2.3925e+08,1106.3,0,3.2887e+08,70.507,12620,591.1,0,591.1,0,0.00078764,2.1455e-09,0,0.00040231,0.00014734,2.642e+08,647.38,0,1.2808e+08,118.42,591.1,1
2044,4.68,12111,1,12111,1,0.00012032,1.3244e-09,0,0.00068908,-2.2016e-05,85.535,421.92,0,2.3133e+08,58.282,12110,13208,1,13208,1,0.0014395,5.6099e-09,0,0.0014395,0.00022492,3.7223e+08,1669.4,0,4.8759e+08,438.07,13207,12110,1,12110,1,0.00012032,1.0536e-09,0,0.00068398,-2.2077e-05,4.229e+07,320.8,0,2.3881e+08,27.387,12109,11089,1,11089,1,-0.0011988,-2.0965e-09,0,2.6242e-05,-0.00026872,-4.8759e+08,-536.29,0,1.0796e+07,-96.398,11088,11599,1,11599,1,-0.00056366,9.0369e-12,0,0.00034198,-0.00014996,-2.2925e+08,2.173,0,1.2617e+08,-28.786,11598,12621,1,12621,1,0.0008043,2.5945e-09,0,0.001026,0.00010588,2.396e+08,810.73,0,3.2923e+08,134.42,12620,591.1,0,591.1,0,0.00078948,1.6332e-09,0,0.00040335,0.00014768,2.6455e+08,501.11,0,1.2824e+08,108.26,591.1,1
2044,4.69,12111,1,12111,1,0.0001212,3.3461e-09,0,0.00069071,-2.2178e-05,68.875,1025.6,0,2.3164e+08,99.067,12110,13208,1,13208,1,0.0014434,1.1117e-08,0,0.0014434,0.00022533,3.7237e+08,3318,0,4.8848e+08,571.47,13207,12110,1,12110,1,0.0001212,3.1626e-09,0,0.00068556,-2.2239e-05,4.2569e+07,907.57,0,2.3915e+08,51.523,12109,11089,1,11089,1,-0.001201,-2.143e-09,0,2.5696e-05,-0.00026945,-4.8848e+08,-687.47,0,1.0583e+07,-192.61,11088,11599,1,11599,1,-0.00056435,6.8963e-10,0,0.00034277,-0.00015041,-2.2953e+08,197.76,0,1.2638e+08,-45.74,11598,12621,1,12621,1,0.00080676,5.8644e-09,0,0.0010283,0.00010602,2.3994e+08,1796.3,0,3.2957e+08,230.67,12620,591.1,0,591.1,0,0.0007913,3.1258e-09,0,0.00040439,0.00014802,2.649e+08,962.84,0,1.2841e+08,175.08,591.1,1
2044,4.7,12111,1,12111,1,0.00012209,4.5075e-09,0,0.00069235,-2.234e-05,186.48,1396.9,0,2.3195e+08,98.022,12110,13208,1,13208,1,0.0014474,1.1207e-08,0,0.0014474,0.00022574,3.725e+08,3523.5,0,4.8937e+08,643.52,13207,12110,1,12110,1,0.00012209,4.4646e-09,0,0.00068715,-2.2402e-05,4.2848e+07,1325.5,0,2.3949e+08,54.771,12109,11089,1,11089,1,-0.0012032,-2.4348e-09,0,2.5147e-05,-0.00027019,-4.8937e+08,-682.11,0,1.0369e+07,-255.03,11088,11599,1,11599,1,-0.00056505,1.2715e-09,0,0.00034356,-0.00015087,-2.2981e+08,342.17,0,1.2659e+08,-59.545,11598,12621,1,12621,1,0.00080923,7.8651e-09,0,0.0010307,0.00010615,2.4028e+08,2477.8,0,3.2992e+08,255.63,12620,591.1,0,591.1,0,0.00079313,3.7613e-09,0,0.00040543,0.00014836,2.6525e+08,1186.7,0,1.2857e+08,201.25,591.1,1
2044,4.71,12111,1,12111,1,0.00012298,2.33e-10,0,0.00069399,-2.2503e-05,-145.06,146.49,0,2.3225e+08,46.552,12110,13208,1,13208,1,0.0014513,6.043e-09,0,0.0014513,0.00022614,3.7262e+08,1860.7,0,4.9023e+08,626.82,13207,12110,1,12110,1,0.00012298,3.7354e-10,0,0.00068874,-2.2567e-05,4.3129e+07,112.63,0,2.3983e+08,16.782,12109,11089,1,11089,1,-0.0012053,-4.1298e-09,0,2.4591e-05,-0.00027091,-4.9023e+08,-1064.9,0,1.0153e+07,-156.31,11088,11599,1,11599,1,-0.00056574,-2.018e-09,0,0.00034436,-0.00015133,-2.301e+08,-496.33,0,1.268e+08,-34.189,11598,12621,1,12621,1,0.00081171,2.0604e-09,0,0.0010331,0.00010628,2.4062e+08,665.61,0,3.3026e+08,70.459,12620,591.1,0,591.1,0,0.00079495,2.633e-09,0,0.00040648,0.0001487,2.6559e+08,780.58,0,1.2874e+08,130.62,591.1,1
2044,4.72,12111,1,12111,1,0.00012388,3.0689e-09,0,0.00069564,-2.2667e-05,-330.39,954.42,0,2.3256e+08,102.57,12110,13208,1,13208,1,0.0014553,1.079e-08,0,0.0014553,0.00022655,3.7275e+08,3255.8,0,4.9113e+08,554.15,13207,12110,1,12110,1,0.00012388,2.7082e-09,0,0.00069032,-2.2732e-05,4.341e+07,791.82,0,2.4017e+08,61.82,12109,11089,1,11089,1,-0.0012075,-2.1154e-09,0,2.4039e-05,-0.00027165,-4.9113e+08,-585.51,0,9.939e+06,-176.8,11088,11599,1,11599,1,-0.00056644,5.53e-10,0,0.00034515,-0.00015179,-2.3038e+08,162.75,0,1.2701e+08,-37.275,11598,12621,1,12621,1,0.0008142,5.4341e-09,0,0.0010355,0.00010641,2.4096e+08,1686.7,0,3.3061e+08,229.04,12620,591.1,0,591.1,0,0.00079679,2.9771e-09,0,0.00040753,0.00014904,2.6594e+08,930.5,0,1.289e+08,174.76,591.1,1
2044,4.73,12111,1,12111,1,0.00012478,2.5536e-09,0,0.0006973,-2.2833e-05,95.342,816.75,0,2.3286e+08,23.608,12110,13208,1,13208,1,0.0014593,6.1888e-09,0,0.0014593,0.00022696,3.7287e+08,2099.8,0,4.9201e+08,490.28,13207,12110,1,12110,1,0.00012478,2.8518e-09,0,0.00069192,-2.2899e-05,4.3695e+07,864.74,0,2.4051e+08,5.5599,12109,11089,1,11089,1,-0.0012097,-1.6624e-09,0,2.3473e-05,-0.00027239,-4.9201e+08,-368.35,0,9.7197e+06,-248.47,11088,11599,1,11599,1,-0.00056713,6.2247e-10,0,0.00034595,-0.00015225,-2.3066e+08,157.35,0,1.2721e+08,-68,11598,12621,1,12621,1,0.0008167,4.4549e-09,0,0.0010379,0.00010654,2.413e+08,1403.1,0,3.3095e+08,111.12,12620,591.1,0,591.1,0,0.00079864,2.2361e-09,0,0.00040859,0.00014939,2.6629e+08,715.07,0,1.2907e+08,141.49,591.1,1
2044,4.74,12111,1,12111,1,0.0001257,-7.5892e-10,0,0.00069896,-2.3001e-05,-40.779,-165.15,0,2.3317e+08,31.426,12110,13208,1,13208,1,0.0014632,1.9343e-09,0,0.0014632,0.00022737,3.7298e+08,662.31,0,4.9288e+08,473.2,13207,12110,1,12110,1,0.0001257,-6.6789e-10,0,0.00069353,-2.3067e-05,4.3981e+07,-198.43,0,2.4085e+08,-5.4952,12109,11089,1,11089,1,-0.0012118,-3.4612e-09,0,2.2904e-05,-0.00027312,-4.9288e+08,-849.46,0,9.4995e+06,-109.81,11088,11599,1,11599,1,-0.00056782,-2.1856e-09,0,0.00034675,-0.00015271,-2.3094e+08,-566.64,0,1.2742e+08,-36.979,11598,12621,1,12621,1,0.00081921,6.62e-10,0,0.0010403,0.00010667,2.4163e+08,226.71,0,3.3129e+08,64.861,12620,591.1,0,591.1,0,0.00080049,1.5203e-09,0,0.00040965,0.00014973,2.6664e+08,419.58,0,1.2923e+08,105.79,591.1,1
2044,4.75,12111,1,12111,1,0.00012662,-4.8656e-10,0,0.00070061,-2.3169e-05,-1.2959,-113.72,0,2.3347e+08,97.112,12110,13208,1,13208,1,0.0014672,3.9845e-09,0,0.0014672,0.00022777,3.7309e+08,1091.6,0,4.9376e+08,480.65,13207,12110,1,12110,1,0.00012662,-6.8486e-11,0,0.00069511,-2.3237e-05,4.4269e+07,-19.338,0,2.4119e+08,80.62,12109,11089,1,11089,1,-0.001214,-4.8268e-09,0,2.2331e-05,-0.00027386,-4.9376e+08,-1247.6,0,9.2784e+06,-92.493,11088,11599,1,11599,1,-0.0005685,-1.7642e-09,0,0.00034756,-0.00015318,-2.3121e+08,-489.98,0,1.2762e+08,16.735,11598,12621,1,12621,1,0.00082173,8.2801e-10,0,0.0010427,0.0001068,2.4197e+08,264.63,0,3.3163e+08,143.13,12620,591.1,0,591.1,0,0.00080233,1.9111e-09,0,0.00041071,0.00015007,2.6698e+08,531.91,0,1.294e+08,107.89,591.1,1
2044,4.76,12111,1,12111,1,0.00012754,7.4821e-10,0,0.00070226,-2.3338e-05,15.108,228.85,0,2.3376e+08,52.853,12110,13208,1,13208,1,0.0014712,3.3158e-09,0,0.0014712,0.00022817,3.7318e+08,955,0,4.9463e+08,507.52,13207,12110,1,12110,1,0.00012754,7.4573e-10,0,0.0006967,-2.3406e-05,4.4556e+07,218.85,0,2.4152e+08,32.493,12109,11089,1,11089,1,-0.0012161,-1.5258e-09,0,2.1753e-05,-0.00027459,-4.9463e+08,-365.09,0,9.0559e+06,-220.5,11088,11599,1,11599,1,-0.00056916,1.8606e-10,0,0.00034835,-0.00015364,-2.3149e+08,49.434,0,1.2783e+08,-19.969,11598,12621,1,12621,1,0.00082424,1.1637e-09,0,0.001045,0.00010693,2.4229e+08,363.86,0,3.3195e+08,110.51,12620,591.1,0,591.1,0,0.00080416,8.0605e-10,0,0.00041176,0.00015041,2.6731e+08,235.41,0,1.2956e+08,113.66,591.1,1
2044,4.77,12111,1,12111,1,0.00012846,2.5699e-10,0,0.00070392,-2.3507e-05,257.65,88.832,0,2.3406e+08,57.449,12110,13208,1,13208,1,0.0014752,2.2627e-09,0,0.0014752,0.00022858,3.7329e+08,774.65,0,4.9551e+08,454.69,13207,12110,1,12110,1,0.00012846,3.1102e-10,0,0.00069831,-2.3577e-05,4.4845e+07,94.493,0,2.4185e+08,23.302,12109,11089,1,11089,1,-0.0012183,-1.8987e-09,0,2.1172e-05,-0.00027534,-4.9551e+08,-457.47,0,8.8325e+06,-124.35,11088,11599,1,11599,1,-0.00056984,-1.1315e-10,0,0.00034915,-0.00015411,-2.3176e+08,-29.067,0,1.2803e+08,-16.994,11598,12621,1,12621,1,0.00082677,6.128e-10,0,0.0010475,0.00010706,2.4263e+08,196.18,0,3.3229e+08,93.444,12620,591.1,0,591.1,0,0.00080602,5.7953e-10,0,0.00041283,0.00015076,2.6766e+08,174.71,0,1.2972e+08,107.82,591.1,1
2044,4.78,12111,1,12111,1,0.0001294,2.6289e-09,0,0.00070558,-2.3678e-05,-114.86,785.1,0,2.3436e+08,91.762,12110,13208,1,13208,1,0.0014793,6.3608e-09,0,0.0014793,0.00022899,3.7339e+08,1826.2,0,4.964e+08,601.63,13207,12110,1,12110,1,0.0001294,2.67e-09,0,0.00069991,-2.3748e-05,4.5136e+07,790.94,0,2.4218e+08,49.882,12109,11089,1,11089,1,-0.0012205,-2.0901e-09,0,2.058e-05,-0.00027609,-4.964e+08,-497.93,0,8.6054e+06,-121.44,11088,11599,1,11599,1,-0.00057051,9.6434e-10,0,0.00034995,-0.00015458,-2.3203e+08,268.27,0,1.2824e+08,-14.034,11598,12621,1,12621,1,0.0008293,4.4133e-09,0,0.0010499,0.00010718,2.4296e+08,1317.6,0,3.3262e+08,167.59,12620,591.1,0,591.1,0,0.00080786,2.0866e-09,0,0.0004139,0.0001511,2.6799e+08,619.98,0,1.2989e+08,139.13,591.1,1
2044,4.79,12111,1,12111,1,0.00013034,6.5674e-10,0,0.00070724,-2.385e-05,-50.5,227.15,0,2.3465e+08,85.195,12110,13208,1,13208,1,0.0014833,4.0975e-09,0,0.0014833,0.00022939,3.7347e+08,1186.3,0,4.9726e+08,561.36,13207,12110,1,12110,1,0.00013034,7.2421e-10,0,0.00070151,-2.3921e-05,4.5428e+07,231.31,0,2.4251e+08,54.065,12109,11089,1,11089,1,-0.0012226,-2.6734e-09,0,1.9982e-05,-0.00027683,-4.9726e+08,-650.55,0,8.3759e+06,-89.875,11088,11599,1,11599,1,-0.00057117,-3.2196e-10,0,0.00035075,-0.00015505,-2.323e+08,-82.417,0,1.2844e+08,13.891,11598,12621,1,12621,1,0.00083184,1.5507e-09,0,0.0010523,0.00010731,2.4328e+08,504.62,0,3.3294e+08,120.9,12620,591.1,0,591.1,0,0.00080971,1.3024e-09,0,0.00041497,0.00015145,2.6833e+08,381.2,0,1.3005e+08,112.76,591.1,1
2044,4.8,12111,1,12111,1,0.00013128,1.0516e-09,0,0.00070888,-2.4023e-05,-74.932,337.72,0,2.3494e+08,114.85,12110,13208,1,13208,1,0.0014873,8.7126e-09,0,0.0014873,0.00022979,3.7355e+08,2552.7,0,4.9813e+08,651.7,13207,12110,1,12110,1,0.00013128,4.3519e-10,0,0.0007031,-2.4094e-05,4.572e+07,133.72,0,2.4284e+08,69.52,12109,11089,1,11089,1,-0.0012247,-4.9582e-09,0,1.9383e-05,-0.00027758,-4.9813e+08,-1271.8,0,8.147e+06,-158.97,11088,11599,1,11599,1,-0.00057182,-5.6601e-10,0,0.00035154,-0.00015552,-2.3257e+08,-141.04,0,1.2864e+08,3.0525,11598,12621,1,12621,1,0.00083437,2.4795e-09,0,0.0010546,0.00010743,2.4361e+08,766.13,0,3.3325e+08,212.2,12620,591.1,0,591.1,0,0.00081154,2.4728e-09,0,0.00041603,0.00015179,2.6866e+08,720.58,0,1.3021e+08,155.79,591.1,1
2044,4.81,12111,1,12111,1,0.00013222,-2.973e-10,0,0.00071056,-2.4196e-05,60.031,-55.855,0,2.3524e+08,51.605,12110,13208,1,13208,1,0.0014913,3.7043e-09,0,0.0014913,0.0002302,3.7365e+08,1086.2,0,4.99e+08,518.86,13207,12110,1,12110,1,0.00013222,-1.7364e-10,0,0.00070471,-2.4269e-05,4.6014e+07,-43.162,0,2.4317e+08,17.475,12109,11089,1,11089,1,-0.0012269,-3.6228e-09,0,1.8782e-05,-0.00027832,-4.99e+08,-935.48,0,7.9174e+06,-97.612,11088,11599,1,11599,1,-0.00057249,-1.3115e-09,0,0.00035235,-0.00015599,-2.3284e+08,-348.34,0,1.2884e+08,-21.529,11598,12621,1,12621,1,0.00083693,7.3127e-10,0,0.0010571,0.00010756,2.4394e+08,241.79,0,3.3358e+08,88.071,12620,591.1,0,591.1,0,0.00081341,1.4236e-09,0,0.00041711,0.00015213,2.69e+08,408.56,0,1.3037e+08,108.99,591.1,1
2044,4.82,12111,1,12111,1,0.00013318,2.3375e-09,0,0.0007122,-2.4372e-05,1192.6,700.43,0,2.3552e+08,64.983,12110,13208,1,13208,1,0.0014954,1.2103e-08,0,0.0014954,0.0002306,3.7372e+08,3540,0,4.9987e+08,526.76,13207,12110,1,12110,1,0.00013318,1.2874e-09,0,0.0007063,-2.4445e-05,4.6311e+07,356.07,0,2.4349e+08,62.77,12109,11089,1,11089,1,-0.001229,-5.7298e-09,0,1.8167e-05,-0.00027907,-4.9987e+08,-1541.2,0,7.683e+06,-327.93,11088,11599,1,11599,1,-0.00057312,-4.4224e-10,0,0.00035315,-0.00015646,-2.3309e+08,-121,0,1.2904e+08,-49.766,11598,12621,1,12621,1,0.00083948,5.2494e-09,0,0.0010594,0.00010768,2.4425e+08,1556.8,0,3.3389e+08,165.15,12620,591.1,0,591.1,0,0.00081524,3.8551e-09,0,0.00041818,0.00015247,2.6932e+08,1134.4,0,1.3053e+08,157.75,591.1,1
2044,4.83,12111,1,12111,1,0.00013413,2.447e-09,0,0.00071387,-2.4546e-05,-329.14,756.32,0,2.3581e+08,82.496,12110,13208,1,13208,1,0.0014994,9.3765e-09,0,0.0014994,0.000231,3.7379e+08,2797.7,0,5.0075e+08,549.06,13207,12110,1,12110,1,0.00013413,1.7365e-09,0,0.00070791,-2.462e-05,4.6605e+07,495.38,0,2.4381e+08,63.903,12109,11089,1,11089,1,-0.0012311,-2.0054e-09,0,1.7554e-05,-0.00027983,-5.0075e+08,-516.37,0,7.4499e+06,-279.82,11088,11599,1,11599,1,-0.00057377,3.5118e-10,0,0.00035395,-0.00015693,-2.3336e+08,99.383,0,1.2924e+08,-21.289,11598,12621,1,12621,1,0.00084204,4.5451e-09,0,0.0010619,0.0001078,2.4457e+08,1386.6,0,3.3421e+08,182.99,12620,591.1,0,591.1,0,0.00081709,2.6592e-09,0,0.00041926,0.00015282,2.6965e+08,825.01,0,1.3069e+08,150.66,591.1,1
2044,4.84,12111,1,12111,1,0.0001351,4.8847e-12,0,0.00071556,-2.4724e-05,180.75,51.76,0,2.361e+08,23.127,12110,13208,1,13208,1,0.0015035,2.1921e-09,0,0.0015035,0.0002314,3.7387e+08,750.44,0,5.0162e+08,551.5,13207,12110,1,12110,1,0.0001351,1.9896e-10,0,0.00070954,-2.4799e-05,4.6905e+07,62.866,0,2.4414e+08,-7.9696,12109,11089,1,11089,1,-0.0012333,-2.5305e-09,0,1.6933e-05,-0.00028058,-5.0162e+08,-591.68,0,7.214e+06,-195.24,11088,11599,1,11599,1,-0.00057443,-1.0348e-09,0,0.00035476,-0.00015741,-2.3363e+08,-247.56,0,1.2944e+08,-54.333,11598,12621,1,12621,1,0.00084463,9.5869e-10,0,0.0010643,0.00010793,2.449e+08,312.82,0,3.3453e+08,68.43,12620,591.1,0,591.1,0,0.00081897,1.2059e-09,0,0.00042036,0.00015317,2.6999e+08,347.03,0,1.3085e+08,129.24,591.1,1
2044,4.85,12111,1,12111,1,0.00013608,1.9387e-09,0,0.00071722,-2.4902e-05,126.18,597.86,0,2.3638e+08,87.77,12110,13208,1,13208,1,0.0015076,8.6508e-09,0,0.0015076,0.00023181,3.7392e+08,2523.9,0,5.0249e+08,515.54,13207,12110,1,12110,1,0.00013608,1.0802e-09,0,0.00071114,-2.4979e-05,4.7205e+07,318.06,0,2.4446e+08,75.849,12109,11089,1,11089,1,-0.0012354,-3.7961e-09,0,1.6303e-05,-0.00028134,-5.0249e+08,-970.07,0,6.975e+06,-187.06,11088,11599,1,11599,1,-0.00057505,-2.4926e-10,0,0.00035556,-0.00015789,-2.3388e+08,-63.127,0,1.2964e+08,0.80694,11598,12621,1,12621,1,0.00084721,4.2263e-09,0,0.0010667,0.00010805,2.4522e+08,1267.5,0,3.3483e+08,163.97,12620,591.1,0,591.1,0,0.00082082,2.8501e-09,0,0.00042144,0.00015351,2.7031e+08,849.28,0,1.3101e+08,124.1,591.1,1
2044,4.86,12111,1,12111,1,0.00013706,-4.3041e-10,0,0.0007189,-2.5081e-05,-29.236,-88.556,0,2.3667e+08,64.558,12110,13208,1,13208,1,0.0015117,2.0486e-09,0,0.0015117,0.0002322,3.7398e+08,701.15,0,5.0334e+08,773.66,13207,12110,1,12110,1,0.00013705,-3.7531e-10,0,0.00071275,-2.5159e-05,4.7506e+07,-103.04,0,2.4478e+08,20.237,12109,11089,1,11089,1,-0.0012375,-3.8612e-09,0,1.5671e-05,-0.00028209,-5.0334e+08,-991.48,0,6.7357e+06,-337.64,11088,11599,1,11599,1,-0.00057569,-1.3938e-09,0,0.00035637,-0.00015837,-2.3414e+08,-348.02,0,1.2984e+08,-60.824,11598,12621,1,12621,1,0.0008498,5.8309e-10,0,0.0010691,0.00010817,2.4553e+08,192.68,0,3.3514e+08,158.91,12620,591.1,0,591.1,0,0.00082269,1.3038e-09,0,0.00042253,0.00015386,2.7064e+08,377.07,0,1.3117e+08,182.22,591.1,1
2044,4.87,12111,1,12111,1,0.00013804,3.0974e-09,0,0.00072056,-2.5262e-05,954.05,923.03,0,2.3695e+08,99.39,12110,13208,1,13208,1,0.0015158,1.2702e-08,0,0.0015158,0.0002326,3.7404e+08,3672.2,0,5.0421e+08,661.52,13207,12110,1,12110,1,0.00013804,2.067e-09,0,0.00071435,-2.534e-05,4.7809e+07,596.97,0,2.4509e+08,91.336,12109,11089,1,11089,1,-0.0012397,-6.1529e-09,0,1.5032e-05,-0.00028285,-5.0421e+08,-1633.6,0,6.4939e+06,-289.4,11088,11599,1,11599,1,-0.00057631,-3.3829e-10,0,0.00035717,-0.00015884,-2.3439e+08,-98.475,0,1.3003e+08,-30.609,11598,12621,1,12621,1,0.00085239,6.6102e-09,0,0.0010715,0.00010828,2.4584e+08,1970.3,0,3.3544e+08,198.64,12620,591.1,0,591.1,0,0.00082453,4.3754e-09,0,0.00042362,0.0001542,2.7095e+08,1281.1,0,1.3132e+08,175.42,591.1,1
2044,4.88,12111,1,12111,1,0.00013902,1.6113e-09,0,0.00072222,-2.5442e-05,465.59,524.68,0,2.3723e+08,84.82,12110,13208,1,13208,1,0.0015199,1.1736e-08,0,0.0015199,0.000233,3.7408e+08,3458,0,5.0507e+08,732.1,13207,12110,1,12110,1,0.00013902,6.5618e-10,0,0.00071596,-2.552e-05,4.811e+07,196.62,0,2.454e+08,44.875,12109,11089,1,11089,1,-0.0012418,-5.9291e-09,0,1.4388e-05,-0.0002836,-5.0507e+08,-1585.5,0,6.2509e+06,-351.28,11088,11599,1,11599,1,-0.00057693,-1.0302e-09,0,0.00035797,-0.00015932,-2.3464e+08,-244.88,0,1.3023e+08,-59.733,11598,12621,1,12621,1,0.00085498,4.1222e-09,0,0.0010739,0.0001084,2.4616e+08,1282.6,0,3.3573e+08,222.88,12620,591.1,0,591.1,0,0.00082638,3.462e-09,0,0.00042471,0.00015454,2.7128e+08,1036,0,1.3148e+08,202,591.1,1
2044,4.89,12111,1,12111,1,0.00014001,3.1415e-09,0,0.00072392,-2.5624e-05,294.47,977.79,0,2.3751e+08,34.86,12110,13208,1,13208,1,0.001524,1.0478e-08,0,0.001524,0.00023341,3.7413e+08,3215.4,0,5.0595e+08,713.37,13207,12110,1,12110,1,0.00014002,2.6098e-09,0,0.00071759,-2.5703e-05,4.8415e+07,768.18,0,2.4572e+08,9.0509,12109,11089,1,11089,1,-0.0012439,-2.1971e-09,0,1.3743e-05,-0.00028437,-5.0595e+08,-506.59,0,6.0074e+06,-356.61,11088,11599,1,11599,1,-0.00057756,5.4816e-10,0,0.00035878,-0.00015981,-2.349e+08,142.85,0,1.3043e+08,-73.467,11598,12621,1,12621,1,0.0008576,5.6352e-09,0,0.0010764,0.00010852,2.4647e+08,1721.1,0,3.3604e+08,135.86,12620,591.1,0,591.1,0,0.00082826,3.1396e-09,0,0.00042581,0.00015489,2.716e+08,983.36,0,1.3164e+08,167.39,591.1,1
2044,4.9,12111,1,12111,1,0.00014102,7.0763e-10,0,0.00072562,-2.5808e-05,76.818,284.56,0,2.3779e+08,48.963,12110,13208,1,13208,1,0.0015282,6.4918e-09,0,0.0015282,0.00023381,3.7418e+08,1957.2,0,5.0681e+08,754.24,13207,12110,1,12110,1,0.00014102,5.5773e-10,0,0.00071923,-2.5889e-05,4.8724e+07,181.08,0,2.4604e+08,10.534,12109,11089,1,11089,1,-0.0012461,-2.9142e-09,0,1.3083e-05,-0.00028514,-5.0681e+08,-715.83,0,5.7588e+06,-302.59,11088,11599,1,11599,1,-0.00057819,-1.3478e-09,0,0.0003596,-0.0001603,-2.3516e+08,-325.47,0,1.3063e+08,-59.944,11598,12621,1,12621,1,0.00086024,2.382e-09,0,0.0010788,0.00010864,2.4679e+08,755.92,0,3.3634e+08,122.4,12620,591.1,0,591.1,0,0.00083015,2.353e-09,0,0.00042693,0.00015525,2.7193e+08,706.24,0,1.318e+08,178.75,591.1,1
2044,4.91,12111,1,12111,1,0.00014204,4.2683e-10,0,0.00072731,-2.5995e-05,516.68,183.74,0,2.3807e+08,34.915,12110,13208,1,13208,1,0.0015323,4.6171e-09,0,0.0015323,0.0002342,3.742e+08,1376.2,0,5.0767e+08,664.25,13207,12110,1,12110,1,0.00014204,3.0618e-10,0,0.00072085,-2.6076e-05,4.9034e+07,95.844,0,2.4635e+08,0.10826,12109,11089,1,11089,1,-0.0012482,-3.7376e-09,0,1.2417e-05,-0.0002859,-5.0767e+08,-917.11,0,5.5086e+06,-242.69,11088,11599,1,11599,1,-0.0005788,-1.0691e-09,0,0.00036041,-0.00016078,-2.354e+08,-251.91,0,1.3082e+08,-55.952,11598,12621,1,12621,1,0.00086288,1.722e-09,0,0.0010813,0.00010876,2.471e+08,537.45,0,3.3663e+08,104.08,12620,591.1,0,591.1,0,0.00083202,1.7663e-09,0,0.00042804,0.00015559,2.7224e+08,523.08,0,1.3196e+08,151.2,591.1,1
2044,4.92,12111,1,12111,1,0.00014306,7.2629e-10,0,0.000729,-2.6181e-05,-264.45,259.34,0,2.3835e+08,74.278,12110,13208,1,13208,1,0.0015364,3.0792e-09,0,0.0015364,0.0002346,3.7424e+08,1044.4,0,5.0854e+08,695.6,13207,12110,1,12110,1,0.00014306,8.25e-10,0,0.00072248,-2.6263e-05,4.9344e+07,246.4,0,2.4667e+08,27.877,12109,11089,1,11089,1,-0.0012503,-2.9605e-09,0,1.1752e-05,-0.00028667,-5.0854e+08,-708.32,0,5.2588e+06,-166.57,11088,11599,1,11599,1,-0.00057942,-4.277e-10,0,0.00036123,-0.00016127,-2.3565e+08,-98.353,0,1.3101e+08,-23.092,11598,12621,1,12621,1,0.00086553,1.758e-09,0,0.0010837,0.00010888,2.474e+08,571.79,0,3.3693e+08,143.2,12620,591.1,0,591.1,0,0.00083391,1.2887e-09,0,0.00042916,0.00015595,2.7256e+08,388.43,0,1.3211e+08,153.42,591.1,1
2044,4.93,12111,1,12111,1,0.00014408,-2.5633e-09,0,0.00073069,-2.6369e-05,317.17,-704.39,0,2.3862e+08,67.099,12110,13208,1,13208,1,0.0015406,1.9373e-09,0,0.0015406,0.000235,3.7427e+08,663.47,0,5.0939e+08,847.69,13207,12110,1,12110,1,0.00014408,-2.126e-09,0,0.00072409,-2.6453e-05,4.9657e+07,-618.81,0,2.4697e+08,17.027,12109,11089,1,11089,1,-0.0012524,-8.4346e-09,0,1.1076e-05,-0.00028744,-5.0939e+08,-2340.9,0,5.005e+06,-186.33,11088,11599,1,11599,1,-0.00058001,-4.4184e-09,0,0.00036205,-0.00016176,-2.359e+08,-1208.2,0,1.3121e+08,-40.556,11598,12621,1,12621,1,0.00086818,-3.9215e-10,0,0.0010861,0.00010899,2.4771e+08,-111.92,0,3.3721e+08,125.09,12620,591.1,0,591.1,0,0.00083578,2.6752e-09,0,0.00043027,0.00015629,2.7288e+08,733.72,0,1.3227e+08,159.15,591.1,1
2044,4.94,12111,1,12111,1,0.0001451,1.2601e-09,0,0.00073238,-2.6556e-05,-624.1,356.65,0,2.3889e+08,86.342,12110,13208,1,13208,1,0.0015447,5.6588e-09,0,0.0015447,0.00023539,3.7429e+08,1439.6,0,5.1025e+08,857.87,13207,12110,1,12110,1,0.0001451,8.9635e-10,0,0.00072572,-2.6641e-05,4.9968e+07,248.15,0,2.4728e+08,47.435,12109,11089,1,11089,1,-0.0012545,-2.9931e-09,0,1.0405e-05,-0.00028821,-5.1025e+08,-749.99,0,4.7535e+06,-178.96,11088,11599,1,11599,1,-0.00058062,-1.1127e-10,0,0.00036286,-0.00016225,-2.3614e+08,-34.239,0,1.314e+08,-29.395,11598,12621,1,12621,1,0.00087083,2.5946e-09,0,0.0010886,0.0001091,2.4801e+08,732.25,0,3.375e+08,157.65,12620,591.1,0,591.1,0,0.00083766,1.7639e-09,0,0.00043139,0.00015664,2.7319e+08,497.32,0,1.3243e+08,172.28,591.1,1
2044,4.95,12111,1,12111,1,0.00014614,2.0036e-09,0,0.00073408,-2.6746e-05,426.92,585.6,0,2.3916e+08,95.963,12110,13208,1,13208,1,0.0015489,7.832e-09,0,0.0015489,0.00023579,3.743e+08,2256.7,0,5.1111e+08,810.86,13207,12110,1,12110,1,0.00014614,1.4922e-09,0,0.00072735,-2.6831e-05,5.0282e+07,429.06,0,2.4759e+08,54.302,12109,11089,1,11089,1,-0.0012566,-3.7078e-09,0,9.7167e-06,-0.00028898,-5.1111e+08,-908.13,0,4.4958e+06,-2148.9,11088,11599,1,11599,1,-0.00058121,2.7781e-10,0,0.00036368,-0.00016274,-2.3638e+08,87.344,0,1.3159e+08,-14.442,11598,12621,1,12621,1,0.0008735,3.6694e-09,0,0.001091,0.00010922,2.4832e+08,1073.1,0,3.3778e+08,197.98,12620,591.1,0,591.1,0,0.00083954,2.3221e-09,0,0.00043251,0.00015699,2.735e+08,665.26,0,1.3258e+08,205.19,591.1,1
2044,4.96,12111,1,12111,1,0.00014718,-5.1293e-10,0,0.00073577,-2.6937e-05,219.58,-117.98,0,2.3943e+08,88.182,12110,13208,1,13208,1,0.0015531,6.2739e-09,0,0.0015531,0.00023618,3.7431e+08,1746.2,0,5.1196e+08,796.45,13207,12110,1,12110,1,0.00014718,-1.8655e-10,0,0.00072898,-2.7023e-05,5.0597e+07,-47.229,0,2.4789e+08,39.755,12109,11089,1,11089,1,-0.0012587,-6.9453e-09,0,9.0248e-06,-0.00028975,-5.1196e+08,-1777.6,0,4.2371e+06,-720.63,11088,11599,1,11599,1,-0.00058179,-2.1346e-09,0,0.00036449,-0.00016323,-2.3662e+08,-604.36,0,1.3178e+08,-25.273,11598,12621,1,12621,1,0.00087616,1.0847e-09,0,0.0010935,0.00010933,2.4861e+08,344.71,0,3.3806e+08,152.36,12620,591.1,0,591.1,0,0.00084142,2.5836e-09,0,0.00043363,0.00015734,2.7381e+08,727.42,0,1.3274e+08,190.43,591.1,1
2044,4.97,12111,1,12111,1,0.00014822,4.877e-09,0,0.00073746,-2.7127e-05,162.77,1421.7,0,2.3969e+08,50.616,12110,13208,1,13208,1,0.0015573,1.0663e-08,0,0.0015573,0.00023659,3.7433e+08,3070.3,0,5.1283e+08,953.3,13207,12110,1,12110,1,0.00014822,5.2054e-09,0,0.0007306,-2.7214e-05,5.0912e+07,1500.9,0,2.4819e+08,12.868,12109,11089,1,11089,1,-0.0012608,-1.5125e-09,0,8.333e-06,-0.00029053,-5.1283e+08,-517.99,0,3.9787e+06,-666.34,11088,11599,1,11599,1,-0.00058238,2.2437e-09,0,0.0003653,-0.00016373,-2.3686e+08,587.47,0,1.3197e+08,-51.35,11598,12621,1,12621,1,0.00087883,7.6951e-09,0,0.0010959,0.00010944,2.4891e+08,2279.9,0,3.3834e+08,75.516,12620,591.1,0,591.1,0,0.0008433,3.3552e-09,0,0.00043475,0.00015769,2.7412e+08,988.42,0,1.3289e+08,198.98,591.1,1
2044,4.98,12111,1,12111,1,0.00014927,-3.0774e-09,0,0.00073915,-2.7319e-05,-944.83,-836.69,0,2.3996e+08,130.72,12110,13208,1,13208,1,0.0015614,8.6125e-09,0,0.0015614,0.00023698,3.7432e+08,2752.5,0,5.1367e+08,881.5,13207,12110,1,12110,1,0.00014927,-2.2498e-09,0,0.00073222,-2.7407e-05,5.1229e+07,-639.58,0,2.4849e+08,104.1,12109,11089,1,11089,1,-0.0012629,-1.3053e-08,0,7.6302e-06,-0.0002913,-5.1367e+08,-3644.3,0,3.7165e+06,-1712.5,11088,11599,1,11599,1,-0.00058296,-6.7586e-09,0,0.00036612,-0.00016422,-2.371e+08,-1890.9,0,1.3216e+08,1.5785,11598,12621,1,12621,1,0.00088149,6.1791e-10,0,0.0010983,0.00010955,2.492e+08,183.68,0,3.3861e+08,235.85,12620,591.1,0,591.1,0,0.00084517,4.5755e-09,0,0.00043588,0.00015804,2.7442e+08,1290.1,0,1.3304e+08,215.65,591.1,1
2044,4.99,12111,1,12111,1,0.00015032,1.1289e-09,0,0.00074082,-2.7512e-05,2093.4,327.8,0,2.4021e+08,-24.177,12110,13208,1,13208,1,0.0015656,1.8465e-08,0,0.0015656,0.00023736,3.7431e+08,5339.5,0,5.145e+08,950.15,13207,12110,1,12110,1,0.00015032,-2.7186e-10,0,0.00073383,-2.7602e-05,5.1547e+07,-72.845,0,2.4878e+08,-56.633,12109,11089,1,11089,1,-0.001265,-1.1981e-08,0,6.9213e-06,-0.00029207,-5.145e+08,-3245.8,0,3.4521e+06,-572.74,11088,11599,1,11599,1,-0.00058351,-2.4332e-09,0,0.00036692,-0.00016471,-2.3732e+08,-744.62,0,1.3234e+08,-188.85,11598,12621,1,12621,1,0.00088416,4.5784e-09,0,0.0011007,0.00010965,2.4949e+08,1251.7,0,3.3887e+08,106.31,12620,591.1,0,591.1,0,0.00084701,5.8405e-09,0,0.00043699,0.00015838,2.7472e+08,1697,0,1.3319e+08,248.95,591.1,1
2044,5,12111,1,12111,1,0.00015138,2.1203e-09,0,0.00074255,-2.7705e-05,514.85,645.62,0,2.4049e+08,-55.202,12110,13208,1,13208,1,0.0015699,6.9193e-09,0,0.0015699,0.00023776,3.7432e+08,2197.9,0,5.1537e+08,884.32,13207,12110,1,12110,1,0.00015138,2.1437e-09,0,0.0007355,-2.7795e-05,5.1866e+07,612.01,0,2.4909e+08,-76.267,12109,11089,1,11089,1,-0.0012671,-1.9456e-09,0,6.2227e-06,-0.00029286,-5.1537e+08,-461.12,0,3.1919e+06,-441.16,11088,11599,1,11599,1,-0.00058411,4.2035e-10,0,0.00036774,-0.00016521,-2.3756e+08,117.63,0,1.3253e+08,-171.95,11598,12621,1,12621,1,0.00088687,3.7139e-09,0,0.0011032,0.00010977,2.498e+08,1060.8,0,3.3915e+08,13.61,12620,591.1,0,591.1,0,0.00084894,2.0802e-09,0,0.00043814,0.00015874,2.7504e+08,639.32,0,1.3335e+08,201.58,591.1,1
2044,5.01,12111,1,12111,1,0.00015246,7.821e-10,0,0.00074428,-2.7903e-05,475.8,275.98,0,2.4075e+08,29.238,12110,13208,1,13208,1,0.0015742,5.2596e-09,0,0.0015742,0.00023816,3.7431e+08,1554,0,5.1622e+08,837.43,13207,12110,1,12110,1,0.00015246,4.6427e-10,0,0.00073716,-2.7994e-05,5.219e+07,149.79,0,2.4939e+08,-8.9391,12109,11089,1,11089,1,-0.0012692,-3.2572e-09,0,5.495e-06,-0.00029365,-5.1622e+08,-807.25,0,2.9211e+06,-257.05,11088,11599,1,11599,1,-0.00058469,-6.77e-10,0,0.00036857,-0.00016572,-2.378e+08,-155.18,0,1.3272e+08,-73.926,11598,12621,1,12621,1,0.00088961,1.9818e-09,0,0.0011057,0.00010988,2.5009e+08,619.4,0,3.3942e+08,67.323,12620,591.1,0,591.1,0,0.00085085,1.7697e-09,0,0.0004393,0.00015909,2.7534e+08,537.76,0,1.3351e+08,177.04,591.1,1
2044,5.02,12111,1,12111,1,0.00015354,1.1718e-09,0,0.00074599,-2.8101e-05,40.617,377,0,2.4101e+08,68.19,12110,13208,1,13208,1,0.0015784,5.9098e-09,0,0.0015784,0.00023855,3.7428e+08,1713.1,0,5.1708e+08,907.58,13207,12110,1,12110,1,0.00015354,7.2013e-10,0,0.0007388,-2.8194e-05,5.2515e+07,217.97,0,2.4968e+08,24.251,12109,11089,1,11089,1,-0.0012713,-4.7236e-09,0,4.7644e-06,-0.00029444,-5.1708e+08,-1157,0,2.6493e+06,-242.24,11088,11599,1,11599,1,-0.00058525,-2.3127e-10,0,0.00036939,-0.00016622,-2.3803e+08,-53.834,0,1.3291e+08,-39.175,11598,12621,1,12621,1,0.00089234,2.6878e-09,0,0.0011082,0.00010999,2.5038e+08,822.29,0,3.3968e+08,106.39,12620,591.1,0,591.1,0,0.00085275,1.9926e-09,0,0.00044045,0.00015945,2.7564e+08,590.33,0,1.3366e+08,191.82,591.1,1
2044,5.03,12111,1,12111,1,0.00015463,1.7422e-09,0,0.00074771,-2.83e-05,115.88,548.12,0,2.4126e+08,86.044,12110,13208,1,13208,1,0.0015827,9.0823e-09,0,0.0015827,0.00023895,3.7426e+08,2598.5,0,5.1793e+08,872.44,13207,12110,1,12110,1,0.00015463,1.284e-09,0,0.00074045,-2.8394e-05,5.2841e+07,401.93,0,2.4997e+08,34.633,12109,11089,1,11089,1,-0.0012734,-4.3696e-09,0,4.029e-06,-0.00029523,-5.1793e+08,-1041.5,0,2.3759e+06,-256.98,11088,11599,1,11599,1,-0.00058581,-6.5817e-11,0,0.00037021,-0.00016673,-2.3825e+08,-15.059,0,1.3309e+08,-43.598,11598,12621,1,12621,1,0.00089508,3.3143e-09,0,0.0011107,0.00011009,2.5067e+08,1014.7,0,3.3994e+08,175.18,12620,591.1,0,591.1,0,0.00085465,2.4126e-09,0,0.0004416,0.0001598,2.7594e+08,707.62,0,1.3381e+08,198.18,591.1,1
2044,5.04,12111,1,12111,1,0.00015573,3.1309e-10,0,0.00074943,-2.85e-05,212.25,148.02,0,2.4152e+08,87.654,12110,13208,1,13208,1,0.001587,6.169e-09,0,0.001587,0.00023934,3.7423e+08,1748.3,0,5.1878e+08,929.01,13207,12110,1,12110,1,0.00015572,2.5639e-10,0,0.0007421,-2.8595e-05,5.3169e+07,83.021,0,2.5027e+08,28.931,12109,11089,1,11089,1,-0.0012755,-6.7925e-09,0,3.2868e-06,-0.00029602,-5.1878e+08,-1652.3,0,2.1002e+06,-237,11088,11599,1,11599,1,-0.00058637,-1.2166e-09,0,0.00037104,-0.00016723,-2.3848e+08,-280.99,0,1.3328e+08,-34.269,11598,12621,1,12621,1,0.00089783,1.7587e-09,0,0.0011131,0.0001102,2.5096e+08,554.15,0,3.402e+08,151.27,12620,591.1,0,591.1,0,0.00085656,2.2443e-09,0,0.00044276,0.00016015,2.7624e+08,631.57,0,1.3397e+08,204.43,591.1,1
2044,5.05,12111,1,12111,1,0.00015683,-1.5143e-09,0,0.00075116,-2.8702e-05,43.991,-390.11,0,2.4178e+08,124.5,12110,13208,1,13208,1,0.0015912,2.2726e-09,0,0.0015912,0.00023973,3.7421e+08,778.13,0,5.1962e+08,1128.7,13207,12110,1,12110,1,0.00015682,-1.301e-09,0,0.00074375,-2.8798e-05,5.3498e+07,-393.21,0,2.5056e+08,22.164,12109,11089,1,11089,1,-0.0012776,-6.7509e-09,0,2.5451e-06,-0.00029681,-5.1962e+08,-1644,0,1.8247e+06,-112.12,11088,11599,1,11599,1,-0.00058692,-2.7824e-09,0,0.00037188,-0.00016774,-2.3871e+08,-716.02,0,1.3346e+08,-25.154,11598,12621,1,12621,1,0.00090058,-2.6329e-10,0,0.0011156,0.00011031,2.5124e+08,-83.603,0,3.4046e+08,192.75,12620,591.1,0,591.1,0,0.00085847,1.5876e-09,0,0.00044392,0.00016051,2.7654e+08,409.36,0,1.3412e+08,237.74,591.1,1
2044,5.06,12111,1,12111,1,0.00015794,4.1344e-10,0,0.00075288,-2.8905e-05,122.49,126.72,0,2.4203e+08,134.88,12110,13208,1,13208,1,0.0015955,6.226e-09,0,0.0015955,0.00024012,3.7416e+08,1541.4,0,5.2047e+08,1002.2,13207,12110,1,12110,1,0.00015794,3.6895e-10,0,0.0007454,-2.9002e-05,5.3829e+07,95.65,0,2.5084e+08,64.051,12109,11089,1,11089,1,-0.0012796,-6.1878e-09,0,1.7913e-06,-0.0002976,-5.2047e+08,-1497.7,0,1.5452e+06,-78.577,11088,11599,1,11599,1,-0.00058747,-3.0003e-10,0,0.0003727,-0.00016825,-2.3893e+08,-89.813,0,1.3364e+08,11.121,11598,12621,1,12621,1,0.00090334,1.3596e-09,0,0.0011181,0.00011041,2.5153e+08,404.82,0,3.4071e+08,185.46,12620,591.1,0,591.1,0,0.00086038,1.8263e-09,0,0.00044508,0.00016086,2.7683e+08,483.14,0,1.3427e+08,193,591.1,1
2044,5.07,12111,1,12111,1,0.00015905,8.3627e-10,0,0.00075461,-2.9108e-05,107.07,245.89,0,2.4228e+08,141.97,12110,13208,1,13208,1,0.0015998,7.9369e-09,0,0.0015998,0.00024051,3.7412e+08,2010.1,0,5.2132e+08,1103.6,13207,12110,1,12110,1,0.00015905,3.4216e-10,0,0.00074706,-2.9207e-05,5.416e+07,100.61,0,2.5113e+08,74.087,12109,11089,1,11089,1,-0.0012817,-5.7085e-09,0,1.0319e-06,-0.0002984,-5.2132e+08,-1361.3,0,1.2637e+06,-183.36,11088,11599,1,11599,1,-0.00058801,-3.9904e-10,0,0.00037353,-0.00016876,-2.3915e+08,-110.45,0,1.3383e+08,0.44683,11598,12621,1,12621,1,0.00090611,1.908e-09,0,0.0011206,0.00011051,2.5181e+08,556.72,0,3.4096e+08,228.52,12620,591.1,0,591.1,0,0.00086229,2.1948e-09,0,0.00044625,0.00016122,2.7712e+08,592.06,0,1.3442e+08,215.9,591.1,1
2044,5.08,12111,1,12111,1,0.00016017,-7.9564e-10,0,0.00075634,-2.9314e-05,91.982,-205.57,0,2.4253e+08,153.83,12110,13208,1,13208,1,0.0016041,5.8089e-09,0,0.0016041,0.0002409,3.7408e+08,1434.1,0,5.2216e+08,1079,13207,12110,1,12110,1,0.00016017,-4.1562e-10,0,0.00074872,-2.9414e-05,5.4494e+07,-120.65,0,2.5142e+08,90.926,12109,11089,1,11089,1,-0.0012838,-6.9905e-09,0,2.6559e-07,-0.0002992,-5.2216e+08,-1683.4,0,9.7968e+05,-116.46,11088,11599,1,11599,1,-0.00058855,-2.2942e-09,0,0.00037436,-0.00016928,-2.3937e+08,-636.46,0,1.3401e+08,17.949,11598,12621,1,12621,1,0.00090889,6.1428e-10,0,0.0011231,0.00011062,2.5209e+08,189.25,0,3.4121e+08,184.65,12620,591.1,0,591.1,0,0.00086421,2.1454e-09,0,0.00044743,0.00016157,2.7742e+08,577.45,0,1.3458e+08,212.16,591.1,1
2044,5.09,12111,1,12111,1,0.0001613,1.1713e-09,0,0.00075811,-2.952e-05,-1.6075,335.84,0,2.4278e+08,154.2,12110,13208,1,13208,1,0.0016085,6.7598e-09,0,0.0016085,0.00024129,3.7402e+08,1668.5,0,5.23e+08,1264.4,13207,12110,1,12110,1,0.0001613,1.006e-09,0,0.00075038,-2.9621e-05,5.4828e+07,287.11,0,2.517e+08,55.811,12109,11089,1,11089,1,-0.0012859,-4.9172e-09,0,5.0023e-07,-0.0003,-5.23e+08,-1141.2,0,6.9371e+05,-141.6,11088,11599,1,11599,1,-0.00058908,2.9277e-10,0,0.00037519,-0.00016979,-2.3958e+08,82.441,0,1.3419e+08,-1.9747,11598,12621,1,12621,1,0.00091168,1.9705e-09,0,0.0011256,0.00011072,2.5237e+08,571.81,0,3.4145e+08,227.67,12620,591.1,0,591.1,0,0.00086612,1.5441e-09,0,0.00044854,0.00016193,2.7771e+08,411.61,0,1.3473e+08,247.78,591.1,1
2044,5.1,12111,1,12111,1,0.00016243,7.0875e-10,0,0.0007599,-2.9727e-05,107.73,214.99,0,2.4302e+08,177.69,12110,13208,1,13208,1,0.0016128,7.3386e-09,0,0.0016128,0.00024168,3.7397e+08,1766.9,0,5.2384e+08,1187.1,13207,12110,1,12110,1,0.00016243,5.1863e-10,0,0.00075204,-2.9829e-05,5.5163e+07,165.6,0,2.5198e+08,84.071,12109,11089,1,11089,1,-0.0012879,-5.7479e-09,0,1.2758e-06,-0.0003008,-5.2384e+08,-1334.6,0,4.0665e+05,-124.73,11088,11599,1,11599,1,-0.00058961,6.4264e-11,0,0.00037602,-0.00017031,-2.398e+08,14.922,0,1.3437e+08,18.332,11598,12621,1,12621,1,0.00091447,1.4529e-09,0,0.0011281,0.00011082,2.5264e+08,441.49,0,3.4169e+08,262.91,12620,591.1,0,591.1,0,0.00086804,1.6442e-09,0,0.00044963,0.00016229,2.78e+08,431.05,0,1.3488e+08,246.02,591.1,1
2044,5.11,12111,1,12111,1,0.00016357,2.15e-09,0,0.00076168,-2.9936e-05,187.83,623.42,0,2.4327e+08,154.7,12110,13208,1,13208,1,0.0016172,9.0975e-09,0,0.0016172,0.00024207,3.7391e+08,2268.5,0,5.2469e+08,1369.2,13207,12110,1,12110,1,0.00016357,2.0795e-09,0,0.00075369,-3.0039e-05,5.55e+07,624.45,0,2.5226e+08,63.249,12109,11089,1,11089,1,-0.00129,-6.4024e-09,0,2.0606e-06,-0.00030161,-5.2469e+08,-1467.4,0,1.1617e+05,-155.27,11088,11599,1,11599,1,-0.00059012,4.4392e-10,0,0.00037685,-0.00017082,-2.4001e+08,117.52,0,1.3455e+08,-19.388,11598,12621,1,12621,1,0.00091727,3.763e-09,0,0.0011305,0.00011092,2.5292e+08,1106.7,0,3.4193e+08,221.85,12620,591.1,0,591.1,0,0.00086995,2.484e-09,0,0.00045071,0.00016264,2.7828e+08,669.23,0,1.3503e+08,263.45,591.1,1
2044,5.12,12111,1,12111,1,0.00016472,1.886e-09,0,0.00076347,-3.0145e-05,72.737,577.36,0,2.4352e+08,184.89,12110,13208,1,13208,1,0.0016215,8.3654e-09,0,0.0016215,0.00024246,3.7384e+08,2072.3,0,5.2553e+08,1344.8,13207,12110,1,12110,1,0.00016471,2.0512e-09,0,0.00075535,-3.0249e-05,5.5837e+07,621,0,2.5254e+08,77.705,12109,11089,1,11089,1,-0.0012921,-7.7396e-09,0,2.8447e-06,-0.00030241,-5.2553e+08,-1788.2,0,1.7098e+05,-200.2,11088,11599,1,11599,1,-0.00059064,-9.9119e-12,0,0.00037768,-0.00017134,-2.4022e+08,-2.425,0,1.3472e+08,-14.48,11598,12621,1,12621,1,0.00092007,3.7147e-09,0,0.001133,0.00011102,2.5319e+08,1133.3,0,3.4216e+08,322.78,12620,591.1,0,591.1,0,0.00087187,2.6485e-09,0,0.0004518,0.000163,2.7856e+08,731.23,0,1.3516e+08,286.73,591.1,1
2044,5.13,12111,1,12111,1,0.00016587,-1.4902e-09,0,0.00076528,-3.0356e-05,260.45,-360.62,0,2.4378e+08,191.82,12110,13208,1,13208,1,0.0016259,4.5533e-09,0,0.0016259,0.00024285,3.7378e+08,1559,0,5.2636e+08,1396.4,13207,12110,1,12110,1,0.00016587,-9.5085e-10,0,0.00075703,-3.0462e-05,5.6178e+07,-276.9,0,2.5281e+08,116.18,12109,11089,1,11089,1,-0.0012941,-9.2691e-09,0,3.6362e-06,-0.00030321,-5.2636e+08,-2198.6,0,4.6316e+05,-123.1,11088,11599,1,11599,1,-0.00059116,-3.1669e-09,0,0.00037851,-0.00017186,-2.4043e+08,-799.87,0,1.349e+08,39.607,11598,12621,1,12621,1,0.0009229,3.6259e-10,0,0.0011355,0.00011112,2.5346e+08,103.86,0,3.424e+08,234.64,12620,591.1,0,591.1,0,0.0008738,2.4859e-09,0,0.0004529,0.00016336,2.7885e+08,649.2,0,1.3527e+08,247.1,591.1,1
2044,5.14,12111,1,12111,1,0.00016703,7.8278e-10,0,0.00076708,-3.0569e-05,-118.57,238.47,0,2.4405e+08,197.14,12110,13208,1,13208,1,0.0016303,7.4128e-09,0,0.0016303,0.00024323,3.7369e+08,1765.7,0,5.272e+08,1421.3,13207,12110,1,12110,1,0.00016703,7.972e-10,0,0.0007587,-3.0676e-05,5.652e+07,244.64,0,2.5309e+08,87.212,12109,11089,1,11089,1,-0.0012962,-7.1875e-09,0,4.4458e-06,-0.00030403,-5.272e+08,-1666.3,0,7.6182e+05,-591.99,11088,11599,1,11599,1,-0.00059167,-1.2304e-10,0,0.00037935,-0.00017238,-2.4064e+08,-30.032,0,1.3508e+08,22.631,11598,12621,1,12621,1,0.00092574,1.6827e-09,0,0.0011381,0.00011121,2.5373e+08,513.67,0,3.4263e+08,283.66,12620,591.1,0,591.1,0,0.00087573,1.8576e-09,0,0.000454,0.00016372,2.7913e+08,483.16,0,1.3538e+08,279.43,591.1,1
2044,5.15,12111,1,12111,1,0.00016821,4.3666e-10,0,0.00076888,-3.0783e-05,478,149.09,0,2.443e+08,211.92,12110,13208,1,13208,1,0.0016347,1.1838e-08,0,0.0016347,0.00024362,3.7361e+08,2903.4,0,5.2803e+08,1439.3,13207,12110,1,12110,1,0.0001682,8.64e-11,0,0.00076037,-3.0891e-05,5.6864e+07,26.818,0,2.5336e+08,142.64,12109,11089,1,11089,1,-0.0012982,-1.0129e-08,0,5.2595e-06,-0.00030484,-5.2803e+08,-2406.9,0,1.0619e+06,-256.81,11088,11599,1,11599,1,-0.00059216,-1.4319e-09,0,0.00038018,-0.00017291,-2.4084e+08,-412.79,0,1.3525e+08,21.041,11598,12621,1,12621,1,0.00092857,2.3668e-09,0,0.0011406,0.00011131,2.54e+08,695.88,0,3.4285e+08,338.82,12620,591.1,0,591.1,0,0.00087765,3.7183e-09,0,0.0004551,0.00016407,2.7941e+08,983.12,0,1.3549e+08,272.9,591.1,1
2044,5.16,12111,1,12111,1,0.00016938,1.4488e-09,0,0.0007707,-3.0997e-05,-45.245,440.64,0,2.4456e+08,181.46,12110,13208,1,13208,1,0.0016391,6.4705e-09,0,0.0016391,0.00024401,3.7353e+08,1901.2,0,5.2887e+08,1505.1,13207,12110,1,12110,1,0.00016937,1.6831e-09,0,0.00076204,-3.1107e-05,5.7208e+07,475.14,0,2.5363e+08,56.356,12109,11089,1,11089,1,-0.0013003,-5.5279e-09,0,6.0726e-06,-0.00030566,-5.2887e+08,-1241,0,1.3616e+06,-197.77,11088,11599,1,11599,1,-0.00059267,3.0631e-10,0,0.00038103,-0.00017343,-2.4104e+08,73.878,0,1.3543e+08,-19.658,11598,12621,1,12621,1,0.00093143,2.5548e-09,0,0.0011431,0.00011141,2.5426e+08,801.66,0,3.4308e+08,288.92,12620,591.1,0,591.1,0,0.00087959,1.6198e-09,0,0.00045621,0.00016443,2.7969e+08,464.73,0,1.3561e+08,324.7,591.1,1
2044,5.17,12111,1,12111,1,0.00017057,-1.4189e-09,0,0.00077251,-3.1214e-05,364.38,-360.76,0,2.4482e+08,214.73,12110,13208,1,13208,1,0.0016435,7.2823e-09,0,0.0016435,0.00024439,3.7344e+08,1884,0,5.297e+08,1522,13207,12110,1,12110,1,0.00017056,-1.0948e-09,0,0.00076373,-3.1325e-05,5.7555e+07,-326.95,0,2.539e+08,119.34,12109,11089,1,11089,1,-0.0013023,-8.8652e-09,0,6.8969e-06,-0.00030647,-5.297e+08,-2036.3,0,1.6649e+06,-183.22,11088,11599,1,11599,1,-0.00059316,-3.2926e-09,0,0.00038186,-0.00017396,-2.4124e+08,-878.04,0,1.356e+08,40.4,11598,12621,1,12621,1,0.00093429,2.1235e-10,0,0.0011456,0.0001115,2.5453e+08,54.514,0,3.433e+08,253.42,12620,591.1,0,591.1,0,0.00088153,2.6387e-09,0,0.00045732,0.00016479,2.7997e+08,689.01,0,1.3571e+08,289.61,591.1,1
2044,5.18,12111,1,12111,1,0.00017175,-9.3192e-10,0,0.0007743,-3.1429e-05,-498.03,-255.69,0,2.4506e+08,291.98,12110,13208,1,13208,1,0.0016479,1.1857e-08,0,0.0016479,0.00024477,3.7333e+08,2868.2,0,5.3052e+08,1710.1,13207,12110,1,12110,1,0.00017174,-5.0609e-10,0,0.00076538,-3.1543e-05,5.79e+07,-144.6,0,2.5416e+08,149.77,12109,11089,1,11089,1,-0.0013044,-1.1818e-08,0,7.7285e-06,-0.00030728,-5.3052e+08,-2800.3,0,1.9706e+06,-134.76,11088,11599,1,11599,1,-0.00059363,-3.1434e-09,0,0.00038269,-0.00017449,-2.4143e+08,-896.92,0,1.3577e+08,59.589,11598,12621,1,12621,1,0.00093713,7.9936e-10,0,0.0011481,0.00011159,2.5478e+08,217.18,0,3.4348e+08,402.19,12620,591.1,0,591.1,0,0.00088344,3.5428e-09,0,0.00045842,0.00016515,2.8023e+08,922.55,0,1.3582e+08,355.93,591.1,1
2044,5.19,12111,1,12111,1,0.00017294,-1.5768e-09,0,0.00077612,-3.1647e-05,-80.709,-456.29,0,2.4532e+08,261.46,12110,13208,1,13208,1,0.0016523,7.6578e-09,0,0.0016523,0.00024516,3.7324e+08,1815.4,0,5.3137e+08,1775.3,13207,12110,1,12110,1,0.00017293,-1.2356e-09,0,0.00076707,-3.1762e-05,5.8248e+07,-368.14,0,2.5443e+08,126.55,12109,11089,1,11089,1,-0.0013064,-1.1908e-08,0,8.5579e-06,-0.00030811,-5.3137e+08,-2863.3,0,2.2752e+06,-106.17,11088,11599,1,11599,1,-0.00059414,-3.3624e-09,0,0.00038354,-0.00017502,-2.4164e+08,-987.16,0,1.3594e+08,42.455,11598,12621,1,12621,1,0.00094001,2.4156e-10,0,0.0011506,0.00011169,2.5505e+08,62.555,0,3.4345e+08,356.24,12620,591.1,0,591.1,0,0.00088539,2.9217e-09,0,0.00045954,0.00016551,2.8052e+08,780.78,0,1.3593e+08,339.98,591.1,1
2044,5.2,12111,1,12111,1,0.00017415,-2.6229e-10,0,0.00077796,-3.1868e-05,75.202,-107.62,0,2.4558e+08,221,12110,13208,1,13208,1,0.0016568,5.4123e-09,0,0.0016568,0.00024555,3.7313e+08,1795.4,0,5.322e+08,1936.3,13207,12110,1,12110,1,0.00017415,-3.4808e-10,0,0.00076876,-3.1985e-05,5.8601e+07,-102.26,0,2.547e+08,58.283,12109,11089,1,11089,1,-0.0013085,-7.4938e-09,0,9.402e-06,-0.00030893,-5.322e+08,-1712,0,2.5849e+06,-136.73,11088,11599,1,11599,1,-0.00059462,-1.2566e-09,0,0.00038439,-0.00017555,-2.4184e+08,-407.5,0,1.3612e+08,-15.576,11598,12621,1,12621,1,0.00094292,8.8585e-10,0,0.0011532,0.00011178,2.5531e+08,203.23,0,3.4342e+08,327.55,12620,591.1,0,591.1,0,0.00088735,1.6982e-09,0,0.00046067,0.00016587,2.8079e+08,476.46,0,1.3604e+08,370.28,591.1,1
2044,5.21,12111,1,12111,1,0.00017537,-1.0855e-09,0,0.00077977,-3.2091e-05,1073.9,-329.56,0,2.4582e+08,303.71,12110,13208,1,13208,1,0.0016613,1.0954e-08,0,0.0016613,0.00024593,3.7301e+08,2645.6,0,5.3303e+08,1978,13207,12110,1,12110,1,0.00017536,-9.0946e-10,0,0.00077044,-3.2209e-05,5.8954e+07,-281.74,0,2.5496e+08,160.52,12109,11089,1,11089,1,-0.0013105,-1.4238e-08,0,1.0256e-05,-0.00030976,-5.3303e+08,-3433.6,0,2.8982e+06,-274.28,11088,11599,1,11599,1,-0.00059508,-2.7156e-09,0,0.00038523,-0.00017609,-2.4202e+08,-813.48,0,1.3628e+08,45.541,11598,12621,1,12621,1,0.00094581,9.3508e-10,0,0.0011557,0.00011187,2.5556e+08,217.69,0,3.4336e+08,448.82,12620,591.1,0,591.1,0,0.00088928,3.6708e-09,0,0.00046179,0.00016623,2.8106e+08,947.59,0,1.3615e+08,394.43,591.1,1
2044,5.22,12111,1,12111,1,0.00017659,-1.5158e-09,0,0.00078162,-3.2313e-05,482.36,-490.52,0,2.4607e+08,294.01,12110,13208,1,13208,1,0.0016658,1.0176e-08,0,0.0016658,0.00024632,3.7291e+08,2325.1,0,5.3387e+08,1985.7,13207,12110,1,12110,1,0.00017658,-1.8397e-09,0,0.00077214,-3.2433e-05,5.9307e+07,-527.9,0,2.5523e+08,145.73,12109,11089,1,11089,1,-0.0013126,-1.086e-08,0,1.111e-05,-0.0003106,-5.3387e+08,-2593.9,0,3.2103e+06,-156.08,11088,11599,1,11599,1,-0.00059556,-3.6895e-09,0,0.00038608,-0.00017663,-2.4222e+08,-1144.7,0,1.3645e+08,51.426,11598,12621,1,12621,1,0.00094873,8.2502e-10,0,0.0011582,0.00011196,2.5582e+08,190.71,0,3.4332e+08,409.13,12620,591.1,0,591.1,0,0.00089125,3.2292e-09,0,0.00046293,0.0001666,2.8133e+08,870.81,0,1.3626e+08,375.87,591.1,1
2044,5.23,12111,1,12111,1,0.00017782,4.3733e-10,0,0.00078344,-3.2538e-05,427.51,50.871,0,2.4631e+08,290.61,12110,13208,1,13208,1,0.0016703,1.2604e-08,0,0.0016703,0.00024669,3.7277e+08,2908.7,0,5.3468e+08,2146,13207,12110,1,12110,1,0.00017781,-1.4088e-10,0,0.00077382,-3.266e-05,5.9664e+07,-40.454,0,2.5548e+08,113.09,12109,11089,1,11089,1,-0.0013146,-1.0202e-08,0,1.198e-05,-0.00031142,-5.3468e+08,-2409.9,0,3.5285e+06,-110.57,11088,11599,1,11599,1,-0.00059601,-1.5538e-09,0,0.00038692,-0.00017716,-2.424e+08,-496.15,0,1.3662e+08,26.575,11598,12621,1,12621,1,0.00095164,2.2914e-09,0,0.0011608,0.00011205,2.5606e+08,548.1,0,3.4325e+08,407.62,12620,591.1,0,591.1,0,0.00089319,3.2161e-09,0,0.00046405,0.00016696,2.8159e+08,805.6,0,1.3636e+08,405.36,591.1,1
2044,5.24,12111,1,12111,1,0.00017906,1.6997e-09,0,0.0007853,-3.2764e-05,692.67,426.76,0,2.4656e+08,212.13,12110,13208,1,13208,1,0.0016748,1.0012e-08,0,0.0016748,0.00024708,3.7266e+08,2275.1,0,5.3552e+08,2133.3,13207,12110,1,12110,1,0.00017905,1.4534e-09,0,0.00077554,-3.2888e-05,6.0022e+07,446.97,0,2.5574e+08,59.428,12109,11089,1,11089,1,-0.0013166,-8.1313e-09,0,1.2854e-05,-0.00031225,-5.3552e+08,-1836.1,0,3.8473e+06,-144.87,11088,11599,1,11599,1,-0.00059649,-2.0831e-10,0,0.00038777,-0.00017771,-2.4259e+08,-55.936,0,1.3679e+08,-31.506,11598,12621,1,12621,1,0.0009546,3.7323e-09,0,0.0011633,0.00011214,2.5632e+08,957.38,0,3.432e+08,281.49,12620,591.1,0,591.1,0,0.00089517,2.6913e-09,0,0.0004652,0.00016732,2.8187e+08,677.77,0,1.3648e+08,391.08,591.1,1
2044,5.25,12111,1,12111,1,0.00018031,-8.4231e-10,0,0.00078715,-3.2992e-05,50.851,-244.77,0,2.4681e+08,285.32,12110,13208,1,13208,1,0.0016793,6.5104e-09,0,0.0016793,0.00024747,3.7252e+08,1967.9,0,5.3635e+08,2055.6,13207,12110,1,12110,1,0.0001803,-6.8212e-10,0,0.00077724,-3.3118e-05,6.0382e+07,-196.16,0,2.5599e+08,112.26,12109,11089,1,11089,1,-0.0013187,-1.0706e-08,0,1.3743e-05,-0.00031309,-5.3635e+08,-2697,0,4.1715e+06,-50.877,11088,11599,1,11599,1,-0.00059694,-1.5162e-09,0,0.00038863,-0.00017825,-2.4278e+08,-437.94,0,1.3696e+08,38.507,11598,12621,1,12621,1,0.00095755,1.5182e-10,0,0.0011659,0.00011222,2.5657e+08,37.029,0,3.4313e+08,385.13,12620,591.1,0,591.1,0,0.00089714,2.1928e-09,0,0.00046635,0.00016769,2.8213e+08,612.37,0,1.3658e+08,389.59,591.1,1
2044,5.26,12111,1,12111,1,0.00018157,-1.2781e-09,0,0.000789,-3.3222e-05,-194.85,-376.25,0,2.4705e+08,360.8,12110,13208,1,13208,1,0.0016839,9.4152e-09,0,0.0016839,0.00024785,3.7238e+08,2364.2,0,5.3718e+08,1975.4,13207,12110,1,12110,1,0.00018156,-1.6342e-09,0,0.00077895,-3.3348e-05,6.0744e+07,-461.31,0,2.5625e+08,206.9,12109,11089,1,11089,1,-0.0013207,-1.0642e-08,0,1.463e-05,-0.00031393,-5.3718e+08,-2624.5,0,4.4943e+06,-69.369,11088,11599,1,11599,1,-0.00059739,-2.8905e-09,0,0.00038948,-0.0001788,-2.4296e+08,-867.2,0,1.3712e+08,84.799,11598,12621,1,12621,1,0.00096051,2.9529e-10,0,0.0011684,0.00011231,2.5681e+08,73.585,0,3.4307e+08,491.18,12620,591.1,0,591.1,0,0.00089911,2.7378e-09,0,0.0004675,0.00016806,2.8239e+08,754.37,0,1.3669e+08,403.41,591.1,1
2044,5.27,12111,1,12111,1,0.00018282,1.6611e-09,0,0.0007908,-3.3451e-05,64.941,428.6,0,2.4727e+08,352.51,12110,13208,1,13208,1,0.0016883,2.272e-08,0,0.0016883,0.00024822,3.7222e+08,5391,0,5.3797e+08,2492,13207,12110,1,12110,1,0.00018281,4.4068e-11,0,0.00078062,-3.358e-05,6.1105e+07,15.094,0,2.5649e+08,196.15,12109,11089,1,11089,1,-0.0013227,-1.7394e-08,0,1.5528e-05,-0.00031475,-5.3797e+08,-4076.8,0,4.8205e+06,-246.96,11088,11599,1,11599,1,-0.0005978,-1.562e-09,0,0.00039031,-0.00017934,-2.4313e+08,-425.25,0,1.3728e+08,25.454,11598,12621,1,12621,1,0.00096343,4.1559e-09,0,0.0011709,0.00011239,2.5704e+08,1116.8,0,3.4297e+08,534.08,12620,591.1,0,591.1,0,0.00090102,6.3221e-09,0,0.00046862,0.00016841,2.8264e+08,1588.8,0,1.3678e+08,475.54,591.1,1
2044,5.28,12111,1,12111,1,0.00018407,-2.7883e-09,0,0.00079266,-3.3679e-05,-579.15,-759.67,0,2.4752e+08,394.34,12110,13208,1,13208,1,0.0016929,1.1746e-08,0,0.0016929,0.00024861,3.721e+08,2797.1,0,5.3882e+08,2305.8,13207,12110,1,12110,1,0.00018406,-2.166e-09,0,0.00078233,-3.3809e-05,6.1463e+07,-609.89,0,2.5674e+08,250.69,12109,11089,1,11089,1,-0.0013248,-1.4826e-08,0,1.6417e-05,-0.0003156,-5.3882e+08,-3486.7,0,5.1427e+06,-132.81,11088,11599,1,11599,1,-0.00059827,-5.8355e-09,0,0.00039116,-0.00017988,-2.4332e+08,-1637.9,0,1.3745e+08,89.533,11598,12621,1,12621,1,0.0009664,9.3103e-11,0,0.0011735,0.00011248,2.5729e+08,23.405,0,3.4291e+08,529.67,12620,591.1,0,591.1,0,0.000903,4.5453e-09,0,0.00046978,0.00016878,2.8291e+08,1185.1,0,1.369e+08,436.87,591.1,1
2044,5.29,12111,1,12111,1,0.00018536,9.1871e-10,0,0.00079454,-3.3914e-05,12.417,218.48,0,2.4776e+08,314.37,12110,13208,1,13208,1,0.0016975,1.1808e-08,0,0.0016975,0.00024899,3.7195e+08,2657.5,0,5.3964e+08,2372.5,13207,12110,1,12110,1,0.00018535,5.3075e-10,0,0.00078406,-3.4046e-05,6.1831e+07,153.48,0,2.57e+08,126,12109,11089,1,11089,1,-0.0013268,-1.0193e-08,0,1.7326e-05,-0.00031645,-5.3964e+08,-2302,0,5.472e+06,-114.38,11088,11599,1,11599,1,-0.00059871,-4.123e-10,0,0.00039203,-0.00018044,-2.435e+08,-135.43,0,1.3762e+08,13,11598,12621,1,12621,1,0.00096942,2.4756e-09,0,0.0011761,0.00011257,2.5754e+08,608.28,0,3.4283e+08,437.02,12620,591.1,0,591.1,0,0.00090501,2.7606e-09,0,0.00047096,0.00016915,2.8317e+08,689.36,0,1.37e+08,455.78,591.1,1
2044,5.3,12111,1,12111,1,0.00018665,-6.3666e-10,0,0.00079641,-3.415e-05,431.09,-187.86,0,2.4799e+08,315.63,12110,13208,1,13208,1,0.0017021,1.174e-08,0,0.0017021,0.00024937,3.7177e+08,2616,0,5.4046e+08,2268.6,13207,12110,1,12110,1,0.00018664,-5.1241e-10,0,0.00078577,-3.4284e-05,6.2201e+07,-152.21,0,2.5724e+08,140.46,12109,11089,1,11089,1,-0.0013288,-1.2348e-08,0,1.8256e-05,-0.0003173,-5.4046e+08,-2794.1,0,5.8082e+06,-121.28,11088,11599,1,11599,1,-0.00059913,-2.3002e-09,0,0.00039289,-0.000181,-2.4367e+08,-678.71,0,1.3778e+08,35.68,11598,12621,1,12621,1,0.00097243,6.5612e-10,0,0.0011787,0.00011265,2.5777e+08,151.86,0,3.4274e+08,419.57,12620,591.1,0,591.1,0,0.00090699,3.076e-09,0,0.00047212,0.00016952,2.8342e+08,784.21,0,1.3711e+08,449.56,591.1,1
2044,5.31,12111,1,12111,1,0.00018795,2.1653e-09,0,0.00079829,-3.4388e-05,79.614,584.66,0,2.4823e+08,337.72,12110,13208,1,13208,1,0.0017067,1.222e-08,0,0.0017067,0.00024975,3.7162e+08,2937,0,5.4129e+08,2577.9,13207,12110,1,12110,1,0.00018795,2.65e-09,0,0.00078751,-3.4523e-05,6.2572e+07,697.69,0,2.5749e+08,117.05,12109,11089,1,11089,1,-0.0013308,-9.7854e-09,0,1.9184e-05,-0.00031816,-5.4129e+08,-2359,0,6.1426e+06,-135.88,11088,11599,1,11599,1,-0.00059956,1.3681e-10,0,0.00039376,-0.00018155,-2.4384e+08,42.582,0,1.3794e+08,10.437,11598,12621,1,12621,1,0.00097546,4.151e-09,0,0.0011813,0.00011273,2.5801e+08,1173.3,0,3.4265e+08,463.43,12620,591.1,0,591.1,0,0.00090899,3.0246e-09,0,0.0004733,0.00016989,2.8368e+08,822.74,0,1.3721e+08,510.24,591.1,1
2044,5.32,12111,1,12111,1,0.00018926,9.6379e-10,0,0.00080017,-3.4627e-05,268.59,288.57,0,2.4846e+08,364.02,12110,13208,1,13208,1,0.0017114,1.2279e-08,0,0.0017114,0.00025013,3.7144e+08,3195,0,5.4211e+08,2426.5,13207,12110,1,12110,1,0.00018925,1.2979e-09,0,0.00078923,-3.4764e-05,6.2944e+07,347.94,0,2.5773e+08,174.07,12109,11089,1,11089,1,-0.0013329,-1.2656e-08,0,2.0122e-05,-0.00031902,-5.4211e+08,-2766.9,0,6.4802e+06,-93.914,11088,11599,1,11599,1,-0.00059998,-4.0158e-10,0,0.00039462,-0.00018211,-2.4401e+08,-101.54,0,1.381e+08,43.327,11598,12621,1,12621,1,0.00097849,2.6236e-09,0,0.0011839,0.00011281,2.5825e+08,767.45,0,3.4255e+08,489.89,12620,591.1,0,591.1,0,0.00091098,3.1696e-09,0,0.00047448,0.00017026,2.8393e+08,859.33,0,1.3732e+08,484.41,591.1,1
2044,5.33,12111,1,12111,1,0.00019058,1.281e-10,0,0.00080206,-3.4867e-05,-24.45,66.605,0,2.4869e+08,439.9,12110,13208,1,13208,1,0.001716,1.2126e-08,0,0.001716,0.00025051,3.7126e+08,3310.5,0,5.4293e+08,2637.9,13207,12110,1,12110,1,0.00019057,4.7181e-10,0,0.00079096,-3.5006e-05,6.3318e+07,136.73,0,2.5797e+08,246.33,12109,11089,1,11089,1,-0.0013349,-1.5449e-08,0,2.1064e-05,-0.00031988,-5.4293e+08,-3402.1,0,6.8183e+06,-63.244,11088,11599,1,11599,1,-0.00060039,-1.1419e-09,0,0.00039549,-0.00018267,-2.4418e+08,-287.35,0,1.3826e+08,91.407,11598,12621,1,12621,1,0.00098154,1.6919e-09,0,0.0011865,0.00011289,2.5848e+08,517.5,0,3.4244e+08,583.74,12620,591.1,0,591.1,0,0.00091298,3.6277e-09,0,0.00047567,0.00017063,2.8419e+08,966.62,0,1.3742e+08,513.1,591.1,1
2044,5.34,12111,1,12111,1,0.0001919,-1.903e-09,0,0.00080394,-3.5108e-05,-523.05,-513.62,0,2.4892e+08,537.62,12110,13208,1,13208,1,0.0017207,1.6877e-08,0,0.0017207,0.00025089,3.7108e+08,3690.4,0,5.4375e+08,2630.6,13207,12110,1,12110,1,0.00019189,-1.6878e-09,0,0.00079269,-3.5249e-05,6.3693e+07,-525.63,0,2.5821e+08,397.35,12109,11089,1,11089,1,-0.0013369,-1.8136e-08,0,2.2018e-05,-0.00032074,-5.4375e+08,-4059.5,0,7.1596e+06,-77.356,11088,11599,1,11599,1,-0.0006008,-4.7591e-09,0,0.00039635,-0.00018324,-2.4435e+08,-1298.1,0,1.3841e+08,144.98,11598,12621,1,12621,1,0.00098459,4.1637e-10,0,0.001189,0.00011297,2.5871e+08,99.056,0,3.4233e+08,724.44,12620,591.1,0,591.1,0,0.00091497,4.9983e-09,0,0.00047685,0.000171,2.8443e+08,1248.1,0,1.3752e+08,531.47,591.1,1
2044,5.35,12111,1,12111,1,0.00019323,-1.3674e-09,0,0.00080582,-3.5351e-05,-176.8,-397.98,0,2.4914e+08,508.04,12110,13208,1,13208,1,0.0017254,1.584e-08,0,0.0017254,0.00025127,3.7089e+08,3438.9,0,5.4457e+08,2833.7,13207,12110,1,12110,1,0.00019322,-1.4739e-09,0,0.00079441,-3.5493e-05,6.4069e+07,-438.8,0,2.5844e+08,318.15,12109,11089,1,11089,1,-0.0013389,-1.7443e-08,0,2.2977e-05,-0.0003216,-5.4457e+08,-3906.2,0,7.5021e+06,-107.71,11088,11599,1,11599,1,-0.0006012,-3.6481e-09,0,0.00039722,-0.0001838,-2.4451e+08,-1076,0,1.3857e+08,111.55,11598,12621,1,12621,1,0.00098765,7.472e-10,0,0.0011916,0.00011305,2.5894e+08,159.96,0,3.4222e+08,684.02,12620,591.1,0,591.1,0,0.00091697,4.5217e-09,0,0.00047804,0.00017137,2.8468e+08,1155,0,1.3762e+08,562.83,591.1,1
2044,5.36,12111,1,12111,1,0.00019457,-7.7677e-11,0,0.00080772,-3.5596e-05,-306.84,-64.608,0,2.4937e+08,483.93,12110,13208,1,13208,1,0.0017301,1.4878e-08,0,0.0017301,0.00025165,3.707e+08,3454.1,0,5.4539e+08,3043.9,13207,12110,1,12110,1,0.00019456,-1.0465e-10,0,0.00079615,-3.574e-05,6.4448e+07,-29.832,0,2.5868e+08,227.67,12109,11089,1,11089,1,-0.0013409,-1.4628e-08,0,2.3941e-05,-0.00032247,-5.4539e+08,-4088.6,0,7.8453e+06,-29.922,11088,11599,1,11599,1,-0.0006016,-1.3963e-09,0,0.00039809,-0.00018437,-2.4467e+08,-420.49,0,1.3873e+08,84.136,11598,12621,1,12621,1,0.00099073,1.3489e-09,0,0.0011943,0.00011312,2.5916e+08,322.42,0,3.4211e+08,660.18,12620,591.1,0,591.1,0,0.00091898,3.7936e-09,0,0.00047924,0.00017175,2.8493e+08,1029.1,0,1.3773e+08,592.37,591.1,1
2044,5.37,12111,1,12111,1,0.00019593,-1.0795e-09,0,0.00080962,-3.5843e-05,261.73,-335.33,0,2.4959e+08,510.96,12110,13208,1,13208,1,0.0017348,1.7158e-08,0,0.0017348,0.00025203,3.705e+08,3834.8,0,5.4621e+08,3053.6,13207,12110,1,12110,1,0.00019591,-1.7295e-09,0,0.00079789,-3.5989e-05,6.4829e+07,-473.84,0,2.5891e+08,297.99,12109,11089,1,11089,1,-0.0013429,-1.6569e-08,0,2.492e-05,-0.00032334,-5.4621e+08,-3985,0,8.193e+06,-72.258,11088,11599,1,11599,1,-0.00060199,-3.6109e-09,0,0.00039896,-0.00018494,-2.4483e+08,-1085.8,0,1.3888e+08,96.499,11598,12621,1,12621,1,0.00099383,8.7987e-10,0,0.0011969,0.0001132,2.5939e+08,218.38,0,3.4198e+08,698.39,12620,591.1,0,591.1,0,0.00092099,4.5371e-09,0,0.00048044,0.00017212,2.8517e+08,1199.8,0,1.3783e+08,597.49,591.1,1
2044,5.38,12111,1,12111,1,0.00019729,-3.3923e-10,0,0.00081153,-3.6091e-05,34.501,-147.06,0,2.4982e+08,551.66,12110,13208,1,13208,1,0.0017395,1.8798e-08,0,0.0017395,0.00025241,3.703e+08,4047.2,0,5.4702e+08,3345.3,13207,12110,1,12110,1,0.00019727,-7.1314e-10,0,0.00079964,-3.6239e-05,6.5212e+07,-205.26,0,2.5915e+08,309.64,12109,11089,1,11089,1,-0.0013449,-1.7994e-08,0,2.5902e-05,-0.00032422,-5.4702e+08,-4001,0,8.5407e+06,-60.247,11088,11599,1,11599,1,-0.00060238,-2.5121e-09,0,0.00039984,-0.00018551,-2.4499e+08,-789.05,0,1.3903e+08,108.23,11598,12621,1,12621,1,0.00099694,1.5608e-09,0,0.0011995,0.00011327,2.5961e+08,375.26,0,3.4186e+08,752.82,12620,591.1,0,591.1,0,0.00092301,4.7603e-09,0,0.00048165,0.00017249,2.8542e+08,1235.7,0,1.3793e+08,632.3,591.1,1
2044,5.39,12111,1,12111,1,0.00019866,-2.7077e-09,0,0.00081342,-3.634e-05,-519.81,-800.37,0,2.5003e+08,643.35,12110,13208,1,13208,1,0.0017443,2.1061e-08,0,0.0017443,0.00025279,3.7009e+08,4600.3,0,5.4784e+08,3367,13207,12110,1,12110,1,0.00019864,-3.4011e-09,0,0.00080138,-3.6489e-05,6.5594e+07,-982.83,0,2.5937e+08,482.82,12109,11089,1,11089,1,-0.0013469,-2.1642e-08,0,2.6896e-05,-0.00032509,-5.4784e+08,-4775.2,0,8.8914e+06,-152.55,11088,11599,1,11599,1,-0.00060275,-7.2037e-09,0,0.0004007,-0.00018608,-2.4514e+08,-2103.1,0,1.3918e+08,174.24,11598,12621,1,12621,1,0.001,1.3533e-09,0,0.0012021,0.00011335,2.5983e+08,282.84,0,3.4172e+08,857.51,12620,591.1,0,591.1,0,0.00092501,6.5628e-09,0,0.00048286,0.00017286,2.8565e+08,1691.2,0,1.3803e+08,640.57,591.1,1
2044,5.4,12111,1,12111,1,0.00020003,2.7688e-09,0,0.00081534,-3.6592e-05,-146.35,672.28,0,2.5025e+08,586.09,12110,13208,1,13208,1,0.001749,2.157e-08,0,0.001749,0.00025316,3.6988e+08,4707.3,0,5.4864e+08,3925.7,13207,12110,1,12110,1,0.00020002,2.9829e-09,0,0.00080314,-3.6743e-05,6.598e+07,840.82,0,2.596e+08,271.95,12109,11089,1,11089,1,-0.0013489,-1.7829e-08,0,2.7892e-05,-0.00032596,-5.4864e+08,-3825.5,0,9.2417e+06,-134.81,11088,11599,1,11599,1,-0.00060313,-6.7841e-10,0,0.00040158,-0.00018666,-2.4529e+08,-210.63,0,1.3934e+08,79.277,11598,12621,1,12621,1,0.0010032,6.5147e-09,0,0.0012047,0.00011342,2.6004e+08,1631.1,0,3.4159e+08,832.89,12620,591.1,0,591.1,0,0.00092704,5.4591e-09,0,0.00048408,0.00017324,2.859e+08,1379.2,0,1.3813e+08,747.33,591.1,1
2044,5.41,12111,1,12111,1,0.00020142,-1.0868e-09,0,0.00081727,-3.6845e-05,-89.914,-318.99,0,2.5047e+08,599.39,12110,13208,1,13208,1,0.0017538,1.7165e-08,0,0.0017538,0.00025354,3.6966e+08,4710.5,0,5.4946e+08,3742.9,13207,12110,1,12110,1,0.00020141,-1.5278e-09,0,0.0008049,-3.6999e-05,6.6368e+07,-406.78,0,2.5982e+08,330.52,12109,11089,1,11089,1,-0.0013509,-2.116e-08,0,2.891e-05,-0.00032685,-5.4946e+08,-4549.3,0,9.5987e+06,-70.48,11088,11599,1,11599,1,-0.0006035,-3.3211e-09,0,0.00040246,-0.00018724,-2.4544e+08,-1013.2,0,1.3949e+08,118.03,11598,12621,1,12621,1,0.0010063,1.1422e-09,0,0.0012074,0.00011349,2.6026e+08,288.79,0,3.4145e+08,798.46,12620,591.1,0,591.1,0,0.00092907,5.0132e-09,0,0.0004853,0.00017362,2.8614e+08,1335.8,0,1.3823e+08,707.72,591.1,1
2044,5.42,12111,1,12111,1,0.00020282,-2.5417e-09,0,0.00081917,-3.71e-05,-301.7,-734.31,0,2.5068e+08,683.08,12110,13208,1,13208,1,0.0017586,2.3316e-08,0,0.0017586,0.00025391,3.6943e+08,5060.9,0,5.5027e+08,3756.5,13207,12110,1,12110,1,0.0002028,-3.0092e-09,0,0.00080664,-3.7254e-05,6.6757e+07,-880.05,0,2.6004e+08,478.24,12109,11089,1,11089,1,-0.0013529,-2.6535e-08,0,2.9927e-05,-0.00032773,-5.5027e+08,-5848.1,0,9.9539e+06,-152.68,11088,11599,1,11599,1,-0.00060385,-6.6922e-09,0,0.00040333,-0.00018782,-2.4559e+08,-1957.7,0,1.3964e+08,165.37,11598,12621,1,12621,1,0.0010095,1.3399e-09,0,0.00121,0.00011356,2.6047e+08,290.38,0,3.4129e+08,919.97,12620,591.1,0,591.1,0,0.00093109,7.123e-09,0,0.00048652,0.00017399,2.8636e+08,1771.2,0,1.3833e+08,720.15,591.1,1
2044,5.43,12111,1,12111,1,0.00020422,-5.6114e-10,0,0.0008211,-3.7356e-05,241.19,-232.76,0,2.5089e+08,656.97,12110,13208,1,13208,1,0.0017634,2.2129e-08,0,0.0017634,0.00025429,3.6919e+08,4758.8,0,5.5108e+08,4123.7,13207,12110,1,12110,1,0.0002042,-1.1123e-09,0,0.0008084,-3.7512e-05,6.7147e+07,-317.03,0,2.6026e+08,355.72,12109,11089,1,11089,1,-0.0013549,-2.3614e-08,0,3.0949e-05,-0.00032862,-5.5108e+08,-5162.7,0,1.031e+07,-110.7,11088,11599,1,11599,1,-0.00060421,-3.4981e-09,0,0.00040422,-0.0001884,-2.4573e+08,-1114.3,0,1.3978e+08,122.2,11598,12621,1,12621,1,0.0010126,2.2129e-09,0,0.0012126,0.00011363,2.6068e+08,509.73,0,3.4114e+08,905.92,12620,591.1,0,591.1,0,0.00093312,5.8999e-09,0,0.00048776,0.00017437,2.866e+08,1471.2,0,1.3843e+08,774.03,591.1,1
2044,5.44,12111,1,12111,1,0.00020564,-2.7284e-11,0,0.00082305,-3.7615e-05,10.92,-87.391,0,2.511e+08,665.2,12110,13208,1,13208,1,0.0017682,2.3663e-08,0,0.0017682,0.00025466,3.6897e+08,5093.8,0,5.519e+08,4162,13207,12110,1,12110,1,0.00020562,-7.0678e-10,0,0.00081018,-3.7773e-05,6.7541e+07,-202.31,0,2.6049e+08,351.44,12109,11089,1,11089,1,-0.0013569,-2.2187e-08,0,3.1985e-05,-0.00032951,-5.519e+08,-4785.4,0,1.0669e+07,-79.079,11088,11599,1,11599,1,-0.00060457,-2.8073e-09,0,0.00040511,-0.00018899,-2.4588e+08,-900.71,0,1.3993e+08,123.79,11598,12621,1,12621,1,0.0010158,2.5103e-09,0,0.0012153,0.0001137,2.6089e+08,598.82,0,3.4099e+08,903.48,12620,591.1,0,591.1,0,0.00093518,5.8332e-09,0,0.000489,0.00017475,2.8684e+08,1456.9,0,1.3853e+08,789.39,591.1,1
2044,5.45,12111,1,12111,1,0.00020706,-5.9857e-10,0,0.00082498,-3.7876e-05,-403.86,-228.25,0,2.5131e+08,742.85,12110,13208,1,13208,1,0.001773,2.3785e-08,0,0.001773,0.00025504,3.6871e+08,5091.3,0,5.527e+08,4366.3,13207,12110,1,12110,1,0.00020705,-1.0667e-09,0,0.00081194,-3.8035e-05,6.7937e+07,-312.14,0,2.607e+08,418.35,12109,11089,1,11089,1,-0.0013589,-2.6534e-08,0,3.3035e-05,-0.0003304,-5.527e+08,-5779.9,0,1.1031e+07,-85.148,11088,11599,1,11599,1,-0.00060491,-3.2253e-09,0,0.00040599,-0.00018958,-2.4601e+08,-1032.8,0,1.4008e+08,163.55,11598,12621,1,12621,1,0.001019,2.2106e-09,0,0.001218,0.00011377,2.611e+08,539.79,0,3.4082e+08,1025.6,12620,591.1,0,591.1,0,0.00093721,6.4431e-09,0,0.00049025,0.00017513,2.8706e+08,1577.7,0,1.3863e+08,831.31,591.1,1
2044,5.46,12111,1,12111,1,0.0002085,1.5273e-09,0,0.00082693,-3.8138e-05,-279.63,347.24,0,2.5152e+08,707.01,12110,13208,1,13208,1,0.0017779,2.5858e-08,0,0.0017779,0.00025541,3.6847e+08,5558,0,5.5351e+08,4537.7,13207,12110,1,12110,1,0.00020848,1.1173e-09,0,0.00081373,-3.83e-05,6.8335e+07,314.72,0,2.6092e+08,352.08,12109,11089,1,11089,1,-0.0013609,-2.2335e-08,0,3.4086e-05,-0.0003313,-5.5351e+08,-4742.7,0,1.1393e+07,-62.244,11088,11599,1,11599,1,-0.00060526,-1.1641e-09,0,0.00040688,-0.00019017,-2.4616e+08,-354.67,0,1.4023e+08,122.91,11598,12621,1,12621,1,0.0010222,4.3511e-09,0,0.0012206,0.00011383,2.613e+08,1057.8,0,3.4066e+08,957.46,12620,591.1,0,591.1,0,0.00093927,6.0402e-09,0,0.0004915,0.00017551,2.873e+08,1517.5,0,1.3873e+08,861.19,591.1,1
2044,5.47,12111,1,12111,1,0.00020995,3.8183e-10,0,0.00082888,-3.8403e-05,-275.57,71.847,0,2.5172e+08,777.81,12110,13208,1,13208,1,0.0017828,2.8225e-08,0,0.0017828,0.00025578,3.6821e+08,6064.7,0,5.5432e+08,4497.5,13207,12110,1,12110,1,0.00020993,-1.5049e-10,0,0.0008155,-3.8566e-05,6.8734e+07,-43.668,0,2.6113e+08,442.89,12109,11089,1,11089,1,-0.0013629,-2.7055e-08,0,3.5158e-05,-0.0003322,-5.5432e+08,-5802.7,0,1.1761e+07,-90.787,11088,11599,1,11599,1,-0.00060558,-2.1042e-09,0,0.00040777,-0.00019077,-2.4629e+08,-608.87,0,1.4037e+08,159.35,11598,12621,1,12621,1,0.0010255,2.968e-09,0,0.0012233,0.0001139,2.615e+08,756.1,0,3.4048e+08,1052.3,12620,591.1,0,591.1,0,0.00094132,6.9117e-09,0,0.00049276,0.00017589,2.8752e+08,1685.8,0,1.3883e+08,881.46,591.1,1
2044,5.48,12111,1,12111,1,0.00021141,2.4722e-09,0,0.00083084,-3.8669e-05,-129.74,640.58,0,2.5193e+08,804.39,12110,13208,1,13208,1,0.0017877,3.1487e-08,0,0.0017877,0.00025616,3.6796e+08,6810.4,0,5.5513e+08,4762,13207,12110,1,12110,1,0.00021139,2.1745e-09,0,0.0008173,-3.8834e-05,6.9137e+07,619.24,0,2.6134e+08,451.21,12109,11089,1,11089,1,-0.0013649,-2.5314e-08,0,3.6234e-05,-0.0003331,-5.5513e+08,-5333,0,1.2128e+07,-85.05,11088,11599,1,11599,1,-0.00060592,-7.6645e-10,0,0.00040866,-0.00019136,-2.4642e+08,-221.44,0,1.4051e+08,162.96,11598,12621,1,12621,1,0.0010287,5.4395e-09,0,0.001226,0.00011396,2.6171e+08,1375,0,3.4031e+08,1108.7,12620,591.1,0,591.1,0,0.00094339,7.0702e-09,0,0.00049403,0.00017627,2.8775e+08,1726.9,0,1.3893e+08,915.36,591.1,1
2044,5.49,12111,1,12111,1,0.00021288,1.8206e-10,0,0.00083282,-3.8938e-05,-109.51,71.243,0,2.5213e+08,806.72,12110,13208,1,13208,1,0.0017926,2.38e-08,0,0.0017926,0.00025654,3.6768e+08,6175.4,0,5.5594e+08,4941.2,13207,12110,1,12110,1,0.00021286,7.564e-10,0,0.00081909,-3.9104e-05,6.9541e+07,198.64,0,2.6155e+08,398.18,12109,11089,1,11089,1,-0.0013669,-2.9148e-08,0,3.732e-05,-0.00033402,-5.5594e+08,-6155.5,0,1.2498e+07,-51.75,11088,11599,1,11599,1,-0.00060624,-1.8086e-09,0,0.00040956,-0.00019197,-2.4656e+08,-486.41,0,1.4065e+08,146.22,11598,12621,1,12621,1,0.001032,2.4437e-09,0,0.0012287,0.00011403,2.619e+08,663.79,0,3.4013e+08,1087.6,12620,591.1,0,591.1,0,0.00094547,6.5732e-09,0,0.00049531,0.00017666,2.8798e+08,1699.9,0,1.3903e+08,975.55,591.1,1
2044,5.5,12111,1,12111,1,0.00021436,-1.7117e-09,0,0.00083478,-3.9209e-05,-196.75,-443.29,0,2.5233e+08,868.05,12110,13208,1,13208,1,0.0017976,2.6876e-08,0,0.0017976,0.00025691,3.6741e+08,6282.8,0,5.5675e+08,4904.2,13207,12110,1,12110,1,0.00021435,-1.8063e-09,0,0.00082089,-3.9377e-05,6.9948e+07,-507.62,0,2.6175e+08,496.87,12109,11089,1,11089,1,-0.0013688,-3.2465e-08,0,3.8416e-05,-0.00033493,-5.5675e+08,-6889.2,0,1.287e+07,-99.1,11088,11599,1,11599,1,-0.00060655,-4.9859e-09,0,0.00041046,-0.00019257,-2.4668e+08,-1326.4,0,1.4079e+08,180.23,11598,12621,1,12621,1,0.0010353,1.5868e-09,0,0.0012314,0.00011409,2.621e+08,416.43,0,3.3993e+08,1179.8,12620,591.1,0,591.1,0,0.00094754,7.6715e-09,0,0.00049659,0.00017704,2.882e+08,1922.1,0,1.3913e+08,985.1,591.1,1
2044,5.51,12111,1,12111,1,0.00021586,1.6613e-09,0,0.00083676,-3.9482e-05,1331.7,435.15,0,2.5252e+08,887.91,12110,13208,1,13208,1,0.0018026,3.2368e-08,0,0.0018026,0.00025728,3.6713e+08,6917.2,0,5.5755e+08,5382.9,13207,12110,1,12110,1,0.00021584,2.0094e-09,0,0.00082269,-3.9651e-05,7.0357e+07,530.34,0,2.6196e+08,493.68,12109,11089,1,11089,1,-0.0013708,-3.0745e-08,0,3.9526e-05,-0.00033585,-5.5755e+08,-6423.4,0,1.3245e+07,-117.02,11088,11599,1,11599,1,-0.00060686,-1.6517e-09,0,0.00041136,-0.00019318,-2.4681e+08,-461.21,0,1.4093e+08,162.38,11598,12621,1,12621,1,0.0010386,4.7729e-09,0,0.0012341,0.00011415,2.6229e+08,1214.5,0,3.3974e+08,1215.1,12620,591.1,0,591.1,0,0.00094962,7.8853e-09,0,0.00049787,0.00017743,2.8842e+08,1986,0,1.3923e+08,1042.5,591.1,1
2044,5.52,12111,1,12111,1,0.00021736,1.0134e-09,0,0.00083875,-3.9757e-05,238.42,300.81,0,2.5272e+08,944.83,12110,13208,1,13208,1,0.0018076,3.4235e-08,0,0.0018076,0.00025766,3.6684e+08,7532.3,0,5.5836e+08,5361.2,13207,12110,1,12110,1,0.00021734,9.6143e-10,0,0.00082449,-3.9927e-05,7.0766e+07,259.37,0,2.6216e+08,564.78,12109,11089,1,11089,1,-0.0013728,-3.2494e-08,0,4.0635e-05,-0.00033677,-5.5836e+08,-6768.4,0,1.3618e+07,-79.612,11088,11599,1,11599,1,-0.00060717,-2.3029e-09,0,0.00041227,-0.00019379,-2.4693e+08,-600.7,0,1.4107e+08,192.69,11598,12621,1,12621,1,0.0010419,4.0126e-09,0,0.0012368,0.00011421,2.6248e+08,1095.8,0,3.3954e+08,1275.4,12620,591.1,0,591.1,0,0.00095171,8.4082e-09,0,0.00049917,0.00017782,2.8864e+08,2103.4,0,1.3933e+08,1060.6,591.1,1
2044,5.53,12111,1,12111,1,0.00021888,-2.2683e-09,0,0.00084073,-4.0033e-05,793.12,-567.8,0,2.5291e+08,1002.2,12110,13208,1,13208,1,0.0018126,3.3701e-08,0,0.0018126,0.00025803,3.6656e+08,7092.6,0,5.5916e+08,5612.6,13207,12110,1,12110,1,0.00021886,-2.0917e-09,0,0.0008263,-4.0205e-05,7.1179e+07,-611.73,0,2.6236e+08,628.2,12109,11089,1,11089,1,-0.0013748,-4.2066e-08,0,4.176e-05,-0.00033769,-5.5916e+08,-8934,0,1.3995e+07,-247.36,11088,11599,1,11599,1,-0.00060746,-6.3852e-09,0,0.00041317,-0.0001944,-2.4705e+08,-1684.8,0,1.4121e+08,199.59,11598,12621,1,12621,1,0.0010452,1.8706e-09,0,0.0012395,0.00011426,2.6267e+08,513.37,0,3.3933e+08,1392.6,12620,591.1,0,591.1,0,0.00095379,9.8691e-09,0,0.00050046,0.0001782,2.8885e+08,2384.3,0,1.3942e+08,1132.7,591.1,1
2044,5.54,12111,1,12111,1,0.0002204,1.9536e-09,0,0.00084274,-4.0311e-05,-156.14,514.45,0,2.5311e+08,1043.9,12110,13208,1,13208,1,0.0018176,3.4445e-08,0,0.0018176,0.0002584,3.6626e+08,8211.4,0,5.5997e+08,6086,13207,12110,1,12110,1,0.00022038,2.5273e-09,0,0.00082812,-4.0485e-05,7.1593e+07,670.39,0,2.6256e+08,609.71,12109,11089,1,11089,1,-0.0013768,-3.4737e-08,0,4.2893e-05,-0.00033862,-5.5997e+08,-7194.8,0,1.4373e+07,-54.711,11088,11599,1,11599,1,-0.00060776,-1.5784e-09,0,0.00041408,-0.00019501,-2.4717e+08,-437.53,0,1.4134e+08,216.26,11598,12621,1,12621,1,0.0010485,5.7612e-09,0,0.0012422,0.00011432,2.6286e+08,1463.8,0,3.3913e+08,1405.8,12620,591.1,0,591.1,0,0.0009559,8.7916e-09,0,0.00050178,0.00017859,2.8907e+08,2255.1,0,1.3952e+08,1177.6,591.1,1
2044,5.55,12111,1,12111,1,0.00022194,-1.0717e-09,0,0.00084475,-4.0593e-05,139.03,-263.46,0,2.533e+08,1100.4,12110,13208,1,13208,1,0.0018227,3.6432e-08,0,0.0018227,0.00025877,3.6595e+08,8311.5,0,5.6077e+08,6161.2,13207,12110,1,12110,1,0.00022192,-1.3078e-09,0,0.00082994,-4.0767e-05,7.201e+07,-372.55,0,2.6275e+08,687.36,12109,11089,1,11089,1,-0.0013787,-4.1771e-08,0,4.4038e-05,-0.00033956,-5.6077e+08,-8707.8,0,1.4755e+07,-94.363,11088,11599,1,11599,1,-0.00060804,-4.9222e-09,0,0.00041499,-0.00019563,-2.4729e+08,-1322.2,0,1.4148e+08,220.58,11598,12621,1,12621,1,0.0010519,2.7589e-09,0,0.001245,0.00011438,2.6304e+08,743.6,0,3.3891e+08,1509.9,12620,591.1,0,591.1,0,0.000958,1.0031e-08,0,0.00050309,0.00017898,2.8928e+08,2475.7,0,1.3962e+08,1216.4,591.1,1
2044,5.56,12111,1,12111,1,0.00022349,1.9446e-09,0,0.00084676,-4.0876e-05,-81.62,534.94,0,2.5349e+08,1201.4,12110,13208,1,13208,1,0.0018277,4.0252e-08,0,0.0018277,0.00025915,3.6564e+08,8836.5,0,5.6158e+08,6570.4,13207,12110,1,12110,1,0.00022346,2.6625e-09,0,0.00083177,-4.1051e-05,7.2429e+07,719.34,0,2.6295e+08,773.91,12109,11089,1,11089,1,-0.0013807,-4.1203e-08,0,4.5195e-05,-0.00034049,-5.6158e+08,-8508.5,0,1.5139e+07,-65.204,11088,11599,1,11599,1,-0.00060832,-2.1983e-09,0,0.00041591,-0.00019625,-2.474e+08,-598.29,0,1.4161e+08,279.88,11598,12621,1,12621,1,0.0010553,6.2209e-09,0,0.0012477,0.00011444,2.6322e+08,1637.5,0,3.3869e+08,1627.4,12620,591.1,0,591.1,0,0.00096011,1.0376e-08,0,0.00050442,0.00017937,2.8949e+08,2583.4,0,1.3972e+08,1279.9,591.1,1
2044,5.57,12111,1,12111,1,0.00022505,1.1028e-10,0,0.00084878,-4.1161e-05,-506.17,75.222,0,2.5367e+08,1248.7,12110,13208,1,13208,1,0.0018328,3.8378e-08,0,0.0018328,0.00025952,3.6532e+08,9279.7,0,5.6238e+08,6684.6,13207,12110,1,12110,1,0.00022502,7.7802e-10,0,0.00083359,-4.1338e-05,7.285e+07,204.59,0,2.6314e+08,802.04,12109,11089,1,11089,1,-0.0013827,-4.4102e-08,0,4.6356e-05,-0.00034143,-5.6238e+08,-9090.2,0,1.5522e+07,-34.292,11088,11599,1,11599,1,-0.00060859,-3.7963e-09,0,0.00041683,-0.00019688,-2.4751e+08,-988.15,0,1.4174e+08,289.13,11598,12621,1,12621,1,0.0010587,4.2602e-09,0,0.0012505,0.00011449,2.634e+08,1182.7,0,3.3846e+08,1674.2,12620,591.1,0,591.1,0,0.00096223,1.0664e-08,0,0.00050575,0.00017977,2.897e+08,2703.8,0,1.3981e+08,1330.7,591.1,1
2044,5.58,12111,1,12111,1,0.00022663,4.5118e-10,0,0.00085081,-4.1449e-05,-45.675,167.87,0,2.5386e+08,1299.1,12110,13208,1,13208,1,0.001838,4.2576e-08,0,0.001838,0.00025989,3.65e+08,9713,0,5.6319e+08,6900.7,13207,12110,1,12110,1,0.00022659,9.8967e-10,0,0.00083543,-4.1627e-05,7.3274e+07,270.37,0,2.6332e+08,851.04,12109,11089,1,11089,1,-0.0013847,-4.606e-08,0,4.7532e-05,-0.00034238,-5.6319e+08,-9451.8,0,1.591e+07,-26.792,11088,11599,1,11599,1,-0.00060886,-3.8971e-09,0,0.00041775,-0.00019751,-2.4762e+08,-1026.8,0,1.4187e+08,296.2,11598,12621,1,12621,1,0.0010621,4.9681e-09,0,0.0012532,0.00011454,2.6358e+08,1384.7,0,3.3823e+08,1767.3,12620,591.1,0,591.1,0,0.00096435,1.1428e-08,0,0.00050709,0.00018016,2.8991e+08,2874.7,0,1.3991e+08,1381.8,591.1,1
2044,5.59,12111,1,12111,1,0.00022821,-1.4892e-09,0,0.00085284,-4.1739e-05,-280.87,-344.35,0,2.5404e+08,1378.2,12110,13208,1,13208,1,0.0018431,4.3878e-08,0,0.0018431,0.00026027,3.6468e+08,10434,0,5.6399e+08,7135.1,13207,12110,1,12110,1,0.00022818,-1.6109e-09,0,0.00083728,-4.1918e-05,7.37e+07,-436.87,0,2.6351e+08,907.16,12109,11089,1,11089,1,-0.0013866,-5.0033e-08,0,4.8719e-05,-0.00034333,-5.6399e+08,-10295,0,1.63e+07,-90.916,11088,11599,1,11599,1,-0.00060912,-6.6382e-09,0,0.00041867,-0.00019814,-2.4773e+08,-1721.9,0,1.4215e+08,312.79,11598,12621,1,12621,1,0.0010655,3.6386e-09,0,0.001256,0.00011459,2.6375e+08,985.5,0,3.3799e+08,1901.5,12620,591.1,0,591.1,0,0.00096649,1.2491e-08,0,0.00050843,0.00018055,2.9012e+08,3130.1,0,1.4001e+08,1462.1,591.1,1
2044,5.6,12111,1,12111,1,0.00022982,2.583e-09,0,0.00085489,-4.2031e-05,45.8,702.33,0,2.5422e+08,1476,12110,13208,1,13208,1,0.0018483,5.1631e-08,0,0.0018483,0.00026064,3.6434e+08,10976,0,5.648e+08,7607.9,13207,12110,1,12110,1,0.00022978,3.421e-09,0,0.00083913,-4.2211e-05,7.4129e+07,898.39,0,2.637e+08,1023,12109,11089,1,11089,1,-0.0013886,-4.9464e-08,0,4.9923e-05,-0.00034429,-5.648e+08,-10116,0,1.6695e+07,-41.978,11088,11599,1,11599,1,-0.00060937,-2.8813e-09,0,0.0004196,-0.00019877,-2.4783e+08,-749.9,0,1.4258e+08,346.88,11598,12621,1,12621,1,0.001069,8.1151e-09,0,0.0012588,0.00011464,2.6393e+08,2242.4,0,3.3775e+08,2015.7,12620,591.1,0,591.1,0,0.00096863,1.321e-08,0,0.00050979,0.00018095,2.9033e+08,3317.9,0,1.4011e+08,1524.4,591.1,1
2044,5.61,12111,1,12111,1,0.00023143,3.4342e-09,0,0.00085693,-4.2326e-05,201.69,984.32,0,2.5439e+08,1580.1,12110,13208,1,13208,1,0.0018535,5.532e-08,0,0.0018535,0.00026101,3.64e+08,11342,0,5.656e+08,7896.2,13207,12110,1,12110,1,0.00023139,5.0178e-09,0,0.00084097,-4.2506e-05,7.4558e+07,1307,0,2.6388e+08,1144.3,12109,11089,1,11089,1,-0.0013906,-5.4796e-08,0,5.1128e-05,-0.00034525,-5.656e+08,-11169,0,1.7088e+07,-128.83,11088,11599,1,11599,1,-0.00060961,-2.9954e-09,0,0.00042053,-0.00019941,-2.4793e+08,-746.52,0,1.4301e+08,396.81,11598,12621,1,12621,1,0.0010724,1.0301e-08,0,0.0012615,0.00011469,2.6409e+08,3026.8,0,3.3749e+08,2159.7,12620,591.1,0,591.1,0,0.00097076,1.4478e-08,0,0.00051115,0.00018135,2.9053e+08,3571.6,0,1.402e+08,1578.7,591.1,1
2044,5.62,12111,1,12111,1,0.00023305,1.2576e-09,0,0.000859,-4.2623e-05,-159.91,471.29,0,2.5457e+08,1612.3,12110,13208,1,13208,1,0.0018588,5.3166e-08,0,0.0018588,0.00026138,3.6365e+08,12238,0,5.664e+08,8067.9,13207,12110,1,12110,1,0.000233,2.1038e-09,0,0.00084283,-4.2803e-05,7.4991e+07,570.62,0,2.6406e+08,1135.7,12109,11089,1,11089,1,-0.0013926,-5.6704e-08,0,5.234e-05,-0.00034621,-5.664e+08,-11503,0,1.7483e+07,-52.346,11088,11599,1,11599,1,-0.00060986,-4.751e-09,0,0.00042147,-0.00020005,-2.4803e+08,-1196.1,0,1.4344e+08,393.42,11598,12621,1,12621,1,0.0010759,7.767e-09,0,0.0012644,0.00011474,2.6426e+08,2317.1,0,3.3724e+08,2181.5,12620,591.1,0,591.1,0,0.00097293,1.4469e-08,0,0.00051253,0.00018175,2.9073e+08,3639.1,0,1.403e+08,1648.6,591.1,1
2044,5.63,12111,1,12111,1,0.00023469,6.1078e-10,0,0.00086106,-4.2922e-05,-220.33,322.94,0,2.5475e+08,1711.7,12110,13208,1,13208,1,0.001864,5.8048e-08,0,0.001864,0.00026175,3.6329e+08,13111,0,5.6719e+08,8329.6,13207,12110,1,12110,1,0.00023464,1.2734e-09,0,0.00084469,-4.3104e-05,7.5426e+07,347.62,0,2.6423e+08,1193.2,12109,11089,1,11089,1,-0.0013945,-6.1293e-08,0,5.3572e-05,-0.00034718,-5.6719e+08,-12399,0,1.7883e+07,-52.705,11088,11599,1,11599,1,-0.00061009,-6.1583e-09,0,0.0004224,-0.00020069,-2.4812e+08,-1497.2,0,1.4387e+08,402.36,11598,12621,1,12621,1,0.0010794,7.3408e-09,0,0.0012671,0.00011479,2.6442e+08,2096.6,0,3.3697e+08,2378.9,12620,591.1,0,591.1,0,0.00097508,1.5772e-08,0,0.0005139,0.00018215,2.9093e+08,3876,0,1.404e+08,1740.5,591.1,1
2044,5.64,12111,1,12111,1,0.00023634,7.0213e-10,0,0.00086314,-4.3224e-05,338.04,344.53,0,2.5492e+08,1738.7,12110,13208,1,13208,1,0.0018693,5.7925e-08,0,0.0018693,0.00026212,3.6293e+08,14032,0,5.68e+08,8802,13207,12110,1,12110,1,0.00023629,1.3703e-09,0,0.00084657,-4.3406e-05,7.5864e+07,367.99,0,2.6441e+08,1171.3,12109,11089,1,11089,1,-0.0013965,-6.3352e-08,0,5.4816e-05,-0.00034815,-5.68e+08,-12742,0,1.8286e+07,-139.34,11088,11599,1,11599,1,-0.00061032,-5.9575e-09,0,0.00042334,-0.00020134,-2.4821e+08,-1463.5,0,1.4431e+08,382.03,11598,12621,1,12621,1,0.0010829,7.577e-09,0,0.00127,0.00011483,2.6459e+08,2145.1,0,3.3671e+08,2425,12620,591.1,0,591.1,0,0.00097725,1.6009e-08,0,0.00051529,0.00018255,2.9113e+08,4010.8,0,1.405e+08,1825.1,591.1,1
2044,5.65,12111,1,12111,1,0.000238,2.3408e-09,0,0.00086522,-4.3527e-05,-165.76,794.5,0,2.5509e+08,1888.5,12110,13208,1,13208,1,0.0018746,6.0683e-08,0,0.0018746,0.0002625,3.6256e+08,15029,0,5.6881e+08,9402,13207,12110,1,12110,1,0.00023795,3.5272e-09,0,0.00084845,-4.3711e-05,7.6304e+07,948.67,0,2.6458e+08,1367.1,12109,11089,1,11089,1,-0.0013985,-6.7967e-08,0,5.6069e-05,-0.00034913,-5.6881e+08,-13594,0,1.869e+07,-77.888,11088,11599,1,11599,1,-0.00061054,-4.8625e-09,0,0.00042428,-0.00020199,-2.483e+08,-1214.1,0,1.4475e+08,460.63,11598,12621,1,12621,1,0.0010865,1.0286e-08,0,0.0012728,0.00011488,2.6475e+08,2921.2,0,3.3643e+08,2617.4,12620,591.1,0,591.1,0,0.00097942,1.7276e-08,0,0.00051669,0.00018295,2.9132e+08,4337.2,0,1.4059e+08,1887.4,591.1,1
2044,5.66,12111,1,12111,1,0.00023969,3.0876e-10,0,0.00086732,-4.3835e-05,154.89,280.23,0,2.5526e+08,2021.2,12110,13208,1,13208,1,0.0018799,6.7874e-08,0,0.0018799,0.00026287,3.6219e+08,15354,0,5.696e+08,9610.6,13207,12110,1,12110,1,0.00023963,1.3103e-09,0,0.00085033,-4.4019e-05,7.6747e+07,359.26,0,2.6475e+08,1464.8,12109,11089,1,11089,1,-0.0014005,-7.4996e-08,0,5.7335e-05,-0.00035012,-5.696e+08,-15030,0,1.9098e+07,-87.173,11088,11599,1,11599,1,-0.00061075,-7.6674e-09,0,0.00042523,-0.00020265,-2.4839e+08,-1875.9,0,1.4519e+08,500.42,11598,12621,1,12621,1,0.00109,8.6186e-09,0,0.0012756,0.00011492,2.649e+08,2456.9,0,3.3615e+08,2822.1,12620,591.1,0,591.1,0,0.00098161,1.9038e-08,0,0.0005181,0.00018336,2.9152e+08,4652.5,0,1.4069e+08,2005,591.1,1
2044,5.67,12111,1,12111,1,0.00024138,-4.7562e-10,0,0.00086943,-4.4145e-05,553.21,82.71,0,2.5543e+08,2037.3,12110,13208,1,13208,1,0.0018853,6.6272e-08,0,0.0018853,0.00026324,3.6181e+08,16419,0,5.7041e+08,9996.8,13207,12110,1,12110,1,0.00024132,4.0576e-10,0,0.00085224,-4.433e-05,7.7195e+07,104.57,0,2.6492e+08,1443.6,12109,11089,1,11089,1,-0.0014024,-7.6958e-08,0,5.8621e-05,-0.00035111,-5.7041e+08,-15339,0,1.9511e+07,-64.547,11088,11599,1,11599,1,-0.00061096,-8.6228e-09,0,0.00042619,-0.00020331,-2.4847e+08,-2089.8,0,1.4563e+08,471.26,11598,12621,1,12621,1,0.0010936,8.09e-09,0,0.0012785,0.00011496,2.6506e+08,2261.5,0,3.3587e+08,2838.1,12620,591.1,0,591.1,0,0.00098381,1.9265e-08,0,0.00051952,0.00018376,2.9171e+08,4795.5,0,1.4079e+08,2080.6,591.1,1
2044,5.68,12111,1,12111,1,0.0002431,-5.867e-10,0,0.00087155,-4.4458e-05,58.574,42.741,0,2.5559e+08,2175.3,12110,13208,1,13208,1,0.0018907,7.1187e-08,0,0.0018907,0.00026361,3.6142e+08,17030,0,5.7121e+08,10632,13207,12110,1,12110,1,0.00024303,5.0844e-10,0,0.00085415,-4.4644e-05,7.7645e+07,136.38,0,2.6509e+08,1572.4,12109,11089,1,11089,1,-0.0014044,-8.2723e-08,0,5.9918e-05,-0.00035211,-5.7121e+08,-16479,0,1.9926e+07,-27.271,11088,11599,1,11599,1,-0.00061116,-9.1706e-09,0,0.00042714,-0.00020398,-2.4855e+08,-2258.1,0,1.4607e+08,521.89,11598,12621,1,12621,1,0.0010973,8.4871e-09,0,0.0012814,0.00011501,2.6521e+08,2361.8,0,3.3558e+08,3013.6,12620,591.1,0,591.1,0,0.00098602,2.06e-08,0,0.00052096,0.00018417,2.919e+08,5072.7,0,1.4089e+08,2180.6,591.1,1
2044,5.69,12111,1,12111,1,0.00024482,1.54e-10,0,0.00087366,-4.4773e-05,594.14,238.7,0,2.5575e+08,2287.6,12110,13208,1,13208,1,0.0018961,7.8515e-08,0,0.0018961,0.00026398,3.6102e+08,17902,0,5.7201e+08,11062,13207,12110,1,12110,1,0.00024476,9.8164e-10,0,0.00085617,-4.496e-05,7.8097e+07,265.3,0,2.6525e+08,1677,12109,11089,1,11089,1,-0.0014064,-8.7529e-08,0,6.0927e-05,-0.0003531,-5.7201e+08,-17391,0,2.0346e+07,-94.371,11088,11599,1,11599,1,-0.00061135,-9.0874e-09,0,0.00042801,-0.00020465,-2.4863e+08,-2220.7,0,1.4651e+08,557.27,11598,12621,1,12621,1,0.0011009,9.6025e-09,0,0.0012841,0.00011504,2.6536e+08,2681.3,0,3.3527e+08,3181.1,12620,591.1,0,591.1,0,0.00098822,2.2155e-08,0,0.00052239,0.00018458,2.9209e+08,5350.9,0,1.4098e+08,2273.1,591.1,1
2044,5.7,12111,1,12111,1,0.00024656,1.0092e-09,0,0.00087578,-4.5089e-05,698.63,467.77,0,2.5591e+08,2452.1,12110,13208,1,13208,1,0.0019015,8.4729e-08,0,0.0019015,0.00026435,3.606e+08,17622,0,5.728e+08,11736,13207,12110,1,12110,1,0.00024649,2.573e-09,0,0.00085807,-4.5277e-05,7.8549e+07,698.15,0,2.654e+08,1856.2,12109,11089,1,11089,1,-0.0014083,-9.5524e-08,0,5.9874e-05,-0.0003541,-5.728e+08,-19062,0,2.0766e+07,-207.42,11088,11599,1,11599,1,-0.00061152,-8.3388e-09,0,0.00042896,-0.00020531,-2.487e+08,-2091,0,1.4696e+08,640.45,11598,12621,1,12621,1,0.0011045,1.1072e-08,0,0.001287,0.00011508,2.655e+08,3070.5,0,3.3496e+08,3422.4,12620,591.1,0,591.1,0,0.00099042,2.3785e-08,0,0.00052383,0.00018499,2.9227e+08,5613.1,0,1.4108e+08,2378.2,591.1,1
2044,5.71,12111,1,12111,1,0.0002483,2.7457e-10,0,0.00087794,-4.5409e-05,65.291,328.72,0,2.5607e+08,2437.7,12110,13208,1,13208,1,0.001907,7.8412e-08,0,0.001907,0.00026473,3.6021e+08,19570,0,5.7362e+08,12113,13207,12110,1,12110,1,0.00024823,1.6394e-09,0,0.00086002,-4.5597e-05,7.9004e+07,438.56,0,2.6557e+08,1701.8,12109,11089,1,11089,1,-0.0014103,-9.339e-08,0,5.8821e-05,-0.00035512,-5.7362e+08,-18412,0,2.1186e+07,-51.643,11088,11599,1,11599,1,-0.00061172,-8.9763e-09,0,0.00042993,-0.00020599,-2.4878e+08,-2159.6,0,1.474e+08,578.76,11598,12621,1,12621,1,0.0011082,1.025e-08,0,0.0012899,0.00011512,2.6565e+08,2869.5,0,3.3466e+08,3362.9,12620,591.1,0,591.1,0,0.00099267,2.2882e-08,0,0.00052529,0.00018541,2.9247e+08,5649.7,0,1.4118e+08,2492.3,591.1,1
2044,5.72,12111,1,12111,1,0.00025008,1.3776e-09,0,0.00088008,-4.5733e-05,318.13,617.88,0,2.5622e+08,2621,12110,13208,1,13208,1,0.0019126,8.8113e-08,0,0.0019126,0.0002651,3.5978e+08,20245,0,5.7441e+08,12644,13207,12110,1,12110,1,0.00025,2.7462e-09,0,0.00086195,-4.5921e-05,7.9464e+07,757.93,0,2.6572e+08,1924,12109,11089,1,11089,1,-0.0014123,-9.953e-08,0,5.7736e-05,-0.00035613,-5.7441e+08,-19559,0,2.1615e+07,-109.98,11088,11599,1,11599,1,-0.00061188,-8.7001e-09,0,0.00043089,-0.00020667,-2.4884e+08,-2132.3,0,1.4785e+08,652.85,11598,12621,1,12621,1,0.0011119,1.2403e-08,0,0.0012928,0.00011515,2.6578e+08,3473.8,0,3.3434e+08,3662.1,12620,591.1,0,591.1,0,0.0009949,2.492e-08,0,0.00052676,0.00018582,2.9264e+08,6044.1,0,1.4127e+08,2592.3,591.1,1
2044,5.73,12111,1,12111,1,0.00025187,-1.8024e-09,0,0.00088226,-4.606e-05,321.4,-171.06,0,2.5638e+08,2697.6,12110,13208,1,13208,1,0.0019181,8.8028e-08,0,0.0019181,0.00026548,3.5937e+08,21871,0,5.7523e+08,13068,13207,12110,1,12110,1,0.00025178,-1.0679e-09,0,0.00086392,-4.6249e-05,7.9929e+07,-273.85,0,2.6588e+08,1889.9,12109,11089,1,11089,1,-0.0014143,-1.0417e-07,0,5.6647e-05,-0.00035716,-5.7523e+08,-20378,0,2.2044e+07,-71.916,11088,11599,1,11599,1,-0.00061206,-1.2765e-08,0,0.00043187,-0.00020736,-2.4892e+08,-3110.6,0,1.483e+08,634.32,11598,12621,1,12621,1,0.0011157,9.682e-09,0,0.0012957,0.00011519,2.6593e+08,2669.4,0,3.3402e+08,3778.2,12620,591.1,0,591.1,0,0.00099717,2.5856e-08,0,0.00052825,0.00018624,2.9283e+08,6365.2,0,1.4137e+08,2752.3,591.1,1
2044,5.74,12111,1,12111,1,0.00025368,-6.4971e-10,0,0.00088445,-4.639e-05,127.02,91.344,0,2.5654e+08,2915.9,12110,13208,1,13208,1,0.0019238,9.5363e-08,0,0.0019238,0.00026585,3.5893e+08,22579,0,5.7604e+08,13927,13207,12110,1,12110,1,0.00025359,8.4477e-10,0,0.00086589,-4.658e-05,8.0397e+07,221.34,0,2.6603e+08,2149.7,12109,11089,1,11089,1,-0.0014163,-1.1342e-07,0,5.5537e-05,-0.0003582,-5.7604e+08,-22222,0,2.2481e+07,-82.696,11088,11599,1,11599,1,-0.00061222,-1.2128e-08,0,0.00043285,-0.00020806,-2.4898e+08,-2966,0,1.4876e+08,715.89,11598,12621,1,12621,1,0.0011195,1.1827e-08,0,0.0012987,0.00011522,2.6606e+08,3254.6,0,3.3369e+08,4072.4,12620,591.1,0,591.1,0,0.00099945,2.8065e-08,0,0.00052975,0.00018666,2.9302e+08,6821.9,0,1.4147e+08,2869,591.1,1
2044,5.75,12111,1,12111,1,0.00025551,1.1953e-09,0,0.00088665,-4.6724e-05,-2.7674,567.15,0,2.5669e+08,3115.6,12110,13208,1,13208,1,0.0019294,1.0562e-07,0,0.0019294,0.00026623,3.5848e+08,24327,0,5.7685e+08,14633,13207,12110,1,12110,1,0.00025542,2.4735e-09,0,0.00086786,-4.6914e-05,8.0868e+07,656.75,0,2.6618e+08,2297.9,12109,11089,1,11089,1,-0.0014183,-1.1676e-07,0,5.4412e-05,-0.00035924,-5.7685e+08,-22689,0,2.2137e+07,-51.58,11088,11599,1,11599,1,-0.00061236,-1.1165e-08,0,0.00043383,-0.00020875,-2.4904e+08,-2769.9,0,1.4921e+08,784.57,11598,12621,1,12621,1,0.0011232,1.4412e-08,0,0.0013016,0.00011525,2.662e+08,3976.1,0,3.3335e+08,4356.1,12620,591.1,0,591.1,0,0.0010017,2.975e-08,0,0.00053126,0.00018708,2.9319e+08,7261.7,0,1.4157e+08,3041,591.1,1
2044,5.76,12111,1,12111,1,0.00025735,-1.4671e-09,0,0.00088886,-4.7061e-05,-156.46,-89.714,0,2.5684e+08,3253.9,12110,13208,1,13208,1,0.0019351,1.0794e-07,0,0.0019351,0.0002666,3.5804e+08,25446,0,5.7765e+08,15081,13207,12110,1,12110,1,0.00025726,-5.0789e-11,0,0.00086986,-4.7252e-05,8.1343e+07,-13.786,0,2.6633e+08,2466.7,12109,11089,1,11089,1,-0.0014203,-1.2633e-07,0,5.3275e-05,-0.00036029,-5.7765e+08,-24533,0,2.1681e+07,-33.22,11088,11599,1,11599,1,-0.00061251,-1.4979e-08,0,0.00043483,-0.00020946,-2.491e+08,-3716.3,0,1.4967e+08,815.26,11598,12621,1,12621,1,0.0011271,1.2616e-08,0,0.0013046,0.00011529,2.6633e+08,3472.8,0,3.33e+08,4522.5,12620,591.1,0,591.1,0,0.001004,3.1782e-08,0,0.00053279,0.00018751,2.9337e+08,7716.1,0,1.4167e+08,3151.6,591.1,1
2044,5.77,12111,1,12111,1,0.00025922,1.5178e-10,0,0.00089108,-4.7401e-05,-286.52,313.11,0,2.5698e+08,3474.4,12110,13208,1,13208,1,0.0019408,1.1985e-07,0,0.0019408,0.00026697,3.5758e+08,26716,0,5.7846e+08,15911,13207,12110,1,12110,1,0.00025912,1.5459e-09,0,0.00087185,-4.7592e-05,8.182e+07,426.31,0,2.6645e+08,2671.8,12109,11089,1,11089,1,-0.0014222,-1.3358e-07,0,5.2121e-05,-0.00036134,-5.7846e+08,-25899,0,2.1219e+07,-47.069,11088,11599,1,11599,1,-0.00061264,-1.4054e-08,0,0.00043582,-0.00021017,-2.4915e+08,-3492.4,0,1.5013e+08,910.17,11598,12621,1,12621,1,0.0011309,1.5212e-08,0,0.0013076,0.00011531,2.6645e+08,4136.7,0,3.3265e+08,4849.3,12620,591.1,0,591.1,0,0.0010063,3.4165e-08,0,0.00053432,0.00018793,2.9355e+08,8175.7,0,1.4177e+08,3312.2,591.1,1
2044,5.78,12111,1,12111,1,0.00026109,1.095e-09,0,0.0008933,-4.7744e-05,424.08,559.14,0,2.5712e+08,3642.8,12110,13208,1,13208,1,0.0019465,1.2849e-07,0,0.0019465,0.00026735,3.571e+08,27866,0,5.7926e+08,16822,13207,12110,1,12110,1,0.00026099,2.5146e-09,0,0.00087384,-4.7935e-05,8.23e+07,658.78,0,2.6657e+08,2805.6,12109,11089,1,11089,1,-0.0014242,-1.3988e-07,0,5.0954e-05,-0.0003624,-5.7926e+08,-26971,0,2.0751e+07,-108.19,11088,11599,1,11599,1,-0.00061275,-1.3751e-08,0,0.0004368,-0.00021088,-2.492e+08,-3423.6,0,1.5059e+08,947.32,11598,12621,1,12621,1,0.0011348,1.6919e-08,0,0.0013106,0.00011534,2.6657e+08,4566.6,0,3.3236e+08,5068.1,12620,591.1,0,591.1,0,0.0010086,3.5838e-08,0,0.00053586,0.00018836,2.9372e+08,8555.1,0,1.4187e+08,3478.6,591.1,1
2044,5.79,12111,1,12111,1,0.00026298,3.5525e-09,0,0.00089554,-4.809e-05,1140.9,1249.9,0,2.5726e+08,3826.2,12110,13208,1,13208,1,0.0019523,1.3704e-07,0,0.0019523,0.00026772,3.5663e+08,29849,0,5.8007e+08,17514,13207,12110,1,12110,1,0.00026287,4.9263e-09,0,0.00087585,-4.828e-05,8.2781e+07,1325.7,0,2.667e+08,2953.9,12109,11089,1,11089,1,-0.0014262,-1.4697e-07,0,4.9779e-05,-0.00036347,-5.8007e+08,-28217,0,2.0282e+07,-101.19,11088,11599,1,11599,1,-0.00061288,-1.2804e-08,0,0.0004378,-0.00021159,-2.4925e+08,-3160,0,1.5105e+08,984.88,11598,12621,1,12621,1,0.0011387,2.0787e-08,0,0.0013136,0.00011537,2.667e+08,5711,0,3.3227e+08,5313,12620,591.1,0,591.1,0,0.0010109,3.8323e-08,0,0.00053742,0.00018879,2.9389e+08,9115.6,0,1.4197e+08,3665.6,591.1,1
2044,5.8,12111,1,12111,1,0.0002649,5.3344e-10,0,0.00089781,-4.8439e-05,203.11,524.72,0,2.5741e+08,4057.4,12110,13208,1,13208,1,0.0019582,1.3794e-07,0,0.0019582,0.0002681,3.5616e+08,31721,0,5.8089e+08,18366,13207,12110,1,12110,1,0.00026478,2.6428e-09,0,0.00087789,-4.8629e-05,8.3267e+07,705.8,0,2.6682e+08,3126.4,12109,11089,1,11089,1,-0.0014282,-1.5701e-07,0,4.8585e-05,-0.00036455,-5.8089e+08,-30048,0,1.9806e+07,-135.71,11088,11599,1,11599,1,-0.00061299,-1.6308e-08,0,0.00043881,-0.00021231,-2.4929e+08,-3981.5,0,1.5151e+08,1020.9,11598,12621,1,12621,1,0.0011426,1.8773e-08,0,0.0013166,0.00011539,2.6682e+08,5150.8,0,3.3218e+08,5652.6,12620,591.1,0,591.1,0,0.0010133,3.9923e-08,0,0.000539,0.00018922,2.9406e+08,9658.7,0,1.4207e+08,3900,591.1,1
2044,5.81,12111,1,12111,1,0.00026685,-1.9634e-09,0,0.00090009,-4.8794e-05,1.6249,-102.59,0,2.5755e+08,4295.2,12110,13208,1,13208,1,0.0019641,1.478e-07,0,0.0019641,0.00026848,3.5568e+08,33637,0,5.8171e+08,19210,13207,12110,1,12110,1,0.00026672,-3.4991e-10,0,0.00087995,-4.8985e-05,8.3761e+07,-83.677,0,2.6693e+08,3338.4,12109,11089,1,11089,1,-0.0014302,-1.6716e-07,0,4.737e-05,-0.00036563,-5.8171e+08,-31900,0,1.9322e+07,-11.864,11088,11599,1,11599,1,-0.00061311,-2.0429e-08,0,0.00043983,-0.00021305,-2.4934e+08,-5021.2,0,1.5199e+08,1093.6,11598,12621,1,12621,1,0.0011466,1.744e-08,0,0.0013197,0.00011542,2.6693e+08,4782.6,0,3.3208e+08,5974,12620,591.1,0,591.1,0,0.0010157,4.3001e-08,0,0.0005406,0.00018966,2.9424e+08,10310,0,1.4217e+08,4080.4,591.1,1
2044,5.82,12111,1,12111,1,0.0002688,2.1827e-09,0,0.00090235,-4.9151e-05,-159.36,944.29,0,2.5767e+08,4706.4,12110,13208,1,13208,1,0.00197,1.7008e-07,0,0.00197,0.00026885,3.5515e+08,34322,0,5.825e+08,20302,13207,12110,1,12110,1,0.00026866,4.2551e-09,0,0.00088197,-4.934e-05,8.4253e+07,1135.6,0,2.6704e+08,3755.6,12109,11089,1,11089,1,-0.0014322,-1.821e-07,0,4.6134e-05,-0.00036671,-5.825e+08,-34821,0,1.8831e+07,-160.82,11088,11599,1,11599,1,-0.00061318,-1.7831e-08,0,0.00044083,-0.00021377,-2.4937e+08,-4367.6,0,1.5245e+08,1334.3,11598,12621,1,12621,1,0.0011506,2.322e-08,0,0.0013227,0.00011544,2.6704e+08,6278.6,0,3.3195e+08,6609.3,12620,591.1,0,591.1,0,0.001018,4.7607e-08,0,0.00054218,0.00019009,2.9439e+08,11030,0,1.4226e+08,4304.6,591.1,1
2044,5.83,12111,1,12111,1,0.00027077,3.3762e-09,0,0.00090467,-4.951e-05,-1741.5,1350.3,0,2.5781e+08,4897.5,12110,13208,1,13208,1,0.001976,1.7083e-07,0,0.001976,0.00026924,3.5466e+08,37532,0,5.8334e+08,21387,13207,12110,1,12110,1,0.00027062,5.7369e-09,0,0.00088404,-4.9698e-05,8.4748e+07,1530.9,0,2.6715e+08,3822.8,12109,11089,1,11089,1,-0.0014342,-1.8556e-07,0,4.4906e-05,-0.00036782,-5.8334e+08,-35138,0,1.8345e+07,-153.49,11088,11599,1,11599,1,-0.00061328,-1.6811e-08,0,0.00044185,-0.00021451,-2.4941e+08,-4066.2,0,1.5292e+08,1332,11598,12621,1,12621,1,0.0011546,2.5395e-08,0,0.0013258,0.00011546,2.6715e+08,6909,0,3.3185e+08,6847.7,12620,591.1,0,591.1,0,0.0010204,4.8039e-08,0,0.00054381,0.00019054,2.9457e+08,11402,0,1.4237e+08,4558.2,591.1,1
2044,5.84,12111,1,12111,1,0.00027278,-8.92e-10,0,0.00090699,-4.9877e-05,281.88,354.08,0,2.5794e+08,5088.6,12110,13208,1,13208,1,0.001982,1.7782e-07,0,0.001982,0.00026961,3.5415e+08,39132,0,5.8414e+08,22396,13207,12110,1,12110,1,0.00027262,1.7375e-09,0,0.00088612,-5.0064e-05,8.5252e+07,485.08,0,2.6726e+08,3949.4,12109,11089,1,11089,1,-0.0014362,-2.0365e-07,0,4.3633e-05,-0.00036893,-5.8414e+08,-38589,0,1.7843e+07,-119.7,11088,11599,1,11599,1,-0.00061335,-2.3162e-08,0,0.00044289,-0.00021526,-2.4944e+08,-5473.3,0,1.534e+08,1340.1,11598,12621,1,12621,1,0.0011587,2.2694e-08,0,0.0013289,0.00011548,2.6726e+08,6256.2,0,3.3173e+08,7156.7,12620,591.1,0,591.1,0,0.0010228,5.1867e-08,0,0.00054544,0.00019098,2.9472e+08,12156,0,1.4247e+08,4780.7,591.1,1
2044,5.85,12111,1,12111,1,0.0002748,1.4853e-09,0,0.00090934,-5.0247e-05,131.38,987.07,0,2.5807e+08,5320.7,12110,13208,1,13208,1,0.0019881,1.8329e-07,0,0.0019881,0.00026999,3.5363e+08,42036,0,5.8497e+08,23498,13207,12110,1,12110,1,0.00027463,4.7247e-09,0,0.00088822,-5.0432e-05,8.5759e+07,1259.6,0,2.6736e+08,4113.5,12109,11089,1,11089,1,-0.0014382,-2.1243e-07,0,4.2355e-05,-0.00037006,-5.8497e+08,-39983,0,1.734e+07,-179.45,11088,11599,1,11599,1,-0.00061342,-2.0773e-08,0,0.00044392,-0.00021602,-2.4947e+08,-4941,0,1.5387e+08,1374.8,11598,12621,1,12621,1,0.0011628,2.7035e-08,0,0.001332,0.0001155,2.6736e+08,7501.1,0,3.3161e+08,7487.9,12620,591.1,0,591.1,0,0.0010252,5.4195e-08,0,0.0005471,0.00019143,2.9489e+08,12861,0,1.4257e+08,5030.1,591.1,1
2044,5.86,12111,1,12111,1,0.00027686,-1.9197e-10,0,0.00091171,-5.0623e-05,-239.99,632.16,0,2.582e+08,5666.9,12110,13208,1,13208,1,0.0019943,1.935e-07,0,0.0019943,0.00027038,3.531e+08,44556,0,5.858e+08,24721,13207,12110,1,12110,1,0.00027668,3.3858e-09,0,0.00089035,-5.0806e-05,8.6272e+07,882.34,0,2.6747e+08,4424,12109,11089,1,11089,1,-0.0014403,-2.2772e-07,0,4.105e-05,-0.00037119,-5.858e+08,-42716,0,1.6828e+07,-306.81,11088,11599,1,11599,1,-0.00061349,-2.4487e-08,0,0.00044497,-0.00021678,-2.4949e+08,-5754.7,0,1.5436e+08,1514.6,11598,12621,1,12621,1,0.0011669,2.7108e-08,0,0.0013352,0.00011551,2.6747e+08,7476.4,0,3.3148e+08,7949.8,12620,591.1,0,591.1,0,0.0010277,5.7975e-08,0,0.00054878,0.00019188,2.9505e+08,13695,0,1.4268e+08,5306,591.1,1
2044,5.87,12111,1,12111,1,0.00027895,-2.2927e-09,0,0.00091412,-5.1004e-05,404.94,124,0,2.5833e+08,6027,12110,13208,1,13208,1,0.0020005,2.0737e-07,0,0.0020005,0.00027077,3.5256e+08,47245,0,5.8664e+08,26256,13207,12110,1,12110,1,0.00027876,1.4358e-09,0,0.00089251,-5.1187e-05,8.6793e+07,369.55,0,2.6757e+08,4695.9,12109,11089,1,11089,1,-0.0014423,-2.441e-07,0,3.9724e-05,-0.00037235,-5.8664e+08,-45719,0,1.631e+07,-55.559,11088,11599,1,11599,1,-0.00061356,-2.8984e-08,0,0.00044604,-0.00021756,-2.4952e+08,-6879.4,0,1.5485e+08,1573.8,11598,12621,1,12621,1,0.0011712,2.6359e-08,0,0.0013384,0.00011553,2.6757e+08,7172.4,0,3.3135e+08,8491.2,12620,591.1,0,591.1,0,0.0010301,6.1882e-08,0,0.00055049,0.00019234,2.9522e+08,14599,0,1.4278e+08,5660.5,591.1,1
2044,5.88,12111,1,12111,1,0.00028107,5.053e-11,0,0.00091653,-5.1391e-05,-26.211,709.22,0,2.5845e+08,6418.9,12110,13208,1,13208,1,0.0020068,2.2158e-07,0,0.0020068,0.00027115,3.5199e+08,51064,0,5.8747e+08,27866,13207,12110,1,12110,1,0.00028087,3.6611e-09,0,0.00089465,-5.1571e-05,8.7316e+07,972.16,0,2.6766e+08,5047.2,12109,11089,1,11089,1,-0.0014444,-2.5789e-07,0,3.8368e-05,-0.00037351,-5.8747e+08,-47974,0,1.5783e+07,-192.93,11088,11599,1,11599,1,-0.00061358,-2.7862e-08,0,0.0004471,-0.00021834,-2.4953e+08,-6720.2,0,1.5533e+08,1666.2,11598,12621,1,12621,1,0.0011754,3.1002e-08,0,0.0013416,0.00011554,2.6766e+08,8431.4,0,3.312e+08,9032.4,12620,591.1,0,591.1,0,0.0010326,6.5833e-08,0,0.00055221,0.0001928,2.9537e+08,15610,0,1.4289e+08,5994.3,591.1,1
2044,5.89,12111,1,12111,1,0.00028321,1.463e-10,0,0.00091896,-5.1781e-05,-404.35,786.38,0,2.5857e+08,6898.5,12110,13208,1,13208,1,0.0020132,2.405e-07,0,0.0020132,0.00027154,3.5143e+08,54087,0,5.883e+08,29237,13207,12110,1,12110,1,0.00028299,4.3977e-09,0,0.00089683,-5.1958e-05,8.7844e+07,1130.7,0,2.6775e+08,5514.5,12109,11089,1,11089,1,-0.0014464,-2.7862e-07,0,3.6997e-05,-0.00037468,-5.883e+08,-51681,0,1.5252e+07,-136.77,11088,11599,1,11599,1,-0.00061362,-3.0297e-08,0,0.00044817,-0.00021912,-2.4954e+08,-7185.6,0,1.5582e+08,1817,11598,12621,1,12621,1,0.0011797,3.407e-08,0,0.0013448,0.00011555,2.6775e+08,9171.8,0,3.3105e+08,9677.4,12620,591.1,0,591.1,0,0.0010351,7.1571e-08,0,0.00055395,0.00019326,2.9553e+08,16867,0,1.4299e+08,6339.6,591.1,1
2044,5.9,12111,1,12111,1,0.00028537,2.5431e-10,0,0.00092139,-5.2175e-05,-521.57,862.89,0,2.5868e+08,7419.1,12110,13208,1,13208,1,0.0020196,2.6399e-07,0,0.0020196,0.00027192,3.5085e+08,56847,0,5.8913e+08,30871,13207,12110,1,12110,1,0.00028514,4.7266e-09,0,0.00089901,-5.235e-05,8.8375e+07,1254.2,0,2.6783e+08,6008.6,12109,11089,1,11089,1,-0.0014485,-3.009e-07,0,3.5605e-05,-0.00037585,-5.8913e+08,-55726,0,1.4715e+07,-301.07,11088,11599,1,11599,1,-0.00061363,-3.3162e-08,0,0.00044924,-0.00021991,-2.4955e+08,-7843.8,0,1.5609e+08,2043.1,11598,12621,1,12621,1,0.001184,3.7221e-08,0,0.001348,0.00011556,2.6783e+08,10117,0,3.3088e+08,10522,12620,591.1,0,591.1,0,0.0010376,7.8362e-08,0,0.0005557,0.00019373,2.9568e+08,18175,0,1.4309e+08,6706.4,591.1,1
2044,5.91,12111,1,12111,1,0.00028757,-2.7785e-09,0,0.00092389,-5.2576e-05,-86.219,161.48,0,2.5881e+08,7821.5,12110,13208,1,13208,1,0.0020261,2.771e-07,0,0.0020261,0.00027232,3.5028e+08,61280,0,5.8999e+08,32983,13207,12110,1,12110,1,0.00028732,1.8771e-09,0,0.00090124,-5.2749e-05,8.8914e+07,528.06,0,2.6793e+08,6274.4,12109,11089,1,11089,1,-0.0014506,-3.1679e-07,0,3.4198e-05,-0.00037706,-5.8999e+08,-58327,0,1.4175e+07,-19.534,11088,11599,1,11599,1,-0.00061367,-3.8763e-08,0,0.00045034,-0.00022072,-2.4957e+08,-9265.5,0,1.5627e+08,2066.1,11598,12621,1,12621,1,0.0011884,3.6004e-08,0,0.0013513,0.00011557,2.6793e+08,9709.9,0,3.3073e+08,11124,12620,591.1,0,591.1,0,0.0010402,8.212e-08,0,0.00055749,0.0001942,2.9584e+08,19256,0,1.432e+08,7136.9,591.1,1
2044,5.92,12111,1,12111,1,0.00028981,-1.4075e-09,0,0.00092641,-5.2985e-05,220.42,505.23,0,2.5892e+08,8353.9,12110,13208,1,13208,1,0.0020327,2.9624e-07,0,0.0020327,0.00027272,3.4968e+08,66227,0,5.9084e+08,34734,13207,12110,1,12110,1,0.00028954,2.6891e-09,0,0.00090348,-5.3154e-05,8.9462e+07,703.49,0,2.6801e+08,6771,12109,11089,1,11089,1,-0.0014527,-3.3644e-07,0,3.2751e-05,-0.00037828,-5.9084e+08,-61622,0,1.3623e+07,-66.551,11088,11599,1,11599,1,-0.00061367,-4.0399e-08,0,0.00045144,-0.00022154,-2.4956e+08,-9734.1,0,1.5643e+08,2198.6,11598,12621,1,12621,1,0.0011929,4.0413e-08,0,0.0013547,0.00011558,2.6801e+08,10836,0,3.3057e+08,11910,12620,591.1,0,591.1,0,0.0010428,8.7908e-08,0,0.0005593,0.00019468,2.9599e+08,20770,0,1.4331e+08,7565.3,591.1,1
2044,5.93,12111,1,12111,1,0.00029206,-3.4103e-09,0,0.00092889,-5.3396e-05,-361.51,2.1991,0,2.5902e+08,9144.8,12110,13208,1,13208,1,0.0020393,3.3273e-07,0,0.0020393,0.0002731,3.4906e+08,68088,0,5.9165e+08,36539,13207,12110,1,12110,1,0.00029178,1.9912e-09,0,0.00090571,-5.356e-05,9.0009e+07,501.83,0,2.6807e+08,7649.3,12109,11089,1,11089,1,-0.0014547,-3.7706e-07,0,3.1279e-05,-0.00037948,-5.9165e+08,-69336,0,1.3063e+07,-143.85,11088,11599,1,11599,1,-0.00061364,-4.6193e-08,0,0.00045253,-0.00022236,-2.4955e+08,-11093,0,1.5659e+08,2605,11598,12621,1,12621,1,0.0011973,4.3127e-08,0,0.001358,0.00011558,2.6807e+08,11632,0,3.3037e+08,13018,12620,591.1,0,591.1,0,0.0010454,9.9126e-08,0,0.00056111,0.00019515,2.9613e+08,22645,0,1.4341e+08,8036,591.1,1
2044,5.94,12111,1,12111,1,0.00029435,-2.0886e-09,0,0.00093147,-5.3813e-05,630.73,364.98,0,2.5914e+08,9605.9,12110,13208,1,13208,1,0.002046,3.5232e-07,0,0.002046,0.00027351,3.4846e+08,74708,0,5.9254e+08,38857,13207,12110,1,12110,1,0.00029405,2.2142e-09,0,0.00090801,-5.3975e-05,9.0566e+07,608.16,0,2.6816e+08,7973.6,12109,11089,1,11089,1,-0.0014568,-3.8873e-07,0,2.9806e-05,-0.00038073,-5.9254e+08,-70756,0,1.2507e+07,-79.814,11088,11599,1,11599,1,-0.00061365,-4.7831e-08,0,0.00045366,-0.00022319,-2.4956e+08,-11534,0,1.5676e+08,2624.9,11598,12621,1,12621,1,0.0012019,4.6434e-08,0,0.0013614,0.00011559,2.6816e+08,12384,0,3.3021e+08,13665,12620,591.1,0,591.1,0,0.001048,1.0313e-07,0,0.00056298,0.00019565,2.9629e+08,23911,0,1.4353e+08,8533.9,591.1,1
2044,5.95,12111,1,12111,1,0.00029668,-6.5727e-09,0,0.00093406,-5.4239e-05,-420.62,-739.83,0,2.5925e+08,10370,12110,13208,1,13208,1,0.0020529,3.7618e-07,0,0.0020529,0.0002739,3.4783e+08,79559,0,5.934e+08,41165,13207,12110,1,12110,1,0.00029637,-2.9193e-09,0,0.00091033,-5.4397e-05,9.1132e+07,-769.15,0,2.6823e+08,8720,12109,11089,1,11089,1,-0.001459,-4.2385e-07,0,2.8283e-05,-0.00038198,-5.934e+08,-76987,0,1.1935e+07,-14.399,11088,11599,1,11599,1,-0.00061364,-5.6533e-08,0,0.0004548,-0.00022404,-2.4955e+08,-13766,0,1.5693e+08,2927.9,11598,12621,1,12621,1,0.0012065,4.5752e-08,0,0.0013648,0.00011559,2.6823e+08,11996,0,3.3001e+08,14752,12620,591.1,0,591.1,0,0.0010507,1.1154e-07,0,0.00056487,0.00019614,2.9644e+08,25767,0,1.4364e+08,9088.1,591.1,1
2044,5.96,12111,1,12111,1,0.00029906,-1.0033e-09,0,0.0009367,-5.4673e-05,76.593,566.98,0,2.5936e+08,11083,12110,13208,1,13208,1,0.0020598,4.1363e-07,0,0.0020598,0.00027431,3.4717e+08,85538,0,5.9427e+08,43576,13207,12110,1,12110,1,0.00029873,3.0502e-09,0,0.00091267,-5.4826e-05,9.1705e+07,797.49,0,2.683e+08,9455.4,12109,11089,1,11089,1,-0.0014611,-4.4988e-07,0,2.6733e-05,-0.00038326,-5.9427e+08,-81217,0,1.1355e+07,-8.448,11088,11599,1,11599,1,-0.00061359,-5.4183e-08,0,0.00045595,-0.0002249,-2.4953e+08,-13272,0,1.571e+08,3109,11598,12621,1,12621,1,0.0012112,5.5644e-08,0,0.0013683,0.00011559,2.683e+08,14628,0,3.2982e+08,15803,12620,591.1,0,591.1,0,0.0010534,1.2044e-07,0,0.00056679,0.00019664,2.9659e+08,27686,0,1.4375e+08,9628.7,591.1,1
2044,5.97,12111,1,12111,1,0.00030149,-4.8991e-09,0,0.00093937,-5.5116e-05,357.1,-353.36,0,2.5946e+08,11857,12110,13208,1,13208,1,0.0020669,4.3704e-07,0,0.0020669,0.00027472,3.4652e+08,91891,0,5.9516e+08,46151,13207,12110,1,12110,1,0.00030113,-1.7087e-10,0,0.00091506,-5.5262e-05,9.2288e+07,-50.57,0,2.6836e+08,10161,12109,11089,1,11089,1,-0.0014633,-4.8602e-07,0,2.5144e-05,-0.00038457,-5.9516e+08,-87395,0,1.0764e+07,12.423,11088,11599,1,11599,1,-0.00061356,-6.3589e-08,0,0.00045711,-0.00022578,-2.4951e+08,-15621,0,1.5726e+08,3327.6,11598,12621,1,12621,1,0.001216,5.6023e-08,0,0.0013718,0.00011559,2.6836e+08,14609,0,3.2962e+08,16961,12620,591.1,0,591.1,0,0.0010561,1.2926e-07,0,0.00056875,0.00019714,2.9673e+08,29858,0,1.4387e+08,10268,591.1,1
2044,5.98,12111,1,12111,1,0.00030395,-3.1086e-09,0,0.00094208,-5.5565e-05,-215.14,65.756,0,2.5956e+08,12811,12110,13208,1,13208,1,0.0020741,4.7931e-07,0,0.0020741,0.00027513,3.4584e+08,99061,0,5.9604e+08,49064,13207,12110,1,12110,1,0.00030358,1.3073e-09,0,0.00091747,-5.5705e-05,9.2877e+07,339.24,0,2.6842e+08,11040,12109,11089,1,11089,1,-0.0014655,-5.2138e-07,0,2.3524e-05,-0.00038589,-5.9604e+08,-93308,0,1.0164e+07,37.414,11088,11599,1,11599,1,-0.00061349,-6.6958e-08,0,0.00045828,-0.00022666,-2.4949e+08,-16403,0,1.5743e+08,3622.1,11598,12621,1,12621,1,0.0012208,6.3549e-08,0,0.0013754,0.00011558,2.6842e+08,16627,0,3.2943e+08,18365,12620,591.1,0,591.1,0,0.0010589,1.4057e-07,0,0.00057074,0.00019766,2.9688e+08,32322,0,1.4398e+08,10951,591.1,1
2044,5.99,12111,1,12111,1,0.00030646,-6.8996e-09,0,0.0009448,-5.6021e-05,45.375,-870.57,0,2.5966e+08,13875,12110,13208,1,13208,1,0.0020813,5.2087e-07,0,0.0020813,0.00027554,3.4516e+08,1.0569e+05,0,5.9693e+08,52103,13207,12110,1,12110,1,0.00030606,-4.3505e-09,0,0.00091991,-5.6155e-05,9.3474e+07,-1088,0,2.6847e+08,12073,12109,11089,1,11089,1,-0.0014676,-5.7038e-07,0,2.1868e-05,-0.00038722,-5.9693e+08,-1.0188e+05,0,9.5533e+06,-103.41,11088,11599,1,11599,1,-0.00061342,-7.6676e-08,0,0.00045947,-0.00022756,-2.4946e+08,-19032,0,1.5759e+08,3964.1,11598,12621,1,12621,1,0.0012257,6.6977e-08,0,0.0013789,0.00011558,2.6847e+08,16870,0,3.2931e+08,19954,12620,591.1,0,591.1,0,0.0010617,1.5376e-07,0,0.00057275,0.00019817,2.9701e+08,35064,0,1.441e+08,11723,591.1,1
2044,6,12111,1,12111,1,0.00030901,-7.5904e-09,0,0.00094759,-5.6486e-05,507.88,-1148.4,0,2.5976e+08,14863,12110,13208,1,13208,1,0.0020887,5.5695e-07,0,0.0020887,0.00027597,3.4446e+08,1.1408e+05,0,5.9784e+08,55677,13207,12110,1,12110,1,0.00030859,-4.7929e-09,0,0.0009224,-5.6614e-05,9.4081e+07,-1293.1,0,2.6853e+08,12997,12109,11089,1,11089,1,-0.0014699,-6.1011e-07,0,2.0183e-05,-0.00038859,-5.9784e+08,-1.0847e+05,0,8.9351e+06,-18.826,11088,11599,1,11599,1,-0.00061334,-8.3602e-08,0,0.00046068,-0.00022847,-2.4942e+08,-20954,0,1.5776e+08,4201,11598,12621,1,12621,1,0.0012308,7.1591e-08,0,0.0013826,0.00011557,2.6853e+08,18254,0,3.2908e+08,21360,12620,591.1,0,591.1,0,0.0010645,1.6488e-07,0,0.00057482,0.0001987,2.9716e+08,37881,0,1.4422e+08,12535,591.1,1
2044,6.01,12111,1,12111,1,0.00031162,-5.0603e-09,0,0.00095041,-5.696e-05,193.96,-594.25,0,2.5985e+08,16121,12110,13208,1,13208,1,0.0020962,6.1494e-07,0,0.0020962,0.00027639,3.4373e+08,1.2316e+05,0,5.9875e+08,59497,13207,12110,1,12110,1,0.00031117,-3.1702e-09,0,0.00092491,-5.708e-05,9.4697e+07,-850.01,0,2.6858e+08,14157,12109,11089,1,11089,1,-0.0014721,-6.5959e-07,0,1.8453e-05,-0.00038997,-5.9875e+08,-1.166e+05,0,8.3027e+06,-85.142,11088,11599,1,11599,1,-0.00061324,-8.8904e-08,0,0.0004619,-0.0002294,-2.4938e+08,-22168,0,1.5792e+08,4574.4,11598,12621,1,12621,1,0.0012358,8.117e-08,0,0.0013863,0.00011556,2.6858e+08,20791,0,3.2885e+08,23293,12620,591.1,0,591.1,0,0.0010674,1.8066e-07,0,0.00057691,0.00019923,2.973e+08,41199,0,1.4434e+08,13435,591.1,1
2044,6.02,12111,1,12111,1,0.00031428,-1.9748e-09,0,0.0009533,-5.7444e-05,-76.926,125.03,0,2.5995e+08,17437,12110,13208,1,13208,1,0.002104,6.7244e-07,0,0.002104,0.00027683,3.43e+08,1.3319e+05,0,5.9969e+08,63657,13207,12110,1,12110,1,0.00031379,9.4179e-10,0,0.00092748,-5.7554e-05,9.5322e+07,263.49,0,2.6863e+08,15466,12109,11089,1,11089,1,-0.0014744,-7.1282e-07,0,1.6686e-05,-0.00039139,-5.9969e+08,-1.2552e+05,0,7.6591e+06,80.444,11088,11599,1,11599,1,-0.00061314,-9.4273e-08,0,0.00046313,-0.00023035,-2.4934e+08,-23224,0,1.5809e+08,5045.4,11598,12621,1,12621,1,0.001241,9.2298e-08,0,0.0013901,0.00011555,2.6863e+08,23520,0,3.2861e+08,25119,12620,591.1,0,591.1,0,0.0010704,1.9717e-07,0,0.00057906,0.00019978,2.9745e+08,44770,0,1.4446e+08,14349,591.1,1
2044,6.03,12111,1,12111,1,0.000317,-5.7442e-09,0,0.00095622,-5.794e-05,653.48,-777.91,0,2.6003e+08,18905,12110,13208,1,13208,1,0.0021118,7.3193e-07,0,0.0021118,0.00027726,3.4225e+08,1.442e+05,0,6.0062e+08,67597,13207,12110,1,12110,1,0.00031648,-5.2054e-09,0,0.00093009,-5.804e-05,9.596e+07,-1342.5,0,2.6867e+08,16934,12109,11089,1,11089,1,-0.0014767,-7.7828e-07,0,1.4863e-05,-0.00039283,-6.0062e+08,-1.3662e+05,0,6.9971e+06,-22.1,11088,11599,1,11599,1,-0.00061302,-1.0793e-07,0,0.00046439,-0.00023131,-2.4929e+08,-26654,0,1.5825e+08,5440.1,11598,12621,1,12621,1,0.0012463,9.9018e-08,0,0.0013939,0.00011554,2.6867e+08,24781,0,3.2837e+08,27451,12620,591.1,0,591.1,0,0.0010734,2.1586e-07,0,0.00058125,0.00020033,2.9758e+08,48858,0,1.4459e+08,15398,591.1,1
2044,6.04,12111,1,12111,1,0.00031978,-2.2014e-09,0,0.00095921,-5.8445e-05,-107.16,62.982,0,2.6012e+08,20474,12110,13208,1,13208,1,0.0021198,7.9988e-07,0,0.0021198,0.0002777,3.4148e+08,1.5664e+05,0,6.0157e+08,72522,13207,12110,1,12110,1,0.00031922,-2.8978e-12,0,0.00093275,-5.8533e-05,9.6606e+07,1.283,0,2.6871e+08,18520,12109,11089,1,11089,1,-0.0014791,-8.4335e-07,0,1.3004e-05,-0.00039431,-6.0157e+08,-1.477e+05,0,6.3242e+06,66.504,11088,11599,1,11599,1,-0.00061289,-1.138e-07,0,0.00046565,-0.00023229,-2.4924e+08,-28066,0,1.5842e+08,5958.7,11598,12621,1,12621,1,0.0012516,1.1296e-07,0,0.0013978,0.00011552,2.6871e+08,28151,0,3.2811e+08,29798,12620,591.1,0,591.1,0,0.0010764,2.3568e-07,0,0.00058349,0.00020089,2.9772e+08,53163,0,1.4471e+08,16514,591.1,1
2044,6.05,12111,1,12111,1,0.00032263,-3.9949e-09,0,0.00096226,-5.8962e-05,-124.03,-351.52,0,2.6021e+08,22155,12110,13208,1,13208,1,0.002128,8.6825e-07,0,0.002128,0.00027815,3.407e+08,1.6934e+05,0,6.0254e+08,77398,13207,12110,1,12110,1,0.00032202,-1.4877e-09,0,0.00093547,-5.9038e-05,9.7267e+07,-389.34,0,2.6874e+08,20294,12109,11089,1,11089,1,-0.0014815,-9.2125e-07,0,1.1089e-05,-0.00039582,-6.0254e+08,-1.6143e+05,0,5.6335e+06,101.45,11088,11599,1,11599,1,-0.00061275,-1.2625e-07,0,0.00046695,-0.00023329,-2.4918e+08,-31376,0,1.5858e+08,6494.6,11598,12621,1,12621,1,0.0012571,1.2262e-07,0,0.0014017,0.00011551,2.6874e+08,30649,0,3.2786e+08,32428,12620,591.1,0,591.1,0,0.0010795,2.5782e-07,0,0.00058579,0.00020147,2.9786e+08,57953,0,1.4485e+08,17687,591.1,1
2044,6.06,12111,1,12111,1,0.00032556,-6.8922e-09,0,0.00096537,-5.9491e-05,346.89,-1053.9,0,2.6029e+08,24130,12110,13208,1,13208,1,0.0021364,9.5049e-07,0,0.0021364,0.00027861,3.399e+08,1.8375e+05,0,6.0352e+08,82536,13207,12110,1,12110,1,0.0003249,-7.1516e-09,0,0.00093825,-5.9555e-05,9.7942e+07,-1976.7,0,2.6877e+08,22166,12109,11089,1,11089,1,-0.0014839,-1.0054e-06,0,9.1152e-06,-0.00039737,-6.0352e+08,-1.7497e+05,0,4.9234e+06,-31.567,11088,11599,1,11599,1,-0.00061258,-1.407e-07,0,0.00046827,-0.00023432,-2.4911e+08,-35425,0,1.5875e+08,7084.7,11598,12621,1,12621,1,0.0012627,1.3141e-07,0,0.0014057,0.00011549,2.6877e+08,32812,0,3.2758e+08,35368,12620,591.1,0,591.1,0,0.0010827,2.8279e-07,0,0.00058814,0.00020206,2.98e+08,63324,0,1.4498e+08,19137,591.1,1
2044,6.07,12111,1,12111,1,0.00032855,-4.7626e-09,0,0.00096855,-6.0033e-05,-364.08,-615.12,0,2.6037e+08,26233,12110,13208,1,13208,1,0.002145,1.0397e-06,0,0.002145,0.00027908,3.3907e+08,2e+05,0,6.0453e+08,88670,13207,12110,1,12110,1,0.00032784,-4.1488e-09,0,0.00094109,-6.0083e-05,9.8629e+07,-1060.6,0,2.6879e+08,24248,12109,11089,1,11089,1,-0.0014863,-1.0939e-06,0,7.0884e-06,-0.00039895,-6.0453e+08,-1.9098e+05,0,4.1952e+06,197.31,11088,11599,1,11599,1,-0.00061241,-1.5238e-07,0,0.0004696,-0.00023537,-2.4904e+08,-38524,0,1.5892e+08,7852.1,11598,12621,1,12621,1,0.0012685,1.4688e-07,0,0.0014098,0.00011547,2.6879e+08,36819,0,3.273e+08,38566,12620,591.1,0,591.1,0,0.001086,3.0975e-07,0,0.00059056,0.00020266,2.9814e+08,69213,0,1.4512e+08,20596,591.1,1
2044,6.08,12111,1,12111,1,0.00033162,-3.4151e-09,0,0.0009718,-6.0589e-05,-250.35,-282.38,0,2.6045e+08,28578,12110,13208,1,13208,1,0.0021539,1.143e-06,0,0.0021539,0.00027955,3.3822e+08,2.1779e+05,0,6.0555e+08,95053,13207,12110,1,12110,1,0.00033085,-1.2127e-09,0,0.00094399,-6.0622e-05,9.9332e+07,-293.28,0,2.6881e+08,26852,12109,11089,1,11089,1,-0.0014889,-1.1979e-06,0,4.9993e-06,-0.00040058,-6.0555e+08,-2.0734e+05,0,3.4454e+06,226.36,11088,11599,1,11599,1,-0.00061222,-1.6684e-07,0,0.00047096,-0.00023644,-2.4896e+08,-41835,0,1.5909e+08,8609.6,11598,12621,1,12621,1,0.0012743,1.6393e-07,0,0.001414,0.00011544,2.6881e+08,40789,0,3.27e+08,42119,12620,591.1,0,591.1,0,0.0010893,3.4119e-07,0,0.00059304,0.00020327,2.9827e+08,75824,0,1.4526e+08,22223,591.1,1
2044,6.09,12111,1,12111,1,0.0003348,-1.8053e-09,0,0.00097514,-6.1162e-05,-314.53,105.52,0,2.6052e+08,31094,12110,13208,1,13208,1,0.002163,1.2486e-06,0,0.002163,0.00028004,3.3735e+08,2.3794e+05,0,6.066e+08,1.0187e+05,13207,12110,1,12110,1,0.00033395,2.4884e-10,0,0.00094698,-6.1176e-05,1.0005e+08,65.086,0,2.6882e+08,29381,12109,11089,1,11089,1,-0.0014914,-1.3091e-06,0,2.8387e-06,-0.00040226,-6.066e+08,-2.2627e+05,0,2.6713e+06,299.98,11088,11599,1,11599,1,-0.00061201,-1.8387e-07,0,0.00047235,-0.00023753,-2.4888e+08,-46146,0,1.5925e+08,9334.8,11598,12621,1,12621,1,0.0012804,1.8432e-07,0,0.0014183,0.00011542,2.6882e+08,45751,0,3.2669e+08,46062,12620,591.1,0,591.1,0,0.0010927,3.7453e-07,0,0.00059559,0.0002039,2.9841e+08,83060,0,1.4541e+08,23990,591.1,1
2044,6.1,12111,1,12111,1,0.00033807,-3.6707e-09,0,0.00097858,-6.1752e-05,-78.717,-264.03,0,2.606e+08,33973,12110,13208,1,13208,1,0.0021724,1.3693e-06,0,0.0021724,0.00028054,3.3647e+08,2.6001e+05,0,6.0767e+08,1.0908e+05,13207,12110,1,12110,1,0.00033713,-1.9001e-09,0,0.00095005,-6.1746e-05,1.0079e+08,-502.83,0,2.6883e+08,32228,12109,11089,1,11089,1,-0.0014941,-1.4395e-06,0,5.9832e-07,-0.00040399,-6.0767e+08,-2.4794e+05,0,1.8697e+06,337.86,11088,11599,1,11599,1,-0.00061179,-2.0535e-07,0,0.00047376,-0.00023866,-2.4879e+08,-51393,0,1.5943e+08,10198,11598,12621,1,12621,1,0.0012866,2.0306e-07,0,0.0014226,0.00011539,2.6883e+08,50355,0,3.2638e+08,50535,12620,591.1,0,591.1,0,0.0010962,4.1326e-07,0,0.00059824,0.00020455,2.9855e+08,91346,0,1.4556e+08,25963,591.1,1
2044,6.11,12111,1,12111,1,0.00034145,-3.2457e-09,0,0.00098219,-6.236e-05,74.413,-99.678,0,2.6067e+08,37183,12110,13208,1,13208,1,0.0021821,1.5096e-06,0,0.0021821,0.00028105,3.3555e+08,2.8484e+05,0,6.0877e+08,1.1688e+05,13207,12110,1,12110,1,0.00034042,-1.2948e-10,0,0.00095182,-6.2331e-05,1.0154e+08,-31.891,0,2.6883e+08,35368,12109,11089,1,11089,1,-0.0014968,-1.5832e-06,0,3e-07,-0.00040578,-6.0877e+08,-2.7184e+05,0,1.0397e+06,339.37,11088,11599,1,11599,1,-0.00061154,-2.2786e-07,0,0.00047646,-0.00023982,-2.4869e+08,-56838,0,1.596e+08,11095,11598,12621,1,12621,1,0.0012929,2.2623e-07,0,0.001429,0.00011536,2.6883e+08,56097,0,3.2604e+08,55632,12620,591.1,0,591.1,0,0.0010998,4.5726e-07,0,0.00060084,0.00020521,2.9869e+08,1.0067e+05,0,1.4572e+08,28161,591.1,1
2044,6.12,12111,1,12111,1,0.00034493,-9.9303e-09,0,0.00098596,-6.2987e-05,42.185,-1658.7,0,2.6073e+08,40804,12110,13208,1,13208,1,0.0021921,1.6664e-06,0,0.0021921,0.00028156,3.3461e+08,3.111e+05,0,6.0987e+08,1.2526e+05,13207,12110,1,12110,1,0.0003438,-1.1425e-08,0,0.00095393,-6.2933e-05,1.0232e+08,-2890.4,0,2.6882e+08,39057,12109,11089,1,11089,1,-0.0014995,-1.7525e-06,0,1.4826e-06,-0.00040761,-6.0987e+08,-2.9759e+05,0,1.7979e+05,145.95,11088,11599,1,11599,1,-0.00061127,-2.5879e-07,0,0.00047846,-0.00024101,-2.4857e+08,-64009,0,1.5977e+08,12208,11598,12621,1,12621,1,0.0012995,2.4684e-07,0,0.001434,0.00011533,2.6882e+08,61068,0,3.257e+08,61333,12620,591.1,0,591.1,0,0.0011035,5.0788e-07,0,0.00060338,0.00020589,2.9882e+08,1.1113e+05,0,1.4588e+08,30575,591.1,1
2044,6.13,12111,1,12111,1,0.00034853,2.0331e-10,0,0.00098989,-6.3633e-05,-105.83,701.74,0,2.6083e+08,44733,12110,13208,1,13208,1,0.0022025,1.8426e-06,0,0.0022025,0.00028211,3.3363e+08,3.4213e+05,0,6.1104e+08,1.3504e+05,13207,12110,1,12110,1,0.00034729,5.4146e-09,0,0.00095701,-6.355e-05,1.0311e+08,1367.9,0,2.6882e+08,42978,12109,11089,1,11089,1,-0.0015024,-1.9215e-06,0,3.6686e-06,-0.00040953,-6.1104e+08,-3.2689e+05,0,1.0635e+05,406.05,11088,11599,1,11599,1,-0.00061099,-2.7903e-07,0,0.00048017,-0.00024224,-2.4846e+08,-68579,0,1.5994e+08,13570,11598,12621,1,12621,1,0.0013062,2.8462e-07,0,0.0014389,0.00011529,2.6882e+08,70009,0,3.2534e+08,67432,12620,591.1,0,591.1,0,0.0011073,5.6219e-07,0,0.00060602,0.0002066,2.9897e+08,1.2255e+05,0,1.46e+08,33231,591.1,1
2044,6.14,12111,1,12111,1,0.00035228,-2.1256e-09,0,0.00099395,-6.4305e-05,34.532,343.79,0,2.6095e+08,49170,12110,13208,1,13208,1,0.0022133,2.0339e-06,0,0.0022133,0.00028266,3.3264e+08,3.77e+05,0,6.1224e+08,1.4475e+05,13207,12110,1,12110,1,0.0003509,2.1268e-09,0,0.00096016,-6.419e-05,1.0393e+08,572.49,0,2.688e+08,47534,12109,11089,1,11089,1,-0.0015053,-2.1242e-06,0,5.9313e-06,-0.00041152,-6.1224e+08,-3.5997e+05,0,4.9118e+05,495.31,11088,11599,1,11599,1,-0.00061069,-3.1539e-07,0,0.00048194,-0.0002435,-2.4833e+08,-76893,0,1.6012e+08,14904,11598,12621,1,12621,1,0.0013132,3.1609e-07,0,0.0014441,0.00011525,2.688e+08,77532,0,3.2467e+08,74910,12620,591.1,0,591.1,0,0.0011112,6.2412e-07,0,0.00060876,0.00020733,2.9911e+08,1.3563e+05,0,1.4607e+08,36238,591.1,1
2044,6.15,12111,1,12111,1,0.00035618,-3.2482e-09,0,0.00099815,-6.5001e-05,10.838,232.64,0,2.6107e+08,54283,12110,13208,1,13208,1,0.0022246,2.256e-06,0,0.0022246,0.00028324,3.316e+08,4.1503e+05,0,6.1347e+08,1.5562e+05,13207,12110,1,12110,1,0.00035464,3.3653e-09,0,0.00096339,-6.4849e-05,1.0478e+08,829.38,0,2.6877e+08,52657,12109,11089,1,11089,1,-0.0015083,-2.3602e-06,0,8.2707e-06,-0.00041359,-6.1347e+08,-3.9778e+05,0,1.3107e+06,542.66,11088,11599,1,11599,1,-0.00061035,-3.5336e-07,0,0.00048378,-0.00024481,-2.482e+08,-86173,0,1.603e+08,16569,11598,12621,1,12621,1,0.0013204,3.527e-07,0,0.0014494,0.00011521,2.6877e+08,86689,0,3.2362e+08,83376,12620,591.1,0,591.1,0,0.0011153,6.9672e-07,0,0.00061161,0.00020808,2.9925e+08,1.5065e+05,0,1.4613e+08,39622,591.1,1
2044,6.16,12111,1,12111,1,0.00036024,-3.9698e-09,0,0.0010025,-6.5726e-05,-115.75,253.41,0,2.612e+08,59899,12110,13208,1,13208,1,0.0022364,2.5069e-06,0,0.0022364,0.00028384,3.3055e+08,4.5931e+05,0,6.1477e+08,1.6694e+05,13207,12110,1,12110,1,0.00035853,2.6084e-09,0,0.00096674,-6.5533e-05,1.0566e+08,659.37,0,2.6875e+08,58736,12109,11089,1,11089,1,-0.0015115,-2.6175e-06,0,1.0684e-05,-0.00041576,-6.1477e+08,-4.3926e+05,0,2.1646e+06,661.01,11088,11599,1,11599,1,-0.00061001,-3.968e-07,0,0.00048571,-0.00024617,-2.4806e+08,-96809,0,1.6049e+08,18428,11598,12621,1,12621,1,0.0013279,3.9677e-07,0,0.0014549,0.00011517,2.6875e+08,97159,0,3.2255e+08,92770,12620,591.1,0,591.1,0,0.0011196,7.7788e-07,0,0.00061459,0.00020887,2.994e+08,1.6753e+05,0,1.4621e+08,43320,591.1,1
2044,6.17,12111,1,12111,1,0.00036449,-5.1579e-09,0,0.0010071,-6.6483e-05,392.93,154.34,0,2.6133e+08,66300,12110,13208,1,13208,1,0.0022487,2.7932e-06,0,0.0022487,0.00028446,3.2945e+08,5.0854e+05,0,6.161e+08,1.7939e+05,13207,12110,1,12110,1,0.00036258,1.2672e-09,0,0.00097016,-6.6244e-05,1.0656e+08,337,0,2.687e+08,65544,12109,11089,1,11089,1,-0.0015148,-2.9163e-06,0,1.3193e-05,-0.00041804,-6.161e+08,-4.8683e+05,0,3.0509e+06,660.6,11088,11599,1,11599,1,-0.00060962,-4.4702e-07,0,0.00048771,-0.00024759,-2.479e+08,-1.0885e+05,0,1.6067e+08,20446,11598,12621,1,12621,1,0.0013357,4.4714e-07,0,0.0014607,0.00011512,2.687e+08,1.0897e+05,0,3.2141e+08,1.0386e+05,12620,591.1,0,591.1,0,0.001124,8.7217e-07,0,0.00061771,0.00020968,2.9954e+08,1.8689e+05,0,1.4628e+08,47538,591.1,1
2044,6.18,12111,1,12111,1,0.00036894,-1.1091e-08,0,0.0010119,-6.7273e-05,-636.83,-1039.6,0,2.6145e+08,73564,12110,13208,1,13208,1,0.0022618,3.1118e-06,0,0.0022618,0.00028511,3.2832e+08,5.6392e+05,0,6.175e+08,1.9306e+05,13207,12110,1,12110,1,0.00036681,-5.8972e-09,0,0.00097373,-6.6982e-05,1.0751e+08,-1520.2,0,2.6865e+08,73018,12109,11089,1,11089,1,-0.0015182,-3.2577e-06,0,1.5781e-05,-0.00042044,-6.175e+08,-5.4284e+05,0,3.9626e+06,809.56,11088,11599,1,11599,1,-0.00060923,-5.0962e-07,0,0.00048983,-0.00024906,-2.4773e+08,-1.2472e+05,0,1.6086e+08,22931,11598,12621,1,12621,1,0.0013439,5.0021e-07,0,0.0014668,0.00011508,2.6865e+08,1.2119e+05,0,3.2023e+08,1.1663e+05,12620,591.1,0,591.1,0,0.0011286,9.7947e-07,0,0.00062098,0.00021054,2.9969e+08,2.0901e+05,0,1.4637e+08,52300,591.1,1
2044,6.19,12111,1,12111,1,0.00037362,-4.8847e-09,0,0.0010168,-6.8103e-05,134.4,503.13,0,2.6157e+08,81813,12110,13208,1,13208,1,0.0022755,3.5013e-06,0,0.0022755,0.00028579,3.2712e+08,6.2828e+05,0,6.1896e+08,2.0789e+05,13207,12110,1,12110,1,0.00037123,2.7579e-09,0,0.00097738,-6.7751e-05,1.0849e+08,723.39,0,2.6859e+08,82119,12109,11089,1,11089,1,-0.0015218,-3.6388e-06,0,1.8483e-05,-0.00042296,-6.1896e+08,-6.0334e+05,0,4.911e+06,969.18,11088,11599,1,11599,1,-0.00060877,-5.74e-07,0,0.00049205,-0.00025059,-2.4754e+08,-1.3947e+05,0,1.6106e+08,25631,11598,12621,1,12621,1,0.0013524,5.7501e-07,0,0.0014731,0.00011502,2.6859e+08,1.3934e+05,0,3.1898e+08,1.3171e+05,12620,591.1,0,591.1,0,0.0011334,1.1052e-06,0,0.00062443,0.00021143,2.9984e+08,2.3457e+05,0,1.4645e+08,57674,591.1,1
2044,6.2,12111,1,12111,1,0.00037854,-8.6657e-09,0,0.0010221,-6.8973e-05,-664.47,-77.392,0,2.6169e+08,91297,12110,13208,1,13208,1,0.00229,3.9315e-06,0,0.00229,0.0002865,3.259e+08,6.9988e+05,0,6.2048e+08,2.2334e+05,13207,12110,1,12110,1,0.00037586,-7.7713e-10,0,0.00098115,-6.8552e-05,1.0951e+08,-175.78,0,2.6851e+08,92594,12109,11089,1,11089,1,-0.0015256,-4.0869e-06,0,2.1265e-05,-0.00042563,-6.2048e+08,-6.7375e+05,0,5.8822e+06,1120.2,11088,11599,1,11599,1,-0.00060828,-6.5428e-07,0,0.00049439,-0.0002522,-2.4734e+08,-1.589e+05,0,1.6115e+08,28920,11598,12621,1,12621,1,0.0013613,6.5089e-07,0,0.0014797,0.00011496,2.6851e+08,1.5758e+05,0,3.1767e+08,1.4837e+05,12620,591.1,0,591.1,0,0.0011385,1.2508e-06,0,0.00062806,0.00021236,2.9999e+08,2.6384e+05,0,1.4655e+08,63820,591.1,1
2044,6.21,12111,1,12111,1,0.00038374,-9.8022e-09,0,0.0010275,-6.9889e-05,-92.497,-62.365,0,2.6181e+08,1.0201e+05,12110,13208,1,13208,1,0.0023055,4.4291e-06,0,0.0023055,0.00028725,3.2462e+08,7.8207e+05,0,6.2209e+08,2.3996e+05,13207,12110,1,12110,1,0.00038071,-1.3334e-10,0,0.00098504,-6.9389e-05,1.1058e+08,-52.08,0,2.6843e+08,1.0298e+05,12109,11089,1,11089,1,-0.0015295,-4.5959e-06,0,2.4159e-05,-0.00042848,-6.2209e+08,-7.5409e+05,0,6.8863e+06,1245.5,11088,11599,1,11599,1,-0.00060775,-7.4776e-07,0,0.00049687,-0.00025387,-2.4712e+08,-1.8113e+05,0,1.611e+08,32795,11598,12621,1,12621,1,0.0013706,7.4264e-07,0,0.0014867,0.0001149,2.6843e+08,1.7943e+05,0,3.163e+08,1.6759e+05,12620,591.1,0,591.1,0,0.0011438,1.4187e-06,0,0.0006319,0.00021335,3.0014e+08,2.976e+05,0,1.4665e+08,70811,591.1,1
2044,6.22,12111,1,12111,1,0.00038924,-6.4351e-09,0,0.0010333,-7.0856e-05,-241.93,1009.9,0,2.6192e+08,1.1418e+05,12110,13208,1,13208,1,0.0023219,5.0049e-06,0,0.0023219,0.00028804,3.2329e+08,8.7848e+05,0,6.2379e+08,2.5778e+05,13207,12110,1,12110,1,0.00038581,7.3229e-09,0,0.00098905,-7.0263e-05,1.1169e+08,1757.1,0,2.6832e+08,1.1437e+05,12109,11089,1,11089,1,-0.0015337,-5.1758e-06,0,2.7159e-05,-0.00043151,-6.2379e+08,-8.4635e+05,0,7.9197e+06,1376.4,11088,11599,1,11599,1,-0.00060717,-8.5613e-07,0,0.0004995,-0.00025563,-2.4688e+08,-2.0584e+05,0,1.611e+08,37102,11598,12621,1,12621,1,0.0013804,8.621e-07,0,0.001494,0.00011483,2.6832e+08,2.0714e+05,0,3.1485e+08,1.8972e+05,12620,591.1,0,591.1,0,0.0011494,1.6147e-06,0,0.00063597,0.00021438,3.003e+08,3.3675e+05,0,1.4676e+08,78789,591.1,1
2044,6.23,12111,1,12111,1,0.00039507,-1.6897e-08,0,0.0010394,-7.188e-05,-167.5,-921.42,0,2.6204e+08,1.2844e+05,12110,13208,1,13208,1,0.0023396,5.6705e-06,0,0.0023396,0.00028887,3.2194e+08,9.8434e+05,0,6.2558e+08,2.758e+05,13207,12110,1,12110,1,0.00039119,-6.0956e-09,0,0.00099321,-7.1181e-05,1.1286e+08,-1536.5,0,2.682e+08,1.2922e+05,12109,11089,1,11089,1,-0.0015381,-5.8749e-06,0,3.0258e-05,-0.00043475,-6.2558e+08,-9.525e+05,0,8.9777e+06,1624.2,11088,11599,1,11599,1,-0.00060656,-9.8966e-07,0,0.00050231,-0.00025748,-2.4663e+08,-2.3887e+05,0,1.6124e+08,42455,11598,12621,1,12621,1,0.0013907,9.8134e-07,0,0.0015019,0.00011476,2.682e+08,2.3537e+05,0,3.1333e+08,2.1411e+05,12620,591.1,0,591.1,0,0.0011553,1.8471e-06,0,0.00064031,0.00021547,3.0046e+08,3.8247e+05,0,1.4689e+08,88128,591.1,1
2044,6.24,12111,1,12111,1,0.0004013,-1.3815e-08,0,0.001046,-7.297e-05,5.2638,119.48,0,2.6215e+08,1.4462e+05,12110,13208,1,13208,1,0.0023587,6.4471e-06,0,0.0023587,0.00028977,3.205e+08,1.1104e+06,0,6.2751e+08,2.9501e+05,13207,12110,1,12110,1,0.00039689,1.146e-09,0,0.00099752,-7.2148e-05,1.1409e+08,301.31,0,2.6806e+08,1.4553e+05,12109,11089,1,11089,1,-0.0015429,-6.6548e-06,0,3.3497e-05,-0.00043826,-6.2751e+08,-1.0752e+06,0,1.0072e+07,1982.4,11088,11599,1,11599,1,-0.00060587,-1.1401e-06,0,0.00050534,-0.00025943,-2.4635e+08,-2.7499e+05,0,1.6137e+08,47643,11598,12621,1,12621,1,0.0014016,1.1353e-06,0,0.0015102,0.00011468,2.6806e+08,2.7378e+05,0,3.1171e+08,2.4288e+05,12620,591.1,0,591.1,0,0.0011616,2.1177e-06,0,0.00064495,0.00021664,3.0062e+08,4.3569e+05,0,1.4703e+08,98894,591.1,1
2044,6.25,12111,1,12111,1,0.00040795,-1.9687e-08,0,0.0010529,-7.413e-05,-219.27,-696.79,0,2.6226e+08,1.6347e+05,12110,13208,1,13208,1,0.0023793,7.3531e-06,0,0.0023793,0.00029073,3.1903e+08,1.2548e+06,0,6.2957e+08,3.2288e+05,13207,12110,1,12110,1,0.00040293,-4.056e-09,0,0.001002,-7.3168e-05,1.1539e+08,-899.18,0,2.679e+08,1.6532e+05,12109,11089,1,11089,1,-0.0015479,-7.5788e-06,0,3.6852e-05,-0.00044206,-6.2957e+08,-1.2178e+06,0,1.1193e+07,2312.1,11088,11599,1,11599,1,-0.00060513,-1.3269e-06,0,0.00050859,-0.0002615,-2.4604e+08,-3.1912e+05,0,1.615e+08,52717,11598,12621,1,12621,1,0.0014132,1.3206e-06,0,0.0015191,0.0001146,2.679e+08,3.1605e+05,0,3.0999e+08,2.7423e+05,12620,591.1,0,591.1,0,0.0011683,2.4401e-06,0,0.00064993,0.00021787,3.0079e+08,4.9844e+05,0,1.4718e+08,1.1157e+05,591.1,1
2044,6.26,12111,1,12111,1,0.00041512,-1.6999e-08,0,0.0010603,-7.5374e-05,129.38,287.35,0,2.6235e+08,1.852e+05,12110,13208,1,13208,1,0.0024018,8.4169e-06,0,0.0024018,0.00029175,3.1746e+08,1.4227e+06,0,6.3177e+08,3.6966e+05,13207,12110,1,12110,1,0.00040936,2.3072e-09,0,0.0010065,-7.4245e-05,1.1676e+08,630.82,0,2.677e+08,1.8728e+05,12109,11089,1,11089,1,-0.0015533,-8.6508e-06,0,4.0346e-05,-0.00044619,-6.3177e+08,-1.3815e+06,0,1.2344e+07,2534.8,11088,11599,1,11599,1,-0.00060428,-1.5432e-06,0,0.00051212,-0.00026369,-2.4569e+08,-3.7149e+05,0,1.6162e+08,57376,11598,12621,1,12621,1,0.0014255,1.5409e-06,0,0.0015287,0.00011448,2.677e+08,3.7027e+05,0,3.0814e+08,3.0543e+05,12620,591.1,0,591.1,0,0.0011755,2.8232e-06,0,0.0006553,0.00021919,3.0095e+08,5.7228e+05,0,1.4734e+08,1.2654e+05,591.1,1
2044,6.27,12111,1,12111,1,0.00042283,-2.1322e-08,0,0.0010682,-7.6709e-05,231.61,14.34,0,2.6245e+08,2.1049e+05,12110,13208,1,13208,1,0.0024264,9.6588e-06,0,0.0024264,0.00029287,3.1587e+08,1.6153e+06,0,6.3416e+08,4.3491e+05,13207,12110,1,12110,1,0.00041622,6.0436e-10,0,0.0010113,-7.5388e-05,1.1821e+08,215.92,0,2.6748e+08,2.1677e+05,12109,11089,1,11089,1,-0.0015592,-9.9146e-06,0,4.3947e-05,-0.00045073,-6.3416e+08,-1.5736e+06,0,1.3514e+07,2555.6,11088,11599,1,11599,1,-0.00060338,-1.8139e-06,0,0.00051597,-0.00026602,-2.4532e+08,-4.3282e+05,0,1.6172e+08,64897,11598,12621,1,12621,1,0.0014386,1.8085e-06,0,0.0015392,0.00011435,2.6748e+08,4.3132e+05,0,3.0618e+08,3.5126e+05,12620,591.1,0,591.1,0,0.0011832,3.2828e-06,0,0.00066111,0.0002206,3.0113e+08,6.5995e+05,0,1.4753e+08,1.4445e+05,591.1,1
2044,6.28,12111,1,12111,1,0.00043119,-2.4829e-08,0,0.0010768,-7.8151e-05,-92.636,-102.11,0,2.6252e+08,2.3981e+05,12110,13208,1,13208,1,0.0024537,1.1126e-05,0,0.0024537,0.00029408,3.142e+08,1.841e+06,0,6.3676e+08,5.1594e+05,13207,12110,1,12110,1,0.00042357,-5.5763e-10,0,0.0010161,-7.6605e-05,1.1976e+08,-258.1,0,2.6721e+08,2.445e+05,12109,11089,1,11089,1,-0.0015656,-1.1383e-05,0,4.7682e-05,-0.00045575,-6.3676e+08,-1.7978e+06,0,1.4708e+07,2697,11088,11599,1,11599,1,-0.00060237,-2.1301e-06,0,0.00052019,-0.00026851,-2.449e+08,-5.1032e+05,0,1.6181e+08,76090,11598,12621,1,12621,1,0.0014526,2.1346e-06,0,0.0015532,0.00011419,2.6721e+08,5.0753e+05,0,3.0407e+08,3.8848e+05,12620,591.1,0,591.1,0,0.0011914,3.8348e-06,0,0.00066744,0.00022213,3.013e+08,7.6431e+05,0,1.4775e+08,1.6606e+05,591.1,1
2044,6.29,12111,1,12111,1,0.00044027,-2.4972e-08,0,0.0010861,-7.9712e-05,610.84,722.91,0,2.6259e+08,2.7379e+05,12110,13208,1,13208,1,0.002484,1.2853e-05,0,0.002484,0.00029541,3.1245e+08,2.1031e+06,0,6.396e+08,6.1631e+05,13207,12110,1,12110,1,0.00043147,3.9863e-09,0,0.0010231,-7.7904e-05,1.214e+08,440.56,0,2.669e+08,2.6807e+05,12109,11089,1,11089,1,-0.0015726,-1.3105e-05,0,5.1533e-05,-0.00046133,-6.396e+08,-2.0576e+06,0,1.5921e+07,2572,11088,11599,1,11599,1,-0.00060122,-2.5146e-06,0,0.00052401,-0.00027116,-2.4443e+08,-5.9983e+05,0,1.6187e+08,88638,11598,12621,1,12621,1,0.0014676,2.5258e-06,0,0.001564,0.000114,2.669e+08,6.0173e+05,0,3.0178e+08,4.4314e+05,12620,591.1,0,591.1,0,0.0012004,4.5029e-06,0,0.00067435,0.00022377,3.0147e+08,8.8918e+05,0,1.4798e+08,1.9256e+05,591.1,1
2044,6.3,12111,1,12111,1,0.00045019,-3.6515e-08,0,0.0010961,-8.1408e-05,-577.92,-689.73,0,2.6264e+08,3.1341e+05,12110,13208,1,13208,1,0.0025181,1.4873e-05,0,0.0025181,0.00029688,3.1069e+08,2.4066e+06,0,6.4276e+08,7.4216e+05,13207,12110,1,12110,1,0.00044,-5.4116e-09,0,0.001036,-7.9302e-05,1.2317e+08,-1921.9,0,2.6654e+08,3.0225e+05,12109,11089,1,11089,1,-0.0015804,-1.5125e-05,0,5.5474e-05,-0.0004676,-6.4276e+08,-2.3632e+06,0,1.7143e+07,2713.1,11088,11599,1,11599,1,-0.00059998,-3.019e-06,0,0.00052336,-0.00027402,-2.4392e+08,-7.1166e+05,0,1.6191e+08,1.0033e+05,11598,12621,1,12621,1,0.0014839,2.9959e-06,0,0.0015739,0.00011377,2.6654e+08,7.1133e+05,0,2.9932e+08,5.0403e+05,12620,591.1,0,591.1,0,0.0012101,5.3159e-06,0,0.00068196,0.00022556,3.0165e+08,1.0393e+06,0,1.4825e+08,2.2577e+05,591.1,1
2044,6.31,12111,1,12111,1,0.00046112,-3.5039e-08,0,0.0011071,-8.3268e-05,-1014.7,649.45,0,2.6267e+08,3.5905e+05,12110,13208,1,13208,1,0.0025568,1.7248e-05,0,0.0025568,0.00029851,3.0882e+08,2.7575e+06,0,6.4625e+08,9.0039e+05,13207,12110,1,12110,1,0.00044927,-2.4266e-09,0,0.0010499,-8.0814e-05,1.2506e+08,-1036.3,0,2.661e+08,3.3373e+05,12109,11089,1,11089,1,-0.001589,-1.7473e-05,0,5.9537e-05,-0.00047472,-6.4625e+08,-2.7153e+06,0,1.8384e+07,2444.9,11088,11599,1,11599,1,-0.00059854,-3.6148e-06,0,0.00052261,-0.00027711,-2.4332e+08,-8.4942e+05,0,1.6191e+08,1.0948e+05,11598,12621,1,12621,1,0.0015014,3.5996e-06,0,0.0015837,0.00011348,2.661e+08,8.4791e+05,0,2.9662e+08,5.7131e+05,12620,591.1,0,591.1,0,0.0012207,6.309e-06,0,0.0006904,0.00022752,3.0183e+08,1.2201e+06,0,1.4856e+08,2.6786e+05,591.1,1
2044,6.32,12111,1,12111,1,0.0004732,-5.0746e-08,0,0.0011192,-8.532e-05,1661,-1284.2,0,2.6268e+08,4.1137e+05,12110,13208,1,13208,1,0.0026013,2.0006e-05,0,0.0026013,0.00030036,3.0694e+08,3.1615e+06,0,6.502e+08,1.1014e+06,13207,12110,1,12110,1,0.00045944,-1.3223e-08,0,0.0010652,-8.2472e-05,1.2713e+08,-3880.6,0,2.6558e+08,3.5064e+05,12109,11089,1,11089,1,-0.0015987,-2.0205e-05,0,5.0896e-05,-0.0004829,-6.502e+08,-3.1261e+06,0,1.9632e+07,1898.2,11088,11599,1,11599,1,-0.00059693,-4.3442e-06,0,0.00052178,-0.00028049,-2.4266e+08,-1.0181e+06,0,1.6187e+08,1.1446e+05,11598,12621,1,12621,1,0.0015207,4.345e-06,0,0.001594,0.00011312,2.6558e+08,1.0148e+06,0,2.9262e+08,6.6816e+05,12620,591.1,0,591.1,0,0.0012325,7.5307e-06,0,0.00069982,0.00022967,3.0201e+08,1.4394e+06,0,1.4892e+08,3.2268e+05,591.1,1
2044,6.33,12111,1,12111,1,0.00048671,-4.1904e-08,0,0.0011327,-8.7605e-05,148.02,1461,0,2.6264e+08,4.7209e+05,12110,13208,1,13208,1,0.0026531,2.3297e-05,0,0.0026531,0.00030245,3.0494e+08,3.6242e+06,0,6.5468e+08,1.3614e+06,13207,12110,1,12110,1,0.0004707,-2.1177e-09,0,0.0010821,-8.43e-05,1.2937e+08,-564.18,0,2.6495e+08,3.7324e+05,12109,11089,1,11089,1,-0.0016097,-2.3326e-05,0,4.0695e-05,-0.00049244,-6.5468e+08,-3.6035e+06,0,1.6747e+07,970.82,11088,11599,1,11599,1,-0.00059504,-5.3664e-06,0,0.00052058,-0.00028419,-2.4188e+08,-1.2272e+06,0,1.6273e+08,1.2043e+05,11598,12621,1,12621,1,0.0015419,5.327e-06,0,0.0016051,0.00011274,2.6495e+08,1.2169e+06,0,2.8844e+08,7.743e+05,12620,591.1,0,591.1,0,0.0012455,9.0497e-06,0,0.00071046,0.00023206,3.0218e+08,1.7069e+06,0,1.4933e+08,3.9565e+05,591.1,1
2044,6.34,12111,1,12111,1,0.00050193,-5.732e-08,0,0.0011477,-9.0181e-05,-440.19,164.27,0,2.6256e+08,5.391e+05,12110,13208,1,13208,1,0.0027143,2.7009e-05,0,0.0027143,0.00030486,3.0291e+08,4.1446e+06,0,6.5983e+08,1.6978e+06,13207,12110,1,12110,1,0.00048331,-2.3307e-08,0,0.0011009,-8.6356e-05,1.3185e+08,-5451.8,0,2.6417e+08,3.8563e+05,12109,11089,1,11089,1,-0.0016223,-2.7071e-05,0,2.8735e-05,-0.00050371,-6.5983e+08,-4.1351e+06,0,1.2289e+07,-20029,11088,11599,1,11599,1,-0.00059284,-6.5844e-06,0,0.00051937,-0.00028945,-2.4098e+08,-1.4991e+06,0,1.6499e+08,1.0158e+05,11598,12621,1,12621,1,0.0015788,6.5988e-06,0,0.0016178,0.00011235,2.6417e+08,1.4968e+06,0,2.8402e+08,8.9195e+05,12620,591.1,0,591.1,0,0.0012601,1.0932e-05,0,0.0007226,0.00023474,3.0235e+08,2.0317e+06,0,1.4982e+08,4.9506e+05,591.1,1
2044,6.35,12111,1,12111,1,0.00051928,-6.1605e-08,0,0.0011647,-9.3111e-05,-200.66,962.14,0,2.6242e+08,6.1474e+05,12110,13208,1,13208,1,0.0027883,3.192e-05,0,0.0027883,0.00030767,3.008e+08,4.7794e+06,0,6.6585e+08,2.1409e+06,13207,12110,1,12110,1,0.00049766,-2.6009e-08,0,0.001121,-8.8686e-05,1.3462e+08,-6017.8,0,2.6239e+08,4.0212e+05,12109,11089,1,11089,1,-0.0016372,-3.1963e-05,0,1.4515e-05,-0.00051732,-6.6585e+08,-4.7717e+06,0,7.2177e+06,-2.4591e+05,11088,11599,1,11599,1,-0.00059022,-8.1775e-06,0,0.00051918,-0.00029634,-2.399e+08,-1.8015e+06,0,1.675e+08,69197,11598,12621,1,12621,1,0.0016191,8.1201e-06,0,0.0016314,0.00011189,2.6239e+08,1.7986e+06,0,2.8007e+08,1.0657e+06,12620,591.1,0,591.1,0,0.0012767,1.331e-05,0,0.0007367,0.00023777,3.0251e+08,2.4321e+06,0,1.5039e+08,6.324e+05,591.1,1
2044,6.36,12111,1,12111,1,0.00053935,-8.1364e-08,0,0.0011842,-9.6488e-05,323.83,-1029.5,0,2.6219e+08,6.9778e+05,12110,13208,1,13208,1,0.0028795,3.843e-05,0,0.0028795,0.00031102,2.9859e+08,5.592e+06,0,6.7299e+08,2.7286e+06,13207,12110,1,12110,1,0.00051434,-5.6958e-08,0,0.0011321,-9.1342e-05,1.3776e+08,-10960,0,2.6011e+08,3.9681e+05,12109,11089,1,11089,1,-0.0016547,-3.8508e-05,0,2.6025e-06,-0.00053412,-6.7299e+08,-5.5839e+06,0,1.1524e+06,-5.9252e+05,11088,11599,1,11599,1,-0.00058705,-9.988e-06,0,0.00052026,-0.00030412,-2.386e+08,-2.1991e+06,0,1.7035e+08,26579,11598,12621,1,12621,1,0.0016602,9.9401e-06,0,0.0016603,0.00011134,2.6009e+08,2.196e+06,0,2.7581e+08,1.2394e+06,12620,591.1,0,591.1,0,0.0012958,1.6347e-05,0,0.00075329,0.00024125,3.0265e+08,2.9285e+06,0,1.5109e+08,8.2557e+05,591.1,1
2044,6.37,12111,1,12111,1,0.00056298,-8.0376e-08,0,0.0012074,-0.0001004,-203.95,1090.3,0,2.6196e+08,7.8937e+05,12110,13208,1,13208,1,0.0029955,4.7363e-05,0,0.0029955,0.0003151,2.9618e+08,6.6626e+06,0,6.8169e+08,3.5355e+06,13207,12110,1,12110,1,0.0005372,-6.5698e-08,0,0.0011404,-9.4112e-05,1.414e+08,-11917,0,2.5642e+08,3.8205e+05,12109,11089,1,11089,1,-0.0016761,-4.7408e-05,0,9.712e-06,-0.00055549,-6.8169e+08,-6.6527e+06,0,2.4665e+06,-1.0605e+06,11088,11599,1,11599,1,-0.00058316,-1.2384e-05,0,0.0005372,-0.00031194,-2.37e+08,-2.7563e+06,0,1.7369e+08,6303.2,11598,12621,1,12621,1,0.0017067,1.2284e-05,0,0.0017071,0.0001107,2.5639e+08,2.7449e+06,0,2.7207e+08,1.4709e+06,12620,591.1,0,591.1,0,0.0013184,2.0301e-05,0,0.00077277,0.00024532,3.0279e+08,3.5543e+06,0,1.5178e+08,1.0981e+06,591.1,1
2044,6.38,12111,1,12111,1,0.00059144,-1.0156e-07,0,0.0012354,-0.00010502,-1187.8,-94.89,0,2.6172e+08,8.8971e+05,12110,13208,1,13208,1,0.0031479,5.9958e-05,0,0.0031479,0.00032019,2.9358e+08,8.1026e+06,0,6.9255e+08,4.6717e+06,13207,12110,1,12110,1,0.00057483,-9.6161e-08,0,0.0011506,-9.7212e-05,1.4742e+08,-17595,0,2.5252e+08,3.568e+05,12109,11089,1,11089,1,-0.0017028,-6.0067e-05,0,1.4281e-05,-0.00058355,-6.9255e+08,-8.0848e+06,0,3.9896e+06,-1.6817e+06,11088,11599,1,11599,1,-0.00057827,-1.5588e-05,0,0.00057483,-0.00031981,-2.3498e+08,-3.4628e+06,0,1.7993e+08,-45668,11598,12621,1,12621,1,0.0017421,1.5477e-05,0,0.0017429,0.00011,2.5246e+08,3.4636e+06,0,2.6831e+08,1.8103e+06,12620,591.1,0,591.1,0,0.0013458,2.5593e-05,0,0.00079687,0.00025018,3.0292e+08,4.3557e+06,0,1.5249e+08,1.4872e+06,591.1,1
2044,6.39,12111,1,12111,1,0.00062695,-1.0874e-07,0,0.00127,-0.00011069,-661.71,331.09,0,2.613e+08,9.9615e+05,12110,13208,1,13208,1,0.0033569,7.8411e-05,0,0.0033569,0.00032674,2.904e+08,1.0059e+07,0,7.0649e+08,6.3007e+06,13207,12110,1,12110,1,0.00061654,-1.3982e-07,0,0.0011744,-0.0001008,1.5491e+08,-25150,0,2.481e+08,2.8304e+05,12109,11089,1,11089,1,-0.0017371,-7.85e-05,0,1.7848e-05,-0.00062207,-7.0649e+08,-1.0043e+07,0,5.2922e+06,-2.4621e+06,11088,11599,1,11599,1,-0.00057168,-2.0313e-05,0,0.00061658,-0.00032635,-2.3225e+08,-4.4198e+06,0,1.8629e+08,-2.4957e+05,11598,12621,1,12621,1,0.0017865,1.9995e-05,0,0.0017865,0.00010936,2.4808e+08,4.4094e+06,0,2.6476e+08,2.1826e+06,12620,591.1,0,591.1,0,0.0013805,3.2887e-05,0,0.00082847,0.00025619,3.0301e+08,5.3974e+06,0,1.534e+08,2.0475e+06,591.1,1
2044,6.4,12111,1,12111,1,0.00067297,-1.0642e-07,0,0.0013146,-0.00011783,-1017.9,1434.9,0,2.6062e+08,1.1167e+06,12110,13208,1,13208,1,0.0036607,0.00010713,0,0.0036607,0.00033554,2.8658e+08,1.2826e+07,0,7.252e+08,8.7116e+06,13207,12110,1,12110,1,0.00066091,-2.0839e-07,0,0.0011973,-0.00010575,1.629e+08,-36425,0,2.4414e+08,2.0872e+05,12109,11089,1,11089,1,-0.0017832,-0.00010709,0,2.0668e-05,-0.00067809,-7.252e+08,-1.2822e+07,0,6.3875e+06,-3.5022e+06,11088,11599,1,11599,1,-0.00056258,-2.6236e-05,0,0.00063164,-0.00033221,-2.2844e+08,-5.6657e+06,0,1.8232e+08,-6.5184e+05,11598,12621,1,12621,1,0.0018601,2.6008e-05,0,0.001862,0.00010872,2.4401e+08,5.6684e+06,0,2.6134e+08,2.6726e+06,12620,591.1,0,591.1,0,0.0014268,4.3575e-05,0,0.00087281,0.00026397,3.0309e+08,6.8105e+06,0,1.5478e+08,2.8695e+06,591.1,1
2044,6.41,12111,1,12111,1,0.00073594,-1.2449e-07,0,0.0013749,-0.00012712,-3450.7,2887.1,0,2.5943e+08,1.2469e+06,12110,13208,1,13208,1,0.004137,0.00015446,0,0.004137,0.00034791,2.8154e+08,1.6896e+07,0,7.5143e+08,1.2415e+07,13207,12110,1,12110,1,0.00070454,-3.0885e-07,0,0.0012361,-0.00011316,1.7233e+08,-54415,0,2.3994e+08,1.0246e+05,12109,11089,1,11089,1,-0.0018477,-0.00015454,0,3.9438e-06,-0.00076601,-7.5143e+08,-1.6883e+07,0,4.9377e+05,-5.0349e+06,11088,11599,1,11599,1,-0.00054894,-3.4271e-05,0,0.00062257,-0.00034588,-2.227e+08,-7.4075e+06,0,1.8356e+08,-1.36e+06,11598,12621,1,12621,1,0.0019341,3.3862e-05,0,0.0019346,0.00010802,2.3981e+08,7.3998e+06,0,2.5894e+08,3.3699e+06,12620,591.1,0,591.1,0,0.0014933,6.0233e-05,0,0.00094031,0.00027458,3.0313e+08,8.7811e+06,0,1.5694e+08,4.1142e+06,591.1,1
2044,6.42,12111,1,12111,1,0.00082832,-1.5747e-07,0,0.0014642,-0.00013955,-1940.7,-43.515,0,2.5779e+08,1.394e+06,12110,13208,1,13208,1,0.0049695,0.0002446,0,0.0049695,0.0003665,2.7452e+08,2.3337e+07,0,7.9077e+08,1.8452e+07,13207,12110,1,12110,1,0.00077878,-5.3181e-07,0,0.0012712,-0.0001298,1.7107e+08,-85941,0,2.3408e+08,-35975,12109,11089,1,11089,1,-0.0019445,-0.00024486,0,2.3278e-05,-0.00091989,-7.9077e+08,-2.3328e+07,0,7.7401e+06,-7.5886e+06,11088,11599,1,11599,1,-0.00052694,-4.7053e-05,0,0.00061696,-0.00035523,-2.1336e+08,-9.7875e+06,0,1.7541e+08,-2.5516e+06,11598,12621,1,12621,1,0.002021,4.6696e-05,0,0.0020259,0.00010578,2.3436e+08,9.8964e+06,0,2.6025e+08,4.0809e+06,12620,591.1,0,591.1,0,0.0016,8.9078e-05,0,0.0010533,0.00029025,3.0319e+08,1.169e+07,0,1.599e+08,6.0832e+06,591.1,1
2044,6.43,12111,1,12111,1,0.00097728,-1.5343e-07,0,0.001608,-0.00015633,-26.959,2871.3,0,2.5485e+08,1.5649e+06,12110,13208,1,13208,1,0.0066753,0.00044523,0,0.0066753,0.00039674,2.8533e+08,3.4199e+07,0,8.5451e+08,2.8611e+07,13207,12110,1,12110,1,0.0008656,-2.0146e-07,0,0.0013375,-0.00015018,1.5728e+08,-30071,0,2.2531e+08,-1.4853e+05,12109,11089,1,11089,1,-0.0021014,-0.00044544,0,6.9875e-06,-0.001235,-8.5451e+08,-3.4179e+07,0,1.8467e+06,-1.2024e+07,11088,11599,1,11599,1,-0.00048612,-6.8624e-05,0,0.00069244,-0.00035743,-1.9595e+08,-1.2949e+07,0,1.6339e+08,-4.8509e+06,11598,12621,1,12621,1,0.0021194,6.8524e-05,0,0.0021258,9.6151e-05,2.2661e+08,1.3003e+07,0,2.6664e+08,5.4408e+06,12620,591.1,0,591.1,0,0.0018003,0.00014645,0,0.0012771,0.00031594,3.0343e+08,1.6198e+07,0,1.6537e+08,9.3171e+06,591.1,1
2044,6.44,12111,1,12111,1,0.0012449,-1.5589e-07,0,0.0018694,-0.00017476,-9.1195,4339,0,2.4936e+08,1.76e+06,12110,13208,1,13208,1,0.011108,0.0010038,0,0.011108,0.00044942,3.1793e+08,5.3063e+07,0,9.648e+08,4.5399e+07,13207,12110,1,12110,1,0.0009945,-5.524e-07,0,0.0013921,-0.00016802,1.4153e+08,-88371,0,2.125e+08,-6.748e+05,12109,11089,1,11089,1,-0.0023729,-0.0010037,0,2.2689e-05,-0.0020456,-9.648e+08,-5.3014e+07,0,7.9877e+06,-1.9959e+07,11088,11599,1,11599,1,-0.000395,-0.00010257,0,0.00071483,-0.00034779,-1.6018e+08,-1.7516e+07,0,1.466e+08,-8.3064e+06,11598,12621,1,12621,1,0.0021668,0.00010343,0,0.0022294,8.4825e-05,2.1469e+08,1.7573e+07,0,2.8325e+08,7.1263e+06,12620,591.1,0,591.1,0,0.002268,0.00028416,0,0.0018107,0.00036239,3.0385e+08,2.3336e+07,0,1.7509e+08,1.4641e+07,591.1,1
