"N","Time","avg(GlobalElementId)","avg(ObjectId)","avg(PedigreeElementId)","avg(alpha)","avg(strain_x (0))","avg(strain_x (1))","avg(strain_x (2))","avg(strain_x (Magnitude))","avg(strain_yy)","avg(stress_x (0))","avg(stress_x (1))","avg(stress_x (2))","avg(stress_x (Magnitude))","avg(stress_yy)","avg(vtkOriginalCellIds)","max(GlobalElementId)","max(ObjectId)","max(PedigreeElementId)","max(alpha)","max(strain_x (0))","max(strain_x (1))","max(strain_x (2))","max(strain_x (Magnitude))","max(strain_yy)","max(stress_x (0))","max(stress_x (1))","max(stress_x (2))","max(stress_x (Magnitude))","max(stress_yy)","max(vtkOriginalCellIds)","med(GlobalElementId)","med(ObjectId)","med(PedigreeElementId)","med(alpha)","med(strain_x (0))","med(strain_x (1))","med(strain_x (2))","med(strain_x (Magnitude))","med(strain_yy)","med(stress_x (0))","med(stress_x (1))","med(stress_x (2))","med(stress_x (Magnitude))","med(stress_yy)","med(vtkOriginalCellIds)","min(GlobalElementId)","min(ObjectId)","min(PedigreeElementId)","min(alpha)","min(strain_x (0))","min(strain_x (1))","min(strain_x (2))","min(strain_x (Magnitude))","min(strain_yy)","min(stress_x (0))","min(stress_x (1))","min(stress_x (2))","min(stress_x (Magnitude))","min(stress_yy)","min(vtkOriginalCellIds)","q1(GlobalElementId)","q1(ObjectId)","q1(PedigreeElementId)","q1(alpha)","q1(strain_x (0))","q1(strain_x (1))","q1(strain_x (2))","q1(strain_x (Magnitude))","q1(strain_yy)","q1(stress_x (0))","q1(stress_x (1))","q1(stress_x (2))","q1(stress_x (Magnitude))","q1(stress_yy)","q1(vtkOriginalCellIds)","q3(GlobalElementId)","q3(ObjectId)","q3(PedigreeElementId)","q3(alpha)","q3(strain_x (0))","q3(strain_x (1))","q3(strain_x (2))","q3(strain_x (Magnitude))","q3(strain_yy)","q3(stress_x (0))","q3(stress_x (1))","q3(stress_x (2))","q3(stress_x (Magnitude))","q3(stress_yy)","q3(vtkOriginalCellIds)","std(GlobalElementId)","std(ObjectId)","std(PedigreeElementId)","std(alpha)","std(strain_x (0))","std(strain_x (1))","std(strain_x (2))","std(strain_x (Magnitude))","std(strain_yy)","std(stress_x (0))","std(stress_x (1))","std(stress_x (2))","std(stress_x (Magnitude))","std(stress_yy)","std(vtkOriginalCellIds)","vtkValidPointMask"
1764,0,12110,1,12110,1,0,0,0,0,0,0,0,0,0,0,12109,12992,1,12992,1,0,0,0,0,0,0,0,0,0,0,12991,12110,1,12110,1,0,0,0,0,0,0,0,0,0,0,12109,11203,1,11203,1,0,0,0,0,0,0,0,0,0,0,11202,11669,1,11669,1,0,0,0,0,0,0,0,0,0,0,11668,12551,1,12551,1,0,0,0,0,0,0,0,0,0,0,12550,510.38,0,510.38,0,0,0,0,0,0,0,0,0,0,0,510.38,1
1764,0.01,12110,1,12110,1,6.4282e-09,-4.8733e-08,0,2.1864e-07,-6.1646e-10,2611.7,-16677,0,83743,221.14,12109,12992,1,12992,1,5.5673e-07,3.0188e-07,0,5.5776e-07,9.6928e-08,2.2626e+05,1.033e+05,0,2.2655e+05,11028,12991,12110,1,12110,1,7.292e-09,-3.9273e-08,0,2.007e-07,-1.5387e-09,2709.8,-13444,0,74698,-13.578,12109,11203,1,11203,1,-5.4e-07,-2.9852e-07,0,1.0895e-08,-9.8243e-08,-2.2014e+05,-1.0214e+05,0,4532,-8120.5,11202,11669,1,11669,1,-1.0653e-07,-1.4146e-07,0,1.5446e-07,-1.6056e-08,-43648,-48427,0,56443,-2927.8,11668,12551,1,12551,1,1.1933e-07,2.0108e-08,0,2.7714e-07,1.5471e-08,49212,6882.8,0,1.0324e+05,2582.5,12550,510.38,0,510.38,0,1.9841e-07,1.2555e-07,0,9.8575e-08,3.4501e-08,80967,42966,0,40867,3922.7,510.38,1
1764,0.02,12110,1,12110,1,3.7677e-09,-4.9999e-09,0,1.3078e-06,-7.1421e-10,798.52,-1709.4,0,5.2804e+05,-22.522,12109,12992,1,12992,1,3.0837e-06,4.7294e-07,0,3.0843e-06,5.8142e-07,1.2506e+06,1.6195e+05,0,1.2512e+06,24754,12991,12110,1,12110,1,7.783e-09,-1.0578e-08,0,1.2904e-06,-5.4071e-09,1932.6,-3617.6,0,5.2191e+05,-511.08,12109,11203,1,11203,1,-3.0766e-06,-3.3845e-07,0,7.5998e-08,-5.7689e-07,-1.251e+06,-1.1584e+05,0,31230,-14106,11202,11669,1,11669,1,-1.2767e-06,-9.9008e-08,0,6.8108e-07,-2.5557e-07,-5.1699e+05,-33874,0,2.6934e+05,-4561.1,11668,12551,1,12551,1,1.2779e-06,7.0565e-08,0,1.8877e-06,2.5815e-07,5.1729e+05,24169,0,7.668e+05,3773.2,12550,510.38,0,510.38,0,1.4846e-06,1.6017e-07,0,7.1987e-07,2.8571e-07,6.0241e+05,54800,0,2.9483e+05,6766.9,510.38,1
1764,0.03,12110,1,12110,1,1.0584e-08,-5.0917e-08,0,2.4508e-06,-3.774e-09,2778.8,-17418,0,9.9194e+05,-776.46,12109,12992,1,12992,1,5.6871e-06,5.1389e-07,0,5.6874e-06,1.0545e-06,2.3067e+06,1.7574e+05,0,2.3068e+06,19274,12991,12110,1,12110,1,7.5037e-09,-3.9106e-08,0,2.4211e-06,-1.8466e-09,2949.8,-13384,0,9.8017e+05,-568.55,12109,11203,1,11203,1,-5.649e-06,-4.5569e-07,0,1.5194e-07,-1.0613e-06,-2.2981e+06,-1.5589e+05,0,62033,-20834,11202,11669,1,11669,1,-2.4082e-06,-1.8839e-07,0,1.2298e-06,-4.8044e-07,-9.7786e+05,-64353,0,4.9495e+05,-5278.5,11668,12551,1,12551,1,2.424e-06,5.1855e-08,0,3.6184e-06,4.7276e-07,9.8085e+05,17748,0,1.4681e+06,4086.5,12550,510.38,0,510.38,0,2.8006e-06,2.011e-07,0,1.3699e-06,5.3417e-07,1.1368e+06,68798,0,5.5933e+05,6837.1,510.38,1
1764,0.04,12110,1,12110,1,-2.3325e-09,-1.0246e-07,0,3.671e-06,8.2227e-10,-2989,-35051,0,1.4875e+06,137.3,12109,12992,1,12992,1,8.4505e-06,4.7151e-07,0,8.4507e-06,1.5783e-06,3.4273e+06,1.614e+05,0,3.4297e+06,19296,12991,12110,1,12110,1,-1.51e-08,-7.8654e-08,0,3.6515e-06,2.1676e-09,-6206.7,-26880,0,1.4811e+06,-51.594,12109,11203,1,11203,1,-8.4314e-06,-5.351e-07,0,2.2417e-07,-1.5802e-06,-3.4296e+06,-1.8317e+05,0,90789,-22406,11202,11669,1,11669,1,-3.656e-06,-2.6869e-07,0,1.8184e-06,-7.0459e-07,-1.4847e+06,-91960,0,7.3444e+05,-4692,11668,12551,1,12551,1,3.6398e-06,2.7862e-08,0,5.468e-06,7.1059e-07,1.4745e+06,9528.9,0,2.2162e+06,4759.4,12550,510.38,0,510.38,0,4.2138e-06,2.2117e-07,0,2.0812e-06,7.9958e-07,1.7107e+06,75667,0,8.4828e+05,7092.7,510.38,1
1764,0.05,12110,1,12110,1,1.2486e-08,-3.5638e-08,0,5.0246e-06,-6.6692e-09,1885.6,-12191,0,2.0386e+06,-1844.8,12109,12992,1,12992,1,1.0558e-05,4.6183e-07,0,1.0559e-05,1.9703e-06,4.2823e+06,1.581e+05,0,4.2892e+06,11971,12991,12110,1,12110,1,9.7054e-09,-2.0961e-08,0,5.1517e-06,-2.3659e-08,3172.1,-7168.7,0,2.0909e+06,-1525.8,12109,11203,1,11203,1,-1.0544e-05,-4.6956e-07,0,3.372e-07,-1.9731e-06,-4.2892e+06,-1.6074e+05,0,1.3771e+05,-20250,11202,11669,1,11669,1,-5.1261e-06,-1.6135e-07,0,2.5097e-06,-9.8537e-07,-2.0841e+06,-55113,0,1.0179e+06,-6143.1,11668,12551,1,12551,1,5.1585e-06,7.0765e-08,0,7.4367e-06,9.7186e-07,2.091e+06,24175,0,3.018e+06,3181.7,12550,510.38,0,510.38,0,5.7789e-06,1.9459e-07,0,2.8589e-06,1.0909e-06,2.3466e+06,66574,0,1.163e+06,5999.9,510.38,1
1764,0.06,12110,1,12110,1,-1.11e-09,-1.0137e-08,0,6.6558e-06,-1.9436e-09,-4391.7,-3467.6,0,2.7012e+06,-932.07,12109,12992,1,12992,1,1.3617e-05,5.9079e-07,0,1.3622e-05,2.5488e-06,5.5227e+06,2.0208e+05,0,5.541e+06,14218,12991,12110,1,12110,1,2.6656e-09,-1.6318e-08,0,6.7469e-06,-5.0422e-09,611.22,-5578.2,0,2.742e+06,-519.51,12109,11203,1,11203,1,-1.3622e-05,-4.2307e-07,0,4.555e-07,-2.5472e-06,-5.541e+06,-1.4484e+05,0,1.8568e+05,-16274,11202,11669,1,11669,1,-6.7432e-06,-1.5378e-07,0,3.324e-06,-1.2919e-06,-2.7417e+06,-52536,0,1.3493e+06,-5528.7,11668,12551,1,12551,1,6.7486e-06,1.0278e-07,0,9.8746e-06,1.2765e-06,2.736e+06,35203,0,4.0083e+06,4172.2,12550,510.38,0,510.38,0,7.6612e-06,2.1474e-07,0,3.7969e-06,1.4452e-06,3.111e+06,73467,0,1.5438e+06,6601.5,510.38,1
1764,0.07,12110,1,12110,1,2.3963e-08,-3.9927e-08,0,8.036e-06,-6.3334e-09,5033.4,-13660,0,3.2619e+06,-803.91,12109,12992,1,12992,1,1.6504e-05,5.3788e-07,0,1.6504e-05,3.0779e-06,6.6931e+06,1.8384e+05,0,6.6932e+06,17918,12991,12110,1,12110,1,1.4281e-08,-3.1869e-08,0,8.1775e-06,-6.0573e-09,5196.4,-10916,0,3.3202e+06,-910.3,12109,11203,1,11203,1,-1.6441e-05,-4.4996e-07,0,5.4273e-07,-3.0894e-06,-6.6878e+06,-1.5389e+05,0,2.2064e+05,-18679,11202,11669,1,11669,1,-8.1439e-06,-1.8428e-07,0,4.0122e-06,-1.5549e-06,-3.3116e+06,-63041,0,1.6278e+06,-5476.5,11668,12551,1,12551,1,8.1966e-06,6.1401e-08,0,1.1949e-05,1.5376e-06,3.3235e+06,20970,0,4.8494e+06,4067.6,12550,510.38,0,510.38,0,9.2573e-06,2.1049e-07,0,4.5968e-06,1.7451e-06,3.7592e+06,72009,0,1.8684e+06,6880.4,510.38,1
1764,0.08,12110,1,12110,1,1.2994e-08,-1.3828e-08,0,9.8935e-06,-3.1608e-09,-390.74,-4729.6,0,4.0171e+06,-337.95,12109,12992,1,12992,1,1.978e-05,3.9315e-07,0,1.978e-05,3.7001e-06,8.0219e+06,1.3445e+05,0,8.023e+06,10801,12991,12110,1,12110,1,1.2695e-08,-1.0988e-08,0,9.9825e-06,5.7718e-09,4707.2,-3752.7,0,4.0537e+06,-380.28,12109,11203,1,11203,1,-1.9724e-05,-3.8591e-07,0,6.7972e-07,-3.7023e-06,-8.023e+06,-1.3198e+05,0,2.7619e+05,-12325,11202,11669,1,11669,1,-9.9591e-06,-1.2737e-07,0,4.9439e-06,-1.8888e-06,-4.0493e+06,-43565,0,2.0072e+06,-4478.1,11668,12551,1,12551,1,9.9984e-06,8.6359e-08,0,1.4753e-05,1.8844e-06,4.0545e+06,29493,0,5.9884e+06,4198.5,12550,510.38,0,510.38,0,1.1407e-05,1.7655e-07,0,5.6749e-06,2.1456e-06,4.6323e+06,60399,0,2.3057e+06,5378.5,510.38,1
1764,0.09,12110,1,12110,1,1.8416e-08,-3.1303e-08,0,1.1183e-05,-1.0932e-09,1323.4,-10710,0,4.5407e+06,957.25,12109,12992,1,12992,1,2.239e-05,4.5123e-07,0,2.239e-05,4.1894e-06,9.0804e+06,1.5449e+05,0,9.095e+06,18032,12991,12110,1,12110,1,1.4138e-08,-2.2332e-08,0,1.1289e-05,4.0409e-09,5912.7,-7637.4,0,4.5847e+06,409.82,12109,11203,1,11203,1,-2.236e-05,-4.0694e-07,0,7.7098e-07,-4.1924e-06,-9.095e+06,-1.3917e+05,0,3.1345e+05,-11978,11202,11669,1,11669,1,-1.127e-05,-1.633e-07,0,5.5904e-06,-2.133e-06,-4.5827e+06,-55842,0,2.2699e+06,-3660,11668,12551,1,12551,1,1.1307e-05,7.5587e-08,0,1.6688e-05,2.1286e-06,4.5855e+06,25890,0,6.7776e+06,4985.3,12550,510.38,0,510.38,0,1.2894e-05,1.8662e-07,0,6.4165e-06,2.4256e-06,5.2365e+06,63844,0,2.6068e+06,6150.7,510.38,1
1764,0.1,12110,1,12110,1,1.6377e-08,-3.1864e-08,0,1.2348e-05,-1.4828e-09,-227.65,-10903,0,5.0139e+06,628.73,12109,12992,1,12992,1,2.4651e-05,4.2805e-07,0,2.4651e-05,4.6112e-06,9.9972e+06,1.4633e+05,0,1.0013e+07,20352,12991,12110,1,12110,1,1.5017e-08,-1.7127e-08,0,1.2456e-05,6.1806e-09,5696.6,-5849.1,0,5.0602e+06,116.95,12109,11203,1,11203,1,-2.4617e-05,-4.166e-07,0,8.467e-07,-4.6172e-06,-1.0013e+07,-1.4264e+05,0,3.4422e+05,-12191,11202,11669,1,11669,1,-1.2442e-05,-1.4855e-07,0,6.1727e-06,-2.3552e-06,-5.0596e+06,-50809,0,2.5064e+06,-4052.3,11668,12551,1,12551,1,1.2478e-05,6.3183e-08,0,1.8434e-05,2.3453e-06,5.0602e+06,21578,0,7.4872e+06,4065.9,12550,510.38,0,510.38,0,1.4239e-05,1.7672e-07,0,7.0886e-06,2.6769e-06,5.7829e+06,60458,0,2.8796e+06,6331.3,510.38,1
1764,0.11,12110,1,12110,1,2.1821e-08,-2.5105e-08,0,1.3595e-05,-4.5917e-09,1111.4,-8589,0,5.5207e+06,-254.88,12109,12992,1,12992,1,2.7086e-05,5.3506e-07,0,2.7086e-05,5.0603e-06,1.0984e+07,1.8319e+05,0,1.099e+07,17539,12991,12110,1,12110,1,1.7694e-08,-1.9754e-08,0,1.371e-05,1.7203e-09,6971.9,-6757.5,0,5.5679e+06,-701.89,12109,11203,1,11203,1,-2.7019e-05,-4.3096e-07,0,9.3292e-07,-5.0728e-06,-1.099e+07,-1.4738e+05,0,3.7954e+05,-17316,11202,11669,1,11669,1,-1.3672e-05,-1.6397e-07,0,6.794e-06,-2.5969e-06,-5.5602e+06,-56038,0,2.7585e+06,-4778.9,11668,12551,1,12551,1,1.3737e-05,8.1915e-08,0,2.0294e-05,2.583e-06,5.5706e+06,27980,0,8.2404e+06,3875.2,12550,510.38,0,510.38,0,1.5678e-05,2.0162e-07,0,7.804e-06,2.9476e-06,6.3672e+06,68977,0,3.1703e+06,6589.9,510.38,1
1764,0.12,12110,1,12110,1,1.8652e-08,-6.405e-08,0,1.5154e-05,-4.1576e-09,-1073.5,-21911,0,6.1538e+06,-327,12109,12992,1,12992,1,3.0295e-05,3.9188e-07,0,3.0295e-05,5.6706e-06,1.2286e+07,1.3401e+05,0,1.231e+07,13331,12991,12110,1,12110,1,1.7781e-08,-4.1039e-08,0,1.5311e-05,-4.4181e-09,6923.9,-14038,0,6.2187e+06,-358.85,12109,11203,1,11203,1,-3.0263e-05,-4.7401e-07,0,1.0468e-06,-5.675e-06,-1.231e+07,-1.6229e+05,0,4.261e+05,-14070,11202,11669,1,11669,1,-1.5297e-05,-1.944e-07,0,7.5652e-06,-2.8905e-06,-6.2208e+06,-66408,0,3.0713e+06,-4827.3,11668,12551,1,12551,1,1.5325e-05,5.0825e-08,0,2.2621e-05,2.8818e-06,6.215e+06,17357,0,9.1868e+06,4617.2,12550,510.38,0,510.38,0,1.7478e-05,1.8967e-07,0,8.7043e-06,3.2847e-06,7.0985e+06,64890,0,3.5358e+06,5975.6,510.38,1
1764,0.13,12110,1,12110,1,1.8376e-08,-4.2109e-08,0,1.6742e-05,-3.4013e-09,-2031.9,-14406,0,6.799e+06,-35.187,12109,12992,1,12992,1,3.3287e-05,5.0248e-07,0,3.3287e-05,6.2288e-06,1.3499e+07,1.721e+05,0,1.3522e+07,19714,12991,12110,1,12110,1,1.7621e-08,-3.1806e-08,0,1.6875e-05,2.5814e-09,7191,-10888,0,6.8544e+06,-355.11,12109,11203,1,11203,1,-3.3243e-05,-4.3196e-07,0,1.1479e-06,-6.2367e-06,-1.3522e+07,-1.479e+05,0,4.6724e+05,-14360,11202,11669,1,11669,1,-1.6853e-05,-1.7948e-07,0,8.3672e-06,-3.1869e-06,-6.854e+06,-61327,0,3.397e+06,-4437.9,11668,12551,1,12551,1,1.6902e-05,6.1699e-08,0,2.5008e-05,3.1706e-06,6.8547e+06,21106,0,1.0155e+07,4280.3,12550,510.38,0,510.38,0,1.9312e-05,1.999e-07,0,9.6195e-06,3.6284e-06,7.8432e+06,68390,0,3.9074e+06,6436,510.38,1
1764,0.14,12110,1,12110,1,3.7769e-08,-7.4339e-09,0,1.8131e-05,-9.5461e-09,4857.8,-2543.1,0,7.3635e+06,-1095.4,12109,12992,1,12992,1,3.5628e-05,4.2175e-07,0,3.5629e-05,6.6587e-06,1.4449e+07,1.444e+05,0,1.4462e+07,12332,12991,12110,1,12110,1,3.6917e-08,-8.0923e-09,0,1.8215e-05,-1.2142e-08,13874,-2767.6,0,7.3984e+06,-1245.1,12109,11203,1,11203,1,-3.5554e-05,-3.4837e-07,0,1.2488e-06,-6.6729e-06,-1.4462e+07,-1.1919e+05,0,5.0788e+05,-14545,11202,11669,1,11669,1,-1.8164e-05,-1.0854e-07,0,9.0629e-06,-3.4381e-06,-7.387e+06,-37125,0,3.6806e+06,-4972.3,11668,12551,1,12551,1,1.8254e-05,7.6491e-08,0,2.7115e-05,3.422e-06,7.4035e+06,26171,0,1.1013e+07,3017.2,12550,510.38,0,510.38,0,2.0919e-05,1.6386e-07,0,1.0426e-05,3.9289e-06,8.4959e+06,56059,0,4.2346e+06,5176.4,510.38,1
1764,0.15,12110,1,12110,1,3.1207e-08,-4.1719e-08,0,1.9265e-05,-8.2824e-09,1552.3,-14272,0,7.8236e+06,-1085.4,12109,12992,1,12992,1,3.8156e-05,4.588e-07,0,3.8156e-05,7.1359e-06,1.5474e+07,1.5707e+05,0,1.5491e+07,11848,12991,12110,1,12110,1,2.6134e-08,-2.631e-08,0,1.9409e-05,-7.976e-09,9871.4,-8985.2,0,7.8835e+06,-701.66,12109,11203,1,11203,1,-3.8084e-05,-4.4703e-07,0,1.3313e-06,-7.1482e-06,-1.5491e+07,-1.5287e+05,0,5.4174e+05,-19073,11202,11669,1,11669,1,-1.9376e-05,-1.6822e-07,0,9.627e-06,-3.6596e-06,-7.8802e+06,-57490,0,3.9096e+06,-5388.7,11668,12551,1,12551,1,1.9438e-05,6.0641e-08,0,2.8796e-05,3.6459e-06,7.8838e+06,20739,0,1.1693e+07,3966.5,12550,510.38,0,510.38,0,2.2224e-05,1.8985e-07,0,1.1073e-05,4.1746e-06,9.0259e+06,64950,0,4.4975e+06,5920.7,510.38,1
1764,0.16,12110,1,12110,1,2.3648e-08,-2.9512e-08,0,2.0904e-05,-5.3117e-09,-2326.5,-10097,0,8.4895e+06,-435.99,12109,12992,1,12992,1,4.1149e-05,4.3105e-07,0,4.1149e-05,7.7039e-06,1.6687e+07,1.4735e+05,0,1.6724e+07,12476,12991,12110,1,12110,1,2.6962e-08,-1.7662e-08,0,2.102e-05,-4.148e-09,10377,-6049.6,0,8.5355e+06,-428.51,12109,11203,1,11203,1,-4.1115e-05,-3.9358e-07,0,1.4612e-06,-7.7086e-06,-1.6724e+07,-1.3468e+05,0,5.9173e+05,-21007,11202,11669,1,11669,1,-2.0995e-05,-1.4161e-07,0,1.0446e-05,-3.9618e-06,-8.5387e+06,-48443,0,4.2412e+06,-4303.2,11668,12551,1,12551,1,2.1041e-05,6.4799e-08,0,3.1267e-05,3.9483e-06,8.5338e+06,22131,0,1.2701e+07,4209.2,12550,510.38,0,510.38,0,2.4118e-05,1.7115e-07,0,1.2021e-05,4.5291e-06,9.7952e+06,58550,0,4.8823e+06,5717.2,510.38,1
1764,0.17,12110,1,12110,1,2.1955e-08,1.3538e-08,0,2.2245e-05,-4.645e-09,-3747.7,4630.4,0,9.0341e+06,-293.35,12109,12992,1,12992,1,4.3721e-05,5.8793e-07,0,4.3722e-05,8.1983e-06,1.773e+07,2.0106e+05,0,1.7774e+07,18806,12991,12110,1,12110,1,2.2025e-08,1.5675e-09,0,2.2359e-05,-7.49e-09,8016.4,536.9,0,9.0847e+06,-398.56,12109,11203,1,11203,1,-4.37e-05,-4.2297e-07,0,1.5478e-06,-8.2051e-06,-1.7774e+07,-1.4465e+05,0,6.2984e+05,-16818,11202,11669,1,11669,1,-2.2339e-05,-1.2437e-07,0,1.1114e-05,-4.2261e-06,-9.0841e+06,-42482,0,4.5132e+06,-5075.4,11668,12551,1,12551,1,2.2389e-05,1.4338e-07,0,3.3263e-05,4.2149e-06,9.0799e+06,49051,0,1.3511e+07,4675.4,12550,510.38,0,510.38,0,2.5664e-05,2.1366e-07,0,1.2789e-05,4.8213e-06,1.0423e+07,73094,0,5.1944e+06,6708.8,510.38,1
1764,0.18,12110,1,12110,1,1.4141e-08,1.5907e-08,0,2.3917e-05,-4.1875e-09,-7950.8,5441.8,0,9.7132e+06,-723.04,12109,12992,1,12992,1,4.6805e-05,5.4955e-07,0,4.6806e-05,8.786e-06,1.898e+07,1.8782e+05,0,1.9037e+07,20022,12991,12110,1,12110,1,1.1082e-08,-4.4598e-10,0,2.4023e-05,-3.2716e-09,3452.7,-152.57,0,9.7552e+06,-595.2,12109,11203,1,11203,1,-4.6806e-05,-3.559e-07,0,1.6778e-06,-8.7823e-06,-1.9037e+07,-1.2186e+05,0,6.825e+05,-18159,11202,11669,1,11669,1,-2.3999e-05,-1.0632e-07,0,1.1952e-05,-4.531e-06,-9.7593e+06,-36394,0,4.8549e+06,-4761,11668,12551,1,12551,1,2.4044e-05,1.2028e-07,0,3.5782e-05,4.528e-06,9.7515e+06,41140,0,1.4532e+07,3874.5,12550,510.38,0,510.38,0,2.7595e-05,1.9388e-07,0,1.3755e-05,5.1821e-06,1.1208e+07,66328,0,5.5868e+06,6119.3,510.38,1
1764,0.19,12110,1,12110,1,3.6623e-08,-3.1418e-08,0,2.5338e-05,-6.2461e-09,544.71,-10747,0,1.0291e+07,181.02,12109,12992,1,12992,1,4.9695e-05,4.1547e-07,0,4.9695e-05,9.2986e-06,2.0153e+07,1.4226e+05,0,2.0182e+07,22504,12991,12110,1,12110,1,3.5963e-08,-1.7047e-08,0,2.5448e-05,2.2843e-10,14795,-5821.7,0,1.0337e+07,-759.97,12109,11203,1,11203,1,-4.9617e-05,-3.711e-07,0,1.7563e-06,-9.3125e-06,-2.0182e+07,-1.2691e+05,0,7.1468e+05,-12493,11202,11669,1,11669,1,-2.5405e-05,-1.4176e-07,0,1.2673e-05,-4.7928e-06,-1.0333e+07,-48537,0,5.1453e+06,-4244.7,11668,12551,1,12551,1,2.5488e-05,5.9409e-08,0,3.7923e-05,4.7753e-06,1.0338e+07,20331,0,1.5403e+07,3940.1,12550,510.38,0,510.38,0,2.9236e-05,1.6614e-07,0,1.4575e-05,5.4887e-06,1.1874e+07,56839,0,5.9196e+06,6692.7,510.38,1
1764,0.2,12110,1,12110,1,3.7345e-08,-3.1091e-08,0,2.6401e-05,-6.755e-09,205.75,-10635,0,1.0722e+07,20.213,12109,12992,1,12992,1,5.1913e-05,4.7522e-07,0,5.1913e-05,9.7093e-06,2.1053e+07,1.6276e+05,0,2.1073e+07,14815,12991,12110,1,12110,1,3.8162e-08,-1.9159e-08,0,2.6537e-05,-1.0226e-09,14329,-6543.3,0,1.0779e+07,-334.36,12109,11203,1,11203,1,-5.1808e-05,-4.43e-07,0,1.83e-06,-9.729e-06,-2.1073e+07,-1.5161e+05,0,7.441e+05,-15358,11202,11669,1,11669,1,-2.6484e-05,-1.7223e-07,0,1.3195e-05,-4.9991e-06,-1.0771e+07,-58908,0,5.359e+06,-4685.1,11668,12551,1,12551,1,2.6577e-05,8.5959e-08,0,3.9509e-05,4.9791e-06,1.0779e+07,29400,0,1.6043e+07,4815.6,12550,510.38,0,510.38,0,3.0463e-05,2.0473e-07,0,1.5186e-05,5.7201e-06,1.2372e+07,70042,0,6.1679e+06,6278.1,510.38,1
1764,0.21,12110,1,12110,1,3.4426e-08,-3.1539e-08,0,2.7672e-05,-1.2949e-08,-2233.4,-10790,0,1.1238e+07,-2823.1,12109,12992,1,12992,1,5.4265e-05,5.6859e-07,0,5.4265e-05,1.0157e-05,2.2006e+07,1.9444e+05,0,2.2045e+07,15183,12991,12110,1,12110,1,2.6548e-08,-2.3412e-08,0,2.7788e-05,-2.0209e-08,8781.7,-8018.9,0,1.1285e+07,-1460.7,12109,11203,1,11203,1,-5.4197e-05,-4.7043e-07,0,1.9256e-06,-1.0169e-05,-2.2045e+07,-1.6088e+05,0,7.8372e+05,-23201,11202,11669,1,11669,1,-2.7749e-05,-1.7697e-07,0,1.3834e-05,-5.2383e-06,-1.1286e+07,-60596,0,5.6178e+06,-7575.5,11668,12551,1,12551,1,2.7823e-05,7.9113e-08,0,4.141e-05,5.2153e-06,1.1285e+07,27097,0,1.6817e+07,3175.6,12550,510.38,0,510.38,0,3.1927e-05,2.1368e-07,0,1.5914e-05,5.9958e-06,1.2967e+07,73102,0,6.4634e+06,7614,510.38,1
1764,0.22,12110,1,12110,1,3.6112e-08,-1.3495e-08,0,2.9673e-05,-7.3865e-09,-2221.8,-4616,0,1.2051e+07,-353.49,12109,12992,1,12992,1,5.8002e-05,4.3507e-07,0,5.8002e-05,1.0847e-05,2.3522e+07,1.4878e+05,0,2.3542e+07,18773,12991,12110,1,12110,1,3.0219e-08,-8.3614e-09,0,2.976e-05,-1.1385e-08,11468,-2863.9,0,1.2089e+07,-326.07,12109,11203,1,11203,1,-5.7879e-05,-4.0279e-07,0,2.0658e-06,-1.0869e-05,-2.3542e+07,-1.3774e+05,0,8.4049e+05,-21223,11202,11669,1,11669,1,-2.972e-05,-1.2024e-07,0,1.4837e-05,-5.6154e-06,-1.2087e+07,-41156,0,6.026e+06,-5458.8,11668,12551,1,12551,1,2.9805e-05,9.0333e-08,0,4.4421e-05,5.5921e-06,1.2089e+07,30940,0,1.8042e+07,4870.4,12550,510.38,0,510.38,0,3.424e-05,1.7561e-07,0,1.7071e-05,6.428e-06,1.3906e+07,60077,0,6.9331e+06,6516.7,510.38,1
1764,0.23,12110,1,12110,1,1.5565e-08,-3.4404e-08,0,3.046e-05,4.454e-09,-10384,-11769,0,1.2371e+07,3008.2,12109,12992,1,12992,1,5.9719e-05,5.3169e-07,0,5.9719e-05,1.118e-05,2.4218e+07,1.8182e+05,0,2.4261e+07,31430,12991,12110,1,12110,1,6.5938e-09,-2.2603e-08,0,3.0596e-05,1.2947e-08,2186.8,-7718.9,0,1.2429e+07,2158.9,12109,11203,1,11203,1,-5.9646e-05,-4.9643e-07,0,2.1456e-06,-1.119e-05,-2.4261e+07,-1.697e+05,0,8.7238e+05,-11535,11202,11669,1,11669,1,-3.0582e-05,-1.6299e-07,0,1.5223e-05,-5.7524e-06,-1.2437e+07,-55746,0,6.1832e+06,-3257.9,11668,12551,1,12551,1,3.0617e-05,7.0876e-08,0,4.5587e-05,5.761e-06,1.2419e+07,24205,0,1.8516e+07,7711.8,12550,510.38,0,510.38,0,3.5146e-05,2.083e-07,0,1.7521e-05,6.5998e-06,1.4274e+07,71255,0,7.1159e+06,8029.2,510.38,1
1764,0.24,12110,1,12110,1,5.2844e-08,-2.003e-08,0,3.2166e-05,-1.2981e-08,2965.3,-6851.1,0,1.3064e+07,-1396.8,12109,12992,1,12992,1,6.284e-05,4.732e-07,0,6.284e-05,1.1755e-05,2.5484e+07,1.6182e+05,0,2.5513e+07,11168,12991,12110,1,12110,1,5.3555e-08,-1.4331e-08,0,3.2265e-05,-1.6587e-08,20469,-4895.5,0,1.3106e+07,-1172.9,12109,11203,1,11203,1,-6.2723e-05,-3.9307e-07,0,2.2295e-06,-1.1776e-05,-2.5513e+07,-1.3442e+05,0,9.0704e+05,-16612,11202,11669,1,11669,1,-3.2195e-05,-1.3813e-07,0,1.6085e-05,-6.0767e-06,-1.3094e+07,-47267,0,6.5311e+06,-5679.4,11668,12551,1,12551,1,3.2324e-05,7.9052e-08,0,4.8156e-05,6.0479e-06,1.3111e+07,27037,0,1.956e+07,3421.3,12550,510.38,0,510.38,0,3.7118e-05,1.8106e-07,0,1.8507e-05,6.9665e-06,1.5075e+07,61945,0,7.5165e+06,5780.2,510.38,1
1764,0.25,12110,1,12110,1,4.2119e-08,-4.2856e-08,0,3.3476e-05,-8.0823e-09,-1907.2,-14658,0,1.3596e+07,-184.64,12109,12992,1,12992,1,6.5643e-05,5.6205e-07,0,6.5643e-05,1.2284e-05,2.6621e+07,1.9244e+05,0,2.6656e+07,15186,12991,12110,1,12110,1,4.6924e-08,-3.236e-08,0,3.362e-05,-1.1483e-08,17720,-11069,0,1.3657e+07,209.53,12109,11203,1,11203,1,-6.5534e-05,-4.6768e-07,0,2.3298e-06,-1.2301e-05,-2.6656e+07,-1.5987e+05,0,9.4838e+05,-16663,11202,11669,1,11669,1,-3.3585e-05,-1.9442e-07,0,1.6741e-05,-6.3242e-06,-1.3659e+07,-66545,0,6.7978e+06,-5155.9,11668,12551,1,12551,1,3.3664e-05,6.7932e-08,0,5.0111e-05,6.3147e-06,1.3654e+07,23267,0,2.0349e+07,5397.2,12550,510.38,0,510.38,0,3.8628e-05,2.1422e-07,0,1.9258e-05,7.2523e-06,1.5688e+07,73283,0,7.8216e+06,7191.8,510.38,1
1764,0.26,12110,1,12110,1,4.1628e-08,-6.0985e-08,0,3.4797e-05,-1.3822e-08,-3317.9,-20861,0,1.4132e+07,-2645.3,12109,12992,1,12992,1,6.8169e-05,4.2085e-07,0,6.8169e-05,1.2758e-05,2.7645e+07,1.4392e+05,0,2.7685e+07,9755.9,12991,12110,1,12110,1,3.5373e-08,-3.3793e-08,0,3.4956e-05,-2.6242e-08,12631,-11569,0,1.4197e+07,-1844.7,12109,11203,1,11203,1,-6.8064e-05,-4.7049e-07,0,2.4233e-06,-1.2777e-05,-2.7685e+07,-1.6089e+05,0,9.8589e+05,-28805,11202,11669,1,11669,1,-3.4907e-05,-1.7342e-07,0,1.7391e-05,-6.5794e-06,-1.4197e+07,-59289,0,7.0638e+06,-6335.5,11668,12551,1,12551,1,3.5001e-05,3.9597e-08,0,5.2087e-05,6.5551e-06,1.4197e+07,13534,0,2.1151e+07,2911.6,12550,510.38,0,510.38,0,4.0154e-05,1.7724e-07,0,2.0023e-05,7.5366e-06,1.6308e+07,60638,0,8.1319e+06,7177.3,510.38,1
1764,0.27,12110,1,12110,1,4.519e-08,2.3407e-08,0,3.6333e-05,-8.2494e-09,-2250.8,8008.8,0,1.4756e+07,-21.728,12109,12992,1,12992,1,7.1025e-05,6.4616e-07,0,7.1025e-05,1.3313e-05,2.8802e+07,2.2088e+05,0,2.8869e+07,19048,12991,12110,1,12110,1,4.1247e-08,5.9049e-09,0,3.6471e-05,-3.8679e-09,15594,2019.5,0,1.4818e+07,256.89,12109,11203,1,11203,1,-7.0976e-05,-4.508e-07,0,2.5274e-06,-1.3327e-05,-2.8869e+07,-1.5415e+05,0,1.0281e+06,-22105,11202,11669,1,11669,1,-3.6434e-05,-1.1366e-07,0,1.8163e-05,-6.8814e-06,-1.4818e+07,-38848,0,7.3735e+06,-5700,11668,12551,1,12551,1,3.6533e-05,1.4833e-07,0,5.4382e-05,6.8516e-06,1.4817e+07,50681,0,2.2084e+07,5892.9,12550,510.38,0,510.38,0,4.1924e-05,2.2474e-07,0,2.0902e-05,7.8713e-06,1.7027e+07,76882,0,8.4889e+06,7894.3,510.38,1
1764,0.28,12110,1,12110,1,6.4067e-08,-9.5231e-08,0,3.7521e-05,-1.3012e-08,4645.2,-32579,0,1.5239e+07,-541.26,12109,12992,1,12992,1,7.3675e-05,3.4932e-07,0,7.3675e-05,1.3785e-05,2.9878e+07,1.1946e+05,0,2.9915e+07,11873,12991,12110,1,12110,1,5.5542e-08,-6.3542e-08,0,3.7718e-05,-8.9368e-09,21987,-21732,0,1.5321e+07,-372.81,12109,11203,1,11203,1,-7.3547e-05,-5.1296e-07,0,2.605e-06,-1.3808e-05,-2.9915e+07,-1.7542e+05,0,1.0594e+06,-17047,11202,11669,1,11669,1,-3.7649e-05,-2.3143e-07,0,1.8746e-05,-7.0947e-06,-1.5312e+07,-79199,0,7.6118e+06,-4852.6,11668,12551,1,12551,1,3.778e-05,2.8337e-08,0,5.6135e-05,7.0782e-06,1.5324e+07,9691.6,0,2.2799e+07,4005.6,12550,510.38,0,510.38,0,4.3299e-05,1.902e-07,0,2.1593e-05,8.1255e-06,1.7586e+07,65067,0,8.7697e+06,5504.7,510.38,1
1764,0.29,12110,1,12110,1,6.4963e-08,-3.3391e-08,0,3.9029e-05,-1.2708e-08,4189.9,-11424,0,1.5851e+07,-347.37,12109,12992,1,12992,1,7.6266e-05,5.6684e-07,0,7.6266e-05,1.4269e-05,3.0928e+07,1.9384e+05,0,3.0964e+07,13728,12991,12110,1,12110,1,4.8027e-08,-1.894e-08,0,3.9164e-05,-8.1116e-09,19037,-6479.8,0,1.5908e+07,-310.34,12109,11203,1,11203,1,-7.6126e-05,-4.9116e-07,0,2.7116e-06,-1.4294e-05,-3.0964e+07,-1.6796e+05,0,1.1027e+06,-22387,11202,11669,1,11669,1,-3.9089e-05,-1.7104e-07,0,1.9512e-05,-7.374e-06,-1.5898e+07,-58564,0,7.9254e+06,-5412.4,11668,12551,1,12551,1,3.923e-05,7.961e-08,0,5.844e-05,7.3486e-06,1.5912e+07,27263,0,2.3734e+07,4936.4,12550,510.38,0,510.38,0,4.5037e-05,2.1239e-07,0,2.2456e-05,8.453e-06,1.8292e+07,72660,0,9.1202e+06,6643.6,510.38,1
1764,0.3,12110,1,12110,1,6.0062e-08,-4.7411e-08,0,4.0883e-05,-1.3129e-08,1038.4,-16219,0,1.6605e+07,-917.63,12109,12992,1,12992,1,7.9854e-05,4.554e-07,0,7.9854e-05,1.494e-05,3.2384e+07,1.5565e+05,0,3.2421e+07,15524,12991,12110,1,12110,1,5.9822e-08,-2.3924e-08,0,4.1017e-05,-1.1076e-08,23038,-8182.2,0,1.6662e+07,-1168.1,12109,11203,1,11203,1,-7.9707e-05,-4.3258e-07,0,2.838e-06,-1.4967e-05,-3.2421e+07,-1.4793e+05,0,1.1545e+06,-18912,11202,11669,1,11669,1,-4.0953e-05,-1.7374e-07,0,2.0448e-05,-7.7169e-06,-1.6657e+07,-59456,0,8.3032e+06,-5829,11668,12551,1,12551,1,4.1081e-05,5.6105e-08,0,6.123e-05,7.6904e-06,1.6663e+07,19189,0,2.4867e+07,3714.8,12550,510.38,0,510.38,0,4.718e-05,1.8625e-07,0,2.3529e-05,8.854e-06,1.9162e+07,63719,0,9.5556e+06,6329.9,510.38,1
1764,0.31,12110,1,12110,1,6.5054e-08,4.763e-09,0,4.213e-05,-1.081e-08,2611.8,1629.3,0,1.7111e+07,449.19,12109,12992,1,12992,1,8.2025e-05,5.5136e-07,0,8.2025e-05,1.5353e-05,3.3264e+07,1.8884e+05,0,3.3312e+07,17304,12991,12110,1,12110,1,6.6491e-08,3.3028e-09,0,4.2215e-05,-9.9251e-09,25760,1129.6,0,1.7147e+07,-38.854,12109,11203,1,11203,1,-8.1899e-05,-4.4958e-07,0,2.9256e-06,-1.538e-05,-3.3312e+07,-1.5393e+05,0,1.1896e+06,-13113,11202,11669,1,11669,1,-4.2146e-05,-1.3286e-07,0,2.1073e-05,-7.9503e-06,-1.7141e+07,-45382,0,8.5564e+06,-4748.1,11668,12551,1,12551,1,4.229e-05,1.3476e-07,0,6.3103e-05,7.9258e-06,1.7153e+07,46050,0,2.5628e+07,5705.6,12550,510.38,0,510.38,0,4.8618e-05,2.1415e-07,0,2.4245e-05,9.1257e-06,1.9746e+07,73264,0,9.8468e+06,6623,510.38,1
1764,0.32,12110,1,12110,1,5.5197e-08,-6.3464e-08,0,4.3755e-05,-1.073e-08,-2457.7,-21711,0,1.7771e+07,-300.93,12109,12992,1,12992,1,8.5505e-05,3.9685e-07,0,8.5505e-05,1.6004e-05,3.4675e+07,1.3592e+05,0,3.4727e+07,16744,12991,12110,1,12110,1,5.1163e-08,-4.047e-08,0,4.3917e-05,-1.068e-08,19400,-13862,0,1.7835e+07,-451.87,12109,11203,1,11203,1,-8.5377e-05,-4.2317e-07,0,3.0565e-06,-1.6026e-05,-3.4727e+07,-1.4471e+05,0,1.2431e+06,-17906,11202,11669,1,11669,1,-4.3859e-05,-1.9155e-07,0,2.1872e-05,-8.254e-06,-1.7839e+07,-65519,0,8.8835e+06,-4891.8,11668,12551,1,12551,1,4.3969e-05,3.674e-08,0,6.5525e-05,8.2342e-06,1.7835e+07,12584,0,2.661e+07,3361.6,12550,510.38,0,510.38,0,5.0496e-05,1.8188e-07,0,2.5185e-05,9.4752e-06,2.0509e+07,62222,0,1.0228e+07,6093.9,510.38,1
1764,0.33,12110,1,12110,1,6.5821e-08,-5.4076e-08,0,4.5507e-05,-1.372e-08,772.15,-18502,0,1.8483e+07,-727.45,12109,12992,1,12992,1,8.8802e-05,3.7284e-07,0,8.8802e-05,1.6621e-05,3.6012e+07,1.275e+05,0,3.6062e+07,13228,12991,12110,1,12110,1,6.9366e-08,-3.9193e-08,0,4.5645e-05,-1.7195e-08,26526,-13424,0,1.8542e+07,-198.86,12109,11203,1,11203,1,-8.866e-05,-3.6333e-07,0,3.158e-06,-1.6644e-05,-3.6062e+07,-1.2425e+05,0,1.2844e+06,-15839,11202,11669,1,11669,1,-4.5586e-05,-1.6568e-07,0,2.2753e-05,-8.5801e-06,-1.8541e+07,-56718,0,9.2397e+06,-4584.6,11668,12551,1,12551,1,4.5715e-05,3.1177e-08,0,6.8166e-05,8.5583e-06,1.8543e+07,10650,0,2.7682e+07,3266.9,12550,510.38,0,510.38,0,5.2519e-05,1.5773e-07,0,2.6196e-05,9.8538e-06,2.1331e+07,53960,0,1.0639e+07,5643.9,510.38,1
1764,0.34,12110,1,12110,1,5.167e-08,-3.6784e-08,0,4.6493e-05,-1.1322e-08,-5573.8,-12582,0,1.8883e+07,-838.08,12109,12992,1,12992,1,9.0678e-05,4.7231e-07,0,9.0678e-05,1.6979e-05,3.6772e+07,1.6152e+05,0,3.6844e+07,9697,12991,12110,1,12110,1,5.743e-08,-2.2398e-08,0,4.6627e-05,-1.1384e-08,21502,-7669.3,0,1.8938e+07,-511.49,12109,11203,1,11203,1,-9.0582e-05,-4.7462e-07,0,3.2486e-06,-1.6996e-05,-3.6844e+07,-1.6231e+05,0,1.3216e+06,-16771,11202,11669,1,11669,1,-4.6575e-05,-1.825e-07,0,2.3246e-05,-8.7692e-06,-1.8943e+07,-62402,0,9.4407e+06,-4810.3,11668,12551,1,12551,1,4.6683e-05,8.818e-08,0,6.9647e-05,8.7494e-06,1.8935e+07,30162,0,2.8287e+07,3971,12550,510.38,0,510.38,0,5.3656e-05,2.0829e-07,0,2.6761e-05,1.0069e-05,2.1792e+07,71258,0,1.0868e+07,5877.5,510.38,1
1764,0.35,12110,1,12110,1,6.652e-08,-1.2733e-08,0,4.7837e-05,-1.2093e-08,-156.18,-4357.5,0,1.9429e+07,5.6914,12109,12992,1,12992,1,9.3151e-05,5.8549e-07,0,9.3151e-05,1.7433e-05,3.7775e+07,2.0022e+05,0,3.7826e+07,17012,12991,12110,1,12110,1,5.8809e-08,-9.7972e-09,0,4.7946e-05,-1.2638e-08,22404,-3350.8,0,1.9475e+07,-132.25,12109,11203,1,11203,1,-9.2996e-05,-4.7059e-07,0,3.3372e-06,-1.7461e-05,-3.7826e+07,-1.6093e+05,0,1.3575e+06,-18219,11202,11669,1,11669,1,-4.7871e-05,-1.552e-07,0,2.3922e-05,-9.0217e-06,-1.947e+07,-53098,0,9.7132e+06,-5419.1,11668,12551,1,12551,1,4.8014e-05,1.0612e-07,0,7.1657e-05,9.0031e-06,1.9475e+07,36306,0,2.9101e+07,5445.7,12550,510.38,0,510.38,0,5.5204e-05,2.2139e-07,0,2.7531e-05,1.0361e-05,2.2421e+07,75736,0,1.1181e+07,6964.2,510.38,1
1764,0.36,12110,1,12110,1,5.3303e-08,-7.5474e-09,0,4.9299e-05,-1.0713e-08,-6478.1,-2580.9,0,2.0023e+07,-461.98,12109,12992,1,12992,1,9.5896e-05,5.2439e-07,0,9.5896e-05,1.7958e-05,3.8887e+07,1.7926e+05,0,3.8967e+07,17798,12991,12110,1,12110,1,5.5578e-08,-9.3795e-09,0,4.9403e-05,-1.2218e-08,20862,-3203.4,0,2.0068e+07,-273.92,12109,11203,1,11203,1,-9.5802e-05,-3.8924e-07,0,3.4494e-06,-1.7973e-05,-3.8967e+07,-1.3311e+05,0,1.403e+06,-19303,11202,11669,1,11669,1,-4.9352e-05,-1.2403e-07,0,2.4653e-05,-9.2964e-06,-2.0072e+07,-42434,0,1.001e+07,-4702.4,11668,12551,1,12551,1,4.9463e-05,8.8773e-08,0,7.3857e-05,9.2733e-06,2.0063e+07,30377,0,2.9997e+07,4363.8,12550,510.38,0,510.38,0,5.6894e-05,1.8742e-07,0,2.8378e-05,1.0676e-05,2.3107e+07,64117,0,1.1525e+07,6186.9,510.38,1
1764,0.37,12110,1,12110,1,8.3653e-08,-8.2653e-09,0,5.0485e-05,-1.7986e-08,4927.8,-2826.3,0,2.0504e+07,-1132.6,12109,12992,1,12992,1,9.8323e-05,6.6683e-07,0,9.8323e-05,1.8396e-05,3.987e+07,2.2803e+05,0,3.9915e+07,12364,12991,12110,1,12110,1,8.3479e-08,-1.5128e-08,0,5.0594e-05,-2.1206e-08,31966,-5181.7,0,2.0552e+07,-570.06,12109,11203,1,11203,1,-9.8132e-05,-4.834e-07,0,3.5036e-06,-1.843e-05,-3.9915e+07,-1.6531e+05,0,1.4253e+06,-16258,11202,11669,1,11669,1,-5.0502e-05,-1.7024e-07,0,2.5255e-05,-9.5254e-06,-2.054e+07,-58225,0,1.0254e+07,-6900.2,11668,12551,1,12551,1,5.0681e-05,1.2215e-07,0,7.5629e-05,9.49e-06,2.0557e+07,41813,0,3.0715e+07,5143.6,12550,510.38,0,510.38,0,5.8261e-05,2.4192e-07,0,2.9055e-05,1.0934e-05,2.3662e+07,82765,0,1.18e+07,7129.3,510.38,1
1764,0.38,12110,1,12110,1,6.9385e-08,-4.3988e-08,0,5.2016e-05,-1.2127e-08,-1574.2,-15049,0,2.1126e+07,203.6,12109,12992,1,12992,1,0.0001015,6.6571e-07,0,0.0001015,1.9001e-05,4.1157e+07,2.2794e+05,0,4.1224e+07,24640,12991,12110,1,12110,1,6.6492e-08,-3.7301e-08,0,5.2172e-05,-1.3181e-08,25463,-12757,0,2.1191e+07,-118.84,12109,11203,1,11203,1,-0.00010135,-5.0655e-07,0,3.634e-06,-1.9025e-05,-4.1224e+07,-1.7323e+05,0,1.4777e+06,-20377,11202,11669,1,11669,1,-5.2109e-05,-2.098e-07,0,2.601e-05,-9.8105e-06,-2.1193e+07,-71764,0,1.0563e+07,-6118.8,11668,12551,1,12551,1,5.2242e-05,6.6082e-08,0,7.791e-05,9.7922e-06,2.119e+07,22567,0,3.1639e+07,5167.9,12550,510.38,0,510.38,0,6.0027e-05,2.4269e-07,0,2.9936e-05,1.1267e-05,2.4379e+07,83025,0,1.2157e+07,8630.5,510.38,1
1764,0.39,12110,1,12110,1,6.7286e-08,-6.4893e-08,0,5.3579e-05,-1.5816e-08,-3798.3,-22199,0,2.1761e+07,-1522,12109,12992,1,12992,1,0.0001045,3.9892e-07,0,0.0001045,1.9559e-05,4.2371e+07,1.3637e+05,0,4.2436e+07,12725,12991,12110,1,12110,1,5.8335e-08,-4.3073e-08,0,5.3746e-05,-2.2153e-08,21157,-14731,0,2.1825e+07,-567.84,12109,11203,1,11203,1,-0.00010433,-4.7076e-07,0,3.7512e-06,-1.9587e-05,-4.2436e+07,-1.6099e+05,0,1.5258e+06,-17853,11202,11669,1,11669,1,-5.3675e-05,-2.0942e-07,0,2.678e-05,-1.0101e-05,-2.183e+07,-71659,0,1.0877e+07,-6320.6,11668,12551,1,12551,1,5.3805e-05,5.7421e-08,0,8.0271e-05,1.0083e-05,2.1825e+07,19627,0,3.2594e+07,3960.2,12550,510.38,0,510.38,0,6.1836e-05,1.9843e-07,0,3.0844e-05,1.1603e-05,2.5114e+07,67883,0,1.2526e+07,6786.4,510.38,1
1764,0.4,12110,1,12110,1,7.9431e-08,-3.8699e-08,0,5.4687e-05,-1.9989e-08,-95.077,-13239,0,2.2211e+07,-2325.3,12109,12992,1,12992,1,0.00010652,5.3829e-07,0,0.00010652,1.9936e-05,4.3186e+07,1.8436e+05,0,4.3256e+07,11888,12991,12110,1,12110,1,7.8514e-08,-2.6639e-08,0,5.4837e-05,-2.6028e-08,29553,-9120.6,0,2.2275e+07,-1775.2,12109,11203,1,11203,1,-0.00010635,-4.5389e-07,0,3.8094e-06,-1.9966e-05,-4.3256e+07,-1.5541e+05,0,1.5498e+06,-22356,11202,11669,1,11669,1,-5.4748e-05,-1.7484e-07,0,2.7352e-05,-1.0313e-05,-2.2267e+07,-59838,0,1.1107e+07,-7043.2,11668,12551,1,12551,1,5.4915e-05,6.3157e-08,0,8.193e-05,1.0281e-05,2.2275e+07,21602,0,3.3271e+07,3100.8,12550,510.38,0,510.38,0,6.3113e-05,2.0237e-07,0,3.1479e-05,1.1843e-05,2.5632e+07,69235,0,1.2783e+07,6760.4,510.38,1
1764,0.41,12110,1,12110,1,7.145e-08,-4.4627e-08,0,5.6397e-05,-1.5361e-08,-4508.8,-15267,0,2.2905e+07,-1013.1,12109,12992,1,12992,1,0.00010982,5.464e-07,0,0.00010982,2.0558e-05,4.4521e+07,1.8685e+05,0,4.4606e+07,18504,12991,12110,1,12110,1,6.5806e-08,-3.4069e-08,0,5.6544e-05,-1.6203e-08,24547,-11649,0,2.2963e+07,-1595.1,12109,11203,1,11203,1,-0.00010966,-4.4493e-07,0,3.9451e-06,-2.0584e-05,-4.4606e+07,-1.5234e+05,0,1.6044e+06,-15580,11202,11669,1,11669,1,-5.6462e-05,-1.8365e-07,0,2.82e-05,-1.0632e-05,-2.2965e+07,-62748,0,1.1454e+07,-6418.4,11668,12551,1,12551,1,5.6613e-05,5.8877e-08,0,8.4494e-05,1.0598e-05,2.2963e+07,20137,0,3.4315e+07,3916,12550,510.38,0,510.38,0,6.5087e-05,2.0549e-07,0,3.2464e-05,1.2213e-05,2.6433e+07,70300,0,1.3183e+07,7093.3,510.38,1
1764,0.42,12110,1,12110,1,8.5721e-08,-8.1721e-08,0,5.7947e-05,-1.5629e-08,51.848,-27958,0,2.3534e+07,-5.958,12109,12992,1,12992,1,0.00011299,4.1638e-07,0,0.00011299,2.1152e-05,4.5802e+07,1.4257e+05,0,4.5891e+07,22946,12991,12110,1,12110,1,8.4315e-08,-5.7664e-08,0,5.8115e-05,-1.5683e-08,33199,-19721,0,2.3607e+07,-1365.1,12109,11203,1,11203,1,-0.00011283,-4.4186e-07,0,4.0319e-06,-2.1181e-05,-4.5891e+07,-1.5129e+05,0,1.6384e+06,-17604,11202,11669,1,11669,1,-5.8027e-05,-2.1894e-07,0,2.8977e-05,-1.0927e-05,-2.3601e+07,-74930,0,1.1767e+07,-4575.9,11668,12551,1,12551,1,5.82e-05,2.4351e-08,0,8.6794e-05,1.0889e-05,2.3607e+07,8316.4,0,3.5244e+07,3575.2,12550,510.38,0,510.38,0,6.6877e-05,1.8362e-07,0,3.336e-05,1.2547e-05,2.7159e+07,62817,0,1.3546e+07,6723.5,510.38,1
1764,0.43,12110,1,12110,1,8.557e-08,-4.2842e-08,0,5.9551e-05,-2.0143e-08,-1823.8,-14655,0,2.4185e+07,-1925.9,12109,12992,1,12992,1,0.00011582,3.8165e-07,0,0.00011582,2.168e-05,4.6945e+07,1.3072e+05,0,4.7037e+07,15615,12991,12110,1,12110,1,8.7911e-08,-2.7601e-08,0,5.9678e-05,-2.5331e-08,33555,-9432.3,0,2.4242e+07,-1958.8,12109,11203,1,11203,1,-0.00011564,-3.5201e-07,0,4.1535e-06,-2.171e-05,-4.7037e+07,-1.2053e+05,0,1.6896e+06,-13705,11202,11669,1,11669,1,-5.9595e-05,-1.5198e-07,0,2.9791e-05,-1.1218e-05,-2.4239e+07,-52055,0,1.2095e+07,-6213.1,11668,12551,1,12551,1,5.9766e-05,4.3579e-08,0,8.9246e-05,1.1183e-05,2.4242e+07,14914,0,3.6238e+07,1706,12550,510.38,0,510.38,0,6.8731e-05,1.5692e-07,0,3.4287e-05,1.2894e-05,2.7912e+07,53686,0,1.3922e+07,5457.8,510.38,1
1764,0.44,12110,1,12110,1,7.2759e-08,-5.7145e-08,0,6.0743e-05,-1.5016e-08,-8404.4,-19549,0,2.4668e+07,-784.75,12109,12992,1,12992,1,0.00011815,3.6601e-07,0,0.00011815,2.2119e-05,4.7887e+07,1.2517e+05,0,4.7986e+07,14150,12991,12110,1,12110,1,6.5898e-08,-2.8975e-08,0,6.0891e-05,-1.7214e-08,25053,-9912.4,0,2.4726e+07,-702.1,12109,11203,1,11203,1,-0.00011798,-4.3657e-07,0,4.2611e-06,-2.2149e-05,-4.7986e+07,-1.493e+05,0,1.733e+06,-15460,11202,11669,1,11669,1,-6.0806e-05,-1.6826e-07,0,3.0373e-05,-1.1442e-05,-2.4731e+07,-57585,0,1.2334e+07,-5042.2,11668,12551,1,12551,1,6.0962e-05,3.9322e-08,0,9.1029e-05,1.1417e-05,2.4726e+07,13426,0,3.696e+07,3612,12550,510.38,0,510.38,0,7.0105e-05,1.6682e-07,0,3.4972e-05,1.3152e-05,2.8468e+07,57067,0,1.4199e+07,5627.7,510.38,1
1764,0.45,12110,1,12110,1,9.28e-08,-2.9352e-08,0,6.2077e-05,-1.7456e-08,-1624.7,-10041,0,2.5209e+07,-235.76,12109,12992,1,12992,1,0.00012062,4.4985e-07,0,0.00012062,2.2576e-05,4.8884e+07,1.5403e+05,0,4.8981e+07,14150,12991,12110,1,12110,1,8.8646e-08,-2.0893e-08,0,6.2191e-05,-1.4998e-08,34365,-7156.3,0,2.5262e+07,-477.08,12109,11203,1,11203,1,-0.00012042,-4.183e-07,0,4.3263e-06,-2.2611e-05,-4.8981e+07,-1.4305e+05,0,1.7599e+06,-12696,11202,11669,1,11669,1,-6.2093e-05,-1.5896e-07,0,3.1057e-05,-1.1693e-05,-2.5255e+07,-54447,0,1.2609e+07,-4659.8,11668,12551,1,12551,1,6.2285e-05,7.4841e-08,0,9.304e-05,1.166e-05,2.5262e+07,25634,0,3.7778e+07,3800.9,12550,510.38,0,510.38,0,7.1645e-05,1.8715e-07,0,3.5739e-05,1.3441e-05,2.9093e+07,64024,0,1.451e+07,5547.8,510.38,1
1764,0.46,12110,1,12110,1,9.0458e-08,-2.465e-08,0,6.357e-05,-1.9779e-08,-4490,-8431.9,0,2.5815e+07,-1406.3,12109,12992,1,12992,1,0.00012353,4.8074e-07,0,0.00012353,2.3121e-05,5.0058e+07,1.644e+05,0,5.0162e+07,10061,12991,12110,1,12110,1,9.0936e-08,-1.3339e-08,0,6.3682e-05,-2.2404e-08,34665,-4554.5,0,2.5866e+07,-1118.5,12109,11203,1,11203,1,-0.00012333,-4.3036e-07,0,4.4309e-06,-2.3157e-05,-5.0162e+07,-1.4717e+05,0,1.8024e+06,-14807,11202,11669,1,11669,1,-6.358e-05,-1.5931e-07,0,3.1802e-05,-1.1972e-05,-2.5859e+07,-54565,0,1.2914e+07,-6075.5,11668,12551,1,12551,1,6.3776e-05,9.1239e-08,0,9.5281e-05,1.194e-05,2.5866e+07,31214,0,3.8684e+07,3505.9,12550,510.38,0,510.38,0,7.3368e-05,1.9468e-07,0,3.6598e-05,1.3764e-05,2.9791e+07,66601,0,1.4858e+07,5595.1,510.38,1
1764,0.47,12110,1,12110,1,1.2433e-07,-2.69e-08,0,6.4929e-05,-2.8577e-08,7328.1,-9201.2,0,2.6366e+07,-2443.7,12109,12992,1,12992,1,0.00012625,5.6912e-07,0,0.00012625,2.3622e-05,5.1154e+07,1.9462e+05,0,5.1254e+07,12078,12991,12110,1,12110,1,1.2895e-07,-2.1046e-08,0,6.5037e-05,-3.3743e-08,49872,-7204.6,0,2.6418e+07,-2060.8,12109,11203,1,11203,1,-0.00012601,-4.6978e-07,0,4.4925e-06,-2.3665e-05,-5.1254e+07,-1.6065e+05,0,1.8276e+06,-20167,11202,11669,1,11669,1,-6.4919e-05,-1.851e-07,0,3.2501e-05,-1.2235e-05,-2.6404e+07,-63306,0,1.3194e+07,-7462.7,11668,12551,1,12551,1,6.5165e-05,1.0263e-07,0,9.7302e-05,1.2189e-05,2.6428e+07,35134,0,3.9506e+07,3204.5,12550,510.38,0,510.38,0,7.4935e-05,2.2586e-07,0,3.7379e-05,1.406e-05,3.0426e+07,77266,0,1.5174e+07,6715.1,510.38,1
1764,0.48,12110,1,12110,1,1.2426e-07,-7.8363e-09,0,6.6649e-05,-2.3387e-08,5432.1,-2682,0,2.7063e+07,-273.13,12109,12992,1,12992,1,0.00012934,4.6574e-07,0,0.00012934,2.4206e-05,5.2402e+07,1.5927e+05,0,5.2515e+07,13084,12991,12110,1,12110,1,1.2605e-07,-6.891e-09,0,6.6735e-05,-3.1692e-08,49258,-2355.7,0,2.7106e+07,-346.57,12109,11203,1,11203,1,-0.00012911,-3.6845e-07,0,4.6233e-06,-2.4247e-05,-5.2515e+07,-1.2615e+05,0,1.8795e+06,-17522,11202,11669,1,11669,1,-6.6616e-05,-1.2718e-07,0,3.3364e-05,-1.2562e-05,-2.7094e+07,-43513,0,1.3543e+07,-4458.1,11668,12551,1,12551,1,6.6855e-05,8.9558e-08,0,9.9918e-05,1.2509e-05,2.7111e+07,30675,0,4.0558e+07,4132.2,12550,510.38,0,510.38,0,7.6922e-05,1.7617e-07,0,3.8373e-05,1.4431e-05,3.1232e+07,60266,0,1.5576e+07,5844.2,510.38,1
1764,0.49,12110,1,12110,1,1.213e-07,-2.6623e-08,0,6.8048e-05,-2.5794e-08,1613.9,-9107,0,2.763e+07,-1529.5,12109,12992,1,12992,1,0.00013222,4.9842e-07,0,0.00013222,2.4741e-05,5.3558e+07,1.7066e+05,0,5.3676e+07,14657,12991,12110,1,12110,1,1.1923e-07,-1.7033e-08,0,6.8166e-05,-3.3855e-08,45786,-5834,0,2.7688e+07,-1024.5,12109,11203,1,11203,1,-0.00013197,-4.128e-07,0,4.7237e-06,-2.4787e-05,-5.3676e+07,-1.4134e+05,0,1.9215e+06,-17738,11202,11669,1,11669,1,-6.804e-05,-1.5888e-07,0,3.406e-05,-1.2818e-05,-2.7673e+07,-54317,0,1.3825e+07,-5686.3,11668,12551,1,12551,1,6.8288e-05,7.8516e-08,0,0.00010199,1.2774e-05,2.7691e+07,26824,0,4.1406e+07,3340.7,12550,510.38,0,510.38,0,7.8537e-05,1.9165e-07,0,3.9178e-05,1.4734e-05,3.1885e+07,65563,0,1.5902e+07,6317.1,510.38,1
1764,0.5,12110,1,12110,1,1.4169e-07,-2.6083e-08,0,6.9413e-05,-2.6766e-08,7949.4,-8923.7,0,2.8183e+07,-337.05,12109,12992,1,12992,1,0.00013496,4.9828e-07,0,0.00013496,2.525e-05,5.4661e+07,1.704e+05,0,5.4781e+07,15307,12991,12110,1,12110,1,1.4162e-07,-1.9813e-08,0,6.9546e-05,-2.9011e-08,55580,-6773.4,0,2.8247e+07,-473.93,12109,11203,1,11203,1,-0.00013468,-4.14e-07,0,4.8059e-06,-2.53e-05,-5.4781e+07,-1.4175e+05,0,1.9534e+06,-16871,11202,11669,1,11669,1,-6.9409e-05,-1.6604e-07,0,3.4754e-05,-1.3078e-05,-2.823e+07,-56745,0,1.4105e+07,-5036.6,11668,12551,1,12551,1,6.9685e-05,8.2944e-08,0,0.00010404,1.3033e-05,2.8256e+07,28405,0,4.223e+07,4007.9,12550,510.38,0,510.38,0,8.0112e-05,2.0072e-07,0,3.9964e-05,1.503e-05,3.2523e+07,68664,0,1.622e+07,6576.2,510.38,1
1764,0.51,12110,1,12110,1,1.2563e-07,-5.4091e-08,0,7.0621e-05,-2.2742e-08,-607.79,-18503,0,2.8672e+07,81.105,12109,12992,1,12992,1,0.00013734,4.3911e-07,0,0.00013734,2.5704e-05,5.5617e+07,1.5016e+05,0,5.5763e+07,14467,12991,12110,1,12110,1,1.2803e-07,-3.0932e-08,0,7.0774e-05,-2.8445e-08,50161,-10549,0,2.8745e+07,-133.11,12109,11203,1,11203,1,-0.0001371,-4.553e-07,0,4.8984e-06,-2.5745e-05,-5.5763e+07,-1.5589e+05,0,1.9913e+06,-15686,11202,11669,1,11669,1,-7.0652e-05,-1.8843e-07,0,3.5345e-05,-1.3304e-05,-2.8736e+07,-64540,0,1.4347e+07,-4300.2,11668,12551,1,12551,1,7.0896e-05,5.3398e-08,0,0.00010584,1.3266e-05,2.8745e+07,18258,0,4.2962e+07,4256.6,12550,510.38,0,510.38,0,8.1507e-05,1.9395e-07,0,4.066e-05,1.5291e-05,3.3088e+07,66346,0,1.6501e+07,6130.6,510.38,1
1764,0.52,12110,1,12110,1,1.4265e-07,-3.9389e-08,0,7.1634e-05,-2.9777e-08,4129.7,-13473,0,2.9082e+07,-1544.4,12109,12992,1,12992,1,0.0001392,4.6565e-07,0,0.0001392,2.6043e-05,5.6366e+07,1.5948e+05,0,5.6507e+07,13917,12991,12110,1,12110,1,1.4262e-07,-2.2443e-08,0,7.1772e-05,-4.2549e-08,55029,-7679.8,0,2.915e+07,-1534.2,12109,11203,1,11203,1,-0.00013892,-4.5569e-07,0,4.9598e-06,-2.6093e-05,-5.6507e+07,-1.5602e+05,0,2.0175e+06,-18830,11202,11669,1,11669,1,-7.1633e-05,-1.6211e-07,0,3.587e-05,-1.35e-05,-2.9135e+07,-55448,0,1.4557e+07,-5741.8,11668,12551,1,12551,1,7.1914e-05,6.3092e-08,0,0.00010737,1.3449e-05,2.9156e+07,21610,0,4.3577e+07,3344.6,12550,510.38,0,510.38,0,8.2677e-05,1.8727e-07,0,4.1244e-05,1.5509e-05,3.3561e+07,64064,0,1.6737e+07,6023.9,510.38,1
1764,0.53,12110,1,12110,1,1.2284e-07,-5.256e-08,0,7.3203e-05,-1.9035e-08,-5824.6,-17977,0,2.9718e+07,1405.5,12109,12992,1,12992,1,0.00014245,5.582e-07,0,0.00014245,2.6654e-05,5.7674e+07,1.9089e+05,0,5.7827e+07,23628,12991,12110,1,12110,1,1.0851e-07,-3.0192e-08,0,7.3378e-05,-7.1404e-09,43035,-10296,0,2.9797e+07,744.87,12109,11203,1,11203,1,-0.00014217,-5.278e-07,0,5.0862e-06,-2.6704e-05,-5.7827e+07,-1.8049e+05,0,2.0689e+06,-14843,11202,11669,1,11669,1,-7.3232e-05,-2.0975e-07,0,3.6626e-05,-1.3796e-05,-2.9785e+07,-71759,0,1.4869e+07,-4205.8,11668,12551,1,12551,1,7.3499e-05,7.1284e-08,0,0.0001097,1.3745e-05,2.9797e+07,24358,0,4.4524e+07,6325.9,12550,510.38,0,510.38,0,8.4485e-05,2.2962e-07,0,4.2144e-05,1.5851e-05,3.4294e+07,78546,0,1.7101e+07,7556.7,510.38,1
1764,0.54,12110,1,12110,1,1.4365e-07,1.2409e-08,0,7.4728e-05,-3.2064e-08,-1302.9,4245.7,0,3.0335e+07,-2451,12109,12992,1,12992,1,0.00014508,5.4884e-07,0,0.00014508,2.7174e-05,5.8731e+07,1.8798e+05,0,5.8938e+07,12439,12991,12110,1,12110,1,1.4162e-07,-7.3311e-09,0,7.4859e-05,-4.4414e-08,54453,-2505.2,0,3.04e+07,-1686.7,12109,11203,1,11203,1,-0.0001449,-4.2292e-07,0,5.1766e-06,-2.7211e-05,-5.8938e+07,-1.4463e+05,0,2.1058e+06,-24838,11202,11669,1,11669,1,-7.4706e-05,-1.2237e-07,0,3.7424e-05,-1.41e-05,-3.0385e+07,-41841,0,1.5188e+07,-7117.7,11668,12551,1,12551,1,7.5014e-05,1.3268e-07,0,0.00011201,1.402e-05,3.0406e+07,45391,0,4.546e+07,3987.8,12550,510.38,0,510.38,0,8.6247e-05,2.0937e-07,0,4.3025e-05,1.618e-05,3.5006e+07,71618,0,1.7457e+07,7440.3,510.38,1
1764,0.55,12110,1,12110,1,1.4244e-07,-3.0503e-08,0,7.6249e-05,-2.6985e-08,-4638.5,-10430,0,3.095e+07,-420.5,12109,12992,1,12992,1,0.00014801,4.5162e-07,0,0.00014801,2.7682e-05,5.9904e+07,1.5444e+05,0,6.0058e+07,15217,12991,12110,1,12110,1,1.3697e-07,-2.3712e-08,0,7.6371e-05,-3.1881e-08,52992,-8103,0,3.1013e+07,-405.55,12109,11203,1,11203,1,-0.00014765,-4.2433e-07,0,5.2862e-06,-2.7745e-05,-6.0058e+07,-1.4511e+05,0,2.1507e+06,-18668,11202,11669,1,11669,1,-7.6221e-05,-1.3686e-07,0,3.8196e-05,-1.4364e-05,-3.1001e+07,-46798,0,1.5497e+07,-4976.4,11668,12551,1,12551,1,7.6514e-05,5.7334e-08,0,0.0001143,1.4308e-05,3.1013e+07,19638,0,4.6386e+07,4582.4,12550,510.38,0,510.38,0,8.8003e-05,1.7455e-07,0,4.3902e-05,1.6509e-05,3.5717e+07,59705,0,1.7811e+07,6263.8,510.38,1
1764,0.56,12110,1,12110,1,1.6129e-07,-7.4212e-09,0,7.7793e-05,-2.9889e-08,-263.01,-2538.3,0,3.1575e+07,-167.54,12109,12992,1,12992,1,0.00015086,5.1392e-07,0,0.00015086,2.8218e-05,6.1049e+07,1.7566e+05,0,6.1217e+07,18766,12991,12110,1,12110,1,1.5967e-07,-1.3009e-08,0,7.7881e-05,-2.3977e-08,62335,-4455.7,0,3.1625e+07,-245.18,12109,11203,1,11203,1,-0.0001505,-3.9538e-07,0,5.3817e-06,-2.828e-05,-6.1217e+07,-1.3521e+05,0,2.1893e+06,-18731,11202,11669,1,11669,1,-7.7716e-05,-1.213e-07,0,3.8967e-05,-1.4661e-05,-3.1609e+07,-41465,0,1.5816e+07,-4831.5,11668,12551,1,12551,1,7.8049e-05,8.5533e-08,0,0.00011664,1.4588e-05,3.1631e+07,29273,0,4.7326e+07,4133,12550,510.38,0,510.38,0,8.9785e-05,1.8254e-07,0,4.4792e-05,1.6843e-05,3.6437e+07,62430,0,1.817e+07,6310.1,510.38,1
1764,0.57,12110,1,12110,1,1.6535e-07,-3.5971e-09,0,7.9e-05,-3.1734e-08,-1927.4,-1230.8,0,3.2063e+07,-636.14,12109,12992,1,12992,1,0.00015331,5.0554e-07,0,0.00015331,2.8682e-05,6.2026e+07,1.731e+05,0,6.2225e+07,11734,12991,12110,1,12110,1,1.6304e-07,-9.5263e-09,0,7.9096e-05,-3.2157e-08,63731,-3254.1,0,3.2117e+07,-760.64,12109,11203,1,11203,1,-0.00015298,-4.4946e-07,0,5.4592e-06,-2.8746e-05,-6.2225e+07,-1.537e+05,0,2.2206e+06,-14468,11202,11669,1,11669,1,-7.8932e-05,-1.363e-07,0,3.9577e-05,-1.4887e-05,-3.2104e+07,-46539,0,1.6058e+07,-5472.7,11668,12551,1,12551,1,7.9273e-05,1.1579e-07,0,0.00011844,1.4813e-05,3.2123e+07,39613,0,4.8054e+07,4522,12550,510.38,0,510.38,0,9.1179e-05,2.0522e-07,0,4.5487e-05,1.7104e-05,3.7e+07,70186,0,1.845e+07,5777,510.38,1
1764,0.58,12110,1,12110,1,1.8335e-07,-3.2814e-08,0,8.0433e-05,-3.4518e-08,2398.3,-11221,0,3.2642e+07,-398.78,12109,12992,1,12992,1,0.00015618,4.6488e-07,0,0.00015618,2.9201e-05,6.3179e+07,1.5897e+05,0,6.3353e+07,15267,12991,12110,1,12110,1,1.7824e-07,-2.2284e-08,0,8.0566e-05,-3.9027e-08,69666,-7616.4,0,3.2713e+07,-520.1,12109,11203,1,11203,1,-0.00015576,-4.3272e-07,0,5.5535e-06,-2.9277e-05,-6.3353e+07,-1.4797e+05,0,2.2586e+06,-16031,11202,11669,1,11669,1,-8.038e-05,-1.5232e-07,0,4.0303e-05,-1.5154e-05,-3.2693e+07,-52102,0,1.6354e+07,-5031.9,11668,12551,1,12551,1,8.0746e-05,6.0888e-08,0,0.00012059,1.5091e-05,3.2718e+07,20829,0,4.8919e+07,4591.2,12550,510.38,0,510.38,0,9.2832e-05,1.8308e-07,0,4.6312e-05,1.7414e-05,3.7669e+07,62616,0,1.8783e+07,6127.5,510.38,1
1764,0.59,12110,1,12110,1,1.9263e-07,-1.6402e-08,0,8.1426e-05,-3.7175e-08,3040.1,-5607,0,3.3043e+07,-794.39,12109,12992,1,12992,1,0.00015827,7.1391e-07,0,0.00015827,2.9588e-05,6.4013e+07,2.4444e+05,0,6.4191e+07,19041,12991,12110,1,12110,1,1.8999e-07,-1.4993e-08,0,8.1575e-05,-3.847e-08,74192,-5131.6,0,3.3121e+07,-456.79,12109,11203,1,11203,1,-0.00015782,-5.61e-07,0,5.6094e-06,-2.967e-05,-6.4191e+07,-1.9184e+05,0,2.2817e+06,-24777,11202,11669,1,11669,1,-8.1378e-05,-1.8462e-07,0,4.08e-05,-1.5355e-05,-3.3098e+07,-63211,0,1.6552e+07,-6746,11668,12551,1,12551,1,8.1766e-05,1.2082e-07,0,0.00012205,1.5283e-05,3.3128e+07,41382,0,4.9511e+07,6383.7,12550,510.38,0,510.38,0,9.3974e-05,2.5822e-07,0,4.6875e-05,1.7633e-05,3.8129e+07,88312,0,1.901e+07,8746.7,510.38,1
1764,0.6,12110,1,12110,1,2.099e-07,-1.1201e-07,0,8.3099e-05,-3.5608e-08,7301.6,-38304,0,3.372e+07,1215.2,12109,12992,1,12992,1,0.00016201,4.735e-07,0,0.00016201,3.0289e-05,6.5516e+07,1.6191e+05,0,6.5709e+07,25103,12991,12110,1,12110,1,2.0647e-07,-8.5824e-08,0,8.331e-05,-2.6783e-08,82843,-29291,0,3.3824e+07,-126.8,12109,11203,1,11203,1,-0.00016155,-5.6355e-07,0,5.7087e-06,-3.0371e-05,-6.5709e+07,-1.9271e+05,0,2.3208e+06,-14469,11202,11669,1,11669,1,-8.3121e-05,-2.9551e-07,0,4.163e-05,-1.5671e-05,-3.3807e+07,-1.0098e+05,0,1.689e+07,-5055.5,11668,12551,1,12551,1,8.3519e-05,3.5348e-08,0,0.0001245,1.5607e-05,3.3836e+07,12073,0,5.0493e+07,4873.8,12550,510.38,0,510.38,0,9.5908e-05,2.3609e-07,0,4.7844e-05,1.7993e-05,3.8912e+07,80741,0,1.9402e+07,8427.7,510.38,1
1764,0.61,12110,1,12110,1,2.2703e-07,-3.5475e-08,0,8.4723e-05,-4.6184e-08,9251.4,-12131,0,3.4377e+07,-1902.7,12109,12992,1,12992,1,0.00016456,5.3717e-07,0,0.00016456,3.0772e-05,6.6531e+07,1.8398e+05,0,6.6761e+07,14199,12991,12110,1,12110,1,2.3734e-07,-2.461e-08,0,8.4856e-05,-5.4137e-08,93262,-8379.4,0,3.445e+07,-1639.5,12109,11203,1,11203,1,-0.00016414,-4.4829e-07,0,5.7892e-06,-3.0849e-05,-6.6761e+07,-1.5349e+05,0,2.3545e+06,-17846,11202,11669,1,11669,1,-8.4641e-05,-1.6701e-07,0,4.2454e-05,-1.5967e-05,-3.4426e+07,-57081,0,1.7233e+07,-6638.5,11668,12551,1,12551,1,8.5077e-05,6.4208e-08,0,0.00012704,1.5881e-05,3.4462e+07,21989,0,5.1511e+07,3553.8,12550,510.38,0,510.38,0,9.7784e-05,2.0158e-07,0,4.8783e-05,1.8343e-05,3.9669e+07,68942,0,1.978e+07,6770,510.38,1
1764,0.62,12110,1,12110,1,1.8324e-07,1.0921e-08,0,8.6205e-05,-3.6732e-08,-12822,3735.8,0,3.4975e+07,-1396.7,12109,12992,1,12992,1,0.0001672,5.1002e-07,0,0.0001672,3.1294e-05,6.7586e+07,1.7439e+05,0,6.7872e+07,14521,12991,12110,1,12110,1,1.7278e-07,-2.4444e-09,0,8.6317e-05,-3.8362e-08,67134,-834.36,0,3.5035e+07,-1000.2,12109,11203,1,11203,1,-0.00016687,-4.2455e-07,0,5.9622e-06,-3.1351e-05,-6.7872e+07,-1.4517e+05,0,2.4247e+06,-18377,11202,11669,1,11669,1,-8.6143e-05,-1.0722e-07,0,4.3183e-05,-1.6244e-05,-3.5036e+07,-36621,0,1.752e+07,-6559.4,11668,12551,1,12551,1,8.6504e-05,1.2447e-07,0,0.00012926,1.6174e-05,3.5035e+07,42631,0,5.2433e+07,4537.7,12550,510.38,0,510.38,0,9.9494e-05,1.9416e-07,0,4.9635e-05,1.8665e-05,4.0359e+07,66396,0,2.0123e+07,7415.8,510.38,1
1764,0.63,12110,1,12110,1,2.3142e-07,-2.3046e-08,0,8.772e-05,-4.4661e-08,2572.5,-7878.4,0,3.5587e+07,-947.77,12109,12992,1,12992,1,0.00017029,5.0286e-07,0,0.00017029,3.1838e-05,6.8824e+07,1.7217e+05,0,6.9071e+07,17599,12991,12110,1,12110,1,2.3011e-07,-1.0767e-08,0,8.7843e-05,-4.8551e-08,90266,-3676.2,0,3.5659e+07,-669.75,12109,11203,1,11203,1,-0.00016981,-4.4474e-07,0,6.0177e-06,-3.1923e-05,-6.9071e+07,-1.5227e+05,0,2.4476e+06,-21162,11202,11669,1,11669,1,-8.7607e-05,-1.4609e-07,0,4.3942e-05,-1.6534e-05,-3.5632e+07,-49894,0,1.7845e+07,-5981.2,11668,12551,1,12551,1,8.8077e-05,8.4197e-08,0,0.00013155,1.6442e-05,3.5668e+07,28827,0,5.3332e+07,4561.7,12550,510.38,0,510.38,0,0.00010124,1.9713e-07,0,5.0509e-05,1.8993e-05,4.1066e+07,67413,0,2.0475e+07,7066.6,510.38,1
1764,0.64,12110,1,12110,1,2.389e-07,-3.2231e-08,0,8.9167e-05,-4.7235e-08,1007.2,-11019,0,3.6171e+07,-1458.1,12109,12992,1,12992,1,0.00017307,5.1266e-07,0,0.00017307,3.2353e-05,6.9929e+07,1.7558e+05,0,7.0189e+07,15516,12991,12110,1,12110,1,2.413e-07,-2.1774e-08,0,8.9292e-05,-5.6674e-08,94542,-7438,0,3.6245e+07,-779.28,12109,11203,1,11203,1,-0.00017256,-4.3562e-07,0,6.1077e-06,-3.2444e-05,-7.0189e+07,-1.4895e+05,0,2.4847e+06,-23161,11202,11669,1,11669,1,-8.9049e-05,-1.5978e-07,0,4.4656e-05,-1.6805e-05,-3.6218e+07,-54539,0,1.8134e+07,-5892.6,11668,12551,1,12551,1,8.9525e-05,6.6675e-08,0,0.00013372,1.6717e-05,3.625e+07,22837,0,5.421e+07,4261.7,12550,510.38,0,510.38,0,0.00010291,1.9377e-07,0,5.1343e-05,1.9306e-05,4.1739e+07,66260,0,2.0811e+07,7403.7,510.38,1
1764,0.65,12110,1,12110,1,2.5389e-07,-8.2222e-08,0,9.0395e-05,-4.7178e-08,3069.7,-28109,0,3.6667e+07,-268.39,12109,12992,1,12992,1,0.00017572,4.116e-07,0,0.00017572,3.2854e-05,7.0988e+07,1.4073e+05,0,7.1272e+07,12933,12991,12110,1,12110,1,2.5826e-07,-6.1612e-08,0,9.0557e-05,-4.7827e-08,1.023e+05,-21057,0,3.6756e+07,22.628,12109,11203,1,11203,1,-0.00017523,-4.3756e-07,0,6.1734e-06,-3.2943e-05,-7.1272e+07,-1.496e+05,0,2.5101e+06,-17907,11202,11669,1,11669,1,-9.0317e-05,-2.1654e-07,0,4.5311e-05,-1.7038e-05,-3.6734e+07,-74064,0,1.8388e+07,-4065.9,11668,12551,1,12551,1,9.0813e-05,2.1502e-08,0,0.00013553,1.6951e-05,3.6767e+07,7340.1,0,5.4932e+07,3440.1,12550,510.38,0,510.38,0,0.00010433,1.8003e-07,0,5.2052e-05,1.9569e-05,4.2311e+07,61559,0,2.1096e+07,5838.9,510.38,1
1764,0.66,12110,1,12110,1,2.5926e-07,-7.2927e-09,0,9.2098e-05,-4.6493e-08,874.07,-2492.9,0,3.7355e+07,424.82,12109,12992,1,12992,1,0.00017857,4.4738e-07,0,0.00017857,3.337e-05,7.2125e+07,1.5318e+05,0,7.2394e+07,14218,12991,12110,1,12110,1,2.5923e-07,-8.8478e-09,0,9.2179e-05,-4.2175e-08,1.0184e+05,-3020.3,0,3.7413e+07,388.03,12109,11203,1,11203,1,-0.00017798,-3.4745e-07,0,6.3049e-06,-3.3475e-05,-7.2394e+07,-1.1879e+05,0,2.5646e+06,-10929,11202,11669,1,11669,1,-9.1925e-05,-1.0115e-07,0,4.6124e-05,-1.7346e-05,-3.7388e+07,-34573,0,1.8729e+07,-3993.2,11668,12551,1,12551,1,9.2449e-05,7.2936e-08,0,0.00013816,1.7252e-05,3.7424e+07,24923,0,5.6001e+07,4399.9,12550,510.38,0,510.38,0,0.0001063,1.5696e-07,0,5.3034e-05,1.9937e-05,4.3105e+07,53661,0,2.1492e+07,5427.9,510.38,1
1764,0.67,12110,1,12110,1,2.7648e-07,1.2523e-08,0,9.3594e-05,-5.3347e-08,2168.2,4281.9,0,3.7957e+07,-1121.2,12109,12992,1,12992,1,0.0001815,5.3198e-07,0,0.0001815,3.3938e-05,7.3291e+07,1.8188e+05,0,7.3596e+07,19170,12991,12110,1,12110,1,2.8421e-07,-4.1896e-09,0,9.3702e-05,-5.6218e-08,1.1213e+05,-1427.9,0,3.8028e+07,-986.84,12109,11203,1,11203,1,-0.00018094,-3.5636e-07,0,6.3853e-06,-3.404e-05,-7.3596e+07,-1.2197e+05,0,2.5975e+06,-18861,11202,11669,1,11669,1,-9.3428e-05,-1.0299e-07,0,4.6884e-05,-1.7644e-05,-3.7999e+07,-35135,0,1.9036e+07,-5602.5,11668,12551,1,12551,1,9.3993e-05,1.1552e-07,0,0.0001404,1.7545e-05,3.8043e+07,39476,0,5.6902e+07,3621.4,12550,510.38,0,510.38,0,0.00010802,1.8661e-07,0,5.3895e-05,2.0263e-05,4.38e+07,63805,0,2.1838e+07,6483.3,510.38,1
1764,0.68,12110,1,12110,1,2.9574e-07,-3.5444e-08,0,9.5373e-05,-5.5595e-08,4544.2,-12117,0,3.8676e+07,-571.4,12109,12992,1,12992,1,0.00018504,3.7473e-07,0,0.00018504,3.4576e-05,7.4703e+07,1.2835e+05,0,7.5012e+07,13368,12991,12110,1,12110,1,2.9464e-07,-2.319e-08,0,9.5486e-05,-5.5962e-08,1.1608e+05,-7898.9,0,3.875e+07,-673.6,12109,11203,1,11203,1,-0.00018442,-3.7137e-07,0,6.4997e-06,-3.4687e-05,-7.5012e+07,-1.2696e+05,0,2.6443e+06,-12584,11202,11669,1,11669,1,-9.5183e-05,-1.5056e-07,0,4.7756e-05,-1.7971e-05,-3.8714e+07,-51463,0,1.939e+07,-4194.2,11668,12551,1,12551,1,9.5783e-05,5.9486e-08,0,0.00014308,1.786e-05,3.8762e+07,20308,0,5.7976e+07,2827.6,12550,510.38,0,510.38,0,0.00011008,1.6543e-07,0,5.4923e-05,2.0646e-05,4.4629e+07,56559,0,2.2251e+07,5108.6,510.38,1
1764,0.69,12110,1,12110,1,3.015e-07,-4.899e-08,0,9.6662e-05,-5.9578e-08,889.8,-16747,0,3.9194e+07,-1814.5,12109,12992,1,12992,1,0.0001877,4.3687e-07,0,0.0001877,3.5076e-05,7.5756e+07,1.4935e+05,0,7.6094e+07,11592,12991,12110,1,12110,1,2.9809e-07,-2.9501e-08,0,9.6802e-05,-6.0673e-08,1.1714e+05,-10074,0,3.9281e+07,-1073.2,12109,11203,1,11203,1,-0.00018708,-4.5189e-07,0,6.5915e-06,-3.5187e-05,-7.6094e+07,-1.5471e+05,0,2.6811e+06,-16979,11202,11669,1,11669,1,-9.6503e-05,-1.8847e-07,0,4.8423e-05,-1.8219e-05,-3.925e+07,-64344,0,1.966e+07,-6935.4,11668,12551,1,12551,1,9.7102e-05,6.8404e-08,0,0.00014499,1.8114e-05,3.9289e+07,23344,0,5.8744e+07,3645.6,12550,510.38,0,510.38,0,0.00011157,1.9674e-07,0,5.5663e-05,2.0928e-05,4.5226e+07,67257,0,2.2548e+07,6778.8,510.38,1
1764,0.7,12110,1,12110,1,3.1735e-07,-5.4756e-08,0,9.7655e-05,-5.9858e-08,3080.7,-18711,0,3.9593e+07,-699.94,12109,12992,1,12992,1,0.00018972,5.408e-07,0,0.00018972,3.5444e-05,7.6555e+07,1.8522e+05,0,7.6894e+07,19067,12991,12110,1,12110,1,3.221e-07,-3.6471e-08,0,9.7817e-05,-6.5739e-08,1.2634e+05,-12412,0,3.9691e+07,-742.75,12109,11203,1,11203,1,-0.00018905,-5.1832e-07,0,6.6398e-06,-3.5567e-05,-7.6894e+07,-1.7718e+05,0,2.7013e+06,-15104,11202,11669,1,11669,1,-9.7485e-05,-2.0636e-07,0,4.892e-05,-1.8415e-05,-3.965e+07,-70490,0,1.986e+07,-5839.6,11668,12551,1,12551,1,9.8132e-05,5.9115e-08,0,0.00014647,1.8294e-05,3.97e+07,20225,0,5.9341e+07,4423,12550,510.38,0,510.38,0,0.00011271,2.2054e-07,0,5.6231e-05,2.1143e-05,4.5686e+07,75395,0,2.2776e+07,6979.9,510.38,1
1764,0.71,12110,1,12110,1,3.2427e-07,-4.0344e-08,0,9.9464e-05,-5.8283e-08,1184.5,-13788,0,4.0325e+07,487.68,12109,12992,1,12992,1,0.00019297,4.2959e-07,0,0.00019297,3.6052e-05,7.7854e+07,1.4674e+05,0,7.8217e+07,12461,12991,12110,1,12110,1,3.2145e-07,-2.6701e-08,0,9.957e-05,-5.5674e-08,1.2717e+05,-9145.5,0,4.04e+07,631.33,12109,11203,1,11203,1,-0.0001923,-4.2445e-07,0,6.761e-06,-3.6173e-05,-7.8217e+07,-1.4509e+05,0,2.7497e+06,-11075,11202,11669,1,11669,1,-9.9247e-05,-1.6299e-07,0,4.9808e-05,-1.8739e-05,-4.0366e+07,-55734,0,2.0221e+07,-4504.8,11668,12551,1,12551,1,9.9899e-05,5.8075e-08,0,0.00014922,1.863e-05,4.0411e+07,19825,0,6.0446e+07,4880,12550,510.38,0,510.38,0,0.0001148,1.8236e-07,0,5.7277e-05,2.1532e-05,4.6531e+07,62337,0,2.3197e+07,5634.6,510.38,1
1764,0.72,12110,1,12110,1,3.2813e-07,-6.8129e-08,0,0.00010057,-6.4311e-08,-3775.8,-23278,0,4.0769e+07,-1769.4,12109,12992,1,12992,1,0.00019535,4.1618e-07,0,0.00019535,3.6491e-05,7.8793e+07,1.4225e+05,0,7.9163e+07,10630,12991,12110,1,12110,1,3.2143e-07,-5.135e-08,0,0.00010074,-6.7573e-08,1.2576e+05,-17519,0,4.0874e+07,-517.69,12109,11203,1,11203,1,-0.00019463,-4.3924e-07,0,6.8445e-06,-3.6623e-05,-7.9163e+07,-1.5014e+05,0,2.7846e+06,-20467,11202,11669,1,11669,1,-0.0001004,-1.9593e-07,0,5.0378e-05,-1.8965e-05,-4.0835e+07,-66943,0,2.045e+07,-5917.7,11668,12551,1,12551,1,0.00010106,3.2222e-08,0,0.00015086,1.8836e-05,4.0874e+07,11032,0,6.1108e+07,3005.8,12550,510.38,0,510.38,0,0.00011608,1.807e-07,0,5.7915e-05,2.1772e-05,4.7043e+07,61766,0,2.3452e+07,5935.2,510.38,1
1764,0.73,12110,1,12110,1,3.3328e-07,1.2695e-08,0,0.0001022,-6.6784e-08,-7013.1,4342.7,0,4.1428e+07,-2424.4,12109,12992,1,12992,1,0.0001981,5.8399e-07,0,0.0001981,3.7045e-05,7.989e+07,1.9994e+05,0,8.0342e+07,17830,12991,12110,1,12110,1,3.3878e-07,-2.5916e-09,0,0.00010232,-6.9165e-08,1.3261e+05,-883.6,0,4.1508e+07,-1524.8,12109,11203,1,11203,1,-0.00019753,-3.5772e-07,0,6.9436e-06,-3.7155e-05,-8.0342e+07,-1.2247e+05,0,2.8249e+06,-28790,11202,11669,1,11669,1,-0.00010199,-1.0787e-07,0,5.1191e-05,-1.9287e-05,-4.1483e+07,-36921,0,2.078e+07,-7803.2,11668,12551,1,12551,1,0.00010267,1.084e-07,0,0.00015335,1.9144e-05,4.1517e+07,37104,0,6.2113e+07,3241.1,12550,510.38,0,510.38,0,0.00011796,1.9413e-07,0,5.8853e-05,2.2128e-05,4.7802e+07,66360,0,2.3829e+07,7971.1,510.38,1
1764,0.74,12110,1,12110,1,3.6605e-07,-1.5739e-08,0,0.00010321,-6.8858e-08,703.94,-5374.7,0,4.1832e+07,-734.96,12109,12992,1,12992,1,0.00020027,5.9129e-07,0,0.00020027,3.7398e-05,8.0741e+07,2.0209e+05,0,8.113e+07,13634,12991,12110,1,12110,1,3.5758e-07,-1.8404e-08,0,0.00010334,-6.7424e-08,1.407e+05,-6303.5,0,4.1919e+07,-154.9,12109,11203,1,11203,1,-0.00019946,-4.6615e-07,0,6.9989e-06,-3.7543e-05,-8.113e+07,-1.5932e+05,0,2.8467e+06,-20333,11202,11669,1,11669,1,-0.00010296,-1.4935e-07,0,5.1689e-05,-1.9468e-05,-4.1878e+07,-51054,0,2.098e+07,-5341.2,11668,12551,1,12551,1,0.0001037,8.6332e-08,0,0.00015487,1.933e-05,4.1927e+07,29512,0,6.2709e+07,5056.8,12550,510.38,0,510.38,0,0.00011913,2.1027e-07,0,5.9433e-05,2.2345e-05,4.8268e+07,71858,0,2.4061e+07,6951.5,510.38,1
1764,0.75,12110,1,12110,1,3.8243e-07,-6.5135e-09,0,0.00010471,-7.5896e-08,1912.7,-2222.6,0,4.2436e+07,-2426.3,12109,12992,1,12992,1,0.00020306,5.1635e-07,0,0.00020306,3.7923e-05,8.1847e+07,1.7685e+05,0,8.2278e+07,11895,12991,12110,1,12110,1,3.8686e-07,-5.5896e-09,0,0.00010479,-9.1187e-08,1.5246e+05,-1897.7,0,4.2508e+07,-1691.3,12109,11203,1,11203,1,-0.00020228,-3.9729e-07,0,7.078e-06,-3.8064e-05,-8.2278e+07,-1.3601e+05,0,2.879e+06,-24862,11202,11669,1,11669,1,-0.00010441,-1.2848e-07,0,5.2426e-05,-1.9752e-05,-4.2468e+07,-43954,0,2.1279e+07,-6769.6,11668,12551,1,12551,1,0.00010519,9.7295e-08,0,0.00015713,1.9594e-05,4.2524e+07,33204,0,6.3622e+07,3162.3,12550,510.38,0,510.38,0,0.00012086,1.8676e-07,0,6.0298e-05,2.2668e-05,4.8965e+07,63841,0,2.4409e+07,7190.1,510.38,1
1764,0.76,12110,1,12110,1,3.9132e-07,-1.4482e-08,0,0.00010582,-7.2853e-08,-82.502,-4941.7,0,4.2881e+07,-468.37,12109,12992,1,12992,1,0.00020527,5.5334e-07,0,0.00020527,3.8335e-05,8.2721e+07,1.8952e+05,0,8.3169e+07,14071,12991,12110,1,12110,1,4.013e-07,-1.1024e-08,0,0.00010591,-8.1364e-08,1.5814e+05,-3769.2,0,4.2958e+07,-294.81,12109,11203,1,11203,1,-0.00020448,-4.688e-07,0,7.1438e-06,-3.848e-05,-8.3169e+07,-1.6024e+05,0,2.9059e+06,-14584,11202,11669,1,11669,1,-0.00010553,-1.4836e-07,0,5.2985e-05,-1.9948e-05,-4.292e+07,-50789,0,2.1504e+07,-5335.3,11668,12551,1,12551,1,0.00010631,1.1156e-07,0,0.00015878,1.9809e-05,4.2973e+07,38018,0,6.4289e+07,4745.6,12550,510.38,0,510.38,0,0.00012213,2.1285e-07,0,6.0935e-05,2.2908e-05,4.9478e+07,72751,0,2.4663e+07,6492.8,510.38,1
1764,0.77,12110,1,12110,1,3.697e-07,-4.3023e-08,0,0.00010757,-6.3788e-08,-14390,-14696,0,4.3586e+07,1616.4,12109,12992,1,12992,1,0.00020881,5.6588e-07,0,0.00020881,3.9007e-05,8.4129e+07,1.9373e+05,0,8.4625e+07,31276,12991,12110,1,12110,1,3.6543e-07,-3.2154e-08,0,0.00010771,-5.7605e-08,1.4437e+05,-10990,0,4.3684e+07,-215.9,12109,11203,1,11203,1,-0.00020806,-4.6085e-07,0,7.294e-06,-3.9143e-05,-8.4625e+07,-1.575e+05,0,2.9667e+06,-19543,11202,11669,1,11669,1,-0.00010733,-1.7947e-07,0,5.3866e-05,-2.0281e-05,-4.3653e+07,-61398,0,2.1863e+07,-4332.2,11668,12551,1,12551,1,0.00010809,5.793e-08,0,0.00016139,2.015e-05,4.3684e+07,19749,0,6.5347e+07,5635.7,12550,510.38,0,510.38,0,0.00012415,2.0812e-07,0,6.1941e-05,2.3288e-05,5.0291e+07,71120,0,2.5068e+07,8593.5,510.38,1
1764,0.78,12110,1,12110,1,4.1732e-07,1.2072e-08,0,0.00010912,-7.7797e-08,-3188.5,4128.1,0,4.4212e+07,-553.68,12109,12992,1,12992,1,0.00021156,4.9911e-07,0,0.00021156,3.9545e-05,8.5214e+07,1.7055e+05,0,8.5754e+07,17646,12991,12110,1,12110,1,4.2475e-07,-3.7778e-09,0,0.00010925,-8.2082e-08,1.679e+05,-1293.2,0,4.4305e+07,-381.88,12109,11203,1,11203,1,-0.00021083,-3.6659e-07,0,7.3539e-06,-3.9667e-05,-8.5754e+07,-1.255e+05,0,2.9915e+06,-16119,11202,11669,1,11669,1,-0.00010884,-8.9986e-08,0,5.4666e-05,-2.0589e-05,-4.4266e+07,-30722,0,2.2185e+07,-5129,11668,12551,1,12551,1,0.00010968,1.1333e-07,0,0.00016381,2.0427e-05,4.4319e+07,38785,0,6.6296e+07,4578.2,12550,510.38,0,510.38,0,0.00012595,1.7536e-07,0,6.2841e-05,2.3624e-05,5.1013e+07,59926,0,2.5428e+07,6115.2,510.38,1
1764,0.79,12110,1,12110,1,4.4666e-07,-8.5432e-10,0,0.00011048,-7.9801e-08,1969.7,-290.35,0,4.4756e+07,891.29,12109,12992,1,12992,1,0.00021414,5.1716e-07,0,0.00021414,4.0001e-05,8.6229e+07,1.7708e+05,0,8.6756e+07,19679,12991,12110,1,12110,1,4.4545e-07,-7.3835e-09,0,0.00011057,-7.5945e-08,1.7671e+05,-2504.2,0,4.4839e+07,567.87,12109,11203,1,11203,1,-0.0002133,-3.9536e-07,0,7.4252e-06,-4.0143e-05,-8.6756e+07,-1.3509e+05,0,3.0203e+06,-17204,11202,11669,1,11669,1,-0.00011014,-1.0935e-07,0,5.5308e-05,-2.0842e-05,-4.4796e+07,-37294,0,2.2445e+07,-4255.1,11668,12551,1,12551,1,0.00011103,9.7145e-08,0,0.00016586,2.0674e-05,4.4856e+07,32987,0,6.7114e+07,5134.2,12550,510.38,0,510.38,0,0.00012752,1.8425e-07,0,6.3622e-05,2.3918e-05,5.1641e+07,62959,0,2.574e+07,6642.1,510.38,1
1764,0.8,12110,1,12110,1,4.5934e-07,-4.9424e-08,0,0.00011218,-8.4743e-08,-442.61,-16881,0,4.5439e+07,-220.57,12109,12992,1,12992,1,0.00021776,4.1181e-07,0,0.00021776,4.0652e-05,8.7663e+07,1.4098e+05,0,8.819e+07,16262,12991,12110,1,12110,1,4.6145e-07,-2.6546e-08,0,0.00011232,-8.4952e-08,1.825e+05,-9002.7,0,4.5545e+07,-303.55,12109,11203,1,11203,1,-0.00021682,-4.1997e-07,0,7.5347e-06,-4.0822e-05,-8.819e+07,-1.4349e+05,0,3.065e+06,-19278,11202,11669,1,11669,1,-0.00011186,-1.643e-07,0,5.6181e-05,-2.1154e-05,-4.5498e+07,-56261,0,2.2797e+07,-4960,11668,12551,1,12551,1,0.00011278,5.0017e-08,0,0.00016841,2.0992e-05,4.5556e+07,17043,0,6.8133e+07,3741.4,12550,510.38,0,510.38,0,0.00012948,1.7157e-07,0,6.4601e-05,2.4283e-05,5.2429e+07,58620,0,2.6133e+07,5933.8,510.38,1
1764,0.81,12110,1,12110,1,4.7465e-07,-2.387e-08,0,0.00011332,-8.9646e-08,-1796.9,-8154.5,0,4.5895e+07,-1104.1,12109,12992,1,12992,1,0.00021976,4.2606e-07,0,0.00021976,4.1019e-05,8.8437e+07,1.4592e+05,0,8.8986e+07,12719,12991,12110,1,12110,1,4.7428e-07,-1.645e-08,0,0.00011342,-9.4035e-08,1.8675e+05,-5608.1,0,4.5985e+07,-1019.4,12109,11203,1,11203,1,-0.00021878,-4.1712e-07,0,7.6026e-06,-4.1197e-05,-8.8986e+07,-1.4251e+05,0,3.0926e+06,-14214,11202,11669,1,11669,1,-0.00011293,-1.3827e-07,0,5.6723e-05,-2.1369e-05,-4.5933e+07,-47287,0,2.3016e+07,-5856.7,11668,12551,1,12551,1,0.0001139,7.4832e-08,0,0.00017012,2.1193e-05,4.5998e+07,25509,0,6.8827e+07,3803.2,12550,510.38,0,510.38,0,0.00013079,1.7834e-07,0,6.5258e-05,2.4531e-05,5.2954e+07,60927,0,2.6394e+07,5981.2,510.38,1
1764,0.82,12110,1,12110,1,4.9977e-07,7.9512e-09,0,0.0001148,-9.4985e-08,1682.8,2715.6,0,4.6492e+07,-1396.2,12109,12992,1,12992,1,0.00022259,5.6277e-07,0,0.00022259,4.1552e-05,8.956e+07,1.9265e+05,0,9.0133e+07,21864,12991,12110,1,12110,1,4.985e-07,-4.8271e-09,0,0.00011492,-9.7312e-08,1.969e+05,-1648.2,0,4.6592e+07,-1226.3,12109,11203,1,11203,1,-0.0002216,-3.6914e-07,0,7.6928e-06,-4.1742e-05,-9.0133e+07,-1.2611e+05,0,3.1282e+06,-24528,11202,11669,1,11669,1,-0.00011443,-1.0999e-07,0,5.7477e-05,-2.1674e-05,-4.6541e+07,-37596,0,2.332e+07,-6236.3,11668,12551,1,12551,1,0.00011542,1.0416e-07,0,0.00017236,2.1487e-05,4.6605e+07,35397,0,6.972e+07,3550.1,12550,510.38,0,510.38,0,0.0001325,1.9167e-07,0,6.6111e-05,2.4853e-05,5.3643e+07,65478,0,2.6736e+07,7149.8,510.38,1
1764,0.83,12110,1,12110,1,5.2845e-07,-4.9076e-08,0,0.00011601,-1.0036e-07,6073.6,-16757,0,4.6978e+07,-1422.9,12109,12992,1,12992,1,0.00022517,4.8288e-07,0,0.00022517,4.2019e-05,9.0572e+07,1.653e+05,0,9.1157e+07,13964,12991,12110,1,12110,1,5.2903e-07,-2.9709e-08,0,0.00011614,-1.0505e-07,2.0889e+05,-10160,0,4.7085e+07,-1224.4,12109,11203,1,11203,1,-0.00022411,-4.5116e-07,0,7.7438e-06,-4.221e-05,-9.1157e+07,-1.5412e+05,0,3.15e+06,-19735,11202,11669,1,11669,1,-0.00011563,-1.7158e-07,0,5.8098e-05,-2.1887e-05,-4.7029e+07,-58554,0,2.3571e+07,-6253.1,11668,12551,1,12551,1,0.00011667,4.7629e-08,0,0.00017423,2.1699e-05,4.7104e+07,16239,0,7.0444e+07,3576.5,12550,510.38,0,510.38,0,0.0001339,1.8483e-07,0,6.6809e-05,2.5115e-05,5.4203e+07,63141,0,2.7014e+07,6436,510.38,1
1764,0.84,12110,1,12110,1,5.2973e-07,-2.8319e-08,0,0.00011735,-9.7962e-08,-186.57,-9669.1,0,4.7517e+07,-344.38,12109,12992,1,12992,1,0.00022778,5.3468e-07,0,0.00022778,4.2508e-05,9.1597e+07,1.8264e+05,0,9.2214e+07,14625,12991,12110,1,12110,1,5.2294e-07,-1.6338e-08,0,0.00011749,-9.3957e-08,2.0695e+05,-5566.2,0,4.7624e+07,-121.49,12109,11203,1,11203,1,-0.00022671,-4.8279e-07,0,7.8413e-06,-4.27e-05,-9.2214e+07,-1.6492e+05,0,3.1896e+06,-15319,11202,11669,1,11669,1,-0.00011696,-1.7318e-07,0,5.8761e-05,-2.214e-05,-4.7569e+07,-58931,0,2.3839e+07,-5171.3,11668,12551,1,12551,1,0.00011801,9.3162e-08,0,0.00017619,2.195e-05,4.7635e+07,31831,0,7.1249e+07,4664.2,12550,510.38,0,510.38,0,0.00013545,2.1355e-07,0,6.758e-05,2.5405e-05,5.4823e+07,72941,0,2.7322e+07,6534.2,510.38,1
1764,0.85,12110,1,12110,1,5.5917e-07,-7.2307e-08,0,0.00011896,-1.1069e-07,3399.8,-24686,0,4.8161e+07,-3409.8,12109,12992,1,12992,1,0.00023125,5.9929e-07,0,0.00023125,4.314e-05,9.2968e+07,2.0491e+05,0,9.359e+07,14201,12991,12110,1,12110,1,5.578e-07,-5.3092e-08,0,0.00011915,-1.2014e-07,2.1894e+05,-18185,0,4.8295e+07,-2491,12109,11203,1,11203,1,-0.0002301,-5.2967e-07,0,7.9215e-06,-4.3349e-05,-9.359e+07,-1.8115e+05,0,3.2238e+06,-22846,11202,11669,1,11669,1,-0.00011858,-2.4356e-07,0,5.9588e-05,-2.246e-05,-4.8232e+07,-82781,0,2.4174e+07,-8921.8,11668,12551,1,12551,1,0.0001197,5.5505e-08,0,0.00017859,2.2244e-05,4.8309e+07,19011,0,7.2193e+07,2371.4,12550,510.38,0,510.38,0,0.0001373,2.3981e-07,0,6.8502e-05,2.5753e-05,5.5566e+07,81918,0,2.7691e+07,7595.3,510.38,1
1764,0.86,12110,1,12110,1,5.759e-07,-1.8294e-08,0,0.00012065,-1.0936e-07,1179.2,-6247.1,0,4.8838e+07,-1565.7,12109,12992,1,12992,1,0.00023417,5.5376e-07,0,0.00023417,4.3686e-05,9.4112e+07,1.8944e+05,0,9.4766e+07,13268,12991,12110,1,12110,1,5.7003e-07,-1.0671e-08,0,0.00012077,-1.1348e-07,2.2507e+05,-3645.6,0,4.8947e+07,-1317.3,12109,11203,1,11203,1,-0.00023299,-4.7087e-07,0,8.027e-06,-4.39e-05,-9.4766e+07,-1.6107e+05,0,3.2648e+06,-19278,11202,11669,1,11669,1,-0.00012017,-1.6047e-07,0,6.0393e-05,-2.2768e-05,-4.8879e+07,-54744,0,2.4498e+07,-6943.5,11668,12551,1,12551,1,0.00012135,1.0362e-07,0,0.00018114,2.2553e-05,4.8964e+07,35492,0,7.3238e+07,3993.9,12550,510.38,0,510.38,0,0.00013925,2.1915e-07,0,6.9478e-05,2.6118e-05,5.6348e+07,74846,0,2.8081e+07,6785.8,510.38,1
1764,0.87,12110,1,12110,1,6.0009e-07,-6.4148e-08,0,0.00012204,-1.1732e-07,1648.5,-21897,0,4.9397e+07,-3044.9,12109,12992,1,12992,1,0.00023696,4.6131e-07,0,0.00023696,4.42e-05,9.5203e+07,1.5775e+05,0,9.5889e+07,10641,12991,12110,1,12110,1,6.0105e-07,-4.8213e-08,0,0.0001222,-1.2571e-07,2.3629e+05,-16442,0,4.9522e+07,-2163,12109,11203,1,11203,1,-0.00023575,-4.1148e-07,0,8.1026e-06,-4.4421e-05,-9.5889e+07,-1.4085e+05,0,3.2973e+06,-20893,11202,11669,1,11669,1,-0.00012159,-1.8957e-07,0,6.1108e-05,-2.3035e-05,-4.9456e+07,-64599,0,2.4787e+07,-7153.4,11668,12551,1,12551,1,0.00012279,2.7371e-08,0,0.0001833,2.2806e-05,4.9536e+07,9351.5,0,7.4094e+07,1449.9,12550,510.38,0,510.38,0,0.00014086,1.7941e-07,0,7.0284e-05,2.6419e-05,5.6992e+07,61279,0,2.8402e+07,6079.2,510.38,1
1764,0.88,12110,1,12110,1,6.1612e-07,-2.8589e-08,0,0.00012328,-1.1667e-07,258.4,-9756.7,0,4.9891e+07,-1543.3,12109,12992,1,12992,1,0.00023918,4.5154e-07,0,0.00023918,4.461e-05,9.6065e+07,1.5421e+05,0,9.6774e+07,11420,12991,12110,1,12110,1,6.1634e-07,-1.7215e-08,0,0.00012339,-1.2139e-07,2.4329e+05,-5896.3,0,5e+07,-1408,12109,11203,1,11203,1,-0.00023793,-4.054e-07,0,8.1748e-06,-4.4837e-05,-9.6774e+07,-1.3845e+05,0,3.3252e+06,-13275,11202,11669,1,11669,1,-0.00012277,-1.5492e-07,0,6.1713e-05,-2.3266e-05,-4.9933e+07,-52933,0,2.503e+07,-5484.2,11668,12551,1,12551,1,0.00012401,7.5109e-08,0,0.00018508,2.3034e-05,5.0017e+07,25550,0,7.4833e+07,2905,12550,510.38,0,510.38,0,0.00014229,1.8245e-07,0,7.0994e-05,2.6685e-05,5.7561e+07,62311,0,2.8684e+07,5598.9,510.38,1
1764,0.89,12110,1,12110,1,6.3163e-07,-1.9824e-08,0,0.00012465,-1.2203e-07,-1419.6,-6765.5,0,5.044e+07,-2605.5,12109,12992,1,12992,1,0.00024194,6.2058e-07,0,0.00024194,4.5117e-05,9.7153e+07,2.1216e+05,0,9.7876e+07,14446,12991,12110,1,12110,1,6.3268e-07,-2.0545e-08,0,0.00012477,-1.2959e-07,2.4931e+05,-6992.4,0,5.0556e+07,-1789.7,12109,11203,1,11203,1,-0.00024063,-4.0595e-07,0,8.2524e-06,-4.5356e-05,-9.7876e+07,-1.3895e+05,0,3.3568e+06,-23127,11202,11669,1,11669,1,-0.00012412,-1.6017e-07,0,6.2397e-05,-2.3527e-05,-5.0485e+07,-54472,0,2.5307e+07,-7120.8,11668,12551,1,12551,1,0.00012541,7.8399e-08,0,0.00018715,2.3289e-05,5.0572e+07,26768,0,7.565e+07,2461.9,12550,510.38,0,510.38,0,0.00014387,2.0777e-07,0,7.178e-05,2.6982e-05,5.8194e+07,70957,0,2.8998e+07,7017.2,510.38,1
1764,0.9,12110,1,12110,1,6.4217e-07,-2.5892e-08,0,0.00012605,-1.2184e-07,-5787.8,-8830.3,0,5.1002e+07,-1730.8,12109,12992,1,12992,1,0.00024453,5.4465e-07,0,0.00024453,4.56e-05,9.8161e+07,1.8599e+05,0,9.8924e+07,11807,12991,12110,1,12110,1,6.4141e-07,-2.5177e-08,0,0.00012615,-1.1806e-07,2.5348e+05,-8591.7,0,5.1111e+07,-1816.7,12109,11203,1,11203,1,-0.00024321,-4.3505e-07,0,8.3437e-06,-4.584e-05,-9.8924e+07,-1.4855e+05,0,3.3941e+06,-18061,11202,11669,1,11669,1,-0.00012549,-1.7011e-07,0,6.3094e-05,-2.3794e-05,-5.1042e+07,-58025,0,2.5587e+07,-6633.3,11668,12551,1,12551,1,0.0001268,8.9667e-08,0,0.00018921,2.3548e-05,5.1123e+07,30410,0,7.6506e+07,3193,12550,510.38,0,510.38,0,0.00014549,2.0441e-07,0,7.2591e-05,2.7287e-05,5.8842e+07,69800,0,2.9321e+07,6128.5,510.38,1
1764,0.91,12110,1,12110,1,6.8846e-07,-2.1319e-08,0,0.00012769,-1.3018e-07,3650.1,-7270.1,0,5.1661e+07,-1625.4,12109,12992,1,12992,1,0.00024768,4.4879e-07,0,0.00024768,4.6174e-05,9.9398e+07,1.5362e+05,0,1.0017e+08,16036,12991,12110,1,12110,1,6.9327e-07,-1.2355e-08,0,0.00012778,-1.4054e-07,2.7315e+05,-4176.1,0,5.1766e+07,-1337.3,12109,11203,1,11203,1,-0.00024628,-4.0307e-07,0,8.4148e-06,-4.643e-05,-1.0017e+08,-1.3788e+05,0,3.4233e+06,-14603,11202,11669,1,11669,1,-0.00012708,-1.513e-07,0,6.3916e-05,-2.4106e-05,-5.1687e+07,-51616,0,2.5919e+07,-5856.6,11668,12551,1,12551,1,0.00012847,9.2727e-08,0,0.00019166,2.3848e-05,5.1789e+07,31669,0,7.749e+07,2858.7,12550,510.38,0,510.38,0,0.00014739,1.8522e-07,0,7.354e-05,2.7642e-05,5.9602e+07,63251,0,2.97e+07,6171.2,510.38,1
1764,0.92,12110,1,12110,1,6.9431e-07,5.2513e-10,0,0.00012897,-1.2748e-07,-3780.1,183.57,0,5.217e+07,-74.751,12109,12992,1,12992,1,0.00025003,4.9586e-07,0,0.00025003,4.6621e-05,1.0031e+08,1.6972e+05,0,1.0113e+08,10823,12991,12110,1,12110,1,6.9414e-07,-5.9253e-09,0,0.00012905,-1.2376e-07,2.7483e+05,-2016.2,0,5.2278e+07,-200.24,12109,11203,1,11203,1,-0.00024865,-3.6791e-07,0,8.5012e-06,-4.6871e-05,-1.0113e+08,-1.2561e+05,0,3.4578e+06,-10466,11202,11669,1,11669,1,-0.00012837,-1.1355e-07,0,6.4558e-05,-2.4343e-05,-5.221e+07,-38788,0,2.6177e+07,-4146.8,11668,12551,1,12551,1,0.00012976,1.0044e-07,0,0.00019358,2.4087e-05,5.2295e+07,34242,0,7.8249e+07,4044.9,12550,510.38,0,510.38,0,0.00014886,1.7833e-07,0,7.4275e-05,2.7917e-05,6.0188e+07,60889,0,2.9991e+07,5020.1,510.38,1
1764,0.93,12110,1,12110,1,7.3246e-07,-7.8349e-09,0,0.00013054,-1.3822e-07,2263.9,-2669.3,0,5.2799e+07,-1618.7,12109,12992,1,12992,1,0.00025313,4.3676e-07,0,0.00025313,4.7188e-05,1.0152e+08,1.4949e+05,0,1.0236e+08,16429,12991,12110,1,12110,1,7.406e-07,-7.6134e-09,0,0.00013061,-1.4689e-07,2.917e+05,-2589.7,0,5.2906e+07,-1642.3,12109,11203,1,11203,1,-0.00025166,-3.6207e-07,0,8.5706e-06,-4.7451e-05,-1.0236e+08,-1.2392e+05,0,3.4875e+06,-13886,11202,11669,1,11669,1,-0.00012988,-1.1495e-07,0,6.5337e-05,-2.4648e-05,-5.2827e+07,-39260,0,2.6492e+07,-5682.7,11668,12551,1,12551,1,0.00013136,8.7488e-08,0,0.00019593,2.4372e-05,5.293e+07,29815,0,7.9189e+07,2749.9,12550,510.38,0,510.38,0,0.00015067,1.6401e-07,0,7.5181e-05,2.8257e-05,6.0915e+07,56003,0,3.0352e+07,5894.9,510.38,1
1764,0.94,12110,1,12110,1,7.3709e-07,2.1561e-08,0,0.00013166,-1.3247e-07,-5226.7,7363.8,0,5.3246e+07,1126.4,12109,12992,1,12992,1,0.00025553,6.7689e-07,0,0.00025553,4.7642e-05,1.0245e+08,2.3168e+05,0,1.0334e+08,22883,12991,12110,1,12110,1,7.3736e-07,-7.5153e-09,0,0.00013181,-1.3267e-07,2.9171e+05,-2560,0,5.3385e+07,708.34,12109,11203,1,11203,1,-0.00025407,-4.4514e-07,0,8.6488e-06,-4.791e-05,-1.0334e+08,-1.5196e+05,0,3.5177e+06,-15676,11202,11669,1,11669,1,-0.00013107,-1.099e-07,0,6.5934e-05,-2.4874e-05,-5.3309e+07,-37403,0,2.6732e+07,-5171.5,11668,12551,1,12551,1,0.00013256,1.2934e-07,0,0.00019772,2.4602e-05,5.3404e+07,44248,0,7.9888e+07,6828.2,12550,510.38,0,510.38,0,0.00015197,2.1814e-07,0,7.5822e-05,2.8504e-05,6.1429e+07,74462,0,3.0605e+07,7886.5,510.38,1
1764,0.95,12110,1,12110,1,7.7461e-07,-1.7498e-08,0,0.00013346,-1.4813e-07,-192.38,-5970,0,5.397e+07,-2546.1,12109,12992,1,12992,1,0.00025882,3.7726e-07,0,0.00025882,4.8241e-05,1.0375e+08,1.2913e+05,0,1.0465e+08,11468,12991,12110,1,12110,1,7.8178e-07,-9.4444e-09,0,0.00013354,-1.5588e-07,3.0795e+05,-3189.2,0,5.4082e+07,-2153.6,12109,11203,1,11203,1,-0.00025729,-3.4445e-07,0,8.7319e-06,-4.8517e-05,-1.0465e+08,-1.1789e+05,0,3.5536e+06,-15932,11202,11669,1,11669,1,-0.00013278,-1.0727e-07,0,6.68e-05,-2.5206e-05,-5.4007e+07,-36425,0,2.7082e+07,-6211.6,11668,12551,1,12551,1,0.00013432,6.2639e-08,0,0.00020034,2.491e-05,5.4103e+07,21393,0,8.0947e+07,1490.2,12550,510.38,0,510.38,0,0.00015405,1.4446e-07,0,7.6868e-05,2.8888e-05,6.2265e+07,49319,0,3.1023e+07,5342.3,510.38,1
1764,0.96,12110,1,12110,1,8.0993e-07,-4.68e-08,0,0.00013468,-1.513e-07,2855.7,-15965,0,5.4454e+07,-1137.3,12109,12992,1,12992,1,0.00026147,5.0097e-07,0,0.00026147,4.8725e-05,1.0477e+08,1.7146e+05,0,1.057e+08,17360,12991,12110,1,12110,1,8.1133e-07,-3.1539e-08,0,0.00013483,-1.6122e-07,3.2055e+05,-10708,0,5.4595e+07,-591.24,12109,11203,1,11203,1,-0.00025987,-4.4291e-07,0,8.7862e-06,-4.9014e-05,-1.057e+08,-1.5118e+05,0,3.5742e+06,-25591,11202,11669,1,11669,1,-0.00013402,-1.7109e-07,0,6.7433e-05,-2.5443e-05,-5.4512e+07,-58152,0,2.7336e+07,-4910.7,11668,12551,1,12551,1,0.00013563,4.8323e-08,0,0.00020225,2.5145e-05,5.4615e+07,16426,0,8.171e+07,4393.5,12550,510.38,0,510.38,0,0.00015545,1.8742e-07,0,7.7567e-05,2.9156e-05,6.2822e+07,63965,0,3.1299e+07,7474.8,510.38,1
1764,0.97,12110,1,12110,1,8.3156e-07,-9.9832e-09,0,0.00013619,-1.531e-07,2114.2,-3417.8,0,5.5058e+07,-232.64,12109,12992,1,12992,1,0.00026428,5.2865e-07,0,0.00026428,4.9239e-05,1.0586e+08,1.8021e+05,0,1.0682e+08,14709,12991,12110,1,12110,1,8.2917e-07,-1.1024e-08,0,0.00013629,-1.5631e-07,3.2803e+05,-3747.8,0,5.5183e+07,-542.37,12109,11203,1,11203,1,-0.00026262,-4.1295e-07,0,8.8836e-06,-4.9541e-05,-1.0682e+08,-1.4133e+05,0,3.6122e+06,-16219,11202,11669,1,11669,1,-0.00013546,-1.4726e-07,0,6.8165e-05,-2.573e-05,-5.5097e+07,-49932,0,2.7631e+07,-4599.8,11668,12551,1,12551,1,0.00013712,9.9855e-08,0,0.00020444,2.5421e-05,5.5205e+07,34087,0,8.2585e+07,4234.5,12550,510.38,0,510.38,0,0.0001572,2.0187e-07,0,7.8438e-05,2.9481e-05,6.3518e+07,68881,0,3.1645e+07,6033.5,510.38,1
1764,0.98,12110,1,12110,1,8.5795e-07,-2.0783e-08,0,0.00013745,-1.5753e-07,2008.1,-7080.7,0,5.556e+07,-59.038,12109,12992,1,12992,1,0.00026671,5.3729e-07,0,0.00026671,4.968e-05,1.068e+08,1.8389e+05,0,1.0778e+08,16421,12991,12110,1,12110,1,8.5212e-07,-1.6048e-08,0,0.00013756,-1.5859e-07,3.369e+05,-5429.7,0,5.5694e+07,-250.37,12109,11203,1,11203,1,-0.00026497,-4.1144e-07,0,8.948e-06,-4.9997e-05,-1.0778e+08,-1.4041e+05,0,3.6393e+06,-15498,11202,11669,1,11669,1,-0.00013669,-1.3665e-07,0,6.8789e-05,-2.5966e-05,-5.5597e+07,-46557,0,2.7882e+07,-4767.5,11668,12551,1,12551,1,0.00013842,7.1318e-08,0,0.00020633,2.565e-05,5.5716e+07,24324,0,8.3344e+07,4624,12550,510.38,0,510.38,0,0.00015865,1.87e-07,0,7.9163e-05,2.9755e-05,6.4096e+07,63815,0,3.1932e+07,6207.2,510.38,1
1764,0.99,12110,1,12110,1,8.7643e-07,-1.696e-08,0,0.00013864,-1.6595e-07,-264.82,-5787.3,0,5.6035e+07,-2178.9,12109,12992,1,12992,1,0.00026927,6.4226e-07,0,0.00026927,5.0154e-05,1.0779e+08,2.1919e+05,0,1.088e+08,14524,12991,12110,1,12110,1,8.7841e-07,-1.4646e-08,0,0.00013878,-1.7033e-07,3.4654e+05,-4996.8,0,5.618e+07,-1276.8,12109,11203,1,11203,1,-0.00026749,-4.8566e-07,0,9.0058e-06,-5.0476e-05,-1.088e+08,-1.6621e+05,0,3.6634e+06,-22162,11202,11669,1,11669,1,-0.0001379,-1.8038e-07,0,6.9411e-05,-2.6201e-05,-5.6086e+07,-61784,0,2.8132e+07,-7847.2,11668,12551,1,12551,1,0.00013966,1.1531e-07,0,0.00020817,2.5878e-05,5.6204e+07,39326,0,8.4072e+07,4072.6,12550,510.38,0,510.38,0,0.00016002,2.4062e-07,0,7.9844e-05,3.0014e-05,6.4642e+07,82109,0,3.2202e+07,7740.8,510.38,1
1764,1,12110,1,12110,1,9.1201e-07,-2.4579e-08,0,0.00014019,-1.6647e-07,4092.5,-8381.2,0,5.6655e+07,361.45,12109,12992,1,12992,1,0.00027219,5.8564e-07,0,0.00027219,5.0683e-05,1.0893e+08,2.003e+05,0,1.0995e+08,21389,12991,12110,1,12110,1,9.0676e-07,-2.3544e-08,0,0.00014032,-1.6291e-07,3.5852e+05,-8047.4,0,5.6797e+07,-121.06,12109,11203,1,11203,1,-0.00027033,-4.4855e-07,0,9.0904e-06,-5.1023e-05,-1.0995e+08,-1.5305e+05,0,3.6973e+06,-18089,11202,11669,1,11669,1,-0.0001394,-1.7147e-07,0,7.0177e-05,-2.6493e-05,-5.6698e+07,-58287,0,2.8441e+07,-5010.4,11668,12551,1,12551,1,0.00014123,8.8493e-08,0,0.00021047,2.6157e-05,5.6823e+07,30254,0,8.499e+07,4523.1,12550,510.38,0,510.38,0,0.00016181,2.127e-07,0,8.0739e-05,3.0349e-05,6.5358e+07,72563,0,3.2558e+07,7384.8,510.38,1
1764,1.01,12110,1,12110,1,9.2859e-07,-3.3608e-08,0,0.0001417,-1.7161e-07,-1316.9,-11459,0,5.7254e+07,-542.4,12109,12992,1,12992,1,0.00027519,5.7538e-07,0,0.00027519,5.1241e-05,1.1009e+08,1.9634e+05,0,1.1116e+08,22161,12991,12110,1,12110,1,9.2779e-07,-2.4535e-08,0,0.00014184,-1.6979e-07,3.6682e+05,-8308.7,0,5.7407e+07,-878.25,12109,11203,1,11203,1,-0.00027329,-4.5993e-07,0,9.1687e-06,-5.1585e-05,-1.1116e+08,-1.5739e+05,0,3.7297e+06,-18986,11202,11669,1,11669,1,-0.0001409,-1.7446e-07,0,7.0934e-05,-2.678e-05,-5.7307e+07,-59572,0,2.8745e+07,-6479.3,11668,12551,1,12551,1,0.00014277,7.3644e-08,0,0.00021275,2.6436e-05,5.7431e+07,25187,0,8.59e+07,4094.6,12550,510.38,0,510.38,0,0.00016355,2.1286e-07,0,8.1606e-05,3.0675e-05,6.6048e+07,72629,0,3.2901e+07,7848.4,510.38,1
1764,1.02,12110,1,12110,1,9.6029e-07,-4.4055e-08,0,0.00014327,-1.7301e-07,-678.91,-15018,0,5.7881e+07,1314.3,12109,12992,1,12992,1,0.00027826,4.3544e-07,0,0.00027826,5.1797e-05,1.1128e+08,1.4902e+05,0,1.1236e+08,20563,12991,12110,1,12110,1,9.5075e-07,-2.3749e-08,0,0.00014342,-1.6893e-07,3.7619e+05,-8039.2,0,5.8044e+07,847.12,12109,11203,1,11203,1,-0.00027625,-4.721e-07,0,9.2561e-06,-5.2163e-05,-1.1236e+08,-1.6106e+05,0,3.7652e+06,-14685,11202,11669,1,11669,1,-0.00014245,-1.6636e-07,0,7.173e-05,-2.708e-05,-5.7938e+07,-56929,0,2.9065e+07,-3698.3,11668,12551,1,12551,1,0.00014439,5.8171e-08,0,0.00021511,2.6731e-05,5.8067e+07,19924,0,8.6847e+07,5430.1,12550,510.38,0,510.38,0,0.00016536,1.8744e-07,0,8.2514e-05,3.1013e-05,6.6771e+07,63931,0,3.3261e+07,6690,510.38,1
1764,1.03,12110,1,12110,1,9.8489e-07,7.5153e-09,0,0.00014464,-1.8216e-07,-3317.2,2563.4,0,5.8427e+07,-641.79,12109,12992,1,12992,1,0.00028068,6.1438e-07,0,0.00028068,5.2269e-05,1.1221e+08,2.1026e+05,0,1.1337e+08,21074,12991,12110,1,12110,1,9.8859e-07,-2.5395e-09,0,0.00014475,-1.8095e-07,3.9045e+05,-855.36,0,5.8575e+07,-1025.9,12109,11203,1,11203,1,-0.00027874,-4.3146e-07,0,9.3241e-06,-5.2619e-05,-1.1337e+08,-1.4765e+05,0,3.7935e+06,-18668,11202,11669,1,11669,1,-0.00014376,-1.3505e-07,0,7.2402e-05,-2.7353e-05,-5.8474e+07,-45909,0,2.9335e+07,-5889.4,11668,12551,1,12551,1,0.00014575,1.3345e-07,0,0.00021713,2.6974e-05,5.86e+07,45594,0,8.7624e+07,4375.5,12550,510.38,0,510.38,0,0.00016695,2.1855e-07,0,8.3302e-05,3.1311e-05,6.74e+07,74572,0,3.3572e+07,7716.8,510.38,1
1764,1.04,12110,1,12110,1,1.0034e-06,-1.8935e-08,0,0.000146,-1.8273e-07,-7456.6,-6460.4,0,5.8968e+07,522.27,12109,12992,1,12992,1,0.00028329,4.2466e-07,0,0.00028329,5.2732e-05,1.1321e+08,1.4487e+05,0,1.1439e+08,15949,12991,12110,1,12110,1,9.9728e-07,-1.0625e-08,0,0.0001461,-1.8212e-07,3.9423e+05,-3639.1,0,5.9113e+07,192.89,12109,11203,1,11203,1,-0.00028125,-3.8211e-07,0,9.4093e-06,-5.3103e-05,-1.1439e+08,-1.3061e+05,0,3.8275e+06,-10911,11202,11669,1,11669,1,-0.00014508,-1.2624e-07,0,7.3063e-05,-2.759e-05,-5.9009e+07,-42916,0,2.9601e+07,-3359.2,11668,12551,1,12551,1,0.00014711,6.9521e-08,0,0.00021913,2.722e-05,5.9133e+07,23570,0,8.8435e+07,3993.6,12550,510.38,0,510.38,0,0.00016852,1.6574e-07,0,8.4091e-05,3.1602e-05,6.8024e+07,56528,0,3.3883e+07,5350.8,510.38,1
1764,1.05,12110,1,12110,1,1.0562e-06,-4.4212e-09,0,0.0001474,-1.945e-07,2103.5,-1506.3,0,5.9526e+07,-308.86,12109,12992,1,12992,1,0.00028609,5.2848e-07,0,0.00028609,5.3243e-05,1.1429e+08,1.8028e+05,0,1.155e+08,15646,12991,12110,1,12110,1,1.0542e-06,-5.418e-09,0,0.00014749,-1.9952e-07,4.1684e+05,-1824.1,0,5.9672e+07,-309.05,12109,11203,1,11203,1,-0.00028397,-4.2918e-07,0,9.4547e-06,-5.3628e-05,-1.155e+08,-1.4672e+05,0,3.8457e+06,-14011,11202,11669,1,11669,1,-0.00014645,-1.2385e-07,0,7.3775e-05,-2.7871e-05,-5.9564e+07,-42065,0,2.9887e+07,-5276.4,11668,12551,1,12551,1,0.00014856,1.0923e-07,0,0.00022125,2.7483e-05,5.9703e+07,37102,0,8.9265e+07,4750.4,12550,510.38,0,510.38,0,0.00017013,1.9687e-07,0,8.4894e-05,3.1907e-05,6.8666e+07,67141,0,3.4201e+07,6269.6,510.38,1
1764,1.06,12110,1,12110,1,1.0815e-06,2.2819e-08,0,0.00014893,-1.9694e-07,-575.76,7774.6,0,6.0136e+07,599.8,12109,12992,1,12992,1,0.00028915,5.8998e-07,0,0.00028915,5.3835e-05,1.1548e+08,2.0189e+05,0,1.1676e+08,23431,12991,12110,1,12110,1,1.0849e-06,1.5812e-09,0,0.00014907,-1.936e-07,4.2907e+05,537.15,0,6.0305e+07,-75.401,12109,11203,1,11203,1,-0.00028706,-3.9937e-07,0,9.5323e-06,-5.4218e-05,-1.1676e+08,-1.3666e+05,0,3.8779e+06,-17058,11202,11669,1,11669,1,-0.00014798,-1.0508e-07,0,7.4576e-05,-2.8175e-05,-6.0189e+07,-35990,0,3.0209e+07,-4666.6,11668,12551,1,12551,1,0.00015017,1.4066e-07,0,0.00022362,2.777e-05,6.0335e+07,47919,0,9.0205e+07,4871.2,12550,510.38,0,510.38,0,0.0001719,2.0375e-07,0,8.5777e-05,3.2239e-05,6.9369e+07,69487,0,3.455e+07,7364.6,510.38,1
1764,1.07,12110,1,12110,1,1.1187e-06,-5.9396e-09,0,0.00015021,-2.0881e-07,1359.4,-2021.1,0,6.0644e+07,-1506.1,12109,12992,1,12992,1,0.00029148,4.8727e-07,0,0.00029148,5.4232e-05,1.1636e+08,1.6674e+05,0,1.1765e+08,10428,12991,12110,1,12110,1,1.1181e-06,-7.5231e-09,0,0.00015031,-2.1262e-07,4.4144e+05,-2570.7,0,6.0797e+07,-1320.6,12109,11203,1,11203,1,-0.00028925,-4.134e-07,0,9.5997e-06,-5.4637e-05,-1.1765e+08,-1.4145e+05,0,3.9051e+06,-15012,11202,11669,1,11669,1,-0.00014917,-1.1426e-07,0,7.5167e-05,-2.8414e-05,-6.0674e+07,-38894,0,3.0447e+07,-6094.4,11668,12551,1,12551,1,0.00015143,9.5422e-08,0,0.00022544,2.7986e-05,6.0827e+07,32452,0,9.0932e+07,3529,12550,510.38,0,510.38,0,0.00017338,1.8559e-07,0,8.6516e-05,3.2515e-05,6.9955e+07,63290,0,3.4841e+07,6029.2,510.38,1
1764,1.08,12110,1,12110,1,1.1601e-06,-2.3465e-08,0,0.00015191,-2.1613e-07,4744.1,-8002.9,0,6.1322e+07,-1381.9,12109,12992,1,12992,1,0.00029501,5.1954e-07,0,0.00029501,5.4875e-05,1.1773e+08,1.7717e+05,0,1.1904e+08,12546,12991,12110,1,12110,1,1.1486e-06,-1.907e-08,0,0.00015203,-2.2265e-07,4.5392e+05,-6505.5,0,6.1489e+07,-575.73,12109,11203,1,11203,1,-0.00029267,-3.947e-07,0,9.6835e-06,-5.53e-05,-1.1904e+08,-1.3459e+05,0,3.9389e+06,-17987,11202,11669,1,11669,1,-0.00015087,-1.6242e-07,0,7.6029e-05,-2.8738e-05,-6.1363e+07,-55119,0,3.0793e+07,-5888.7,11668,12551,1,12551,1,0.00015319,8.586e-08,0,0.00022804,2.8307e-05,6.152e+07,29273,0,9.1971e+07,3243.5,12550,510.38,0,510.38,0,0.00017534,1.9796e-07,0,8.7496e-05,3.2883e-05,7.0736e+07,67487,0,3.5229e+07,6616.8,510.38,1
1764,1.09,12110,1,12110,1,1.1944e-06,1.99e-08,0,0.00015344,-2.2055e-07,3801,6776.6,0,6.1928e+07,-593.8,12109,12992,1,12992,1,0.00029784,4.4939e-07,0,0.00029784,5.5409e-05,1.1881e+08,1.5378e+05,0,1.2018e+08,17571,12991,12110,1,12110,1,1.2017e-06,7.7328e-09,0,0.00015355,-2.2576e-07,4.7425e+05,2648.6,0,6.2095e+07,-613.68,12109,11203,1,11203,1,-0.00029547,-3.5053e-07,0,9.7435e-06,-5.5835e-05,-1.2018e+08,-1.1994e+05,0,3.9635e+06,-13350,11202,11669,1,11669,1,-0.00015235,-7.942e-08,0,7.681e-05,-2.9027e-05,-6.1965e+07,-27005,0,3.1106e+07,-5082,11668,12551,1,12551,1,0.00015475,1.1965e-07,0,0.00023032,2.8589e-05,6.2133e+07,40865,0,9.287e+07,3760.7,12550,510.38,0,510.38,0,0.00017711,1.7039e-07,0,8.8378e-05,3.3213e-05,7.1434e+07,58101,0,3.5576e+07,6177.9,510.38,1
1764,1.1,12110,1,12110,1,1.2206e-06,-2.5372e-08,0,0.00015456,-2.2524e-07,867.29,-8641.4,0,6.237e+07,-565.43,12109,12992,1,12992,1,0.00030008,5.4328e-07,0,0.00030008,5.5808e-05,1.1966e+08,1.8606e+05,0,1.2106e+08,24735,12991,12110,1,12110,1,1.2214e-06,-2.1981e-08,0,0.00015466,-2.3065e-07,4.8223e+05,-7528.2,0,6.2536e+07,-1079.9,12109,11203,1,11203,1,-0.00029764,-3.9307e-07,0,9.8067e-06,-5.6254e-05,-1.2106e+08,-1.3449e+05,0,3.9885e+06,-17658,11202,11669,1,11669,1,-0.00015344,-1.5521e-07,0,7.7349e-05,-2.9241e-05,-6.2409e+07,-52515,0,3.1321e+07,-5103.4,11668,12551,1,12551,1,0.00015588,7.0109e-08,0,0.00023199,2.8797e-05,6.2566e+07,23854,0,9.3527e+07,2955.7,12550,510.38,0,510.38,0,0.0001784,1.9046e-07,0,8.9021e-05,3.3456e-05,7.1943e+07,64935,0,3.5827e+07,6866.2,510.38,1
1764,1.11,12110,1,12110,1,1.2528e-06,1.4277e-08,0,0.00015621,-2.3276e-07,1168.8,4867.7,0,6.3026e+07,-1242.6,12109,12992,1,12992,1,0.00030318,4.7142e-07,0,0.00030318,5.6387e-05,1.2086e+08,1.609e+05,0,1.2232e+08,10118,12991,12110,1,12110,1,1.2528e-06,-9.0609e-10,0,0.0001563,-2.3638e-07,4.9481e+05,-308.16,0,6.3197e+07,-1412.4,12109,11203,1,11203,1,-0.00030073,-3.3573e-07,0,9.8868e-06,-5.6836e-05,-1.2232e+08,-1.1487e+05,0,4.0214e+06,-11493,11202,11669,1,11669,1,-0.00015507,-7.5921e-08,0,7.8182e-05,-2.9554e-05,-6.3071e+07,-25667,0,3.1658e+07,-5526.9,11668,12551,1,12551,1,0.00015757,9.8443e-08,0,0.00023449,2.9089e-05,6.3234e+07,33465,0,9.4508e+07,2937.3,12550,510.38,0,510.38,0,0.0001803,1.5916e-07,0,8.9972e-05,3.381e-05,7.27e+07,54260,0,3.6204e+07,5010.9,510.38,1
1764,1.12,12110,1,12110,1,1.2766e-06,2.5779e-08,0,0.00015718,-2.332e-07,-3011.2,8782.6,0,6.3407e+07,395.13,12109,12992,1,12992,1,0.00030537,6.6555e-07,0,0.00030537,5.6784e-05,1.2168e+08,2.2793e+05,0,1.2318e+08,16570,12991,12110,1,12110,1,1.2713e-06,3.9852e-09,0,0.00015733,-2.2578e-07,5.0312e+05,1365,0,6.3605e+07,85.322,12109,11203,1,11203,1,-0.00030284,-4.6108e-07,0,9.9255e-06,-5.7249e-05,-1.2318e+08,-1.5753e+05,0,4.0377e+06,-14975,11202,11669,1,11669,1,-0.00015606,-1.1835e-07,0,7.8707e-05,-2.976e-05,-6.3474e+07,-40225,0,3.1866e+07,-4949.1,11668,12551,1,12551,1,0.00015863,1.5595e-07,0,0.000236,2.9283e-05,6.3638e+07,53210,0,9.5108e+07,5737.2,12550,510.38,0,510.38,0,0.00018142,2.2838e-07,0,9.0526e-05,3.4023e-05,7.3137e+07,77846,0,3.6419e+07,6746.6,510.38,1
1764,1.13,12110,1,12110,1,1.3154e-06,-7.2281e-08,0,0.00015863,-2.4176e-07,984.55,-24617,0,6.3988e+07,-202.3,12109,12992,1,12992,1,0.00030833,3.5402e-07,0,0.00030833,5.7318e-05,1.2282e+08,1.2066e+05,0,1.2434e+08,18431,12991,12110,1,12110,1,1.3113e-06,-4.7268e-08,0,0.00015881,-2.3837e-07,5.1805e+05,-16108,0,6.4194e+07,-510.45,12109,11203,1,11203,1,-0.0003057,-4.3315e-07,0,1.0001e-05,-5.7794e-05,-1.2434e+08,-1.4812e+05,0,4.0682e+06,-16832,11202,11669,1,11669,1,-0.00015749,-1.9305e-07,0,7.942e-05,-3.0026e-05,-6.4056e+07,-65576,0,3.2154e+07,-4903.5,11668,12551,1,12551,1,0.00016012,2.8204e-08,0,0.00023822,2.9544e-05,6.4225e+07,9514.2,0,9.5995e+07,3614.2,12550,510.38,0,510.38,0,0.0001831,1.72e-07,0,9.1371e-05,3.4336e-05,7.3808e+07,58624,0,3.6754e+07,6378.9,510.38,1
1764,1.14,12110,1,12110,1,1.3596e-06,3.8321e-09,0,0.00015992,-2.4749e-07,4559,1308.9,0,6.4496e+07,817.27,12109,12992,1,12992,1,0.00031054,6.0935e-07,0,0.00031054,5.7738e-05,1.2366e+08,2.078e+05,0,1.2523e+08,25009,12991,12110,1,12110,1,1.3563e-06,-3.8186e-09,0,0.00016003,-2.5016e-07,5.3599e+05,-1307.9,0,6.4683e+07,559.4,12109,11203,1,11203,1,-0.00030788,-4.738e-07,0,1.0044e-05,-5.8224e-05,-1.2523e+08,-1.6147e+05,0,4.0859e+06,-20726,11202,11669,1,11669,1,-0.00015868,-1.3147e-07,0,8.0058e-05,-3.0289e-05,-6.4538e+07,-44943,0,3.2408e+07,-4908.2,11668,12551,1,12551,1,0.00016141,1.2487e-07,0,0.00024005,2.9785e-05,6.4725e+07,42571,0,9.671e+07,6114.2,12550,510.38,0,510.38,0,0.00018458,2.1826e-07,0,9.2105e-05,3.4617e-05,7.4392e+07,74374,0,3.7041e+07,8120.7,510.38,1
1764,1.15,12110,1,12110,1,1.3957e-06,-3.6016e-08,0,0.00016193,-2.5782e-07,2992.8,-12268,0,6.5299e+07,-753.38,12109,12992,1,12992,1,0.00031461,4.2693e-07,0,0.00031461,5.846e-05,1.2523e+08,1.4507e+05,0,1.2682e+08,14372,12991,12110,1,12110,1,1.3914e-06,-2.3418e-08,0,0.00016205,-2.5655e-07,5.495e+05,-7932.1,0,6.5492e+07,-983.04,12109,11203,1,11203,1,-0.0003118,-4.3534e-07,0,1.0155e-05,-5.8971e-05,-1.2682e+08,-1.4893e+05,0,4.131e+06,-13767,11202,11669,1,11669,1,-0.00016065,-1.697e-07,0,8.104e-05,-3.0654e-05,-6.534e+07,-57653,0,3.2803e+07,-5738.1,11668,12551,1,12551,1,0.00016345,7.6213e-08,0,0.00024308,3.0138e-05,6.553e+07,26104,0,9.7922e+07,4021.5,12550,510.38,0,510.38,0,0.00018691,1.9569e-07,0,9.327e-05,3.505e-05,7.5318e+07,66683,0,3.7503e+07,6222.1,510.38,1
1764,1.16,12110,1,12110,1,1.4347e-06,-2.9962e-08,0,0.00016304,-2.6435e-07,848.49,-10206,0,6.5732e+07,-491.1,12109,12992,1,12992,1,0.00031686,6.1337e-07,0,0.00031686,5.8873e-05,1.2605e+08,2.0985e+05,0,1.2771e+08,23771,12991,12110,1,12110,1,1.4318e-06,-2.4702e-08,0,0.00016318,-2.6713e-07,5.6565e+05,-8382.7,0,6.5935e+07,-986.33,12109,11203,1,11203,1,-0.00031398,-4.5784e-07,0,1.0198e-05,-5.9395e-05,-1.2771e+08,-1.5662e+05,0,4.148e+06,-17365,11202,11669,1,11669,1,-0.00016174,-1.9046e-07,0,8.1606e-05,-3.0872e-05,-6.5786e+07,-64860,0,3.3028e+07,-5600.8,11668,12551,1,12551,1,0.00016461,8.6919e-08,0,0.00024477,3.0342e-05,6.5967e+07,29423,0,9.8577e+07,3424.9,12550,510.38,0,510.38,0,0.00018818,2.2657e-07,0,9.3906e-05,3.5292e-05,7.5815e+07,77201,0,3.7747e+07,7870.6,510.38,1
1764,1.17,12110,1,12110,1,1.4743e-06,-4.345e-08,0,0.00016487,-2.7154e-07,2148,-14801,0,6.6461e+07,-464.37,12109,12992,1,12992,1,0.0003205,3.7679e-07,0,0.0003205,5.9532e-05,1.2746e+08,1.2799e+05,0,1.2914e+08,14393,12991,12110,1,12110,1,1.4676e-06,-2.8796e-08,0,0.00016504,-2.7008e-07,5.7952e+05,-9776.1,0,6.6681e+07,-357.51,12109,11203,1,11203,1,-0.00031751,-3.8322e-07,0,1.0289e-05,-6.0076e-05,-1.2914e+08,-1.3076e+05,0,4.1852e+06,-13013,11202,11669,1,11669,1,-0.00016354,-1.6418e-07,0,8.2519e-05,-3.1222e-05,-6.6518e+07,-55378,0,3.3396e+07,-4852.7,11668,12551,1,12551,1,0.00016651,5.4611e-08,0,0.00024754,3.0676e-05,6.6716e+07,18455,0,9.9688e+07,3492.1,12550,510.38,0,510.38,0,0.0001903,1.7275e-07,0,9.4966e-05,3.5685e-05,7.6657e+07,58855,0,3.8167e+07,5678.7,510.38,1
1764,1.18,12110,1,12110,1,1.5111e-06,1.4337e-08,0,0.00016601,-2.8394e-07,-1058.1,4881.1,0,6.6907e+07,-2844.5,12109,12992,1,12992,1,0.00032234,5.7475e-07,0,0.00032234,5.9889e-05,1.2814e+08,1.9663e+05,0,1.299e+08,13406,12991,12110,1,12110,1,1.5127e-06,-7.92e-10,0,0.00016612,-2.9232e-07,5.9664e+05,-268.32,0,6.711e+07,-1898.5,12109,11203,1,11203,1,-0.00031937,-3.6545e-07,0,1.0329e-05,-6.0434e-05,-1.299e+08,-1.2501e+05,0,4.2022e+06,-23172,11202,11669,1,11669,1,-0.0001646,-1.1312e-07,0,8.308e-05,-3.1458e-05,-6.6948e+07,-38243,0,3.3618e+07,-7178.4,11668,12551,1,12551,1,0.00016764,1.1856e-07,0,0.00024916,3.0881e-05,6.7149e+07,40421,0,1.0031e+08,2340.5,12550,510.38,0,510.38,0,0.00019161,1.9337e-07,0,9.5618e-05,3.5933e-05,7.7169e+07,65887,0,3.8419e+07,6892.6,510.38,1
1764,1.19,12110,1,12110,1,1.554e-06,-1.2578e-08,0,0.00016721,-2.8785e-07,3584.5,-4286,0,6.7381e+07,-1161,12109,12992,1,12992,1,0.00032491,5.3356e-07,0,0.00032491,6.0333e-05,1.2911e+08,1.8119e+05,0,1.3088e+08,10648,12991,12110,1,12110,1,1.551e-06,-1.1219e-08,0,0.00016733,-2.8957e-07,6.1232e+05,-3792.1,0,6.7589e+07,-803.08,12109,11203,1,11203,1,-0.00032178,-4.5174e-07,0,1.0376e-05,-6.0902e-05,-1.3088e+08,-1.5387e+05,0,4.2212e+06,-14769,11202,11669,1,11669,1,-0.00016576,-1.5936e-07,0,8.3674e-05,-3.1672e-05,-6.742e+07,-54393,0,3.3857e+07,-6118.5,11668,12551,1,12551,1,0.00016888,1.1398e-07,0,0.00025098,3.1098e-05,6.7628e+07,38847,0,1.0103e+08,3928.8,12550,510.38,0,510.38,0,0.000193,2.1759e-07,0,9.631e-05,3.6192e-05,7.7715e+07,74103,0,3.869e+07,5983.7,510.38,1
1764,1.2,12110,1,12110,1,1.6068e-06,3.473e-08,0,0.00016846,-3.0422e-07,9957.9,11821,0,6.7877e+07,-3938.3,12109,12992,1,12992,1,0.00032741,7.396e-07,0,0.00032741,6.0811e-05,1.3006e+08,2.5301e+05,0,1.319e+08,14897,12991,12110,1,12110,1,1.6064e-06,8.0239e-09,0,0.00016861,-3.0937e-07,6.3326e+05,2737.9,0,6.8102e+07,-2683.9,12109,11203,1,11203,1,-0.00032428,-4.7332e-07,0,1.0408e-05,-6.1386e-05,-1.319e+08,-1.619e+05,0,4.2345e+06,-28529,11202,11669,1,11669,1,-0.00016701,-1.2683e-07,0,8.4337e-05,-3.1951e-05,-6.7927e+07,-43285,0,3.4122e+07,-10401,11668,12551,1,12551,1,0.00017023,1.7802e-07,0,0.00025292,3.1333e-05,6.8152e+07,60523,0,1.0178e+08,3623,12550,510.38,0,510.38,0,0.00019444,2.5289e-07,0,9.7029e-05,3.6467e-05,7.8286e+07,86152,0,3.8971e+07,9030.9,510.38,1
1764,1.21,12110,1,12110,1,1.6245e-06,-4.8793e-09,0,0.0001698,-3.0131e-07,2793.6,-1667.5,0,6.8405e+07,-1386,12109,12992,1,12992,1,0.00032996,5.4845e-07,0,0.00032996,6.1254e-05,1.3102e+08,1.8619e+05,0,1.3288e+08,10108,12991,12110,1,12110,1,1.6216e-06,-5.4325e-09,0,0.00016992,-3.0288e-07,6.4008e+05,-1860.7,0,6.8621e+07,-1206.5,12109,11203,1,11203,1,-0.0003267,-4.9275e-07,0,1.049e-05,-6.1847e-05,-1.3288e+08,-1.6791e+05,0,4.2674e+06,-14319,11202,11669,1,11669,1,-0.00016828,-1.4857e-07,0,8.4972e-05,-3.2173e-05,-6.8447e+07,-50548,0,3.4377e+07,-6588.2,11668,12551,1,12551,1,0.00017154,1.3003e-07,0,0.00025486,3.1574e-05,6.8661e+07,44047,0,1.0256e+08,3999.2,12550,510.38,0,510.38,0,0.00019599,2.2603e-07,0,9.7803e-05,3.6753e-05,7.8895e+07,76967,0,3.9275e+07,6117.3,510.38,1
1764,1.22,12110,1,12110,1,1.6538e-06,-3.8381e-08,0,0.00017144,-3.0924e-07,-2747.7,-13059,0,6.9057e+07,-2487.3,12109,12992,1,12992,1,0.00033326,5.7845e-07,0,0.00033326,6.1858e-05,1.3228e+08,1.9788e+05,0,1.3419e+08,17422,12991,12110,1,12110,1,1.6493e-06,-3.1202e-08,0,0.00017159,-3.1822e-07,6.5039e+05,-10609,0,6.9289e+07,-1492.2,12109,11203,1,11203,1,-0.0003299,-4.5608e-07,0,1.0577e-05,-6.2466e-05,-1.3419e+08,-1.56e+05,0,4.3022e+06,-27383,11202,11669,1,11669,1,-0.00016993,-1.7516e-07,0,8.5807e-05,-3.2491e-05,-6.9114e+07,-59597,0,3.4711e+07,-6556.7,11668,12551,1,12551,1,0.00017325,5.8566e-08,0,0.00025737,3.1881e-05,6.9325e+07,20021,0,1.0355e+08,3311.7,12550,510.38,0,510.38,0,0.00019788,2.0585e-07,0,9.8749e-05,3.711e-05,7.9646e+07,70115,0,3.9647e+07,7997.7,510.38,1
1764,1.23,12110,1,12110,1,1.7099e-06,-9.5497e-09,0,0.00017264,-3.1723e-07,2759.7,-3258,0,6.9527e+07,-1501.4,12109,12992,1,12992,1,0.00033567,5.8633e-07,0,0.00033567,6.229e-05,1.3317e+08,1.9899e+05,0,1.3513e+08,11315,12991,12110,1,12110,1,1.7036e-06,-6.7305e-09,0,0.00017279,-3.1901e-07,6.7234e+05,-2289.3,0,6.9761e+07,-1285.8,12109,11203,1,11203,1,-0.00033222,-4.956e-07,0,1.061e-05,-6.2919e-05,-1.3513e+08,-1.6879e+05,0,4.3161e+06,-15715,11202,11669,1,11669,1,-0.00017105,-1.6951e-07,0,8.6397e-05,-3.2724e-05,-6.9573e+07,-57609,0,3.4946e+07,-7010.9,11668,12551,1,12551,1,0.00017449,1.2978e-07,0,0.00025915,3.2092e-05,6.9803e+07,44179,0,1.0425e+08,4064.6,12550,510.38,0,510.38,0,0.00019927,2.3833e-07,0,9.944e-05,3.7368e-05,8.0186e+07,81137,0,3.9914e+07,6528.3,510.38,1
1764,1.24,12110,1,12110,1,1.7399e-06,-1.7006e-09,0,0.0001742,-3.2365e-07,-1907.4,-564.25,0,7.0145e+07,-1906.9,12109,12992,1,12992,1,0.00033847,6.2489e-07,0,0.00033847,6.2796e-05,1.3424e+08,2.1375e+05,0,1.3621e+08,17324,12991,12110,1,12110,1,1.7361e-06,-1.1207e-08,0,0.00017431,-3.2865e-07,6.8453e+05,-3795,0,7.0368e+07,-410.21,12109,11203,1,11203,1,-0.00033489,-4.1857e-07,0,1.069e-05,-6.3443e-05,-1.3621e+08,-1.425e+05,0,4.3484e+06,-28355,11202,11669,1,11669,1,-0.00017257,-1.2608e-07,0,8.7182e-05,-3.3034e-05,-7.0188e+07,-42876,0,3.526e+07,-6037,11668,12551,1,12551,1,0.00017606,9.1737e-08,0,0.00026144,3.2382e-05,7.041e+07,31206,0,1.0515e+08,4269.9,12550,510.38,0,510.38,0,0.00020107,2.0076e-07,0,0.00010034,3.7706e-05,8.0898e+07,68344,0,4.0267e+07,8436.8,510.38,1
1764,1.25,12110,1,12110,1,1.8002e-06,-2.6473e-08,0,0.00017596,-3.3531e-07,2778.3,-9001.3,0,7.084e+07,-2140.8,12109,12992,1,12992,1,0.00034197,4.3481e-07,0,0.00034197,6.3439e-05,1.3556e+08,1.4873e+05,0,1.3762e+08,12643,12991,12110,1,12110,1,1.7983e-06,-1.2954e-08,0,0.00017608,-3.438e-07,7.0948e+05,-4402.8,0,7.1073e+07,-1613.7,12109,11203,1,11203,1,-0.00033835,-3.9122e-07,0,1.0756e-05,-6.4098e-05,-1.3762e+08,-1.3348e+05,0,4.3755e+06,-25654,11202,11669,1,11669,1,-0.00017427,-1.3476e-07,0,8.8052e-05,-3.3366e-05,-7.088e+07,-46100,0,3.5609e+07,-6526.7,11668,12551,1,12551,1,0.00017788,6.7564e-08,0,0.00026411,3.2692e-05,7.112e+07,22981,0,1.062e+08,2884.3,12550,510.38,0,510.38,0,0.0002031,1.6774e-07,0,0.00010136,3.8085e-05,8.17e+07,57125,0,4.0666e+07,6176.2,510.38,1
1764,1.26,12110,1,12110,1,1.8539e-06,-2.3145e-09,0,0.00017738,-3.4568e-07,3602.8,-781.5,0,7.1398e+07,-2349.1,12109,12992,1,12992,1,0.0003447,5.535e-07,0,0.0003447,6.3929e-05,1.3657e+08,1.8932e+05,0,1.3868e+08,12522,12991,12110,1,12110,1,1.8534e-06,-8.623e-09,0,0.00017748,-3.5444e-07,7.3111e+05,-2944.4,0,7.1626e+07,-1230,12109,11203,1,11203,1,-0.00034095,-3.8535e-07,0,1.0803e-05,-6.461e-05,-1.3868e+08,-1.3179e+05,0,4.3942e+06,-24910,11202,11669,1,11669,1,-0.00017562,-1.3517e-07,0,8.8761e-05,-3.3648e-05,-7.143e+07,-46113,0,3.5891e+07,-6283.9,11668,12551,1,12551,1,0.00017934,1.0347e-07,0,0.0002662,3.2949e-05,7.1676e+07,35313,0,1.0702e+08,3078.3,12550,510.38,0,510.38,0,0.00020474,1.9734e-07,0,0.00010218,3.8394e-05,8.2342e+07,67191,0,4.0983e+07,7219.9,510.38,1
1764,1.27,12110,1,12110,1,1.8908e-06,-7.1974e-08,0,0.00017883,-3.5119e-07,385.52,-24475,0,7.1969e+07,-1844.9,12109,12992,1,12992,1,0.00034795,3.6973e-07,0,0.00034795,6.4526e-05,1.378e+08,1.2647e+05,0,1.3997e+08,16227,12991,12110,1,12110,1,1.8876e-06,-4.3954e-08,0,0.00017902,-3.5439e-07,7.4455e+05,-14804,0,7.2239e+07,-1224,12109,11203,1,11203,1,-0.00034413,-4.0223e-07,0,1.0869e-05,-6.5219e-05,-1.3997e+08,-1.3733e+05,0,4.4216e+06,-22325,11202,11669,1,11669,1,-0.00017711,-1.9376e-07,0,8.9511e-05,-3.3915e-05,-7.2037e+07,-65520,0,3.6192e+07,-5820.2,11668,12551,1,12551,1,0.0001809,3.1597e-08,0,0.00026852,3.3219e-05,7.228e+07,10754,0,1.0793e+08,2778.9,12550,510.38,0,510.38,0,0.00020642,1.6451e-07,0,0.00010301,3.8705e-05,8.3e+07,56013,0,4.131e+07,5993.5,510.38,1
1764,1.28,12110,1,12110,1,1.9373e-06,-6.2199e-08,0,0.00017982,-3.5984e-07,1933.3,-21142,0,7.2354e+07,-1882.2,12109,12992,1,12992,1,0.00034987,5.6315e-07,0,0.00034987,6.4867e-05,1.385e+08,1.9261e+05,0,1.4071e+08,19143,12991,12110,1,12110,1,1.9317e-06,-4.7092e-08,0,0.00018001,-3.6592e-07,7.6196e+05,-15851,0,7.2627e+07,-1157.3,12109,11203,1,11203,1,-0.00034595,-4.7447e-07,0,1.0894e-05,-6.5581e-05,-1.4071e+08,-1.6226e+05,0,4.4311e+06,-25665,11202,11669,1,11669,1,-0.00017805,-2.0761e-07,0,9.0007e-05,-3.4119e-05,-7.242e+07,-70629,0,3.6388e+07,-5683.2,11668,12551,1,12551,1,0.00018194,4.1821e-08,0,0.00026999,3.3399e-05,7.2672e+07,14167,0,1.085e+08,3179.7,12550,510.38,0,510.38,0,0.00020756,2.1055e-07,0,0.00010358,3.8922e-05,8.3442e+07,71670,0,4.1527e+07,7809.6,510.38,1
1764,1.29,12110,1,12110,1,1.9598e-06,-2.8208e-08,0,0.00018141,-3.6209e-07,-4842.8,-9579.6,0,7.2986e+07,-1135.5,12109,12992,1,12992,1,0.0003528,4.9245e-07,0,0.0003528,6.5409e-05,1.3961e+08,1.6843e+05,0,1.4189e+08,18401,12991,12110,1,12110,1,1.969e-06,-1.3148e-08,0,0.00018155,-3.6742e-07,7.7668e+05,-4429.5,0,7.3243e+07,-464.88,12109,11203,1,11203,1,-0.00034885,-4.1369e-07,0,1.0972e-05,-6.6126e-05,-1.4189e+08,-1.4123e+05,0,4.4638e+06,-21008,11202,11669,1,11669,1,-0.00017957,-1.5572e-07,0,9.0793e-05,-3.4412e-05,-7.3038e+07,-52930,0,3.6702e+07,-5905.4,11668,12551,1,12551,1,0.00018352,8.215e-08,0,0.00027232,3.3686e-05,7.3288e+07,27611,0,1.0942e+08,3614.2,12550,510.38,0,510.38,0,0.0002094,1.912e-07,0,0.0001045,3.9265e-05,8.4171e+07,65102,0,4.1889e+07,6225.3,510.38,1
1764,1.3,12110,1,12110,1,2.0189e-06,3.8196e-08,0,0.00018289,-3.703e-07,-1675.5,12992,0,7.3565e+07,-7.5654,12109,12992,1,12992,1,0.00035565,7.1839e-07,0,0.00035565,6.5949e-05,1.4069e+08,2.4546e+05,0,1.4304e+08,15693,12991,12110,1,12110,1,2.0112e-06,8.391e-09,0,0.00018305,-3.751e-07,7.9352e+05,2835.1,0,7.384e+07,601.09,12109,11203,1,11203,1,-0.00035167,-4.4392e-07,0,1.1038e-05,-6.6676e-05,-1.4304e+08,-1.5103e+05,0,4.4894e+06,-22966,11202,11669,1,11669,1,-0.00018102,-1.149e-07,0,9.154e-05,-3.4721e-05,-7.3626e+07,-38530,0,3.7e+07,-5265.6,11668,12551,1,12551,1,0.00018507,1.6926e-07,0,0.00027456,3.3969e-05,7.3886e+07,56921,0,1.1029e+08,6866.1,12550,510.38,0,510.38,0,0.0002111,2.3844e-07,0,0.00010535,3.9588e-05,8.4836e+07,81115,0,4.2217e+07,8262.6,510.38,1
1764,1.31,12110,1,12110,1,2.0758e-06,-6.2371e-08,0,0.00018408,-3.8452e-07,2365.5,-21195,0,7.4029e+07,-1580.3,12109,12992,1,12992,1,0.00035822,4.99e-07,0,0.00035822,6.638e-05,1.4163e+08,1.7066e+05,0,1.44e+08,16647,12991,12110,1,12110,1,2.0736e-06,-3.0323e-08,0,0.00018426,-3.8912e-07,8.1792e+05,-10187,0,7.4315e+07,-1078.1,12109,11203,1,11203,1,-0.00035403,-5.4432e-07,0,1.1056e-05,-6.7143e-05,-1.44e+08,-1.8541e+05,0,4.4977e+06,-25705,11202,11669,1,11669,1,-0.00018216,-2.1244e-07,0,9.2139e-05,-3.4942e-05,-7.4091e+07,-72307,0,3.7238e+07,-7104,11668,12551,1,12551,1,0.00018633,6.6008e-08,0,0.00027637,3.4175e-05,7.4365e+07,22190,0,1.11e+08,4227,12550,510.38,0,510.38,0,0.00021247,2.1807e-07,0,0.00010603,3.9843e-05,8.537e+07,74211,0,4.2481e+07,7315.7,510.38,1
1764,1.32,12110,1,12110,1,2.1075e-06,-1.7465e-08,0,0.00018586,-3.9283e-07,-4895.1,-5939.8,0,7.4735e+07,-2661,12109,12992,1,12992,1,0.00036144,5.3277e-07,0,0.00036144,6.6966e-05,1.4284e+08,1.822e+05,0,1.4527e+08,13933,12991,12110,1,12110,1,2.1073e-06,-1.3283e-08,0,0.00018598,-3.9687e-07,8.3064e+05,-4504,0,7.4999e+07,-1696.4,12109,11203,1,11203,1,-0.00035716,-4.253e-07,0,1.115e-05,-6.7744e-05,-1.4527e+08,-1.4543e+05,0,4.5359e+06,-22282,11202,11669,1,11669,1,-0.00018385,-1.5688e-07,0,9.2999e-05,-3.5277e-05,-7.4776e+07,-52836,0,3.7582e+07,-7330,11668,12551,1,12551,1,0.00018809,9.5256e-08,0,0.00027894,3.4493e-05,7.5046e+07,32495,0,1.1201e+08,2800,12550,510.38,0,510.38,0,0.00021453,2.0522e-07,0,0.00010706,4.0228e-05,8.6184e+07,69839,0,4.2885e+07,6942.7,510.38,1
1764,1.33,12110,1,12110,1,2.178e-06,-4.138e-08,0,0.00018748,-4.0181e-07,337.39,-14046,0,7.5371e+07,-985.57,12109,12992,1,12992,1,0.00036467,4.1391e-07,0,0.00036467,6.7553e-05,1.4404e+08,1.4155e+05,0,1.4654e+08,17082,12991,12110,1,12110,1,2.1847e-06,-2.1486e-08,0,0.00018762,-4.0661e-07,8.6175e+05,-7325.6,0,7.565e+07,-460.6,12109,11203,1,11203,1,-0.00036028,-3.9127e-07,0,1.1192e-05,-6.8351e-05,-1.4654e+08,-1.3337e+05,0,4.5531e+06,-19408,11202,11669,1,11669,1,-0.00018542,-1.5399e-07,0,9.3821e-05,-3.5586e-05,-7.5418e+07,-52558,0,3.7911e+07,-5253.5,11668,12551,1,12551,1,0.0001898,5.8691e-08,0,0.00028142,3.4782e-05,7.5703e+07,19945,0,1.1298e+08,3249.1,12550,510.38,0,510.38,0,0.0002164,1.6871e-07,0,0.000108,4.0577e-05,8.6916e+07,57421,0,4.3249e+07,5582,510.38,1
1764,1.34,12110,1,12110,1,2.2112e-06,-6.7808e-08,0,0.00018842,-4.0732e-07,-6632.2,-23030,0,7.5733e+07,-772.02,12109,12992,1,12992,1,0.00036679,4.6602e-07,0,0.00036679,6.7926e-05,1.4481e+08,1.5936e+05,0,1.4735e+08,14725,12991,12110,1,12110,1,2.2044e-06,-4.0024e-08,0,0.00018862,-4.113e-07,8.6904e+05,-13346,0,7.6043e+07,316.33,12109,11203,1,11203,1,-0.00036226,-5.0627e-07,0,1.124e-05,-6.8749e-05,-1.4735e+08,-1.7216e+05,0,4.5719e+06,-21410,11202,11669,1,11669,1,-0.00018639,-2.1172e-07,0,9.4321e-05,-3.5781e-05,-7.5812e+07,-71494,0,3.8107e+07,-5041.6,11668,12551,1,12551,1,0.00019083,4.6239e-08,0,0.0002829,3.4971e-05,7.6084e+07,15669,0,1.1356e+08,4546.1,12550,510.38,0,510.38,0,0.00021749,2.0422e-07,0,0.00010854,4.0783e-05,8.7332e+07,69453,0,4.3452e+07,6942.1,510.38,1
1764,1.35,12110,1,12110,1,2.2623e-06,-4.2374e-09,0,0.00018955,-4.1647e-07,-780.56,-1428.3,0,7.6174e+07,-650.5,12109,12992,1,12992,1,0.00036869,6.2791e-07,0,0.00036869,6.8269e-05,1.455e+08,2.1472e+05,0,1.481e+08,19378,12991,12110,1,12110,1,2.2649e-06,3.3826e-11,0,0.00018967,-4.1716e-07,8.9365e+05,11.649,0,7.6454e+07,-685.41,12109,11203,1,11203,1,-0.0003641,-5.7213e-07,0,1.1252e-05,-6.9105e-05,-1.481e+08,-1.9542e+05,0,4.5769e+06,-20327,11202,11669,1,11669,1,-0.00018739,-1.5428e-07,0,9.487e-05,-3.5998e-05,-7.6219e+07,-52030,0,3.8326e+07,-6994.7,11668,12551,1,12551,1,0.00019194,1.465e-07,0,0.00028448,3.5167e-05,7.6512e+07,49662,0,1.1416e+08,5603.8,12550,510.38,0,510.38,0,0.00021878,2.4362e-07,0,0.00010918,4.1027e-05,8.7839e+07,82876,0,4.3703e+07,7311.8,510.38,1
1764,1.36,12110,1,12110,1,2.3289e-06,-8.257e-09,0,0.00019124,-4.3265e-07,5672.1,-2807.6,0,7.6842e+07,-2288.2,12109,12992,1,12992,1,0.00037204,6.4189e-07,0,0.00037204,6.8885e-05,1.4678e+08,2.1936e+05,0,1.4943e+08,14672,12991,12110,1,12110,1,2.3312e-06,-7.4827e-09,0,0.00019135,-4.3865e-07,9.1875e+05,-2546.3,0,7.7125e+07,-1545.4,12109,11203,1,11203,1,-0.00036739,-4.6831e-07,0,1.1315e-05,-6.9731e-05,-1.4943e+08,-1.5999e+05,0,4.6023e+06,-28145,11202,11669,1,11669,1,-0.00018903,-1.5671e-07,0,9.5702e-05,-3.6341e-05,-7.6884e+07,-53020,0,3.8658e+07,-7649.7,11668,12551,1,12551,1,0.00019368,1.1313e-07,0,0.00028704,3.5461e-05,7.7185e+07,38652,0,1.1516e+08,3924.7,12550,510.38,0,510.38,0,0.00022073,2.321e-07,0,0.00011016,4.1393e-05,8.8609e+07,78938,0,4.4085e+07,7949,510.38,1
1764,1.37,12110,1,12110,1,2.3795e-06,-7.0085e-08,0,0.00019262,-4.3989e-07,3106,-23798,0,7.7381e+07,-1449.2,12109,12992,1,12992,1,0.00037505,4.8616e-07,0,0.00037505,6.9422e-05,1.4788e+08,1.6624e+05,0,1.506e+08,16091,12991,12110,1,12110,1,2.3764e-06,-4.3734e-08,0,0.00019281,-4.4243e-07,9.3681e+05,-14599,0,7.7703e+07,-598.65,12109,11203,1,11203,1,-0.00037025,-4.9113e-07,0,1.1366e-05,-7.0294e-05,-1.506e+08,-1.6699e+05,0,4.6241e+06,-25064,11202,11669,1,11669,1,-0.00019041,-2.1268e-07,0,9.6414e-05,-3.6597e-05,-7.7448e+07,-72059,0,3.8942e+07,-6428.8,11668,12551,1,12551,1,0.00019519,4.7922e-08,0,0.0002892,3.5722e-05,7.7758e+07,16279,0,1.1602e+08,3992.9,12550,510.38,0,510.38,0,0.00022233,2.0449e-07,0,0.00011096,4.169e-05,8.9229e+07,69550,0,4.4392e+07,7151.8,510.38,1
1764,1.38,12110,1,12110,1,2.4198e-06,-2.8609e-08,0,0.00019408,-4.4644e-07,-2423.4,-9715.9,0,7.7952e+07,-1119.6,12109,12992,1,12992,1,0.0003778,6.0133e-07,0,0.0003778,6.9919e-05,1.4889e+08,2.0541e+05,0,1.5167e+08,17083,12991,12110,1,12110,1,2.4158e-06,-2.1955e-08,0,0.00019424,-4.5051e-07,9.5189e+05,-7288.3,0,7.8268e+07,-750.55,12109,11203,1,11203,1,-0.0003729,-4.8342e-07,0,1.1431e-05,-7.0809e-05,-1.5167e+08,-1.6431e+05,0,4.6499e+06,-19194,11202,11669,1,11669,1,-0.0001918,-1.8633e-07,0,9.7128e-05,-3.6872e-05,-7.8011e+07,-62791,0,3.9225e+07,-6343.3,11668,12551,1,12551,1,0.00019666,8.7587e-08,0,0.00029134,3.5985e-05,7.832e+07,29590,0,1.1685e+08,4298,12550,510.38,0,510.38,0,0.00022401,2.2857e-07,0,0.0001118,4.2007e-05,8.9886e+07,77707,0,4.4717e+07,7363.6,510.38,1
1764,1.39,12110,1,12110,1,2.4849e-06,-6.8234e-08,0,0.00019534,-4.5875e-07,2787.5,-23167,0,7.8443e+07,-1254.2,12109,12992,1,12992,1,0.00038045,5.2417e-07,0,0.00038045,7.0395e-05,1.4987e+08,1.7923e+05,0,1.527e+08,16679,12991,12110,1,12110,1,2.4784e-06,-4.089e-08,0,0.00019554,-4.5931e-07,9.7668e+05,-13921,0,7.8778e+07,-262.43,12109,11203,1,11203,1,-0.00037543,-5.164e-07,0,1.1457e-05,-7.1307e-05,-1.527e+08,-1.755e+05,0,4.661e+06,-25801,11202,11669,1,11669,1,-0.00019303,-2.2316e-07,0,9.7774e-05,-3.7127e-05,-7.8513e+07,-75831,0,3.9483e+07,-6515.1,11668,12551,1,12551,1,0.00019801,5.8342e-08,0,0.00029328,3.6214e-05,7.8833e+07,19804,0,1.1761e+08,4480.2,12550,510.38,0,510.38,0,0.00022546,2.1895e-07,0,0.00011253,4.2278e-05,9.0451e+07,74455,0,4.4995e+07,7535.6,510.38,1
1764,1.4,12110,1,12110,1,2.5332e-06,-2.7076e-08,0,0.00019685,-4.7127e-07,247.57,-9191.7,0,7.9035e+07,-2799.9,12109,12992,1,12992,1,0.00038327,6.3871e-07,0,0.00038327,7.0903e-05,1.5091e+08,2.1838e+05,0,1.5381e+08,12569,12991,12110,1,12110,1,2.5283e-06,-1.523e-08,0,0.00019702,-4.8398e-07,9.9605e+05,-5151.3,0,7.9361e+07,-1906.8,12109,11203,1,11203,1,-0.00037814,-5.4825e-07,0,1.1513e-05,-7.1836e-05,-1.5381e+08,-1.8742e+05,0,4.6835e+06,-29592,11202,11669,1,11669,1,-0.00019445,-1.956e-07,0,9.8504e-05,-3.742e-05,-7.9088e+07,-66295,0,3.9772e+07,-8339.2,11668,12551,1,12551,1,0.00019955,1.0961e-07,0,0.00029548,3.6479e-05,7.9419e+07,36980,0,1.1846e+08,3942.8,12550,510.38,0,510.38,0,0.0002272,2.5286e-07,0,0.00011339,4.2607e-05,9.1132e+07,85970,0,4.5332e+07,8441,510.38,1
1764,1.41,12110,1,12110,1,2.5888e-06,-5.5911e-08,0,0.00019846,-4.8173e-07,-1311.2,-18981,0,7.9665e+07,-2922.7,12109,12992,1,12992,1,0.00038656,5.2789e-07,0,0.00038656,7.1497e-05,1.5213e+08,1.8049e+05,0,1.551e+08,13467,12991,12110,1,12110,1,2.589e-06,-2.6414e-08,0,0.00019865,-4.8706e-07,1.0201e+06,-9047.2,0,8.0008e+07,-1640.7,12109,11203,1,11203,1,-0.00038131,-5.1747e-07,0,1.1566e-05,-7.2452e-05,-1.551e+08,-1.763e+05,0,4.7056e+06,-26696,11202,11669,1,11669,1,-0.00019603,-2.1466e-07,0,9.933e-05,-3.7735e-05,-7.9732e+07,-73332,0,4.0102e+07,-8553,11668,12551,1,12551,1,0.00020124,7.8032e-08,0,0.00029794,3.6775e-05,8.0067e+07,26501,0,1.1943e+08,3079.9,12550,510.38,0,510.38,0,0.00022906,2.2718e-07,0,0.00011432,4.2953e-05,9.1858e+07,77240,0,4.5692e+07,7528.3,510.38,1
1764,1.42,12110,1,12110,1,2.6477e-06,-7.473e-08,0,0.00020015,-4.8873e-07,-3877.3,-25358,0,8.0327e+07,-1342.6,12109,12992,1,12992,1,0.00039001,4.3833e-07,0,0.00039001,7.2125e-05,1.5341e+08,1.4986e+05,0,1.5645e+08,13628,12991,12110,1,12110,1,2.6425e-06,-4.6181e-08,0,0.00020038,-4.9619e-07,1.0413e+06,-15606,0,8.0691e+07,-1219.4,12109,11203,1,11203,1,-0.00038465,-4.6261e-07,0,1.1633e-05,-7.3099e-05,-1.5645e+08,-1.5723e+05,0,4.7324e+06,-21827,11202,11669,1,11669,1,-0.00019769,-2.2408e-07,0,0.00010018,-3.8064e-05,-8.041e+07,-75805,0,4.044e+07,-5222.5,11668,12551,1,12551,1,0.00020301,4.0875e-08,0,0.00030053,3.7079e-05,8.0745e+07,13834,0,1.2044e+08,3790.7,12550,510.38,0,510.38,0,0.00023102,1.9983e-07,0,0.0001153,4.3317e-05,9.262e+07,67928,0,4.607e+07,6427.4,510.38,1
1764,1.43,12110,1,12110,1,2.7163e-06,-7.0078e-08,0,0.00020097,-5.0324e-07,1357.3,-23782,0,8.0639e+07,-2116.5,12109,12992,1,12992,1,0.00039159,5.4074e-07,0,0.00039159,7.2394e-05,1.5393e+08,1.8487e+05,0,1.5704e+08,16001,12991,12110,1,12110,1,2.7127e-06,-4.1808e-08,0,0.00020118,-5.068e-07,1.069e+06,-13961,0,8.1e+07,-1320.9,12109,11203,1,11203,1,-0.0003861,-5.3657e-07,0,1.1623e-05,-7.3394e-05,-1.5704e+08,-1.8262e+05,0,4.7288e+06,-24886,11202,11669,1,11669,1,-0.00019844,-2.3169e-07,0,0.0001006,-3.8233e-05,-8.0713e+07,-79017,0,4.0603e+07,-7423.1,11668,12551,1,12551,1,0.00020389,5.9601e-08,0,0.00030174,3.7226e-05,8.1061e+07,20268,0,1.2089e+08,3402.2,12550,510.38,0,510.38,0,0.00023197,2.298e-07,0,0.00011578,4.3498e-05,9.2978e+07,78099,0,4.6244e+07,7588.3,510.38,1
1764,1.44,12110,1,12110,1,2.7629e-06,-3.9297e-08,0,0.00020304,-5.1034e-07,-1790.8,-13338,0,8.146e+07,-1533.7,12109,12992,1,12992,1,0.00039547,5.7967e-07,0,0.00039547,7.3106e-05,1.5541e+08,1.9816e+05,0,1.5858e+08,17955,12991,12110,1,12110,1,2.7587e-06,-3.0864e-08,0,0.00020321,-5.2149e-07,1.0871e+06,-10448,0,8.1808e+07,-1023.7,12109,11203,1,11203,1,-0.00038988,-4.5028e-07,0,1.1726e-05,-7.4119e-05,-1.5858e+08,-1.5391e+05,0,4.7698e+06,-29423,11202,11669,1,11669,1,-0.00020042,-1.8978e-07,0,0.00010161,-3.8618e-05,-8.1518e+07,-64066,0,4.1006e+07,-6229.5,11668,12551,1,12551,1,0.00020597,7.0465e-08,0,0.00030479,3.7597e-05,8.1868e+07,23965,0,1.2209e+08,3837.4,12550,510.38,0,510.38,0,0.00023436,2.1994e-07,0,0.00011697,4.3945e-05,9.3923e+07,74751,0,4.6714e+07,7768.4,510.38,1
1764,1.45,12110,1,12110,1,2.8691e-06,-6.4231e-08,0,0.00020454,-5.2499e-07,-2568.2,-21767,0,8.2026e+07,378.31,12109,12992,1,12992,1,0.00039843,3.3801e-07,0,0.00039843,7.3614e-05,1.5644e+08,1.1474e+05,0,1.5968e+08,11556,12991,12110,1,12110,1,2.8619e-06,-4.5322e-08,0,0.00020472,-5.2909e-07,1.1262e+06,-15137,0,8.2387e+07,957.97,12109,11203,1,11203,1,-0.00039259,-3.7863e-07,0,1.1726e-05,-7.4676e-05,-1.5968e+08,-1.2851e+05,0,4.77e+06,-14047,11202,11669,1,11669,1,-0.00020183,-1.7432e-07,0,0.00010236,-3.8913e-05,-8.2092e+07,-59059,0,4.1298e+07,-3389.9,11668,12551,1,12551,1,0.00020757,2.2217e-08,0,0.00030704,3.7862e-05,8.2445e+07,7488.4,0,1.2294e+08,4036.1,12550,510.38,0,510.38,0,0.00023609,1.5078e-07,0,0.00011784,4.4267e-05,9.4577e+07,51201,0,4.704e+07,4704.8,510.38,1
1764,1.46,12110,1,12110,1,2.9397e-06,2.028e-08,0,0.00020569,-5.4226e-07,2924.9,6868.8,0,8.2468e+07,-1396.1,12109,12992,1,12992,1,0.00040049,4.767e-07,0,0.00040049,7.3998e-05,1.5719e+08,1.6326e+05,0,1.605e+08,16923,12991,12110,1,12110,1,2.9398e-06,7.3659e-09,0,0.00020582,-5.5324e-07,1.1563e+06,2436.7,0,8.2823e+07,-1642.3,12109,11203,1,11203,1,-0.0003946,-4.0122e-07,0,1.1737e-05,-7.5071e-05,-1.605e+08,-1.367e+05,0,4.7749e+06,-13883,11202,11669,1,11669,1,-0.00020288,-9.4913e-08,0,0.00010291,-3.9147e-05,-8.2516e+07,-31826,0,4.1511e+07,-6221.1,11668,12551,1,12551,1,0.00020876,1.418e-07,0,0.00030874,3.8064e-05,8.289e+07,47964,0,1.2358e+08,3250,12550,510.38,0,510.38,0,0.00023741,1.9116e-07,0,0.0001185,4.4516e-05,9.5085e+07,64919,0,4.729e+07,6044.9,510.38,1
1764,1.47,12110,1,12110,1,2.9823e-06,-4.2576e-08,0,0.00020714,-5.5093e-07,-2907.9,-14429,0,8.3034e+07,-1796.1,12109,12992,1,12992,1,0.00040357,6.1737e-07,0,0.00040357,7.4549e-05,1.5832e+08,2.1099e+05,0,1.6171e+08,12983,12991,12110,1,12110,1,2.9827e-06,-2.8122e-08,0,0.0002073,-5.5754e-07,1.1726e+06,-9462.6,0,8.3405e+07,-789.34,12109,11203,1,11203,1,-0.00039757,-5.4783e-07,0,1.1798e-05,-7.5639e-05,-1.6171e+08,-1.8591e+05,0,4.799e+06,-27485,11202,11669,1,11669,1,-0.0002043,-2.1372e-07,0,0.00010366,-3.943e-05,-8.3096e+07,-71997,0,4.1808e+07,-6490.3,11668,12551,1,12551,1,0.00021028,8.7157e-08,0,0.00031094,3.8328e-05,8.3466e+07,29082,0,1.2444e+08,4373.6,12550,510.38,0,510.38,0,0.00023908,2.4637e-07,0,0.00011933,4.4832e-05,9.5735e+07,83667,0,4.761e+07,7976.4,510.38,1
1764,1.48,12110,1,12110,1,3.0415e-06,-4.534e-08,0,0.00020869,-5.5831e-07,-4154.3,-15375,0,8.3642e+07,-351.22,12109,12992,1,12992,1,0.00040658,4.7486e-07,0,0.00040658,7.5084e-05,1.5941e+08,1.6228e+05,0,1.6287e+08,17794,12991,12110,1,12110,1,3.0322e-06,-2.4241e-08,0,0.00020888,-5.654e-07,1.192e+06,-8220.7,0,8.4026e+07,-248.22,12109,11203,1,11203,1,-0.00040044,-4.537e-07,0,1.1857e-05,-7.6201e-05,-1.6287e+08,-1.5395e+05,0,4.8231e+06,-14076,11202,11669,1,11669,1,-0.0002058,-1.7038e-07,0,0.00010443,-3.9731e-05,-8.3708e+07,-57428,0,4.2114e+07,-5017.1,11668,12551,1,12551,1,0.00021191,5.9715e-08,0,0.00031328,3.8606e-05,8.4085e+07,20281,0,1.2536e+08,4032.1,12550,510.38,0,510.38,0,0.00024088,1.8934e-07,0,0.00012023,4.5166e-05,9.6436e+07,64289,0,4.7957e+07,6286.6,510.38,1
1764,1.49,12110,1,12110,1,3.1354e-06,-3.1174e-08,0,0.00021035,-5.7708e-07,5240.7,-10553,0,8.4287e+07,-961.04,12109,12992,1,12992,1,0.00040965,4.5723e-07,0,0.00040965,7.5628e-05,1.6052e+08,1.5625e+05,0,1.6406e+08,12282,12991,12110,1,12110,1,3.1361e-06,-1.7493e-08,0,0.00021047,-5.759e-07,1.2336e+06,-5798.3,0,8.4654e+07,-1091.8,12109,11203,1,11203,1,-0.00040335,-4.1925e-07,0,1.1869e-05,-7.6776e-05,-1.6406e+08,-1.4295e+05,0,4.8288e+06,-15789,11202,11669,1,11669,1,-0.00020732,-1.5174e-07,0,0.00010524,-4.005e-05,-8.4323e+07,-50997,0,4.2437e+07,-4761.1,11668,12551,1,12551,1,0.00021361,7.0439e-08,0,0.00031569,3.889e-05,8.4728e+07,23914,0,1.2628e+08,3342.2,12550,510.38,0,510.38,0,0.0002428,1.8102e-07,0,0.00012119,4.5524e-05,9.7178e+07,61479,0,4.8324e+07,5484.8,510.38,1
1764,1.5,12110,1,12110,1,3.1989e-06,1.0362e-08,0,0.00021206,-5.8963e-07,960.11,3508.6,0,8.4951e+07,-1356.3,12109,12992,1,12992,1,0.00041279,4.5208e-07,0,0.00041279,7.6218e-05,1.6168e+08,1.5483e+05,0,1.6531e+08,12797,12991,12110,1,12110,1,3.1989e-06,3.5466e-09,0,0.00021215,-5.9206e-07,1.2582e+06,1193,0,8.5317e+07,-1025.8,12109,11203,1,11203,1,-0.00040644,-3.487e-07,0,1.1928e-05,-7.738e-05,-1.6531e+08,-1.1842e+05,0,4.8522e+06,-20544,11202,11669,1,11669,1,-0.00020896,-1.0274e-07,0,0.0001061,-4.0393e-05,-8.4993e+07,-34716,0,4.2777e+07,-5338.1,11668,12551,1,12551,1,0.00021537,1.1382e-07,0,0.00031825,3.9202e-05,8.5393e+07,38349,0,1.2726e+08,3061.3,12550,510.38,0,510.38,0,0.00024476,1.7564e-07,0,0.00012218,4.5893e-05,9.7942e+07,59628,0,4.8702e+07,5615.6,510.38,1
1764,1.51,12110,1,12110,1,3.2686e-06,-5.4844e-08,0,0.00021326,-6.0001e-07,984.75,-18590,0,8.5414e+07,-352.08,12109,12992,1,12992,1,0.00041557,4.0016e-07,0,0.00041557,7.6687e-05,1.6266e+08,1.3574e+05,0,1.6635e+08,12772,12991,12110,1,12110,1,3.2594e-06,-3.9013e-08,0,0.00021342,-6.0265e-07,1.2823e+06,-13349,0,8.5811e+07,-152.78,12109,11203,1,11203,1,-0.00040899,-3.9231e-07,0,1.1952e-05,-7.7885e-05,-1.6635e+08,-1.3356e+05,0,4.8616e+06,-15753,11202,11669,1,11669,1,-0.00021013,-1.8208e-07,0,0.00010671,-4.0616e-05,-8.5467e+07,-61354,0,4.3017e+07,-4717.3,11668,12551,1,12551,1,0.00021668,4.7741e-08,0,0.00032011,3.9421e-05,8.588e+07,16094,0,1.2799e+08,3876.1,12550,510.38,0,510.38,0,0.00024616,1.7631e-07,0,0.00012287,4.6154e-05,9.8474e+07,59834,0,4.8964e+07,5548.3,510.38,1
1764,1.52,12110,1,12110,1,3.3088e-06,-3.7191e-08,0,0.00021468,-6.0818e-07,-6939.9,-12601,0,8.5967e+07,-724.8,12109,12992,1,12992,1,0.00041821,4.2331e-07,0,0.00041821,7.7176e-05,1.6361e+08,1.4357e+05,0,1.6741e+08,17784,12991,12110,1,12110,1,3.3087e-06,-2.0811e-08,0,0.00021481,-6.1134e-07,1.3008e+06,-7128.1,0,8.6358e+07,-605.01,12109,11203,1,11203,1,-0.00041158,-4.1307e-07,0,1.2011e-05,-7.838e-05,-1.6741e+08,-1.4009e+05,0,4.8865e+06,-21061,11202,11669,1,11669,1,-0.0002115,-1.5971e-07,0,0.00010741,-4.0892e-05,-8.6022e+07,-54308,0,4.3296e+07,-4635.1,11668,12551,1,12551,1,0.00021812,6.1454e-08,0,0.00032222,3.9676e-05,8.6422e+07,20809,0,1.288e+08,3791.1,12550,510.38,0,510.38,0,0.0002478,1.7891e-07,0,0.00012369,4.6463e-05,9.9111e+07,60719,0,4.9278e+07,6250.3,510.38,1
1764,1.53,12110,1,12110,1,3.3736e-06,-2.5994e-08,0,0.00021596,-6.1665e-07,-6604,-8814,0,8.6461e+07,701.53,12109,12992,1,12992,1,0.00042076,5.0089e-07,0,0.00042076,7.7624e-05,1.6453e+08,1.7114e+05,0,1.6838e+08,13313,12991,12110,1,12110,1,3.3732e-06,-1.9751e-08,0,0.00021609,-6.1587e-07,1.3263e+06,-6583.3,0,8.6857e+07,364.36,12109,11203,1,11203,1,-0.00041398,-4.3813e-07,0,1.2038e-05,-7.8857e-05,-1.6838e+08,-1.4969e+05,0,4.8965e+06,-10821,11202,11669,1,11669,1,-0.0002127,-1.6744e-07,0,0.00010805,-4.114e-05,-8.651e+07,-56321,0,4.3549e+07,-3945.5,11668,12551,1,12551,1,0.00021947,9.2473e-08,0,0.00032412,3.9905e-05,8.6925e+07,30864,0,1.2953e+08,5452.6,12550,510.38,0,510.38,0,0.00024927,2.0548e-07,0,0.00012443,4.6739e-05,9.9678e+07,69723,0,4.9558e+07,5801,510.38,1
1764,1.54,12110,1,12110,1,3.4744e-06,-5.2754e-08,0,0.0002178,-6.3804e-07,5568.7,-17870,0,8.7182e+07,-468.84,12109,12992,1,12992,1,0.00042451,3.8606e-07,0,0.00042451,7.8288e-05,1.6592e+08,1.3189e+05,0,1.6982e+08,13892,12991,12110,1,12110,1,3.4619e-06,-3.652e-08,0,0.00021797,-6.3999e-07,1.3617e+06,-12262,0,8.7602e+07,-1074.2,12109,11203,1,11203,1,-0.00041752,-3.7945e-07,0,1.2073e-05,-7.956e-05,-1.6982e+08,-1.2866e+05,0,4.9108e+06,-19515,11202,11669,1,11669,1,-0.00021447,-1.7344e-07,0,0.00010897,-4.151e-05,-8.7232e+07,-58764,0,4.3914e+07,-4024.5,11668,12551,1,12551,1,0.00022143,4.0859e-08,0,0.00032692,4.0227e-05,8.7677e+07,13863,0,1.3063e+08,3663.5,12550,510.38,0,510.38,0,0.0002514,1.6761e-07,0,0.00012549,4.7136e-05,1.0051e+08,56866,0,4.9969e+07,5524.6,510.38,1
1764,1.55,12110,1,12110,1,3.544e-06,9.7553e-09,0,0.00021921,-6.5065e-07,712.15,3302.9,0,8.772e+07,-421.37,12109,12992,1,12992,1,0.00042691,4.3528e-07,0,0.00042691,7.8745e-05,1.6676e+08,1.4757e+05,0,1.708e+08,13121,12991,12110,1,12110,1,3.5342e-06,-1.1747e-09,0,0.00021932,-6.5538e-07,1.3897e+06,-387.74,0,8.8127e+07,-138.37,12109,11203,1,11203,1,-0.00041991,-2.9404e-07,0,1.2104e-05,-8.0022e-05,-1.708e+08,-99905,0,4.9236e+06,-14979,11202,11669,1,11669,1,-0.00021577,-8.2245e-08,0,0.00010967,-4.1787e-05,-8.7759e+07,-27919,0,4.419e+07,-4302.8,11668,12551,1,12551,1,0.00022287,9.6951e-08,0,0.00032897,4.0481e-05,8.8207e+07,32839,0,1.3139e+08,3488.8,12550,510.38,0,510.38,0,0.00025302,1.5119e-07,0,0.00012631,4.744e-05,1.0113e+08,51279,0,5.0274e+07,5210.2,510.38,1
1764,1.56,12110,1,12110,1,3.6109e-06,2.3236e-08,0,0.0002203,-6.6334e-07,2104.2,7879.6,0,8.8137e+07,-589.46,12109,12992,1,12992,1,0.00042925,5.2029e-07,0,0.00042925,7.915e-05,1.6757e+08,1.7635e+05,0,1.7169e+08,14931,12991,12110,1,12110,1,3.6137e-06,6.2146e-09,0,0.00022042,-6.6022e-07,1.4209e+06,2058.2,0,8.8555e+07,-588.59,12109,11203,1,11203,1,-0.00042211,-3.8941e-07,0,1.2104e-05,-8.0459e-05,-1.7169e+08,-1.32e+05,0,4.9247e+06,-14809,11202,11669,1,11669,1,-0.0002168,-1.0073e-07,0,0.00011023,-4.2009e-05,-8.8182e+07,-34481,0,4.4409e+07,-4938.4,11668,12551,1,12551,1,0.00022405,1.4465e-07,0,0.00033064,4.067e-05,8.864e+07,49178,0,1.3203e+08,4143.6,12550,510.38,0,510.38,0,0.00025428,1.9917e-07,0,0.00012693,4.7676e-05,1.0161e+08,67561,0,5.0509e+07,6025.1,510.38,1
1764,1.57,12110,1,12110,1,3.6729e-06,-6.758e-08,0,0.00022173,-6.7552e-07,1978.6,-22881,0,8.8696e+07,-950.65,12109,12992,1,12992,1,0.00043223,2.9529e-07,0,0.00043223,7.9668e-05,1.6867e+08,1.0113e+05,0,1.7282e+08,12196,12991,12110,1,12110,1,3.6899e-06,-4.288e-08,0,0.00022188,-6.8755e-07,1.4501e+06,-14294,0,8.9132e+07,-949.48,12109,11203,1,11203,1,-0.00042488,-3.7777e-07,0,1.212e-05,-8.1005e-05,-1.7282e+08,-1.288e+05,0,4.9319e+06,-10925,11202,11669,1,11669,1,-0.00021821,-1.6635e-07,0,0.00011096,-4.2277e-05,-8.8755e+07,-56358,0,4.4699e+07,-4232.6,11668,12551,1,12551,1,0.00022555,2.108e-08,0,0.00033284,4.0931e-05,8.9211e+07,7097.7,0,1.3289e+08,2228.9,12550,510.38,0,510.38,0,0.00025594,1.4229e-07,0,0.00012777,4.7984e-05,1.0225e+08,48301,0,5.0829e+07,4017.9,510.38,1
1764,1.58,12110,1,12110,1,3.7367e-06,-6.2433e-09,0,0.00022325,-6.8342e-07,-1225.4,-2114.8,0,8.9283e+07,630.52,12109,12992,1,12992,1,0.00043508,4.9286e-07,0,0.00043508,8.0172e-05,1.6968e+08,1.6875e+05,0,1.7391e+08,15732,12991,12110,1,12110,1,3.7271e-06,-4.5739e-09,0,0.00022336,-6.8489e-07,1.4655e+06,-1552.4,0,8.971e+07,-279.53,12109,11203,1,11203,1,-0.00042757,-3.9103e-07,0,1.2202e-05,-8.1539e-05,-1.7391e+08,-1.3252e+05,0,4.9635e+06,-11598,11202,11669,1,11669,1,-0.0002196,-1.3626e-07,0,0.00011168,-4.2572e-05,-8.9318e+07,-46238,0,4.4981e+07,-3598.6,11668,12551,1,12551,1,0.0002271,1.0625e-07,0,0.00033501,4.1197e-05,8.9789e+07,35950,0,1.3373e+08,4682.6,12550,510.38,0,510.38,0,0.00025769,1.9233e-07,0,0.00012864,4.8314e-05,1.0292e+08,65230,0,5.1161e+07,5566.5,510.38,1
1764,1.59,12110,1,12110,1,3.7954e-06,-3.0599e-08,0,0.0002245,-6.9676e-07,-7254.2,-10351,0,8.9763e+07,-470.66,12109,12992,1,12992,1,0.0004375,3.5482e-07,0,0.0004375,8.0608e-05,1.7053e+08,1.2151e+05,0,1.7485e+08,13528,12991,12110,1,12110,1,3.8054e-06,-1.3885e-08,0,0.00022461,-7.0782e-07,1.4942e+06,-4652.1,0,9.0197e+07,-570.21,12109,11203,1,11203,1,-0.00042989,-3.6824e-07,0,1.2212e-05,-8.1993e-05,-1.7485e+08,-1.2578e+05,0,4.9689e+06,-10145,11202,11669,1,11669,1,-0.00022081,-1.2813e-07,0,0.00011232,-4.2812e-05,-8.9812e+07,-43079,0,4.5233e+07,-3968.5,11668,12551,1,12551,1,0.0002284,5.9807e-08,0,0.00033691,4.1422e-05,9.027e+07,20253,0,1.3445e+08,3236.6,12550,510.38,0,510.38,0,0.00025913,1.5007e-07,0,0.00012936,4.8584e-05,1.0348e+08,50920,0,5.1433e+07,4325,510.38,1
1764,1.6,12110,1,12110,1,3.8899e-06,-8.3546e-09,0,0.00022568,-7.1128e-07,5585.1,-2820,0,9.0214e+07,752.99,12109,12992,1,12992,1,0.00043986,5.0048e-07,0,0.00043986,8.1015e-05,1.7136e+08,1.7136e+05,0,1.7574e+08,14927,12991,12110,1,12110,1,3.8918e-06,-6.4718e-09,0,0.00022577,-7.0848e-07,1.529e+06,-2144,0,9.0651e+07,218.53,12109,11203,1,11203,1,-0.00043207,-4.0509e-07,0,1.2215e-05,-8.2435e-05,-1.7574e+08,-1.3725e+05,0,4.9682e+06,-11756,11202,11669,1,11669,1,-0.00022188,-1.3681e-07,0,0.00011289,-4.3057e-05,-9.0244e+07,-46297,0,4.5459e+07,-3690.6,11668,12551,1,12551,1,0.00022966,1.0033e-07,0,0.00033865,4.1627e-05,9.0739e+07,33933,0,1.3511e+08,4568,12550,510.38,0,510.38,0,0.00026049,1.9003e-07,0,0.00013004,4.8839e-05,1.0399e+08,64443,0,5.1688e+07,5419.6,510.38,1
1764,1.61,12110,1,12110,1,3.9544e-06,-8.8316e-08,0,0.00022713,-7.2609e-07,3683.1,-29879,0,9.0777e+07,-510.83,12109,12992,1,12992,1,0.00044316,3.5625e-07,0,0.00044316,8.1607e-05,1.7257e+08,1.2201e+05,0,1.7702e+08,14965,12991,12110,1,12110,1,3.9663e-06,-5.5542e-08,0,0.00022732,-7.3615e-07,1.5575e+06,-18557,0,9.1257e+07,-962.49,12109,11203,1,11203,1,-0.00043522,-4.5727e-07,0,1.2231e-05,-8.3052e-05,-1.7702e+08,-1.5524e+05,0,4.9769e+06,-12128,11202,11669,1,11669,1,-0.00022335,-2.1629e-07,0,0.00011367,-4.335e-05,-9.0844e+07,-72879,0,4.5765e+07,-4088.4,11668,12551,1,12551,1,0.00023126,2.3637e-08,0,0.00034097,4.1894e-05,9.1341e+07,7939.3,0,1.3601e+08,3269.7,12550,510.38,0,510.38,0,0.00026216,1.7522e-07,0,0.00013088,4.9151e-05,1.0464e+08,59436,0,5.2008e+07,4800.4,510.38,1
1764,1.62,12110,1,12110,1,4.0254e-06,-3.9065e-08,0,0.00022897,-7.3685e-07,-707.1,-13227,0,9.1493e+07,422.54,12109,12992,1,12992,1,0.00044651,3.8493e-07,0,0.00044651,8.2208e-05,1.7376e+08,1.2993e+05,0,1.7833e+08,14988,12991,12110,1,12110,1,4.0148e-06,-2.1045e-08,0,0.00022911,-7.2964e-07,1.5785e+06,-7007.2,0,9.1959e+07,-414.98,12109,11203,1,11203,1,-0.00043843,-3.8419e-07,0,1.2311e-05,-8.3678e-05,-1.7833e+08,-1.3018e+05,0,5.0088e+06,-12828,11202,11669,1,11669,1,-0.00022506,-1.5497e-07,0,0.00011456,-4.3701e-05,-9.1542e+07,-52031,0,4.6117e+07,-3571,11668,12551,1,12551,1,0.00023314,6.3183e-08,0,0.00034365,4.2216e-05,9.2044e+07,21188,0,1.3704e+08,4021.7,12550,510.38,0,510.38,0,0.00026429,1.6626e-07,0,0.00013194,4.9551e-05,1.0547e+08,56327,0,5.2416e+07,5887,510.38,1
1764,1.63,12110,1,12110,1,4.1147e-06,-5.4979e-08,0,0.00023005,-7.5572e-07,1202.7,-18593,0,9.1898e+07,-610,12109,12992,1,12992,1,0.00044867,3.5189e-07,0,0.00044867,8.2575e-05,1.7448e+08,1.2038e+05,0,1.7913e+08,8679.1,12991,12110,1,12110,1,4.1121e-06,-2.8038e-08,0,0.0002302,-7.6209e-07,1.6148e+06,-9468.9,0,9.2379e+07,-494.19,12109,11203,1,11203,1,-0.0004404,-4.4377e-07,0,1.2309e-05,-8.408e-05,-1.7913e+08,-1.5039e+05,0,5.0078e+06,-10315,11202,11669,1,11669,1,-0.00022606,-1.7517e-07,0,0.0001151,-4.3918e-05,-9.1946e+07,-59471,0,4.6326e+07,-4080.7,11668,12551,1,12551,1,0.00023431,5.1212e-08,0,0.00034527,4.2407e-05,9.2464e+07,17504,0,1.3765e+08,3108.6,12550,510.38,0,510.38,0,0.00026554,1.7252e-07,0,0.00013257,4.9784e-05,1.0593e+08,58470,0,5.2644e+07,4230.4,510.38,1
1764,1.64,12110,1,12110,1,4.234e-06,-7.8487e-08,0,0.00023125,-7.7433e-07,-5501.4,-26518,0,9.233e+07,423.78,12109,12992,1,12992,1,0.00045156,5.9097e-07,0,0.00045156,8.3069e-05,1.7543e+08,2.0174e+05,0,1.8019e+08,23824,12991,12110,1,12110,1,4.2271e-06,-6.5603e-08,0,0.00023146,-7.7956e-07,1.6585e+06,-22172,0,9.2836e+07,368.7,12109,11203,1,11203,1,-0.000443,-5.3818e-07,0,1.2257e-05,-8.4625e-05,-1.8019e+08,-1.8195e+05,0,4.9859e+06,-25122,11202,11669,1,11669,1,-0.0002272,-2.3818e-07,0,0.00011572,-4.4174e-05,-9.2411e+07,-80736,0,4.6559e+07,-4923.9,11668,12551,1,12551,1,0.00023568,3.9336e-08,0,0.00034716,4.263e-05,9.2915e+07,13110,0,1.3834e+08,5632.7,12550,510.38,0,510.38,0,0.00026692,2.2937e-07,0,0.00013325,5.0049e-05,1.0643e+08,77651,0,5.2893e+07,8216.2,510.38,1
1764,1.65,12110,1,12110,1,4.3153e-06,-4.2351e-08,0,0.00023254,-7.9018e-07,818.36,-14332,0,9.2828e+07,63.311,12109,12992,1,12992,1,0.00045396,5.3495e-07,0,0.00045396,8.3483e-05,1.7627e+08,1.8046e+05,0,1.8109e+08,15301,12991,12110,1,12110,1,4.3042e-06,-2.7527e-08,0,0.00023273,-8.035e-07,1.6878e+06,-9254.5,0,9.3329e+07,51.38,12109,11203,1,11203,1,-0.00044522,-5.4177e-07,0,1.2275e-05,-8.5073e-05,-1.8109e+08,-1.8357e+05,0,4.9941e+06,-23578,11202,11669,1,11669,1,-0.00022839,-2.028e-07,0,0.00011635,-4.4427e-05,-9.2892e+07,-68980,0,4.6808e+07,-5359.7,11668,12551,1,12551,1,0.00023701,8.8348e-08,0,0.00034902,4.2856e-05,9.3413e+07,29747,0,1.3906e+08,6224.1,12550,510.38,0,510.38,0,0.00026841,2.35e-07,0,0.000134,5.0327e-05,1.07e+08,79544,0,5.3176e+07,7311.1,510.38,1
1764,1.66,12110,1,12110,1,4.3929e-06,2.2445e-08,0,0.00023418,-8.0415e-07,453.06,7566.8,0,9.3462e+07,165.49,12109,12992,1,12992,1,0.00045699,6.5429e-07,0,0.00045699,8.4047e-05,1.7737e+08,2.2406e+05,0,1.8228e+08,24124,12991,12110,1,12110,1,4.3851e-06,1.8966e-09,0,0.00023432,-7.979e-07,1.7182e+06,618.27,0,9.3952e+07,-684.48,12109,11203,1,11203,1,-0.00044815,-4.3245e-07,0,1.2318e-05,-8.565e-05,-1.8228e+08,-1.462e+05,0,5.0119e+06,-15932,11202,11669,1,11669,1,-0.00022991,-1.2877e-07,0,0.00011717,-4.4748e-05,-9.3513e+07,-43544,0,4.7129e+07,-5232.2,11668,12551,1,12551,1,0.00023872,1.489e-07,0,0.00035146,4.3149e-05,9.4048e+07,50117,0,1.3998e+08,4407.7,12550,510.38,0,510.38,0,0.0002703,2.3057e-07,0,0.00013495,5.0681e-05,1.0773e+08,78039,0,5.3536e+07,7972.8,510.38,1
1764,1.67,12110,1,12110,1,4.4913e-06,-5.7241e-08,0,0.00023594,-8.26e-07,3666.4,-19362,0,9.4141e+07,-1407,12109,12992,1,12992,1,0.0004608,4.642e-07,0,0.0004608,8.4713e-05,1.7874e+08,1.5664e+05,0,1.8375e+08,14581,12991,12110,1,12110,1,4.4918e-06,-3.4017e-08,0,0.00023613,-8.2837e-07,1.7611e+06,-11405,0,9.4664e+07,-1171.8,12109,11203,1,11203,1,-0.00045175,-4.6702e-07,0,1.2334e-05,-8.6356e-05,-1.8375e+08,-1.579e+05,0,5.0182e+06,-20711,11202,11669,1,11669,1,-0.00023162,-2.1065e-07,0,0.00011806,-4.5095e-05,-9.4208e+07,-70737,0,4.7479e+07,-6277.9,11668,12551,1,12551,1,0.0002406,6.4549e-08,0,0.00035417,4.3451e-05,9.4756e+07,21701,0,1.4103e+08,3038.3,12550,510.38,0,510.38,0,0.00027233,2.1108e-07,0,0.00013596,5.1059e-05,1.0851e+08,71460,0,5.3921e+07,6175,510.38,1
1764,1.68,12110,1,12110,1,4.5918e-06,-6.3483e-08,0,0.00023699,-8.4402e-07,4647.7,-21436,0,9.4528e+07,-1264.4,12109,12992,1,12992,1,0.00046281,5.341e-07,0,0.00046281,8.505e-05,1.7937e+08,1.8189e+05,0,1.8448e+08,19817,12991,12110,1,12110,1,4.59e-06,-4.2358e-08,0,0.00023717,-8.4616e-07,1.7979e+06,-14100,0,9.5057e+07,-1054.8,12109,11203,1,11203,1,-0.00045357,-5.4262e-07,0,1.2311e-05,-8.6732e-05,-1.8448e+08,-1.8357e+05,0,5.0087e+06,-19627,11202,11669,1,11669,1,-0.00023256,-2.1244e-07,0,0.00011859,-4.5317e-05,-9.459e+07,-71544,0,4.7679e+07,-6997.2,11668,12551,1,12551,1,0.00024175,4.9321e-08,0,0.00035572,4.3626e-05,9.5152e+07,16560,0,1.416e+08,4407.1,12550,510.38,0,510.38,0,0.00027354,2.226e-07,0,0.00013657,5.1289e-05,1.0896e+08,75326,0,5.4138e+07,7567.8,510.38,1
1764,1.69,12110,1,12110,1,4.652e-06,-2.9146e-09,0,0.00023844,-8.5175e-07,2379.4,-967.11,0,9.5092e+07,118.89,12109,12992,1,12992,1,0.00046539,6.1202e-07,0,0.00046539,8.5526e-05,1.8029e+08,2.0889e+05,0,1.8551e+08,15177,12991,12110,1,12110,1,4.6399e-06,-7.3072e-09,0,0.00023857,-8.5266e-07,1.818e+06,-2444.8,0,9.5603e+07,64.354,12109,11203,1,11203,1,-0.00045608,-5.0208e-07,0,1.2368e-05,-8.7223e-05,-1.8551e+08,-1.6969e+05,0,5.0315e+06,-20540,11202,11669,1,11669,1,-0.0002339,-1.6013e-07,0,0.00011929,-4.5607e-05,-9.5133e+07,-54486,0,4.7957e+07,-6010.8,11668,12551,1,12551,1,0.00024322,1.4214e-07,0,0.00035782,4.3885e-05,9.5703e+07,47865,0,1.424e+08,6024.8,12550,510.38,0,510.38,0,0.00027522,2.4266e-07,0,0.0001374,5.1603e-05,1.0961e+08,82126,0,5.4458e+07,7468.6,510.38,1
1764,1.7,12110,1,12110,1,4.725e-06,-9.1821e-08,0,0.00023959,-8.6638e-07,-377.13,-31008,0,9.5526e+07,-423.11,12109,12992,1,12992,1,0.0004682,5.1046e-07,0,0.0004682,8.601e-05,1.8129e+08,1.7481e+05,0,1.8657e+08,23715,12991,12110,1,12110,1,4.7271e-06,-7.2054e-08,0,0.00023981,-8.7183e-07,1.8514e+06,-24345,0,9.6088e+07,-113.62,12109,11203,1,11203,1,-0.00045869,-5.441e-07,0,1.2353e-05,-8.7741e-05,-1.8657e+08,-1.8476e+05,0,5.0256e+06,-16164,11202,11669,1,11669,1,-0.00023507,-2.737e-07,0,0.00011991,-4.5833e-05,-9.561e+07,-91723,0,4.8198e+07,-5709,11668,12551,1,12551,1,0.00024452,4.8942e-08,0,0.00035968,4.4104e-05,9.6178e+07,16326,0,1.4311e+08,3941,12550,510.38,0,510.38,0,0.00027654,2.3862e-07,0,0.00013807,5.185e-05,1.101e+08,80780,0,5.4705e+07,7553.1,510.38,1
1764,1.71,12110,1,12110,1,4.808e-06,-4.0438e-08,0,0.00024134,-8.8575e-07,1715.3,-13665,0,9.621e+07,-2143.3,12109,12992,1,12992,1,0.00047132,6.2528e-07,0,0.00047132,8.656e-05,1.8239e+08,2.1119e+05,0,1.8776e+08,20393,12991,12110,1,12110,1,4.8e-06,-3.1275e-08,0,0.0002415,-8.9605e-07,1.8784e+06,-10475,0,9.6749e+07,-1664,12109,11203,1,11203,1,-0.00046162,-4.6248e-07,0,1.2418e-05,-8.8324e-05,-1.8776e+08,-1.5743e+05,0,5.0528e+06,-20489,11202,11669,1,11669,1,-0.00023666,-1.8535e-07,0,0.00012074,-4.6166e-05,-9.6257e+07,-62371,0,4.8527e+07,-7676.5,11668,12551,1,12551,1,0.0002463,6.4874e-08,0,0.00036221,4.4398e-05,9.6849e+07,21662,0,1.4408e+08,2867,12550,510.38,0,510.38,0,0.00027857,2.1742e-07,0,0.00013908,5.223e-05,1.1089e+08,73599,0,5.5092e+07,7791.9,510.38,1
1764,1.72,12110,1,12110,1,4.9127e-06,-1.9443e-08,0,0.0002429,-9.0262e-07,3501.1,-6553.6,0,9.6802e+07,-1173.4,12109,12992,1,12992,1,0.00047422,4.7554e-07,0,0.00047422,8.7071e-05,1.8339e+08,1.6e+05,0,1.8887e+08,11209,12991,12110,1,12110,1,4.9047e-06,-1.2617e-08,0,0.00024302,-8.9865e-07,1.921e+06,-4263.7,0,9.7339e+07,-572.56,12109,11203,1,11203,1,-0.00046435,-4.225e-07,0,1.2434e-05,-8.8866e-05,-1.8887e+08,-1.4306e+05,0,5.0593e+06,-15449,11202,11669,1,11669,1,-0.00023808,-1.5809e-07,0,0.0001215,-4.6476e-05,-9.6835e+07,-53326,0,4.8825e+07,-6038.5,11668,12551,1,12551,1,0.00024792,9.8596e-08,0,0.00036449,4.4666e-05,9.7441e+07,33284,0,1.4494e+08,3771.1,12550,510.38,0,510.38,0,0.00028037,1.998e-07,0,0.00013999,5.2565e-05,1.1157e+08,67603,0,5.5428e+07,5871.6,510.38,1
1764,1.73,12110,1,12110,1,4.9827e-06,-3.6599e-08,0,0.00024434,-9.1161e-07,-3302,-12365,0,9.7352e+07,420.53,12109,12992,1,12992,1,0.00047728,5.2455e-07,0,0.00047728,8.7618e-05,1.8447e+08,1.773e+05,0,1.9006e+08,19606,12991,12110,1,12110,1,4.9799e-06,-1.9846e-08,0,0.00024451,-9.1467e-07,1.95e+06,-6713,0,9.7917e+07,-234.35,12109,11203,1,11203,1,-0.00046727,-4.8166e-07,0,1.2458e-05,-8.9438e-05,-1.9006e+08,-1.6343e+05,0,5.0683e+06,-12876,11202,11669,1,11669,1,-0.0002395,-1.8104e-07,0,0.00012224,-4.676e-05,-9.7412e+07,-61252,0,4.9118e+07,-4776,11668,12551,1,12551,1,0.00024948,8.3922e-08,0,0.00036672,4.4931e-05,9.8013e+07,28410,0,1.4579e+08,5290.6,12550,510.38,0,510.38,0,0.00028203,2.1514e-07,0,0.00014081,5.2877e-05,1.122e+08,72761,0,5.5737e+07,6731.1,510.38,1
1764,1.74,12110,1,12110,1,5.0704e-06,-5.8159e-08,0,0.00024603,-9.3152e-07,-6598,-19637,0,9.8002e+07,-1210.9,12109,12992,1,12992,1,0.00048073,4.3233e-07,0,0.00048073,8.8228e-05,1.8568e+08,1.4548e+05,0,1.9138e+08,11553,12991,12110,1,12110,1,5.0702e-06,-3.5752e-08,0,0.00024623,-9.3933e-07,1.9849e+06,-12103,0,9.8587e+07,-727.56,12109,11203,1,11203,1,-0.00047051,-4.3655e-07,0,1.2466e-05,-9.0087e-05,-1.9138e+08,-1.4836e+05,0,5.0739e+06,-22219,11202,11669,1,11669,1,-0.00024113,-1.8429e-07,0,0.0001231,-4.7091e-05,-9.8075e+07,-62258,0,4.9453e+07,-5589,11668,12551,1,12551,1,0.00025128,4.646e-08,0,0.00036929,4.5242e-05,9.8678e+07,15477,0,1.4678e+08,3242.9,12550,510.38,0,510.38,0,0.00028398,1.8348e-07,0,0.0001418,5.3242e-05,1.1295e+08,62096,0,5.6108e+07,6316.5,510.38,1
1764,1.75,12110,1,12110,1,5.1903e-06,9.5877e-09,0,0.00024781,-9.5793e-07,294.2,3235.2,0,9.8683e+07,-3015.9,12109,12992,1,12992,1,0.00048391,4.401e-07,0,0.00048391,8.8792e-05,1.868e+08,1.4962e+05,0,1.9259e+08,10377,12991,12110,1,12110,1,5.1826e-06,5.9557e-12,0,0.00024793,-9.6443e-07,2.0292e+06,3.7979,0,9.9249e+07,-2169.8,12109,11203,1,11203,1,-0.00047349,-3.4776e-07,0,1.2503e-05,-9.0689e-05,-1.9259e+08,-1.1818e+05,0,5.087e+06,-19688,11202,11669,1,11669,1,-0.00024272,-9.9326e-08,0,0.00012396,-4.7437e-05,-9.8724e+07,-33202,0,4.9791e+07,-6534.7,11668,12551,1,12551,1,0.00025311,1.1454e-07,0,0.00037187,4.5535e-05,9.9355e+07,38831,0,1.4775e+08,1579,12550,510.38,0,510.38,0,0.00028604,1.7454e-07,0,0.00014283,5.3626e-05,1.1373e+08,59034,0,5.6494e+07,6013.4,510.38,1
1764,1.76,12110,1,12110,1,5.301e-06,-4.5955e-08,0,0.00024915,-9.7018e-07,3540.5,-15473,0,9.9186e+07,357.52,12109,12992,1,12992,1,0.00048674,4.2256e-07,0,0.00048674,8.9265e-05,1.8774e+08,1.4377e+05,0,1.9363e+08,15494,12991,12110,1,12110,1,5.296e-06,-2.7898e-08,0,0.00024929,-9.7229e-07,2.0744e+06,-9362.8,0,9.9772e+07,442.46,12109,11203,1,11203,1,-0.00047605,-4.1703e-07,0,1.2486e-05,-9.121e-05,-1.9363e+08,-1.4078e+05,0,5.0806e+06,-15503,11202,11669,1,11669,1,-0.00024397,-1.5815e-07,0,0.00012465,-4.771e-05,-9.9232e+07,-53349,0,5.0062e+07,-4122.6,11668,12551,1,12551,1,0.00025458,5.4878e-08,0,0.0003739,4.577e-05,9.9883e+07,18248,0,1.4852e+08,4549.3,12550,510.38,0,510.38,0,0.00028758,1.7124e-07,0,0.0001436,5.3916e-05,1.1431e+08,57916,0,5.6776e+07,5464.3,510.38,1
1764,1.77,12110,1,12110,1,5.3852e-06,-4.389e-08,0,0.00025071,-9.8891e-07,1868.1,-14817,0,9.9783e+07,-1016.7,12109,12992,1,12992,1,0.00048996,5.0942e-07,0,0.00048996,8.9844e-05,1.8887e+08,1.7306e+05,0,1.9488e+08,14546,12991,12110,1,12110,1,5.3764e-06,-3.6722e-08,0,0.00025086,-9.8616e-07,2.106e+06,-12212,0,1.0038e+08,-1504.5,12109,11203,1,11203,1,-0.00047913,-4.0647e-07,0,1.2513e-05,-9.1815e-05,-1.9488e+08,-1.3746e+05,0,5.0904e+06,-14797,11202,11669,1,11669,1,-0.00024545,-1.9457e-07,0,0.00012541,-4.8024e-05,-9.9832e+07,-66015,0,5.0361e+07,-5209.7,11668,12551,1,12551,1,0.00025623,6.7131e-08,0,0.00037625,4.604e-05,1.0049e+08,22659,0,1.4941e+08,3163.4,12550,510.38,0,510.38,0,0.00028938,2.0291e-07,0,0.0001445,5.4252e-05,1.15e+08,68594,0,5.7114e+07,6080.9,510.38,1
1764,1.78,12110,1,12110,1,5.4787e-06,-8.4075e-10,0,0.00025176,-1.0015e-06,3296.3,-249.18,0,1.0018e+08,911.42,12109,12992,1,12992,1,0.00049174,5.0768e-07,0,0.00049174,9.0136e-05,1.8942e+08,1.7129e+05,0,1.9552e+08,14791,12991,12110,1,12110,1,5.4744e-06,-5.108e-09,0,0.00025186,-9.9868e-07,2.1442e+06,-1686.9,0,1.0076e+08,648.85,12109,11203,1,11203,1,-0.0004807,-3.7356e-07,0,1.2491e-05,-9.2148e-05,-1.9552e+08,-1.2602e+05,0,5.0826e+06,-15326,11202,11669,1,11669,1,-0.00024636,-1.0319e-07,0,0.00012594,-4.8242e-05,-1.002e+08,-34560,0,5.0566e+07,-3781.3,11668,12551,1,12551,1,0.00025734,9.0279e-08,0,0.00037775,4.6222e-05,1.0088e+08,30588,0,1.4995e+08,5868.9,12550,510.38,0,510.38,0,0.0002906,1.6931e-07,0,0.00014511,5.4482e-05,1.1545e+08,57200,0,5.7335e+07,5847,510.38,1
1764,1.79,12110,1,12110,1,5.5543e-06,-3.6849e-08,0,0.0002534,-1.0182e-06,1211.9,-12434,0,1.0081e+08,-322.56,12109,12992,1,12992,1,0.00049517,4.3649e-07,0,0.00049517,9.0754e-05,1.9067e+08,1.4726e+05,0,1.9686e+08,13884,12991,12110,1,12110,1,5.5434e-06,-2.0557e-08,0,0.00025354,-1.0118e-06,2.1709e+06,-6740.9,0,1.0142e+08,-858.56,12109,11203,1,11203,1,-0.00048399,-3.9818e-07,0,1.2539e-05,-9.279e-05,-1.9686e+08,-1.3459e+05,0,5.102e+06,-14095,11202,11669,1,11669,1,-0.00024795,-1.5544e-07,0,0.00012675,-4.8559e-05,-1.0085e+08,-52184,0,5.0884e+07,-4122.6,11668,12551,1,12551,1,0.00025909,6.5395e-08,0,0.00038026,4.651e-05,1.0153e+08,22047,0,1.5093e+08,4123.9,12550,510.38,0,510.38,0,0.00029249,1.7588e-07,0,0.00014605,5.4833e-05,1.1618e+08,59424,0,5.7694e+07,5609,510.38,1
1764,1.8,12110,1,12110,1,5.6298e-06,-8.1492e-09,0,0.00025434,-1.0259e-06,-5168.4,-2724.6,0,1.0115e+08,2248.3,12109,12992,1,12992,1,0.00049702,5.5478e-07,0,0.00049702,9.1073e-05,1.9123e+08,1.8713e+05,0,1.9755e+08,19521,12991,12110,1,12110,1,5.6234e-06,-6.8691e-09,0,0.00025446,-1.0215e-06,2.2021e+06,-2265.8,0,1.0177e+08,1677.8,12109,11203,1,11203,1,-0.00048569,-4.4757e-07,0,1.253e-05,-9.3133e-05,-1.9755e+08,-1.5099e+05,0,5.0984e+06,-11270,11202,11669,1,11669,1,-0.00024881,-1.3666e-07,0,0.00012724,-4.8746e-05,-1.012e+08,-46064,0,5.1072e+07,-3219,11668,12551,1,12551,1,0.00026009,1.0671e-07,0,0.00038165,4.6684e-05,1.0188e+08,36047,0,1.5142e+08,7830.5,12550,510.38,0,510.38,0,0.00029357,2.0447e-07,0,0.0001466,5.504e-05,1.1657e+08,69075,0,5.7886e+07,6543.7,510.38,1
1764,1.81,12110,1,12110,1,5.7004e-06,-2.2486e-09,0,0.00025603,-1.0442e-06,-8704.2,-751.54,0,1.0181e+08,-39.693,12109,12992,1,12992,1,0.00050019,5.2759e-07,0,0.00050019,9.1661e-05,1.9238e+08,1.7795e+05,0,1.9882e+08,16449,12991,12110,1,12110,1,5.694e-06,-5.3675e-09,0,0.00025612,-1.0403e-06,2.2297e+06,-1816,0,1.0242e+08,-434.27,12109,11203,1,11203,1,-0.00048881,-3.5166e-07,0,1.2572e-05,-9.3728e-05,-1.9882e+08,-1.1883e+05,0,5.1154e+06,-12299,11202,11669,1,11669,1,-0.00025043,-1.0707e-07,0,0.00012809,-4.9068e-05,-1.0186e+08,-36395,0,5.1408e+07,-4627.5,11668,12551,1,12551,1,0.00026182,8.3931e-08,0,0.00038419,4.6986e-05,1.0253e+08,28597,0,1.5238e+08,3738.8,12550,510.38,0,510.38,0,0.00029552,1.7053e-07,0,0.00014757,5.5403e-05,1.1732e+08,57624,0,5.8259e+07,5856.1,510.38,1
1764,1.82,12110,1,12110,1,5.8082e-06,-5.9967e-08,0,0.00025712,-1.0629e-06,-5266.5,-20194,0,1.0221e+08,429.87,12109,12992,1,12992,1,0.00050271,4.0801e-07,0,0.00050271,9.2069e-05,1.9321e+08,1.3759e+05,0,1.9971e+08,16016,12991,12110,1,12110,1,5.8028e-06,-3.178e-08,0,0.00025729,-1.0614e-06,2.2719e+06,-10607,0,1.0286e+08,381.47,12109,11203,1,11203,1,-0.00049101,-4.5929e-07,0,1.2548e-05,-9.4197e-05,-1.9971e+08,-1.5515e+05,0,5.1063e+06,-13055,11202,11669,1,11669,1,-0.00025146,-1.7998e-07,0,0.00012865,-4.9303e-05,-1.0228e+08,-60344,0,5.1626e+07,-4205.1,11668,12551,1,12551,1,0.00026308,4.4249e-08,0,0.00038589,4.7175e-05,1.0297e+08,14987,0,1.5303e+08,4763.7,12550,510.38,0,510.38,0,0.00029678,1.7723e-07,0,0.0001482,5.5639e-05,1.1779e+08,59884,0,5.8484e+07,5830.8,510.38,1
1764,1.83,12110,1,12110,1,5.9034e-06,-4.0969e-08,0,0.00025864,-1.0836e-06,-619.83,-13819,0,1.028e+08,-896.08,12109,12992,1,12992,1,0.00050573,4.8335e-07,0,0.00050573,9.2602e-05,1.9426e+08,1.6299e+05,0,2.0087e+08,17067,12991,12110,1,12110,1,5.8841e-06,-2.0442e-08,0,0.0002588,-1.0842e-06,2.3039e+06,-6915.7,0,1.0345e+08,-660.56,12109,11203,1,11203,1,-0.00049385,-4.5122e-07,0,1.257e-05,-9.4764e-05,-2.0087e+08,-1.5218e+05,0,5.1156e+06,-18420,11202,11669,1,11669,1,-0.00025286,-1.7597e-07,0,0.00012938,-4.9607e-05,-1.0285e+08,-58695,0,5.1912e+07,-5451.7,11668,12551,1,12551,1,0.00026469,7.0678e-08,0,0.00038814,4.7433e-05,1.0357e+08,23952,0,1.5389e+08,3984.2,12550,510.38,0,510.38,0,0.00029853,1.9831e-07,0,0.00014908,5.5969e-05,1.1846e+08,66952,0,5.8816e+07,6791.9,510.38,1
1764,1.84,12110,1,12110,1,6.0011e-06,-6.8968e-08,0,0.00025997,-1.0998e-06,-2176.9,-23215,0,1.033e+08,-157.3,12109,12992,1,12992,1,0.00050868,4.8633e-07,0,0.00050868,9.3108e-05,1.9526e+08,1.6648e+05,0,2.0196e+08,19518,12991,12110,1,12110,1,5.9994e-06,-4.8406e-08,0,0.00026018,-1.1051e-06,2.3487e+06,-16381,0,1.0398e+08,-184.45,12109,11203,1,11203,1,-0.00049654,-5.0425e-07,0,1.255e-05,-9.5318e-05,-2.0196e+08,-1.7001e+05,0,5.1079e+06,-15796,11202,11669,1,11669,1,-0.00025415,-2.2048e-07,0,0.00013009,-4.9885e-05,-1.0337e+08,-74862,0,5.2191e+07,-5601.3,11668,12551,1,12551,1,0.00026617,5.5051e-08,0,0.00039022,4.7682e-05,1.041e+08,18501,0,1.5467e+08,4752.2,12550,510.38,0,510.38,0,0.00030007,2.1251e-07,0,0.00014985,5.6257e-05,1.1903e+08,71803,0,5.9098e+07,7106.5,510.38,1
1764,1.85,12110,1,12110,1,6.1204e-06,-4.231e-08,0,0.00026175,-1.1266e-06,5098.8,-14260,0,1.0398e+08,-2196.5,12109,12992,1,12992,1,0.00051195,5.1607e-07,0,0.00051195,9.3682e-05,1.9639e+08,1.7397e+05,0,2.0321e+08,28326,12991,12110,1,12110,1,6.1177e-06,-2.9978e-08,0,0.00026191,-1.1341e-06,2.3945e+06,-9967.9,0,1.0465e+08,-1643.5,12109,11203,1,11203,1,-0.00049961,-4.0383e-07,0,1.2558e-05,-9.5927e-05,-2.0321e+08,-1.3705e+05,0,5.1105e+06,-23059,11202,11669,1,11669,1,-0.00025574,-1.7013e-07,0,0.00013093,-5.0232e-05,-1.0402e+08,-57463,0,5.2519e+07,-7340.2,11668,12551,1,12551,1,0.00026802,5.2097e-08,0,0.00039281,4.7985e-05,1.0478e+08,17755,0,1.5565e+08,2257.7,12550,510.38,0,510.38,0,0.00030213,1.845e-07,0,0.00015088,5.6643e-05,1.1982e+08,62334,0,5.9485e+07,8303.2,510.38,1
1764,1.86,12110,1,12110,1,6.2086e-06,2.3808e-09,0,0.00026314,-1.1375e-06,-5860,855.04,0,1.045e+08,-53.747,12109,12992,1,12992,1,0.0005144,4.6414e-07,0,0.0005144,9.413e-05,1.9719e+08,1.5888e+05,0,2.0415e+08,15824,12991,12110,1,12110,1,6.205e-06,-4.9156e-09,0,0.00026323,-1.139e-06,2.4288e+06,-1602.2,0,1.0516e+08,-35.368,12109,11203,1,11203,1,-0.00050192,-3.7608e-07,0,1.2577e-05,-9.6391e-05,-2.0415e+08,-1.2676e+05,0,5.1192e+06,-12608,11202,11669,1,11669,1,-0.00025703,-1.0502e-07,0,0.00013164,-5.0499e-05,-1.0454e+08,-35207,0,5.2793e+07,-4835.8,11668,12551,1,12551,1,0.00026943,1.0586e-07,0,0.00039484,4.8224e-05,1.0528e+08,35636,0,1.5638e+08,4640.8,12550,510.38,0,510.38,0,0.00030373,1.7131e-07,0,0.00015169,5.6941e-05,1.2041e+08,57851,0,5.9777e+07,6042.1,510.38,1
1764,1.87,12110,1,12110,1,6.3058e-06,-6.8091e-08,0,0.00026456,-1.1556e-06,-5415.4,-22929,0,1.0504e+08,-140.76,12109,12992,1,12992,1,0.00051786,5.3426e-07,0,0.00051786,9.4734e-05,1.984e+08,1.8224e+05,0,2.0548e+08,23678,12991,12110,1,12110,1,6.2992e-06,-5.1413e-08,0,0.00026476,-1.157e-06,2.4661e+06,-17090,0,1.0575e+08,-418.31,12109,11203,1,11203,1,-0.00050518,-4.7002e-07,0,1.2572e-05,-9.7037e-05,-2.0548e+08,-1.5891e+05,0,5.1162e+06,-14044,11202,11669,1,11669,1,-0.00025843,-2.3523e-07,0,0.00013238,-5.0792e-05,-1.0511e+08,-79330,0,5.3083e+07,-5283.7,11668,12551,1,12551,1,0.00027105,5.43e-08,0,0.00039712,4.8484e-05,1.0587e+08,18295,0,1.5725e+08,3964,12550,510.38,0,510.38,0,0.00030537,2.2246e-07,0,0.00015251,5.725e-05,1.2103e+08,75068,0,6.008e+07,7094.7,510.38,1
1764,1.88,12110,1,12110,1,6.4344e-06,-1.2329e-08,0,0.00026583,-1.1822e-06,4974.9,-4148.4,0,1.0551e+08,-1380.1,12109,12992,1,12992,1,0.00052009,6.867e-07,0,0.00052009,9.5095e-05,1.9909e+08,2.3135e+05,0,2.0627e+08,14967,12991,12110,1,12110,1,6.4205e-06,-1.9863e-08,0,0.00026597,-1.1789e-06,2.5128e+06,-6574.8,0,1.062e+08,-747,12109,11203,1,11203,1,-0.00050714,-4.7169e-07,0,1.255e-05,-9.7454e-05,-2.0627e+08,-1.5892e+05,0,5.1071e+06,-16699,11202,11669,1,11669,1,-0.00025949,-1.8709e-07,0,0.00013297,-5.1055e-05,-1.0554e+08,-62381,0,5.3312e+07,-6226.1,11668,12551,1,12551,1,0.00027238,1.2325e-07,0,0.00039888,4.8688e-05,1.0634e+08,41062,0,1.5791e+08,3782.5,12550,510.38,0,510.38,0,0.00030684,2.4681e-07,0,0.00015324,5.7526e-05,1.2158e+08,83288,0,6.0347e+07,6928.6,510.38,1
1764,1.89,12110,1,12110,1,6.5284e-06,-4.7637e-08,0,0.00026741,-1.1929e-06,3715.4,-16069,0,1.0612e+08,1350.9,12109,12992,1,12992,1,0.00052332,4.4052e-07,0,0.00052332,9.567e-05,2.0023e+08,1.4776e+05,0,2.0753e+08,19415,12991,12110,1,12110,1,6.5157e-06,-3.2725e-08,0,0.0002676,-1.1831e-06,2.5522e+06,-11037,0,1.0684e+08,434.48,12109,11203,1,11203,1,-0.00051021,-4.2126e-07,0,1.2561e-05,-9.8056e-05,-2.0753e+08,-1.4284e+05,0,5.1098e+06,-11042,11202,11669,1,11669,1,-0.00026104,-1.7579e-07,0,0.00013377,-5.1365e-05,-1.0617e+08,-58950,0,5.3628e+07,-3445.6,11668,12551,1,12551,1,0.0002741,5.1159e-08,0,0.00040134,4.8969e-05,1.0697e+08,17164,0,1.5884e+08,4731.8,12550,510.38,0,510.38,0,0.00030866,1.827e-07,0,0.00015416,5.7866e-05,1.2227e+08,61666,0,6.069e+07,6518.1,510.38,1
1764,1.9,12110,1,12110,1,6.6196e-06,-1.7292e-08,0,0.00026892,-1.2144e-06,-6190.6,-5805.9,0,1.0668e+08,-670.09,12109,12992,1,12992,1,0.00052629,5.4227e-07,0,0.00052629,9.6181e-05,2.0121e+08,1.8569e+05,0,2.0862e+08,18064,12991,12110,1,12110,1,6.6131e-06,-1.675e-08,0,0.00026907,-1.2186e-06,2.588e+06,-5684.2,0,1.074e+08,-277.13,12109,11203,1,11203,1,-0.00051291,-4.1066e-07,0,1.2581e-05,-9.8614e-05,-2.0862e+08,-1.3831e+05,0,5.12e+06,-14710,11202,11669,1,11669,1,-0.00026243,-1.6317e-07,0,0.00013453,-5.1658e-05,-1.0674e+08,-54458,0,5.3922e+07,-5075.2,11668,12551,1,12551,1,0.00027568,9.5868e-08,0,0.00040354,4.9234e-05,1.0753e+08,32029,0,1.5967e+08,3656.4,12550,510.38,0,510.38,0,0.00031041,2.0286e-07,0,0.00015503,5.8192e-05,1.2292e+08,68439,0,6.101e+07,6327.7,510.38,1
1764,1.91,12110,1,12110,1,6.7553e-06,-3.0742e-08,0,0.00027038,-1.2475e-06,4738.2,-10353,0,1.0723e+08,-4037.5,12109,12992,1,12992,1,0.00052913,4.0015e-07,0,0.00052913,9.6674e-05,2.0216e+08,1.3619e+05,0,2.097e+08,9017.4,12991,12110,1,12110,1,6.7526e-06,-1.3738e-08,0,0.00027054,-1.255e-06,2.6422e+06,-4625.4,0,1.0797e+08,-3278.6,12109,11203,1,11203,1,-0.00051556,-4.4926e-07,0,1.2539e-05,-9.9146e-05,-2.097e+08,-1.5214e+05,0,5.1039e+06,-19141,11202,11669,1,11669,1,-0.00026375,-1.5243e-07,0,0.00013525,-5.1966e-05,-1.0728e+08,-50519,0,5.42e+07,-8914.9,11668,12551,1,12551,1,0.00027727,7.9876e-08,0,0.00040574,4.9473e-05,1.081e+08,26852,0,1.6048e+08,1228,12550,510.38,0,510.38,0,0.00031208,1.8508e-07,0,0.00015588,5.8507e-05,1.2355e+08,62476,0,6.1319e+07,6445.3,510.38,1
1764,1.92,12110,1,12110,1,6.8296e-06,-3.7323e-08,0,0.00027169,-1.2505e-06,-8142,-12526,0,1.0772e+08,315.8,12109,12992,1,12992,1,0.00053199,6.0773e-07,0,0.00053199,9.7167e-05,2.0311e+08,2.0461e+05,0,2.1076e+08,24877,12991,12110,1,12110,1,6.8136e-06,-2.934e-08,0,0.00027188,-1.2462e-06,2.6661e+06,-9809.2,0,1.0848e+08,116.91,12109,11203,1,11203,1,-0.00051817,-4.8444e-07,0,1.2569e-05,-9.968e-05,-2.1076e+08,-1.6311e+05,0,5.116e+06,-18300,11202,11669,1,11669,1,-0.000265,-1.9346e-07,0,0.00013592,-5.2224e-05,-1.0779e+08,-64750,0,5.4459e+07,-4978.7,11668,12551,1,12551,1,0.00027869,7.5331e-08,0,0.00040774,4.9718e-05,1.0861e+08,25575,0,1.6123e+08,5074.7,12550,510.38,0,510.38,0,0.0003136,2.2537e-07,0,0.00015663,5.8794e-05,1.2411e+08,75989,0,6.1593e+07,7819.6,510.38,1
1764,1.93,12110,1,12110,1,6.9472e-06,-4.4037e-08,0,0.00027306,-1.2752e-06,-721.82,-14835,0,1.0824e+08,-955.9,12109,12992,1,12992,1,0.00053476,5.6227e-07,0,0.00053476,9.7657e-05,2.0404e+08,1.8844e+05,0,2.1183e+08,17804,12991,12110,1,12110,1,6.9307e-06,-3.2544e-08,0,0.00027326,-1.2797e-06,2.7115e+06,-10675,0,1.0901e+08,-1007.1,12109,11203,1,11203,1,-0.00052079,-4.9397e-07,0,1.2556e-05,-0.0001002,-2.1183e+08,-1.6718e+05,0,5.1109e+06,-16622,11202,11669,1,11669,1,-0.00026627,-2.0435e-07,0,0.00013661,-5.2506e-05,-1.083e+08,-68734,0,5.4728e+07,-5727.7,11668,12551,1,12551,1,0.00028018,7.7665e-08,0,0.00040982,4.9951e-05,1.0914e+08,25933,0,1.62e+08,3955.7,12550,510.38,0,510.38,0,0.00031519,2.2826e-07,0,0.00015743,5.909e-05,1.2471e+08,76997,0,6.1886e+07,6721.3,510.38,1
1764,1.94,12110,1,12110,1,7.0487e-06,-5.5368e-08,0,0.00027465,-1.2921e-06,-5600.9,-18610,0,1.0884e+08,-248.62,12109,12992,1,12992,1,0.00053788,4.2074e-07,0,0.00053788,9.8197e-05,2.0509e+08,1.4161e+05,0,2.13e+08,11788,12991,12110,1,12110,1,7.0376e-06,-3.0192e-08,0,0.00027484,-1.3013e-06,2.7527e+06,-10105,0,1.0962e+08,349.86,12109,11203,1,11203,1,-0.00052367,-4.6159e-07,0,1.2559e-05,-0.00010078,-2.13e+08,-1.5536e+05,0,5.1135e+06,-20069,11202,11669,1,11669,1,-0.00026776,-1.8833e-07,0,0.00013741,-5.2815e-05,-1.0891e+08,-63284,0,5.5041e+07,-4756.1,11668,12551,1,12551,1,0.00028187,5.6333e-08,0,0.0004122,5.0235e-05,1.0975e+08,18804,0,1.6289e+08,4901.1,12550,510.38,0,510.38,0,0.00031702,1.8958e-07,0,0.00015835,5.9431e-05,1.254e+08,63900,0,6.2225e+07,6207.3,510.38,1
1764,1.95,12110,1,12110,1,7.1711e-06,-8.924e-09,0,0.00027583,-1.3153e-06,181.69,-3018,0,1.0927e+08,-521.59,12109,12992,1,12992,1,0.00053997,5.9323e-07,0,0.00053997,9.8546e-05,2.0574e+08,1.9964e+05,0,2.1376e+08,16154,12991,12110,1,12110,1,7.1627e-06,-9.6793e-09,0,0.00027596,-1.3169e-06,2.8029e+06,-3215.2,0,1.1004e+08,70.322,12109,11203,1,11203,1,-0.00052554,-4.0978e-07,0,1.2512e-05,-0.00010117,-2.1376e+08,-1.3869e+05,0,5.0926e+06,-31052,11202,11669,1,11669,1,-0.00026874,-1.3668e-07,0,0.00013797,-5.3075e-05,-1.0931e+08,-45134,0,5.5255e+07,-4522.2,11668,12551,1,12551,1,0.00028311,8.6075e-08,0,0.00041387,5.042e-05,1.1018e+08,28926,0,1.635e+08,5002.4,12550,510.38,0,510.38,0,0.00031838,1.9828e-07,0,0.00015903,5.9688e-05,1.259e+08,66862,0,6.2469e+07,7731.4,510.38,1
1764,1.96,12110,1,12110,1,7.268e-06,3.729e-08,0,0.00027698,-1.3297e-06,680.36,12566,0,1.097e+08,840.28,12109,12992,1,12992,1,0.00054234,5.8236e-07,0,0.00054234,9.8975e-05,2.0655e+08,1.9599e+05,0,2.1467e+08,14588,12991,12110,1,12110,1,7.2584e-06,1.7449e-08,0,0.00027717,-1.3308e-06,2.8394e+06,5889.7,0,1.105e+08,510.78,12109,11203,1,11203,1,-0.00052778,-4.3469e-07,0,1.2515e-05,-0.00010163,-2.1467e+08,-1.4626e+05,0,5.0947e+06,-19521,11202,11669,1,11669,1,-0.00026984,-7.2735e-08,0,0.00013855,-5.3307e-05,-1.0975e+08,-24875,0,5.5482e+07,-4182.9,11668,12551,1,12551,1,0.00028442,1.5705e-07,0,0.00041566,5.0622e-05,1.1065e+08,52449,0,1.6417e+08,5674.7,12550,510.38,0,510.38,0,0.0003197,1.9335e-07,0,0.00015969,5.9934e-05,1.2639e+08,65133,0,6.2709e+07,6281,510.38,1
1764,1.97,12110,1,12110,1,7.3761e-06,-3.4939e-08,0,0.00027869,-1.3541e-06,1791.2,-11729,0,1.1036e+08,-1025.4,12109,12992,1,12992,1,0.00054584,4.4761e-07,0,0.00054584,9.9576e-05,2.0776e+08,1.5321e+05,0,2.1599e+08,14801,12991,12110,1,12110,1,7.3661e-06,-2.152e-08,0,0.00027884,-1.3565e-06,2.8814e+06,-7176.2,0,1.1115e+08,-1144.5,12109,11203,1,11203,1,-0.00053103,-4.2618e-07,0,1.2524e-05,-0.00010227,-2.1599e+08,-1.4409e+05,0,5.0993e+06,-17897,11202,11669,1,11669,1,-0.00027143,-1.6252e-07,0,0.00013941,-5.3633e-05,-1.104e+08,-54215,0,5.5817e+07,-5993.9,11668,12551,1,12551,1,0.0002862,7.4013e-08,0,0.00041822,5.0917e-05,1.113e+08,24611,0,1.6513e+08,3848.5,12550,510.38,0,510.38,0,0.00032168,1.8807e-07,0,0.00016069,6.0304e-05,1.2714e+08,63424,0,6.3081e+07,6170.5,510.38,1
1764,1.98,12110,1,12110,1,7.4858e-06,-6.8676e-08,0,0.00027993,-1.3737e-06,-3946.2,-23093,0,1.1081e+08,-867.11,12109,12992,1,12992,1,0.0005486,4.8747e-07,0,0.0005486,0.00010004,2.0862e+08,1.6623e+05,0,2.1701e+08,24996,12991,12110,1,12110,1,7.4735e-06,-5.231e-08,0,0.00028014,-1.3788e-06,2.9227e+06,-17410,0,1.1164e+08,-882.45,12109,11203,1,11203,1,-0.00053353,-4.6732e-07,0,1.2505e-05,-0.00010279,-2.1701e+08,-1.5757e+05,0,5.0908e+06,-18205,11202,11669,1,11669,1,-0.00027261,-2.1776e-07,0,0.00014005,-5.389e-05,-1.1088e+08,-72424,0,5.6062e+07,-5646.8,11668,12551,1,12551,1,0.00028761,4.0243e-08,0,0.00042015,5.1141e-05,1.1178e+08,13708,0,1.6583e+08,2976.9,12550,510.38,0,510.38,0,0.00032311,2.0279e-07,0,0.0001614,6.0573e-05,1.2766e+08,68376,0,6.3334e+07,7305.4,510.38,1
1764,1.99,12110,1,12110,1,7.6048e-06,-4.8853e-08,0,0.00028139,-1.3944e-06,2005.1,-16428,0,1.1136e+08,-362.71,12109,12992,1,12992,1,0.00055154,5.226e-07,0,0.00055154,0.00010055,2.0961e+08,1.7632e+05,0,2.1809e+08,20889,12991,12110,1,12110,1,7.5951e-06,-2.4507e-08,0,0.00028162,-1.393e-06,2.9706e+06,-7910.1,0,1.122e+08,-571.44,12109,11203,1,11203,1,-0.0005362,-5.4041e-07,0,1.2479e-05,-0.00010334,-2.1809e+08,-1.8172e+05,0,5.0795e+06,-15112,11202,11669,1,11669,1,-0.00027395,-2.0441e-07,0,0.00014076,-5.4192e-05,-1.1142e+08,-68635,0,5.6338e+07,-5349.7,11668,12551,1,12551,1,0.00028919,7.9355e-08,0,0.00042232,5.1394e-05,1.1236e+08,26749,0,1.6665e+08,4300.1,12550,510.38,0,510.38,0,0.0003248,2.2684e-07,0,0.00016225,6.0889e-05,1.2829e+08,76448,0,6.3645e+07,6773.8,510.38,1
1764,2,12110,1,12110,1,7.7082e-06,-4.6747e-08,0,0.00028269,-1.4091e-06,-3192.2,-15706,0,1.1184e+08,1400.6,12109,12992,1,12992,1,0.0005542,6.7294e-07,0,0.0005542,0.00010101,2.1046e+08,2.3009e+05,0,2.191e+08,23813,12991,12110,1,12110,1,7.6857e-06,-2.9878e-08,0,0.0002829,-1.4075e-06,3.0064e+06,-9996.3,0,1.1269e+08,922.52,12109,11203,1,11203,1,-0.00053866,-5.9211e-07,0,1.2475e-05,-0.00010384,-2.191e+08,-1.994e+05,0,5.0791e+06,-20698,11202,11669,1,11669,1,-0.00027514,-2.3017e-07,0,0.00014143,-5.445e-05,-1.1191e+08,-76969,0,5.6597e+07,-4181.9,11668,12551,1,12551,1,0.00029058,9.2835e-08,0,0.00042426,5.1622e-05,1.1284e+08,30770,0,1.6736e+08,6648.8,12550,510.38,0,510.38,0,0.00032629,2.6512e-07,0,0.00016299,6.1171e-05,1.2884e+08,89303,0,6.3913e+07,8399.9,510.38,1
1764,2.01,12110,1,12110,1,7.8112e-06,-3.3458e-08,0,0.00028424,-1.4347e-06,-7159.3,-11213,0,1.1243e+08,-1403.7,12109,12992,1,12992,1,0.00055718,7.1798e-07,0,0.00055718,0.00010153,2.1146e+08,2.4441e+05,0,2.2024e+08,27880,12991,12110,1,12110,1,7.7998e-06,-2.5333e-08,0,0.00028443,-1.4421e-06,3.0494e+06,-8464.4,0,1.1328e+08,-537.01,12109,11203,1,11203,1,-0.00054147,-5.6405e-07,0,1.248e-05,-0.00010439,-2.2024e+08,-1.9021e+05,0,5.0829e+06,-29142,11202,11669,1,11669,1,-0.00027657,-2.0968e-07,0,0.00014219,-5.4763e-05,-1.1249e+08,-70092,0,5.6891e+07,-7540.8,11668,12551,1,12551,1,0.00029222,1.0476e-07,0,0.00042657,5.189e-05,1.1343e+08,34508,0,1.6822e+08,5312.3,12550,510.38,0,510.38,0,0.00032808,2.5832e-07,0,0.00016389,6.1509e-05,1.2951e+08,87060,0,6.4243e+07,9926.3,510.38,1
1764,2.02,12110,1,12110,1,7.9594e-06,2.217e-08,0,0.00028589,-1.4567e-06,-900,7479.4,0,1.1304e+08,796.02,12109,12992,1,12992,1,0.00056027,6.5086e-07,0,0.00056027,0.00010207,2.1251e+08,2.2017e+05,0,2.2138e+08,28348,12991,12110,1,12110,1,7.9478e-06,1.0253e-09,0,0.00028606,-1.4618e-06,3.1077e+06,351.2,0,1.1391e+08,145.28,12109,11203,1,11203,1,-0.00054429,-4.6576e-07,0,1.2457e-05,-0.00010498,-2.2138e+08,-1.5681e+05,0,5.0722e+06,-15142,11202,11669,1,11669,1,-0.00027806,-1.2194e-07,0,0.00014302,-5.5096e-05,-1.131e+08,-40516,0,5.7211e+07,-5599.7,11668,12551,1,12551,1,0.00029401,1.5435e-07,0,0.00042902,5.2186e-05,1.1407e+08,51405,0,1.6913e+08,6098.2,12550,510.38,0,510.38,0,0.00032999,2.3188e-07,0,0.00016485,6.1864e-05,1.3022e+08,78143,0,6.4593e+07,8436.5,510.38,1
1764,2.03,12110,1,12110,1,8.0953e-06,-3.4697e-08,0,0.00028716,-1.4859e-06,3290.7,-11645,0,1.1351e+08,-983.53,12109,12992,1,12992,1,0.00056307,5.5776e-07,0,0.00056307,0.00010254,2.1338e+08,1.9099e+05,0,2.2241e+08,12426,12991,12110,1,12110,1,8.0868e-06,-1.6829e-08,0,0.00028734,-1.4914e-06,3.1613e+06,-5601,0,1.1438e+08,-883.41,12109,11203,1,11203,1,-0.00054682,-5.7378e-07,0,1.2405e-05,-0.0001055,-2.2241e+08,-1.928e+05,0,5.0506e+06,-16817,11202,11669,1,11669,1,-0.00027921,-2.1437e-07,0,0.00014365,-5.5353e-05,-1.1356e+08,-71933,0,5.7456e+07,-5552.2,11668,12551,1,12551,1,0.00029541,1.2828e-07,0,0.00043095,5.2382e-05,1.1455e+08,42991,0,1.6982e+08,4090.1,12550,510.38,0,510.38,0,0.00033146,2.5445e-07,0,0.00016559,6.2137e-05,1.3076e+08,85694,0,6.4854e+07,6393.7,510.38,1
1764,2.04,12110,1,12110,1,8.2392e-06,-4.1245e-08,0,0.00028929,-1.5095e-06,5944.8,-13865,0,1.1432e+08,167.31,12109,12992,1,12992,1,0.0005671,4.6865e-07,0,0.0005671,0.00010324,2.1474e+08,1.589e+05,0,2.2393e+08,24041,12991,12110,1,12110,1,8.2238e-06,-3.7379e-08,0,0.00028944,-1.5086e-06,3.2151e+06,-12569,0,1.152e+08,-527.16,12109,11203,1,11203,1,-0.00055055,-3.4741e-07,0,1.242e-05,-0.00010625,-2.2393e+08,-1.1755e+05,0,5.0569e+06,-13056,11202,11669,1,11669,1,-0.00028116,-1.5303e-07,0,0.00014469,-5.5764e-05,-1.1436e+08,-51328,0,5.7861e+07,-4450.9,11668,12551,1,12551,1,0.00029765,3.5694e-08,0,0.0004341,5.2752e-05,1.1536e+08,11957,0,1.7101e+08,3390.3,12550,510.38,0,510.38,0,0.00033391,1.6716e-07,0,0.00016683,6.2593e-05,1.3169e+08,56281,0,6.5313e+07,6376.5,510.38,1
1764,2.05,12110,1,12110,1,8.3703e-06,-3.4169e-08,0,0.00029051,-1.5347e-06,-1071,-11462,0,1.1475e+08,-352.08,12109,12992,1,12992,1,0.00056956,3.8499e-07,0,0.00056956,0.00010364,2.1547e+08,1.3123e+05,0,2.2481e+08,14057,12991,12110,1,12110,1,8.3599e-06,-1.6602e-08,0,0.00029067,-1.5366e-06,3.2684e+06,-5492.9,0,1.1565e+08,236.25,12109,11203,1,11203,1,-0.00055271,-3.9068e-07,0,1.2363e-05,-0.00010671,-2.2481e+08,-1.3122e+05,0,5.0336e+06,-15708,11202,11669,1,11669,1,-0.00028224,-1.4091e-07,0,0.00014529,-5.602e-05,-1.148e+08,-47124,0,5.8089e+07,-4468,11668,12551,1,12551,1,0.00029902,5.8685e-08,0,0.00043592,5.2948e-05,1.1582e+08,19709,0,1.7166e+08,3464.3,12550,510.38,0,510.38,0,0.00033532,1.627e-07,0,0.00016754,6.2857e-05,1.3219e+08,54783,0,6.5556e+07,4994.2,510.38,1
1764,2.06,12110,1,12110,1,8.4831e-06,1.0854e-08,0,0.00029169,-1.5562e-06,-600.78,3620.7,0,1.1519e+08,-660.98,12109,12992,1,12992,1,0.00057192,6.4816e-07,0,0.00057192,0.00010407,2.1626e+08,2.1711e+05,0,2.2573e+08,18275,12991,12110,1,12110,1,8.4814e-06,-4.315e-09,0,0.00029182,-1.5546e-06,3.3148e+06,-1443,0,1.1609e+08,-372.06,12109,11203,1,11203,1,-0.00055497,-4.7419e-07,0,1.2322e-05,-0.00010717,-2.2573e+08,-1.5979e+05,0,5.0181e+06,-19338,11202,11669,1,11669,1,-0.00028335,-1.4829e-07,0,0.00014592,-5.6275e-05,-1.1525e+08,-50052,0,5.8332e+07,-6275.4,11668,12551,1,12551,1,0.0003003,1.5471e-07,0,0.00043771,5.317e-05,1.1627e+08,51407,0,1.723e+08,5038.3,12550,510.38,0,510.38,0,0.00033668,2.435e-07,0,0.00016822,6.3118e-05,1.3269e+08,81912,0,6.5798e+07,7732.7,510.38,1
1764,2.07,12110,1,12110,1,8.5857e-06,-5.4207e-08,0,0.00029307,-1.5729e-06,-2994.5,-18200,0,1.1571e+08,202.92,12109,12992,1,12992,1,0.00057501,5.3823e-07,0,0.00057501,0.00010459,2.1726e+08,1.7996e+05,0,2.2685e+08,18133,12991,12110,1,12110,1,8.5705e-06,-3.34e-08,0,0.00029327,-1.5698e-06,3.3495e+06,-11172,0,1.1664e+08,-51.798,12109,11203,1,11203,1,-0.00055773,-5.1946e-07,0,1.2341e-05,-0.00010773,-2.2685e+08,-1.744e+05,0,5.0252e+06,-21262,11202,11669,1,11669,1,-0.00028463,-2.1575e-07,0,0.00014659,-5.6552e-05,-1.1577e+08,-72044,0,5.859e+07,-5036.2,11668,12551,1,12551,1,0.00030182,7.567e-08,0,0.00043982,5.34e-05,1.168e+08,25332,0,1.731e+08,5442,12550,510.38,0,510.38,0,0.00033827,2.2903e-07,0,0.00016901,6.3414e-05,1.3328e+08,77049,0,6.6089e+07,7465.2,510.38,1
1764,2.08,12110,1,12110,1,8.744e-06,-3.3942e-08,0,0.00029482,-1.6076e-06,5133.7,-11381,0,1.1636e+08,-2122.3,12109,12992,1,12992,1,0.00057843,5.4202e-07,0,0.00057843,0.00010516,2.1838e+08,1.8493e+05,0,2.281e+08,16786,12991,12110,1,12110,1,8.7372e-06,-2.1854e-08,0,0.000295,-1.6131e-06,3.414e+06,-7328.5,0,1.173e+08,-1838.5,12109,11203,1,11203,1,-0.0005608,-4.3334e-07,0,1.2284e-05,-0.00010837,-2.281e+08,-1.4613e+05,0,5.0035e+06,-20361,11202,11669,1,11669,1,-0.00028619,-1.8553e-07,0,0.00014745,-5.6906e-05,-1.164e+08,-62136,0,5.8922e+07,-6999.9,11668,12551,1,12551,1,0.00030372,8.3727e-08,0,0.0004424,5.3685e-05,1.1748e+08,27982,0,1.7406e+08,2859.6,12550,510.38,0,510.38,0,0.0003403,2.1173e-07,0,0.00017003,6.3793e-05,1.3404e+08,71283,0,6.6462e+07,6825.3,510.38,1
1764,2.09,12110,1,12110,1,8.8796e-06,-1.8739e-08,0,0.00029606,-1.6294e-06,4896.3,-6285.4,0,1.1681e+08,-840.05,12109,12992,1,12992,1,0.00058081,5.0223e-07,0,0.00058081,0.00010556,2.1909e+08,1.7144e+05,0,2.2897e+08,13912,12991,12110,1,12110,1,8.8666e-06,-1.0977e-08,0,0.00029622,-1.635e-06,3.4646e+06,-3630.2,0,1.1775e+08,-385.69,12109,11203,1,11203,1,-0.00056295,-4.1954e-07,0,1.2253e-05,-0.00010881,-2.2897e+08,-1.4079e+05,0,4.99e+06,-18348,11202,11669,1,11669,1,-0.00028728,-1.5154e-07,0,0.00014807,-5.7155e-05,-1.1685e+08,-50150,0,5.9156e+07,-5484.2,11668,12551,1,12551,1,0.00030507,9.0041e-08,0,0.00044424,5.3898e-05,1.1793e+08,30222,0,1.7471e+08,4231.1,12550,510.38,0,510.38,0,0.00034173,1.9553e-07,0,0.00017075,6.406e-05,1.3455e+08,65801,0,6.6711e+07,6608.7,510.38,1
1764,2.1,12110,1,12110,1,8.9616e-06,7.2418e-08,0,0.0002969,-1.6455e-06,-4858.2,24256,0,1.1711e+08,-1340.6,12109,12992,1,12992,1,0.0005827,6.4537e-07,0,0.0005827,0.00010591,2.1969e+08,2.1997e+05,0,2.2971e+08,11008,12991,12110,1,12110,1,8.953e-06,3.5683e-08,0,0.00029709,-1.6527e-06,3.4979e+06,11951,0,1.1808e+08,-1402.7,12109,11203,1,11203,1,-0.00056475,-3.8931e-07,0,1.222e-05,-0.00010917,-2.2971e+08,-1.3153e+05,0,4.9782e+06,-14175,11202,11669,1,11669,1,-0.00028811,-6.4405e-08,0,0.00014853,-5.7342e-05,-1.1718e+08,-21515,0,5.9333e+07,-7148.8,11668,12551,1,12551,1,0.00030605,2.1093e-07,0,0.00044561,5.4043e-05,1.1826e+08,71220,0,1.7519e+08,4327.3,12550,510.38,0,510.38,0,0.0003427,2.1835e-07,0,0.00017124,6.4241e-05,1.3489e+08,73477,0,6.6877e+07,6223.6,510.38,1
1764,2.11,12110,1,12110,1,9.0871e-06,-1.906e-08,0,0.00029902,-1.6645e-06,-1015.3,-6346.8,0,1.1793e+08,320.21,12109,12992,1,12992,1,0.00058666,5.0438e-07,0,0.00058666,0.00010659,2.2108e+08,1.7189e+05,0,2.3119e+08,25808,12991,12110,1,12110,1,9.0805e-06,-1.09e-08,0,0.00029916,-1.6676e-06,3.5475e+06,-3504.6,0,1.1888e+08,243.04,12109,11203,1,11203,1,-0.00056841,-4.0327e-07,0,1.2263e-05,-0.00010991,-2.3119e+08,-1.3533e+05,0,4.9928e+06,-14123,11202,11669,1,11669,1,-0.00029003,-1.417e-07,0,0.00014955,-5.7746e-05,-1.1796e+08,-46689,0,5.9731e+07,-4506.5,11668,12551,1,12551,1,0.00030823,8.3362e-08,0,0.00044867,5.4418e-05,1.1906e+08,27784,0,1.7636e+08,3748.4,12550,510.38,0,510.38,0,0.00034515,1.8629e-07,0,0.00017247,6.4699e-05,1.3583e+08,62720,0,6.7341e+07,7287.2,510.38,1
1764,2.12,12110,1,12110,1,9.2398e-06,1.8648e-08,0,0.00029988,-1.6934e-06,-1532.1,6248.6,0,1.1821e+08,-36.179,12109,12992,1,12992,1,0.0005886,6.2398e-07,0,0.0005886,0.00010691,2.2158e+08,2.094e+05,0,2.3188e+08,13843,12991,12110,1,12110,1,9.2341e-06,8.5403e-10,0,0.00030003,-1.6933e-06,3.6065e+06,283.01,0,1.192e+08,-222.26,12109,11203,1,11203,1,-0.00057011,-4.8138e-07,0,1.216e-05,-0.00011028,-2.3188e+08,-1.6146e+05,0,4.9536e+06,-12809,11202,11669,1,11669,1,-0.00029075,-1.2296e-07,0,0.00015002,-5.7941e-05,-1.1826e+08,-41513,0,5.9902e+07,-5255.3,11668,12551,1,12551,1,0.00030926,1.5458e-07,0,0.00045001,5.4547e-05,1.1938e+08,51586,0,1.768e+08,5256.4,12550,510.38,0,510.38,0,0.00034613,2.3338e-07,0,0.00017296,6.4884e-05,1.3615e+08,78438,0,6.7496e+07,6410.2,510.38,1
1764,2.13,12110,1,12110,1,9.3566e-06,-1.0849e-08,0,0.00030157,-1.7116e-06,1567,-3653.3,0,1.1885e+08,1304.7,12109,12992,1,12992,1,0.00059187,5.7681e-07,0,0.00059187,0.00010746,2.2268e+08,1.9565e+05,0,2.3309e+08,25975,12991,12110,1,12110,1,9.3403e-06,-4.3137e-09,0,0.00030172,-1.7105e-06,3.6479e+06,-1430.7,0,1.1984e+08,650.07,12109,11203,1,11203,1,-0.00057307,-5.0539e-07,0,1.2178e-05,-0.00011088,-2.3309e+08,-1.695e+05,0,4.9606e+06,-13679,11202,11669,1,11669,1,-0.00029232,-1.335e-07,0,0.00015083,-5.8275e-05,-1.189e+08,-44831,0,6.0218e+07,-4505.8,11668,12551,1,12551,1,0.00031105,1.0084e-07,0,0.0004525,5.4857e-05,1.2003e+08,33475,0,1.7774e+08,5966,12550,510.38,0,510.38,0,0.00034809,2.1512e-07,0,0.00017394,6.5251e-05,1.3689e+08,72295,0,6.786e+07,7273.6,510.38,1
1764,2.14,12110,1,12110,1,9.498e-06,8.8378e-09,0,0.00030266,-1.7425e-06,1308.1,2978.7,0,1.1924e+08,-721.8,12109,12992,1,12992,1,0.00059417,7.7126e-07,0,0.00059417,0.00010788,2.2336e+08,2.5869e+05,0,2.3397e+08,26455,12991,12110,1,12110,1,9.4879e-06,-7.7619e-09,0,0.00030284,-1.7464e-06,3.7041e+06,-2590.2,0,1.2026e+08,-573.5,12109,11203,1,11203,1,-0.00057523,-4.7145e-07,0,1.2109e-05,-0.00011133,-2.3397e+08,-1.5879e+05,0,4.9334e+06,-22014,11202,11669,1,11669,1,-0.0002933,-1.6484e-07,0,0.0001514,-5.8528e-05,-1.1929e+08,-54452,0,6.0432e+07,-7168,11668,12551,1,12551,1,0.00031232,1.4502e-07,0,0.0004542,5.504e-05,1.2045e+08,48608,0,1.7832e+08,4932.4,12550,510.38,0,510.38,0,0.00034935,2.5666e-07,0,0.00017458,6.549e-05,1.3734e+08,86286,0,6.8075e+07,8892.8,510.38,1
1764,2.15,12110,1,12110,1,9.6102e-06,-1.0386e-08,0,0.00030453,-1.7645e-06,-5458.3,-3459.2,0,1.1995e+08,-1369.5,12109,12992,1,12992,1,0.00059792,6.9502e-07,0,0.00059792,0.0001085,2.2461e+08,2.3641e+05,0,2.3534e+08,16209,12991,12110,1,12110,1,9.6015e-06,-1.8368e-08,0,0.00030468,-1.7744e-06,3.7478e+06,-5955.9,0,1.2096e+08,-749.45,12109,11203,1,11203,1,-0.0005786,-4.4821e-07,0,1.2125e-05,-0.00011201,-2.3534e+08,-1.5076e+05,0,4.9405e+06,-20085,11202,11669,1,11669,1,-0.00029502,-1.6618e-07,0,0.00015231,-5.8889e-05,-1.1999e+08,-55186,0,6.0787e+07,-6441.8,11668,12551,1,12551,1,0.00031427,9.8242e-08,0,0.00045694,5.5349e-05,1.2115e+08,32020,0,1.7937e+08,4301.8,12550,510.38,0,510.38,0,0.00035151,2.3541e-07,0,0.00017566,6.5892e-05,1.3815e+08,79159,0,6.8476e+07,7326,510.38,1
1764,2.16,12110,1,12110,1,9.8097e-06,-2.4203e-09,0,0.00030635,-1.8031e-06,3348.1,-786.41,0,1.2062e+08,-2189,12109,12992,1,12992,1,0.00060144,5.6097e-07,0,0.00060144,0.00010909,2.2571e+08,1.9089e+05,0,2.3662e+08,10964,12991,12110,1,12110,1,9.7984e-06,-8.4884e-09,0,0.00030647,-1.81e-06,3.8244e+06,-2783.7,0,1.2164e+08,-1727.2,12109,11203,1,11203,1,-0.00058175,-3.9357e-07,0,1.2062e-05,-0.00011267,-2.3662e+08,-1.3249e+05,0,4.9154e+06,-17411,11202,11669,1,11669,1,-0.00029662,-1.3657e-07,0,0.00015322,-5.9257e-05,-1.2065e+08,-45004,0,6.1135e+07,-6071.8,11668,12551,1,12551,1,0.00031626,1.0538e-07,0,0.00045964,5.5642e-05,1.2184e+08,34955,0,1.8034e+08,2544.4,12550,510.38,0,510.38,0,0.00035361,2.0034e-07,0,0.00017672,6.6284e-05,1.3892e+08,67377,0,6.8853e+07,6032.7,510.38,1
1764,2.17,12110,1,12110,1,9.9523e-06,-3.4458e-09,0,0.00030767,-1.8256e-06,-1481.7,-1152,0,1.2109e+08,-664.51,12109,12992,1,12992,1,0.00060414,5.0544e-07,0,0.00060414,0.00010954,2.2651e+08,1.7177e+05,0,2.376e+08,21195,12991,12110,1,12110,1,9.944e-06,-5.8989e-09,0,0.00030779,-1.831e-06,3.8806e+06,-1931.8,0,1.2213e+08,-447.38,12109,11203,1,11203,1,-0.00058415,-3.8438e-07,0,1.2005e-05,-0.00011318,-2.376e+08,-1.2962e+05,0,4.8926e+06,-14508,11202,11669,1,11669,1,-0.0002978,-1.2276e-07,0,0.00015387,-5.953e-05,-1.2113e+08,-40763,0,6.138e+07,-5702.3,11668,12551,1,12551,1,0.00031772,1.0013e-07,0,0.00046161,5.5882e-05,1.2232e+08,33836,0,1.8104e+08,3775.8,12550,510.38,0,510.38,0,0.00035513,1.8616e-07,0,0.00017749,6.657e-05,1.3946e+08,62545,0,6.9116e+07,6785.9,510.38,1
1764,2.18,12110,1,12110,1,1.0095e-05,7.3516e-08,0,0.00030882,-1.8535e-06,3185.8,24607,0,1.2151e+08,-1420,12109,12992,1,12992,1,0.00060679,5.3939e-07,0,0.00060679,0.00011,2.2736e+08,1.8207e+05,0,2.3857e+08,12520,12991,12110,1,12110,1,1.0101e-05,3.6343e-08,0,0.00030901,-1.8514e-06,3.942e+06,12142,0,1.2259e+08,-1399.2,12109,11203,1,11203,1,-0.00058654,-2.8778e-07,0,1.193e-05,-0.00011369,-2.3857e+08,-97028,0,4.8626e+06,-12646,11202,11669,1,11669,1,-0.0002989,-3.1006e-08,0,0.00015453,-5.9783e-05,-1.2157e+08,-10340,0,6.1631e+07,-5990.5,11668,12551,1,12551,1,0.0003191,1.739e-07,0,0.0004635,5.6075e-05,1.2279e+08,58188,0,1.8171e+08,3056.6,12550,510.38,0,510.38,0,0.00035646,1.6735e-07,0,0.00017816,6.6816e-05,1.3993e+08,56235,0,6.9348e+07,5626.6,510.38,1
1764,2.19,12110,1,12110,1,1.0211e-05,4.8228e-08,0,0.00031048,-1.8718e-06,-2043.2,16176,0,1.2213e+08,-180.38,12109,12992,1,12992,1,0.00061023,5.7751e-07,0,0.00061023,0.00011061,2.2848e+08,1.9597e+05,0,2.3991e+08,10312,12991,12110,1,12110,1,1.0207e-05,1.1961e-08,0,0.00031068,-1.8693e-06,3.9822e+06,3871.9,0,1.2322e+08,794.3,12109,11203,1,11203,1,-0.00058984,-3.4889e-07,0,1.1953e-05,-0.00011433,-2.3991e+08,-1.1745e+05,0,4.8723e+06,-16236,11202,11669,1,11669,1,-0.00030043,-9.2574e-08,0,0.00015534,-6.0121e-05,-1.222e+08,-31170,0,6.1946e+07,-4192.2,11668,12551,1,12551,1,0.0003209,1.8741e-07,0,0.00046601,5.6359e-05,1.2343e+08,61854,0,1.8263e+08,4150.2,12550,510.38,0,510.38,0,0.00035837,2.1598e-07,0,0.00017912,6.7174e-05,1.4065e+08,72550,0,6.9698e+07,5854.7,510.38,1
1764,2.2,12110,1,12110,1,1.0443e-05,-5.3468e-08,0,0.00031197,-1.9153e-06,4251.8,-17852,0,1.2264e+08,-659.58,12109,12992,1,12992,1,0.00061327,4.7326e-07,0,0.00061327,0.00011107,2.2937e+08,1.6195e+05,0,2.4091e+08,16506,12991,12110,1,12110,1,1.0439e-05,-3.9978e-08,0,0.00031216,-1.9269e-06,4.0702e+06,-13051,0,1.2375e+08,364.6,12109,11203,1,11203,1,-0.00059228,-4.193e-07,0,1.1796e-05,-0.00011489,-2.4091e+08,-1.4029e+05,0,4.8107e+06,-21897,11202,11669,1,11669,1,-0.00030168,-1.7903e-07,0,0.00015605,-6.042e-05,-1.2271e+08,-59916,0,6.2205e+07,-4509.6,11668,12551,1,12551,1,0.00032256,4.2778e-08,0,0.00046816,5.6593e-05,1.2395e+08,14143,0,1.8341e+08,4639.4,12550,510.38,0,510.38,0,0.00036009,1.8566e-07,0,0.00017999,6.7497e-05,1.4124e+08,62253,0,6.9993e+07,7308.4,510.38,1
1764,2.21,12110,1,12110,1,1.058e-05,-6.9069e-09,0,0.00031327,-1.9441e-06,1634.6,-2290.4,0,1.2312e+08,-2244.5,12109,12992,1,12992,1,0.00061574,5.6442e-07,0,0.00061574,0.00011146,2.3006e+08,1.9227e+05,0,2.4177e+08,11302,12991,12110,1,12110,1,1.057e-05,-1.1775e-08,0,0.00031342,-1.9533e-06,4.1192e+06,-3766.4,0,1.2421e+08,-1335,12109,11203,1,11203,1,-0.00059441,-4.5757e-07,0,1.1764e-05,-0.00011535,-2.4177e+08,-1.5307e+05,0,4.7963e+06,-21339,11202,11669,1,11669,1,-0.00030281,-1.4687e-07,0,0.00015668,-6.0704e-05,-1.2316e+08,-49403,0,6.2443e+07,-6753.4,11668,12551,1,12551,1,0.00032398,1.1468e-07,0,0.00047003,5.6812e-05,1.2442e+08,38832,0,1.8406e+08,3812.4,12550,510.38,0,510.38,0,0.0003616,2.176e-07,0,0.00018075,6.778e-05,1.4179e+08,73022,0,7.0257e+07,7203.3,510.38,1
1764,2.22,12110,1,12110,1,1.0706e-05,-1.5566e-08,0,0.00031474,-1.9604e-06,-4757.5,-5235.9,0,1.2366e+08,527.71,12109,12992,1,12992,1,0.00061853,4.5368e-07,0,0.00061853,0.00011195,2.3094e+08,1.5088e+05,0,2.4282e+08,23380,12991,12110,1,12110,1,1.0693e-05,-1.2083e-08,0,0.00031486,-1.9535e-06,4.1677e+06,-4039.7,0,1.2476e+08,187.39,12109,11203,1,11203,1,-0.000597,-3.7256e-07,0,1.1746e-05,-0.00011587,-2.4282e+08,-1.2486e+05,0,4.7896e+06,-12853,11202,11669,1,11669,1,-0.00030412,-1.2175e-07,0,0.00015742,-6.0986e-05,-1.237e+08,-40218,0,6.2723e+07,-4059.9,11668,12551,1,12551,1,0.00032555,7.6554e-08,0,0.00047222,5.7063e-05,1.2496e+08,25795,0,1.8484e+08,3879.4,12550,510.38,0,510.38,0,0.00036329,1.6727e-07,0,0.0001816,6.8095e-05,1.424e+08,56132,0,7.0561e+07,6519.6,510.38,1
1764,2.23,12110,1,12110,1,1.0878e-05,-1.2303e-08,0,0.0003163,-1.9933e-06,3653,-4087.6,0,1.2423e+08,28.932,12109,12992,1,12992,1,0.00062182,5.39e-07,0,0.00062182,0.0001125,2.32e+08,1.8456e+05,0,2.4402e+08,23137,12991,12110,1,12110,1,1.0873e-05,-1.6404e-08,0,0.00031644,-1.9927e-06,4.2368e+06,-5383,0,1.2535e+08,-183.34,12109,11203,1,11203,1,-0.00059994,-4.0228e-07,0,1.1689e-05,-0.00011648,-2.4402e+08,-1.3535e+05,0,4.7669e+06,-13015,11202,11669,1,11669,1,-0.00030551,-1.4658e-07,0,0.00015819,-6.131e-05,-1.2426e+08,-47882,0,6.3018e+07,-5186.8,11668,12551,1,12551,1,0.0003273,9.2962e-08,0,0.00047458,5.7331e-05,1.2557e+08,30851,0,1.8571e+08,4287.5,12550,510.38,0,510.38,0,0.0003651,2.0106e-07,0,0.00018251,6.8436e-05,1.4306e+08,67490,0,7.0884e+07,6694.5,510.38,1
1764,2.24,12110,1,12110,1,1.1005e-05,-6.8076e-08,0,0.00031759,-2.0179e-06,-8005.7,-22757,0,1.2469e+08,-618.13,12109,12992,1,12992,1,0.00062473,4.528e-07,0,0.00062473,0.000113,2.3287e+08,1.5111e+05,0,2.451e+08,20106,12991,12110,1,12110,1,1.0984e-05,-4.2018e-08,0,0.0003178,-2.0203e-06,4.2791e+06,-13799,0,1.2586e+08,-340.76,12109,11203,1,11203,1,-0.00060259,-4.7627e-07,0,1.1674e-05,-0.00011703,-2.451e+08,-1.5986e+05,0,4.7609e+06,-17725,11202,11669,1,11669,1,-0.00030674,-2.1381e-07,0,0.00015885,-6.1584e-05,-1.2476e+08,-71393,0,6.3266e+07,-5356,11668,12551,1,12551,1,0.00032877,4.8087e-08,0,0.0004766,5.7545e-05,1.2606e+08,16213,0,1.8644e+08,3912.6,12550,510.38,0,510.38,0,0.00036658,2.0091e-07,0,0.00018325,6.8713e-05,1.4359e+08,67405,0,7.114e+07,6657.2,510.38,1
1764,2.25,12110,1,12110,1,1.118e-05,-4.4891e-08,0,0.00031937,-2.0534e-06,1861.2,-14973,0,1.2536e+08,-1976.5,12109,12992,1,12992,1,0.00062814,3.8486e-07,0,0.00062814,0.00011356,2.3396e+08,1.318e+05,0,2.4633e+08,9959.9,12991,12110,1,12110,1,1.1181e-05,-3.0007e-08,0,0.00031956,-2.056e-06,4.3555e+06,-9777.9,0,1.2653e+08,-950.2,12109,11203,1,11203,1,-0.00060561,-3.8339e-07,0,1.1589e-05,-0.00011767,-2.4633e+08,-1.2814e+05,0,4.7271e+06,-18135,11202,11669,1,11669,1,-0.0003083,-1.5533e-07,0,0.00015971,-6.1947e-05,-1.254e+08,-51589,0,6.3597e+07,-5566.2,11668,12551,1,12551,1,0.00033071,4.2052e-08,0,0.00047921,5.7834e-05,1.2674e+08,13790,0,1.874e+08,2090.2,12550,510.38,0,510.38,0,0.00036864,1.6169e-07,0,0.00018429,6.9096e-05,1.4435e+08,54313,0,7.1516e+07,5178.1,510.38,1
1764,2.26,12110,1,12110,1,1.1357e-05,-3.9865e-08,0,0.00032085,-2.0816e-06,918.06,-13307,0,1.2588e+08,-270.52,12109,12992,1,12992,1,0.0006311,3.8487e-07,0,0.0006311,0.00011406,2.3484e+08,1.2887e+05,0,2.4741e+08,18164,12991,12110,1,12110,1,1.135e-05,-2.4038e-08,0,0.00032101,-2.0795e-06,4.4205e+06,-7943.1,0,1.2706e+08,-388.4,12109,11203,1,11203,1,-0.00060827,-3.7672e-07,0,1.1537e-05,-0.00011822,-2.4741e+08,-1.2622e+05,0,4.7069e+06,-16829,11202,11669,1,11669,1,-0.0003096,-1.4748e-07,0,0.00016046,-6.2248e-05,-1.2593e+08,-49356,0,6.3882e+07,-4180.7,11668,12551,1,12551,1,0.00033234,5.1746e-08,0,0.00048143,5.808e-05,1.2728e+08,16892,0,1.8817e+08,3033.4,12550,510.38,0,510.38,0,0.00037035,1.5882e-07,0,0.00018516,6.9416e-05,1.4496e+08,53343,0,7.1811e+07,5592.2,510.38,1
1764,2.27,12110,1,12110,1,1.1501e-05,-2.5158e-08,0,0.00032212,-2.1134e-06,-999.15,-8421.1,0,1.2634e+08,-2455,12109,12992,1,12992,1,0.00063373,5.2784e-07,0,0.00063373,0.0001145,2.3563e+08,1.7838e+05,0,2.4837e+08,12143,12991,12110,1,12110,1,1.149e-05,-2.5309e-08,0,0.00032228,-2.1221e-06,4.4743e+06,-8384.7,0,1.2753e+08,-1090.9,12109,11203,1,11203,1,-0.00061062,-4.0639e-07,0,1.1488e-05,-0.00011871,-2.4837e+08,-1.3665e+05,0,4.6869e+06,-17071,11202,11669,1,11669,1,-0.00031073,-1.6212e-07,0,0.0001611,-6.2517e-05,-1.2638e+08,-54834,0,6.4121e+07,-7120.6,11668,12551,1,12551,1,0.00033375,8.1203e-08,0,0.00048333,5.8289e-05,1.2775e+08,26552,0,1.8885e+08,2534.8,12550,510.38,0,510.38,0,0.00037182,2.0187e-07,0,0.00018589,6.9692e-05,1.4548e+08,67670,0,7.2065e+07,6290.7,510.38,1
1764,2.28,12110,1,12110,1,1.1647e-05,3.537e-08,0,0.0003235,-2.1383e-06,-1194.3,11822,0,1.2684e+08,-1679.4,12109,12992,1,12992,1,0.00063655,5.5171e-07,0,0.00063655,0.000115,2.3651e+08,1.8885e+05,0,2.4943e+08,9772.7,12991,12110,1,12110,1,1.1642e-05,1.1568e-08,0,0.00032367,-2.1426e-06,4.5336e+06,3877.8,0,1.2806e+08,-1438.9,12109,11203,1,11203,1,-0.00061324,-3.6801e-07,0,1.1426e-05,-0.00011925,-2.4943e+08,-1.2294e+05,0,4.6623e+06,-17586,11202,11669,1,11669,1,-0.00031198,-8.9107e-08,0,0.0001618,-6.2817e-05,-1.2689e+08,-30192,0,6.4388e+07,-6302.5,11668,12551,1,12551,1,0.0003353,1.506e-07,0,0.00048544,5.8522e-05,1.2828e+08,49864,0,1.896e+08,3473,12550,510.38,0,510.38,0,0.0003734,2.0045e-07,0,0.00018669,6.9989e-05,1.4605e+08,67204,0,7.2346e+07,5857,510.38,1
1764,2.29,12110,1,12110,1,1.1795e-05,-2.2146e-08,0,0.00032484,-2.1593e-06,194.64,-7317.6,0,1.2733e+08,829.54,12109,12992,1,12992,1,0.00063929,5.4848e-07,0,0.00063929,0.00011543,2.3735e+08,1.8768e+05,0,2.5038e+08,16545,12991,12110,1,12110,1,1.1788e-05,-1.1789e-08,0,0.000325,-2.16e-06,4.5897e+06,-3842.4,0,1.2855e+08,761.64,12109,11203,1,11203,1,-0.00061557,-4.6699e-07,0,1.1385e-05,-0.00011975,-2.5038e+08,-1.5596e+05,0,4.6457e+06,-14691,11202,11669,1,11669,1,-0.00031314,-1.6983e-07,0,0.00016245,-6.3081e-05,-1.2736e+08,-56671,0,6.4634e+07,-3651.2,11668,12551,1,12551,1,0.00033676,1.0214e-07,0,0.00048739,5.8753e-05,1.2877e+08,33447,0,1.9031e+08,5372,12550,510.38,0,510.38,0,0.00037494,2.1645e-07,0,0.00018747,7.0278e-05,1.4661e+08,72636,0,7.2616e+07,6362.1,510.38,1
1764,2.3,12110,1,12110,1,1.1933e-05,9.037e-09,0,0.00032635,-2.1891e-06,-8159.6,3032.2,0,1.2788e+08,-1054.3,12109,12992,1,12992,1,0.00064212,5.5541e-07,0,0.00064212,0.00011594,2.382e+08,1.879e+05,0,2.5145e+08,18856,12991,12110,1,12110,1,1.1927e-05,-4.9938e-09,0,0.0003265,-2.1944e-06,4.6429e+06,-1616.9,0,1.2911e+08,-897.05,12109,11203,1,11203,1,-0.00061821,-3.7607e-07,0,1.135e-05,-0.0001203,-2.5145e+08,-1.263e+05,0,4.6327e+06,-23766,11202,11669,1,11669,1,-0.00031453,-1.1403e-07,0,0.00016323,-6.34e-05,-1.2793e+08,-38037,0,6.493e+07,-5811.9,11668,12551,1,12551,1,0.0003384,1.1123e-07,0,0.00048966,5.902e-05,1.2933e+08,37144,0,1.9112e+08,3801.4,12550,510.38,0,510.38,0,0.00037669,1.9446e-07,0,0.00018835,7.0606e-05,1.4724e+08,65195,0,7.2925e+07,6484.5,510.38,1
1764,2.31,12110,1,12110,1,1.2132e-05,-4.7263e-08,0,0.00032807,-2.2272e-06,3427.8,-15778,0,1.2851e+08,-1644,12109,12992,1,12992,1,0.00064616,5.3194e-07,0,0.00064616,0.00011659,2.395e+08,1.8214e+05,0,2.529e+08,10536,12991,12110,1,12110,1,1.212e-05,-3.3611e-08,0,0.00032829,-2.2333e-06,4.7167e+06,-11054,0,1.2978e+08,-1616.4,12109,11203,1,11203,1,-0.00062177,-4.5973e-07,0,1.1286e-05,-0.00012104,-2.529e+08,-1.5386e+05,0,4.6077e+06,-15765,11202,11669,1,11669,1,-0.0003161,-2.1505e-07,0,0.00016409,-6.3759e-05,-1.2857e+08,-72656,0,6.5263e+07,-5940.6,11668,12551,1,12551,1,0.00034039,7.9928e-08,0,0.00049233,5.9297e-05,1.3001e+08,26557,0,1.921e+08,3306.7,12550,510.38,0,510.38,0,0.00037868,2.2485e-07,0,0.00018935,7.0977e-05,1.4797e+08,75334,0,7.328e+07,5811.6,510.38,1
1764,2.32,12110,1,12110,1,1.2305e-05,-3.6336e-08,0,0.00032932,-2.2545e-06,1595.5,-12112,0,1.2894e+08,199.07,12109,12992,1,12992,1,0.00064857,5.005e-07,0,0.00064857,0.00011697,2.4012e+08,1.7125e+05,0,2.5371e+08,17421,12991,12110,1,12110,1,1.2302e-05,-2.7836e-08,0,0.00032951,-2.2486e-06,4.7877e+06,-8861.1,0,1.3022e+08,169.67,12109,11203,1,11203,1,-0.00062377,-4.7617e-07,0,1.1175e-05,-0.00012149,-2.5371e+08,-1.5993e+05,0,4.5622e+06,-19751,11202,11669,1,11669,1,-0.00031712,-1.7802e-07,0,0.00016469,-6.4017e-05,-1.2898e+08,-59032,0,6.5482e+07,-5078.3,11668,12551,1,12551,1,0.00034178,8.0923e-08,0,0.00049413,5.9493e-05,1.3045e+08,27128,0,1.9271e+08,5215.5,12550,510.38,0,510.38,0,0.00038012,2.12e-07,0,0.00019008,7.1248e-05,1.4846e+08,71081,0,7.3521e+07,6871.9,510.38,1
1764,2.33,12110,1,12110,1,1.2444e-05,-3.6517e-08,0,0.00033077,-2.2851e-06,-2687.9,-12232,0,1.2947e+08,-2014.3,12109,12992,1,12992,1,0.00065158,6.1562e-07,0,0.00065158,0.00011749,2.4106e+08,2.0367e+05,0,2.5484e+08,17687,12991,12110,1,12110,1,1.2433e-05,-3.0346e-08,0,0.00033097,-2.2896e-06,4.8376e+06,-10007,0,1.3077e+08,-1269,12109,11203,1,11203,1,-0.00062655,-4.3264e-07,0,1.1153e-05,-0.00012205,-2.5484e+08,-1.4522e+05,0,4.5545e+06,-23945,11202,11669,1,11669,1,-0.00031846,-2.0135e-07,0,0.00016542,-6.4315e-05,-1.2953e+08,-67139,0,6.5763e+07,-6110.8,11668,12551,1,12551,1,0.00034337,7.3661e-08,0,0.00049634,5.974e-05,1.31e+08,24615,0,1.935e+08,3538.6,12550,510.38,0,510.38,0,0.00038179,2.2656e-07,0,0.00019092,7.1562e-05,1.4907e+08,75813,0,7.3817e+07,7415.8,510.38,1
1764,2.34,12110,1,12110,1,1.2618e-05,-1.4034e-08,0,0.00033239,-2.3121e-06,-2753.7,-4724.2,0,1.3006e+08,37.419,12109,12992,1,12992,1,0.00065446,4.9169e-07,0,0.00065446,0.00011796,2.4192e+08,1.64e+05,0,2.5587e+08,17819,12991,12110,1,12110,1,1.2608e-05,-1.5971e-08,0,0.00033251,-2.3077e-06,4.9049e+06,-5211,0,1.3134e+08,-253.52,12109,11203,1,11203,1,-0.00062909,-3.8145e-07,0,1.1095e-05,-0.00012258,-2.5587e+08,-1.2726e+05,0,4.5306e+06,-10792,11202,11669,1,11669,1,-0.00031984,-1.2335e-07,0,0.00016623,-6.4635e-05,-1.3009e+08,-40885,0,6.607e+07,-4505.1,11668,12551,1,12551,1,0.0003451,7.2621e-08,0,0.00049866,6.0012e-05,1.3158e+08,24498,0,1.9433e+08,3622.4,12550,510.38,0,510.38,0,0.00038366,1.7283e-07,0,0.00019186,7.1909e-05,1.4974e+08,57789,0,7.4148e+07,5912.1,510.38,1
1764,2.35,12110,1,12110,1,1.2775e-05,-3.5015e-08,0,0.00033314,-2.3412e-06,880.36,-11652,0,1.303e+08,-34.833,12109,12992,1,12992,1,0.00065629,5.8637e-07,0,0.00065629,0.00011826,2.424e+08,1.9433e+05,0,2.5651e+08,29301,12991,12110,1,12110,1,1.2771e-05,-3.4474e-08,0,0.00033331,-2.3378e-06,4.9668e+06,-11262,0,1.3162e+08,-871,12109,11203,1,11203,1,-0.00063065,-4.7216e-07,0,1.0997e-05,-0.00012293,-2.5651e+08,-1.585e+05,0,4.4922e+06,-14818,11202,11669,1,11669,1,-0.00032047,-1.8917e-07,0,0.00016661,-6.4819e-05,-1.3035e+08,-63098,0,6.6205e+07,-5651.8,11668,12551,1,12551,1,0.00034606,8.1595e-08,0,0.00049987,6.014e-05,1.3187e+08,27355,0,1.9472e+08,4308.5,12550,510.38,0,510.38,0,0.00038452,2.2361e-07,0,0.0001923,7.2075e-05,1.5002e+08,74857,0,7.428e+07,8179.9,510.38,1
1764,2.36,12110,1,12110,1,1.3207e-05,-1.0689e-09,0,0.00033699,-2.4206e-06,634.32,-358.42,0,1.317e+08,-1157.8,12109,12992,1,12992,1,0.00066324,2.203e-08,0,0.00066324,0.00011941,2.4462e+08,7545,0,2.59e+08,79.785,12991,12110,1,12110,1,1.3219e-05,-1.5902e-09,0,0.00033703,-2.4265e-06,5.1215e+06,-534.09,0,1.3298e+08,-1114.3,12109,11203,1,11203,1,-0.00063676,-2.6055e-08,0,1.0824e-05,-0.00012424,-2.59e+08,-8284.2,0,4.4265e+06,-2949.3,11202,11669,1,11669,1,-0.00032379,-7.3107e-09,0,0.00016849,-6.5581e-05,-1.317e+08,-2465,0,6.6864e+07,-1765.2,11668,12551,1,12551,1,0.00035021,4.7825e-09,0,0.00050548,6.0732e-05,1.3322e+08,1587.6,0,1.9676e+08,-376.38,12550,510.38,0,510.38,0,0.00038899,9.2439e-09,0,0.00019457,7.2902e-05,1.5164e+08,3054.7,0,7.5104e+07,828.45,510.38,1
1764,2.37,12110,1,12110,1,1.3551e-05,-3.1629e-10,0,0.0003386,-2.4815e-06,-90.574,-104.79,0,1.3221e+08,-169.87,12109,12992,1,12992,1,0.00066659,9.2394e-09,0,0.00066659,0.00011992,2.4535e+08,3164.1,0,2.601e+08,185.95,12991,12110,1,12110,1,1.3555e-05,-2.5238e-10,0,0.00033861,-2.4838e-06,5.2515e+06,-82.454,0,1.3353e+08,-151.78,12109,11203,1,11203,1,-0.00063948,-7.2001e-09,0,1.0623e-05,-0.00012486,-2.601e+08,-2400.9,0,4.346e+06,-591.25,11202,11669,1,11669,1,-0.00032505,-2.3366e-09,0,0.0001693,-6.594e-05,-1.3221e+08,-776.02,0,6.7153e+07,-303.03,11668,12551,1,12551,1,0.00035216,1.1932e-09,0,0.0005079,6.0971e-05,1.3377e+08,396.79,0,1.975e+08,-23.274,12550,510.38,0,510.38,0,0.00039084,3.1734e-09,0,0.00019552,7.3248e-05,1.5222e+08,1074,0,7.5379e+07,170.65,510.38,1
1764,2.38,12110,1,12110,1,1.3781e-05,-1.1868e-09,0,0.00034011,-2.523e-06,-77.103,-395.04,0,1.3273e+08,-27.967,12109,12992,1,12992,1,0.00066971,7.8158e-10,0,0.00066971,0.00012043,2.4622e+08,258.48,0,2.6119e+08,138.86,12991,12110,1,12110,1,1.3781e-05,-1.1294e-09,0,0.00034011,-2.5244e-06,5.335e+06,-373.15,0,1.3406e+08,-20.561,12109,11203,1,11203,1,-0.00064215,-3.348e-09,0,1.0512e-05,-0.00012544,-2.6119e+08,-1112.4,0,4.302e+06,-220.01,11202,11669,1,11669,1,-0.00032633,-2.0355e-09,0,0.00017005,-6.6263e-05,-1.3273e+08,-679.8,0,6.7424e+07,-62.679,11668,12551,1,12551,1,0.00035389,-2.8475e-10,0,0.00051016,6.1212e-05,1.3431e+08,-93.951,0,1.9827e+08,14.643,12550,510.38,0,510.38,0,0.00039258,1.0742e-09,0,0.0001964,7.3574e-05,1.5282e+08,358.73,0,7.5673e+07,65.134,510.38,1
1764,2.39,12110,1,12110,1,1.396e-05,-2.1634e-09,0,0.00034154,-2.5559e-06,97.782,-718.69,0,1.3324e+08,-16.387,12109,12992,1,12992,1,0.00067267,2.7719e-09,0,0.00067267,0.00012091,2.4708e+08,949.25,0,2.6225e+08,187.76,12991,12110,1,12110,1,1.3961e-05,-1.779e-09,0,0.00034154,-2.5576e-06,5.4047e+06,-594.57,0,1.3459e+08,-22.506,12109,11203,1,11203,1,-0.00064475,-7.8584e-09,0,1.0432e-05,-0.000126,-2.6225e+08,-2592.1,0,4.2702e+06,-216.17,11202,11669,1,11669,1,-0.00032758,-4.5071e-09,0,0.00017077,-6.6564e-05,-1.3324e+08,-1500.8,0,6.7694e+07,-65.294,11668,12551,1,12551,1,0.0003555,2.2201e-10,0,0.00051232,6.1448e-05,1.3484e+08,74.725,0,1.9903e+08,29.842,12550,510.38,0,510.38,0,0.00039424,2.6662e-09,0,0.00019724,7.3884e-05,1.534e+08,888.38,0,7.5958e+07,70.78,510.38,1
1764,2.4,12110,1,12110,1,1.4149e-05,1.2591e-09,0,0.000343,-2.5903e-06,-19.538,419.02,0,1.3376e+08,25.234,12109,12992,1,12992,1,0.00067566,3.6135e-09,0,0.00067566,0.0001214,2.4795e+08,1200.1,0,2.6331e+08,172.9,12991,12110,1,12110,1,1.4147e-05,1.1406e-09,0,0.000343,-2.5918e-06,5.4749e+06,380.75,0,1.3513e+08,14.216,12109,11203,1,11203,1,-0.00064736,-1.0154e-09,0,1.035e-05,-0.00012656,-2.6331e+08,-337.73,0,4.2381e+06,-106.44,11202,11669,1,11669,1,-0.00032885,4.5376e-10,0,0.0001715,-6.6871e-05,-1.3376e+08,145.6,0,6.7963e+07,-14.526,11668,12551,1,12551,1,0.00035715,2.1465e-09,0,0.0005145,6.1686e-05,1.3537e+08,716.79,0,1.9979e+08,56.195,12550,510.38,0,510.38,0,0.00039592,1.0107e-09,0,0.00019809,7.4199e-05,1.54e+08,337.62,0,7.6248e+07,56.742,510.38,1
1764,2.41,12110,1,12110,1,1.4328e-05,4.1206e-12,0,0.00034445,-2.6232e-06,3.4015,2.9485,0,1.3428e+08,7.7249,12109,12992,1,12992,1,0.00067864,1.3935e-09,0,0.00067864,0.00012189,2.4882e+08,469.43,0,2.6437e+08,260.68,12991,12110,1,12110,1,1.4328e-05,-7.2953e-11,0,0.00034445,-2.6251e-06,5.5441e+06,-24.211,0,1.3566e+08,0.74789,12109,11203,1,11203,1,-0.00064997,-1.8681e-09,0,1.0273e-05,-0.00012711,-2.6437e+08,-622,0,4.2076e+06,-166.36,11202,11669,1,11669,1,-0.00033012,-2.2593e-10,0,0.00017222,-6.7176e-05,-1.3427e+08,-73.772,0,6.8236e+07,-45.719,11668,12551,1,12551,1,0.00035878,2.2583e-10,0,0.00051667,6.1925e-05,1.3591e+08,76.931,0,2.0056e+08,39.801,12550,510.38,0,510.38,0,0.0003976,4.8743e-10,0,0.00019893,7.4513e-05,1.5459e+08,163.3,0,7.6537e+07,84.428,510.38,1
1764,2.42,12110,1,12110,1,1.4519e-05,-1.8e-09,0,0.00034587,-2.6582e-06,265.36,-597.53,0,1.3477e+08,-13.288,12109,12992,1,12992,1,0.00068159,4.1802e-09,0,0.00068159,0.00012238,2.4967e+08,1386.9,0,2.6542e+08,209.58,12991,12110,1,12110,1,1.4519e-05,-1.0308e-09,0,0.00034587,-2.6601e-06,5.6161e+06,-343.91,0,1.3618e+08,-20.468,12109,11203,1,11203,1,-0.00065254,-8.9325e-09,0,1.0185e-05,-0.00012766,-2.6542e+08,-2964.2,0,4.1729e+06,-296.24,11202,11669,1,11669,1,-0.00033135,-4.4086e-09,0,0.00017294,-6.7477e-05,-1.3477e+08,-1457.4,0,6.8499e+07,-80.244,11668,12551,1,12551,1,0.00036039,5.6854e-10,0,0.00051881,6.2156e-05,1.3643e+08,187.73,0,2.013e+08,47.997,12550,510.38,0,510.38,0,0.00039923,3.1564e-09,0,0.00019976,7.482e-05,1.5516e+08,1050.1,0,7.6817e+07,94.421,510.38,1
1764,2.43,12110,1,12110,1,1.4699e-05,-2.3148e-09,0,0.00034733,-2.6911e-06,64.698,-770.22,0,1.3529e+08,-10.8,12109,12992,1,12992,1,0.00068457,1.1492e-09,0,0.00068457,0.00012287,2.5054e+08,393.61,0,2.6648e+08,241.24,12991,12110,1,12110,1,1.4698e-05,-1.9545e-09,0,0.00034733,-2.6934e-06,5.6849e+06,-648.38,0,1.3671e+08,-18.583,12109,11203,1,11203,1,-0.00065517,-7.3157e-09,0,1.0109e-05,-0.00012822,-2.6648e+08,-2430.1,0,4.1428e+06,-217.31,11202,11669,1,11669,1,-0.00033263,-4.2036e-09,0,0.00017366,-6.7782e-05,-1.3529e+08,-1394.7,0,6.8772e+07,-67.311,11668,12551,1,12551,1,0.00036203,-2.3967e-10,0,0.00052099,6.2395e-05,1.3697e+08,-78.676,0,2.0207e+08,33.512,12550,510.38,0,510.38,0,0.00040092,2.265e-09,0,0.00020061,7.5134e-05,1.5576e+08,756.58,0,7.7107e+07,83.246,510.38,1
1764,2.44,12110,1,12110,1,1.4892e-05,-1.1815e-09,0,0.00034877,-2.7265e-06,9.286,-393.84,0,1.358e+08,-1.9111,12109,12992,1,12992,1,0.00068754,3.9008e-09,0,0.00068754,0.00012335,2.5139e+08,1298.5,0,2.6753e+08,151.09,12991,12110,1,12110,1,1.4892e-05,-8.2531e-10,0,0.00034877,-2.7289e-06,5.758e+06,-271.26,0,1.3724e+08,-6.5238,12109,11203,1,11203,1,-0.00065775,-5.9868e-09,0,1.0019e-05,-0.00012878,-2.6753e+08,-1985.5,0,4.1075e+06,-150.05,11202,11669,1,11669,1,-0.00033388,-3.0897e-09,0,0.00017438,-6.8088e-05,-1.358e+08,-1028.5,0,6.9038e+07,-47.791,11668,12551,1,12551,1,0.00036366,4.5263e-10,0,0.00052316,6.263e-05,1.375e+08,145.6,0,2.0282e+08,39.893,12550,510.38,0,510.38,0,0.00040258,2.2398e-09,0,0.00020146,7.5446e-05,1.5634e+08,746.38,0,7.7392e+07,64.841,510.38,1
1764,2.45,12110,1,12110,1,1.5083e-05,1.2965e-09,0,0.00035024,-2.7613e-06,79.805,430.14,0,1.3632e+08,10.646,12109,12992,1,12992,1,0.00069056,2.7243e-09,0,0.00069056,0.00012385,2.5226e+08,897.35,0,2.6861e+08,122.47,12991,12110,1,12110,1,1.5083e-05,1.3965e-09,0,0.00035024,-2.764e-06,5.8305e+06,461.46,0,1.3778e+08,7.4919,12109,11203,1,11203,1,-0.00066039,-5.118e-10,0,9.9338e-06,-0.00012934,-2.6861e+08,-175.29,0,4.0737e+06,-92.718,11202,11669,1,11669,1,-0.00033516,6.5094e-10,0,0.00017512,-6.8397e-05,-1.3632e+08,214.28,0,6.9312e+07,-12.277,11668,12551,1,12551,1,0.00036532,1.999e-09,0,0.00052536,6.287e-05,1.3804e+08,666.98,0,2.0359e+08,28.169,12550,510.38,0,510.38,0,0.00040428,8.3357e-10,0,0.00020232,7.5764e-05,1.5694e+08,277.68,0,7.7684e+07,37.819,510.38,1
1764,2.46,12110,1,12110,1,1.5178e-05,3.6205e-09,0,0.00034999,-2.7775e-06,-2919.3,1200,0,1.3618e+08,592.64,12109,12992,1,12992,1,0.0006906,3.7675e-07,0,0.0006906,0.00012381,2.5206e+08,1.2489e+05,0,2.6853e+08,11660,12991,12110,1,12110,1,1.517e-05,-1.2246e-10,0,0.00035006,-2.7783e-06,5.8646e+06,-39.262,0,1.3767e+08,541.99,12109,11203,1,11203,1,-0.0006602,-3.1845e-07,0,9.8226e-06,-0.00012934,-2.6853e+08,-1.0558e+05,0,4.0282e+06,-9180.4,11202,11669,1,11669,1,-0.00033487,-8.3584e-08,0,0.00017503,-6.8389e-05,-1.362e+08,-27428,0,6.9263e+07,-3052.6,11668,12551,1,12551,1,0.00036523,8.0313e-08,0,0.00052506,6.2833e-05,1.3793e+08,26531,0,2.0339e+08,4167.2,12550,510.38,0,510.38,0,0.00040398,1.4256e-07,0,0.00020216,7.5714e-05,1.5676e+08,47391,0,7.7589e+07,4311.6,510.38,1
1764,2.47,12110,1,12110,1,1.5227e-05,-3.7212e-08,0,0.00035081,-2.7854e-06,268.04,-12361,0,1.3649e+08,1051.6,12109,12992,1,12992,1,0.00069277,5.8101e-07,0,0.00069277,0.00012419,2.5283e+08,1.9836e+05,0,2.6937e+08,19986,12991,12110,1,12110,1,1.5224e-05,-2.884e-08,0,0.00035096,-2.7879e-06,5.8847e+06,-9639.4,0,1.3801e+08,691.79,12109,11203,1,11203,1,-0.00066226,-5.224e-07,0,9.8117e-06,-0.00012974,-2.6937e+08,-1.7363e+05,0,4.0238e+06,-19061,11202,11669,1,11669,1,-0.0003357,-1.8795e-07,0,0.00017547,-6.8577e-05,-1.3654e+08,-62381,0,6.9438e+07,-4401.1,11668,12551,1,12551,1,0.00036617,9.1178e-08,0,0.00052639,6.2996e-05,1.3828e+08,29531,0,2.039e+08,6181.3,12550,510.38,0,510.38,0,0.00040492,2.3087e-07,0,0.00020263,7.5893e-05,1.5713e+08,76959,0,7.7766e+07,7087.6,510.38,1
1764,2.48,12110,1,12110,1,1.5454e-05,-2.2266e-10,0,0.00035436,-2.8323e-06,20.545,-77.333,0,1.3785e+08,-1218.8,12109,12992,1,12992,1,0.000699,2.35e-08,0,0.000699,0.00012528,2.5496e+08,7502,0,2.7171e+08,-1.0121,12991,12110,1,12110,1,1.5468e-05,-3.1289e-10,0,0.00035441,-2.8404e-06,5.9776e+06,-104.12,0,1.3934e+08,-1196.7,12109,11203,1,11203,1,-0.00066802,-2.813e-08,0,9.8136e-06,-0.00013092,-2.7171e+08,-8866,0,4.0273e+06,-2913.2,11202,11669,1,11669,1,-0.00033891,-6.6174e-09,0,0.00017717,-6.9245e-05,-1.3785e+08,-2184.2,0,7.01e+07,-1958.1,11668,12551,1,12551,1,0.00036984,6.2075e-09,0,0.00053153,6.3572e-05,1.3961e+08,2033.3,0,2.0586e+08,-378.78,12550,510.38,0,510.38,0,0.00040904,9.9219e-09,0,0.00020471,7.6656e-05,1.5869e+08,3256.1,0,7.8546e+07,864.96,510.38,1
1764,2.49,12110,1,12110,1,1.5829e-05,-1.6964e-10,0,0.00035599,-2.8984e-06,39.64,-56.16,0,1.3836e+08,-180.82,12109,12992,1,12992,1,0.0007024,4.528e-09,0,0.0007024,0.00012579,2.5568e+08,1550.7,0,2.7281e+08,41.405,12991,12110,1,12110,1,1.5831e-05,-2.1153e-10,0,0.000356,-2.9028e-06,6.1151e+06,-69.813,0,1.3988e+08,-172.56,12109,11203,1,11203,1,-0.00067073,-3.9611e-09,0,9.5919e-06,-0.00013155,-2.7281e+08,-1356.6,0,3.9391e+06,-420.31,11202,11669,1,11669,1,-0.00034016,-1.204e-09,0,0.00017799,-6.9612e-05,-1.3836e+08,-394.63,0,7.0382e+07,-302.32,11668,12551,1,12551,1,0.00037182,8.389e-10,0,0.00053398,6.3809e-05,1.4015e+08,277.13,0,2.066e+08,-52.651,12550,510.38,0,510.38,0,0.00041092,1.6688e-09,0,0.00020567,7.7006e-05,1.5927e+08,560.15,0,7.8823e+07,129.41,510.38,1
1764,2.5,12110,1,12110,1,1.6054e-05,5.4981e-11,0,0.00035746,-2.9392e-06,-28.362,18.349,0,1.3887e+08,-23.35,12109,12992,1,12992,1,0.00070546,2.8189e-09,0,0.00070546,0.00012628,2.5651e+08,964.1,0,2.7388e+08,60.333,12991,12110,1,12110,1,1.6054e-05,4.7771e-11,0,0.00035747,-2.9431e-06,6.1994e+06,15.676,0,1.4041e+08,-23.238,12109,11203,1,11203,1,-0.00067335,-1.8236e-09,0,9.4784e-06,-0.00013212,-2.7388e+08,-623.69,0,3.8943e+06,-135.48,11202,11669,1,11669,1,-0.00034141,-5.0221e-10,0,0.00017873,-6.9928e-05,-1.3886e+08,-166.47,0,7.0652e+07,-53.844,11668,12551,1,12551,1,0.00037352,4.7913e-10,0,0.0005362,6.4044e-05,1.4068e+08,156.79,0,2.0735e+08,9.2221,12550,510.38,0,510.38,0,0.00041262,9.4668e-10,0,0.00020654,7.7324e-05,1.5985e+08,317.99,0,7.9107e+07,38.573,510.38,1
1764,2.51,12110,1,12110,1,1.6258e-05,-4.5718e-10,0,0.00035892,-2.9766e-06,93.182,-151.73,0,1.3938e+08,-14.027,12109,12992,1,12992,1,0.00070848,6.3135e-10,0,0.00070848,0.00012677,2.5736e+08,216.18,0,2.7494e+08,51.765,12991,12110,1,12110,1,1.6258e-05,-3.4689e-10,0,0.00035893,-2.9808e-06,6.2769e+06,-113.4,0,1.4094e+08,-14.735,12109,11203,1,11203,1,-0.00067596,-2.0113e-09,0,9.3789e-06,-0.00013269,-2.7494e+08,-665.65,0,3.8551e+06,-84.042,11202,11669,1,11669,1,-0.00034267,-9.3105e-10,0,0.00017946,-7.0238e-05,-1.3938e+08,-310.85,0,7.0922e+07,-31.321,11668,12551,1,12551,1,0.00037518,6.7475e-11,0,0.00053839,6.428e-05,1.4122e+08,21.968,0,2.0811e+08,4.6411,12550,510.38,0,510.38,0,0.0004143,6.365e-10,0,0.00020739,7.764e-05,1.6044e+08,212.1,0,7.9392e+07,27.201,510.38,1
1764,2.52,12110,1,12110,1,1.6461e-05,-7.5892e-10,0,0.00036037,-3.0137e-06,16.876,-252.02,0,1.3988e+08,-0.67977,12109,12992,1,12992,1,0.00071147,6.0541e-10,0,0.00071147,0.00012725,2.5819e+08,207.36,0,2.7599e+08,71.297,12991,12110,1,12110,1,1.6461e-05,-6.047e-10,0,0.00036037,-3.0181e-06,6.3536e+06,-199.91,0,1.4146e+08,-4.5297,12109,11203,1,11203,1,-0.00067855,-2.8826e-09,0,9.2797e-06,-0.00013325,-2.7599e+08,-953.7,0,3.8161e+06,-94.33,11202,11669,1,11669,1,-0.00034391,-1.449e-09,0,0.00018019,-7.0546e-05,-1.3988e+08,-478.63,0,7.1189e+07,-18.616,11668,12551,1,12551,1,0.00037683,5.3718e-11,0,0.00054056,6.4513e-05,1.4174e+08,17.768,0,2.0886e+08,19.701,12550,510.38,0,510.38,0,0.00041597,9.0408e-10,0,0.00020824,7.7952e-05,1.6102e+08,300.64,0,7.9675e+07,30.067,510.38,1
1764,2.53,12110,1,12110,1,1.6663e-05,-7.9633e-10,0,0.00036181,-3.0508e-06,33.377,-264.39,0,1.4038e+08,9.8669,12109,12992,1,12992,1,0.00071445,3.4344e-09,0,0.00071445,0.00012774,2.5903e+08,1135.9,0,2.7704e+08,135.85,12991,12110,1,12110,1,1.6663e-05,-4.1583e-10,0,0.00036181,-3.0554e-06,6.4304e+06,-136,0,1.4198e+08,6.7356,12109,11203,1,11203,1,-0.00068112,-4.9565e-09,0,9.1796e-06,-0.0001338,-2.7704e+08,-1639.4,0,3.7767e+06,-121.51,11202,11669,1,11669,1,-0.00034514,-2.0506e-09,0,0.0001809,-7.0852e-05,-1.4038e+08,-664.94,0,7.1454e+07,-36.104,11668,12551,1,12551,1,0.00037847,3.9052e-10,0,0.00054271,6.4745e-05,1.4227e+08,128.95,0,2.096e+08,52.325,12550,510.38,0,510.38,0,0.00041763,1.8598e-09,0,0.00020908,7.8262e-05,1.6159e+08,617.73,0,7.9955e+07,55.931,510.38,1
1764,2.54,12110,1,12110,1,1.6868e-05,-7.623e-10,0,0.00036327,-3.0883e-06,43.775,-253.16,0,1.409e+08,-9.729,12109,12992,1,12992,1,0.00071747,6.9355e-10,0,0.00071747,0.00012823,2.5987e+08,237.43,0,2.781e+08,56.868,12991,12110,1,12110,1,1.6868e-05,-6.784e-10,0,0.00036327,-3.0933e-06,6.508e+06,-219.84,0,1.4251e+08,-6.4864,12109,11203,1,11203,1,-0.00068373,-2.536e-09,0,9.079e-06,-0.00013437,-2.781e+08,-839.85,0,3.7371e+06,-154.62,11202,11669,1,11669,1,-0.0003464,-1.4292e-09,0,0.00018163,-7.1163e-05,-1.4089e+08,-474.92,0,7.1724e+07,-27.202,11668,12551,1,12551,1,0.00038014,-3.3537e-11,0,0.0005449,6.498e-05,1.428e+08,-10.995,0,2.1035e+08,14.325,12550,510.38,0,510.38,0,0.00041932,8.143e-10,0,0.00020993,7.8578e-05,1.6218e+08,271.79,0,8.0241e+07,36.972,510.38,1
1764,2.55,12110,1,12110,1,1.7076e-05,-1.1533e-09,0,0.00036471,-3.1264e-06,38.431,-382.69,0,1.414e+08,-3.2199,12109,12992,1,12992,1,0.00072047,1.6645e-09,0,0.00072047,0.00012871,2.6071e+08,550.15,0,2.7915e+08,117.55,12991,12110,1,12110,1,1.7076e-05,-8.4102e-10,0,0.00036472,-3.1316e-06,6.5866e+06,-280.42,0,1.4304e+08,-10.355,12109,11203,1,11203,1,-0.00068632,-4.7314e-09,0,8.9749e-06,-0.00013493,-2.7915e+08,-1563.9,0,3.6962e+06,-125.64,11202,11669,1,11669,1,-0.00034764,-2.283e-09,0,0.00018236,-7.1472e-05,-1.414e+08,-757.69,0,7.199e+07,-43.471,11668,12551,1,12551,1,0.00038179,1.306e-10,0,0.00054707,6.5213e-05,1.4333e+08,42.801,0,2.111e+08,34.73,12550,510.38,0,510.38,0,0.00042098,1.543e-09,0,0.00021078,7.889e-05,1.6275e+08,512.79,0,8.0522e+07,54.375,510.38,1
1764,2.56,12110,1,12110,1,1.7285e-05,9.1089e-10,0,0.00036617,-3.1646e-06,-21.43,300.54,0,1.4191e+08,-4.1195,12109,12992,1,12992,1,0.00072348,2.2801e-09,0,0.00072348,0.0001292,2.6154e+08,753.42,0,2.8021e+08,58.386,12991,12110,1,12110,1,1.7285e-05,9.8365e-10,0,0.00036617,-3.1701e-06,6.6658e+06,327.33,0,1.4356e+08,-2.722,12109,11203,1,11203,1,-0.00068891,-3.1005e-10,0,8.8694e-06,-0.00013549,-2.8021e+08,-106.2,0,3.6547e+06,-74.766,11202,11669,1,11669,1,-0.00034888,4.179e-10,0,0.00018309,-7.1782e-05,-1.419e+08,133.13,0,7.2258e+07,-15.733,11668,12551,1,12551,1,0.00038345,1.3239e-09,0,0.00054926,6.5447e-05,1.4385e+08,434.98,0,2.1185e+08,6.623,12550,510.38,0,510.38,0,0.00042267,6.1374e-10,0,0.00021164,7.9205e-05,1.6334e+08,203.27,0,8.0806e+07,19.281,510.38,1
1764,2.57,12110,1,12110,1,1.7495e-05,-1.1465e-09,0,0.0003676,-3.2031e-06,51.17,-379.04,0,1.4241e+08,-0.8998,12109,12992,1,12992,1,0.00072646,2.3715e-09,0,0.00072646,0.00012968,2.6237e+08,787.81,0,2.8125e+08,105.53,12991,12110,1,12110,1,1.7495e-05,-8.4159e-10,0,0.00036761,-3.2089e-06,6.7453e+06,-277.44,0,1.4408e+08,-8.8428,12109,11203,1,11203,1,-0.00069147,-4.9734e-09,0,8.762e-06,-0.00013605,-2.8125e+08,-1643,0,3.6124e+06,-134.54,11202,11669,1,11669,1,-0.00035011,-2.38e-09,0,0.0001838,-7.209e-05,-1.424e+08,-791.8,0,7.2522e+07,-36.631,11668,12551,1,12551,1,0.0003851,1.8968e-10,0,0.00055141,6.5678e-05,1.4438e+08,61.064,0,2.1258e+08,39.442,12550,510.38,0,510.38,0,0.00042432,1.7074e-09,0,0.00021248,7.9515e-05,1.6391e+08,566.08,0,8.1084e+07,51.85,510.38,1
1764,2.58,12110,1,12110,1,1.7706e-05,2.7819e-11,0,0.00036906,-3.2418e-06,9.5815,8.3633,0,1.4291e+08,-7.9532,12109,12992,1,12992,1,0.00072948,1.149e-09,0,0.00072948,0.00013016,2.632e+08,379.3,0,2.823e+08,32.366,12991,12110,1,12110,1,1.7707e-05,2.6375e-11,0,0.00036906,-3.248e-06,6.8253e+06,8.3711,0,1.4461e+08,-7.3606,12109,11203,1,11203,1,-0.00069406,-1.198e-09,0,8.6545e-06,-0.00013661,-2.823e+08,-396.53,0,3.5702e+06,-51.614,11202,11669,1,11669,1,-0.00035136,-2.8154e-10,0,0.00018453,-7.2401e-05,-1.4291e+08,-93.016,0,7.279e+07,-19.235,11668,12551,1,12551,1,0.00038677,3.6771e-10,0,0.0005536,6.5912e-05,1.449e+08,121.82,0,2.1333e+08,5.3374,12550,510.38,0,510.38,0,0.00042601,5.1328e-10,0,0.00021333,7.983e-05,1.6449e+08,170.88,0,8.1368e+07,17.446,510.38,1
1764,2.59,12110,1,12110,1,1.7921e-05,-3.2607e-10,0,0.00037052,-3.2812e-06,12.771,-107.99,0,1.4342e+08,-5.5427,12109,12992,1,12992,1,0.00073249,8.2145e-10,0,0.00073249,0.00013065,2.6402e+08,271.16,0,2.8335e+08,50.545,12991,12110,1,12110,1,1.7921e-05,-2.54e-10,0,0.00037052,-3.2877e-06,6.9065e+06,-84.583,0,1.4513e+08,-8.105,12109,11203,1,11203,1,-0.00069665,-1.4732e-09,0,8.5439e-06,-0.00013718,-2.8335e+08,-486.33,0,3.5268e+06,-60.561,11202,11669,1,11669,1,-0.00035259,-6.9561e-10,0,0.00018526,-7.2712e-05,-1.4341e+08,-230.22,0,7.3057e+07,-18.911,11668,12551,1,12551,1,0.00038844,7.9609e-11,0,0.00055577,6.6144e-05,1.4543e+08,25.53,0,2.1408e+08,8.1066,12550,510.38,0,510.38,0,0.00042768,5.0716e-10,0,0.00021418,8.0144e-05,1.6506e+08,168.35,0,8.1649e+07,19.52,510.38,1
1764,2.6,12110,1,12110,1,1.8138e-05,-1.1584e-09,0,0.00037196,-3.3208e-06,149.11,-383.45,0,1.4392e+08,-5.9154,12109,12992,1,12992,1,0.00073551,8.2991e-10,0,0.00073551,0.00013114,2.6485e+08,273.86,0,2.8441e+08,92.259,12991,12110,1,12110,1,1.8137e-05,-9.9058e-10,0,0.00037197,-3.3276e-06,6.9881e+06,-321.72,0,1.4565e+08,-13.561,12109,11203,1,11203,1,-0.00069924,-4.0947e-09,0,8.4311e-06,-0.00013774,-2.8441e+08,-1351.4,0,3.4825e+06,-111.67,11202,11669,1,11669,1,-0.00035383,-2.1531e-09,0,0.00018598,-7.3023e-05,-1.4391e+08,-710.64,0,7.3323e+07,-37.575,11668,12551,1,12551,1,0.0003901,-6.5013e-12,0,0.00055795,6.6375e-05,1.4595e+08,-2.0786,0,2.1482e+08,24.689,12550,510.38,0,510.38,0,0.00042935,1.2757e-09,0,0.00021503,8.0457e-05,1.6564e+08,423.11,0,8.1929e+07,41.624,510.38,1
1764,2.61,12110,1,12110,1,1.8355e-05,-8.0573e-10,0,0.00037342,-3.3606e-06,3.0402,-267.63,0,1.4442e+08,-6.0827,12109,12992,1,12992,1,0.00073853,5.7818e-10,0,0.00073853,0.00013162,2.6567e+08,178.64,0,2.8546e+08,94.418,12991,12110,1,12110,1,1.8355e-05,-8.2244e-10,0,0.00037342,-3.3677e-06,7.0703e+06,-273.43,0,1.4617e+08,-5.4199,12109,11203,1,11203,1,-0.00070182,-2.3306e-09,0,8.3173e-06,-0.0001383,-2.8546e+08,-768.88,0,3.4378e+06,-120.99,11202,11669,1,11669,1,-0.00035506,-1.4505e-09,0,0.00018671,-7.3335e-05,-1.4442e+08,-478.73,0,7.3589e+07,-22.511,11668,12551,1,12551,1,0.00039177,-1.3621e-10,0,0.00056013,6.6608e-05,1.4648e+08,-45.549,0,2.1556e+08,14.72,12550,510.38,0,510.38,0,0.00043103,7.4933e-10,0,0.00021589,8.0771e-05,1.6622e+08,249.31,0,8.221e+07,34.979,510.38,1
1764,2.62,12110,1,12110,1,1.8575e-05,4.0073e-10,0,0.00037487,-3.4009e-06,-46.272,131.48,0,1.4492e+08,-4.7802,12109,12992,1,12992,1,0.00074154,8.9973e-10,0,0.00074154,0.0001321,2.6649e+08,296.75,0,2.8651e+08,21.032,12991,12110,1,12110,1,1.8575e-05,4.3589e-10,0,0.00037487,-3.4083e-06,7.1534e+06,142.71,0,1.467e+08,-4.2703,12109,11203,1,11203,1,-0.0007044,-6.6057e-11,0,8.2012e-06,-0.00013887,-2.8651e+08,-22.625,0,3.3922e+06,-48.701,11202,11669,1,11669,1,-0.0003563,2.5353e-10,0,0.00018744,-7.3647e-05,-1.4492e+08,80.416,0,7.3855e+07,-10.388,11668,12551,1,12551,1,0.00039345,5.5357e-10,0,0.00056231,6.6839e-05,1.47e+08,181.31,0,2.163e+08,1.708,12550,510.38,0,510.38,0,0.00043271,2.0727e-10,0,0.00021674,8.1085e-05,1.6679e+08,67.862,0,8.2491e+07,10.011,510.38,1
1764,2.63,12110,1,12110,1,1.8797e-05,-8.1782e-10,0,0.00037632,-3.4415e-06,115.53,-270.34,0,1.4542e+08,-2.7404,12109,12992,1,12992,1,0.00074457,1.214e-09,0,0.00074457,0.00013259,2.6731e+08,400.24,0,2.8755e+08,97.705,12991,12110,1,12110,1,1.8797e-05,-6.57e-10,0,0.00037632,-3.4493e-06,7.237e+06,-216.79,0,1.4721e+08,-8.3487,12109,11203,1,11203,1,-0.00070697,-3.3219e-09,0,8.083e-06,-0.00013943,-2.8755e+08,-1095.2,0,3.3458e+06,-100.74,11202,11669,1,11669,1,-0.00035752,-1.663e-09,0,0.00018816,-7.3958e-05,-1.4542e+08,-547.84,0,7.412e+07,-30.739,11668,12551,1,12551,1,0.00039512,1.2404e-10,0,0.00056448,6.7069e-05,1.4753e+08,41.214,0,2.1704e+08,27.32,12550,510.38,0,510.38,0,0.00043438,1.0896e-09,0,0.00021759,8.1397e-05,1.6736e+08,360.42,0,8.2769e+07,38.322,510.38,1
1764,2.64,12110,1,12110,1,1.9019e-05,-6.4997e-10,0,0.00037777,-3.4823e-06,97.488,-215.59,0,1.4592e+08,-14.96,12109,12992,1,12992,1,0.00074759,6.8569e-10,0,0.00074759,0.00013307,2.6812e+08,234.85,0,2.886e+08,58.743,12991,12110,1,12110,1,1.9019e-05,-5.9248e-10,0,0.00037777,-3.4905e-06,7.321e+06,-192.96,0,1.4773e+08,-16.913,12109,11203,1,11203,1,-0.00070955,-2.489e-09,0,7.9641e-06,-0.00014,-2.886e+08,-820.35,0,3.2992e+06,-114.37,11202,11669,1,11669,1,-0.00035875,-1.1769e-09,0,0.00018889,-7.4271e-05,-1.4592e+08,-390.82,0,7.4384e+07,-32.465,11668,12551,1,12551,1,0.00039679,-3.0063e-11,0,0.00056666,6.73e-05,1.4805e+08,-10.294,0,2.1777e+08,5.8574,12550,510.38,0,510.38,0,0.00043606,7.5392e-10,0,0.00021844,8.1711e-05,1.6793e+08,249.91,0,8.3048e+07,31.653,510.38,1
1764,2.65,12110,1,12110,1,1.9244e-05,-8.6788e-10,0,0.00037922,-3.5234e-06,-34.458,-287.31,0,1.4642e+08,-5.073,12109,12992,1,12992,1,0.00075061,4.0901e-10,0,0.00075061,0.00013355,2.6893e+08,129,0,2.8965e+08,75.872,12991,12110,1,12110,1,1.9244e-05,-6.7482e-10,0,0.00037922,-3.532e-06,7.4056e+06,-221.86,0,1.4825e+08,-7.9319,12109,11203,1,11203,1,-0.00071212,-2.9223e-09,0,7.843e-06,-0.00014056,-2.8965e+08,-962.85,0,3.2517e+06,-89.62,11202,11669,1,11669,1,-0.00035998,-1.5308e-09,0,0.00018961,-7.4583e-05,-1.4642e+08,-509.21,0,7.4649e+07,-24.468,11668,12551,1,12551,1,0.00039847,-6.905e-11,0,0.00056883,6.753e-05,1.4857e+08,-22.473,0,2.1851e+08,15.063,12550,510.38,0,510.38,0,0.00043773,8.8045e-10,0,0.00021929,8.2024e-05,1.6851e+08,292.53,0,8.3326e+07,27.073,510.38,1
1764,2.66,12110,1,12110,1,1.947e-05,-1.1343e-09,0,0.00038067,-3.5648e-06,-132.38,-375.12,0,1.4692e+08,4.5185,12109,12992,1,12992,1,0.00075364,2.1514e-09,0,0.00075364,0.00013404,2.6974e+08,708.35,0,2.9069e+08,113.74,12991,12110,1,12110,1,1.947e-05,-9.5559e-10,0,0.00038067,-3.5737e-06,7.4909e+06,-313.61,0,1.4877e+08,6.4623,12109,11203,1,11203,1,-0.00071469,-4.3826e-09,0,7.7201e-06,-0.00014112,-2.9069e+08,-1443.5,0,3.2035e+06,-141.95,11202,11669,1,11669,1,-0.0003612,-2.3648e-09,0,0.00019033,-7.4896e-05,-1.4691e+08,-785.84,0,7.4913e+07,-33.483,11668,12551,1,12551,1,0.00040014,8.7736e-11,0,0.00057101,6.776e-05,1.4909e+08,29.945,0,2.1924e+08,48.223,12550,510.38,0,510.38,0,0.0004394,1.5277e-09,0,0.00022014,8.2337e-05,1.6907e+08,506.27,0,8.3604e+07,56.424,510.38,1
1764,2.67,12110,1,12110,1,1.9699e-05,-3.3267e-10,0,0.00038212,-3.6067e-06,49.995,-111.02,0,1.4741e+08,-4.4938,12109,12992,1,12992,1,0.00075665,2.8344e-09,0,0.00075665,0.00013452,2.7055e+08,933.24,0,2.9173e+08,80.523,12991,12110,1,12110,1,1.9699e-05,-2.1265e-10,0,0.00038212,-3.616e-06,7.5771e+06,-70.68,0,1.4929e+08,-4.0734,12109,11203,1,11203,1,-0.00071725,-2.7732e-09,0,7.5947e-06,-0.00014169,-2.9173e+08,-913.11,0,3.1544e+06,-120.26,11202,11669,1,11669,1,-0.00036242,-1.1237e-09,0,0.00019106,-7.5209e-05,-1.4741e+08,-375.95,0,7.5177e+07,-32.952,11668,12551,1,12551,1,0.00040182,2.8198e-10,0,0.00057318,6.7989e-05,1.4961e+08,90.531,0,2.1998e+08,27.407,12550,510.38,0,510.38,0,0.00044108,1.1647e-09,0,0.000221,8.265e-05,1.6964e+08,386.28,0,8.3881e+07,37.795,510.38,1
1764,2.68,12110,1,12110,1,1.993e-05,1.0244e-10,0,0.00038357,-3.6491e-06,308.11,33.107,0,1.4791e+08,-12.395,12109,12992,1,12992,1,0.00075969,4.4621e-09,0,0.00075969,0.000135,2.7136e+08,1471.2,0,2.9278e+08,162.16,12991,12110,1,12110,1,1.993e-05,1.9929e-10,0,0.00038357,-3.6588e-06,7.6641e+06,63.632,0,1.4981e+08,-27.172,12109,11203,1,11203,1,-0.00071983,-3.3502e-09,0,7.4675e-06,-0.00014226,-2.9278e+08,-1102.8,0,3.1045e+06,-189.49,11202,11669,1,11669,1,-0.00036364,-9.9486e-10,0,0.00019179,-7.5523e-05,-1.4791e+08,-323.52,0,7.5441e+07,-61.223,11668,12551,1,12551,1,0.0004035,9.4062e-10,0,0.00057536,6.8219e-05,1.5013e+08,307.39,0,2.2071e+08,43.452,12550,510.38,0,510.38,0,0.00044275,1.6753e-09,0,0.00022185,8.2964e-05,1.7021e+08,554.67,0,8.4159e+07,70.371,510.38,1
1764,2.69,12110,1,12110,1,2.0162e-05,-2.7207e-09,0,0.00038502,-3.6917e-06,309.52,-897.38,0,1.4841e+08,-30.631,12109,12992,1,12992,1,0.00076274,1.0282e-09,0,0.00076274,0.00013548,2.7216e+08,352.18,0,2.9383e+08,176.63,12991,12110,1,12110,1,2.0162e-05,-2.8577e-09,0,0.00038502,-3.7019e-06,7.7516e+06,-936.23,0,1.5032e+08,-32.05,12109,11203,1,11203,1,-0.00072241,-6.4479e-09,0,7.3386e-06,-0.00014282,-2.9383e+08,-2121.7,0,3.054e+06,-276.55,11202,11669,1,11669,1,-0.00036486,-4.4409e-09,0,0.00019251,-7.5837e-05,-1.484e+08,-1466.1,0,7.5705e+07,-68.558,11668,12551,1,12551,1,0.00040519,-1.0929e-09,0,0.00057754,6.8447e-05,1.5065e+08,-367.39,0,2.2144e+08,16.606,12550,510.38,0,510.38,0,0.00044443,1.9592e-09,0,0.0002227,8.3277e-05,1.7078e+08,649.88,0,8.4435e+07,73.858,510.38,1
1764,2.7,12110,1,12110,1,2.0394e-05,-1.8927e-09,0,0.00038646,-3.7341e-06,38.024,-626.59,0,1.489e+08,5.8969,12109,12992,1,12992,1,0.00076576,3.5512e-09,0,0.00076576,0.00013596,2.7296e+08,1200.3,0,2.9487e+08,207.27,12991,12110,1,12110,1,2.0394e-05,-1.2722e-09,0,0.00038647,-3.7446e-06,7.8389e+06,-409.31,0,1.5084e+08,-1.9688,12109,11203,1,11203,1,-0.00072496,-8.8605e-09,0,7.2085e-06,-0.00014339,-2.9487e+08,-2914.5,0,3.0031e+06,-218.09,11202,11669,1,11669,1,-0.00036607,-3.8838e-09,0,0.00019323,-7.615e-05,-1.4889e+08,-1291.1,0,7.5967e+07,-60.179,11668,12551,1,12551,1,0.00040686,3.7439e-10,0,0.0005797,6.8675e-05,1.5117e+08,122.17,0,2.2217e+08,75.86,12550,510.38,0,510.38,0,0.00044609,3.0063e-09,0,0.00022355,8.3588e-05,1.7134e+08,995.77,0,8.4709e+07,93.775,510.38,1
1764,2.71,12110,1,12110,1,2.063e-05,-1.6752e-10,0,0.00038793,-3.7774e-06,-84.113,-57.694,0,1.494e+08,0.77871,12109,12992,1,12992,1,0.00076879,2.2547e-09,0,0.00076879,0.00013644,2.7376e+08,746.94,0,2.9591e+08,140.64,12991,12110,1,12110,1,2.0631e-05,8.9944e-11,0,0.00038793,-3.7882e-06,7.9278e+06,29.49,0,1.5136e+08,-8.9936,12109,11203,1,11203,1,-0.00072752,-3.1608e-09,0,7.0772e-06,-0.00014395,-2.9591e+08,-1056.2,0,2.9517e+06,-120.77,11202,11669,1,11669,1,-0.0003673,-6.3367e-10,0,0.00019396,-7.6466e-05,-1.4939e+08,-209.72,0,7.6232e+07,-37.684,11668,12551,1,12551,1,0.00040856,3.7774e-10,0,0.00058189,6.8905e-05,1.5169e+08,116.65,0,2.229e+08,35.206,12550,510.38,0,510.38,0,0.00044778,1.0174e-09,0,0.00022441,8.3905e-05,1.7192e+08,338.33,0,8.4989e+07,53.142,510.38,1
1764,2.72,12110,1,12110,1,2.0869e-05,-7.2788e-10,0,0.00038939,-3.8211e-06,49.187,-241.42,0,1.4989e+08,-8.927,12109,12992,1,12992,1,0.00077184,2.0382e-09,0,0.00077184,0.00013693,2.7456e+08,673.36,0,2.9696e+08,133,12991,12110,1,12110,1,2.0869e-05,-6.6647e-10,0,0.00038939,-3.8324e-06,8.0175e+06,-218.21,0,1.5187e+08,-11.537,12109,11203,1,11203,1,-0.0007301,-2.8087e-09,0,6.9432e-06,-0.00014453,-2.9696e+08,-926.55,0,2.8993e+06,-103.41,11202,11669,1,11669,1,-0.00036852,-1.5933e-09,0,0.00019469,-7.6783e-05,-1.4989e+08,-524.79,0,7.6497e+07,-38.827,11668,12551,1,12551,1,0.00041026,3.7754e-11,0,0.00058408,6.9134e-05,1.5221e+08,12.461,0,2.2364e+08,18.05,12550,510.38,0,510.38,0,0.00044947,1.0464e-09,0,0.00022527,8.422e-05,1.7249e+08,347.81,0,8.5265e+07,42.097,510.38,1
1764,2.73,12110,1,12110,1,2.1111e-05,-1.1181e-09,0,0.00039084,-3.8654e-06,-1.0859,-369.18,0,1.5039e+08,-6.0832,12109,12992,1,12992,1,0.00077489,1.7166e-09,0,0.00077489,0.00013741,2.7535e+08,564.05,0,2.98e+08,79.809,12991,12110,1,12110,1,2.111e-05,-8.3875e-10,0,0.00039084,-3.8771e-06,8.1081e+06,-273.53,0,1.5239e+08,-8.6491,12109,11203,1,11203,1,-0.00073267,-4.4501e-09,0,6.806e-06,-0.00014509,-2.98e+08,-1462.3,0,2.8456e+06,-111.03,11202,11669,1,11669,1,-0.00036973,-2.1927e-09,0,0.00019542,-7.7099e-05,-1.5038e+08,-717.78,0,7.6759e+07,-37.092,11668,12551,1,12551,1,0.00041195,6.7892e-11,0,0.00058626,6.9362e-05,1.5273e+08,22.204,0,2.2436e+08,29.829,12550,510.38,0,510.38,0,0.00045114,1.4668e-09,0,0.00022613,8.4533e-05,1.7305e+08,485.8,0,8.554e+07,42.785,510.38,1
1764,2.74,12110,1,12110,1,2.1353e-05,-1.2693e-09,0,0.00039229,-3.9098e-06,213.58,-419.32,0,1.5088e+08,-12.132,12109,12992,1,12992,1,0.00077794,1.5881e-09,0,0.00077794,0.00013789,2.7614e+08,525.53,0,2.9905e+08,119.63,12991,12110,1,12110,1,2.1353e-05,-9.7185e-10,0,0.0003923,-3.922e-06,8.1992e+06,-321.41,0,1.529e+08,-18.863,12109,11203,1,11203,1,-0.00073523,-5.1482e-09,0,6.6673e-06,-0.00014566,-2.9905e+08,-1691.2,0,2.7913e+06,-153.05,11202,11669,1,11669,1,-0.00037094,-2.4355e-09,0,0.00019615,-7.7416e-05,-1.5088e+08,-794.41,0,7.7022e+07,-53.915,11668,12551,1,12551,1,0.00041365,1.4881e-10,0,0.00058844,6.959e-05,1.5325e+08,48.461,0,2.2509e+08,30.754,12550,510.38,0,510.38,0,0.00045282,1.6323e-09,0,0.00022698,8.4848e-05,1.7361e+08,540.3,0,8.5816e+07,56.053,510.38,1
1764,2.75,12110,1,12110,1,2.1597e-05,3.6928e-10,0,0.00039376,-3.9545e-06,67.545,119.9,0,1.5138e+08,-14.271,12109,12992,1,12992,1,0.00078099,1.1388e-09,0,0.00078099,0.00013837,2.7693e+08,373.81,0,3.0009e+08,25.406,12991,12110,1,12110,1,2.1598e-05,3.5536e-10,0,0.00039376,-3.9672e-06,8.2911e+06,114.82,0,1.5342e+08,-12.832,12109,11203,1,11203,1,-0.00073779,-1.1825e-10,0,6.5271e-06,-0.00014623,-3.0009e+08,-40.501,0,2.7365e+06,-78.243,11202,11669,1,11669,1,-0.00037216,1.2083e-10,0,0.00019688,-7.7733e-05,-1.5137e+08,41.175,0,7.7286e+07,-27.131,11668,12551,1,12551,1,0.00041535,5.4692e-10,0,0.00059064,6.9818e-05,1.5377e+08,173.2,0,2.2582e+08,0.64327,12550,510.38,0,510.38,0,0.00045451,2.8467e-10,0,0.00022785,8.5164e-05,1.7418e+08,93.111,0,8.6092e+07,19.449,510.38,1
1764,2.76,12110,1,12110,1,2.1843e-05,-1.072e-09,0,0.0003952,-3.9995e-06,-153.65,-352.73,0,1.5186e+08,6.6877,12109,12992,1,12992,1,0.00078404,1.3695e-09,0,0.00078404,0.00013885,2.7772e+08,449.52,0,3.0113e+08,122.64,12991,12110,1,12110,1,2.1843e-05,-7.3923e-10,0,0.00039521,-4.0126e-06,8.3831e+06,-238.58,0,1.5393e+08,2.5486,12109,11203,1,11203,1,-0.00074035,-4.5486e-09,0,6.3855e-06,-0.0001468,-3.0113e+08,-1493.2,0,2.6812e+06,-102.9,11202,11669,1,11669,1,-0.00037336,-2.0853e-09,0,0.0001976,-7.805e-05,-1.5186e+08,-691.23,0,7.7547e+07,-24.979,11668,12551,1,12551,1,0.00041705,1.3048e-10,0,0.00059281,7.0044e-05,1.5428e+08,42.212,0,2.2654e+08,31.329,12550,510.38,0,510.38,0,0.00045618,1.4651e-09,0,0.0002287,8.5476e-05,1.7474e+08,483.08,0,8.6365e+07,43.965,510.38,1
1764,2.77,12110,1,12110,1,2.2091e-05,-1.4996e-09,0,0.00039666,-4.0448e-06,-28.826,-494.75,0,1.5236e+08,3.7905,12109,12992,1,12992,1,0.00078709,9.5721e-10,0,0.00078709,0.00013933,2.785e+08,317.09,0,3.0217e+08,135.58,12991,12110,1,12110,1,2.209e-05,-1.379e-09,0,0.00039666,-4.0584e-06,8.4758e+06,-450.15,0,1.5444e+08,2.3745,12109,11203,1,11203,1,-0.00074291,-4.7645e-09,0,6.2414e-06,-0.00014737,-3.0217e+08,-1563.5,0,2.6249e+06,-167.91,11202,11669,1,11669,1,-0.00037457,-2.7069e-09,0,0.00019833,-7.8367e-05,-1.5235e+08,-886.09,0,7.7809e+07,-24.326,11668,12551,1,12551,1,0.00041875,-1.217e-10,0,0.00059499,7.0271e-05,1.548e+08,-37.496,0,2.2727e+08,40.119,12550,510.38,0,510.38,0,0.00045786,1.5084e-09,0,0.00022956,8.579e-05,1.753e+08,499.45,0,8.6638e+07,54.758,510.38,1
1764,2.78,12110,1,12110,1,2.2341e-05,-1.8209e-10,0,0.00039812,-4.0908e-06,114.21,-61.794,0,1.5285e+08,-28.808,12109,12992,1,12992,1,0.00079016,8.2735e-10,0,0.00079016,0.00013981,2.7928e+08,283.26,0,3.0321e+08,77.927,12991,12110,1,12110,1,2.2341e-05,-2.0756e-10,0,0.00039812,-4.1048e-06,8.5699e+06,-67.808,0,1.5496e+08,-26.159,12109,11203,1,11203,1,-0.00074547,-8.9328e-10,0,6.0951e-06,-0.00014794,-3.0321e+08,-301.48,0,2.5677e+06,-161.83,11202,11669,1,11669,1,-0.00037578,-5.8243e-10,0,0.00019906,-7.8686e-05,-1.5284e+08,-193.53,0,7.8072e+07,-40.976,11668,12551,1,12551,1,0.00042046,1.9742e-10,0,0.00059718,7.0498e-05,1.5532e+08,61.987,0,2.2799e+08,-11.567,12550,510.38,0,510.38,0,0.00045955,4.318e-10,0,0.00023042,8.6106e-05,1.7587e+08,142.49,0,8.6914e+07,38.738,510.38,1
1764,2.79,12110,1,12110,1,2.2593e-05,-6.8076e-10,0,0.00039957,-4.1369e-06,-42.154,-224.52,0,1.5334e+08,7.1922,12109,12992,1,12992,1,0.00079321,3.0196e-09,0,0.00079321,0.00014029,2.8006e+08,990.15,0,3.0425e+08,141.33,12991,12110,1,12110,1,2.2593e-05,-3.2843e-10,0,0.00039957,-4.1514e-06,8.6642e+06,-109.28,0,1.5547e+08,7.7814,12109,11203,1,11203,1,-0.00074802,-4.45e-09,0,5.9472e-06,-0.00014851,-3.0425e+08,-1459.3,0,2.51e+06,-154.2,11202,11669,1,11669,1,-0.00037698,-1.7102e-09,0,0.00019979,-7.9004e-05,-1.5333e+08,-562.29,0,7.8333e+07,-33.129,11668,12551,1,12551,1,0.00042217,3.6024e-10,0,0.00059936,7.0723e-05,1.5583e+08,117.28,0,2.2871e+08,50.391,12550,510.38,0,510.38,0,0.00046122,1.6175e-09,0,0.00023127,8.6419e-05,1.7643e+08,533.08,0,8.7185e+07,63.035,510.38,1
1764,2.8,12110,1,12110,1,2.2847e-05,3.5071e-10,0,0.00040104,-4.1834e-06,-33.893,114.14,0,1.5383e+08,-1.2628,12109,12992,1,12992,1,0.00079628,1.1224e-09,0,0.00079628,0.00014077,2.8084e+08,364.91,0,3.0529e+08,53.079,12991,12110,1,12110,1,2.2847e-05,2.769e-10,0,0.00040104,-4.1985e-06,8.7596e+06,86.872,0,1.5599e+08,0.20409,12109,11203,1,11203,1,-0.00075059,-1.6531e-10,0,5.7975e-06,-0.00014909,-3.0529e+08,-56.62,0,2.4515e+06,-58.656,11202,11669,1,11669,1,-0.00037819,5.8664e-11,0,0.00020052,-7.9324e-05,-1.5382e+08,19.674,0,7.8597e+07,-16.807,11668,12551,1,12551,1,0.00042389,6.1745e-10,0,0.00060156,7.0951e-05,1.5635e+08,203.72,0,2.2944e+08,14.442,12550,510.38,0,510.38,0,0.00046292,3.3921e-10,0,0.00023214,8.6736e-05,1.7699e+08,112.02,0,8.7461e+07,22.221,510.38,1
1764,2.81,12110,1,12110,1,2.3103e-05,-1.155e-09,0,0.00040248,-4.2303e-06,-111.84,-379.34,0,1.5431e+08,21.088,12109,12992,1,12992,1,0.00079934,2.0057e-09,0,0.00079934,0.00014125,2.8161e+08,661.93,0,3.0633e+08,154.35,12991,12110,1,12110,1,2.3103e-05,-6.3682e-10,0,0.00040249,-4.2458e-06,8.8552e+06,-211.98,0,1.5649e+08,10.154,12109,11203,1,11203,1,-0.00075313,-5.5361e-09,0,5.6453e-06,-0.00014966,-3.0633e+08,-1814.1,0,2.3921e+06,-89.549,11202,11669,1,11669,1,-0.00037938,-2.3954e-09,0,0.00020124,-7.9642e-05,-1.5431e+08,-775.92,0,7.8855e+07,-28.45,11668,12551,1,12551,1,0.00042559,2.3632e-10,0,0.00060373,7.1175e-05,1.5686e+08,75.141,0,2.3015e+08,73.37,12550,510.38,0,510.38,0,0.00046458,1.833e-09,0,0.00023299,8.7048e-05,1.7755e+08,603.69,0,8.773e+07,59.077,510.38,1
1764,2.82,12110,1,12110,1,2.3361e-05,-6.9983e-10,0,0.00040394,-4.2775e-06,174.04,-231.4,0,1.548e+08,-13.222,12109,12992,1,12992,1,0.00080241,1.9221e-09,0,0.00080241,0.00014173,2.8239e+08,657.87,0,3.0737e+08,96.704,12991,12110,1,12110,1,2.3361e-05,-4.2833e-10,0,0.00040395,-4.2936e-06,8.9516e+06,-138.04,0,1.57e+08,-13.766,12109,11203,1,11203,1,-0.00075569,-3.7418e-09,0,5.4922e-06,-0.00015023,-3.0737e+08,-1226.5,0,2.3324e+06,-154.89,11202,11669,1,11669,1,-0.00038058,-1.5896e-09,0,0.00020197,-7.9962e-05,-1.548e+08,-522.36,0,7.9117e+07,-47.943,11668,12551,1,12551,1,0.00042731,2.2157e-10,0,0.00060592,7.1401e-05,1.5738e+08,70.767,0,2.3087e+08,29.748,12550,510.38,0,510.38,0,0.00046627,1.2642e-09,0,0.00023386,8.7363e-05,1.7811e+08,418.6,0,8.8004e+07,51.805,510.38,1
1764,2.83,12110,1,12110,1,2.3621e-05,-8.9705e-10,0,0.00040539,-4.3252e-06,275.36,-295.8,0,1.5529e+08,-9.9217,12109,12992,1,12992,1,0.00080547,5.2506e-09,0,0.00080547,0.0001422,2.8315e+08,1755.7,0,3.084e+08,175.95,12991,12110,1,12110,1,2.3621e-05,-5.4186e-10,0,0.0004054,-4.3428e-06,9.0489e+06,-179.67,0,1.5751e+08,-19.717,12109,11203,1,11203,1,-0.00075823,-6.2139e-09,0,5.3351e-06,-0.0001508,-3.084e+08,-2040.6,0,2.2712e+06,-956.17,11202,11669,1,11669,1,-0.00038177,-2.68e-09,0,0.0002027,-8.0281e-05,-1.5528e+08,-877.61,0,7.9376e+07,-70.193,11668,12551,1,12551,1,0.00042902,6.235e-10,0,0.00060809,7.1624e-05,1.5789e+08,196.84,0,2.3158e+08,73.594,12550,510.38,0,510.38,0,0.00046794,2.4598e-09,0,0.00023471,8.7676e-05,1.7866e+08,810.4,0,8.8273e+07,110.34,510.38,1
1764,2.84,12110,1,12110,1,2.3883e-05,-1.1053e-09,0,0.00040686,-4.3731e-06,28.027,-364.3,0,1.5578e+08,-10.235,12109,12992,1,12992,1,0.00080857,7.7072e-10,0,0.00080857,0.00014269,2.8393e+08,263.98,0,3.0945e+08,94.599,12991,12110,1,12110,1,2.3883e-05,-9.7959e-10,0,0.00040687,-4.3909e-06,9.1467e+06,-317.82,0,1.5803e+08,-8.8254,12109,11203,1,11203,1,-0.0007608,-3.7622e-09,0,5.1781e-06,-0.00015138,-3.0945e+08,-1239.8,0,2.21e+06,-617.46,11202,11669,1,11669,1,-0.00038298,-2.003e-09,0,0.00020343,-8.0604e-05,-1.5577e+08,-657.3,0,7.9639e+07,-34.25,11668,12551,1,12551,1,0.00043075,-8.5521e-11,0,0.0006103,7.1851e-05,1.584e+08,-26.537,0,2.3231e+08,21.35,12550,510.38,0,510.38,0,0.00046964,1.1591e-09,0,0.00023558,8.7994e-05,1.7922e+08,384.26,0,8.8548e+07,48.74,510.38,1
1764,2.85,12110,1,12110,1,2.4148e-05,-2.3453e-09,0,0.00040832,-4.4217e-06,99.428,-771.08,0,1.5626e+08,-16.35,12109,12992,1,12992,1,0.00081165,1.2501e-09,0,0.00081165,0.00014316,2.8469e+08,428.18,0,3.1048e+08,141.96,12991,12110,1,12110,1,2.4147e-05,-2.1358e-09,0,0.00040832,-4.44e-06,9.2456e+06,-696.26,0,1.5853e+08,-13.961,12109,11203,1,11203,1,-0.00076335,-7.3414e-09,0,5.0169e-06,-0.00015196,-3.1048e+08,-2402.3,0,2.1472e+06,-666.99,11202,11669,1,11669,1,-0.00038417,-3.783e-09,0,0.00020416,-8.0925e-05,-1.5626e+08,-1245,0,7.9898e+07,-54.045,11668,12551,1,12551,1,0.00043247,-5.7678e-10,0,0.00061248,7.2075e-05,1.5891e+08,-186.35,0,2.3302e+08,38.801,12550,510.38,0,510.38,0,0.00047132,2.0886e-09,0,0.00023644,8.8308e-05,1.7978e+08,689.54,0,8.8817e+07,90.688,510.38,1
1764,2.86,12110,1,12110,1,2.4414e-05,-1.3759e-09,0,0.00040977,-4.4704e-06,104.38,-454.22,0,1.5675e+08,-9.56,12109,12992,1,12992,1,0.00081471,3.1104e-09,0,0.00081471,0.00014364,2.8545e+08,1017.3,0,3.1151e+08,162.56,12991,12110,1,12110,1,2.4413e-05,-9.1976e-10,0,0.00040978,-4.4891e-06,9.345e+06,-303.73,0,1.5904e+08,-10.7,12109,11203,1,11203,1,-0.00076588,-6.3966e-09,0,4.8545e-06,-0.00015253,-3.1151e+08,-2092.3,0,2.0839e+06,-542.79,11202,11669,1,11669,1,-0.00038536,-2.9776e-09,0,0.00020489,-8.1245e-05,-1.5674e+08,-986.02,0,8.0157e+07,-56.103,11668,12551,1,12551,1,0.00043419,2.4388e-10,0,0.00061466,7.2298e-05,1.5942e+08,77.474,0,2.3373e+08,59.335,12550,510.38,0,510.38,0,0.00047299,2.1668e-09,0,0.0002373,8.8621e-05,1.8033e+08,714.87,0,8.9087e+07,96.217,510.38,1
1764,2.87,12110,1,12110,1,2.4681e-05,-1.9666e-09,0,0.00041124,-4.5193e-06,-32.798,-647.22,0,1.5723e+08,-25.995,12109,12992,1,12992,1,0.00081781,8.8778e-10,0,0.00081781,0.00014412,2.8621e+08,304.08,0,3.1255e+08,120.47,12991,12110,1,12110,1,2.4681e-05,-1.9961e-09,0,0.00041124,-4.5386e-06,9.4448e+06,-645.32,0,1.5955e+08,-6.7522,12109,11203,1,11203,1,-0.00076844,-5.155e-09,0,4.692e-06,-0.00015311,-3.1255e+08,-1686,0,2.0205e+06,-458.89,11202,11669,1,11669,1,-0.00038656,-3.3017e-09,0,0.00020562,-8.1568e-05,-1.5723e+08,-1100.7,0,8.0418e+07,-54.07,11668,12551,1,12551,1,0.00043592,-5.9617e-10,0,0.00061686,7.2522e-05,1.5994e+08,-192.69,0,2.3445e+08,23.108,12550,510.38,0,510.38,0,0.00047469,1.5645e-09,0,0.00023817,8.8938e-05,1.8089e+08,518.98,0,8.9359e+07,82.501,510.38,1
1764,2.88,12110,1,12110,1,2.4952e-05,-3.7112e-10,0,0.00041269,-4.569e-06,-33.79,-124.19,0,1.5771e+08,-7.4043,12109,12992,1,12992,1,0.00082087,1.6184e-09,0,0.00082087,0.00014459,2.8696e+08,528.98,0,3.1358e+08,76.592,12991,12110,1,12110,1,2.4952e-05,-1.756e-10,0,0.00041269,-4.5885e-06,9.546e+06,-57.886,0,1.6006e+08,-2.4429,12109,11203,1,11203,1,-0.00077096,-2.5011e-09,0,4.5246e-06,-0.00015368,-3.1358e+08,-818.86,0,1.9553e+06,-243.72,11202,11669,1,11669,1,-0.00038774,-1.0084e-09,0,0.00020635,-8.189e-05,-1.5771e+08,-334.02,0,8.0677e+07,-30.664,11668,12551,1,12551,1,0.00043765,2.6964e-10,0,0.00061904,7.2745e-05,1.6045e+08,85.915,0,2.3516e+08,21.903,12550,510.38,0,510.38,0,0.00047637,9.1866e-10,0,0.00023903,8.9252e-05,1.8144e+08,303.28,0,8.9627e+07,46.146,510.38,1
1764,2.89,12110,1,12110,1,2.5224e-05,-1.0873e-09,0,0.00041414,-4.6187e-06,23.03,-357.2,0,1.582e+08,3.0493,12109,12992,1,12992,1,0.00082395,2.0316e-09,0,0.00082395,0.00014507,2.8771e+08,663.57,0,3.1461e+08,121.14,12991,12110,1,12110,1,2.5223e-05,-7.9774e-10,0,0.00041415,-4.6386e-06,9.6472e+06,-257.86,0,1.6056e+08,-1.9388,12109,11203,1,11203,1,-0.0007735,-4.5208e-09,0,4.3575e-06,-0.00015425,-3.1461e+08,-1477.1,0,1.8902e+06,-101.76,11202,11669,1,11669,1,-0.00038892,-2.1907e-09,0,0.00020707,-8.2211e-05,-1.5819e+08,-713.15,0,8.0935e+07,-32.799,11668,12551,1,12551,1,0.00043937,5.9998e-11,0,0.00062122,7.2967e-05,1.6095e+08,19.593,0,2.3587e+08,41.81,12550,510.38,0,510.38,0,0.00047804,1.4954e-09,0,0.00023989,8.9566e-05,1.8199e+08,492.41,0,8.9895e+07,49.552,510.38,1
1764,2.9,12110,1,12110,1,2.5498e-05,8.4629e-10,0,0.00041561,-4.6689e-06,-22.168,275.62,0,1.5868e+08,-6.8035,12109,12992,1,12992,1,0.00082704,2.516e-09,0,0.00082704,0.00014555,2.8847e+08,840.22,0,3.1565e+08,51.211,12991,12110,1,12110,1,2.5498e-05,8.2597e-10,0,0.00041561,-4.6893e-06,9.7496e+06,266.71,0,1.6107e+08,-8.0556,12109,11203,1,11203,1,-0.00077604,-3.2428e-10,0,4.1875e-06,-0.00015483,-3.1565e+08,-111.07,0,1.8241e+06,-87.07,11202,11669,1,11669,1,-0.00039011,3.2146e-10,0,0.00020781,-8.2535e-05,-1.5867e+08,102.78,0,8.1195e+07,-18.699,11668,12551,1,12551,1,0.00044111,1.3097e-09,0,0.00062342,7.3191e-05,1.6147e+08,428.74,0,2.3658e+08,4.4894,12550,510.38,0,510.38,0,0.00047973,6.8448e-10,0,0.00024076,8.9882e-05,1.8255e+08,224.46,0,9.0166e+07,20.928,510.38,1
1764,2.91,12110,1,12110,1,2.5775e-05,-8.82e-10,0,0.00041706,-4.7196e-06,5.3924,-288.05,0,1.5916e+08,1.144,12109,12992,1,12992,1,0.00083013,2.8878e-09,0,0.00083013,0.00014602,2.8921e+08,966.38,0,3.1668e+08,156.31,12991,12110,1,12110,1,2.5774e-05,-3.5772e-10,0,0.00041706,-4.7404e-06,9.8525e+06,-116.97,0,1.6157e+08,-9.1437,12109,11203,1,11203,1,-0.00077858,-5.3353e-09,0,4.0153e-06,-0.00015541,-3.1668e+08,-1785.2,0,1.7571e+06,-282.79,11202,11669,1,11669,1,-0.00039129,-2.01e-09,0,0.00020853,-8.2858e-05,-1.5915e+08,-655.65,0,8.1453e+07,-48,11668,12551,1,12551,1,0.00044284,3.4943e-10,0,0.0006256,7.3412e-05,1.6197e+08,115.14,0,2.3728e+08,52.121,12550,510.38,0,510.38,0,0.00048141,1.8104e-09,0,0.00024162,9.0196e-05,1.831e+08,594.01,0,9.0432e+07,66.571,510.38,1
1764,2.92,12110,1,12110,1,2.6053e-05,-7.3204e-10,0,0.00041853,-4.7706e-06,43.894,-240.91,0,1.5964e+08,-11.284,12109,12992,1,12992,1,0.00083323,2.2235e-09,0,0.00083323,0.0001465,2.8996e+08,743.98,0,3.1771e+08,97.786,12991,12110,1,12110,1,2.6053e-05,-4.8198e-10,0,0.00041853,-4.7918e-06,9.9562e+06,-155.51,0,1.6208e+08,-5.6912,12109,11203,1,11203,1,-0.00078112,-3.832e-09,0,3.841e-06,-0.00015598,-3.1771e+08,-1281.9,0,1.6894e+06,-367.18,11202,11669,1,11669,1,-0.00039248,-1.5911e-09,0,0.00020926,-8.3183e-05,-1.5963e+08,-523.04,0,8.1712e+07,-36.963,11668,12551,1,12551,1,0.00044458,1.4458e-10,0,0.00062779,7.3635e-05,1.6248e+08,45.667,0,2.3799e+08,25.591,12550,510.38,0,510.38,0,0.0004831,1.193e-09,0,0.00024249,9.0512e-05,1.8365e+08,393.4,0,9.0702e+07,56.252,510.38,1
1764,2.93,12110,1,12110,1,2.6334e-05,-4.9009e-10,0,0.00041999,-4.8221e-06,-26.514,-161.8,0,1.6012e+08,-6.966,12109,12992,1,12992,1,0.00083633,3.2384e-09,0,0.00083633,0.00014697,2.9071e+08,1083.3,0,3.1874e+08,123.95,12991,12110,1,12110,1,2.6334e-05,-1.9117e-10,0,0.00041999,-4.8437e-06,1.0061e+07,-62.481,0,1.6258e+08,-3.6952,12109,11203,1,11203,1,-0.00078366,-4.153e-09,0,3.6643e-06,-0.00015656,-3.1874e+08,-1389.1,0,1.6207e+06,-509.42,11202,11669,1,11669,1,-0.00039366,-1.4063e-09,0,0.00021,-8.3508e-05,-1.6011e+08,-461.14,0,8.197e+07,-38.744,11668,12551,1,12551,1,0.00044633,3.9972e-10,0,0.00062999,7.3857e-05,1.6299e+08,128.94,0,2.387e+08,34.013,12550,510.38,0,510.38,0,0.00048479,1.3674e-09,0,0.00024336,9.0828e-05,1.842e+08,449.88,0,9.097e+07,75.393,510.38,1
1764,2.94,12110,1,12110,1,2.6617e-05,1.1558e-09,0,0.00042144,-4.8739e-06,-50.335,376.66,0,1.606e+08,-3.4251,12109,12992,1,12992,1,0.00083942,6.8214e-09,0,0.00083942,0.00014745,2.9144e+08,2281.5,0,3.1977e+08,142.59,12991,12110,1,12110,1,2.6617e-05,5.9385e-10,0,0.00042145,-4.8959e-06,1.0166e+07,188.71,0,1.6309e+08,0.84882,12109,11203,1,11203,1,-0.00078618,-2.3937e-09,0,3.4852e-06,-0.00015714,-3.1977e+08,-800.47,0,1.5511e+06,-667.76,11202,11669,1,11669,1,-0.00039483,-7.1287e-11,0,0.00021072,-8.3832e-05,-1.6059e+08,-21.938,0,8.2227e+07,-37.103,11668,12551,1,12551,1,0.00044806,2.167e-09,0,0.00063217,7.4077e-05,1.635e+08,707.57,0,2.394e+08,35.76,12550,510.38,0,510.38,0,0.00048647,1.7024e-09,0,0.00024422,9.1142e-05,1.8474e+08,559.66,0,9.1235e+07,69.661,510.38,1
1764,2.95,12110,1,12110,1,2.6902e-05,6.9903e-10,0,0.00042292,-4.926e-06,-62.892,229.58,0,1.6108e+08,-4.9696,12109,12992,1,12992,1,0.00084253,1.7371e-09,0,0.00084253,0.00014793,2.9219e+08,580.87,0,3.2081e+08,36.509,12991,12110,1,12110,1,2.6902e-05,6.813e-10,0,0.00042292,-4.9477e-06,1.0272e+07,221.15,0,1.6359e+08,-5.7789,12109,11203,1,11203,1,-0.00078873,-1.5529e-10,0,3.3054e-06,-0.00015772,-3.2081e+08,-52.908,0,1.4811e+06,-54.211,11202,11669,1,11669,1,-0.00039601,3.1396e-10,0,0.00021146,-8.4158e-05,-1.6107e+08,99.335,0,8.2486e+07,-15.174,11668,12551,1,12551,1,0.00044982,1.0849e-09,0,0.00063437,7.43e-05,1.6401e+08,355.2,0,2.4011e+08,4.3389,12550,510.38,0,510.38,0,0.00048817,4.8364e-10,0,0.0002451,9.1459e-05,1.853e+08,161.63,0,9.1505e+07,14.036,510.38,1
1764,2.96,12110,1,12110,1,2.719e-05,5.4072e-10,0,0.00042437,-4.9788e-06,66.344,177.66,0,1.6156e+08,1.4652,12109,12992,1,12992,1,0.00084562,4.4237e-09,0,0.00084562,0.0001484,2.9292e+08,1445.9,0,3.2183e+08,121.59,12991,12110,1,12110,1,2.719e-05,2.2475e-10,0,0.00042437,-5.0007e-06,1.0379e+07,75.045,0,1.6409e+08,-3.7921,12109,11203,1,11203,1,-0.00079124,-1.5801e-09,0,3.1211e-06,-0.0001583,-3.2183e+08,-514.99,0,1.4095e+06,-139.84,11202,11669,1,11669,1,-0.00039718,-2.5812e-10,0,0.00021218,-8.4483e-05,-1.6155e+08,-82.566,0,8.2742e+07,-32.122,11668,12551,1,12551,1,0.00045156,1.2068e-09,0,0.00063655,7.4518e-05,1.6451e+08,392.65,0,2.4081e+08,34.916,12550,510.38,0,510.38,0,0.00048984,1.2313e-09,0,0.00024596,9.1773e-05,1.8584e+08,404.19,0,9.1769e+07,43.708,510.38,1
1764,2.97,12110,1,12110,1,2.7478e-05,-1.0396e-09,0,0.00042583,-5.0315e-06,-43.358,-338.59,0,1.6203e+08,4.1223,12109,12992,1,12992,1,0.00084873,2.2289e-09,0,0.00084873,0.00014887,2.9365e+08,733.98,0,3.2286e+08,98.799,12991,12110,1,12110,1,2.7478e-05,-5.9351e-10,0,0.00042583,-5.0537e-06,1.0486e+07,-193.08,0,1.6459e+08,0.69063,12109,11203,1,11203,1,-0.00079377,-5.0021e-09,0,2.9374e-06,-0.00015888,-3.2286e+08,-1629.5,0,1.3382e+06,-130.95,11202,11669,1,11669,1,-0.00039835,-2.1966e-09,0,0.00021291,-8.4809e-05,-1.6202e+08,-709.32,0,8.2999e+07,-34.981,11668,12551,1,12551,1,0.00045331,1.5133e-10,0,0.00063874,7.4739e-05,1.6501e+08,49.399,0,2.4151e+08,47.568,12550,510.38,0,510.38,0,0.00049153,1.6826e-09,0,0.00024683,9.2088e-05,1.8639e+08,551.87,0,9.2034e+07,49.964,510.38,1
1764,2.98,12110,1,12110,1,2.777e-05,1.6083e-09,0,0.0004273,-5.0849e-06,-94.221,523.68,0,1.6251e+08,4.5777,12109,12992,1,12992,1,0.00085186,4.3927e-09,0,0.00085186,0.00014935,2.9439e+08,1436.1,0,3.2389e+08,201.9,12991,12110,1,12110,1,2.777e-05,1.7276e-09,0,0.0004273,-5.1074e-06,1.0595e+07,561.97,0,1.651e+08,-7.1182,12109,11203,1,11203,1,-0.00079632,-5.9378e-10,0,2.7503e-06,-0.00015946,-3.2389e+08,-185.45,0,1.2655e+06,-108.18,11202,11669,1,11669,1,-0.00039953,7.5529e-10,0,0.00021365,-8.5137e-05,-1.625e+08,247.72,0,8.3257e+07,-26.438,11668,12551,1,12551,1,0.00045507,2.3183e-09,0,0.00064095,7.496e-05,1.6552e+08,754.41,0,2.4221e+08,21.704,12550,510.38,0,510.38,0,0.00049323,1.1141e-09,0,0.0002477,9.2405e-05,1.8694e+08,365.38,0,9.2302e+07,56.727,510.38,1
1764,2.99,12110,1,12110,1,2.8065e-05,-4.8047e-10,0,0.00042875,-5.1388e-06,-15.303,-154.74,0,1.6298e+08,19.168,12109,12992,1,12992,1,0.00085496,3.5792e-09,0,0.00085496,0.00014982,2.9511e+08,1188.3,0,3.2491e+08,172.87,12991,12110,1,12110,1,2.8065e-05,-6.6444e-11,0,0.00042875,-5.1615e-06,1.0704e+07,-22.755,0,1.656e+08,12.157,12109,11203,1,11203,1,-0.00079883,-4.9753e-09,0,2.5599e-06,-0.00016004,-3.2491e+08,-1619.6,0,1.1916e+06,-117.69,11202,11669,1,11669,1,-0.00040069,-1.7358e-09,0,0.00021438,-8.5463e-05,-1.6297e+08,-563.79,0,8.3512e+07,-22.356,11668,12551,1,12551,1,0.00045682,7.7823e-10,0,0.00064313,7.5178e-05,1.6602e+08,254.18,0,2.4291e+08,56.85,12550,510.38,0,510.38,0,0.0004949,1.9735e-09,0,0.00024857,9.2719e-05,1.8747e+08,645.98,0,9.2565e+07,61.187,510.38,1
1764,3,12110,1,12110,1,2.8359e-05,-1.2824e-09,0,0.00043022,-5.1928e-06,-36.009,-419.08,0,1.6346e+08,3.6818,12109,12992,1,12992,1,0.00085808,1.0834e-09,0,0.00085808,0.0001503,2.9584e+08,370.92,0,3.2594e+08,102.79,12991,12110,1,12110,1,2.8359e-05,-1.0461e-09,0,0.00043022,-5.2159e-06,1.0813e+07,-338.3,0,1.661e+08,0.76886,12109,11203,1,11203,1,-0.00080136,-4.5487e-09,0,2.3697e-06,-0.00016062,-3.2594e+08,-1488,0,1.1178e+06,-103.99,11202,11669,1,11669,1,-0.00040186,-2.3558e-09,0,0.00021511,-8.5791e-05,-1.6345e+08,-771.9,0,8.3768e+07,-29.985,11668,12551,1,12551,1,0.00045858,2.6012e-12,0,0.00064533,7.5398e-05,1.6653e+08,0.78964,0,2.436e+08,36.988,12550,510.38,0,510.38,0,0.00049659,1.4462e-09,0,0.00024944,9.3035e-05,1.8802e+08,475.97,0,9.283e+07,46.88,510.38,1
1764,3.01,12110,1,12110,1,2.8659e-05,1.5761e-09,0,0.00043169,-5.2477e-06,58.064,512.04,0,1.6394e+08,1.6856,12109,12992,1,12992,1,0.00086122,3.8235e-09,0,0.00086122,0.00015077,2.9657e+08,1243.6,0,3.2698e+08,85.572,12991,12110,1,12110,1,2.8659e-05,1.6183e-09,0,0.00043169,-5.271e-06,1.0924e+07,522.41,0,1.666e+08,-1.3304,12109,11203,1,11203,1,-0.0008039,-4.4138e-10,0,2.175e-06,-0.00016121,-3.2698e+08,-151.17,0,1.0423e+06,-91.241,11202,11669,1,11669,1,-0.00040303,7.0227e-10,0,0.00021585,-8.6121e-05,-1.6393e+08,226.19,0,8.4026e+07,-20.406,11668,12551,1,12551,1,0.00046035,2.3807e-09,0,0.00064754,7.5618e-05,1.6703e+08,774.16,0,2.4431e+08,20.924,12550,510.38,0,510.38,0,0.0004983,1.0864e-09,0,0.00025032,9.3353e-05,1.8857e+08,355.16,0,9.3098e+07,29.475,510.38,1
1764,3.02,12110,1,12110,1,2.896e-05,1.3811e-11,0,0.00043315,-5.3029e-06,-31.609,6.0944,0,1.6441e+08,8.8196,12109,12992,1,12992,1,0.00086433,1.9296e-09,0,0.00086433,0.00015124,2.9728e+08,642.48,0,3.28e+08,105.8,12991,12110,1,12110,1,2.8961e-05,1.3677e-11,0,0.00043315,-5.3265e-06,1.1036e+07,4.3484,0,1.671e+08,6.6081,12109,11203,1,11203,1,-0.0008064,-1.1375e-09,0,1.9781e-06,-0.00016179,-3.28e+08,-368.88,0,9.6591e+05,-73.97,11202,11669,1,11669,1,-0.00040419,-3.8824e-10,0,0.00021658,-8.6449e-05,-1.644e+08,-122.28,0,8.4281e+07,-8.185,11668,12551,1,12551,1,0.00046211,3.0257e-10,0,0.00064973,7.5836e-05,1.6753e+08,98.54,0,2.45e+08,27.03,12550,510.38,0,510.38,0,0.00049998,6.1147e-10,0,0.00025119,9.3669e-05,1.8911e+08,200.55,0,9.336e+07,25.271,510.38,1
1764,3.03,12110,1,12110,1,2.9263e-05,-1.2523e-10,0,0.00043461,-5.3582e-06,-39.412,-40.416,0,1.6488e+08,2,12109,12992,1,12992,1,0.00086745,1.1233e-09,0,0.00086745,0.00015171,2.98e+08,375.12,0,3.2902e+08,47.663,12991,12110,1,12110,1,2.9263e-05,-1.5632e-11,0,0.00043461,-5.3821e-06,1.1148e+07,-5.0095,0,1.676e+08,2.5336,12109,11203,1,11203,1,-0.00080892,-1.5627e-09,0,1.7808e-06,-0.00016237,-3.2902e+08,-510.42,0,8.8941e+05,-53.681,11202,11669,1,11669,1,-0.00040535,-5.0549e-10,0,0.00021731,-8.6778e-05,-1.6487e+08,-165.01,0,8.4536e+07,-9.1441,11668,12551,1,12551,1,0.00046388,2.647e-10,0,0.00065192,7.6054e-05,1.6804e+08,83.821,0,2.4569e+08,14.62,12550,510.38,0,510.38,0,0.00050167,5.9327e-10,0,0.00025206,9.3984e-05,1.8965e+08,194.62,0,9.3623e+07,17.629,510.38,1
1764,3.04,12110,1,12110,1,2.9568e-05,-7.6355e-10,0,0.00043608,-5.414e-06,-16.699,-248.86,0,1.6535e+08,1.5333,12109,12992,1,12992,1,0.00087059,4.7484e-10,0,0.00087059,0.00015219,2.9872e+08,162.63,0,3.3005e+08,78.071,12991,12110,1,12110,1,2.9567e-05,-6.1985e-10,0,0.00043608,-5.4382e-06,1.1261e+07,-201.5,0,1.681e+08,-0.86705,12109,11203,1,11203,1,-0.00081146,-2.5931e-09,0,1.5808e-06,-0.00016296,-3.3005e+08,-843.01,0,8.119e+05,-65.112,11202,11669,1,11669,1,-0.00040651,-1.3537e-09,0,0.00021804,-8.7108e-05,-1.6534e+08,-437.89,0,8.4792e+07,-23.906,11668,12551,1,12551,1,0.00046565,-7.574e-11,0,0.00065412,7.6273e-05,1.6854e+08,-24.848,0,2.4639e+08,22.554,12550,510.38,0,510.38,0,0.00050337,7.8365e-10,0,0.00025293,9.4301e-05,1.9019e+08,257,0,9.3888e+07,32.014,510.38,1
1764,3.05,12110,1,12110,1,2.9875e-05,-6.0099e-10,0,0.00043754,-5.4704e-06,121.88,-197.13,0,1.6582e+08,-3.3816,12109,12992,1,12992,1,0.00087372,1.5658e-09,0,0.00087372,0.00015266,2.9943e+08,510.35,0,3.3107e+08,130.37,12991,12110,1,12110,1,2.9875e-05,-5.5899e-10,0,0.00043754,-5.4949e-06,1.1375e+07,-178.26,0,1.6859e+08,-4.5284,12109,11203,1,11203,1,-0.00081396,-2.4822e-09,0,1.3771e-06,-0.00016354,-3.3107e+08,-811.62,0,7.3294e+05,-107.89,11202,11669,1,11669,1,-0.00040767,-1.3201e-09,0,0.00021877,-8.7438e-05,-1.6581e+08,-425.54,0,8.5045e+07,-25.569,11668,12551,1,12551,1,0.00046742,1.6014e-10,0,0.00065631,7.6489e-05,1.6904e+08,49.641,0,2.4708e+08,14.489,12550,510.38,0,510.38,0,0.00050505,9.034e-10,0,0.00025381,9.4616e-05,1.9073e+08,295.94,0,9.4149e+07,36.535,510.38,1
1764,3.06,12110,1,12110,1,3.0184e-05,1.1483e-09,0,0.00043901,-5.5269e-06,-49.479,372.28,0,1.6629e+08,8.7106,12109,12992,1,12992,1,0.00087685,3.4041e-09,0,0.00087685,0.00015313,3.0014e+08,1106,0,3.321e+08,77.741,12991,12110,1,12110,1,3.0184e-05,9.7092e-10,0,0.00043901,-5.5517e-06,1.1489e+07,310.95,0,1.6909e+08,9.4464,12109,11203,1,11203,1,-0.00081648,-3.0326e-10,0,1.1728e-06,-0.00016412,-3.321e+08,-103.87,0,6.538e+05,-78.423,11202,11669,1,11669,1,-0.00040882,4.2584e-10,0,0.0002195,-8.7768e-05,-1.6628e+08,137.65,0,8.53e+07,-7.6858,11668,12551,1,12551,1,0.00046919,1.8093e-09,0,0.00065851,7.6707e-05,1.6954e+08,589.16,0,2.4777e+08,28.17,12550,510.38,0,510.38,0,0.00050674,9.0419e-10,0,0.00025468,9.4933e-05,1.9127e+08,295.38,0,9.4412e+07,25.764,510.38,1
1764,3.07,12110,1,12110,1,3.0496e-05,-7.2725e-10,0,0.00044047,-5.5841e-06,221.31,-235.54,0,1.6676e+08,-4.8363,12109,12992,1,12992,1,0.00087999,2.1478e-09,0,0.00087999,0.0001536,3.0084e+08,715.95,0,3.3312e+08,99.052,12991,12110,1,12110,1,3.0497e-05,-4.921e-10,0,0.00044047,-5.6092e-06,1.1604e+07,-157.26,0,1.6958e+08,-9.5226,12109,11203,1,11203,1,-0.00081899,-3.6133e-09,0,9.6501e-07,-0.00016471,-3.3312e+08,-1172.5,0,5.7332e+05,-95.472,11202,11669,1,11669,1,-0.00040997,-1.6772e-09,0,0.00022024,-8.8099e-05,-1.6675e+08,-548.29,0,8.5554e+07,-39.26,11668,12551,1,12551,1,0.00047097,2.2228e-10,0,0.00066071,7.6923e-05,1.7004e+08,74.837,0,2.4846e+08,31.303,12550,510.38,0,510.38,0,0.00050843,1.302e-09,0,0.00025555,9.5248e-05,1.918e+08,425.12,0,9.4673e+07,43.358,510.38,1
1764,3.08,12110,1,12110,1,3.081e-05,-1.0277e-09,0,0.00044194,-5.6414e-06,-59.091,-335.18,0,1.6723e+08,-3.0033,12109,12992,1,12992,1,0.00088314,9.6519e-10,0,0.00088314,0.00015408,3.0155e+08,321.21,0,3.3414e+08,80.676,12991,12110,1,12110,1,3.081e-05,-7.8176e-10,0,0.00044194,-5.6669e-06,1.172e+07,-254.69,0,1.7008e+08,-1.4357,12109,11203,1,11203,1,-0.00082151,-3.6894e-09,0,7.5671e-07,-0.0001653,-3.3414e+08,-1200.2,0,4.9268e+05,-104.03,11202,11669,1,11669,1,-0.00041113,-1.9814e-09,0,0.00022097,-8.8431e-05,-1.6722e+08,-644.1,0,8.5808e+07,-28.92,11668,12551,1,12551,1,0.00047275,8.549e-12,0,0.00066291,7.714e-05,1.7054e+08,2.8591,0,2.4915e+08,29.468,12550,510.38,0,510.38,0,0.00051013,1.1984e-09,0,0.00025643,9.5565e-05,1.9234e+08,393.55,0,9.4935e+07,39.285,510.38,1
1764,3.09,12110,1,12110,1,3.1126e-05,7.0521e-10,0,0.0004434,-5.6994e-06,-32.383,227.31,0,1.677e+08,6.105,12109,12992,1,12992,1,0.00088626,5.0421e-09,0,0.00088626,0.00015455,3.0224e+08,1637.3,0,3.3516e+08,155.69,12991,12110,1,12110,1,3.1126e-05,4.4372e-10,0,0.0004434,-5.7251e-06,1.1837e+07,139.52,0,1.7057e+08,5.2378,12109,11203,1,11203,1,-0.00082401,-1.9796e-09,0,5.4439e-07,-0.00016588,-3.3516e+08,-647.58,0,4.1049e+05,-134.34,11202,11669,1,11669,1,-0.00041228,-1.4336e-10,0,0.0002217,-8.8762e-05,-1.6769e+08,-46.985,0,8.6061e+07,-29.024,11668,12551,1,12551,1,0.00047453,1.4917e-09,0,0.0006651,7.7356e-05,1.7103e+08,474.85,0,2.4983e+08,42.016,12550,510.38,0,510.38,0,0.00051181,1.4298e-09,0,0.00025731,9.5881e-05,1.9288e+08,467.34,0,9.5195e+07,48.583,510.38,1
1764,3.1,12110,1,12110,1,3.1444e-05,2.0303e-09,0,0.00044487,-5.7576e-06,-65.2,660.28,0,1.6817e+08,16.038,12109,12992,1,12992,1,0.00088943,5.7968e-09,0,0.00088943,0.00015502,3.0295e+08,1884,0,3.3619e+08,170.3,12991,12110,1,12110,1,3.1444e-05,1.8105e-09,0,0.00044487,-5.7836e-06,1.1954e+07,580.39,0,1.7107e+08,10.524,12109,11203,1,11203,1,-0.00082654,-7.5863e-10,0,3.3155e-07,-0.00016647,-3.3619e+08,-259.83,0,3.2813e+05,-115.25,11202,11669,1,11669,1,-0.00041343,7.0835e-10,0,0.00022244,-8.9095e-05,-1.6815e+08,217.96,0,8.6315e+07,-24.777,11668,12551,1,12551,1,0.00047632,3.3161e-09,0,0.00066731,7.7572e-05,1.7153e+08,1074.8,0,2.5052e+08,46.009,12550,510.38,0,510.38,0,0.00051351,1.6719e-09,0,0.00025819,9.6198e-05,1.9341e+08,548.05,0,9.5457e+07,51.583,510.38,1
1764,3.11,12110,1,12110,1,3.1766e-05,-7.7742e-10,0,0.00044634,-5.8165e-06,-35.877,-249.33,0,1.6863e+08,0.07696,12109,12992,1,12992,1,0.00089257,8.6269e-10,0,0.00089257,0.00015549,3.0364e+08,295.4,0,3.372e+08,87.476,12991,12110,1,12110,1,3.1766e-05,-6.551e-10,0,0.00044634,-5.8429e-06,1.2073e+07,-208.22,0,1.7156e+08,-3.1622,12109,11203,1,11203,1,-0.00082904,-2.8423e-09,0,1.1386e-07,-0.00016705,-3.372e+08,-920.86,0,2.4392e+05,-84.471,11202,11669,1,11669,1,-0.00041457,-1.4589e-09,0,0.00022317,-8.9428e-05,-1.6862e+08,-470.06,0,8.6568e+07,-22.116,11668,12551,1,12551,1,0.00047811,-1.9693e-11,0,0.00066951,7.7787e-05,1.7203e+08,-6.2128,0,2.512e+08,21.737,12550,510.38,0,510.38,0,0.0005152,9.0682e-10,0,0.00025906,9.6515e-05,1.9395e+08,294.35,0,9.5717e+07,30.513,510.38,1
1764,3.12,12110,1,12110,1,3.2089e-05,-9.1212e-10,0,0.0004478,-5.8755e-06,-37.791,-296.56,0,1.691e+08,12.736,12109,12992,1,12992,1,0.00089572,4.9901e-09,0,0.00089572,0.00015596,3.0433e+08,1636.8,0,3.3822e+08,216.54,12991,12110,1,12110,1,3.2088e-05,-2.6425e-10,0,0.0004478,-5.9023e-06,1.2192e+07,-87.848,0,1.7205e+08,-0.11811,12109,11203,1,11203,1,-0.00083154,-7.0794e-09,0,1.0277e-07,-0.00016764,-3.3822e+08,-2292.5,0,1.5975e+05,-181.32,11202,11669,1,11669,1,-0.00041571,-2.9266e-09,0,0.0002239,-8.976e-05,-1.6908e+08,-937.62,0,8.6819e+07,-56.406,11668,12551,1,12551,1,0.00047989,9.4738e-10,0,0.0006717,7.8001e-05,1.7252e+08,292.01,0,2.5188e+08,95.269,12550,510.38,0,510.38,0,0.00051689,2.8066e-09,0,0.00025992,9.6829e-05,1.9448e+08,915.25,0,9.5975e+07,95.167,510.38,1
1764,3.13,12110,1,12110,1,3.2414e-05,-2.9953e-11,0,0.0004493,-5.9352e-06,-57.687,-11.649,0,1.6957e+08,-17.046,12109,12992,1,12992,1,0.00089889,3.6135e-10,0,0.00089889,0.00015643,3.0503e+08,119.06,0,3.3924e+08,37.207,12991,12110,1,12110,1,3.2415e-05,2.6426e-11,0,0.00044928,-5.9624e-06,1.2312e+07,8.4019,0,1.7255e+08,-13.848,12109,11203,1,11203,1,-0.00083406,-7.0483e-10,0,3.2235e-07,-0.00016823,-3.3924e+08,-241.34,0,74473,-75.883,11202,11669,1,11669,1,-0.00041687,-1.6185e-10,0,0.00022464,-9.0097e-05,-1.6955e+08,-51.331,0,8.7074e+07,-34.828,11668,12551,1,12551,1,0.0004817,1.5141e-10,0,0.00067392,7.8218e-05,1.7303e+08,48.577,0,2.5257e+08,1.7438,12550,510.38,0,510.38,0,0.0005186,2.5221e-10,0,0.00026079,9.7149e-05,1.9502e+08,83.201,0,9.6238e+07,23.999,510.38,1
1764,3.14,12110,1,12110,1,3.2744e-05,1.6291e-09,0,0.00045079,-5.9956e-06,-71.37,528.25,0,1.7003e+08,2.6291,12109,12992,1,12992,1,0.00090206,3.3299e-09,0,0.00090206,0.0001569,3.0572e+08,1075.8,0,3.4026e+08,110.53,12991,12110,1,12110,1,3.2745e-05,1.7039e-09,0,0.00045075,-6.023e-06,1.2433e+07,551.87,0,1.7304e+08,2.6131,12109,11203,1,11203,1,-0.00083657,-3.8691e-10,0,5.4798e-07,-0.00016882,-3.4026e+08,-132.52,0,11992,-70.709,11202,11669,1,11669,1,-0.000418,8.4842e-10,0,0.00022537,-9.0431e-05,-1.7001e+08,268.98,0,8.7326e+07,-16.846,11668,12551,1,12551,1,0.00048349,2.4505e-09,0,0.00067612,7.8432e-05,1.7352e+08,800.38,0,2.5325e+08,19.755,12550,510.38,0,510.38,0,0.00052029,1.0059e-09,0,0.00026164,9.7466e-05,1.9555e+08,329.5,0,9.6495e+07,28.506,510.38,1
1764,3.15,12110,1,12110,1,3.3076e-05,-8.0201e-10,0,0.00045227,-6.0563e-06,132.31,-258.11,0,1.705e+08,-13.844,12109,12992,1,12992,1,0.00090522,4.6675e-10,0,0.00090522,0.00015737,3.064e+08,159.86,0,3.4128e+08,55.616,12991,12110,1,12110,1,3.3076e-05,-8.1264e-10,0,0.00045222,-6.084e-06,1.2555e+07,-261.62,0,1.7353e+08,-13.402,12109,11203,1,11203,1,-0.00083907,-2.3906e-09,0,7.737e-07,-0.00016941,-3.4128e+08,-772.22,0,99151,-105.69,11202,11669,1,11669,1,-0.00041914,-1.2854e-09,0,0.00022611,-9.0767e-05,-1.7048e+08,-412.89,0,8.7579e+07,-26.767,11668,12551,1,12551,1,0.00048529,-2.4245e-10,0,0.00067833,7.8646e-05,1.7401e+08,-80.613,0,2.5393e+08,-0.25922,12550,510.38,0,510.38,0,0.00052199,6.9827e-10,0,0.00026249,9.7783e-05,1.9608e+08,225.29,0,9.6743e+07,21.065,510.38,1
1764,3.16,12110,1,12110,1,3.3407e-05,-2.0398e-09,0,0.00045374,-6.117e-06,-88.309,-662.04,0,1.7096e+08,3.1789,12109,12992,1,12992,1,0.00090838,1.0141e-09,0,0.00090838,0.00015784,3.0708e+08,347.34,0,3.4229e+08,138.23,12991,12110,1,12110,1,3.3407e-05,-1.4427e-09,0,0.00045368,-6.145e-06,1.2677e+07,-448.52,0,1.7402e+08,-1.8962,12109,11203,1,11203,1,-0.00084156,-7.5783e-09,0,1.0017e-06,-0.00017,-3.4229e+08,-2450,0,1.8725e+05,-118.86,11202,11669,1,11669,1,-0.00042027,-3.6459e-09,0,0.00022684,-9.11e-05,-1.7094e+08,-1198.5,0,8.7827e+07,-45.143,11668,12551,1,12551,1,0.00048708,2.3444e-11,0,0.00068051,7.8858e-05,1.745e+08,7.002,0,2.546e+08,51.409,12550,510.38,0,510.38,0,0.00052367,2.3289e-09,0,0.00026334,9.8097e-05,1.966e+08,758.84,0,9.6987e+07,58.813,510.38,1
1764,3.17,12110,1,12110,1,3.3742e-05,4.7727e-10,0,0.00045525,-6.1782e-06,-51.438,150.75,0,1.7144e+08,-16.422,12109,12992,1,12992,1,0.00091155,1.7828e-09,0,0.00091155,0.00015831,3.0776e+08,554.81,0,3.4331e+08,35.234,12991,12110,1,12110,1,3.3742e-05,3.2281e-10,0,0.00045516,-6.2066e-06,1.28e+07,106.1,0,1.7452e+08,-14.28,12109,11203,1,11203,1,-0.00084406,-5.4027e-10,0,1.2291e-06,-0.00017059,-3.4331e+08,-175.19,0,2.7507e+05,-63.133,11202,11669,1,11669,1,-0.00042141,6.42e-13,0,0.00022758,-9.1438e-05,-1.714e+08,0.22448,0,8.8082e+07,-34.641,11668,12551,1,12551,1,0.0004889,9.2647e-10,0,0.00068273,7.9073e-05,1.75e+08,294.38,0,2.5528e+08,-0.10181,12550,510.38,0,510.38,0,0.00052538,5.8137e-10,0,0.0002642,9.8418e-05,1.9714e+08,183.44,0,9.7238e+07,21.621,510.38,1
1764,3.18,12110,1,12110,1,3.408e-05,-9.3614e-10,0,0.00045672,-6.2402e-06,19.708,-303.8,0,1.719e+08,4.7291,12109,12992,1,12992,1,0.00091471,2.0796e-09,0,0.00091471,0.00015877,3.0843e+08,673.73,0,3.4432e+08,120.4,12991,12110,1,12110,1,3.408e-05,-6.4559e-10,0,0.00045661,-6.2688e-06,1.2924e+07,-204.49,0,1.75e+08,0.014328,12109,11203,1,11203,1,-0.00084654,-4.4514e-09,0,1.465e-06,-0.00017118,-3.4432e+08,-1437.9,0,3.6612e+05,-127.76,11202,11669,1,11669,1,-0.00042253,-2.1303e-09,0,0.00022831,-9.1772e-05,-1.7186e+08,-687.06,0,8.8329e+07,-33.154,11668,12551,1,12551,1,0.00049069,3.2709e-10,0,0.00068492,7.9283e-05,1.7549e+08,103.76,0,2.5595e+08,44.143,12550,510.38,0,510.38,0,0.00052706,1.5552e-09,0,0.00026505,9.8731e-05,1.9766e+08,505.02,0,9.748e+07,54.46,510.38,1
1764,3.19,12110,1,12110,1,3.4419e-05,1.395e-10,0,0.00045821,-6.3021e-06,-13.571,42.642,0,1.7237e+08,0.97426,12109,12992,1,12992,1,0.00091788,2.4063e-09,0,0.00091788,0.00015924,3.0911e+08,783.24,0,3.4534e+08,59.489,12991,12110,1,12110,1,3.4419e-05,7.7107e-11,0,0.00045809,-6.3312e-06,1.3049e+07,25.044,0,1.7549e+08,-1.1211,12109,11203,1,11203,1,-0.00084904,-1.1602e-09,0,1.6974e-06,-0.00017177,-3.4534e+08,-387.13,0,4.5579e+05,-81.979,11202,11669,1,11669,1,-0.00042367,-3.5565e-10,0,0.00022905,-9.211e-05,-1.7232e+08,-114.62,0,8.8581e+07,-15.737,11668,12551,1,12551,1,0.00049251,4.9616e-10,0,0.00068713,7.9497e-05,1.7598e+08,155.26,0,2.5663e+08,20.187,12550,510.38,0,510.38,0,0.00052877,7.3802e-10,0,0.0002659,9.905e-05,1.9819e+08,241.39,0,9.7727e+07,25.223,510.38,1
1764,3.2,12110,1,12110,1,3.476e-05,-1.2862e-09,0,0.00045967,-6.3645e-06,-179.5,-416.74,0,1.7283e+08,25.504,12109,12992,1,12992,1,0.00092104,6.504e-09,0,0.00092104,0.00015971,3.0977e+08,2116.7,0,3.4634e+08,301.31,12991,12110,1,12110,1,3.4759e-05,-8.9031e-10,0,0.00045954,-6.3939e-06,1.3174e+07,-284.12,0,1.7597e+08,14.53,12109,11203,1,11203,1,-0.00085151,-7.7659e-09,0,1.935e-06,-0.00017236,-3.4634e+08,-2506.4,0,5.475e+05,-236.88,11202,11669,1,11669,1,-0.00042478,-3.6271e-09,0,0.00022977,-9.2444e-05,-1.7277e+08,-1173.1,0,8.8827e+07,-57.239,11668,12551,1,12551,1,0.0004943,7.0838e-10,0,0.00068931,7.9706e-05,1.7647e+08,224.03,0,2.5729e+08,114.57,12550,510.38,0,510.38,0,0.00053044,3.1417e-09,0,0.00026675,9.9362e-05,1.987e+08,1021.8,0,9.7967e+07,115.82,510.38,1
1764,3.21,12110,1,12110,1,3.5103e-05,-1.616e-09,0,0.00046118,-6.4274e-06,-213.23,-525.65,0,1.733e+08,-7.6004,12109,12992,1,12992,1,0.00092425,9.8805e-10,0,0.00092425,0.00016018,3.1045e+08,330.58,0,3.4737e+08,182.74,12991,12110,1,12110,1,3.5103e-05,-1.3504e-09,0,0.00046103,-6.4572e-06,1.33e+07,-429.06,0,1.7647e+08,-8.5819,12109,11203,1,11203,1,-0.00085404,-5.446e-09,0,2.1719e-06,-0.00017296,-3.4737e+08,-1777.6,0,6.388e+05,-143.6,11202,11669,1,11669,1,-0.00042592,-2.9533e-09,0,0.00023051,-9.2785e-05,-1.7324e+08,-963.14,0,8.908e+07,-52.045,11668,12551,1,12551,1,0.00049613,-9.9386e-11,0,0.00069154,7.9921e-05,1.7697e+08,-31.933,0,2.5797e+08,36.022,12550,510.38,0,510.38,0,0.00053216,1.686e-09,0,0.00026761,9.9683e-05,1.9924e+08,553.8,0,9.8216e+07,58.474,510.38,1
1764,3.22,12110,1,12110,1,3.5454e-05,-1.5609e-09,0,0.00046267,-6.4916e-06,-37.266,-508.8,0,1.7376e+08,-15.238,12109,12992,1,12992,1,0.00092745,7.9308e-10,0,0.00092745,0.00016065,3.1112e+08,240.79,0,3.4838e+08,71.237,12991,12110,1,12110,1,3.5453e-05,-1.4726e-09,0,0.0004625,-6.5216e-06,1.3429e+07,-476.63,0,1.7695e+08,-9.1455,12109,11203,1,11203,1,-0.00085653,-4.3793e-09,0,2.4167e-06,-0.00017356,-3.4838e+08,-1433,0,7.332e+05,-138.03,11202,11669,1,11669,1,-0.00042705,-2.5474e-09,0,0.00023125,-9.3124e-05,-1.7369e+08,-822.35,0,8.9331e+07,-49.821,11668,12551,1,12551,1,0.00049796,-5.6043e-10,0,0.00069376,8.0132e-05,1.7746e+08,-173.82,0,2.5864e+08,22.716,12550,510.38,0,510.38,0,0.00053386,1.273e-09,0,0.00026847,0.0001,1.9976e+08,419.26,0,9.8461e+07,47.084,510.38,1
1764,3.23,12110,1,12110,1,3.5804e-05,-1.0488e-09,0,0.00046415,-6.5557e-06,72.888,-343.36,0,1.7422e+08,11.932,12109,12992,1,12992,1,0.00093061,3.9122e-09,0,0.00093061,0.00016111,3.1177e+08,1254.1,0,3.4939e+08,156.76,12991,12110,1,12110,1,3.5804e-05,-5.2245e-10,0,0.00046396,-6.5861e-06,1.3557e+07,-162.73,0,1.7743e+08,10.852,12109,11203,1,11203,1,-0.00085899,-6.399e-09,0,2.6626e-06,-0.00017415,-3.4939e+08,-2065.3,0,8.2797e+05,-146.85,11202,11669,1,11669,1,-0.00042816,-2.7043e-09,0,0.00023198,-9.3461e-05,-1.7415e+08,-882.27,0,8.9577e+07,-45.171,11668,12551,1,12551,1,0.00049977,5.5137e-10,0,0.00069594,8.0341e-05,1.7794e+08,167.09,0,2.593e+08,70.019,12550,510.38,0,510.38,0,0.00053554,2.3672e-09,0,0.00026932,0.00010032,2.0028e+08,770.42,0,9.8701e+07,72.58,510.38,1
1764,3.24,12110,1,12110,1,3.6155e-05,-5.4457e-10,0,0.00046565,-6.6201e-06,85.353,-179.73,0,1.7469e+08,-28.179,12109,12992,1,12992,1,0.00093381,1.4676e-09,0,0.00093381,0.00016158,3.1243e+08,477.53,0,3.504e+08,83.134,12991,12110,1,12110,1,3.6155e-05,-4.2005e-10,0,0.00046544,-6.6517e-06,1.3686e+07,-134.05,0,1.7792e+08,-17.908,12109,11203,1,11203,1,-0.00086149,-2.2741e-09,0,2.9082e-06,-0.00017474,-3.504e+08,-775.92,0,9.2253e+05,-868.8,11202,11669,1,11669,1,-0.00042929,-1.2503e-09,0,0.00023272,-9.3803e-05,-1.746e+08,-406.99,0,8.9828e+07,-43.28,11668,12551,1,12551,1,0.0005016,1.1975e-10,0,0.00069817,8.0553e-05,1.7843e+08,37.666,0,2.5998e+08,3.1663,12550,510.38,0,510.38,0,0.00053726,8.5268e-10,0,0.00027018,0.00010064,2.0081e+08,281.36,0,9.8947e+07,90.008,510.38,1
1764,3.25,12110,1,12110,1,3.651e-05,1.4396e-09,0,0.00046714,-6.685e-06,-238.96,463.22,0,1.7515e+08,13.185,12109,12992,1,12992,1,0.000937,5.0409e-09,0,0.000937,0.00016205,3.1309e+08,1623.4,0,3.5141e+08,157.08,12991,12110,1,12110,1,3.6511e-05,1.0613e-09,0,0.00046692,-6.7168e-06,1.3816e+07,332.55,0,1.7841e+08,17.476,12109,11203,1,11203,1,-0.00086398,-4.2255e-10,0,3.1585e-06,-0.00017534,-3.5141e+08,-144.72,0,1.019e+06,-627.09,11202,11669,1,11669,1,-0.0004304,3.4105e-10,0,0.00023346,-9.4143e-05,-1.7506e+08,106.75,0,9.0077e+07,-12.194,11668,12551,1,12551,1,0.00050343,2.3547e-09,0,0.00070037,8.0763e-05,1.7892e+08,759.85,0,2.6064e+08,51.393,12550,510.38,0,510.38,0,0.00053895,1.3221e-09,0,0.00027104,0.00010095,2.0133e+08,429.61,0,9.9188e+07,84.705,510.38,1
1764,3.26,12110,1,12110,1,3.6866e-05,5.2319e-10,0,0.00046862,-6.7502e-06,-303.91,171.03,0,1.7561e+08,21.213,12109,12992,1,12992,1,0.00094017,5.8619e-09,0,0.00094017,0.00016251,3.1373e+08,1886.9,0,3.5241e+08,183.94,12991,12110,1,12110,1,3.6866e-05,2.8396e-10,0,0.00046838,-6.782e-06,1.3946e+07,90.909,0,1.7889e+08,20.212,12109,11203,1,11203,1,-0.00086644,-3.388e-09,0,3.4106e-06,-0.00017593,-3.5241e+08,-1090.7,0,1.116e+06,-421.88,11202,11669,1,11669,1,-0.00043151,-7.6603e-10,0,0.00023419,-9.4481e-05,-1.7551e+08,-238.88,0,9.0323e+07,-19.131,11668,12551,1,12551,1,0.00050524,1.7272e-09,0,0.00070257,8.0971e-05,1.794e+08,556.43,0,2.613e+08,74.501,12550,510.38,0,510.38,0,0.00054064,1.9869e-09,0,0.00027189,0.00010127,2.0184e+08,645.9,0,9.9428e+07,79.566,510.38,1
1764,3.27,12110,1,12110,1,3.7226e-05,3.2308e-10,0,0.00047012,-6.8161e-06,-48.079,105.06,0,1.7607e+08,0.18565,12109,12992,1,12992,1,0.00094339,4.0717e-09,0,0.00094339,0.00016298,3.1439e+08,1310,0,3.5343e+08,160.51,12991,12110,1,12110,1,3.7226e-05,-8.6226e-11,0,0.00046986,-6.8481e-06,1.4078e+07,-27.096,0,1.7937e+08,-1.4093,12109,11203,1,11203,1,-0.00086894,-1.2123e-09,0,3.6644e-06,-0.00017653,-3.5343e+08,-415,0,1.2138e+06,-225.54,11202,11669,1,11669,1,-0.00043263,-3.481e-10,0,0.00023493,-9.4824e-05,-1.7597e+08,-113.47,0,9.0573e+07,-27.714,11668,12551,1,12551,1,0.00050709,7.6471e-10,0,0.00070479,8.1182e-05,1.7989e+08,246.41,0,2.6197e+08,28.487,12550,510.38,0,510.38,0,0.00054235,1.0426e-09,0,0.00027275,0.00010159,2.0237e+08,341.54,0,9.9671e+07,55.508,510.38,1
1764,3.28,12110,1,12110,1,3.7589e-05,-1.7301e-09,0,0.0004716,-6.8824e-06,-115.13,-556.55,0,1.7653e+08,2.1132,12109,12992,1,12992,1,0.00094659,2.5058e-09,0,0.00094659,0.00016344,3.1504e+08,830.3,0,3.5444e+08,129.22,12991,12110,1,12110,1,3.7589e-05,-1.3091e-09,0,0.00047133,-6.9146e-06,1.421e+07,-403.81,0,1.7985e+08,3.5662,12109,11203,1,11203,1,-0.00087141,-6.7442e-09,0,3.9221e-06,-0.00017713,-3.5444e+08,-2169.2,0,1.313e+06,-139.44,11202,11669,1,11669,1,-0.00043374,-3.5319e-09,0,0.00023566,-9.5164e-05,-1.7641e+08,-1121.2,0,9.0819e+07,-45.161,11668,12551,1,12551,1,0.00050891,1.1488e-10,0,0.00070699,8.1389e-05,1.8038e+08,36.031,0,2.6263e+08,49.058,12550,510.38,0,510.38,0,0.00054404,2.2481e-09,0,0.00027361,0.0001019,2.0288e+08,729.47,0,9.991e+07,63.219,510.38,1
1764,3.29,12110,1,12110,1,3.7953e-05,4.9673e-10,0,0.00047311,-6.9492e-06,-29.841,156.74,0,1.7699e+08,-16.915,12109,12992,1,12992,1,0.00094981,2.437e-09,0,0.00094981,0.00016391,3.1569e+08,802.57,0,3.5545e+08,47.554,12991,12110,1,12110,1,3.7954e-05,4.2211e-10,0,0.00047281,-6.9816e-06,1.4343e+07,125.21,0,1.8034e+08,-8.4799,12109,11203,1,11203,1,-0.0008739,-6.5731e-10,0,4.18e-06,-0.00017773,-3.5545e+08,-216.42,0,1.4121e+06,-244.57,11202,11669,1,11669,1,-0.00043486,3.3234e-11,0,0.00023641,-9.5509e-05,-1.7687e+08,10.884,0,9.1069e+07,-27.268,11668,12551,1,12551,1,0.00051077,8.5518e-10,0,0.00070922,8.1601e-05,1.8087e+08,268.56,0,2.633e+08,4.403,12550,510.38,0,510.38,0,0.00054576,6.0355e-10,0,0.00027448,0.00010223,2.0341e+08,196.79,0,1.0015e+08,39.073,510.38,1
1764,3.3,12110,1,12110,1,3.8323e-05,-6.0132e-10,0,0.00047461,-7.0169e-06,-104.98,-193.81,0,1.7745e+08,9.8143,12109,12992,1,12992,1,0.00095304,2.8681e-09,0,0.00095304,0.00016438,3.1633e+08,944.3,0,3.5646e+08,166.23,12991,12110,1,12110,1,3.8323e-05,-1.937e-10,0,0.00047429,-7.0493e-06,1.4478e+07,-64.023,0,1.8082e+08,9.4503,12109,11203,1,11203,1,-0.00087639,-4.8723e-09,0,4.4451e-06,-0.00017833,-3.5646e+08,-1603.9,0,1.5141e+06,-476.36,11202,11669,1,11669,1,-0.00043597,-1.6983e-09,0,0.00023715,-9.5853e-05,-1.7732e+08,-542.12,0,9.1317e+07,-23.553,11668,12551,1,12551,1,0.00051262,5.8261e-10,0,0.00071144,8.181e-05,1.8135e+08,177.07,0,2.6396e+08,45.14,12550,510.38,0,510.38,0,0.00054747,1.6528e-09,0,0.00027534,0.00010255,2.0392e+08,536.3,0,1.0039e+08,76.467,510.38,1
1764,3.31,12110,1,12110,1,3.8694e-05,3.8397e-09,0,0.00047609,-7.0847e-06,96.919,1234.7,0,1.779e+08,5.5619,12109,12992,1,12992,1,0.00095626,1.036e-08,0,0.00095626,0.00016484,3.1697e+08,3409.7,0,3.5747e+08,350.2,12991,12110,1,12110,1,3.8694e-05,4.1795e-09,0,0.00047576,-7.117e-06,1.4613e+07,1336.8,0,1.813e+08,1.0582,12109,11203,1,11203,1,-0.00087887,-1.2604e-09,0,4.7106e-06,-0.00017893,-3.5747e+08,-431.67,0,1.616e+06,-688.18,11202,11669,1,11669,1,-0.00043706,1.8466e-09,0,0.00023788,-9.6195e-05,-1.7777e+08,575.48,0,9.1561e+07,-41.7,11668,12551,1,12551,1,0.00051445,5.651e-09,0,0.00071364,8.2016e-05,1.8183e+08,1819.7,0,2.6461e+08,56.031,12550,510.38,0,510.38,0,0.00054916,2.641e-09,0,0.00027619,0.00010286,2.0444e+08,855.95,0,1.0063e+08,126.41,510.38,1
1764,3.32,12110,1,12110,1,3.9066e-05,1.0686e-09,0,0.0004776,-7.1527e-06,-34.1,352.03,0,1.7836e+08,6.6682,12109,12992,1,12992,1,0.00095948,3.2813e-09,0,0.00095948,0.0001653,3.176e+08,1079.5,0,3.5847e+08,146.97,12991,12110,1,12110,1,3.9066e-05,1.0295e-09,0,0.00047724,-7.1844e-06,1.4749e+07,334.1,0,1.8178e+08,-2.0829,12109,11203,1,11203,1,-0.00088134,-5.8792e-10,0,4.9755e-06,-0.00017953,-3.5847e+08,-164.25,0,1.7179e+06,-88.959,11202,11669,1,11669,1,-0.00043817,2.6704e-10,0,0.00023862,-9.654e-05,-1.7822e+08,81.084,0,9.1808e+07,-19.335,11668,12551,1,12551,1,0.00051631,1.7722e-09,0,0.00071586,8.2224e-05,1.8232e+08,585.85,0,2.6527e+08,19.454,12550,510.38,0,510.38,0,0.00055087,9.4945e-10,0,0.00027706,0.00010318,2.0495e+08,314.73,0,1.0087e+08,39.687,510.38,1
1764,3.33,12110,1,12110,1,3.9441e-05,1.5799e-10,0,0.00047908,-7.2214e-06,73.153,55.786,0,1.7881e+08,13.763,12109,12992,1,12992,1,0.00096266,5.5861e-09,0,0.00096266,0.00016576,3.1822e+08,1840.8,0,3.5947e+08,209.05,12991,12110,1,12110,1,3.9442e-05,1.8811e-10,0,0.0004787,-7.2532e-06,1.4886e+07,55.362,0,1.8226e+08,6.7936,12109,11203,1,11203,1,-0.00088378,-3.7017e-09,0,5.2472e-06,-0.00018012,-3.5947e+08,-1177.7,0,1.8222e+06,-381.43,11202,11669,1,11669,1,-0.00043926,-1.1207e-09,0,0.00023935,-9.6882e-05,-1.7866e+08,-355.17,0,9.2052e+07,-42.452,11668,12551,1,12551,1,0.00051815,1.2855e-09,0,0.00071806,8.2429e-05,1.828e+08,414.29,0,2.6592e+08,71.227,12550,510.38,0,510.38,0,0.00055256,1.9468e-09,0,0.00027791,0.0001035,2.0546e+08,630.28,0,1.0111e+08,73.451,510.38,1
1764,3.34,12110,1,12110,1,3.9818e-05,-1.5299e-09,0,0.00048058,-7.2905e-06,234.93,-491.92,0,1.7927e+08,-43.816,12109,12992,1,12992,1,0.00096592,1.0336e-09,0,0.00096592,0.00016623,3.1887e+08,354.02,0,3.6048e+08,194.84,12991,12110,1,12110,1,3.9818e-05,-1.625e-09,0,0.00048019,-7.3218e-06,1.5023e+07,-512.68,0,1.8274e+08,-50.187,12109,11203,1,11203,1,-0.00088628,-3.8913e-09,0,5.5188e-06,-0.00018073,-3.6048e+08,-1240.8,0,1.9265e+06,-236.84,11202,11669,1,11669,1,-0.00044037,-2.7026e-09,0,0.00024009,-9.7229e-05,-1.7911e+08,-880.2,0,9.23e+07,-85.117,11668,12551,1,12551,1,0.00052001,-3.3335e-10,0,0.00072029,8.2637e-05,1.8328e+08,-105.45,0,2.6657e+08,-11.21,12550,510.38,0,510.38,0,0.00055428,1.3435e-09,0,0.00027878,0.00010382,2.0598e+08,433.75,0,1.0135e+08,68.602,510.38,1
1764,3.35,12110,1,12110,1,4.0199e-05,3.1854e-09,0,0.00048208,-7.36e-06,-32.242,1022.2,0,1.7973e+08,43.555,12109,12992,1,12992,1,0.00096916,8.7269e-09,0,0.00096916,0.0001667,3.195e+08,2808.8,0,3.6149e+08,389.96,12991,12110,1,12110,1,4.02e-05,3.0429e-09,0,0.00048167,-7.3907e-06,1.5162e+07,977.65,0,1.8322e+08,20.839,12109,11203,1,11203,1,-0.00088876,-1.4374e-09,0,5.7935e-06,-0.00018133,-3.6149e+08,-492.33,0,2.032e+06,-173.6,11202,11669,1,11669,1,-0.00044147,1.29e-09,0,0.00024083,-9.7574e-05,-1.7956e+08,389.53,0,9.2545e+07,-16.25,11668,12551,1,12551,1,0.00052187,4.9806e-09,0,0.0007225,8.2843e-05,1.8376e+08,1595.8,0,2.6714e+08,69.398,12550,510.38,0,510.38,0,0.00055598,2.5434e-09,0,0.00027964,0.00010414,2.0649e+08,822.46,0,1.0158e+08,92.925,510.38,1
1764,3.36,12110,1,12110,1,4.0582e-05,1.9048e-09,0,0.00048357,-7.43e-06,-18.128,620.1,0,1.8018e+08,28.78,12109,12992,1,12992,1,0.00097238,6.7616e-09,0,0.00097238,0.00016716,3.2011e+08,2220.3,0,3.6249e+08,281.17,12991,12110,1,12110,1,4.0582e-05,1.356e-09,0,0.00048314,-7.4608e-06,1.5301e+07,428.2,0,1.8369e+08,20.847,12109,11203,1,11203,1,-0.00089121,-9.5567e-10,0,6.0706e-06,-0.00018193,-3.6249e+08,-294.44,0,2.1382e+06,-124.87,11202,11669,1,11669,1,-0.00044256,1.5742e-10,0,0.00024157,-9.792e-05,-1.8e+08,49.178,0,9.2789e+07,-27.198,11668,12551,1,12551,1,0.00052372,3.4279e-09,0,0.00072472,8.3049e-05,1.8424e+08,1111.7,0,2.677e+08,59.713,12550,510.38,0,510.38,0,0.00055768,2.0367e-09,0,0.0002805,0.00010445,2.07e+08,666.48,0,1.0182e+08,73.522,510.38,1
1764,3.37,12110,1,12110,1,4.0967e-05,8.609e-10,0,0.00048507,-7.5006e-06,-58.947,283.36,0,1.8063e+08,-6.0389,12109,12992,1,12992,1,0.00097561,1.949e-09,0,0.00097561,0.00016762,3.2073e+08,667.17,0,3.6349e+08,69.755,12991,12110,1,12110,1,4.0968e-05,9.0465e-10,0,0.00048462,-7.5311e-06,1.5441e+07,288.8,0,1.8417e+08,-8.8987,12109,11203,1,11203,1,-0.00089367,-2.4736e-10,0,6.3502e-06,-0.00018253,-3.6349e+08,-68.884,0,2.2454e+06,-67.063,11202,11669,1,11669,1,-0.00044365,3.3705e-10,0,0.00024231,-9.8267e-05,-1.8045e+08,103.18,0,9.3033e+07,-28.002,11668,12551,1,12551,1,0.00052559,1.391e-09,0,0.00072693,8.3254e-05,1.8472e+08,462.02,0,2.6827e+08,15.019,12550,510.38,0,510.38,0,0.00055939,6.2085e-10,0,0.00028137,0.00010477,2.0751e+08,208.9,0,1.0205e+08,28.589,510.38,1
1764,3.38,12110,1,12110,1,4.1356e-05,4.1526e-10,0,0.00048657,-7.5716e-06,-75.68,136.52,0,1.8108e+08,27.905,12109,12992,1,12992,1,0.00097884,2.0793e-09,0,0.00097884,0.00016808,3.2135e+08,666.14,0,3.6449e+08,152.78,12991,12110,1,12110,1,4.1356e-05,2.503e-10,0,0.0004861,-7.6018e-06,1.5582e+07,80.761,0,1.8465e+08,15.923,12109,11203,1,11203,1,-0.00089613,-8.8176e-10,0,6.634e-06,-0.00018314,-3.6449e+08,-279.23,0,2.3541e+06,-64.019,11202,11669,1,11669,1,-0.00044474,-1.6513e-10,0,0.00024305,-9.8614e-05,-1.8089e+08,-50.912,0,9.3278e+07,-5.271,11668,12551,1,12551,1,0.00052746,9.6177e-10,0,0.00072915,8.346e-05,1.852e+08,315.43,0,2.6883e+08,55.157,12550,510.38,0,510.38,0,0.0005611,7.1018e-10,0,0.00028224,0.00010509,2.0802e+08,229.12,0,1.0229e+08,46.497,510.38,1
1764,3.39,12110,1,12110,1,4.1747e-05,6.8238e-10,0,0.00048806,-7.6431e-06,98.997,221.76,0,1.8153e+08,9.8775,12109,12992,1,12992,1,0.00098207,4.9929e-09,0,0.00098207,0.00016854,3.2196e+08,1624.2,0,3.6548e+08,223.94,12991,12110,1,12110,1,4.1747e-05,2.6329e-10,0,0.00048757,-7.6731e-06,1.5724e+07,83.26,0,1.8512e+08,1.6268,12109,11203,1,11203,1,-0.00089857,-1.822e-09,0,6.9199e-06,-0.00018374,-3.6548e+08,-583.19,0,2.4637e+06,-147.45,11202,11669,1,11669,1,-0.00044582,-3.4913e-10,0,0.00024379,-9.896e-05,-1.8133e+08,-111.25,0,9.352e+07,-28.86,11668,12551,1,12551,1,0.00052932,1.5904e-09,0,0.00073136,8.3663e-05,1.8568e+08,500.67,0,2.6938e+08,37.544,12550,510.38,0,510.38,0,0.0005628,1.5151e-09,0,0.00028309,0.00010541,2.0852e+08,490.13,0,1.0252e+08,63.759,510.38,1
1764,3.4,12110,1,12110,1,4.214e-05,2.3919e-10,0,0.00048958,-7.715e-06,17.597,77.777,0,1.8199e+08,1.7844,12109,12992,1,12992,1,0.00098534,1.3149e-09,0,0.00098534,0.000169,3.2258e+08,420.95,0,3.6649e+08,142.54,12991,12110,1,12110,1,4.214e-05,1.4082e-10,0,0.00048906,-7.7446e-06,1.5867e+07,42.398,0,1.856e+08,-2.3322,12109,11203,1,11203,1,-0.00090106,-5.9399e-10,0,7.2066e-06,-0.00018435,-3.6649e+08,-192.38,0,2.5734e+06,-116.94,11202,11669,1,11669,1,-0.00044692,-4.7269e-11,0,0.00024453,-9.9311e-05,-1.8178e+08,-14.721,0,9.3767e+07,-29.131,11668,12551,1,12551,1,0.0005312,5.284e-10,0,0.0007336,8.387e-05,1.8616e+08,172.77,0,2.6995e+08,30.147,12550,510.38,0,510.38,0,0.00056452,4.2023e-10,0,0.00028397,0.00010573,2.0904e+08,137.21,0,1.0276e+08,45.867,510.38,1
1764,3.41,12110,1,12110,1,4.2538e-05,9.1305e-10,0,0.00049107,-7.7879e-06,109.63,293.62,0,1.8243e+08,20.808,12109,12992,1,12992,1,0.00098858,5.1528e-09,0,0.00098858,0.00016946,3.2318e+08,1661.6,0,3.6749e+08,164.46,12991,12110,1,12110,1,4.2538e-05,4.3567e-10,0,0.00049054,-7.8171e-06,1.6011e+07,136.64,0,1.8607e+08,19.114,12109,11203,1,11203,1,-0.0009035,-1.7113e-09,0,7.5001e-06,-0.00018495,-3.6749e+08,-547.23,0,2.6858e+06,-96.869,11202,11669,1,11669,1,-0.000448,-1.8817e-10,0,0.00024527,-9.9659e-05,-1.8221e+08,-58.498,0,9.4008e+07,-20.627,11668,12551,1,12551,1,0.00053307,1.897e-09,0,0.0007358,8.4072e-05,1.8663e+08,618.65,0,2.705e+08,62.807,12550,510.38,0,510.38,0,0.00056622,1.5672e-09,0,0.00028483,0.00010605,2.0954e+08,505.64,0,1.0299e+08,54.958,510.38,1
1764,3.42,12110,1,12110,1,4.2934e-05,6.8462e-10,0,0.00049255,-7.8603e-06,-72.903,222,0,1.8287e+08,28.188,12109,12992,1,12992,1,0.0009918,8.0848e-09,0,0.0009918,0.00016992,3.2378e+08,2647.6,0,3.6848e+08,272.89,12991,12110,1,12110,1,4.2935e-05,3.387e-10,0,0.000492,-7.8893e-06,1.6155e+07,106.41,0,1.8653e+08,18.373,12109,11203,1,11203,1,-0.00090593,-4.595e-09,0,7.7912e-06,-0.00018555,-3.6848e+08,-1468.6,0,2.7971e+06,-170.59,11202,11669,1,11669,1,-0.00044906,-1.077e-09,0,0.000246,-0.00010001,-1.8265e+08,-333.81,0,9.4247e+07,-39.05,11668,12551,1,12551,1,0.00053493,2.2754e-09,0,0.000738,8.4273e-05,1.871e+08,716.74,0,2.7104e+08,99.646,12550,510.38,0,510.38,0,0.00056791,2.7179e-09,0,0.00028569,0.00010636,2.1004e+08,878.19,0,1.0322e+08,90.964,510.38,1
1764,3.43,12110,1,12110,1,4.3335e-05,7.3089e-10,0,0.00049408,-7.9336e-06,26.371,234.41,0,1.8333e+08,-23.169,12109,12992,1,12992,1,0.00099509,1.6909e-09,0,0.00099509,0.00017039,3.244e+08,540.82,0,3.6949e+08,44.911,12991,12110,1,12110,1,4.3335e-05,7.7182e-10,0,0.0004935,-7.9624e-06,1.63e+07,251.28,0,1.8701e+08,-14.975,12109,11203,1,11203,1,-0.00090842,-3.3392e-10,0,8.0838e-06,-0.00018616,-3.6949e+08,-96.573,0,2.909e+06,-123.65,11202,11669,1,11669,1,-0.00045017,2.9299e-10,0,0.00024675,-0.00010036,-1.831e+08,88.502,0,9.4495e+07,-43.817,11668,12551,1,12551,1,0.00053684,1.194e-09,0,0.00074025,8.448e-05,1.8759e+08,383.21,0,2.7161e+08,2.0399,12550,510.38,0,510.38,0,0.00056964,5.2532e-10,0,0.00028657,0.00010669,2.1055e+08,167.45,0,1.0346e+08,34.857,510.38,1
1764,3.44,12110,1,12110,1,4.3743e-05,-1.1275e-09,0,0.00049557,-8.0082e-06,12.966,-360.43,0,1.8377e+08,0.8964,12109,12992,1,12992,1,0.00099835,3.0044e-09,0,0.00099835,0.00017085,3.2499e+08,982.5,0,3.7048e+08,207.66,12991,12110,1,12110,1,4.3742e-05,-8.9331e-10,0,0.00049497,-8.0365e-06,1.6447e+07,-279.46,0,1.8748e+08,-3.9711,12109,11203,1,11203,1,-0.00091086,-4.9671e-09,0,8.3871e-06,-0.00018677,-3.7048e+08,-1586.1,0,3.0249e+06,-156.43,11202,11669,1,11669,1,-0.00045123,-2.5754e-09,0,0.00024749,-0.00010071,-1.8353e+08,-817.21,0,9.4734e+07,-51.723,11668,12551,1,12551,1,0.00053872,2.2217e-10,0,0.00074246,8.468e-05,1.8806e+08,71.805,0,2.7215e+08,46.414,12550,510.38,0,510.38,0,0.00057134,1.7859e-09,0,0.00028743,0.00010701,2.1105e+08,573.54,0,1.0369e+08,72.106,510.38,1
1764,3.45,12110,1,12110,1,4.4148e-05,-2.636e-10,0,0.00049708,-8.0824e-06,40.549,-86.736,0,1.8422e+08,-16.689,12109,12992,1,12992,1,0.0010016,1.076e-09,0,0.0010016,0.0001713,3.2559e+08,351.8,0,3.7148e+08,73.928,12991,12110,1,12110,1,4.4148e-05,-5.6199e-11,0,0.00049646,-8.1104e-06,1.6594e+07,-18.769,0,1.8795e+08,-19.362,12109,11203,1,11203,1,-0.00091331,-2.1885e-09,0,8.6871e-06,-0.00018738,-3.7148e+08,-706.71,0,3.1394e+06,-100.66,11202,11669,1,11669,1,-0.00045231,-7.3605e-10,0,0.00024823,-0.00010106,-1.8397e+08,-237.12,0,9.4976e+07,-38.695,11668,12551,1,12551,1,0.00054061,2.3911e-10,0,0.00074469,8.4882e-05,1.8853e+08,73.167,0,2.727e+08,4.9643,12550,510.38,0,510.38,0,0.00057305,7.5537e-10,0,0.0002883,0.00010733,2.1155e+08,246.38,0,1.0392e+08,32.334,510.38,1
1764,3.46,12110,1,12110,1,4.4559e-05,-4.7556e-11,0,0.00049859,-8.1575e-06,-106.68,-15.873,0,1.8467e+08,1.2469,12109,12992,1,12992,1,0.0010049,8.7081e-10,0,0.0010049,0.00017177,3.2618e+08,284.67,0,3.7247e+08,66.176,12991,12110,1,12110,1,4.456e-05,-9.4203e-11,0,0.00049794,-8.185e-06,1.6743e+07,-28.334,0,1.8842e+08,1.7082,12109,11203,1,11203,1,-0.00091576,-1.1522e-09,0,8.9916e-06,-0.00018799,-3.7247e+08,-376.44,0,3.2556e+06,-58.28,11202,11669,1,11669,1,-0.00045338,-2.6687e-10,0,0.00024897,-0.00010141,-1.844e+08,-87.202,0,9.5218e+07,-11.719,11668,12551,1,12551,1,0.0005425,1.7764e-10,0,0.00074692,8.5085e-05,1.8901e+08,56.227,0,2.7324e+08,14.345,12550,510.38,0,510.38,0,0.00057477,3.8046e-10,0,0.00028917,0.00010765,2.1206e+08,124.05,0,1.0415e+08,19.127,510.38,1
1764,3.47,12110,1,12110,1,4.4973e-05,1.9225e-09,0,0.00050009,-8.2331e-06,-37.132,615.24,0,1.8511e+08,19.524,12109,12992,1,12992,1,0.0010082,8.2626e-09,0,0.0010082,0.00017223,3.2677e+08,2666.3,0,3.7347e+08,258.38,12991,12110,1,12110,1,4.4973e-05,1.0423e-09,0,0.00049943,-8.2602e-06,1.6892e+07,334.24,0,1.8889e+08,14.425,12109,11203,1,11203,1,-0.00091822,-8.2625e-10,0,9.2991e-06,-0.0001886,-3.7347e+08,-265.85,0,3.373e+06,-247.05,11202,11669,1,11669,1,-0.00045445,1.4575e-10,0,0.00024971,-0.00010177,-1.8484e+08,44.871,0,9.5459e+07,-33.469,11668,12551,1,12551,1,0.0005444,3.3772e-09,0,0.00074914,8.5286e-05,1.8948e+08,1059,0,2.7378e+08,80.731,12550,510.38,0,510.38,0,0.00057648,2.3189e-09,0,0.00029004,0.00010797,2.1256e+08,747.64,0,1.0438e+08,92.817,510.38,1
1764,3.48,12110,1,12110,1,4.5388e-05,-7.8857e-11,0,0.00050159,-8.3092e-06,16.044,-21.072,0,1.8555e+08,-25.548,12109,12992,1,12992,1,0.0010114,7.9929e-10,0,0.0010114,0.00017268,3.2736e+08,273.66,0,3.7446e+08,66.483,12991,12110,1,12110,1,4.5389e-05,-1.1501e-10,0,0.00050091,-8.336e-06,1.7042e+07,-35.283,0,1.8936e+08,-25.512,12109,11203,1,11203,1,-0.00092065,-7.7484e-10,0,9.6085e-06,-0.00018921,-3.7446e+08,-246.94,0,3.491e+06,-82.141,11202,11669,1,11669,1,-0.00045552,-3.8028e-10,0,0.00025045,-0.00010212,-1.8527e+08,-113.57,0,9.5699e+07,-40.321,11668,12551,1,12551,1,0.0005463,1.6258e-10,0,0.00075136,8.5487e-05,1.8995e+08,54.869,0,2.7432e+08,-13.054,12550,510.38,0,510.38,0,0.00057819,3.6741e-10,0,0.00029091,0.00010829,2.1306e+08,119.49,0,1.0461e+08,22.201,510.38,1
1764,3.49,12110,1,12110,1,4.5807e-05,8.6466e-10,0,0.0005031,-8.3857e-06,-76.79,277.69,0,1.86e+08,6.5257,12109,12992,1,12992,1,0.0010147,2.3082e-09,0,0.0010147,0.00017314,3.2794e+08,726.62,0,3.7546e+08,104.67,12991,12110,1,12110,1,4.5807e-05,8.0823e-10,0,0.0005024,-8.412e-06,1.7193e+07,254.58,0,1.8983e+08,1.786,12109,11203,1,11203,1,-0.00092311,-3.8387e-10,0,9.9217e-06,-0.00018982,-3.7546e+08,-117.66,0,3.6103e+06,-58.11,11202,11669,1,11669,1,-0.00045659,3.2342e-10,0,0.0002512,-0.00010247,-1.8571e+08,100.09,0,9.594e+07,-16.336,11668,12551,1,12551,1,0.0005482,1.4278e-09,0,0.00075359,8.5687e-05,1.9042e+08,458.26,0,2.7486e+08,24.696,12550,510.38,0,510.38,0,0.00057991,6.8449e-10,0,0.00029178,0.00010861,2.1355e+08,222.34,0,1.0484e+08,30.226,510.38,1
1764,3.5,12110,1,12110,1,4.6229e-05,-1.9399e-09,0,0.00050461,-8.4629e-06,68.294,-617.72,0,1.8644e+08,-4.6438,12109,12992,1,12992,1,0.001018,1.3581e-09,0,0.001018,0.0001736,3.2853e+08,465.14,0,3.7646e+08,150.7,12991,12110,1,12110,1,4.6229e-05,-1.7091e-09,0,0.00050388,-8.4887e-06,1.7345e+07,-538.17,0,1.903e+08,-1.9132,12109,11203,1,11203,1,-0.00092556,-6.3367e-09,0,1.0237e-05,-0.00019043,-3.7646e+08,-2017.6,0,3.7305e+06,-211.37,11202,11669,1,11669,1,-0.00045765,-3.5801e-09,0,0.00025194,-0.00010283,-1.8614e+08,-1143.6,0,9.618e+07,-56.561,11668,12551,1,12551,1,0.00055011,-1.4027e-10,0,0.00075582,8.5887e-05,1.9089e+08,-42.731,0,2.754e+08,47.35,12550,510.38,0,510.38,0,0.00058162,1.977e-09,0,0.00029266,0.00010893,2.1405e+08,632.6,0,1.0507e+08,68.369,510.38,1
1764,3.51,12110,1,12110,1,4.6651e-05,-3.1797e-09,0,0.0005061,-8.5401e-06,-7.7313,-1020,0,1.8687e+08,3.9636,12109,12992,1,12992,1,0.0010213,1.2207e-09,0,0.0010213,0.00017406,3.291e+08,418.09,0,3.7745e+08,184.31,12991,12110,1,12110,1,4.6651e-05,-2.811e-09,0,0.00050535,-8.5655e-06,1.7497e+07,-897.18,0,1.9076e+08,7.8286,12109,11203,1,11203,1,-0.00092798,-9.2765e-09,0,1.0553e-05,-0.00019104,-3.7745e+08,-2976.6,0,3.8509e+06,-215.05,11202,11669,1,11669,1,-0.0004587,-5.2247e-09,0,0.00025268,-0.00010318,-1.8657e+08,-1680.7,0,9.6416e+07,-50.164,11668,12551,1,12551,1,0.000552,-9.2697e-10,0,0.00075803,8.6085e-05,1.9136e+08,-297.4,0,2.7592e+08,53.665,12550,510.38,0,510.38,0,0.00058332,2.6926e-09,0,0.00029352,0.00010924,2.1454e+08,871.36,0,1.0529e+08,78.552,510.38,1
1764,3.52,12110,1,12110,1,4.7077e-05,1.9968e-09,0,0.00050762,-8.618e-06,20.486,627.93,0,1.8732e+08,7.4655,12109,12992,1,12992,1,0.0010246,4.2424e-09,0,0.0010246,0.00017452,3.2968e+08,1309.6,0,3.7844e+08,149.03,12991,12110,1,12110,1,4.7078e-05,2.2647e-09,0,0.00050685,-8.6428e-06,1.7651e+07,720.18,0,1.9123e+08,0.1891,12109,11203,1,11203,1,-0.00093042,-9.452e-10,0,1.0872e-05,-0.00019166,-3.7844e+08,-323.73,0,3.972e+06,-100.45,11202,11669,1,11669,1,-0.00045977,8.9232e-10,0,0.00025342,-0.00010354,-1.87e+08,294.14,0,9.6721e+07,-26.458,11668,12551,1,12551,1,0.00055392,3.1366e-09,0,0.00076026,8.6286e-05,1.9183e+08,994.29,0,2.7646e+08,32.608,12550,510.38,0,510.38,0,0.00058505,1.4124e-09,0,0.0002944,0.00010957,2.1504e+08,441.9,0,1.0553e+08,49.217,510.38,1
1764,3.53,12110,1,12110,1,4.7509e-05,-3.3487e-10,0,0.00050913,-8.6971e-06,43.09,-104.58,0,1.8776e+08,-19.235,12109,12992,1,12992,1,0.0010279,4.7337e-10,0,0.0010279,0.00017497,3.3025e+08,162.13,0,3.7943e+08,94.354,12991,12110,1,12110,1,4.7509e-05,-3.0727e-10,0,0.00050834,-8.7215e-06,1.7806e+07,-96.37,0,1.9169e+08,-18.743,12109,11203,1,11203,1,-0.00093286,-1.2075e-09,0,1.1199e-05,-0.00019227,-3.7943e+08,-372.45,0,4.0964e+06,-96.787,11202,11669,1,11669,1,-0.00046083,-7.0465e-10,0,0.00025417,-0.00010389,-1.8743e+08,-223.89,0,9.7048e+07,-37.489,11668,12551,1,12551,1,0.00055584,4.821e-11,0,0.0007625,8.6485e-05,1.923e+08,14.754,0,2.7699e+08,-0.77064,12550,510.38,0,510.38,0,0.00058677,4.4031e-10,0,0.00029528,0.00010989,2.1554e+08,138.82,0,1.0575e+08,29.56,510.38,1
1764,3.54,12110,1,12110,1,4.7943e-05,-1.9033e-09,0,0.00051065,-8.7763e-06,-11.187,-607.84,0,1.8819e+08,-23.563,12109,12992,1,12992,1,0.0010312,9.0807e-10,0,0.0010312,0.00017543,3.3082e+08,299.08,0,3.8042e+08,90.25,12991,12110,1,12110,1,4.7942e-05,-2.141e-09,0,0.00050982,-8.8002e-06,1.7961e+07,-671.24,0,1.9215e+08,-14.975,12109,11203,1,11203,1,-0.00093531,-4.1017e-09,0,1.1526e-05,-0.00019289,-3.8042e+08,-1303.4,0,4.2207e+06,-172.16,11202,11669,1,11669,1,-0.00046188,-3.0449e-09,0,0.00025491,-0.00010425,-1.8786e+08,-986.83,0,9.7374e+07,-56.018,11668,12551,1,12551,1,0.00055776,-8.3947e-10,0,0.00076473,8.6683e-05,1.9276e+08,-273.13,0,2.7751e+08,14.67,12550,510.38,0,510.38,0,0.00058848,1.3789e-09,0,0.00029615,0.00011021,2.1603e+08,443.85,0,1.0598e+08,52.514,510.38,1
1764,3.55,12110,1,12110,1,4.8379e-05,7.7832e-10,0,0.00051216,-8.856e-06,40.389,242.57,0,1.8863e+08,16.617,12109,12992,1,12992,1,0.0010345,1.8526e-09,0,0.0010345,0.00017589,3.3138e+08,567.41,0,3.8141e+08,105.45,12991,12110,1,12110,1,4.8379e-05,7.9304e-10,0,0.00051131,-8.8792e-06,1.8118e+07,251.22,0,1.9262e+08,8.9625,12109,11203,1,11203,1,-0.00093772,-3.4042e-10,0,1.1855e-05,-0.0001935,-3.8141e+08,-116.59,0,4.3456e+06,-42.978,11202,11669,1,11669,1,-0.00046293,3.0817e-10,0,0.00025565,-0.00010461,-1.8829e+08,101.94,0,9.7701e+07,-7.549,11668,12551,1,12551,1,0.00055969,1.2589e-09,0,0.00076696,8.6881e-05,1.9323e+08,389.7,0,2.7804e+08,40.781,12550,510.38,0,510.38,0,0.0005902,5.6302e-10,0,0.00029703,0.00011053,2.1652e+08,173.6,0,1.0621e+08,31.551,510.38,1
1764,3.56,12110,1,12110,1,4.8816e-05,1.6019e-09,0,0.00051366,-8.9359e-06,3.0617,512.27,0,1.8906e+08,54.26,12109,12992,1,12992,1,0.0010378,6.4502e-09,0,0.0010378,0.00017634,3.3194e+08,2059.5,0,3.8239e+08,392.05,12991,12110,1,12110,1,4.8816e-05,1.1586e-09,0,0.00051279,-8.9584e-06,1.8275e+07,371.67,0,1.9308e+08,34.38,12109,11203,1,11203,1,-0.00094015,-1.2424e-09,0,1.2188e-05,-0.00019411,-3.8239e+08,-425.51,0,4.472e+06,-180.24,11202,11669,1,11669,1,-0.00046397,-3.2383e-11,0,0.00025639,-0.00010496,-1.8871e+08,-9.3882,0,9.8025e+07,-10.298,11668,12551,1,12551,1,0.0005616,2.9172e-09,0,0.00076918,8.7077e-05,1.9369e+08,935.83,0,2.7855e+08,92.422,12550,510.38,0,510.38,0,0.0005919,1.9087e-09,0,0.0002979,0.00011085,2.1701e+08,612.69,0,1.0643e+08,98.674,510.38,1
1764,3.57,12110,1,12110,1,4.9256e-05,1.1371e-09,0,0.00051517,-9.0163e-06,-96.291,368.67,0,1.895e+08,30.657,12109,12992,1,12992,1,0.0010411,6.1966e-09,0,0.0010411,0.0001768,3.325e+08,2014.6,0,3.8338e+08,218.51,12991,12110,1,12110,1,4.9256e-05,5.0646e-10,0,0.00051428,-9.0386e-06,1.8433e+07,160.66,0,1.9354e+08,25.424,12109,11203,1,11203,1,-0.00094258,-1.2398e-09,0,1.252e-05,-0.00019473,-3.8338e+08,-390.99,0,4.5978e+06,-95.069,11202,11669,1,11669,1,-0.00046502,-1.0136e-10,0,0.00025714,-0.00010532,-1.8914e+08,-30.168,0,9.8353e+07,-19.321,11668,12551,1,12551,1,0.00056354,2.1404e-09,0,0.00077142,8.7275e-05,1.9416e+08,679.78,0,2.7908e+08,66.439,12550,510.38,0,510.38,0,0.00059363,1.7144e-09,0,0.00029878,0.00011117,2.175e+08,555.53,0,1.0665e+08,62.862,510.38,1
1764,3.58,12110,1,12110,1,4.97e-05,-1.2822e-09,0,0.00051666,-9.0976e-06,413.23,-403.04,0,1.8993e+08,-18.913,12109,12992,1,12992,1,0.0010444,5.2596e-09,0,0.0010444,0.00017725,3.3305e+08,1715.7,0,3.8436e+08,195.23,12991,12110,1,12110,1,4.97e-05,-7.1522e-10,0,0.00051575,-9.1193e-06,1.8592e+07,-220.24,0,1.9399e+08,-30.919,12109,11203,1,11203,1,-0.00094498,-7.4208e-09,0,1.2859e-05,-0.00019534,-3.8436e+08,-2353.5,0,4.7262e+06,-293.45,11202,11669,1,11669,1,-0.00046605,-3.5157e-09,0,0.00025787,-0.00010568,-1.8956e+08,-1125.4,0,9.8677e+07,-93.656,11668,12551,1,12551,1,0.00056545,7.5682e-10,0,0.00077362,8.7468e-05,1.9461e+08,237.67,0,2.7958e+08,57.226,12550,510.38,0,510.38,0,0.00059532,2.9212e-09,0,0.00029964,0.00011148,2.1798e+08,933.94,0,1.0687e+08,95.847,510.38,1
1764,3.59,12110,1,12110,1,5.0144e-05,-1.0602e-09,0,0.00051819,-9.1788e-06,65.713,-340.66,0,1.9037e+08,-19.946,12109,12992,1,12992,1,0.0010477,9.6018e-10,0,0.0010477,0.00017771,3.3361e+08,328.76,0,3.8535e+08,81.727,12991,12110,1,12110,1,5.0144e-05,-9.3334e-10,0,0.00051725,-9.2e-06,1.8751e+07,-288.87,0,1.9446e+08,-15.716,12109,11203,1,11203,1,-0.00094743,-3.6107e-09,0,1.3196e-05,-0.00019596,-3.8535e+08,-1172.6,0,4.8539e+06,-152.93,11202,11669,1,11669,1,-0.00046711,-1.9628e-09,0,0.00025863,-0.00010604,-1.8999e+08,-638.7,0,9.9007e+07,-52.771,11668,12551,1,12551,1,0.0005674,-1.0123e-10,0,0.00077588,8.7667e-05,1.9508e+08,-31.789,0,2.8011e+08,18.411,12550,510.38,0,510.38,0,0.00059706,1.143e-09,0,0.00030053,0.00011181,2.1848e+08,372.07,0,1.071e+08,48.604,510.38,1
1764,3.6,12110,1,12110,1,5.0597e-05,-1.2022e-09,0,0.00051971,-9.2616e-06,46.357,-387.37,0,1.908e+08,-22.501,12109,12992,1,12992,1,0.0010511,7.9954e-10,0,0.0010511,0.00017816,3.3416e+08,273.84,0,3.8634e+08,70.75,12991,12110,1,12110,1,5.0597e-05,-1.0735e-09,0,0.00051874,-9.2823e-06,1.8913e+07,-343.48,0,1.9492e+08,-19.518,12109,11203,1,11203,1,-0.00094986,-3.7363e-09,0,1.3542e-05,-0.00019659,-3.8634e+08,-1212.8,0,4.9849e+06,-142.05,11202,11669,1,11669,1,-0.00046815,-2.1893e-09,0,0.00025937,-0.0001064,-1.9041e+08,-702.07,0,9.9336e+07,-51.843,11668,12551,1,12551,1,0.00056934,-1.2528e-10,0,0.00077812,8.7863e-05,1.9555e+08,-38.457,0,2.8062e+08,8.2022,12550,510.38,0,510.38,0,0.00059878,1.1895e-09,0,0.00030141,0.00011213,2.1896e+08,386.29,0,1.0733e+08,42.925,510.38,1
1764,3.61,12110,1,12110,1,5.1051e-05,4.2215e-10,0,0.00052122,-9.3446e-06,39.857,128.52,0,1.9123e+08,-7.0047,12109,12992,1,12992,1,0.0010544,1.9424e-09,0,0.0010544,0.00017861,3.347e+08,625.62,0,3.8732e+08,60.823,12991,12110,1,12110,1,5.1051e-05,3.4656e-10,0,0.00052023,-9.3646e-06,1.9075e+07,108.5,0,1.9537e+08,-7.162,12109,11203,1,11203,1,-0.00095225,-7.0631e-10,0,1.389e-05,-0.0001972,-3.8732e+08,-229.11,0,5.1163e+06,-74.702,11202,11669,1,11669,1,-0.00046918,-6.5168e-12,0,0.00026012,-0.00010676,-1.9083e+08,-2.1116,0,9.9664e+07,-23.159,11668,12551,1,12551,1,0.00057128,8.4631e-10,0,0.00078035,8.8057e-05,1.9601e+08,256.33,0,2.8112e+08,5.2369,12550,510.38,0,510.38,0,0.0006005,5.592e-10,0,0.00030229,0.00011245,2.1945e+08,176.79,0,1.0755e+08,23.203,510.38,1
1764,3.62,12110,1,12110,1,5.1506e-05,-1.0313e-09,0,0.00052274,-9.4279e-06,-47.629,-328.49,0,1.9166e+08,-14.383,12109,12992,1,12992,1,0.0010577,3.2629e-10,0,0.0010577,0.00017907,3.3524e+08,109.67,0,3.8831e+08,56.163,12991,12110,1,12110,1,5.1506e-05,-1.0933e-09,0,0.00052172,-9.4473e-06,1.9238e+07,-343.3,0,1.9583e+08,-13.789,12109,11203,1,11203,1,-0.00095469,-2.2828e-09,0,1.424e-05,-0.00019782,-3.8831e+08,-732.02,0,5.2484e+06,-79.87,11202,11669,1,11669,1,-0.00047022,-1.5918e-09,0,0.00026086,-0.00010713,-1.9125e+08,-510.99,0,9.9993e+07,-30.179,11668,12551,1,12551,1,0.00057323,-5.0251e-10,0,0.00078259,8.8252e-05,1.9647e+08,-153.6,0,2.8163e+08,2.0343,12550,510.38,0,510.38,0,0.00060222,6.8695e-10,0,0.00030317,0.00011277,2.1993e+08,221.87,0,1.0777e+08,22.618,510.38,1
1764,3.63,12110,1,12110,1,5.1964e-05,1.0992e-09,0,0.00052425,-9.5115e-06,-122.63,346.03,0,1.9209e+08,39.451,12109,12992,1,12992,1,0.001061,7.2142e-09,0,0.001061,0.00017952,3.3578e+08,2313.3,0,3.8928e+08,377.21,12991,12110,1,12110,1,5.1964e-05,3.2864e-10,0,0.00052321,-9.5302e-06,1.9401e+07,98.306,0,1.9629e+08,33.623,12109,11203,1,11203,1,-0.00095709,-2.227e-09,0,1.4591e-05,-0.00019844,-3.8928e+08,-708.75,0,5.381e+06,-260.08,11202,11669,1,11669,1,-0.00047124,-5.0403e-10,0,0.0002616,-0.00010749,-1.9167e+08,-158.9,0,1.0032e+08,-22.39,11668,12551,1,12551,1,0.00057517,2.3508e-09,0,0.00078481,8.8445e-05,1.9692e+08,753.28,0,2.8213e+08,93.919,12550,510.38,0,510.38,0,0.00060393,2.1776e-09,0,0.00030404,0.00011309,2.2041e+08,693.14,0,1.0799e+08,113.11,510.38,1
1764,3.64,12110,1,12110,1,5.2424e-05,-2.5579e-09,0,0.00052576,-9.5958e-06,-51.769,-808.68,0,1.9252e+08,-25.108,12109,12992,1,12992,1,0.0010644,1.2042e-09,0,0.0010644,0.00017998,3.3632e+08,412.43,0,3.9027e+08,150.62,12991,12110,1,12110,1,5.2424e-05,-2.3612e-09,0,0.0005247,-9.6141e-06,1.9565e+07,-746.06,0,1.9674e+08,-31.487,12109,11203,1,11203,1,-0.00095951,-7.3123e-09,0,1.4946e-05,-0.00019906,-3.9027e+08,-2315.3,0,5.5147e+06,-207.18,11202,11669,1,11669,1,-0.00047227,-4.511e-09,0,0.00026235,-0.00010785,-1.9209e+08,-1422.8,0,1.0065e+08,-68.772,11668,12551,1,12551,1,0.00057712,-5.4441e-10,0,0.00078704,8.8638e-05,1.9738e+08,-165.02,0,2.8263e+08,24.315,12550,510.38,0,510.38,0,0.00060565,2.2925e-09,0,0.00030492,0.00011341,2.2089e+08,732.55,0,1.0821e+08,66.993,510.38,1
1764,3.65,12110,1,12110,1,5.289e-05,-1.5603e-09,0,0.00052729,-9.681e-06,91.686,-502.98,0,1.9295e+08,-25.474,12109,12992,1,12992,1,0.0010677,4.2369e-10,0,0.0010677,0.00018043,3.3686e+08,113.02,0,3.9126e+08,67.932,12991,12110,1,12110,1,5.289e-05,-1.6669e-09,0,0.0005262,-9.6987e-06,1.9731e+07,-513.46,0,1.972e+08,-18.413,12109,11203,1,11203,1,-0.00096194,-3.0782e-09,0,1.5302e-05,-0.00019969,-3.9126e+08,-1053.5,0,5.649e+06,-147.99,11202,11669,1,11669,1,-0.00047331,-2.4347e-09,0,0.0002631,-0.00010821,-1.9251e+08,-788.61,0,1.0098e+08,-49.083,11668,12551,1,12551,1,0.00057909,-7.3533e-10,0,0.00078931,8.8834e-05,1.9785e+08,-213.12,0,2.8314e+08,2.6611,12550,510.38,0,510.38,0,0.00060739,1.0035e-09,0,0.00030582,0.00011374,2.2138e+08,333.7,0,1.0843e+08,39.267,510.38,1
1764,3.66,12110,1,12110,1,5.3362e-05,1.3525e-09,0,0.00052881,-9.7671e-06,41.213,422.27,0,1.9338e+08,-8.8985,12109,12992,1,12992,1,0.0010711,2.8913e-09,0,0.0010711,0.00018088,3.3738e+08,901.64,0,3.9223e+08,124.69,12991,12110,1,12110,1,5.3362e-05,1.4574e-09,0,0.00052769,-9.7841e-06,1.9899e+07,462.15,0,1.9765e+08,-12.863,12109,11203,1,11203,1,-0.00096434,-5.9689e-10,0,1.5668e-05,-0.00020031,-3.9223e+08,-204.43,0,5.7867e+06,-141.76,11202,11669,1,11669,1,-0.00047433,6.7995e-10,0,0.00026384,-0.00010858,-1.9292e+08,212.73,0,1.0131e+08,-38.327,11668,12551,1,12551,1,0.00058105,2.0954e-09,0,0.00079153,8.9026e-05,1.983e+08,658.33,0,2.8363e+08,18.691,12550,510.38,0,510.38,0,0.00060911,9.11e-10,0,0.0003067,0.00011406,2.2186e+08,283.15,0,1.0865e+08,49.218,510.38,1
1764,3.67,12110,1,12110,1,5.3832e-05,1.9254e-09,0,0.00053032,-9.8531e-06,21.452,612.53,0,1.938e+08,21.032,12109,12992,1,12992,1,0.0010744,6.3269e-09,0,0.0010744,0.00018134,3.3791e+08,2016.5,0,3.9321e+08,148.94,12991,12110,1,12110,1,5.3832e-05,1.4826e-09,0,0.00052918,-9.8695e-06,2.0066e+07,466.86,0,1.9811e+08,21.831,12109,11203,1,11203,1,-0.00096675,-4.9814e-10,0,1.6033e-05,-0.00020093,-3.9321e+08,-170.61,0,5.924e+06,-81.277,11202,11669,1,11669,1,-0.00047535,3.9573e-10,0,0.00026459,-0.00010894,-1.9334e+08,121.29,0,1.0164e+08,-20.35,11668,12551,1,12551,1,0.00058301,3.186e-09,0,0.00079377,8.9218e-05,1.9876e+08,1025.2,0,2.8413e+08,58.92,12550,510.38,0,510.38,0,0.00061083,1.7492e-09,0,0.00030758,0.00011438,2.2234e+08,561.26,0,1.0887e+08,48.185,510.38,1
1764,3.68,12110,1,12110,1,5.4306e-05,-7.4208e-10,0,0.00053185,-9.9399e-06,28.347,-229.14,0,1.9423e+08,-27.51,12109,12992,1,12992,1,0.0010778,7.2946e-10,0,0.0010778,0.00018179,3.3843e+08,249.83,0,3.9419e+08,57.5,12991,12110,1,12110,1,5.4307e-05,-6.9534e-10,0,0.00053068,-9.9558e-06,2.0235e+07,-216.77,0,1.9856e+08,-23.622,12109,11203,1,11203,1,-0.00096915,-2.4156e-09,0,1.6399e-05,-0.00020156,-3.9419e+08,-758.84,0,6.0616e+06,-139.65,11202,11669,1,11669,1,-0.00047637,-1.4134e-09,0,0.00026534,-0.00010931,-1.9375e+08,-438.46,0,1.0197e+08,-51.116,11668,12551,1,12551,1,0.00058498,1.7769e-12,0,0.00079602,8.9411e-05,1.9921e+08,0.40316,0,2.8462e+08,-1.0005,12550,510.38,0,510.38,0,0.00061256,8.4662e-10,0,0.00030847,0.0001147,2.2282e+08,265.53,0,1.0909e+08,36.293,510.38,1
1764,3.69,12110,1,12110,1,5.4782e-05,-2.7902e-11,0,0.00053336,-1.0027e-05,-328.95,-9.84,0,1.9465e+08,24.881,12109,12992,1,12992,1,0.0010811,5.0457e-09,0,0.0010811,0.00018224,3.3894e+08,1609,0,3.9516e+08,184.05,12991,12110,1,12110,1,5.4782e-05,6.9721e-11,0,0.00053217,-1.0042e-05,2.0403e+07,22.692,0,1.9901e+08,13.697,12109,11203,1,11203,1,-0.00097155,-4.017e-09,0,1.6769e-05,-0.00020218,-3.9516e+08,-1267.7,0,6.2006e+06,-167.6,11202,11669,1,11669,1,-0.00047738,-1.4361e-09,0,0.00026608,-0.00010967,-1.9417e+08,-452.43,0,1.0231e+08,-33.531,11668,12551,1,12551,1,0.00058695,1.0253e-09,0,0.00079825,8.9601e-05,1.9966e+08,326.37,0,2.8511e+08,90.89,12550,510.38,0,510.38,0,0.00061427,1.9274e-09,0,0.00030935,0.00011502,2.2329e+08,613.96,0,1.0931e+08,76.929,510.38,1
1764,3.7,12110,1,12110,1,5.5261e-05,2.1927e-09,0,0.00053486,-1.0114e-05,371.52,695.29,0,1.9507e+08,76.618,12109,12992,1,12992,1,0.0010845,1.4457e-08,0,0.0010845,0.00018269,3.3946e+08,4617,0,3.9614e+08,680.03,12991,12110,1,12110,1,5.5261e-05,7.7048e-10,0,0.00053365,-1.0129e-05,2.0573e+07,248.11,0,1.9945e+08,52.017,12109,11203,1,11203,1,-0.00097394,-3.6628e-09,0,1.7143e-05,-0.0002028,-3.9614e+08,-1154.5,0,6.3407e+06,-426.67,11202,11669,1,11669,1,-0.00047838,-6.5112e-10,0,0.00026682,-0.00011004,-1.9457e+08,-201.79,0,1.0263e+08,-37.802,11668,12551,1,12551,1,0.00058891,4.3476e-09,0,0.00080047,8.9789e-05,2.0011e+08,1374.5,0,2.8559e+08,125.17,12550,510.38,0,510.38,0,0.00061597,3.9037e-09,0,0.00031022,0.00011534,2.2376e+08,1246.4,0,1.0952e+08,171.48,510.38,1
1764,3.71,12110,1,12110,1,5.574e-05,9.3471e-10,0,0.00053639,-1.0202e-05,25.359,305.95,0,1.9549e+08,5.4031,12109,12992,1,12992,1,0.0010878,6.8699e-09,0,0.0010878,0.00018313,3.3997e+08,2220.4,0,3.9711e+08,245.87,12991,12110,1,12110,1,5.5741e-05,2.1439e-10,0,0.00053514,-1.0216e-05,2.0744e+07,68.338,0,1.999e+08,-1.2151,12109,11203,1,11203,1,-0.00097633,-1.9242e-09,0,1.7515e-05,-0.00020343,-3.9711e+08,-615.68,0,6.48e+06,-189,11202,11669,1,11669,1,-0.0004794,-3.4979e-10,0,0.00026757,-0.00011041,-1.9498e+08,-100.66,0,1.0297e+08,-46.175,11668,12551,1,12551,1,0.00059088,1.933e-09,0,0.00080272,8.9981e-05,2.0057e+08,629.11,0,2.8608e+08,40.064,12550,510.38,0,510.38,0,0.0006177,1.8479e-09,0,0.00031111,0.00011566,2.2424e+08,601.99,0,1.0974e+08,71.588,510.38,1
1764,3.72,12110,1,12110,1,5.6229e-05,1.2099e-09,0,0.00053793,-1.0291e-05,-37.791,390.12,0,1.9592e+08,-14.398,12109,12992,1,12992,1,0.0010912,3.1513e-09,0,0.0010912,0.00018359,3.4049e+08,1030,0,3.981e+08,75.244,12991,12110,1,12110,1,5.623e-05,1.2562e-09,0,0.00053665,-1.0305e-05,2.0916e+07,389.92,0,2.0036e+08,-14.35,12109,11203,1,11203,1,-0.00097876,-4.7452e-10,0,1.7895e-05,-0.00020406,-3.981e+08,-125.19,0,6.6224e+06,-76.179,11202,11669,1,11669,1,-0.00048043,4.9129e-10,0,0.00026833,-0.00011078,-1.954e+08,152.59,0,1.033e+08,-33.178,11668,12551,1,12551,1,0.00059289,1.8421e-09,0,0.00080499,9.0174e-05,2.0102e+08,596.07,0,2.8657e+08,2.6427,12550,510.38,0,510.38,0,0.00061946,8.9213e-10,0,0.00031201,0.00011599,2.2472e+08,295.13,0,1.0996e+08,26.892,510.38,1
1764,3.73,12110,1,12110,1,5.6723e-05,1.9148e-09,0,0.00053946,-1.0382e-05,-13.679,611.77,0,1.9634e+08,16.035,12109,12992,1,12992,1,0.0010946,4.1707e-09,0,0.0010946,0.00018404,3.41e+08,1347,0,3.9908e+08,207.59,12991,12110,1,12110,1,5.6723e-05,2.1098e-09,0,0.00053815,-1.0395e-05,2.1091e+07,657.49,0,2.0081e+08,8.9007,12109,11203,1,11203,1,-0.00098117,-8.3037e-10,0,1.8282e-05,-0.00020469,-3.9908e+08,-284.4,0,6.767e+06,-119.66,11202,11669,1,11669,1,-0.00048143,8.401e-10,0,0.00026908,-0.00011115,-1.9581e+08,235.51,0,1.0364e+08,-24.56,11668,12551,1,12551,1,0.00059488,3.1675e-09,0,0.00080724,9.0363e-05,2.0148e+08,1021.2,0,2.8705e+08,48.84,12550,510.38,0,510.38,0,0.00062119,1.3914e-09,0,0.00031291,0.00011631,2.2519e+08,451.11,0,1.1018e+08,57.235,510.38,1
1764,3.74,12110,1,12110,1,5.7218e-05,6.845e-10,0,0.00054099,-1.0472e-05,16.736,225.7,0,1.9676e+08,8.032,12109,12992,1,12992,1,0.001098,2.8131e-09,0,0.001098,0.00018449,3.415e+08,908.27,0,4.0005e+08,164.6,12991,12110,1,12110,1,5.7218e-05,5.4393e-10,0,0.00053966,-1.0485e-05,2.1266e+07,168.25,0,2.0126e+08,-3.1631,12109,11203,1,11203,1,-0.00098356,-5.8087e-10,0,1.8669e-05,-0.00020532,-4.0005e+08,-157.51,0,6.9114e+06,-136.91,11202,11669,1,11669,1,-0.00048244,-1.6742e-11,0,0.00026983,-0.00011152,-1.9622e+08,-4.9998,0,1.0397e+08,-25.669,11668,12551,1,12551,1,0.00059688,1.3242e-09,0,0.00080949,9.0553e-05,2.0193e+08,429.43,0,2.8753e+08,32.193,12550,510.38,0,510.38,0,0.00062292,8.3947e-10,0,0.0003138,0.00011664,2.2566e+08,272.6,0,1.1039e+08,47.852,510.38,1
1764,3.75,12110,1,12110,1,5.7716e-05,1.4662e-09,0,0.00054252,-1.0563e-05,-6.3084,469.54,0,1.9718e+08,18.141,12109,12992,1,12992,1,0.0011014,3.41e-09,0,0.0011014,0.00018494,3.42e+08,1098.1,0,4.0103e+08,154.65,12991,12110,1,12110,1,5.7715e-05,1.5463e-09,0,0.00054116,-1.0575e-05,2.1441e+07,478.45,0,2.017e+08,9.3733,12109,11203,1,11203,1,-0.00098596,-5.9983e-10,0,1.906e-05,-0.00020595,-4.0103e+08,-192.86,0,7.0573e+06,-78.055,11202,11669,1,11669,1,-0.00048344,5.9477e-10,0,0.00027058,-0.00011189,-1.9663e+08,180.24,0,1.0431e+08,-10.067,11668,12551,1,12551,1,0.00059887,2.3719e-09,0,0.00081174,9.0742e-05,2.0238e+08,765.41,0,2.88e+08,40.992,12550,510.38,0,510.38,0,0.00062465,1.0803e-09,0,0.00031469,0.00011696,2.2613e+08,351.45,0,1.1061e+08,38.061,510.38,1
1764,3.76,12110,1,12110,1,5.8213e-05,-1.5382e-09,0,0.00054403,-1.0654e-05,-147.57,-478.15,0,1.9759e+08,4.6884,12109,12992,1,12992,1,0.0011047,1.7463e-09,0,0.0011047,0.00018539,3.4249e+08,570.96,0,4.0199e+08,186.87,12991,12110,1,12110,1,5.8214e-05,-1.3007e-09,0,0.00054264,-1.0666e-05,2.1617e+07,-410.7,0,2.0214e+08,-2.1211,12109,11203,1,11203,1,-0.00098832,-5.1561e-09,0,1.9451e-05,-0.00020658,-4.0199e+08,-1618.7,0,7.2032e+06,-168,11202,11669,1,11669,1,-0.00048443,-3.0317e-09,0,0.00027132,-0.00011226,-1.9703e+08,-944.98,0,1.0464e+08,-43.207,11668,12551,1,12551,1,0.00060085,2.9724e-11,0,0.00081396,9.0927e-05,2.0282e+08,9.4447,0,2.8847e+08,47.195,12550,510.38,0,510.38,0,0.00062636,1.778e-09,0,0.00031557,0.00011728,2.266e+08,557.52,0,1.1082e+08,64.033,510.38,1
1764,3.77,12110,1,12110,1,5.8714e-05,2.2054e-09,0,0.00054556,-1.0746e-05,45.128,692.62,0,1.9801e+08,-16.819,12109,12992,1,12992,1,0.0011082,6.0457e-09,0,0.0011082,0.00018584,3.4299e+08,1936.8,0,4.0296e+08,247.64,12991,12110,1,12110,1,5.8714e-05,2.2246e-09,0,0.00054415,-1.0757e-05,2.1793e+07,696.04,0,2.0259e+08,-26.926,12109,11203,1,11203,1,-0.00099073,-8.6892e-10,0,1.9845e-05,-0.00020721,-4.0296e+08,-297.6,0,7.3498e+06,-250.36,11202,11669,1,11669,1,-0.00048543,8.7802e-10,0,0.00027207,-0.00011263,-1.9744e+08,278.29,0,1.0497e+08,-74.674,11668,12551,1,12551,1,0.00060286,3.2671e-09,0,0.00081622,9.1116e-05,2.0327e+08,1026.4,0,2.8894e+08,32.338,12550,510.38,0,510.38,0,0.0006281,1.6971e-09,0,0.00031647,0.0001176,2.2707e+08,539.57,0,1.1103e+08,95.57,510.38,1
1764,3.78,12110,1,12110,1,5.9219e-05,2.4201e-09,0,0.00054708,-1.0838e-05,32.213,771.68,0,1.9843e+08,40.201,12109,12992,1,12992,1,0.0011116,8.7795e-09,0,0.0011116,0.00018628,3.4347e+08,2807.3,0,4.0393e+08,306.88,12991,12110,1,12110,1,5.9219e-05,1.8556e-09,0,0.00054564,-1.0849e-05,2.1971e+07,578.55,0,2.0303e+08,33.016,12109,11203,1,11203,1,-0.00099311,-1.1125e-09,0,2.0244e-05,-0.00020784,-4.0393e+08,-343.13,0,7.4981e+06,-183.87,11202,11669,1,11669,1,-0.00048642,4.5609e-10,0,0.00027282,-0.000113,-1.9784e+08,139.06,0,1.0531e+08,-24.264,11668,12551,1,12551,1,0.00060486,4.0566e-09,0,0.00081846,9.1303e-05,2.0371e+08,1295.6,0,2.8941e+08,84.683,12550,510.38,0,510.38,0,0.00062982,2.3568e-09,0,0.00031736,0.00011793,2.2753e+08,758.93,0,1.1124e+08,85.168,510.38,1
1764,3.79,12110,1,12110,1,5.9727e-05,3.0646e-09,0,0.00054861,-1.0931e-05,117.85,979.72,0,1.9884e+08,20.02,12109,12992,1,12992,1,0.001115,8.8498e-09,0,0.001115,0.00018673,3.4396e+08,2851.9,0,4.049e+08,284.22,12991,12110,1,12110,1,5.9727e-05,2.7756e-09,0,0.00054713,-1.0941e-05,2.215e+07,861.36,0,2.0347e+08,16.7,12109,11203,1,11203,1,-0.00099549,-1.4771e-09,0,2.0644e-05,-0.00020848,-4.049e+08,-448.45,0,7.6466e+06,-198.97,11202,11669,1,11669,1,-0.00048741,5.9975e-10,0,0.00027357,-0.00011337,-1.9824e+08,178.4,0,1.0556e+08,-47.304,11668,12551,1,12551,1,0.00060686,5.3684e-09,0,0.00082071,9.1489e-05,2.0416e+08,1697,0,2.8987e+08,84.935,12550,510.38,0,510.38,0,0.00063155,2.7519e-09,0,0.00031825,0.00011825,2.28e+08,890.76,0,1.1146e+08,87.707,510.38,1
1764,3.8,12110,1,12110,1,6.024e-05,2.7483e-10,0,0.00055015,-1.1025e-05,134.45,103.35,0,1.9926e+08,-19.277,12109,12992,1,12992,1,0.0011184,2.214e-09,0,0.0011184,0.00018718,3.4444e+08,757.93,0,4.0587e+08,66.424,12991,12110,1,12110,1,6.0241e-05,1.1139e-10,0,0.00054865,-1.1035e-05,2.233e+07,34.378,0,2.0392e+08,-14.255,12109,11203,1,11203,1,-0.00099788,-1.2678e-09,0,2.1048e-05,-0.00020911,-4.0587e+08,-388.55,0,7.7965e+06,-134.83,11202,11669,1,11669,1,-0.00048841,-5.203e-10,0,0.00027433,-0.00011375,-1.9865e+08,-145.58,0,1.0581e+08,-42.205,11668,12551,1,12551,1,0.00060889,1.0159e-09,0,0.00082298,9.1678e-05,2.0461e+08,327.21,0,2.9035e+08,7.2176,12550,510.38,0,510.38,0,0.0006333,9.122e-10,0,0.00031916,0.00011858,2.2847e+08,295.07,0,1.1167e+08,36.495,510.38,1
1764,3.81,12110,1,12110,1,6.0759e-05,7.6782e-10,0,0.00055168,-1.112e-05,35.377,249.17,0,1.9967e+08,-1.6508,12109,12992,1,12992,1,0.0011218,3.2191e-09,0,0.0011218,0.00018763,3.4492e+08,1036.7,0,4.0684e+08,119.32,12991,12110,1,12110,1,6.0759e-05,4.9227e-10,0,0.00055015,-1.1129e-05,2.2512e+07,153.2,0,2.0436e+08,-2.2459,12109,11203,1,11203,1,-0.0010003,-4.1034e-10,0,2.1461e-05,-0.00020975,-4.0684e+08,-108.5,0,7.9496e+06,-81.906,11202,11669,1,11669,1,-0.00048939,6.9491e-11,0,0.00027508,-0.00011412,-1.9905e+08,21.504,0,1.0606e+08,-23.69,11668,12551,1,12551,1,0.00061091,1.3495e-09,0,0.00082523,9.1863e-05,2.0505e+08,436.35,0,2.908e+08,17.04,12550,510.38,0,510.38,0,0.00063503,8.5547e-10,0,0.00032005,0.0001189,2.2893e+08,279.42,0,1.1188e+08,32.167,510.38,1
1764,3.82,12110,1,12110,1,6.1278e-05,-1.2394e-09,0,0.00055322,-1.1215e-05,57.117,-385.37,0,2.0008e+08,-0.060879,12109,12992,1,12992,1,0.0011252,6.2571e-10,0,0.0011252,0.00018807,3.454e+08,214.3,0,4.0781e+08,116.78,12991,12110,1,12110,1,6.1279e-05,-1.2473e-09,0,0.00055166,-1.1224e-05,2.2694e+07,-398.19,0,2.048e+08,0.071324,12109,11203,1,11203,1,-0.0010026,-3.1158e-09,0,2.1874e-05,-0.00021038,-4.0781e+08,-975.79,0,8.1023e+06,-109.35,11202,11669,1,11669,1,-0.00049038,-2.1151e-09,0,0.00027583,-0.0001145,-1.9945e+08,-654.91,0,1.0631e+08,-26.704,11668,12551,1,12551,1,0.00061294,-4.0511e-10,0,0.00082748,9.2048e-05,2.055e+08,-122.97,0,2.9126e+08,21.306,12550,510.38,0,510.38,0,0.00063677,1.0179e-09,0,0.00032095,0.00011922,2.2939e+08,318.41,0,1.1209e+08,41.114,510.38,1
1764,3.83,12110,1,12110,1,6.1801e-05,-3.4e-09,0,0.00055475,-1.131e-05,-75.292,-1073.5,0,2.005e+08,34.091,12109,12992,1,12992,1,0.0011286,1.1436e-09,0,0.0011286,0.00018852,3.4587e+08,391.68,0,4.0878e+08,264.07,12991,12110,1,12110,1,6.1799e-05,-3.7113e-09,0,0.00055316,-1.1319e-05,2.2876e+07,-1175.9,0,2.0524e+08,34.948,12109,11203,1,11203,1,-0.001005,-7.3217e-09,0,2.2288e-05,-0.00021102,-4.0878e+08,-2313.9,0,8.2555e+06,-216.4,11202,11669,1,11669,1,-0.00049136,-5.2344e-09,0,0.00027658,-0.00011488,-1.9985e+08,-1677.9,0,1.0655e+08,-18,11668,12551,1,12551,1,0.00061496,-1.737e-09,0,0.00082974,9.2232e-05,2.0594e+08,-520.6,0,2.9172e+08,83.287,12550,510.38,0,510.38,0,0.00063851,2.2092e-09,0,0.00032185,0.00011955,2.2986e+08,708.38,0,1.123e+08,86.711,510.38,1
1764,3.84,12110,1,12110,1,6.2325e-05,2.8317e-09,0,0.00055627,-1.1406e-05,245.67,876.95,0,2.009e+08,8.7575,12109,12992,1,12992,1,0.001132,8.833e-09,0,0.001132,0.00018896,3.4633e+08,2763,0,4.0974e+08,269.63,12991,12110,1,12110,1,6.2326e-05,2.4614e-09,0,0.00055465,-1.1414e-05,2.3061e+07,752.47,0,2.0568e+08,2.7537,12109,11203,1,11203,1,-0.0010074,-1.5138e-09,0,2.2705e-05,-0.00021165,-4.0974e+08,-518.45,0,8.4095e+06,-242.15,11202,11669,1,11669,1,-0.00049232,7.1462e-10,0,0.00027732,-0.00011525,-2.0024e+08,221.78,0,1.068e+08,-60.627,11668,12551,1,12551,1,0.00061698,4.7495e-09,0,0.00083197,9.2415e-05,2.0637e+08,1483.3,0,2.9216e+08,76.329,12550,510.38,0,510.38,0,0.00064022,2.5145e-09,0,0.00032274,0.00011987,2.3031e+08,785.46,0,1.1251e+08,93.92,510.38,1
1764,3.85,12110,1,12110,1,6.2852e-05,1.4936e-09,0,0.00055781,-1.1502e-05,-13.89,476.06,0,2.0131e+08,-10.754,12109,12992,1,12992,1,0.0011355,4.8503e-09,0,0.0011355,0.00018941,3.468e+08,1560.1,0,4.1071e+08,182.57,12991,12110,1,12110,1,6.2852e-05,1.3642e-09,0,0.00055616,-1.151e-05,2.3244e+07,416.28,0,2.0612e+08,-12.352,12109,11203,1,11203,1,-0.0010098,-6.2729e-10,0,2.3125e-05,-0.00021229,-4.1071e+08,-171.74,0,8.5643e+06,-146.53,11202,11669,1,11669,1,-0.00049331,5.5096e-10,0,0.00027808,-0.00011563,-2.0064e+08,162.94,0,1.0705e+08,-46.964,11668,12551,1,12551,1,0.00061901,2.3245e-09,0,0.00083424,9.26e-05,2.0682e+08,748.29,0,2.9262e+08,24.106,12550,510.38,0,510.38,0,0.00064197,1.1942e-09,0,0.00032365,0.00012019,2.3077e+08,389.82,0,1.1272e+08,54.524,510.38,1
1764,3.86,12110,1,12110,1,6.3384e-05,1.7471e-09,0,0.00055933,-1.16e-05,147.49,558.68,0,2.0171e+08,18.664,12109,12992,1,12992,1,0.0011389,8.8658e-09,0,0.0011389,0.00018985,3.4725e+08,2828,0,4.1166e+08,408.14,12991,12110,1,12110,1,6.3383e-05,1.204e-09,0,0.00055765,-1.1607e-05,2.343e+07,375.07,0,2.0655e+08,3.6377,12109,11203,1,11203,1,-0.0010121,-1.8494e-09,0,2.355e-05,-0.00021293,-4.1166e+08,-576.93,0,8.7209e+06,-245.92,11202,11669,1,11669,1,-0.00049427,-2.6646e-10,0,0.00027883,-0.000116,-2.0103e+08,-78.83,0,1.0729e+08,-67.065,11668,12551,1,12551,1,0.00062104,3.386e-09,0,0.00083648,9.2781e-05,2.0725e+08,1085.6,0,2.9306e+08,90.301,12550,510.38,0,510.38,0,0.00064369,2.3335e-09,0,0.00032454,0.00012051,2.3122e+08,745.29,0,1.1293e+08,111.57,510.38,1
1764,3.87,12110,1,12110,1,6.3918e-05,4.2917e-10,0,0.00056088,-1.1697e-05,-16.443,147.49,0,2.0213e+08,-23.797,12109,12992,1,12992,1,0.0011423,1.7607e-09,0,0.0011423,0.0001903,3.4772e+08,602.76,0,4.1263e+08,40.106,12991,12110,1,12110,1,6.3918e-05,2.9046e-10,0,0.00055917,-1.1705e-05,2.3616e+07,96.756,0,2.0699e+08,-23.684,12109,11203,1,11203,1,-0.0010145,-6.2017e-10,0,2.3975e-05,-0.00021357,-4.1263e+08,-167.06,0,8.8771e+06,-80.203,11202,11669,1,11669,1,-0.00049525,-3.641e-11,0,0.00027959,-0.00011639,-2.0143e+08,-10.358,0,1.0755e+08,-42.303,11668,12551,1,12551,1,0.00062309,8.9219e-10,0,0.00083876,9.2967e-05,2.077e+08,293.93,0,2.9351e+08,-6.305,12550,510.38,0,510.38,0,0.00064545,5.8737e-10,0,0.00032545,0.00012084,2.3169e+08,193.89,0,1.1314e+08,23.524,510.38,1
1764,3.88,12110,1,12110,1,6.4461e-05,1.6278e-09,0,0.00056243,-1.1797e-05,-26.464,517.29,0,2.0254e+08,-19.225,12109,12992,1,12992,1,0.0011458,3.5279e-09,0,0.0011458,0.00019075,3.4818e+08,1186.9,0,4.136e+08,135.97,12991,12110,1,12110,1,6.4461e-05,1.7034e-09,0,0.00056068,-1.1804e-05,2.3805e+07,535.19,0,2.0743e+08,-17.924,12109,11203,1,11203,1,-0.0010169,-5.6427e-10,0,2.4411e-05,-0.00021421,-4.136e+08,-193.26,0,9.0372e+06,-132.78,11202,11669,1,11669,1,-0.00049622,6.9964e-10,0,0.00028034,-0.00011677,-2.0183e+08,218.29,0,1.0779e+08,-49.239,11668,12551,1,12551,1,0.00062514,2.5982e-09,0,0.00084103,9.3149e-05,2.0813e+08,837.44,0,2.9396e+08,11.988,12550,510.38,0,510.38,0,0.00064719,1.152e-09,0,0.00032636,0.00012117,2.3215e+08,374.97,0,1.1335e+08,47.695,510.38,1
1764,3.89,12110,1,12110,1,6.5005e-05,1.414e-09,0,0.00056397,-1.1896e-05,39.371,452.49,0,2.0294e+08,-14.367,12109,12992,1,12992,1,0.0011493,2.8343e-09,0,0.0011493,0.00019119,3.4862e+08,942.94,0,4.1456e+08,121.41,12991,12110,1,12110,1,6.5005e-05,1.538e-09,0,0.00056219,-1.1903e-05,2.3994e+07,481.62,0,2.0786e+08,-12.907,12109,11203,1,11203,1,-0.0010192,-4.2104e-10,0,2.4846e-05,-0.00021485,-4.1456e+08,-120.22,0,9.1972e+06,-102.33,11202,11669,1,11669,1,-0.00049719,6.855e-10,0,0.0002811,-0.00011715,-2.0222e+08,200.41,0,1.0804e+08,-42.159,11668,12551,1,12551,1,0.0006272,2.2236e-09,0,0.00084329,9.3331e-05,2.0857e+08,716.69,0,2.944e+08,11.69,12550,510.38,0,510.38,0,0.00064893,9.2258e-10,0,0.00032727,0.00012149,2.326e+08,304.94,0,1.1356e+08,40.973,510.38,1
1764,3.9,12110,1,12110,1,6.5552e-05,-1.0869e-10,0,0.00056551,-1.1996e-05,-175.4,-25.048,0,2.0335e+08,16.952,12109,12992,1,12992,1,0.0011527,1.2883e-09,0,0.0011527,0.00019163,3.4907e+08,413.59,0,4.1552e+08,94.613,12991,12110,1,12110,1,6.5551e-05,-1.2656e-11,0,0.0005637,-1.2003e-05,2.4184e+07,-3.9295,0,2.0829e+08,15.42,12109,11203,1,11203,1,-0.0010216,-1.5041e-09,0,2.5285e-05,-0.0002155,-4.1552e+08,-446.93,0,9.3579e+06,-52.555,11202,11669,1,11669,1,-0.00049815,-5.5626e-10,0,0.00028185,-0.00011753,-2.0261e+08,-168.04,0,1.0829e+08,-2.869,11668,12551,1,12551,1,0.00062926,3.5293e-10,0,0.00084556,9.3512e-05,2.0901e+08,117.67,0,2.9487e+08,35.604,12550,510.38,0,510.38,0,0.00065068,6.5341e-10,0,0.00032817,0.00012182,2.3305e+08,202.29,0,1.1376e+08,27.079,510.38,1
1764,3.91,12110,1,12110,1,6.6102e-05,2.1407e-10,0,0.00056704,-1.2097e-05,121.62,69.435,0,2.0375e+08,-5.9802,12109,12992,1,12992,1,0.0011562,2.1044e-09,0,0.0011562,0.00019207,3.4951e+08,659.46,0,4.1648e+08,142.24,12991,12110,1,12110,1,6.6102e-05,2.4344e-11,0,0.00056521,-1.2104e-05,2.4375e+07,7.5515,0,2.0872e+08,-4.6523,12109,11203,1,11203,1,-0.0010239,-4.3169e-10,0,2.573e-05,-0.00021614,-4.1648e+08,-147.84,0,9.5206e+06,-136.17,11202,11669,1,11669,1,-0.00049911,-1.3082e-10,0,0.0002826,-0.00011791,-2.03e+08,-36.128,0,1.0853e+08,-39.787,11668,12551,1,12551,1,0.00063131,4.7683e-10,0,0.00084781,9.3692e-05,2.0944e+08,151.39,0,2.9539e+08,28.107,12550,510.38,0,510.38,0,0.00065241,4.7705e-10,0,0.00032908,0.00012214,2.3351e+08,152.14,0,1.1397e+08,49.238,510.38,1
1764,3.92,12110,1,12110,1,6.6651e-05,-9.4863e-10,0,0.00056857,-1.2197e-05,-92.416,-293.99,0,2.0414e+08,15.781,12109,12992,1,12992,1,0.0011596,1.2201e-09,0,0.0011596,0.00019251,3.4995e+08,391.26,0,4.1743e+08,114.85,12991,12110,1,12110,1,6.6651e-05,-6.3945e-10,0,0.0005667,-1.2204e-05,2.4566e+07,-193.42,0,2.0915e+08,14.318,12109,11203,1,11203,1,-0.0010263,-3.7634e-09,0,2.6172e-05,-0.00021678,-4.1743e+08,-1172,0,9.6824e+06,-113.54,11202,11669,1,11669,1,-0.00050005,-1.9289e-09,0,0.00028335,-0.00011829,-2.0338e+08,-607.69,0,1.0877e+08,-15.566,11668,12551,1,12551,1,0.00063335,1.5932e-10,0,0.00085005,9.387e-05,2.0987e+08,47.938,0,2.959e+08,50.584,12550,510.38,0,510.38,0,0.00065414,1.2952e-09,0,0.00032998,0.00012246,2.3395e+08,404.83,0,1.1417e+08,45.554,510.38,1
1764,3.93,12110,1,12110,1,6.7205e-05,7.8657e-10,0,0.00057012,-1.2299e-05,-35.369,243.97,0,2.0455e+08,-16.348,12109,12992,1,12992,1,0.0011631,2.3751e-09,0,0.0011631,0.00019296,3.5039e+08,728.42,0,4.1839e+08,84.213,12991,12110,1,12110,1,6.7205e-05,7.0235e-10,0,0.00056822,-1.2305e-05,2.4758e+07,211.11,0,2.0959e+08,-13.253,12109,11203,1,11203,1,-0.0010287,-7.3572e-10,0,2.6617e-05,-0.00021742,-4.1839e+08,-236.58,0,9.845e+06,-129.68,11202,11669,1,11669,1,-0.00050102,1.399e-10,0,0.00028411,-0.00011868,-2.0378e+08,40.865,0,1.0902e+08,-44.343,11668,12551,1,12551,1,0.00063543,1.4397e-09,0,0.00085233,9.4052e-05,2.1031e+08,448.05,0,2.9643e+08,13.835,12550,510.38,0,510.38,0,0.00065589,7.6404e-10,0,0.00033089,0.00012279,2.3441e+08,242.56,0,1.1438e+08,39.535,510.38,1
1764,3.94,12110,1,12110,1,6.7768e-05,-2.3364e-09,0,0.00057166,-1.2401e-05,320.98,-727.63,0,2.0495e+08,6.0897,12109,12992,1,12992,1,0.0011665,1.049e-09,0,0.0011665,0.0001934,3.5083e+08,359.27,0,4.1935e+08,204.58,12991,12110,1,12110,1,6.7768e-05,-2.2235e-09,0,0.00056973,-1.2408e-05,2.4952e+07,-692.91,0,2.1001e+08,-1.6811,12109,11203,1,11203,1,-0.001031,-6.0667e-09,0,2.7072e-05,-0.00021807,-4.1935e+08,-1887,0,1.0011e+07,-126.09,11202,11669,1,11669,1,-0.00050196,-3.7033e-09,0,0.00028486,-0.00011906,-2.0416e+08,-1157.2,0,1.0926e+08,-39.794,11668,12551,1,12551,1,0.0006375,-9.843e-10,0,0.00085459,9.423e-05,2.1074e+08,-297.3,0,2.9694e+08,35.806,12550,510.38,0,510.38,0,0.00065763,1.7843e-09,0,0.0003318,0.00012311,2.3485e+08,559.04,0,1.1458e+08,64.422,510.38,1
1764,3.95,12110,1,12110,1,6.8328e-05,-2.9487e-09,0,0.00057319,-1.2504e-05,56.117,-930.91,0,2.0534e+08,25.899,12109,12992,1,12992,1,0.00117,1.7853e-09,0,0.00117,0.00019384,3.5125e+08,611.45,0,4.2031e+08,242.83,12991,12110,1,12110,1,6.8328e-05,-2.8109e-09,0,0.00057123,-1.2511e-05,2.5146e+07,-870.94,0,2.1044e+08,20.206,12109,11203,1,11203,1,-0.0010334,-8.709e-09,0,2.7524e-05,-0.00021872,-4.2031e+08,-2717.8,0,1.0175e+07,-199.04,11202,11669,1,11669,1,-0.0005029,-4.6052e-09,0,0.00028562,-0.00011944,-2.0454e+08,-1447.6,0,1.0951e+08,-34.035,11668,12551,1,12551,1,0.00063956,-1.1038e-09,0,0.00085685,9.4407e-05,2.1116e+08,-314.82,0,2.9745e+08,81.614,12550,510.38,0,510.38,0,0.00065936,2.4887e-09,0,0.00033271,0.00012344,2.353e+08,791.18,0,1.1478e+08,87.617,510.38,1
1764,3.96,12110,1,12110,1,6.8895e-05,-2.2434e-09,0,0.00057475,-1.2608e-05,149.8,-720.11,0,2.0574e+08,4.3849,12109,12992,1,12992,1,0.0011735,1.3419e-09,0,0.0011735,0.00019429,3.5168e+08,394,0,4.2127e+08,221.67,12991,12110,1,12110,1,6.8895e-05,-2.2161e-09,0,0.00057275,-1.2614e-05,2.5341e+07,-683.04,0,2.1087e+08,5.8904,12109,11203,1,11203,1,-0.0010357,-6.0211e-09,0,2.798e-05,-0.00021937,-4.2127e+08,-1927.9,0,1.0341e+07,-172.4,11202,11669,1,11669,1,-0.00050386,-3.7726e-09,0,0.00028638,-0.00011983,-2.0493e+08,-1211.6,0,1.0975e+08,-51.114,11668,12551,1,12551,1,0.00064165,-6.8432e-10,0,0.00085913,9.4587e-05,2.116e+08,-200.83,0,2.9797e+08,50.397,12550,510.38,0,510.38,0,0.00066112,1.8975e-09,0,0.00033362,0.00012377,2.3575e+08,615.54,0,1.1499e+08,77.338,510.38,1
1764,3.97,12110,1,12110,1,6.9464e-05,-3.1557e-09,0,0.00057629,-1.2712e-05,-239.54,-1003.2,0,2.0614e+08,-5.6812,12109,12992,1,12992,1,0.001177,1.9073e-09,0,0.001177,0.00019473,3.521e+08,580.86,0,4.2222e+08,251.59,12991,12110,1,12110,1,6.9462e-05,-3.154e-09,0,0.00057425,-1.2719e-05,2.5537e+07,-987.05,0,2.1129e+08,13.802,12109,11203,1,11203,1,-0.0010381,-8.8728e-09,0,2.8441e-05,-0.00022001,-4.2222e+08,-2810.9,0,1.0509e+07,-362.04,11202,11669,1,11669,1,-0.00050479,-5.5016e-09,0,0.00028713,-0.00012021,-2.0531e+08,-1745.3,0,1.1e+08,-75.26,11668,12551,1,12551,1,0.00064372,-7.4074e-10,0,0.00086139,9.4764e-05,2.1202e+08,-224.54,0,2.9847e+08,83.371,12550,510.38,0,510.38,0,0.00066286,2.7854e-09,0,0.00033453,0.00012409,2.3619e+08,890.37,0,1.1519e+08,127.93,510.38,1
1764,3.98,12110,1,12110,1,7.0039e-05,3.5867e-09,0,0.00057784,-1.2817e-05,224.05,1099.4,0,2.0653e+08,-33.025,12109,12992,1,12992,1,0.0011805,8.5107e-09,0,0.0011805,0.00019517,3.5253e+08,2589.9,0,4.2317e+08,226.22,12991,12110,1,12110,1,7.0041e-05,3.7088e-09,0,0.00057578,-1.2824e-05,2.5736e+07,1119.1,0,2.1172e+08,-37.683,12109,11203,1,11203,1,-0.0010404,-1.3008e-09,0,2.8909e-05,-0.00022066,-4.2317e+08,-445.51,0,1.0678e+07,-289.24,11202,11669,1,11669,1,-0.00050573,1.4293e-09,0,0.00028788,-0.0001206,-2.0569e+08,454.2,0,1.1024e+08,-108.75,11668,12551,1,12551,1,0.00064582,5.755e-09,0,0.00086366,9.4942e-05,2.1245e+08,1770.7,0,2.9898e+08,34.716,12550,510.38,0,510.38,0,0.00066461,2.6188e-09,0,0.00033545,0.00012442,2.3664e+08,806.12,0,1.1539e+08,102.41,510.38,1
1764,3.99,12110,1,12110,1,7.0618e-05,2.9279e-10,0,0.00057939,-1.2923e-05,166.54,98.773,0,2.0693e+08,-18.834,12109,12992,1,12992,1,0.001184,3.0826e-09,0,0.001184,0.0001956,3.5293e+08,985.7,0,4.2412e+08,105.8,12991,12110,1,12110,1,7.0619e-05,9.8e-11,0,0.00057729,-1.293e-05,2.5935e+07,29.416,0,2.1214e+08,-18.838,12109,11203,1,11203,1,-0.0010427,-1.7172e-09,0,2.9382e-05,-0.00022131,-4.2412e+08,-531.6,0,1.085e+07,-137.58,11202,11669,1,11669,1,-0.00050667,-5.7613e-10,0,0.00028865,-0.00012099,-2.0608e+08,-167.6,0,1.1048e+08,-43.848,11668,12551,1,12551,1,0.00064791,1.0713e-09,0,0.00086594,9.5118e-05,2.1288e+08,333.81,0,2.9949e+08,6.268,12550,510.38,0,510.38,0,0.00066636,1.1788e-09,0,0.00033637,0.00012474,2.3708e+08,376.02,0,1.1559e+08,39.084,510.38,1
1764,4,12110,1,12110,1,7.1199e-05,-2.7205e-09,0,0.00058093,-1.3029e-05,137.88,-844.38,0,2.0732e+08,28.656,12109,12992,1,12992,1,0.0011875,1.5887e-09,0,0.0011875,0.00019604,3.5335e+08,510.71,0,4.2507e+08,276.29,12991,12110,1,12110,1,7.1199e-05,-2.5292e-09,0,0.0005788,-1.3036e-05,2.6134e+07,-779.77,0,2.1257e+08,21.542,12109,11203,1,11203,1,-0.0010451,-7.77e-09,0,2.9856e-05,-0.00022196,-4.2507e+08,-2416.5,0,1.1021e+07,-190.75,11202,11669,1,11669,1,-0.0005076,-4.918e-09,0,0.0002894,-0.00012138,-2.0645e+08,-1527.3,0,1.1072e+08,-43.532,11668,12551,1,12551,1,0.00065,-3.3686e-10,0,0.0008682,9.5293e-05,2.133e+08,-94.134,0,2.9999e+08,94.458,12550,510.38,0,510.38,0,0.0006681,2.5254e-09,0,0.00033728,0.00012507,2.3752e+08,792.13,0,1.1579e+08,98.928,510.38,1
1764,4.01,12110,1,12110,1,7.1781e-05,1.1818e-09,0,0.00058247,-1.3135e-05,32.223,357.89,0,2.0771e+08,44.683,12109,12992,1,12992,1,0.001191,9.0362e-09,0,0.001191,0.00019648,3.5375e+08,2830.7,0,4.2601e+08,356.12,12991,12110,1,12110,1,7.1781e-05,5.6222e-10,0,0.0005803,-1.3143e-05,2.6334e+07,164.26,0,2.1299e+08,49.055,12109,11203,1,11203,1,-0.0010474,-3.0057e-09,0,3.0328e-05,-0.00022261,-4.2601e+08,-963.26,0,1.1192e+07,-230.5,11202,11669,1,11669,1,-0.00050852,-5.8944e-10,0,0.00029015,-0.00012177,-2.0683e+08,-190.27,0,1.1096e+08,-25.554,11668,12551,1,12551,1,0.00065209,2.6562e-09,0,0.00087046,9.5468e-05,2.1373e+08,794.25,0,3.0049e+08,106.76,12550,510.38,0,510.38,0,0.00066984,2.6741e-09,0,0.00033819,0.00012539,2.3795e+08,842.46,0,1.1599e+08,112.94,510.38,1
1764,4.02,12110,1,12110,1,7.2371e-05,3.6401e-10,0,0.00058404,-1.3244e-05,361.27,113.49,0,2.0811e+08,-43.163,12109,12992,1,12992,1,0.0011945,1.1398e-09,0,0.0011945,0.00019692,3.5416e+08,390.02,0,4.2697e+08,94.699,12991,12110,1,12110,1,7.2371e-05,4.1691e-10,0,0.00058184,-1.3251e-05,2.6536e+07,122.16,0,2.1342e+08,-39.454,12109,11203,1,11203,1,-0.0010498,-1.2348e-09,0,3.081e-05,-0.00022327,-4.2697e+08,-331.11,0,1.1365e+07,-226.01,11202,11669,1,11669,1,-0.00050947,-1.0259e-11,0,0.00029092,-0.00012216,-2.0721e+08,-3.1734,0,1.1121e+08,-92.246,11668,12551,1,12551,1,0.00065421,7.555e-10,0,0.00087277,9.5646e-05,2.1416e+08,222.06,0,3.01e+08,5.6197,12550,510.38,0,510.38,0,0.00067162,4.5832e-10,0,0.00033913,0.00012572,2.384e+08,140.38,0,1.162e+08,61.896,510.38,1
1764,4.03,12110,1,12110,1,7.2966e-05,8.0766e-10,0,0.0005856,-1.3352e-05,-171.25,253.79,0,2.085e+08,28.776,12109,12992,1,12992,1,0.001198,4.6865e-09,0,0.001198,0.00019736,3.5456e+08,1464.1,0,4.2792e+08,180.52,12991,12110,1,12110,1,7.2966e-05,3.501e-10,0,0.00058336,-1.336e-05,2.674e+07,107.15,0,2.1383e+08,34.5,12109,11203,1,11203,1,-0.0010521,-1.6615e-09,0,3.1297e-05,-0.00022392,-4.2792e+08,-509.73,0,1.1541e+07,-163.51,11202,11669,1,11669,1,-0.00051039,-2.7232e-10,0,0.00029168,-0.00012255,-2.0759e+08,-80.45,0,1.1145e+08,-12.676,11668,12551,1,12551,1,0.00065633,1.8659e-09,0,0.00087504,9.582e-05,2.1458e+08,574.92,0,3.0149e+08,77.037,12550,510.38,0,510.38,0,0.00067337,1.4956e-09,0,0.00034005,0.00012605,2.3884e+08,472.82,0,1.164e+08,62.081,510.38,1
1764,4.04,12110,1,12110,1,7.3563e-05,1.7002e-09,0,0.00058715,-1.3462e-05,-86.782,534.43,0,2.0889e+08,0.49832,12109,12992,1,12992,1,0.0012016,5.2703e-09,0,0.0012016,0.0001978,3.5496e+08,1655,0,4.2888e+08,243.14,12991,12110,1,12110,1,7.3564e-05,1.511e-09,0,0.00058488,-1.347e-05,2.6944e+07,455.29,0,2.1426e+08,-0.66358,12109,11203,1,11203,1,-0.0010544,-8.8369e-10,0,3.1785e-05,-0.00022458,-4.2888e+08,-266.23,0,1.1717e+07,-231.31,11202,11669,1,11669,1,-0.00051132,4.8271e-10,0,0.00029244,-0.00012295,-2.0797e+08,145.55,0,1.1169e+08,-60.892,11668,12551,1,12551,1,0.00065845,2.7598e-09,0,0.00087733,9.5995e-05,2.15e+08,870.26,0,3.0199e+08,67.2,12550,510.38,0,510.38,0,0.00067512,1.4926e-09,0,0.00034097,0.00012638,2.3928e+08,478.88,0,1.166e+08,94.251,510.38,1
1764,4.05,12110,1,12110,1,7.4161e-05,4.0318e-09,0,0.00058868,-1.3571e-05,27.815,1266.4,0,2.0927e+08,-3.6242,12109,12992,1,12992,1,0.0012051,1.2248e-08,0,0.0012051,0.00019824,3.5535e+08,3812.2,0,4.2982e+08,360.61,12991,12110,1,12110,1,7.4161e-05,3.6517e-09,0,0.00058638,-1.3579e-05,2.7148e+07,1130.5,0,2.1467e+08,-11.588,12109,11203,1,11203,1,-0.0010568,-1.6689e-09,0,3.2275e-05,-0.00022523,-4.2982e+08,-529.89,0,1.1893e+07,-368.41,11202,11669,1,11669,1,-0.00051222,8.4113e-10,0,0.00029319,-0.00012334,-2.0833e+08,249.89,0,1.1193e+08,-110.52,11668,12551,1,12551,1,0.00066054,6.9482e-09,0,0.00087957,9.6164e-05,2.1542e+08,2189.9,0,3.0247e+08,115.16,12550,510.38,0,510.38,0,0.00067685,3.6461e-09,0,0.00034188,0.0001267,2.397e+08,1161.6,0,1.1679e+08,156.8,510.38,1
1764,4.06,12110,1,12110,1,7.4762e-05,5.2307e-10,0,0.00059026,-1.3681e-05,-130.66,188.58,0,2.0966e+08,-23.794,12109,12992,1,12992,1,0.0012086,2.6475e-09,0,0.0012086,0.00019867,3.5574e+08,906.25,0,4.3077e+08,164.09,12991,12110,1,12110,1,7.4762e-05,4.0115e-10,0,0.00058791,-1.369e-05,2.7354e+07,128.42,0,2.1509e+08,-19.41,12109,11203,1,11203,1,-0.0010591,-1.2435e-09,0,3.2763e-05,-0.00022589,-4.3077e+08,-324.5,0,1.2068e+07,-172.62,11202,11669,1,11669,1,-0.00051315,-3.5543e-10,0,0.00029396,-0.00012373,-2.0871e+08,-97.274,0,1.1217e+08,-62.099,11668,12551,1,12551,1,0.00066268,1.3383e-09,0,0.00088188,9.634e-05,2.1584e+08,443.12,0,3.0298e+08,21.079,12550,510.38,0,510.38,0,0.00067863,1.0268e-09,0,0.00034282,0.00012703,2.4015e+08,328.64,0,1.1699e+08,61.567,510.38,1
1764,4.07,12110,1,12110,1,7.5372e-05,8.5857e-10,0,0.00059181,-1.3793e-05,180.67,282.04,0,2.1005e+08,-28.721,12109,12992,1,12992,1,0.0012122,2.7994e-09,0,0.0012122,0.00019911,3.5612e+08,957.84,0,4.3171e+08,162.37,12991,12110,1,12110,1,7.5373e-05,7.9615e-10,0,0.00058943,-1.3802e-05,2.7562e+07,244.25,0,2.1551e+08,-24.34,12109,11203,1,11203,1,-0.0010614,-7.3448e-10,0,3.3267e-05,-0.00022655,-4.3171e+08,-231.97,0,1.2249e+07,-219.66,11202,11669,1,11669,1,-0.00051406,-8.1064e-11,0,0.00029472,-0.00012413,-2.0908e+08,-22.712,0,1.1241e+08,-68.451,11668,12551,1,12551,1,0.00066481,1.6946e-09,0,0.00088415,9.6511e-05,2.1626e+08,552.77,0,3.0346e+08,19.005,12550,510.38,0,510.38,0,0.00068038,1.001e-09,0,0.00034374,0.00012736,2.4058e+08,324.77,0,1.1719e+08,69.917,510.38,1
1764,4.08,12110,1,12110,1,7.5983e-05,2.7295e-09,0,0.00059337,-1.3904e-05,124.86,860.43,0,2.1043e+08,9.2985,12109,12992,1,12992,1,0.0012157,8.498e-09,0,0.0012157,0.00019955,3.5651e+08,2630.6,0,4.3266e+08,311.95,12991,12110,1,12110,1,7.5982e-05,2.2599e-09,0,0.00059095,-1.3914e-05,2.7769e+07,695.31,0,2.1592e+08,3.8153,12109,11203,1,11203,1,-0.0010637,-1.1726e-09,0,3.3769e-05,-0.00022721,-4.3266e+08,-401.59,0,1.2429e+07,-244.73,11202,11669,1,11669,1,-0.00051497,5.3852e-10,0,0.00029548,-0.00012452,-2.0945e+08,155.94,0,1.1265e+08,-63.288,11668,12551,1,12551,1,0.00066694,4.6872e-09,0,0.00088644,9.6683e-05,2.1668e+08,1481.8,0,3.0395e+08,75.32,12550,510.38,0,510.38,0,0.00068213,2.5138e-09,0,0.00034467,0.00012769,2.4101e+08,801.56,0,1.1739e+08,106.93,510.38,1
1764,4.09,12110,1,12110,1,7.6594e-05,-3.725e-10,0,0.0005949,-1.4016e-05,106.42,-96.147,0,2.1081e+08,-4.8374,12109,12992,1,12992,1,0.0012192,5.9358e-09,0,0.0012192,0.00019997,3.5687e+08,1889.8,0,4.3358e+08,189.9,12991,12110,1,12110,1,7.6595e-05,-3.0686e-10,0,0.00059245,-1.4026e-05,2.7978e+07,-89.499,0,2.1633e+08,-10.417,12109,11203,1,11203,1,-0.001066,-4.4668e-09,0,3.4273e-05,-0.00022785,-4.3358e+08,-1359.6,0,1.2609e+07,-180.18,11202,11669,1,11669,1,-0.00051586,-2.0294e-09,0,0.00029623,-0.00012491,-2.0981e+08,-617.2,0,1.1288e+08,-51.84,11668,12551,1,12551,1,0.00066905,8.8082e-10,0,0.00088868,9.685e-05,2.1708e+08,283.19,0,3.0442e+08,42.971,12550,510.38,0,510.38,0,0.00068386,2.2207e-09,0,0.00034559,0.00012801,2.4143e+08,693.72,0,1.1758e+08,71.268,510.38,1
1764,4.1,12110,1,12110,1,7.721e-05,3.6002e-10,0,0.00059649,-1.4129e-05,-152.53,116.31,0,2.112e+08,-32.961,12109,12992,1,12992,1,0.0012228,1.3636e-09,0,0.0012228,0.00020042,3.5727e+08,399.55,0,4.3454e+08,62.314,12991,12110,1,12110,1,7.7211e-05,4.4455e-10,0,0.000594,-1.414e-05,2.8187e+07,144.02,0,2.1675e+08,-24.261,12109,11203,1,11203,1,-0.0010684,-1.0308e-09,0,3.4781e-05,-0.00022852,-4.3454e+08,-271.51,0,1.279e+07,-133.92,11202,11669,1,11669,1,-0.00051679,-3.3378e-11,0,0.000297,-0.00012531,-2.1019e+08,-10.036,0,1.1313e+08,-61.828,11668,12551,1,12551,1,0.00067121,7.3576e-10,0,0.000891,9.7026e-05,2.1751e+08,235.41,0,3.0492e+08,-0.64551,12550,510.38,0,510.38,0,0.00068565,5.4293e-10,0,0.00034653,0.00012834,2.4188e+08,161.26,0,1.1778e+08,43.917,510.38,1
1764,4.11,12110,1,12110,1,7.7838e-05,-1.0902e-09,0,0.00059805,-1.4244e-05,-17.76,-333.13,0,2.1158e+08,6.3259,12109,12992,1,12992,1,0.0012264,5.9391e-10,0,0.0012264,0.00020085,3.5763e+08,203.41,0,4.3549e+08,85.676,12991,12110,1,12110,1,7.7838e-05,-1.1569e-09,0,0.00059553,-1.4255e-05,2.84e+07,-345.59,0,2.1716e+08,5.0961,12109,11203,1,11203,1,-0.0010707,-2.6421e-09,0,3.53e-05,-0.00022918,-4.3549e+08,-813.5,0,1.2975e+07,-65.933,11202,11669,1,11669,1,-0.00051769,-1.7042e-09,0,0.00029776,-0.00012571,-2.1056e+08,-522.41,0,1.1337e+08,-11.807,11668,12551,1,12551,1,0.00067336,-5.0321e-10,0,0.00089329,9.7195e-05,2.1792e+08,-137.34,0,3.054e+08,23.831,12550,510.38,0,510.38,0,0.00068741,8.0741e-10,0,0.00034746,0.00012867,2.423e+08,247.77,0,1.1797e+08,26.493,510.38,1
1764,4.12,12110,1,12110,1,7.8464e-05,-2.0051e-09,0,0.0005996,-1.4358e-05,21.86,-624.38,0,2.1196e+08,37.13,12109,12992,1,12992,1,0.0012299,1.7087e-09,0,0.0012299,0.00020129,3.58e+08,509.3,0,4.3643e+08,258.03,12991,12110,1,12110,1,7.8463e-05,-1.4921e-09,0,0.00059704,-1.437e-05,2.8611e+07,-467.12,0,2.1757e+08,30.307,12109,11203,1,11203,1,-0.001073,-7.1814e-09,0,3.5817e-05,-0.00022985,-4.3643e+08,-2222.3,0,1.316e+07,-119.29,11202,11669,1,11669,1,-0.00051858,-3.8733e-09,0,0.00029852,-0.00012611,-2.1092e+08,-1189.6,0,1.136e+08,-20.28,11668,12551,1,12551,1,0.00067551,-1.1205e-11,0,0.00089557,9.7363e-05,2.1833e+08,-3.3229,0,3.0588e+08,82.513,12550,510.38,0,510.38,0,0.00068916,2.2942e-09,0,0.00034839,0.000129,2.4272e+08,714.68,0,1.1817e+08,75.07,510.38,1
1764,4.13,12110,1,12110,1,7.9091e-05,-1.5203e-09,0,0.00060115,-1.4473e-05,473.01,-482.7,0,2.1233e+08,3.2737,12109,12992,1,12992,1,0.0012335,2.486e-09,0,0.0012335,0.00020171,3.5835e+08,770.58,0,4.3736e+08,176.55,12991,12110,1,12110,1,7.9091e-05,-9.6872e-10,0,0.00059855,-1.4485e-05,2.8824e+07,-297.59,0,2.1798e+08,0.77762,12109,11203,1,11203,1,-0.0010753,-6.5057e-09,0,3.6335e-05,-0.00023051,-4.3736e+08,-2034.9,0,1.3344e+07,-154.18,11202,11669,1,11669,1,-0.00051946,-3.2196e-09,0,0.00029928,-0.00012651,-2.1128e+08,-994.15,0,1.1384e+08,-50.371,11668,12551,1,12551,1,0.00067765,2.3777e-10,0,0.00089784,9.753e-05,2.1874e+08,67.138,0,3.0635e+08,54.057,12550,510.38,0,510.38,0,0.0006909,2.1989e-09,0,0.00034932,0.00012932,2.4314e+08,694.3,0,1.1836e+08,71.643,510.38,1
1764,4.14,12110,1,12110,1,7.9722e-05,2.8106e-09,0,0.00060272,-1.4588e-05,-18.964,855.81,0,2.1272e+08,-2.8693,12109,12992,1,12992,1,0.0012371,6.9605e-09,0,0.0012371,0.00020215,3.5873e+08,2140.4,0,4.3831e+08,208.97,12991,12110,1,12110,1,7.9723e-05,2.8013e-09,0,0.0006001,-1.4601e-05,2.9038e+07,837.52,0,2.1839e+08,-3.064,12109,11203,1,11203,1,-0.0010776,-8.861e-10,0,3.6856e-05,-0.00023117,-4.3831e+08,-303.49,0,1.3529e+07,-239,11202,11669,1,11669,1,-0.00052037,1.0976e-09,0,0.00030004,-0.00012691,-2.1165e+08,329.39,0,1.1408e+08,-65.678,11668,12551,1,12551,1,0.00067982,4.5114e-09,0,0.00090014,9.7701e-05,2.1916e+08,1376.2,0,3.0683e+08,63.838,12550,510.38,0,510.38,0,0.00069268,2.0938e-09,0,0.00035026,0.00012965,2.4358e+08,648.22,0,1.1855e+08,92.558,510.38,1
1764,4.15,12110,1,12110,1,8.0362e-05,2.3064e-09,0,0.00060429,-1.4705e-05,300.48,722.36,0,2.1309e+08,-11.644,12109,12992,1,12992,1,0.0012407,7.0955e-09,0,0.0012407,0.00020259,3.5908e+08,2208.6,0,4.3924e+08,287.29,12991,12110,1,12110,1,8.0363e-05,1.9881e-09,0,0.00060162,-1.4719e-05,2.9254e+07,600.19,0,2.188e+08,-14.29,12109,11203,1,11203,1,-0.0010799,-9.6068e-10,0,3.7388e-05,-0.00023184,-4.3924e+08,-308.74,0,1.3718e+07,-317.84,11202,11669,1,11669,1,-0.00052125,7.6221e-10,0,0.00030081,-0.00012731,-2.1201e+08,226.63,0,1.1431e+08,-78.577,11668,12551,1,12551,1,0.00068198,3.7533e-09,0,0.00090243,9.7868e-05,2.1957e+08,1173,0,3.073e+08,53.722,12550,510.38,0,510.38,0,0.00069444,1.9598e-09,0,0.0003512,0.00012998,2.44e+08,628.31,0,1.1875e+08,109.27,510.38,1
1764,4.16,12110,1,12110,1,8.1004e-05,-3.6018e-10,0,0.00060586,-1.4823e-05,-3.3212,-94.527,0,2.1347e+08,-4.2129,12109,12992,1,12992,1,0.0012442,1.923e-09,0,0.0012442,0.00020302,3.5943e+08,658.23,0,4.4018e+08,164.89,12991,12110,1,12110,1,8.1005e-05,-3.7877e-10,0,0.00060315,-1.4837e-05,2.947e+07,-108.57,0,2.1921e+08,-10.887,12109,11203,1,11203,1,-0.0010822,-1.7219e-09,0,3.792e-05,-0.00023251,-4.4018e+08,-487.31,0,1.3907e+07,-86.1,11202,11669,1,11669,1,-0.00052215,-1.0728e-09,0,0.00030158,-0.00012771,-2.1237e+08,-303.76,0,1.1455e+08,-31.115,11668,12551,1,12551,1,0.00068416,2.5263e-10,0,0.00090473,9.8037e-05,2.1998e+08,82.229,0,3.0778e+08,14.147,12550,510.38,0,510.38,0,0.00069621,8.2927e-10,0,0.00035214,0.00013031,2.4442e+08,252.25,0,1.1894e+08,41.36,510.38,1
1764,4.17,12110,1,12110,1,8.1651e-05,1.6727e-09,0,0.00060742,-1.4941e-05,-139.24,521.31,0,2.1384e+08,12.73,12109,12992,1,12992,1,0.0012478,4.6412e-09,0,0.0012478,0.00020345,3.5977e+08,1452.8,0,4.4111e+08,190.26,12991,12110,1,12110,1,8.1651e-05,1.5795e-09,0,0.00060468,-1.4956e-05,2.9688e+07,487.37,0,2.1961e+08,13.247,12109,11203,1,11203,1,-0.0010845,-3.3844e-10,0,3.8459e-05,-0.00023317,-4.4111e+08,-82.403,0,1.4098e+07,-101.49,11202,11669,1,11669,1,-0.00052303,8.7249e-10,0,0.00030234,-0.00012812,-2.1273e+08,245.48,0,1.1479e+08,-19.459,11668,12551,1,12551,1,0.00068633,2.4588e-09,0,0.00090702,9.8203e-05,2.2039e+08,773.73,0,3.0824e+08,44.371,12550,510.38,0,510.38,0,0.00069797,1.1009e-09,0,0.00035308,0.00013064,2.4484e+08,355.09,0,1.1913e+08,45.699,510.38,1
1764,4.18,12110,1,12110,1,8.23e-05,2.7339e-09,0,0.00060899,-1.506e-05,-114.69,855.14,0,2.1422e+08,3.6379,12109,12992,1,12992,1,0.0012515,6.1857e-09,0,0.0012515,0.00020389,3.6012e+08,2006.8,0,4.4206e+08,312,12991,12110,1,12110,1,8.2299e-05,2.9351e-09,0,0.00060621,-1.5075e-05,2.9906e+07,880.34,0,2.2002e+08,5.0247,12109,11203,1,11203,1,-0.0010868,-1.2582e-09,0,3.8997e-05,-0.00023385,-4.4206e+08,-423.17,0,1.4288e+07,-246.87,11202,11669,1,11669,1,-0.00052391,1.1128e-09,0,0.00030311,-0.00012852,-2.1308e+08,299.08,0,1.1502e+08,-66.565,11668,12551,1,12551,1,0.00068851,4.5449e-09,0,0.00090932,9.8369e-05,2.2079e+08,1434.7,0,3.0871e+08,74.804,12550,510.38,0,510.38,0,0.00069974,2.068e-09,0,0.00035402,0.00013097,2.4526e+08,659.31,0,1.1932e+08,108.73,510.38,1
1764,4.19,12110,1,12110,1,8.2953e-05,-1.718e-09,0,0.00061056,-1.5179e-05,-16.152,-507.18,0,2.1459e+08,17.438,12109,12992,1,12992,1,0.001255,1.2212e-09,0,0.001255,0.00020431,3.6046e+08,418.08,0,4.4298e+08,215.36,12991,12110,1,12110,1,8.2953e-05,-1.5698e-09,0,0.00060774,-1.5195e-05,3.0126e+07,-475.2,0,2.2042e+08,7.2967,12109,11203,1,11203,1,-0.0010891,-4.8473e-09,0,3.954e-05,-0.00023451,-4.4298e+08,-1444.6,0,1.448e+07,-84.674,11202,11669,1,11669,1,-0.00052478,-3.0461e-09,0,0.00030387,-0.00012892,-2.1344e+08,-911.29,0,1.1525e+08,-21.045,11668,12551,1,12551,1,0.00069069,-2.9339e-10,0,0.0009116,9.8533e-05,2.212e+08,-98.69,0,3.0917e+08,42.54,12550,510.38,0,510.38,0,0.0007015,1.6332e-09,0,0.00035496,0.0001313,2.4568e+08,485.4,0,1.1951e+08,55.831,510.38,1
1764,4.2,12110,1,12110,1,8.361e-05,1.2184e-09,0,0.00061214,-1.5299e-05,-14.492,375.85,0,2.1496e+08,6.4035,12109,12992,1,12992,1,0.0012586,4.5273e-09,0,0.0012586,0.00020475,3.608e+08,1398.3,0,4.4392e+08,279.41,12991,12110,1,12110,1,8.361e-05,1.1446e-09,0,0.00060927,-1.5316e-05,3.0346e+07,346.95,0,2.2083e+08,1.0213,12109,11203,1,11203,1,-0.0010914,-4.1457e-10,0,4.0091e-05,-0.00023518,-4.4392e+08,-120.68,0,1.4674e+07,-134.61,11202,11669,1,11669,1,-0.00052566,5.4897e-10,0,0.00030464,-0.00012933,-2.138e+08,171.7,0,1.1549e+08,-35.315,11668,12551,1,12551,1,0.00069288,1.7294e-09,0,0.00091391,9.87e-05,2.2161e+08,534.72,0,3.0964e+08,44.225,12550,510.38,0,510.38,0,0.00070328,9.1933e-10,0,0.00035591,0.00013163,2.461e+08,290.87,0,1.1971e+08,63.15,510.38,1
1764,4.21,12110,1,12110,1,8.4271e-05,1.3422e-09,0,0.00061369,-1.542e-05,86.298,421.8,0,2.1533e+08,36.276,12109,12992,1,12992,1,0.0012622,1.0682e-08,0,0.0012622,0.00020517,3.6112e+08,3286.4,0,4.4484e+08,552.26,12991,12110,1,12110,1,8.4272e-05,3.9298e-10,0,0.00061079,-1.5438e-05,3.0568e+07,116.3,0,2.2123e+08,7.1198,12109,11203,1,11203,1,-0.0010937,-2.2564e-09,0,4.0642e-05,-0.00023585,-4.4484e+08,-686.03,0,1.4869e+07,-388.31,11202,11669,1,11669,1,-0.00052652,-5.1568e-10,0,0.0003054,-0.00012974,-2.1415e+08,-149.36,0,1.1572e+08,-64.777,11668,12551,1,12551,1,0.00069506,2.5382e-09,0,0.00091619,9.8862e-05,2.22e+08,789.97,0,3.1009e+08,106.73,12550,510.38,0,510.38,0,0.00070503,2.5816e-09,0,0.00035684,0.00013195,2.4651e+08,806.93,0,1.1989e+08,151.04,510.38,1
1764,4.22,12110,1,12110,1,8.4935e-05,2.6371e-09,0,0.00061528,-1.5542e-05,105.8,827.52,0,2.157e+08,-31.463,12109,12992,1,12992,1,0.0012659,5.3152e-09,0,0.0012659,0.00020561,3.6146e+08,1818.4,0,4.4579e+08,135.58,12991,12110,1,12110,1,8.4936e-05,2.8626e-09,0,0.00061233,-1.556e-05,3.0791e+07,865.73,0,2.2163e+08,-24.169,12109,11203,1,11203,1,-0.001096,-7.797e-10,0,4.1195e-05,-0.00023653,-4.4579e+08,-253.39,0,1.5063e+07,-213.33,11202,11669,1,11669,1,-0.0005274,1.2579e-09,0,0.00030617,-0.00013014,-2.145e+08,351.76,0,1.1596e+08,-75.203,11668,12551,1,12551,1,0.00069727,4.2009e-09,0,0.00091851,9.9028e-05,2.2241e+08,1334.9,0,3.1056e+08,16.205,12550,510.38,0,510.38,0,0.00070681,1.759e-09,0,0.0003578,0.00013229,2.4693e+08,570.61,0,1.2008e+08,70.663,510.38,1
1764,4.23,12110,1,12110,1,8.5605e-05,7.1121e-10,0,0.00061684,-1.5664e-05,-24.958,241.56,0,2.1606e+08,29.136,12109,12992,1,12992,1,0.0012695,7.7722e-09,0,0.0012695,0.00020603,3.6178e+08,2453.7,0,4.4671e+08,248.29,12991,12110,1,12110,1,8.5606e-05,2.851e-10,0,0.00061385,-1.5684e-05,3.1015e+07,83.024,0,2.2203e+08,23.21,12109,11203,1,11203,1,-0.0010983,-3.4175e-09,0,4.1754e-05,-0.0002372,-4.4671e+08,-1003.9,0,1.526e+07,-174.49,11202,11669,1,11669,1,-0.00052825,-1.0795e-09,0,0.00030693,-0.00013055,-2.1485e+08,-305.29,0,1.1619e+08,-19.63,11668,12551,1,12551,1,0.00069947,2.3085e-09,0,0.00092079,9.9189e-05,2.2281e+08,702.57,0,3.1101e+08,85.037,12550,510.38,0,510.38,0,0.00070857,2.5634e-09,0,0.00035874,0.00013261,2.4734e+08,800.44,0,1.2027e+08,78.406,510.38,1
1764,4.24,12110,1,12110,1,8.6276e-05,-1.9286e-10,0,0.00061841,-1.5787e-05,-112.88,-45.623,0,2.1643e+08,-9.176,12109,12992,1,12992,1,0.0012731,3.3364e-09,0,0.0012731,0.00020646,3.621e+08,1137,0,4.4763e+08,256.64,12991,12110,1,12110,1,8.6277e-05,-3.6327e-10,0,0.00061539,-1.5807e-05,3.1239e+07,-104.7,0,2.2242e+08,-5.5717,12109,11203,1,11203,1,-0.0011006,-1.7195e-09,0,4.2318e-05,-0.00023787,-4.4763e+08,-528.98,0,1.5458e+07,-156.49,11202,11669,1,11669,1,-0.00052911,-9.9358e-10,0,0.0003077,-0.00013096,-2.152e+08,-288.28,0,1.1642e+08,-49.394,11668,12551,1,12551,1,0.00070167,3.3118e-10,0,0.00092309,9.9351e-05,2.2321e+08,103.01,0,3.1146e+08,22.547,12550,510.38,0,510.38,0,0.00071034,1.027e-09,0,0.00035969,0.00013294,2.4775e+08,325.44,0,1.2046e+08,68.134,510.38,1
1764,4.25,12110,1,12110,1,8.6956e-05,1.7052e-09,0,0.00062001,-1.5912e-05,79.427,529.42,0,2.168e+08,-28.145,12109,12992,1,12992,1,0.0012768,3.618e-09,0,0.0012768,0.0002069,3.6243e+08,1120.8,0,4.4858e+08,123.32,12991,12110,1,12110,1,8.6956e-05,1.8543e-09,0,0.00061694,-1.5932e-05,3.1466e+07,552.56,0,2.2283e+08,-28.219,12109,11203,1,11203,1,-0.0011029,-5.7788e-10,0,4.2888e-05,-0.00023855,-4.4858e+08,-197.92,0,1.5658e+07,-182.44,11202,11669,1,11669,1,-0.00052999,7.747e-10,0,0.00030847,-0.00013137,-2.1556e+08,225.86,0,1.1666e+08,-64.47,11668,12551,1,12551,1,0.0007039,2.6723e-09,0,0.00092542,9.9516e-05,2.2361e+08,838.55,0,3.1193e+08,6.1468,12550,510.38,0,510.38,0,0.00071213,1.1417e-09,0,0.00036065,0.00013328,2.4817e+08,363.33,0,1.2065e+08,59.686,510.38,1
1764,4.26,12110,1,12110,1,8.764e-05,2.0807e-09,0,0.00062157,-1.6036e-05,-12.467,652.24,0,2.1716e+08,29.043,12109,12992,1,12992,1,0.0012804,9.307e-09,0,0.0012804,0.00020732,3.6273e+08,2866.2,0,4.495e+08,339.35,12991,12110,1,12110,1,8.7639e-05,1.2968e-09,0,0.00061846,-1.6058e-05,3.1693e+07,408.66,0,2.2322e+08,15.396,12109,11203,1,11203,1,-0.0011051,-1.1049e-09,0,4.3461e-05,-0.00023922,-4.495e+08,-311.66,0,1.5859e+07,-216.05,11202,11669,1,11669,1,-0.00053082,-3.2666e-11,0,0.00030924,-0.00013178,-2.159e+08,-10.89,0,1.1689e+08,-39.807,11668,12551,1,12551,1,0.00070611,3.7909e-09,0,0.0009277,9.9674e-05,2.24e+08,1179.9,0,3.1237e+08,82.593,12550,510.38,0,510.38,0,0.00071388,2.4863e-09,0,0.0003616,0.0001336,2.4857e+08,780.95,0,1.2083e+08,106.5,510.38,1
1764,4.27,12110,1,12110,1,8.8322e-05,1.464e-09,0,0.00062314,-1.6161e-05,58.615,470.23,0,2.1752e+08,-7.2184,12109,12992,1,12992,1,0.0012841,4.8802e-09,0,0.0012841,0.00020775,3.6304e+08,1660.5,0,4.5042e+08,146.66,12991,12110,1,12110,1,8.8322e-05,1.1027e-09,0,0.00062,-1.6183e-05,3.1921e+07,339.44,0,2.2361e+08,-2.1874,12109,11203,1,11203,1,-0.0011074,-1.1644e-09,0,4.4032e-05,-0.0002399,-4.5042e+08,-331.04,0,1.6059e+07,-203.17,11202,11669,1,11669,1,-0.00053168,-5.484e-11,0,0.00031,-0.00013219,-2.1624e+08,-16.593,0,1.1712e+08,-50.792,11668,12551,1,12551,1,0.00070832,2.8336e-09,0,0.00093001,9.9836e-05,2.244e+08,896.36,0,3.1282e+08,41.684,12550,510.38,0,510.38,0,0.00071566,1.6638e-09,0,0.00036255,0.00013394,2.4898e+08,537.04,0,1.2102e+08,70.905,510.38,1
1764,4.28,12110,1,12110,1,8.9014e-05,8.7575e-10,0,0.00062474,-1.6288e-05,415.85,287.46,0,2.1789e+08,-22.544,12109,12992,1,12992,1,0.0012877,3.146e-09,0,0.0012877,0.00020818,3.6335e+08,1036,0,4.5135e+08,180.51,12991,12110,1,12110,1,8.9015e-05,8.5609e-10,0,0.00062156,-1.6311e-05,3.2151e+07,265.24,0,2.2401e+08,-22.318,12109,11203,1,11203,1,-0.0011097,-5.3953e-10,0,4.4172e-05,-0.00024058,-4.5135e+08,-133.75,0,1.6262e+07,-147.33,11202,11669,1,11669,1,-0.00053254,1.7419e-10,0,0.00031077,-0.00013261,-2.1659e+08,51.15,0,1.1735e+08,-51.989,11668,12551,1,12551,1,0.00071057,1.4211e-09,0,0.00093233,9.9998e-05,2.248e+08,468.36,0,3.1327e+08,7.1448,12550,510.38,0,510.38,0,0.00071745,7.8868e-10,0,0.00036352,0.00013427,2.4939e+08,261.26,0,1.2121e+08,48.385,510.38,1
1764,4.29,12110,1,12110,1,8.9707e-05,-3.9603e-09,0,0.00062628,-1.6415e-05,265.22,-1198,0,2.1824e+08,16.735,12109,12992,1,12992,1,0.0012914,2.4959e-09,0,0.0012914,0.0002086,3.6364e+08,854.82,0,4.5226e+08,307.49,12991,12110,1,12110,1,8.9707e-05,-3.3749e-09,0,0.00062306,-1.6438e-05,3.2381e+07,-1011,0,2.2439e+08,-1.7631,12109,11203,1,11203,1,-0.0011119,-1.2158e-08,0,4.3803e-05,-0.00024125,-4.5226e+08,-3696.1,0,1.6467e+07,-266.43,11202,11669,1,11669,1,-0.00053335,-7.132e-09,0,0.00031153,-0.00013302,-2.1693e+08,-2156.4,0,1.1757e+08,-66.672,11668,12551,1,12551,1,0.00071277,-5.6483e-10,0,0.00093459,0.00010015,2.2518e+08,-167.28,0,3.1369e+08,93.35,12550,510.38,0,510.38,0,0.00071919,3.891e-09,0,0.00036445,0.00013459,2.4978e+08,1186.8,0,1.2139e+08,119.46,510.38,1
1764,4.3,12110,1,12110,1,9.0396e-05,-1.8772e-09,0,0.00062788,-1.6541e-05,-175.14,-590.84,0,2.1861e+08,-4.3634,12109,12992,1,12992,1,0.001295,2.0621e-09,0,0.001295,0.00020903,3.6396e+08,646.59,0,4.532e+08,185.27,12991,12110,1,12110,1,9.0397e-05,-1.3032e-09,0,0.00062462,-1.6566e-05,3.261e+07,-367.17,0,2.248e+08,5.304,12109,11203,1,11203,1,-0.0011142,-7.5019e-09,0,4.3449e-05,-0.00024194,-4.532e+08,-2355.2,0,1.6669e+07,-208.41,11202,11669,1,11669,1,-0.00053422,-3.8177e-09,0,0.00031231,-0.00013343,-2.1728e+08,-1181.3,0,1.1781e+08,-80.45,11668,12551,1,12551,1,0.00071502,1.102e-10,0,0.00093693,0.00010032,2.2559e+08,31.966,0,3.1415e+08,65.135,12550,510.38,0,510.38,0,0.00072099,2.3894e-09,0,0.00036543,0.00013493,2.502e+08,756.9,0,1.2158e+08,87.519,510.38,1
1764,4.31,12110,1,12110,1,9.1103e-05,-2.3598e-09,0,0.00062946,-1.667e-05,-256.46,-737.96,0,2.1896e+08,7.0056,12109,12992,1,12992,1,0.0012987,3.7475e-09,0,0.0012987,0.00020946,3.6424e+08,1161.9,0,4.5413e+08,272.79,12991,12110,1,12110,1,9.1104e-05,-1.7659e-09,0,0.00062616,-1.6696e-05,3.2844e+07,-542.17,0,2.2519e+08,-2.9627,12109,11203,1,11203,1,-0.0011165,-8.8973e-09,0,4.307e-05,-0.00024262,-4.5413e+08,-2786.3,0,1.6876e+07,-247.25,11202,11669,1,11669,1,-0.00053505,-4.9661e-09,0,0.00031308,-0.00013385,-2.1762e+08,-1541.6,0,1.1804e+08,-68.971,11668,12551,1,12551,1,0.00071726,3.0552e-10,0,0.00093923,0.00010047,2.2598e+08,86.067,0,3.1458e+08,77.088,12550,510.38,0,510.38,0,0.00072276,3.0967e-09,0,0.00036639,0.00013526,2.506e+08,973.2,0,1.2176e+08,101.89,510.38,1
1764,4.32,12110,1,12110,1,9.1813e-05,-3.0762e-09,0,0.00063107,-1.68e-05,-102.2,-965.48,0,2.1933e+08,-32.915,12109,12992,1,12992,1,0.0013025,1.7668e-09,0,0.0013025,0.00020989,3.6454e+08,559.28,0,4.5506e+08,132.12,12991,12110,1,12110,1,9.1813e-05,-3.0205e-09,0,0.00062772,-1.6827e-05,3.3079e+07,-918.41,0,2.2558e+08,-24.164,12109,11203,1,11203,1,-0.0011188,-7.8489e-09,0,4.2693e-05,-0.00024332,-4.5506e+08,-2494.3,0,1.7083e+07,-310.66,11202,11669,1,11669,1,-0.0005359,-5.0517e-09,0,0.00031385,-0.00013427,-2.1796e+08,-1592.2,0,1.1827e+08,-103.14,11668,12551,1,12551,1,0.00071953,-1.1658e-09,0,0.00094157,0.00010063,2.2637e+08,-321.17,0,3.1503e+08,53.703,12550,510.38,0,510.38,0,0.00072456,2.5222e-09,0,0.00036736,0.00013559,2.5101e+08,806.97,0,1.2195e+08,99.271,510.38,1
1764,4.33,12110,1,12110,1,9.253e-05,1.6694e-10,0,0.00063266,-1.6931e-05,-137.62,16.849,0,2.1968e+08,-13.595,12109,12992,1,12992,1,0.0013061,2.1599e-09,0,0.0013061,0.00021031,3.6482e+08,552.96,0,4.5597e+08,213.44,12991,12110,1,12110,1,9.2531e-05,1.4558e-11,0,0.00062927,-1.6958e-05,3.3316e+07,4.8202,0,2.2597e+08,-12.079,12109,11203,1,11203,1,-0.0011211,-1.4112e-09,0,4.2306e-05,-0.000244,-4.5597e+08,-483.18,0,1.7205e+07,-139.93,11202,11669,1,11669,1,-0.00053673,-6.524e-10,0,0.00031463,-0.00013469,-2.183e+08,-222.84,0,1.185e+08,-58.477,11668,12551,1,12551,1,0.0007218,9.4271e-10,0,0.00094389,0.00010079,2.2676e+08,252.85,0,3.1546e+08,15.886,12550,510.38,0,510.38,0,0.00072636,9.7665e-10,0,0.00036833,0.00013593,2.5141e+08,283.54,0,1.2213e+08,65.926,510.38,1
1764,4.34,12110,1,12110,1,9.3246e-05,-1.2541e-09,0,0.00063423,-1.7062e-05,-180.62,-399.07,0,2.2003e+08,47.181,12109,12992,1,12992,1,0.0013098,4.6238e-09,0,0.0013098,0.00021074,3.651e+08,1369.9,0,4.5689e+08,241.81,12991,12110,1,12110,1,9.3246e-05,-8.1489e-10,0,0.0006308,-1.709e-05,3.3552e+07,-257.9,0,2.2635e+08,50.046,12109,11203,1,11203,1,-0.0011233,-6.5952e-09,0,4.1922e-05,-0.00024468,-4.5689e+08,-2052.3,0,1.7049e+07,-152.72,11202,11669,1,11669,1,-0.00053755,-3.3878e-09,0,0.0003154,-0.0001351,-2.1863e+08,-1052.1,0,1.1872e+08,-28.904,11668,12551,1,12551,1,0.00072404,6.2899e-10,0,0.00094619,0.00010094,2.2714e+08,164.99,0,3.1589e+08,113.66,12550,510.38,0,510.38,0,0.00072812,2.5545e-09,0,0.00036929,0.00013626,2.518e+08,788.69,0,1.2231e+08,96.323,510.38,1
1764,4.35,12110,1,12110,1,9.3959e-05,-2.8574e-09,0,0.00063582,-1.7192e-05,-791.52,-890.35,0,2.2038e+08,49.838,12109,12992,1,12992,1,0.0013135,1.8666e-09,0,0.0013135,0.00021116,3.6538e+08,639.29,0,4.5781e+08,292.43,12991,12110,1,12110,1,9.3959e-05,-2.4536e-09,0,0.00063234,-1.7221e-05,3.3787e+07,-707.97,0,2.2674e+08,52.442,12109,11203,1,11203,1,-0.0011256,-9.2997e-09,0,4.1539e-05,-0.00024537,-4.5781e+08,-2903.5,0,1.6894e+07,-228.14,11202,11669,1,11669,1,-0.00053838,-5.3715e-09,0,0.00031617,-0.00013552,-2.1897e+08,-1667,0,1.1895e+08,-43.644,11668,12551,1,12551,1,0.0007263,-1.5575e-10,0,0.0009485,0.0001011,2.2753e+08,-45.979,0,3.1632e+08,144.07,12550,510.38,0,510.38,0,0.00072989,2.9918e-09,0,0.00037025,0.00013659,2.5219e+08,941.66,0,1.225e+08,119.76,510.38,1
1764,4.36,12110,1,12110,1,9.4683e-05,-3.5821e-09,0,0.00063741,-1.7325e-05,-371.16,-1120.5,0,2.2074e+08,3.4523,12109,12992,1,12992,1,0.0013172,1.613e-09,0,0.0013172,0.00021159,3.6566e+08,535.71,0,4.5873e+08,227.48,12991,12110,1,12110,1,9.4683e-05,-3.3665e-09,0,0.00063389,-1.7355e-05,3.4026e+07,-1020.5,0,2.2712e+08,14.072,12109,11203,1,11203,1,-0.0011278,-9.3994e-09,0,4.1145e-05,-0.00024606,-4.5873e+08,-2931.9,0,1.6735e+07,-294.2,11202,11669,1,11669,1,-0.0005392,-6.0705e-09,0,0.00031694,-0.00013594,-2.193e+08,-1898.2,0,1.1918e+08,-76.049,11668,12551,1,12551,1,0.00072857,-1.0802e-09,0,0.00095082,0.00010126,2.2792e+08,-302.88,0,3.1675e+08,95.038,12550,510.38,0,510.38,0,0.00073168,2.943e-09,0,0.00037123,0.00013692,2.5259e+08,942.18,0,1.2268e+08,111.82,510.38,1
1764,4.37,12110,1,12110,1,9.5412e-05,1.6863e-09,0,0.00063898,-1.7458e-05,422.03,476.36,0,2.2108e+08,30.695,12109,12992,1,12992,1,0.0013209,9.5509e-09,0,0.0013209,0.000212,3.6592e+08,2882.1,0,4.5963e+08,311.18,12991,12110,1,12110,1,9.5413e-05,1.1205e-09,0,0.00063542,-1.7489e-05,3.4266e+07,320.93,0,2.275e+08,19.223,12109,11203,1,11203,1,-0.00113,-3.6692e-09,0,4.0741e-05,-0.00024673,-4.5963e+08,-1157.5,0,1.6572e+07,-330.1,11202,11669,1,11669,1,-0.00054,-6.7134e-10,0,0.00031771,-0.00013636,-2.1963e+08,-201.95,0,1.194e+08,-53.016,11668,12551,1,12551,1,0.00073083,3.8804e-09,0,0.00095312,0.00010141,2.283e+08,1113.7,0,3.1716e+08,115.8,12550,510.38,0,510.38,0,0.00073345,2.9635e-09,0,0.00037219,0.00013725,2.5298e+08,899.27,0,1.2286e+08,127.02,510.38,1
1764,4.38,12110,1,12110,1,9.6144e-05,-3.644e-09,0,0.00064059,-1.7592e-05,501.78,-1114.9,0,2.2144e+08,-53.782,12109,12992,1,12992,1,0.0013247,1.5883e-09,0,0.0013247,0.00021243,3.662e+08,543.96,0,4.6057e+08,193.26,12991,12110,1,12110,1,9.6144e-05,-3.708e-09,0,0.00063698,-1.7624e-05,3.4506e+07,-1097.8,0,2.2789e+08,-40.597,12109,11203,1,11203,1,-0.0011324,-8.8343e-09,0,4.035e-05,-0.00024743,-4.6057e+08,-2731.2,0,1.6414e+07,-337.4,11202,11669,1,11669,1,-0.00054083,-5.9795e-09,0,0.00031849,-0.00013679,-2.1997e+08,-1838.6,0,1.1963e+08,-127.83,11668,12551,1,12551,1,0.00073313,-1.3425e-09,0,0.00095547,0.00010156,2.2869e+08,-389.64,0,3.176e+08,26.871,12550,510.38,0,510.38,0,0.00073526,2.8295e-09,0,0.00037317,0.00013759,2.5338e+08,885.65,0,1.2304e+08,105.65,510.38,1
1764,4.39,12110,1,12110,1,9.6884e-05,1.9101e-09,0,0.00064219,-1.7728e-05,238.97,552.76,0,2.2179e+08,-11.64,12109,12992,1,12992,1,0.0013283,4.91e-09,0,0.0013283,0.00021285,3.6645e+08,1420.4,0,4.6147e+08,208.08,12991,12110,1,12110,1,9.6886e-05,1.926e-09,0,0.00063853,-1.776e-05,3.475e+07,549.72,0,2.2827e+08,-22.284,12109,11203,1,11203,1,-0.0011346,-7.4868e-10,0,3.9937e-05,-0.00024812,-4.6147e+08,-256.41,0,1.6248e+07,-201.31,11202,11669,1,11669,1,-0.00054165,4.0149e-10,0,0.00031927,-0.00013721,-2.203e+08,124.61,0,1.1986e+08,-70.838,11668,12551,1,12551,1,0.00073542,3.34e-09,0,0.0009578,0.00010172,2.2907e+08,976.64,0,3.1802e+08,30.481,12550,510.38,0,510.38,0,0.00073705,1.6445e-09,0,0.00037415,0.00013792,2.5378e+08,481.79,0,1.2322e+08,84.866,510.38,1
1764,4.4,12110,1,12110,1,9.7624e-05,-3.5463e-09,0,0.00064378,-1.7863e-05,-557.64,-1078.2,0,2.2213e+08,39.042,12109,12992,1,12992,1,0.0013321,1.7518e-09,0,0.0013321,0.00021328,3.6671e+08,599.96,0,4.6239e+08,385.01,12991,12110,1,12110,1,9.7624e-05,-3.4128e-09,0,0.00064007,-1.7896e-05,3.4991e+07,-1001.3,0,2.2865e+08,37.458,12109,11203,1,11203,1,-0.0011368,-9.3517e-09,0,3.9534e-05,-0.00024881,-4.6239e+08,-2866.6,0,1.6085e+07,-214.37,11202,11669,1,11669,1,-0.00054245,-6.0068e-09,0,0.00032004,-0.00013763,-2.2062e+08,-1832.8,0,1.2008e+08,-32.61,11668,12551,1,12551,1,0.0007377,-9.34e-10,0,0.00096011,0.00010187,2.2945e+08,-284.6,0,3.1843e+08,89.875,12550,510.38,0,510.38,0,0.00073883,2.9267e-09,0,0.00037512,0.00013825,2.5416e+08,904.87,0,1.234e+08,100.46,510.38,1
1764,4.41,12110,1,12110,1,9.8372e-05,-2.2071e-10,0,0.00064539,-1.8e-05,148.4,-92.635,0,2.2249e+08,-25.898,12109,12992,1,12992,1,0.0013358,1.148e-09,0,0.0013358,0.0002137,3.6697e+08,277.48,0,4.6331e+08,187.56,12991,12110,1,12110,1,9.8373e-05,-5.3071e-11,0,0.00064165,-1.8035e-05,3.5237e+07,-17.596,0,2.2904e+08,-26.704,12109,11203,1,11203,1,-0.0011391,-2.1262e-09,0,3.9117e-05,-0.00024951,-4.6331e+08,-727.65,0,1.5917e+07,-156.4,11202,11669,1,11669,1,-0.00054327,-9.228e-10,0,0.00032082,-0.00013806,-2.2096e+08,-290.92,0,1.2031e+08,-75.905,11668,12551,1,12551,1,0.00074002,5.0061e-10,0,0.00096246,0.00010202,2.2984e+08,130.1,0,3.1886e+08,21.361,12550,510.38,0,510.38,0,0.00074064,8.9173e-10,0,0.00037611,0.00013859,2.5456e+08,277.12,0,1.2358e+08,67.026,510.38,1
1764,4.42,12110,1,12110,1,9.9128e-05,-9.0213e-10,0,0.00064699,-1.8138e-05,75.055,-288.06,0,2.2283e+08,-23.963,12109,12992,1,12992,1,0.0013396,5.8951e-10,0,0.0013396,0.00021412,3.6721e+08,201.91,0,4.6422e+08,159.51,12991,12110,1,12110,1,9.9128e-05,-7.6601e-10,0,0.0006432,-1.8174e-05,3.5484e+07,-245.66,0,2.2941e+08,-21.037,12109,11203,1,11203,1,-0.0011413,-2.9994e-09,0,3.8697e-05,-0.00025021,-4.6422e+08,-935.81,0,1.5748e+07,-297.57,11202,11669,1,11669,1,-0.00054407,-1.4858e-09,0,0.0003216,-0.00013849,-2.2128e+08,-472.73,0,1.2053e+08,-76.018,11668,12551,1,12551,1,0.00074233,-2.0262e-10,0,0.00096479,0.00010218,2.3021e+08,-58.638,0,3.1927e+08,31.756,12550,510.38,0,510.38,0,0.00074243,8.5975e-10,0,0.0003771,0.00013892,2.5495e+08,276.88,0,1.2376e+08,72.908,510.38,1
1764,4.43,12110,1,12110,1,9.9885e-05,-4.0221e-10,0,0.00064859,-1.8276e-05,-134.87,-136.02,0,2.2317e+08,31.723,12109,12992,1,12992,1,0.0013434,2.6903e-09,0,0.0013434,0.00021454,3.6746e+08,752.78,0,4.6513e+08,161.34,12991,12110,1,12110,1,9.9885e-05,-2.2543e-10,0,0.00064475,-1.8313e-05,3.5731e+07,-67.655,0,2.2979e+08,34.638,12109,11203,1,11203,1,-0.0011436,-2.929e-09,0,3.8274e-05,-0.0002509,-4.6513e+08,-908.59,0,1.5577e+07,-91.056,11202,11669,1,11669,1,-0.00054487,-1.3366e-09,0,0.00032237,-0.00013892,-2.2161e+08,-419.72,0,1.2076e+08,-10.632,11668,12551,1,12551,1,0.00074464,4.2745e-10,0,0.00096713,0.00010233,2.3059e+08,117.73,0,3.1968e+08,72.556,12550,510.38,0,510.38,0,0.00074423,1.1923e-09,0,0.00037808,0.00013926,2.5533e+08,366.34,0,1.2394e+08,53.402,510.38,1
1764,4.44,12110,1,12110,1,0.00010064,1.3281e-09,0,0.00065018,-1.8415e-05,-50.402,391.87,0,2.2351e+08,35.268,12109,12992,1,12992,1,0.0013471,6.2596e-09,0,0.0013471,0.00021496,3.6769e+08,1885.2,0,4.6603e+08,217.65,12991,12110,1,12110,1,0.00010064,8.7508e-10,0,0.00064629,-1.8453e-05,3.5978e+07,252.39,0,2.3016e+08,25.99,12109,11203,1,11203,1,-0.0011458,-1.3006e-09,0,3.7846e-05,-0.00025159,-4.6603e+08,-391.78,0,1.5405e+07,-188.95,11202,11669,1,11669,1,-0.00054565,-7.07e-11,0,0.00032315,-0.00013934,-2.2193e+08,-20.42,0,1.2098e+08,-13.333,11668,12551,1,12551,1,0.00074694,2.4321e-09,0,0.00096944,0.00010248,2.3096e+08,721.32,0,3.2009e+08,84.942,12550,510.38,0,510.38,0,0.00074601,1.7121e-09,0,0.00037906,0.00013959,2.5571e+08,517.91,0,1.2412e+08,74.631,510.38,1
1764,4.45,12110,1,12110,1,0.00010141,1.8734e-09,0,0.00065179,-1.8555e-05,-93.558,574.04,0,2.2385e+08,9.3619,12109,12992,1,12992,1,0.0013509,4.739e-09,0,0.0013509,0.00021538,3.6794e+08,1503.7,0,4.6695e+08,198.22,12991,12110,1,12110,1,0.00010141,1.8774e-09,0,0.00064786,-1.8593e-05,3.6227e+07,554.67,0,2.3054e+08,3.2603,12109,11203,1,11203,1,-0.001148,-8.5541e-10,0,3.742e-05,-0.00025229,-4.6695e+08,-250.44,0,1.5234e+07,-132.08,11202,11669,1,11669,1,-0.00054645,7.0729e-10,0,0.00032393,-0.00013977,-2.2225e+08,208.83,0,1.212e+08,-38.753,11668,12551,1,12551,1,0.00074926,2.9953e-09,0,0.00097178,0.00010263,2.3134e+08,925.45,0,3.205e+08,50.837,12550,510.38,0,510.38,0,0.00074781,1.4331e-09,0,0.00038005,0.00013993,2.561e+08,450.75,0,1.243e+08,66.555,510.38,1
1764,4.46,12110,1,12110,1,0.00010218,-1.2833e-10,0,0.00065341,-1.8696e-05,-76.331,-21.479,0,2.242e+08,-13.392,12109,12992,1,12992,1,0.0013546,7.5576e-10,0,0.0013546,0.0002158,3.6817e+08,258.72,0,4.6786e+08,179.55,12991,12110,1,12110,1,0.00010218,-6.1911e-12,0,0.00064943,-1.8736e-05,3.6478e+07,-2.0642,0,2.3092e+08,-14.884,12109,11203,1,11203,1,-0.0011503,-1.3812e-09,0,3.6981e-05,-0.000253,-4.6786e+08,-362.53,0,1.5058e+07,-81.207,11202,11669,1,11669,1,-0.00054725,-5.1166e-10,0,0.00032471,-0.00014021,-2.2257e+08,-136.81,0,1.2143e+08,-38.697,11668,12551,1,12551,1,0.0007516,3.4694e-10,0,0.00097413,0.00010278,2.3172e+08,118.55,0,3.2091e+08,5.7572,12550,510.38,0,510.38,0,0.00074962,5.4431e-10,0,0.00038105,0.00014026,2.5649e+08,155.62,0,1.2448e+08,37.807,510.38,1
1764,4.47,12110,1,12110,1,0.00010295,2.5679e-09,0,0.00065498,-1.8837e-05,-217.45,786.89,0,2.2452e+08,76.401,12109,12992,1,12992,1,0.0013584,1.288e-08,0,0.0013584,0.00021622,3.6839e+08,3905.1,0,4.6876e+08,554.98,12991,12110,1,12110,1,0.00010295,1.4251e-09,0,0.00065095,-1.8877e-05,3.6728e+07,428.43,0,2.3128e+08,54.012,12109,11203,1,11203,1,-0.0011525,-2.232e-09,0,3.6539e-05,-0.00025369,-4.6876e+08,-764.43,0,1.488e+07,-362.27,11202,11669,1,11669,1,-0.000548,-8.0845e-11,0,0.00032548,-0.00014063,-2.2288e+08,-23.644,0,1.2164e+08,-21.956,11668,12551,1,12551,1,0.0007539,4.4739e-09,0,0.00097643,0.00010292,2.3208e+08,1355.8,0,3.213e+08,123.49,12550,510.38,0,510.38,0,0.00075138,3.3593e-09,0,0.00038202,0.00014059,2.5686e+08,1026.7,0,1.2464e+08,144.65,510.38,1
1764,4.48,12110,1,12110,1,0.00010372,2.038e-09,0,0.00065657,-1.8978e-05,241.33,646.81,0,2.2486e+08,31.717,12109,12992,1,12992,1,0.0013622,1.1958e-08,0,0.0013622,0.00021663,3.6861e+08,3695.9,0,4.6966e+08,459.35,12991,12110,1,12110,1,0.00010372,9.2342e-10,0,0.00065251,-1.902e-05,3.6978e+07,258.12,0,2.3165e+08,36.814,12109,11203,1,11203,1,-0.0011547,-4.7177e-09,0,3.6098e-05,-0.00025439,-4.6966e+08,-1391.2,0,1.4703e+07,-415.06,11202,11669,1,11669,1,-0.00054878,-8.0657e-10,0,0.00032625,-0.00014106,-2.232e+08,-215,0,1.2186e+08,-70.145,11668,12551,1,12551,1,0.00075622,4.7616e-09,0,0.00097875,0.00010307,2.3245e+08,1466.2,0,3.217e+08,116.23,12550,510.38,0,510.38,0,0.00075317,3.8327e-09,0,0.000383,0.00014092,2.5724e+08,1192,0,1.2482e+08,143.48,510.38,1
1764,4.49,12110,1,12110,1,0.0001045,1.8932e-09,0,0.00065821,-1.9121e-05,30.876,608.43,0,2.2521e+08,-55.74,12109,12992,1,12992,1,0.001366,4.579e-09,0,0.001366,0.00021706,3.6885e+08,1543.8,0,4.7058e+08,129.08,12991,12110,1,12110,1,0.0001045,2.2042e-09,0,0.00065409,-1.9164e-05,3.7232e+07,675.98,0,2.3203e+08,-35.205,12109,11203,1,11203,1,-0.001157,-2.191e-09,0,3.5653e-05,-0.0002551,-4.7058e+08,-533.1,0,1.4524e+07,-282.39,11202,11669,1,11669,1,-0.00054958,4.5992e-10,0,0.00032704,-0.0001415,-2.2353e+08,126.58,0,1.2209e+08,-111.5,11668,12551,1,12551,1,0.00075859,3.4298e-09,0,0.00098113,0.00010322,2.3283e+08,1092.5,0,3.2211e+08,6.9136,12550,510.38,0,510.38,0,0.00075501,1.7852e-09,0,0.00038402,0.00014127,2.5763e+08,560.63,0,1.25e+08,91.382,510.38,1
1764,4.5,12110,1,12110,1,0.00010529,2.7709e-09,0,0.0006598,-1.9266e-05,48.467,871.52,0,2.2553e+08,57.094,12109,12992,1,12992,1,0.0013698,9.1886e-09,0,0.0013698,0.00021747,3.6905e+08,2835.3,0,4.7147e+08,522.68,12991,12110,1,12110,1,0.00010529,2.3796e-09,0,0.00065564,-1.9309e-05,3.7488e+07,693.13,0,2.3239e+08,27.516,12109,11203,1,11203,1,-0.0011592,-1.7149e-09,0,3.5194e-05,-0.0002558,-4.7147e+08,-504.23,0,1.434e+07,-206.88,11202,11669,1,11669,1,-0.00055033,3.5607e-10,0,0.00032781,-0.00014193,-2.2383e+08,103.72,0,1.2231e+08,-47.329,11668,12551,1,12551,1,0.00076093,5.0164e-09,0,0.00098344,0.00010336,2.3319e+08,1578.4,0,3.225e+08,132.22,12550,510.38,0,510.38,0,0.00075678,2.7457e-09,0,0.000385,0.0001416,2.58e+08,869.28,0,1.2517e+08,141.99,510.38,1
1764,4.51,12110,1,12110,1,0.00010608,1.7771e-09,0,0.00066144,-1.9411e-05,-4.0126,576.78,0,2.2588e+08,-13.58,12109,12992,1,12992,1,0.0013736,4.3945e-09,0,0.0013736,0.0002179,3.6928e+08,1498.2,0,4.7239e+08,176.4,12991,12110,1,12110,1,0.00010608,1.9695e-09,0,0.00065722,-1.9455e-05,3.7744e+07,598.77,0,2.3276e+08,-12.669,12109,11203,1,11203,1,-0.0011614,-1.353e-09,0,3.4741e-05,-0.00025651,-4.7239e+08,-314.52,0,1.4159e+07,-165.88,11202,11669,1,11669,1,-0.00055113,3.0284e-10,0,0.0003286,-0.00014237,-2.2415e+08,82.819,0,1.2253e+08,-54.944,11668,12551,1,12551,1,0.0007633,3.2345e-09,0,0.00098581,0.00010351,2.3356e+08,1055.5,0,3.229e+08,30.212,12550,510.38,0,510.38,0,0.00075861,1.671e-09,0,0.00038602,0.00014194,2.5838e+08,535.05,0,1.2535e+08,67.794,510.38,1
1764,4.52,12110,1,12110,1,0.00010689,2.8468e-09,0,0.00066306,-1.9558e-05,-94.871,894.81,0,2.2621e+08,18.791,12109,12992,1,12992,1,0.0013774,6.5602e-09,0,0.0013774,0.00021832,3.6948e+08,2121.8,0,4.733e+08,300.75,12991,12110,1,12110,1,0.00010689,3.0281e-09,0,0.00065879,-1.9603e-05,3.8003e+07,924.76,0,2.3313e+08,9.646,12109,11203,1,11203,1,-0.0011637,-1.1543e-09,0,3.4274e-05,-0.00025722,-4.733e+08,-293.63,0,1.3973e+07,-109.82,11202,11669,1,11669,1,-0.00055189,1.0316e-09,0,0.00032939,-0.00014281,-2.2446e+08,271.7,0,1.2275e+08,-42.177,11668,12551,1,12551,1,0.00076567,4.7291e-09,0,0.00098817,0.00010366,2.3393e+08,1492.6,0,3.2329e+08,72.385,12550,510.38,0,510.38,0,0.00076043,2.153e-09,0,0.00038702,0.00014227,2.5876e+08,694.74,0,1.2553e+08,77.811,510.38,1
1764,4.53,12110,1,12110,1,0.00010769,1.971e-09,0,0.00066467,-1.9705e-05,339.96,637.19,0,2.2653e+08,34.993,12109,12992,1,12992,1,0.0013813,6.1761e-09,0,0.0013813,0.00021873,3.6968e+08,2112.2,0,4.7419e+08,411.6,12991,12110,1,12110,1,0.00010769,1.7736e-09,0,0.00066035,-1.9751e-05,3.8263e+07,532.56,0,2.3349e+08,15.229,12109,11203,1,11203,1,-0.0011659,-1.9268e-09,0,3.3803e-05,-0.00025793,-4.7419e+08,-494.14,0,1.3784e+07,-144.27,11202,11669,1,11669,1,-0.00055265,3.8905e-11,0,0.00033017,-0.00014325,-2.2477e+08,9.2895,0,1.2297e+08,-45.74,11668,12551,1,12551,1,0.00076804,3.9112e-09,0,0.00099051,0.0001038,2.3429e+08,1246,0,3.2368e+08,95.063,12550,510.38,0,510.38,0,0.00076223,2.2232e-09,0,0.00038803,0.00014261,2.5913e+08,702.07,0,1.257e+08,109.33,510.38,1
1764,4.54,12110,1,12110,1,0.0001085,-2.2702e-10,0,0.00066629,-1.9853e-05,67.37,-27.617,0,2.2687e+08,-5.0705,12109,12992,1,12992,1,0.0013851,1.5187e-09,0,0.0013851,0.00021914,3.6989e+08,519.95,0,4.7509e+08,248.48,12991,12110,1,12110,1,0.0001085,-4.495e-11,0,0.00066193,-1.99e-05,3.8523e+07,-12.797,0,2.3386e+08,-16.725,12109,11203,1,11203,1,-0.0011681,-2.4585e-09,0,3.3332e-05,-0.00025864,-4.7509e+08,-623.98,0,1.3597e+07,-138.18,11202,11669,1,11669,1,-0.00055342,-1.1895e-09,0,0.00033096,-0.00014369,-2.2508e+08,-311.57,0,1.2318e+08,-42.879,11668,12551,1,12551,1,0.00077042,7.3751e-10,0,0.00099287,0.00010394,2.3466e+08,248.67,0,3.2407e+08,12.604,12550,510.38,0,510.38,0,0.00076405,1.1213e-09,0,0.00038904,0.00014295,2.595e+08,321.96,0,1.2587e+08,62.453,510.38,1
1764,4.55,12110,1,12110,1,0.00010931,3.3924e-09,0,0.0006679,-2.0001e-05,49.85,1040.8,0,2.2719e+08,28.77,12109,12992,1,12992,1,0.0013889,7.4009e-09,0,0.0013889,0.00021956,3.7008e+08,2329.6,0,4.7599e+08,307.24,12991,12110,1,12110,1,0.00010931,3.4718e-09,0,0.00066348,-2.005e-05,3.8784e+07,1029,0,2.3422e+08,12.425,12109,11203,1,11203,1,-0.0011703,-8.4481e-10,0,3.2858e-05,-0.00025935,-4.7599e+08,-223.43,0,1.3407e+07,-121.5,11202,11669,1,11669,1,-0.00055416,1.596e-09,0,0.00033174,-0.00014413,-2.2539e+08,441.93,0,1.234e+08,-36.94,11668,12551,1,12551,1,0.00077279,5.3761e-09,0,0.00099521,0.00010409,2.3502e+08,1671.5,0,3.2445e+08,89.118,12550,510.38,0,510.38,0,0.00076584,2.2859e-09,0,0.00039004,0.00014328,2.5987e+08,726.07,0,1.2604e+08,85.483,510.38,1
1764,4.56,12110,1,12110,1,0.00011013,3.9459e-09,0,0.0006695,-2.015e-05,-30.335,1224.8,0,2.2751e+08,97.57,12109,12992,1,12992,1,0.0013928,1.2456e-08,0,0.0013928,0.00021998,3.7027e+08,3870.9,0,4.7689e+08,657.02,12991,12110,1,12110,1,0.00011012,3.2695e-09,0,0.00066504,-2.0199e-05,3.9045e+07,998.35,0,2.3457e+08,66.659,12109,11203,1,11203,1,-0.0011725,-2.137e-09,0,3.2377e-05,-0.00026006,-4.7689e+08,-680.62,0,1.3216e+07,-243.33,11202,11669,1,11669,1,-0.00055491,4.1456e-10,0,0.00033251,-0.00014457,-2.2569e+08,118.56,0,1.2362e+08,-27.709,11668,12551,1,12551,1,0.00077516,7.2809e-09,0,0.00099755,0.00010423,2.3537e+08,2237.8,0,3.2483e+08,180.79,12550,510.38,0,510.38,0,0.00076764,3.9808e-09,0,0.00039104,0.00014362,2.6023e+08,1240,0,1.2621e+08,173.94,510.38,1
1764,4.57,12110,1,12110,1,0.00011094,7.1904e-10,0,0.00067113,-2.03e-05,-66.65,271.22,0,2.2784e+08,-19.508,12109,12992,1,12992,1,0.0013966,3.8933e-09,0,0.0013966,0.00022039,3.7046e+08,1332.7,0,4.7778e+08,316.37,12991,12110,1,12110,1,0.00011094,5.2699e-10,0,0.00066662,-2.035e-05,3.9308e+07,166.8,0,2.3494e+08,-27.108,12109,11203,1,11203,1,-0.0011747,-2.0829e-09,0,3.1893e-05,-0.00026077,-4.7778e+08,-496.16,0,1.3023e+07,-165.87,11202,11669,1,11669,1,-0.00055566,-7.9116e-10,0,0.0003333,-0.00014501,-2.26e+08,-183.84,0,1.2383e+08,-89.851,11668,12551,1,12551,1,0.00077756,2.1858e-09,0,0.00099991,0.00010437,2.3574e+08,708.91,0,3.2521e+08,29.056,12550,510.38,0,510.38,0,0.00076946,1.628e-09,0,0.00039206,0.00014396,2.6061e+08,508.12,0,1.2639e+08,88.684,510.38,1
1764,4.58,12110,1,12110,1,0.00011177,-4.1239e-10,0,0.00067275,-2.0451e-05,-129.59,-86.683,0,2.2817e+08,28.922,12109,12992,1,12992,1,0.0014004,3.9328e-09,0,0.0014004,0.0002208,3.7064e+08,1205.6,0,4.7867e+08,313.47,12991,12110,1,12110,1,0.00011177,-3.7997e-10,0,0.00066819,-2.0503e-05,3.9573e+07,-101.47,0,2.3529e+08,0.59825,12109,11203,1,11203,1,-0.0011769,-3.5322e-09,0,3.1405e-05,-0.00026148,-4.7867e+08,-993.92,0,1.283e+07,-95.538,11202,11669,1,11669,1,-0.00055641,-1.8368e-09,0,0.00033409,-0.00014545,-2.263e+08,-501.25,0,1.2405e+08,-34.077,11668,12551,1,12551,1,0.00077996,7.2999e-10,0,0.0010023,0.00010451,2.3609e+08,235.94,0,3.2558e+08,68.835,12550,510.38,0,510.38,0,0.00077127,1.7763e-09,0,0.00039308,0.00014429,2.6097e+08,527.24,0,1.2656e+08,85.28,510.38,1
1764,4.59,12110,1,12110,1,0.0001126,-2.1093e-10,0,0.00067438,-2.0604e-05,25.152,-47.516,0,2.2849e+08,4.9049,12109,12992,1,12992,1,0.0014043,2.4457e-09,0,0.0014043,0.00022121,3.7082e+08,752.41,0,4.7957e+08,164.62,12991,12110,1,12110,1,0.0001126,-2.0697e-10,0,0.00066976,-2.0656e-05,3.9839e+07,-56.56,0,2.3565e+08,9.629,12109,11203,1,11203,1,-0.0011791,-2.1488e-09,0,3.0912e-05,-0.0002622,-4.7957e+08,-640.18,0,1.2634e+07,-126.33,11202,11669,1,11669,1,-0.00055715,-9.7158e-10,0,0.00033488,-0.0001459,-2.266e+08,-277.41,0,1.2426e+08,-22.224,11668,12551,1,12551,1,0.00078236,4.1646e-10,0,0.0010046,0.00010465,2.3645e+08,136.75,0,3.2596e+08,28.349,12550,510.38,0,510.38,0,0.00077309,1.0231e-09,0,0.00039409,0.00014463,2.6134e+08,311.84,0,1.2673e+08,45.286,510.38,1
1764,4.6,12110,1,12110,1,0.00011344,2.882e-09,0,0.00067599,-2.0756e-05,5.3297,871.51,0,2.2881e+08,59.967,12109,12992,1,12992,1,0.0014082,8.6841e-09,0,0.0014082,0.00022163,3.7099e+08,2623.5,0,4.8047e+08,360.14,12991,12110,1,12110,1,0.00011344,2.8062e-09,0,0.00067132,-2.081e-05,4.0105e+07,808.89,0,2.3601e+08,49.674,12109,11203,1,11203,1,-0.0011813,-2.0672e-09,0,3.0414e-05,-0.00026292,-4.8047e+08,-618.59,0,1.2437e+07,-144.65,11202,11669,1,11669,1,-0.00055788,1.3836e-10,0,0.00033566,-0.00014634,-2.269e+08,36.945,0,1.2448e+08,-27.963,11668,12551,1,12551,1,0.00078476,5.4079e-09,0,0.001007,0.00010479,2.368e+08,1639.2,0,3.2633e+08,135.84,12550,510.38,0,510.38,0,0.00077489,2.9181e-09,0,0.00039511,0.00014497,2.617e+08,896.75,0,1.269e+08,108.68,510.38,1
1764,4.61,12110,1,12110,1,0.00011428,7.7046e-11,0,0.00067764,-2.091e-05,-8.6421,53.866,0,2.2913e+08,14.441,12109,12992,1,12992,1,0.0014121,3.3122e-09,0,0.0014121,0.00022204,3.7117e+08,1013.7,0,4.8136e+08,185.68,12991,12110,1,12110,1,0.00011428,1.7969e-12,0,0.00067292,-2.0965e-05,4.0374e+07,0.36461,0,2.3637e+08,3.2626,12109,11203,1,11203,1,-0.0011835,-1.7518e-09,0,2.9911e-05,-0.00026364,-4.8136e+08,-487.12,0,1.2238e+07,-117.41,11202,11669,1,11669,1,-0.00055863,-9.1312e-10,0,0.00033645,-0.00014679,-2.272e+08,-228.56,0,1.2469e+08,-29.328,11668,12551,1,12551,1,0.00078719,9.033e-10,0,0.0010094,0.00010493,2.3716e+08,297.31,0,3.2671e+08,44.485,12550,510.38,0,510.38,0,0.00077673,1.201e-09,0,0.00039614,0.00014531,2.6207e+08,362.98,0,1.2707e+08,58.071,510.38,1
1764,4.62,12110,1,12110,1,0.00011513,1.3256e-09,0,0.00067927,-2.1066e-05,12.689,411.95,0,2.2945e+08,6.1707,12109,12992,1,12992,1,0.0014159,2.945e-09,0,0.0014159,0.00022245,3.7133e+08,955.34,0,4.8225e+08,211.97,12991,12110,1,12110,1,0.00011513,1.3519e-09,0,0.00067449,-2.1121e-05,4.0645e+07,409.69,0,2.3672e+08,-4.1416,12109,11203,1,11203,1,-0.0011857,-3.5052e-10,0,2.9399e-05,-0.00026436,-4.8225e+08,-113.79,0,1.2036e+07,-112.19,11202,11669,1,11669,1,-0.00055935,5.7701e-10,0,0.00033724,-0.00014724,-2.275e+08,156.38,0,1.2491e+08,-36.596,11668,12551,1,12551,1,0.00078962,2.07e-09,0,0.0010117,0.00010507,2.3751e+08,652.98,0,3.2707e+08,38.738,12550,510.38,0,510.38,0,0.00077855,9.0033e-10,0,0.00039717,0.00014565,2.6243e+08,294.44,0,1.2724e+08,60.892,510.38,1
1764,4.63,12110,1,12110,1,0.00011598,-2.5689e-10,0,0.0006809,-2.1222e-05,127.5,-58.626,0,2.2977e+08,33.193,12109,12992,1,12992,1,0.0014198,2.8408e-09,0,0.0014198,0.00022286,3.7149e+08,844.33,0,4.8314e+08,252.9,12991,12110,1,12110,1,0.00011598,-1.0685e-10,0,0.00067606,-2.1278e-05,4.0916e+07,-28.767,0,2.3707e+08,25.342,12109,11203,1,11203,1,-0.0011879,-2.7376e-09,0,2.8885e-05,-0.00026508,-4.8314e+08,-747.79,0,1.1833e+07,-84.171,11202,11669,1,11669,1,-0.00056008,-1.0676e-09,0,0.00033803,-0.00014769,-2.2779e+08,-292.14,0,1.2512e+08,-8.039,11668,12551,1,12551,1,0.00079205,4.8952e-10,0,0.0010141,0.00010521,2.3786e+08,159.71,0,3.2743e+08,61.729,12550,510.38,0,510.38,0,0.00078037,1.108e-09,0,0.00039819,0.00014599,2.6278e+08,320.21,0,1.2741e+08,60.565,510.38,1
1764,4.64,12110,1,12110,1,0.00011684,3.7055e-09,0,0.00068253,-2.1379e-05,-29.267,1110.6,0,2.3008e+08,54.58,12109,12992,1,12992,1,0.0014238,8.6196e-09,0,0.0014238,0.00022328,3.7165e+08,2506.1,0,4.8404e+08,407.68,12991,12110,1,12110,1,0.00011684,3.8647e-09,0,0.00067764,-2.1436e-05,4.1188e+07,1112.2,0,2.3742e+08,30.237,12109,11203,1,11203,1,-0.0011901,-1.1695e-09,0,2.8368e-05,-0.00026581,-4.8404e+08,-400.55,0,1.163e+07,-106.73,11202,11669,1,11669,1,-0.0005608,1.6422e-09,0,0.00033882,-0.00014814,-2.2809e+08,463.58,0,1.2533e+08,-27.934,11668,12551,1,12551,1,0.00079448,5.8697e-09,0,0.0010165,0.00010534,2.3821e+08,1778.9,0,3.278e+08,125.71,12550,510.38,0,510.38,0,0.00078219,2.5835e-09,0,0.00039922,0.00014633,2.6314e+08,791.71,0,1.2758e+08,104.55,510.38,1
1764,4.65,12110,1,12110,1,0.0001177,1.1725e-09,0,0.00068416,-2.1536e-05,-203.12,384.94,0,2.304e+08,66.443,12109,12992,1,12992,1,0.0014277,7.9167e-09,0,0.0014277,0.00022369,3.718e+08,2410.2,0,4.8492e+08,378.4,12991,12110,1,12110,1,0.0001177,6.3123e-10,0,0.00067923,-2.1595e-05,4.1461e+07,209.18,0,2.3777e+08,26.262,12109,11203,1,11203,1,-0.0011922,-1.9586e-09,0,2.7842e-05,-0.00026653,-4.8492e+08,-510.12,0,1.1423e+07,-123.8,11202,11669,1,11669,1,-0.00056152,-4.3348e-10,0,0.00033961,-0.00014859,-2.2838e+08,-107.01,0,1.2554e+08,-15.408,11668,12551,1,12551,1,0.00079693,2.4079e-09,0,0.0010188,0.00010548,2.3856e+08,755.69,0,3.2816e+08,115.36,12550,510.38,0,510.38,0,0.00078402,2.2043e-09,0,0.00040025,0.00014667,2.635e+08,673.37,0,1.2775e+08,111.93,510.38,1
1764,4.66,12110,1,12110,1,0.00011857,2.672e-09,0,0.00068578,-2.1694e-05,-251.12,826.7,0,2.307e+08,110.24,12109,12992,1,12992,1,0.0014316,1.1428e-08,0,0.0014316,0.0002241,3.7194e+08,3480.3,0,4.8581e+08,635.38,12991,12110,1,12110,1,0.00011857,1.9329e-09,0,0.0006808,-2.1753e-05,4.1735e+07,584.14,0,2.3811e+08,68.625,12109,11203,1,11203,1,-0.0011944,-2.1404e-09,0,2.7314e-05,-0.00026726,-4.8581e+08,-669.21,0,1.1216e+07,-233.78,11202,11669,1,11669,1,-0.00056222,-3.3992e-11,0,0.00034039,-0.00014904,-2.2866e+08,-10.122,0,1.2575e+08,-22.188,11668,12551,1,12551,1,0.00079936,4.9946e-09,0,0.0010212,0.00010561,2.389e+08,1516.5,0,3.2851e+08,224,12550,510.38,0,510.38,0,0.00078582,3.1857e-09,0,0.00040128,0.000147,2.6385e+08,984.41,0,1.2791e+08,175.77,510.38,1
1764,4.67,12110,1,12110,1,0.00011944,-3.9992e-10,0,0.00068743,-2.1854e-05,-170.43,-71.539,0,2.3102e+08,-3.3196,12109,12992,1,12992,1,0.0014355,3.3295e-09,0,0.0014355,0.00022451,3.721e+08,1139.3,0,4.867e+08,244.3,12991,12110,1,12110,1,0.00011944,-5.1567e-10,0,0.00068239,-2.1915e-05,4.2011e+07,-141.86,0,2.3846e+08,0.37689,12109,11203,1,11203,1,-0.0011966,-3.0796e-09,0,2.6781e-05,-0.00026798,-4.867e+08,-843.58,0,1.1007e+07,-173.01,11202,11669,1,11669,1,-0.00056295,-1.8292e-09,0,0.00034119,-0.0001495,-2.2896e+08,-476,0,1.2596e+08,-36.843,11668,12551,1,12551,1,0.00080183,6.6376e-10,0,0.0010236,0.00010575,2.3925e+08,221.01,0,3.2887e+08,30.601,12550,510.38,0,510.38,0,0.00078767,1.692e-09,0,0.00040232,0.00014735,2.6421e+08,505.3,0,1.2808e+08,60.701,510.38,1
1764,4.68,12110,1,12110,1,0.00012032,3.291e-09,0,0.00068906,-2.2015e-05,92.532,1005.4,0,2.3133e+08,65.986,12109,12992,1,12992,1,0.0014394,1.1096e-08,0,0.0014394,0.00022492,3.7223e+08,3373.8,0,4.8759e+08,545.01,12991,12110,1,12110,1,0.00012032,3.0627e-09,0,0.00068396,-2.2076e-05,4.2289e+07,887.96,0,2.388e+08,28.923,12109,11203,1,11203,1,-0.0011988,-2.3069e-09,0,2.6243e-05,-0.00026871,-4.8759e+08,-701.3,0,1.0797e+07,-268.27,11202,11669,1,11669,1,-0.00056364,5.9159e-10,0,0.00034198,-0.00014995,-2.2924e+08,152.77,0,1.2617e+08,-73.945,11668,12551,1,12551,1,0.00080428,5.726e-09,0,0.0010259,0.00010588,2.3959e+08,1755.7,0,3.2922e+08,192.97,12550,510.38,0,510.38,0,0.00078948,3.1128e-09,0,0.00040336,0.00014768,2.6455e+08,966.38,0,1.2824e+08,173.54,510.38,1
1764,4.69,12110,1,12110,1,0.0001212,-6.6304e-10,0,0.00069072,-2.2177e-05,63.605,-148.12,0,2.3165e+08,-25.335,12109,12992,1,12992,1,0.0014434,1.171e-09,0,0.0014434,0.00022533,3.7238e+08,400.98,0,4.8847e+08,289.03,12991,12110,1,12110,1,0.0001212,-3.7275e-10,0,0.00068557,-2.2239e-05,4.2568e+07,-95.332,0,2.3915e+08,-27.993,12109,11203,1,11203,1,-0.001201,-4.0061e-09,0,2.57e-05,-0.00026944,-4.8847e+08,-998.68,0,1.0585e+07,-174.46,11202,11669,1,11669,1,-0.00056437,-1.4819e-09,0,0.00034278,-0.00015041,-2.2954e+08,-380.22,0,1.2638e+08,-78.104,11668,12551,1,12551,1,0.00080677,4.9522e-10,0,0.0010283,0.00010602,2.3994e+08,169.6,0,3.2958e+08,5.8457,12550,510.38,0,510.38,0,0.00079134,1.3568e-09,0,0.00040441,0.00014803,2.6492e+08,364.77,0,1.2842e+08,78.71,510.38,1
1764,4.7,12110,1,12110,1,0.00012209,1.9171e-09,0,0.00069236,-2.2341e-05,698.28,592.96,0,2.3195e+08,33.58,12109,12992,1,12992,1,0.0014473,6.5182e-09,0,0.0014473,0.00022573,3.7249e+08,1965.1,0,4.8935e+08,387.08,12991,12110,1,12110,1,0.00012209,1.8793e-09,0,0.00068714,-2.2404e-05,4.285e+07,547.76,0,2.3949e+08,-3.4081,12109,11203,1,11203,1,-0.0012031,-1.1016e-09,0,2.5149e-05,-0.00027018,-4.8935e+08,-347.69,0,1.037e+07,-170.48,11202,11669,1,11669,1,-0.00056505,4.5977e-10,0,0.00034357,-0.00015087,-2.2981e+08,132.01,0,1.2659e+08,-69.141,11668,12551,1,12551,1,0.00080924,3.2579e-09,0,0.0010307,0.00010615,2.4028e+08,1021.2,0,3.2992e+08,121.6,12550,510.38,0,510.38,0,0.00079316,1.7144e-09,0,0.00040545,0.00014837,2.6526e+08,532.02,0,1.2858e+08,129.03,510.38,1
1764,4.71,12110,1,12110,1,0.00012299,-6.3201e-10,0,0.00069401,-2.2504e-05,29.301,-152.94,0,2.3226e+08,52.813,12109,12992,1,12992,1,0.0014513,4.2025e-09,0,0.0014513,0.00022614,3.7263e+08,1274.5,0,4.9024e+08,284.54,12991,12110,1,12110,1,0.00012299,-4.0537e-10,0,0.00068874,-2.2568e-05,4.313e+07,-97.535,0,2.3984e+08,42.268,12109,11203,1,11203,1,-0.0012053,-4.7876e-09,0,2.4596e-05,-0.00027091,-4.9024e+08,-1348.2,0,1.0155e+07,-110.72,11202,11669,1,11669,1,-0.00056575,-2.2339e-09,0,0.00034437,-0.00015133,-2.301e+08,-628.47,0,1.268e+08,-3.6813,11668,12551,1,12551,1,0.00081173,7.8888e-10,0,0.0010331,0.00010628,2.4062e+08,247.43,0,3.3027e+08,109.08,12550,510.38,0,510.38,0,0.000795,2.1073e-09,0,0.0004065,0.00014871,2.6561e+08,615.72,0,1.2875e+08,75.258,510.38,1
1764,4.72,12110,1,12110,1,0.00012389,-1.2083e-11,0,0.00069566,-2.2669e-05,118.69,9.9332,0,2.3256e+08,27.074,12109,12992,1,12992,1,0.0014553,3.8441e-09,0,0.0014553,0.00022655,3.7275e+08,1165,0,4.9112e+08,343.22,12991,12110,1,12110,1,0.00012389,-1.7455e-10,0,0.00069034,-2.2734e-05,4.3414e+07,-45.094,0,2.4018e+08,13.233,12109,11203,1,11203,1,-0.0012075,-2.5176e-09,0,2.404e-05,-0.00027164,-4.9112e+08,-699.83,0,9.939e+06,-153.98,11202,11669,1,11669,1,-0.00056645,-7.9668e-10,0,0.00034517,-0.00015179,-2.3038e+08,-225.09,0,1.2701e+08,-29.146,11668,12551,1,12551,1,0.00081422,6.2485e-10,0,0.0010355,0.00010641,2.4096e+08,185.73,0,3.3061e+08,67.078,12550,510.38,0,510.38,0,0.00079684,1.2362e-09,0,0.00040756,0.00014905,2.6596e+08,374.83,0,1.2891e+08,86.723,510.38,1
1764,4.73,12110,1,12110,1,0.00012479,2.6732e-09,0,0.00069731,-2.2835e-05,127.95,802.94,0,2.3286e+08,46.925,12109,12992,1,12992,1,0.0014593,7.4651e-09,0,0.0014593,0.00022696,3.7287e+08,2244.4,0,4.9201e+08,493.55,12991,12110,1,12110,1,0.00012479,2.6923e-09,0,0.00069193,-2.2901e-05,4.3698e+07,804.04,0,2.4051e+08,21.06,12109,11203,1,11203,1,-0.0012097,-1.368e-09,0,2.3475e-05,-0.00027238,-4.9201e+08,-420.25,0,9.7204e+06,-157.92,11202,11669,1,11669,1,-0.00056713,1.2819e-09,0,0.00034596,-0.00015225,-2.3066e+08,353.64,0,1.2721e+08,-42.451,11668,12551,1,12551,1,0.00081672,4.0003e-09,0,0.0010379,0.00010654,2.413e+08,1212.2,0,3.3095e+08,121.43,12550,510.38,0,510.38,0,0.00079868,1.9081e-09,0,0.00040861,0.00014939,2.663e+08,589.38,0,1.2907e+08,117.35,510.38,1
1764,4.74,12110,1,12110,1,0.00012571,2.9215e-09,0,0.00069896,-2.3002e-05,325.3,893.8,0,2.3317e+08,14.601,12109,12992,1,12992,1,0.0014633,5.8042e-09,0,0.0014633,0.00022737,3.7298e+08,1752.2,0,4.9289e+08,339.26,12991,12110,1,12110,1,0.0001257,3.3365e-09,0,0.00069352,-2.3068e-05,4.3983e+07,988.25,0,2.4085e+08,-2.1745,12109,11203,1,11203,1,-0.0012118,-1.0237e-09,0,2.2904e-05,-0.00027312,-4.9289e+08,-286.31,0,9.4997e+06,-144.4,11202,11669,1,11669,1,-0.00056782,1.3482e-09,0,0.00034676,-0.00015272,-2.3094e+08,352.45,0,1.2742e+08,-48.102,11668,12551,1,12551,1,0.00081923,4.6494e-09,0,0.0010403,0.00010667,2.4163e+08,1470.7,0,3.3129e+08,65.056,12550,510.38,0,510.38,0,0.00080053,1.9542e-09,0,0.00040967,0.00014974,2.6665e+08,617.66,0,1.2924e+08,88.944,510.38,1
1764,4.75,12110,1,12110,1,0.00012662,-1.2496e-09,0,0.00070061,-2.317e-05,202.13,-326.11,0,2.3347e+08,69.811,12109,12992,1,12992,1,0.0014672,1.7252e-09,0,0.0014672,0.00022777,3.7309e+08,511.41,0,4.9376e+08,321.93,12991,12110,1,12110,1,0.00012662,-7.2492e-10,0,0.00069512,-2.3237e-05,4.427e+07,-188.26,0,2.4119e+08,66.037,12109,11203,1,11203,1,-0.001214,-5.7315e-09,0,2.2326e-05,-0.00027386,-4.9376e+08,-1518.7,0,9.2765e+06,-108.11,11202,11669,1,11669,1,-0.00056849,-2.6641e-09,0,0.00034756,-0.00015318,-2.3121e+08,-742.02,0,1.2762e+08,12.661,11668,12551,1,12551,1,0.00082174,4.0631e-10,0,0.0010427,0.0001068,2.4196e+08,133.2,0,3.3163e+08,122.24,12550,510.38,0,510.38,0,0.00080236,2.0192e-09,0,0.00041072,0.00015008,2.6699e+08,559.28,0,1.294e+08,73.808,510.38,1
1764,4.76,12110,1,12110,1,0.00012754,3.3595e-09,0,0.00070226,-2.3338e-05,102.93,1007.2,0,2.3376e+08,72.009,12109,12992,1,12992,1,0.0014712,8.0786e-09,0,0.0014712,0.00022818,3.7319e+08,2390,0,4.9464e+08,507.45,12991,12110,1,12110,1,0.00012754,3.7618e-09,0,0.0006967,-2.3406e-05,4.4557e+07,1110.6,0,2.4152e+08,28.229,12109,11203,1,11203,1,-0.0012161,-1.4695e-09,0,2.1752e-05,-0.0002746,-4.9464e+08,-503.29,0,9.0555e+06,-210.48,11202,11669,1,11669,1,-0.00056916,1.59e-09,0,0.00034835,-0.00015364,-2.3149e+08,422.27,0,1.2783e+08,-37.94,11668,12551,1,12551,1,0.00082424,5.3352e-09,0,0.0010451,0.00010693,2.4229e+08,1654.1,0,3.3195e+08,184.36,12550,510.38,0,510.38,0,0.0008042,2.3569e-09,0,0.00041178,0.00015042,2.6732e+08,722.18,0,1.2956e+08,159.34,510.38,1
1764,4.77,12110,1,12110,1,0.00012846,1.5903e-09,0,0.00070386,-2.3506e-05,269.15,519.67,0,2.3404e+08,162.35,12109,12992,1,12992,1,0.0014751,1.6098e-08,0,0.0014751,0.00022857,3.7326e+08,4822.9,0,4.9549e+08,839.36,12991,12110,1,12110,1,0.00012846,4.0065e-10,0,0.00069826,-2.3575e-05,4.4843e+07,122,0,2.4184e+08,115.62,12109,11203,1,11203,1,-0.0012182,-7.7738e-09,0,2.1165e-05,-0.00027533,-4.9549e+08,-2102.3,0,8.8297e+06,-320.53,11202,11669,1,11669,1,-0.0005698,-1.4908e-09,0,0.00034912,-0.0001541,-2.3174e+08,-405.87,0,1.2802e+08,-2.4889,11668,12551,1,12551,1,0.00082672,4.2064e-09,0,0.0010474,0.00010705,2.4261e+08,1282.4,0,3.3226e+08,276.56,12550,510.38,0,510.38,0,0.00080598,4.589e-09,0,0.00041281,0.00015075,2.6765e+08,1364.3,0,1.2972e+08,211.85,510.38,1
1764,4.78,12110,1,12110,1,0.00012938,2.5091e-09,0,0.00070554,-2.3675e-05,658.81,797.44,0,2.3435e+08,-22.515,12109,12992,1,12992,1,0.0014792,8.0375e-09,0,0.0014792,0.00022898,3.7338e+08,2492.8,0,4.9638e+08,451.85,12991,12110,1,12110,1,0.00012938,2.2205e-09,0,0.00069988,-2.3745e-05,4.5131e+07,662.78,0,2.4218e+08,-33.735,12109,11203,1,11203,1,-0.0012204,-1.2118e-09,0,2.0586e-05,-0.00027608,-4.9638e+08,-265.86,0,8.6076e+06,-327.14,11202,11669,1,11669,1,-0.00057049,6.3621e-10,0,0.00034993,-0.00015457,-2.3203e+08,170.33,0,1.2823e+08,-104.83,11668,12551,1,12551,1,0.00082925,4.3011e-09,0,0.0010498,0.00010718,2.4295e+08,1364.2,0,3.3261e+08,51.222,12550,510.38,0,510.38,0,0.00080785,2.2236e-09,0,0.00041389,0.0001511,2.68e+08,723.39,0,1.2989e+08,131.41,510.38,1
1764,4.79,12110,1,12110,1,0.00013032,2.7141e-09,0,0.00070721,-2.3847e-05,380.43,858.48,0,2.3465e+08,-5.0128,12109,12992,1,12992,1,0.0014832,8.453e-09,0,0.0014832,0.00022939,3.7348e+08,2627.2,0,4.9726e+08,373.92,12991,12110,1,12110,1,0.00013032,2.383e-09,0,0.00070149,-2.3918e-05,4.5423e+07,721.17,0,2.4251e+08,-15.124,12109,11203,1,11203,1,-0.0012226,-1.4818e-09,0,1.999e-05,-0.00027683,-4.9726e+08,-315.58,0,8.3789e+06,-406.68,11202,11669,1,11669,1,-0.00057116,6.2647e-10,0,0.00035073,-0.00015504,-2.323e+08,167.67,0,1.2844e+08,-86.51,11668,12551,1,12551,1,0.0008318,4.6301e-09,0,0.0010522,0.00010731,2.4328e+08,1464,0,3.3293e+08,84.928,12550,510.38,0,510.38,0,0.00080971,2.4675e-09,0,0.00041496,0.00015145,2.6834e+08,792.31,0,1.3005e+08,132.52,510.38,1
1764,4.8,12110,1,12110,1,0.00013126,1.2028e-09,0,0.00070888,-2.402e-05,239.3,414.94,0,2.3495e+08,-31.537,12109,12992,1,12992,1,0.0014873,4.1518e-09,0,0.0014873,0.00022979,3.7356e+08,1421.2,0,4.9813e+08,329.36,12991,12110,1,12110,1,0.00013126,1.3821e-09,0,0.0007031,-2.4092e-05,4.5717e+07,425.62,0,2.4284e+08,-30.635,12109,11203,1,11203,1,-0.0012247,-2.2818e-09,0,1.9394e-05,-0.00027757,-4.9813e+08,-521.65,0,8.151e+06,-304.11,11202,11669,1,11669,1,-0.00057183,-3.0615e-10,0,0.00035154,-0.00015551,-2.3257e+08,-80.367,0,1.2864e+08,-112.6,11668,12551,1,12551,1,0.00083436,2.6178e-09,0,0.0010546,0.00010743,2.4361e+08,859.84,0,3.3326e+08,31.164,12550,510.38,0,510.38,0,0.00081157,1.6521e-09,0,0.00041604,0.00015179,2.6867e+08,511.01,0,1.3021e+08,124.33,510.38,1
1764,4.81,12110,1,12110,1,0.00013222,7.8141e-10,0,0.00071053,-2.4195e-05,-31.612,273.11,0,2.3523e+08,59.781,12109,12992,1,12992,1,0.0014913,8.61e-09,0,0.0014913,0.00023019,3.7364e+08,2589.3,0,4.99e+08,374.26,12991,12110,1,12110,1,0.00013222,1.4665e-10,0,0.0007047,-2.4268e-05,4.6012e+07,43.752,0,2.4316e+08,60.106,12109,11203,1,11203,1,-0.0012268,-5.0067e-09,0,1.8783e-05,-0.00027832,-4.99e+08,-1312.5,0,7.9177e+06,-212.25,11202,11669,1,11669,1,-0.00057247,-1.0339e-09,0,0.00035234,-0.00015598,-2.3283e+08,-269.65,0,1.2884e+08,-11.096,11668,12551,1,12551,1,0.00083691,2.5066e-09,0,0.001057,0.00010756,2.4393e+08,757.27,0,3.3357e+08,130.95,12550,510.38,0,510.38,0,0.00081341,2.755e-09,0,0.00041712,0.00015213,2.69e+08,824.12,0,1.3037e+08,111.7,510.38,1
1764,4.82,12110,1,12110,1,0.00013317,1.4738e-09,0,0.00071222,-2.437e-05,-11.172,472.43,0,2.3553e+08,-9.9589,12109,12992,1,12992,1,0.0014954,4.5672e-09,0,0.0014954,0.0002306,3.7372e+08,1437,0,4.9988e+08,273.14,12991,12110,1,12110,1,0.00013317,1.5742e-09,0,0.00070632,-2.4444e-05,4.6309e+07,473.95,0,2.4349e+08,-2.0929,12109,11203,1,11203,1,-0.001229,-1.1479e-09,0,1.8174e-05,-0.00027907,-4.9988e+08,-249.23,0,7.6859e+06,-181.92,11202,11669,1,11669,1,-0.00057314,3.0587e-10,0,0.00035315,-0.00015646,-2.331e+08,80.391,0,1.2904e+08,-56.58,11668,12551,1,12551,1,0.00083949,2.3052e-09,0,0.0010595,0.00010768,2.4426e+08,751.19,0,3.339e+08,28.967,12550,510.38,0,510.38,0,0.00081529,1.36e-09,0,0.00041821,0.00015248,2.6934e+08,435.36,0,1.3054e+08,83.037,510.38,1
1764,4.83,12110,1,12110,1,0.00013414,1.5879e-09,0,0.00071388,-2.4547e-05,243.5,506.21,0,2.3581e+08,52.12,12109,12992,1,12992,1,0.0014995,7.5376e-09,0,0.0014995,0.000231,3.7379e+08,2263.3,0,5.0075e+08,341.56,12991,12110,1,12110,1,0.00013414,1.1968e-09,0,0.00070792,-2.4622e-05,4.6607e+07,379.24,0,2.4381e+08,40.631,12109,11203,1,11203,1,-0.0012312,-2.0993e-09,0,1.7551e-05,-0.00027983,-5.0075e+08,-507.24,0,7.4489e+06,-186.19,11202,11669,1,11669,1,-0.00057377,-6.2116e-11,0,0.00035395,-0.00015694,-2.3336e+08,-18.958,0,1.2924e+08,-11.902,11668,12551,1,12551,1,0.00084206,3.0089e-09,0,0.0010619,0.0001078,2.4458e+08,926.72,0,3.3421e+08,111.69,12550,510.38,0,510.38,0,0.00081714,2.0772e-09,0,0.00041929,0.00015283,2.6967e+08,635.68,0,1.3069e+08,97.913,510.38,1
1764,4.84,12110,1,12110,1,0.00013511,1.7789e-09,0,0.00071556,-2.4724e-05,59.306,571.37,0,2.361e+08,49.759,12109,12992,1,12992,1,0.0015035,7.4583e-09,0,0.0015035,0.00023141,3.7386e+08,2237.3,0,5.0162e+08,387.78,12991,12110,1,12110,1,0.00013511,1.452e-09,0,0.00070954,-2.48e-05,4.6906e+07,464.83,0,2.4414e+08,35.677,12109,11203,1,11203,1,-0.0012333,-2.0502e-09,0,1.6929e-05,-0.00028058,-5.0162e+08,-495.21,0,7.2123e+06,-209.69,11202,11669,1,11669,1,-0.00057442,6.2557e-12,0,0.00035476,-0.00015741,-2.3362e+08,1.1984,0,1.2944e+08,-24.026,11668,12551,1,12551,1,0.00084464,3.3418e-09,0,0.0010643,0.00010793,2.449e+08,1050.6,0,3.3452e+08,119.1,12550,510.38,0,510.38,0,0.000819,2.1595e-09,0,0.00042037,0.00015317,2.7e+08,669.47,0,1.3085e+08,109.28,510.38,1
1764,4.85,12110,1,12110,1,0.00013608,1.722e-09,0,0.00071723,-2.4903e-05,403.15,560.4,0,2.3639e+08,40.381,12109,12992,1,12992,1,0.0015076,6.9021e-09,0,0.0015076,0.00023181,3.7392e+08,2078.7,0,5.0249e+08,434.69,12991,12110,1,12110,1,0.00013608,1.4727e-09,0,0.00071115,-2.4979e-05,4.7207e+07,459.55,0,2.4446e+08,18.197,12109,11203,1,11203,1,-0.0012354,-1.8468e-09,0,1.6298e-05,-0.00028134,-5.0249e+08,-443.96,0,6.973e+06,-230.46,11202,11669,1,11669,1,-0.00057506,-1.1047e-10,0,0.00035556,-0.00015789,-2.3388e+08,-29.394,0,1.2964e+08,-36.141,11668,12551,1,12551,1,0.00084722,3.3449e-09,0,0.0010667,0.00010805,2.4522e+08,1035.2,0,3.3483e+08,109.04,12550,510.38,0,510.38,0,0.00082086,2.1034e-09,0,0.00042146,0.00015352,2.7032e+08,656.59,0,1.3101e+08,117.93,510.38,1
1764,4.86,12110,1,12110,1,0.00013706,1.8711e-10,0,0.0007189,-2.5082e-05,-396.95,113.68,0,2.3667e+08,52.83,12109,12992,1,12992,1,0.0015117,4.2649e-09,0,0.0015117,0.0002322,3.7398e+08,1288.6,0,5.0335e+08,457.91,12991,12110,1,12110,1,0.00013706,2.1635e-10,0,0.00071276,-2.5159e-05,4.7507e+07,65.143,0,2.4478e+08,31.033,12109,11203,1,11203,1,-0.0012375,-4.0474e-09,0,1.5666e-05,-0.00028209,-5.0335e+08,-1039,0,6.7339e+06,-147.49,11202,11669,1,11669,1,-0.00057569,-1.2728e-09,0,0.00035637,-0.00015837,-2.3414e+08,-299.78,0,1.2984e+08,-12.527,11668,12551,1,12551,1,0.00084981,1.5254e-09,0,0.0010691,0.00010817,2.4553e+08,487.59,0,3.3514e+08,102.43,12550,510.38,0,510.38,0,0.00082272,1.8835e-09,0,0.00042255,0.00015386,2.7065e+08,557.96,0,1.3117e+08,101.27,510.38,1
1764,4.87,12110,1,12110,1,0.00013804,2.6375e-09,0,0.00072057,-2.5262e-05,-415.57,811.99,0,2.3695e+08,87.568,12109,12992,1,12992,1,0.0015158,1.0058e-08,0,0.0015158,0.00023261,3.7403e+08,3004.7,0,5.0422e+08,426.61,12991,12110,1,12110,1,0.00013804,1.9025e-09,0,0.00071436,-2.534e-05,4.7809e+07,558.97,0,2.4509e+08,76.311,12109,11203,1,11203,1,-0.0012397,-1.9093e-09,0,1.5031e-05,-0.00028285,-5.0422e+08,-562.73,0,6.4938e+06,-203.67,11202,11669,1,11669,1,-0.00057632,3.7181e-10,0,0.00035717,-0.00015885,-2.3439e+08,110.88,0,1.3004e+08,5.027,11668,12551,1,12551,1,0.0008524,4.7885e-09,0,0.0010715,0.00010829,2.4585e+08,1442.2,0,3.3544e+08,169.4,12550,510.38,0,510.38,0,0.00082457,2.8212e-09,0,0.00042364,0.00015421,2.7097e+08,867.43,0,1.3133e+08,121.69,510.38,1
1764,4.88,12110,1,12110,1,0.00013903,1.7878e-09,0,0.00072224,-2.5443e-05,386.2,580.66,0,2.3723e+08,35.894,12109,12992,1,12992,1,0.0015199,8.6716e-09,0,0.0015199,0.000233,3.7408e+08,2592.5,0,5.0508e+08,461.15,12991,12110,1,12110,1,0.00013903,1.1281e-09,0,0.00071598,-2.5522e-05,4.8113e+07,357.44,0,2.4541e+08,21.173,12109,11203,1,11203,1,-0.0012418,-1.9505e-09,0,1.4385e-05,-0.00028361,-5.0508e+08,-479.49,0,6.2497e+06,-241.75,11202,11669,1,11669,1,-0.00057694,-2.7443e-10,0,0.00035798,-0.00015933,-2.3465e+08,-66.67,0,1.3023e+08,-38.822,11668,12551,1,12551,1,0.000855,3.584e-09,0,0.001074,0.0001084,2.4616e+08,1098,0,3.3574e+08,99.603,12550,510.38,0,510.38,0,0.00082643,2.4575e-09,0,0.00042474,0.00015456,2.7129e+08,762.18,0,1.3149e+08,115.83,510.38,1
1764,4.89,12110,1,12110,1,0.00014002,-5.0802e-10,0,0.00072393,-2.5625e-05,-463.05,-85.787,0,2.3751e+08,42.884,12109,12992,1,12992,1,0.001524,3.3436e-09,0,0.001524,0.0002334,3.7413e+08,1144.4,0,5.0594e+08,438.63,12991,12110,1,12110,1,0.00014002,-4.9623e-10,0,0.0007176,-2.5705e-05,4.8418e+07,-124.9,0,2.4573e+08,33.412,12109,11203,1,11203,1,-0.0012439,-4.7963e-09,0,1.3737e-05,-0.00028437,-5.0594e+08,-1263.5,0,6.0055e+06,-191.42,11202,11669,1,11669,1,-0.00057757,-2.1208e-09,0,0.00035879,-0.00015981,-2.349e+08,-534.3,0,1.3043e+08,-23.873,11668,12551,1,12551,1,0.00085762,1.0317e-09,0,0.0010764,0.00010852,2.4647e+08,338.48,0,3.3605e+08,92.808,12550,510.38,0,510.38,0,0.00082831,2.1031e-09,0,0.00042584,0.0001549,2.7162e+08,611,0,1.3165e+08,101.46,510.38,1
1764,4.9,12110,1,12110,1,0.00014103,2.1708e-09,0,0.00072562,-2.581e-05,146.67,665.34,0,2.3779e+08,-1.6927,12109,12992,1,12992,1,0.0015281,5.6753e-09,0,0.0015281,0.00023381,3.7417e+08,1790,0,5.0681e+08,463.94,12991,12110,1,12110,1,0.00014103,2.0837e-09,0,0.00071923,-2.5891e-05,4.8726e+07,635.04,0,2.4604e+08,-4.3899,12109,11203,1,11203,1,-0.0012461,-9.2576e-10,0,1.3084e-05,-0.00028514,-5.0681e+08,-206.52,0,5.7593e+06,-267.79,11202,11669,1,11669,1,-0.00057819,9.2408e-10,0,0.00035961,-0.0001603,-2.3516e+08,237.2,0,1.3062e+08,-55.615,11668,12551,1,12551,1,0.00086025,3.3549e-09,0,0.0010788,0.00010864,2.4679e+08,1030.4,0,3.3634e+08,34.582,12550,510.38,0,510.38,0,0.00083019,1.6225e-09,0,0.00042695,0.00015525,2.7194e+08,518.14,0,1.3181e+08,104.96,510.38,1
1764,4.91,12110,1,12110,1,0.00014204,-9.1872e-10,0,0.00072731,-2.5995e-05,-31.367,-223.6,0,2.3807e+08,69.818,12109,12992,1,12992,1,0.0015322,1.7072e-09,0,0.0015322,0.0002342,3.7421e+08,511.28,0,5.0767e+08,504.2,12991,12110,1,12110,1,0.00014204,-4.9369e-10,0,0.00072084,-2.6077e-05,4.9034e+07,-129.01,0,2.4635e+08,56.951,12109,11203,1,11203,1,-0.0012482,-5.5168e-09,0,1.2422e-05,-0.0002859,-5.0767e+08,-1434.9,0,5.5105e+06,-115.46,11202,11669,1,11669,1,-0.0005788,-2.1722e-09,0,0.00036042,-0.00016078,-2.354e+08,-568.12,0,1.3082e+08,-3.8888,11668,12551,1,12551,1,0.00086288,6.8866e-10,0,0.0010813,0.00010876,2.4709e+08,222.68,0,3.3664e+08,117.76,12550,510.38,0,510.38,0,0.00083206,1.8431e-09,0,0.00042806,0.0001556,2.7226e+08,511.77,0,1.3196e+08,104.49,510.38,1
1764,4.92,12110,1,12110,1,0.00014306,-2.4502e-09,0,0.00072899,-2.6181e-05,290.19,-706.54,0,2.3834e+08,55.445,12109,12992,1,12992,1,0.0015364,1.7365e-09,0,0.0015364,0.0002346,3.7424e+08,594.7,0,5.0853e+08,635.71,12991,12110,1,12110,1,0.00014306,-1.8678e-09,0,0.00072246,-2.6264e-05,4.9344e+07,-534.26,0,2.4666e+08,22.035,12109,11203,1,11203,1,-0.0012503,-8.6115e-09,0,1.1755e-05,-0.00028667,-5.0853e+08,-2445.7,0,5.2597e+06,-151.71,11202,11669,1,11669,1,-0.0005794,-3.9798e-09,0,0.00036123,-0.00016127,-2.3565e+08,-1149.1,0,1.3101e+08,-32.549,11668,12551,1,12551,1,0.00086552,-6.1777e-10,0,0.0010837,0.00010887,2.474e+08,-169.11,0,3.3692e+08,119.26,12550,510.38,0,510.38,0,0.00083393,2.4488e-09,0,0.00042917,0.00015595,2.7257e+08,704.09,0,1.3212e+08,121.01,510.38,1
1764,4.93,12110,1,12110,1,0.00014408,-1.1608e-09,0,0.00073069,-2.6369e-05,564.7,-362.73,0,2.3862e+08,37.53,12109,12992,1,12992,1,0.0015406,3.9065e-09,0,0.0015406,0.000235,3.7426e+08,1048.6,0,5.0939e+08,549.83,12991,12110,1,12110,1,0.00014408,-5.2465e-10,0,0.0007241,-2.6452e-05,4.9656e+07,-154.27,0,2.4697e+08,20.57,12109,11203,1,11203,1,-0.0012524,-6.4768e-09,0,1.1079e-05,-0.00028744,-5.0939e+08,-1920.7,0,5.0063e+06,-161.57,11202,11669,1,11669,1,-0.00058001,-2.8179e-09,0,0.00036204,-0.00016176,-2.359e+08,-848.98,0,1.312e+08,-48.055,11668,12551,1,12551,1,0.00086818,4.7954e-10,0,0.0010861,0.00010899,2.4771e+08,125.37,0,3.3721e+08,87.472,12550,510.38,0,510.38,0,0.00083581,2.2755e-09,0,0.00043028,0.0001563,2.7289e+08,671.25,0,1.3227e+08,118.07,510.38,1
1764,4.94,12110,1,12110,1,0.0001451,1.373e-09,0,0.00073237,-2.6556e-05,-75.718,364.86,0,2.3889e+08,107.48,12109,12992,1,12992,1,0.0015447,8.0308e-09,0,0.0015447,0.00023539,3.7428e+08,2268.8,0,5.1024e+08,629.91,12991,12110,1,12110,1,0.00014511,8.1262e-10,0,0.00072571,-2.6641e-05,4.9968e+07,210.77,0,2.4728e+08,95.875,12109,11203,1,11203,1,-0.0012545,-3.5463e-09,0,1.0399e-05,-0.0002882,-5.1024e+08,-1023.1,0,4.7513e+06,-207.4,11202,11669,1,11669,1,-0.0005806,-7.0154e-10,0,0.00036286,-0.00016225,-2.3614e+08,-203.46,0,1.3139e+08,4.2831,11668,12551,1,12551,1,0.00087082,3.2816e-09,0,0.0010886,0.0001091,2.4801e+08,913.56,0,3.3749e+08,210.28,12550,510.38,0,510.38,0,0.00083768,2.7421e-09,0,0.00043139,0.00015664,2.732e+08,789.36,0,1.3243e+08,141.13,510.38,1
1764,4.95,12110,1,12110,1,0.00014613,3.8826e-09,0,0.00073406,-2.6745e-05,-227.51,1122.6,0,2.3916e+08,75.511,12109,12992,1,12992,1,0.0015489,1.354e-08,0,0.0015489,0.00023579,3.743e+08,3938.1,0,5.1111e+08,634.67,12991,12110,1,12110,1,0.00014613,2.8691e-09,0,0.00072734,-2.683e-05,5.0279e+07,795.42,0,2.4758e+08,80.316,12109,11203,1,11203,1,-0.0012566,-1.9512e-09,0,9.7228e-06,-0.00028898,-5.1111e+08,-668.24,0,4.4981e+06,-357.38,11202,11669,1,11669,1,-0.0005812,4.7449e-10,0,0.00036367,-0.00016274,-2.3638e+08,119.7,0,1.3159e+08,-24.298,11668,12551,1,12551,1,0.00087347,6.7105e-09,0,0.001091,0.00010922,2.4831e+08,1949.7,0,3.3778e+08,164.35,12550,510.38,0,510.38,0,0.00083955,3.9964e-09,0,0.00043251,0.00015699,2.7351e+08,1176.6,0,1.3258e+08,160.36,510.38,1
1764,4.96,12110,1,12110,1,0.00014718,1.9552e-09,0,0.00073577,-2.6936e-05,416.18,604.01,0,2.3943e+08,53.357,12109,12992,1,12992,1,0.0015531,7.8781e-09,0,0.0015531,0.00023619,3.7431e+08,2295.6,0,5.1197e+08,636.61,12991,12110,1,12110,1,0.00014718,1.2522e-09,0,0.00072898,-2.7022e-05,5.0596e+07,382.27,0,2.4789e+08,17.072,12109,11203,1,11203,1,-0.0012587,-1.3204e-09,0,9.0297e-06,-0.00028976,-5.1197e+08,-306.78,0,4.239e+06,-957.8,11202,11669,1,11669,1,-0.0005818,3.3208e-10,0,0.00036449,-0.00016323,-2.3662e+08,85.512,0,1.3178e+08,-75.836,11668,12551,1,12551,1,0.00087616,3.4013e-09,0,0.0010935,0.00010933,2.4862e+08,1043.1,0,3.3806e+08,168.13,12550,510.38,0,510.38,0,0.00084145,2.1021e-09,0,0.00043364,0.00015735,2.7382e+08,648.27,0,1.3274e+08,219.8,510.38,1
1764,4.97,12110,1,12110,1,0.00014823,-1.3064e-10,0,0.00073747,-2.7128e-05,644.51,11.061,0,2.397e+08,-9.3068,12109,12992,1,12992,1,0.0015573,2.2885e-09,0,0.0015573,0.00023658,3.7432e+08,732.05,0,5.1281e+08,637.17,12991,12110,1,12110,1,0.00014823,-5.299e-11,0,0.00073062,-2.7215e-05,5.0914e+07,-15.326,0,2.4819e+08,-28.255,12109,11203,1,11203,1,-0.0012608,-2.9029e-09,0,8.3267e-06,-0.00029053,-5.1281e+08,-706.2,0,3.9763e+06,-803.21,11202,11669,1,11669,1,-0.00058238,-1.0508e-09,0,0.0003653,-0.00016373,-2.3686e+08,-247.46,0,1.3197e+08,-118.82,11668,12551,1,12551,1,0.00087884,7.8109e-10,0,0.0010959,0.00010944,2.4891e+08,254.83,0,3.3834e+08,82.192,12550,510.38,0,510.38,0,0.00084334,1.1958e-09,0,0.00043478,0.0001577,2.7413e+08,338.71,0,1.329e+08,193.71,510.38,1
1764,4.98,12110,1,12110,1,0.00014927,3.6487e-09,0,0.00073916,-2.732e-05,68.038,1086,0,2.3996e+08,28.587,12109,12992,1,12992,1,0.0015615,8.4845e-09,0,0.0015615,0.00023698,3.7432e+08,2520,0,5.1367e+08,527.03,12991,12110,1,12110,1,0.00014927,4.1689e-09,0,0.00073223,-2.7408e-05,5.123e+07,1211.5,0,2.4849e+08,13.865,12109,11203,1,11203,1,-0.0012629,-1.8222e-09,0,7.6326e-06,-0.00029131,-5.1367e+08,-533.8,0,3.7174e+06,-1829.1,11202,11669,1,11669,1,-0.00058296,1.6403e-09,0,0.00036612,-0.00016422,-2.371e+08,416.78,0,1.3216e+08,-85.676,11668,12551,1,12551,1,0.00088151,5.6365e-09,0,0.0010984,0.00010955,2.4921e+08,1724.9,0,3.3861e+08,134.31,12550,510.38,0,510.38,0,0.00084521,2.5665e-09,0,0.0004359,0.00015805,2.7444e+08,785.49,0,1.3305e+08,187.68,510.38,1
1764,4.99,12110,1,12110,1,0.00015033,1.7735e-09,0,0.00074085,-2.7513e-05,-163.12,571.6,0,2.4022e+08,104.07,12109,12992,1,12992,1,0.0015657,1.0721e-08,0,0.0015657,0.00023737,3.7431e+08,3131.8,0,5.1452e+08,691.27,12991,12110,1,12110,1,0.00015033,1.0971e-09,0,0.00073387,-2.7602e-05,5.1548e+07,335.72,0,2.4879e+08,84.712,12109,11203,1,11203,1,-0.001265,-6.62e-09,0,6.9223e-06,-0.00029209,-5.1452e+08,-1628,0,3.4526e+06,-217.76,11202,11669,1,11669,1,-0.00058353,-6.8919e-10,0,0.00036692,-0.00016472,-2.3733e+08,-162.08,0,1.3234e+08,-4.6136,11668,12551,1,12551,1,0.00088419,4.1568e-09,0,0.0011008,0.00010966,2.495e+08,1261.1,0,3.3888e+08,176.97,12550,510.38,0,510.38,0,0.00084709,3.5321e-09,0,0.00043703,0.00015839,2.7474e+08,1026.2,0,1.332e+08,168.55,510.38,1
1764,5,12110,1,12110,1,0.00015139,2.3862e-09,0,0.00074258,-2.7708e-05,-45.706,754.86,0,2.4049e+08,13.069,12109,12992,1,12992,1,0.00157,5.8053e-09,0,0.00157,0.00023777,3.7431e+08,1879.3,0,5.1538e+08,547.66,12991,12110,1,12110,1,0.00015139,2.6432e-09,0,0.00073553,-2.7798e-05,5.1869e+07,796.43,0,2.4909e+08,-11.245,12109,11203,1,11203,1,-0.0012671,-1.4301e-09,0,6.2093e-06,-0.00029287,-5.1538e+08,-307.64,0,3.187e+06,-222.99,11202,11669,1,11669,1,-0.00058412,5.4308e-10,0,0.00036775,-0.00016522,-2.3757e+08,147.74,0,1.3253e+08,-67.919,11668,12551,1,12551,1,0.00088691,4.1227e-09,0,0.0011033,0.00010977,2.498e+08,1328.7,0,3.3915e+08,65.561,12550,510.38,0,510.38,0,0.000849,2.058e-09,0,0.00043818,0.00015875,2.7505e+08,651.3,0,1.3336e+08,125.4,510.38,1
1764,5.01,12110,1,12110,1,0.00015247,1.3432e-09,0,0.00074429,-2.7905e-05,-202.95,459.81,0,2.4075e+08,69.229,12109,12992,1,12992,1,0.0015742,4.1967e-09,0,0.0015742,0.00023816,3.743e+08,1435.5,0,5.1623e+08,636.79,12991,12110,1,12110,1,0.00015247,1.6148e-09,0,0.00073717,-2.7996e-05,5.2193e+07,454.89,0,2.4939e+08,28.54,12109,11203,1,11203,1,-0.0012692,-3.0511e-09,0,5.4841e-06,-0.00029366,-5.1623e+08,-688.83,0,2.9171e+06,-144.43,11202,11669,1,11669,1,-0.00058469,-4.6033e-10,0,0.00036857,-0.00016572,-2.378e+08,-131.43,0,1.3272e+08,-21.17,11668,12551,1,12551,1,0.00088964,3.0666e-09,0,0.0011057,0.00010988,2.5009e+08,999.49,0,3.3942e+08,118.54,12550,510.38,0,510.38,0,0.0008509,1.8317e-09,0,0.00043933,0.0001591,2.7535e+08,558.22,0,1.3351e+08,138.66,510.38,1
1764,5.02,12110,1,12110,1,0.00015355,5.0019e-10,0,0.000746,-2.8103e-05,-157.53,215.09,0,2.4101e+08,108.05,12109,12992,1,12992,1,0.0015784,6.1703e-09,0,0.0015784,0.00023855,3.7428e+08,1772.9,0,5.1708e+08,689.79,12991,12110,1,12110,1,0.00015355,7.0185e-10,0,0.00073881,-2.8195e-05,5.2518e+07,217.5,0,2.4968e+08,73.679,12109,11203,1,11203,1,-0.0012713,-6.0803e-09,0,4.7547e-06,-0.00029444,-5.1708e+08,-1475.7,0,2.6457e+06,-137.44,11202,11669,1,11669,1,-0.00058525,-1.1781e-09,0,0.0003694,-0.00016623,-2.3803e+08,-267.07,0,1.3291e+08,12.676,11668,12551,1,12551,1,0.00089236,2.2568e-09,0,0.0011082,0.00010999,2.5038e+08,705.42,0,3.3968e+08,174.43,12550,510.38,0,510.38,0,0.00085279,2.4892e-09,0,0.00044047,0.00015945,2.7565e+08,701.93,0,1.3367e+08,139.68,510.38,1
1764,5.03,12110,1,12110,1,0.00015464,3.9089e-10,0,0.00074772,-2.8302e-05,243.32,168.05,0,2.4127e+08,49.558,12109,12992,1,12992,1,0.0015827,2.6585e-09,0,0.0015827,0.00023894,3.7426e+08,910.17,0,5.1793e+08,669.77,12991,12110,1,12110,1,0.00015464,5.6928e-10,0,0.00074046,-2.8396e-05,5.2844e+07,176.87,0,2.4997e+08,8.4094,12109,11203,1,11203,1,-0.0012734,-3.1954e-09,0,4.022e-06,-0.00029523,-5.1793e+08,-743.15,0,2.3733e+06,-167.64,11202,11669,1,11669,1,-0.00058581,-7.5068e-10,0,0.00037022,-0.00016673,-2.3825e+08,-166.67,0,1.3309e+08,-44.812,11668,12551,1,12551,1,0.00089509,1.4969e-09,0,0.0011107,0.00011009,2.5067e+08,499.48,0,3.3994e+08,96.6,12550,510.38,0,510.38,0,0.0008547,1.2752e-09,0,0.00044163,0.00015981,2.7595e+08,370.04,0,1.3382e+08,147.6,510.38,1
1764,5.04,12110,1,12110,1,0.00015573,6.883e-10,0,0.00074945,-2.8502e-05,402.63,237.22,0,2.4153e+08,47.446,12109,12992,1,12992,1,0.001587,4.0615e-09,0,0.001587,0.00023934,3.7423e+08,1390,0,5.1878e+08,694.45,12991,12110,1,12110,1,0.00015573,4.4457e-10,0,0.00074211,-2.8597e-05,5.3171e+07,137.41,0,2.5027e+08,-4.6755,12109,11203,1,11203,1,-0.0012755,-2.075e-09,0,3.2874e-06,-0.00029602,-5.1878e+08,-679.4,0,2.1005e+06,-153.6,11202,11669,1,11669,1,-0.00058637,-3.6232e-10,0,0.00037105,-0.00016724,-2.3848e+08,-94.237,0,1.3328e+08,-57.393,11668,12551,1,12551,1,0.00089784,1.718e-09,0,0.0011132,0.0001102,2.5096e+08,542.65,0,3.402e+08,93.637,12550,510.38,0,510.38,0,0.00085661,1.3137e-09,0,0.00044279,0.00016016,2.7625e+08,406.19,0,1.3397e+08,160.47,510.38,1
1764,5.05,12110,1,12110,1,0.00015684,1.2364e-09,0,0.00075117,-2.8703e-05,8.1836,382.04,0,2.4178e+08,143.9,12109,12992,1,12992,1,0.0015913,5.7382e-09,0,0.0015913,0.00023973,3.742e+08,1412.4,0,5.1963e+08,824.19,12991,12110,1,12110,1,0.00015683,1.5015e-09,0,0.00074376,-2.88e-05,5.35e+07,439.25,0,2.5056e+08,81.81,12109,11203,1,11203,1,-0.0012776,-4.727e-09,0,2.5379e-06,-0.00029681,-5.1963e+08,-1094.9,0,1.8222e+06,-74.992,11202,11669,1,11669,1,-0.00058692,-4.6916e-11,0,0.00037187,-0.00016775,-2.3871e+08,-11.665,0,1.3346e+08,20.957,11668,12551,1,12551,1,0.00090059,2.4777e-09,0,0.0011156,0.00011031,2.5125e+08,796.4,0,3.4046e+08,226.85,12550,510.38,0,510.38,0,0.00085852,1.7081e-09,0,0.00044395,0.00016052,2.7655e+08,472.57,0,1.3413e+08,168.9,510.38,1
1764,5.06,12110,1,12110,1,0.00015794,2.5424e-09,0,0.00075289,-2.8906e-05,-169.92,769.23,0,2.4203e+08,130.92,12109,12992,1,12992,1,0.0015956,6.779e-09,0,0.0015956,0.00024012,3.7416e+08,1794.8,0,5.2048e+08,872.5,12991,12110,1,12110,1,0.00015794,2.9549e-09,0,0.00074541,-2.9003e-05,5.3829e+07,861.5,0,2.5084e+08,73.499,12109,11203,1,11203,1,-0.0012797,-3.0674e-09,0,1.7851e-06,-0.00029761,-5.2048e+08,-670.86,0,1.5429e+06,-196.46,11202,11669,1,11669,1,-0.00058746,5.9194e-10,0,0.0003727,-0.00016825,-2.3893e+08,144.01,0,1.3364e+08,-22.674,11668,12551,1,12551,1,0.00090334,4.5522e-09,0,0.0011181,0.00011041,2.5153e+08,1408.5,0,3.4071e+08,258.39,12550,510.38,0,510.38,0,0.00086042,2.3195e-09,0,0.00044511,0.00016087,2.7684e+08,690.02,0,1.3428e+08,210.48,510.38,1
1764,5.07,12110,1,12110,1,0.00015905,8.4681e-10,0,0.00075461,-2.9109e-05,73.222,311.23,0,2.4228e+08,101.56,12109,12992,1,12992,1,0.0015999,3.8855e-09,0,0.0015999,0.00024051,3.7412e+08,1330.1,0,5.2132e+08,777.08,12991,12110,1,12110,1,0.00015905,1.0444e-09,0,0.00074707,-2.9207e-05,5.416e+07,304.25,0,2.5113e+08,40.019,12109,11203,1,11203,1,-0.0012817,-4.3914e-09,0,1.0244e-06,-0.00029841,-5.2132e+08,-983.6,0,1.2608e+06,-162.55,11202,11669,1,11669,1,-0.000588,-6.1338e-10,0,0.00037352,-0.00016876,-2.3915e+08,-169.41,0,1.3382e+08,-27.488,11668,12551,1,12551,1,0.00090611,2.3207e-09,0,0.0011206,0.00011051,2.5181e+08,736.23,0,3.4096e+08,190.28,12550,510.38,0,510.38,0,0.00086233,1.7817e-09,0,0.00044627,0.00016123,2.7714e+08,526.07,0,1.3443e+08,188.58,510.38,1
1764,5.08,12110,1,12110,1,0.00016017,2.7191e-10,0,0.00075633,-2.9313e-05,-151.07,144.68,0,2.4253e+08,172.02,12109,12992,1,12992,1,0.0016041,6.8436e-09,0,0.0016041,0.0002409,3.7407e+08,1810.8,0,5.2215e+08,901.41,12991,12110,1,12110,1,0.00016017,7.6535e-10,0,0.00074872,-2.9413e-05,5.4492e+07,246.96,0,2.5141e+08,128.72,12109,11203,1,11203,1,-0.0012838,-6.969e-09,0,2.6143e-07,-0.0002992,-5.2215e+08,-1649.4,0,9.781e+05,-86.828,11202,11669,1,11669,1,-0.00058854,-1.2207e-09,0,0.00037435,-0.00016928,-2.3936e+08,-284.42,0,1.3401e+08,43.901,11668,12551,1,12551,1,0.00090888,1.8091e-09,0,0.0011231,0.00011062,2.5209e+08,591.87,0,3.412e+08,245.21,12550,510.38,0,510.38,0,0.00086423,2.462e-09,0,0.00044744,0.00016158,2.7743e+08,656.71,0,1.3458e+08,172.4,510.38,1
1764,5.09,12110,1,12110,1,0.0001613,-8.8968e-10,0,0.0007581,-2.9519e-05,-672.32,-204.91,0,2.4278e+08,157.22,12109,12992,1,12992,1,0.0016085,4.9703e-09,0,0.0016085,0.00024129,3.7403e+08,1308.2,0,5.23e+08,760.58,12991,12110,1,12110,1,0.00016129,-3.4292e-10,0,0.00075037,-2.962e-05,5.4826e+07,-90.826,0,2.517e+08,131.41,12109,11203,1,11203,1,-0.0012859,-6.9674e-09,0,4.9096e-07,-0.0003,-5.23e+08,-1682.9,0,6.9442e+05,-105.17,11202,11669,1,11669,1,-0.00058908,-2.4961e-09,0,0.00037519,-0.00016979,-2.3958e+08,-655.21,0,1.3419e+08,50.202,11668,12551,1,12551,1,0.00091167,7.3943e-10,0,0.0011256,0.00011072,2.5237e+08,240.1,0,3.4145e+08,215.09,12550,510.38,0,510.38,0,0.00086615,2.3961e-09,0,0.00044856,0.00016194,2.7772e+08,633.56,0,1.3473e+08,145.5,510.38,1
1764,5.1,12110,1,12110,1,0.00016243,-2.2826e-10,0,0.00075989,-2.9726e-05,-431.63,-38.534,0,2.4302e+08,157.6,12109,12992,1,12992,1,0.0016128,5.0556e-09,0,0.0016128,0.00024168,3.7397e+08,1313.1,0,5.2384e+08,850.35,12991,12110,1,12110,1,0.00016243,-3.3403e-11,0,0.00075204,-2.9829e-05,5.5163e+07,-8.865,0,2.5198e+08,102.92,12109,11203,1,11203,1,-0.0012879,-5.5052e-09,0,1.2728e-06,-0.0003008,-5.2384e+08,-1331.9,0,4.0697e+05,-107.88,11202,11669,1,11669,1,-0.00058961,-1.2992e-09,0,0.00037602,-0.00017031,-2.398e+08,-356.1,0,1.3437e+08,40.359,11668,12551,1,12551,1,0.00091447,9.1019e-10,0,0.0011281,0.00011082,2.5264e+08,279.61,0,3.4169e+08,230.03,12550,510.38,0,510.38,0,0.00086807,1.8618e-09,0,0.00044964,0.00016229,2.7801e+08,504.1,0,1.3488e+08,172.23,510.38,1
1764,5.11,12110,1,12110,1,0.00016357,3.0947e-09,0,0.00076167,-2.9935e-05,399.66,900.5,0,2.4326e+08,99.143,12109,12992,1,12992,1,0.0016172,1.27e-08,0,0.0016172,0.00024207,3.7391e+08,3553,0,5.2468e+08,876.5,12991,12110,1,12110,1,0.00016357,2.6942e-09,0,0.00075369,-3.0039e-05,5.55e+07,792.04,0,2.5226e+08,52.384,12109,11203,1,11203,1,-0.00129,-2.912e-09,0,2.0629e-06,-0.00030161,-5.2468e+08,-680.38,0,1.1679e+05,-247.72,11202,11669,1,11669,1,-0.00059012,9.2291e-10,0,0.00037685,-0.00017082,-2.4001e+08,238.4,0,1.3455e+08,-42.454,11668,12551,1,12551,1,0.00091726,4.8626e-09,0,0.0011305,0.00011092,2.5292e+08,1431.6,0,3.4192e+08,216.55,12550,510.38,0,510.38,0,0.00086997,3.0173e-09,0,0.00045072,0.00016265,2.7829e+08,861.79,0,1.3503e+08,195.91,510.38,1
1764,5.12,12110,1,12110,1,0.00016472,9.5956e-10,0,0.00076348,-3.0145e-05,28.441,331.97,0,2.4352e+08,72.23,12109,12992,1,12992,1,0.0016215,3.7422e-09,0,0.0016215,0.00024246,3.7384e+08,1237,0,5.2553e+08,910.97,12991,12110,1,12110,1,0.00016471,9.1812e-10,0,0.00075536,-3.025e-05,5.5838e+07,283.01,0,2.5254e+08,8.2446,12109,11203,1,11203,1,-0.0012921,-4.2308e-09,0,2.8434e-06,-0.00030241,-5.2553e+08,-959.52,0,1.7041e+05,-157.4,11202,11669,1,11669,1,-0.00059065,-4.3018e-10,0,0.00037769,-0.00017134,-2.4022e+08,-101.8,0,1.3472e+08,-54.558,11668,12551,1,12551,1,0.00092008,2.4442e-09,0,0.001133,0.00011102,2.5319e+08,775.95,0,3.4216e+08,128.89,12550,510.38,0,510.38,0,0.00087191,1.6295e-09,0,0.00045182,0.00016301,2.7858e+08,485.5,0,1.3516e+08,196.62,510.38,1
1764,5.13,12110,1,12110,1,0.00016587,-3.1127e-09,0,0.00076528,-3.0356e-05,27.962,-831.77,0,2.4379e+08,160.89,12109,12992,1,12992,1,0.0016259,2.6538e-09,0,0.0016259,0.00024285,3.7378e+08,908.72,0,5.2637e+08,993.14,12991,12110,1,12110,1,0.00016587,-3.2018e-09,0,0.00075704,-3.0463e-05,5.6179e+07,-934.41,0,2.5281e+08,108.13,12109,11203,1,11203,1,-0.0012941,-8.3034e-09,0,3.6416e-06,-0.00030322,-5.2637e+08,-2063.5,0,4.6511e+05,-130.09,11202,11669,1,11669,1,-0.00059116,-5.2994e-09,0,0.00037851,-0.00017186,-2.4043e+08,-1388.2,0,1.349e+08,39.715,11668,12551,1,12551,1,0.00092291,-9.1859e-10,0,0.0011355,0.00011112,2.5346e+08,-249.77,0,3.424e+08,218.4,12550,510.38,0,510.38,0,0.00087384,2.6987e-09,0,0.00045292,0.00016336,2.7886e+08,712.97,0,1.3528e+08,184.07,510.38,1
1764,5.14,12110,1,12110,1,0.00016703,-1.6722e-09,0,0.00076707,-3.0569e-05,298.5,-482.5,0,2.4404e+08,196.62,12109,12992,1,12992,1,0.0016302,6.5435e-09,0,0.0016302,0.00024323,3.7369e+08,1533.4,0,5.2719e+08,1001.4,12991,12110,1,12110,1,0.00016703,-1.1413e-09,0,0.00075869,-3.0676e-05,5.652e+07,-357.3,0,2.5308e+08,162.46,12109,11203,1,11203,1,-0.0012962,-8.2402e-09,0,4.4539e-06,-0.00030402,-5.2719e+08,-2116.3,0,7.6478e+05,-601.25,11202,11669,1,11669,1,-0.00059165,-3.5345e-09,0,0.00037934,-0.00017238,-2.4063e+08,-1016,0,1.3508e+08,41.958,11668,12551,1,12551,1,0.00092572,1.7822e-10,0,0.001138,0.00011121,2.5373e+08,47.381,0,3.4262e+08,298.11,12550,510.38,0,510.38,0,0.00087575,2.7718e-09,0,0.00045401,0.00016372,2.7914e+08,743.51,0,1.3538e+08,213.9,510.38,1
1764,5.15,12110,1,12110,1,0.0001682,3.2536e-10,0,0.00076888,-3.0782e-05,-271.78,62.196,0,2.443e+08,146.18,12109,12992,1,12992,1,0.0016346,4.8676e-09,0,0.0016346,0.00024362,3.7361e+08,1145.7,0,5.2803e+08,1164.5,12991,12110,1,12110,1,0.0001682,4.633e-11,0,0.00076037,-3.0891e-05,5.6862e+07,12.791,0,2.5336e+08,66.523,12109,11203,1,11203,1,-0.0012982,-4.3175e-09,0,5.2549e-06,-0.00030484,-5.2803e+08,-1041.7,0,1.0601e+06,-510.88,11202,11669,1,11669,1,-0.00059217,-5.0699e-10,0,0.00038019,-0.00017291,-2.4084e+08,-171.35,0,1.3525e+08,-3.8531,11668,12551,1,12551,1,0.00092857,1.2741e-09,0,0.0011406,0.00011131,2.54e+08,320.61,0,3.4285e+08,222.41,12550,510.38,0,510.38,0,0.00087769,1.3519e-09,0,0.00045512,0.00016408,2.7942e+08,347.09,0,1.355e+08,225.41,510.38,1
1764,5.16,12110,1,12110,1,0.00016938,-7.0683e-10,0,0.00077069,-3.0997e-05,-391.74,-214.98,0,2.4456e+08,161.42,12109,12992,1,12992,1,0.0016391,3.9484e-09,0,0.0016391,0.00024401,3.7352e+08,894.05,0,5.2887e+08,912.04,12991,12110,1,12110,1,0.00016937,-9.0822e-10,0,0.00076205,-3.1108e-05,5.7208e+07,-256.38,0,2.5363e+08,94.015,12109,11203,1,11203,1,-0.0013003,-4.047e-09,0,6.076e-06,-0.00030565,-5.2887e+08,-1003.8,0,1.3627e+06,-76.939,11202,11669,1,11669,1,-0.00059267,-1.5417e-09,0,0.00038102,-0.00017343,-2.4104e+08,-481.27,0,1.3543e+08,44.516,11668,12551,1,12551,1,0.00093142,1.1731e-10,0,0.0011431,0.00011141,2.5426e+08,28.394,0,3.4308e+08,203.99,12550,510.38,0,510.38,0,0.00087963,1.1884e-09,0,0.00045623,0.00016444,2.797e+08,332.84,0,1.3561e+08,182.13,510.38,1
1764,5.17,12110,1,12110,1,0.00017056,-3.1372e-10,0,0.00077251,-3.1213e-05,-225.18,-110.23,0,2.4482e+08,206.89,12109,12992,1,12992,1,0.0016435,7.496e-09,0,0.0016435,0.00024439,3.7343e+08,1786.1,0,5.2971e+08,1102.6,12991,12110,1,12110,1,0.00017056,-3.4814e-10,0,0.00076372,-3.1326e-05,5.7555e+07,-112.78,0,2.539e+08,148.02,12109,11203,1,11203,1,-0.0013023,-6.5921e-09,0,6.9003e-06,-0.00030647,-5.2971e+08,-1585.9,0,1.666e+06,-64.943,11202,11669,1,11669,1,-0.00059317,-1.5744e-09,0,0.00038186,-0.00017396,-2.4124e+08,-470.56,0,1.356e+08,54.078,11668,12551,1,12551,1,0.00093429,6.6809e-10,0,0.0011456,0.0001115,2.5453e+08,162.87,0,3.433e+08,285.69,12550,510.38,0,510.38,0,0.00088156,2.1769e-09,0,0.00045734,0.0001648,2.7998e+08,562.97,0,1.3572e+08,210.72,510.38,1
1764,5.18,12110,1,12110,1,0.00017176,-6.8176e-10,0,0.00077433,-3.1431e-05,-188.11,-214.33,0,2.4507e+08,180.1,12109,12992,1,12992,1,0.0016479,4.0716e-09,0,0.0016479,0.00024478,3.7333e+08,918.01,0,5.3054e+08,1181.7,12991,12110,1,12110,1,0.00017175,-7.768e-10,0,0.00076541,-3.1545e-05,5.7903e+07,-225.88,0,2.5417e+08,84.386,12109,11203,1,11203,1,-0.0013044,-5.2221e-09,0,7.7327e-06,-0.00030729,-5.3054e+08,-1247,0,1.9721e+06,-81.436,11202,11669,1,11669,1,-0.00059366,-1.5924e-09,0,0.00038271,-0.00017449,-2.4144e+08,-503.81,0,1.3577e+08,21.634,11668,12551,1,12551,1,0.00093717,3.1675e-10,0,0.0011481,0.00011159,2.5479e+08,75.334,0,3.4349e+08,245.93,12550,510.38,0,510.38,0,0.00088351,1.3707e-09,0,0.00045845,0.00016516,2.8026e+08,376.65,0,1.3583e+08,237.36,510.38,1
1764,5.19,12110,1,12110,1,0.00017295,-1.7866e-09,0,0.00077613,-3.1649e-05,-527.36,-537.9,0,2.4532e+08,243.41,12109,12992,1,12992,1,0.0016524,6.7084e-09,0,0.0016524,0.00024516,3.7323e+08,1619.6,0,5.3137e+08,1185,12991,12110,1,12110,1,0.00017294,-1.6024e-09,0,0.00076707,-3.1765e-05,5.8252e+07,-485.46,0,2.5443e+08,205.32,12109,11203,1,11203,1,-0.0013064,-8.7575e-09,0,8.5626e-06,-0.00030811,-5.3137e+08,-2179.3,0,2.2771e+06,-99.938,11202,11669,1,11669,1,-0.00059413,-3.88e-09,0,0.00038355,-0.00017502,-2.4164e+08,-1133.2,0,1.3594e+08,73.827,11668,12551,1,12551,1,0.00094003,2.9728e-10,0,0.0011506,0.00011169,2.5504e+08,82.178,0,3.4345e+08,334.4,12550,510.38,0,510.38,0,0.00088544,2.9618e-09,0,0.00045956,0.00016552,2.8053e+08,808.94,0,1.3594e+08,221.72,510.38,1
1764,5.2,12110,1,12110,1,0.00017416,2.8895e-09,0,0.00077796,-3.187e-05,185.04,748.53,0,2.4557e+08,159.15,12109,12992,1,12992,1,0.0016568,1.2035e-08,0,0.0016568,0.00024555,3.7314e+08,2883,0,5.322e+08,1461.8,12991,12110,1,12110,1,0.00017415,2.1535e-09,0,0.00076877,-3.1987e-05,5.8603e+07,625.09,0,2.547e+08,71.271,12109,11203,1,11203,1,-0.0013085,-3.5423e-09,0,9.4068e-06,-0.00030893,-5.322e+08,-808.2,0,2.5865e+06,-209.46,11202,11669,1,11669,1,-0.00059461,2.8956e-10,0,0.00038438,-0.00017556,-2.4183e+08,91.832,0,1.3612e+08,-40.18,11668,12551,1,12551,1,0.00094292,5.3636e-09,0,0.0011531,0.00011178,2.553e+08,1359.2,0,3.4341e+08,257.84,12550,510.38,0,510.38,0,0.00088738,3.2309e-09,0,0.00046069,0.00016588,2.808e+08,818.98,0,1.3605e+08,289.01,510.38,1
1764,5.21,12110,1,12110,1,0.00017537,3.0822e-10,0,0.0007798,-3.2092e-05,226.19,88.519,0,2.4582e+08,182.19,12109,12992,1,12992,1,0.0016613,5.0737e-09,0,0.0016613,0.00024593,3.7302e+08,1319.9,0,5.3303e+08,1246.6,12991,12110,1,12110,1,0.00017537,3.458e-10,0,0.00077046,-3.2211e-05,5.8956e+07,97.34,0,2.5496e+08,70.635,12109,11203,1,11203,1,-0.0013105,-5.1006e-09,0,1.0268e-05,-0.00030976,-5.3303e+08,-1170,0,2.902e+06,-69.678,11202,11669,1,11669,1,-0.00059509,-2.2884e-11,0,0.00038523,-0.00017609,-2.4203e+08,-5.6172,0,1.3629e+08,7.4409,11668,12551,1,12551,1,0.00094584,6.8868e-10,0,0.0011557,0.00011187,2.5556e+08,184.4,0,3.4337e+08,264.34,12550,510.38,0,510.38,0,0.00088934,1.2257e-09,0,0.00046182,0.00016624,2.8107e+08,323.64,0,1.3616e+08,254.9,510.38,1
1764,5.22,12110,1,12110,1,0.00017659,-1.4197e-09,0,0.00078161,-3.2314e-05,-21.465,-398.85,0,2.4607e+08,254.97,12109,12992,1,12992,1,0.0016657,5.3238e-09,0,0.0016657,0.00024631,3.7289e+08,1215.8,0,5.3385e+08,1434.5,12991,12110,1,12110,1,0.00017659,-1.0603e-09,0,0.00077214,-3.2435e-05,5.931e+07,-326.45,0,2.5522e+08,172.64,12109,11203,1,11203,1,-0.0013125,-1.0558e-08,0,1.1128e-05,-0.00031058,-5.3385e+08,-2569.5,0,3.2168e+06,-120.37,11202,11669,1,11669,1,-0.00059555,-2.4287e-09,0,0.00038607,-0.00017663,-2.4221e+08,-717.4,0,1.3645e+08,49.348,11668,12551,1,12551,1,0.00094873,1.1388e-10,0,0.0011582,0.00011196,2.5581e+08,26.049,0,3.4331e+08,352.15,12550,510.38,0,510.38,0,0.00089128,2.4804e-09,0,0.00046294,0.0001666,2.8134e+08,636.86,0,1.3626e+08,283.35,510.38,1
1764,5.23,12110,1,12110,1,0.00017782,1.2663e-09,0,0.00078346,-3.2539e-05,-41.59,332.53,0,2.4632e+08,195.31,12109,12992,1,12992,1,0.0016702,7.0374e-09,0,0.0016702,0.0002467,3.7278e+08,1593.6,0,5.3469e+08,1347.6,12991,12110,1,12110,1,0.00017782,1.3251e-09,0,0.00077384,-3.2661e-05,5.9665e+07,374.47,0,2.5548e+08,75.109,12109,11203,1,11203,1,-0.0013146,-4.0866e-09,0,1.1988e-05,-0.00031142,-5.3469e+08,-1060.6,0,3.5311e+06,-66.921,11202,11669,1,11669,1,-0.00059603,2.6552e-10,0,0.00038692,-0.00017717,-2.4241e+08,69.099,0,1.3663e+08,16.329,11668,12551,1,12551,1,0.00095167,2.2812e-09,0,0.0011608,0.00011205,2.5607e+08,597.15,0,3.4326e+08,280.66,12550,510.38,0,510.38,0,0.00089325,1.568e-09,0,0.00046408,0.00016697,2.8161e+08,406.93,0,1.3637e+08,266.41,510.38,1
1764,5.24,12110,1,12110,1,0.00017906,-1.7062e-09,0,0.00078529,-3.2765e-05,224.67,-487.08,0,2.4656e+08,292.19,12109,12992,1,12992,1,0.0016748,8.3598e-09,0,0.0016748,0.00024708,3.7265e+08,1899.4,0,5.3551e+08,1345,12991,12110,1,12110,1,0.00017906,-1.5821e-09,0,0.00077553,-3.2889e-05,6.0023e+07,-482.41,0,2.5573e+08,239.61,12109,11203,1,11203,1,-0.0013166,-9.9558e-09,0,1.2867e-05,-0.00031225,-5.3551e+08,-2418,0,3.8521e+06,-194.2,11202,11669,1,11669,1,-0.00059647,-3.6561e-09,0,0.00038777,-0.00017771,-2.4259e+08,-1045.8,0,1.3679e+08,87.29,11668,12551,1,12551,1,0.00095459,3.738e-10,0,0.0011633,0.00011213,2.5631e+08,85.075,0,3.4319e+08,390.81,12550,510.38,0,510.38,0,0.00089519,3.0992e-09,0,0.00046521,0.00016733,2.8187e+08,806.5,0,1.3648e+08,280.23,510.38,1
1764,5.25,12110,1,12110,1,0.00018031,-9.0595e-10,0,0.00078715,-3.2992e-05,245,-295.13,0,2.4681e+08,223.4,12109,12992,1,12992,1,0.0016793,4.6238e-09,0,0.0016793,0.00024747,3.7252e+08,1149.6,0,5.3635e+08,1416.5,12991,12110,1,12110,1,0.0001803,-1.0669e-09,0,0.00077724,-3.3118e-05,6.0382e+07,-317.21,0,2.56e+08,105.17,12109,11203,1,11203,1,-0.0013187,-5.8373e-09,0,1.3742e-05,-0.00031309,-5.3635e+08,-1713.7,0,4.171e+06,-88.194,11202,11669,1,11669,1,-0.00059694,-2.2443e-09,0,0.00038863,-0.00017825,-2.4278e+08,-697.97,0,1.3696e+08,33.058,11668,12551,1,12551,1,0.00095755,5.4307e-10,0,0.0011659,0.00011222,2.5657e+08,136.18,0,3.4314e+08,315.83,12550,510.38,0,510.38,0,0.00089717,1.7593e-09,0,0.00046637,0.0001677,2.8214e+08,504.05,0,1.3659e+08,283.81,510.38,1
1764,5.26,12110,1,12110,1,0.00018156,-3.6424e-10,0,0.00078898,-3.3221e-05,-467.41,-150.78,0,2.4704e+08,314.73,12109,12992,1,12992,1,0.0016838,8.6399e-09,0,0.0016838,0.00024785,3.7237e+08,1928.1,0,5.3717e+08,1571.4,12991,12110,1,12110,1,0.00018155,-6.5826e-10,0,0.00077893,-3.3348e-05,6.0743e+07,-201.08,0,2.5624e+08,194.12,12109,11203,1,11203,1,-0.0013207,-8.0258e-09,0,1.4632e-05,-0.00031393,-5.3717e+08,-1894,0,4.4947e+06,-67.659,11202,11669,1,11669,1,-0.00059738,-1.8539e-09,0,0.00038947,-0.0001788,-2.4296e+08,-586.04,0,1.3712e+08,85.747,11668,12551,1,12551,1,0.0009605,1.0257e-09,0,0.0011684,0.00011231,2.5681e+08,225.78,0,3.4306e+08,454.54,12550,510.38,0,510.38,0,0.00089913,2.4356e-09,0,0.00046751,0.00016806,2.824e+08,616.97,0,1.3669e+08,316.45,510.38,1
1764,5.27,12110,1,12110,1,0.00018282,8.1064e-13,0,0.00079084,-3.3452e-05,147.11,-48.855,0,2.4729e+08,250.34,12109,12992,1,12992,1,0.0016884,8.1625e-09,0,0.0016884,0.00024823,3.7224e+08,1856.5,0,5.38e+08,1544.5,12991,12110,1,12110,1,0.00018282,-4.0214e-10,0,0.00078065,-3.3581e-05,6.1106e+07,-114.64,0,2.565e+08,146.3,12109,11203,1,11203,1,-0.0013227,-6.7073e-09,0,1.5527e-05,-0.00031477,-5.38e+08,-1551.2,0,4.8199e+06,-100.76,11202,11669,1,11669,1,-0.00059783,-1.3647e-09,0,0.00039033,-0.00017935,-2.4314e+08,-444.52,0,1.3729e+08,47.528,11668,12551,1,12551,1,0.00096347,1.1139e-09,0,0.001171,0.0001124,2.5706e+08,265.35,0,3.4299e+08,358.42,12550,510.38,0,510.38,0,0.00090111,2.1606e-09,0,0.00046867,0.00016843,2.8266e+08,549.12,0,1.368e+08,297.11,510.38,1
1764,5.28,12110,1,12110,1,0.00018409,2.8717e-09,0,0.0007927,-3.3684e-05,-175.09,764.63,0,2.4753e+08,234.96,12109,12992,1,12992,1,0.001693,1.1221e-08,0,0.001693,0.00024861,3.7209e+08,2576.5,0,5.3883e+08,1670.2,12991,12110,1,12110,1,0.00018409,2.9205e-09,0,0.00078237,-3.3816e-05,6.1472e+07,820.54,0,2.5675e+08,85.677,12109,11203,1,11203,1,-0.0013248,-4.4632e-09,0,1.6431e-05,-0.00031561,-5.3883e+08,-961.87,0,5.1479e+06,-117.52,11202,11669,1,11669,1,-0.00059828,5.4452e-10,0,0.00039118,-0.0001799,-2.4332e+08,151.13,0,1.3745e+08,9.1519,11668,12551,1,12551,1,0.00096646,4.9554e-09,0,0.0011735,0.00011248,2.573e+08,1312.2,0,3.4291e+08,360.17,12550,510.38,0,510.38,0,0.00090308,2.8231e-09,0,0.00046982,0.00016879,2.8292e+08,726.64,0,1.369e+08,336.83,510.38,1
1764,5.29,12110,1,12110,1,0.00018538,-1.1609e-09,0,0.00079456,-3.3917e-05,-153.35,-312.99,0,2.4776e+08,308.15,12109,12992,1,12992,1,0.0016975,7.7841e-09,0,0.0016975,0.00024899,3.7193e+08,1795.7,0,5.3964e+08,1504.1,12991,12110,1,12110,1,0.00018537,-9.9907e-10,0,0.00078407,-3.4051e-05,6.1837e+07,-309.57,0,2.5699e+08,224.02,12109,11203,1,11203,1,-0.0013268,-1.0187e-08,0,1.735e-05,-0.00031646,-5.3964e+08,-2348.1,0,5.4806e+06,-111.41,11202,11669,1,11669,1,-0.0005987,-2.5138e-09,0,0.00039204,-0.00018045,-2.4349e+08,-732.81,0,1.3761e+08,74.781,11668,12551,1,12551,1,0.00096945,3.6776e-10,0,0.0011761,0.00011256,2.5753e+08,87.67,0,3.4282e+08,418.68,12550,510.38,0,510.38,0,0.00090505,2.734e-09,0,0.00047098,0.00016916,2.8318e+08,689.3,0,1.3701e+08,313.51,510.38,1
1764,5.3,12110,1,12110,1,0.00018666,-1.9265e-09,0,0.00079642,-3.4152e-05,-550.31,-554.49,0,2.4799e+08,320.79,12109,12992,1,12992,1,0.0017021,7.2369e-09,0,0.0017021,0.00024937,3.7177e+08,1601.5,0,5.4047e+08,1593.3,12991,12110,1,12110,1,0.00018665,-1.6077e-09,0,0.00078578,-3.4287e-05,6.2203e+07,-492.74,0,2.5724e+08,238.35,12109,11203,1,11203,1,-0.0013288,-1.108e-08,0,1.8266e-05,-0.00031731,-5.4047e+08,-2589.5,0,5.8113e+06,-68.501,11202,11669,1,11669,1,-0.00059913,-4.0461e-09,0,0.0003929,-0.000181,-2.4367e+08,-1171.3,0,1.3778e+08,88.862,11668,12551,1,12551,1,0.00097244,3.173e-10,0,0.0011787,0.00011265,2.5777e+08,80.496,0,3.4273e+08,436.07,12550,510.38,0,510.38,0,0.00090703,3.168e-09,0,0.00047215,0.00016953,2.8343e+08,824.75,0,1.3711e+08,319.53,510.38,1
1764,5.31,12110,1,12110,1,0.00018795,1.5271e-09,0,0.00079829,-3.4388e-05,-369.28,384.29,0,2.4823e+08,306.41,12109,12992,1,12992,1,0.0017067,1.0477e-08,0,0.0017067,0.00024975,3.7161e+08,2377.3,0,5.4128e+08,1825.9,12991,12110,1,12110,1,0.00018795,9.8662e-10,0,0.0007875,-3.4525e-05,6.2573e+07,289.33,0,2.5749e+08,156.4,12109,11203,1,11203,1,-0.0013308,-7.213e-09,0,1.9189e-05,-0.00031816,-5.4128e+08,-1632.5,0,6.1444e+06,-71.712,11202,11669,1,11669,1,-0.00059956,9.3188e-11,0,0.00039376,-0.00018155,-2.4384e+08,26.298,0,1.3794e+08,56.368,11668,12551,1,12551,1,0.00097546,3.2677e-09,0,0.0011813,0.00011273,2.5801e+08,810.54,0,3.4264e+08,434.51,12550,510.38,0,510.38,0,0.00090902,2.5553e-09,0,0.00047332,0.0001699,2.8369e+08,620.13,0,1.3722e+08,359.67,510.38,1
1764,5.32,12110,1,12110,1,0.00018926,-1.0098e-09,0,0.00080017,-3.4626e-05,7.0502,-301.08,0,2.4846e+08,284.74,12109,12992,1,12992,1,0.0017114,5.2199e-09,0,0.0017114,0.00025013,3.7143e+08,1570.3,0,5.4211e+08,1826.6,12991,12110,1,12110,1,0.00018925,-9.1119e-10,0,0.00078922,-3.4765e-05,6.2945e+07,-260.27,0,2.5773e+08,133.17,12109,11203,1,11203,1,-0.0013328,-8.7541e-09,0,2.0125e-05,-0.00031901,-5.4211e+08,-2515,0,6.4813e+06,-81.553,11202,11669,1,11669,1,-0.00059998,-1.8009e-09,0,0.00039462,-0.00018211,-2.4401e+08,-562.17,0,1.381e+08,42.699,11668,12551,1,12551,1,0.00097849,8.0759e-11,0,0.0011839,0.00011281,2.5825e+08,21.157,0,3.4255e+08,404.14,12550,510.38,0,510.38,0,0.00091101,1.9937e-09,0,0.0004745,0.00017026,2.8394e+08,559.87,0,1.3732e+08,361.26,510.38,1
1764,5.33,12110,1,12110,1,0.00019058,-5.8663e-10,0,0.00080206,-3.4867e-05,-272.63,-201.83,0,2.4869e+08,320.68,12109,12992,1,12992,1,0.001716,7.5294e-09,0,0.001716,0.00025051,3.7126e+08,1912.5,0,5.4293e+08,1868.8,12991,12110,1,12110,1,0.00019057,-7.8843e-10,0,0.00079096,-3.5007e-05,6.3318e+07,-225.84,0,2.5797e+08,193.36,12109,11203,1,11203,1,-0.0013349,-8.6228e-09,0,2.1069e-05,-0.00031988,-5.4293e+08,-2510.8,0,6.8197e+06,-55.717,11202,11669,1,11669,1,-0.0006004,-1.9165e-09,0,0.00039549,-0.00018268,-2.4418e+08,-589.85,0,1.3826e+08,77.476,11668,12551,1,12551,1,0.00098154,6.6563e-10,0,0.0011865,0.00011289,2.5848e+08,161.11,0,3.4245e+08,422.96,12550,510.38,0,510.38,0,0.00091301,2.3754e-09,0,0.00047568,0.00017064,2.842e+08,646.21,0,1.3743e+08,352.27,510.38,1
1764,5.34,12110,1,12110,1,0.00019191,1.689e-09,0,0.00080394,-3.5109e-05,104.33,430.21,0,2.4892e+08,336.31,12109,12992,1,12992,1,0.0017207,1.0104e-08,0,0.0017207,0.00025089,3.7108e+08,2198.5,0,5.4375e+08,2044.6,12991,12110,1,12110,1,0.0001919,2.0506e-09,0,0.00079269,-3.5252e-05,6.3695e+07,558.07,0,2.5821e+08,193.94,12109,11203,1,11203,1,-0.0013369,-8.2514e-09,0,2.2025e-05,-0.00032074,-5.4375e+08,-2383,0,7.1622e+06,-91.101,11202,11669,1,11669,1,-0.0006008,-2.5202e-10,0,0.00039635,-0.00018324,-2.4434e+08,-69.032,0,1.3841e+08,67.327,11668,12551,1,12551,1,0.0009846,3.7923e-09,0,0.001189,0.00011297,2.5871e+08,1027.2,0,3.4233e+08,469.98,12550,510.38,0,510.38,0,0.00091501,2.9077e-09,0,0.00047687,0.00017101,2.8445e+08,774.29,0,1.3753e+08,390.8,510.38,1
1764,5.35,12110,1,12110,1,0.00019324,1.7768e-09,0,0.00080583,-3.5352e-05,184.03,488.26,0,2.4915e+08,344.2,12109,12992,1,12992,1,0.0017254,1.0782e-08,0,0.0017254,0.00025127,3.7089e+08,2660.1,0,5.4457e+08,1970.7,12991,12110,1,12110,1,0.00019323,2.1723e-09,0,0.00079443,-3.5497e-05,6.4072e+07,580.43,0,2.5844e+08,217.9,12109,11203,1,11203,1,-0.0013389,-9.0665e-09,0,2.2987e-05,-0.0003216,-5.4457e+08,-2307.1,0,7.5056e+06,-80.276,11202,11669,1,11669,1,-0.0006012,-1.633e-10,0,0.00039722,-0.0001838,-2.4451e+08,-34.376,0,1.3857e+08,57.771,11668,12551,1,12551,1,0.00098767,3.8577e-09,0,0.0011917,0.00011305,2.5894e+08,1087,0,3.4222e+08,489.4,12550,510.38,0,510.38,0,0.00091701,3.0081e-09,0,0.00047806,0.00017138,2.8469e+08,820.99,0,1.3763e+08,395.68,510.38,1
1764,5.36,12110,1,12110,1,0.00019458,-2.3719e-09,0,0.00080771,-3.5596e-05,-169.22,-644.95,0,2.4936e+08,453.28,12109,12992,1,12992,1,0.00173,1.1719e-08,0,0.00173,0.00025165,3.7069e+08,2568,0,5.4538e+08,1880.1,12991,12110,1,12110,1,0.00019457,-2.0041e-09,0,0.00079615,-3.5742e-05,6.4449e+07,-623.37,0,2.5868e+08,408.49,12109,11203,1,11203,1,-0.0013409,-1.5109e-08,0,2.3955e-05,-0.00032246,-5.4538e+08,-3435.9,0,7.8505e+06,-123.3,11202,11669,1,11669,1,-0.00060159,-4.9781e-09,0,0.00039808,-0.00018437,-2.4467e+08,-1427,0,1.3872e+08,138.82,11668,12551,1,12551,1,0.00099073,3.245e-10,0,0.0011942,0.00011312,2.5916e+08,70.555,0,3.421e+08,625.41,12550,510.38,0,510.38,0,0.000919,4.4953e-09,0,0.00047925,0.00017175,2.8493e+08,1114.8,0,1.3773e+08,389,510.38,1
1764,5.37,12110,1,12110,1,0.00019592,-4.6242e-10,0,0.00080961,-3.5842e-05,5.2571,-157.34,0,2.4959e+08,399.81,12109,12992,1,12992,1,0.0017348,1.1625e-08,0,0.0017348,0.00025203,3.705e+08,2542.6,0,5.462e+08,2140.3,12991,12110,1,12110,1,0.00019591,-7.1001e-10,0,0.0007979,-3.599e-05,6.4829e+07,-207.66,0,2.5891e+08,264.62,12109,11203,1,11203,1,-0.0013429,-1.1632e-08,0,2.4926e-05,-0.00032333,-5.462e+08,-2593.2,0,8.1951e+06,-69.145,11202,11669,1,11669,1,-0.00060199,-1.8259e-09,0,0.00039896,-0.00018494,-2.4483e+08,-540.13,0,1.3888e+08,92.107,11668,12551,1,12551,1,0.00099382,8.4145e-10,0,0.0011969,0.0001132,2.5939e+08,206.7,0,3.4198e+08,554.43,12550,510.38,0,510.38,0,0.00092102,3.1354e-09,0,0.00048046,0.00017212,2.8518e+08,789.06,0,1.3783e+08,424.34,510.38,1
1764,5.38,12110,1,12110,1,0.00019728,-2.0693e-09,0,0.00081151,-3.609e-05,-117.97,-603.56,0,2.4981e+08,453.01,12109,12992,1,12992,1,0.0017395,1.367e-08,0,0.0017395,0.0002524,3.7029e+08,3000.4,0,5.4701e+08,2163.9,12991,12110,1,12110,1,0.00019727,-2.2721e-09,0,0.00079963,-3.6239e-05,6.521e+07,-684.21,0,2.5914e+08,356.7,12109,11203,1,11203,1,-0.0013449,-1.3585e-08,0,2.5912e-05,-0.00032421,-5.4701e+08,-3083.3,0,8.5442e+06,-107.73,11202,11669,1,11669,1,-0.00060237,-5.1065e-09,0,0.00039982,-0.00018551,-2.4498e+08,-1476.2,0,1.3903e+08,133.33,11668,12551,1,12551,1,0.00099691,6.594e-10,0,0.0011995,0.00011327,2.596e+08,153.92,0,3.4185e+08,607.52,12550,510.38,0,510.38,0,0.00092302,4.4199e-09,0,0.00048166,0.00017249,2.8542e+08,1126.7,0,1.3793e+08,434.6,510.38,1
1764,5.39,12110,1,12110,1,0.00019865,-1.7968e-09,0,0.00081341,-3.6339e-05,446.32,-562.88,0,2.5003e+08,403.16,12109,12992,1,12992,1,0.0017442,1.4075e-08,0,0.0017442,0.00025278,3.7008e+08,3076.1,0,5.4783e+08,2241.7,12991,12110,1,12110,1,0.00019864,-2.3008e-09,0,0.00080137,-3.6491e-05,6.5593e+07,-669.01,0,2.5937e+08,284.38,12109,11203,1,11203,1,-0.0013469,-1.1868e-08,0,2.6902e-05,-0.00032508,-5.4783e+08,-2678.4,0,8.8934e+06,-167.08,11202,11669,1,11669,1,-0.00060274,-5.0219e-09,0,0.0004007,-0.00018608,-2.4514e+08,-1443.7,0,1.3918e+08,83.527,11668,12551,1,12551,1,0.001,8.7149e-10,0,0.0012021,0.00011334,2.5982e+08,229.41,0,3.4172e+08,565.14,12550,510.38,0,510.38,0,0.00092504,4.2786e-09,0,0.00048287,0.00017287,2.8566e+08,1118.4,0,1.3804e+08,448.69,510.38,1
1764,5.4,12110,1,12110,1,0.00020002,-3.3865e-10,0,0.00081533,-3.6591e-05,4.0479,-181.67,0,2.5025e+08,391.85,12109,12992,1,12992,1,0.001749,1.1049e-08,0,0.001749,0.00025316,3.6988e+08,2367.5,0,5.4865e+08,2545.1,12991,12110,1,12110,1,0.00020001,-4.9504e-10,0,0.00080313,-3.6744e-05,6.5979e+07,-137.84,0,2.596e+08,187.15,12109,11203,1,11203,1,-0.0013489,-1.0457e-08,0,2.7895e-05,-0.00032596,-5.4865e+08,-2926.1,0,9.2429e+06,-104.33,11202,11669,1,11669,1,-0.00060313,-2.3615e-09,0,0.00040158,-0.00018666,-2.4529e+08,-749.58,0,1.3934e+08,57.331,11668,12551,1,12551,1,0.0010032,1.7646e-09,0,0.0012047,0.00011342,2.6005e+08,400.92,0,3.4159e+08,565.93,12550,510.38,0,510.38,0,0.00092707,3.1588e-09,0,0.00048409,0.00017325,2.8591e+08,854.27,0,1.3814e+08,491.78,510.38,1
1764,5.41,12110,1,12110,1,0.0002014,5.4213e-11,0,0.00081722,-3.6843e-05,-282.15,-59.51,0,2.5045e+08,529.65,12109,12992,1,12992,1,0.0017537,1.871e-08,0,0.0017537,0.00025353,3.6964e+08,4238.6,0,5.4944e+08,2835.8,12991,12110,1,12110,1,0.00020139,-6.5993e-10,0,0.00080486,-3.6997e-05,6.6364e+07,-195.36,0,2.5981e+08,342.17,12109,11203,1,11203,1,-0.0013509,-1.6532e-08,0,2.8907e-05,-0.00032683,-5.4944e+08,-3744.5,0,9.5974e+06,-130.09,11202,11669,1,11669,1,-0.00060347,-2.8265e-09,0,0.00040244,-0.00018723,-2.4543e+08,-876.46,0,1.3948e+08,122.45,11668,12551,1,12551,1,0.0010063,2.3859e-09,0,0.0012073,0.00011349,2.6025e+08,609.38,0,3.4143e+08,766.17,12550,510.38,0,510.38,0,0.00092906,5.2414e-09,0,0.00048529,0.00017361,2.8613e+08,1269,0,1.3823e+08,555.15,510.38,1
1764,5.42,12110,1,12110,1,0.0002028,-2.3586e-10,0,0.00081917,-3.7097e-05,-142.37,-148.9,0,2.5068e+08,428.55,12109,12992,1,12992,1,0.0017585,1.1752e-08,0,0.0017585,0.00025391,3.6944e+08,2577.8,0,5.5027e+08,2606.7,12991,12110,1,12110,1,0.00020278,-5.0542e-10,0,0.00080664,-3.7253e-05,6.6753e+07,-140.25,0,2.6005e+08,239,12109,11203,1,11203,1,-0.0013529,-1.0999e-08,0,2.9914e-05,-0.00032772,-5.5027e+08,-3186.8,0,9.9493e+06,-69.645,11202,11669,1,11669,1,-0.00060386,-2.4255e-09,0,0.00040334,-0.00018782,-2.4559e+08,-744.26,0,1.3964e+08,83.876,11668,12551,1,12551,1,0.0010094,1.8017e-09,0,0.00121,0.00011356,2.6047e+08,400.02,0,3.4131e+08,593.26,12550,510.38,0,510.38,0,0.00093112,3.4089e-09,0,0.00048654,0.000174,2.8638e+08,913.31,0,1.3834e+08,499.05,510.38,1
1764,5.43,12110,1,12110,1,0.00020421,3.1773e-09,0,0.0008211,-3.7355e-05,100.12,788.95,0,2.5089e+08,491.36,12109,12992,1,12992,1,0.0017633,2.0022e-08,0,0.0017633,0.00025428,3.6921e+08,4428.1,0,5.5108e+08,2985.8,12991,12110,1,12110,1,0.0002042,3.088e-09,0,0.00080841,-3.7514e-05,6.7147e+07,865.29,0,2.6026e+08,297.67,12109,11203,1,11203,1,-0.0013549,-1.2623e-08,0,3.0952e-05,-0.00032861,-5.5108e+08,-2696.1,0,1.031e+07,-146.89,11202,11669,1,11669,1,-0.00060421,-5.2517e-10,0,0.00040421,-0.0001884,-2.4573e+08,-120.66,0,1.3979e+08,104.54,11668,12551,1,12551,1,0.0010126,6.5936e-09,0,0.0012126,0.00011363,2.6068e+08,1726.3,0,3.4115e+08,681.41,12550,510.38,0,510.38,0,0.00093315,5.0736e-09,0,0.00048777,0.00017437,2.8661e+08,1253,0,1.3844e+08,557.63,510.38,1
1764,5.44,12110,1,12110,1,0.00020563,5.1929e-10,0,0.00082304,-3.7615e-05,229.42,141.74,0,2.511e+08,504.97,12109,12992,1,12992,1,0.0017682,1.4701e-08,0,0.0017682,0.00025466,3.6896e+08,3294.8,0,5.5189e+08,2724.4,12991,12110,1,12110,1,0.00020562,6.693e-10,0,0.00081019,-3.7775e-05,6.7542e+07,184.82,0,2.6048e+08,345.49,12109,11203,1,11203,1,-0.0013569,-1.5198e-08,0,3.2001e-05,-0.0003295,-5.5189e+08,-3272.3,0,1.0674e+07,-56.876,11202,11669,1,11669,1,-0.00060457,-9.0866e-10,0,0.0004051,-0.00018899,-2.4588e+08,-254.44,0,1.3993e+08,111.66,11668,12551,1,12551,1,0.0010158,2.213e-09,0,0.0012153,0.0001137,2.6089e+08,594.89,0,3.4099e+08,694.7,12550,510.38,0,510.38,0,0.0009352,3.9757e-09,0,0.00048902,0.00017475,2.8685e+08,999.38,0,1.3854e+08,536.68,510.38,1
1764,5.45,12110,1,12110,1,0.00020706,-4.7809e-10,0,0.00082498,-3.7876e-05,155.68,-130.42,0,2.5131e+08,552.01,12109,12992,1,12992,1,0.001773,1.5298e-08,0,0.001773,0.00025504,3.6871e+08,3276.8,0,5.527e+08,2849.3,12991,12110,1,12110,1,0.00020705,-4.2979e-10,0,0.00081196,-3.8038e-05,6.7939e+07,-126.78,0,2.607e+08,393.14,12109,11203,1,11203,1,-0.0013589,-1.7915e-08,0,3.3051e-05,-0.0003304,-5.527e+08,-3897.9,0,1.1037e+07,-91.087,11202,11669,1,11669,1,-0.00060491,-2.1386e-09,0,0.00040599,-0.00018958,-2.4602e+08,-582.62,0,1.4008e+08,132.55,11668,12551,1,12551,1,0.001019,1.3463e-09,0,0.001218,0.00011377,2.611e+08,377.86,0,3.4083e+08,768.13,12550,510.38,0,510.38,0,0.00093725,4.4173e-09,0,0.00049027,0.00017514,2.8708e+08,1086.8,0,1.3864e+08,562.42,510.38,1
1764,5.46,12110,1,12110,1,0.0002085,1.6202e-09,0,0.00082693,-3.8139e-05,47.607,436.16,0,2.5152e+08,555.91,12109,12992,1,12992,1,0.0017779,1.8831e-08,0,0.0017779,0.00025541,3.6846e+08,4095.4,0,5.5351e+08,2928,12991,12110,1,12110,1,0.00020849,1.7524e-09,0,0.00081374,-3.8303e-05,6.8337e+07,482.16,0,2.6092e+08,366.11,12109,11203,1,11203,1,-0.0013609,-1.4985e-08,0,3.411e-05,-0.0003313,-5.5351e+08,-3171.5,0,1.1401e+07,-78.79,11202,11669,1,11669,1,-0.00060525,-6.2023e-10,0,0.00040688,-0.00019018,-2.4615e+08,-158.63,0,1.4022e+08,125.27,11668,12551,1,12551,1,0.0010222,3.6437e-09,0,0.0012206,0.00011383,2.613e+08,981.32,0,3.4066e+08,774.62,12550,510.38,0,510.38,0,0.00093931,4.4668e-09,0,0.00049152,0.00017552,2.8731e+08,1120.8,0,1.3874e+08,585.09,510.38,1
1764,5.47,12110,1,12110,1,0.00020995,-2.2009e-09,0,0.00082888,-3.8404e-05,395.82,-576.29,0,2.5172e+08,582.63,12109,12992,1,12992,1,0.0017828,1.5302e-08,0,0.0017828,0.00025579,3.6821e+08,3227.6,0,5.5432e+08,3033.7,12991,12110,1,12110,1,0.00020994,-2.0067e-09,0,0.00081552,-3.857e-05,6.8738e+07,-586.97,0,2.6113e+08,396.73,12109,11203,1,11203,1,-0.0013629,-2.2128e-08,0,3.5175e-05,-0.0003322,-5.5432e+08,-4840.9,0,1.1767e+07,-102.73,11202,11669,1,11669,1,-0.00060558,-4.7924e-09,0,0.00040777,-0.00019077,-2.4629e+08,-1297.5,0,1.4037e+08,124.89,11668,12551,1,12551,1,0.0010255,6.9607e-10,0,0.0012233,0.0001139,2.615e+08,162.16,0,3.4048e+08,817.8,12550,510.38,0,510.38,0,0.00094136,5.2893e-09,0,0.00049278,0.0001759,2.8753e+08,1291.1,0,1.3884e+08,616.42,510.38,1
1764,5.48,12110,1,12110,1,0.00021141,2.0598e-09,0,0.00083085,-3.867e-05,173.63,541.58,0,2.5193e+08,628.17,12109,12992,1,12992,1,0.0017877,2.1877e-08,0,0.0017877,0.00025616,3.6795e+08,4793.2,0,5.5513e+08,3311.4,12991,12110,1,12110,1,0.0002114,2.2042e-09,0,0.00081731,-3.8838e-05,6.9139e+07,617.71,0,2.6134e+08,414.31,12109,11203,1,11203,1,-0.0013649,-1.7102e-08,0,3.6251e-05,-0.00033311,-5.5513e+08,-3636.6,0,1.2134e+07,-158.71,11202,11669,1,11669,1,-0.00060591,-9.4379e-10,0,0.00040866,-0.00019137,-2.4642e+08,-224.89,0,1.4051e+08,138.89,11668,12551,1,12551,1,0.0010287,4.9672e-09,0,0.001226,0.00011396,2.6171e+08,1326.2,0,3.4031e+08,896.23,12550,510.38,0,510.38,0,0.00094343,5.2459e-09,0,0.00049405,0.00017628,2.8776e+08,1295.1,0,1.3894e+08,659.06,510.38,1
1764,5.49,12110,1,12110,1,0.00021288,-1.6559e-11,0,0.00083281,-3.8939e-05,-172.9,36.035,0,2.5213e+08,652.82,12109,12992,1,12992,1,0.0017926,1.8776e-08,0,0.0017926,0.00025653,3.6768e+08,4161.1,0,5.5593e+08,3370.7,12991,12110,1,12110,1,0.00021287,1.7329e-10,0,0.0008191,-3.9107e-05,6.9543e+07,48.516,0,2.6155e+08,422.14,12109,11203,1,11203,1,-0.0013668,-2.0386e-08,0,3.7333e-05,-0.00033401,-5.5593e+08,-4341.4,0,1.2502e+07,-75.613,11202,11669,1,11669,1,-0.00060624,-2.0199e-09,0,0.00040956,-0.00019197,-2.4655e+08,-523.17,0,1.4065e+08,145.27,11668,12551,1,12551,1,0.001032,2.0155e-09,0,0.0012287,0.00011402,2.619e+08,567.54,0,3.4012e+08,908.09,12550,510.38,0,510.38,0,0.0009455,5.1322e-09,0,0.00049532,0.00017666,2.8798e+08,1255.7,0,1.3903e+08,685.86,510.38,1
1764,5.5,12110,1,12110,1,0.00021436,-2.8821e-09,0,0.00083477,-3.9209e-05,-24.565,-755.65,0,2.5232e+08,683.45,12109,12992,1,12992,1,0.0017976,1.7102e-08,0,0.0017976,0.00025691,3.6741e+08,3606.6,0,5.5674e+08,3564.5,12991,12110,1,12110,1,0.00021435,-2.61e-09,0,0.00082089,-3.938e-05,6.9949e+07,-780.96,0,2.6175e+08,476.07,12109,11203,1,11203,1,-0.0013688,-2.5743e-08,0,3.8429e-05,-0.00033493,-5.5674e+08,-5589.6,0,1.2874e+07,-133.87,11202,11669,1,11669,1,-0.00060655,-6.2138e-09,0,0.00041045,-0.00019257,-2.4668e+08,-1657.6,0,1.4079e+08,158.19,11668,12551,1,12551,1,0.0010353,7.3086e-10,0,0.0012313,0.00011408,2.621e+08,160.83,0,3.3993e+08,950.24,12550,510.38,0,510.38,0,0.00094756,6.1771e-09,0,0.0004966,0.00017705,2.882e+08,1495.7,0,1.3913e+08,707.16,510.38,1
1764,5.51,12110,1,12110,1,0.00021585,-8.1338e-10,0,0.00083675,-3.9481e-05,310.69,-249.32,0,2.5252e+08,680.12,12109,12992,1,12992,1,0.0018025,2.0615e-08,0,0.0018025,0.00025728,3.6712e+08,4365.3,0,5.5754e+08,3780,12991,12110,1,12110,1,0.00021584,-1.1993e-09,0,0.00082269,-3.9654e-05,7.0356e+07,-320,0,2.6196e+08,412.17,12109,11203,1,11203,1,-0.0013708,-2.2443e-08,0,3.9533e-05,-0.00033584,-5.5754e+08,-4815.2,0,1.3247e+07,-112.02,11202,11669,1,11669,1,-0.00060686,-3.1844e-09,0,0.00041136,-0.00019318,-2.4681e+08,-935.16,0,1.4093e+08,130.99,11668,12551,1,12551,1,0.0010385,1.5393e-09,0,0.0012341,0.00011415,2.6229e+08,392.95,0,3.3974e+08,958.38,12550,510.38,0,510.38,0,0.00094964,5.6443e-09,0,0.00049788,0.00017743,2.8843e+08,1373,0,1.3923e+08,747.68,510.38,1
1764,5.52,12110,1,12110,1,0.00021735,-1.748e-09,0,0.00083873,-3.9756e-05,351.25,-514.3,0,2.5272e+08,730.51,12109,12992,1,12992,1,0.0018075,2.2311e-08,0,0.0018075,0.00025765,3.6684e+08,4718,0,5.5835e+08,3924.5,12991,12110,1,12110,1,0.00021734,-2.1639e-09,0,0.00082449,-3.9929e-05,7.0765e+07,-631.93,0,2.6216e+08,472.33,12109,11203,1,11203,1,-0.0013728,-2.4979e-08,0,4.0646e-05,-0.00033676,-5.5835e+08,-5390.2,0,1.3621e+07,-160.28,11202,11669,1,11669,1,-0.00060716,-5.0699e-09,0,0.00041226,-0.00019378,-2.4693e+08,-1497.1,0,1.4107e+08,151.45,11668,12551,1,12551,1,0.0010418,1.4298e-09,0,0.0012368,0.0001142,2.6248e+08,326.04,0,3.3954e+08,1041.5,12550,510.38,0,510.38,0,0.00095172,6.4638e-09,0,0.00049918,0.00017782,2.8864e+08,1561.4,0,1.3933e+08,781.45,510.38,1
1764,5.53,12110,1,12110,1,0.00021887,-1.7188e-09,0,0.00084074,-4.0032e-05,-59.507,-542.28,0,2.5292e+08,719.92,12109,12992,1,12992,1,0.0018126,1.91e-08,0,0.0018126,0.00025803,3.6655e+08,4156,0,5.5917e+08,4161.5,12991,12110,1,12110,1,0.00021885,-2.0045e-09,0,0.00082631,-4.0207e-05,7.1178e+07,-533.85,0,2.6236e+08,395.5,12109,11203,1,11203,1,-0.0013748,-2.2446e-08,0,4.1759e-05,-0.00033769,-5.5917e+08,-5048,0,1.3995e+07,-65.589,11202,11669,1,11669,1,-0.00060747,-4.5498e-09,0,0.00041317,-0.0001944,-2.4706e+08,-1396.7,0,1.4121e+08,133.47,11668,12551,1,12551,1,0.0010452,9.9186e-10,0,0.0012395,0.00011427,2.6267e+08,223.1,0,3.3934e+08,1015,12550,510.38,0,510.38,0,0.00095383,5.5884e-09,0,0.00050048,0.00017821,2.8887e+08,1462.1,0,1.3943e+08,819.15,510.38,1
1764,5.54,12110,1,12110,1,0.0002204,2.6078e-09,0,0.00084273,-4.0312e-05,185.56,606.63,0,2.531e+08,845.36,12109,12992,1,12992,1,0.0018176,2.7204e-08,0,0.0018176,0.0002584,3.6626e+08,5773.5,0,5.5996e+08,4535.3,12991,12110,1,12110,1,0.00022038,2.5697e-09,0,0.00082812,-4.0489e-05,7.1594e+07,726.19,0,2.6255e+08,605.27,12109,11203,1,11203,1,-0.0013767,-2.2925e-08,0,4.2902e-05,-0.00033862,-5.5996e+08,-4792.5,0,1.4376e+07,-77.545,11202,11669,1,11669,1,-0.00060775,-1.2782e-09,0,0.00041408,-0.00019501,-2.4717e+08,-374.3,0,1.4134e+08,205.04,11668,12551,1,12551,1,0.0010485,6.8581e-09,0,0.0012422,0.00011432,2.6286e+08,1701.8,0,3.3912e+08,1166.6,12550,510.38,0,510.38,0,0.00095592,7.0211e-09,0,0.00050179,0.0001786,2.8908e+08,1718.3,0,1.3953e+08,859.54,510.38,1
1764,5.55,12110,1,12110,1,0.00022194,6.0876e-10,0,0.00084475,-4.0593e-05,-80.665,134.6,0,2.533e+08,833.02,12109,12992,1,12992,1,0.0018226,2.351e-08,0,0.0018226,0.00025878,3.6595e+08,5432.2,0,5.6077e+08,4415.2,12991,12110,1,12110,1,0.00022192,8.186e-10,0,0.00082996,-4.0772e-05,7.2012e+07,221.5,0,2.6275e+08,565.04,12109,11203,1,11203,1,-0.0013787,-2.4488e-08,0,4.4054e-05,-0.00033955,-5.6077e+08,-5211.8,0,1.476e+07,-50.857,11202,11669,1,11669,1,-0.00060804,-2.1194e-09,0,0.00041499,-0.00019564,-2.4729e+08,-598.34,0,1.4148e+08,189.22,11668,12551,1,12551,1,0.0010519,3.529e-09,0,0.001245,0.00011438,2.6304e+08,891.54,0,3.3891e+08,1146.7,12550,510.38,0,510.38,0,0.00095804,6.4719e-09,0,0.00050311,0.00017899,2.8929e+08,1651.8,0,1.3963e+08,875.41,510.38,1
1764,5.56,12110,1,12110,1,0.00022349,4.0182e-09,0,0.00084676,-4.0877e-05,375.06,1083.1,0,2.5348e+08,932.42,12109,12992,1,12992,1,0.0018277,2.7591e-08,0,0.0018277,0.00025915,3.6564e+08,6088.4,0,5.6158e+08,4631.8,12991,12110,1,12110,1,0.00022348,5.1076e-09,0,0.00083178,-4.1056e-05,7.2431e+07,1365.2,0,2.6294e+08,714.06,12109,11203,1,11203,1,-0.0013807,-2.5966e-08,0,4.5217e-05,-0.00034049,-5.6158e+08,-5324.8,0,1.5145e+07,-160.29,11202,11669,1,11669,1,-0.00060831,-6.6601e-10,0,0.00041591,-0.00019626,-2.474e+08,-165.32,0,1.4161e+08,228,11668,12551,1,12551,1,0.0010553,9.2183e-09,0,0.0012477,0.00011443,2.6322e+08,2577.1,0,3.3868e+08,1322,12550,510.38,0,510.38,0,0.00096015,7.7534e-09,0,0.00050443,0.00017938,2.895e+08,1984.5,0,1.3972e+08,913.31,510.38,1
1764,5.57,12110,1,12110,1,0.00022505,-1.8799e-09,0,0.00084878,-4.1162e-05,-56.179,-436.78,0,2.5367e+08,954.5,12109,12992,1,12992,1,0.0018328,2.6196e-08,0,0.0018328,0.00025952,3.6532e+08,6347.7,0,5.6238e+08,4620.1,12991,12110,1,12110,1,0.00022503,-1.8478e-09,0,0.00083361,-4.1343e-05,7.2853e+07,-519.54,0,2.6314e+08,699.66,12109,11203,1,11203,1,-0.0013827,-3.2344e-08,0,4.6375e-05,-0.00034143,-5.6238e+08,-6730.7,0,1.5528e+07,-72.265,11202,11669,1,11669,1,-0.00060859,-5.865e-09,0,0.00041682,-0.00019688,-2.4751e+08,-1501.4,0,1.4174e+08,228.75,11668,12551,1,12551,1,0.0010587,1.9675e-09,0,0.0012505,0.00011449,2.634e+08,535.59,0,3.3846e+08,1319,12550,510.38,0,510.38,0,0.00096227,8.227e-09,0,0.00050577,0.00017977,2.8971e+08,2027,0,1.3982e+08,954.4,510.38,1
1764,5.58,12110,1,12110,1,0.00022663,1.7989e-11,0,0.00085081,-4.145e-05,-17.826,29.862,0,2.5386e+08,1031.8,12109,12992,1,12992,1,0.001838,2.9545e-08,0,0.001838,0.00025989,3.65e+08,6654,0,5.6319e+08,4917.1,12991,12110,1,12110,1,0.00022661,2.9025e-10,0,0.00083546,-4.1632e-05,7.3277e+07,75.304,0,2.6333e+08,775.5,12109,11203,1,11203,1,-0.0013847,-3.1838e-08,0,4.7558e-05,-0.00034238,-5.6319e+08,-6557.6,0,1.5918e+07,-25.298,11202,11669,1,11669,1,-0.00060886,-3.4275e-09,0,0.00041775,-0.00019751,-2.4762e+08,-914.44,0,1.4188e+08,262.57,11668,12551,1,12551,1,0.0010621,3.5593e-09,0,0.0012532,0.00011454,2.6358e+08,971.53,0,3.3823e+08,1424.3,12550,510.38,0,510.38,0,0.0009644,8.3059e-09,0,0.00050711,0.00018017,2.8993e+08,2073,0,1.3992e+08,1004.2,510.38,1
1764,5.59,12110,1,12110,1,0.00022822,1.9215e-09,0,0.00085284,-4.174e-05,-190.13,552.4,0,2.5403e+08,1147.8,12109,12992,1,12992,1,0.0018431,3.4267e-08,0,0.0018431,0.00026026,3.6466e+08,7158.3,0,5.6398e+08,5254.1,12991,12110,1,12110,1,0.00022819,2.6975e-09,0,0.00083729,-4.1923e-05,7.3703e+07,729.85,0,2.6351e+08,908.56,12109,11203,1,11203,1,-0.0013866,-3.453e-08,0,4.8747e-05,-0.00034333,-5.6398e+08,-7103.1,0,1.6309e+07,-67.86,11202,11669,1,11669,1,-0.00060911,-2.2636e-09,0,0.00041867,-0.00019814,-2.4772e+08,-591.98,0,1.4215e+08,315.62,11668,12551,1,12551,1,0.0010655,6.1656e-09,0,0.001256,0.00011459,2.6375e+08,1741.8,0,3.3798e+08,1599.2,12550,510.38,0,510.38,0,0.00096652,9.3165e-09,0,0.00050845,0.00018056,2.9013e+08,2270.8,0,1.4001e+08,1060.8,510.38,1
1764,5.6,12110,1,12110,1,0.00022981,1.7646e-09,0,0.00085488,-4.2032e-05,-280.48,554.76,0,2.5422e+08,1144.5,12109,12992,1,12992,1,0.0018483,3.1484e-08,0,0.0018483,0.00026064,3.6433e+08,7595.4,0,5.6479e+08,5364.4,12991,12110,1,12110,1,0.00022979,2.6381e-09,0,0.00083914,-4.2216e-05,7.413e+07,694.72,0,2.6369e+08,881.9,12109,11203,1,11203,1,-0.0013886,-3.4924e-08,0,4.994e-05,-0.00034428,-5.6479e+08,-7122.7,0,1.67e+07,-53.555,11202,11669,1,11669,1,-0.00060937,-2.2402e-09,0,0.0004196,-0.00019877,-2.4783e+08,-561.77,0,1.4258e+08,305.84,11668,12551,1,12551,1,0.001069,6.246e-09,0,0.0012588,0.00011464,2.6392e+08,1832.5,0,3.3774e+08,1589.1,12550,510.38,0,510.38,0,0.00096866,9.1354e-09,0,0.00050981,0.00018096,2.9034e+08,2307.5,0,1.4011e+08,1090.4,510.38,1
1764,5.61,12110,1,12110,1,0.00023142,-3.9272e-09,0,0.00085693,-4.2326e-05,64.82,-955.94,0,2.5439e+08,1146.3,12109,12992,1,12992,1,0.0018534,3.1208e-08,0,0.0018534,0.000261,3.6399e+08,7581.4,0,5.6558e+08,5373.2,12991,12110,1,12110,1,0.0002314,-4.0784e-09,0,0.000841,-4.2512e-05,7.4561e+07,-1145,0,2.6387e+08,828.35,12109,11203,1,11203,1,-0.0013906,-4.0808e-08,0,5.1151e-05,-0.00034524,-5.6558e+08,-8438.2,0,1.7095e+07,-103.28,11202,11669,1,11669,1,-0.00060961,-9.6199e-09,0,0.00042052,-0.00019941,-2.4792e+08,-2448.9,0,1.4301e+08,271.61,11668,12551,1,12551,1,0.0010724,1.5189e-09,0,0.0012615,0.00011469,2.6409e+08,403.29,0,3.3749e+08,1617.7,12550,510.38,0,510.38,0,0.00097079,1.0489e-08,0,0.00051116,0.00018135,2.9053e+08,2555.2,0,1.4021e+08,1151.7,510.38,1
1764,5.62,12110,1,12110,1,0.00023305,-5.8732e-10,0,0.00085899,-4.2623e-05,-99.498,-142.07,0,2.5457e+08,1233.5,12109,12992,1,12992,1,0.0018587,3.6684e-08,0,0.0018587,0.00026138,3.6364e+08,7912.5,0,5.6639e+08,5796.4,12991,12110,1,12110,1,0.00023302,-8.629e-10,0,0.00084287,-4.281e-05,7.4995e+07,-239.98,0,2.6406e+08,925.81,12109,11203,1,11203,1,-0.0013926,-3.8938e-08,0,5.2379e-05,-0.0003462,-5.6639e+08,-7967.4,0,1.7495e+07,-54.312,11202,11669,1,11669,1,-0.00060986,-4.9719e-09,0,0.00042146,-0.00020006,-2.4802e+08,-1320.3,0,1.4344e+08,312.27,11668,12551,1,12551,1,0.0010759,3.8099e-09,0,0.0012643,0.00011474,2.6426e+08,1012.5,0,3.3724e+08,1726,12550,510.38,0,510.38,0,0.00097295,1.0295e-08,0,0.00051254,0.00018175,2.9074e+08,2513.9,0,1.4031e+08,1195.6,510.38,1
1764,5.63,12110,1,12110,1,0.00023469,6.3322e-10,0,0.00086106,-4.2923e-05,719.12,179.18,0,2.5475e+08,1315.4,12109,12992,1,12992,1,0.0018639,3.9365e-08,0,0.0018639,0.00026175,3.6328e+08,8152.9,0,5.6719e+08,6144.5,12991,12110,1,12110,1,0.00023467,8.0375e-10,0,0.00084474,-4.3112e-05,7.5432e+07,213.68,0,2.6423e+08,990.36,12109,11203,1,11203,1,-0.0013945,-4.0725e-08,0,5.3621e-05,-0.00034717,-5.6719e+08,-8290,0,1.7898e+07,-94.705,11202,11669,1,11669,1,-0.00061009,-3.8734e-09,0,0.00042239,-0.0002007,-2.4812e+08,-1033.8,0,1.4388e+08,326.87,11668,12551,1,12551,1,0.0010794,5.2349e-09,0,0.0012672,0.00011479,2.6442e+08,1403.9,0,3.3697e+08,1871.6,12550,510.38,0,510.38,0,0.00097512,1.0788e-08,0,0.00051392,0.00018215,2.9094e+08,2625.9,0,1.404e+08,1267.5,510.38,1
1764,5.64,12110,1,12110,1,0.00023634,7.3136e-10,0,0.00086314,-4.3225e-05,-225.67,229.75,0,2.5492e+08,1356.4,12109,12992,1,12992,1,0.0018692,3.8402e-08,0,0.0018692,0.00026212,3.6292e+08,9209.6,0,5.68e+08,6403.5,12991,12110,1,12110,1,0.00023632,9.0083e-10,0,0.00084662,-4.3415e-05,7.587e+07,236.46,0,2.6441e+08,988.97,12109,11203,1,11203,1,-0.0013965,-4.0651e-08,0,5.4864e-05,-0.00034815,-5.68e+08,-8170.4,0,1.8301e+07,-34.773,11202,11669,1,11669,1,-0.00061032,-3.8175e-09,0,0.00042334,-0.00020135,-2.4821e+08,-990.89,0,1.4432e+08,333.71,11668,12551,1,12551,1,0.001083,5.4674e-09,0,0.00127,0.00011483,2.6459e+08,1470.8,0,3.367e+08,1916.7,12550,510.38,0,510.38,0,0.00097729,1.0779e-08,0,0.00051532,0.00018256,2.9114e+08,2726.1,0,1.405e+08,1328.8,510.38,1
1764,5.65,12110,1,12110,1,0.00023801,3.2783e-09,0,0.00086523,-4.353e-05,-86.652,931.17,0,2.5509e+08,1531.1,12109,12992,1,12992,1,0.0018746,4.5377e-08,0,0.0018746,0.0002625,3.6255e+08,10251,0,5.6881e+08,6737.2,12991,12110,1,12110,1,0.00023798,3.8057e-09,0,0.0008485,-4.372e-05,7.6311e+07,1017,0,2.6458e+08,1214,12109,11203,1,11203,1,-0.0013985,-4.3646e-08,0,5.6121e-05,-0.00034913,-5.6881e+08,-8724.9,0,1.8707e+07,-192.88,11202,11669,1,11669,1,-0.00061054,-2.7448e-09,0,0.00042428,-0.00020201,-2.483e+08,-697.14,0,1.4475e+08,415.71,11668,12551,1,12551,1,0.0010865,9.1521e-09,0,0.0012728,0.00011488,2.6475e+08,2508.5,0,3.3643e+08,2165.8,12550,510.38,0,510.38,0,0.00097948,1.2396e-08,0,0.00051672,0.00018296,2.9134e+08,3084.8,0,1.406e+08,1399.6,510.38,1
1764,5.66,12110,1,12110,1,0.0002397,2.3042e-09,0,0.00086732,-4.3838e-05,436.38,733.24,0,2.5526e+08,1601.9,12109,12992,1,12992,1,0.0018799,5.0057e-08,0,0.0018799,0.00026287,3.6217e+08,10915,0,5.696e+08,6902.2,12991,12110,1,12110,1,0.00023966,2.8112e-09,0,0.00085038,-4.4028e-05,7.6755e+07,769.74,0,2.6475e+08,1274.9,12109,11203,1,11203,1,-0.0014004,-4.9114e-08,0,5.739e-05,-0.00035011,-5.696e+08,-9807.1,0,1.9115e+07,-111.72,11202,11669,1,11669,1,-0.00061074,-3.805e-09,0,0.00042523,-0.00020266,-2.4838e+08,-971.02,0,1.4519e+08,410.37,11668,12551,1,12551,1,0.0010901,8.5528e-09,0,0.0012756,0.00011492,2.649e+08,2419.4,0,3.3615e+08,2271.1,12550,510.38,0,510.38,0,0.00098165,1.3682e-08,0,0.00051812,0.00018336,2.9153e+08,3336.2,0,1.4069e+08,1484.7,510.38,1
1764,5.67,12110,1,12110,1,0.00024139,9.4966e-10,0,0.00086944,-4.4147e-05,-4.9562,419.19,0,2.5543e+08,1656.1,12109,12992,1,12992,1,0.0018853,4.5176e-08,0,0.0018853,0.00026324,3.6179e+08,11439,0,5.7041e+08,7399.9,12991,12110,1,12110,1,0.00024135,1.8575e-09,0,0.00085228,-4.4339e-05,7.7201e+07,492.44,0,2.6492e+08,1303.5,12109,11203,1,11203,1,-0.0014024,-5.3639e-08,0,5.8666e-05,-0.00035111,-5.7041e+08,-10692,0,1.9525e+07,-91.227,11202,11669,1,11669,1,-0.00061096,-5.0237e-09,0,0.00042619,-0.00020332,-2.4847e+08,-1241.2,0,1.4563e+08,426.61,11668,12551,1,12551,1,0.0010937,7.6203e-09,0,0.0012785,0.00011496,2.6506e+08,2168.2,0,3.3587e+08,2334.7,12550,510.38,0,510.38,0,0.00098386,1.3782e-08,0,0.00051955,0.00018377,2.9173e+08,3448,0,1.4079e+08,1550.9,510.38,1
1764,5.68,12110,1,12110,1,0.0002431,-1.8053e-09,0,0.00087153,-4.4459e-05,-101.82,-286.93,0,2.5558e+08,1771,12109,12992,1,12992,1,0.0018906,5.0377e-08,0,0.0018906,0.0002636,3.614e+08,11192,0,5.7119e+08,7608.9,12991,12110,1,12110,1,0.00024306,-4.9481e-10,0,0.00085417,-4.4652e-05,7.7649e+07,-133.35,0,2.6508e+08,1373.3,12109,11203,1,11203,1,-0.0014044,-6.2054e-08,0,5.9964e-05,-0.00035209,-5.7119e+08,-12530,0,1.9941e+07,-147.38,11202,11669,1,11669,1,-0.00061115,-8.5572e-09,0,0.00042713,-0.00020399,-2.4855e+08,-2181.2,0,1.4607e+08,459.95,11668,12551,1,12551,1,0.0010973,5.6021e-09,0,0.0012814,0.000115,2.652e+08,1586.1,0,3.3556e+08,2504.1,12550,510.38,0,510.38,0,0.00098604,1.5827e-08,0,0.00052097,0.00018418,2.9191e+08,3746.9,0,1.4089e+08,1655,510.38,1
1764,5.69,12110,1,12110,1,0.00024482,2.3113e-09,0,0.00087366,-4.4773e-05,69.364,752.14,0,2.5575e+08,1855.7,12109,12992,1,12992,1,0.0018961,5.4409e-08,0,0.0018961,0.00026398,3.61e+08,12371,0,5.7201e+08,8133.8,12991,12110,1,12110,1,0.00024477,3.1049e-09,0,0.00085616,-4.4967e-05,7.81e+07,835.4,0,2.6525e+08,1471.2,12109,11203,1,11203,1,-0.0014064,-5.7538e-08,0,6.0942e-05,-0.0003531,-5.7201e+08,-11403,0,2.0359e+07,-163.21,11202,11669,1,11669,1,-0.00061135,-4.5313e-09,0,0.00042804,-0.00020465,-2.4863e+08,-1153.9,0,1.4652e+08,488.89,11668,12551,1,12551,1,0.0011009,9.5857e-09,0,0.0012842,0.00011504,2.6536e+08,2671.5,0,3.3527e+08,2637.3,12550,510.38,0,510.38,0,0.00098826,1.5432e-08,0,0.00052241,0.00018459,2.921e+08,3774.1,0,1.4099e+08,1708,510.38,1
1764,5.7,12110,1,12110,1,0.00024656,1.5399e-09,0,0.00087581,-4.5092e-05,59.85,620.9,0,2.5591e+08,1936.1,12109,12992,1,12992,1,0.0019016,5.3409e-08,0,0.0019016,0.00026436,3.606e+08,13382,0,5.7282e+08,8545.9,12991,12110,1,12110,1,0.00024651,2.688e-09,0,0.00085809,-4.5286e-05,7.8555e+07,719.55,0,2.6541e+08,1547.3,12109,11203,1,11203,1,-0.0014084,-6.2914e-08,0,5.9886e-05,-0.00035411,-5.7282e+08,-12416,0,2.0779e+07,-119.83,11202,11669,1,11669,1,-0.00061154,-5.5192e-09,0,0.00042899,-0.00020533,-2.487e+08,-1374.5,0,1.4696e+08,515.54,11668,12551,1,12551,1,0.0011046,9.4988e-09,0,0.0012871,0.00011508,2.6551e+08,2722.1,0,3.3497e+08,2728.5,12550,510.38,0,510.38,0,0.00099049,1.6269e-08,0,0.00052386,0.000185,2.9229e+08,4019,0,1.4109e+08,1772.1,510.38,1
1764,5.71,12110,1,12110,1,0.00024832,6.2159e-10,0,0.00087795,-4.5414e-05,179.81,429.93,0,2.5607e+08,2030.8,12109,12992,1,12992,1,0.0019071,5.5525e-08,0,0.0019071,0.00026473,3.6019e+08,14287,0,5.7362e+08,8720.1,12991,12110,1,12110,1,0.00024827,1.9053e-09,0,0.00086003,-4.5609e-05,7.9014e+07,513.56,0,2.6557e+08,1617,12109,11203,1,11203,1,-0.0014103,-6.7382e-08,0,5.8815e-05,-0.00035512,-5.7362e+08,-13257,0,2.1204e+07,-112.48,11202,11669,1,11669,1,-0.00061171,-6.9155e-09,0,0.00042996,-0.00020601,-2.4878e+08,-1682.1,0,1.4741e+08,526.04,11668,12551,1,12551,1,0.0011083,9.2186e-09,0,0.00129,0.00011512,2.6565e+08,2641.1,0,3.3465e+08,2874.8,12550,510.38,0,510.38,0,0.00099273,1.7408e-08,0,0.00052533,0.00018542,2.9248e+08,4288.2,0,1.4118e+08,1873,510.38,1
1764,5.72,12110,1,12110,1,0.0002501,6.458e-10,0,0.00088011,-4.5738e-05,-321.58,461.28,0,2.5623e+08,2188.6,12109,12992,1,12992,1,0.0019126,5.9763e-08,0,0.0019126,0.0002651,3.5977e+08,14735,0,5.7442e+08,9170.1,12991,12110,1,12110,1,0.00025004,2.2569e-09,0,0.00086198,-4.5933e-05,7.9474e+07,619.12,0,2.6572e+08,1787.8,12109,11203,1,11203,1,-0.0014123,-7.3601e-08,0,5.7734e-05,-0.00035614,-5.7442e+08,-14475,0,2.1631e+07,-103.9,11202,11669,1,11669,1,-0.00061188,-7.3921e-09,0,0.00043093,-0.00020669,-2.4885e+08,-1806.4,0,1.4786e+08,610.23,11668,12551,1,12551,1,0.001112,1.0061e-08,0,0.0012929,0.00011515,2.6579e+08,2905.3,0,3.3433e+08,3080.4,12550,510.38,0,510.38,0,0.00099497,1.8924e-08,0,0.0005268,0.00018583,2.9266e+08,4586,0,1.4128e+08,1959.9,510.38,1
1764,5.73,12110,1,12110,1,0.00025189,-2.5876e-09,0,0.00088227,-4.6064e-05,586.1,-365.05,0,2.5638e+08,2225.8,12109,12992,1,12992,1,0.0019181,6.1364e-08,0,0.0019181,0.00026547,3.5935e+08,14635,0,5.7522e+08,9461.9,12991,12110,1,12110,1,0.00025183,-3.204e-10,0,0.00086393,-4.6262e-05,7.9939e+07,-90.327,0,2.6587e+08,1781.5,12109,11203,1,11203,1,-0.0014143,-8.2235e-08,0,5.6639e-05,-0.00035716,-5.7522e+08,-16357,0,2.2064e+07,-172.32,11202,11669,1,11669,1,-0.00061205,-1.1499e-08,0,0.00043191,-0.00020738,-2.4891e+08,-2841.4,0,1.4831e+08,581.17,11668,12551,1,12551,1,0.0011157,7.5801e-09,0,0.0012958,0.00011518,2.6592e+08,2185.9,0,3.3401e+08,3160.4,12550,510.38,0,510.38,0,0.00099722,2.0776e-08,0,0.00052828,0.00018625,2.9284e+08,4891.4,0,1.4138e+08,2067.7,510.38,1
1764,5.74,12110,1,12110,1,0.00025369,7.1504e-10,0,0.00088446,-4.6394e-05,245.16,410.52,0,2.5654e+08,2416.4,12109,12992,1,12992,1,0.0019237,7.2305e-08,0,0.0019237,0.00026585,3.5891e+08,15884,0,5.7603e+08,10088,12991,12110,1,12110,1,0.00025363,1.7972e-09,0,0.00086589,-4.6592e-05,8.0406e+07,485.16,0,2.6603e+08,1933.1,12109,11203,1,11203,1,-0.0014163,-7.8671e-08,0,5.5539e-05,-0.00035819,-5.7603e+08,-15428,0,2.2501e+07,-121.83,11202,11669,1,11669,1,-0.00061221,-8.4998e-09,0,0.00043288,-0.00020807,-2.4898e+08,-2094.9,0,1.4876e+08,634.58,11668,12551,1,12551,1,0.0011195,1.0475e-08,0,0.0012987,0.00011522,2.6606e+08,2923.1,0,3.3368e+08,3441.3,12550,510.38,0,510.38,0,0.00099949,2.1039e-08,0,0.00052978,0.00018667,2.9303e+08,5023.2,0,1.4148e+08,2201.9,510.38,1
1764,5.75,12110,1,12110,1,0.00025551,2.6366e-10,0,0.00088664,-4.6727e-05,406.16,323.62,0,2.5668e+08,2546.9,12109,12992,1,12992,1,0.0019293,7.4901e-08,0,0.0019293,0.00026622,3.5846e+08,16294,0,5.7683e+08,10668,12991,12110,1,12110,1,0.00025545,1.8882e-09,0,0.00086785,-4.6926e-05,8.0876e+07,495.76,0,2.6617e+08,2086.2,12109,11203,1,11203,1,-0.0014182,-8.6183e-08,0,5.4415e-05,-0.00035923,-5.7683e+08,-16944,0,2.2139e+07,-120.42,11202,11669,1,11669,1,-0.00061235,-9.1883e-09,0,0.00043386,-0.00020877,-2.4903e+08,-2282.9,0,1.4922e+08,688.05,11668,12551,1,12551,1,0.0011233,1.0679e-08,0,0.0013017,0.00011525,2.6619e+08,3007.1,0,3.3333e+08,3607.1,12550,510.38,0,510.38,0,0.0010018,2.2419e-08,0,0.00053128,0.00018709,2.932e+08,5296.6,0,1.4157e+08,2297.9,510.38,1
1764,5.76,12110,1,12110,1,0.00025735,-6.2782e-10,0,0.00088886,-4.7063e-05,-101.88,118.42,0,2.5684e+08,2597.2,12109,12992,1,12992,1,0.001935,7.3727e-08,0,0.001935,0.0002666,3.5802e+08,17723,0,5.7765e+08,11105,12991,12110,1,12110,1,0.00025729,7.2582e-10,0,0.00086986,-4.7264e-05,8.135e+07,176.36,0,2.6633e+08,2050.2,12109,11203,1,11203,1,-0.0014202,-8.7897e-08,0,5.3286e-05,-0.00036028,-5.7765e+08,-17137,0,2.1686e+07,-48.906,11202,11669,1,11669,1,-0.0006125,-1.0444e-08,0,0.00043486,-0.00020947,-2.491e+08,-2530.2,0,1.4968e+08,685.75,11668,12551,1,12551,1,0.0011271,9.996e-09,0,0.0013047,0.00011528,2.6633e+08,2772.4,0,3.33e+08,3685.4,12550,510.38,0,510.38,0,0.0010041,2.2654e-08,0,0.00053281,0.00018751,2.9338e+08,5462.5,0,1.4168e+08,2403.3,510.38,1
1764,5.77,12110,1,12110,1,0.00025922,-1.2707e-09,0,0.00089109,-4.7405e-05,358.73,-64.023,0,2.5698e+08,2738.3,12109,12992,1,12992,1,0.0019408,7.8212e-08,0,0.0019408,0.00026697,3.5756e+08,18712,0,5.7846e+08,11661,12991,12110,1,12110,1,0.00025916,-6.8775e-11,0,0.00087186,-4.7606e-05,8.183e+07,-20.504,0,2.6645e+08,2183.6,12109,11203,1,11203,1,-0.0014222,-9.3573e-08,0,5.2131e-05,-0.00036134,-5.7846e+08,-18196,0,2.1222e+07,-81.905,11202,11669,1,11669,1,-0.00061264,-1.1766e-08,0,0.00043586,-0.00021018,-2.4915e+08,-2951.1,0,1.5014e+08,710.15,11668,12551,1,12551,1,0.001131,1.0132e-08,0,0.0013077,0.00011531,2.6645e+08,2759.8,0,3.3264e+08,3903.9,12550,510.38,0,510.38,0,0.0010064,2.4207e-08,0,0.00053435,0.00018794,2.9356e+08,5824.4,0,1.4178e+08,2523.8,510.38,1
1764,5.78,12110,1,12110,1,0.00026111,-2.3816e-09,0,0.00089332,-4.7748e-05,-877.19,-376.54,0,2.5712e+08,2963.4,12109,12992,1,12992,1,0.0019465,8.5958e-08,0,0.0019465,0.00026735,3.5709e+08,19123,0,5.7926e+08,12395,12991,12110,1,12110,1,0.00026104,-1.2394e-09,0,0.00087387,-4.795e-05,8.2311e+07,-303.14,0,2.6657e+08,2394.2,12109,11203,1,11203,1,-0.0014242,-1.0249e-07,0,5.0963e-05,-0.00036239,-5.7926e+08,-19999,0,2.0755e+07,-117.95,11202,11669,1,11669,1,-0.00061276,-1.3896e-08,0,0.00043686,-0.0002109,-2.492e+08,-3493.4,0,1.506e+08,820.06,11668,12551,1,12551,1,0.0011349,9.8752e-09,0,0.0013107,0.00011534,2.6657e+08,2718.8,0,3.3237e+08,4189.3,12550,510.38,0,510.38,0,0.0010087,2.6463e-08,0,0.0005359,0.00018837,2.9373e+08,6234.9,0,1.4187e+08,2673.9,510.38,1
1764,5.79,12110,1,12110,1,0.00026301,-3.7434e-10,0,0.00089558,-4.8096e-05,-279.23,95.4,0,2.5727e+08,3132.6,12109,12992,1,12992,1,0.0019523,9.1986e-08,0,0.0019523,0.00026772,3.5661e+08,20547,0,5.8008e+08,13205,12991,12110,1,12110,1,0.00026294,6.3753e-10,0,0.00087589,-4.8298e-05,8.2797e+07,178.52,0,2.667e+08,2554.1,12109,11203,1,11203,1,-0.0014262,-1.0443e-07,0,4.9783e-05,-0.00036347,-5.8008e+08,-20188,0,2.0283e+07,-55.904,11202,11669,1,11669,1,-0.00061288,-1.2221e-08,0,0.00043787,-0.00021162,-2.4925e+08,-3081.8,0,1.5106e+08,867.28,11668,12551,1,12551,1,0.0011388,1.222e-08,0,0.0013137,0.00011536,2.667e+08,3263.7,0,3.3228e+08,4449.5,12550,510.38,0,510.38,0,0.001011,2.7374e-08,0,0.00053746,0.0001888,2.9391e+08,6523.8,0,1.4197e+08,2809.1,510.38,1
1764,5.8,12110,1,12110,1,0.00026493,-7.6546e-10,0,0.00089784,-4.8447e-05,-68.7,9.1312,0,2.5741e+08,3302.7,12109,12992,1,12992,1,0.0019582,9.7065e-08,0,0.0019582,0.0002681,3.5612e+08,22082,0,5.8089e+08,13895,12991,12110,1,12110,1,0.00026486,9.8143e-11,0,0.00087792,-4.865e-05,8.3286e+07,25.822,0,2.6682e+08,2694.3,12109,11203,1,11203,1,-0.0014282,-1.1052e-07,0,4.8583e-05,-0.00036454,-5.8089e+08,-21227,0,1.9805e+07,-45.84,11202,11669,1,11669,1,-0.00061299,-1.3593e-08,0,0.00043888,-0.00021234,-2.4929e+08,-3384.7,0,1.5153e+08,893.2,11668,12551,1,12551,1,0.0011428,1.2714e-08,0,0.0013167,0.00011539,2.6682e+08,3400.3,0,3.3218e+08,4690.8,12550,510.38,0,510.38,0,0.0010134,2.9034e-08,0,0.00053904,0.00018924,2.9408e+08,6953.8,0,1.4207e+08,2967.4,510.38,1
1764,5.81,12110,1,12110,1,0.00026688,4.7677e-10,0,0.00090013,-4.8802e-05,-171.83,342.18,0,2.5755e+08,3561.3,12109,12992,1,12992,1,0.0019641,1.0612e-07,0,0.0019641,0.00026848,3.5563e+08,23645,0,5.8171e+08,14749,12991,12110,1,12110,1,0.0002668,1.5279e-09,0,0.00087997,-4.9005e-05,8.3779e+07,397.13,0,2.6693e+08,2957.2,12109,11203,1,11203,1,-0.0014302,-1.1821e-07,0,4.7368e-05,-0.00036563,-5.8171e+08,-22623,0,1.9321e+07,-67.535,11202,11669,1,11669,1,-0.00061309,-1.3243e-08,0,0.0004399,-0.00021307,-2.4934e+08,-3292,0,1.52e+08,975.89,11668,12551,1,12551,1,0.0011467,1.4987e-08,0,0.0013198,0.00011541,2.6693e+08,4035.3,0,3.3207e+08,5039.1,12550,510.38,0,510.38,0,0.0010157,3.1485e-08,0,0.00054064,0.00018967,2.9425e+08,7478.6,0,1.4217e+08,3151.3,510.38,1
1764,5.82,12110,1,12110,1,0.00026884,2.4381e-09,0,0.00090242,-4.9161e-05,-197.02,895.03,0,2.5768e+08,3792.4,12109,12992,1,12992,1,0.00197,1.1422e-07,0,0.00197,0.00026886,3.5512e+08,25453,0,5.8252e+08,15584,12991,12110,1,12110,1,0.00026875,4.0029e-09,0,0.00088202,-4.9363e-05,8.4274e+07,1054.9,0,2.6704e+08,3194.4,12109,11203,1,11203,1,-0.0014322,-1.2602e-07,0,4.6135e-05,-0.00036673,-5.8252e+08,-23976,0,1.8832e+07,-57.47,11202,11669,1,11669,1,-0.00061318,-1.2363e-08,0,0.00044091,-0.00021381,-2.4937e+08,-3076.9,0,1.5247e+08,1068.6,11668,12551,1,12551,1,0.0011507,1.8441e-08,0,0.0013229,0.00011543,2.6704e+08,4983.5,0,3.3196e+08,5380.1,12550,510.38,0,510.38,0,0.0010181,3.3755e-08,0,0.00054224,0.00019011,2.9441e+08,7998,0,1.4227e+08,3325.9,510.38,1
1764,5.83,12110,1,12110,1,0.00027083,2.6916e-09,0,0.00090473,-4.9523e-05,-17.201,1036.6,0,2.5781e+08,4065.4,12109,12992,1,12992,1,0.001976,1.2232e-07,0,0.001976,0.00026924,3.5461e+08,27054,0,5.8334e+08,16392,12991,12110,1,12110,1,0.00027073,4.629e-09,0,0.00088408,-4.9725e-05,8.4773e+07,1210.8,0,2.6715e+08,3438.7,12109,11203,1,11203,1,-0.0014342,-1.3583e-07,0,4.4886e-05,-0.00036783,-5.8334e+08,-25760,0,1.8338e+07,-134.46,11202,11669,1,11669,1,-0.00061327,-1.3087e-08,0,0.00044194,-0.00021455,-2.494e+08,-3296.5,0,1.5294e+08,1135.6,11668,12551,1,12551,1,0.0011548,2.0106e-08,0,0.0013259,0.00011545,2.6715e+08,5475.1,0,3.3185e+08,5822.9,12550,510.38,0,510.38,0,0.0010205,3.6353e-08,0,0.00054387,0.00019056,2.9458e+08,8574.2,0,1.4238e+08,3528.5,510.38,1
1764,5.84,12110,1,12110,1,0.00027284,1.4132e-09,0,0.00090706,-4.989e-05,210.3,810.12,0,2.5795e+08,4233.1,12109,12992,1,12992,1,0.0019821,1.2572e-07,0,0.0019821,0.00026962,3.541e+08,29409,0,5.8416e+08,16933,12991,12110,1,12110,1,0.00027273,3.7775e-09,0,0.00088618,-5.0091e-05,8.5277e+07,993.31,0,2.6726e+08,3576.5,12109,11203,1,11203,1,-0.0014363,-1.4372e-07,0,4.3621e-05,-0.00036895,-5.8416e+08,-27113,0,1.7838e+07,-158.96,11202,11669,1,11669,1,-0.00061335,-1.5465e-08,0,0.00044297,-0.0002153,-2.4944e+08,-3748.2,0,1.5342e+08,1160.3,11668,12551,1,12551,1,0.0011589,1.9975e-08,0,0.0013291,0.00011547,2.6726e+08,5401.4,0,3.3173e+08,6026.5,12550,510.38,0,510.38,0,0.0010229,3.8281e-08,0,0.00054551,0.000191,2.9474e+08,9095,0,1.4248e+08,3706.3,510.38,1
1764,5.85,12110,1,12110,1,0.00027487,-4.0437e-10,0,0.00090942,-5.0262e-05,-118.11,404.23,0,2.5808e+08,4485.1,12109,12992,1,12992,1,0.0019882,1.2896e-07,0,0.0019882,0.00027,3.5358e+08,31399,0,5.8499e+08,17964,12991,12110,1,12110,1,0.00027475,1.9745e-09,0,0.00088829,-5.0462e-05,8.5787e+07,530.86,0,2.6737e+08,3746.5,12109,11203,1,11203,1,-0.0014383,-1.5572e-07,0,4.2334e-05,-0.00037008,-5.8499e+08,-29277,0,1.7332e+07,-178.92,11202,11669,1,11669,1,-0.00061342,-1.8195e-08,0,0.00044402,-0.00021606,-2.4947e+08,-4450.6,0,1.539e+08,1218,11668,12551,1,12551,1,0.001163,1.9685e-08,0,0.0013322,0.00011549,2.6737e+08,5376.7,0,3.3161e+08,6426.6,12550,510.38,0,510.38,0,0.0010253,4.0816e-08,0,0.00054718,0.00019145,2.9491e+08,9736.6,0,1.4258e+08,3961.4,510.38,1
1764,5.86,12110,1,12110,1,0.00027693,2.8747e-09,0,0.00091179,-5.0638e-05,-45.2,1286.4,0,2.582e+08,4822,12109,12992,1,12992,1,0.0019944,1.4238e-07,0,0.0019944,0.00027038,3.5303e+08,33405,0,5.8581e+08,19089,12991,12110,1,12110,1,0.00027681,5.9934e-09,0,0.0008904,-5.0837e-05,8.6301e+07,1547.4,0,2.6747e+08,4102.1,12109,11203,1,11203,1,-0.0014403,-1.6861e-07,0,4.1025e-05,-0.00037121,-5.8581e+08,-31610,0,1.6818e+07,-230.42,11202,11669,1,11669,1,-0.00061348,-1.6024e-08,0,0.00044506,-0.00021682,-2.4949e+08,-3974.6,0,1.5438e+08,1348,11668,12551,1,12551,1,0.0011672,2.5065e-08,0,0.0013354,0.00011551,2.6747e+08,6906.5,0,3.3147e+08,6891.7,12550,510.38,0,510.38,0,0.0010278,4.4872e-08,0,0.00054886,0.0001919,2.9507e+08,10554,0,1.4268e+08,4181,510.38,1
1764,5.87,12110,1,12110,1,0.00027902,-1.5914e-09,0,0.00091418,-5.1019e-05,-117.71,225.02,0,2.5833e+08,5127.8,12109,12992,1,12992,1,0.0020006,1.4752e-07,0,0.0020006,0.00027077,3.525e+08,35653,0,5.8664e+08,20011,12991,12110,1,12110,1,0.00027888,1.6687e-09,0,0.00089255,-5.1218e-05,8.682e+07,447.99,0,2.6756e+08,4366.1,12109,11203,1,11203,1,-0.0014424,-1.8065e-07,0,3.9699e-05,-0.00037236,-5.8664e+08,-33740,0,1.63e+07,-109.87,11202,11669,1,11669,1,-0.00061353,-2.2528e-08,0,0.00044613,-0.0002176,-2.4951e+08,-5521.6,0,1.5487e+08,1416.9,11668,12551,1,12551,1,0.0011714,2.1984e-08,0,0.0013386,0.00011552,2.6756e+08,6015.9,0,3.3134e+08,7357.3,12550,510.38,0,510.38,0,0.0010302,4.749e-08,0,0.00055056,0.00019236,2.9523e+08,11250,0,1.4279e+08,4458.7,510.38,1
1764,5.88,12110,1,12110,1,0.00028113,-5.5528e-10,0,0.00091659,-5.1405e-05,-318.8,496.75,0,2.5845e+08,5527,12109,12992,1,12992,1,0.0020069,1.6229e-07,0,0.0020069,0.00027116,3.5194e+08,37804,0,5.8747e+08,21181,12991,12110,1,12110,1,0.00028099,2.5949e-09,0,0.00089471,-5.1602e-05,8.7343e+07,663.24,0,2.6766e+08,4776,12109,11203,1,11203,1,-0.0014444,-1.953e-07,0,3.8353e-05,-0.00037352,-5.8747e+08,-36397,0,1.5777e+07,-105.93,11202,11669,1,11669,1,-0.00061358,-2.3289e-08,0,0.00044719,-0.00021838,-2.4953e+08,-5621.3,0,1.5536e+08,1560.8,11668,12551,1,12551,1,0.0011756,2.4987e-08,0,0.0013418,0.00011553,2.6766e+08,6855.1,0,3.3119e+08,7851,12550,510.38,0,510.38,0,0.0010327,5.1787e-08,0,0.00055228,0.00019282,2.9539e+08,12133,0,1.4289e+08,4731.8,510.38,1
1764,5.89,12110,1,12110,1,0.00028327,2.6464e-09,0,0.00091901,-5.1795e-05,244.27,1369,0,2.5857e+08,5877,12109,12992,1,12992,1,0.0020132,1.7679e-07,0,0.0020132,0.00027154,3.5136e+08,40736,0,5.883e+08,22598,12991,12110,1,12110,1,0.00028311,6.4171e-09,0,0.00089685,-5.199e-05,8.7871e+07,1657.2,0,2.6775e+08,5050.2,12109,11203,1,11203,1,-0.0014464,-2.0839e-07,0,3.698e-05,-0.00037468,-5.883e+08,-38626,0,1.5245e+07,-309.53,11202,11669,1,11669,1,-0.00061359,-2.1544e-08,0,0.00044825,-0.00021916,-2.4953e+08,-5310.3,0,1.5584e+08,1616.5,11668,12551,1,12551,1,0.0011799,3.0594e-08,0,0.001345,0.00011554,2.6775e+08,8355.4,0,3.3104e+08,8482.6,12550,510.38,0,510.38,0,0.0010352,5.5865e-08,0,0.00055401,0.00019328,2.9554e+08,13046,0,1.4299e+08,5055.4,510.38,1
1764,5.9,12110,1,12110,1,0.00028544,-3.7836e-09,0,0.00092148,-5.2191e-05,253.48,-162.64,0,2.5869e+08,6265.2,12109,12992,1,12992,1,0.0020197,1.844e-07,0,0.0020197,0.00027193,3.5081e+08,43444,0,5.8915e+08,23961,12991,12110,1,12110,1,0.00028527,-4.3491e-10,0,0.00089908,-5.2385e-05,8.8406e+07,-124.09,0,2.6784e+08,5413.8,12109,11203,1,11203,1,-0.0014485,-2.2559e-07,0,3.5597e-05,-0.00037587,-5.8915e+08,-41745,0,1.4712e+07,-29.914,11202,11669,1,11669,1,-0.00061364,-3.0795e-08,0,0.00044935,-0.00021997,-2.4956e+08,-7439.5,0,1.561e+08,1736.3,11668,12551,1,12551,1,0.0011843,2.6057e-08,0,0.0013483,0.00011556,2.6784e+08,6973.5,0,3.3089e+08,9031.4,12550,510.38,0,510.38,0,0.0010378,5.9671e-08,0,0.00055578,0.00019375,2.957e+08,13966,0,1.4311e+08,5349.7,510.38,1
1764,5.91,12110,1,12110,1,0.00028765,-2.2117e-09,0,0.00092398,-5.2594e-05,-30.101,190.12,0,2.5881e+08,6735.5,12109,12992,1,12992,1,0.0020262,1.994e-07,0,0.0020262,0.00027233,3.5021e+08,46906,0,5.9e+08,25183,12991,12110,1,12110,1,0.00028747,1.4427e-09,0,0.0009013,-5.2786e-05,8.8949e+07,383.22,0,2.6793e+08,5846,12109,11203,1,11203,1,-0.0014506,-2.3879e-07,0,3.4178e-05,-0.00037707,-5.9e+08,-43912,0,1.4167e+07,-15.89,11202,11669,1,11669,1,-0.00061366,-3.144e-08,0,0.00045045,-0.00022078,-2.4956e+08,-7601.1,0,1.5627e+08,1906.8,11668,12551,1,12551,1,0.0011887,2.9664e-08,0,0.0013516,0.00011556,2.6793e+08,8029.3,0,3.3073e+08,9686.4,12550,510.38,0,510.38,0,0.0010403,6.3743e-08,0,0.00055757,0.00019423,2.9586e+08,15008,0,1.4321e+08,5698.6,510.38,1
1764,5.92,12110,1,12110,1,0.00028989,-2.8183e-09,0,0.00092649,-5.3003e-05,21.116,24.971,0,2.5892e+08,7301.5,12109,12992,1,12992,1,0.0020328,2.2113e-07,0,0.0020328,0.00027272,3.496e+08,50220,0,5.9084e+08,26914,12991,12110,1,12110,1,0.0002897,1.0475e-09,0,0.00090355,-5.3193e-05,8.9497e+07,263.02,0,2.6801e+08,6398.9,12109,11203,1,11203,1,-0.0014527,-2.5842e-07,0,3.2731e-05,-0.00037829,-5.9084e+08,-47365,0,1.3615e+07,5.8676,11202,11669,1,11669,1,-0.00061366,-3.4779e-08,0,0.00045156,-0.0002216,-2.4956e+08,-8650.2,0,1.5643e+08,2079.5,11668,12551,1,12551,1,0.0011932,3.1981e-08,0,0.0013549,0.00011557,2.6801e+08,8528.3,0,3.3056e+08,10541,12550,510.38,0,510.38,0,0.0010429,6.9717e-08,0,0.00055938,0.00019471,2.9601e+08,16333,0,1.4332e+08,6107.9,510.38,1
1764,5.93,12110,1,12110,1,0.00029216,-6.1718e-09,0,0.00092903,-5.3417e-05,102.82,-848.41,0,2.5904e+08,7874.7,12109,12992,1,12992,1,0.0020394,2.3953e-07,0,0.0020394,0.00027312,3.49e+08,53177,0,5.917e+08,28514,12991,12110,1,12110,1,0.00029196,-4.3155e-09,0,0.00090582,-5.3605e-05,9.0053e+07,-1132.6,0,2.6808e+08,6981.6,12109,11203,1,11203,1,-0.0014548,-2.8058e-07,0,3.1265e-05,-0.00037951,-5.917e+08,-51348,0,1.3058e+07,-63.221,11202,11669,1,11669,1,-0.00061366,-4.1376e-08,0,0.00045269,-0.00022243,-2.4956e+08,-10272,0,1.566e+08,2255.4,11668,12551,1,12551,1,0.0011977,3.1519e-08,0,0.0013583,0.00011558,2.6808e+08,8263.4,0,3.3038e+08,11372,12550,510.38,0,510.38,0,0.0010455,7.5675e-08,0,0.00056122,0.00019519,2.9616e+08,17632,0,1.4343e+08,6511,510.38,1
1764,5.94,12110,1,12110,1,0.00029447,1.5737e-09,0,0.0009316,-5.3838e-05,-167.66,1042.3,0,2.5915e+08,8432.6,12109,12992,1,12992,1,0.0020462,2.6308e-07,0,0.0020462,0.00027352,3.4835e+08,57740,0,5.9256e+08,30709,12991,12110,1,12110,1,0.00029425,5.3882e-09,0,0.0009081,-5.4023e-05,9.0612e+07,1374.9,0,2.6816e+08,7495.1,12109,11203,1,11203,1,-0.0014569,-2.9595e-07,0,2.977e-05,-0.00038076,-5.9256e+08,-53780,0,1.2493e+07,-170.7,11202,11669,1,11669,1,-0.00061363,-3.5989e-08,0,0.00045381,-0.00022326,-2.4955e+08,-8864.3,0,1.5677e+08,2438.6,11668,12551,1,12551,1,0.0012023,4.2086e-08,0,0.0013617,0.00011558,2.6816e+08,11231,0,3.302e+08,12219,12550,510.38,0,510.38,0,0.0010482,8.1437e-08,0,0.00056309,0.00019568,2.9631e+08,18943,0,1.4354e+08,6931.9,510.38,1
1764,5.95,12110,1,12110,1,0.00029681,-8.25e-09,0,0.0009342,-5.4265e-05,-84.419,-1351.1,0,2.5925e+08,9121.7,12109,12992,1,12992,1,0.002053,2.7903e-07,0,0.002053,0.00027391,3.4774e+08,60788,0,5.9341e+08,32147,12991,12110,1,12110,1,0.00029659,-6.92e-09,0,0.00091043,-5.4447e-05,9.1181e+07,-1791.7,0,2.6823e+08,8268.1,12109,11203,1,11203,1,-0.001459,-3.2866e-07,0,2.8245e-05,-0.00038201,-5.9341e+08,-59862,0,1.192e+07,-73.433,11202,11669,1,11669,1,-0.00061361,-4.9786e-08,0,0.00045497,-0.00022412,-2.4954e+08,-12457,0,1.5693e+08,2667.1,11668,12551,1,12551,1,0.0012069,3.64e-08,0,0.0013652,0.00011558,2.6823e+08,9496.4,0,3.3001e+08,13217,12550,510.38,0,510.38,0,0.0010508,8.8964e-08,0,0.00056498,0.00019617,2.9645e+08,20569,0,1.4365e+08,7385.8,510.38,1
1764,5.96,12110,1,12110,1,0.00029919,-4.3861e-09,0,0.00093684,-5.47e-05,-37.467,-521.13,0,2.5936e+08,9795.2,12109,12992,1,12992,1,0.00206,3.0721e-07,0,0.00206,0.00027432,3.4707e+08,65502,0,5.9429e+08,34557,12991,12110,1,12110,1,0.00029896,-2.5108e-09,0,0.00091278,-5.4879e-05,9.1757e+07,-658.74,0,2.683e+08,8878.5,12109,11203,1,11203,1,-0.0014612,-3.4605e-07,0,2.6696e-05,-0.00038329,-5.9429e+08,-62523,0,1.1341e+07,29.071,11202,11669,1,11669,1,-0.00061358,-4.9387e-08,0,0.00045612,-0.00022498,-2.4952e+08,-12403,0,1.571e+08,2854.6,11668,12551,1,12551,1,0.0012116,4.3354e-08,0,0.0013687,0.00011558,2.683e+08,11189,0,3.2982e+08,14245,12550,510.38,0,510.38,0,0.0010536,9.5284e-08,0,0.00056691,0.00019667,2.966e+08,22055,0,1.4376e+08,7923.4,510.38,1
1764,5.97,12110,1,12110,1,0.00030162,-4.7486e-09,0,0.0009395,-5.5142e-05,486.54,-647.16,0,2.5946e+08,10573,12109,12992,1,12992,1,0.002067,3.3684e-07,0,0.002067,0.00027472,3.464e+08,70005,0,5.9516e+08,37008,12991,12110,1,12110,1,0.00030137,-3.3096e-09,0,0.00091515,-5.5318e-05,9.2341e+07,-867.09,0,2.6836e+08,9663.3,12109,11203,1,11203,1,-0.0014633,-3.7613e-07,0,2.5107e-05,-0.00038459,-5.9516e+08,-67856,0,1.075e+07,-58.238,11202,11669,1,11669,1,-0.00061352,-5.3996e-08,0,0.00045729,-0.00022586,-2.495e+08,-13583,0,1.5726e+08,3090.7,11668,12551,1,12551,1,0.0012164,4.7104e-08,0,0.0013722,0.00011558,2.6836e+08,12010,0,3.2961e+08,15441,12550,510.38,0,510.38,0,0.0010563,1.0414e-07,0,0.00056886,0.00019717,2.9675e+08,23904,0,1.4387e+08,8478.3,510.38,1
1764,5.98,12110,1,12110,1,0.00030408,-5.8103e-09,0,0.00094221,-5.5592e-05,379.92,-983.71,0,2.5957e+08,11373,12109,12992,1,12992,1,0.0020742,3.6251e-07,0,0.0020742,0.00027514,3.4573e+08,75378,0,5.9606e+08,39609,12991,12110,1,12110,1,0.00030383,-5.166e-09,0,0.00091757,-5.5764e-05,9.2933e+07,-1348.2,0,2.6842e+08,10435,12109,11203,1,11203,1,-0.0014655,-4.0287e-07,0,2.3495e-05,-0.00038591,-5.9606e+08,-72284,0,1.0153e+07,-67.872,11202,11669,1,11669,1,-0.00061347,-5.911e-08,0,0.00045849,-0.00022675,-2.4948e+08,-14962,0,1.5743e+08,3322.2,11668,12551,1,12551,1,0.0012213,4.9975e-08,0,0.0013758,0.00011557,2.6842e+08,12788,0,3.2943e+08,16653,12550,510.38,0,510.38,0,0.0010591,1.12e-07,0,0.00057086,0.00019769,2.9689e+08,25795,0,1.4399e+08,9091,510.38,1
1764,5.99,12110,1,12110,1,0.0003066,-3.9025e-09,0,0.00094496,-5.6051e-05,-37.603,-589.4,0,2.5966e+08,12344,12109,12992,1,12992,1,0.0020815,3.9865e-07,0,0.0020815,0.00027556,3.4503e+08,80965,0,5.9695e+08,42471,12991,12110,1,12110,1,0.00030633,-3.4046e-09,0,0.00092002,-5.6218e-05,9.3535e+07,-873.26,0,2.6848e+08,11368,12109,11203,1,11203,1,-0.0014677,-4.3495e-07,0,2.184e-05,-0.00038725,-5.9695e+08,-77679,0,9.5432e+06,23.99,11202,11669,1,11669,1,-0.0006134,-6.2742e-08,0,0.00045969,-0.00022766,-2.4945e+08,-15830,0,1.5759e+08,3654.5,11668,12551,1,12551,1,0.0012262,5.6942e-08,0,0.0013794,0.00011557,2.6848e+08,14534,0,3.2926e+08,18053,12550,510.38,0,510.38,0,0.0010619,1.2225e-07,0,0.00057289,0.00019821,2.9704e+08,27986,0,1.4411e+08,9778.7,510.38,1
1764,6,12110,1,12110,1,0.00030916,-5.6054e-09,0,0.00094775,-5.6517e-05,-283.75,-1085.8,0,2.5976e+08,13416,12109,12992,1,12992,1,0.0020889,4.358e-07,0,0.0020889,0.00027597,3.4431e+08,87531,0,5.9785e+08,45576,12991,12110,1,12110,1,0.00030887,-5.5315e-09,0,0.00092249,-5.6679e-05,9.4144e+07,-1434.3,0,2.6853e+08,12405,12109,11203,1,11203,1,-0.0014699,-4.716e-07,0,2.0149e-05,-0.00038861,-5.9785e+08,-84139,0,8.9225e+06,52.506,11202,11669,1,11669,1,-0.0006133,-6.9934e-08,0,0.0004609,-0.00022857,-2.4941e+08,-17705,0,1.5776e+08,4029.5,11668,12551,1,12551,1,0.0012313,6.1514e-08,0,0.0013831,0.00011556,2.6853e+08,15287,0,3.2903e+08,19695,12550,510.38,0,510.38,0,0.0010647,1.333e-07,0,0.00057495,0.00019874,2.9718e+08,30529,0,1.4423e+08,10543,510.38,1
1764,6.01,12110,1,12110,1,0.00031177,-4.169e-09,0,0.00095058,-5.6993e-05,-261.96,-810.53,0,2.5986e+08,14515,12109,12992,1,12992,1,0.0020964,4.7944e-07,0,0.0020964,0.0002764,3.4359e+08,94848,0,5.9877e+08,48731,12991,12110,1,12110,1,0.00031147,-4.875e-09,0,0.00092502,-5.7149e-05,9.4763e+07,-1251.1,0,2.6858e+08,13540,12109,11203,1,11203,1,-0.0014722,-5.0805e-07,0,1.8424e-05,-0.00039,-5.9877e+08,-90862,0,8.2919e+06,64.162,11202,11669,1,11669,1,-0.00061321,-7.4611e-08,0,0.00046214,-0.00022951,-2.4937e+08,-19031,0,1.5792e+08,4316.4,11668,12551,1,12551,1,0.0012364,6.8228e-08,0,0.0013868,0.00011555,2.6858e+08,17290,0,3.288e+08,21446,12550,510.38,0,510.38,0,0.0010676,1.4546e-07,0,0.00057706,0.00019927,2.9732e+08,33167,0,1.4435e+08,11315,510.38,1
1764,6.02,12110,1,12110,1,0.00031444,-5.8669e-09,0,0.00095346,-5.7479e-05,-462.49,-1301.8,0,2.5994e+08,15748,12109,12992,1,12992,1,0.0021041,5.2368e-07,0,0.0021041,0.00027683,3.4285e+08,1.026e+05,0,5.9969e+08,52189,12991,12110,1,12110,1,0.00031411,-7.3439e-09,0,0.00092757,-5.7629e-05,9.5393e+07,-1925,0,2.6862e+08,14788,12109,11203,1,11203,1,-0.0014744,-5.5238e-07,0,1.6653e-05,-0.00039141,-5.9969e+08,-98564,0,7.6468e+06,-50.671,11202,11669,1,11669,1,-0.0006131,-8.3939e-08,0,0.00046339,-0.00023046,-2.4933e+08,-21313,0,1.5809e+08,4708.4,11668,12551,1,12551,1,0.0012416,7.3394e-08,0,0.0013906,0.00011554,2.6862e+08,18408,0,3.2856e+08,23311,12550,510.38,0,510.38,0,0.0010706,1.5877e-07,0,0.00057921,0.00019982,2.9746e+08,36127,0,1.4447e+08,12198,510.38,1
1764,6.03,12110,1,12110,1,0.00031717,-3.89e-09,0,0.00095641,-5.7976e-05,112.6,-909.49,0,2.6004e+08,17039,12109,12992,1,12992,1,0.0021119,5.7214e-07,0,0.0021119,0.00027727,3.4209e+08,1.1114e+05,0,6.0064e+08,56173,12991,12110,1,12110,1,0.00031682,-5.7116e-09,0,0.0009302,-5.8118e-05,9.6034e+07,-1503.7,0,2.6867e+08,16070,12109,11203,1,11203,1,-0.0014768,-6.0042e-07,0,1.484e-05,-0.00039286,-6.0064e+08,-1.0724e+05,0,6.9886e+06,-13.547,11202,11669,1,11669,1,-0.00061298,-9.0158e-08,0,0.00046467,-0.00023143,-2.4928e+08,-22793,0,1.5825e+08,5058.9,11668,12551,1,12551,1,0.0012469,8.3515e-08,0,0.0013945,0.00011552,2.6867e+08,20792,0,3.2831e+08,25308,12550,510.38,0,510.38,0,0.0010736,1.7374e-07,0,0.00058141,0.00020037,2.976e+08,39351,0,1.446e+08,13124,510.38,1
1764,6.04,12110,1,12110,1,0.00031997,-4.4693e-09,0,0.00095941,-5.8485e-05,-61.243,-1102.2,0,2.6013e+08,18518,12109,12992,1,12992,1,0.0021199,6.2384e-07,0,0.0021199,0.00027771,3.4131e+08,1.2054e+05,0,6.0159e+08,60392,12991,12110,1,12110,1,0.00031959,-6.8056e-09,0,0.00093287,-5.8617e-05,9.6687e+07,-1714.7,0,2.6871e+08,17502,12109,11203,1,11203,1,-0.0014791,-6.5612e-07,0,1.2975e-05,-0.00039434,-6.0159e+08,-1.1723e+05,0,6.3135e+06,71.392,11202,11669,1,11669,1,-0.00061285,-9.8818e-08,0,0.00046596,-0.00023242,-2.4922e+08,-25238,0,1.5842e+08,5561.3,11668,12551,1,12551,1,0.0012523,9.1593e-08,0,0.0013984,0.00011551,2.6871e+08,22632,0,3.2805e+08,27580,12550,510.38,0,510.38,0,0.0010767,1.9027e-07,0,0.00058366,0.00020094,2.9774e+08,42957,0,1.4473e+08,14159,510.38,1
1764,6.05,12110,1,12110,1,0.00032283,2.2688e-09,0,0.00096246,-5.9004e-05,-160.53,522.47,0,2.6021e+08,20100,12109,12992,1,12992,1,0.0021281,6.8849e-07,0,0.0021281,0.00027816,3.4051e+08,1.3198e+05,0,6.0255e+08,64928,12991,12110,1,12110,1,0.00032242,2.9691e-09,0,0.00093559,-5.9127e-05,9.7353e+07,753.68,0,2.6874e+08,19080,12109,11203,1,11203,1,-0.0014815,-7.1032e-07,0,1.1058e-05,-0.00039584,-6.0255e+08,-1.2655e+05,0,5.6224e+06,136.38,11202,11669,1,11669,1,-0.00061269,-1.019e-07,0,0.00046726,-0.00023343,-2.4916e+08,-25610,0,1.5858e+08,6094.3,11668,12551,1,12551,1,0.0012578,1.0702e-07,0,0.0014024,0.00011549,2.6874e+08,26817,0,3.2778e+08,30002,12550,510.38,0,510.38,0,0.0010798,2.086e-07,0,0.00058597,0.00020152,2.9788e+08,46890,0,1.4486e+08,15287,510.38,1
1764,6.06,12110,1,12110,1,0.00032577,-3.6174e-09,0,0.00096559,-5.9536e-05,379.78,-848.6,0,2.6029e+08,21972,12109,12992,1,12992,1,0.0021365,7.5099e-07,0,0.0021365,0.00027861,3.3969e+08,1.43e+05,0,6.0354e+08,69529,12991,12110,1,12110,1,0.00032531,-6.0808e-09,0,0.00093837,-5.9649e-05,9.8031e+07,-1622.6,0,2.6877e+08,20962,12109,11203,1,11203,1,-0.0014839,-7.8522e-07,0,9.0888e-06,-0.00039739,-6.0354e+08,-1.3832e+05,0,4.9138e+06,128.83,11202,11669,1,11669,1,-0.00061253,-1.1825e-07,0,0.00046861,-0.00023446,-2.4909e+08,-29633,0,1.5875e+08,6571,11668,12551,1,12551,1,0.0012635,1.127e-07,0,0.0014064,0.00011547,2.6877e+08,28049,0,3.2751e+08,32928,12550,510.38,0,510.38,0,0.001083,2.2959e-07,0,0.00058833,0.00020211,2.9802e+08,51384,0,1.45e+08,16589,510.38,1
1764,6.07,12110,1,12110,1,0.00032878,3.3055e-09,0,0.00096879,-6.0082e-05,23.83,826.49,0,2.6037e+08,23853,12109,12992,1,12992,1,0.0021451,8.2832e-07,0,0.0021451,0.00027908,3.3885e+08,1.5689e+05,0,6.0454e+08,74924,12991,12110,1,12110,1,0.00032828,5.0481e-09,0,0.00094121,-6.0182e-05,9.8724e+07,1315.9,0,2.6879e+08,22780,12109,11203,1,11203,1,-0.0014864,-8.5315e-07,0,7.062e-06,-0.00039897,-6.0454e+08,-1.5013e+05,0,4.1856e+06,134.79,11202,11669,1,11669,1,-0.00061235,-1.2366e-07,0,0.00046996,-0.00023552,-2.4902e+08,-30690,0,1.5892e+08,7241.1,11668,12551,1,12551,1,0.0012693,1.3101e-07,0,0.0014106,0.00011545,2.6879e+08,32685,0,3.2722e+08,35854,12550,510.38,0,510.38,0,0.0010862,2.522e-07,0,0.00059076,0.00020271,2.9816e+08,56193,0,1.4514e+08,17925,510.38,1
1764,6.08,12110,1,12110,1,0.00033188,2.1023e-09,0,0.00097206,-6.0642e-05,158.43,693.12,0,2.6045e+08,26152,12109,12992,1,12992,1,0.002154,9.065e-07,0,0.002154,0.00027955,3.3798e+08,1.7169e+05,0,6.0555e+08,80409,12991,12110,1,12110,1,0.00033132,4.4809e-09,0,0.00094412,-6.0728e-05,9.9431e+07,1145.8,0,2.688e+08,25059,12109,11203,1,11203,1,-0.0014889,-9.4104e-07,0,4.9701e-06,-0.0004006,-6.0555e+08,-1.6372e+05,0,3.435e+06,130.25,11202,11669,1,11669,1,-0.00061215,-1.3729e-07,0,0.00047134,-0.0002366,-2.4894e+08,-34289,0,1.5908e+08,7876.8,11668,12551,1,12551,1,0.0012752,1.4165e-07,0,0.0014148,0.00011542,2.688e+08,35751,0,3.2691e+08,39440,12550,510.38,0,510.38,0,0.0010896,2.7783e-07,0,0.00059325,0.00020333,2.9829e+08,61660,0,1.4528e+08,19540,510.38,1
1764,6.09,12110,1,12110,1,0.00033507,3.8874e-10,0,0.00097543,-6.1218e-05,191.08,412.7,0,2.6053e+08,28527,12109,12992,1,12992,1,0.0021631,9.9045e-07,0,0.0021631,0.00028004,3.3711e+08,1.8879e+05,0,6.0661e+08,86380,12991,12110,1,12110,1,0.00033444,2.2158e-09,0,0.00094712,-6.1289e-05,1.0016e+08,609.16,0,2.6882e+08,27331,12109,11203,1,11203,1,-0.0014915,-1.0339e-06,0,2.8139e-06,-0.00040228,-6.0661e+08,-1.7984e+05,0,2.6624e+06,237.9,11202,11669,1,11669,1,-0.00061194,-1.5519e-07,0,0.00047276,-0.00023771,-2.4885e+08,-38174,0,1.5926e+08,8557.8,11668,12551,1,12551,1,0.0012812,1.5714e-07,0,0.0014192,0.00011539,2.6882e+08,38901,0,3.266e+08,43279,12550,510.38,0,510.38,0,0.001093,3.0533e-07,0,0.00059583,0.00020396,2.9844e+08,67751,0,1.4543e+08,21197,510.38,1
1764,6.1,12110,1,12110,1,0.00033836,-2.4515e-09,0,0.00097889,-6.1813e-05,-268.79,-166.41,0,2.606e+08,31376,12109,12992,1,12992,1,0.0021725,1.091e-06,0,0.0021725,0.00028054,3.362e+08,2.0703e+05,0,6.0768e+08,93029,12991,12110,1,12110,1,0.00033767,-1.0853e-09,0,0.00095021,-6.1866e-05,1.009e+08,-261.05,0,2.6883e+08,30250,12109,11203,1,11203,1,-0.0014941,-1.1455e-06,0,5.7564e-07,-0.00040401,-6.0768e+08,-1.9767e+05,0,1.8615e+06,307.97,11202,11669,1,11669,1,-0.00061172,-1.732e-07,0,0.00047421,-0.00023885,-2.4876e+08,-43356,0,1.5943e+08,9482.4,11668,12551,1,12551,1,0.0012875,1.7148e-07,0,0.0014236,0.00011537,2.6883e+08,42326,0,3.2628e+08,47865,12550,510.38,0,510.38,0,0.0010965,3.3851e-07,0,0.00059849,0.00020461,2.9858e+08,74779,0,1.4558e+08,23116,510.38,1
1764,6.11,12110,1,12110,1,0.00034177,-2.0615e-09,0,0.00098254,-6.2427e-05,-105.84,-15.459,0,2.6068e+08,34486,12109,12992,1,12992,1,0.0021822,1.2068e-06,0,0.0021822,0.00028105,3.3526e+08,2.2783e+05,0,6.0878e+08,1.004e+05,12991,12110,1,12110,1,0.000341,-3.762e-10,0,0.00095185,-6.2461e-05,1.0167e+08,-77.24,0,2.6883e+08,33519,12109,11203,1,11203,1,-0.0014968,-1.2644e-06,0,3.0147e-07,-0.00040579,-6.0878e+08,-2.1755e+05,0,1.0323e+06,344.85,11202,11669,1,11669,1,-0.00061147,-1.9204e-07,0,0.00047683,-0.00024002,-2.4866e+08,-47941,0,1.596e+08,10447,11668,12551,1,12551,1,0.001294,1.9186e-07,0,0.0014296,0.00011534,2.6883e+08,47411,0,3.2595e+08,52892,12550,510.38,0,510.38,0,0.0011002,3.754e-07,0,0.0006011,0.00020528,2.9872e+08,82625,0,1.4574e+08,25240,510.38,1
1764,6.12,12110,1,12110,1,0.0003453,-5.2127e-09,0,0.00098638,-6.3062e-05,12.14,-691.87,0,2.6075e+08,37911,12109,12992,1,12992,1,0.0021923,1.3342e-06,0,0.0021923,0.00028158,3.343e+08,2.5083e+05,0,6.0991e+08,1.0842e+05,12991,12110,1,12110,1,0.00034445,-4.9747e-09,0,0.00095486,-6.3074e-05,1.0245e+08,-1232.4,0,2.6883e+08,37026,12109,11203,1,11203,1,-0.0014996,-1.4027e-06,0,2.2457e-06,-0.00040764,-6.0991e+08,-2.4062e+05,0,1.7141e+05,375.67,11202,11669,1,11669,1,-0.0006112,-2.173e-07,0,0.00047849,-0.00024124,-2.4855e+08,-54021,0,1.5977e+08,11479,11668,12551,1,12551,1,0.0013006,2.1091e-07,0,0.0014345,0.0001153,2.6883e+08,52012,0,3.256e+08,58564,12550,510.38,0,510.38,0,0.0011039,4.173e-07,0,0.00060367,0.00020597,2.9886e+08,91519,0,1.4591e+08,27564,510.38,1
1764,6.13,12110,1,12110,1,0.00034895,-1.0991e-09,0,0.00099036,-6.3717e-05,4.1016,320.37,0,2.6085e+08,41927,12109,12992,1,12992,1,0.0022027,1.4869e-06,0,0.0022027,0.00028212,3.3329e+08,2.7697e+05,0,6.1107e+08,1.1754e+05,12991,12110,1,12110,1,0.00034801,3.4655e-09,0,0.00095803,-6.3706e-05,1.0327e+08,901.47,0,2.6882e+08,41375,12109,11203,1,11203,1,-0.0015024,-1.5529e-06,0,4.53e-06,-0.00040956,-6.1107e+08,-2.6521e+05,0,1.0779e+05,425.72,11202,11669,1,11669,1,-0.00061091,-2.4025e-07,0,0.0004802,-0.00024249,-2.4842e+08,-59066,0,1.5995e+08,12893,11668,12551,1,12551,1,0.0013075,2.408e-07,0,0.0014395,0.00011526,2.6882e+08,59610,0,3.2522e+08,65205,12550,510.38,0,510.38,0,0.0011078,4.6534e-07,0,0.00060634,0.00020669,2.99e+08,1.0153e+05,0,1.4602e+08,30282,510.38,1
1764,6.14,12110,1,12110,1,0.00035275,-3.2221e-09,0,0.00099447,-6.4397e-05,-286.52,-43.691,0,2.6097e+08,46399,12109,12992,1,12992,1,0.0022135,1.6543e-06,0,0.0022135,0.00028267,3.3226e+08,3.0659e+05,0,6.1227e+08,1.2721e+05,12991,12110,1,12110,1,0.0003517,-1.5261e-09,0,0.00096129,-6.4359e-05,1.041e+08,-378.77,0,2.688e+08,45864,12109,11203,1,11203,1,-0.0015054,-1.7285e-06,0,6.8898e-06,-0.00041156,-6.1227e+08,-2.9293e+05,0,8.1693e+05,490.66,11202,11669,1,11669,1,-0.00061059,-2.6993e-07,0,0.00048198,-0.00024378,-2.483e+08,-66808,0,1.6013e+08,14300,11668,12551,1,12551,1,0.0013147,2.6863e-07,0,0.0014447,0.00011522,2.688e+08,66153,0,3.245e+08,72792,12550,510.38,0,510.38,0,0.0011118,5.1982e-07,0,0.00060912,0.00020743,2.9914e+08,1.1289e+05,0,1.4608e+08,33291,510.38,1
1764,6.15,12110,1,12110,1,0.0003567,-1.0828e-11,0,0.00099872,-6.5103e-05,-277.78,853.43,0,2.611e+08,51396,12109,12992,1,12992,1,0.0022248,1.8454e-06,0,0.0022248,0.00028325,3.3118e+08,3.3998e+05,0,6.135e+08,1.3807e+05,12991,12110,1,12110,1,0.00035552,6.4383e-09,0,0.00096464,-6.5034e-05,1.0496e+08,1655.6,0,2.6877e+08,50966,12109,11203,1,11203,1,-0.0015084,-1.9247e-06,0,9.3376e-06,-0.00041363,-6.135e+08,-3.2433e+05,0,1.6833e+06,538.25,11202,11669,1,11669,1,-0.00061024,-2.9952e-07,0,0.00048381,-0.00024512,-2.4815e+08,-73734,0,1.603e+08,15919,11668,12551,1,12551,1,0.001322,3.0339e-07,0,0.0014501,0.00011518,2.6877e+08,75151,0,3.2343e+08,81392,12550,510.38,0,510.38,0,0.0011159,5.8175e-07,0,0.00061201,0.00020819,2.9928e+08,1.2572e+05,0,1.4615e+08,36652,510.38,1
1764,6.16,12110,1,12110,1,0.00036081,-4.9444e-09,0,0.0010032,-6.5838e-05,-166.51,-82.262,0,2.6123e+08,56993,12109,12992,1,12992,1,0.0022366,2.0558e-06,0,0.0022366,0.00028385,3.3009e+08,3.7713e+05,0,6.1479e+08,1.4954e+05,12991,12110,1,12110,1,0.0003595,1.7069e-09,0,0.00096812,-6.5735e-05,1.0586e+08,428.83,0,2.6875e+08,56919,12109,11203,1,11203,1,-0.0015116,-2.1528e-06,0,1.1864e-05,-0.00041581,-6.1479e+08,-3.6068e+05,0,2.5772e+06,673.09,11202,11669,1,11669,1,-0.00060989,-3.4097e-07,0,0.00048574,-0.00024651,-2.4801e+08,-83868,0,1.6049e+08,17795,11668,12551,1,12551,1,0.0013297,3.3913e-07,0,0.0014557,0.00011514,2.6875e+08,83228,0,3.2233e+08,91135,12550,510.38,0,510.38,0,0.0011202,6.5185e-07,0,0.00061503,0.00020899,2.9944e+08,1.403e+05,0,1.4623e+08,40407,510.38,1
1764,6.17,12110,1,12110,1,0.00036513,-4.6754e-09,0,0.0010078,-6.6607e-05,-200.08,109.33,0,2.6135e+08,63428,12109,12992,1,12992,1,0.002249,2.3012e-06,0,0.002249,0.00028447,3.2893e+08,4.1975e+05,0,6.1612e+08,1.6243e+05,12991,12110,1,12110,1,0.00036366,9.6876e-10,0,0.00097171,-6.6463e-05,1.0679e+08,272.32,0,2.687e+08,63901,12109,11203,1,11203,1,-0.0015149,-2.4105e-06,0,1.4502e-05,-0.00041808,-6.1612e+08,-4.0108e+05,0,3.5085e+06,778.75,11202,11669,1,11669,1,-0.00060949,-3.8497e-07,0,0.00048775,-0.00024796,-2.4784e+08,-94652,0,1.6067e+08,19882,11668,12551,1,12551,1,0.0013377,3.8295e-07,0,0.0014616,0.00011509,2.687e+08,93919,0,3.2117e+08,1.0253e+05,12550,510.38,0,510.38,0,0.0011247,7.3365e-07,0,0.0006182,0.00020982,2.9958e+08,1.5702e+05,0,1.4631e+08,44674,510.38,1
1764,6.18,12110,1,12110,1,0.00036965,-4.4396e-09,0,0.0010126,-6.7411e-05,231.99,344.28,0,2.6147e+08,70742,12109,12992,1,12992,1,0.002262,2.5904e-06,0,0.002262,0.00028511,3.2773e+08,4.6866e+05,0,6.1751e+08,1.7652e+05,12991,12110,1,12110,1,0.000368,2.0702e-09,0,0.00097541,-6.7221e-05,1.0775e+08,549.26,0,2.6865e+08,71566,12109,11203,1,11203,1,-0.0015183,-2.703e-06,0,1.7246e-05,-0.00042047,-6.1751e+08,-4.4785e+05,0,4.4732e+06,849.15,11202,11669,1,11669,1,-0.00060905,-4.3495e-07,0,0.00048985,-0.00024947,-2.4766e+08,-1.0677e+05,0,1.6086e+08,22296,11668,12551,1,12551,1,0.001346,4.3421e-07,0,0.0014677,0.00011503,2.6865e+08,1.0665e+05,0,3.1995e+08,1.1492e+05,12550,510.38,0,510.38,0,0.0011294,8.2768e-07,0,0.00062152,0.00021068,2.9973e+08,1.7625e+05,0,1.4639e+08,49578,510.38,1
1764,6.19,12110,1,12110,1,0.00037441,-1.3354e-08,0,0.0010177,-6.8254e-05,135.67,-1533.4,0,2.6161e+08,79044,12109,12992,1,12992,1,0.0022757,2.9071e-06,0,0.0022757,0.0002858,3.2651e+08,5.2296e+05,0,6.1898e+08,1.9205e+05,12991,12110,1,12110,1,0.00037255,-1.0371e-08,0,0.0009793,-6.8014e-05,1.0876e+08,-2544.3,0,2.6859e+08,79524,12109,11203,1,11203,1,-0.0015219,-3.0482e-06,0,2.0093e-05,-0.000423,-6.1898e+08,-5.0361e+05,0,5.4696e+06,914.35,11202,11669,1,11669,1,-0.00060861,-5.0314e-07,0,0.00049208,-0.00025105,-2.4748e+08,-1.2321e+05,0,1.6106e+08,25075,11668,12551,1,12551,1,0.0013548,4.8513e-07,0,0.0014741,0.00011498,2.6859e+08,1.1829e+05,0,3.187e+08,1.2941e+05,12550,510.38,0,510.38,0,0.0011343,9.361e-07,0,0.00062503,0.00021159,2.9989e+08,1.9832e+05,0,1.4648e+08,55129,510.38,1
1764,6.2,12110,1,12110,1,0.00037943,-7.3304e-09,0,0.001023,-6.9141e-05,-423.86,-111.17,0,2.6173e+08,88828,12109,12992,1,12992,1,0.0022902,3.3057e-06,0,0.0022902,0.0002865,3.2519e+08,5.8665e+05,0,6.205e+08,2.0965e+05,12991,12110,1,12110,1,0.00037734,-7.7949e-10,0,0.0009833,-6.8841e-05,1.0981e+08,-176.27,0,2.6851e+08,88981,12109,11203,1,11203,1,-0.0015256,-3.4347e-06,0,2.3088e-05,-0.00042567,-6.205e+08,-5.6442e+05,0,6.5117e+06,1177.6,11202,11669,1,11669,1,-0.00060809,-5.6754e-07,0,0.00049442,-0.00025271,-2.4726e+08,-1.385e+05,0,1.6115e+08,28515,11668,12551,1,12551,1,0.001364,5.6067e-07,0,0.0014808,0.00011492,2.6851e+08,1.3731e+05,0,3.1734e+08,1.4681e+05,12550,510.38,0,510.38,0,0.0011395,1.0645e-06,0,0.00062874,0.00021255,3.0004e+08,2.2403e+05,0,1.4658e+08,61580,510.38,1
1764,6.21,12110,1,12110,1,0.00038474,-5.3345e-09,0,0.0010286,-7.0079e-05,-212.34,636.11,0,2.6185e+08,99738,12109,12992,1,12992,1,0.0023057,3.7463e-06,0,0.0023057,0.00028726,3.2383e+08,6.5998e+05,0,6.2211e+08,2.283e+05,12991,12110,1,12110,1,0.00038237,4.5487e-09,0,0.00098747,-6.9708e-05,1.1091e+08,1161.4,0,2.6843e+08,99829,12109,11203,1,11203,1,-0.0015296,-3.8834e-06,0,2.6203e-05,-0.00042851,-6.2211e+08,-6.3429e+05,0,7.5877e+06,1334.7,11202,11669,1,11669,1,-0.00060753,-6.4518e-07,0,0.0004969,-0.00025444,-2.4704e+08,-1.5694e+05,0,1.611e+08,32357,11668,12551,1,12551,1,0.0013737,6.4419e-07,0,0.0014879,0.00011485,2.6843e+08,1.5757e+05,0,3.1594e+08,1.6554e+05,12550,510.38,0,510.38,0,0.0011449,1.2114e-06,0,0.00063267,0.00021355,3.002e+08,2.5345e+05,0,1.4669e+08,68847,510.38,1
1764,6.22,12110,1,12110,1,0.00039039,-1.2999e-08,0,0.0010346,-7.1071e-05,-166.89,-761.09,0,2.6197e+08,1.124e+05,12109,12992,1,12992,1,0.0023222,4.2489e-06,0,0.0023222,0.00028805,3.2242e+08,7.4367e+05,0,6.2381e+08,2.4846e+05,12991,12110,1,12110,1,0.00038769,-5.511e-09,0,0.00099182,-7.062e-05,1.1207e+08,-1323.1,0,2.6832e+08,1.1262e+05,12109,11203,1,11203,1,-0.0015338,-4.416e-06,0,2.9458e-05,-0.00043155,-6.2381e+08,-7.1755e+05,0,8.7024e+06,1457.8,11202,11669,1,11669,1,-0.00060694,-7.4033e-07,0,0.00049954,-0.00025628,-2.4679e+08,-1.8128e+05,0,1.6126e+08,36923,11668,12551,1,12551,1,0.0013839,7.3296e-07,0,0.0014955,0.00011479,2.6832e+08,1.7822e+05,0,3.1445e+08,1.8673e+05,12550,510.38,0,510.38,0,0.0011507,1.3838e-06,0,0.00063686,0.00021462,3.0037e+08,2.8787e+05,0,1.4681e+08,77285,510.38,1
1764,6.23,12110,1,12110,1,0.0003964,-1.3302e-08,0,0.0010409,-7.2126e-05,-236.55,-579.55,0,2.6209e+08,1.271e+05,12109,12992,1,12992,1,0.0023399,4.8483e-06,0,0.0023399,0.00028889,3.2093e+08,8.4156e+05,0,6.2562e+08,2.7109e+05,12991,12110,1,12110,1,0.00039333,-4.5782e-09,0,0.00099636,-7.1579e-05,1.1329e+08,-1037.2,0,2.682e+08,1.2799e+05,12109,11203,1,11203,1,-0.0015382,-5.0295e-06,0,3.2882e-05,-0.00043481,-6.2562e+08,-8.1291e+05,0,9.8627e+06,1707.4,11202,11669,1,11669,1,-0.00060628,-8.5193e-07,0,0.00050236,-0.00025822,-2.4652e+08,-2.0776e+05,0,1.6141e+08,42234,11668,12551,1,12551,1,0.0013947,8.4217e-07,0,0.0015035,0.00011471,2.682e+08,2.049e+05,0,3.1287e+08,2.1241e+05,12550,510.38,0,510.38,0,0.0011568,1.5879e-06,0,0.00064133,0.00021574,3.0054e+08,3.282e+05,0,1.4694e+08,87100,510.38,1
1764,6.24,12110,1,12110,1,0.00040284,-1.14e-08,0,0.0010476,-7.3251e-05,51.825,208.78,0,2.6221e+08,1.4415e+05,12109,12992,1,12992,1,0.002359,5.5566e-06,0,0.002359,0.00028979,3.1936e+08,9.5625e+05,0,6.2755e+08,2.9516e+05,12991,12110,1,12110,1,0.00039932,1.2208e-09,0,0.0010011,-7.2592e-05,1.1458e+08,325.24,0,2.6806e+08,1.458e+05,12109,11203,1,11203,1,-0.001543,-5.7446e-06,0,3.6475e-05,-0.00043832,-6.2755e+08,-9.2387e+05,0,1.1066e+07,2043.7,11202,11669,1,11669,1,-0.00060556,-9.8268e-07,0,0.00050539,-0.00026027,-2.4622e+08,-2.3732e+05,0,1.6157e+08,47557,11668,12551,1,12551,1,0.0014062,9.8108e-07,0,0.0015121,0.00011463,2.6806e+08,2.3732e+05,0,3.1119e+08,2.4342e+05,12550,510.38,0,510.38,0,0.0011633,1.8298e-06,0,0.00064613,0.00021694,3.0071e+08,3.7561e+05,0,1.4708e+08,98570,510.38,1
1764,6.25,12110,1,12110,1,0.00040974,-2.0283e-08,0,0.0010548,-7.4454e-05,-200.28,-1314.1,0,2.6232e+08,1.6425e+05,12109,12992,1,12992,1,0.0023797,6.3829e-06,0,0.0023797,0.00029075,3.1773e+08,1.0881e+06,0,6.296e+08,3.2442e+05,12991,12110,1,12110,1,0.0004057,-9.1991e-09,0,0.001006,-7.3663e-05,1.1594e+08,-2452.7,0,2.6789e+08,1.6622e+05,12109,11203,1,11203,1,-0.001548,-6.6063e-06,0,4.0238e-05,-0.00044213,-6.296e+08,-1.0555e+06,0,1.2308e+07,2258.7,11202,11669,1,11669,1,-0.00060476,-1.149e-06,0,0.00050865,-0.00026245,-2.4589e+08,-2.7637e+05,0,1.6172e+08,53505,11668,12551,1,12551,1,0.0014184,1.141e-06,0,0.0015212,0.00011454,2.6789e+08,2.7319e+05,0,3.094e+08,2.7708e+05,12550,510.38,0,510.38,0,0.0011703,2.1196e-06,0,0.0006513,0.00021823,3.0089e+08,4.3183e+05,0,1.4724e+08,1.1213e+05,510.38,1
1764,6.26,12110,1,12110,1,0.00041719,-1.6184e-08,0,0.0010625,-7.5746e-05,-235.99,0.10836,0,2.6243e+08,1.8769e+05,12109,12992,1,12992,1,0.0024022,7.3822e-06,0,0.0024022,0.00029178,3.16e+08,1.2447e+06,0,6.3182e+08,3.7141e+05,12991,12110,1,12110,1,0.00041253,-1.489e-09,0,0.0010112,-7.4801e-05,1.1739e+08,-668.91,0,2.677e+08,1.8915e+05,12109,11203,1,11203,1,-0.0015535,-7.6063e-06,0,4.4207e-05,-0.00044628,-6.3182e+08,-1.208e+06,0,1.3599e+07,2701.4,11202,11669,1,11669,1,-0.00060388,-1.3307e-06,0,0.00051219,-0.00026478,-2.4553e+08,-3.1986e+05,0,1.6186e+08,59108,11668,12551,1,12551,1,0.0014315,1.3497e-06,0,0.0015311,0.00011443,2.677e+08,3.2114e+05,0,3.0747e+08,3.0835e+05,12550,510.38,0,510.38,0,0.0011777,2.4672e-06,0,0.0006569,0.0002196,3.0107e+08,4.9857e+05,0,1.4743e+08,1.2817e+05,510.38,1
1764,6.27,12110,1,12110,1,0.00042524,-1.2891e-08,0,0.0010709,-7.7137e-05,115.02,1353.5,0,2.6253e+08,2.154e+05,12109,12992,1,12992,1,0.0024269,8.5783e-06,0,0.0024269,0.00029289,3.1418e+08,1.4283e+06,0,6.3421e+08,4.3724e+05,12991,12110,1,12110,1,0.00041984,1.0034e-08,0,0.0010166,-7.6008e-05,1.1893e+08,2415,0,2.6747e+08,2.208e+05,12109,11203,1,11203,1,-0.0015593,-8.8023e-06,0,4.8373e-05,-0.00045082,-6.3421e+08,-1.3868e+06,0,1.4932e+07,2865.1,11202,11669,1,11669,1,-0.00060289,-1.5701e-06,0,0.00051604,-0.00026726,-2.4512e+08,-3.7395e+05,0,1.6199e+08,66298,11668,12551,1,12551,1,0.0014454,1.5922e-06,0,0.0015417,0.0001143,2.6747e+08,3.768e+05,0,3.0541e+08,3.5952e+05,12550,510.38,0,510.38,0,0.0011857,2.888e-06,0,0.00066298,0.00022108,3.0125e+08,5.7834e+05,0,1.4763e+08,1.474e+05,510.38,1
1764,6.28,12110,1,12110,1,0.00043401,-1.8009e-08,0,0.0010799,-7.8643e-05,-119.45,1109.6,0,2.6262e+08,2.4791e+05,12109,12992,1,12992,1,0.0024542,9.9802e-06,0,0.0024542,0.0002941,3.1228e+08,1.6435e+06,0,6.368e+08,5.193e+05,12991,12110,1,12110,1,0.00042771,6.1583e-09,0,0.0010222,-7.7296e-05,1.2057e+08,1557.3,0,2.6721e+08,2.5527e+05,12109,11203,1,11203,1,-0.0015657,-1.0236e-05,0,5.274e-05,-0.00045584,-6.368e+08,-1.598e+06,0,1.6307e+07,3150,11202,11669,1,11669,1,-0.00060181,-1.8638e-06,0,0.00052026,-0.00026993,-2.4467e+08,-4.4234e+05,0,1.6211e+08,77252,11668,12551,1,12551,1,0.0014605,1.8732e-06,0,0.0015555,0.00011416,2.6721e+08,4.432e+05,0,3.0319e+08,4.1105e+05,12550,510.38,0,510.38,0,0.0011944,3.3967e-06,0,0.00066962,0.00022268,3.0145e+08,6.7366e+05,0,1.4786e+08,1.7045e+05,510.38,1
1764,6.29,12110,1,12110,1,0.00044359,-2.5428e-08,0,0.0010897,-8.0283e-05,-95.883,552.49,0,2.6271e+08,2.8613e+05,12109,12992,1,12992,1,0.0024846,1.1654e-05,0,0.0024846,0.00029544,3.1028e+08,1.8992e+06,0,6.3967e+08,6.1999e+05,12991,12110,1,12110,1,0.00043623,1.5393e-09,0,0.0010304,-7.868e-05,1.2233e+08,345.87,0,2.669e+08,2.911e+05,12109,11203,1,11203,1,-0.0015728,-1.1937e-05,0,5.7341e-05,-0.00046144,-6.3967e+08,-1.8503e+06,0,1.7734e+07,3308.3,11202,11669,1,11669,1,-0.00060061,-2.2271e-06,0,0.00052399,-0.0002728,-2.4417e+08,-5.2717e+05,0,1.6222e+08,91034,11668,12551,1,12551,1,0.0014768,2.2222e-06,0,0.0015666,0.00011399,2.669e+08,5.2473e+05,0,3.0079e+08,4.6186e+05,12550,510.38,0,510.38,0,0.0012039,4.0148e-06,0,0.00067694,0.00022443,3.0165e+08,7.8861e+05,0,1.4812e+08,1.9838e+05,510.38,1
1764,6.3,12110,1,12110,1,0.00045414,-3.418e-08,0,0.0011004,-8.2078e-05,-976.21,-253.32,0,2.6277e+08,3.3162e+05,12109,12992,1,12992,1,0.0025188,1.3672e-05,0,0.0025188,0.00029691,3.0816e+08,2.2013e+06,0,6.4281e+08,7.4662e+05,12991,12110,1,12110,1,0.00044551,-6.4905e-09,0,0.0010444,-8.0172e-05,1.2423e+08,-1588.2,0,2.6653e+08,3.2599e+05,12109,11203,1,11203,1,-0.0015805,-1.3983e-05,0,6.2191e-05,-0.00046772,-6.4281e+08,-2.152e+06,0,1.9216e+07,3571.3,11202,11669,1,11669,1,-0.00059924,-2.6661e-06,0,0.0005234,-0.00027592,-2.4361e+08,-6.2419e+05,0,1.6231e+08,1.0737e+05,11668,12551,1,12551,1,0.0014945,2.649e-06,0,0.0015769,0.00011379,2.6653e+08,6.2544e+05,0,2.9817e+08,5.3589e+05,12550,510.38,0,510.38,0,0.0012143,4.7777e-06,0,0.00068504,0.00022634,3.0185e+08,9.2832e+05,0,1.4842e+08,2.3297e+05,510.38,1
1764,6.31,12110,1,12110,1,0.00046584,-3.6317e-08,0,0.0011122,-8.4055e-05,1213.4,495.74,0,2.6282e+08,3.8548e+05,12109,12992,1,12992,1,0.0025576,1.6129e-05,0,0.0025576,0.00029854,3.0593e+08,2.5598e+06,0,6.4632e+08,9.0582e+05,12991,12110,1,12110,1,0.00045567,-5.0558e-09,0,0.0010597,-8.1793e-05,1.2629e+08,-1244.1,0,2.6609e+08,3.752e+05,12109,11203,1,11203,1,-0.0015891,-1.6425e-05,0,5.9566e-05,-0.00047486,-6.4632e+08,-2.5084e+06,0,2.0759e+07,3366.8,11202,11669,1,11669,1,-0.00059769,-3.2143e-06,0,0.00052267,-0.00027931,-2.4297e+08,-7.4887e+05,0,1.6236e+08,1.2439e+05,11668,12551,1,12551,1,0.0015139,3.2022e-06,0,0.0015867,0.00011353,2.6609e+08,7.5038e+05,0,2.9531e+08,6.1825e+05,12550,510.38,0,510.38,0,0.0012257,5.7233e-06,0,0.00069408,0.00022844,3.0207e+08,1.0988e+06,0,1.4876e+08,2.7623e+05,510.38,1
1764,6.32,12110,1,12110,1,0.00047888,-4.1443e-08,0,0.0011254,-8.6249e-05,253.31,1025.9,0,2.6286e+08,4.4964e+05,12109,12992,1,12992,1,0.0026022,1.9092e-05,0,0.0026022,0.00030039,3.0358e+08,2.9868e+06,0,6.5028e+08,1.1085e+06,12991,12110,1,12110,1,0.00046686,-1.5608e-09,0,0.0010767,-8.3563e-05,1.2854e+08,-420.2,0,2.6558e+08,4.2837e+05,12109,11203,1,11203,1,-0.0015989,-1.9363e-05,0,5.0735e-05,-0.00048307,-6.5028e+08,-2.9354e+06,0,2.0628e+07,3362,11202,11669,1,11669,1,-0.00059595,-3.9122e-06,0,0.00052181,-0.00028303,-2.4225e+08,-9.0664e+05,0,1.6238e+08,1.4008e+05,11668,12551,1,12551,1,0.0015353,3.8834e-06,0,0.0015971,0.00011322,2.6558e+08,9.0435e+05,0,2.9216e+08,7.1184e+05,12550,510.38,0,510.38,0,0.0012384,6.9025e-06,0,0.00070427,0.00023078,3.023e+08,1.308e+06,0,1.4917e+08,3.3125e+05,510.38,1
1764,6.33,12110,1,12110,1,0.0004936,-5.1291e-08,0,0.0011401,-8.871e-05,221.58,708.23,0,2.6286e+08,5.2541e+05,12109,12992,1,12992,1,0.0026541,2.2661e-05,0,0.0026541,0.00030249,3.0109e+08,3.4898e+06,0,6.5477e+08,1.3697e+06,12991,12110,1,12110,1,0.00047932,-1.0535e-08,0,0.001091,-8.5525e-05,1.31e+08,-2522.9,0,2.6494e+08,4.6078e+05,12109,11203,1,11203,1,-0.0016099,-2.2882e-05,0,4.05e-05,-0.00049263,-6.5477e+08,-3.4438e+06,0,1.6672e+07,2943.1,11202,11669,1,11669,1,-0.00059391,-4.7487e-06,0,0.00052348,-0.00028715,-2.4141e+08,-1.1031e+06,0,1.6424e+08,1.5095e+05,11668,12551,1,12551,1,0.001559,4.7421e-06,0,0.0016085,0.00011289,2.6494e+08,1.0991e+06,0,2.8779e+08,8.4882e+05,12550,510.38,0,510.38,0,0.0012527,8.3849e-06,0,0.00071585,0.00023339,3.0253e+08,1.5657e+06,0,1.4964e+08,4.0264e+05,510.38,1
1764,6.34,12110,1,12110,1,0.00051033,-5.6108e-08,0,0.0011567,-9.15e-05,205.77,1975.8,0,2.6281e+08,6.1441e+05,12109,12992,1,12992,1,0.0027156,2.694e-05,0,0.0027156,0.00030491,2.9844e+08,4.0845e+06,0,6.5993e+08,1.7085e+06,12991,12110,1,12110,1,0.00049334,-5.8865e-09,0,0.0011068,-8.7725e-05,1.3373e+08,-1446.2,0,2.6416e+08,5.0144e+05,12109,11203,1,11203,1,-0.0016226,-2.7062e-05,0,2.8506e-05,-0.00050395,-6.5993e+08,-4.0443e+06,0,1.2205e+07,2054,11202,11669,1,11669,1,-0.00059151,-5.9084e-06,0,0.00052632,-0.00029175,-2.4041e+08,-1.3381e+06,0,1.6674e+08,1.7118e+05,11668,12551,1,12551,1,0.0015856,5.9252e-06,0,0.0016213,0.00011255,2.6416e+08,1.3452e+06,0,2.8285e+08,9.995e+05,12550,510.38,0,510.38,0,0.0012688,1.026e-05,0,0.00072919,0.00023635,3.0276e+08,1.8847e+06,0,1.502e+08,4.973e+05,510.38,1
1764,6.35,12110,1,12110,1,0.00052961,-7.55e-08,0,0.0011758,-9.4696e-05,-738.41,776.77,0,2.6272e+08,7.1913e+05,12109,12992,1,12992,1,0.0027899,3.2053e-05,0,0.0027899,0.00030773,2.9567e+08,4.7839e+06,0,6.6598e+08,2.1543e+06,12991,12110,1,12110,1,0.00050933,-2.7888e-08,0,0.0011271,-9.0229e-05,1.3679e+08,-6442.4,0,2.6235e+08,5.4179e+05,12109,11203,1,11203,1,-0.0016375,-3.2089e-05,0,1.424e-05,-0.00051761,-6.6598e+08,-4.761e+06,0,7.1194e+06,764.53,11202,11669,1,11669,1,-0.00058868,-7.4496e-06,0,0.0005291,-0.00029765,-2.3925e+08,-1.6569e+06,0,1.6952e+08,1.6635e+05,11668,12551,1,12551,1,0.0016285,7.3955e-06,0,0.0016365,0.00011214,2.6235e+08,1.662e+06,0,2.7768e+08,1.1774e+06,12550,510.38,0,510.38,0,0.0012873,1.2665e-05,0,0.00074477,0.00023973,3.0302e+08,2.2833e+06,0,1.5087e+08,6.261e+05,510.38,1
1764,6.36,12110,1,12110,1,0.00055216,-8.2894e-08,0,0.0011979,-9.8403e-05,-164.16,2417,0,2.6255e+08,8.4168e+05,12109,12992,1,12992,1,0.0028816,3.8632e-05,0,0.0028816,0.00031109,2.9267e+08,5.6154e+06,0,6.7315e+08,2.7452e+06,12991,12110,1,12110,1,0.0005279,-3.1977e-08,0,0.0011411,-9.3101e-05,1.4026e+08,-7306.1,0,2.6007e+08,5.8198e+05,12109,11203,1,11203,1,-0.0016551,-3.8658e-05,0,2.8456e-06,-0.0005345,-6.7315e+08,-5.6059e+06,0,1.0336e+06,-1.1485e+05,11202,11669,1,11669,1,-0.00058523,-9.3947e-06,0,0.00053173,-0.00030632,-2.3783e+08,-2.0613e+06,0,1.7266e+08,1.2129e+05,11668,12551,1,12551,1,0.001679,9.3775e-06,0,0.0016793,0.00011163,2.6003e+08,2.0652e+06,0,2.7289e+08,1.4212e+06,12550,510.38,0,510.38,0,0.0013088,1.5797e-05,0,0.00076325,0.00024367,3.0328e+08,2.7867e+06,0,1.517e+08,8.0585e+05,510.38,1
1764,6.37,12110,1,12110,1,0.00057899,-1.1171e-07,0,0.0012246,-0.00010272,349.5,528.99,0,2.6242e+08,9.8526e+05,12109,12992,1,12992,1,0.0029982,4.759e-05,0,0.0029982,0.00031519,2.8944e+08,6.6894e+06,0,6.8188e+08,3.5585e+06,12991,12110,1,12110,1,0.00054994,-6.9302e-08,0,0.0011522,-9.6191e-05,1.4429e+08,-12606,0,2.5598e+08,6.162e+05,12109,11203,1,11203,1,-0.0016766,-4.7649e-05,0,9.8129e-06,-0.00055597,-6.8188e+08,-6.6791e+06,0,2.4891e+06,-5.1757e+05,11202,11669,1,11669,1,-0.00058101,-1.1829e-05,0,0.00054996,-0.00031576,-2.3609e+08,-2.5642e+06,0,1.7628e+08,86988,11668,12551,1,12551,1,0.0017327,1.1672e-05,0,0.0017329,0.00011101,2.5597e+08,2.5739e+06,0,2.6822e+08,1.7369e+06,12550,510.38,0,510.38,0,0.0013345,1.994e-05,0,0.000785,0.0002483,3.0357e+08,3.43e+06,0,1.5252e+08,1.0618e+06,510.38,1
1764,6.38,12110,1,12110,1,0.00061168,-1.378e-07,0,0.0012571,-0.00010788,597.42,-961.46,0,2.623e+08,1.1538e+06,12109,12992,1,12992,1,0.0031515,6.0307e-05,0,0.0031515,0.0003203,2.8587e+08,8.1309e+06,0,6.9279e+08,4.7022e+06,12991,12110,1,12110,1,0.00058274,-1.0211e-07,0,0.0011643,-9.9772e-05,1.4907e+08,-18910,0,2.5192e+08,6.2781e+05,12109,11203,1,11203,1,-0.0017034,-6.0357e-05,0,1.4364e-05,-0.00058422,-6.9279e+08,-8.1308e+06,0,4.0116e+06,-1.1325e+06,11202,11669,1,11669,1,-0.00057565,-1.5095e-05,0,0.00058274,-0.00032608,-2.3387e+08,-3.2509e+06,0,1.8132e+08,35727,11668,12551,1,12551,1,0.0017945,1.5045e-05,0,0.0017951,0.0001103,2.5188e+08,3.2395e+06,0,2.6584e+08,2.097e+06,12550,510.38,0,510.38,0,0.0013658,2.557e-05,0,0.00081197,0.00025389,3.0388e+08,4.2669e+06,0,1.5337e+08,1.4331e+06,510.38,1
1764,6.39,12110,1,12110,1,0.00065269,-1.5095e-07,0,0.0012977,-0.00011421,307.13,1231.4,0,2.6205e+08,1.3498e+06,12109,12992,1,12992,1,0.0033619,7.8956e-05,0,0.0033619,0.00032688,2.8177e+08,1.0107e+07,0,7.0679e+08,6.3448e+06,12991,12110,1,12110,1,0.00063231,-1.3744e-07,0,0.0011857,-0.00010403,1.5767e+08,-24459,0,2.4751e+08,6.3571e+05,12109,11203,1,11203,1,-0.0017379,-7.8968e-05,0,1.7938e-05,-0.00062299,-7.0679e+08,-1.0099e+07,0,5.3081e+06,-2.0115e+06,11202,11669,1,11669,1,-0.00056848,-1.9767e-05,0,0.00063231,-0.00033658,-2.3091e+08,-4.2375e+06,0,1.8669e+08,-5185.5,11668,12551,1,12551,1,0.0018393,1.9504e-05,0,0.0018407,0.00010957,2.4747e+08,4.2195e+06,0,2.6248e+08,2.6034e+06,12550,510.38,0,510.38,0,0.0014055,3.3455e-05,0,0.00084718,0.00026082,3.0423e+08,5.373e+06,0,1.545e+08,1.9817e+06,510.38,1
1764,6.4,12110,1,12110,1,0.00070621,-2.0012e-07,0,0.0013504,-0.00012224,-563.09,-126.68,0,2.6158e+08,1.5815e+06,12109,12992,1,12992,1,0.0036678,0.0001078,0,0.0036678,0.00033572,2.7703e+08,1.2905e+07,0,7.2558e+08,8.7759e+06,12991,12110,1,12110,1,0.00068951,-2.1612e-07,0,0.00122,-0.00011004,1.674e+08,-37987,0,2.429e+08,5.9333e+05,12109,11203,1,11203,1,-0.0017841,-0.00010794,0,2.067e-05,-0.00067941,-7.2558e+08,-1.2878e+07,0,6.4144e+06,-3.2519e+06,11202,11669,1,11669,1,-0.00055864,-2.6278e-05,0,0.00063337,-0.00034661,-2.2682e+08,-5.5726e+06,0,1.8425e+08,-1.4315e+05,11668,12551,1,12551,1,0.0019347,2.6221e-05,0,0.001935,0.00010879,2.4281e+08,5.5823e+06,0,2.591e+08,3.3012e+06,12550,510.38,0,510.38,0,0.0014583,4.5065e-05,0,0.00089625,0.00026978,3.0466e+08,6.8825e+06,0,1.562e+08,2.8096e+06,510.38,1
1764,6.41,12110,1,12110,1,0.00077995,-2.2462e-07,0,0.0014223,-0.00013281,-4851.7,1330.3,0,2.6069e+08,1.8572e+06,12109,12992,1,12992,1,0.0041488,0.00015578,0,0.0041488,0.00034818,2.7094e+08,1.7004e+07,0,7.52e+08,1.2515e+07,12991,12110,1,12110,1,0.00075867,-3.3902e-07,0,0.0012732,-0.00011842,1.7868e+08,-56309,0,2.3891e+08,4.6948e+05,12109,11203,1,11203,1,-0.0018491,-0.00015586,0,5.2152e-06,-0.00076819,-7.52e+08,-1.6979e+07,0,4.0922e+05,-5.0394e+06,11202,11669,1,11669,1,-0.00054397,-3.5852e-05,0,0.00062552,-0.00035481,-2.2068e+08,-7.4496e+06,0,1.8562e+08,-5.8732e+05,11668,12551,1,12551,1,0.0020098,3.5565e-05,0,0.0020136,0.00010803,2.3866e+08,7.4418e+06,0,2.5762e+08,4.0907e+06,12550,510.38,0,510.38,0,0.001534,6.331e-05,0,0.00097043,0.00028205,3.0522e+08,9.0125e+06,0,1.5887e+08,4.0926e+06,510.38,1
1764,6.42,12110,1,12110,1,0.00088872,-2.6113e-07,0,0.0015294,-0.00014707,-4150,2493.6,0,2.5958e+08,2.1877e+06,12109,12992,1,12992,1,0.0049917,0.00024707,0,0.0049917,0.00036698,2.7029e+08,2.3509e+07,0,7.9178e+08,1.8611e+07,12991,12110,1,12110,1,0.00081855,-4.9624e-07,0,0.0013349,-0.0001312,1.7218e+08,-82925,0,2.3291e+08,3.3718e+05,12109,11203,1,11203,1,-0.001947,-0.00024733,0,2.4082e-05,-0.000924,-7.9178e+08,-2.349e+07,0,7.76e+06,-7.651e+06,11202,11669,1,11669,1,-0.00052048,-5.0163e-05,0,0.00064445,-0.00037273,-2.108e+08,-1.0166e+07,0,1.7628e+08,-1.5879e+06,11668,12551,1,12551,1,0.0021415,4.9485e-05,0,0.0021466,0.00010563,2.324e+08,1.0179e+07,0,2.6008e+08,5.4192e+06,12550,510.38,0,510.38,0,0.0016544,9.4942e-05,0,0.0010936,0.00030009,3.0611e+08,1.2173e+07,0,1.6257e+08,6.1704e+06,510.38,1
1764,6.43,12110,1,12110,1,0.0010647,-3.4498e-07,0,0.0017025,-0.00016645,-3737,-4535.1,0,2.5737e+08,2.5958e+06,12109,12992,1,12992,1,0.0067247,0.00045105,0,0.0067247,0.00039751,2.8567e+08,3.4474e+07,0,8.5613e+08,2.8876e+07,12991,12110,1,12110,1,0.00096365,-2.4418e-07,0,0.0014107,-0.00015584,1.5965e+08,-37095,0,2.2445e+08,1.5961e+05,12109,11203,1,11203,1,-0.0021054,-0.00045153,0,1.0044e-05,-0.0012441,-8.5613e+08,-3.4467e+07,0,2.9051e+06,-1.2144e+07,11202,11669,1,11669,1,-0.00047732,-7.621e-05,0,0.00075176,-0.00037838,-1.9253e+08,-1.4234e+07,0,1.6293e+08,-3.4955e+06,11668,12551,1,12551,1,0.0022839,7.472e-05,0,0.0022875,9.5873e-05,2.2511e+08,1.4345e+07,0,2.7035e+08,7.4053e+06,12550,510.38,0,510.38,0,0.0018778,0.00015796,0,0.001336,0.00032943,3.0764e+08,1.7081e+07,0,1.6929e+08,9.6329e+06,510.38,1
1764,6.44,12110,1,12110,1,0.0013823,-3.3667e-07,0,0.0020183,-0.0001877,5.6599,4443.6,0,2.5312e+08,3.1137e+06,12109,12992,1,12992,1,0.011255,0.0010224,0,0.011255,0.00045077,3.188e+08,5.3539e+07,0,9.676e+08,4.5823e+07,12991,12110,1,12110,1,0.0011377,-4.6088e-07,0,0.00151,-0.00017817,1.4367e+08,-93176,0,2.1065e+08,-88455,12109,11203,1,11203,1,-0.0023798,-0.0010224,0,3.6871e-05,-0.0020722,-9.676e+08,-5.3484e+07,0,1.1322e+07,-2.0164e+07,11202,11669,1,11669,1,-0.00037641,-0.00012013,0,0.0007312,-0.00036979,-1.5117e+08,-1.935e+07,0,1.4611e+08,-7.0688e+06,11668,12551,1,12551,1,0.0023898,0.00011965,0,0.0024112,8.8699e-05,2.1287e+08,1.9582e+07,0,2.8612e+08,1.0111e+07,12550,510.38,0,510.38,0,0.0023947,0.00030949,0,0.0019148,0.000382,3.1029e+08,2.4855e+07,0,1.8109e+08,1.5359e+07,510.38,1
1764,6.4402,12110,1,12110,1,0.0020095,-3.2932e-07,0,0.0026529,-0.00017032,-3.6275,7152,0,2.4192e+08,3.6649e+06,12109,12992,1,12992,1,0.027723,0.0032145,0,0.027724,0.00054233,3.7478e+08,8.4155e+07,0,1.1564e+09,6.8601e+07,12991,12110,1,12110,1,0.0012923,-8.8514e-07,0,0.0015732,-0.0001936,1.2067e+08,-88079,0,1.8637e+08,-1.8848e+05,12109,11203,1,11203,1,-0.0028447,-0.0032222,0,4.9164e-05,-0.0049237,-1.1564e+09,-8.416e+07,0,1.532e+07,-3.293e+07,11202,11669,1,11669,1,-0.00018979,-0.00019093,0,0.00087101,-0.00026882,-7.9774e+07,-2.6595e+07,0,1.2097e+08,-1.1858e+07,11668,12551,1,12551,1,0.0024832,0.00019157,0,0.0026323,7.236e-05,1.8837e+08,2.7042e+07,0,2.9062e+08,1.5173e+07,12550,510.38,0,510.38,0,0.0039589,0.00074758,0,0.0036373,0.00048948,3.123e+08,3.5655e+07,0,2.0061e+08,2.3153e+07,510.38,1
