"N","Time","avg(GlobalElementId)","avg(ObjectId)","avg(PedigreeElementId)","avg(alpha)","avg(strain_x (0))","avg(strain_x (1))","avg(strain_x (2))","avg(strain_x (Magnitude))","avg(strain_yy)","avg(stress_x (0))","avg(stress_x (1))","avg(stress_x (2))","avg(stress_x (Magnitude))","avg(stress_yy)","avg(vtkOriginalCellIds)","max(GlobalElementId)","max(ObjectId)","max(PedigreeElementId)","max(alpha)","max(strain_x (0))","max(strain_x (1))","max(strain_x (2))","max(strain_x (Magnitude))","max(strain_yy)","max(stress_x (0))","max(stress_x (1))","max(stress_x (2))","max(stress_x (Magnitude))","max(stress_yy)","max(vtkOriginalCellIds)","med(GlobalElementId)","med(ObjectId)","med(PedigreeElementId)","med(alpha)","med(strain_x (0))","med(strain_x (1))","med(strain_x (2))","med(strain_x (Magnitude))","med(strain_yy)","med(stress_x (0))","med(stress_x (1))","med(stress_x (2))","med(stress_x (Magnitude))","med(stress_yy)","med(vtkOriginalCellIds)","min(GlobalElementId)","min(ObjectId)","min(PedigreeElementId)","min(alpha)","min(strain_x (0))","min(strain_x (1))","min(strain_x (2))","min(strain_x (Magnitude))","min(strain_yy)","min(stress_x (0))","min(stress_x (1))","min(stress_x (2))","min(stress_x (Magnitude))","min(stress_yy)","min(vtkOriginalCellIds)","q1(GlobalElementId)","q1(ObjectId)","q1(PedigreeElementId)","q1(alpha)","q1(strain_x (0))","q1(strain_x (1))","q1(strain_x (2))","q1(strain_x (Magnitude))","q1(strain_yy)","q1(stress_x (0))","q1(stress_x (1))","q1(stress_x (2))","q1(stress_x (Magnitude))","q1(stress_yy)","q1(vtkOriginalCellIds)","q3(GlobalElementId)","q3(ObjectId)","q3(PedigreeElementId)","q3(alpha)","q3(strain_x (0))","q3(strain_x (1))","q3(strain_x (2))","q3(strain_x (Magnitude))","q3(strain_yy)","q3(stress_x (0))","q3(stress_x (1))","q3(stress_x (2))","q3(stress_x (Magnitude))","q3(stress_yy)","q3(vtkOriginalCellIds)","std(GlobalElementId)","std(ObjectId)","std(PedigreeElementId)","std(alpha)","std(strain_x (0))","std(strain_x (1))","std(strain_x (2))","std(strain_x (Magnitude))","std(strain_yy)","std(stress_x (0))","std(stress_x (1))","std(stress_x (2))","std(stress_x (Magnitude))","std(stress_yy)","std(vtkOriginalCellIds)","vtkValidPointMask"
1904,0,12125,1,12125,1,0,0,0,0,0,0,0,0,0,0,12124,13103,1,13103,1,0,0,0,0,0,0,0,0,0,0,13102,12124,1,12124,1,0,0,0,0,0,0,0,0,0,0,12123,11097,1,11097,1,0,0,0,0,0,0,0,0,0,0,11096,11648,1,11648,1,0,0,0,0,0,0,0,0,0,0,11647,12600,1,12600,1,0,0,0,0,0,0,0,0,0,0,12599,551.74,0,551.74,0,0,0,0,0,0,0,0,0,0,0,551.74,1
1904,0.01,12125,1,12125,1,6.6184e-09,-4.683e-08,0,2.2797e-07,-4.1029e-10,2749,-16038,0,87179,345.84,12124,13103,1,13103,1,6.8374e-07,3.5134e-07,0,6.8471e-07,1.194e-07,2.7833e+05,1.2032e+05,0,2.7861e+05,11099,13102,12124,1,12124,1,7.338e-09,-3.9846e-08,0,2.071e-07,-1.4159e-09,2890.3,-13648,0,77849,159.07,12123,11097,1,11097,1,-6.6043e-07,-3.1553e-07,0,1.0592e-08,-1.238e-07,-2.6898e+05,-1.0806e+05,0,4393.5,-8756.2,11096,11648,1,11648,1,-1.0628e-07,-1.4747e-07,0,1.5596e-07,-1.711e-08,-43832,-50500,0,56887,-2733.1,11647,12600,1,12600,1,1.1915e-07,2.5215e-08,0,2.881e-07,1.6722e-08,49012,8636.2,0,1.0891e+05,2716.7,12599,551.74,0,551.74,0,2.0771e-07,1.354e-07,0,1.0823e-07,3.6997e-08,84716,46371,0,44584,3929.1,551.74,1
1904,0.02,12125,1,12125,1,-2.3664e-09,1.229e-08,0,1.2571e-06,-9.9394e-10,-1181,4209.1,0,5.0732e+05,-609.52,12124,13103,1,13103,1,3.1993e-06,5.8965e-07,0,3.2927e-06,6.0567e-07,1.3005e+06,2.0196e+05,0,1.3402e+06,24790,13102,12124,1,12124,1,2.1387e-09,-2.2255e-09,0,1.2341e-06,-1.0121e-08,-233.83,-762.09,0,4.9821e+05,-901.22,12123,11097,1,11097,1,-3.2925e-06,-3.7595e-07,0,7.3224e-08,-6.0221e-07,-1.3401e+06,-1.2875e+05,0,30037,-17761,11096,11648,1,11648,1,-1.222e-06,-9.7428e-08,0,6.6792e-07,-2.4666e-07,-4.961e+05,-33371,0,2.6711e+05,-4963,11647,12600,1,12600,1,1.2143e-06,1.0736e-07,0,1.789e-06,2.4195e-07,4.9263e+05,36771,0,7.2598e+05,3943.8,12599,551.74,0,551.74,0,1.4245e-06,1.8555e-07,0,6.9464e-07,2.7515e-07,5.7866e+05,63544,0,2.853e+05,7372.1,551.74,1
1904,0.03,12125,1,12125,1,-3.6247e-09,-3.8158e-08,0,2.4176e-06,-2.9638e-09,-1966.6,-13067,0,9.8044e+05,-1538.6,12124,13103,1,13103,1,5.5312e-06,4.6244e-07,0,5.5481e-06,1.0372e-06,2.2489e+06,1.5838e+05,0,2.2569e+06,13382,13102,12124,1,12124,1,6.5861e-10,-2.7253e-08,0,2.3944e-06,-8.9975e-09,-608.67,-9333.5,0,9.7151e+05,-1014.1,12123,11097,1,11097,1,-5.5479e-06,-3.9961e-07,0,1.5847e-07,-1.0361e-06,-2.2568e+06,-1.3685e+05,0,64023,-17758,11096,11648,1,11648,1,-2.3904e-06,-1.5699e-07,0,1.2076e-06,-4.6993e-07,-9.7136e+05,-53772,0,4.883e+05,-4657.7,11647,12600,1,12600,1,2.3933e-06,5.3763e-08,0,3.5841e-06,4.6108e-07,9.7129e+05,18410,0,1.4566e+06,2692.9,12599,551.74,0,551.74,0,2.77e-06,1.7277e-07,0,1.3625e-06,5.2602e-07,1.1259e+06,59166,0,5.5644e+05,5407.3,551.74,1
1904,0.04,12125,1,12125,1,9.392e-09,-2.4291e-08,0,3.8561e-06,-4.2649e-09,3294.3,-8318.5,0,1.5655e+06,-1058.5,12124,13103,1,13103,1,8.2944e-06,5.1488e-07,0,8.2946e-06,1.5481e-06,3.3723e+06,1.7631e+05,0,3.3723e+06,12263,13102,12124,1,12124,1,5.1181e-09,-2.1479e-08,0,3.8922e-06,-1.7458e-08,484.45,-7356.9,0,1.5806e+06,-853.46,12123,11097,1,11097,1,-8.2741e-06,-4.4528e-07,0,2.5781e-07,-1.5537e-06,-3.3657e+06,-1.5248e+05,0,1.042e+05,-16206,11096,11648,1,11648,1,-3.876e-06,-1.557e-07,0,1.9188e-06,-7.4991e-07,-1.5752e+06,-53307,0,7.7823e+05,-5581.7,11647,12600,1,12600,1,3.8984e-06,7.575e-08,0,5.7406e-06,7.4779e-07,1.5834e+06,25940,0,2.3321e+06,4324.1,12599,551.74,0,551.74,0,4.4301e-06,1.9932e-07,0,2.1883e-06,8.3836e-07,1.8009e+06,68259,0,8.9218e+05,6445.1,551.74,1
1904,0.05,12125,1,12125,1,-1.2855e-11,-3.2235e-08,0,5.4869e-06,-6.9538e-10,-526.98,-11039,0,2.2295e+06,-297.35,12124,13103,1,13103,1,1.1427e-05,4.7156e-07,0,1.1427e-05,2.1377e-06,4.6457e+06,1.6152e+05,0,4.6457e+06,15476,13102,12124,1,12124,1,-6.9044e-09,-2.8777e-08,0,5.588e-06,1.0217e-09,-2595.6,-9854.6,0,2.2709e+06,-614.94,12123,11097,1,11097,1,-1.1419e-05,-4.0103e-07,0,3.7487e-07,-2.142e-06,-4.6447e+06,-1.3733e+05,0,1.5201e+05,-16415,11096,11648,1,11648,1,-5.5776e-06,-1.5268e-07,0,2.7355e-06,-1.065e-06,-2.2678e+06,-52287,0,1.1108e+06,-4113.2,11647,12600,1,12600,1,5.5912e-06,6.2458e-08,0,8.1304e-06,1.0565e-06,2.2719e+06,21388,0,3.3052e+06,2910.5,12599,551.74,0,551.74,0,6.3182e-06,1.7488e-07,0,3.1353e-06,1.1909e-06,2.5688e+06,59887,0,1.2765e+06,5533.7,551.74,1
1904,0.06,12125,1,12125,1,7.1065e-09,-6.731e-08,0,6.4021e-06,-3.9825e-09,2136.5,-23051,0,2.6004e+06,-1121.2,12124,13103,1,13103,1,1.3735e-05,6.1547e-07,0,1.3735e-05,2.5686e-06,5.5841e+06,2.108e+05,0,5.5841e+06,21659,13102,12124,1,12124,1,5.0922e-09,-4.6049e-08,0,6.5442e-06,-1.0475e-08,1023.1,-15769,0,2.6602e+06,-825.53,12123,11097,1,11097,1,-1.372e-05,-5.7779e-07,0,4.2769e-07,-2.5741e-06,-5.5806e+06,-1.9786e+05,0,1.751e+05,-22819,11096,11648,1,11648,1,-6.5386e-06,-2.4357e-07,0,3.1898e-06,-1.2557e-06,-2.6585e+06,-83415,0,1.2938e+06,-6252,11647,12600,1,12600,1,6.5515e-06,6.5499e-08,0,9.5152e-06,1.2381e-06,2.6611e+06,22424,0,3.8685e+06,4219.7,12599,551.74,0,551.74,0,7.366e-06,2.5177e-07,0,3.6493e-06,1.3914e-06,2.9946e+06,86219,0,1.4865e+06,7818.9,551.74,1
1904,0.07,12125,1,12125,1,-1.0224e-08,6.6968e-09,0,8.0178e-06,1.5392e-09,-4869.7,2293.4,0,3.2581e+06,-163.86,12124,13103,1,13103,1,1.6308e-05,6.7111e-07,0,1.6416e-05,3.0703e-06,6.6298e+06,2.2982e+05,0,6.6779e+06,19849,13102,12124,1,12124,1,-2.0394e-08,-3.9202e-09,0,8.1632e-06,6.0693e-09,-8062.4,-1342.7,0,3.3164e+06,-404.59,12123,11097,1,11097,1,-1.6416e-05,-4.7456e-07,0,5.5444e-07,-3.0634e-06,-6.6779e+06,-1.6251e+05,0,2.2501e+05,-18595,11096,11648,1,11648,1,-8.155e-06,-1.528e-07,0,4.0002e-06,-1.5522e-06,-3.315e+06,-52338,0,1.6242e+06,-5418.3,11647,12600,1,12600,1,8.1313e-06,1.4134e-07,0,1.1878e-05,1.5535e-06,3.3036e+06,48392,0,4.8301e+06,5094.1,12599,551.74,0,551.74,0,9.2333e-06,2.3938e-07,0,4.5816e-06,1.741e-06,3.754e+06,81978,0,1.8651e+06,7721.3,551.74,1
1904,0.08,12125,1,12125,1,8.8826e-09,-4.8317e-08,0,9.6286e-06,-4.8352e-09,2542.1,-16546,0,3.914e+06,-1340.9,12124,13103,1,13103,1,1.9632e-05,4.4372e-07,0,1.9632e-05,3.6707e-06,7.9819e+06,1.5195e+05,0,7.9819e+06,13411,13102,12124,1,12124,1,7.7977e-09,-2.8673e-08,0,9.7844e-06,-5.1534e-10,2273.8,-9817.1,0,3.9778e+06,-853.4,12123,11097,1,11097,1,-1.9588e-05,-4.5077e-07,0,6.6252e-07,-3.6793e-06,-7.9673e+06,-1.5436e+05,0,2.7013e+05,-17007,11096,11648,1,11648,1,-9.7635e-06,-1.7412e-07,0,4.8008e-06,-1.8482e-06,-3.97e+06,-59628,0,1.951e+06,-5791.2,11647,12600,1,12600,1,9.7874e-06,5.462e-08,0,1.4323e-05,1.8462e-06,3.9783e+06,18705,0,5.824e+06,3594.7,12599,551.74,0,551.74,0,1.11e-05,1.8599e-07,0,5.5211e-06,2.0885e-06,4.5132e+06,63692,0,2.2464e+06,5928.1,551.74,1
1904,0.09,12125,1,12125,1,-5.3628e-09,-5.9611e-08,0,1.0767e-05,-2.0682e-09,-3340,-20414,0,4.376e+06,-1301.3,12124,13103,1,13103,1,2.2023e-05,6.511e-07,0,2.2025e-05,4.1275e-06,8.9539e+06,2.23e+05,0,8.9586e+06,14758,13102,12124,1,12124,1,-3.8885e-09,-4.039e-08,0,1.0932e-05,-5.4388e-09,-2201.6,-13831,0,4.4434e+06,-1051.8,12123,11097,1,11097,1,-2.2025e-05,-5.6103e-07,0,7.4719e-07,-4.1279e-06,-8.9586e+06,-1.9212e+05,0,3.0279e+05,-17942,11096,11648,1,11648,1,-1.0938e-05,-2.3837e-07,0,5.3742e-06,-2.0663e-06,-4.4473e+06,-81629,0,2.1824e+06,-6965.7,11647,12600,1,12600,1,1.0926e-05,7.4315e-08,0,1.601e-05,2.0702e-06,4.4406e+06,25445,0,6.5106e+06,4242.8,12599,551.74,0,551.74,0,1.2408e-05,2.5238e-07,0,6.1682e-06,2.3366e-06,5.045e+06,86429,0,2.51e+06,7117.6,551.74,1
1904,0.1,12125,1,12125,1,-1.5106e-08,-2.9038e-08,0,1.1938e-05,-1.606e-09,-7510.2,-9944.1,0,4.8527e+06,-1877.1,12124,13103,1,13103,1,2.4107e-05,6.6724e-07,0,2.4123e-05,4.5199e-06,9.8011e+06,2.2849e+05,0,9.8122e+06,12907,13102,12124,1,12124,1,-2.1313e-08,-2.5194e-08,0,1.2077e-05,1.3167e-09,-8783.8,-8627.1,0,4.909e+06,-1404.5,12123,11097,1,11097,1,-2.4123e-05,-5.1414e-07,0,8.2311e-07,-4.5188e-06,-9.8122e+06,-1.7609e+05,0,3.3212e+05,-24418,11096,11648,1,11648,1,-1.2084e-05,-2.0248e-07,0,5.9631e-06,-2.2817e-06,-4.9136e+06,-69337,0,2.4232e+06,-7275.5,11647,12600,1,12600,1,1.2061e-05,1.0915e-07,0,1.778e-05,2.2828e-06,4.9024e+06,37386,0,7.2309e+06,3769.1,12599,551.74,0,551.74,0,1.3761e-05,2.4812e-07,0,6.8428e-06,2.5894e-06,5.5952e+06,84972,0,2.7842e+06,7035.1,551.74,1
1904,0.11,12125,1,12125,1,-9.9629e-09,-2.817e-08,0,1.3958e-05,3.3139e-09,-5126,-9646.7,0,5.6748e+06,602.58,12124,13103,1,13103,1,2.7862e-05,4.4357e-07,0,2.7874e-05,5.2226e-06,1.1328e+07,1.5189e+05,0,1.1338e+07,13199,13102,12124,1,12124,1,-1.7364e-08,-1.4509e-08,0,1.41e-05,3.387e-09,-6651.4,-4969.6,0,5.7321e+06,640.43,12123,11097,1,11097,1,-2.7874e-05,-4.5365e-07,0,9.693e-07,-5.2206e-06,-1.1338e+07,-1.5534e+05,0,3.9301e+05,-16477,11096,11648,1,11648,1,-1.4101e-05,-1.4425e-07,0,6.9728e-06,-2.6496e-06,-5.7337e+06,-49399,0,2.8343e+06,-4022.4,11647,12600,1,12600,1,1.4081e-05,7.0107e-08,0,2.0834e-05,2.6663e-06,5.724e+06,24006,0,8.473e+06,5254.4,12599,551.74,0,551.74,0,1.6098e-05,1.829e-07,0,8.0164e-06,3.0252e-06,6.5459e+06,62635,0,3.2608e+06,5820.9,551.74,1
1904,0.12,12125,1,12125,1,3.8123e-09,-1.3532e-08,0,1.5277e-05,-5.0689e-09,-95.101,-4634.3,0,6.2112e+06,-1842.7,12124,13103,1,13103,1,3.0233e-05,5.4947e-07,0,3.0233e-05,5.6653e-06,1.2292e+07,1.8819e+05,0,1.2296e+07,12376,13102,12124,1,12124,1,3.3407e-10,-1.1516e-08,0,1.5369e-05,-1.4574e-08,-755.52,-3942.9,0,6.249e+06,-1015.5,12123,11097,1,11097,1,-3.0229e-05,-4.0891e-07,0,1.0742e-06,-5.6678e-06,-1.2296e+07,-1.4005e+05,0,4.3604e+05,-23636,11096,11648,1,11648,1,-1.5365e-05,-1.3683e-07,0,7.6302e-06,-2.9064e-06,-6.2486e+06,-46856,0,3.1019e+06,-5351.1,11647,12600,1,12600,1,1.5371e-05,8.05e-08,0,2.2817e-05,2.8924e-06,6.2482e+06,27568,0,9.277e+06,3243.2,12599,551.74,0,551.74,0,1.7621e-05,1.8873e-07,0,8.7762e-06,3.3117e-06,7.1651e+06,64632,0,3.5696e+06,6440.6,551.74,1
1904,0.13,12125,1,12125,1,-5.2303e-09,-6.5779e-08,0,1.6269e-05,-4.8913e-09,-3976.7,-22526,0,6.6137e+06,-2483.2,12124,13103,1,13103,1,3.2746e-05,6.5821e-07,0,3.2747e-05,6.1372e-06,1.3314e+07,2.2543e+05,0,1.332e+07,14123,13102,12124,1,12124,1,-7.063e-09,-4.3494e-08,0,1.6452e-05,-1.343e-08,-3967.6,-14897,0,6.6872e+06,-1272.1,12123,11097,1,11097,1,-3.2746e-05,-6.1559e-07,0,1.1326e-06,-6.137e-06,-1.332e+07,-2.108e+05,0,4.5884e+05,-24380,11096,11648,1,11648,1,-1.6448e-05,-2.6157e-07,0,8.1235e-06,-3.1029e-06,-6.6887e+06,-89556,0,3.3007e+06,-8475.6,11647,12600,1,12600,1,1.6449e-05,8.5816e-08,0,2.4254e-05,3.1026e-06,6.6862e+06,29390,0,9.8607e+06,4441.8,12599,551.74,0,551.74,0,1.876e-05,2.7486e-07,0,9.3385e-06,3.5296e-06,7.628e+06,94127,0,3.7989e+06,8519.7,551.74,1
1904,0.14,12125,1,12125,1,-1.0428e-08,1.0388e-08,0,1.7873e-05,-2.8762e-09,-6145.4,3557.4,0,7.2666e+06,-2045.3,12124,13103,1,13103,1,3.5355e-05,6.8215e-07,0,3.5486e-05,6.6441e-06,1.4375e+07,2.336e+05,0,1.4435e+07,14154,13102,12124,1,12124,1,-1.1847e-08,-1.9158e-09,0,1.7994e-05,-9.6766e-09,-5514.7,-656.18,0,7.3183e+06,-1401.6,12123,11097,1,11097,1,-3.5486e-05,-4.7827e-07,0,1.2562e-06,-6.6189e-06,-1.4435e+07,-1.638e+05,0,5.097e+05,-23888,11096,11648,1,11648,1,-1.799e-05,-1.5253e-07,0,8.9247e-06,-3.4021e-06,-7.3173e+06,-52234,0,3.6288e+06,-7980.2,11647,12600,1,12600,1,1.7976e-05,1.5441e-07,0,2.6685e-05,3.3868e-06,7.306e+06,52866,0,1.085e+07,4355,12599,551.74,0,551.74,0,2.0614e-05,2.4113e-07,0,1.0266e-05,3.8752e-06,8.3821e+06,82578,0,4.1756e+06,7575.8,551.74,1
1904,0.15,12125,1,12125,1,1.6058e-08,-2.3569e-08,0,1.9144e-05,-1.5337e-08,3922.8,-8071.1,0,7.7832e+06,-5204.8,12124,13103,1,13103,1,3.8067e-05,6.873e-07,0,3.8067e-05,7.1265e-06,1.5476e+07,2.354e+05,0,1.5476e+07,11855,13102,12124,1,12124,1,1.3948e-08,-1.9665e-08,0,1.9292e-05,-3.1615e-08,3798,-6735.6,0,7.8434e+06,-4382.6,12123,11097,1,11097,1,-3.8026e-05,-6.0313e-07,0,1.3364e-06,-7.1392e-06,-1.5467e+07,-2.0657e+05,0,5.4389e+05,-27370,11096,11648,1,11648,1,-1.9262e-05,-2.0485e-07,0,9.5553e-06,-3.6445e-06,-7.8336e+06,-70137,0,3.885e+06,-10888,11647,12600,1,12600,1,1.9304e-05,1.2626e-07,0,2.8578e-05,3.6239e-06,7.8465e+06,43236,0,1.162e+07,2045,12599,551.74,0,551.74,0,2.208e-05,2.711e-07,0,1.0995e-05,4.1513e-06,8.978e+06,92841,0,4.4724e+06,8741,551.74,1
1904,0.16,12125,1,12125,1,7.0177e-09,-3.5605e-08,0,2.0678e-05,-1.658e-09,1055.2,-12193,0,8.4076e+06,-154.34,12124,13103,1,13103,1,4.095e-05,5.6703e-07,0,4.095e-05,7.6724e-06,1.6649e+07,1.9417e+05,0,1.6649e+07,12420,13102,12124,1,12124,1,2.378e-09,-2.3333e-08,0,2.0812e-05,-2.9626e-10,1224.2,-7990,0,8.4622e+06,-14.416,12123,11097,1,11097,1,-4.0929e-05,-5.0788e-07,0,1.453e-06,-7.6758e-06,-1.6648e+07,-1.7392e+05,0,5.9045e+05,-16619,11096,11648,1,11648,1,-2.0808e-05,-1.9353e-07,0,1.0331e-05,-3.9168e-06,-8.4617e+06,-66264,0,4.2001e+06,-5225.4,11647,12600,1,12600,1,2.0822e-05,8.9896e-08,0,3.0898e-05,3.9245e-06,8.4649e+06,30784,0,1.2565e+07,5036.9,12599,551.74,0,551.74,0,2.3854e-05,2.2882e-07,0,1.1884e-05,4.4808e-06,9.6996e+06,78359,0,4.8337e+06,6299.2,551.74,1
1904,0.17,12125,1,12125,1,-9.5161e-09,-9.3867e-08,0,2.2337e-05,1.7504e-09,-5811.8,-32145,0,9.0824e+06,-25.326,12124,13103,1,13103,1,4.4436e-05,4.1215e-07,0,4.4442e-05,8.3301e-06,1.8066e+07,1.4114e+05,0,1.8077e+07,22843,13102,12124,1,12124,1,-1.6156e-08,-6.4026e-08,0,2.2515e-05,-2.0948e-10,-7014,-21925,0,9.1536e+06,30.652,12123,11097,1,11097,1,-4.4442e-05,-4.6981e-07,0,1.5548e-06,-8.3309e-06,-1.8077e+07,-1.6088e+05,0,6.3144e+05,-16537,11096,11648,1,11648,1,-2.2534e-05,-2.3492e-07,0,1.1143e-05,-4.2337e-06,-9.1646e+06,-80447,0,4.5295e+06,-4182.8,11647,12600,1,12600,1,2.2514e-05,2.0896e-08,0,3.3347e-05,4.237e-06,9.1527e+06,7155.5,0,1.3559e+07,3650.3,12599,551.74,0,551.74,0,2.5772e-05,1.8774e-07,0,1.2846e-05,4.8397e-06,1.048e+07,64294,0,5.2245e+06,6463.8,551.74,1
1904,0.18,12125,1,12125,1,2.7227e-09,-7.2413e-08,0,2.3717e-05,-2.8641e-09,-1240.2,-24798,0,9.6435e+06,-1004,12124,13103,1,13103,1,4.6967e-05,4.714e-07,0,4.6972e-05,8.8059e-06,1.9094e+07,1.6145e+05,0,1.9106e+07,12191,13102,12124,1,12124,1,-1.2211e-08,-5.3774e-08,0,2.3892e-05,-1.0174e-08,-4927.2,-18418,0,9.714e+06,-539.14,12123,11097,1,11097,1,-4.6972e-05,-4.465e-07,0,1.657e-06,-8.8041e-06,-1.9106e+07,-1.529e+05,0,6.7364e+05,-21524,11096,11648,1,11648,1,-2.3892e-05,-2.1694e-07,0,1.1841e-05,-4.4903e-06,-9.7168e+06,-74304,0,4.8141e+06,-5234.8,11647,12600,1,12600,1,2.3889e-05,3.6884e-08,0,3.5449e-05,4.4959e-06,9.7116e+06,12630,0,1.4414e+07,3322.8,12599,551.74,0,551.74,0,2.7364e-05,1.9816e-07,0,1.364e-05,5.1375e-06,1.1127e+07,67860,0,5.5473e+06,6047.3,551.74,1
1904,0.19,12125,1,12125,1,2.4121e-08,-5.9362e-09,0,2.5243e-05,-8.9596e-09,7061.4,-2032.8,0,1.0264e+07,-1882.9,12124,13103,1,13103,1,4.9521e-05,5.9911e-07,0,4.9521e-05,9.2721e-06,2.0131e+07,2.052e+05,0,2.0132e+07,12816,13102,12124,1,12124,1,2.1509e-08,-1.0007e-08,0,2.5336e-05,-1.6646e-08,8392.6,-3425.9,0,1.03e+07,-1116.3,12123,11097,1,11097,1,-4.9494e-05,-4.4189e-07,0,1.7619e-06,-9.2838e-06,-2.0132e+07,-1.5132e+05,0,7.1645e+05,-24512,11096,11648,1,11648,1,-2.5308e-05,-1.4767e-07,0,1.2613e-05,-4.7863e-06,-1.0293e+07,-50572,0,5.1291e+06,-6181.9,11647,12600,1,12600,1,2.5369e-05,1.0596e-07,0,3.7751e-05,4.7659e-06,1.0312e+07,36275,0,1.5351e+07,3841.4,12599,551.74,0,551.74,0,2.9124e-05,2.1238e-07,0,1.4516e-05,5.47e-06,1.1842e+07,72730,0,5.9031e+06,7328.7,551.74,1
1904,0.2,12125,1,12125,1,8.5472e-09,-6.8854e-08,0,2.658e-05,-3.574e-09,631.71,-23579,0,1.0807e+07,-844.99,12124,13103,1,13103,1,5.2416e-05,4.6508e-07,0,5.2416e-05,9.821e-06,2.1307e+07,1.5926e+05,0,2.131e+07,11713,13102,12124,1,12124,1,8.5544e-09,-4.9007e-08,0,2.6752e-05,-4.4973e-09,3226.7,-16778,0,1.0878e+07,-416.29,12123,11097,1,11097,1,-5.2391e-05,-4.4774e-07,0,1.8742e-06,-9.826e-06,-2.131e+07,-1.5332e+05,0,7.6117e+05,-17009,11096,11648,1,11648,1,-2.6741e-05,-1.9411e-07,0,1.3272e-05,-5.03e-06,-1.0875e+07,-66466,0,5.3962e+06,-4983.3,11647,12600,1,12600,1,2.6759e-05,2.8683e-08,0,3.9753e-05,5.0306e-06,1.0878e+07,9819.9,0,1.616e+07,3438.9,12599,551.74,0,551.74,0,3.067e-05,1.8031e-07,0,1.5291e-05,5.7577e-06,1.2471e+07,61746,0,6.218e+06,5504.1,551.74,1
1904,0.21,12125,1,12125,1,1.5536e-08,-5.517e-08,0,2.7989e-05,-4.8673e-09,3130.6,-18892,0,1.138e+07,-839.1,12124,13103,1,13103,1,5.5272e-05,6.6606e-07,0,5.5272e-05,1.0358e-05,2.2467e+07,2.2812e+05,0,2.2471e+07,17567,13102,12124,1,12124,1,2.0603e-08,-3.8653e-08,0,2.8165e-05,-6.64e-09,7652.6,-13236,0,1.1452e+07,-842.75,12123,11097,1,11097,1,-5.5246e-05,-5.3632e-07,0,1.9618e-06,-1.0363e-05,-2.2471e+07,-1.8369e+05,0,7.9825e+05,-16585,11096,11648,1,11648,1,-2.8152e-05,-2.3232e-07,0,1.3984e-05,-5.2988e-06,-1.1449e+07,-79574,0,5.6846e+06,-5658.3,11647,12600,1,12600,1,2.818e-05,7.0898e-08,0,4.1851e-05,5.2985e-06,1.1455e+07,24284,0,1.7017e+07,4057,12599,551.74,0,551.74,0,3.2292e-05,2.4866e-07,0,1.6096e-05,6.0643e-06,1.313e+07,85153,0,6.5453e+06,6959,551.74,1
1904,0.22,12125,1,12125,1,2.6426e-08,-3.2164e-08,0,2.9008e-05,-5.6209e-09,7337.2,-11014,0,1.1794e+07,-297.12,12124,13103,1,13103,1,5.7076e-05,6.5268e-07,0,5.7076e-05,1.0688e-05,2.3198e+07,2.2355e+05,0,2.3198e+07,18138,13102,12124,1,12124,1,2.9809e-08,-2.2011e-08,0,2.9156e-05,-1.0245e-08,11807,-7539,0,1.1855e+07,-306.2,12123,11097,1,11097,1,-5.702e-05,-5.5479e-07,0,2.0236e-06,-1.07e-05,-2.3193e+07,-1.9001e+05,0,8.2324e+05,-20003,11096,11648,1,11648,1,-2.9133e-05,-1.8894e-07,0,1.4496e-05,-5.4883e-06,-1.1848e+07,-64715,0,5.8938e+06,-6008.8,11647,12600,1,12600,1,2.9189e-05,8.7938e-08,0,4.3382e-05,5.486e-06,1.1865e+07,30108,0,1.7639e+07,5346.1,12599,551.74,0,551.74,0,3.3468e-05,2.4196e-07,0,1.6682e-05,6.2856e-06,1.3608e+07,82860,0,6.7836e+06,7493.5,551.74,1
1904,0.23,12125,1,12125,1,2.7268e-08,-2.1782e-08,0,3.0615e-05,-7.0052e-09,7172.2,-7458.6,0,1.2447e+07,-815.72,12124,13103,1,13103,1,6.0128e-05,7.0925e-07,0,6.0128e-05,1.1258e-05,2.4438e+07,2.4287e+05,0,2.4438e+07,16082,13102,12124,1,12124,1,2.5839e-08,-2.1238e-08,0,3.0739e-05,-1.1732e-08,9936.5,-7269.1,0,1.2498e+07,-852.22,12123,11097,1,11097,1,-6.0057e-05,-5.4614e-07,0,2.1426e-06,-1.1271e-05,-2.4428e+07,-1.8702e+05,0,8.7137e+05,-16415,11096,11648,1,11648,1,-3.0699e-05,-2.0464e-07,0,1.5295e-05,-5.7926e-06,-1.2485e+07,-70076,0,6.2185e+06,-6840,11647,12600,1,12600,1,3.0769e-05,1.3243e-07,0,4.5794e-05,5.7803e-06,1.2507e+07,45359,0,1.8617e+07,4933,12599,551.74,0,551.74,0,3.5323e-05,2.6269e-07,0,1.7607e-05,6.6331e-06,1.4362e+07,89957,0,7.1595e+06,7257.6,551.74,1
1904,0.24,12125,1,12125,1,9.9209e-09,7.9265e-09,0,3.2465e-05,-1.8168e-09,-338.46,2714.5,0,1.3199e+07,-2.2149,12124,13103,1,13103,1,6.3326e-05,5.3199e-07,0,6.3326e-05,1.1867e-05,2.5736e+07,1.8221e+05,0,2.5754e+07,13015,13102,12124,1,12124,1,6.745e-09,-1.7441e-09,0,3.2545e-05,1.654e-09,2911.1,-597.12,0,1.3234e+07,-86.681,12123,11097,1,11097,1,-6.3318e-05,-4.0638e-07,0,2.2925e-06,-1.1872e-05,-2.5754e+07,-1.3916e+05,0,9.3264e+05,-13238,11096,11648,1,11648,1,-3.2538e-05,-1.0154e-07,0,1.6223e-05,-6.1242e-06,-1.3234e+07,-34754,0,6.5956e+06,-4715.4,11647,12600,1,12600,1,3.2562e-05,1.1316e-07,0,4.8597e-05,6.1152e-06,1.3236e+07,38737,0,1.9758e+07,4980.5,12599,551.74,0,551.74,0,3.7462e-05,1.8263e-07,0,1.8679e-05,7.0318e-06,1.5231e+07,62541,0,7.5947e+06,5757.7,551.74,1
1904,0.25,12125,1,12125,1,5.333e-09,-1.449e-08,0,3.3767e-05,4.904e-10,-2720.2,-4961.4,0,1.3728e+07,605.47,12124,13103,1,13103,1,6.6016e-05,7.1862e-07,0,6.6016e-05,1.2373e-05,2.6827e+07,2.4613e+05,0,2.6849e+07,23600,13102,12124,1,12124,1,9.633e-09,-2.2746e-08,0,3.3881e-05,-2.6356e-09,3428.6,-7787.6,0,1.3779e+07,398.87,12123,11097,1,11097,1,-6.6009e-05,-4.9491e-07,0,2.3795e-06,-1.2375e-05,-2.6849e+07,-1.6947e+05,0,9.6814e+05,-15149,11096,11648,1,11648,1,-3.3881e-05,-1.6452e-07,0,1.687e-05,-6.3713e-06,-1.3779e+07,-56351,0,6.8588e+06,-4934.7,11647,12600,1,12600,1,3.3876e-05,9.8897e-08,0,5.0534e-05,6.3682e-06,1.3769e+07,33860,0,2.0545e+07,5819.7,12599,551.74,0,551.74,0,3.8962e-05,2.3426e-07,0,1.9423e-05,7.3157e-06,1.584e+07,80218,0,7.8972e+06,7653.3,551.74,1
1904,0.26,12125,1,12125,1,1.2805e-08,-1.2503e-08,0,3.5468e-05,-9.6896e-10,-343.78,-4281.2,0,1.442e+07,578.1,12124,13103,1,13103,1,6.9231e-05,4.3938e-07,0,6.9231e-05,1.297e-05,2.8131e+07,1.5044e+05,0,2.8143e+07,24184,13102,12124,1,12124,1,1.9884e-08,-8.1572e-09,0,3.5559e-05,9.9552e-09,7603.7,-2791.3,0,1.4459e+07,121.82,12123,11097,1,11097,1,-6.9191e-05,-3.5603e-07,0,2.4964e-06,-1.2979e-05,-2.8143e+07,-1.2192e+05,0,1.0155e+06,-9942.2,11096,11648,1,11648,1,-3.5551e-05,-1.2351e-07,0,1.7725e-05,-6.6828e-06,-1.4459e+07,-42288,0,7.2067e+06,-3701.1,11647,12600,1,12600,1,3.5584e-05,7.8233e-08,0,5.3114e-05,6.6913e-06,1.4463e+07,26787,0,2.1594e+07,3889.5,12599,551.74,0,551.74,0,4.0931e-05,1.6394e-07,0,2.0414e-05,7.6806e-06,1.6641e+07,56137,0,8.2993e+06,5841.5,551.74,1
1904,0.27,12125,1,12125,1,2.1557e-08,-4.7894e-08,0,3.6692e-05,-8.5598e-09,1994.2,-16399,0,1.4917e+07,-1932.5,12124,13103,1,13103,1,7.1833e-05,4.9464e-07,0,7.1833e-05,1.3456e-05,2.9186e+07,1.6941e+05,0,2.9197e+07,16114,13102,12124,1,12124,1,2.4088e-08,-4.1011e-08,0,3.6848e-05,-1.42e-08,8439.1,-14041,0,1.4982e+07,-1677,12123,11097,1,11097,1,-7.1783e-05,-4.1306e-07,0,2.5796e-06,-1.3468e-05,-2.9197e+07,-1.4147e+05,0,1.0504e+06,-18607,11096,11648,1,11648,1,-3.6821e-05,-1.6757e-07,0,1.8339e-05,-6.9279e-06,-1.4976e+07,-57347,0,7.4544e+06,-5637.6,11647,12600,1,12600,1,3.6868e-05,4.3484e-08,0,5.4925e-05,6.9086e-06,1.4984e+07,14886,0,2.2329e+07,2075.9,12599,551.74,0,551.74,0,4.2342e-05,1.8109e-07,0,2.1115e-05,7.9462e-06,1.7214e+07,62010,0,8.5841e+06,6074.5,551.74,1
1904,0.28,12125,1,12125,1,2.4694e-08,-1.4879e-08,0,3.7799e-05,-3.5019e-09,3102.8,-5094.4,0,1.5366e+07,444.91,12124,13103,1,13103,1,7.3733e-05,5.1581e-07,0,7.3733e-05,1.3809e-05,2.9956e+07,1.7666e+05,0,2.9963e+07,15613,13102,12124,1,12124,1,2.7803e-08,-6.5389e-09,0,3.7887e-05,-1.8052e-09,11186,-2238.4,0,1.5404e+07,506.42,12123,11097,1,11097,1,-7.3666e-05,-4.5111e-07,0,2.654e-06,-1.3821e-05,-2.9963e+07,-1.5447e+05,0,1.0795e+06,-15829,11096,11648,1,11648,1,-3.7857e-05,-1.4083e-07,0,1.8888e-05,-7.1326e-06,-1.5396e+07,-48227,0,7.6799e+06,-4684,11647,12600,1,12600,1,3.7923e-05,9.9482e-08,0,5.659e-05,7.1209e-06,1.5412e+07,34074,0,2.3004e+07,5411.3,12599,551.74,0,551.74,0,4.3619e-05,1.9816e-07,0,2.1752e-05,8.1868e-06,1.7732e+07,67853,0,8.8425e+06,6288.1,551.74,1
1904,0.29,12125,1,12125,1,1.445e-08,-4.5642e-08,0,3.9254e-05,-2.1022e-09,-1817.4,-15628,0,1.5957e+07,222.24,12124,13103,1,13103,1,7.6838e-05,6.7311e-07,0,7.6838e-05,1.4394e-05,3.1215e+07,2.3046e+05,0,3.1232e+07,28873,13102,12124,1,12124,1,6.8235e-09,-3.3711e-08,0,3.9404e-05,1.1784e-08,3679.6,-11540,0,1.602e+07,-973.68,12123,11097,1,11097,1,-7.6785e-05,-5.3517e-07,0,2.7688e-06,-1.4406e-05,-3.1232e+07,-1.8329e+05,0,1.1265e+06,-15042,11096,11648,1,11648,1,-3.9377e-05,-2.0914e-07,0,1.9615e-05,-7.412e-06,-1.6015e+07,-71632,0,7.9739e+06,-6193.5,11647,12600,1,12600,1,3.9423e-05,8.0683e-08,0,5.8761e-05,7.4057e-06,1.602e+07,27626,0,2.3888e+07,4334.5,12599,551.74,0,551.74,0,4.5297e-05,2.4066e-07,0,2.2587e-05,8.5035e-06,1.8414e+07,82403,0,9.1816e+06,8572.9,551.74,1
1904,0.3,12125,1,12125,1,2.8526e-08,-1.549e-08,0,4.0714e-05,-7.5614e-09,2819.8,-5303.2,0,1.6551e+07,-969.67,12124,13103,1,13103,1,7.9416e-05,6.213e-07,0,7.9416e-05,1.4879e-05,3.2259e+07,2.1279e+05,0,3.2284e+07,11475,13102,12124,1,12124,1,2.7143e-08,-1.3174e-08,0,4.081e-05,-2.4083e-08,10679,-4509,0,1.6592e+07,-486.43,12123,11097,1,11097,1,-7.9372e-05,-4.5323e-07,0,2.861e-06,-1.4888e-05,-3.2284e+07,-1.5519e+05,0,1.1637e+06,-22737,11096,11648,1,11648,1,-4.0784e-05,-1.4788e-07,0,2.0346e-05,-7.6855e-06,-1.6587e+07,-50609,0,8.2727e+06,-5179.4,11647,12600,1,12600,1,4.0846e-05,8.9277e-08,0,6.0957e-05,7.6635e-06,1.6598e+07,30574,0,2.4779e+07,4358.6,12599,551.74,0,551.74,0,4.6983e-05,2.0818e-07,0,2.3429e-05,8.8164e-06,1.9099e+07,71283,0,9.5235e+06,6250.7,551.74,1
1904,0.31,12125,1,12125,1,2.3744e-08,-6.4831e-08,0,4.2045e-05,-6.677e-09,-40.671,-22197,0,1.7091e+07,-978.32,12124,13103,1,13103,1,8.2365e-05,6.3058e-07,0,8.2365e-05,1.5432e-05,3.3454e+07,2.1598e+05,0,3.3481e+07,22562,13102,12124,1,12124,1,3.3371e-08,-5.008e-08,0,4.2215e-05,-1.2959e-08,12430,-17153,0,1.7165e+07,-604.67,12123,11097,1,11097,1,-8.2314e-05,-5.2847e-07,0,2.9557e-06,-1.5441e-05,-3.3481e+07,-1.81e+05,0,1.2023e+06,-21346,11096,11648,1,11648,1,-4.2203e-05,-2.183e-07,0,2.101e-05,-7.9331e-06,-1.7164e+07,-74742,0,8.5399e+06,-6373.9,11647,12600,1,12600,1,4.2243e-05,4.6262e-08,0,6.2933e-05,7.9336e-06,1.7165e+07,15839,0,2.558e+07,4464.3,12599,551.74,0,551.74,0,4.8519e-05,2.3269e-07,0,2.4195e-05,9.1073e-06,1.9722e+07,79676,0,9.8344e+06,7547.4,551.74,1
1904,0.32,12125,1,12125,1,2.2812e-08,-5.0762e-08,0,4.3297e-05,-8.6419e-09,-1481.4,-17379,0,1.7599e+07,-1883.4,12124,13103,1,13103,1,8.4602e-05,5.5353e-07,0,8.4602e-05,1.5851e-05,3.4359e+07,1.8956e+05,0,3.4386e+07,14492,13102,12124,1,12124,1,2.0269e-08,-3.4005e-08,0,4.346e-05,-1.5868e-08,6652.6,-11630,0,1.7667e+07,-1183.4,12123,11097,1,11097,1,-8.4541e-05,-5.3234e-07,0,3.0572e-06,-1.5862e-05,-3.4386e+07,-1.8227e+05,0,1.2436e+06,-19432,11096,11648,1,11648,1,-4.3437e-05,-1.9507e-07,0,2.1635e-05,-8.1692e-06,-1.7666e+07,-66761,0,8.7959e+06,-6648.3,11647,12600,1,12600,1,4.3482e-05,5.9628e-08,0,6.4832e-05,8.1632e-06,1.7667e+07,20418,0,2.6353e+07,3806,12599,551.74,0,551.74,0,4.9964e-05,2.168e-07,0,2.4917e-05,9.3783e-06,2.0309e+07,74230,0,1.0127e+07,7065.4,551.74,1
1904,0.33,12125,1,12125,1,3.9683e-08,5.5885e-08,0,4.485e-05,-6.7458e-09,4771.5,19133,0,1.823e+07,244.77,12124,13103,1,13103,1,8.7781e-05,7.4852e-07,0,8.7781e-05,1.6438e-05,3.5648e+07,2.5629e+05,0,3.5686e+07,21794,13102,12124,1,12124,1,3.9016e-08,1.9142e-08,0,4.5053e-05,-6.5586e-10,15153,6547.7,0,1.8314e+07,-358.91,12123,11097,1,11097,1,-8.7734e-05,-4.0697e-07,0,3.1449e-06,-1.6459e-05,-3.5686e+07,-1.3934e+05,0,1.2793e+06,-18438,11096,11648,1,11648,1,-4.5009e-05,-7.7848e-08,0,2.2408e-05,-8.4859e-06,-1.8306e+07,-26651,0,9.1098e+06,-5248.1,11647,12600,1,12600,1,4.5102e-05,1.695e-07,0,6.715e-05,8.4542e-06,1.8323e+07,58034,0,2.7296e+07,4659.7,12599,551.74,0,551.74,0,5.1756e-05,2.2671e-07,0,2.5811e-05,9.714e-06,2.1036e+07,77620,0,1.049e+07,7167.6,551.74,1
1904,0.34,12125,1,12125,1,2.2675e-08,-5.2824e-08,0,4.5999e-05,-7.1806e-09,-3539.3,-18085,0,1.8696e+07,-1286.7,12124,13103,1,13103,1,8.9971e-05,6.3188e-07,0,8.9971e-05,1.6861e-05,3.6533e+07,2.1643e+05,0,3.6577e+07,20245,13102,12124,1,12124,1,1.691e-08,-3.9717e-08,0,4.618e-05,-9.7778e-09,5908,-13593,0,1.8769e+07,-806.06,12123,11097,1,11097,1,-8.9927e-05,-5.5184e-07,0,3.2435e-06,-1.6871e-05,-3.6577e+07,-1.89e+05,0,1.3189e+06,-25895,11096,11648,1,11648,1,-4.6144e-05,-2.1906e-07,0,2.2982e-05,-8.6811e-06,-1.8767e+07,-74926,0,9.3439e+06,-5935.6,11647,12600,1,12600,1,4.6201e-05,6.8623e-08,0,6.8873e-05,8.666e-06,1.8769e+07,23504,0,2.7991e+07,4334.2,12599,551.74,0,551.74,0,5.3083e-05,2.4336e-07,0,2.6472e-05,9.9637e-06,2.1574e+07,83320,0,1.0758e+07,7705.2,551.74,1
1904,0.35,12125,1,12125,1,4.0725e-08,5.8059e-09,0,4.7596e-05,-6.0017e-09,3068.1,1988.3,0,1.9345e+07,631.94,12124,13103,1,13103,1,9.27e-05,6.4929e-07,0,9.27e-05,1.7363e-05,3.7637e+07,2.2239e+05,0,3.7683e+07,23634,13102,12124,1,12124,1,4.5151e-08,-1.8146e-09,0,4.7698e-05,-3.8787e-09,17948,-620.94,0,1.9389e+07,158.67,12123,11097,1,11097,1,-9.2645e-05,-4.7755e-07,0,3.3331e-06,-1.7388e-05,-3.7683e+07,-1.6356e+05,0,1.3563e+06,-14586,11096,11648,1,11648,1,-4.7674e-05,-1.4065e-07,0,2.3787e-05,-8.9728e-06,-1.9388e+07,-48112,0,9.6693e+06,-4809.1,11647,12600,1,12600,1,4.7749e-05,1.4045e-07,0,7.1268e-05,8.9696e-06,1.9397e+07,48106,0,2.8969e+07,5352.5,12599,551.74,0,551.74,0,5.4927e-05,2.2951e-07,0,2.7394e-05,1.0308e-05,2.2323e+07,78581,0,1.1132e+07,7284,551.74,1
1904,0.36,12125,1,12125,1,3.8408e-08,-7.7518e-08,0,4.9132e-05,-6.7729e-09,653.33,-26537,0,1.9968e+07,118.42,12124,13103,1,13103,1,9.607e-05,4.6773e-07,0,9.607e-05,1.7995e-05,3.9001e+07,1.6019e+05,0,3.9044e+07,18837,13102,12124,1,12124,1,3.672e-08,-4.8113e-08,0,4.9326e-05,-4.0842e-09,14135,-16459,0,2.005e+07,-11.653,12123,11097,1,11097,1,-9.5992e-05,-5.2307e-07,0,3.4568e-06,-1.801e-05,-3.9044e+07,-1.7908e+05,0,1.4058e+06,-19372,11096,11648,1,11648,1,-4.9282e-05,-2.2571e-07,0,2.4551e-05,-9.2668e-06,-2.0044e+07,-77245,0,9.9789e+06,-4466.7,11647,12600,1,12600,1,4.9359e-05,4.615e-08,0,7.3563e-05,9.2504e-06,2.005e+07,15798,0,2.9895e+07,4112.1,12599,551.74,0,551.74,0,5.67e-05,2.1424e-07,0,2.828e-05,1.064e-05,2.3043e+07,73349,0,1.1492e+07,6552.2,551.74,1
1904,0.37,12125,1,12125,1,4.6433e-08,9.1222e-09,0,5.0414e-05,-8.9337e-09,2488.8,3122.9,0,2.0488e+07,-163.31,12124,13103,1,13103,1,9.8145e-05,6.9422e-07,0,9.8149e-05,1.8392e-05,3.984e+07,2.3768e+05,0,3.9922e+07,22442,13102,12124,1,12124,1,4.8701e-08,-4.6787e-09,0,5.0521e-05,-7.8706e-09,19106,-1600.8,0,2.0535e+07,-593.08,12123,11097,1,11097,1,-9.8149e-05,-4.9244e-07,0,3.5278e-06,-1.8394e-05,-3.9922e+07,-1.6865e+05,0,1.4352e+06,-17053,11096,11648,1,11648,1,-5.0488e-05,-1.5071e-07,0,2.5201e-05,-9.5082e-06,-2.0534e+07,-51584,0,1.0243e+07,-5717.4,11647,12600,1,12600,1,5.0581e-05,1.4489e-07,0,7.5493e-05,9.4901e-06,2.0544e+07,49585,0,3.0682e+07,4851.2,12599,551.74,0,551.74,0,5.8177e-05,2.4376e-07,0,2.9013e-05,1.0919e-05,2.3642e+07,83451,0,1.1789e+07,7532.8,551.74,1
1904,0.38,12125,1,12125,1,3.7673e-08,1.0877e-08,0,5.1634e-05,-5.2747e-09,-2167.2,3724.5,0,2.0983e+07,681.59,12124,13103,1,13103,1,0.00010058,7.6112e-07,0,0.0001006,1.8854e-05,4.082e+07,2.6067e+05,0,4.092e+07,19548,13102,12124,1,12124,1,3.893e-08,-6.7342e-09,0,5.1765e-05,-3.061e-09,15419,-2301.9,0,2.1039e+07,628.88,12123,11097,1,11097,1,-0.0001006,-5.429e-07,0,3.6234e-06,-1.8866e-05,-4.092e+07,-1.8587e+05,0,1.4741e+06,-18807,11096,11648,1,11648,1,-5.1713e-05,-1.552e-07,0,2.5807e-05,-9.7461e-06,-2.1033e+07,-53096,0,1.0489e+07,-5222.2,11647,12600,1,12600,1,5.1815e-05,1.5963e-07,0,7.7319e-05,9.7123e-06,2.1043e+07,54630,0,3.1421e+07,7086.8,12599,551.74,0,551.74,0,5.9585e-05,2.5669e-07,0,2.9715e-05,1.1183e-05,2.4213e+07,87876,0,1.2073e+07,7741.4,551.74,1
1904,0.39,12125,1,12125,1,4.2428e-08,2.7223e-08,0,5.3666e-05,-6.2535e-09,-1841.5,9319.1,0,2.1808e+07,638.03,12124,13103,1,13103,1,0.00010465,6.7574e-07,0,0.00010465,1.9605e-05,4.247e+07,2.3143e+05,0,4.2558e+07,19232,13102,12124,1,12124,1,4.1134e-08,2.5356e-09,0,5.3805e-05,-3.9708e-09,15884,868.49,0,2.1873e+07,208.21,12123,11097,1,11097,1,-0.00010463,-4.6201e-07,0,3.7699e-06,-1.9619e-05,-4.2558e+07,-1.5817e+05,0,1.5338e+06,-13699,11096,11648,1,11648,1,-5.3776e-05,-1.0957e-07,0,2.6823e-05,-1.0116e-05,-2.1873e+07,-37514,0,1.0902e+07,-4855.6,11647,12600,1,12600,1,5.3859e-05,1.4236e-07,0,8.037e-05,1.0095e-05,2.1873e+07,48761,0,3.2659e+07,5686.8,12599,551.74,0,551.74,0,6.1932e-05,2.2641e-07,0,3.0888e-05,1.1621e-05,2.5165e+07,77508,0,1.2549e+07,6992.4,551.74,1
1904,0.4,12125,1,12125,1,5.4019e-08,-6.5613e-08,0,5.504e-05,-8.6184e-09,877.43,-22459,0,2.2365e+07,549.84,12124,13103,1,13103,1,0.00010756,5.6933e-07,0,0.00010756,2.014e-05,4.3643e+07,1.9499e+05,0,4.3699e+07,19203,13102,12124,1,12124,1,5.4637e-08,-4.2604e-08,0,5.5228e-05,-5.5587e-09,21948,-14593,0,2.2447e+07,477.43,12123,11097,1,11097,1,-0.00010744,-5.3026e-07,0,3.8573e-06,-2.0165e-05,-4.3699e+07,-1.8153e+05,0,1.5691e+06,-13546,11096,11648,1,11648,1,-5.519e-05,-2.2174e-07,0,2.7514e-05,-1.0373e-05,-2.2447e+07,-75879,0,1.1183e+07,-4972.7,11647,12600,1,12600,1,5.5278e-05,5.7845e-08,0,8.2426e-05,1.0363e-05,2.2448e+07,19789,0,3.3488e+07,4690.3,12599,551.74,0,551.74,0,6.3519e-05,2.21e-07,0,3.1682e-05,1.1919e-05,2.5809e+07,75652,0,1.287e+07,6938.7,551.74,1
1904,0.41,12125,1,12125,1,4.0828e-08,-1.1613e-08,0,5.6659e-05,-7.4273e-09,-6357.6,-3974,0,2.3022e+07,2.3701,12124,13103,1,13103,1,0.00011014,6.1053e-07,0,0.00011014,2.064e-05,4.4685e+07,2.0909e+05,0,4.4795e+07,21566,13102,12124,1,12124,1,4.0626e-08,-1.2946e-08,0,5.6752e-05,-8.9666e-09,15320,-4423.1,0,2.3072e+07,-252.7,12123,11097,1,11097,1,-0.00011013,-4.6475e-07,0,3.9796e-06,-2.0649e-05,-4.4795e+07,-1.591e+05,0,1.6193e+06,-16081,11096,11648,1,11648,1,-5.6727e-05,-1.4956e-07,0,2.8324e-05,-1.0675e-05,-2.3072e+07,-51227,0,1.1511e+07,-4992.8,11647,12600,1,12600,1,5.6806e-05,9.8411e-08,0,8.4877e-05,1.0655e-05,2.3065e+07,33652,0,3.4487e+07,4614.8,12599,551.74,0,551.74,0,6.5388e-05,2.1259e-07,0,3.2614e-05,1.227e-05,2.6567e+07,72773,0,1.3248e+07,6958.7,551.74,1
1904,0.42,12125,1,12125,1,5.8885e-08,-2.4676e-08,0,5.8084e-05,-1.4228e-08,-1205.1,-8444.6,0,2.3599e+07,-1444.3,12124,13103,1,13103,1,0.00011296,4.6702e-07,0,0.00011296,2.1151e-05,4.5822e+07,1.5992e+05,0,4.5891e+07,13358,13102,12124,1,12124,1,6.3243e-08,-1.9102e-08,0,5.8191e-05,-1.8908e-08,24870,-6534.6,0,2.3649e+07,-1113.8,12123,11097,1,11097,1,-0.00011282,-4.4482e-07,0,4.0668e-06,-2.1177e-05,-4.5891e+07,-1.5227e+05,0,1.6551e+06,-15944,11096,11648,1,11648,1,-5.814e-05,-1.4984e-07,0,2.9045e-05,-1.0938e-05,-2.3646e+07,-51300,0,1.1804e+07,-5796.7,11647,12600,1,12600,1,5.8259e-05,7.8485e-08,0,8.703e-05,1.0918e-05,2.3653e+07,26826,0,3.5355e+07,3623.5,12599,551.74,0,551.74,0,6.7035e-05,1.8921e-07,0,3.3438e-05,1.2576e-05,2.7234e+07,64767,0,1.3582e+07,6283.3,551.74,1
1904,0.43,12125,1,12125,1,7.157e-08,-1.4291e-08,0,5.9229e-05,-1.6443e-08,2162.8,-4890.7,0,2.4063e+07,-1382.2,12124,13103,1,13103,1,0.00011518,5.7894e-07,0,0.00011518,2.1562e-05,4.6714e+07,1.9819e+05,0,4.6782e+07,12571,13102,12124,1,12124,1,6.8626e-08,-1.3657e-08,0,5.9331e-05,-2.4082e-08,27163,-4671.5,0,2.4111e+07,-800.81,12123,11097,1,11097,1,-0.00011501,-4.8267e-07,0,4.1445e-06,-2.1593e-05,-4.6782e+07,-1.653e+05,0,1.6856e+06,-23967,11096,11648,1,11648,1,-5.9265e-05,-1.5197e-07,0,2.9615e-05,-1.1165e-05,-2.4104e+07,-52037,0,1.2034e+07,-5504.5,11647,12600,1,12600,1,5.9409e-05,1.0363e-07,0,8.8738e-05,1.1137e-05,2.4118e+07,35450,0,3.6048e+07,4533.6,12599,551.74,0,551.74,0,6.8355e-05,2.1022e-07,0,3.4095e-05,1.2826e-05,2.7769e+07,71955,0,1.3848e+07,7300,551.74,1
1904,0.44,12125,1,12125,1,6.2567e-08,-2.8646e-08,0,6.0599e-05,-1.0699e-08,-2872.8,-9802.7,0,2.4619e+07,319.76,12124,13103,1,13103,1,0.00011804,5.8729e-07,0,0.00011804,2.21e-05,4.7872e+07,2.0099e+05,0,4.795e+07,17787,13102,12124,1,12124,1,6.7785e-08,-1.9553e-08,0,6.0747e-05,-1.1368e-08,26429,-6688.6,0,2.4686e+07,509.73,12123,11097,1,11097,1,-0.00011789,-4.8242e-07,0,4.2375e-06,-2.2132e-05,-4.795e+07,-1.6514e+05,0,1.7234e+06,-15615,11096,11648,1,11648,1,-6.0688e-05,-1.606e-07,0,3.0305e-05,-1.1415e-05,-2.4683e+07,-54970,0,1.2314e+07,-4602.1,11647,12600,1,12600,1,6.0822e-05,7.4623e-08,0,9.0789e-05,1.1397e-05,2.469e+07,25534,0,3.6876e+07,5643,12599,551.74,0,551.74,0,6.9936e-05,2.045e-07,0,3.4884e-05,1.3122e-05,2.8409e+07,69996,0,1.4167e+07,6931.5,551.74,1
1904,0.45,12125,1,12125,1,7.5681e-08,-4.3226e-08,0,6.2185e-05,-1.3123e-08,341.91,-14795,0,2.5262e+07,325.15,12124,13103,1,13103,1,0.00012103,4.7233e-07,0,0.00012103,2.266e-05,4.9076e+07,1.6168e+05,0,4.916e+07,18014,13102,12124,1,12124,1,6.5681e-08,-2.9298e-08,0,6.2341e-05,-1.8633e-08,26616,-10021,0,2.5333e+07,-160.91,12123,11097,1,11097,1,-0.00012086,-4.1362e-07,0,4.352e-06,-2.2692e-05,-4.916e+07,-1.4165e+05,0,1.77e+06,-24729,11096,11648,1,11648,1,-6.2261e-05,-1.5821e-07,0,3.1087e-05,-1.1712e-05,-2.5323e+07,-54158,0,1.2635e+07,-3678.7,11647,12600,1,12600,1,6.2417e-05,4.6073e-08,0,9.3183e-05,1.1688e-05,2.5335e+07,15746,0,3.7848e+07,3516.5,12599,551.74,0,551.74,0,7.1769e-05,1.7111e-07,0,3.5802e-05,1.3463e-05,2.9153e+07,58568,0,1.4539e+07,6091.4,551.74,1
1904,0.46,12125,1,12125,1,9.7004e-08,-9.7437e-08,0,6.3301e-05,-2.3322e-08,6383.7,-33344,0,2.5713e+07,-2294.8,12124,13103,1,13103,1,0.00012386,5.7046e-07,0,0.00012386,2.3182e-05,5.0215e+07,1.9521e+05,0,5.0298e+07,15182,13102,12124,1,12124,1,9.2731e-08,-7.2848e-08,0,6.3542e-05,-2.7031e-08,36004,-24902,0,2.582e+07,-1479.4,12123,11097,1,11097,1,-0.00012366,-5.9123e-07,0,4.4092e-06,-2.3224e-05,-5.0298e+07,-2.0237e+05,0,1.7938e+06,-20806,11096,11648,1,11648,1,-6.345e-05,-2.9446e-07,0,3.1636e-05,-1.1951e-05,-2.5807e+07,-1.0077e+05,0,1.2855e+07,-6871.6,11647,12600,1,12600,1,6.3631e-05,5.2243e-08,0,9.4795e-05,1.1907e-05,2.5825e+07,17840,0,3.8497e+07,3151.4,12599,551.74,0,551.74,0,7.3054e-05,2.5563e-07,0,3.644e-05,1.3707e-05,2.9672e+07,87488,0,1.4797e+07,7312.3,551.74,1
1904,0.47,12125,1,12125,1,7.3907e-08,-1.6326e-08,0,6.5328e-05,-1.4707e-08,-4999.1,-5586.1,0,2.6536e+07,-500.16,12124,13103,1,13103,1,0.0001268,4.6536e-07,0,0.0001268,2.374e-05,5.1399e+07,1.5939e+05,0,5.1506e+07,11239,13102,12124,1,12124,1,7.482e-08,-8.4961e-09,0,6.5426e-05,-1.8332e-08,29271,-2906.1,0,2.6583e+07,-560.72,12123,11097,1,11097,1,-0.00012663,-4.0071e-07,0,4.5749e-06,-2.3772e-05,-5.1506e+07,-1.3723e+05,0,1.861e+06,-11739,11096,11648,1,11648,1,-6.5347e-05,-1.1976e-07,0,3.2677e-05,-1.2295e-05,-2.6578e+07,-40976,0,1.3275e+07,-4252,11647,12600,1,12600,1,6.5502e-05,7.3202e-08,0,9.7904e-05,1.2266e-05,2.6582e+07,25024,0,3.9763e+07,3457.2,12599,551.74,0,551.74,0,7.5398e-05,1.6849e-07,0,3.7614e-05,1.4143e-05,3.0623e+07,57666,0,1.5272e+07,4825.6,551.74,1
1904,0.48,12125,1,12125,1,5.5134e-08,-4.7134e-08,0,6.6509e-05,-9.444e-09,-15289,-16127,0,2.7013e+07,223.94,12124,13103,1,13103,1,0.00012956,4.7802e-07,0,0.00012956,2.4268e-05,5.2509e+07,1.6373e+05,0,5.2649e+07,13688,13102,12124,1,12124,1,5.9814e-08,-2.2899e-08,0,6.6687e-05,-1.0719e-08,23524,-7834.4,0,2.7094e+07,224.3,12123,11097,1,11097,1,-0.00012944,-5.334e-07,0,4.6681e-06,-2.429e-05,-5.2649e+07,-1.8256e+05,0,1.899e+06,-14702,11096,11648,1,11648,1,-6.6637e-05,-1.7727e-07,0,3.3249e-05,-1.2527e-05,-2.7103e+07,-60649,0,1.351e+07,-4284.4,11647,12600,1,12600,1,6.6751e-05,7.3604e-08,0,9.9643e-05,1.2509e-05,2.7086e+07,25204,0,4.0466e+07,4829.5,12599,551.74,0,551.74,0,7.6759e-05,2.1056e-07,0,3.8291e-05,1.4401e-05,3.1173e+07,72061,0,1.5546e+07,5915.3,551.74,1
1904,0.49,12125,1,12125,1,9.5531e-08,-1.4184e-08,0,6.7606e-05,-1.5606e-08,-838.81,-4852.4,0,2.7457e+07,811.08,12124,13103,1,13103,1,0.00013143,6.0351e-07,0,0.00013143,2.4598e-05,5.3261e+07,2.0668e+05,0,5.3371e+07,27069,13102,12124,1,12124,1,9.6095e-08,-1.516e-08,0,6.7718e-05,-1.6444e-08,37851,-5185.4,0,2.7512e+07,62.909,12123,11097,1,11097,1,-0.00013121,-5.2028e-07,0,4.7143e-06,-2.4641e-05,-5.3371e+07,-1.7818e+05,0,1.9173e+06,-14750,11096,11648,1,11648,1,-6.7622e-05,-1.6999e-07,0,3.3818e-05,-1.2733e-05,-2.7503e+07,-58134,0,1.3739e+07,-4817.2,11647,12600,1,12600,1,6.7822e-05,1.203e-07,0,0.00010129,1.2709e-05,2.7518e+07,41159,0,4.1136e+07,6062.2,12599,551.74,0,551.74,0,7.8023e-05,2.3386e-07,0,3.8919e-05,1.464e-05,3.1685e+07,80032,0,1.5799e+07,7708.7,551.74,1
1904,0.5,12125,1,12125,1,1.1412e-07,-3.3933e-08,0,6.9125e-05,-1.807e-08,4519.4,-11609,0,2.8073e+07,1231.5,12124,13103,1,13103,1,0.0001344,5.819e-07,0,0.0001344,2.515e-05,5.4456e+07,1.9915e+05,0,5.4564e+07,26785,13102,12124,1,12124,1,1.1497e-07,-2.8837e-08,0,6.9243e-05,-1.8989e-08,45219,-9856.5,0,2.8132e+07,883.57,12123,11097,1,11097,1,-0.00013415,-4.7421e-07,0,4.8042e-06,-2.5197e-05,-5.4564e+07,-1.623e+05,0,1.9545e+06,-17533,11096,11648,1,11648,1,-6.9134e-05,-1.7493e-07,0,3.459e-05,-1.3024e-05,-2.8118e+07,-59790,0,1.4051e+07,-4351,11647,12600,1,12600,1,6.9361e-05,7.1464e-08,0,0.0001036,1.2985e-05,2.8141e+07,24456,0,4.2059e+07,5355.5,12599,551.74,0,551.74,0,7.9777e-05,2.0841e-07,0,3.9795e-05,1.4967e-05,3.2395e+07,71318,0,1.6154e+07,7687.3,551.74,1
1904,0.51,12125,1,12125,1,9.773e-08,1.9383e-08,0,7.0386e-05,-1.6996e-08,-5040.1,6632.9,0,2.8583e+07,378.38,12124,13103,1,13103,1,0.00013691,6.3879e-07,0,0.00013691,2.5636e-05,5.5467e+07,2.1879e+05,0,5.5637e+07,17849,13102,12124,1,12124,1,9.8989e-08,-1.117e-09,0,7.0529e-05,-1.6328e-08,38682,-381.79,0,2.8653e+07,152.08,12123,11097,1,11097,1,-0.00013679,-4.7777e-07,0,4.9073e-06,-2.5666e-05,-5.5637e+07,-1.6355e+05,0,1.9964e+06,-16331,11096,11648,1,11648,1,-7.0434e-05,-1.1479e-07,0,3.5213e-05,-1.3266e-05,-2.8647e+07,-39245,0,1.4302e+07,-5588.7,11647,12600,1,12600,1,7.064e-05,1.4176e-07,0,0.00010547,1.3219e-05,2.8656e+07,48489,0,4.2823e+07,5738.4,12599,551.74,0,551.74,0,8.1233e-05,2.223e-07,0,4.0521e-05,1.5241e-05,3.2984e+07,76068,0,1.6447e+07,7374.9,551.74,1
1904,0.52,12125,1,12125,1,1.1563e-07,-1.4191e-08,0,7.1811e-05,-2.1226e-08,-389.07,-4853.7,0,2.916e+07,0.61092,12124,13103,1,13103,1,0.00013966,7.1675e-07,0,0.00013966,2.6135e-05,5.657e+07,2.455e+05,0,5.6699e+07,23731,13102,12124,1,12124,1,1.1944e-07,-1.8689e-08,0,7.1936e-05,-3.0403e-08,47018,-6401.2,0,2.9223e+07,207.66,12123,11097,1,11097,1,-0.0001394,-5.5648e-07,0,4.9903e-06,-2.6184e-05,-5.6699e+07,-1.9044e+05,0,2.0307e+06,-20332,11096,11648,1,11648,1,-7.1818e-05,-1.8879e-07,0,3.5929e-05,-1.3528e-05,-2.9209e+07,-64562,0,1.4592e+07,-5765.8,11647,12600,1,12600,1,7.2058e-05,1.2818e-07,0,0.0001076,1.349e-05,2.9228e+07,43873,0,4.3685e+07,6103,12599,551.74,0,551.74,0,8.2877e-05,2.5913e-07,0,4.134e-05,1.5551e-05,3.3649e+07,88672,0,1.6778e+07,8640.8,551.74,1
1904,0.53,12125,1,12125,1,1.1953e-07,-6.4677e-08,0,7.3311e-05,-2.3157e-08,-1920,-22124,0,2.9767e+07,-518.4,12124,13103,1,13103,1,0.00014269,5.07e-07,0,0.00014269,2.6702e-05,5.7788e+07,1.7365e+05,0,5.7931e+07,15364,13102,12124,1,12124,1,1.231e-07,-4.283e-08,0,7.348e-05,-1.827e-08,48187,-14651,0,2.9849e+07,404.4,12123,11097,1,11097,1,-0.00014243,-5.1333e-07,0,5.0929e-06,-2.6751e-05,-5.7931e+07,-1.7567e+05,0,2.0716e+06,-22713,11096,11648,1,11648,1,-7.3365e-05,-1.9818e-07,0,3.6678e-05,-1.3809e-05,-2.9839e+07,-67766,0,1.4898e+07,-5851.9,11647,12600,1,12600,1,7.3603e-05,4.2031e-08,0,0.00010986,1.3779e-05,2.9852e+07,14368,0,4.4593e+07,4715.1,12599,551.74,0,551.74,0,8.4609e-05,2.0096e-07,0,4.2207e-05,1.5872e-05,3.435e+07,68765,0,1.7129e+07,6898.1,551.74,1
1904,0.54,12125,1,12125,1,1.2817e-07,-3.3429e-08,0,7.4894e-05,-2.2196e-08,-1394.1,-11433,0,3.0408e+07,556.59,12124,13103,1,13103,1,0.00014556,4.7777e-07,0,0.00014556,2.724e-05,5.8939e+07,1.6364e+05,0,5.9099e+07,24290,13102,12124,1,12124,1,1.3081e-07,-2.1449e-08,0,7.5013e-05,-2.1692e-08,52368,-7318,0,3.047e+07,523.46,12123,11097,1,11097,1,-0.0001453,-4.3669e-07,0,5.1988e-06,-2.729e-05,-5.9099e+07,-1.4938e+05,0,2.1151e+06,-12702,11096,11648,1,11648,1,-7.49e-05,-1.6016e-07,0,3.7489e-05,-1.4101e-05,-3.0464e+07,-54790,0,1.5223e+07,-4588.7,11647,12600,1,12600,1,7.515e-05,6.8874e-08,0,0.00011226,1.4062e-05,3.0476e+07,23526,0,4.5562e+07,4709.8,12599,551.74,0,551.74,0,8.6438e-05,1.8533e-07,0,4.3122e-05,1.6214e-05,3.509e+07,63410,0,1.7498e+07,6592.7,551.74,1
1904,0.55,12125,1,12125,1,1.3251e-07,-4.2405e-08,0,7.6562e-05,-2.2831e-08,-3246.9,-14505,0,3.1083e+07,616.61,12124,13103,1,13103,1,0.00014896,5.9104e-07,0,0.00014896,2.7876e-05,6.0302e+07,2.0244e+05,0,6.0472e+07,15833,13102,12124,1,12124,1,1.3005e-07,-3.5476e-08,0,7.672e-05,-1.8741e-08,51704,-12104,0,3.1162e+07,767.43,12123,11097,1,11097,1,-0.00014867,-4.7864e-07,0,5.3157e-06,-2.7928e-05,-6.0472e+07,-1.6379e+05,0,2.162e+06,-11511,11096,11648,1,11648,1,-7.6594e-05,-1.954e-07,0,3.831e-05,-1.442e-05,-3.1152e+07,-66918,0,1.5556e+07,-4135.1,11647,12600,1,12600,1,7.6854e-05,6.7196e-08,0,0.00011474,1.4383e-05,3.1163e+07,22963,0,4.6565e+07,5096.4,12599,551.74,0,551.74,0,8.8363e-05,2.1925e-07,0,4.4081e-05,1.6575e-05,3.5868e+07,75013,0,1.7885e+07,5672.6,551.74,1
1904,0.56,12125,1,12125,1,1.4799e-07,-2.6874e-08,0,7.8133e-05,-3.207e-08,-1175.7,-9191.1,0,3.1718e+07,-2066.4,12124,13103,1,13103,1,0.00015183,5.1165e-07,0,0.00015183,2.8415e-05,6.1453e+07,1.7524e+05,0,6.1644e+07,9890,13102,12124,1,12124,1,1.5438e-07,-1.8705e-08,0,7.825e-05,-4.0899e-08,61043,-6391.5,0,3.1781e+07,-879.67,12123,11097,1,11097,1,-0.00015155,-4.4905e-07,0,5.41e-06,-2.8466e-05,-6.1644e+07,-1.5365e+05,0,2.2009e+06,-17176,11096,11648,1,11648,1,-7.8114e-05,-1.7532e-07,0,3.9123e-05,-1.4713e-05,-3.1771e+07,-60051,0,1.5883e+07,-6624.2,11647,12600,1,12600,1,7.8408e-05,1.0048e-07,0,0.00011711,1.4664e-05,3.1788e+07,34358,0,4.7528e+07,3168.4,12599,551.74,0,551.74,0,9.0177e-05,2.1015e-07,0,4.4988e-05,1.6915e-05,3.6602e+07,71903,0,1.8251e+07,6332.8,551.74,1
1904,0.57,12125,1,12125,1,1.4824e-07,-5.031e-08,0,7.9681e-05,-2.8607e-08,-4644.7,-17208,0,3.2344e+07,-603.87,12124,13103,1,13103,1,0.00015496,4.5035e-07,0,0.00015496,2.8992e-05,6.2707e+07,1.5425e+05,0,6.2896e+07,13149,13102,12124,1,12124,1,1.4654e-07,-3.2073e-08,0,7.9847e-05,-2.831e-08,57484,-10967,0,3.2428e+07,-106.36,12123,11097,1,11097,1,-0.00015463,-4.4109e-07,0,5.5244e-06,-2.9052e-05,-6.2896e+07,-1.5098e+05,0,2.2473e+06,-14014,11096,11648,1,11648,1,-7.9695e-05,-1.7931e-07,0,3.9888e-05,-1.501e-05,-3.2414e+07,-61311,0,1.6192e+07,-5071.2,11647,12600,1,12600,1,7.9996e-05,5.5474e-08,0,0.00011943,1.4961e-05,3.2428e+07,19001,0,4.846e+07,4007.3,12599,551.74,0,551.74,0,9.1963e-05,1.8614e-07,0,4.5879e-05,1.725e-05,3.7324e+07,63681,0,1.8611e+07,5774.4,551.74,1
1904,0.58,12125,1,12125,1,1.7433e-07,-6.4931e-08,0,8.0689e-05,-3.1619e-08,2725.9,-22209,0,3.2751e+07,174.29,12124,13103,1,13103,1,0.00015705,4.6333e-07,0,0.00015705,2.9375e-05,6.3538e+07,1.5867e+05,0,6.3724e+07,14664,13102,12124,1,12124,1,1.6154e-07,-4.3289e-08,0,8.0885e-05,-2.9279e-08,64627,-14788,0,3.2847e+07,-510.46,12123,11097,1,11097,1,-0.00015667,-4.7531e-07,0,5.5785e-06,-2.9445e-05,-6.3724e+07,-1.6262e+05,0,2.2687e+06,-12446,11096,11648,1,11648,1,-8.0697e-05,-2.1021e-07,0,4.0403e-05,-1.5209e-05,-3.2821e+07,-71864,0,1.6398e+07,-3864.6,11647,12600,1,12600,1,8.1051e-05,5.3657e-08,0,0.00012093,1.515e-05,3.2851e+07,18330,0,4.9058e+07,4249.1,12599,551.74,0,551.74,0,9.3127e-05,1.992e-07,0,4.6461e-05,1.7468e-05,3.7793e+07,68146,0,1.8845e+07,5466.5,551.74,1
1904,0.59,12125,1,12125,1,1.7674e-07,-4.3991e-08,0,8.2276e-05,-3.6655e-08,58.258,-15041,0,3.3393e+07,-1769.4,12124,13103,1,13103,1,0.00015992,5.549e-07,0,0.00015992,2.9912e-05,6.4693e+07,1.9005e+05,0,6.4893e+07,11953,13102,12124,1,12124,1,1.7578e-07,-3.2483e-08,0,8.243e-05,-4.1242e-08,68776,-11067,0,3.3473e+07,-1074.6,12123,11097,1,11097,1,-0.00015954,-4.7851e-07,0,5.6851e-06,-2.9983e-05,-6.4893e+07,-1.6371e+05,0,2.3124e+06,-23875,11096,11648,1,11648,1,-8.2254e-05,-1.838e-07,0,4.1205e-05,-1.5502e-05,-3.3455e+07,-62906,0,1.6722e+07,-5988.3,11647,12600,1,12600,1,8.26e-05,5.8896e-08,0,0.00012332,1.5443e-05,3.3476e+07,20108,0,5.0036e+07,3815.9,12599,551.74,0,551.74,0,9.4958e-05,2.066e-07,0,4.7372e-05,1.7814e-05,3.8533e+07,70680,0,1.9213e+07,7002.3,551.74,1
1904,0.6,12125,1,12125,1,1.8311e-07,-7.0591e-08,0,8.3566e-05,-3.0723e-08,-700.9,-24141,0,3.3914e+07,1216.5,12124,13103,1,13103,1,0.00016255,5.309e-07,0,0.00016255,3.0402e-05,6.5741e+07,1.8142e+05,0,6.5951e+07,20868,13102,12124,1,12124,1,1.8059e-07,-5.7076e-08,0,8.3739e-05,-2.9768e-08,71648,-19508,0,3.4003e+07,1156.3,12123,11097,1,11097,1,-0.00016214,-4.7281e-07,0,5.7666e-06,-3.0476e-05,-6.5951e+07,-1.6175e+05,0,2.3457e+06,-18596,11096,11648,1,11648,1,-8.3555e-05,-2.181e-07,0,4.1853e-05,-1.5745e-05,-3.3984e+07,-74597,0,1.6986e+07,-3758.6,11647,12600,1,12600,1,8.3918e-05,4.0039e-08,0,0.00012525,1.5686e-05,3.4006e+07,13687,0,5.0809e+07,5068,12599,551.74,0,551.74,0,9.6448e-05,2.0115e-07,0,4.8117e-05,1.8092e-05,3.9134e+07,68805,0,1.9513e+07,6859.6,551.74,1
1904,0.61,12125,1,12125,1,2.0106e-07,2.5625e-08,0,8.4684e-05,-3.9788e-08,2605.9,8763.8,0,3.4364e+07,-1198.3,12124,13103,1,13103,1,0.00016445,7.3261e-07,0,0.00016445,3.0767e-05,6.65e+07,2.5064e+05,0,6.6755e+07,16559,13102,12124,1,12124,1,2.0033e-07,1.333e-09,0,8.4816e-05,-4.69e-08,78735,456.6,0,3.4438e+07,-1166.8,12123,11097,1,11097,1,-0.00016412,-4.8431e-07,0,5.8307e-06,-3.084e-05,-6.6755e+07,-1.6584e+05,0,2.3719e+06,-17747,11096,11648,1,11648,1,-8.4616e-05,-1.3051e-07,0,4.2439e-05,-1.5965e-05,-3.4416e+07,-44585,0,1.722e+07,-6556.3,11647,12600,1,12600,1,8.5026e-05,1.5577e-07,0,0.00012696,1.5884e-05,3.445e+07,53219,0,5.1494e+07,4325.1,12599,551.74,0,551.74,0,9.7736e-05,2.441e-07,0,4.8756e-05,1.8336e-05,3.9653e+07,83497,0,1.977e+07,7291.3,551.74,1
1904,0.62,12125,1,12125,1,2.1264e-07,-4.0872e-08,0,8.6478e-05,-4.0981e-08,3537.2,-13977,0,3.5091e+07,-802.81,12124,13103,1,13103,1,0.00016805,5.408e-07,0,0.00016805,3.1424e-05,6.7945e+07,1.8491e+05,0,6.8173e+07,17174,13102,12124,1,12124,1,2.0873e-07,-3.2501e-08,0,8.6622e-05,-3.4924e-08,82951,-11075,0,3.517e+07,-1521.4,12123,11097,1,11097,1,-0.00016761,-4.5005e-07,0,5.9477e-06,-3.1509e-05,-6.8173e+07,-1.5395e+05,0,2.4194e+06,-12030,11096,11648,1,11648,1,-8.6411e-05,-1.8151e-07,0,4.334e-05,-1.6299e-05,-3.5146e+07,-61957,0,1.7585e+07,-5706.8,11647,12600,1,12600,1,8.6833e-05,6.2534e-08,0,0.00012964,1.6213e-05,3.5178e+07,21375,0,5.2579e+07,3013.4,12599,551.74,0,551.74,0,9.9809e-05,1.9976e-07,0,4.9794e-05,1.8722e-05,4.0492e+07,68320,0,2.0189e+07,6074.9,551.74,1
1904,0.63,12125,1,12125,1,2.1371e-07,-5.3603e-08,0,8.743e-05,-4.0071e-08,-452.93,-18329,0,3.5473e+07,-351.73,12124,13103,1,13103,1,0.00017005,6.5175e-07,0,0.00017005,3.1804e-05,6.8736e+07,2.2296e+05,0,6.8989e+07,27277,13102,12124,1,12124,1,2.1288e-07,-4.1112e-08,0,8.7608e-05,-3.9251e-08,83576,-14069,0,3.5568e+07,-111.01,12123,11097,1,11097,1,-0.00016961,-5.4698e-07,0,6.0094e-06,-3.1883e-05,-6.8989e+07,-1.8724e+05,0,2.4442e+06,-17269,11096,11648,1,11648,1,-8.7395e-05,-2.1621e-07,0,4.3814e-05,-1.6482e-05,-3.5545e+07,-73674,0,1.7774e+07,-6966.1,11647,12600,1,12600,1,8.7819e-05,6.1801e-08,0,0.00013104,1.6407e-05,3.5572e+07,21067,0,5.3142e+07,4592.9,12599,551.74,0,551.74,0,0.00010091,2.4163e-07,0,5.0339e-05,1.8931e-05,4.0932e+07,82642,0,2.0407e+07,8425,551.74,1
1904,0.64,12125,1,12125,1,2.1136e-07,-3.4491e-08,0,8.922e-05,-4.0547e-08,-5248.7,-11790,0,3.6198e+07,-755.32,12124,13103,1,13103,1,0.00017339,5.7573e-07,0,0.00017339,3.2422e-05,7.0073e+07,1.9715e+05,0,7.0337e+07,12976,13102,12124,1,12124,1,2.0988e-07,-2.533e-08,0,8.9377e-05,-4.3093e-08,82721,-8663.4,0,3.6284e+07,324.03,12123,11097,1,11097,1,-0.00017293,-4.544e-07,0,6.1453e-06,-3.2509e-05,-7.0337e+07,-1.5543e+05,0,2.4995e+06,-18686,11096,11648,1,11648,1,-8.9165e-05,-1.7208e-07,0,4.4711e-05,-1.6811e-05,-3.6266e+07,-58905,0,1.8138e+07,-4752.3,11647,12600,1,12600,1,8.9587e-05,6.7507e-08,0,0.00013375,1.6734e-05,3.6285e+07,23079,0,5.4242e+07,4021.4,12599,551.74,0,551.74,0,0.00010297,2.004e-07,0,5.1372e-05,1.9315e-05,4.1769e+07,68537,0,2.0825e+07,6225.4,551.74,1
1904,0.65,12125,1,12125,1,2.2292e-07,-7.6921e-08,0,9.0495e-05,-3.9716e-08,-5447.4,-26303,0,3.6711e+07,487.26,12124,13103,1,13103,1,0.00017599,4.9173e-07,0,0.00017599,3.2914e-05,7.1108e+07,1.6811e+05,0,7.1401e+07,19493,13102,12124,1,12124,1,2.221e-07,-5.2641e-08,0,9.0678e-05,-3.9169e-08,88188,-17963,0,3.681e+07,553.13,12123,11097,1,11097,1,-0.00017554,-4.9712e-07,0,6.2115e-06,-3.2996e-05,-7.1401e+07,-1.7022e+05,0,2.5262e+06,-20891,11096,11648,1,11648,1,-9.0445e-05,-2.1467e-07,0,4.5345e-05,-1.705e-05,-3.6787e+07,-73466,0,1.8394e+07,-3963.7,11647,12600,1,12600,1,9.0898e-05,3.0846e-08,0,0.00013565,1.6973e-05,3.681e+07,10549,0,5.5003e+07,4956.6,12599,551.74,0,551.74,0,0.00010445,2.0314e-07,0,5.2109e-05,1.9592e-05,4.2361e+07,69471,0,2.112e+07,6717.4,551.74,1
1904,0.66,12125,1,12125,1,2.2864e-07,-1.9109e-08,0,9.2423e-05,-3.9926e-08,-7893.7,-6531.9,0,3.749e+07,829.75,12124,13103,1,13103,1,0.00017935,4.9627e-07,0,0.00017935,3.353e-05,7.2448e+07,1.6975e+05,0,7.2741e+07,19190,13102,12124,1,12124,1,2.2643e-07,-1.707e-08,0,9.2526e-05,-3.5935e-08,90016,-5810,0,3.7558e+07,480.36,12123,11097,1,11097,1,-0.00017884,-4.046e-07,0,6.3424e-06,-3.3625e-05,-7.2741e+07,-1.3838e+05,0,2.5801e+06,-12457,11096,11648,1,11648,1,-9.2285e-05,-1.3892e-07,0,4.6292e-05,-1.7408e-05,-3.7535e+07,-47475,0,1.88e+07,-3403.8,11647,12600,1,12600,1,9.277e-05,7.9236e-08,0,0.00013859,1.7322e-05,3.7563e+07,27084,0,5.6197e+07,4684.8,12599,551.74,0,551.74,0,0.00010667,1.8535e-07,0,5.322e-05,2.0008e-05,4.326e+07,63387,0,2.1569e+07,6064.7,551.74,1
1904,0.67,12125,1,12125,1,2.6226e-07,-2.6637e-08,0,9.3594e-05,-4.8468e-08,-104.9,-9106.4,0,3.7961e+07,-134.44,12124,13103,1,13103,1,0.00018152,4.8033e-07,0,0.00018152,3.3936e-05,7.3305e+07,1.6429e+05,0,7.362e+07,17064,13102,12124,1,12124,1,2.5949e-07,-1.7934e-08,0,9.3696e-05,-4.5215e-08,1.0249e+05,-6111.1,0,3.803e+07,-342.63,12123,11097,1,11097,1,-0.000181,-4.1053e-07,0,6.4124e-06,-3.4032e-05,-7.362e+07,-1.4057e+05,0,2.6083e+06,-13302,11096,11648,1,11648,1,-9.3427e-05,-1.3579e-07,0,4.6865e-05,-1.763e-05,-3.8e+07,-46396,0,1.9032e+07,-4264.4,11647,12600,1,12600,1,9.3962e-05,5.8543e-08,0,0.00014039,1.7529e-05,3.8038e+07,19998,0,5.6903e+07,3555.8,12599,551.74,0,551.74,0,0.00010802,1.7146e-07,0,5.3895e-05,2.0262e-05,4.3803e+07,58634,0,2.1839e+07,5583.5,551.74,1
1904,0.68,12125,1,12125,1,2.6504e-07,-5.9462e-08,0,9.5273e-05,-4.9074e-08,-3701.4,-20327,0,3.8639e+07,-191.07,12124,13103,1,13103,1,0.00018516,4.0313e-07,0,0.00018516,3.4619e-05,7.4763e+07,1.3779e+05,0,7.5102e+07,14566,13102,12124,1,12124,1,2.6364e-07,-4.154e-08,0,9.5439e-05,-4.5923e-08,1.0493e+05,-14226,0,3.8735e+07,-1615.8,12123,11097,1,11097,1,-0.00018464,-4.0072e-07,0,6.5192e-06,-3.4716e-05,-7.5102e+07,-1.3704e+05,0,2.6512e+06,-10634,11096,11648,1,11648,1,-9.5171e-05,-1.9109e-07,0,4.7735e-05,-1.7959e-05,-3.871e+07,-65395,0,1.938e+07,-5201.1,11647,12600,1,12600,1,9.5703e-05,4.9303e-08,0,0.00014284,1.7851e-05,3.8738e+07,16881,0,5.7897e+07,4021.2,12599,551.74,0,551.74,0,0.00010996,1.7681e-07,0,5.4864e-05,2.0624e-05,4.4586e+07,60460,0,2.2229e+07,5837.9,551.74,1
1904,0.69,12125,1,12125,1,2.9753e-07,-4.959e-08,0,9.6558e-05,-5.5348e-08,3829.2,-16950,0,3.9156e+07,-289.56,12124,13103,1,13103,1,0.00018759,4.7569e-07,0,0.00018759,3.5063e-05,7.5722e+07,1.6269e+05,0,7.6064e+07,15071,13102,12124,1,12124,1,2.9772e-07,-2.7811e-08,0,9.6703e-05,-5.7618e-08,1.1864e+05,-9508.2,0,3.9245e+07,-823.67,12123,11097,1,11097,1,-0.00018701,-4.4612e-07,0,6.5843e-06,-3.517e-05,-7.6064e+07,-1.5256e+05,0,2.6768e+06,-13957,11096,11648,1,11648,1,-9.641e-05,-1.8884e-07,0,4.8379e-05,-1.8198e-05,-3.9213e+07,-64454,0,1.9646e+07,-4892.6,11647,12600,1,12600,1,9.6998e-05,6.2044e-08,0,0.00014481,1.8089e-05,3.9256e+07,21129,0,5.8675e+07,3943.2,12599,551.74,0,551.74,0,0.00011144,1.9881e-07,0,5.5602e-05,2.0904e-05,4.5182e+07,67977,0,2.2525e+07,6130.2,551.74,1
1904,0.7,12125,1,12125,1,3.0917e-07,-3.8803e-08,0,9.8035e-05,-6.0196e-08,3311.6,-13262,0,3.9752e+07,-1432.3,12124,13103,1,13103,1,0.00019033,4.55e-07,0,0.00019033,3.5566e-05,7.6811e+07,1.556e+05,0,7.7157e+07,15755,13102,12124,1,12124,1,3.0613e-07,-2.8149e-08,0,9.8177e-05,-6.0511e-08,1.2123e+05,-9641.3,0,3.984e+07,-1822.5,12123,11097,1,11097,1,-0.00018969,-4.2256e-07,0,6.6821e-06,-3.5685e-05,-7.7157e+07,-1.4449e+05,0,2.7176e+06,-15272,11096,11648,1,11648,1,-9.7863e-05,-1.5956e-07,0,4.9099e-05,-1.8481e-05,-3.9804e+07,-54529,0,1.9937e+07,-5854.6,11647,12600,1,12600,1,9.8478e-05,5.6319e-08,0,0.00014705,1.8361e-05,3.9849e+07,19258,0,5.958e+07,2420.1,12599,551.74,0,551.74,0,0.00011315,1.8042e-07,0,5.6455e-05,2.1223e-05,4.5869e+07,61684,0,2.2868e+07,5526.7,551.74,1
1904,0.71,12125,1,12125,1,3.2317e-07,-2.2491e-08,0,9.9258e-05,-6.1767e-08,3618.6,-7684.2,0,4.0244e+07,-1011.2,12124,13103,1,13103,1,0.00019256,5.1542e-07,0,0.00019256,3.5978e-05,7.7694e+07,1.7626e+05,0,7.8054e+07,12369,13102,12124,1,12124,1,3.2056e-07,-1.7693e-08,0,9.9354e-05,-6.4386e-08,1.269e+05,-6013.5,0,4.0316e+07,-1007.4,12123,11097,1,11097,1,-0.0001919,-4.2355e-07,0,6.7537e-06,-3.6101e-05,-7.8054e+07,-1.4483e+05,0,2.7473e+06,-15242,11096,11648,1,11648,1,-9.9022e-05,-1.5513e-07,0,4.9695e-05,-1.8704e-05,-4.0276e+07,-53109,0,2.0178e+07,-5332.5,11647,12600,1,12600,1,9.9678e-05,8.5075e-08,0,0.00014891,1.8579e-05,4.0328e+07,29139,0,6.0321e+07,3389.3,12599,551.74,0,551.74,0,0.00011456,1.9571e-07,0,5.7157e-05,2.1488e-05,4.6436e+07,66912,0,2.3149e+07,5610.7,551.74,1
1904,0.72,12125,1,12125,1,3.3755e-07,-2.8785e-08,0,0.00010069,-6.3677e-08,4438.6,-9838.2,0,4.0821e+07,-701.64,12124,13103,1,13103,1,0.00019549,5.0406e-07,0,0.00019549,3.6529e-05,7.8861e+07,1.7235e+05,0,7.9241e+07,19728,13102,12124,1,12124,1,3.3501e-07,-1.791e-08,0,0.00010083,-6.608e-08,1.3309e+05,-6133.6,0,4.091e+07,-1361.1,12123,11097,1,11097,1,-0.00019482,-4.0154e-07,0,6.8425e-06,-3.6653e-05,-7.9241e+07,-1.3729e+05,0,2.7822e+06,-13941,11096,11648,1,11648,1,-0.00010049,-1.5529e-07,0,5.0439e-05,-1.898e-05,-4.0872e+07,-53178,0,2.0479e+07,-4852,11647,12600,1,12600,1,0.00010116,6.6735e-08,0,0.00015105,1.8852e-05,4.0923e+07,22758,0,6.1181e+07,2300.2,12599,551.74,0,551.74,0,0.00011621,1.8161e-07,0,5.7982e-05,2.1797e-05,4.7102e+07,62084,0,2.3481e+07,5971.3,551.74,1
1904,0.73,12125,1,12125,1,3.5378e-07,-3.4859e-08,0,0.00010228,-6.9166e-08,4678.6,-11912,0,4.1463e+07,-1756.1,12124,13103,1,13103,1,0.00019861,5.3561e-07,0,0.00019861,3.7103e-05,8.0101e+07,1.8339e+05,0,8.0491e+07,18164,13102,12124,1,12124,1,3.5124e-07,-2.8523e-08,0,0.00010243,-7.4009e-08,1.3839e+05,-9749.9,0,4.1557e+07,-1386.8,12123,11097,1,11097,1,-0.00019789,-4.2961e-07,0,6.9386e-06,-3.7238e-05,-8.0491e+07,-1.4709e+05,0,2.8225e+06,-21208,11096,11648,1,11648,1,-0.00010205,-1.6343e-07,0,5.1222e-05,-1.9285e-05,-4.1509e+07,-55782,0,2.0796e+07,-5437.2,11647,12600,1,12600,1,0.00010278,6.1104e-08,0,0.00015344,1.9144e-05,4.157e+07,20880,0,6.2147e+07,3128.7,12599,551.74,0,551.74,0,0.00011805,1.9485e-07,0,5.8899e-05,2.2144e-05,4.7842e+07,66611,0,2.3849e+07,7080.7,551.74,1
1904,0.74,12125,1,12125,1,3.6177e-07,1.1579e-08,0,0.00010363,-7.213e-08,1591.9,3956.4,0,4.2006e+07,-2398.8,12124,13103,1,13103,1,0.00020097,5.7364e-07,0,0.00020097,3.7553e-05,8.1029e+07,1.9598e+05,0,8.1484e+07,11615,13102,12124,1,12124,1,3.6103e-07,-1.0884e-09,0,0.00010372,-8.3061e-08,1.4258e+05,-371.06,0,4.2078e+07,-1374.5,12123,11097,1,11097,1,-0.00020033,-3.8333e-07,0,7.0199e-06,-3.7679e-05,-8.1484e+07,-1.3105e+05,0,2.8557e+06,-24067,11096,11648,1,11648,1,-0.00010336,-1.2008e-07,0,5.1873e-05,-1.9547e-05,-4.204e+07,-41057,0,2.106e+07,-6199.3,11647,12600,1,12600,1,0.00010409,1.1497e-07,0,0.0001555,1.939e-05,4.2094e+07,39217,0,6.2973e+07,2810.4,12599,551.74,0,551.74,0,0.00011961,1.9909e-07,0,5.9678e-05,2.2435e-05,4.8469e+07,68050,0,2.4161e+07,6606.1,551.74,1
1904,0.75,12125,1,12125,1,3.7796e-07,-1.5831e-08,0,0.00010486,-7.2242e-08,2610,-5409.1,0,4.2498e+07,-1193,12124,13103,1,13103,1,0.00020342,5.1825e-07,0,0.00020342,3.7998e-05,8.1999e+07,1.7744e+05,0,8.2433e+07,14782,13102,12124,1,12124,1,3.7658e-07,-8.5334e-09,0,0.00010497,-7.6774e-08,1.4828e+05,-2910.1,0,4.2582e+07,-1051.4,12123,11097,1,11097,1,-0.00020267,-4.239e-07,0,7.0996e-06,-3.8137e-05,-8.2433e+07,-1.4513e+05,0,2.8882e+06,-14207,11096,11648,1,11648,1,-0.00010458,-1.2605e-07,0,5.2502e-05,-1.9769e-05,-4.2537e+07,-42940,0,2.1313e+07,-5306.3,11647,12600,1,12600,1,0.00010535,7.6004e-08,0,0.00015735,1.9621e-05,4.2595e+07,25936,0,6.3711e+07,2899.1,12599,551.74,0,551.74,0,0.00012102,1.7824e-07,0,6.0382e-05,2.2698e-05,4.9035e+07,60927,0,2.4443e+07,5669.2,551.74,1
1904,0.76,12125,1,12125,1,3.8073e-07,-2.4491e-08,0,0.00010645,-7.0969e-08,-2010.9,-8369.2,0,4.3138e+07,-461.42,12124,13103,1,13103,1,0.00020669,5.5423e-07,0,0.00020669,3.8605e-05,8.3297e+07,1.8976e+05,0,8.3746e+07,21955,13102,12124,1,12124,1,3.7373e-07,-1.4783e-08,0,0.00010659,-6.9826e-08,1.4784e+05,-5054,0,4.3236e+07,-564.84,12123,11097,1,11097,1,-0.00020589,-4.5321e-07,0,7.2048e-06,-3.875e-05,-8.3746e+07,-1.5492e+05,0,2.9308e+06,-21141,11096,11648,1,11648,1,-0.0001062,-1.6388e-07,0,5.3306e-05,-2.007e-05,-4.3194e+07,-55875,0,2.1638e+07,-5210.6,11647,12600,1,12600,1,0.00010697,8.0401e-08,0,0.00015971,1.9931e-05,4.3245e+07,27538,0,6.4667e+07,3983.2,12599,551.74,0,551.74,0,0.00012286,2.0722e-07,0,6.1296e-05,2.3045e-05,4.9774e+07,70818,0,2.481e+07,7097.9,551.74,1
1904,0.77,12125,1,12125,1,3.9327e-07,-6.3639e-08,0,0.00010798,-7.5116e-08,-4285.9,-21741,0,4.3756e+07,-1249.2,12124,13103,1,13103,1,0.00020975,4.0381e-07,0,0.00020975,3.9175e-05,8.4506e+07,1.3831e+05,0,8.4984e+07,12312,13102,12124,1,12124,1,3.8749e-07,-4.178e-08,0,0.00010815,-7.5921e-08,1.5358e+05,-14296,0,4.3865e+07,-1907.9,12123,11097,1,11097,1,-0.00020894,-4.5388e-07,0,7.3e-06,-3.9325e-05,-8.4984e+07,-1.5539e+05,0,2.9691e+06,-12175,11096,11648,1,11648,1,-0.00010774,-1.8287e-07,0,5.4082e-05,-2.0363e-05,-4.382e+07,-62414,0,2.1953e+07,-5298.3,11647,12600,1,12600,1,0.00010854,4.229e-08,0,0.00016201,2.021e-05,4.387e+07,14388,0,6.5589e+07,2501.6,12599,551.74,0,551.74,0,0.00012463,1.7748e-07,0,6.2186e-05,2.3374e-05,5.0488e+07,60663,0,2.5167e+07,4985.1,551.74,1
1904,0.78,12125,1,12125,1,4.2391e-07,-8.2889e-08,0,0.00010891,-8.049e-08,2087.9,-28316,0,4.4129e+07,-1115.5,12124,13103,1,13103,1,0.00021173,5.0265e-07,0,0.00021173,3.9539e-05,8.5281e+07,1.7182e+05,0,8.5773e+07,13731,13102,12124,1,12124,1,4.2095e-07,-5.2656e-08,0,0.00010909,-9.1714e-08,1.6645e+05,-18035,0,4.4245e+07,-420.28,12123,11097,1,11097,1,-0.00021088,-5.4634e-07,0,7.3394e-06,-3.9693e-05,-8.5773e+07,-1.8674e+05,0,2.9857e+06,-24233,11096,11648,1,11648,1,-0.00010868,-2.318e-07,0,5.4572e-05,-2.0544e-05,-4.4202e+07,-79334,0,2.215e+07,-5505.4,11647,12600,1,12600,1,0.00010951,3.7253e-08,0,0.0001634,2.0396e-05,4.4257e+07,12742,0,6.6129e+07,4200.5,12599,551.74,0,551.74,0,0.0001257,2.1719e-07,0,6.2718e-05,2.3579e-05,5.0916e+07,74222,0,2.5378e+07,7021.9,551.74,1
1904,0.79,12125,1,12125,1,4.2876e-07,-2.4832e-08,0,0.00011039,-8.206e-08,-1640.3,-8483.1,0,4.4723e+07,-1418.4,12124,13103,1,13103,1,0.00021436,6.3973e-07,0,0.00021436,4.0026e-05,8.6323e+07,2.1868e+05,0,8.6827e+07,19182,13102,12124,1,12124,1,4.2349e-07,-1.6448e-08,0,0.00011053,-7.324e-08,1.6733e+05,-5606.8,0,4.4823e+07,-1699.9,12123,11097,1,11097,1,-0.00021347,-5.318e-07,0,7.4336e-06,-4.019e-05,-8.6827e+07,-1.8176e+05,0,3.0243e+06,-15773,11096,11648,1,11648,1,-0.00011008,-1.7712e-07,0,5.5285e-05,-2.0828e-05,-4.4773e+07,-60169,0,2.2438e+07,-7340.1,11647,12600,1,12600,1,0.00011096,1.0082e-07,0,0.00016563,2.0653e-05,4.4836e+07,34288,0,6.7045e+07,3465.3,12599,551.74,0,551.74,0,0.00012741,2.2958e-07,0,6.3566e-05,2.3898e-05,5.1601e+07,78452,0,2.5719e+07,7319.5,551.74,1
1904,0.8,12125,1,12125,1,4.7104e-07,-2.4771e-08,0,0.00011203,-9.0628e-08,8110.1,-8461.1,0,4.5384e+07,-1718.7,12124,13103,1,13103,1,0.00021735,5.0038e-07,0,0.00021735,4.0573e-05,8.7504e+07,1.7077e+05,0,8.8018e+07,11931,13102,12124,1,12124,1,4.7052e-07,-1.408e-08,0,0.00011212,-9.9126e-08,1.8642e+05,-4822.5,0,4.5465e+07,-1231.5,12123,11097,1,11097,1,-0.0002164,-4.1877e-07,0,7.5156e-06,-4.0746e-05,-8.8018e+07,-1.4312e+05,0,3.0571e+06,-25529,11096,11648,1,11648,1,-0.00011165,-1.4161e-07,0,5.6085e-05,-2.1139e-05,-4.5413e+07,-48290,0,2.2761e+07,-5533.4,11647,12600,1,12600,1,0.00011259,7.0678e-08,0,0.00016816,2.0952e-05,4.5488e+07,24107,0,6.804e+07,3234.8,12599,551.74,0,551.74,0,0.0001293,1.7981e-07,0,6.4515e-05,2.4252e-05,5.2363e+07,61439,0,2.6099e+07,6551.3,551.74,1
1904,0.81,12125,1,12125,1,4.7047e-07,-8.0871e-08,0,0.00011363,-9.2932e-08,-619.99,-27619,0,4.6026e+07,-2767.9,12124,13103,1,13103,1,0.0002209,5.2378e-07,0,0.0002209,4.1243e-05,8.8909e+07,1.7939e+05,0,8.9465e+07,15287,13102,12124,1,12124,1,4.7189e-07,-6.2663e-08,0,0.00011382,-1.1213e-07,1.8528e+05,-21338,0,4.6151e+07,-2094.6,12123,11097,1,11097,1,-0.00021995,-4.5235e-07,0,7.6211e-06,-4.1417e-05,-8.9465e+07,-1.5486e+05,0,3.1016e+06,-30195,11096,11648,1,11648,1,-0.00011334,-2.2964e-07,0,5.6918e-05,-2.1442e-05,-4.6098e+07,-78654,0,2.3098e+07,-6133.5,11647,12600,1,12600,1,0.00011427,2.9116e-08,0,0.00017049,2.1258e-05,4.6156e+07,9935.6,0,6.8983e+07,1922.4,12599,551.74,0,551.74,0,0.00013115,1.9943e-07,0,6.5438e-05,2.4598e-05,5.3104e+07,68152,0,2.6468e+07,6783.4,551.74,1
1904,0.82,12125,1,12125,1,4.8198e-07,-4.2703e-08,0,0.00011528,-8.5206e-08,-3366.7,-14583,0,4.6689e+07,1359,12124,13103,1,13103,1,0.00022375,4.5426e-07,0,0.00022375,4.1768e-05,9.0025e+07,1.5511e+05,0,9.0607e+07,21418,13102,12124,1,12124,1,4.7335e-07,-2.8943e-08,0,0.00011541,-8.0869e-08,1.8804e+05,-9881.6,0,4.6793e+07,1206.8,12123,11097,1,11097,1,-0.00022276,-3.9525e-07,0,7.7359e-06,-4.1947e-05,-9.0607e+07,-1.3506e+05,0,3.1465e+06,-17737,11096,11648,1,11648,1,-0.00011493,-1.5535e-07,0,5.7723e-05,-2.1737e-05,-4.6744e+07,-52925,0,2.3423e+07,-2988.8,11647,12600,1,12600,1,0.0001159,4.7841e-08,0,0.00017308,2.1566e-05,4.6803e+07,16231,0,7.0012e+07,4820.1,12599,551.74,0,551.74,0,0.00013306,1.6893e-07,0,6.6389e-05,2.4955e-05,5.3869e+07,57712,0,2.6849e+07,6309.1,551.74,1
1904,0.83,12125,1,12125,1,5.2083e-07,-1.3188e-08,0,0.00011622,-9.5423e-08,4544.3,-4502.9,0,4.7065e+07,92.563,12124,13103,1,13103,1,0.00022549,5.402e-07,0,0.00022549,4.2082e-05,9.07e+07,1.8431e+05,0,9.1292e+07,15478,13102,12124,1,12124,1,5.1321e-07,-1.1896e-08,0,0.00011632,-9.3135e-08,2.0387e+05,-4053.9,0,4.7156e+07,83.522,12123,11097,1,11097,1,-0.00022445,-4.2057e-07,0,7.7605e-06,-4.2273e-05,-9.1292e+07,-1.4393e+05,0,3.1568e+06,-15825,11096,11648,1,11648,1,-0.00011579,-1.475e-07,0,5.8182e-05,-2.1932e-05,-4.7097e+07,-50461,0,2.3608e+07,-4195.1,11647,12600,1,12600,1,0.00011684,9.2205e-08,0,0.00017448,2.1726e-05,4.7175e+07,31581,0,7.0572e+07,4018.4,12599,551.74,0,551.74,0,0.00013414,2.0185e-07,0,6.6933e-05,2.5159e-05,5.4302e+07,68957,0,2.7064e+07,5751.5,551.74,1
1904,0.84,12125,1,12125,1,5.389e-07,-4.7073e-08,0,0.00011779,-1.0092e-07,5248.5,-16066,0,4.7697e+07,-823.92,12124,13103,1,13103,1,0.00022898,5.369e-07,0,0.00022898,4.2721e-05,9.2088e+07,1.8381e+05,0,9.2678e+07,16282,13102,12124,1,12124,1,5.3876e-07,-3.3578e-08,0,0.00011797,-1.0373e-07,2.1309e+05,-11440,0,4.7822e+07,-136.13,12123,11097,1,11097,1,-0.00022785,-4.4963e-07,0,7.8536e-06,-4.293e-05,-9.2678e+07,-1.5362e+05,0,3.1946e+06,-19426,11096,11648,1,11648,1,-0.00011742,-1.9704e-07,0,5.9018e-05,-2.223e-05,-4.7759e+07,-67240,0,2.3945e+07,-5354.5,11647,12600,1,12600,1,0.0001185,6.784e-08,0,0.00017681,2.2037e-05,4.7841e+07,23156,0,7.1494e+07,3954.6,12599,551.74,0,551.74,0,0.00013595,2.0496e-07,0,6.7833e-05,2.5499e-05,5.503e+07,70015,0,2.7425e+07,6721.2,551.74,1
1904,0.85,12125,1,12125,1,5.4922e-07,1.4169e-08,0,0.0001189,-1.0485e-07,1287.1,4835.8,0,4.8141e+07,-1692.2,12124,13103,1,13103,1,0.00023085,6.5396e-07,0,0.00023085,4.3081e-05,9.2815e+07,2.2388e+05,0,9.3466e+07,15095,13102,12124,1,12124,1,5.4486e-07,-6.2886e-09,0,0.00011904,-1.0923e-07,2.1557e+05,-2129.6,0,4.8253e+07,-1695.2,12123,11097,1,11097,1,-0.00022979,-4.1947e-07,0,7.9259e-06,-4.328e-05,-9.3466e+07,-1.4333e+05,0,3.2239e+06,-18666,11096,11648,1,11648,1,-0.00011848,-1.2882e-07,0,5.9537e-05,-2.2443e-05,-4.819e+07,-43965,0,2.4155e+07,-6437.4,11647,12600,1,12600,1,0.0001196,1.3229e-07,0,0.00017853,2.2227e-05,4.8273e+07,45006,0,7.2183e+07,2802.2,12599,551.74,0,551.74,0,0.00013724,2.2023e-07,0,6.8475e-05,2.574e-05,5.5542e+07,75224,0,2.768e+07,6117.2,551.74,1
1904,0.86,12125,1,12125,1,5.2543e-07,-3.352e-08,0,0.00012019,-9.8073e-08,-14847,-11436,0,4.8656e+07,-745.01,12124,13103,1,13103,1,0.00023359,7.5939e-07,0,0.00023359,4.3595e-05,9.3894e+07,2.5997e+05,0,9.4572e+07,19963,13102,12124,1,12124,1,5.2826e-07,-2.8724e-08,0,0.00012035,-9.9855e-08,2.0825e+05,-9802.5,0,4.8778e+07,160.86,12123,11097,1,11097,1,-0.00023251,-6.0533e-07,0,8.0327e-06,-4.3793e-05,-9.4572e+07,-2.068e+05,0,3.2676e+06,-25253,11096,11648,1,11648,1,-0.00011982,-2.3393e-07,0,6.0216e-05,-2.2678e-05,-4.8733e+07,-79505,0,2.4429e+07,-7076.8,11647,12600,1,12600,1,0.00012088,1.2787e-07,0,0.00018034,2.249e-05,4.8781e+07,43481,0,7.2941e+07,6863.9,12599,551.74,0,551.74,0,0.00013871,2.8239e-07,0,6.9206e-05,2.6021e-05,5.6134e+07,96453,0,2.7972e+07,9229.9,551.74,1
1904,0.87,12125,1,12125,1,5.8348e-07,-1.241e-08,0,0.00012209,-1.1248e-07,-389.2,-4238.9,0,4.9421e+07,-2265,12124,13103,1,13103,1,0.00023717,7.4406e-07,0,0.00023717,4.4251e-05,9.5301e+07,2.5483e+05,0,9.5993e+07,16292,13102,12124,1,12124,1,5.787e-07,-2.0926e-08,0,0.00012221,-1.2458e-07,2.2886e+05,-7165.9,0,4.9532e+07,-1424.8,12123,11097,1,11097,1,-0.000236,-5.037e-07,0,8.1151e-06,-4.4465e-05,-9.5993e+07,-1.7213e+05,0,3.3008e+06,-25847,11096,11648,1,11648,1,-0.00012163,-2.0727e-07,0,6.1137e-05,-2.3047e-05,-4.9469e+07,-70496,0,2.4801e+07,-7864.9,11647,12600,1,12600,1,0.00012281,1.3784e-07,0,0.00018326,2.2821e-05,4.955e+07,47213,0,7.4085e+07,3217.8,12599,551.74,0,551.74,0,0.00014091,2.7214e-07,0,7.0307e-05,2.6432e-05,5.7018e+07,92947,0,2.8413e+07,7809.4,551.74,1
1904,0.88,12125,1,12125,1,6.1045e-07,9.8061e-09,0,0.00012334,-1.1109e-07,1191.3,3354.3,0,4.9918e+07,404.84,12124,13103,1,13103,1,0.00023936,6.2682e-07,0,0.00023936,4.4657e-05,9.615e+07,2.1458e+05,0,9.6885e+07,17476,13102,12124,1,12124,1,6.0756e-07,-7.61e-09,0,0.00012347,-1.1511e-07,2.4079e+05,-2575.5,0,5.0036e+07,275.84,12123,11097,1,11097,1,-0.0002382,-4.1434e-07,0,8.1848e-06,-4.4876e-05,-9.6885e+07,-1.4153e+05,0,3.3294e+06,-18224,11096,11648,1,11648,1,-0.00012286,-1.1835e-07,0,6.1753e-05,-2.3285e-05,-4.9971e+07,-40376,0,2.505e+07,-4265.4,11647,12600,1,12600,1,0.00012408,1.1198e-07,0,0.00018521,2.3051e-05,5.0054e+07,38157,0,7.4861e+07,5176.8,12599,551.74,0,551.74,0,0.00014235,2.009e-07,0,7.1026e-05,2.6699e-05,5.759e+07,68614,0,2.8698e+07,6775.5,551.74,1
1904,0.89,12125,1,12125,1,6.4475e-07,-1.779e-08,0,0.00012469,-1.2196e-07,6620.5,-6076.4,0,5.0462e+07,-1495.3,12124,13103,1,13103,1,0.0002421,6.426e-07,0,0.0002421,4.5156e-05,9.7225e+07,2.1998e+05,0,9.7954e+07,15658,13102,12124,1,12124,1,6.3767e-07,-1.1098e-08,0,0.00012481,-1.2354e-07,2.5209e+05,-3789.2,0,5.0576e+07,-1471.1,12123,11097,1,11097,1,-0.00024083,-4.6973e-07,0,8.2508e-06,-4.539e-05,-9.7954e+07,-1.6044e+05,0,3.3561e+06,-21295,11096,11648,1,11648,1,-0.00012416,-1.7256e-07,0,6.2427e-05,-2.3537e-05,-5.0502e+07,-58706,0,2.5321e+07,-5329.4,11647,12600,1,12600,1,0.00012546,1.0679e-07,0,0.00018723,2.3302e-05,5.0598e+07,36315,0,7.5665e+07,3510.7,12599,551.74,0,551.74,0,0.00014392,2.2536e-07,0,7.1808e-05,2.6992e-05,5.8218e+07,76955,0,2.901e+07,6368.7,551.74,1
1904,0.9,12125,1,12125,1,6.4476e-07,-4.6012e-09,0,0.00012612,-1.1913e-07,-1753.5,-1570.3,0,5.1034e+07,-338.74,12124,13103,1,13103,1,0.00024471,5.8473e-07,0,0.00024471,4.564e-05,9.824e+07,1.9951e+05,0,9.9007e+07,18974,13102,12124,1,12124,1,6.3588e-07,-8.8957e-09,0,0.00012622,-1.1817e-07,2.5163e+05,-3008.2,0,5.1143e+07,-825.73,12123,11097,1,11097,1,-0.00024342,-4.6429e-07,0,8.3557e-06,-4.5876e-05,-9.9007e+07,-1.5857e+05,0,3.3985e+06,-18184,11096,11648,1,11648,1,-0.00012557,-1.5109e-07,0,6.3115e-05,-2.3802e-05,-5.1072e+07,-51620,0,2.56e+07,-5933.5,11647,12600,1,12600,1,0.00012687,1.1898e-07,0,0.00018932,2.3563e-05,5.1157e+07,40473,0,7.6541e+07,4524.1,12599,551.74,0,551.74,0,0.00014557,2.1974e-07,0,7.2633e-05,2.7303e-05,5.8878e+07,75032,0,2.9339e+07,6751.8,551.74,1
1904,0.91,12125,1,12125,1,6.6065e-07,-4.0856e-08,0,0.0001277,-1.2497e-07,-5142.7,-13944,0,5.1668e+07,-1586.6,12124,13103,1,13103,1,0.00024798,4.0598e-07,0,0.00024798,4.625e-05,9.9524e+07,1.3867e+05,0,1.0033e+08,9490.6,13102,12124,1,12124,1,6.5211e-07,-2.3882e-08,0,0.00012786,-1.252e-07,2.5819e+05,-8084.6,0,5.18e+07,-2076.9,12123,11097,1,11097,1,-0.00024666,-4.1792e-07,0,8.4468e-06,-4.6491e-05,-1.0033e+08,-1.4281e+05,0,3.4355e+06,-13561,11096,11648,1,11648,1,-0.00012719,-1.5577e-07,0,6.3941e-05,-2.4111e-05,-5.1731e+07,-53231,0,2.5932e+07,-5999.7,11647,12600,1,12600,1,0.00012852,6.0902e-08,0,0.00019179,2.3857e-05,5.1812e+07,20762,0,7.7505e+07,2343,12599,551.74,0,551.74,0,0.0001474,1.7179e-07,0,7.3547e-05,2.7641e-05,5.9609e+07,58658,0,2.9703e+07,5064.9,551.74,1
1904,0.92,12125,1,12125,1,7.1455e-07,-6.7334e-08,0,0.00012886,-1.3589e-07,7395.9,-22981,0,5.2131e+07,-1961.9,12124,13103,1,13103,1,0.0002506,6.7661e-07,0,0.0002506,4.672e-05,1.0054e+08,2.3109e+05,0,1.0135e+08,24623,13102,12124,1,12124,1,7.1036e-07,-4.6567e-08,0,0.00012907,-1.3586e-07,2.8098e+05,-15809,0,5.2285e+07,-3194.2,12123,11097,1,11097,1,-0.00024917,-5.4458e-07,0,8.4719e-06,-4.6982e-05,-1.0135e+08,-1.864e+05,0,3.4462e+06,-22739,11096,11648,1,11648,1,-0.00012835,-2.335e-07,0,6.4545e-05,-2.4348e-05,-5.2203e+07,-79844,0,2.6176e+07,-7511.1,11647,12600,1,12600,1,0.00012977,5.7014e-08,0,0.00019357,2.4074e-05,5.2307e+07,19292,0,7.816e+07,3011.2,12599,551.74,0,551.74,0,0.00014873,2.4523e-07,0,7.4209e-05,2.7897e-05,6.0141e+07,83730,0,2.9965e+07,7903.4,551.74,1
1904,0.93,12125,1,12125,1,7.3523e-07,-4.5518e-08,0,0.00013052,-1.4263e-07,6210.6,-15532,0,5.2796e+07,-3210.4,12124,13103,1,13103,1,0.0002536,5.4029e-07,0,0.0002536,4.7272e-05,1.0171e+08,1.8504e+05,0,1.0255e+08,13125,13102,12124,1,12124,1,7.3174e-07,-2.5675e-08,0,0.00013068,-1.5256e-07,2.8845e+05,-8695.7,0,5.2933e+07,-1942.7,12123,11097,1,11097,1,-0.00025212,-4.9921e-07,0,8.5685e-06,-4.7543e-05,-1.0255e+08,-1.7087e+05,0,3.4864e+06,-23714,11096,11648,1,11648,1,-0.00012993,-2.0197e-07,0,6.5352e-05,-2.4648e-05,-5.2848e+07,-69036,0,2.65e+07,-8041.8,11647,12600,1,12600,1,0.00013141,7.9173e-08,0,0.00019602,2.4374e-05,5.2957e+07,27118,0,7.9174e+07,2039.4,12599,551.74,0,551.74,0,0.00015065,2.2564e-07,0,7.5168e-05,2.8254e-05,6.0908e+07,77038,0,3.0348e+07,6863,551.74,1
1904,0.94,12125,1,12125,1,7.4455e-07,-7.066e-08,0,0.0001318,-1.4139e-07,-5.6534,-24116,0,5.3304e+07,-1991.5,12124,13103,1,13103,1,0.00025629,6.2934e-07,0,0.00025629,4.7776e-05,1.0276e+08,2.1491e+05,0,1.0364e+08,23424,13102,12124,1,12124,1,7.388e-07,-5.4225e-08,0,0.00013199,-1.4692e-07,2.9161e+05,-18499,0,5.3458e+07,-1199.9,12123,11097,1,11097,1,-0.0002548,-5.0189e-07,0,8.6522e-06,-4.8049e-05,-1.0364e+08,-1.7169e+05,0,3.5197e+06,-22393,11096,11648,1,11648,1,-0.00013123,-2.4463e-07,0,6.6008e-05,-2.4898e-05,-5.3377e+07,-83373,0,2.6765e+07,-6524.7,11647,12600,1,12600,1,0.00013272,5.0367e-08,0,0.00019796,2.4616e-05,5.3474e+07,17227,0,7.9928e+07,2710.8,12599,551.74,0,551.74,0,0.00015212,2.3272e-07,0,7.59e-05,2.8531e-05,6.1494e+07,79449,0,3.0638e+07,7950.5,551.74,1
1904,0.95,12125,1,12125,1,7.7336e-07,2.5587e-08,0,0.00013345,-1.4805e-07,1460.6,8729,0,5.3965e+07,-2568.3,12124,13103,1,13103,1,0.00025893,5.5518e-07,0,0.00025893,4.8266e-05,1.038e+08,1.9014e+05,0,1.0471e+08,9334.6,13102,12124,1,12124,1,7.6931e-07,6.3307e-09,0,0.00013356,-1.5918e-07,3.0418e+05,2152.4,0,5.4094e+07,-1606.2,12123,11097,1,11097,1,-0.00025744,-3.6835e-07,0,8.7452e-06,-4.8541e-05,-1.0471e+08,-1.2608e+05,0,3.557e+06,-23804,11096,11648,1,11648,1,-0.00013278,-9.1804e-08,0,6.6793e-05,-2.5212e-05,-5.4007e+07,-31159,0,2.7082e+07,-5802.2,11647,12600,1,12600,1,0.00013434,1.2875e-07,0,0.00020036,2.4911e-05,5.4118e+07,43918,0,8.0961e+07,2438,12599,551.74,0,551.74,0,0.00015403,1.8665e-07,0,7.6855e-05,2.8886e-05,6.2257e+07,63718,0,3.1019e+07,6406,551.74,1
1904,0.96,12125,1,12125,1,7.9988e-07,9.5793e-09,0,0.00013492,-1.4675e-07,1555.5,3266.4,0,5.4553e+07,26.088,12124,13103,1,13103,1,0.00026185,6.612e-07,0,0.00026185,4.8795e-05,1.0493e+08,2.2632e+05,0,1.0587e+08,22179,13102,12124,1,12124,1,7.9458e-07,-6.1766e-09,0,0.00013503,-1.442e-07,3.1454e+05,-2090.2,0,5.4681e+07,-277.32,12123,11097,1,11097,1,-0.00026028,-4.1563e-07,0,8.8229e-06,-4.9085e-05,-1.0587e+08,-1.4188e+05,0,3.5884e+06,-16407,11096,11648,1,11648,1,-0.00013424,-1.304e-07,0,6.7549e-05,-2.5481e-05,-5.4599e+07,-44559,0,2.7385e+07,-4678.5,11647,12600,1,12600,1,0.00013583,1.1859e-07,0,0.00020255,2.5197e-05,5.4705e+07,40350,0,8.1834e+07,4417,12599,551.74,0,551.74,0,0.00015572,2.1916e-07,0,7.7701e-05,2.9207e-05,6.2934e+07,74797,0,3.1354e+07,7016,551.74,1
1904,0.97,12125,1,12125,1,8.2777e-07,-2.538e-08,0,0.00013615,-1.5804e-07,1908.8,-8658.1,0,5.5041e+07,-2569.4,12124,13103,1,13103,1,0.00026443,5.6876e-07,0,0.00026443,4.927e-05,1.0592e+08,1.9479e+05,0,1.0688e+08,12209,13102,12124,1,12124,1,8.244e-07,-1.6082e-08,0,0.00013628,-1.6594e-07,3.2566e+05,-5508.3,0,5.518e+07,-1766.4,12123,11097,1,11097,1,-0.00026278,-4.7206e-07,0,8.8792e-06,-4.9573e-05,-1.0688e+08,-1.6114e+05,0,3.6119e+06,-23766,11096,11648,1,11648,1,-0.00013544,-1.7687e-07,0,6.8165e-05,-2.5717e-05,-5.509e+07,-60465,0,2.7633e+07,-7164.5,11647,12600,1,12600,1,0.00013711,9.7065e-08,0,0.00020443,2.5411e-05,5.5205e+07,33145,0,8.2564e+07,2722.7,12599,551.74,0,551.74,0,0.00015714,2.2022e-07,0,7.8408e-05,2.9471e-05,6.3496e+07,75161,0,3.1634e+07,6539.9,551.74,1
1904,0.98,12125,1,12125,1,8.5738e-07,2.0394e-09,0,0.00013762,-1.6303e-07,4163.4,691.48,0,5.5629e+07,-2370.7,12124,13103,1,13103,1,0.00026719,7.0577e-07,0,0.00026719,4.978e-05,1.07e+08,2.4063e+05,0,1.08e+08,14479,13102,12124,1,12124,1,8.5104e-07,-1.1368e-08,0,0.00013774,-1.643e-07,3.3665e+05,-3872.9,0,5.5768e+07,-2518.6,12123,11097,1,11097,1,-0.00026552,-4.6541e-07,0,8.9584e-06,-5.009e-05,-1.08e+08,-1.5889e+05,0,3.6438e+06,-20144,11096,11648,1,11648,1,-0.00013685,-1.6417e-07,0,6.8875e-05,-2.6007e-05,-5.5662e+07,-55966,0,2.792e+07,-7316.1,11647,12600,1,12600,1,0.0001386,1.3366e-07,0,0.0002066,2.5672e-05,5.5796e+07,45385,0,8.3437e+07,3165.3,12599,551.74,0,551.74,0,0.00015884,2.4185e-07,0,7.9254e-05,2.979e-05,6.4174e+07,82534,0,3.197e+07,6870.9,551.74,1
1904,0.99,12125,1,12125,1,8.6765e-07,-5.0462e-08,0,0.00013929,-1.6632e-07,-3782.6,-17212,0,5.6298e+07,-2998.5,12124,13103,1,13103,1,0.00027057,4.8389e-07,0,0.00027057,5.0408e-05,1.0831e+08,1.6572e+05,0,1.0935e+08,13024,13102,12124,1,12124,1,8.7027e-07,-3.7284e-08,0,0.00013945,-1.7586e-07,3.4318e+05,-12617,0,5.6454e+07,-2545.7,12123,11097,1,11097,1,-0.00026884,-4.2649e-07,0,9.0545e-06,-5.0725e-05,-1.0935e+08,-1.4556e+05,0,3.6843e+06,-23876,11096,11648,1,11648,1,-0.00013858,-1.8784e-07,0,6.9742e-05,-2.6318e-05,-5.6365e+07,-64028,0,2.8268e+07,-6110.6,11647,12600,1,12600,1,0.00014031,5.1423e-08,0,0.00020918,2.5994e-05,5.647e+07,17518,0,8.4483e+07,1240.6,12599,551.74,0,551.74,0,0.00016077,1.8893e-07,0,8.0223e-05,3.0151e-05,6.4946e+07,64474,0,3.2355e+07,6320.6,551.74,1
1904,1,12125,1,12125,1,8.8142e-07,-3.388e-08,0,0.00014028,-1.6524e-07,-8891.2,-11558,0,5.6692e+07,-1503.8,12124,13103,1,13103,1,0.00027251,5.5682e-07,0,0.00027251,5.0763e-05,1.0905e+08,1.9006e+05,0,1.1012e+08,14261,13102,12124,1,12124,1,8.6824e-07,-2.7136e-08,0,0.00014044,-1.7516e-07,3.4331e+05,-9185.5,0,5.6845e+07,-2628.8,12123,11097,1,11097,1,-0.00027073,-5.0915e-07,0,9.1305e-06,-5.1088e-05,-1.1012e+08,-1.7375e+05,0,3.7135e+06,-15895,11096,11648,1,11648,1,-0.00013953,-1.8915e-07,0,7.0224e-05,-2.6509e-05,-5.6754e+07,-64423,0,2.8462e+07,-6638.9,11647,12600,1,12600,1,0.00014131,9.4032e-08,0,0.00021063,2.6175e-05,5.6857e+07,31826,0,8.5058e+07,3417.9,12599,551.74,0,551.74,0,0.00016192,2.281e-07,0,8.0792e-05,3.0366e-05,6.5398e+07,77828,0,3.2578e+07,6267.4,551.74,1
1904,1.01,12125,1,12125,1,9.3501e-07,-7.999e-09,0,0.00014187,-1.7331e-07,2967,-2727.6,0,5.7326e+07,-713.73,12124,13103,1,13103,1,0.00027543,6.6061e-07,0,0.00027543,5.1295e-05,1.1019e+08,2.2548e+05,0,1.1127e+08,17944,13102,12124,1,12124,1,9.3091e-07,-1.5316e-08,0,0.00014198,-1.8167e-07,3.6798e+05,-5245.2,0,5.7467e+07,-211.78,12123,11097,1,11097,1,-0.00027356,-4.3563e-07,0,9.1876e-06,-5.1636e-05,-1.1127e+08,-1.4909e+05,0,3.7373e+06,-24478,11096,11648,1,11648,1,-0.00014103,-1.5841e-07,0,7.1003e-05,-2.682e-05,-5.7363e+07,-54054,0,2.8775e+07,-4647.8,11647,12600,1,12600,1,0.00014291,1.0749e-07,0,0.00021296,2.6461e-05,5.7492e+07,36649,0,8.5985e+07,3999.7,12599,551.74,0,551.74,0,0.00016375,2.2411e-07,0,8.1704e-05,3.0711e-05,6.613e+07,76464,0,3.2941e+07,7408.2,551.74,1
1904,1.02,12125,1,12125,1,9.6181e-07,-2.4684e-08,0,0.00014327,-1.819e-07,1328.8,-8410.7,0,5.7884e+07,-2261.1,12124,13103,1,13103,1,0.00027835,6.3541e-07,0,0.00027835,5.1832e-05,1.1131e+08,2.1747e+05,0,1.1244e+08,17035,13102,12124,1,12124,1,9.5673e-07,-1.8069e-08,0,0.00014341,-1.899e-07,3.7779e+05,-6189,0,5.8038e+07,-2037,12123,11097,1,11097,1,-0.00027643,-5.205e-07,0,9.2596e-06,-5.2183e-05,-1.1244e+08,-1.7784e+05,0,3.7661e+06,-26122,11096,11648,1,11648,1,-0.00014244,-1.861e-07,0,7.1714e-05,-2.7084e-05,-5.7934e+07,-63349,0,2.9062e+07,-7049.6,11647,12600,1,12600,1,0.00014437,1.1012e-07,0,0.00021512,2.6719e-05,5.8064e+07,37673,0,8.6838e+07,3628.7,12599,551.74,0,551.74,0,0.00016536,2.4095e-07,0,8.2511e-05,3.1014e-05,6.6772e+07,82211,0,3.326e+07,7583.3,551.74,1
1904,1.03,12125,1,12125,1,9.719e-07,-2.6102e-08,0,0.00014467,-1.8277e-07,-6420,-8893.8,0,5.8441e+07,-1886.9,12124,13103,1,13103,1,0.00028086,4.8511e-07,0,0.00028086,5.2292e-05,1.1228e+08,1.6614e+05,0,1.1343e+08,14216,13102,12124,1,12124,1,9.7275e-07,-1.5248e-08,0,0.0001448,-1.8861e-07,3.8427e+05,-5145,0,5.8597e+07,-1781.7,12123,11097,1,11097,1,-0.00027888,-4.4067e-07,0,9.3418e-06,-5.2654e-05,-1.1343e+08,-1.5081e+05,0,3.7998e+06,-17736,11096,11648,1,11648,1,-0.0001438,-1.4e-07,0,7.2407e-05,-2.7345e-05,-5.849e+07,-47292,0,2.934e+07,-6007,11647,12600,1,12600,1,0.00014578,6.4837e-08,0,0.00021718,2.6978e-05,5.8618e+07,22136,0,8.7665e+07,2540.8,12599,551.74,0,551.74,0,0.00016698,1.8046e-07,0,8.3322e-05,3.1314e-05,6.7415e+07,61575,0,3.358e+07,5600.5,551.74,1
1904,1.04,12125,1,12125,1,1.0156e-06,1.9226e-08,0,0.00014621,-1.8922e-07,-636.9,6559.8,0,5.9056e+07,-1206,12124,13103,1,13103,1,0.000284,5.5363e-07,0,0.000284,5.2848e-05,1.1351e+08,1.8918e+05,0,1.1466e+08,13283,13102,12124,1,12124,1,1.0159e-06,1.1459e-10,0,0.00014635,-1.9977e-07,4.018e+05,39.774,0,5.922e+07,-1369,12123,11097,1,11097,1,-0.0002819,-3.9869e-07,0,9.4098e-06,-5.3241e-05,-1.1466e+08,-1.3601e+05,0,3.8278e+06,-13447,11096,11648,1,11648,1,-0.00014531,-1.0787e-07,0,7.3184e-05,-2.7641e-05,-5.9105e+07,-36867,0,2.9654e+07,-5556.4,11647,12600,1,12600,1,0.00014737,1.3668e-07,0,0.00021952,2.7257e-05,5.9249e+07,46283,0,8.8598e+07,3398.9,12599,551.74,0,551.74,0,0.00016876,1.9732e-07,0,8.4209e-05,3.1647e-05,6.8123e+07,67313,0,3.3932e+07,5524.5,551.74,1
1904,1.05,12125,1,12125,1,1.057e-06,-1.2452e-08,0,0.00014779,-2.0068e-07,2110,-4244.9,0,5.9685e+07,-2819.4,12124,13103,1,13103,1,0.00028695,6.0062e-07,0,0.00028695,5.3408e-05,1.1464e+08,2.0522e+05,0,1.1585e+08,16306,13102,12124,1,12124,1,1.0541e-06,-1.9117e-08,0,0.0001479,-2.0884e-07,4.1599e+05,-6495.7,0,5.9839e+07,-2089.5,12123,11097,1,11097,1,-0.00028483,-3.8399e-07,0,9.4844e-06,-5.3796e-05,-1.1585e+08,-1.314e+05,0,3.8586e+06,-23010,11096,11648,1,11648,1,-0.00014683,-1.4974e-07,0,7.3961e-05,-2.7942e-05,-5.9721e+07,-51143,0,2.9964e+07,-6601.8,11647,12600,1,12600,1,0.00014896,8.3683e-08,0,0.00022185,2.7548e-05,5.9867e+07,28470,0,8.9518e+07,1577.7,12599,551.74,0,551.74,0,0.00017058,2.0247e-07,0,8.5119e-05,3.1991e-05,6.8848e+07,69060,0,3.4292e+07,6853.7,551.74,1
1904,1.06,12125,1,12125,1,1.0861e-06,4.7218e-08,0,0.00014875,-2.0421e-07,2162.6,16098,0,6.0062e+07,-2051,12124,13103,1,13103,1,0.00028913,6.3089e-07,0,0.00028913,5.3794e-05,1.1547e+08,2.1591e+05,0,1.1671e+08,15354,13102,12124,1,12124,1,1.0875e-06,1.2312e-08,0,0.00014894,-2.0619e-07,4.2971e+05,4168.1,0,6.0253e+07,-1518.8,12123,11097,1,11097,1,-0.00028693,-3.6992e-07,0,9.522e-06,-5.4205e-05,-1.1671e+08,-1.2617e+05,0,3.8732e+06,-23959,11096,11648,1,11648,1,-0.00014783,-7.2174e-08,0,7.4486e-05,-2.8152e-05,-6.0129e+07,-24721,0,3.0176e+07,-6656.2,11647,12600,1,12600,1,0.00015003,1.5821e-07,0,0.00022341,2.7732e-05,6.0286e+07,53922,0,9.013e+07,3345.8,12599,551.74,0,551.74,0,0.00017169,1.9727e-07,0,8.567e-05,3.2198e-05,6.9283e+07,67288,0,3.4506e+07,7072.1,551.74,1
1904,1.07,12125,1,12125,1,1.1021e-06,-3.2222e-08,0,0.00015034,-2.0617e-07,-2384.6,-10979,0,6.0699e+07,-1666.5,12124,13103,1,13103,1,0.00029212,5.1622e-07,0,0.00029212,5.4357e-05,1.1663e+08,1.7679e+05,0,1.1791e+08,10996,13102,12124,1,12124,1,1.0942e-06,-1.2402e-08,0,0.00015049,-2.2103e-07,4.3237e+05,-4197.3,0,6.0874e+07,-1725.3,12123,11097,1,11097,1,-0.0002899,-5.1732e-07,0,9.6183e-06,-5.4763e-05,-1.1791e+08,-1.7644e+05,0,3.9124e+06,-17441,11096,11648,1,11648,1,-0.00014937,-1.7343e-07,0,7.5263e-05,-2.8433e-05,-6.0753e+07,-59043,0,3.0487e+07,-6628.1,11647,12600,1,12600,1,0.0001516,9.3738e-08,0,0.00022573,2.803e-05,6.0902e+07,32107,0,9.1058e+07,3459.9,12599,551.74,0,551.74,0,0.00017352,2.1207e-07,0,8.6587e-05,3.2541e-05,7.0016e+07,72321,0,3.4871e+07,5895.9,551.74,1
1904,1.08,12125,1,12125,1,1.1526e-06,1.783e-08,0,0.00015125,-2.1429e-07,5975.4,6072.5,0,6.1056e+07,-1147,12124,13103,1,13103,1,0.00029382,7.9377e-07,0,0.00029382,5.4663e-05,1.1725e+08,2.7163e+05,0,1.186e+08,15872,13102,12124,1,12124,1,1.149e-06,-5.0675e-09,0,0.00015138,-2.2055e-07,4.5406e+05,-1710.2,0,6.1229e+07,-738.8,12123,11097,1,11097,1,-0.00029158,-5.3287e-07,0,9.6341e-06,-5.5083e-05,-1.186e+08,-1.8172e+05,0,3.9187e+06,-18466,11096,11648,1,11648,1,-0.00015023,-1.7491e-07,0,7.5712e-05,-2.8626e-05,-6.1102e+07,-59745,0,3.0667e+07,-7230.4,11647,12600,1,12600,1,0.00015254,1.7801e-07,0,0.00022708,2.8188e-05,6.1265e+07,60914,0,9.1575e+07,5224.8,12599,551.74,0,551.74,0,0.00017457,2.8139e-07,0,8.7107e-05,3.2742e-05,7.0427e+07,95949,0,3.5073e+07,7967.8,551.74,1
1904,1.09,12125,1,12125,1,1.1612e-06,-3.3295e-08,0,0.0001529,-2.1273e-07,-1776.3,-11345,0,6.1716e+07,128.77,12124,13103,1,13103,1,0.00029727,6.8581e-07,0,0.00029727,5.5303e-05,1.186e+08,2.3487e+05,0,1.1996e+08,19438,13102,12124,1,12124,1,1.1515e-06,-2.6655e-08,0,0.00015307,-2.0991e-07,4.5583e+05,-9008.9,0,6.1904e+07,-265.24,12123,11097,1,11097,1,-0.00029492,-5.4662e-07,0,9.7453e-06,-5.5728e-05,-1.1996e+08,-1.864e+05,0,3.9641e+06,-15358,11096,11648,1,11648,1,-0.0001519,-2.1748e-07,0,7.6557e-05,-2.8927e-05,-6.1781e+07,-73973,0,3.1006e+07,-5028.8,11647,12600,1,12600,1,0.00015422,1.1086e-07,0,0.0002296,2.8506e-05,6.1929e+07,37681,0,9.259e+07,4699.5,12599,551.74,0,551.74,0,0.00017648,2.5995e-07,0,8.806e-05,3.3097e-05,7.1188e+07,88632,0,3.5452e+07,6775.9,551.74,1
1904,1.1,12125,1,12125,1,1.2108e-06,-7.0572e-08,0,0.00015456,-2.2714e-07,2672.5,-24040,0,6.2375e+07,-2079.2,12124,13103,1,13103,1,0.00030057,5.7038e-07,0,0.00030057,5.5896e-05,1.1986e+08,1.9518e+05,0,1.2125e+08,19368,13102,12124,1,12124,1,1.2015e-06,-5.4431e-08,0,0.00015475,-2.3776e-07,4.7437e+05,-18577,0,6.2578e+07,-1229.4,12123,11097,1,11097,1,-0.00029811,-5.1025e-07,0,9.817e-06,-5.6347e-05,-1.2125e+08,-1.7398e+05,0,3.9937e+06,-28565,11096,11648,1,11648,1,-0.00015352,-2.3165e-07,0,7.7381e-05,-2.9249e-05,-6.2444e+07,-79169,0,3.1338e+07,-6467,11647,12600,1,12600,1,0.00015595,4.878e-08,0,0.00023211,2.8804e-05,6.2605e+07,16484,0,9.3593e+07,3446.8,12599,551.74,0,551.74,0,0.00017839,2.2063e-07,0,8.9016e-05,3.3456e-05,7.1947e+07,75235,0,3.5829e+07,7935.9,551.74,1
1904,1.11,12125,1,12125,1,1.2451e-06,-5.393e-08,0,0.00015634,-2.3276e-07,-11.217,-18372,0,6.3084e+07,-1812.9,12124,13103,1,13103,1,0.00030393,4.8689e-07,0,0.00030393,5.6519e-05,1.2115e+08,1.6675e+05,0,1.226e+08,12097,13102,12124,1,12124,1,1.2406e-06,-3.5815e-08,0,0.00015651,-2.3737e-07,4.9025e+05,-12195,0,6.328e+07,-1453.9,12123,11097,1,11097,1,-0.00030142,-4.3763e-07,0,9.9058e-06,-5.6976e-05,-1.226e+08,-1.4921e+05,0,4.0297e+06,-14140,11096,11648,1,11648,1,-0.00015525,-1.9805e-07,0,7.8273e-05,-2.9585e-05,-6.3147e+07,-67606,0,3.1696e+07,-6138.7,11647,12600,1,12600,1,0.00015775,5.6313e-08,0,0.00023477,2.9121e-05,6.3309e+07,19285,0,9.4638e+07,1867.9,12599,551.74,0,551.74,0,0.00018045,1.988e-07,0,9.0049e-05,3.3839e-05,7.2765e+07,67771,0,3.6236e+07,5332,551.74,1
1904,1.12,12125,1,12125,1,1.2823e-06,-5.1011e-08,0,0.00015802,-2.3757e-07,-1633.1,-17375,0,6.3748e+07,-969.19,12124,13103,1,13103,1,0.00030707,4.5527e-07,0,0.00030707,5.7086e-05,1.2235e+08,1.5524e+05,0,1.2383e+08,25541,13102,12124,1,12124,1,1.2748e-06,-4.1619e-08,0,0.00015817,-2.3759e-07,5.0386e+05,-14222,0,6.3945e+07,-997.55,12123,11097,1,11097,1,-0.00030445,-3.7051e-07,0,9.9863e-06,-5.7564e-05,-1.2383e+08,-1.263e+05,0,4.0626e+06,-15258,11096,11648,1,11648,1,-0.00015687,-1.7028e-07,0,7.9086e-05,-2.9904e-05,-6.3805e+07,-57884,0,3.2023e+07,-5203.2,11647,12600,1,12600,1,0.00015945,3.5758e-08,0,0.00023724,2.9425e-05,6.3972e+07,12153,0,9.5625e+07,2289.1,12599,551.74,0,551.74,0,0.00018238,1.6677e-07,0,9.1014e-05,3.4202e-05,7.353e+07,56854,0,3.6615e+07,6886,551.74,1
1904,1.13,12125,1,12125,1,1.3387e-06,-2.4523e-08,0,0.00015959,-2.4953e-07,4288.5,-8347.5,0,6.4371e+07,-1622.6,12124,13103,1,13103,1,0.00031002,4.7162e-07,0,0.00031002,5.7624e-05,1.2347e+08,1.6085e+05,0,1.25e+08,17596,13102,12124,1,12124,1,1.3372e-06,-1.9245e-08,0,0.00015971,-2.5301e-07,5.2827e+05,-6498.9,0,6.4556e+07,-1481.7,12123,11097,1,11097,1,-0.00030732,-3.7497e-07,0,1.0047e-05,-5.8118e-05,-1.25e+08,-1.2781e+05,0,4.0872e+06,-15135,11096,11648,1,11648,1,-0.00015836,-1.5221e-07,0,7.9871e-05,-3.0199e-05,-6.441e+07,-51697,0,3.2336e+07,-5888.9,11647,12600,1,12600,1,0.00016104,7.4478e-08,0,0.00023956,2.9704e-05,6.4593e+07,25472,0,9.6532e+07,2105.4,12599,551.74,0,551.74,0,0.0001842,1.8087e-07,0,9.1921e-05,3.4542e-05,7.4248e+07,61652,0,3.6972e+07,5641.3,551.74,1
1904,1.14,12125,1,12125,1,1.3679e-06,-2.5469e-08,0,0.00016061,-2.5172e-07,2168.4,-8682.8,0,6.4771e+07,-303.85,12124,13103,1,13103,1,0.00031214,5.8054e-07,0,0.00031214,5.801e-05,1.2426e+08,1.9758e+05,0,1.2584e+08,17134,13102,12124,1,12124,1,1.3571e-06,-2.3718e-08,0,0.00016074,-2.5074e-07,5.3682e+05,-8042.6,0,6.4968e+07,35.801,12123,11097,1,11097,1,-0.00030938,-4.1583e-07,0,1.0088e-05,-5.8515e-05,-1.2584e+08,-1.4172e+05,0,4.1033e+06,-19890,11096,11648,1,11648,1,-0.00015937,-1.7193e-07,0,8.0386e-05,-3.0399e-05,-6.4819e+07,-58781,0,3.2542e+07,-4714.8,11647,12600,1,12600,1,0.00016211,8.1852e-08,0,0.00024111,2.9901e-05,6.5002e+07,27810,0,9.7141e+07,4109.6,12599,551.74,0,551.74,0,0.00018537,2.0613e-07,0,9.2506e-05,3.4763e-05,7.4707e+07,70240,0,3.7198e+07,6214.6,551.74,1
1904,1.15,12125,1,12125,1,1.3931e-06,-2.0312e-08,0,0.00016202,-2.6093e-07,-759.16,-6913.2,0,6.5332e+07,-2245.4,12124,13103,1,13103,1,0.00031485,5.2444e-07,0,0.00031485,5.8508e-05,1.253e+08,1.788e+05,0,1.2692e+08,10028,13102,12124,1,12124,1,1.3882e-06,-1.4295e-08,0,0.00016214,-2.652e-07,5.483e+05,-4830.5,0,6.5524e+07,-1412.8,12123,11097,1,11097,1,-0.00031204,-4.2424e-07,0,1.0166e-05,-5.9022e-05,-1.2692e+08,-1.4458e+05,0,4.1353e+06,-19403,11096,11648,1,11648,1,-0.00016073,-1.7053e-07,0,8.1083e-05,-3.0666e-05,-6.5374e+07,-57768,0,3.2822e+07,-6391.2,11647,12600,1,12600,1,0.00016353,1.0261e-07,0,0.0002432,3.0148e-05,6.5558e+07,34844,0,9.7968e+07,2152.6,12599,551.74,0,551.74,0,0.000187,2.1044e-07,0,9.3318e-05,3.5068e-05,7.5354e+07,71713,0,3.7519e+07,5969.9,551.74,1
1904,1.16,12125,1,12125,1,1.4372e-06,-3.0124e-09,0,0.00016309,-2.6346e-07,3953.9,-1031,0,6.5754e+07,117.05,12124,13103,1,13103,1,0.0003169,6.5512e-07,0,0.0003169,5.8879e-05,1.2609e+08,2.229e+05,0,1.2774e+08,15596,13102,12124,1,12124,1,1.4257e-06,-1.1166e-08,0,0.00016323,-2.6177e-07,5.6388e+05,-3763.4,0,6.5961e+07,249.89,12123,11097,1,11097,1,-0.00031404,-4.9026e-07,0,1.0199e-05,-5.9405e-05,-1.2774e+08,-1.6706e+05,0,4.1488e+06,-19880,11096,11648,1,11648,1,-0.00016175,-1.5891e-07,0,8.1608e-05,-3.0893e-05,-6.5788e+07,-53978,0,3.3032e+07,-4666.7,11647,12600,1,12600,1,0.00016466,1.2584e-07,0,0.0002448,3.0346e-05,6.5998e+07,42957,0,9.8607e+07,5169.2,12599,551.74,0,551.74,0,0.00018824,2.3341e-07,0,9.3935e-05,3.5302e-05,7.584e+07,79514,0,3.7759e+07,6642.1,551.74,1
1904,1.17,12125,1,12125,1,1.4505e-06,-5.4082e-09,0,0.00016447,-2.701e-07,-4419.9,-1831.2,0,6.6301e+07,-1689.2,12124,13103,1,13103,1,0.0003196,6.3341e-07,0,0.0003196,5.9375e-05,1.2711e+08,2.1694e+05,0,1.288e+08,14701,13102,12124,1,12124,1,1.4493e-06,-9.4089e-09,0,0.00016459,-2.7409e-07,5.7226e+05,-3196.4,0,6.65e+07,-1644.1,12123,11097,1,11097,1,-0.00031667,-4.6081e-07,0,1.0277e-05,-5.9911e-05,-1.288e+08,-1.5702e+05,0,4.1812e+06,-16203,11096,11648,1,11648,1,-0.00016312,-1.6501e-07,0,8.231e-05,-3.1141e-05,-6.6346e+07,-55963,0,3.3313e+07,-6061.8,11647,12600,1,12600,1,0.00016604,1.2417e-07,0,0.00024686,3.0602e-05,6.6531e+07,42325,0,9.9413e+07,2586.6,12599,551.74,0,551.74,0,0.00018983,2.2789e-07,0,9.4729e-05,3.5598e-05,7.647e+07,77660,0,3.8072e+07,6028.9,551.74,1
1904,1.18,12125,1,12125,1,1.4925e-06,4.3118e-10,0,0.00016617,-2.738e-07,-3187.5,139.44,0,6.6978e+07,-8.7185,12124,13103,1,13103,1,0.00032278,6.0442e-07,0,0.00032278,5.9961e-05,1.2832e+08,2.056e+05,0,1.3008e+08,16741,13102,12124,1,12124,1,1.4807e-06,-8.2045e-09,0,0.00016627,-2.7346e-07,5.8524e+05,-2770.5,0,6.7176e+07,188.42,12123,11097,1,11097,1,-0.0003198,-4.172e-07,0,1.0364e-05,-6.0509e-05,-1.3008e+08,-1.4214e+05,0,4.2159e+06,-18810,11096,11648,1,11648,1,-0.00016476,-1.3402e-07,0,8.314e-05,-3.1472e-05,-6.7014e+07,-45414,0,3.3647e+07,-4431.2,11647,12600,1,12600,1,0.00016777,1.1026e-07,0,0.00024939,3.0908e-05,6.7211e+07,37243,0,1.0042e+08,4446.4,12599,551.74,0,551.74,0,0.0001918,2.0568e-07,0,9.5712e-05,3.5967e-05,7.725e+07,70055,0,3.846e+07,6150.1,551.74,1
1904,1.19,12125,1,12125,1,1.5344e-06,5.7091e-09,0,0.00016799,-2.8473e-07,-6149.6,1956.1,0,6.7698e+07,-1386.5,12124,13103,1,13103,1,0.0003263,4.9328e-07,0,0.0003263,6.0608e-05,1.2967e+08,1.6877e+05,0,1.3149e+08,13788,13102,12124,1,12124,1,1.529e-06,-4.9682e-09,0,0.0001681,-2.8966e-07,6.0346e+05,-1680.8,0,6.7905e+07,-1529.6,12123,11097,1,11097,1,-0.00032328,-3.3752e-07,0,1.0457e-05,-6.1165e-05,-1.3149e+08,-1.1498e+05,0,4.2537e+06,-13853,11096,11648,1,11648,1,-0.00016654,-9.8377e-08,0,8.4057e-05,-3.1819e-05,-6.7739e+07,-33612,0,3.4014e+07,-5348.9,11647,12600,1,12600,1,0.00016963,9.4406e-08,0,0.00025214,3.1238e-05,6.7935e+07,31999,0,1.015e+08,2111,12599,551.74,0,551.74,0,0.0001939,1.6534e-07,0,9.6763e-05,3.6358e-05,7.8079e+07,56338,0,3.8872e+07,5049.9,551.74,1
1904,1.2,12125,1,12125,1,1.5886e-06,-2.1317e-08,0,0.00016931,-2.8649e-07,-1929.4,-7251.5,0,6.8216e+07,2071.4,12124,13103,1,13103,1,0.00032892,5.2406e-07,0,0.00032892,6.1077e-05,1.3064e+08,1.7949e+05,0,1.3249e+08,22195,13102,12124,1,12124,1,1.5796e-06,-2.2861e-08,0,0.00016942,-2.7871e-07,6.2529e+05,-7781.8,0,6.8426e+07,1007.1,12123,11097,1,11097,1,-0.00032573,-3.8677e-07,0,1.0494e-05,-6.166e-05,-1.3249e+08,-1.3174e+05,0,4.2682e+06,-10160,11096,11648,1,11648,1,-0.00016782,-1.4153e-07,0,8.4712e-05,-3.2066e-05,-6.8257e+07,-48322,0,3.4276e+07,-2565.6,11647,12600,1,12600,1,0.000171,6.7058e-08,0,0.00025411,3.1484e-05,6.8461e+07,22675,0,1.0227e+08,4780.5,12599,551.74,0,551.74,0,0.00019542,1.8227e-07,0,9.7523e-05,3.6646e-05,7.8676e+07,62086,0,3.9167e+07,6478.4,551.74,1
1904,1.21,12125,1,12125,1,1.6344e-06,-3.1435e-08,0,0.00017075,-3.038e-07,-609.74,-10695,0,6.8787e+07,-1663.9,12124,13103,1,13103,1,0.00033191,4.3323e-07,0,0.00033191,6.1619e-05,1.3178e+08,1.4731e+05,0,1.3366e+08,13848,13102,12124,1,12124,1,1.633e-06,-2.1671e-08,0,0.00017088,-3.0555e-07,6.4499e+05,-7373.8,0,6.9008e+07,-1032.3,12123,11097,1,11097,1,-0.00032862,-3.7113e-07,0,1.0543e-05,-6.2222e-05,-1.3366e+08,-1.264e+05,0,4.2887e+06,-15651,11096,11648,1,11648,1,-0.00016923,-1.5501e-07,0,8.5454e-05,-3.235e-05,-6.8832e+07,-52954,0,3.4572e+07,-5066.6,11647,12600,1,12600,1,0.00017252,6.5901e-08,0,0.00025632,3.1741e-05,6.9048e+07,22440,0,1.0314e+08,2221.3,12599,551.74,0,551.74,0,0.00019709,1.7455e-07,0,9.8357e-05,3.6957e-05,7.9334e+07,59443,0,3.9493e+07,5473.7,551.74,1
1904,1.22,12125,1,12125,1,1.6635e-06,-3.7096e-08,0,0.00017168,-3.0312e-07,-3225.5,-12607,0,6.9147e+07,858.22,12124,13103,1,13103,1,0.00033382,5.9749e-07,0,0.00033382,6.1964e-05,1.3247e+08,2.0464e+05,0,1.3441e+08,21233,13102,12124,1,12124,1,1.6638e-06,-3.0645e-08,0,0.00017183,-3.0273e-07,6.5723e+05,-10380,0,6.9384e+07,803.34,12123,11097,1,11097,1,-0.00033046,-4.6957e-07,0,1.0584e-05,-6.2577e-05,-1.3441e+08,-1.5991e+05,0,4.3055e+06,-15740,11096,11648,1,11648,1,-0.00017016,-1.79e-07,0,8.5945e-05,-3.2533e-05,-6.9212e+07,-60408,0,3.4768e+07,-3800.3,11647,12600,1,12600,1,0.0001735,6.3123e-08,0,0.00025773,3.1924e-05,6.942e+07,21525,0,1.0369e+08,5477.6,12599,551.74,0,551.74,0,0.00019815,2.0778e-07,0,9.8884e-05,3.7159e-05,7.9747e+07,70748,0,3.9696e+07,6926.8,551.74,1
1904,1.23,12125,1,12125,1,1.6987e-06,-8.876e-09,0,0.00017309,-3.1304e-07,-3199.1,-3013.2,0,6.9707e+07,-605.04,12124,13103,1,13103,1,0.0003365,6.1505e-07,0,0.0003365,6.2451e-05,1.335e+08,2.1041e+05,0,1.3547e+08,13949,13102,12124,1,12124,1,1.6911e-06,-9.7055e-09,0,0.00017323,-3.1387e-07,6.681e+05,-3259.3,0,6.9939e+07,-457.76,12123,11097,1,11097,1,-0.00033307,-4.843e-07,0,1.0649e-05,-6.3079e-05,-1.3547e+08,-1.6491e+05,0,4.3319e+06,-18940,11096,11648,1,11648,1,-0.00017151,-1.5338e-07,0,8.6628e-05,-3.2805e-05,-6.9757e+07,-51862,0,3.5041e+07,-5481,11647,12600,1,12600,1,0.00017493,1.1097e-07,0,0.00025982,3.2177e-05,6.9977e+07,37886,0,1.0451e+08,4691.9,12599,551.74,0,551.74,0,0.00019978,2.2223e-07,0,9.9696e-05,3.7464e-05,8.0392e+07,75681,0,4.0016e+07,6581,551.74,1
1904,1.24,12125,1,12125,1,1.7248e-06,-1.4175e-08,0,0.00017471,-3.1728e-07,-10386,-4827.7,0,7.0347e+07,-408.97,12124,13103,1,13103,1,0.00033951,5.5585e-07,0,0.00033951,6.3008e-05,1.3464e+08,1.8893e+05,0,1.3668e+08,15350,13102,12124,1,12124,1,1.716e-06,-1.3377e-08,0,0.00017481,-3.1787e-07,6.7775e+05,-4581.7,0,7.0571e+07,-343.28,12123,11097,1,11097,1,-0.00033603,-4.2562e-07,0,1.0741e-05,-6.3642e-05,-1.3668e+08,-1.4491e+05,0,4.3686e+06,-18326,11096,11648,1,11648,1,-0.00017307,-1.4515e-07,0,8.7412e-05,-3.3111e-05,-7.0394e+07,-48954,0,3.5355e+07,-4205.9,11647,12600,1,12600,1,0.00017654,9.0998e-08,0,0.00026221,3.247e-05,7.0604e+07,30658,0,1.0545e+08,4076.2,12599,551.74,0,551.74,0,0.00020165,1.9704e-07,0,0.00010063,3.7813e-05,8.113e+07,67070,0,4.0383e+07,5701.6,551.74,1
1904,1.25,12125,1,12125,1,1.7824e-06,-6.0596e-09,0,0.00017603,-3.2868e-07,-6133.3,-2062.1,0,7.0866e+07,-738.19,12124,13103,1,13103,1,0.0003422,6.4329e-07,0,0.0003422,6.3503e-05,1.3565e+08,2.1909e+05,0,1.3778e+08,21045,13102,12124,1,12124,1,1.7707e-06,-1.5246e-08,0,0.00017614,-3.3203e-07,6.9945e+05,-5119.9,0,7.1102e+07,-842.48,12123,11097,1,11097,1,-0.00033873,-4.6135e-07,0,1.0775e-05,-6.4143e-05,-1.3778e+08,-1.5707e+05,0,4.3827e+06,-19395,11096,11648,1,11648,1,-0.00017435,-1.6512e-07,0,8.8092e-05,-3.3379e-05,-7.0915e+07,-55994,0,3.5627e+07,-5906.3,11647,12600,1,12600,1,0.00017793,1.1883e-07,0,0.00026421,3.2714e-05,7.114e+07,40235,0,1.0624e+08,3710.5,12599,551.74,0,551.74,0,0.00020317,2.2942e-07,0,0.00010139,3.81e-05,8.1726e+07,78089,0,4.0677e+07,7230,551.74,1
1904,1.26,12125,1,12125,1,1.8519e-06,-4.8483e-08,0,0.00017788,-3.4009e-07,3140.2,-16500,0,7.1599e+07,-140.14,12124,13103,1,13103,1,0.00034593,4.817e-07,0,0.00034593,6.4168e-05,1.3706e+08,1.6368e+05,0,1.392e+08,16129,13102,12124,1,12124,1,1.8449e-06,-3.8366e-08,0,0.00017803,-3.4172e-07,7.291e+05,-12905,0,7.185e+07,115.03,12123,11097,1,11097,1,-0.00034222,-3.8056e-07,0,1.0838e-05,-6.4846e-05,-1.392e+08,-1.2954e+05,0,4.4078e+06,-22000,11096,11648,1,11648,1,-0.00017617,-1.6927e-07,0,8.9019e-05,-3.3726e-05,-7.1654e+07,-57399,0,3.5999e+07,-3870.6,11647,12600,1,12600,1,0.00017988,3.8453e-08,0,0.00026705,3.3045e-05,7.1897e+07,13064,0,1.0736e+08,3604.9,12599,551.74,0,551.74,0,0.00020531,1.7184e-07,0,0.00010246,3.8499e-05,8.2572e+07,58486,0,4.1098e+07,5909.9,551.74,1
1904,1.27,12125,1,12125,1,1.9049e-06,-4.0741e-08,0,0.00017914,-3.5245e-07,2976.8,-13858,0,7.2092e+07,-1249.4,12124,13103,1,13103,1,0.00034846,4.7712e-07,0,0.00034846,6.4616e-05,1.3799e+08,1.6247e+05,0,1.4017e+08,15952,13102,12124,1,12124,1,1.8899e-06,-2.3601e-08,0,0.0001793,-3.5904e-07,7.4653e+05,-7988.6,0,7.2352e+07,-1226.8,12123,11097,1,11097,1,-0.00034461,-4.2558e-07,0,1.0878e-05,-6.532e-05,-1.4017e+08,-1.4485e+05,0,4.4245e+06,-19858,11096,11648,1,11648,1,-0.00017737,-1.6662e-07,0,8.965e-05,-3.3977e-05,-7.2142e+07,-56678,0,3.6249e+07,-5232.2,11647,12600,1,12600,1,0.0001812,6.0357e-08,0,0.00026893,3.327e-05,7.2398e+07,20506,0,1.0809e+08,2631.8,12599,551.74,0,551.74,0,0.00020677,1.845e-07,0,0.00010319,3.8772e-05,8.3139e+07,62789,0,4.1377e+07,5994.4,551.74,1
1904,1.28,12125,1,12125,1,1.9459e-06,-2.7378e-08,0,0.00018059,-3.5819e-07,2289.6,-9311.5,0,7.2665e+07,-503.96,12124,13103,1,13103,1,0.00035119,5.2914e-07,0,0.00035119,6.5117e-05,1.3901e+08,1.7975e+05,0,1.4125e+08,14857,13102,12124,1,12124,1,1.9327e-06,-2.434e-08,0,0.00018073,-3.5869e-07,7.6325e+05,-8224.9,0,7.292e+07,-28.775,12123,11097,1,11097,1,-0.00034727,-3.7848e-07,0,1.0944e-05,-6.5833e-05,-1.4125e+08,-1.288e+05,0,4.4517e+06,-19178,11096,11648,1,11648,1,-0.00017877,-1.546e-07,0,9.0365e-05,-3.4251e-05,-7.2711e+07,-52511,0,3.6534e+07,-4403.8,11647,12600,1,12600,1,0.00018267,6.2067e-08,0,0.00027108,3.3533e-05,7.2966e+07,20867,0,1.0894e+08,3798.2,12599,551.74,0,551.74,0,0.00020845,1.8591e-07,0,0.00010403,3.9087e-05,8.3799e+07,63260,0,4.1705e+07,5602.9,551.74,1
1904,1.29,12125,1,12125,1,1.9887e-06,-3.1628e-08,0,0.00018186,-3.7123e-07,339.17,-10743,0,7.3161e+07,-2688,12124,13103,1,13103,1,0.00035378,5.8101e-07,0,0.00035378,6.5585e-05,1.3998e+08,1.9734e+05,0,1.4227e+08,10116,13102,12124,1,12124,1,1.9836e-06,-2.4516e-08,0,0.00018201,-3.7742e-07,7.828e+05,-8189,0,7.3425e+07,-1562.1,12123,11097,1,11097,1,-0.00034977,-4.5553e-07,0,1.0982e-05,-6.6318e-05,-1.4227e+08,-1.5501e+05,0,4.467e+06,-24224,11096,11648,1,11648,1,-0.00017999,-1.81e-07,0,9.1011e-05,-3.45e-05,-7.321e+07,-61298,0,3.6791e+07,-6485.8,11647,12600,1,12600,1,0.000184,7.9255e-08,0,0.000273,3.3763e-05,7.3474e+07,26933,0,1.0969e+08,2181.8,12599,551.74,0,551.74,0,0.00020991,2.1518e-07,0,0.00010476,3.9361e-05,8.437e+07,73228,0,4.1987e+07,6548.4,551.74,1
1904,1.3,12125,1,12125,1,2.0463e-06,-3.5345e-08,0,0.00018339,-3.7711e-07,5706.4,-12018,0,7.3765e+07,-707.37,12124,13103,1,13103,1,0.00035671,5.0582e-07,0,0.00035671,6.6115e-05,1.4108e+08,1.7178e+05,0,1.4342e+08,14239,13102,12124,1,12124,1,2.0346e-06,-2.9437e-08,0,0.00018353,-3.7785e-07,8.0333e+05,-9990.8,0,7.4031e+07,-107.94,12123,11097,1,11097,1,-0.0003526,-3.8701e-07,0,1.1043e-05,-6.6866e-05,-1.4342e+08,-1.3168e+05,0,4.4922e+06,-19171,11096,11648,1,11648,1,-0.00018147,-1.6069e-07,0,9.1768e-05,-3.4793e-05,-7.3811e+07,-54545,0,3.7094e+07,-4528.8,11647,12600,1,12600,1,0.00018557,5.7023e-08,0,0.00027528,3.404e-05,7.4083e+07,19395,0,1.1058e+08,3597.8,12599,551.74,0,551.74,0,0.00021167,1.8262e-07,0,0.00010564,3.9691e-05,8.5065e+07,62129,0,4.2332e+07,5548,551.74,1
1904,1.31,12125,1,12125,1,2.0952e-06,2.266e-09,0,0.0001846,-3.8143e-07,5990.5,771.5,0,7.4235e+07,1242.4,12124,13103,1,13103,1,0.00035907,7.1045e-07,0,0.00035907,6.6538e-05,1.4195e+08,2.4329e+05,0,1.4433e+08,18944,13102,12124,1,12124,1,2.0831e-06,-1.276e-08,0,0.00018472,-3.8184e-07,8.2395e+05,-4285.4,0,7.45e+07,697.88,12123,11097,1,11097,1,-0.00035485,-4.4627e-07,0,1.1076e-05,-6.7308e-05,-1.4433e+08,-1.5183e+05,0,4.5049e+06,-15739,11096,11648,1,11648,1,-0.00018261,-1.5732e-07,0,9.2375e-05,-3.5035e-05,-7.4272e+07,-53490,0,3.7335e+07,-3698.9,11647,12600,1,12600,1,0.00018682,1.1277e-07,0,0.00027707,3.426e-05,7.4555e+07,38252,0,1.1127e+08,5277,12599,551.74,0,551.74,0,0.00021306,2.3982e-07,0,0.00010633,3.9953e-05,8.5606e+07,81586,0,4.2598e+07,6486.8,551.74,1
1904,1.32,12125,1,12125,1,2.1416e-06,-4.7482e-08,0,0.00018629,-3.9501e-07,5214.4,-16139,0,7.4904e+07,-886.46,12124,13103,1,13103,1,0.00036255,5.1752e-07,0,0.00036255,6.7173e-05,1.4326e+08,1.757e+05,0,1.4571e+08,14536,13102,12124,1,12124,1,2.1282e-06,-3.1701e-08,0,0.00018646,-3.9581e-07,8.3998e+05,-10734,0,7.5194e+07,-607.12,12123,11097,1,11097,1,-0.00035824,-4.6306e-07,0,1.1155e-05,-6.796e-05,-1.4571e+08,-1.5751e+05,0,4.5379e+06,-19269,11096,11648,1,11648,1,-0.0001843,-1.8582e-07,0,9.3232e-05,-3.5364e-05,-7.4963e+07,-63262,0,3.7679e+07,-4786.8,11647,12600,1,12600,1,0.0001886,6.1047e-08,0,0.00027968,3.4572e-05,7.5247e+07,20357,0,1.1231e+08,3640.6,12599,551.74,0,551.74,0,0.00021501,2.0011e-07,0,0.00010731,4.0318e-05,8.6376e+07,68066,0,4.2981e+07,5675.3,551.74,1
1904,1.33,12125,1,12125,1,2.1841e-06,-6.3961e-09,0,0.00018768,-3.9842e-07,133.99,-2172,0,7.545e+07,928.8,12124,13103,1,13103,1,0.00036521,6.559e-07,0,0.00036521,6.7655e-05,1.4424e+08,2.2461e+05,0,1.4676e+08,16826,13102,12124,1,12124,1,2.169e-06,-1.2579e-08,0,0.00018783,-3.9621e-07,8.5724e+05,-4308.4,0,7.5733e+07,406.42,12123,11097,1,11097,1,-0.00036081,-4.5541e-07,0,1.1209e-05,-6.8458e-05,-1.4676e+08,-1.549e+05,0,4.5592e+06,-13402,11096,11648,1,11648,1,-0.00018562,-1.6936e-07,0,9.3924e-05,-3.5627e-05,-7.55e+07,-57344,0,3.7953e+07,-3929.2,11647,12600,1,12600,1,0.00019001,1.1221e-07,0,0.00028173,3.4824e-05,7.5784e+07,38033,0,1.131e+08,5054.4,12599,551.74,0,551.74,0,0.00021663,2.3698e-07,0,0.00010811,4.0622e-05,8.7004e+07,80604,0,4.3291e+07,6310.4,551.74,1
1904,1.34,12125,1,12125,1,2.235e-06,-1.2325e-08,0,0.0001889,-4.1512e-07,1070.8,-4182.6,0,7.5925e+07,-2149.6,12124,13103,1,13103,1,0.00036748,5.894e-07,0,0.00036748,6.806e-05,1.4507e+08,2.0004e+05,0,1.4764e+08,10064,13102,12124,1,12124,1,2.2224e-06,-1.0447e-08,0,0.00018903,-4.2256e-07,8.7683e+05,-3570.4,0,7.6207e+07,-1204.6,12123,11097,1,11097,1,-0.00036297,-4.7091e-07,0,1.1251e-05,-6.8883e-05,-1.4764e+08,-1.6014e+05,0,4.5767e+06,-22766,11096,11648,1,11648,1,-0.00018677,-1.5896e-07,0,9.4513e-05,-3.5872e-05,-7.5968e+07,-53899,0,3.8187e+07,-6290.6,11647,12600,1,12600,1,0.00019126,1.0814e-07,0,0.00028351,3.5038e-05,7.6258e+07,36686,0,1.138e+08,3426.8,12599,551.74,0,551.74,0,0.00021803,2.1863e-07,0,0.00010881,4.0884e-05,8.7551e+07,74354,0,4.3561e+07,6946.3,551.74,1
1904,1.35,12125,1,12125,1,2.2847e-06,2.7144e-08,0,0.00019035,-4.2092e-07,1817.5,9224.6,0,7.6494e+07,-770.34,12124,13103,1,13103,1,0.00037044,6.0298e-07,0,0.00037044,6.86e-05,1.462e+08,2.0651e+05,0,1.4882e+08,17980,13102,12124,1,12124,1,2.2781e-06,4.4661e-09,0,0.0001905,-4.2921e-07,8.986e+05,1529.7,0,7.6795e+07,-557.91,12123,11097,1,11097,1,-0.00036588,-4.1622e-07,0,1.1303e-05,-6.9445e-05,-1.4882e+08,-1.4153e+05,0,4.5976e+06,-15298,11096,11648,1,11648,1,-0.00018822,-1.122e-07,0,9.526e-05,-3.6143e-05,-7.6553e+07,-37975,0,3.8485e+07,-4952.7,11647,12600,1,12600,1,0.00019278,1.5579e-07,0,0.00028577,3.532e-05,7.6851e+07,52830,0,1.1467e+08,3808.1,12599,551.74,0,551.74,0,0.0002197,2.1306e-07,0,0.00010965,4.1197e-05,8.8207e+07,72448,0,4.3887e+07,5981.5,551.74,1
1904,1.36,12125,1,12125,1,2.3228e-06,-2.8133e-08,0,0.00019174,-4.2835e-07,-3645.3,-9561.4,0,7.7038e+07,-973.52,12124,13103,1,13103,1,0.00037307,5.8046e-07,0,0.00037307,6.9077e-05,1.4716e+08,1.9695e+05,0,1.4984e+08,16439,13102,12124,1,12124,1,2.3144e-06,-2.1685e-08,0,0.00019187,-4.295e-07,9.1298e+05,-7387.3,0,7.7333e+07,-766.98,12123,11097,1,11097,1,-0.0003684,-4.6017e-07,0,1.1359e-05,-6.9931e-05,-1.4984e+08,-1.5646e+05,0,4.6205e+06,-22014,11096,11648,1,11648,1,-0.00018953,-1.6368e-07,0,9.5937e-05,-3.6416e-05,-7.7088e+07,-55111,0,3.8755e+07,-4883.6,11647,12600,1,12600,1,0.00019419,7.5529e-08,0,0.00028779,3.5552e-05,7.7384e+07,25747,0,1.1547e+08,3831.8,12599,551.74,0,551.74,0,0.00022131,2.0657e-07,0,0.00011045,4.1498e-05,8.8833e+07,70232,0,4.4196e+07,6379.8,551.74,1
1904,1.37,12125,1,12125,1,2.3977e-06,-1.0076e-08,0,0.00019357,-4.4082e-07,3184.3,-3420.7,0,7.776e+07,-420.8,12124,13103,1,13103,1,0.00037659,5.4296e-07,0,0.00037659,6.9711e-05,1.4847e+08,1.8596e+05,0,1.5122e+08,18190,13102,12124,1,12124,1,2.3907e-06,-1.2494e-08,0,0.00019367,-4.4304e-07,9.4284e+05,-4175.5,0,7.8047e+07,-731.61,12123,11097,1,11097,1,-0.00037178,-3.7649e-07,0,1.1417e-05,-7.0587e-05,-1.5122e+08,-1.2872e+05,0,4.6445e+06,-13576,11096,11648,1,11648,1,-0.00019126,-1.5031e-07,0,9.6845e-05,-3.6759e-05,-7.7791e+07,-50789,0,3.9117e+07,-3785.4,11647,12600,1,12600,1,0.00019607,1.0289e-07,0,0.0002905,3.5889e-05,7.8105e+07,34916,0,1.1652e+08,3559.4,12599,551.74,0,551.74,0,0.00022342,2.0116e-07,0,0.00011151,4.1893e-05,8.9664e+07,68394,0,4.4609e+07,5567.6,551.74,1
1904,1.38,12125,1,12125,1,2.4404e-06,-1.9168e-08,0,0.00019446,-4.528e-07,-2421.7,-6507,0,7.8099e+07,-2171.6,12124,13103,1,13103,1,0.00037841,6.1095e-07,0,0.00037841,7.0028e-05,1.491e+08,2.0723e+05,0,1.519e+08,11298,13102,12124,1,12124,1,2.4331e-06,-1.8612e-08,0,0.00019459,-4.5621e-07,9.5949e+05,-6245.8,0,7.8403e+07,-965.13,12123,11097,1,11097,1,-0.00037346,-4.8137e-07,0,1.143e-05,-7.0931e-05,-1.519e+08,-1.6362e+05,0,4.6495e+06,-25450,11096,11648,1,11648,1,-0.00019211,-1.6377e-07,0,9.7302e-05,-3.6948e-05,-7.8139e+07,-55556,0,3.9297e+07,-6052.9,11647,12600,1,12600,1,0.00019703,9.2504e-08,0,0.00029185,3.6039e-05,7.8459e+07,31420,0,1.1705e+08,3774.5,12599,551.74,0,551.74,0,0.00022445,2.1941e-07,0,0.00011202,4.2088e-05,9.0053e+07,74584,0,4.4799e+07,7546,551.74,1
1904,1.39,12125,1,12125,1,2.492e-06,4.8083e-08,0,0.00019621,-4.5747e-07,-644.71,16337,0,7.8792e+07,-175.01,12124,13103,1,13103,1,0.00038204,6.5232e-07,0,0.00038204,7.0723e-05,1.505e+08,2.2341e+05,0,1.534e+08,12226,13102,12124,1,12124,1,2.4917e-06,1.4794e-08,0,0.00019637,-4.5701e-07,9.828e+05,5067.1,0,7.9119e+07,-97.157,12123,11097,1,11097,1,-0.00037715,-3.9104e-07,0,1.1503e-05,-7.1606e-05,-1.534e+08,-1.3362e+05,0,4.679e+06,-16096,11096,11648,1,11648,1,-0.0001939,-9.7621e-08,0,9.8219e-05,-3.7283e-05,-7.8866e+07,-33258,0,3.9663e+07,-3829.6,11647,12600,1,12600,1,0.00019887,1.8976e-07,0,0.00029461,3.6377e-05,7.9178e+07,64464,0,1.1811e+08,4396.9,12599,551.74,0,551.74,0,0.00022647,2.251e-07,0,0.00011303,4.2465e-05,9.0852e+07,76541,0,4.5195e+07,5953.2,551.74,1
1904,1.4,12125,1,12125,1,2.5656e-06,1.6694e-08,0,0.0001973,-4.6964e-07,5868.6,5662.5,0,7.9211e+07,425.58,12124,13103,1,13103,1,0.00038406,6.7183e-07,0,0.00038406,7.1054e-05,1.512e+08,2.278e+05,0,1.5414e+08,14939,13102,12124,1,12124,1,2.562e-06,9.4524e-10,0,0.00019745,-4.666e-07,1.0106e+06,318.43,0,7.9536e+07,402.2,12123,11097,1,11097,1,-0.00037896,-5.0309e-07,0,1.1513e-05,-7.1986e-05,-1.5414e+08,-1.7096e+05,0,4.6832e+06,-17040,11096,11648,1,11648,1,-0.00019486,-1.3482e-07,0,9.8738e-05,-3.7511e-05,-7.9257e+07,-45419,0,3.9868e+07,-4661.9,11647,12600,1,12600,1,0.00020002,1.543e-07,0,0.00029616,3.6558e-05,7.9603e+07,52109,0,1.1872e+08,5956.3,12599,551.74,0,551.74,0,0.00022773,2.4014e-07,0,0.00011366,4.2703e-05,9.1333e+07,81600,0,4.5431e+07,6824.5,551.74,1
1904,1.41,12125,1,12125,1,2.5983e-06,5.7169e-08,0,0.0001989,-4.7699e-07,-2249.5,19417,0,7.9843e+07,-189.1,12124,13103,1,13103,1,0.0003874,6.375e-07,0,0.0003874,7.1684e-05,1.5246e+08,2.1833e+05,0,1.5549e+08,11254,13102,12124,1,12124,1,2.5993e-06,2.1366e-08,0,0.00019908,-4.7784e-07,1.025e+06,7318.3,0,8.0185e+07,46.135,12123,11097,1,11097,1,-0.00038227,-3.8183e-07,0,1.159e-05,-7.261e-05,-1.5549e+08,-1.3053e+05,0,4.7147e+06,-15856,11096,11648,1,11648,1,-0.00019649,-8.3075e-08,0,9.9567e-05,-3.781e-05,-7.9921e+07,-28454,0,4.0199e+07,-3914.8,11647,12600,1,12600,1,0.00020168,1.9697e-07,0,0.00029867,3.6862e-05,8.0246e+07,66763,0,1.1969e+08,4347.8,12599,551.74,0,551.74,0,0.00022958,2.1901e-07,0,0.00011458,4.3047e-05,9.2061e+07,74457,0,4.5793e+07,5742.8,551.74,1
1904,1.42,12125,1,12125,1,2.6764e-06,-3.3735e-08,0,0.0002004,-4.9351e-07,4442.4,-11454,0,8.0426e+07,-1081.9,12124,13103,1,13103,1,0.00039017,5.4798e-07,0,0.00039017,7.2149e-05,1.5347e+08,1.8575e+05,0,1.565e+08,15760,13102,12124,1,12124,1,2.6672e-06,-2.5037e-08,0,0.00020055,-4.9433e-07,1.0518e+06,-8524.2,0,8.0761e+07,-829.11,12123,11097,1,11097,1,-0.00038478,-4.4891e-07,0,1.1626e-05,-7.3135e-05,-1.565e+08,-1.5252e+05,0,4.7292e+06,-20960,11096,11648,1,11648,1,-0.00019785,-1.6631e-07,0,0.00010027,-3.8101e-05,-8.0472e+07,-56590,0,4.0478e+07,-5094,11647,12600,1,12600,1,0.00020322,6.6192e-08,0,0.0003008,3.7111e-05,8.0826e+07,22205,0,1.2054e+08,3398.9,12599,551.74,0,551.74,0,0.0002313,1.9837e-07,0,0.00011545,4.3372e-05,9.2731e+07,67395,0,4.6124e+07,6138.1,551.74,1
1904,1.43,12125,1,12125,1,2.722e-06,2.7765e-08,0,0.00020205,-4.997e-07,-2963.7,9431.2,0,8.1072e+07,-209.49,12124,13103,1,13103,1,0.00039332,5.6319e-07,0,0.00039332,7.275e-05,1.5464e+08,1.9288e+05,0,1.578e+08,10921,13102,12124,1,12124,1,2.7194e-06,7.1466e-09,0,0.00020217,-4.9897e-07,1.0722e+06,2430.6,0,8.1407e+07,-129.93,12123,11097,1,11097,1,-0.00038796,-3.7711e-07,0,1.1692e-05,-7.3719e-05,-1.578e+08,-1.2891e+05,0,4.7562e+06,-14489,11096,11648,1,11648,1,-0.00019947,-1.0404e-07,0,0.00010111,-3.841e-05,-8.1131e+07,-35414,0,4.0813e+07,-3515.9,11647,12600,1,12600,1,0.0002049,1.5138e-07,0,0.00030331,3.7418e-05,8.1468e+07,51687,0,1.2149e+08,4050.5,12599,551.74,0,551.74,0,0.00023321,2.0101e-07,0,0.0001164,4.3728e-05,9.3476e+07,68317,0,4.6493e+07,5331.2,551.74,1
1904,1.44,12125,1,12125,1,2.8042e-06,-3.405e-08,0,0.00020355,-5.1696e-07,4001.6,-11560,0,8.1657e+07,-1084.3,12124,13103,1,13103,1,0.00039638,4.937e-07,0,0.00039638,7.3263e-05,1.5574e+08,1.673e+05,0,1.5892e+08,14048,13102,12124,1,12124,1,2.7936e-06,-2.48e-08,0,0.00020371,-5.1816e-07,1.1016e+06,-8364.4,0,8.2006e+07,-741.28,12123,11097,1,11097,1,-0.00039071,-3.9564e-07,0,1.1724e-05,-7.4297e-05,-1.5892e+08,-1.3438e+05,0,4.7691e+06,-18874,11096,11648,1,11648,1,-0.00020087,-1.5821e-07,0,0.00010184,-3.8715e-05,-8.1702e+07,-53519,0,4.1103e+07,-4744.7,11647,12600,1,12600,1,0.0002065,6.0839e-08,0,0.00030553,3.7677e-05,8.2072e+07,20581,0,1.2238e+08,2936.8,12599,551.74,0,551.74,0,0.00023495,1.8053e-07,0,0.00011727,4.4053e-05,9.4148e+07,61319,0,4.6825e+07,5498.2,551.74,1
1904,1.45,12125,1,12125,1,2.8536e-06,3.6861e-08,0,0.00020503,-5.241e-07,-1863.3,12514,0,8.2229e+07,-313.57,12124,13103,1,13103,1,0.0003992,5.513e-07,0,0.0003992,7.3801e-05,1.5678e+08,1.8881e+05,0,1.6008e+08,10277,13102,12124,1,12124,1,2.8523e-06,1.079e-08,0,0.00020516,-5.2412e-07,1.1245e+06,3603.6,0,8.2583e+07,-246.7,12123,11097,1,11097,1,-0.00039357,-3.4411e-07,0,1.1775e-05,-7.4821e-05,-1.6008e+08,-1.1761e+05,0,4.7897e+06,-13633,11096,11648,1,11648,1,-0.00020232,-8.7443e-08,0,0.0001026,-3.8994e-05,-8.229e+07,-29627,0,4.1404e+07,-3473.5,11647,12600,1,12600,1,0.00020801,1.5639e-07,0,0.00030778,3.7952e-05,8.2648e+07,52871,0,1.2323e+08,3703.3,12599,551.74,0,551.74,0,0.00023665,1.9084e-07,0,0.00011812,4.4371e-05,9.4807e+07,64845,0,4.7151e+07,4998.2,551.74,1
1904,1.46,12125,1,12125,1,2.9315e-06,-1.547e-08,0,0.00020646,-5.4073e-07,4634.3,-5252.1,0,8.2789e+07,-1267.3,12124,13103,1,13103,1,0.00040194,5.2948e-07,0,0.00040194,7.4262e-05,1.5776e+08,1.7936e+05,0,1.6109e+08,14784,13102,12124,1,12124,1,2.9242e-06,-1.7065e-08,0,0.00020657,-5.4199e-07,1.1528e+06,-5671.2,0,8.3134e+07,-965.34,12123,11097,1,11097,1,-0.00039605,-3.6998e-07,0,1.1805e-05,-7.5339e-05,-1.6109e+08,-1.2563e+05,0,4.8022e+06,-19939,11096,11648,1,11648,1,-0.00020362,-1.3419e-07,0,0.00010328,-3.9285e-05,-8.282e+07,-45308,0,4.1674e+07,-4952.1,11647,12600,1,12600,1,0.0002095,7.1298e-08,0,0.00030984,3.8192e-05,8.3206e+07,24264,0,1.2404e+08,2709.5,12599,551.74,0,551.74,0,0.00023831,1.79e-07,0,0.00011895,4.4683e-05,9.5451e+07,60779,0,4.7469e+07,5644.2,551.74,1
1904,1.47,12125,1,12125,1,2.9706e-06,1.0324e-08,0,0.00020786,-5.4521e-07,-4978.2,3509.9,0,8.3333e+07,-190.78,12124,13103,1,13103,1,0.00040465,5.5335e-07,0,0.00040465,7.4772e-05,1.5873e+08,1.8951e+05,0,1.6218e+08,11682,13102,12124,1,12124,1,2.9662e-06,1.2729e-09,0,0.00020796,-5.445e-07,1.1691e+06,421.5,0,8.3677e+07,-542.88,12123,11097,1,11097,1,-0.00039874,-3.6598e-07,0,1.1858e-05,-7.5847e-05,-1.6218e+08,-1.2501e+05,0,4.8235e+06,-13805,11096,11648,1,11648,1,-0.00020499,-1.283e-07,0,0.000104,-3.9545e-05,-8.3378e+07,-43292,0,4.1957e+07,-3334.2,11647,12600,1,12600,1,0.00021093,1.3013e-07,0,0.00031196,3.8456e-05,8.3741e+07,44086,0,1.2484e+08,3846.4,12599,551.74,0,551.74,0,0.00023992,1.9951e-07,0,0.00011975,4.4985e-05,9.6077e+07,67771,0,4.7778e+07,5358.1,551.74,1
1904,1.48,12125,1,12125,1,3.0478e-06,-2.4383e-08,0,0.00020926,-5.6115e-07,1684.4,-8273.1,0,8.3875e+07,-900.69,12124,13103,1,13103,1,0.00040747,4.8979e-07,0,0.00040747,7.5252e-05,1.5976e+08,1.6586e+05,0,1.6324e+08,14231,13102,12124,1,12124,1,3.038e-06,-1.9964e-08,0,0.00020938,-5.6217e-07,1.1975e+06,-6727.5,0,8.4236e+07,-634.09,12123,11097,1,11097,1,-0.00040132,-3.7875e-07,0,1.1888e-05,-7.6374e-05,-1.6324e+08,-1.2857e+05,0,4.8358e+06,-18462,11096,11648,1,11648,1,-0.0002063,-1.3789e-07,0,0.00010468,-3.9824e-05,-8.3911e+07,-46955,0,4.2228e+07,-4442.3,11647,12600,1,12600,1,0.00021242,6.1037e-08,0,0.00031404,3.8696e-05,8.4307e+07,20502,0,1.2566e+08,2921.2,12599,551.74,0,551.74,0,0.00024153,1.728e-07,0,0.00012056,4.5287e-05,9.67e+07,58661,0,4.8086e+07,5359.2,551.74,1
1904,1.49,12125,1,12125,1,3.1021e-06,9.2452e-09,0,0.00021097,-5.6932e-07,-3943.8,3142.8,0,8.4545e+07,-189.52,12124,13103,1,13103,1,0.00041067,4.8592e-07,0,0.00041067,7.5859e-05,1.6095e+08,1.6642e+05,0,1.6454e+08,10413,13102,12124,1,12124,1,3.0985e-06,7.5491e-10,0,0.00021105,-5.6847e-07,1.221e+06,258.82,0,8.4899e+07,-496.05,12123,11097,1,11097,1,-0.00040454,-3.2402e-07,0,1.1949e-05,-7.6974e-05,-1.6454e+08,-1.1072e+05,0,4.8607e+06,-12535,11096,11648,1,11648,1,-0.00020796,-1.1148e-07,0,0.00010555,-4.0148e-05,-8.4586e+07,-37540,0,4.2572e+07,-3021.4,11647,12600,1,12600,1,0.00021416,1.1611e-07,0,0.00031661,3.9011e-05,8.4967e+07,38906,0,1.2664e+08,3450.3,12599,551.74,0,551.74,0,0.00024351,1.757e-07,0,0.00012155,4.5656e-05,9.7471e+07,59673,0,4.8468e+07,4822.1,551.74,1
1904,1.5,12125,1,12125,1,3.1934e-06,-3.0894e-08,0,0.00021227,-5.8784e-07,4847.9,-10480,0,8.5045e+07,-884.53,12124,13103,1,13103,1,0.00041349,4.6116e-07,0,0.00041349,7.6327e-05,1.6195e+08,1.5611e+05,0,1.6557e+08,12987,13102,12124,1,12124,1,3.1828e-06,-2.3087e-08,0,0.00021241,-5.8877e-07,1.2545e+06,-7792.6,0,8.5428e+07,-524.08,12123,11097,1,11097,1,-0.00040705,-3.6901e-07,0,1.196e-05,-7.7502e-05,-1.6557e+08,-1.2523e+05,0,4.8654e+06,-17643,11096,11648,1,11648,1,-0.00020919,-1.4371e-07,0,0.00010619,-4.0415e-05,-8.5086e+07,-48752,0,4.2828e+07,-4304.4,11647,12600,1,12600,1,0.00021559,5.6412e-08,0,0.00031858,3.9237e-05,8.5503e+07,19080,0,1.2742e+08,2744.2,12599,551.74,0,551.74,0,0.00024501,1.6723e-07,0,0.0001223,4.5938e-05,9.8047e+07,56757,0,4.8751e+07,5065.8,551.74,1
1904,1.51,12125,1,12125,1,3.2284e-06,-1.4862e-09,0,0.00021371,-5.9221e-07,-6841.3,-495.24,0,8.5606e+07,-84.415,12124,13103,1,13103,1,0.00041621,4.9796e-07,0,0.00041621,7.6825e-05,1.6293e+08,1.7054e+05,0,1.6664e+08,10831,13102,12124,1,12124,1,3.2231e-06,-3.9572e-09,0,0.00021382,-5.9102e-07,1.27e+06,-1338.3,0,8.5981e+07,-393.33,12123,11097,1,11097,1,-0.0004097,-3.5618e-07,0,1.2017e-05,-7.8012e-05,-1.6664e+08,-1.2157e+05,0,4.8884e+06,-12876,11096,11648,1,11648,1,-0.00021057,-1.303e-07,0,0.00010692,-4.0689e-05,-8.5645e+07,-44328,0,4.3112e+07,-3100.4,11647,12600,1,12600,1,0.00021705,1.1019e-07,0,0.0003207,3.9501e-05,8.6049e+07,37034,0,1.2823e+08,3657.1,12599,551.74,0,551.74,0,0.00024668,1.8574e-07,0,0.00012313,4.625e-05,9.8692e+07,63063,0,4.907e+07,5002.3,551.74,1
1904,1.52,12125,1,12125,1,3.3111e-06,-3.202e-08,0,0.00021481,-6.0762e-07,2125.4,-10862,0,8.6027e+07,-147.15,12124,13103,1,13103,1,0.00041865,4.931e-07,0,0.00041865,7.7246e-05,1.6379e+08,1.6687e+05,0,1.6756e+08,13455,13102,12124,1,12124,1,3.2987e-06,-1.9861e-08,0,0.00021497,-6.0805e-07,1.3e+06,-6565.2,0,8.6429e+07,-114.04,12123,11097,1,11097,1,-0.00041196,-4.3745e-07,0,1.202e-05,-7.8466e-05,-1.6756e+08,-1.4841e+05,0,4.8896e+06,-15601,11096,11648,1,11648,1,-0.00021162,-1.6442e-07,0,0.00010747,-4.0919e-05,-8.6075e+07,-55699,0,4.3332e+07,-4366,11647,12600,1,12600,1,0.00021827,7.3882e-08,0,0.00032242,3.9697e-05,8.6505e+07,25009,0,1.289e+08,4063.7,12599,551.74,0,551.74,0,0.00024794,1.9361e-07,0,0.00012376,4.6488e-05,9.9175e+07,65693,0,4.9308e+07,5499,551.74,1
1904,1.53,12125,1,12125,1,3.338e-06,5.0866e-08,0,0.00021626,-6.1157e-07,-11256,17246,0,8.6591e+07,196.3,12124,13103,1,13103,1,0.00042151,6.3815e-07,0,0.00042151,7.7813e-05,1.6487e+08,2.1855e+05,0,1.6878e+08,11975,13102,12124,1,12124,1,3.3386e-06,1.7865e-08,0,0.0002164,-6.0967e-07,1.315e+06,6113.5,0,8.7002e+07,291.56,12123,11097,1,11097,1,-0.00041495,-3.8301e-07,0,1.2083e-05,-7.8995e-05,-1.6878e+08,-1.3077e+05,0,4.9148e+06,-15486,11096,11648,1,11648,1,-0.0002131,-9.1101e-08,0,0.00010825,-4.1191e-05,-8.6676e+07,-30744,0,4.3639e+07,-3471.9,11647,12600,1,12600,1,0.00021975,1.8959e-07,0,0.00032468,3.9979e-05,8.707e+07,63862,0,1.2974e+08,4775.5,12599,551.74,0,551.74,0,0.00024961,2.1909e-07,0,0.0001246,4.6801e-05,9.9824e+07,74375,0,4.9628e+07,5806.8,551.74,1
1904,1.54,12125,1,12125,1,3.4402e-06,-2.867e-08,0,0.00021795,-6.3365e-07,1023.7,-9719.2,0,8.7249e+07,-1145.5,12124,13103,1,13103,1,0.0004247,5.0818e-07,0,0.0004247,7.8336e-05,1.6601e+08,1.7191e+05,0,1.6992e+08,14970,13102,12124,1,12124,1,3.4289e-06,-2.5412e-08,0,0.00021808,-6.3499e-07,1.3506e+06,-8551.7,0,8.7656e+07,-719.07,12123,11097,1,11097,1,-0.00041776,-3.7124e-07,0,1.2117e-05,-7.9601e-05,-1.6992e+08,-1.2592e+05,0,4.9293e+06,-19664,11096,11648,1,11648,1,-0.00021461,-1.4897e-07,0,0.00010903,-4.1525e-05,-8.7291e+07,-50509,0,4.395e+07,-4727,11647,12600,1,12600,1,0.00022151,5.9036e-08,0,0.00032709,4.0253e-05,8.7733e+07,20073,0,1.3071e+08,2634.3,12599,551.74,0,551.74,0,0.00025156,1.7673e-07,0,0.00012557,4.7166e-05,1.0058e+08,59952,0,5.0003e+07,5549.6,551.74,1
1904,1.55,12125,1,12125,1,3.5038e-06,5.3918e-09,0,0.0002193,-6.4287e-07,-4262.7,1835.8,0,8.7767e+07,-147.39,12124,13103,1,13103,1,0.00042725,5.3143e-07,0,0.00042725,7.8796e-05,1.6689e+08,1.82e+05,0,1.7091e+08,10791,13102,12124,1,12124,1,3.499e-06,-1.1917e-10,0,0.0002194,-6.4166e-07,1.378e+06,-39.731,0,8.8168e+07,-404.08,12123,11097,1,11097,1,-0.0004202,-3.677e-07,0,1.2141e-05,-8.0079e-05,-1.7091e+08,-1.2544e+05,0,4.9388e+06,-13420,11096,11648,1,11648,1,-0.00021589,-1.2917e-07,0,0.00010971,-4.1786e-05,-8.7809e+07,-43499,0,4.4218e+07,-3226.5,11647,12600,1,12600,1,0.0002229,1.2253e-07,0,0.00032909,4.0499e-05,8.8244e+07,40932,0,1.3145e+08,3767.3,12599,551.74,0,551.74,0,0.00025312,1.9453e-07,0,0.00012635,4.7458e-05,1.0118e+08,66015,0,5.0297e+07,5129.9,551.74,1
1904,1.56,12125,1,12125,1,3.5883e-06,-1.8694e-08,0,0.00022049,-6.5908e-07,4270.5,-6341,0,8.8225e+07,-414.64,12124,13103,1,13103,1,0.00042972,4.8027e-07,0,0.00042972,7.9221e-05,1.6777e+08,1.6241e+05,0,1.7184e+08,12320,13102,12124,1,12124,1,3.5778e-06,-1.2195e-08,0,0.00022062,-6.5991e-07,1.4094e+06,-4129.1,0,8.8644e+07,-403.9,12123,11097,1,11097,1,-0.00042249,-4.0321e-07,0,1.215e-05,-8.0541e-05,-1.7184e+08,-1.3672e+05,0,4.9428e+06,-14902,11096,11648,1,11648,1,-0.000217,-1.4031e-07,0,0.0001103,-4.2028e-05,-8.8262e+07,-47095,0,4.445e+07,-4247,11647,12600,1,12600,1,0.0002242,8.0616e-08,0,0.00033089,4.0704e-05,8.8728e+07,27378,0,1.3216e+08,3421.4,12599,551.74,0,551.74,0,0.00025449,1.8121e-07,0,0.00012704,4.7715e-05,1.017e+08,61451,0,5.0556e+07,5072.9,551.74,1
1904,1.57,12125,1,12125,1,3.6278e-06,3.5794e-08,0,0.00022166,-6.6549e-07,-4587.5,12131,0,8.8678e+07,-109.14,12124,13103,1,13103,1,0.00043214,6.4531e-07,0,0.00043214,7.9693e-05,1.6866e+08,2.21e+05,0,1.7286e+08,12199,13102,12124,1,12124,1,3.6255e-06,1.0314e-08,0,0.00022179,-6.6478e-07,1.4275e+06,3395.9,0,8.9111e+07,-59.775,12123,11097,1,11097,1,-0.00042498,-4.2661e-07,0,1.2184e-05,-8.0987e-05,-1.7286e+08,-1.4548e+05,0,4.9567e+06,-15781,11096,11648,1,11648,1,-0.00021819,-1.1492e-07,0,0.00011093,-4.2254e-05,-8.8745e+07,-39083,0,4.4698e+07,-3893.6,11647,12600,1,12600,1,0.00022542,1.7951e-07,0,0.00033275,4.0932e-05,8.919e+07,59895,0,1.3284e+08,4463.5,12599,551.74,0,551.74,0,0.00025585,2.2917e-07,0,0.00012771,4.797e-05,1.0222e+08,77752,0,5.0812e+07,5946.9,551.74,1
1904,1.58,12125,1,12125,1,3.7109e-06,-3.2907e-08,0,0.00022338,-6.8248e-07,1467.2,-11150,0,8.9348e+07,-817.67,12124,13103,1,13103,1,0.00043555,4.836e-07,0,0.00043555,8.0267e-05,1.6989e+08,1.6348e+05,0,1.7411e+08,12237,13102,12124,1,12124,1,3.6965e-06,-2.0298e-08,0,0.00022354,-6.8345e-07,1.4554e+06,-6776.4,0,8.9792e+07,-379.03,12123,11097,1,11097,1,-0.00042806,-4.1929e-07,0,1.2232e-05,-8.1631e-05,-1.7411e+08,-1.4213e+05,0,4.9761e+06,-13151,11096,11648,1,11648,1,-0.0002198,-1.5617e-07,0,0.00011176,-4.2598e-05,-8.9399e+07,-52928,0,4.5028e+07,-4722.5,11647,12600,1,12600,1,0.00022724,6.4778e-08,0,0.00033527,4.1229e-05,8.9876e+07,21977,0,1.3385e+08,3182.7,12599,551.74,0,551.74,0,0.00025783,1.8353e-07,0,0.00012871,4.8341e-05,1.03e+08,62234,0,5.1195e+07,5246.9,551.74,1
1904,1.59,12125,1,12125,1,3.7881e-06,-1.8981e-08,0,0.00022468,-6.9443e-07,269.66,-6421,0,8.9847e+07,103.2,12124,13103,1,13103,1,0.00043811,6.6039e-07,0,0.00043811,8.0722e-05,1.7077e+08,2.2549e+05,0,1.751e+08,22234,13102,12124,1,12124,1,3.7741e-06,-2.3772e-08,0,0.00022482,-6.9158e-07,1.4855e+06,-7937.8,0,9.0288e+07,-743.24,12123,11097,1,11097,1,-0.00043049,-4.3963e-07,0,1.2254e-05,-8.2111e-05,-1.751e+08,-1.4979e+05,0,4.9859e+06,-14609,11096,11648,1,11648,1,-0.000221,-1.7572e-07,0,0.0001124,-4.2854e-05,-8.9889e+07,-59639,0,4.5279e+07,-4329.2,11647,12600,1,12600,1,0.0002286,9.0346e-08,0,0.00033719,4.1457e-05,9.0369e+07,30586,0,1.3458e+08,4124.9,12599,551.74,0,551.74,0,0.00025933,2.2806e-07,0,0.00012946,4.8625e-05,1.0357e+08,77341,0,5.1475e+07,7252,551.74,1
1904,1.6,12125,1,12125,1,3.8558e-06,-2.2155e-08,0,0.00022615,-7.0813e-07,-743.72,-7511.9,0,9.0413e+07,-446.68,12124,13103,1,13103,1,0.00044099,4.9901e-07,0,0.00044099,8.1234e-05,1.7181e+08,1.6863e+05,0,1.7621e+08,12391,13102,12124,1,12124,1,3.8409e-06,-1.0657e-08,0,0.00022631,-7.0837e-07,1.5121e+06,-3599,0,9.0872e+07,-216.08,12123,11097,1,11097,1,-0.00043322,-4.4752e-07,0,1.2284e-05,-8.2652e-05,-1.7621e+08,-1.5165e+05,0,4.9972e+06,-12778,11096,11648,1,11648,1,-0.00022242,-1.4221e-07,0,0.00011314,-4.3145e-05,-9.0464e+07,-47857,0,4.5571e+07,-4492.9,11647,12600,1,12600,1,0.00023016,7.7267e-08,0,0.00033942,4.1724e-05,9.0957e+07,26010,0,1.3544e+08,3956.8,12599,551.74,0,551.74,0,0.00026102,1.8776e-07,0,0.00013031,4.894e-05,1.0422e+08,63652,0,5.1798e+07,5470.2,551.74,1
1904,1.61,12125,1,12125,1,3.9317e-06,2.1004e-08,0,0.00022751,-7.2008e-07,-549.47,7119.2,0,9.0937e+07,382.98,12124,13103,1,13103,1,0.00044371,6.0686e-07,0,0.00044371,8.1731e-05,1.728e+08,2.0664e+05,0,1.773e+08,19057,13102,12124,1,12124,1,3.9246e-06,2.942e-09,0,0.00022765,-7.1525e-07,1.5455e+06,1007.7,0,9.1405e+07,155.4,12123,11097,1,11097,1,-0.0004359,-4.202e-07,0,1.2304e-05,-8.3168e-05,-1.773e+08,-1.431e+05,0,5.0054e+06,-14117,11096,11648,1,11648,1,-0.00022369,-1.1354e-07,0,0.00011384,-4.3414e-05,-9.0982e+07,-38439,0,4.5845e+07,-3944.6,11647,12600,1,12600,1,0.00023159,1.4278e-07,0,0.00034148,4.1964e-05,9.1494e+07,47758,0,1.3622e+08,4457.2,12599,551.74,0,551.74,0,0.0002626,2.1114e-07,0,0.00013109,4.9236e-05,1.0482e+08,71591,0,5.2094e+07,6188.7,551.74,1
1904,1.62,12125,1,12125,1,3.9854e-06,-6.8151e-08,0,0.00022845,-7.3117e-07,-4894.2,-23055,0,9.1295e+07,-164.12,12124,13103,1,13103,1,0.00044588,5.4588e-07,0,0.00044588,8.2105e-05,1.7353e+08,1.865e+05,0,1.781e+08,13602,13102,12124,1,12124,1,3.972e-06,-4.4488e-08,0,0.00022866,-7.4006e-07,1.5638e+06,-14695,0,9.1786e+07,804.64,12123,11097,1,11097,1,-0.00043787,-5.3076e-07,0,1.232e-05,-8.3565e-05,-1.781e+08,-1.7987e+05,0,5.0114e+06,-24934,11096,11648,1,11648,1,-0.00022465,-2.2001e-07,0,0.00011433,-4.3606e-05,-9.1374e+07,-74647,0,4.6038e+07,-4072.6,11647,12600,1,12600,1,0.00023264,5.3361e-08,0,0.00034297,4.2146e-05,9.1869e+07,17882,0,1.3678e+08,4904.2,12599,551.74,0,551.74,0,0.00026369,2.1858e-07,0,0.00013164,4.944e-05,1.0523e+08,74113,0,5.2296e+07,6855.4,551.74,1
1904,1.63,12125,1,12125,1,4.0843e-06,-4.1594e-08,0,0.00023039,-7.4972e-07,6002.2,-14063,0,9.2054e+07,-301.12,12124,13103,1,13103,1,0.0004496,5.7367e-07,0,0.0004496,8.2762e-05,1.7489e+08,1.96e+05,0,1.7952e+08,19123,13102,12124,1,12124,1,4.077e-06,-3.2221e-08,0,0.00023056,-7.5359e-07,1.6038e+06,-10776,0,9.2536e+07,-309.32,12123,11097,1,11097,1,-0.00044137,-4.5179e-07,0,1.2361e-05,-8.4262e-05,-1.7952e+08,-1.5323e+05,0,5.0284e+06,-15553,11096,11648,1,11648,1,-0.00022645,-1.8968e-07,0,0.00011528,-4.3982e-05,-9.2103e+07,-64051,0,4.6413e+07,-4748.8,11647,12600,1,12600,1,0.00023464,6.6606e-08,0,0.00034582,4.2478e-05,9.263e+07,22567,0,1.3789e+08,3750,12599,551.74,0,551.74,0,0.00026593,2.1339e-07,0,0.00013276,4.9859e-05,1.0611e+08,72333,0,5.2729e+07,6480.1,551.74,1
1904,1.64,12125,1,12125,1,4.1616e-06,-1.9475e-08,0,0.00023195,-7.6439e-07,-1095.5,-6602.9,0,9.2651e+07,-530.77,12124,13103,1,13103,1,0.00045251,5.3143e-07,0,0.00045251,8.3282e-05,1.7589e+08,1.7945e+05,0,1.8065e+08,12870,13102,12124,1,12124,1,4.1478e-06,-1.0265e-08,0,0.00023211,-7.6441e-07,1.6321e+06,-3510.2,0,9.3135e+07,-126.15,12123,11097,1,11097,1,-0.00044413,-4.4389e-07,0,1.2392e-05,-8.481e-05,-1.8065e+08,-1.5033e+05,0,5.0415e+06,-13833,11096,11648,1,11648,1,-0.00022791,-1.4712e-07,0,0.00011604,-4.4287e-05,-9.27e+07,-49170,0,4.6716e+07,-4740.9,11647,12600,1,12600,1,0.00023626,8.4162e-08,0,0.00034813,4.2754e-05,9.3227e+07,28287,0,1.3877e+08,4027.5,12599,551.74,0,551.74,0,0.00026773,1.9603e-07,0,0.00013366,5.0196e-05,1.0679e+08,66416,0,5.3066e+07,5783.7,551.74,1
1904,1.65,12125,1,12125,1,4.262e-06,-1.7803e-08,0,0.00023366,-7.8225e-07,3268.1,-6005.9,0,9.3309e+07,-280.68,12124,13103,1,13103,1,0.00045582,5.6098e-07,0,0.00045582,8.3861e-05,1.7708e+08,1.9166e+05,0,1.8191e+08,20320,13102,12124,1,12124,1,4.2551e-06,-2.1095e-08,0,0.00023378,-7.8229e-07,1.6733e+06,-7091.1,0,9.379e+07,-400.82,12123,11097,1,11097,1,-0.00044723,-3.7718e-07,0,1.2416e-05,-8.5427e-05,-1.8191e+08,-1.2782e+05,0,5.0512e+06,-15766,11096,11648,1,11648,1,-0.00022948,-1.49e-07,0,0.00011688,-4.4616e-05,-9.3339e+07,-50193,0,4.7045e+07,-4628.7,11647,12600,1,12600,1,0.00023804,7.7068e-08,0,0.00035064,4.3049e-05,9.3886e+07,26091,0,1.3973e+08,3434.9,12599,551.74,0,551.74,0,0.0002697,1.9397e-07,0,0.00013465,5.0566e-05,1.0755e+08,65736,0,5.344e+07,6594.7,551.74,1
1904,1.66,12125,1,12125,1,4.3299e-06,-1.8557e-08,0,0.0002351,-7.957e-07,-5027.9,-6268.7,0,9.3857e+07,-742.82,12124,13103,1,13103,1,0.00045852,4.4999e-07,0,0.00045852,8.4344e-05,1.7801e+08,1.5372e+05,0,1.8295e+08,11318,13102,12124,1,12124,1,4.3177e-06,-1.1268e-08,0,0.00023521,-8.0471e-07,1.6992e+06,-3818.1,0,9.4346e+07,-56.777,12123,11097,1,11097,1,-0.0004498,-3.8118e-07,0,1.2449e-05,-8.5933e-05,-1.8295e+08,-1.2905e+05,0,5.0647e+06,-22742,11096,11648,1,11648,1,-0.00023085,-1.193e-07,0,0.0001176,-4.4907e-05,-9.3896e+07,-40443,0,4.7327e+07,-3710.2,11647,12600,1,12600,1,0.00023954,6.6481e-08,0,0.00035279,4.3305e-05,9.4439e+07,22594,0,1.4054e+08,3724.3,12599,551.74,0,551.74,0,0.00027136,1.6052e-07,0,0.00013548,5.0876e-05,1.0818e+08,54403,0,5.3751e+07,5575.9,551.74,1
1904,1.67,12125,1,12125,1,4.43e-06,-3.2747e-08,0,0.00023643,-8.1437e-07,2661.5,-11054,0,9.4365e+07,-842.39,12124,13103,1,13103,1,0.00046142,5.217e-07,0,0.00046142,8.4851e-05,1.7903e+08,1.7784e+05,0,1.8405e+08,13839,13102,12124,1,12124,1,4.4189e-06,-3.1923e-08,0,0.00023657,-8.1216e-07,1.7386e+06,-10728,0,9.4875e+07,-628.36,12123,11097,1,11097,1,-0.0004525,-3.7743e-07,0,1.2446e-05,-8.6475e-05,-1.8405e+08,-1.2785e+05,0,5.0635e+06,-13411,11096,11648,1,11648,1,-0.00023212,-1.674e-07,0,0.00011828,-4.517e-05,-9.4409e+07,-56725,0,4.7594e+07,-4233.7,11647,12600,1,12600,1,0.00024099,5.9544e-08,0,0.00035483,4.3542e-05,9.4973e+07,19824,0,1.4132e+08,2451.1,12599,551.74,0,551.74,0,0.00027289,1.9019e-07,0,0.00013624,5.1163e-05,1.0876e+08,64431,0,5.4038e+07,5126.1,551.74,1
1904,1.68,12125,1,12125,1,4.5044e-06,-1.6179e-08,0,0.00023783,-8.2538e-07,1601.2,-5470,0,9.4903e+07,255.04,12124,13103,1,13103,1,0.00046405,4.6574e-07,0,0.00046405,8.5317e-05,1.7994e+08,1.5771e+05,0,1.8506e+08,13950,13102,12124,1,12124,1,4.49e-06,-6.7864e-09,0,0.00023796,-8.3144e-07,1.7665e+06,-2322.1,0,9.5413e+07,216.2,12123,11097,1,11097,1,-0.00045499,-4.1178e-07,0,1.2472e-05,-8.6968e-05,-1.8506e+08,-1.3936e+05,0,5.0742e+06,-12987,11096,11648,1,11648,1,-0.00023343,-1.2642e-07,0,0.00011897,-4.5445e-05,-9.4944e+07,-42692,0,4.7866e+07,-3935.9,11647,12600,1,12600,1,0.00024246,7.8425e-08,0,0.0003569,4.3789e-05,9.5513e+07,26631,0,1.4211e+08,4254,12599,551.74,0,551.74,0,0.00027451,1.7461e-07,0,0.00013705,5.1466e-05,1.0938e+08,59136,0,5.4342e+07,5339.4,551.74,1
1904,1.69,12125,1,12125,1,4.599e-06,-4.2111e-08,0,0.00023935,-8.4158e-07,5443.9,-14229,0,9.5487e+07,745.44,12124,13103,1,13103,1,0.00046723,4.9041e-07,0,0.00046723,8.5877e-05,1.8108e+08,1.6544e+05,0,1.8628e+08,19829,13102,12124,1,12124,1,4.589e-06,-2.9698e-08,0,0.00023949,-8.3706e-07,1.805e+06,-9963.6,0,9.6013e+07,-100.15,12123,11097,1,11097,1,-0.00045798,-3.7976e-07,0,1.2488e-05,-8.7563e-05,-1.8628e+08,-1.2861e+05,0,5.0805e+06,-18864,11096,11648,1,11648,1,-0.00023487,-1.6612e-07,0,0.00011974,-4.5744e-05,-9.5529e+07,-56265,0,4.8168e+07,-3228.9,11647,12600,1,12600,1,0.00024408,5.0749e-08,0,0.00035922,4.4059e-05,9.6115e+07,17259,0,1.4299e+08,3685.5,12599,551.74,0,551.74,0,0.00027626,1.782e-07,0,0.00013793,5.1795e-05,1.1005e+08,60334,0,5.4674e+07,6154,551.74,1
1904,1.7,12125,1,12125,1,4.6724e-06,-3.3623e-08,0,0.00024077,-8.5637e-07,156.7,-11369,0,9.603e+07,161.91,12124,13103,1,13103,1,0.00047001,4.3869e-07,0,0.00047001,8.6369e-05,1.8203e+08,1.485e+05,0,1.8734e+08,14566,13102,12124,1,12124,1,4.6563e-06,-1.8991e-08,0,0.00024093,-8.6149e-07,1.8311e+06,-6445.2,0,9.6568e+07,185.75,12123,11097,1,11097,1,-0.0004606,-4.1751e-07,0,1.2514e-05,-8.8084e-05,-1.8734e+08,-1.4125e+05,0,5.0915e+06,-13084,11096,11648,1,11648,1,-0.00023622,-1.4501e-07,0,0.00012045,-4.6032e-05,-9.6081e+07,-49388,0,4.8448e+07,-3909,11647,12600,1,12600,1,0.00024559,6.2447e-08,0,0.00036135,4.4313e-05,9.6669e+07,21038,0,1.4381e+08,3855.3,12599,551.74,0,551.74,0,0.0002779,1.7139e-07,0,0.00013875,5.2102e-05,1.1068e+08,58034,0,5.498e+07,5262,551.74,1
1904,1.71,12125,1,12125,1,4.7711e-06,-3.2567e-08,0,0.00024217,-8.7932e-07,5072.7,-10978,0,9.6563e+07,-1838.6,12124,13103,1,13103,1,0.00047289,6.3686e-07,0,0.00047289,8.6872e-05,1.8304e+08,2.1683e+05,0,1.8844e+08,17427,13102,12124,1,12124,1,4.7623e-06,-3.6101e-08,0,0.00024232,-8.91e-07,1.872e+06,-12214,0,9.7108e+07,-967.69,12123,11097,1,11097,1,-0.00046328,-4.0153e-07,0,1.2515e-05,-8.8623e-05,-1.8844e+08,-1.3596e+05,0,5.0915e+06,-29300,11096,11648,1,11648,1,-0.00023752,-1.8323e-07,0,0.00012115,-4.6314e-05,-9.6606e+07,-61978,0,4.872e+07,-5191.2,11647,12600,1,12600,1,0.00024708,5.8539e-08,0,0.00036345,4.4555e-05,9.7214e+07,19699,0,1.446e+08,2784.6,12599,551.74,0,551.74,0,0.00027952,2.1302e-07,0,0.00013956,5.2407e-05,1.1129e+08,72141,0,5.5282e+07,7872.2,551.74,1
1904,1.72,12125,1,12125,1,4.8417e-06,-1.8834e-08,0,0.00024343,-8.9042e-07,954.54,-6363.6,0,9.7045e+07,-1092.2,12124,13103,1,13103,1,0.0004752,4.8579e-07,0,0.0004752,8.728e-05,1.8383e+08,1.6439e+05,0,1.8932e+08,10807,13102,12124,1,12124,1,4.8318e-06,-1.0553e-08,0,0.00024357,-8.9271e-07,1.8997e+06,-3546.1,0,9.759e+07,-754.95,12123,11097,1,11097,1,-0.00046546,-4.342e-07,0,1.2535e-05,-8.9056e-05,-1.8932e+08,-1.4685e+05,0,5.1003e+06,-19104,11096,11648,1,11648,1,-0.0002387,-1.3213e-07,0,0.00012177,-4.656e-05,-9.7086e+07,-43777,0,4.8966e+07,-4848.9,11647,12600,1,12600,1,0.00024841,7.6981e-08,0,0.00036531,4.4777e-05,9.7697e+07,25873,0,1.453e+08,3659.6,12599,551.74,0,551.74,0,0.00028098,1.7895e-07,0,0.00014029,5.2679e-05,1.1184e+08,60579,0,5.5555e+07,5668.5,551.74,1
1904,1.73,12125,1,12125,1,4.912e-06,-6.93e-09,0,0.00024456,-9.0175e-07,-1387.2,-2321.9,0,9.7471e+07,-452.23,12124,13103,1,13103,1,0.00047742,6.5936e-07,0,0.00047742,8.7674e-05,1.8462e+08,2.2575e+05,0,1.9019e+08,24716,13102,12124,1,12124,1,4.898e-06,-1.8188e-08,0,0.00024468,-9.0302e-07,1.9253e+06,-5989.7,0,9.803e+07,-865.66,12123,11097,1,11097,1,-0.00046759,-4.3518e-07,0,1.2543e-05,-8.9469e-05,-1.9019e+08,-1.4722e+05,0,5.1032e+06,-14956,11096,11648,1,11648,1,-0.00023977,-1.5661e-07,0,0.00012236,-4.6785e-05,-9.7523e+07,-52382,0,4.9191e+07,-5240,11647,12600,1,12600,1,0.00024958,1.0366e-07,0,0.00036701,4.4992e-05,9.8134e+07,35032,0,1.4594e+08,3770.8,12599,551.74,0,551.74,0,0.00028227,2.2154e-07,0,0.00014094,5.2924e-05,1.1233e+08,74975,0,5.5794e+07,6755.2,551.74,1
1904,1.74,12125,1,12125,1,4.9959e-06,-1.2454e-08,0,0.00024635,-9.1636e-07,-1066.2,-4195.2,0,9.8167e+07,-131.9,12124,13103,1,13103,1,0.000481,5.9186e-07,0,0.000481,8.8308e-05,1.8588e+08,1.9946e+05,0,1.9155e+08,21687,13102,12124,1,12124,1,4.9859e-06,-1.1712e-08,0,0.00024648,-9.1619e-07,1.9598e+06,-3937.8,0,9.8727e+07,-424.09,12123,11097,1,11097,1,-0.00047094,-4.3016e-07,0,1.2586e-05,-9.0142e-05,-1.9155e+08,-1.4549e+05,0,5.1208e+06,-16710,11096,11648,1,11648,1,-0.00024145,-1.3836e-07,0,0.00012323,-4.7134e-05,-9.8204e+07,-46676,0,4.9537e+07,-4518.9,11647,12600,1,12600,1,0.00025148,8.0312e-08,0,0.00036968,4.5299e-05,9.8836e+07,27379,0,1.4697e+08,4024.2,12599,551.74,0,551.74,0,0.00028434,1.9883e-07,0,0.00014197,5.3311e-05,1.1313e+08,67288,0,5.6191e+07,6510.7,551.74,1
1904,1.75,12125,1,12125,1,5.095e-06,-2.824e-08,0,0.00024782,-9.3443e-07,-3142,-9515.7,0,9.8721e+07,-109.65,12124,13103,1,13103,1,0.00048406,5.6593e-07,0,0.00048406,8.885e-05,1.8692e+08,1.9146e+05,0,1.9272e+08,15785,13102,12124,1,12124,1,5.0908e-06,-2.3724e-08,0,0.00024796,-9.2929e-07,2.0005e+06,-7862.9,0,9.9298e+07,-59.213,12123,11097,1,11097,1,-0.00047382,-4.1124e-07,0,1.2593e-05,-9.0714e-05,-1.9272e+08,-1.3935e+05,0,5.1234e+06,-16271,11096,11648,1,11648,1,-0.00024284,-1.6491e-07,0,0.00012398,-4.7423e-05,-9.8772e+07,-55872,0,4.983e+07,-4236.5,11647,12600,1,12600,1,0.00025305,7.3016e-08,0,0.00037192,4.5558e-05,9.9405e+07,24482,0,1.4781e+08,4022,12599,551.74,0,551.74,0,0.00028604,2.0124e-07,0,0.00014282,5.3627e-05,1.1377e+08,68096,0,5.6504e+07,6014.8,551.74,1
1904,1.76,12125,1,12125,1,5.1925e-06,-9.8849e-09,0,0.00024919,-9.5474e-07,-98.356,-3315.5,0,9.9242e+07,-1101,12124,13103,1,13103,1,0.00048674,6.1331e-07,0,0.00048674,8.9309e-05,1.8784e+08,2.09e+05,0,1.9372e+08,17259,13102,12124,1,12124,1,5.1869e-06,-1.0562e-08,0,0.00024933,-9.5719e-07,2.0378e+06,-3616.7,0,9.9824e+07,-569.12,12123,11097,1,11097,1,-0.00047627,-4.598e-07,0,1.2589e-05,-9.1217e-05,-1.9372e+08,-1.5546e+05,0,5.1224e+06,-18064,11096,11648,1,11648,1,-0.00024409,-1.5595e-07,0,0.00012464,-4.7705e-05,-9.928e+07,-51886,0,5.0091e+07,-5563,11647,12600,1,12600,1,0.00025452,1.0209e-07,0,0.00037394,4.5791e-05,9.9938e+07,34623,0,1.4858e+08,4154,12599,551.74,0,551.74,0,0.00028762,2.1862e-07,0,0.00014361,5.3925e-05,1.1437e+08,73994,0,5.6797e+07,7177.8,551.74,1
1904,1.77,12125,1,12125,1,5.2741e-06,-2.1709e-08,0,0.00025041,-9.6704e-07,-1979,-7333.8,0,9.9702e+07,-6.5199,12124,13103,1,13103,1,0.00048931,6.314e-07,0,0.00048931,8.9765e-05,1.8872e+08,2.1617e+05,0,1.9471e+08,20106,13102,12124,1,12124,1,5.2622e-06,-2.0419e-08,0,0.00025056,-9.7161e-07,2.0671e+06,-6736.5,0,1.003e+08,433.62,12123,11097,1,11097,1,-0.0004787,-4.3742e-07,0,1.2597e-05,-9.1696e-05,-1.9471e+08,-1.4809e+05,0,5.1252e+06,-21055,11096,11648,1,11648,1,-0.00024525,-1.7464e-07,0,0.00012527,-4.7943e-05,-9.9752e+07,-58546,0,5.0333e+07,-4565,11647,12600,1,12600,1,0.00025583,8.7761e-08,0,0.00037581,4.6014e-05,1.0041e+08,29727,0,1.4927e+08,4471,12599,551.74,0,551.74,0,0.00028902,2.2229e-07,0,0.00014432,5.4188e-05,1.149e+08,75172,0,5.7057e+07,7354.2,551.74,1
1904,1.78,12125,1,12125,1,5.3648e-06,-1.0357e-08,0,0.00025172,-9.8267e-07,2056.8,-3502.1,0,1.002e+08,422.89,12124,13103,1,13103,1,0.00049176,5.6349e-07,0,0.00049176,9.0184e-05,1.8955e+08,1.8974e+05,0,1.9562e+08,21452,13102,12124,1,12124,1,5.3537e-06,-5.1937e-09,0,0.00025188,-9.7743e-07,2.1034e+06,-1709.5,0,1.0081e+08,261.94,12123,11097,1,11097,1,-0.00048094,-4.6769e-07,0,1.26e-05,-9.2157e-05,-1.9562e+08,-1.5805e+05,0,5.126e+06,-12443,11096,11648,1,11648,1,-0.00024647,-1.3489e-07,0,0.00012591,-4.8215e-05,-1.0025e+08,-45073,0,5.0584e+07,-4375.9,11647,12600,1,12600,1,0.00025723,9.7078e-08,0,0.00037774,4.6242e-05,1.0092e+08,32242,0,1.5001e+08,4598.3,12599,551.74,0,551.74,0,0.00029054,1.9662e-07,0,0.00014508,5.4472e-05,1.1547e+08,66483,0,5.7342e+07,6135.8,551.74,1
1904,1.79,12125,1,12125,1,5.4629e-06,-2.6095e-08,0,0.0002533,-1.0027e-06,3630.1,-8800.2,0,1.0081e+08,-422.03,12124,13103,1,13103,1,0.00049497,6.4064e-07,0,0.00049497,9.0758e-05,1.9069e+08,2.1496e+05,0,1.9686e+08,16979,13102,12124,1,12124,1,5.4461e-06,-3.1633e-08,0,0.00025344,-1.012e-06,2.1392e+06,-10490,0,1.0142e+08,-202.51,12123,11097,1,11097,1,-0.000484,-4.4454e-07,0,1.2628e-05,-9.2756e-05,-1.9686e+08,-1.5042e+05,0,5.1378e+06,-19783,11096,11648,1,11648,1,-0.00024795,-1.7265e-07,0,0.00012671,-4.8531e-05,-1.0085e+08,-58273,0,5.0897e+07,-4810.4,11647,12600,1,12600,1,0.00025888,7.7694e-08,0,0.00038012,4.6516e-05,1.0153e+08,26115,0,1.5091e+08,4218.6,12599,551.74,0,551.74,0,0.00029236,2.201e-07,0,0.00014599,5.4813e-05,1.1617e+08,74405,0,5.7683e+07,6695,551.74,1
1904,1.8,12125,1,12125,1,5.5338e-06,6.2861e-08,0,0.00025425,-1.0084e-06,-2806.5,21195,0,1.0116e+08,2615.3,12124,13103,1,13103,1,0.0004972,8.0349e-07,0,0.0004972,9.1159e-05,1.9144e+08,2.7153e+05,0,1.9775e+08,20917,13102,12124,1,12124,1,5.5257e-06,2.216e-08,0,0.00025447,-1.0028e-06,2.1709e+06,7412.4,0,1.0182e+08,2001.1,12123,11097,1,11097,1,-0.00048618,-4.9597e-07,0,1.2605e-05,-9.318e-05,-1.9775e+08,-1.6765e+05,0,5.1281e+06,-13856,11096,11648,1,11648,1,-0.00024893,-1.0896e-07,0,0.00012725,-4.874e-05,-1.0125e+08,-36500,0,5.1106e+07,-3544,11647,12600,1,12600,1,0.00026,2.1887e-07,0,0.00038171,4.6703e-05,1.0193e+08,73397,0,1.5149e+08,8013.2,12599,551.74,0,551.74,0,0.00029346,2.6829e-07,0,0.00014654,5.5021e-05,1.1657e+08,90690,0,5.7878e+07,7365.3,551.74,1
1904,1.81,12125,1,12125,1,5.6184e-06,5.629e-08,0,0.00025576,-1.0327e-06,-1787.8,19009,0,1.0174e+08,-1066.4,12124,13103,1,13103,1,0.00050031,7.9856e-07,0,0.00050031,9.1714e-05,1.9253e+08,2.7263e+05,0,1.9895e+08,18472,13102,12124,1,12124,1,5.6143e-06,2.3072e-08,0,0.00025599,-1.0448e-06,2.2039e+06,7575.3,0,1.0241e+08,-1380.3,12123,11097,1,11097,1,-0.00048913,-4.9774e-07,0,1.2633e-05,-9.3765e-05,-1.9895e+08,-1.6843e+05,0,5.1406e+06,-18153,11096,11648,1,11648,1,-0.00025035,-1.0159e-07,0,0.00012802,-4.9042e-05,-1.0183e+08,-33808,0,5.1408e+07,-6619.7,11647,12600,1,12600,1,0.00026162,2.1059e-07,0,0.000384,4.6964e-05,1.0253e+08,70379,0,1.5236e+08,4725,12599,551.74,0,551.74,0,0.0002952,2.5759e-07,0,0.00014741,5.5346e-05,1.1724e+08,87087,0,5.8208e+07,7474.8,551.74,1
1904,1.82,12125,1,12125,1,5.7219e-06,1.1583e-08,0,0.00025723,-1.0485e-06,395.63,3902.5,0,1.023e+08,253.74,12124,13103,1,13103,1,0.00050275,5.7856e-07,0,0.00050275,9.2136e-05,1.9333e+08,1.9578e+05,0,1.9985e+08,12696,13102,12124,1,12124,1,5.7194e-06,3.4738e-09,0,0.00025738,-1.0602e-06,2.2446e+06,1160.7,0,1.0294e+08,360.28,12123,11097,1,11097,1,-0.00049134,-4.7367e-07,0,1.264e-05,-9.4214e-05,-1.9985e+08,-1.5993e+05,0,5.1438e+06,-14246,11096,11648,1,11648,1,-0.00025161,-1.1639e-07,0,0.00012867,-4.9319e-05,-1.0234e+08,-39202,0,5.1663e+07,-4470.2,11647,12600,1,12600,1,0.00026311,1.3435e-07,0,0.00038604,4.7196e-05,1.0307e+08,45806,0,1.5313e+08,5301.6,12599,551.74,0,551.74,0,0.0002969,2.0983e-07,0,0.00014826,5.5663e-05,1.1788e+08,70903,0,5.8525e+07,5888.1,551.74,1
1904,1.83,12125,1,12125,1,5.8212e-06,2.9116e-08,0,0.00025875,-1.0687e-06,-1247.5,9834.4,0,1.0287e+08,-612.9,12124,13103,1,13103,1,0.00050596,7.1588e-07,0,0.00050596,9.2702e-05,1.9446e+08,2.4272e+05,0,2.0109e+08,16449,13102,12124,1,12124,1,5.8155e-06,2.0784e-09,0,0.00025894,-1.0769e-06,2.282e+06,680.71,0,1.0355e+08,-685.8,12123,11097,1,11097,1,-0.0004944,-4.3052e-07,0,1.265e-05,-9.4821e-05,-2.0109e+08,-1.4567e+05,0,5.1483e+06,-16306,11096,11648,1,11648,1,-0.00025311,-1.0899e-07,0,0.00012947,-4.9622e-05,-1.0295e+08,-36448,0,5.1976e+07,-5205.2,11647,12600,1,12600,1,0.00026476,1.455e-07,0,0.00038841,4.7479e-05,1.0367e+08,49009,0,1.5402e+08,4052.1,12599,551.74,0,551.74,0,0.00029866,2.251e-07,0,0.00014914,5.5992e-05,1.1854e+08,76072,0,5.8851e+07,6318.8,551.74,1
1904,1.84,12125,1,12125,1,5.929e-06,-1.2437e-08,0,0.00026042,-1.0901e-06,-753.31,-4165.4,0,1.0351e+08,-1268.4,12124,13103,1,13103,1,0.00050902,5.9086e-07,0,0.00050902,9.321e-05,1.9549e+08,2.0176e+05,0,2.0219e+08,13445,13102,12124,1,12124,1,5.9266e-06,-1.9791e-08,0,0.00026054,-1.0947e-06,2.3261e+06,-6590.9,0,1.0416e+08,-549.7,12123,11097,1,11097,1,-0.00049709,-3.8856e-07,0,1.2656e-05,-9.5385e-05,-2.0219e+08,-1.3124e+05,0,5.1499e+06,-20277,11096,11648,1,11648,1,-0.00025459,-1.3637e-07,0,0.00013027,-4.9939e-05,-1.0355e+08,-45970,0,5.229e+07,-4800.8,11647,12600,1,12600,1,0.00026646,7.3112e-08,0,0.00039076,4.7759e-05,1.0429e+08,24266,0,1.5492e+08,3152.4,12599,551.74,0,551.74,0,0.00030058,1.9414e-07,0,0.00015011,5.6351e-05,1.1927e+08,65639,0,5.921e+07,5944.2,551.74,1
1904,1.85,12125,1,12125,1,6.0388e-06,2.8073e-08,0,0.00026139,-1.1098e-06,2935.1,9470.8,0,1.0386e+08,-1066.9,12124,13103,1,13103,1,0.00051129,7.5397e-07,0,0.00051129,9.3624e-05,1.9624e+08,2.5265e+05,0,2.031e+08,17224,13102,12124,1,12124,1,6.0269e-06,6.7922e-10,0,0.00026159,-1.115e-06,2.3654e+06,227.5,0,1.0456e+08,-1228.4,12123,11097,1,11097,1,-0.00049932,-5.1836e-07,0,1.2626e-05,-9.582e-05,-2.031e+08,-1.7535e+05,0,5.1376e+06,-18832,11096,11648,1,11648,1,-0.00025553,-1.2663e-07,0,0.00013079,-5.0175e-05,-1.0393e+08,-42976,0,5.2486e+07,-6664.3,11647,12600,1,12600,1,0.00026762,1.6542e-07,0,0.00039237,4.7932e-05,1.0469e+08,55491,0,1.555e+08,4604,12599,551.74,0,551.74,0,0.0003017,2.5196e-07,0,0.00015066,5.6564e-05,1.1967e+08,85094,0,5.9406e+07,7341,551.74,1
1904,1.86,12125,1,12125,1,6.1235e-06,3.9086e-08,0,0.00026314,-1.1229e-06,1144.4,13194,0,1.0454e+08,-99.29,12124,13103,1,13103,1,0.00051467,5.892e-07,0,0.00051467,9.4222e-05,1.9742e+08,2.0171e+05,0,2.0437e+08,12737,13102,12124,1,12124,1,6.1248e-06,1.5141e-08,0,0.0002633,-1.1244e-06,2.4033e+06,4972.6,0,1.0523e+08,-81.153,12123,11097,1,11097,1,-0.00050245,-3.6969e-07,0,1.2654e-05,-9.6436e-05,-2.0437e+08,-1.2477e+05,0,5.1491e+06,-13732,11096,11648,1,11648,1,-0.00025719,-6.7237e-08,0,0.00013169,-5.0493e-05,-1.0461e+08,-22297,0,5.284e+07,-4577.4,11647,12600,1,12600,1,0.00026943,1.3971e-07,0,0.00039498,4.8249e-05,1.0537e+08,47145,0,1.5649e+08,4341.4,12599,551.74,0,551.74,0,0.00030373,1.8361e-07,0,0.00015168,5.6941e-05,1.2046e+08,62071,0,5.9793e+07,5534.1,551.74,1
1904,1.87,12125,1,12125,1,6.2623e-06,-2.1382e-08,0,0.0002652,-1.1536e-06,3833,-7168.6,0,1.0532e+08,-2270.9,12124,13103,1,13103,1,0.0005186,5.6114e-07,0,0.0005186,9.4889e-05,1.9878e+08,1.8859e+05,0,2.0582e+08,10735,13102,12124,1,12124,1,6.2565e-06,-2.5004e-08,0,0.00026531,-1.1672e-06,2.4539e+06,-8318,0,1.06e+08,-1145.2,12123,11097,1,11097,1,-0.00050603,-3.6938e-07,0,1.2666e-05,-9.7178e-05,-2.0582e+08,-1.2484e+05,0,5.1553e+06,-24232,11096,11648,1,11648,1,-0.00025902,-1.4731e-07,0,0.00013265,-5.0903e-05,-1.0535e+08,-49410,0,5.3216e+07,-5290.5,11647,12600,1,12600,1,0.00027157,6.34e-08,0,0.00039795,4.8587e-05,1.0614e+08,21142,0,1.5762e+08,2140.8,12599,551.74,0,551.74,0,0.0003061,1.8971e-07,0,0.00015287,5.7385e-05,1.2136e+08,64108,0,6.0237e+07,6284.6,551.74,1
1904,1.88,12125,1,12125,1,6.3668e-06,2.9934e-08,0,0.00026622,-1.1669e-06,-2515,10087,0,1.0569e+08,148.29,12124,13103,1,13103,1,0.00052075,6.0563e-07,0,0.00052075,9.5255e-05,1.9943e+08,2.0734e+05,0,2.0663e+08,12902,13102,12124,1,12124,1,6.3629e-06,7.0892e-09,0,0.00026635,-1.1689e-06,2.4962e+06,2299.6,0,1.064e+08,36.161,12123,11097,1,11097,1,-0.000508,-4.1886e-07,0,1.2634e-05,-9.7577e-05,-2.0663e+08,-1.4126e+05,0,5.1411e+06,-12059,11096,11648,1,11648,1,-0.00025999,-1.1682e-07,0,0.00013319,-5.1106e-05,-1.0575e+08,-39326,0,5.342e+07,-4108.2,11647,12600,1,12600,1,0.00027272,1.6216e-07,0,0.00039953,4.8777e-05,1.0653e+08,53798,0,1.5818e+08,4689.3,12599,551.74,0,551.74,0,0.00030728,2.1818e-07,0,0.00015346,5.7608e-05,1.2178e+08,73675,0,6.044e+07,5667.9,551.74,1
1904,1.89,12125,1,12125,1,6.4717e-06,1.7509e-08,0,0.0002673,-1.1878e-06,7190.9,5888.1,0,1.0609e+08,-471.22,12124,13103,1,13103,1,0.00052313,8.5617e-07,0,0.00052313,9.567e-05,2.0024e+08,2.894e+05,0,2.0753e+08,23575,13102,12124,1,12124,1,6.4619e-06,-1.4868e-08,0,0.00026746,-1.1889e-06,2.5356e+06,-4930.6,0,1.0682e+08,-968.31,12123,11097,1,11097,1,-0.00051023,-4.9345e-07,0,1.2604e-05,-9.8024e-05,-2.0753e+08,-1.6653e+05,0,5.1297e+06,-23138,11096,11648,1,11648,1,-0.00026098,-1.7865e-07,0,0.00013375,-5.1348e-05,-1.0615e+08,-59304,0,5.3638e+07,-6210,11647,12600,1,12600,1,0.00027394,1.6322e-07,0,0.0004012,4.8966e-05,1.0697e+08,55093,0,1.588e+08,4476.6,12599,551.74,0,551.74,0,0.00030852,2.8375e-07,0,0.00015408,5.7843e-05,1.2224e+08,95733,0,6.0666e+07,8490.5,551.74,1
1904,1.9,12125,1,12125,1,6.5561e-06,1.0095e-08,0,0.000269,-1.2054e-06,1404.4,3448,0,1.0675e+08,-1414.8,12124,13103,1,13103,1,0.00052625,5.4072e-07,0,0.00052625,9.621e-05,2.0131e+08,1.8519e+05,0,2.087e+08,12744,13102,12124,1,12124,1,6.5547e-06,1.5196e-09,0,0.00026914,-1.2097e-06,2.57e+06,507.75,0,1.0747e+08,-1201.4,12123,11097,1,11097,1,-0.00051311,-4.0532e-07,0,1.2644e-05,-9.8609e-05,-2.087e+08,-1.3665e+05,0,5.1465e+06,-16286,11096,11648,1,11648,1,-0.00026256,-1.0204e-07,0,0.00013456,-5.167e-05,-1.0679e+08,-34362,0,5.3956e+07,-5416.2,11647,12600,1,12600,1,0.00027569,1.1424e-07,0,0.00040368,4.9255e-05,1.0761e+08,38547,0,1.5975e+08,3410.9,12599,551.74,0,551.74,0,0.00031049,1.8212e-07,0,0.00015507,5.8207e-05,1.2299e+08,61552,0,6.1039e+07,5619,551.74,1
1904,1.91,12125,1,12125,1,6.6647e-06,-4.4421e-09,0,0.00027026,-1.222e-06,-378.19,-1510.6,0,1.0721e+08,-30.771,12124,13103,1,13103,1,0.00052882,7.1127e-07,0,0.00052882,9.6657e-05,2.0214e+08,2.4164e+05,0,2.0966e+08,16871,13102,12124,1,12124,1,6.6531e-06,-1.4965e-08,0,0.00027038,-1.2264e-06,2.6095e+06,-5036.2,0,1.0794e+08,-33.914,12123,11097,1,11097,1,-0.00051546,-4.5672e-07,0,1.2629e-05,-9.909e-05,-2.0966e+08,-1.5416e+05,0,5.1404e+06,-17078,11096,11648,1,11648,1,-0.00026372,-1.6115e-07,0,0.00013521,-5.1917e-05,-1.0726e+08,-53590,0,5.4205e+07,-4592.2,11647,12600,1,12600,1,0.00027704,1.0404e-07,0,0.00040555,4.948e-05,1.0808e+08,34822,0,1.6043e+08,4902,12599,551.74,0,551.74,0,0.00031194,2.3759e-07,0,0.0001558,5.8482e-05,1.2352e+08,80111,0,6.1299e+07,6938.2,551.74,1
1904,1.92,12125,1,12125,1,6.7523e-06,4.3663e-09,0,0.0002716,-1.2399e-06,-5170.8,1474.5,0,1.0772e+08,-828.82,12124,13103,1,13103,1,0.00053157,7.1125e-07,0,0.00053157,9.713e-05,2.0305e+08,2.4149e+05,0,2.1069e+08,15204,13102,12124,1,12124,1,6.7417e-06,-9.9497e-09,0,0.00027174,-1.2419e-06,2.6435e+06,-3369.4,0,1.0845e+08,-21.891,12123,11097,1,11097,1,-0.00051798,-4.5043e-07,0,1.2628e-05,-9.9606e-05,-2.1069e+08,-1.519e+05,0,5.1397e+06,-19209,11096,11648,1,11648,1,-0.00026494,-1.5777e-07,0,0.00013586,-5.2185e-05,-1.0776e+08,-52581,0,5.4457e+07,-5145.5,11647,12600,1,12600,1,0.00027849,1.2554e-07,0,0.00040755,4.9713e-05,1.0859e+08,41899,0,1.6119e+08,4429.2,12599,551.74,0,551.74,0,0.00031349,2.4007e-07,0,0.00015657,5.8771e-05,1.241e+08,81019,0,6.1583e+07,7141.4,551.74,1
1904,1.93,12125,1,12125,1,6.881e-06,1.4008e-08,0,0.00027321,-1.2639e-06,2446.5,4735,0,1.0833e+08,-974.95,12124,13103,1,13103,1,0.00053474,7.2465e-07,0,0.00053474,9.7698e-05,2.0416e+08,2.4514e+05,0,2.1193e+08,17512,13102,12124,1,12124,1,6.8739e-06,-2.7145e-09,0,0.00027335,-1.276e-06,2.6954e+06,-872.15,0,1.0909e+08,-876.2,12123,11097,1,11097,1,-0.00052104,-4.5211e-07,0,1.2617e-05,-0.0001002,-2.1193e+08,-1.5267e+05,0,5.1356e+06,-26765,11096,11648,1,11648,1,-0.00026647,-1.253e-07,0,0.00013669,-5.2531e-05,-1.0838e+08,-41595,0,5.4785e+07,-5471.6,11647,12600,1,12600,1,0.00028023,1.2751e-07,0,0.00041004,4.999e-05,1.0924e+08,42783,0,1.6211e+08,4237,12599,551.74,0,551.74,0,0.00031535,2.2672e-07,0,0.00015751,5.912e-05,1.2481e+08,76505,0,6.1929e+07,7328.2,551.74,1
1904,1.94,12125,1,12125,1,6.9789e-06,-1.1472e-08,0,0.0002747,-1.2822e-06,-6724.2,-3851.7,0,1.0889e+08,-1151.7,12124,13103,1,13103,1,0.00053791,7.4249e-07,0,0.00053791,9.8242e-05,2.0519e+08,2.5283e+05,0,2.1309e+08,16718,13102,12124,1,12124,1,6.9693e-06,-1.6705e-08,0,0.00027485,-1.2865e-06,2.7313e+06,-5657.5,0,1.0965e+08,-427.23,12123,11097,1,11097,1,-0.0005239,-4.9673e-07,0,1.2626e-05,-0.0001008,-2.1309e+08,-1.6734e+05,0,5.1392e+06,-19880,11096,11648,1,11648,1,-0.00026784,-1.9818e-07,0,0.00013742,-5.2812e-05,-1.0894e+08,-66941,0,5.5064e+07,-5730.3,11647,12600,1,12600,1,0.00028183,1.3023e-07,0,0.00041224,5.0247e-05,1.0979e+08,43235,0,1.6294e+08,3985.4,12599,551.74,0,551.74,0,0.00031707,2.628e-07,0,0.00015836,5.9442e-05,1.2544e+08,88653,0,6.2242e+07,7529.2,551.74,1
1904,1.95,12125,1,12125,1,7.1174e-06,3.3449e-08,0,0.00027612,-1.3092e-06,2808.9,11267,0,1.0942e+08,-1775.9,12124,13103,1,13103,1,0.00054067,5.7972e-07,0,0.00054067,9.8725e-05,2.0612e+08,1.9717e+05,0,2.1414e+08,11245,13102,12124,1,12124,1,7.112e-06,1.2892e-08,0,0.00027628,-1.3094e-06,2.7866e+06,4372.3,0,1.1021e+08,-1470.6,12123,11097,1,11097,1,-0.00052648,-3.9687e-07,0,1.2592e-05,-0.00010131,-2.1414e+08,-1.3394e+05,0,5.1257e+06,-17041,11096,11648,1,11648,1,-0.00026915,-9.3759e-08,0,0.00013815,-5.3111e-05,-1.0947e+08,-31778,0,5.5346e+07,-6000.1,11647,12600,1,12600,1,0.0002834,1.5515e-07,0,0.00041443,5.0497e-05,1.1036e+08,51597,0,1.6374e+08,2981.8,12599,551.74,0,551.74,0,0.00031871,2.003e-07,0,0.00015919,5.9747e-05,1.2606e+08,67585,0,6.2543e+07,5552.1,551.74,1
1904,1.96,12125,1,12125,1,7.1938e-06,5.9608e-09,0,0.00027716,-1.3204e-06,-7656.4,2015.6,0,1.098e+08,-674.48,12124,13103,1,13103,1,0.00054262,6.3127e-07,0,0.00054262,9.9065e-05,2.0671e+08,2.1532e+05,0,2.1489e+08,10829,13102,12124,1,12124,1,7.1796e-06,-3.6261e-09,0,0.00027727,-1.327e-06,2.8139e+06,-1217.2,0,1.1058e+08,-401.63,12123,11097,1,11097,1,-0.00052833,-4.8267e-07,0,1.2581e-05,-0.00010167,-2.1489e+08,-1.6253e+05,0,5.1212e+06,-14939,11096,11648,1,11648,1,-0.00027009,-1.4829e-07,0,0.00013867,-5.3309e-05,-1.0985e+08,-49237,0,5.5545e+07,-4946.5,11647,12600,1,12600,1,0.00028447,1.3743e-07,0,0.00041594,5.0669e-05,1.1072e+08,45988,0,1.6427e+08,4499.3,12599,551.74,0,551.74,0,0.0003199,2.2887e-07,0,0.00015979,5.9971e-05,1.2649e+08,77180,0,6.2755e+07,5867,551.74,1
1904,1.97,12125,1,12125,1,7.3203e-06,-2.5924e-08,0,0.00027892,-1.3414e-06,1221.6,-8726.3,0,1.1047e+08,295.36,12124,13103,1,13103,1,0.00054638,6.9874e-07,0,0.00054638,9.9699e-05,2.0802e+08,2.3805e+05,0,2.1626e+08,28423,13102,12124,1,12124,1,7.2978e-06,-2.9652e-08,0,0.00027908,-1.349e-06,2.8595e+06,-9673.9,0,1.1127e+08,-415.4,12123,11097,1,11097,1,-0.00053169,-4.5518e-07,0,1.2601e-05,-0.00010238,-2.1626e+08,-1.5353e+05,0,5.1294e+06,-21447,11096,11648,1,11648,1,-0.00027173,-1.8108e-07,0,0.00013953,-5.3665e-05,-1.1052e+08,-60821,0,5.5881e+07,-5132.8,11647,12600,1,12600,1,0.00028639,8.06e-08,0,0.00041859,5.0974e-05,1.1142e+08,26632,0,1.653e+08,4572.5,12599,551.74,0,551.74,0,0.00032194,2.3347e-07,0,0.00016081,6.0355e-05,1.2727e+08,78688,0,6.3137e+07,8290.1,551.74,1
1904,1.98,12125,1,12125,1,7.4504e-06,-1.3055e-08,0,0.00028007,-1.3661e-06,3758.5,-4395.7,0,1.1089e+08,-73.256,12124,13103,1,13103,1,0.00054868,6.2359e-07,0,0.00054868,0.00010008,2.0871e+08,2.1004e+05,0,2.1707e+08,17630,13102,12124,1,12124,1,7.4399e-06,-3.6927e-09,0,0.00028024,-1.3675e-06,2.9154e+06,-1248.7,0,1.117e+08,-62.71,12123,11097,1,11097,1,-0.00053369,-5.1827e-07,0,1.2537e-05,-0.00010281,-2.1707e+08,-1.7445e+05,0,5.1039e+06,-17407,11096,11648,1,11648,1,-0.00027274,-1.4902e-07,0,0.0001401,-5.391e-05,-1.1093e+08,-49619,0,5.6102e+07,-5054,11647,12600,1,12600,1,0.00028769,1.0192e-07,0,0.00042031,5.1171e-05,1.1186e+08,33916,0,1.6591e+08,5171.8,12599,551.74,0,551.74,0,0.00032326,2.1642e-07,0,0.00016148,6.0601e-05,1.2774e+08,72958,0,6.3369e+07,6683.7,551.74,1
1904,1.99,12125,1,12125,1,7.5614e-06,-6.5955e-08,0,0.00028202,-1.3869e-06,812.88,-22167,0,1.1163e+08,-316.85,12124,13103,1,13103,1,0.00055277,4.755e-07,0,0.00055277,0.0001008,2.1014e+08,1.6285e+05,0,2.1864e+08,15314,13102,12124,1,12124,1,7.5448e-06,-4.9993e-08,0,0.00028223,-1.3952e-06,2.9557e+06,-16904,0,1.1248e+08,-1138.7,12123,11097,1,11097,1,-0.00053755,-4.2422e-07,0,1.2569e-05,-0.00010358,-2.1864e+08,-1.4335e+05,0,5.1171e+06,-14083,11096,11648,1,11648,1,-0.00027462,-2.0326e-07,0,0.00014108,-5.4293e-05,-1.117e+08,-68236,0,5.6485e+07,-4081.4,11647,12600,1,12600,1,0.00028977,3.741e-08,0,0.00042327,5.1514e-05,1.1263e+08,12354,0,1.6705e+08,2582.6,12599,551.74,0,551.74,0,0.00032551,1.8667e-07,0,0.00016261,6.102e-05,1.286e+08,62961,0,6.3794e+07,5156.9,551.74,1
1904,2,12125,1,12125,1,7.6996e-06,-1.6874e-08,0,0.00028292,-1.4112e-06,5151.9,-5681.5,0,1.1195e+08,169.47,12124,13103,1,13103,1,0.00055443,6.2134e-07,0,0.00055443,0.00010106,2.1056e+08,2.092e+05,0,2.1921e+08,17773,13102,12124,1,12124,1,7.6878e-06,-1.0695e-08,0,0.00028309,-1.4124e-06,3.0119e+06,-3602.8,0,1.1279e+08,416.37,12123,11097,1,11097,1,-0.00053894,-4.6663e-07,0,1.2492e-05,-0.00010388,-2.1921e+08,-1.57e+05,0,5.0856e+06,-18285,11096,11648,1,11648,1,-0.00027534,-1.5633e-07,0,0.00014153,-5.4486e-05,-1.1199e+08,-52163,0,5.6651e+07,-4359.6,11647,12600,1,12600,1,0.00029079,9.3046e-08,0,0.00042458,5.1658e-05,1.1295e+08,31528,0,1.6749e+08,5115.8,12599,551.74,0,551.74,0,0.00032656,2.1145e-07,0,0.00016313,6.1219e-05,1.2896e+08,71244,0,6.3967e+07,6612.8,551.74,1
1904,2.01,12125,1,12125,1,7.795e-06,-5.8348e-08,0,0.00028487,-1.4294e-06,-751.49,-19601,0,1.127e+08,-187.24,12124,13103,1,13103,1,0.0005585,5.0981e-07,0,0.0005585,0.00010179,2.1201e+08,1.746e+05,0,2.2078e+08,16085,13102,12124,1,12124,1,7.7798e-06,-4.2362e-08,0,0.00028508,-1.4382e-06,3.0469e+06,-13886,0,1.1356e+08,-967.68,12123,11097,1,11097,1,-0.00054281,-4.3527e-07,0,1.2536e-05,-0.00010464,-2.2078e+08,-1.4692e+05,0,5.1041e+06,-14762,11096,11648,1,11648,1,-0.00027723,-1.9924e-07,0,0.00014251,-5.4869e-05,-1.1276e+08,-66595,0,5.7036e+07,-4141.9,11647,12600,1,12600,1,0.00029285,5.0714e-08,0,0.00042756,5.2004e-05,1.1372e+08,17045,0,1.6863e+08,2833.6,12599,551.74,0,551.74,0,0.00032881,1.9491e-07,0,0.00016426,6.1637e-05,1.2982e+08,65711,0,6.4393e+07,5340.2,551.74,1
1904,2.02,12125,1,12125,1,7.946e-06,-6.9917e-09,0,0.00028582,-1.4569e-06,7305.8,-2361.3,0,1.1303e+08,-18.912,12124,13103,1,13103,1,0.00056026,6.42e-07,0,0.00056026,0.00010206,2.1247e+08,2.1607e+05,0,2.2137e+08,17292,13102,12124,1,12124,1,7.934e-06,-2.6307e-09,0,0.00028599,-1.4574e-06,3.1075e+06,-869.28,0,1.1389e+08,-18.338,12123,11097,1,11097,1,-0.00054425,-5.0994e-07,0,1.2451e-05,-0.00010498,-2.2137e+08,-1.715e+05,0,5.0696e+06,-17871,11096,11648,1,11648,1,-0.00027798,-1.4766e-07,0,0.00014297,-5.5076e-05,-1.1306e+08,-49653,0,5.7207e+07,-4990.8,11647,12600,1,12600,1,0.00029393,1.1628e-07,0,0.00042891,5.2152e-05,1.1406e+08,38837,0,1.6909e+08,5390.1,12599,551.74,0,551.74,0,0.0003299,2.2304e-07,0,0.00016481,6.1845e-05,1.302e+08,75128,0,6.4574e+07,6796.2,551.74,1
1904,2.03,12125,1,12125,1,8.0435e-06,-3.2911e-08,0,0.00028779,-1.4744e-06,212.78,-11041,0,1.1378e+08,47.593,12124,13103,1,13103,1,0.00056423,5.775e-07,0,0.00056423,0.00010277,2.1388e+08,1.9778e+05,0,2.2291e+08,17429,13102,12124,1,12124,1,8.0297e-06,-2.5455e-08,0,0.00028796,-1.4831e-06,3.1439e+06,-8335.8,0,1.1466e+08,-697.21,12123,11097,1,11097,1,-0.00054803,-4.4733e-07,0,1.2496e-05,-0.00010572,-2.2291e+08,-1.5067e+05,0,5.0882e+06,-14989,11096,11648,1,11648,1,-0.00027986,-1.74e-07,0,0.00014395,-5.5458e-05,-1.1383e+08,-58443,0,5.7591e+07,-4184.1,11647,12600,1,12600,1,0.00029599,7.771e-08,0,0.00043188,5.2502e-05,1.1482e+08,25785,0,1.7022e+08,3759.9,12599,551.74,0,551.74,0,0.00033217,2.0873e-07,0,0.00016595,6.2268e-05,1.3107e+08,70339,0,6.5003e+07,5715,551.74,1
1904,2.04,12125,1,12125,1,8.1981e-06,-2.1881e-08,0,0.000289,-1.5032e-06,5198.3,-7355.1,0,1.1422e+08,-103.99,12124,13103,1,13103,1,0.00056669,5.9685e-07,0,0.00056669,0.00010318,2.146e+08,2.0079e+05,0,2.2379e+08,16986,13102,12124,1,12124,1,8.1866e-06,-1.0687e-08,0,0.00028918,-1.5051e-06,3.2055e+06,-3501.3,0,1.1511e+08,2.1734,12123,11097,1,11097,1,-0.00055021,-4.9306e-07,0,1.2429e-05,-0.00010618,-2.2379e+08,-1.659e+05,0,5.0611e+06,-17374,11096,11648,1,11648,1,-0.00028094,-1.5929e-07,0,0.00014457,-5.572e-05,-1.1427e+08,-53021,0,5.7827e+07,-4675.8,11647,12600,1,12600,1,0.00029737,8.9283e-08,0,0.00043372,5.2704e-05,1.1528e+08,29634,0,1.7087e+08,4698.3,12599,551.74,0,551.74,0,0.00033357,2.1065e-07,0,0.00016665,6.2532e-05,1.3156e+08,70937,0,6.5244e+07,6393.6,551.74,1
1904,2.05,12125,1,12125,1,8.2957e-06,-4.1006e-08,0,0.00029084,-1.5207e-06,-6479.2,-13761,0,1.1491e+08,9.373,12124,13103,1,13103,1,0.00057035,4.9302e-07,0,0.00057035,0.00010382,2.1585e+08,1.6885e+05,0,2.252e+08,15491,13102,12124,1,12124,1,8.2816e-06,-3.0096e-08,0,0.00029102,-1.5286e-06,3.2416e+06,-9965,0,1.1582e+08,-718.48,12123,11097,1,11097,1,-0.00055366,-3.8456e-07,0,1.2462e-05,-0.00010686,-2.252e+08,-1.2971e+05,0,5.0747e+06,-13187,11096,11648,1,11648,1,-0.00028267,-1.6791e-07,0,0.00014548,-5.6074e-05,-1.1497e+08,-57314,0,5.818e+07,-3619,11647,12600,1,12600,1,0.0002993,5.9141e-08,0,0.00043647,5.3024e-05,1.1598e+08,19533,0,1.7191e+08,2886.3,12599,551.74,0,551.74,0,0.0003357,1.8151e-07,0,0.00016772,6.2927e-05,1.3237e+08,61156,0,6.5641e+07,5055,551.74,1
1904,2.06,12125,1,12125,1,8.4681e-06,-5.0082e-08,0,0.00029209,-1.553e-06,6380.1,-16818,0,1.1536e+08,-214.12,12124,13103,1,13103,1,0.00057305,4.6934e-07,0,0.00057305,0.00010427,2.1667e+08,1.5784e+05,0,2.2616e+08,14208,13102,12124,1,12124,1,8.456e-06,-2.7666e-08,0,0.0002923,-1.5561e-06,3.3101e+06,-9258.1,0,1.1629e+08,-67.785,12123,11097,1,11097,1,-0.00055603,-4.5705e-07,0,1.2378e-05,-0.00010737,-2.2616e+08,-1.5358e+05,0,5.041e+06,-14563,11096,11648,1,11648,1,-0.00028379,-1.7428e-07,0,0.00014613,-5.635e-05,-1.1543e+08,-58693,0,5.843e+07,-4119.7,11647,12600,1,12600,1,0.00030076,5.4074e-08,0,0.0004384,5.3236e-05,1.1647e+08,18231,0,1.7259e+08,3789.7,12599,551.74,0,551.74,0,0.00033714,1.8353e-07,0,0.00016844,6.3198e-05,1.3288e+08,61785,0,6.5891e+07,5399,551.74,1
1904,2.07,12125,1,12125,1,8.5744e-06,-4.525e-08,0,0.00029346,-1.5717e-06,1514.2,-15202,0,1.1588e+08,105.52,12124,13103,1,13103,1,0.0005758,6.1121e-07,0,0.0005758,0.00010474,2.1756e+08,2.0879e+05,0,2.2719e+08,20554,13102,12124,1,12124,1,8.5544e-06,-3.8133e-08,0,0.00029365,-1.5755e-06,3.3485e+06,-12525,0,1.1681e+08,-1033.3,12123,11097,1,11097,1,-0.00055857,-4.5714e-07,0,1.2374e-05,-0.00010788,-2.2719e+08,-1.5395e+05,0,5.0396e+06,-20671,11096,11648,1,11648,1,-0.00028503,-2.122e-07,0,0.0001468,-5.662e-05,-1.1593e+08,-70249,0,5.8688e+07,-4699.8,11647,12600,1,12600,1,0.00030221,6.5338e-08,0,0.00044043,5.3472e-05,1.1698e+08,21726,0,1.7333e+08,4272.1,12599,551.74,0,551.74,0,0.00033872,2.26e-07,0,0.00016924,6.3497e-05,1.3347e+08,76062,0,6.6179e+07,7212.2,551.74,1
1904,2.08,12125,1,12125,1,8.7004e-06,-2.7053e-08,0,0.00029484,-1.5949e-06,2315.7,-9084.1,0,1.1639e+08,38.175,12124,13103,1,13103,1,0.00057836,4.8951e-07,0,0.00057836,0.00010517,2.1837e+08,1.6455e+05,0,2.2813e+08,14177,13102,12124,1,12124,1,8.6877e-06,-1.4872e-08,0,0.00029501,-1.5981e-06,3.3996e+06,-4922.5,0,1.1732e+08,326.58,12123,11097,1,11097,1,-0.00056087,-4.0683e-07,0,1.2346e-05,-0.00010836,-2.2813e+08,-1.3678e+05,0,5.0281e+06,-14470,11096,11648,1,11648,1,-0.00028626,-1.4049e-07,0,0.00014748,-5.6899e-05,-1.1643e+08,-46798,0,5.8947e+07,-3796.6,11647,12600,1,12600,1,0.0003037,6.5839e-08,0,0.00044246,5.3702e-05,1.175e+08,21809,0,1.7408e+08,4109.1,12599,551.74,0,551.74,0,0.00034032,1.7389e-07,0,0.00017004,6.3793e-05,1.3405e+08,58530,0,6.6466e+07,5310.5,551.74,1
1904,2.09,12125,1,12125,1,8.825e-06,-7.2239e-08,0,0.00029651,-1.6194e-06,-1551.8,-24211,0,1.1701e+08,-678.77,12124,13103,1,13103,1,0.00058218,6.6637e-07,0,0.00058218,0.00010584,2.1967e+08,2.2779e+05,0,2.2958e+08,28721,13102,12124,1,12124,1,8.8088e-06,-6.1567e-08,0,0.00029675,-1.6226e-06,3.446e+06,-19991,0,1.1799e+08,-1625.4,12123,11097,1,11097,1,-0.00056443,-4.643e-07,0,1.2338e-05,-0.00010908,-2.2958e+08,-1.5693e+05,0,5.0254e+06,-24982,11096,11648,1,11648,1,-0.00028786,-2.4653e-07,0,0.00014833,-5.7246e-05,-1.1708e+08,-82550,0,5.9281e+07,-5677.7,11647,12600,1,12600,1,0.00030554,4.0485e-08,0,0.00044504,5.3998e-05,1.1816e+08,13584,0,1.7505e+08,3222,12599,551.74,0,551.74,0,0.00034224,2.3216e-07,0,0.000171,6.4157e-05,1.3477e+08,78155,0,6.6818e+07,8597,551.74,1
1904,2.1,12125,1,12125,1,8.9736e-06,-3.0667e-08,0,0.00029765,-1.6451e-06,4058.9,-10294,0,1.1742e+08,5.1392,12124,13103,1,13103,1,0.00058414,5.1894e-07,0,0.00058414,0.00010615,2.2019e+08,1.7437e+05,0,2.3024e+08,14287,13102,12124,1,12124,1,8.9593e-06,-1.4923e-08,0,0.00029783,-1.6475e-06,3.5049e+06,-4987.6,0,1.1838e+08,236.31,12123,11097,1,11097,1,-0.00056607,-4.7267e-07,0,1.2268e-05,-0.00010944,-2.3024e+08,-1.5869e+05,0,4.9972e+06,-15174,11096,11648,1,11648,1,-0.0002888,-1.547e-07,0,0.00014889,-5.748e-05,-1.1746e+08,-50953,0,5.9486e+07,-4363.8,11647,12600,1,12600,1,0.0003068,7.5496e-08,0,0.00044668,5.418e-05,1.1857e+08,25197,0,1.7562e+08,4762.9,12599,551.74,0,551.74,0,0.00034356,1.9277e-07,0,0.00017167,6.4401e-05,1.3524e+08,64853,0,6.7046e+07,5858.4,551.74,1
1904,2.11,12125,1,12125,1,9.0751e-06,-2.9547e-08,0,0.00029896,-1.6663e-06,-1282.6,-9914.6,0,1.179e+08,-1095,12124,13103,1,13103,1,0.00058681,6.9251e-07,0,0.00058681,0.00010662,2.2108e+08,2.3563e+05,0,2.3126e+08,16634,13102,12124,1,12124,1,9.0529e-06,-3.246e-08,0,0.00029912,-1.6629e-06,3.5411e+06,-10662,0,1.1887e+08,-1079.4,12123,11097,1,11097,1,-0.00056858,-5.127e-07,0,1.2264e-05,-0.00010994,-2.3126e+08,-1.7256e+05,0,4.996e+06,-24316,11096,11648,1,11648,1,-0.00029,-1.9532e-07,0,0.00014954,-5.774e-05,-1.1795e+08,-65872,0,5.9736e+07,-5800.4,11647,12600,1,12600,1,0.00030819,9.4464e-08,0,0.00044863,5.4403e-05,1.1906e+08,31416,0,1.7633e+08,4194.9,12599,551.74,0,551.74,0,0.00034506,2.4905e-07,0,0.00017242,6.4686e-05,1.358e+08,83710,0,6.7318e+07,7535.9,551.74,1
1904,2.12,12125,1,12125,1,9.2038e-06,5.4508e-09,0,0.00030011,-1.6905e-06,2998.7,1819.4,0,1.1832e+08,-1322.4,12124,13103,1,13103,1,0.00058902,6.9471e-07,0,0.00058902,0.00010699,2.2176e+08,2.3534e+05,0,2.3206e+08,16262,13102,12124,1,12124,1,9.1917e-06,-4.7839e-09,0,0.00030027,-1.6968e-06,3.5931e+06,-1571.3,0,1.193e+08,-716.69,12123,11097,1,11097,1,-0.00057053,-5.3309e-07,0,1.2221e-05,-0.00011036,-2.3206e+08,-1.7927e+05,0,4.9789e+06,-25020,11096,11648,1,11648,1,-0.00029101,-1.5651e-07,0,0.00015011,-5.799e-05,-1.1836e+08,-51693,0,5.9951e+07,-6254.8,11647,12600,1,12600,1,0.00030946,1.4284e-07,0,0.00045032,5.4601e-05,1.1949e+08,47870,0,1.7694e+08,4848.1,12599,551.74,0,551.74,0,0.00034639,2.4628e-07,0,0.00017309,6.4935e-05,1.3628e+08,82845,0,6.7553e+07,7525.9,551.74,1
1904,2.13,12125,1,12125,1,9.3276e-06,-5.0977e-08,0,0.00030191,-1.7139e-06,-21.98,-17069,0,1.1901e+08,-1649.6,12124,13103,1,13103,1,0.00059297,5.9902e-07,0,0.00059297,0.00010768,2.2311e+08,2.029e+05,0,2.3356e+08,17137,13102,12124,1,12124,1,9.3086e-06,-3.5025e-08,0,0.00030213,-1.7182e-06,3.6398e+06,-11429,0,1.2002e+08,-2198.9,12123,11097,1,11097,1,-0.00057422,-4.8648e-07,0,1.222e-05,-0.00011109,-2.3356e+08,-1.6371e+05,0,4.979e+06,-19537,11096,11648,1,11648,1,-0.00029274,-2.1864e-07,0,0.00015103,-5.8351e-05,-1.1907e+08,-73409,0,6.0314e+07,-6110,11647,12600,1,12600,1,0.00031144,7.1945e-08,0,0.00045313,5.4916e-05,1.2021e+08,24271,0,1.78e+08,2598.4,12599,551.74,0,551.74,0,0.00034848,2.3024e-07,0,0.00017414,6.5322e-05,1.3706e+08,77458,0,6.794e+07,6593.7,551.74,1
1904,2.14,12125,1,12125,1,9.4908e-06,-2.6665e-08,0,0.00030323,-1.7437e-06,4464.4,-8942.2,0,1.1948e+08,-1587.7,12124,13103,1,13103,1,0.00059548,6.3891e-07,0,0.00059548,0.00010808,2.2383e+08,2.1634e+05,0,2.3444e+08,17445,13102,12124,1,12124,1,9.4752e-06,-2.6486e-08,0,0.00030342,-1.7521e-06,3.704e+06,-8441.4,0,1.205e+08,-607.44,12123,11097,1,11097,1,-0.00057638,-4.554e-07,0,1.2157e-05,-0.00011156,-2.3444e+08,-1.5314e+05,0,4.953e+06,-26742,11096,11648,1,11648,1,-0.00029387,-1.8828e-07,0,0.00015167,-5.862e-05,-1.1953e+08,-63959,0,6.0553e+07,-5391.1,11647,12600,1,12600,1,0.00031289,9.0448e-08,0,0.00045504,5.5127e-05,1.2069e+08,30522,0,1.7868e+08,3291.9,12599,551.74,0,551.74,0,0.00035,2.2692e-07,0,0.00017491,6.561e-05,1.3761e+08,76313,0,6.8205e+07,7374,551.74,1
1904,2.15,12125,1,12125,1,9.6248e-06,-1.3815e-08,0,0.00030472,-1.7686e-06,3980.1,-4634.6,0,1.2003e+08,-1756.1,12124,13103,1,13103,1,0.00059832,5.3342e-07,0,0.00059832,0.00010857,2.2474e+08,1.8257e+05,0,2.3549e+08,12056,13102,12124,1,12124,1,9.6065e-06,-1.4712e-08,0,0.00030488,-1.7788e-06,3.7548e+06,-4812.9,0,1.2105e+08,-1385.2,12123,11097,1,11097,1,-0.00057896,-4.2307e-07,0,1.2127e-05,-0.00011209,-2.3549e+08,-1.419e+05,0,4.9411e+06,-16173,11096,11648,1,11648,1,-0.0002952,-1.5072e-07,0,0.00015241,-5.8915e-05,-1.2007e+08,-51092,0,6.0836e+07,-5449.2,11647,12600,1,12600,1,0.00031449,9.3345e-08,0,0.00045725,5.5384e-05,1.2124e+08,30970,0,1.7948e+08,2601.6,12599,551.74,0,551.74,0,0.00035172,2.0171e-07,0,0.00017577,6.5929e-05,1.3824e+08,67779,0,6.8516e+07,5553.1,551.74,1
1904,2.16,12125,1,12125,1,9.75e-06,-1.2906e-08,0,0.00030614,-1.7884e-06,-2170.5,-4320.2,0,1.2055e+08,-472.43,12124,13103,1,13103,1,0.00060118,5.7281e-07,0,0.00060118,0.00010906,2.2564e+08,1.9421e+05,0,2.3656e+08,17266,13102,12124,1,12124,1,9.736e-06,-7.9071e-09,0,0.0003063,-1.7972e-06,3.8051e+06,-2655.5,0,1.2158e+08,-25.758,12123,11097,1,11097,1,-0.00058159,-4.7508e-07,0,1.21e-05,-0.00011263,-2.3656e+08,-1.5929e+05,0,4.9309e+06,-25347,11096,11648,1,11648,1,-0.0002965,-1.4624e-07,0,0.00015313,-5.9214e-05,-1.206e+08,-48834,0,6.1111e+07,-4643.5,11647,12600,1,12600,1,0.00031604,1.0175e-07,0,0.00045938,5.5626e-05,1.2178e+08,33911,0,1.8025e+08,4833.8,12599,551.74,0,551.74,0,0.00035336,2.0477e-07,0,0.0001766,6.6238e-05,1.3883e+08,68840,0,6.8807e+07,6856.4,551.74,1
1904,2.17,12125,1,12125,1,9.9124e-06,-6.5823e-08,0,0.00030799,-1.8213e-06,1276,-22005,0,1.2124e+08,-1730.7,12124,13103,1,13103,1,0.00060533,5.4459e-07,0,0.00060533,0.00010978,2.2703e+08,1.8639e+05,0,2.3811e+08,16815,13102,12124,1,12124,1,9.9019e-06,-4.9247e-08,0,0.00030822,-1.8282e-06,3.8681e+06,-15914,0,1.2232e+08,-1534.3,12123,11097,1,11097,1,-0.00058542,-4.7446e-07,0,1.207e-05,-0.00011341,-2.3811e+08,-1.595e+05,0,4.9189e+06,-19549,11096,11648,1,11648,1,-0.00029825,-2.2175e-07,0,0.00015408,-5.9595e-05,-1.2131e+08,-74255,0,6.148e+07,-5661,11647,12600,1,12600,1,0.00031811,5.1562e-08,0,0.00046227,5.5946e-05,1.2251e+08,16855,0,1.8133e+08,2638.6,12599,551.74,0,551.74,0,0.00035549,2.1812e-07,0,0.00017767,6.6636e-05,1.3963e+08,73344,0,6.9196e+07,6405.6,551.74,1
1904,2.18,12125,1,12125,1,1.0071e-05,-3.1014e-08,0,0.00030929,-1.8519e-06,22.426,-10402,0,1.217e+08,-2385.9,12124,13103,1,13103,1,0.00060785,6.0264e-07,0,0.00060785,0.00011019,2.2772e+08,2.0453e+05,0,2.39e+08,15585,13102,12124,1,12124,1,1.0057e-05,-2.7073e-08,0,0.0003095,-1.859e-06,3.9283e+06,-8957,0,1.2278e+08,-1268.8,12123,11097,1,11097,1,-0.00058759,-4.4581e-07,0,1.2005e-05,-0.00011388,-2.39e+08,-1.4964e+05,0,4.8933e+06,-24695,11096,11648,1,11648,1,-0.00029936,-1.9242e-07,0,0.00015471,-5.9867e-05,-1.2176e+08,-63838,0,6.1716e+07,-5960.9,11647,12600,1,12600,1,0.00031955,7.8516e-08,0,0.00046416,5.6154e-05,1.2298e+08,25797,0,1.8199e+08,2192.2,12599,551.74,0,551.74,0,0.00035699,2.2023e-07,0,0.00017842,6.6917e-05,1.4015e+08,74001,0,6.9452e+07,7013.2,551.74,1
1904,2.19,12125,1,12125,1,1.0227e-05,-6.7285e-08,0,0.00031076,-1.8816e-06,7110.9,-22515,0,1.2224e+08,-2785,12124,13103,1,13103,1,0.000611,6.0226e-07,0,0.000611,0.00011072,2.2874e+08,2.02e+05,0,2.4015e+08,14655,13102,12124,1,12124,1,1.0211e-05,-5.5877e-08,0,0.00031099,-1.8902e-06,3.9877e+06,-18083,0,1.2335e+08,-2436.2,12123,11097,1,11097,1,-0.00059043,-4.4765e-07,0,1.196e-05,-0.00011447,-2.4015e+08,-1.5024e+05,0,4.8753e+06,-24544,11096,11648,1,11648,1,-0.00030069,-2.2891e-07,0,0.00015545,-6.0172e-05,-1.223e+08,-76859,0,6.2003e+07,-6631.9,11647,12600,1,12600,1,0.00032119,4.2187e-08,0,0.0004664,5.6406e-05,1.2355e+08,14126,0,1.828e+08,1818.4,12599,551.74,0,551.74,0,0.00035869,2.1897e-07,0,0.00017928,6.7235e-05,1.4077e+08,73575,0,6.9757e+07,7522.7,551.74,1
1904,2.2,12125,1,12125,1,1.0361e-05,-3.2611e-08,0,0.00031205,-1.9038e-06,3865.3,-10924,0,1.2271e+08,-1800.4,12124,13103,1,13103,1,0.00061338,5.7117e-07,0,0.00061338,0.00011111,2.2944e+08,1.9427e+05,0,2.4101e+08,15980,13102,12124,1,12124,1,1.0348e-05,-2.4266e-08,0,0.00031225,-1.9098e-06,4.0413e+06,-8016.7,0,1.2382e+08,-1062.9,12123,11097,1,11097,1,-0.00059253,-4.7383e-07,0,1.1909e-05,-0.00011491,-2.4101e+08,-1.5872e+05,0,4.8551e+06,-24309,11096,11648,1,11648,1,-0.00030183,-1.7261e-07,0,0.00015609,-6.0437e-05,-1.2276e+08,-58193,0,6.2242e+07,-5629.4,11647,12600,1,12600,1,0.0003226,6.9734e-08,0,0.00046829,5.6619e-05,1.2403e+08,23072,0,1.8348e+08,3155.2,12599,551.74,0,551.74,0,0.00036017,2.0615e-07,0,0.00018003,6.7514e-05,1.4131e+08,69254,0,7.0018e+07,6886.4,551.74,1
1904,2.21,12125,1,12125,1,1.0503e-05,-6.2509e-08,0,0.00031353,-1.932e-06,4313.4,-20905,0,1.2326e+08,-2749,12124,13103,1,13103,1,0.00061661,6.4522e-07,0,0.00061661,0.00011167,2.3049e+08,2.1631e+05,0,2.4221e+08,15588,13102,12124,1,12124,1,1.0488e-05,-5.2376e-08,0,0.00031376,-1.9404e-06,4.0943e+06,-17395,0,1.2439e+08,-2456.1,12123,11097,1,11097,1,-0.00059549,-4.7279e-07,0,1.1882e-05,-0.00011552,-2.4221e+08,-1.587e+05,0,4.8442e+06,-25078,11096,11648,1,11648,1,-0.00030319,-2.3306e-07,0,0.00015684,-6.0743e-05,-1.2332e+08,-77952,0,6.2531e+07,-6691.8,11647,12600,1,12600,1,0.00032424,5.13e-08,0,0.00047057,5.6875e-05,1.246e+08,17091,0,1.8431e+08,2043.5,12599,551.74,0,551.74,0,0.00036189,2.3151e-07,0,0.00018089,6.7835e-05,1.4194e+08,77753,0,7.0326e+07,7798.1,551.74,1
1904,2.22,12125,1,12125,1,1.064e-05,-6.0564e-08,0,0.00031511,-1.9547e-06,-2657.7,-20268,0,1.2384e+08,-1757.6,12124,13103,1,13103,1,0.00061969,5.0155e-07,0,0.00061969,0.00011219,2.3144e+08,1.7097e+05,0,2.4335e+08,16318,13102,12124,1,12124,1,1.0625e-05,-4.7546e-08,0,0.00031534,-1.9624e-06,4.148e+06,-15632,0,1.2498e+08,-991.68,12123,11097,1,11097,1,-0.0005983,-4.395e-07,0,1.1854e-05,-0.00011609,-2.4335e+08,-1.4746e+05,0,4.8331e+06,-23945,11096,11648,1,11648,1,-0.00030464,-1.9726e-07,0,0.00015763,-6.1063e-05,-1.2391e+08,-65870,0,6.2833e+07,-5027.1,11647,12600,1,12600,1,0.00032596,3.7232e-08,0,0.00047292,5.7142e-05,1.2519e+08,12426,0,1.8516e+08,2172.7,12599,551.74,0,551.74,0,0.00036372,1.8973e-07,0,0.00018181,6.8176e-05,1.426e+08,63740,0,7.0653e+07,6504.3,551.74,1
1904,2.23,12125,1,12125,1,1.081e-05,-3.2222e-08,0,0.00031649,-1.9883e-06,2894.7,-10768,0,1.2433e+08,-2726.6,12124,13103,1,13103,1,0.00062233,6.2654e-07,0,0.00062233,0.00011263,2.3223e+08,2.0995e+05,0,2.4429e+08,13773,13102,12124,1,12124,1,1.08e-05,-2.9055e-08,0,0.00031667,-1.9983e-06,4.2152e+06,-9494,0,1.2547e+08,-2271.9,12123,11097,1,11097,1,-0.0006006,-4.2632e-07,0,1.1776e-05,-0.00011658,-2.4429e+08,-1.43e+05,0,4.8019e+06,-24616,11096,11648,1,11648,1,-0.00030579,-1.7881e-07,0,0.0001583,-6.1343e-05,-1.2438e+08,-60523,0,6.3081e+07,-6586.5,11647,12600,1,12600,1,0.00032746,6.7287e-08,0,0.00047493,5.7364e-05,1.2569e+08,21767,0,1.8587e+08,2140.2,12599,551.74,0,551.74,0,0.0003653,2.1348e-07,0,0.00018261,6.8474e-05,1.4317e+08,71666,0,7.0929e+07,7355.2,551.74,1
1904,2.24,12125,1,12125,1,1.0964e-05,-4.0713e-08,0,0.00031807,-2.0143e-06,3345,-13615,0,1.2491e+08,-1841.4,12124,13103,1,13103,1,0.00062561,5.3367e-07,0,0.00062561,0.00011318,2.3328e+08,1.8185e+05,0,2.4549e+08,16217,13102,12124,1,12124,1,1.0951e-05,-3.5673e-08,0,0.00031828,-2.0216e-06,4.2736e+06,-11514,0,1.2608e+08,-942.95,12123,11097,1,11097,1,-0.00060357,-4.3391e-07,0,1.1738e-05,-0.0001172,-2.4549e+08,-1.4521e+05,0,4.7873e+06,-24184,11096,11648,1,11648,1,-0.00030725,-1.766e-07,0,0.0001591,-6.1673e-05,-1.2497e+08,-59213,0,6.3391e+07,-5312.2,11647,12600,1,12600,1,0.00032922,5.873e-08,0,0.00047733,5.7635e-05,1.263e+08,19118,0,1.8675e+08,2335.6,12599,551.74,0,551.74,0,0.00036713,1.9328e-07,0,0.00018352,6.8815e-05,1.4384e+08,64891,0,7.1256e+07,6588.8,551.74,1
1904,2.25,12125,1,12125,1,1.1109e-05,-7.6321e-08,0,0.00031935,-2.0421e-06,-1271.5,-25507,0,1.2537e+08,-2358.7,12124,13103,1,13103,1,0.00062856,6.0934e-07,0,0.00062856,0.00011368,2.3416e+08,2.041e+05,0,2.4657e+08,15369,13102,12124,1,12124,1,1.1092e-05,-6.1585e-08,0,0.0003196,-2.0491e-06,4.3278e+06,-20309,0,1.2657e+08,-2166.8,12123,11097,1,11097,1,-0.00060621,-4.8118e-07,0,1.1687e-05,-0.00011775,-2.4657e+08,-1.6128e+05,0,4.7668e+06,-23848,11096,11648,1,11648,1,-0.00030842,-2.4789e-07,0,0.00015975,-6.1947e-05,-1.2545e+08,-82944,0,6.3639e+07,-6325.9,11647,12600,1,12600,1,0.00033068,4.0831e-08,0,0.00047931,5.7857e-05,1.2678e+08,13809,0,1.8745e+08,2437.7,12599,551.74,0,551.74,0,0.00036861,2.2967e-07,0,0.00018427,6.9093e-05,1.4436e+08,77074,0,7.1511e+07,7669,551.74,1
1904,2.26,12125,1,12125,1,1.1252e-05,-3.1105e-08,0,0.00032062,-2.0676e-06,388.12,-10413,0,1.2583e+08,-2080.6,12124,13103,1,13103,1,0.00063099,6.7753e-07,0,0.00063099,0.00011408,2.3488e+08,2.3164e+05,0,2.4744e+08,14518,13102,12124,1,12124,1,1.1234e-05,-2.9297e-08,0,0.00032085,-2.0757e-06,4.3828e+06,-9645.7,0,1.2703e+08,-535.09,12123,11097,1,11097,1,-0.00060836,-5.1536e-07,0,1.1637e-05,-0.00011821,-2.4744e+08,-1.7271e+05,0,4.7457e+06,-24010,11096,11648,1,11648,1,-0.00030952,-2.1445e-07,0,0.00016038,-6.2208e-05,-1.2589e+08,-72030,0,6.3873e+07,-6420.8,11647,12600,1,12600,1,0.00033208,9.7874e-08,0,0.00048117,5.8064e-05,1.2725e+08,32885,0,1.8811e+08,3649.4,12599,551.74,0,551.74,0,0.00037007,2.5617e-07,0,0.00018501,6.9367e-05,1.4489e+08,85934,0,7.1768e+07,7593.3,551.74,1
1904,2.27,12125,1,12125,1,1.1397e-05,-6.9938e-08,0,0.00032215,-2.0954e-06,-1126.1,-23356,0,1.2639e+08,-2616.5,12124,13103,1,13103,1,0.00063418,6.3698e-07,0,0.00063418,0.00011462,2.359e+08,2.1325e+05,0,2.4862e+08,15925,13102,12124,1,12124,1,1.1382e-05,-5.7589e-08,0,0.00032239,-2.1041e-06,4.4394e+06,-18778,0,1.2761e+08,-2271.9,12123,11097,1,11097,1,-0.00061125,-4.879e-07,0,1.1596e-05,-0.0001188,-2.4862e+08,-1.6358e+05,0,4.7304e+06,-24887,11096,11648,1,11648,1,-0.00031092,-2.4103e-07,0,0.00016114,-6.2521e-05,-1.2646e+08,-80667,0,6.4167e+07,-6588.5,11647,12600,1,12600,1,0.00033376,4.691e-08,0,0.00048349,5.8325e-05,1.2783e+08,15310,0,1.8896e+08,2184.7,12599,551.74,0,551.74,0,0.00037183,2.3259e-07,0,0.00018589,6.9697e-05,1.4553e+08,78044,0,7.2084e+07,7837.6,551.74,1
1904,2.28,12125,1,12125,1,1.156e-05,-2.1533e-08,0,0.00032346,-2.1235e-06,1885.8,-7210.4,0,1.2686e+08,-1798.1,12124,13103,1,13103,1,0.00063667,6.4522e-07,0,0.00063667,0.00011503,2.3661e+08,2.2058e+05,0,2.4949e+08,12810,13102,12124,1,12124,1,1.1546e-05,-1.8592e-08,0,0.00032368,-2.1305e-06,4.5028e+06,-6193.4,0,1.2809e+08,-558.87,12123,11097,1,11097,1,-0.0006134,-5.1765e-07,0,1.1527e-05,-0.00011927,-2.4949e+08,-1.7316e+05,0,4.7018e+06,-21906,11096,11648,1,11648,1,-0.00031204,-1.9114e-07,0,0.00016179,-6.2795e-05,-1.2692e+08,-64330,0,6.4408e+07,-5974.9,11647,12600,1,12600,1,0.00033522,1.0531e-07,0,0.00048541,5.854e-05,1.2831e+08,34629,0,1.8963e+08,3929.1,12599,551.74,0,551.74,0,0.00037335,2.4399e-07,0,0.00018666,6.998e-05,1.4607e+08,81820,0,7.2346e+07,7169,551.74,1
1904,2.29,12125,1,12125,1,1.1714e-05,-2.8291e-08,0,0.00032461,-2.1566e-06,6369,-9440.9,0,1.2727e+08,-3834,12124,13103,1,13103,1,0.00063918,8.4614e-07,0,0.00063918,0.00011545,2.3738e+08,2.8312e+05,0,2.504e+08,16647,13102,12124,1,12124,1,1.1701e-05,-3.0514e-08,0,0.00032482,-2.168e-06,4.5598e+06,-9748.2,0,1.2851e+08,-3312.8,12123,11097,1,11097,1,-0.00061563,-5.6876e-07,0,1.146e-05,-0.00011974,-2.504e+08,-1.9053e+05,0,4.676e+06,-28893,11096,11648,1,11648,1,-0.00031304,-2.3487e-07,0,0.00016237,-6.304e-05,-1.2732e+08,-79363,0,6.4626e+07,-9031.2,11647,12600,1,12600,1,0.00033652,1.1965e-07,0,0.00048715,5.8727e-05,1.2874e+08,39762,0,1.9024e+08,2645.1,12599,551.74,0,551.74,0,0.00037467,2.9514e-07,0,0.00018732,7.0231e-05,1.4654e+08,98938,0,7.2573e+07,9329.9,551.74,1
1904,2.3,12125,1,12125,1,1.1835e-05,-1.2246e-09,0,0.00032597,-2.1749e-06,-44.242,-407.42,0,1.2777e+08,-2226.8,12124,13103,1,13103,1,0.00064183,7.6937e-07,0,0.00064183,0.00011589,2.3819e+08,2.6284e+05,0,2.5138e+08,14773,13102,12124,1,12124,1,1.1818e-05,-1.2049e-08,0,0.00032618,-2.1837e-06,4.6056e+06,-3930.6,0,1.2901e+08,-1219.6,12123,11097,1,11097,1,-0.00061803,-5.6099e-07,0,1.1437e-05,-0.00012023,-2.5138e+08,-1.8826e+05,0,4.6673e+06,-24959,11096,11648,1,11648,1,-0.00031428,-1.9167e-07,0,0.00016307,-6.3315e-05,-1.2783e+08,-64225,0,6.489e+07,-7294.2,11647,12600,1,12600,1,0.00033799,1.4655e-07,0,0.00048916,5.8962e-05,1.2924e+08,48365,0,1.9097e+08,4387.8,12599,551.74,0,551.74,0,0.00037625,2.7958e-07,0,0.00018812,7.0525e-05,1.4711e+08,93709,0,7.2854e+07,8153.2,551.74,1
1904,2.31,12125,1,12125,1,1.2018e-05,-3.6467e-08,0,0.00032782,-2.2064e-06,4841.7,-12162,0,1.2846e+08,-1449.3,12124,13103,1,13103,1,0.00064541,5.3798e-07,0,0.00064541,0.0001165,2.3933e+08,1.7995e+05,0,2.5269e+08,12517,13102,12124,1,12124,1,1.2004e-05,-2.1684e-08,0,0.000328,-2.2167e-06,4.6794e+06,-7243,0,1.2971e+08,-782.07,12123,11097,1,11097,1,-0.00062127,-4.7524e-07,0,1.1385e-05,-0.0001209,-2.5269e+08,-1.5928e+05,0,4.6461e+06,-21350,11096,11648,1,11648,1,-0.00031592,-1.7381e-07,0,0.00016397,-6.3684e-05,-1.285e+08,-58023,0,6.5235e+07,-5737.1,11647,12600,1,12600,1,0.00034001,7.5879e-08,0,0.00049193,5.9268e-05,1.2995e+08,25225,0,1.9198e+08,3586,12599,551.74,0,551.74,0,0.00037839,2.0797e-07,0,0.0001892,7.0923e-05,1.479e+08,69720,0,7.3242e+07,6653,551.74,1
1904,2.32,12125,1,12125,1,1.2203e-05,6.7684e-09,0,0.0003292,-2.2436e-06,4421.2,2282.7,0,1.2894e+08,-2742.7,12124,13103,1,13103,1,0.00064827,6.9303e-07,0,0.00064827,0.00011696,2.4015e+08,2.3671e+05,0,2.5369e+08,13952,13102,12124,1,12124,1,1.2185e-05,-1.0859e-08,0,0.00032939,-2.2544e-06,4.7477e+06,-3601.8,0,1.3021e+08,-1847.7,12123,11097,1,11097,1,-0.0006237,-4.8391e-07,0,1.13e-05,-0.00012144,-2.5369e+08,-1.6163e+05,0,4.613e+06,-23070,11096,11648,1,11648,1,-0.00031712,-1.5491e-07,0,0.00016467,-6.3983e-05,-1.2898e+08,-51396,0,6.5497e+07,-6879.2,11647,12600,1,12600,1,0.00034158,1.2603e-07,0,0.00049397,5.9497e-05,1.3045e+08,41394,0,1.927e+08,2851.5,12599,551.74,0,551.74,0,0.00037998,2.3995e-07,0,0.00019,7.1222e-05,1.4845e+08,80354,0,7.351e+07,7034.2,551.74,1
1904,2.33,12125,1,12125,1,1.238e-05,-5.1157e-08,0,0.00033093,-2.2723e-06,6249.5,-17067,0,1.2958e+08,-1184.4,12124,13103,1,13103,1,0.00065196,5.1571e-07,0,0.00065196,0.0001176,2.4132e+08,1.7242e+05,0,2.5507e+08,12743,13102,12124,1,12124,1,1.2362e-05,-3.3311e-08,0,0.00033115,-2.281e-06,4.8173e+06,-10968,0,1.3088e+08,-724.8,12123,11097,1,11097,1,-0.0006271,-4.4197e-07,0,1.125e-05,-0.00012213,-2.5507e+08,-1.48e+05,0,4.5927e+06,-19916,11096,11648,1,11648,1,-0.00031871,-1.9776e-07,0,0.00016554,-6.4337e-05,-1.2963e+08,-66546,0,6.5831e+07,-5150.7,11647,12600,1,12600,1,0.00034351,6.4457e-08,0,0.00049666,5.9788e-05,1.3112e+08,21254,0,1.9366e+08,3411.1,12599,551.74,0,551.74,0,0.00038198,2.055e-07,0,0.00019101,7.1595e-05,1.4918e+08,68857,0,7.3868e+07,6382.6,551.74,1
1904,2.34,12125,1,12125,1,1.2542e-05,-7.1194e-10,0,0.00033193,-2.3042e-06,3647.1,-248.58,0,1.2991e+08,-2117.6,12124,13103,1,13103,1,0.00065397,7.206e-07,0,0.00065397,0.0001179,2.4181e+08,2.4544e+05,0,2.5574e+08,13759,13102,12124,1,12124,1,1.2524e-05,-1.0764e-08,0,0.00033213,-2.3123e-06,4.8785e+06,-3610.9,0,1.3122e+08,-1195.3,12123,11097,1,11097,1,-0.00062875,-5.1886e-07,0,1.1153e-05,-0.0001225,-2.5574e+08,-1.7378e+05,0,4.5545e+06,-23166,11096,11648,1,11648,1,-0.00031952,-1.8046e-07,0,0.00016604,-6.4559e-05,-1.2996e+08,-59643,0,6.6012e+07,-6805.2,11647,12600,1,12600,1,0.00034466,1.3906e-07,0,0.00049809,5.9944e-05,1.3147e+08,45745,0,1.9414e+08,3965.8,12599,551.74,0,551.74,0,0.00038313,2.619e-07,0,0.00019159,7.1813e-05,1.4957e+08,87685,0,7.4052e+07,7523.7,551.74,1
1904,2.35,12125,1,12125,1,1.2702e-05,-3.6793e-08,0,0.00033392,-2.3313e-06,3658.2,-12266,0,1.3066e+08,-1178.8,12124,13103,1,13103,1,0.00065787,4.9465e-07,0,0.00065787,0.00011858,2.431e+08,1.653e+05,0,2.5721e+08,11750,13102,12124,1,12124,1,1.2689e-05,-2.0959e-08,0,0.00033411,-2.3407e-06,4.9427e+06,-6876,0,1.3198e+08,-514.23,12123,11097,1,11097,1,-0.00063236,-4.4114e-07,0,1.1135e-05,-0.00012323,-2.5721e+08,-1.4762e+05,0,4.5469e+06,-18958,11096,11648,1,11648,1,-0.00032134,-1.6625e-07,0,0.00016702,-6.4952e-05,-1.307e+08,-55412,0,6.6389e+07,-5261.9,11647,12600,1,12600,1,0.0003468,7.0151e-08,0,0.00050109,6.0285e-05,1.3222e+08,23361,0,1.9524e+08,3527.6,12599,551.74,0,551.74,0,0.00038542,1.9555e-07,0,0.00019275,7.224e-05,1.5042e+08,65506,0,7.4474e+07,6141.8,551.74,1
1904,2.36,12125,1,12125,1,1.2891e-05,-2.1364e-08,0,0.00033497,-2.3686e-06,3760.8,-7106.4,0,1.3101e+08,-2288.7,12124,13103,1,13103,1,0.00066026,6.2851e-07,0,0.00066026,0.00011895,2.4371e+08,2.1456e+05,0,2.58e+08,13234,13102,12124,1,12124,1,1.287e-05,-2.2457e-08,0,0.0003352,-2.3795e-06,5.0117e+06,-7491.4,0,1.3236e+08,-1443.2,12123,11097,1,11097,1,-0.00063431,-5.0832e-07,0,1.1023e-05,-0.00012368,-2.58e+08,-1.696e+05,0,4.5032e+06,-21956,11096,11648,1,11648,1,-0.00032224,-1.8145e-07,0,0.00016757,-6.5196e-05,-1.3107e+08,-60495,0,6.659e+07,-6194.8,11647,12600,1,12600,1,0.00034807,9.4216e-08,0,0.00050268,6.0459e-05,1.3261e+08,31044,0,1.9578e+08,2989.5,12599,551.74,0,551.74,0,0.00038664,2.3184e-07,0,0.00019336,7.2468e-05,1.5082e+08,77558,0,7.4666e+07,6772.5,551.74,1
1904,2.37,12125,1,12125,1,1.3061e-05,-6.2508e-08,0,0.000337,-2.3974e-06,3741.7,-20844,0,1.3176e+08,-1326.4,12124,13103,1,13103,1,0.00066435,4.5435e-07,0,0.00066435,0.00011966,2.4504e+08,1.5176e+05,0,2.5954e+08,11516,13102,12124,1,12124,1,1.3044e-05,-4.428e-08,0,0.00033722,-2.4066e-06,5.0793e+06,-14463,0,1.3313e+08,-846.06,12123,11097,1,11097,1,-0.00063811,-4.1448e-07,0,1.0996e-05,-0.00012444,-2.5954e+08,-1.3883e+05,0,4.492e+06,-19760,11096,11648,1,11648,1,-0.00032409,-1.993e-07,0,0.00016856,-6.5598e-05,-1.3182e+08,-65610,0,6.6976e+07,-4905.8,11647,12600,1,12600,1,0.00035026,4.3016e-08,0,0.00050576,6.0797e-05,1.3338e+08,14041,0,1.969e+08,2767.3,12599,551.74,0,551.74,0,0.00038898,1.8714e-07,0,0.00019454,7.2906e-05,1.5169e+08,62675,0,7.5095e+07,6045.8,551.74,1
1904,2.38,12125,1,12125,1,1.3233e-05,1.7196e-08,0,0.00033801,-2.4272e-06,-4367.9,5764.3,0,1.321e+08,-654.2,12124,13103,1,13103,1,0.00066604,6.058e-07,0,0.00066604,0.00011991,2.454e+08,2.0743e+05,0,2.6012e+08,12632,13102,12124,1,12124,1,1.3223e-05,4.2906e-09,0,0.00033814,-2.4439e-06,5.1488e+06,1365.3,0,1.3346e+08,-366.46,12123,11097,1,11097,1,-0.00063952,-4.1714e-07,0,1.0883e-05,-0.00012476,-2.6012e+08,-1.3958e+05,0,4.4478e+06,-16435,11096,11648,1,11648,1,-0.00032489,-1.1525e-07,0,0.00016907,-6.5814e-05,-1.3214e+08,-38000,0,6.7154e+07,-4891.1,11647,12600,1,12600,1,0.00035138,1.3145e-07,0,0.00050719,6.0947e-05,1.3371e+08,43585,0,1.9735e+08,4341.3,12599,551.74,0,551.74,0,0.00039014,2.0267e-07,0,0.00019513,7.3123e-05,1.5207e+08,67907,0,7.5275e+07,5957.1,551.74,1
1904,2.39,12125,1,12125,1,1.34e-05,-9.1e-08,0,0.00033935,-2.4585e-06,5368.7,-30312,0,1.3258e+08,-856.9,12124,13103,1,13103,1,0.00066944,4.6482e-07,0,0.00066944,0.00012049,2.4649e+08,1.5518e+05,0,2.6135e+08,12481,13102,12124,1,12124,1,1.3378e-05,-6.0225e-08,0,0.00033961,-2.4666e-06,5.2079e+06,-19528,0,1.34e+08,-522.39,12123,11097,1,11097,1,-0.00064254,-5.0084e-07,0,1.0832e-05,-0.00012539,-2.6135e+08,-1.6738e+05,0,4.4266e+06,-19585,11096,11648,1,11648,1,-0.00032615,-2.4796e-07,0,0.00016976,-6.6109e-05,-1.3265e+08,-81507,0,6.7424e+07,-4642.6,11647,12600,1,12600,1,0.00035298,3.1573e-08,0,0.00050934,6.1184e-05,1.3426e+08,10529,0,1.9814e+08,3529.1,12599,551.74,0,551.74,0,0.0003917,2.0856e-07,0,0.00019592,7.3414e-05,1.5263e+08,69796,0,7.555e+07,6269.4,551.74,1
1904,2.4,12125,1,12125,1,1.3548e-05,-8.9537e-09,0,0.00034077,-2.4853e-06,-2164.9,-2941.4,0,1.3309e+08,-807.02,12124,13103,1,13103,1,0.00067195,5.5156e-07,0,0.00067195,0.00012089,2.4717e+08,1.8885e+05,0,2.6221e+08,14987,13102,12124,1,12124,1,1.3531e-05,-8.7409e-09,0,0.00034097,-2.4978e-06,5.2666e+06,-2819.9,0,1.345e+08,-502.46,12123,11097,1,11097,1,-0.00064465,-4.3986e-07,0,1.0767e-05,-0.00012586,-2.6221e+08,-1.4661e+05,0,4.402e+06,-17606,11096,11648,1,11648,1,-0.00032734,-1.3453e-07,0,0.00017045,-6.6397e-05,-1.3314e+08,-44429,0,6.7676e+07,-5136.6,11647,12600,1,12600,1,0.00035451,9.2609e-08,0,0.00051133,6.1417e-05,1.3475e+08,30538,0,1.9884e+08,3734.5,12599,551.74,0,551.74,0,0.00039332,1.8952e-07,0,0.00019674,7.3719e-05,1.5321e+08,63423,0,7.5833e+07,6134.2,551.74,1
1904,2.41,12125,1,12125,1,1.3731e-05,-1.0386e-07,0,0.00034236,-2.5246e-06,-1309.1,-34563,0,1.3366e+08,-3166.1,12124,13103,1,13103,1,0.00067559,3.9248e-07,0,0.00067559,0.00012151,2.4832e+08,1.3429e+05,0,2.6356e+08,10363,13102,12124,1,12124,1,1.3711e-05,-7.4196e-08,0,0.00034264,-2.5442e-06,5.335e+06,-23852,0,1.3512e+08,-1479.1,12123,11097,1,11097,1,-0.00064798,-4.7809e-07,0,1.0706e-05,-0.00012654,-2.6356e+08,-1.5995e+05,0,4.3765e+06,-27554,11096,11648,1,11648,1,-0.00032882,-2.4149e-07,0,0.00017124,-6.6733e-05,-1.3374e+08,-79803,0,6.7984e+07,-5845.3,11647,12600,1,12600,1,0.0003563,9.0862e-09,0,0.00051382,6.1682e-05,1.3537e+08,3092.1,0,1.9974e+08,1646.3,12599,551.74,0,551.74,0,0.00039516,1.8458e-07,0,0.00019767,7.4062e-05,1.5387e+08,61828,0,7.6156e+07,6975.1,551.74,1
1904,2.42,12125,1,12125,1,1.3899e-05,2.3736e-09,0,0.00034341,-2.5498e-06,-2703.6,816.36,0,1.3402e+08,-894.5,12124,13103,1,13103,1,0.00067737,6.5544e-07,0,0.00067737,0.00012177,2.4871e+08,2.2442e+05,0,2.6413e+08,14045,13102,12124,1,12124,1,1.3887e-05,-2.4748e-09,0,0.0003436,-2.5669e-06,5.4035e+06,-799.75,0,1.3545e+08,-561.19,12123,11097,1,11097,1,-0.00064937,-4.9135e-07,0,1.0599e-05,-0.00012687,-2.6413e+08,-1.6421e+05,0,4.3343e+06,-18263,11096,11648,1,11648,1,-0.00032961,-1.4508e-07,0,0.00017177,-6.6956e-05,-1.3407e+08,-47963,0,6.8166e+07,-5601.6,11647,12600,1,12600,1,0.0003575,1.2736e-07,0,0.00051527,6.1838e-05,1.3572e+08,42689,0,2.0021e+08,4765.6,12599,551.74,0,551.74,0,0.00039638,2.2622e-07,0,0.00019828,7.4291e-05,1.5428e+08,75714,0,7.6353e+07,6677.7,551.74,1
1904,2.43,12125,1,12125,1,1.4061e-05,-8.7295e-08,0,0.000345,-2.5852e-06,-2389,-29018,0,1.346e+08,-3221.3,12124,13103,1,13103,1,0.00068098,4.6964e-07,0,0.00068098,0.0001224,2.4989e+08,1.6069e+05,0,2.6548e+08,11579,13102,12124,1,12124,1,1.4043e-05,-5.6555e-08,0,0.00034528,-2.6075e-06,5.4618e+06,-18394,0,1.3609e+08,-1188.5,12123,11097,1,11097,1,-0.00065271,-5.1964e-07,0,1.0565e-05,-0.00012755,-2.6548e+08,-1.7373e+05,0,4.3206e+06,-29678,11096,11648,1,11648,1,-0.00033114,-2.3077e-07,0,0.00017257,-6.7292e-05,-1.3468e+08,-77024,0,6.8478e+07,-6456,11647,12600,1,12600,1,0.00035929,3.0999e-08,0,0.00051779,6.212e-05,1.3635e+08,10190,0,2.0114e+08,2183.6,12599,551.74,0,551.74,0,0.00039821,2.0559e-07,0,0.00019921,7.4634e-05,1.5494e+08,68821,0,7.6681e+07,7736.1,551.74,1
1904,2.44,12125,1,12125,1,1.423e-05,-2.5451e-08,0,0.000346,-2.6094e-06,-2583.3,-8405.5,0,1.3494e+08,-366.86,12124,13103,1,13103,1,0.00068307,6.9413e-07,0,0.00068307,0.00012271,2.5039e+08,2.3767e+05,0,2.6616e+08,17075,13102,12124,1,12124,1,1.421e-05,-1.9856e-08,0,0.00034627,-2.6201e-06,5.5264e+06,-6338.4,0,1.3643e+08,3.1352,12123,11097,1,11097,1,-0.00065437,-6.1625e-07,0,1.0454e-05,-0.00012794,-2.6616e+08,-2.0518e+05,0,4.2777e+06,-20695,11096,11648,1,11648,1,-0.00033193,-1.9989e-07,0,0.00017309,-6.7517e-05,-1.3501e+08,-65810,0,6.8661e+07,-5947.1,11647,12600,1,12600,1,0.00036049,1.2087e-07,0,0.00051924,6.2284e-05,1.367e+08,39186,0,2.0161e+08,6144,12599,551.74,0,551.74,0,0.00039937,2.6046e-07,0,0.00019979,7.4853e-05,1.5533e+08,87034,0,7.6865e+07,8096.2,551.74,1
1904,2.45,12125,1,12125,1,1.439e-05,-7.3267e-08,0,0.00034763,-2.6469e-06,-3826.1,-24350,0,1.3554e+08,-3831,12124,13103,1,13103,1,0.00068637,5.4263e-07,0,0.00068637,0.00012328,2.5143e+08,1.8566e+05,0,2.674e+08,13523,13102,12124,1,12124,1,1.4377e-05,-4.4861e-08,0,0.00034792,-2.6689e-06,5.5889e+06,-14650,0,1.3706e+08,-2770.7,12123,11097,1,11097,1,-0.00065742,-5.8121e-07,0,1.0415e-05,-0.00012856,-2.674e+08,-1.9449e+05,0,4.2614e+06,-30315,11096,11648,1,11648,1,-0.00033344,-2.2514e-07,0,0.00017388,-6.7853e-05,-1.3562e+08,-74497,0,6.8968e+07,-7432.4,11647,12600,1,12600,1,0.00036227,5.1395e-08,0,0.00052174,6.2554e-05,1.3732e+08,16547,0,2.0251e+08,2133.6,12599,551.74,0,551.74,0,0.00040125,2.2419e-07,0,0.00020074,7.5204e-05,1.5602e+08,75026,0,7.7204e+07,7950.7,551.74,1
1904,2.46,12125,1,12125,1,1.4568e-05,-2.7252e-08,0,0.00034907,-2.672e-06,-9877.1,-9037,0,1.3605e+08,-778.19,12124,13103,1,13103,1,0.00068911,5.5067e-07,0,0.00068911,0.00012372,2.5218e+08,1.8855e+05,0,2.6836e+08,15104,13102,12124,1,12124,1,1.4552e-05,-1.7366e-08,0,0.0003493,-2.6815e-06,5.6578e+06,-5572,0,1.3756e+08,-506.31,12123,11097,1,11097,1,-0.00065977,-4.8951e-07,0,1.0332e-05,-0.00012907,-2.6836e+08,-1.6368e+05,0,4.2303e+06,-17629,11096,11648,1,11648,1,-0.00033464,-1.5762e-07,0,0.0001746,-6.8142e-05,-1.3611e+08,-52484,0,6.9234e+07,-5502.8,11647,12600,1,12600,1,0.00036386,8.0506e-08,0,0.00052382,6.2782e-05,1.3782e+08,26756,0,2.0323e+08,4311.2,12599,551.74,0,551.74,0,0.00040291,2.0236e-07,0,0.00020158,7.5513e-05,1.566e+08,67684,0,7.7485e+07,6425.7,551.74,1
1904,2.47,12125,1,12125,1,1.4758e-05,-8.1964e-08,0,0.00035025,-2.7134e-06,-3954.1,-27221,0,1.3645e+08,-3395.6,12124,13103,1,13103,1,0.00069177,5.3289e-07,0,0.00069177,0.00012416,2.5294e+08,1.8232e+05,0,2.693e+08,14137,13102,12124,1,12124,1,1.4742e-05,-5.0996e-08,0,0.00035054,-2.7362e-06,5.7295e+06,-16574,0,1.3801e+08,-2108.6,12123,11097,1,11097,1,-0.00066208,-6.1134e-07,0,1.0237e-05,-0.00012956,-2.693e+08,-2.0411e+05,0,4.1906e+06,-31335,11096,11648,1,11648,1,-0.00033569,-2.3075e-07,0,0.0001752,-6.841e-05,-1.3653e+08,-76588,0,6.9454e+07,-7241,11647,12600,1,12600,1,0.00036525,4.3765e-08,0,0.00052567,6.2981e-05,1.3828e+08,14289,0,2.0386e+08,2872.5,12599,551.74,0,551.74,0,0.00040427,2.2465e-07,0,0.00020227,7.5769e-05,1.5706e+08,75121,0,7.7712e+07,8269.1,551.74,1
1904,2.48,12125,1,12125,1,1.4953e-05,-9.4648e-09,0,0.0003524,-2.7435e-06,-5130,-3084.1,0,1.3725e+08,-1130.8,12124,13103,1,13103,1,0.00069594,6.5018e-07,0,0.00069594,0.00012486,2.5425e+08,2.2262e+05,0,2.7081e+08,16177,13102,12124,1,12124,1,1.4935e-05,-9.9194e-09,0,0.00035261,-2.7575e-06,5.8043e+06,-3177.4,0,1.3878e+08,-517.07,12123,11097,1,11097,1,-0.00066582,-5.3224e-07,0,1.0187e-05,-0.00013035,-2.7081e+08,-1.7703e+05,0,4.1731e+06,-19094,11096,11648,1,11648,1,-0.00033756,-1.7305e-07,0,0.00017627,-6.8837e-05,-1.373e+08,-56807,0,6.9858e+07,-6739.5,11647,12600,1,12600,1,0.00036756,1.3226e-07,0,0.00052878,6.3335e-05,1.3906e+08,43905,0,2.0499e+08,5097.9,12599,551.74,0,551.74,0,0.00040675,2.4129e-07,0,0.00020352,7.6234e-05,1.5797e+08,80606,0,7.8159e+07,7494.3,551.74,1
1904,2.49,12125,1,12125,1,1.5231e-05,-6.3106e-08,0,0.0003541,-2.7938e-06,4713.3,-20995,0,1.3784e+08,-843.09,12124,13103,1,13103,1,0.00069955,4.8583e-07,0,0.00069955,0.00012544,2.5525e+08,1.6621e+05,0,2.7209e+08,17209,13102,12124,1,12124,1,1.5214e-05,-3.7974e-08,0,0.00035435,-2.8033e-06,5.9111e+06,-12577,0,1.3942e+08,-1042.1,12123,11097,1,11097,1,-0.00066894,-4.7114e-07,0,1.0044e-05,-0.00013102,-2.7209e+08,-1.5796e+05,0,4.1142e+06,-14670,11096,11648,1,11648,1,-0.00033904,-1.9908e-07,0,0.00017711,-6.92e-05,-1.379e+08,-66421,0,7.0176e+07,-5195.2,11647,12600,1,12600,1,0.00036955,4.5328e-08,0,0.00053142,6.36e-05,1.397e+08,15035,0,2.0589e+08,3635.9,12599,551.74,0,551.74,0,0.00040872,2.0287e-07,0,0.00020452,7.66e-05,1.5865e+08,67806,0,7.8488e+07,5972.6,551.74,1
1904,2.5,12125,1,12125,1,1.5415e-05,-3.122e-08,0,0.00035557,-2.8251e-06,-7103.9,-10426,0,1.3835e+08,236,12124,13103,1,13103,1,0.00070259,6.3068e-07,0,0.00070259,0.00012594,2.5608e+08,2.0981e+05,0,2.7316e+08,13090,13102,12124,1,12124,1,1.5397e-05,-1.9911e-08,0,0.0003558,-2.823e-06,5.982e+06,-6460.5,0,1.3994e+08,517.01,12123,11097,1,11097,1,-0.00067157,-5.5084e-07,0,9.9547e-06,-0.00013159,-2.7316e+08,-1.8389e+05,0,4.0784e+06,-14991,11096,11648,1,11648,1,-0.0003403,-1.8745e-07,0,0.00017784,-6.9509e-05,-1.3841e+08,-62338,0,7.0442e+07,-4821,11647,12600,1,12600,1,0.0003712,1.0339e-07,0,0.0005336,6.3846e-05,1.4022e+08,34309,0,2.0663e+08,5392.5,12599,551.74,0,551.74,0,0.00041041,2.467e-07,0,0.00020537,7.6919e-05,1.5923e+08,82308,0,7.877e+07,6170.5,551.74,1
1904,2.51,12125,1,12125,1,1.5641e-05,-1.3031e-08,0,0.00035685,-2.864e-06,7082.5,-4350.8,0,1.3879e+08,1282.5,12124,13103,1,13103,1,0.00070504,5.6923e-07,0,0.00070504,0.00012632,2.5673e+08,1.9475e+05,0,2.7398e+08,16965,13102,12124,1,12124,1,1.5624e-05,-7.3963e-09,0,0.00035705,-2.8739e-06,6.0689e+06,-2533.1,0,1.4039e+08,752.41,12123,11097,1,11097,1,-0.0006736,-5.0747e-07,0,9.8236e-06,-0.00013204,-2.7398e+08,-1.6942e+05,0,4.0267e+06,-16238,11096,11648,1,11648,1,-0.00034132,-1.6006e-07,0,0.00017847,-6.9785e-05,-1.3883e+08,-53013,0,7.0671e+07,-3981.1,11647,12600,1,12600,1,0.00037267,1.19e-07,0,0.00053547,6.4037e-05,1.4068e+08,39763,0,2.0726e+08,6450.7,12599,551.74,0,551.74,0,0.00041189,2.316e-07,0,0.00020613,7.7197e-05,1.5974e+08,77318,0,7.9018e+07,6768.6,551.74,1
1904,2.52,12125,1,12125,1,1.5824e-05,-4.6939e-08,0,0.00035847,-2.9001e-06,3476,-15621,0,1.3937e+08,241.57,12124,13103,1,13103,1,0.00070852,5.2761e-07,0,0.00070852,0.0001269,2.5779e+08,1.7541e+05,0,2.7525e+08,13120,13102,12124,1,12124,1,1.5806e-05,-2.416e-08,0,0.0003587,-2.9004e-06,6.1382e+06,-7911.8,0,1.41e+08,128.04,12123,11097,1,11097,1,-0.00067672,-5.1617e-07,0,9.7581e-06,-0.0001327,-2.7525e+08,-1.7188e+05,0,4.0013e+06,-15305,11096,11648,1,11648,1,-0.00034279,-1.8213e-07,0,0.00017929,-7.0128e-05,-1.3943e+08,-60021,0,7.0982e+07,-4502.4,11647,12600,1,12600,1,0.0003745,6.4993e-08,0,0.00053795,6.4309e-05,1.413e+08,21517,0,2.0815e+08,4932.4,12599,551.74,0,551.74,0,0.00041376,2.1195e-07,0,0.00020707,7.7545e-05,1.6041e+08,70713,0,7.9343e+07,5828.5,551.74,1
1904,2.53,12125,1,12125,1,1.6033e-05,-3.8044e-08,0,0.00035999,-2.9353e-06,1814.8,-12650,0,1.399e+08,1481.9,12124,13103,1,13103,1,0.00071164,5.3938e-07,0,0.00071164,0.00012741,2.5865e+08,1.8453e+05,0,2.7634e+08,20114,13102,12124,1,12124,1,1.6014e-05,-2.7303e-08,0,0.00036022,-2.9383e-06,6.2183e+06,-8681.6,0,1.4155e+08,363.37,12123,11097,1,11097,1,-0.0006794,-4.8439e-07,0,9.6472e-06,-0.00013328,-2.7634e+08,-1.6173e+05,0,3.9572e+06,-12521,11096,11648,1,11648,1,-0.00034409,-1.8669e-07,0,0.00018003,-7.0445e-05,-1.3996e+08,-60488,0,7.1262e+07,-3448,11647,12600,1,12600,1,0.00037623,7.6518e-08,0,0.00054022,6.4553e-05,1.4185e+08,25113,0,2.0893e+08,5788.4,12599,551.74,0,551.74,0,0.00041552,2.2075e-07,0,0.00020797,7.7875e-05,1.6102e+08,73686,0,7.9641e+07,6576.6,551.74,1
1904,2.54,12125,1,12125,1,1.625e-05,-1.886e-08,0,0.00036149,-2.9787e-06,5361,-6305.5,0,1.4043e+08,29.765,12124,13103,1,13103,1,0.00071467,6.3864e-07,0,0.00071467,0.0001279,2.5949e+08,2.122e+05,0,2.774e+08,14289,13102,12124,1,12124,1,1.6234e-05,-2.1026e-08,0,0.00036168,-2.9816e-06,6.3017e+06,-7065.1,0,1.4208e+08,133.83,12123,11097,1,11097,1,-0.00068201,-4.8366e-07,0,9.5466e-06,-0.00013384,-2.774e+08,-1.6133e+05,0,3.9173e+06,-14040,11096,11648,1,11648,1,-0.00034535,-1.8207e-07,0,0.00018079,-7.0764e-05,-1.4047e+08,-60010,0,7.1535e+07,-4715.6,11647,12600,1,12600,1,0.00037791,1.1065e-07,0,0.00054242,6.4793e-05,1.4238e+08,37274,0,2.0969e+08,4781,12599,551.74,0,551.74,0,0.00041724,2.397e-07,0,0.00020884,7.8198e-05,1.6162e+08,79911,0,7.9933e+07,6355.1,551.74,1
1904,2.55,12125,1,12125,1,1.6454e-05,-4.9986e-09,0,0.0003629,-3.019e-06,4592.5,-1568.2,0,1.4092e+08,-1215.5,12124,13103,1,13103,1,0.00071731,4.9334e-07,0,0.00071731,0.00012833,2.6023e+08,1.6877e+05,0,2.7835e+08,12535,13102,12124,1,12124,1,1.6454e-05,-7.7654e-09,0,0.00036305,-3.0328e-06,6.3846e+06,-2455.2,0,1.4258e+08,-1059.2,12123,11097,1,11097,1,-0.00068434,-4.2826e-07,0,9.4318e-06,-0.00013434,-2.7835e+08,-1.4247e+05,0,3.8723e+06,-19064,11096,11648,1,11648,1,-0.00034654,-1.2615e-07,0,0.00018151,-7.1061e-05,-1.4095e+08,-41785,0,7.1798e+07,-5234.2,11647,12600,1,12600,1,0.00037949,1.0832e-07,0,0.00054451,6.5014e-05,1.4289e+08,35113,0,2.104e+08,3370.1,12599,551.74,0,551.74,0,0.00041887,1.9802e-07,0,0.00020967,7.8501e-05,1.6218e+08,66206,0,8.0208e+07,6140.3,551.74,1
1904,2.56,12125,1,12125,1,1.664e-05,-6.4054e-09,0,0.00036388,-3.0495e-06,8160.5,-2164.4,0,1.4125e+08,336.19,12124,13103,1,13103,1,0.00071964,6.8833e-07,0,0.00071964,0.00012869,2.6082e+08,2.2856e+05,0,2.7911e+08,15644,13102,12124,1,12124,1,1.6621e-05,-8.7144e-09,0,0.00036407,-3.0519e-06,6.4493e+06,-2698.4,0,1.4293e+08,103.77,12123,11097,1,11097,1,-0.00068622,-4.905e-07,0,9.3331e-06,-0.00013477,-2.7911e+08,-1.6287e+05,0,3.8331e+06,-18066,11096,11648,1,11648,1,-0.00034735,-1.6602e-07,0,0.00018199,-7.1287e-05,-1.4128e+08,-54250,0,7.1972e+07,-4732.4,11647,12600,1,12600,1,0.0003807,1.2185e-07,0,0.00054601,6.5167e-05,1.4325e+08,40263,0,2.1089e+08,5360.1,12599,551.74,0,551.74,0,0.00042001,2.4167e-07,0,0.00021025,7.8715e-05,1.6255e+08,80515,0,8.0387e+07,6583.9,551.74,1
1904,2.57,12125,1,12125,1,1.6801e-05,1.1899e-08,0,0.00036565,-3.0741e-06,-511.97,3982.7,0,1.4189e+08,2301.7,12124,13103,1,13103,1,0.00072303,6.8206e-07,0,0.00072303,0.00012929,2.6191e+08,2.2959e+05,0,2.8043e+08,24547,13102,12124,1,12124,1,1.6787e-05,-1.0224e-08,0,0.0003658,-3.0731e-06,6.5126e+06,-3268.4,0,1.436e+08,970.18,12123,11097,1,11097,1,-0.00068946,-4.3591e-07,0,9.2757e-06,-0.00013541,-2.8043e+08,-1.4515e+05,0,3.8108e+06,-11031,11096,11648,1,11648,1,-0.00034897,-1.3504e-07,0,0.00018289,-7.1636e-05,-1.4194e+08,-45068,0,7.2314e+07,-3377,11647,12600,1,12600,1,0.00038259,1.3268e-07,0,0.00054868,6.5482e-05,1.4391e+08,44044,0,2.1185e+08,6785.3,12599,551.74,0,551.74,0,0.00042204,2.3367e-07,0,0.00021127,7.9096e-05,1.6329e+08,77955,0,8.0749e+07,7384.2,551.74,1
1904,2.58,12125,1,12125,1,1.703e-05,6.3494e-09,0,0.00036679,-3.1228e-06,5225.6,2080.8,0,1.4227e+08,-461.61,12124,13103,1,13103,1,0.00072554,7.1628e-07,0,0.00072554,0.00012964,2.6249e+08,2.3788e+05,0,2.8119e+08,12854,13102,12124,1,12124,1,1.7014e-05,-2.0295e-09,0,0.00036695,-3.133e-06,6.5971e+06,-644.52,0,1.44e+08,-151.76,12123,11097,1,11097,1,-0.00069133,-5.5924e-07,0,9.1568e-06,-0.00013587,-2.8119e+08,-1.8608e+05,0,3.7631e+06,-18254,11096,11648,1,11648,1,-0.00034987,-1.5938e-07,0,0.00018345,-7.1911e-05,-1.423e+08,-52617,0,7.2513e+07,-6557.1,11647,12600,1,12600,1,0.00038397,1.5525e-07,0,0.00055036,6.5645e-05,1.4432e+08,51370,0,2.124e+08,5858,12599,551.74,0,551.74,0,0.00042337,2.6193e-07,0,0.00021195,7.9346e-05,1.6372e+08,87237,0,8.0958e+07,7135.2,551.74,1
1904,2.59,12125,1,12125,1,1.7196e-05,-4.3526e-08,0,0.000368,-3.1473e-06,1963.8,-14395,0,1.4269e+08,1968.9,12124,13103,1,13103,1,0.00072841,7.5215e-07,0,0.00072841,0.00013011,2.633e+08,2.5313e+05,0,2.8221e+08,26576,13102,12124,1,12124,1,1.7167e-05,-3.7978e-08,0,0.00036824,-3.1498e-06,6.6567e+06,-12232,0,1.4445e+08,883.97,12123,11097,1,11097,1,-0.00069384,-6.3121e-07,0,9.0765e-06,-0.00013641,-2.8221e+08,-2.1023e+05,0,3.7317e+06,-15366,11096,11648,1,11648,1,-0.00035095,-2.3725e-07,0,0.00018406,-7.2167e-05,-1.4274e+08,-77578,0,7.2743e+07,-4588.4,11647,12600,1,12600,1,0.00038541,1.1107e-07,0,0.00055224,6.5845e-05,1.4476e+08,36169,0,2.1305e+08,7806.8,12599,551.74,0,551.74,0,0.00042475,2.9012e-07,0,0.00021265,7.9606e-05,1.642e+08,96703,0,8.1191e+07,8507.5,551.74,1
1904,2.6,12125,1,12125,1,1.7393e-05,-9.0793e-09,0,0.00036939,-3.1887e-06,6857,-3059.2,0,1.4318e+08,-159.53,12124,13103,1,13103,1,0.00073123,8.0362e-07,0,0.00073123,0.00013056,2.6407e+08,2.6659e+05,0,2.8319e+08,17445,13102,12124,1,12124,1,1.7377e-05,-1.0554e-08,0,0.00036961,-3.1931e-06,6.7367e+06,-3353.7,0,1.4494e+08,-64.192,12123,11097,1,11097,1,-0.00069623,-6.4968e-07,0,8.9673e-06,-0.00013694,-2.8319e+08,-2.1642e+05,0,3.6876e+06,-19810,11096,11648,1,11648,1,-0.00035211,-2.0222e-07,0,0.00018474,-7.2464e-05,-1.4322e+08,-67348,0,7.2993e+07,-6909.7,11647,12600,1,12600,1,0.00038698,1.6283e-07,0,0.00055428,6.6068e-05,1.4526e+08,53474,0,2.1375e+08,6561.1,12599,551.74,0,551.74,0,0.00042636,3.0035e-07,0,0.00021346,7.9907e-05,1.6476e+08,1.0001e+05,0,8.1465e+07,8082.1,551.74,1
1904,2.61,12125,1,12125,1,1.7577e-05,2.1002e-08,0,0.00037087,-3.217e-06,-2164.4,6989.1,0,1.437e+08,1981.5,12124,13103,1,13103,1,0.00073412,8.683e-07,0,0.00073412,0.00013108,2.6493e+08,2.917e+05,0,2.8431e+08,26885,13102,12124,1,12124,1,1.7567e-05,-1.1654e-08,0,0.00037106,-3.2173e-06,6.8091e+06,-3612.6,0,1.4549e+08,800.9,12123,11097,1,11097,1,-0.00069899,-5.5083e-07,0,8.8609e-06,-0.00013748,-2.8431e+08,-1.8356e+05,0,3.6462e+06,-13953,11096,11648,1,11648,1,-0.00035345,-1.7285e-07,0,0.00018552,-7.2765e-05,-1.4376e+08,-57633,0,7.328e+07,-4876.9,11647,12600,1,12600,1,0.00038862,1.7997e-07,0,0.00055656,6.6327e-05,1.4581e+08,59566,0,2.1453e+08,7648.1,12599,551.74,0,551.74,0,0.00042807,2.996e-07,0,0.00021432,8.0226e-05,1.6536e+08,99841,0,8.1754e+07,8683.5,551.74,1
1904,2.62,12125,1,12125,1,1.7804e-05,2.8141e-08,0,0.00037218,-3.2631e-06,6011.4,9293.8,0,1.4415e+08,177.89,12124,13103,1,13103,1,0.00073685,7.441e-07,0,0.00073685,0.00013147,2.6564e+08,2.4706e+05,0,2.8519e+08,14971,13102,12124,1,12124,1,1.7793e-05,1.0474e-08,0,0.00037238,-3.2697e-06,6.8943e+06,3461.8,0,1.4596e+08,161.74,12123,11097,1,11097,1,-0.00070115,-5.5128e-07,0,8.7506e-06,-0.00013799,-2.8519e+08,-1.8322e+05,0,3.6026e+06,-16874,11096,11648,1,11648,1,-0.00035452,-1.3734e-07,0,0.00018616,-7.3069e-05,-1.442e+08,-45354,0,7.3514e+07,-5895.2,11647,12600,1,12600,1,0.00039018,1.8258e-07,0,0.0005585,6.6518e-05,1.4629e+08,60416,0,2.1519e+08,6531.3,12599,551.74,0,551.74,0,0.00042958,2.6392e-07,0,0.0002151,8.0508e-05,1.6587e+08,87874,0,8.2005e+07,7177.5,551.74,1
1904,2.63,12125,1,12125,1,1.8476e-05,-1.1787e-09,0,0.00037603,-3.3868e-06,-400.85,-379.31,0,1.4543e+08,-1539.7,12124,13103,1,13103,1,0.00074387,3.047e-08,0,0.00074387,0.00013255,2.6754e+08,10177,0,2.8748e+08,144.72,13102,12124,1,12124,1,1.8496e-05,-7.959e-10,0,0.00037609,-3.4e-06,7.1257e+06,-263.34,0,1.472e+08,-1507.3,12123,11097,1,11097,1,-0.0007068,-3.9069e-08,0,8.3182e-06,-0.0001393,-2.8748e+08,-12184,0,3.4394e+06,-3919.1,11096,11648,1,11648,1,-0.00035755,-9.731e-09,0,0.000188,-7.3855e-05,-1.4543e+08,-3234.9,0,7.4103e+07,-2419.9,11647,12600,1,12600,1,0.00039453,7.0812e-09,0,0.00056402,6.7069e-05,1.4751e+08,2309.4,0,2.1707e+08,-523.18,12599,551.74,0,551.74,0,0.00043403,1.3538e-08,0,0.00021739,8.1333e-05,1.6738e+08,4415,0,8.2782e+07,1093.9,551.74,1
1904,2.64,12125,1,12125,1,1.8951e-05,-2.1335e-09,0,0.00037769,-3.4707e-06,118.07,-710.57,0,1.4592e+08,-291.07,12124,13103,1,13103,1,0.00074745,1.0302e-08,0,0.00074745,0.00013306,2.6815e+08,3528,0,2.8859e+08,266.98,13102,12124,1,12124,1,1.8951e-05,-1.7773e-09,0,0.00037772,-3.4801e-06,7.2992e+06,-569.98,0,1.4773e+08,-219.9,12123,11097,1,11097,1,-0.00070951,-1.14e-08,0,8.0062e-06,-0.00013997,-2.8859e+08,-3903.4,0,3.3158e+06,-1445.7,11096,11648,1,11648,1,-0.00035874,-4.4808e-09,0,0.00018883,-7.4245e-05,-1.4591e+08,-1513.1,0,7.4381e+07,-461.83,11647,12600,1,12600,1,0.00039665,5.4845e-10,0,0.00056653,6.7296e-05,1.4804e+08,184.69,0,2.1777e+08,-49.334,12599,551.74,0,551.74,0,0.00043596,4.28e-09,0,0.00021838,8.1692e-05,1.6793e+08,1451.5,0,8.3043e+07,338.8,551.74,1
1904,2.65,12125,1,12125,1,1.9225e-05,-4.0739e-10,0,0.0003792,-3.5203e-06,287.58,-140.11,0,1.4642e+08,-104,12124,13103,1,13103,1,0.00075059,4.696e-09,0,0.00075059,0.00013355,2.6894e+08,1608.2,0,2.8965e+08,140.12,13102,12124,1,12124,1,1.9225e-05,6.5149e-11,0,0.00037922,-3.5293e-06,7.4004e+06,20.414,0,1.4825e+08,-45.67,12123,11097,1,11097,1,-0.00071212,-4.2814e-09,0,7.8504e-06,-0.00014056,-2.8965e+08,-1466,0,3.2546e+06,-604.87,11096,11648,1,11648,1,-0.00035998,-1.827e-09,0,0.00018959,-7.4577e-05,-1.4642e+08,-604.62,0,7.465e+07,-182.98,11647,12600,1,12600,1,0.00039843,7.1173e-10,0,0.0005688,6.753e-05,1.4857e+08,223.25,0,2.1851e+08,-4.1624,12599,551.74,0,551.74,0,0.0004377,1.8612e-09,0,0.00021928,8.2019e-05,1.685e+08,629.41,0,8.3325e+07,154.96,551.74,1
1904,2.66,12125,1,12125,1,1.9461e-05,-9.4963e-10,0,0.00038066,-3.5634e-06,-59.621,-316.8,0,1.4692e+08,-37.953,12124,13103,1,13103,1,0.00075363,4.105e-09,0,0.00075363,0.00013403,2.6975e+08,1405.8,0,2.9069e+08,235.4,13102,12124,1,12124,1,1.9459e-05,-6.3014e-10,0,0.00038067,-3.5723e-06,7.4888e+06,-200.88,0,1.4877e+08,-11.272,12123,11097,1,11097,1,-0.00071469,-4.6063e-09,0,7.7211e-06,-0.00014112,-2.9069e+08,-1558.3,0,3.2039e+06,-595.44,11096,11648,1,11648,1,-0.0003612,-2.4062e-09,0,0.00019032,-7.4892e-05,-1.4691e+08,-812.31,0,7.4914e+07,-91.192,11647,12600,1,12600,1,0.00040012,3.2912e-10,0,0.00057098,6.7759e-05,1.4909e+08,105.59,0,2.1924e+08,34.679,12599,551.74,0,551.74,0,0.00043938,1.839e-09,0,0.00022013,8.2333e-05,1.6907e+08,617.89,0,8.3601e+07,136.35,551.74,1
1904,2.67,12125,1,12125,1,1.9693e-05,-1.4746e-09,0,0.00038212,-3.6059e-06,96.03,-490.57,0,1.4742e+08,-41.381,12124,13103,1,13103,1,0.00075667,2.2159e-09,0,0.00075667,0.00013452,2.7056e+08,758.88,0,2.9174e+08,147.8,13102,12124,1,12124,1,1.969e-05,-1.5267e-09,0,0.00038212,-3.6151e-06,7.5757e+06,-497.76,0,1.4929e+08,-14.14,12123,11097,1,11097,1,-0.00071727,-3.9485e-09,0,7.5954e-06,-0.00014169,-2.9174e+08,-1332.7,0,3.1546e+06,-494.42,11096,11648,1,11648,1,-0.00036242,-2.6941e-09,0,0.00019105,-7.5207e-05,-1.4741e+08,-895.31,0,7.5178e+07,-80.356,11647,12600,1,12600,1,0.00040181,-2.639e-10,0,0.00057317,6.7989e-05,1.4961e+08,-80.716,0,2.1998e+08,32.837,12599,551.74,0,551.74,0,0.00044107,1.4241e-09,0,0.00022099,8.2648e-05,1.6964e+08,479.45,0,8.388e+07,115.8,551.74,1
1904,2.68,12125,1,12125,1,1.9929e-05,-7.0201e-10,0,0.00038358,-3.6489e-06,9.9173,-234.18,0,1.4791e+08,-12.812,12124,13103,1,13103,1,0.00075971,4.1875e-10,0,0.00075971,0.000135,2.7136e+08,143.43,0,2.9279e+08,70.471,13102,12124,1,12124,1,1.9929e-05,-5.9908e-10,0,0.00038358,-3.6587e-06,7.6638e+06,-199.05,0,1.4981e+08,-1.0901,12123,11097,1,11097,1,-0.00071984,-2.2888e-09,0,7.468e-06,-0.00014226,-2.9279e+08,-760.33,0,3.1047e+06,-171.49,11096,11648,1,11648,1,-0.00036365,-1.2145e-09,0,0.00019179,-7.5524e-05,-1.4791e+08,-403.93,0,7.5443e+07,-35.928,11647,12600,1,12600,1,0.00040351,-9.8625e-11,0,0.00057537,6.822e-05,1.5014e+08,-30.429,0,2.2072e+08,21.36,12599,551.74,0,551.74,0,0.00044275,7.0171e-10,0,0.00022185,8.2964e-05,1.7021e+08,234.6,0,8.4159e+07,52.305,551.74,1
1904,2.69,12125,1,12125,1,2.0162e-05,-1.4917e-09,0,0.00038503,-3.6916e-06,-73.256,-493.3,0,1.4841e+08,-8.7973,12124,13103,1,13103,1,0.00076275,1.7675e-09,0,0.00076275,0.00013549,2.7217e+08,582.26,0,2.9384e+08,152.45,13102,12124,1,12124,1,2.0162e-05,-1.2698e-09,0,0.00038503,-3.7018e-06,7.7515e+06,-417.95,0,1.5033e+08,-6.9781,12123,11097,1,11097,1,-0.00072242,-5.4602e-09,0,7.3393e-06,-0.00014283,-2.9384e+08,-1796.7,0,3.0543e+06,-202.41,11096,11648,1,11648,1,-0.00036487,-2.9622e-09,0,0.00019252,-7.5838e-05,-1.4841e+08,-978.54,0,7.5707e+07,-45.181,11647,12600,1,12600,1,0.0004052,5.9072e-11,0,0.00057755,6.8449e-05,1.5066e+08,19.553,0,2.2145e+08,36.572,12599,551.74,0,551.74,0,0.00044443,1.7842e-09,0,0.0002227,8.3277e-05,1.7078e+08,591.7,0,8.4435e+07,61.396,551.74,1
1904,2.7,12125,1,12125,1,2.0395e-05,-1.6997e-10,0,0.00038647,-3.7343e-06,-23.627,-57.775,0,1.489e+08,-11.87,12124,13103,1,13103,1,0.00076576,5.0364e-09,0,0.00076576,0.00013596,2.7296e+08,1721.8,0,2.9487e+08,139.1,13102,12124,1,12124,1,2.0395e-05,-1.7362e-11,0,0.00038648,-3.7449e-06,7.8395e+06,-5.6405,0,1.5084e+08,-11.353,12123,11097,1,11097,1,-0.00072496,-4.5691e-09,0,7.208e-06,-0.00014339,-2.9487e+08,-1503,0,3.0029e+06,-192.2,11096,11648,1,11648,1,-0.00036608,-1.5585e-09,0,0.00019324,-7.6151e-05,-1.489e+08,-515.66,0,7.5968e+07,-63.26,11647,12600,1,12600,1,0.00040687,1.0199e-09,0,0.00057971,6.8676e-05,1.5117e+08,337.5,0,2.2217e+08,40.619,12599,551.74,0,551.74,0,0.00044609,2.0993e-09,0,0.00022355,8.3589e-05,1.7134e+08,695.57,0,8.471e+07,68.301,551.74,1
1904,2.71,12125,1,12125,1,2.0631e-05,-7.4625e-10,0,0.00038791,-3.7776e-06,246.64,-245.92,0,1.4939e+08,-19.681,12124,13103,1,13103,1,0.00076878,7.9956e-09,0,0.00076878,0.00013644,2.7375e+08,2638.4,0,2.9591e+08,177.41,13102,12124,1,12124,1,2.0631e-05,-3.8774e-10,0,0.00038792,-3.7885e-06,7.928e+06,-130.08,0,1.5135e+08,-21.353,12123,11097,1,11097,1,-0.00072751,-7.7127e-09,0,7.0763e-06,-0.00014395,-2.9591e+08,-2536.3,0,2.9513e+06,-265.66,11096,11648,1,11648,1,-0.00036729,-2.7535e-09,0,0.00019396,-7.6464e-05,-1.4939e+08,-901.38,0,7.623e+07,-82.953,11647,12600,1,12600,1,0.00040855,8.1999e-10,0,0.00058188,6.8903e-05,1.5169e+08,270.98,0,2.229e+08,53.303,12599,551.74,0,551.74,0,0.00044776,3.1431e-09,0,0.0002244,8.39e-05,1.7191e+08,1039.6,0,8.4983e+07,93.188,551.74,1
1904,2.72,12125,1,12125,1,2.0869e-05,3.886e-10,0,0.0003894,-3.8212e-06,-46.797,127.21,0,1.499e+08,-21.731,12124,13103,1,13103,1,0.00077185,1.2832e-09,0,0.00077185,0.00013693,2.7456e+08,411.32,0,2.9697e+08,34.014,13102,12124,1,12124,1,2.087e-05,3.687e-10,0,0.0003894,-3.8326e-06,8.0177e+06,120.61,0,1.5188e+08,-20.031,12123,11097,1,11097,1,-0.00073011,-5.6554e-10,0,6.9434e-06,-0.00014453,-2.9697e+08,-177.72,0,2.8994e+06,-88.576,11096,11648,1,11648,1,-0.00036853,7.6606e-11,0,0.0001947,-7.6784e-05,-1.4989e+08,24.941,0,7.6498e+07,-37.861,11647,12600,1,12600,1,0.00041027,6.8015e-10,0,0.00058409,6.9136e-05,1.5222e+08,221.3,0,2.2364e+08,-6.5716,12599,551.74,0,551.74,0,0.00044947,4.1248e-10,0,0.00022527,8.422e-05,1.7249e+08,132.99,0,8.5266e+07,20.704,551.74,1
1904,2.73,12125,1,12125,1,2.1111e-05,-1.4725e-09,0,0.00039083,-3.8655e-06,95.348,-484.04,0,1.5038e+08,-0.94786,12124,13103,1,13103,1,0.00077489,2.8188e-09,0,0.00077489,0.00013741,2.7535e+08,926.07,0,2.98e+08,147.31,13102,12124,1,12124,1,2.1111e-05,-7.321e-10,0,0.00039084,-3.8773e-06,8.1084e+06,-238.92,0,1.5239e+08,-3.2553,12123,11097,1,11097,1,-0.00073266,-7.1866e-09,0,6.8051e-06,-0.00014509,-2.98e+08,-2361.6,0,2.8452e+06,-184.76,11096,11648,1,11648,1,-0.00036972,-3.1096e-09,0,0.00019542,-7.7098e-05,-1.5038e+08,-1007.8,0,7.6759e+07,-50.84,11647,12600,1,12600,1,0.00041195,3.6166e-10,0,0.00058626,6.9361e-05,1.5273e+08,118.32,0,2.2436e+08,49.834,12599,551.74,0,551.74,0,0.00045113,2.4697e-09,0,0.00022612,8.453e-05,1.7304e+08,815.21,0,8.5537e+07,67.392,551.74,1
1904,2.74,12125,1,12125,1,2.1352e-05,5.6802e-10,0,0.0003923,-3.9095e-06,-7.1786,184.97,0,1.5088e+08,0.16923,12124,13103,1,13103,1,0.00077793,3.2102e-09,0,0.00077793,0.00013789,2.7614e+08,1060.4,0,2.9905e+08,118.32,13102,12124,1,12124,1,2.1352e-05,3.9207e-10,0,0.0003923,-3.9218e-06,8.199e+06,124.28,0,1.529e+08,-4.3181,12123,11097,1,11097,1,-0.00073523,-9.115e-10,0,6.6676e-06,-0.00014566,-2.9905e+08,-311.61,0,2.7914e+06,-69.934,11096,11648,1,11648,1,-0.00037095,4.592e-11,0,0.00019615,-7.7416e-05,-1.5088e+08,15.038,0,7.7023e+07,-27.775,11647,12600,1,12600,1,0.00041365,1.0188e-09,0,0.00058845,6.959e-05,1.5325e+08,330.84,0,2.2509e+08,22.013,12599,551.74,0,551.74,0,0.00045282,8.5539e-10,0,0.00022698,8.4847e-05,1.7361e+08,283.6,0,8.5815e+07,35.383,551.74,1
1904,2.75,12125,1,12125,1,2.1597e-05,-1.7242e-09,0,0.00039375,-3.9545e-06,41.124,-567.78,0,1.5137e+08,-1.8614,12124,13103,1,13103,1,0.000781,1.1083e-09,0,0.000781,0.00013837,2.7693e+08,379.61,0,3.0009e+08,131.35,13102,12124,1,12124,1,2.1597e-05,-1.5296e-09,0,0.00039375,-3.9672e-06,8.2908e+06,-495.01,0,1.5342e+08,-9.916,12123,11097,1,11097,1,-0.0007378,-5.7515e-09,0,6.5275e-06,-0.00014623,-3.0009e+08,-1888.7,0,2.7367e+06,-167.21,11096,11648,1,11648,1,-0.00037215,-3.0512e-09,0,0.00019688,-7.7733e-05,-1.5137e+08,-999.97,0,7.7285e+07,-37.274,11647,12600,1,12600,1,0.00041535,-1.2772e-10,0,0.00059063,6.9817e-05,1.5377e+08,-43.017,0,2.2582e+08,40.97,12599,551.74,0,551.74,0,0.00045449,1.7741e-09,0,0.00022784,8.516e-05,1.7418e+08,586.41,0,8.6089e+07,62.278,551.74,1
1904,2.76,12125,1,12125,1,2.1843e-05,-1.1212e-09,0,0.0003952,-3.9995e-06,7.2272,-370.52,0,1.5187e+08,-4.5494,12124,13103,1,13103,1,0.00078404,6.4889e-10,0,0.00078404,0.00013885,2.7772e+08,221.41,0,3.0113e+08,84.309,13102,12124,1,12124,1,2.1843e-05,-7.8233e-10,0,0.00039521,-4.0126e-06,8.3831e+06,-258.4,0,1.5393e+08,-8.8922,12123,11097,1,11097,1,-0.00074035,-4.1233e-09,0,6.3849e-06,-0.0001468,-3.0113e+08,-1358.2,0,2.6809e+06,-110.57,11096,11648,1,11648,1,-0.00037336,-1.9956e-09,0,0.0001976,-7.805e-05,-1.5186e+08,-655.48,0,7.7547e+07,-29.719,11647,12600,1,12600,1,0.00041705,-6.6937e-11,0,0.00059281,7.0044e-05,1.5428e+08,-21.15,0,2.2654e+08,17.172,12599,551.74,0,551.74,0,0.00045617,1.2567e-09,0,0.00022869,8.5474e-05,1.7474e+08,417.06,0,8.6363e+07,35.238,551.74,1
1904,2.77,12125,1,12125,1,2.2091e-05,1.4621e-09,0,0.00039667,-4.0448e-06,-11.542,480.04,0,1.5236e+08,1.826,12124,13103,1,13103,1,0.00078711,4.2139e-09,0,0.00078711,0.00013933,2.7851e+08,1382.7,0,3.0218e+08,152.1,13102,12124,1,12124,1,2.209e-05,1.5588e-09,0,0.00039667,-4.0584e-06,8.4761e+06,506.02,0,1.5445e+08,-3.9216,12123,11097,1,11097,1,-0.00074293,-4.5364e-10,0,6.242e-06,-0.00014738,-3.0218e+08,-153.2,0,2.6251e+06,-163.28,11096,11648,1,11648,1,-0.00037458,6.7955e-10,0,0.00019833,-7.8368e-05,-1.5235e+08,218.67,0,7.7811e+07,-25.436,11647,12600,1,12600,1,0.00041876,2.0464e-09,0,0.000595,7.0272e-05,1.548e+08,673.23,0,2.2727e+08,22.607,12599,551.74,0,551.74,0,0.00045786,1.0321e-09,0,0.00022956,8.579e-05,1.7531e+08,340.89,0,8.6639e+07,47.237,551.74,1
1904,2.78,12125,1,12125,1,2.2342e-05,1.8831e-09,0,0.00039811,-4.0907e-06,45.277,620.94,0,1.5285e+08,45.182,12124,13103,1,13103,1,0.00079016,8.2123e-09,0,0.00079016,0.00013981,2.7928e+08,2694,0,3.0321e+08,373.18,13102,12124,1,12124,1,2.2342e-05,1.1793e-09,0,0.00039812,-4.1047e-06,8.57e+06,384.5,0,1.5496e+08,31.611,12123,11097,1,11097,1,-0.00074548,-1.7054e-09,0,6.094e-06,-0.00014795,-3.0321e+08,-559.43,0,2.5673e+06,-234.51,11096,11648,1,11648,1,-0.00037577,-1.3874e-10,0,0.00019906,-7.8685e-05,-1.5284e+08,-45.643,0,7.8071e+07,-40.313,11647,12600,1,12600,1,0.00042046,3.6584e-09,0,0.00059718,7.0497e-05,1.5532e+08,1215.3,0,2.2799e+08,107.3,12599,551.74,0,551.74,0,0.00045953,2.4045e-09,0,0.00023041,8.6103e-05,1.7586e+08,793.99,0,8.691e+07,103.64,551.74,1
1904,2.79,12125,1,12125,1,2.2592e-05,-5.779e-10,0,0.00039957,-4.1367e-06,28.001,-187.99,0,1.5334e+08,-15.087,12124,13103,1,13103,1,0.0007932,2.339e-09,0,0.0007932,0.00014029,2.8006e+08,799.46,0,3.0425e+08,106.04,13102,12124,1,12124,1,2.2592e-05,-3.5658e-10,0,0.00039957,-4.1513e-06,8.6642e+06,-113.64,0,1.5547e+08,-18.762,12123,11097,1,11097,1,-0.00074802,-3.3463e-09,0,5.947e-06,-0.00014851,-3.0425e+08,-1097.5,0,2.5099e+06,-137.44,11096,11648,1,11648,1,-0.00037698,-1.5297e-09,0,0.00019979,-7.9003e-05,-1.5333e+08,-502.26,0,7.8333e+07,-51.918,11647,12600,1,12600,1,0.00042216,2.936e-10,0,0.00059936,7.0724e-05,1.5583e+08,96.767,0,2.2871e+08,24.78,12599,551.74,0,551.74,0,0.00046121,1.2969e-09,0,0.00023127,8.6417e-05,1.7642e+08,429.24,0,8.7184e+07,51.455,551.74,1
1904,2.8,12125,1,12125,1,2.2847e-05,-7.7615e-10,0,0.00040103,-4.1833e-06,-72.952,-255.27,0,1.5383e+08,0.10959,12124,13103,1,13103,1,0.00079628,1.4059e-09,0,0.00079628,0.00014077,2.8084e+08,470.65,0,3.0529e+08,95.306,13102,12124,1,12124,1,2.2847e-05,-6.0551e-10,0,0.00040103,-4.1984e-06,8.7592e+06,-196.55,0,1.5598e+08,-1.9177,12123,11097,1,11097,1,-0.00075058,-3.2483e-09,0,5.7981e-06,-0.00014909,-3.0529e+08,-1064.8,0,2.4518e+06,-104.21,11096,11648,1,11648,1,-0.00037819,-1.5341e-09,0,0.00020052,-7.9323e-05,-1.5382e+08,-500.19,0,7.8595e+07,-27.377,11647,12600,1,12600,1,0.00042388,1.0061e-10,0,0.00060155,7.095e-05,1.5635e+08,32.704,0,2.2943e+08,27.525,12599,551.74,0,551.74,0,0.0004629,1.0994e-09,0,0.00023213,8.6732e-05,1.7699e+08,363.3,0,8.7457e+07,39.81,551.74,1
1904,2.81,12125,1,12125,1,2.3103e-05,-2.6927e-10,0,0.00040248,-4.2302e-06,-36.677,-89.22,0,1.5431e+08,-1.7814,12124,13103,1,13103,1,0.00079934,3.2333e-09,0,0.00079934,0.00014125,2.8161e+08,1056,0,3.0633e+08,118.58,13102,12124,1,12124,1,2.3103e-05,-8.8873e-11,0,0.00040249,-4.2458e-06,8.8551e+06,-28.133,0,1.5649e+08,-8.7064,12123,11097,1,11097,1,-0.00075313,-3.134e-09,0,5.6454e-06,-0.00014966,-3.0633e+08,-1027,0,2.3922e+06,-128.47,11096,11648,1,11648,1,-0.00037938,-1.2254e-09,0,0.00020124,-7.9642e-05,-1.5431e+08,-410.66,0,7.8856e+07,-34.515,11647,12600,1,12600,1,0.00042559,5.1676e-10,0,0.00060373,7.1175e-05,1.5686e+08,171.87,0,2.3015e+08,39.044,12599,551.74,0,551.74,0,0.00046457,1.4173e-09,0,0.00023299,8.7046e-05,1.7754e+08,467.77,0,8.7729e+07,51.101,551.74,1
1904,2.82,12125,1,12125,1,2.3361e-05,-1.4911e-09,0,0.00040394,-4.2776e-06,106.72,-490.46,0,1.548e+08,-13.301,12124,13103,1,13103,1,0.00080242,3.5797e-09,0,0.00080242,0.00014173,2.8239e+08,1177.9,0,3.0737e+08,180.11,13102,12124,1,12124,1,2.3361e-05,-1.2645e-09,0,0.00040395,-4.2948e-06,8.9515e+06,-413.9,0,1.57e+08,-14.498,12123,11097,1,11097,1,-0.0007557,-6.1142e-09,0,5.4918e-06,-0.00015023,-3.0737e+08,-2002.9,0,2.3323e+06,-1055,11096,11648,1,11648,1,-0.00038058,-3.2697e-09,0,0.00020197,-7.9962e-05,-1.548e+08,-1075,0,7.9117e+07,-58.25,11647,12600,1,12600,1,0.00042731,2.0965e-10,0,0.00060592,7.1401e-05,1.5737e+08,67.911,0,2.3087e+08,44.762,12599,551.74,0,551.74,0,0.00046626,2.1939e-09,0,0.00023385,8.7361e-05,1.781e+08,724.03,0,8.8001e+07,89.415,551.74,1
1904,2.83,12125,1,12125,1,2.3622e-05,-6.1072e-10,0,0.00040541,-4.3253e-06,113.83,-202.4,0,1.5529e+08,-14.872,12124,13103,1,13103,1,0.0008055,2.0269e-09,0,0.0008055,0.00014221,2.8316e+08,674.02,0,3.0841e+08,106.35,13102,12124,1,12124,1,2.3622e-05,-2.8118e-10,0,0.00040541,-4.342e-06,9.0492e+06,-92.595,0,1.5752e+08,-16.032,12123,11097,1,11097,1,-0.00075825,-3.7953e-09,0,5.3347e-06,-0.00015081,-3.0841e+08,-1242.7,0,2.271e+06,-164.6,11096,11648,1,11648,1,-0.00038179,-1.587e-09,0,0.0002027,-8.0284e-05,-1.5529e+08,-517.52,0,7.9378e+07,-54.524,11647,12600,1,12600,1,0.00042903,3.4773e-10,0,0.00060811,7.1626e-05,1.5789e+08,113.96,0,2.3159e+08,23.288,12599,551.74,0,551.74,0,0.00046795,1.3363e-09,0,0.00023472,8.7677e-05,1.7866e+08,441.86,0,8.8275e+07,49.925,551.74,1
1904,2.84,12125,1,12125,1,2.3884e-05,-8.2263e-10,0,0.00040686,-4.3733e-06,137.79,-271.15,0,1.5578e+08,-7.5327,12124,13103,1,13103,1,0.00080856,3.6832e-09,0,0.00080856,0.00014268,2.8392e+08,1205.6,0,3.0944e+08,138.08,13102,12124,1,12124,1,2.3884e-05,-4.4541e-10,0,0.00040686,-4.3913e-06,9.1471e+06,-147.16,0,1.5802e+08,-8.3179,12123,11097,1,11097,1,-0.00076079,-5.1188e-09,0,5.1765e-06,-0.00015138,-3.0944e+08,-1675.7,0,2.2094e+06,-819.38,11096,11648,1,11648,1,-0.00038297,-2.0265e-09,0,0.00020343,-8.0603e-05,-1.5577e+08,-678.75,0,7.9638e+07,-49.099,11647,12600,1,12600,1,0.00043074,3.7215e-10,0,0.00061029,7.185e-05,1.584e+08,121.38,0,2.323e+08,49.956,12599,551.74,0,551.74,0,0.00046962,1.8749e-09,0,0.00023557,8.799e-05,1.7922e+08,617.92,0,8.8544e+07,88.74,551.74,1
1904,2.85,12125,1,12125,1,2.4147e-05,-1.8741e-09,0,0.00040832,-4.4216e-06,-2.7168,-616.61,0,1.5626e+08,-33.607,12124,13103,1,13103,1,0.00081165,7.9061e-10,0,0.00081165,0.00014316,2.8469e+08,269.72,0,3.1048e+08,99.602,13102,12124,1,12124,1,2.4147e-05,-2.029e-09,0,0.00040832,-4.44e-06,9.2454e+06,-664.61,0,1.5853e+08,-27.291,12123,11097,1,11097,1,-0.00076335,-4.2551e-09,0,5.018e-06,-0.00015196,-3.1048e+08,-1397.5,0,2.1476e+06,-736.36,11096,11648,1,11648,1,-0.00038417,-3.0384e-09,0,0.00020416,-8.0925e-05,-1.5626e+08,-1009.6,0,7.9899e+07,-54.932,11647,12600,1,12600,1,0.00043247,-8.1754e-10,0,0.00061248,7.2075e-05,1.5891e+08,-267.68,0,2.3302e+08,4.6017,12599,551.74,0,551.74,0,0.00047131,1.3351e-09,0,0.00023644,8.8307e-05,1.7978e+08,442.32,0,8.8817e+07,77.898,551.74,1
1904,2.86,12125,1,12125,1,2.4414e-05,-4.7138e-10,0,0.00040977,-4.4703e-06,0.4712,-156.81,0,1.5674e+08,10.275,12124,13103,1,13103,1,0.0008147,3.5844e-09,0,0.0008147,0.00014364,2.8544e+08,1172.4,0,3.1151e+08,166.95,13102,12124,1,12124,1,2.4413e-05,-9.3273e-11,0,0.00040977,-4.4891e-06,9.345e+06,-31.273,0,1.5904e+08,8.6277,12123,11097,1,11097,1,-0.00076587,-4.6365e-09,0,4.8547e-06,-0.00015253,-3.1151e+08,-1516.6,0,2.0839e+06,-535.35,11096,11648,1,11648,1,-0.00038536,-1.6801e-09,0,0.00020488,-8.1245e-05,-1.5674e+08,-533.98,0,8.0157e+07,-29.947,11647,12600,1,12600,1,0.00043419,6.9154e-10,0,0.00061466,7.2298e-05,1.5942e+08,219.17,0,2.3373e+08,56.76,12599,551.74,0,551.74,0,0.00047298,1.8324e-09,0,0.0002373,8.8619e-05,1.8033e+08,602.03,0,8.9085e+07,78.808,551.74,1
1904,2.87,12125,1,12125,1,2.468e-05,-3.8136e-10,0,0.00041123,-4.5192e-06,-47.504,-126.16,0,1.5723e+08,0.63359,12124,13103,1,13103,1,0.00081778,5.2163e-09,0,0.00081778,0.00014411,2.862e+08,1705.5,0,3.1254e+08,155.54,13102,12124,1,12124,1,2.468e-05,-6.7162e-11,0,0.00041123,-4.5383e-06,9.4446e+06,-20.801,0,1.5955e+08,-2.5099,12123,11097,1,11097,1,-0.00076841,-5.1661e-09,0,4.6922e-06,-0.0001531,-3.1254e+08,-1689.3,0,2.0206e+06,-400.1,11096,11648,1,11648,1,-0.00038655,-1.7163e-09,0,0.00020561,-8.1566e-05,-1.5722e+08,-573.12,0,8.0416e+07,-52.648,11647,12600,1,12600,1,0.00043591,7.7183e-10,0,0.00061684,7.2521e-05,1.5993e+08,248.48,0,2.3444e+08,63.645,12599,551.74,0,551.74,0,0.00047466,2.1667e-09,0,0.00023816,8.8934e-05,1.8088e+08,713.27,0,8.9354e+07,80.514,551.74,1
1904,2.88,12125,1,12125,1,2.495e-05,5.6797e-11,0,0.00041268,-4.5686e-06,16.679,18.146,0,1.5771e+08,5.1706,12124,13103,1,13103,1,0.00082085,7.6568e-09,0,0.00082085,0.00014459,2.8696e+08,2502.5,0,3.1357e+08,203.72,13102,12124,1,12124,1,2.495e-05,5.9457e-11,0,0.00041268,-4.5881e-06,9.5452e+06,18.549,0,1.6005e+08,-9.5245,12123,11097,1,11097,1,-0.00077095,-5.4338e-09,0,4.5261e-06,-0.00015367,-3.1357e+08,-1776.1,0,1.9559e+06,-314.75,11096,11648,1,11648,1,-0.00038773,-1.8558e-09,0,0.00020634,-8.1887e-05,-1.577e+08,-598.99,0,8.0675e+07,-57.316,11647,12600,1,12600,1,0.00043763,1.675e-09,0,0.00061902,7.2743e-05,1.6044e+08,551.09,0,2.3515e+08,71.02,12599,551.74,0,551.74,0,0.00047634,2.8649e-09,0,0.00023902,8.9247e-05,1.8143e+08,943.16,0,8.9623e+07,89.062,551.74,1
1904,2.89,12125,1,12125,1,2.5222e-05,-3.2911e-10,0,0.00041416,-4.6185e-06,-31.923,-108.29,0,1.582e+08,-21.769,12124,13103,1,13103,1,0.00082396,5.8329e-10,0,0.00082396,0.00014507,2.8772e+08,199.73,0,3.1462e+08,24.841,13102,12124,1,12124,1,2.5223e-05,-2.829e-10,0,0.00041416,-4.6385e-06,9.6469e+06,-88.231,0,1.6057e+08,-15.647,12123,11097,1,11097,1,-0.00077351,-1.308e-09,0,4.3595e-06,-0.00015425,-3.1462e+08,-427.82,0,1.891e+06,-152.94,11096,11648,1,11648,1,-0.00038894,-6.3361e-10,0,0.00020708,-8.2213e-05,-1.5819e+08,-206.31,0,8.0938e+07,-42.004,11647,12600,1,12600,1,0.00043938,-4.0237e-12,0,0.00062124,7.2969e-05,1.6096e+08,-1.1515,0,2.3587e+08,0.92292,12599,551.74,0,551.74,0,0.00047805,4.1396e-10,0,0.0002399,8.9566e-05,1.8199e+08,138.57,0,8.9897e+07,29.233,551.74,1
1904,2.9,12125,1,12125,1,2.5499e-05,1.0241e-09,0,0.00041562,-4.6692e-06,-42.946,334.95,0,1.5868e+08,-5.6663,12124,13103,1,13103,1,0.00082706,2.2068e-09,0,0.00082706,0.00014555,2.8847e+08,714.57,0,3.1565e+08,70.699,13102,12124,1,12124,1,2.55e-05,1.0843e-09,0,0.00041562,-4.6896e-06,9.7502e+06,352.11,0,1.6107e+08,-6.0291,12123,11097,1,11097,1,-0.00077606,-2.7513e-10,0,4.1869e-06,-0.00015483,-3.1565e+08,-94.235,0,1.8238e+06,-82.108,11096,11648,1,11648,1,-0.00039012,5.4828e-10,0,0.00020781,-8.2537e-05,-1.5867e+08,174.25,0,8.1196e+07,-19.592,11647,12600,1,12600,1,0.00044112,1.5251e-09,0,0.00062343,7.3192e-05,1.6147e+08,497.82,0,2.3658e+08,9.0834,12599,551.74,0,551.74,0,0.00047973,6.4263e-10,0,0.00024076,8.9882e-05,1.8255e+08,212.03,0,9.0165e+07,21.707,551.74,1
1904,2.91,12125,1,12125,1,2.5776e-05,4.8061e-10,0,0.00041708,-4.7199e-06,-42.265,158.2,0,1.5916e+08,-9.0577,12124,13103,1,13103,1,0.00083014,1.1542e-09,0,0.00083014,0.00014602,2.8922e+08,386.12,0,3.1668e+08,72.674,13102,12124,1,12124,1,2.5776e-05,5.3095e-10,0,0.00041708,-4.7407e-06,9.8532e+06,172.62,0,1.6158e+08,-3.9325,12123,11097,1,11097,1,-0.00077859,-1.7422e-10,0,4.0146e-06,-0.00015541,-3.1668e+08,-59.67,0,1.7568e+06,-254.21,11096,11648,1,11648,1,-0.0003913,2.7124e-10,0,0.00020854,-8.286e-05,-1.5915e+08,85.839,0,8.1455e+07,-18.878,11647,12600,1,12600,1,0.00044285,6.9794e-10,0,0.00062561,7.3414e-05,1.6198e+08,232.24,0,2.3729e+08,8.7183,12599,551.74,0,551.74,0,0.00048142,2.7121e-10,0,0.00024163,9.0197e-05,1.831e+08,91.233,0,9.0433e+07,37.449,551.74,1
1904,2.92,12125,1,12125,1,2.6054e-05,2.5598e-09,0,0.00041852,-4.7706e-06,-71.737,838.3,0,1.5964e+08,28.281,12124,13103,1,13103,1,0.00083323,1.0116e-08,0,0.00083323,0.0001465,2.8996e+08,3384.8,0,3.1771e+08,273.5,13102,12124,1,12124,1,2.6053e-05,1.8811e-09,0,0.00041852,-4.7917e-06,9.9563e+06,617.48,0,1.6208e+08,32.341,12123,11097,1,11097,1,-0.00078112,-1.6963e-09,0,3.8398e-06,-0.00015598,-3.1771e+08,-567.65,0,1.6889e+06,-343.21,11096,11648,1,11648,1,-0.00039247,1.541e-10,0,0.00020926,-8.3181e-05,-1.5963e+08,51.587,0,8.171e+07,-31.447,11647,12600,1,12600,1,0.00044457,4.5008e-09,0,0.00062778,7.3633e-05,1.6248e+08,1477.3,0,2.3799e+08,92.236,12599,551.74,0,551.74,0,0.00048308,2.7462e-09,0,0.00024248,9.0508e-05,1.8364e+08,901.96,0,9.0697e+07,91.059,551.74,1
1904,2.93,12125,1,12125,1,2.6333e-05,-3.8516e-10,0,0.00042,-4.8219e-06,-71.978,-122.65,0,1.6013e+08,-29.846,12124,13103,1,13103,1,0.00083633,3.3282e-10,0,0.00083633,0.00014698,2.9071e+08,113.99,0,3.1875e+08,48.147,13102,12124,1,12124,1,2.6333e-05,-3.3077e-10,0,0.00042,-4.8436e-06,1.0061e+07,-108.67,0,1.6259e+08,-18.39,12123,11097,1,11097,1,-0.00078367,-1.4636e-09,0,3.6645e-06,-0.00015656,-3.1875e+08,-452.96,0,1.6208e+06,-568.13,11096,11648,1,11648,1,-0.00039366,-6.9493e-10,0,0.00021,-8.3509e-05,-1.6012e+08,-223.46,0,8.1972e+07,-33.307,11647,12600,1,12600,1,0.00044633,-3.4372e-11,0,0.00063,7.3858e-05,1.6299e+08,-11.586,0,2.387e+08,-5.4097,12599,551.74,0,551.74,0,0.00048479,4.2815e-10,0,0.00024336,9.0827e-05,1.842e+08,136.22,0,9.097e+07,70.021,551.74,1
1904,2.94,12125,1,12125,1,2.6619e-05,1.8152e-09,0,0.00042146,-4.8741e-06,-87.318,593.67,0,1.606e+08,5.2141,12124,13103,1,13103,1,0.00083945,4.7886e-09,0,0.00083945,0.00014745,2.9145e+08,1601.6,0,3.1978e+08,204.2,13102,12124,1,12124,1,2.6618e-05,2.0472e-09,0,0.00042146,-4.8961e-06,1.0167e+07,670.93,0,1.6309e+08,-3.5363,12123,11097,1,11097,1,-0.00078621,-6.2684e-10,0,3.4853e-06,-0.00015715,-3.1978e+08,-214.69,0,1.551e+06,-609.51,11096,11648,1,11648,1,-0.00039484,8.7896e-10,0,0.00021073,-8.3834e-05,-1.6059e+08,276.44,0,8.2229e+07,-23.209,11647,12600,1,12600,1,0.00044808,2.7808e-09,0,0.00063219,7.4079e-05,1.635e+08,920.76,0,2.3941e+08,31.627,12599,551.74,0,551.74,0,0.00048647,1.2064e-09,0,0.00024423,9.1143e-05,1.8475e+08,397.46,0,9.1236e+07,71.997,551.74,1
1904,2.95,12125,1,12125,1,2.6903e-05,-3.8084e-10,0,0.00042291,-4.9263e-06,-3.9557,-122.11,0,1.6108e+08,3.1328,12124,13103,1,13103,1,0.00084252,4.342e-09,0,0.00084252,0.00014792,2.9218e+08,1452.1,0,3.208e+08,110.87,13102,12124,1,12124,1,2.6904e-05,-9.5409e-11,0,0.00042291,-4.9488e-06,1.0273e+07,-31.738,0,1.6359e+08,-2.4571,12123,11097,1,11097,1,-0.00078872,-4.6876e-09,0,3.3032e-06,-0.00015772,-3.208e+08,-1567.5,0,1.4803e+06,-842.08,11096,11648,1,11648,1,-0.00039601,-1.4195e-09,0,0.00021146,-8.4158e-05,-1.6107e+08,-459.24,0,8.2485e+07,-37.066,11647,12600,1,12600,1,0.00044981,5.2515e-10,0,0.00063437,7.4298e-05,1.64e+08,174.87,0,2.4011e+08,51.69,12599,551.74,0,551.74,0,0.00048815,1.606e-09,0,0.00024509,9.1456e-05,1.8529e+08,525.82,0,9.1501e+07,63.821,551.74,1
1904,2.96,12125,1,12125,1,2.719e-05,-1.388e-11,0,0.00042438,-4.9788e-06,33.077,-4.7485,0,1.6156e+08,-6.0867,12124,13103,1,13103,1,0.00084564,2.8904e-09,0,0.00084564,0.0001484,2.9292e+08,959.5,0,3.2183e+08,95.877,13102,12124,1,12124,1,2.719e-05,3.8067e-11,0,0.00042438,-5.001e-06,1.0379e+07,12.196,0,1.6409e+08,-10.574,12123,11097,1,11097,1,-0.00079125,-1.9773e-09,0,3.1221e-06,-0.0001583,-3.2183e+08,-661.96,0,1.41e+06,-271.67,11096,11648,1,11648,1,-0.00039719,-6.9225e-10,0,0.00021219,-8.4484e-05,-1.6155e+08,-224.23,0,8.2743e+07,-35.264,11647,12600,1,12600,1,0.00045157,4.3565e-10,0,0.00063656,7.452e-05,1.6451e+08,142.47,0,2.4081e+08,21.94,12599,551.74,0,551.74,0,0.00048984,9.9896e-10,0,0.00024596,9.1772e-05,1.8584e+08,328.94,0,9.1769e+07,39.05,551.74,1
1904,2.97,12125,1,12125,1,2.748e-05,-6.9859e-10,0,0.00042583,-5.0318e-06,-27.507,-228.29,0,1.6203e+08,5.3279,12124,13103,1,13103,1,0.00084874,1.5729e-09,0,0.00084874,0.00014887,2.9366e+08,523.28,0,3.2286e+08,109.27,13102,12124,1,12124,1,2.748e-05,-5.4583e-10,0,0.00042584,-5.054e-06,1.0487e+07,-177.44,0,1.646e+08,1.8995,12123,11097,1,11097,1,-0.00079378,-2.7889e-09,0,2.9368e-06,-0.00015888,-3.2286e+08,-908.83,0,1.3379e+06,-71.391,11096,11648,1,11648,1,-0.00039836,-1.4024e-09,0,0.00021292,-8.481e-05,-1.6202e+08,-453.6,0,8.3e+07,-17.937,11647,12600,1,12600,1,0.00045332,2.5502e-11,0,0.00063875,7.474e-05,1.6502e+08,7.9943,0,2.4151e+08,27.281,12599,551.74,0,551.74,0,0.00049153,9.7934e-10,0,0.00024683,9.2087e-05,1.8638e+08,322.15,0,9.2034e+07,32.607,551.74,1
1904,2.98,12125,1,12125,1,2.7771e-05,-9.0895e-10,0,0.00042729,-5.085e-06,24.495,-297.43,0,1.6251e+08,9.7038,12124,13103,1,13103,1,0.00085185,3.5853e-09,0,0.00085185,0.00014935,2.9438e+08,1177,0,3.2389e+08,147.03,13102,12124,1,12124,1,2.777e-05,-5.3768e-10,0,0.00042729,-5.1075e-06,1.0595e+07,-175.3,0,1.651e+08,3.5864,12123,11097,1,11097,1,-0.0007963,-5.2604e-09,0,2.7495e-06,-0.00015946,-3.2389e+08,-1715.6,0,1.2652e+06,-108.65,11096,11648,1,11648,1,-0.00039952,-2.2789e-09,0,0.00021365,-8.5136e-05,-1.625e+08,-753.91,0,8.3255e+07,-35.184,11647,12600,1,12600,1,0.00045506,3.9376e-10,0,0.00064094,7.4958e-05,1.6552e+08,127.9,0,2.4221e+08,57.558,12599,551.74,0,551.74,0,0.00049321,1.9875e-09,0,0.00024769,9.2401e-05,1.8693e+08,651.72,0,9.2298e+07,57.819,551.74,1
1904,2.99,12125,1,12125,1,2.8064e-05,5.7926e-10,0,0.00042876,-5.1387e-06,-3.3087,187.71,0,1.6299e+08,1.0558,12124,13103,1,13103,1,0.00085496,3.3107e-09,0,0.00085496,0.00014982,2.9512e+08,1093.3,0,3.2492e+08,115.32,13102,12124,1,12124,1,2.8064e-05,4.139e-10,0,0.00042876,-5.1616e-06,1.0704e+07,132.15,0,1.656e+08,-2.6513,12123,11097,1,11097,1,-0.00079884,-2.0531e-09,0,2.5605e-06,-0.00016004,-3.2492e+08,-678.46,0,1.1919e+06,-89.422,11096,11648,1,11648,1,-0.0004007,-1.0943e-10,0,0.00021438,-8.5464e-05,-1.6298e+08,-35.792,0,8.3513e+07,-26.872,11647,12600,1,12600,1,0.00045682,1.4023e-09,0,0.00064314,7.518e-05,1.6603e+08,455.64,0,2.4291e+08,24.601,12599,551.74,0,551.74,0,0.0004949,1.1679e-09,0,0.00024857,9.2719e-05,1.8748e+08,383.95,0,9.2565e+07,37.826,551.74,1
1904,3,12125,1,12125,1,2.8361e-05,-8.4523e-10,0,0.00043023,-5.1932e-06,106.34,-275.7,0,1.6346e+08,-11.709,12124,13103,1,13103,1,0.0008581,9.3511e-10,0,0.0008581,0.0001503,2.9584e+08,320.14,0,3.2595e+08,80.123,13102,12124,1,12124,1,2.8361e-05,-7.0551e-10,0,0.00043023,-5.2164e-06,1.0814e+07,-228.46,0,1.661e+08,-7.9941,12123,11097,1,11097,1,-0.00080137,-3.0861e-09,0,2.3686e-06,-0.00016062,-3.2595e+08,-1004.1,0,1.1174e+06,-117.27,11096,11648,1,11648,1,-0.00040187,-1.6573e-09,0,0.00021511,-8.5793e-05,-1.6345e+08,-536.11,0,8.377e+07,-39.005,11647,12600,1,12600,1,0.00045859,3.8974e-11,0,0.00064534,7.5399e-05,1.6653e+08,12.028,0,2.4361e+08,17.574,12599,551.74,0,551.74,0,0.0004966,9.9455e-10,0,0.00024944,9.3035e-05,1.8802e+08,326.83,0,9.283e+07,36.298,551.74,1
1904,3.01,12125,1,12125,1,2.866e-05,-4.9287e-10,0,0.00043168,-5.2478e-06,82.866,-161.82,0,1.6393e+08,1.9468,12124,13103,1,13103,1,0.00086121,3.0025e-09,0,0.00086121,0.00015077,2.9656e+08,976.53,0,3.2697e+08,105.51,13102,12124,1,12124,1,2.866e-05,-1.8145e-10,0,0.00043169,-5.2712e-06,1.0924e+07,-57.234,0,1.666e+08,-0.19363,12123,11097,1,11097,1,-0.00080389,-3.8562e-09,0,2.1742e-06,-0.00016121,-3.2697e+08,-1254.3,0,1.042e+06,-126.64,11096,11648,1,11648,1,-0.00040303,-1.6038e-09,0,0.00021584,-8.612e-05,-1.6392e+08,-519.43,0,8.4025e+07,-36.26,11647,12600,1,12600,1,0.00046035,5.0895e-10,0,0.00064753,7.5617e-05,1.6703e+08,158.51,0,2.443e+08,40.521,12599,551.74,0,551.74,0,0.00049828,1.5467e-09,0,0.00025031,9.335e-05,1.8856e+08,506.83,0,9.3094e+07,49.96,551.74,1
1904,3.02,12125,1,12125,1,2.896e-05,1.5407e-09,0,0.00043315,-5.3027e-06,-53.755,501.12,0,1.6441e+08,5.955,12124,13103,1,13103,1,0.00086434,4.3809e-09,0,0.00086434,0.00015124,2.9729e+08,1431,0,3.28e+08,93.189,13102,12124,1,12124,1,2.896e-05,1.4196e-09,0,0.00043315,-5.3263e-06,1.1036e+07,461.4,0,1.671e+08,2.3702,12123,11097,1,11097,1,-0.00080642,-3.954e-10,0,1.9788e-06,-0.00016179,-3.28e+08,-135.43,0,9.6618e+05,-79.663,11096,11648,1,11648,1,-0.00040419,5.49e-10,0,0.00021658,-8.6449e-05,-1.644e+08,173.49,0,8.4281e+07,-16.536,11647,12600,1,12600,1,0.00046211,2.4764e-09,0,0.00064973,7.5836e-05,1.6754e+08,797.57,0,2.45e+08,27.433,12599,551.74,0,551.74,0,0.00049997,1.1928e-09,0,0.00025118,9.3667e-05,1.891e+08,391.49,0,9.3358e+07,31.102,551.74,1
1904,3.03,12125,1,12125,1,2.9263e-05,8.1548e-10,0,0.00043462,-5.3583e-06,24.868,267.36,0,1.6488e+08,-2.3663,12124,13103,1,13103,1,0.00086747,2.0407e-09,0,0.00086747,0.00015172,2.98e+08,675.42,0,3.2903e+08,64.368,13102,12124,1,12124,1,2.9263e-05,8.2815e-10,0,0.00043462,-5.3823e-06,1.1148e+07,266.57,0,1.676e+08,-3.1024,12123,11097,1,11097,1,-0.00080894,-2.3366e-10,0,1.78e-06,-0.00016237,-3.2903e+08,-73.793,0,8.891e+05,-62.812,11096,11648,1,11648,1,-0.00040536,3.677e-10,0,0.00021731,-8.6779e-05,-1.6487e+08,119.08,0,8.4537e+07,-16.455,11647,12600,1,12600,1,0.00046388,1.2453e-09,0,0.00065193,7.6055e-05,1.6804e+08,410.2,0,2.457e+08,10.809,12599,551.74,0,551.74,0,0.00050167,5.6154e-10,0,0.00025206,9.3983e-05,1.8965e+08,186.92,0,9.3623e+07,22.219,551.74,1
1904,3.04,12125,1,12125,1,2.9568e-05,-6.7679e-10,0,0.00043608,-5.4141e-06,-47.541,-218.87,0,1.6535e+08,6.2693,12124,13103,1,13103,1,0.00087058,1.585e-09,0,0.00087058,0.00015219,2.9871e+08,525.55,0,3.3005e+08,87.239,13102,12124,1,12124,1,2.9568e-05,-4.746e-10,0,0.00043608,-5.4383e-06,1.1261e+07,-153.93,0,1.6809e+08,0.98189,12123,11097,1,11097,1,-0.00081145,-3.1254e-09,0,1.5796e-06,-0.00016295,-3.3005e+08,-1015.4,0,8.1142e+05,-107.89,11096,11648,1,11648,1,-0.00040651,-1.4013e-09,0,0.00021804,-8.7108e-05,-1.6534e+08,-448.15,0,8.4791e+07,-19.48,11647,12600,1,12600,1,0.00046565,1.4084e-10,0,0.00065412,7.6272e-05,1.6854e+08,43.847,0,2.4639e+08,32.5,12599,551.74,0,551.74,0,0.00050335,1.0851e-09,0,0.00025293,9.4298e-05,1.9018e+08,353.71,0,9.3884e+07,37.322,551.74,1
1904,3.05,12125,1,12125,1,2.9875e-05,-3.4763e-10,0,0.00043754,-5.4703e-06,147.8,-113.78,0,1.6582e+08,-4.1851,12124,13103,1,13103,1,0.00087371,2.9428e-09,0,0.00087371,0.00015266,2.9942e+08,962.26,0,3.3107e+08,91.174,13102,12124,1,12124,1,2.9874e-05,-1.3882e-10,0,0.00043754,-5.4948e-06,1.1374e+07,-43.446,0,1.6859e+08,-7.397,12123,11097,1,11097,1,-0.00081395,-3.5275e-09,0,1.3777e-06,-0.00016354,-3.3107e+08,-1145.6,0,7.3318e+05,-100.35,11096,11648,1,11648,1,-0.00040766,-1.2317e-09,0,0.00021877,-8.7437e-05,-1.6581e+08,-391.22,0,8.5044e+07,-33.668,11647,12600,1,12600,1,0.00046741,4.368e-10,0,0.00065631,7.6489e-05,1.6904e+08,134.1,0,2.4707e+08,27.366,12599,551.74,0,551.74,0,0.00050503,1.3608e-09,0,0.0002538,9.4613e-05,1.9072e+08,445.36,0,9.4146e+07,39.243,551.74,1
1904,3.06,12125,1,12125,1,3.0184e-05,7.5915e-10,0,0.00043901,-5.5268e-06,-19.856,246.42,0,1.663e+08,-13.188,12124,13103,1,13103,1,0.00087685,1.623e-09,0,0.00087685,0.00015313,3.0014e+08,532.28,0,3.321e+08,55.587,13102,12124,1,12124,1,3.0184e-05,7.7629e-10,0,0.00043901,-5.5517e-06,1.1489e+07,251.09,0,1.6909e+08,-9.0808,12123,11097,1,11097,1,-0.00081649,-1.1689e-10,0,1.1736e-06,-0.00016412,-3.321e+08,-40.037,0,6.5412e+05,-108.62,11096,11648,1,11648,1,-0.00040883,4.1077e-10,0,0.00021951,-8.7769e-05,-1.6628e+08,127.5,0,8.5301e+07,-23.462,11647,12600,1,12600,1,0.0004692,1.1159e-09,0,0.00065852,7.6707e-05,1.6954e+08,363.23,0,2.4777e+08,1.1313,12599,551.74,0,551.74,0,0.00050674,4.5086e-10,0,0.00025468,9.4931e-05,1.9126e+08,148.45,0,9.4411e+07,23.751,551.74,1
1904,3.07,12125,1,12125,1,3.0497e-05,-1.2647e-09,0,0.00044047,-5.5842e-06,239.28,-410.93,0,1.6676e+08,-11.716,12124,13103,1,13103,1,0.00088,8.9662e-10,0,0.00088,0.00015361,3.0085e+08,306.95,0,3.3312e+08,95.658,13102,12124,1,12124,1,3.0497e-05,-1.1847e-09,0,0.00044048,-5.6094e-06,1.1604e+07,-378.17,0,1.6959e+08,-9.5181,12123,11097,1,11097,1,-0.00081901,-4.1354e-09,0,9.6489e-07,-0.00016471,-3.3312e+08,-1341.9,0,5.7327e+05,-146.31,11096,11648,1,11648,1,-0.00040998,-2.3528e-09,0,0.00022024,-8.81e-05,-1.6675e+08,-769.52,0,8.5555e+07,-45.985,11647,12600,1,12600,1,0.00047097,-4.5705e-11,0,0.00066072,7.6924e-05,1.7004e+08,-13.99,0,2.4846e+08,21.246,12599,551.74,0,551.74,0,0.00050843,1.32e-09,0,0.00025555,9.5247e-05,1.918e+08,430.75,0,9.4672e+07,45.913,551.74,1
1904,3.08,12125,1,12125,1,3.081e-05,-3.0796e-10,0,0.00044192,-5.6414e-06,170.22,-102.14,0,1.6723e+08,11.57,12124,13103,1,13103,1,0.00088311,7.6128e-09,0,0.00088311,0.00015407,3.0154e+08,2470.8,0,3.3413e+08,209.5,13102,12124,1,12124,1,3.081e-05,-1.5538e-10,0,0.00044193,-5.6668e-06,1.172e+07,-51.388,0,1.7008e+08,10.677,12123,11097,1,11097,1,-0.00082149,-5.6771e-09,0,7.5526e-07,-0.00016529,-3.3413e+08,-1841.4,0,4.9212e+05,-195.99,11096,11648,1,11648,1,-0.00041112,-2.2906e-09,0,0.00022096,-8.8428e-05,-1.6721e+08,-755.91,0,8.5805e+07,-57.214,11647,12600,1,12600,1,0.00047274,1.0929e-09,0,0.00066289,7.7137e-05,1.7053e+08,351.36,0,2.4914e+08,82.062,12599,551.74,0,551.74,0,0.0005101,2.8377e-09,0,0.00025642,9.556e-05,1.9233e+08,926.65,0,9.493e+07,85.854,551.74,1
1904,3.09,12125,1,12125,1,3.1124e-05,1.2187e-09,0,0.00044341,-5.699e-06,-86.54,395.33,0,1.677e+08,-0.69994,12124,13103,1,13103,1,0.00088628,3.8416e-09,0,0.00088628,0.00015455,3.0225e+08,1264.6,0,3.3516e+08,94.753,13102,12124,1,12124,1,3.1124e-05,1.1263e-09,0,0.00044341,-5.7248e-06,1.1836e+07,357.17,0,1.7058e+08,-0.18236,12123,11097,1,11097,1,-0.00082403,-4.4008e-10,0,5.4689e-07,-0.00016588,-3.3516e+08,-141,0,4.1145e+05,-103.36,11096,11648,1,11648,1,-0.00041228,4.7261e-10,0,0.0002217,-8.8763e-05,-1.6769e+08,144.47,0,8.6063e+07,-19.223,11647,12600,1,12600,1,0.00047453,1.8948e-09,0,0.00066511,7.7357e-05,1.7104e+08,612.65,0,2.4983e+08,15.718,12599,551.74,0,551.74,0,0.00051181,9.866e-10,0,0.0002573,9.588e-05,1.9287e+08,324.23,0,9.5195e+07,31.209,551.74,1
1904,3.1,12125,1,12125,1,3.1445e-05,-3.8261e-10,0,0.00044487,-5.7578e-06,125.63,-122.53,0,1.6817e+08,-1.7729,12124,13103,1,13103,1,0.00088942,4.3552e-09,0,0.00088942,0.00015502,3.0295e+08,1432.6,0,3.3618e+08,124.55,13102,12124,1,12124,1,3.1445e-05,-1.1423e-10,0,0.00044487,-5.7838e-06,1.1955e+07,-35.932,0,1.7107e+08,-3.9636,12123,11097,1,11097,1,-0.00082653,-4.274e-09,0,3.2996e-07,-0.00016647,-3.3618e+08,-1385.2,0,3.2751e+05,-190.65,11096,11648,1,11648,1,-0.00041342,-1.6793e-09,0,0.00022243,-8.9094e-05,-1.6815e+08,-538.5,0,8.6315e+07,-52.222,11647,12600,1,12600,1,0.00047631,7.1663e-10,0,0.0006673,7.7571e-05,1.7153e+08,217.83,0,2.5051e+08,53.325,12599,551.74,0,551.74,0,0.00051349,1.8598e-09,0,0.00025818,9.6195e-05,1.9341e+08,607.21,0,9.5454e+07,63.996,551.74,1
1904,3.11,12125,1,12125,1,3.1765e-05,-1.5139e-09,0,0.00044633,-5.8164e-06,0.63429,-492.6,0,1.6863e+08,-2.2518,12124,13103,1,13103,1,0.00089258,2.0207e-09,0,0.00089258,0.00015549,3.0365e+08,678.17,0,3.3721e+08,121.83,13102,12124,1,12124,1,3.1765e-05,-1.1671e-09,0,0.00044634,-5.8428e-06,1.2072e+07,-379.3,0,1.7156e+08,1.1993,12123,11097,1,11097,1,-0.00082905,-5.9831e-09,0,1.1518e-07,-0.00016706,-3.3721e+08,-1938.3,0,2.4443e+05,-145.69,11096,11648,1,11648,1,-0.00041457,-3.032e-09,0,0.00022317,-8.9428e-05,-1.6862e+08,-985.84,0,8.6568e+07,-50.287,11647,12600,1,12600,1,0.0004781,1.8121e-10,0,0.00066951,7.7787e-05,1.7203e+08,57.397,0,2.512e+08,44.509,12599,551.74,0,551.74,0,0.00051519,1.9709e-09,0,0.00025906,9.6512e-05,1.9394e+08,644.75,0,9.5715e+07,58.999,551.74,1
1904,3.12,12125,1,12125,1,3.2089e-05,-7.3251e-10,0,0.00044782,-5.8758e-06,12.612,-240.69,0,1.691e+08,-24.189,12124,13103,1,13103,1,0.00089574,3.4497e-10,0,0.00089574,0.00015596,3.0434e+08,117.88,0,3.3823e+08,43.184,13102,12124,1,12124,1,3.209e-05,-8.3642e-10,0,0.00044781,-5.9026e-06,1.2192e+07,-268.61,0,1.7206e+08,-18.855,12123,11097,1,11097,1,-0.00083156,-1.7036e-09,0,1.0216e-07,-0.00016765,-3.3823e+08,-569.56,0,1.5944e+05,-126.53,11096,11648,1,11648,1,-0.00041572,-1.2007e-09,0,0.00022391,-8.9763e-05,-1.6909e+08,-399.54,0,8.6822e+07,-38.408,11647,12600,1,12600,1,0.0004799,-2.6408e-10,0,0.00067172,7.8003e-05,1.7253e+08,-82.308,0,2.5189e+08,-0.074925,12599,551.74,0,551.74,0,0.0005169,5.5058e-10,0,0.00025993,9.6831e-05,1.9448e+08,182.37,0,9.5977e+07,34.41,551.74,1
1904,3.13,12125,1,12125,1,3.2416e-05,2.7767e-10,0,0.0004493,-5.9354e-06,-229.43,88.158,0,1.6956e+08,15.283,12124,13103,1,13103,1,0.00089888,4.204e-09,0,0.00089888,0.00015643,3.0502e+08,1360.7,0,3.3924e+08,135.2,13102,12124,1,12124,1,3.2416e-05,1.9886e-10,0,0.00044927,-5.9624e-06,1.2312e+07,63.788,0,1.7255e+08,14.932,12123,11097,1,11097,1,-0.00083405,-2.0976e-09,0,3.2374e-07,-0.00016823,-3.3924e+08,-678.99,0,73999,-119.81,11096,11648,1,11648,1,-0.00041686,-6.2271e-10,0,0.00022464,-9.0096e-05,-1.6955e+08,-203.44,0,8.7073e+07,-24.248,11647,12600,1,12600,1,0.00048169,9.204e-10,0,0.00067391,7.8217e-05,1.7302e+08,297.08,0,2.5256e+08,54.519,12599,551.74,0,551.74,0,0.00051858,1.3106e-09,0,0.00026078,9.7146e-05,1.9501e+08,426.75,0,9.6234e+07,50.303,551.74,1
1904,3.14,12125,1,12125,1,3.2743e-05,-8.1307e-10,0,0.00045077,-5.9954e-06,186.03,-264.08,0,1.7002e+08,1.1223,12124,13103,1,13103,1,0.00090202,5.7617e-09,0,0.00090202,0.0001569,3.0571e+08,1870.8,0,3.4025e+08,162.1,13102,12124,1,12124,1,3.2743e-05,-2.5428e-10,0,0.00045073,-6.0227e-06,1.2433e+07,-80.304,0,1.7304e+08,-8.1815,12123,11097,1,11097,1,-0.00083654,-7.147e-09,0,5.4768e-07,-0.00016882,-3.4025e+08,-2315,0,11845,-139.74,11096,11648,1,11648,1,-0.00041799,-2.6373e-09,0,0.00022536,-9.0428e-05,-1.7001e+08,-868.74,0,8.7323e+07,-60.296,11647,12600,1,12600,1,0.00048347,8.2745e-10,0,0.00067609,7.8429e-05,1.7351e+08,267.98,0,2.5324e+08,67.936,12599,551.74,0,551.74,0,0.00052026,2.8389e-09,0,0.00026162,9.746e-05,1.9553e+08,925.5,0,9.6489e+07,76.615,551.74,1
1904,3.15,12125,1,12125,1,3.307e-05,-4.6068e-11,0,0.00045225,-6.0552e-06,-231.57,-16.184,0,1.7049e+08,19.554,12124,13103,1,13103,1,0.00090517,6.6066e-09,0,0.00090517,0.00015736,3.0639e+08,2157.9,0,3.4127e+08,270.24,13102,12124,1,12124,1,3.307e-05,9.4345e-11,0,0.00045219,-6.0829e-06,1.2553e+07,29.05,0,1.7353e+08,10.096,12123,11097,1,11097,1,-0.00083903,-5.3119e-09,0,7.6994e-07,-0.00016941,-3.4127e+08,-1737.8,0,97715,-127.45,11096,11648,1,11648,1,-0.00041912,-1.5982e-09,0,0.0002261,-9.0762e-05,-1.7047e+08,-505.4,0,8.7574e+07,-36.975,11647,12600,1,12600,1,0.00048527,1.2463e-09,0,0.00067829,7.8643e-05,1.7401e+08,392.89,0,2.5392e+08,69.099,12599,551.74,0,551.74,0,0.00052195,2.4403e-09,0,0.00026247,9.7776e-05,1.9606e+08,797.93,0,9.6737e+07,73.535,551.74,1
1904,3.16,12125,1,12125,1,3.3404e-05,5.5601e-10,0,0.00045376,-6.1165e-06,-29.88,179.12,0,1.7097e+08,-24.053,12124,13103,1,13103,1,0.00090838,1.8192e-09,0,0.00090838,0.00015784,3.0709e+08,571.51,0,3.423e+08,36.507,13102,12124,1,12124,1,3.3405e-05,4.5888e-10,0,0.00045369,-6.1446e-06,1.2676e+07,151.41,0,1.7403e+08,-23.686,12123,11097,1,11097,1,-0.00084157,-5.5715e-10,0,9.9764e-07,-0.00017,-3.423e+08,-167.54,0,1.8566e+05,-69.431,11096,11648,1,11648,1,-0.00042028,1.1492e-10,0,0.00022684,-9.1102e-05,-1.7094e+08,37.089,0,8.783e+07,-44.564,11647,12600,1,12600,1,0.00048709,9.7701e-10,0,0.00068053,7.886e-05,1.7451e+08,319.43,0,2.5461e+08,-5.726,12599,551.74,0,551.74,0,0.00052368,5.781e-10,0,0.00026334,9.8098e-05,1.966e+08,183.13,0,9.6989e+07,22.868,551.74,1
1904,3.17,12125,1,12125,1,3.3742e-05,-1.0394e-09,0,0.00045523,-6.1782e-06,-233.37,-336.18,0,1.7143e+08,10.713,12124,13103,1,13103,1,0.00091154,3.7809e-09,0,0.00091154,0.00015831,3.0776e+08,1227,0,3.4331e+08,197.88,13102,12124,1,12124,1,3.3741e-05,-4.9825e-10,0,0.00045514,-6.2065e-06,1.28e+07,-163.45,0,1.7451e+08,-1.511,12123,11097,1,11097,1,-0.00084405,-6.0368e-09,0,1.2311e-06,-0.00017059,-3.4331e+08,-1950.9,0,2.7581e+05,-140.99,11096,11648,1,11648,1,-0.0004214,-2.7121e-09,0,0.00022757,-9.1436e-05,-1.714e+08,-866.93,0,8.8079e+07,-38.892,11647,12600,1,12600,1,0.00048889,5.588e-10,0,0.00068272,7.9071e-05,1.75e+08,178.26,0,2.5528e+08,66.342,12599,551.74,0,551.74,0,0.00052535,2.2975e-09,0,0.00026419,9.8412e-05,1.9713e+08,746.86,0,9.7232e+07,66.146,551.74,1
1904,3.18,12125,1,12125,1,3.4078e-05,-3.3631e-10,0,0.00045673,-6.2398e-06,-160.67,-110.83,0,1.719e+08,-2.6639,12124,13103,1,13103,1,0.00091472,1.1663e-09,0,0.00091472,0.00015878,3.0844e+08,399.34,0,3.4433e+08,101.01,13102,12124,1,12124,1,3.4079e-05,-2.7335e-10,0,0.00045662,-6.2686e-06,1.2924e+07,-86.834,0,1.75e+08,-0.0013092,12123,11097,1,11097,1,-0.00084656,-1.7604e-09,0,1.4618e-06,-0.00017118,-3.4433e+08,-583.41,0,3.6486e+05,-114.55,11096,11648,1,11648,1,-0.00042254,-8.3737e-10,0,0.00022831,-9.1774e-05,-1.7186e+08,-270.03,0,8.8331e+07,-25.91,11647,12600,1,12600,1,0.0004907,1.4557e-10,0,0.00068493,7.9285e-05,1.7549e+08,43.968,0,2.5596e+08,18.328,12599,551.74,0,551.74,0,0.00052706,6.4127e-10,0,0.00026505,9.8731e-05,1.9766e+08,211.66,0,9.748e+07,33.763,551.74,1
1904,3.19,12125,1,12125,1,3.4419e-05,-7.903e-10,0,0.00045821,-6.3023e-06,-60.534,-257.3,0,1.7237e+08,3.293,12124,13103,1,13103,1,0.00091789,1.6452e-09,0,0.00091789,0.00015924,3.0911e+08,549.96,0,3.4534e+08,113.15,13102,12124,1,12124,1,3.4419e-05,-6.8115e-10,0,0.00045809,-6.3313e-06,1.3049e+07,-214.88,0,1.7549e+08,4.4059,12123,11097,1,11097,1,-0.00084905,-3.0865e-09,0,1.698e-06,-0.00017178,-3.4534e+08,-996.55,0,4.5605e+05,-100.17,11096,11648,1,11648,1,-0.00042367,-1.6395e-09,0,0.00022905,-9.211e-05,-1.7232e+08,-537.03,0,8.8581e+07,-23.257,11647,12600,1,12600,1,0.00049251,6.8882e-11,0,0.00068713,7.9497e-05,1.7598e+08,21.742,0,2.5663e+08,27.121,12599,551.74,0,551.74,0,0.00052876,1.0907e-09,0,0.0002659,9.9048e-05,1.9818e+08,356.68,0,9.7725e+07,38.381,551.74,1
1904,3.2,12125,1,12125,1,3.4762e-05,-5.865e-10,0,0.0004597,-6.3651e-06,-59.222,-191.91,0,1.7284e+08,-10.333,12124,13103,1,13103,1,0.00092108,4.511e-10,0,0.00092108,0.00015971,3.0978e+08,127.95,0,3.4636e+08,64.994,13102,12124,1,12124,1,3.4762e-05,-5.7916e-10,0,0.00045957,-6.3945e-06,1.3175e+07,-188.58,0,1.7598e+08,-10.299,12123,11097,1,11097,1,-0.00085155,-1.6816e-09,0,1.9359e-06,-0.00017237,-3.4636e+08,-551.42,0,5.4779e+05,-85.197,11096,11648,1,11648,1,-0.0004248,-9.9141e-10,0,0.00022978,-9.2449e-05,-1.7278e+08,-326.28,0,8.8832e+07,-26.644,11647,12600,1,12600,1,0.00049433,-1.7528e-10,0,0.00068935,7.971e-05,1.7648e+08,-57.929,0,2.573e+08,9.7943,12599,551.74,0,551.74,0,0.00053046,5.1592e-10,0,0.00026676,9.9366e-05,1.9871e+08,169.83,0,9.7971e+07,26.913,551.74,1
1904,3.21,12125,1,12125,1,3.5108e-05,-4.4705e-10,0,0.00046119,-6.4283e-06,-154.72,-146.37,0,1.733e+08,-0.40047,12124,13103,1,13103,1,0.00092425,4.8184e-10,0,0.00092425,0.00016018,3.1045e+08,136.44,0,3.4737e+08,59.91,13102,12124,1,12124,1,3.5108e-05,-3.7276e-10,0,0.00046103,-6.458e-06,1.3302e+07,-119.87,0,1.7647e+08,0.99697,12123,11097,1,11097,1,-0.00085404,-1.6579e-09,0,2.1763e-06,-0.00017296,-3.4737e+08,-537.58,0,6.405e+05,-68.149,11096,11648,1,11648,1,-0.00042593,-9.2299e-10,0,0.00023052,-9.2787e-05,-1.7324e+08,-297.88,0,8.9082e+07,-20.243,11647,12600,1,12600,1,0.00049614,6.3662e-11,0,0.00069155,7.9921e-05,1.7697e+08,20.332,0,2.5797e+08,20.144,12599,551.74,0,551.74,0,0.00053216,5.4778e-10,0,0.00026761,9.9683e-05,1.9924e+08,179.09,0,9.8215e+07,24.977,551.74,1
1904,3.22,12125,1,12125,1,3.5454e-05,5.0182e-10,0,0.00046267,-6.4917e-06,-194.29,160.99,0,1.7376e+08,27.521,12124,13103,1,13103,1,0.00092742,4.5717e-09,0,0.00092742,0.00016064,3.1111e+08,1492.2,0,3.4837e+08,140.98,13102,12124,1,12124,1,3.5454e-05,2.1617e-10,0,0.0004625,-6.5219e-06,1.3429e+07,68.183,0,1.7695e+08,28.051,12123,11097,1,11097,1,-0.00085651,-2.068e-09,0,2.4182e-06,-0.00017355,-3.4837e+08,-666.88,0,7.3381e+05,-256.54,11096,11648,1,11648,1,-0.00042704,-5.2388e-10,0,0.00023125,-9.3123e-05,-1.7369e+08,-169.83,0,8.933e+07,-8.277,11647,12600,1,12600,1,0.00049795,1.4375e-09,0,0.00069374,8.0131e-05,1.7745e+08,463.72,0,2.5864e+08,63.375,12599,551.74,0,551.74,0,0.00053384,1.5249e-09,0,0.00026846,9.9999e-05,1.9976e+08,494.64,0,9.8457e+07,51.627,551.74,1
1904,3.23,12125,1,12125,1,3.5804e-05,-1.2427e-09,0,0.00046416,-6.5557e-06,-8.3645,-401.45,0,1.7423e+08,-7.5016,12124,13103,1,13103,1,0.00093062,9.2721e-10,0,0.00093062,0.00016111,3.1178e+08,317.57,0,3.4939e+08,121.46,13102,12124,1,12124,1,3.5803e-05,-1.0489e-09,0,0.00046397,-6.5873e-06,1.3557e+07,-336.01,0,1.7744e+08,-9.0093,12123,11097,1,11097,1,-0.00085902,-4.1666e-09,0,2.6624e-06,-0.00017415,-3.4939e+08,-1343.1,0,8.2794e+05,-1057.9,11096,11648,1,11648,1,-0.00042817,-1.9986e-09,0,0.00023199,-9.3463e-05,-1.7415e+08,-644.71,0,8.958e+07,-35.532,11647,12600,1,12600,1,0.00049978,-3.403e-10,0,0.00069596,8.0343e-05,1.7794e+08,-106.89,0,2.5931e+08,18.023,12599,551.74,0,551.74,0,0.00053555,1.1654e-09,0,0.00026932,0.00010032,2.0028e+08,379.53,0,9.8702e+07,75.015,551.74,1
1904,3.24,12125,1,12125,1,3.6156e-05,2.2962e-09,0,0.00046565,-6.6203e-06,-16.688,739.57,0,1.7469e+08,-7.4235,12124,13103,1,13103,1,0.00093382,4.9875e-09,0,0.00093382,0.00016158,3.1244e+08,1575.2,0,3.5041e+08,142.33,13102,12124,1,12124,1,3.6157e-05,2.5362e-09,0,0.00046545,-6.6519e-06,1.3686e+07,802.97,0,1.7792e+08,-13.743,12123,11097,1,11097,1,-0.00086151,-7.7149e-10,0,2.9093e-06,-0.00017475,-3.5041e+08,-264.24,0,9.2306e+05,-761.24,11096,11648,1,11648,1,-0.00042929,1.1317e-09,0,0.00023272,-9.3803e-05,-1.746e+08,360.15,0,8.9829e+07,-39.965,11647,12600,1,12600,1,0.0005016,3.5805e-09,0,0.00069816,8.0553e-05,1.7843e+08,1163,0,2.5998e+08,26.271,12599,551.74,0,551.74,0,0.00053725,1.4959e-09,0,0.00027018,0.00010063,2.008e+08,484.8,0,9.8944e+07,67.431,551.74,1
1904,3.25,12125,1,12125,1,3.6512e-05,-3.6698e-10,0,0.00046715,-6.6854e-06,28.159,-115.35,0,1.7515e+08,-17.246,12124,13103,1,13103,1,0.00093701,2.7482e-10,0,0.00093701,0.00016205,3.1309e+08,94.12,0,3.5142e+08,81.387,13102,12124,1,12124,1,3.6512e-05,-3.604e-10,0,0.00046692,-6.7172e-06,1.3816e+07,-115.48,0,1.7841e+08,-7.4546,12123,11097,1,11097,1,-0.00086399,-1.1872e-09,0,3.1594e-06,-0.00017534,-3.5142e+08,-394.9,0,1.0192e+06,-711.62,11096,11648,1,11648,1,-0.00043041,-6.2072e-10,0,0.00023346,-9.4144e-05,-1.7506e+08,-192.34,0,9.0079e+07,-22.163,11647,12600,1,12600,1,0.00050343,-7.0527e-11,0,0.00070038,8.0764e-05,1.7892e+08,-21.47,0,2.6065e+08,4.2312,12599,551.74,0,551.74,0,0.00053895,3.651e-10,0,0.00027104,0.00010095,2.0133e+08,115.26,0,9.9188e+07,76.369,551.74,1
1904,3.26,12125,1,12125,1,3.6869e-05,1.8405e-09,0,0.00046863,-6.7506e-06,-203.34,594.73,0,1.7561e+08,21.071,12124,13103,1,13103,1,0.0009402,6.6484e-09,0,0.0009402,0.00016251,3.1374e+08,2140.1,0,3.5242e+08,212.76,13102,12124,1,12124,1,3.6868e-05,1.3843e-09,0,0.00046839,-6.7824e-06,1.3947e+07,447.06,0,1.7889e+08,17.869,12123,11097,1,11097,1,-0.00086646,-5.9716e-10,0,3.4122e-06,-0.00017594,-3.5242e+08,-204.53,0,1.1167e+06,-474.36,11096,11648,1,11648,1,-0.00043152,4.9441e-10,0,0.00023419,-9.4483e-05,-1.7551e+08,155.4,0,9.0325e+07,-12.621,11647,12600,1,12600,1,0.00050525,2.9868e-09,0,0.00070258,8.0972e-05,1.7941e+08,961.75,0,2.6131e+08,51.546,12599,551.74,0,551.74,0,0.00054064,1.6749e-09,0,0.00027189,0.00010127,2.0184e+08,544.1,0,9.9427e+07,79.516,551.74,1
1904,3.27,12125,1,12125,1,3.7228e-05,-2.9165e-10,0,0.00047013,-6.8165e-06,4.8522,-90.931,0,1.7607e+08,-8.6968,12124,13103,1,13103,1,0.0009434,7.0914e-10,0,0.0009434,0.00016298,3.1439e+08,242.81,0,3.5343e+08,74.755,13102,12124,1,12124,1,3.7228e-05,-1.2505e-10,0,0.00046987,-6.8485e-06,1.4078e+07,-37.11,0,1.7938e+08,-5.6209,12123,11097,1,11097,1,-0.00086895,-1.9401e-09,0,3.6653e-06,-0.00017653,-3.5343e+08,-622.24,0,1.2141e+06,-296.6,11096,11648,1,11648,1,-0.00043264,-7.2402e-10,0,0.00023493,-9.4825e-05,-1.7597e+08,-229.71,0,9.0574e+07,-23.844,11647,12600,1,12600,1,0.00050709,2.2048e-10,0,0.0007048,8.1183e-05,1.799e+08,73.484,0,2.6197e+08,12.08,12599,551.74,0,551.74,0,0.00054235,6.5947e-10,0,0.00027275,0.00010159,2.0237e+08,213.46,0,9.9671e+07,42.478,551.74,1
1904,3.28,12125,1,12125,1,3.7591e-05,-7.0907e-10,0,0.00047161,-6.8829e-06,103.32,-228.47,0,1.7653e+08,8.5775,12124,13103,1,13103,1,0.0009466,4.8733e-09,0,0.0009466,0.00016344,3.1504e+08,1570.8,0,3.5444e+08,185.3,13102,12124,1,12124,1,3.7591e-05,-5.2701e-10,0,0.00047133,-6.915e-06,1.4211e+07,-169.11,0,1.7985e+08,4.7066,12123,11097,1,11097,1,-0.00087142,-4.7879e-09,0,3.9242e-06,-0.00017713,-3.5444e+08,-1540,0,1.3138e+06,-154.48,11096,11648,1,11648,1,-0.00043374,-2.2972e-09,0,0.00023567,-9.5165e-05,-1.7642e+08,-732.18,0,9.082e+07,-37.503,11647,12600,1,12600,1,0.00050892,5.6066e-10,0,0.000707,8.139e-05,1.8038e+08,177.7,0,2.6263e+08,54.415,12599,551.74,0,551.74,0,0.00054404,2.0386e-09,0,0.00027361,0.0001019,2.0288e+08,660.66,0,9.9908e+07,64.476,551.74,1
1904,3.29,12125,1,12125,1,3.7954e-05,-2.1778e-09,0,0.00047311,-6.9493e-06,-101.16,-703.75,0,1.7699e+08,-1.9301,12124,13103,1,13103,1,0.00094984,1.5535e-09,0,0.00094984,0.00016391,3.1569e+08,511.7,0,3.5546e+08,159.25,13102,12124,1,12124,1,3.7954e-05,-1.7906e-09,0,0.00047281,-6.9818e-06,1.4343e+07,-565.62,0,1.8034e+08,5.2837,12123,11097,1,11097,1,-0.00087392,-7.8032e-09,0,4.1812e-06,-0.00017773,-3.5546e+08,-2570.1,0,1.4126e+06,-331.47,11096,11648,1,11648,1,-0.00043486,-4.0616e-09,0,0.00023641,-9.5509e-05,-1.7687e+08,-1311.7,0,9.1068e+07,-58.161,11647,12600,1,12600,1,0.00051077,-3.4198e-11,0,0.00070922,8.16e-05,1.8087e+08,-9.528,0,2.6329e+08,58.287,12599,551.74,0,551.74,0,0.00054575,2.3721e-09,0,0.00027447,0.00010222,2.034e+08,772.59,0,1.0015e+08,82.858,551.74,1
1904,3.3,12125,1,12125,1,3.8323e-05,-1.6103e-09,0,0.00047461,-7.0169e-06,-42.182,-524.45,0,1.7745e+08,-26.841,12124,13103,1,13103,1,0.00095305,1.0294e-09,0,0.00095305,0.00016438,3.1633e+08,330.58,0,3.5646e+08,95.158,13102,12124,1,12124,1,3.8323e-05,-1.4173e-09,0,0.00047429,-7.0493e-06,1.4478e+07,-441.1,0,1.8082e+08,-12.517,12123,11097,1,11097,1,-0.0008764,-5.7052e-09,0,4.4438e-06,-0.00017833,-3.5646e+08,-1878.2,0,1.5135e+06,-509.07,11096,11648,1,11648,1,-0.00043597,-2.8428e-09,0,0.00023715,-9.5852e-05,-1.7732e+08,-924.16,0,9.1315e+07,-62.917,11647,12600,1,12600,1,0.00051261,-2.4654e-10,0,0.00071144,8.1809e-05,1.8135e+08,-76.15,0,2.6396e+08,27.041,12599,551.74,0,551.74,0,0.00054745,1.5677e-09,0,0.00027533,0.00010254,2.0392e+08,514.33,0,1.0039e+08,82.267,551.74,1
1904,3.31,12125,1,12125,1,3.8694e-05,1.4516e-09,0,0.00047611,-7.0848e-06,-52.184,462.79,0,1.7791e+08,-15.435,12124,13103,1,13103,1,0.00095626,3.2191e-09,0,0.00095626,0.00016484,3.1697e+08,1059.4,0,3.5747e+08,93.192,13102,12124,1,12124,1,3.8695e-05,1.6281e-09,0,0.00047577,-7.1174e-06,1.4614e+07,526.02,0,1.813e+08,-7.2445,12123,11097,1,11097,1,-0.00087887,-4.8558e-10,0,4.7096e-06,-0.00017893,-3.5747e+08,-166.31,0,1.6156e+06,-733.62,11096,11648,1,11648,1,-0.00043707,7.4141e-10,0,0.00023788,-9.6197e-05,-1.7777e+08,236.72,0,9.1564e+07,-24.585,11647,12600,1,12600,1,0.00051446,2.2366e-09,0,0.00071365,8.2017e-05,1.8184e+08,715.84,0,2.6462e+08,9.683,12599,551.74,0,551.74,0,0.00054917,9.2958e-10,0,0.0002762,0.00010286,2.0444e+08,295.18,0,1.0063e+08,76.286,551.74,1
1904,3.32,12125,1,12125,1,3.9066e-05,1.3465e-09,0,0.00047758,-7.1527e-06,-32.943,435.76,0,1.7836e+08,29.482,12124,13103,1,13103,1,0.00095944,8.7525e-09,0,0.00095944,0.0001653,3.1759e+08,2833.2,0,3.5846e+08,250.56,13102,12124,1,12124,1,3.9066e-05,6.2403e-10,0,0.00047722,-7.1852e-06,1.4749e+07,204.49,0,1.8178e+08,19.865,12123,11097,1,11097,1,-0.0008813,-3.9596e-09,0,4.9784e-06,-0.00017952,-3.5846e+08,-1302.5,0,1.7189e+06,-936.03,11096,11648,1,11648,1,-0.00043816,-2.9777e-10,0,0.00023861,-9.6537e-05,-1.7821e+08,-90.236,0,9.1805e+07,-25.882,11647,12600,1,12600,1,0.00051629,2.7976e-09,0,0.00071583,8.2221e-05,1.8231e+08,907.4,0,2.6526e+08,86.192,12599,551.74,0,551.74,0,0.00055084,2.4762e-09,0,0.00027704,0.00010318,2.0494e+08,802.19,0,1.0086e+08,91.299,551.74,1
1904,3.33,12125,1,12125,1,3.9438e-05,1.0623e-09,0,0.00047908,-7.2207e-06,-35.459,345.16,0,1.7881e+08,17.124,12124,13103,1,13103,1,0.00096266,6.4908e-09,0,0.00096266,0.00016576,3.1823e+08,2128.9,0,3.5947e+08,190.09,13102,12124,1,12124,1,3.9438e-05,4.4975e-10,0,0.0004787,-7.2522e-06,1.4885e+07,141.65,0,1.8226e+08,10.615,12123,11097,1,11097,1,-0.00088378,-1.2854e-09,0,5.2445e-06,-0.00018012,-3.5947e+08,-419.37,0,1.8212e+06,-141.28,11096,11648,1,11648,1,-0.00043926,-6.1976e-11,0,0.00023935,-9.6881e-05,-1.7866e+08,-20.564,0,9.2052e+07,-28.892,11647,12600,1,12600,1,0.00051814,1.9153e-09,0,0.00071806,8.2429e-05,1.828e+08,620.27,0,2.6592e+08,54.157,12599,551.74,0,551.74,0,0.00055255,1.6489e-09,0,0.00027791,0.00010349,2.0546e+08,539.53,0,1.011e+08,64.714,551.74,1
1904,3.34,12125,1,12125,1,3.9816e-05,1.7865e-09,0,0.00048058,-7.29e-06,-27.095,578.63,0,1.7927e+08,12.504,12124,13103,1,13103,1,0.00096593,5.2865e-09,0,0.00096593,0.00016623,3.1887e+08,1742.2,0,3.6049e+08,218.48,13102,12124,1,12124,1,3.9816e-05,1.7717e-09,0,0.00048019,-7.3218e-06,1.5023e+07,564.25,0,1.8274e+08,2.2341,12123,11097,1,11097,1,-0.00088629,-7.6631e-10,0,5.5153e-06,-0.00018073,-3.6049e+08,-240.49,0,1.9253e+06,-507.76,11096,11648,1,11648,1,-0.00044037,7.4394e-10,0,0.0002401,-9.7228e-05,-1.7911e+08,231.5,0,9.23e+07,-18.984,11647,12600,1,12600,1,0.00052001,2.733e-09,0,0.00072029,8.2638e-05,1.8328e+08,877.78,0,2.6658e+08,29.35,12599,551.74,0,551.74,0,0.00055427,1.3638e-09,0,0.00027878,0.00010382,2.0598e+08,448.4,0,1.0134e+08,55.191,551.74,1
1904,3.35,12125,1,12125,1,4.0198e-05,1.242e-09,0,0.00048206,-7.3598e-06,64.585,405.23,0,1.7972e+08,27.408,12124,13103,1,13103,1,0.00096913,8.5994e-09,0,0.00096913,0.00016669,3.1948e+08,2800.3,0,3.6148e+08,293.31,13102,12124,1,12124,1,4.0199e-05,4.496e-10,0,0.00048165,-7.3909e-06,1.5162e+07,147.4,0,1.8321e+08,15.259,12123,11097,1,11097,1,-0.00088872,-2.7334e-09,0,5.7933e-06,-0.00018133,-3.6148e+08,-876.46,0,2.0319e+06,-135.49,11096,11648,1,11648,1,-0.00044146,-5.3172e-10,0,0.00024083,-9.7572e-05,-1.7955e+08,-158.3,0,9.2542e+07,-32.442,11647,12600,1,12600,1,0.00052185,2.8108e-09,0,0.00072248,8.2841e-05,1.8376e+08,892.72,0,2.6713e+08,78.492,12599,551.74,0,551.74,0,0.00055595,2.5467e-09,0,0.00027963,0.00010413,2.0648e+08,826.86,0,1.0158e+08,79.229,551.74,1
1904,3.36,12125,1,12125,1,4.0581e-05,5.2672e-10,0,0.00048358,-7.4298e-06,-42.702,173.5,0,1.8018e+08,-14.598,12124,13103,1,13103,1,0.00097238,2.3504e-09,0,0.00097238,0.00016716,3.2012e+08,792.74,0,3.6249e+08,80.542,13102,12124,1,12124,1,4.0581e-05,2.6849e-10,0,0.00048315,-7.4607e-06,1.5301e+07,87.383,0,1.837e+08,-16.326,12123,11097,1,11097,1,-0.00089121,-2.5417e-10,0,6.0693e-06,-0.00018193,-3.6249e+08,-70.887,0,2.1377e+06,-88.29,11096,11648,1,11648,1,-0.00044257,9.1504e-11,0,0.00024158,-9.7921e-05,-1.8001e+08,27.78,0,9.2791e+07,-33.258,11647,12600,1,12600,1,0.00052373,8.65e-10,0,0.00072473,8.305e-05,1.8425e+08,284.43,0,2.6771e+08,3.327,12599,551.74,0,551.74,0,0.00055768,6.1693e-10,0,0.0002805,0.00010445,2.07e+08,206.57,0,1.0182e+08,29.54,551.74,1
1904,3.37,12125,1,12125,1,4.0969e-05,5.1098e-10,0,0.00048508,-7.5008e-06,-81.501,166.28,0,1.8063e+08,-12.994,12124,13103,1,13103,1,0.00097561,2.4076e-09,0,0.00097561,0.00016762,3.2073e+08,790.17,0,3.6349e+08,88.433,13102,12124,1,12124,1,4.0969e-05,2.5672e-10,0,0.00048462,-7.5313e-06,1.5442e+07,82.665,0,1.8417e+08,-16.853,12123,11097,1,11097,1,-0.00089367,-1.74e-10,0,6.3524e-06,-0.00018253,-3.6349e+08,-55.753,0,2.2462e+06,-110.25,11096,11648,1,11648,1,-0.00044365,1.1398e-10,0,0.00024231,-9.8267e-05,-1.8045e+08,34.68,0,9.3034e+07,-34.984,11647,12600,1,12600,1,0.00052559,7.5486e-10,0,0.00072694,8.3255e-05,1.8472e+08,244.47,0,2.6827e+08,7.561,12599,551.74,0,551.74,0,0.00055938,5.7972e-10,0,0.00028137,0.00010477,2.0751e+08,191.34,0,1.0205e+08,35.825,551.74,1
1904,3.38,12125,1,12125,1,4.1357e-05,6.7149e-10,0,0.00048657,-7.5718e-06,-13.229,217.29,0,1.8108e+08,7.2319,12124,13103,1,13103,1,0.00097884,3.862e-09,0,0.00097884,0.00016808,3.2135e+08,1255.5,0,3.6449e+08,144.87,13102,12124,1,12124,1,4.1357e-05,3.5921e-10,0,0.0004861,-7.602e-06,1.5583e+07,116.19,0,1.8464e+08,2.2884,12123,11097,1,11097,1,-0.00089613,-1.2878e-09,0,6.6352e-06,-0.00018314,-3.6449e+08,-412.71,0,2.3546e+06,-101.56,11096,11648,1,11648,1,-0.00044474,-1.3735e-10,0,0.00024305,-9.8614e-05,-1.8089e+08,-42.634,0,9.3278e+07,-24.609,11647,12600,1,12600,1,0.00052746,1.4346e-09,0,0.00072915,8.3459e-05,1.852e+08,454.17,0,2.6883e+08,35.738,12599,551.74,0,551.74,0,0.00056109,1.1946e-09,0,0.00028223,0.00010509,2.0802e+08,387.17,0,1.0229e+08,42.886,551.74,1
1904,3.39,12125,1,12125,1,4.1747e-05,1.731e-10,0,0.00048807,-7.6432e-06,-54.144,57.421,0,1.8153e+08,-2.3469,12124,13103,1,13103,1,0.00098208,1.4024e-09,0,0.00098208,0.00016854,3.2196e+08,475.24,0,3.6549e+08,95.936,13102,12124,1,12124,1,4.1747e-05,9.4378e-11,0,0.00048758,-7.6731e-06,1.5724e+07,29.841,0,1.8512e+08,-6.3187,12123,11097,1,11097,1,-0.00089858,-1.5021e-09,0,6.9199e-06,-0.00018374,-3.6549e+08,-487.45,0,2.4636e+06,-78.904,11096,11648,1,11648,1,-0.00044583,-2.0798e-10,0,0.00024379,-9.8961e-05,-1.8133e+08,-66.786,0,9.3521e+07,-26.752,11647,12600,1,12600,1,0.00052932,6.6337e-10,0,0.00073136,8.3664e-05,1.8568e+08,212.24,0,2.6939e+08,18.952,12599,551.74,0,551.74,0,0.00056279,6.5774e-10,0,0.00028309,0.00010541,2.0852e+08,214.51,0,1.0252e+08,31.69,551.74,1
1904,3.4,12125,1,12125,1,4.2141e-05,-7.0165e-10,0,0.00048957,-7.7153e-06,231.17,-224.69,0,1.8198e+08,-22.416,12124,13103,1,13103,1,0.00098533,3.0393e-09,0,0.00098533,0.000169,3.2258e+08,985.38,0,3.6649e+08,239.85,13102,12124,1,12124,1,4.2141e-05,-8.0014e-10,0,0.00048905,-7.745e-06,1.5867e+07,-246.56,0,1.8559e+08,-32.122,12123,11097,1,11097,1,-0.00090105,-2.9408e-09,0,7.2084e-06,-0.00018435,-3.6649e+08,-940.76,0,2.5741e+06,-192.14,11096,11648,1,11648,1,-0.00044691,-1.7583e-09,0,0.00024453,-9.931e-05,-1.8177e+08,-560.51,0,9.3765e+07,-63.996,11647,12600,1,12600,1,0.0005312,2.7463e-10,0,0.00073358,8.3868e-05,1.8616e+08,83.216,0,2.6995e+08,-0.42436,12599,551.74,0,551.74,0,0.0005645,1.2368e-09,0,0.00028396,0.00010573,2.0903e+08,397.22,0,1.0276e+08,65.823,551.74,1
1904,3.41,12125,1,12125,1,4.2536e-05,-6.8605e-10,0,0.00049106,-7.7876e-06,105.58,-222.89,0,1.8243e+08,-13.351,12124,13103,1,13103,1,0.00098858,3.0609e-09,0,0.00098858,0.00016946,3.2318e+08,999.36,0,3.6749e+08,136.73,13102,12124,1,12124,1,4.2536e-05,-1.6908e-10,0,0.00049053,-7.817e-06,1.6011e+07,-51.781,0,1.8607e+08,-17.759,12123,11097,1,11097,1,-0.0009035,-5.1091e-09,0,7.4979e-06,-0.00018495,-3.6749e+08,-1648.1,0,2.6849e+06,-195.66,11096,11648,1,11648,1,-0.00044799,-2.04e-09,0,0.00024527,-9.9658e-05,-1.8221e+08,-648.16,0,9.4007e+07,-58.82,11647,12600,1,12600,1,0.00053307,6.9454e-10,0,0.0007358,8.4071e-05,1.8663e+08,210.39,0,2.705e+08,27.456,12599,551.74,0,551.74,0,0.0005662,1.9366e-09,0,0.00028482,0.00010605,2.0953e+08,627.19,0,1.0299e+08,63.351,551.74,1
1904,3.42,12125,1,12125,1,4.2934e-05,-1.3913e-09,0,0.00049256,-7.8603e-06,42.748,-448.07,0,1.8287e+08,-23.719,12124,13103,1,13103,1,0.00099183,3.6232e-09,0,0.00099183,0.00016992,3.2379e+08,1182.9,0,3.6848e+08,163.08,13102,12124,1,12124,1,4.2934e-05,-8.1523e-10,0,0.000492,-7.8895e-06,1.6155e+07,-253.89,0,1.8654e+08,-34.52,12123,11097,1,11097,1,-0.00090595,-7.1448e-09,0,7.7902e-06,-0.00018556,-3.6848e+08,-2287.9,0,2.7967e+06,-217.63,11096,11648,1,11648,1,-0.00044907,-3.2888e-09,0,0.000246,-0.00010001,-1.8265e+08,-1063.5,0,9.4248e+07,-83.88,11647,12600,1,12600,1,0.00053494,5.1488e-10,0,0.00073801,8.4273e-05,1.8711e+08,162.83,0,2.7105e+08,42.345,12599,551.74,0,551.74,0,0.0005679,2.549e-09,0,0.00028568,0.00010636,2.1004e+08,824.01,0,1.0322e+08,80.289,551.74,1
1904,3.43,12125,1,12125,1,4.3334e-05,6.9714e-10,0,0.00049407,-7.9335e-06,-190.54,217.71,0,1.8333e+08,-0.8092,12124,13103,1,13103,1,0.00099508,4.2248e-09,0,0.00099508,0.00017038,3.2439e+08,1367.4,0,3.6948e+08,96.016,13102,12124,1,12124,1,4.3335e-05,4.6139e-10,0,0.00049349,-7.9623e-06,1.63e+07,133.07,0,1.8701e+08,-2.9605,12123,11097,1,11097,1,-0.00090841,-1.5996e-09,0,8.0831e-06,-0.00018616,-3.6948e+08,-547.18,0,2.9087e+06,-105.14,11096,11648,1,11648,1,-0.00045016,-1.8934e-10,0,0.00024675,-0.00010036,-1.8309e+08,-63.383,0,9.4493e+07,-26.197,11647,12600,1,12600,1,0.00053683,1.5796e-09,0,0.00074024,8.4478e-05,1.8758e+08,487.78,0,2.7161e+08,22.527,12599,551.74,0,551.74,0,0.00056962,1.3499e-09,0,0.00028656,0.00010668,2.1055e+08,437.62,0,1.0346e+08,41.292,551.74,1
1904,3.44,12125,1,12125,1,4.3742e-05,-1.7136e-10,0,0.00049558,-8.0081e-06,11.747,-56.046,0,1.8378e+08,-20.071,12124,13103,1,13103,1,0.00099836,2.4143e-09,0,0.00099836,0.00017085,3.2499e+08,789.91,0,3.7049e+08,89.07,13102,12124,1,12124,1,4.3742e-05,-1.0727e-10,0,0.00049498,-8.0365e-06,1.6447e+07,-32.662,0,1.8748e+08,-18.678,12123,11097,1,11097,1,-0.00091087,-1.9722e-09,0,8.3859e-06,-0.00018677,-3.7049e+08,-644.5,0,3.0244e+06,-106.41,11096,11648,1,11648,1,-0.00045124,-8.7204e-10,0,0.00024749,-0.00010071,-1.8353e+08,-276.66,0,9.4736e+07,-49.038,11647,12600,1,12600,1,0.00053872,3.603e-10,0,0.00074247,8.4681e-05,1.8806e+08,114.51,0,2.7215e+08,6.1805,12599,551.74,0,551.74,0,0.00057134,8.9961e-10,0,0.00028743,0.00010701,2.1105e+08,292.92,0,1.0369e+08,36.668,551.74,1
1904,3.45,12125,1,12125,1,4.4151e-05,1.4487e-09,0,0.00049709,-8.0829e-06,48.997,462.32,0,1.8422e+08,-4.7726,12124,13103,1,13103,1,0.0010016,3.0695e-09,0,0.0010016,0.00017131,3.2559e+08,978.45,0,3.7149e+08,89.582,13102,12124,1,12124,1,4.4151e-05,1.5778e-09,0,0.00049647,-8.1108e-06,1.6595e+07,496.68,0,1.8796e+08,-3.2528,12123,11097,1,11097,1,-0.00091333,-4.6558e-10,0,8.6887e-06,-0.00018738,-3.7149e+08,-159.46,0,3.14e+06,-147.14,11096,11648,1,11648,1,-0.00045232,7.4298e-10,0,0.00024823,-0.00010106,-1.8397e+08,232.98,0,9.4978e+07,-18.577,11647,12600,1,12600,1,0.00054062,2.1916e-09,0,0.0007447,8.4884e-05,1.8854e+08,701.06,0,2.727e+08,15.565,12599,551.74,0,551.74,0,0.00057305,9.2985e-10,0,0.0002883,0.00010733,2.1155e+08,298.71,0,1.0392e+08,35.1,551.74,1
1904,3.46,12125,1,12125,1,4.4561e-05,-8.2947e-10,0,0.00049858,-8.1578e-06,1.6763,-262.75,0,1.8466e+08,1.3358,12124,13103,1,13103,1,0.0010049,5.0602e-09,0,0.0010049,0.00017177,3.2618e+08,1632.2,0,3.7248e+08,204.08,13102,12124,1,12124,1,4.4561e-05,-4.9123e-10,0,0.00049794,-8.1854e-06,1.6743e+07,-149.43,0,1.8842e+08,-2.0782,12123,11097,1,11097,1,-0.00091577,-5.8384e-09,0,8.9931e-06,-0.00018799,-3.7248e+08,-1862.5,0,3.2563e+06,-262.55,11096,11648,1,11648,1,-0.00045338,-2.7314e-09,0,0.00024897,-0.00010141,-1.844e+08,-869.15,0,9.5217e+07,-59.713,11647,12600,1,12600,1,0.0005425,7.4236e-10,0,0.00074691,8.5083e-05,1.89e+08,238.99,0,2.7324e+08,69.673,12599,551.74,0,551.74,0,0.00057475,2.4033e-09,0,0.00028916,0.00010764,2.1205e+08,770.41,0,1.0415e+08,85.106,551.74,1
1904,3.47,12125,1,12125,1,4.4973e-05,-1.2534e-09,0,0.00050009,-8.2331e-06,-13.457,-403.21,0,1.8511e+08,-5.7684,12124,13103,1,13103,1,0.0010082,1.2324e-09,0,0.0010082,0.00017223,3.2678e+08,422.1,0,3.7348e+08,138.02,13102,12124,1,12124,1,4.4973e-05,-6.9167e-10,0,0.00049943,-8.2604e-06,1.6892e+07,-221.85,0,1.8889e+08,-8.9602,12123,11097,1,11097,1,-0.00091823,-5.256e-09,0,9.2983e-06,-0.0001886,-3.7348e+08,-1688.7,0,3.3727e+06,-193.99,11096,11648,1,11648,1,-0.00045446,-2.3187e-09,0,0.00024972,-0.00010177,-1.8484e+08,-737.59,0,9.546e+07,-47.182,11647,12600,1,12600,1,0.0005444,-2.5729e-11,0,0.00074915,8.5286e-05,1.8948e+08,-8.0124,0,2.7379e+08,33.328,12599,551.74,0,551.74,0,0.00057647,1.5563e-09,0,0.00029004,0.00010796,2.1255e+08,504.51,0,1.0438e+08,58.417,551.74,1
1904,3.48,12125,1,12125,1,4.5389e-05,8.1982e-10,0,0.0005016,-8.3094e-06,-54.65,258.25,0,1.8555e+08,-3.3452,12124,13103,1,13103,1,0.0010114,2.0419e-09,0,0.0010114,0.00017268,3.2736e+08,643.17,0,3.7447e+08,48.315,13102,12124,1,12124,1,4.539e-05,7.5238e-10,0,0.00050091,-8.3361e-06,1.7043e+07,233.55,0,1.8936e+08,-1.2066,12123,11097,1,11097,1,-0.00092066,-2.6603e-10,0,9.6091e-06,-0.00018921,-3.7447e+08,-86.937,0,3.4912e+06,-58.046,11096,11648,1,11648,1,-0.00045552,2.7479e-10,0,0.00025046,-0.00010212,-1.8527e+08,86.664,0,9.57e+07,-20.556,11647,12600,1,12600,1,0.0005463,1.3511e-09,0,0.00075137,8.5487e-05,1.8995e+08,428.52,0,2.7433e+08,13.152,12599,551.74,0,551.74,0,0.00057819,6.2867e-10,0,0.00029091,0.00010828,2.1305e+08,201.19,0,1.0461e+08,22.264,551.74,1
1904,3.49,12125,1,12125,1,4.5806e-05,-1.8631e-09,0,0.00050308,-8.3855e-06,-1.9516,-595.02,0,1.8599e+08,18.289,12124,13103,1,13103,1,0.0010147,5.4169e-09,0,0.0010147,0.00017314,3.2794e+08,1742.9,0,3.7545e+08,252.29,13102,12124,1,12124,1,4.5806e-05,-1.266e-09,0,0.00050238,-8.4118e-06,1.7192e+07,-394.97,0,1.8982e+08,7.0425,12123,11097,1,11097,1,-0.00092309,-9.1611e-09,0,9.9217e-06,-0.00018982,-3.7545e+08,-2918.3,0,3.6103e+06,-255.71,11096,11648,1,11648,1,-0.00045657,-4.3668e-09,0,0.00025119,-0.00010247,-1.857e+08,-1389.4,0,9.5936e+07,-65.485,11647,12600,1,12600,1,0.00054818,4.9267e-10,0,0.00075356,8.5684e-05,1.9041e+08,161.42,0,2.7485e+08,105.92,12599,551.74,0,551.74,0,0.00057987,3.3245e-09,0,0.00029176,0.0001086,2.1354e+08,1066.6,0,1.0483e+08,104.46,551.74,1
1904,3.5,12125,1,12125,1,4.6223e-05,-1.8422e-09,0,0.0005046,-8.4618e-06,-263.12,-594.93,0,1.8643e+08,14.853,12124,13103,1,13103,1,0.001018,5.63e-09,0,0.001018,0.0001736,3.2853e+08,1834.4,0,3.7646e+08,278.75,13102,12124,1,12124,1,4.6223e-05,-1.1664e-09,0,0.00050387,-8.4878e-06,1.7343e+07,-384.22,0,1.9029e+08,8.9457,12123,11097,1,11097,1,-0.00092555,-9.1229e-09,0,1.0231e-05,-0.00019043,-3.7646e+08,-2948.7,0,3.7281e+06,-255.61,11096,11648,1,11648,1,-0.00045765,-4.3931e-09,0,0.00025194,-0.00010282,-1.8614e+08,-1407.5,0,9.6178e+07,-68.16,11647,12600,1,12600,1,0.00055009,4.8943e-10,0,0.00075581,8.5887e-05,1.9089e+08,143.94,0,2.7539e+08,105.36,12599,551.74,0,551.74,0,0.0005816,3.347e-09,0,0.00029264,0.00010892,2.1404e+08,1085.1,0,1.0507e+08,110.68,551.74,1
1904,3.51,12125,1,12125,1,4.665e-05,1.4881e-09,0,0.00050611,-8.54e-06,63.717,469.16,0,1.8688e+08,-20.517,12124,13103,1,13103,1,0.0010213,3.4861e-09,0,0.0010213,0.00017406,3.2911e+08,1096.2,0,3.7745e+08,96.235,13102,12124,1,12124,1,4.6651e-05,1.6059e-09,0,0.00050536,-8.5653e-06,1.7497e+07,503.23,0,1.9076e+08,-21.751,12123,11097,1,11097,1,-0.00092799,-7.4422e-10,0,1.0552e-05,-0.00019104,-3.7745e+08,-254.89,0,3.8503e+06,-166.97,11096,11648,1,11648,1,-0.00045871,5.2765e-10,0,0.00025268,-0.00010318,-1.8657e+08,163.6,0,9.6419e+07,-58.296,11647,12600,1,12600,1,0.00055201,2.4708e-09,0,0.00075804,8.6087e-05,1.9136e+08,784.39,0,2.7593e+08,15.823,12599,551.74,0,551.74,0,0.00058332,1.1351e-09,0,0.00029352,0.00010924,2.1454e+08,360.28,0,1.053e+08,51.132,551.74,1
1904,3.52,12125,1,12125,1,4.7077e-05,7.6833e-10,0,0.00050761,-8.618e-06,-33.062,248.85,0,1.8731e+08,14.223,12124,13103,1,13103,1,0.0010246,4.1978e-09,0,0.0010246,0.00017451,3.2967e+08,1347.9,0,3.7843e+08,208.61,13102,12124,1,12124,1,4.7077e-05,5.5337e-10,0,0.00050683,-8.6428e-06,1.765e+07,174.55,0,1.9122e+08,1.2564,12123,11097,1,11097,1,-0.0009304,-3.3832e-09,0,1.0875e-05,-0.00019165,-3.7843e+08,-1094,0,3.9731e+06,-114.46,11096,11648,1,11648,1,-0.00045975,-6.0295e-10,0,0.00025342,-0.00010353,-1.87e+08,-178.76,0,9.6719e+07,-34.079,11647,12600,1,12600,1,0.00055391,2.1564e-09,0,0.00076025,8.6283e-05,1.9182e+08,694.36,0,2.7645e+08,57.41,12599,551.74,0,551.74,0,0.00058502,1.73e-09,0,0.00029438,0.00010956,2.1503e+08,557.91,0,1.0552e+08,67.283,551.74,1
1904,3.53,12125,1,12125,1,4.7506e-05,2.8703e-09,0,0.00050913,-8.6963e-06,14.945,920.76,0,1.8775e+08,35.189,12124,13103,1,13103,1,0.0010279,7.1611e-09,0,0.0010279,0.00017498,3.3025e+08,2319.8,0,3.7943e+08,305.56,13102,12124,1,12124,1,4.7506e-05,2.7395e-09,0,0.00050833,-8.7207e-06,1.7805e+07,859.8,0,1.9169e+08,19.012,12123,11097,1,11097,1,-0.00093287,-9.3401e-10,0,1.1196e-05,-0.00019227,-3.7943e+08,-319.9,0,4.0952e+06,-106.51,11096,11648,1,11648,1,-0.00046082,1.0981e-09,0,0.00025417,-0.00010389,-1.8743e+08,347.67,0,9.7047e+07,-21.857,11647,12600,1,12600,1,0.00055584,4.6135e-09,0,0.0007625,8.6484e-05,1.923e+08,1468.7,0,2.7699e+08,70.319,12599,551.74,0,551.74,0,0.00058674,2.1659e-09,0,0.00029526,0.00010988,2.1553e+08,705.57,0,1.0575e+08,79.83,551.74,1
1904,3.54,12125,1,12125,1,4.7941e-05,1.0218e-09,0,0.00051064,-8.776e-06,94.661,335.34,0,1.8819e+08,-12.164,12124,13103,1,13103,1,0.0010312,2.9752e-09,0,0.0010312,0.00017543,3.3082e+08,968.52,0,3.8042e+08,118.94,13102,12124,1,12124,1,4.7941e-05,1.0449e-09,0,0.00050982,-8.7998e-06,1.7961e+07,334.02,0,1.9215e+08,-11.196,12123,11097,1,11097,1,-0.00093529,-6.4469e-10,0,1.1523e-05,-0.00019289,-3.8042e+08,-220.81,0,4.2195e+06,-141.67,11096,11648,1,11648,1,-0.00046188,2.1025e-10,0,0.00025491,-0.00010425,-1.8786e+08,67.173,0,9.7373e+07,-45.695,11647,12600,1,12600,1,0.00055776,1.833e-09,0,0.00076473,8.6683e-05,1.9276e+08,600.61,0,2.7751e+08,19.184,12599,551.74,0,551.74,0,0.00058847,9.128e-10,0,0.00029614,0.0001102,2.1602e+08,301.63,0,1.0598e+08,46.169,551.74,1
1904,3.55,12125,1,12125,1,4.8377e-05,3.5425e-10,0,0.00051215,-8.8558e-06,39.692,119.54,0,1.8863e+08,-9.7971,12124,13103,1,13103,1,0.0010345,2.1633e-09,0,0.0010345,0.00017589,3.3138e+08,703.55,0,3.814e+08,89.901,13102,12124,1,12124,1,4.8377e-05,1.9695e-10,0,0.0005113,-8.8792e-06,1.8118e+07,63.92,0,1.9262e+08,-10.673,12123,11097,1,11097,1,-0.00093772,-9.6482e-10,0,1.1854e-05,-0.0001935,-3.814e+08,-295.05,0,4.3451e+06,-127.4,11096,11648,1,11648,1,-0.00046293,-1.9967e-10,0,0.00025565,-0.00010461,-1.8829e+08,-60.435,0,9.77e+07,-32.901,11647,12600,1,12600,1,0.00055968,9.0662e-10,0,0.00076696,8.688e-05,1.9323e+08,291.19,0,2.7804e+08,15.447,12599,551.74,0,551.74,0,0.00059018,7.9251e-10,0,0.00029702,0.00011053,2.1652e+08,256.67,0,1.062e+08,33.097,551.74,1
1904,3.56,12125,1,12125,1,4.8814e-05,-1.9094e-09,0,0.00051364,-8.9356e-06,117.8,-605.47,0,1.8906e+08,-6.9063,12124,13103,1,13103,1,0.0010378,2.2083e-09,0,0.0010378,0.00017634,3.3194e+08,745.56,0,3.8239e+08,170.59,13102,12124,1,12124,1,4.8814e-05,-1.679e-09,0,0.00051278,-8.9584e-06,1.8274e+07,-545.92,0,1.9307e+08,-5.767,12123,11097,1,11097,1,-0.00094013,-6.2382e-09,0,1.2187e-05,-0.00019411,-3.8239e+08,-1980.4,0,4.4715e+06,-183.98,11096,11648,1,11648,1,-0.00046396,-3.5909e-09,0,0.00025639,-0.00010496,-1.8871e+08,-1151.2,0,9.8023e+07,-53.244,11647,12600,1,12600,1,0.00056159,-8.447e-11,0,0.00076916,8.7075e-05,1.9369e+08,-25.402,0,2.7855e+08,40.903,12599,551.74,0,551.74,0,0.00059188,2.0866e-09,0,0.00029788,0.00011084,2.17e+08,666.76,0,1.0642e+08,63.875,551.74,1
1904,3.57,12125,1,12125,1,4.9253e-05,-1.3875e-09,0,0.00051517,-9.016e-06,51.918,-446.54,0,1.895e+08,-20.828,12124,13103,1,13103,1,0.0010411,9.0077e-10,0,0.0010411,0.0001768,3.325e+08,279.27,0,3.8338e+08,116.92,13102,12124,1,12124,1,4.9253e-05,-1.2235e-09,0,0.00051427,-9.0383e-06,1.8432e+07,-382.1,0,1.9354e+08,-14.744,12123,11097,1,11097,1,-0.00094258,-4.3367e-09,0,1.2518e-05,-0.00019473,-3.8338e+08,-1407.5,0,4.5971e+06,-159.82,11096,11648,1,11648,1,-0.00046502,-2.5873e-09,0,0.00025714,-0.00010532,-1.8914e+08,-831.88,0,9.8352e+07,-60.684,11647,12600,1,12600,1,0.00056353,-1.0283e-10,0,0.00077141,8.7274e-05,1.9416e+08,-33.262,0,2.7907e+08,14.296,12599,551.74,0,551.74,0,0.00059361,1.4103e-09,0,0.00029877,0.00011116,2.1749e+08,457.37,0,1.0665e+08,53.521,551.74,1
1904,3.58,12125,1,12125,1,4.9699e-05,2.4366e-09,0,0.00051668,-9.0975e-06,31.084,769.76,0,1.8994e+08,-1.4723,12124,13103,1,13103,1,0.0010444,6.8649e-09,0,0.0010444,0.00017726,3.3306e+08,2208.9,0,3.8437e+08,181.43,13102,12124,1,12124,1,4.97e-05,2.2099e-09,0,0.00051577,-9.1191e-06,1.8592e+07,686.6,0,1.94e+08,-4.8212,12123,11097,1,11097,1,-0.00094501,-7.2431e-10,0,1.2857e-05,-0.00019535,-3.8437e+08,-248.07,0,4.7256e+06,-235.33,11096,11648,1,11648,1,-0.00046607,8.3481e-10,0,0.00025788,-0.00010568,-1.8956e+08,260.67,0,9.868e+07,-48.876,11647,12600,1,12600,1,0.00056547,3.9692e-09,0,0.00077365,8.7471e-05,1.9462e+08,1239.1,0,2.7959e+08,56.3,12599,551.74,0,551.74,0,0.00059533,1.9854e-09,0,0.00029965,0.00011149,2.1798e+08,634.16,0,1.0688e+08,82,551.74,1
1904,3.59,12125,1,12125,1,5.0148e-05,1.4118e-09,0,0.0005182,-9.1795e-06,105.7,454.28,0,1.9037e+08,1.1357,12124,13103,1,13103,1,0.0010477,3.7844e-09,0,0.0010477,0.00017771,3.3361e+08,1228.7,0,3.8536e+08,131.76,13102,12124,1,12124,1,5.0148e-05,1.4007e-09,0,0.00051725,-9.2005e-06,1.8752e+07,448.23,0,1.9446e+08,-5.5555,12123,11097,1,11097,1,-0.00094743,-4.8403e-10,0,1.32e-05,-0.00019597,-3.8536e+08,-165.78,0,4.8553e+06,-74.895,11096,11648,1,11648,1,-0.00046711,5.2159e-10,0,0.00025863,-0.00010604,-1.8999e+08,159.68,0,9.9008e+07,-26.501,11647,12600,1,12600,1,0.0005674,2.2452e-09,0,0.00077588,8.7667e-05,1.9508e+08,724.3,0,2.801e+08,19.516,12599,551.74,0,551.74,0,0.00059705,1.0753e-09,0,0.00030052,0.00011181,2.1847e+08,352.63,0,1.071e+08,41.473,551.74,1
1904,3.6,12125,1,12125,1,5.0597e-05,-1.0181e-09,0,0.0005197,-9.2616e-06,-121.38,-317.78,0,1.908e+08,0.58895,12124,13103,1,13103,1,0.001051,3.3001e-09,0,0.001051,0.00017816,3.3415e+08,1071.6,0,3.8633e+08,189.14,13102,12124,1,12124,1,5.0597e-05,-8.3239e-10,0,0.00051874,-9.2821e-06,1.8913e+07,-255.44,0,1.9491e+08,-8.073,12123,11097,1,11097,1,-0.00094984,-4.5641e-09,0,1.3543e-05,-0.00019658,-3.8633e+08,-1443.4,0,4.9849e+06,-168.99,11096,11648,1,11648,1,-0.00046814,-2.436e-09,0,0.00025937,-0.0001064,-1.9041e+08,-771.77,0,9.9334e+07,-42.868,11647,12600,1,12600,1,0.00056933,2.9277e-10,0,0.0007781,8.7861e-05,1.9554e+08,95.407,0,2.8061e+08,37.996,12599,551.74,0,551.74,0,0.00059876,1.7636e-09,0,0.0003014,0.00011213,2.1895e+08,560.11,0,1.0732e+08,63.17,551.74,1
1904,3.61,12125,1,12125,1,5.1049e-05,5.5344e-10,0,0.00052122,-9.3444e-06,132.79,174.21,0,1.9123e+08,-19.732,12124,13103,1,13103,1,0.0010544,4.0072e-09,0,0.0010544,0.00017862,3.347e+08,1300.3,0,3.8732e+08,79.262,13102,12124,1,12124,1,5.1049e-05,2.7013e-10,0,0.00052023,-9.3644e-06,1.9075e+07,80.399,0,1.9538e+08,-15.363,12123,11097,1,11097,1,-0.00095226,-7.8041e-10,0,1.3889e-05,-0.0001972,-3.8732e+08,-261.23,0,5.116e+06,-179.07,11096,11648,1,11648,1,-0.00046918,-6.883e-11,0,0.00026012,-0.00010676,-1.9083e+08,-22.578,0,9.9664e+07,-48.667,11647,12600,1,12600,1,0.00057128,9.438e-10,0,0.00078035,8.8057e-05,1.9601e+08,294.47,0,2.8113e+08,11.21,12599,551.74,0,551.74,0,0.00060049,9.6977e-10,0,0.00030228,0.00011245,2.1944e+08,314.53,0,1.0755e+08,42.747,551.74,1
1904,3.62,12125,1,12125,1,5.1506e-05,-1.6957e-09,0,0.00052274,-9.4279e-06,-78.187,-538.04,0,1.9166e+08,-18.724,12124,13103,1,13103,1,0.0010577,9.4508e-10,0,0.0010577,0.00017907,3.3525e+08,323.69,0,3.8831e+08,140.53,13102,12124,1,12124,1,5.1506e-05,-1.6725e-09,0,0.00052172,-9.4473e-06,1.9237e+07,-529.58,0,1.9583e+08,-18.772,12123,11097,1,11097,1,-0.00095469,-4.6211e-09,0,1.424e-05,-0.00019782,-3.8831e+08,-1470.7,0,5.2484e+06,-157.13,11096,11648,1,11648,1,-0.00047022,-2.8446e-09,0,0.00026086,-0.00010712,-1.9125e+08,-906.5,0,9.9993e+07,-54.643,11647,12600,1,12600,1,0.00057323,-5.0666e-10,0,0.00078258,8.8252e-05,1.9647e+08,-155.73,0,2.8163e+08,11.365,12599,551.74,0,551.74,0,0.0006022,1.41e-09,0,0.00030316,0.00011277,2.1993e+08,451.31,0,1.0777e+08,51.454,551.74,1
1904,3.63,12125,1,12125,1,5.1964e-05,-2.5436e-10,0,0.00052425,-9.5116e-06,38.978,-85.825,0,1.9209e+08,5.859,12124,13103,1,13103,1,0.001061,3.8405e-09,0,0.001061,0.00017952,3.3578e+08,1237.2,0,3.8928e+08,188.64,13102,12124,1,12124,1,5.1964e-05,-1.5886e-11,0,0.00052321,-9.5304e-06,1.9401e+07,-4.8918,0,1.9629e+08,4.8697,12123,11097,1,11097,1,-0.00095709,-4.0952e-09,0,1.4591e-05,-0.00019844,-3.8928e+08,-1309.8,0,5.3808e+06,-201.44,11096,11648,1,11648,1,-0.00047124,-1.5103e-09,0,0.00026161,-0.00010749,-1.9167e+08,-488.79,0,1.0032e+08,-37.931,11647,12600,1,12600,1,0.00057517,8.0392e-10,0,0.00078481,8.8445e-05,1.9692e+08,255.95,0,2.8213e+08,51.702,12599,551.74,0,551.74,0,0.00060392,1.8375e-09,0,0.00030404,0.00011309,2.2041e+08,588.16,0,1.0799e+08,67.184,551.74,1
1904,3.64,12125,1,12125,1,5.2426e-05,-1.0695e-09,0,0.00052576,-9.5961e-06,162.84,-342.48,0,1.9252e+08,-14.27,12124,13103,1,13103,1,0.0010644,2.5705e-09,0,0.0010644,0.00017998,3.3632e+08,833.28,0,3.9027e+08,144.16,13102,12124,1,12124,1,5.2426e-05,-1.0106e-09,0,0.0005247,-9.6143e-06,1.9566e+07,-312.5,0,1.9674e+08,-10.165,12123,11097,1,11097,1,-0.00095951,-3.7532e-09,0,1.4947e-05,-0.00019906,-3.9027e+08,-1215.6,0,5.515e+06,-143.96,11096,11648,1,11648,1,-0.00047227,-2.3109e-09,0,0.00026235,-0.00010785,-1.9209e+08,-737.92,0,1.0065e+08,-43.717,11647,12600,1,12600,1,0.00057712,7.5431e-11,0,0.00078705,8.8639e-05,1.9738e+08,23.978,0,2.8263e+08,12.311,12599,551.74,0,551.74,0,0.00060564,1.4319e-09,0,0.00030492,0.00011341,2.2089e+08,462.28,0,1.0821e+08,50.382,551.74,1
1904,3.65,12125,1,12125,1,5.2891e-05,-1.7496e-09,0,0.00052728,-9.681e-06,30.997,-559.89,0,1.9295e+08,-22.144,12124,13103,1,13103,1,0.0010677,1.0934e-09,0,0.0010677,0.00018043,3.3685e+08,329.67,0,3.9125e+08,171.84,13102,12124,1,12124,1,5.289e-05,-1.6368e-09,0,0.00052619,-9.6986e-06,1.9731e+07,-508.21,0,1.972e+08,-15.504,12123,11097,1,11097,1,-0.00096193,-4.9495e-09,0,1.5304e-05,-0.00019969,-3.9125e+08,-1588.3,0,5.6497e+06,-212.73,11096,11648,1,11648,1,-0.0004733,-3.1201e-09,0,0.0002631,-0.00010821,-1.9251e+08,-1000.4,0,1.0098e+08,-72.299,11647,12600,1,12600,1,0.00057908,-2.2917e-10,0,0.00078929,8.8833e-05,1.9784e+08,-70.194,0,2.8314e+08,24.988,12599,551.74,0,551.74,0,0.00060737,1.6784e-09,0,0.0003058,0.00011373,2.2137e+08,541.99,0,1.0843e+08,72.165,551.74,1
1904,3.66,12125,1,12125,1,5.3359e-05,-1.0561e-09,0,0.0005288,-9.7667e-06,63.79,-342.26,0,1.9338e+08,-16.132,12124,13103,1,13103,1,0.0010711,3.557e-10,0,0.0010711,0.00018088,3.3738e+08,119.45,0,3.9223e+08,97.26,13102,12124,1,12124,1,5.3359e-05,-1.0506e-09,0,0.00052768,-9.7838e-06,1.9898e+07,-335.92,0,1.9765e+08,-8.4785,12123,11097,1,11097,1,-0.00096433,-2.6663e-09,0,1.5665e-05,-0.00020031,-3.9223e+08,-871.02,0,5.7857e+06,-176.17,11096,11648,1,11648,1,-0.00047432,-1.7145e-09,0,0.00026384,-0.00010858,-1.9292e+08,-561.05,0,1.0131e+08,-50.561,11647,12600,1,12600,1,0.00058104,-3.8712e-10,0,0.00079153,8.9025e-05,1.983e+08,-116.14,0,2.8363e+08,27.781,12599,551.74,0,551.74,0,0.00060909,8.0956e-10,0,0.00030669,0.00011406,2.2185e+08,267.63,0,1.0865e+08,55.355,551.74,1
1904,3.67,12125,1,12125,1,5.383e-05,-5.1209e-10,0,0.00053032,-9.8528e-06,177.43,-167.65,0,1.938e+08,-18.012,12124,13103,1,13103,1,0.0010744,2.9268e-09,0,0.0010744,0.00018133,3.379e+08,924.51,0,3.932e+08,141.48,13102,12124,1,12124,1,5.383e-05,-4.2222e-10,0,0.00052917,-9.8692e-06,2.0065e+07,-137.28,0,1.981e+08,-14.382,12123,11097,1,11097,1,-0.00096673,-2.9061e-09,0,1.6031e-05,-0.00020093,-3.932e+08,-932.45,0,5.9231e+06,-163.76,11096,11648,1,11648,1,-0.00047534,-1.5417e-09,0,0.00026459,-0.00010894,-1.9334e+08,-496.43,0,1.0164e+08,-45.778,11647,12600,1,12600,1,0.000583,3.1795e-10,0,0.00079376,8.9217e-05,1.9875e+08,97.363,0,2.8413e+08,9.7194,12599,551.74,0,551.74,0,0.00061081,1.2871e-09,0,0.00030757,0.00011438,2.2233e+08,411.27,0,1.0887e+08,48.217,551.74,1
1904,3.68,12125,1,12125,1,5.4304e-05,3.5194e-09,0,0.00053185,-9.9395e-06,89.281,1110.6,0,1.9423e+08,-9.2337,12124,13103,1,13103,1,0.0010778,8.7923e-09,0,0.0010778,0.00018179,3.3844e+08,2738.7,0,3.942e+08,185.65,13102,12124,1,12124,1,5.4305e-05,3.3545e-09,0,0.00053068,-9.9554e-06,2.0234e+07,1054.5,0,1.9856e+08,-10.975,12123,11097,1,11097,1,-0.00096918,-9.9597e-10,0,1.6398e-05,-0.00020156,-3.942e+08,-341.12,0,6.061e+06,-214.48,11096,11648,1,11648,1,-0.00047637,1.4055e-09,0,0.00026534,-0.00010931,-1.9375e+08,448.88,0,1.0197e+08,-66.444,11647,12600,1,12600,1,0.00058498,5.6595e-09,0,0.00079602,8.9411e-05,1.9921e+08,1795.3,0,2.8462e+08,51.482,12599,551.74,0,551.74,0,0.00061254,2.6031e-09,0,0.00030846,0.0001147,2.2281e+08,831.07,0,1.0909e+08,82.577,551.74,1
1904,3.69,12125,1,12125,1,5.4784e-05,1.37e-09,0,0.00053338,-1.0027e-05,0.98519,442.8,0,1.9466e+08,2.6082,12124,13103,1,13103,1,0.0010812,3.242e-09,0,0.0010812,0.00018224,3.3895e+08,1055.3,0,3.9518e+08,150.84,13102,12124,1,12124,1,5.4784e-05,1.4646e-09,0,0.00053218,-1.0042e-05,2.0404e+07,466.04,0,1.9901e+08,-1.4243,12123,11097,1,11097,1,-0.00097158,-6.6641e-10,0,1.6769e-05,-0.00020219,-3.9518e+08,-228.24,0,6.2005e+06,-91.358,11096,11648,1,11648,1,-0.00047739,4.8191e-10,0,0.00026609,-0.00010968,-1.9417e+08,146.68,0,1.0231e+08,-26.941,11647,12600,1,12600,1,0.00058696,2.307e-09,0,0.00079827,8.9603e-05,1.9967e+08,746.68,0,2.8512e+08,27.787,12599,551.74,0,551.74,0,0.00061428,1.09e-09,0,0.00030935,0.00011502,2.2329e+08,355.6,0,1.0931e+08,42.054,551.74,1
1904,3.7,12125,1,12125,1,5.5265e-05,5.6062e-10,0,0.00053489,-1.0115e-05,-56.86,185.29,0,1.9508e+08,13.426,12124,13103,1,13103,1,0.0010845,5.5387e-09,0,0.0010845,0.00018269,3.3946e+08,1782.4,0,3.9614e+08,202.13,13102,12124,1,12124,1,5.5265e-05,2.3238e-10,0,0.00053366,-1.013e-05,2.0575e+07,73.249,0,1.9946e+08,-0.86782,12123,11097,1,11097,1,-0.00097395,-1.3082e-09,0,1.7144e-05,-0.00020281,-3.9614e+08,-396.62,0,6.341e+06,-99.92,11096,11648,1,11648,1,-0.0004784,-3.9416e-10,0,0.00026683,-0.00011004,-1.9458e+08,-127.83,0,1.0264e+08,-30.218,11647,12600,1,12600,1,0.00058893,1.1407e-09,0,0.0008005,8.9792e-05,2.0012e+08,361.81,0,2.856e+08,46.533,12599,551.74,0,551.74,0,0.00061599,1.4254e-09,0,0.00031023,0.00011534,2.2376e+08,454.53,0,1.0952e+08,58.254,551.74,1
1904,3.71,12125,1,12125,1,5.5746e-05,2.4394e-09,0,0.0005364,-1.0203e-05,298.92,775.72,0,1.955e+08,19.428,12124,13103,1,13103,1,0.0010879,1.0023e-08,0,0.0010879,0.00018314,3.3998e+08,3224.9,0,3.9712e+08,333.85,13102,12124,1,12124,1,5.5747e-05,1.7509e-09,0,0.00053516,-1.0217e-05,2.0746e+07,533.07,0,1.9991e+08,12.792,12123,11097,1,11097,1,-0.00097637,-2.1858e-09,0,1.7521e-05,-0.00020344,-3.9712e+08,-690.65,0,6.4821e+06,-241.14,11096,11648,1,11648,1,-0.00047941,-2.1046e-10,0,0.00026758,-0.00011041,-1.9499e+08,-63.545,0,1.0297e+08,-58.512,11647,12600,1,12600,1,0.0005909,4.7153e-09,0,0.00080273,8.9982e-05,2.0057e+08,1496.9,0,2.8608e+08,81.457,12599,551.74,0,551.74,0,0.00061771,3.0048e-09,0,0.00031111,0.00011566,2.2423e+08,961.29,0,1.0974e+08,98.209,551.74,1
1904,3.72,12125,1,12125,1,5.6231e-05,-1.2744e-09,0,0.00053793,-1.0292e-05,-58.522,-391.81,0,1.9592e+08,-20.914,12124,13103,1,13103,1,0.0010912,2.5828e-09,0,0.0010912,0.00018359,3.4049e+08,883.91,0,3.9809e+08,108.63,13102,12124,1,12124,1,5.6232e-05,-1.0326e-09,0,0.00053665,-1.0306e-05,2.0917e+07,-311.37,0,2.0036e+08,-22.675,12123,11097,1,11097,1,-0.00097875,-4.9733e-09,0,1.7897e-05,-0.00020406,-3.9809e+08,-1566,0,6.6231e+06,-141.05,11096,11648,1,11648,1,-0.00048042,-2.799e-09,0,0.00026832,-0.00011078,-1.954e+08,-865.58,0,1.033e+08,-68.623,11647,12600,1,12600,1,0.00059288,2.2698e-10,0,0.00080498,9.0173e-05,2.0102e+08,70.239,0,2.8657e+08,26.45,12599,551.74,0,551.74,0,0.00061944,1.8276e-09,0,0.000312,0.00011599,2.2471e+08,579.02,0,1.0996e+08,58.827,551.74,1
1904,3.73,12125,1,12125,1,5.6723e-05,1.1295e-09,0,0.00053946,-1.0382e-05,60.621,355.31,0,1.9634e+08,-18.594,12124,13103,1,13103,1,0.0010946,2.7915e-09,0,0.0010946,0.00018404,3.4099e+08,901.33,0,3.9907e+08,73.419,13102,12124,1,12124,1,5.6723e-05,1.2246e-09,0,0.00053815,-1.0395e-05,2.1091e+07,379.98,0,2.0081e+08,-13.211,12123,11097,1,11097,1,-0.00098115,-2.5797e-10,0,1.8283e-05,-0.00020469,-3.9907e+08,-88.352,0,6.7671e+06,-106.81,11096,11648,1,11648,1,-0.00048143,5.9489e-10,0,0.00026908,-0.00011115,-1.9581e+08,176.28,0,1.0364e+08,-40.941,11647,12600,1,12600,1,0.00059488,1.6741e-09,0,0.00080723,9.0363e-05,2.0148e+08,521.85,0,2.8705e+08,4.0407,12599,551.74,0,551.74,0,0.00062117,6.8217e-10,0,0.0003129,0.00011631,2.2519e+08,219.95,0,1.1017e+08,32.379,551.74,1
1904,3.74,12125,1,12125,1,5.7216e-05,-1.1784e-09,0,0.00054098,-1.0472e-05,-88.684,-369.17,0,1.9676e+08,-0.89874,12124,13103,1,13103,1,0.001098,5.7052e-10,0,0.001098,0.00018449,3.4149e+08,195.4,0,4.0004e+08,90.687,13102,12124,1,12124,1,5.7216e-05,-1.2271e-09,0,0.00053965,-1.0484e-05,2.1265e+07,-377.82,0,2.0125e+08,-3.0323,12123,11097,1,11097,1,-0.00098354,-2.9387e-09,0,1.8669e-05,-0.00020532,-4.0004e+08,-924.33,0,6.9117e+06,-114.63,11096,11648,1,11648,1,-0.00048243,-1.9263e-09,0,0.00026982,-0.00011152,-1.9622e+08,-604.44,0,1.0397e+08,-26.838,11647,12600,1,12600,1,0.00059686,-4.9082e-10,0,0.00080947,9.0551e-05,2.0192e+08,-141.06,0,2.8752e+08,26.613,12599,551.74,0,551.74,0,0.00062289,8.9783e-10,0,0.00031378,0.00011663,2.2565e+08,283.47,0,1.1039e+08,36.75,551.74,1
1904,3.75,12125,1,12125,1,5.7711e-05,-9.8449e-10,0,0.00054251,-1.0562e-05,-48.633,-313.87,0,1.9718e+08,-9.451,12124,13103,1,13103,1,0.0011014,2.0099e-09,0,0.0011014,0.00018494,3.4199e+08,638.87,0,4.0102e+08,114.73,13102,12124,1,12124,1,5.7711e-05,-8.7597e-10,0,0.00054115,-1.0574e-05,2.144e+07,-274.06,0,2.017e+08,-5.423,12123,11097,1,11097,1,-0.00098594,-3.6289e-09,0,1.9057e-05,-0.00020595,-4.0102e+08,-1154.3,0,7.0563e+06,-125.99,11096,11648,1,11648,1,-0.00048343,-2.159e-09,0,0.00027057,-0.00011189,-1.9663e+08,-685.21,0,1.043e+08,-47.132,11647,12600,1,12600,1,0.00059886,1.5663e-10,0,0.00081172,9.074e-05,2.0237e+08,49.103,0,2.88e+08,24.637,12599,551.74,0,551.74,0,0.00062462,1.3583e-09,0,0.00031468,0.00011696,2.2613e+08,433.41,0,1.106e+08,49.653,551.74,1
1904,3.76,12125,1,12125,1,5.8212e-05,2.4363e-09,0,0.00054404,-1.0654e-05,-40.525,764.77,0,1.976e+08,29.446,12124,13103,1,13103,1,0.0011048,5.8022e-09,0,0.0011048,0.00018539,3.425e+08,1798.7,0,4.02e+08,226.92,13102,12124,1,12124,1,5.8212e-05,2.4804e-09,0,0.00054265,-1.0665e-05,2.1617e+07,767.07,0,2.0215e+08,19.096,12123,11097,1,11097,1,-0.00098835,-9.8049e-10,0,1.945e-05,-0.00020658,-4.02e+08,-335.81,0,7.2026e+06,-146.54,11096,11648,1,11648,1,-0.00048444,9.6927e-10,0,0.00027132,-0.00011226,-1.9703e+08,284.02,0,1.0464e+08,-14.458,11647,12600,1,12600,1,0.00060086,4.0072e-09,0,0.00081398,9.093e-05,2.0282e+08,1259.1,0,2.8848e+08,68.968,12599,551.74,0,551.74,0,0.00062636,1.8422e-09,0,0.00031557,0.00011728,2.266e+08,584.18,0,1.1082e+08,61.913,551.74,1
1904,3.77,12125,1,12125,1,5.8716e-05,-6.0579e-10,0,0.00054557,-1.0746e-05,-68.689,-184.07,0,1.9802e+08,-1.5297,12124,13103,1,13103,1,0.0011082,2.4714e-09,0,0.0011082,0.00018584,3.4299e+08,805.56,0,4.0296e+08,110.33,13102,12124,1,12124,1,5.8716e-05,-4.1228e-10,0,0.00054415,-1.0757e-05,2.1794e+07,-127.92,0,2.0259e+08,-0.11544,12123,11097,1,11097,1,-0.00099073,-3.3981e-09,0,1.9846e-05,-0.00020721,-4.0296e+08,-1067.1,0,7.3503e+06,-181.13,11096,11648,1,11648,1,-0.00048543,-1.6975e-09,0,0.00027207,-0.00011263,-1.9744e+08,-531.6,0,1.0497e+08,-34.701,11647,12600,1,12600,1,0.00060286,3.6216e-10,0,0.00081622,9.1117e-05,2.0327e+08,117.01,0,2.8895e+08,38.354,12599,551.74,0,551.74,0,0.00062809,1.3419e-09,0,0.00031647,0.0001176,2.2707e+08,423.29,0,1.1103e+08,51.837,551.74,1
1904,3.78,12125,1,12125,1,5.9222e-05,-1.5141e-09,0,0.00054709,-1.0839e-05,-32.267,-478.43,0,1.9843e+08,-18.798,12124,13103,1,13103,1,0.0011116,1.1419e-09,0,0.0011116,0.00018629,3.4347e+08,391.09,0,4.0394e+08,121.38,13102,12124,1,12124,1,5.9221e-05,-1.3312e-09,0,0.00054565,-1.0849e-05,2.1972e+07,-414.13,0,2.0304e+08,-11.167,12123,11097,1,11097,1,-0.00099312,-4.7982e-09,0,2.0246e-05,-0.00020785,-4.0394e+08,-1523.8,0,7.499e+06,-183.96,11096,11648,1,11648,1,-0.00048643,-2.7673e-09,0,0.00027282,-0.000113,-1.9784e+08,-874.15,0,1.0531e+08,-60.263,11647,12600,1,12600,1,0.00060487,-1.6249e-10,0,0.00081847,9.1304e-05,2.0372e+08,-50.915,0,2.8941e+08,23.428,12599,551.74,0,551.74,0,0.00062982,1.5079e-09,0,0.00031736,0.00011793,2.2753e+08,481.2,0,1.1124e+08,57.552,551.74,1
1904,3.79,12125,1,12125,1,5.973e-05,2.0553e-09,0,0.00054862,-1.0932e-05,-102.93,642.39,0,1.9885e+08,19.872,12124,13103,1,13103,1,0.001115,5.8911e-09,0,0.001115,0.00018673,3.4396e+08,1869.9,0,4.0491e+08,158.72,13102,12124,1,12124,1,5.9731e-05,1.8441e-09,0,0.00054715,-1.0942e-05,2.2151e+07,570.04,0,2.0348e+08,20.237,12123,11097,1,11097,1,-0.00099551,-7.064e-10,0,2.0647e-05,-0.00020848,-4.0491e+08,-241.94,0,7.6479e+06,-111.99,11096,11648,1,11648,1,-0.00048742,5.9044e-10,0,0.00027357,-0.00011338,-1.9825e+08,184.63,0,1.0556e+08,-12.154,11647,12600,1,12600,1,0.00060688,3.4035e-09,0,0.00082073,9.1491e-05,2.0416e+08,1063.9,0,2.8988e+08,51.408,12599,551.74,0,551.74,0,0.00063156,1.682e-09,0,0.00031826,0.00011825,2.28e+08,532.27,0,1.1146e+08,47.971,551.74,1
1904,3.8,12125,1,12125,1,6.0244e-05,-1.7355e-09,0,0.00055015,-1.1026e-05,124.53,-541.92,0,1.9926e+08,-15.787,12124,13103,1,13103,1,0.0011184,2.4271e-09,0,0.0011184,0.00018718,3.4444e+08,814.07,0,4.0588e+08,236.77,13102,12124,1,12124,1,6.0244e-05,-1.7344e-09,0,0.00054865,-1.1035e-05,2.2331e+07,-551.34,0,2.0392e+08,-5.0307,12123,11097,1,11097,1,-0.00099788,-5.0606e-09,0,2.1054e-05,-0.00020911,-4.0588e+08,-1586.6,0,7.7987e+06,-259.65,11096,11648,1,11648,1,-0.0004884,-3.3656e-09,0,0.00027432,-0.00011375,-1.9865e+08,-1060.3,0,1.0581e+08,-65.873,11647,12600,1,12600,1,0.00060889,-3.5164e-11,0,0.00082297,9.1676e-05,2.0461e+08,-9.7868,0,2.9034e+08,24.915,12599,551.74,0,551.74,0,0.00063328,1.8999e-09,0,0.00031915,0.00011857,2.2846e+08,599.92,0,1.1167e+08,86.181,551.74,1
1904,3.81,12125,1,12125,1,6.0758e-05,3.2696e-09,0,0.00055168,-1.112e-05,92.621,1025.1,0,1.9967e+08,10.87,12124,13103,1,13103,1,0.0011218,7.7085e-09,0,0.0011218,0.00018763,3.4493e+08,2382.4,0,4.0685e+08,190.46,13102,12124,1,12124,1,6.0759e-05,3.3247e-09,0,0.00055015,-1.1129e-05,2.2512e+07,1023.5,0,2.0436e+08,2.6003,12123,11097,1,11097,1,-0.0010003,-1.0306e-09,0,2.1461e-05,-0.00020975,-4.0685e+08,-352.97,0,7.9496e+06,-129.06,11096,11648,1,11648,1,-0.00048939,1.2984e-09,0,0.00027507,-0.00011412,-1.9905e+08,390.64,0,1.0606e+08,-33.477,11647,12600,1,12600,1,0.00061091,5.2575e-09,0,0.00082522,9.1862e-05,2.0505e+08,1656.7,0,2.908e+08,43.725,12599,551.74,0,551.74,0,0.00063502,2.3674e-09,0,0.00032005,0.0001189,2.2893e+08,750.57,0,1.1188e+08,62.619,551.74,1
1904,3.82,12125,1,12125,1,6.1278e-05,-4.406e-11,0,0.00055322,-1.1215e-05,1.0707,-3.9917,0,2.0009e+08,-7.0981,12124,13103,1,13103,1,0.0011252,6.2818e-10,0,0.0011252,0.00018807,3.454e+08,215.11,0,4.0781e+08,62.772,13102,12124,1,12124,1,6.1278e-05,1.3169e-11,0,0.00055166,-1.1224e-05,2.2694e+07,4.1342,0,2.048e+08,-6.7744,12123,11097,1,11097,1,-0.0010026,-8.3481e-10,0,2.1872e-05,-0.00021038,-4.0781e+08,-230.08,0,8.1017e+06,-80.599,11096,11648,1,11648,1,-0.00049038,-3.6916e-10,0,0.00027583,-0.0001145,-1.9945e+08,-106.41,0,1.0631e+08,-18.937,11647,12600,1,12600,1,0.00061294,2.4587e-10,0,0.00082749,9.2049e-05,2.055e+08,83.619,0,2.9126e+08,4.3591,12599,551.74,0,551.74,0,0.00063676,3.8902e-10,0,0.00032095,0.00011922,2.2939e+08,119.26,0,1.1209e+08,21.814,551.74,1
1904,3.83,12125,1,12125,1,6.18e-05,-1.7149e-09,0,0.00055474,-1.131e-05,-74.826,-536.55,0,2.0049e+08,24.275,12124,13103,1,13103,1,0.0011286,1.2559e-09,0,0.0011286,0.00018852,3.4586e+08,428.55,0,4.0877e+08,212.1,13102,12124,1,12124,1,6.18e-05,-1.6804e-09,0,0.00055315,-1.1319e-05,2.2877e+07,-524.18,0,2.0524e+08,26.002,12123,11097,1,11097,1,-0.001005,-5.056e-09,0,2.2289e-05,-0.00021102,-4.0877e+08,-1582.5,0,8.2559e+06,-174.54,11096,11648,1,11648,1,-0.00049135,-3.0855e-09,0,0.00027657,-0.00011487,-1.9984e+08,-962.95,0,1.0655e+08,-27.561,11647,12600,1,12600,1,0.00061495,-1.5679e-10,0,0.00082973,9.2231e-05,2.0593e+08,-46.366,0,2.9171e+08,71.498,12599,551.74,0,551.74,0,0.00063848,1.6804e-09,0,0.00032184,0.00011954,2.2985e+08,528.89,0,1.123e+08,75.563,551.74,1
1904,3.84,12125,1,12125,1,6.2325e-05,5.1122e-10,0,0.00055628,-1.1406e-05,344.24,154.62,0,2.0091e+08,-24.021,12124,13103,1,13103,1,0.001132,1.4826e-09,0,0.001132,0.00018896,3.4634e+08,442.01,0,4.0974e+08,118.67,13102,12124,1,12124,1,6.2325e-05,4.1016e-10,0,0.00055466,-1.1414e-05,2.306e+07,129.17,0,2.0568e+08,-29.948,12123,11097,1,11097,1,-0.0010074,-2.6721e-10,0,2.2705e-05,-0.00021165,-4.0974e+08,-91.518,0,8.4095e+06,-140.46,11096,11648,1,11648,1,-0.00049234,1.6571e-10,0,0.00027733,-0.00011525,-2.0025e+08,52.401,0,1.068e+08,-62.418,11647,12600,1,12600,1,0.00061699,8.4683e-10,0,0.00083199,9.2417e-05,2.0638e+08,253.6,0,2.9217e+08,2.4498,12599,551.74,0,551.74,0,0.00064023,4.4463e-10,0,0.00032274,0.00011987,2.3031e+08,132.26,0,1.1251e+08,50.076,551.74,1
1904,3.85,12125,1,12125,1,6.2854e-05,1.0705e-09,0,0.00055781,-1.1503e-05,28.811,335.92,0,2.0131e+08,16.452,12124,13103,1,13103,1,0.0011355,4.58e-09,0,0.0011355,0.00018941,3.4679e+08,1446.1,0,4.107e+08,123.88,13102,12124,1,12124,1,6.2854e-05,6.5294e-10,0,0.00055616,-1.1511e-05,2.3245e+07,203.99,0,2.0612e+08,18.588,12123,11097,1,11097,1,-0.0010097,-1.0283e-09,0,2.3128e-05,-0.00021229,-4.107e+08,-317.1,0,8.5656e+06,-138.9,11096,11648,1,11648,1,-0.00049331,1.0225e-10,0,0.00027808,-0.00011563,-2.0064e+08,33.322,0,1.0705e+08,-15.576,11647,12600,1,12600,1,0.00061901,2.0087e-09,0,0.00083424,9.26e-05,2.0682e+08,619.12,0,2.9262e+08,48.62,12599,551.74,0,551.74,0,0.00064195,1.2733e-09,0,0.00032364,0.00012019,2.3077e+08,402.18,0,1.1272e+08,45.748,551.74,1
1904,3.86,12125,1,12125,1,6.3386e-05,5.3779e-10,0,0.00055935,-1.16e-05,402.09,171.39,0,2.0172e+08,-22.426,12124,13103,1,13103,1,0.0011389,2.9122e-09,0,0.0011389,0.00018985,3.4726e+08,936.04,0,4.1166e+08,54.161,13102,12124,1,12124,1,6.3387e-05,3.1355e-10,0,0.00055767,-1.1608e-05,2.3431e+07,98.732,0,2.0655e+08,-20.593,12123,11097,1,11097,1,-0.0010121,-2.0126e-10,0,2.3553e-05,-0.00021293,-4.1166e+08,-51.667,0,8.7219e+06,-123.34,11096,11648,1,11648,1,-0.00049428,1.9369e-10,0,0.00027883,-0.00011601,-2.0104e+08,56.125,0,1.073e+08,-43.072,11647,12600,1,12600,1,0.00062105,7.342e-10,0,0.0008365,9.2783e-05,2.0726e+08,237.86,0,2.9307e+08,-1.1005,12599,551.74,0,551.74,0,0.00064369,5.4791e-10,0,0.00032454,0.00012051,2.3123e+08,179.08,0,1.1293e+08,30.93,551.74,1
1904,3.87,12125,1,12125,1,6.3923e-05,-8.9763e-10,0,0.00056089,-1.1698e-05,200.08,-279.38,0,2.0213e+08,-16.462,12124,13103,1,13103,1,0.0011424,5.992e-10,0,0.0011424,0.0001903,3.4772e+08,205.25,0,4.1264e+08,77.096,13102,12124,1,12124,1,6.3923e-05,-8.3129e-10,0,0.00055918,-1.1706e-05,2.3618e+07,-260.85,0,2.0699e+08,-14.045,12123,11097,1,11097,1,-0.0010145,-2.7374e-09,0,2.3981e-05,-0.00021357,-4.1264e+08,-838.96,0,8.8794e+06,-143.68,11096,11648,1,11648,1,-0.00049526,-1.6403e-09,0,0.00027959,-0.00011639,-2.0143e+08,-514.38,0,1.0755e+08,-41.001,11647,12600,1,12600,1,0.0006231,-1.4209e-10,0,0.00083877,9.2967e-05,2.077e+08,-41.991,0,2.9351e+08,8.6278,12599,551.74,0,551.74,0,0.00064544,8.7101e-10,0,0.00032545,0.00012084,2.3169e+08,272.78,0,1.1314e+08,42.199,551.74,1
1904,3.88,12125,1,12125,1,6.4463e-05,8.4729e-10,0,0.00056243,-1.1797e-05,11.594,263.07,0,2.0253e+08,6.3807,12124,13103,1,13103,1,0.0011458,2.1514e-09,0,0.0011458,0.00019074,3.4817e+08,663.33,0,4.1359e+08,83.18,13102,12124,1,12124,1,6.4463e-05,7.1914e-10,0,0.00056068,-1.1804e-05,2.3806e+07,223.92,0,2.0743e+08,3.3571,12123,11097,1,11097,1,-0.0010169,-1.4189e-10,0,2.4414e-05,-0.00021421,-4.1359e+08,-40.841,0,9.0384e+06,-60.989,11096,11648,1,11648,1,-0.00049622,3.5324e-10,0,0.00028034,-0.00011677,-2.0183e+08,108.8,0,1.0779e+08,-13.461,11647,12600,1,12600,1,0.00062515,1.351e-09,0,0.00084103,9.3149e-05,2.0813e+08,420.75,0,2.9395e+08,20.828,12599,551.74,0,551.74,0,0.00064718,6.1497e-10,0,0.00032635,0.00012117,2.3214e+08,189.77,0,1.1335e+08,27.387,551.74,1
1904,3.89,12125,1,12125,1,6.5005e-05,-5.2664e-10,0,0.00056396,-1.1896e-05,-101.1,-163.68,0,2.0294e+08,26.361,12124,13103,1,13103,1,0.0011492,2.8e-09,0,0.0011492,0.00019119,3.4862e+08,878.53,0,4.1456e+08,153.81,13102,12124,1,12124,1,6.5005e-05,-3.911e-10,0,0.00056219,-1.1903e-05,2.3994e+07,-116.64,0,2.0786e+08,21.792,12123,11097,1,11097,1,-0.0010192,-3.1192e-09,0,2.4848e-05,-0.00021485,-4.1456e+08,-973.05,0,9.1977e+06,-100.4,11096,11648,1,11648,1,-0.00049719,-1.5874e-09,0,0.00028109,-0.00011715,-2.0222e+08,-488.53,0,1.0804e+08,-12.327,11647,12600,1,12600,1,0.0006272,3.181e-10,0,0.00084329,9.333e-05,2.0857e+08,101.68,0,2.9439e+08,66.858,12599,551.74,0,551.74,0,0.00064892,1.2841e-09,0,0.00032726,0.00012149,2.3259e+08,402.07,0,1.1355e+08,53.535,551.74,1
1904,3.9,12125,1,12125,1,6.5551e-05,1.6342e-09,0,0.0005655,-1.1996e-05,11.236,510.01,0,2.0334e+08,-17.636,12124,13103,1,13103,1,0.0011527,3.8779e-09,0,0.0011527,0.00019163,3.4907e+08,1191.7,0,4.1552e+08,115.84,13102,12124,1,12124,1,6.5551e-05,1.6776e-09,0,0.0005637,-1.2003e-05,2.4184e+07,506.15,0,2.0829e+08,-16.941,12123,11097,1,11097,1,-0.0010216,-5.6321e-10,0,2.5286e-05,-0.00021549,-4.1552e+08,-192.9,0,9.3582e+06,-152.73,11096,11648,1,11648,1,-0.00049815,7.194e-10,0,0.00028185,-0.00011753,-2.0261e+08,208.79,0,1.0828e+08,-53.63,11647,12600,1,12600,1,0.00062925,2.6114e-09,0,0.00084555,9.3511e-05,2.0901e+08,818.36,0,2.9487e+08,15.913,12599,551.74,0,551.74,0,0.00065066,1.1661e-09,0,0.00032816,0.00012181,2.3305e+08,369.99,0,1.1376e+08,52.066,551.74,1
1904,3.91,12125,1,12125,1,6.6099e-05,-9.6773e-10,0,0.00056704,-1.2096e-05,-267.21,-296.97,0,2.0374e+08,26.278,12124,13103,1,13103,1,0.0011561,2.4006e-09,0,0.0011561,0.00019207,3.4951e+08,768.31,0,4.1648e+08,150.25,13102,12124,1,12124,1,6.6099e-05,-7.0893e-10,0,0.0005652,-1.2103e-05,2.4374e+07,-212.5,0,2.0872e+08,23.363,12123,11097,1,11097,1,-0.0010239,-4.1854e-09,0,2.5726e-05,-0.00021614,-4.1648e+08,-1304.2,0,9.5193e+06,-104.42,11096,11648,1,11648,1,-0.0004991,-2.1888e-09,0,0.0002826,-0.00011791,-2.03e+08,-684.8,0,1.0853e+08,-15.05,11647,12600,1,12600,1,0.0006313,2.1761e-10,0,0.0008478,9.3692e-05,2.0944e+08,72.166,0,2.9539e+08,64.788,12599,551.74,0,551.74,0,0.00065239,1.5221e-09,0,0.00032907,0.00012214,2.335e+08,475.32,0,1.1396e+08,51.466,551.74,1
1904,3.92,12125,1,12125,1,6.6652e-05,2.1796e-09,0,0.00056858,-1.2197e-05,217.39,680.95,0,2.0415e+08,-23.435,12124,13103,1,13103,1,0.0011596,5.1615e-09,0,0.0011596,0.00019252,3.4996e+08,1607.9,0,4.1744e+08,202.91,13102,12124,1,12124,1,6.6652e-05,2.2621e-09,0,0.00056672,-1.2204e-05,2.4566e+07,699.4,0,2.0916e+08,-18.04,12123,11097,1,11097,1,-0.0010263,-8.7895e-10,0,2.6172e-05,-0.00021678,-4.1744e+08,-301.03,0,9.6822e+06,-242.95,11096,11648,1,11648,1,-0.00050006,8.4474e-10,0,0.00028336,-0.00011829,-2.0339e+08,242.93,0,1.0877e+08,-67.384,11647,12600,1,12600,1,0.00063337,3.5784e-09,0,0.00085007,9.3872e-05,2.0987e+08,1120.5,0,2.9591e+08,24.197,12599,551.74,0,551.74,0,0.00065414,1.6316e-09,0,0.00032998,0.00012246,2.3395e+08,518.06,0,1.1417e+08,73.235,551.74,1
1904,3.93,12125,1,12125,1,6.7209e-05,-2.1177e-10,0,0.00057013,-1.2299e-05,50.995,-57.146,0,2.0455e+08,-5.6568,12124,13103,1,13103,1,0.0011631,7.5266e-10,0,0.0011631,0.00019296,3.5039e+08,257.7,0,4.1839e+08,37.501,13102,12124,1,12124,1,6.721e-05,-1.6434e-10,0,0.00056823,-1.2306e-05,2.4759e+07,-48.429,0,2.0959e+08,-5.1928,12123,11097,1,11097,1,-0.0010287,-1.4948e-09,0,2.662e-05,-0.00021743,-4.1839e+08,-452.66,0,9.8458e+06,-58.756,11096,11648,1,11648,1,-0.00050102,-6.1916e-10,0,0.00028411,-0.00011868,-2.0378e+08,-181.32,0,1.0902e+08,-19.051,11647,12600,1,12600,1,0.00063544,2.4133e-10,0,0.00085234,9.4053e-05,2.1031e+08,79.718,0,2.9643e+08,8.5427,12599,551.74,0,551.74,0,0.00065589,5.8383e-10,0,0.00033089,0.00012279,2.344e+08,181.32,0,1.1438e+08,18.456,551.74,1
1904,3.94,12125,1,12125,1,6.7769e-05,3.9359e-10,0,0.00057166,-1.2402e-05,-70.057,125.26,0,2.0495e+08,5.1134,12124,13103,1,13103,1,0.0011665,2.3805e-09,0,0.0011665,0.0001934,3.5082e+08,762.03,0,4.1934e+08,108.97,13102,12124,1,12124,1,6.7769e-05,2.671e-10,0,0.00056973,-1.2408e-05,2.4952e+07,78.717,0,2.1001e+08,11.786,12123,11097,1,11097,1,-0.001031,-1.3444e-09,0,2.7073e-05,-0.00021807,-4.1934e+08,-418.2,0,1.0011e+07,-121.26,11096,11648,1,11648,1,-0.00050196,-3.1336e-10,0,0.00028487,-0.00011906,-2.0416e+08,-93.16,0,1.0926e+08,-17.656,11647,12600,1,12600,1,0.0006375,1.1322e-09,0,0.00085459,9.423e-05,2.1074e+08,354.11,0,2.9694e+08,30.937,12599,551.74,0,551.74,0,0.00065762,9.5872e-10,0,0.0003318,0.00012311,2.3485e+08,303.96,0,1.1458e+08,38.555,551.74,1
1904,3.95,12125,1,12125,1,6.833e-05,-8.9278e-10,0,0.0005732,-1.2504e-05,80.881,-277.26,0,2.0534e+08,17.312,12124,13103,1,13103,1,0.00117,2.8199e-09,0,0.00117,0.00019384,3.5125e+08,884.4,0,4.203e+08,162.44,13102,12124,1,12124,1,6.833e-05,-6.8848e-10,0,0.00057124,-1.2511e-05,2.5146e+07,-195.9,0,2.1044e+08,7.6028,12123,11097,1,11097,1,-0.0010334,-3.8781e-09,0,2.7527e-05,-0.00021871,-4.203e+08,-1205.6,0,1.0176e+07,-79.089,11096,11648,1,11648,1,-0.00050291,-2.1171e-09,0,0.00028562,-0.00011944,-2.0454e+08,-653.69,0,1.0951e+08,-16.526,11647,12600,1,12600,1,0.00063957,1.6665e-10,0,0.00085685,9.4408e-05,2.1117e+08,48.496,0,2.9745e+08,45.926,12599,551.74,0,551.74,0,0.00065936,1.4944e-09,0,0.0003327,0.00012344,2.3529e+08,469.08,0,1.1478e+08,47.692,551.74,1
1904,3.96,12125,1,12125,1,6.8896e-05,2.7563e-09,0,0.00057475,-1.2608e-05,13.316,859.12,0,2.0574e+08,-2.2764,12124,13103,1,13103,1,0.0011735,7.932e-09,0,0.0011735,0.00019429,3.5169e+08,2472.4,0,4.2127e+08,242.98,13102,12124,1,12124,1,6.8896e-05,2.4248e-09,0,0.00057276,-1.2615e-05,2.5342e+07,743.02,0,2.1087e+08,0.54032,12123,11097,1,11097,1,-0.0010357,-1.0391e-09,0,2.7984e-05,-0.00021937,-4.2127e+08,-355.72,0,1.0343e+07,-300.26,11096,11648,1,11648,1,-0.00050386,4.2943e-10,0,0.00028638,-0.00011983,-2.0493e+08,123.42,0,1.0975e+08,-59.126,11647,12600,1,12600,1,0.00064165,4.9932e-09,0,0.00085913,9.4588e-05,2.116e+08,1551.4,0,2.9797e+08,66.247,12599,551.74,0,551.74,0,0.00066111,2.5419e-09,0,0.00033362,0.00012376,2.3574e+08,805.69,0,1.1499e+08,100.5,551.74,1
1904,3.97,12125,1,12125,1,6.9468e-05,-1.3806e-09,0,0.0005763,-1.2712e-05,-136.45,-419.97,0,2.0614e+08,0.40166,12124,13103,1,13103,1,0.001177,4.6187e-10,0,0.001177,0.00019473,3.5211e+08,158.19,0,4.2222e+08,109.54,13102,12124,1,12124,1,6.9469e-05,-1.3853e-09,0,0.00057427,-1.2719e-05,2.5539e+07,-412.8,0,2.113e+08,-3.3843,12123,11097,1,11097,1,-0.0010381,-3.3278e-09,0,2.8447e-05,-0.00022001,-4.2222e+08,-1033.3,0,1.0511e+07,-74.484,11096,11648,1,11648,1,-0.0005048,-2.252e-09,0,0.00028713,-0.00012022,-2.0532e+08,-686.32,0,1.1e+08,-24.152,11647,12600,1,12600,1,0.00064374,-4.458e-10,0,0.00086141,9.4766e-05,2.1203e+08,-147.38,0,2.9848e+08,21.19,12599,551.74,0,551.74,0,0.00066286,1.0286e-09,0,0.00033454,0.00012409,2.3619e+08,314.71,0,1.1519e+08,34.323,551.74,1
1904,3.98,12125,1,12125,1,7.0043e-05,-6.323e-10,0,0.00057785,-1.2818e-05,48.103,-198.13,0,2.0654e+08,-2.4208,12124,13103,1,13103,1,0.0011805,6.7385e-10,0,0.0011805,0.00019516,3.5252e+08,230.78,0,4.2317e+08,93.25,13102,12124,1,12124,1,7.0043e-05,-5.9076e-10,0,0.00057578,-1.2825e-05,2.5737e+07,-183.28,0,2.1172e+08,-2.5293,12123,11097,1,11097,1,-0.0010404,-2.0681e-09,0,2.8916e-05,-0.00022066,-4.2317e+08,-656.56,0,1.0681e+07,-95.264,11096,11648,1,11648,1,-0.00050574,-1.1178e-09,0,0.00028789,-0.00012061,-2.057e+08,-348.85,0,1.1024e+08,-29.923,11647,12600,1,12600,1,0.00064583,-1.4919e-10,0,0.00086367,9.4942e-05,2.1245e+08,-44.973,0,2.9898e+08,23.117,12599,551.74,0,551.74,0,0.00066461,6.3259e-10,0,0.00033545,0.00012442,2.3663e+08,199.85,0,1.1539e+08,34.896,551.74,1
1904,3.99,12125,1,12125,1,7.0621e-05,-1.828e-09,0,0.00057939,-1.2923e-05,50.643,-574.92,0,2.0693e+08,9.6624,12124,13103,1,13103,1,0.001184,1.061e-09,0,0.001184,0.00019561,3.5294e+08,358.01,0,4.2413e+08,196.16,13102,12124,1,12124,1,7.062e-05,-1.804e-09,0,0.0005773,-1.293e-05,2.5935e+07,-559.94,0,2.1215e+08,14.696,12123,11097,1,11097,1,-0.0010428,-4.7833e-09,0,2.9384e-05,-0.00022132,-4.2413e+08,-1499.8,0,1.085e+07,-171.71,11096,11648,1,11648,1,-0.00050667,-3.1475e-09,0,0.00028865,-0.00012099,-2.0608e+08,-987.46,0,1.1048e+08,-39.206,11647,12600,1,12600,1,0.00064792,-4.6909e-10,0,0.00086595,9.5119e-05,2.1288e+08,-142.75,0,2.9949e+08,58.709,12599,551.74,0,551.74,0,0.00066635,1.573e-09,0,0.00033637,0.00012474,2.3708e+08,499.48,0,1.1559e+08,71.922,551.74,1
1904,4,12125,1,12125,1,7.1202e-05,-2.1857e-10,0,0.00058095,-1.303e-05,-234.26,-79.191,0,2.0733e+08,28.523,12124,13103,1,13103,1,0.0011875,2.4746e-09,0,0.0011875,0.00019605,3.5335e+08,740.68,0,4.2508e+08,176.87,13102,12124,1,12124,1,7.1202e-05,-7.0885e-11,0,0.00057882,-1.3037e-05,2.6135e+07,-22.317,0,2.1257e+08,30.057,12123,11097,1,11097,1,-0.0010451,-2.3494e-09,0,2.9855e-05,-0.00022197,-4.2508e+08,-750.83,0,1.1021e+07,-100.81,11096,11648,1,11648,1,-0.00050761,-1.0105e-09,0,0.00028941,-0.00012138,-2.0646e+08,-326.01,0,1.1073e+08,-12.049,11647,12600,1,12600,1,0.00065002,4.7876e-10,0,0.00086823,9.5296e-05,2.1331e+08,129.88,0,3e+08,67.08,12599,551.74,0,551.74,0,0.00066811,1.0092e-09,0,0.00033729,0.00012507,2.3752e+08,316.94,0,1.158e+08,51.114,551.74,1
1904,4.01,12125,1,12125,1,7.1788e-05,-4.722e-10,0,0.00058249,-1.3137e-05,149.37,-153.36,0,2.0772e+08,-3.4213,12124,13103,1,13103,1,0.001191,1.0157e-09,0,0.001191,0.00019648,3.5375e+08,316.54,0,4.2603e+08,94.731,13102,12124,1,12124,1,7.1789e-05,-2.1294e-10,0,0.00058033,-1.3144e-05,2.6337e+07,-64.203,0,2.1299e+08,-2.3015,12123,11097,1,11097,1,-0.0010474,-2.6275e-09,0,3.0335e-05,-0.00022262,-4.2603e+08,-839.28,0,1.1194e+07,-139.31,11096,11648,1,11648,1,-0.00050854,-1.2085e-09,0,0.00029017,-0.00012177,-2.0684e+08,-380.5,0,1.1097e+08,-34.239,11647,12600,1,12600,1,0.00065212,2.8403e-10,0,0.00087049,9.547e-05,2.1373e+08,79.822,0,3.005e+08,34.844,12599,551.74,0,551.74,0,0.00066985,9.1972e-10,0,0.0003382,0.00012539,2.3796e+08,292.18,0,1.1599e+08,43.946,551.74,1
1904,4.02,12125,1,12125,1,7.2373e-05,-2.2147e-09,0,0.00058402,-1.3244e-05,107.66,-694.14,0,2.081e+08,51.8,12124,13103,1,13103,1,0.0011945,4.9708e-09,0,0.0011945,0.00019692,3.5415e+08,1543.1,0,4.2697e+08,322.07,13102,12124,1,12124,1,7.2373e-05,-1.6748e-09,0,0.00058182,-1.3252e-05,2.6537e+07,-505.79,0,2.1341e+08,38.292,12123,11097,1,11097,1,-0.0010497,-9.172e-09,0,3.0813e-05,-0.00022327,-4.2697e+08,-2857.4,0,1.1366e+07,-171.06,11096,11648,1,11648,1,-0.00050945,-4.9932e-09,0,0.00029091,-0.00012216,-2.0721e+08,-1548.6,0,1.112e+08,-34.018,11647,12600,1,12600,1,0.0006542,2.756e-10,0,0.00087274,9.5642e-05,2.1415e+08,75.771,0,3.0099e+08,134.99,12599,551.74,0,551.74,0,0.00067157,3.3211e-09,0,0.00033911,0.00012572,2.3839e+08,1040.3,0,1.1619e+08,113.44,551.74,1
1904,4.03,12125,1,12125,1,7.2962e-05,-2.2113e-09,0,0.00058558,-1.3352e-05,363.64,-702.53,0,2.085e+08,-19.971,12124,13103,1,13103,1,0.001198,1.2908e-09,0,0.001198,0.00019736,3.5456e+08,442.07,0,4.2793e+08,171.67,13102,12124,1,12124,1,7.2963e-05,-2.2548e-09,0,0.00058335,-1.336e-05,2.6739e+07,-669.06,0,2.1383e+08,-8.2875,12123,11097,1,11097,1,-0.0010521,-5.7914e-09,0,3.1292e-05,-0.00022392,-4.2793e+08,-1848,0,1.1539e+07,-253.87,11096,11648,1,11648,1,-0.00051039,-3.7812e-09,0,0.00029168,-0.00012255,-2.0759e+08,-1199.5,0,1.1145e+08,-81.489,11647,12600,1,12600,1,0.00065632,-6.1093e-10,0,0.00087503,9.5818e-05,2.1458e+08,-181.36,0,3.0149e+08,49.457,12599,551.74,0,551.74,0,0.00067334,1.8526e-09,0,0.00034004,0.00012605,2.3883e+08,599.05,0,1.1639e+08,86.463,551.74,1
1904,4.04,12125,1,12125,1,7.356e-05,1.9607e-09,0,0.00058715,-1.3461e-05,38.584,592.47,0,2.0889e+08,-8.8104,12124,13103,1,13103,1,0.0012015,4.9821e-09,0,0.0012015,0.0001978,3.5496e+08,1534.1,0,4.2887e+08,145.1,13102,12124,1,12124,1,7.3561e-05,1.9957e-09,0,0.00058488,-1.3469e-05,2.6944e+07,588.03,0,2.1425e+08,-6.7685,12123,11097,1,11097,1,-0.0010544,-4.878e-10,0,3.178e-05,-0.00022457,-4.2887e+08,-167.07,0,1.1715e+07,-152.3,11096,11648,1,11648,1,-0.00051132,7.3588e-10,0,0.00029244,-0.00012294,-2.0796e+08,212.04,0,1.1169e+08,-51.461,11647,12600,1,12600,1,0.00065844,3.1814e-09,0,0.00087731,9.5994e-05,2.15e+08,947.77,0,3.0199e+08,23.997,12599,551.74,0,551.74,0,0.0006751,1.4215e-09,0,0.00034096,0.00012637,2.3927e+08,430.66,0,1.1659e+08,61.212,551.74,1
1904,4.05,12125,1,12125,1,7.4161e-05,9.891e-10,0,0.00058869,-1.3571e-05,-18.646,309.85,0,2.0927e+08,12.95,12124,13103,1,13103,1,0.0012051,5.9901e-09,0,0.0012051,0.00019823,3.5534e+08,1880.6,0,4.2981e+08,213.18,13102,12124,1,12124,1,7.4161e-05,4.2791e-10,0,0.00058639,-1.3579e-05,2.7148e+07,130.31,0,2.1467e+08,12.259,12123,11097,1,11097,1,-0.0010567,-1.6563e-09,0,3.2276e-05,-0.00022523,-4.2981e+08,-511.85,0,1.1893e+07,-224.05,11096,11648,1,11648,1,-0.00051223,-2.3611e-10,0,0.00029319,-0.00012334,-2.0833e+08,-73.134,0,1.1193e+08,-35.424,11647,12600,1,12600,1,0.00066055,2.0995e-09,0,0.00087958,9.6165e-05,2.1542e+08,658.1,0,3.0248e+08,67.234,12599,551.74,0,551.74,0,0.00067684,1.6524e-09,0,0.00034188,0.0001267,2.397e+08,522.74,0,1.1679e+08,76.738,551.74,1
1904,4.06,12125,1,12125,1,7.4761e-05,-1.0202e-10,0,0.00059024,-1.3681e-05,-195.47,-24.617,0,2.0966e+08,-0.12903,12124,13103,1,13103,1,0.0012086,1.847e-09,0,0.0012086,0.00019867,3.5573e+08,626.8,0,4.3076e+08,112.01,13102,12124,1,12124,1,7.4762e-05,-7.6548e-11,0,0.0005879,-1.369e-05,2.7353e+07,-22.576,0,2.1509e+08,2.5962,12123,11097,1,11097,1,-0.0010591,-2.4608e-09,0,3.2767e-05,-0.00022588,-4.3076e+08,-757.66,0,1.2069e+07,-137.12,11096,11648,1,11648,1,-0.00051314,-6.7094e-10,0,0.00029395,-0.00012373,-2.0871e+08,-200.79,0,1.1217e+08,-30.971,11647,12600,1,12600,1,0.00066267,5.1782e-10,0,0.00088186,9.6338e-05,2.1584e+08,165.92,0,3.0297e+08,36.102,12599,551.74,0,551.74,0,0.0006786,9.3456e-10,0,0.00034281,0.00012703,2.4014e+08,297.65,0,1.1699e+08,47.721,551.74,1
1904,4.07,12125,1,12125,1,7.537e-05,-4.7929e-11,0,0.00059181,-1.3792e-05,-35.245,-13.396,0,2.1005e+08,-10.265,12124,13103,1,13103,1,0.0012121,5.6225e-10,0,0.0012121,0.00019911,3.5613e+08,157.25,0,4.3171e+08,75.259,13102,12124,1,12124,1,7.537e-05,-4.7791e-11,0,0.00058944,-1.3802e-05,2.7561e+07,-14.867,0,2.1551e+08,-12.944,12123,11097,1,11097,1,-0.0010614,-5.9571e-10,0,3.3267e-05,-0.00022654,-4.3171e+08,-159.39,0,1.2249e+07,-77.289,11096,11648,1,11648,1,-0.00051407,-2.2536e-10,0,0.00029472,-0.00012413,-2.0908e+08,-69.006,0,1.1241e+08,-28.164,11647,12600,1,12600,1,0.00066481,1.3163e-10,0,0.00088416,9.6513e-05,2.1626e+08,40.67,0,3.0347e+08,6.4346,12599,551.74,0,551.74,0,0.00068037,2.3344e-10,0,0.00034374,0.00012736,2.4058e+08,68.838,0,1.1719e+08,24.059,551.74,1
1904,4.08,12125,1,12125,1,7.5987e-05,1.4769e-10,0,0.00059338,-1.3905e-05,735.3,45.989,0,2.1044e+08,-6.876,12124,13103,1,13103,1,0.0012157,8.5939e-10,0,0.0012157,0.00019954,3.5651e+08,272.06,0,4.3266e+08,45.149,13102,12124,1,12124,1,7.5987e-05,1.0217e-10,0,0.00059096,-1.3915e-05,2.7771e+07,30.908,0,2.1592e+08,-8.6492,12123,11097,1,11097,1,-0.0010637,-8.7252e-11,0,3.3775e-05,-0.0002272,-4.3266e+08,-27.771,0,1.2431e+07,-74.262,11096,11648,1,11648,1,-0.00051498,3.5834e-11,0,0.00029548,-0.00012452,-2.0945e+08,10.94,0,1.1265e+08,-21.564,11647,12600,1,12600,1,0.00066695,2.0127e-10,0,0.00088645,9.6684e-05,2.1668e+08,65.463,0,3.0395e+08,9.0863,12599,551.74,0,551.74,0,0.00068213,1.7166e-10,0,0.00034467,0.00012768,2.4101e+08,54.543,0,1.1738e+08,21.155,551.74,1
1904,4.09,12125,1,12125,1,7.6601e-05,-2.8007e-10,0,0.00059494,-1.4017e-05,-71.283,-86.461,0,2.1082e+08,15.072,12124,13103,1,13103,1,0.0012193,3.5788e-10,0,0.0012193,0.00019998,3.5689e+08,122.57,0,4.336e+08,86.03,13102,12124,1,12124,1,7.6601e-05,-3.1357e-10,0,0.00059249,-1.4028e-05,2.798e+07,-95.978,0,2.1634e+08,13.81,12123,11097,1,11097,1,-0.0010661,-8.0857e-10,0,3.428e-05,-0.00022787,-4.336e+08,-249.26,0,1.2611e+07,-41.264,11096,11648,1,11648,1,-0.00051589,-5.1107e-10,0,0.00029624,-0.00012492,-2.0982e+08,-160.4,0,1.1289e+08,-3.2941,11647,12600,1,12600,1,0.00066909,-6.3905e-11,0,0.00088873,9.6856e-05,2.171e+08,-19.624,0,3.0444e+08,34.585,12599,551.74,0,551.74,0,0.00068389,2.7025e-10,0,0.0003456,0.00012801,2.4144e+08,83.983,0,1.1758e+08,23.662,551.74,1
1904,4.1,12125,1,12125,1,7.722e-05,1.7429e-09,0,0.00059649,-1.413e-05,-23.235,537.25,0,2.112e+08,11.626,12124,13103,1,13103,1,0.0012228,3.9624e-09,0,0.0012228,0.00020042,3.5726e+08,1196.2,0,4.3455e+08,121.17,13102,12124,1,12124,1,7.722e-05,1.7124e-09,0,0.00059401,-1.4141e-05,2.819e+07,529,0,2.1675e+08,8.856,12123,11097,1,11097,1,-0.0010684,-3.7247e-10,0,3.479e-05,-0.00022853,-4.3455e+08,-127.57,0,1.2793e+07,-84.376,11096,11648,1,11648,1,-0.00051679,9.109e-10,0,0.000297,-0.00012532,-2.1019e+08,260.59,0,1.1313e+08,-17.489,11647,12600,1,12600,1,0.00067123,2.6127e-09,0,0.00089101,9.7026e-05,2.1751e+08,811.66,0,3.0492e+08,30.381,12599,551.74,0,551.74,0,0.00068565,1.1214e-09,0,0.00034653,0.00012834,2.4187e+08,346.66,0,1.1778e+08,42.139,551.74,1
1904,4.11,12125,1,12125,1,7.7842e-05,-6.7967e-10,0,0.00059806,-1.4244e-05,-175.65,-205.03,0,2.1158e+08,15.106,12124,13103,1,13103,1,0.0012264,6.4417e-10,0,0.0012264,0.00020085,3.5763e+08,220.57,0,4.3549e+08,109.42,13102,12124,1,12124,1,7.7842e-05,-4.6764e-10,0,0.00059554,-1.4256e-05,2.8401e+07,-141.09,0,2.1716e+08,22.431,12123,11097,1,11097,1,-0.0010707,-2.4252e-09,0,3.5302e-05,-0.00022919,-4.3549e+08,-740.27,0,1.2976e+07,-115.24,11096,11648,1,11648,1,-0.00051769,-1.3082e-09,0,0.00029777,-0.00012571,-2.1056e+08,-392.8,0,1.1337e+08,-6.8263,11647,12600,1,12600,1,0.00067338,-5.675e-11,0,0.0008933,9.7196e-05,2.1793e+08,-16.694,0,3.054e+08,42.332,12599,551.74,0,551.74,0,0.00068741,7.8666e-10,0,0.00034746,0.00012867,2.423e+08,244.27,0,1.1797e+08,41.702,551.74,1
1904,4.12,12125,1,12125,1,7.8468e-05,-2.9379e-09,0,0.00059961,-1.4359e-05,-170.96,-910.08,0,2.1196e+08,39.805,12124,13103,1,13103,1,0.00123,1.5492e-09,0,0.00123,0.00020129,3.58e+08,530.59,0,4.3644e+08,308.42,13102,12124,1,12124,1,7.8466e-05,-2.9308e-09,0,0.00059705,-1.437e-05,2.8612e+07,-901.76,0,2.1757e+08,28.653,12123,11097,1,11097,1,-0.001073,-7.5343e-09,0,3.5819e-05,-0.00022985,-4.3644e+08,-2318.3,0,1.316e+07,-191.12,11096,11648,1,11648,1,-0.00051859,-4.6985e-09,0,0.00029853,-0.00012611,-2.1092e+08,-1457.4,0,1.136e+08,-15.664,11647,12600,1,12600,1,0.00067552,-1.2249e-09,0,0.00089558,9.7365e-05,2.1834e+08,-349.24,0,3.0588e+08,80.716,12599,551.74,0,551.74,0,0.00068916,2.2209e-09,0,0.00034839,0.000129,2.4272e+08,691.54,0,1.1817e+08,88.594,551.74,1
1904,4.13,12125,1,12125,1,7.9096e-05,1.9641e-10,0,0.00060117,-1.4474e-05,163.46,44.52,0,2.1234e+08,2.049,12124,13103,1,13103,1,0.0012335,2.1044e-09,0,0.0012335,0.00020172,3.5836e+08,604.59,0,4.3736e+08,244.08,13102,12124,1,12124,1,7.9096e-05,2.0844e-10,0,0.00059857,-1.4486e-05,2.8826e+07,60.627,0,2.1798e+08,-20.176,12123,11097,1,11097,1,-0.0010753,-1.4039e-09,0,3.6337e-05,-0.00023051,-4.3736e+08,-480.53,0,1.3345e+07,-163.39,11096,11648,1,11648,1,-0.00051948,-4.5112e-10,0,0.00029929,-0.00012651,-2.1128e+08,-145.78,0,1.1384e+08,-55.418,11647,12600,1,12600,1,0.00067767,8.2086e-10,0,0.00089786,9.7533e-05,2.1875e+08,222.63,0,3.0636e+08,47.202,12599,551.74,0,551.74,0,0.00069091,8.4314e-10,0,0.00034932,0.00012932,2.4315e+08,255.63,0,1.1836e+08,78.71,551.74,1
1904,4.14,12125,1,12125,1,7.9728e-05,-1.4733e-09,0,0.00060273,-1.4589e-05,88.207,-462.88,0,2.1272e+08,21.941,12124,13103,1,13103,1,0.0012371,1.1252e-09,0,0.0012371,0.00020215,3.5872e+08,324.44,0,4.3831e+08,190.38,13102,12124,1,12124,1,7.9728e-05,-1.401e-09,0,0.0006001,-1.4602e-05,2.9039e+07,-432.96,0,2.1839e+08,22.177,12123,11097,1,11097,1,-0.0010776,-4.5297e-09,0,3.6863e-05,-0.00023118,-4.3831e+08,-1424.4,0,1.3532e+07,-150.73,11096,11648,1,11648,1,-0.00052037,-2.7263e-09,0,0.00030005,-0.00012691,-2.1165e+08,-847.69,0,1.1408e+08,-27.638,11647,12600,1,12600,1,0.00067983,-1.1448e-10,0,0.00090015,9.7701e-05,2.1916e+08,-36.504,0,3.0683e+08,69.99,12599,551.74,0,551.74,0,0.00069267,1.4707e-09,0,0.00035026,0.00012965,2.4357e+08,463.89,0,1.1855e+08,65.725,551.74,1
1904,4.15,12125,1,12125,1,8.0363e-05,-1.1074e-09,0,0.00060428,-1.4705e-05,-229.29,-352.71,0,2.1309e+08,47.418,12124,13103,1,13103,1,0.0012407,3.932e-09,0,0.0012407,0.00020258,3.5907e+08,1199.3,0,4.3924e+08,306.62,13102,12124,1,12124,1,8.0363e-05,-5.0951e-10,0,0.00060161,-1.4719e-05,2.9254e+07,-153.68,0,2.188e+08,45.228,12123,11097,1,11097,1,-0.0010799,-6.615e-09,0,3.7388e-05,-0.00023184,-4.3924e+08,-2066.8,0,1.3718e+07,-149.77,11096,11648,1,11648,1,-0.00052125,-3.0194e-09,0,0.00030081,-0.00012731,-2.12e+08,-942.16,0,1.1431e+08,-24.194,11647,12600,1,12600,1,0.00068198,6.4583e-10,0,0.00090243,9.7867e-05,2.1957e+08,188.2,0,3.073e+08,98.888,12599,551.74,0,551.74,0,0.00069442,2.4536e-09,0,0.00035119,0.00012998,2.4399e+08,764.79,0,1.1874e+08,93.257,551.74,1
1904,4.16,12125,1,12125,1,8.1002e-05,-4.5535e-10,0,0.00060585,-1.4822e-05,-17.39,-152.68,0,2.1347e+08,15.35,12124,13103,1,13103,1,0.0012442,4.7012e-09,0,0.0012442,0.00020302,3.5943e+08,1458.5,0,4.4018e+08,206.02,13102,12124,1,12124,1,8.1003e-05,1.1328e-11,0,0.00060314,-1.4837e-05,2.9469e+07,3.7487,0,2.1921e+08,16.024,12123,11097,1,11097,1,-0.0010822,-5.2944e-09,0,3.7918e-05,-0.00023251,-4.4018e+08,-1671.4,0,1.3906e+07,-165.45,11096,11648,1,11648,1,-0.00052214,-2.1325e-09,0,0.00030157,-0.00012771,-2.1237e+08,-669.21,0,1.1455e+08,-48.745,11647,12600,1,12600,1,0.00068415,1.0437e-09,0,0.00090472,9.8035e-05,2.1998e+08,288.04,0,3.0777e+08,68.239,12599,551.74,0,551.74,0,0.00069619,2.2139e-09,0,0.00035213,0.00013031,2.4441e+08,696.59,0,1.1894e+08,80.011,551.74,1
1904,4.17,12125,1,12125,1,8.1648e-05,1.633e-09,0,0.00060742,-1.4941e-05,145.28,494.49,0,2.1384e+08,5.3173,12124,13103,1,13103,1,0.0012478,7.0931e-09,0,0.0012478,0.00020345,3.5978e+08,2209.1,0,4.4111e+08,183.77,13102,12124,1,12124,1,8.1649e-05,1.1094e-09,0,0.00060468,-1.4955e-05,2.9687e+07,306.52,0,2.1961e+08,14.314,12123,11097,1,11097,1,-0.0010845,-9.2369e-10,0,3.8456e-05,-0.00023317,-4.4111e+08,-316.27,0,1.4096e+07,-207.9,11096,11648,1,11648,1,-0.00052303,1.4119e-10,0,0.00030234,-0.00012812,-2.1273e+08,47.525,0,1.1479e+08,-40.264,11647,12600,1,12600,1,0.00068632,2.8707e-09,0,0.00090701,9.8203e-05,2.2039e+08,863.29,0,3.0825e+08,55.061,12599,551.74,0,551.74,0,0.00069796,1.8605e-09,0,0.00035307,0.00013064,2.4484e+08,585.11,0,1.1913e+08,70.724,551.74,1
1904,4.18,12125,1,12125,1,8.2299e-05,1.8529e-10,0,0.00060899,-1.506e-05,23.162,60.028,0,2.1422e+08,-0.65077,12124,13103,1,13103,1,0.0012514,3.3318e-09,0,0.0012514,0.00020388,3.6012e+08,1055.3,0,4.4205e+08,138.11,13102,12124,1,12124,1,8.2299e-05,6.8276e-11,0,0.0006062,-1.5075e-05,2.9906e+07,18.634,0,2.2002e+08,4.4145,12123,11097,1,11097,1,-0.0010868,-1.4886e-09,0,3.8998e-05,-0.00023384,-4.4205e+08,-470.19,0,1.4288e+07,-143.93,11096,11648,1,11648,1,-0.00052391,-4.0403e-10,0,0.0003031,-0.00012852,-2.1308e+08,-128.12,0,1.1502e+08,-26.678,11647,12600,1,12600,1,0.00068851,6.2997e-10,0,0.00090931,9.8368e-05,2.2079e+08,196.9,0,3.0871e+08,30.046,12599,551.74,0,551.74,0,0.00069972,9.4954e-10,0,0.00035401,0.00013096,2.4526e+08,305.26,0,1.1932e+08,47.495,551.74,1
1904,4.19,12125,1,12125,1,8.2952e-05,-1.4313e-09,0,0.00061056,-1.5179e-05,-169.4,-439.33,0,2.1459e+08,18.36,12124,13103,1,13103,1,0.001255,2.1978e-09,0,0.001255,0.00020431,3.6046e+08,700.63,0,4.4299e+08,186.58,13102,12124,1,12124,1,8.2952e-05,-1.2694e-09,0,0.00060774,-1.5195e-05,3.0125e+07,-379.54,0,2.2042e+08,17.706,12123,11097,1,11097,1,-0.0010891,-5.1445e-09,0,3.9542e-05,-0.00023451,-4.4299e+08,-1594.7,0,1.448e+07,-143.19,11096,11648,1,11648,1,-0.00052478,-2.9087e-09,0,0.00030387,-0.00012892,-2.1344e+08,-894.87,0,1.1526e+08,-28.226,11647,12600,1,12600,1,0.00069069,5.8526e-11,0,0.0009116,9.8534e-05,2.212e+08,17.049,0,3.0918e+08,58.902,12599,551.74,0,551.74,0,0.00070149,1.7459e-09,0,0.00035495,0.00013129,2.4567e+08,545.16,0,1.1951e+08,64.305,551.74,1
1904,4.2,12125,1,12125,1,8.3609e-05,1.9565e-09,0,0.00061213,-1.5299e-05,-166.14,594.73,0,2.1496e+08,20.216,12124,13103,1,13103,1,0.0012586,7.8795e-09,0,0.0012586,0.00020475,3.608e+08,2432.7,0,4.4392e+08,226.35,13102,12124,1,12124,1,8.3609e-05,1.4531e-09,0,0.00060927,-1.5316e-05,3.0346e+07,426.02,0,2.2083e+08,21.491,12123,11097,1,11097,1,-0.0010914,-6.0269e-10,0,4.0088e-05,-0.00023518,-4.4392e+08,-206.42,0,1.4673e+07,-175.9,11096,11648,1,11648,1,-0.00052566,3.9612e-10,0,0.00030463,-0.00012933,-2.138e+08,114.45,0,1.1549e+08,-29.914,11647,12600,1,12600,1,0.00069288,3.2548e-09,0,0.0009139,9.87e-05,2.216e+08,986.82,0,3.0964e+08,74.384,12599,551.74,0,551.74,0,0.00070326,1.909e-09,0,0.0003559,0.00013162,2.4609e+08,594.82,0,1.197e+08,74.107,551.74,1
1904,4.21,12125,1,12125,1,8.427e-05,-3.0362e-10,0,0.00061369,-1.542e-05,131.88,-85.89,0,2.1533e+08,18.88,12124,13103,1,13103,1,0.0012622,5.6926e-09,0,0.0012622,0.00020517,3.6112e+08,1796.4,0,4.4484e+08,246.64,13102,12124,1,12124,1,8.4271e-05,-1.8854e-10,0,0.00061079,-1.5438e-05,3.0568e+07,-57.847,0,2.2122e+08,20.988,12123,11097,1,11097,1,-0.0010937,-4.2372e-09,0,4.0641e-05,-0.00023585,-4.4484e+08,-1296.4,0,1.4868e+07,-141.61,11096,11648,1,11648,1,-0.00052652,-1.9041e-09,0,0.0003054,-0.00012973,-2.1415e+08,-595.82,0,1.1572e+08,-31.096,11647,12600,1,12600,1,0.00069506,9.12e-10,0,0.00091618,9.8862e-05,2.22e+08,288.62,0,3.1009e+08,61.749,12599,551.74,0,551.74,0,0.00070501,2.1291e-09,0,0.00035684,0.00013195,2.465e+08,664.9,0,1.1989e+08,68.434,551.74,1
1904,4.22,12125,1,12125,1,8.4935e-05,-1.1392e-09,0,0.00061527,-1.5542e-05,170.36,-350.06,0,2.157e+08,-4.2282,12124,13103,1,13103,1,0.0012659,1.9781e-09,0,0.0012659,0.00020561,3.6146e+08,676.68,0,4.4578e+08,130.72,13102,12124,1,12124,1,8.4935e-05,-1.0213e-09,0,0.00061233,-1.556e-05,3.079e+07,-310.34,0,2.2163e+08,5.7985,12123,11097,1,11097,1,-0.001096,-4.0871e-09,0,4.1196e-05,-0.00023652,-4.4578e+08,-1282.8,0,1.5063e+07,-165.67,11096,11648,1,11648,1,-0.0005274,-2.3515e-09,0,0.00030617,-0.00013014,-2.145e+08,-724.26,0,1.1596e+08,-42.543,11647,12600,1,12600,1,0.00069727,2.9235e-11,0,0.0009185,9.9027e-05,2.2241e+08,9.0485,0,3.1056e+08,31.94,12599,551.74,0,551.74,0,0.00070679,1.4253e-09,0,0.00035779,0.00013228,2.4692e+08,449.49,0,1.2008e+08,55.72,551.74,1
1904,4.23,12125,1,12125,1,8.5606e-05,1.2234e-09,0,0.00061685,-1.5664e-05,52.123,368.96,0,2.1607e+08,14.921,12124,13103,1,13103,1,0.0012695,8.6343e-09,0,0.0012695,0.00020604,3.6179e+08,2662,0,4.4671e+08,254.99,13102,12124,1,12124,1,8.5606e-05,4.4984e-10,0,0.00061387,-1.5683e-05,3.1015e+07,121.45,0,2.2203e+08,19.417,12123,11097,1,11097,1,-0.0010983,-1.7495e-09,0,4.1757e-05,-0.0002372,-4.4671e+08,-577.23,0,1.5261e+07,-234.91,11096,11648,1,11648,1,-0.00052826,-4.0713e-10,0,0.00030693,-0.00013055,-2.1486e+08,-124.25,0,1.1619e+08,-40.739,11647,12600,1,12600,1,0.00069947,2.4985e-09,0,0.0009208,9.9191e-05,2.2281e+08,765.72,0,3.1102e+08,68.825,12599,551.74,0,551.74,0,0.00070856,2.2527e-09,0,0.00035874,0.00013261,2.4734e+08,703.85,0,1.2027e+08,90.135,551.74,1
1904,4.24,12125,1,12125,1,8.628e-05,2.1438e-09,0,0.00061842,-1.5788e-05,313.25,664.3,0,2.1643e+08,-3.6064,12124,13103,1,13103,1,0.0012732,9.6349e-09,0,0.0012732,0.00020647,3.6211e+08,3006.2,0,4.4765e+08,264.57,13102,12124,1,12124,1,8.6281e-05,1.3094e-09,0,0.0006154,-1.5808e-05,3.124e+07,395.67,0,2.2243e+08,0.45855,12123,11097,1,11097,1,-0.0011006,-1.2164e-09,0,4.2322e-05,-0.00023787,-4.4765e+08,-366.25,0,1.5459e+07,-288.02,11096,11648,1,11648,1,-0.00052912,1.3486e-10,0,0.0003077,-0.00013096,-2.152e+08,35.334,0,1.1642e+08,-65.032,11647,12600,1,12600,1,0.00070168,3.743e-09,0,0.0009231,9.9352e-05,2.2321e+08,1153.6,0,3.1147e+08,57.164,12599,551.74,0,551.74,0,0.00071033,2.446e-09,0,0.00035969,0.00013294,2.4775e+08,774.56,0,1.2046e+08,101.03,551.74,1
1904,4.25,12125,1,12125,1,8.6958e-05,7.184e-10,0,0.00062,-1.5912e-05,421.03,236.91,0,2.168e+08,-15.695,12124,13103,1,13103,1,0.0012768,5.8649e-09,0,0.0012768,0.00020689,3.6242e+08,1890.1,0,4.4857e+08,179.32,13102,12124,1,12124,1,8.6959e-05,2.3633e-10,0,0.00061693,-1.5933e-05,3.1467e+07,67.605,0,2.2283e+08,-11.744,12123,11097,1,11097,1,-0.0011029,-1.1986e-09,0,4.2889e-05,-0.00023855,-4.4857e+08,-360.33,0,1.5658e+07,-219.79,11096,11648,1,11648,1,-0.00052998,-2.3872e-10,0,0.00030847,-0.00013137,-2.1555e+08,-65.026,0,1.1666e+08,-48.879,11647,12600,1,12600,1,0.0007039,1.3909e-09,0,0.00092541,9.9514e-05,2.2361e+08,447.85,0,3.1192e+08,14.511,12599,551.74,0,551.74,0,0.00071211,1.4605e-09,0,0.00036064,0.00013327,2.4816e+08,469.85,0,1.2065e+08,59.925,551.74,1
1904,4.26,12125,1,12125,1,8.764e-05,6.4365e-10,0,0.00062159,-1.6037e-05,-192.49,208.06,0,2.1717e+08,-8.3123,12124,13103,1,13103,1,0.0012804,1.8204e-09,0,0.0012804,0.00020733,3.6274e+08,623.07,0,4.4951e+08,98.783,13102,12124,1,12124,1,8.7641e-05,6.3105e-10,0,0.00061848,-1.6058e-05,3.1694e+07,189.18,0,2.2323e+08,-8.4765,12123,11097,1,11097,1,-0.0011052,-5.7154e-10,0,4.3461e-05,-0.00023923,-4.4951e+08,-142.11,0,1.5859e+07,-102,11096,11648,1,11648,1,-0.00053084,1.9914e-10,0,0.00030924,-0.00013179,-2.1591e+08,57.438,0,1.1689e+08,-31.325,11647,12600,1,12600,1,0.00070613,1.0835e-09,0,0.00092773,9.9678e-05,2.2401e+08,346.78,0,3.1238e+08,13.551,12599,551.74,0,551.74,0,0.0007139,5.7175e-10,0,0.0003616,0.00013361,2.4857e+08,187.32,0,1.2084e+08,39.605,551.74,1
1904,4.27,12125,1,12125,1,8.8328e-05,2.8975e-09,0,0.00062316,-1.6163e-05,10.31,898.19,0,2.1753e+08,22.08,12124,13103,1,13103,1,0.0012841,9.9995e-09,0,0.0012841,0.00020775,3.6305e+08,3080,0,4.5043e+08,383.86,13102,12124,1,12124,1,8.8328e-05,2.7289e-09,0,0.00062001,-1.6185e-05,3.1923e+07,818.41,0,2.2362e+08,10.409,12123,11097,1,11097,1,-0.0011074,-1.1344e-09,0,4.404e-05,-0.00023991,-4.5043e+08,-374.9,0,1.6061e+07,-249.05,11096,11648,1,11648,1,-0.00053168,8.3926e-10,0,0.00031001,-0.0001322,-2.1625e+08,252.74,0,1.1712e+08,-67.619,11647,12600,1,12600,1,0.00070834,4.7335e-09,0,0.00093002,9.9837e-05,2.244e+08,1471.2,0,3.1282e+08,115.23,12599,551.74,0,551.74,0,0.00071566,2.4543e-09,0,0.00036255,0.00013394,2.4897e+08,772.81,0,1.2102e+08,129.66,551.74,1
1904,4.28,12125,1,12125,1,8.9017e-05,1.153e-09,0,0.00062474,-1.6289e-05,48.717,378.65,0,2.1789e+08,4.7149,12124,13103,1,13103,1,0.0012878,4.8972e-09,0,0.0012878,0.00020818,3.6335e+08,1557.7,0,4.5136e+08,185.05,13102,12124,1,12124,1,8.9018e-05,7.4769e-10,0,0.00062156,-1.6312e-05,3.2152e+07,223.01,0,2.2401e+08,3.7615,12123,11097,1,11097,1,-0.0011097,-1.5356e-09,0,4.4169e-05,-0.00024059,-4.5136e+08,-431.86,0,1.6263e+07,-183.38,11096,11648,1,11648,1,-0.00053254,-2.1969e-10,0,0.00031077,-0.00013261,-2.1659e+08,-63.108,0,1.1735e+08,-34.954,11647,12600,1,12600,1,0.00071058,2.4503e-09,0,0.00093233,9.9998e-05,2.248e+08,774.91,0,3.1327e+08,41.855,12599,551.74,0,551.74,0,0.00071744,1.6283e-09,0,0.00036351,0.00013427,2.4938e+08,520.43,0,1.2121e+08,66.596,551.74,1
1904,4.29,12125,1,12125,1,8.9709e-05,-2.5566e-10,0,0.0006263,-1.6415e-05,-50.949,-57.543,0,2.1824e+08,22.462,12124,13103,1,13103,1,0.0012914,7.6086e-09,0,0.0012914,0.0002086,3.6364e+08,2382.9,0,4.5226e+08,292.72,13102,12124,1,12124,1,8.971e-05,-2.0406e-10,0,0.00062307,-1.6439e-05,3.2382e+07,-58.739,0,2.244e+08,15.761,12123,11097,1,11097,1,-0.0011119,-5.6716e-09,0,4.3803e-05,-0.00024125,-4.5226e+08,-1688.5,0,1.6467e+07,-212.34,11096,11648,1,11648,1,-0.00053336,-2.5257e-09,0,0.00031154,-0.00013302,-2.1693e+08,-751.92,0,1.1758e+08,-28.536,11647,12600,1,12600,1,0.00071278,1.6397e-09,0,0.0009346,0.00010015,2.2519e+08,500.08,0,3.137e+08,76.083,12599,551.74,0,551.74,0,0.00071919,3.0039e-09,0,0.00036446,0.00013459,2.4978e+08,927.9,0,1.2139e+08,84.447,551.74,1
1904,4.3,12125,1,12125,1,9.0405e-05,1.6059e-09,0,0.0006279,-1.6542e-05,42.169,498.97,0,2.1861e+08,-16.39,12124,13103,1,13103,1,0.0012951,3.9811e-09,0,0.0012951,0.00020904,3.6396e+08,1333,0,4.5321e+08,154.27,13102,12124,1,12124,1,9.0405e-05,1.6788e-09,0,0.00062463,-1.6567e-05,3.2613e+07,498.78,0,2.248e+08,-13.621,12123,11097,1,11097,1,-0.0011143,-9.0425e-10,0,4.3443e-05,-0.00024194,-4.5321e+08,-308.51,0,1.6671e+07,-183.77,11096,11648,1,11648,1,-0.00053423,4.3225e-10,0,0.00031232,-0.00013344,-2.1728e+08,129.33,0,1.1781e+08,-61.145,11647,12600,1,12600,1,0.00071504,2.8059e-09,0,0.00093695,0.00010032,2.2559e+08,879.09,0,3.1415e+08,29.675,12599,551.74,0,551.74,0,0.00072099,1.3916e-09,0,0.00036543,0.00013493,2.502e+08,441.49,0,1.2158e+08,72.388,551.74,1
1904,4.31,12125,1,12125,1,9.1112e-05,-1.2613e-09,0,0.00062948,-1.6672e-05,130.1,-370.18,0,2.1897e+08,-8.1035,12124,13103,1,13103,1,0.0012987,1.3987e-09,0,0.0012987,0.00020946,3.6425e+08,479.03,0,4.5413e+08,124.89,13102,12124,1,12124,1,9.1113e-05,-1.1769e-09,0,0.00062617,-1.6697e-05,3.2847e+07,-352.22,0,2.2519e+08,-12.375,12123,11097,1,11097,1,-0.0011165,-4.0838e-09,0,4.3064e-05,-0.00024262,-4.5413e+08,-1236.5,0,1.6879e+07,-150.48,11096,11648,1,11648,1,-0.00053506,-2.2965e-09,0,0.00031309,-0.00013385,-2.1762e+08,-669.43,0,1.1804e+08,-56.323,11647,12600,1,12600,1,0.00071728,-1.0161e-10,0,0.00093926,0.00010047,2.2598e+08,-30.329,0,3.1459e+08,32.417,12599,551.74,0,551.74,0,0.00072277,1.3537e-09,0,0.00036639,0.00013526,2.506e+08,404.4,0,1.2176e+08,59.343,551.74,1
1904,4.32,12125,1,12125,1,9.182e-05,2.3971e-10,0,0.00063108,-1.6801e-05,-50.04,69.925,0,2.1933e+08,7.7602,12124,13103,1,13103,1,0.0013024,1.635e-09,0,0.0013024,0.00020989,3.6453e+08,502.11,0,4.5505e+08,87.018,13102,12124,1,12124,1,9.182e-05,2.3591e-10,0,0.00062772,-1.6828e-05,3.3081e+07,62.627,0,2.2558e+08,10.52,12123,11097,1,11097,1,-0.0011188,-7.9566e-10,0,4.2691e-05,-0.00024331,-4.5505e+08,-251.06,0,1.7087e+07,-101.4,11096,11648,1,11648,1,-0.0005359,-6.8441e-11,0,0.00031386,-0.00013427,-2.1796e+08,-21.142,0,1.1827e+08,-14.233,11647,12600,1,12600,1,0.00071954,5.507e-10,0,0.00094158,0.00010063,2.2637e+08,166.85,0,3.1503e+08,31.296,12599,551.74,0,551.74,0,0.00072456,4.8985e-10,0,0.00036736,0.00013559,2.51e+08,153.11,0,1.2195e+08,33.067,551.74,1
1904,4.33,12125,1,12125,1,9.2531e-05,2.8385e-09,0,0.00063265,-1.6931e-05,-133.88,867.35,0,2.1968e+08,81.905,12124,13103,1,13103,1,0.0013061,1.1602e-08,0,0.0013061,0.00021031,3.6482e+08,3512.7,0,4.5597e+08,502.89,13102,12124,1,12124,1,9.2531e-05,1.8821e-09,0,0.00062926,-1.6958e-05,3.3316e+07,567.35,0,2.2597e+08,68.106,12123,11097,1,11097,1,-0.0011211,-1.5139e-09,0,4.2308e-05,-0.000244,-4.5597e+08,-518.51,0,1.7205e+07,-292.42,11096,11648,1,11648,1,-0.00053673,2.7559e-10,0,0.00031463,-0.00013469,-2.183e+08,74.472,0,1.185e+08,-4.0548,11647,12600,1,12600,1,0.00072179,4.9679e-09,0,0.00094389,0.00010079,2.2676e+08,1519,0,3.1546e+08,130.82,12599,551.74,0,551.74,0,0.00072633,3.0059e-09,0,0.00036832,0.00013592,2.514e+08,928.51,0,1.2213e+08,135.25,551.74,1
1904,4.34,12125,1,12125,1,9.3245e-05,1.1122e-10,0,0.00063423,-1.7062e-05,323.95,53.6,0,2.2003e+08,-26.68,12124,13103,1,13103,1,0.0013098,3.7019e-09,0,0.0013098,0.00021073,3.651e+08,1220.6,0,4.5688e+08,122.19,13102,12124,1,12124,1,9.3246e-05,-5.3131e-11,0,0.0006308,-1.709e-05,3.3552e+07,-15.09,0,2.2635e+08,-22.205,12123,11097,1,11097,1,-0.0011233,-2.5892e-09,0,4.192e-05,-0.00024467,-4.5688e+08,-764.19,0,1.7049e+07,-201.6,11096,11648,1,11648,1,-0.00053755,-9.2892e-10,0,0.0003154,-0.0001351,-2.1863e+08,-274.04,0,1.1872e+08,-62.796,11647,12600,1,12600,1,0.00072404,1.0494e-09,0,0.00094619,0.00010094,2.2715e+08,333.77,0,3.1589e+08,15.675,12599,551.74,0,551.74,0,0.0007281,1.4999e-09,0,0.00036928,0.00013625,2.5179e+08,472.45,0,1.2231e+08,56.689,551.74,1
1904,4.35,12125,1,12125,1,9.396e-05,-1.5049e-09,0,0.00063581,-1.7193e-05,133.01,-447.59,0,2.2038e+08,50.852,12124,13103,1,13103,1,0.0013135,6.0816e-09,0,0.0013135,0.00021116,3.6538e+08,1898.8,0,4.578e+08,315.61,13102,12124,1,12124,1,9.3961e-05,-8.8859e-10,0,0.00063233,-1.7222e-05,3.3788e+07,-268.25,0,2.2673e+08,59.297,12123,11097,1,11097,1,-0.0011256,-8.4991e-09,0,4.1535e-05,-0.00024536,-4.578e+08,-2579.7,0,1.6893e+07,-239.48,11096,11648,1,11648,1,-0.00053837,-4.3156e-09,0,0.00031616,-0.00013552,-2.1896e+08,-1283.4,0,1.1895e+08,-16.351,11647,12600,1,12600,1,0.00072629,9.3981e-10,0,0.00094849,0.0001011,2.2753e+08,275.7,0,3.1631e+08,123.92,12599,551.74,0,551.74,0,0.00072987,3.3851e-09,0,0.00037024,0.00013658,2.5219e+08,1038.7,0,1.2249e+08,102.32,551.74,1
1904,4.36,12125,1,12125,1,9.4683e-05,3.4991e-10,0,0.00063742,-1.7325e-05,-43.73,99.415,0,2.2074e+08,-27.722,12124,13103,1,13103,1,0.0013172,1.4712e-09,0,0.0013172,0.00021158,3.6566e+08,503.5,0,4.5872e+08,174.11,13102,12124,1,12124,1,9.4684e-05,3.6324e-10,0,0.00063389,-1.7355e-05,3.4026e+07,109.72,0,2.2713e+08,-24.502,12123,11097,1,11097,1,-0.0011278,-6.9945e-10,0,4.1147e-05,-0.00024605,-4.5872e+08,-239.48,0,1.6736e+07,-171.14,11096,11648,1,11648,1,-0.00053921,-1.2409e-10,0,0.00031694,-0.00013594,-2.1931e+08,-37.55,0,1.1918e+08,-73.984,11647,12600,1,12600,1,0.00072858,7.7588e-10,0,0.00095084,0.00010126,2.2792e+08,231.71,0,3.1675e+08,13.172,12599,551.74,0,551.74,0,0.00073168,5.5769e-10,0,0.00037122,0.00013692,2.5259e+08,167.93,0,1.2268e+08,68.435,551.74,1
1904,4.37,12125,1,12125,1,9.5417e-05,1.6079e-09,0,0.00063901,-1.7459e-05,27.577,488.85,0,2.2109e+08,3.6403,12124,13103,1,13103,1,0.0013209,3.0879e-09,0,0.0013209,0.00021201,3.6592e+08,933.17,0,4.5964e+08,210.73,13102,12124,1,12124,1,9.5417e-05,1.7264e-09,0,0.00063544,-1.749e-05,3.4267e+07,522.52,0,2.2751e+08,1.9258,12123,11097,1,11097,1,-0.0011301,-3.4817e-10,0,4.0748e-05,-0.00024674,-4.5964e+08,-119.24,0,1.6575e+07,-162.09,11096,11648,1,11648,1,-0.00054002,9.4662e-10,0,0.00031772,-0.00013637,-2.1964e+08,259.7,0,1.1941e+08,-41.485,11647,12600,1,12600,1,0.00073086,2.4026e-09,0,0.00095316,0.00010141,2.2831e+08,748.71,0,3.1718e+08,37.533,12599,551.74,0,551.74,0,0.00073347,9.1057e-10,0,0.0003722,0.00013725,2.5299e+08,283.36,0,1.2286e+08,70.859,551.74,1
1904,4.38,12125,1,12125,1,9.6153e-05,1.6886e-09,0,0.00064061,-1.7594e-05,219.79,523.13,0,2.2144e+08,20.709,12124,13103,1,13103,1,0.0013247,4.3297e-09,0,0.0013247,0.00021244,3.662e+08,1327.1,0,4.6057e+08,203.7,13102,12124,1,12124,1,9.6153e-05,1.5968e-09,0,0.000637,-1.7626e-05,3.4509e+07,478.96,0,2.279e+08,8.8549,12123,11097,1,11097,1,-0.0011324,-6.1862e-10,0,4.0345e-05,-0.00024744,-4.6057e+08,-207.27,0,1.6412e+07,-117.56,11096,11648,1,11648,1,-0.00054084,6.5991e-10,0,0.0003185,-0.00013679,-2.1997e+08,193.35,0,1.1964e+08,-18.731,11647,12600,1,12600,1,0.00073315,2.765e-09,0,0.00095549,0.00010157,2.2869e+08,854.77,0,3.176e+08,59.835,12599,551.74,0,551.74,0,0.00073526,1.2813e-09,0,0.00037318,0.00013759,2.5338e+08,404.98,0,1.2304e+08,59.57,551.74,1
1904,4.39,12125,1,12125,1,9.6893e-05,7.0384e-10,0,0.00064221,-1.7729e-05,-38.328,230.79,0,2.2179e+08,17.825,12124,13103,1,13103,1,0.0013284,2.5214e-09,0,0.0013284,0.00021286,3.6645e+08,784.71,0,4.6148e+08,166.89,13102,12124,1,12124,1,9.6893e-05,7.0099e-10,0,0.00063855,-1.7762e-05,3.4752e+07,213.98,0,2.2828e+08,10.614,12123,11097,1,11097,1,-0.0011346,-4.6117e-10,0,3.9937e-05,-0.00024813,-4.6148e+08,-111.89,0,1.6247e+07,-96.049,11096,11648,1,11648,1,-0.00054166,5.4155e-11,0,0.00031927,-0.00013722,-2.203e+08,14.123,0,1.1986e+08,-12.457,11647,12600,1,12600,1,0.00073544,1.2543e-09,0,0.00095782,0.00010172,2.2908e+08,400.89,0,3.1803e+08,40.839,12599,551.74,0,551.74,0,0.00073706,6.9477e-10,0,0.00037416,0.00013792,2.5378e+08,224.78,0,1.2322e+08,46.415,551.74,1
1904,4.4,12125,1,12125,1,9.7635e-05,1.8784e-09,0,0.00064379,-1.7865e-05,150.83,586.04,0,2.2214e+08,73.865,12124,13103,1,13103,1,0.0013321,1.023e-08,0,0.0013321,0.00021328,3.6671e+08,3107.6,0,4.624e+08,482.59,13102,12124,1,12124,1,9.7635e-05,1.1094e-09,0,0.00064009,-1.7898e-05,3.4995e+07,327.16,0,2.2865e+08,57.918,12123,11097,1,11097,1,-0.0011368,-3.0016e-09,0,3.9525e-05,-0.00024882,-4.624e+08,-851.72,0,1.6081e+07,-290.9,11096,11648,1,11648,1,-0.00054245,-3.1306e-10,0,0.00032004,-0.00013764,-2.2063e+08,-90.469,0,1.2008e+08,-11.106,11647,12600,1,12600,1,0.00073773,3.8865e-09,0,0.00096014,0.00010187,2.2945e+08,1188.2,0,3.1844e+08,144.49,12599,551.74,0,551.74,0,0.00073883,2.8378e-09,0,0.00037512,0.00013825,2.5416e+08,872.61,0,1.234e+08,128.2,551.74,1
1904,4.41,12125,1,12125,1,9.8376e-05,2.0031e-09,0,0.00064538,-1.8001e-05,126.08,633.55,0,2.2248e+08,26.86,12124,13103,1,13103,1,0.0013359,9.1195e-09,0,0.0013359,0.0002137,3.6696e+08,2824.8,0,4.633e+08,395.98,13102,12124,1,12124,1,9.8377e-05,1.5637e-09,0,0.00064164,-1.8035e-05,3.5238e+07,463.73,0,2.2903e+08,12.283,12123,11097,1,11097,1,-0.0011391,-3.0776e-09,0,3.9111e-05,-0.00024951,-4.633e+08,-906.62,0,1.5915e+07,-267.62,11096,11648,1,11648,1,-0.00054325,-4.2319e-10,0,0.00032081,-0.00013806,-2.2095e+08,-120.99,0,1.2031e+08,-64.799,11647,12600,1,12600,1,0.00074001,4.1924e-09,0,0.00096244,0.00010202,2.2983e+08,1306.6,0,3.1885e+08,111.17,12599,551.74,0,551.74,0,0.00074061,2.7814e-09,0,0.0003761,0.00013858,2.5455e+08,874.18,0,1.2358e+08,127.12,551.74,1
1904,4.42,12125,1,12125,1,9.9125e-05,9.9762e-10,0,0.00064699,-1.8138e-05,240.46,334.03,0,2.2283e+08,-15.044,12124,13103,1,13103,1,0.0013396,4.1846e-09,0,0.0013396,0.00021412,3.6721e+08,1354.5,0,4.6422e+08,181.21,13102,12124,1,12124,1,9.9127e-05,6.2764e-10,0,0.0006432,-1.8173e-05,3.5483e+07,205,0,2.2941e+08,-17.916,12123,11097,1,11097,1,-0.0011413,-7.7847e-10,0,3.8695e-05,-0.0002502,-4.6422e+08,-184.62,0,1.5747e+07,-174.76,11096,11648,1,11648,1,-0.00054406,-1.0209e-10,0,0.00032159,-0.00013849,-2.2128e+08,-26.683,0,1.2053e+08,-55.937,11647,12600,1,12600,1,0.00074232,1.9624e-09,0,0.00096478,0.00010218,2.3021e+08,634.38,0,3.1927e+08,25.4,12599,551.74,0,551.74,0,0.00074241,1.2777e-09,0,0.00037708,0.00013892,2.5494e+08,415.7,0,1.2376e+08,59.866,551.74,1
1904,4.43,12125,1,12125,1,9.9882e-05,2.9123e-09,0,0.00064859,-1.8276e-05,-151.47,906,0,2.2317e+08,24.306,12124,13103,1,13103,1,0.0013434,7.1944e-09,0,0.0013434,0.00021455,3.6746e+08,2274.8,0,4.6514e+08,449.44,13102,12124,1,12124,1,9.9882e-05,2.9961e-09,0,0.00064475,-1.8312e-05,3.573e+07,891.13,0,2.2979e+08,8.3775,12123,11097,1,11097,1,-0.0011436,-1.8481e-09,0,3.8274e-05,-0.00025091,-4.6514e+08,-513.51,0,1.5577e+07,-367.81,11096,11648,1,11648,1,-0.00054486,9.5762e-10,0,0.00032237,-0.00013892,-2.2161e+08,272.38,0,1.2076e+08,-71.668,11647,12600,1,12600,1,0.00074463,5.0324e-09,0,0.00096712,0.00010233,2.3059e+08,1578.7,0,3.1968e+08,113.43,12599,551.74,0,551.74,0,0.00074421,2.3644e-09,0,0.00037807,0.00013925,2.5533e+08,750.72,0,1.2394e+08,138.85,551.74,1
1904,4.44,12125,1,12125,1,0.00010064,8.8464e-10,0,0.0006502,-1.8415e-05,-87.876,304.75,0,2.2352e+08,16.702,12124,13103,1,13103,1,0.0013471,3.951e-09,0,0.0013471,0.00021497,3.677e+08,1336.9,0,4.6605e+08,179.7,13102,12124,1,12124,1,0.00010064,6.3666e-10,0,0.00064632,-1.8453e-05,3.5978e+07,205.47,0,2.3017e+08,11.697,12123,11097,1,11097,1,-0.0011458,-1.5518e-09,0,3.7845e-05,-0.0002516,-4.6605e+08,-412.35,0,1.5405e+07,-100.14,11096,11648,1,11648,1,-0.00054566,-4.098e-10,0,0.00032315,-0.00013935,-2.2193e+08,-108.35,0,1.2098e+08,-19.929,11647,12600,1,12600,1,0.00074695,2.0284e-09,0,0.00096946,0.00010248,2.3097e+08,656.34,0,3.201e+08,44.478,12599,551.74,0,551.74,0,0.00074601,1.452e-09,0,0.00037906,0.00013959,2.5572e+08,459.55,0,1.2412e+08,50.977,551.74,1
1904,4.45,12125,1,12125,1,0.00010141,1.7464e-09,0,0.00065179,-1.8555e-05,-32.669,554.5,0,2.2385e+08,20.455,12124,13103,1,13103,1,0.0013509,6.7776e-09,0,0.0013509,0.00021538,3.6793e+08,2099.5,0,4.6695e+08,211.05,13102,12124,1,12124,1,0.00010141,1.245e-09,0,0.00064786,-1.8594e-05,3.6228e+07,383.56,0,2.3054e+08,13.87,12123,11097,1,11097,1,-0.0011481,-7.9572e-10,0,3.7413e-05,-0.0002523,-4.6695e+08,-207.06,0,1.5231e+07,-104.93,11096,11648,1,11648,1,-0.00054645,2.9271e-10,0,0.00032393,-0.00013978,-2.2225e+08,81.803,0,1.212e+08,-24.519,11647,12600,1,12600,1,0.00074927,2.9571e-09,0,0.00097178,0.00010263,2.3134e+08,928.63,0,3.205e+08,48.536,12599,551.74,0,551.74,0,0.0007478,1.7882e-09,0,0.00038004,0.00013992,2.561e+08,569.25,0,1.2429e+08,62.57,551.74,1
1904,4.46,12125,1,12125,1,0.00010218,2.9968e-09,0,0.00065338,-1.8695e-05,-11.543,934.78,0,2.2419e+08,41.993,12124,13103,1,13103,1,0.0013547,1.1399e-08,0,0.0013547,0.0002158,3.6817e+08,3528.2,0,4.6786e+08,437.36,13102,12124,1,12124,1,0.00010218,2.2519e-09,0,0.00064941,-1.8735e-05,3.6477e+07,674.55,0,2.3091e+08,30.478,12123,11097,1,11097,1,-0.0011503,-2.6599e-09,0,3.6978e-05,-0.000253,-4.6786e+08,-753.51,0,1.5056e+07,-298.9,11096,11648,1,11648,1,-0.00054723,2.0572e-11,0,0.0003247,-0.0001402,-2.2257e+08,5.3189,0,1.2142e+08,-51.45,11647,12600,1,12600,1,0.00075158,5.7463e-09,0,0.00097411,0.00010277,2.3171e+08,1771.9,0,3.209e+08,123.15,12599,551.74,0,551.74,0,0.00074958,3.507e-09,0,0.00038103,0.00014025,2.5648e+08,1094,0,1.2447e+08,126.6,551.74,1
1904,4.47,12125,1,12125,1,0.00010295,7.254e-10,0,0.00065501,-1.8837e-05,49.183,257.45,0,2.2454e+08,-35.601,12124,13103,1,13103,1,0.0013584,2.859e-09,0,0.0013584,0.00021622,3.684e+08,978.72,0,4.6877e+08,203.09,13102,12124,1,12124,1,0.00010295,8.9052e-10,0,0.00065099,-1.8878e-05,3.6729e+07,268.57,0,2.3129e+08,-27.325,12123,11097,1,11097,1,-0.0011525,-2.0386e-09,0,3.6539e-05,-0.0002537,-4.6877e+08,-509.66,0,1.488e+07,-176.77,11096,11648,1,11648,1,-0.00054803,-1.6737e-10,0,0.00032548,-0.00014064,-2.2289e+08,-45.31,0,1.2165e+08,-75.134,11647,12600,1,12600,1,0.00075393,1.6886e-09,0,0.00097646,0.00010292,2.3209e+08,554.55,0,3.2131e+08,-1.5837,12599,551.74,0,551.74,0,0.0007514,1.2108e-09,0,0.00038203,0.00014059,2.5687e+08,375.35,0,1.2465e+08,64.313,551.74,1
1904,4.48,12125,1,12125,1,0.00010373,2.9942e-09,0,0.0006566,-1.898e-05,22.824,931.61,0,2.2487e+08,34.776,12124,13103,1,13103,1,0.0013622,7.9942e-09,0,0.0013622,0.00021664,3.6862e+08,2470.6,0,4.6967e+08,359.55,13102,12124,1,12124,1,0.00010373,3.0221e-09,0,0.00065253,-1.9021e-05,3.6981e+07,913.28,0,2.3165e+08,16.914,12123,11097,1,11097,1,-0.0011547,-1.5615e-09,0,3.6094e-05,-0.0002544,-4.6967e+08,-477.71,0,1.4701e+07,-266.93,11096,11648,1,11648,1,-0.00054879,8.3636e-10,0,0.00032626,-0.00014107,-2.232e+08,227.25,0,1.2187e+08,-51.7,11647,12600,1,12600,1,0.00075625,5.2051e-09,0,0.00097878,0.00010307,2.3245e+08,1634.1,0,3.2171e+08,120.01,12599,551.74,0,551.74,0,0.00075318,2.5314e-09,0,0.00038301,0.00014093,2.5724e+08,799.53,0,1.2482e+08,114.05,551.74,1
1904,4.49,12125,1,12125,1,0.00010451,2.0734e-09,0,0.00065821,-1.9123e-05,169.37,666.8,0,2.252e+08,5.055,12124,13103,1,13103,1,0.001366,5.4587e-09,0,0.001366,0.00021706,3.6884e+08,1866.9,0,4.7057e+08,317.32,13102,12124,1,12124,1,0.00010451,1.9654e-09,0,0.00065409,-1.9165e-05,3.7234e+07,585.64,0,2.3202e+08,-7.486,12123,11097,1,11097,1,-0.001157,-1.0195e-09,0,3.5645e-05,-0.0002551,-4.7057e+08,-232.8,0,1.4521e+07,-159.99,11096,11648,1,11648,1,-0.00054957,3.7719e-10,0,0.00032703,-0.0001415,-2.2352e+08,107.4,0,1.2209e+08,-66.318,11647,12600,1,12600,1,0.00075859,3.7919e-09,0,0.00098111,0.00010322,2.3282e+08,1223.2,0,3.221e+08,65.202,12599,551.74,0,551.74,0,0.00075498,1.9018e-09,0,0.00038401,0.00014126,2.5762e+08,615.77,0,1.25e+08,91.827,551.74,1
1904,4.5,12125,1,12125,1,0.0001053,9.0675e-10,0,0.00065983,-1.9267e-05,-2.8637,310.7,0,2.2554e+08,0.17226,12124,13103,1,13103,1,0.0013698,3.2754e-09,0,0.0013698,0.00021748,3.6906e+08,1120.9,0,4.7148e+08,199.36,13102,12124,1,12124,1,0.0001053,8.9432e-10,0,0.00065566,-1.931e-05,3.7489e+07,281.19,0,2.324e+08,-4.476,12123,11097,1,11097,1,-0.0011592,-1.3213e-09,0,3.5194e-05,-0.00025581,-4.7148e+08,-320.87,0,1.4341e+07,-105.74,11096,11648,1,11648,1,-0.00055036,-2.5199e-10,0,0.00032782,-0.00014194,-2.2384e+08,-65.714,0,1.2231e+08,-40.439,11647,12600,1,12600,1,0.00076095,1.9281e-09,0,0.00098348,0.00010337,2.332e+08,624.17,0,3.2251e+08,28.814,12599,551.74,0,551.74,0,0.0007568,1.2315e-09,0,0.00038501,0.0001416,2.58e+08,391.75,0,1.2518e+08,57.807,551.74,1
1904,4.51,12125,1,12125,1,0.00010609,1.7486e-09,0,0.00066144,-1.9412e-05,-96.453,555.5,0,2.2587e+08,50.611,12124,13103,1,13103,1,0.0013736,4.5783e-09,0,0.0013736,0.0002179,3.6927e+08,1531,0,4.7239e+08,304.56,13102,12124,1,12124,1,0.00010609,1.6808e-09,0,0.00065723,-1.9456e-05,3.7746e+07,512.27,0,2.3276e+08,36.912,12123,11097,1,11097,1,-0.0011614,-1.2988e-09,0,3.4736e-05,-0.00025652,-4.7239e+08,-331.31,0,1.4157e+07,-86.434,11096,11648,1,11648,1,-0.00055113,3.2562e-10,0,0.00032861,-0.00014238,-2.2415e+08,95.194,0,1.2253e+08,-11.409,11647,12600,1,12600,1,0.00076331,3.1716e-09,0,0.00098583,0.00010351,2.3356e+08,1005.4,0,3.229e+08,108.66,12599,551.74,0,551.74,0,0.00075861,1.6293e-09,0,0.00038601,0.00014194,2.5838e+08,518.11,0,1.2535e+08,77.393,551.74,1
1904,4.52,12125,1,12125,1,0.00010689,1.9797e-09,0,0.00066306,-1.9559e-05,42.474,625.22,0,2.2621e+08,10.377,12124,13103,1,13103,1,0.0013775,5.1237e-09,0,0.0013775,0.00021832,3.6948e+08,1684,0,4.733e+08,235.84,13102,12124,1,12124,1,0.00010689,1.9037e-09,0,0.00065879,-1.9604e-05,3.8005e+07,574.84,0,2.3313e+08,-0.080876,12123,11097,1,11097,1,-0.0011637,-8.6713e-10,0,3.4272e-05,-0.00025723,-4.733e+08,-225.28,0,1.3972e+07,-130.06,11096,11648,1,11648,1,-0.00055189,5.3505e-10,0,0.00032939,-0.00014281,-2.2446e+08,151.44,0,1.2275e+08,-40.716,11647,12600,1,12600,1,0.00076568,3.3952e-09,0,0.00098818,0.00010366,2.3393e+08,1072.4,0,3.2329e+08,63.546,12599,551.74,0,551.74,0,0.00076042,1.6565e-09,0,0.00038702,0.00014227,2.5875e+08,533.72,0,1.2552e+08,75.948,551.74,1
1904,4.53,12125,1,12125,1,0.0001077,-8.7171e-10,0,0.00066468,-1.9706e-05,135.53,-231.34,0,2.2654e+08,30.049,12124,13103,1,13103,1,0.0013813,1.8576e-09,0,0.0013813,0.00021873,3.6969e+08,561.9,0,4.7419e+08,291,13102,12124,1,12124,1,0.0001077,-5.3584e-10,0,0.00066036,-1.9752e-05,3.8264e+07,-153.93,0,2.335e+08,10.326,12123,11097,1,11097,1,-0.0011659,-3.822e-09,0,3.3803e-05,-0.00025793,-4.7419e+08,-1050,0,1.3784e+07,-122.13,11096,11648,1,11648,1,-0.00055266,-2.1165e-09,0,0.00033018,-0.00014325,-2.2478e+08,-576.48,0,1.2297e+08,-17.849,11647,12600,1,12600,1,0.00076806,3.861e-10,0,0.00099053,0.0001038,2.343e+08,126.92,0,3.2368e+08,66.638,12599,551.74,0,551.74,0,0.00076223,1.4832e-09,0,0.00038803,0.00014261,2.5913e+08,419.19,0,1.257e+08,76.589,551.74,1
1904,4.54,12125,1,12125,1,0.0001085,1.5976e-09,0,0.00066629,-1.9853e-05,-245.29,489.95,0,2.2686e+08,66.068,12124,13103,1,13103,1,0.0013851,7.2347e-09,0,0.0013851,0.00021914,3.6988e+08,2180.2,0,4.7509e+08,273.94,13102,12124,1,12124,1,0.0001085,8.7037e-10,0,0.00066192,-1.99e-05,3.8523e+07,254.38,0,2.3386e+08,61.463,12123,11097,1,11097,1,-0.0011681,-8.502e-10,0,3.3334e-05,-0.00025864,-4.7509e+08,-266.33,0,1.3597e+07,-123.2,11096,11648,1,11648,1,-0.00055341,2.4221e-10,0,0.00033096,-0.00014369,-2.2508e+08,64.279,0,1.2318e+08,9.9094,11647,12600,1,12600,1,0.00077042,2.7857e-09,0,0.00099288,0.00010394,2.3466e+08,851.99,0,3.2406e+08,109.1,12599,551.74,0,551.74,0,0.00076403,1.8334e-09,0,0.00038903,0.00014294,2.595e+08,560.26,0,1.2587e+08,79.144,551.74,1
1904,4.55,12125,1,12125,1,0.00010931,2.8726e-10,0,0.00066791,-2.0002e-05,-125.62,103.13,0,2.272e+08,9.3789,12124,13103,1,13103,1,0.0013889,1.1568e-09,0,0.0013889,0.00021956,3.7008e+08,396.04,0,4.7599e+08,213.37,13102,12124,1,12124,1,0.00010931,3.5038e-10,0,0.00066349,-2.005e-05,3.8784e+07,108.61,0,2.3422e+08,2.0546,12123,11097,1,11097,1,-0.0011703,-8.8926e-10,0,3.2859e-05,-0.00025935,-4.7599e+08,-215.07,0,1.3408e+07,-97.561,11096,11648,1,11648,1,-0.00055417,-4.4863e-11,0,0.00033174,-0.00014413,-2.2539e+08,-11.57,0,1.234e+08,-33.973,11647,12600,1,12600,1,0.0007728,7.0133e-10,0,0.00099523,0.00010409,2.3502e+08,236.44,0,3.2445e+08,38.868,12599,551.74,0,551.74,0,0.00076584,4.7955e-10,0,0.00039004,0.00014328,2.5987e+08,148.81,0,1.2604e+08,60.91,551.74,1
1904,4.56,12125,1,12125,1,0.00011013,1.2897e-09,0,0.00066953,-2.0151e-05,129.6,394.9,0,2.2752e+08,30.562,12124,13103,1,13103,1,0.0013928,4.9821e-09,0,0.0013928,0.00021998,3.7027e+08,1452,0,4.7689e+08,301.63,13102,12124,1,12124,1,0.00011013,1.235e-09,0,0.00066505,-2.02e-05,3.9047e+07,364.42,0,2.3458e+08,16.835,12123,11097,1,11097,1,-0.0011725,-1.4031e-09,0,3.2378e-05,-0.00026006,-4.7689e+08,-375.07,0,1.3217e+07,-126.38,11096,11648,1,11648,1,-0.00055492,5.814e-11,0,0.00033253,-0.00014457,-2.257e+08,17.005,0,1.2362e+08,-26.996,11647,12600,1,12600,1,0.00077519,2.3352e-09,0,0.00099758,0.00010423,2.3538e+08,732.77,0,3.2483e+08,62.305,12599,551.74,0,551.74,0,0.00076765,1.4731e-09,0,0.00039105,0.00014362,2.6024e+08,442.08,0,1.2621e+08,83.827,551.74,1
1904,4.57,12125,1,12125,1,0.00011095,6.9963e-11,0,0.00067113,-2.0301e-05,255.55,40.871,0,2.2784e+08,36.872,12124,13103,1,13103,1,0.0013966,3.9901e-09,0,0.0013966,0.00022038,3.7045e+08,1203.3,0,4.7777e+08,230.13,13102,12124,1,12124,1,0.00011095,7.2055e-11,0,0.00066661,-2.0351e-05,3.931e+07,21.052,0,2.3493e+08,37.396,12123,11097,1,11097,1,-0.0011747,-2.8659e-09,0,3.1891e-05,-0.00026077,-4.7777e+08,-779.9,0,1.3023e+07,-89.669,11096,11648,1,11648,1,-0.00055566,-8.4251e-10,0,0.0003333,-0.00014501,-2.26e+08,-240.62,0,1.2383e+08,-1.2748,11647,12600,1,12600,1,0.00077756,8.9374e-10,0,0.00099991,0.00010437,2.3573e+08,280.1,0,3.252e+08,69.52,12599,551.74,0,551.74,0,0.00076944,1.3977e-09,0,0.00039205,0.00014395,2.606e+08,411.58,0,1.2638e+08,53.227,551.74,1
1904,4.58,12125,1,12125,1,0.00011177,2.1568e-09,0,0.00067275,-2.0451e-05,-332.02,659.36,0,2.2816e+08,61.376,12124,13103,1,13103,1,0.0014004,4.8726e-09,0,0.0014004,0.0002208,3.7064e+08,1498.4,0,4.7867e+08,338.48,13102,12124,1,12124,1,0.00011177,2.2411e-09,0,0.00066818,-2.0502e-05,3.9572e+07,654.83,0,2.3529e+08,37.652,12123,11097,1,11097,1,-0.0011769,-8.4999e-10,0,3.1408e-05,-0.00026148,-4.7867e+08,-291.11,0,1.2831e+07,-131.84,11096,11648,1,11648,1,-0.0005564,7.6856e-10,0,0.00033409,-0.00014545,-2.263e+08,214.54,0,1.2405e+08,-9.809,11647,12600,1,12600,1,0.00077995,3.5859e-09,0,0.0010023,0.00010451,2.3609e+08,1109.7,0,3.2558e+08,121.13,12599,551.74,0,551.74,0,0.00077125,1.5839e-09,0,0.00039306,0.00014429,2.6096e+08,497.43,0,1.2656e+08,99.906,551.74,1
1904,4.59,12125,1,12125,1,0.0001126,2.5018e-09,0,0.00067438,-2.0603e-05,-126.68,773.89,0,2.2849e+08,69.885,12124,13103,1,13103,1,0.0014043,6.7932e-09,0,0.0014043,0.00022122,3.7082e+08,2085.7,0,4.7958e+08,371.63,13102,12124,1,12124,1,0.0001126,2.3828e-09,0,0.00066976,-2.0655e-05,3.9838e+07,697.78,0,2.3565e+08,44.905,12123,11097,1,11097,1,-0.0011791,-1.0438e-09,0,3.0914e-05,-0.00026221,-4.7958e+08,-328.19,0,1.2635e+07,-102.62,11096,11648,1,11648,1,-0.00055715,6.4396e-10,0,0.00033488,-0.0001459,-2.266e+08,184.55,0,1.2426e+08,-8.0109,11647,12600,1,12600,1,0.00078236,4.3561e-09,0,0.0010046,0.00010465,2.3645e+08,1348.5,0,3.2596e+08,141.65,12599,551.74,0,551.74,0,0.00077308,2.1261e-09,0,0.00039409,0.00014463,2.6133e+08,666.84,0,1.2673e+08,100.79,551.74,1
1904,4.6,12125,1,12125,1,0.00011344,1.9792e-09,0,0.00067601,-2.0757e-05,126,628.09,0,2.2881e+08,23.26,12124,13103,1,13103,1,0.0014082,5.2388e-09,0,0.0014082,0.00022163,3.7099e+08,1791.4,0,4.8047e+08,321.46,13102,12124,1,12124,1,0.00011344,1.9128e-09,0,0.00067134,-2.081e-05,4.0106e+07,574.06,0,2.3601e+08,8.6478,12123,11097,1,11097,1,-0.0011813,-1.1255e-09,0,3.0409e-05,-0.00026292,-4.8047e+08,-268.17,0,1.2435e+07,-158.61,11096,11648,1,11648,1,-0.00055789,3.5617e-10,0,0.00033566,-0.00014635,-2.269e+08,94.272,0,1.2448e+08,-44.378,11647,12600,1,12600,1,0.00078477,3.5855e-09,0,0.001007,0.00010479,2.3681e+08,1146.5,0,3.2633e+08,91.123,12599,551.74,0,551.74,0,0.00077489,1.849e-09,0,0.00039511,0.00014497,2.617e+08,590.29,0,1.269e+08,91.697,551.74,1
1904,4.61,12125,1,12125,1,0.00011428,2.1398e-09,0,0.00067763,-2.0911e-05,-141.68,679.25,0,2.2913e+08,42.837,12124,13103,1,13103,1,0.0014121,6.2822e-09,0,0.0014121,0.00022204,3.7116e+08,1920.1,0,4.8136e+08,426.89,13102,12124,1,12124,1,0.00011428,2.0982e-09,0,0.00067291,-2.0965e-05,4.0374e+07,641.48,0,2.3636e+08,27.281,12123,11097,1,11097,1,-0.0011835,-1.0905e-09,0,2.9906e-05,-0.00026364,-4.8136e+08,-294.21,0,1.2236e+07,-123.38,11096,11648,1,11648,1,-0.00055862,4.1396e-10,0,0.00033645,-0.00014679,-2.272e+08,118.37,0,1.2469e+08,-18.143,11647,12600,1,12600,1,0.00078719,3.8398e-09,0,0.0010094,0.00010493,2.3716e+08,1224,0,3.267e+08,92.868,12599,551.74,0,551.74,0,0.00077671,1.9091e-09,0,0.00039613,0.00014531,2.6206e+08,607.47,0,1.2707e+08,84.818,551.74,1
1904,4.62,12125,1,12125,1,0.00011513,1.2566e-09,0,0.00067925,-2.1065e-05,18.078,418.12,0,2.2945e+08,35.473,12124,13103,1,13103,1,0.0014159,8.2051e-09,0,0.0014159,0.00022245,3.7132e+08,2506.6,0,4.8225e+08,355.41,13102,12124,1,12124,1,0.00011513,6.2872e-10,0,0.00067448,-2.1121e-05,4.0644e+07,202.53,0,2.3671e+08,35.551,12123,11097,1,11097,1,-0.0011857,-2.6217e-09,0,2.9396e-05,-0.00026436,-4.8225e+08,-685.13,0,1.2034e+07,-177.57,11096,11648,1,11648,1,-0.00055935,-5.5799e-10,0,0.00033723,-0.00014724,-2.2749e+08,-158,0,1.249e+08,-17.804,11647,12600,1,12600,1,0.0007896,2.7002e-09,0,0.0010117,0.00010507,2.3751e+08,853.54,0,3.2707e+08,79.937,12599,551.74,0,551.74,0,0.00077852,2.3546e-09,0,0.00039715,0.00014564,2.6242e+08,719.75,0,1.2724e+08,70.825,551.74,1
1904,4.63,12125,1,12125,1,0.00011598,-9.8767e-10,0,0.0006809,-2.1222e-05,286.82,-261.09,0,2.2977e+08,-6.0299,12124,13103,1,13103,1,0.0014198,9.4366e-10,0,0.0014198,0.00022287,3.715e+08,323.11,0,4.8315e+08,314.41,13102,12124,1,12124,1,0.00011598,-8.9294e-10,0,0.00067607,-2.1278e-05,4.0916e+07,-253.78,0,2.3707e+08,-22.713,12123,11097,1,11097,1,-0.0011879,-3.6541e-09,0,2.8886e-05,-0.00026508,-4.8315e+08,-946.25,0,1.1833e+07,-118.72,11096,11648,1,11648,1,-0.00056009,-1.8296e-09,0,0.00033803,-0.00014769,-2.278e+08,-507.11,0,1.2512e+08,-53.458,11647,12600,1,12600,1,0.00079205,1.0753e-10,0,0.0010141,0.00010521,2.3787e+08,31.396,0,3.2744e+08,9.0748,12599,551.74,0,551.74,0,0.00078036,1.1833e-09,0,0.00039819,0.00014599,2.6278e+08,322.54,0,1.2741e+08,74.941,551.74,1
1904,4.64,12125,1,12125,1,0.00011684,6.7626e-10,0,0.00068254,-2.138e-05,45.706,210.18,0,2.3009e+08,30.566,12124,13103,1,13103,1,0.0014238,1.6675e-09,0,0.0014238,0.00022328,3.7165e+08,540.93,0,4.8404e+08,231.14,13102,12124,1,12124,1,0.00011684,7.0084e-10,0,0.00067765,-2.1437e-05,4.1189e+07,203.58,0,2.3742e+08,10.793,12123,11097,1,11097,1,-0.0011901,-7.3231e-10,0,2.8367e-05,-0.00026581,-4.8404e+08,-176.14,0,1.1629e+07,-67.771,11096,11648,1,11648,1,-0.00056081,2.2177e-10,0,0.00033882,-0.00014814,-2.2809e+08,65.74,0,1.2533e+08,-9.827,11647,12600,1,12600,1,0.00079449,1.117e-09,0,0.0010165,0.00010534,2.3822e+08,357.44,0,3.278e+08,60.147,12599,551.74,0,551.74,0,0.00078219,5.385e-10,0,0.00039922,0.00014633,2.6314e+08,173.09,0,1.2758e+08,60.973,551.74,1
1904,4.65,12125,1,12125,1,0.00011771,9.351e-10,0,0.00068417,-2.1538e-05,-14.059,289.92,0,2.304e+08,54.606,12124,13103,1,13103,1,0.0014277,3.3429e-09,0,0.0014277,0.00022369,3.718e+08,936.09,0,4.8493e+08,300.77,13102,12124,1,12124,1,0.00011771,9.6917e-10,0,0.00067923,-2.1596e-05,4.1463e+07,298.35,0,2.3777e+08,31.025,12123,11097,1,11097,1,-0.0011922,-1.3014e-09,0,2.7841e-05,-0.00026653,-4.8493e+08,-323.16,0,1.1423e+07,-47.098,11096,11648,1,11648,1,-0.00056152,2.3319e-10,0,0.00033961,-0.00014859,-2.2838e+08,67.529,0,1.2554e+08,4.3007,11647,12600,1,12600,1,0.00079694,1.581e-09,0,0.0010188,0.00010548,2.3856e+08,498.46,0,3.2816e+08,92.769,12599,551.74,0,551.74,0,0.00078401,8.6643e-10,0,0.00040025,0.00014666,2.635e+08,260.18,0,1.2774e+08,68.015,551.74,1
1904,4.66,12125,1,12125,1,0.00011857,-3.5267e-10,0,0.0006858,-2.1696e-05,-92.356,-90.398,0,2.3071e+08,43.975,12124,13103,1,13103,1,0.0014316,1.7499e-09,0,0.0014316,0.0002241,3.7195e+08,485.45,0,4.8581e+08,302.28,13102,12124,1,12124,1,0.00011857,-1.9651e-10,0,0.00068081,-2.1755e-05,4.1737e+07,-58.378,0,2.3812e+08,27.58,12123,11097,1,11097,1,-0.0011944,-2.3197e-09,0,2.7313e-05,-0.00026725,-4.8581e+08,-608.5,0,1.1215e+07,-63.408,11096,11648,1,11648,1,-0.00056223,-9.8202e-10,0,0.0003404,-0.00014905,-2.2867e+08,-267.79,0,1.2575e+08,-7.5412,11647,12600,1,12600,1,0.00079938,2.6625e-10,0,0.0010212,0.00010561,2.3891e+08,87.368,0,3.2851e+08,83.058,12599,551.74,0,551.74,0,0.00078583,8.3473e-10,0,0.00040128,0.000147,2.6385e+08,233.47,0,1.2791e+08,68.05,551.74,1
1904,4.67,12125,1,12125,1,0.00011945,6.4513e-10,0,0.00068745,-2.1856e-05,121.07,196.95,0,2.3102e+08,61.439,12124,13103,1,13103,1,0.0014355,4.3916e-09,0,0.0014355,0.00022451,3.7209e+08,1287.8,0,4.867e+08,273.52,13102,12124,1,12124,1,0.00011945,3.1279e-10,0,0.0006824,-2.1916e-05,4.2014e+07,94.084,0,2.3847e+08,53.06,12123,11097,1,11097,1,-0.0011966,-1.7873e-09,0,2.6782e-05,-0.00026799,-4.867e+08,-468.45,0,1.1007e+07,-78.066,11096,11648,1,11648,1,-0.00056295,-1.6287e-10,0,0.0003412,-0.0001495,-2.2896e+08,-47.354,0,1.2596e+08,10.358,11647,12600,1,12600,1,0.00080184,1.385e-09,0,0.0010236,0.00010575,2.3926e+08,414.05,0,3.2887e+08,99.65,12599,551.74,0,551.74,0,0.00078767,1.2474e-09,0,0.00040232,0.00014735,2.6421e+08,365.69,0,1.2808e+08,70.28,551.74,1
1904,4.68,12125,1,12125,1,0.00012032,1.2523e-09,0,0.00068908,-2.2017e-05,-77.992,379.79,0,2.3133e+08,34.945,12124,13103,1,13103,1,0.0014394,4.0406e-09,0,0.0014394,0.00022492,3.7223e+08,1170.8,0,4.8759e+08,355.92,13102,12124,1,12124,1,0.00012032,1.2301e-09,0,0.00068398,-2.2078e-05,4.2291e+07,352.23,0,2.3881e+08,24.32,12123,11097,1,11097,1,-0.0011988,-1.1102e-09,0,2.6242e-05,-0.00026871,-4.8759e+08,-380.23,0,1.0796e+07,-167.55,11096,11648,1,11648,1,-0.00056365,1.7675e-10,0,0.00034199,-0.00014996,-2.2925e+08,50.855,0,1.2617e+08,-22.835,11647,12600,1,12600,1,0.0008043,2.2836e-09,0,0.001026,0.00010588,2.396e+08,691.06,0,3.2922e+08,69.01,12599,551.74,0,551.74,0,0.00078949,1.3108e-09,0,0.00040336,0.00014768,2.6456e+08,395.51,0,1.2824e+08,84.557,551.74,1
1904,4.69,12125,1,12125,1,0.00012121,9.0388e-11,0,0.00069072,-2.2179e-05,772.69,47.732,0,2.3164e+08,13.121,12124,13103,1,13103,1,0.0014434,2.2141e-09,0,0.0014434,0.00022532,3.7236e+08,648.91,0,4.8846e+08,496.44,13102,12124,1,12124,1,0.00012121,2.2338e-10,0,0.00068556,-2.2241e-05,4.257e+07,71.386,0,2.3915e+08,-2.9315,12123,11097,1,11097,1,-0.0012009,-1.7864e-09,0,2.5696e-05,-0.00026944,-4.8846e+08,-455.32,0,1.0583e+07,-146.44,11096,11648,1,11648,1,-0.00056435,-5.5786e-10,0,0.00034278,-0.00015041,-2.2953e+08,-139.97,0,1.2638e+08,-59.024,11647,12600,1,12600,1,0.00080677,6.2437e-10,0,0.0010283,0.00010602,2.3994e+08,205.61,0,3.2957e+08,59.76,12599,551.74,0,551.74,0,0.00079132,7.7631e-10,0,0.0004044,0.00014802,2.6491e+08,223.74,0,1.2841e+08,97.258,551.74,1
1904,4.7,12125,1,12125,1,0.00012209,-9.7541e-10,0,0.00069237,-2.2341e-05,121.18,-280.14,0,2.3195e+08,50.4,12124,13103,1,13103,1,0.0014473,2.5375e-09,0,0.0014473,0.00022574,3.725e+08,735.63,0,4.8936e+08,369.2,13102,12124,1,12124,1,0.00012209,-7.7269e-10,0,0.00068715,-2.2404e-05,4.285e+07,-229.32,0,2.395e+08,40.211,12123,11097,1,11097,1,-0.0012031,-3.3659e-09,0,2.5152e-05,-0.00027017,-4.8936e+08,-975.71,0,1.0371e+07,-103.92,11096,11648,1,11648,1,-0.00056506,-1.9519e-09,0,0.00034358,-0.00015087,-2.2982e+08,-565.78,0,1.2659e+08,-5.2067,11647,12600,1,12600,1,0.00080924,-7.7481e-11,0,0.0010307,0.00010615,2.4028e+08,-21.085,0,3.2992e+08,80.124,12599,551.74,0,551.74,0,0.00079316,1.2436e-09,0,0.00040545,0.00014837,2.6526e+08,355.91,0,1.2858e+08,77.352,551.74,1
1904,4.71,12125,1,12125,1,0.00012299,1.5956e-09,0,0.00069401,-2.2504e-05,-46.925,464.63,0,2.3225e+08,71.981,12124,13103,1,13103,1,0.0014513,5.3972e-09,0,0.0014513,0.00022614,3.7262e+08,1458.6,0,4.9023e+08,370.2,13102,12124,1,12124,1,0.00012299,1.4678e-09,0,0.00068873,-2.2568e-05,4.3131e+07,446.65,0,2.3983e+08,51.377,12123,11097,1,11097,1,-0.0012053,-6.3325e-10,0,2.4597e-05,-0.00027091,-4.9023e+08,-216.87,0,1.0156e+07,-121.16,11096,11648,1,11648,1,-0.00056575,7.7966e-10,0,0.00034437,-0.00015133,-2.301e+08,213.46,0,1.268e+08,4.6035,11647,12600,1,12600,1,0.00081172,2.2613e-09,0,0.0010331,0.00010628,2.4062e+08,664.68,0,3.3027e+08,126.5,12599,551.74,0,551.74,0,0.00079498,1.186e-09,0,0.00040649,0.00014871,2.656e+08,339.1,0,1.2874e+08,94.958,551.74,1
1904,4.72,12125,1,12125,1,0.00012389,-9.1505e-10,0,0.00069566,-2.2669e-05,-307.88,-261.7,0,2.3256e+08,66.84,12124,13103,1,13103,1,0.0014553,8.1167e-10,0,0.0014553,0.00022655,3.7275e+08,277.93,0,4.9112e+08,406.18,13102,12124,1,12124,1,0.00012389,-7.9446e-10,0,0.00069033,-2.2734e-05,4.3413e+07,-236.35,0,2.4018e+08,41.092,12123,11097,1,11097,1,-0.0012075,-3.1782e-09,0,2.4041e-05,-0.00027164,-4.9112e+08,-826.51,0,9.9397e+06,-58.171,11096,11648,1,11648,1,-0.00056645,-1.5472e-09,0,0.00034517,-0.00015179,-2.3038e+08,-448.1,0,1.2701e+08,3.8845,11647,12600,1,12600,1,0.00081422,-2.4817e-10,0,0.0010355,0.00010641,2.4096e+08,-68.229,0,3.3061e+08,108.74,12599,551.74,0,551.74,0,0.00079683,8.6145e-10,0,0.00040755,0.00014905,2.6595e+08,240.82,0,1.2891e+08,86.778,551.74,1
1904,4.73,12125,1,12125,1,0.00012479,3.5857e-09,0,0.00069729,-2.2834e-05,-32.346,1065,0,2.3286e+08,149.46,12124,13103,1,13103,1,0.0014592,1.1438e-08,0,0.0014592,0.00022696,3.7286e+08,3375.2,0,4.92e+08,624.06,13102,12124,1,12124,1,0.00012479,3.5061e-09,0,0.00069191,-2.29e-05,4.3696e+07,1028.7,0,2.4051e+08,97.595,12123,11097,1,11097,1,-0.0012096,-2.0694e-09,0,2.3474e-05,-0.00027238,-4.92e+08,-708.72,0,9.7199e+06,-198.99,11096,11648,1,11648,1,-0.00056712,1.0014e-09,0,0.00034595,-0.00015225,-2.3065e+08,287.95,0,1.2721e+08,3.1313,11647,12600,1,12600,1,0.0008167,6.0603e-09,0,0.0010379,0.00010654,2.4129e+08,1834.1,0,3.3094e+08,306.14,12599,551.74,0,551.74,0,0.00079864,3.1187e-09,0,0.00040859,0.00014939,2.6629e+08,927.45,0,1.2907e+08,189.45,551.74,1
1904,4.74,12125,1,12125,1,0.0001257,-9.8031e-10,0,0.00069895,-2.3e-05,-105.18,-248.51,0,2.3317e+08,44.405,12124,13103,1,13103,1,0.0014632,1.2621e-09,0,0.0014632,0.00022736,3.7298e+08,404.25,0,4.9288e+08,333.6,13102,12124,1,12124,1,0.0001257,-7.2869e-10,0,0.00069351,-2.3067e-05,4.3981e+07,-198.41,0,2.4085e+08,32.748,12123,11097,1,11097,1,-0.0012118,-4.267e-09,0,2.2908e-05,-0.00027311,-4.9288e+08,-1137.3,0,9.5011e+06,-86.131,11096,11648,1,11648,1,-0.00056782,-2.1724e-09,0,0.00034676,-0.00015271,-2.3094e+08,-575.34,0,1.2742e+08,-3.5956,11647,12600,1,12600,1,0.00081921,4.1801e-10,0,0.0010403,0.00010667,2.4163e+08,136.42,0,3.3129e+08,74.328,12599,551.74,0,551.74,0,0.0008005,1.4844e-09,0,0.00040965,0.00014973,2.6664e+08,410.91,0,1.2924e+08,71.431,551.74,1
1904,4.75,12125,1,12125,1,0.00012661,1.8293e-09,0,0.0007006,-2.3168e-05,265,554.37,0,2.3346e+08,66.683,12124,13103,1,13103,1,0.0014672,5.2693e-09,0,0.0014672,0.00022777,3.7308e+08,1551.6,0,4.9376e+08,401.46,13102,12124,1,12124,1,0.00012661,1.7123e-09,0,0.0006951,-2.3236e-05,4.4268e+07,504.29,0,2.4118e+08,38.866,12123,11097,1,11097,1,-0.001214,-1.254e-09,0,2.2335e-05,-0.00027385,-4.9376e+08,-308.05,0,9.2798e+06,-127.51,11096,11648,1,11648,1,-0.00056848,5.3942e-10,0,0.00034755,-0.00015318,-2.3121e+08,161.17,0,1.2762e+08,-19.504,11647,12600,1,12600,1,0.00082171,3.1152e-09,0,0.0010426,0.0001068,2.4196e+08,953.65,0,3.3162e+08,148.53,12599,551.74,0,551.74,0,0.00080233,1.5938e-09,0,0.00041071,0.00015007,2.6698e+08,484.61,0,1.294e+08,109.71,551.74,1
1904,4.76,12125,1,12125,1,0.00012753,-1.3798e-09,0,0.00070225,-2.3337e-05,84.046,-379.44,0,2.3376e+08,46.138,12124,13103,1,13103,1,0.0014712,1.4108e-09,0,0.0014712,0.00022818,3.7319e+08,441.96,0,4.9463e+08,406.38,13102,12124,1,12124,1,0.00012753,-1.1688e-09,0,0.0006967,-2.3406e-05,4.4555e+07,-316.66,0,2.4152e+08,30.113,12123,11097,1,11097,1,-0.0012161,-4.565e-09,0,2.1755e-05,-0.00027459,-4.9463e+08,-1302.2,0,9.0566e+06,-112.07,11096,11648,1,11648,1,-0.00056917,-2.6947e-09,0,0.00034835,-0.00015364,-2.3149e+08,-752.72,0,1.2783e+08,-11.407,11647,12600,1,12600,1,0.00082423,9.7532e-11,0,0.0010451,0.00010693,2.423e+08,29.09,0,3.3196e+08,74.102,12599,551.74,0,551.74,0,0.00080418,1.6446e-09,0,0.00041177,0.00015042,2.6732e+08,462.37,0,1.2956e+08,85.741,551.74,1
1904,4.77,12125,1,12125,1,0.00012846,4.2413e-09,0,0.0007039,-2.3506e-05,225.46,1254.8,0,2.3406e+08,126.67,12124,13103,1,13103,1,0.0014752,1.3621e-08,0,0.0014752,0.00022858,3.7329e+08,4034.7,0,4.9551e+08,580.5,13102,12124,1,12124,1,0.00012846,3.8749e-09,0,0.00069829,-2.3576e-05,4.4844e+07,1103.8,0,2.4185e+08,80.796,12123,11097,1,11097,1,-0.0012183,-2.1469e-09,0,2.1171e-05,-0.00027534,-4.9551e+08,-735.26,0,8.832e+06,-196.31,11096,11648,1,11648,1,-0.00056983,1.5621e-09,0,0.00034914,-0.00015411,-2.3176e+08,426.09,0,1.2803e+08,-6.2768,11647,12600,1,12600,1,0.00082675,6.7753e-09,0,0.0010474,0.00010705,2.4262e+08,2026.8,0,3.3228e+08,251.33,12599,551.74,0,551.74,0,0.00080601,3.4575e-09,0,0.00041283,0.00015076,2.6765e+08,1034.4,0,1.2972e+08,173.56,551.74,1
1904,4.78,12125,1,12125,1,0.00012939,6.8453e-10,0,0.00070556,-2.3677e-05,44.873,246.5,0,2.3436e+08,34.367,12124,13103,1,13103,1,0.0014792,5.1214e-09,0,0.0014792,0.00022898,3.7338e+08,1543.9,0,4.9638e+08,407.96,13102,12124,1,12124,1,0.00012939,4.6777e-10,0,0.0006999,-2.3747e-05,4.5134e+07,154.6,0,2.4218e+08,12.788,12123,11097,1,11097,1,-0.0012204,-2.0166e-09,0,2.0581e-05,-0.00027608,-4.9638e+08,-503.82,0,8.6054e+06,-170.15,11096,11648,1,11648,1,-0.0005705,-6.6918e-10,0,0.00034994,-0.00015458,-2.3203e+08,-158.8,0,1.2824e+08,-24.803,11647,12600,1,12600,1,0.00082929,1.6665e-09,0,0.0010498,0.00010718,2.4296e+08,531.74,0,3.3261e+08,73.392,12599,551.74,0,551.74,0,0.00080786,1.5533e-09,0,0.0004139,0.0001511,2.68e+08,478,0,1.2989e+08,99.774,551.74,1
1904,4.79,12125,1,12125,1,0.00013033,1.8701e-09,0,0.0007072,-2.3848e-05,363.1,587.27,0,2.3464e+08,118.04,12124,13103,1,13103,1,0.0014832,1.5361e-08,0,0.0014832,0.00022938,3.7346e+08,4625,0,4.9725e+08,785.8,13102,12124,1,12124,1,0.00013033,4.962e-10,0,0.00070148,-2.3919e-05,4.5425e+07,143.14,0,2.425e+08,74.035,12123,11097,1,11097,1,-0.0012225,-4.9402e-09,0,1.9985e-05,-0.00027682,-4.9725e+08,-1325.4,0,8.3772e+06,-346.08,11096,11648,1,11648,1,-0.00057115,-7.6101e-10,0,0.00035073,-0.00015504,-2.3229e+08,-198.14,0,1.2843e+08,-27.43,11647,12600,1,12600,1,0.0008318,3.9098e-09,0,0.0010522,0.0001073,2.4328e+08,1196.2,0,3.3293e+08,246.94,12599,551.74,0,551.74,0,0.00080968,3.898e-09,0,0.00041495,0.00015144,2.6832e+08,1172.3,0,1.3004e+08,211.16,551.74,1
1904,4.8,12125,1,12125,1,0.00013126,4.3976e-10,0,0.00070888,-2.402e-05,48.983,176.87,0,2.3494e+08,-1.7978,12124,13103,1,13103,1,0.0014873,4.6438e-09,0,0.0014873,0.00022979,3.7356e+08,1458.8,0,4.9813e+08,359.38,13102,12124,1,12124,1,0.00013127,8.8607e-11,0,0.0007031,-2.4093e-05,4.5717e+07,25.187,0,2.4284e+08,-3.3546,12123,11097,1,11097,1,-0.0012247,-2.2689e-09,0,1.9389e-05,-0.00027757,-4.9813e+08,-594.61,0,8.1494e+06,-219.74,11096,11648,1,11648,1,-0.00057182,-9.036e-10,0,0.00035154,-0.00015551,-2.3257e+08,-217.18,0,1.2864e+08,-48.891,11647,12600,1,12600,1,0.00083436,1.4283e-09,0,0.0010546,0.00010743,2.4361e+08,463.5,0,3.3326e+08,41.549,12599,551.74,0,551.74,0,0.00081155,1.6412e-09,0,0.00041603,0.00015179,2.6867e+08,509.22,0,1.3021e+08,91.403,551.74,1
1904,4.81,12125,1,12125,1,0.00013222,2.3402e-09,0,0.00071055,-2.4196e-05,59.501,721.48,0,2.3524e+08,-7.5531,12124,13103,1,13103,1,0.0014913,6.4133e-09,0,0.0014913,0.0002302,3.7365e+08,1929.3,0,4.9902e+08,437.35,13102,12124,1,12124,1,0.00013222,2.4255e-09,0,0.00070471,-2.4269e-05,4.6013e+07,717.65,0,2.4317e+08,-14.587,12123,11097,1,11097,1,-0.0012269,-1.399e-09,0,1.8784e-05,-0.00027833,-4.9902e+08,-363.03,0,7.9183e+06,-317.96,11096,11648,1,11648,1,-0.00057249,7.7855e-10,0,0.00035235,-0.00015599,-2.3284e+08,209.42,0,1.2884e+08,-78.403,11647,12600,1,12600,1,0.00083693,3.8542e-09,0,0.0010571,0.00010756,2.4394e+08,1188.6,0,3.3358e+08,43.169,12599,551.74,0,551.74,0,0.00081342,1.8962e-09,0,0.00041712,0.00015214,2.69e+08,596.52,0,1.3037e+08,119.38,551.74,1
1904,4.82,12125,1,12125,1,0.00013318,1.994e-09,0,0.00071222,-2.4371e-05,396.69,634.66,0,2.3553e+08,45.929,12124,13103,1,13103,1,0.0014954,8.8695e-09,0,0.0014954,0.0002306,3.7372e+08,2665.1,0,4.9988e+08,463.67,13102,12124,1,12124,1,0.00013318,1.5426e-09,0,0.00070632,-2.4445e-05,4.6311e+07,486.13,0,2.4349e+08,26.723,12123,11097,1,11097,1,-0.001229,-1.9896e-09,0,1.8165e-05,-0.00027908,-4.9988e+08,-480.5,0,7.6825e+06,-212.98,11096,11648,1,11648,1,-0.00057313,2.6661e-11,0,0.00035315,-0.00015646,-2.331e+08,5.3503,0,1.2904e+08,-28.499,11647,12600,1,12600,1,0.0008395,3.6092e-09,0,0.0010595,0.00010768,2.4426e+08,1112.2,0,3.339e+08,104.61,12599,551.74,0,551.74,0,0.00081527,2.3533e-09,0,0.0004182,0.00015248,2.6933e+08,727.02,0,1.3053e+08,113.28,551.74,1
1904,4.83,12125,1,12125,1,0.00013414,7.2533e-10,0,0.00071387,-2.4547e-05,644.03,265.81,0,2.3581e+08,46.275,12124,13103,1,13103,1,0.0014994,6.5761e-09,0,0.0014994,0.000231,3.7378e+08,1974.3,0,5.0074e+08,401.95,13102,12124,1,12124,1,0.00013414,3.9159e-10,0,0.00070792,-2.4622e-05,4.6608e+07,121.71,0,2.4381e+08,33.217,12123,11097,1,11097,1,-0.0012311,-4.3195e-09,0,1.7545e-05,-0.00027983,-5.0074e+08,-1114.9,0,7.4466e+06,-225.13,11096,11648,1,11648,1,-0.00057376,-9.2469e-10,0,0.00035395,-0.00015694,-2.3336e+08,-226.13,0,1.2924e+08,-30.966,11647,12600,1,12600,1,0.00084205,2.3508e-09,0,0.0010619,0.0001078,2.4457e+08,727.91,0,3.342e+08,119.63,12599,551.74,0,551.74,0,0.00081711,2.1588e-09,0,0.00041927,0.00015282,2.6966e+08,648.68,0,1.3069e+08,112.66,551.74,1
1904,4.84,12125,1,12125,1,0.0001351,1.966e-09,0,0.00071555,-2.4724e-05,-142.93,623.88,0,2.361e+08,42.724,12124,13103,1,13103,1,0.0015035,5.8954e-09,0,0.0015035,0.00023141,3.7386e+08,2015.2,0,5.0162e+08,488.44,13102,12124,1,12124,1,0.0001351,1.8203e-09,0,0.00070953,-2.4799e-05,4.6905e+07,558.66,0,2.4414e+08,31.197,12123,11097,1,11097,1,-0.0012333,-1.6552e-09,0,1.6931e-05,-0.00028058,-5.0162e+08,-399.22,0,7.2133e+06,-247.51,11096,11648,1,11648,1,-0.00057442,3.0704e-10,0,0.00035476,-0.00015741,-2.3362e+08,80.394,0,1.2944e+08,-41.157,11647,12600,1,12600,1,0.00084463,3.5313e-09,0,0.0010643,0.00010793,2.449e+08,1113.9,0,3.3452e+08,115.35,12599,551.74,0,551.74,0,0.00081898,1.9675e-09,0,0.00042036,0.00015317,2.6999e+08,619.3,0,1.3085e+08,125.07,551.74,1
1904,4.85,12125,1,12125,1,0.00013608,9.5793e-11,0,0.00071722,-2.4903e-05,318.99,83.784,0,2.3639e+08,43.153,12124,13103,1,13103,1,0.0015076,6.9315e-09,0,0.0015076,0.0002318,3.7392e+08,2078.2,0,5.0248e+08,448.53,13102,12124,1,12124,1,0.00013608,1.6544e-10,0,0.00071114,-2.4979e-05,4.7206e+07,46.168,0,2.4446e+08,33.824,12123,11097,1,11097,1,-0.0012354,-6.095e-09,0,1.6301e-05,-0.00028133,-5.0248e+08,-1612.2,0,6.9741e+06,-228.54,11096,11648,1,11648,1,-0.00057505,-1.6834e-09,0,0.00035556,-0.00015789,-2.3388e+08,-440.68,0,1.2964e+08,-42.888,11647,12600,1,12600,1,0.00084722,1.8382e-09,0,0.0010667,0.00010805,2.4522e+08,582.83,0,3.3483e+08,112.04,12599,551.74,0,551.74,0,0.00082084,2.7134e-09,0,0.00042145,0.00015351,2.7032e+08,795.95,0,1.3101e+08,118.85,551.74,1
1904,4.86,12125,1,12125,1,0.00013706,1.6663e-09,0,0.0007189,-2.5082e-05,448.15,518.61,0,2.3667e+08,51.034,12124,13103,1,13103,1,0.0015117,7.6282e-09,0,0.0015117,0.0002322,3.7398e+08,2279.8,0,5.0335e+08,492.77,13102,12124,1,12124,1,0.00013706,9.0579e-10,0,0.00071275,-2.5159e-05,4.7507e+07,273.2,0,2.4478e+08,33.743,12123,11097,1,11097,1,-0.0012375,-1.6637e-09,0,1.5669e-05,-0.00028209,-5.0335e+08,-422.77,0,6.7349e+06,-263.62,11096,11648,1,11648,1,-0.00057569,6.7344e-11,0,0.00035637,-0.00015837,-2.3414e+08,19.124,0,1.2984e+08,-35.319,11647,12600,1,12600,1,0.00084981,3.172e-09,0,0.0010691,0.00010817,2.4553e+08,966.18,0,3.3514e+08,140.51,12599,551.74,0,551.74,0,0.0008227,2.0713e-09,0,0.00042254,0.00015386,2.7064e+08,638.09,0,1.3117e+08,127.67,551.74,1
1904,4.87,12125,1,12125,1,0.00013804,5.8344e-10,0,0.00072057,-2.5262e-05,301.5,210.29,0,2.3695e+08,38.183,12124,13103,1,13103,1,0.0015158,4.703e-09,0,0.0015158,0.0002326,3.7403e+08,1407,0,5.0421e+08,502.56,13102,12124,1,12124,1,0.00013804,4.118e-10,0,0.00071437,-2.534e-05,4.781e+07,136.81,0,2.4509e+08,11.757,12123,11097,1,11097,1,-0.0012397,-2.1872e-09,0,1.503e-05,-0.00028285,-5.0421e+08,-541.86,0,6.4931e+06,-210.53,11096,11648,1,11648,1,-0.00057632,-5.0848e-10,0,0.00035718,-0.00015885,-2.3439e+08,-125.98,0,1.3004e+08,-50.215,11647,12600,1,12600,1,0.00085241,1.4382e-09,0,0.0010715,0.00010829,2.4585e+08,459.78,0,3.3544e+08,108.1,12599,551.74,0,551.74,0,0.00082456,1.311e-09,0,0.00042363,0.00015421,2.7097e+08,399.35,0,1.3133e+08,132.75,551.74,1
1904,4.88,12125,1,12125,1,0.00013903,1.3911e-09,0,0.00072225,-2.5443e-05,-234.44,440.37,0,2.3723e+08,82.971,12124,13103,1,13103,1,0.0015199,7.0108e-09,0,0.0015199,0.000233,3.7408e+08,2092.1,0,5.0508e+08,555.91,13102,12124,1,12124,1,0.00013903,8.191e-10,0,0.00071598,-2.5522e-05,4.8113e+07,250.74,0,2.4541e+08,64,12123,11097,1,11097,1,-0.0012418,-3.8192e-09,0,1.4389e-05,-0.00028361,-5.0508e+08,-973.76,0,6.2512e+06,-196.64,11096,11648,1,11648,1,-0.00057694,-2.0915e-10,0,0.00035798,-0.00015933,-2.3465e+08,-57.229,0,1.3023e+08,-1.9987,11647,12600,1,12600,1,0.00085501,3.0628e-09,0,0.001074,0.00010841,2.4616e+08,934.13,0,3.3574e+08,157.27,12599,551.74,0,551.74,0,0.00082642,2.1873e-09,0,0.00042473,0.00015455,2.7129e+08,658.58,0,1.3148e+08,126.61,551.74,1
1904,4.89,12125,1,12125,1,0.00014003,1.8922e-09,0,0.00072394,-2.5626e-05,-254.05,594.97,0,2.3752e+08,74.322,12124,13103,1,13103,1,0.001524,6.7996e-09,0,0.001524,0.00023341,3.7413e+08,2029,0,5.0595e+08,518.14,13102,12124,1,12124,1,0.00014003,1.8194e-09,0,0.00071761,-2.5705e-05,4.8418e+07,565.79,0,2.4573e+08,44.362,12123,11097,1,11097,1,-0.0012439,-1.2627e-09,0,1.3739e-05,-0.00028438,-5.0595e+08,-303.04,0,6.0062e+06,-223.78,11096,11648,1,11648,1,-0.00057757,3.7297e-10,0,0.00035879,-0.00015981,-2.3491e+08,98.822,0,1.3043e+08,-26.711,11647,12600,1,12600,1,0.00085763,3.2071e-09,0,0.0010764,0.00010853,2.4648e+08,1004.1,0,3.3604e+08,167.21,12599,551.74,0,551.74,0,0.0008283,1.8037e-09,0,0.00042584,0.0001549,2.7161e+08,564.03,0,1.3164e+08,145.73,551.74,1
1904,4.9,12125,1,12125,1,0.00014103,1.8558e-09,0,0.00072562,-2.581e-05,443.42,595.37,0,2.3779e+08,62.868,12124,13103,1,13103,1,0.0015282,6.8945e-09,0,0.0015282,0.00023381,3.7417e+08,2162.3,0,5.0681e+08,533.98,13102,12124,1,12124,1,0.00014103,1.5414e-09,0,0.00071923,-2.5891e-05,4.8726e+07,486.8,0,2.4604e+08,39.64,12123,11097,1,11097,1,-0.0012461,-3.1073e-09,0,1.3078e-05,-0.00028514,-5.0681e+08,-759.17,0,5.7571e+06,-207.48,11096,11648,1,11648,1,-0.00057818,-3.4455e-11,0,0.0003596,-0.0001603,-2.3515e+08,-8.9739,0,1.3062e+08,-20.963,11647,12600,1,12600,1,0.00086026,3.6293e-09,0,0.0010788,0.00010864,2.4679e+08,1113.5,0,3.3634e+08,136.27,12599,551.74,0,551.74,0,0.00083017,2.2528e-09,0,0.00042694,0.00015525,2.7193e+08,693,0,1.318e+08,126.39,551.74,1
1904,4.91,12125,1,12125,1,0.00014204,-4.395e-10,0,0.00072732,-2.5995e-05,-117.13,-74.279,0,2.3807e+08,34.244,12124,13103,1,13103,1,0.0015323,2.4682e-09,0,0.0015323,0.0002342,3.7421e+08,844.95,0,5.0767e+08,682.39,13102,12124,1,12124,1,0.00014204,-2.9147e-10,0,0.00072086,-2.6077e-05,4.9035e+07,-80.107,0,2.4636e+08,12.72,12123,11097,1,11097,1,-0.0012482,-3.9639e-09,0,1.2417e-05,-0.0002859,-5.0767e+08,-965.56,0,5.5085e+06,-269.65,11096,11648,1,11648,1,-0.00057881,-1.4606e-09,0,0.00036042,-0.00016078,-2.3541e+08,-378.89,0,1.3082e+08,-76.622,11647,12600,1,12600,1,0.00086289,8.1069e-10,0,0.0010813,0.00010876,2.471e+08,266.61,0,3.3664e+08,113.79,12599,551.74,0,551.74,0,0.00083205,1.5171e-09,0,0.00042805,0.0001556,2.7225e+08,420.65,0,1.3196e+08,181.31,551.74,1
1904,4.92,12125,1,12125,1,0.00014306,3.3963e-09,0,0.00072899,-2.6182e-05,248.88,1023,0,2.3834e+08,104.09,12124,13103,1,13103,1,0.0015364,1.1392e-08,0,0.0015364,0.0002346,3.7424e+08,3365.8,0,5.0854e+08,575.97,13102,12124,1,12124,1,0.00014306,3.1362e-09,0,0.00072247,-2.6264e-05,4.9344e+07,937.12,0,2.4666e+08,85.464,12123,11097,1,11097,1,-0.0012503,-2.7463e-09,0,1.175e-05,-0.00028667,-5.0854e+08,-631.75,0,5.2579e+06,-202.28,11096,11648,1,11648,1,-0.0005794,8.7139e-10,0,0.00036123,-0.00016127,-2.3565e+08,259.86,0,1.3101e+08,10.8,11647,12600,1,12600,1,0.00086552,5.5065e-09,0,0.0010837,0.00010887,2.474e+08,1670.7,0,3.3692e+08,193.76,12599,551.74,0,551.74,0,0.00083391,3.1489e-09,0,0.00042916,0.00015595,2.7256e+08,933.37,0,1.3211e+08,134.19,551.74,1
1904,4.93,12125,1,12125,1,0.00014408,-2.1377e-10,0,0.00073069,-2.6368e-05,156.64,3.827,0,2.3862e+08,67.854,12124,13103,1,13103,1,0.0015406,2.7529e-09,0,0.0015406,0.000235,3.7427e+08,942.52,0,5.0939e+08,594.05,13102,12124,1,12124,1,0.00014408,2.3156e-10,0,0.0007241,-2.6452e-05,4.9655e+07,66.833,0,2.4697e+08,35.83,12123,11097,1,11097,1,-0.0012524,-4.2356e-09,0,1.108e-05,-0.00028744,-5.0939e+08,-1023.2,0,5.0063e+06,-116.56,11096,11648,1,11648,1,-0.00058002,-1.6665e-09,0,0.00036204,-0.00016176,-2.359e+08,-408.95,0,1.312e+08,-9.4272,11647,12600,1,12600,1,0.00086817,1.2219e-09,0,0.0010861,0.00010899,2.4771e+08,409.23,0,3.3722e+08,101.43,12599,551.74,0,551.74,0,0.0008358,1.6194e-09,0,0.00043028,0.0001563,2.7288e+08,448.12,0,1.3227e+08,118.8,551.74,1
1904,4.94,12125,1,12125,1,0.00014511,-1.473e-09,0,0.00073236,-2.6556e-05,245.33,-394.3,0,2.3888e+08,64.615,12124,13103,1,13103,1,0.0015447,1.4203e-09,0,0.0015447,0.00023539,3.7427e+08,486.4,0,5.1023e+08,589.62,13102,12124,1,12124,1,0.0001451,-6.767e-10,0,0.0007257,-2.6641e-05,4.9967e+07,-192.07,0,2.4727e+08,30.264,12123,11097,1,11097,1,-0.0012545,-8.3585e-09,0,1.0399e-05,-0.0002882,-5.1023e+08,-2165.8,0,4.7512e+06,-172.38,11096,11648,1,11648,1,-0.0005806,-2.9093e-09,0,0.00036285,-0.00016225,-2.3613e+08,-812.29,0,1.3139e+08,-35.698,11647,12600,1,12600,1,0.0008708,4.8211e-10,0,0.0010886,0.0001091,2.48e+08,140.79,0,3.3749e+08,127.06,12599,551.74,0,551.74,0,0.00083765,2.3844e-09,0,0.00043138,0.00015664,2.7319e+08,653.72,0,1.3242e+08,136.43,551.74,1
1904,4.95,12125,1,12125,1,0.00014613,1.9366e-09,0,0.00073407,-2.6745e-05,101.02,564.57,0,2.3916e+08,96.199,12124,13103,1,13103,1,0.0015489,6.4106e-09,0,0.0015489,0.00023579,3.7431e+08,1787.8,0,5.1111e+08,673.45,13102,12124,1,12124,1,0.00014613,1.61e-09,0,0.00072735,-2.683e-05,5.028e+07,479.99,0,2.4759e+08,61.053,12123,11097,1,11097,1,-0.0012566,-1.7169e-09,0,9.7248e-06,-0.00028898,-5.1111e+08,-409.4,0,4.4989e+06,-454.87,11096,11648,1,11648,1,-0.00058121,6.65e-10,0,0.00036367,-0.00016274,-2.3639e+08,170.5,0,1.3159e+08,3.6126,11647,12600,1,12600,1,0.00087348,3.1337e-09,0,0.001091,0.00010922,2.4832e+08,927.63,0,3.3779e+08,184.11,12599,551.74,0,551.74,0,0.00083955,1.7518e-09,0,0.00043251,0.00015699,2.7351e+08,504.37,0,1.3258e+08,135.79,551.74,1
1904,4.96,12125,1,12125,1,0.00014718,7.1311e-10,0,0.00073578,-2.6937e-05,208.58,231.03,0,2.3943e+08,50.174,12124,13103,1,13103,1,0.0015531,5.6925e-09,0,0.0015531,0.00023619,3.7431e+08,1623,0,5.1197e+08,699.98,13102,12124,1,12124,1,0.00014718,5.3227e-10,0,0.00072899,-2.7022e-05,5.0597e+07,165.3,0,2.4789e+08,24.369,12123,11097,1,11097,1,-0.0012587,-3.0058e-09,0,9.0283e-06,-0.00028976,-5.1197e+08,-717.94,0,4.2385e+06,-1004,11096,11648,1,11648,1,-0.00058181,-2.4226e-10,0,0.00036449,-0.00016324,-2.3663e+08,-56.131,0,1.3178e+08,-21.755,11647,12600,1,12600,1,0.00087617,1.3718e-09,0,0.0010935,0.00010933,2.4862e+08,428.33,0,3.3806e+08,102.3,12599,551.74,0,551.74,0,0.00084144,1.3575e-09,0,0.00043364,0.00015734,2.7382e+08,387.74,0,1.3274e+08,165.95,551.74,1
1904,4.97,12125,1,12125,1,0.00014823,1.621e-10,0,0.00073747,-2.7128e-05,44.36,73.359,0,2.3969e+08,97.27,12124,13103,1,13103,1,0.0015573,6.5392e-09,0,0.0015573,0.00023658,3.7431e+08,1913.6,0,5.1281e+08,713.01,13102,12124,1,12124,1,0.00014823,2.3556e-10,0,0.00073061,-2.7215e-05,5.0914e+07,71.913,0,2.4819e+08,60.759,12123,11097,1,11097,1,-0.0012608,-6.0305e-09,0,8.3284e-06,-0.00029053,-5.1281e+08,-1527.3,0,3.977e+06,-539.59,11096,11648,1,11648,1,-0.00058238,-1.0051e-09,0,0.0003653,-0.00016373,-2.3686e+08,-274.23,0,1.3197e+08,1.8195,11647,12600,1,12600,1,0.00087884,1.3184e-09,0,0.0010959,0.00010944,2.4891e+08,409.59,0,3.3833e+08,166.05,12599,551.74,0,551.74,0,0.00084331,2.1595e-09,0,0.00043476,0.00015769,2.7412e+08,602.53,0,1.3289e+08,163.85,551.74,1
1904,4.98,12125,1,12125,1,0.00014928,8.409e-10,0,0.00073918,-2.7321e-05,-73.57,257.45,0,2.3996e+08,67.876,12124,13103,1,13103,1,0.0015615,2.692e-09,0,0.0015615,0.00023698,3.7432e+08,818.91,0,5.1367e+08,878.14,13102,12124,1,12124,1,0.00014928,8.6301e-10,0,0.00073225,-2.7409e-05,5.1231e+07,257.66,0,2.485e+08,25.314,12123,11097,1,11097,1,-0.0012629,-2.4218e-09,0,7.6315e-06,-0.00029131,-5.1367e+08,-570.31,0,3.717e+06,-785.31,11096,11648,1,11648,1,-0.00058297,2.268e-10,0,0.00036612,-0.00016423,-2.371e+08,61.887,0,1.3216e+08,-12.536,11647,12600,1,12600,1,0.00088153,1.484e-09,0,0.0010984,0.00010955,2.4921e+08,459.91,0,3.3862e+08,111.34,12599,551.74,0,551.74,0,0.00084521,8.655e-10,0,0.0004359,0.00015805,2.7444e+08,257.72,0,1.3305e+08,129.86,551.74,1
1904,4.99,12125,1,12125,1,0.00015034,2.6494e-09,0,0.00074086,-2.7514e-05,-639.89,778.46,0,2.4022e+08,143.3,12124,13103,1,13103,1,0.0015657,1.5817e-08,0,0.0015657,0.00023737,3.7431e+08,4364.5,0,5.1452e+08,800.37,13102,12124,1,12124,1,0.00015033,1.0887e-09,0,0.00073388,-2.7603e-05,5.155e+07,322.46,0,2.4879e+08,111.56,12123,11097,1,11097,1,-0.001265,-4.8719e-09,0,6.9214e-06,-0.00029209,-5.1452e+08,-1192.2,0,3.4523e+06,-320.11,11096,11648,1,11648,1,-0.00058354,-2.8097e-10,0,0.00036694,-0.00016472,-2.3733e+08,-82.639,0,1.3234e+08,13.593,11647,12600,1,12600,1,0.00088421,5.0038e-09,0,0.0011008,0.00010966,2.495e+08,1450.9,0,3.3888e+08,271.17,12599,551.74,0,551.74,0,0.00084708,4.1593e-09,0,0.00043703,0.00015839,2.7473e+08,1175.8,0,1.332e+08,196.55,551.74,1
1904,5,12125,1,12125,1,0.0001514,2.4363e-09,0,0.00074257,-2.7708e-05,317.98,750.73,0,2.4048e+08,37.727,12124,13103,1,13103,1,0.0015699,6.2465e-09,0,0.0015699,0.00023776,3.7431e+08,2057.1,0,5.1537e+08,820.47,13102,12124,1,12124,1,0.0001514,2.7066e-09,0,0.00073551,-2.7798e-05,5.187e+07,795.14,0,2.4909e+08,6.6946,12123,11097,1,11097,1,-0.0012671,-2.2592e-09,0,6.2055e-06,-0.00029287,-5.1537e+08,-507.17,0,3.1856e+06,-328.81,11096,11648,1,11648,1,-0.00058411,7.0094e-10,0,0.00036775,-0.00016522,-2.3756e+08,174.9,0,1.3253e+08,-85.591,11647,12600,1,12600,1,0.0008869,4.1828e-09,0,0.0011033,0.00010977,2.498e+08,1323.8,0,3.3915e+08,121.28,12599,551.74,0,551.74,0,0.00084897,2.1108e-09,0,0.00043816,0.00015874,2.7504e+08,649.48,0,1.3335e+08,191.47,551.74,1
1904,5.01,12125,1,12125,1,0.00015247,-1.3048e-10,0,0.00074428,-2.7904e-05,336.88,31.695,0,2.4075e+08,81.163,12124,13103,1,13103,1,0.0015742,3.3802e-09,0,0.0015742,0.00023816,3.743e+08,974.78,0,5.1622e+08,734.28,13102,12124,1,12124,1,0.00015247,2.85e-10,0,0.00073716,-2.7996e-05,5.2192e+07,92.544,0,2.4939e+08,22.493,12123,11097,1,11097,1,-0.0012692,-6.0514e-09,0,5.4854e-06,-0.00029365,-5.1622e+08,-1461.8,0,2.9175e+06,-153.39,11096,11648,1,11648,1,-0.00058469,-1.6558e-09,0,0.00036857,-0.00016572,-2.378e+08,-381.04,0,1.3272e+08,-21.226,11647,12600,1,12600,1,0.00088962,1.387e-09,0,0.0011057,0.00010988,2.5009e+08,455.76,0,3.3942e+08,144.23,12599,551.74,0,551.74,0,0.00085087,1.9624e-09,0,0.00043931,0.0001591,2.7534e+08,541.22,0,1.3351e+08,162.19,551.74,1
1904,5.02,12125,1,12125,1,0.00015355,2.0925e-09,0,0.000746,-2.8102e-05,-124.3,648.36,0,2.4101e+08,90.781,12124,13103,1,13103,1,0.0015784,6.6591e-09,0,0.0015784,0.00023856,3.7428e+08,1874.1,0,5.1708e+08,798,13102,12124,1,12124,1,0.00015355,2.3302e-09,0,0.00073881,-2.8194e-05,5.2516e+07,694.43,0,2.4968e+08,47.751,12123,11097,1,11097,1,-0.0012713,-2.6639e-09,0,4.7612e-06,-0.00029444,-5.1708e+08,-600.23,0,2.6482e+06,-181.75,11096,11648,1,11648,1,-0.00058525,4.9417e-10,0,0.00036939,-0.00016622,-2.3803e+08,114.59,0,1.3291e+08,-27.136,11647,12600,1,12600,1,0.00089235,3.5309e-09,0,0.0011082,0.00010999,2.5038e+08,1134.1,0,3.3968e+08,162.89,12599,551.74,0,551.74,0,0.00085278,1.898e-09,0,0.00044046,0.00015945,2.7565e+08,577.17,0,1.3366e+08,171.41,551.74,1
1904,5.03,12125,1,12125,1,0.00015464,1.3164e-09,0,0.00074771,-2.8301e-05,8.0362,441.62,0,2.4126e+08,97.443,12124,13103,1,13103,1,0.0015827,8.1273e-09,0,0.0015827,0.00023894,3.7425e+08,2336.2,0,5.1793e+08,822.2,13102,12124,1,12124,1,0.00015463,1.152e-09,0,0.00074045,-2.8395e-05,5.2842e+07,361.12,0,2.4997e+08,60.192,12123,11097,1,11097,1,-0.0012734,-7.1674e-09,0,4.0237e-06,-0.00029523,-5.1793e+08,-1736.3,0,2.374e+06,-174.48,11096,11648,1,11648,1,-0.00058581,-6.7371e-10,0,0.00037021,-0.00016673,-2.3825e+08,-158.09,0,1.3309e+08,-2.45,11647,12600,1,12600,1,0.00089508,3.4279e-09,0,0.0011107,0.00011009,2.5067e+08,1053.9,0,3.3994e+08,155.19,12599,551.74,0,551.74,0,0.00085467,2.8214e-09,0,0.00044161,0.0001598,2.7594e+08,807.26,0,1.3381e+08,159.3,551.74,1
1904,5.04,12125,1,12125,1,0.00015572,-1.1027e-09,0,0.00074942,-2.85e-05,-52.688,-251.78,0,2.4152e+08,121.87,12124,13103,1,13103,1,0.0015869,3.6272e-09,0,0.0015869,0.00023933,3.7423e+08,977.14,0,5.1876e+08,825.55,13102,12124,1,12124,1,0.00015572,-4.2034e-10,0,0.00074209,-2.8595e-05,5.3168e+07,-121.41,0,2.5026e+08,62.68,12123,11097,1,11097,1,-0.0012754,-8.3257e-09,0,3.2863e-06,-0.00029601,-5.1876e+08,-2087.3,0,2.1e+06,-79.219,11096,11648,1,11648,1,-0.00058636,-2.7785e-09,0,0.00037104,-0.00016723,-2.3848e+08,-712.65,0,1.3328e+08,9.3666,11647,12600,1,12600,1,0.00089781,8.408e-10,0,0.0011131,0.0001102,2.5095e+08,275.25,0,3.402e+08,186.95,12599,551.74,0,551.74,0,0.00085656,2.4763e-09,0,0.00044276,0.00016015,2.7624e+08,663.75,0,1.3397e+08,167.84,551.74,1
1904,5.05,12125,1,12125,1,0.00015682,2.556e-09,0,0.00075115,-2.8701e-05,178.28,759.59,0,2.4178e+08,40.401,12124,13103,1,13103,1,0.0015912,6.2004e-09,0,0.0015912,0.00023973,3.7421e+08,1829.8,0,5.1963e+08,974.4,13102,12124,1,12124,1,0.00015682,2.8322e-09,0,0.00074375,-2.8797e-05,5.3496e+07,812.43,0,2.5056e+08,-5.6131,12123,11097,1,11097,1,-0.0012776,-1.5921e-09,0,2.5471e-06,-0.00029681,-5.1963e+08,-420.24,0,1.8257e+06,-222.96,11096,11648,1,11648,1,-0.00058692,8.2727e-10,0,0.00037187,-0.00016774,-2.3871e+08,236.68,0,1.3346e+08,-62.277,11647,12600,1,12600,1,0.00090057,4.2635e-09,0,0.0011156,0.00011031,2.5124e+08,1268.2,0,3.4046e+08,66.642,12599,551.74,0,551.74,0,0.00085848,2.0252e-09,0,0.00044393,0.00016051,2.7654e+08,612.67,0,1.3412e+08,181.86,551.74,1
1904,5.06,12125,1,12125,1,0.00015793,-2.2399e-09,0,0.00075287,-2.8904e-05,149.08,-590.16,0,2.4203e+08,171.93,12124,13103,1,13103,1,0.0015955,6.1029e-09,0,0.0015955,0.00024012,3.7417e+08,1511.9,0,5.2047e+08,899.3,13102,12124,1,12124,1,0.00015793,-1.184e-09,0,0.00074539,-2.9002e-05,5.3827e+07,-313.67,0,2.5084e+08,132.47,12123,11097,1,11097,1,-0.0012796,-1.0979e-08,0,1.789e-06,-0.0002976,-5.2047e+08,-2826.2,0,1.5443e+06,-163.68,11096,11648,1,11648,1,-0.00058746,-4.8863e-09,0,0.0003727,-0.00016825,-2.3893e+08,-1356.3,0,1.3364e+08,30.852,11647,12600,1,12600,1,0.00090333,7.2316e-10,0,0.0011181,0.00011041,2.5153e+08,219.76,0,3.4071e+08,281.44,12599,551.74,0,551.74,0,0.00086038,3.8272e-09,0,0.00044509,0.00016086,2.7683e+08,1024.3,0,1.3427e+08,181.63,551.74,1
1904,5.07,12125,1,12125,1,0.00015905,1.5141e-09,0,0.0007546,-2.9107e-05,104.14,435.1,0,2.4228e+08,88.859,12124,13103,1,13103,1,0.0015998,8.3771e-09,0,0.0015998,0.00024051,3.7413e+08,2199,0,5.2131e+08,994.18,13102,12124,1,12124,1,0.00015904,1.0705e-09,0,0.00074705,-2.9206e-05,5.4158e+07,301.49,0,2.5113e+08,38.874,12123,11097,1,11097,1,-0.0012817,-3.0808e-09,0,1.0365e-06,-0.0002984,-5.2131e+08,-732.47,0,1.2654e+06,-202.47,11096,11648,1,11648,1,-0.00058801,2.009e-10,0,0.00037353,-0.00016876,-2.3915e+08,55.095,0,1.3383e+08,-28.933,11647,12600,1,12600,1,0.0009061,2.5021e-09,0,0.0011206,0.00011051,2.5181e+08,728.58,0,3.4096e+08,151.24,12599,551.74,0,551.74,0,0.0008623,1.9211e-09,0,0.00044626,0.00016122,2.7713e+08,534.45,0,1.3443e+08,190.87,551.74,1
1904,5.08,12125,1,12125,1,0.00016017,9.1647e-10,0,0.00075633,-2.9313e-05,230.02,290.04,0,2.4253e+08,124.11,12124,13103,1,13103,1,0.0016041,7.0993e-09,0,0.0016041,0.0002409,3.7408e+08,1861,0,5.2216e+08,1037.3,13102,12124,1,12124,1,0.00016017,6.8946e-10,0,0.00074872,-2.9413e-05,5.4492e+07,212.69,0,2.5142e+08,56.433,12123,11097,1,11097,1,-0.0012838,-5.4994e-09,0,2.6864e-07,-0.0002992,-5.2216e+08,-1308.1,0,9.8081e+05,-197.37,11096,11648,1,11648,1,-0.00058855,-2.9855e-10,0,0.00037435,-0.00016928,-2.3937e+08,-68.631,0,1.3401e+08,-34.411,11647,12600,1,12600,1,0.00090888,1.9884e-09,0,0.0011231,0.00011062,2.5209e+08,612.23,0,3.4121e+08,240.59,12599,551.74,0,551.74,0,0.00086421,1.9365e-09,0,0.00044743,0.00016158,2.7742e+08,533.9,0,1.3458e+08,219.48,551.74,1
1904,5.09,12125,1,12125,1,0.0001613,1.0537e-09,0,0.0007581,-2.9519e-05,78.555,333.61,0,2.4278e+08,109.12,12124,13103,1,13103,1,0.0016085,3.8609e-09,0,0.0016085,0.00024129,3.7402e+08,1183.8,0,5.23e+08,1076.2,13102,12124,1,12124,1,0.00016129,1.1264e-09,0,0.00075037,-2.962e-05,5.4826e+07,320.62,0,2.517e+08,27.216,12123,11097,1,11097,1,-0.0012859,-3.9053e-09,0,4.9462e-07,-0.0003,-5.23e+08,-888.1,0,6.9573e+05,-174.5,11096,11648,1,11648,1,-0.00058908,-1.8399e-10,0,0.00037519,-0.00016979,-2.3958e+08,-43.002,0,1.3419e+08,-50.365,11647,12600,1,12600,1,0.00091167,2.2853e-09,0,0.0011256,0.00011072,2.5237e+08,705.52,0,3.4145e+08,197.84,12599,551.74,0,551.74,0,0.00086613,1.4502e-09,0,0.00044855,0.00016193,2.7771e+08,428.87,0,1.3473e+08,234.64,551.74,1
1904,5.1,12125,1,12125,1,0.00016243,2.2618e-09,0,0.0007599,-2.9727e-05,-63.567,677.45,0,2.4302e+08,150.51,12124,13103,1,13103,1,0.0016128,7.093e-09,0,0.0016128,0.00024168,3.7397e+08,1731.1,0,5.2385e+08,1099.5,13102,12124,1,12124,1,0.00016243,2.6461e-09,0,0.00075203,-2.9829e-05,5.5162e+07,741.6,0,2.5198e+08,66.092,12123,11097,1,11097,1,-0.001288,-4.1667e-09,0,1.2713e-06,-0.0003008,-5.2385e+08,-922.32,0,4.066e+05,-112.92,11096,11648,1,11648,1,-0.00058961,5.5134e-10,0,0.00037602,-0.00017031,-2.398e+08,150.12,0,1.3437e+08,-5.3984,11647,12600,1,12600,1,0.00091446,4.0811e-09,0,0.0011281,0.00011082,2.5264e+08,1254.9,0,3.4169e+08,248.38,12599,551.74,0,551.74,0,0.00086805,2.0783e-09,0,0.00044963,0.00016229,2.78e+08,608.16,0,1.3488e+08,224.38,551.74,1
1904,5.11,12125,1,12125,1,0.00016357,2.1778e-09,0,0.00076167,-2.9935e-05,-369.62,681.38,0,2.4326e+08,222.77,12124,13103,1,13103,1,0.0016172,1.3474e-08,0,0.0016172,0.00024207,3.739e+08,3587.1,0,5.2469e+08,1021.3,13102,12124,1,12124,1,0.00016356,2.0254e-09,0,0.00075368,-3.0038e-05,5.5499e+07,631.84,0,2.5226e+08,156.02,12123,11097,1,11097,1,-0.00129,-7.7747e-09,0,2.0519e-06,-0.00030161,-5.2469e+08,-1817,0,1.1558e+05,-104.06,11096,11648,1,11648,1,-0.00059012,-4.4233e-10,0,0.00037685,-0.00017082,-2.4001e+08,-100.63,0,1.3454e+08,55.07,11647,12600,1,12600,1,0.00091726,4.2918e-09,0,0.0011305,0.00011092,2.5292e+08,1317.9,0,3.4192e+08,363.11,12599,551.74,0,551.74,0,0.00086996,3.6686e-09,0,0.00045071,0.00016264,2.7828e+08,1010.5,0,1.3503e+08,224.04,551.74,1
1904,5.12,12125,1,12125,1,0.00016471,1.7675e-09,0,0.00076347,-3.0144e-05,-336.61,579.81,0,2.4352e+08,184.29,12124,13103,1,13103,1,0.0016215,9.5449e-09,0,0.0016215,0.00024246,3.7384e+08,2625.5,0,5.2553e+08,1166.5,13102,12124,1,12124,1,0.00016471,1.8433e-09,0,0.00075535,-3.0248e-05,5.5837e+07,569.25,0,2.5254e+08,85.992,12123,11097,1,11097,1,-0.0012921,-5.9991e-09,0,2.8373e-06,-0.00030241,-5.2553e+08,-1369.9,0,1.6817e+05,-171.77,11096,11648,1,11648,1,-0.00059064,-4.7464e-10,0,0.00037769,-0.00017134,-2.4022e+08,-118.72,0,1.3472e+08,3.4632,11647,12600,1,12600,1,0.00092007,3.5723e-09,0,0.001133,0.00011102,2.5319e+08,1137.5,0,3.4216e+08,307.81,12599,551.74,0,551.74,0,0.00087188,2.7429e-09,0,0.00045181,0.000163,2.7857e+08,786.32,0,1.3516e+08,256.69,551.74,1
1904,5.13,12125,1,12125,1,0.00016587,4.7016e-10,0,0.00076527,-3.0355e-05,-224.76,217.33,0,2.4378e+08,144.61,12124,13103,1,13103,1,0.0016259,4.4786e-09,0,0.0016259,0.00024284,3.7377e+08,1478.7,0,5.2636e+08,1274.7,13102,12124,1,12124,1,0.00016586,8.6729e-10,0,0.00075701,-3.0461e-05,5.6177e+07,283.72,0,2.5281e+08,60.622,12123,11097,1,11097,1,-0.0012941,-6.9913e-09,0,3.6342e-06,-0.00030322,-5.2636e+08,-1618,0,4.6198e+05,-1831.3,11096,11648,1,11648,1,-0.00059116,-1.0928e-09,0,0.00037852,-0.00017186,-2.4043e+08,-244.17,0,1.349e+08,13.23,11647,12600,1,12600,1,0.00092289,2.1486e-09,0,0.0011355,0.00011112,2.5346e+08,702.25,0,3.4239e+08,217,12599,551.74,0,551.74,0,0.00087381,2.1045e-09,0,0.0004529,0.00016336,2.7885e+08,585.84,0,1.3527e+08,255.93,551.74,1
1904,5.14,12125,1,12125,1,0.00016703,1.0925e-10,0,0.00076708,-3.0568e-05,-62.418,95.171,0,2.4405e+08,124.18,12124,13103,1,13103,1,0.0016303,4.6238e-09,0,0.0016303,0.00024323,3.737e+08,1583,0,5.272e+08,1098.6,13102,12124,1,12124,1,0.00016703,1.8756e-10,0,0.00075869,-3.0676e-05,5.6519e+07,56.53,0,2.5309e+08,34.658,12123,11097,1,11097,1,-0.0012962,-6.0177e-09,0,4.4399e-06,-0.00030403,-5.272e+08,-1368.5,0,7.5957e+05,-842.63,11096,11648,1,11648,1,-0.00059167,-1.0033e-09,0,0.00037936,-0.00017238,-2.4064e+08,-244.23,0,1.3508e+08,-13.919,11647,12600,1,12600,1,0.00092573,1.3012e-09,0,0.0011381,0.00011121,2.5373e+08,426.43,0,3.4263e+08,205.35,12599,551.74,0,551.74,0,0.00087575,1.5831e-09,0,0.00045401,0.00016372,2.7914e+08,447.2,0,1.3539e+08,246.09,551.74,1
1904,5.15,12125,1,12125,1,0.00016821,-9.948e-10,0,0.00076889,-3.0783e-05,-59.584,-233.52,0,2.443e+08,180.14,12124,13103,1,13103,1,0.0016347,4.1492e-09,0,0.0016347,0.00024362,3.7361e+08,1420.5,0,5.2803e+08,1107.2,13102,12124,1,12124,1,0.0001682,-4.811e-10,0,0.00076037,-3.0892e-05,5.6864e+07,-138.62,0,2.5336e+08,101.49,12123,11097,1,11097,1,-0.0012982,-7.8193e-09,0,5.2552e-06,-0.00030484,-5.2803e+08,-1820.2,0,1.0603e+06,-455.59,11096,11648,1,11648,1,-0.00059217,-2.2264e-09,0,0.00038019,-0.00017291,-2.4084e+08,-551.38,0,1.3525e+08,35.418,11647,12600,1,12600,1,0.00092858,2.9211e-10,0,0.0011406,0.00011131,2.54e+08,91.517,0,3.4286e+08,249.8,12599,551.74,0,551.74,0,0.00087768,2.0098e-09,0,0.00045511,0.00016408,2.7942e+08,514.19,0,1.355e+08,225.76,551.74,1
1904,5.16,12125,1,12125,1,0.00016938,9.0683e-10,0,0.0007707,-3.0998e-05,267.56,280.42,0,2.4456e+08,162.17,12124,13103,1,13103,1,0.0016391,5.2562e-09,0,0.0016391,0.00024401,3.7352e+08,1738,0,5.2887e+08,1218.7,13102,12124,1,12124,1,0.00016938,1.051e-09,0,0.00076205,-3.1109e-05,5.7209e+07,293.53,0,2.5363e+08,59.928,12123,11097,1,11097,1,-0.0013003,-5.3884e-09,0,6.0778e-06,-0.00030566,-5.2887e+08,-1201.1,0,1.3635e+06,-1255.4,11096,11648,1,11648,1,-0.00059267,-6.21e-11,0,0.00038103,-0.00017344,-2.4104e+08,-17.377,0,1.3543e+08,-8.5091,11647,12600,1,12600,1,0.00093143,1.8934e-09,0,0.0011431,0.00011141,2.5426e+08,567.79,0,3.4308e+08,256.96,12599,551.74,0,551.74,0,0.00087962,1.53e-09,0,0.00045622,0.00016444,2.797e+08,437.1,0,1.3561e+08,264.35,551.74,1
1904,5.17,12125,1,12125,1,0.00017057,1.0377e-09,0,0.00077251,-3.1214e-05,-251.69,324.31,0,2.4481e+08,249.51,12124,13103,1,13103,1,0.0016435,1.025e-08,0,0.0016435,0.00024439,3.7343e+08,2450.7,0,5.297e+08,1335.9,13102,12124,1,12124,1,0.00017056,1.1197e-09,0,0.00076372,-3.1326e-05,5.7555e+07,345.84,0,2.539e+08,142.01,12123,11097,1,11097,1,-0.0013023,-8.1122e-09,0,6.8997e-06,-0.00030647,-5.297e+08,-1851.2,0,1.6659e+06,-40.029,11096,11648,1,11648,1,-0.00059316,-2.3802e-10,0,0.00038186,-0.00017396,-2.4124e+08,-54.175,0,1.356e+08,52.346,11647,12600,1,12600,1,0.00093429,2.085e-09,0,0.0011456,0.0001115,2.5452e+08,651.71,0,3.4329e+08,362.85,12599,551.74,0,551.74,0,0.00088154,2.4812e-09,0,0.00045733,0.00016479,2.7997e+08,634.01,0,1.3572e+08,274.7,551.74,1
1904,5.18,12125,1,12125,1,0.00017176,1.6417e-10,0,0.00077433,-3.1431e-05,-39.008,82.13,0,2.4507e+08,211.63,12124,13103,1,13103,1,0.0016479,6.0135e-09,0,0.0016479,0.00024478,3.7334e+08,1767.3,0,5.3054e+08,1299.3,13102,12124,1,12124,1,0.00017175,3.5993e-10,0,0.00076541,-3.1545e-05,5.7903e+07,109.89,0,2.5417e+08,100.83,12123,11097,1,11097,1,-0.0013044,-7.4396e-09,0,7.7281e-06,-0.00030729,-5.3054e+08,-1684.3,0,1.9704e+06,-70.629,11096,11648,1,11648,1,-0.00059366,-6.5748e-10,0,0.00038271,-0.00017449,-2.4144e+08,-157.08,0,1.3577e+08,35.031,11647,12600,1,12600,1,0.00093717,9.8309e-10,0,0.0011481,0.00011159,2.5479e+08,319.81,0,3.4349e+08,300.94,12599,551.74,0,551.74,0,0.00088349,1.809e-09,0,0.00045845,0.00016516,2.8025e+08,475.17,0,1.3583e+08,263.56,551.74,1
1904,5.19,12125,1,12125,1,0.00017296,2.8215e-11,0,0.00077615,-3.1651e-05,300.17,37.751,0,2.4532e+08,203.78,12124,13103,1,13103,1,0.0016524,6.8972e-09,0,0.0016524,0.00024516,3.7323e+08,1758.4,0,5.3137e+08,1343.2,13102,12124,1,12124,1,0.00017295,1.7013e-10,0,0.00076709,-3.1766e-05,5.8254e+07,52.556,0,2.5444e+08,91.558,12123,11097,1,11097,1,-0.0013064,-7.7984e-09,0,8.5703e-06,-0.00030811,-5.3137e+08,-1762.4,0,2.2798e+06,-105.29,11096,11648,1,11648,1,-0.00059414,-8.071e-10,0,0.00038355,-0.00017503,-2.4164e+08,-198,0,1.3595e+08,28.362,11647,12600,1,12600,1,0.00094005,7.3867e-10,0,0.0011506,0.00011169,2.5505e+08,225.32,0,3.4345e+08,289.42,12599,551.74,0,551.74,0,0.00088544,1.9119e-09,0,0.00045957,0.00016552,2.8053e+08,490.61,0,1.3594e+08,270.63,551.74,1
1904,5.2,12125,1,12125,1,0.00017417,9.8099e-10,0,0.00077797,-3.1871e-05,-200.37,306.05,0,2.4557e+08,228.06,12124,13103,1,13103,1,0.0016568,7.8174e-09,0,0.0016568,0.00024555,3.7312e+08,1938.3,0,5.322e+08,1498,13102,12124,1,12124,1,0.00017416,1.1605e-09,0,0.00076877,-3.1988e-05,5.8604e+07,332.51,0,2.547e+08,108.52,12123,11097,1,11097,1,-0.0013085,-7.7861e-09,0,9.4149e-06,-0.00030894,-5.322e+08,-1748.2,0,2.5896e+06,-58.542,11096,11648,1,11648,1,-0.00059462,-7.9318e-11,0,0.00038439,-0.00017556,-2.4183e+08,-19.586,0,1.3612e+08,25.283,11647,12600,1,12600,1,0.00094294,1.971e-09,0,0.0011532,0.00011178,2.5531e+08,623.23,0,3.4341e+08,326.04,12599,551.74,0,551.74,0,0.00088738,2.0268e-09,0,0.00046069,0.00016588,2.808e+08,533.46,0,1.3605e+08,291.47,551.74,1
1904,5.21,12125,1,12125,1,0.00017538,-1.116e-09,0,0.00077978,-3.2092e-05,-170.81,-276.28,0,2.4582e+08,305.29,12124,13103,1,13103,1,0.0016613,8.9942e-09,0,0.0016613,0.00024593,3.7301e+08,2143.5,0,5.3302e+08,1538.7,13102,12124,1,12124,1,0.00017537,-4.0335e-10,0,0.00077045,-3.221e-05,5.8956e+07,-103.95,0,2.5496e+08,242.96,12123,11097,1,11097,1,-0.0013105,-1.2808e-08,0,1.0265e-05,-0.00030975,-5.3302e+08,-3031.6,0,2.901e+06,-124.74,11096,11648,1,11648,1,-0.00059508,-2.8773e-09,0,0.00038523,-0.00017609,-2.4202e+08,-778.92,0,1.3629e+08,83.131,11647,12600,1,12600,1,0.00094583,7.4285e-10,0,0.0011557,0.00011187,2.5556e+08,223.38,0,3.4336e+08,407.36,12599,551.74,0,551.74,0,0.00088931,3.4662e-09,0,0.0004618,0.00016624,2.8106e+08,878.11,0,1.3615e+08,293.4,551.74,1
1904,5.22,12125,1,12125,1,0.00017659,-2.0152e-09,0,0.0007816,-3.2313e-05,337.1,-558.34,0,2.4606e+08,298.74,12124,13103,1,13103,1,0.0016657,9.2544e-09,0,0.0016657,0.00024631,3.729e+08,2208.3,0,5.3385e+08,1614.4,13102,12124,1,12124,1,0.00017659,-9.5627e-10,0,0.00077214,-3.2434e-05,5.9308e+07,-250.81,0,2.5522e+08,232.31,12123,11097,1,11097,1,-0.0013126,-1.3979e-08,0,1.1123e-05,-0.00031058,-5.3385e+08,-3434.6,0,3.2152e+06,-208.77,11096,11648,1,11648,1,-0.00059555,-4.7614e-09,0,0.00038607,-0.00017662,-2.4221e+08,-1354.2,0,1.3645e+08,66.241,11647,12600,1,12600,1,0.00094872,6.2141e-10,0,0.0011582,0.00011196,2.5581e+08,174.03,0,3.4331e+08,408.42,12599,551.74,0,551.74,0,0.00089125,4.1846e-09,0,0.00046293,0.0001666,2.8133e+08,1110.4,0,1.3626e+08,312.87,551.74,1
1904,5.23,12125,1,12125,1,0.00017781,-1.9675e-09,0,0.00078344,-3.2537e-05,-161.65,-583.93,0,2.4631e+08,243.83,12124,13103,1,13103,1,0.0016702,4.5113e-09,0,0.0016702,0.0002467,3.7277e+08,1006.3,0,5.3468e+08,1744,13102,12124,1,12124,1,0.00017781,-1.8917e-09,0,0.00077382,-3.2659e-05,5.9662e+07,-550.56,0,2.5548e+08,91.896,12123,11097,1,11097,1,-0.0013146,-1.0291e-08,0,1.1982e-05,-0.00031142,-5.3468e+08,-2528.2,0,3.5292e+06,-118.87,11096,11648,1,11648,1,-0.00059602,-3.4204e-09,0,0.00038692,-0.00017716,-2.424e+08,-1035.7,0,1.3662e+08,6.6968,11647,12600,1,12600,1,0.00095164,-1.6863e-10,0,0.0011607,0.00011205,2.5606e+08,-40.589,0,3.4325e+08,359.58,12599,551.74,0,551.74,0,0.0008932,2.3885e-09,0,0.00046406,0.00016696,2.816e+08,660.71,0,1.3637e+08,354.21,551.74,1
1904,5.24,12125,1,12125,1,0.00017905,2.7942e-09,0,0.00078529,-3.2764e-05,268.64,736.44,0,2.4656e+08,163.18,12124,13103,1,13103,1,0.0016747,1.0468e-08,0,0.0016747,0.00024708,3.7266e+08,2454.5,0,5.3552e+08,1778.2,13102,12124,1,12124,1,0.00017905,2.5027e-09,0,0.00077554,-3.2888e-05,6.0021e+07,747.16,0,2.5574e+08,44.179,12123,11097,1,11097,1,-0.0013166,-4.5421e-09,0,1.2854e-05,-0.00031225,-5.3552e+08,-1011.5,0,3.8472e+06,-200.76,11096,11648,1,11648,1,-0.00059649,6.6606e-10,0,0.00038777,-0.00017771,-2.4259e+08,204.4,0,1.3679e+08,-42.608,11647,12600,1,12600,1,0.00095459,5.065e-09,0,0.0011633,0.00011214,2.5632e+08,1285.1,0,3.432e+08,233.3,12599,551.74,0,551.74,0,0.00089518,2.701e-09,0,0.00046521,0.00016733,2.8187e+08,680.96,0,1.3648e+08,332.22,551.74,1
1904,5.25,12125,1,12125,1,0.00018031,1.3617e-09,0,0.00078715,-3.2992e-05,-144.61,389.97,0,2.4681e+08,226.07,12124,13103,1,13103,1,0.0016793,9.9142e-09,0,0.0016793,0.00024747,3.7252e+08,2332.4,0,5.3635e+08,1674.4,13102,12124,1,12124,1,0.0001803,1.3514e-09,0,0.00077725,-3.3118e-05,6.0382e+07,392.22,0,2.56e+08,100.01,12123,11097,1,11097,1,-0.0013187,-7.2627e-09,0,1.3744e-05,-0.00031309,-5.3635e+08,-1626,0,4.1718e+06,-89.787,11096,11648,1,11648,1,-0.00059695,9.503e-11,0,0.00038862,-0.00017825,-2.4278e+08,27.867,0,1.3696e+08,13.417,11647,12600,1,12600,1,0.00095755,2.3813e-09,0,0.0011659,0.00011223,2.5657e+08,693.51,0,3.4314e+08,326.77,12599,551.74,0,551.74,0,0.00089715,2.2097e-09,0,0.00046636,0.00016769,2.8214e+08,565.61,0,1.3658e+08,316.3,551.74,1
1904,5.26,12125,1,12125,1,0.00018156,-1.7358e-10,0,0.00078899,-3.3222e-05,-155.35,-17.83,0,2.4705e+08,295.2,12124,13103,1,13103,1,0.0016838,9.1471e-09,0,0.0016838,0.00024785,3.7238e+08,2145.8,0,5.3717e+08,1624.3,13102,12124,1,12124,1,0.00018156,1.5559e-10,0,0.00077895,-3.3349e-05,6.0744e+07,43.993,0,2.5625e+08,174.65,12123,11097,1,11097,1,-0.0013207,-1.0472e-08,0,1.4634e-05,-0.00031393,-5.3717e+08,-2412.2,0,4.4955e+06,-93.874,11096,11648,1,11648,1,-0.00059739,-1.2098e-09,0,0.00038948,-0.0001788,-2.4296e+08,-326.14,0,1.3712e+08,55.947,11647,12600,1,12600,1,0.00096051,1.0396e-09,0,0.0011684,0.00011231,2.5681e+08,320.63,0,3.4306e+08,424.6,12599,551.74,0,551.74,0,0.00089912,2.7043e-09,0,0.00046751,0.00016806,2.824e+08,677.22,0,1.3669e+08,334.81,551.74,1
1904,5.27,12125,1,12125,1,0.00018283,-1.2032e-09,0,0.00079085,-3.3452e-05,122.73,-320.02,0,2.4729e+08,282.89,12124,13103,1,13103,1,0.0016884,6.8057e-09,0,0.0016884,0.00024823,3.7223e+08,1624.1,0,5.38e+08,1768.8,13102,12124,1,12124,1,0.00018282,-8.1732e-10,0,0.00078066,-3.3582e-05,6.1108e+07,-237.99,0,2.565e+08,152.24,12123,11097,1,11097,1,-0.0013227,-1.07e-08,0,1.5534e-05,-0.00031477,-5.38e+08,-2469.5,0,4.8225e+06,-112.8,11096,11648,1,11648,1,-0.00059783,-2.3407e-09,0,0.00039033,-0.00017935,-2.4314e+08,-669.38,0,1.3729e+08,52.38,11647,12600,1,12600,1,0.00096349,6.6638e-11,0,0.001171,0.0001124,2.5706e+08,16.247,0,3.4299e+08,391.19,12599,551.74,0,551.74,0,0.00090109,2.4336e-09,0,0.00046866,0.00016842,2.8266e+08,620.55,0,1.368e+08,344.86,551.74,1
1904,5.28,12125,1,12125,1,0.0001841,-2.8361e-09,0,0.0007927,-3.3684e-05,-503.92,-798.56,0,2.4752e+08,350.41,12124,13103,1,13103,1,0.001693,6.8965e-09,0,0.001693,0.00024862,3.7209e+08,1525.7,0,5.3883e+08,1895,13102,12124,1,12124,1,0.00018409,-3.0553e-09,0,0.00078236,-3.3815e-05,6.1471e+07,-881.69,0,2.5675e+08,230.92,12123,11097,1,11097,1,-0.0013248,-1.2272e-08,0,1.6436e-05,-0.00031562,-5.3883e+08,-2865.1,0,5.1498e+06,-108.96,11096,11648,1,11648,1,-0.00059827,-4.8235e-09,0,0.00039119,-0.0001799,-2.4332e+08,-1409.4,0,1.3745e+08,99.14,11647,12600,1,12600,1,0.00096646,-6.603e-10,0,0.0011736,0.00011248,2.573e+08,-167.84,0,3.4291e+08,468.56,12599,551.74,0,551.74,0,0.00090306,3.133e-09,0,0.00046982,0.00016879,2.8292e+08,840.75,0,1.369e+08,372.14,551.74,1
1904,5.29,12125,1,12125,1,0.00018538,-4.4524e-09,0,0.00079456,-3.3917e-05,-215.61,-1297.9,0,2.4776e+08,352.69,12124,13103,1,13103,1,0.0016976,5.4736e-09,0,0.0016976,0.000249,3.7194e+08,1248.7,0,5.3966e+08,1975.2,13102,12124,1,12124,1,0.00018537,-4.9641e-09,0,0.00078407,-3.4049e-05,6.1836e+07,-1397.4,0,2.57e+08,195.35,12123,11097,1,11097,1,-0.0013268,-1.3862e-08,0,1.7343e-05,-0.00031647,-5.3966e+08,-3412.5,0,5.4782e+06,-159.27,11096,11648,1,11648,1,-0.0005987,-7.4829e-09,0,0.00039204,-0.00018045,-2.4349e+08,-2228.7,0,1.3761e+08,68.122,11647,12600,1,12600,1,0.00096945,-1.074e-09,0,0.0011761,0.00011256,2.5754e+08,-260.02,0,3.4282e+08,511.41,12599,551.74,0,551.74,0,0.00090504,4.134e-09,0,0.00047098,0.00016916,2.8317e+08,1175.1,0,1.3701e+08,405.34,551.74,1
1904,5.3,12125,1,12125,1,0.00018667,1.0398e-09,0,0.00079643,-3.4153e-05,-149.99,182.28,0,2.48e+08,316.77,12124,13103,1,13103,1,0.0017022,9.9689e-09,0,0.0017022,0.00024937,3.7178e+08,2185.4,0,5.4047e+08,2499.2,13102,12124,1,12124,1,0.00018666,4.7881e-10,0,0.00078578,-3.4287e-05,6.2205e+07,129.82,0,2.5724e+08,114.13,12123,11097,1,11097,1,-0.0013288,-7.9544e-09,0,1.8256e-05,-0.00031732,-5.4047e+08,-2532.3,0,5.8079e+06,-79.616,11096,11648,1,11648,1,-0.00059914,-1.1371e-09,0,0.00039291,-0.000181,-2.4367e+08,-379.81,0,1.3778e+08,19.487,11647,12600,1,12600,1,0.00097246,3.5589e-09,0,0.0011787,0.00011265,2.5778e+08,861.94,0,3.4274e+08,431.18,12599,551.74,0,551.74,0,0.00090703,3.1669e-09,0,0.00047214,0.00016953,2.8343e+08,819.39,0,1.3711e+08,461.88,551.74,1
1904,5.31,12125,1,12125,1,0.00018796,-1.6207e-09,0,0.00079831,-3.439e-05,-42.337,-519.04,0,2.4823e+08,366.8,12124,13103,1,13103,1,0.0017068,1.0313e-08,0,0.0017068,0.00024976,3.7161e+08,2317.8,0,5.413e+08,2213.2,13102,12124,1,12124,1,0.00018795,-2.1485e-09,0,0.00078751,-3.4525e-05,6.2575e+07,-608.95,0,2.5749e+08,237.48,12123,11097,1,11097,1,-0.0013309,-1.0253e-08,0,1.9184e-05,-0.00031817,-5.413e+08,-2813.1,0,6.1427e+06,-102.92,11096,11648,1,11648,1,-0.00059956,-4.2891e-09,0,0.00039377,-0.00018156,-2.4384e+08,-1310.9,0,1.3794e+08,77.497,11647,12600,1,12600,1,0.00097548,7.7618e-10,0,0.0011813,0.00011273,2.5801e+08,179.31,0,3.4265e+08,488.73,12599,551.74,0,551.74,0,0.00090902,3.4473e-09,0,0.00047332,0.0001699,2.8369e+08,953.27,0,1.3722e+08,423.8,551.74,1
1904,5.32,12125,1,12125,1,0.00018927,6.1191e-10,0,0.00080016,-3.4627e-05,-136,80.475,0,2.4845e+08,399.86,12124,13103,1,13103,1,0.0017114,1.5982e-08,0,0.0017114,0.00025013,3.7143e+08,3493.7,0,5.421e+08,2431.1,13102,12124,1,12124,1,0.00018925,-1.6288e-10,0,0.00078921,-3.4765e-05,6.2945e+07,-51.921,0,2.5772e+08,271.11,12123,11097,1,11097,1,-0.0013328,-1.1451e-08,0,2.012e-05,-0.00031902,-5.421e+08,-2600.3,0,6.4794e+06,-88.436,11096,11648,1,11648,1,-0.00059996,-1.9994e-09,0,0.00039462,-0.00018211,-2.4401e+08,-628.56,0,1.3809e+08,88.969,11647,12600,1,12600,1,0.00097848,2.5705e-09,0,0.0011838,0.00011281,2.5824e+08,657.97,0,3.4254e+08,534.6,12599,551.74,0,551.74,0,0.00091098,4.1257e-09,0,0.00047448,0.00017026,2.8393e+08,1018.3,0,1.3732e+08,447.77,551.74,1
1904,5.33,12125,1,12125,1,0.00019058,-1.1837e-09,0,0.00080205,-3.4866e-05,-202.53,-404.45,0,2.4869e+08,401.54,12124,13103,1,13103,1,0.0017161,1.1769e-08,0,0.0017161,0.00025052,3.7126e+08,2567.2,0,5.4294e+08,2393.5,13102,12124,1,12124,1,0.00019056,-1.7005e-09,0,0.00079095,-3.5006e-05,6.3317e+07,-477.72,0,2.5797e+08,222.44,12123,11097,1,11097,1,-0.0013349,-1.1603e-08,0,2.106e-05,-0.00031988,-5.4294e+08,-3043,0,6.8167e+06,-81.401,11096,11648,1,11648,1,-0.00060039,-3.7267e-09,0,0.00039549,-0.00018267,-2.4418e+08,-1163.3,0,1.3825e+08,81.86,11647,12600,1,12600,1,0.00098153,1.0193e-09,0,0.0011865,0.00011289,2.5848e+08,206.49,0,3.4245e+08,568.84,12599,551.74,0,551.74,0,0.00091299,3.6036e-09,0,0.00047567,0.00017063,2.8419e+08,961.02,0,1.3742e+08,457.39,551.74,1
1904,5.34,12125,1,12125,1,0.0001919,-1.2103e-09,0,0.00080392,-3.5108e-05,-69.02,-418.91,0,2.4891e+08,432.66,12124,13103,1,13103,1,0.0017207,1.6906e-08,0,0.0017207,0.00025089,3.7107e+08,3728.1,0,5.4375e+08,2460.8,13102,12124,1,12124,1,0.00019189,-1.6388e-09,0,0.00079267,-3.5249e-05,6.3692e+07,-498.61,0,2.5821e+08,323.82,12123,11097,1,11097,1,-0.0013369,-1.4552e-08,0,2.2014e-05,-0.00032074,-5.4375e+08,-3354.1,0,7.1583e+06,-131.05,11096,11648,1,11648,1,-0.00060079,-4.5659e-09,0,0.00039635,-0.00018323,-2.4434e+08,-1368.4,0,1.3841e+08,95.945,11647,12600,1,12600,1,0.00098457,1.446e-09,0,0.001189,0.00011297,2.5871e+08,333.49,0,3.4233e+08,594.5,12599,551.74,0,551.74,0,0.00091497,5.0207e-09,0,0.00047685,0.000171,2.8443e+08,1279.2,0,1.3752e+08,459.14,551.74,1
1904,5.35,12125,1,12125,1,0.00019323,-1.2899e-09,0,0.00080582,-3.5351e-05,41.652,-445.91,0,2.4915e+08,371.13,12124,13103,1,13103,1,0.0017254,9.8916e-09,0,0.0017254,0.00025127,3.7089e+08,2133.9,0,5.4457e+08,2742.7,13102,12124,1,12124,1,0.00019322,-1.6608e-09,0,0.00079441,-3.5494e-05,6.4069e+07,-466.71,0,2.5845e+08,171.15,12123,11097,1,11097,1,-0.0013389,-1.2136e-08,0,2.297e-05,-0.0003216,-5.4457e+08,-3266,0,7.4998e+06,-82.961,11096,11648,1,11648,1,-0.0006012,-3.7197e-09,0,0.00039722,-0.0001838,-2.4451e+08,-1190.3,0,1.3857e+08,50.53,11647,12600,1,12600,1,0.00098765,1.0497e-09,0,0.0011916,0.00011305,2.5894e+08,234.42,0,3.4222e+08,497.28,12599,551.74,0,551.74,0,0.00091698,3.3466e-09,0,0.00047805,0.00017137,2.8469e+08,913.41,0,1.3763e+08,501.3,551.74,1
1904,5.36,12125,1,12125,1,0.00019457,2.6928e-09,0,0.00080772,-3.5596e-05,222.06,659.53,0,2.4937e+08,382.27,12124,13103,1,13103,1,0.0017301,1.4968e-08,0,0.0017301,0.00025165,3.7071e+08,3307.8,0,5.4538e+08,2997.8,13102,12124,1,12124,1,0.00019456,2.7869e-09,0,0.00079616,-3.5742e-05,6.4449e+07,783.51,0,2.5868e+08,160.46,12123,11097,1,11097,1,-0.0013409,-1.069e-08,0,2.3943e-05,-0.00032246,-5.4538e+08,-2354.7,0,7.8461e+06,-202.14,11096,11648,1,11648,1,-0.0006016,-3.3825e-10,0,0.00039808,-0.00018437,-2.4467e+08,-99.561,0,1.3873e+08,26.408,11647,12600,1,12600,1,0.00099073,5.9324e-09,0,0.0011942,0.00011312,2.5916e+08,1484.3,0,3.4211e+08,537.45,12599,551.74,0,551.74,0,0.00091899,4.1123e-09,0,0.00047924,0.00017175,2.8493e+08,1045.9,0,1.3773e+08,558.5,551.74,1
1904,5.37,12125,1,12125,1,0.00019592,3.0201e-09,0,0.00080962,-3.5842e-05,111.77,818.43,0,2.4959e+08,443.21,12124,13103,1,13103,1,0.0017348,1.8553e-08,0,0.0017348,0.00025203,3.7051e+08,4177.7,0,5.462e+08,2912.7,13102,12124,1,12124,1,0.00019592,3.2589e-09,0,0.00079791,-3.5989e-05,6.4829e+07,914.81,0,2.5891e+08,255.72,12123,11097,1,11097,1,-0.0013429,-1.3609e-08,0,2.4925e-05,-0.00032333,-5.462e+08,-2942.9,0,8.1951e+06,-130.76,11096,11648,1,11648,1,-0.00060199,-5.2612e-11,0,0.00039895,-0.00018494,-2.4483e+08,-17.032,0,1.3888e+08,79.451,11647,12600,1,12600,1,0.00099383,5.934e-09,0,0.0011969,0.0001132,2.5939e+08,1633.6,0,3.4198e+08,597.66,12599,551.74,0,551.74,0,0.000921,4.4337e-09,0,0.00048045,0.00017212,2.8518e+08,1114.3,0,1.3783e+08,532.14,551.74,1
1904,5.38,12125,1,12125,1,0.00019729,8.2575e-10,0,0.00081152,-3.6091e-05,-13.492,268,0,2.4981e+08,443.02,12124,13103,1,13103,1,0.0017395,1.2134e-08,0,0.0017395,0.00025241,3.703e+08,3671.7,0,5.4702e+08,2737,13102,12124,1,12124,1,0.00019728,1.0492e-09,0,0.00079964,-3.6239e-05,6.5212e+07,294.45,0,2.5914e+08,248.42,12123,11097,1,11097,1,-0.0013449,-1.4788e-08,0,2.591e-05,-0.00032421,-5.4702e+08,-3189.1,0,8.5435e+06,-73.33,11096,11648,1,11648,1,-0.00060238,-4.6198e-10,0,0.00039983,-0.00018551,-2.4499e+08,-111.42,0,1.3903e+08,83.977,11647,12600,1,12600,1,0.00099693,2.2872e-09,0,0.0011995,0.00011327,2.5961e+08,674.58,0,3.4186e+08,600.88,12599,551.74,0,551.74,0,0.00092302,3.5102e-09,0,0.00048166,0.00017249,2.8542e+08,918.62,0,1.3793e+08,518.82,551.74,1
1904,5.39,12125,1,12125,1,0.00019866,-3.3803e-09,0,0.00081343,-3.6341e-05,-135.4,-898.1,0,2.5003e+08,522.67,12124,13103,1,13103,1,0.0017442,1.2968e-08,0,0.0017442,0.00025278,3.7009e+08,3425.7,0,5.4783e+08,2759,13102,12124,1,12124,1,0.00019865,-3.1746e-09,0,0.00080139,-3.6491e-05,6.5596e+07,-954.5,0,2.5937e+08,408.31,12123,11097,1,11097,1,-0.0013469,-1.9459e-08,0,2.6904e-05,-0.00032508,-5.4783e+08,-4310.4,0,8.8943e+06,-123.28,11096,11648,1,11648,1,-0.00060275,-6.946e-09,0,0.0004007,-0.00018608,-2.4514e+08,-1936.3,0,1.3919e+08,137.31,11647,12600,1,12600,1,0.001,1.3194e-10,0,0.0012021,0.00011335,2.5983e+08,30.507,0,3.4172e+08,686.66,12599,551.74,0,551.74,0,0.00092503,5.3329e-09,0,0.00048287,0.00017287,2.8566e+08,1359.7,0,1.3803e+08,522.87,551.74,1
1904,5.4,12125,1,12125,1,0.00020003,4.0167e-10,0,0.00081534,-3.6592e-05,460.93,83.012,0,2.5025e+08,464.21,12124,13103,1,13103,1,0.001749,1.307e-08,0,0.001749,0.00025316,3.6987e+08,3608.1,0,5.4864e+08,3095,13102,12124,1,12124,1,0.00020002,4.7052e-10,0,0.00080314,-3.6745e-05,6.5982e+07,134.87,0,2.596e+08,225.04,12123,11097,1,11097,1,-0.0013489,-1.5833e-08,0,2.7902e-05,-0.00032596,-5.4864e+08,-3436.8,0,9.2454e+06,-144.85,11096,11648,1,11648,1,-0.00060313,-1.1111e-09,0,0.00040158,-0.00018666,-2.4529e+08,-337.28,0,1.3934e+08,52.381,11647,12600,1,12600,1,0.0010032,2.3492e-09,0,0.0012047,0.00011342,2.6004e+08,585.47,0,3.4159e+08,661.7,12599,551.74,0,551.74,0,0.00092706,3.8651e-09,0,0.00048408,0.00017324,2.859e+08,1016.6,0,1.3814e+08,595.04,551.74,1
1904,5.41,12125,1,12125,1,0.00020142,9.8048e-11,0,0.00081726,-3.6845e-05,118.27,-3.3908,0,2.5047e+08,532.71,12124,13103,1,13103,1,0.0017538,1.5182e-08,0,0.0017538,0.00025353,3.6965e+08,3706.9,0,5.4946e+08,3180.9,13102,12124,1,12124,1,0.00020141,1.0406e-10,0,0.00080489,-3.7e-05,6.6369e+07,29.704,0,2.5982e+08,316.44,12123,11097,1,11097,1,-0.0013509,-1.7411e-08,0,2.8915e-05,-0.00032684,-5.4946e+08,-3760.7,0,9.6002e+06,-64.112,11096,11648,1,11648,1,-0.00060349,-1.6594e-09,0,0.00040246,-0.00018724,-2.4544e+08,-483.96,0,1.3949e+08,107.31,11647,12600,1,12600,1,0.0010063,2.0954e-09,0,0.0012074,0.00011349,2.6026e+08,524.07,0,3.4144e+08,730.11,12599,551.74,0,551.74,0,0.00092908,4.3534e-09,0,0.00048531,0.00017362,2.8614e+08,1128.8,0,1.3824e+08,603.02,551.74,1
1904,5.42,12125,1,12125,1,0.00020281,-1.0931e-09,0,0.00081917,-3.7099e-05,-203.35,-317.3,0,2.5067e+08,625.91,12124,13103,1,13103,1,0.0017585,2.1322e-08,0,0.0017585,0.00025391,3.6942e+08,4611.7,0,5.5026e+08,3206.3,13102,12124,1,12124,1,0.0002028,-1.5486e-09,0,0.00080664,-3.7255e-05,6.6757e+07,-449.47,0,2.6004e+08,466.78,12123,11097,1,11097,1,-0.0013529,-2.1159e-08,0,2.9933e-05,-0.00032772,-5.5026e+08,-4653.2,0,9.9559e+06,-114.56,11096,11648,1,11648,1,-0.00060385,-4.1595e-09,0,0.00040333,-0.00018782,-2.4558e+08,-1216,0,1.3964e+08,164.03,11647,12600,1,12600,1,0.0010095,1.5135e-09,0,0.00121,0.00011356,2.6047e+08,401.63,0,3.4129e+08,854.49,12599,551.74,0,551.74,0,0.0009311,5.8976e-09,0,0.00048653,0.00017399,2.8637e+08,1435.3,0,1.3833e+08,622.21,551.74,1
1904,5.43,12125,1,12125,1,0.00020421,-9.2951e-10,0,0.00082108,-3.7355e-05,-12.515,-293.95,0,2.5089e+08,587.63,12124,13103,1,13103,1,0.0017633,1.8132e-08,0,0.0017633,0.00025428,3.6919e+08,3889.3,0,5.5107e+08,3470.5,13102,12124,1,12124,1,0.0002042,-1.1789e-09,0,0.00080839,-3.7513e-05,6.7146e+07,-364.86,0,2.6026e+08,348.4,12123,11097,1,11097,1,-0.0013549,-2.1252e-08,0,3.0953e-05,-0.00032861,-5.5107e+08,-4685.5,0,1.0311e+07,-123.98,11096,11648,1,11648,1,-0.0006042,-3.0795e-09,0,0.00040421,-0.0001884,-2.4573e+08,-971.89,0,1.3978e+08,120.33,11647,12600,1,12600,1,0.0010126,1.4014e-09,0,0.0012126,0.00011363,2.6068e+08,355.65,0,3.4114e+08,819.6,12599,551.74,0,551.74,0,0.00093312,5.235e-09,0,0.00048775,0.00017437,2.866e+08,1279.9,0,1.3843e+08,664.76,551.74,1
1904,5.44,12125,1,12125,1,0.00020563,4.772e-10,0,0.00082304,-3.7613e-05,-145.68,78.12,0,2.511e+08,557.13,12124,13103,1,13103,1,0.0017682,1.5458e-08,0,0.0017682,0.00025466,3.6897e+08,3846.9,0,5.5189e+08,3597.2,13102,12124,1,12124,1,0.00020561,3.486e-10,0,0.00081018,-3.7773e-05,6.754e+07,99.789,0,2.6049e+08,281.05,12123,11097,1,11097,1,-0.0013569,-1.7789e-08,0,3.1986e-05,-0.0003295,-5.5189e+08,-3979.5,0,1.0669e+07,-47.668,11096,11648,1,11648,1,-0.00060457,-1.3956e-09,0,0.0004051,-0.00018899,-2.4588e+08,-420.98,0,1.3993e+08,100.02,11647,12600,1,12600,1,0.0010158,2.964e-09,0,0.0012153,0.0001137,2.6089e+08,725.18,0,3.4099e+08,762.77,12599,551.74,0,551.74,0,0.00093519,4.4506e-09,0,0.00048901,0.00017475,2.8684e+08,1149.3,0,1.3854e+08,673.83,551.74,1
1904,5.45,12125,1,12125,1,0.00020705,-2.3028e-09,0,0.00082495,-3.7874e-05,-219.77,-659.09,0,2.513e+08,683.06,12124,13103,1,13103,1,0.001773,2.2407e-08,0,0.001773,0.00025503,3.6871e+08,4814,0,5.5269e+08,3637.1,13102,12124,1,12124,1,0.00020704,-2.4597e-09,0,0.00081193,-3.8035e-05,6.7934e+07,-737.09,0,2.6069e+08,496.06,12123,11097,1,11097,1,-0.0013589,-2.6851e-08,0,3.3038e-05,-0.00033039,-5.5269e+08,-6000.5,0,1.1032e+07,-196.76,11096,11648,1,11648,1,-0.0006049,-5.4814e-09,0,0.00040597,-0.00018957,-2.4601e+08,-1631.3,0,1.4007e+08,168.39,11647,12600,1,12600,1,0.001019,1.0745e-09,0,0.0012179,0.00011376,2.6109e+08,248.35,0,3.4082e+08,956.92,12599,551.74,0,551.74,0,0.0009372,6.8428e-09,0,0.00049024,0.00017512,2.8706e+08,1651.7,0,1.3863e+08,697.01,551.74,1
1904,5.46,12125,1,12125,1,0.00020848,-2.6883e-09,0,0.00082691,-3.8135e-05,154.82,-799.19,0,2.5152e+08,601.67,12124,13103,1,13103,1,0.0017779,1.8076e-08,0,0.0017779,0.00025541,3.6847e+08,3821.8,0,5.5351e+08,3827.8,13102,12124,1,12124,1,0.00020847,-3.0275e-09,0,0.00081371,-3.8297e-05,6.833e+07,-896.86,0,2.6091e+08,344.2,12123,11097,1,11097,1,-0.0013609,-2.3521e-08,0,3.408e-05,-0.00033129,-5.5351e+08,-5210.5,0,1.1391e+07,-144.39,11096,11648,1,11648,1,-0.00060525,-6.1347e-09,0,0.00040687,-0.00019016,-2.4615e+08,-1835.3,0,1.4022e+08,100.75,11647,12600,1,12600,1,0.0010222,9.2791e-10,0,0.0012206,0.00011383,2.613e+08,215.7,0,3.4066e+08,839.07,12599,551.74,0,551.74,0,0.00093926,5.7944e-09,0,0.00049149,0.00017551,2.873e+08,1466.5,0,1.3873e+08,729.49,551.74,1
1904,5.47,12125,1,12125,1,0.00020994,2.5196e-09,0,0.00082887,-3.8401e-05,122.79,572.61,0,2.5172e+08,602.29,12124,13103,1,13103,1,0.0017828,2.4564e-08,0,0.0017828,0.00025578,3.6823e+08,5364.3,0,5.5431e+08,4162.3,13102,12124,1,12124,1,0.00020992,1.5053e-09,0,0.0008155,-3.8565e-05,6.8732e+07,454.91,0,2.6113e+08,308.49,12123,11097,1,11097,1,-0.0013629,-1.7784e-08,0,3.5147e-05,-0.00033219,-5.5431e+08,-3783.5,0,1.1757e+07,-129.35,11096,11648,1,11648,1,-0.00060559,-1.0633e-09,0,0.00040776,-0.00019076,-2.4629e+08,-337.49,0,1.4037e+08,110.1,11647,12600,1,12600,1,0.0010254,6.1378e-09,0,0.0012233,0.0001139,2.6151e+08,1534,0,3.4049e+08,808.38,12599,551.74,0,551.74,0,0.00094133,5.8124e-09,0,0.00049276,0.00017589,2.8753e+08,1406.6,0,1.3883e+08,747.69,551.74,1
1904,5.48,12125,1,12125,1,0.0002114,8.8441e-10,0,0.00083084,-3.8668e-05,-22.39,204.11,0,2.5193e+08,647.42,12124,13103,1,13103,1,0.0017877,2.0007e-08,0,0.0017877,0.00025616,3.6795e+08,4610,0,5.5513e+08,4224.4,13102,12124,1,12124,1,0.00021139,6.0938e-10,0,0.0008173,-3.8835e-05,6.9136e+07,179.47,0,2.6134e+08,333.46,12123,11097,1,11097,1,-0.0013649,-2.1564e-08,0,3.6236e-05,-0.0003331,-5.5513e+08,-4584,0,1.2129e+07,-55.937,11096,11648,1,11648,1,-0.00060592,-1.2526e-09,0,0.00040866,-0.00019136,-2.4643e+08,-382.39,0,1.4051e+08,117.77,11647,12600,1,12600,1,0.0010287,3.528e-09,0,0.001226,0.00011396,2.6171e+08,854.74,0,3.4031e+08,869.63,12599,551.74,0,551.74,0,0.0009434,5.2134e-09,0,0.00049403,0.00017628,2.8776e+08,1301.3,0,1.3893e+08,784.1,551.74,1
1904,5.49,12125,1,12125,1,0.00021288,7.1492e-10,0,0.00083281,-3.8938e-05,-205.36,186.43,0,2.5213e+08,693.69,12124,13103,1,13103,1,0.0017926,2.1277e-08,0,0.0017926,0.00025654,3.6768e+08,5244.3,0,5.5594e+08,4221.7,13102,12124,1,12124,1,0.00021287,5.3709e-10,0,0.0008191,-3.9105e-05,6.9541e+07,151.77,0,2.6155e+08,376.31,12123,11097,1,11097,1,-0.0013668,-2.214e-08,0,3.7327e-05,-0.00033401,-5.5594e+08,-4648.6,0,1.25e+07,-64.97,11096,11648,1,11648,1,-0.00060624,-1.275e-09,0,0.00040956,-0.00019197,-2.4656e+08,-372.99,0,1.4065e+08,130.34,11647,12600,1,12600,1,0.001032,2.7915e-09,0,0.0012287,0.00011402,2.619e+08,713.07,0,3.4013e+08,955.22,12599,551.74,0,551.74,0,0.00094548,5.4349e-09,0,0.00049531,0.00017666,2.8798e+08,1381.9,0,1.3903e+08,806.51,551.74,1
1904,5.5,12125,1,12125,1,0.00021436,-3.2204e-10,0,0.00083479,-3.9209e-05,87.92,-73.194,0,2.5233e+08,715.67,12124,13103,1,13103,1,0.0017976,1.958e-08,0,0.0017976,0.00025691,3.6741e+08,5571.8,0,5.5675e+08,4418.4,13102,12124,1,12124,1,0.00021435,-2.6273e-10,0,0.0008209,-3.9378e-05,6.9949e+07,-73.821,0,2.6175e+08,398.08,12123,11097,1,11097,1,-0.0013688,-2.593e-08,0,3.8424e-05,-0.00033493,-5.5675e+08,-5464.5,0,1.2872e+07,-56.96,11096,11648,1,11648,1,-0.00060656,-2.2786e-09,0,0.00041046,-0.00019257,-2.4668e+08,-636.2,0,1.4079e+08,126.99,11647,12600,1,12600,1,0.0010353,2.0374e-09,0,0.0012314,0.00011409,2.621e+08,523.88,0,3.3994e+08,975.38,12599,551.74,0,551.74,0,0.00094756,5.931e-09,0,0.0004966,0.00017705,2.882e+08,1523.1,0,1.3913e+08,843.92,551.74,1
1904,5.51,12125,1,12125,1,0.00021586,1.5749e-09,0,0.00083677,-3.9483e-05,315.07,438.07,0,2.5253e+08,789.66,12124,13103,1,13103,1,0.0018026,2.5147e-08,0,0.0018026,0.00025728,3.6713e+08,6089.4,0,5.5755e+08,4658.8,13102,12124,1,12124,1,0.00021584,2.0781e-09,0,0.00082269,-3.9652e-05,7.0357e+07,550.14,0,2.6196e+08,478.61,12123,11097,1,11097,1,-0.0013708,-2.6009e-08,0,3.9531e-05,-0.00033585,-5.5755e+08,-5431.2,0,1.3246e+07,-91.491,11096,11648,1,11648,1,-0.00060686,-1.4529e-09,0,0.00041136,-0.00019318,-2.4681e+08,-406.29,0,1.4093e+08,160.4,11647,12600,1,12600,1,0.0010386,4.5667e-09,0,0.0012341,0.00011415,2.6229e+08,1210.9,0,3.3974e+08,1079,12599,551.74,0,551.74,0,0.00094964,6.6151e-09,0,0.00049788,0.00017743,2.8842e+08,1692.6,0,1.3923e+08,884.99,551.74,1
1904,5.52,12125,1,12125,1,0.00021736,-1.7602e-09,0,0.00083874,-3.9756e-05,-398.39,-423.9,0,2.5272e+08,899.41,12124,13103,1,13103,1,0.0018075,2.5682e-08,0,0.0018075,0.00025765,3.6684e+08,5646.8,0,5.5835e+08,4639.1,13102,12124,1,12124,1,0.00021734,-1.3644e-09,0,0.00082449,-3.9928e-05,7.0766e+07,-408.32,0,2.6216e+08,633.37,12123,11097,1,11097,1,-0.0013728,-3.3995e-08,0,4.0639e-05,-0.00033676,-5.5835e+08,-7247.1,0,1.3619e+07,-108.07,11096,11648,1,11648,1,-0.00060716,-5.0633e-09,0,0.00041226,-0.00019379,-2.4693e+08,-1353,0,1.4107e+08,223.65,11647,12600,1,12600,1,0.0010419,1.8851e-09,0,0.0012368,0.00011421,2.6248e+08,505.15,0,3.3953e+08,1234.6,12599,551.74,0,551.74,0,0.00095171,8.0664e-09,0,0.00049917,0.00017782,2.8864e+08,1936.3,0,1.3933e+08,910.08,551.74,1
1904,5.53,12125,1,12125,1,0.00021887,2.1525e-10,0,0.00084073,-4.0032e-05,-172.52,71.777,0,2.5291e+08,860.41,12124,13103,1,13103,1,0.0018125,2.5204e-08,0,0.0018125,0.00025803,3.6655e+08,6215.2,0,5.5916e+08,4969.3,13102,12124,1,12124,1,0.00021885,4.6445e-10,0,0.00082631,-4.0206e-05,7.1178e+07,128.5,0,2.6236e+08,541.31,12123,11097,1,11097,1,-0.0013748,-3.0042e-08,0,4.1764e-05,-0.00033769,-5.5916e+08,-6303.6,0,1.3996e+07,-36.768,11096,11648,1,11648,1,-0.00060746,-2.2208e-09,0,0.00041317,-0.0001944,-2.4705e+08,-604.15,0,1.4121e+08,183.65,11647,12600,1,12600,1,0.0010452,3.0246e-09,0,0.0012395,0.00011427,2.6267e+08,799.5,0,3.3933e+08,1162.7,12599,551.74,0,551.74,0,0.00095381,7.1316e-09,0,0.00050047,0.0001782,2.8886e+08,1784,0,1.3943e+08,947.91,551.74,1
1904,5.54,12125,1,12125,1,0.0002204,-1.4021e-09,0,0.00084274,-4.0312e-05,168.41,-365.16,0,2.5311e+08,895.39,12124,13103,1,13103,1,0.0018176,2.7329e-08,0,0.0018176,0.0002584,3.6626e+08,6369.3,0,5.5997e+08,5000.1,13102,12124,1,12124,1,0.00022038,-1.7505e-09,0,0.00082813,-4.0487e-05,7.1594e+07,-476.17,0,2.6256e+08,555.31,12123,11097,1,11097,1,-0.0013768,-3.2198e-08,0,4.2902e-05,-0.00033862,-5.5997e+08,-6745.8,0,1.4376e+07,-84.293,11096,11648,1,11648,1,-0.00060776,-4.4927e-09,0,0.00041408,-0.00019501,-2.4717e+08,-1223.8,0,1.4134e+08,181.56,11647,12600,1,12600,1,0.0010485,1.761e-09,0,0.0012422,0.00011432,2.6286e+08,468.21,0,3.3913e+08,1237.6,12599,551.74,0,551.74,0,0.00095591,7.7638e-09,0,0.00050178,0.00017859,2.8907e+08,1930.9,0,1.3952e+08,986.29,551.74,1
1904,5.55,12125,1,12125,1,0.00022194,-2.2069e-09,0,0.00084473,-4.0593e-05,264.26,-601.3,0,2.5329e+08,942.59,12124,13103,1,13103,1,0.0018226,3.234e-08,0,0.0018226,0.00025877,3.6595e+08,6749,0,5.6076e+08,5311.1,13102,12124,1,12124,1,0.00022192,-2.9053e-09,0,0.00082993,-4.0769e-05,7.201e+07,-840.18,0,2.6275e+08,586.68,12123,11097,1,11097,1,-0.0013787,-3.5694e-08,0,4.405e-05,-0.00033955,-5.6076e+08,-7537.2,0,1.4758e+07,-181.28,11096,11648,1,11648,1,-0.00060803,-6.5721e-09,0,0.00041498,-0.00019563,-2.4728e+08,-1867.8,0,1.4148e+08,182.77,11647,12600,1,12600,1,0.0010519,1.8152e-09,0,0.0012449,0.00011438,2.6304e+08,436.64,0,3.389e+08,1326.2,12599,551.74,0,551.74,0,0.000958,9.1592e-09,0,0.00050309,0.00017898,2.8928e+08,2217.8,0,1.3962e+08,1051.3,551.74,1
1904,5.56,12125,1,12125,1,0.00022348,-8.8685e-10,0,0.00084675,-4.0875e-05,-147.48,-280.35,0,2.5348e+08,970.43,12124,13103,1,13103,1,0.0018277,3.0941e-08,0,0.0018277,0.00025915,3.6564e+08,7029.3,0,5.6157e+08,5692.6,13102,12124,1,12124,1,0.00022346,-1.5879e-09,0,0.00083176,-4.1053e-05,7.2427e+07,-451.71,0,2.6294e+08,586.9,12123,11097,1,11097,1,-0.0013807,-3.4041e-08,0,4.5197e-05,-0.00034049,-5.6157e+08,-7102.6,0,1.5139e+07,-82.675,11096,11648,1,11648,1,-0.00060832,-4.3284e-09,0,0.0004159,-0.00019625,-2.474e+08,-1303.9,0,1.4161e+08,193.93,11647,12600,1,12600,1,0.0010553,2.5823e-09,0,0.0012477,0.00011443,2.6322e+08,632.5,0,3.3869e+08,1330,12599,551.74,0,551.74,0,0.00096012,8.4907e-09,0,0.00050442,0.00017937,2.895e+08,2099.1,0,1.3972e+08,1087.9,551.74,1
1904,5.57,12125,1,12125,1,0.00022504,-3.9061e-09,0,0.00084877,-4.1161e-05,-78.968,-1109.5,0,2.5367e+08,997.69,12124,13103,1,13103,1,0.0018328,2.7053e-08,0,0.0018328,0.00025952,3.6533e+08,7270.4,0,5.6239e+08,6011.3,13102,12124,1,12124,1,0.00022502,-4.7691e-09,0,0.00083359,-4.134e-05,7.2848e+07,-1321.7,0,2.6314e+08,507.01,12123,11097,1,11097,1,-0.0013827,-3.7451e-08,0,4.6358e-05,-0.00034143,-5.6239e+08,-7844.5,0,1.5523e+07,-147.15,11096,11648,1,11648,1,-0.00060859,-9.2236e-09,0,0.00041682,-0.00019687,-2.4751e+08,-2730.1,0,1.4174e+08,140.55,11647,12600,1,12600,1,0.0010586,1.2816e-09,0,0.0012504,0.00011449,2.634e+08,272.2,0,3.3846e+08,1434.1,12599,551.74,0,551.74,0,0.00096224,9.2205e-09,0,0.00050575,0.00017977,2.8971e+08,2388.1,0,1.3982e+08,1194.4,551.74,1
1904,5.58,12125,1,12125,1,0.00022662,1.229e-09,0,0.00085081,-4.1449e-05,240.23,203.8,0,2.5386e+08,1155.2,12124,13103,1,13103,1,0.001838,3.7743e-08,0,0.001838,0.00025989,3.6501e+08,8015.7,0,5.6318e+08,6494.3,13102,12124,1,12124,1,0.00022659,6.4544e-10,0,0.00083543,-4.1629e-05,7.3273e+07,164.48,0,2.6333e+08,716.93,12123,11097,1,11097,1,-0.0013847,-3.6383e-08,0,4.7533e-05,-0.00034238,-5.6318e+08,-7690.4,0,1.591e+07,-62.677,11096,11648,1,11648,1,-0.00060886,-3.2976e-09,0,0.00041775,-0.00019751,-2.4762e+08,-964.26,0,1.4187e+08,243.62,11647,12600,1,12600,1,0.0010621,6.0583e-09,0,0.0012532,0.00011454,2.6358e+08,1466,0,3.3823e+08,1618.3,12599,551.74,0,551.74,0,0.00096437,1.0014e-08,0,0.00050709,0.00018016,2.8992e+08,2498.6,0,1.3992e+08,1247.4,551.74,1
1904,5.59,12125,1,12125,1,0.0002282,-1.199e-09,0,0.00085281,-4.1738e-05,368.85,-399.75,0,2.5403e+08,1246.8,12124,13103,1,13103,1,0.0018431,4.2402e-08,0,0.0018431,0.00026026,3.6466e+08,8755.5,0,5.6397e+08,6762.6,13102,12124,1,12124,1,0.00022817,-1.9895e-09,0,0.00083725,-4.1919e-05,7.3698e+07,-574.99,0,2.6351e+08,854.5,12123,11097,1,11097,1,-0.0013866,-4.5665e-08,0,4.8723e-05,-0.00034332,-5.6397e+08,-9582,0,1.6301e+07,-212.4,11096,11648,1,11648,1,-0.0006091,-6.175e-09,0,0.00041866,-0.00019813,-2.4772e+08,-1778.5,0,1.4214e+08,267.25,11647,12600,1,12600,1,0.0010655,3.9065e-09,0,0.0012559,0.00011459,2.6375e+08,966.77,0,3.3798e+08,1758.6,12599,551.74,0,551.74,0,0.00096647,1.1867e-08,0,0.00050842,0.00018055,2.9012e+08,2818.5,0,1.4001e+08,1318.4,551.74,1
1904,5.6,12125,1,12125,1,0.0002298,-6.8669e-10,0,0.00085487,-4.2029e-05,-15.426,-302.34,0,2.5422e+08,1185,12124,13103,1,13103,1,0.0018483,3.6754e-08,0,0.0018483,0.00026064,3.6434e+08,8456.1,0,5.6479e+08,6931,13102,12124,1,12124,1,0.00022977,-1.4429e-09,0,0.00083912,-4.2212e-05,7.4125e+07,-396.28,0,2.637e+08,712.64,12123,11097,1,11097,1,-0.0013886,-3.9525e-08,0,4.9916e-05,-0.00034428,-5.6479e+08,-8343.2,0,1.6692e+07,-43.772,11096,11648,1,11648,1,-0.00060938,-5.4094e-09,0,0.0004196,-0.00019877,-2.4783e+08,-1636.4,0,1.4257e+08,238.83,11647,12600,1,12600,1,0.0010689,3.8968e-09,0,0.0012588,0.00011464,2.6393e+08,924.89,0,3.3775e+08,1636.4,12599,551.74,0,551.74,0,0.00096863,1.0233e-08,0,0.00050979,0.00018095,2.9033e+08,2596.8,0,1.4011e+08,1321.5,551.74,1
1904,5.61,12125,1,12125,1,0.00023142,-3.5877e-10,0,0.00085693,-4.2325e-05,-133.51,-201.65,0,2.544e+08,1277.2,12124,13103,1,13103,1,0.0018535,3.8734e-08,0,0.0018535,0.00026101,3.64e+08,9161.2,0,5.6559e+08,7280.6,13102,12124,1,12124,1,0.00023139,-9.5027e-10,0,0.00084098,-4.2509e-05,7.4558e+07,-262.16,0,2.6388e+08,837.28,12123,11097,1,11097,1,-0.0013906,-4.3038e-08,0,5.1134e-05,-0.00034524,-5.6559e+08,-9027.4,0,1.709e+07,-58.432,11096,11648,1,11648,1,-0.00060962,-5.2962e-09,0,0.00042053,-0.00019941,-2.4793e+08,-1538.2,0,1.4301e+08,274.87,11647,12600,1,12600,1,0.0010724,4.6823e-09,0,0.0012616,0.00011469,2.641e+08,1125,0,3.375e+08,1739.2,12599,551.74,0,551.74,0,0.00097078,1.1066e-08,0,0.00051116,0.00018135,2.9053e+08,2794,0,1.4021e+08,1377.9,551.74,1
1904,5.62,12125,1,12125,1,0.00023304,-6.2772e-10,0,0.00085896,-4.2621e-05,255.21,-256.14,0,2.5457e+08,1413.1,12124,13103,1,13103,1,0.0018587,4.722e-08,0,0.0018587,0.00026137,3.6363e+08,9706.2,0,5.6638e+08,7642.4,13102,12124,1,12124,1,0.000233,-1.7216e-09,0,0.00084282,-4.2807e-05,7.4991e+07,-466.62,0,2.6405e+08,1013.8,12123,11097,1,11097,1,-0.0013925,-5.0059e-08,0,5.2353e-05,-0.0003462,-5.6638e+08,-10319,0,1.7487e+07,-193.65,11096,11648,1,11648,1,-0.00060984,-6.1991e-09,0,0.00042145,-0.00020005,-2.4802e+08,-1834.8,0,1.4344e+08,317.27,11647,12600,1,12600,1,0.0010759,5.0976e-09,0,0.0012643,0.00011474,2.6425e+08,1287.2,0,3.3723e+08,1965,12599,551.74,0,551.74,0,0.0009729,1.3174e-08,0,0.00051251,0.00018174,2.9073e+08,3157.6,0,1.403e+08,1458.3,551.74,1
1904,5.63,12125,1,12125,1,0.00023467,3.527e-09,0,0.00086104,-4.2919e-05,142.36,824.88,0,2.5475e+08,1467.8,12124,13103,1,13103,1,0.0018639,4.9233e-08,0,0.0018639,0.00026175,3.633e+08,10737,0,5.6719e+08,8014.3,13102,12124,1,12124,1,0.00023464,3.5464e-09,0,0.00084471,-4.3107e-05,7.5425e+07,912.96,0,2.6423e+08,977.75,12123,11097,1,11097,1,-0.0013945,-4.4497e-08,0,5.3583e-05,-0.00034717,-5.6719e+08,-8954.7,0,1.7886e+07,-91.164,11096,11648,1,11648,1,-0.00061009,-2.5448e-09,0,0.00042239,-0.00020069,-2.4812e+08,-733.17,0,1.4387e+08,325.92,11647,12600,1,12600,1,0.0010794,9.8631e-09,0,0.0012671,0.00011479,2.6442e+08,2424.4,0,3.3698e+08,2063.3,12599,551.74,0,551.74,0,0.00097508,1.2588e-08,0,0.0005139,0.00018215,2.9093e+08,3141.9,0,1.404e+08,1531.3,551.74,1
1904,5.64,12125,1,12125,1,0.00023633,1.6278e-09,0,0.00086311,-4.3221e-05,170.09,413.91,0,2.5492e+08,1584.9,12124,13103,1,13103,1,0.0018692,5.393e-08,0,0.0018692,0.00026212,3.6293e+08,11063,0,5.6798e+08,8020.5,13102,12124,1,12124,1,0.0002363,1.0408e-09,0,0.00084659,-4.3409e-05,7.5865e+07,326.68,0,2.6441e+08,1178,12123,11097,1,11097,1,-0.0013965,-5.3784e-08,0,5.4842e-05,-0.00034813,-5.6798e+08,-10912,0,1.8294e+07,-129.98,11096,11648,1,11648,1,-0.00061031,-4.122e-09,0,0.00042332,-0.00020134,-2.4821e+08,-1162.1,0,1.4431e+08,408.38,11647,12600,1,12600,1,0.0010829,7.667e-09,0,0.0012699,0.00011483,2.6458e+08,1975.1,0,3.3671e+08,2204.5,12599,551.74,0,551.74,0,0.00097724,1.4218e-08,0,0.00051529,0.00018255,2.9113e+08,3374.9,0,1.405e+08,1551.7,551.74,1
1904,5.65,12125,1,12125,1,0.00023799,3.4531e-09,0,0.00086519,-4.3525e-05,-147.88,960.6,0,2.5509e+08,1671.7,12124,13103,1,13103,1,0.0018744,5.691e-08,0,0.0018744,0.00026249,3.6256e+08,11758,0,5.6878e+08,8464.2,13102,12124,1,12124,1,0.00023795,3.3783e-09,0,0.00084846,-4.3713e-05,7.6303e+07,956.97,0,2.6458e+08,1194.7,12123,11097,1,11097,1,-0.0013984,-5.6729e-08,0,5.6095e-05,-0.00034911,-5.6878e+08,-11457,0,1.8698e+07,-175.43,11096,11648,1,11648,1,-0.00061054,-2.5311e-09,0,0.00042426,-0.00020199,-2.483e+08,-720.47,0,1.4474e+08,403.84,11647,12600,1,12600,1,0.0010865,9.8986e-09,0,0.0012728,0.00011488,2.6474e+08,2609.2,0,3.3643e+08,2312.6,12599,551.74,0,551.74,0,0.00097941,1.4995e-08,0,0.00051668,0.00018295,2.9132e+08,3518.8,0,1.4059e+08,1680.1,551.74,1
1904,5.66,12125,1,12125,1,0.00023967,1.9618e-09,0,0.0008673,-4.3833e-05,339,638.74,0,2.5526e+08,1628.2,12124,13103,1,13103,1,0.0018798,4.8881e-08,0,0.0018798,0.00026287,3.6218e+08,12726,0,5.696e+08,8769.2,13102,12124,1,12124,1,0.00023963,2.7654e-09,0,0.00085036,-4.4021e-05,7.6747e+07,737.64,0,2.6475e+08,1105.4,12123,11097,1,11097,1,-0.0014004,-5.8492e-08,0,5.7357e-05,-0.0003501,-5.696e+08,-11721,0,1.9105e+07,-124.79,11096,11648,1,11648,1,-0.00061076,-3.3022e-09,0,0.00042522,-0.00020265,-2.4839e+08,-867.2,0,1.4519e+08,366.63,11647,12600,1,12600,1,0.00109,8.0194e-09,0,0.0012756,0.00011492,2.649e+08,2178.3,0,3.3616e+08,2254.2,12599,551.74,0,551.74,0,0.00098161,1.4073e-08,0,0.0005181,0.00018336,2.9152e+08,3480.5,0,1.4069e+08,1699.3,551.74,1
1904,5.67,12125,1,12125,1,0.00024137,-1.0618e-09,0,0.0008694,-4.4143e-05,173.68,-113.64,0,2.5542e+08,1732.9,12124,13103,1,13103,1,0.0018852,5.1495e-08,0,0.0018852,0.00026323,3.618e+08,12998,0,5.7039e+08,8953.5,13102,12124,1,12124,1,0.00024132,-2.4842e-10,0,0.00085225,-4.4332e-05,7.7194e+07,-59.713,0,2.6492e+08,1199.2,12123,11097,1,11097,1,-0.0014024,-6.6866e-08,0,5.8641e-05,-0.00035109,-5.7039e+08,-13483,0,1.9517e+07,-158.8,11096,11648,1,11648,1,-0.00061096,-6.8795e-09,0,0.00042617,-0.00020331,-2.4847e+08,-1731.1,0,1.4563e+08,395.56,11647,12600,1,12600,1,0.0010936,5.4666e-09,0,0.0012785,0.00011496,2.6505e+08,1525.7,0,3.3587e+08,2426.4,12599,551.74,0,551.74,0,0.0009838,1.5801e-08,0,0.00051951,0.00018376,2.9171e+08,3789.2,0,1.4079e+08,1784,551.74,1
1904,5.68,12125,1,12125,1,0.00024308,3.595e-12,0,0.00087153,-4.4455e-05,-175.79,141.34,0,2.5559e+08,1829.9,12124,13103,1,13103,1,0.0018906,5.3007e-08,0,0.0018906,0.00026361,3.6142e+08,13993,0,5.7121e+08,9590.5,13102,12124,1,12124,1,0.00024303,6.3043e-10,0,0.00085417,-4.4645e-05,7.7644e+07,173.31,0,2.6509e+08,1289.6,12123,11097,1,11097,1,-0.0014044,-6.7255e-08,0,5.9937e-05,-0.00035209,-5.7121e+08,-13446,0,1.9932e+07,-91.188,11096,11648,1,11648,1,-0.00061117,-5.9437e-09,0,0.00042713,-0.00020398,-2.4856e+08,-1526.4,0,1.4607e+08,422.63,11647,12600,1,12600,1,0.0010973,6.57e-09,0,0.0012813,0.00011501,2.6521e+08,1799.3,0,3.3558e+08,2515.8,12599,551.74,0,551.74,0,0.00098602,1.5955e-08,0,0.00052095,0.00018417,2.9191e+08,3908.2,0,1.4089e+08,1879.1,551.74,1
1904,5.69,12125,1,12125,1,0.00024481,-6.5031e-10,0,0.00087366,-4.4772e-05,347.87,-28.361,0,2.5575e+08,1929.1,12124,13103,1,13103,1,0.0018961,5.6677e-08,0,0.0018961,0.00026398,3.6102e+08,15099,0,5.7201e+08,9995.6,13102,12124,1,12124,1,0.00024477,-4.0526e-10,0,0.00085617,-4.4963e-05,7.8098e+07,-115.53,0,2.6525e+08,1382.6,12123,11097,1,11097,1,-0.0014064,-7.1305e-08,0,6.0944e-05,-0.00035309,-5.7201e+08,-14147,0,2.0353e+07,-166.01,11096,11648,1,11648,1,-0.00061136,-7.3206e-09,0,0.00042803,-0.00020465,-2.4863e+08,-1889.7,0,1.4652e+08,449.88,11647,12600,1,12600,1,0.0011009,6.6069e-09,0,0.0012842,0.00011504,2.6536e+08,1766.2,0,3.3528e+08,2665.6,12599,551.74,0,551.74,0,0.00098824,1.7186e-08,0,0.0005224,0.00018459,2.921e+08,4216.5,0,1.4099e+08,1965.3,551.74,1
1904,5.7,12125,1,12125,1,0.00024656,-1.5808e-09,0,0.00087581,-4.5091e-05,-14.674,-290.45,0,2.5592e+08,2146.1,12124,13103,1,13103,1,0.0019015,6.0907e-08,0,0.0019015,0.00026436,3.6061e+08,15053,0,5.7281e+08,10681,13102,12124,1,12124,1,0.00024651,-5.3677e-10,0,0.0008581,-4.5283e-05,7.8555e+07,-135.27,0,2.6541e+08,1594.4,12123,11097,1,11097,1,-0.0014084,-8.176e-08,0,5.9886e-05,-0.0003541,-5.7281e+08,-16371,0,2.0776e+07,-126.23,11096,11648,1,11648,1,-0.00061155,-8.8219e-09,0,0.000429,-0.00020533,-2.4871e+08,-2312.9,0,1.4696e+08,539.17,11647,12600,1,12600,1,0.0011046,6.8441e-09,0,0.0012871,0.00011508,2.655e+08,1838.2,0,3.3497e+08,2994.2,12599,551.74,0,551.74,0,0.00099047,1.9377e-08,0,0.00052385,0.000185,2.9229e+08,4644,0,1.4108e+08,2105.9,551.74,1
1904,5.71,12125,1,12125,1,0.00024832,2.7049e-10,0,0.00087796,-4.5414e-05,487.3,174.58,0,2.5607e+08,2222.4,12124,13103,1,13103,1,0.0019071,6.7795e-08,0,0.0019071,0.00026473,3.6019e+08,17078,0,5.7362e+08,11185,13102,12124,1,12124,1,0.00024827,8.5521e-10,0,0.00086004,-4.5606e-05,7.9014e+07,211.56,0,2.6557e+08,1603.2,12123,11097,1,11097,1,-0.0014103,-7.8904e-08,0,5.8814e-05,-0.00035512,-5.7362e+08,-15533,0,2.1203e+07,-105.06,11096,11648,1,11648,1,-0.00061172,-7.7155e-09,0,0.00042996,-0.00020601,-2.4878e+08,-1965.2,0,1.4741e+08,513.83,11647,12600,1,12600,1,0.0011083,8.7022e-09,0,0.00129,0.00011512,2.6565e+08,2280.7,0,3.3466e+08,3118.5,12599,551.74,0,551.74,0,0.00099271,1.9758e-08,0,0.00052532,0.00018541,2.9247e+08,4891.1,0,1.4118e+08,2231.8,551.74,1
1904,5.72,12125,1,12125,1,0.0002501,-7.6899e-10,0,0.00088013,-4.5738e-05,-147.6,-76.535,0,2.5623e+08,2434.6,12124,13103,1,13103,1,0.0019126,7.2086e-08,0,0.0019126,0.00026511,3.5978e+08,17635,0,5.7443e+08,11812,13102,12124,1,12124,1,0.00025004,-2.1559e-11,0,0.000862,-4.5931e-05,7.9476e+07,-4.7923,0,2.6573e+08,1825,12123,11097,1,11097,1,-0.0014123,-8.8865e-08,0,5.7733e-05,-0.00035615,-5.7443e+08,-17590,0,2.1631e+07,-52.682,11096,11648,1,11648,1,-0.0006119,-9.5674e-09,0,0.00043094,-0.00020669,-2.4885e+08,-2447.1,0,1.4786e+08,614.82,11647,12600,1,12600,1,0.001112,8.8608e-09,0,0.0012929,0.00011516,2.6579e+08,2349.9,0,3.3434e+08,3417.1,12599,551.74,0,551.74,0,0.00099497,2.1935e-08,0,0.0005268,0.00018583,2.9266e+08,5326.1,0,1.4128e+08,2352.6,551.74,1
1904,5.73,12125,1,12125,1,0.0002519,3.8084e-11,0,0.0008823,-4.6066e-05,130.66,122.82,0,2.5639e+08,2596.3,12124,13103,1,13103,1,0.0019182,8.0091e-08,0,0.0019182,0.00026548,3.5935e+08,18739,0,5.7524e+08,12374,13102,12124,1,12124,1,0.00025184,6.7199e-10,0,0.00086395,-4.626e-05,7.9942e+07,175.69,0,2.6588e+08,1982.9,12123,11097,1,11097,1,-0.0014143,-9.3635e-08,0,5.6634e-05,-0.00035717,-5.7524e+08,-18466,0,2.2064e+07,-72.307,11096,11648,1,11648,1,-0.00061206,-9.6035e-09,0,0.00043191,-0.00020738,-2.4892e+08,-2482,0,1.4832e+08,652.01,11647,12600,1,12600,1,0.0011158,1.0487e-08,0,0.0012958,0.00011519,2.6593e+08,2786.5,0,3.3401e+08,3656.8,12599,551.74,0,551.74,0,0.00099723,2.3724e-08,0,0.00052828,0.00018625,2.9284e+08,5738.1,0,1.4138e+08,2487,551.74,1
1904,5.74,12125,1,12125,1,0.00025371,-1.3057e-09,0,0.00088448,-4.6396e-05,-429.46,-248.38,0,2.5654e+08,2786.5,12124,13103,1,13103,1,0.0019238,8.918e-08,0,0.0019238,0.00026585,3.5891e+08,19449,0,5.7604e+08,12780,13102,12124,1,12124,1,0.00025364,-1.2076e-09,0,0.00086592,-4.6591e-05,8.041e+07,-317.91,0,2.6603e+08,2133.9,12123,11097,1,11097,1,-0.0014163,-9.9244e-08,0,5.5525e-05,-0.00035821,-5.7604e+08,-19554,0,2.25e+07,-69.924,11096,11648,1,11648,1,-0.00061222,-1.2163e-08,0,0.0004329,-0.00020808,-2.4898e+08,-3140.8,0,1.4877e+08,715.06,11647,12600,1,12600,1,0.0011196,9.6076e-09,0,0.0012988,0.00011522,2.6606e+08,2572.3,0,3.3368e+08,3964.7,12599,551.74,0,551.74,0,0.00099949,2.5635e-08,0,0.00052978,0.00018667,2.9302e+08,6140.3,0,1.4148e+08,2627,551.74,1
1904,5.75,12125,1,12125,1,0.00025553,1.8239e-09,0,0.00088667,-4.673e-05,315.39,568.7,0,2.5669e+08,2889,12124,13103,1,13103,1,0.0019294,9.4993e-08,0,0.0019294,0.00026622,3.5846e+08,21151,0,5.7684e+08,13511,13102,12124,1,12124,1,0.00025547,2.2154e-09,0,0.00086789,-4.6925e-05,8.088e+07,582.21,0,2.6618e+08,2272,12123,11097,1,11097,1,-0.0014183,-1.0085e-07,0,5.4401e-05,-0.00035924,-5.7684e+08,-19632,0,2.2133e+07,-97.736,11096,11648,1,11648,1,-0.00061236,-9.3243e-09,0,0.00043387,-0.00020877,-2.4904e+08,-2423.1,0,1.4922e+08,747.44,11647,12600,1,12600,1,0.0011233,1.3543e-08,0,0.0013017,0.00011525,2.6619e+08,3591.2,0,3.3334e+08,4075,12599,551.74,0,551.74,0,0.0010018,2.6583e-08,0,0.00053129,0.00018709,2.932e+08,6394.7,0,1.4157e+08,2707.4,551.74,1
1904,5.76,12125,1,12125,1,0.00025737,1.144e-09,0,0.00088888,-4.7066e-05,-249.49,456.26,0,2.5684e+08,3044.4,12124,13103,1,13103,1,0.0019351,9.5131e-08,0,0.0019351,0.0002666,3.5801e+08,22397,0,5.7766e+08,14132,13102,12124,1,12124,1,0.0002573,2.2617e-09,0,0.00086987,-4.7261e-05,8.1353e+07,607.48,0,2.6633e+08,2390.2,12123,11097,1,11097,1,-0.0014203,-1.0833e-07,0,5.3268e-05,-0.00036029,-5.7766e+08,-21010,0,2.1678e+07,-68.375,11096,11648,1,11648,1,-0.0006125,-1.0446e-08,0,0.00043486,-0.00020947,-2.491e+08,-2662.1,0,1.4968e+08,802.23,11647,12600,1,12600,1,0.0011272,1.3569e-08,0,0.0013047,0.00011528,2.6633e+08,3623.2,0,3.3299e+08,4286.8,12599,551.74,0,551.74,0,0.0010041,2.7759e-08,0,0.00053281,0.00018751,2.9338e+08,6707.1,0,1.4167e+08,2837.3,551.74,1
1904,5.77,12125,1,12125,1,0.00025924,7.305e-10,0,0.0008911,-4.7406e-05,76.007,407.63,0,2.5698e+08,3184.9,12124,13103,1,13103,1,0.0019408,9.9767e-08,0,0.0019408,0.00026697,3.5756e+08,23886,0,5.7846e+08,14715,13102,12124,1,12124,1,0.00025915,2.0025e-09,0,0.00087187,-4.7601e-05,8.1829e+07,516.72,0,2.6645e+08,2498.6,12123,11097,1,11097,1,-0.0014222,-1.1579e-07,0,5.2115e-05,-0.00036135,-5.7846e+08,-22386,0,2.1216e+07,-39.206,11096,11648,1,11648,1,-0.00061263,-1.1538e-08,0,0.00043584,-0.00021018,-2.4915e+08,-2911.4,0,1.5014e+08,812.8,11647,12600,1,12600,1,0.001131,1.4145e-08,0,0.0013076,0.00011531,2.6645e+08,3740.4,0,3.3264e+08,4495.6,12599,551.74,0,551.74,0,0.0010064,2.9483e-08,0,0.00053435,0.00018794,2.9355e+08,7105.8,0,1.4177e+08,2986.7,551.74,1
1904,5.78,12125,1,12125,1,0.00026111,2.2584e-09,0,0.00089332,-4.7748e-05,-477.43,840.57,0,2.5712e+08,3416.6,12124,13103,1,13103,1,0.0019466,1.0849e-07,0,0.0019466,0.00026735,3.5709e+08,25060,0,5.7927e+08,15365,13102,12124,1,12124,1,0.00026102,3.7352e-09,0,0.00087386,-4.7943e-05,8.2307e+07,969.52,0,2.6657e+08,2773.8,12123,11097,1,11097,1,-0.0014242,-1.2423e-07,0,5.0954e-05,-0.0003624,-5.7927e+08,-23962,0,2.0751e+07,-91.366,11096,11648,1,11648,1,-0.00061276,-1.1018e-08,0,0.00043683,-0.00021089,-2.492e+08,-2805.8,0,1.506e+08,946.15,11647,12600,1,12600,1,0.0011349,1.6756e-08,0,0.0013106,0.00011534,2.6657e+08,4537.2,0,3.3237e+08,4784.2,12599,551.74,0,551.74,0,0.0010087,3.1879e-08,0,0.00053589,0.00018837,2.9372e+08,7572.8,0,1.4187e+08,3125.6,551.74,1
1904,5.79,12125,1,12125,1,0.000263,-3.0697e-10,0,0.00089556,-4.8094e-05,-132.39,241.43,0,2.5726e+08,3511.3,12124,13103,1,13103,1,0.0019523,1.0786e-07,0,0.0019523,0.00026772,3.5662e+08,25960,0,5.8007e+08,16029,13102,12124,1,12124,1,0.00026291,1.3131e-09,0,0.00087587,-4.8289e-05,8.279e+07,347.11,0,2.6669e+08,2797.6,12123,11097,1,11097,1,-0.0014262,-1.3393e-07,0,4.9775e-05,-0.00036347,-5.8007e+08,-25863,0,2.028e+07,-37.56,11096,11648,1,11648,1,-0.00061288,-1.3751e-08,0,0.00043784,-0.0002116,-2.4925e+08,-3412.4,0,1.5106e+08,948.81,11647,12600,1,12600,1,0.0011387,1.5015e-08,0,0.0013136,0.00011537,2.6669e+08,4020.4,0,3.3227e+08,4922,12599,551.74,0,551.74,0,0.001011,3.3272e-08,0,0.00053744,0.0001888,2.939e+08,7890.4,0,1.4197e+08,3243.6,551.74,1
1904,5.8,12125,1,12125,1,0.00026492,-3.3127e-10,0,0.00089783,-4.8444e-05,-83.733,249.73,0,2.5741e+08,3717.6,12124,13103,1,13103,1,0.0019582,1.1496e-07,0,0.0019582,0.0002681,3.5614e+08,27402,0,5.8089e+08,16708,13102,12124,1,12124,1,0.00026482,1.1711e-09,0,0.00087791,-4.8639e-05,8.3277e+07,295.1,0,2.6682e+08,2977.9,12123,11097,1,11097,1,-0.0014282,-1.3994e-07,0,4.8582e-05,-0.00036454,-5.8089e+08,-26878,0,1.9804e+07,-90.45,11096,11648,1,11648,1,-0.00061299,-1.4761e-08,0,0.00043885,-0.00021233,-2.4929e+08,-3685.3,0,1.5152e+08,1005.7,11647,12600,1,12600,1,0.0011427,1.5791e-08,0,0.0013167,0.00011539,2.6682e+08,4249.4,0,3.3218e+08,5251,12599,551.74,0,551.74,0,0.0010133,3.5032e-08,0,0.00053902,0.00018923,2.9407e+08,8315.6,0,1.4207e+08,3402.4,551.74,1
1904,5.81,12125,1,12125,1,0.00026686,1.6931e-09,0,0.00090009,-4.8798e-05,139.49,816.01,0,2.5754e+08,3912,12124,13103,1,13103,1,0.0019641,1.2341e-07,0,0.0019641,0.00026847,3.5564e+08,29488,0,5.8169e+08,17566,13102,12124,1,12124,1,0.00026675,3.6773e-09,0,0.00087993,-4.8992e-05,8.3767e+07,965.1,0,2.6693e+08,3149.2,12123,11097,1,11097,1,-0.0014302,-1.4583e-07,0,4.7367e-05,-0.00036563,-5.8169e+08,-27808,0,1.9321e+07,-87.474,11096,11648,1,11648,1,-0.00061308,-1.3588e-08,0,0.00043985,-0.00021305,-2.4933e+08,-3431.8,0,1.5199e+08,1039.5,11647,12600,1,12600,1,0.0011466,1.891e-08,0,0.0013197,0.00011541,2.6693e+08,5068.2,0,3.3207e+08,5560.2,12599,551.74,0,551.74,0,0.0010157,3.7021e-08,0,0.0005406,0.00018966,2.9423e+08,8812.2,0,1.4217e+08,3587.1,551.74,1
1904,5.82,12125,1,12125,1,0.00026881,-1.1739e-09,0,0.00090239,-4.9155e-05,-315.32,156.98,0,2.5768e+08,4145.9,12124,13103,1,13103,1,0.00197,1.2545e-07,0,0.00197,0.00026886,3.5516e+08,31000,0,5.8252e+08,18266,13102,12124,1,12124,1,0.0002687,9.0498e-10,0,0.00088201,-4.9349e-05,8.4262e+07,238.54,0,2.6704e+08,3330.1,12123,11097,1,11097,1,-0.0014322,-1.5841e-07,0,4.6145e-05,-0.00036672,-5.8252e+08,-30198,0,1.8836e+07,-93.771,11096,11648,1,11648,1,-0.0006132,-1.7559e-08,0,0.00044088,-0.00021379,-2.4938e+08,-4323.2,0,1.5246e+08,1141.9,11647,12600,1,12600,1,0.0011507,1.7021e-08,0,0.0013228,0.00011544,2.6704e+08,4663.7,0,3.3197e+08,5821.9,12599,551.74,0,551.74,0,0.0010181,3.9546e-08,0,0.00054222,0.00019011,2.9441e+08,9366.6,0,1.4227e+08,3796.4,551.74,1
1904,5.83,12125,1,12125,1,0.00027081,3.1156e-10,0,0.00090471,-4.9518e-05,264.24,550.01,0,2.5781e+08,4373.9,12124,13103,1,13103,1,0.001976,1.3474e-07,0,0.001976,0.00026924,3.5465e+08,33220,0,5.8334e+08,19350,13102,12124,1,12124,1,0.00027068,2.7732e-09,0,0.00088408,-4.9712e-05,8.4763e+07,717.22,0,2.6716e+08,3520.7,12123,11097,1,11097,1,-0.0014342,-1.6602e-07,0,4.4893e-05,-0.00036783,-5.8334e+08,-31462,0,1.834e+07,-102.99,11096,11648,1,11648,1,-0.00061327,-1.7013e-08,0,0.0004419,-0.00021454,-2.4941e+08,-4180.5,0,1.5293e+08,1168,11647,12600,1,12600,1,0.0011547,1.9789e-08,0,0.0013259,0.00011546,2.6716e+08,5364.2,0,3.3185e+08,6191.4,12599,551.74,0,551.74,0,0.0010205,4.1729e-08,0,0.00054384,0.00019055,2.9457e+08,9939.2,0,1.4237e+08,4005.5,551.74,1
1904,5.84,12125,1,12125,1,0.00027281,3.717e-10,0,0.00090704,-4.9885e-05,464.39,615.53,0,2.5794e+08,4661.8,12124,13103,1,13103,1,0.0019821,1.4381e-07,0,0.0019821,0.00026962,3.5413e+08,35586,0,5.8416e+08,20333,13102,12124,1,12124,1,0.00027268,3.1563e-09,0,0.00088616,-5.0078e-05,8.5267e+07,845.03,0,2.6726e+08,3789.9,12123,11097,1,11097,1,-0.0014362,-1.7664e-07,0,4.3624e-05,-0.00036894,-5.8416e+08,-33331,0,1.7839e+07,-169.19,11096,11648,1,11648,1,-0.00061335,-1.8698e-08,0,0.00044293,-0.00021529,-2.4944e+08,-4487.3,0,1.5341e+08,1281,11647,12600,1,12600,1,0.0011588,2.1494e-08,0,0.001329,0.00011548,2.6726e+08,5878.7,0,3.3173e+08,6597.2,12599,551.74,0,551.74,0,0.0010229,4.485e-08,0,0.00054548,0.00019099,2.9474e+08,10653,0,1.4247e+08,4230.2,551.74,1
1904,5.85,12125,1,12125,1,0.00027485,-4.8179e-10,0,0.0009094,-5.0257e-05,90.577,430.99,0,2.5808e+08,4949.7,12124,13103,1,13103,1,0.0019882,1.5125e-07,0,0.0019882,0.00027,3.5361e+08,38449,0,5.8499e+08,21569,13102,12124,1,12124,1,0.00027471,1.8811e-09,0,0.00088828,-5.0448e-05,8.5776e+07,474.39,0,2.6737e+08,4017.5,12123,11097,1,11097,1,-0.0014383,-1.8921e-07,0,4.2338e-05,-0.00037007,-5.8499e+08,-35543,0,1.7333e+07,-67.269,11096,11648,1,11648,1,-0.00061343,-2.0472e-08,0,0.00044398,-0.00021604,-2.4947e+08,-5107.5,0,1.5389e+08,1292.9,11647,12600,1,12600,1,0.0011629,2.2428e-08,0,0.0013321,0.0001155,2.6737e+08,6063.5,0,3.3161e+08,7038.3,12599,551.74,0,551.74,0,0.0010253,4.792e-08,0,0.00054715,0.00019144,2.949e+08,11486,0,1.4258e+08,4508.4,551.74,1
1904,5.86,12125,1,12125,1,0.00027691,2.4317e-09,0,0.00091176,-5.0632e-05,-455.25,1236.4,0,2.582e+08,5343.4,12124,13103,1,13103,1,0.0019944,1.6626e-07,0,0.0019944,0.00027038,3.5306e+08,40909,0,5.8581e+08,22829,13102,12124,1,12124,1,0.00027675,5.7033e-09,0,0.00089038,-5.0822e-05,8.6288e+07,1529.7,0,2.6746e+08,4422.6,12123,11097,1,11097,1,-0.0014403,-2.0396e-07,0,4.1029e-05,-0.00037121,-5.8581e+08,-38195,0,1.682e+07,-317.86,11096,11648,1,11648,1,-0.00061348,-1.9302e-08,0,0.00044502,-0.00021681,-2.4949e+08,-4667.1,0,1.5437e+08,1480.5,11647,12600,1,12600,1,0.0011671,2.7856e-08,0,0.0013353,0.00011551,2.6746e+08,7610.6,0,3.3147e+08,7594.2,12599,551.74,0,551.74,0,0.0010277,5.2453e-08,0,0.00054883,0.0001919,2.9506e+08,12399,0,1.4268e+08,4753.4,551.74,1
1904,5.87,12125,1,12125,1,0.00027899,-8.1861e-10,0,0.00091414,-5.1013e-05,247.44,503.87,0,2.5833e+08,5659.2,12124,13103,1,13103,1,0.0020006,1.7423e-07,0,0.0020006,0.00027077,3.5252e+08,43153,0,5.8663e+08,23660,13102,12124,1,12124,1,0.00027882,2.5175e-09,0,0.00089252,-5.1201e-05,8.6806e+07,663.94,0,2.6756e+08,4718.6,12123,11097,1,11097,1,-0.0014423,-2.2019e-07,0,3.9703e-05,-0.00037235,-5.8663e+08,-41127,0,1.6302e+07,-98.745,11096,11648,1,11648,1,-0.00061353,-2.4297e-08,0,0.00044607,-0.00021758,-2.4951e+08,-5931.6,0,1.5485e+08,1568.8,11647,12600,1,12600,1,0.0011713,2.6611e-08,0,0.0013384,0.00011552,2.6756e+08,7195,0,3.3133e+08,8014.9,12599,551.74,0,551.74,0,0.0010302,5.6173e-08,0,0.00055052,0.00019235,2.9522e+08,13226,0,1.4278e+08,5022.9,551.74,1
1904,5.88,12125,1,12125,1,0.0002811,8.8973e-10,0,0.00091656,-5.1398e-05,45.749,995.24,0,2.5845e+08,6027.4,12124,13103,1,13103,1,0.0020069,1.8647e-07,0,0.0020069,0.00027115,3.5197e+08,45858,0,5.8747e+08,25272,13102,12124,1,12124,1,0.00028092,4.9245e-09,0,0.00089467,-5.1584e-05,8.7328e+07,1286.5,0,2.6766e+08,4999.3,12123,11097,1,11097,1,-0.0014444,-2.3513e-07,0,3.8358e-05,-0.00037351,-5.8747e+08,-43761,0,1.5779e+07,-225.86,11096,11648,1,11648,1,-0.00061357,-2.4419e-08,0,0.00044713,-0.00021835,-2.4953e+08,-5803.7,0,1.5534e+08,1635.3,11647,12600,1,12600,1,0.0011755,2.9923e-08,0,0.0013417,0.00011554,2.6766e+08,8248.5,0,3.312e+08,8620.2,12599,551.74,0,551.74,0,0.0010327,5.991e-08,0,0.00055224,0.00019281,2.9538e+08,14110,0,1.4289e+08,5357.8,551.74,1
1904,5.89,12125,1,12125,1,0.00028324,1.0463e-09,0,0.00091899,-5.1788e-05,28.44,1142.2,0,2.5857e+08,6427.4,12124,13103,1,13103,1,0.0020132,2.0065e-07,0,0.0020132,0.00027154,3.514e+08,49847,0,5.8831e+08,26448,13102,12124,1,12124,1,0.00028304,5.4057e-09,0,0.00089685,-5.1972e-05,8.7856e+07,1425,0,2.6775e+08,5352,12123,11097,1,11097,1,-0.0014465,-2.4906e-07,0,3.6988e-05,-0.00037469,-5.8831e+08,-46102,0,1.5248e+07,-137.28,11096,11648,1,11648,1,-0.0006136,-2.6133e-08,0,0.0004482,-0.00021914,-2.4954e+08,-6309.5,0,1.5583e+08,1758.4,11647,12600,1,12600,1,0.0011798,3.2715e-08,0,0.0013449,0.00011555,2.6775e+08,8883.3,0,3.3105e+08,9194.1,12599,551.74,0,551.74,0,0.0010352,6.4121e-08,0,0.00055398,0.00019327,2.9554e+08,15164,0,1.4299e+08,5680.3,551.74,1
1904,5.9,12125,1,12125,1,0.00028541,3.8743e-10,0,0.00092144,-5.2184e-05,326.82,1067.3,0,2.5869e+08,6853.1,12124,13103,1,13103,1,0.0020197,2.1532e-07,0,0.0020197,0.00027193,3.5083e+08,52766,0,5.8915e+08,27793,13102,12124,1,12124,1,0.0002852,5.4215e-09,0,0.00089904,-5.2365e-05,8.8389e+07,1429.8,0,2.6784e+08,5784.4,12123,11097,1,11097,1,-0.0014485,-2.7019e-07,0,3.5595e-05,-0.00037587,-5.8915e+08,-49876,0,1.4711e+07,-228.59,11096,11648,1,11648,1,-0.00061363,-2.9479e-08,0,0.00044928,-0.00021994,-2.4955e+08,-6969,0,1.561e+08,1896.8,11647,12600,1,12600,1,0.0011841,3.5208e-08,0,0.0013481,0.00011556,2.6784e+08,9539.9,0,3.3089e+08,9826.2,12599,551.74,0,551.74,0,0.0010377,6.9695e-08,0,0.00055574,0.00019374,2.9569e+08,16354,0,1.431e+08,6008.7,551.74,1
1904,5.91,12125,1,12125,1,0.00028762,-6.5685e-09,0,0.00092394,-5.2586e-05,-28.009,-624.06,0,2.5881e+08,7335.5,12124,13103,1,13103,1,0.0020262,2.2572e-07,0,0.0020262,0.00027233,3.5026e+08,55903,0,5.9e+08,29198,13102,12124,1,12124,1,0.00028739,-2.1993e-09,0,0.00090129,-5.2765e-05,8.8931e+07,-592.32,0,2.6793e+08,6244.4,12123,11097,1,11097,1,-0.0014506,-2.9201e-07,0,3.418e-05,-0.00037707,-5.9e+08,-53778,0,1.4168e+07,9.4566,11096,11648,1,11648,1,-0.00061367,-3.9476e-08,0,0.00045039,-0.00022075,-2.4957e+08,-9540.1,0,1.5627e+08,2059.3,11647,12600,1,12600,1,0.0011886,3.0325e-08,0,0.0013515,0.00011557,2.6793e+08,8125.4,0,3.3073e+08,10462,12599,551.74,0,551.74,0,0.0010403,7.4408e-08,0,0.00055754,0.00019422,2.9585e+08,17513,0,1.4321e+08,6394.9,551.74,1
1904,5.92,12125,1,12125,1,0.00028985,-1.3769e-09,0,0.00092645,-5.2995e-05,-341.27,645.48,0,2.5892e+08,7905.7,12124,13103,1,13103,1,0.0020328,2.5243e-07,0,0.0020328,0.00027272,3.4964e+08,60476,0,5.9084e+08,31191,13102,12124,1,12124,1,0.00028961,3.3725e-09,0,0.00090352,-5.317e-05,8.9478e+07,883.27,0,2.6801e+08,6787.5,12123,11097,1,11097,1,-0.0014527,-3.082e-07,0,3.2734e-05,-0.00037828,-5.9084e+08,-56425,0,1.3616e+07,-80.529,11096,11648,1,11648,1,-0.00061366,-3.6369e-08,0,0.00045148,-0.00022156,-2.4956e+08,-8904.3,0,1.5643e+08,2202.9,11647,12600,1,12600,1,0.001193,3.8236e-08,0,0.0013548,0.00011557,2.6801e+08,10384,0,3.3056e+08,11313,12599,551.74,0,551.74,0,0.0010429,8.0422e-08,0,0.00055935,0.00019469,2.96e+08,18848,0,1.4332e+08,6806.9,551.74,1
1904,5.93,12125,1,12125,1,0.00029212,-2.2438e-09,0,0.00092898,-5.3408e-05,-75.564,499,0,2.5903e+08,8508.6,12124,13103,1,13103,1,0.0020394,2.7534e-07,0,0.0020394,0.00027311,3.4904e+08,64162,0,5.9169e+08,32941,13102,12124,1,12124,1,0.00029186,2.4836e-09,0,0.00090578,-5.358e-05,9.0029e+07,639.9,0,2.6808e+08,7408,12123,11097,1,11097,1,-0.0014548,-3.3478e-07,0,3.1267e-05,-0.00037951,-5.9169e+08,-61128,0,1.3059e+07,-59.096,11096,11648,1,11648,1,-0.00061366,-4.0548e-08,0,0.0004526,-0.00022239,-2.4956e+08,-9859.1,0,1.566e+08,2414.6,11647,12600,1,12600,1,0.0011975,4.1092e-08,0,0.0013581,0.00011558,2.6808e+08,11031,0,3.3038e+08,12235,12599,551.74,0,551.74,0,0.0010455,8.7819e-08,0,0.00056118,0.00019518,2.9615e+08,20324,0,1.4342e+08,7238.3,551.74,1
1904,5.94,12125,1,12125,1,0.00029442,-4.8686e-09,0,0.00093157,-5.3829e-05,-121.78,-127.38,0,2.5915e+08,9091.2,12124,13103,1,13103,1,0.0020462,2.8849e-07,0,0.0020462,0.00027352,3.4842e+08,68818,0,5.9256e+08,35112,13102,12124,1,12124,1,0.00029415,5.9588e-10,0,0.00090809,-5.3997e-05,9.059e+07,169.19,0,2.6816e+08,7888,12123,11097,1,11097,1,-0.0014569,-3.5826e-07,0,2.9777e-05,-0.00038076,-5.9256e+08,-65150,0,1.2496e+07,4.3329,11096,11648,1,11648,1,-0.00061366,-4.6492e-08,0,0.00045373,-0.00022323,-2.4956e+08,-11410,0,1.5677e+08,2552.4,11647,12600,1,12600,1,0.0012021,4.1698e-08,0,0.0013616,0.00011559,2.6816e+08,10960,0,3.3021e+08,13048,12599,551.74,0,551.74,0,0.0010481,9.3258e-08,0,0.00056305,0.00019567,2.963e+08,21779,0,1.4354e+08,7735,551.74,1
1904,5.95,12125,1,12125,1,0.00029677,-8.1326e-09,0,0.00093417,-5.4256e-05,-666.34,-1011.9,0,2.5925e+08,9901.5,12124,13103,1,13103,1,0.002053,3.2136e-07,0,0.002053,0.00027392,3.4779e+08,73116,0,5.9342e+08,37182,13102,12124,1,12124,1,0.00029649,-5.525e-09,0,0.00091041,-5.4422e-05,9.1159e+07,-1407.4,0,2.6823e+08,8669.6,12123,11097,1,11097,1,-0.001459,-3.8908e-07,0,2.8248e-05,-0.00038202,-5.9342e+08,-70598,0,1.1921e+07,14.152,11096,11648,1,11648,1,-0.00061363,-5.4189e-08,0,0.00045488,-0.00022408,-2.4955e+08,-13515,0,1.5693e+08,2846.5,11647,12600,1,12600,1,0.0012068,4.1958e-08,0,0.001365,0.00011559,2.6823e+08,11093,0,3.3001e+08,14214,12599,551.74,0,551.74,0,0.0010508,1.0229e-07,0,0.00056495,0.00019616,2.9645e+08,23679,0,1.4365e+08,8268.2,551.74,1
1904,5.96,12125,1,12125,1,0.00029915,-5.7522e-09,0,0.00093679,-5.4691e-05,355.34,-496.25,0,2.5936e+08,10578,12124,13103,1,13103,1,0.00206,3.5076e-07,0,0.00206,0.00027432,3.4713e+08,78372,0,5.9429e+08,39743,13102,12124,1,12124,1,0.00029886,-2.4677e-09,0,0.00091275,-5.4853e-05,9.1734e+07,-651.37,0,2.683e+08,9298.1,12123,11097,1,11097,1,-0.0014612,-4.1463e-07,0,2.6691e-05,-0.00038329,-5.9429e+08,-74875,0,1.1339e+07,-20.696,11096,11648,1,11648,1,-0.00061358,-5.533e-08,0,0.00045603,-0.00022494,-2.4953e+08,-13753,0,1.571e+08,3017.8,11647,12600,1,12600,1,0.0012115,4.8345e-08,0,0.0013685,0.00011558,2.683e+08,12590,0,3.2981e+08,15235,12599,551.74,0,551.74,0,0.0010535,1.1e-07,0,0.00056687,0.00019666,2.9659e+08,25419,0,1.4376e+08,8816.2,551.74,1
1904,5.97,12125,1,12125,1,0.00030157,-5.4089e-09,0,0.00093946,-5.5132e-05,118.18,-441.98,0,2.5947e+08,11354,12124,13103,1,13103,1,0.002067,3.8115e-07,0,0.002067,0.00027473,3.4647e+08,84048,0,5.9518e+08,42459,13102,12124,1,12124,1,0.00030126,-1.3335e-09,0,0.00091513,-5.5289e-05,9.2317e+07,-339.76,0,2.6837e+08,10080,12123,11097,1,11097,1,-0.0014633,-4.4412e-07,0,2.5115e-05,-0.00038459,-5.9518e+08,-79831,0,1.0753e+07,-33.141,11096,11648,1,11648,1,-0.00061355,-5.9932e-08,0,0.0004572,-0.00022582,-2.4951e+08,-14930,0,1.5727e+08,3221.7,11647,12600,1,12600,1,0.0012162,5.3023e-08,0,0.001372,0.00011558,2.6837e+08,13713,0,3.2961e+08,16403,12599,551.74,0,551.74,0,0.0010562,1.1866e-07,0,0.00056883,0.00019716,2.9674e+08,27347,0,1.4387e+08,9384.2,551.74,1
1904,5.98,12125,1,12125,1,0.00030404,-4.7203e-09,0,0.00094217,-5.5583e-05,75.235,-307.29,0,2.5957e+08,12190,12124,13103,1,13103,1,0.0020742,4.0912e-07,0,0.0020742,0.00027514,3.4579e+08,90555,0,5.9606e+08,45433,13102,12124,1,12124,1,0.00030371,-1.2436e-09,0,0.00091754,-5.5734e-05,9.2907e+07,-319.99,0,2.6843e+08,10898,12123,11097,1,11097,1,-0.0014655,-4.7793e-07,0,2.3491e-05,-0.00038592,-5.9606e+08,-85497,0,1.0152e+07,69.182,11096,11648,1,11648,1,-0.00061348,-6.3902e-08,0,0.00045838,-0.00022671,-2.4949e+08,-15945,0,1.5743e+08,3505.9,11647,12600,1,12600,1,0.0012211,5.889e-08,0,0.0013756,0.00011558,2.6843e+08,15099,0,3.2943e+08,17585,12599,551.74,0,551.74,0,0.001059,1.2807e-07,0,0.00057082,0.00019768,2.9689e+08,29496,0,1.4399e+08,10001,551.74,1
1904,5.99,12125,1,12125,1,0.00030656,-6.8477e-09,0,0.00094491,-5.6041e-05,428.76,-816.56,0,2.5966e+08,13198,12124,13103,1,13103,1,0.0020815,4.444e-07,0,0.0020815,0.00027555,3.451e+08,97464,0,5.9695e+08,48284,13102,12124,1,12124,1,0.0003062,-4.4259e-09,0,0.00091999,-5.6186e-05,9.3506e+07,-1107.4,0,2.6848e+08,11950,12123,11097,1,11097,1,-0.0014677,-5.1923e-07,0,2.1834e-05,-0.00038725,-5.9695e+08,-92571,0,9.5407e+06,-51.738,11096,11648,1,11648,1,-0.0006134,-7.1165e-08,0,0.00045957,-0.00022761,-2.4945e+08,-17960,0,1.5759e+08,3830,11647,12600,1,12600,1,0.001226,6.3004e-08,0,0.0013792,0.00011557,2.6848e+08,15949,0,3.2928e+08,19175,12599,551.74,0,551.74,0,0.0010618,1.3954e-07,0,0.00057284,0.0001982,2.9703e+08,32038,0,1.441e+08,10730,551.74,1
1904,6,12125,1,12125,1,0.00030911,-7.6572e-09,0,0.0009477,-5.6506e-05,13.709,-1070.7,0,2.5976e+08,14257,12124,13103,1,13103,1,0.0020889,4.836e-07,0,0.0020889,0.00027598,3.4439e+08,1.0391e+05,0,5.9786e+08,51585,13102,12124,1,12124,1,0.00030874,-6.1228e-09,0,0.00092248,-5.6646e-05,9.4115e+07,-1536.9,0,2.6853e+08,12962,12123,11097,1,11097,1,-0.0014699,-5.6278e-07,0,2.0149e-05,-0.00038862,-5.9786e+08,-1.0003e+05,0,8.9226e+06,16.513,11096,11648,1,11648,1,-0.00061333,-7.7976e-08,0,0.00046079,-0.00022853,-2.4942e+08,-19658,0,1.5776e+08,4172.9,11647,12600,1,12600,1,0.001231,6.7405e-08,0,0.0013829,0.00011557,2.6853e+08,17201,0,3.2907e+08,20800,12599,551.74,0,551.74,0,0.0010647,1.5181e-07,0,0.00057491,0.00019872,2.9717e+08,34660,0,1.4422e+08,11487,551.74,1
1904,6.01,12125,1,12125,1,0.00031172,-8.5445e-09,0,0.00095053,-5.6981e-05,-300.59,-1394.3,0,2.5985e+08,15432,12124,13103,1,13103,1,0.0020964,5.2915e-07,0,0.0020964,0.0002764,3.4367e+08,1.1235e+05,0,5.9877e+08,55086,13102,12124,1,12124,1,0.00031133,-7.6251e-09,0,0.000925,-5.7114e-05,9.4733e+07,-1959.2,0,2.6858e+08,14079,12123,11097,1,11097,1,-0.0014722,-6.0392e-07,0,1.8419e-05,-0.00039,-5.9877e+08,-1.0678e+05,0,8.2902e+06,-34.329,11096,11648,1,11648,1,-0.00061323,-8.6032e-08,0,0.00046202,-0.00022946,-2.4938e+08,-21732,0,1.5792e+08,4564.1,11647,12600,1,12600,1,0.0012361,7.3782e-08,0,0.0013866,0.00011556,2.6858e+08,18679,0,3.2883e+08,22518,12599,551.74,0,551.74,0,0.0010676,1.6468e-07,0,0.00057701,0.00019926,2.9731e+08,37599,0,1.4434e+08,12343,551.74,1
1904,6.02,12125,1,12125,1,0.00031438,-7.1472e-09,0,0.0009534,-5.7466e-05,-277.59,-1128.9,0,2.5994e+08,16685,12124,13103,1,13103,1,0.0021041,5.8003e-07,0,0.0021041,0.00027683,3.4293e+08,1.2112e+05,0,5.9969e+08,58942,13102,12124,1,12124,1,0.00031396,-7.2206e-09,0,0.00092756,-5.7591e-05,9.536e+07,-1781,0,2.6863e+08,15297,12123,11097,1,11097,1,-0.0014744,-6.5298e-07,0,1.6651e-05,-0.00039141,-5.9969e+08,-1.1494e+05,0,7.646e+06,-54.643,11096,11648,1,11648,1,-0.00061312,-9.22e-08,0,0.00046326,-0.00023041,-2.4933e+08,-23484,0,1.5809e+08,4958.1,11647,12600,1,12600,1,0.0012413,8.2405e-08,0,0.0013904,0.00011555,2.6863e+08,20795,0,3.2859e+08,24347,12599,551.74,0,551.74,0,0.0010705,1.7967e-07,0,0.00057915,0.0001998,2.9745e+08,40813,0,1.4447e+08,13235,551.74,1
1904,6.03,12125,1,12125,1,0.00031711,-7.3495e-09,0,0.00095634,-5.7961e-05,10.256,-1241.2,0,2.6004e+08,18053,12124,13103,1,13103,1,0.0021119,6.3213e-07,0,0.0021119,0.00027727,3.4217e+08,1.3077e+05,0,6.0063e+08,63170,13102,12124,1,12124,1,0.00031666,-7.2828e-09,0,0.00093017,-5.8078e-05,9.6e+07,-1846.3,0,2.6867e+08,16662,12123,11097,1,11097,1,-0.0014768,-7.0696e-07,0,1.4838e-05,-0.00039286,-6.0063e+08,-1.2386e+05,0,6.9878e+06,-9.4749,11096,11648,1,11648,1,-0.000613,-1.0066e-07,0,0.00046453,-0.00023137,-2.4928e+08,-25457,0,1.5825e+08,5373.5,11647,12600,1,12600,1,0.0012466,8.9981e-08,0,0.0013942,0.00011553,2.6867e+08,22549,0,3.2834e+08,26429,12599,551.74,0,551.74,0,0.0010735,1.9555e-07,0,0.00058135,0.00020036,2.9759e+08,44335,0,1.4459e+08,14243,551.74,1
1904,6.04,12125,1,12125,1,0.0003199,-5.4731e-09,0,0.00095933,-5.8469e-05,366.55,-839.61,0,2.6012e+08,19524,12124,13103,1,13103,1,0.00212,6.9347e-07,0,0.00212,0.00027771,3.414e+08,1.4166e+05,0,6.0159e+08,67628,13102,12124,1,12124,1,0.00031942,-5.4013e-09,0,0.00093284,-5.8576e-05,9.6651e+07,-1397.1,0,2.6871e+08,18166,12123,11097,1,11097,1,-0.0014791,-7.6568e-07,0,1.2974e-05,-0.00039434,-6.0159e+08,-1.3344e+05,0,6.3133e+06,14.494,11096,11648,1,11648,1,-0.00061287,-1.066e-07,0,0.00046581,-0.00023236,-2.4923e+08,-27231,0,1.5842e+08,5834.5,11647,12600,1,12600,1,0.001252,1.0184e-07,0,0.0013981,0.00011552,2.6871e+08,25296,0,3.2809e+08,28712,12599,551.74,0,551.74,0,0.0010766,2.1365e-07,0,0.0005836,0.00020092,2.9773e+08,48256,0,1.4472e+08,15321,551.74,1
1904,6.05,12125,1,12125,1,0.00032276,-5.7072e-09,0,0.00096239,-5.8988e-05,-96.25,-905.6,0,2.6021e+08,21225,12124,13103,1,13103,1,0.0021282,7.5495e-07,0,0.0021282,0.00027816,3.406e+08,1.539e+05,0,6.0256e+08,72484,13102,12124,1,12124,1,0.00032224,-4.4729e-09,0,0.00093556,-5.9083e-05,9.7315e+07,-1132.6,0,2.6874e+08,19821,12123,11097,1,11097,1,-0.0014815,-8.3243e-07,0,1.1058e-05,-0.00039585,-6.0256e+08,-1.4434e+05,0,5.6222e+06,38.952,11096,11648,1,11648,1,-0.00061272,-1.1913e-07,0,0.00046712,-0.00023337,-2.4917e+08,-29918,0,1.5859e+08,6333.2,11647,12600,1,12600,1,0.0012575,1.1229e-07,0,0.0014021,0.0001155,2.6874e+08,27859,0,3.2782e+08,31294,12599,551.74,0,551.74,0,0.0010797,2.3327e-07,0,0.0005859,0.0002015,2.9787e+08,52641,0,1.4486e+08,16521,551.74,1
1904,6.06,12125,1,12125,1,0.00032569,-3.424e-09,0,0.00096551,-5.9519e-05,9.9255,-346.89,0,2.6029e+08,23117,12124,13103,1,13103,1,0.0021366,8.3412e-07,0,0.0021366,0.00027862,3.3979e+08,1.6716e+05,0,6.0354e+08,77842,13102,12124,1,12124,1,0.00032512,-3.184e-09,0,0.00093834,-5.9602e-05,9.7991e+07,-838.63,0,2.6877e+08,21782,12123,11097,1,11097,1,-0.0014839,-9.1186e-07,0,9.084e-06,-0.0003974,-6.0354e+08,-1.5739e+05,0,4.9121e+06,145.96,11096,11648,1,11648,1,-0.00061256,-1.2657e-07,0,0.00046844,-0.0002344,-2.491e+08,-32012,0,1.5875e+08,6907.4,11647,12600,1,12600,1,0.0012632,1.2749e-07,0,0.0014061,0.00011548,2.6877e+08,31610,0,3.2754e+08,34221,12599,551.74,0,551.74,0,0.0010829,2.5747e-07,0,0.00058826,0.00020209,2.9801e+08,57635,0,1.4499e+08,17829,551.74,1
1904,6.07,12125,1,12125,1,0.0003287,-7.8956e-10,0,0.00096871,-6.0064e-05,249.25,366.89,0,2.6037e+08,25129,12124,13103,1,13103,1,0.0021452,9.1423e-07,0,0.0021452,0.00027909,3.3895e+08,1.8252e+05,0,6.0455e+08,83509,13102,12124,1,12124,1,0.00032807,1.8031e-09,0,0.00094118,-6.0133e-05,9.8681e+07,472.58,0,2.6879e+08,23762,12123,11097,1,11097,1,-0.0014864,-9.9357e-07,0,7.0533e-06,-0.00039898,-6.0455e+08,-1.7057e+05,0,4.1825e+06,225.42,11096,11648,1,11648,1,-0.00061238,-1.3828e-07,0,0.00046978,-0.00023545,-2.4903e+08,-34095,0,1.5892e+08,7534.2,11647,12600,1,12600,1,0.0012689,1.4288e-07,0,0.0014102,0.00011546,2.6879e+08,35523,0,3.2725e+08,37346,12599,551.74,0,551.74,0,0.0010861,2.8214e-07,0,0.00059069,0.00020269,2.9815e+08,62989,0,1.4513e+08,19276,551.74,1
1904,6.08,12125,1,12125,1,0.00033179,-5.0919e-09,0,0.00097198,-6.0623e-05,-37.809,-527.36,0,2.6045e+08,27473,12124,13103,1,13103,1,0.002154,9.9992e-07,0,0.002154,0.00027956,3.3811e+08,1.9878e+05,0,6.0557e+08,89350,13102,12124,1,12124,1,0.00033111,-4.6506e-09,0,0.0009441,-6.0676e-05,9.9387e+07,-1209.4,0,2.6881e+08,26008,12123,11097,1,11097,1,-0.0014889,-1.0951e-06,0,4.9579e-06,-0.00040061,-6.0557e+08,-1.8716e+05,0,3.4306e+06,135.17,11096,11648,1,11648,1,-0.00061219,-1.5543e-07,0,0.00047116,-0.00023652,-2.4895e+08,-38865,0,1.5909e+08,8257,11647,12600,1,12600,1,0.0012748,1.5381e-07,0,0.0014144,0.00011543,2.6881e+08,37871,0,3.2696e+08,41009,12599,551.74,0,551.74,0,0.0010895,3.1093e-07,0,0.00059318,0.00020331,2.9829e+08,69110,0,1.4527e+08,20892,551.74,1
1904,6.09,12125,1,12125,1,0.00033497,-4.56e-09,0,0.00097533,-6.1197e-05,-101.22,-357.67,0,2.6053e+08,30006,12124,13103,1,13103,1,0.0021631,1.0993e-06,0,0.0021631,0.00028004,3.3723e+08,2.1702e+05,0,6.0661e+08,96111,13102,12124,1,12124,1,0.00033422,-2.8139e-09,0,0.00094708,-6.1234e-05,1.0011e+08,-739.85,0,2.6882e+08,28500,12123,11097,1,11097,1,-0.0014915,-1.2003e-06,0,2.7967e-06,-0.00040229,-6.0661e+08,-2.0409e+05,0,2.6562e+06,248.66,11096,11648,1,11648,1,-0.00061198,-1.7087e-07,0,0.00047256,-0.00023763,-2.4886e+08,-42688,0,1.5926e+08,8966.6,11647,12600,1,12600,1,0.0012809,1.7145e-07,0,0.0014187,0.00011541,2.6882e+08,42148,0,3.2665e+08,44843,12599,551.74,0,551.74,0,0.0010929,3.424e-07,0,0.00059574,0.00020394,2.9842e+08,75844,0,1.4542e+08,22664,551.74,1
1904,6.1,12125,1,12125,1,0.00033825,-5.9159e-09,0,0.00097877,-6.1788e-05,-400.99,-593.95,0,2.606e+08,32846,12124,13103,1,13103,1,0.0021725,1.2103e-06,0,0.0021725,0.00028054,3.3633e+08,2.3736e+05,0,6.0768e+08,1.0309e+05,13102,12124,1,12124,1,0.00033742,-4.9356e-09,0,0.00095016,-6.1806e-05,1.0085e+08,-1269.7,0,2.6883e+08,31383,12123,11097,1,11097,1,-0.0014941,-1.3197e-06,0,5.6245e-07,-0.00040401,-6.0768e+08,-2.2324e+05,0,1.8567e+06,249.24,11096,11648,1,11648,1,-0.00061175,-1.9105e-07,0,0.00047399,-0.00023876,-2.4877e+08,-47574,0,1.5943e+08,9878.4,11647,12600,1,12600,1,0.0012871,1.8837e-07,0,0.0014231,0.00011538,2.6883e+08,46409,0,3.2633e+08,49427,12599,551.74,0,551.74,0,0.0010964,3.7818e-07,0,0.00059838,0.00020458,2.9856e+08,83408,0,1.4557e+08,24595,551.74,1
1904,6.11,12125,1,12125,1,0.00034164,-5.8794e-09,0,0.00098239,-6.2399e-05,130.69,-528.95,0,2.6067e+08,35933,12124,13103,1,13103,1,0.0021822,1.336e-06,0,0.0021822,0.00028105,3.354e+08,2.6053e+05,0,6.0877e+08,1.1092e+05,13102,12124,1,12124,1,0.00034073,-6.1762e-09,0,0.00095183,-6.2395e-05,1.0161e+08,-1535.5,0,2.6883e+08,34407,12123,11097,1,11097,1,-0.0014968,-1.4488e-06,0,2.9624e-07,-0.0004058,-6.0877e+08,-2.4369e+05,0,1.0289e+06,303.33,11096,11648,1,11648,1,-0.0006115,-2.125e-07,0,0.0004768,-0.00023993,-2.4867e+08,-52979,0,1.596e+08,10747,11647,12600,1,12600,1,0.0012935,2.0984e-07,0,0.0014294,0.00011535,2.6883e+08,51415,0,3.26e+08,54488,12599,551.74,0,551.74,0,0.0011,4.1762e-07,0,0.00060099,0.00020525,2.987e+08,91848,0,1.4573e+08,26757,551.74,1
1904,6.12,12125,1,12125,1,0.00034514,-4.9395e-09,0,0.00098622,-6.303e-05,-199.93,-206.9,0,2.6074e+08,39388,12124,13103,1,13103,1,0.0021923,1.4715e-06,0,0.0021923,0.00028158,3.3445e+08,2.8615e+05,0,6.0991e+08,1.1951e+05,13102,12124,1,12124,1,0.00034413,-2.0685e-09,0,0.0009544,-6.3001e-05,1.0239e+08,-505.49,0,2.6883e+08,38053,12123,11097,1,11097,1,-0.0014996,-1.5982e-06,0,1.8566e-06,-0.00040765,-6.0991e+08,-2.6733e+05,0,1.7103e+05,408.79,11096,11648,1,11648,1,-0.00061124,-2.3481e-07,0,0.00047849,-0.00024113,-2.4856e+08,-58339,0,1.5977e+08,11919,11647,12600,1,12600,1,0.0013001,2.3526e-07,0,0.0014343,0.00011532,2.6883e+08,57499,0,3.2565e+08,59907,12599,551.74,0,551.74,0,0.0011037,4.6246e-07,0,0.00060355,0.00020594,2.9884e+08,1.0138e+05,0,1.459e+08,29070,551.74,1
1904,6.13,12125,1,12125,1,0.00034878,-6.7391e-09,0,0.00099015,-6.3681e-05,460.5,-465.94,0,2.6083e+08,43503,12124,13103,1,13103,1,0.0022026,1.6351e-06,0,0.0022026,0.00028211,3.3347e+08,3.1462e+05,0,6.1105e+08,1.2857e+05,13102,12124,1,12124,1,0.00034766,-3.9678e-09,0,0.00095751,-6.3626e-05,1.0319e+08,-1010.4,0,2.6881e+08,42218,12123,11097,1,11097,1,-0.0015024,-1.7728e-06,0,4.0876e-06,-0.00040956,-6.1105e+08,-2.9495e+05,0,1.0771e+05,113.55,11096,11648,1,11648,1,-0.00061094,-2.6197e-07,0,0.00048019,-0.00024236,-2.4844e+08,-65099,0,1.5994e+08,13208,11647,12600,1,12600,1,0.0013069,2.6187e-07,0,0.0014392,0.00011528,2.6881e+08,63951,0,3.2528e+08,66605,12599,551.74,0,551.74,0,0.0011076,5.1562e-07,0,0.0006062,0.00020665,2.9898e+08,1.1231e+05,0,1.4601e+08,31862,551.74,1
1904,6.14,12125,1,12125,1,0.00035255,-5.6434e-09,0,0.00099425,-6.4357e-05,-155.44,-79.546,0,2.6096e+08,47869,12124,13103,1,13103,1,0.0022135,1.8111e-06,0,0.0022135,0.00028267,3.3245e+08,3.4734e+05,0,6.1226e+08,1.3864e+05,13102,12124,1,12124,1,0.00035131,-2.3127e-09,0,0.00096073,-6.4272e-05,1.0402e+08,-572.79,0,2.688e+08,46752,12123,11097,1,11097,1,-0.0015054,-1.9576e-06,0,6.3978e-06,-0.00041155,-6.1226e+08,-3.2371e+05,0,6.4844e+05,408.75,11096,11648,1,11648,1,-0.00061065,-2.924e-07,0,0.00048197,-0.00024365,-2.4832e+08,-72249,0,1.6013e+08,14594,11647,12600,1,12600,1,0.001314,2.9427e-07,0,0.0014444,0.00011524,2.688e+08,71653,0,3.2459e+08,73859,12599,551.74,0,551.74,0,0.0011115,5.7277e-07,0,0.00060896,0.00020738,2.9913e+08,1.2439e+05,0,1.4608e+08,34810,551.74,1
1904,6.15,12125,1,12125,1,0.00035648,-2.7944e-09,0,0.00099849,-6.5059e-05,-41.418,810.64,0,2.6109e+08,52861,12124,13103,1,13103,1,0.0022248,2.0144e-06,0,0.0022248,0.00028325,3.3139e+08,3.8457e+05,0,6.135e+08,1.4973e+05,13102,12124,1,12124,1,0.00035509,5.9138e-09,0,0.00096402,-6.4939e-05,1.0487e+08,1403.2,0,2.6878e+08,52096,12123,11097,1,11097,1,-0.0015084,-2.1709e-06,0,8.7916e-06,-0.00041363,-6.135e+08,-3.5676e+05,0,1.493e+06,569.1,11096,11648,1,11648,1,-0.0006103,-3.2544e-07,0,0.00048382,-0.00024497,-2.4818e+08,-79998,0,1.6031e+08,16258,11647,12600,1,12600,1,0.0013213,3.3251e-07,0,0.0014498,0.0001152,2.6878e+08,81103,0,3.2352e+08,82174,12599,551.74,0,551.74,0,0.0011157,6.3916e-07,0,0.00061184,0.00020814,2.9927e+08,1.3827e+05,0,1.4614e+08,38184,551.74,1
1904,6.16,12125,1,12125,1,0.00036058,-7.9861e-09,0,0.0010029,-6.5791e-05,-155.52,-72.48,0,2.6122e+08,58569,12124,13103,1,13103,1,0.0022366,2.2421e-06,0,0.0022366,0.00028385,3.3032e+08,4.255e+05,0,6.1479e+08,1.6117e+05,13102,12124,1,12124,1,0.00035902,-1.6832e-09,0,0.00096742,-6.5631e-05,1.0576e+08,-411.03,0,2.6874e+08,57881,12123,11097,1,11097,1,-0.0015116,-2.4246e-06,0,1.1257e-05,-0.0004158,-6.1479e+08,-3.9608e+05,0,2.3654e+06,654.99,11096,11648,1,11648,1,-0.00060995,-3.7537e-07,0,0.00048574,-0.00024634,-2.4803e+08,-90728,0,1.6049e+08,18165,11647,12600,1,12600,1,0.0013288,3.687e-07,0,0.0014554,0.00011516,2.6874e+08,90023,0,3.2243e+08,91883,12599,551.74,0,551.74,0,0.0011199,7.1631e-07,0,0.00061484,0.00020894,2.9942e+08,1.542e+05,0,1.4622e+08,41952,551.74,1
1904,6.17,12125,1,12125,1,0.00036485,-5.377e-09,0,0.0010075,-6.6552e-05,-147.53,825.45,0,2.6134e+08,65030,12124,13103,1,13103,1,0.002249,2.5121e-06,0,0.002249,0.00028447,3.2919e+08,4.7271e+05,0,6.1612e+08,1.7429e+05,13102,12124,1,12124,1,0.00036312,6.672e-09,0,0.00097091,-6.6348e-05,1.0668e+08,1571.8,0,2.687e+08,64643,12123,11097,1,11097,1,-0.0015149,-2.7045e-06,0,1.3822e-05,-0.00041808,-6.1612e+08,-4.3896e+05,0,3.2713e+06,752.5,11096,11648,1,11648,1,-0.00060955,-4.1653e-07,0,0.00048775,-0.00024777,-2.4787e+08,-1.0124e+05,0,1.6068e+08,20245,11647,12600,1,12600,1,0.0013367,4.2033e-07,0,0.0014611,0.00011511,2.687e+08,1.0232e+05,0,3.2128e+08,1.033e+05,12599,551.74,0,551.74,0,0.0011244,8.044e-07,0,0.00061798,0.00020976,2.9956e+08,1.7235e+05,0,1.4629e+08,46247,551.74,1
1904,6.18,12125,1,12125,1,0.00036935,-1.1935e-08,0,0.0010123,-6.735e-05,197.74,-351.37,0,2.6147e+08,72263,12124,13103,1,13103,1,0.002262,2.8023e-06,0,0.002262,0.00028512,3.2804e+08,5.2551e+05,0,6.1752e+08,1.8782e+05,13102,12124,1,12124,1,0.00036739,-2.8233e-09,0,0.00097454,-6.7095e-05,1.0763e+08,-668.91,0,2.6865e+08,72555,12123,11097,1,11097,1,-0.0015183,-3.0323e-06,0,1.6471e-05,-0.00042048,-6.1752e+08,-4.8907e+05,0,4.2039e+06,884.61,11096,11648,1,11648,1,-0.00060915,-4.8014e-07,0,0.00048986,-0.00024926,-2.477e+08,-1.1589e+05,0,1.6087e+08,22618,11647,12600,1,12600,1,0.001345,4.6957e-07,0,0.0014672,0.00011506,2.6865e+08,1.1418e+05,0,3.2009e+08,1.1636e+05,12599,551.74,0,551.74,0,0.0011291,9.0594e-07,0,0.00062129,0.00021062,2.9971e+08,1.9308e+05,0,1.4638e+08,51007,551.74,1
1904,6.19,12125,1,12125,1,0.00037407,-9.0829e-09,0,0.0010173,-6.8187e-05,-369.03,621.28,0,2.6159e+08,80703,12124,13103,1,13103,1,0.0022757,3.162e-06,0,0.0022757,0.0002858,3.2682e+08,5.8654e+05,0,6.1898e+08,2.0329e+05,13102,12124,1,12124,1,0.00037187,3.1008e-09,0,0.00097828,-6.7873e-05,1.0862e+08,794.25,0,2.6859e+08,81865,12123,11097,1,11097,1,-0.0015219,-3.3989e-06,0,1.9237e-05,-0.000423,-6.1898e+08,-5.4442e+05,0,5.1734e+06,1006.3,11096,11648,1,11648,1,-0.00060868,-5.396e-07,0,0.00049208,-0.00025081,-2.4751e+08,-1.3071e+05,0,1.6106e+08,25537,11647,12600,1,12600,1,0.0013536,5.3971e-07,0,0.0014736,0.000115,2.6859e+08,1.306e+05,0,3.1883e+08,1.3105e+05,12599,551.74,0,551.74,0,0.0011339,1.0241e-06,0,0.00062477,0.00021152,2.9986e+08,2.1706e+05,0,1.4647e+08,56554,551.74,1
1904,6.2,12125,1,12125,1,0.00037904,-1.233e-08,0,0.0010226,-6.9067e-05,-125.74,382.71,0,2.6171e+08,90161,12124,13103,1,13103,1,0.0022903,3.5584e-06,0,0.0022903,0.00028651,3.2556e+08,6.5534e+05,0,6.205e+08,2.1962e+05,13102,12124,1,12124,1,0.00037656,2.0152e-09,0,0.00098214,-6.8685e-05,1.0966e+08,503.89,0,2.6851e+08,90883,12123,11097,1,11097,1,-0.0015256,-3.8255e-06,0,2.2105e-05,-0.00042568,-6.205e+08,-6.0864e+05,0,6.1731e+06,1163.3,11096,11648,1,11648,1,-0.00060819,-6.1323e-07,0,0.00049442,-0.00025244,-2.473e+08,-1.4898e+05,0,1.6115e+08,28709,11647,12600,1,12600,1,0.0013626,6.131e-07,0,0.0014803,0.00011494,2.6851e+08,1.4848e+05,0,3.1751e+08,1.4747e+05,12599,551.74,0,551.74,0,0.001139,1.1597e-06,0,0.00062844,0.00021247,3.0002e+08,2.4449e+05,0,1.4656e+08,62799,551.74,1
1904,6.21,12125,1,12125,1,0.0003843,-1.4779e-08,0,0.0010282,-6.9993e-05,-68.416,377.54,0,2.6183e+08,1.0105e+05,12124,13103,1,13103,1,0.0023057,4.0209e-06,0,0.0023057,0.00028726,3.2426e+08,7.3457e+05,0,6.2212e+08,2.3705e+05,13102,12124,1,12124,1,0.00038149,2.6947e-09,0,0.00098615,-6.9534e-05,1.1074e+08,676.36,0,2.6843e+08,1.0146e+05,12123,11097,1,11097,1,-0.0015296,-4.3142e-06,0,2.5087e-05,-0.00042852,-6.2212e+08,-6.835e+05,0,7.2057e+06,1310.5,11096,11648,1,11648,1,-0.00060765,-6.9957e-07,0,0.00049691,-0.00025414,-2.4708e+08,-1.6985e+05,0,1.611e+08,32573,11647,12600,1,12600,1,0.001372,7.0196e-07,0,0.0014873,0.00011488,2.6843e+08,1.6936e+05,0,3.1612e+08,1.6744e+05,12599,551.74,0,551.74,0,0.0011444,1.3183e-06,0,0.00063232,0.00021346,3.0017e+08,2.7625e+05,0,1.4667e+08,69961,551.74,1
1904,6.22,12125,1,12125,1,0.00038987,-1.842e-08,0,0.001034,-7.0974e-05,-308.96,115.29,0,2.6195e+08,1.1362e+05,12124,13103,1,13103,1,0.0023222,4.5622e-06,0,0.0023222,0.00028805,3.229e+08,8.2487e+05,0,6.2381e+08,2.5599e+05,13102,12124,1,12124,1,0.00038668,2.4701e-10,0,0.00099031,-7.0424e-05,1.1187e+08,83.825,0,2.6832e+08,1.138e+05,12123,11097,1,11097,1,-0.0015338,-4.8852e-06,0,2.8194e-05,-0.00043156,-6.2381e+08,-7.7007e+05,0,8.273e+06,1561.1,11096,11648,1,11648,1,-0.00060707,-8.0557e-07,0,0.00049954,-0.00025593,-2.4684e+08,-1.9435e+05,0,1.6117e+08,37094,11647,12600,1,12600,1,0.001382,7.9895e-07,0,0.0014947,0.00011481,2.6832e+08,1.9362e+05,0,3.1466e+08,1.8887e+05,12599,551.74,0,551.74,0,0.0011501,1.5048e-06,0,0.00063646,0.00021451,3.0033e+08,3.1333e+05,0,1.4679e+08,78246,551.74,1
1904,6.23,12125,1,12125,1,0.00039579,-2.0043e-08,0,0.0010402,-7.2012e-05,-49.584,457.97,0,2.6206e+08,1.2801e+05,12124,13103,1,13103,1,0.0023399,5.1932e-06,0,0.0023399,0.00028889,3.2147e+08,9.3007e+05,0,6.2561e+08,2.7608e+05,13102,12124,1,12124,1,0.00039217,2.8224e-09,0,0.00099461,-7.1359e-05,1.1306e+08,705.99,0,2.682e+08,1.2876e+05,12123,11097,1,11097,1,-0.0015382,-5.5398e-06,0,3.1435e-05,-0.00043481,-6.2561e+08,-8.6918e+05,0,9.3762e+06,1764.6,11096,11648,1,11648,1,-0.00060642,-9.232e-07,0,0.00050235,-0.00025782,-2.4658e+08,-2.2237e+05,0,1.6131e+08,42430,11647,12600,1,12600,1,0.0013925,9.1661e-07,0,0.0015026,0.00011474,2.682e+08,2.2252e+05,0,3.1311e+08,2.1369e+05,12599,551.74,0,551.74,0,0.0011561,1.7228e-06,0,0.00064086,0.00021562,3.0049e+08,3.5637e+05,0,1.4691e+08,87794,551.74,1
1904,6.24,12125,1,12125,1,0.00040212,-2.4088e-08,0,0.0010469,-7.3119e-05,268.04,381.7,0,2.6218e+08,1.4476e+05,12124,13103,1,13103,1,0.0023589,5.9215e-06,0,0.0023589,0.00028978,3.2e+08,1.0498e+06,0,6.2754e+08,2.9742e+05,13102,12124,1,12124,1,0.00039798,3.1696e-09,0,0.0009991,-7.2343e-05,1.1431e+08,728.91,0,2.6806e+08,1.4631e+05,12123,11097,1,11097,1,-0.0015429,-6.3139e-06,0,3.4807e-05,-0.00043832,-6.2754e+08,-9.8538e+05,0,1.0511e+07,2010.7,11096,11648,1,11648,1,-0.00060573,-1.0719e-06,0,0.00050538,-0.00025981,-2.4629e+08,-2.5557e+05,0,1.6146e+08,47773,11647,12600,1,12600,1,0.0014037,1.0643e-06,0,0.0015111,0.00011466,2.6806e+08,2.5604e+05,0,3.1147e+08,2.4376e+05,12599,551.74,0,551.74,0,0.0011625,1.9811e-06,0,0.00064558,0.0002168,3.0067e+08,4.0691e+05,0,1.4706e+08,98974,551.74,1
1904,6.25,12125,1,12125,1,0.00040891,-3.5827e-08,0,0.0010539,-7.4302e-05,17.743,-1409.4,0,2.6229e+08,1.6418e+05,12124,13103,1,13103,1,0.0023796,6.7892e-06,0,0.0023796,0.00029074,3.1846e+08,1.1903e+06,0,6.296e+08,3.2579e+05,13102,12124,1,12124,1,0.00040417,-8.8994e-09,0,0.0010038,-7.3387e-05,1.1564e+08,-2198,0,2.679e+08,1.6638e+05,12123,11097,1,11097,1,-0.001548,-7.2088e-06,0,3.8336e-05,-0.00044212,-6.296e+08,-1.123e+06,0,1.1684e+07,2085.3,11096,11648,1,11648,1,-0.00060497,-1.2513e-06,0,0.00050864,-0.00026193,-2.4598e+08,-2.989e+05,0,1.616e+08,53244,11647,12600,1,12600,1,0.0014155,1.2322e-06,0,0.0015201,0.00011457,2.679e+08,2.9427e+05,0,3.0972e+08,2.7619e+05,12599,551.74,0,551.74,0,0.0011694,2.2873e-06,0,0.00065066,0.00021806,3.0084e+08,4.6662e+05,0,1.4721e+08,1.1209e+05,551.74,1
1904,6.26,12125,1,12125,1,0.00041621,-3.4991e-08,0,0.0010615,-7.5571e-05,494.27,-302.93,0,2.6239e+08,1.8679e+05,12124,13103,1,13103,1,0.0024021,7.8166e-06,0,0.0024021,0.00029177,3.1682e+08,1.354e+06,0,6.318e+08,3.7215e+05,13102,12124,1,12124,1,0.00041078,-4.5397e-09,0,0.0010086,-7.449e-05,1.1704e+08,-1088.9,0,2.677e+08,1.8829e+05,12123,11097,1,11097,1,-0.0015534,-8.26e-06,0,4.2036e-05,-0.00044626,-6.318e+08,-1.2799e+06,0,1.2896e+07,2540,11096,11648,1,11648,1,-0.0006041,-1.4529e-06,0,0.00051217,-0.00026418,-2.4562e+08,-3.4572e+05,0,1.6172e+08,58420,11647,12600,1,12600,1,0.0014282,1.4378e-06,0,0.0015298,0.00011446,2.677e+08,3.4447e+05,0,3.0784e+08,3.0797e+05,12599,551.74,0,551.74,0,0.0011767,2.6545e-06,0,0.00065614,0.0002194,3.0101e+08,5.3714e+05,0,1.4739e+08,1.276e+05,551.74,1
1904,6.27,12125,1,12125,1,0.00042411,-3.9673e-08,0,0.0010696,-7.6935e-05,346.25,-190.47,0,2.6249e+08,2.133e+05,12124,13103,1,13103,1,0.0024268,9.031e-06,0,0.0024268,0.00029289,3.1513e+08,1.5443e+06,0,6.342e+08,4.3742e+05,13102,12124,1,12124,1,0.00041784,-4.9555e-09,0,0.0010136,-7.5661e-05,1.1853e+08,-1129.8,0,2.6748e+08,2.1963e+05,12123,11097,1,11097,1,-0.0015593,-9.5004e-06,0,4.588e-05,-0.00045081,-6.342e+08,-1.4666e+06,0,1.4136e+07,2759.5,11096,11648,1,11648,1,-0.00060317,-1.7084e-06,0,0.00051603,-0.00026658,-2.4523e+08,-4.0425e+05,0,1.6184e+08,65330,11647,12600,1,12600,1,0.0014417,1.6868e-06,0,0.0015403,0.00011433,2.6748e+08,4.0372e+05,0,3.0584e+08,3.5681e+05,12599,551.74,0,551.74,0,0.0011845,3.0956e-06,0,0.0006621,0.00022086,3.0119e+08,6.2117e+05,0,1.4758e+08,1.4617e+05,551.74,1
1904,6.28,12125,1,12125,1,0.00043267,-4.8018e-08,0,0.0010784,-7.841e-05,56.394,-638.47,0,2.6257e+08,2.4427e+05,12124,13103,1,13103,1,0.0024541,1.0472e-05,0,0.0024541,0.0002941,3.1336e+08,1.767e+06,0,6.368e+08,5.1877e+05,13102,12124,1,12124,1,0.00042542,-1.0144e-08,0,0.0010188,-7.691e-05,1.2012e+08,-2465.4,0,2.6721e+08,2.5097e+05,12123,11097,1,11097,1,-0.0015657,-1.0966e-05,0,4.9891e-05,-0.00045583,-6.368e+08,-1.6838e+06,0,1.541e+07,2723,11096,11648,1,11648,1,-0.00060212,-2.0211e-06,0,0.00052025,-0.00026914,-2.448e+08,-4.7923e+05,0,1.6194e+08,76827,11647,12600,1,12600,1,0.0014561,1.9964e-06,0,0.0015546,0.00011418,2.6721e+08,4.7417e+05,0,3.0367e+08,4.0078e+05,12599,551.74,0,551.74,0,0.001193,3.629e-06,0,0.00066859,0.00022242,3.0137e+08,7.2145e+05,0,1.478e+08,1.6853e+05,551.74,1
1904,6.29,12125,1,12125,1,0.00044201,-4.724e-08,0,0.0010879,-8.0011e-05,802.85,1235.1,0,2.6265e+08,2.8047e+05,12124,13103,1,13103,1,0.0024845,1.2184e-05,0,0.0024845,0.00029543,3.115e+08,2.0284e+06,0,6.3965e+08,6.1955e+05,13102,12124,1,12124,1,0.00043359,2.9343e-09,0,0.0010263,-7.8245e-05,1.2182e+08,653.26,0,2.669e+08,2.7944e+05,12123,11097,1,11097,1,-0.0015727,-1.269e-05,0,5.4064e-05,-0.00046142,-6.3965e+08,-1.9398e+06,0,1.6716e+07,2998.9,11096,11648,1,11648,1,-0.00060095,-2.3784e-06,0,0.00052399,-0.00027189,-2.4432e+08,-5.6465e+05,0,1.6202e+08,90092,11647,12600,1,12600,1,0.0014717,2.3818e-06,0,0.0015655,0.000114,2.669e+08,5.6226e+05,0,3.0133e+08,4.5319e+05,12599,551.74,0,551.74,0,0.0012022,4.2754e-06,0,0.00067571,0.00022412,3.0156e+08,8.4184e+05,0,1.4805e+08,1.9579e+05,551.74,1
1904,6.3,12125,1,12125,1,0.00045227,-6.5268e-08,0,0.0010984,-8.1759e-05,19.514,-664.25,0,2.6271e+08,3.2305e+05,12124,13103,1,13103,1,0.0025187,1.4213e-05,0,0.0025187,0.00029691,3.0959e+08,2.3353e+06,0,6.4281e+08,7.4582e+05,13102,12124,1,12124,1,0.00044244,-1.689e-08,0,0.0010397,-7.9684e-05,1.2364e+08,-3626.8,0,2.6653e+08,3.1683e+05,12123,11097,1,11097,1,-0.0015805,-1.4736e-05,0,5.8391e-05,-0.00046771,-6.4281e+08,-2.2445e+06,0,1.8048e+07,2933.3,11096,11648,1,11648,1,-0.00059966,-2.8641e-06,0,0.00052343,-0.00027486,-2.4378e+08,-6.7855e+05,0,1.6209e+08,1.0487e+05,11647,12600,1,12600,1,0.0014886,2.8249e-06,0,0.0015752,0.00011378,2.6653e+08,6.6977e+05,0,2.9881e+08,5.2148e+05,12599,551.74,0,551.74,0,0.0012123,5.0658e-06,0,0.00068357,0.00022597,3.0176e+08,9.8742e+05,0,1.4834e+08,2.296e+05,551.74,1
1904,6.31,12125,1,12125,1,0.00046358,-6.6437e-08,0,0.0011098,-8.3679e-05,580.88,1371.4,0,2.6275e+08,3.7291e+05,12124,13103,1,13103,1,0.0025575,1.6649e-05,0,0.0025575,0.00029854,3.0756e+08,2.6933e+06,0,6.4631e+08,9.0492e+05,13102,12124,1,12124,1,0.00045209,-5.032e-09,0,0.0010543,-8.1241e-05,1.2561e+08,-1279.4,0,2.6609e+08,3.5756e+05,12123,11097,1,11097,1,-0.0015891,-1.7149e-05,0,5.958e-05,-0.00047484,-6.4631e+08,-2.6008e+06,0,1.9415e+07,2661.8,11096,11648,1,11648,1,-0.00059817,-3.4306e-06,0,0.00052269,-0.00027808,-2.4317e+08,-8.0354e+05,0,1.621e+08,1.1778e+05,11647,12600,1,12600,1,0.0015069,3.4068e-06,0,0.0015851,0.0001135,2.6609e+08,8.0368e+05,0,2.9603e+08,5.9154e+05,12599,551.74,0,551.74,0,0.0012233,6.0414e-06,0,0.00069231,0.000228,3.0195e+08,1.164e+06,0,1.4867e+08,2.7225e+05,551.74,1
1904,6.32,12125,1,12125,1,0.00047617,-7.7339e-08,0,0.0011224,-8.5804e-05,577.06,1981,0,2.6277e+08,4.3129e+05,12124,13103,1,13103,1,0.0026021,1.9544e-05,0,0.0026021,0.00030039,3.0547e+08,3.113e+06,0,6.5026e+08,1.1076e+06,13102,12124,1,12124,1,0.00046266,-9.5928e-09,0,0.0010702,-8.2939e-05,1.2774e+08,-2198.6,0,2.6557e+08,3.8773e+05,12123,11097,1,11097,1,-0.0015988,-2.0003e-05,0,5.0742e-05,-0.00048305,-6.5026e+08,-3.0206e+06,0,2.0631e+07,2406.3,11096,11648,1,11648,1,-0.00059648,-4.1565e-06,0,0.0005218,-0.00028159,-2.4247e+08,-9.6611e+05,0,1.6208e+08,1.2717e+05,11647,12600,1,12600,1,0.001527,4.1397e-06,0,0.0015956,0.00011316,2.6557e+08,9.7276e+05,0,2.9243e+08,6.9282e+05,12599,551.74,0,551.74,0,0.0012355,7.2493e-06,0,0.00070212,0.00023024,3.0215e+08,1.3795e+06,0,1.4905e+08,3.2708e+05,551.74,1
1904,6.33,12125,1,12125,1,0.00049028,-9.2979e-08,0,0.0011365,-8.8177e-05,216.25,1978,0,2.6276e+08,4.9974e+05,12124,13103,1,13103,1,0.002654,2.3035e-05,0,0.002654,0.00030249,3.0331e+08,3.5988e+06,0,6.5477e+08,1.3685e+06,13102,12124,1,12124,1,0.0004744,-1.4803e-08,0,0.0010878,-8.4822e-05,1.3008e+08,-3075.8,0,2.6494e+08,4.1592e+05,12123,11097,1,11097,1,-0.0016099,-2.3338e-05,0,4.0526e-05,-0.00049261,-6.5477e+08,-3.5242e+06,0,1.6682e+07,1729,11096,11648,1,11648,1,-0.00059456,-5.089e-06,0,0.00052069,-0.00028546,-2.4168e+08,-1.1615e+06,0,1.6339e+08,1.3922e+05,11647,12600,1,12600,1,0.0015493,5.0313e-06,0,0.0016071,0.0001128,2.6494e+08,1.1694e+06,0,2.8806e+08,8.1125e+05,12599,551.74,0,551.74,0,0.0012492,8.7597e-06,0,0.00071325,0.00023275,3.0236e+08,1.644e+06,0,1.4949e+08,3.991e+05,551.74,1
1904,6.34,12125,1,12125,1,0.00050627,-1.1704e-07,0,0.0011524,-9.0863e-05,71.917,1039.8,0,2.6269e+08,5.7757e+05,12124,13103,1,13103,1,0.0027155,2.7034e-05,0,0.0027155,0.0003049,3.0104e+08,4.1562e+06,0,6.5993e+08,1.707e+06,13102,12124,1,12124,1,0.00048759,-3.6432e-08,0,0.0011048,-8.6938e-05,1.3266e+08,-5897.2,0,2.6416e+08,4.4432e+05,12123,11097,1,11097,1,-0.0016226,-2.722e-05,0,2.8526e-05,-0.00050393,-6.5993e+08,-4.098e+06,0,1.2212e+07,572.79,11096,11648,1,11648,1,-0.00059228,-6.3094e-06,0,0.00052135,-0.00028978,-2.4074e+08,-1.4148e+06,0,1.6574e+08,1.3647e+05,11647,12600,1,12600,1,0.0015813,6.2015e-06,0,0.0016199,0.00011243,2.6416e+08,1.4232e+06,0,2.8339e+08,9.4184e+05,12599,551.74,0,551.74,0,0.0012646,1.065e-05,0,0.000726,0.00023557,3.0256e+08,1.9676e+06,0,1.5001e+08,4.9598e+05,551.74,1
1904,6.35,12125,1,12125,1,0.0005246,-1.3452e-07,0,0.0011704,-9.3931e-05,807.03,1608.2,0,2.6257e+08,6.6713e+05,12124,13103,1,13103,1,0.0027898,3.1979e-05,0,0.0027898,0.00030773,2.9865e+08,4.8018e+06,0,6.6597e+08,2.1524e+06,13102,12124,1,12124,1,0.00050262,-5.3552e-08,0,0.0011248,-8.9354e-05,1.3555e+08,-8278.1,0,2.6235e+08,4.6676e+05,12123,11097,1,11097,1,-0.0016375,-3.2111e-05,0,1.4251e-05,-0.0005176,-6.6597e+08,-4.7789e+06,0,7.1238e+06,-96647,11096,11648,1,11648,1,-0.00058956,-7.8709e-06,0,0.00052329,-0.00029729,-2.3962e+08,-1.7436e+06,0,1.6837e+08,1.0916e+05,11647,12600,1,12600,1,0.0016241,7.7894e-06,0,0.0016345,0.00011198,2.6235e+08,1.7556e+06,0,2.7883e+08,1.1189e+06,12599,551.74,0,551.74,0,0.0012821,1.3051e-05,0,0.00074084,0.00023878,3.0277e+08,2.3693e+06,0,1.5064e+08,6.2918e+05,551.74,1
1904,6.36,12125,1,12125,1,0.00054589,-1.5146e-07,0,0.0011912,-9.747e-05,-380.88,3029.2,0,2.6237e+08,7.6952e+05,12124,13103,1,13103,1,0.0028814,3.8557e-05,0,0.0028814,0.00031109,2.9611e+08,5.6223e+06,0,6.7315e+08,2.7432e+06,13102,12124,1,12124,1,0.00051998,-6.9005e-08,0,0.0011371,-9.2088e-05,1.3883e+08,-11044,0,2.6007e+08,4.9004e+05,12123,11097,1,11097,1,-0.0016551,-3.8668e-05,0,2.8278e-06,-0.00053447,-6.7315e+08,-5.5939e+06,0,1.0388e+06,-4.0943e+05,11096,11648,1,11648,1,-0.00058628,-9.7554e-06,0,0.00052488,-0.0003055,-2.3827e+08,-2.1507e+06,0,1.7133e+08,77607,11647,12600,1,12600,1,0.0016703,9.733e-06,0,0.0016705,0.00011144,2.6003e+08,2.1406e+06,0,2.7446e+08,1.3441e+06,12599,551.74,0,551.74,0,0.0013024,1.6153e-05,0,0.00075836,0.00024248,3.0297e+08,2.8725e+06,0,1.514e+08,8.1623e+05,551.74,1
1904,6.37,12125,1,12125,1,0.0005711,-1.8513e-07,0,0.0012161,-0.00010158,-3321.3,2131.4,0,2.6219e+08,8.8555e+05,12124,13103,1,13103,1,0.002998,4.753e-05,0,0.002998,0.00031519,2.9343e+08,6.6933e+06,0,6.8188e+08,3.5573e+06,13102,12124,1,12124,1,0.00054072,-1.0961e-07,0,0.0011479,-9.5018e-05,1.4261e+08,-17387,0,2.5621e+08,4.9291e+05,12123,11097,1,11097,1,-0.0016766,-4.7653e-05,0,9.7915e-06,-0.00055595,-6.8188e+08,-6.6696e+06,0,2.4865e+06,-8.785e+05,11096,11648,1,11648,1,-0.00058227,-1.2259e-05,0,0.00054073,-0.00031405,-2.3662e+08,-2.6456e+06,0,1.7473e+08,28738,11647,12600,1,12600,1,0.0017214,1.2036e-05,0,0.0017218,0.0001108,2.5619e+08,2.679e+06,0,2.7002e+08,1.6105e+06,12599,551.74,0,551.74,0,0.0013266,2.0225e-05,0,0.00077896,0.00024683,3.0318e+08,3.5107e+06,0,1.5215e+08,1.083e+06,551.74,1
1904,6.38,12125,1,12125,1,0.00060164,-2.1065e-07,0,0.0012463,-0.00010648,-2198.9,3288.3,0,2.62e+08,1.0163e+06,12124,13103,1,13103,1,0.0031512,6.0207e-05,0,0.0031512,0.00032029,2.9042e+08,8.1363e+06,0,6.9277e+08,4.7003e+06,13102,12124,1,12124,1,0.00057937,-1.5295e-07,0,0.0011575,-9.8345e-05,1.4809e+08,-24369,0,2.5218e+08,4.8009e+05,12123,11097,1,11097,1,-0.0017034,-6.0356e-05,0,1.4324e-05,-0.00058416,-6.9277e+08,-8.1065e+06,0,4.0135e+06,-1.5204e+06,11096,11648,1,11648,1,-0.00057713,-1.5366e-05,0,0.0005794,-0.00032334,-2.345e+08,-3.3722e+06,0,1.8086e+08,564.79,11647,12600,1,12600,1,0.0017657,1.5333e-05,0,0.0017664,0.00011008,2.5213e+08,3.3825e+06,0,2.6657e+08,1.942e+06,12599,551.74,0,551.74,0,0.0013559,2.5698e-05,0,0.00080447,0.00025204,3.034e+08,4.3321e+06,0,1.5293e+08,1.4669e+06,551.74,1
1904,6.39,12125,1,12125,1,0.00063985,-2.4909e-07,0,0.0012838,-0.00011248,20.606,2419.8,0,2.6166e+08,1.1632e+06,12124,13103,1,13103,1,0.0033615,7.8827e-05,0,0.0033615,0.00032687,2.8696e+08,1.0108e+07,0,7.0677e+08,6.3423e+06,13102,12124,1,12124,1,0.00062502,-2.3949e-07,0,0.001181,-0.00010225,1.564e+08,-39006,0,2.4788e+08,4.4342e+05,12123,11097,1,11097,1,-0.0017378,-7.8978e-05,0,1.7874e-05,-0.00062292,-7.0677e+08,-1.0077e+07,0,5.3076e+06,-2.3771e+06,11096,11648,1,11648,1,-0.0005703,-2.0293e-05,0,0.00062506,-0.00033128,-2.3167e+08,-4.3165e+06,0,1.8634e+08,-88428,11647,12600,1,12600,1,0.0018074,1.964e-05,0,0.0018088,0.00010939,2.4784e+08,4.3423e+06,0,2.6367e+08,2.4215e+06,12599,551.74,0,551.74,0,0.001393,3.3315e-05,0,0.00083786,0.0002585,3.0361e+08,5.411e+06,0,1.5395e+08,2.027e+06,551.74,1
1904,6.4,12125,1,12125,1,0.00068943,-2.8488e-07,0,0.0013322,-0.00012006,-693.69,3537.1,0,2.6107e+08,1.3325e+06,12124,13103,1,13103,1,0.0036672,0.00010769,0,0.0036672,0.0003357,2.8282e+08,1.2897e+07,0,7.2554e+08,8.7704e+06,13102,12124,1,12124,1,0.00067715,-3.3206e-07,0,0.001203,-0.00010763,1.6538e+08,-53507,0,2.4341e+08,3.7359e+05,12123,11097,1,11097,1,-0.001784,-0.0001078,0,2.0598e-05,-0.00067929,-7.2554e+08,-1.2856e+07,0,6.3981e+06,-3.5081e+06,11096,11648,1,11648,1,-0.0005609,-2.6814e-05,0,0.00063227,-0.00033954,-2.2775e+08,-5.623e+06,0,1.8329e+08,-3.8633e+05,11647,12600,1,12600,1,0.0018958,2.6138e-05,0,0.001898,0.00010871,2.4328e+08,5.6497e+06,0,2.5991e+08,2.9432e+06,12599,551.74,0,551.74,0,0.0014424,4.4474e-05,0,0.00088448,0.00026683,3.0385e+08,6.875e+06,0,1.5548e+08,2.8592e+06,551.74,1
1904,6.41,12125,1,12125,1,0.00075755,-3.3173e-07,0,0.0013981,-0.00012997,-799.66,1752.5,0,2.6e+08,1.5242e+06,12124,13103,1,13103,1,0.0041473,0.00015559,0,0.0041473,0.0003481,2.7738e+08,1.6977e+07,0,7.5185e+08,1.2505e+07,13102,12124,1,12124,1,0.00073326,-4.7216e-07,0,0.001254,-0.00011515,1.7537e+08,-72302,0,2.3936e+08,2.5271e+05,12123,11097,1,11097,1,-0.0018487,-0.00015568,0,5.002e-06,-0.0007679,-7.5185e+08,-1.6951e+07,0,3.1517e+05,-5.0773e+06,11096,11648,1,11648,1,-0.00054681,-3.5623e-05,0,0.00062431,-0.00035006,-2.2184e+08,-7.4498e+06,0,1.847e+08,-1.022e+06,11647,12600,1,12600,1,0.0019714,3.4776e-05,0,0.0019735,0.00010801,2.3934e+08,7.4868e+06,0,2.5809e+08,3.7529e+06,12599,551.74,0,551.74,0,0.0015133,6.1956e-05,0,0.00095527,0.00027823,3.0411e+08,8.9292e+06,0,1.5788e+08,4.1344e+06,551.74,1
1904,6.42,12125,1,12125,1,0.00085781,-3.8701e-07,0,0.0014959,-0.0001433,-1211.4,830.24,0,2.5863e+08,1.7493e+06,12124,13103,1,13103,1,0.004989,0.00024665,0,0.004989,0.00036688,2.7024e+08,2.3488e+07,0,7.9158e+08,1.8596e+07,13102,12124,1,12124,1,0.00079677,-6.2748e-07,0,0.001294,-0.00013075,1.714e+08,-94861,0,2.3351e+08,1.0524e+05,12123,11097,1,11097,1,-0.0019465,-0.00024693,0,2.3266e-05,-0.00092349,-7.9158e+08,-2.3459e+07,0,7.7364e+06,-7.6483e+06,11096,11648,1,11648,1,-0.00052426,-4.9123e-05,0,0.00061837,-0.00036458,-2.123e+08,-1.0087e+07,0,1.759e+08,-2.2455e+06,11647,12600,1,12600,1,0.0020724,4.8019e-05,0,0.002074,0.00010564,2.331e+08,1.0103e+07,0,2.5998e+08,4.8698e+06,12599,551.74,0,551.74,0,0.0016269,9.2239e-05,0,0.0010736,0.00029507,3.0458e+08,1.1972e+07,0,1.6121e+08,6.1694e+06,551.74,1
1904,6.43,12125,1,12125,1,0.0010198,-4.0624e-07,0,0.0016539,-0.0001613,-17.317,6977,0,2.5603e+08,2.0207e+06,12124,13103,1,13103,1,0.0067199,0.00044999,0,0.0067199,0.00039739,2.8563e+08,3.4444e+07,0,8.5588e+08,2.8848e+07,13102,12124,1,12124,1,0.00091153,-3.9247e-07,0,0.0013738,-0.00015302,1.5788e+08,-58385,0,2.2481e+08,-62927,12123,11097,1,11097,1,-0.0021048,-0.00045064,0,9.2132e-06,-0.001244,-8.5588e+08,-3.4393e+07,0,2.6587e+06,-1.2132e+07,11096,11648,1,11648,1,-0.00048238,-7.3017e-05,0,0.00073082,-0.00036494,-1.9449e+08,-1.3754e+07,0,1.6282e+08,-4.2881e+06,11647,12600,1,12600,1,0.0021923,7.1838e-05,0,0.0021972,9.5927e-05,2.2594e+08,1.4e+07,0,2.6842e+08,6.3805e+06,12599,551.74,0,551.74,0,0.0018392,0.00015258,0,0.0013075,0.00032249,3.0544e+08,1.6689e+07,0,1.6729e+08,9.5319e+06,551.74,1
1904,6.44,12125,1,12125,1,0.0013117,-4.3864e-07,0,0.0019416,-0.00018105,-440.04,9582.4,0,2.511e+08,2.3447e+06,12124,13103,1,13103,1,0.01124,0.0010191,0,0.01124,0.00045057,3.1868e+08,5.3487e+07,0,9.6717e+08,4.5778e+07,13102,12124,1,12124,1,0.0010606,-8.5e-07,0,0.0014404,-0.00017228,1.4303e+08,-1.1075e+05,0,2.1144e+08,-2.7484e+05,12123,11097,1,11097,1,-0.0023787,-0.0010192,0,2.5631e-05,-0.0020702,-9.6717e+08,-5.3401e+07,0,7.9719e+06,-2.013e+07,11096,11648,1,11648,1,-0.00038537,-0.00011199,0,0.00072567,-0.00035763,-1.5491e+08,-1.862e+07,0,1.4651e+08,-7.9365e+06,11647,12600,1,12600,1,0.0022746,0.00011268,0,0.0023264,8.5121e-05,2.139e+08,1.8767e+07,0,2.8461e+08,9.0251e+06,12599,551.74,0,551.74,0,0.0023334,0.00029772,0,0.0018663,0.00037203,3.0691e+08,2.4153e+07,0,1.7803e+08,1.5076e+07,551.74,1
1904,6.44,12125,1,12125,1,0.001362,-4.3716e-07,0,0.0019921,-0.00018168,-0.68336,10260,0,2.5031e+08,2.3934e+06,12124,13103,1,13103,1,0.012461,0.0011781,0,0.012461,0.00045972,3.2584e+08,5.6753e+07,0,9.863e+08,4.8884e+07,13102,12124,1,12124,1,0.001067,-5.1775e-07,0,0.0014458,-0.00017763,1.4098e+08,-95232,0,2.1021e+08,-3.4091e+05,12123,11097,1,11097,1,-0.0024258,-0.0011773,0,7.2308e-06,-0.002286,-9.863e+08,-5.6717e+07,0,2.3458e+06,-2.1589e+07,11096,11648,1,11648,1,-0.00036925,-0.00011857,0,0.00072052,-0.00035184,-1.4884e+08,-1.9687e+07,0,1.4389e+08,-8.5755e+06,11647,12600,1,12600,1,0.0022727,0.00011925,0,0.0023429,8.3771e-05,2.1245e+08,1.9556e+07,0,2.8404e+08,9.3666e+06,12599,551.74,0,551.74,0,0.0024409,0.00033303,0,0.0019884,0.00037969,3.0737e+08,2.543e+07,0,1.801e+08,1.6048e+07,551.74,1
