"N","Time","avg(GlobalElementId)","avg(ObjectId)","avg(PedigreeElementId)","avg(alpha)","avg(strain_x (0))","avg(strain_x (1))","avg(strain_x (2))","avg(strain_x (Magnitude))","avg(strain_yy)","avg(stress_x (0))","avg(stress_x (1))","avg(stress_x (2))","avg(stress_x (Magnitude))","avg(stress_yy)","avg(vtkOriginalCellIds)","max(GlobalElementId)","max(ObjectId)","max(PedigreeElementId)","max(alpha)","max(strain_x (0))","max(strain_x (1))","max(strain_x (2))","max(strain_x (Magnitude))","max(strain_yy)","max(stress_x (0))","max(stress_x (1))","max(stress_x (2))","max(stress_x (Magnitude))","max(stress_yy)","max(vtkOriginalCellIds)","med(GlobalElementId)","med(ObjectId)","med(PedigreeElementId)","med(alpha)","med(strain_x (0))","med(strain_x (1))","med(strain_x (2))","med(strain_x (Magnitude))","med(strain_yy)","med(stress_x (0))","med(stress_x (1))","med(stress_x (2))","med(stress_x (Magnitude))","med(stress_yy)","med(vtkOriginalCellIds)","min(GlobalElementId)","min(ObjectId)","min(PedigreeElementId)","min(alpha)","min(strain_x (0))","min(strain_x (1))","min(strain_x (2))","min(strain_x (Magnitude))","min(strain_yy)","min(stress_x (0))","min(stress_x (1))","min(stress_x (2))","min(stress_x (Magnitude))","min(stress_yy)","min(vtkOriginalCellIds)","q1(GlobalElementId)","q1(ObjectId)","q1(PedigreeElementId)","q1(alpha)","q1(strain_x (0))","q1(strain_x (1))","q1(strain_x (2))","q1(strain_x (Magnitude))","q1(strain_yy)","q1(stress_x (0))","q1(stress_x (1))","q1(stress_x (2))","q1(stress_x (Magnitude))","q1(stress_yy)","q1(vtkOriginalCellIds)","q3(GlobalElementId)","q3(ObjectId)","q3(PedigreeElementId)","q3(alpha)","q3(strain_x (0))","q3(strain_x (1))","q3(strain_x (2))","q3(strain_x (Magnitude))","q3(strain_yy)","q3(stress_x (0))","q3(stress_x (1))","q3(stress_x (2))","q3(stress_x (Magnitude))","q3(stress_yy)","q3(vtkOriginalCellIds)","std(GlobalElementId)","std(ObjectId)","std(PedigreeElementId)","std(alpha)","std(strain_x (0))","std(strain_x (1))","std(strain_x (2))","std(strain_x (Magnitude))","std(strain_yy)","std(stress_x (0))","std(stress_x (1))","std(stress_x (2))","std(stress_x (Magnitude))","std(stress_yy)","std(vtkOriginalCellIds)","vtkValidPointMask"
1960,0,12124,1,12124,1,0,0,0,0,0,0,0,0,0,0,12123,13104,1,13104,1,0,0,0,0,0,0,0,0,0,0,13103,12124,1,12124,1,0,0,0,0,0,0,0,0,0,0,12123,11097,1,11097,1,0,0,0,0,0,0,0,0,0,0,11096,11634,1,11634,1,0,0,0,0,0,0,0,0,0,0,11633,12614,1,12614,1,0,0,0,0,0,0,0,0,0,0,12613,567.13,0,567.13,0,0,0,0,0,0,0,0,0,0,0,567.13,1
1960,0.01,12124,1,12124,1,6.6711e-09,-4.4652e-08,0,2.3198e-07,-4.3081e-10,2747.7,-15287,0,88607,330.75,12123,13104,1,13104,1,7.3721e-07,3.8295e-07,0,7.3808e-07,1.2474e-07,2.9983e+05,1.311e+05,0,3.0008e+05,11070,13103,12124,1,12124,1,7.2766e-09,-3.8383e-08,0,2.1034e-07,-1.4609e-09,2873.8,-13145,0,78809,148.2,12123,11097,1,11097,1,-7.0092e-07,-3.2214e-07,0,1.0716e-08,-1.3279e-07,-2.8566e+05,-1.1028e+05,0,4450.5,-11798,11096,11634,1,11634,1,-1.0509e-07,-1.4834e-07,0,1.5696e-07,-1.7649e-08,-43339,-50787,0,57178,-2758.1,11633,12614,1,12614,1,1.1831e-07,2.858e-08,0,2.9421e-07,1.6924e-08,48455,9785.8,0,1.1085e+05,2745.8,12613,567.13,0,567.13,0,2.1157e-07,1.4033e-07,0,1.1248e-07,3.8017e-08,86244,48042,0,46176,3963.6,567.13,1
1960,0.02,12124,1,12124,1,-7.592e-10,2.8718e-09,0,1.3547e-06,4.3488e-10,-663.85,983.79,0,5.4707e+05,112.41,12123,13104,1,13104,1,3.3894e-06,5.9137e-07,0,3.4736e-06,6.5273e-07,1.3763e+06,2.0253e+05,0,1.4128e+06,25340,13103,12124,1,12124,1,3.421e-09,-8.3625e-09,0,1.3343e-06,-5.0854e-09,304.46,-2862.1,0,5.4052e+05,-373.41,12123,11097,1,11097,1,-3.4735e-06,-3.8105e-07,0,7.9675e-08,-6.3857e-07,-1.4127e+06,-1.3047e+05,0,32831,-14173,11096,11634,1,11634,1,-1.3271e-06,-1.0772e-07,0,7.1676e-07,-2.6251e-07,-5.3881e+05,-36849,0,2.8356e+05,-4328.1,11633,12614,1,12614,1,1.3127e-06,8.4777e-08,0,1.9443e-06,2.6366e-07,5.3228e+05,29011,0,7.8949e+05,3887.5,12613,567.13,0,567.13,0,1.5392e-06,1.815e-07,0,7.5237e-07,2.9593e-07,6.2508e+05,62134,0,3.0846e+05,6685.8,567.13,1
1960,0.03,12124,1,12124,1,-8.667e-09,-4.2134e-08,0,2.5603e-06,-4.7482e-10,-4411.3,-14423,0,1.038e+06,-894.23,12123,13104,1,13104,1,5.8109e-06,5.0651e-07,0,5.8144e-06,1.0871e-06,2.3601e+06,1.7339e+05,0,2.3652e+06,15570,13103,12124,1,12124,1,-1.4576e-08,-2.7039e-08,0,2.5408e-06,-3.1534e-09,-6912.3,-9254.6,0,1.0313e+06,-598.79,12123,11097,1,11097,1,-5.8142e-06,-4.3207e-07,0,1.4809e-07,-1.0886e-06,-2.3651e+06,-1.479e+05,0,59294,-23293,11096,11634,1,11634,1,-2.5472e-06,-1.5108e-07,0,1.2779e-06,-4.9359e-07,-1.0352e+06,-51678,0,5.1686e+05,-4280.8,11633,12614,1,12614,1,2.5257e-06,4.7248e-08,0,3.8029e-06,4.9294e-07,1.0238e+06,16172,0,1.5432e+06,3503.6,12613,567.13,0,567.13,0,2.9348e-06,1.7103e-07,0,1.4441e-06,5.5744e-07,1.1923e+06,58547,0,5.8925e+05,6068.7,567.13,1
1960,0.04,12124,1,12124,1,1.1045e-08,-7.3754e-08,0,3.782e-06,2.2868e-10,3602.6,-25246,0,1.534e+06,957.3,12123,13104,1,13104,1,8.6551e-06,5.7675e-07,0,8.6553e-06,1.6083e-06,3.5152e+06,1.9753e+05,0,3.5153e+06,31340,13103,12124,1,12124,1,1.098e-08,-4.9401e-08,0,3.7627e-06,3.4264e-10,4558.8,-16919,0,1.5266e+06,598.39,12123,11097,1,11097,1,-8.5911e-06,-5.3581e-07,0,2.4455e-07,-1.6219e-06,-3.4946e+06,-1.834e+05,0,99393,-22900,11096,11634,1,11634,1,-3.7492e-06,-2.2612e-07,0,1.884e-06,-7.298e-07,-1.5235e+06,-77354,0,7.6217e+05,-4032.8,11633,12614,1,12614,1,3.7692e-06,4.5857e-08,0,5.6697e-06,7.2756e-07,1.5291e+06,15686,0,2.3039e+06,5478.2,12613,567.13,0,567.13,0,4.3426e-06,2.1826e-07,0,2.1448e-06,8.2328e-07,1.7643e+06,74713,0,8.745e+05,7544.4,567.13,1
1960,0.05,12124,1,12124,1,9.9384e-09,1.5641e-08,0,5.5375e-06,-6.3929e-09,2112.8,5353.5,0,2.2488e+06,-1919.7,12123,13104,1,13104,1,1.1465e-05,5.8121e-07,0,1.1575e-05,2.1718e-06,4.6566e+06,1.9894e+05,0,4.7077e+06,11927,13103,12124,1,12124,1,6.3113e-09,6.428e-10,0,5.6435e-06,-2.0164e-08,2121.7,220.17,0,2.2941e+06,-1199.2,12123,11097,1,11097,1,-1.1575e-05,-3.5272e-07,0,3.7117e-07,-2.1476e-06,-4.7077e+06,-1.2072e+05,0,1.5122e+05,-28588,11096,11634,1,11634,1,-5.6356e-06,-9.955e-08,0,2.7573e-06,-1.0881e-06,-2.2919e+06,-34074,0,1.1197e+06,-5723.7,11633,12614,1,12614,1,5.6415e-06,1.0855e-07,0,8.1799e-06,1.0625e-06,2.2902e+06,37180,0,3.3253e+06,3257.7,12613,567.13,0,567.13,0,6.3743e-06,1.8156e-07,0,3.16e-06,1.2027e-06,2.5902e+06,62151,0,1.2859e+06,6893.6,567.13,1
1960,0.06,12124,1,12124,1,2.2786e-09,-3.7882e-08,0,6.9046e-06,-1.0745e-09,-1082,-12967,0,2.8044e+06,-285.86,12123,13104,1,13104,1,1.4387e-05,5.6629e-07,0,1.4387e-05,2.6892e-06,5.8432e+06,1.9383e+05,0,5.8432e+06,12750,13103,12124,1,12124,1,8.3551e-10,-3.3685e-08,0,7.0483e-06,-3.6255e-10,411.99,-11529,0,2.8646e+06,116.53,12123,11097,1,11097,1,-1.4361e-05,-4.3464e-07,0,4.7663e-07,-2.6938e-06,-5.8413e+06,-1.4876e+05,0,1.9336e+05,-19416,11096,11634,1,11634,1,-7.0433e-06,-1.8185e-07,0,3.4413e-06,-1.3324e-06,-2.8635e+06,-62204,0,1.3966e+06,-4328.7,11633,12614,1,12614,1,7.0506e-06,6.5738e-08,0,1.0238e-05,1.3366e-06,2.863e+06,22501,0,4.1601e+06,3727,12613,567.13,0,567.13,0,7.9527e-06,2.0466e-07,0,3.9485e-06,1.4985e-06,3.2318e+06,70057,0,1.6065e+06,5813.8,567.13,1
1960,0.07,12124,1,12124,1,9.2651e-09,-4.4741e-08,0,8.0195e-06,-4.8106e-09,1250.2,-15315,0,3.2572e+06,-1310.3,12123,13104,1,13104,1,1.6663e-05,6.2669e-07,0,1.6663e-05,3.111e-06,6.7678e+06,2.146e+05,0,6.7678e+06,17097,13103,12124,1,12124,1,4.1013e-09,-3.4121e-08,0,8.1811e-06,-5.3696e-09,1300.5,-11670,0,3.3229e+06,-1089.3,12123,11097,1,11097,1,-1.661e-05,-5.6579e-07,0,5.508e-07,-3.1219e-06,-6.7562e+06,-1.9365e+05,0,2.2404e+05,-17368,11096,11634,1,11634,1,-8.1626e-06,-2.1358e-07,0,4.0022e-06,-1.5536e-06,-3.3185e+06,-73118,0,1.6257e+06,-5932.1,11633,12614,1,12614,1,8.1808e-06,8.7387e-08,0,1.1897e-05,1.5502e-06,3.3214e+06,29912,0,4.8343e+06,3919.4,12613,567.13,0,567.13,0,9.236e-06,2.4575e-07,0,4.5849e-06,1.7409e-06,3.7533e+06,84123,0,1.8654e+06,6512.1,567.13,1
1960,0.08,12124,1,12124,1,7.4701e-09,-9.5651e-08,0,9.3951e-06,-2.9889e-09,246.95,-32742,0,3.8165e+06,-686.22,12123,13104,1,13104,1,1.9649e-05,5.3634e-07,0,1.9649e-05,3.6745e-06,7.9802e+06,1.8366e+05,0,7.9802e+06,14399,13103,12124,1,12124,1,9.9965e-09,-5.7055e-08,0,9.6103e-06,-1.4351e-08,4185.2,-19533,0,3.9065e+06,-331.06,12123,11097,1,11097,1,-1.9611e-05,-5.6293e-07,0,6.3916e-07,-3.6815e-06,-7.9768e+06,-1.9267e+05,0,2.5984e+05,-24603,11096,11634,1,11634,1,-9.6055e-06,-2.7053e-07,0,4.6681e-06,-1.813e-06,-3.9052e+06,-92601,0,1.8951e+06,-5902.4,11633,12614,1,12614,1,9.6151e-06,4.5355e-08,0,1.39e-05,1.8233e-06,3.9046e+06,15524,0,5.6479e+06,4302,12613,567.13,0,567.13,0,1.0828e-05,2.3059e-07,0,5.384e-06,2.0392e-06,4.4002e+06,78935,0,2.19e+06,7106.5,567.13,1
1960,0.09,12124,1,12124,1,1.5144e-08,-1.2681e-08,0,1.1024e-05,-3.6363e-09,2965.3,-4339.6,0,4.4791e+06,-354.01,12123,13104,1,13104,1,2.2155e-05,5.7793e-07,0,2.2155e-05,4.1319e-06,8.9982e+06,1.9795e+05,0,8.9983e+06,17970,13103,12124,1,12124,1,1.0529e-08,-1.1353e-08,0,1.1127e-05,-2.5577e-09,3619.7,-3882.9,0,4.5217e+06,-600.98,12123,11097,1,11097,1,-2.2062e-05,-4.6645e-07,0,7.6145e-07,-4.1493e-06,-8.974e+06,-1.5964e+05,0,3.0975e+05,-16469,11096,11634,1,11634,1,-1.1111e-05,-1.4012e-07,0,5.5021e-06,-2.1058e-06,-4.5174e+06,-47973,0,2.2353e+06,-5072.4,11633,12614,1,12614,1,1.1142e-05,9.2126e-08,0,1.6417e-05,2.1045e-06,4.5247e+06,31555,0,6.6731e+06,4353.3,12613,567.13,0,567.13,0,1.2709e-05,2.0086e-07,0,6.3226e-06,2.3909e-06,5.165e+06,68756,0,2.5708e+06,6491.9,567.13,1
1960,0.1,12124,1,12124,1,9.0034e-09,-4.1711e-08,0,1.2348e-05,-2.9323e-09,57.665,-14278,0,5.0174e+06,-544.63,12123,13104,1,13104,1,2.4859e-05,5.12e-07,0,2.4859e-05,4.6476e-06,1.0096e+07,1.7524e+05,0,1.0096e+07,11558,13103,12124,1,12124,1,1.0946e-08,-2.7676e-08,0,1.2482e-05,-8.5175e-09,3651.3,-9465.5,0,5.0737e+06,-330.39,12123,11097,1,11097,1,-2.4796e-05,-4.794e-07,0,8.5181e-07,-4.6577e-06,-1.0086e+07,-1.6417e+05,0,3.4729e+05,-16005,11096,11634,1,11634,1,-1.2476e-05,-1.787e-07,0,6.1631e-06,-2.3552e-06,-5.0732e+06,-61139,0,2.5027e+06,-4770.6,11633,12614,1,12614,1,1.2494e-05,7.1896e-08,0,1.8413e-05,2.357e-06,5.0739e+06,24625,0,7.4836e+06,4391.5,12613,567.13,0,567.13,0,1.4238e-05,2.009e-07,0,7.0873e-06,2.6771e-06,5.7866e+06,68769,0,2.8815e+06,5969.4,567.13,1
1960,0.11,12124,1,12124,1,9.0918e-10,-3.0291e-08,0,1.3398e-05,-2.705e-09,-3631.8,-10368,0,5.4439e+06,-1090.7,12123,13104,1,13104,1,2.7044e-05,7.8344e-07,0,2.7045e-05,5.0556e-06,1.0984e+07,2.6828e+05,0,1.0984e+07,15250,13103,12124,1,12124,1,-5.818e-10,-4.0325e-08,0,1.3546e-05,-6.111e-09,-1287.9,-13792,0,5.5033e+06,-118.72,12123,11097,1,11097,1,-2.6985e-05,-5.2194e-07,0,9.3138e-07,-5.067e-06,-1.0976e+07,-1.7864e+05,0,3.7785e+05,-23707,11096,11634,1,11634,1,-1.3542e-05,-2.1534e-07,0,6.6853e-06,-2.5527e-06,-5.5063e+06,-73702,0,2.7151e+06,-5709.9,11633,12614,1,12614,1,1.3545e-05,9.1996e-08,0,1.9969e-05,2.5616e-06,5.5006e+06,31487,0,8.1156e+06,4593.8,12613,567.13,0,567.13,0,1.5446e-05,2.6476e-07,0,7.6837e-06,2.9059e-06,6.2773e+06,90629,0,3.1244e+06,7876.3,567.13,1
1960,0.12,12124,1,12124,1,-4.2964e-09,-6.8413e-08,0,1.5032e-05,-1.3218e-09,-6180,-23418,0,6.1084e+06,-921.38,12123,13104,1,13104,1,3.0324e-05,6.3637e-07,0,3.0324e-05,5.6799e-06,1.2316e+07,2.178e+05,0,1.2326e+07,15535,13103,12124,1,12124,1,-5.264e-09,-5.4699e-08,0,1.5211e-05,1.0685e-09,-2656.9,-18735,0,6.1809e+06,-10.757,12123,11097,1,11097,1,-3.0303e-05,-5.1358e-07,0,1.0491e-06,-5.6814e-06,-1.2326e+07,-1.7588e+05,0,4.2471e+05,-22037,11096,11634,1,11634,1,-1.5209e-05,-2.4036e-07,0,7.51e-06,-2.8618e-06,-6.1845e+06,-82273,0,3.0515e+06,-5597.8,11633,12614,1,12614,1,1.5201e-05,6.0947e-08,0,2.2408e-05,2.8705e-06,6.1737e+06,20861,0,9.107e+06,4293.2,12613,567.13,0,567.13,0,1.7335e-05,2.3471e-07,0,8.6299e-06,3.2581e-06,7.0453e+06,80345,0,3.5087e+06,6781.8,567.13,1
1960,0.13,12124,1,12124,1,1.6169e-08,-5.9765e-08,0,1.6608e-05,-5.4584e-09,1667.1,-20457,0,6.7492e+06,-1049.2,12123,13104,1,13104,1,3.3285e-05,5.8376e-07,0,3.3285e-05,6.2228e-06,1.3519e+07,1.9994e+05,0,1.3519e+07,26567,13103,12124,1,12124,1,2.0251e-08,-4.6584e-08,0,1.6792e-05,-8.4455e-09,6885.7,-15944,0,6.8247e+06,-799.99,12123,11097,1,11097,1,-3.3221e-05,-4.7792e-07,0,1.1506e-06,-6.2385e-06,-1.3513e+07,-1.6366e+05,0,4.6903e+05,-23194,11096,11634,1,11634,1,-1.6774e-05,-1.9396e-07,0,8.2912e-06,-3.1646e-06,-6.8221e+06,-66434,0,3.3687e+06,-5466.3,11633,12614,1,12614,1,1.6803e-05,4.2251e-08,0,2.4779e-05,3.1507e-06,6.8242e+06,14463,0,1.0072e+07,3324.4,12613,567.13,0,567.13,0,1.9157e-05,2.0305e-07,0,9.5427e-06,3.6007e-06,7.7858e+06,69510,0,3.8793e+06,7526.1,567.13,1
1960,0.14,12124,1,12124,1,9.0445e-09,-1.3589e-08,0,1.816e-05,-3.5294e-09,-1622.6,-4650.1,0,7.3799e+06,-801.88,12123,13104,1,13104,1,3.6029e-05,6.8019e-07,0,3.6029e-05,6.7455e-06,1.4633e+07,2.3293e+05,0,1.4637e+07,18126,13103,12124,1,12124,1,1.2427e-08,-1.9096e-08,0,1.8276e-05,-9.988e-09,4356.4,-6540.7,0,7.4274e+06,-550.58,12123,11097,1,11097,1,-3.5986e-05,-4.6175e-07,0,1.2675e-06,-6.7539e-06,-1.4637e+07,-1.5803e+05,0,5.1529e+05,-22655,11096,11634,1,11634,1,-1.8259e-05,-1.7316e-07,0,9.0697e-06,-3.4458e-06,-7.4256e+06,-59270,0,3.6854e+06,-4918.5,11633,12614,1,12614,1,1.8289e-05,1.0597e-07,0,2.7121e-05,3.4413e-06,7.4276e+06,36269,0,1.1022e+07,4314,12613,567.13,0,567.13,0,2.0947e-05,2.335e-07,0,1.0433e-05,3.9367e-06,8.5131e+06,79931,0,4.2413e+06,6871.3,567.13,1
1960,0.15,12124,1,12124,1,1.2683e-09,-2.1736e-08,0,1.9014e-05,-5.1278e-09,-5266.8,-7440.4,0,7.7263e+06,-2091.3,12123,13104,1,13104,1,3.7828e-05,7.2069e-07,0,3.7828e-05,7.0822e-06,1.5363e+07,2.4666e+05,0,1.5374e+07,21132,13103,12124,1,12124,1,2.4545e-09,-1.9708e-08,0,1.9154e-05,-1.4969e-08,-160.66,-6740.2,0,7.7844e+06,-1245.7,12123,11097,1,11097,1,-3.7797e-05,-5.7759e-07,0,1.3386e-06,-7.0911e-06,-1.5374e+07,-1.9768e+05,0,5.4405e+05,-24168,11096,11634,1,11634,1,-1.9147e-05,-1.9788e-07,0,9.4912e-06,-3.6079e-06,-7.7864e+06,-67704,0,3.8565e+06,-7733.9,11633,12614,1,12614,1,1.9159e-05,1.2873e-07,0,2.8379e-05,3.6074e-06,7.7806e+06,44069,0,1.1532e+07,4250.4,12613,567.13,0,567.13,0,2.193e-05,2.6349e-07,0,1.0922e-05,4.1232e-06,8.9125e+06,90197,0,4.44e+06,8674.8,567.13,1
1960,0.16,12124,1,12124,1,2.3502e-08,-5.5066e-08,0,2.0926e-05,-2.2434e-09,3784.5,-18849,0,8.5037e+06,878,12123,13104,1,13104,1,4.1717e-05,6.0093e-07,0,4.1717e-05,7.7993e-06,1.6943e+07,2.0567e+05,0,1.6943e+07,20649,13103,12124,1,12124,1,7.7006e-09,-3.8379e-08,0,2.1108e-05,-1.9441e-09,3411.3,-13145,0,8.5787e+06,634.22,12123,11097,1,11097,1,-4.1613e-05,-5.4358e-07,0,1.4544e-06,-7.8198e-06,-1.6926e+07,-1.8604e+05,0,5.9124e+05,-19054,11096,11634,1,11634,1,-2.1072e-05,-2.2387e-07,0,1.045e-05,-3.9749e-06,-8.569e+06,-76583,0,4.2452e+06,-4875.5,11633,12614,1,12614,1,2.1131e-05,7.7334e-08,0,3.1255e-05,3.974e-06,8.5823e+06,26451,0,1.2702e+07,6489.8,12613,567.13,0,567.13,0,2.4139e-05,2.3788e-07,0,1.2027e-05,4.5362e-06,9.8105e+06,81427,0,4.8891e+06,7666.1,567.13,1
1960,0.17,12124,1,12124,1,2.6653e-08,-3.0494e-08,0,2.2226e-05,-4.2995e-09,4579.8,-10438,0,9.0328e+06,258.64,12123,13104,1,13104,1,4.3947e-05,5.5455e-07,0,4.3947e-05,8.2178e-06,1.7848e+07,1.8991e+05,0,1.7848e+07,19380,13103,12124,1,12124,1,2.5279e-08,-1.3932e-08,0,2.2389e-05,2.6262e-10,9131.7,-4765.1,0,9.0997e+06,-110.49,12123,11097,1,11097,1,-4.3845e-05,-5.0188e-07,0,1.5484e-06,-8.2408e-06,-1.7834e+07,-1.7177e+05,0,6.3063e+05,-14005,11096,11634,1,11634,1,-2.2343e-05,-1.6072e-07,0,1.1103e-05,-4.2191e-06,-9.0872e+06,-55010,0,4.5115e+06,-4528.6,11633,12614,1,12614,1,2.2407e-05,7.9929e-08,0,3.3226e-05,4.1992e-06,9.1e+06,27366,0,1.3504e+07,4598.3,12613,567.13,0,567.13,0,2.5642e-05,2.0587e-07,0,1.2779e-05,4.816e-06,1.0422e+07,70474,0,5.1944e+06,6583.5,567.13,1
1960,0.18,12124,1,12124,1,2.7717e-09,-1.7192e-08,0,2.3511e-05,-2.9224e-09,-5737.4,-5884.4,0,9.5548e+06,-1050.2,12123,13104,1,13104,1,4.6455e-05,6.6555e-07,0,4.6455e-05,8.7012e-06,1.8867e+07,2.2792e+05,0,1.8878e+07,22082,13103,12124,1,12124,1,3.0296e-09,-1.7831e-08,0,2.3635e-05,-2.1722e-09,860.55,-6100.7,0,9.6093e+06,-631.79,12123,11097,1,11097,1,-4.6412e-05,-4.8037e-07,0,1.6437e-06,-8.7085e-06,-1.8878e+07,-1.644e+05,0,6.6967e+05,-18326,11096,11634,1,11634,1,-2.3631e-05,-1.8207e-07,0,1.1744e-05,-4.4469e-06,-9.6101e+06,-62285,0,4.7722e+06,-6676,11633,12614,1,12614,1,2.3649e-05,1.0562e-07,0,3.5144e-05,4.4487e-06,9.605e+06,36152,0,1.4282e+07,4113.1,12613,567.13,0,567.13,0,2.7124e-05,2.3985e-07,0,1.3517e-05,5.0946e-06,1.1024e+07,82105,0,5.4946e+06,7552.1,567.13,1
1960,0.19,12124,1,12124,1,1.946e-08,-2.4206e-08,0,2.4984e-05,-6.4968e-09,592.37,-8285.3,0,1.0153e+07,-1240.1,12123,13104,1,13104,1,4.9308e-05,6.6317e-07,0,4.9308e-05,9.226e-06,2.0026e+07,2.2711e+05,0,2.0027e+07,11046,13103,12124,1,12124,1,1.579e-08,-1.7609e-08,0,2.5122e-05,-2.1372e-08,5568,-6031.3,0,1.021e+07,-622.75,12123,11097,1,11097,1,-4.9237e-05,-5.3373e-07,0,1.7514e-06,-9.2421e-06,-2.0027e+07,-1.8278e+05,0,7.1214e+05,-19086,11096,11634,1,11634,1,-2.5104e-05,-1.7909e-07,0,1.2481e-05,-4.7292e-06,-1.0209e+07,-61309,0,5.0723e+06,-6358.2,11633,12614,1,12614,1,2.5142e-05,1.0047e-07,0,3.7354e-05,4.7224e-06,1.0211e+07,34363,0,1.5178e+07,4641.4,12613,567.13,0,567.13,0,2.8823e-05,2.378e-07,0,1.4364e-05,5.4137e-06,1.1714e+07,81402,0,5.8387e+06,7155.5,567.13,1
1960,0.2,12124,1,12124,1,3.4643e-08,-2.0799e-08,0,2.659e-05,-6.7534e-09,6511.5,-7119.6,0,1.0807e+07,-151.13,12123,13104,1,13104,1,5.2249e-05,5.2686e-07,0,5.2249e-05,9.7694e-06,2.122e+07,1.8046e+05,0,2.122e+07,19242,13103,12124,1,12124,1,2.9565e-08,-1.3663e-08,0,2.6714e-05,-1.3696e-08,11298,-4673.9,0,1.0857e+07,-226.6,12123,11097,1,11097,1,-5.2131e-05,-4.7314e-07,0,1.8552e-06,-9.7956e-06,-2.1204e+07,-1.6203e+05,0,7.5434e+05,-14057,11096,11634,1,11634,1,-2.667e-05,-1.3565e-07,0,1.3284e-05,-5.0285e-06,-1.0846e+07,-46440,0,5.4e+06,-4222.2,11633,12614,1,12614,1,2.6748e-05,7.9205e-08,0,3.9783e-05,5.0168e-06,1.0864e+07,27118,0,1.6168e+07,4344.8,12613,567.13,0,567.13,0,3.068e-05,1.8593e-07,0,1.5295e-05,5.7589e-06,1.247e+07,63645,0,6.2167e+06,5263.5,567.13,1
1960,0.21,12124,1,12124,1,1.9133e-08,-5.3418e-08,0,2.7971e-05,-5.2412e-09,-295.78,-18286,0,1.1368e+07,-741.72,12123,13104,1,13104,1,5.5167e-05,5.2494e-07,0,5.5167e-05,1.0333e-05,2.2405e+07,1.7977e+05,0,2.2422e+07,11998,13103,12124,1,12124,1,1.6487e-08,-3.3503e-08,0,2.814e-05,-2.9688e-09,6384,-11466,0,1.1438e+07,-532.95,12123,11097,1,11097,1,-5.5124e-05,-4.9008e-07,0,1.9585e-06,-1.0342e-05,-2.2422e+07,-1.6783e+05,0,7.9674e+05,-16547,11096,11634,1,11634,1,-2.8123e-05,-1.9676e-07,0,1.3973e-05,-5.2935e-06,-1.1438e+07,-67356,0,5.6786e+06,-5173.4,11633,12614,1,12614,1,2.8162e-05,6.2095e-08,0,4.1839e-05,5.2854e-06,1.1438e+07,21268,0,1.7005e+07,3757.9,12613,567.13,0,567.13,0,3.2275e-05,2.0659e-07,0,1.609e-05,6.0589e-06,1.3117e+07,70719,0,6.5402e+06,5874,567.13,1
1960,0.22,12124,1,12124,1,3.9169e-08,-6.0655e-08,0,2.9269e-05,-1.0337e-08,7373.4,-20763,0,1.1896e+07,-1307.9,12123,13104,1,13104,1,5.775e-05,5.8628e-07,0,5.775e-05,1.0809e-05,2.3454e+07,2.0077e+05,0,2.3455e+07,18699,13103,12124,1,12124,1,3.564e-08,-5.3416e-08,0,2.9437e-05,-1.0092e-08,13834,-18295,0,1.1965e+07,-879.76,12123,11097,1,11097,1,-5.7666e-05,-4.7387e-07,0,2.0362e-06,-1.0827e-05,-2.3455e+07,-1.6228e+05,0,8.2869e+05,-23586,11096,11634,1,11634,1,-2.94e-05,-2.1574e-07,0,1.4625e-05,-5.5376e-06,-1.1957e+07,-73844,0,5.9433e+06,-5592.1,11633,12614,1,12614,1,2.947e-05,5.6745e-08,0,4.3784e-05,5.5238e-06,1.197e+07,19422,0,1.7796e+07,2927.8,12613,567.13,0,567.13,0,3.3773e-05,2.1511e-07,0,1.6838e-05,6.3395e-06,1.3726e+07,73635,0,6.8442e+06,6197.3,567.13,1
1960,0.23,12124,1,12124,1,2.7831e-08,-8.1639e-08,0,3.053e-05,-4.6977e-09,2682.6,-27946,0,1.2408e+07,170.16,12123,13104,1,13104,1,6.0258e-05,4.6063e-07,0,6.0258e-05,1.1283e-05,2.4473e+07,1.5777e+05,0,2.4487e+07,14691,13103,12124,1,12124,1,3.5131e-08,-4.8288e-08,0,3.0716e-05,-2.9174e-10,13778,-16527,0,1.2486e+07,192.91,12123,11097,1,11097,1,-6.0203e-05,-5.4476e-07,0,2.1259e-06,-1.1295e-05,-2.4487e+07,-1.8644e+05,0,8.6363e+05,-11615,11096,11634,1,11634,1,-3.07e-05,-2.2783e-07,0,1.5244e-05,-5.7738e-06,-1.2486e+07,-78034,0,6.1954e+06,-4322.8,11633,12614,1,12614,1,3.0746e-05,4.4956e-08,0,4.5656e-05,5.7686e-06,1.2488e+07,15388,0,1.8555e+07,4283.4,12613,567.13,0,567.13,0,3.5229e-05,2.1317e-07,0,1.7566e-05,6.6118e-06,1.4318e+07,72971,0,7.14e+06,5392.7,567.13,1
1960,0.24,12124,1,12124,1,2.2676e-08,2.781e-13,0,3.239e-05,-8.1095e-09,-289.28,-0.66532,0,1.3164e+07,-1677.5,12123,13104,1,13104,1,6.3336e-05,6.3288e-07,0,6.3336e-05,1.1885e-05,2.5723e+07,2.1656e+05,0,2.5759e+07,10993,13103,12124,1,12124,1,1.4165e-08,-1.0125e-08,0,3.2485e-05,-1.3466e-08,5377.1,-3468.1,0,1.3213e+07,-853.63,12123,11097,1,11097,1,-6.3331e-05,-4.0081e-07,0,2.2735e-06,-1.1877e-05,-2.5759e+07,-1.3724e+05,0,9.2443e+05,-26078,11096,11634,1,11634,1,-3.2484e-05,-1.3993e-07,0,1.618e-05,-6.1249e-06,-1.3213e+07,-47858,0,6.5767e+06,-6163.8,11633,12614,1,12614,1,3.25e-05,1.0412e-07,0,4.8473e-05,6.1037e-06,1.32e+07,35611,0,1.9703e+07,3574,12613,567.13,0,567.13,0,3.7375e-05,2.0758e-07,0,1.8635e-05,7.0162e-06,1.519e+07,71054,0,7.5744e+06,7148,567.13,1
1960,0.25,12124,1,12124,1,3.0204e-08,2.3513e-09,0,3.3946e-05,-6.262e-09,2575.9,804.76,0,1.3797e+07,-306.97,12123,13104,1,13104,1,6.6355e-05,5.2907e-07,0,6.6355e-05,1.2422e-05,2.6949e+07,1.8121e+05,0,2.6957e+07,12335,13103,12124,1,12124,1,3.0977e-08,-6.5808e-09,0,3.4029e-05,-6.3067e-09,11780,-2254,0,1.3831e+07,-4.3408,12123,11097,1,11097,1,-6.6275e-05,-4.0908e-07,0,2.3759e-06,-1.2439e-05,-2.6957e+07,-1.4001e+05,0,9.6622e+05,-15943,11096,11634,1,11634,1,-3.4004e-05,-1.3443e-07,0,1.6961e-05,-6.3977e-06,-1.383e+07,-45981,0,6.8946e+06,-4366.3,11633,12614,1,12614,1,3.4068e-05,1.1711e-07,0,5.081e-05,6.3908e-06,1.3837e+07,40112,0,2.065e+07,4125.4,12613,567.13,0,567.13,0,3.9172e-05,2.0287e-07,0,1.9534e-05,7.3521e-06,1.5921e+07,69446,0,7.9397e+06,5719.9,567.13,1
1960,0.26,12124,1,12124,1,2.2123e-08,-6.1036e-08,0,3.4965e-05,-7.6276e-10,-695.56,-20893,0,1.4211e+07,1370,12123,13104,1,13104,1,6.86e-05,4.4941e-07,0,6.86e-05,1.2844e-05,2.786e+07,1.5381e+05,0,2.7867e+07,17212,13103,12124,1,12124,1,1.5535e-08,-3.9519e-08,0,3.5146e-05,5.6307e-10,6266,-13526,0,1.4282e+07,806.93,12123,11097,1,11097,1,-6.8512e-05,-4.7444e-07,0,2.4674e-06,-1.286e-05,-2.7867e+07,-1.6239e+05,0,1.0028e+06,-10743,11096,11634,1,11634,1,-3.5115e-05,-1.8125e-07,0,1.7467e-05,-6.6011e-06,-1.4281e+07,-62068,0,7.0976e+06,-3316.2,11633,12614,1,12614,1,3.5162e-05,3.6393e-08,0,5.233e-05,6.6072e-06,1.4282e+07,12465,0,2.1267e+07,5025.6,12613,567.13,0,567.13,0,4.0349e-05,1.7944e-07,0,2.0122e-05,7.5725e-06,1.6399e+07,61424,0,8.1786e+06,5725.4,567.13,1
1960,0.27,12124,1,12124,1,4.2188e-08,-5.9214e-08,0,3.5985e-05,-7.6359e-09,6874.2,-20270,0,1.4625e+07,57.535,12123,13104,1,13104,1,7.0879e-05,7.796e-07,0,7.0879e-05,1.3266e-05,2.8785e+07,2.6676e+05,0,2.8785e+07,25664,13103,12124,1,12124,1,3.1371e-08,-4.3592e-08,0,3.6191e-05,1.9481e-09,12142,-14922,0,1.471e+07,-370.37,12123,11097,1,11097,1,-7.0748e-05,-6.334e-07,0,2.5146e-06,-1.329e-05,-2.8776e+07,-2.1678e+05,0,1.0222e+06,-21965,11096,11634,1,11634,1,-3.6147e-05,-2.4532e-07,0,1.7984e-05,-6.8099e-06,-1.4701e+07,-83937,0,7.3076e+06,-6176.3,11633,12614,1,12614,1,3.6225e-05,7.4495e-08,0,5.3834e-05,6.799e-06,1.4713e+07,25516,0,2.1879e+07,5898,12613,567.13,0,567.13,0,4.152e-05,2.7681e-07,0,2.0699e-05,7.7973e-06,1.6875e+07,94754,0,8.4131e+06,8670.1,567.13,1
1960,0.28,12124,1,12124,1,2.4701e-08,-7.0996e-08,0,3.7305e-05,-8.4443e-09,-970.46,-24302,0,1.5161e+07,-1667,12123,13104,1,13104,1,7.3505e-05,6.395e-07,0,7.3505e-05,1.3763e-05,2.9851e+07,2.1903e+05,0,2.9862e+07,20222,13103,12124,1,12124,1,2.6983e-08,-4.0041e-08,0,3.7537e-05,-9.5983e-09,9282.6,-13705,0,1.5253e+07,-1188.7,12123,11097,1,11097,1,-7.3418e-05,-6.3952e-07,0,2.6151e-06,-1.378e-05,-2.9862e+07,-2.1887e+05,0,1.0638e+06,-26828,11096,11634,1,11634,1,-3.7509e-05,-2.4961e-07,0,1.8636e-05,-7.0588e-06,-1.5255e+07,-85452,0,7.5723e+06,-8166.1,11633,12614,1,12614,1,3.7554e-05,6.9619e-08,0,5.58e-05,7.051e-06,1.5253e+07,23831,0,2.2676e+07,4351.3,12613,567.13,0,567.13,0,4.3046e-05,2.6121e-07,0,2.1463e-05,8.0827e-06,1.7495e+07,89416,0,8.7235e+06,8212.2,567.13,1
1960,0.29,12124,1,12124,1,3.5191e-08,-1.056e-08,0,3.9035e-05,-6.53e-09,2997.9,-3615.1,0,1.5864e+07,-34.554,12123,13104,1,13104,1,7.6386e-05,7.2693e-07,0,7.6386e-05,1.4299e-05,3.102e+07,2.4894e+05,0,3.1025e+07,24879,13103,12124,1,12124,1,2.8052e-08,-1.8601e-08,0,3.9157e-05,-1.1737e-08,10854,-6366.1,0,1.5916e+07,-183.58,12123,11097,1,11097,1,-7.6276e-05,-4.9114e-07,0,2.7363e-06,-1.4318e-05,-3.1025e+07,-1.6809e+05,0,1.113e+06,-22448,11096,11634,1,11634,1,-3.9125e-05,-1.7545e-07,0,1.9505e-05,-7.3744e-06,-1.5912e+07,-60070,0,7.9277e+06,-6479.1,11633,12614,1,12614,1,3.9196e-05,1.1307e-07,0,5.8428e-05,7.362e-06,1.592e+07,38727,0,2.3746e+07,5575.4,12613,567.13,0,567.13,0,4.5042e-05,2.4369e-07,0,2.2459e-05,8.4569e-06,1.8306e+07,83417,0,9.1282e+06,8700.7,567.13,1
1960,0.3,12124,1,12124,1,2.6284e-08,-3.1082e-08,0,4.0851e-05,-6.1473e-09,-1529.5,-10640,0,1.6603e+07,-581.1,12123,13104,1,13104,1,7.9745e-05,4.5095e-07,0,7.9745e-05,1.4928e-05,3.2382e+07,1.5443e+05,0,3.2395e+07,17289,13103,12124,1,12124,1,2.027e-08,-1.4879e-08,0,4.0979e-05,-7.3749e-09,7741.7,-5092.2,0,1.6656e+07,-1126.5,12123,11097,1,11097,1,-7.9643e-05,-4.3285e-07,0,2.8771e-06,-1.4952e-05,-3.2395e+07,-1.4823e+05,0,1.17e+06,-19625,11096,11634,1,11634,1,-4.0951e-05,-1.3343e-07,0,2.0419e-05,-7.7037e-06,-1.6656e+07,-45701,0,8.2982e+06,-5008.1,11633,12614,1,12614,1,4.1007e-05,6.3233e-08,0,6.1182e-05,7.6902e-06,1.6656e+07,21658,0,2.4862e+07,2998.1,12613,567.13,0,567.13,0,4.7144e-05,1.663e-07,0,2.3514e-05,8.8463e-06,1.916e+07,56928,0,9.5562e+06,6006.6,567.13,1
1960,0.31,12124,1,12124,1,3.24e-08,-8.4927e-08,0,4.208e-05,-5.7522e-09,400.36,-29071,0,1.7102e+07,65.603,12123,13104,1,13104,1,8.2483e-05,4.108e-07,0,8.2483e-05,1.5448e-05,3.3492e+07,1.4068e+05,0,3.3513e+07,15854,13103,12124,1,12124,1,2.6455e-08,-5.307e-08,0,4.2269e-05,-4.1305e-09,10341,-18163,0,1.718e+07,-171.56,12123,11097,1,11097,1,-8.2394e-05,-4.8307e-07,0,2.9582e-06,-1.5463e-05,-3.3513e+07,-1.6533e+05,0,1.2029e+06,-14658,11096,11634,1,11634,1,-4.2245e-05,-2.0929e-07,0,2.1019e-05,-7.9372e-06,-1.7181e+07,-71685,0,8.5421e+06,-4421.5,11633,12614,1,12614,1,4.2295e-05,2.3197e-08,0,6.2987e-05,7.9397e-06,1.7179e+07,7945.4,0,2.5595e+07,3841.8,12613,567.13,0,567.13,0,4.8562e-05,1.822e-07,0,2.4222e-05,9.1119e-06,1.9736e+07,62371,0,9.8437e+06,5714.2,567.13,1
1960,0.32,12124,1,12124,1,2.6236e-08,-6.9465e-08,0,4.3502e-05,-3.9893e-09,-2776,-23777,0,1.7679e+07,318.37,12123,13104,1,13104,1,8.5376e-05,5.8681e-07,0,8.5376e-05,1.5993e-05,3.4664e+07,2.0083e+05,0,3.47e+07,16431,13103,12124,1,12124,1,2.7008e-08,-4.4836e-08,0,4.3702e-05,-3.4836e-09,10578,-15348,0,1.7766e+07,352.23,12123,11097,1,11097,1,-8.5312e-05,-5.851e-07,0,3.0553e-06,-1.6005e-05,-3.47e+07,-2.0025e+05,0,1.2422e+06,-15550,11096,11634,1,11634,1,-4.3685e-05,-2.4305e-07,0,2.1737e-05,-8.2137e-06,-1.7767e+07,-83141,0,8.8339e+06,-5028.2,11633,12614,1,12614,1,4.3731e-05,6.8677e-08,0,6.5114e-05,8.2135e-06,1.7762e+07,23511,0,2.6461e+07,5822.2,12613,567.13,0,567.13,0,5.02e-05,2.4828e-07,0,2.5034e-05,9.4224e-06,2.0401e+07,84991,0,1.0174e+07,7026,567.13,1
1960,0.33,12124,1,12124,1,4.7765e-08,1.7032e-08,0,4.4795e-05,-8.7607e-09,5086.8,5829.2,0,1.8204e+07,5.5378,12123,13104,1,13104,1,8.7495e-05,6.8038e-07,0,8.7495e-05,1.6388e-05,3.5523e+07,2.3281e+05,0,3.5526e+07,18952,13103,12124,1,12124,1,4.5417e-08,2.1332e-09,0,4.4915e-05,-7.7673e-09,17385,729.37,0,1.8256e+07,-118.71,12123,11097,1,11097,1,-8.7345e-05,-5.0511e-07,0,3.1332e-06,-1.6404e-05,-3.5526e+07,-1.7287e+05,0,1.2746e+06,-14262,11096,11634,1,11634,1,-4.4854e-05,-1.4248e-07,0,2.2391e-05,-8.4464e-06,-1.8243e+07,-48774,0,9.0985e+06,-5448.1,11633,12614,1,12614,1,4.4971e-05,1.6322e-07,0,6.7065e-05,8.4318e-06,1.8265e+07,55819,0,2.7258e+07,5552.1,12613,567.13,0,567.13,0,5.1692e-05,2.438e-07,0,2.5779e-05,9.7018e-06,2.1007e+07,83454,0,1.0476e+07,6901.9,567.13,1
1960,0.34,12124,1,12124,1,3.3782e-08,-4.2168e-08,0,4.6202e-05,-8.088e-09,-1583.8,-14434,0,1.8776e+07,-819.46,12123,13104,1,13104,1,9.0307e-05,5.7664e-07,0,9.0307e-05,1.6912e-05,3.6661e+07,1.9735e+05,0,3.6696e+07,12329,13103,12124,1,12124,1,2.272e-08,-2.516e-08,0,4.6364e-05,-1.0708e-08,8729,-8612.9,0,1.8845e+07,-684,12123,11097,1,11097,1,-9.0218e-05,-4.7988e-07,0,3.2513e-06,-1.6931e-05,-3.6696e+07,-1.6428e+05,0,1.3221e+06,-22307,11096,11634,1,11634,1,-4.6328e-05,-1.8653e-07,0,2.3085e-05,-8.7099e-06,-1.8842e+07,-63821,0,9.3834e+06,-5132.4,11633,12614,1,12614,1,4.6399e-05,7.2275e-08,0,6.9183e-05,8.702e-06,1.8845e+07,24731,0,2.8115e+07,3674.3,12613,567.13,0,567.13,0,5.3319e-05,2.0947e-07,0,2.6593e-05,1.0005e-05,2.1668e+07,71702,0,1.0806e+07,6373.2,567.13,1
1960,0.35,12124,1,12124,1,5.2518e-08,-4.8609e-08,0,4.8258e-05,-1.1016e-08,4895.6,-16639,0,1.9611e+07,-577.87,12123,13104,1,13104,1,9.4227e-05,5.2099e-07,0,9.4227e-05,1.7643e-05,3.8249e+07,1.7842e+05,0,3.8273e+07,17818,13103,12124,1,12124,1,5.0267e-08,-3.9419e-08,0,4.8403e-05,-2.3559e-08,19925,-13502,0,1.9674e+07,-475.96,12123,11097,1,11097,1,-9.4097e-05,-4.2596e-07,0,3.3711e-06,-1.7667e-05,-3.8273e+07,-1.4578e+05,0,1.3705e+06,-23609,11096,11634,1,11634,1,-4.8353e-05,-1.8492e-07,0,2.4124e-05,-9.0927e-06,-1.9666e+07,-63304,0,9.8039e+06,-5016.7,11633,12614,1,12614,1,4.8453e-05,5.0118e-08,0,7.229e-05,9.0856e-06,1.9678e+07,17152,0,2.9375e+07,3488.3,12613,567.13,0,567.13,0,5.5693e-05,1.9472e-07,0,2.7779e-05,1.045e-05,2.2632e+07,66654,0,1.1288e+07,6681.5,567.13,1
1960,0.36,12124,1,12124,1,5.365e-08,-5.074e-08,0,4.9909e-05,-1.314e-08,3662.5,-17368,0,2.0281e+07,-1389.5,12123,13104,1,13104,1,9.7404e-05,3.7207e-07,0,9.7404e-05,1.824e-05,3.9533e+07,1.2742e+05,0,3.9569e+07,7712.2,13103,12124,1,12124,1,5.3171e-08,-2.7275e-08,0,5.0066e-05,-1.4619e-08,20746,-9342.1,0,2.0349e+07,-1146,12123,11097,1,11097,1,-9.7282e-05,-4.0016e-07,0,3.4944e-06,-1.8261e-05,-3.9569e+07,-1.3704e+05,0,1.421e+06,-14776,11096,11634,1,11634,1,-5.002e-05,-1.6753e-07,0,2.4943e-05,-9.4061e-06,-2.0344e+07,-57347,0,1.0138e+07,-4759.7,11633,12614,1,12614,1,5.0116e-05,4.9157e-08,0,7.4763e-05,9.3952e-06,2.0352e+07,16837,0,3.0376e+07,2210.1,12613,567.13,0,567.13,0,5.76e-05,1.6135e-07,0,2.8733e-05,1.0805e-05,2.3406e+07,55231,0,1.1674e+07,4706.2,567.13,1
1960,0.37,12124,1,12124,1,4.7763e-08,-4.5553e-08,0,5.1064e-05,-1.3936e-08,-66.235,-15592,0,2.0749e+07,-2193.8,12123,13104,1,13104,1,9.9811e-05,6.8279e-07,0,9.9811e-05,1.8689e-05,4.0506e+07,2.3368e+05,0,4.0543e+07,14032,13103,12124,1,12124,1,4.5522e-08,-3.7541e-08,0,5.1238e-05,-1.8738e-08,17202,-12851,0,2.0824e+07,-1390.5,12123,11097,1,11097,1,-9.9678e-05,-5.3104e-07,0,3.5836e-06,-1.8713e-05,-4.0543e+07,-1.8186e+05,0,1.4576e+06,-24844,11096,11634,1,11634,1,-5.1182e-05,-2.2436e-07,0,2.5522e-05,-9.6283e-06,-2.0816e+07,-76778,0,1.0373e+07,-6821.2,11633,12614,1,12614,1,5.128e-05,8.6899e-08,0,7.6483e-05,9.6151e-06,2.0824e+07,29764,0,3.1072e+07,3426.6,12613,567.13,0,567.13,0,5.8929e-05,2.5369e-07,0,2.939e-05,1.1059e-05,2.3944e+07,86840,0,1.1941e+07,7452.6,567.13,1
1960,0.38,12124,1,12124,1,5.6745e-08,-2.22e-08,0,5.2102e-05,-1.1096e-08,2843.9,-7597.8,0,2.1171e+07,-291.87,12123,13104,1,13104,1,0.0001016,6.9998e-07,0,0.0001016,1.9029e-05,4.1226e+07,2.3975e+05,0,4.1282e+07,22123,13103,12124,1,12124,1,6.4154e-08,-2.3407e-08,0,5.2222e-05,-1.0009e-08,25013,-8014.3,0,2.1224e+07,-38.16,12123,11097,1,11097,1,-0.00010149,-4.6995e-07,0,3.6474e-06,-1.9049e-05,-4.1282e+07,-1.6084e+05,0,1.4823e+06,-18032,11096,11634,1,11634,1,-5.2167e-05,-1.838e-07,0,2.6046e-05,-9.8148e-06,-2.1218e+07,-62930,0,1.0585e+07,-4780,11633,12614,1,12614,1,5.2282e-05,1.0028e-07,0,7.8045e-05,9.7951e-06,2.1229e+07,34311,0,3.1708e+07,4517.1,12613,567.13,0,567.13,0,6.0127e-05,2.3768e-07,0,2.9989e-05,1.1282e-05,2.4431e+07,81356,0,1.2184e+07,6626,567.13,1
1960,0.39,12124,1,12124,1,6.0017e-08,3.1523e-08,0,5.3384e-05,-1.5608e-08,2652.7,10790,0,2.1691e+07,-1938.8,12123,13104,1,13104,1,0.0001041,7.5022e-07,0,0.0001041,1.952e-05,4.2236e+07,2.5692e+05,0,4.2323e+07,15090,13103,12124,1,12124,1,5.8238e-08,2.9151e-10,0,5.3557e-05,-3.0623e-08,22837,99.848,0,2.1764e+07,-828.51,12123,11097,1,11097,1,-0.00010406,-4.5104e-07,0,3.7338e-06,-1.9527e-05,-4.2323e+07,-1.5446e+05,0,1.5188e+06,-27100,11096,11634,1,11634,1,-5.3496e-05,-1.072e-07,0,2.6688e-05,-1.0088e-05,-2.1758e+07,-36666,0,1.0843e+07,-5570,11633,12614,1,12614,1,5.3624e-05,1.4589e-07,0,7.9956e-05,1.0039e-05,2.1772e+07,49970,0,3.2485e+07,4620.5,12613,567.13,0,567.13,0,6.1607e-05,2.2729e-07,0,3.0727e-05,1.1562e-05,2.5031e+07,77799,0,1.2483e+07,8335.6,567.13,1
1960,0.4,12124,1,12124,1,3.7596e-08,-1.4626e-08,0,5.5132e-05,-1.1165e-09,-7219.8,-5005.9,0,2.2401e+07,2388.8,12123,13104,1,13104,1,0.00010721,4.9043e-07,0,0.00010721,2.0078e-05,4.3498e+07,1.6781e+05,0,4.356e+07,24696,13103,12124,1,12124,1,3.3325e-08,-9.7956e-09,0,5.5235e-05,1.3057e-08,14408,-3347.4,0,2.2447e+07,1622.1,12123,11097,1,11097,1,-0.00010709,-4.3168e-07,0,3.8793e-06,-2.0101e-05,-4.356e+07,-1.4783e+05,0,1.5779e+06,-12911,11096,11634,1,11634,1,-5.5196e-05,-1.2569e-07,0,2.7562e-05,-1.0377e-05,-2.2449e+07,-43049,0,1.1199e+07,-2812,11633,12614,1,12614,1,5.5281e-05,8.0478e-08,0,8.2599e-05,1.0364e-05,2.2445e+07,27514,0,3.3559e+07,5503.8,12613,567.13,0,567.13,0,6.3628e-05,1.7376e-07,0,3.174e-05,1.1937e-05,2.5851e+07,59474,0,1.2893e+07,6965.4,567.13,1
1960,0.41,12124,1,12124,1,5.1508e-08,2.1529e-09,0,5.615e-05,-8.7796e-09,-3616.5,738.58,0,2.2813e+07,253.54,12123,13104,1,13104,1,0.00010922,6.899e-07,0,0.00010922,2.0462e-05,4.4306e+07,2.3629e+05,0,4.4383e+07,21421,13103,12124,1,12124,1,5.2262e-08,-7.2066e-09,0,5.6247e-05,-5.3042e-09,21061,-2464.3,0,2.2866e+07,-74.048,12123,11097,1,11097,1,-0.00010912,-4.9779e-07,0,3.925e-06,-2.048e-05,-4.4383e+07,-1.7047e+05,0,1.5969e+06,-17507,11096,11634,1,11634,1,-5.622e-05,-1.3002e-07,0,2.8077e-05,-1.0574e-05,-2.2865e+07,-44503,0,1.1407e+07,-5037.2,11633,12614,1,12614,1,5.6316e-05,1.0731e-07,0,8.4112e-05,1.0566e-05,2.2862e+07,36713,0,3.417e+07,5416.3,12613,567.13,0,567.13,0,6.48e-05,2.1807e-07,0,3.232e-05,1.216e-05,2.6326e+07,74641,0,1.3128e+07,7433.2,567.13,1
1960,0.42,12124,1,12124,1,6.8204e-08,-2.3931e-08,0,5.7754e-05,-1.2386e-08,1657.4,-8190,0,2.3464e+07,47.059,12123,13104,1,13104,1,0.00011259,5.7133e-07,0,0.00011259,2.1075e-05,4.567e+07,1.9548e+05,0,4.572e+07,13566,13103,12124,1,12124,1,6.1907e-08,-1.2344e-08,0,5.7906e-05,-3.6511e-08,24011,-4228.1,0,2.3531e+07,-271.43,12123,11097,1,11097,1,-0.00011241,-5.3356e-07,0,4.0445e-06,-2.1111e-05,-4.572e+07,-1.8272e+05,0,1.6446e+06,-25733,11096,11634,1,11634,1,-5.7836e-05,-1.7796e-07,0,2.8867e-05,-1.0881e-05,-2.3523e+07,-60950,0,1.1732e+07,-5059.3,11633,12614,1,12614,1,5.7971e-05,1.0721e-07,0,8.6518e-05,1.0863e-05,2.3534e+07,36721,0,3.5145e+07,5452.4,12613,567.13,0,567.13,0,6.6652e-05,2.2836e-07,0,3.3245e-05,1.2505e-05,2.7077e+07,78158,0,1.3503e+07,6457,567.13,1
1960,0.43,12124,1,12124,1,5.7002e-08,-3.0731e-08,0,5.8961e-05,-5.6296e-09,-4333.2,-10516,0,2.3953e+07,2002.3,12123,13104,1,13104,1,0.00011485,5.8559e-07,0,0.00011485,2.1498e-05,4.6577e+07,2.0054e+05,0,4.6641e+07,22988,13103,12124,1,12124,1,6.1231e-08,-2.1288e-08,0,5.9114e-05,-2.5183e-09,23987,-7281.1,0,2.402e+07,1408.7,12123,11097,1,11097,1,-0.00011467,-5.3159e-07,0,4.1338e-06,-2.1532e-05,-4.6641e+07,-1.8193e+05,0,1.6811e+06,-11323,11096,11634,1,11634,1,-5.905e-05,-1.6786e-07,0,2.9481e-05,-1.1109e-05,-2.4016e+07,-57457,0,1.198e+07,-3584.5,11633,12614,1,12614,1,5.9175e-05,7.8121e-08,0,8.8333e-05,1.1091e-05,2.402e+07,26757,0,3.5878e+07,6855.5,12613,567.13,0,567.13,0,6.8045e-05,2.1488e-07,0,3.3941e-05,1.2768e-05,2.7641e+07,73543,0,1.3784e+07,6820.1,567.13,1
1960,0.44,12124,1,12124,1,7.6291e-08,-7.1277e-08,0,6.032e-05,-1.7607e-08,1123.7,-24392,0,2.4504e+07,-1527.2,12123,13104,1,13104,1,0.00011766,5.823e-07,0,0.00011766,2.2028e-05,4.7711e+07,1.9944e+05,0,4.7798e+07,17000,13103,12124,1,12124,1,8.9984e-08,-5.5257e-08,0,6.0493e-05,-2.3571e-08,34810,-18908,0,2.4581e+07,-1225.4,12123,11097,1,11097,1,-0.00011751,-5.2936e-07,0,4.1883e-06,-2.2058e-05,-4.7798e+07,-1.8128e+05,0,1.7039e+06,-22268,11096,11634,1,11634,1,-6.0431e-05,-2.2114e-07,0,3.016e-05,-1.1372e-05,-2.4579e+07,-75663,0,1.2255e+07,-6272.4,11633,12614,1,12614,1,6.0571e-05,3.8674e-08,0,9.0366e-05,1.1343e-05,2.4585e+07,13232,0,3.6702e+07,3409.8,12613,567.13,0,567.13,0,6.9614e-05,2.1658e-07,0,3.4725e-05,1.3061e-05,2.8278e+07,74127,0,1.4102e+07,6431.1,567.13,1
1960,0.45,12124,1,12124,1,8.3724e-08,-4.7827e-08,0,6.1865e-05,-2.028e-08,2043.3,-16367,0,2.513e+07,-2073.4,12123,13104,1,13104,1,0.00012067,6.2921e-07,0,0.00012067,2.2585e-05,4.8927e+07,2.1533e+05,0,4.8998e+07,14622,13103,12124,1,12124,1,8.4032e-08,-2.7155e-08,0,6.2049e-05,-2.5082e-08,32418,-9301,0,2.5212e+07,-1478.3,12123,11097,1,11097,1,-0.00012046,-5.8943e-07,0,4.3148e-06,-2.2624e-05,-4.8998e+07,-2.0172e+05,0,1.7556e+06,-22693,11096,11634,1,11634,1,-6.1973e-05,-2.105e-07,0,3.0925e-05,-1.1667e-05,-2.5205e+07,-71949,0,1.2567e+07,-7399.8,11633,12614,1,12614,1,6.2133e-05,7.9726e-08,0,9.268e-05,1.1643e-05,2.5216e+07,27252,0,3.764e+07,4063.5,12613,567.13,0,567.13,0,7.1396e-05,2.4056e-07,0,3.5613e-05,1.3397e-05,2.9e+07,82331,0,1.4462e+07,7220.2,567.13,1
1960,0.46,12124,1,12124,1,6.9837e-08,-4.0259e-08,0,6.3177e-05,-1.4137e-08,-5512.2,-13777,0,2.5661e+07,-590.26,12123,13104,1,13104,1,0.00012319,7.2839e-07,0,0.00012319,2.3066e-05,4.9938e+07,2.4944e+05,0,5.0036e+07,22454,13103,12124,1,12124,1,6.9941e-08,-2.7877e-08,0,6.3347e-05,-1.8577e-08,26928,-9546.8,0,2.5738e+07,-807.36,12123,11097,1,11097,1,-0.00012302,-5.9637e-07,0,4.4168e-06,-2.3096e-05,-5.0036e+07,-2.0423e+05,0,1.7965e+06,-17839,11096,11634,1,11634,1,-6.3278e-05,-2.1621e-07,0,3.1585e-05,-1.1912e-05,-2.5736e+07,-74015,0,1.2835e+07,-6835.6,11633,12614,1,12614,1,6.3426e-05,9.0978e-08,0,9.4651e-05,1.1886e-05,2.5739e+07,31102,0,3.8435e+07,5309.5,12613,567.13,0,567.13,0,7.2909e-05,2.6405e-07,0,3.6365e-05,1.3683e-05,2.9612e+07,90366,0,1.4766e+07,8204.1,567.13,1
1960,0.47,12124,1,12124,1,9.497e-08,-6.6845e-09,0,6.5077e-05,-1.7747e-08,2427.3,-2287.1,0,2.6432e+07,-136.24,12123,13104,1,13104,1,0.0001264,5.6998e-07,0,0.0001264,2.3656e-05,5.1233e+07,1.9522e+05,0,5.1323e+07,14202,13103,12124,1,12124,1,9.3796e-08,-5.4332e-09,0,6.5165e-05,-2.0443e-08,36946,-1857.9,0,2.6477e+07,-675.23,12123,11097,1,11097,1,-0.00012618,-4.1504e-07,0,4.5372e-06,-2.3699e-05,-5.1323e+07,-1.4203e+05,0,1.8454e+06,-17067,11096,11634,1,11634,1,-6.5066e-05,-1.2839e-07,0,3.2554e-05,-1.2251e-05,-2.6464e+07,-43964,0,1.3225e+07,-4414.5,11633,12614,1,12614,1,6.5267e-05,9.1875e-08,0,9.7529e-05,1.2216e-05,2.6484e+07,31399,0,3.9605e+07,3605.8,12613,567.13,0,567.13,0,7.5106e-05,1.8902e-07,0,3.7467e-05,1.4089e-05,3.0503e+07,64687,0,1.5212e+07,5495.4,567.13,1
1960,0.48,12124,1,12124,1,8.9328e-08,-3.0576e-08,0,6.6628e-05,-1.909e-08,-2982.7,-10462,0,2.706e+07,-1158.5,12123,13104,1,13104,1,0.00012968,6.6677e-07,0,0.00012968,2.4273e-05,5.2554e+07,2.2834e+05,0,5.2658e+07,19987,13103,12124,1,12124,1,8.4334e-08,-2.6644e-08,0,6.6769e-05,-3.5314e-08,32608,-9094.7,0,2.7127e+07,-672.45,12123,11097,1,11097,1,-0.00012946,-4.6767e-07,0,4.6547e-06,-2.4313e-05,-5.2658e+07,-1.6003e+05,0,1.893e+06,-28922,11096,11634,1,11634,1,-6.6673e-05,-1.8504e-07,0,3.3312e-05,-1.2556e-05,-2.7118e+07,-63327,0,1.3536e+07,-5672.4,11633,12614,1,12614,1,6.6858e-05,7.541e-08,0,9.984e-05,1.2514e-05,2.7126e+07,25788,0,4.0538e+07,3717.5,12613,567.13,0,567.13,0,7.6895e-05,2.2498e-07,0,3.8357e-05,1.4428e-05,3.1227e+07,76989,0,1.5572e+07,7723.2,567.13,1
1960,0.49,12124,1,12124,1,1.0789e-07,-3.308e-08,0,6.8291e-05,-2.1188e-08,1910.8,-11316,0,2.7734e+07,-588.33,12123,13104,1,13104,1,0.00013291,4.8535e-07,0,0.00013291,2.4867e-05,5.3855e+07,1.6599e+05,0,5.3947e+07,12318,13103,12124,1,12124,1,1.0789e-07,-2.1404e-08,0,6.8435e-05,-2.1486e-08,42367,-7306.1,0,2.7803e+07,138.42,12123,11097,1,11097,1,-0.00013263,-4.351e-07,0,4.7535e-06,-2.4917e-05,-5.3947e+07,-1.4889e+05,0,1.9333e+06,-18272,11096,11634,1,11634,1,-6.8325e-05,-1.6551e-07,0,3.4164e-05,-1.286e-05,-2.7789e+07,-56622,0,1.3876e+07,-5197.4,11633,12614,1,12614,1,6.8546e-05,7.0879e-08,0,0.00010234,1.2833e-05,2.7809e+07,24210,0,4.1551e+07,4690.3,12613,567.13,0,567.13,0,7.8817e-05,1.9161e-07,0,3.932e-05,1.4785e-05,3.2005e+07,65568,0,1.5961e+07,6319.3,567.13,1
1960,0.5,12124,1,12124,1,1.0106e-07,7.4834e-09,0,6.9773e-05,-1.7771e-08,-3636.4,2562.3,0,2.8334e+07,300.63,12123,13104,1,13104,1,0.00013551,5.3903e-07,0,0.00013551,2.5381e-05,5.4899e+07,1.8459e+05,0,5.504e+07,18322,13103,12124,1,12124,1,1.0201e-07,1.8793e-09,0,6.9872e-05,-1.6282e-08,39948,641.52,0,2.8385e+07,-13.407,12123,11097,1,11097,1,-0.00013532,-4.2698e-07,0,4.8613e-06,-2.5414e-05,-5.504e+07,-1.461e+05,0,1.9776e+06,-15180,11096,11634,1,11634,1,-6.9779e-05,-1.0383e-07,0,3.491e-05,-1.3137e-05,-2.8381e+07,-35500,0,1.4179e+07,-4302.4,11633,12614,1,12614,1,6.9986e-05,1.2357e-07,0,0.00010457,1.3098e-05,2.8389e+07,42238,0,4.2457e+07,4772.5,12613,567.13,0,567.13,0,8.0527e-05,1.8093e-07,0,4.0173e-05,1.5106e-05,3.2697e+07,61907,0,1.6306e+07,5657.5,567.13,1
1960,0.51,12124,1,12124,1,1.25e-07,-4.1227e-08,0,7.1121e-05,-2.6614e-08,2992.9,-14105,0,2.888e+07,-1545.5,12123,13104,1,13104,1,0.00013829,4.2398e-07,0,0.00013829,2.5872e-05,5.6015e+07,1.4519e+05,0,5.613e+07,9606.2,13103,12124,1,12124,1,1.1443e-07,-2.4326e-08,0,7.1277e-05,-4.3433e-08,43392,-8314.9,0,2.8954e+07,-1093.8,12123,11097,1,11097,1,-0.000138,-3.9704e-07,0,4.9471e-06,-2.5929e-05,-5.613e+07,-1.3586e+05,0,2.0118e+06,-17510,11096,11634,1,11634,1,-7.114e-05,-1.5105e-07,0,3.5584e-05,-1.3395e-05,-2.8935e+07,-51736,0,1.4449e+07,-4860.1,11633,12614,1,12614,1,7.1391e-05,4.7877e-08,0,0.0001066,1.3349e-05,2.8957e+07,16387,0,4.3269e+07,2479.7,12613,567.13,0,567.13,0,8.2084e-05,1.6215e-07,0,4.0951e-05,1.5397e-05,3.3327e+07,55482,0,1.662e+07,5163.1,567.13,1
1960,0.52,12124,1,12124,1,1.2486e-07,1.2557e-09,0,7.2088e-05,-2.3693e-08,708.13,427.9,0,2.927e+07,-335.03,12123,13104,1,13104,1,0.00014008,6.5339e-07,0,0.00014008,2.6216e-05,5.6735e+07,2.2343e+05,0,5.6868e+07,12165,13103,12124,1,12124,1,1.2247e-07,-5.8984e-09,0,7.2209e-05,-2.1705e-08,48315,-2016.1,0,2.9331e+07,-399.08,12123,11097,1,11097,1,-0.00013981,-5.3e-07,0,5.0091e-06,-2.6262e-05,-5.6868e+07,-1.8149e+05,0,2.0374e+06,-17144,11096,11634,1,11634,1,-7.2079e-05,-1.4271e-07,0,3.6072e-05,-1.3589e-05,-2.9316e+07,-48815,0,1.4649e+07,-5313.1,11633,12614,1,12614,1,7.234e-05,1.3705e-07,0,0.00010804,1.3532e-05,2.9337e+07,46860,0,4.386e+07,4962.6,12613,567.13,0,567.13,0,8.3197e-05,2.3209e-07,0,4.1503e-05,1.5609e-05,3.3777e+07,79408,0,1.6843e+07,6084.3,567.13,1
1960,0.53,12124,1,12124,1,1.2423e-07,1.337e-08,0,7.3741e-05,-1.9107e-08,-1745.9,4574.2,0,2.994e+07,1535,12123,13104,1,13104,1,0.00014332,6.3993e-07,0,0.00014332,2.6829e-05,5.8035e+07,2.1914e+05,0,5.8192e+07,17491,13103,12124,1,12124,1,1.1431e-07,-3.0316e-09,0,7.3872e-05,-1.1425e-08,46299,-1036.1,0,3.0006e+07,1318.8,12123,11097,1,11097,1,-0.00014307,-4.3405e-07,0,5.1264e-06,-2.6872e-05,-5.8192e+07,-1.4845e+05,0,2.0848e+06,-13052,11096,11634,1,11634,1,-7.372e-05,-1.1614e-07,0,3.6902e-05,-1.3888e-05,-2.9985e+07,-39760,0,1.4985e+07,-3810.5,11633,12614,1,12614,1,7.4e-05,1.2539e-07,0,0.00011052,1.3846e-05,3.0009e+07,42949,0,4.4861e+07,6838.5,12613,567.13,0,567.13,0,8.5106e-05,2.0907e-07,0,4.2456e-05,1.5965e-05,3.455e+07,71525,0,1.7229e+07,6379.7,567.13,1
1960,0.54,12124,1,12124,1,1.339e-07,-2.656e-08,0,7.5102e-05,-2.4301e-08,-1403.6,-9085.5,0,3.049e+07,98.948,12123,13104,1,13104,1,0.00014605,5.2344e-07,0,0.00014605,2.7316e-05,5.9129e+07,1.7928e+05,0,5.9264e+07,13045,13103,12124,1,12124,1,1.2912e-07,-1.8168e-08,0,7.5246e-05,-3.8155e-08,51127,-6210.4,0,3.0562e+07,514.63,12123,11097,1,11097,1,-0.0001457,-4.9544e-07,0,5.2112e-06,-2.7381e-05,-5.9264e+07,-1.6951e+05,0,2.1187e+06,-21945,11096,11634,1,11634,1,-7.5102e-05,-1.5741e-07,0,3.7573e-05,-1.414e-05,-3.0546e+07,-53862,0,1.5259e+07,-4581.8,11633,12614,1,12614,1,7.5375e-05,8.4405e-08,0,0.00011255,1.41e-05,3.0563e+07,28880,0,4.5681e+07,5911.8,12613,567.13,0,567.13,0,8.6677e-05,2.0606e-07,0,4.3241e-05,1.626e-05,3.5185e+07,70496,0,1.7545e+07,7096.3,567.13,1
1960,0.55,12124,1,12124,1,1.4608e-07,-2.5713e-08,0,7.6685e-05,-2.8593e-08,149.31,-8797.8,0,3.1131e+07,-761.41,12123,13104,1,13104,1,0.00014915,6.0954e-07,0,0.00014915,2.7904e-05,6.0375e+07,2.0877e+05,0,6.0532e+07,15937,13103,12124,1,12124,1,1.4905e-07,-2.6204e-08,0,7.6822e-05,-3.1444e-08,58046,-8952.5,0,3.1202e+07,-189.02,12123,11097,1,11097,1,-0.00014882,-4.0297e-07,0,5.3114e-06,-2.7961e-05,-6.0532e+07,-1.3799e+05,0,2.1614e+06,-15284,11096,11634,1,11634,1,-7.6676e-05,-1.8728e-07,0,3.8381e-05,-1.4441e-05,-3.1186e+07,-64041,0,1.5583e+07,-4737.2,11633,12614,1,12614,1,7.6966e-05,8.1355e-08,0,0.00011494,1.4391e-05,3.1204e+07,27852,0,4.6642e+07,3358.5,12613,567.13,0,567.13,0,8.8505e-05,2.1837e-07,0,4.4153e-05,1.6601e-05,3.5924e+07,74711,0,1.7914e+07,6125.9,567.13,1
1960,0.56,12124,1,12124,1,1.5512e-07,-2.9598e-08,0,7.7812e-05,-2.9197e-08,605.57,-10122,0,3.1586e+07,-313.74,12123,13104,1,13104,1,0.0001513,6.4452e-07,0,0.0001513,2.8304e-05,6.1232e+07,2.2075e+05,0,6.1403e+07,19653,13103,12124,1,12124,1,1.5758e-07,-2.3029e-08,0,7.795e-05,-3.8149e-08,61467,-7867.1,0,3.1657e+07,-660.97,12123,11097,1,11097,1,-0.00015096,-4.9788e-07,0,5.3843e-06,-2.8366e-05,-6.1403e+07,-1.7033e+05,0,2.1905e+06,-14415,11096,11634,1,11634,1,-7.7794e-05,-1.8806e-07,0,3.8952e-05,-1.4659e-05,-3.1641e+07,-64291,0,1.5813e+07,-4539.6,11633,12614,1,12614,1,7.8107e-05,9.7073e-08,0,0.00011661,1.4604e-05,3.1662e+07,33249,0,4.7326e+07,3932.2,12613,567.13,0,567.13,0,8.9804e-05,2.3056e-07,0,4.4801e-05,1.6847e-05,3.6448e+07,78879,0,1.8175e+07,6559.5,567.13,1
1960,0.57,12124,1,12124,1,1.5979e-07,-2.0476e-08,0,7.9132e-05,-2.6051e-08,-106.75,-7004.7,0,3.212e+07,1367.8,12123,13104,1,13104,1,0.00015386,6.2668e-07,0,0.00015386,2.8783e-05,6.2258e+07,2.144e+05,0,6.244e+07,18661,13103,12124,1,12124,1,1.5418e-07,-1.9522e-08,0,7.9259e-05,-1.6891e-08,61638,-6684.7,0,3.2187e+07,711.05,12123,11097,1,11097,1,-0.00015351,-4.7109e-07,0,5.467e-06,-2.8847e-05,-6.244e+07,-1.6129e+05,0,2.2233e+06,-15881,11096,11634,1,11634,1,-7.9094e-05,-1.8796e-07,0,3.9609e-05,-1.4903e-05,-3.217e+07,-64306,0,1.6079e+07,-3674.9,11633,12614,1,12614,1,7.9418e-05,1.1162e-07,0,0.00011861,1.4848e-05,3.2191e+07,38151,0,4.8126e+07,5735.9,12613,567.13,0,567.13,0,9.1328e-05,2.3395e-07,0,4.556e-05,1.7133e-05,3.7064e+07,80031,0,1.8481e+07,6763.7,567.13,1
1960,0.58,12124,1,12124,1,1.7744e-07,-2.4622e-08,0,8.0447e-05,-3.6591e-08,3213,-8419.2,0,3.2651e+07,-1689.6,12123,13104,1,13104,1,0.00015646,6.7471e-07,0,0.00015646,2.9259e-05,6.33e+07,2.3109e+05,0,6.3474e+07,19288,13103,12124,1,12124,1,1.789e-07,-2.2828e-08,0,8.0594e-05,-3.8823e-08,70468,-7798.6,0,3.2728e+07,-1099.4,12123,11097,1,11097,1,-0.00015606,-5.2699e-07,0,5.5471e-06,-2.9334e-05,-6.3474e+07,-1.8043e+05,0,2.2569e+06,-25321,11096,11634,1,11634,1,-8.0409e-05,-1.8981e-07,0,4.0287e-05,-1.5162e-05,-3.2704e+07,-64938,0,1.6351e+07,-7226,11633,12614,1,12614,1,8.0772e-05,1.0784e-07,0,0.00012057,1.5098e-05,3.2736e+07,36867,0,4.8921e+07,4254,12613,567.13,0,567.13,0,9.2845e-05,2.4385e-07,0,4.6317e-05,1.7419e-05,3.7677e+07,83418,0,1.8786e+07,7676.6,567.13,1
1960,0.59,12124,1,12124,1,1.8422e-07,-6.4455e-09,0,8.186e-05,-3.4735e-08,2742.4,-2201.2,0,3.3223e+07,-387.25,12123,13104,1,13104,1,0.00015889,5.8782e-07,0,0.00015889,2.9721e-05,6.4271e+07,2.0109e+05,0,6.4466e+07,17309,13103,12124,1,12124,1,1.9092e-07,-3.7451e-09,0,8.1958e-05,-3.432e-08,74638,-1279.4,0,3.328e+07,-525.35,12123,11097,1,11097,1,-0.00015849,-5.3189e-07,0,5.6404e-06,-2.979e-05,-6.4466e+07,-1.8213e+05,0,2.2949e+06,-24153,11096,11634,1,11634,1,-8.1762e-05,-1.2989e-07,0,4.1008e-05,-1.5431e-05,-3.3256e+07,-44384,0,1.6645e+07,-5608.7,11633,12614,1,12614,1,8.2152e-05,1.1432e-07,0,0.00012272,1.5348e-05,3.3292e+07,39129,0,4.979e+07,4720.1,12613,567.13,0,567.13,0,9.4475e-05,2.0869e-07,0,4.713e-05,1.7724e-05,3.8336e+07,71388,0,1.9115e+07,7002.7,567.13,1
1960,0.6,12124,1,12124,1,1.9087e-07,-3.781e-08,0,8.359e-05,-3.8193e-08,1234.6,-12933,0,3.3922e+07,-1335.6,12123,13104,1,13104,1,0.00016245,4.9365e-07,0,0.00016245,3.0375e-05,6.5699e+07,1.6904e+05,0,6.59e+07,18002,13103,12124,1,12124,1,1.7942e-07,-2.3108e-08,0,8.3738e-05,-3.9623e-08,70407,-7910,0,3.4002e+07,-1601.7,12123,11097,1,11097,1,-0.00016202,-4.4653e-07,0,5.7669e-06,-3.0456e-05,-6.59e+07,-1.529e+05,0,2.3455e+06,-15585,11096,11634,1,11634,1,-8.3544e-05,-1.5454e-07,0,4.187e-05,-1.5749e-05,-3.398e+07,-52815,0,1.6988e+07,-5118.9,11633,12614,1,12614,1,8.3921e-05,5.8352e-08,0,0.0001253,1.5674e-05,3.4004e+07,19927,0,5.0834e+07,2247.4,12613,567.13,0,567.13,0,9.6475e-05,1.8309e-07,0,4.8132e-05,1.8096e-05,3.9145e+07,62627,0,1.9519e+07,5444.5,567.13,1
1960,0.61,12124,1,12124,1,1.73e-07,-4.5837e-08,0,8.4833e-05,-3.1771e-08,-10044,-15671,0,3.4424e+07,-58.645,12123,13104,1,13104,1,0.00016499,5.6485e-07,0,0.00016499,3.0856e-05,6.6714e+07,1.9322e+05,0,6.694e+07,12522,13103,12124,1,12124,1,1.72e-07,-3.4816e-08,0,8.5008e-05,-3.4818e-08,67965,-11898,0,3.4513e+07,501.3,12123,11097,1,11097,1,-0.00016457,-4.6696e-07,0,5.861e-06,-3.0931e-05,-6.694e+07,-1.5972e+05,0,2.3838e+06,-19653,11096,11634,1,11634,1,-8.4835e-05,-1.7859e-07,0,4.2486e-05,-1.5978e-05,-3.4504e+07,-61059,0,1.7239e+07,-4170,11633,12614,1,12614,1,8.5188e-05,5.023e-08,0,0.00012716,1.5927e-05,3.4513e+07,17180,0,5.1573e+07,4823.7,12613,567.13,0,567.13,0,9.791e-05,1.981e-07,0,4.8847e-05,1.8365e-05,3.9723e+07,67753,0,1.9806e+07,6223,567.13,1
1960,0.62,12124,1,12124,1,2.2465e-07,-2.8169e-08,0,8.6617e-05,-4.6327e-08,6448.6,-9631.9,0,3.5145e+07,-2126.5,12123,13104,1,13104,1,0.00016836,7.1401e-07,0,0.00016836,3.148e-05,6.8061e+07,2.4423e+05,0,6.829e+07,16414,13103,12124,1,12124,1,2.1997e-07,-3.2717e-08,0,8.6741e-05,-5.9652e-08,86537,-11152,0,3.5216e+07,-1815.9,12123,11097,1,11097,1,-0.0001679,-4.6878e-07,0,5.9474e-06,-3.1566e-05,-6.829e+07,-1.6052e+05,0,2.4197e+06,-23011,11096,11634,1,11634,1,-8.6511e-05,-2.0062e-07,0,4.3389e-05,-1.6321e-05,-3.5187e+07,-68513,0,1.7608e+07,-5530.5,11633,12614,1,12614,1,8.6963e-05,8.8536e-08,0,0.00012984,1.6228e-05,3.5227e+07,30291,0,5.2662e+07,2815.7,12613,567.13,0,567.13,0,9.9967e-05,2.4214e-07,0,4.9871e-05,1.8752e-05,4.0554e+07,82819,0,2.022e+07,7087.1,567.13,1
1960,0.63,12124,1,12124,1,2.2498e-07,-4.3016e-08,0,8.8144e-05,-4.2511e-08,1860.4,-14709,0,3.5762e+07,-514.44,12123,13104,1,13104,1,0.00017126,4.5918e-07,0,0.00017126,3.2023e-05,6.9216e+07,1.5727e+05,0,6.947e+07,18940,13103,12124,1,12124,1,2.2883e-07,-3.1396e-08,0,8.8287e-05,-4.8486e-08,89953,-10728,0,3.5842e+07,-763.76,12123,11097,1,11097,1,-0.0001708,-4.102e-07,0,6.0536e-06,-3.211e-05,-6.947e+07,-1.4046e+05,0,2.4617e+06,-11656,11096,11634,1,11634,1,-8.807e-05,-1.7136e-07,0,4.4172e-05,-1.6609e-05,-3.5821e+07,-58667,0,1.7927e+07,-4077.3,11633,12614,1,12614,1,8.851e-05,5.3552e-08,0,0.00013215,1.652e-05,3.5849e+07,18278,0,5.3587e+07,2670.9,12613,567.13,0,567.13,0,0.00010173,1.7641e-07,0,5.0757e-05,1.9081e-05,4.1266e+07,60331,0,2.0576e+07,5069.6,567.13,1
1960,0.64,12124,1,12124,1,2.2232e-07,-3.1354e-08,0,8.8993e-05,-3.9333e-08,-2979.9,-10719,0,3.6102e+07,600.09,12123,13104,1,13104,1,0.00017305,7.0842e-07,0,0.00017305,3.2352e-05,6.9924e+07,2.4257e+05,0,7.0187e+07,17927,13103,12124,1,12124,1,2.1538e-07,-2.9123e-08,0,8.9148e-05,-3.544e-08,85537,-9923,0,3.6189e+07,326.26,12123,11097,1,11097,1,-0.00017256,-5.4799e-07,0,6.1147e-06,-3.2444e-05,-7.0187e+07,-1.8763e+05,0,2.4866e+06,-14753,11096,11634,1,11634,1,-8.8905e-05,-2.1526e-07,0,4.458e-05,-1.677e-05,-3.616e+07,-73565,0,1.8086e+07,-4483.9,11633,12614,1,12614,1,8.9369e-05,1.1358e-07,0,0.00013341,1.6686e-05,3.6191e+07,38840,0,5.4094e+07,5500,12613,567.13,0,567.13,0,0.00010271,2.6406e-07,0,5.124e-05,1.9268e-05,4.1658e+07,90304,0,2.0769e+07,6979.5,567.13,1
1960,0.65,12124,1,12124,1,2.4731e-07,-2.0487e-08,0,9.0673e-05,-4.4676e-08,3452.7,-7002.9,0,3.6782e+07,307.53,12123,13104,1,13104,1,0.00017618,6.2833e-07,0,0.00017618,3.2919e-05,7.1181e+07,2.1491e+05,0,7.1421e+07,21417,13103,12124,1,12124,1,2.4565e-07,-2.2172e-08,0,9.0814e-05,-4.7877e-08,96786,-7573.3,0,3.6864e+07,181.13,12123,11097,1,11097,1,-0.00017559,-5.0223e-07,0,6.2139e-06,-3.303e-05,-7.1421e+07,-1.7197e+05,0,2.5277e+06,-16366,11096,11634,1,11634,1,-9.0542e-05,-1.7321e-07,0,4.5417e-05,-1.7085e-05,-3.6825e+07,-59191,0,1.844e+07,-4653.7,11633,12614,1,12614,1,9.1062e-05,1.0645e-07,0,0.00013594,1.6999e-05,3.6874e+07,36289,0,5.5124e+07,5680.4,12613,567.13,0,567.13,0,0.00010465,2.2737e-07,0,5.2207e-05,1.9631e-05,4.2442e+07,77756,0,2.116e+07,7123.8,567.13,1
1960,0.66,12124,1,12124,1,2.4176e-07,-5.1734e-08,0,9.2047e-05,-4.131e-08,-3739.8,-17686,0,3.7336e+07,1265.9,12123,13104,1,13104,1,0.00017914,6.7593e-07,0,0.00017914,3.3493e-05,7.2358e+07,2.3144e+05,0,7.2655e+07,25318,13103,12124,1,12124,1,2.3568e-07,-4.1532e-08,0,9.2228e-05,-3.5533e-08,93991,-14178,0,3.7435e+07,-329.98,12123,11097,1,11097,1,-0.00017863,-5.5106e-07,0,6.3123e-06,-3.3587e-05,-7.2654e+07,-1.8868e+05,0,2.5671e+06,-14062,11096,11634,1,11634,1,-9.1973e-05,-2.4653e-07,0,4.6121e-05,-1.735e-05,-3.7408e+07,-84289,0,1.8706e+07,-3958.8,11633,12614,1,12614,1,9.2465e-05,9.3774e-08,0,0.00013797,1.726e-05,3.7436e+07,31981,0,5.5937e+07,5110.5,12613,567.13,0,567.13,0,0.00010623,2.6981e-07,0,5.3e-05,1.9929e-05,4.3081e+07,92264,0,2.1478e+07,7866.8,567.13,1
1960,0.67,12124,1,12124,1,2.5977e-07,-4.777e-08,0,9.2938e-05,-4.975e-08,-908.9,-16326,0,3.7694e+07,-881.91,12123,13104,1,13104,1,0.00018065,6.409e-07,0,0.00018065,3.3753e-05,7.2951e+07,2.1919e+05,0,7.3234e+07,27365,13103,12124,1,12124,1,2.5612e-07,-3.7857e-08,0,9.3106e-05,-5.4078e-08,1.0082e+05,-12948,0,3.7789e+07,-977.3,12123,11097,1,11097,1,-0.00018005,-5.2837e-07,0,6.3599e-06,-3.3867e-05,-7.3234e+07,-1.8091e+05,0,2.587e+06,-24136,11096,11634,1,11634,1,-9.2833e-05,-1.9465e-07,0,4.6568e-05,-1.7519e-05,-3.7758e+07,-66474,0,1.8899e+07,-5966.4,11633,12614,1,12614,1,9.336e-05,5.7629e-08,0,0.00013933,1.7426e-05,3.7793e+07,19612,0,5.6488e+07,4285.5,12613,567.13,0,567.13,0,0.00010726,2.1981e-07,0,5.3512e-05,2.0122e-05,4.3494e+07,75161,0,2.1684e+07,8148.9,567.13,1
1960,0.68,12124,1,12124,1,2.7501e-07,-4.1508e-08,0,9.4765e-05,-5.2155e-08,1016.8,-14192,0,3.8433e+07,-710.56,12123,13104,1,13104,1,0.00018422,6.4285e-07,0,0.00018422,3.4427e-05,7.4385e+07,2.2017e+05,0,7.4692e+07,18371,13103,12124,1,12124,1,2.6106e-07,-3.1432e-08,0,9.4933e-05,-5.3652e-08,1.0322e+05,-10730,0,3.8529e+07,-1530.1,12123,11097,1,11097,1,-0.00018363,-4.8474e-07,0,6.4822e-06,-3.4538e-05,-7.4692e+07,-1.6597e+05,0,2.6362e+06,-21314,11096,11634,1,11634,1,-9.4643e-05,-1.8901e-07,0,4.7473e-05,-1.786e-05,-3.8494e+07,-64576,0,1.9271e+07,-5390.7,11633,12614,1,12614,1,9.52e-05,6.7528e-08,0,0.00014207,1.7759e-05,3.8534e+07,23054,0,5.7589e+07,3822.9,12613,567.13,0,567.13,0,0.00010937,2.212e-07,0,5.4566e-05,2.0515e-05,4.4347e+07,75629,0,2.2109e+07,6698.5,567.13,1
1960,0.69,12124,1,12124,1,2.7817e-07,-6.9084e-08,0,9.5977e-05,-5.1102e-08,-3252.7,-23612,0,3.892e+07,-39.809,12123,13104,1,13104,1,0.00018676,6.3343e-07,0,0.00018676,3.4898e-05,7.5388e+07,2.1689e+05,0,7.571e+07,21471,13103,12124,1,12124,1,2.7453e-07,-4.9719e-08,0,9.6175e-05,-5.0137e-08,1.0868e+05,-17030,0,3.903e+07,-52.392,12123,11097,1,11097,1,-0.00018614,-5.5208e-07,0,6.5577e-06,-3.5013e-05,-7.571e+07,-1.8877e+05,0,2.6671e+06,-16038,11096,11634,1,11634,1,-9.5882e-05,-2.4312e-07,0,4.8103e-05,-1.8099e-05,-3.8998e+07,-83074,0,1.9513e+07,-4730.9,11633,12614,1,12614,1,9.6448e-05,5.7485e-08,0,0.00014388,1.7998e-05,3.9032e+07,19658,0,5.831e+07,4263.4,12613,567.13,0,567.13,0,0.00011077,2.38e-07,0,5.5263e-05,2.0779e-05,4.4909e+07,81379,0,2.2388e+07,6696.4,567.13,1
1960,0.7,12124,1,12124,1,3.0376e-07,-2.1553e-08,0,9.7862e-05,-5.7116e-08,1693.6,-7367.7,0,3.9682e+07,-574.6,12123,13104,1,13104,1,0.00018999,5.3236e-07,0,0.00018999,3.5502e-05,7.6678e+07,1.8228e+05,0,7.7023e+07,11558,13103,12124,1,12124,1,3.0292e-07,-1.4964e-08,0,9.798e-05,-5.6271e-08,1.2016e+05,-5113.5,0,3.976e+07,-869.01,12123,11097,1,11097,1,-0.00018937,-4.3816e-07,0,6.6652e-06,-3.562e-05,-7.7023e+07,-1.5002e+05,0,2.7111e+06,-15947,11096,11634,1,11634,1,-9.767e-05,-1.5262e-07,0,4.901e-05,-1.8444e-05,-3.9726e+07,-52190,0,1.99e+07,-4520.1,11633,12614,1,12614,1,9.829e-05,8.958e-08,0,0.00014679,1.8324e-05,3.9772e+07,30586,0,5.9478e+07,3736.8,12613,567.13,0,567.13,0,0.00011295,1.9493e-07,0,5.6353e-05,2.1184e-05,4.5788e+07,66644,0,2.2827e+07,5133.7,567.13,1
1960,0.71,12124,1,12124,1,3.1888e-07,-4.2417e-08,0,9.9188e-05,-5.9259e-08,1521.7,-14499,0,4.0215e+07,-308.65,12123,13104,1,13104,1,0.00019269,4.7815e-07,0,0.00019269,3.5999e-05,7.7745e+07,1.633e+05,0,7.8094e+07,13951,13103,12124,1,12124,1,3.1138e-07,-2.6621e-08,0,9.9343e-05,-5.59e-08,1.2359e+05,-9090.5,0,4.031e+07,-240.46,12123,11097,1,11097,1,-0.000192,-4.3895e-07,0,6.7447e-06,-3.6126e-05,-7.8094e+07,-1.5017e+05,0,2.7434e+06,-18884,11096,11634,1,11634,1,-9.9013e-05,-1.6832e-07,0,4.9682e-05,-1.8699e-05,-4.0271e+07,-57411,0,2.0171e+07,-4131.5,11633,12614,1,12614,1,9.9664e-05,5.7377e-08,0,0.00014876,1.858e-05,4.0321e+07,19628,0,6.0272e+07,3263.2,12613,567.13,0,567.13,0,0.00011448,1.8123e-07,0,5.7118e-05,2.1471e-05,4.6403e+07,61956,0,2.3133e+07,5217,567.13,1
1960,0.72,12124,1,12124,1,3.3105e-07,-1.327e-08,0,0.0001005,-5.99e-08,1344.7,-4536.4,0,4.0742e+07,362.28,12123,13104,1,13104,1,0.00019512,6.2158e-07,0,0.00019512,3.6453e-05,7.8706e+07,2.1227e+05,0,7.908e+07,17174,13103,12124,1,12124,1,3.2307e-07,-1.8233e-08,0,0.00010061,-5.268e-08,1.2863e+05,-6222.3,0,4.082e+07,-174.4,12123,11097,1,11097,1,-0.00019442,-4.4061e-07,0,6.8326e-06,-3.6581e-05,-7.908e+07,-1.5063e+05,0,2.7789e+06,-22829,11096,11634,1,11634,1,-0.00010028,-1.6546e-07,0,5.0328e-05,-1.8949e-05,-4.0785e+07,-56440,0,2.0433e+07,-4241.2,11633,12614,1,12614,1,0.00010094,1.0529e-07,0,0.00015073,1.8825e-05,4.0829e+07,35971,0,6.1061e+07,4817.8,12613,567.13,0,567.13,0,0.00011599,2.204e-07,0,5.7869e-05,2.1756e-05,4.701e+07,75339,0,2.3435e+07,6851.7,567.13,1
1960,0.73,12124,1,12124,1,3.3547e-07,-3.28e-08,0,0.0001017,-5.9806e-08,-1952.2,-11208,0,4.1226e+07,729.25,12123,13104,1,13104,1,0.00019766,6.6779e-07,0,0.00019766,3.6927e-05,7.9713e+07,2.2815e+05,0,8.0108e+07,25266,13103,12124,1,12124,1,3.3125e-07,-2.4284e-08,0,0.00010184,-5.8381e-08,1.3166e+05,-8248.4,0,4.1319e+07,314.24,12123,11097,1,11097,1,-0.00019695,-5.3814e-07,0,6.9001e-06,-3.7056e-05,-8.0108e+07,-1.8409e+05,0,2.807e+06,-21753,11096,11634,1,11634,1,-0.00010151,-2.051e-07,0,5.0947e-05,-1.9172e-05,-4.1286e+07,-69979,0,2.0683e+07,-4729.7,11633,12614,1,12614,1,0.00010219,9.7743e-08,0,0.00015252,1.9053e-05,4.1329e+07,33275,0,6.1784e+07,4771.2,12613,567.13,0,567.13,0,0.00011738,2.4904e-07,0,5.856e-05,2.2017e-05,4.7568e+07,85130,0,2.3712e+07,7613.5,567.13,1
1960,0.74,12124,1,12124,1,3.5448e-07,-3.6702e-08,0,0.00010367,-6.8159e-08,-730.34,-12541,0,4.2021e+07,-1314,12123,13104,1,13104,1,0.00020127,4.668e-07,0,0.00020127,3.7597e-05,8.1153e+07,1.5982e+05,0,8.1558e+07,18561,13103,12124,1,12124,1,3.5914e-07,-2.322e-08,0,0.00010379,-6.3481e-08,1.415e+05,-7923.9,0,4.2108e+07,-1619.5,12123,11097,1,11097,1,-0.00020052,-3.8949e-07,0,7.0206e-06,-3.7735e-05,-8.1558e+07,-1.3335e+05,0,2.8561e+06,-12534,11096,11634,1,11634,1,-0.00010343,-1.5285e-07,0,5.192e-05,-1.9542e-05,-4.2069e+07,-52290,0,2.1077e+07,-5182.2,11633,12614,1,12614,1,0.00010416,5.9289e-08,0,0.00015553,1.9407e-05,4.2121e+07,20273,0,6.2988e+07,2124.5,12613,567.13,0,567.13,0,0.00011965,1.685e-07,0,5.9701e-05,2.2441e-05,4.8487e+07,57599,0,2.4171e+07,5509.5,567.13,1
1960,0.75,12124,1,12124,1,3.8841e-07,-3.2623e-08,0,0.0001051,-6.8475e-08,6007.3,-11142,0,4.2596e+07,1200.9,12123,13104,1,13104,1,0.00020402,4.4151e-07,0,0.00020402,3.809e-05,8.2234e+07,1.5122e+05,0,8.2637e+07,18915,13103,12124,1,12124,1,3.9041e-07,-1.5825e-08,0,0.00010523,-6.9031e-08,1.5485e+05,-5395.4,0,4.2685e+07,998.8,12123,11097,1,11097,1,-0.00020317,-4.3129e-07,0,7.1062e-06,-3.8247e-05,-8.2637e+07,-1.4742e+05,0,2.89e+06,-9022.6,11096,11634,1,11634,1,-0.00010483,-1.3618e-07,0,5.2635e-05,-1.9809e-05,-4.2639e+07,-46556,0,2.1366e+07,-2657,11633,12614,1,12614,1,0.00010561,6.365e-08,0,0.00015772,1.9676e-05,4.2701e+07,21744,0,6.386e+07,4894.6,12613,567.13,0,567.13,0,0.00012131,1.6435e-07,0,6.0525e-05,2.275e-05,4.9149e+07,56172,0,2.45e+07,5027.4,567.13,1
1960,0.76,12124,1,12124,1,3.8387e-07,-5.9166e-08,0,0.00010596,-7.1291e-08,-1660.6,-20216,0,4.2938e+07,-363.89,12123,13104,1,13104,1,0.00020595,5.7757e-07,0,0.00020595,3.8463e-05,8.2992e+07,1.9774e+05,0,8.3436e+07,12888,13103,12124,1,12124,1,3.7659e-07,-4.04e-08,0,0.00010614,-7.7315e-08,1.4862e+05,-13837,0,4.3051e+07,-173.49,12123,11097,1,11097,1,-0.00020513,-5.2684e-07,0,7.1688e-06,-3.8613e-05,-8.3436e+07,-1.8007e+05,0,2.9165e+06,-13617,11096,11634,1,11634,1,-0.00010574,-2.105e-07,0,5.3089e-05,-1.9985e-05,-4.3009e+07,-71698,0,2.1548e+07,-4332,11633,12614,1,12614,1,0.00010652,5.2531e-08,0,0.00015893,1.9847e-05,4.3058e+07,17993,0,6.4351e+07,4046.5,12613,567.13,0,567.13,0,0.00012229,2.1651e-07,0,6.1015e-05,2.2937e-05,4.9543e+07,73998,0,2.4696e+07,5594.9,567.13,1
1960,0.77,12124,1,12124,1,4.1188e-07,-1.4591e-08,0,0.00010732,-7.4067e-08,5129,-4983.5,0,4.3488e+07,657.81,12123,13104,1,13104,1,0.00020847,6.3856e-07,0,0.00020847,3.892e-05,8.3992e+07,2.181e+05,0,8.4438e+07,23506,13103,12124,1,12124,1,4.1074e-07,-1.337e-08,0,0.00010745,-6.699e-08,1.6338e+05,-4557.4,0,4.3582e+07,19.122,12123,11097,1,11097,1,-0.00020759,-5.3548e-07,0,7.2229e-06,-3.9083e-05,-8.4438e+07,-1.8333e+05,0,2.9384e+06,-14667,11096,11634,1,11634,1,-0.00010703,-1.806e-07,0,5.3754e-05,-2.0241e-05,-4.3532e+07,-61859,0,2.1818e+07,-4455.7,11633,12614,1,12614,1,0.00010787,1.2191e-07,0,0.000161,2.0087e-05,4.3602e+07,41546,0,6.5184e+07,4763.2,12613,567.13,0,567.13,0,0.00012386,2.4328e-07,0,6.1799e-05,2.3233e-05,5.0177e+07,83152,0,2.5011e+07,7004.6,567.13,1
1960,0.78,12124,1,12124,1,4.2534e-07,-7.1179e-08,0,0.00010865,-8.1697e-08,3920.2,-24313,0,4.4021e+07,-1516.1,12123,13104,1,13104,1,0.00021143,6.6024e-07,0,0.00021143,3.9471e-05,8.5164e+07,2.2613e+05,0,8.5627e+07,13522,13103,12124,1,12124,1,4.2277e-07,-5.3921e-08,0,0.00010887,-9.544e-08,1.6699e+05,-18469,0,4.4153e+07,-1258.2,12123,11097,1,11097,1,-0.00021052,-6.2624e-07,0,7.3183e-06,-3.9641e-05,-8.5627e+07,-2.144e+05,0,2.9763e+06,-18335,11096,11634,1,11634,1,-0.00010843,-2.4933e-07,0,5.4453e-05,-2.0511e-05,-4.4102e+07,-85108,0,2.2101e+07,-6131.5,11633,12614,1,12614,1,0.00010929,5.6017e-08,0,0.00016294,2.0345e-05,4.4166e+07,19130,0,6.5954e+07,3721.5,12613,567.13,0,567.13,0,0.00012539,2.5525e-07,0,6.256e-05,2.352e-05,5.0791e+07,87228,0,2.5316e+07,6395.7,567.13,1
1960,0.79,12124,1,12124,1,4.3032e-07,-1.0136e-07,0,0.00011025,-7.6894e-08,-367.89,-34623,0,4.4668e+07,868.81,12123,13104,1,13104,1,0.00021451,4.414e-07,0,0.00021451,4.005e-05,8.638e+07,1.5118e+05,0,8.6884e+07,21185,13103,12124,1,12124,1,4.3294e-07,-6.724e-08,0,0.00011046,-7.9748e-08,1.7148e+05,-23031,0,4.4797e+07,719.74,12123,11097,1,11097,1,-0.00021361,-5.2625e-07,0,7.4153e-06,-4.0212e-05,-8.6884e+07,-1.7985e+05,0,3.0155e+06,-9854.1,11096,11634,1,11634,1,-0.00011004,-2.3869e-07,0,5.5259e-05,-2.0802e-05,-4.4757e+07,-81728,0,2.2427e+07,-3489.7,11633,12614,1,12614,1,0.00011089,1.5674e-08,0,0.0001654,2.0654e-05,4.4806e+07,5342.8,0,6.6936e+07,4588.1,12613,567.13,0,567.13,0,0.00012725,1.9105e-07,0,6.3492e-05,2.3867e-05,5.1539e+07,65286,0,2.5689e+07,5422.1,567.13,1
1960,0.8,12124,1,12124,1,4.4521e-07,-3.5672e-08,0,0.00011155,-8.3426e-08,-1838.7,-12180,0,4.5187e+07,-733.47,12123,13104,1,13104,1,0.00021676,6.4088e-07,0,0.00021676,4.0458e-05,8.7264e+07,2.195e+05,0,8.7773e+07,16368,13103,12124,1,12124,1,4.4203e-07,-2.4876e-08,0,0.0001117,-8.7667e-08,1.7492e+05,-8434.8,0,4.5293e+07,-325.45,12123,11097,1,11097,1,-0.00021579,-5.5901e-07,0,7.5004e-06,-4.0641e-05,-8.7773e+07,-1.9119e+05,0,3.0509e+06,-23948,11096,11634,1,11634,1,-0.00011124,-1.9122e-07,0,5.5871e-05,-2.1039e-05,-4.5243e+07,-65278,0,2.2674e+07,-5579.6,11633,12614,1,12614,1,0.00011215,9.0594e-08,0,0.00016735,2.0873e-05,4.5306e+07,30819,0,6.7726e+07,4642,12613,567.13,0,567.13,0,0.00012874,2.3279e-07,0,6.4232e-05,2.4147e-05,5.2135e+07,79543,0,2.5985e+07,6947.6,567.13,1
1960,0.81,12124,1,12124,1,4.7317e-07,1.0942e-08,0,0.00011309,-8.6911e-08,2685.5,3738.4,0,4.5808e+07,-22.794,12123,13104,1,13104,1,0.00021949,6.4807e-07,0,0.00021949,4.0971e-05,8.8341e+07,2.2128e+05,0,8.8884e+07,18703,13103,12124,1,12124,1,4.7557e-07,-1.2961e-09,0,0.0001132,-8.6918e-08,1.8861e+05,-440.96,0,4.5901e+07,-447.43,12123,11097,1,11097,1,-0.00021853,-4.9265e-07,0,7.5807e-06,-4.115e-05,-8.8884e+07,-1.6865e+05,0,3.0838e+06,-13031,11096,11634,1,11634,1,-0.00011272,-1.39e-07,0,5.6615e-05,-2.1331e-05,-4.5846e+07,-47222,0,2.2975e+07,-4869,11633,12614,1,12614,1,0.00011368,1.36e-07,0,0.00016972,2.1149e-05,4.5918e+07,46276,0,6.8678e+07,4352.1,12613,567.13,0,567.13,0,0.00013052,2.2992e-07,0,6.5124e-05,2.4481e-05,5.2852e+07,78566,0,2.6342e+07,6250.8,567.13,1
1960,0.82,12124,1,12124,1,4.7954e-07,-1.9022e-08,0,0.00011456,-8.9596e-08,-2619.5,-6492.5,0,4.64e+07,-682.78,12123,13104,1,13104,1,0.00022243,5.6785e-07,0,0.00022243,4.1513e-05,8.95e+07,1.9448e+05,0,9.0061e+07,14594,13103,12124,1,12124,1,4.7932e-07,-1.203e-08,0,0.00011469,-9.0544e-08,1.8985e+05,-4096,0,4.6498e+07,-680.7,12123,11097,1,11097,1,-0.00022142,-5.0849e-07,0,7.6822e-06,-4.1702e-05,-9.0061e+07,-1.7408e+05,0,3.1249e+06,-18569,11096,11634,1,11634,1,-0.00011419,-1.6249e-07,0,5.7367e-05,-2.1608e-05,-4.6446e+07,-55290,0,2.3278e+07,-5142.5,11633,12614,1,12614,1,0.00011517,1.0634e-07,0,0.00017193,2.1426e-05,4.6512e+07,36252,0,6.9558e+07,4055.6,12613,567.13,0,567.13,0,0.00013223,2.1371e-07,0,6.5973e-05,2.48e-05,5.3535e+07,73014,0,2.6682e+07,5911.6,567.13,1
1960,0.83,12124,1,12124,1,5.0067e-07,-6.6549e-08,0,0.00011564,-9.3844e-08,-1097.2,-22724,0,4.6831e+07,-830.59,12123,13104,1,13104,1,0.00022486,5.6372e-07,0,0.00022486,4.1964e-05,9.0452e+07,1.9284e+05,0,9.1033e+07,13625,13103,12124,1,12124,1,4.9981e-07,-3.8266e-08,0,0.00011585,-1.0781e-07,1.9723e+05,-13087,0,4.6966e+07,-394.77,12123,11097,1,11097,1,-0.00022381,-5.9257e-07,0,7.7373e-06,-4.2155e-05,-9.1033e+07,-2.0246e+05,0,3.1472e+06,-19556,11096,11634,1,11634,1,-0.00011534,-2.1809e-07,0,5.7936e-05,-2.1824e-05,-4.691e+07,-74397,0,2.3507e+07,-5607.1,11633,12614,1,12614,1,0.00011634,5.8266e-08,0,0.00017355,2.1648e-05,4.6976e+07,19794,0,7.0197e+07,4707.3,12613,567.13,0,567.13,0,0.00013347,2.3096e-07,0,6.6593e-05,2.5034e-05,5.4031e+07,78905,0,2.6928e+07,7069.1,567.13,1
1960,0.84,12124,1,12124,1,5.1838e-07,-1.2747e-08,0,0.00011762,-9.5689e-08,-1377.8,-4349.3,0,4.7627e+07,-243.77,12123,13104,1,13104,1,0.0002285,5.8239e-07,0,0.0002285,4.2639e-05,9.1895e+07,1.99e+05,0,9.2504e+07,11424,13103,12124,1,12124,1,5.1642e-07,-8.2886e-09,0,0.00011777,-1.027e-07,2.0452e+05,-2834.3,0,4.7742e+07,-105.36,12123,11097,1,11097,1,-0.00022743,-4.7365e-07,0,7.8641e-06,-4.2837e-05,-9.2504e+07,-1.6183e+05,0,3.1987e+06,-17154,11096,11634,1,11634,1,-0.00011726,-1.6221e-07,0,5.8917e-05,-2.2191e-05,-4.7691e+07,-55205,0,2.3905e+07,-4703.8,11633,12614,1,12614,1,0.00011829,1.0299e-07,0,0.00017653,2.2001e-05,4.7754e+07,35277,0,7.1398e+07,4338.8,12613,567.13,0,567.13,0,0.00013575,2.1562e-07,0,6.7733e-05,2.546e-05,5.495e+07,73648,0,2.7386e+07,5462,567.13,1
1960,0.85,12124,1,12124,1,5.3937e-07,-3.8898e-08,0,0.00011891,-9.7909e-08,-2202.3,-13281,0,4.8143e+07,441.36,12123,13104,1,13104,1,0.000231,6.0779e-07,0,0.000231,4.3102e-05,9.2867e+07,2.0816e+05,0,9.3502e+07,22011,13103,12124,1,12124,1,5.3733e-07,-3.6061e-08,0,0.00011908,-1.0684e-07,2.1286e+05,-12260,0,4.8267e+07,371.58,12123,11097,1,11097,1,-0.00022988,-4.5923e-07,0,7.9379e-06,-4.3306e-05,-9.3502e+07,-1.572e+05,0,3.2292e+06,-14636,11096,11634,1,11634,1,-0.00011854,-1.7728e-07,0,5.9557e-05,-2.2434e-05,-4.8212e+07,-60530,0,2.4162e+07,-4577.9,11633,12614,1,12614,1,0.00011961,5.6839e-08,0,0.00017852,2.2245e-05,4.8276e+07,19414,0,7.2185e+07,3843.7,12613,567.13,0,567.13,0,0.00013724,2.0694e-07,0,6.8477e-05,2.574e-05,5.5545e+07,70698,0,2.7681e+07,6642.8,567.13,1
1960,0.86,12124,1,12124,1,5.7065e-07,-2.2078e-08,0,0.00012023,-1.0013e-07,3291.7,-7531.7,0,4.8672e+07,1944.5,12123,13104,1,13104,1,0.00023352,5.6551e-07,0,0.00023352,4.3559e-05,9.3855e+07,1.9368e+05,0,9.45e+07,18183,13103,12124,1,12124,1,5.666e-07,-1.0647e-08,0,0.00012036,-9.9169e-08,2.2485e+05,-3609.7,0,4.8783e+07,1620.5,12123,11097,1,11097,1,-0.00023233,-4.9794e-07,0,7.9975e-06,-4.3778e-05,-9.45e+07,-1.7011e+05,0,3.2525e+06,-18474,11096,11634,1,11634,1,-0.00011979,-1.4517e-07,0,6.0216e-05,-2.2683e-05,-4.8723e+07,-49551,0,2.4429e+07,-3007,11633,12614,1,12614,1,0.00012094,9.0291e-08,0,0.0001805,2.248e-05,4.8805e+07,30730,0,7.2972e+07,6584.2,12613,567.13,0,567.13,0,0.00013876,2.027e-07,0,6.9237e-05,2.6026e-05,5.6154e+07,69222,0,2.7984e+07,6163.4,567.13,1
1960,0.87,12124,1,12124,1,5.8637e-07,1.2645e-08,0,0.00012168,-1.1002e-07,1090.5,4319,0,4.9255e+07,-1006.7,12123,13104,1,13104,1,0.00023627,7.7162e-07,0,0.00023627,4.4101e-05,9.4942e+07,2.6415e+05,0,9.5668e+07,20286,13103,12124,1,12124,1,5.8807e-07,-9.4295e-09,0,0.00012181,-1.2083e-07,2.3266e+05,-3211.1,0,4.9368e+07,-731.42,12123,11097,1,11097,1,-0.00023521,-4.8509e-07,0,8.0837e-06,-4.4299e-05,-9.5668e+07,-1.657e+05,0,3.2879e+06,-21098,11096,11634,1,11634,1,-0.00012122,-1.5804e-07,0,6.0926e-05,-2.2972e-05,-4.9306e+07,-53981,0,2.4716e+07,-6568.8,11633,12614,1,12614,1,0.0001224,1.4785e-07,0,0.00018268,2.2741e-05,4.9388e+07,50455,0,7.385e+07,4300.7,12613,567.13,0,567.13,0,0.00014044,2.5436e-07,0,7.0072e-05,2.6343e-05,5.6826e+07,86874,0,2.8318e+07,7592.8,567.13,1
1960,0.88,12124,1,12124,1,6.1859e-07,-1.775e-08,0,0.00012336,-1.1247e-07,5327.8,-6058.2,0,4.993e+07,462.57,12123,13104,1,13104,1,0.00023953,5.2914e-07,0,0.00023953,4.4672e-05,9.6221e+07,1.8113e+05,0,9.691e+07,13300,13103,12124,1,12124,1,6.2069e-07,-9.8419e-09,0,0.00012348,-1.1192e-07,2.4643e+05,-3335.7,0,5.0039e+07,570.64,12123,11097,1,11097,1,-0.00023826,-4.4192e-07,0,8.17e-06,-4.4905e-05,-9.691e+07,-1.5119e+05,0,3.3231e+06,-18046,11096,11634,1,11634,1,-0.00012287,-1.511e-07,0,6.1773e-05,-2.3281e-05,-4.9973e+07,-51402,0,2.5057e+07,-3935.9,11633,12614,1,12614,1,0.0001241,9.3773e-08,0,0.00018524,2.3061e-05,5.0063e+07,31949,0,7.4869e+07,4999,12613,567.13,0,567.13,0,0.00014238,2.0026e-07,0,7.1045e-05,2.6703e-05,5.7605e+07,68399,0,2.8707e+07,5728.1,567.13,1
1960,0.89,12124,1,12124,1,6.3357e-07,-2.9558e-08,0,0.00012495,-1.2064e-07,957.81,-10088,0,5.0567e+07,-1833.7,12123,13104,1,13104,1,0.00024257,5.391e-07,0,0.00024257,4.5237e-05,9.7407e+07,1.8455e+05,0,9.813e+07,11031,13103,12124,1,12124,1,6.2728e-07,-2.2653e-08,0,0.00012508,-1.3554e-07,2.4814e+05,-7676.6,0,5.0682e+07,-1442.5,12123,11097,1,11097,1,-0.00024126,-4.4947e-07,0,8.2814e-06,-4.5476e-05,-9.813e+07,-1.5351e+05,0,3.3686e+06,-21785,11096,11634,1,11634,1,-0.00012443,-1.5596e-07,0,6.2547e-05,-2.358e-05,-5.0611e+07,-53347,0,2.5369e+07,-5658.2,11633,12614,1,12614,1,0.00012571,7.1941e-08,0,0.00018761,2.3351e-05,5.0699e+07,24488,0,7.5832e+07,2926.6,12613,567.13,0,567.13,0,0.00014422,1.9254e-07,0,7.196e-05,2.7048e-05,5.8339e+07,65759,0,2.9071e+07,6058.2,567.13,1
1960,0.9,12124,1,12124,1,6.6435e-07,-4.3422e-08,0,0.00012648,-1.2281e-07,3895.7,-14824,0,5.1179e+07,-360.75,12123,13104,1,13104,1,0.0002457,5.0715e-07,0,0.0002457,4.5816e-05,9.8631e+07,1.7323e+05,0,9.9385e+07,15900,13103,12124,1,12124,1,6.559e-07,-3.3579e-08,0,0.00012664,-1.1953e-07,2.5944e+05,-11384,0,5.1311e+07,-440.86,12123,11097,1,11097,1,-0.00024434,-4.2704e-07,0,8.3581e-06,-4.6062e-05,-9.9385e+07,-1.4618e+05,0,3.4002e+06,-12138,11096,11634,1,11634,1,-0.00012598,-1.7628e-07,0,6.3336e-05,-2.3877e-05,-5.1239e+07,-60368,0,2.5687e+07,-4735.3,11633,12614,1,12614,1,0.0001273,5.3412e-08,0,0.00018997,2.3638e-05,5.1329e+07,18294,0,7.6756e+07,3511.8,12613,567.13,0,567.13,0,0.00014599,1.9342e-07,0,7.2843e-05,2.7379e-05,5.9045e+07,66044,0,2.9423e+07,5559.7,567.13,1
1960,0.91,12124,1,12124,1,6.8324e-07,-3.6484e-08,0,0.00012757,-1.268e-07,2614.4,-12448,0,5.1613e+07,-586.09,12123,13104,1,13104,1,0.0002478,5.7303e-07,0,0.0002478,4.6188e-05,9.944e+07,1.9616e+05,0,1.002e+08,18324,13103,12124,1,12124,1,6.7947e-07,-2.4676e-08,0,0.00012774,-1.2916e-07,2.6857e+05,-8360,0,5.1749e+07,-820.33,12123,11097,1,11097,1,-0.00024634,-5.2349e-07,0,8.412e-06,-4.6456e-05,-1.002e+08,-1.7876e+05,0,3.4216e+06,-14168,11096,11634,1,11634,1,-0.00012702,-1.7583e-07,0,6.3865e-05,-2.4091e-05,-5.1662e+07,-59895,0,2.59e+07,-5470.2,11633,12614,1,12614,1,0.00012842,7.4002e-08,0,0.00019157,2.3837e-05,5.1769e+07,25180,0,7.7407e+07,3979.6,12613,567.13,0,567.13,0,0.00014724,2.1684e-07,0,7.3468e-05,2.7616e-05,5.9544e+07,74040,0,2.967e+07,6304.1,567.13,1
1960,0.92,12124,1,12124,1,6.7262e-07,-7.3575e-08,0,0.00012902,-1.2441e-07,-9800.6,-25111,0,5.2194e+07,-453.28,12123,13104,1,13104,1,0.00025105,5.7353e-07,0,0.00025105,4.681e-05,1.0072e+08,1.9619e+05,0,1.0153e+08,17556,13103,12124,1,12124,1,6.6445e-07,-5.5607e-08,0,0.00012925,-1.276e-07,2.6312e+05,-18869,0,5.2358e+07,-1213.9,12123,11097,1,11097,1,-0.00024963,-4.9635e-07,0,8.5223e-06,-4.7067e-05,-1.0153e+08,-1.699e+05,0,3.4662e+06,-23724,11096,11634,1,11634,1,-0.00012856,-2.3729e-07,0,6.4626e-05,-2.4363e-05,-5.2289e+07,-80903,0,2.6208e+07,-5345.2,11633,12614,1,12614,1,0.00012991,4.5794e-08,0,0.00019371,2.4128e-05,5.236e+07,15558,0,7.8258e+07,3854.1,12613,567.13,0,567.13,0,0.00014891,2.2143e-07,0,7.4303e-05,2.7928e-05,6.0215e+07,75611,0,3.0004e+07,6383,567.13,1
1960,0.93,12124,1,12124,1,6.9921e-07,-4.4848e-08,0,0.00013034,-1.2694e-07,-8186.6,-15299,0,5.2723e+07,542.21,12123,13104,1,13104,1,0.00025326,6.0678e-07,0,0.00025326,4.7217e-05,1.0157e+08,2.0781e+05,0,1.0242e+08,19301,13103,12124,1,12124,1,6.8968e-07,-2.9157e-08,0,0.00013051,-1.3937e-07,2.7354e+05,-9925.4,0,5.2863e+07,884.02,12123,11097,1,11097,1,-0.00025182,-5.1701e-07,0,8.5961e-06,-4.7478e-05,-1.0242e+08,-1.7655e+05,0,3.4962e+06,-20550,11096,11634,1,11634,1,-0.0001298,-1.9256e-07,0,6.5264e-05,-2.4604e-05,-5.2793e+07,-65626,0,2.6464e+07,-4444.1,11633,12614,1,12614,1,0.0001312,6.7656e-08,0,0.00019577,2.436e-05,5.2872e+07,23014,0,7.9075e+07,5196.5,12613,567.13,0,567.13,0,0.00015044,2.2347e-07,0,7.5063e-05,2.8215e-05,6.0824e+07,76295,0,3.0305e+07,7050.1,567.13,1
1960,0.94,12124,1,12124,1,7.2998e-07,1.0054e-08,0,0.00013195,-1.3716e-07,-5881,3434.2,0,5.3366e+07,-1370.6,12123,13104,1,13104,1,0.00025597,5.6737e-07,0,0.00025597,4.7737e-05,1.0264e+08,1.942e+05,0,1.0355e+08,17182,13103,12124,1,12124,1,7.3519e-07,-6.2805e-10,0,0.00013203,-1.4381e-07,2.899e+05,-213.88,0,5.348e+07,-1481.1,12123,11097,1,11097,1,-0.00025459,-4.1642e-07,0,8.6754e-06,-4.7995e-05,-1.0355e+08,-1.4253e+05,0,3.5291e+06,-14598,11096,11634,1,11634,1,-0.00013133,-1.0102e-07,0,6.6064e-05,-2.4909e-05,-5.3416e+07,-34445,0,2.6787e+07,-5711.8,11633,12614,1,12614,1,0.00013278,1.0704e-07,0,0.00019809,2.4646e-05,5.3498e+07,36608,0,8.0056e+07,3078.2,12613,567.13,0,567.13,0,0.0001523,1.8566e-07,0,7.5992e-05,2.8562e-05,6.1566e+07,63391,0,3.0675e+07,6309.3,567.13,1
1960,0.95,12124,1,12124,1,7.7895e-07,-9.8288e-08,0,0.000133,-1.4907e-07,3839,-33529,0,5.3784e+07,-2559.3,12123,13104,1,13104,1,0.00025868,4.5853e-07,0,0.00025868,4.8197e-05,1.0369e+08,1.5705e+05,0,1.0455e+08,10388,13103,12124,1,12124,1,7.7549e-07,-7.3773e-08,0,0.00013321,-1.6293e-07,3.0597e+05,-25191,0,5.3948e+07,-1243.1,12123,11097,1,11097,1,-0.00025705,-4.7937e-07,0,8.6988e-06,-4.8494e-05,-1.0455e+08,-1.6407e+05,0,3.5395e+06,-27562,11096,11634,1,11634,1,-0.00013241,-2.4691e-07,0,6.6607e-05,-2.5128e-05,-5.3856e+07,-84110,0,2.7005e+07,-6062.5,11633,12614,1,12614,1,0.00013397,1.8009e-08,0,0.0001998,2.4842e-05,5.3965e+07,6117.7,0,8.0664e+07,1941.4,12613,567.13,0,567.13,0,0.00015351,1.944e-07,0,7.6599e-05,2.8788e-05,6.2047e+07,66374,0,3.0915e+07,6144.5,567.13,1
1960,0.96,12124,1,12124,1,7.9439e-07,4.9557e-09,0,0.00013461,-1.4193e-07,1740,1681.5,0,5.4427e+07,1621.6,12123,13104,1,13104,1,0.00026137,6.6571e-07,0,0.00026137,4.8724e-05,1.0475e+08,2.2729e+05,0,1.0569e+08,21394,13103,12124,1,12124,1,7.8575e-07,-4.7758e-09,0,0.00013472,-1.3364e-07,3.1216e+05,-1623.8,0,5.4559e+07,747.28,12123,11097,1,11097,1,-0.00025984,-4.7318e-07,0,8.8096e-06,-4.9009e-05,-1.0569e+08,-1.6153e+05,0,3.5824e+06,-16317,11096,11634,1,11634,1,-0.00013391,-1.4763e-07,0,6.7366e-05,-2.5426e-05,-5.4467e+07,-50305,0,2.7312e+07,-3468.1,11633,12614,1,12614,1,0.00013552,1.3129e-07,0,0.00020209,2.5128e-05,5.458e+07,44745,0,8.1621e+07,5020.4,12613,567.13,0,567.13,0,0.00015536,2.3059e-07,0,7.7521e-05,2.9137e-05,6.2789e+07,78699,0,3.1283e+07,6963,567.13,1
1960,0.97,12124,1,12124,1,8.0645e-07,2.389e-08,0,0.00013572,-1.5332e-07,-4554.7,8150.2,0,5.4871e+07,-2260.7,12123,13104,1,13104,1,0.0002637,6.507e-07,0,0.0002637,4.9146e-05,1.0564e+08,2.2285e+05,0,1.066e+08,13875,13103,12124,1,12124,1,8.0012e-07,6.1895e-09,0,0.00013589,-1.6986e-07,3.1646e+05,2104.1,0,5.5023e+07,-1686,12123,11097,1,11097,1,-0.00026209,-5.1527e-07,0,8.8774e-06,-4.9435e-05,-1.066e+08,-1.7635e+05,0,3.611e+06,-22683,11096,11634,1,11634,1,-0.00013508,-1.1292e-07,0,6.7944e-05,-2.5647e-05,-5.4943e+07,-38469,0,2.7546e+07,-7471.2,11633,12614,1,12614,1,0.00013669,1.5789e-07,0,0.00020384,2.5331e-05,5.5039e+07,53782,0,8.2311e+07,3895.9,12613,567.13,0,567.13,0,0.00015665,2.267e-07,0,7.8163e-05,2.938e-05,6.3299e+07,77374,0,3.1536e+07,7244.2,567.13,1
1960,0.98,12124,1,12124,1,8.3535e-07,-1.9143e-08,0,0.00013713,-1.5122e-07,-1457.6,-6530.2,0,5.5433e+07,862.41,12123,13104,1,13104,1,0.00026663,8.431e-07,0,0.00026663,4.9673e-05,1.0678e+08,2.8856e+05,0,1.0776e+08,26912,13103,12124,1,12124,1,8.3076e-07,-2.5294e-08,0,0.0001373,-1.4447e-07,3.2969e+05,-8639.4,0,5.5588e+07,-57.14,12123,11097,1,11097,1,-0.00026492,-5.562e-07,0,8.9348e-06,-4.9985e-05,-1.0776e+08,-1.8995e+05,0,3.6341e+06,-19298,11096,11634,1,11634,1,-0.00013646,-2.2142e-07,0,6.8673e-05,-2.591e-05,-5.5501e+07,-75343,0,2.7837e+07,-5027.3,11633,12614,1,12614,1,0.00013814,1.2627e-07,0,0.00020596,2.5606e-05,5.5609e+07,42959,0,8.3122e+07,5104.7,12613,567.13,0,567.13,0,0.00015827,2.8979e-07,0,7.8969e-05,2.9685e-05,6.3947e+07,98900,0,3.1856e+07,8158.7,567.13,1
1960,0.99,12124,1,12124,1,8.731e-07,-7.8038e-09,0,0.00013872,-1.6557e-07,2065.7,-2659.7,0,5.6068e+07,-2243.7,12123,13104,1,13104,1,0.00026933,6.3611e-07,0,0.00026933,5.016e-05,1.0782e+08,2.1715e+05,0,1.0881e+08,12016,13103,12124,1,12124,1,8.6224e-07,-9.0486e-09,0,0.00013884,-1.7341e-07,3.4074e+05,-3075.8,0,5.6205e+07,-1541.2,12123,11097,1,11097,1,-0.00026753,-4.8738e-07,0,9.0213e-06,-5.0489e-05,-1.0881e+08,-1.6633e+05,0,3.6694e+06,-24802,11096,11634,1,11634,1,-0.00013794,-1.5054e-07,0,6.9421e-05,-2.6215e-05,-5.6105e+07,-51259,0,2.8138e+07,-6511.9,11633,12614,1,12614,1,0.00013971,1.0795e-07,0,0.00020824,2.5887e-05,5.6231e+07,36726,0,8.4105e+07,3413.9,12613,567.13,0,567.13,0,0.0001601,2.2022e-07,0,7.9887e-05,3.0027e-05,6.4679e+07,75149,0,3.2221e+07,7032.1,567.13,1
1960,1,12124,1,12124,1,8.9666e-07,-3.6326e-08,0,0.00014015,-1.6681e-07,-14.904,-12390,0,5.6638e+07,-957.48,12123,13104,1,13104,1,0.00027226,5.3691e-07,0,0.00027226,5.07e-05,1.0896e+08,1.8375e+05,0,1.0999e+08,17256,13103,12124,1,12124,1,8.9024e-07,-2.256e-08,0,0.00014029,-1.8178e-07,3.5234e+05,-7653.9,0,5.679e+07,-1232.1,12123,11097,1,11097,1,-0.00027042,-4.662e-07,0,9.0947e-06,-5.1039e-05,-1.0999e+08,-1.591e+05,0,3.6997e+06,-19872,11096,11634,1,11634,1,-0.00013939,-1.6444e-07,0,7.0162e-05,-2.6482e-05,-5.6694e+07,-56115,0,2.8436e+07,-4954.9,11633,12614,1,12614,1,0.00014119,6.525e-08,0,0.00021044,2.6149e-05,5.6813e+07,22302,0,8.4979e+07,2866.7,12613,567.13,0,567.13,0,0.00016176,1.9339e-07,0,8.0714e-05,3.0335e-05,6.5337e+07,65986,0,3.2548e+07,5898.9,567.13,1
1960,1.01,12124,1,12124,1,9.0544e-07,-8.9925e-08,0,0.00014151,-1.6829e-07,-7648.6,-30654,0,5.7183e+07,-933,12123,13104,1,13104,1,0.00027523,5.4077e-07,0,0.00027523,5.1255e-05,1.1011e+08,1.8508e+05,0,1.1119e+08,16299,13103,12124,1,12124,1,9.011e-07,-7.3515e-08,0,0.00014172,-1.7022e-07,3.5645e+05,-25091,0,5.7362e+07,-1072.5,12123,11097,1,11097,1,-0.00027336,-5.2405e-07,0,9.1801e-06,-5.1595e-05,-1.1119e+08,-1.79e+05,0,3.734e+06,-17186,11096,11634,1,11634,1,-0.0001408,-2.4794e-07,0,7.0866e-05,-2.6751e-05,-5.7268e+07,-84564,0,2.872e+07,-5137.5,11633,12614,1,12614,1,0.00014262,2.7735e-08,0,0.00021258,2.6421e-05,5.7373e+07,9435,0,8.5791e+07,3433.7,12613,567.13,0,567.13,0,0.00016333,2.1594e-07,0,8.1501e-05,3.0632e-05,6.5965e+07,73690,0,3.286e+07,6363.2,567.13,1
1960,1.02,12124,1,12124,1,9.4513e-07,-2.6951e-08,0,0.00014275,-1.7291e-07,-2100.1,-9189.8,0,5.7676e+07,207.94,12123,13104,1,13104,1,0.00027749,6.7978e-07,0,0.00027749,5.1664e-05,1.1097e+08,2.3199e+05,0,1.1208e+08,18746,13103,12124,1,12124,1,9.4307e-07,-1.522e-08,0,0.00014292,-1.6813e-07,3.7353e+05,-5178.5,0,5.7838e+07,-94.677,12123,11097,1,11097,1,-0.00027555,-5.7706e-07,0,9.2223e-06,-5.2022e-05,-1.1208e+08,-1.9697e+05,0,3.7514e+06,-17963,11096,11634,1,11634,1,-0.00014195,-1.9618e-07,0,7.1481e-05,-2.6989e-05,-5.7738e+07,-66974,0,2.8966e+07,-4740.3,11633,12614,1,12614,1,0.00014387,1.1273e-07,0,0.00021438,2.6634e-05,5.7865e+07,38610,0,8.6519e+07,4907.6,12613,567.13,0,567.13,0,0.00016476,2.5143e-07,0,8.2212e-05,3.0901e-05,6.6532e+07,85785,0,3.3141e+07,6616.5,567.13,1
1960,1.03,12124,1,12124,1,9.7744e-07,-3.2505e-08,0,0.00014471,-1.8311e-07,-1737.1,-11085,0,5.8458e+07,-1585,12123,13104,1,13104,1,0.00028112,5.8524e-07,0,0.00028112,5.2337e-05,1.1239e+08,1.99e+05,0,1.1353e+08,15389,13103,12124,1,12124,1,9.5868e-07,-2.5738e-08,0,0.00014486,-1.8467e-07,3.7931e+05,-8734.9,0,5.8621e+07,-1296.8,12123,11097,1,11097,1,-0.00027912,-4.7626e-07,0,9.3548e-06,-5.2699e-05,-1.1353e+08,-1.6248e+05,0,3.8049e+06,-27090,11096,11634,1,11634,1,-0.00014387,-1.6197e-07,0,7.2432e-05,-2.7349e-05,-5.8516e+07,-55323,0,2.935e+07,-5376.3,11633,12614,1,12614,1,0.00014583,6.7987e-08,0,0.00021728,2.6995e-05,5.8641e+07,23145,0,8.7704e+07,2955,12613,567.13,0,567.13,0,0.00016702,2.0566e-07,0,8.3342e-05,3.1322e-05,6.7435e+07,70147,0,3.3591e+07,6071,567.13,1
1960,1.04,12124,1,12124,1,1.0024e-06,-1.6867e-09,0,0.00014628,-1.8684e-07,-6710.2,-571.19,0,5.9082e+07,-1250.6,12123,13104,1,13104,1,0.00028407,6.071e-07,0,0.00028407,5.288e-05,1.1352e+08,2.0735e+05,0,1.1471e+08,13985,13103,12124,1,12124,1,1.0009e-06,-7.6977e-09,0,0.00014639,-1.8885e-07,3.9567e+05,-2613.6,0,5.923e+07,-1062.6,12123,11097,1,11097,1,-0.00028203,-4.103e-07,0,9.4243e-06,-5.3254e-05,-1.1471e+08,-1.4005e+05,0,3.8335e+06,-14543,11096,11634,1,11634,1,-0.00014537,-1.4449e-07,0,7.321e-05,-2.7648e-05,-5.9128e+07,-49283,0,2.9663e+07,-4897.9,11633,12614,1,12614,1,0.00014739,1.1323e-07,0,0.00021958,2.7273e-05,5.9252e+07,38702,0,8.8614e+07,3031.1,12613,567.13,0,567.13,0,0.00016883,2.0805e-07,0,8.4247e-05,3.1662e-05,6.8154e+07,70977,0,3.3947e+07,5736,567.13,1
1960,1.05,12124,1,12124,1,1.0395e-06,-7.2267e-08,0,0.00014779,-1.9486e-07,-5125.5,-24631,0,5.9683e+07,-1753.7,12123,13104,1,13104,1,0.00028733,5.2601e-07,0,0.00028733,5.3477e-05,1.1478e+08,1.7948e+05,0,1.16e+08,15353,13103,12124,1,12124,1,1.0318e-06,-5.8556e-08,0,0.00014798,-2.0083e-07,4.0757e+05,-19889,0,5.9867e+07,-867.72,12123,11097,1,11097,1,-0.0002852,-4.4278e-07,0,9.5014e-06,-5.3864e-05,-1.16e+08,-1.5103e+05,0,3.8649e+06,-23501,11096,11634,1,11634,1,-0.00014692,-2.1712e-07,0,7.3992e-05,-2.7945e-05,-5.9759e+07,-74196,0,2.9977e+07,-5169.2,11633,12614,1,12614,1,0.00014901,3.1587e-08,0,0.00022196,2.7564e-05,5.9885e+07,10749,0,8.9564e+07,2845.9,12613,567.13,0,567.13,0,0.00017058,1.9722e-07,0,8.5117e-05,3.1988e-05,6.8845e+07,67272,0,3.4291e+07,6241.9,567.13,1
1960,1.06,12124,1,12124,1,1.0934e-06,-2.0679e-08,0,0.00014892,-2.0294e-07,4558,-7041.7,0,6.0133e+07,-953.63,12123,13104,1,13104,1,0.00028945,6.4521e-07,0,0.00028945,5.385e-05,1.1558e+08,2.2099e+05,0,1.1682e+08,17078,13103,12124,1,12124,1,1.093e-06,-2.0911e-08,0,0.00014908,-2.2322e-07,4.3232e+05,-7066.9,0,6.0305e+07,-1052.3,12123,11097,1,11097,1,-0.00028722,-4.7854e-07,0,9.5213e-06,-5.4261e-05,-1.1682e+08,-1.6323e+05,0,3.8735e+06,-21566,11096,11634,1,11634,1,-0.00014797,-1.746e-07,0,7.4555e-05,-2.8167e-05,-6.0185e+07,-59577,0,3.0202e+07,-4962.6,11633,12614,1,12614,1,0.00015017,9.4861e-08,0,0.00022362,2.7758e-05,6.0337e+07,32316,0,9.0213e+07,3025.1,12613,567.13,0,567.13,0,0.00017189,2.2862e-07,0,8.5771e-05,3.2234e-05,6.9364e+07,77988,0,3.4547e+07,6047.4,567.13,1
1960,1.07,12124,1,12124,1,1.1174e-06,-2.6499e-08,0,0.00014993,-2.0575e-07,4217.7,-9034.3,0,6.0533e+07,-281.51,12123,13104,1,13104,1,0.00029133,5.749e-07,0,0.00029133,5.4198e-05,1.163e+08,1.9613e+05,0,1.1757e+08,12842,13103,12124,1,12124,1,1.1113e-06,-2.3611e-08,0,0.00015008,-2.0041e-07,4.4002e+05,-8022.5,0,6.0705e+07,-482.4,12123,11097,1,11097,1,-0.00028905,-5.0254e-07,0,9.575e-06,-5.4616e-05,-1.1757e+08,-1.7146e+05,0,3.8944e+06,-16001,11096,11634,1,11634,1,-0.00014895,-1.7407e-07,0,7.5046e-05,-2.8357e-05,-6.0581e+07,-59295,0,3.0399e+07,-4839.3,11633,12614,1,12614,1,0.00015119,8.6119e-08,0,0.00022511,2.795e-05,6.0735e+07,29227,0,9.0804e+07,4048,12613,567.13,0,567.13,0,0.00017305,2.1786e-07,0,8.6353e-05,3.2453e-05,6.9824e+07,74292,0,3.4776e+07,5558.9,567.13,1
1960,1.08,12124,1,12124,1,1.158e-06,-1.1599e-08,0,0.00015145,-2.142e-07,9480.4,-3943.6,0,6.1139e+07,-688.13,12123,13104,1,13104,1,0.0002944,7.5706e-07,0,0.0002944,5.4749e-05,1.1749e+08,2.5929e+05,0,1.1878e+08,20490,13103,12124,1,12124,1,1.1576e-06,-1.6599e-08,0,0.00015159,-2.3584e-07,4.5801e+05,-5591.5,0,6.1312e+07,-827.48,12123,11097,1,11097,1,-0.00029202,-5.4959e-07,0,9.636e-06,-5.5188e-05,-1.1878e+08,-1.8788e+05,0,3.9202e+06,-25053,11096,11634,1,11634,1,-0.00015041,-1.8795e-07,0,7.581e-05,-2.865e-05,-6.1179e+07,-63827,0,3.0706e+07,-5526.3,11633,12614,1,12614,1,0.00015275,1.2526e-07,0,0.00022738,2.8219e-05,6.1351e+07,42813,0,9.1711e+07,4082.7,12613,567.13,0,567.13,0,0.0001748,2.6417e-07,0,8.7224e-05,3.2782e-05,7.0523e+07,90105,0,3.5122e+07,7149.5,567.13,1
1960,1.09,12124,1,12124,1,1.1606e-06,1.9934e-08,0,0.00015328,-2.1179e-07,-4281.7,6798.5,0,6.1869e+07,471.55,12123,13104,1,13104,1,0.00029777,6.0666e-07,0,0.00029777,5.5425e-05,1.188e+08,2.0658e+05,0,1.2022e+08,17628,13103,12124,1,12124,1,1.1548e-06,-6.8951e-10,0,0.00015341,-2.1181e-07,4.5658e+05,-233.99,0,6.2044e+07,372.44,12123,11097,1,11097,1,-0.00029556,-4.2413e-07,0,9.7721e-06,-5.5821e-05,-1.2022e+08,-1.4462e+05,0,3.975e+06,-17951,11096,11634,1,11634,1,-0.00015226,-1.1266e-07,0,7.6726e-05,-2.8996e-05,-6.1931e+07,-38438,0,3.1076e+07,-4331.3,11633,12614,1,12614,1,0.00015458,1.3748e-07,0,0.00023016,2.8563e-05,6.2071e+07,46800,0,9.2797e+07,4862.4,12613,567.13,0,567.13,0,0.00017692,2.0446e-07,0,8.8282e-05,3.3178e-05,7.1364e+07,69698,0,3.5541e+07,6524.1,567.13,1
1960,1.1,12124,1,12124,1,1.206e-06,2.1523e-08,0,0.00015453,-2.2299e-07,-1317.9,7343.6,0,6.2362e+07,-716.64,12123,13104,1,13104,1,0.00030038,7.8224e-07,0,0.00030038,5.5888e-05,1.1978e+08,2.6767e+05,0,1.2123e+08,19368,13103,12124,1,12124,1,1.2061e-06,-1.06e-08,0,0.00015468,-2.266e-07,4.7726e+05,-3572.5,0,6.2551e+07,-626.37,12123,11097,1,11097,1,-0.00029804,-4.8353e-07,0,9.8035e-06,-5.6322e-05,-1.2123e+08,-1.6494e+05,0,3.9883e+06,-15830,11096,11634,1,11634,1,-0.00015347,-1.534e-07,0,7.7361e-05,-2.9245e-05,-6.2423e+07,-52454,0,3.133e+07,-5876.6,11633,12614,1,12614,1,0.0001559,1.6264e-07,0,0.00023206,2.8795e-05,6.2585e+07,55243,0,9.3549e+07,4337.5,12613,567.13,0,567.13,0,0.00017836,2.6212e-07,0,8.9e-05,3.345e-05,7.1931e+07,89375,0,3.5821e+07,7133.8,567.13,1
1960,1.11,12124,1,12124,1,1.2509e-06,-7.9588e-08,0,0.00015582,-2.3253e-07,4271,-27107,0,6.2872e+07,-1240.9,12123,13104,1,13104,1,0.00030333,7.0727e-07,0,0.00030333,5.6394e-05,1.2091e+08,2.4182e+05,0,1.2233e+08,22309,13103,12124,1,12124,1,1.249e-06,-7.2037e-08,0,0.00015604,-2.3223e-07,4.9318e+05,-24457,0,6.3091e+07,252.33,12123,11097,1,11097,1,-0.00030075,-5.7072e-07,0,9.8562e-06,-5.6862e-05,-1.2233e+08,-1.9504e+05,0,4.0089e+06,-25654,11096,11634,1,11634,1,-0.00015478,-2.7617e-07,0,7.8041e-05,-2.9502e-05,-6.2955e+07,-93944,0,3.1601e+07,-5870.2,11633,12614,1,12614,1,0.00015728,5.5848e-08,0,0.00023406,2.9046e-05,6.3122e+07,18949,0,9.435e+07,4415.7,12613,567.13,0,567.13,0,0.00017984,2.6093e-07,0,8.9739e-05,3.3728e-05,7.2519e+07,88948,0,3.6112e+07,8220.3,567.13,1
1960,1.12,12124,1,12124,1,1.2635e-06,-1.3193e-08,0,0.00015749,-2.3141e-07,-4547.1,-4499.3,0,6.3537e+07,147.35,12123,13104,1,13104,1,0.00030584,5.126e-07,0,0.00030584,5.6865e-05,1.2186e+08,1.7449e+05,0,1.2334e+08,12400,13103,12124,1,12124,1,1.251e-06,-8.7487e-09,0,0.00015759,-2.3129e-07,4.9515e+05,-2967.5,0,6.3708e+07,353.17,12123,11097,1,11097,1,-0.00030325,-4.2786e-07,0,9.9742e-06,-5.7332e-05,-1.2334e+08,-1.4609e+05,0,4.0566e+06,-19309,11096,11634,1,11634,1,-0.00015631,-1.2745e-07,0,7.8797e-05,-2.9795e-05,-6.3576e+07,-43255,0,3.1906e+07,-3821.8,11633,12614,1,12614,1,0.00015885,9.3588e-08,0,0.00023637,2.9328e-05,6.3736e+07,31765,0,9.5267e+07,4463.8,12613,567.13,0,567.13,0,0.00018177,1.8028e-07,0,9.0708e-05,3.4086e-05,7.3286e+07,61446,0,3.6495e+07,4991.1,567.13,1
1960,1.13,12124,1,12124,1,1.3024e-06,-5.8025e-08,0,0.00015892,-2.38e-07,-4462.7,-19750,0,6.4106e+07,382.7,12123,13104,1,13104,1,0.00030905,4.7239e-07,0,0.00030905,5.7435e-05,1.231e+08,1.6174e+05,0,1.246e+08,16576,13103,12124,1,12124,1,1.2998e-06,-3.3327e-08,0,0.00015912,-2.2758e-07,5.15e+05,-11298,0,6.4321e+07,383.57,12123,11097,1,11097,1,-0.00030633,-4.9492e-07,0,1.0026e-05,-5.7933e-05,-1.246e+08,-1.6933e+05,0,4.0787e+06,-14644,11096,11634,1,11634,1,-0.00015779,-1.8058e-07,0,7.9564e-05,-3.0082e-05,-6.4177e+07,-61121,0,3.2213e+07,-4097.9,11633,12614,1,12614,1,0.00016042,4.7885e-08,0,0.00023864,2.9602e-05,6.4346e+07,16238,0,9.6183e+07,4766.1,12613,567.13,0,567.13,0,0.00018343,1.8579e-07,0,9.1534e-05,3.4397e-05,7.3941e+07,63342,0,3.6819e+07,5720.8,567.13,1
1960,1.14,12124,1,12124,1,1.3438e-06,3.7525e-08,0,0.00016042,-2.4887e-07,-2989.9,12779,0,6.4699e+07,-985.99,12123,13104,1,13104,1,0.00031178,6.3615e-07,0,0.00031178,5.7962e-05,1.2416e+08,2.1765e+05,0,1.2573e+08,12631,13103,12124,1,12124,1,1.3406e-06,1.1678e-08,0,0.00016057,-2.5507e-07,5.2971e+05,3971.7,0,6.4904e+07,-909.69,12123,11097,1,11097,1,-0.00030912,-4.245e-07,0,1.01e-05,-5.8455e-05,-1.2573e+08,-1.4482e+05,0,4.1079e+06,-20559,11096,11634,1,11634,1,-0.00015921,-9.9956e-08,0,8.0293e-05,-3.0381e-05,-6.4756e+07,-33819,0,3.2507e+07,-6026.2,11633,12614,1,12614,1,0.00016192,1.6753e-07,0,0.00024085,2.9851e-05,6.4936e+07,56705,0,9.7043e+07,4287.9,12613,567.13,0,567.13,0,0.00018516,2.196e-07,0,9.2396e-05,3.4722e-05,7.4624e+07,74838,0,3.7158e+07,6129.9,567.13,1
1960,1.15,12124,1,12124,1,1.3837e-06,-2.6755e-08,0,0.00016173,-2.6087e-07,-2231.2,-9101.7,0,6.5219e+07,-2948.4,12123,13104,1,13104,1,0.00031442,5.8719e-07,0,0.00031442,5.842e-05,1.2514e+08,2.0111e+05,0,1.2673e+08,9598.1,13103,12124,1,12124,1,1.3813e-06,-1.7373e-08,0,0.00016188,-2.7444e-07,5.4521e+05,-5891.6,0,6.542e+07,-2142.8,12123,11097,1,11097,1,-0.00031158,-5.2306e-07,0,1.0155e-05,-5.894e-05,-1.2673e+08,-1.7872e+05,0,4.1307e+06,-25050,11096,11634,1,11634,1,-0.00016048,-1.828e-07,0,8.0953e-05,-3.0618e-05,-6.5272e+07,-62543,0,3.277e+07,-7439,11633,12614,1,12614,1,0.00016327,1.0786e-07,0,0.00024281,3.0107e-05,6.5453e+07,36647,0,9.7815e+07,2846.2,12613,567.13,0,567.13,0,0.00018667,2.2839e-07,0,9.3153e-05,3.5008e-05,7.5223e+07,77820,0,3.7454e+07,7087.3,567.13,1
1960,1.16,12124,1,12124,1,1.4314e-06,-2.224e-08,0,0.00016349,-2.6869e-07,1408.3,-7569.1,0,6.5919e+07,-2538.2,12123,13104,1,13104,1,0.00031784,5.7371e-07,0,0.00031784,5.905e-05,1.2645e+08,1.9628e+05,0,1.2809e+08,12161,13103,12124,1,12124,1,1.4278e-06,-1.6755e-08,0,0.00016363,-2.7405e-07,5.6392e+05,-5670,0,6.612e+07,-2059.9,12123,11097,1,11097,1,-0.00031493,-4.415e-07,0,1.0231e-05,-5.9583e-05,-1.2809e+08,-1.5061e+05,0,4.1623e+06,-19703,11096,11634,1,11634,1,-0.00016219,-1.7272e-07,0,8.1828e-05,-3.0957e-05,-6.5969e+07,-58482,0,3.3121e+07,-7287.9,11633,12614,1,12614,1,0.00016506,1.0044e-07,0,0.00024545,3.0422e-05,6.6156e+07,34351,0,9.8859e+07,1560.2,12613,567.13,0,567.13,0,0.00018871,2.1387e-07,0,9.4169e-05,3.5387e-05,7.603e+07,72881,0,3.7855e+07,5585.1,567.13,1
1960,1.17,12124,1,12124,1,1.4553e-06,-4.8166e-08,0,0.00016461,-2.6818e-07,-5085.7,-16384,0,6.6354e+07,-516.74,12123,13104,1,13104,1,0.00032015,5.4477e-07,0,0.00032015,5.9468e-05,1.2731e+08,1.8638e+05,0,1.29e+08,14555,13103,12124,1,12124,1,1.4528e-06,-2.8156e-08,0,0.00016479,-2.5948e-07,5.7397e+05,-9556.7,0,6.658e+07,-267.91,12123,11097,1,11097,1,-0.00031716,-5.0745e-07,0,1.0279e-05,-6.0015e-05,-1.29e+08,-1.7352e+05,0,4.181e+06,-16180,11096,11634,1,11634,1,-0.00016331,-1.8179e-07,0,8.2408e-05,-3.1178e-05,-6.6425e+07,-62044,0,3.3353e+07,-4783.9,11633,12614,1,12614,1,0.00016625,6.42e-08,0,0.00024718,3.0638e-05,6.6614e+07,21583,0,9.9537e+07,4426,12613,567.13,0,567.13,0,0.00018999,2.0176e-07,0,9.4807e-05,3.5627e-05,7.653e+07,68749,0,3.8102e+07,5813.2,567.13,1
1960,1.18,12124,1,12124,1,1.5108e-06,-6.08e-09,0,0.00016619,-2.7866e-07,3012.8,-2075.4,0,6.6985e+07,-611.27,12123,13104,1,13104,1,0.00032287,5.379e-07,0,0.00032287,5.9961e-05,1.2834e+08,1.833e+05,0,1.3008e+08,13100,13103,12124,1,12124,1,1.5012e-06,-4.9051e-09,0,0.00016629,-2.8618e-07,5.932e+05,-1651.9,0,6.7183e+07,-473.13,12123,11097,1,11097,1,-0.0003198,-4.155e-07,0,1.0351e-05,-6.0524e-05,-1.3008e+08,-1.4209e+05,0,4.2103e+06,-22596,11096,11634,1,11634,1,-0.00016476,-1.2435e-07,0,8.3147e-05,-3.1476e-05,-6.7014e+07,-42286,0,3.3649e+07,-4464.4,11633,12614,1,12614,1,0.0001678,1.0632e-07,0,0.00024942,3.0908e-05,6.7223e+07,36415,0,1.0042e+08,3427.8,12613,567.13,0,567.13,0,0.00019182,1.868e-07,0,9.5724e-05,3.597e-05,7.7258e+07,63637,0,3.8464e+07,5308.2,567.13,1
1960,1.19,12124,1,12124,1,1.5431e-06,7.7427e-09,0,0.00016725,-2.8141e-07,567.85,2646.7,0,6.7398e+07,714.68,12123,13104,1,13104,1,0.00032509,5.502e-07,0,0.00032509,6.0382e-05,1.2918e+08,1.8844e+05,0,1.3095e+08,19762,13103,12124,1,12124,1,1.5425e-06,1.3133e-09,0,0.00016737,-2.826e-07,6.0966e+05,449.81,0,6.7612e+07,656.9,12123,11097,1,11097,1,-0.00032194,-4.8404e-07,0,1.0384e-05,-6.0953e-05,-1.3095e+08,-1.6511e+05,0,4.2239e+06,-16486,11096,11634,1,11634,1,-0.00016585,-1.1237e-07,0,8.3724e-05,-3.1674e-05,-6.7457e+07,-38222,0,3.3879e+07,-3880.7,11633,12614,1,12614,1,0.00016892,1.3399e-07,0,0.00025108,3.1126e-05,6.7653e+07,45278,0,1.0107e+08,5131.1,12613,567.13,0,567.13,0,0.00019304,2.0014e-07,0,9.6332e-05,3.6198e-05,7.7733e+07,68167,0,3.8699e+07,5573.2,567.13,1
1960,1.2,12124,1,12124,1,1.5823e-06,-4.0698e-08,0,0.00016892,-2.9466e-07,1153.1,-13853,0,6.8065e+07,-1830.4,12123,13104,1,13104,1,0.00032841,4.5992e-07,0,0.00032841,6.0972e-05,1.3045e+08,1.5733e+05,0,1.3227e+08,11214,13103,12124,1,12124,1,1.5784e-06,-2.1214e-08,0,0.00016906,-3.1551e-07,6.2379e+05,-7168.5,0,6.8281e+07,-1318,12123,11097,1,11097,1,-0.00032518,-4.3848e-07,0,1.0462e-05,-6.1562e-05,-1.3227e+08,-1.4996e+05,0,4.2558e+06,-26647,11096,11634,1,11634,1,-0.00016746,-1.5963e-07,0,8.4539e-05,-3.1998e-05,-6.8112e+07,-54426,0,3.4206e+07,-4885.7,11633,12614,1,12614,1,0.00017064,6.3603e-08,0,0.00025358,3.1411e-05,6.8321e+07,21655,0,1.0207e+08,2208.5,12613,567.13,0,567.13,0,0.00019497,1.7754e-07,0,9.7299e-05,3.6559e-05,7.8501e+07,60488,0,3.9081e+07,5624.6,567.13,1
1960,1.21,12124,1,12124,1,1.6239e-06,5.9853e-09,0,0.00017062,-3.0463e-07,-1493.3,2054.7,0,6.8737e+07,-2823.4,12123,13104,1,13104,1,0.0003315,6.594e-07,0,0.0003315,6.1563e-05,1.3164e+08,2.2558e+05,0,1.3351e+08,16642,13103,12124,1,12124,1,1.6206e-06,-1.1401e-08,0,0.00017073,-3.161e-07,6.3949e+05,-3842.4,0,6.895e+07,-1131.6,12123,11097,1,11097,1,-0.00032824,-3.9439e-07,0,1.0551e-05,-6.2156e-05,-1.3351e+08,-1.349e+05,0,4.2917e+06,-22151,11096,11634,1,11634,1,-0.00016911,-1.3021e-07,0,8.5393e-05,-3.2338e-05,-6.8784e+07,-44031,0,3.4548e+07,-7213.2,11633,12614,1,12614,1,0.00017236,1.0685e-07,0,0.0002561,3.1731e-05,6.8991e+07,36379,0,1.0305e+08,2741.9,12613,567.13,0,567.13,0,0.00019693,2.0497e-07,0,9.8276e-05,3.6929e-05,7.9275e+07,69820,0,3.9463e+07,7260.9,567.13,1
1960,1.22,12124,1,12124,1,1.6673e-06,-8.1533e-09,0,0.0001717,-3.0904e-07,-1163,-2780.4,0,6.9158e+07,-1324.2,12123,13104,1,13104,1,0.0003336,5.7555e-07,0,0.0003336,6.1938e-05,1.3239e+08,1.9663e+05,0,1.3434e+08,15196,13103,12124,1,12124,1,1.6567e-06,-1.1268e-08,0,0.0001718,-3.1411e-07,6.5402e+05,-3823.9,0,6.9375e+07,-1049.6,12123,11097,1,11097,1,-0.00033028,-4.0985e-07,0,1.0581e-05,-6.2537e-05,-1.3434e+08,-1.401e+05,0,4.3045e+06,-21348,11096,11634,1,11634,1,-0.00017013,-1.202e-07,0,8.5903e-05,-3.2545e-05,-6.9198e+07,-40652,0,3.4751e+07,-4977.9,11633,12614,1,12614,1,0.00017348,8.4023e-08,0,0.00025772,3.1919e-05,6.9417e+07,28712,0,1.0367e+08,2742,12613,567.13,0,567.13,0,0.00019818,1.818e-07,0,9.8899e-05,3.7162e-05,7.976e+07,61910,0,3.9703e+07,5451.6,567.13,1
1960,1.23,12124,1,12124,1,1.7231e-06,-1.6095e-08,0,0.000173,-3.1681e-07,7332.3,-5486.7,0,6.967e+07,-257.5,12123,13104,1,13104,1,0.00033641,6.1857e-07,0,0.00033641,6.2416e-05,1.3346e+08,2.1161e+05,0,1.354e+08,11689,13103,12124,1,12124,1,1.7094e-06,-9.5193e-09,0,0.00017313,-3.3059e-07,6.7515e+05,-3258.1,0,6.99e+07,-189.23,12123,11097,1,11097,1,-0.00033289,-5.4803e-07,0,1.0625e-05,-6.3061e-05,-1.354e+08,-1.8745e+05,0,4.3218e+06,-17102,11096,11634,1,11634,1,-0.00017139,-1.6501e-07,0,8.6572e-05,-3.2792e-05,-6.971e+07,-56315,0,3.5018e+07,-4656.5,11633,12614,1,12614,1,0.00017485,1.1003e-07,0,0.00025967,3.2157e-05,6.9947e+07,37273,0,1.0446e+08,4693.1,12613,567.13,0,567.13,0,0.00019967,2.2691e-07,0,9.9643e-05,3.7443e-05,8.0349e+07,77236,0,3.9995e+07,5941.2,567.13,1
1960,1.24,12124,1,12124,1,1.7395e-06,-2.6094e-08,0,0.00017461,-3.2026e-07,-3486.8,-8880.3,0,7.031e+07,-495.98,12123,13104,1,13104,1,0.00033962,6.4534e-07,0,0.00033962,6.3012e-05,1.3468e+08,2.1978e+05,0,1.3669e+08,21432,13103,12124,1,12124,1,1.7308e-06,-2.3348e-08,0,0.00017476,-3.1878e-07,6.8358e+05,-7886,0,7.0549e+07,-515.22,12123,11097,1,11097,1,-0.00033605,-4.5856e-07,0,1.071e-05,-6.3663e-05,-1.3669e+08,-1.5679e+05,0,4.357e+06,-18181,11096,11634,1,11634,1,-0.00017299,-1.8183e-07,0,8.738e-05,-3.3097e-05,-7.0362e+07,-61734,0,3.5342e+07,-4515.8,11633,12614,1,12614,1,0.0001765,8.4936e-08,0,0.00026212,3.245e-05,7.0588e+07,28727,0,1.0543e+08,3306.4,12613,567.13,0,567.13,0,0.00020154,2.2356e-07,0,0.00010057,3.7793e-05,8.1086e+07,76121,0,4.0361e+07,6635.9,567.13,1
1960,1.25,12124,1,12124,1,1.7814e-06,1.4372e-08,0,0.00017581,-3.2343e-07,-4232,4885.3,0,7.0781e+07,1395.3,12123,13104,1,13104,1,0.00034182,6.8648e-07,0,0.00034182,6.3432e-05,1.355e+08,2.3292e+05,0,1.3756e+08,30696,13103,12124,1,12124,1,1.7693e-06,-6.4528e-09,0,0.00017591,-3.0745e-07,7.0064e+05,-2183.4,0,7.1009e+07,885.71,12123,11097,1,11097,1,-0.0003382,-4.7011e-07,0,1.075e-05,-6.4076e-05,-1.3756e+08,-1.6079e+05,0,4.3727e+06,-14036,11096,11634,1,11634,1,-0.00017417,-1.3031e-07,0,8.8016e-05,-3.3325e-05,-7.084e+07,-44405,0,3.5594e+07,-3612.7,11633,12614,1,12614,1,0.00017771,1.3032e-07,0,0.00026393,3.2699e-05,7.1054e+07,44205,0,1.0611e+08,5777.9,12613,567.13,0,567.13,0,0.00020292,2.2361e-07,0,0.00010127,3.8053e-05,8.1628e+07,76108,0,4.0628e+07,7050.7,567.13,1
1960,1.26,12124,1,12124,1,1.8278e-06,3.7432e-08,0,0.00017716,-3.3977e-07,-2169.6,12725,0,7.1311e+07,-1878.3,12123,13104,1,13104,1,0.00034482,7.0713e-07,0,0.00034482,6.3966e-05,1.3664e+08,2.4077e+05,0,1.3875e+08,14324,13103,12124,1,12124,1,1.8302e-06,1.5238e-08,0,0.0001773,-3.3709e-07,7.2213e+05,5153.4,0,7.1562e+07,-1450.5,12123,11097,1,11097,1,-0.00034112,-5.3504e-07,0,1.0801e-05,-6.4635e-05,-1.3875e+08,-1.83e+05,0,4.3938e+06,-19949,11096,11634,1,11634,1,-0.00017549,-1.3609e-07,0,8.8692e-05,-3.3597e-05,-7.138e+07,-46048,0,3.5867e+07,-6614.9,11633,12614,1,12614,1,0.00017914,2.0208e-07,0,0.000266,3.2915e-05,7.1609e+07,68982,0,1.0694e+08,4005.6,12613,567.13,0,567.13,0,0.00020448,2.6396e-07,0,0.00010204,3.8345e-05,8.2239e+07,89865,0,4.0931e+07,6810,567.13,1
1960,1.27,12124,1,12124,1,1.8417e-06,-2.0107e-08,0,0.00017889,-3.3233e-07,-14707,-6840.5,0,7.1997e+07,2257.4,12123,13104,1,13104,1,0.00034796,6.3868e-07,0,0.00034796,6.4528e-05,1.3781e+08,2.1664e+05,0,1.3998e+08,30559,13103,12124,1,12124,1,1.8212e-06,-2.1151e-08,0,0.00017904,-3.2035e-07,7.1989e+05,-7203.4,0,7.2248e+07,1393,12123,11097,1,11097,1,-0.00034415,-4.7552e-07,0,1.0915e-05,-6.5224e-05,-1.3998e+08,-1.6263e+05,0,4.4398e+06,-13480,11096,11634,1,11634,1,-0.00017716,-1.7299e-07,0,8.9518e-05,-3.3918e-05,-7.2056e+07,-58596,0,3.6197e+07,-2567.7,11633,12614,1,12614,1,0.00018088,9.7902e-08,0,0.00026852,3.3254e-05,7.2279e+07,33292,0,1.0794e+08,5855.4,12613,567.13,0,567.13,0,0.00020648,2.2166e-07,0,0.00010304,3.8718e-05,8.3029e+07,75417,0,4.1323e+07,7317.3,567.13,1
1960,1.28,12124,1,12124,1,1.9174e-06,-1.0118e-09,0,0.00018007,-3.5516e-07,-4618.7,-361.74,0,7.2458e+07,-1450.7,12123,13104,1,13104,1,0.0003502,5.6878e-07,0,0.0003502,6.4951e-05,1.3865e+08,1.948e+05,0,1.4089e+08,9904.6,13103,12124,1,12124,1,1.9139e-06,-1.9762e-09,0,0.00018017,-3.6406e-07,7.556e+05,-676.97,0,7.27e+07,-1305.9,12123,11097,1,11097,1,-0.00034639,-4.9571e-07,0,1.0927e-05,-6.5647e-05,-1.4089e+08,-1.6954e+05,0,4.4446e+06,-20355,11096,11634,1,11634,1,-0.00017827,-1.4564e-07,0,9.0117e-05,-3.4158e-05,-7.2508e+07,-49394,0,3.6435e+07,-5387.8,11633,12614,1,12614,1,0.0001821,1.3634e-07,0,0.0002703,3.3441e-05,7.2745e+07,46417,0,1.0862e+08,3297.9,12613,567.13,0,567.13,0,0.00020784,2.1998e-07,0,0.00010373,3.8973e-05,8.3559e+07,74868,0,4.1586e+07,5566.3,567.13,1
1960,1.29,12124,1,12124,1,1.9676e-06,-1.2848e-09,0,0.00018142,-3.5896e-07,-755.95,-433.08,0,7.2988e+07,835.23,12123,13104,1,13104,1,0.00035284,6.9699e-07,0,0.00035284,6.5402e-05,1.3962e+08,2.384e+05,0,1.4188e+08,22004,13103,12124,1,12124,1,1.958e-06,-9.6981e-09,0,0.00018153,-3.7166e-07,7.7398e+05,-3257.8,0,7.3235e+07,213.53,12123,11097,1,11097,1,-0.00034882,-4.6216e-07,0,1.097e-05,-6.6138e-05,-1.4188e+08,-1.5805e+05,0,4.4622e+06,-24925,11096,11634,1,11634,1,-0.00017954,-1.5636e-07,0,9.0779e-05,-3.4425e-05,-7.3026e+07,-52807,0,3.6699e+07,-3753.8,11633,12614,1,12614,1,0.00018351,1.1765e-07,0,0.00027228,3.3684e-05,7.3285e+07,40102,0,1.0941e+08,4685.9,12613,567.13,0,567.13,0,0.00020939,2.2852e-07,0,0.0001045,3.9266e-05,8.4169e+07,77757,0,4.1887e+07,7250.3,567.13,1
1960,1.3,12124,1,12124,1,2.025e-06,-1.1852e-08,0,0.00018311,-3.7825e-07,1928.9,-4030.6,0,7.3657e+07,-2831.6,12123,13104,1,13104,1,0.00035617,6.246e-07,0,0.00035617,6.6009e-05,1.4088e+08,2.1258e+05,0,1.4319e+08,17944,13103,12124,1,12124,1,2.018e-06,-1.3627e-08,0,0.00018323,-3.8637e-07,7.9597e+05,-4667.6,0,7.3909e+07,-1754.6,12123,11097,1,11097,1,-0.00035204,-4.2553e-07,0,1.1042e-05,-6.6762e-05,-1.4319e+08,-1.4553e+05,0,4.4919e+06,-23712,11096,11634,1,11634,1,-0.00018118,-1.6319e-07,0,9.162e-05,-3.4742e-05,-7.3693e+07,-55610,0,3.7035e+07,-6885.4,11633,12614,1,12614,1,0.00018525,1.0754e-07,0,0.00027482,3.3989e-05,7.3959e+07,36416,0,1.1041e+08,2095,12613,567.13,0,567.13,0,0.00021135,2.1349e-07,0,0.00010548,3.9631e-05,8.4941e+07,72661,0,4.227e+07,6642.5,567.13,1
1960,1.31,12124,1,12124,1,2.0669e-06,-3.9362e-08,0,0.00018431,-3.8179e-07,-1423.8,-13378,0,7.4121e+07,-1100.9,12123,13104,1,13104,1,0.0003587,7.3393e-07,0,0.0003587,6.6465e-05,1.4181e+08,2.5045e+05,0,1.4418e+08,14551,13103,12124,1,12124,1,2.0498e-06,-3.9174e-08,0,0.00018448,-4.037e-07,8.0922e+05,-13342,0,7.4402e+07,-135.88,12123,11097,1,11097,1,-0.00035446,-4.9158e-07,0,1.1089e-05,-6.7237e-05,-1.4418e+08,-1.6723e+05,0,4.5099e+06,-29829,11096,11634,1,11634,1,-0.00018237,-1.9474e-07,0,9.2223e-05,-3.4979e-05,-7.4177e+07,-65980,0,3.7275e+07,-4684.3,11633,12614,1,12614,1,0.00018653,6.1494e-08,0,0.00027668,3.4219e-05,7.4447e+07,20970,0,1.1113e+08,4470.4,12613,567.13,0,567.13,0,0.00021272,2.3193e-07,0,0.00010616,3.9891e-05,8.5474e+07,78902,0,4.2533e+07,7945.7,567.13,1
1960,1.32,12124,1,12124,1,2.1284e-06,-2.6364e-09,0,0.00018623,-3.9539e-07,2903.5,-895.71,0,7.4884e+07,-2059.4,12123,13104,1,13104,1,0.00036214,5.6893e-07,0,0.00036214,6.7098e-05,1.4311e+08,1.9359e+05,0,1.4554e+08,16030,13103,12124,1,12124,1,2.1227e-06,-3.5215e-09,0,0.00018633,-4.0336e-07,8.3678e+05,-1188.1,0,7.5142e+07,-1581.3,12123,11097,1,11097,1,-0.00035782,-4.4063e-07,0,1.1165e-05,-6.7882e-05,-1.4554e+08,-1.502e+05,0,4.542e+06,-21561,11096,11634,1,11634,1,-0.00018418,-1.2453e-07,0,9.317e-05,-3.5344e-05,-7.4914e+07,-42174,0,3.7654e+07,-5909.4,11633,12614,1,12614,1,0.00018846,1.0521e-07,0,0.00027948,3.4553e-05,7.5196e+07,35447,0,1.1223e+08,2905.5,12613,567.13,0,567.13,0,0.00021495,1.9575e-07,0,0.00010728,4.0306e-05,8.6353e+07,66604,0,4.297e+07,6300.6,567.13,1
1960,1.33,12124,1,12124,1,2.155e-06,-1.4059e-08,0,0.00018714,-3.931e-07,-7665.3,-4754.1,0,7.5231e+07,910.79,12123,13104,1,13104,1,0.00036431,6.8801e-07,0,0.00036431,6.7484e-05,1.4389e+08,2.3481e+05,0,1.4638e+08,19906,13103,12124,1,12124,1,2.1545e-06,-1.3845e-08,0,0.00018731,-3.9237e-07,8.5021e+05,-4672.1,0,7.552e+07,898.42,12123,11097,1,11097,1,-0.00035989,-6.2008e-07,0,1.1194e-05,-6.8288e-05,-1.4638e+08,-2.109e+05,0,4.5533e+06,-17415,11096,11634,1,11634,1,-0.00018514,-1.8972e-07,0,9.3671e-05,-3.5523e-05,-7.53e+07,-64352,0,3.7851e+07,-5030.1,11633,12614,1,12614,1,0.00018946,1.4216e-07,0,0.00028095,3.4744e-05,7.5565e+07,48659,0,1.1279e+08,7628,12613,567.13,0,567.13,0,0.00021599,2.7013e-07,0,0.00010779,4.0506e-05,8.6751e+07,91849,0,4.3164e+07,7704.8,567.13,1
1960,1.34,12124,1,12124,1,2.2115e-06,-1.7736e-11,0,0.00018854,-4.0906e-07,-1397.3,-2.6449,0,7.5785e+07,-1423.3,12123,13104,1,13104,1,0.00036688,7.4525e-07,0,0.00036688,6.7961e-05,1.4487e+08,2.5353e+05,0,1.4741e+08,21380,13103,12124,1,12124,1,2.2012e-06,-1.262e-08,0,0.00018866,-4.1456e-07,8.6765e+05,-4322.2,0,7.6066e+07,-965.23,12123,11097,1,11097,1,-0.00036242,-5.2923e-07,0,1.1247e-05,-6.8774e-05,-1.4741e+08,-1.8017e+05,0,4.5749e+06,-21244,11096,11634,1,11634,1,-0.00018643,-1.7127e-07,0,9.4339e-05,-3.5795e-05,-7.5828e+07,-58278,0,3.8118e+07,-5724,11633,12614,1,12614,1,0.00019087,1.4044e-07,0,0.00028298,3.4978e-05,7.6117e+07,46953,0,1.136e+08,4047.4,12613,567.13,0,567.13,0,0.00021761,2.5446e-07,0,0.0001086,4.0807e-05,8.7389e+07,86555,0,4.3481e+07,7095.1,567.13,1
1960,1.35,12124,1,12124,1,2.2562e-06,2.5765e-08,0,0.00018987,-4.14e-07,-3109.7,8769.5,0,7.6304e+07,-58.041,12123,13104,1,13104,1,0.00036969,7.815e-07,0,0.00036969,6.8475e-05,1.4591e+08,2.6633e+05,0,1.4851e+08,23415,13103,12124,1,12124,1,2.2552e-06,3.248e-09,0,0.00019004,-4.1568e-07,8.9007e+05,1097.4,0,7.6609e+07,-147.11,12123,11097,1,11097,1,-0.00036513,-5.8943e-07,0,1.1286e-05,-6.9301e-05,-1.4851e+08,-2.0043e+05,0,4.5911e+06,-21092,11096,11634,1,11634,1,-0.00018776,-1.421e-07,0,9.5033e-05,-3.6063e-05,-7.637e+07,-47573,0,3.8395e+07,-6218.9,11633,12614,1,12614,1,0.0001923,1.7603e-07,0,0.00028505,3.5233e-05,7.6663e+07,60001,0,1.1439e+08,6404.3,12613,567.13,0,567.13,0,0.00021914,2.6894e-07,0,0.00010937,4.1097e-05,8.7986e+07,91436,0,4.3775e+07,8168.1,567.13,1
1960,1.36,12124,1,12124,1,2.3262e-06,-1.7265e-08,0,0.00019158,-4.3257e-07,3014.8,-5861.4,0,7.6979e+07,-2444.9,12123,13104,1,13104,1,0.00037294,6.2076e-07,0,0.00037294,6.9043e-05,1.4711e+08,2.1113e+05,0,1.4977e+08,16780,13103,12124,1,12124,1,2.3208e-06,-9.9892e-09,0,0.00019172,-4.4162e-07,9.1535e+05,-3330.9,0,7.7273e+07,-1720.6,12123,11097,1,11097,1,-0.00036822,-5.0484e-07,0,1.1341e-05,-6.9905e-05,-1.4977e+08,-1.7167e+05,0,4.6141e+06,-24431,11096,11634,1,11634,1,-0.00018938,-1.7205e-07,0,9.5873e-05,-3.6383e-05,-7.7028e+07,-58030,0,3.873e+07,-6461.2,11633,12614,1,12614,1,0.00019404,1.1338e-07,0,0.00028757,3.5526e-05,7.733e+07,38195,0,1.1539e+08,3141.4,12613,567.13,0,567.13,0,0.00022112,2.2623e-07,0,0.00011036,4.1463e-05,8.8764e+07,76935,0,4.4162e+07,6873.4,567.13,1
1960,1.37,12124,1,12124,1,2.3629e-06,-2.9109e-08,0,0.00019275,-4.3507e-07,-4442.9,-9856.5,0,7.7432e+07,-699.56,12123,13104,1,13104,1,0.00037522,6.7327e-07,0,0.00037522,6.9453e-05,1.4793e+08,2.3022e+05,0,1.5066e+08,20746,13103,12124,1,12124,1,2.3621e-06,-2.0267e-08,0,0.00019289,-4.3793e-07,9.3182e+05,-6831.4,0,7.7731e+07,-446.35,12123,11097,1,11097,1,-0.00037041,-5.2745e-07,0,1.1388e-05,-7.0329e-05,-1.5066e+08,-1.7952e+05,0,4.6323e+06,-21860,11096,11634,1,11634,1,-0.00019052,-1.7991e-07,0,9.6465e-05,-3.6609e-05,-7.7489e+07,-60840,0,3.8964e+07,-5947.4,11633,12614,1,12614,1,0.00019526,9.3323e-08,0,0.00028933,3.5749e-05,7.7785e+07,31793,0,1.1606e+08,5315.1,12613,567.13,0,567.13,0,0.00022247,2.2499e-07,0,0.00011103,4.1718e-05,8.9284e+07,76521,0,4.4418e+07,7244.7,567.13,1
1960,1.38,12124,1,12124,1,2.43e-06,2.5141e-08,0,0.00019416,-4.4869e-07,3125.7,8546.8,0,7.7988e+07,-1220.7,12123,13104,1,13104,1,0.00037817,7.903e-07,0,0.00037817,7e-05,1.4906e+08,2.6873e+05,0,1.5183e+08,22252,13103,12124,1,12124,1,2.4184e-06,-2.715e-09,0,0.00019434,-4.5105e-07,9.5344e+05,-902.34,0,7.8311e+07,-919.04,12123,11097,1,11097,1,-0.00037329,-5.0736e-07,0,1.143e-05,-7.089e-05,-1.5183e+08,-1.7248e+05,0,4.6495e+06,-22431,11096,11634,1,11634,1,-0.00019189,-1.4184e-07,0,9.7184e-05,-3.6899e-05,-7.805e+07,-47763,0,3.9251e+07,-5948.4,11633,12614,1,12614,1,0.00019676,1.6875e-07,0,0.00029151,3.6002e-05,7.8372e+07,57261,0,1.1692e+08,4910.6,12613,567.13,0,567.13,0,0.0002241,2.5711e-07,0,0.00011185,4.2024e-05,8.9925e+07,87412,0,4.4735e+07,7507,567.13,1
1960,1.39,12124,1,12124,1,2.4738e-06,-2.4683e-08,0,0.00019586,-4.5468e-07,-2428.4,-8369.9,0,7.8656e+07,-391.12,12123,13104,1,13104,1,0.00038139,7.0066e-07,0,0.00038139,7.0578e-05,1.5024e+08,2.3859e+05,0,1.5309e+08,19094,13103,12124,1,12124,1,2.467e-06,-2.1383e-08,0,0.00019603,-4.6956e-07,9.724e+05,-7100.4,0,7.8974e+07,-164.25,12123,11097,1,11097,1,-0.00037639,-4.6691e-07,0,1.1506e-05,-7.1488e-05,-1.5309e+08,-1.5869e+05,0,4.6807e+06,-19757,11096,11634,1,11634,1,-0.00019354,-1.8911e-07,0,9.8016e-05,-3.7215e-05,-7.8717e+07,-63743,0,3.9583e+07,-5454,11633,12614,1,12614,1,0.00019849,9.3266e-08,0,0.00029403,3.6311e-05,7.9028e+07,31735,0,1.179e+08,4617.7,12613,567.13,0,567.13,0,0.00022607,2.342e-07,0,0.00011283,4.2391e-05,9.0694e+07,79626,0,4.5116e+07,7091.2,567.13,1
1960,1.4,12124,1,12124,1,2.5211e-06,-3.1048e-08,0,0.0001971,-4.656e-07,-7326.3,-10540,0,7.9135e+07,-1347.9,12123,13104,1,13104,1,0.00038384,6.1312e-07,0,0.00038384,7.1014e-05,1.5111e+08,2.0843e+05,0,1.5404e+08,16994,13103,12124,1,12124,1,2.5136e-06,-2.0123e-08,0,0.00019726,-4.6982e-07,9.9101e+05,-6815.5,0,7.9456e+07,-548.99,12123,11097,1,11097,1,-0.00037872,-5.0566e-07,0,1.1544e-05,-7.1946e-05,-1.5404e+08,-1.7218e+05,0,4.696e+06,-22026,11096,11634,1,11634,1,-0.00019472,-1.9312e-07,0,9.8646e-05,-3.7454e-05,-7.92e+07,-64781,0,3.9831e+07,-5963.2,11633,12614,1,12614,1,0.00019977,9.9979e-08,0,0.00029587,3.6536e-05,7.9508e+07,33763,0,1.1861e+08,4257.3,12613,567.13,0,567.13,0,0.00022749,2.2958e-07,0,0.00011354,4.2658e-05,9.1245e+07,78038,0,4.5388e+07,6970.3,567.13,1
1960,1.41,12124,1,12124,1,2.5992e-06,4.1957e-08,0,0.00019875,-4.7577e-07,2400.1,14238,0,7.9785e+07,437.41,12123,13104,1,13104,1,0.00038723,8.1915e-07,0,0.00038723,7.161e-05,1.5241e+08,2.7717e+05,0,1.5533e+08,26604,13103,12124,1,12124,1,2.5952e-06,1.2025e-08,0,0.00019893,-4.776e-07,1.0236e+06,4024.5,0,8.0126e+07,179.24,12123,11097,1,11097,1,-0.00038189,-4.8454e-07,0,1.1581e-05,-7.2586e-05,-1.5533e+08,-1.6464e+05,0,4.711e+06,-21934,11096,11634,1,11634,1,-0.0001963,-1.3983e-07,0,9.9474e-05,-3.779e-05,-7.9841e+07,-47709,0,4.0162e+07,-5645.8,11633,12614,1,12614,1,0.00020153,2.0217e-07,0,0.00029837,3.6844e-05,8.0192e+07,68143,0,1.196e+08,6319.8,12613,567.13,0,567.13,0,0.0002294,2.7341e-07,0,0.00011449,4.3019e-05,9.1992e+07,92898,0,4.5758e+07,8508.9,567.13,1
1960,1.42,12124,1,12124,1,2.635e-06,7.5509e-09,0,0.00020005,-4.8372e-07,-8076.1,2568.8,0,8.0289e+07,-196.71,12123,13104,1,13104,1,0.0003895,7.0684e-07,0,0.0003895,7.2053e-05,1.5321e+08,2.4023e+05,0,1.5628e+08,22535,13103,12124,1,12124,1,2.6275e-06,-9.68e-09,0,0.00020018,-4.8236e-07,1.0361e+06,-3227.9,0,8.0616e+07,-381.31,12123,11097,1,11097,1,-0.00038424,-4.957e-07,0,1.1641e-05,-7.3009e-05,-1.5628e+08,-1.6886e+05,0,4.7352e+06,-14815,11096,11634,1,11634,1,-0.00019755,-1.4659e-07,0,0.00010012,-3.8026e-05,-8.0349e+07,-49549,0,4.0417e+07,-5011.6,11633,12614,1,12614,1,0.00020282,1.373e-07,0,0.00030028,3.7065e-05,8.0672e+07,46575,0,1.2033e+08,4836.9,12613,567.13,0,567.13,0,0.0002309,2.3737e-07,0,0.00011524,4.3298e-05,9.2573e+07,80669,0,4.6045e+07,6632.9,567.13,1
1960,1.43,12124,1,12124,1,2.7044e-06,7.8547e-09,0,0.00020178,-4.9229e-07,-3440.8,2674.7,0,8.0967e+07,1564.3,12123,13104,1,13104,1,0.00039278,5.8605e-07,0,0.00039278,7.2614e-05,1.5443e+08,2.0071e+05,0,1.575e+08,30070,13103,12124,1,12124,1,2.7004e-06,-4.1996e-09,0,0.0002019,-4.8739e-07,1.0651e+06,-1395.4,0,8.1299e+07,637.32,12123,11097,1,11097,1,-0.00038723,-3.9326e-07,0,1.169e-05,-7.3626e-05,-1.575e+08,-1.3368e+05,0,4.7557e+06,-15157,11096,11634,1,11634,1,-0.00019918,-1.1697e-07,0,0.00010096,-3.836e-05,-8.1011e+07,-39507,0,4.0754e+07,-3677.5,11633,12614,1,12614,1,0.00020461,1.161e-07,0,0.00030283,3.7385e-05,8.1362e+07,39492,0,1.2133e+08,4690.4,12613,567.13,0,567.13,0,0.0002329,1.9099e-07,0,0.00011624,4.3671e-05,9.3354e+07,64898,0,4.6433e+07,7435.8,567.13,1
1960,1.44,12124,1,12124,1,2.7699e-06,-4.4974e-08,0,0.00020301,-5.0966e-07,-3138.7,-15251,0,8.1441e+07,-677.68,12123,13104,1,13104,1,0.00039547,5.589e-07,0,0.00039547,7.3095e-05,1.5538e+08,1.899e+05,0,1.5856e+08,17904,13103,12124,1,12124,1,2.7604e-06,-3.3141e-08,0,0.00020318,-5.1266e-07,1.0882e+06,-11277,0,8.1794e+07,-520.08,12123,11097,1,11097,1,-0.00038983,-4.7042e-07,0,1.1715e-05,-7.4123e-05,-1.5856e+08,-1.6039e+05,0,4.765e+06,-15276,11096,11634,1,11634,1,-0.00020038,-1.8835e-07,0,0.00010158,-3.8609e-05,-8.15e+07,-64115,0,4.0999e+07,-4323.5,11633,12614,1,12614,1,0.00020595,6.3263e-08,0,0.00030474,3.7588e-05,8.1854e+07,21297,0,1.2206e+08,3509.1,12613,567.13,0,567.13,0,0.00023431,2.0633e-07,0,0.00011695,4.3934e-05,9.3899e+07,70107,0,4.6702e+07,5068.4,567.13,1
1960,1.45,12124,1,12124,1,2.8341e-06,-6.8454e-09,0,0.0002045,-5.1539e-07,561.86,-2316.7,0,8.2025e+07,1871,12123,13104,1,13104,1,0.00039823,6.5742e-07,0,0.00039823,7.3591e-05,1.564e+08,2.2515e+05,0,1.5964e+08,32048,13103,12124,1,12124,1,2.8261e-06,-1.0712e-08,0,0.00020461,-5.094e-07,1.1147e+06,-3570,0,8.2365e+07,1021.8,12123,11097,1,11097,1,-0.00039248,-4.6485e-07,0,1.1754e-05,-7.4639e-05,-1.5964e+08,-1.5835e+05,0,4.7814e+06,-17423,11096,11634,1,11634,1,-0.00020175,-1.5997e-07,0,0.00010232,-3.8894e-05,-8.2059e+07,-54114,0,4.129e+07,-4153.3,11633,12614,1,12614,1,0.00020745,1.2192e-07,0,0.0003069,3.7873e-05,8.2433e+07,41428,0,1.229e+08,6053.3,12613,567.13,0,567.13,0,0.00023604,2.267e-07,0,0.00011781,4.426e-05,9.457e+07,77013,0,4.7033e+07,8189.2,567.13,1
1960,1.46,12124,1,12124,1,2.8771e-06,4.0577e-08,0,0.00020563,-5.2933e-07,-6117.1,13762,0,8.2462e+07,-689.14,12123,13104,1,13104,1,0.00040069,7.1407e-07,0,0.00040069,7.4077e-05,1.573e+08,2.4358e+05,0,1.6067e+08,15747,13103,12124,1,12124,1,2.88e-06,1.2425e-08,0,0.00020578,-5.3252e-07,1.135e+06,4217.9,0,8.2822e+07,-469.52,12123,11097,1,11097,1,-0.00039502,-4.9893e-07,0,1.1788e-05,-7.5106e-05,-1.6067e+08,-1.6994e+05,0,4.7951e+06,-16916,11096,11634,1,11634,1,-0.00020293,-1.2317e-07,0,0.00010294,-3.9123e-05,-8.254e+07,-41901,0,4.1537e+07,-5807.2,11633,12614,1,12614,1,0.00020866,1.9418e-07,0,0.00030874,3.8076e-05,8.2888e+07,65690,0,1.2359e+08,5399.3,12613,567.13,0,567.13,0,0.00023734,2.5212e-07,0,0.00011846,4.4506e-05,9.5072e+07,85624,0,4.728e+07,7184.2,567.13,1
1960,1.47,12124,1,12124,1,2.9475e-06,8.0273e-09,0,0.0002072,-5.3897e-07,-12.934,2722.4,0,8.3075e+07,697.52,12123,13104,1,13104,1,0.00040353,6.5841e-07,0,0.00040353,7.454e-05,1.5834e+08,2.2549e+05,0,1.6169e+08,29517,13103,12124,1,12124,1,2.941e-06,5.5456e-11,0,0.00020731,-5.3695e-07,1.1595e+06,20.789,0,8.3429e+07,-59.947,12123,11097,1,11097,1,-0.00039753,-4.5329e-07,0,1.1837e-05,-7.5639e-05,-1.6169e+08,-1.5474e+05,0,4.8151e+06,-18964,11096,11634,1,11634,1,-0.00020434,-1.2939e-07,0,0.00010366,-3.9424e-05,-8.3111e+07,-43926,0,4.1825e+07,-5266.3,11633,12614,1,12614,1,0.00021026,1.213e-07,0,0.00031095,3.8353e-05,8.35e+07,41137,0,1.2447e+08,5101.6,12613,567.13,0,567.13,0,0.00023915,2.1625e-07,0,0.00011937,4.4843e-05,9.5779e+07,73451,0,4.763e+07,7993.7,567.13,1
1960,1.48,12124,1,12124,1,3e-06,-3.2878e-08,0,0.0002088,-5.5454e-07,-6994.6,-11154,0,8.3699e+07,-1828.2,12123,13104,1,13104,1,0.0004069,6.0777e-07,0,0.0004069,7.5153e-05,1.5957e+08,2.0729e+05,0,1.6302e+08,17828,13103,12124,1,12124,1,2.9974e-06,-2.7653e-08,0,0.00020896,-5.632e-07,1.1806e+06,-9344,0,8.407e+07,-1110.2,12123,11097,1,11097,1,-0.0004008,-4.7359e-07,0,1.189e-05,-7.6265e-05,-1.6302e+08,-1.6126e+05,0,4.8374e+06,-17657,11096,11634,1,11634,1,-0.00020592,-2.0446e-07,0,0.00010448,-3.9738e-05,-8.3756e+07,-69418,0,4.2149e+07,-5821.5,11633,12614,1,12614,1,0.00021196,9.3063e-08,0,0.00031341,3.8628e-05,8.4136e+07,31763,0,1.2543e+08,2888.1,12613,567.13,0,567.13,0,0.000241,2.3205e-07,0,0.00012029,4.5189e-05,9.6497e+07,78789,0,4.7985e+07,6906.2,567.13,1
1960,1.49,12124,1,12124,1,3.077e-06,-1.2996e-08,0,0.00021032,-5.65e-07,-3486.4,-4401.8,0,8.4292e+07,-277.43,12123,13104,1,13104,1,0.00040967,4.8455e-07,0,0.00040967,7.5645e-05,1.6055e+08,1.6595e+05,0,1.6408e+08,20130,13103,12124,1,12124,1,3.0706e-06,-7.791e-09,0,0.00021046,-5.6649e-07,1.2109e+06,-2599.1,0,8.4657e+07,39.194,12123,11097,1,11097,1,-0.00040341,-4.0297e-07,0,1.193e-05,-7.6785e-05,-1.6408e+08,-1.3731e+05,0,4.8531e+06,-12455,11096,11634,1,11634,1,-0.00020734,-1.2903e-07,0,0.00010522,-4.0031e-05,-8.4332e+07,-43781,0,4.2441e+07,-4110.4,11633,12614,1,12614,1,0.00021354,9.0553e-08,0,0.00031565,3.8901e-05,8.4728e+07,30687,0,1.2629e+08,3594.2,12613,567.13,0,567.13,0,0.00024276,1.7744e-07,0,0.00012117,4.5516e-05,9.7179e+07,60259,0,4.8323e+07,4972.4,567.13,1
1960,1.5,12124,1,12124,1,3.1312e-06,3.4016e-09,0,0.00021178,-5.758e-07,-8980.9,1151.6,0,8.4856e+07,-662.01,12123,13104,1,13104,1,0.00041245,5.4638e-07,0,0.00041245,7.6151e-05,1.6156e+08,1.8673e+05,0,1.6519e+08,10680,13103,12124,1,12124,1,3.1224e-06,-1.9154e-09,0,0.00021188,-5.7775e-07,1.2307e+06,-643.77,0,8.5222e+07,-214.43,12123,11097,1,11097,1,-0.00040612,-3.8721e-07,0,1.1982e-05,-7.7304e-05,-1.6519e+08,-1.319e+05,0,4.8745e+06,-18546,11096,11634,1,11634,1,-0.00020873,-1.2563e-07,0,0.00010595,-4.0323e-05,-8.4897e+07,-42277,0,4.2731e+07,-4333.7,11633,12614,1,12614,1,0.00021501,1.1957e-07,0,0.0003178,3.9157e-05,8.5287e+07,40410,0,1.2711e+08,3628.6,12613,567.13,0,567.13,0,0.00024444,1.8828e-07,0,0.00012201,4.5831e-05,9.7828e+07,63924,0,4.8643e+07,5464.7,567.13,1
1960,1.51,12124,1,12124,1,3.1943e-06,-3.0082e-08,0,0.00021312,-5.8716e-07,-9566.7,-10192,0,8.5376e+07,-582,12123,13104,1,13104,1,0.00041533,4.899e-07,0,0.00041533,7.6672e-05,1.6261e+08,1.6778e+05,0,1.6631e+08,23461,13103,12124,1,12124,1,3.1956e-06,-1.9225e-08,0,0.00021328,-5.8895e-07,1.2589e+06,-6389.2,0,8.5767e+07,-34.15,12123,11097,1,11097,1,-0.00040888,-4.1975e-07,0,1.2011e-05,-7.7845e-05,-1.6631e+08,-1.4318e+05,0,4.885e+06,-14375,11096,11634,1,11634,1,-0.00021007,-1.5924e-07,0,0.00010664,-4.0581e-05,-8.5441e+07,-53489,0,4.3005e+07,-4489.9,11633,12614,1,12614,1,0.00021647,7.437e-08,0,0.00031991,3.9411e-05,8.583e+07,25469,0,1.2792e+08,3524.3,12613,567.13,0,567.13,0,0.00024599,1.864e-07,0,0.00012279,4.6121e-05,9.8427e+07,63293,0,4.8939e+07,5306.1,567.13,1
1960,1.52,12124,1,12124,1,3.2841e-06,-4.2874e-08,0,0.00021446,-6.0376e-07,1306.6,-14529,0,8.5895e+07,-581.19,12123,13104,1,13104,1,0.00041821,6.5035e-07,0,0.00041821,7.717e-05,1.6365e+08,2.2225e+05,0,1.674e+08,15865,13103,12124,1,12124,1,3.2792e-06,-3.0869e-08,0,0.00021466,-6.0704e-07,1.2914e+06,-10300,0,8.6305e+07,-21.516,12123,11097,1,11097,1,-0.00041155,-5.3034e-07,0,1.202e-05,-7.8384e-05,-1.674e+08,-1.8041e+05,0,4.8898e+06,-20582,11096,11634,1,11634,1,-0.00021134,-2.1473e-07,0,0.00010733,-4.0852e-05,-8.5961e+07,-72798,0,4.3275e+07,-4414.8,11633,12614,1,12614,1,0.00021793,8.0212e-08,0,0.00032195,3.9646e-05,8.6378e+07,27446,0,1.2872e+08,4074,12613,567.13,0,567.13,0,0.00024753,2.4278e-07,0,0.00012356,4.6414e-05,9.9022e+07,82404,0,4.9231e+07,6843.8,567.13,1
1960,1.53,12124,1,12124,1,3.3465e-06,4.4575e-08,0,0.00021599,-6.1596e-07,-501.41,15116,0,8.649e+07,-905.61,12123,13104,1,13104,1,0.00042116,7.488e-07,0,0.00042116,7.7725e-05,1.6475e+08,2.5592e+05,0,1.6857e+08,20841,13103,12124,1,12124,1,3.3424e-06,1.9115e-08,0,0.00021615,-6.1765e-07,1.3163e+06,6371.7,0,8.6903e+07,-705.46,12123,11097,1,11097,1,-0.00041444,-4.8446e-07,0,1.2065e-05,-7.8938e-05,-1.6857e+08,-1.6464e+05,0,4.9081e+06,-15871,11096,11634,1,11634,1,-0.00021282,-1.1363e-07,0,0.0001081,-4.1151e-05,-8.656e+07,-38769,0,4.3582e+07,-6852.6,11633,12614,1,12614,1,0.0002195,1.9542e-07,0,0.00032426,3.9934e-05,8.6982e+07,66052,0,1.296e+08,5464.8,12613,567.13,0,567.13,0,0.0002493,2.4949e-07,0,0.00012444,4.6747e-05,9.9707e+07,84690,0,4.957e+07,7136.1,567.13,1
1960,1.54,12124,1,12124,1,3.4039e-06,-2.6967e-08,0,0.00021765,-6.2496e-07,-7299.6,-9131.7,0,8.7135e+07,-303.5,12123,13104,1,13104,1,0.00042432,5.8405e-07,0,0.00042432,7.8271e-05,1.6586e+08,1.9957e+05,0,1.6978e+08,13652,13103,12124,1,12124,1,3.3978e-06,-1.9032e-08,0,0.00021781,-6.2809e-07,1.338e+06,-6472.8,0,8.7547e+07,-149.54,12123,11097,1,11097,1,-0.00041742,-4.5967e-07,0,1.2131e-05,-7.9528e-05,-1.6978e+08,-1.5638e+05,0,4.9352e+06,-15571,11096,11634,1,11634,1,-0.00021438,-1.7543e-07,0,0.0001089,-4.1465e-05,-8.7196e+07,-59849,0,4.3901e+07,-3909,11633,12614,1,12614,1,0.00022121,8.6801e-08,0,0.00032669,4.0215e-05,8.7616e+07,29624,0,1.3055e+08,3663.4,12613,567.13,0,567.13,0,0.00025122,2.1479e-07,0,0.0001254,4.7102e-05,1.0045e+08,72893,0,4.9937e+07,5598.2,567.13,1
1960,1.55,12124,1,12124,1,3.4969e-06,-2.3594e-08,0,0.0002189,-6.3923e-07,1242.4,-8001.1,0,8.7612e+07,903.41,12123,13104,1,13104,1,0.00042686,6.3146e-07,0,0.00042686,7.8713e-05,1.6675e+08,2.1576e+05,0,1.7073e+08,18326,13103,12124,1,12124,1,3.4783e-06,-2.2015e-08,0,0.00021907,-6.4264e-07,1.371e+06,-7435.2,0,8.8033e+07,529.81,12123,11097,1,11097,1,-0.00041976,-4.879e-07,0,1.2129e-05,-8.0005e-05,-1.7073e+08,-1.6603e+05,0,4.9338e+06,-15949,11096,11634,1,11634,1,-0.00021553,-1.8753e-07,0,0.00010952,-4.1719e-05,-8.7663e+07,-62701,0,4.4143e+07,-4232.9,11633,12614,1,12614,1,0.00022255,1.0381e-07,0,0.00032855,4.0439e-05,8.8111e+07,34692,0,1.3126e+08,5234.2,12613,567.13,0,567.13,0,0.00025265,2.3404e-07,0,0.00012612,4.7374e-05,1.01e+08,79386,0,5.0207e+07,6607.6,567.13,1
1960,1.56,12124,1,12124,1,3.5662e-06,5.8401e-08,0,0.00021984,-6.5631e-07,5472.5,19784,0,8.7973e+07,-910.66,12123,13104,1,13104,1,0.00042895,7.9339e-07,0,0.00042895,7.9085e-05,1.6751e+08,2.7109e+05,0,1.7154e+08,14820,13103,12124,1,12124,1,3.5575e-06,2.6334e-08,0,0.00022005,-6.5976e-07,1.4011e+06,8852.4,0,8.8424e+07,-693.08,12123,11097,1,11097,1,-0.00042175,-5.4761e-07,0,1.2127e-05,-8.0397e-05,-1.7154e+08,-1.8611e+05,0,4.9333e+06,-19517,11096,11634,1,11634,1,-0.00021647,-9.5975e-08,0,0.00011004,-4.1926e-05,-8.8047e+07,-32240,0,4.4348e+07,-6524.1,11633,12614,1,12614,1,0.00022361,2.077e-07,0,0.00033007,4.0609e-05,8.8511e+07,70064,0,1.3183e+08,5159.9,12613,567.13,0,567.13,0,0.00025374,2.5776e-07,0,0.00012666,4.7579e-05,1.0141e+08,87450,0,5.0409e+07,7277.4,567.13,1
1960,1.57,12124,1,12124,1,3.6347e-06,-3.8094e-08,0,0.00022186,-6.706e-07,6164,-12898,0,8.8765e+07,-1643,12123,13104,1,13104,1,0.00043281,5.404e-07,0,0.00043281,7.9778e-05,1.6894e+08,1.8481e+05,0,1.7304e+08,16761,13103,12124,1,12124,1,3.6235e-06,-2.4527e-08,0,0.00022206,-6.7348e-07,1.4262e+06,-8115.5,0,8.9212e+07,-1035.9,12123,11097,1,11097,1,-0.00042543,-4.38e-07,0,1.2205e-05,-8.112e-05,-1.7304e+08,-1.4925e+05,0,4.9654e+06,-17310,11096,11634,1,11634,1,-0.00021838,-1.912e-07,0,0.00011101,-4.2305e-05,-8.8824e+07,-64385,0,4.4734e+07,-6128.2,11633,12614,1,12614,1,0.00022568,7.4775e-08,0,0.00033305,4.0972e-05,8.9297e+07,25209,0,1.3301e+08,2907.2,12613,567.13,0,567.13,0,0.00025607,2.0662e-07,0,0.00012783,4.8012e-05,1.0233e+08,70101,0,5.0864e+07,6054,567.13,1
1960,1.58,12124,1,12124,1,3.6963e-06,2.475e-08,0,0.00022276,-6.8057e-07,-1105,8383.3,0,8.9101e+07,-1111.2,12123,13104,1,13104,1,0.00043439,7.1575e-07,0,0.00043439,8.006e-05,1.6946e+08,2.4454e+05,0,1.7366e+08,14161,13103,12124,1,12124,1,3.6873e-06,6.19e-09,0,0.0002229,-6.8557e-07,1.4515e+06,2078.2,0,8.9543e+07,-871,12123,11097,1,11097,1,-0.00042694,-5.3726e-07,0,1.2207e-05,-8.1417e-05,-1.7366e+08,-1.826e+05,0,4.9661e+06,-17917,11096,11634,1,11634,1,-0.0002192,-1.2776e-07,0,0.00011147,-4.2484e-05,-8.9156e+07,-43552,0,4.491e+07,-6102.1,11633,12614,1,12614,1,0.00022659,1.6203e-07,0,0.00033435,4.112e-05,8.9626e+07,55025,0,1.3348e+08,4326,12613,567.13,0,567.13,0,0.00025711,2.4623e-07,0,0.00012835,4.821e-05,1.0271e+08,83507,0,5.105e+07,6739.5,567.13,1
1960,1.59,12124,1,12124,1,3.7612e-06,-1.3767e-08,0,0.00022454,-6.9134e-07,-316.15,-4655,0,8.98e+07,-647.97,12123,13104,1,13104,1,0.00043782,6.1864e-07,0,0.00043782,8.0665e-05,1.707e+08,2.1187e+05,0,1.7497e+08,18722,13103,12124,1,12124,1,3.7544e-06,-1.4364e-08,0,0.00022468,-7.0463e-07,1.4776e+06,-4782.8,0,9.0236e+07,-645.12,12123,11097,1,11097,1,-0.00043017,-4.2524e-07,0,1.2266e-05,-8.2055e-05,-1.7497e+08,-1.4429e+05,0,4.9892e+06,-16368,11096,11634,1,11634,1,-0.00022088,-1.5082e-07,0,0.00011233,-4.2819e-05,-8.984e+07,-50735,0,4.5253e+07,-4613.4,11633,12614,1,12614,1,0.00022843,9.1693e-08,0,0.00033696,4.1444e-05,9.0319e+07,30599,0,1.3451e+08,3436,12613,567.13,0,567.13,0,0.00025917,2.0411e-07,0,0.00012938,4.8592e-05,1.0351e+08,69218,0,5.145e+07,5679.9,567.13,1
1960,1.6,12124,1,12124,1,3.8688e-06,5.234e-10,0,0.00022618,-7.1203e-07,7623.6,184.46,0,9.0431e+07,-1009.7,12123,13104,1,13104,1,0.00044097,5.9083e-07,0,0.00044097,8.1223e-05,1.7182e+08,2.0184e+05,0,1.7618e+08,12912,13103,12124,1,12124,1,3.8617e-06,-9.0863e-09,0,0.0002263,-7.162e-07,1.52e+06,-3028.9,0,9.0869e+07,-857.66,12123,11097,1,11097,1,-0.00043315,-3.8764e-07,0,1.228e-05,-8.2643e-05,-1.7618e+08,-1.3157e+05,0,4.9954e+06,-16314,11096,11634,1,11634,1,-0.00022241,-1.3329e-07,0,0.00011315,-4.3145e-05,-9.0462e+07,-45109,0,4.5579e+07,-4466,11633,12614,1,12614,1,0.00023016,1.0331e-07,0,0.00033941,4.1723e-05,9.0962e+07,34719,0,1.3543e+08,3112.9,12613,567.13,0,567.13,0,0.00026106,1.9678e-07,0,0.00013033,4.8947e-05,1.0424e+08,66732,0,5.1808e+07,5493.4,567.13,1
1960,1.61,12124,1,12124,1,3.9327e-06,-1.1731e-08,0,0.0002275,-7.2268e-07,1317.5,-3970.2,0,9.0935e+07,-594.98,12123,13104,1,13104,1,0.00044368,5.9582e-07,0,0.00044369,8.1701e-05,1.7276e+08,2.0405e+05,0,1.7722e+08,17455,13103,12124,1,12124,1,3.9261e-06,-1.0082e-08,0,0.00022764,-7.3354e-07,1.5451e+06,-3334.4,0,9.1388e+07,-761.73,12123,11097,1,11097,1,-0.00043571,-4.3714e-07,0,1.2308e-05,-8.3154e-05,-1.7722e+08,-1.4873e+05,0,5.0064e+06,-14997,11096,11634,1,11634,1,-0.00022367,-1.4635e-07,0,0.00011381,-4.3405e-05,-9.0972e+07,-49306,0,4.5834e+07,-4810.6,11633,12614,1,12614,1,0.00023157,9.5475e-08,0,0.00034141,4.1964e-05,9.1477e+07,31922,0,1.362e+08,3598.6,12613,567.13,0,567.13,0,0.00026259,2.0202e-07,0,0.00013109,4.9232e-05,1.0482e+08,68495,0,5.2093e+07,5649,567.13,1
1960,1.62,12124,1,12124,1,4.0067e-06,8.2574e-09,0,0.00022878,-7.3872e-07,2714.1,2790,0,9.1426e+07,-1626.5,12123,13104,1,13104,1,0.00044619,5.6198e-07,0,0.00044619,8.2156e-05,1.7367e+08,1.923e+05,0,1.782e+08,13174,13103,12124,1,12124,1,4.0015e-06,2.2678e-09,0,0.0002289,-7.3467e-07,1.5745e+06,744.78,0,9.1879e+07,-846.79,12123,11097,1,11097,1,-0.00043812,-4.594e-07,0,1.2324e-05,-8.3622e-05,-1.782e+08,-1.5592e+05,0,5.0137e+06,-18019,11096,11634,1,11634,1,-0.00022487,-1.3687e-07,0,0.00011446,-4.3659e-05,-9.1464e+07,-46544,0,4.6092e+07,-5947.7,11633,12614,1,12614,1,0.0002329,1.4387e-07,0,0.00034332,4.2186e-05,9.1972e+07,48863,0,1.3692e+08,3637,12613,567.13,0,567.13,0,0.00026406,2.1685e-07,0,0.00013182,4.9509e-05,1.0538e+08,73503,0,5.2371e+07,6379.4,567.13,1
1960,1.63,12124,1,12124,1,4.0618e-06,-1.5231e-08,0,0.00023039,-7.4588e-07,-5055,-5154.5,0,9.2052e+07,-427,12123,13104,1,13104,1,0.00044946,5.7004e-07,0,0.00044946,8.2736e-05,1.7482e+08,1.9522e+05,0,1.7946e+08,15967,13103,12124,1,12124,1,4.0556e-06,-1.0081e-08,0,0.00023055,-7.5536e-07,1.5955e+06,-3397.6,0,9.2526e+07,-463.81,12123,11097,1,11097,1,-0.00044121,-4.292e-07,0,1.2382e-05,-8.4236e-05,-1.7946e+08,-1.461e+05,0,5.0366e+06,-13222,11096,11634,1,11634,1,-0.00022644,-1.5462e-07,0,0.00011525,-4.3974e-05,-9.2101e+07,-52355,0,4.6404e+07,-4581.7,11633,12614,1,12614,1,0.0002346,9.6496e-08,0,0.00034577,4.2485e-05,9.261e+07,32111,0,1.3787e+08,3926.6,12613,567.13,0,567.13,0,0.00026592,2.0172e-07,0,0.00013276,4.9858e-05,1.061e+08,68374,0,5.2727e+07,5542.1,567.13,1
1960,1.64,12124,1,12124,1,4.1593e-06,-1.6314e-08,0,0.00023136,-7.6728e-07,3665.2,-5520.4,0,9.2416e+07,-1862.1,12123,13104,1,13104,1,0.00045155,5.9356e-07,0,0.00045155,8.3084e-05,1.7552e+08,2.0323e+05,0,1.8022e+08,13201,13103,12124,1,12124,1,4.1503e-06,-1.2113e-08,0,0.00023154,-7.6213e-07,1.6324e+06,-4043.3,0,9.2904e+07,-975.91,12123,11097,1,11097,1,-0.00044309,-4.8618e-07,0,1.2359e-05,-8.4626e-05,-1.8022e+08,-1.6499e+05,0,5.0277e+06,-18899,11096,11634,1,11634,1,-0.00022732,-1.7681e-07,0,0.00011575,-4.418e-05,-9.2461e+07,-58929,0,4.6597e+07,-6342.1,11633,12614,1,12614,1,0.00023569,1.18e-07,0,0.00034724,4.2649e-05,9.2998e+07,40087,0,1.3842e+08,3695.6,12613,567.13,0,567.13,0,0.00026704,2.282e-07,0,0.00013332,5.0069e-05,1.0652e+08,77328,0,5.2931e+07,6714.6,567.13,1
1960,1.65,12124,1,12124,1,4.223e-06,-2.9517e-08,0,0.00023341,-7.7737e-07,-1072.8,-9982.7,0,9.3219e+07,-1229.5,12123,13104,1,13104,1,0.00045545,5.64e-07,0,0.00045545,8.3798e-05,1.7696e+08,1.9315e+05,0,1.8177e+08,17482,13103,12124,1,12124,1,4.2175e-06,-2.5854e-08,0,0.00023357,-7.905e-07,1.658e+06,-8663.8,0,9.3708e+07,-1221.7,12123,11097,1,11097,1,-0.00044689,-4.1748e-07,0,1.2441e-05,-8.5357e-05,-1.8177e+08,-1.4177e+05,0,5.0608e+06,-15801,11096,11634,1,11634,1,-0.0002293,-1.6308e-07,0,0.00011676,-4.457e-05,-9.3265e+07,-55171,0,4.7e+07,-4942.6,11633,12614,1,12614,1,0.00023778,6.8472e-08,0,0.0003503,4.3017e-05,9.3799e+07,23162,0,1.3961e+08,2557.2,12613,567.13,0,567.13,0,0.00026941,1.9309e-07,0,0.0001345,5.051e-05,1.0745e+08,65444,0,5.339e+07,5556.1,567.13,1
1960,1.66,12124,1,12124,1,4.3082e-06,-2.7298e-08,0,0.0002347,-7.9165e-07,-5594.1,-9241.5,0,9.3703e+07,-684.81,12123,13104,1,13104,1,0.00045803,4.5039e-07,0,0.00045803,8.4256e-05,1.7782e+08,1.5421e+05,0,1.8276e+08,15546,13103,12124,1,12124,1,4.3037e-06,-9.8387e-09,0,0.00023487,-7.8353e-07,1.6927e+06,-3310.3,0,9.4208e+07,-431.72,12123,11097,1,11097,1,-0.00044933,-4.7225e-07,0,1.2442e-05,-8.5841e-05,-1.8276e+08,-1.6054e+05,0,5.0627e+06,-12908,11096,11634,1,11634,1,-0.00023053,-1.4734e-07,0,0.00011744,-4.4831e-05,-9.3766e+07,-49720,0,4.7263e+07,-4451.6,11633,12614,1,12614,1,0.00023917,8.0873e-08,0,0.00035227,4.3246e-05,9.4298e+07,27389,0,1.4034e+08,3551.5,12613,567.13,0,567.13,0,0.0002709,1.849e-07,0,0.00013524,5.0789e-05,1.08e+08,62645,0,5.3662e+07,5438.5,567.13,1
1960,1.67,12124,1,12124,1,4.3775e-06,-6.4194e-08,0,0.00023633,-8.0545e-07,-9971.6,-21707,0,9.4335e+07,-1160.9,12123,13104,1,13104,1,0.00046154,4.4808e-07,0,0.00046154,8.4882e-05,1.7909e+08,1.5345e+05,0,1.8411e+08,20128,13103,12124,1,12124,1,4.3682e-06,-4.5023e-08,0,0.00023655,-8.0663e-07,1.718e+06,-15034,0,9.4866e+07,-932.26,12123,11097,1,11097,1,-0.00045265,-4.2144e-07,0,1.2491e-05,-8.6497e-05,-1.8411e+08,-1.43e+05,0,5.0823e+06,-14209,11096,11634,1,11634,1,-0.00023213,-2.0244e-07,0,0.00011825,-4.5154e-05,-9.4415e+07,-68686,0,4.7586e+07,-5193.7,11633,12614,1,12614,1,0.00024091,4.213e-08,0,0.00035477,4.3544e-05,9.4949e+07,14156,0,1.4131e+08,2304.9,12613,567.13,0,567.13,0,0.00027278,1.8406e-07,0,0.00013619,5.1141e-05,1.0873e+08,62354,0,5.4022e+07,5730,567.13,1
1960,1.68,12124,1,12124,1,4.487e-06,6.5569e-09,0,0.00023741,-8.2296e-07,1273.3,2207.3,0,9.4739e+07,-27.303,12123,13104,1,13104,1,0.00046344,6.402e-07,0,0.00046344,8.5199e-05,1.7972e+08,2.1894e+05,0,1.8481e+08,24488,13103,12124,1,12124,1,4.4831e-06,2.5381e-09,0,0.00023755,-8.112e-07,1.7621e+06,837.3,0,9.5248e+07,35.078,12123,11097,1,11097,1,-0.00045436,-5.3158e-07,0,1.2456e-05,-8.6856e-05,-1.8481e+08,-1.8049e+05,0,5.068e+06,-19660,11096,11634,1,11634,1,-0.00023302,-1.5434e-07,0,0.00011878,-4.537e-05,-9.4779e+07,-51375,0,4.779e+07,-4733.1,11633,12614,1,12614,1,0.00024204,1.5228e-07,0,0.00035628,4.373e-05,9.535e+07,50902,0,1.4186e+08,5311.9,12613,567.13,0,567.13,0,0.00027402,2.4376e-07,0,0.00013681,5.1378e-05,1.0919e+08,82546,0,5.4247e+07,8019.3,567.13,1
1960,1.69,12124,1,12124,1,4.5395e-06,-6.6757e-08,0,0.00023916,-8.3393e-07,-9070.7,-22563,0,9.542e+07,-648.57,12123,13104,1,13104,1,0.00046716,4.5486e-07,0,0.00046716,8.5875e-05,1.8106e+08,1.5577e+05,0,1.8627e+08,19561,13103,12124,1,12124,1,4.5288e-06,-4.5787e-08,0,0.00023938,-8.3559e-07,1.7808e+06,-15446,0,9.5967e+07,-593.94,12123,11097,1,11097,1,-0.00045795,-4.2646e-07,0,1.2533e-05,-8.7549e-05,-1.8627e+08,-1.4475e+05,0,5.0994e+06,-13557,11096,11634,1,11634,1,-0.00023479,-2.0973e-07,0,0.00011966,-4.5712e-05,-9.5498e+07,-70881,0,4.8141e+07,-4564.9,11633,12614,1,12614,1,0.0002439,4.1798e-08,0,0.00035901,4.4046e-05,9.6054e+07,13705,0,1.4293e+08,2746.8,12613,567.13,0,567.13,0,0.00027605,1.8762e-07,0,0.00013782,5.1753e-05,1.0998e+08,63548,0,5.4636e+07,5484.2,567.13,1
1960,1.7,12124,1,12124,1,4.6492e-06,4.1699e-09,0,0.00024017,-8.5148e-07,638.44,1394.7,0,9.5795e+07,478.16,12123,13104,1,13104,1,0.00046891,6.9161e-07,0,0.00046891,8.6165e-05,1.8161e+08,2.3648e+05,0,1.869e+08,27698,13103,12124,1,12124,1,4.6452e-06,-6.0516e-09,0,0.00024032,-8.418e-07,1.8268e+06,-2058.7,0,9.6322e+07,22.615,12123,11097,1,11097,1,-0.00045951,-5.0565e-07,0,1.249e-05,-8.7879e-05,-1.869e+08,-1.718e+05,0,5.0821e+06,-15450,11096,11634,1,11634,1,-0.00023563,-1.5488e-07,0,0.00012016,-4.5917e-05,-9.584e+07,-51721,0,4.8331e+07,-4569.6,11633,12614,1,12614,1,0.00024497,1.3162e-07,0,0.00036044,4.4218e-05,9.6426e+07,44740,0,1.4344e+08,4832.5,12613,567.13,0,567.13,0,0.00027721,2.393e-07,0,0.0001384,5.1975e-05,1.104e+08,81016,0,5.4845e+07,7740.5,567.13,1
1960,1.71,12124,1,12124,1,4.7229e-06,-4.0711e-08,0,0.0002417,-8.6791e-07,504.37,-13752,0,9.639e+07,-754.99,12123,13104,1,13104,1,0.00047208,5.6969e-07,0,0.00047208,8.6733e-05,1.8276e+08,1.9209e+05,0,1.8813e+08,19287,13103,12124,1,12124,1,4.7134e-06,-3.2322e-08,0,0.00024188,-8.6158e-07,1.8528e+06,-10757,0,9.6936e+07,-590.87,12123,11097,1,11097,1,-0.00046253,-4.5926e-07,0,1.2531e-05,-8.847e-05,-1.8813e+08,-1.5581e+05,0,5.099e+06,-16298,11096,11634,1,11634,1,-0.00023713,-1.916e-07,0,0.00012093,-4.6221e-05,-9.6447e+07,-64688,0,4.8635e+07,-5388.5,11633,12614,1,12614,1,0.0002466,6.7952e-08,0,0.00036279,4.4483e-05,9.7039e+07,23225,0,1.4435e+08,3090.3,12613,567.13,0,567.13,0,0.00027898,2.1222e-07,0,0.00013929,5.2305e-05,1.1109e+08,71831,0,5.5183e+07,6688.2,567.13,1
1960,1.72,12124,1,12124,1,4.7988e-06,4.2893e-09,0,0.00024307,-8.8417e-07,-4565.4,1463.7,0,9.6911e+07,-1747,12123,13104,1,13104,1,0.00047468,7.2239e-07,0,0.00047468,8.7185e-05,1.8365e+08,2.4491e+05,0,1.8911e+08,17031,13103,12124,1,12124,1,4.7938e-06,-9.1476e-09,0,0.00024322,-8.8355e-07,1.8845e+06,-3039.4,0,9.7451e+07,-621.57,12123,11097,1,11097,1,-0.00046493,-4.8024e-07,0,1.2544e-05,-8.8957e-05,-1.8911e+08,-1.6291e+05,0,5.1027e+06,-22799,11096,11634,1,11634,1,-0.00023838,-1.6882e-07,0,0.00012162,-4.6489e-05,-9.6958e+07,-56443,0,4.8905e+07,-6785,11633,12614,1,12614,1,0.00024801,1.4258e-07,0,0.00036477,4.4723e-05,9.7553e+07,47965,0,1.451e+08,4330.4,12613,567.13,0,567.13,0,0.00028056,2.4627e-07,0,0.00014008,5.2604e-05,1.1169e+08,83382,0,5.5477e+07,8313.3,567.13,1
1960,1.73,12124,1,12124,1,4.8886e-06,-5.1534e-08,0,0.00024448,-8.9614e-07,-1921.5,-17402,0,9.7448e+07,124.96,12123,13104,1,13104,1,0.00047779,5.436e-07,0,0.00047779,8.7738e-05,1.8474e+08,1.8322e+05,0,1.9031e+08,20327,13103,12124,1,12124,1,4.8769e-06,-3.3246e-08,0,0.0002447,-9.0016e-07,1.9184e+06,-11149,0,9.8026e+07,-135.49,12123,11097,1,11097,1,-0.00046789,-4.9891e-07,0,1.2558e-05,-8.9538e-05,-1.9031e+08,-1.6914e+05,0,5.1099e+06,-16968,11096,11634,1,11634,1,-0.00023977,-2.1391e-07,0,0.00012233,-4.6775e-05,-9.7522e+07,-72505,0,4.9187e+07,-4529.3,11633,12614,1,12614,1,0.00024957,7.1768e-08,0,0.000367,4.4984e-05,9.813e+07,24106,0,1.4595e+08,4127.9,12613,567.13,0,567.13,0,0.00028218,2.2149e-07,0,0.00014089,5.2904e-05,1.1231e+08,74959,0,5.5782e+07,7062.3,567.13,1
1960,1.74,12124,1,12124,1,4.9619e-06,-4.7607e-08,0,0.00024535,-9.1336e-07,-3226.7,-16061,0,9.777e+07,-1437.8,12123,13104,1,13104,1,0.00047972,8.4044e-07,0,0.00047972,8.8064e-05,1.8537e+08,2.8554e+05,0,1.9102e+08,20265,13103,12124,1,12124,1,4.9492e-06,-4.0949e-08,0,0.0002456,-9.1688e-07,1.9454e+06,-13876,0,9.8368e+07,-620.66,12123,11097,1,11097,1,-0.00046963,-6.3568e-07,0,1.2549e-05,-8.9902e-05,-1.9102e+08,-2.1559e+05,0,5.1061e+06,-26374,11096,11634,1,11634,1,-0.00024057,-2.6358e-07,0,0.00012277,-4.6965e-05,-9.7847e+07,-89016,0,4.9354e+07,-7412.7,11633,12614,1,12614,1,0.00025054,1.09e-07,0,0.00036831,4.5139e-05,9.8469e+07,36344,0,1.4644e+08,5445.6,12613,567.13,0,567.13,0,0.00028318,3.0125e-07,0,0.00014139,5.3098e-05,1.1267e+08,1.0196e+05,0,5.596e+07,9502.2,567.13,1
1960,1.75,12124,1,12124,1,5.0492e-06,-5.7256e-08,0,0.00024717,-9.2892e-07,1032.1,-19341,0,9.8481e+07,-1256.3,12123,13104,1,13104,1,0.0004833,6.5377e-07,0,0.0004833,8.8706e-05,1.8667e+08,2.2324e+05,0,1.9241e+08,20130,13103,12124,1,12124,1,5.0338e-06,-3.754e-08,0,0.00024742,-9.3052e-07,1.9784e+06,-12542,0,9.9084e+07,-833.75,12123,11097,1,11097,1,-0.00047305,-5.3958e-07,0,1.2595e-05,-9.057e-05,-1.9241e+08,-1.8292e+05,0,5.1246e+06,-17318,11096,11634,1,11634,1,-0.00024232,-2.417e-07,0,0.00012368,-4.7319e-05,-9.8559e+07,-81432,0,4.9717e+07,-6313.8,11633,12614,1,12614,1,0.00025245,7.1868e-08,0,0.00037107,4.5464e-05,9.9192e+07,24430,0,1.475e+08,3878.8,12613,567.13,0,567.13,0,0.00028529,2.4605e-07,0,0.00014244,5.3489e-05,1.1349e+08,83249,0,5.6367e+07,7301.4,567.13,1
1960,1.76,12124,1,12124,1,5.1416e-06,9.1889e-09,0,0.00024831,-9.4911e-07,-1299.7,3093.2,0,9.8903e+07,-2610.1,12123,13104,1,13104,1,0.00048527,8.3227e-07,0,0.00048527,8.9039e-05,1.873e+08,2.8175e+05,0,1.9313e+08,17814,13103,12124,1,12124,1,5.1332e-06,-3.7988e-09,0,0.00024847,-9.5193e-07,2.0164e+06,-1267.2,0,9.9483e+07,-1143.9,12123,11097,1,11097,1,-0.00047481,-5.7477e-07,0,1.2577e-05,-9.094e-05,-1.9313e+08,-1.9481e+05,0,5.1159e+06,-26386,11096,11634,1,11634,1,-0.00024329,-1.8764e-07,0,0.00012424,-4.754e-05,-9.8953e+07,-62334,0,4.9931e+07,-8686.2,11633,12614,1,12614,1,0.00025361,1.7364e-07,0,0.00037264,4.5645e-05,9.9595e+07,58070,0,1.4807e+08,4893,12613,567.13,0,567.13,0,0.0002866,2.856e-07,0,0.0001431,5.3737e-05,1.1398e+08,96614,0,5.6602e+07,9362.2,567.13,1
1960,1.77,12124,1,12124,1,5.2259e-06,1.4127e-08,0,0.00024979,-9.6588e-07,-248.05,4802.6,0,9.9472e+07,-3172.7,12123,13104,1,13104,1,0.00048805,6.8736e-07,0,0.00048805,8.9553e-05,1.8832e+08,2.3468e+05,0,1.9425e+08,14223,13103,12124,1,12124,1,5.2257e-06,-2.8829e-09,0,0.00024992,-9.7597e-07,2.0524e+06,-945.35,0,1.0006e+08,-2147,12123,11097,1,11097,1,-0.00047757,-4.9004e-07,0,1.2597e-05,-9.1457e-05,-1.9425e+08,-1.663e+05,0,5.1246e+06,-23212,11096,11634,1,11634,1,-0.00024467,-1.4013e-07,0,0.00012496,-4.7826e-05,-9.9517e+07,-46687,0,5.0217e+07,-8028.3,11633,12614,1,12614,1,0.00025514,1.4046e-07,0,0.00037487,4.59e-05,1.0018e+08,47492,0,1.4892e+08,2937.7,12613,567.13,0,567.13,0,0.00028831,2.3732e-07,0,0.00014396,5.4053e-05,1.1463e+08,80350,0,5.6926e+07,7467.3,567.13,1
1960,1.78,12124,1,12124,1,5.3237e-06,2.0946e-08,0,0.00025149,-9.8259e-07,-737.69,7087.4,0,1.0012e+08,-2660.7,12123,13104,1,13104,1,0.00049141,7.3575e-07,0,0.00049141,9.015e-05,1.8949e+08,2.4972e+05,0,1.9554e+08,13735,13103,12124,1,12124,1,5.3181e-06,-4.8392e-09,0,0.00025161,-9.8583e-07,2.0887e+06,-1602,0,1.0072e+08,-2115,12123,11097,1,11097,1,-0.00048076,-4.7927e-07,0,1.2621e-05,-9.209e-05,-1.9554e+08,-1.6263e+05,0,5.1359e+06,-23164,11096,11634,1,11634,1,-0.00024629,-1.4881e-07,0,0.00012583,-4.8166e-05,-1.0017e+08,-49904,0,5.0558e+07,-7310.9,11633,12614,1,12614,1,0.00025694,1.6192e-07,0,0.00037743,4.6197e-05,1.0084e+08,54464,0,1.4989e+08,2823.3,12613,567.13,0,567.13,0,0.00029027,2.5043e-07,0,0.00014494,5.4423e-05,1.1538e+08,84733,0,5.7295e+07,7523.4,567.13,1
1960,1.79,12124,1,12124,1,5.4431e-06,-3.4516e-08,0,0.00025291,-1.0004e-06,6088.5,-11655,0,1.0066e+08,-926.72,12123,13104,1,13104,1,0.00049472,7.8295e-07,0,0.00049472,9.0699e-05,1.906e+08,2.6497e+05,0,1.9673e+08,24625,13103,12124,1,12124,1,5.423e-06,-3.5546e-08,0,0.00025315,-9.9544e-07,2.1295e+06,-11691,0,1.013e+08,-848.29,12123,11097,1,11097,1,-0.00048368,-5.3938e-07,0,1.2618e-05,-9.2708e-05,-1.9673e+08,-1.8231e+05,0,5.135e+06,-20551,11096,11634,1,11634,1,-0.00024765,-2.3459e-07,0,0.00012655,-4.8464e-05,-1.0073e+08,-79125,0,5.0836e+07,-6479.2,11633,12614,1,12614,1,0.00025856,9.9346e-08,0,0.00037965,4.6462e-05,1.0142e+08,32955,0,1.5074e+08,3595.8,12613,567.13,0,567.13,0,0.00029191,2.7657e-07,0,0.00014576,5.4731e-05,1.16e+08,93469,0,5.7597e+07,8458.2,567.13,1
1960,1.8,12124,1,12124,1,5.5271e-06,3.5683e-08,0,0.00025472,-1.02e-06,-2033.9,12034,0,1.0136e+08,-2731.2,12123,13104,1,13104,1,0.00049787,7.1825e-07,0,0.00049787,9.1288e-05,1.9173e+08,2.4343e+05,0,1.98e+08,15515,13103,12124,1,12124,1,5.5223e-06,6.903e-09,0,0.00025487,-1.0234e-06,2.1683e+06,2243.3,0,1.0198e+08,-1509.9,12123,11097,1,11097,1,-0.0004868,-4.0828e-07,0,1.265e-05,-9.3303e-05,-1.98e+08,-1.3859e+05,0,5.1466e+06,-25469,11096,11634,1,11634,1,-0.00024934,-1.1285e-07,0,0.00012746,-4.8816e-05,-1.0142e+08,-38150,0,5.1194e+07,-7675.4,11633,12614,1,12614,1,0.00026039,1.6103e-07,0,0.00038231,4.6769e-05,1.021e+08,54827,0,1.5174e+08,3547.4,12613,567.13,0,567.13,0,0.000294,2.2355e-07,0,0.00014681,5.5122e-05,1.168e+08,75599,0,5.7992e+07,7876.7,567.13,1
1960,1.81,12124,1,12124,1,5.6179e-06,-3.5041e-08,0,0.00025554,-1.0298e-06,-3531.5,-11840,0,1.0165e+08,153.21,12123,13104,1,13104,1,0.00049972,5.7504e-07,0,0.00049972,9.1578e-05,1.9226e+08,1.9288e+05,0,1.9864e+08,16250,13103,12124,1,12124,1,5.6005e-06,-1.3975e-08,0,0.00025574,-1.0253e-06,2.1991e+06,-4752.3,0,1.0229e+08,59.358,12123,11097,1,11097,1,-0.00048837,-5.8456e-07,0,1.2634e-05,-9.3645e-05,-1.9864e+08,-1.98e+05,0,5.1412e+06,-13673,11096,11634,1,11634,1,-0.00025008,-1.8426e-07,0,0.00012786,-4.8981e-05,-1.0172e+08,-61406,0,5.1344e+07,-4820.6,11633,12614,1,12614,1,0.00026134,1.0012e-07,0,0.00038355,4.692e-05,1.0241e+08,33660,0,1.5219e+08,4993.5,12613,567.13,0,567.13,0,0.00029494,2.2503e-07,0,0.00014728,5.5296e-05,1.1713e+08,76007,0,5.8154e+07,6003.5,567.13,1
1960,1.82,12124,1,12124,1,5.699e-06,5.4788e-08,0,0.00025693,-1.0479e-06,-406.92,18484,0,1.0218e+08,-1192.9,12123,13104,1,13104,1,0.00050246,7.9175e-07,0,0.00050246,9.2089e-05,1.9328e+08,2.6797e+05,0,1.9974e+08,15952,13103,12124,1,12124,1,5.6968e-06,1.6715e-08,0,0.00025711,-1.055e-06,2.2367e+06,5550.7,0,1.0284e+08,-680.41,12123,11097,1,11097,1,-0.00049108,-4.4994e-07,0,1.2626e-05,-9.4161e-05,-1.9974e+08,-1.5195e+05,0,5.1369e+06,-24000,11096,11634,1,11634,1,-0.00025142,-9.556e-08,0,0.00012858,-4.9266e-05,-1.0226e+08,-32318,0,5.1632e+07,-5765.7,11633,12614,1,12614,1,0.00026281,1.883e-07,0,0.00038569,4.7161e-05,1.0297e+08,63435,0,1.53e+08,5123.5,12613,567.13,0,567.13,0,0.00029655,2.4157e-07,0,0.00014808,5.56e-05,1.1775e+08,81651,0,5.8459e+07,7890,567.13,1
1960,1.83,12124,1,12124,1,5.7834e-06,-6.776e-08,0,0.00025822,-1.0598e-06,-3250.7,-22870,0,1.0267e+08,258.04,12123,13104,1,13104,1,0.00050549,7.3885e-07,0,0.00050549,9.2598e-05,1.9428e+08,2.512e+05,0,2.0085e+08,23234,13103,12124,1,12124,1,5.7631e-06,-5.6961e-08,0,0.0002585,-1.056e-06,2.2621e+06,-19492,0,1.0336e+08,147.65,12123,11097,1,11097,1,-0.00049381,-6.2933e-07,0,1.2661e-05,-9.4726e-05,-2.0085e+08,-2.1448e+05,0,5.1523e+06,-19192,11096,11634,1,11634,1,-0.00025267,-2.7412e-07,0,0.00012923,-4.9528e-05,-1.0277e+08,-92798,0,5.1882e+07,-4021,11633,12614,1,12614,1,0.00026426,7.1863e-08,0,0.00038769,4.7398e-05,1.0348e+08,23984,0,1.5376e+08,4782.2,12613,567.13,0,567.13,0,0.00029805,2.8431e-07,0,0.00014883,5.588e-05,1.1831e+08,96049,0,5.8734e+07,7900.9,567.13,1
1960,1.84,12124,1,12124,1,5.8889e-06,1.5488e-08,0,0.00026008,-1.0851e-06,-2691,5227.6,0,1.0339e+08,-2216.3,12123,13104,1,13104,1,0.00050858,7.5131e-07,0,0.00050858,9.3159e-05,1.9539e+08,2.5479e+05,0,2.0206e+08,16730,13103,12124,1,12124,1,5.8874e-06,-1.8294e-09,0,0.00026022,-1.087e-06,2.3116e+06,-607.68,0,1.0404e+08,-1244.8,12123,11097,1,11097,1,-0.00049679,-4.8084e-07,0,1.2658e-05,-9.53e-05,-2.0206e+08,-1.6379e+05,0,5.1499e+06,-23797,11096,11634,1,11634,1,-0.00025433,-1.4866e-07,0,0.00013015,-4.9876e-05,-1.0345e+08,-49646,0,5.2243e+07,-6820.8,11633,12614,1,12614,1,0.00026612,1.5159e-07,0,0.00039033,4.771e-05,1.0417e+08,50162,0,1.5475e+08,3661.5,12613,567.13,0,567.13,0,0.00030019,2.4934e-07,0,0.00014991,5.6281e-05,1.1913e+08,84303,0,5.914e+07,8002.1,567.13,1
1960,1.85,12124,1,12124,1,6.011e-06,-2.9347e-08,0,0.00026135,-1.1037e-06,1288.2,-9916.8,0,1.0386e+08,-616.72,12123,13104,1,13104,1,0.00051134,6.9351e-07,0,0.00051134,9.3608e-05,1.9624e+08,2.3448e+05,0,2.0304e+08,22690,13103,12124,1,12124,1,5.9989e-06,-2.6254e-08,0,0.00026157,-1.1046e-06,2.3539e+06,-8937.5,0,1.0454e+08,-819.8,12123,11097,1,11097,1,-0.0004992,-4.9867e-07,0,1.2656e-05,-9.5819e-05,-2.0304e+08,-1.6985e+05,0,5.1495e+06,-21049,11096,11634,1,11634,1,-0.00025551,-1.8629e-07,0,0.00013075,-5.0142e-05,-1.0392e+08,-62937,0,5.2477e+07,-5250.1,11633,12614,1,12614,1,0.00026756,7.5815e-08,0,0.00039228,4.7938e-05,1.0467e+08,25399,0,1.5548e+08,3738.7,12613,567.13,0,567.13,0,0.00030166,2.3216e-07,0,0.00015064,5.6555e-05,1.1967e+08,78426,0,5.9404e+07,7365.5,567.13,1
1960,1.86,12124,1,12124,1,6.0972e-06,4.6003e-08,0,0.00026298,-1.121e-06,-4355.6,15508,0,1.0448e+08,-1273.6,12123,13104,1,13104,1,0.00051453,7.6726e-07,0,0.00051453,9.4207e-05,1.974e+08,2.6021e+05,0,2.0434e+08,13090,13103,12124,1,12124,1,6.0976e-06,1.3392e-08,0,0.00026312,-1.1252e-06,2.3935e+06,4511.5,0,1.0516e+08,-542.01,12123,11097,1,11097,1,-0.00050237,-5.0117e-07,0,1.2659e-05,-9.6418e-05,-2.0434e+08,-1.705e+05,0,5.1509e+06,-22496,11096,11634,1,11634,1,-0.00025705,-1.2919e-07,0,0.00013161,-5.0462e-05,-1.0455e+08,-43225,0,5.2813e+07,-6297.1,11633,12614,1,12614,1,0.00026922,2.0646e-07,0,0.00039474,4.8216e-05,1.0529e+08,69212,0,1.5639e+08,5093.2,12613,567.13,0,567.13,0,0.00030353,2.6618e-07,0,0.00015158,5.6908e-05,1.2038e+08,89961,0,5.9755e+07,7944.1,567.13,1
1960,1.87,12124,1,12124,1,6.2213e-06,-1.8388e-08,0,0.00026426,-1.1422e-06,2965.8,-6174.1,0,1.0496e+08,-565.84,12123,13104,1,13104,1,0.00051722,7.6096e-07,0,0.00051722,9.4623e-05,1.9824e+08,2.569e+05,0,2.0525e+08,24486,13103,12124,1,12124,1,6.2049e-06,-2.8615e-08,0,0.00026446,-1.1402e-06,2.4339e+06,-9495.8,0,1.0566e+08,-227.93,12123,11097,1,11097,1,-0.00050463,-4.7697e-07,0,1.265e-05,-9.6918e-05,-2.0525e+08,-1.6088e+05,0,5.149e+06,-21764,11096,11634,1,11634,1,-0.0002582,-1.9018e-07,0,0.00013222,-5.0721e-05,-1.0502e+08,-63970,0,5.3047e+07,-6354.6,11633,12614,1,12614,1,0.00027066,9.5882e-08,0,0.00039663,4.844e-05,1.0579e+08,32443,0,1.5711e+08,4108.9,12613,567.13,0,567.13,0,0.00030501,2.4995e-07,0,0.00015232,5.7184e-05,1.2093e+08,84319,0,6.0023e+07,8223,567.13,1
1960,1.88,12124,1,12124,1,6.3228e-06,9.5942e-09,0,0.00026594,-1.1644e-06,1567.5,3248.1,0,1.056e+08,-2088.8,12123,13104,1,13104,1,0.00052041,7.6797e-07,0,0.00052041,9.5193e-05,1.9933e+08,2.6012e+05,0,2.0647e+08,15266,13103,12124,1,12124,1,6.3136e-06,-5.2024e-09,0,0.00026609,-1.169e-06,2.4775e+06,-1767.7,0,1.0629e+08,-1158.1,12123,11097,1,11097,1,-0.00050763,-5.2395e-07,0,1.2655e-05,-9.7517e-05,-2.0647e+08,-1.7764e+05,0,5.1497e+06,-24228,11096,11634,1,11634,1,-0.00025973,-1.7352e-07,0,0.00013305,-5.1052e-05,-1.0564e+08,-57460,0,5.3374e+07,-7104.6,11633,12614,1,12614,1,0.00027241,1.6208e-07,0,0.00039908,4.8722e-05,1.0643e+08,53730,0,1.5803e+08,4166.6,12613,567.13,0,567.13,0,0.00030695,2.6748e-07,0,0.00015329,5.7548e-05,1.2167e+08,90352,0,6.0386e+07,8310.8,567.13,1
1960,1.89,12124,1,12124,1,6.4351e-06,-4.0197e-08,0,0.00026741,-1.178e-06,846.69,-13529,0,1.0615e+08,820.54,12123,13104,1,13104,1,0.00052358,6.423e-07,0,0.00052358,9.573e-05,2.0039e+08,2.171e+05,0,2.0765e+08,21746,13103,12124,1,12124,1,6.4191e-06,-3.789e-08,0,0.00026764,-1.1799e-06,2.5177e+06,-12737,0,1.0688e+08,933.96,12123,11097,1,11097,1,-0.00051053,-4.6018e-07,0,1.2669e-05,-9.8107e-05,-2.0765e+08,-1.5516e+05,0,5.1561e+06,-19525,11096,11634,1,11634,1,-0.00026115,-1.9595e-07,0,0.00013379,-5.1348e-05,-1.0622e+08,-65954,0,5.3661e+07,-3844.9,11633,12614,1,12614,1,0.00027405,6.1766e-08,0,0.00040138,4.8996e-05,1.0701e+08,20753,0,1.589e+08,4916.1,12613,567.13,0,567.13,0,0.00030865,2.2198e-07,0,0.00015415,5.7864e-05,1.223e+08,74870,0,6.0697e+07,7030.2,567.13,1
1960,1.9,12124,1,12124,1,6.5422e-06,2.0622e-08,0,0.00026915,-1.2034e-06,-3036.5,6956.3,0,1.0681e+08,-1629.2,12123,13104,1,13104,1,0.00052662,6.7482e-07,0,0.00052662,9.6304e-05,2.0148e+08,2.2882e+05,0,2.0889e+08,12555,13103,12124,1,12124,1,6.5386e-06,-1.0321e-10,0,0.00026927,-1.2073e-06,2.5655e+06,-35.516,0,1.0752e+08,-823.44,12123,11097,1,11097,1,-0.00051356,-4.3156e-07,0,1.266e-05,-9.8678e-05,-2.0889e+08,-1.4643e+05,0,5.1516e+06,-21158,11096,11634,1,11634,1,-0.00026273,-1.3776e-07,0,0.00013466,-5.1689e-05,-1.0686e+08,-45181,0,5.4002e+07,-5657.8,11633,12614,1,12614,1,0.00027581,1.5091e-07,0,0.00040391,4.9279e-05,1.0766e+08,50714,0,1.5983e+08,3613,12613,567.13,0,567.13,0,0.00031065,2.3237e-07,0,0.00015515,5.824e-05,1.2306e+08,78482,0,6.1071e+07,7037,567.13,1
1960,1.91,12124,1,12124,1,6.6513e-06,2.0661e-08,0,0.00027053,-1.2187e-06,-6523.1,6973,0,1.0732e+08,331.21,12123,13104,1,13104,1,0.0005294,6.8884e-07,0,0.0005294,9.6766e-05,2.0236e+08,2.307e+05,0,2.0988e+08,24042,13103,12124,1,12124,1,6.6407e-06,-1.0055e-08,0,0.00027068,-1.2188e-06,2.6042e+06,-3358.2,0,1.0806e+08,400.99,12123,11097,1,11097,1,-0.000516,-3.6495e-07,0,1.2667e-05,-9.9204e-05,-2.0988e+08,-1.23e+05,0,5.1565e+06,-19542,11096,11634,1,11634,1,-0.000264,-1.0519e-07,0,0.00013534,-5.197e-05,-1.0738e+08,-35741,0,5.4263e+07,-4473.4,11633,12614,1,12614,1,0.00027732,1.076e-07,0,0.00040598,4.9528e-05,1.082e+08,35957,0,1.6062e+08,4330.9,12613,567.13,0,567.13,0,0.00031225,2.0101e-07,0,0.00015595,5.8538e-05,1.2365e+08,67757,0,6.1359e+07,7456.4,567.13,1
1960,1.92,12124,1,12124,1,6.7805e-06,-9.0628e-09,0,0.00027203,-1.2478e-06,1216.2,-3025.9,0,1.0789e+08,-1900.5,12123,13104,1,13104,1,0.00053247,6.3461e-07,0,0.00053247,9.7271e-05,2.0337e+08,2.1725e+05,0,2.11e+08,13715,13103,12124,1,12124,1,6.7692e-06,-1.8613e-08,0,0.00027217,-1.2566e-06,2.6544e+06,-6356.9,0,1.0862e+08,-901.28,12123,11097,1,11097,1,-0.00051875,-4.4648e-07,0,1.264e-05,-9.9772e-05,-2.11e+08,-1.5131e+05,0,5.1439e+06,-22014,11096,11634,1,11634,1,-0.00026533,-1.646e-07,0,0.00013606,-5.2274e-05,-1.0792e+08,-54589,0,5.4543e+07,-5806.1,11633,12614,1,12614,1,0.00027894,1.0887e-07,0,0.00040818,4.9773e-05,1.0877e+08,36238,0,1.6144e+08,3215.2,12613,567.13,0,567.13,0,0.00031398,2.2657e-07,0,0.00015682,5.8862e-05,1.243e+08,76493,0,6.1679e+07,6936.2,567.13,1
1960,1.93,12124,1,12124,1,6.8708e-06,6.2796e-09,0,0.0002731,-1.2588e-06,-3885.2,2152.2,0,1.0828e+08,423.19,12123,13104,1,13104,1,0.00053462,7.9351e-07,0,0.00053462,9.7678e-05,2.0408e+08,2.691e+05,0,2.1186e+08,26138,13103,12124,1,12124,1,6.8594e-06,-1.7538e-08,0,0.00027326,-1.2544e-06,2.6909e+06,-5812.2,0,1.0905e+08,-102.22,12123,11097,1,11097,1,-0.00052088,-4.6169e-07,0,1.2621e-05,-0.00010019,-2.1186e+08,-1.5719e+05,0,5.1365e+06,-17675,11096,11634,1,11634,1,-0.00026637,-1.5622e-07,0,0.00013664,-5.2504e-05,-1.0834e+08,-52855,0,5.4764e+07,-4614,11633,12614,1,12614,1,0.00028012,1.195e-07,0,0.00040985,4.9973e-05,1.0919e+08,40061,0,1.6204e+08,4236,12613,567.13,0,567.13,0,0.00031522,2.4814e-07,0,0.00015744,5.9096e-05,1.2475e+08,83776,0,6.19e+07,7875.3,567.13,1
1960,1.94,12124,1,12124,1,6.9807e-06,6.2769e-09,0,0.00027462,-1.2855e-06,511.13,2134,0,1.0886e+08,-2306.1,12123,13104,1,13104,1,0.00053774,7.4321e-07,0,0.00053774,9.8199e-05,2.0515e+08,2.5442e+05,0,2.13e+08,15361,13103,12124,1,12124,1,6.9693e-06,-1.374e-08,0,0.00027477,-1.2955e-06,2.7315e+06,-4570.2,0,1.0963e+08,-1110.2,12123,11097,1,11097,1,-0.00052368,-4.8078e-07,0,1.2624e-05,-0.00010077,-2.13e+08,-1.629e+05,0,5.1374e+06,-25160,11096,11634,1,11634,1,-0.00026775,-1.6832e-07,0,0.00013737,-5.2806e-05,-1.089e+08,-55719,0,5.5049e+07,-6722.4,11633,12614,1,12614,1,0.00028174,1.4144e-07,0,0.00041209,5.0225e-05,1.0978e+08,47407,0,1.6289e+08,3393.3,12613,567.13,0,567.13,0,0.00031697,2.5775e-07,0,0.00015832,5.9423e-05,1.2541e+08,87006,0,6.2225e+07,7948.7,567.13,1
1960,1.95,12124,1,12124,1,7.0921e-06,7.3882e-08,0,0.00027598,-1.3028e-06,-65.372,24861,0,1.0937e+08,-998.95,12123,13104,1,13104,1,0.00054075,6.5576e-07,0,0.00054075,9.8742e-05,2.0615e+08,2.2182e+05,0,2.1417e+08,15930,13103,12124,1,12124,1,7.0955e-06,3.866e-08,0,0.00027621,-1.3057e-06,2.7823e+06,12771,0,1.1018e+08,-1084.8,12123,11097,1,11097,1,-0.00052654,-3.8221e-07,0,1.2583e-05,-0.00010133,-2.1417e+08,-1.294e+05,0,5.1213e+06,-14186,11096,11634,1,11634,1,-0.0002691,-5.0207e-08,0,0.0001381,-5.3079e-05,-1.0945e+08,-16474,0,5.5335e+07,-5634.4,11633,12614,1,12614,1,0.00028329,1.9938e-07,0,0.0004143,5.0482e-05,1.1033e+08,67099,0,1.637e+08,3647.4,12613,567.13,0,567.13,0,0.00031854,1.9865e-07,0,0.00015911,5.9716e-05,1.26e+08,67033,0,6.2513e+07,5726,567.13,1
1960,1.96,12124,1,12124,1,7.1992e-06,5.1179e-08,0,0.00027724,-1.3189e-06,690.44,17236,0,1.0984e+08,451.13,12123,13104,1,13104,1,0.00054337,8.0848e-07,0,0.00054337,9.9172e-05,2.07e+08,2.7676e+05,0,2.1511e+08,20870,13103,12124,1,12124,1,7.1941e-06,1.2508e-08,0,0.00027747,-1.3244e-06,2.8201e+06,4156.6,0,1.1066e+08,526.01,12123,11097,1,11097,1,-0.00052885,-4.6261e-07,0,1.2592e-05,-0.00010182,-2.1511e+08,-1.5663e+05,0,5.1241e+06,-16600,11096,11634,1,11634,1,-0.00027024,-1.1004e-07,0,0.00013874,-5.3337e-05,-1.0992e+08,-37020,0,5.5579e+07,-4645.9,11633,12614,1,12614,1,0.00028467,1.9041e-07,0,0.00041617,5.07e-05,1.1081e+08,64001,0,1.6439e+08,5630.8,12613,567.13,0,567.13,0,0.00032,2.5645e-07,0,0.00015984,5.9991e-05,1.2654e+08,86515,0,6.2776e+07,7391.9,567.13,1
1960,1.97,12124,1,12124,1,7.2937e-06,3.0278e-09,0,0.00027909,-1.3379e-06,-8578.1,1016,0,1.1054e+08,-303.3,12123,13104,1,13104,1,0.00054656,5.9437e-07,0,0.00054656,9.9724e-05,2.0807e+08,2.0148e+05,0,2.1631e+08,17709,13103,12124,1,12124,1,7.2781e-06,-5.0306e-09,0,0.00027922,-1.3436e-06,2.8526e+06,-1665.1,0,1.1132e+08,-46.135,12123,11097,1,11097,1,-0.00053182,-3.8235e-07,0,1.263e-05,-0.00010241,-2.1631e+08,-1.2965e+05,0,5.1408e+06,-13111,11096,11634,1,11634,1,-0.00027188,-1.2877e-07,0,0.0001396,-5.3685e-05,-1.1058e+08,-43569,0,5.5915e+07,-4123.8,11633,12614,1,12614,1,0.00028652,1.1041e-07,0,0.00041877,5.1008e-05,1.1147e+08,36852,0,1.6538e+08,3305.4,12613,567.13,0,567.13,0,0.00032213,1.9536e-07,0,0.00016091,6.0387e-05,1.2735e+08,65913,0,6.3177e+07,5367.4,567.13,1
1960,1.98,12124,1,12124,1,7.4427e-06,3.413e-08,0,0.00028014,-1.3637e-06,1669.6,11479,0,1.1092e+08,389.2,12123,13104,1,13104,1,0.00054903,8.1861e-07,0,0.00054903,0.00010015,2.0887e+08,2.8023e+05,0,2.1722e+08,21252,13103,12124,1,12124,1,7.4398e-06,1.513e-09,0,0.00028032,-1.3697e-06,2.9152e+06,487.72,0,1.1175e+08,631.2,12123,11097,1,11097,1,-0.00053405,-4.9834e-07,0,1.2548e-05,-0.00010288,-2.1722e+08,-1.6861e+05,0,5.1066e+06,-17997,11096,11634,1,11634,1,-0.00027285,-1.3748e-07,0,0.00014017,-5.3917e-05,-1.1098e+08,-45973,0,5.6131e+07,-4795.5,11633,12614,1,12614,1,0.00028776,1.772e-07,0,0.00042045,5.1192e-05,1.1191e+08,59268,0,1.6598e+08,5955.1,12613,567.13,0,567.13,0,0.00032334,2.6803e-07,0,0.00016151,6.0616e-05,1.2777e+08,90384,0,6.3382e+07,7764.6,567.13,1
1960,1.99,12124,1,12124,1,7.5444e-06,7.3486e-09,0,0.00028179,-1.3869e-06,-578.57,2483.8,0,1.1155e+08,-1534.1,12123,13104,1,13104,1,0.00055198,6.3058e-07,0,0.00055198,0.00010068,2.0984e+08,2.1509e+05,0,2.1837e+08,12620,13103,12124,1,12124,1,7.5395e-06,-3.4306e-09,0,0.00028192,-1.3973e-06,2.9541e+06,-1124.7,0,1.1236e+08,-1340.8,12123,11097,1,11097,1,-0.00053688,-4.3142e-07,0,1.2559e-05,-0.00010342,-2.1837e+08,-1.4709e+05,0,5.1127e+06,-15001,11096,11634,1,11634,1,-0.00027435,-1.2634e-07,0,0.00014095,-5.4236e-05,-1.1159e+08,-42742,0,5.6436e+07,-5204.3,11633,12614,1,12614,1,0.00028945,1.2214e-07,0,0.00042284,5.1463e-05,1.1252e+08,40677,0,1.6687e+08,2812.9,12613,567.13,0,567.13,0,0.00032525,2.1167e-07,0,0.00016248,6.0972e-05,1.285e+08,71430,0,6.3742e+07,5519.1,567.13,1
1960,2,12124,1,12124,1,7.6709e-06,1.877e-08,0,0.00028318,-1.4055e-06,-271.23,6318.5,0,1.1206e+08,394.58,12123,13104,1,13104,1,0.00055501,7.9694e-07,0,0.00055501,0.00010118,2.1085e+08,2.7281e+05,0,2.1947e+08,22432,13103,12124,1,12124,1,7.6677e-06,-6.9997e-09,0,0.00028334,-1.4107e-06,3.0041e+06,-2279.5,0,1.129e+08,674.58,12123,11097,1,11097,1,-0.00053959,-4.7578e-07,0,1.2532e-05,-0.00010399,-2.1947e+08,-1.6114e+05,0,5.1009e+06,-17826,11096,11634,1,11634,1,-0.00027565,-1.5235e-07,0,0.00014168,-5.4525e-05,-1.1212e+08,-50712,0,5.6717e+07,-4519.7,11633,12614,1,12614,1,0.00029101,1.4962e-07,0,0.00042498,5.1718e-05,1.1307e+08,50938,0,1.6766e+08,5211.8,12613,567.13,0,567.13,0,0.00032685,2.5953e-07,0,0.00016327,6.1274e-05,1.2909e+08,87496,0,6.4028e+07,7652.8,567.13,1
1960,2.01,12124,1,12124,1,7.797e-06,4.884e-09,0,0.00028486,-1.4334e-06,-50.902,1655.8,0,1.1269e+08,-1592.5,12123,13104,1,13104,1,0.00055823,6.4518e-07,0,0.00055823,0.00010174,2.1188e+08,2.2005e+05,0,2.2068e+08,12785,13103,12124,1,12124,1,7.7858e-06,-5.6873e-09,0,0.000285,-1.4435e-06,3.0498e+06,-1838.6,0,1.1353e+08,-1035,12123,11097,1,11097,1,-0.00054255,-4.4003e-07,0,1.2538e-05,-0.00010459,-2.2068e+08,-1.4898e+05,0,5.1043e+06,-16469,11096,11634,1,11634,1,-0.00027716,-1.3599e-07,0,0.00014248,-5.4858e-05,-1.1273e+08,-45509,0,5.7028e+07,-5619.6,11633,12614,1,12614,1,0.00029279,1.2045e-07,0,0.00042744,5.1991e-05,1.1369e+08,40520,0,1.6857e+08,2994.9,12613,567.13,0,567.13,0,0.0003288,2.1678e-07,0,0.00016425,6.1636e-05,1.2982e+08,73113,0,6.4388e+07,5828.1,567.13,1
1960,2.02,12124,1,12124,1,7.9316e-06,4.7892e-09,0,0.00028612,-1.4552e-06,2710.8,1614.2,0,1.1315e+08,-395.62,12123,13104,1,13104,1,0.00056084,6.9922e-07,0,0.00056084,0.00010216,2.127e+08,2.3935e+05,0,2.216e+08,20411,13103,12124,1,12124,1,7.9234e-06,-8.5594e-09,0,0.00028628,-1.4621e-06,3.1028e+06,-2931.7,0,1.14e+08,-399.7,12123,11097,1,11097,1,-0.00054482,-4.37e-07,0,1.2492e-05,-0.00010508,-2.216e+08,-1.4807e+05,0,5.0852e+06,-16745,11096,11634,1,11634,1,-0.00027828,-1.541e-07,0,0.00014311,-5.512e-05,-1.1319e+08,-51769,0,5.7268e+07,-4496,11633,12614,1,12614,1,0.0002942,1.2439e-07,0,0.00042933,5.221e-05,1.1417e+08,41163,0,1.6926e+08,3804,12613,567.13,0,567.13,0,0.00033025,2.3163e-07,0,0.00016498,6.1909e-05,1.3034e+08,78083,0,6.4644e+07,6782.7,567.13,1
1960,2.03,12124,1,12124,1,8.0454e-06,1.454e-08,0,0.00028773,-1.4785e-06,363.01,4897.4,0,1.1376e+08,-1410.8,12123,13104,1,13104,1,0.00056392,6.3203e-07,0,0.00056392,0.00010274,2.1377e+08,2.1555e+05,0,2.2284e+08,12384,13103,12124,1,12124,1,8.0408e-06,-1.3839e-09,0,0.00028785,-1.489e-06,3.1489e+06,-460.92,0,1.1463e+08,-1060.2,12123,11097,1,11097,1,-0.00054787,-3.9344e-07,0,1.2478e-05,-0.00010566,-2.2284e+08,-1.3371e+05,0,5.0807e+06,-14942,11096,11634,1,11634,1,-0.0002798,-1.1683e-07,0,0.00014393,-5.5438e-05,-1.138e+08,-38708,0,5.7586e+07,-5038.5,11633,12614,1,12614,1,0.00029589,1.2428e-07,0,0.00043177,5.2485e-05,1.1479e+08,41359,0,1.7017e+08,2744.4,12613,567.13,0,567.13,0,0.00033211,2.0454e-07,0,0.00016592,6.2256e-05,1.3104e+08,68964,0,6.4989e+07,5405.7,567.13,1
1960,2.04,12124,1,12124,1,8.1814e-06,-2.154e-08,0,0.00028906,-1.4997e-06,3516.8,-7231,0,1.1425e+08,139.59,12123,13104,1,13104,1,0.00056694,6.4334e-07,0,0.00056694,0.00010321,2.147e+08,2.2022e+05,0,2.2387e+08,19747,13103,12124,1,12124,1,8.1725e-06,-1.9584e-08,0,0.00028926,-1.5037e-06,3.1991e+06,-6581.7,0,1.1514e+08,15.691,12123,11097,1,11097,1,-0.0005504,-4.8414e-07,0,1.2456e-05,-0.00010622,-2.2387e+08,-1.6372e+05,0,5.0706e+06,-15599,11096,11634,1,11634,1,-0.00028101,-1.8718e-07,0,0.00014459,-5.5725e-05,-1.143e+08,-62727,0,5.7837e+07,-3924.7,11633,12614,1,12614,1,0.00029743,1.005e-07,0,0.0004338,5.272e-05,1.1531e+08,33467,0,1.7092e+08,4126.6,12613,567.13,0,567.13,0,0.00033363,2.3206e-07,0,0.00016668,6.2544e-05,1.316e+08,78193,0,6.5259e+07,6627.5,567.13,1
1960,2.05,12124,1,12124,1,8.3058e-06,7.5581e-09,0,0.00029078,-1.5258e-06,1848.2,2551.8,0,1.1489e+08,-1234.6,12123,13104,1,13104,1,0.00057003,5.3015e-07,0,0.00057003,0.00010374,2.157e+08,1.8079e+05,0,2.2501e+08,11096,13103,12124,1,12124,1,8.3042e-06,-2.3391e-09,0,0.00029093,-1.5333e-06,3.2514e+06,-776.53,0,1.1577e+08,-814.6,12123,11097,1,11097,1,-0.00055321,-3.5858e-07,0,1.2423e-05,-0.0001068,-2.2501e+08,-1.2222e+05,0,5.0585e+06,-13552,11096,11634,1,11634,1,-0.00028254,-1.0078e-07,0,0.00014543,-5.606e-05,-1.1492e+08,-33673,0,5.8164e+07,-4611.7,11633,12614,1,12614,1,0.00029922,9.1476e-08,0,0.00043627,5.3e-05,1.1595e+08,30579,0,1.7184e+08,2426.2,12613,567.13,0,567.13,0,0.00033562,1.6959e-07,0,0.00016768,6.2913e-05,1.3234e+08,57153,0,6.5627e+07,4852.7,567.13,1
1960,2.06,12124,1,12124,1,8.4464e-06,3.939e-08,0,0.00029174,-1.5487e-06,7631.8,13227,0,1.1523e+08,3.1623,12123,13104,1,13104,1,0.00057233,7.6799e-07,0,0.00057233,0.00010414,2.1646e+08,2.6288e+05,0,2.2588e+08,21304,13103,12124,1,12124,1,8.4425e-06,4.1213e-09,0,0.00029191,-1.5544e-06,3.3046e+06,1408.3,0,1.1616e+08,-179.94,12123,11097,1,11097,1,-0.00055534,-4.6514e-07,0,1.237e-05,-0.00010723,-2.2588e+08,-1.5725e+05,0,5.0361e+06,-16814,11096,11634,1,11634,1,-0.00028345,-1.2699e-07,0,0.00014596,-5.6268e-05,-1.1529e+08,-41579,0,5.8364e+07,-4715.7,11633,12614,1,12614,1,0.00030035,1.7642e-07,0,0.00043783,5.3181e-05,1.1634e+08,58933,0,1.7239e+08,4864.3,12613,567.13,0,567.13,0,0.00033673,2.4933e-07,0,0.00016824,6.3124e-05,1.3273e+08,83976,0,6.5813e+07,7203,567.13,1
1960,2.07,12124,1,12124,1,8.5334e-06,-2.1354e-10,0,0.00029318,-1.5672e-06,212.16,-11.517,0,1.1578e+08,-1124.2,12123,13104,1,13104,1,0.0005752,6.9288e-07,0,0.0005752,0.00010462,2.1737e+08,2.3617e+05,0,2.2693e+08,14532,13103,12124,1,12124,1,8.5193e-06,-6.4887e-09,0,0.00029335,-1.574e-06,3.3333e+06,-2099.5,0,1.1669e+08,-711.21,12123,11097,1,11097,1,-0.00055793,-4.9559e-07,0,1.24e-05,-0.00010777,-2.2693e+08,-1.6649e+05,0,5.051e+06,-17185,11096,11634,1,11634,1,-0.00028477,-1.5415e-07,0,0.00014666,-5.6557e-05,-1.1582e+08,-52011,0,5.8637e+07,-5997.9,11633,12614,1,12614,1,0.00030188,1.2255e-07,0,0.00043995,5.3423e-05,1.1687e+08,41256,0,1.7317e+08,4415.6,12613,567.13,0,567.13,0,0.0003384,2.3399e-07,0,0.00016907,6.3435e-05,1.3335e+08,78760,0,6.6121e+07,6677.6,567.13,1
1960,2.08,12124,1,12124,1,8.6747e-06,1.4477e-08,0,0.0002946,-1.5944e-06,5684.1,4858.2,0,1.163e+08,-1633.9,12123,13104,1,13104,1,0.00057788,6.9415e-07,0,0.00057788,0.00010508,2.1825e+08,2.376e+05,0,2.2794e+08,16391,13103,12124,1,12124,1,8.6661e-06,-7.8451e-10,0,0.00029475,-1.6008e-06,3.3909e+06,-248.77,0,1.1723e+08,-1048.1,12123,11097,1,11097,1,-0.00056039,-4.8235e-07,0,1.235e-05,-0.00010827,-2.2794e+08,-1.6319e+05,0,5.0285e+06,-21562,11096,11634,1,11634,1,-0.00028603,-1.3335e-07,0,0.00014735,-5.6852e-05,-1.1634e+08,-44307,0,5.8903e+07,-5794.5,11633,12614,1,12614,1,0.00030341,1.3475e-07,0,0.00044203,5.3659e-05,1.1741e+08,45179,0,1.7394e+08,4004.8,12613,567.13,0,567.13,0,0.00034003,2.3216e-07,0,0.00016989,6.3741e-05,1.3395e+08,78191,0,6.6416e+07,7029.6,567.13,1
1960,2.09,12124,1,12124,1,8.7779e-06,1.7681e-08,0,0.00029586,-1.6119e-06,-2342.3,5990,0,1.1676e+08,-1069.3,12123,13104,1,13104,1,0.00058058,7.792e-07,0,0.00058058,0.00010556,2.1907e+08,2.6532e+05,0,2.2896e+08,15515,13103,12124,1,12124,1,8.7611e-06,1.9532e-09,0,0.00029602,-1.6195e-06,3.4281e+06,646.82,0,1.177e+08,-772.86,12123,11097,1,11097,1,-0.00056292,-5.2408e-07,0,1.2347e-05,-0.00010877,-2.2896e+08,-1.7598e+05,0,5.0289e+06,-18236,11096,11634,1,11634,1,-0.00028719,-1.4706e-07,0,0.00014799,-5.7102e-05,-1.1681e+08,-49300,0,5.9148e+07,-6418.5,11633,12614,1,12614,1,0.00030479,1.5835e-07,0,0.00044397,5.3877e-05,1.1788e+08,52825,0,1.7463e+08,4902.1,12613,567.13,0,567.13,0,0.00034149,2.5729e-07,0,0.00017062,6.4014e-05,1.3449e+08,86578,0,6.6675e+07,7292.3,567.13,1
1960,2.1,12124,1,12124,1,8.9153e-06,2.9407e-08,0,0.00029732,-1.6385e-06,3427.7,9872.4,0,1.1731e+08,-1663.4,12123,13104,1,13104,1,0.0005835,7.2264e-07,0,0.0005835,0.00010606,2.2007e+08,2.4735e+05,0,2.3005e+08,17103,13103,12124,1,12124,1,8.9126e-06,2.7505e-09,0,0.00029749,-1.6456e-06,3.4864e+06,923.08,0,1.1828e+08,-1100.2,12123,11097,1,11097,1,-0.00056559,-4.8199e-07,0,1.2292e-05,-0.00010933,-2.3005e+08,-1.6311e+05,0,5.0053e+06,-21564,11096,11634,1,11634,1,-0.00028855,-1.1788e-07,0,0.00014874,-5.7412e-05,-1.1737e+08,-39804,0,5.9436e+07,-6125.7,11633,12614,1,12614,1,0.00030639,1.5601e-07,0,0.00044619,5.4132e-05,1.1846e+08,52559,0,1.7546e+08,4095.8,12613,567.13,0,567.13,0,0.00034317,2.3693e-07,0,0.00017147,6.4331e-05,1.3511e+08,79780,0,6.6982e+07,7230.7,567.13,1
1960,2.11,12124,1,12124,1,9.0321e-06,-4.6879e-09,0,0.00029873,-1.6583e-06,-2682.9,-1510.5,0,1.1783e+08,-983.69,12123,13104,1,13104,1,0.00058645,7.107e-07,0,0.00058645,0.00010654,2.2098e+08,2.4226e+05,0,2.3109e+08,15220,13103,12124,1,12124,1,9.0139e-06,-8.1413e-09,0,0.00029892,-1.6671e-06,3.5259e+06,-2756.6,0,1.188e+08,-666.16,12123,11097,1,11097,1,-0.00056816,-5.2132e-07,0,1.2299e-05,-0.00010987,-2.3109e+08,-1.7498e+05,0,5.0103e+06,-17174,11096,11634,1,11634,1,-0.00028982,-1.6422e-07,0,0.00014943,-5.769e-05,-1.1788e+08,-55674,0,5.9701e+07,-5904.6,11633,12614,1,12614,1,0.00030794,1.2472e-07,0,0.00044828,5.4372e-05,1.1898e+08,41440,0,1.7622e+08,4608.6,12613,567.13,0,567.13,0,0.0003448,2.4233e-07,0,0.00017229,6.4634e-05,1.3571e+08,81520,0,6.7274e+07,6825.3,567.13,1
1960,2.12,12124,1,12124,1,9.1756e-06,8.451e-09,0,0.00030017,-1.6876e-06,1554.7,2840,0,1.1836e+08,-2206.8,12123,13104,1,13104,1,0.00058917,7.2556e-07,0,0.00058917,0.00010702,2.2187e+08,2.4834e+05,0,2.3213e+08,18342,13103,12124,1,12124,1,9.1714e-06,-9.691e-09,0,0.00030034,-1.6942e-06,3.5859e+06,-3227.6,0,1.1934e+08,-1705.1,12123,11097,1,11097,1,-0.0005707,-5.0316e-07,0,1.2239e-05,-0.00011038,-2.3213e+08,-1.7009e+05,0,4.9843e+06,-23233,11096,11634,1,11634,1,-0.00029112,-1.4506e-07,0,0.00015015,-5.799e-05,-1.1841e+08,-48592,0,5.9977e+07,-6474.9,11633,12614,1,12614,1,0.00030949,1.3231e-07,0,0.00045042,5.4613e-05,1.1953e+08,43335,0,1.77e+08,3475,12613,567.13,0,567.13,0,0.00034646,2.4185e-07,0,0.00017313,6.4947e-05,1.3632e+08,81401,0,6.7573e+07,7364.2,567.13,1
1960,2.13,12124,1,12124,1,9.2959e-06,4.5526e-09,0,0.00030155,-1.7058e-06,-3388.1,1574,0,1.1887e+08,-626.35,12123,13104,1,13104,1,0.00059229,8.5806e-07,0,0.00059229,0.00010753,2.2283e+08,2.9072e+05,0,2.3325e+08,16831,13103,12124,1,12124,1,9.2744e-06,-1.514e-08,0,0.00030175,-1.7174e-06,3.6269e+06,-4867.7,0,1.1986e+08,157.11,12123,11097,1,11097,1,-0.00057346,-5.7703e-07,0,1.2236e-05,-0.00011097,-2.3325e+08,-1.936e+05,0,4.9845e+06,-23325,11096,11634,1,11634,1,-0.00029238,-2.0541e-07,0,0.00015084,-5.8269e-05,-1.1892e+08,-67647,0,6.0241e+07,-6125.3,11633,12614,1,12614,1,0.00031103,1.6648e-07,0,0.00045252,5.4854e-05,1.2005e+08,55628,0,1.7777e+08,6275.3,12613,567.13,0,567.13,0,0.00034805,2.9942e-07,0,0.00017392,6.5246e-05,1.369e+08,1.0065e+05,0,6.7855e+07,8319,567.13,1
1960,2.14,12124,1,12124,1,9.426e-06,3.6415e-08,0,0.00030348,-1.7306e-06,-10797,12203,0,1.1959e+08,-1075.3,12123,13104,1,13104,1,0.00059586,7.2463e-07,0,0.00059586,0.0001082,2.2406e+08,2.4385e+05,0,2.3468e+08,18106,13103,12124,1,12124,1,9.4292e-06,6.6704e-09,0,0.00030365,-1.7323e-06,3.6869e+06,2178.4,0,1.2061e+08,-527.05,12123,11097,1,11097,1,-0.00057697,-4.2439e-07,0,1.2202e-05,-0.00011164,-2.3468e+08,-1.4373e+05,0,4.9702e+06,-18868,11096,11634,1,11634,1,-0.00029421,-1.0726e-07,0,0.00015183,-5.8654e-05,-1.1966e+08,-36004,0,6.0625e+07,-5163.6,11633,12614,1,12614,1,0.00031306,1.5942e-07,0,0.00045545,5.5197e-05,1.2079e+08,52977,0,1.7885e+08,4500.9,12613,567.13,0,567.13,0,0.00035028,2.2496e-07,0,0.00017504,6.5662e-05,1.3773e+08,75678,0,6.8266e+07,6949.7,567.13,1
1960,2.15,12124,1,12124,1,9.611e-06,3.7758e-08,0,0.00030482,-1.7624e-06,-941.51,12715,0,1.2007e+08,-150.33,12123,13104,1,13104,1,0.00059869,7.0674e-07,0,0.00059869,0.00010867,2.249e+08,2.405e+05,0,2.3569e+08,13346,13103,12124,1,12124,1,9.6044e-06,7.0526e-09,0,0.000305,-1.7674e-06,3.7551e+06,2355.3,0,1.2111e+08,-12.869,12123,11097,1,11097,1,-0.00057947,-4.3298e-07,0,1.2145e-05,-0.00011216,-2.3569e+08,-1.452e+05,0,4.947e+06,-15159,11096,11634,1,11634,1,-0.00029536,-1.0331e-07,0,0.00015249,-5.8935e-05,-1.2013e+08,-35076,0,6.0874e+07,-5096.1,11633,12614,1,12614,1,0.0003146,1.5992e-07,0,0.00045747,5.5405e-05,1.2131e+08,53875,0,1.7956e+08,5057.4,12613,567.13,0,567.13,0,0.00035184,2.2486e-07,0,0.00017583,6.5952e-05,1.3828e+08,75589,0,6.8536e+07,6594.1,567.13,1
1960,2.16,12124,1,12124,1,9.7506e-06,2.0104e-08,0,0.00030641,-1.7901e-06,-2047.3,6726.7,0,1.2066e+08,-1057.5,12123,13104,1,13104,1,0.00060175,7.2066e-07,0,0.00060175,0.00010917,2.2585e+08,2.4239e+05,0,2.3678e+08,17503,13103,12124,1,12124,1,9.7464e-06,3.2113e-09,0,0.00030656,-1.7921e-06,3.8098e+06,1049.2,0,1.2169e+08,-423.97,12123,11097,1,11097,1,-0.00058214,-4.6255e-07,0,1.2104e-05,-0.00011274,-2.3678e+08,-1.5608e+05,0,4.9309e+06,-18896,11096,11634,1,11634,1,-0.00029678,-1.3044e-07,0,0.00015328,-5.9256e-05,-1.2071e+08,-43136,0,6.1175e+07,-5233.5,11633,12614,1,12614,1,0.00031631,1.4422e-07,0,0.00045978,5.5679e-05,1.2189e+08,48673,0,1.8041e+08,4361.2,12613,567.13,0,567.13,0,0.00035367,2.3406e-07,0,0.00017675,6.6296e-05,1.3896e+08,78688,0,6.8866e+07,7045.3,567.13,1
1960,2.17,12124,1,12124,1,9.9042e-06,6.3033e-09,0,0.00030784,-1.8185e-06,-70.619,2166.3,0,1.2118e+08,-1158.8,12123,13104,1,13104,1,0.00060473,6.4704e-07,0,0.00060473,0.00010965,2.2676e+08,2.2028e+05,0,2.3783e+08,12389,13103,12124,1,12124,1,9.8922e-06,-3.5242e-09,0,0.000308,-1.8263e-06,3.8661e+06,-1127.1,0,1.2222e+08,-899.87,12123,11097,1,11097,1,-0.00058471,-4.5238e-07,0,1.2074e-05,-0.00011329,-2.3783e+08,-1.5163e+05,0,4.9189e+06,-16115,11096,11634,1,11634,1,-0.00029802,-1.3393e-07,0,0.00015397,-5.955e-05,-1.2122e+08,-45036,0,6.1439e+07,-5606.1,11633,12614,1,12614,1,0.00031789,1.2195e-07,0,0.0004619,5.591e-05,1.2242e+08,40683,0,1.8118e+08,3974.3,12613,567.13,0,567.13,0,0.00035531,2.1683e-07,0,0.00017758,6.6602e-05,1.3955e+08,72864,0,6.9158e+07,6140,567.13,1
1960,2.18,12124,1,12124,1,1.0037e-05,1.6004e-08,0,0.00030924,-1.8424e-06,-3412.5,5346.8,0,1.2169e+08,-939.99,12123,13104,1,13104,1,0.00060749,7.0571e-07,0,0.00060749,0.00011013,2.2763e+08,2.3727e+05,0,2.3887e+08,17410,13103,12124,1,12124,1,1.0031e-05,1.534e-09,0,0.00030939,-1.8446e-06,3.92e+06,485.8,0,1.2275e+08,-380.87,12123,11097,1,11097,1,-0.00058728,-4.7116e-07,0,1.2019e-05,-0.00011381,-2.3887e+08,-1.591e+05,0,4.8975e+06,-18642,11096,11634,1,11634,1,-0.00029931,-1.3317e-07,0,0.00015469,-5.9838e-05,-1.2174e+08,-43319,0,6.1714e+07,-5128.2,11633,12614,1,12614,1,0.00031942,1.4015e-07,0,0.00046402,5.6156e-05,1.2295e+08,47161,0,1.8194e+08,4540.7,12613,567.13,0,567.13,0,0.00035693,2.3179e-07,0,0.00017839,6.6907e-05,1.4014e+08,77896,0,6.9444e+07,6927,567.13,1
1960,2.19,12124,1,12124,1,1.0186e-05,8.8715e-09,0,0.00031069,-1.8677e-06,-471.88,3029.1,0,1.2223e+08,-104.67,12123,13104,1,13104,1,0.00061055,6.8752e-07,0,0.00061055,0.00011064,2.2858e+08,2.3388e+05,0,2.3997e+08,14305,13103,12124,1,12124,1,1.0177e-05,-5.1239e-09,0,0.00031086,-1.8739e-06,3.9762e+06,-1704.2,0,1.233e+08,329.28,12123,11097,1,11097,1,-0.00058999,-4.5828e-07,0,1.1987e-05,-0.00011438,-2.3997e+08,-1.5354e+05,0,4.8841e+06,-15386,11096,11634,1,11634,1,-0.0003006,-1.4315e-07,0,0.0001554,-6.0137e-05,-1.2227e+08,-47528,0,6.1985e+07,-5190.3,11633,12614,1,12614,1,0.00032103,1.2836e-07,0,0.00046618,5.6394e-05,1.235e+08,43342,0,1.8273e+08,5212.7,12613,567.13,0,567.13,0,0.00035861,2.2806e-07,0,0.00017923,6.722e-05,1.4075e+08,76606,0,6.9744e+07,6643.4,567.13,1
1960,2.2,12124,1,12124,1,1.0333e-05,3.3975e-08,0,0.00031204,-1.8971e-06,266.82,11353,0,1.2272e+08,-1167.9,12123,13104,1,13104,1,0.00061321,7.3456e-07,0,0.00061321,0.00011111,2.2945e+08,2.4696e+05,0,2.4099e+08,16889,13103,12124,1,12124,1,1.0329e-05,1.0087e-08,0,0.00031219,-1.8996e-06,4.0349e+06,3187.3,0,1.2382e+08,-573.46,12123,11097,1,11097,1,-0.0005925,-4.5071e-07,0,1.1923e-05,-0.00011488,-2.4099e+08,-1.5221e+05,0,4.8592e+06,-18983,11096,11634,1,11634,1,-0.00030184,-1.1605e-07,0,0.0001561,-6.0421e-05,-1.2277e+08,-38365,0,6.2251e+07,-5450.8,11633,12614,1,12614,1,0.00032252,1.6263e-07,0,0.00046826,5.6629e-05,1.2403e+08,53679,0,1.8347e+08,4348.1,12613,567.13,0,567.13,0,0.00036017,2.3427e-07,0,0.00018002,6.7513e-05,1.4132e+08,78707,0,7.0019e+07,6987.2,567.13,1
1960,2.21,12124,1,12124,1,1.0446e-05,8.4948e-09,0,0.00031357,-1.9152e-06,-11734,2901.3,0,1.2328e+08,-119.82,12123,13104,1,13104,1,0.00061632,6.5176e-07,0,0.00061632,0.00011163,2.3039e+08,2.219e+05,0,2.4212e+08,12874,13103,12124,1,12124,1,1.0434e-05,-2.5948e-09,0,0.00031373,-1.9227e-06,4.0751e+06,-836.62,0,1.2438e+08,321.71,12123,11097,1,11097,1,-0.00059527,-4.5514e-07,0,1.194e-05,-0.00011546,-2.4212e+08,-1.5242e+05,0,4.8656e+06,-15797,11096,11634,1,11634,1,-0.00030322,-1.334e-07,0,0.00015683,-6.0719e-05,-1.2333e+08,-44698,0,6.2533e+07,-4811.2,11633,12614,1,12614,1,0.00032416,1.2856e-07,0,0.0004705,5.6885e-05,1.2458e+08,42670,0,1.8429e+08,5029.8,12613,567.13,0,567.13,0,0.00036193,2.1991e-07,0,0.0001809,6.7841e-05,1.4196e+08,73846,0,7.0336e+07,6453.3,567.13,1
1960,2.22,12124,1,12124,1,1.0623e-05,1.4931e-08,0,0.00031489,-1.9505e-06,-501.52,4980.2,0,1.2376e+08,-1232.8,12123,13104,1,13104,1,0.00061894,6.6784e-07,0,0.00061894,0.00011204,2.3116e+08,2.2446e+05,0,2.4302e+08,16991,13103,12124,1,12124,1,1.0622e-05,2.0182e-09,0,0.00031505,-1.9532e-06,4.148e+06,652.86,0,1.2487e+08,-695.2,12123,11097,1,11097,1,-0.00059749,-4.4095e-07,0,1.1827e-05,-0.00011595,-2.4302e+08,-1.4882e+05,0,4.8208e+06,-18593,11096,11634,1,11634,1,-0.00030436,-1.1766e-07,0,0.0001575,-6.1004e-05,-1.2379e+08,-39103,0,6.2786e+07,-5250.5,11633,12614,1,12614,1,0.00032566,1.2335e-07,0,0.00047247,5.7102e-05,1.2508e+08,41723,0,1.8499e+08,3820.1,12613,567.13,0,567.13,0,0.00036345,2.1225e-07,0,0.00018167,6.8127e-05,1.4251e+08,71292,0,7.0602e+07,6590,567.13,1
1960,2.23,12124,1,12124,1,1.0756e-05,1.5173e-08,0,0.00031642,-1.9718e-06,-5671.2,5137.4,0,1.2432e+08,3.1671,12123,13104,1,13104,1,0.00062214,7.0003e-07,0,0.00062214,0.00011261,2.3219e+08,2.3804e+05,0,2.4425e+08,14308,13103,12124,1,12124,1,1.0747e-05,-2.0604e-09,0,0.00031658,-1.9784e-06,4.196e+06,-678.31,0,1.2545e+08,420.87,12123,11097,1,11097,1,-0.00060051,-4.5756e-07,0,1.1822e-05,-0.00011655,-2.4425e+08,-1.5316e+05,0,4.8185e+06,-15382,11096,11634,1,11634,1,-0.00030577,-1.3559e-07,0,0.00015827,-6.1313e-05,-1.2437e+08,-44945,0,6.3079e+07,-5127.7,11633,12614,1,12614,1,0.00032732,1.3613e-07,0,0.00047479,5.7361e-05,1.2566e+08,45407,0,1.8583e+08,5346.1,12613,567.13,0,567.13,0,0.00036521,2.2895e-07,0,0.00018256,6.8457e-05,1.4315e+08,76843,0,7.0918e+07,6643.1,567.13,1
1960,2.24,12124,1,12124,1,1.0935e-05,1.325e-08,0,0.00031806,-2.0083e-06,195.8,4410.1,0,1.2492e+08,-1514.9,12123,13104,1,13104,1,0.00062537,6.1952e-07,0,0.00062537,0.00011313,2.3319e+08,2.0832e+05,0,2.4538e+08,15818,13103,12124,1,12124,1,1.0932e-05,1.9649e-09,0,0.00031822,-2.0126e-06,4.2676e+06,665.92,0,1.2606e+08,-777.21,12123,11097,1,11097,1,-0.0006033,-3.9753e-07,0,1.1747e-05,-0.00011716,-2.4538e+08,-1.3426e+05,0,4.7891e+06,-18392,11096,11634,1,11634,1,-0.0003072,-1.1228e-07,0,0.00015908,-6.1655e-05,-1.2495e+08,-37121,0,6.3386e+07,-5380.7,11633,12614,1,12614,1,0.00032915,1.1286e-07,0,0.00047722,5.7633e-05,1.2628e+08,37451,0,1.8672e+08,3174.1,12613,567.13,0,567.13,0,0.00036711,1.9659e-07,0,0.00018352,6.8812e-05,1.4384e+08,66022,0,7.1257e+07,6273.9,567.13,1
1960,2.25,12124,1,12124,1,1.1097e-05,2.2503e-08,0,0.0003195,-2.0351e-06,-760.4,7573.3,0,1.2544e+08,-320.52,12123,13104,1,13104,1,0.00062833,6.576e-07,0,0.00062833,0.00011367,2.3414e+08,2.2339e+05,0,2.4654e+08,12431,13103,12124,1,12124,1,1.109e-05,4.6735e-09,0,0.00031964,-2.0427e-06,4.3286e+06,1514.3,0,1.266e+08,-66.224,12123,11097,1,11097,1,-0.00060614,-4.4858e-07,0,1.1705e-05,-0.00011771,-2.4654e+08,-1.5008e+05,0,4.7721e+06,-15183,11096,11634,1,11634,1,-0.00030851,-1.2207e-07,0,0.00015981,-6.1946e-05,-1.2548e+08,-41070,0,6.3666e+07,-5054.5,11633,12614,1,12614,1,0.00033073,1.4974e-07,0,0.00047943,5.7873e-05,1.2683e+08,50336,0,1.875e+08,4728,12613,567.13,0,567.13,0,0.00036877,2.2308e-07,0,0.00018435,6.9123e-05,1.4444e+08,74843,0,7.1546e+07,6319.5,567.13,1
1960,2.26,12124,1,12124,1,1.1254e-05,3.2395e-08,0,0.00032082,-2.0665e-06,1198.6,10814,0,1.2592e+08,-1398.7,12123,13104,1,13104,1,0.00063093,6.2481e-07,0,0.00063093,0.00011409,2.3491e+08,2.0989e+05,0,2.4746e+08,15627,13103,12124,1,12124,1,1.1257e-05,9.7083e-09,0,0.00032096,-2.0704e-06,4.3931e+06,3141.9,0,1.271e+08,-1008.3,12123,11097,1,11097,1,-0.00060839,-3.8569e-07,0,1.1617e-05,-0.00011819,-2.4746e+08,-1.3016e+05,0,4.7374e+06,-17361,11096,11634,1,11634,1,-0.00030969,-8.3432e-08,0,0.00016048,-6.2231e-05,-1.2596e+08,-27624,0,6.3919e+07,-5188.5,11633,12614,1,12614,1,0.00033221,1.324e-07,0,0.00048142,5.81e-05,1.2732e+08,44439,0,1.8821e+08,3429,12613,567.13,0,567.13,0,0.0003703,1.9082e-07,0,0.00018513,6.941e-05,1.4498e+08,64056,0,7.1814e+07,6029.3,567.13,1
1960,2.27,12124,1,12124,1,1.1405e-05,-1.2887e-08,0,0.00032232,-2.0918e-06,1681.6,-4244.1,0,1.2646e+08,-406.13,12123,13104,1,13104,1,0.00063433,6.5207e-07,0,0.00063433,0.00011463,2.3595e+08,2.215e+05,0,2.4863e+08,13978,13103,12124,1,12124,1,1.1397e-05,-1.5913e-08,0,0.00032252,-2.101e-06,4.4466e+06,-5324.3,0,1.2766e+08,313.24,12123,11097,1,11097,1,-0.00061127,-4.4197e-07,0,1.1593e-05,-0.00011883,-2.4863e+08,-1.4779e+05,0,4.728e+06,-15869,11096,11634,1,11634,1,-0.00031103,-1.6623e-07,0,0.00016121,-6.2542e-05,-1.2651e+08,-55046,0,6.4197e+07,-5066.3,11633,12614,1,12614,1,0.00033391,9.8018e-08,0,0.00048366,5.8349e-05,1.2789e+08,32570,0,1.8903e+08,4618.1,12613,567.13,0,567.13,0,0.00037203,2.2075e-07,0,0.00018599,6.9732e-05,1.4561e+08,74035,0,7.212e+07,6272.1,567.13,1
1960,2.28,12124,1,12124,1,1.1569e-05,3.8117e-09,0,0.00032393,-2.1246e-06,507.52,1249.1,0,1.2705e+08,-1512.5,12123,13104,1,13104,1,0.00063731,5.684e-07,0,0.00063731,0.00011513,2.3683e+08,1.9097e+05,0,2.4972e+08,15018,13103,12124,1,12124,1,1.157e-05,-3.0459e-09,0,0.0003241,-2.1287e-06,4.5137e+06,-972.48,0,1.2825e+08,-839.81,12123,11097,1,11097,1,-0.00061394,-3.728e-07,0,1.1518e-05,-0.00011939,-2.4972e+08,-1.2587e+05,0,4.6982e+06,-17449,11096,11634,1,11634,1,-0.00031243,-1.1301e-07,0,0.00016201,-6.2871e-05,-1.2708e+08,-38008,0,6.4497e+07,-5044.1,11633,12614,1,12614,1,0.00033566,9.3057e-08,0,0.00048602,5.8612e-05,1.2848e+08,31153,0,1.8987e+08,2824.6,12613,567.13,0,567.13,0,0.00037389,1.8056e-07,0,0.00018693,7.008e-05,1.4628e+08,60600,0,7.245e+07,5866.3,567.13,1
1960,2.29,12124,1,12124,1,1.173e-05,-3.374e-08,0,0.00032514,-2.1492e-06,943.25,-11225,0,1.2748e+08,528.58,12123,13104,1,13104,1,0.00064033,7.3528e-07,0,0.00064033,0.00011563,2.3775e+08,2.493e+05,0,2.508e+08,20046,13103,12124,1,12124,1,1.1717e-05,-2.7232e-08,0,0.00032539,-2.168e-06,4.5694e+06,-9028.2,0,1.2872e+08,879.14,12123,11097,1,11097,1,-0.0006166,-5.1351e-07,0,1.1476e-05,-0.00011995,-2.508e+08,-1.7163e+05,0,4.6809e+06,-18781,11096,11634,1,11634,1,-0.00031357,-2.04e-07,0,0.00016264,-6.3137e-05,-1.2754e+08,-67166,0,6.4737e+07,-5015.6,11633,12614,1,12614,1,0.0003371,8.6144e-08,0,0.00048796,5.8826e-05,1.2895e+08,28454,0,1.9056e+08,5682.9,12613,567.13,0,567.13,0,0.00037529,2.4714e-07,0,0.00018763,7.0343e-05,1.4677e+08,82827,0,7.2687e+07,7025.1,567.13,1
1960,2.3,12124,1,12124,1,1.1882e-05,-9.0034e-10,0,0.00032663,-2.1819e-06,1702.1,-323.09,0,1.2802e+08,-1488.4,12123,13104,1,13104,1,0.00064298,6.5637e-07,0,0.00064298,0.00011607,2.3853e+08,2.2032e+05,0,2.5176e+08,17535,13103,12124,1,12124,1,1.1882e-05,-1.0759e-08,0,0.00032682,-2.1858e-06,4.6339e+06,-3614,0,1.2926e+08,-575.85,12123,11097,1,11097,1,-0.00061897,-3.8744e-07,0,1.1394e-05,-0.00012044,-2.5176e+08,-1.3081e+05,0,4.6488e+06,-20244,11096,11634,1,11634,1,-0.00031483,-1.4253e-07,0,0.00016336,-6.3434e-05,-1.2805e+08,-47630,0,6.501e+07,-5316.6,11633,12614,1,12614,1,0.00033869,1.0447e-07,0,0.00049009,5.9068e-05,1.2949e+08,34540,0,1.9132e+08,3276.3,12613,567.13,0,567.13,0,0.00037701,2.0901e-07,0,0.0001885,7.0666e-05,1.474e+08,70111,0,7.2995e+07,6741,567.13,1
1960,2.31,12124,1,12124,1,1.2031e-05,2.8311e-08,0,0.00032801,-2.2061e-06,-3328,9504.5,0,1.2852e+08,-282.27,12123,13104,1,13104,1,0.00064577,7.3203e-07,0,0.00064577,0.0001166,2.3946e+08,2.4835e+05,0,2.5289e+08,13810,13103,12124,1,12124,1,1.2026e-05,6.2982e-09,0,0.00032816,-2.2166e-06,4.6891e+06,1969.3,0,1.2978e+08,158.46,12123,11097,1,11097,1,-0.00062175,-4.5786e-07,0,1.1365e-05,-0.00012097,-2.5289e+08,-1.5295e+05,0,4.6371e+06,-16135,11096,11634,1,11634,1,-0.00031611,-1.3111e-07,0,0.00016408,-6.3713e-05,-1.2857e+08,-44325,0,6.5283e+07,-5216.1,11633,12614,1,12614,1,0.00034018,1.6654e-07,0,0.00049223,5.9301e-05,1.3001e+08,55591,0,1.9207e+08,4938.7,12613,567.13,0,567.13,0,0.0003786,2.4303e-07,0,0.0001893,7.0963e-05,1.4797e+08,81447,0,7.3271e+07,6611.5,567.13,1
1960,2.32,12124,1,12124,1,1.2208e-05,-1.9183e-08,0,0.00032967,-2.2411e-06,506.6,-6415.1,0,1.2912e+08,-1305.3,12123,13104,1,13104,1,0.0006492,5.717e-07,0,0.0006492,0.00011712,2.4046e+08,1.9209e+05,0,2.5403e+08,15721,13103,12124,1,12124,1,1.2205e-05,-1.8651e-08,0,0.00032987,-2.2455e-06,4.7581e+06,-6143.9,0,1.304e+08,-413.27,12123,11097,1,11097,1,-0.00062456,-3.6569e-07,0,1.1295e-05,-0.00012161,-2.5403e+08,-1.2348e+05,0,4.61e+06,-17704,11096,11634,1,11634,1,-0.00031757,-1.5277e-07,0,0.00016487,-6.4065e-05,-1.2917e+08,-50546,0,6.5579e+07,-4733.1,11633,12614,1,12614,1,0.00034206,7.1505e-08,0,0.00049468,5.9575e-05,1.3064e+08,23836,0,1.9297e+08,2731.3,12613,567.13,0,567.13,0,0.00038051,1.8954e-07,0,0.00019027,7.132e-05,1.4866e+08,63571,0,7.3613e+07,6064.9,567.13,1
1960,2.33,12124,1,12124,1,1.2375e-05,1.6898e-08,0,0.00033107,-2.2695e-06,-3041.8,5687.2,0,1.2962e+08,-373.31,12123,13104,1,13104,1,0.0006519,6.1049e-07,0,0.0006519,0.00011761,2.4129e+08,2.0734e+05,0,2.5508e+08,11953,13103,12124,1,12124,1,1.2374e-05,2.1755e-09,0,0.00033121,-2.2796e-06,4.823e+06,689.55,0,1.3091e+08,-134.48,12123,11097,1,11097,1,-0.00062714,-4.2116e-07,0,1.1231e-05,-0.00012211,-2.5508e+08,-1.4062e+05,0,4.584e+06,-14500,11096,11634,1,11634,1,-0.00031881,-1.168e-07,0,0.0001656,-6.4347e-05,-1.2967e+08,-38842,0,6.5858e+07,-4807.8,11633,12614,1,12614,1,0.00034358,1.3647e-07,0,0.00049678,5.9804e-05,1.3115e+08,45206,0,1.937e+08,4361.9,12613,567.13,0,567.13,0,0.00038213,2.0744e-07,0,0.00019109,7.1623e-05,1.4923e+08,69496,0,7.389e+07,5894.7,567.13,1
1960,2.34,12124,1,12124,1,1.2517e-05,-7.5981e-08,0,0.00033214,-2.2968e-06,-6865.4,-25348,0,1.3e+08,-958.73,12123,13104,1,13104,1,0.00065475,5.5593e-07,0,0.00065475,0.00011803,2.4208e+08,1.8572e+05,0,2.5602e+08,14240,13103,12124,1,12124,1,1.2514e-05,-6.3682e-08,0,0.00033244,-2.3011e-06,4.8778e+06,-20573,0,1.3134e+08,-676.19,12123,11097,1,11097,1,-0.00062944,-4.5519e-07,0,1.1157e-05,-0.00012265,-2.5602e+08,-1.5322e+05,0,4.5546e+06,-16049,11096,11634,1,11634,1,-0.0003198,-2.3599e-07,0,0.00016612,-6.4603e-05,-1.3007e+08,-79271,0,6.6054e+07,-4550.6,11633,12614,1,12614,1,0.0003449,3.4356e-08,0,0.00049846,5.9993e-05,1.3157e+08,11295,0,1.9431e+08,2730.6,12613,567.13,0,567.13,0,0.00038337,2.1038e-07,0,0.00019171,7.1854e-05,1.4966e+08,70558,0,7.4099e+07,5956.9,567.13,1
1960,2.35,12124,1,12124,1,1.2668e-05,5.1772e-08,0,0.00033345,-2.3182e-06,-1152.2,17206,0,1.3047e+08,1669.6,12123,13104,1,13104,1,0.00065714,8.6212e-07,0,0.00065714,0.00011849,2.4292e+08,2.8807e+05,0,2.5695e+08,22928,13103,12124,1,12124,1,1.2666e-05,1.6552e-08,0,0.00033364,-2.3179e-06,4.9363e+06,5516.3,0,1.3182e+08,1460.5,12123,11097,1,11097,1,-0.00063174,-4.9073e-07,0,1.1098e-05,-0.00012309,-2.5695e+08,-1.6591e+05,0,4.5308e+06,-15013,11096,11634,1,11634,1,-0.00032098,-1.0019e-07,0,0.00016686,-6.4856e-05,-1.3055e+08,-33688,0,6.6332e+07,-4104.6,11633,12614,1,12614,1,0.0003463,1.898e-07,0,0.0005005,6.0227e-05,1.3207e+08,62292,0,1.9501e+08,7081.2,12613,567.13,0,567.13,0,0.00038488,2.525e-07,0,0.00019247,7.2141e-05,1.5021e+08,84388,0,7.4365e+07,7661.7,567.13,1
1960,2.36,12124,1,12124,1,1.2843e-05,6.6682e-09,0,0.00033507,-2.3557e-06,1459.2,2218.8,0,1.3107e+08,-540.05,12123,13104,1,13104,1,0.00066017,6.7276e-07,0,0.00066017,0.00011897,2.4377e+08,2.3035e+05,0,2.5804e+08,13670,13103,12124,1,12124,1,1.2843e-05,-5.8639e-09,0,0.00033524,-2.3624e-06,5.0014e+06,-1902.5,0,1.324e+08,-184.47,12123,11097,1,11097,1,-0.00063442,-4.2384e-07,0,1.1047e-05,-0.00012366,-2.5804e+08,-1.4273e+05,0,4.5111e+06,-18887,11096,11634,1,11634,1,-0.00032234,-1.4435e-07,0,0.00016758,-6.5186e-05,-1.3111e+08,-48026,0,6.6603e+07,-4589.2,11633,12614,1,12614,1,0.00034806,1.2397e-07,0,0.00050278,6.0469e-05,1.3265e+08,41686,0,1.9584e+08,3989.6,12613,567.13,0,567.13,0,0.00038675,2.2505e-07,0,0.00019342,7.2489e-05,1.5089e+08,75405,0,7.4699e+07,6084.1,567.13,1
1960,2.37,12124,1,12124,1,1.3025e-05,1.4018e-09,0,0.00033687,-2.3867e-06,-3315,511.4,0,1.3172e+08,441.01,12123,13104,1,13104,1,0.0006638,4.7219e-07,0,0.0006638,0.00011956,2.4483e+08,1.6167e+05,0,2.593e+08,13140,13103,12124,1,12124,1,1.3029e-05,1.2101e-09,0,0.00033704,-2.3893e-06,5.0748e+06,399.79,0,1.3305e+08,695.96,12123,11097,1,11097,1,-0.0006375,-3.9973e-07,0,1.0997e-05,-0.00012434,-2.593e+08,-1.3333e+05,0,4.4918e+06,-11200,11096,11634,1,11634,1,-0.00032394,-1.0552e-07,0,0.00016849,-6.5558e-05,-1.3176e+08,-35382,0,6.6949e+07,-2959.2,11633,12614,1,12614,1,0.00035005,1.0596e-07,0,0.00050544,6.0769e-05,1.3331e+08,35375,0,1.9679e+08,4579.9,12613,567.13,0,567.13,0,0.00038883,1.7294e-07,0,0.00019447,7.2875e-05,1.5163e+08,57878,0,7.5066e+07,4793.5,567.13,1
1960,2.38,12124,1,12124,1,1.3217e-05,-5.8988e-09,0,0.00033793,-2.4259e-06,8.3091,-1972.3,0,1.3207e+08,-1205.5,12123,13104,1,13104,1,0.0006661,6.5001e-07,0,0.0006661,0.00011991,2.4542e+08,2.2061e+05,0,2.6008e+08,14721,13103,12124,1,12124,1,1.3214e-05,-1.3033e-08,0,0.00033812,-2.4382e-06,5.1461e+06,-4259.9,0,1.3344e+08,-1071,12123,11097,1,11097,1,-0.00063943,-4.1023e-07,0,1.0873e-05,-0.00012477,-2.6008e+08,-1.3821e+05,0,4.4423e+06,-28787,11096,11634,1,11634,1,-0.0003248,-1.4731e-07,0,0.00016901,-6.5808e-05,-1.3211e+08,-49264,0,6.7135e+07,-5206.6,11633,12614,1,12614,1,0.00035132,1.0133e-07,0,0.00050705,6.0934e-05,1.3369e+08,33735,0,1.9732e+08,2977.1,12613,567.13,0,567.13,0,0.00039005,2.0675e-07,0,0.00019509,7.3106e-05,1.5204e+08,69294,0,7.5261e+07,6047.3,567.13,1
1960,2.39,12124,1,12124,1,1.337e-05,1.2806e-08,0,0.0003395,-2.4507e-06,-102.54,4252.7,0,1.3265e+08,93.043,12123,13104,1,13104,1,0.00066929,7.2518e-07,0,0.00066929,0.00012048,2.4649e+08,2.4815e+05,0,2.6131e+08,14653,13103,12124,1,12124,1,1.3379e-05,-1.0164e-09,0,0.00033967,-2.4644e-06,5.2092e+06,-329.32,0,1.3403e+08,26.689,12123,11097,1,11097,1,-0.00064245,-4.6648e-07,0,1.0821e-05,-0.00012536,-2.6131e+08,-1.5685e+05,0,4.4209e+06,-12997,11096,11634,1,11634,1,-0.00032624,-1.4311e-07,0,0.00016981,-6.6112e-05,-1.3269e+08,-47199,0,6.7444e+07,-5021.5,11633,12614,1,12614,1,0.00035302,1.4076e-07,0,0.00050941,6.1202e-05,1.3429e+08,47178,0,1.9818e+08,4765.7,12613,567.13,0,567.13,0,0.00039186,2.4043e-07,0,0.00019599,7.3444e-05,1.527e+08,80466,0,7.5584e+07,5985.1,567.13,1
1960,2.4,12124,1,12124,1,1.3543e-05,1.7063e-08,0,0.00034084,-2.4841e-06,-3357.7,5668.5,0,1.3312e+08,-657.47,12123,13104,1,13104,1,0.00067203,6.2189e-07,0,0.00067203,0.00012089,2.4719e+08,2.0592e+05,0,2.6222e+08,11349,13103,12124,1,12124,1,1.3552e-05,4.8976e-09,0,0.00034103,-2.5041e-06,5.2732e+06,1536.9,0,1.3452e+08,-625.22,12123,11097,1,11097,1,-0.0006447,-4.2161e-07,0,1.0751e-05,-0.00012588,-2.6222e+08,-1.4199e+05,0,4.394e+06,-20266,11096,11634,1,11634,1,-0.00032738,-1.2035e-07,0,0.00017044,-6.64e-05,-1.3316e+08,-40474,0,6.7676e+07,-4568.9,11633,12614,1,12614,1,0.00035455,1.341e-07,0,0.0005114,6.1423e-05,1.3477e+08,44566,0,1.9887e+08,3861.7,12613,567.13,0,567.13,0,0.00039341,2.1265e-07,0,0.00019678,7.3735e-05,1.5325e+08,71233,0,7.585e+07,5608,567.13,1
1960,2.41,12124,1,12124,1,1.3716e-05,4.1229e-09,0,0.00034246,-2.5144e-06,-4219.5,1353,0,1.3371e+08,-18.351,12123,13104,1,13104,1,0.00067529,5.8315e-07,0,0.00067529,0.00012145,2.4819e+08,1.9573e+05,0,2.6342e+08,12733,13103,12124,1,12124,1,1.3727e-05,-1.0883e-09,0,0.00034264,-2.524e-06,5.3423e+06,-342.69,0,1.3512e+08,165.92,12123,11097,1,11097,1,-0.00064765,-4.3164e-07,0,1.0675e-05,-0.00012648,-2.6342e+08,-1.4528e+05,0,4.3634e+06,-20088,11096,11634,1,11634,1,-0.00032883,-1.2549e-07,0,0.00017128,-6.6737e-05,-1.3375e+08,-41035,0,6.7994e+07,-4315.4,11633,12614,1,12614,1,0.00035634,1.2155e-07,0,0.00051381,6.1691e-05,1.3538e+08,40336,0,1.9973e+08,4316.5,12613,567.13,0,567.13,0,0.00039528,2.0514e-07,0,0.00019772,7.4084e-05,1.5392e+08,68652,0,7.6178e+07,5308.5,567.13,1
1960,2.42,12124,1,12124,1,1.3892e-05,-2.1415e-08,0,0.00034378,-2.547e-06,-8284.9,-7172.8,0,1.3417e+08,-150.3,12123,13104,1,13104,1,0.0006782,6.205e-07,0,0.0006782,0.00012192,2.4901e+08,2.0613e+05,0,2.6444e+08,17490,13103,12124,1,12124,1,1.3897e-05,-1.954e-08,0,0.000344,-2.5482e-06,5.4081e+06,-6473.7,0,1.3561e+08,-70.856,12123,11097,1,11097,1,-0.00065015,-4.3299e-07,0,1.0604e-05,-0.00012703,-2.6444e+08,-1.4578e+05,0,4.3355e+06,-15889,11096,11634,1,11634,1,-0.00032999,-1.701e-07,0,0.00017192,-6.7021e-05,-1.3422e+08,-57158,0,6.823e+07,-4316.6,11633,12614,1,12614,1,0.00035788,8.5511e-08,0,0.00051585,6.1908e-05,1.3587e+08,27928,0,2.0044e+08,3852.5,12613,567.13,0,567.13,0,0.0003968,2.1328e-07,0,0.0001985,7.4371e-05,1.5445e+08,71330,0,7.6436e+07,6080,567.13,1
1960,2.43,12124,1,12124,1,1.4073e-05,-2.293e-08,0,0.0003451,-2.5781e-06,-2457.8,-7651.9,0,1.3464e+08,708.95,12123,13104,1,13104,1,0.00068101,6.2595e-07,0,0.00068101,0.00012238,2.4983e+08,2.1176e+05,0,2.6544e+08,17971,13103,12124,1,12124,1,1.4075e-05,-1.4726e-08,0,0.00034533,-2.5835e-06,5.4764e+06,-5039.3,0,1.361e+08,1030.3,12123,11097,1,11097,1,-0.00065259,-4.8146e-07,0,1.0512e-05,-0.00012755,-2.6544e+08,-1.6173e+05,0,4.298e+06,-14345,11096,11634,1,11634,1,-0.00033114,-1.8113e-07,0,0.00017258,-6.7298e-05,-1.3468e+08,-59331,0,6.848e+07,-4618.6,11633,12614,1,12614,1,0.00035938,9.8926e-08,0,0.00051784,6.2133e-05,1.3636e+08,33274,0,2.0113e+08,5434.9,12613,567.13,0,567.13,0,0.00039832,2.2854e-07,0,0.00019926,7.4655e-05,1.5498e+08,76419,0,7.6696e+07,6612.2,567.13,1
1960,2.44,12124,1,12124,1,1.4238e-05,2.2557e-08,0,0.00034661,-2.6128e-06,-7341.4,7487.9,0,1.3518e+08,-1155.3,12123,13104,1,13104,1,0.00068388,6.9087e-07,0,0.00068388,0.00012287,2.507e+08,2.3654e+05,0,2.665e+08,16353,13103,12124,1,12124,1,1.4253e-05,2.8935e-09,0,0.00034679,-2.6307e-06,5.5423e+06,958.99,0,1.3664e+08,-842.24,12123,11097,1,11097,1,-0.00065522,-4.1279e-07,0,1.0455e-05,-0.00012809,-2.665e+08,-1.3906e+05,0,4.2765e+06,-17335,11096,11634,1,11634,1,-0.00033248,-1.343e-07,0,0.00017336,-6.7607e-05,-1.3523e+08,-44703,0,6.8771e+07,-5718.5,11633,12614,1,12614,1,0.00036102,1.4838e-07,0,0.00052007,6.2371e-05,1.3691e+08,49639,0,2.0193e+08,3491.3,12613,567.13,0,567.13,0,0.00040007,2.3035e-07,0,0.00020015,7.4982e-05,1.5561e+08,77086,0,7.7002e+07,6090.4,567.13,1
1960,2.45,12124,1,12124,1,1.4451e-05,-9.1834e-09,0,0.00034802,-2.6512e-06,3488.9,-3074.3,0,1.3568e+08,-881.74,12123,13104,1,13104,1,0.00068692,7.0663e-07,0,0.00068692,0.00012335,2.5156e+08,2.3489e+05,0,2.6754e+08,18131,13103,12124,1,12124,1,1.4455e-05,-9.9323e-09,0,0.00034823,-2.6775e-06,5.6207e+06,-3236.8,0,1.3716e+08,211.75,12123,11097,1,11097,1,-0.00065776,-4.7952e-07,0,1.0347e-05,-0.00012866,-2.6754e+08,-1.6107e+05,0,4.2329e+06,-22483,11096,11634,1,11634,1,-0.00033366,-1.7277e-07,0,0.00017403,-6.7912e-05,-1.3571e+08,-57102,0,6.9024e+07,-6037.7,11633,12614,1,12614,1,0.00036265,1.1476e-07,0,0.00052218,6.2603e-05,1.3744e+08,37790,0,2.0266e+08,4674,12613,567.13,0,567.13,0,0.00040169,2.4028e-07,0,0.00020097,7.5287e-05,1.5617e+08,80301,0,7.7277e+07,7416.1,567.13,1
1960,2.46,12124,1,12124,1,1.463e-05,2.0242e-09,0,0.00034947,-2.6865e-06,949.08,652.38,0,1.3619e+08,-1928.8,12123,13104,1,13104,1,0.00068974,5.9955e-07,0,0.00068974,0.00012381,2.5236e+08,2.0122e+05,0,2.6854e+08,17481,13103,12124,1,12124,1,1.4637e-05,-4.2356e-09,0,0.00034967,-2.6971e-06,5.6904e+06,-1351.4,0,1.3769e+08,-838.52,12123,11097,1,11097,1,-0.00066022,-3.8387e-07,0,1.0272e-05,-0.00012919,-2.6854e+08,-1.2921e+05,0,4.2041e+06,-22442,11096,11634,1,11634,1,-0.00033493,-1.1042e-07,0,0.00017477,-6.8217e-05,-1.3623e+08,-37103,0,6.9297e+07,-5714.7,11633,12614,1,12614,1,0.00036428,8.8168e-08,0,0.00052435,6.2834e-05,1.3797e+08,29355,0,2.0342e+08,2788,12613,567.13,0,567.13,0,0.00040336,1.8475e-07,0,0.00020181,7.5597e-05,1.5676e+08,61813,0,7.7566e+07,6163.1,567.13,1
1960,2.47,12124,1,12124,1,1.4832e-05,3.0635e-09,0,0.00035096,-2.7223e-06,6833.9,994.5,0,1.3672e+08,-1380.4,12123,13104,1,13104,1,0.00069282,6.2924e-07,0,0.00069282,0.00012434,2.533e+08,2.153e+05,0,2.6968e+08,18949,13103,12124,1,12124,1,1.4836e-05,-7.5607e-09,0,0.00035113,-2.7338e-06,5.7674e+06,-2452,0,1.3825e+08,-289.78,12123,11097,1,11097,1,-0.00066302,-4.0578e-07,0,1.0173e-05,-0.00012976,-2.6968e+08,-1.3637e+05,0,4.164e+06,-24680,11096,11634,1,11634,1,-0.00033624,-1.4394e-07,0,0.00017554,-6.8537e-05,-1.3676e+08,-47516,0,6.9587e+07,-5621.7,11633,12614,1,12614,1,0.00036595,1.1691e-07,0,0.00052661,6.3077e-05,1.3854e+08,38555,0,2.0422e+08,3548.2,12613,567.13,0,567.13,0,0.00040509,2.1546e-07,0,0.00020269,7.5921e-05,1.5737e+08,71967,0,7.7864e+07,6510.5,567.13,1
1960,2.48,12124,1,12124,1,1.4987e-05,1.9769e-08,0,0.00035217,-2.7533e-06,-4813.6,6594.2,0,1.3714e+08,-2452.4,12123,13104,1,13104,1,0.00069522,6.5246e-07,0,0.00069522,0.00012476,2.5395e+08,2.2339e+05,0,2.7059e+08,9652.5,13103,12124,1,12124,1,1.5002e-05,2.0979e-10,0,0.00035233,-2.7684e-06,5.83e+06,70.094,0,1.3867e+08,-1304,12123,11097,1,11097,1,-0.00066527,-4.2413e-07,0,1.011e-05,-0.00013021,-2.7059e+08,-1.4246e+05,0,4.1397e+06,-20431,11096,11634,1,11634,1,-0.0003373,-1.2317e-07,0,0.00017616,-6.8783e-05,-1.3719e+08,-40238,0,6.9815e+07,-7422,11633,12614,1,12614,1,0.0003673,1.3673e-07,0,0.00052844,6.3268e-05,1.3895e+08,45473,0,2.0482e+08,3174.8,12613,567.13,0,567.13,0,0.00040649,2.2217e-07,0,0.00020339,7.6182e-05,1.5785e+08,74306,0,7.8095e+07,6607.3,567.13,1
1960,2.49,12124,1,12124,1,1.5174e-05,1.6271e-08,0,0.00035365,-2.7883e-06,1377,5391.4,0,1.3767e+08,-2710.4,12123,13104,1,13104,1,0.00069853,8.1271e-07,0,0.00069853,0.00012528,2.5498e+08,2.7264e+05,0,2.7171e+08,12159,13103,12124,1,12124,1,1.5183e-05,-6.773e-09,0,0.00035384,-2.799e-06,5.897e+06,-2214.4,0,1.3923e+08,-2350.4,12123,11097,1,11097,1,-0.00066802,-5.3084e-07,0,1.0027e-05,-0.00013083,-2.7171e+08,-1.7896e+05,0,4.1075e+06,-22005,11096,11634,1,11634,1,-0.00033861,-1.9009e-07,0,0.0001769,-6.9111e-05,-1.3773e+08,-62326,0,7.0092e+07,-7633.2,11633,12614,1,12614,1,0.000369,1.9113e-07,0,0.00053068,6.3529e-05,1.3952e+08,62220,0,2.0562e+08,3105.8,12613,567.13,0,567.13,0,0.00040819,2.9406e-07,0,0.00020425,7.6504e-05,1.5846e+08,98220,0,7.8391e+07,7432.4,567.13,1
1960,2.5,12124,1,12124,1,1.5389e-05,-8.0061e-09,0,0.00035533,-2.8238e-06,5322.1,-2672.8,0,1.3827e+08,-1092.8,12123,13104,1,13104,1,0.00070204,5.5402e-07,0,0.00070204,0.00012582,2.5593e+08,1.8834e+05,0,2.7291e+08,13538,13103,12124,1,12124,1,1.54e-05,-1.6603e-10,0,0.00035556,-2.8336e-06,5.9801e+06,-53.241,0,1.3985e+08,-1087.8,12123,11097,1,11097,1,-0.00067097,-4.9818e-07,0,9.9371e-06,-0.00013148,-2.7291e+08,-1.6795e+05,0,4.0713e+06,-15836,11096,11634,1,11634,1,-0.00034005,-1.4493e-07,0,0.0001777,-6.9462e-05,-1.3831e+08,-48562,0,7.0391e+07,-5892.3,11633,12614,1,12614,1,0.00037093,1.1535e-07,0,0.00053318,6.3799e-05,1.4014e+08,38349,0,2.0651e+08,3933.9,12613,567.13,0,567.13,0,0.00041013,2.2054e-07,0,0.00020524,7.6866e-05,1.5915e+08,73752,0,7.8729e+07,6154.5,567.13,1
1960,2.51,12124,1,12124,1,1.5575e-05,-3.4499e-09,0,0.00035676,-2.8551e-06,-3710.5,-1160.7,0,1.3877e+08,-6.4426,12123,13104,1,13104,1,0.00070486,6.1331e-07,0,0.00070486,0.00012629,2.5668e+08,2.0547e+05,0,2.7392e+08,20551,13103,12124,1,12124,1,1.5587e-05,-8.821e-09,0,0.00035697,-2.8642e-06,6.0538e+06,-2819,0,1.4036e+08,-122.14,12123,11097,1,11097,1,-0.00067346,-5.105e-07,0,9.8401e-06,-0.00013201,-2.7392e+08,-1.7214e+05,0,4.0339e+06,-19805,11096,11634,1,11634,1,-0.00034128,-1.5881e-07,0,0.00017842,-6.9764e-05,-1.3881e+08,-52633,0,7.0658e+07,-5536,11633,12614,1,12614,1,0.00037252,1.292e-07,0,0.00053529,6.4033e-05,1.4064e+08,42467,0,2.0722e+08,5247.8,12613,567.13,0,567.13,0,0.00041178,2.41e-07,0,0.00020607,7.7177e-05,1.5971e+08,80480,0,7.9005e+07,7575.7,567.13,1
1960,2.52,12124,1,12124,1,1.5774e-05,1.2245e-08,0,0.00035808,-2.8935e-06,-243.61,4049.8,0,1.3923e+08,-781.7,12123,13104,1,13104,1,0.00070755,6.1689e-07,0,0.00070755,0.00012674,2.5747e+08,2.1121e+05,0,2.7489e+08,15934,13103,12124,1,12124,1,1.5786e-05,3.7994e-09,0,0.00035827,-2.9001e-06,6.1279e+06,1231.4,0,1.4083e+08,-774.17,12123,11097,1,11097,1,-0.00067584,-4.8676e-07,0,9.7482e-06,-0.00013251,-2.7489e+08,-1.6396e+05,0,3.9965e+06,-18170,11096,11634,1,11634,1,-0.00034243,-1.3449e-07,0,0.0001791,-7.0043e-05,-1.3928e+08,-44570,0,7.091e+07,-5697.7,11633,12614,1,12614,1,0.00037403,1.4344e-07,0,0.00053729,6.4246e-05,1.4113e+08,47745,0,2.0791e+08,4518.5,12613,567.13,0,567.13,0,0.00041331,2.2936e-07,0,0.00020685,7.7461e-05,1.6024e+08,76630,0,7.9262e+07,6854.8,567.13,1
1960,2.53,12124,1,12124,1,1.5937e-05,-7.1605e-08,0,0.00035943,-2.918e-06,-7030.2,-23823,0,1.397e+08,1424.4,12123,13104,1,13104,1,0.00071088,6.355e-07,0,0.00071088,0.00012728,2.5842e+08,2.1059e+05,0,2.7606e+08,28386,13103,12124,1,12124,1,1.5939e-05,-5.4906e-08,0,0.00035975,-2.9217e-06,6.1886e+06,-18313,0,1.4137e+08,333.11,12123,11097,1,11097,1,-0.00067872,-5.6065e-07,0,9.6688e-06,-0.00013314,-2.7606e+08,-1.8923e+05,0,3.966e+06,-14441,11096,11634,1,11634,1,-0.00034367,-2.3044e-07,0,0.00017977,-7.0343e-05,-1.3978e+08,-76116,0,7.1162e+07,-4346.4,11633,12614,1,12614,1,0.00037565,5.049e-08,0,0.00053944,6.4472e-05,1.4165e+08,16711,0,2.0867e+08,5644.7,12613,567.13,0,567.13,0,0.00041486,2.3706e-07,0,0.00020763,7.7751e-05,1.6078e+08,79132,0,7.9525e+07,6929.8,567.13,1
1960,2.54,12124,1,12124,1,1.6127e-05,-8.4002e-09,0,0.00036023,-2.9548e-06,3753.9,-2830.7,0,1.3996e+08,682.46,12123,13104,1,13104,1,0.00071239,7.0565e-07,0,0.00071239,0.00012747,2.587e+08,2.3496e+05,0,2.7649e+08,21138,13103,12124,1,12124,1,1.6133e-05,-8.6698e-10,0,0.00036049,-2.9563e-06,6.2628e+06,-282.69,0,1.4161e+08,292.13,12123,11097,1,11097,1,-0.00067978,-6.8292e-07,0,9.5422e-06,-0.00013342,-2.7649e+08,-2.2852e+05,0,3.9134e+06,-16270,11096,11634,1,11634,1,-0.00034422,-1.8094e-07,0,0.00018016,-7.0527e-05,-1.4e+08,-59377,0,7.1298e+07,-6895.9,11633,12614,1,12614,1,0.0003766,1.5262e-07,0,0.00054054,6.4591e-05,1.4192e+08,50295,0,2.09e+08,7893.4,12613,567.13,0,567.13,0,0.00041578,2.7949e-07,0,0.0002081,7.7928e-05,1.6108e+08,93104,0,7.9666e+07,8576.3,567.13,1
1960,2.55,12124,1,12124,1,1.6318e-05,-1.0532e-08,0,0.00036241,-2.9956e-06,6625.7,-3583.8,0,1.4078e+08,-1752.5,12123,13104,1,13104,1,0.00071687,6.8333e-07,0,0.00071687,0.00012825,2.6019e+08,2.3189e+05,0,2.7818e+08,17007,13103,12124,1,12124,1,1.6328e-05,-1.248e-08,0,0.00036268,-3.0057e-06,6.3353e+06,-3882.5,0,1.4245e+08,-1412,12123,11097,1,11097,1,-0.00068392,-5.3625e-07,0,9.4993e-06,-0.00013426,-2.7818e+08,-1.8095e+05,0,3.8987e+06,-20777,11096,11634,1,11634,1,-0.00034622,-1.9037e-07,0,0.00018124,-7.0963e-05,-1.4082e+08,-62064,0,7.1712e+07,-6690.5,11633,12614,1,12614,1,0.00037897,1.3485e-07,0,0.00054383,6.4952e-05,1.4276e+08,44504,0,2.1022e+08,3336.5,12613,567.13,0,567.13,0,0.0004183,2.6928e-07,0,0.00020937,7.8397e-05,1.6202e+08,89770,0,8.0129e+07,6867.5,567.13,1
1960,2.56,12124,1,12124,1,1.6559e-05,-1.667e-08,0,0.00036363,-3.0376e-06,3920.9,-5518.3,0,1.4117e+08,-803.96,12123,13104,1,13104,1,0.00071935,6.8772e-07,0,0.00071935,0.00012863,2.6074e+08,2.3197e+05,0,2.7899e+08,18003,13103,12124,1,12124,1,1.6573e-05,-1.9293e-08,0,0.00036391,-3.0459e-06,6.427e+06,-6126.9,0,1.4287e+08,-575.57,12123,11097,1,11097,1,-0.00068591,-5.6941e-07,0,9.3551e-06,-0.00013472,-2.7899e+08,-1.9086e+05,0,3.8408e+06,-23312,11096,11634,1,11634,1,-0.00034721,-1.7998e-07,0,0.00018186,-7.124e-05,-1.4122e+08,-59568,0,7.1933e+07,-6242,11633,12614,1,12614,1,0.00038044,1.0865e-07,0,0.00054567,6.5144e-05,1.4318e+08,35984,0,2.108e+08,5229.3,12613,567.13,0,567.13,0,0.00041971,2.5387e-07,0,0.00021009,7.8662e-05,1.6247e+08,84668,0,8.0344e+07,7868,567.13,1
1960,2.57,12124,1,12124,1,1.6742e-05,-3.0026e-08,0,0.00036532,-3.0717e-06,-1569.4,-9966.5,0,1.4178e+08,-1097.4,12123,13104,1,13104,1,0.00072274,5.006e-07,0,0.00072274,0.00012919,2.6175e+08,1.7143e+05,0,2.8023e+08,14201,13103,12124,1,12124,1,1.6762e-05,-7.6067e-09,0,0.00036558,-3.0883e-06,6.5007e+06,-2525.1,0,1.4349e+08,-1416.4,12123,11097,1,11097,1,-0.00068896,-5.1803e-07,0,9.2649e-06,-0.00013535,-2.8023e+08,-1.7459e+05,0,3.807e+06,-14739,11096,11634,1,11634,1,-0.00034869,-1.6207e-07,0,0.00018269,-7.1586e-05,-1.4182e+08,-53618,0,7.2247e+07,-5970.2,11633,12614,1,12614,1,0.0003823,9.2368e-08,0,0.00054818,6.5414e-05,1.438e+08,31034,0,2.1169e+08,3763.5,12613,567.13,0,567.13,0,0.00042166,2.1331e-07,0,0.00021108,7.9023e-05,1.6316e+08,71226,0,8.0686e+07,5754.6,567.13,1
1960,2.58,12124,1,12124,1,1.6963e-05,4.6061e-08,0,0.00036668,-3.1063e-06,-1022.1,15183,0,1.4224e+08,1392.1,12123,13104,1,13104,1,0.00072546,7.002e-07,0,0.00072546,0.00012969,2.6258e+08,2.3767e+05,0,2.8127e+08,24125,13103,12124,1,12124,1,1.698e-05,1.6875e-08,0,0.00036684,-3.1093e-06,6.5854e+06,5622.2,0,1.4397e+08,958.29,12123,11097,1,11097,1,-0.00069153,-4.8941e-07,0,9.152e-06,-0.00013586,-2.8127e+08,-1.6488e+05,0,3.7615e+06,-15956,11096,11634,1,11634,1,-0.00034987,-1.1799e-07,0,0.00018343,-7.1867e-05,-1.423e+08,-38886,0,7.2517e+07,-5134.9,11633,12614,1,12614,1,0.00038379,2.0113e-07,0,0.00055028,6.565e-05,1.4429e+08,65900,0,2.1239e+08,6373.6,12613,567.13,0,567.13,0,0.00042323,2.5602e-07,0,0.00021188,7.932e-05,1.6369e+08,85302,0,8.0943e+07,8286.2,567.13,1
1960,2.59,12124,1,12124,1,1.7182e-05,1.1022e-08,0,0.00036848,-3.1475e-06,-122.87,3668.6,0,1.4289e+08,877.9,12123,13104,1,13104,1,0.00072908,6.1253e-07,0,0.00072908,0.00013025,2.6355e+08,2.0323e+05,0,2.8248e+08,15769,13103,12124,1,12124,1,1.7182e-05,5.6998e-09,0,0.00036867,-3.1595e-06,6.6617e+06,1859.4,0,1.4463e+08,684.28,12123,11097,1,11097,1,-0.0006945,-4.5403e-07,0,9.0923e-06,-0.00013654,-2.8248e+08,-1.5051e+05,0,3.7383e+06,-12411,11096,11634,1,11634,1,-0.00035139,-1.2384e-07,0,0.00018428,-7.2239e-05,-1.4292e+08,-40350,0,7.2835e+07,-4128,11633,12614,1,12614,1,0.00038583,1.3973e-07,0,0.00055289,6.5928e-05,1.4494e+08,45346,0,2.1331e+08,5847.4,12613,567.13,0,567.13,0,0.00042531,2.1796e-07,0,0.00021293,7.9707e-05,1.6443e+08,72571,0,8.1305e+07,5937.9,567.13,1
1960,2.6,12124,1,12124,1,1.7415e-05,3.5648e-08,0,0.00036966,-3.1956e-06,1995.2,11804,0,1.4328e+08,-1265.3,12123,13104,1,13104,1,0.00073142,6.7793e-07,0,0.00073142,0.00013064,2.6414e+08,2.2871e+05,0,2.8333e+08,16246,13103,12124,1,12124,1,1.7427e-05,1.3842e-08,0,0.00036984,-3.2073e-06,6.7532e+06,4529,0,1.4505e+08,-1020.9,12123,11097,1,11097,1,-0.0006966,-4.7497e-07,0,8.9318e-06,-0.00013698,-2.8333e+08,-1.5987e+05,0,3.6746e+06,-19632,11096,11634,1,11634,1,-0.00035237,-1.0788e-07,0,0.00018489,-7.2508e-05,-1.4332e+08,-35541,0,7.3053e+07,-7102.9,11633,12614,1,12614,1,0.00038723,1.7522e-07,0,0.00055469,6.6108e-05,1.4537e+08,57896,0,2.1389e+08,4412.1,12613,567.13,0,567.13,0,0.00042667,2.3482e-07,0,0.00021362,7.9964e-05,1.6487e+08,78322,0,8.1518e+07,7141.1,567.13,1
1960,2.61,12124,1,12124,1,1.7608e-05,1.3599e-08,0,0.00037129,-3.2308e-06,100.15,4443.4,0,1.4386e+08,-1290.9,12123,13104,1,13104,1,0.00073481,6.3232e-07,0,0.00073481,0.00013118,2.6512e+08,2.1653e+05,0,2.845e+08,14425,13103,12124,1,12124,1,1.7617e-05,6.4189e-10,0,0.00037146,-3.2472e-06,6.8276e+06,206.95,0,1.4564e+08,-1473.3,12123,11097,1,11097,1,-0.00069946,-4.5091e-07,0,8.8388e-06,-0.00013761,-2.845e+08,-1.5221e+05,0,3.6391e+06,-15656,11096,11634,1,11634,1,-0.00035379,-1.3043e-07,0,0.00018569,-7.2848e-05,-1.439e+08,-43256,0,7.3354e+07,-5978.2,11633,12614,1,12614,1,0.00038905,1.3904e-07,0,0.00055712,6.6374e-05,1.4596e+08,46053,0,2.1474e+08,3341.3,12613,567.13,0,567.13,0,0.00042855,2.2935e-07,0,0.00021458,8.0312e-05,1.6554e+08,76319,0,8.1845e+07,5720.4,567.13,1
1960,2.62,12124,1,12124,1,1.7832e-05,3.656e-08,0,0.00037267,-3.2663e-06,76.979,12028,0,1.4433e+08,1062.1,12123,13104,1,13104,1,0.00073783,6.168e-07,0,0.00073783,0.00013167,2.6595e+08,2.1043e+05,0,2.8558e+08,23156,13103,12124,1,12124,1,1.7845e-05,1.5757e-08,0,0.00037284,-3.2729e-06,6.9137e+06,5302.8,0,1.4614e+08,659.02,12123,11097,1,11097,1,-0.00070212,-4.5308e-07,0,8.7245e-06,-0.00013817,-2.8558e+08,-1.5263e+05,0,3.5932e+06,-14538,11096,11634,1,11634,1,-0.00035497,-1.0493e-07,0,0.00018641,-7.3143e-05,-1.4438e+08,-34351,0,7.3617e+07,-4738.4,11633,12614,1,12614,1,0.00039066,1.735e-07,0,0.00055925,6.6608e-05,1.4647e+08,57183,0,2.1546e+08,5449.9,12613,567.13,0,567.13,0,0.00043015,2.2653e-07,0,0.00021539,8.0614e-05,1.6608e+08,75423,0,8.2107e+07,7550.9,567.13,1
1960,2.63,12124,1,12124,1,1.8053e-05,-3.256e-08,0,0.00037422,-3.309e-06,3506.7,-10704,0,1.4487e+08,201.04,12123,13104,1,13104,1,0.00074121,4.9983e-07,0,0.00074121,0.00013217,2.6686e+08,1.7098e+05,0,2.8668e+08,13273,13103,12124,1,12124,1,1.8059e-05,-1.2595e-08,0,0.00037447,-3.3277e-06,6.9937e+06,-4210,0,1.467e+08,-155.44,12123,11097,1,11097,1,-0.00070482,-4.5766e-07,0,8.6354e-06,-0.0001388,-2.8668e+08,-1.5153e+05,0,3.5576e+06,-19041,11096,11634,1,11634,1,-0.00035631,-1.5411e-07,0,0.00018717,-7.3483e-05,-1.4492e+08,-51314,0,7.3897e+07,-3885.8,11633,12614,1,12614,1,0.00039249,6.8413e-08,0,0.00056156,6.6844e-05,1.4703e+08,22754,0,2.1627e+08,4501,12613,567.13,0,567.13,0,0.00043193,1.9063e-07,0,0.00021629,8.0944e-05,1.667e+08,63516,0,8.241e+07,5268.1,567.13,1
1960,2.64,12124,1,12124,1,1.825e-05,2.2954e-08,0,0.0003751,-3.3494e-06,2162.8,7574.9,0,1.4515e+08,-1607.5,12123,13104,1,13104,1,0.00074278,7.5715e-07,0,0.00074278,0.00013244,2.672e+08,2.543e+05,0,2.8725e+08,17596,13103,12124,1,12124,1,1.8268e-05,1.567e-09,0,0.00037529,-3.3623e-06,7.0717e+06,507.8,0,1.47e+08,-1113.7,12123,11097,1,11097,1,-0.00070622,-5.3393e-07,0,8.4782e-06,-0.00013909,-2.8725e+08,-1.7935e+05,0,3.4951e+06,-22277,11096,11634,1,11634,1,-0.00035698,-1.4193e-07,0,0.00018761,-7.3684e-05,-1.452e+08,-46416,0,7.4052e+07,-7831.1,11633,12614,1,12614,1,0.00039351,1.6688e-07,0,0.00056284,6.6977e-05,1.4733e+08,55438,0,2.1666e+08,4947.2,12613,567.13,0,567.13,0,0.00043295,2.5989e-07,0,0.00021681,8.1141e-05,1.6702e+08,86558,0,8.2561e+07,8048,567.13,1
1960,2.65,12124,1,12124,1,1.8433e-05,2.7364e-08,0,0.00037693,-3.3827e-06,452.47,8980.5,0,1.4582e+08,-1555.8,12123,13104,1,13104,1,0.00074659,6.3132e-07,0,0.00074659,0.00013309,2.6839e+08,2.1618e+05,0,2.8865e+08,11508,13103,12124,1,12124,1,1.8444e-05,1.136e-08,0,0.00037712,-3.4104e-06,7.1409e+06,3518.9,0,1.4769e+08,-1360.5,12123,11097,1,11097,1,-0.00070967,-4.3438e-07,0,8.4131e-06,-0.00013982,-2.8865e+08,-1.4698e+05,0,3.4703e+06,-22253,11096,11634,1,11634,1,-0.00035864,-1.095e-07,0,0.00018851,-7.4058e-05,-1.4587e+08,-36069,0,7.4394e+07,-6000.5,11633,12614,1,12614,1,0.00039553,1.5945e-07,0,0.00056562,6.7277e-05,1.4802e+08,52163,0,2.1765e+08,3440.9,12613,567.13,0,567.13,0,0.00043507,2.1965e-07,0,0.00021788,8.1531e-05,1.6779e+08,73108,0,8.294e+07,5976.3,567.13,1
1960,2.66,12124,1,12124,1,1.8671e-05,5.4682e-09,0,0.00037807,-3.4237e-06,2168.2,1776,0,1.4618e+08,-343.95,12123,13104,1,13104,1,0.00074907,7.5895e-07,0,0.00074907,0.00013342,2.689e+08,2.5451e+05,0,2.8939e+08,24745,13103,12124,1,12124,1,1.868e-05,-9.7369e-09,0,0.00037828,-3.4288e-06,7.2285e+06,-3012.8,0,1.4807e+08,-681.12,12123,11097,1,11097,1,-0.00071148,-5.386e-07,0,8.2826e-06,-0.00014027,-2.8939e+08,-1.8082e+05,0,3.4185e+06,-17382,11096,11634,1,11634,1,-0.00035949,-1.6014e-07,0,0.00018907,-7.4319e-05,-1.4622e+08,-53438,0,7.4591e+07,-6993.4,11633,12614,1,12614,1,0.00039692,1.3974e-07,0,0.00056725,6.745e-05,1.4841e+08,45418,0,2.1818e+08,4717.4,12613,567.13,0,567.13,0,0.00043637,2.6233e-07,0,0.00021855,8.1781e-05,1.682e+08,87273,0,8.3138e+07,8321.5,567.13,1
1960,2.67,12124,1,12124,1,1.8863e-05,3.6589e-08,0,0.00037993,-3.4597e-06,-6994.8,12137,0,1.4686e+08,-782.51,12123,13104,1,13104,1,0.00075272,6.2125e-07,0,0.00075272,0.00013409,2.7004e+08,2.1064e+05,0,2.9082e+08,12223,13103,12124,1,12124,1,1.8876e-05,1.5933e-08,0,0.00038011,-3.4788e-06,7.3061e+06,5012.6,0,1.4876e+08,-1042.1,12123,11097,1,11097,1,-0.000715,-4.2307e-07,0,8.1996e-06,-0.00014096,-2.9082e+08,-1.4017e+05,0,3.3863e+06,-14231,11096,11634,1,11634,1,-0.00036121,-9.5503e-08,0,0.00019002,-7.4697e-05,-1.4692e+08,-31292,0,7.4949e+07,-5172.9,11633,12614,1,12614,1,0.00039895,1.6538e-07,0,0.00057011,6.777e-05,1.491e+08,54060,0,2.1917e+08,4004.1,12613,567.13,0,567.13,0,0.00043853,2.1511e-07,0,0.00021964,8.2178e-05,1.6898e+08,71605,0,8.3517e+07,5953.1,567.13,1
1960,2.68,12124,1,12124,1,1.9121e-05,1.9988e-09,0,0.00038087,-3.5075e-06,2927.7,667.7,0,1.4714e+08,-947.78,12123,13104,1,13104,1,0.00075489,7.1025e-07,0,0.00075489,0.00013435,2.7043e+08,2.3879e+05,0,2.9139e+08,15116,13103,12124,1,12124,1,1.913e-05,-4.8933e-09,0,0.00038108,-3.533e-06,7.4001e+06,-1503.6,0,1.4906e+08,-698.14,12123,11097,1,11097,1,-0.0007164,-5.5442e-07,0,8.0368e-06,-0.00014136,-2.9139e+08,-1.8586e+05,0,3.3213e+06,-19048,11096,11634,1,11634,1,-0.00036185,-1.5442e-07,0,0.00019047,-7.4924e-05,-1.4718e+08,-49829,0,7.5103e+07,-6687.4,11633,12614,1,12614,1,0.00040018,1.4382e-07,0,0.00057146,6.7893e-05,1.4941e+08,46637,0,2.1958e+08,5094.7,12613,567.13,0,567.13,0,0.00043962,2.4955e-07,0,0.0002202,8.2386e-05,1.693e+08,83091,0,8.3673e+07,6993.6,567.13,1
1960,2.69,12124,1,12124,1,1.933e-05,-3.3247e-08,0,0.00038318,-3.5463e-06,-3721.5,-11071,0,1.4799e+08,-1234.7,12123,13104,1,13104,1,0.00075984,5.3072e-07,0,0.00075984,0.00013519,2.7198e+08,1.7619e+05,0,2.9321e+08,12366,13103,12124,1,12124,1,1.9345e-05,-1.9193e-08,0,0.00038347,-3.5615e-06,7.484e+06,-6300.7,0,1.4995e+08,-1129.2,12123,11097,1,11097,1,-0.00072087,-4.3163e-07,0,7.9555e-06,-0.00014228,-2.9321e+08,-1.4633e+05,0,3.2909e+06,-13622,11096,11634,1,11634,1,-0.00036399,-1.5392e-07,0,0.00019162,-7.5402e-05,-1.4805e+08,-51149,0,7.5541e+07,-4962.5,11633,12614,1,12614,1,0.00040277,6.7771e-08,0,0.00057501,6.8284e-05,1.5029e+08,21862,0,2.2088e+08,2471.7,12613,567.13,0,567.13,0,0.00044228,1.9466e-07,0,0.00022155,8.288e-05,1.7028e+08,64786,0,8.4153e+07,4836.2,567.13,1
1960,2.7,12124,1,12124,1,1.962e-05,-2.8005e-08,0,0.00038436,-3.5991e-06,-2275.5,-9295,0,1.4836e+08,-1064.4,12123,13104,1,13104,1,0.0007623,5.0716e-07,0,0.0007623,0.00013554,2.7244e+08,1.7345e+05,0,2.9397e+08,8765.9,13103,12124,1,12124,1,1.963e-05,-6.3736e-09,0,0.00038464,-3.6272e-06,7.5931e+06,-1978,0,1.5033e+08,-733.47,12123,11097,1,11097,1,-0.00072276,-4.9837e-07,0,7.761e-06,-0.00014274,-2.9397e+08,-1.6736e+05,0,3.2132e+06,-24802,11096,11634,1,11634,1,-0.00036487,-1.466e-07,0,0.00019221,-7.5677e-05,-1.4841e+08,-48386,0,7.5743e+07,-5022.3,11633,12614,1,12614,1,0.00040423,8.1355e-08,0,0.00057676,6.8457e-05,1.5068e+08,26426,0,2.2139e+08,3667.8,12613,567.13,0,567.13,0,0.00044365,1.9688e-07,0,0.00022225,8.3136e-05,1.7069e+08,65557,0,8.435e+07,5633.3,567.13,1
1960,2.71,12124,1,12124,1,1.9828e-05,-1.592e-08,0,0.000386,-3.6333e-06,-5771.4,-5270.6,0,1.4893e+08,578.07,12123,13104,1,13104,1,0.00076569,6.0519e-07,0,0.00076569,0.00013609,2.7341e+08,2.0207e+05,0,2.9517e+08,19142,13103,12124,1,12124,1,1.9837e-05,-2.0521e-08,0,0.00038625,-3.6432e-06,7.6714e+06,-6472.8,0,1.5092e+08,406.87,12123,11097,1,11097,1,-0.0007257,-4.3947e-07,0,7.67e-06,-0.00014337,-2.9517e+08,-1.4574e+05,0,3.1779e+06,-18253,11096,11634,1,11634,1,-0.00036629,-1.6535e-07,0,0.00019303,-7.6014e-05,-1.4898e+08,-53670,0,7.6046e+07,-3623.8,11633,12614,1,12614,1,0.00040605,9.0669e-08,0,0.00057919,6.8718e-05,1.5127e+08,30322,0,2.2224e+08,4707,12613,567.13,0,567.13,0,0.00044554,2.1949e-07,0,0.00022321,8.3492e-05,1.7135e+08,72885,0,8.4674e+07,6625.5,567.13,1
1960,2.72,12124,1,12124,1,2.0065e-05,-3.4231e-08,0,0.00038702,-3.6799e-06,-1863.6,-11282,0,1.4926e+08,-699.11,12123,13104,1,13104,1,0.00076792,4.7441e-07,0,0.00076792,0.00013642,2.7389e+08,1.6225e+05,0,2.9589e+08,12828,13103,12124,1,12124,1,2.0081e-05,-1.2519e-08,0,0.0003873,-3.6947e-06,7.7632e+06,-3891.4,0,1.5128e+08,-719.75,12123,11097,1,11097,1,-0.00072747,-5.3554e-07,0,7.5045e-06,-0.00014379,-2.9589e+08,-1.7949e+05,0,3.1118e+06,-18893,11096,11634,1,11634,1,-0.00036709,-1.5848e-07,0,0.00019355,-7.6262e-05,-1.4931e+08,-52889,0,7.6225e+07,-5539.1,11633,12614,1,12614,1,0.00040735,8.542e-08,0,0.00058076,6.8874e-05,1.5163e+08,27753,0,2.2273e+08,4255.7,12613,567.13,0,567.13,0,0.00044672,2.0551e-07,0,0.00022382,8.3712e-05,1.7172e+08,68466,0,8.4851e+07,5731.1,567.13,1
1960,2.73,12124,1,12124,1,2.0239e-05,-1.7587e-08,0,0.00038812,-3.7073e-06,-1920.8,-5882.7,0,1.4963e+08,1181.1,12123,13104,1,13104,1,0.00077045,7.4986e-07,0,0.00077045,0.00013683,2.7457e+08,2.5021e+05,0,2.9677e+08,28436,13103,12124,1,12124,1,2.0243e-05,-1.6149e-08,0,0.00038842,-3.7128e-06,7.8249e+06,-5380.7,0,1.5167e+08,737.3,12123,11097,1,11097,1,-0.00072963,-6.1999e-07,0,7.4234e-06,-0.00014426,-2.9677e+08,-2.081e+05,0,3.0788e+06,-14295,11096,11634,1,11634,1,-0.00036803,-2.0924e-07,0,0.0001941,-7.6497e-05,-1.4969e+08,-69071,0,7.6429e+07,-4565.8,11633,12614,1,12614,1,0.00040863,1.4724e-07,0,0.00058242,6.9064e-05,1.5203e+08,47490,0,2.2328e+08,6888.4,12613,567.13,0,567.13,0,0.00044798,2.885e-07,0,0.00022446,8.3952e-05,1.7215e+08,95808,0,8.506e+07,7178.6,567.13,1
1960,2.74,12124,1,12124,1,2.0441e-05,-3.016e-08,0,0.00038958,-3.7392e-06,-2156.6,-10053,0,1.5014e+08,3268.9,12123,13104,1,13104,1,0.00077338,6.6989e-07,0,0.00077338,0.0001373,2.7538e+08,2.2263e+05,0,2.9779e+08,27991,13103,12124,1,12124,1,2.0451e-05,-1.9119e-08,0,0.0003899,-3.7442e-06,7.9035e+06,-6240.2,0,1.5221e+08,2070.5,12123,11097,1,11097,1,-0.00073214,-5.6088e-07,0,7.296e-06,-0.00014481,-2.9779e+08,-1.8862e+05,0,3.03e+06,-16443,11096,11634,1,11634,1,-0.00036929,-1.7377e-07,0,0.00019481,-7.6806e-05,-1.502e+08,-57283,0,7.6691e+07,-3674.5,11633,12614,1,12614,1,0.0004103,8.6502e-08,0,0.0005846,6.9288e-05,1.5256e+08,27901,0,2.2404e+08,7346.8,12613,567.13,0,567.13,0,0.00044966,2.3527e-07,0,0.00022531,8.4266e-05,1.7274e+08,78196,0,8.5346e+07,8800.5,567.13,1
1960,2.75,12124,1,12124,1,2.1247e-05,1.9176e-09,0,0.00039342,-3.8943e-06,170.39,595.16,0,1.5138e+08,-1626,12123,13104,1,13104,1,0.00078025,3.9551e-08,0,0.00078025,0.00013833,2.7718e+08,12212,0,3e+08,176.58,13103,12124,1,12124,1,2.1276e-05,2.0209e-09,0,0.0003935,-3.9137e-06,8.1724e+06,659.62,0,1.534e+08,-1636,12123,11097,1,11097,1,-0.00073758,-3.3723e-08,0,6.7637e-06,-0.0001461,-3e+08,-11095,0,2.8302e+06,-4066.2,11096,11634,1,11634,1,-0.00037217,-7.841e-09,0,0.00019669,-7.762e-05,-1.5137e+08,-2564.4,0,7.7263e+07,-2648,11633,12614,1,12614,1,0.00041471,1.1607e-08,0,0.0005901,6.9816e-05,1.5374e+08,3815,0,2.2584e+08,-530.08,12613,567.13,0,567.13,0,0.0004541,1.5187e-08,0,0.00022761,8.5089e-05,1.7419e+08,4969.8,0,8.6103e+07,1148.9,567.13,1
1960,2.76,12124,1,12124,1,2.1744e-05,1.1373e-10,0,0.00039513,-3.9826e-06,4.2806,28.512,0,1.5187e+08,-338.8,12123,13104,1,13104,1,0.00078386,8.7767e-09,0,0.00078386,0.00013884,2.7777e+08,3005.8,0,3.0112e+08,51.942,13103,12124,1,12124,1,2.1751e-05,1.451e-10,0,0.00039515,-3.9977e-06,8.3532e+06,49.247,0,1.5394e+08,-322.61,12123,11097,1,11097,1,-0.00074032,-7.531e-09,0,6.4539e-06,-0.00014677,-3.0112e+08,-2579.2,0,2.7077e+06,-919.62,11096,11634,1,11634,1,-0.00037338,-2.1743e-09,0,0.00019756,-7.802e-05,-1.5187e+08,-718.19,0,7.7553e+07,-532.76,11633,12614,1,12614,1,0.00041689,2.1676e-09,0,0.00059268,7.0047e-05,1.5429e+08,702.09,0,2.2655e+08,-101.09,12613,567.13,0,567.13,0,0.00045608,3.3012e-09,0,0.00022864,8.5457e-05,1.7475e+08,1095,0,8.6365e+07,246.54,567.13,1
1960,2.77,12124,1,12124,1,2.2067e-05,-1.5394e-09,0,0.00039665,-4.0409e-06,121.66,-512.33,0,1.5236e+08,-66.814,12123,13104,1,13104,1,0.00078708,1.6142e-09,0,0.00078708,0.00013933,2.7852e+08,552.69,0,3.0218e+08,171.84,13103,12124,1,12124,1,2.2064e-05,-1.3193e-09,0,0.00039666,-4.0543e-06,8.4684e+06,-420.46,0,1.5445e+08,-58.382,12123,11097,1,11097,1,-0.00074292,-5.6791e-09,0,6.2581e-06,-0.00014737,-3.0218e+08,-1865.6,0,2.6313e+06,-501.88,11096,11634,1,11634,1,-0.00037458,-2.7193e-09,0,0.00019831,-7.836e-05,-1.5236e+08,-913.13,0,7.7811e+07,-126.58,11633,12614,1,12614,1,0.00041871,-3.4115e-10,0,0.00059496,7.0272e-05,1.548e+08,-106.93,0,2.2727e+08,12.408,12613,567.13,0,567.13,0,0.00045783,1.6143e-09,0,0.00022954,8.5785e-05,1.7531e+08,542.21,0,8.6639e+07,119.18,567.13,1
1960,2.78,12124,1,12124,1,2.2336e-05,-8.4733e-10,0,0.00039811,-4.0899e-06,531.03,-283.13,0,1.5285e+08,-38.808,12123,13104,1,13104,1,0.00079015,3.5268e-09,0,0.00079015,0.00013981,2.7928e+08,1207.7,0,3.0321e+08,187.48,13103,12124,1,12124,1,2.2334e-05,-5.8959e-10,0,0.00039812,-4.1039e-06,8.5684e+06,-186.42,0,1.5496e+08,-22.019,12123,11097,1,11097,1,-0.00074547,-4.498e-09,0,6.0953e-06,-0.00014794,-3.0321e+08,-1487.6,0,2.5678e+06,-374.59,11096,11634,1,11634,1,-0.00037577,-2.1816e-09,0,0.00019905,-7.8683e-05,-1.5284e+08,-726.29,0,7.8071e+07,-95.437,11633,12614,1,12614,1,0.00042044,3.8519e-10,0,0.00059716,7.0497e-05,1.5532e+08,120.96,0,2.2799e+08,29.583,12613,567.13,0,567.13,0,0.00045952,1.7114e-09,0,0.00023041,8.6101e-05,1.7586e+08,568.76,0,8.691e+07,99.975,567.13,1
1960,2.79,12124,1,12124,1,2.259e-05,-7.5151e-10,0,0.00039957,-4.1363e-06,121.05,-250.44,0,1.5334e+08,-20.488,12123,13104,1,13104,1,0.00079322,2.9558e-09,0,0.00079322,0.00014029,2.8007e+08,1012.2,0,3.0425e+08,162.47,13103,12124,1,12124,1,2.2589e-05,-4.1791e-10,0,0.00039958,-4.1511e-06,8.6635e+06,-135.19,0,1.5547e+08,-16.326,12123,11097,1,11097,1,-0.00074803,-4.2097e-09,0,5.9471e-06,-0.00014852,-3.0425e+08,-1395.7,0,2.5099e+06,-275.37,11096,11634,1,11634,1,-0.00037698,-1.8701e-09,0,0.00019978,-7.9003e-05,-1.5333e+08,-619.4,0,7.8334e+07,-65.519,11633,12614,1,12614,1,0.00042216,3.4597e-10,0,0.00059936,7.0724e-05,1.5583e+08,109.22,0,2.2871e+08,33.701,12613,567.13,0,567.13,0,0.00046121,1.5898e-09,0,0.00023127,8.6417e-05,1.7642e+08,528.68,0,8.7184e+07,84.516,567.13,1
1960,2.8,12124,1,12124,1,2.2845e-05,-1.3897e-09,0,0.00040102,-4.183e-06,-142,-458.78,0,1.5382e+08,-3.0648,12123,13104,1,13104,1,0.00079628,3.6395e-09,0,0.00079628,0.00014077,2.8084e+08,1246.3,0,3.0529e+08,189.27,13103,12124,1,12124,1,2.2844e-05,-8.7547e-10,0,0.00040103,-4.1981e-06,8.7586e+06,-279.59,0,1.5598e+08,-3.8905,12123,11097,1,11097,1,-0.00075058,-6.8882e-09,0,5.7973e-06,-0.00014909,-3.0529e+08,-2267.7,0,2.4514e+06,-171.43,11096,11634,1,11634,1,-0.00037818,-3.0957e-09,0,0.00020051,-7.9321e-05,-1.5382e+08,-1023.8,0,7.8594e+07,-65.143,11633,12614,1,12614,1,0.00042387,3.4112e-10,0,0.00060153,7.0949e-05,1.5634e+08,112.21,0,2.2943e+08,52.423,12613,567.13,0,567.13,0,0.00046288,2.459e-09,0,0.00023212,8.673e-05,1.7698e+08,814.21,0,8.7455e+07,82.873,567.13,1
1960,2.81,12124,1,12124,1,2.3102e-05,-1.3888e-09,0,0.00040249,-4.2301e-06,-28.271,-458.34,0,1.5432e+08,-14.905,12123,13104,1,13104,1,0.00079935,9.1623e-10,0,0.00079935,0.00014125,2.8162e+08,280.14,0,3.0633e+08,89.299,13103,12124,1,12124,1,2.3102e-05,-1.198e-09,0,0.00040249,-4.2457e-06,8.8547e+06,-392.61,0,1.5649e+08,-13.466,12123,11097,1,11097,1,-0.00075314,-4.7258e-09,0,5.6455e-06,-0.00014966,-3.0633e+08,-1564.8,0,2.3922e+06,-160.55,11096,11634,1,11634,1,-0.00037939,-2.4526e-09,0,0.00020124,-7.9642e-05,-1.5431e+08,-804.44,0,7.8856e+07,-42.174,11633,12614,1,12614,1,0.00042559,-1.6845e-10,0,0.00060373,7.1175e-05,1.5686e+08,-53.274,0,2.3015e+08,18.412,12613,567.13,0,567.13,0,0.00046457,1.4151e-09,0,0.00023299,8.7046e-05,1.7754e+08,470.24,0,8.7729e+07,49.5,567.13,1
1960,2.82,12124,1,12124,1,2.3361e-05,-1.8183e-10,0,0.00040395,-4.2776e-06,-61.309,-61.855,0,1.5481e+08,-14.727,12123,13104,1,13104,1,0.00080242,3.7655e-10,0,0.00080242,0.00014173,2.8239e+08,115.36,0,3.0737e+08,41.438,13103,12124,1,12124,1,2.3361e-05,-1.7467e-10,0,0.00040395,-4.2939e-06,8.9518e+06,-58.125,0,1.5701e+08,-9.7043,12123,11097,1,11097,1,-0.00075569,-1.3891e-09,0,5.4912e-06,-0.00015023,-3.0737e+08,-466.77,0,2.332e+06,-355.04,11096,11634,1,11634,1,-0.00038059,-4.0274e-10,0,0.00020198,-7.9964e-05,-1.548e+08,-135.04,0,7.9118e+07,-24.898,11633,12614,1,12614,1,0.00042731,5.0118e-11,0,0.00060593,7.1402e-05,1.5738e+08,15.947,0,2.3088e+08,0.50492,12613,567.13,0,567.13,0,0.00046627,2.8291e-10,0,0.00023386,8.7363e-05,1.7811e+08,92.617,0,8.8003e+07,22.983,567.13,1
1960,2.83,12124,1,12124,1,2.3622e-05,-7.1261e-10,0,0.0004054,-4.3254e-06,-2.9514,-234.66,0,1.5529e+08,-2.715,12123,13104,1,13104,1,0.00080549,1.5485e-09,0,0.00080549,0.00014221,2.8315e+08,507.15,0,3.0841e+08,109.78,13103,12124,1,12124,1,2.3622e-05,-5.3757e-10,0,0.00040541,-4.3428e-06,9.0492e+06,-174.2,0,1.5751e+08,-4.0969,12123,11097,1,11097,1,-0.00075824,-3.2364e-09,0,5.3351e-06,-0.00015081,-3.0841e+08,-1059.8,0,2.2711e+06,-850.01,11096,11634,1,11634,1,-0.00038178,-1.5382e-09,0,0.0002027,-8.0283e-05,-1.5528e+08,-500.93,0,7.9378e+07,-28.389,11633,12614,1,12614,1,0.00042903,1.8171e-10,0,0.00060811,7.1626e-05,1.5789e+08,57.637,0,2.3159e+08,24.594,12613,567.13,0,567.13,0,0.00046794,1.1194e-09,0,0.00023471,8.7676e-05,1.7866e+08,368.25,0,8.8273e+07,52.206,567.13,1
1960,2.84,12124,1,12124,1,2.3882e-05,-1.1794e-10,0,0.00040685,-4.373e-06,50.189,-39.579,0,1.5577e+08,6.122,12123,13104,1,13104,1,0.00080854,7.6091e-09,0,0.00080854,0.00014268,2.8392e+08,2490.3,0,3.0944e+08,270.25,13103,12124,1,12124,1,2.3882e-05,3.274e-11,0,0.00040685,-4.391e-06,9.1466e+06,10.544,0,1.5802e+08,-10.089,12123,11097,1,11097,1,-0.00076077,-6.3884e-09,0,5.1771e-06,-0.00015138,-3.0944e+08,-2091.2,0,2.2097e+06,-862.98,11096,11634,1,11634,1,-0.00038297,-2.3351e-09,0,0.00020342,-8.0601e-05,-1.5577e+08,-756.18,0,7.9636e+07,-57.936,11633,12614,1,12614,1,0.00043073,1.7321e-09,0,0.00061027,7.1848e-05,1.584e+08,566.41,0,2.323e+08,90.389,12613,567.13,0,567.13,0,0.00046961,3.1646e-09,0,0.00023557,8.7988e-05,1.7921e+08,1040.8,0,8.8542e+07,122.44,567.13,1
1960,2.85,12124,1,12124,1,2.4146e-05,-2.5655e-10,0,0.00040832,-4.4213e-06,3.7548,-84.975,0,1.5626e+08,-15.329,12123,13104,1,13104,1,0.00081163,2.6252e-09,0,0.00081163,0.00014316,2.8468e+08,898.49,0,3.1048e+08,92.38,13103,12124,1,12124,1,2.4146e-05,-1.0654e-10,0,0.00040832,-4.4397e-06,9.2451e+06,-32.819,0,1.5853e+08,-15.175,12123,11097,1,11097,1,-0.00076333,-2.4065e-09,0,5.0183e-06,-0.00015195,-3.1048e+08,-804.59,0,2.1477e+06,-681.66,11096,11634,1,11634,1,-0.00038417,-9.2205e-10,0,0.00020416,-8.0923e-05,-1.5626e+08,-301.34,0,7.9898e+07,-38.88,11633,12614,1,12614,1,0.00043246,3.0774e-10,0,0.00061247,7.2074e-05,1.5891e+08,96.76,0,2.3302e+08,20.422,12613,567.13,0,567.13,0,0.0004713,1.032e-09,0,0.00023644,8.8305e-05,1.7977e+08,342.69,0,8.8815e+07,63.459,567.13,1
1960,2.86,12124,1,12124,1,2.4412e-05,-9.9022e-10,0,0.00040977,-4.4701e-06,-197.15,-325.42,0,1.5675e+08,7.0705,12123,13104,1,13104,1,0.00081471,4.589e-09,0,0.00081471,0.00014364,2.8545e+08,1501.1,0,3.1151e+08,174.41,13103,12124,1,12124,1,2.4412e-05,-6.4752e-10,0,0.00040977,-4.4889e-06,9.3444e+06,-207.29,0,1.5904e+08,2.9946,12123,11097,1,11097,1,-0.00076588,-5.8912e-09,0,4.8565e-06,-0.00015253,-3.1151e+08,-1927,0,2.0847e+06,-577.22,11096,11634,1,11634,1,-0.00038536,-2.6897e-09,0,0.00020489,-8.1245e-05,-1.5674e+08,-883.91,0,8.0157e+07,-47.284,11633,12614,1,12614,1,0.00043418,4.9008e-10,0,0.00061466,7.2298e-05,1.5942e+08,159.55,0,2.3373e+08,78.467,12613,567.13,0,567.13,0,0.00047298,2.2872e-09,0,0.0002373,8.8618e-05,1.8033e+08,753.27,0,8.9084e+07,97.056,567.13,1
1960,2.87,12124,1,12124,1,2.468e-05,-7.5293e-10,0,0.00041124,-4.5193e-06,-64.196,-249.27,0,1.5723e+08,-25.407,12123,13104,1,13104,1,0.0008178,6.341e-10,0,0.0008178,0.00014412,2.8621e+08,209.26,0,3.1255e+08,61.117,13103,12124,1,12124,1,2.468e-05,-7.3789e-10,0,0.00041124,-4.5384e-06,9.4447e+06,-242.88,0,1.5955e+08,-16.154,12123,11097,1,11097,1,-0.00076844,-2.5641e-09,0,4.6925e-06,-0.00015311,-3.1255e+08,-843.57,0,2.0207e+06,-433.58,11096,11634,1,11634,1,-0.00038656,-1.2473e-09,0,0.00020562,-8.1568e-05,-1.5723e+08,-415.64,0,8.0419e+07,-38.612,11633,12614,1,12614,1,0.00043592,-2.0759e-10,0,0.00061686,7.2523e-05,1.5994e+08,-66.282,0,2.3445e+08,6.6293,12613,567.13,0,567.13,0,0.00047468,7.1406e-10,0,0.00023817,8.8936e-05,1.8089e+08,237.57,0,8.9357e+07,63.432,567.13,1
1960,2.88,12124,1,12124,1,2.4952e-05,-5.3522e-10,0,0.00041269,-4.569e-06,-18.14,-176.67,0,1.5772e+08,-9.7521,12123,13104,1,13104,1,0.00082088,1.9652e-09,0,0.00082088,0.00014459,2.8696e+08,651.96,0,3.1359e+08,137.21,13103,12124,1,12124,1,2.4952e-05,-1.053e-10,0,0.0004127,-4.5886e-06,9.5461e+06,-34.91,0,1.6006e+08,-16.183,12123,11097,1,11097,1,-0.00077098,-3.9643e-09,0,4.5249e-06,-0.00015368,-3.1359e+08,-1295.8,0,1.9554e+06,-307.21,11096,11634,1,11634,1,-0.00038774,-1.417e-09,0,0.00020635,-8.189e-05,-1.5771e+08,-461.05,0,8.0678e+07,-40.271,11633,12614,1,12614,1,0.00043765,4.2371e-10,0,0.00061904,7.2746e-05,1.6045e+08,138.08,0,2.3516e+08,26.059,12613,567.13,0,567.13,0,0.00047636,1.3968e-09,0,0.00023903,8.925e-05,1.8144e+08,459.08,0,8.9625e+07,58.119,567.13,1
1960,2.89,12124,1,12124,1,2.5224e-05,2.9637e-10,0,0.00041416,-4.6188e-06,-26.729,95.319,0,1.582e+08,-14.082,12123,13104,1,13104,1,0.00082396,1.6032e-09,0,0.00082396,0.00014507,2.8772e+08,525.87,0,3.1462e+08,73.896,13103,12124,1,12124,1,2.5224e-05,2.3588e-10,0,0.00041416,-4.6388e-06,9.6477e+06,73.675,0,1.6056e+08,-15.419,12123,11097,1,11097,1,-0.00077351,-8.0169e-10,0,4.3567e-06,-0.00015425,-3.1462e+08,-272.1,0,1.8899e+06,-186.02,11096,11634,1,11634,1,-0.00038893,-8.7941e-11,0,0.00020708,-8.2213e-05,-1.5819e+08,-28.171,0,8.0938e+07,-35.18,11633,12614,1,12614,1,0.00043938,7.4765e-10,0,0.00062123,7.2969e-05,1.6096e+08,241.03,0,2.3587e+08,14.979,12613,567.13,0,567.13,0,0.00047804,5.8578e-10,0,0.00023989,8.9566e-05,1.8199e+08,193.29,0,8.9895e+07,39.889,567.13,1
1960,2.9,12124,1,12124,1,2.5499e-05,8.8445e-10,0,0.00041562,-4.6691e-06,-40.658,289.22,0,1.5868e+08,-5.2509,12123,13104,1,13104,1,0.00082706,2.2025e-09,0,0.00082706,0.00014555,2.8847e+08,714.16,0,3.1565e+08,100.61,13103,12124,1,12124,1,2.5498e-05,9.426e-10,0,0.00041562,-4.6894e-06,9.7501e+06,309.77,0,1.6107e+08,-5.1092,12123,11097,1,11097,1,-0.00077606,-5.1834e-10,0,4.1869e-06,-0.00015483,-3.1565e+08,-177.53,0,1.8239e+06,-112.89,11096,11634,1,11634,1,-0.00039012,3.8697e-10,0,0.00020781,-8.2537e-05,-1.5868e+08,126.14,0,8.1197e+07,-24.979,11633,12614,1,12614,1,0.00044112,1.3962e-09,0,0.00062343,7.3192e-05,1.6147e+08,457.22,0,2.3658e+08,16.646,12613,567.13,0,567.13,0,0.00047973,6.5062e-10,0,0.00024076,8.9881e-05,1.8255e+08,213.35,0,9.0165e+07,32.037,567.13,1
1960,2.91,12124,1,12124,1,2.5777e-05,1.1527e-09,0,0.00041707,-4.72e-06,12.468,378.14,0,1.5916e+08,-9.6738,12123,13104,1,13104,1,0.00083015,3.3122e-09,0,0.00083015,0.00014602,2.8922e+08,1108.2,0,3.1668e+08,82.617,13103,12124,1,12124,1,2.5776e-05,1.1513e-09,0,0.00041708,-4.7407e-06,9.8532e+06,381.28,0,1.6158e+08,-4.2256,12123,11097,1,11097,1,-0.00077859,-3.5842e-10,0,4.014e-06,-0.00015541,-3.1668e+08,-105.29,0,1.7566e+06,-250.34,11096,11634,1,11634,1,-0.0003913,5.8791e-10,0,0.00020854,-8.286e-05,-1.5915e+08,186.41,0,8.1454e+07,-22.08,11633,12614,1,12614,1,0.00044285,1.6032e-09,0,0.00062561,7.3413e-05,1.6198e+08,525.15,0,2.3729e+08,11.338,12613,567.13,0,567.13,0,0.00048141,7.7236e-10,0,0.00024162,9.0196e-05,1.8309e+08,256.36,0,9.0432e+07,40.009,567.13,1
1960,2.92,12124,1,12124,1,2.6054e-05,-1.0938e-09,0,0.00041854,-4.7709e-06,33.608,-356.67,0,1.5964e+08,-16.226,12123,13104,1,13104,1,0.00083324,4.8172e-10,0,0.00083324,0.0001465,2.8997e+08,164.99,0,3.1772e+08,96.956,13103,12124,1,12124,1,2.6054e-05,-1.1538e-09,0,0.00041854,-4.7921e-06,9.9568e+06,-372.43,0,1.6208e+08,-9.1714,12123,11097,1,11097,1,-0.00078113,-3.1151e-09,0,3.8405e-06,-0.00015599,-3.1772e+08,-1042.2,0,1.6891e+06,-433.49,11096,11634,1,11634,1,-0.00039248,-1.6097e-09,0,0.00020927,-8.3184e-05,-1.5964e+08,-528.35,0,8.1713e+07,-30.582,11633,12614,1,12614,1,0.00044459,-5.219e-10,0,0.00062781,7.3636e-05,1.6249e+08,-164.82,0,2.38e+08,10.782,12613,567.13,0,567.13,0,0.0004831,7.7436e-10,0,0.00024249,9.0511e-05,1.8365e+08,253.91,0,9.0701e+07,59.398,567.13,1
1960,2.93,12124,1,12124,1,2.6335e-05,1.5954e-09,0,0.00041999,-4.8223e-06,-110.96,520.77,0,1.6012e+08,-1.1959,12123,13104,1,13104,1,0.00083634,4.4853e-09,0,0.00083634,0.00014698,2.9071e+08,1500.2,0,3.1875e+08,89.523,13103,12124,1,12124,1,2.6336e-05,1.536e-09,0,0.00041999,-4.8439e-06,1.0061e+07,497.02,0,1.6258e+08,5.6449,12123,11097,1,11097,1,-0.00078367,-3.4722e-10,0,3.6634e-06,-0.00015656,-3.1875e+08,-118.92,0,1.6203e+06,-536.81,11096,11634,1,11634,1,-0.00039366,7.5202e-10,0,0.00021,-8.3508e-05,-1.6011e+08,238.67,0,8.1971e+07,-12,11633,12614,1,12614,1,0.00044633,2.4109e-09,0,0.00062999,7.3857e-05,1.6299e+08,789.11,0,2.387e+08,23.685,12613,567.13,0,567.13,0,0.00048478,1.0928e-09,0,0.00024336,9.0826e-05,1.8419e+08,359.41,0,9.0967e+07,66.503,567.13,1
1960,2.94,12124,1,12124,1,2.6618e-05,-6.7865e-10,0,0.00042145,-4.874e-06,-102.41,-220.08,0,1.606e+08,8.5423,12123,13104,1,13104,1,0.00083943,2.8557e-09,0,0.00083943,0.00014745,2.9145e+08,955.06,0,3.1977e+08,123.46,13103,12124,1,12124,1,2.6618e-05,-3.8841e-10,0,0.00042145,-4.896e-06,1.0166e+07,-122.6,0,1.6309e+08,8.4315,12123,11097,1,11097,1,-0.00078619,-4.1512e-09,0,3.4851e-06,-0.00015714,-3.1977e+08,-1388.3,0,1.5511e+06,-718.23,11096,11634,1,11634,1,-0.00039483,-1.5628e-09,0,0.00021073,-8.3832e-05,-1.6059e+08,-504.43,0,8.2228e+07,-14.427,11633,12614,1,12614,1,0.00044807,2.2744e-10,0,0.00063218,7.4078e-05,1.635e+08,75.237,0,2.394e+08,43.166,12613,567.13,0,567.13,0,0.00048646,1.2841e-09,0,0.00024422,9.114e-05,1.8474e+08,420.93,0,9.1234e+07,77.417,567.13,1
1960,2.95,12124,1,12124,1,2.6902e-05,-1.0112e-09,0,0.00042291,-4.926e-06,-206.03,-330.93,0,1.6108e+08,7.6641,12123,13104,1,13104,1,0.00084254,2.5429e-09,0,0.00084254,0.00014793,2.9219e+08,850.29,0,3.2081e+08,123.69,13103,12124,1,12124,1,2.6902e-05,-6.9139e-10,0,0.00042292,-4.9487e-06,1.0272e+07,-226.77,0,1.6359e+08,9.8936,12123,11097,1,11097,1,-0.00078873,-4.6188e-09,0,3.3052e-06,-0.00015772,-3.2081e+08,-1544.5,0,1.4812e+06,-880.63,11096,11634,1,11634,1,-0.00039601,-2.071e-09,0,0.00021146,-8.4158e-05,-1.6107e+08,-675.13,0,8.2486e+07,-20.089,11633,12614,1,12614,1,0.00044982,1.2248e-10,0,0.00063437,7.4299e-05,1.64e+08,39.439,0,2.4011e+08,44.492,12613,567.13,0,567.13,0,0.00048815,1.3924e-09,0,0.00024509,9.1456e-05,1.8529e+08,458.01,0,9.1501e+07,75.433,567.13,1
1960,2.96,12124,1,12124,1,2.719e-05,-9.1225e-10,0,0.00042438,-4.9788e-06,20.359,-299.46,0,1.6156e+08,-6.5368,12123,13104,1,13104,1,0.00084565,2.2346e-09,0,0.00084565,0.0001484,2.9293e+08,747.07,0,3.2184e+08,105.49,13103,12124,1,12124,1,2.719e-05,-7.0282e-10,0,0.00042438,-5.0017e-06,1.0379e+07,-221,0,1.641e+08,-8.3567,12123,11097,1,11097,1,-0.00079127,-3.7357e-09,0,3.1214e-06,-0.0001583,-3.2184e+08,-1221.1,0,1.4097e+06,-916.99,11096,11634,1,11634,1,-0.00039719,-1.8265e-09,0,0.00021219,-8.4485e-05,-1.6155e+08,-599.76,0,8.2743e+07,-39.561,11633,12614,1,12614,1,0.00045157,1.4778e-10,0,0.00063657,7.452e-05,1.6451e+08,48.037,0,2.4081e+08,29.886,12613,567.13,0,567.13,0,0.00048984,1.2209e-09,0,0.00024596,9.1772e-05,1.8584e+08,402.05,0,9.1768e+07,55.349,567.13,1
1960,2.97,12124,1,12124,1,2.748e-05,1.2703e-09,0,0.00042583,-5.0318e-06,15.918,412.84,0,1.6203e+08,6.8012,12123,13104,1,13104,1,0.00084874,5.698e-09,0,0.00084874,0.00014887,2.9366e+08,1856.2,0,3.2286e+08,210.44,13103,12124,1,12124,1,2.748e-05,9.798e-10,0,0.00042583,-5.0539e-06,1.0487e+07,319.34,0,1.646e+08,1.4742,12123,11097,1,11097,1,-0.00079378,-6.2424e-10,0,2.9357e-06,-0.00015888,-3.2286e+08,-213.81,0,1.3375e+06,-154.73,11096,11634,1,11634,1,-0.00039835,2.3979e-10,0,0.00021292,-8.481e-05,-1.6202e+08,79.604,0,8.2999e+07,-20.063,11633,12614,1,12614,1,0.00045331,1.9068e-09,0,0.00063875,7.4739e-05,1.6501e+08,617.6,0,2.4151e+08,24.547,12613,567.13,0,567.13,0,0.00049152,1.3166e-09,0,0.00024682,9.2086e-05,1.8638e+08,431.15,0,9.2033e+07,60.558,567.13,1
1960,2.98,12124,1,12124,1,2.7771e-05,-6.5e-10,0,0.0004273,-5.0851e-06,47.878,-210.78,0,1.6251e+08,-8.1232,12123,13104,1,13104,1,0.00085186,6.253e-10,0,0.00085186,0.00014935,2.9439e+08,214.11,0,3.2389e+08,46.522,13103,12124,1,12124,1,2.7771e-05,-4.622e-10,0,0.0004273,-5.1077e-06,1.0595e+07,-147.35,0,1.651e+08,-9.9783,12123,11097,1,11097,1,-0.00079631,-2.5635e-09,0,2.7495e-06,-0.00015946,-3.2389e+08,-836.4,0,1.2652e+06,-97.877,11096,11634,1,11634,1,-0.00039953,-1.1625e-09,0,0.00021365,-8.5137e-05,-1.625e+08,-379.46,0,8.3257e+07,-24.307,11633,12614,1,12614,1,0.00045507,-2.8592e-11,0,0.00064095,7.496e-05,1.6552e+08,-9.3707,0,2.4221e+08,7.7505,12613,567.13,0,567.13,0,0.00049321,7.8604e-10,0,0.0002477,9.2403e-05,1.8693e+08,257.78,0,9.23e+07,23.027,567.13,1
1960,2.99,12124,1,12124,1,2.8064e-05,-9.6561e-10,0,0.00042876,-5.1387e-06,-512.47,-315.45,0,1.6299e+08,17.517,12123,13104,1,13104,1,0.00085498,1.5336e-09,0,0.00085498,0.00014982,2.9512e+08,507.96,0,3.2492e+08,136.07,13103,12124,1,12124,1,2.8064e-05,-4.9409e-10,0,0.00042876,-5.1615e-06,1.0703e+07,-160.91,0,1.656e+08,19.649,12123,11097,1,11097,1,-0.00079884,-4.7239e-09,0,2.5608e-06,-0.00016004,-3.2492e+08,-1538.7,0,1.192e+06,-115.05,11096,11634,1,11634,1,-0.0004007,-2.0437e-09,0,0.00021438,-8.5464e-05,-1.6298e+08,-668.68,0,8.3513e+07,-18.574,11633,12614,1,12614,1,0.00045683,2.8071e-10,0,0.00064314,7.5179e-05,1.6602e+08,90.146,0,2.4291e+08,53.034,12613,567.13,0,567.13,0,0.0004949,1.6116e-09,0,0.00024856,9.2718e-05,1.8747e+08,527.6,0,9.2564e+07,49.052,567.13,1
1960,3,12124,1,12124,1,2.8359e-05,-1.6861e-09,0,0.00043021,-5.1928e-06,50.352,-551.66,0,1.6346e+08,-13.681,12123,13104,1,13104,1,0.00085808,3.525e-09,0,0.00085808,0.0001503,2.9584e+08,1161.4,0,3.2594e+08,191.17,13103,12124,1,12124,1,2.8359e-05,-1.3682e-09,0,0.00043021,-5.2159e-06,1.0813e+07,-447.43,0,1.661e+08,-17.427,12123,11097,1,11097,1,-0.00080136,-7.0778e-09,0,2.37e-06,-0.00016062,-3.2594e+08,-2304.2,0,1.1179e+06,-195.44,11096,11634,1,11634,1,-0.00040185,-3.6053e-09,0,0.00021511,-8.579e-05,-1.6345e+08,-1188.4,0,8.3767e+07,-73.146,11633,12614,1,12614,1,0.00045857,2.4811e-10,0,0.00064532,7.5397e-05,1.6653e+08,79.146,0,2.436e+08,51.54,12613,567.13,0,567.13,0,0.00049657,2.426e-09,0,0.00024943,9.3031e-05,1.8801e+08,796.18,0,9.2826e+07,82.095,567.13,1
1960,3.01,12124,1,12124,1,2.8657e-05,2.0357e-09,0,0.00043169,-5.2474e-06,-79.583,661.42,0,1.6394e+08,0.87546,12123,13104,1,13104,1,0.00086121,5.3241e-09,0,0.00086121,0.00015077,2.9657e+08,1731.8,0,3.2698e+08,156.9,13103,12124,1,12124,1,2.8658e-05,2.0571e-09,0,0.00043169,-5.2707e-06,1.0924e+07,668.4,0,1.666e+08,-7.2384,12123,11097,1,11097,1,-0.0008039,-6.0301e-10,0,2.1754e-06,-0.00016121,-3.2698e+08,-206.53,0,1.0424e+06,-177.66,11096,11634,1,11634,1,-0.00040303,9.0193e-10,0,0.00021584,-8.612e-05,-1.6393e+08,293.86,0,8.4025e+07,-28.183,11633,12614,1,12614,1,0.00046035,3.055e-09,0,0.00064753,7.5618e-05,1.6703e+08,990.77,0,2.4431e+08,25.323,12613,567.13,0,567.13,0,0.00049828,1.4393e-09,0,0.00025031,9.335e-05,1.8856e+08,471.2,0,9.3094e+07,48.171,567.13,1
1960,3.02,12124,1,12124,1,2.896e-05,4.1082e-10,0,0.00043315,-5.3027e-06,-41.635,136.16,0,1.6441e+08,1.6968,12123,13104,1,13104,1,0.00086434,1.8601e-09,0,0.00086434,0.00015124,2.9728e+08,618.5,0,3.28e+08,65.679,13103,12124,1,12124,1,2.896e-05,2.9502e-10,0,0.00043315,-5.3264e-06,1.1036e+07,92.791,0,1.671e+08,4.3718,12123,11097,1,11097,1,-0.00080641,-9.3517e-10,0,1.9785e-06,-0.00016179,-3.28e+08,-314.5,0,9.6608e+05,-95.781,11096,11634,1,11634,1,-0.00040419,-1.5936e-10,0,0.00021658,-8.6449e-05,-1.644e+08,-51.254,0,8.4281e+07,-14.677,11633,12614,1,12614,1,0.00046211,9.7073e-10,0,0.00064973,7.5836e-05,1.6754e+08,318.77,0,2.45e+08,19.436,12613,567.13,0,567.13,0,0.00049997,6.7674e-10,0,0.00025118,9.3666e-05,1.891e+08,223.2,0,9.3358e+07,26.725,567.13,1
1960,3.03,12124,1,12124,1,2.9263e-05,3.617e-10,0,0.00043462,-5.3584e-06,46.161,119.02,0,1.6488e+08,-3.8056,12123,13104,1,13104,1,0.00086747,1.8154e-09,0,0.00086747,0.00015172,2.9801e+08,594.52,0,3.2903e+08,64.677,13103,12124,1,12124,1,2.9263e-05,1.6857e-10,0,0.00043462,-5.3823e-06,1.1148e+07,55.22,0,1.676e+08,-4.4489,12123,11097,1,11097,1,-0.00080894,-2.7712e-10,0,1.7805e-06,-0.00016237,-3.2903e+08,-89.24,0,8.893e+05,-101.55,11096,11634,1,11634,1,-0.00040536,-6e-12,0,0.00021731,-8.678e-05,-1.6487e+08,-1.9274,0,8.4538e+07,-20.416,11633,12614,1,12614,1,0.00046389,6.5514e-10,0,0.00065194,7.6056e-05,1.6804e+08,215.88,0,2.457e+08,14.266,12613,567.13,0,567.13,0,0.00050167,4.8962e-10,0,0.00025206,9.3984e-05,1.8965e+08,161.64,0,9.3623e+07,25.365,567.13,1
1960,3.04,12124,1,12124,1,2.9569e-05,2.0062e-09,0,0.00043608,-5.4143e-06,-5.8429,654.37,0,1.6535e+08,13.787,12123,13104,1,13104,1,0.00087061,4.5752e-09,0,0.00087061,0.00015219,2.9872e+08,1472.5,0,3.3006e+08,166.9,13103,12124,1,12124,1,2.9569e-05,2.0968e-09,0,0.00043608,-5.4385e-06,1.1261e+07,682.83,0,1.681e+08,6.2346,12123,11097,1,11097,1,-0.00081147,-7.5874e-10,0,1.5791e-06,-0.00016296,-3.3006e+08,-259.87,0,8.1123e+05,-130.96,11096,11634,1,11634,1,-0.00040651,8.5355e-10,0,0.00021804,-8.7109e-05,-1.6534e+08,268.89,0,8.4792e+07,-16.857,11633,12614,1,12614,1,0.00046565,3.1821e-09,0,0.00065413,7.6273e-05,1.6854e+08,1048.1,0,2.4639e+08,37.444,12613,567.13,0,567.13,0,0.00050335,1.4456e-09,0,0.00025293,9.4299e-05,1.9019e+08,474.82,0,9.3885e+07,45.83,567.13,1
1960,3.05,12124,1,12124,1,2.9876e-05,-8.91e-10,0,0.00043755,-5.4705e-06,50.68,-286.99,0,1.6583e+08,-9.5949,12123,13104,1,13104,1,0.00087373,4.5158e-10,0,0.00087373,0.00015266,2.9943e+08,154.67,0,3.3107e+08,67.256,13103,12124,1,12124,1,2.9876e-05,-8.8738e-10,0,0.00043755,-5.4951e-06,1.1375e+07,-289.08,0,1.6859e+08,-6.3695,12123,11097,1,11097,1,-0.00081398,-2.2179e-09,0,1.376e-06,-0.00016354,-3.3107e+08,-715.01,0,7.3253e+05,-121.02,11096,11634,1,11634,1,-0.00040767,-1.5311e-09,0,0.00021878,-8.7439e-05,-1.6581e+08,-496.21,0,8.5047e+07,-25.338,11633,12614,1,12614,1,0.00046742,-2.6293e-10,0,0.00065632,7.649e-05,1.6904e+08,-85.06,0,2.4708e+08,4.5344,12613,567.13,0,567.13,0,0.00050504,7.2475e-10,0,0.0002538,9.4615e-05,1.9072e+08,233.65,0,9.4148e+07,27.677,567.13,1
1960,3.06,12124,1,12124,1,3.0185e-05,-5.296e-10,0,0.00043901,-5.5271e-06,146.87,-173.23,0,1.6629e+08,3.646,12123,13104,1,13104,1,0.00087685,3.6045e-09,0,0.00087685,0.00015313,3.0014e+08,1172.9,0,3.3209e+08,154.57,13103,12124,1,12124,1,3.0185e-05,-3.5188e-10,0,0.00043901,-5.552e-06,1.1489e+07,-111.84,0,1.6909e+08,-0.79976,12123,11097,1,11097,1,-0.00081648,-3.6819e-09,0,1.1721e-06,-0.00016412,-3.3209e+08,-1195.3,0,6.5355e+05,-141.6,11096,11634,1,11634,1,-0.00040882,-1.6355e-09,0,0.0002195,-8.7768e-05,-1.6628e+08,-534.59,0,8.53e+07,-33.315,11633,12614,1,12614,1,0.00046919,4.1734e-10,0,0.00065851,7.6706e-05,1.6954e+08,135.92,0,2.4777e+08,40.937,12613,567.13,0,567.13,0,0.00050673,1.542e-09,0,0.00025467,9.4929e-05,1.9126e+08,503.29,0,9.4408e+07,55.149,567.13,1
1960,3.07,12124,1,12124,1,3.0496e-05,1.2786e-10,0,0.00044048,-5.584e-06,-220.4,40.199,0,1.6677e+08,-6.7003,12123,13104,1,13104,1,0.00088,1.7169e-09,0,0.00088,0.00015361,3.0085e+08,563.15,0,3.3312e+08,100.23,13103,12124,1,12124,1,3.0496e-05,7.5347e-11,0,0.00044048,-5.6091e-06,1.1604e+07,23.549,0,1.6959e+08,-2.1918,12123,11097,1,11097,1,-0.000819,-5.7018e-10,0,9.6597e-07,-0.00016471,-3.3312e+08,-191.4,0,5.7372e+05,-189.24,11096,11634,1,11634,1,-0.00040998,-1.5505e-10,0,0.00022024,-8.81e-05,-1.6675e+08,-50.399,0,8.5555e+07,-25.967,11633,12614,1,12614,1,0.00047098,2.7552e-10,0,0.00066072,7.6925e-05,1.7004e+08,85.255,0,2.4846e+08,19.251,12613,567.13,0,567.13,0,0.00050843,4.4868e-10,0,0.00025555,9.5247e-05,1.918e+08,147.91,0,9.4672e+07,40.857,567.13,1
1960,3.08,12124,1,12124,1,3.0811e-05,8.8657e-11,0,0.00044194,-5.6416e-06,-148.03,28.738,0,1.6723e+08,8.3455,12123,13104,1,13104,1,0.00088314,2.7537e-09,0,0.00088314,0.00015408,3.0155e+08,895.75,0,3.3414e+08,92.247,13103,12124,1,12124,1,3.0811e-05,9.6205e-11,0,0.00044194,-5.6671e-06,1.172e+07,30.63,0,1.7008e+08,6.0694,12123,11097,1,11097,1,-0.00082151,-1.6752e-09,0,7.5617e-07,-0.0001653,-3.3414e+08,-543.4,0,4.9249e+05,-87.696,11096,11634,1,11634,1,-0.00041113,-5.1858e-10,0,0.00022097,-8.8432e-05,-1.6722e+08,-171.61,0,8.5809e+07,-17.185,11633,12614,1,12614,1,0.00047276,5.5401e-10,0,0.00066292,7.7141e-05,1.7054e+08,178.47,0,2.4915e+08,35.53,12613,567.13,0,567.13,0,0.00051012,9.3296e-10,0,0.00025643,9.5563e-05,1.9234e+08,304.98,0,9.4933e+07,36.134,567.13,1
1960,3.09,12124,1,12124,1,3.1127e-05,9.8886e-11,0,0.00044341,-5.6996e-06,-46.635,31.936,0,1.677e+08,-3.0478,12123,13104,1,13104,1,0.00088627,2.3471e-09,0,0.00088627,0.00015455,3.0225e+08,766.03,0,3.3516e+08,78.804,13103,12124,1,12124,1,3.1127e-05,8.7391e-11,0,0.00044341,-5.7254e-06,1.1837e+07,27.687,0,1.7058e+08,-0.21413,12123,11097,1,11097,1,-0.00082402,-1.1623e-09,0,5.4424e-07,-0.00016588,-3.3516e+08,-376.83,0,4.1045e+05,-102.64,11096,11634,1,11634,1,-0.00041228,-3.5924e-10,0,0.0002217,-8.8763e-05,-1.6769e+08,-115.17,0,8.6062e+07,-19.189,11633,12614,1,12614,1,0.00047453,4.0678e-10,0,0.00066511,7.7356e-05,1.7104e+08,132.47,0,2.4983e+08,15.035,12613,567.13,0,567.13,0,0.00051181,6.8165e-10,0,0.0002573,9.5879e-05,1.9287e+08,223.49,0,9.5194e+07,27.089,567.13,1
1960,3.1,12124,1,12124,1,3.1446e-05,-8.83e-10,0,0.00044488,-5.758e-06,-32.19,-287,0,1.6817e+08,-11.683,12123,13104,1,13104,1,0.00088944,3.5202e-10,0,0.00088944,0.00015502,3.0295e+08,120.57,0,3.3619e+08,45.748,13103,12124,1,12124,1,3.1446e-05,-1.0147e-09,0,0.00044488,-5.7841e-06,1.1955e+07,-329.25,0,1.7107e+08,-7.8237,12123,11097,1,11097,1,-0.00082654,-2.0591e-09,0,3.3075e-07,-0.00016647,-3.3619e+08,-667.33,0,3.2785e+05,-103.93,11096,11634,1,11634,1,-0.00041343,-1.3579e-09,0,0.00022244,-8.9097e-05,-1.6816e+08,-440.04,0,8.6316e+07,-26.449,11633,12614,1,12614,1,0.00047632,-4.1942e-10,0,0.00066732,7.7573e-05,1.7154e+08,-130.13,0,2.5052e+08,4.9414,12613,567.13,0,567.13,0,0.00051351,6.0778e-10,0,0.00025818,9.6197e-05,1.9341e+08,198.83,0,9.5456e+07,24.762,567.13,1
1960,3.11,12124,1,12124,1,3.1767e-05,9.9821e-10,0,0.00044634,-5.8166e-06,-25.562,322.86,0,1.6863e+08,13.191,12123,13104,1,13104,1,0.00089257,5.0221e-09,0,0.00089257,0.00015549,3.0364e+08,1626.8,0,3.372e+08,103.31,13103,12124,1,12124,1,3.1767e-05,5.8897e-10,0,0.00044634,-5.843e-06,1.2073e+07,189.03,0,1.7156e+08,12.359,12123,11097,1,11097,1,-0.00082904,-1.5712e-09,0,1.1344e-07,-0.00016706,-3.372e+08,-514.87,0,2.4377e+05,-102.66,11096,11634,1,11634,1,-0.00041457,-7.7414e-11,0,0.00022317,-8.9428e-05,-1.6862e+08,-24.622,0,8.6568e+07,-17.782,11633,12614,1,12614,1,0.00047811,2.0118e-09,0,0.00066951,7.7787e-05,1.7203e+08,650.66,0,2.512e+08,42.033,12613,567.13,0,567.13,0,0.00051519,1.4657e-09,0,0.00025906,9.6512e-05,1.9394e+08,477.23,0,9.5714e+07,40.265,567.13,1
1960,3.12,12124,1,12124,1,3.209e-05,-5.7646e-11,0,0.00044782,-5.8758e-06,27.74,-17.949,0,1.691e+08,-7.6047,12123,13104,1,13104,1,0.00089573,9.1924e-10,0,0.00089573,0.00015596,3.0434e+08,314.46,0,3.3822e+08,38.755,13103,12124,1,12124,1,3.209e-05,2.7117e-11,0,0.00044781,-5.9026e-06,1.2192e+07,8.0553,0,1.7206e+08,-9.5559,12123,11097,1,11097,1,-0.00083155,-1.4369e-09,0,1.0325e-07,-0.00016764,-3.3822e+08,-470.34,0,1.596e+05,-83.171,11096,11634,1,11634,1,-0.00041572,-3.4075e-10,0,0.00022391,-8.9763e-05,-1.6909e+08,-111.51,0,8.6822e+07,-20.016,11633,12614,1,12614,1,0.0004799,2.69e-10,0,0.00067172,7.8003e-05,1.7253e+08,87.196,0,2.5189e+08,4.5654,12613,567.13,0,567.13,0,0.00051689,5.1957e-10,0,0.00025993,9.683e-05,1.9448e+08,170.91,0,9.5976e+07,18.243,567.13,1
1960,3.13,12124,1,12124,1,3.2416e-05,-7.034e-10,0,0.0004493,-5.9355e-06,-87.298,-228.41,0,1.6956e+08,3.9278,12123,13104,1,13104,1,0.00089889,2.3176e-09,0,0.00089889,0.00015643,3.0503e+08,750.28,0,3.3924e+08,126.72,13103,12124,1,12124,1,3.2416e-05,-4.5302e-10,0,0.00044928,-5.9626e-06,1.2312e+07,-144.53,0,1.7255e+08,-0.18087,12123,11097,1,11097,1,-0.00083406,-3.6481e-09,0,3.2454e-07,-0.00016823,-3.3924e+08,-1180.9,0,74226,-129.94,11096,11634,1,11634,1,-0.00041686,-1.6255e-09,0,0.00022464,-9.0097e-05,-1.6955e+08,-534.12,0,8.7074e+07,-29.551,11633,12614,1,12614,1,0.00048169,2.4007e-10,0,0.00067392,7.8217e-05,1.7302e+08,78.682,0,2.5257e+08,32.656,12613,567.13,0,567.13,0,0.00051858,1.3506e-09,0,0.00026078,9.7146e-05,1.9501e+08,440.46,0,9.6234e+07,46.02,567.13,1
1960,3.14,12124,1,12124,1,3.2743e-05,-3.7885e-11,0,0.00045077,-5.9954e-06,143.11,-13.731,0,1.7002e+08,2.5807,12123,13104,1,13104,1,0.00090203,7.4519e-09,0,0.00090203,0.0001569,3.0571e+08,2411.3,0,3.4025e+08,185.22,13103,12124,1,12124,1,3.2743e-05,6.8554e-11,0,0.00045073,-6.0228e-06,1.2433e+07,20.929,0,1.7304e+08,-8.4521,12123,11097,1,11097,1,-0.00083654,-5.2697e-09,0,5.4784e-07,-0.00016882,-3.4025e+08,-1711.1,0,11920,-170.41,11096,11634,1,11634,1,-0.00041799,-1.8245e-09,0,0.00022537,-9.0428e-05,-1.7001e+08,-602.95,0,8.7323e+07,-58.465,11633,12614,1,12614,1,0.00048348,1.368e-09,0,0.0006761,7.8429e-05,1.7351e+08,439.72,0,2.5324e+08,66.797,12613,567.13,0,567.13,0,0.00052026,2.6867e-09,0,0.00026162,9.746e-05,1.9553e+08,875.87,0,9.6489e+07,74.496,567.13,1
1960,3.15,12124,1,12124,1,3.3073e-05,4.0065e-10,0,0.00045227,-6.0557e-06,-106.64,129.26,0,1.705e+08,-1.8201,12123,13104,1,13104,1,0.00090521,3.3592e-09,0,0.00090521,0.00015737,3.064e+08,1097.5,0,3.4128e+08,94.007,13103,12124,1,12124,1,3.3073e-05,2.1271e-10,0,0.00045222,-6.0835e-06,1.2554e+07,65.35,0,1.7353e+08,-1.5031,12123,11097,1,11097,1,-0.00083906,-1.5319e-09,0,7.7094e-07,-0.00016941,-3.4128e+08,-506.06,0,98090,-123.27,11096,11634,1,11634,1,-0.00041914,-3.0012e-10,0,0.00022611,-9.0766e-05,-1.7048e+08,-96.04,0,8.7578e+07,-29.579,11633,12614,1,12614,1,0.00048529,1.112e-09,0,0.00067832,7.8646e-05,1.7401e+08,351.93,0,2.5393e+08,26.918,12613,567.13,0,567.13,0,0.00052197,1.1192e-09,0,0.00026248,9.778e-05,1.9607e+08,368.24,0,9.6741e+07,39.391,567.13,1
1960,3.16,12124,1,12124,1,3.3408e-05,-5.0021e-10,0,0.00045376,-6.1171e-06,-11.439,-161.88,0,1.7097e+08,-7.3002,12123,13104,1,13104,1,0.00090839,1.34e-09,0,0.00090839,0.00015784,3.0708e+08,458.78,0,3.423e+08,68.631,13103,12124,1,12124,1,3.3408e-05,-3.3963e-10,0,0.00045369,-6.1452e-06,1.2677e+07,-104.88,0,1.7403e+08,-9.5965,12123,11097,1,11097,1,-0.00084157,-2.5672e-09,0,1.0014e-06,-0.00017,-3.423e+08,-829.94,0,1.871e+05,-161.13,11096,11634,1,11634,1,-0.00042028,-1.1444e-09,0,0.00022684,-9.1102e-05,-1.7094e+08,-371.37,0,8.783e+07,-28.299,11633,12614,1,12614,1,0.0004871,1.6877e-10,0,0.00068053,7.886e-05,1.7451e+08,53.272,0,2.5461e+08,15.348,12613,567.13,0,567.13,0,0.00052367,8.7692e-10,0,0.00026334,9.8097e-05,1.966e+08,287.03,0,9.6988e+07,34.375,567.13,1
1960,3.17,12124,1,12124,1,3.3743e-05,-9.3974e-10,0,0.00045524,-6.1785e-06,-77.335,-305.49,0,1.7144e+08,-3.3113,12123,13104,1,13104,1,0.00091155,5.4386e-10,0,0.00091155,0.00015831,3.0776e+08,186.27,0,3.4331e+08,105.22,13103,12124,1,12124,1,3.3743e-05,-9.0404e-10,0,0.00045515,-6.2069e-06,1.2801e+07,-289.41,0,1.7451e+08,-5.4176,12123,11097,1,11097,1,-0.00084406,-2.8784e-09,0,1.232e-06,-0.00017059,-3.4331e+08,-930.16,0,2.7617e+05,-117.55,11096,11634,1,11634,1,-0.00042141,-1.6608e-09,0,0.00022758,-9.1438e-05,-1.714e+08,-539.9,0,8.808e+07,-25.394,11633,12614,1,12614,1,0.0004889,-1.5901e-10,0,0.00068273,7.9072e-05,1.75e+08,-51.203,0,2.5528e+08,16.938,12613,567.13,0,567.13,0,0.00052536,8.767e-10,0,0.00026419,9.8414e-05,1.9713e+08,286.83,0,9.7233e+07,36.443,567.13,1
1960,3.18,12124,1,12124,1,3.4081e-05,1.4456e-09,0,0.00045673,-6.2402e-06,44.43,466.6,0,1.719e+08,13.446,12123,13104,1,13104,1,0.00091472,6.4676e-09,0,0.00091472,0.00015878,3.0844e+08,2089.3,0,3.4433e+08,184.37,13103,12124,1,12124,1,3.4081e-05,8.7941e-10,0,0.00045662,-6.2689e-06,1.2925e+07,281.14,0,1.75e+08,6.4514,12123,11097,1,11097,1,-0.00084656,-6.4634e-10,0,1.4641e-06,-0.00017119,-3.4433e+08,-221.37,0,3.6579e+05,-167.57,11096,11634,1,11634,1,-0.00042254,4.059e-10,0,0.00022831,-9.1774e-05,-1.7186e+08,131.69,0,8.8331e+07,-22.203,11633,12614,1,12614,1,0.0004907,2.1494e-09,0,0.00068494,7.9285e-05,1.7549e+08,701.94,0,2.5596e+08,40.335,12613,567.13,0,567.13,0,0.00052706,1.4872e-09,0,0.00026504,9.8731e-05,1.9766e+08,483.74,0,9.7479e+07,53.948,567.13,1
1960,3.19,12124,1,12124,1,3.4421e-05,-1.355e-10,0,0.00045821,-6.3025e-06,90.903,-41.882,0,1.7237e+08,-3.7077,12123,13104,1,13104,1,0.00091789,2.7176e-09,0,0.00091789,0.00015924,3.0911e+08,893.57,0,3.4534e+08,75.181,13103,12124,1,12124,1,3.4421e-05,-7.982e-11,0,0.00045809,-6.3316e-06,1.305e+07,-24.195,0,1.7549e+08,-3.0292,12123,11097,1,11097,1,-0.00084905,-2.0711e-09,0,1.6994e-06,-0.00017178,-3.4534e+08,-668.38,0,4.5659e+05,-111.14,11096,11634,1,11634,1,-0.00042367,-8.5875e-10,0,0.00022905,-9.2111e-05,-1.7232e+08,-272.66,0,8.8581e+07,-26.893,11633,12614,1,12614,1,0.00049251,3.9527e-10,0,0.00068714,7.9497e-05,1.7598e+08,131.98,0,2.5663e+08,20.682,12613,567.13,0,567.13,0,0.00052875,1.0146e-09,0,0.0002659,9.9048e-05,1.9818e+08,330.92,0,9.7725e+07,32.307,567.13,1
1960,3.2,12124,1,12124,1,3.4762e-05,-7.5211e-10,0,0.00045969,-6.3649e-06,-97.486,-243.36,0,1.7283e+08,14.11,12123,13104,1,13104,1,0.00092106,6.2289e-09,0,0.00092106,0.00015971,3.0978e+08,2025.8,0,3.4635e+08,195.75,13103,12124,1,12124,1,3.4761e-05,-3.7074e-10,0,0.00045955,-6.3942e-06,1.3175e+07,-118.69,0,1.7597e+08,6.8668,12123,11097,1,11097,1,-0.00085153,-6.2751e-09,0,1.9361e-06,-0.00017237,-3.4635e+08,-2025.3,0,5.4792e+05,-150.51,11096,11634,1,11634,1,-0.00042479,-2.6857e-09,0,0.00022977,-9.2446e-05,-1.7277e+08,-876.72,0,8.8829e+07,-45.904,11633,12614,1,12614,1,0.00049431,8.9914e-10,0,0.00068933,7.9707e-05,1.7647e+08,289.61,0,2.573e+08,70.748,12613,567.13,0,567.13,0,0.00053044,2.7037e-09,0,0.00026674,9.9362e-05,1.987e+08,879.34,0,9.7967e+07,80.184,567.13,1
1960,3.21,12124,1,12124,1,3.5105e-05,-4.7946e-10,0,0.00046118,-6.4279e-06,23.71,-157.11,0,1.733e+08,-13.637,12123,13104,1,13104,1,0.00092424,1.1232e-09,0,0.00092424,0.00016018,3.1045e+08,384.59,0,3.4737e+08,69.71,13103,12124,1,12124,1,3.5106e-05,-1.9681e-10,0,0.00046103,-6.4577e-06,1.3301e+07,-61.608,0,1.7646e+08,-11.297,12123,11097,1,11097,1,-0.00085403,-2.6852e-09,0,2.1744e-06,-0.00017296,-3.4737e+08,-880.97,0,6.3977e+05,-104.22,11096,11634,1,11634,1,-0.00042592,-1.1141e-09,0,0.00023051,-9.2785e-05,-1.7324e+08,-361.95,0,8.908e+07,-35.863,11633,12614,1,12614,1,0.00049613,1.8892e-10,0,0.00069154,7.992e-05,1.7696e+08,61.924,0,2.5797e+08,11.016,12613,567.13,0,567.13,0,0.00053214,9.1748e-10,0,0.0002676,9.9681e-05,1.9923e+08,302.4,0,9.8213e+07,36.98,567.13,1
1960,3.22,12124,1,12124,1,3.5454e-05,3.034e-10,0,0.00046268,-6.4917e-06,-20.768,96.822,0,1.7377e+08,-0.93273,12123,13104,1,13104,1,0.00092743,9.0798e-10,0,0.00092743,0.00016065,3.1111e+08,289.82,0,3.4838e+08,80.277,13103,12124,1,12124,1,3.5454e-05,2.7449e-10,0,0.00046251,-6.5218e-06,1.3429e+07,88.198,0,1.7695e+08,0.62695,12123,11097,1,11097,1,-0.00085652,-1.8874e-10,0,2.4176e-06,-0.00017355,-3.4838e+08,-57.091,0,7.3353e+05,-83.189,11096,11634,1,11634,1,-0.00042705,9.7763e-11,0,0.00023125,-9.3125e-05,-1.737e+08,32.213,0,8.9332e+07,-19.618,11633,12614,1,12614,1,0.00049796,4.659e-10,0,0.00069376,8.0133e-05,1.7746e+08,145.34,0,2.5864e+08,17.673,12613,567.13,0,567.13,0,0.00053385,2.4055e-10,0,0.00026847,0.0001,1.9976e+08,77.063,0,9.8459e+07,26.58,567.13,1
1960,3.23,12124,1,12124,1,3.5805e-05,-9.2615e-10,0,0.00046417,-6.5559e-06,-207.02,-299.42,0,1.7423e+08,3.5974,12123,13104,1,13104,1,0.00093063,5.4815e-10,0,0.00093063,0.00016112,3.1178e+08,187.74,0,3.494e+08,117.66,13103,12124,1,12124,1,3.5804e-05,-1.029e-09,0,0.00046398,-6.5862e-06,1.3557e+07,-333.15,0,1.7744e+08,5.6408,12123,11097,1,11097,1,-0.00085902,-2.6103e-09,0,2.6633e-06,-0.00017415,-3.494e+08,-841.39,0,8.2826e+05,-145.67,11096,11634,1,11634,1,-0.00042817,-1.4166e-09,0,0.00023199,-9.3464e-05,-1.7415e+08,-459.39,0,8.958e+07,-26.797,11633,12614,1,12614,1,0.00049978,-3.6256e-10,0,0.00069596,8.0343e-05,1.7795e+08,-113.25,0,2.5931e+08,34.411,12613,567.13,0,567.13,0,0.00053555,7.4003e-10,0,0.00026932,0.00010032,2.0028e+08,240.24,0,9.8702e+07,42.124,567.13,1
1960,3.24,12124,1,12124,1,3.6157e-05,2.0063e-09,0,0.00046565,-6.6204e-06,174.11,646.26,0,1.7469e+08,7.0601,12123,13104,1,13104,1,0.00093381,6.6732e-09,0,0.00093381,0.00016158,3.1243e+08,2107.6,0,3.504e+08,225.28,13103,12124,1,12124,1,3.6157e-05,1.4285e-09,0,0.00046544,-6.652e-06,1.3686e+07,463.77,0,1.7792e+08,10.029,12123,11097,1,11097,1,-0.0008615,-1.2308e-09,0,2.9103e-06,-0.00017474,-3.504e+08,-421.56,0,9.2333e+05,-824.75,11096,11634,1,11634,1,-0.00042928,9.6713e-11,0,0.00023272,-9.3802e-05,-1.746e+08,32.432,0,8.9828e+07,-40.912,11633,12614,1,12614,1,0.0005016,3.7638e-09,0,0.00069816,8.0552e-05,1.7843e+08,1228.5,0,2.5998e+08,70.623,12613,567.13,0,567.13,0,0.00053724,2.12e-09,0,0.00027017,0.00010063,2.008e+08,684.48,0,9.8942e+07,102.16,567.13,1
1960,3.25,12124,1,12124,1,3.6509e-05,-1.4615e-10,0,0.00046713,-6.6848e-06,93.737,-44.067,0,1.7515e+08,-12.359,12123,13104,1,13104,1,0.00093698,5.584e-09,0,0.00093698,0.00016204,3.1308e+08,1903.2,0,3.5141e+08,164.08,13103,12124,1,12124,1,3.6509e-05,-1.7058e-10,0,0.0004669,-6.7166e-06,1.3815e+07,-49.408,0,1.784e+08,-6.0589,12123,11097,1,11097,1,-0.00086396,-3.9436e-09,0,3.1575e-06,-0.00017533,-3.5141e+08,-1270.1,0,1.0188e+06,-722,11096,11634,1,11634,1,-0.0004304,-1.7326e-09,0,0.00023345,-9.414e-05,-1.7506e+08,-542.64,0,9.0075e+07,-46.476,11633,12614,1,12614,1,0.00050341,9.4467e-10,0,0.00070036,8.0761e-05,1.7892e+08,300.47,0,2.6064e+08,38.312,12613,567.13,0,567.13,0,0.00053893,2.1179e-09,0,0.00027103,0.00010095,2.0132e+08,688.79,0,9.9183e+07,95.656,567.13,1
1960,3.26,12124,1,12124,1,3.6866e-05,7.9718e-10,0,0.00046863,-6.7502e-06,-100.34,257.37,0,1.7561e+08,-11.194,12123,13104,1,13104,1,0.00094019,4.265e-09,0,0.00094019,0.00016251,3.1374e+08,1404.8,0,3.5242e+08,125.87,13103,12124,1,12124,1,3.6866e-05,3.0891e-10,0,0.00046839,-6.7822e-06,1.3946e+07,94.728,0,1.7889e+08,-2.7071,12123,11097,1,11097,1,-0.00086646,-5.6966e-10,0,3.4094e-06,-0.00017593,-3.5242e+08,-194.51,0,1.1156e+06,-494.3,11096,11634,1,11634,1,-0.00043152,8.6301e-12,0,0.00023419,-9.4483e-05,-1.7551e+08,2.8015,0,9.0325e+07,-31.288,11633,12614,1,12614,1,0.00050525,1.4132e-09,0,0.00070258,8.0973e-05,1.7941e+08,449.08,0,2.6131e+08,22.661,12613,567.13,0,567.13,0,0.00054064,1.1322e-09,0,0.00027189,0.00010127,2.0184e+08,371.81,0,9.9427e+07,72.815,567.13,1
1960,3.27,12124,1,12124,1,3.7227e-05,-2.0949e-09,0,0.00047011,-6.8162e-06,-9.5233,-674.94,0,1.7607e+08,-11.592,12123,13104,1,13104,1,0.0009434,1.6622e-09,0,0.0009434,0.00016298,3.1439e+08,569.11,0,3.5343e+08,169.68,13103,12124,1,12124,1,3.7226e-05,-1.7092e-09,0,0.00046986,-6.8484e-06,1.4078e+07,-548.57,0,1.7937e+08,-5.7221,12123,11097,1,11097,1,-0.00086895,-7.4e-09,0,3.6653e-06,-0.00017653,-3.5343e+08,-2381.2,0,1.2141e+06,-388.89,11096,11634,1,11634,1,-0.00043263,-3.9296e-09,0,0.00023493,-9.4823e-05,-1.7596e+08,-1257.9,0,9.0572e+07,-67.166,11633,12614,1,12614,1,0.00050708,-2.9175e-11,0,0.00070478,8.1181e-05,1.7989e+08,-9.0654,0,2.6197e+08,42.158,12613,567.13,0,567.13,0,0.00054233,2.3032e-09,0,0.00027274,0.00010159,2.0236e+08,748.06,0,9.9667e+07,81.205,567.13,1
1960,3.28,12124,1,12124,1,3.7589e-05,1.0537e-09,0,0.00047162,-6.8825e-06,-183.39,336.53,0,1.7653e+08,27.245,12123,13104,1,13104,1,0.00094662,6.5441e-09,0,0.00094662,0.00016345,3.1505e+08,2104.9,0,3.5445e+08,190.63,13103,12124,1,12124,1,3.7589e-05,3.7124e-10,0,0.00047134,-6.9146e-06,1.421e+07,115.48,0,1.7986e+08,22.587,12123,11097,1,11097,1,-0.00087144,-1.6096e-09,0,3.9206e-06,-0.00017713,-3.5445e+08,-550.73,0,1.3124e+06,-178.33,11096,11634,1,11634,1,-0.00043375,-3.4815e-10,0,0.00023567,-9.5167e-05,-1.7642e+08,-115.17,0,9.0822e+07,-13.631,11633,12614,1,12614,1,0.00050893,2.2831e-09,0,0.00070701,8.1393e-05,1.8038e+08,726.05,0,2.6264e+08,69.475,12613,567.13,0,567.13,0,0.00054405,1.9151e-09,0,0.00027361,0.00010191,2.0288e+08,622.1,0,9.9911e+07,58.774,567.13,1
1960,3.29,12124,1,12124,1,3.7957e-05,1.1589e-09,0,0.00047311,-6.9498e-06,181.86,374.81,0,1.7699e+08,-20.772,12123,13104,1,13104,1,0.00094982,4.3404e-09,0,0.00094982,0.00016391,3.1568e+08,1429.3,0,3.5545e+08,73.097,13103,12124,1,12124,1,3.7957e-05,9.2695e-10,0,0.00047281,-6.9822e-06,1.4344e+07,292.66,0,1.8034e+08,-18.476,12123,11097,1,11097,1,-0.00087391,-4.5587e-10,0,4.1839e-06,-0.00017773,-3.5545e+08,-133.25,0,1.4136e+06,-248.55,11096,11634,1,11634,1,-0.00043485,4.441e-10,0,0.00023641,-9.5509e-05,-1.7687e+08,143.26,0,9.1068e+07,-36.093,11633,12614,1,12614,1,0.00051077,1.6927e-09,0,0.00070922,8.16e-05,1.8087e+08,546.44,0,2.6329e+08,0.48355,12613,567.13,0,567.13,0,0.00054575,9.682e-10,0,0.00027447,0.00010222,2.034e+08,318.67,0,1.0015e+08,45.287,567.13,1
1960,3.3,12124,1,12124,1,3.8322e-05,-6.3426e-10,0,0.00047459,-7.0166e-06,-201.03,-201.49,0,1.7744e+08,17.628,12123,13104,1,13104,1,0.00095301,7.2969e-09,0,0.00095301,0.00016437,3.1632e+08,2401.7,0,3.5645e+08,217.26,13103,12124,1,12124,1,3.8322e-05,-2.4668e-10,0,0.00047428,-7.049e-06,1.4478e+07,-80.085,0,1.8082e+08,12.114,12123,11097,1,11097,1,-0.00087637,-6.7527e-09,0,4.4444e-06,-0.00017832,-3.5645e+08,-2222.9,0,1.5138e+06,-529.46,11096,11634,1,11634,1,-0.00043595,-2.6955e-09,0,0.00023714,-9.585e-05,-1.7732e+08,-858.64,0,9.1313e+07,-43.293,11633,12614,1,12614,1,0.0005126,9.7856e-10,0,0.00071141,8.1807e-05,1.8135e+08,316.84,0,2.6395e+08,100.11,12613,567.13,0,567.13,0,0.00054743,2.8843e-09,0,0.00027532,0.00010254,2.0391e+08,933.55,0,1.0039e+08,101.97,567.13,1
1960,3.31,12124,1,12124,1,3.8691e-05,-1.4228e-09,0,0.00047609,-7.0841e-06,-24.969,-459.69,0,1.779e+08,-28.419,12123,13104,1,13104,1,0.00095624,2.2931e-09,0,0.00095624,0.00016484,3.1696e+08,754.47,0,3.5746e+08,128.1,13103,12124,1,12124,1,3.8691e-05,-1.0216e-09,0,0.00047576,-7.117e-06,1.4612e+07,-323.58,0,1.813e+08,-16.181,12123,11097,1,11097,1,-0.00087886,-6.3132e-09,0,4.7076e-06,-0.00017893,-3.5746e+08,-2077.3,0,1.615e+06,-842.4,11096,11634,1,11634,1,-0.00043706,-2.7402e-09,0,0.00023788,-9.6194e-05,-1.7777e+08,-890.24,0,9.1561e+07,-73.156,11633,12614,1,12614,1,0.00051445,7.8229e-11,0,0.00071364,8.2015e-05,1.8183e+08,24.193,0,2.6461e+08,33.269,12613,567.13,0,567.13,0,0.00054914,1.7678e-09,0,0.00027618,0.00010286,2.0443e+08,577.81,0,1.0063e+08,103.26,567.13,1
1960,3.32,12124,1,12124,1,3.9064e-05,3.7524e-09,0,0.00047759,-7.1523e-06,-49.331,1206.3,0,1.7836e+08,43.051,12123,13104,1,13104,1,0.00095949,9.5353e-09,0,0.00095949,0.00016531,3.1761e+08,3136,0,3.5848e+08,346.09,13103,12124,1,12124,1,3.9065e-05,4.0024e-09,0,0.00047724,-7.1848e-06,1.4749e+07,1278.9,0,1.8178e+08,23.529,12123,11097,1,11097,1,-0.00088136,-1.2644e-09,0,4.975e-06,-0.00017953,-3.5848e+08,-433.05,0,1.7177e+06,-1001.4,11096,11634,1,11634,1,-0.00043817,1.778e-09,0,0.00023862,-9.6539e-05,-1.7822e+08,566.98,0,9.1808e+07,-10.736,11633,12614,1,12614,1,0.0005163,5.8443e-09,0,0.00071585,8.2224e-05,1.8232e+08,1879.5,0,2.6527e+08,88.099,12613,567.13,0,567.13,0,0.00055085,2.5741e-09,0,0.00027705,0.00010318,2.0495e+08,834.7,0,1.0087e+08,96.034,567.13,1
1960,3.33,12124,1,12124,1,3.9441e-05,1.5013e-09,0,0.00047909,-7.2213e-06,-31.107,490.62,0,1.7882e+08,-0.24161,12123,13104,1,13104,1,0.0009627,5.083e-09,0,0.0009627,0.00016577,3.1823e+08,1671.2,0,3.5948e+08,123.1,13103,12124,1,12124,1,3.9441e-05,1.4433e-09,0,0.00047871,-7.2541e-06,1.4886e+07,459.22,0,1.8226e+08,0.038324,12123,11097,1,11097,1,-0.00088381,-5.7936e-10,0,5.245e-06,-0.00018013,-3.5948e+08,-172.76,0,1.8212e+06,-1220.8,11096,11634,1,11634,1,-0.00043927,5.6247e-10,0,0.00023936,-9.6884e-05,-1.7867e+08,179.9,0,9.2054e+07,-23.708,11633,12614,1,12614,1,0.00051816,2.3533e-09,0,0.00071808,8.2431e-05,1.828e+08,775.36,0,2.6592e+08,27.975,12613,567.13,0,567.13,0,0.00055256,1.1418e-09,0,0.00027791,0.0001035,2.0546e+08,379.4,0,1.0111e+08,82.897,567.13,1
1960,3.34,12124,1,12124,1,3.982e-05,2.0159e-09,0,0.00048059,-7.2906e-06,40.128,654.01,0,1.7927e+08,6.4027,12123,13104,1,13104,1,0.00096594,4.438e-09,0,0.00096594,0.00016623,3.1887e+08,1443.4,0,3.6049e+08,167.31,13103,12124,1,12124,1,3.9819e-05,2.1992e-09,0,0.00048019,-7.3217e-06,1.5023e+07,687.15,0,1.8274e+08,-2.5533,12123,11097,1,11097,1,-0.00088629,-7.8663e-10,0,5.5186e-06,-0.00018073,-3.6049e+08,-255.66,0,1.9264e+06,-81.568,11096,11634,1,11634,1,-0.00044037,8.8452e-10,0,0.0002401,-9.7229e-05,-1.7911e+08,265.85,0,9.23e+07,-25.547,11633,12614,1,12614,1,0.00052001,3.2426e-09,0,0.00072029,8.2638e-05,1.8328e+08,1057.6,0,2.6657e+08,30.744,12613,567.13,0,567.13,0,0.00055427,1.4285e-09,0,0.00027878,0.00010382,2.0598e+08,469.08,0,1.0134e+08,42.912,567.13,1
1960,3.35,12124,1,12124,1,4.0199e-05,-3.8783e-09,0,0.00048207,-7.36e-06,192.67,-1240,0,1.7972e+08,-6.5246,12123,13104,1,13104,1,0.00096915,1.966e-09,0,0.00096915,0.0001667,3.1949e+08,673.37,0,3.6149e+08,345.01,13103,12124,1,12124,1,4.0198e-05,-3.3416e-09,0,0.00048166,-7.391e-06,1.5162e+07,-1051.4,0,1.8321e+08,-0.49593,12123,11097,1,11097,1,-0.00088875,-1.2097e-08,0,5.794e-06,-0.00018133,-3.6149e+08,-3878.8,0,2.0321e+06,-371.88,11096,11634,1,11634,1,-0.00044146,-6.9376e-09,0,0.00024083,-9.7572e-05,-1.7955e+08,-2218.3,0,9.2543e+07,-94.049,11633,12614,1,12614,1,0.00052185,-5.3781e-10,0,0.00072248,8.2841e-05,1.8376e+08,-162.63,0,2.6713e+08,89.183,12613,567.13,0,567.13,0,0.00055595,3.7043e-09,0,0.00027963,0.00010413,2.0648e+08,1190.6,0,1.0158e+08,127.72,567.13,1
1960,3.36,12124,1,12124,1,4.0579e-05,4.4067e-10,0,0.00048357,-7.4295e-06,176.19,133.25,0,1.8018e+08,-22.828,12123,13104,1,13104,1,0.00097237,3.8062e-09,0,0.00097237,0.00016715,3.2011e+08,1302.9,0,3.6248e+08,94.41,13103,12124,1,12124,1,4.0578e-05,3.5988e-10,0,0.00048313,-7.4604e-06,1.53e+07,113.41,0,1.8369e+08,-15.792,12123,11097,1,11097,1,-0.0008912,-2.058e-09,0,6.0642e-06,-0.00018193,-3.6248e+08,-696.35,0,2.136e+06,-195.61,11096,11634,1,11634,1,-0.00044256,-5.7031e-10,0,0.00024157,-9.7918e-05,-1.8e+08,-190.96,0,9.2789e+07,-57.564,11633,12614,1,12614,1,0.00052372,1.3338e-09,0,0.00072471,8.3049e-05,1.8424e+08,417.69,0,2.6771e+08,18.904,12613,567.13,0,567.13,0,0.00055766,1.398e-09,0,0.0002805,0.00010445,2.07e+08,454.85,0,1.0181e+08,58.976,567.13,1
1960,3.37,12124,1,12124,1,4.0967e-05,2.9761e-09,0,0.00048507,-7.5006e-06,295.17,952.67,0,1.8063e+08,-7.5942,12123,13104,1,13104,1,0.00097562,6.9138e-09,0,0.00097562,0.00016762,3.2074e+08,2179.8,0,3.6349e+08,179.15,13103,12124,1,12124,1,4.0968e-05,3.099e-09,0,0.00048462,-7.5312e-06,1.5441e+07,986.62,0,1.8417e+08,-0.63485,12123,11097,1,11097,1,-0.00089368,-1.0026e-09,0,6.3507e-06,-0.00018254,-3.6349e+08,-343.38,0,2.2456e+06,-299.42,11096,11634,1,11634,1,-0.00044365,1.4112e-09,0,0.00024231,-9.8266e-05,-1.8045e+08,437.13,0,9.3034e+07,-37.371,11633,12614,1,12614,1,0.00052559,4.5903e-09,0,0.00072693,8.3254e-05,1.8472e+08,1469.2,0,2.6827e+08,30.087,12613,567.13,0,567.13,0,0.00055937,2.0335e-09,0,0.00028136,0.00010477,2.0751e+08,654.36,0,1.0205e+08,68.412,567.13,1
1960,3.38,12124,1,12124,1,4.1353e-05,-1.8513e-10,0,0.00048657,-7.5713e-06,12.459,-55.135,0,1.8108e+08,-18.852,12123,13104,1,13104,1,0.00097883,1.5602e-09,0,0.00097883,0.00016808,3.2135e+08,502.61,0,3.6449e+08,101.85,13103,12124,1,12124,1,4.1353e-05,-1.7314e-10,0,0.0004861,-7.6016e-06,1.5582e+07,-52.136,0,1.8465e+08,-4.5694,12123,11097,1,11097,1,-0.00089612,-2.3032e-09,0,6.63e-06,-0.00018313,-3.6449e+08,-732.19,0,2.3529e+06,-279.59,11096,11634,1,11634,1,-0.00044474,-5.4986e-10,0,0.00024305,-9.8613e-05,-1.8089e+08,-166.58,0,9.3279e+07,-44.601,11633,12614,1,12614,1,0.00052745,1.9365e-10,0,0.00072915,8.3459e-05,1.852e+08,64.68,0,2.6883e+08,26.969,12613,567.13,0,567.13,0,0.00056108,6.5457e-10,0,0.00028223,0.00010509,2.0802e+08,209.22,0,1.0229e+08,72.848,567.13,1
1960,3.39,12124,1,12124,1,4.1745e-05,-1.511e-09,0,0.00048807,-7.6429e-06,59.431,-485.4,0,1.8153e+08,-11.159,12123,13104,1,13104,1,0.00098209,9.3791e-10,0,0.00098209,0.00016854,3.2197e+08,320.81,0,3.6549e+08,128.28,13103,12124,1,12124,1,4.1745e-05,-1.4159e-09,0,0.00048758,-7.6729e-06,1.5724e+07,-442.38,0,1.8512e+08,-6.9449,12123,11097,1,11097,1,-0.00089859,-4.636e-09,0,6.9178e-06,-0.00018374,-3.6549e+08,-1484.9,0,2.463e+06,-189.5,11096,11634,1,11634,1,-0.00044583,-2.6545e-09,0,0.00024379,-9.8961e-05,-1.8133e+08,-850.02,0,9.3522e+07,-45.837,11633,12614,1,12614,1,0.00052932,-2.6145e-10,0,0.00073136,8.3664e-05,1.8568e+08,-77.911,0,2.6939e+08,27.726,12613,567.13,0,567.13,0,0.00056279,1.3794e-09,0,0.00028309,0.00010541,2.0852e+08,446.48,0,1.0252e+08,57.959,567.13,1
1960,3.4,12124,1,12124,1,4.2141e-05,1.5772e-09,0,0.00048957,-7.7151e-06,63.702,504.21,0,1.8198e+08,19.27,12123,13104,1,13104,1,0.00098535,5.3306e-09,0,0.00098535,0.00016901,3.2258e+08,1710.6,0,3.665e+08,223.83,13103,12124,1,12124,1,4.2141e-05,1.1795e-09,0,0.00048906,-7.7447e-06,1.5867e+07,375.57,0,1.8559e+08,9.6676,12123,11097,1,11097,1,-0.00090106,-8.8116e-10,0,7.2071e-06,-0.00018435,-3.665e+08,-301.8,0,2.5736e+06,-214.85,11096,11634,1,11634,1,-0.00044692,1.7531e-10,0,0.00024453,-9.9311e-05,-1.8178e+08,54.967,0,9.3766e+07,-27.402,11633,12614,1,12614,1,0.0005312,2.8333e-09,0,0.00073359,8.3869e-05,1.8616e+08,911.04,0,2.6995e+08,59.186,12613,567.13,0,567.13,0,0.0005645,1.6626e-09,0,0.00028396,0.00010573,2.0903e+08,536.1,0,1.0276e+08,63.455,567.13,1
1960,3.41,12124,1,12124,1,4.2537e-05,-1.5102e-09,0,0.00049107,-7.7878e-06,-60.248,-481.56,0,1.8243e+08,-17.522,12123,13104,1,13104,1,0.00098859,8.7138e-10,0,0.00098859,0.00016947,3.2319e+08,298.45,0,3.6749e+08,71.161,13103,12124,1,12124,1,4.2538e-05,-1.4019e-09,0,0.00049054,-7.8171e-06,1.6011e+07,-443.04,0,1.8607e+08,-15.818,12123,11097,1,11097,1,-0.00090351,-4.3796e-09,0,7.4984e-06,-0.00018495,-3.6749e+08,-1400.5,0,2.6851e+06,-143.68,11096,11634,1,11634,1,-0.000448,-2.453e-09,0,0.00024527,-9.9659e-05,-1.8221e+08,-786.14,0,9.4008e+07,-41.307,11633,12614,1,12614,1,0.00053307,-5.31e-10,0,0.0007358,8.4072e-05,1.8663e+08,-170.08,0,2.705e+08,11.639,12613,567.13,0,567.13,0,0.0005662,1.2758e-09,0,0.00028482,0.00010605,2.0953e+08,409.74,0,1.0299e+08,35.855,567.13,1
1960,3.42,12124,1,12124,1,4.2936e-05,-2.2002e-09,0,0.00049257,-7.8607e-06,139.04,-708.42,0,1.8288e+08,-21.329,12123,13104,1,13104,1,0.00099185,1.187e-09,0,0.00099185,0.00016993,3.2379e+08,361.85,0,3.6849e+08,170.02,13103,12124,1,12124,1,4.2936e-05,-2.1758e-09,0,0.00049201,-7.8898e-06,1.6155e+07,-687.45,0,1.8654e+08,-16.032,12123,11097,1,11097,1,-0.00090597,-5.9238e-09,0,7.7907e-06,-0.00018556,-3.6849e+08,-1910.8,0,2.7969e+06,-216.59,11096,11634,1,11634,1,-0.00044908,-3.751e-09,0,0.00024601,-0.00010001,-1.8265e+08,-1208.3,0,9.425e+07,-63.527,11633,12614,1,12614,1,0.00053495,-6.0816e-10,0,0.00073802,8.4274e-05,1.8711e+08,-186.15,0,2.7105e+08,20.464,12613,567.13,0,567.13,0,0.00056791,1.816e-09,0,0.00028569,0.00010636,2.1004e+08,589.19,0,1.0322e+08,60.715,567.13,1
1960,3.43,12124,1,12124,1,4.3336e-05,1.4087e-09,0,0.00049406,-7.9337e-06,-19.76,444.9,0,1.8332e+08,28.096,12123,13104,1,13104,1,0.00099506,8.156e-09,0,0.00099506,0.00017038,3.2439e+08,2609.1,0,3.6948e+08,231.04,13103,12124,1,12124,1,4.3336e-05,6.6782e-10,0,0.00049348,-7.9624e-06,1.63e+07,202,0,1.8701e+08,21.104,12123,11097,1,11097,1,-0.00090839,-2.2452e-09,0,8.0851e-06,-0.00018616,-3.6948e+08,-734.78,0,2.9095e+06,-150.06,11096,11634,1,11634,1,-0.00045015,-2.2973e-10,0,0.00024674,-0.00010036,-1.8309e+08,-71.98,0,9.4491e+07,-21.497,11633,12614,1,12614,1,0.00053682,2.8406e-09,0,0.00074022,8.4476e-05,1.8758e+08,888.99,0,2.716e+08,75.373,12613,567.13,0,567.13,0,0.00056961,2.3395e-09,0,0.00028655,0.00010668,2.1054e+08,752.96,0,1.0345e+08,68.069,567.13,1
1960,3.44,12124,1,12124,1,4.3739e-05,-1.4844e-09,0,0.00049556,-8.0076e-06,174.41,-474.3,0,1.8377e+08,-28.465,12123,13104,1,13104,1,0.00099833,5.3442e-09,0,0.00099833,0.00017084,3.2499e+08,1762.3,0,3.7048e+08,182.84,13103,12124,1,12124,1,4.3739e-05,-8.2857e-10,0,0.00049496,-8.036e-06,1.6446e+07,-267.15,0,1.8748e+08,-31.349,12123,11097,1,11097,1,-0.00091085,-8.4369e-09,0,8.384e-06,-0.00018677,-3.7048e+08,-2693.9,0,3.0237e+06,-298.08,11096,11634,1,11634,1,-0.00045122,-3.7924e-09,0,0.00024748,-0.00010071,-1.8353e+08,-1210.6,0,9.4732e+07,-106.38,11633,12614,1,12614,1,0.0005387,6.7746e-10,0,0.00074244,8.4678e-05,1.8805e+08,209.51,0,2.7215e+08,42.491,12613,567.13,0,567.13,0,0.00057131,3.1419e-09,0,0.00028741,0.000107,2.1104e+08,1014.5,0,1.0368e+08,96.67,567.13,1
1960,3.45,12124,1,12124,1,4.4145e-05,-1.8147e-09,0,0.00049708,-8.0819e-06,-18.416,-585.4,0,1.8422e+08,-34.673,12123,13104,1,13104,1,0.0010016,1.0044e-09,0,0.0010016,0.00017131,3.256e+08,324.73,0,3.7149e+08,82.872,13103,12124,1,12124,1,4.4145e-05,-1.8549e-09,0,0.00049646,-8.11e-06,1.6593e+07,-587.1,0,1.8796e+08,-17.451,12123,11097,1,11097,1,-0.00091334,-5.1867e-09,0,8.6834e-06,-0.00018738,-3.7149e+08,-1676.2,0,3.138e+06,-293.59,11096,11634,1,11634,1,-0.00045232,-2.9854e-09,0,0.00024823,-0.00010106,-1.8397e+08,-962.06,0,9.4978e+07,-63.557,11633,12614,1,12614,1,0.00054061,-6.3663e-10,0,0.00074469,8.4883e-05,1.8854e+08,-191.18,0,2.727e+08,12.684,12613,567.13,0,567.13,0,0.00057304,1.4759e-09,0,0.00028829,0.00010732,2.1155e+08,480.64,0,1.0392e+08,67.78,567.13,1
1960,3.46,12124,1,12124,1,4.4559e-05,7.8707e-10,0,0.00049857,-8.1575e-06,93.777,247.21,0,1.8466e+08,6.7251,12123,13104,1,13104,1,0.0010049,6.1934e-09,0,0.0010049,0.00017176,3.2618e+08,1975.8,0,3.7247e+08,218.27,13103,12124,1,12124,1,4.4559e-05,3.0757e-10,0,0.00049793,-8.1849e-06,1.6743e+07,90.151,0,1.8842e+08,-4.7994,12123,11097,1,11097,1,-0.00091574,-2.4214e-09,0,8.9914e-06,-0.00018798,-3.7247e+08,-791.27,0,3.2556e+06,-187.44,11096,11634,1,11634,1,-0.00045337,-4.2611e-10,0,0.00024896,-0.00010141,-1.844e+08,-136.62,0,9.5216e+07,-42.812,11633,12614,1,12614,1,0.00054249,1.9281e-09,0,0.00074689,8.5082e-05,1.89e+08,598.59,0,2.7324e+08,53.811,12613,567.13,0,567.13,0,0.00057474,1.8528e-09,0,0.00028915,0.00010764,2.1204e+08,595.73,0,1.0415e+08,65.439,567.13,1
1960,3.47,12124,1,12124,1,4.497e-05,-6.1468e-10,0,0.00050007,-8.2326e-06,320.55,-196.1,0,1.851e+08,-8.4465,12123,13104,1,13104,1,0.0010081,7.1822e-09,0,0.0010081,0.00017222,3.2676e+08,2322.7,0,3.7346e+08,287.8,13103,12124,1,12124,1,4.4969e-05,-5.6248e-10,0,0.0004994,-8.2597e-06,1.6891e+07,-184.73,0,1.8888e+08,-27.292,12123,11097,1,11097,1,-0.00091818,-4.9856e-09,0,9.2972e-06,-0.00018859,-3.7346e+08,-1608.2,0,3.3723e+06,-215.71,11096,11634,1,11634,1,-0.00045443,-2.4703e-09,0,0.0002497,-0.00010176,-1.8483e+08,-793.14,0,9.5455e+07,-54.534,11633,12614,1,12614,1,0.00054437,6.8263e-10,0,0.00074911,8.5283e-05,1.8947e+08,202.52,0,2.7377e+08,37.179,12613,567.13,0,567.13,0,0.00057644,2.4829e-09,0,0.00029002,0.00010796,2.1254e+08,800.41,0,1.0437e+08,86.712,567.13,1
1960,3.48,12124,1,12124,1,4.5383e-05,-8.0084e-10,0,0.00050158,-8.3081e-06,-116.74,-258.16,0,1.8555e+08,1.0135,12123,13104,1,13104,1,0.0010114,4.588e-09,0,0.0010114,0.00017268,3.2736e+08,1497.3,0,3.7446e+08,162.87,13103,12124,1,12124,1,4.5383e-05,-4.5369e-10,0,0.00050089,-8.335e-06,1.704e+07,-143.65,0,1.8936e+08,-4.0511,12123,11097,1,11097,1,-0.00092064,-5.1725e-09,0,9.6037e-06,-0.0001892,-3.7446e+08,-1666,0,3.4891e+06,-153.37,11096,11634,1,11634,1,-0.00045551,-2.3494e-09,0,0.00025045,-0.00010211,-1.8527e+08,-739.92,0,9.5697e+07,-48.48,11633,12614,1,12614,1,0.00054628,5.0623e-10,0,0.00075134,8.5485e-05,1.8995e+08,159.2,0,2.7432e+08,54.436,12613,567.13,0,567.13,0,0.00057816,2.1019e-09,0,0.00029089,0.00010828,2.1304e+08,681.72,0,1.0461e+08,70.126,567.13,1
1960,3.49,12124,1,12124,1,4.5803e-05,-1.1175e-09,0,0.00050308,-8.385e-06,221.11,-360.34,0,1.8599e+08,-6.2013,12123,13104,1,13104,1,0.0010147,7.2196e-09,0,0.0010147,0.00017314,3.2794e+08,2327.7,0,3.7545e+08,257.95,13103,12124,1,12124,1,4.5803e-05,-7.7187e-10,0,0.00050238,-8.4112e-06,1.7191e+07,-238.31,0,1.8982e+08,-7.9145,12123,11097,1,11097,1,-0.00092309,-7.6058e-09,0,9.9177e-06,-0.00018982,-3.7545e+08,-2442,0,3.6088e+06,-240.09,11096,11634,1,11634,1,-0.00045657,-3.5616e-09,0,0.00025119,-0.00010247,-1.857e+08,-1137.9,0,9.5936e+07,-76.144,11633,12614,1,12614,1,0.00054818,8.3824e-10,0,0.00075357,8.5685e-05,1.9042e+08,266.7,0,2.7485e+08,67.562,12613,567.13,0,567.13,0,0.00057987,3.2074e-09,0,0.00029176,0.0001086,2.1354e+08,1035,0,1.0483e+08,98.967,567.13,1
1960,3.5,12124,1,12124,1,4.6224e-05,2.2972e-09,0,0.0005046,-8.4621e-06,25.872,730.39,0,1.8643e+08,-14.522,12123,13104,1,13104,1,0.001018,5.7554e-09,0,0.001018,0.0001736,3.2853e+08,1838.8,0,3.7645e+08,134.13,13103,12124,1,12124,1,4.6225e-05,2.1209e-09,0,0.00050387,-8.4879e-06,1.7344e+07,664.99,0,1.9029e+08,-13.91,12123,11097,1,11097,1,-0.00092554,-6.1337e-10,0,1.0232e-05,-0.00019043,-3.7645e+08,-210.08,0,3.7287e+06,-170.28,11096,11634,1,11634,1,-0.00045765,8.4389e-10,0,0.00025193,-0.00010282,-1.8614e+08,260.97,0,9.6179e+07,-52.926,11633,12614,1,12614,1,0.0005501,3.7273e-09,0,0.00075581,8.5886e-05,1.9089e+08,1177.1,0,2.7539e+08,22.561,12613,567.13,0,567.13,0,0.00058159,1.7406e-09,0,0.00029264,0.00010892,2.1404e+08,563.43,0,1.0507e+08,51.577,567.13,1
1960,3.51,12124,1,12124,1,4.6649e-05,7.8368e-11,0,0.00050609,-8.5396e-06,-53.927,29.309,0,1.8687e+08,15.584,12123,13104,1,13104,1,0.0010212,7.2586e-09,0,0.0010212,0.00017405,3.2909e+08,2350.1,0,3.7743e+08,215.73,13103,12124,1,12124,1,4.6649e-05,1.6607e-10,0,0.00050534,-8.565e-06,1.7496e+07,46.451,0,1.9075e+08,-0.68653,12123,11097,1,11097,1,-0.00092795,-5.1337e-09,0,1.0552e-05,-0.00019104,-3.7743e+08,-1651.1,0,3.8503e+06,-139.63,11096,11634,1,11634,1,-0.00045869,-1.6529e-09,0,0.00025267,-0.00010318,-1.8656e+08,-517.11,0,9.6415e+07,-41.292,11633,12614,1,12614,1,0.00055199,1.4632e-09,0,0.00075801,8.6084e-05,1.9135e+08,467.42,0,2.7592e+08,77.392,12613,567.13,0,567.13,0,0.00058329,2.6635e-09,0,0.00029351,0.00010924,2.1453e+08,857.96,0,1.0529e+08,76.71,567.13,1
1960,3.52,12124,1,12124,1,4.7074e-05,-1.2343e-09,0,0.00050761,-8.6175e-06,-91.713,-393.65,0,1.8731e+08,-29.29,12123,13104,1,13104,1,0.0010246,2.4698e-09,0,0.0010246,0.00017451,3.2967e+08,845.58,0,3.7843e+08,136,13103,12124,1,12124,1,4.7074e-05,-9.8383e-10,0,0.00050683,-8.6425e-06,1.7649e+07,-310.1,0,1.9122e+08,-25.682,12123,11097,1,11097,1,-0.0009304,-4.8545e-09,0,1.0871e-05,-0.00019165,-3.7843e+08,-1563.9,0,3.9717e+06,-187.68,11096,11634,1,11634,1,-0.00045976,-2.6356e-09,0,0.00025342,-0.00010353,-1.87e+08,-834.65,0,9.6719e+07,-70.015,11633,12614,1,12614,1,0.00055391,1.081e-10,0,0.00076025,8.6284e-05,1.9182e+08,32.748,0,2.7645e+08,19.068,12613,567.13,0,567.13,0,0.00058501,1.713e-09,0,0.00029438,0.00010956,2.1503e+08,557.29,0,1.0552e+08,61.64,567.13,1
1960,3.53,12124,1,12124,1,4.7505e-05,-1.827e-09,0,0.00050912,-8.6962e-06,-226.92,-585.29,0,1.8775e+08,-19.136,12123,13104,1,13104,1,0.0010279,1.7937e-09,0,0.0010279,0.00017497,3.3025e+08,595.15,0,3.7943e+08,142.82,13103,12124,1,12124,1,4.7505e-05,-1.4923e-09,0,0.00050832,-8.7207e-06,1.7804e+07,-473.26,0,1.9169e+08,-18.847,12123,11097,1,11097,1,-0.00093286,-6.3015e-09,0,1.1195e-05,-0.00019227,-3.7943e+08,-2029.6,0,4.0948e+06,-222.41,11096,11634,1,11634,1,-0.00046082,-3.5894e-09,0,0.00025416,-0.00010389,-1.8743e+08,-1149.5,0,9.7045e+07,-73.315,11633,12614,1,12614,1,0.00055583,2.2161e-11,0,0.00076249,8.6483e-05,1.9229e+08,6.7589,0,2.7698e+08,32.935,12613,567.13,0,567.13,0,0.00058673,2.0719e-09,0,0.00029526,0.00010988,2.1553e+08,669.37,0,1.0575e+08,72.604,567.13,1
1960,3.54,12124,1,12124,1,4.7937e-05,-2.1743e-09,0,0.00051061,-8.7753e-06,104.48,-698.44,0,1.8818e+08,-5.4266,12123,13104,1,13104,1,0.0010312,5.0681e-09,0,0.0010312,0.00017543,3.3081e+08,1636.1,0,3.8041e+08,282.89,13103,12124,1,12124,1,4.7937e-05,-1.7573e-09,0,0.0005098,-8.7994e-06,1.796e+07,-564.05,0,1.9215e+08,-1.6843,12123,11097,1,11097,1,-0.00093527,-9.221e-09,0,1.1522e-05,-0.00019288,-3.8041e+08,-2954.9,0,4.219e+06,-339.65,11096,11634,1,11634,1,-0.00046186,-4.9025e-09,0,0.0002549,-0.00010425,-1.8785e+08,-1564.7,0,9.7369e+07,-100.18,11633,12614,1,12614,1,0.00055773,3.4649e-10,0,0.0007647,8.6679e-05,1.9276e+08,107.26,0,2.775e+08,83.315,12613,567.13,0,567.13,0,0.00058843,3.3266e-09,0,0.00029612,0.0001102,2.1601e+08,1071.3,0,1.0597e+08,123.37,567.13,1
1960,3.55,12124,1,12124,1,4.8371e-05,-1.0226e-09,0,0.00051214,-8.8547e-06,-36.589,-334.61,0,1.8863e+08,-34.781,12123,13104,1,13104,1,0.0010345,2.1526e-09,0,0.0010345,0.00017589,3.3138e+08,702.56,0,3.814e+08,66.888,13103,12124,1,12124,1,4.8372e-05,-7.174e-10,0,0.00051129,-8.8783e-06,1.8116e+07,-226.84,0,1.9261e+08,-29.305,12123,11097,1,11097,1,-0.00093771,-4.2677e-09,0,1.1848e-05,-0.0001935,-3.814e+08,-1390.1,0,4.343e+06,-157.98,11096,11634,1,11634,1,-0.00046292,-2.2889e-09,0,0.00025565,-0.0001046,-1.8828e+08,-742.93,0,9.7697e+07,-65.906,11633,12614,1,12614,1,0.00055967,1.9192e-10,0,0.00076695,8.6879e-05,1.9323e+08,53.78,0,2.7803e+08,-0.65755,12613,567.13,0,567.13,0,0.00059016,1.5329e-09,0,0.00029701,0.00011052,2.1651e+08,501.62,0,1.062e+08,47.963,567.13,1
1960,3.56,12124,1,12124,1,4.8812e-05,1.9297e-09,0,0.00051366,-8.9353e-06,-22.175,609.07,0,1.8907e+08,23.408,12123,13104,1,13104,1,0.0010378,7.5973e-09,0,0.0010378,0.00017634,3.3195e+08,2426.1,0,3.824e+08,275.56,13103,12124,1,12124,1,4.8813e-05,1.547e-09,0,0.00051279,-8.9579e-06,1.8274e+07,485.34,0,1.9308e+08,13.406,12123,11097,1,11097,1,-0.00094016,-1.2221e-09,0,1.2183e-05,-0.00019411,-3.824e+08,-418.5,0,4.4701e+06,-205.47,11096,11634,1,11634,1,-0.00046398,2.2008e-10,0,0.00025639,-0.00010496,-1.8871e+08,63.497,0,9.8025e+07,-26.903,11633,12614,1,12614,1,0.0005616,3.2788e-09,0,0.00076918,8.7078e-05,1.9369e+08,1032,0,2.7856e+08,67.911,12613,567.13,0,567.13,0,0.00059189,2.0929e-09,0,0.00029789,0.00011084,2.17e+08,671.75,0,1.0643e+08,69.83,567.13,1
1960,3.57,12124,1,12124,1,4.9256e-05,-2.1921e-09,0,0.00051517,-9.0165e-06,60.56,-693.78,0,1.895e+08,-36.286,12123,13104,1,13104,1,0.0010411,1.027e-09,0,0.0010411,0.0001768,3.3251e+08,351.76,0,3.8339e+08,107.46,13103,12124,1,12124,1,4.9257e-05,-2.2302e-09,0,0.00051428,-9.0389e-06,1.8433e+07,-688.25,0,1.9354e+08,-32.5,12123,11097,1,11097,1,-0.0009426,-5.4076e-09,0,1.2521e-05,-0.00019473,-3.8339e+08,-1715.9,0,4.5981e+06,-213.64,11096,11634,1,11634,1,-0.00046503,-3.5725e-09,0,0.00025714,-0.00010532,-1.8914e+08,-1135.4,0,9.8353e+07,-72.024,11633,12614,1,12614,1,0.00056354,-8.8404e-10,0,0.00077142,8.7275e-05,1.9416e+08,-256.87,0,2.7908e+08,-1.9233,12613,567.13,0,567.13,0,0.00059361,1.6715e-09,0,0.00029877,0.00011117,2.175e+08,532.83,0,1.0665e+08,57.728,567.13,1
1960,3.58,12124,1,12124,1,4.97e-05,1.8685e-09,0,0.00051668,-9.0976e-06,-108.48,590.22,0,1.8993e+08,50.498,12123,13104,1,13104,1,0.0010444,8.2275e-09,0,0.0010444,0.00017725,3.3306e+08,2613.7,0,3.8437e+08,308.87,13103,12124,1,12124,1,4.9701e-05,1.3312e-09,0,0.00051577,-9.119e-06,1.8592e+07,404.59,0,1.94e+08,42.451,12123,11097,1,11097,1,-0.00094501,-1.0735e-09,0,1.2859e-05,-0.00019535,-3.8437e+08,-367.67,0,4.7262e+06,-179.25,11096,11634,1,11634,1,-0.00046606,1.3236e-10,0,0.00025788,-0.00010568,-1.8956e+08,41.542,0,9.868e+07,-8.3483,11633,12614,1,12614,1,0.00056547,3.2194e-09,0,0.00077365,8.7471e-05,1.9462e+08,1004.9,0,2.7959e+08,95.189,12613,567.13,0,567.13,0,0.00059532,2.1116e-09,0,0.00029964,0.00011148,2.1798e+08,675.1,0,1.0687e+08,78.726,567.13,1
1960,3.59,12124,1,12124,1,5.0147e-05,1.09e-10,0,0.0005182,-9.1794e-06,-26.001,38.851,0,1.9037e+08,-5.1341,12123,13104,1,13104,1,0.0010477,2.0189e-09,0,0.0010477,0.00017771,3.3361e+08,668.87,0,3.8535e+08,95.504,13103,12124,1,12124,1,5.0148e-05,-7.5893e-11,0,0.00051726,-9.2006e-06,1.8752e+07,-23.767,0,1.9446e+08,-5.4773,12123,11097,1,11097,1,-0.00094742,-1.2943e-09,0,1.3199e-05,-0.00019596,-3.8535e+08,-418.93,0,4.8551e+06,-87.97,11096,11634,1,11634,1,-0.00046711,-3.9843e-10,0,0.00025863,-0.00010604,-1.8999e+08,-119.97,0,9.9008e+07,-25.206,11633,12614,1,12614,1,0.0005674,5.9052e-10,0,0.00077589,8.7667e-05,1.9508e+08,188.68,0,2.801e+08,12.817,12613,567.13,0,567.13,0,0.00059705,7.8722e-10,0,0.00030052,0.00011181,2.1847e+08,256.79,0,1.071e+08,29.294,567.13,1
1960,3.6,12124,1,12124,1,5.0598e-05,-1.2749e-09,0,0.00051971,-9.2618e-06,-10.727,-402.92,0,1.908e+08,-25.974,12123,13104,1,13104,1,0.001051,5.907e-10,0,0.001051,0.00017816,3.3416e+08,202.31,0,3.8634e+08,87.586,13103,12124,1,12124,1,5.0598e-05,-1.2717e-09,0,0.00051874,-9.2825e-06,1.8913e+07,-397.46,0,1.9492e+08,-26.475,12123,11097,1,11097,1,-0.00094985,-3.2627e-09,0,1.3544e-05,-0.00019658,-3.8634e+08,-1033.7,0,4.9855e+06,-121.14,11096,11634,1,11634,1,-0.00046814,-2.0441e-09,0,0.00025937,-0.0001064,-1.9041e+08,-646.27,0,9.9336e+07,-42.474,11633,12614,1,12614,1,0.00056934,-5.2455e-10,0,0.00077811,8.7862e-05,1.9555e+08,-156.27,0,2.8061e+08,-10.55,12613,567.13,0,567.13,0,0.00059876,9.6716e-10,0,0.0003014,0.00011213,2.1896e+08,307.77,0,1.0732e+08,29.176,567.13,1
1960,3.61,12124,1,12124,1,5.105e-05,-1.3307e-09,0,0.00052122,-9.3445e-06,-49.571,-425.32,0,1.9123e+08,-3.2139,12123,13104,1,13104,1,0.0010544,1.1369e-09,0,0.0010544,0.00017862,3.347e+08,389.39,0,3.8732e+08,112.83,13103,12124,1,12124,1,5.105e-05,-1.0131e-09,0,0.00052023,-9.3645e-06,1.9075e+07,-314.69,0,1.9538e+08,-4.0183,12123,11097,1,11097,1,-0.00095227,-4.8612e-09,0,1.3889e-05,-0.0001972,-3.8732e+08,-1547.9,0,5.116e+06,-154.4,11096,11634,1,11634,1,-0.00046918,-2.5877e-09,0,0.00026012,-0.00010676,-1.9083e+08,-826.04,0,9.9664e+07,-36.249,11633,12614,1,12614,1,0.00057128,4.7603e-11,0,0.00078035,8.8057e-05,1.9601e+08,15.047,0,2.8112e+08,31.049,12613,567.13,0,567.13,0,0.00060048,1.5537e-09,0,0.00030228,0.00011245,2.1944e+08,496.82,0,1.0754e+08,48.949,567.13,1
1960,3.62,12124,1,12124,1,5.1506e-05,6.9871e-10,0,0.00052274,-9.4278e-06,-0.34173,215.73,0,1.9167e+08,1.2056,12123,13104,1,13104,1,0.0010577,3.966e-09,0,0.0010577,0.00017907,3.3525e+08,1262.8,0,3.8831e+08,83.934,13103,12124,1,12124,1,5.1506e-05,4.0983e-10,0,0.00052173,-9.4473e-06,1.9238e+07,119.38,0,1.9583e+08,2.9075,12123,11097,1,11097,1,-0.00095468,-6.3614e-10,0,1.4238e-05,-0.00019782,-3.8831e+08,-217.82,0,5.2477e+06,-81.633,11096,11634,1,11634,1,-0.00047022,-2.673e-11,0,0.00026086,-0.00010713,-1.9125e+08,-8.2525,0,9.9994e+07,-17.191,11633,12614,1,12614,1,0.00057323,1.224e-09,0,0.00078259,8.8253e-05,1.9647e+08,377.92,0,2.8163e+08,20.298,12613,567.13,0,567.13,0,0.00060221,1.0094e-09,0,0.00030316,0.00011277,2.1993e+08,321.91,0,1.0777e+08,27.185,567.13,1
1960,3.63,12124,1,12124,1,5.1966e-05,-1.6089e-09,0,0.00052426,-9.512e-06,-55.263,-511.36,0,1.9209e+08,-20.476,12123,13104,1,13104,1,0.0010611,9.7042e-10,0,0.0010611,0.00017953,3.3579e+08,332.37,0,3.8929e+08,114.14,13103,12124,1,12124,1,5.1966e-05,-1.5364e-09,0,0.00052322,-9.5309e-06,1.9402e+07,-468.44,0,1.9629e+08,-15.453,12123,11097,1,11097,1,-0.00095712,-4.7735e-09,0,1.4593e-05,-0.00019845,-3.8929e+08,-1521.8,0,5.3817e+06,-171.71,11096,11634,1,11634,1,-0.00047125,-2.8776e-09,0,0.00026161,-0.00010749,-1.9167e+08,-917.04,0,1.0032e+08,-61.52,11633,12614,1,12614,1,0.00057518,-2.5944e-10,0,0.00078483,8.8447e-05,1.9693e+08,-83.647,0,2.8214e+08,15.364,12613,567.13,0,567.13,0,0.00060393,1.5073e-09,0,0.00030404,0.00011309,2.2041e+08,483.33,0,1.0799e+08,58.598,567.13,1
1960,3.64,12124,1,12124,1,5.2428e-05,1.0009e-09,0,0.00052577,-9.5964e-06,178.07,311.53,0,1.9252e+08,-0.56407,12123,13104,1,13104,1,0.0010644,3.4724e-09,0,0.0010644,0.00017998,3.3632e+08,1120.5,0,3.9027e+08,91.617,13103,12124,1,12124,1,5.2428e-05,7.47e-10,0,0.00052471,-9.6146e-06,1.9567e+07,225.25,0,1.9675e+08,2.7013,12123,11097,1,11097,1,-0.00095951,-2.8836e-10,0,1.4946e-05,-0.00019906,-3.9027e+08,-98.705,0,5.5151e+06,-125.72,11096,11634,1,11634,1,-0.00047228,1.0601e-10,0,0.00026235,-0.00010785,-1.9209e+08,32.198,0,1.0065e+08,-25.212,11633,12614,1,12614,1,0.00057713,1.7763e-09,0,0.00078706,8.864e-05,1.9739e+08,551.13,0,2.8264e+08,23.719,12613,567.13,0,567.13,0,0.00060565,1.0057e-09,0,0.00030492,0.00011341,2.2089e+08,319.02,0,1.0821e+08,40.694,567.13,1
1960,3.65,12124,1,12124,1,5.2894e-05,2.1613e-10,0,0.0005273,-9.6816e-06,64.041,68.987,0,1.9295e+08,-11.263,12123,13104,1,13104,1,0.0010677,2.1651e-09,0,0.0010677,0.00018043,3.3685e+08,701.01,0,3.9125e+08,100.74,13103,12124,1,12124,1,5.2894e-05,-8.977e-12,0,0.0005262,-9.6993e-06,1.9732e+07,-2.6608,0,1.972e+08,-9.848,12123,11097,1,11097,1,-0.00096193,-5.7215e-10,0,1.5307e-05,-0.00019969,-3.9125e+08,-186,0,5.6509e+06,-111.88,11096,11634,1,11634,1,-0.00047331,-1.9904e-10,0,0.0002631,-0.00010822,-1.9251e+08,-63.42,0,1.0098e+08,-34.424,11633,12614,1,12614,1,0.0005791,4.3681e-10,0,0.00078931,8.8834e-05,1.9784e+08,138.47,0,2.8314e+08,11.157,12613,567.13,0,567.13,0,0.00060737,6.2986e-10,0,0.00030581,0.00011374,2.2137e+08,204.75,0,1.0843e+08,34.858,567.13,1
1960,3.66,12124,1,12124,1,5.3362e-05,-2.2485e-09,0,0.00052881,-9.7672e-06,-11.989,-711.9,0,1.9338e+08,-10.349,12123,13104,1,13104,1,0.0010711,1.3055e-09,0,0.0010711,0.00018089,3.3739e+08,447.12,0,3.9224e+08,169.46,13103,12124,1,12124,1,5.3361e-05,-2.168e-09,0,0.00052769,-9.7842e-06,1.9899e+07,-704.07,0,1.9765e+08,-2.2425,12123,11097,1,11097,1,-0.00096436,-6.1096e-09,0,1.5669e-05,-0.00020031,-3.9224e+08,-1929.7,0,5.7872e+06,-228.43,11096,11634,1,11634,1,-0.00047433,-3.9353e-09,0,0.00026385,-0.00010858,-1.9292e+08,-1255.3,0,1.0131e+08,-62.593,11633,12614,1,12614,1,0.00058105,-3.8573e-10,0,0.00079154,8.9026e-05,1.983e+08,-125.86,0,2.8363e+08,40.453,12613,567.13,0,567.13,0,0.00060909,2.0387e-09,0,0.00030669,0.00011406,2.2185e+08,650.6,0,1.0865e+08,75.849,567.13,1
1960,3.67,12124,1,12124,1,5.3832e-05,9.8364e-10,0,0.00053033,-9.8532e-06,-52.214,303.7,0,1.9381e+08,-2.4236,12123,13104,1,13104,1,0.0010744,2.7843e-09,0,0.0010744,0.00018134,3.3791e+08,857.11,0,3.9321e+08,124.56,13103,12124,1,12124,1,5.3833e-05,9.6599e-10,0,0.00052919,-9.8696e-06,2.0067e+07,304.53,0,1.9811e+08,-6.1247,12123,11097,1,11097,1,-0.00096675,-5.9686e-10,0,1.6031e-05,-0.00020093,-3.9321e+08,-204.42,0,5.9233e+06,-140.01,11096,11634,1,11634,1,-0.00047536,2.1195e-10,0,0.00026459,-0.00010894,-1.9334e+08,65.923,0,1.0164e+08,-32.175,11633,12614,1,12614,1,0.00058302,1.7735e-09,0,0.00079378,8.922e-05,1.9876e+08,541.02,0,2.8413e+08,23.584,12613,567.13,0,567.13,0,0.00061082,9.1039e-10,0,0.00030758,0.00011438,2.2233e+08,283.47,0,1.0887e+08,44.863,567.13,1
1960,3.68,12124,1,12124,1,5.4305e-05,9.5254e-10,0,0.00053183,-9.9395e-06,-179.62,303.22,0,1.9422e+08,41.104,12123,13104,1,13104,1,0.0010777,9.4356e-09,0,0.0010777,0.00018178,3.3842e+08,2996.5,0,3.9418e+08,251.65,13103,12124,1,12124,1,5.4305e-05,2.7467e-10,0,0.00053066,-9.9552e-06,2.0234e+07,83.128,0,1.9855e+08,33.58,12123,11097,1,11097,1,-0.00096912,-2.8339e-09,0,1.64e-05,-0.00020155,-3.9418e+08,-885.78,0,6.0619e+06,-132.98,11096,11634,1,11634,1,-0.00047636,-6.8829e-10,0,0.00026533,-0.00010931,-1.9375e+08,-217.82,0,1.0197e+08,-11.849,11633,12614,1,12614,1,0.00058497,2.138e-09,0,0.00079599,8.9408e-05,1.9921e+08,673.1,0,2.8461e+08,82.815,12613,567.13,0,567.13,0,0.00061252,2.4977e-09,0,0.00030845,0.0001147,2.228e+08,794.8,0,1.0908e+08,70.739,567.13,1
1960,3.69,12124,1,12124,1,5.478e-05,5.5121e-10,0,0.00053336,-1.0027e-05,-27.062,176.42,0,1.9465e+08,-9.3852,12123,13104,1,13104,1,0.0010811,2.3138e-09,0,0.0010811,0.00018224,3.3895e+08,750.34,0,3.9517e+08,98.558,13103,12124,1,12124,1,5.4781e-05,4.4316e-10,0,0.00053217,-1.0042e-05,2.0403e+07,138.44,0,1.9901e+08,-13.935,12123,11097,1,11097,1,-0.00097155,-5.9562e-10,0,1.6768e-05,-0.00020218,-3.9517e+08,-203.94,0,6.1999e+06,-112.17,11096,11634,1,11634,1,-0.00047739,1.636e-11,0,0.00026608,-0.00010967,-1.9417e+08,5.0415,0,1.0231e+08,-38.395,11633,12614,1,12614,1,0.00058695,9.7603e-10,0,0.00079825,8.9602e-05,1.9967e+08,310.21,0,2.8511e+08,15.893,12613,567.13,0,567.13,0,0.00061426,6.6841e-10,0,0.00030934,0.00011502,2.2329e+08,219.21,0,1.0931e+08,40.503,567.13,1
1960,3.7,12124,1,12124,1,5.5262e-05,2.9079e-10,0,0.00053488,-1.0115e-05,155.03,95.337,0,1.9507e+08,23.695,12123,13104,1,13104,1,0.0010845,5.7188e-09,0,0.0010845,0.00018269,3.3946e+08,1825.1,0,3.9614e+08,278.44,13103,12124,1,12124,1,5.5263e-05,-1.9467e-10,0,0.00053366,-1.0129e-05,2.0574e+07,-56.827,0,1.9946e+08,15.934,12123,11097,1,11097,1,-0.00097395,-2.4445e-09,0,1.7143e-05,-0.00020281,-3.9614e+08,-771.86,0,6.3408e+06,-191.57,11096,11634,1,11634,1,-0.0004784,-8.0771e-10,0,0.00026683,-0.00011004,-1.9458e+08,-255.64,0,1.0264e+08,-23.474,11633,12614,1,12614,1,0.00058892,1.1499e-09,0,0.00080049,8.9792e-05,2.0012e+08,355.1,0,2.856e+08,49.858,12613,567.13,0,567.13,0,0.00061598,1.653e-09,0,0.00031023,0.00011534,2.2376e+08,528.13,0,1.0952e+08,72.14,567.13,1
1960,3.71,12124,1,12124,1,5.5746e-05,-1.4648e-09,0,0.00053641,-1.0203e-05,60.406,-459.63,0,1.955e+08,-21.333,12123,13104,1,13104,1,0.0010879,1.0804e-09,0,0.0010879,0.00018314,3.3998e+08,369.86,0,3.9712e+08,110.69,13103,12124,1,12124,1,5.5746e-05,-1.4105e-09,0,0.00053516,-1.0217e-05,2.0745e+07,-434.56,0,1.9991e+08,-16.985,12123,11097,1,11097,1,-0.00097636,-4.0203e-09,0,1.752e-05,-0.00020343,-3.9712e+08,-1267.2,0,6.4817e+06,-138.1,11096,11634,1,11634,1,-0.00047941,-2.6122e-09,0,0.00026758,-0.00011041,-1.9499e+08,-825.6,0,1.0297e+08,-54.641,11633,12614,1,12614,1,0.00059091,-2.7399e-10,0,0.00080274,8.9984e-05,2.0057e+08,-80.719,0,2.8609e+08,10.211,12613,567.13,0,567.13,0,0.00061771,1.3405e-09,0,0.00031112,0.00011567,2.2424e+08,426.18,0,1.0974e+08,47.853,567.13,1
1960,3.72,12124,1,12124,1,5.6232e-05,3.2135e-09,0,0.00053792,-1.0292e-05,-30.174,1013.3,0,1.9591e+08,85.177,12123,13104,1,13104,1,0.0010912,1.5688e-08,0,0.0010912,0.00018359,3.4049e+08,4956.5,0,3.981e+08,578.13,13103,12124,1,12124,1,5.6231e-05,2.0292e-09,0,0.00053664,-1.0305e-05,2.0917e+07,624.28,0,2.0035e+08,72.859,12123,11097,1,11097,1,-0.00097876,-2.2833e-09,0,1.7899e-05,-0.00020406,-3.981e+08,-737.45,0,6.6237e+06,-348.76,11096,11634,1,11634,1,-0.00048041,-6.7879e-11,0,0.00026832,-0.00011078,-1.954e+08,-18.43,0,1.033e+08,-19.53,11633,12614,1,12614,1,0.00059288,5.7814e-09,0,0.00080496,9.0171e-05,2.0102e+08,1794,0,2.8656e+08,153.24,12613,567.13,0,567.13,0,0.00061942,4.0044e-09,0,0.00031199,0.00011598,2.247e+08,1275,0,1.0995e+08,142.89,567.13,1
1960,3.73,12124,1,12124,1,5.6719e-05,3.1408e-09,0,0.00053945,-1.0381e-05,-62.481,1003.6,0,1.9634e+08,38.448,12123,13104,1,13104,1,0.0010946,1.1858e-08,0,0.0010946,0.00018404,3.41e+08,3813.9,0,3.9908e+08,433.14,13103,12124,1,12124,1,5.672e-05,2.4785e-09,0,0.00053815,-1.0394e-05,2.109e+07,772.1,0,2.0081e+08,24.242,12123,11097,1,11097,1,-0.00098118,-1.5951e-09,0,1.8278e-05,-0.00020469,-3.9908e+08,-466.54,0,6.7655e+06,-270.73,11096,11634,1,11634,1,-0.00048143,5.4553e-10,0,0.00026908,-0.00011115,-1.9581e+08,165.05,0,1.0364e+08,-33.38,11633,12614,1,12614,1,0.00059487,5.2609e-09,0,0.00080723,9.0363e-05,2.0147e+08,1671.9,0,2.8705e+08,79.434,12613,567.13,0,567.13,0,0.00062116,3.0534e-09,0,0.00031289,0.00011631,2.2518e+08,989.84,0,1.1017e+08,105.93,567.13,1
1960,3.74,12124,1,12124,1,5.7215e-05,1.2328e-09,0,0.00054099,-1.0472e-05,90.815,403.99,0,1.9676e+08,-23.509,12123,13104,1,13104,1,0.001098,3.0004e-09,0,0.001098,0.00018449,3.415e+08,1026.9,0,4.0005e+08,68.728,13103,12124,1,12124,1,5.7216e-05,1.2918e-09,0,0.00053965,-1.0485e-05,2.1265e+07,405.97,0,2.0126e+08,-20.287,12123,11097,1,11097,1,-0.00098356,-6.101e-10,0,1.8666e-05,-0.00020532,-4.0005e+08,-163.02,0,6.9103e+06,-121.32,11096,11634,1,11634,1,-0.00048244,3.8453e-10,0,0.00026983,-0.00011152,-1.9622e+08,116.97,0,1.0397e+08,-43.274,11633,12614,1,12614,1,0.00059687,2.1119e-09,0,0.00080949,9.0553e-05,2.0193e+08,684.71,0,2.8753e+08,-0.51073,12613,567.13,0,567.13,0,0.0006229,9.9855e-10,0,0.00031379,0.00011663,2.2566e+08,332.06,0,1.1039e+08,34.553,567.13,1
1960,3.75,12124,1,12124,1,5.7713e-05,-1.4792e-09,0,0.0005425,-1.0563e-05,-31.748,-457.31,0,1.9718e+08,-8.09,12123,13104,1,13104,1,0.0011014,2.9002e-09,0,0.0011014,0.00018494,3.42e+08,970.83,0,4.0102e+08,172.19,13103,12124,1,12124,1,5.7714e-05,-1.3119e-09,0,0.00054115,-1.0575e-05,2.1441e+07,-410.26,0,2.017e+08,-13.191,12123,11097,1,11097,1,-0.00098594,-5.3349e-09,0,1.9058e-05,-0.00020595,-4.0102e+08,-1673.9,0,7.0565e+06,-185.34,11096,11634,1,11634,1,-0.00048343,-3.1746e-09,0,0.00027057,-0.00011189,-1.9662e+08,-985.72,0,1.043e+08,-56.796,11633,12614,1,12614,1,0.00059886,1.5222e-10,0,0.00081172,9.074e-05,2.0237e+08,48.611,0,2.88e+08,36.805,12613,567.13,0,567.13,0,0.00062462,1.9746e-09,0,0.00031467,0.00011695,2.2612e+08,620.63,0,1.106e+08,69.091,567.13,1
1960,3.76,12124,1,12124,1,5.8212e-05,2.3903e-09,0,0.00054403,-1.0654e-05,102.75,752.59,0,1.976e+08,18.507,12123,13104,1,13104,1,0.0011048,6.6017e-09,0,0.0011048,0.00018539,3.425e+08,2098.9,0,4.02e+08,209.88,13103,12124,1,12124,1,5.8212e-05,2.3419e-09,0,0.00054265,-1.0665e-05,2.1616e+07,741.45,0,2.0215e+08,7.6684,12123,11097,1,11097,1,-0.00098834,-7.6426e-10,0,1.945e-05,-0.00020658,-4.02e+08,-261.76,0,7.2028e+06,-161.96,11096,11634,1,11634,1,-0.00048443,9.6338e-10,0,0.00027132,-0.00011226,-1.9703e+08,281,0,1.0464e+08,-25.014,11633,12614,1,12614,1,0.00060086,3.7699e-09,0,0.00081397,9.0929e-05,2.0282e+08,1182.6,0,2.8847e+08,57.816,12613,567.13,0,567.13,0,0.00062635,1.7791e-09,0,0.00031557,0.00011728,2.2659e+08,568.4,0,1.1082e+08,63.019,567.13,1
1960,3.77,12124,1,12124,1,5.8714e-05,1.8363e-09,0,0.00054555,-1.0746e-05,84.609,588.25,0,1.9801e+08,26.433,12123,13104,1,13104,1,0.0011082,9.0436e-09,0,0.0011082,0.00018584,3.4298e+08,2879.8,0,4.0296e+08,334.34,13103,12124,1,12124,1,5.8714e-05,1.1579e-09,0,0.00054414,-1.0757e-05,2.1793e+07,366.52,0,2.0259e+08,10.131,12123,11097,1,11097,1,-0.00099072,-1.1532e-09,0,1.9845e-05,-0.00020721,-4.0296e+08,-373.94,0,7.3499e+06,-182.91,11096,11634,1,11634,1,-0.00048542,-5.2947e-11,0,0.00027207,-0.00011263,-1.9744e+08,-15.462,0,1.0497e+08,-34.582,11633,12614,1,12614,1,0.00060285,3.2238e-09,0,0.00081621,9.1115e-05,2.0327e+08,1019.4,0,2.8894e+08,56.989,12613,567.13,0,567.13,0,0.00062807,2.2926e-09,0,0.00031646,0.0001176,2.2706e+08,736.91,0,1.1103e+08,87.438,567.13,1
1960,3.78,12124,1,12124,1,5.9219e-05,5.1077e-10,0,0.00054709,-1.0838e-05,63.364,171.71,0,1.9843e+08,-12.613,12123,13104,1,13104,1,0.0011116,1.7762e-09,0,0.0011116,0.00018628,3.4347e+08,607.87,0,4.0393e+08,77.048,13103,12124,1,12124,1,5.922e-05,4.7588e-10,0,0.00054564,-1.0849e-05,2.1971e+07,145.11,0,2.0304e+08,-9.9849,12123,11097,1,11097,1,-0.00099311,-7.0012e-10,0,2.0243e-05,-0.00020784,-4.0393e+08,-187.99,0,7.4976e+06,-112.42,11096,11634,1,11634,1,-0.00048643,-6.7241e-11,0,0.00027283,-0.000113,-1.9784e+08,-21.73,0,1.0531e+08,-34.404,11633,12614,1,12614,1,0.00060487,1.1008e-09,0,0.00081847,9.1304e-05,2.0372e+08,360.62,0,2.8941e+08,9.6566,12613,567.13,0,567.13,0,0.00062982,6.5737e-10,0,0.00031736,0.00011792,2.2753e+08,214.41,0,1.1124e+08,30.465,567.13,1
1960,3.79,12124,1,12124,1,5.9731e-05,-1.6779e-10,0,0.00054863,-1.0932e-05,84.235,-46.896,0,1.9885e+08,-10.636,12123,13104,1,13104,1,0.001115,2.3524e-09,0,0.001115,0.00018673,3.4396e+08,761.31,0,4.049e+08,95.458,13103,12124,1,12124,1,5.9731e-05,-1.8096e-10,0,0.00054715,-1.0942e-05,2.2151e+07,-59.162,0,2.0348e+08,-14.004,12123,11097,1,11097,1,-0.0009955,-1.4641e-09,0,2.0647e-05,-0.00020848,-4.049e+08,-451.24,0,7.6479e+06,-101.81,11096,11634,1,11634,1,-0.00048742,-7.5162e-10,0,0.00027358,-0.00011338,-1.9825e+08,-232.24,0,1.0556e+08,-34.045,11633,12614,1,12614,1,0.00060688,2.6758e-10,0,0.00082073,9.1491e-05,2.0416e+08,85.106,0,2.8988e+08,7.5321,12613,567.13,0,567.13,0,0.00063155,7.7036e-10,0,0.00031825,0.00011825,2.28e+08,242.61,0,1.1146e+08,33.915,567.13,1
1960,3.8,12124,1,12124,1,6.0245e-05,-5.9999e-10,0,0.00055015,-1.1026e-05,464.37,-187.69,0,1.9926e+08,-2.6125,12123,13104,1,13104,1,0.0011184,5.1734e-09,0,0.0011184,0.00018718,3.4444e+08,1644.6,0,4.0587e+08,218.69,13103,12124,1,12124,1,6.0245e-05,-5.264e-10,0,0.00054865,-1.1035e-05,2.2331e+07,-154.59,0,2.0392e+08,-7.1451,12123,11097,1,11097,1,-0.00099788,-4.0156e-09,0,2.1055e-05,-0.00020911,-4.0587e+08,-1258.9,0,7.7993e+06,-164.78,11096,11634,1,11634,1,-0.0004884,-2.0745e-09,0,0.00027432,-0.00011375,-1.9865e+08,-646.64,0,1.0581e+08,-48.665,11633,12614,1,12614,1,0.00060889,4.5747e-10,0,0.00082297,9.1676e-05,2.0461e+08,143.26,0,2.9034e+08,42.157,12613,567.13,0,567.13,0,0.00063328,1.8397e-09,0,0.00031915,0.00011857,2.2846e+08,582.09,0,1.1167e+08,68.083,567.13,1
1960,3.81,12124,1,12124,1,6.0759e-05,-5.7485e-10,0,0.00055168,-1.112e-05,188.44,-183.45,0,1.9967e+08,-11.714,12123,13104,1,13104,1,0.0011218,4.1567e-09,0,0.0011218,0.00018763,3.4492e+08,1330.7,0,4.0684e+08,151.45,13103,12124,1,12124,1,6.0759e-05,-2.7083e-10,0,0.00055015,-1.1129e-05,2.2512e+07,-86.755,0,2.0436e+08,-4.2184,12123,11097,1,11097,1,-0.0010003,-4.3097e-09,0,2.1462e-05,-0.00020974,-4.0684e+08,-1374.2,0,7.9498e+06,-178.85,11096,11634,1,11634,1,-0.00048939,-1.9782e-09,0,0.00027507,-0.00011412,-1.9905e+08,-626.1,0,1.0606e+08,-64.962,11633,12614,1,12614,1,0.00061091,5.4716e-10,0,0.00082522,9.1861e-05,2.0505e+08,169.01,0,2.908e+08,41.009,12613,567.13,0,567.13,0,0.00063501,1.7823e-09,0,0.00032004,0.00011889,2.2892e+08,568.44,0,1.1188e+08,69.523,567.13,1
1960,3.82,12124,1,12124,1,6.1276e-05,-7.6875e-10,0,0.00055321,-1.1214e-05,-139.03,-245.66,0,2.0008e+08,-7.0941,12123,13104,1,13104,1,0.0011252,3.4453e-10,0,0.0011252,0.00018807,3.4539e+08,118,0,4.0781e+08,107.18,13103,12124,1,12124,1,6.1276e-05,-7.9406e-10,0,0.00055165,-1.1223e-05,2.2693e+07,-243.76,0,2.048e+08,-4.0291,12123,11097,1,11097,1,-0.0010026,-2.0725e-09,0,2.1871e-05,-0.00021038,-4.0781e+08,-656.1,0,8.1015e+06,-117.47,11096,11634,1,11634,1,-0.00049038,-1.1435e-09,0,0.00027583,-0.0001145,-1.9945e+08,-369.7,0,1.0631e+08,-35.316,11633,12614,1,12614,1,0.00061293,-3.0088e-10,0,0.00082748,9.2048e-05,2.0549e+08,-90.353,0,2.9126e+08,21.046,12613,567.13,0,567.13,0,0.00063675,5.7689e-10,0,0.00032094,0.00011922,2.2939e+08,188.99,0,1.1209e+08,41.892,567.13,1
1960,3.83,12124,1,12124,1,6.1799e-05,1.3093e-09,0,0.00055475,-1.131e-05,-87.612,408.11,0,2.0049e+08,0.44334,12123,13104,1,13104,1,0.0011286,3.26e-09,0,0.0011286,0.00018852,3.4587e+08,1006.3,0,4.0878e+08,131.89,13103,12124,1,12124,1,6.18e-05,1.337e-09,0,0.00055316,-1.1319e-05,2.2876e+07,415.48,0,2.0524e+08,-0.78387,12123,11097,1,11097,1,-0.001005,-6.1793e-10,0,2.2287e-05,-0.00021102,-4.0878e+08,-211.64,0,8.2553e+06,-151.92,11096,11634,1,11634,1,-0.00049136,4.6501e-10,0,0.00027658,-0.00011488,-1.9985e+08,141.22,0,1.0655e+08,-33.666,11633,12614,1,12614,1,0.00061496,2.1609e-09,0,0.00082973,9.2233e-05,2.0594e+08,673.02,0,2.9172e+08,28.607,12613,567.13,0,567.13,0,0.00063848,1.0177e-09,0,0.00032184,0.00011954,2.2985e+08,320.33,0,1.123e+08,55.097,567.13,1
1960,3.84,12124,1,12124,1,6.2326e-05,3.9084e-10,0,0.00055629,-1.1406e-05,-44.63,126.3,0,2.0091e+08,0.74767,12123,13104,1,13104,1,0.001132,1.785e-09,0,0.001132,0.00018897,3.4633e+08,566.21,0,4.0974e+08,85.007,13103,12124,1,12124,1,6.2326e-05,3.6453e-10,0,0.00055467,-1.1414e-05,2.306e+07,116.1,0,2.0568e+08,-4.6706,12123,11097,1,11097,1,-0.0010074,-9.1242e-11,0,2.2706e-05,-0.00021165,-4.0974e+08,-24.053,0,8.4099e+06,-50.052,11096,11634,1,11634,1,-0.00049234,1.4225e-10,0,0.00027733,-0.00011525,-2.0025e+08,42.859,0,1.068e+08,-13.954,11633,12614,1,12614,1,0.00061699,5.0048e-10,0,0.000832,9.2418e-05,2.0638e+08,168.37,0,2.9217e+08,10.013,12613,567.13,0,567.13,0,0.00064023,3.2695e-10,0,0.00032274,0.00011987,2.3031e+08,107.07,0,1.1251e+08,23.595,567.13,1
1960,3.85,12124,1,12124,1,6.2856e-05,-9.6861e-10,0,0.00055782,-1.1503e-05,157.4,-301.94,0,2.0131e+08,16.164,12123,13104,1,13104,1,0.0011355,3.1754e-09,0,0.0011355,0.00018941,3.468e+08,1003.1,0,4.1071e+08,207.1,13103,12124,1,12124,1,6.2856e-05,-9.371e-10,0,0.00055617,-1.1511e-05,2.3246e+07,-291.57,0,2.0612e+08,16.933,12123,11097,1,11097,1,-0.0010098,-3.7637e-09,0,2.313e-05,-0.00021229,-4.1071e+08,-1176.7,0,8.5661e+06,-155.93,11096,11634,1,11634,1,-0.00049331,-2.1813e-09,0,0.00027808,-0.00011563,-2.0064e+08,-679.26,0,1.0705e+08,-36.3,11633,12614,1,12614,1,0.00061902,1.643e-10,0,0.00083425,9.26e-05,2.0682e+08,50.674,0,2.9262e+08,59.138,12613,567.13,0,567.13,0,0.00064196,1.4953e-09,0,0.00032364,0.00012019,2.3077e+08,469.71,0,1.1272e+08,73.112,567.13,1
1960,3.86,12124,1,12124,1,6.3387e-05,4.7165e-10,0,0.00055935,-1.16e-05,-39.523,144.46,0,2.0172e+08,10.211,12123,13104,1,13104,1,0.0011389,3.8525e-09,0,0.0011389,0.00018986,3.4726e+08,1212.1,0,4.1167e+08,84.054,13103,12124,1,12124,1,6.3387e-05,2.612e-10,0,0.00055767,-1.1608e-05,2.3431e+07,77.418,0,2.0656e+08,14.407,12123,11097,1,11097,1,-0.0010121,-1.1184e-09,0,2.3553e-05,-0.00021293,-4.1167e+08,-359.51,0,8.7219e+06,-115.15,11096,11634,1,11634,1,-0.00049429,-2.2678e-10,0,0.00027884,-0.00011601,-2.0104e+08,-72.417,0,1.073e+08,-19.417,11633,12614,1,12614,1,0.00062106,9.8785e-10,0,0.00083651,9.2784e-05,2.0726e+08,299.4,0,2.9307e+08,41.072,12613,567.13,0,567.13,0,0.0006437,1.0108e-09,0,0.00032455,0.00012052,2.3123e+08,320.49,0,1.1293e+08,40.186,567.13,1
1960,3.87,12124,1,12124,1,6.3923e-05,2.8644e-09,0,0.00056089,-1.1698e-05,42.205,898.81,0,2.0213e+08,-12.174,12123,13104,1,13104,1,0.0011424,6.7587e-09,0,0.0011424,0.0001903,3.4772e+08,2137.6,0,4.1264e+08,157.93,13103,12124,1,12124,1,6.3923e-05,2.9462e-09,0,0.00055917,-1.1706e-05,2.3618e+07,912.89,0,2.0699e+08,-14.176,12123,11097,1,11097,1,-0.0010145,-8.1825e-10,0,2.3982e-05,-0.00021357,-4.1264e+08,-280.25,0,8.8798e+06,-181.81,11096,11634,1,11634,1,-0.00049525,1.2061e-09,0,0.00027959,-0.00011639,-2.0143e+08,364.25,0,1.0754e+08,-54.192,11633,12614,1,12614,1,0.0006231,4.5408e-09,0,0.00083876,9.2966e-05,2.077e+08,1427.1,0,2.9351e+08,32.164,12613,567.13,0,567.13,0,0.00064543,2.0105e-09,0,0.00032544,0.00012084,2.3168e+08,641.02,0,1.1314e+08,68.445,567.13,1
1960,3.88,12124,1,12124,1,6.4461e-05,1.2923e-09,0,0.00056242,-1.1797e-05,-19.71,417.33,0,2.0253e+08,-2.2544,12123,13104,1,13104,1,0.0011458,4.0327e-09,0,0.0011458,0.00019075,3.4817e+08,1289.7,0,4.136e+08,173.56,13103,12124,1,12124,1,6.4461e-05,1.1569e-09,0,0.00056068,-1.1804e-05,2.3805e+07,361.6,0,2.0742e+08,-2.9978,12123,11097,1,11097,1,-0.0010169,-6.9411e-10,0,2.441e-05,-0.00021421,-4.136e+08,-190.16,0,9.037e+06,-135.93,11096,11634,1,11634,1,-0.00049622,9.9225e-11,0,0.00028034,-0.00011677,-2.0182e+08,29.944,0,1.0779e+08,-41.836,11633,12614,1,12614,1,0.00062514,2.3937e-09,0,0.00084102,9.3148e-05,2.0813e+08,760.27,0,2.9395e+08,37.216,12613,567.13,0,567.13,0,0.00064717,1.2922e-09,0,0.00032635,0.00012116,2.3214e+08,419.87,0,1.1334e+08,54.403,567.13,1
1960,3.89,12124,1,12124,1,6.5003e-05,-1.3596e-10,0,0.00056396,-1.1896e-05,-171.03,-32.444,0,2.0294e+08,9.5194,12123,13104,1,13104,1,0.0011492,2.2845e-09,0,0.0011492,0.00019119,3.4862e+08,770.81,0,4.1455e+08,200.91,13103,12124,1,12124,1,6.5003e-05,-1.4562e-10,0,0.00056219,-1.1903e-05,2.3994e+07,-41.802,0,2.0786e+08,-1.5602,12123,11097,1,11097,1,-0.0010192,-1.2507e-09,0,2.4845e-05,-0.00021485,-4.1455e+08,-370.89,0,9.1966e+06,-85.17,11096,11634,1,11634,1,-0.00049718,-7.4097e-10,0,0.00028109,-0.00011715,-2.0222e+08,-215.14,0,1.0804e+08,-19.906,11633,12614,1,12614,1,0.00062719,2.605e-10,0,0.00084328,9.333e-05,2.0857e+08,86.024,0,2.9439e+08,23.509,12613,567.13,0,567.13,0,0.00064891,7.2245e-10,0,0.00032725,0.00012149,2.3259e+08,225.04,0,1.1355e+08,49.207,567.13,1
1960,3.9,12124,1,12124,1,6.5548e-05,-1.9588e-09,0,0.00056548,-1.1995e-05,54.598,-610.93,0,2.0334e+08,31.513,12123,13104,1,13104,1,0.0011527,4.7875e-09,0,0.0011527,0.00019163,3.4907e+08,1504.1,0,4.1551e+08,310.65,13103,12124,1,12124,1,6.5548e-05,-1.6681e-09,0,0.00056368,-1.2002e-05,2.4183e+07,-521.01,0,2.0829e+08,23.175,12123,11097,1,11097,1,-0.0010216,-7.7284e-09,0,2.5284e-05,-0.00021549,-4.1551e+08,-2409.5,0,9.3576e+06,-218.61,11096,11634,1,11634,1,-0.00049813,-4.3721e-09,0,0.00028184,-0.00011753,-2.026e+08,-1362.4,0,1.0828e+08,-45.461,11633,12614,1,12614,1,0.00062923,2.8385e-10,0,0.00084552,9.3509e-05,2.09e+08,84.818,0,2.9486e+08,112.1,12613,567.13,0,567.13,0,0.00065063,2.8432e-09,0,0.00032815,0.00012181,2.3304e+08,892.1,0,1.1375e+08,111.98,567.13,1
1960,3.91,12124,1,12124,1,6.6095e-05,2.5277e-09,0,0.00056703,-1.2096e-05,-36.956,783.82,0,2.0374e+08,-18.324,12123,13104,1,13104,1,0.0011561,6.3068e-09,0,0.0011561,0.00019207,3.4952e+08,1979.2,0,4.1648e+08,182.64,13103,12124,1,12124,1,6.6096e-05,2.6959e-09,0,0.0005652,-1.2102e-05,2.4373e+07,826.9,0,2.0872e+08,-13.06,12123,11097,1,11097,1,-0.0010239,-8.0803e-10,0,2.5722e-05,-0.00021613,-4.1648e+08,-276.74,0,9.5178e+06,-189.7,11096,11634,1,11634,1,-0.0004991,1.1286e-09,0,0.0002826,-0.00011791,-2.03e+08,352.66,0,1.0853e+08,-63.968,11633,12614,1,12614,1,0.00063129,4.0097e-09,0,0.00084779,9.3692e-05,2.0944e+08,1233.7,0,2.9539e+08,25.302,12613,567.13,0,567.13,0,0.00065238,1.742e-09,0,0.00032906,0.00012214,2.335e+08,547.66,0,1.1396e+08,74.519,567.13,1
1960,3.92,12124,1,12124,1,6.6649e-05,2.9568e-09,0,0.00056857,-1.2197e-05,54.846,934.39,0,2.0414e+08,-0.88599,12123,13104,1,13104,1,0.0011596,1.0043e-08,0,0.0011596,0.00019252,3.4996e+08,3154.5,0,4.1744e+08,262.88,13103,12124,1,12124,1,6.6649e-05,2.4035e-09,0,0.0005667,-1.2203e-05,2.4565e+07,746.37,0,2.0915e+08,1.31,12123,11097,1,11097,1,-0.0010263,-1.1518e-09,0,2.6169e-05,-0.00021678,-4.1744e+08,-384.62,0,9.681e+06,-265.48,11096,11634,1,11634,1,-0.00050005,4.8517e-10,0,0.00028335,-0.00011829,-2.0338e+08,143.88,0,1.0877e+08,-59.455,11633,12614,1,12614,1,0.00063335,5.1679e-09,0,0.00085006,9.3871e-05,2.0987e+08,1629.6,0,2.9591e+08,66.847,12613,567.13,0,567.13,0,0.00065412,2.782e-09,0,0.00032997,0.00012246,2.3394e+08,890.92,0,1.1417e+08,87.739,567.13,1
1960,3.93,12124,1,12124,1,6.7207e-05,-2.6683e-09,0,0.00057013,-1.2299e-05,311.71,-819.84,0,2.0455e+08,-31.565,12123,13104,1,13104,1,0.0011631,9.71e-10,0,0.0011631,0.00019296,3.504e+08,332.56,0,4.184e+08,99.748,13103,12124,1,12124,1,6.7208e-05,-2.7164e-09,0,0.00056823,-1.2306e-05,2.4759e+07,-847.14,0,2.0959e+08,-22.117,12123,11097,1,11097,1,-0.0010287,-6.262e-09,0,2.6617e-05,-0.00021743,-4.184e+08,-1893,0,9.8448e+06,-207.66,11096,11634,1,11634,1,-0.00050102,-4.3348e-09,0,0.00028411,-0.00011868,-2.0378e+08,-1343.8,0,1.0902e+08,-72.735,11633,12614,1,12614,1,0.00063543,-1.043e-09,0,0.00085233,9.4052e-05,2.1031e+08,-320.37,0,2.9643e+08,9.1798,12613,567.13,0,567.13,0,0.00065588,1.9561e-09,0,0.00033089,0.00012279,2.344e+08,597.18,0,1.1438e+08,58.525,567.13,1
1960,3.94,12124,1,12124,1,6.7766e-05,3.9553e-09,0,0.00057165,-1.2401e-05,-272.22,1234.1,0,2.0494e+08,28.756,12123,13104,1,13104,1,0.0011666,1.2698e-08,0,0.0011666,0.0001934,3.5083e+08,3949.7,0,4.1935e+08,506.55,13103,12124,1,12124,1,6.7766e-05,2.8778e-09,0,0.00056972,-1.2408e-05,2.4951e+07,882.55,0,2.1001e+08,29.257,12123,11097,1,11097,1,-0.001031,-1.578e-09,0,2.7071e-05,-0.00021807,-4.1935e+08,-540.47,0,1.001e+07,-445.29,11096,11634,1,11634,1,-0.00050196,3.3283e-10,0,0.00028486,-0.00011906,-2.0416e+08,97.234,0,1.0926e+08,-65.576,11633,12614,1,12614,1,0.00063749,7.3844e-09,0,0.00085458,9.423e-05,2.1073e+08,2298.4,0,2.9694e+08,129.25,12613,567.13,0,567.13,0,0.0006576,4.0697e-09,0,0.00033179,0.00012311,2.3484e+08,1283.1,0,1.1458e+08,156.98,567.13,1
1960,3.95,12124,1,12124,1,6.8324e-05,-2.6715e-09,0,0.00057318,-1.2503e-05,79.932,-818.55,0,2.0534e+08,28.621,12123,13104,1,13104,1,0.00117,6.7392e-09,0,0.00117,0.00019384,3.5125e+08,2185.6,0,4.2029e+08,387.45,13103,12124,1,12124,1,6.8326e-05,-2.4546e-09,0,0.00057122,-1.251e-05,2.5145e+07,-757.04,0,2.1043e+08,12.808,12123,11097,1,11097,1,-0.0010333,-9.6922e-09,0,2.7521e-05,-0.00021871,-4.2029e+08,-3013.1,0,1.0174e+07,-264.86,11096,11634,1,11634,1,-0.00050289,-5.8394e-09,0,0.0002856,-0.00011944,-2.0454e+08,-1809.5,0,1.095e+08,-71.414,11633,12614,1,12614,1,0.00063954,2.1879e-10,0,0.00085682,9.4405e-05,2.1116e+08,74.636,0,2.9744e+08,121.56,12613,567.13,0,567.13,0,0.00065932,3.7108e-09,0,0.00033269,0.00012343,2.3528e+08,1160.6,0,1.1478e+08,139.54,567.13,1
1960,3.96,12124,1,12124,1,6.8891e-05,-1.2963e-09,0,0.00057475,-1.2607e-05,136,-410.98,0,2.0575e+08,-52.393,12123,13104,1,13104,1,0.0011735,7.8539e-10,0,0.0011735,0.00019428,3.5169e+08,268.99,0,4.2126e+08,114.78,13103,12124,1,12124,1,6.8892e-05,-1.4223e-09,0,0.00057275,-1.2614e-05,2.534e+07,-453.58,0,2.1087e+08,-29.725,12123,11097,1,11097,1,-0.0010357,-4.4778e-09,0,2.7979e-05,-0.00021936,-4.2126e+08,-1330.2,0,1.0341e+07,-291.29,11096,11634,1,11634,1,-0.00050386,-2.0162e-09,0,0.00028638,-0.00011983,-2.0493e+08,-653.43,0,1.0975e+08,-102.19,11633,12614,1,12614,1,0.00064165,-4.3943e-10,0,0.00085913,9.4588e-05,2.116e+08,-129.91,0,2.9797e+08,8.0744,12613,567.13,0,567.13,0,0.0006611,1.0443e-09,0,0.00033362,0.00012376,2.3574e+08,325.27,0,1.1499e+08,79.548,567.13,1
1960,3.97,12124,1,12124,1,6.9466e-05,7.0802e-10,0,0.00057629,-1.2712e-05,-81.982,212.68,0,2.0614e+08,19.902,12123,13104,1,13104,1,0.001177,4.9401e-09,0,0.001177,0.00019472,3.521e+08,1534.1,0,4.2221e+08,214.54,13103,12124,1,12124,1,6.9466e-05,4.3965e-10,0,0.00057426,-1.2719e-05,2.5538e+07,123.25,0,2.1129e+08,15.818,12123,11097,1,11097,1,-0.001038,-8.8707e-10,0,2.8445e-05,-0.00022001,-4.2221e+08,-303.66,0,1.051e+07,-116.02,11096,11634,1,11634,1,-0.0005048,-4.8544e-11,0,0.00028713,-0.00012022,-2.0531e+08,-16.092,0,1.1e+08,-13.907,11633,12614,1,12614,1,0.00064373,1.228e-09,0,0.0008614,9.4765e-05,2.1203e+08,368.08,0,2.9848e+08,47.349,12613,567.13,0,567.13,0,0.00066285,1.1286e-09,0,0.00033453,0.00012409,2.3619e+08,352.85,0,1.1519e+08,54.363,567.13,1
1960,3.98,12124,1,12124,1,7.004e-05,-1.1866e-09,0,0.00057783,-1.2817e-05,3.5884,-371.43,0,2.0653e+08,39.364,12123,13104,1,13104,1,0.0011805,4.2496e-09,0,0.0011805,0.00019516,3.5252e+08,1337,0,4.2317e+08,293.24,13103,12124,1,12124,1,7.004e-05,-9.5748e-10,0,0.00057577,-1.2824e-05,2.5736e+07,-296.63,0,2.1172e+08,33.443,12123,11097,1,11097,1,-0.0010404,-5.5023e-09,0,2.8913e-05,-0.00022066,-4.2317e+08,-1711.9,0,1.068e+07,-183.66,11096,11634,1,11634,1,-0.00050573,-2.8786e-09,0,0.00028789,-0.0001206,-2.0569e+08,-907.14,0,1.1024e+08,-11.243,11633,12614,1,12614,1,0.00064581,3.7176e-10,0,0.00086366,9.4941e-05,2.1245e+08,111.48,0,2.9898e+08,83.715,12613,567.13,0,567.13,0,0.00066458,2.1323e-09,0,0.00033544,0.00012441,2.3663e+08,669.49,0,1.1539e+08,78.997,567.13,1
1960,3.99,12124,1,12124,1,7.0617e-05,-1.0262e-09,0,0.00057939,-1.2923e-05,71.695,-327.45,0,2.0693e+08,-2.0812,12123,13104,1,13104,1,0.001184,2.6929e-09,0,0.001184,0.00019561,3.5294e+08,849.31,0,4.2413e+08,147.95,13103,12124,1,12124,1,7.0618e-05,-8.3784e-10,0,0.00057729,-1.293e-05,2.5935e+07,-248.34,0,2.1215e+08,8.6542,12123,11097,1,11097,1,-0.0010428,-4.2621e-09,0,2.9381e-05,-0.00022131,-4.2413e+08,-1362.8,0,1.0849e+07,-164.14,11096,11634,1,11634,1,-0.00050668,-2.3472e-09,0,0.00028865,-0.00012099,-2.0608e+08,-741.39,0,1.1048e+08,-43.222,11633,12614,1,12614,1,0.00064791,1.9296e-10,0,0.00086595,9.5119e-05,2.1288e+08,53.562,0,2.9949e+08,40.417,12613,567.13,0,567.13,0,0.00066634,1.5633e-09,0,0.00033636,0.00012474,2.3707e+08,499.53,0,1.1559e+08,62.95,567.13,1
1960,4,12124,1,12124,1,7.12e-05,-2.1712e-09,0,0.00058094,-1.3029e-05,-61.001,-684.36,0,2.0732e+08,24.411,12123,13104,1,13104,1,0.0011875,1.5279e-09,0,0.0011875,0.00019605,3.5335e+08,523.31,0,4.2508e+08,197.01,13103,12124,1,12124,1,7.12e-05,-1.9527e-09,0,0.00057881,-1.3037e-05,2.6135e+07,-601.36,0,2.1257e+08,26.058,12123,11097,1,11097,1,-0.0010451,-6.8163e-09,0,2.9854e-05,-0.00022197,-4.2508e+08,-2157.1,0,1.102e+07,-212.85,11096,11634,1,11634,1,-0.00050761,-3.8806e-09,0,0.00028941,-0.00012138,-2.0646e+08,-1222.2,0,1.1072e+08,-35.681,11633,12614,1,12614,1,0.00065001,-3.1608e-10,0,0.00086821,9.5294e-05,2.1331e+08,-95.564,0,2.9999e+08,83.549,12613,567.13,0,567.13,0,0.00066809,2.1031e-09,0,0.00033728,0.00012507,2.3751e+08,670.28,0,1.1579e+08,78.35,567.13,1
1960,4.01,12124,1,12124,1,7.1785e-05,-3.7416e-10,0,0.00058249,-1.3136e-05,-49.07,-129.96,0,2.0772e+08,-1.6206,12123,13104,1,13104,1,0.001191,1.9382e-09,0,0.001191,0.00019648,3.5375e+08,600.47,0,4.2603e+08,134.81,13103,12124,1,12124,1,7.1785e-05,-1.6565e-11,0,0.00058032,-1.3144e-05,2.6336e+07,-4.9823,0,2.1299e+08,-4.6421,12123,11097,1,11097,1,-0.0010474,-3.2524e-09,0,3.033e-05,-0.00022262,-4.2603e+08,-1038.9,0,1.1192e+07,-133.15,11096,11634,1,11634,1,-0.00050854,-1.3033e-09,0,0.00029017,-0.00012177,-2.0684e+08,-427.11,0,1.1097e+08,-49.316,11633,12614,1,12614,1,0.00065211,5.9629e-10,0,0.00087049,9.547e-05,2.1373e+08,164.14,0,3.005e+08,42.881,12613,567.13,0,567.13,0,0.00066984,1.246e-09,0,0.0003382,0.00012539,2.3795e+08,396.62,0,1.1599e+08,59.574,567.13,1
1960,4.02,12124,1,12124,1,7.2372e-05,1.8746e-09,0,0.00058403,-1.3244e-05,-123.59,575.35,0,2.081e+08,9.1882,12123,13104,1,13104,1,0.0011945,7.6913e-09,0,0.0011945,0.00019692,3.5416e+08,2381.2,0,4.2697e+08,168.45,13103,12124,1,12124,1,7.2373e-05,1.1966e-09,0,0.00058183,-1.3251e-05,2.6537e+07,344.87,0,2.1341e+08,17.247,12123,11097,1,11097,1,-0.0010497,-1.518e-09,0,3.0811e-05,-0.00022326,-4.2697e+08,-484.7,0,1.1366e+07,-235.73,11096,11634,1,11634,1,-0.00050946,5.6988e-12,0,0.00029091,-0.00012216,-2.0721e+08,1.7654,0,1.1121e+08,-29.818,11633,12614,1,12614,1,0.0006542,3.5956e-09,0,0.00087275,9.5644e-05,2.1415e+08,1114.6,0,3.0099e+08,59.169,12613,567.13,0,567.13,0,0.00067158,2.2867e-09,0,0.00033911,0.00012572,2.3839e+08,718.87,0,1.1619e+08,72.536,567.13,1
1960,4.03,12124,1,12124,1,7.2963e-05,2.4525e-09,0,0.00058558,-1.3352e-05,-13.166,768.08,0,2.085e+08,-18.222,12123,13104,1,13104,1,0.001198,6.2586e-09,0,0.001198,0.00019736,3.5456e+08,2056.8,0,4.2792e+08,176.76,13103,12124,1,12124,1,7.2963e-05,2.3545e-09,0,0.00058335,-1.336e-05,2.6739e+07,712.09,0,2.1383e+08,-8.1816,12123,11097,1,11097,1,-0.0010521,-8.4173e-10,0,3.1294e-05,-0.00022392,-4.2792e+08,-288.29,0,1.154e+07,-271.69,11096,11634,1,11634,1,-0.00051039,6.4134e-10,0,0.00029168,-0.00012255,-2.0759e+08,185.61,0,1.1145e+08,-75.178,11633,12614,1,12614,1,0.00065632,4.2605e-09,0,0.00087503,9.5819e-05,2.1458e+08,1331.5,0,3.0149e+08,48.978,12613,567.13,0,567.13,0,0.00067333,2.0444e-09,0,0.00034003,0.00012604,2.3883e+08,656.76,0,1.1639e+08,92.836,567.13,1
1960,4.04,12124,1,12124,1,7.3561e-05,1.8673e-09,0,0.00058715,-1.3461e-05,294.16,594.33,0,2.0889e+08,-5.0081,12123,13104,1,13104,1,0.0012016,6.3512e-09,0,0.0012016,0.0001978,3.5496e+08,2002.8,0,4.2888e+08,276.3,13103,12124,1,12124,1,7.3561e-05,1.5332e-09,0,0.00058488,-1.3469e-05,2.6944e+07,479.17,0,2.1425e+08,-14.958,12123,11097,1,11097,1,-0.0010544,-6.7305e-10,0,3.1781e-05,-0.00022458,-4.2888e+08,-167.91,0,1.1715e+07,-208.51,11096,11634,1,11634,1,-0.00051132,6.0576e-10,0,0.00029244,-0.00012295,-2.0796e+08,185.71,0,1.1169e+08,-54.066,11633,12614,1,12614,1,0.00065844,2.9787e-09,0,0.00087732,9.5994e-05,2.15e+08,950.28,0,3.0199e+08,36.777,12613,567.13,0,567.13,0,0.0006751,1.5429e-09,0,0.00034096,0.00012637,2.3927e+08,503.07,0,1.1659e+08,79.225,567.13,1
1960,4.05,12124,1,12124,1,7.4162e-05,4.9162e-10,0,0.0005887,-1.3571e-05,-150.83,166.38,0,2.0928e+08,-5.8314,12123,13104,1,13104,1,0.0012051,1.8129e-09,0,0.0012051,0.00019823,3.5535e+08,620.57,0,4.2982e+08,72.58,13103,12124,1,12124,1,7.4162e-05,4.1275e-10,0,0.00058639,-1.358e-05,2.7149e+07,135.27,0,2.1467e+08,-4.4442,12123,11097,1,11097,1,-0.0010568,-3.7113e-10,0,3.2274e-05,-0.00022523,-4.2982e+08,-95.753,0,1.1892e+07,-80.607,11096,11634,1,11634,1,-0.00051223,-5.5274e-11,0,0.0002932,-0.00012334,-2.0834e+08,-14.63,0,1.1193e+08,-18.893,11633,12614,1,12614,1,0.00066056,9.2492e-10,0,0.0008796,9.6167e-05,2.1542e+08,302.54,0,3.0248e+08,8.7324,12613,567.13,0,567.13,0,0.00067685,5.9466e-10,0,0.00034189,0.0001267,2.3971e+08,197.03,0,1.1679e+08,24.894,567.13,1
1960,4.06,12124,1,12124,1,7.4765e-05,-1.7991e-10,0,0.00059025,-1.3681e-05,132.98,-48.053,0,2.0966e+08,21.923,12123,13104,1,13104,1,0.0012086,5.6855e-09,0,0.0012086,0.00019867,3.5573e+08,1765.2,0,4.3076e+08,235.33,13103,12124,1,12124,1,7.4765e-05,-1.8389e-10,0,0.00058791,-1.369e-05,2.7355e+07,-51.627,0,2.1509e+08,10.206,12123,11097,1,11097,1,-0.0010591,-3.3623e-09,0,3.277e-05,-0.00022588,-4.3076e+08,-1028.8,0,1.2071e+07,-140.83,11096,11634,1,11634,1,-0.00051314,-1.4419e-09,0,0.00029395,-0.00012373,-2.0871e+08,-444.17,0,1.1217e+08,-21.026,11633,12614,1,12614,1,0.00066267,7.1335e-10,0,0.00088186,9.6338e-05,2.1584e+08,223.71,0,3.0297e+08,59.237,12613,567.13,0,567.13,0,0.00067859,1.7981e-09,0,0.0003428,0.00012703,2.4014e+08,559.2,0,1.1699e+08,61.012,567.13,1
1960,4.07,12124,1,12124,1,7.537e-05,8.023e-10,0,0.00059182,-1.3792e-05,-292.31,251.84,0,2.1005e+08,7.1868,12123,13104,1,13104,1,0.0012122,3.6976e-09,0,0.0012122,0.00019911,3.5613e+08,1168,0,4.3172e+08,137.95,13103,12124,1,12124,1,7.5371e-05,4.1725e-10,0,0.00058944,-1.3802e-05,2.7561e+07,121.77,0,2.1551e+08,11.954,12123,11097,1,11097,1,-0.0010614,-7.8706e-10,0,3.3267e-05,-0.00022655,-4.3172e+08,-249.33,0,1.2249e+07,-135.74,11096,11634,1,11634,1,-0.00051407,-6.1288e-11,0,0.00029472,-0.00012413,-2.0908e+08,-18.179,0,1.1241e+08,-22.351,11633,12614,1,12614,1,0.00066481,1.5784e-09,0,0.00088416,9.6513e-05,2.1626e+08,493.85,0,3.0347e+08,37.889,12613,567.13,0,567.13,0,0.00068036,1.1091e-09,0,0.00034374,0.00012736,2.4058e+08,355.75,0,1.1719e+08,47.9,567.13,1
1960,4.08,12124,1,12124,1,7.5984e-05,-1.2474e-09,0,0.00059336,-1.3904e-05,62.199,-381.08,0,2.1043e+08,12.76,12123,13104,1,13104,1,0.0012157,2.1557e-09,0,0.0012157,0.00019954,3.5651e+08,687.27,0,4.3265e+08,161.64,13103,12124,1,12124,1,7.5984e-05,-9.4582e-10,0,0.00059095,-1.3914e-05,2.777e+07,-293.19,0,2.1592e+08,5.4813,12123,11097,1,11097,1,-0.0010637,-4.8269e-09,0,3.3772e-05,-0.0002272,-4.3265e+08,-1489.4,0,1.243e+07,-120.54,11096,11634,1,11634,1,-0.00051497,-2.6311e-09,0,0.00029548,-0.00012452,-2.0945e+08,-806.12,0,1.1265e+08,-30.033,11633,12614,1,12614,1,0.00066694,8.4746e-11,0,0.00088643,9.6682e-05,2.1668e+08,28.88,0,3.0395e+08,52.338,12613,567.13,0,567.13,0,0.00068211,1.6613e-09,0,0.00034466,0.00012768,2.41e+08,518.22,0,1.1738e+08,54.415,567.13,1
1960,4.09,12124,1,12124,1,7.6598e-05,4.5943e-10,0,0.00059493,-1.4017e-05,248.09,138.01,0,2.1082e+08,-18.617,12123,13104,1,13104,1,0.0012192,1.4913e-09,0,0.0012192,0.00019998,3.5689e+08,474.23,0,4.336e+08,75.406,13103,12124,1,12124,1,7.6598e-05,4.431e-10,0,0.00059248,-1.4027e-05,2.7979e+07,124.3,0,2.1634e+08,-13.809,12123,11097,1,11097,1,-0.001066,-3.0951e-10,0,3.4277e-05,-0.00022786,-4.336e+08,-105.95,0,1.261e+07,-127.51,11096,11634,1,11634,1,-0.00051588,8.4095e-11,0,0.00029624,-0.00012492,-2.0982e+08,28.303,0,1.1289e+08,-40.632,11633,12614,1,12614,1,0.00066908,7.3182e-10,0,0.00088872,9.6855e-05,2.1709e+08,217.47,0,3.0444e+08,6.6002,12613,567.13,0,567.13,0,0.00068388,4.4191e-10,0,0.00034559,0.00012801,2.4144e+08,140.11,0,1.1758e+08,37.381,567.13,1
1960,4.1,12124,1,12124,1,7.7216e-05,2.4657e-09,0,0.00059648,-1.413e-05,-91.152,764.36,0,2.112e+08,17.357,12123,13104,1,13104,1,0.0012228,8.2473e-09,0,0.0012228,0.00020042,3.5726e+08,2540.9,0,4.3455e+08,222.99,13103,12124,1,12124,1,7.7216e-05,2.1205e-09,0,0.000594,-1.4141e-05,2.8189e+07,635.34,0,2.1675e+08,11.575,12123,11097,1,11097,1,-0.0010684,-8.8319e-10,0,3.4787e-05,-0.00022853,-4.3455e+08,-302.5,0,1.2793e+07,-193.11,11096,11634,1,11634,1,-0.00051678,6.8439e-10,0,0.000297,-0.00012531,-2.1019e+08,204.75,0,1.1313e+08,-39.063,11633,12614,1,12614,1,0.00067122,4.0179e-09,0,0.000891,9.7025e-05,2.1751e+08,1240.4,0,3.0492e+08,83.239,12613,567.13,0,567.13,0,0.00068563,2.1186e-09,0,0.00034652,0.00012834,2.4186e+08,666.82,0,1.1777e+08,83.795,567.13,1
1960,4.11,12124,1,12124,1,7.7838e-05,-1.6688e-11,0,0.00059804,-1.4244e-05,-1.7174,6.6988,0,2.1158e+08,-5.766,12123,13104,1,13104,1,0.0012264,1.8568e-09,0,0.0012264,0.00020085,3.5763e+08,635.57,0,4.3548e+08,73.479,13103,12124,1,12124,1,7.7839e-05,-4.3885e-11,0,0.00059552,-1.4255e-05,2.84e+07,-13.755,0,2.1716e+08,-4.7799,12123,11097,1,11097,1,-0.0010707,-1.1312e-09,0,3.5299e-05,-0.00022918,-4.3548e+08,-337.57,0,1.2975e+07,-75.942,11096,11634,1,11634,1,-0.00051769,-5.6607e-10,0,0.00029776,-0.00012571,-2.1055e+08,-164.17,0,1.1337e+08,-26.454,11633,12614,1,12614,1,0.00067336,3.8179e-10,0,0.00089329,9.7195e-05,2.1792e+08,128.5,0,3.054e+08,11.793,12613,567.13,0,567.13,0,0.00068739,6.7134e-10,0,0.00034745,0.00012867,2.4229e+08,210.98,0,1.1797e+08,28.165,567.13,1
1960,4.12,12124,1,12124,1,7.8463e-05,-2.1403e-09,0,0.0005996,-1.4358e-05,-131.55,-657.39,0,2.1196e+08,31.745,12123,13104,1,13104,1,0.0012299,1.7188e-09,0,0.0012299,0.00020129,3.58e+08,564.8,0,4.3643e+08,264.79,13103,12124,1,12124,1,7.8463e-05,-1.6223e-09,0,0.00059705,-1.437e-05,2.8611e+07,-495.56,0,2.1757e+08,20.268,12123,11097,1,11097,1,-0.001073,-7.5376e-09,0,3.5816e-05,-0.00022985,-4.3643e+08,-2319.3,0,1.3159e+07,-152.55,11096,11634,1,11634,1,-0.00051858,-4.1545e-09,0,0.00029852,-0.00012611,-2.1092e+08,-1281.7,0,1.136e+08,-29.4,11633,12614,1,12614,1,0.00067551,2.8842e-11,0,0.00089557,9.7364e-05,2.1834e+08,9.2231,0,3.0588e+08,82.146,12613,567.13,0,567.13,0,0.00068914,2.4652e-09,0,0.00034838,0.00012899,2.4272e+08,763.94,0,1.1816e+08,82.564,567.13,1
1960,4.13,12124,1,12124,1,7.9092e-05,-3.738e-10,0,0.00060117,-1.4473e-05,124.04,-125.99,0,2.1234e+08,9.6504,12123,13104,1,13104,1,0.0012335,2.8217e-09,0,0.0012335,0.00020172,3.5836e+08,869.45,0,4.3737e+08,176.22,13103,12124,1,12124,1,7.9093e-05,-5.983e-11,0,0.00059857,-1.4486e-05,2.8825e+07,-17.378,0,2.1798e+08,4.1051,12123,11097,1,11097,1,-0.0010753,-3.2808e-09,0,3.6336e-05,-0.00023051,-4.3737e+08,-1041.5,0,1.3344e+07,-138.2,11096,11634,1,11634,1,-0.00051948,-1.2584e-09,0,0.00029929,-0.00012651,-2.1128e+08,-399.29,0,1.1384e+08,-38.629,11633,12614,1,12614,1,0.00067767,4.2574e-10,0,0.00089786,9.7533e-05,2.1875e+08,114.77,0,3.0636e+08,57.429,12613,567.13,0,567.13,0,0.0006909,1.2591e-09,0,0.00034932,0.00012932,2.4315e+08,398.48,0,1.1836e+08,63.054,567.13,1
1960,4.14,12124,1,12124,1,7.9727e-05,2.056e-09,0,0.00060273,-1.4589e-05,52.727,627.91,0,2.1272e+08,7.2215,12123,13104,1,13104,1,0.0012371,6.3323e-09,0,0.0012371,0.00020215,3.5872e+08,1950.3,0,4.383e+08,205.35,13103,12124,1,12124,1,7.9727e-05,2.0085e-09,0,0.0006001,-1.4602e-05,2.9039e+07,598.16,0,2.1839e+08,6.41,12123,11097,1,11097,1,-0.0010776,-5.6567e-10,0,3.6861e-05,-0.00023117,-4.383e+08,-174.88,0,1.3531e+07,-171.6,11096,11634,1,11634,1,-0.00052037,8.5591e-10,0,0.00030005,-0.00012691,-2.1165e+08,260.84,0,1.1408e+08,-44.614,11633,12614,1,12614,1,0.00067982,3.1739e-09,0,0.00090014,9.7701e-05,2.1916e+08,965.35,0,3.0683e+08,60.684,12613,567.13,0,567.13,0,0.00069266,1.5099e-09,0,0.00035025,0.00012965,2.4357e+08,469.49,0,1.1855e+08,74.849,567.13,1
1960,4.15,12124,1,12124,1,8.0363e-05,1.2997e-09,0,0.00060428,-1.4705e-05,111.75,409.96,0,2.1309e+08,-0.88843,12123,13104,1,13104,1,0.0012406,6.8083e-09,0,0.0012406,0.00020258,3.5907e+08,2123.8,0,4.3924e+08,204.05,13103,12124,1,12124,1,8.0363e-05,6.3071e-10,0,0.00060162,-1.4719e-05,2.9254e+07,191.44,0,2.188e+08,0.13754,12123,11097,1,11097,1,-0.0010799,-1.6508e-09,0,3.7389e-05,-0.00023184,-4.3924e+08,-500.85,0,1.3719e+07,-242.22,11096,11634,1,11634,1,-0.00052125,-2.2726e-10,0,0.00030081,-0.00012731,-2.1201e+08,-68.542,0,1.1431e+08,-53.893,11633,12614,1,12614,1,0.00068198,2.7619e-09,0,0.00090243,9.7868e-05,2.1957e+08,868.52,0,3.073e+08,58.919,12613,567.13,0,567.13,0,0.00069442,1.9579e-09,0,0.00035119,0.00012998,2.4399e+08,619.8,0,1.1874e+08,82.826,567.13,1
1960,4.16,12124,1,12124,1,8.1002e-05,-6.1206e-10,0,0.00060585,-1.4822e-05,-80.813,-177.96,0,2.1347e+08,24.044,12123,13104,1,13104,1,0.0012442,6.3606e-09,0,0.0012442,0.00020302,3.5943e+08,1996.4,0,4.4017e+08,248.49,13103,12124,1,12124,1,8.1002e-05,-4.2501e-10,0,0.00060314,-1.4836e-05,2.9469e+07,-130.04,0,2.1921e+08,18.008,12123,11097,1,11097,1,-0.0010822,-5.1203e-09,0,3.7919e-05,-0.0002325,-4.4017e+08,-1571.6,0,1.3906e+07,-147.23,11096,11634,1,11634,1,-0.00052214,-2.4578e-09,0,0.00030157,-0.00012771,-2.1237e+08,-753.6,0,1.1455e+08,-27.808,11633,12614,1,12614,1,0.00068414,7.2775e-10,0,0.00090471,9.8035e-05,2.1998e+08,226.78,0,3.0777e+08,69.625,12613,567.13,0,567.13,0,0.00069618,2.4216e-09,0,0.00035212,0.0001303,2.4441e+08,754.7,0,1.1893e+08,75.369,567.13,1
1960,4.17,12124,1,12124,1,8.1647e-05,1.061e-10,0,0.00060742,-1.494e-05,-321.83,33.475,0,2.1385e+08,13.518,12123,13104,1,13104,1,0.0012478,4.9735e-09,0,0.0012478,0.00020345,3.5978e+08,1565.9,0,4.4111e+08,211.96,13103,12124,1,12124,1,8.1647e-05,-3.761e-11,0,0.00060468,-1.4955e-05,2.9687e+07,-10,0,2.1962e+08,14.085,12123,11097,1,11097,1,-0.0010845,-2.4002e-09,0,3.8455e-05,-0.00023317,-4.4111e+08,-759.32,0,1.4096e+07,-130,11096,11634,1,11634,1,-0.00052303,-9.1773e-10,0,0.00030234,-0.00012812,-2.1273e+08,-284.29,0,1.1479e+08,-27.745,11633,12614,1,12614,1,0.00068633,7.1344e-10,0,0.00090702,9.8203e-05,2.2039e+08,216.59,0,3.0825e+08,49.427,12613,567.13,0,567.13,0,0.00069795,1.4449e-09,0,0.00035307,0.00013064,2.4484e+08,461.25,0,1.1913e+08,61.504,567.13,1
1960,4.18,12124,1,12124,1,8.23e-05,-2.0975e-09,0,0.00060899,-1.506e-05,367.23,-645.53,0,2.1422e+08,-14.017,12123,13104,1,13104,1,0.0012514,1.1389e-09,0,0.0012514,0.00020388,3.6012e+08,390.06,0,4.4205e+08,113.55,13103,12124,1,12124,1,8.23e-05,-1.9507e-09,0,0.0006062,-1.5075e-05,2.9906e+07,-589.93,0,2.2002e+08,-14.982,12123,11097,1,11097,1,-0.0010868,-5.8118e-09,0,3.8999e-05,-0.00023384,-4.4205e+08,-1805.1,0,1.4288e+07,-176.43,11096,11634,1,11634,1,-0.0005239,-3.4579e-09,0,0.0003031,-0.00012852,-2.1308e+08,-1071.8,0,1.1502e+08,-55.451,11633,12614,1,12614,1,0.0006885,-7.6392e-10,0,0.0009093,9.8367e-05,2.2079e+08,-209.19,0,3.0871e+08,30.693,12613,567.13,0,567.13,0,0.00069971,1.7147e-09,0,0.00035401,0.00013096,2.4525e+08,538.49,0,1.1932e+08,60.846,567.13,1
1960,4.19,12124,1,12124,1,8.2953e-05,2.1028e-09,0,0.00061057,-1.5179e-05,-50.865,636.73,0,2.1459e+08,-1.0812,12123,13104,1,13104,1,0.001255,4.5452e-09,0,0.001255,0.00020432,3.6047e+08,1392.4,0,4.4299e+08,141.88,13103,12124,1,12124,1,8.2953e-05,2.2685e-09,0,0.00060775,-1.5195e-05,3.0126e+07,675.68,0,2.2043e+08,2.8969,12123,11097,1,11097,1,-0.0010891,-6.6509e-10,0,3.9541e-05,-0.00023451,-4.4299e+08,-227.79,0,1.448e+07,-154.71,11096,11634,1,11634,1,-0.00052479,9.5228e-10,0,0.00030387,-0.00012893,-2.1344e+08,289.76,0,1.1526e+08,-40.271,11633,12614,1,12614,1,0.0006907,3.3497e-09,0,0.00091161,9.8536e-05,2.212e+08,1021.8,0,3.0918e+08,39.49,12613,567.13,0,567.13,0,0.00070149,1.4126e-09,0,0.00035496,0.00013129,2.4568e+08,429.96,0,1.1951e+08,63.269,567.13,1
1960,4.2,12124,1,12124,1,8.3613e-05,8.078e-10,0,0.00061214,-1.53e-05,-119.51,256.28,0,2.1496e+08,14.517,12123,13104,1,13104,1,0.0012587,3.1864e-09,0,0.0012587,0.00020475,3.608e+08,991.89,0,4.4392e+08,165.67,13103,12124,1,12124,1,8.3613e-05,5.838e-10,0,0.00060928,-1.5317e-05,3.0347e+07,172.85,0,2.2083e+08,14.369,12123,11097,1,11097,1,-0.0010914,-1.1949e-09,0,4.0092e-05,-0.00023518,-4.4392e+08,-358.63,0,1.4674e+07,-126.33,11096,11634,1,11634,1,-0.00052566,-6.8352e-11,0,0.00030464,-0.00012933,-2.138e+08,-21.731,0,1.1549e+08,-18.317,11633,12614,1,12614,1,0.00069289,1.6938e-09,0,0.00091392,9.87e-05,2.2161e+08,525.06,0,3.0964e+08,48.891,12613,567.13,0,567.13,0,0.00070326,1.0669e-09,0,0.0003559,0.00013162,2.4609e+08,337.68,0,1.197e+08,50.255,567.13,1
1960,4.21,12124,1,12124,1,8.4276e-05,9.2022e-10,0,0.00061371,-1.5421e-05,25.494,292.01,0,2.1533e+08,-4.4475,12123,13104,1,13104,1,0.0012623,2.1295e-09,0,0.0012623,0.00020518,3.6113e+08,728.41,0,4.4486e+08,85.923,13103,12124,1,12124,1,8.4276e-05,8.9082e-10,0,0.00061081,-1.5439e-05,3.057e+07,282.79,0,2.2123e+08,-4.806,12123,11097,1,11097,1,-0.0010937,-3.4551e-10,0,4.0645e-05,-0.00023586,-4.4486e+08,-92.716,0,1.4869e+07,-94.74,11096,11634,1,11634,1,-0.00052653,3.1654e-10,0,0.00030541,-0.00012974,-2.1415e+08,90.879,0,1.1573e+08,-28.407,11633,12614,1,12614,1,0.00069509,1.5409e-09,0,0.00091622,9.8865e-05,2.2201e+08,490.7,0,3.101e+08,24.281,12613,567.13,0,567.13,0,0.00070503,7.0214e-10,0,0.00035685,0.00013195,2.4651e+08,229.08,0,1.1989e+08,38.275,567.13,1
1960,4.22,12124,1,12124,1,8.4939e-05,3.1525e-09,0,0.00061527,-1.5543e-05,51.431,980.39,0,2.157e+08,31.905,12123,13104,1,13104,1,0.0012659,1.2182e-08,0,0.0012659,0.00020561,3.6146e+08,3724.6,0,4.4579e+08,485.64,13103,12124,1,12124,1,8.4939e-05,2.5775e-09,0,0.00061233,-1.5561e-05,3.0792e+07,776.34,0,2.2163e+08,19.563,12123,11097,1,11097,1,-0.001096,-1.6449e-09,0,4.1199e-05,-0.00023653,-4.4579e+08,-563.36,0,1.5065e+07,-279.68,11096,11634,1,11634,1,-0.00052739,1.3172e-10,0,0.00030617,-0.00013014,-2.145e+08,36.005,0,1.1596e+08,-66.986,11633,12614,1,12614,1,0.00069727,5.809e-09,0,0.0009185,9.9026e-05,2.2241e+08,1814.6,0,3.1055e+08,114.88,12613,567.13,0,567.13,0,0.00070678,3.3721e-09,0,0.00035778,0.00013228,2.4692e+08,1055.9,0,1.2008e+08,139.32,567.13,1
1960,4.23,12124,1,12124,1,8.5605e-05,1.1784e-09,0,0.00061685,-1.5664e-05,-110.84,387.8,0,2.1607e+08,-15.761,12123,13104,1,13104,1,0.0012695,5.8572e-09,0,0.0012695,0.00020604,3.6178e+08,1846.7,0,4.4672e+08,274.51,13103,12124,1,12124,1,8.5605e-05,6.7601e-10,0,0.00061386,-1.5683e-05,3.1015e+07,211.15,0,2.2203e+08,-19.868,12123,11097,1,11097,1,-0.0010983,-1.0377e-09,0,4.1753e-05,-0.0002372,-4.4672e+08,-251.65,0,1.5259e+07,-256.51,11096,11634,1,11634,1,-0.00052826,-2.5054e-10,0,0.00030694,-0.00013055,-2.1486e+08,-69.149,0,1.1619e+08,-75.718,11633,12614,1,12614,1,0.00069948,2.3977e-09,0,0.00092081,9.9191e-05,2.2281e+08,760.52,0,3.1102e+08,49.235,12613,567.13,0,567.13,0,0.00070856,1.6585e-09,0,0.00035874,0.00013261,2.4733e+08,534.32,0,1.2027e+08,92.029,567.13,1
1960,4.24,12124,1,12124,1,8.6282e-05,2.9305e-09,0,0.00061841,-1.5788e-05,1420.4,924.75,0,2.1643e+08,-22.276,12123,13104,1,13104,1,0.0012732,1.3655e-08,0,0.0012732,0.00020647,3.6211e+08,4215.5,0,4.4765e+08,493.18,13103,12124,1,12124,1,8.6283e-05,1.756e-09,0,0.00061539,-1.5808e-05,3.1241e+07,541.85,0,2.2243e+08,-41.31,12123,11097,1,11097,1,-0.0011006,-3.1238e-09,0,4.2322e-05,-0.00023788,-4.4765e+08,-921.42,0,1.5459e+07,-359.08,11096,11634,1,11634,1,-0.00052911,-3.0437e-10,0,0.0003077,-0.00013096,-2.152e+08,-83.948,0,1.1642e+08,-111.78,11633,12614,1,12614,1,0.00070168,5.8384e-09,0,0.0009231,9.9351e-05,2.2321e+08,1828.8,0,3.1147e+08,32.997,12613,567.13,0,567.13,0,0.00071032,3.9353e-09,0,0.00035968,0.00013294,2.4774e+08,1239,0,1.2045e+08,148.54,567.13,1
1960,4.25,12124,1,12124,1,8.6954e-05,3.1579e-09,0,0.00061999,-1.5911e-05,32.711,1000.6,0,2.168e+08,15.052,12123,13104,1,13104,1,0.0012768,1.4675e-08,0,0.0012768,0.0002069,3.6243e+08,4551.8,0,4.4858e+08,546.54,13103,12124,1,12124,1,8.6956e-05,2.2242e-09,0,0.00061693,-1.5932e-05,3.1466e+07,676.7,0,2.2282e+08,-3.3157,12123,11097,1,11097,1,-0.0011029,-2.0391e-09,0,4.2883e-05,-0.00023856,-4.4858e+08,-563.86,0,1.5656e+07,-411.65,11096,11634,1,11634,1,-0.00052997,-1.8665e-12,0,0.00030847,-0.00013137,-2.1555e+08,-0.96907,0,1.1666e+08,-107.62,11633,12614,1,12614,1,0.00070389,5.6969e-09,0,0.00092541,9.9514e-05,2.2361e+08,1800.9,0,3.1192e+08,118.54,12613,567.13,0,567.13,0,0.00071209,3.7057e-09,0,0.00036063,0.00013327,2.4815e+08,1182.9,0,1.2064e+08,190.76,567.13,1
1960,4.26,12124,1,12124,1,8.7637e-05,7.3143e-10,0,0.00062158,-1.6036e-05,-53.489,260.73,0,2.1717e+08,-27.75,12123,13104,1,13104,1,0.0012805,4.6906e-09,0,0.0012805,0.00020733,3.6274e+08,1605.4,0,4.495e+08,221.03,13103,12124,1,12124,1,8.7638e-05,2.9736e-10,0,0.00061847,-1.6058e-05,3.1693e+07,93.775,0,2.2322e+08,-30.059,12123,11097,1,11097,1,-0.0011052,-1.5347e-09,0,4.3454e-05,-0.00023923,-4.495e+08,-381.36,0,1.5856e+07,-171.94,11096,11634,1,11634,1,-0.00053084,-4.7248e-10,0,0.00030925,-0.00013178,-2.159e+08,-121.94,0,1.1689e+08,-74.123,11633,12614,1,12614,1,0.00070612,1.7014e-09,0,0.00092772,9.9677e-05,2.2401e+08,555.61,0,3.1237e+08,10.463,12613,567.13,0,567.13,0,0.00071388,1.4795e-09,0,0.00036159,0.0001336,2.4857e+08,476.77,0,1.2083e+08,70.42,567.13,1
1960,4.27,12124,1,12124,1,8.8326e-05,1.2716e-09,0,0.00062316,-1.6162e-05,18.456,411.92,0,2.1753e+08,-9.2092,12123,13104,1,13104,1,0.0012841,3.4433e-09,0,0.0012841,0.00020775,3.6305e+08,1178.5,0,4.5043e+08,172.72,13103,12124,1,12124,1,8.8327e-05,1.2306e-09,0,0.00062001,-1.6184e-05,3.1922e+07,370.44,0,2.2362e+08,-5.7549,12123,11097,1,11097,1,-0.0011074,-7.6703e-10,0,4.4036e-05,-0.00023991,-4.5043e+08,-187.07,0,1.606e+07,-172.65,11096,11634,1,11634,1,-0.00053169,2.6305e-10,0,0.00031001,-0.0001322,-2.1625e+08,72.087,0,1.1712e+08,-50.41,11633,12614,1,12614,1,0.00070835,2.336e-09,0,0.00093003,9.9838e-05,2.2441e+08,756,0,3.1282e+08,39.59,12613,567.13,0,567.13,0,0.00071566,1.1737e-09,0,0.00036255,0.00013394,2.4898e+08,383.1,0,1.2102e+08,66.596,567.13,1
1960,4.28,12124,1,12124,1,8.9018e-05,-2.0974e-10,0,0.00062474,-1.6289e-05,-233.65,-45.494,0,2.1789e+08,19.28,12123,13104,1,13104,1,0.0012877,2.1575e-09,0,0.0012877,0.00020818,3.6335e+08,698.94,0,4.5135e+08,164,13103,12124,1,12124,1,8.9018e-05,-1.567e-10,0,0.00062156,-1.6312e-05,3.2152e+07,-41.861,0,2.2401e+08,7.7539,12123,11097,1,11097,1,-0.0011097,-2.0247e-09,0,4.4169e-05,-0.00024058,-4.5135e+08,-584.18,0,1.6263e+07,-69.717,11096,11634,1,11634,1,-0.00053254,-1.0055e-09,0,0.00031078,-0.00013261,-2.1659e+08,-274.75,0,1.1735e+08,-8.7719,11633,12614,1,12614,1,0.00071058,4.7771e-10,0,0.00093233,9.9998e-05,2.248e+08,155.31,0,3.1326e+08,37.739,12613,567.13,0,567.13,0,0.00071744,9.7328e-10,0,0.00036351,0.00013427,2.4938e+08,294.69,0,1.2121e+08,42.083,567.13,1
1960,4.29,12124,1,12124,1,8.9713e-05,-1.7698e-09,0,0.00062633,-1.6416e-05,-17.113,-534.87,0,2.1825e+08,-7.9453,12123,13104,1,13104,1,0.0012914,9.7828e-10,0,0.0012914,0.00020861,3.6366e+08,335.05,0,4.5229e+08,98.449,13103,12124,1,12124,1,8.9714e-05,-2.0518e-09,0,0.0006231,-1.644e-05,3.2383e+07,-622.52,0,2.2441e+08,-2.101,12123,11097,1,11097,1,-0.001112,-3.7752e-09,0,4.3806e-05,-0.00024127,-4.5229e+08,-1137.8,0,1.6468e+07,-139.67,11096,11634,1,11634,1,-0.00053338,-2.7764e-09,0,0.00031155,-0.00013302,-2.1694e+08,-838.74,0,1.1758e+08,-34.796,11633,12614,1,12614,1,0.00071281,-8.5374e-10,0,0.00093465,0.00010016,2.252e+08,-251.65,0,3.1371e+08,23.451,12613,567.13,0,567.13,0,0.00071922,1.1672e-09,0,0.00036447,0.0001346,2.4979e+08,354.16,0,1.2139e+08,45.999,567.13,1
1960,4.3,12124,1,12124,1,9.0413e-05,-1.265e-09,0,0.00062791,-1.6544e-05,-2.6111,-395.6,0,2.1861e+08,-8.2755,12123,13104,1,13104,1,0.0012951,9.0211e-10,0,0.0012951,0.00020904,3.6395e+08,308.95,0,4.5321e+08,150.13,13103,12124,1,12124,1,9.0412e-05,-1.3792e-09,0,0.00062464,-1.6568e-05,3.2615e+07,-419.83,0,2.248e+08,-6.7733,12123,11097,1,11097,1,-0.0011143,-2.9609e-09,0,4.3438e-05,-0.00024195,-4.5321e+08,-967.66,0,1.6673e+07,-146.4,11096,11634,1,11634,1,-0.00053423,-2.2188e-09,0,0.00031232,-0.00013344,-2.1728e+08,-699.54,0,1.1781e+08,-49.849,11633,12614,1,12614,1,0.00071505,-3.6435e-10,0,0.00093696,0.00010032,2.2559e+08,-107.57,0,3.1415e+08,38.21,12613,567.13,0,567.13,0,0.000721,1.0948e-09,0,0.00036543,0.00013493,2.5019e+08,346.72,0,1.2158e+08,59.17,567.13,1
1960,4.31,12124,1,12124,1,9.1117e-05,-7.6877e-10,0,0.0006295,-1.6673e-05,174.3,-248.87,0,2.1897e+08,10.254,12123,13104,1,13104,1,0.0012988,2.0104e-09,0,0.0012988,0.00020946,3.6425e+08,553.67,0,4.5413e+08,154.49,13103,12124,1,12124,1,9.1116e-05,-7.3296e-10,0,0.00062618,-1.6698e-05,3.2848e+07,-221.69,0,2.2519e+08,7.5788,12123,11097,1,11097,1,-0.0011165,-3.0045e-09,0,4.3063e-05,-0.00024263,-4.5413e+08,-940.73,0,1.688e+07,-143.78,11096,11634,1,11634,1,-0.00053506,-1.7132e-09,0,0.00031309,-0.00013386,-2.1762e+08,-537.31,0,1.1804e+08,-35.862,11633,12614,1,12614,1,0.0007173,1.7969e-10,0,0.00093927,0.00010047,2.2598e+08,53.284,0,3.1459e+08,57.399,12613,567.13,0,567.13,0,0.00072278,1.171e-09,0,0.00036639,0.00013526,2.506e+08,363.76,0,1.2176e+08,59.618,567.13,1
1960,4.32,12124,1,12124,1,9.1824e-05,1.3538e-11,0,0.00063108,-1.6802e-05,-110.73,-9.1247,0,2.1933e+08,15.565,12123,13104,1,13104,1,0.0013024,1.0348e-09,0,0.0013024,0.00020989,3.6453e+08,278.14,0,4.5505e+08,150.36,13103,12124,1,12124,1,9.1823e-05,-4.2913e-11,0,0.00062773,-1.6828e-05,3.3082e+07,-13.847,0,2.2558e+08,3.0495,12123,11097,1,11097,1,-0.0011188,-1.0335e-09,0,4.2687e-05,-0.00024331,-4.5505e+08,-333.41,0,1.7087e+07,-76.412,11096,11634,1,11634,1,-0.0005359,-3.55e-10,0,0.00031386,-0.00013427,-2.1796e+08,-115.3,0,1.1827e+08,-20.165,11633,12614,1,12614,1,0.00071955,4.3207e-10,0,0.00094159,0.00010063,2.2637e+08,116.33,0,3.1503e+08,46.734,12613,567.13,0,567.13,0,0.00072456,5.1295e-10,0,0.00036736,0.00013559,2.51e+08,152.55,0,1.2195e+08,48.703,567.13,1
1960,4.33,12124,1,12124,1,9.2535e-05,6.5335e-10,0,0.00063267,-1.6932e-05,-52.365,192.83,0,2.1968e+08,31.603,12123,13104,1,13104,1,0.0013061,3.5229e-09,0,0.0013061,0.00021031,3.6482e+08,1042.1,0,4.5597e+08,157.69,13103,12124,1,12124,1,9.2535e-05,4.5063e-10,0,0.00062927,-1.6959e-05,3.3318e+07,132.2,0,2.2597e+08,21.872,12123,11097,1,11097,1,-0.0011211,-6.6004e-10,0,4.2307e-05,-0.00024399,-4.5597e+08,-187.05,0,1.7205e+07,-98.577,11096,11634,1,11634,1,-0.00053673,-5.3401e-11,0,0.00031464,-0.00013469,-2.183e+08,-16.29,0,1.185e+08,-1.5772,11633,12614,1,12614,1,0.0007218,1.1972e-09,0,0.00094391,0.00010079,2.2676e+08,352.73,0,3.1546e+08,66.665,12613,567.13,0,567.13,0,0.00072634,8.3251e-10,0,0.00036832,0.00013593,2.514e+08,247.45,0,1.2213e+08,48.6,567.13,1
1960,4.34,12124,1,12124,1,9.3249e-05,2.7824e-09,0,0.00063424,-1.7063e-05,158.08,851.73,0,2.2003e+08,56.576,12123,13104,1,13104,1,0.0013098,1.1318e-08,0,0.0013098,0.00021074,3.651e+08,3433,0,4.5689e+08,408.49,13103,12124,1,12124,1,9.3249e-05,2.1911e-09,0,0.0006308,-1.7091e-05,3.3553e+07,661.19,0,2.2635e+08,29.784,12123,11097,1,11097,1,-0.0011233,-1.3027e-09,0,4.1921e-05,-0.00024468,-4.5689e+08,-446.15,0,1.7049e+07,-231.08,11096,11634,1,11634,1,-0.00053755,4.0996e-10,0,0.0003154,-0.00013511,-2.1863e+08,124.53,0,1.1873e+08,-23.38,11633,12614,1,12614,1,0.00072405,4.6934e-09,0,0.0009462,0.00010094,2.2715e+08,1436.2,0,3.1589e+08,133.04,12613,567.13,0,567.13,0,0.0007281,2.7585e-09,0,0.00036928,0.00013625,2.5179e+08,850.29,0,1.2231e+08,113.86,567.13,1
1960,4.35,12124,1,12124,1,9.3966e-05,-1.0717e-09,0,0.00063584,-1.7194e-05,-160.99,-306.37,0,2.2039e+08,-13.708,12123,13104,1,13104,1,0.0013135,8.4477e-10,0,0.0013135,0.00021116,3.6539e+08,289.32,0,4.5781e+08,107.1,13103,12124,1,12124,1,9.3967e-05,-1.1006e-09,0,0.00063235,-1.7223e-05,3.379e+07,-329.5,0,2.2674e+08,-5.6259,12123,11097,1,11097,1,-0.0011256,-3.0979e-09,0,4.1534e-05,-0.00024536,-4.5781e+08,-914.42,0,1.6892e+07,-140.58,11096,11634,1,11634,1,-0.00053839,-2.0174e-09,0,0.00031618,-0.00013553,-2.1897e+08,-589.48,0,1.1895e+08,-46.468,11633,12614,1,12614,1,0.00072632,-3.4908e-11,0,0.00094853,0.0001011,2.2754e+08,-11.078,0,3.1632e+08,20.489,12613,567.13,0,567.13,0,0.0007299,1.15e-09,0,0.00037026,0.00013659,2.522e+08,337.46,0,1.225e+08,46.684,567.13,1
1960,4.36,12124,1,12124,1,9.4689e-05,-3.4554e-09,0,0.00063741,-1.7326e-05,-586.91,-1051,0,2.2074e+08,5.426,12123,13104,1,13104,1,0.0013172,1.2257e-09,0,0.0013172,0.00021159,3.6565e+08,419.79,0,4.5873e+08,307.68,13103,12124,1,12124,1,9.4687e-05,-3.7639e-09,0,0.00063388,-1.7356e-05,3.4027e+07,-1122.9,0,2.2712e+08,17.533,12123,11097,1,11097,1,-0.0011278,-7.1449e-09,0,4.1142e-05,-0.00024605,-4.5873e+08,-2148.1,0,1.6734e+07,-279.1,11096,11634,1,11634,1,-0.00053919,-5.3525e-09,0,0.00031694,-0.00013594,-2.193e+08,-1638.6,0,1.1918e+08,-50.788,11633,12614,1,12614,1,0.00072857,-1.6601e-09,0,0.00095082,0.00010125,2.2792e+08,-493.03,0,3.1674e+08,77.837,12613,567.13,0,567.13,0,0.00073167,2.2515e-09,0,0.00037122,0.00013692,2.5258e+08,696.79,0,1.2267e+08,100.88,567.13,1
1960,4.37,12124,1,12124,1,9.5416e-05,2.162e-09,0,0.00063901,-1.7459e-05,232.68,637.35,0,2.2109e+08,35.427,12123,13104,1,13104,1,0.0013209,7.5183e-09,0,0.0013209,0.00021201,3.6593e+08,2234.9,0,4.5964e+08,247.37,13103,12124,1,12124,1,9.5416e-05,1.7364e-09,0,0.00063543,-1.749e-05,3.4267e+07,500.01,0,2.2751e+08,29.911,12123,11097,1,11097,1,-0.0011301,-7.9204e-10,0,4.0744e-05,-0.00024674,-4.5964e+08,-271.26,0,1.6573e+07,-148.81,11096,11634,1,11634,1,-0.00054002,2.9692e-10,0,0.00031772,-0.00013637,-2.1964e+08,90.014,0,1.1941e+08,-27.396,11633,12614,1,12614,1,0.00073085,3.7565e-09,0,0.00095316,0.00010141,2.2831e+08,1119,0,3.1717e+08,90.057,12613,567.13,0,567.13,0,0.00073345,2.0825e-09,0,0.00037219,0.00013725,2.5298e+08,616.05,0,1.2286e+08,77.25,567.13,1
1960,4.38,12124,1,12124,1,9.6148e-05,2.4384e-09,0,0.0006406,-1.7593e-05,-145.37,747.62,0,2.2144e+08,43.247,12123,13104,1,13104,1,0.0013247,7.4146e-09,0,0.0013247,0.00021243,3.6619e+08,2252.7,0,4.6056e+08,280.35,13103,12124,1,12124,1,9.6148e-05,2.0187e-09,0,0.00063699,-1.7625e-05,3.4507e+07,604.64,0,2.2789e+08,34.483,12123,11097,1,11097,1,-0.0011323,-1.4631e-09,0,4.0348e-05,-0.00024743,-4.6056e+08,-428.49,0,1.6413e+07,-200.38,11096,11634,1,11634,1,-0.00054084,2.3802e-10,0,0.00031849,-0.00013679,-2.1997e+08,69.288,0,1.1963e+08,-15.486,11633,12614,1,12614,1,0.00073313,4.5204e-09,0,0.00095548,0.00010157,2.2869e+08,1381.3,0,3.176e+08,110.06,12613,567.13,0,567.13,0,0.00073524,2.3848e-09,0,0.00037316,0.00013758,2.5338e+08,741.1,0,1.2304e+08,88.827,567.13,1
1960,4.39,12124,1,12124,1,9.6887e-05,5.4386e-10,0,0.0006422,-1.7728e-05,-60.143,182.61,0,2.2179e+08,0.79454,12123,13104,1,13104,1,0.0013284,4.1692e-09,0,0.0013284,0.00021285,3.6645e+08,1306.2,0,4.6148e+08,221.68,13103,12124,1,12124,1,9.6888e-05,2.7949e-10,0,0.00063854,-1.7761e-05,3.475e+07,88.131,0,2.2828e+08,-7.3117,12123,11097,1,11097,1,-0.0011346,-7.7814e-10,0,3.9939e-05,-0.00024812,-4.6148e+08,-202.96,0,1.6248e+07,-96.327,11096,11634,1,11634,1,-0.00054165,-1.9838e-10,0,0.00031927,-0.00013721,-2.203e+08,-52.522,0,1.1986e+08,-33.22,11633,12614,1,12614,1,0.00073543,1.019e-09,0,0.00095781,0.00010172,2.2907e+08,324.64,0,3.1802e+08,22.631,12613,567.13,0,567.13,0,0.00073704,1.0579e-09,0,0.00037415,0.00013792,2.5377e+08,335.05,0,1.2322e+08,50.934,567.13,1
1960,4.4,12124,1,12124,1,9.7632e-05,-2.6209e-09,0,0.00064379,-1.7864e-05,218.06,-784.15,0,2.2214e+08,-4.7378,12123,13104,1,13104,1,0.0013321,1.4215e-09,0,0.0013321,0.00021328,3.6671e+08,486.85,0,4.624e+08,169.45,13103,12124,1,12124,1,9.7632e-05,-2.4752e-09,0,0.00064009,-1.7898e-05,3.4994e+07,-736,0,2.2866e+08,-4.9319,12123,11097,1,11097,1,-0.0011369,-6.9478e-09,0,3.9527e-05,-0.00024882,-4.624e+08,-2104.4,0,1.6082e+07,-192.44,11096,11634,1,11634,1,-0.00054246,-4.3469e-09,0,0.00032005,-0.00013764,-2.2063e+08,-1294.6,0,1.2008e+08,-56.261,11633,12614,1,12614,1,0.00073772,-7.8009e-10,0,0.00096014,0.00010187,2.2945e+08,-252.91,0,3.1844e+08,46.825,12613,567.13,0,567.13,0,0.00073883,2.1606e-09,0,0.00037512,0.00013825,2.5416e+08,654.19,0,1.234e+08,68.541,567.13,1
1960,4.41,12124,1,12124,1,9.8376e-05,2.3542e-09,0,0.00064538,-1.8e-05,-137.01,703.83,0,2.2248e+08,22.719,12123,13104,1,13104,1,0.0013358,7.1876e-09,0,0.0013358,0.0002137,3.6696e+08,2151.7,0,4.633e+08,256.44,13103,12124,1,12124,1,9.8376e-05,2.002e-09,0,0.00064163,-1.8035e-05,3.5238e+07,591.13,0,2.2903e+08,13.619,12123,11097,1,11097,1,-0.0011391,-1.3334e-09,0,3.9113e-05,-0.00024951,-4.633e+08,-414.23,0,1.5915e+07,-207.03,11096,11634,1,11634,1,-0.00054326,2.0323e-10,0,0.00032082,-0.00013806,-2.2095e+08,59.956,0,1.2031e+08,-51.064,11633,12614,1,12614,1,0.00074001,4.3382e-09,0,0.00096245,0.00010202,2.2983e+08,1304.9,0,3.1885e+08,82.85,12613,567.13,0,567.13,0,0.00074061,2.3787e-09,0,0.0003761,0.00013858,2.5455e+08,725.79,0,1.2358e+08,94.257,567.13,1
1960,4.42,12124,1,12124,1,9.9122e-05,-1.1077e-09,0,0.00064696,-1.8137e-05,-78.726,-324.66,0,2.2282e+08,44.355,12123,13104,1,13104,1,0.0013395,7.9623e-09,0,0.0013395,0.00021411,3.672e+08,2431.2,0,4.642e+08,325.68,13103,12124,1,12124,1,9.9122e-05,-8.2021e-10,0,0.00064317,-1.8172e-05,3.5482e+07,-251.19,0,2.2941e+08,24.631,12123,11097,1,11097,1,-0.0011413,-7.0832e-09,0,3.8697e-05,-0.00025019,-4.642e+08,-2138.9,0,1.5748e+07,-169.4,11096,11634,1,11634,1,-0.00054405,-3.7508e-09,0,0.00032159,-0.00013848,-2.2127e+08,-1107.2,0,1.2053e+08,-22.582,11633,12614,1,12614,1,0.00074229,8.6026e-10,0,0.00096475,0.00010217,2.302e+08,243.92,0,3.1926e+08,105.03,12613,567.13,0,567.13,0,0.00074238,3.2687e-09,0,0.00037707,0.00013891,2.5493e+08,998.16,0,1.2375e+08,98.717,567.13,1
1960,4.43,12124,1,12124,1,9.9871e-05,3.8324e-09,0,0.00064856,-1.8274e-05,-46.631,1161.1,0,2.2316e+08,22.934,12123,13104,1,13104,1,0.0013433,1.3738e-08,0,0.0013433,0.00021454,3.6746e+08,4156.8,0,4.6513e+08,485.29,13103,12124,1,12124,1,9.9872e-05,3.0773e-09,0,0.00064472,-1.8311e-05,3.5726e+07,887.6,0,2.2978e+08,4.8344,12123,11097,1,11097,1,-0.0011436,-3.7725e-09,0,3.8278e-05,-0.00025089,-4.6513e+08,-1170.1,0,1.5579e+07,-337.97,11096,11634,1,11634,1,-0.00054485,1.287e-11,0,0.00032236,-0.00013891,-2.216e+08,4.2426,0,1.2075e+08,-90.359,11633,12614,1,12614,1,0.0007446,7.5258e-09,0,0.00096709,0.00010232,2.3058e+08,2287.8,0,3.1968e+08,132.17,12613,567.13,0,567.13,0,0.00074417,4.3639e-09,0,0.00037805,0.00013925,2.5532e+08,1350.8,0,1.2393e+08,155.23,567.13,1
1960,4.44,12124,1,12124,1,0.00010063,3.4299e-09,0,0.00065017,-1.8413e-05,212.73,1068.1,0,2.2351e+08,-26.397,12123,13104,1,13104,1,0.0013471,9.9373e-09,0,0.0013471,0.00021496,3.6771e+08,3088.7,0,4.6604e+08,300.29,13103,12124,1,12124,1,0.00010063,3.2826e-09,0,0.00064629,-1.8451e-05,3.5975e+07,954.78,0,2.3016e+08,-26.695,12123,11097,1,11097,1,-0.0011458,-1.5722e-09,0,3.7851e-05,-0.0002516,-4.6604e+08,-404.12,0,1.5407e+07,-327.2,11096,11634,1,11634,1,-0.00054565,1.1018e-09,0,0.00032314,-0.00013934,-2.2193e+08,311.26,0,1.2098e+08,-109.09,11633,12614,1,12614,1,0.00074693,5.6295e-09,0,0.00096943,0.00010248,2.3096e+08,1762.4,0,3.2009e+08,56.222,12613,567.13,0,567.13,0,0.00074598,2.7945e-09,0,0.00037904,0.00013958,2.5571e+08,899.62,0,1.2411e+08,123.97,567.13,1
1960,4.45,12124,1,12124,1,0.0001014,-1.0532e-10,0,0.00065179,-1.8554e-05,11.772,8.0145,0,2.2386e+08,-20.361,12123,13104,1,13104,1,0.0013509,2.7864e-09,0,0.0013509,0.00021538,3.6794e+08,953.85,0,4.6695e+08,178.03,13103,12124,1,12124,1,0.0001014,-1.4616e-10,0,0.00064786,-1.8593e-05,3.6226e+07,-41.66,0,2.3054e+08,-20.91,12123,11097,1,11097,1,-0.001148,-2.2442e-09,0,3.7415e-05,-0.0002523,-4.6695e+08,-563.67,0,1.5232e+07,-126.81,11096,11634,1,11634,1,-0.00054645,-1.2404e-09,0,0.00032392,-0.00013977,-2.2225e+08,-337.78,0,1.212e+08,-55.958,11633,12614,1,12614,1,0.00074926,7.8165e-10,0,0.00097178,0.00010263,2.3134e+08,261.56,0,3.205e+08,3.6056,12613,567.13,0,567.13,0,0.00074779,1.3001e-09,0,0.00038004,0.00013992,2.561e+08,392.94,0,1.2429e+08,53.269,567.13,1
1960,4.46,12124,1,12124,1,0.00010218,1.1917e-09,0,0.0006534,-1.8696e-05,-116.33,380.28,0,2.242e+08,5.9181,12123,13104,1,13104,1,0.0013547,3.5901e-09,0,0.0013547,0.0002158,3.6817e+08,1227.9,0,4.6786e+08,157.51,13103,12124,1,12124,1,0.00010218,1.0606e-09,0,0.00064942,-1.8735e-05,3.6477e+07,316.64,0,2.3092e+08,3.609,12123,11097,1,11097,1,-0.0011503,-7.7652e-10,0,3.6981e-05,-0.000253,-4.6786e+08,-185.54,0,1.5057e+07,-100.42,11096,11634,1,11634,1,-0.00054724,1.553e-10,0,0.00032471,-0.00014021,-2.2257e+08,46.702,0,1.2143e+08,-30.991,11633,12614,1,12614,1,0.00075159,2.1904e-09,0,0.00097412,0.00010278,2.3172e+08,693.15,0,3.2091e+08,39.889,12613,567.13,0,567.13,0,0.00074959,1.1839e-09,0,0.00038103,0.00014026,2.5648e+08,380.79,0,1.2447e+08,52.184,567.13,1
1960,4.47,12124,1,12124,1,0.00010295,3.1198e-09,0,0.00065497,-1.8836e-05,215.6,965.51,0,2.2452e+08,65.451,12123,13104,1,13104,1,0.0013584,1.8172e-08,0,0.0013584,0.00021622,3.6839e+08,5509.5,0,4.6876e+08,629.67,13103,12124,1,12124,1,0.00010295,1.7696e-09,0,0.00065095,-1.8877e-05,3.6727e+07,543.05,0,2.3128e+08,33.498,12123,11097,1,11097,1,-0.0011525,-4.544e-09,0,3.6537e-05,-0.00025369,-4.6876e+08,-1331.9,0,1.4879e+07,-469.29,11096,11634,1,11634,1,-0.000548,-4.5559e-10,0,0.00032547,-0.00014063,-2.2288e+08,-131.72,0,1.2164e+08,-60.791,11633,12614,1,12614,1,0.00075389,5.9456e-09,0,0.00097642,0.00010292,2.3208e+08,1812,0,3.2129e+08,165.4,12613,567.13,0,567.13,0,0.00075135,4.637e-09,0,0.000382,0.00014058,2.5685e+08,1425.8,0,1.2464e+08,175.41,567.13,1
1960,4.48,12124,1,12124,1,0.00010372,1.7419e-09,0,0.00065661,-1.8978e-05,3.7189,565.79,0,2.2487e+08,-33.858,12123,13104,1,13104,1,0.0013622,5.1411e-09,0,0.0013622,0.00021664,3.6863e+08,1715.2,0,4.6968e+08,208.98,13103,12124,1,12124,1,0.00010372,1.7443e-09,0,0.00065254,-1.902e-05,3.6979e+07,520.53,0,2.3166e+08,-26.893,12123,11097,1,11097,1,-0.0011548,-1.5731e-09,0,3.6099e-05,-0.0002544,-4.6968e+08,-368.07,0,1.4703e+07,-226.32,11096,11634,1,11634,1,-0.00054881,3.5931e-10,0,0.00032626,-0.00014107,-2.2321e+08,108.34,0,1.2187e+08,-89.635,11633,12614,1,12614,1,0.00075625,3.16e-09,0,0.00097879,0.00010307,2.3246e+08,1023.2,0,3.2171e+08,26.517,12613,567.13,0,567.13,0,0.00075318,1.6968e-09,0,0.00038301,0.00014093,2.5724e+08,547.75,0,1.2482e+08,85.234,567.13,1
1960,4.49,12124,1,12124,1,0.00010451,4.0806e-09,0,0.00065821,-1.9123e-05,457.58,1268.1,0,2.252e+08,19.405,12123,13104,1,13104,1,0.001366,9.1303e-09,0,0.001366,0.00021706,3.6885e+08,3030.4,0,4.7059e+08,438.98,13103,12124,1,12124,1,0.00010451,4.029e-09,0,0.00065409,-1.9165e-05,3.7235e+07,1200.2,0,2.3203e+08,4.3723,12123,11097,1,11097,1,-0.001157,-1.4284e-09,0,3.5645e-05,-0.00025511,-4.7059e+08,-392.27,0,1.4521e+07,-270.28,11096,11634,1,11634,1,-0.00054957,1.6189e-09,0,0.00032704,-0.0001415,-2.2352e+08,440.29,0,1.2209e+08,-70.781,11633,12614,1,12614,1,0.0007586,6.7658e-09,0,0.00098112,0.00010322,2.3283e+08,2130.1,0,3.2211e+08,112.77,12613,567.13,0,567.13,0,0.00075498,2.9778e-09,0,0.00038401,0.00014126,2.5762e+08,957.07,0,1.25e+08,122.35,567.13,1
1960,4.5,12124,1,12124,1,0.0001053,3.8197e-09,0,0.00065981,-1.9267e-05,561.77,1204.1,0,2.2553e+08,31.156,12123,13104,1,13104,1,0.0013698,1.1125e-08,0,0.0013698,0.00021748,3.6906e+08,3610.5,0,4.7149e+08,573.06,13103,12124,1,12124,1,0.0001053,3.5968e-09,0,0.00065565,-1.931e-05,3.7489e+07,1053.8,0,2.3239e+08,21.518,12123,11097,1,11097,1,-0.0011592,-3.2256e-09,0,3.5189e-05,-0.00025581,-4.7149e+08,-877.04,0,1.4339e+07,-272.4,11096,11634,1,11634,1,-0.00055034,1.9239e-10,0,0.00032781,-0.00014194,-2.2383e+08,54.827,0,1.2231e+08,-95.411,11633,12614,1,12614,1,0.00076094,7.3346e-09,0,0.00098345,0.00010336,2.3319e+08,2292.3,0,3.225e+08,131.05,12613,567.13,0,567.13,0,0.00075677,3.9125e-09,0,0.000385,0.00014159,2.5799e+08,1239.1,0,1.2517e+08,164.98,567.13,1
1960,4.51,12124,1,12124,1,0.00010609,2.7419e-09,0,0.00066143,-1.9411e-05,-83.976,885.28,0,2.2587e+08,12.949,12123,13104,1,13104,1,0.0013736,7.3323e-09,0,0.0013736,0.0002179,3.6927e+08,2507.6,0,4.7239e+08,384.83,13103,12124,1,12124,1,0.00010609,2.4635e-09,0,0.00065722,-1.9455e-05,3.7745e+07,767.96,0,2.3276e+08,2.2582,12123,11097,1,11097,1,-0.0011614,-1.4942e-09,0,3.4734e-05,-0.00025652,-4.7239e+08,-342.51,0,1.4156e+07,-207,11096,11634,1,11634,1,-0.00055112,4.4428e-10,0,0.0003286,-0.00014237,-2.2415e+08,132.87,0,1.2253e+08,-75.225,11633,12614,1,12614,1,0.0007633,5.1648e-09,0,0.00098581,0.00010351,2.3356e+08,1629.5,0,3.229e+08,91.265,12613,567.13,0,567.13,0,0.00075859,2.5854e-09,0,0.000386,0.00014193,2.5837e+08,839.34,0,1.2535e+08,115.01,567.13,1
1960,4.52,12124,1,12124,1,0.00010689,1.3041e-09,0,0.00066306,-1.9558e-05,-51.346,445.15,0,2.2621e+08,4.5238,12123,13104,1,13104,1,0.0013775,4.1466e-09,0,0.0013775,0.00021831,3.6948e+08,1419,0,4.7329e+08,272.5,13103,12124,1,12124,1,0.00010689,1.386e-09,0,0.00065879,-1.9603e-05,3.8003e+07,422.47,0,2.3313e+08,-6.7035,12123,11097,1,11097,1,-0.0011636,-1.4463e-09,0,3.427e-05,-0.00025723,-4.7329e+08,-342.26,0,1.3971e+07,-147.31,11096,11634,1,11634,1,-0.00055189,-1.7556e-10,0,0.00032938,-0.00014281,-2.2446e+08,-51.379,0,1.2275e+08,-51.334,11633,12614,1,12614,1,0.00076567,2.7495e-09,0,0.00098817,0.00010366,2.3393e+08,905.89,0,3.2329e+08,45.657,12613,567.13,0,567.13,0,0.00076041,1.6161e-09,0,0.00038701,0.00014227,2.5875e+08,517.55,0,1.2552e+08,87.064,567.13,1
1960,4.53,12124,1,12124,1,0.00010769,1.1766e-09,0,0.00066467,-1.9705e-05,20.522,392.14,0,2.2654e+08,7.9802,12123,13104,1,13104,1,0.0013813,3.3261e-09,0,0.0013813,0.00021873,3.6968e+08,1138.2,0,4.7419e+08,246.43,13103,12124,1,12124,1,0.00010769,1.2545e-09,0,0.00066036,-1.9751e-05,3.8263e+07,397.4,0,2.3349e+08,-7.3488,12123,11097,1,11097,1,-0.0011659,-9.1941e-10,0,3.3803e-05,-0.00025793,-4.7419e+08,-217.17,0,1.3784e+07,-112.47,11096,11634,1,11634,1,-0.00055265,-5.4448e-11,0,0.00033017,-0.00014325,-2.2477e+08,-16.001,0,1.2297e+08,-37.823,11633,12614,1,12614,1,0.00076804,2.2419e-09,0,0.00099052,0.0001038,2.3429e+08,724.18,0,3.2368e+08,49.508,12613,567.13,0,567.13,0,0.00076221,1.2369e-09,0,0.00038802,0.00014261,2.5912e+08,399.91,0,1.257e+08,70.138,567.13,1
1960,4.54,12124,1,12124,1,0.0001085,1.5395e-09,0,0.00066627,-1.9852e-05,154.51,494.7,0,2.2686e+08,51.408,12123,13104,1,13104,1,0.0013851,6.5601e-09,0,0.0013851,0.00021914,3.6988e+08,2043.3,0,4.7508e+08,378.39,13103,12124,1,12124,1,0.0001085,1.0334e-09,0,0.00066191,-1.99e-05,3.8522e+07,321.1,0,2.3385e+08,36.556,12123,11097,1,11097,1,-0.001168,-2.5727e-09,0,3.3332e-05,-0.00025864,-4.7508e+08,-681.73,0,1.3597e+07,-121.99,11096,11634,1,11634,1,-0.0005534,-2.699e-10,0,0.00033095,-0.00014369,-2.2508e+08,-71.849,0,1.2318e+08,-23.173,11633,12614,1,12614,1,0.0007704,3.3304e-09,0,0.00099285,0.00010394,2.3465e+08,1039.4,0,3.2406e+08,109.76,12613,567.13,0,567.13,0,0.000764,2.2271e-09,0,0.00038902,0.00014294,2.5949e+08,686.66,0,1.2587e+08,99.791,567.13,1
1960,4.55,12124,1,12124,1,0.00010931,2.524e-10,0,0.00066789,-2e-05,177.08,107.09,0,2.2719e+08,19.927,12123,13104,1,13104,1,0.0013889,4.681e-09,0,0.0013889,0.00021955,3.7008e+08,1438,0,4.7598e+08,335.1,13103,12124,1,12124,1,0.00010931,1.122e-10,0,0.00066347,-2.0049e-05,3.8782e+07,32.687,0,2.3422e+08,10.602,12123,11097,1,11097,1,-0.0011702,-2.8655e-09,0,3.2859e-05,-0.00025934,-4.7598e+08,-785.49,0,1.3408e+07,-114.22,11096,11634,1,11634,1,-0.00055416,-9.6064e-10,0,0.00033173,-0.00014413,-2.2539e+08,-264.36,0,1.234e+08,-23.508,11633,12614,1,12614,1,0.00077278,1.2756e-09,0,0.0009952,0.00010408,2.3501e+08,408.09,0,3.2444e+08,50.177,12613,567.13,0,567.13,0,0.00076581,1.682e-09,0,0.00039002,0.00014328,2.5986e+08,511.05,0,1.2604e+08,67.445,567.13,1
1960,4.56,12124,1,12124,1,0.00011012,3.1931e-09,0,0.0006695,-2.0149e-05,-105.95,978.16,0,2.2751e+08,59.82,12123,13104,1,13104,1,0.0013927,9.1785e-09,0,0.0013927,0.00021997,3.7027e+08,2897.8,0,4.7688e+08,378.33,13103,12124,1,12124,1,0.00011012,2.943e-09,0,0.00066503,-2.0198e-05,3.9043e+07,877.99,0,2.3457e+08,47.878,12123,11097,1,11097,1,-0.0011725,-2.162e-09,0,3.2383e-05,-0.00026006,-4.7688e+08,-603.43,0,1.3218e+07,-152.35,11096,11634,1,11634,1,-0.00055491,2.9578e-10,0,0.00033251,-0.00014457,-2.2569e+08,87.579,0,1.2361e+08,-24.359,11633,12614,1,12614,1,0.00077515,5.9399e-09,0,0.00099754,0.00010423,2.3537e+08,1826,0,3.2482e+08,135.24,12613,567.13,0,567.13,0,0.00076761,3.0987e-09,0,0.00039103,0.00014361,2.6023e+08,963.74,0,1.2621e+08,109.55,567.13,1
1960,4.57,12124,1,12124,1,0.00011094,2.7719e-09,0,0.00067112,-2.0299e-05,47.925,868.89,0,2.2784e+08,36.614,12123,13104,1,13104,1,0.0013966,7.5349e-09,0,0.0013966,0.00022039,3.7046e+08,2433.4,0,4.7779e+08,404.42,13103,12124,1,12124,1,0.00011094,2.6132e-09,0,0.00066661,-2.0349e-05,3.9306e+07,783.65,0,2.3494e+08,14.921,12123,11097,1,11097,1,-0.0011747,-1.3756e-09,0,3.1896e-05,-0.00026077,-4.7779e+08,-345.53,0,1.3025e+07,-200.49,11096,11634,1,11634,1,-0.00055566,6.6199e-10,0,0.0003333,-0.00014501,-2.26e+08,173.36,0,1.2383e+08,-54.872,11633,12614,1,12614,1,0.00077755,4.8938e-09,0,0.0009999,0.00010437,2.3573e+08,1531,0,3.2521e+08,129.32,12613,567.13,0,567.13,0,0.00076943,2.4014e-09,0,0.00039204,0.00014395,2.606e+08,768.45,0,1.2638e+08,129.89,567.13,1
1960,4.58,12124,1,12124,1,0.00011177,-1.3079e-09,0,0.00067276,-2.0451e-05,-87.181,-347.21,0,2.2817e+08,1.5952,12123,13104,1,13104,1,0.0014004,1.9391e-09,0,0.0014004,0.0002208,3.7065e+08,663.52,0,4.7868e+08,304.79,13103,12124,1,12124,1,0.00011177,-1.1392e-09,0,0.00066819,-2.0502e-05,3.9572e+07,-316.35,0,2.353e+08,-6.6359,12123,11097,1,11097,1,-0.0011769,-4.6626e-09,0,3.1405e-05,-0.00026148,-4.7868e+08,-1264.6,0,1.283e+07,-143.95,11096,11634,1,11634,1,-0.00055642,-2.8508e-09,0,0.00033409,-0.00014545,-2.263e+08,-773.87,0,1.2405e+08,-43.589,11633,12614,1,12614,1,0.00077996,3.256e-10,0,0.0010023,0.00010451,2.361e+08,91.128,0,3.2559e+08,28.565,12613,567.13,0,567.13,0,0.00077126,1.7976e-09,0,0.00039307,0.00014429,2.6097e+08,509.54,0,1.2656e+08,75.025,567.13,1
1960,4.59,12124,1,12124,1,0.0001126,7.6854e-10,0,0.00067437,-2.0603e-05,20.806,245.39,0,2.2849e+08,25.471,12123,13104,1,13104,1,0.0014043,4.8911e-09,0,0.0014043,0.00022121,3.7081e+08,1497.6,0,4.7956e+08,219.4,13103,12124,1,12124,1,0.0001126,2.9183e-10,0,0.00066975,-2.0656e-05,3.9838e+07,91.343,0,2.3565e+08,30.966,12123,11097,1,11097,1,-0.0011791,-2.8027e-09,0,3.0912e-05,-0.0002622,-4.7956e+08,-784.5,0,1.2634e+07,-128.59,11096,11634,1,11634,1,-0.00055714,-3.4832e-10,0,0.00033487,-0.0001459,-2.266e+08,-93.791,0,1.2426e+08,-18.496,11633,12614,1,12614,1,0.00078235,1.9857e-09,0,0.0010046,0.00010465,2.3645e+08,603.33,0,3.2595e+08,64.521,12613,567.13,0,567.13,0,0.00077306,1.711e-09,0,0.00039408,0.00014463,2.6133e+08,525.85,0,1.2672e+08,62.019,567.13,1
1960,4.6,12124,1,12124,1,0.00011344,1.4531e-09,0,0.000676,-2.0756e-05,73.563,449.67,0,2.2881e+08,20.568,12123,13104,1,13104,1,0.0014082,4.3788e-09,0,0.0014082,0.00022163,3.71e+08,1444.8,0,4.8047e+08,229.7,13103,12124,1,12124,1,0.00011344,1.242e-09,0,0.00067133,-2.0809e-05,4.0105e+07,358.81,0,2.3601e+08,10.207,12123,11097,1,11097,1,-0.0011813,-1.1321e-09,0,3.0416e-05,-0.00026292,-4.8047e+08,-303.39,0,1.2438e+07,-146.54,11096,11634,1,11634,1,-0.00055789,2.1554e-10,0,0.00033566,-0.00014634,-2.269e+08,69.087,0,1.2448e+08,-30.81,11633,12614,1,12614,1,0.00078477,2.6217e-09,0,0.001007,0.00010479,2.3681e+08,807.32,0,3.2633e+08,73.886,12613,567.13,0,567.13,0,0.00077489,1.4056e-09,0,0.0003951,0.00014497,2.617e+08,443.08,0,1.269e+08,73.021,567.13,1
1960,4.61,12124,1,12124,1,0.00011428,1.7167e-09,0,0.00067764,-2.0911e-05,132.46,533.41,0,2.2913e+08,11.355,12123,13104,1,13104,1,0.0014121,3.8602e-09,0,0.0014121,0.00022204,3.7116e+08,1238.4,0,4.8136e+08,322.71,13103,12124,1,12124,1,0.00011428,1.825e-09,0,0.00067291,-2.0965e-05,4.0374e+07,544.61,0,2.3636e+08,-5.028,12123,11097,1,11097,1,-0.0011835,-8.7206e-10,0,2.9909e-05,-0.00026364,-4.8136e+08,-298.67,0,1.2237e+07,-148.01,11096,11634,1,11634,1,-0.00055862,6.6085e-10,0,0.00033645,-0.00014679,-2.272e+08,172.65,0,1.2469e+08,-56.827,11633,12614,1,12614,1,0.00078719,2.8704e-09,0,0.0010094,0.00010493,2.3716e+08,897.94,0,3.267e+08,66.646,12613,567.13,0,567.13,0,0.00077671,1.2684e-09,0,0.00039613,0.00014531,2.6206e+08,406.96,0,1.2707e+08,93.096,567.13,1
1960,4.62,12124,1,12124,1,0.00011513,2.6082e-09,0,0.00067926,-2.1066e-05,192.08,806.82,0,2.2945e+08,73.049,12123,13104,1,13104,1,0.001416,7.3194e-09,0,0.001416,0.00022245,3.7133e+08,2215.8,0,4.8226e+08,402.4,13103,12124,1,12124,1,0.00011513,2.4747e-09,0,0.00067448,-2.1121e-05,4.0644e+07,736.23,0,2.3671e+08,48.942,12123,11097,1,11097,1,-0.0011857,-1.6766e-09,0,2.9397e-05,-0.00026436,-4.8226e+08,-420.01,0,1.2035e+07,-110.45,11096,11634,1,11634,1,-0.00055935,6.0644e-10,0,0.00033723,-0.00014724,-2.275e+08,171.14,0,1.249e+08,-6.9278,11633,12614,1,12614,1,0.00078961,4.6171e-09,0,0.0010117,0.00010507,2.3751e+08,1423.1,0,3.2707e+08,146.01,12613,567.13,0,567.13,0,0.00077852,2.3039e-09,0,0.00039715,0.00014564,2.6242e+08,717.54,0,1.2724e+08,105.43,567.13,1
1960,4.63,12124,1,12124,1,0.00011598,1.1094e-09,0,0.00068089,-2.1222e-05,-8.3409,370.09,0,2.2977e+08,28.961,12123,13104,1,13104,1,0.0014199,3.5166e-09,0,0.0014199,0.00022287,3.7149e+08,1203.3,0,4.8315e+08,277.14,13103,12124,1,12124,1,0.00011598,1.0521e-09,0,0.00067607,-2.1278e-05,4.0915e+07,322.13,0,2.3707e+08,13.052,12123,11097,1,11097,1,-0.0011879,-1.659e-09,0,2.8884e-05,-0.00026508,-4.8315e+08,-414.93,0,1.1833e+07,-108.31,11096,11634,1,11634,1,-0.00056008,-1.3649e-10,0,0.00033802,-0.00014769,-2.2779e+08,-38.991,0,1.2512e+08,-21.586,11633,12614,1,12614,1,0.00079204,2.3107e-09,0,0.0010141,0.00010521,2.3786e+08,742.89,0,3.2744e+08,77.823,12613,567.13,0,567.13,0,0.00078035,1.3285e-09,0,0.00039818,0.00014598,2.6278e+08,422.32,0,1.2741e+08,73.344,567.13,1
1960,4.64,12124,1,12124,1,0.00011684,6.267e-10,0,0.00068254,-2.1379e-05,-227.35,218.97,0,2.3009e+08,37.86,12123,13104,1,13104,1,0.0014238,2.1332e-09,0,0.0014238,0.00022328,3.7165e+08,729.94,0,4.8404e+08,267.62,13103,12124,1,12124,1,0.00011684,7.0785e-10,0,0.00067765,-2.1436e-05,4.1188e+07,212.62,0,2.3742e+08,18.235,12123,11097,1,11097,1,-0.0011901,-1.2962e-09,0,2.8366e-05,-0.00026581,-4.8404e+08,-321.12,0,1.1629e+07,-84.462,11096,11634,1,11634,1,-0.00056081,-2.2583e-10,0,0.00033882,-0.00014814,-2.2809e+08,-52.45,0,1.2533e+08,-9.4942,11633,12614,1,12614,1,0.00079449,1.3665e-09,0,0.0010165,0.00010534,2.3821e+08,456.3,0,3.278e+08,74.028,12613,567.13,0,567.13,0,0.00078218,8.9303e-10,0,0.00039921,0.00014632,2.6314e+08,281.59,0,1.2758e+08,68.918,567.13,1
1960,4.65,12124,1,12124,1,0.0001177,2.3986e-09,0,0.00068416,-2.1537e-05,164.97,740.43,0,2.304e+08,53.998,12123,13104,1,13104,1,0.0014277,5.4634e-09,0,0.0014277,0.00022369,3.718e+08,1743.4,0,4.8493e+08,320.54,13103,12124,1,12124,1,0.0001177,2.4679e-09,0,0.00067922,-2.1595e-05,4.1462e+07,730.49,0,2.3777e+08,25.023,12123,11097,1,11097,1,-0.0011922,-1.4196e-09,0,2.7841e-05,-0.00026653,-4.8493e+08,-342.06,0,1.1422e+07,-102.1,11096,11634,1,11634,1,-0.00056151,8.3684e-10,0,0.00033961,-0.00014859,-2.2838e+08,230.26,0,1.2554e+08,-20.023,11633,12614,1,12614,1,0.00079692,4.0576e-09,0,0.0010188,0.00010548,2.3856e+08,1263.3,0,3.2816e+08,128.42,12613,567.13,0,567.13,0,0.00078399,1.8557e-09,0,0.00040024,0.00014666,2.6349e+08,583.45,0,1.2774e+08,95.484,567.13,1
1960,4.66,12124,1,12124,1,0.00011857,-5.3357e-10,0,0.00068581,-2.1696e-05,70.851,-125.04,0,2.3071e+08,19.999,12123,13104,1,13104,1,0.0014316,1.4938e-09,0,0.0014316,0.0002241,3.7195e+08,511.43,0,4.8581e+08,323.6,13103,12124,1,12124,1,0.00011857,-2.8285e-10,0,0.00068082,-2.1755e-05,4.1737e+07,-86.201,0,2.3812e+08,-1.6628,12123,11097,1,11097,1,-0.0011944,-2.6125e-09,0,2.7313e-05,-0.00026726,-4.8581e+08,-668.8,0,1.1215e+07,-67.037,11096,11634,1,11634,1,-0.00056224,-1.4078e-09,0,0.0003404,-0.00014905,-2.2867e+08,-379.42,0,1.2575e+08,-20.035,11633,12614,1,12614,1,0.00079938,3.743e-10,0,0.0010212,0.00010562,2.3891e+08,127.67,0,3.2852e+08,30.117,12613,567.13,0,567.13,0,0.00078584,1.0155e-09,0,0.00040128,0.000147,2.6385e+08,279.49,0,1.2791e+08,67.046,567.13,1
1960,4.67,12124,1,12124,1,0.00011945,1.8249e-09,0,0.00068744,-2.1856e-05,10.727,558.59,0,2.3102e+08,72.713,12123,13104,1,13104,1,0.0014355,6.026e-09,0,0.0014355,0.00022451,3.7209e+08,1784,0,4.867e+08,300.43,13103,12124,1,12124,1,0.00011944,1.6831e-09,0,0.00068239,-2.1916e-05,4.2013e+07,503.12,0,2.3846e+08,49.533,12123,11097,1,11097,1,-0.0011966,-1.4626e-09,0,2.6779e-05,-0.00026799,-4.867e+08,-356.01,0,1.1006e+07,-78.977,11096,11634,1,11634,1,-0.00056294,5.6173e-10,0,0.00034119,-0.0001495,-2.2896e+08,150.37,0,1.2596e+08,8.8106,11633,12614,1,12614,1,0.00080183,3.0487e-09,0,0.0010236,0.00010575,2.3925e+08,935.2,0,3.2887e+08,133.25,12613,567.13,0,567.13,0,0.00078765,1.6221e-09,0,0.00040231,0.00014734,2.642e+08,492.89,0,1.2808e+08,84.557,567.13,1
1960,4.68,12124,1,12124,1,0.00012032,-2.2584e-09,0,0.00068908,-2.2016e-05,23.636,-645.27,0,2.3133e+08,25.981,12123,13104,1,13104,1,0.0014394,1.2832e-09,0,0.0014394,0.00022492,3.7224e+08,439.44,0,4.8759e+08,323.24,13103,12124,1,12124,1,0.00012032,-2.1586e-09,0,0.00068398,-2.2078e-05,4.2291e+07,-627.8,0,2.3881e+08,20.451,12123,11097,1,11097,1,-0.0011988,-5.8835e-09,0,2.6241e-05,-0.00026871,-4.8759e+08,-1696.6,0,1.0796e+07,-146.03,11096,11634,1,11634,1,-0.00056366,-3.7872e-09,0,0.00034199,-0.00014996,-2.2925e+08,-1073.8,0,1.2617e+08,-34.881,11633,12614,1,12614,1,0.0008043,-7.0814e-10,0,0.001026,0.00010588,2.396e+08,-216.67,0,3.2923e+08,75.217,12613,567.13,0,567.13,0,0.00078949,1.889e-09,0,0.00040336,0.00014768,2.6456e+08,539.25,0,1.2825e+08,75.802,567.13,1
1960,4.69,12124,1,12124,1,0.00012121,7.9754e-10,0,0.00069073,-2.2178e-05,-27.146,230.91,0,2.3164e+08,37.385,12123,13104,1,13104,1,0.0014434,1.737e-09,0,0.0014434,0.00022533,3.7237e+08,488.4,0,4.8847e+08,388.09,13103,12124,1,12124,1,0.00012121,8.5902e-10,0,0.00068557,-2.2241e-05,4.257e+07,256.49,0,2.3915e+08,10.949,12123,11097,1,11097,1,-0.001201,-5.0834e-10,0,2.5699e-05,-0.00026944,-4.8847e+08,-161.77,0,1.0584e+07,-84.748,11096,11634,1,11634,1,-0.00056436,3.6592e-10,0,0.00034279,-0.00015042,-2.2953e+08,109.13,0,1.2638e+08,-15.79,11633,12614,1,12614,1,0.00080678,1.2095e-09,0,0.0010284,0.00010602,2.3994e+08,351.23,0,3.2958e+08,65.918,12613,567.13,0,567.13,0,0.00079133,5.2947e-10,0,0.0004044,0.00014803,2.6491e+08,150.43,0,1.2841e+08,82.5,567.13,1
1960,4.7,12124,1,12124,1,0.0001221,8.9204e-10,0,0.00069237,-2.2341e-05,103.16,269.19,0,2.3195e+08,70.121,12123,13104,1,13104,1,0.0014473,5.1029e-09,0,0.0014473,0.00022574,3.725e+08,1460.4,0,4.8936e+08,344.63,13103,12124,1,12124,1,0.0001221,5.6336e-10,0,0.00068715,-2.2404e-05,4.2851e+07,172.98,0,2.3949e+08,50.989,12123,11097,1,11097,1,-0.0012031,-2.1495e-09,0,2.5149e-05,-0.00027018,-4.8936e+08,-553.64,0,1.037e+07,-63.563,11096,11634,1,11634,1,-0.00056506,7.9964e-11,0,0.00034358,-0.00015087,-2.2982e+08,19.971,0,1.2659e+08,8.4361,11633,12614,1,12614,1,0.00080925,1.6496e-09,0,0.0010307,0.00010615,2.4028e+08,488.08,0,3.2992e+08,121.93,12613,567.13,0,567.13,0,0.00079315,1.3168e-09,0,0.00040545,0.00014837,2.6525e+08,381.09,0,1.2858e+08,81.882,567.13,1
1960,4.71,12124,1,12124,1,0.00012299,3.4008e-10,0,0.00069401,-2.2504e-05,-136.58,112.28,0,2.3225e+08,79.786,12123,13104,1,13104,1,0.0014513,6.7146e-09,0,0.0014513,0.00022614,3.7262e+08,1976.8,0,4.9024e+08,415.73,13103,12124,1,12124,1,0.00012299,2.5494e-10,0,0.00068874,-2.2569e-05,4.3131e+07,69.531,0,2.3983e+08,77.451,12123,11097,1,11097,1,-0.0012053,-3.5312e-09,0,2.4596e-05,-0.00027091,-4.9024e+08,-1042.2,0,1.0155e+07,-134.34,11096,11634,1,11634,1,-0.00056575,-1.2513e-09,0,0.00034437,-0.00015133,-2.301e+08,-363.6,0,1.268e+08,4.7353,11633,12614,1,12614,1,0.00081173,1.4987e-09,0,0.0010331,0.00010628,2.4062e+08,455.17,0,3.3027e+08,146.61,12613,567.13,0,567.13,0,0.00079498,2.1703e-09,0,0.00040649,0.00014871,2.656e+08,641.74,0,1.2874e+08,104.89,567.13,1
1960,4.72,12124,1,12124,1,0.00012389,2.6885e-09,0,0.00069565,-2.2669e-05,103.59,803.06,0,2.3256e+08,47.092,12123,13104,1,13104,1,0.0014553,6.5196e-09,0,0.0014553,0.00022655,3.7274e+08,1937,0,4.9112e+08,482.53,13103,12124,1,12124,1,0.00012388,2.9137e-09,0,0.00069032,-2.2733e-05,4.3413e+07,856.56,0,2.4017e+08,25.069,12123,11097,1,11097,1,-0.0012075,-9.3828e-10,0,2.4039e-05,-0.00027164,-4.9112e+08,-321.34,0,9.9389e+06,-159.23,11096,11634,1,11634,1,-0.00056643,1.3235e-09,0,0.00034516,-0.00015179,-2.3038e+08,357.19,0,1.27e+08,-36.038,11633,12614,1,12614,1,0.00081421,4.2236e-09,0,0.0010355,0.00010641,2.4096e+08,1287.7,0,3.3061e+08,112.39,12613,567.13,0,567.13,0,0.00079681,1.8018e-09,0,0.00040754,0.00014905,2.6595e+08,549.53,0,1.289e+08,120.81,567.13,1
1960,4.73,12124,1,12124,1,0.00012479,8.9852e-10,0,0.0006973,-2.2834e-05,506.22,296.78,0,2.3286e+08,14.013,12123,13104,1,13104,1,0.0014592,3.8699e-09,0,0.0014592,0.00022696,3.7286e+08,1264.5,0,4.92e+08,343.49,13103,12124,1,12124,1,0.00012479,7.2791e-10,0,0.00069192,-2.29e-05,4.3696e+07,231.55,0,2.4051e+08,2.1508,12123,11097,1,11097,1,-0.0012096,-2.7376e-09,0,2.3475e-05,-0.00027238,-4.92e+08,-687.82,0,9.7203e+06,-150.3,11096,11634,1,11634,1,-0.00056712,-2.039e-10,0,0.00034595,-0.00015225,-2.3066e+08,-55.953,0,1.2721e+08,-33.928,11633,12614,1,12614,1,0.0008167,1.9657e-09,0,0.0010379,0.00010654,2.4129e+08,622.34,0,3.3095e+08,42.783,12613,567.13,0,567.13,0,0.00079865,1.4049e-09,0,0.00040859,0.00014939,2.6629e+08,427.27,0,1.2907e+08,73.237,567.13,1
1960,4.74,12124,1,12124,1,0.0001257,-3.2865e-10,0,0.00069896,-2.3001e-05,238.58,-67.996,0,2.3317e+08,43.52,12123,13104,1,13104,1,0.0014632,2.3745e-09,0,0.0014632,0.00022736,3.7298e+08,695.7,0,4.9288e+08,406.87,13103,12124,1,12124,1,0.0001257,-9.3234e-11,0,0.00069352,-2.3068e-05,4.3982e+07,-25.913,0,2.4085e+08,25.935,12123,11097,1,11097,1,-0.0012118,-3.2788e-09,0,2.2907e-05,-0.00027312,-4.9288e+08,-849.26,0,9.5006e+06,-73.404,11096,11634,1,11634,1,-0.00056782,-1.2667e-09,0,0.00034676,-0.00015272,-2.3094e+08,-334.28,0,1.2742e+08,-8.828,11633,12614,1,12614,1,0.00081922,6.2667e-10,0,0.0010403,0.00010667,2.4163e+08,201.99,0,3.3129e+08,63.493,12613,567.13,0,567.13,0,0.0008005,1.2633e-09,0,0.00040965,0.00014973,2.6664e+08,358.28,0,1.2924e+08,79.913,567.13,1
1960,4.75,12124,1,12124,1,0.00012661,6.9675e-10,0,0.00070058,-2.3168e-05,-203.22,221.37,0,2.3346e+08,122.92,12123,13104,1,13104,1,0.0014672,9.6451e-09,0,0.0014672,0.00022776,3.7307e+08,2837.6,0,4.9374e+08,611.86,13103,12124,1,12124,1,0.00012661,-8.4526e-12,0,0.00069509,-2.3235e-05,4.4267e+07,-2.2699,0,2.4118e+08,80.809,12123,11097,1,11097,1,-0.0012139,-4.3159e-09,0,2.2333e-05,-0.00027385,-4.9374e+08,-1146.5,0,9.2791e+06,-111.01,11096,11634,1,11634,1,-0.00056847,-6.8943e-10,0,0.00034754,-0.00015317,-2.3121e+08,-194.31,0,1.2762e+08,12.951,11633,12614,1,12614,1,0.0008217,1.7641e-09,0,0.0010426,0.0001068,2.4196e+08,531.22,0,3.3161e+08,215.87,12613,567.13,0,567.13,0,0.0008023,2.3748e-09,0,0.00041069,0.00015007,2.6697e+08,696.5,0,1.2939e+08,146.79,567.13,1
1960,4.76,12124,1,12124,1,0.00012753,2.3107e-10,0,0.00070226,-2.3336e-05,61.787,88.292,0,2.3377e+08,5.6456,12123,13104,1,13104,1,0.0014712,1.4412e-09,0,0.0014712,0.00022818,3.7319e+08,493.1,0,4.9463e+08,303.88,13103,12124,1,12124,1,0.00012753,2.2037e-10,0,0.00069671,-2.3405e-05,4.4554e+07,68.578,0,2.4152e+08,-5.0364,12123,11097,1,11097,1,-0.0012161,-1.0594e-09,0,2.1761e-05,-0.00027459,-4.9463e+08,-249.74,0,9.0589e+06,-158.94,11096,11634,1,11634,1,-0.00056917,-1.33e-10,0,0.00034835,-0.00015364,-2.3149e+08,-32.566,0,1.2783e+08,-41.419,11633,12614,1,12614,1,0.00082423,6.437e-10,0,0.0010451,0.00010693,2.423e+08,211.14,0,3.3196e+08,34.769,12613,567.13,0,567.13,0,0.00080417,5.5461e-10,0,0.00041177,0.00015042,2.6732e+08,168,0,1.2956e+08,76.261,567.13,1
1960,4.77,12124,1,12124,1,0.00012846,1.0096e-09,0,0.00070389,-2.3507e-05,700.12,313.47,0,2.3405e+08,110.15,12123,13104,1,13104,1,0.0014752,9.0337e-09,0,0.0014752,0.00022858,3.7328e+08,2653.4,0,4.955e+08,612.79,13103,12124,1,12124,1,0.00012846,4.187e-10,0,0.00069829,-2.3576e-05,4.4844e+07,122.03,0,2.4185e+08,66.672,12123,11097,1,11097,1,-0.0012182,-5.3044e-09,0,2.117e-05,-0.00027533,-4.955e+08,-1425.1,0,8.8317e+06,-175.91,11096,11634,1,11634,1,-0.00056982,-5.6712e-10,0,0.00034914,-0.00015411,-2.3175e+08,-159.06,0,1.2803e+08,-12.775,11633,12614,1,12614,1,0.00082675,2.5868e-09,0,0.0010474,0.00010705,2.4262e+08,782.69,0,3.3228e+08,230.21,12613,567.13,0,567.13,0,0.000806,2.5838e-09,0,0.00041282,0.00015075,2.6765e+08,753.35,0,1.2972e+08,164.62,567.13,1
1960,4.78,12124,1,12124,1,0.00012939,3.2575e-09,0,0.00070555,-2.3676e-05,70.505,987.43,0,2.3435e+08,66.168,12123,13104,1,13104,1,0.0014792,9.7927e-09,0,0.0014792,0.00022898,3.7338e+08,2928.2,0,4.9638e+08,546.38,13103,12124,1,12124,1,0.00012939,2.8706e-09,0,0.00069988,-2.3746e-05,4.5133e+07,834.09,0,2.4218e+08,45.933,12123,11097,1,11097,1,-0.0012204,-2.2838e-09,0,2.0585e-05,-0.00027608,-4.9638e+08,-594.79,0,8.6069e+06,-304.37,11096,11634,1,11634,1,-0.00057049,3.4265e-10,0,0.00034994,-0.00015457,-2.3203e+08,99.742,0,1.2823e+08,-57.81,11633,12614,1,12614,1,0.00082927,6.049e-09,0,0.0010498,0.00010718,2.4295e+08,1828,0,3.3261e+08,190.11,12613,567.13,0,567.13,0,0.00080784,3.1658e-09,0,0.00041388,0.0001511,2.6799e+08,972.82,0,1.2988e+08,166,567.13,1
1960,4.79,12124,1,12124,1,0.00013032,7.0048e-10,0,0.00070723,-2.3848e-05,43.063,256.07,0,2.3465e+08,14.001,12123,13104,1,13104,1,0.0014833,3.392e-09,0,0.0014833,0.00022939,3.7348e+08,1160.5,0,4.9726e+08,397.78,13103,12124,1,12124,1,0.00013032,6.4352e-10,0,0.00070151,-2.3919e-05,4.5425e+07,208.26,0,2.4251e+08,-2.89,12123,11097,1,11097,1,-0.0012226,-1.9906e-09,0,1.9989e-05,-0.00027683,-4.9726e+08,-501.05,0,8.3786e+06,-216.45,11096,11634,1,11634,1,-0.00057117,-5.2908e-10,0,0.00035074,-0.00015505,-2.323e+08,-125.42,0,1.2844e+08,-54.763,11633,12614,1,12614,1,0.00083182,1.8557e-09,0,0.0010522,0.00010731,2.4329e+08,601.72,0,3.3294e+08,66.985,12613,567.13,0,567.13,0,0.00080971,1.3654e-09,0,0.00041497,0.00015145,2.6833e+08,420.84,0,1.3005e+08,110.61,567.13,1
1960,4.8,12124,1,12124,1,0.00013127,2.1809e-09,0,0.00070887,-2.4022e-05,510.57,682.34,0,2.3494e+08,88.287,12123,13104,1,13104,1,0.0014873,1.1755e-08,0,0.0014873,0.00022979,3.7356e+08,3466.1,0,4.9813e+08,664.17,13103,12124,1,12124,1,0.00013127,1.2701e-09,0,0.00070309,-2.4093e-05,4.5719e+07,375,0,2.4284e+08,51.801,12123,11097,1,11097,1,-0.0012247,-4.039e-09,0,1.9384e-05,-0.00027758,-4.9813e+08,-1062.9,0,8.1475e+06,-300.21,11096,11634,1,11634,1,-0.00057181,-3.1932e-10,0,0.00035154,-0.00015551,-2.3256e+08,-81.108,0,1.2864e+08,-42.94,11633,12614,1,12614,1,0.00083436,4.4043e-09,0,0.0010546,0.00010743,2.4361e+08,1354.8,0,3.3325e+08,205.7,12613,567.13,0,567.13,0,0.00081154,3.227e-09,0,0.00041603,0.00015179,2.6866e+08,970.07,0,1.3021e+08,185.56,567.13,1
1960,4.81,12124,1,12124,1,0.00013222,7.8079e-10,0,0.00071055,-2.4196e-05,384.52,278.56,0,2.3524e+08,-5.8685,12123,13104,1,13104,1,0.0014913,3.3668e-09,0,0.0014913,0.0002302,3.7364e+08,1152.3,0,4.99e+08,443.5,13103,12124,1,12124,1,0.00013222,7.6015e-10,0,0.00070471,-2.4268e-05,4.6014e+07,239.94,0,2.4317e+08,-21.06,12123,11097,1,11097,1,-0.0012269,-1.5913e-09,0,1.8779e-05,-0.00027832,-4.99e+08,-361.95,0,7.9164e+06,-221.86,11096,11634,1,11634,1,-0.00057248,-3.2464e-10,0,0.00035234,-0.00015599,-2.3283e+08,-79.149,0,1.2884e+08,-82.186,11633,12614,1,12614,1,0.00083692,1.8042e-09,0,0.001057,0.00010756,2.4393e+08,579.62,0,3.3358e+08,52.899,12613,567.13,0,567.13,0,0.00081341,1.3024e-09,0,0.00041711,0.00015213,2.69e+08,406.09,0,1.3037e+08,115.19,567.13,1
1960,4.82,12124,1,12124,1,0.00013318,1.1965e-09,0,0.00071222,-2.4371e-05,285.72,390.92,0,2.3553e+08,55.453,12123,13104,1,13104,1,0.0014954,6.6046e-09,0,0.0014954,0.0002306,3.7372e+08,1958.1,0,4.9988e+08,458.51,13103,12124,1,12124,1,0.00013318,7.1376e-10,0,0.00070632,-2.4445e-05,4.631e+07,224.17,0,2.4349e+08,38.521,12123,11097,1,11097,1,-0.001229,-2.8456e-09,0,1.8168e-05,-0.00027908,-4.9988e+08,-715.78,0,7.6836e+06,-213.68,11096,11634,1,11634,1,-0.00057313,-4.1207e-10,0,0.00035315,-0.00015646,-2.331e+08,-104.14,0,1.2904e+08,-24.841,11633,12614,1,12614,1,0.0008395,2.6569e-09,0,0.0010595,0.00010768,2.4426e+08,811.09,0,3.339e+08,133.22,12613,567.13,0,567.13,0,0.00081527,2.004e-09,0,0.0004182,0.00015248,2.6933e+08,607.77,0,1.3053e+08,116.82,567.13,1
1960,4.83,12124,1,12124,1,0.00013414,2.3651e-09,0,0.00071389,-2.4548e-05,-20.014,733.6,0,2.3582e+08,54.928,12123,13104,1,13104,1,0.0014995,6.6034e-09,0,0.0014995,0.00023101,3.7379e+08,2144.8,0,5.0076e+08,492.86,13103,12124,1,12124,1,0.00013414,2.2723e-09,0,0.00070793,-2.4622e-05,4.6608e+07,713.44,0,2.4382e+08,35.89,12123,11097,1,11097,1,-0.0012312,-1.4177e-09,0,1.755e-05,-0.00027983,-5.0076e+08,-351.97,0,7.4482e+06,-216.8,11096,11634,1,11634,1,-0.00057378,6.8208e-10,0,0.00035396,-0.00015694,-2.3336e+08,185.92,0,1.2924e+08,-26.583,11633,12614,1,12614,1,0.00084207,3.9093e-09,0,0.0010619,0.0001078,2.4458e+08,1204.5,0,3.3421e+08,122.62,12613,567.13,0,567.13,0,0.00081712,2.0396e-09,0,0.00041928,0.00015282,2.6966e+08,640.47,0,1.3069e+08,121.68,567.13,1
1960,4.84,12124,1,12124,1,0.00013511,-1.0672e-09,0,0.00071556,-2.4725e-05,206.1,-258.26,0,2.361e+08,57.949,12123,13104,1,13104,1,0.0015035,2.5478e-09,0,0.0015035,0.0002314,3.7387e+08,762.42,0,5.0162e+08,542.57,13103,12124,1,12124,1,0.00013511,-6.8368e-10,0,0.00070954,-2.4801e-05,4.6908e+07,-177.16,0,2.4414e+08,39.406,12123,11097,1,11097,1,-0.0012333,-6.1821e-09,0,1.6924e-05,-0.00028058,-5.0162e+08,-1614.8,0,7.2107e+06,-163.23,11096,11634,1,11634,1,-0.00057442,-2.6202e-09,0,0.00035477,-0.00015741,-2.3363e+08,-703.61,0,1.2944e+08,-23.297,11633,12614,1,12614,1,0.00084465,7.4133e-10,0,0.0010643,0.00010793,2.449e+08,245.15,0,3.3453e+08,103.42,12613,567.13,0,567.13,0,0.00081898,2.2195e-09,0,0.00042037,0.00015317,2.6999e+08,622.03,0,1.3085e+08,120.99,567.13,1
1960,4.85,12124,1,12124,1,0.00013608,2.4082e-09,0,0.00071723,-2.4903e-05,246.61,729.06,0,2.3638e+08,73.648,12123,13104,1,13104,1,0.0015076,1.0734e-08,0,0.0015076,0.00023181,3.7392e+08,3141.3,0,5.0249e+08,541.94,13103,12124,1,12124,1,0.00013608,1.5235e-09,0,0.00071114,-2.498e-05,4.7207e+07,434.09,0,2.4446e+08,52.96,12123,11097,1,11097,1,-0.0012354,-2.9555e-09,0,1.63e-05,-0.00028134,-5.0249e+08,-754.76,0,6.974e+06,-229.01,11096,11634,1,11634,1,-0.00057505,1.6456e-10,0,0.00035557,-0.00015789,-2.3388e+08,46.431,0,1.2964e+08,-14.782,11633,12614,1,12614,1,0.00084722,4.5599e-09,0,0.0010667,0.00010805,2.4522e+08,1364.9,0,3.3483e+08,152.15,12613,567.13,0,567.13,0,0.00082083,2.9286e-09,0,0.00042145,0.00015351,2.7031e+08,881.02,0,1.3101e+08,134.36,567.13,1
1960,4.86,12124,1,12124,1,0.00013706,2.3075e-09,0,0.0007189,-2.5082e-05,199.28,720.46,0,2.3667e+08,57.796,12123,13104,1,13104,1,0.0015117,9.1331e-09,0,0.0015117,0.00023221,3.7398e+08,2712.1,0,5.0336e+08,545.63,13103,12124,1,12124,1,0.00013706,1.7784e-09,0,0.00071276,-2.5159e-05,4.7507e+07,513.41,0,2.4478e+08,43.782,12123,11097,1,11097,1,-0.0012376,-2.5746e-09,0,1.5666e-05,-0.0002821,-5.0336e+08,-635.19,0,6.7339e+06,-268,11096,11634,1,11634,1,-0.00057569,1.8473e-10,0,0.00035637,-0.00015837,-2.3414e+08,52.771,0,1.2984e+08,-33.157,11633,12614,1,12614,1,0.00084981,4.4e-09,0,0.0010691,0.00010817,2.4553e+08,1336.8,0,3.3514e+08,141.5,12613,567.13,0,567.13,0,0.00082269,2.6582e-09,0,0.00042254,0.00015386,2.7064e+08,819.18,0,1.3117e+08,136.67,567.13,1
1960,4.87,12124,1,12124,1,0.00013804,2.2616e-09,0,0.00072057,-2.5262e-05,227.63,723.38,0,2.3695e+08,60.412,12123,13104,1,13104,1,0.0015158,1.0331e-08,0,0.0015158,0.00023261,3.7403e+08,3081.2,0,5.0422e+08,619.08,13103,12124,1,12124,1,0.00013804,1.5483e-09,0,0.00071437,-2.534e-05,4.781e+07,499.3,0,2.451e+08,34.106,12123,11097,1,11097,1,-0.0012397,-2.6039e-09,0,1.5027e-05,-0.00028286,-5.0422e+08,-633.56,0,6.4921e+06,-242.18,11096,11634,1,11634,1,-0.00057632,-3.9577e-11,0,0.00035717,-0.00015885,-2.344e+08,-9.9807,0,1.3004e+08,-32.327,11633,12614,1,12614,1,0.00085241,4.3397e-09,0,0.0010715,0.00010829,2.4585e+08,1343.4,0,3.3544e+08,143.7,12613,567.13,0,567.13,0,0.00082455,2.8219e-09,0,0.00042363,0.00015421,2.7096e+08,872.31,0,1.3133e+08,138.18,567.13,1
1960,4.88,12124,1,12124,1,0.00013903,1.5013e-09,0,0.00072225,-2.5444e-05,525.2,507.09,0,2.3723e+08,17.608,12123,13104,1,13104,1,0.0015199,5.8935e-09,0,0.0015199,0.00023301,3.7408e+08,2016.3,0,5.0509e+08,632.01,13103,12124,1,12124,1,0.00013903,1.4108e-09,0,0.00071599,-2.5523e-05,4.8114e+07,424.73,0,2.4541e+08,-4.255,12123,11097,1,11097,1,-0.0012418,-2.6245e-09,0,1.4382e-05,-0.00028362,-5.0509e+08,-629.47,0,6.2486e+06,-349.28,11096,11634,1,11634,1,-0.00057694,-4.1477e-10,0,0.00035798,-0.00015933,-2.3465e+08,-103.99,0,1.3023e+08,-67.792,11633,12614,1,12614,1,0.00085501,3.1215e-09,0,0.001074,0.00010841,2.4616e+08,988.65,0,3.3574e+08,88.382,12613,567.13,0,567.13,0,0.00082642,2.0868e-09,0,0.00042473,0.00015455,2.7129e+08,650.2,0,1.3148e+08,151.35,567.13,1
1960,4.89,12124,1,12124,1,0.00014003,2.4238e-09,0,0.00072392,-2.5626e-05,39.393,774.78,0,2.3751e+08,89.025,12123,13104,1,13104,1,0.001524,1.2209e-08,0,0.001524,0.00023341,3.7412e+08,3616.4,0,5.0595e+08,650.71,13103,12124,1,12124,1,0.00014003,1.318e-09,0,0.0007176,-2.5705e-05,4.8418e+07,399.81,0,2.4572e+08,89.808,12123,11097,1,11097,1,-0.0012439,-5.1382e-09,0,1.3733e-05,-0.00028438,-5.0595e+08,-1304.7,0,6.0039e+06,-250.63,11096,11634,1,11634,1,-0.00057756,-5.317e-10,0,0.00035879,-0.00015981,-2.349e+08,-133.89,0,1.3043e+08,-13.369,11633,12614,1,12614,1,0.00085762,5.2931e-09,0,0.0010764,0.00010852,2.4647e+08,1620.8,0,3.3604e+08,178.97,12613,567.13,0,567.13,0,0.00082828,3.7926e-09,0,0.00042582,0.0001549,2.716e+08,1148,0,1.3164e+08,139.64,567.13,1
1960,4.9,12124,1,12124,1,0.00014102,2.1523e-09,0,0.00072558,-2.5808e-05,667.36,699.56,0,2.3778e+08,66.185,12123,13104,1,13104,1,0.0015281,1.5789e-08,0,0.0015281,0.0002338,3.7416e+08,4697.9,0,5.068e+08,792.78,13103,12124,1,12124,1,0.00014102,5.9713e-10,0,0.0007192,-2.5889e-05,4.8724e+07,171.25,0,2.4603e+08,53.316,12123,11097,1,11097,1,-0.001246,-7.1522e-09,0,1.3077e-05,-0.00028513,-5.068e+08,-1900.8,0,5.7568e+06,-429.14,11096,11634,1,11634,1,-0.00057816,-1.3008e-09,0,0.00035958,-0.00016029,-2.3514e+08,-320.41,0,1.3062e+08,-71.041,11633,12614,1,12614,1,0.00086022,5.3823e-09,0,0.0010788,0.00010864,2.4678e+08,1641.1,0,3.3632e+08,193.72,12613,567.13,0,567.13,0,0.00083012,4.6845e-09,0,0.00042691,0.00015524,2.7192e+08,1416.1,0,1.3179e+08,197.36,567.13,1
1960,4.91,12124,1,12124,1,0.00014203,2.4108e-09,0,0.00072727,-2.5992e-05,1213.5,782.67,0,2.3806e+08,-0.10172,12123,13104,1,13104,1,0.0015323,1.418e-08,0,0.0015323,0.0002342,3.742e+08,4263.2,0,5.0767e+08,530.06,13103,12124,1,12124,1,0.00014203,1.0292e-09,0,0.00072083,-2.6074e-05,4.9031e+07,300.58,0,2.4635e+08,-10.946,12123,11097,1,11097,1,-0.0012482,-3.8191e-09,0,1.242e-05,-0.0002859,-5.0767e+08,-1008.3,0,5.5097e+06,-450.15,11096,11634,1,11634,1,-0.00057878,-6.5927e-10,0,0.0003604,-0.00016078,-2.354e+08,-157.45,0,1.3081e+08,-114,11633,12614,1,12614,1,0.00086285,4.8578e-09,0,0.0010812,0.00010876,2.4709e+08,1525,0,3.3663e+08,126.96,12613,567.13,0,567.13,0,0.000832,3.8867e-09,0,0.00042802,0.00015559,2.7224e+08,1208.6,0,1.3195e+08,172.35,567.13,1
1960,4.92,12124,1,12124,1,0.00014304,-2.234e-09,0,0.00072897,-2.6178e-05,9.347,-566.57,0,2.3834e+08,16.233,12123,13104,1,13104,1,0.0015364,3.5284e-09,0,0.0015364,0.0002346,3.7425e+08,1207.6,0,5.0852e+08,644.7,13103,12124,1,12124,1,0.00014304,-2.0776e-09,0,0.00072245,-2.6261e-05,4.9341e+07,-569.65,0,2.4666e+08,-0.6503,12123,11097,1,11097,1,-0.0012503,-8.9428e-09,0,1.1755e-05,-0.00028666,-5.0852e+08,-2477.3,0,5.2598e+06,-245.87,11096,11634,1,11634,1,-0.00057941,-4.8667e-09,0,0.00036122,-0.00016127,-2.3565e+08,-1260.3,0,1.3101e+08,-74.879,11633,12614,1,12614,1,0.00086549,7.5059e-10,0,0.0010837,0.00010887,2.474e+08,209.67,0,3.3693e+08,73.074,12613,567.13,0,567.13,0,0.00083389,3.3737e-09,0,0.00042914,0.00015594,2.7256e+08,960.51,0,1.3211e+08,146.27,567.13,1
1960,4.93,12124,1,12124,1,0.00014407,1.9615e-09,0,0.00073067,-2.6366e-05,-362.79,600.09,0,2.3862e+08,74.714,12123,13104,1,13104,1,0.0015406,9.3936e-09,0,0.0015406,0.000235,3.7426e+08,2788,0,5.0939e+08,606.09,13103,12124,1,12124,1,0.00014407,9.2184e-10,0,0.00072409,-2.6449e-05,4.9652e+07,257.28,0,2.4697e+08,60.165,12123,11097,1,11097,1,-0.0012524,-2.5645e-09,0,1.1089e-05,-0.00028744,-5.0939e+08,-689.66,0,5.0099e+06,-322.74,11096,11634,1,11634,1,-0.00058001,-5.9175e-11,0,0.00036204,-0.00016176,-2.359e+08,-17.239,0,1.312e+08,-32.021,11633,12614,1,12614,1,0.00086815,3.8943e-09,0,0.0010861,0.00010899,2.4771e+08,1162.9,0,3.3721e+08,178.93,12613,567.13,0,567.13,0,0.00083577,2.712e-09,0,0.00043026,0.00015629,2.7288e+08,842.68,0,1.3227e+08,163.02,567.13,1
1960,4.94,12124,1,12124,1,0.0001451,-9.6539e-10,0,0.00073236,-2.6555e-05,259.86,-236.49,0,2.3889e+08,44.262,12123,13104,1,13104,1,0.0015447,4.9935e-09,0,0.0015447,0.00023539,3.7429e+08,1526.3,0,5.1024e+08,657.9,13103,12124,1,12124,1,0.0001451,-5.1714e-10,0,0.00072571,-2.664e-05,4.9966e+07,-133.69,0,2.4728e+08,36.776,12123,11097,1,11097,1,-0.0012545,-8.3436e-09,0,1.0404e-05,-0.0002882,-5.1024e+08,-2399.9,0,4.753e+06,-285.57,11096,11634,1,11634,1,-0.00058061,-3.1754e-09,0,0.00036285,-0.00016225,-2.3614e+08,-891.13,0,1.314e+08,-61.551,11633,12614,1,12614,1,0.0008708,1.427e-09,0,0.0010886,0.0001091,2.4801e+08,423.82,0,3.375e+08,115.11,12613,567.13,0,567.13,0,0.00083765,3.3742e-09,0,0.00043138,0.00015664,2.7319e+08,999,0,1.3243e+08,159.48,567.13,1
1960,4.95,12124,1,12124,1,0.00014613,1.0514e-09,0,0.00073407,-2.6744e-05,-324.03,314.81,0,2.3916e+08,69.958,12123,13104,1,13104,1,0.0015489,6.5197e-09,0,0.0015489,0.00023579,3.743e+08,1896,0,5.1111e+08,771.38,13103,12124,1,12124,1,0.00014613,6.2855e-10,0,0.00072735,-2.683e-05,5.028e+07,165.43,0,2.4759e+08,42.407,12123,11097,1,11097,1,-0.0012566,-2.1635e-09,0,9.7243e-06,-0.00028898,-5.1111e+08,-575.92,0,4.4986e+06,-295.11,11096,11634,1,11634,1,-0.00058121,-3.9615e-10,0,0.00036367,-0.00016274,-2.3638e+08,-112.12,0,1.3159e+08,-42.368,11633,12614,1,12614,1,0.00087348,2.0915e-09,0,0.001091,0.00010922,2.4831e+08,637.63,0,3.3778e+08,180.11,12613,567.13,0,567.13,0,0.00083954,1.8351e-09,0,0.0004325,0.00015699,2.735e+08,564.39,0,1.3258e+08,179.69,567.13,1
1960,4.96,12124,1,12124,1,0.00014717,-1.9089e-10,0,0.00073575,-2.6935e-05,-812.63,-28.489,0,2.3943e+08,104.45,12123,13104,1,13104,1,0.0015531,8.444e-09,0,0.0015531,0.00023618,3.7431e+08,2446.6,0,5.1195e+08,757.92,13103,12124,1,12124,1,0.00014717,-1.9489e-10,0,0.00072897,-2.7021e-05,5.0594e+07,-48.918,0,2.4789e+08,95.322,12123,11097,1,11097,1,-0.0012587,-6.9147e-09,0,9.0309e-06,-0.00028975,-5.1195e+08,-1963.5,0,4.2394e+06,-830.14,11096,11634,1,11634,1,-0.00058179,-2.5367e-09,0,0.00036448,-0.00016323,-2.3662e+08,-721.14,0,1.3178e+08,-7.3473,11633,12614,1,12614,1,0.00087614,1.8865e-09,0,0.0010934,0.00010933,2.4861e+08,565.85,0,3.3806e+08,215.49,12613,567.13,0,567.13,0,0.00084141,3.3815e-09,0,0.00043362,0.00015734,2.7381e+08,999.46,0,1.3274e+08,195.89,567.13,1
1960,4.97,12124,1,12124,1,0.00014822,1.6409e-10,0,0.00073745,-2.7126e-05,39.829,62.861,0,2.3969e+08,16.906,12123,13104,1,13104,1,0.0015572,4.1906e-09,0,0.0015572,0.00023657,3.7431e+08,1339.5,0,5.128e+08,807.56,13103,12124,1,12124,1,0.00014822,1.0708e-10,0,0.00073059,-2.7214e-05,5.0911e+07,25.725,0,2.4819e+08,-2.5665,12123,11097,1,11097,1,-0.0012608,-4.7776e-09,0,8.336e-06,-0.00029052,-5.128e+08,-1263.5,0,3.9798e+06,-665.18,11096,11634,1,11634,1,-0.00058237,-8.6599e-10,0,0.00036529,-0.00016372,-2.3686e+08,-248.03,0,1.3196e+08,-79.939,11633,12614,1,12614,1,0.00087881,1.3709e-09,0,0.0010959,0.00010944,2.4891e+08,422.32,0,3.3833e+08,81.503,12613,567.13,0,567.13,0,0.00084329,1.7863e-09,0,0.00043475,0.00015769,2.7412e+08,546.6,0,1.3289e+08,193.44,567.13,1
1960,4.98,12124,1,12124,1,0.00014927,3.5723e-09,0,0.00073917,-2.7319e-05,-74.746,1046.7,0,2.3996e+08,30.902,12123,13104,1,13104,1,0.0015615,7.913e-09,0,0.0015615,0.00023698,3.7433e+08,2529.3,0,5.1368e+08,865.49,13103,12124,1,12124,1,0.00014927,4.0055e-09,0,0.00073224,-2.7407e-05,5.1229e+07,1165.1,0,2.4849e+08,9.0806,12123,11097,1,11097,1,-0.0012629,-1.2244e-09,0,7.6384e-06,-0.00029131,-5.1368e+08,-383.25,0,3.7197e+06,-1696,11096,11634,1,11634,1,-0.00058297,1.7863e-09,0,0.00036612,-0.00016422,-2.371e+08,466.5,0,1.3216e+08,-81.264,11633,12614,1,12614,1,0.00088151,5.3974e-09,0,0.0010984,0.00010955,2.4921e+08,1650.9,0,3.3862e+08,139.18,12613,567.13,0,567.13,0,0.0008452,2.3197e-09,0,0.00043589,0.00015804,2.7443e+08,693.33,0,1.3305e+08,232.93,567.13,1
1960,4.99,12124,1,12124,1,0.00015033,1.6553e-09,0,0.00074085,-2.7514e-05,730.39,531.42,0,2.4022e+08,64.273,12123,13104,1,13104,1,0.0015657,1.2862e-08,0,0.0015657,0.00023737,3.7431e+08,3692.3,0,5.1452e+08,763.87,13103,12124,1,12124,1,0.00015033,7.8353e-10,0,0.00073387,-2.7602e-05,5.1549e+07,249.64,0,2.4879e+08,36.112,12123,11097,1,11097,1,-0.001265,-6.8251e-09,0,6.9183e-06,-0.00029209,-5.1452e+08,-1681.4,0,3.4511e+06,-358.36,11096,11634,1,11634,1,-0.00058353,-8.597e-10,0,0.00036693,-0.00016472,-2.3733e+08,-204.87,0,1.3234e+08,-50.533,11633,12614,1,12614,1,0.0008842,3.8709e-09,0,0.0011008,0.00010966,2.495e+08,1180.3,0,3.3888e+08,160.73,12613,567.13,0,567.13,0,0.00084706,3.5824e-09,0,0.00043702,0.00015839,2.7473e+08,1033.4,0,1.332e+08,185.53,567.13,1
1960,5,12124,1,12124,1,0.00015139,1.1465e-09,0,0.00074257,-2.7708e-05,418.4,395.33,0,2.4049e+08,44.641,12123,13104,1,13104,1,0.0015699,1.1722e-08,0,0.0015699,0.00023777,3.7431e+08,3397.7,0,5.1538e+08,747.18,13103,12124,1,12124,1,0.00015139,4.1327e-10,0,0.00073552,-2.7798e-05,5.187e+07,130.7,0,2.4909e+08,11.127,12123,11097,1,11097,1,-0.0012671,-5.3795e-09,0,6.2062e-06,-0.00029287,-5.1538e+08,-1315.7,0,3.1858e+06,-361.04,11096,11634,1,11634,1,-0.00058411,-1.0957e-09,0,0.00036775,-0.00016522,-2.3756e+08,-255.33,0,1.3253e+08,-76.265,11633,12614,1,12614,1,0.00088691,2.8285e-09,0,0.0011033,0.00010977,2.498e+08,871.98,0,3.3915e+08,141.04,12613,567.13,0,567.13,0,0.00084896,3.0424e-09,0,0.00043816,0.00015874,2.7504e+08,894.24,0,1.3335e+08,190.87,567.13,1
1960,5.01,12124,1,12124,1,0.00015247,1.1804e-09,0,0.00074429,-2.7905e-05,217.16,406.33,0,2.4075e+08,32.291,12123,13104,1,13104,1,0.0015742,5.2418e-09,0,0.0015742,0.00023816,3.743e+08,1552.9,0,5.1623e+08,795.67,13103,12124,1,12124,1,0.00015247,1.196e-09,0,0.00073717,-2.7996e-05,5.2193e+07,365.92,0,2.4939e+08,-4.8255,12123,11097,1,11097,1,-0.0012692,-2.8265e-09,0,5.4856e-06,-0.00029366,-5.1623e+08,-650.58,0,2.9176e+06,-302.28,11096,11634,1,11634,1,-0.00058469,-2.8729e-10,0,0.00036857,-0.00016572,-2.378e+08,-63.455,0,1.3272e+08,-65.888,11633,12614,1,12614,1,0.00088964,2.4386e-09,0,0.0011057,0.00010988,2.5009e+08,790.68,0,3.3942e+08,86.093,12613,567.13,0,567.13,0,0.00085088,1.7137e-09,0,0.00043931,0.0001591,2.7535e+08,526.15,0,1.3351e+08,187.37,567.13,1
1960,5.02,12124,1,12124,1,0.00015355,7.0838e-10,0,0.000746,-2.8102e-05,-10.127,263.75,0,2.4101e+08,90.937,12123,13104,1,13104,1,0.0015784,7.6522e-09,0,0.0015784,0.00023855,3.7428e+08,2199.2,0,5.1708e+08,820.18,13103,12124,1,12124,1,0.00015355,4.2129e-10,0,0.00073881,-2.8195e-05,5.2517e+07,134.54,0,2.4968e+08,46.931,12123,11097,1,11097,1,-0.0012713,-6.2387e-09,0,4.7556e-06,-0.00029444,-5.1708e+08,-1510.8,0,2.646e+06,-265.09,11096,11634,1,11634,1,-0.00058525,-1.0163e-09,0,0.00036939,-0.00016622,-2.3803e+08,-237.42,0,1.329e+08,-24.951,11633,12614,1,12614,1,0.00089235,2.2899e-09,0,0.0011082,0.00010999,2.5038e+08,709.62,0,3.3968e+08,170.15,12613,567.13,0,567.13,0,0.00085276,2.5007e-09,0,0.00044045,0.00015945,2.7564e+08,720.4,0,1.3366e+08,185.89,567.13,1
1960,5.03,12124,1,12124,1,0.00015463,2.6269e-09,0,0.00074771,-2.83e-05,-77.489,812.08,0,2.4126e+08,63.2,12123,13104,1,13104,1,0.0015827,1.0733e-08,0,0.0015827,0.00023895,3.7426e+08,3081.8,0,5.1793e+08,944.51,13103,12124,1,12124,1,0.00015463,2.4769e-09,0,0.00074045,-2.8394e-05,5.2842e+07,719.51,0,2.4997e+08,33.393,12123,11097,1,11097,1,-0.0012734,-4.3509e-09,0,4.0249e-06,-0.00029523,-5.1793e+08,-1013.3,0,2.3744e+06,-345.95,11096,11634,1,11634,1,-0.00058581,3.5752e-10,0,0.00037021,-0.00016673,-2.3825e+08,92.128,0,1.3309e+08,-72.23,11633,12614,1,12614,1,0.00089508,4.7368e-09,0,0.0011107,0.00011009,2.5067e+08,1451.9,0,3.3994e+08,137.61,12613,567.13,0,567.13,0,0.00085466,2.9336e-09,0,0.0004416,0.0001598,2.7594e+08,876.61,0,1.3381e+08,212.43,567.13,1
1960,5.04,12124,1,12124,1,0.00015573,6.3688e-10,0,0.00074943,-2.85e-05,-102.99,267.48,0,2.4152e+08,100.69,12123,13104,1,13104,1,0.001587,5.9166e-09,0,0.001587,0.00023934,3.7424e+08,1845.4,0,5.1878e+08,912.76,13103,12124,1,12124,1,0.00015573,7.6858e-10,0,0.00074211,-2.8595e-05,5.3169e+07,250.61,0,2.5027e+08,57.78,12123,11097,1,11097,1,-0.0012755,-5.8947e-09,0,3.2837e-06,-0.00029602,-5.1878e+08,-1410.6,0,2.099e+06,-236.64,11096,11634,1,11634,1,-0.00058637,-1.347e-09,0,0.00037104,-0.00016724,-2.3848e+08,-298.61,0,1.3328e+08,-13.822,11633,12614,1,12614,1,0.00089783,2.4722e-09,0,0.0011131,0.0001102,2.5096e+08,785.52,0,3.4021e+08,176.28,12613,567.13,0,567.13,0,0.00085657,2.5074e-09,0,0.00044276,0.00016016,2.7624e+08,725.58,0,1.3397e+08,186.43,567.13,1
1960,5.05,12124,1,12124,1,0.00015683,-4.0727e-10,0,0.00075116,-2.8702e-05,-244.06,-50.602,0,2.4178e+08,88.118,12123,13104,1,13104,1,0.0015913,2.3743e-09,0,0.0015913,0.00023973,3.742e+08,812.96,0,5.1963e+08,895.91,13103,12124,1,12124,1,0.00015683,-7.7082e-11,0,0.00074377,-2.8798e-05,5.3499e+07,-25.655,0,2.5056e+08,24.602,12123,11097,1,11097,1,-0.0012776,-5.8761e-09,0,2.5379e-06,-0.00029681,-5.1963e+08,-1404.9,0,1.8221e+06,-183.58,11096,11634,1,11634,1,-0.00058692,-1.7423e-09,0,0.00037187,-0.00016774,-2.3871e+08,-419.7,0,1.3346e+08,-24.958,11633,12614,1,12614,1,0.00090059,8.789e-10,0,0.0011156,0.00011031,2.5125e+08,287.82,0,3.4046e+08,142.8,12613,567.13,0,567.13,0,0.00085849,1.5936e-09,0,0.00044393,0.00016051,2.7654e+08,428.27,0,1.3412e+08,196.35,567.13,1
1960,5.06,12124,1,12124,1,0.00015794,1.6535e-09,0,0.00075288,-2.8905e-05,143.26,523.68,0,2.4203e+08,122.5,12123,13104,1,13104,1,0.0015956,9.785e-09,0,0.0015956,0.00024012,3.7416e+08,2703.2,0,5.2047e+08,960.45,13103,12124,1,12124,1,0.00015794,1.0869e-09,0,0.00074541,-2.9002e-05,5.3829e+07,335.93,0,2.5084e+08,69.304,12123,11097,1,11097,1,-0.0012796,-6.582e-09,0,1.7849e-06,-0.00029761,-5.2047e+08,-1587.8,0,1.5428e+06,-288.75,11096,11634,1,11634,1,-0.00058746,-4.3897e-10,0,0.00037269,-0.00016825,-2.3893e+08,-104.93,0,1.3364e+08,-42.957,11633,12614,1,12614,1,0.00090334,3.5911e-09,0,0.0011181,0.00011041,2.5153e+08,1100.9,0,3.4071e+08,259.53,12613,567.13,0,567.13,0,0.00086038,3.0119e-09,0,0.00044509,0.00016086,2.7683e+08,860.21,0,1.3427e+08,226.3,567.13,1
1960,5.07,12124,1,12124,1,0.00015905,1.5199e-09,0,0.0007546,-2.9108e-05,-413.14,494.43,0,2.4228e+08,131.98,12123,13104,1,13104,1,0.0015999,1.1044e-08,0,0.0015999,0.00024051,3.7412e+08,3120.8,0,5.2132e+08,1107.6,13103,12124,1,12124,1,0.00015904,8.3324e-10,0,0.00074706,-2.9206e-05,5.4159e+07,260.35,0,2.5113e+08,74.54,12123,11097,1,11097,1,-0.0012817,-6.2715e-09,0,1.0287e-06,-0.0002984,-5.2132e+08,-1507.6,0,1.2624e+06,-295.06,11096,11634,1,11634,1,-0.000588,-7.9169e-10,0,0.00037352,-0.00016876,-2.3915e+08,-181.31,0,1.3382e+08,-45.402,11633,12614,1,12614,1,0.0009061,3.3658e-09,0,0.0011206,0.00011051,2.5181e+08,1037.9,0,3.4095e+08,279.13,12613,567.13,0,567.13,0,0.00086228,3.1269e-09,0,0.00044625,0.00016122,2.7712e+08,899.8,0,1.3442e+08,247.09,567.13,1
1960,5.08,12124,1,12124,1,0.00016016,8.3201e-10,0,0.00075633,-2.9312e-05,-196.3,305.33,0,2.4253e+08,111.34,12123,13104,1,13104,1,0.0016042,4.9812e-09,0,0.0016042,0.0002409,3.7408e+08,1311,0,5.2216e+08,1117.3,13103,12124,1,12124,1,0.00016016,1.0154e-09,0,0.00074872,-2.9412e-05,5.4491e+07,308.85,0,2.5142e+08,32.902,12123,11097,1,11097,1,-0.0012838,-4.5694e-09,0,2.6837e-07,-0.0002992,-5.2216e+08,-1062.1,0,9.805e+05,-228.26,11096,11634,1,11634,1,-0.00058855,-6.158e-10,0,0.00037435,-0.00016927,-2.3937e+08,-137.34,0,1.3401e+08,-30.772,11633,12614,1,12614,1,0.00090888,2.2268e-09,0,0.0011231,0.00011062,2.5209e+08,715.55,0,3.4121e+08,184.7,12613,567.13,0,567.13,0,0.00086421,1.7569e-09,0,0.00044742,0.00016157,2.7742e+08,510.06,0,1.3458e+08,243.31,567.13,1
1960,5.09,12124,1,12124,1,0.00016129,2.4265e-09,0,0.00075809,-2.9518e-05,174.72,746.67,0,2.4277e+08,92.09,12123,13104,1,13104,1,0.0016085,8.0516e-09,0,0.0016085,0.00024129,3.7402e+08,2273.6,0,5.23e+08,1155.1,13103,12124,1,12124,1,0.00016129,2.8083e-09,0,0.00075035,-2.9619e-05,5.4825e+07,807.61,0,2.5169e+08,40.345,12123,11097,1,11097,1,-0.0012859,-4.6763e-09,0,4.9189e-07,-0.0003,-5.23e+08,-1065,0,6.9409e+05,-361.65,11096,11634,1,11634,1,-0.00058907,4.9153e-10,0,0.00037518,-0.00016979,-2.3958e+08,117.59,0,1.3418e+08,-81.061,11633,12614,1,12614,1,0.00091165,4.4419e-09,0,0.0011255,0.00011072,2.5236e+08,1371.9,0,3.4144e+08,183.93,12613,567.13,0,567.13,0,0.00086611,2.4497e-09,0,0.00044853,0.00016193,2.7771e+08,725.81,0,1.3473e+08,274.78,567.13,1
1960,5.1,12124,1,12124,1,0.00016242,2.9014e-09,0,0.00075988,-2.9725e-05,58.11,912.07,0,2.4302e+08,122.06,12123,13104,1,13104,1,0.0016128,1.018e-08,0,0.0016128,0.00024168,3.7397e+08,2912.5,0,5.2385e+08,1252.5,13103,12124,1,12124,1,0.00016242,3.0696e-09,0,0.00075201,-2.9827e-05,5.516e+07,912.2,0,2.5198e+08,60.625,12123,11097,1,11097,1,-0.001288,-6.0534e-09,0,1.2612e-06,-0.00030081,-5.2385e+08,-1388,0,4.0655e+05,-367.09,11096,11634,1,11634,1,-0.0005896,7.3027e-11,0,0.00037602,-0.0001703,-2.3979e+08,22.44,0,1.3436e+08,-84.454,11633,12614,1,12614,1,0.00091444,5.591e-09,0,0.001128,0.00011082,2.5264e+08,1750.3,0,3.4169e+08,275.03,12613,567.13,0,567.13,0,0.00086802,3.3507e-09,0,0.00044962,0.00016228,2.7799e+08,991.18,0,1.3488e+08,294.79,567.13,1
1960,5.11,12124,1,12124,1,0.00016356,1.8025e-09,0,0.00076167,-2.9934e-05,33.402,623.91,0,2.4326e+08,126.12,12123,13104,1,13104,1,0.0016172,8.7094e-09,0,0.0016172,0.00024207,3.739e+08,2457.2,0,5.2468e+08,1257.7,13103,12124,1,12124,1,0.00016356,2.0546e-09,0,0.00075367,-3.0037e-05,5.5497e+07,642.34,0,2.5226e+08,47.972,12123,11097,1,11097,1,-0.00129,-6.1142e-09,0,2.0408e-06,-0.00030161,-5.2468e+08,-1398.4,0,1.1548e+05,-188.29,11096,11634,1,11634,1,-0.00059012,-7.9587e-10,0,0.00037685,-0.00017082,-2.4001e+08,-178.83,0,1.3454e+08,-30.468,11633,12614,1,12614,1,0.00091724,4.1089e-09,0,0.0011305,0.00011092,2.5292e+08,1316.5,0,3.4192e+08,219.52,12613,567.13,0,567.13,0,0.00086994,2.961e-09,0,0.00045071,0.00016264,2.7828e+08,868.05,0,1.3503e+08,236.2,567.13,1
1960,5.12,12124,1,12124,1,0.00016471,7.3527e-11,0,0.00076347,-3.0144e-05,-50.836,125.02,0,2.4352e+08,141.81,12123,13104,1,13104,1,0.0016215,3.8862e-09,0,0.0016215,0.00024246,3.7384e+08,1329.9,0,5.2552e+08,1194.1,13103,12124,1,12124,1,0.0001647,5.0692e-10,0,0.00075534,-3.0248e-05,5.5836e+07,160.2,0,2.5254e+08,46.022,12123,11097,1,11097,1,-0.0012921,-9.0316e-09,0,2.8306e-06,-0.00030241,-5.2552e+08,-2120.9,0,1.6571e+05,-167.42,11096,11634,1,11634,1,-0.00059064,-1.8709e-09,0,0.00037769,-0.00017134,-2.4022e+08,-404.42,0,1.3472e+08,-27.276,11633,12614,1,12614,1,0.00092006,2.1614e-09,0,0.001133,0.00011102,2.5319e+08,699.1,0,3.4216e+08,237.12,12613,567.13,0,567.13,0,0.00087187,2.5126e-09,0,0.0004518,0.000163,2.7857e+08,686.96,0,1.3516e+08,252.6,567.13,1
1960,5.13,12124,1,12124,1,0.00016587,3.078e-10,0,0.00076528,-3.0355e-05,-204.97,172.43,0,2.4379e+08,164.86,12123,13104,1,13104,1,0.0016259,4.6853e-09,0,0.0016259,0.00024285,3.7377e+08,1604.1,0,5.2636e+08,1234.3,13103,12124,1,12124,1,0.00016586,7.8749e-10,0,0.00075702,-3.0461e-05,5.6177e+07,243.23,0,2.5282e+08,65.386,12123,11097,1,11097,1,-0.0012941,-6.4178e-09,0,3.6317e-06,-0.00030322,-5.2636e+08,-1469.1,0,4.615e+05,-75.2,11096,11634,1,11634,1,-0.00059116,-1.3162e-09,0,0.00037852,-0.00017186,-2.4043e+08,-289.65,0,1.349e+08,17.568,11633,12614,1,12614,1,0.0009229,2.0133e-09,0,0.0011356,0.00011112,2.5346e+08,666.11,0,3.424e+08,225.38,12613,567.13,0,567.13,0,0.00087381,2.1269e-09,0,0.0004529,0.00016336,2.7886e+08,586.9,0,1.3527e+08,235.89,567.13,1
1960,5.14,12124,1,12124,1,0.00016703,2.537e-09,0,0.00076707,-3.0568e-05,176.66,787.24,0,2.4404e+08,161.49,12123,13104,1,13104,1,0.0016303,1.2648e-08,0,0.0016303,0.00024324,3.7369e+08,3394.3,0,5.2721e+08,1317,13103,12124,1,12124,1,0.00016703,2.5881e-09,0,0.00075869,-3.0675e-05,5.6519e+07,764.72,0,2.5309e+08,66.829,12123,11097,1,11097,1,-0.0012962,-6.6788e-09,0,4.4419e-06,-0.00030404,-5.2721e+08,-1518.8,0,7.6038e+05,-472.47,11096,11634,1,11634,1,-0.00059166,4.9518e-11,0,0.00037935,-0.00017238,-2.4063e+08,12.696,0,1.3508e+08,-30.761,11633,12614,1,12614,1,0.00092573,4.5801e-09,0,0.0011381,0.00011121,2.5373e+08,1419.3,0,3.4262e+08,301.03,12613,567.13,0,567.13,0,0.00087573,3.2595e-09,0,0.000454,0.00016372,2.7913e+08,922.97,0,1.3538e+08,284.52,567.13,1
1960,5.15,12124,1,12124,1,0.0001682,-1.5558e-09,0,0.00076888,-3.0782e-05,139.58,-350.22,0,2.443e+08,163.53,12123,13104,1,13104,1,0.0016346,4.0615e-09,0,0.0016346,0.00024362,3.7362e+08,1390.6,0,5.2803e+08,1266.5,13103,12124,1,12124,1,0.0001682,-6.3136e-10,0,0.00076036,-3.089e-05,5.6863e+07,-185.55,0,2.5336e+08,74.804,12123,11097,1,11097,1,-0.0012982,-1.0173e-08,0,5.2482e-06,-0.00030484,-5.2803e+08,-2416.1,0,1.0577e+06,-584.35,11096,11634,1,11634,1,-0.00059217,-3.878e-09,0,0.00038019,-0.00017291,-2.4084e+08,-952.57,0,1.3525e+08,3.8325,11633,12614,1,12614,1,0.00092856,7.9851e-10,0,0.0011406,0.00011131,2.5399e+08,268.39,0,3.4285e+08,242.09,12613,567.13,0,567.13,0,0.00087766,2.8595e-09,0,0.0004551,0.00016407,2.7941e+08,737.73,0,1.3549e+08,266.41,567.13,1
1960,5.16,12124,1,12124,1,0.00016937,-2.2717e-09,0,0.00077068,-3.0996e-05,173.48,-599.51,0,2.4456e+08,206.43,12123,13104,1,13104,1,0.001639,7.6818e-09,0,0.001639,0.00024401,3.7353e+08,1921.5,0,5.2887e+08,1294.7,13103,12124,1,12124,1,0.00016937,-1.5187e-09,0,0.00076204,-3.1107e-05,5.7207e+07,-389.04,0,2.5363e+08,151.47,12123,11097,1,11097,1,-0.0013003,-1.2536e-08,0,6.0699e-06,-0.00030565,-5.2887e+08,-3089.5,0,1.3601e+06,-1172.1,11096,11634,1,11634,1,-0.00059266,-5.0328e-09,0,0.00038101,-0.00017343,-2.4104e+08,-1397.3,0,1.3543e+08,37.964,11633,12614,1,12614,1,0.00093141,7.0894e-10,0,0.001143,0.0001114,2.5426e+08,209.66,0,3.4307e+08,288.87,12613,567.13,0,567.13,0,0.00087958,3.9431e-09,0,0.0004562,0.00016443,2.7969e+08,1054.7,0,1.356e+08,257.69,567.13,1
1960,5.17,12124,1,12124,1,0.00017055,-2.415e-10,0,0.00077249,-3.1211e-05,-425.21,-73.101,0,2.4481e+08,206.6,12123,13104,1,13104,1,0.0016434,7.8235e-09,0,0.0016434,0.00024439,3.7343e+08,1917.7,0,5.297e+08,1474.6,13103,12124,1,12124,1,0.00017055,9.9487e-11,0,0.00076371,-3.1324e-05,5.7552e+07,26.474,0,2.539e+08,102.26,12123,11097,1,11097,1,-0.0013023,-8.5114e-09,0,6.8958e-06,-0.00030646,-5.297e+08,-2055.3,0,1.6644e+06,-96.926,11096,11634,1,11634,1,-0.00059316,-1.6673e-09,0,0.00038186,-0.00017396,-2.4124e+08,-490.41,0,1.356e+08,26.644,11633,12614,1,12614,1,0.00093427,1.0074e-09,0,0.0011456,0.0001115,2.5452e+08,295.49,0,3.4329e+08,283.32,12613,567.13,0,567.13,0,0.00088152,2.4774e-09,0,0.00045731,0.00016479,2.7997e+08,665.05,0,1.3571e+08,278.03,567.13,1
1960,5.18,12124,1,12124,1,0.00017175,-1.7356e-09,0,0.00077432,-3.1429e-05,-153.14,-501.26,0,2.4507e+08,185.42,12123,13104,1,13104,1,0.0016479,3.5476e-09,0,0.0016479,0.00024478,3.7334e+08,1214.7,0,5.3054e+08,1499.7,13103,12124,1,12124,1,0.00017174,-2.0334e-09,0,0.0007654,-3.1543e-05,5.79e+07,-565.06,0,2.5417e+08,44.988,12123,11097,1,11097,1,-0.0013044,-6.5074e-09,0,7.7254e-06,-0.00030729,-5.3054e+08,-1811.8,0,1.9695e+06,-142.7,11096,11634,1,11634,1,-0.00059365,-3.0569e-09,0,0.0003827,-0.00017449,-2.4144e+08,-912.29,0,1.3577e+08,-2.3166,11633,12614,1,12614,1,0.00093714,-4.3222e-10,0,0.0011481,0.00011159,2.5479e+08,-102.75,0,3.4349e+08,278.21,12613,567.13,0,567.13,0,0.00088347,1.6494e-09,0,0.00045843,0.00016515,2.8025e+08,493.13,0,1.3583e+08,311.72,567.13,1
1960,5.19,12124,1,12124,1,0.00017295,1.7937e-09,0,0.00077614,-3.1649e-05,-36.364,473.14,0,2.4532e+08,179.17,12123,13104,1,13104,1,0.0016523,9.8007e-09,0,0.0016523,0.00024516,3.7324e+08,2363.7,0,5.3137e+08,1611.1,13103,12124,1,12124,1,0.00017294,1.3061e-09,0,0.00076709,-3.1765e-05,5.8251e+07,384,0,2.5444e+08,81.15,12123,11097,1,11097,1,-0.0013064,-5.663e-09,0,8.5617e-06,-0.00030811,-5.3137e+08,-1278.8,0,2.2766e+06,-168.07,11096,11634,1,11634,1,-0.00059414,2.9761e-11,0,0.00038354,-0.00017502,-2.4164e+08,10.188,0,1.3595e+08,-9.7919,11633,12614,1,12614,1,0.00094003,3.3823e-09,0,0.0011506,0.00011169,2.5505e+08,887.6,0,3.4345e+08,250.33,12613,567.13,0,567.13,0,0.00088542,2.4725e-09,0,0.00045955,0.00016551,2.8052e+08,632.36,0,1.3594e+08,298.4,567.13,1
1960,5.2,12124,1,12124,1,0.00017416,1.54e-09,0,0.00077797,-3.187e-05,-216.35,443.43,0,2.4557e+08,212.94,12123,13104,1,13104,1,0.0016568,7.61e-09,0,0.0016568,0.00024555,3.7313e+08,1867.7,0,5.322e+08,1671.9,13103,12124,1,12124,1,0.00017415,1.8759e-09,0,0.00076877,-3.1986e-05,5.8602e+07,523.52,0,2.547e+08,80.806,12123,11097,1,11097,1,-0.0013085,-6.618e-09,0,9.4113e-06,-0.00030893,-5.322e+08,-1481.5,0,2.5883e+06,-137.42,11096,11634,1,11634,1,-0.00059462,2.3376e-10,0,0.00038439,-0.00017556,-2.4183e+08,68.221,0,1.3612e+08,-9.2466,11633,12614,1,12614,1,0.00094293,2.8549e-09,0,0.0011532,0.00011178,2.553e+08,859.89,0,3.4341e+08,328.95,12613,567.13,0,567.13,0,0.00088737,1.9568e-09,0,0.00046068,0.00016588,2.808e+08,528.72,0,1.3604e+08,334.93,567.13,1
1960,5.21,12124,1,12124,1,0.00017537,4.1543e-09,0,0.00077978,-3.2092e-05,585.06,1211.8,0,2.4582e+08,191.54,12123,13104,1,13104,1,0.0016613,1.6054e-08,0,0.0016613,0.00024594,3.7302e+08,3982.1,0,5.3304e+08,1732.2,13103,12124,1,12124,1,0.00017536,3.9142e-09,0,0.00077045,-3.2209e-05,5.8954e+07,1152.2,0,2.5496e+08,92.892,12123,11097,1,11097,1,-0.0013105,-1.0332e-08,0,1.0262e-05,-0.00030977,-5.3304e+08,-2350.3,0,2.9003e+06,-318.69,11096,11634,1,11634,1,-0.00059508,7.7034e-10,0,0.00038523,-0.00017609,-2.4202e+08,190.43,0,1.3628e+08,-35.458,11633,12614,1,12614,1,0.00094582,7.7197e-09,0,0.0011557,0.00011187,2.5556e+08,2264.8,0,3.4336e+08,324.31,12613,567.13,0,567.13,0,0.0008893,4.7953e-09,0,0.0004618,0.00016623,2.8106e+08,1304.7,0,1.3615e+08,336.94,567.13,1
1960,5.22,12124,1,12124,1,0.00017659,3.1001e-10,0,0.00078161,-3.2314e-05,439.56,184.15,0,2.4607e+08,175.9,12123,13104,1,13104,1,0.0016658,6.1791e-09,0,0.0016658,0.00024631,3.729e+08,2115.1,0,5.3386e+08,1741.9,13103,12124,1,12124,1,0.00017658,6.1861e-10,0,0.00077213,-3.2434e-05,5.9308e+07,173.74,0,2.5522e+08,31.722,12123,11097,1,11097,1,-0.0013126,-8.1723e-09,0,1.1111e-05,-0.00031059,-5.3386e+08,-1822.6,0,3.2109e+06,-148.61,11096,11634,1,11634,1,-0.00059555,-1.4691e-09,0,0.00038608,-0.00017663,-2.4221e+08,-328.04,0,1.3645e+08,-33.351,11633,12614,1,12614,1,0.00094873,2.0837e-09,0,0.0011582,0.00011196,2.5581e+08,685.2,0,3.4331e+08,256.12,12613,567.13,0,567.13,0,0.00089125,2.3317e-09,0,0.00046293,0.0001666,2.8133e+08,644.82,0,1.3626e+08,341.69,567.13,1
1960,5.23,12124,1,12124,1,0.00017782,-2.934e-11,0,0.00078346,-3.2538e-05,-649.07,72.392,0,2.4632e+08,275.07,12123,13104,1,13104,1,0.0016703,7.4405e-09,0,0.0016703,0.0002467,3.7278e+08,2066.1,0,5.3469e+08,1637.4,13103,12124,1,12124,1,0.00017781,4.8804e-10,0,0.00077383,-3.2659e-05,5.9663e+07,137.51,0,2.5548e+08,137.02,12123,11097,1,11097,1,-0.0013146,-1.0469e-08,0,1.1975e-05,-0.00031142,-5.3469e+08,-2360.6,0,3.5265e+06,-79.855,11096,11634,1,11634,1,-0.00059603,-1.4836e-09,0,0.00038693,-0.00017717,-2.4241e+08,-358.24,0,1.3662e+08,59.529,11633,12614,1,12614,1,0.00095166,1.7841e-09,0,0.0011608,0.00011205,2.5607e+08,574.35,0,3.4326e+08,381.53,12613,567.13,0,567.13,0,0.00089322,2.6584e-09,0,0.00046407,0.00016696,2.816e+08,684.96,0,1.3637e+08,327.89,567.13,1
1960,5.24,12124,1,12124,1,0.00017906,-2.0508e-09,0,0.0007853,-3.2765e-05,551.85,-513.33,0,2.4656e+08,282.55,12123,13104,1,13104,1,0.0016748,6.4205e-09,0,0.0016748,0.00024708,3.7266e+08,1620.4,0,5.3552e+08,1707,13103,12124,1,12124,1,0.00017906,-1.2799e-09,0,0.00077554,-3.2888e-05,6.0023e+07,-386.24,0,2.5574e+08,173.16,12123,11097,1,11097,1,-0.0013166,-1.366e-08,0,1.2857e-05,-0.00031225,-5.3552e+08,-3181,0,3.8483e+06,-147.94,11096,11634,1,11634,1,-0.00059649,-3.9661e-09,0,0.00038777,-0.00017771,-2.4259e+08,-1008.7,0,1.3679e+08,46.353,11633,12614,1,12614,1,0.0009546,3.254e-11,0,0.0011633,0.00011214,2.5632e+08,7.9737,0,3.432e+08,386.46,12613,567.13,0,567.13,0,0.00089518,3.2051e-09,0,0.00046521,0.00016733,2.8187e+08,800.22,0,1.3648e+08,343.9,567.13,1
1960,5.25,12124,1,12124,1,0.00018031,-1.5238e-09,0,0.00078714,-3.2992e-05,-393.84,-408.22,0,2.468e+08,337.74,12123,13104,1,13104,1,0.0016793,7.1942e-09,0,0.0016793,0.00024747,3.7252e+08,1729,0,5.3634e+08,1785.7,13103,12124,1,12124,1,0.0001803,-1.228e-09,0,0.00077724,-3.3118e-05,6.0382e+07,-367.19,0,2.5599e+08,200.99,12123,11097,1,11097,1,-0.0013187,-1.1987e-08,0,1.3743e-05,-0.00031309,-5.3634e+08,-2790.9,0,4.1713e+06,-120.56,11096,11634,1,11634,1,-0.00059694,-2.9531e-09,0,0.00038862,-0.00017825,-2.4278e+08,-838.94,0,1.3696e+08,82.457,11633,12614,1,12614,1,0.00095754,2.5149e-10,0,0.0011659,0.00011222,2.5656e+08,64.632,0,3.4313e+08,457.18,12613,567.13,0,567.13,0,0.00089714,2.8622e-09,0,0.00046635,0.00016769,2.8213e+08,736.45,0,1.3658e+08,366.97,567.13,1
1960,5.26,12124,1,12124,1,0.00018156,2.8249e-09,0,0.00078899,-3.3221e-05,272.01,781.34,0,2.4705e+08,235.05,12123,13104,1,13104,1,0.0016838,1.216e-08,0,0.0016838,0.00024785,3.7238e+08,2831.5,0,5.3717e+08,1978,13103,12124,1,12124,1,0.00018156,3.0333e-09,0,0.00077895,-3.3349e-05,6.0743e+07,882.47,0,2.5625e+08,73.063,12123,11097,1,11097,1,-0.0013207,-7.127e-09,0,1.4634e-05,-0.00031393,-5.3717e+08,-1573.2,0,4.4954e+06,-125.79,11096,11634,1,11634,1,-0.00059739,8.64e-10,0,0.00038947,-0.0001788,-2.4296e+08,241.78,0,1.3712e+08,-18.304,11633,12614,1,12614,1,0.00096051,4.6862e-09,0,0.0011684,0.00011231,2.5681e+08,1295.3,0,3.4306e+08,346.67,12613,567.13,0,567.13,0,0.00089911,2.7886e-09,0,0.0004675,0.00016806,2.824e+08,721.46,0,1.3669e+08,383.69,567.13,1
1960,5.27,12124,1,12124,1,0.00018283,-9.002e-10,0,0.00079085,-3.3452e-05,-108.78,-223.93,0,2.4729e+08,344.41,12123,13104,1,13104,1,0.0016884,8.6036e-09,0,0.0016884,0.00024823,3.7224e+08,2012.5,0,5.38e+08,1931.6,13103,12124,1,12124,1,0.00018282,-5.5293e-10,0,0.00078066,-3.3581e-05,6.1107e+07,-159.62,0,2.565e+08,198.6,12123,11097,1,11097,1,-0.0013227,-1.2465e-08,0,1.5528e-05,-0.00031477,-5.38e+08,-2838.8,0,4.8203e+06,-65.909,11096,11634,1,11634,1,-0.00059784,-2.1153e-09,0,0.00039033,-0.00017935,-2.4314e+08,-560.22,0,1.3729e+08,69.671,11633,12614,1,12614,1,0.00096348,2.5942e-10,0,0.001171,0.0001124,2.5706e+08,74.155,0,3.4299e+08,470.82,12613,567.13,0,567.13,0,0.00090109,2.8092e-09,0,0.00046866,0.00016842,2.8266e+08,705.96,0,1.368e+08,385.28,567.13,1
1960,5.28,12124,1,12124,1,0.0001841,2.4743e-10,0,0.00079271,-3.3684e-05,-70.157,73.633,0,2.4752e+08,350.59,12123,13104,1,13104,1,0.001693,1.1873e-08,0,0.001693,0.00024861,3.7208e+08,2666.4,0,5.3882e+08,2079.5,13103,12124,1,12124,1,0.00018409,2.2495e-10,0,0.00078236,-3.3815e-05,6.1472e+07,67.148,0,2.5675e+08,181.59,12123,11097,1,11097,1,-0.0013248,-1.1526e-08,0,1.6436e-05,-0.00031561,-5.3882e+08,-2598.8,0,5.1499e+06,-67.553,11096,11634,1,11634,1,-0.00059827,-6.8975e-10,0,0.00039119,-0.0001799,-2.4332e+08,-186.45,0,1.3745e+08,59.736,11633,12614,1,12614,1,0.00096647,1.167e-09,0,0.0011736,0.00011248,2.573e+08,330.63,0,3.4291e+08,495.52,12613,567.13,0,567.13,0,0.00090306,2.864e-09,0,0.00046981,0.00016879,2.8292e+08,712.46,0,1.369e+08,411.88,567.13,1
1960,5.29,12124,1,12124,1,0.00018538,9.9337e-10,0,0.00079456,-3.3918e-05,-33.532,289.53,0,2.4776e+08,354.31,12123,13104,1,13104,1,0.0016975,1.2326e-08,0,0.0016975,0.00024899,3.7193e+08,2787.4,0,5.3964e+08,2138,13103,12124,1,12124,1,0.00018537,1.0782e-09,0,0.00078407,-3.405e-05,6.1837e+07,328.93,0,2.57e+08,184.85,12123,11097,1,11097,1,-0.0013268,-1.1792e-08,0,1.7348e-05,-0.00031646,-5.3964e+08,-2646.8,0,5.4799e+06,-61.861,11096,11634,1,11634,1,-0.0005987,-1.7351e-10,0,0.00039204,-0.00018045,-2.4349e+08,-44.4,0,1.3761e+08,60.213,11633,12614,1,12614,1,0.00096945,2.2582e-09,0,0.0011761,0.00011256,2.5754e+08,653.75,0,3.4282e+08,496.76,12613,567.13,0,567.13,0,0.00090503,3.0472e-09,0,0.00047097,0.00016916,2.8317e+08,759.55,0,1.37e+08,418.03,567.13,1
1960,5.3,12124,1,12124,1,0.00018667,-7.4424e-10,0,0.00079644,-3.4153e-05,-105.06,-186.14,0,2.48e+08,343.29,12123,13104,1,13104,1,0.0017022,8.3827e-09,0,0.0017022,0.00024937,3.7178e+08,2408.8,0,5.4047e+08,2116.8,13103,12124,1,12124,1,0.00018666,-4.114e-10,0,0.0007858,-3.4287e-05,6.2205e+07,-119.31,0,2.5725e+08,173.6,12123,11097,1,11097,1,-0.0013288,-1.2333e-08,0,1.8264e-05,-0.00031731,-5.4047e+08,-2760.6,0,5.8109e+06,-36.723,11096,11634,1,11634,1,-0.00059914,-1.723e-09,0,0.0003929,-0.000181,-2.4367e+08,-464.85,0,1.3778e+08,60.079,11633,12614,1,12614,1,0.00097247,2.0427e-10,0,0.0011787,0.00011265,2.5778e+08,56.936,0,3.4274e+08,466.9,12613,567.13,0,567.13,0,0.00090702,2.6791e-09,0,0.00047214,0.00016953,2.8343e+08,699.23,0,1.3711e+08,415.12,567.13,1
1960,5.31,12124,1,12124,1,0.00018796,-2.3263e-09,0,0.0007983,-3.439e-05,-187.5,-640.49,0,2.4823e+08,401.75,12123,13104,1,13104,1,0.0017068,8.5034e-09,0,0.0017068,0.00024975,3.7161e+08,2386.7,0,5.4129e+08,2176,13103,12124,1,12124,1,0.00018796,-2.2241e-09,0,0.00078751,-3.4526e-05,6.2575e+07,-660.44,0,2.5749e+08,263.54,12123,11097,1,11097,1,-0.0013308,-1.4282e-08,0,1.9197e-05,-0.00031816,-5.4129e+08,-3241.2,0,6.1472e+06,-84.053,11096,11634,1,11634,1,-0.00059956,-4.5819e-09,0,0.00039376,-0.00018156,-2.4384e+08,-1325.9,0,1.3794e+08,100.33,11633,12614,1,12614,1,0.00097547,3.5974e-11,0,0.0011813,0.00011273,2.5801e+08,10.741,0,3.4264e+08,541.12,12613,567.13,0,567.13,0,0.000909,3.5749e-09,0,0.00047331,0.00016989,2.8368e+08,937.46,0,1.3721e+08,427.44,567.13,1
1960,5.32,12124,1,12124,1,0.00018926,-3.1019e-09,0,0.00080014,-3.4626e-05,-352.22,-895.67,0,2.4845e+08,474.44,12123,13104,1,13104,1,0.0017114,2.1412e-08,0,0.0017114,0.00025013,3.7143e+08,4973.7,0,5.421e+08,2138,13103,12124,1,12124,1,0.00018925,-1.836e-09,0,0.0007892,-3.4763e-05,6.2942e+07,-522.95,0,2.5772e+08,400.03,12123,11097,1,11097,1,-0.0013328,-1.6815e-08,0,2.0123e-05,-0.00031902,-5.421e+08,-4593.5,0,6.4804e+06,-255.88,11096,11634,1,11634,1,-0.00059995,-9.1829e-09,0,0.00039461,-0.00018211,-2.44e+08,-2539.4,0,1.3809e+08,134.04,11633,12614,1,12614,1,0.00097846,1.4158e-09,0,0.0011838,0.0001128,2.5824e+08,346.55,0,3.4253e+08,694.51,12613,567.13,0,567.13,0,0.00091095,7.3585e-09,0,0.00047447,0.00017025,2.8392e+08,1945.5,0,1.3731e+08,451.79,567.13,1
1960,5.33,12124,1,12124,1,0.00019056,1.2972e-09,0,0.00080204,-3.4864e-05,-232.74,275.49,0,2.4869e+08,341.82,12123,13104,1,13104,1,0.001716,1.1297e-08,0,0.001716,0.00025051,3.7127e+08,2505.8,0,5.4293e+08,2778,13103,12124,1,12124,1,0.00019056,6.7102e-10,0,0.00079094,-3.5004e-05,6.3315e+07,184.4,0,2.5797e+08,105.39,12123,11097,1,11097,1,-0.0013349,-1.0173e-08,0,2.1051e-05,-0.00031987,-5.4293e+08,-2270.6,0,6.8134e+06,-145.65,11096,11634,1,11634,1,-0.0006004,-9.1304e-10,0,0.00039548,-0.00018267,-2.4418e+08,-303.93,0,1.3826e+08,6.0655,11633,12614,1,12614,1,0.00098152,3.8002e-09,0,0.0011864,0.00011289,2.5848e+08,924.03,0,3.4245e+08,488.74,12613,567.13,0,567.13,0,0.00091297,3.0991e-09,0,0.00047566,0.00017063,2.8419e+08,770.63,0,1.3742e+08,528.78,567.13,1
1960,5.34,12124,1,12124,1,0.00019189,-1.2006e-10,0,0.00080393,-3.5107e-05,-48.664,-81.342,0,2.4892e+08,387.57,12123,13104,1,13104,1,0.0017207,1.1413e-08,0,0.0017207,0.00025089,3.7108e+08,2502.8,0,5.4375e+08,2674,13103,12124,1,12124,1,0.00019189,-4.2599e-10,0,0.00079268,-3.5249e-05,6.3691e+07,-136.6,0,2.5821e+08,172.95,12123,11097,1,11097,1,-0.0013369,-1.3212e-08,0,2.2014e-05,-0.00032073,-5.4375e+08,-2974.7,0,7.1581e+06,-80.877,11096,11634,1,11634,1,-0.0006008,-1.6256e-09,0,0.00039635,-0.00018323,-2.4435e+08,-518.49,0,1.3841e+08,46.122,11633,12614,1,12614,1,0.00098458,1.7817e-09,0,0.001189,0.00011297,2.5871e+08,415.72,0,3.4234e+08,549.3,12613,567.13,0,567.13,0,0.00091497,3.1321e-09,0,0.00047685,0.000171,2.8444e+08,790.15,0,1.3752e+08,509.34,567.13,1
1960,5.35,12124,1,12124,1,0.00019323,-3.0084e-09,0,0.00080581,-3.535e-05,-45.257,-873.62,0,2.4914e+08,414.66,12123,13104,1,13104,1,0.0017254,1.2717e-08,0,0.0017254,0.00025127,3.7089e+08,2760.6,0,5.4457e+08,2515.5,13103,12124,1,12124,1,0.00019322,-2.7879e-09,0,0.00079441,-3.5493e-05,6.4068e+07,-836.99,0,2.5844e+08,280.48,12123,11097,1,11097,1,-0.0013389,-1.5004e-08,0,2.2975e-05,-0.0003216,-5.4457e+08,-3419.3,0,7.5015e+06,-174.32,11096,11634,1,11634,1,-0.00060119,-6.8614e-09,0,0.00039721,-0.0001838,-2.4451e+08,-1933.7,0,1.3857e+08,82.017,11633,12614,1,12614,1,0.00098763,3.8933e-10,0,0.0011916,0.00011304,2.5893e+08,99.479,0,3.4222e+08,566.7,12613,567.13,0,567.13,0,0.00091696,4.876e-09,0,0.00047804,0.00017137,2.8468e+08,1307.2,0,1.3762e+08,483.03,567.13,1
1960,5.36,12124,1,12124,1,0.00019457,4.5354e-11,0,0.00080771,-3.5595e-05,204.76,-70.853,0,2.4937e+08,411.42,12123,13104,1,13104,1,0.0017301,1.3904e-08,0,0.0017301,0.00025165,3.707e+08,3093.9,0,5.4538e+08,2860.9,13103,12124,1,12124,1,0.00019456,-5.2372e-10,0,0.00079614,-3.5739e-05,6.4446e+07,-159.38,0,2.5868e+08,185.32,12123,11097,1,11097,1,-0.0013409,-1.2701e-08,0,2.3936e-05,-0.00032247,-5.4538e+08,-2841.4,0,7.8436e+06,-115.15,11096,11634,1,11634,1,-0.00060159,-2.515e-09,0,0.00039809,-0.00018437,-2.4467e+08,-776.72,0,1.3872e+08,40.584,11633,12614,1,12614,1,0.00099072,2.3709e-09,0,0.0011942,0.00011312,2.5916e+08,553.59,0,3.4211e+08,590.77,12613,567.13,0,567.13,0,0.00091897,3.7715e-09,0,0.00047923,0.00017174,2.8493e+08,966.73,0,1.3773e+08,547.3,567.13,1
1960,5.37,12124,1,12124,1,0.00019592,3.4465e-09,0,0.00080961,-3.5841e-05,17.569,881.22,0,2.4959e+08,444.95,12123,13104,1,13104,1,0.0017347,1.9269e-08,0,0.0017347,0.00025203,3.7051e+08,4346.7,0,5.462e+08,3111.5,13103,12124,1,12124,1,0.00019591,2.9811e-09,0,0.0007979,-3.5989e-05,6.4828e+07,910.8,0,2.5891e+08,205.8,12123,11097,1,11097,1,-0.0013429,-1.2752e-08,0,2.4916e-05,-0.00032333,-5.462e+08,-2789.9,0,8.1915e+06,-147.68,11096,11634,1,11634,1,-0.00060199,1.2727e-10,0,0.00039895,-0.00018494,-2.4483e+08,33.331,0,1.3888e+08,46.817,11633,12614,1,12614,1,0.00099382,6.8976e-09,0,0.0011968,0.0001132,2.5939e+08,1742.9,0,3.4199e+08,631.1,12613,567.13,0,567.13,0,0.00092099,4.6612e-09,0,0.00048044,0.00017212,2.8518e+08,1141.6,0,1.3783e+08,592.32,567.13,1
1960,5.38,12124,1,12124,1,0.00019728,-1.8542e-09,0,0.00081151,-3.609e-05,-279.28,-512.78,0,2.4981e+08,465.53,12123,13104,1,13104,1,0.0017395,1.2395e-08,0,0.0017395,0.00025241,3.703e+08,3150.6,0,5.4702e+08,2784.7,13103,12124,1,12124,1,0.00019727,-1.8692e-09,0,0.00079964,-3.6239e-05,6.521e+07,-554.86,0,2.5914e+08,297.51,12123,11097,1,11097,1,-0.0013449,-1.5852e-08,0,2.5909e-05,-0.00032421,-5.4702e+08,-3509.6,0,8.5432e+06,-97.067,11096,11634,1,11634,1,-0.00060237,-4.4248e-09,0,0.00039983,-0.00018551,-2.4499e+08,-1263.3,0,1.3903e+08,110.96,11633,12614,1,12614,1,0.00099692,4.2764e-10,0,0.0011995,0.00011327,2.5961e+08,105.87,0,3.4186e+08,604.73,12613,567.13,0,567.13,0,0.000923,4.0482e-09,0,0.00048165,0.00017249,2.8542e+08,1046.4,0,1.3793e+08,524.26,567.13,1
1960,5.39,12124,1,12124,1,0.00019865,3.6085e-09,0,0.00081342,-3.634e-05,-8.7133,967.4,0,2.5003e+08,459.58,12123,13104,1,13104,1,0.0017442,2.1182e-08,0,0.0017442,0.00025278,3.701e+08,4749.8,0,5.4783e+08,3335.1,13103,12124,1,12124,1,0.00019864,3.5227e-09,0,0.00080139,-3.649e-05,6.5594e+07,1037,0,2.5937e+08,208.57,12123,11097,1,11097,1,-0.0013469,-1.6199e-08,0,2.69e-05,-0.00032508,-5.4783e+08,-3532.9,0,8.8927e+06,-121.22,11096,11634,1,11634,1,-0.00060275,2.4027e-10,0,0.0004007,-0.00018608,-2.4514e+08,59.113,0,1.3919e+08,45.555,11633,12614,1,12614,1,0.001,7.1512e-09,0,0.0012021,0.00011335,2.5983e+08,1910.4,0,3.4172e+08,640.25,12613,567.13,0,567.13,0,0.00092502,5.1612e-09,0,0.00048286,0.00017286,2.8566e+08,1269.3,0,1.3803e+08,617.68,567.13,1
1960,5.4,12124,1,12124,1,0.00020003,8.0719e-10,0,0.00081534,-3.6592e-05,277.62,267.64,0,2.5025e+08,438.58,12123,13104,1,13104,1,0.001749,1.1201e-08,0,0.001749,0.00025316,3.6987e+08,3834.6,0,5.4865e+08,3187.9,13103,12124,1,12124,1,0.00020002,1.142e-09,0,0.00080314,-3.6743e-05,6.598e+07,296.91,0,2.596e+08,171.46,12123,11097,1,11097,1,-0.0013489,-1.6104e-08,0,2.79e-05,-0.00032596,-5.4865e+08,-3455.4,0,9.2448e+06,-92.813,11096,11634,1,11634,1,-0.00060313,-3.9597e-10,0,0.00040158,-0.00018666,-2.4529e+08,-107.63,0,1.3934e+08,32.112,11633,12614,1,12614,1,0.0010032,2.8241e-09,0,0.0012047,0.00011342,2.6005e+08,805.6,0,3.4159e+08,597.82,12613,567.13,0,567.13,0,0.00092705,3.597e-09,0,0.00048408,0.00017324,2.859e+08,998.42,0,1.3814e+08,618.5,567.13,1
1960,5.41,12124,1,12124,1,0.00020142,7.8277e-11,0,0.00081725,-3.6845e-05,-180.4,78.233,0,2.5046e+08,587.54,12123,13104,1,13104,1,0.0017538,2.0858e-08,0,0.0017538,0.00025353,3.6965e+08,4646.8,0,5.4945e+08,3100.3,13103,12124,1,12124,1,0.0002014,4.1503e-10,0,0.00080489,-3.6998e-05,6.6368e+07,119.38,0,2.5982e+08,407.88,12123,11097,1,11097,1,-0.0013509,-2.09e-08,0,2.8911e-05,-0.00032684,-5.4945e+08,-4570.4,0,9.5989e+06,-111.91,11096,11634,1,11634,1,-0.00060349,-2.1875e-09,0,0.00040245,-0.00018724,-2.4544e+08,-556.03,0,1.3949e+08,139.2,11633,12614,1,12614,1,0.0010063,2.0893e-09,0,0.0012074,0.00011349,2.6026e+08,620.1,0,3.4144e+08,802.31,12613,567.13,0,567.13,0,0.00092907,5.5172e-09,0,0.0004853,0.00017362,2.8613e+08,1332.3,0,1.3823e+08,614.36,567.13,1
1960,5.42,12124,1,12124,1,0.00020281,-1.6801e-09,0,0.00081918,-3.71e-05,351.33,-418.56,0,2.5068e+08,517.08,12123,13104,1,13104,1,0.0017585,1.1249e-08,0,0.0017585,0.00025391,3.6943e+08,3751,0,5.5027e+08,3450.6,13103,12124,1,12124,1,0.0002028,-1.3517e-09,0,0.00080665,-3.7255e-05,6.6758e+07,-376.62,0,2.6004e+08,241.13,12123,11097,1,11097,1,-0.0013529,-2.1429e-08,0,2.9932e-05,-0.00032772,-5.5027e+08,-4678.8,0,9.9554e+06,-85.748,11096,11634,1,11634,1,-0.00060386,-3.226e-09,0,0.00040334,-0.00018782,-2.4559e+08,-841.6,0,1.3964e+08,74.63,11633,12614,1,12614,1,0.0010095,1.7255e-10,0,0.00121,0.00011356,2.6047e+08,53.223,0,3.413e+08,701.1,12613,567.13,0,567.13,0,0.0009311,4.327e-09,0,0.00048653,0.00017399,2.8637e+08,1117.4,0,1.3833e+08,663.65,567.13,1
1960,5.43,12124,1,12124,1,0.00020422,-3.2121e-10,0,0.00082111,-3.7357e-05,142.91,-73.026,0,2.5089e+08,599.06,12123,13104,1,13104,1,0.0017634,1.7855e-08,0,0.0017634,0.00025429,3.692e+08,4126.1,0,5.5108e+08,3496.3,13103,12124,1,12124,1,0.00020421,-1.4785e-10,0,0.00080842,-3.7514e-05,6.715e+07,-45.438,0,2.6027e+08,350.39,12123,11097,1,11097,1,-0.0013549,-2.1033e-08,0,3.0963e-05,-0.00032861,-5.5108e+08,-4568.4,0,1.0314e+07,-86.163,11096,11634,1,11634,1,-0.00060422,-1.9853e-09,0,0.00040422,-0.00018841,-2.4573e+08,-531.82,0,1.3979e+08,126.62,11633,12614,1,12614,1,0.0010126,1.4626e-09,0,0.0012127,0.00011363,2.6068e+08,402.93,0,3.4115e+08,817.15,12613,567.13,0,567.13,0,0.00093314,4.9192e-09,0,0.00048777,0.00017437,2.8661e+08,1227.5,0,1.3844e+08,675.57,567.13,1
1960,5.44,12124,1,12124,1,0.00020564,2.2428e-09,0,0.00082304,-3.7616e-05,259.83,625.53,0,2.511e+08,617.19,12123,13104,1,13104,1,0.0017682,2.6114e-08,0,0.0017682,0.00025466,3.6896e+08,5827.6,0,5.5189e+08,3710.7,13103,12124,1,12124,1,0.00020563,2.1204e-09,0,0.00081018,-3.7774e-05,6.7543e+07,607.64,0,2.6048e+08,359.74,12123,11097,1,11097,1,-0.0013569,-2.0188e-08,0,3.2001e-05,-0.0003295,-5.5189e+08,-4323.2,0,1.0675e+07,-95.727,11096,11634,1,11634,1,-0.00060456,-4.0114e-10,0,0.0004051,-0.00018899,-2.4587e+08,-85.04,0,1.3993e+08,114.28,11633,12614,1,12614,1,0.0010158,4.3801e-09,0,0.0012153,0.0001137,2.6089e+08,1181.5,0,3.4098e+08,851.97,12613,567.13,0,567.13,0,0.00093517,5.7563e-09,0,0.000489,0.00017475,2.8684e+08,1396.7,0,1.3853e+08,704.9,567.13,1
1960,5.45,12124,1,12124,1,0.00020706,2.9619e-10,0,0.00082497,-3.7875e-05,180.91,134.42,0,2.5131e+08,620.88,12123,13104,1,13104,1,0.001773,1.9545e-08,0,0.001773,0.00025503,3.6871e+08,4425.9,0,5.5269e+08,3813.8,13103,12124,1,12124,1,0.00020705,8.4308e-10,0,0.00081194,-3.8035e-05,6.7936e+07,232.24,0,2.607e+08,339.07,12123,11097,1,11097,1,-0.0013589,-2.4284e-08,0,3.304e-05,-0.00033039,-5.5269e+08,-5242.4,0,1.1033e+07,-85.599,11096,11634,1,11634,1,-0.0006049,-1.3645e-09,0,0.00040598,-0.00018958,-2.4601e+08,-353.59,0,1.4008e+08,109.05,11633,12614,1,12614,1,0.001019,2.2719e-09,0,0.0012179,0.00011376,2.6109e+08,655.27,0,3.4082e+08,847.52,12613,567.13,0,567.13,0,0.00093721,5.499e-09,0,0.00049024,0.00017513,2.8706e+08,1339.3,0,1.3863e+08,733.12,567.13,1
1960,5.46,12124,1,12124,1,0.0002085,3.0356e-10,0,0.00082693,-3.8137e-05,-176.17,132.05,0,2.5152e+08,633.37,12123,13104,1,13104,1,0.0017779,1.8929e-08,0,0.0017779,0.00025541,3.6847e+08,4958.7,0,5.5351e+08,3889.7,13103,12124,1,12124,1,0.00020848,5.2191e-10,0,0.00081373,-3.8299e-05,6.8334e+07,143.21,0,2.6092e+08,325.37,12123,11097,1,11097,1,-0.0013609,-2.2236e-08,0,3.409e-05,-0.0003313,-5.5351e+08,-4715,0,1.1395e+07,-29.336,11096,11634,1,11634,1,-0.00060526,-1.3336e-09,0,0.00040688,-0.00019017,-2.4616e+08,-350.5,0,1.4022e+08,113.59,11633,12614,1,12614,1,0.0010222,2.0351e-09,0,0.0012206,0.00011383,2.613e+08,635.81,0,3.4066e+08,865.24,12613,567.13,0,567.13,0,0.00093928,5.0837e-09,0,0.00049151,0.00017551,2.873e+08,1300.1,0,1.3874e+08,756.26,567.13,1
1960,5.47,12124,1,12124,1,0.00020995,-1.4362e-09,0,0.00082889,-3.8403e-05,9.7693,-337.8,0,2.5172e+08,688.01,12123,13104,1,13104,1,0.0017828,1.9521e-08,0,0.0017828,0.00025579,3.6822e+08,4967,0,5.5432e+08,3969.5,13103,12124,1,12124,1,0.00020993,-1.1021e-09,0,0.00081552,-3.8567e-05,6.8735e+07,-322.93,0,2.6113e+08,394.8,12123,11097,1,11097,1,-0.0013629,-2.6517e-08,0,3.516e-05,-0.0003322,-5.5432e+08,-5688.6,0,1.1761e+07,-96.233,11096,11634,1,11634,1,-0.00060559,-3.9367e-09,0,0.00040777,-0.00019077,-2.4629e+08,-1014.4,0,1.4037e+08,129.93,11633,12614,1,12614,1,0.0010255,1.0691e-09,0,0.0012233,0.0001139,2.6151e+08,297.08,0,3.4049e+08,957.78,12613,567.13,0,567.13,0,0.00094134,6.0125e-09,0,0.00049277,0.00017589,2.8753e+08,1492.2,0,1.3883e+08,781.11,567.13,1
1960,5.48,12124,1,12124,1,0.00021141,-3.2591e-09,0,0.00083083,-3.8669e-05,-424.1,-866.45,0,2.5192e+08,775.02,12123,13104,1,13104,1,0.0017877,2.2044e-08,0,0.0017877,0.00025616,3.6795e+08,4797.8,0,5.5513e+08,4287.2,13103,12124,1,12124,1,0.00021139,-3.2529e-09,0,0.0008173,-3.8835e-05,6.9136e+07,-972.13,0,2.6134e+08,501.32,12123,11097,1,11097,1,-0.0013649,-2.9958e-08,0,3.6239e-05,-0.0003331,-5.5513e+08,-6499.8,0,1.213e+07,-190.37,11096,11634,1,11634,1,-0.00060591,-7.4969e-09,0,0.00040866,-0.00019136,-2.4642e+08,-2092.3,0,1.4051e+08,188.12,11633,12614,1,12614,1,0.0010287,1.0109e-09,0,0.001226,0.00011396,2.617e+08,247.07,0,3.403e+08,1074.3,12613,567.13,0,567.13,0,0.00094339,7.2802e-09,0,0.00049403,0.00017627,2.8775e+08,1794.9,0,1.3893e+08,836.35,567.13,1
1960,5.49,12124,1,12124,1,0.00021288,1.6675e-09,0,0.00083281,-3.8938e-05,103.41,418.23,0,2.5213e+08,743.71,12123,13104,1,13104,1,0.0017926,2.4792e-08,0,0.0017926,0.00025654,3.6769e+08,5811.9,0,5.5594e+08,4836.6,13103,12124,1,12124,1,0.00021286,1.7119e-09,0,0.0008191,-3.9105e-05,6.9541e+07,464.92,0,2.6155e+08,377.6,12123,11097,1,11097,1,-0.0013669,-2.4846e-08,0,3.7322e-05,-0.00033402,-5.5594e+08,-5227.7,0,1.2498e+07,-60.82,11096,11634,1,11634,1,-0.00060624,-9.6818e-10,0,0.00040956,-0.00019197,-2.4656e+08,-289.01,0,1.4065e+08,122.72,11633,12614,1,12614,1,0.001032,4.6974e-09,0,0.0012287,0.00011402,2.619e+08,1152.8,0,3.4013e+08,1025.6,12613,567.13,0,567.13,0,0.00094547,6.232e-09,0,0.00049531,0.00017666,2.8798e+08,1568.9,0,1.3903e+08,905.25,567.13,1
1960,5.5,12124,1,12124,1,0.00021436,-1.5683e-10,0,0.00083478,-3.9209e-05,-82.397,-38.321,0,2.5233e+08,831.04,12123,13104,1,13104,1,0.0017976,2.6157e-08,0,0.0017976,0.00025691,3.6741e+08,5771.9,0,5.5674e+08,4814.1,13103,12124,1,12124,1,0.00021435,-3.5167e-10,0,0.00082089,-3.9377e-05,6.9948e+07,-105.39,0,2.6175e+08,497.36,12123,11097,1,11097,1,-0.0013688,-2.9574e-08,0,3.8421e-05,-0.00033493,-5.5674e+08,-6272.4,0,1.2871e+07,-79.494,11096,11634,1,11634,1,-0.00060655,-2.5913e-09,0,0.00041046,-0.00019257,-2.4668e+08,-730.45,0,1.4079e+08,179.96,11633,12614,1,12614,1,0.0010353,2.4802e-09,0,0.0012314,0.00011409,2.621e+08,638.61,0,3.3993e+08,1142.2,12613,567.13,0,567.13,0,0.00094755,6.997e-09,0,0.00049659,0.00017704,2.882e+08,1712,0,1.3913e+08,913.02,567.13,1
1960,5.51,12124,1,12124,1,0.00021586,1.7998e-09,0,0.00083676,-3.9482e-05,-182.05,498.85,0,2.5252e+08,858.36,12123,13104,1,13104,1,0.0018026,2.7961e-08,0,0.0018026,0.00025728,3.6713e+08,6315.2,0,5.5755e+08,5115.1,13103,12124,1,12124,1,0.00021584,2.2454e-09,0,0.00082269,-3.9651e-05,7.0356e+07,604.18,0,2.6196e+08,495.4,12123,11097,1,11097,1,-0.0013708,-2.885e-08,0,3.9525e-05,-0.00033585,-5.5755e+08,-6038.3,0,1.3244e+07,-87.212,11096,11634,1,11634,1,-0.00060686,-1.3203e-09,0,0.00041136,-0.00019318,-2.4681e+08,-353.91,0,1.4093e+08,185.57,11633,12614,1,12614,1,0.0010385,5.0562e-09,0,0.0012341,0.00011415,2.6229e+08,1320.7,0,3.3974e+08,1171.4,12613,567.13,0,567.13,0,0.00094963,7.0943e-09,0,0.00049788,0.00017743,2.8842e+08,1773.7,0,1.3923e+08,966.46,567.13,1
1960,5.52,12124,1,12124,1,0.00021736,-1.8452e-09,0,0.00083875,-3.9756e-05,57.114,-445.72,0,2.5272e+08,865.9,12123,13104,1,13104,1,0.0018075,2.453e-08,0,0.0018075,0.00025766,3.6685e+08,6205.6,0,5.5835e+08,5014.3,13103,12124,1,12124,1,0.00021734,-1.6506e-09,0,0.0008245,-3.9927e-05,7.0766e+07,-469.24,0,2.6216e+08,518.11,12123,11097,1,11097,1,-0.0013728,-3.4221e-08,0,4.0636e-05,-0.00033677,-5.5835e+08,-7241.8,0,1.3618e+07,-100.8,11096,11634,1,11634,1,-0.00060717,-4.8188e-09,0,0.00041226,-0.00019379,-2.4693e+08,-1260.8,0,1.4107e+08,176,11633,12614,1,12614,1,0.0010419,1.4448e-09,0,0.0012368,0.00011421,2.6248e+08,385.32,0,3.3954e+08,1189.8,12613,567.13,0,567.13,0,0.00095171,7.6518e-09,0,0.00049917,0.00017782,2.8864e+08,1887.5,0,1.3933e+08,973.01,567.13,1
1960,5.53,12124,1,12124,1,0.00021887,3.6682e-09,0,0.00084073,-4.0033e-05,-94.582,1016.1,0,2.5291e+08,998.35,12123,13104,1,13104,1,0.0018126,3.2655e-08,0,0.0018126,0.00025803,3.6656e+08,6995.3,0,5.5917e+08,5465.7,13103,12124,1,12124,1,0.00021885,4.8829e-09,0,0.0008263,-4.0204e-05,7.1177e+07,1280.8,0,2.6236e+08,673.67,12123,11097,1,11097,1,-0.0013748,-3.1688e-08,0,4.1761e-05,-0.00033769,-5.5917e+08,-6586.1,0,1.3995e+07,-132.76,11096,11634,1,11634,1,-0.00060746,-9.2443e-10,0,0.00041317,-0.0001944,-2.4705e+08,-210.74,0,1.4121e+08,247.8,11633,12614,1,12614,1,0.0010452,8.637e-09,0,0.0012395,0.00011427,2.6267e+08,2414.4,0,3.3933e+08,1350.8,12613,567.13,0,567.13,0,0.0009538,8.3509e-09,0,0.00050047,0.0001782,2.8885e+08,2098.6,0,1.3942e+08,1034.7,567.13,1
1960,5.54,12124,1,12124,1,0.0002204,-3.4005e-10,0,0.00084274,-4.0312e-05,26.851,9.6122,0,2.5311e+08,948.27,12123,13104,1,13104,1,0.0018176,2.8013e-08,0,0.0018176,0.0002584,3.6626e+08,7481.3,0,5.5997e+08,5257.4,13103,12124,1,12124,1,0.00022037,9.3963e-11,0,0.00082812,-4.0485e-05,7.1592e+07,26.304,0,2.6256e+08,579.74,12123,11097,1,11097,1,-0.0013768,-3.456e-08,0,4.2888e-05,-0.00033862,-5.5997e+08,-7175.5,0,1.4372e+07,-42.82,11096,11634,1,11634,1,-0.00060776,-3.5171e-09,0,0.00041408,-0.00019501,-2.4717e+08,-874.58,0,1.4134e+08,197.25,11633,12614,1,12614,1,0.0010485,2.9939e-09,0,0.0012422,0.00011432,2.6286e+08,866.23,0,3.3913e+08,1289.5,12613,567.13,0,567.13,0,0.00095591,8.1564e-09,0,0.00050178,0.00017859,2.8907e+08,2059.6,0,1.3952e+08,1048.9,567.13,1
1960,5.55,12124,1,12124,1,0.00022194,-2.2104e-09,0,0.00084473,-4.0592e-05,-134.2,-511.1,0,2.5329e+08,1012.1,12123,13104,1,13104,1,0.0018226,3.3144e-08,0,0.0018226,0.00025877,3.6595e+08,7769.8,0,5.6076e+08,5531.3,13103,12124,1,12124,1,0.00022191,-2.1861e-09,0,0.00082993,-4.0767e-05,7.2009e+07,-647.67,0,2.6275e+08,649.82,12123,11097,1,11097,1,-0.0013787,-3.922e-08,0,4.4037e-05,-0.00033955,-5.6076e+08,-8224.7,0,1.4754e+07,-168.46,11096,11634,1,11634,1,-0.00060803,-7.1019e-09,0,0.00041498,-0.00019563,-2.4728e+08,-1822.2,0,1.4148e+08,212.37,11633,12614,1,12614,1,0.0010519,2.0429e-09,0,0.0012449,0.00011438,2.6304e+08,557.54,0,3.389e+08,1403.5,12613,567.13,0,567.13,0,0.00095799,9.8272e-09,0,0.00050309,0.00017898,2.8928e+08,2385.4,0,1.3962e+08,1103.5,567.13,1
1960,5.56,12124,1,12124,1,0.00022348,1.1371e-09,0,0.00084675,-4.0875e-05,262.11,338.57,0,2.5348e+08,1077.1,12123,13104,1,13104,1,0.0018277,3.4545e-08,0,0.0018277,0.00025915,3.6564e+08,7819.8,0,5.6157e+08,6025,13103,12124,1,12124,1,0.00022346,1.6849e-09,0,0.00083176,-4.1051e-05,7.2428e+07,468.83,0,2.6294e+08,700.25,12123,11097,1,11097,1,-0.0013807,-3.8445e-08,0,4.5194e-05,-0.00034049,-5.6157e+08,-7978.3,0,1.5138e+07,-91.078,11096,11634,1,11634,1,-0.00060832,-2.2552e-09,0,0.0004159,-0.00019625,-2.474e+08,-613.26,0,1.4161e+08,241.7,11633,12614,1,12614,1,0.0010553,4.8468e-09,0,0.0012477,0.00011443,2.6322e+08,1287.3,0,3.3869e+08,1477.1,12613,567.13,0,567.13,0,0.00096011,9.2949e-09,0,0.00050441,0.00017937,2.895e+08,2277.7,0,1.3972e+08,1157.8,567.13,1
1960,5.57,12124,1,12124,1,0.00022504,-1.1328e-09,0,0.00084877,-4.116e-05,-447.28,-245.77,0,2.5367e+08,1124.2,12123,13104,1,13104,1,0.0018328,3.3676e-08,0,0.0018328,0.00025952,3.6532e+08,8292.6,0,5.6237e+08,6197.8,13103,12124,1,12124,1,0.00022502,-1.1563e-09,0,0.00083359,-4.1338e-05,7.2849e+07,-326.23,0,2.6313e+08,690.87,12123,11097,1,11097,1,-0.0013827,-4.089e-08,0,4.6358e-05,-0.00034143,-5.6237e+08,-8478,0,1.5523e+07,-58.449,11096,11634,1,11634,1,-0.00060859,-4.7825e-09,0,0.00041682,-0.00019688,-2.4751e+08,-1232.3,0,1.4174e+08,249.83,11633,12614,1,12614,1,0.0010586,2.5429e-09,0,0.0012504,0.00011449,2.634e+08,695.07,0,3.3846e+08,1530.9,12613,567.13,0,567.13,0,0.00096222,9.6055e-09,0,0.00050574,0.00017976,2.897e+08,2375.7,0,1.3981e+08,1218.6,567.13,1
1960,5.58,12124,1,12124,1,0.00022662,1.5484e-10,0,0.0008508,-4.1448e-05,-129.01,78.112,0,2.5386e+08,1179.7,12123,13104,1,13104,1,0.0018379,3.5058e-08,0,0.0018379,0.00025989,3.65e+08,8931.7,0,5.6319e+08,6525,13103,12124,1,12124,1,0.00022659,4.1398e-10,0,0.00083544,-4.1627e-05,7.3273e+07,108.45,0,2.6333e+08,729.19,12123,11097,1,11097,1,-0.0013847,-4.1306e-08,0,4.7536e-05,-0.00034238,-5.6319e+08,-8503.2,0,1.5911e+07,-29.906,11096,11634,1,11634,1,-0.00060887,-3.4199e-09,0,0.00041775,-0.00019751,-2.4762e+08,-911.37,0,1.4188e+08,258.16,11633,12614,1,12614,1,0.0010621,4.0414e-09,0,0.0012532,0.00011454,2.6358e+08,1078.7,0,3.3823e+08,1627,12613,567.13,0,567.13,0,0.00096436,9.9692e-09,0,0.00050709,0.00018016,2.8992e+08,2514.5,0,1.3991e+08,1276.6,567.13,1
1960,5.59,12124,1,12124,1,0.00022821,3.2132e-09,0,0.00085284,-4.1739e-05,253.47,896.24,0,2.5404e+08,1319.7,12123,13104,1,13104,1,0.0018431,4.4219e-08,0,0.0018431,0.00026026,3.6467e+08,9759.3,0,5.6399e+08,6957.5,13103,12124,1,12124,1,0.00022818,4.1822e-09,0,0.00083728,-4.1918e-05,7.3699e+07,1104.5,0,2.6351e+08,893.32,12123,11097,1,11097,1,-0.0013866,-4.3048e-08,0,4.8727e-05,-0.00034333,-5.6399e+08,-8789,0,1.6303e+07,-60.596,11096,11634,1,11634,1,-0.00060912,-1.709e-09,0,0.00041867,-0.00019814,-2.4772e+08,-441.93,0,1.4215e+08,310.25,11633,12614,1,12614,1,0.0010655,8.2171e-09,0,0.001256,0.00011459,2.6375e+08,2305.9,0,3.3799e+08,1814.3,12613,567.13,0,567.13,0,0.00096649,1.1346e-08,0,0.00050843,0.00018055,2.9012e+08,2841.3,0,1.4001e+08,1365.5,567.13,1
1960,5.6,12124,1,12124,1,0.00022981,2.6542e-10,0,0.00085488,-4.2031e-05,-244.88,166.33,0,2.5422e+08,1371.3,12123,13104,1,13104,1,0.0018483,3.8871e-08,0,0.0018483,0.00026064,3.6433e+08,9855.4,0,5.6479e+08,7051.2,13103,12124,1,12124,1,0.00022977,1.3125e-09,0,0.00083912,-4.2211e-05,7.4127e+07,357.58,0,2.6369e+08,972.86,12123,11097,1,11097,1,-0.0013886,-4.8882e-08,0,4.9918e-05,-0.00034428,-5.6479e+08,-9994,0,1.6693e+07,-50.523,11096,11634,1,11634,1,-0.00060937,-4.208e-09,0,0.0004196,-0.00019877,-2.4783e+08,-1081,0,1.4258e+08,347.53,11633,12614,1,12614,1,0.0010689,5.3573e-09,0,0.0012588,0.00011464,2.6392e+08,1590.7,0,3.3774e+08,1871.9,12613,567.13,0,567.13,0,0.00096863,1.1724e-08,0,0.00050979,0.00018095,2.9033e+08,2952.6,0,1.4011e+08,1384.7,567.13,1
1960,5.61,12124,1,12124,1,0.00023142,3.3818e-10,0,0.00085694,-4.2326e-05,-36.265,199.19,0,2.544e+08,1419.8,12123,13104,1,13104,1,0.0018535,4.3472e-08,0,0.0018535,0.00026101,3.64e+08,10792,0,5.656e+08,7245.8,13103,12124,1,12124,1,0.00023139,1.0776e-09,0,0.00084098,-4.2507e-05,7.4559e+07,286.73,0,2.6388e+08,1012.4,12123,11097,1,11097,1,-0.0013906,-5.0614e-08,0,5.1128e-05,-0.00034525,-5.656e+08,-10309,0,1.7088e+07,-29.572,11096,11634,1,11634,1,-0.00060962,-4.7683e-09,0,0.00042053,-0.00019941,-2.4793e+08,-1195.5,0,1.4301e+08,336.6,11633,12614,1,12614,1,0.0010724,5.7571e-09,0,0.0012616,0.00011469,2.641e+08,1624.2,0,3.375e+08,1940.3,12613,567.13,0,567.13,0,0.00097078,1.2617e-08,0,0.00051116,0.00018135,2.9053e+08,3154.5,0,1.4021e+08,1444.3,567.13,1
1960,5.62,12124,1,12124,1,0.00023305,-1.0763e-09,0,0.00085899,-4.2623e-05,343.46,-184.32,0,2.5457e+08,1485.7,12123,13104,1,13104,1,0.0018587,4.9077e-08,0,0.0018587,0.00026138,3.6365e+08,11228,0,5.6639e+08,7466.6,13103,12124,1,12124,1,0.00023301,-9.3714e-10,0,0.00084284,-4.2806e-05,7.4993e+07,-271.13,0,2.6405e+08,1054.8,12123,11097,1,11097,1,-0.0013925,-5.4697e-08,0,5.2355e-05,-0.0003462,-5.6639e+08,-11165,0,1.7488e+07,-104.31,11096,11634,1,11634,1,-0.00060986,-7.0641e-09,0,0.00042146,-0.00020005,-2.4802e+08,-1806.3,0,1.4344e+08,343.75,11633,12614,1,12614,1,0.0010759,4.667e-09,0,0.0012643,0.00011474,2.6426e+08,1305.4,0,3.3724e+08,2063.9,12613,567.13,0,567.13,0,0.00097292,1.3862e-08,0,0.00051253,0.00018175,2.9073e+08,3376.7,0,1.403e+08,1513.6,567.13,1
1960,5.63,12124,1,12124,1,0.00023469,8.7879e-10,0,0.00086106,-4.2922e-05,-130.68,313.5,0,2.5475e+08,1566.7,12123,13104,1,13104,1,0.001864,5.065e-08,0,0.001864,0.00026175,3.6329e+08,11743,0,5.672e+08,7941.2,13103,12124,1,12124,1,0.00023465,1.2459e-09,0,0.00084471,-4.3106e-05,7.5428e+07,340.14,0,2.6423e+08,1115.5,12123,11097,1,11097,1,-0.0013945,-5.4385e-08,0,5.3589e-05,-0.00034717,-5.672e+08,-10994,0,1.7888e+07,-39.982,11096,11634,1,11634,1,-0.00061009,-4.5431e-09,0,0.0004224,-0.0002007,-2.4812e+08,-1183.4,0,1.4388e+08,381.11,11633,12614,1,12614,1,0.0010794,6.561e-09,0,0.0012672,0.00011479,2.6442e+08,1792.5,0,3.3697e+08,2182.2,12613,567.13,0,567.13,0,0.00097509,1.3777e-08,0,0.00051391,0.00018215,2.9093e+08,3400.4,0,1.404e+08,1575.2,567.13,1
1960,5.64,12124,1,12124,1,0.00023634,-3.0039e-10,0,0.00086313,-4.3224e-05,267.42,23.684,0,2.5492e+08,1656.8,12123,13104,1,13104,1,0.0018692,5.2802e-08,0,0.0018692,0.00026212,3.6293e+08,11933,0,5.6799e+08,8244.6,13103,12124,1,12124,1,0.0002363,4.5907e-10,0,0.00084658,-4.3409e-05,7.5866e+07,125.59,0,2.6441e+08,1187.2,12123,11097,1,11097,1,-0.0013965,-6.1774e-08,0,5.4835e-05,-0.00034814,-5.6799e+08,-12591,0,1.8292e+07,-119.87,11096,11634,1,11634,1,-0.00061032,-6.21e-09,0,0.00042333,-0.00020135,-2.4821e+08,-1560.3,0,1.4431e+08,399.78,11633,12614,1,12614,1,0.0010829,6.0693e-09,0,0.00127,0.00011483,2.6458e+08,1664.4,0,3.3671e+08,2317.1,12613,567.13,0,567.13,0,0.00097725,1.5363e-08,0,0.00051529,0.00018255,2.9113e+08,3687.3,0,1.405e+08,1662.9,567.13,1
1960,5.65,12124,1,12124,1,0.000238,3.9979e-09,0,0.00086522,-4.3527e-05,-78.093,1147.7,0,2.5509e+08,1766.2,12123,13104,1,13104,1,0.0018745,5.986e-08,0,0.0018745,0.0002625,3.6256e+08,13535,0,5.688e+08,8996.9,13103,12124,1,12124,1,0.00023796,4.7911e-09,0,0.00084846,-4.3713e-05,7.6305e+07,1288,0,2.6458e+08,1259.9,12123,11097,1,11097,1,-0.0013985,-5.9122e-08,0,5.609e-05,-0.00034913,-5.688e+08,-11829,0,1.8697e+07,-82.631,11096,11634,1,11634,1,-0.00061054,-2.7856e-09,0,0.00042428,-0.000202,-2.483e+08,-727.27,0,1.4475e+08,434.97,11633,12614,1,12614,1,0.0010865,1.0859e-08,0,0.0012728,0.00011488,2.6474e+08,2974,0,3.3643e+08,2467.5,12613,567.13,0,567.13,0,0.00097943,1.5577e-08,0,0.00051669,0.00018295,2.9132e+08,3859.2,0,1.4059e+08,1768.3,567.13,1
1960,5.66,12124,1,12124,1,0.00023968,-1.7997e-09,0,0.00086732,-4.3835e-05,18.61,-321.39,0,2.5526e+08,1828.8,12123,13104,1,13104,1,0.0018799,5.2473e-08,0,0.0018799,0.00026287,3.6219e+08,13380,0,5.696e+08,9105.3,13103,12124,1,12124,1,0.00023963,-8.6546e-10,0,0.00085035,-4.4021e-05,7.6749e+07,-218.09,0,2.6475e+08,1297.4,12123,11097,1,11097,1,-0.0014005,-6.8843e-08,0,5.7352e-05,-0.00035011,-5.696e+08,-13863,0,1.9103e+07,-100.29,11096,11634,1,11634,1,-0.00061076,-8.4342e-09,0,0.00042523,-0.00020265,-2.4839e+08,-2115.9,0,1.4519e+08,437.25,11633,12614,1,12614,1,0.0010901,5.4324e-09,0,0.0012756,0.00011492,2.649e+08,1515.9,0,3.3616e+08,2582.4,12613,567.13,0,567.13,0,0.00098162,1.646e-08,0,0.0005181,0.00018336,2.9152e+08,4057.7,0,1.4069e+08,1837.8,567.13,1
1960,5.67,12124,1,12124,1,0.00024138,-6.4808e-10,0,0.00086943,-4.4144e-05,-373.76,-53.675,0,2.5543e+08,1967.7,12123,13104,1,13104,1,0.0018853,6.1316e-08,0,0.0018853,0.00026324,3.6181e+08,14671,0,5.7041e+08,9591.8,13103,12124,1,12124,1,0.00024133,1.3439e-10,0,0.00085226,-4.4332e-05,7.7197e+07,37.014,0,2.6492e+08,1440.8,12123,11097,1,11097,1,-0.0014024,-7.0407e-08,0,5.8637e-05,-0.0003511,-5.7041e+08,-14113,0,1.9516e+07,-137.12,11096,11634,1,11634,1,-0.00061097,-8.042e-09,0,0.00042618,-0.00020332,-2.4848e+08,-2054.8,0,1.4563e+08,469.85,11633,12614,1,12614,1,0.0010937,6.8462e-09,0,0.0012785,0.00011497,2.6506e+08,1884.7,0,3.3587e+08,2742.6,12613,567.13,0,567.13,0,0.00098382,1.7792e-08,0,0.00051953,0.00018377,2.9172e+08,4382.2,0,1.4079e+08,1956.1,567.13,1
1960,5.68,12124,1,12124,1,0.00024309,1.0649e-09,0,0.00087154,-4.4457e-05,-319.93,370.73,0,2.5559e+08,2116,12123,13104,1,13104,1,0.0018907,6.6752e-08,0,0.0018907,0.00026361,3.6141e+08,15322,0,5.7121e+08,10324,13103,12124,1,12124,1,0.00024304,1.8499e-09,0,0.00085416,-4.4646e-05,7.7646e+07,498.75,0,2.6509e+08,1582.6,12123,11097,1,11097,1,-0.0014044,-7.4665e-08,0,5.9939e-05,-0.0003521,-5.7121e+08,-14874,0,1.9933e+07,-50.589,11096,11634,1,11634,1,-0.00061116,-6.6533e-09,0,0.00042714,-0.00020398,-2.4855e+08,-1724.4,0,1.4607e+08,548.72,11633,12614,1,12614,1,0.0010973,9.3155e-09,0,0.0012814,0.000115,2.6521e+08,2534.4,0,3.3557e+08,2958,12613,567.13,0,567.13,0,0.00098602,1.8887e-08,0,0.00052096,0.00018417,2.9191e+08,4624.7,0,1.4089e+08,2040.1,567.13,1
1960,5.69,12124,1,12124,1,0.00024482,-6.9899e-10,0,0.00087367,-4.4773e-05,-126.08,-47.651,0,2.5575e+08,2160.2,12123,13104,1,13104,1,0.0018961,6.6928e-08,0,0.0018961,0.00026399,3.6102e+08,16002,0,5.7202e+08,10558,13103,12124,1,12124,1,0.00024477,1.8788e-10,0,0.00085618,-4.4962e-05,7.8099e+07,56.122,0,2.6525e+08,1619.6,12123,11097,1,11097,1,-0.0014064,-8.0499e-08,0,6.0936e-05,-0.0003531,-5.7202e+08,-16076,0,2.0351e+07,-53.112,11096,11634,1,11634,1,-0.00061136,-8.7402e-09,0,0.00042803,-0.00020465,-2.4863e+08,-2249.9,0,1.4652e+08,545.87,11633,12614,1,12614,1,0.0011009,8.0356e-09,0,0.0012842,0.00011504,2.6536e+08,2168.9,0,3.3528e+08,2995.4,12613,567.13,0,567.13,0,0.00098825,1.9935e-08,0,0.0005224,0.00018459,2.921e+08,4847.6,0,1.4099e+08,2098.7,567.13,1
1960,5.7,12124,1,12124,1,0.00024656,3.6145e-09,0,0.0008758,-4.5092e-05,745.91,1098.5,0,2.5591e+08,2292.7,12123,13104,1,13104,1,0.0019016,7.7529e-08,0,0.0019016,0.00026435,3.606e+08,17120,0,5.7281e+08,11079,13103,12124,1,12124,1,0.0002465,4.7764e-09,0,0.00085808,-4.5281e-05,7.8553e+07,1279.2,0,2.6541e+08,1754.7,12123,11097,1,11097,1,-0.0014083,-8.2046e-08,0,5.9875e-05,-0.00035411,-5.7281e+08,-16239,0,2.0774e+07,-187.93,11096,11634,1,11634,1,-0.00061153,-5.3377e-09,0,0.00042898,-0.00020532,-2.487e+08,-1392.7,0,1.4696e+08,588.91,11633,12614,1,12614,1,0.0011046,1.3255e-08,0,0.001287,0.00011508,2.655e+08,3623.4,0,3.3496e+08,3227.6,12613,567.13,0,567.13,0,0.00099045,2.1285e-08,0,0.00052384,0.00018499,2.9228e+08,5132.1,0,1.4108e+08,2195.7,567.13,1
1960,5.71,12124,1,12124,1,0.00024831,1.5376e-09,0,0.00087792,-4.541e-05,195.72,639.35,0,2.5606e+08,2427.5,12123,13104,1,13104,1,0.001907,8.0119e-08,0,0.001907,0.00026472,3.6019e+08,16841,0,5.736e+08,11430,13103,12124,1,12124,1,0.00024824,3.4884e-09,0,0.00086,-4.56e-05,7.9007e+07,965.48,0,2.6556e+08,1882.7,12123,11097,1,11097,1,-0.0014103,-9.2285e-08,0,5.8813e-05,-0.00035511,-5.736e+08,-18389,0,2.1194e+07,-202.17,11096,11634,1,11634,1,-0.0006117,-7.3243e-09,0,0.00042993,-0.00020599,-2.4877e+08,-1865.6,0,1.474e+08,645.13,11633,12614,1,12614,1,0.0011082,1.1618e-08,0,0.0012899,0.00011512,2.6564e+08,3243.8,0,3.3465e+08,3401.2,12613,567.13,0,567.13,0,0.00099266,2.302e-08,0,0.00052529,0.0001854,2.9246e+08,5400.9,0,1.4117e+08,2283.5,567.13,1
1960,5.72,12124,1,12124,1,0.00025008,7.3804e-10,0,0.00088009,-4.5733e-05,-58.512,491.23,0,2.5623e+08,2403.4,12123,13104,1,13104,1,0.0019126,7.3932e-08,0,0.0019126,0.0002651,3.5979e+08,18800,0,5.7442e+08,11691,13103,12124,1,12124,1,0.00025,2.2392e-09,0,0.00086196,-4.5924e-05,7.9466e+07,610.99,0,2.6573e+08,1751.9,12123,11097,1,11097,1,-0.0014123,-8.944e-08,0,5.7745e-05,-0.00035613,-5.7442e+08,-17584,0,2.1618e+07,-73.324,11096,11634,1,11634,1,-0.00061189,-8.2289e-09,0,0.00043091,-0.00020668,-2.4885e+08,-1977.6,0,1.4785e+08,588.24,11633,12614,1,12614,1,0.0011119,1.0498e-08,0,0.0012928,0.00011515,2.6579e+08,2995.8,0,3.3435e+08,3348.9,12613,567.13,0,567.13,0,0.00099493,2.2041e-08,0,0.00052677,0.00018582,2.9265e+08,5376.7,0,1.4128e+08,2379.7,567.13,1
1960,5.73,12124,1,12124,1,0.00025187,-7.7057e-10,0,0.00088227,-4.6061e-05,297.68,114.08,0,2.5638e+08,2521.3,12123,13104,1,13104,1,0.0019181,7.7456e-08,0,0.0019181,0.00026547,3.5936e+08,19634,0,5.7522e+08,12296,13103,12124,1,12124,1,0.0002518,9.19e-10,0,0.00086392,-4.6252e-05,7.9932e+07,245.15,0,2.6588e+08,1847.5,12123,11097,1,11097,1,-0.0014143,-9.7815e-08,0,5.6647e-05,-0.00035716,-5.7522e+08,-19297,0,2.2051e+07,-111.2,11096,11634,1,11634,1,-0.00061206,-1.0458e-08,0,0.00043188,-0.00020737,-2.4892e+08,-2536.6,0,1.4831e+08,615.33,11633,12614,1,12614,1,0.0011157,9.8286e-09,0,0.0012957,0.00011519,2.6593e+08,2781.2,0,3.3402e+08,3521.4,12613,567.13,0,567.13,0,0.00099718,2.3833e-08,0,0.00052826,0.00018624,2.9284e+08,5749.3,0,1.4138e+08,2498.4,567.13,1
1960,5.74,12124,1,12124,1,0.00025368,1.9451e-09,0,0.00088445,-4.6392e-05,11.985,796.87,0,2.5654e+08,2708.6,12123,13104,1,13104,1,0.0019237,8.4826e-08,0,0.0019237,0.00026585,3.5892e+08,20919,0,5.7604e+08,13131,13103,12124,1,12124,1,0.0002536,3.6888e-09,0,0.00086588,-4.6583e-05,8.0399e+07,973.94,0,2.6603e+08,2030.4,12123,11097,1,11097,1,-0.0014163,-1.0029e-07,0,5.5539e-05,-0.0003582,-5.7604e+08,-19567,0,2.2487e+07,-134.78,11096,11634,1,11634,1,-0.00061221,-8.2808e-09,0,0.00043285,-0.00020806,-2.4898e+08,-2014.3,0,1.4876e+08,689.56,11633,12614,1,12614,1,0.0011195,1.3264e-08,0,0.0012987,0.00011522,2.6606e+08,3693.8,0,3.3368e+08,3793,12613,567.13,0,567.13,0,0.00099946,2.4874e-08,0,0.00052976,0.00018666,2.9302e+08,6074.6,0,1.4147e+08,2635.1,567.13,1
1960,5.75,12124,1,12124,1,0.0002555,-3.4699e-09,0,0.00088663,-4.6725e-05,101.17,-558.97,0,2.5668e+08,2823.3,12123,13104,1,13104,1,0.0019293,8.7342e-08,0,0.0019293,0.00026622,3.5849e+08,21382,0,5.7682e+08,13320,13103,12124,1,12124,1,0.00025542,-1.7529e-09,0,0.00086786,-4.6917e-05,8.0869e+07,-484.73,0,2.6617e+08,2080.9,12123,11097,1,11097,1,-0.0014182,-1.1269e-07,0,5.4412e-05,-0.00035923,-5.7682e+08,-22175,0,2.2138e+07,-173.36,11096,11634,1,11634,1,-0.00061236,-1.5184e-08,0,0.00043385,-0.00020876,-2.4904e+08,-3718,0,1.4921e+08,685.12,11633,12614,1,12614,1,0.0011232,9.1681e-09,0,0.0013016,0.00011525,2.6619e+08,2536.2,0,3.3334e+08,3955,12613,567.13,0,567.13,0,0.0010017,2.7541e-08,0,0.00053126,0.00018708,2.9319e+08,6546.3,0,1.4157e+08,2771.6,567.13,1
1960,5.76,12124,1,12124,1,0.00025734,-2.9192e-09,0,0.00088884,-4.706e-05,-330.78,-495.51,0,2.5683e+08,2979.3,12123,13104,1,13104,1,0.001935,9.241e-08,0,0.001935,0.00026659,3.5804e+08,22568,0,5.7764e+08,14198,13103,12124,1,12124,1,0.00025726,-1.8708e-09,0,0.00086984,-4.7254e-05,8.1343e+07,-499.57,0,2.6632e+08,2194.5,12123,11097,1,11097,1,-0.0014202,-1.152e-07,0,5.3286e-05,-0.00036027,-5.7764e+08,-22549,0,2.1685e+07,-84.351,11096,11634,1,11634,1,-0.00061251,-1.4577e-08,0,0.00043484,-0.00020946,-2.491e+08,-3666.2,0,1.4967e+08,747.6,11633,12614,1,12614,1,0.0011271,9.4306e-09,0,0.0013046,0.00011528,2.6632e+08,2578.1,0,3.33e+08,4175.3,12613,567.13,0,567.13,0,0.001004,2.825e-08,0,0.00053278,0.00018751,2.9337e+08,6774.5,0,1.4167e+08,2912.4,567.13,1
1960,5.77,12124,1,12124,1,0.0002592,-3.6884e-10,0,0.00089107,-4.74e-05,278.37,115.55,0,2.5698e+08,3175.7,12123,13104,1,13104,1,0.0019407,1.025e-07,0,0.0019407,0.00026697,3.5757e+08,24011,0,5.7845e+08,15188,13103,12124,1,12124,1,0.00025912,4.5233e-10,0,0.00087184,-4.7595e-05,8.1821e+07,118.51,0,2.6645e+08,2377.7,12123,11097,1,11097,1,-0.0014222,-1.1953e-07,0,5.2138e-05,-0.00036133,-5.7845e+08,-23210,0,2.1225e+07,-120.29,11096,11634,1,11634,1,-0.00061264,-1.2525e-08,0,0.00043583,-0.00021017,-2.4915e+08,-3156.1,0,1.5013e+08,790.66,11633,12614,1,12614,1,0.0011309,1.2553e-08,0,0.0013076,0.00011531,2.6645e+08,3320.5,0,3.3265e+08,4436.9,12613,567.13,0,567.13,0,0.0010063,2.9763e-08,0,0.00053432,0.00018793,2.9355e+08,7138,0,1.4177e+08,3083.1,567.13,1
1960,5.78,12124,1,12124,1,0.00026109,1.64e-09,0,0.0008933,-4.7743e-05,-262.62,650.57,0,2.5712e+08,3390.6,12123,13104,1,13104,1,0.0019465,1.0896e-07,0,0.0019465,0.00026734,3.571e+08,25419,0,5.7926e+08,16096,13103,12124,1,12124,1,0.00026099,3.1535e-09,0,0.00087384,-4.7937e-05,8.2301e+07,811.62,0,2.6657e+08,2640.5,12123,11097,1,11097,1,-0.0014242,-1.2719e-07,0,5.0969e-05,-0.00036239,-5.7926e+08,-24557,0,2.0757e+07,-132.53,11096,11634,1,11634,1,-0.00061276,-1.112e-08,0,0.00043682,-0.00021088,-2.492e+08,-2830.9,0,1.5059e+08,925.15,11633,12614,1,12614,1,0.0011348,1.5741e-08,0,0.0013106,0.00011534,2.6657e+08,4200.4,0,3.3237e+08,4707.3,12613,567.13,0,567.13,0,0.0010086,3.1795e-08,0,0.00053586,0.00018836,2.9372e+08,7581.4,0,1.4187e+08,3201.4,567.13,1
1960,5.79,12124,1,12124,1,0.00026299,-6.1187e-10,0,0.00089555,-4.809e-05,-81.917,130.21,0,2.5727e+08,3544.4,12123,13104,1,13104,1,0.0019523,1.1198e-07,0,0.0019523,0.00026772,3.5663e+08,27240,0,5.8007e+08,16724,13103,12124,1,12124,1,0.00026289,5.6696e-10,0,0.00087586,-4.8284e-05,8.2785e+07,145.57,0,2.667e+08,2730.4,12123,11097,1,11097,1,-0.0014262,-1.3476e-07,0,4.9788e-05,-0.00036346,-5.8007e+08,-25897,0,2.0285e+07,-103.39,11096,11634,1,11634,1,-0.00061288,-1.4261e-08,0,0.00043783,-0.0002116,-2.4925e+08,-3517.9,0,1.5105e+08,911.66,11633,12614,1,12614,1,0.0011387,1.4324e-08,0,0.0013136,0.00011537,2.667e+08,3801.7,0,3.3228e+08,4958,12613,567.13,0,567.13,0,0.001011,3.3446e-08,0,0.00053743,0.00018879,2.939e+08,8032.2,0,1.4197e+08,3380,567.13,1
1960,5.8,12124,1,12124,1,0.00026491,6.3058e-10,0,0.00089782,-4.8441e-05,-333.06,470.79,0,2.5741e+08,3800.8,12123,13104,1,13104,1,0.0019582,1.1994e-07,0,0.0019582,0.0002681,3.5615e+08,29275,0,5.809e+08,17713,13103,12124,1,12124,1,0.0002648,2.6396e-09,0,0.0008779,-4.8635e-05,8.3273e+07,687.48,0,2.6682e+08,2946.5,12123,11097,1,11097,1,-0.0014282,-1.4404e-07,0,4.8591e-05,-0.00036454,-5.809e+08,-27580,0,1.9808e+07,-13.053,11096,11634,1,11634,1,-0.000613,-1.4187e-08,0,0.00043884,-0.00021232,-2.493e+08,-3537.6,0,1.5152e+08,985.37,11633,12614,1,12614,1,0.0011427,1.6783e-08,0,0.0013167,0.00011539,2.6682e+08,4552.4,0,3.3218e+08,5301.9,12613,567.13,0,567.13,0,0.0010133,3.5857e-08,0,0.00053901,0.00018923,2.9407e+08,8679.3,0,1.4207e+08,3605.5,567.13,1
1960,5.81,12124,1,12124,1,0.00026685,7.2362e-10,0,0.00090008,-4.8795e-05,-68.865,516.97,0,2.5754e+08,4072.3,12123,13104,1,13104,1,0.001964,1.3375e-07,0,0.001964,0.00026847,3.5565e+08,30662,0,5.8169e+08,18248,13103,12124,1,12124,1,0.00026674,2.4489e-09,0,0.00087993,-4.8989e-05,8.3765e+07,654.84,0,2.6693e+08,3271.3,12123,11097,1,11097,1,-0.0014302,-1.5575e-07,0,4.737e-05,-0.00036562,-5.8169e+08,-29811,0,1.9322e+07,-122.97,11096,11634,1,11634,1,-0.00061309,-1.5895e-08,0,0.00043985,-0.00021305,-2.4933e+08,-3943.3,0,1.5199e+08,1113.1,11633,12614,1,12614,1,0.0011466,1.8926e-08,0,0.0013197,0.00011541,2.6693e+08,5008.7,0,3.3207e+08,5715.2,12613,567.13,0,567.13,0,0.0010157,3.9775e-08,0,0.00054059,0.00018966,2.9423e+08,9358.7,0,1.4217e+08,3734,567.13,1
1960,5.82,12124,1,12124,1,0.00026881,-3.4113e-09,0,0.00090239,-4.9153e-05,-484.86,-522.87,0,2.5768e+08,4271.6,12123,13104,1,13104,1,0.00197,1.3551e-07,0,0.00197,0.00026886,3.5517e+08,31914,0,5.8252e+08,19356,13103,12124,1,12124,1,0.00026869,-1.7976e-09,0,0.00088201,-4.9347e-05,8.4261e+07,-471.04,0,2.6704e+08,3369.9,12123,11097,1,11097,1,-0.0014322,-1.6792e-07,0,4.6148e-05,-0.00036672,-5.8252e+08,-32230,0,1.8837e+07,-62.283,11096,11634,1,11634,1,-0.0006132,-2.0853e-08,0,0.00044088,-0.00021379,-2.4938e+08,-5234,0,1.5246e+08,1144,11633,12614,1,12614,1,0.0011507,1.5513e-08,0,0.0013228,0.00011544,2.6704e+08,4103.9,0,3.3197e+08,5992.3,12613,567.13,0,567.13,0,0.001018,4.1766e-08,0,0.00054221,0.0001901,2.9441e+08,9836.5,0,1.4227e+08,3972,567.13,1
1960,5.83,12124,1,12124,1,0.00027079,2.7924e-09,0,0.00090467,-4.9514e-05,-799.44,1043.5,0,2.5781e+08,4661.7,12123,13104,1,13104,1,0.0019759,1.5459e-07,0,0.0019759,0.00026923,3.5463e+08,33746,0,5.8332e+08,20962,13103,12124,1,12124,1,0.00027066,5.0205e-09,0,0.00088404,-4.9706e-05,8.4757e+07,1320.4,0,2.6715e+08,3777.8,12123,11097,1,11097,1,-0.0014342,-1.7701e-07,0,4.4896e-05,-0.00036781,-5.8332e+08,-33743,0,1.8341e+07,-123.46,11096,11634,1,11634,1,-0.00061326,-1.5324e-08,0,0.00044188,-0.00021453,-2.494e+08,-3954.3,0,1.5293e+08,1350.8,11633,12614,1,12614,1,0.0011547,2.3221e-08,0,0.0013258,0.00011546,2.6715e+08,6177.9,0,3.3184e+08,6500.5,12613,567.13,0,567.13,0,0.0010204,4.4966e-08,0,0.00054382,0.00019054,2.9456e+08,10476,0,1.4237e+08,4223.1,567.13,1
1960,5.84,12124,1,12124,1,0.00027279,-1.1299e-09,0,0.00090702,-4.988e-05,827.71,160.58,0,2.5795e+08,4761,12123,13104,1,13104,1,0.001982,1.5359e-07,0,0.001982,0.00026961,3.5415e+08,35880,0,5.8415e+08,21533,13103,12124,1,12124,1,0.00027266,1.3171e-09,0,0.00088615,-5.0072e-05,8.5262e+07,337.46,0,2.6726e+08,3772.8,12123,11097,1,11097,1,-0.0014362,-1.8729e-07,0,4.3641e-05,-0.00036893,-5.8415e+08,-35586,0,1.7846e+07,-230,11096,11634,1,11634,1,-0.00061336,-2.036e-08,0,0.00044293,-0.00021528,-2.4944e+08,-4998.4,0,1.5341e+08,1262.1,11633,12614,1,12614,1,0.0011588,1.9852e-08,0,0.001329,0.00011548,2.6726e+08,5311.2,0,3.3174e+08,6690.2,12613,567.13,0,567.13,0,0.0010228,4.6569e-08,0,0.00054546,0.00019099,2.9474e+08,10933,0,1.4247e+08,4451.7,567.13,1
1960,5.85,12124,1,12124,1,0.00027482,1.0287e-09,0,0.00090935,-5.0251e-05,364.8,703.92,0,2.5807e+08,5073.5,12123,13104,1,13104,1,0.0019881,1.6434e-07,0,0.0019881,0.00026999,3.536e+08,37655,0,5.8496e+08,22875,13103,12124,1,12124,1,0.00027468,3.9242e-09,0,0.00088823,-5.0442e-05,8.5769e+07,1030.7,0,2.6736e+08,4032.8,12123,11097,1,11097,1,-0.0014382,-2.0106e-07,0,4.235e-05,-0.00037005,-5.8496e+08,-38132,0,1.7338e+07,-427.64,11096,11634,1,11634,1,-0.00061341,-1.8598e-08,0,0.00044396,-0.00021603,-2.4946e+08,-4595.4,0,1.5388e+08,1369.8,11633,12614,1,12614,1,0.0011629,2.443e-08,0,0.0013321,0.00011549,2.6736e+08,6507.5,0,3.316e+08,7136.5,12613,567.13,0,567.13,0,0.0010252,5.0471e-08,0,0.00054711,0.00019143,2.9489e+08,11777,0,1.4257e+08,4704.1,567.13,1
1960,5.86,12124,1,12124,1,0.00027688,1.5684e-09,0,0.00091172,-5.0626e-05,247.1,935.16,0,2.582e+08,5324.3,12123,13104,1,13104,1,0.0019942,1.7341e-07,0,0.0019942,0.00027038,3.5308e+08,40996,0,5.858e+08,23860,13103,12124,1,12124,1,0.00027672,4.3514e-09,0,0.00089035,-5.0815e-05,8.628e+07,1120.5,0,2.6747e+08,4222.4,12123,11097,1,11097,1,-0.0014403,-2.0779e-07,0,4.1052e-05,-0.00037119,-5.858e+08,-39006,0,1.6829e+07,-406.96,11096,11634,1,11634,1,-0.00061348,-1.9413e-08,0,0.00044501,-0.00021679,-2.4949e+08,-4768.5,0,1.5436e+08,1423.4,11633,12614,1,12614,1,0.001167,2.5791e-08,0,0.0013352,0.00011551,2.6747e+08,6993.4,0,3.3148e+08,7527.1,12613,567.13,0,567.13,0,0.0010277,5.2638e-08,0,0.0005488,0.00019189,2.9506e+08,12391,0,1.4268e+08,4959,567.13,1
1960,5.87,12124,1,12124,1,0.00027896,9.7192e-10,0,0.00091411,-5.1007e-05,374,864.33,0,2.5833e+08,5666.1,12123,13104,1,13104,1,0.0020005,1.8433e-07,0,0.0020005,0.00027076,3.5253e+08,44417,0,5.8663e+08,25056,13103,12124,1,12124,1,0.00027879,4.5391e-09,0,0.00089249,-5.1194e-05,8.6798e+07,1183.3,0,2.6756e+08,4455.3,12123,11097,1,11097,1,-0.0014423,-2.2101e-07,0,3.9723e-05,-0.00037234,-5.8663e+08,-41262,0,1.631e+07,-117.78,11096,11634,1,11634,1,-0.00061353,-2.1878e-08,0,0.00044606,-0.00021757,-2.4951e+08,-5338.1,0,1.5485e+08,1464.8,11633,12614,1,12614,1,0.0011712,2.7072e-08,0,0.0013384,0.00011552,2.6756e+08,7332.1,0,3.3134e+08,8041.3,12613,567.13,0,567.13,0,0.0010302,5.6004e-08,0,0.0005505,0.00019234,2.9522e+08,13277,0,1.4278e+08,5278.5,567.13,1
1960,5.88,12124,1,12124,1,0.00028108,6.9281e-10,0,0.00091653,-5.1393e-05,207.69,876.52,0,2.5845e+08,6077.6,12123,13104,1,13104,1,0.0020068,1.9683e-07,0,0.0020068,0.00027115,3.5198e+08,47321,0,5.8746e+08,26425,13103,12124,1,12124,1,0.00028089,4.4884e-09,0,0.00089465,-5.1577e-05,8.7321e+07,1152,0,2.6766e+08,4865.9,12123,11097,1,11097,1,-0.0014444,-2.4031e-07,0,3.8375e-05,-0.0003735,-5.8746e+08,-44739,0,1.5785e+07,-153.02,11096,11634,1,11634,1,-0.00061358,-2.4585e-08,0,0.00044712,-0.00021834,-2.4953e+08,-5871.4,0,1.5534e+08,1586.6,11633,12614,1,12614,1,0.0011755,2.9345e-08,0,0.0013416,0.00011554,2.6766e+08,7956.9,0,3.312e+08,8665.6,12613,567.13,0,567.13,0,0.0010326,6.0775e-08,0,0.00055222,0.0001928,2.9538e+08,14341,0,1.4289e+08,5584,567.13,1
1960,5.89,12124,1,12124,1,0.00028322,2.7552e-09,0,0.00091897,-5.1783e-05,-165.99,1488.9,0,2.5857e+08,6502.3,12123,13104,1,13104,1,0.0020132,2.1224e-07,0,0.0020132,0.00027154,3.5141e+08,51082,0,5.883e+08,28014,13103,12124,1,12124,1,0.00028301,7.1094e-09,0,0.00089683,-5.1965e-05,8.7848e+07,1857.9,0,2.6775e+08,5245.8,12123,11097,1,11097,1,-0.0014464,-2.565e-07,0,3.7005e-05,-0.00037468,-5.883e+08,-47524,0,1.5254e+07,-262.96,11096,11634,1,11634,1,-0.00061361,-2.467e-08,0,0.00044819,-0.00021913,-2.4954e+08,-5822.3,0,1.5583e+08,1753.5,11633,12614,1,12614,1,0.0011798,3.4296e-08,0,0.0013448,0.00011555,2.6775e+08,9345.4,0,3.3105e+08,9266.3,12613,567.13,0,567.13,0,0.0010352,6.5488e-08,0,0.00055396,0.00019327,2.9553e+08,15468,0,1.4299e+08,5914.3,567.13,1
1960,5.9,12124,1,12124,1,0.00028539,-3.8114e-09,0,0.00092143,-5.2179e-05,-1059.3,-63.591,0,2.5869e+08,7015.9,12123,13104,1,13104,1,0.0020196,2.2497e-07,0,0.0020196,0.00027193,3.5085e+08,53963,0,5.8914e+08,29263,13103,12124,1,12124,1,0.00028517,2.9739e-10,0,0.00089904,-5.2358e-05,8.8382e+07,69.789,0,2.6784e+08,5742.4,12123,11097,1,11097,1,-0.0014485,-2.8175e-07,0,3.561e-05,-0.00037586,-5.8914e+08,-52119,0,1.4717e+07,-6.3915,11096,11634,1,11634,1,-0.00061365,-3.4611e-08,0,0.00044928,-0.00021993,-2.4956e+08,-8318.6,0,1.561e+08,1921.1,11633,12614,1,12614,1,0.0011841,3.0382e-08,0,0.0013481,0.00011556,2.6784e+08,8244,0,3.3089e+08,9961.1,12613,567.13,0,567.13,0,0.0010377,7.123e-08,0,0.00055572,0.00019374,2.9569e+08,16701,0,1.431e+08,6285.5,567.13,1
1960,5.91,12124,1,12124,1,0.00028759,-3.1828e-09,0,0.00092391,-5.2581e-05,-332.2,100.64,0,2.5881e+08,7496.5,12123,13104,1,13104,1,0.0020261,2.4553e-07,0,0.0020261,0.00027232,3.5026e+08,57753,0,5.8998e+08,31028,13103,12124,1,12124,1,0.00028736,1.0094e-09,0,0.00090125,-5.2758e-05,8.8923e+07,248.75,0,2.6792e+08,6183.1,12123,11097,1,11097,1,-0.0014506,-3.0096e-07,0,3.4191e-05,-0.00037706,-5.8998e+08,-55481,0,1.4172e+07,6.5792,11096,11634,1,11634,1,-0.00061367,-3.6335e-08,0,0.00045037,-0.00022074,-2.4956e+08,-8824.1,0,1.5626e+08,2058.6,11633,12614,1,12614,1,0.0011885,3.3648e-08,0,0.0013514,0.00011557,2.6792e+08,9041.5,0,3.3073e+08,10679,12613,567.13,0,567.13,0,0.0010402,7.677e-08,0,0.00055751,0.00019421,2.9584e+08,17947,0,1.432e+08,6671.8,567.13,1
1960,5.92,12124,1,12124,1,0.00028983,-2.8524e-09,0,0.00092643,-5.299e-05,318.53,184.21,0,2.5892e+08,7988.7,12123,13104,1,13104,1,0.0020327,2.6485e-07,0,0.0020327,0.00027272,3.4966e+08,62183,0,5.9084e+08,32767,13103,12124,1,12124,1,0.00028958,1.6469e-09,0,0.0009035,-5.3163e-05,8.9471e+07,450.05,0,2.6801e+08,6651.2,12123,11097,1,11097,1,-0.0014527,-3.1932e-07,0,3.2749e-05,-0.00037827,-5.9084e+08,-58539,0,1.3622e+07,-49.619,11096,11634,1,11634,1,-0.00061367,-3.873e-08,0,0.00045147,-0.00022156,-2.4956e+08,-9438.5,0,1.5643e+08,2156,11633,12614,1,12614,1,0.001193,3.6715e-08,0,0.0013547,0.00011558,2.6801e+08,9710.9,0,3.3057e+08,11418,12613,567.13,0,567.13,0,0.0010428,8.2283e-08,0,0.00055932,0.00019469,2.96e+08,19286,0,1.4331e+08,7075.9,567.13,1
1960,5.93,12124,1,12124,1,0.0002921,-5.1718e-09,0,0.00092897,-5.3404e-05,143.21,-384.69,0,2.5904e+08,8587,12123,13104,1,13104,1,0.0020394,2.8476e-07,0,0.0020394,0.00027312,3.4905e+08,66739,0,5.917e+08,34765,13103,12124,1,12124,1,0.00029184,-1.2411e-09,0,0.00090577,-5.3574e-05,9.0025e+07,-347.1,0,2.6809e+08,7269.5,12123,11097,1,11097,1,-0.0014548,-3.4399e-07,0,3.128e-05,-0.0003795,-5.917e+08,-62794,0,1.3064e+07,-58.692,11096,11634,1,11634,1,-0.00061367,-4.4791e-08,0,0.00045259,-0.00022238,-2.4956e+08,-10979,0,1.566e+08,2365.4,11633,12614,1,12614,1,0.0011975,3.7334e-08,0,0.0013581,0.00011558,2.6809e+08,9904.9,0,3.3039e+08,12249,12613,567.13,0,567.13,0,0.0010454,8.8812e-08,0,0.00056116,0.00019517,2.9615e+08,20825,0,1.4342e+08,7520.8,567.13,1
1960,5.94,12124,1,12124,1,0.0002944,-1.2509e-09,0,0.00093153,-5.3824e-05,-216.57,590.44,0,2.5914e+08,9280.5,12123,13104,1,13104,1,0.0020461,3.1163e-07,0,0.0020461,0.00027351,3.4842e+08,71266,0,5.9255e+08,37186,13103,12124,1,12124,1,0.00029412,3.5579e-09,0,0.00090805,-5.399e-05,9.0583e+07,921.11,0,2.6816e+08,7989.8,12123,11097,1,11097,1,-0.0014569,-3.7259e-07,0,2.9781e-05,-0.00038074,-5.9255e+08,-67789,0,1.2498e+07,-104.95,11096,11634,1,11634,1,-0.00061364,-4.3751e-08,0,0.0004537,-0.00022322,-2.4955e+08,-10702,0,1.5676e+08,2609.3,11633,12614,1,12614,1,0.001202,4.5823e-08,0,0.0013615,0.00011558,2.6816e+08,12135,0,3.302e+08,13184,12613,567.13,0,567.13,0,0.0010481,9.7103e-08,0,0.00056302,0.00019566,2.9629e+08,22520,0,1.4353e+08,8003,567.13,1
1960,5.95,12124,1,12124,1,0.00029674,-6.598e-09,0,0.00093413,-5.4251e-05,69.595,-670.14,0,2.5925e+08,9960.4,12123,13104,1,13104,1,0.002053,3.3522e-07,0,0.002053,0.00027391,3.478e+08,76445,0,5.9341e+08,39155,13103,12124,1,12124,1,0.00029644,-3.6886e-09,0,0.00091038,-5.4412e-05,9.1149e+07,-979.31,0,2.6823e+08,8621.7,12123,11097,1,11097,1,-0.001459,-4.034e-07,0,2.826e-05,-0.000382,-5.9341e+08,-73152,0,1.1926e+07,-24.325,11096,11634,1,11634,1,-0.00061363,-5.3244e-08,0,0.00045485,-0.00022407,-2.4955e+08,-13175,0,1.5693e+08,2797.2,11633,12614,1,12614,1,0.0012067,4.4284e-08,0,0.0013649,0.00011559,2.6823e+08,11599,0,3.3001e+08,14205,12613,567.13,0,567.13,0,0.0010507,1.0485e-07,0,0.00056492,0.00019615,2.9644e+08,24296,0,1.4364e+08,8519.7,567.13,1
1960,5.96,12124,1,12124,1,0.00029912,-5.5998e-09,0,0.00093675,-5.4684e-05,200.15,-472.6,0,2.5936e+08,10719,12123,13104,1,13104,1,0.0020599,3.6545e-07,0,0.0020599,0.00027431,3.4715e+08,81595,0,5.9428e+08,41729,13103,12124,1,12124,1,0.00029881,-2.1702e-09,0,0.00091272,-5.4842e-05,9.1723e+07,-544.6,0,2.683e+08,9287.4,12123,11097,1,11097,1,-0.0014611,-4.3373e-07,0,2.6708e-05,-0.00038328,-5.9428e+08,-78407,0,1.1345e+07,-27.028,11096,11634,1,11634,1,-0.00061359,-5.6468e-08,0,0.000456,-0.00022493,-2.4953e+08,-13995,0,1.571e+08,3050.5,11633,12614,1,12614,1,0.0012114,4.9197e-08,0,0.0013684,0.00011559,2.683e+08,12932,0,3.2981e+08,15273,12613,567.13,0,567.13,0,0.0010534,1.1357e-07,0,0.00056684,0.00019665,2.9659e+08,26177,0,1.4375e+08,9082.8,567.13,1
1960,5.97,12124,1,12124,1,0.00030154,-2.9174e-09,0,0.00093943,-5.5126e-05,14.374,174.41,0,2.5946e+08,11484,12123,13104,1,13104,1,0.002067,3.9567e-07,0,0.002067,0.00027473,3.4648e+08,87745,0,5.9517e+08,44657,13103,12124,1,12124,1,0.00030121,2.313e-09,0,0.00091509,-5.5277e-05,9.2304e+07,595.85,0,2.6836e+08,10052,12123,11097,1,11097,1,-0.0014633,-4.6164e-07,0,2.5126e-05,-0.00038458,-5.9517e+08,-82958,0,1.0757e+07,-39.1,11096,11634,1,11634,1,-0.00061354,-5.8081e-08,0,0.00045716,-0.0002258,-2.4951e+08,-14253,0,1.5726e+08,3259.8,11633,12614,1,12614,1,0.0012161,5.6498e-08,0,0.0013719,0.00011559,2.6836e+08,14686,0,3.2962e+08,16503,12613,567.13,0,567.13,0,0.0010562,1.2195e-07,0,0.00056879,0.00019716,2.9674e+08,28129,0,1.4387e+08,9689.7,567.13,1
1960,5.98,12124,1,12124,1,0.00030401,-5.9195e-09,0,0.00094213,-5.5575e-05,-125.23,-514.87,0,2.5956e+08,12411,12123,13104,1,13104,1,0.0020741,4.2766e-07,0,0.0020741,0.00027514,3.4581e+08,94327,0,5.9605e+08,47159,13103,12124,1,12124,1,0.00030365,-2.6449e-09,0,0.00091751,-5.5721e-05,9.2894e+07,-699,0,2.6842e+08,10904,12123,11097,1,11097,1,-0.0014655,-5.0136e-07,0,2.3505e-05,-0.0003859,-5.9605e+08,-89766,0,1.0157e+07,39.85,11096,11634,1,11634,1,-0.00061349,-6.6325e-08,0,0.00045834,-0.00022669,-2.4949e+08,-16444,0,1.5743e+08,3546.6,11633,12614,1,12614,1,0.001221,5.9293e-08,0,0.0013755,0.00011558,2.6842e+08,15144,0,3.2943e+08,17821,12613,567.13,0,567.13,0,0.001059,1.3277e-07,0,0.00057079,0.00019767,2.9688e+08,30526,0,1.4399e+08,10346,567.13,1
1960,5.99,12124,1,12124,1,0.00030652,-7.0737e-09,0,0.00094488,-5.6034e-05,605.9,-828.43,0,2.5966e+08,13343,12123,13104,1,13104,1,0.0020814,4.6323e-07,0,0.0020814,0.00027555,3.4512e+08,1.0132e+05,0,5.9695e+08,50341,13103,12124,1,12124,1,0.00030614,-4.0211e-09,0,0.00091996,-5.6173e-05,9.3494e+07,-990.01,0,2.6848e+08,11825,12123,11097,1,11097,1,-0.0014677,-5.4106e-07,0,2.1848e-05,-0.00038724,-5.9695e+08,-96499,0,9.5462e+06,15.594,11096,11634,1,11634,1,-0.00061341,-7.3032e-08,0,0.00045953,-0.00022759,-2.4946e+08,-18221,0,1.5759e+08,3813.9,11633,12614,1,12614,1,0.0012259,6.3708e-08,0,0.0013791,0.00011558,2.6848e+08,16081,0,3.2929e+08,19257,12613,567.13,0,567.13,0,0.0010618,1.4382e-07,0,0.00057281,0.00019819,2.9702e+08,33061,0,1.441e+08,11079,567.13,1
1960,6,12124,1,12124,1,0.00030907,-9.087e-09,0,0.00094765,-5.6498e-05,-3.3417,-1379.8,0,2.5975e+08,14504,12123,13104,1,13104,1,0.0020888,5.0871e-07,0,0.0020888,0.00027597,3.4442e+08,1.0872e+05,0,5.9784e+08,53414,13103,12124,1,12124,1,0.00030868,-8.0134e-09,0,0.00092244,-5.6632e-05,9.4101e+07,-2069.4,0,2.6853e+08,12973,12123,11097,1,11097,1,-0.0014699,-5.8578e-07,0,2.0158e-05,-0.0003886,-5.9784e+08,-1.0416e+05,0,8.926e+06,-47.874,11096,11634,1,11634,1,-0.00061332,-8.2066e-08,0,0.00046074,-0.0002285,-2.4942e+08,-20501,0,1.5775e+08,4176.7,11633,12614,1,12614,1,0.0012309,6.8282e-08,0,0.0013827,0.00011557,2.6853e+08,17111,0,3.2907e+08,21060,12613,567.13,0,567.13,0,0.0010646,1.571e-07,0,0.00057486,0.00019871,2.9716e+08,35901,0,1.4422e+08,11872,567.13,1
1960,6.01,12124,1,12124,1,0.00031168,-7.2882e-09,0,0.00095048,-5.6973e-05,887.28,-1052.4,0,2.5985e+08,15580,12123,13104,1,13104,1,0.0020963,5.5359e-07,0,0.0020963,0.0002764,3.437e+08,1.1718e+05,0,5.9876e+08,57270,13103,12124,1,12124,1,0.00031126,-5.7058e-09,0,0.00092496,-5.71e-05,9.4718e+07,-1488.9,0,2.6858e+08,13996,12123,11097,1,11097,1,-0.0014722,-6.2863e-07,0,1.8435e-05,-0.00038999,-5.9876e+08,-1.1114e+05,0,8.2961e+06,-49.524,11096,11634,1,11634,1,-0.00061323,-8.65e-08,0,0.00046197,-0.00022944,-2.4938e+08,-21771,0,1.5792e+08,4498.1,11633,12614,1,12614,1,0.001236,7.6599e-08,0,0.0013865,0.00011556,2.6858e+08,19165,0,3.2884e+08,22553,12613,567.13,0,567.13,0,0.0010675,1.7012e-07,0,0.00057697,0.00019925,2.9731e+08,38832,0,1.4434e+08,12716,567.13,1
1960,6.02,12124,1,12124,1,0.00031434,-5.459e-09,0,0.00095336,-5.7458e-05,310.57,-639.61,0,2.5994e+08,16879,12123,13104,1,13104,1,0.002104,6.0735e-07,0,0.002104,0.00027683,3.4296e+08,1.2658e+05,0,5.9969e+08,61371,13103,12124,1,12124,1,0.00031389,-4.1377e-09,0,0.00092752,-5.7576e-05,9.5345e+07,-1111.8,0,2.6863e+08,15314,12123,11097,1,11097,1,-0.0014744,-6.7982e-07,0,1.6666e-05,-0.0003914,-5.9969e+08,-1.196e+05,0,7.6514e+06,12.467,11096,11634,1,11634,1,-0.00061313,-9.1613e-08,0,0.00046321,-0.00023038,-2.4934e+08,-23171,0,1.5809e+08,4915.8,11633,12614,1,12614,1,0.0012412,8.5883e-08,0,0.0013902,0.00011555,2.6863e+08,21485,0,3.286e+08,24545,12613,567.13,0,567.13,0,0.0010705,1.8562e-07,0,0.00057912,0.00019979,2.9745e+08,42179,0,1.4446e+08,13639,567.13,1
1960,6.03,12124,1,12124,1,0.00031707,-5.5925e-09,0,0.0009563,-5.7953e-05,-252.87,-676.65,0,2.6003e+08,18303,12123,13104,1,13104,1,0.0021119,6.6206e-07,0,0.0021119,0.00027726,3.422e+08,1.3704e+05,0,6.0063e+08,65418,13103,12124,1,12124,1,0.00031658,-4.974e-09,0,0.00093014,-5.8061e-05,9.5982e+07,-1283.6,0,2.6867e+08,16812,12123,11097,1,11097,1,-0.0014768,-7.3757e-07,0,1.4851e-05,-0.00039285,-6.0063e+08,-1.2916e+05,0,6.9926e+06,83.907,11096,11634,1,11634,1,-0.00061301,-9.9954e-08,0,0.00046447,-0.00023135,-2.4929e+08,-25363,0,1.5825e+08,5375.9,11633,12614,1,12614,1,0.0012465,9.4697e-08,0,0.0013941,0.00011554,2.6867e+08,23726,0,3.2836e+08,26716,12613,567.13,0,567.13,0,0.0010735,2.0268e-07,0,0.00058131,0.00020035,2.9759e+08,45897,0,1.4459e+08,14640,567.13,1
1960,6.04,12124,1,12124,1,0.00031985,-4.7846e-09,0,0.00095929,-5.846e-05,107.38,-483.12,0,2.6012e+08,19796,12123,13104,1,13104,1,0.0021199,7.2067e-07,0,0.0021199,0.00027771,3.4143e+08,1.485e+05,0,6.0158e+08,70127,13103,12124,1,12124,1,0.00031933,-2.7643e-09,0,0.0009328,-5.8557e-05,9.6632e+07,-704.43,0,2.6871e+08,18192,12123,11097,1,11097,1,-0.0014791,-8.0116e-07,0,1.2986e-05,-0.00039433,-6.0158e+08,-1.3962e+05,0,6.3175e+06,82.368,11096,11634,1,11634,1,-0.00061288,-1.0922e-07,0,0.00046574,-0.00023233,-2.4924e+08,-27446,0,1.5842e+08,5849.8,11633,12614,1,12614,1,0.0012518,1.0585e-07,0,0.001398,0.00011552,2.6871e+08,26430,0,3.281e+08,28961,12613,567.13,0,567.13,0,0.0010765,2.2113e-07,0,0.00058356,0.00020091,2.9773e+08,49999,0,1.4472e+08,15748,567.13,1
1960,6.05,12124,1,12124,1,0.00032271,-4.069e-09,0,0.00096234,-5.8978e-05,312.89,-283.92,0,2.6021e+08,21544,12123,13104,1,13104,1,0.0021281,7.9489e-07,0,0.0021281,0.00027816,3.4064e+08,1.6111e+05,0,6.0255e+08,75140,13103,12124,1,12124,1,0.00032214,-2.1479e-09,0,0.00093552,-5.9063e-05,9.7294e+07,-553.76,0,2.6874e+08,19933,12123,11097,1,11097,1,-0.0014815,-8.7356e-07,0,1.1068e-05,-0.00039584,-6.0255e+08,-1.5153e+05,0,5.626e+06,102.81,11096,11634,1,11634,1,-0.00061273,-1.1948e-07,0,0.00046704,-0.00023334,-2.4917e+08,-30067,0,1.5858e+08,6462.6,11633,12614,1,12614,1,0.0012573,1.1768e-07,0,0.0014019,0.0001155,2.6874e+08,29560,0,3.2783e+08,31600,12613,567.13,0,567.13,0,0.0010796,2.43e-07,0,0.00058586,0.00020149,2.9787e+08,54637,0,1.4485e+08,16971,567.13,1
1960,6.06,12124,1,12124,1,0.00032564,-3.7627e-09,0,0.00096545,-5.9508e-05,238.55,-160.92,0,2.6029e+08,23416,12123,13104,1,13104,1,0.0021365,8.6752e-07,0,0.0021365,0.00027861,3.3983e+08,1.7536e+05,0,6.0353e+08,80219,13103,12124,1,12124,1,0.00032501,-9.8646e-10,0,0.00093829,-5.958e-05,9.7968e+07,-237.78,0,2.6876e+08,21814,12123,11097,1,11097,1,-0.0014839,-9.5206e-07,0,9.0962e-06,-0.00039738,-6.0353e+08,-1.6431e+05,0,4.9165e+06,179.06,11096,11634,1,11634,1,-0.00061256,-1.3001e-07,0,0.00046835,-0.00023436,-2.491e+08,-32886,0,1.5875e+08,6992.3,11633,12614,1,12614,1,0.0012629,1.308e-07,0,0.0014059,0.00011548,2.6876e+08,32745,0,3.2755e+08,34469,12613,567.13,0,567.13,0,0.0010828,2.6609e-07,0,0.00058821,0.00020207,2.98e+08,59695,0,1.4499e+08,18317,567.13,1
1960,6.07,12124,1,12124,1,0.00032863,-5.0902e-09,0,0.00096863,-6.005e-05,94.809,-400.55,0,2.6037e+08,25543,12123,13104,1,13104,1,0.0021451,9.4867e-07,0,0.0021451,0.00027908,3.3901e+08,1.9069e+05,0,6.0453e+08,85998,13103,12124,1,12124,1,0.00032796,-1.8851e-09,0,0.00094113,-6.0108e-05,9.8655e+07,-477.78,0,2.6879e+08,24075,12123,11097,1,11097,1,-0.0014864,-1.0451e-06,0,7.0708e-06,-0.00039897,-6.0453e+08,-1.7956e+05,0,4.1888e+06,124.96,11096,11634,1,11634,1,-0.00061239,-1.4447e-07,0,0.00046969,-0.00023541,-2.4903e+08,-36356,0,1.5892e+08,7675.2,11633,12614,1,12614,1,0.0012687,1.4285e-07,0,0.00141,0.00011546,2.6879e+08,36050,0,3.2727e+08,37738,12613,567.13,0,567.13,0,0.0010861,2.929e-07,0,0.00059063,0.00020267,2.9814e+08,65412,0,1.4512e+08,19793,567.13,1
1960,6.08,12124,1,12124,1,0.00033172,-5.3316e-09,0,0.0009719,-6.0608e-05,248.51,-400.29,0,2.6045e+08,27857,12123,13104,1,13104,1,0.002154,1.0449e-06,0,0.002154,0.00027955,3.3817e+08,2.0802e+05,0,6.0556e+08,92221,13103,12124,1,12124,1,0.00033098,-3.6223e-09,0,0.00094404,-6.065e-05,9.9359e+07,-881.16,0,2.6881e+08,26356,12123,11097,1,11097,1,-0.0014889,-1.1434e-06,0,4.9793e-06,-0.0004006,-6.0556e+08,-1.9546e+05,0,3.4383e+06,213.53,11096,11634,1,11634,1,-0.0006122,-1.601e-07,0,0.00047106,-0.00023648,-2.4896e+08,-40056,0,1.5909e+08,8323.5,11633,12614,1,12614,1,0.0012746,1.5773e-07,0,0.0014142,0.00011544,2.6881e+08,39503,0,3.2698e+08,41359,12613,567.13,0,567.13,0,0.0010894,3.2246e-07,0,0.00059312,0.00020329,2.9828e+08,71698,0,1.4527e+08,21403,567.13,1
1960,6.09,12124,1,12124,1,0.0003349,-3.3571e-09,0,0.00097525,-6.1182e-05,-557.17,164.86,0,2.6053e+08,30429,12123,13104,1,13104,1,0.0021631,1.1476e-06,0,0.0021631,0.00028004,3.3729e+08,2.2753e+05,0,6.0661e+08,98943,13103,12124,1,12124,1,0.00033408,5.7764e-10,0,0.00094703,-6.1205e-05,1.0008e+08,160,0,2.6882e+08,28858,12123,11097,1,11097,1,-0.0014915,-1.2515e-06,0,2.8196e-06,-0.00040227,-6.0661e+08,-2.1279e+05,0,2.6645e+06,296.81,11096,11634,1,11634,1,-0.000612,-1.7472e-07,0,0.00047245,-0.00023758,-2.4887e+08,-43427,0,1.5926e+08,9138.7,11633,12614,1,12614,1,0.0012806,1.773e-07,0,0.0014185,0.00011541,2.6882e+08,44432,0,3.2667e+08,45287,12613,567.13,0,567.13,0,0.0010928,3.5485e-07,0,0.00059568,0.00020392,2.9842e+08,78669,0,1.4542e+08,23185,567.13,1
1960,6.1,12124,1,12124,1,0.00033818,-3.7802e-09,0,0.00097869,-6.1774e-05,117.44,220.27,0,2.606e+08,33252,12123,13104,1,13104,1,0.0021725,1.2607e-06,0,0.0021725,0.00028054,3.364e+08,2.4901e+05,0,6.0768e+08,1.0615e+05,13103,12124,1,12124,1,0.00033728,1.3536e-09,0,0.0009501,-6.1776e-05,1.0082e+08,349.45,0,2.6883e+08,31567,12123,11097,1,11097,1,-0.0014941,-1.3772e-06,0,5.7841e-07,-0.000404,-6.0768e+08,-2.3293e+05,0,1.8625e+06,296.77,11096,11634,1,11634,1,-0.00061177,-1.9379e-07,0,0.00047387,-0.00023871,-2.4878e+08,-48068,0,1.5943e+08,9994.8,11633,12614,1,12614,1,0.0012868,1.968e-07,0,0.0014229,0.00011539,2.6883e+08,49123,0,3.2635e+08,49765,12613,567.13,0,567.13,0,0.0010963,3.9187e-07,0,0.00059833,0.00020457,2.9856e+08,86555,0,1.4557e+08,25145,567.13,1
1960,6.11,12124,1,12124,1,0.00034157,-1.0384e-08,0,0.00098231,-6.2384e-05,595.86,-1217.7,0,2.6067e+08,36384,12123,13104,1,13104,1,0.0021822,1.384e-06,0,0.0021822,0.00028105,3.3549e+08,2.726e+05,0,6.0877e+08,1.1371e+05,13103,12124,1,12124,1,0.00034058,-8.2708e-09,0,0.00095183,-6.2364e-05,1.0158e+08,-2057.6,0,2.6883e+08,34699,12123,11097,1,11097,1,-0.0014968,-1.519e-06,0,2.9946e-07,-0.00040579,-6.0877e+08,-2.556e+05,0,1.0322e+06,195.9,11096,11634,1,11634,1,-0.00061152,-2.2297e-07,0,0.00047663,-0.00023987,-2.4868e+08,-55252,0,1.596e+08,10866,11633,12614,1,12614,1,0.0012932,2.1177e-07,0,0.0014293,0.00011536,2.6883e+08,52488,0,3.2603e+08,54759,12613,567.13,0,567.13,0,0.0010999,4.3317e-07,0,0.00060093,0.00020524,2.987e+08,95438,0,1.4573e+08,27318,567.13,1
1960,6.12,12124,1,12124,1,0.00034506,-1.0009e-08,0,0.00098612,-6.3013e-05,129.51,-1070.2,0,2.6074e+08,40005,12123,13104,1,13104,1,0.0021922,1.5376e-06,0,0.0021922,0.00028157,3.3453e+08,2.9939e+05,0,6.0989e+08,1.2224e+05,13103,12124,1,12124,1,0.00034398,-9.0026e-09,0,0.00095417,-6.2969e-05,1.0236e+08,-2249.4,0,2.6883e+08,38414,12123,11097,1,11097,1,-0.0014995,-1.6743e-06,0,1.6731e-06,-0.00040763,-6.0989e+08,-2.8019e+05,0,1.7283e+05,259.71,11096,11634,1,11634,1,-0.00061126,-2.4711e-07,0,0.00047848,-0.00024107,-2.4857e+08,-61325,0,1.5977e+08,12023,11633,12614,1,12614,1,0.0012998,2.3896e-07,0,0.0014341,0.00011532,2.6883e+08,58928,0,3.2568e+08,60645,12613,567.13,0,567.13,0,0.0011036,4.813e-07,0,0.00060348,0.00020592,2.9883e+08,1.0546e+05,0,1.4589e+08,29711,567.13,1
1960,6.13,12124,1,12124,1,0.00034868,-3.3153e-09,0,0.00099006,-6.3663e-05,-46.948,601.13,0,2.6083e+08,43960,12123,13104,1,13104,1,0.0022026,1.7013e-06,0,0.0022026,0.00028211,3.3354e+08,3.2931e+05,0,6.1106e+08,1.3172e+05,13103,12124,1,12124,1,0.00034748,3.9416e-09,0,0.00095727,-6.359e-05,1.0315e+08,955.33,0,2.6882e+08,42398,12123,11097,1,11097,1,-0.0015024,-1.8431e-06,0,3.8842e-06,-0.00040955,-6.1106e+08,-3.066e+05,0,1.0723e+05,467.11,11096,11634,1,11634,1,-0.00061097,-2.6781e-07,0,0.00048019,-0.0002423,-2.4845e+08,-65700,0,1.5995e+08,13283,11633,12614,1,12614,1,0.0013066,2.7438e-07,0,0.0014391,0.00011529,2.6882e+08,66769,0,3.2531e+08,66856,12613,567.13,0,567.13,0,0.0011075,5.3383e-07,0,0.00060613,0.00020663,2.9898e+08,1.1649e+05,0,1.4601e+08,32397,567.13,1
1960,6.14,12124,1,12124,1,0.00035245,-8.2841e-09,0,0.00099414,-6.4337e-05,68.292,-323.47,0,2.6096e+08,48438,12123,13104,1,13104,1,0.0022135,1.8818e-06,0,0.0022135,0.00028267,3.3255e+08,3.6262e+05,0,6.1226e+08,1.4143e+05,13103,12124,1,12124,1,0.00035112,-2.9408e-09,0,0.00096046,-6.4233e-05,1.0398e+08,-737.23,0,2.688e+08,46896,12123,11097,1,11097,1,-0.0015054,-2.0454e-06,0,6.1659e-06,-0.00041155,-6.1226e+08,-3.3836e+05,0,5.6959e+05,439.6,11096,11634,1,11634,1,-0.00061067,-3.0368e-07,0,0.00048197,-0.00024358,-2.4833e+08,-75133,0,1.6013e+08,14692,11633,12614,1,12614,1,0.0013136,3.0307e-07,0,0.0014443,0.00011525,2.688e+08,73384,0,3.2463e+08,74145,12613,567.13,0,567.13,0,0.0011114,5.9444e-07,0,0.00060889,0.00020736,2.9912e+08,1.292e+05,0,1.4607e+08,35391,567.13,1
1960,6.15,12124,1,12124,1,0.00035637,-2.7784e-09,0,0.00099836,-6.5037e-05,-78.589,1197.7,0,2.6108e+08,53520,12123,13104,1,13104,1,0.0022247,2.0955e-06,0,0.0022247,0.00028324,3.3149e+08,4.0069e+05,0,6.1349e+08,1.525e+05,13103,12124,1,12124,1,0.00035488,9.0326e-09,0,0.00096371,-6.4896e-05,1.0483e+08,2233.5,0,2.6877e+08,52479,12123,11097,1,11097,1,-0.0015084,-2.2674e-06,0,8.5388e-06,-0.00041362,-6.1349e+08,-3.7283e+05,0,1.4045e+06,512.56,11096,11634,1,11634,1,-0.00061032,-3.357e-07,0,0.0004838,-0.00024489,-2.4818e+08,-81659,0,1.603e+08,16492,11633,12614,1,12614,1,0.0013209,3.4714e-07,0,0.0014496,0.0001152,2.6877e+08,83837,0,3.2357e+08,82870,12613,567.13,0,567.13,0,0.0011155,6.6396e-07,0,0.00061175,0.00020812,2.9926e+08,1.4356e+05,0,1.4614e+08,38773,567.13,1
1960,6.16,12124,1,12124,1,0.00036044,-1.3944e-08,0,0.0010027,-6.5764e-05,-168.11,-1059.3,0,2.6121e+08,59249,12123,13104,1,13104,1,0.0022365,2.3299e-06,0,0.0022365,0.00028384,3.3044e+08,4.4214e+05,0,6.1477e+08,1.6367e+05,13103,12124,1,12124,1,0.00035878,-7.1145e-09,0,0.00096707,-6.5583e-05,1.0571e+08,-1747.9,0,2.6874e+08,58649,12123,11097,1,11097,1,-0.0015115,-2.531e-06,0,1.0972e-05,-0.00041578,-6.1477e+08,-4.1385e+05,0,2.2655e+06,435.29,11096,11634,1,11634,1,-0.00060997,-3.8901e-07,0,0.00048572,-0.00024626,-2.4804e+08,-94706,0,1.6048e+08,18377,11633,12614,1,12614,1,0.0013284,3.7891e-07,0,0.0014552,0.00011516,2.6874e+08,91190,0,3.2248e+08,92556,12613,567.13,0,567.13,0,0.0011198,7.4363e-07,0,0.00061473,0.00020891,2.994e+08,1.5984e+05,0,1.4621e+08,42555,567.13,1
1960,6.17,12124,1,12124,1,0.00036471,-8.3352e-09,0,0.0010073,-6.6524e-05,185.71,427.7,0,2.6134e+08,65530,12123,13104,1,13104,1,0.0022489,2.6022e-06,0,0.0022489,0.00028446,3.2932e+08,4.9068e+05,0,6.1611e+08,1.7681e+05,13103,12124,1,12124,1,0.00036286,2.3693e-09,0,0.00097055,-6.6297e-05,1.0662e+08,610.32,0,2.687e+08,64843,12123,11097,1,11097,1,-0.0015148,-2.8096e-06,0,1.3513e-05,-0.00041806,-6.1611e+08,-4.5634e+05,0,3.163e+06,729.9,11096,11634,1,11634,1,-0.00060959,-4.2785e-07,0,0.00048773,-0.00024768,-2.4788e+08,-1.046e+05,0,1.6067e+08,20340,11633,12614,1,12614,1,0.0013362,4.3623e-07,0,0.0014609,0.00011512,2.687e+08,1.0447e+05,0,3.2135e+08,1.0362e+05,12613,567.13,0,567.13,0,0.0011242,8.3212e-07,0,0.00061787,0.00020973,2.9955e+08,1.7828e+05,0,1.4629e+08,46742,567.13,1
1960,6.18,12124,1,12124,1,0.00036917,-1.1326e-08,0,0.0010121,-6.7317e-05,285.57,131.99,0,2.6146e+08,72825,12123,13104,1,13104,1,0.0022618,2.9114e-06,0,0.0022618,0.00028511,3.2817e+08,5.4465e+05,0,6.175e+08,1.9063e+05,13103,12124,1,12124,1,0.0003671,2.1119e-09,0,0.00097413,-6.7038e-05,1.0757e+08,492.9,0,2.6865e+08,72807,12123,11097,1,11097,1,-0.0015183,-3.1443e-06,0,1.6137e-05,-0.00042045,-6.175e+08,-5.0746e+05,0,4.0872e+06,863.28,11096,11634,1,11634,1,-0.00060917,-4.8588e-07,0,0.00048984,-0.00024916,-2.4771e+08,-1.1841e+05,0,1.6086e+08,22795,11633,12614,1,12614,1,0.0013444,4.8924e-07,0,0.001467,0.00011507,2.6865e+08,1.1771e+05,0,3.2015e+08,1.1635e+05,12613,567.13,0,567.13,0,0.0011289,9.3638e-07,0,0.00062115,0.00021058,2.997e+08,1.9956e+05,0,1.4637e+08,51546,567.13,1
1960,6.19,12124,1,12124,1,0.00037388,-1.3441e-08,0,0.0010171,-6.8151e-05,493.24,-33.968,0,2.6158e+08,80980,12123,13104,1,13104,1,0.0022756,3.2615e-06,0,0.0022756,0.00028579,3.2698e+08,6.0743e+05,0,6.1897e+08,2.0517e+05,13103,12124,1,12124,1,0.00037155,-1.3198e-09,0,0.00097784,-6.7812e-05,1.0856e+08,-328.77,0,2.6859e+08,82026,12123,11097,1,11097,1,-0.0015219,-3.5175e-06,0,1.8863e-05,-0.00042298,-6.1897e+08,-5.6383e+05,0,5.0429e+06,1010.2,11096,11634,1,11634,1,-0.00060873,-5.5296e-07,0,0.00049206,-0.00025071,-2.4753e+08,-1.3462e+05,0,1.6106e+08,25430,11633,12614,1,12614,1,0.001353,5.5506e-07,0,0.0014733,0.00011501,2.6859e+08,1.3312e+05,0,3.1891e+08,1.3137e+05,12613,567.13,0,567.13,0,0.0011337,1.0555e-06,0,0.00062462,0.00021148,2.9985e+08,2.24e+05,0,1.4646e+08,56916,567.13,1
1960,6.2,12124,1,12124,1,0.00037883,-9.5291e-09,0,0.0010224,-6.9026e-05,234.91,1339.2,0,2.617e+08,90567,12123,13104,1,13104,1,0.0022901,3.6816e-06,0,0.0022901,0.0002865,3.2572e+08,6.7776e+05,0,6.2048e+08,2.2141e+05,13103,12124,1,12124,1,0.0003762,8.976e-09,0,0.00098163,-6.8617e-05,1.0958e+08,2197.6,0,2.6851e+08,91574,12123,11097,1,11097,1,-0.0015256,-3.9533e-06,0,2.1694e-05,-0.00042565,-6.2048e+08,-6.2934e+05,0,6.0309e+06,987.49,11096,11634,1,11634,1,-0.00060822,-6.2365e-07,0,0.0004944,-0.00025231,-2.4732e+08,-1.5112e+05,0,1.6115e+08,28746,11633,12614,1,12614,1,0.0013619,6.4072e-07,0,0.0014799,0.00011495,2.6851e+08,1.529e+05,0,3.1758e+08,1.4788e+05,12613,567.13,0,567.13,0,0.0011388,1.1966e-06,0,0.00062827,0.00021242,3e+08,2.5232e+05,0,1.4656e+08,63170,567.13,1
1960,6.21,12124,1,12124,1,0.00038406,-2.0368e-08,0,0.0010279,-6.9949e-05,264.2,-511.66,0,2.6183e+08,1.0131e+05,12123,13104,1,13104,1,0.0023056,4.1456e-06,0,0.0023056,0.00028725,3.2445e+08,7.5847e+05,0,6.2211e+08,2.3819e+05,13103,12124,1,12124,1,0.00038109,-3.4632e-09,0,0.0009856,-6.9461e-05,1.1066e+08,-863.6,0,2.6843e+08,1.0178e+05,12123,11097,1,11097,1,-0.0015296,-4.456e-06,0,2.4617e-05,-0.0004285,-6.2211e+08,-7.0678e+05,0,7.0438e+06,1218.3,11096,11634,1,11634,1,-0.00060771,-7.1675e-07,0,0.00049689,-0.00025401,-2.4711e+08,-1.7544e+05,0,1.611e+08,32512,11633,12614,1,12614,1,0.0013713,7.2285e-07,0,0.001487,0.00011489,2.6843e+08,1.7328e+05,0,3.1622e+08,1.6729e+05,12613,567.13,0,567.13,0,0.0011442,1.3577e-06,0,0.00063214,0.00021341,3.0016e+08,2.8485e+05,0,1.4666e+08,70243,567.13,1
1960,6.22,12124,1,12124,1,0.0003896,-1.8213e-08,0,0.0010337,-7.0925e-05,426.14,537.56,0,2.6194e+08,1.1374e+05,12123,13104,1,13104,1,0.0023221,4.7031e-06,0,0.0023221,0.00028804,3.2309e+08,8.5159e+05,0,6.238e+08,2.5642e+05,13103,12124,1,12124,1,0.00038625,4.5067e-09,0,0.00098968,-7.0344e-05,1.1178e+08,1127.3,0,2.6832e+08,1.1411e+05,12123,11097,1,11097,1,-0.0015337,-5.0304e-06,0,2.7681e-05,-0.00043153,-6.238e+08,-7.9429e+05,0,8.0981e+06,1435.6,11096,11634,1,11634,1,-0.00060711,-8.2091e-07,0,0.00049952,-0.00025578,-2.4686e+08,-1.9954e+05,0,1.6113e+08,37020,11633,12614,1,12614,1,0.0013812,8.3184e-07,0,0.0014944,0.00011482,2.6832e+08,1.9928e+05,0,3.1475e+08,1.8896e+05,12613,567.13,0,567.13,0,0.0011498,1.5491e-06,0,0.00063625,0.00021445,3.0032e+08,3.2274e+05,0,1.4678e+08,78396,567.13,1
1960,6.23,12124,1,12124,1,0.00039549,-3.057e-08,0,0.0010399,-7.1958e-05,582.42,-1560.7,0,2.6206e+08,1.2815e+05,12123,13104,1,13104,1,0.0023397,5.3443e-06,0,0.0023397,0.00028888,3.2172e+08,9.5543e+05,0,6.256e+08,2.7557e+05,13103,12124,1,12124,1,0.00039169,-9.8607e-09,0,0.00099394,-7.1272e-05,1.1296e+08,-2495.1,0,2.682e+08,1.2886e+05,12123,11097,1,11097,1,-0.0015382,-5.7145e-06,0,3.0853e-05,-0.00043478,-6.256e+08,-8.9672e+05,0,9.1794e+06,1383.2,11096,11634,1,11634,1,-0.0006065,-9.5408e-07,0,0.00050233,-0.00025765,-2.4661e+08,-2.3136e+05,0,1.6128e+08,42544,11633,12614,1,12614,1,0.0013916,9.4176e-07,0,0.0015023,0.00011475,2.682e+08,2.2798e+05,0,3.1323e+08,2.1381e+05,12613,567.13,0,567.13,0,0.0011558,1.7733e-06,0,0.00064063,0.00021556,3.0048e+08,3.6696e+05,0,1.469e+08,87905,567.13,1
1960,6.24,12124,1,12124,1,0.00040178,-2.4337e-08,0,0.0010465,-7.3057e-05,-318.91,515.08,0,2.6216e+08,1.4465e+05,12123,13104,1,13104,1,0.0023588,6.1021e-06,0,0.0023588,0.00028977,3.2023e+08,1.079e+06,0,6.2751e+08,2.9604e+05,13103,12124,1,12124,1,0.00039745,2.8837e-09,0,0.00099832,-7.2248e-05,1.142e+08,547.6,0,2.6806e+08,1.46e+05,12123,11097,1,11097,1,-0.0015429,-6.4813e-06,0,3.4176e-05,-0.00043828,-6.2751e+08,-1.0127e+06,0,1.03e+07,2014.8,11096,11634,1,11634,1,-0.00060579,-1.0916e-06,0,0.00050535,-0.00025962,-2.4631e+08,-2.647e+05,0,1.6142e+08,47770,11633,12614,1,12614,1,0.0014026,1.1015e-06,0,0.0015106,0.00011467,2.6806e+08,2.6446e+05,0,3.1158e+08,2.4354e+05,12613,567.13,0,567.13,0,0.0011621,2.0365e-06,0,0.00064531,0.00021673,3.0064e+08,4.1836e+05,0,1.4704e+08,98868,567.13,1
1960,6.25,12124,1,12124,1,0.00040851,-3.2275e-08,0,0.0010535,-7.4231e-05,54.834,-290.49,0,2.6227e+08,1.6371e+05,12123,13104,1,13104,1,0.0023794,6.969e-06,0,0.0023794,0.00029073,3.1873e+08,1.2211e+06,0,6.2957e+08,3.2442e+05,13103,12124,1,12124,1,0.00040356,-1.7311e-09,0,0.0010029,-7.3278e-05,1.1551e+08,-675.55,0,2.6789e+08,1.6598e+05,12123,11097,1,11097,1,-0.0015479,-7.3888e-06,0,3.7616e-05,-0.00044208,-6.2957e+08,-1.1514e+06,0,1.1446e+07,2328.3,11096,11634,1,11634,1,-0.00060504,-1.2749e-06,0,0.00050861,-0.00026172,-2.46e+08,-3.0737e+05,0,1.6155e+08,52878,11633,12614,1,12614,1,0.0014144,1.2781e-06,0,0.0015196,0.00011458,2.6789e+08,3.0488e+05,0,3.0985e+08,2.7497e+05,12613,567.13,0,567.13,0,0.0011689,2.3473e-06,0,0.00065035,0.00021798,3.0082e+08,4.7893e+05,0,1.472e+08,1.1175e+05,567.13,1
1960,6.26,12124,1,12124,1,0.00041575,-3.4545e-08,0,0.001061,-7.5488e-05,-8.9788,279.92,0,2.6237e+08,1.8601e+05,12123,13104,1,13104,1,0.0024019,8.0115e-06,0,0.0024019,0.00029176,3.1714e+08,1.3862e+06,0,6.3178e+08,3.7072e+05,13103,12124,1,12124,1,0.00041007,2.7302e-10,0,0.0010076,-7.4368e-05,1.169e+08,-118.42,0,2.677e+08,1.8786e+05,12123,11097,1,11097,1,-0.0015534,-8.4521e-06,0,4.1204e-05,-0.00044621,-6.3178e+08,-1.3106e+06,0,1.2625e+07,2605.3,11096,11634,1,11634,1,-0.00060419,-1.4819e-06,0,0.00051213,-0.00026393,-2.4566e+08,-3.5762e+05,0,1.6167e+08,57848,11633,12614,1,12614,1,0.0014268,1.4967e-06,0,0.0015292,0.00011447,2.677e+08,3.5599e+05,0,3.0799e+08,3.0659e+05,12613,567.13,0,567.13,0,0.0011762,2.7207e-06,0,0.00065579,0.00021931,3.0099e+08,5.507e+05,0,1.4737e+08,1.2705e+05,567.13,1
1960,6.27,12124,1,12124,1,0.00042357,-4.1209e-08,0,0.001069,-7.6841e-05,26.654,124.42,0,2.6247e+08,2.1186e+05,12123,13104,1,13104,1,0.0024265,9.2227e-06,0,0.0024265,0.00029287,3.1549e+08,1.5782e+06,0,6.3417e+08,4.3556e+05,13103,12124,1,12124,1,0.00041702,-5.1612e-10,0,0.0010124,-7.5524e-05,1.1837e+08,-484.45,0,2.6747e+08,2.1828e+05,12123,11097,1,11097,1,-0.0015592,-9.6983e-06,0,4.4925e-05,-0.00045075,-6.3417e+08,-1.4991e+06,0,1.3829e+07,2784,11096,11634,1,11634,1,-0.00060327,-1.7366e-06,0,0.00051598,-0.00026629,-2.4527e+08,-4.1653e+05,0,1.6178e+08,65071,11633,12614,1,12614,1,0.0014401,1.7482e-06,0,0.0015396,0.00011434,2.6747e+08,4.1541e+05,0,3.06e+08,3.5434e+05,12613,567.13,0,567.13,0,0.0011839,3.1664e-06,0,0.00066168,0.00022075,3.0116e+08,6.3585e+05,0,1.4756e+08,1.4523e+05,567.13,1
1960,6.28,12124,1,12124,1,0.00043204,-4.1734e-08,0,0.0010777,-7.83e-05,-147.8,1541.2,0,2.6255e+08,2.4211e+05,12123,13104,1,13104,1,0.0024538,1.0677e-05,0,0.0024538,0.00029409,3.1376e+08,1.8047e+06,0,6.3677e+08,5.1663e+05,13103,12124,1,12124,1,0.00042447,6.6537e-09,0,0.0010174,-7.6753e-05,1.1993e+08,1668.4,0,2.6721e+08,2.4747e+05,12123,11097,1,11097,1,-0.0015656,-1.1155e-05,0,4.8785e-05,-0.00045577,-6.3677e+08,-1.7189e+06,0,1.506e+07,2765.4,11096,11634,1,11634,1,-0.00060223,-2.0444e-06,0,0.0005202,-0.00026881,-2.4485e+08,-4.8817e+05,0,1.6187e+08,76515,11633,12614,1,12614,1,0.0014543,2.052e-06,0,0.0015539,0.00011418,2.6721e+08,4.8773e+05,0,3.0387e+08,3.9528e+05,12613,567.13,0,567.13,0,0.0011923,3.7057e-06,0,0.0006681,0.00022229,3.0134e+08,7.3786e+05,0,1.4778e+08,1.6725e+05,567.13,1
1960,6.29,12124,1,12124,1,0.00044127,-4.9463e-08,0,0.0010871,-7.9885e-05,748.38,1788.7,0,2.6262e+08,2.7739e+05,12123,13104,1,13104,1,0.0024842,1.2388e-05,0,0.0024842,0.00029542,3.1198e+08,2.0684e+06,0,6.3962e+08,6.1702e+05,13103,12124,1,12124,1,0.00043248,8.9707e-09,0,0.0010246,-7.8069e-05,1.216e+08,1938.2,0,2.669e+08,2.7651e+05,12123,11097,1,11097,1,-0.0015727,-1.2877e-05,0,5.2773e-05,-0.00046136,-6.3962e+08,-1.9788e+06,0,1.6311e+07,2709.3,11096,11634,1,11634,1,-0.00060108,-2.4238e-06,0,0.00052401,-0.00027151,-2.4437e+08,-5.77e+05,0,1.6194e+08,89454,11633,12614,1,12614,1,0.0014696,2.4235e-06,0,0.0015646,0.00011399,2.669e+08,5.7551e+05,0,3.0156e+08,4.4875e+05,12613,567.13,0,567.13,0,0.0012014,4.36e-06,0,0.00067513,0.00022397,3.0152e+08,8.603e+05,0,1.4802e+08,1.9418e+05,567.13,1
1960,6.3,12124,1,12124,1,0.00045138,-7.0007e-08,0,0.0010974,-8.1609e-05,-362.02,-418.63,0,2.6268e+08,3.1892e+05,12123,13104,1,13104,1,0.0025183,1.4427e-05,0,0.0025183,0.00029689,3.1015e+08,2.371e+06,0,6.4277e+08,7.4363e+05,13103,12124,1,12124,1,0.00044116,-9.7719e-09,0,0.0010378,-7.9485e-05,1.2339e+08,-2988.5,0,2.6654e+08,3.1156e+05,12123,11097,1,11097,1,-0.0015804,-1.4929e-05,0,5.6884e-05,-0.00046763,-6.4277e+08,-2.2842e+06,0,1.7582e+07,2944.9,11096,11634,1,11634,1,-0.00059983,-2.8934e-06,0,0.00052337,-0.00027442,-2.4385e+08,-6.856e+05,0,1.6199e+08,1.0283e+05,11633,12614,1,12614,1,0.0014861,2.8847e-06,0,0.0015746,0.00011377,2.6654e+08,6.7976e+05,0,2.9908e+08,5.1376e+05,12613,567.13,0,567.13,0,0.0012114,5.1645e-06,0,0.00068289,0.0002258,3.0171e+08,1.0081e+06,0,1.483e+08,2.2785e+05,567.13,1
1960,6.31,12124,1,12124,1,0.00046254,-7.5668e-08,0,0.0011087,-8.3505e-05,633.69,683.85,0,2.6272e+08,3.6704e+05,12123,13104,1,13104,1,0.002557,1.6854e-05,0,0.002557,0.00029852,3.0821e+08,2.7251e+06,0,6.4627e+08,9.025e+05,13103,12124,1,12124,1,0.00045061,-1.1448e-08,0,0.001052,-8.1019e-05,1.2532e+08,-2939,0,2.661e+08,3.4835e+05,12123,11097,1,11097,1,-0.001589,-1.7313e-05,0,5.9667e-05,-0.00047476,-6.4627e+08,-2.6396e+06,0,1.8884e+07,2665.7,11096,11634,1,11634,1,-0.00059836,-3.4863e-06,0,0.00052265,-0.00027757,-2.4325e+08,-8.2423e+05,0,1.62e+08,1.1455e+05,11633,12614,1,12614,1,0.0015041,3.4883e-06,0,0.0015844,0.00011349,2.661e+08,8.1719e+05,0,2.9634e+08,5.8307e+05,12613,567.13,0,567.13,0,0.0012222,6.1486e-06,0,0.0006915,0.0002278,3.019e+08,1.1865e+06,0,1.4862e+08,2.7028e+05,567.13,1
1960,6.32,12124,1,12124,1,0.00047492,-9.3693e-08,0,0.0011211,-8.5599e-05,-130.49,-201.65,0,2.6273e+08,4.2308e+05,12123,13104,1,13104,1,0.0026015,1.971e-05,0,0.0026015,0.00030036,3.0623e+08,3.1368e+06,0,6.5022e+08,1.104e+06,13103,12124,1,12124,1,0.00046098,-2.3964e-08,0,0.0010676,-8.2695e-05,1.2742e+08,-4935.2,0,2.6557e+08,3.7044e+05,12123,11097,1,11097,1,-0.0015987,-2.0109e-05,0,5.0846e-05,-0.00048295,-6.5022e+08,-3.0594e+06,0,2.0197e+07,2317.6,11096,11634,1,11634,1,-0.00059672,-4.2515e-06,0,0.0005218,-0.00028101,-2.4257e+08,-9.9366e+05,0,1.6197e+08,1.2252e+05,11633,12614,1,12614,1,0.0015237,4.207e-06,0,0.0015949,0.00011314,2.6557e+08,9.857e+05,0,2.9252e+08,6.8148e+05,12613,567.13,0,567.13,0,0.0012342,7.3613e-06,0,0.00070115,0.00023,3.0209e+08,1.4034e+06,0,1.4899e+08,3.2495e+05,567.13,1
1960,6.33,12124,1,12124,1,0.00048876,-1.0226e-07,0,0.0011349,-8.7934e-05,-34.932,1058.9,0,2.6271e+08,4.8808e+05,12123,13104,1,13104,1,0.0026533,2.3137e-05,0,0.0026533,0.00030246,3.0415e+08,3.6092e+06,0,6.547e+08,1.3641e+06,13103,12124,1,12124,1,0.00047246,-2.198e-08,0,0.0010848,-8.4552e-05,1.2971e+08,-4745.7,0,2.6495e+08,3.959e+05,12123,11097,1,11097,1,-0.0016097,-2.3323e-05,0,4.0651e-05,-0.00049248,-6.547e+08,-3.5521e+06,0,1.673e+07,1300.8,11096,11634,1,11634,1,-0.00059481,-5.2077e-06,0,0.00052058,-0.0002848,-2.4179e+08,-1.1935e+06,0,1.6304e+08,1.3334e+05,11633,12614,1,12614,1,0.0015454,5.1519e-06,0,0.0016065,0.00011277,2.6495e+08,1.1906e+06,0,2.8828e+08,7.9341e+05,12613,567.13,0,567.13,0,0.0012476,8.8732e-06,0,0.00071206,0.00023246,3.0229e+08,1.6687e+06,0,1.4942e+08,3.9733e+05,567.13,1
1960,6.34,12124,1,12124,1,0.00050443,-1.2034e-07,0,0.0011504,-9.0573e-05,48.136,1132,0,2.6264e+08,5.6164e+05,12123,13104,1,13104,1,0.0027147,2.7051e-05,0,0.0027147,0.00030487,3.02e+08,4.1493e+06,0,6.5987e+08,1.7013e+06,13103,12124,1,12124,1,0.00048535,-3.8079e-08,0,0.0011039,-8.6636e-05,1.3224e+08,-7051.2,0,2.6417e+08,4.2155e+05,12123,11097,1,11097,1,-0.0016224,-2.7099e-05,0,2.8684e-05,-0.00050378,-6.5987e+08,-4.1191e+06,0,1.227e+07,-48.282,11096,11634,1,11634,1,-0.00059258,-6.4192e-06,0,0.00051952,-0.00028955,-2.4087e+08,-1.4479e+06,0,1.6535e+08,1.2628e+05,11633,12614,1,12614,1,0.0015803,6.3446e-06,0,0.0016191,0.00011239,2.6417e+08,1.4563e+06,0,2.8364e+08,9.1644e+05,12613,567.13,0,567.13,0,0.0012627,1.0759e-05,0,0.00072456,0.00023522,3.0248e+08,1.993e+06,0,1.4993e+08,4.949e+05,567.13,1
1960,6.35,12124,1,12124,1,0.00052237,-1.4485e-07,0,0.001168,-9.3585e-05,940.27,322.33,0,2.6252e+08,6.4551e+05,12123,13104,1,13104,1,0.0027888,3.1951e-05,0,0.0027888,0.0003077,2.9977e+08,4.7855e+06,0,6.659e+08,2.1455e+06,13103,12124,1,12124,1,0.00050003,-5.6268e-08,0,0.0011233,-8.9006e-05,1.3507e+08,-10513,0,2.6238e+08,4.3474e+05,12123,11097,1,11097,1,-0.0016373,-3.2014e-05,0,1.4435e-05,-0.00051742,-6.659e+08,-4.7773e+06,0,7.1888e+06,-1.713e+05,11096,11634,1,11634,1,-0.00058992,-8.0134e-06,0,0.00052119,-0.00029692,-2.3977e+08,-1.7719e+06,0,1.6792e+08,87243,11633,12614,1,12614,1,0.0016213,7.9061e-06,0,0.0016333,0.00011194,2.6238e+08,1.7719e+06,0,2.7929e+08,1.0975e+06,12613,567.13,0,567.13,0,0.0012798,1.3153e-05,0,0.0007391,0.00023835,3.0267e+08,2.3943e+06,0,1.5054e+08,6.2966e+05,567.13,1
1960,6.36,12124,1,12124,1,0.00054316,-1.7185e-07,0,0.0011883,-9.706e-05,-938.55,-296.17,0,2.623e+08,7.3969e+05,12123,13104,1,13104,1,0.0028802,3.847e-05,0,0.0028802,0.00031105,2.974e+08,5.6032e+06,0,6.7306e+08,2.7344e+06,13103,12124,1,12124,1,0.00051706,-8.1437e-08,0,0.0011354,-9.1707e-05,1.3827e+08,-15455,0,2.6009e+08,4.5281e+05,12123,11097,1,11097,1,-0.0016549,-3.8558e-05,0,2.681e-06,-0.00053425,-6.7306e+08,-5.59e+06,0,1.1153e+06,-5.0572e+05,11096,11634,1,11634,1,-0.0005867,-9.8219e-06,0,0.00052253,-0.00030473,-2.3845e+08,-2.1653e+06,0,1.7082e+08,55981,11633,12614,1,12614,1,0.0016668,9.7735e-06,0,0.001667,0.00011139,2.6007e+08,2.1578e+06,0,2.749e+08,1.3096e+06,12613,567.13,0,567.13,0,0.0012997,1.6223e-05,0,0.00075624,0.00024197,3.0284e+08,2.8943e+06,0,1.5127e+08,8.1916e+05,567.13,1
1960,6.37,12124,1,12124,1,0.00056769,-1.8923e-07,0,0.0012124,-0.00010109,1015.1,1383.9,0,2.621e+08,8.4509e+05,12123,13104,1,13104,1,0.0029964,4.7421e-05,0,0.0029964,0.00031513,2.9484e+08,6.673e+06,0,6.8176e+08,3.544e+06,13103,12124,1,12124,1,0.0005378,-1.0466e-07,0,0.0011459,-9.4553e-05,1.4199e+08,-19275,0,2.5635e+08,4.4317e+05,12123,11097,1,11097,1,-0.0016763,-4.7482e-05,0,9.7415e-06,-0.00055565,-6.8176e+08,-6.6593e+06,0,2.4734e+06,-9.7617e+05,11096,11634,1,11634,1,-0.00058272,-1.2274e-05,0,0.0005378,-0.00031344,-2.3681e+08,-2.7106e+06,0,1.7415e+08,21762,11633,12614,1,12614,1,0.0017164,1.2109e-05,0,0.0017167,0.00011074,2.5633e+08,2.6965e+06,0,2.7087e+08,1.5466e+06,12613,567.13,0,567.13,0,0.0013231,2.0242e-05,0,0.00077634,0.00024619,3.0302e+08,3.5269e+06,0,1.52e+08,1.088e+06,567.13,1
1960,6.38,12124,1,12124,1,0.00059732,-2.1363e-07,0,0.0012417,-0.00010586,-1987.5,2957.2,0,2.6189e+08,9.6412e+05,12123,13104,1,13104,1,0.0031491,6.0066e-05,0,0.0031491,0.00032023,2.9209e+08,8.1212e+06,0,6.9263e+08,4.683e+06,13103,12124,1,12124,1,0.00057757,-1.5019e-07,0,0.0011544,-9.7746e-05,1.4784e+08,-27300,0,2.5234e+08,4.3245e+05,12123,11097,1,11097,1,-0.001703,-6.0172e-05,0,1.4292e-05,-0.00058377,-6.9263e+08,-8.0925e+06,0,4.0013e+06,-1.6132e+06,11096,11634,1,11634,1,-0.00057774,-1.5519e-05,0,0.00057757,-0.00032181,-2.3476e+08,-3.429e+06,0,1.8059e+08,-11810,11633,12614,1,12614,1,0.0017581,1.5366e-05,0,0.0017588,0.00011003,2.5232e+08,3.421e+06,0,2.6695e+08,1.9027e+06,12613,567.13,0,567.13,0,0.0013516,2.5648e-05,0,0.00080124,0.00025126,3.032e+08,4.3418e+06,0,1.5274e+08,1.4736e+06,567.13,1
1960,6.39,12124,1,12124,1,0.00063436,-2.5505e-07,0,0.001278,-0.00011172,168.78,513.63,0,2.6152e+08,1.0927e+06,12123,13104,1,13104,1,0.0033585,7.8573e-05,0,0.0033585,0.00032678,2.8875e+08,1.0075e+07,0,7.0658e+08,6.3179e+06,13103,12124,1,12124,1,0.00062002,-2.2788e-07,0,0.0011783,-0.0001015,1.5587e+08,-42949,0,2.4801e+08,3.7321e+05,12123,11097,1,11097,1,-0.0017374,-7.8671e-05,0,1.7858e-05,-0.00062237,-7.0658e+08,-1.0057e+07,0,5.296e+06,-2.4334e+06,11096,11634,1,11634,1,-0.00057105,-2.0349e-05,0,0.00062005,-0.00032945,-2.3198e+08,-4.3467e+06,0,1.8632e+08,-1.4902e+05,11633,12614,1,12614,1,0.0017944,1.9753e-05,0,0.0017957,0.00010937,2.4798e+08,4.3527e+06,0,2.6421e+08,2.3143e+06,12613,567.13,0,567.13,0,0.0013877,3.3115e-05,0,0.00083383,0.00025752,3.0336e+08,5.4031e+06,0,1.5372e+08,2.0347e+06,567.13,1
1960,6.4,12124,1,12124,1,0.00068245,-2.9044e-07,0,0.0013247,-0.00011911,-846.18,691.52,0,2.6088e+08,1.2406e+06,12123,13104,1,13104,1,0.0036627,0.00010731,0,0.0036627,0.00033557,2.8478e+08,1.2844e+07,0,7.2526e+08,8.7349e+06,13103,12124,1,12124,1,0.00067163,-3.0533e-07,0,0.0012012,-0.00010666,1.6438e+08,-55127,0,2.4359e+08,2.8674e+05,12123,11097,1,11097,1,-0.0017833,-0.00010738,0,2.0606e-05,-0.00067847,-7.2526e+08,-1.2828e+07,0,6.3853e+06,-3.4902e+06,11096,11634,1,11634,1,-0.00056176,-2.6736e-05,0,0.00063201,-0.00033652,-2.281e+08,-5.6257e+06,0,1.8281e+08,-4.8953e+05,11633,12614,1,12614,1,0.0018847,2.6005e-05,0,0.0018867,0.00010872,2.4351e+08,5.66e+06,0,2.6053e+08,2.8384e+06,12613,567.13,0,567.13,0,0.0014357,4.4059e-05,0,0.00087943,0.00026561,3.0352e+08,6.8428e+06,0,1.5518e+08,2.8619e+06,567.13,1
1960,6.41,12124,1,12124,1,0.00074831,-2.8489e-07,0,0.0013883,-0.00012874,-1313.6,6798,0,2.598e+08,1.4092e+06,12123,13104,1,13104,1,0.0041407,0.00015502,0,0.0041407,0.00034799,2.7962e+08,1.6931e+07,0,7.5162e+08,1.2452e+07,13103,12124,1,12124,1,0.00072011,-3.9212e-07,0,0.0012472,-0.00011386,1.7338e+08,-65294,0,2.3963e+08,1.7168e+05,12123,11097,1,11097,1,-0.0018482,-0.0001549,0,4.2575e-06,-0.00076669,-7.5162e+08,-1.6928e+07,0,4.1216e+05,-5.0644e+06,11096,11634,1,11634,1,-0.00054797,-3.529e-05,0,0.0006237,-0.0003481,-2.2231e+08,-7.4521e+06,0,1.8446e+08,-1.1464e+06,11633,12614,1,12614,1,0.00196,3.4134e-05,0,0.0019629,0.00010803,2.3959e+08,7.4361e+06,0,2.5831e+08,3.6064e+06,12613,567.13,0,567.13,0,0.0015048,6.1214e-05,0,0.00094882,0.00027669,3.0373e+08,8.8717e+06,0,1.575e+08,4.1235e+06,567.13,1
1960,6.42,12124,1,12124,1,0.00084505,-3.4606e-07,0,0.0014824,-0.00014165,-2689.5,2435.9,0,2.5834e+08,1.6027e+06,12123,13104,1,13104,1,0.0049773,0.00024558,0,0.0049773,0.00036671,2.7245e+08,2.3398e+07,0,7.9122e+08,1.8514e+07,13103,12124,1,12124,1,0.00078661,-6.0318e-07,0,0.0012848,-0.00013009,1.7132e+08,-90768,0,2.338e+08,56059,12123,11097,1,11097,1,-0.0019456,-0.00024566,0,2.3318e-05,-0.00092134,-7.9122e+08,-2.3437e+07,0,7.8046e+06,-7.6147e+06,11096,11634,1,11634,1,-0.00052582,-4.8833e-05,0,0.00061773,-0.00036097,-2.1292e+08,-9.9987e+06,0,1.7572e+08,-2.3441e+06,11633,12614,1,12614,1,0.0020573,4.7255e-05,0,0.0020588,0.00010572,2.3355e+08,1.0038e+07,0,2.6008e+08,4.5451e+06,12613,567.13,0,567.13,0,0.0016155,9.0899e-05,0,0.0010648,0.00029301,3.0406e+08,1.1868e+07,0,1.6068e+08,6.1333e+06,567.13,1
1960,6.43,12124,1,12124,1,0.0010016,-3.4577e-07,0,0.0016344,-0.00015918,-3599.9,9165.2,0,2.5558e+08,1.8285e+06,12123,13104,1,13104,1,0.0066943,0.00044746,0,0.0066943,0.00039707,2.8549e+08,3.4311e+07,0,8.5519e+08,2.8713e+07,13103,12124,1,12124,1,0.00089332,-3.4111e-07,0,0.0013576,-0.00015193,1.5782e+08,-50065,0,2.251e+08,-90613,12123,11097,1,11097,1,-0.0021031,-0.00044747,0,7.9092e-06,-0.0012384,-8.5519e+08,-3.4308e+07,0,2.1785e+06,-1.2069e+07,11096,11634,1,11634,1,-0.00048446,-7.1557e-05,0,0.0007144,-0.0003596,-1.953e+08,-1.3424e+07,0,1.6327e+08,-4.4782e+06,11633,12614,1,12614,1,0.0021557,6.9497e-05,0,0.0021636,9.6063e-05,2.2631e+08,1.3601e+07,0,2.6788e+08,5.9652e+06,12613,567.13,0,567.13,0,0.0018225,0.0001499,0,0.0012942,0.0003197,3.0464e+08,1.649e+07,0,1.665e+08,9.4378e+06,567.13,1
1960,6.44,12124,1,12124,1,0.001283,-4.5656e-07,0,0.0019106,-0.00017843,-296.91,4923,0,2.5038e+08,2.0912e+06,12123,13104,1,13104,1,0.011162,0.0010104,0,0.011162,0.00044989,3.1824e+08,5.3235e+07,0,9.6577e+08,4.5552e+07,13103,12124,1,12124,1,0.0010303,-1.0373e-06,0,0.0014205,-0.00017034,1.4231e+08,-1.4166e+05,0,2.1194e+08,-4.1341e+05,12123,11097,1,11097,1,-0.0023753,-0.0010102,0,2.277e-05,-0.0020556,-9.6577e+08,-5.3179e+07,0,7.9759e+06,-2.0043e+07,11096,11634,1,11634,1,-0.00038973,-0.0001079,0,0.00072138,-0.00035464,-1.5689e+08,-1.8155e+07,0,1.4653e+08,-8.0826e+06,11633,12614,1,12614,1,0.002238,0.00010909,0,0.0022951,8.4703e-05,2.1442e+08,1.8169e+07,0,2.8434e+08,8.4148e+06,12613,567.13,0,567.13,0,0.0023044,0.00029154,0,0.0018412,0.00036786,3.0563e+08,2.3798e+07,0,1.7678e+08,1.4885e+07,567.13,1
