"N","Time","avg(GlobalElementId)","avg(ObjectId)","avg(PedigreeElementId)","avg(alpha)","avg(strain_x (0))","avg(strain_x (1))","avg(strain_x (2))","avg(strain_x (Magnitude))","avg(strain_yy)","avg(stress_x (0))","avg(stress_x (1))","avg(stress_x (2))","avg(stress_x (Magnitude))","avg(stress_yy)","avg(vtkOriginalCellIds)","max(GlobalElementId)","max(ObjectId)","max(PedigreeElementId)","max(alpha)","max(strain_x (0))","max(strain_x (1))","max(strain_x (2))","max(strain_x (Magnitude))","max(strain_yy)","max(stress_x (0))","max(stress_x (1))","max(stress_x (2))","max(stress_x (Magnitude))","max(stress_yy)","max(vtkOriginalCellIds)","med(GlobalElementId)","med(ObjectId)","med(PedigreeElementId)","med(alpha)","med(strain_x (0))","med(strain_x (1))","med(strain_x (2))","med(strain_x (Magnitude))","med(strain_yy)","med(stress_x (0))","med(stress_x (1))","med(stress_x (2))","med(stress_x (Magnitude))","med(stress_yy)","med(vtkOriginalCellIds)","min(GlobalElementId)","min(ObjectId)","min(PedigreeElementId)","min(alpha)","min(strain_x (0))","min(strain_x (1))","min(strain_x (2))","min(strain_x (Magnitude))","min(strain_yy)","min(stress_x (0))","min(stress_x (1))","min(stress_x (2))","min(stress_x (Magnitude))","min(stress_yy)","min(vtkOriginalCellIds)","q1(GlobalElementId)","q1(ObjectId)","q1(PedigreeElementId)","q1(alpha)","q1(strain_x (0))","q1(strain_x (1))","q1(strain_x (2))","q1(strain_x (Magnitude))","q1(strain_yy)","q1(stress_x (0))","q1(stress_x (1))","q1(stress_x (2))","q1(stress_x (Magnitude))","q1(stress_yy)","q1(vtkOriginalCellIds)","q3(GlobalElementId)","q3(ObjectId)","q3(PedigreeElementId)","q3(alpha)","q3(strain_x (0))","q3(strain_x (1))","q3(strain_x (2))","q3(strain_x (Magnitude))","q3(strain_yy)","q3(stress_x (0))","q3(stress_x (1))","q3(stress_x (2))","q3(stress_x (Magnitude))","q3(stress_yy)","q3(vtkOriginalCellIds)","std(GlobalElementId)","std(ObjectId)","std(PedigreeElementId)","std(alpha)","std(strain_x (0))","std(strain_x (1))","std(strain_x (2))","std(strain_x (Magnitude))","std(strain_yy)","std(stress_x (0))","std(stress_x (1))","std(stress_x (2))","std(stress_x (Magnitude))","std(stress_yy)","std(vtkOriginalCellIds)","vtkValidPointMask"
2044,0,12082,1,12082,1,0,0,0,0,0,0,0,0,0,0,12081,13104,1,13104,1,0,0,0,0,0,0,0,0,0,0,13103,12082,1,12082,1,0,0,0,0,0,0,0,0,0,0,12081,10985,1,10985,1,0,0,0,0,0,0,0,0,0,0,10984,11571,1,11571,1,0,0,0,0,0,0,0,0,0,0,11570,12593,1,12593,1,0,0,0,0,0,0,0,0,0,0,12592,591.12,0,591.12,0,0,0,0,0,0,0,0,0,0,0,591.12,1
2044,0.01,12082,1,12082,1,-1.8294e-09,-8.7573e-09,0,1.0923e-06,-2.9743e-09,-95745,-2191.2,0,3.4957e+05,-2649.9,12081,13104,1,13104,1,3.2756e-06,3.3585e-07,0,3.2761e-06,4.2569e-07,7.3253e+05,63057,0,9.2331e+05,35762,13103,12082,1,12082,1,1.2194e-08,-2.0185e-09,0,1.0973e-06,-1.8379e-08,1372.5,-567.89,0,3.2326e+05,-145.11,12081,10985,1,10985,1,-2.27e-06,-1.7179e-07,0,1.1169e-08,-6.047e-07,-9.2331e+05,-33734,0,896.78,-45868,10984,11571,1,11571,1,-1.0907e-06,-2.0393e-08,0,5.5108e-07,-2.0203e-07,-4.4423e+05,-5367.5,0,1.7076e+05,-2897.7,11570,12593,1,12593,1,1.0972e-06,6.3686e-09,0,1.6222e-06,1.9961e-07,2.5959e+05,1829.2,0,4.7598e+05,1675.2,12592,591.12,0,591.12,0,1.2645e-06,3.4144e-08,0,6.3764e-07,2.3639e-07,4.0567e+05,8243.8,0,2.2706e+05,9657.2,591.12,1
2044,0.02,12082,1,12082,1,7.8217e-07,-9.8753e-10,0,2.947e-06,-1.5298e-07,-998.15,-241.41,0,8.7977e+05,-3818.8,12081,13104,1,13104,1,6.3854e-06,3.8739e-08,0,6.3854e-06,9.0213e-07,1.4237e+06,10485,0,1.954e+06,207.29,13103,12082,1,12082,1,7.7106e-07,-8.2976e-11,0,2.8891e-06,-1.5425e-07,2.1646e+05,-20.941,0,8.7462e+05,-1777,12081,10985,1,10985,1,-4.8043e-06,-6.6385e-08,0,1.4411e-07,-1.1975e-06,-1.954e+06,-15358,0,41455,-21010,10984,11571,1,11571,1,-2.1091e-06,-2.6225e-09,0,1.4473e-06,-7.0573e-07,-8.5839e+05,-628.06,0,4.5694e+05,-5447.6,11570,12593,1,12593,1,3.6732e-06,1.9497e-09,0,4.3376e-06,3.9285e-07,8.7462e+05,504.83,0,1.2616e+06,-566.28,12592,591.12,0,591.12,0,3.341e-06,1.1875e-08,0,1.7565e-06,6.2734e-07,1.0158e+06,3022.3,0,5.0735e+05,4563.4,591.12,1
2044,0.03,12082,1,12082,1,1.1481e-06,1.0548e-09,0,4.3194e-06,-2.1112e-07,-95.329,281.44,0,1.2897e+06,-743.07,12081,13104,1,13104,1,9.3455e-06,1.6841e-08,0,9.3455e-06,1.3222e-06,2.0841e+06,4432.3,0,2.8641e+06,192.9,13103,12082,1,12082,1,1.1472e-06,7.2438e-10,0,4.2444e-06,-2.2121e-07,3.2269e+05,180.28,0,1.2855e+06,-116.28,12081,10985,1,10985,1,-7.0419e-06,-2.3056e-08,0,2.3538e-07,-1.7425e-06,-2.8641e+06,-5698.1,0,67973,-9435.9,10984,11571,1,11571,1,-3.0958e-06,1.3858e-10,0,2.1219e-06,-1.0041e-06,-1.259e+06,35.149,0,6.7158e+05,-794.03,11570,12593,1,12593,1,5.3936e-06,2.088e-09,0,6.3663e-06,5.8257e-07,1.2855e+06,562.26,0,1.8507e+06,-18.314,12592,591.12,0,591.12,0,4.8962e-06,3.3237e-09,0,2.574e-06,9.1536e-07,1.489e+06,837.85,0,7.4358e+05,1374.2,591.12,1
2044,0.04,12082,1,12082,1,1.5599e-06,-4.0048e-09,0,5.866e-06,-2.8599e-07,147.86,-1011.3,0,1.7514e+06,-739.02,12081,13104,1,13104,1,1.27e-05,8.954e-09,0,1.27e-05,1.7978e-06,2.8321e+06,2955.3,0,3.8934e+06,231.28,13103,12082,1,12082,1,1.5559e-06,-2.8925e-09,0,5.752e-06,-2.927e-07,4.3805e+05,-745.71,0,1.742e+06,-190.62,12081,10985,1,10985,1,-9.5727e-06,-2.484e-08,0,3.2185e-07,-2.3685e-06,-3.8934e+06,-8207.8,0,93158,-7597.7,10984,11571,1,11571,1,-4.1935e-06,-6.6504e-09,0,2.8763e-06,-1.3614e-06,-1.7055e+06,-1705,0,9.1e+05,-676.66,11570,12593,1,12593,1,7.3087e-06,-3.4715e-10,0,8.6272e-06,7.8957e-07,1.742e+06,-87.849,0,2.508e+06,-76.624,12592,591.12,0,591.12,0,6.6494e-06,4.5298e-09,0,3.496e-06,1.243e-06,2.0222e+06,1180.8,0,1.01e+06,1329,591.12,1
2044,0.05,12082,1,12082,1,1.9349e-06,8.3397e-11,0,7.287e-06,-3.5384e-07,-697.56,23.801,0,2.1759e+06,-599.49,12081,13104,1,13104,1,1.5752e-05,1.1972e-08,0,1.5752e-05,2.2312e-06,3.5127e+06,3944.8,0,4.8316e+06,104.34,13103,12082,1,12082,1,1.934e-06,-4.0152e-11,0,7.1545e-06,-3.6234e-07,5.4469e+05,-12.081,0,2.1662e+06,-145.65,12081,10985,1,10985,1,-1.1879e-05,-8.0747e-09,0,3.9765e-07,-2.9376e-06,-4.8316e+06,-2659.9,0,1.1566e+05,-8046.7,10984,11571,1,11571,1,-5.2195e-06,-2.5126e-09,0,3.5777e-06,-1.6903e-06,-2.1226e+06,-671.15,0,1.1315e+06,-509.48,11570,12593,1,12593,1,9.0884e-06,2.4894e-09,0,1.0731e-05,9.8351e-07,2.1662e+06,645,0,3.1198e+06,-27.416,12592,591.12,0,591.12,0,8.2605e-06,3.5947e-09,0,4.3424e-06,1.5443e-06,2.5123e+06,940.23,0,1.2549e+06,1171.7,591.12,1
2044,0.06,12082,1,12082,1,2.3263e-06,-7.351e-11,0,8.7533e-06,-4.2465e-07,-108.74,-19.182,0,2.6137e+06,-449.23,12081,13104,1,13104,1,1.8924e-05,1.171e-08,0,1.8924e-05,2.6798e-06,4.2202e+06,3643.2,0,5.803e+06,149.57,13103,12082,1,12082,1,2.3245e-06,2.6289e-10,0,8.593e-06,-4.325e-07,6.55e+05,67.18,0,2.6024e+06,-146.17,12081,10985,1,10985,1,-1.4268e-05,-1.6643e-08,0,4.802e-07,-3.5292e-06,-5.803e+06,-5490.4,0,1.3983e+05,-7287,10984,11571,1,11571,1,-6.2669e-06,-3.8267e-09,0,4.2968e-06,-2.0297e-06,-2.5485e+06,-987.66,0,1.3589e+06,-392.86,11570,12593,1,12593,1,1.0918e-05,4.2963e-09,0,1.2889e-05,1.1811e-06,2.6024e+06,1113,0,3.7471e+06,-21.489,12592,591.12,0,591.12,0,9.9225e-06,6.1716e-09,0,5.2165e-06,1.855e-06,3.0177e+06,1573.2,0,1.5073e+06,954.97,591.12,1
2044,0.07,12082,1,12082,1,2.7124e-06,1.7858e-09,0,1.0205e-05,-4.9489e-07,25.588,456.86,0,3.0469e+06,-448.67,12081,13104,1,13104,1,2.2063e-05,1.4665e-08,0,2.2063e-05,3.1242e-06,4.92e+06,3844.1,0,6.7656e+06,271.76,13103,12082,1,12082,1,2.7101e-06,1.1274e-09,0,1.0014e-05,-5.039e-07,7.6376e+05,287.18,0,3.0331e+06,-168.33,12081,10985,1,10985,1,-1.6635e-05,-1.8355e-08,0,5.6285e-07,-4.1145e-06,-6.7656e+06,-6052.7,0,1.6409e+05,-8095.3,10984,11571,1,11571,1,-7.303e-06,-1.4305e-09,0,5.0079e-06,-2.3659e-06,-2.9699e+06,-403.2,0,1.5838e+06,-412.73,11570,12593,1,12593,1,1.2725e-05,6.2592e-09,0,1.5021e-05,1.3767e-06,3.0331e+06,1660.8,0,4.367e+06,-22.56,12592,591.12,0,591.12,0,1.1567e-05,6.3143e-09,0,6.0814e-06,2.1626e-06,3.5179e+06,1600.4,0,1.7571e+06,1006.9,591.12,1
2044,0.08,12082,1,12082,1,3.1012e-06,-3.1989e-09,0,1.1667e-05,-5.6521e-07,80.177,-820.22,0,3.4837e+06,-296.47,12081,13104,1,13104,1,2.5221e-05,7.2148e-09,0,2.5221e-05,3.5715e-06,5.6243e+06,2335.8,0,7.7336e+06,462.31,13103,12082,1,12082,1,3.0976e-06,-1.2492e-09,0,1.1448e-05,-5.6659e-07,8.7299e+05,-317.95,0,3.4671e+06,-121.88,12081,10985,1,10985,1,-1.9015e-05,-2.0114e-08,0,6.4282e-07,-4.7033e-06,-7.7336e+06,-5964.7,0,1.8722e+05,-7702.7,10984,11571,1,11571,1,-8.3481e-06,-7.309e-09,0,5.7242e-06,-2.7042e-06,-3.3948e+06,-1887.3,0,1.8105e+06,-278.89,11570,12593,1,12593,1,1.4546e-05,1.1996e-09,0,1.7171e-05,1.5739e-06,3.4671e+06,309.04,0,4.9918e+06,-8.4943,12592,591.12,0,591.12,0,1.3225e-05,6.2185e-09,0,6.953e-06,2.4725e-06,4.0221e+06,1581.6,0,2.0089e+06,761.49,591.12,1
2044,0.09,12082,1,12082,1,3.479e-06,-2.1063e-09,0,1.309e-05,-6.3398e-07,-62.748,-526.59,0,3.9086e+06,-303.43,12081,13104,1,13104,1,2.8287e-05,6.0027e-09,0,2.8287e-05,4.0056e-06,6.3081e+06,1976,0,8.6736e+06,552.48,13103,12082,1,12082,1,3.4763e-06,-4.9866e-10,0,1.2848e-05,-6.3503e-07,9.7973e+05,-115.11,0,3.891e+06,-131.34,12081,10985,1,10985,1,-2.1326e-05,-1.6732e-08,0,7.2138e-07,-5.275e-06,-8.6736e+06,-4163.3,0,2.1047e+05,-7317.4,10984,11571,1,11571,1,-9.3704e-06,-4.5527e-09,0,6.4249e-06,-3.0344e-06,-3.8106e+06,-1146.6,0,2.032e+06,-332.3,11570,12593,1,12593,1,1.6324e-05,9.5197e-10,0,1.9271e-05,1.7666e-06,3.891e+06,236.84,0,5.6024e+06,-21.629,12592,591.12,0,591.12,0,1.4839e-05,4.6104e-09,0,7.801e-06,2.7741e-06,4.5128e+06,1150.4,0,2.254e+06,727.63,591.12,1
2044,0.1,12082,1,12082,1,3.8624e-06,-1.1271e-09,0,1.4534e-05,-7.0353e-07,-204.29,-291.24,0,4.3399e+06,-229.31,12081,13104,1,13104,1,3.1403e-05,6.4936e-09,0,3.1403e-05,4.4471e-06,7.003e+06,1755.5,0,9.6295e+06,250.21,13103,12082,1,12082,1,3.8604e-06,-2.2002e-10,0,1.4269e-05,-7.042e-07,1.0881e+06,-60.609,0,4.3214e+06,-98.468,12081,10985,1,10985,1,-2.3676e-05,-1.3565e-08,0,8.017e-07,-5.8561e-06,-9.6295e+06,-3675.9,0,2.343e+05,-7336.6,10984,11571,1,11571,1,-1.0408e-05,-3.3182e-09,0,7.1351e-06,-3.3703e-06,-4.2325e+06,-856.13,0,2.2569e+06,-224.65,11570,12593,1,12593,1,1.813e-05,1.2742e-09,0,2.1403e-05,1.9623e-06,4.3214e+06,342.94,0,6.2222e+06,-8.7242,12592,591.12,0,591.12,0,1.6476e-05,3.6698e-09,0,8.6616e-06,3.0803e-06,5.0107e+06,937.65,0,2.5027e+06,570.32,591.12,1
2044,0.11,12082,1,12082,1,4.24e-06,7.2787e-11,0,1.5953e-05,-7.7164e-07,24.99,19.397,0,4.7634e+06,-11.082,12081,13104,1,13104,1,3.4457e-05,1.8043e-09,0,3.4457e-05,4.879e-06,7.6841e+06,427.6,0,1.0565e+07,31.069,13103,12082,1,12082,1,4.2398e-06,8.1574e-11,0,1.5666e-05,-7.6967e-07,1.1951e+06,19.713,0,4.7447e+06,-5.6232,12081,10985,1,10985,1,-2.5977e-05,-2.3905e-09,0,8.8263e-07,-6.4254e-06,-1.0565e+07,-561.73,0,2.5895e+05,-68.872,10984,11571,1,11571,1,-1.1427e-05,-3.4243e-10,0,7.8333e-06,-3.6999e-06,-4.6467e+06,-86.91,0,2.4779e+06,-23.677,11570,12593,1,12593,1,1.9906e-05,6.5451e-10,0,2.35e-05,2.1544e-06,4.7447e+06,171.02,0,6.8313e+06,4.2805,12592,591.12,0,591.12,0,1.8084e-05,8.5643e-10,0,9.5069e-06,3.381e-06,5.4997e+06,215.23,0,2.7468e+06,19.496,591.12,1
2044,0.12,12082,1,12082,1,4.6272e-06,-5.9728e-11,0,1.741e-05,-8.4208e-07,-27.328,-14.52,0,5.1986e+06,-3.5012,12081,13104,1,13104,1,3.7606e-05,2.2847e-09,0,3.7606e-05,5.3249e-06,8.3862e+06,546.95,0,1.1531e+07,61.928,13103,12082,1,12082,1,4.6268e-06,1.3504e-10,0,1.7097e-05,-8.3997e-07,1.3042e+06,33.926,0,5.178e+06,0.90451,12081,10985,1,10985,1,-2.8351e-05,-4.0384e-09,0,9.6302e-07,-7.0125e-06,-1.1531e+07,-975.26,0,2.8253e+05,-78.62,10984,11571,1,11571,1,-1.247e-05,-6.2062e-10,0,8.5487e-06,-4.0378e-06,-5.0711e+06,-163.85,0,2.7042e+06,-19.24,11570,12593,1,12593,1,2.1724e-05,8.0694e-10,0,2.5646e-05,2.3512e-06,5.178e+06,211.98,0,7.4551e+06,12.937,12592,591.12,0,591.12,0,1.9736e-05,1.2845e-09,0,1.0375e-05,3.6899e-06,6.0021e+06,325.5,0,2.9978e+06,26.806,591.12,1
2044,0.13,12082,1,12082,1,5.009e-06,1.4504e-10,0,1.8847e-05,-9.1154e-07,-20.498,37.323,0,5.6276e+06,7.1951,12081,13104,1,13104,1,4.0708e-05,7.5127e-10,0,4.0708e-05,5.7642e-06,9.0781e+06,185.38,0,1.2482e+07,39.237,13103,12082,1,12082,1,5.0091e-06,6.8175e-11,0,1.851e-05,-9.0928e-07,1.4119e+06,18.299,0,5.6058e+06,5.6592,12081,10985,1,10985,1,-3.069e-05,-1.9016e-10,0,1.0427e-06,-7.5909e-06,-1.2482e+07,-44.067,0,3.0591e+05,-39.711,10984,11571,1,11571,1,-1.35e-05,-2.4021e-11,0,9.2549e-06,-4.3714e-06,-5.4901e+06,-6.4279,0,2.9277e+06,1.632,11570,12593,1,12593,1,2.3519e-05,2.9429e-10,0,2.7764e-05,2.5455e-06,5.6058e+06,76.264,0,8.071e+06,12.264,12592,591.12,0,591.12,0,2.1364e-05,2.3499e-10,0,1.1232e-05,3.9944e-06,6.4974e+06,58.879,0,3.2451e+06,10.328,591.12,1
2044,0.14,12082,1,12082,1,5.3961e-06,1.2174e-09,0,2.0303e-05,-9.8204e-07,-7.4463,312.27,0,6.0624e+06,-16.169,12081,13104,1,13104,1,4.3858e-05,3.9456e-09,0,4.3858e-05,6.2102e-06,9.7806e+06,961.44,0,1.3448e+07,145.24,13103,12082,1,12082,1,5.3952e-06,9.3096e-10,0,1.9937e-05,-9.7942e-07,1.5208e+06,240.43,0,6.0382e+06,-9.6233,12081,10985,1,10985,1,-3.3065e-05,-7.8559e-10,0,1.1228e-06,-8.1791e-06,-1.3448e+07,-147.86,0,3.2943e+05,-1569,10984,11571,1,11571,1,-1.4542e-05,2.4883e-10,0,9.9687e-06,-4.7085e-06,-5.9135e+06,65.877,0,3.1535e+06,-26.439,11570,12593,1,12593,1,2.5333e-05,2.034e-09,0,2.9906e-05,2.7419e-06,6.0382e+06,543,0,8.6935e+06,4.1919,12592,591.12,0,591.12,0,2.3015e-05,1.1349e-09,0,1.2099e-05,4.303e-06,6.9994e+06,284.79,0,3.4958e+06,61.735,591.12,1
2044,0.15,12082,1,12082,1,5.7785e-06,-2.1914e-11,0,2.1742e-05,-1.0516e-06,4.5707,-5.5355,0,6.492e+06,-0.43963,12081,13104,1,13104,1,4.6958e-05,2.1029e-11,0,4.6958e-05,6.6491e-06,1.0472e+07,7.2006,0,1.4398e+07,2.5167,13103,12082,1,12082,1,5.7785e-06,-1.5337e-11,0,2.1352e-05,-1.0489e-06,1.6288e+06,-4.1571,0,6.4668e+06,-0.3485,12081,10985,1,10985,1,-3.5401e-05,-9.3723e-11,0,1.203e-06,-8.7564e-06,-1.4398e+07,-22.901,0,3.5294e+05,-6.2418,10984,11571,1,11571,1,-1.5574e-05,-3.8838e-11,0,1.0676e-05,-5.0427e-06,-6.3332e+06,-10.016,0,3.3773e+06,-0.9257,11570,12593,1,12593,1,2.7131e-05,-7.6046e-13,0,3.2029e-05,2.9364e-06,6.4668e+06,-0.1862,0,9.3105e+06,0.31693,12592,591.12,0,591.12,0,2.4646e-05,2.6649e-11,0,1.2957e-05,4.6079e-06,7.4954e+06,6.6681,0,3.7436e+06,1.3966,591.12,1
2044,0.16,12082,1,12082,1,6.1682e-06,-1.166e-10,0,2.3208e-05,-1.1226e-06,40.962,-31.194,0,6.9297e+06,-40.999,12081,13104,1,13104,1,5.0128e-05,1.6812e-09,0,5.0128e-05,7.098e-06,1.1179e+07,553.44,0,1.537e+07,113.72,13103,12082,1,12082,1,6.168e-06,-1.6533e-11,0,2.2791e-05,-1.1198e-06,1.7386e+06,-4.378,0,6.9025e+06,-21.965,12081,10985,1,10985,1,-3.7791e-05,-2.8953e-09,0,1.2838e-06,-9.3513e-06,-1.537e+07,-953.86,0,3.7665e+05,-1244.7,10984,11571,1,11571,1,-1.6623e-05,-7.4827e-10,0,1.1396e-05,-5.3827e-06,-6.7599e+06,-189.74,0,3.6048e+06,-50.915,11570,12593,1,12593,1,2.8959e-05,6.8132e-10,0,3.4187e-05,3.1342e-06,6.9025e+06,172.63,0,9.938e+06,11.193,12592,591.12,0,591.12,0,2.6308e-05,1.0168e-09,0,1.383e-05,4.9187e-06,8.0007e+06,272.53,0,3.996e+06,126.12,591.12,1
2044,0.17,12082,1,12082,1,6.5542e-06,-1.8358e-11,0,2.466e-05,-1.193e-06,42.237,-4.3577,0,7.3633e+06,-74.646,12081,13104,1,13104,1,5.3265e-05,1.6656e-09,0,5.3265e-05,7.5421e-06,1.1878e+07,546.82,0,1.6332e+07,171.48,13103,12082,1,12082,1,6.5541e-06,7.7442e-12,0,2.4218e-05,-1.1901e-06,1.8474e+06,2.0406,0,7.3346e+06,-63.328,12081,10985,1,10985,1,-4.0155e-05,-2.7531e-09,0,1.3643e-06,-9.9343e-06,-1.6332e+07,-826.62,0,4.0026e+05,-634.52,10984,11571,1,11571,1,-1.7663e-05,-5.7456e-10,0,1.2109e-05,-5.7197e-06,-7.1829e+06,-145.96,0,3.8305e+06,-106.06,11570,12593,1,12593,1,3.0772e-05,7.6844e-10,0,3.6326e-05,3.3303e-06,7.3346e+06,189.16,0,1.056e+07,-24.949,12592,591.12,0,591.12,0,2.7954e-05,9.9355e-10,0,1.4696e-05,5.2265e-06,8.5014e+06,262.93,0,4.246e+06,79.727,591.12,1
2044,0.18,12082,1,12082,1,6.9357e-06,-1.9457e-10,0,2.6097e-05,-1.2624e-06,-109.81,-55.49,0,7.7924e+06,-66.03,12081,13104,1,13104,1,5.6368e-05,1.9925e-09,0,5.6368e-05,7.9815e-06,1.257e+07,489.9,0,1.7283e+07,301.59,13103,12082,1,12082,1,6.9356e-06,-1.874e-10,0,2.563e-05,-1.2593e-06,1.955e+06,-50.492,0,7.7622e+06,-25.583,12081,10985,1,10985,1,-4.2495e-05,-1.9337e-09,0,1.4428e-06,-1.0515e-05,-1.7283e+07,-474.64,0,4.2329e+05,-1758.5,10984,11571,1,11571,1,-1.8694e-05,-5.7387e-10,0,1.2815e-05,-6.0532e-06,-7.6021e+06,-161.35,0,4.0538e+06,-112.68,11570,12593,1,12593,1,3.2566e-05,1.4842e-10,0,3.8445e-05,3.5247e-06,7.7622e+06,38.242,0,1.1176e+07,12.501,12592,591.12,0,591.12,0,2.9583e-05,6.63e-10,0,1.5552e-05,5.5311e-06,8.9968e+06,157.6,0,4.4935e+06,145.4,591.12,1
2044,0.19,12082,1,12082,1,7.3245e-06,8.0714e-11,0,2.7559e-05,-1.3331e-06,38.029,19.274,0,8.2287e+06,-45.851,12081,13104,1,13104,1,5.9524e-05,1.9697e-09,0,5.9524e-05,8.4284e-06,1.3274e+07,535.79,0,1.8251e+07,221.32,13103,12082,1,12082,1,7.3242e-06,8.6996e-11,0,2.7064e-05,-1.3297e-06,2.0645e+06,19.532,0,8.1965e+06,-41.323,12081,10985,1,10985,1,-4.4874e-05,-2.6941e-09,0,1.5246e-06,-1.1101e-05,-1.8251e+07,-886.67,0,4.473e+05,-570.14,10984,11571,1,11571,1,-1.9739e-05,-5.3845e-10,0,1.3532e-05,-6.3919e-06,-8.0271e+06,-138.91,0,4.2806e+06,-86.136,11570,12593,1,12593,1,3.4388e-05,9.2858e-10,0,4.0595e-05,3.7218e-06,8.1965e+06,235.5,0,1.1801e+07,3.1674,12592,591.12,0,591.12,0,3.1239e-05,1.0929e-09,0,1.6423e-05,5.8407e-06,9.5006e+06,286.26,0,4.7451e+06,84.585,591.12,1
2044,0.2,12082,1,12082,1,7.7103e-06,-2.3388e-10,0,2.9011e-05,-1.4034e-06,1.8368,-60.305,0,8.6623e+06,-89.761,12081,13104,1,13104,1,6.266e-05,1.6869e-09,0,6.266e-05,8.8725e-06,1.3973e+07,533.24,0,1.9213e+07,378.61,13103,12082,1,12082,1,7.7102e-06,-9.0566e-11,0,2.849e-05,-1.3996e-06,2.1733e+06,-25.267,0,8.6284e+06,-45.344,12081,10985,1,10985,1,-4.7239e-05,-3.3981e-09,0,1.6051e-06,-1.1689e-05,-1.9213e+07,-887.63,0,4.7089e+05,-1447.2,10984,11571,1,11571,1,-2.0779e-05,-8.7553e-10,0,1.4245e-05,-6.7287e-06,-8.4502e+06,-227.09,0,4.5062e+06,-157.08,11570,12593,1,12593,1,3.62e-05,4.9499e-10,0,4.2735e-05,3.9179e-06,8.6284e+06,117.52,0,1.2423e+07,-6.7678,12592,591.12,0,591.12,0,3.2885e-05,1.0806e-09,0,1.7288e-05,6.1486e-06,1.0001e+07,287.81,0,4.9951e+06,176.84,591.12,1
2044,0.21,12082,1,12082,1,8.0897e-06,3.2503e-10,0,3.0442e-05,-1.4724e-06,-360.22,85.573,0,9.0898e+06,-71.314,12081,13104,1,13104,1,6.5754e-05,2.7342e-09,0,6.5754e-05,9.3103e-06,1.4663e+07,645.27,0,2.0161e+07,165.16,13103,12082,1,12082,1,8.0895e-06,2.2508e-10,0,2.9897e-05,-1.4687e-06,2.2802e+06,62.571,0,9.0545e+06,-45.518,12081,10985,1,10985,1,-4.957e-05,-1.2025e-09,0,1.6821e-06,-1.2262e-05,-2.0161e+07,-275.1,0,4.9348e+05,-631.01,10984,11571,1,11571,1,-2.1807e-05,-9.8289e-12,0,1.4948e-05,-7.0608e-06,-8.8679e+06,-2.2917,0,4.7289e+06,-120.58,11570,12593,1,12593,1,3.7987e-05,5.1847e-10,0,4.4846e-05,4.1117e-06,9.0545e+06,158.57,0,1.3037e+07,-6.7573,12592,591.12,0,591.12,0,3.4508e-05,6.2039e-10,0,1.8141e-05,6.4519e-06,1.0495e+07,142.1,0,5.2417e+06,102.73,591.12,1
2044,0.22,12082,1,12082,1,8.4798e-06,-1.8352e-10,0,3.1906e-05,-1.5434e-06,-27.794,-42.985,0,9.5269e+06,-76.808,12081,13104,1,13104,1,6.8912e-05,9.2859e-10,0,6.8912e-05,9.7578e-06,1.5368e+07,315.59,0,2.113e+07,162.81,13103,12082,1,12082,1,8.4797e-06,-6.6735e-11,0,3.1334e-05,-1.5395e-06,2.3902e+06,-15.243,0,9.4896e+06,-39.899,12081,10985,1,10985,1,-5.1952e-05,-1.831e-09,0,1.7651e-06,-1.2852e-05,-2.113e+07,-569.87,0,5.1784e+05,-709.7,10984,11571,1,11571,1,-2.2854e-05,-4.3553e-10,0,1.5666e-05,-7.4005e-06,-9.2936e+06,-109.2,0,4.9561e+06,-128.19,11570,12593,1,12593,1,3.9813e-05,1.6725e-10,0,4.7e-05,4.309e-06,9.4896e+06,44.038,0,1.3663e+07,-7.0073,12592,591.12,0,591.12,0,3.6167e-05,5.4329e-10,0,1.9014e-05,6.7621e-06,1.0999e+07,150.03,0,5.4936e+06,117.9,591.12,1
2044,0.23,12082,1,12082,1,8.8647e-06,2.1072e-10,0,3.3355e-05,-1.6134e-06,-63.122,55.208,0,9.9594e+06,-60.286,12081,13104,1,13104,1,7.2041e-05,1.9368e-09,0,7.2041e-05,1.0201e-05,1.6065e+07,592.82,0,2.209e+07,233.29,13103,12082,1,12082,1,8.8645e-06,5.1465e-11,0,3.2756e-05,-1.6093e-06,2.4987e+06,14.381,0,9.9204e+06,-29.51,12081,10985,1,10985,1,-5.4312e-05,-2.127e-09,0,1.845e-06,-1.3434e-05,-2.209e+07,-722.83,0,5.4128e+05,-477.21,10984,11571,1,11571,1,-2.3891e-05,-2.4922e-10,0,1.6378e-05,-7.7364e-06,-9.7156e+06,-64.972,0,5.1811e+06,-101.83,11570,12593,1,12593,1,4.162e-05,7.9722e-10,0,4.9133e-05,4.5046e-06,9.9204e+06,193.5,0,1.4283e+07,8.9704,12592,591.12,0,591.12,0,3.781e-05,7.9493e-10,0,1.9877e-05,7.0692e-06,1.1499e+07,225.21,0,5.7431e+06,117.2,591.12,1
2044,0.24,12082,1,12082,1,9.2464e-06,-2.8579e-10,0,3.4793e-05,-1.6829e-06,-231.41,-70.137,0,1.0389e+07,-55.734,12081,13104,1,13104,1,7.5148e-05,1.0685e-09,0,7.5148e-05,1.0641e-05,1.6758e+07,200.5,0,2.3042e+07,194.78,13103,12082,1,12082,1,9.2465e-06,-1.8571e-10,0,3.4169e-05,-1.6785e-06,2.6063e+06,-53.618,0,1.0349e+07,-14.294,12081,10985,1,10985,1,-5.6653e-05,-1.8122e-09,0,1.9237e-06,-1.4016e-05,-2.3042e+07,-439.99,0,5.6435e+05,-987.34,10984,11571,1,11571,1,-2.4923e-05,-3.8931e-10,0,1.7085e-05,-8.0699e-06,-1.0135e+07,-91.995,0,5.4046e+06,-94.446,11570,12593,1,12593,1,4.3416e-05,-5.1556e-11,0,5.1255e-05,4.6992e-06,1.0349e+07,-13.928,0,1.49e+07,17.906,12592,591.12,0,591.12,0,3.944e-05,4.2355e-10,0,2.0734e-05,7.374e-06,1.1995e+07,93.549,0,5.9907e+06,139.99,591.12,1
2044,0.25,12082,1,12082,1,9.6328e-06,-9.5474e-11,0,3.6247e-05,-1.7534e-06,-273.14,-14.713,0,1.0823e+07,-134.88,12081,13104,1,13104,1,7.8287e-05,2.6422e-09,0,7.8287e-05,1.1085e-05,1.7458e+07,496.65,0,2.4005e+07,626.67,13103,12082,1,12082,1,9.6323e-06,1.4719e-11,0,3.5597e-05,-1.7492e-06,2.7151e+06,4.6072,0,1.0781e+07,-33.265,12081,10985,1,10985,1,-5.902e-05,-8.5891e-09,0,2.0038e-06,-1.4604e-05,-2.4005e+07,-1614.6,0,5.8775e+05,-2064.1,10984,11571,1,11571,1,-2.5964e-05,-1.72e-10,0,1.7799e-05,-8.4073e-06,-1.0559e+07,-46.395,0,5.6305e+06,-169.26,11570,12593,1,12593,1,4.523e-05,2.7431e-10,0,5.3396e-05,4.8955e-06,1.0781e+07,66.363,0,1.5522e+07,16.059,12592,591.12,0,591.12,0,4.1088e-05,9.001e-10,0,2.1601e-05,7.6824e-06,1.2496e+07,182.13,0,6.2411e+06,325.25,591.12,1
2044,0.26,12082,1,12082,1,1.0016e-05,-6.0209e-11,0,3.769e-05,-1.8229e-06,-299.1,-16.311,0,1.1254e+07,-52.115,12081,13104,1,13104,1,8.1405e-05,2.061e-09,0,8.1405e-05,1.1527e-05,1.8154e+07,465.99,0,2.4961e+07,240.86,13103,12082,1,12082,1,1.0016e-05,-8.4129e-11,0,3.7015e-05,-1.8182e-06,2.8232e+06,-25.144,0,1.121e+07,-28.394,12081,10985,1,10985,1,-6.1371e-05,-1.8138e-09,0,2.0837e-06,-1.518e-05,-2.4961e+07,-445.16,0,6.1128e+05,-372.76,10984,11571,1,11571,1,-2.6999e-05,-3.3642e-10,0,1.8508e-05,-8.7417e-06,-1.0979e+07,-95.444,0,5.8546e+06,-98.833,11570,12593,1,12593,1,4.7031e-05,1.5598e-10,0,5.5523e-05,5.0906e-06,1.121e+07,40.638,0,1.614e+07,-3.0436,12592,591.12,0,591.12,0,4.2724e-05,6.4052e-10,0,2.2461e-05,7.988e-06,1.2993e+07,145,0,6.4896e+06,99.763,591.12,1
2044,0.27,12082,1,12082,1,1.0406e-05,2.3996e-11,0,3.9156e-05,-1.8939e-06,-145,9.9673,0,1.1692e+07,-41.981,12081,13104,1,13104,1,8.457e-05,1.6611e-09,0,8.457e-05,1.1975e-05,1.8859e+07,516.51,0,2.5931e+07,126.85,13103,12082,1,12082,1,1.0406e-05,2.2207e-11,0,3.8454e-05,-1.8891e-06,2.9333e+06,6.0906,0,1.1646e+07,-39.129,12081,10985,1,10985,1,-6.3758e-05,-2.1618e-09,0,2.1657e-06,-1.577e-05,-2.5931e+07,-664.04,0,6.3536e+05,-220.6,10984,11571,1,11571,1,-2.8047e-05,-4.0053e-10,0,1.9226e-05,-9.0817e-06,-1.1406e+07,-96.136,0,6.0824e+06,-73.996,11570,12593,1,12593,1,4.886e-05,5.2449e-10,0,5.768e-05,5.2882e-06,1.1646e+07,125.21,0,1.6767e+07,-5.1115,12592,591.12,0,591.12,0,4.4386e-05,7.2902e-10,0,2.3334e-05,8.2986e-06,1.3499e+07,204.75,0,6.742e+06,51.9,591.12,1
2044,0.28,12082,1,12082,1,1.0791e-05,6.5309e-11,0,4.0604e-05,-1.964e-06,-61.774,23.064,0,1.2124e+07,-35.743,12081,13104,1,13104,1,8.7698e-05,1.5989e-09,0,8.7698e-05,1.2418e-05,1.9557e+07,530.96,0,2.689e+07,167.19,13103,12082,1,12082,1,1.0791e-05,9.8494e-11,0,3.9875e-05,-1.9589e-06,3.0418e+06,27.524,0,1.2077e+07,-28.655,12081,10985,1,10985,1,-6.6115e-05,-2.4665e-09,0,2.2463e-06,-1.6354e-05,-2.689e+07,-660.11,0,6.5904e+05,-442.26,10984,11571,1,11571,1,-2.9084e-05,-3.3155e-10,0,1.9938e-05,-9.4175e-06,-1.1827e+07,-82.89,0,6.3071e+06,-69.5,11570,12593,1,12593,1,5.0666e-05,6.8015e-10,0,5.9813e-05,5.4837e-06,1.2077e+07,166.23,0,1.7387e+07,10.008,12592,591.12,0,591.12,0,4.6027e-05,8.5105e-10,0,2.4197e-05,8.6055e-06,1.3998e+07,228.8,0,6.9913e+06,70.102,591.12,1
2044,0.29,12082,1,12082,1,1.1176e-05,-6.2725e-10,0,4.2049e-05,-2.0339e-06,-1.6524,-159.89,0,1.2555e+07,-34.146,12081,13104,1,13104,1,9.082e-05,3.3275e-10,0,9.082e-05,1.286e-05,2.0253e+07,113.1,0,2.7847e+07,139.95,13103,12082,1,12082,1,1.1175e-05,-4.395e-10,0,4.1294e-05,-2.0286e-06,3.15e+06,-109.95,0,1.2506e+07,-23.917,12081,10985,1,10985,1,-6.8468e-05,-2.3322e-09,0,2.3262e-06,-1.6937e-05,-2.7847e+07,-767.76,0,6.8247e+05,-481.36,10984,11571,1,11571,1,-3.0119e-05,-1.1189e-09,0,2.0647e-05,-9.7523e-06,-1.2248e+07,-274.45,0,6.5315e+06,-58.309,11570,12593,1,12593,1,5.2469e-05,-1.1227e-10,0,6.1941e-05,5.6788e-06,1.2506e+07,-28.107,0,1.8006e+07,1.3078,12592,591.12,0,591.12,0,4.7665e-05,6.2016e-10,0,2.5058e-05,8.9117e-06,1.4496e+07,167.19,0,7.24e+06,73.606,591.12,1
2044,0.3,12082,1,12082,1,1.1561e-05,1.5176e-10,0,4.3501e-05,-2.1041e-06,4.2049,39.283,0,1.2989e+07,-50.17,12081,13104,1,13104,1,9.3955e-05,1.8014e-09,0,9.3955e-05,1.3304e-05,2.0952e+07,592.71,0,2.8808e+07,120.58,13103,12082,1,12082,1,1.1561e-05,8.52e-11,0,4.272e-05,-2.0992e-06,3.2588e+06,19.9,0,1.2938e+07,-35.452,12081,10985,1,10985,1,-7.0832e-05,-2.0293e-09,0,2.4068e-06,-1.7521e-05,-2.8808e+07,-652.03,0,7.0612e+05,-539,10984,11571,1,11571,1,-3.1158e-05,-3.6657e-10,0,2.136e-05,-1.0089e-05,-1.2671e+07,-100.46,0,6.757e+06,-78.755,11570,12593,1,12593,1,5.4281e-05,8.8889e-10,0,6.408e-05,5.8748e-06,1.2938e+07,225.56,0,1.8628e+07,-1.0429,12592,591.12,0,591.12,0,4.931e-05,9.1939e-10,0,2.5923e-05,9.2193e-06,1.4996e+07,243.16,0,7.49e+06,74.593,591.12,1
2044,0.31,12082,1,12082,1,1.1945e-05,-1.3364e-11,0,4.4945e-05,-2.1739e-06,24.767,-3.581,0,1.342e+07,-7.0113,12081,13104,1,13104,1,9.7073e-05,1.0617e-09,0,9.7073e-05,1.3745e-05,2.1647e+07,298.93,0,2.9764e+07,139.36,13103,12082,1,12082,1,1.1945e-05,3.3049e-11,0,4.4139e-05,-2.1685e-06,3.367e+06,9.1641,0,1.3368e+07,-4.5516,12081,10985,1,10985,1,-7.3182e-05,-1.7772e-09,0,2.4868e-06,-1.8102e-05,-2.9764e+07,-521.57,0,7.2959e+05,-197.12,10984,11571,1,11571,1,-3.2193e-05,-3.7662e-10,0,2.2069e-05,-1.0424e-05,-1.3092e+07,-98.705,0,6.9814e+06,-34.827,11570,12593,1,12593,1,5.6084e-05,4.4159e-10,0,6.6208e-05,6.07e-06,1.3368e+07,116.49,0,1.9246e+07,15.996,12592,591.12,0,591.12,0,5.0947e-05,6.2589e-10,0,2.6784e-05,9.5253e-06,1.5494e+07,160.79,0,7.7386e+06,44.915,591.12,1
2044,0.32,12082,1,12082,1,1.233e-05,6.7618e-11,0,4.6393e-05,-2.2439e-06,-16.61,17.06,0,1.3852e+07,1.6678,12081,13104,1,13104,1,0.0001002,6.4253e-10,0,0.0001002,1.4188e-05,2.2345e+07,187.32,0,3.0723e+07,131.17,13103,12082,1,12082,1,1.233e-05,8.3179e-11,0,4.5561e-05,-2.2382e-06,3.4755e+06,20.593,0,1.3799e+07,-3.1347,12081,10985,1,10985,1,-7.5539e-05,-1.0156e-09,0,2.5667e-06,-1.8684e-05,-3.0723e+07,-334.09,0,7.5302e+05,-103.44,10984,11571,1,11571,1,-3.3231e-05,-1.383e-10,0,2.2781e-05,-1.076e-05,-1.3514e+07,-35.267,0,7.2064e+06,-22.162,11570,12593,1,12593,1,5.7891e-05,3.2035e-10,0,6.8341e-05,6.2656e-06,1.3799e+07,85.827,0,1.9867e+07,21.34,12592,591.12,0,591.12,0,5.2589e-05,3.2872e-10,0,2.7647e-05,9.8322e-06,1.5994e+07,87.881,0,7.988e+06,36.758,591.12,1
2044,0.33,12082,1,12082,1,1.2717e-05,-2.7135e-11,0,4.7849e-05,-2.3144e-06,45.896,-6.6886,0,1.4287e+07,-38.251,12081,13104,1,13104,1,0.00010335,1.4058e-09,0,0.00010335,1.4633e-05,2.3046e+07,462.44,0,3.1688e+07,144.92,13103,12082,1,12082,1,1.2717e-05,8.7656e-11,0,4.6991e-05,-2.3086e-06,3.5846e+06,21.557,0,1.4232e+07,-30.664,12081,10985,1,10985,1,-7.7911e-05,-2.2454e-09,0,2.6475e-06,-1.9273e-05,-3.1688e+07,-694.27,0,7.7673e+05,-649.73,10984,11571,1,11571,1,-3.4273e-05,-4.7647e-10,0,2.3495e-05,-1.1098e-05,-1.3938e+07,-116.07,0,7.4325e+06,-66.49,11570,12593,1,12593,1,5.9708e-05,5.4302e-10,0,7.0486e-05,6.4621e-06,1.4232e+07,133.96,0,2.049e+07,6.2944,12592,591.12,0,591.12,0,5.4239e-05,7.7334e-10,0,2.8514e-05,1.0141e-05,1.6495e+07,211.38,0,8.2386e+06,88.554,591.12,1
2044,0.34,12082,1,12082,1,1.3101e-05,1.9184e-10,0,4.9294e-05,-2.3842e-06,1.7347,49.793,0,1.4719e+07,-7.8205,12081,13104,1,13104,1,0.00010647,1.1117e-09,0,0.00010647,1.5075e-05,2.3742e+07,365.92,0,3.2644e+07,76.614,13103,12082,1,12082,1,1.3101e-05,1.5492e-10,0,4.8409e-05,-2.3783e-06,3.6928e+06,41.21,0,1.4661e+07,-7.3804,12081,10985,1,10985,1,-8.0263e-05,-1.2659e-09,0,2.7273e-06,-1.9853e-05,-3.2644e+07,-416.95,0,8.0013e+05,-184.05,10984,11571,1,11571,1,-3.5308e-05,-1.1468e-10,0,2.4205e-05,-1.1433e-05,-1.4359e+07,-33.378,0,7.6569e+06,-30.009,11570,12593,1,12593,1,6.151e-05,6.0784e-10,0,7.2614e-05,6.6573e-06,1.4661e+07,150.17,0,2.1109e+07,12.971,12592,591.12,0,591.12,0,5.5877e-05,4.7807e-10,0,2.9375e-05,1.0447e-05,1.6993e+07,133.1,0,8.4874e+06,33.811,591.12,1
2044,0.35,12082,1,12082,1,1.3487e-05,-1.6763e-10,0,5.0745e-05,-2.4543e-06,5.6798,-44.711,0,1.5152e+07,5.7375,12081,13104,1,13104,1,0.0001096,1.1162e-09,0,0.0001096,1.5519e-05,2.4441e+07,262.21,0,3.3605e+07,170.93,13103,12082,1,12082,1,1.3486e-05,-7.0185e-11,0,4.9834e-05,-2.4482e-06,3.8015e+06,-18.108,0,1.5093e+07,2.7694,12081,10985,1,10985,1,-8.2626e-05,-2.0276e-09,0,2.8076e-06,-2.0438e-05,-3.3605e+07,-577.23,0,8.237e+05,-210.52,10984,11571,1,11571,1,-3.6348e-05,-6.2727e-10,0,2.4917e-05,-1.1769e-05,-1.4781e+07,-162.38,0,7.8823e+06,-16.003,11570,12593,1,12593,1,6.3321e-05,3.5308e-10,0,7.4751e-05,6.8533e-06,1.5093e+07,90.375,0,2.173e+07,22.132,12592,591.12,0,591.12,0,5.7522e-05,7.2503e-10,0,3.024e-05,1.0755e-05,1.7494e+07,186.23,0,8.7372e+06,37.217,591.12,1
2044,0.36,12082,1,12082,1,1.3869e-05,3.8511e-10,0,5.2182e-05,-2.524e-06,-75.157,98.637,0,1.5581e+07,-47.128,12081,13104,1,13104,1,0.00011271,2.4591e-09,0,0.00011271,1.5959e-05,2.5134e+07,603.67,0,3.4558e+07,84.774,13103,12082,1,12082,1,1.3869e-05,2.754e-10,0,5.1248e-05,-2.5176e-06,3.9092e+06,76.99,0,1.5521e+07,-15.258,12081,10985,1,10985,1,-8.4969e-05,-7.3633e-10,0,2.8866e-06,-2.1017e-05,-3.4558e+07,-164.76,0,8.4686e+05,-405.63,10984,11571,1,11571,1,-3.7379e-05,2.4395e-11,0,2.5624e-05,-1.2103e-05,-1.52e+07,6.0114,0,8.1058e+06,-96.341,11570,12593,1,12593,1,6.5117e-05,5.4735e-10,0,7.6872e-05,7.0478e-06,1.5521e+07,163.72,0,2.2346e+07,5.1065,12592,591.12,0,591.12,0,5.9152e-05,5.3194e-10,0,3.1097e-05,1.1059e-05,1.7989e+07,123.98,0,8.9848e+06,79.599,591.12,1
2044,0.37,12082,1,12082,1,1.4258e-05,-1.7195e-10,0,5.3646e-05,-2.5947e-06,1.5223,-42.204,0,1.6018e+07,-22.33,12081,13104,1,13104,1,0.00011586,1.0407e-09,0,0.00011586,1.6406e-05,2.5838e+07,342.38,0,3.5526e+07,110.93,13103,12082,1,12082,1,1.4257e-05,-1.7518e-11,0,5.2683e-05,-2.5883e-06,4.0188e+06,-4.878,0,1.5956e+07,-15.456,12081,10985,1,10985,1,-8.7349e-05,-1.876e-09,0,2.9681e-06,-2.1607e-05,-3.5526e+07,-622.44,0,8.7079e+05,-393.75,10984,11571,1,11571,1,-3.8426e-05,-5.5732e-10,0,2.6342e-05,-1.2442e-05,-1.5626e+07,-139.71,0,8.3329e+06,-45.202,11570,12593,1,12593,1,6.6941e-05,3.2389e-10,0,7.9025e-05,7.2451e-06,1.5956e+07,76.659,0,2.2972e+07,4.7043,12592,591.12,0,591.12,0,6.081e-05,6.4075e-10,0,3.1969e-05,1.1369e-05,1.8494e+07,175.36,0,9.2367e+06,48.546,591.12,1
2044,0.38,12082,1,12082,1,1.4643e-05,-1.4952e-10,0,5.5095e-05,-2.6648e-06,9.7281,-37.379,0,1.6451e+07,-10.856,12081,13104,1,13104,1,0.000119,1.2332e-09,0,0.000119,1.6849e-05,2.6536e+07,401.34,0,3.6486e+07,188.81,13103,12082,1,12082,1,1.4643e-05,-1.2714e-11,0,5.4106e-05,-2.6584e-06,4.1274e+06,-3.2286,0,1.6387e+07,-11.509,12081,10985,1,10985,1,-8.9709e-05,-2.7762e-09,0,3.0484e-06,-2.219e-05,-3.6486e+07,-746.42,0,8.9433e+05,-421.9,10984,11571,1,11571,1,-3.9464e-05,-6.2644e-10,0,2.7053e-05,-1.2778e-05,-1.6048e+07,-159.64,0,8.558e+06,-45.104,11570,12593,1,12593,1,6.8749e-05,4.9793e-10,0,8.116e-05,7.4408e-06,1.6387e+07,125.69,0,2.3593e+07,22.698,12592,591.12,0,591.12,0,6.2453e-05,8.7099e-10,0,3.2833e-05,1.1676e-05,1.8993e+07,229.12,0,9.4863e+06,64.172,591.12,1
2044,0.39,12082,1,12082,1,1.5026e-05,3.1016e-11,0,5.6537e-05,-2.7345e-06,9.6001,9.0936,0,1.6882e+07,1.527,12081,13104,1,13104,1,0.00012211,7.5747e-10,0,0.00012211,1.729e-05,2.7231e+07,240.72,0,3.7441e+07,150.7,13103,12082,1,12082,1,1.5026e-05,8.4464e-11,0,5.5523e-05,-2.7275e-06,4.2355e+06,20.505,0,1.6816e+07,0.087651,12081,10985,1,10985,1,-9.2056e-05,-1.0728e-09,0,3.1281e-06,-2.277e-05,-3.7441e+07,-332.78,0,9.1776e+05,-160.97,10984,11571,1,11571,1,-4.0497e-05,-1.0995e-10,0,2.7762e-05,-1.3113e-05,-1.6469e+07,-27.492,0,8.7821e+06,-10.431,11570,12593,1,12593,1,7.055e-05,2.3909e-10,0,8.3285e-05,7.6357e-06,1.6816e+07,63.038,0,2.4211e+07,9.0194,12592,591.12,0,591.12,0,6.4088e-05,3.5109e-10,0,3.3692e-05,1.1982e-05,1.9491e+07,90.656,0,9.7346e+06,19.114,591.12,1
2044,0.4,12082,1,12082,1,1.5413e-05,4.2723e-13,0,5.7994e-05,-2.805e-06,28.947,-0.10843,0,1.7316e+07,-13.766,12081,13104,1,13104,1,0.00012526,1.6415e-09,0,0.00012526,1.7736e-05,2.7933e+07,464.1,0,3.8406e+07,64.643,13103,12082,1,12082,1,1.5413e-05,6.4449e-11,0,5.6954e-05,-2.7982e-06,4.3446e+06,15.572,0,1.7249e+07,-9.1304,12081,10985,1,10985,1,-9.4429e-05,-2.297e-09,0,3.2088e-06,-2.3357e-05,-3.8406e+07,-772.73,0,9.4141e+05,-232.49,10984,11571,1,11571,1,-4.154e-05,-4.8728e-10,0,2.8477e-05,-1.3451e-05,-1.6893e+07,-124.51,0,9.0084e+06,-36.51,11570,12593,1,12593,1,7.2367e-05,6.4201e-10,0,8.5431e-05,7.8324e-06,1.7249e+07,163.65,0,2.4834e+07,14.718,12592,591.12,0,591.12,0,6.5739e-05,8.7177e-10,0,3.456e-05,1.2291e-05,1.9993e+07,232.54,0,9.9854e+06,42.684,591.12,1
2044,0.41,12082,1,12082,1,1.5795e-05,-4.0929e-11,0,5.943e-05,-2.8747e-06,-4.9409,-9.7703,0,1.7745e+07,-75.375,12081,13104,1,13104,1,0.00012836,1.0595e-09,0,0.00012836,1.8175e-05,2.8624e+07,257.81,0,3.9357e+07,120.67,13103,12082,1,12082,1,1.5795e-05,-1.5691e-11,0,5.8365e-05,-2.8677e-06,4.4522e+06,-4.4503,0,1.7677e+07,-15.407,12081,10985,1,10985,1,-9.6767e-05,-1.6153e-09,0,3.2881e-06,-2.3939e-05,-3.9357e+07,-396.3,0,9.6463e+05,-1487.7,10984,11571,1,11571,1,-4.257e-05,-1.6321e-10,0,2.9183e-05,-1.3784e-05,-1.7312e+07,-42.595,0,9.2316e+06,-112.16,11570,12593,1,12593,1,7.416e-05,1.3613e-10,0,8.7548e-05,8.0265e-06,1.7677e+07,34.796,0,2.545e+07,-2.0327,12592,591.12,0,591.12,0,6.7367e-05,3.7552e-10,0,3.5416e-05,1.2596e-05,2.0488e+07,89.791,0,1.0233e+07,149.27,591.12,1
2044,0.42,12082,1,12082,1,1.618e-05,-1.3125e-10,0,6.0878e-05,-2.9445e-06,20.682,-33.472,0,1.8178e+07,-20.81,12081,13104,1,13104,1,0.00013148,1.6067e-09,0,0.00013148,1.8618e-05,2.9321e+07,394.14,0,4.0316e+07,81.762,13103,12082,1,12082,1,1.618e-05,-9.9575e-11,0,5.9787e-05,-2.9372e-06,4.5607e+06,-26.824,0,1.8107e+07,-5.2396,12081,10985,1,10985,1,-9.9124e-05,-1.5715e-09,0,3.3682e-06,-2.4519e-05,-4.0316e+07,-385.56,0,9.8817e+05,-523.39,10984,11571,1,11571,1,-4.3607e-05,-3.2179e-10,0,2.9894e-05,-1.412e-05,-1.7733e+07,-88.878,0,9.4565e+06,-24.058,11570,12593,1,12593,1,7.5967e-05,4.5532e-11,0,8.9681e-05,8.2221e-06,1.8107e+07,11.308,0,2.607e+07,3.6688,12592,591.12,0,591.12,0,6.9009e-05,5.0179e-10,0,3.6279e-05,1.2902e-05,2.0987e+07,117.33,0,1.0482e+07,68.916,591.12,1
2044,0.43,12082,1,12082,1,1.6569e-05,-1.6088e-10,0,6.2344e-05,-3.0154e-06,34.107,-40.796,0,1.8615e+07,-1.1365,12081,13104,1,13104,1,0.00013465,1.6573e-09,0,0.00013465,1.9066e-05,3.0028e+07,545.51,0,4.1287e+07,156.68,13103,12082,1,12082,1,1.6569e-05,-3.1426e-11,0,6.1226e-05,-3.008e-06,4.6705e+06,-7.3336,0,1.8543e+07,-3.516,12081,10985,1,10985,1,-0.00010151,-3.1288e-09,0,3.4494e-06,-2.5109e-05,-4.1287e+07,-1030.4,0,1.012e+06,-182.7,10984,11571,1,11571,1,-4.4656e-05,-7.4406e-10,0,3.0613e-05,-1.4459e-05,-1.816e+07,-189.48,0,9.684e+06,-38.657,11570,12593,1,12593,1,7.7795e-05,6.3722e-10,0,9.1838e-05,8.4198e-06,1.8543e+07,160.43,0,2.6697e+07,32.489,12592,591.12,0,591.12,0,7.067e-05,1.055e-09,0,3.7152e-05,1.3213e-05,2.1492e+07,282.28,0,1.0734e+07,56.905,591.12,1
2044,0.44,12082,1,12082,1,1.6953e-05,-2.9995e-11,0,6.3787e-05,-3.0852e-06,-10.98,-6.5118,0,1.9046e+07,-19.597,12081,13104,1,13104,1,0.00013777,6.2846e-10,0,0.00013777,1.9507e-05,3.0722e+07,213.59,0,4.2242e+07,90.553,13103,12082,1,12082,1,1.6953e-05,-1.3367e-11,0,6.2644e-05,-3.0775e-06,4.7786e+06,-3.3813,0,1.8972e+07,-14.579,12081,10985,1,10985,1,-0.00010386,-9.5631e-10,0,3.5291e-06,-2.5691e-05,-4.2242e+07,-314.46,0,1.0354e+06,-339.92,10984,11571,1,11571,1,-4.5691e-05,-1.4163e-10,0,3.1322e-05,-1.4794e-05,-1.8581e+07,-33.209,0,9.9084e+06,-38.802,11570,12593,1,12593,1,7.9597e-05,7.6506e-11,0,9.3965e-05,8.6149e-06,1.8972e+07,18.875,0,2.7315e+07,0.10502,12592,591.12,0,591.12,0,7.2306e-05,2.2289e-10,0,3.8013e-05,1.3519e-05,2.199e+07,70.391,0,1.0983e+07,41.764,591.12,1
2044,0.45,12082,1,12082,1,1.7339e-05,3.951e-11,0,6.5239e-05,-3.1555e-06,4.2811,10.715,0,1.948e+07,-19.79,12081,13104,1,13104,1,0.0001409,1.0709e-09,0,0.0001409,1.9951e-05,3.1422e+07,352.88,0,4.3204e+07,113.48,13103,12082,1,12082,1,1.7339e-05,8.9352e-11,0,6.407e-05,-3.1476e-06,4.8874e+06,21.734,0,1.9404e+07,-17.068,12081,10985,1,10985,1,-0.00010623,-1.5638e-09,0,3.6096e-06,-2.6275e-05,-4.3204e+07,-519.13,0,1.059e+06,-306.91,10984,11571,1,11571,1,-4.6731e-05,-3.3754e-10,0,3.2035e-05,-1.5131e-05,-1.9003e+07,-86.058,0,1.0134e+07,-37.576,11570,12593,1,12593,1,8.1409e-05,5.1376e-10,0,9.6105e-05,8.811e-06,1.9404e+07,126,0,2.7937e+07,0.40761,12592,591.12,0,591.12,0,7.3953e-05,5.7135e-10,0,3.8878e-05,1.3827e-05,2.2491e+07,155.56,0,1.1233e+07,38.215,591.12,1
2044,0.46,12082,1,12082,1,1.7721e-05,-2.2482e-10,0,6.6676e-05,-3.2249e-06,0.32312,-57.464,0,1.9909e+07,-11.948,12081,13104,1,13104,1,0.00014401,1.07e-09,0,0.00014401,2.0391e-05,3.2114e+07,250.06,0,4.4156e+07,81.677,13103,12082,1,12082,1,1.7721e-05,-1.9159e-10,0,6.5481e-05,-3.2168e-06,4.9951e+06,-50.734,0,1.9832e+07,-6.3973,12081,10985,1,10985,1,-0.00010857,-1.2817e-09,0,3.6889e-06,-2.6854e-05,-4.4156e+07,-314.42,0,1.0823e+06,-316.99,10984,11571,1,11571,1,-4.776e-05,-4.2206e-10,0,3.2741e-05,-1.5465e-05,-1.9422e+07,-118.92,0,1.0357e+07,-26.129,11570,12593,1,12593,1,8.3202e-05,-6.0015e-12,0,9.8222e-05,9.0052e-06,1.9832e+07,-1.2185,0,2.8553e+07,2.4472,12592,591.12,0,591.12,0,7.5581e-05,3.6923e-10,0,3.9734e-05,1.4131e-05,2.2986e+07,89.739,0,1.148e+07,33.379,591.12,1
2044,0.47,12082,1,12082,1,1.8109e-05,7.5956e-11,0,6.8138e-05,-3.2956e-06,5.7691,18.937,0,2.0345e+07,-1.0792,12081,13104,1,13104,1,0.00014717,2.1307e-09,0,0.00014717,2.0838e-05,3.2818e+07,502.28,0,4.5124e+07,67.23,13103,12082,1,12082,1,1.8109e-05,1.1943e-10,0,6.6916e-05,-3.2872e-06,5.1045e+06,29.081,0,2.0266e+07,-1.4224,12081,10985,1,10985,1,-0.00011095,-3.1803e-09,0,3.7699e-06,-2.7442e-05,-4.5124e+07,-758.72,0,1.1061e+06,-51.987,10984,11571,1,11571,1,-4.8806e-05,-4.8363e-10,0,3.3458e-05,-1.5803e-05,-1.9848e+07,-121.37,0,1.0584e+07,-17.515,11570,12593,1,12593,1,8.5025e-05,8.2357e-10,0,0.00010037,9.2023e-06,2.0266e+07,218.27,0,2.9178e+07,13.636,12592,591.12,0,591.12,0,7.7238e-05,1.1176e-09,0,4.0605e-05,1.4441e-05,2.349e+07,282.72,0,1.1732e+07,24.906,591.12,1
2044,0.48,12082,1,12082,1,1.8492e-05,-4.2653e-10,0,6.9578e-05,-3.3652e-06,-0.69482,-109.94,0,2.0775e+07,3.328,12081,13104,1,13104,1,0.00015028,4.9415e-10,0,0.00015028,2.1278e-05,3.3512e+07,121.11,0,4.6078e+07,68.87,13103,12082,1,12082,1,1.8492e-05,-3.7504e-10,0,6.8331e-05,-3.3567e-06,5.2124e+06,-103.03,0,2.0695e+07,-0.59015,12081,10985,1,10985,1,-0.00011329,-1.4753e-09,0,3.8495e-06,-2.8022e-05,-4.6078e+07,-362.02,0,1.1294e+06,-121.87,10984,11571,1,11571,1,-4.9839e-05,-6.178e-10,0,3.4165e-05,-1.6137e-05,-2.0267e+07,-171.13,0,1.0808e+07,-6.912,11570,12593,1,12593,1,8.6823e-05,-1.5275e-10,0,0.0001025,9.397e-06,2.0695e+07,-38.259,0,2.9795e+07,19.608,12592,591.12,0,591.12,0,7.887e-05,3.5883e-10,0,4.1463e-05,1.4746e-05,2.3986e+07,87.168,0,1.198e+07,26.78,591.12,1
2044,0.49,12082,1,12082,1,1.888e-05,5.826e-10,0,7.1037e-05,-3.4359e-06,21.552,150.22,0,2.1211e+07,-14.376,12081,13104,1,13104,1,0.00015343,2.1476e-09,0,0.00015343,2.1725e-05,3.4215e+07,566.07,0,4.7044e+07,28.984,13103,12082,1,12082,1,1.888e-05,4.5405e-10,0,6.9763e-05,-3.4272e-06,5.3217e+06,117.56,0,2.1128e+07,-8.5157,12081,10985,1,10985,1,-0.00011567,-1.1195e-09,0,3.9303e-06,-2.861e-05,-4.7044e+07,-337.29,0,1.1531e+06,-143.85,10984,11571,1,11571,1,-5.0883e-05,3.7002e-11,0,3.4881e-05,-1.6476e-05,-2.0692e+07,8.1409,0,1.1034e+07,-24.848,11570,12593,1,12593,1,8.8642e-05,1.1776e-09,0,0.00010464,9.5938e-06,2.1128e+07,309.93,0,3.0419e+07,1.8114,12592,591.12,0,591.12,0,8.0525e-05,7.7006e-10,0,4.2333e-05,1.5055e-05,2.4489e+07,196.82,0,1.2231e+07,23.836,591.12,1
2044,0.5,12082,1,12082,1,1.9265e-05,-3.7176e-11,0,7.2488e-05,-3.506e-06,-9.7656,-7.9488,0,2.1644e+07,-17.009,12081,13104,1,13104,1,0.00015656,1.175e-09,0,0.00015656,2.2168e-05,3.4913e+07,386.72,0,4.8004e+07,66.935,13103,12082,1,12082,1,1.9265e-05,2.5371e-11,0,7.1188e-05,-3.4972e-06,5.4304e+06,6.9462,0,2.156e+07,-14.875,12081,10985,1,10985,1,-0.00011803,-1.6953e-09,0,4.0106e-06,-2.9194e-05,-4.8004e+07,-536.15,0,1.1766e+06,-191.68,10984,11571,1,11571,1,-5.1923e-05,-4.6807e-10,0,3.5594e-05,-1.6812e-05,-2.1115e+07,-120.3,0,1.126e+07,-34.573,11570,12593,1,12593,1,9.0453e-05,5.1251e-10,0,0.00010678,9.7899e-06,2.156e+07,130.18,0,3.1041e+07,5.5065,12592,591.12,0,591.12,0,8.2169e-05,6.7075e-10,0,4.3198e-05,1.5363e-05,2.499e+07,178.8,0,1.2481e+07,32.533,591.12,1
2044,0.51,12082,1,12082,1,1.9648e-05,-3.6741e-10,0,7.3926e-05,-3.5756e-06,1.5963,-93.914,0,2.2074e+07,4.639,12081,13104,1,13104,1,0.00015967,1.6273e-10,0,0.00015967,2.2608e-05,3.5606e+07,39.918,0,4.8957e+07,97.755,13103,12082,1,12082,1,1.9648e-05,-3.4913e-10,0,7.2601e-05,-3.5665e-06,5.5382e+06,-95.596,0,2.1988e+07,0.51282,12081,10985,1,10985,1,-0.00012037,-1.0551e-09,0,4.0902e-06,-2.9774e-05,-4.8957e+07,-258.89,0,1.2e+06,-58.171,10984,11571,1,11571,1,-5.2954e-05,-5.0818e-10,0,3.6301e-05,-1.7146e-05,-2.1534e+07,-136.71,0,1.1483e+07,-3.2248,11570,12593,1,12593,1,9.2249e-05,-1.773e-10,0,0.0001089,9.9843e-06,2.1988e+07,-43.472,0,3.1657e+07,9.9128,12592,591.12,0,591.12,0,8.38e-05,2.5247e-10,0,4.4055e-05,1.5668e-05,2.5485e+07,60.683,0,1.2729e+07,16.027,591.12,1
2044,0.52,12082,1,12082,1,2.0035e-05,2.3734e-10,0,7.5384e-05,-3.6461e-06,1.0209,62.604,0,2.2509e+07,-11.166,12081,13104,1,13104,1,0.00016281,1.2483e-09,0,0.00016281,2.3054e-05,3.6308e+07,398.74,0,4.9922e+07,93.324,13103,12082,1,12082,1,2.0035e-05,1.9761e-10,0,7.4032e-05,-3.6369e-06,5.6474e+06,54.942,0,2.2421e+07,-4.6972,12081,10985,1,10985,1,-0.00012274,-1.4511e-09,0,4.1708e-06,-3.0363e-05,-4.9922e+07,-459.93,0,1.2236e+06,-1138.2,10984,11571,1,11571,1,-5.3997e-05,-8.29e-11,0,3.7016e-05,-1.7484e-05,-2.1958e+07,-18.504,0,1.171e+07,-25.187,11570,12593,1,12593,1,9.4067e-05,7.1899e-10,0,0.00011105,1.0181e-05,2.2421e+07,183.36,0,3.2281e+07,8.4825,12592,591.12,0,591.12,0,8.5452e-05,6.164e-10,0,4.4923e-05,1.5977e-05,2.5988e+07,160.37,0,1.298e+07,65.699,591.12,1
2044,0.53,12082,1,12082,1,2.0421e-05,-1.1927e-10,0,7.6837e-05,-3.7164e-06,-24.929,-28.278,0,2.2943e+07,-29.523,12081,13104,1,13104,1,0.00016595,1.2648e-09,0,0.00016595,2.3498e-05,3.7008e+07,422.27,0,5.0885e+07,61.477,13103,12082,1,12082,1,2.0421e-05,2.3919e-11,0,7.5459e-05,-3.7071e-06,5.7562e+06,6.826,0,2.2854e+07,-29.855,12081,10985,1,10985,1,-0.00012511,-2.5629e-09,0,4.251e-06,-3.0946e-05,-5.0885e+07,-804.78,0,1.2472e+06,-236.19,10984,11571,1,11571,1,-5.5038e-05,-6.0003e-10,0,3.773e-05,-1.7821e-05,-2.2382e+07,-151.8,0,1.1935e+07,-47.99,11570,12593,1,12593,1,9.588e-05,5.0703e-10,0,0.00011319,1.0377e-05,2.2854e+07,127.31,0,3.2903e+07,-5.7736,12592,591.12,0,591.12,0,8.7099e-05,8.4794e-10,0,4.579e-05,1.6285e-05,2.6489e+07,224.97,0,1.323e+07,33.782,591.12,1
2044,0.54,12082,1,12082,1,2.0806e-05,1.7607e-10,0,7.8285e-05,-3.7864e-06,4.508,46.094,0,2.3375e+07,-5.3339,12081,13104,1,13104,1,0.00016908,1.3627e-09,0,0.00016908,2.3941e-05,3.7705e+07,441.38,0,5.1843e+07,102.07,13103,12082,1,12082,1,2.0806e-05,1.3184e-10,0,7.6881e-05,-3.7769e-06,5.8647e+06,33.057,0,2.3284e+07,-8.9274,12081,10985,1,10985,1,-0.00012747,-1.7197e-09,0,4.3314e-06,-3.1529e-05,-5.1843e+07,-566.28,0,1.2708e+06,-123.07,10984,11571,1,11571,1,-5.6075e-05,-1.881e-10,0,3.844e-05,-1.8157e-05,-2.2803e+07,-49.618,0,1.216e+07,-28.077,11570,12593,1,12593,1,9.7687e-05,7.1454e-10,0,0.00011532,1.0573e-05,2.3284e+07,177.05,0,3.3523e+07,16.981,12592,591.12,0,591.12,0,8.874e-05,6.7398e-10,0,4.6652e-05,1.6591e-05,2.6988e+07,179.22,0,1.3479e+07,38.752,591.12,1
2044,0.55,12082,1,12082,1,2.1191e-05,9.6656e-11,0,7.9733e-05,-3.8564e-06,16.556,25.398,0,2.3807e+07,-11.591,12081,13104,1,13104,1,0.00017221,1.7611e-09,0,0.00017221,2.4384e-05,3.8403e+07,426.28,0,5.2802e+07,40.637,13103,12082,1,12082,1,2.1191e-05,1.0183e-10,0,7.8303e-05,-3.8467e-06,5.9732e+06,23.598,0,2.3715e+07,-5.0581,12081,10985,1,10985,1,-0.00012983,-2.6718e-09,0,4.4115e-06,-3.2112e-05,-5.2802e+07,-672.13,0,1.2943e+06,-101.32,10984,11571,1,11571,1,-5.7112e-05,-3.9012e-10,0,3.9151e-05,-1.8493e-05,-2.3225e+07,-97.666,0,1.2385e+07,-22.128,11570,12593,1,12593,1,9.9493e-05,7.8841e-10,0,0.00011745,1.0768e-05,2.3715e+07,203.29,0,3.4143e+07,6.0552,12592,591.12,0,591.12,0,9.0381e-05,9.3346e-10,0,4.7515e-05,1.6898e-05,2.7487e+07,236.68,0,1.3728e+07,26.736,591.12,1
2044,0.56,12082,1,12082,1,2.1575e-05,8.7153e-11,0,8.1179e-05,-3.9264e-06,1.8182,22.77,0,2.4239e+07,3.6221,12081,13104,1,13104,1,0.00017533,6.3725e-10,0,0.00017533,2.4826e-05,3.9099e+07,209.72,0,5.376e+07,95.185,13103,12082,1,12082,1,2.1575e-05,8.3803e-11,0,7.9724e-05,-3.9164e-06,6.0816e+06,20.736,0,2.4145e+07,1.5668,12081,10985,1,10985,1,-0.00013218,-8.4376e-10,0,4.4916e-06,-3.2695e-05,-5.376e+07,-277.7,0,1.3178e+06,-379.34,10984,11571,1,11571,1,-5.8149e-05,-9.1651e-11,0,3.9862e-05,-1.8828e-05,-2.3647e+07,-23.247,0,1.261e+07,-7.9224,11570,12593,1,12593,1,0.0001013,3.7162e-10,0,0.00011959,1.0964e-05,2.4145e+07,94.731,0,3.4763e+07,12.199,12592,591.12,0,591.12,0,9.2021e-05,3.365e-10,0,4.8377e-05,1.7205e-05,2.7986e+07,88.698,0,1.3978e+07,29.116,591.12,1
2044,0.57,12082,1,12082,1,2.1962e-05,3.5276e-10,0,8.2633e-05,-3.9968e-06,-1.8043,90.471,0,2.4673e+07,-30.364,12081,13104,1,13104,1,0.00017847,1.7407e-09,0,0.00017847,2.5271e-05,3.9799e+07,459.51,0,5.4723e+07,78.486,13103,12082,1,12082,1,2.1961e-05,2.7972e-10,0,8.115e-05,-3.9866e-06,6.1904e+06,75.624,0,2.4577e+07,-10.465,12081,10985,1,10985,1,-0.00013455,-1.5509e-09,0,4.5719e-06,-3.3284e-05,-5.4723e+07,-444.61,0,1.3413e+06,-1458.9,10984,11571,1,11571,1,-5.9189e-05,-9.0186e-11,0,4.0575e-05,-1.9165e-05,-2.407e+07,-20.52,0,1.2836e+07,-27.495,11570,12593,1,12593,1,0.00010311,9.1979e-10,0,0.00012173,1.116e-05,2.4577e+07,240.36,0,3.5385e+07,7.0073,12592,591.12,0,591.12,0,9.3669e-05,7.3477e-10,0,4.9243e-05,1.7513e-05,2.8487e+07,187.31,0,1.4228e+07,116.99,591.12,1
2044,0.58,12082,1,12082,1,2.2347e-05,3.7869e-10,0,8.4082e-05,-4.0668e-06,14.481,97.234,0,2.5106e+07,-9.1274,12081,13104,1,13104,1,0.0001816,1.7356e-09,0,0.0001816,2.5714e-05,4.0497e+07,430.83,0,5.5682e+07,29.829,13103,12082,1,12082,1,2.2347e-05,2.5809e-10,0,8.2574e-05,-4.0565e-06,6.299e+06,69.971,0,2.5008e+07,-3.6652,12081,10985,1,10985,1,-0.00013691,-1.1968e-09,0,4.6521e-06,-3.3863e-05,-5.5682e+07,-292.74,0,1.3649e+06,-81.166,10984,11571,1,11571,1,-6.0227e-05,-3.4586e-11,0,4.1287e-05,-1.9501e-05,-2.4492e+07,-8.3472,0,1.3061e+07,-20.353,11570,12593,1,12593,1,0.00010492,8.6291e-10,0,0.00012386,1.1356e-05,2.5008e+07,228.87,0,3.6006e+07,4.3832,12592,591.12,0,591.12,0,9.5311e-05,6.479e-10,0,5.0107e-05,1.782e-05,2.8986e+07,164.74,0,1.4477e+07,19.849,591.12,1
2044,0.59,12082,1,12082,1,2.2731e-05,2.7909e-10,0,8.5529e-05,-4.1367e-06,10.964,71.365,0,2.5538e+07,1.7228,12081,13104,1,13104,1,0.00018472,1.0209e-09,0,0.00018472,2.6156e-05,4.1194e+07,336.22,0,5.664e+07,124.29,13103,12082,1,12082,1,2.2731e-05,1.971e-10,0,8.3995e-05,-4.1263e-06,6.4074e+06,51.485,0,2.5439e+07,2.5114,12081,10985,1,10985,1,-0.00013926,-8.1392e-10,0,4.7322e-06,-3.4447e-05,-5.664e+07,-268.25,0,1.3883e+06,-444.49,10984,11571,1,11571,1,-6.1264e-05,-1.7272e-11,0,4.1997e-05,-1.9837e-05,-2.4913e+07,-4.2643,0,1.3285e+07,-14.366,11570,12593,1,12593,1,0.00010673,6.1453e-10,0,0.00012599,1.1551e-05,2.5439e+07,159.79,0,3.6625e+07,21.845,12592,591.12,0,591.12,0,9.6951e-05,3.8228e-10,0,5.0969e-05,1.8126e-05,2.9485e+07,103.14,0,1.4726e+07,40.296,591.12,1
2044,0.6,12082,1,12082,1,2.3117e-05,1.0981e-10,0,8.6979e-05,-4.2069e-06,17.271,28.265,0,2.5971e+07,-7.654,12081,13104,1,13104,1,0.00018786,1.3191e-09,0,0.00018786,2.66e-05,4.1893e+07,335.15,0,5.7601e+07,29.396,13103,12082,1,12082,1,2.3117e-05,7.8358e-11,0,8.5419e-05,-4.1963e-06,6.516e+06,19.441,0,2.587e+07,-3.5125,12081,10985,1,10985,1,-0.00014162,-1.6542e-09,0,4.8124e-06,-3.503e-05,-5.7601e+07,-399.57,0,1.4119e+06,-74.633,10984,11571,1,11571,1,-6.2302e-05,-2.6939e-10,0,4.271e-05,-2.0173e-05,-2.5336e+07,-70.675,0,1.3511e+07,-16.845,11570,12593,1,12593,1,0.00010854,6.2571e-10,0,0.00012813,1.1747e-05,2.587e+07,162.17,0,3.7246e+07,3.7627,12592,591.12,0,591.12,0,9.8595e-05,6.6873e-10,0,5.1833e-05,1.8434e-05,2.9985e+07,170.37,0,1.4976e+07,16.997,591.12,1
2044,0.61,12082,1,12082,1,2.3502e-05,1.4823e-10,0,8.8428e-05,-4.277e-06,-2.7777,38.037,0,2.6404e+07,0.023775,12081,13104,1,13104,1,0.00019099,1.1739e-09,0,0.00019099,2.7043e-05,4.2591e+07,302.89,0,5.856e+07,42.181,13103,12082,1,12082,1,2.3502e-05,9.6478e-11,0,8.6842e-05,-4.2661e-06,6.6246e+06,23.066,0,2.6301e+07,1.9791,12081,10985,1,10985,1,-0.00014398,-1.4063e-09,0,4.8926e-06,-3.5614e-05,-5.856e+07,-378.73,0,1.4354e+06,-71.559,10984,11571,1,11571,1,-6.3341e-05,-1.5211e-10,0,4.3421e-05,-2.0509e-05,-2.5758e+07,-40.376,0,1.3736e+07,-9.6225,11570,12593,1,12593,1,0.00011034,5.7618e-10,0,0.00013026,1.1943e-05,2.6301e+07,148.88,0,3.7867e+07,10.201,12592,591.12,0,591.12,0,0.00010024,5.517e-10,0,5.2697e-05,1.8741e-05,3.0485e+07,141.17,0,1.5226e+07,14.764,591.12,1
2044,0.62,12082,1,12082,1,2.3888e-05,1.8795e-10,0,8.9879e-05,-4.3472e-06,17.88,47.828,0,2.6837e+07,-4.6284,12081,13104,1,13104,1,0.00019412,1.6522e-09,0,0.00019412,2.7487e-05,4.329e+07,397.3,0,5.9521e+07,115.28,13103,12082,1,12082,1,2.3887e-05,1.34e-10,0,8.8267e-05,-4.3362e-06,6.7333e+06,35.839,0,2.6733e+07,-2.1918,12081,10985,1,10985,1,-0.00014635,-1.6749e-09,0,4.973e-06,-3.6198e-05,-5.9521e+07,-452.48,0,1.459e+06,-67.302,10984,11571,1,11571,1,-6.438e-05,-1.6899e-10,0,4.4134e-05,-2.0846e-05,-2.6181e+07,-47.221,0,1.3961e+07,-14.461,11570,12593,1,12593,1,0.00011215,6.6357e-10,0,0.0001324,1.2139e-05,2.6733e+07,173.49,0,3.8488e+07,7.1888,12592,591.12,0,591.12,0,0.00010188,6.8606e-10,0,5.3562e-05,1.9049e-05,3.0985e+07,174.09,0,1.5475e+07,18.899,591.12,1
2044,0.63,12082,1,12082,1,2.4273e-05,-1.8077e-10,0,9.1327e-05,-4.4172e-06,2.1922,-46.989,0,2.727e+07,-3.4359,12081,13104,1,13104,1,0.00019725,6.934e-10,0,0.00019725,2.7929e-05,4.3987e+07,185.85,0,6.048e+07,48.28,13103,12082,1,12082,1,2.4272e-05,-6.3153e-11,0,8.969e-05,-4.406e-06,6.8418e+06,-15.74,0,2.7164e+07,-1.9736,12081,10985,1,10985,1,-0.0001487,-1.7115e-09,0,5.0531e-06,-3.6781e-05,-6.048e+07,-462.56,0,1.4825e+06,-33.812,10984,11571,1,11571,1,-6.5417e-05,-5.1723e-10,0,4.4845e-05,-2.1182e-05,-2.6603e+07,-133.3,0,1.4186e+07,-13.356,11570,12593,1,12593,1,0.00011396,2.1625e-10,0,0.00013453,1.2334e-05,2.7164e+07,54.08,0,3.9109e+07,4.9278,12592,591.12,0,591.12,0,0.00010352,5.4949e-10,0,5.4425e-05,1.9355e-05,3.1484e+07,141.64,0,1.5725e+07,13.899,591.12,1
2044,0.64,12082,1,12082,1,2.4657e-05,7.9175e-11,0,9.2775e-05,-4.4873e-06,0.83981,19.911,0,2.7702e+07,-9.4032,12081,13104,1,13104,1,0.00020038,8.8509e-10,0,0.00020038,2.8372e-05,4.4684e+07,226.51,0,6.1439e+07,45.801,13103,12082,1,12082,1,2.4657e-05,7.3846e-11,0,9.1112e-05,-4.4759e-06,6.9503e+06,17.762,0,2.7594e+07,-5.2919,12081,10985,1,10985,1,-0.00015106,-1.1189e-09,0,5.1332e-06,-3.7365e-05,-6.1439e+07,-290.93,0,1.506e+06,-376.64,10984,11571,1,11571,1,-6.6455e-05,-1.544e-10,0,4.5556e-05,-2.1518e-05,-2.7024e+07,-39.912,0,1.4411e+07,-13.687,11570,12593,1,12593,1,0.00011577,3.9127e-10,0,0.00013667,1.253e-05,2.7594e+07,104.96,0,3.9729e+07,1.3917,12592,591.12,0,591.12,0,0.00010517,4.3285e-10,0,5.5287e-05,1.9662e-05,3.1983e+07,109.78,0,1.5974e+07,25.912,591.12,1
2044,0.65,12082,1,12082,1,2.5043e-05,1.524e-10,0,9.4225e-05,-4.5573e-06,-6.1264,39.089,0,2.8135e+07,-4.0685,12081,13104,1,13104,1,0.00020351,1.0205e-09,0,0.00020351,2.8815e-05,4.5382e+07,241.21,0,6.2399e+07,198.28,13103,12082,1,12082,1,2.5042e-05,1.0502e-10,0,9.2535e-05,-4.5458e-06,7.0588e+06,27.282,0,2.8025e+07,-2.6254,12081,10985,1,10985,1,-0.00015342,-1.1934e-09,0,5.2133e-06,-3.7949e-05,-6.2399e+07,-283.78,0,1.5295e+06,-186.79,10984,11571,1,11571,1,-6.7493e-05,-7.8954e-11,0,4.6268e-05,-2.1854e-05,-2.7447e+07,-21.403,0,1.4636e+07,-9.8828,11570,12593,1,12593,1,0.00011758,4.7468e-10,0,0.0001388,1.2726e-05,2.8025e+07,124.35,0,4.0349e+07,2.506,12592,591.12,0,591.12,0,0.00010681,4.4857e-10,0,5.6151e-05,1.997e-05,3.2483e+07,113.74,0,1.6224e+07,12.843,591.12,1
2044,0.66,12082,1,12082,1,2.5427e-05,6.9145e-11,0,9.5671e-05,-4.6273e-06,-2.8453,17.51,0,2.8566e+07,-6.4127,12081,13104,1,13104,1,0.00020663,2.1011e-10,0,0.00020663,2.9258e-05,4.6079e+07,56.069,0,6.3356e+07,46.028,13103,12082,1,12082,1,2.5427e-05,6.1662e-11,0,9.3956e-05,-4.6157e-06,7.1672e+06,15.572,0,2.8456e+07,-3.4435,12081,10985,1,10985,1,-0.00015577,-3.0698e-11,0,5.2934e-06,-3.853e-05,-6.3356e+07,-9.6047,0,1.553e+06,-48.688,10984,11571,1,11571,1,-6.8529e-05,2.0131e-11,0,4.6978e-05,-2.2189e-05,-2.7868e+07,5.2213,0,1.4861e+07,-9.5836,11570,12593,1,12593,1,0.00011938,1.1114e-10,0,0.00014093,1.2921e-05,2.8456e+07,29.226,0,4.0969e+07,-1.1104,12592,591.12,0,591.12,0,0.00010845,5.9168e-11,0,5.7013e-05,2.0276e-05,3.2982e+07,14.832,0,1.6473e+07,7.7975,591.12,1
2044,0.67,12082,1,12082,1,2.5813e-05,1.6231e-10,0,9.7125e-05,-4.6977e-06,-3.3803,41.622,0,2.9001e+07,-8.5234,12081,13104,1,13104,1,0.00020977,1.4829e-09,0,0.00020977,2.9703e-05,4.678e+07,348.65,0,6.432e+07,26.582,13103,12082,1,12082,1,2.5813e-05,1.1249e-10,0,9.5384e-05,-4.6858e-06,7.2761e+06,27.236,0,2.8888e+07,-5.0998,12081,10985,1,10985,1,-0.00015814,-1.713e-09,0,5.3739e-06,-3.9116e-05,-6.432e+07,-420.62,0,1.5766e+06,-60.588,10984,11571,1,11571,1,-6.957e-05,-2.1863e-10,0,4.7692e-05,-2.2527e-05,-2.8291e+07,-56.939,0,1.5087e+07,-16.069,11570,12593,1,12593,1,0.0001212,6.8231e-10,0,0.00014308,1.3117e-05,2.8888e+07,178.25,0,4.1591e+07,2.4467,12592,591.12,0,591.12,0,0.0001101,6.9707e-10,0,5.788e-05,2.0584e-05,3.3483e+07,176.53,0,1.6723e+07,16.035,591.12,1
2044,0.68,12082,1,12082,1,2.6199e-05,3.8125e-10,0,9.8576e-05,-4.7678e-06,23.934,97.402,0,2.9434e+07,-15.062,12081,13104,1,13104,1,0.0002129,1.5259e-09,0,0.0002129,3.0146e-05,4.7478e+07,372.43,0,6.5281e+07,147.29,13103,12082,1,12082,1,2.6199e-05,3.0662e-10,0,9.6808e-05,-4.7559e-06,7.3848e+06,78.193,0,2.9319e+07,-8.545,12081,10985,1,10985,1,-0.00016051,-1.0651e-09,0,5.4541e-06,-3.9701e-05,-6.5281e+07,-275.41,0,1.6002e+06,-322.46,10984,11571,1,11571,1,-7.0609e-05,9.1123e-12,0,4.8404e-05,-2.2863e-05,-2.8714e+07,2.0642,0,1.5312e+07,-24.247,11570,12593,1,12593,1,0.00012301,8.0067e-10,0,0.00014521,1.3313e-05,2.9319e+07,210.24,0,4.2212e+07,-0.76887,12592,591.12,0,591.12,0,0.00011174,5.564e-10,0,5.8744e-05,2.0892e-05,3.3983e+07,141.07,0,1.6973e+07,29.357,591.12,1
2044,0.69,12082,1,12082,1,2.6583e-05,2.1429e-10,0,0.00010002,-4.8376e-06,-8.259,54.519,0,2.9865e+07,3.3078,12081,13104,1,13104,1,0.00021602,6.538e-10,0,0.00021602,3.0588e-05,4.8174e+07,163.58,0,6.6237e+07,38.266,13103,12082,1,12082,1,2.6583e-05,1.7316e-10,0,9.8227e-05,-4.8254e-06,7.493e+06,45.624,0,2.9749e+07,1.7596,12081,10985,1,10985,1,-0.00016286,-1.2085e-10,0,5.534e-06,-4.0282e-05,-6.6237e+07,-39.773,0,1.6236e+06,-168.28,10984,11571,1,11571,1,-7.1644e-05,3.8524e-11,0,4.9114e-05,-2.3198e-05,-2.9135e+07,9.3561,0,1.5537e+07,-2.306,11570,12593,1,12593,1,0.00012481,3.6695e-10,0,0.00014734,1.3508e-05,2.9749e+07,95.323,0,4.2831e+07,6.5229,12592,591.12,0,591.12,0,0.00011338,1.9499e-10,0,5.9605e-05,2.1198e-05,3.4481e+07,48.996,0,1.7222e+07,10.71,591.12,1
2044,0.7,12082,1,12082,1,2.6969e-05,2.4484e-10,0,0.00010147,-4.9079e-06,-2.4068,62.425,0,3.0299e+07,0.072998,12081,13104,1,13104,1,0.00021916,1.2023e-09,0,0.00021916,3.1032e-05,4.8874e+07,308.61,0,6.7199e+07,48.567,13103,12082,1,12082,1,2.6969e-05,1.3741e-10,0,9.9654e-05,-4.8955e-06,7.6019e+06,36.205,0,3.0181e+07,1.0593,12081,10985,1,10985,1,-0.00016522,-7.4911e-10,0,5.6144e-06,-4.0867e-05,-6.7199e+07,-186.92,0,1.6472e+06,-45.661,10984,11571,1,11571,1,-7.2685e-05,-6.7817e-11,0,4.9827e-05,-2.3535e-05,-2.9558e+07,-14.96,0,1.5762e+07,-9.4871,11570,12593,1,12593,1,0.00012662,6.0225e-10,0,0.00014948,1.3705e-05,3.0181e+07,152.5,0,4.3453e+07,8.3469,12592,591.12,0,591.12,0,0.00011503,4.5804e-10,0,6.0471e-05,2.1506e-05,3.4982e+07,116.98,0,1.7472e+07,16.795,591.12,1
2044,0.71,12082,1,12082,1,2.7354e-05,-1.3172e-10,0,0.00010292,-4.978e-06,-5.9189,-33.189,0,3.0732e+07,-1.1395,12081,13104,1,13104,1,0.00022229,1.0419e-09,0,0.00022229,3.1476e-05,4.9572e+07,248.36,0,6.8159e+07,38.581,13103,12082,1,12082,1,2.7354e-05,-1.7884e-11,0,0.00010108,-4.9654e-06,7.7105e+06,-4.4188,0,3.0612e+07,0.3583,12081,10985,1,10985,1,-0.00016758,-2.2012e-09,0,5.6946e-06,-4.1451e-05,-6.8159e+07,-512.69,0,1.6707e+06,-35.163,10984,11571,1,11571,1,-7.3723e-05,-4.1038e-10,0,5.0539e-05,-2.3871e-05,-2.998e+07,-106.41,0,1.5987e+07,-9.33,11570,12593,1,12593,1,0.00012843,2.4822e-10,0,0.00015162,1.39e-05,3.0612e+07,65.837,0,4.4074e+07,8.0874,12592,591.12,0,591.12,0,0.00011667,6.0928e-10,0,6.1335e-05,2.1813e-05,3.5482e+07,153.85,0,1.7721e+07,13.23,591.12,1
2044,0.72,12082,1,12082,1,2.774e-05,4.1533e-11,0,0.00010437,-5.0482e-06,-4.6193,11.011,0,3.1165e+07,1.108,12081,13104,1,13104,1,0.00022542,1.0244e-09,0,0.00022542,3.1919e-05,5.027e+07,256.94,0,6.9119e+07,61.468,13103,12082,1,12082,1,2.774e-05,5.3042e-11,0,0.0001025,-5.0354e-06,7.8191e+06,12.728,0,3.1044e+07,2.2893,12081,10985,1,10985,1,-0.00016994,-1.6261e-09,0,5.7749e-06,-4.2035e-05,-6.9119e+07,-444.08,0,1.6943e+06,-47.319,10984,11571,1,11571,1,-7.4762e-05,-2.5189e-10,0,5.1251e-05,-2.4208e-05,-3.0403e+07,-64.715,0,1.6213e+07,-9.9886,11570,12593,1,12593,1,0.00013024,4.6324e-10,0,0.00015375,1.4096e-05,3.1044e+07,121.88,0,4.4695e+07,10.192,12592,591.12,0,591.12,0,0.00011831,5.6807e-10,0,6.2199e-05,2.212e-05,3.5982e+07,145.12,0,1.7971e+07,19.03,591.12,1
2044,0.73,12082,1,12082,1,2.8125e-05,3.0678e-10,0,0.00010582,-5.1182e-06,14.27,77.992,0,3.1597e+07,-3.38,12081,13104,1,13104,1,0.00022855,1.3889e-09,0,0.00022855,3.2362e-05,5.0968e+07,328.26,0,7.0079e+07,136.91,13103,12082,1,12082,1,2.8124e-05,2.0637e-10,0,0.00010392,-5.1053e-06,7.9276e+06,53.536,0,3.1474e+07,-1.2663,12081,10985,1,10985,1,-0.0001723,-8.1716e-10,0,5.855e-06,-4.2619e-05,-7.0079e+07,-203.92,0,1.7178e+06,-29.621,10984,11571,1,11571,1,-7.5799e-05,-4.3824e-11,0,5.1962e-05,-2.4543e-05,-3.0824e+07,-11.468,0,1.6438e+07,-9.7198,11570,12593,1,12593,1,0.00013205,6.7952e-10,0,0.00015589,1.4292e-05,3.1474e+07,178.06,0,4.5315e+07,3.911,12592,591.12,0,591.12,0,0.00011995,4.9022e-10,0,6.3062e-05,2.2427e-05,3.6481e+07,123.6,0,1.822e+07,11.486,591.12,1
2044,0.74,12082,1,12082,1,2.8509e-05,1.4787e-10,0,0.00010727,-5.1882e-06,1.8066,37.559,0,3.2029e+07,-3.4697,12081,13104,1,13104,1,0.00023167,3.6518e-10,0,0.00023167,3.2804e-05,5.1664e+07,88.934,0,7.1036e+07,7.8243,13103,12082,1,12082,1,2.8509e-05,1.509e-10,0,0.00010534,-5.1751e-06,8.036e+06,40.646,0,3.1905e+07,-1.6827,12081,10985,1,10985,1,-0.00017466,-5.793e-11,0,5.9351e-06,-4.3201e-05,-7.1036e+07,-19.837,0,1.7413e+06,-58.174,10984,11571,1,11571,1,-7.6835e-05,7.1923e-11,0,5.2672e-05,-2.4879e-05,-3.1246e+07,18.465,0,1.6662e+07,-4.7664,11570,12593,1,12593,1,0.00013385,2.2373e-10,0,0.00015802,1.4487e-05,3.1905e+07,56.199,0,4.5935e+07,0.16967,12592,591.12,0,591.12,0,0.00012159,1.0135e-10,0,6.3924e-05,2.2734e-05,3.6979e+07,24.929,0,1.8469e+07,6.7368,591.12,1
2044,0.75,12082,1,12082,1,2.8895e-05,1.1699e-10,0,0.00010872,-5.2584e-06,-2.8744,29.635,0,3.2463e+07,-2.6064,12081,13104,1,13104,1,0.00023481,8.9844e-10,0,0.00023481,3.3248e-05,5.2363e+07,210.13,0,7.1997e+07,17.644,13103,12082,1,12082,1,2.8895e-05,6.5777e-11,0,0.00010677,-5.2451e-06,8.1447e+06,15.307,0,3.2336e+07,-0.93014,12081,10985,1,10985,1,-0.00017702,-7.6824e-10,0,6.0153e-06,-4.3785e-05,-7.1997e+07,-199.17,0,1.7648e+06,-30.238,10984,11571,1,11571,1,-7.7875e-05,-9.2335e-11,0,5.3385e-05,-2.5216e-05,-3.1669e+07,-26.591,0,1.6888e+07,-9.9653,11570,12593,1,12593,1,0.00013566,3.7906e-10,0,0.00016015,1.4683e-05,3.2336e+07,98.677,0,4.6556e+07,4.59,12592,591.12,0,591.12,0,0.00012324,3.6571e-10,0,6.4789e-05,2.3041e-05,3.748e+07,92.758,0,1.8719e+07,9.684,591.12,1
2044,0.76,12082,1,12082,1,2.928e-05,1.5603e-10,0,0.00011017,-5.3286e-06,-1.766,39.814,0,3.2896e+07,-1.3679,12081,13104,1,13104,1,0.00023794,1.2101e-09,0,0.00023794,3.3692e-05,5.3062e+07,292.22,0,7.2958e+07,39,13103,12082,1,12082,1,2.928e-05,1.008e-10,0,0.00010819,-5.3151e-06,8.2534e+06,26.759,0,3.2768e+07,0.94528,12081,10985,1,10985,1,-0.00017938,-1.4487e-09,0,6.0956e-06,-4.437e-05,-7.2958e+07,-393.56,0,1.7884e+06,-39.529,10984,11571,1,11571,1,-7.8914e-05,-1.2122e-10,0,5.4097e-05,-2.5552e-05,-3.2091e+07,-33.496,0,1.7113e+07,-9.496,11570,12593,1,12593,1,0.00013747,5.5742e-10,0,0.00016229,1.4879e-05,3.2768e+07,145.58,0,4.7178e+07,6.3677,12592,591.12,0,591.12,0,0.00012488,5.5062e-10,0,6.5653e-05,2.3349e-05,3.798e+07,139.6,0,1.8969e+07,13.641,591.12,1
2044,0.77,12082,1,12082,1,2.9665e-05,2.8264e-10,0,0.00011162,-5.3985e-06,-4.0062,72.704,0,3.3328e+07,-4.7761,12081,13104,1,13104,1,0.00024107,8.1371e-10,0,0.00024107,3.4134e-05,5.3759e+07,198.97,0,7.3916e+07,83.279,13103,12082,1,12082,1,2.9665e-05,2.2661e-10,0,0.00010962,-5.3849e-06,8.3618e+06,59.528,0,3.3198e+07,-2.4131,12081,10985,1,10985,1,-0.00018174,-7.949e-11,0,6.1756e-06,-4.4952e-05,-7.3916e+07,-18.524,0,1.8119e+06,-204.22,10984,11571,1,11571,1,-7.9951e-05,8.18e-11,0,5.4808e-05,-2.5888e-05,-3.2513e+07,19.961,0,1.7338e+07,-7.5991,11570,12593,1,12593,1,0.00013928,4.6051e-10,0,0.00016442,1.5075e-05,3.3198e+07,121.64,0,4.7797e+07,1.0283,12592,591.12,0,591.12,0,0.00012652,2.3327e-10,0,6.6515e-05,2.3655e-05,3.8479e+07,59.025,0,1.9218e+07,11.085,591.12,1
2044,0.78,12082,1,12082,1,3.005e-05,3.2074e-10,0,0.00011307,-5.4686e-06,-4.8338,81.597,0,3.3761e+07,0.70471,12081,13104,1,13104,1,0.0002442,7.6525e-10,0,0.0002442,3.4578e-05,5.4458e+07,179.26,0,7.4877e+07,25.044,13103,12082,1,12082,1,3.005e-05,3.1169e-10,0,0.00011104,-5.4548e-06,8.4704e+06,83.819,0,3.3629e+07,0.46061,12081,10985,1,10985,1,-0.0001841,-6.9236e-11,0,6.2559e-06,-4.5536e-05,-7.4877e+07,-23.708,0,1.8354e+06,-18.842,10984,11571,1,11571,1,-8.0989e-05,1.517e-10,0,5.552e-05,-2.6224e-05,-3.2935e+07,38.712,0,1.7563e+07,-3.593,11570,12593,1,12593,1,0.00014109,4.9018e-10,0,0.00016656,1.527e-05,3.3629e+07,124.76,0,4.8418e+07,5.0988,12592,591.12,0,591.12,0,0.00012817,2.1779e-10,0,6.7379e-05,2.3963e-05,3.8979e+07,53.146,0,1.9468e+07,6.8424,591.12,1
2044,0.79,12082,1,12082,1,3.0436e-05,1.667e-10,0,0.00011452,-5.5389e-06,-3.1518,42.654,0,3.4194e+07,-5.6566,12081,13104,1,13104,1,0.00024733,1.0836e-09,0,0.00024733,3.5021e-05,5.5156e+07,264.24,0,7.5838e+07,36.325,13103,12082,1,12082,1,3.0436e-05,9.708e-11,0,0.00011246,-5.5249e-06,8.5791e+06,24.928,0,3.4061e+07,-1.6354,12081,10985,1,10985,1,-0.00018646,-1.1802e-09,0,6.3362e-06,-4.6121e-05,-7.5838e+07,-284.2,0,1.859e+06,-94.293,10984,11571,1,11571,1,-8.2029e-05,-9.5055e-11,0,5.6232e-05,-2.656e-05,-3.3358e+07,-26.09,0,1.7789e+07,-17.48,11570,12593,1,12593,1,0.0001429,5.2223e-10,0,0.0001687,1.5466e-05,3.4061e+07,133.92,0,4.9039e+07,5.6675,12592,591.12,0,591.12,0,0.00012981,4.7543e-10,0,6.8244e-05,2.427e-05,3.9479e+07,119.94,0,1.9718e+07,19.534,591.12,1
2044,0.8,12082,1,12082,1,3.0822e-05,7.4168e-11,0,0.00011597,-5.609e-06,2.5676,18.949,0,3.4627e+07,-2.2949,12081,13104,1,13104,1,0.00025047,1.4731e-09,0,0.00025047,3.5465e-05,5.5855e+07,347.33,0,7.6798e+07,40.116,13103,12082,1,12082,1,3.0821e-05,5.5084e-11,0,0.00011389,-5.5948e-06,8.6878e+06,14.147,0,3.4493e+07,1.266,12081,10985,1,10985,1,-0.00018882,-2.1151e-09,0,6.4165e-06,-4.6705e-05,-7.6798e+07,-498.78,0,1.8825e+06,-53.437,10984,11571,1,11571,1,-8.3068e-05,-2.4999e-10,0,5.6945e-05,-2.6897e-05,-3.378e+07,-64.759,0,1.8014e+07,-13.874,11570,12593,1,12593,1,0.00014471,5.3334e-10,0,0.00017083,1.5662e-05,3.4493e+07,139.92,0,4.9661e+07,8.3754,12592,591.12,0,591.12,0,0.00013146,7.0683e-10,0,6.9109e-05,2.4578e-05,3.9979e+07,179.26,0,1.9968e+07,16.811,591.12,1
2044,0.81,12082,1,12082,1,3.1206e-05,-6.7905e-11,0,0.00011742,-5.6791e-06,12.969,-17.332,0,3.5059e+07,-18.581,12081,13104,1,13104,1,0.00025359,6.2817e-10,0,0.00025359,3.5908e-05,5.6552e+07,144.75,0,7.7757e+07,25.789,13103,12082,1,12082,1,3.1206e-05,-7.8014e-12,0,0.00011531,-5.6647e-06,8.7963e+06,-1.837,0,3.4923e+07,-4.8672,12081,10985,1,10985,1,-0.00019118,-1.2106e-09,0,6.4967e-06,-4.7291e-05,-7.7757e+07,-302.06,0,1.906e+06,-1257.8,10984,11571,1,11571,1,-8.4105e-05,-2.703e-10,0,5.7656e-05,-2.7233e-05,-3.4202e+07,-69.856,0,1.8239e+07,-15.52,11570,12593,1,12593,1,0.00014652,1.7678e-10,0,0.00017297,1.5858e-05,3.4923e+07,45.469,0,5.0281e+07,0.76669,12592,591.12,0,591.12,0,0.0001331,3.7125e-10,0,6.9972e-05,2.4885e-05,4.0478e+07,94.297,0,2.0217e+07,102.63,591.12,1
2044,0.82,12082,1,12082,1,3.1592e-05,1.2465e-10,0,0.00011887,-5.7492e-06,4.3037,32.148,0,3.5492e+07,-5.2774,12081,13104,1,13104,1,0.00025673,1.0418e-09,0,0.00025673,3.6351e-05,5.7251e+07,246.57,0,7.8717e+07,41.434,13103,12082,1,12082,1,3.1592e-05,8.4678e-11,0,0.00011673,-5.7347e-06,8.9049e+06,20.049,0,3.5354e+07,-3.0682,12081,10985,1,10985,1,-0.00019354,-1.1966e-09,0,6.5768e-06,-4.7872e-05,-7.8717e+07,-272.88,0,1.9296e+06,-102.75,10984,11571,1,11571,1,-8.5143e-05,-1.2684e-10,0,5.8368e-05,-2.7569e-05,-3.4624e+07,-35.912,0,1.8464e+07,-10.367,11570,12593,1,12593,1,0.00014833,4.6941e-10,0,0.0001751,1.6054e-05,3.5354e+07,124.17,0,5.0901e+07,2.1581,12592,591.12,0,591.12,0,0.00013474,4.7585e-10,0,7.0836e-05,2.5192e-05,4.0978e+07,120.58,0,2.0466e+07,10.841,591.12,1
2044,0.83,12082,1,12082,1,3.1977e-05,1.979e-10,0,0.00012032,-5.8193e-06,-12.251,50.748,0,3.5925e+07,-1.6142,12081,13104,1,13104,1,0.00025986,9.5257e-10,0,0.00025986,3.6794e-05,5.7949e+07,224.99,0,7.9677e+07,16.444,13103,12082,1,12082,1,3.1977e-05,1.4101e-10,0,0.00011816,-5.8046e-06,9.0134e+06,36.991,0,3.5786e+07,0.092266,12081,10985,1,10985,1,-0.0001959,-7.1252e-10,0,6.6569e-06,-4.8456e-05,-7.9677e+07,-167.88,0,1.9531e+06,-39.081,10984,11571,1,11571,1,-8.6182e-05,-4.4429e-11,0,5.9079e-05,-2.7905e-05,-3.5047e+07,-10.869,0,1.8689e+07,-6.4614,11570,12593,1,12593,1,0.00015014,4.7835e-10,0,0.00017724,1.6249e-05,3.5786e+07,126.1,0,5.1522e+07,4.3196,12592,591.12,0,591.12,0,0.00013638,3.6707e-10,0,7.1699e-05,2.5499e-05,4.1478e+07,93.118,0,2.0716e+07,8.541,591.12,1
2044,0.84,12082,1,12082,1,3.2362e-05,6.5171e-11,0,0.00012176,-5.8893e-06,11.01,16.823,0,3.6358e+07,-2.1233,12081,13104,1,13104,1,0.00026298,7.6437e-10,0,0.00026298,3.7237e-05,5.8646e+07,179.29,0,8.0636e+07,81.198,13103,12082,1,12082,1,3.2362e-05,4.5807e-11,0,0.00011958,-5.8745e-06,9.122e+06,12.513,0,3.6216e+07,-1.1226,12081,10985,1,10985,1,-0.00019826,-8.7821e-10,0,6.7372e-06,-4.9041e-05,-8.0636e+07,-216.16,0,1.9766e+06,-696.93,10984,11571,1,11571,1,-8.7219e-05,-1.1031e-10,0,5.9791e-05,-2.8241e-05,-3.5469e+07,-28.947,0,1.8914e+07,-6.2882,11570,12593,1,12593,1,0.00015194,2.9638e-10,0,0.00017937,1.6445e-05,3.6216e+07,78.89,0,5.2142e+07,3.0869,12592,591.12,0,591.12,0,0.00013803,3.3439e-10,0,7.2563e-05,2.5806e-05,4.1977e+07,84.756,0,2.0965e+07,20.372,591.12,1
2044,0.85,12082,1,12082,1,3.2745e-05,-4.2575e-10,0,0.00012321,-5.9591e-06,8.4208,-108.59,0,3.6789e+07,1.3664,12081,13104,1,13104,1,0.00026611,1.0852e-10,0,0.00026611,3.7679e-05,5.9342e+07,37.162,0,8.1593e+07,15.29,13103,12082,1,12082,1,3.2745e-05,-3.6468e-10,0,0.000121,-5.9441e-06,9.2301e+06,-94.1,0,3.6646e+07,1.3172,12081,10985,1,10985,1,-0.00020061,-1.2164e-09,0,6.8169e-06,-4.9621e-05,-8.1593e+07,-295.71,0,2e+06,-16.52,10984,11571,1,11571,1,-8.8254e-05,-6.718e-10,0,6.05e-05,-2.8576e-05,-3.5889e+07,-179.35,0,1.9138e+07,-2.315,11570,12593,1,12593,1,0.00015374,-1.4646e-10,0,0.0001815,1.664e-05,3.6646e+07,-39.999,0,5.2761e+07,4.7061,12592,591.12,0,591.12,0,0.00013966,3.4015e-10,0,7.3423e-05,2.6112e-05,4.2475e+07,84.571,0,2.1214e+07,5.6733,591.12,1
2044,0.86,12082,1,12082,1,3.3133e-05,3.2752e-10,0,0.00012466,-6.0296e-06,-6.6776,84.002,0,3.7224e+07,-2.6919,12081,13104,1,13104,1,0.00026925,1.4305e-09,0,0.00026925,3.8125e-05,6.0044e+07,336.88,0,8.2557e+07,34.033,13103,12082,1,12082,1,3.3132e-05,2.1388e-10,0,0.00012243,-6.0144e-06,9.3392e+06,58.418,0,3.7079e+07,-0.85672,12081,10985,1,10985,1,-0.00020298,-8.1285e-10,0,6.8975e-06,-5.0207e-05,-8.2557e+07,-190.53,0,2.0237e+06,-61.059,10984,11571,1,11571,1,-8.9297e-05,-4.4001e-12,0,6.1215e-05,-2.8914e-05,-3.6313e+07,-1.1876,0,1.9365e+07,-11.965,11570,12593,1,12593,1,0.00015556,6.7381e-10,0,0.00018364,1.6837e-05,3.7079e+07,172.68,0,5.3384e+07,5.738,12592,591.12,0,591.12,0,0.00014131,4.9332e-10,0,7.4291e-05,2.6421e-05,4.2977e+07,124.28,0,2.1465e+07,13.686,591.12,1
2044,0.87,12082,1,12082,1,3.3515e-05,-1.8741e-10,0,0.0001261,-6.0992e-06,9.6948,-48.554,0,3.7653e+07,3.154,12081,13104,1,13104,1,0.00027236,1.2766e-09,0,0.00027236,3.8565e-05,6.0737e+07,292.6,0,8.351e+07,30.172,13103,12082,1,12082,1,3.3515e-05,-1.2451e-10,0,0.00012384,-6.0838e-06,9.4471e+06,-32.091,0,3.7507e+07,0.60741,12081,10985,1,10985,1,-0.00020533,-1.2502e-09,0,6.9772e-06,-5.0787e-05,-8.351e+07,-301.32,0,2.047e+06,-25.105,10984,11571,1,11571,1,-9.0328e-05,-5.2969e-10,0,6.1922e-05,-2.9248e-05,-3.6733e+07,-141.67,0,1.9588e+07,-5.6379,11570,12593,1,12593,1,0.00015736,7.2417e-11,0,0.00018576,1.7031e-05,3.7507e+07,18.937,0,5.4001e+07,11.807,12592,591.12,0,591.12,0,0.00014294,5.0346e-10,0,7.5148e-05,2.6726e-05,4.3473e+07,127.35,0,2.1712e+07,11.624,591.12,1
2044,0.88,12082,1,12082,1,3.3903e-05,1.382e-11,0,0.00012756,-6.1698e-06,6.9892,3.7942,0,3.8089e+07,-4.0192,12081,13104,1,13104,1,0.00027551,9.5912e-10,0,0.00027551,3.9011e-05,6.1439e+07,225.87,0,8.4476e+07,14.923,13103,12082,1,12082,1,3.3903e-05,3.996e-11,0,0.00012528,-6.1543e-06,9.5564e+06,10.616,0,3.7941e+07,-3.6961,12081,10985,1,10985,1,-0.0002077,-1.2014e-09,0,7.0581e-06,-5.1374e-05,-8.4476e+07,-287.32,0,2.0708e+06,-28.189,10984,11571,1,11571,1,-9.1373e-05,-2.2186e-10,0,6.2638e-05,-2.9586e-05,-3.7158e+07,-56.849,0,1.9815e+07,-10.347,11570,12593,1,12593,1,0.00015918,2.978e-10,0,0.00018791,1.7228e-05,3.7941e+07,78.013,0,5.4626e+07,2.9681,12592,591.12,0,591.12,0,0.0001446,4.3164e-10,0,7.6018e-05,2.7035e-05,4.3976e+07,109.44,0,2.1964e+07,8.6475,591.12,1
2044,0.89,12082,1,12082,1,3.4288e-05,2.4903e-10,0,0.00012901,-6.2399e-06,-9.1183,63.275,0,3.8522e+07,-2.8083,12081,13104,1,13104,1,0.00027864,1.0247e-09,0,0.00027864,3.9454e-05,6.2137e+07,244.69,0,8.5436e+07,21.894,13103,12082,1,12082,1,3.4288e-05,1.6431e-10,0,0.0001267,-6.2241e-06,9.6649e+06,44.785,0,3.8372e+07,-1.9279,12081,10985,1,10985,1,-0.00021006,-4.9937e-10,0,7.138e-06,-5.1958e-05,-8.5436e+07,-123.13,0,2.0942e+06,-34.034,10984,11571,1,11571,1,-9.2411e-05,-1.0493e-11,0,6.3349e-05,-2.9922e-05,-3.758e+07,-2.7088,0,2.004e+07,-10.315,11570,12593,1,12593,1,0.00016099,5.0631e-10,0,0.00019005,1.7424e-05,3.8372e+07,127.98,0,5.5246e+07,3.9699,12592,591.12,0,591.12,0,0.00014624,3.5142e-10,0,7.6882e-05,2.7342e-05,4.4476e+07,88.272,0,2.2213e+07,10.407,591.12,1
2044,0.9,12082,1,12082,1,3.4673e-05,1.9345e-10,0,0.00013046,-6.31e-06,-10.17,48.796,0,3.8954e+07,-3.3323,12081,13104,1,13104,1,0.00028177,5.6012e-10,0,0.00028177,3.9897e-05,6.2835e+07,133.03,0,8.6396e+07,35.415,13103,12082,1,12082,1,3.4673e-05,1.9359e-10,0,0.00012812,-6.2941e-06,9.7735e+06,52.53,0,3.8803e+07,-0.74621,12081,10985,1,10985,1,-0.00021242,-9.9194e-11,0,7.2183e-06,-5.2542e-05,-8.6396e+07,-33.966,0,2.1178e+06,-67.297,10984,11571,1,11571,1,-9.3449e-05,7.7e-11,0,6.4061e-05,-3.0258e-05,-3.8002e+07,20.308,0,2.0265e+07,-6.9651,11570,12593,1,12593,1,0.0001628,3.0342e-10,0,0.00019218,1.762e-05,3.8803e+07,77.006,0,5.5867e+07,3.5914,12592,591.12,0,591.12,0,0.00014788,1.5144e-10,0,7.7745e-05,2.7649e-05,4.4975e+07,37.201,0,2.2463e+07,11.129,591.12,1
2044,0.91,12082,1,12082,1,3.5059e-05,-3.155e-11,0,0.00013191,-6.3802e-06,0.082961,-7.9483,0,3.9388e+07,-5.4401,12081,13104,1,13104,1,0.0002849,1.0136e-09,0,0.0002849,4.0341e-05,6.3534e+07,235.05,0,8.7357e+07,36.494,13103,12082,1,12082,1,3.5059e-05,4.5112e-12,0,0.00012955,-6.3641e-06,9.8823e+06,1.2733,0,3.9235e+07,-1.4733,12081,10985,1,10985,1,-0.00021479,-1.6206e-09,0,7.2987e-06,-5.3128e-05,-8.7357e+07,-403.04,0,2.1414e+06,-528.13,10984,11571,1,11571,1,-9.4489e-05,-2.9443e-10,0,6.4774e-05,-3.0595e-05,-3.8425e+07,-77.617,0,2.0491e+07,-13.064,11570,12593,1,12593,1,0.00016461,3.2399e-10,0,0.00019432,1.7816e-05,3.9235e+07,84.704,0,5.6488e+07,6.6536,12592,591.12,0,591.12,0,0.00014953,5.2498e-10,0,7.8611e-05,2.7957e-05,4.5476e+07,133.31,0,2.2713e+07,28.29,591.12,1
2044,0.92,12082,1,12082,1,3.5444e-05,2.8232e-12,0,0.00013336,-6.4502e-06,7.1172,0.80805,0,3.982e+07,-1.0307,12081,13104,1,13104,1,0.00028803,5.7608e-10,0,0.00028803,4.0783e-05,6.4231e+07,137.83,0,8.8315e+07,12.31,13103,12082,1,12082,1,3.5444e-05,4.8268e-12,0,0.00013097,-6.4339e-06,9.9907e+06,1.4454,0,3.9665e+07,-0.59801,12081,10985,1,10985,1,-0.00021714,-7.779e-10,0,7.3788e-06,-5.3709e-05,-8.8315e+07,-195.34,0,2.1649e+06,-18.468,10984,11571,1,11571,1,-9.5526e-05,-1.4863e-10,0,6.5485e-05,-3.0931e-05,-3.8846e+07,-39.37,0,2.0715e+07,-5.7836,11570,12593,1,12593,1,0.00016641,1.9159e-10,0,0.00019645,1.8011e-05,3.9665e+07,50.106,0,5.7108e+07,4.0926,12592,591.12,0,591.12,0,0.00015117,2.7067e-10,0,7.9473e-05,2.8264e-05,4.5975e+07,68.762,0,2.2962e+07,5.9716,591.12,1
2044,0.93,12082,1,12082,1,3.5829e-05,2.0734e-10,0,0.00013481,-6.5203e-06,10.389,53.485,0,4.0253e+07,-4.3402,12081,13104,1,13104,1,0.00029116,8.9844e-10,0,0.00029116,4.1227e-05,6.493e+07,254.28,0,8.9275e+07,21.421,13103,12082,1,12082,1,3.5829e-05,1.4553e-10,0,0.00013239,-6.5039e-06,1.0099e+07,39.216,0,4.0097e+07,-0.74419,12081,10985,1,10985,1,-0.0002195,-6.6026e-10,0,7.459e-06,-5.4294e-05,-8.9275e+07,-197.76,0,2.1884e+06,-363.44,10984,11571,1,11571,1,-9.6564e-05,-2.8481e-11,0,6.6196e-05,-3.1267e-05,-3.9269e+07,-7.8083,0,2.0941e+07,-10.492,11570,12593,1,12593,1,0.00016822,4.9149e-10,0,0.00019859,1.8207e-05,4.0097e+07,125.95,0,5.7729e+07,4.5444,12592,591.12,0,591.12,0,0.00015281,3.5977e-10,0,8.0337e-05,2.8571e-05,4.6474e+07,92.683,0,2.3212e+07,25.108,591.12,1
2044,0.94,12082,1,12082,1,3.6214e-05,4.5421e-11,0,0.00013626,-6.5905e-06,18.351,12.117,0,4.0686e+07,-2.734,12081,13104,1,13104,1,0.00029429,1.0348e-09,0,0.00029429,4.167e-05,6.5628e+07,243.82,0,9.0235e+07,20.753,13103,12082,1,12082,1,3.6214e-05,7.4091e-11,0,0.00013382,-6.5738e-06,1.0208e+07,18.768,0,4.0528e+07,-1.3462,12081,10985,1,10985,1,-0.00022186,-1.3361e-09,0,7.5393e-06,-5.4877e-05,-9.0235e+07,-339.65,0,2.2119e+06,-32.283,10984,11571,1,11571,1,-9.7603e-05,-1.7605e-10,0,6.6908e-05,-3.1603e-05,-3.9691e+07,-44.702,0,2.1166e+07,-9.1178,11570,12593,1,12593,1,0.00017003,3.5048e-10,0,0.00020073,1.8403e-05,4.0528e+07,92.126,0,5.835e+07,3.7586,12592,591.12,0,591.12,0,0.00015446,4.6837e-10,0,8.1201e-05,2.8878e-05,4.6974e+07,119.53,0,2.3461e+07,9.3266,591.12,1
2044,0.95,12082,1,12082,1,3.6598e-05,1.2245e-10,0,0.0001377,-6.6602e-06,9.6587,31.342,0,4.1116e+07,-2.0261,12081,13104,1,13104,1,0.00029741,1.9482e-09,0,0.00029741,4.2112e-05,6.6323e+07,477.47,0,9.1191e+07,49.648,13103,12082,1,12082,1,3.6598e-05,6.0385e-12,0,0.00013523,-6.6434e-06,1.0316e+07,1.4675,0,4.0957e+07,-4.5208,12081,10985,1,10985,1,-0.00022421,-8.1926e-10,0,7.6188e-06,-5.5458e-05,-9.1191e+07,-200.32,0,2.2353e+06,-248.72,10984,11571,1,11571,1,-9.8636e-05,-3.0306e-10,0,6.7617e-05,-3.1938e-05,-4.0111e+07,-78.194,0,2.139e+07,-11.634,11570,12593,1,12593,1,0.00017183,4.4041e-10,0,0.00020285,1.8598e-05,4.0957e+07,112.16,0,5.8968e+07,8.5265,12592,591.12,0,591.12,0,0.00015609,6.0716e-10,0,8.206e-05,2.9184e-05,4.7471e+07,153.26,0,2.3709e+07,20.534,591.12,1
2044,0.96,12082,1,12082,1,3.6985e-05,7.022e-11,0,0.00013916,-6.7306e-06,15.367,17.924,0,4.1551e+07,-6.0852,12081,13104,1,13104,1,0.00030055,7.3943e-10,0,0.00030055,4.2556e-05,6.7024e+07,177.28,0,9.2154e+07,8.4629,13103,12082,1,12082,1,3.6985e-05,4.8438e-11,0,0.00013666,-6.7136e-06,1.0425e+07,11.327,0,4.139e+07,-5.1304,12081,10985,1,10985,1,-0.00022658,-9.6837e-10,0,7.6996e-06,-5.6044e-05,-9.2154e+07,-225.92,0,2.259e+06,-24.115,10984,11571,1,11571,1,-9.9678e-05,-1.0704e-10,0,6.8331e-05,-3.2275e-05,-4.0535e+07,-29.665,0,2.1616e+07,-10.17,11570,12593,1,12593,1,0.00017365,3.3178e-10,0,0.00020499,1.8794e-05,4.139e+07,87.132,0,5.9591e+07,-1.38,12592,591.12,0,591.12,0,0.00015774,3.5958e-10,0,8.2928e-05,2.9492e-05,4.7973e+07,91.136,0,2.396e+07,6.5521,591.12,1
2044,0.97,12082,1,12082,1,3.737e-05,1.5804e-10,0,0.00014061,-6.8008e-06,5.4275,40.657,0,4.1984e+07,-2.3247,12081,13104,1,13104,1,0.00030368,9.105e-10,0,0.00030368,4.3e-05,6.7722e+07,214.59,0,9.3115e+07,11.708,13103,12082,1,12082,1,3.737e-05,1.3229e-10,0,0.00013809,-6.7836e-06,1.0534e+07,34.247,0,4.1821e+07,-1.1294,12081,10985,1,10985,1,-0.00022894,-7.1357e-10,0,7.7799e-06,-5.6628e-05,-9.3115e+07,-166.81,0,2.2825e+06,-47.471,10984,11571,1,11571,1,-0.00010072,-1.8429e-11,0,6.9044e-05,-3.2612e-05,-4.0958e+07,-5.3697,0,2.1841e+07,-6.0952,11570,12593,1,12593,1,0.00017546,3.8365e-10,0,0.00020713,1.899e-05,4.1821e+07,100.72,0,6.0212e+07,3.0926,12592,591.12,0,591.12,0,0.00015939,3.214e-10,0,8.3792e-05,2.98e-05,4.8473e+07,81.479,0,2.421e+07,7.7095,591.12,1
2044,0.98,12082,1,12082,1,3.7756e-05,-4.0669e-11,0,0.00014206,-6.871e-06,11.181,-10.429,0,4.2418e+07,-2.9166,12081,13104,1,13104,1,0.00030682,1.3361e-09,0,0.00030682,4.3444e-05,6.8422e+07,315.28,0,9.4077e+07,95.36,13103,12082,1,12082,1,3.7756e-05,1.0786e-12,0,0.00013951,-6.8537e-06,1.0643e+07,0.20261,0,4.2253e+07,-1.7244,12081,10985,1,10985,1,-0.00023131,-1.6674e-09,0,7.8603e-06,-5.7213e-05,-9.4077e+07,-409.77,0,2.3061e+06,-53.639,10984,11571,1,11571,1,-0.00010176,-3.7453e-10,0,6.9757e-05,-3.2949e-05,-4.1381e+07,-96.831,0,2.2067e+07,-11.517,11570,12593,1,12593,1,0.00017727,3.2877e-10,0,0.00020927,1.9186e-05,4.2253e+07,85.883,0,6.0834e+07,6.8919,12592,591.12,0,591.12,0,0.00016103,5.8557e-10,0,8.4658e-05,3.0108e-05,4.8974e+07,149.49,0,2.446e+07,12.141,591.12,1
2044,0.99,12082,1,12082,1,3.8141e-05,-3.0185e-11,0,0.00014351,-6.941e-06,25.576,-7.3952,0,4.285e+07,-4.0666,12081,13104,1,13104,1,0.00030994,5.5905e-10,0,0.00030994,4.3887e-05,6.9118e+07,136.56,0,9.5035e+07,12.118,13103,12082,1,12082,1,3.8141e-05,6.5495e-13,0,0.00014093,-6.9235e-06,1.0751e+07,0.17241,0,4.2684e+07,-2.2443,12081,10985,1,10985,1,-0.00023366,-7.1133e-10,0,7.9403e-06,-5.7796e-05,-9.5035e+07,-176.54,0,2.3296e+06,-33.149,10984,11571,1,11571,1,-0.00010279,-1.2316e-10,0,7.0467e-05,-3.3284e-05,-4.1802e+07,-31.316,0,2.2292e+07,-7.6229,11570,12593,1,12593,1,0.00017908,6.3058e-11,0,0.0002114,1.9382e-05,4.2684e+07,16.512,0,6.1454e+07,0.59698,12592,591.12,0,591.12,0,0.00016267,2.0334e-10,0,8.552e-05,3.0414e-05,4.9473e+07,51.287,0,2.4709e+07,6.6644,591.12,1
2044,1,12082,1,12082,1,3.8526e-05,1.8135e-10,0,0.00014496,-7.0112e-06,46.99,46.017,0,4.3283e+07,-2.1679,12081,13104,1,13104,1,0.00031308,1.2018e-09,0,0.00031308,4.4331e-05,6.9818e+07,292.93,0,9.5996e+07,18.017,13103,12082,1,12082,1,3.8526e-05,1.3754e-10,0,0.00014236,-6.9935e-06,1.086e+07,33.505,0,4.3115e+07,-1.8592,12081,10985,1,10985,1,-0.00023603,-1.0829e-09,0,8.0207e-06,-5.838e-05,-9.5996e+07,-282.11,0,2.3532e+06,-33.058,10984,11571,1,11571,1,-0.00010383,-9.7233e-11,0,7.118e-05,-3.3621e-05,-4.2225e+07,-25.69,0,2.2517e+07,-7.6366,11570,12593,1,12593,1,0.00018089,5.5144e-10,0,0.00021354,1.9578e-05,4.3115e+07,141.96,0,6.2075e+07,4.7892,12592,591.12,0,591.12,0,0.00016432,4.9249e-10,0,8.6385e-05,3.0722e-05,4.9973e+07,125.71,0,2.4959e+07,9.2799,591.12,1
2044,1.01,12082,1,12082,1,3.8911e-05,-5.3443e-11,0,0.00014641,-7.0812e-06,9.6503,-13.327,0,4.3716e+07,-3.3741,12081,13104,1,13104,1,0.00031621,8.2265e-10,0,0.00031621,4.4773e-05,7.0515e+07,196.62,0,9.6955e+07,20.37,13103,12082,1,12082,1,3.8911e-05,-1.4641e-11,0,0.00014378,-7.0634e-06,1.0968e+07,-3.6931,0,4.3546e+07,-3.4937,12081,10985,1,10985,1,-0.00023838,-1.0995e-09,0,8.1008e-06,-5.8963e-05,-9.6955e+07,-271.29,0,2.3767e+06,-25.113,10984,11571,1,11571,1,-0.00010487,-2.4919e-10,0,7.1891e-05,-3.3957e-05,-4.2647e+07,-64.377,0,2.2742e+07,-8.8836,11570,12593,1,12593,1,0.00018269,1.488e-10,0,0.00021567,1.9773e-05,4.3546e+07,38.351,0,6.2695e+07,2.332,12592,591.12,0,591.12,0,0.00016596,3.4451e-10,0,8.7248e-05,3.1029e-05,5.0472e+07,86.951,0,2.5208e+07,7.2288,591.12,1
2044,1.02,12082,1,12082,1,3.9296e-05,3.3591e-10,0,0.00014786,-7.1513e-06,37.964,85.517,0,4.4148e+07,-8.1054,12081,13104,1,13104,1,0.00031934,1.1953e-09,0,0.00031934,4.5217e-05,7.1213e+07,293.27,0,9.7915e+07,23.148,13103,12082,1,12082,1,3.9296e-05,2.6192e-10,0,0.0001452,-7.1334e-06,1.1077e+07,66.147,0,4.3977e+07,-3.0406,12081,10985,1,10985,1,-0.00024074,-5.5136e-10,0,8.1808e-06,-5.9548e-05,-9.7915e+07,-135.31,0,2.4002e+06,-208.95,10984,11571,1,11571,1,-0.00010591,1.3238e-11,0,7.2602e-05,-3.4293e-05,-4.3069e+07,3.5575,0,2.2967e+07,-12.962,11570,12593,1,12593,1,0.0001845,6.2481e-10,0,0.00021781,1.9969e-05,4.3977e+07,165.85,0,6.3316e+07,1.4471,12592,591.12,0,591.12,0,0.0001676,3.8989e-10,0,8.8111e-05,3.1336e-05,5.0972e+07,98.542,0,2.5458e+07,15.856,591.12,1
2044,1.03,12082,1,12082,1,3.9681e-05,-1.1169e-10,0,0.0001493,-7.2214e-06,8.1163,-28.598,0,4.4581e+07,-8.5901,12081,13104,1,13104,1,0.00032246,8.6501e-11,0,0.00032246,4.5659e-05,7.191e+07,28.447,0,9.8873e+07,42.214,13103,12082,1,12082,1,3.9681e-05,-1.0891e-10,0,0.00014663,-7.2033e-06,1.1185e+07,-29.129,0,4.4408e+07,-4.838,12081,10985,1,10985,1,-0.0002431,-3.5013e-10,0,8.2609e-06,-6.013e-05,-9.8873e+07,-115.23,0,2.4237e+06,-186.78,10984,11571,1,11571,1,-0.00010695,-1.648e-10,0,7.3314e-05,-3.4629e-05,-4.3491e+07,-39.208,0,2.3192e+07,-8.9541,11570,12593,1,12593,1,0.00018631,-5.1056e-11,0,0.00021994,2.0165e-05,4.4408e+07,-12.575,0,6.3936e+07,-1.6013,12592,591.12,0,591.12,0,0.00016924,7.9855e-11,0,8.8974e-05,3.1643e-05,5.1471e+07,20.544,0,2.5707e+07,16.9,591.12,1
2044,1.04,12082,1,12082,1,4.0065e-05,-1.5638e-10,0,0.00015075,-7.2911e-06,0.048961,-39.955,0,4.5011e+07,-10.032,12081,13104,1,13104,1,0.00032558,1.4232e-09,0,0.00032558,4.6101e-05,7.2606e+07,353.05,0,9.983e+07,81.052,13103,12082,1,12082,1,4.0065e-05,-9.4752e-11,0,0.00014804,-7.2728e-06,1.1293e+07,-22.655,0,4.4837e+07,-6.653,12081,10985,1,10985,1,-0.00024545,-1.3389e-09,0,8.3406e-06,-6.0712e-05,-9.983e+07,-328.56,0,2.447e+06,-586.17,10984,11571,1,11571,1,-0.00010798,-5.8799e-10,0,7.4022e-05,-3.4963e-05,-4.3911e+07,-151.18,0,2.3416e+07,-20.379,11570,12593,1,12593,1,0.00018811,1.6475e-10,0,0.00022207,2.0359e-05,4.4837e+07,46.648,0,6.4554e+07,5.4643,12592,591.12,0,591.12,0,0.00017088,5.8712e-10,0,8.9834e-05,3.1948e-05,5.1968e+07,148.84,0,2.5956e+07,32.147,591.12,1
2044,1.05,12082,1,12082,1,4.0452e-05,-2.2217e-12,0,0.0001522,-7.3617e-06,44.524,-0.82475,0,4.5447e+07,-9.3441,12081,13104,1,13104,1,0.00032873,9.5453e-10,0,0.00032873,4.6546e-05,7.3308e+07,238.54,0,1.0079e+08,14.541,13103,12082,1,12082,1,4.0452e-05,-1.2677e-11,0,0.00014948,-7.3432e-06,1.1403e+07,-3.1165,0,4.5271e+07,-5.8418,12081,10985,1,10985,1,-0.00024782,-1.2526e-09,0,8.4217e-06,-6.1299e-05,-1.0079e+08,-300.99,0,2.4708e+06,-52.826,10984,11571,1,11571,1,-0.00010902,-2.1949e-10,0,7.4738e-05,-3.5302e-05,-4.4336e+07,-57.512,0,2.3643e+07,-17.94,11570,12593,1,12593,1,0.00018993,2.6408e-10,0,0.00022421,2.0556e-05,4.5271e+07,68.169,0,6.5178e+07,-0.020857,12592,591.12,0,591.12,0,0.00017253,4.133e-10,0,9.0703e-05,3.2258e-05,5.2471e+07,105.02,0,2.6207e+07,12.348,591.12,1
2044,1.06,12082,1,12082,1,4.0837e-05,-1.9195e-11,0,0.00015365,-7.4317e-06,3.3349,-4.4534,0,4.588e+07,-1.8833,12081,13104,1,13104,1,0.00033186,4.3636e-10,0,0.00033186,4.699e-05,7.4005e+07,100.85,0,1.0175e+08,10.546,13103,12082,1,12082,1,4.0837e-05,3.825e-12,0,0.0001509,-7.413e-06,1.1511e+07,0.93935,0,4.5702e+07,0.40579,12081,10985,1,10985,1,-0.00025018,-5.501e-10,0,8.5017e-06,-6.1882e-05,-1.0175e+08,-130.3,0,2.4943e+06,-34.429,10984,11571,1,11571,1,-0.00011006,-8.6909e-11,0,7.545e-05,-3.5638e-05,-4.4758e+07,-21.49,0,2.3868e+07,-5.0163,11570,12593,1,12593,1,0.00019174,5.9598e-11,0,0.00022635,2.0752e-05,4.5702e+07,15.26,0,6.5799e+07,3.9889,12592,591.12,0,591.12,0,0.00017418,1.534e-10,0,9.1567e-05,3.2565e-05,5.2971e+07,39.037,0,2.6456e+07,8.1235,591.12,1
2044,1.07,12082,1,12082,1,4.1222e-05,2.2559e-10,0,0.0001551,-7.5018e-06,9.3343,57.698,0,4.6312e+07,-5.6768,12081,13104,1,13104,1,0.00033499,9.4269e-10,0,0.00033499,4.7433e-05,7.4704e+07,223.21,0,1.0271e+08,17.849,13103,12082,1,12082,1,4.1222e-05,1.8651e-10,0,0.00015232,-7.4829e-06,1.162e+07,47.9,0,4.6132e+07,-4.1066,12081,10985,1,10985,1,-0.00025254,-4.3278e-10,0,8.5818e-06,-6.2466e-05,-1.0271e+08,-128.14,0,2.5178e+06,-40.467,10984,11571,1,11571,1,-0.0001111,7.2871e-12,0,7.6161e-05,-3.5974e-05,-4.518e+07,2.1549,0,2.4093e+07,-10.901,11570,12593,1,12593,1,0.00019354,4.2086e-10,0,0.00022848,2.0948e-05,4.6132e+07,106.94,0,6.6419e+07,0.98685,12592,591.12,0,591.12,0,0.00017582,2.9298e-10,0,9.243e-05,3.2872e-05,5.347e+07,73.723,0,2.6706e+07,9.692,591.12,1
2044,1.08,12082,1,12082,1,4.1607e-05,3.2774e-11,0,0.00015655,-7.5719e-06,20.675,7.9408,0,4.6745e+07,-4.8048,12081,13104,1,13104,1,0.00033812,5.2301e-10,0,0.00033812,4.7876e-05,7.5401e+07,123.58,0,1.0367e+08,9.3451,13103,12082,1,12082,1,4.1607e-05,-1.8538e-11,0,0.00015374,-7.5528e-06,1.1728e+07,-4.7108,0,4.6563e+07,-2.6773,12081,10985,1,10985,1,-0.0002549,-4.226e-10,0,8.662e-06,-6.3049e-05,-1.0367e+08,-103.1,0,2.5413e+06,-35.705,10984,11571,1,11571,1,-0.00011214,-8.7662e-11,0,7.6872e-05,-3.631e-05,-4.5602e+07,-24.969,0,2.4318e+07,-7.8097,11570,12593,1,12593,1,0.00019535,1.6834e-10,0,0.00023062,2.1143e-05,4.6563e+07,43.881,0,6.7039e+07,-0.055921,12592,591.12,0,591.12,0,0.00017746,1.974e-10,0,9.3293e-05,3.3179e-05,5.397e+07,49.963,0,2.6955e+07,7.641,591.12,1
2044,1.09,12082,1,12082,1,4.1993e-05,6.7413e-11,0,0.000158,-7.6421e-06,31.916,17.318,0,4.7178e+07,-7.982,12081,13104,1,13104,1,0.00034125,7.9194e-10,0,0.00034125,4.8319e-05,7.61e+07,183.78,0,1.0463e+08,6.2705,13103,12082,1,12082,1,4.1993e-05,2.151e-11,0,0.00015517,-7.6229e-06,1.1837e+07,5.529,0,4.6995e+07,-6.0981,12081,10985,1,10985,1,-0.00025726,-6.9675e-10,0,8.7424e-06,-6.3634e-05,-1.0463e+08,-165.34,0,2.5649e+06,-68.097,10984,11571,1,11571,1,-0.00011318,-7.5093e-11,0,7.7585e-05,-3.6646e-05,-4.6025e+07,-20.201,0,2.4543e+07,-10.504,11570,12593,1,12593,1,0.00019716,2.4672e-10,0,0.00023276,2.1339e-05,4.6995e+07,64.152,0,6.7661e+07,-1.2178,12592,591.12,0,591.12,0,0.0001791,2.7573e-10,0,9.4158e-05,3.3486e-05,5.447e+07,69.27,0,2.7205e+07,10.61,591.12,1
2044,1.1,12082,1,12082,1,4.2378e-05,-3.1412e-10,0,0.00015945,-7.7121e-06,8.7832,-79.586,0,4.761e+07,-5.6232,12081,13104,1,13104,1,0.00034438,2.0232e-10,0,0.00034438,4.8762e-05,7.6798e+07,49.356,0,1.0559e+08,14.685,13103,12082,1,12082,1,4.2378e-05,-2.6425e-10,0,0.00015659,-7.6927e-06,1.1945e+07,-72.072,0,4.7425e+07,-3.2485,12081,10985,1,10985,1,-0.00025962,-1.1846e-09,0,8.8224e-06,-6.4217e-05,-1.0559e+08,-275.36,0,2.5884e+06,-59.612,10984,11571,1,11571,1,-0.00011421,-5.2388e-10,0,7.8296e-05,-3.6982e-05,-4.6446e+07,-133.6,0,2.4768e+07,-9.5978,11570,12593,1,12593,1,0.00019897,-5.0918e-11,0,0.00023489,2.1535e-05,4.7425e+07,-13.48,0,6.8281e+07,1.252,12592,591.12,0,591.12,0,0.00018075,3.0884e-10,0,9.5021e-05,3.3793e-05,5.4969e+07,76.767,0,2.7454e+07,10.906,591.12,1
2044,1.11,12082,1,12082,1,4.2762e-05,-1.6162e-10,0,0.0001609,-7.782e-06,1.6268,-41.582,0,4.8042e+07,1.3856,12081,13104,1,13104,1,0.0003475,3.0138e-10,0,0.0003475,4.9205e-05,7.7494e+07,73.482,0,1.0655e+08,16.665,13103,12082,1,12082,1,4.2762e-05,-1.2412e-10,0,0.00015801,-7.7624e-06,1.2054e+07,-31.775,0,4.7856e+07,0.77688,12081,10985,1,10985,1,-0.00026198,-6.2462e-10,0,8.9023e-06,-6.4799e-05,-1.0655e+08,-150.75,0,2.6118e+06,-20.194,10984,11571,1,11571,1,-0.00011525,-3.2531e-10,0,7.9006e-05,-3.7317e-05,-4.6868e+07,-85.565,0,2.4993e+07,-2.0081,11570,12593,1,12593,1,0.00020077,-1.4778e-11,0,0.00023702,2.173e-05,4.7856e+07,-3.5225,0,6.89e+07,4.6224,12592,591.12,0,591.12,0,0.00018238,2.127e-10,0,9.5882e-05,3.41e-05,5.5467e+07,54.016,0,2.7703e+07,5.7747,591.12,1
2044,1.12,12082,1,12082,1,4.3148e-05,-1.8608e-10,0,0.00016235,-7.8522e-06,48.464,-47.484,0,4.8475e+07,2.0416,12081,13104,1,13104,1,0.00035064,2.9933e-10,0,0.00035064,4.9649e-05,7.8193e+07,85.995,0,1.0751e+08,29.98,13103,12082,1,12082,1,4.3148e-05,-1.3348e-10,0,0.00015944,-7.8324e-06,1.2162e+07,-34.165,0,4.8287e+07,1.0013,12081,10985,1,10985,1,-0.00026434,-7.9785e-10,0,8.9827e-06,-6.5384e-05,-1.0751e+08,-191.41,0,2.6354e+06,-47.408,10984,11571,1,11571,1,-0.00011629,-3.6181e-10,0,7.9719e-05,-3.7654e-05,-4.729e+07,-93.407,0,2.5218e+07,-3.8949,11570,12593,1,12593,1,0.00020259,-1.4492e-11,0,0.00023916,2.1926e-05,4.8287e+07,-3.6892,0,6.9522e+07,10.51,12592,591.12,0,591.12,0,0.00018403,2.4323e-10,0,9.6747e-05,3.4407e-05,5.5968e+07,61.025,0,2.7953e+07,12.008,591.12,1
2044,1.13,12082,1,12082,1,4.3533e-05,-3.6525e-11,0,0.0001638,-7.9223e-06,19.476,-8.9893,0,4.8908e+07,0.87796,12081,13104,1,13104,1,0.00035376,5.1316e-10,0,0.00035376,5.0091e-05,7.889e+07,135.53,0,1.0847e+08,15.329,13103,12082,1,12082,1,4.3533e-05,-1.1784e-11,0,0.00016086,-7.9023e-06,1.2271e+07,-2.8871,0,4.8718e+07,0.29876,12081,10985,1,10985,1,-0.0002667,-5.4277e-10,0,9.0628e-06,-6.5967e-05,-1.0847e+08,-134.1,0,2.6589e+06,-22.723,10984,11571,1,11571,1,-0.00011733,-2.0625e-10,0,8.043e-05,-3.799e-05,-4.7712e+07,-53.147,0,2.5443e+07,-2.8625,11570,12593,1,12593,1,0.00020439,1.0158e-10,0,0.00024129,2.2122e-05,4.8718e+07,27.576,0,7.0142e+07,5.9144,12592,591.12,0,591.12,0,0.00018567,2.3022e-10,0,9.761e-05,3.4714e-05,5.6467e+07,58.767,0,2.8202e+07,7.0409,591.12,1
2044,1.14,12082,1,12082,1,4.3919e-05,1.0217e-10,0,0.00016525,-7.9925e-06,14.006,25.644,0,4.9341e+07,-1.1076,12081,13104,1,13104,1,0.0003569,2.9134e-10,0,0.0003569,5.0535e-05,7.959e+07,66.237,0,1.0943e+08,17.63,13103,12082,1,12082,1,4.3919e-05,1.041e-10,0,0.00016229,-7.9723e-06,1.238e+07,29.261,0,4.915e+07,-0.67732,12081,10985,1,10985,1,-0.00026906,-6.9504e-11,0,9.1431e-06,-6.6551e-05,-1.0943e+08,-23.8,0,2.6825e+06,-40.4,10984,11571,1,11571,1,-0.00011837,3.678e-11,0,8.1143e-05,-3.8327e-05,-4.8135e+07,9.4629,0,2.5669e+07,-3.0997,11570,12593,1,12593,1,0.0002062,1.7473e-10,0,0.00024343,2.2318e-05,4.915e+07,42.481,0,7.0763e+07,1.4837,12592,591.12,0,591.12,0,0.00018732,8.4649e-11,0,9.8476e-05,3.5022e-05,5.6968e+07,20.636,0,2.8452e+07,6.0076,591.12,1
2044,1.15,12082,1,12082,1,4.4303e-05,-9.0617e-11,0,0.00016669,-8.0624e-06,-29.068,-23.329,0,4.9773e+07,1.1077,12081,13104,1,13104,1,0.00036002,2.3882e-11,0,0.00036002,5.0978e-05,8.0286e+07,8.1778,0,1.1039e+08,8.1183,13103,12082,1,12082,1,4.4303e-05,-6.9937e-11,0,0.00016371,-8.0421e-06,1.2488e+07,-18.334,0,4.958e+07,1.3259,12081,10985,1,10985,1,-0.00027142,-2.6505e-10,0,9.2231e-06,-6.7134e-05,-1.1039e+08,-64.493,0,2.7059e+06,-22.722,10984,11571,1,11571,1,-0.0001194,-1.4055e-10,0,8.1853e-05,-3.8662e-05,-4.8557e+07,-37.258,0,2.5893e+07,-0.00090642,11570,12593,1,12593,1,0.00020801,-3.255e-11,0,0.00024556,2.2513e-05,4.958e+07,-7.9707,0,7.1383e+07,3.166,12592,591.12,0,591.12,0,0.00018896,7.2467e-11,0,9.9338e-05,3.5328e-05,5.7466e+07,18.348,0,2.8702e+07,3.6005,591.12,1
2044,1.16,12082,1,12082,1,4.469e-05,-1.6809e-10,0,0.00016815,-8.1329e-06,2.3933,-43.281,0,5.0208e+07,-17.077,12081,13104,1,13104,1,0.00036317,8.1651e-10,0,0.00036317,5.1423e-05,8.0987e+07,191.04,0,1.1135e+08,32.423,13103,12082,1,12082,1,4.469e-05,-7.3689e-11,0,0.00016514,-8.1126e-06,1.2597e+07,-19.79,0,5.0013e+07,-7.4159,12081,10985,1,10985,1,-0.00027379,-1.4305e-09,0,9.3037e-06,-6.7722e-05,-1.1135e+08,-352.38,0,2.7296e+06,-602.73,10984,11571,1,11571,1,-0.00012045,-4.1204e-10,0,8.2568e-05,-3.9e-05,-4.898e+07,-105.6,0,2.6119e+07,-15.158,11570,12593,1,12593,1,0.00020983,7.6601e-11,0,0.0002477,2.271e-05,5.0013e+07,19.129,0,7.2006e+07,1.3046,12592,591.12,0,591.12,0,0.00019061,4.1866e-10,0,0.00010021,3.5637e-05,5.7968e+07,105.88,0,2.8952e+07,54.163,591.12,1
2044,1.17,12082,1,12082,1,4.5075e-05,1.3003e-11,0,0.0001696,-8.2029e-06,1.3354,3.5623,0,5.0641e+07,-1.6757,12081,13104,1,13104,1,0.0003663,6.0871e-10,0,0.0003663,5.1866e-05,8.1685e+07,144.86,0,1.1231e+08,8.468,13103,12082,1,12082,1,4.5075e-05,2.0669e-11,0,0.00016656,-8.1823e-06,1.2706e+07,5.2696,0,5.0444e+07,0.30078,12081,10985,1,10985,1,-0.00027615,-7.0651e-10,0,9.3839e-06,-6.8303e-05,-1.1231e+08,-162.57,0,2.7531e+06,-51.337,10984,11571,1,11571,1,-0.00012148,-8.7229e-11,0,8.3279e-05,-3.9336e-05,-4.9402e+07,-22.368,0,2.6345e+07,-3.4676,11570,12593,1,12593,1,0.00021163,1.3123e-10,0,0.00024984,2.2905e-05,5.0444e+07,34.306,0,7.2627e+07,3.5247,12592,591.12,0,591.12,0,0.00019225,2.1588e-10,0,0.00010107,3.5944e-05,5.8468e+07,54.087,0,2.9202e+07,7.7197,591.12,1
2044,1.18,12082,1,12082,1,4.5459e-05,-7.5913e-11,0,0.00017105,-8.2729e-06,-39.32,-19.169,0,5.1073e+07,0.24181,12081,13104,1,13104,1,0.00036942,1.7405e-10,0,0.00036942,5.2308e-05,8.2382e+07,38.749,0,1.1327e+08,8.1683,13103,12082,1,12082,1,4.5459e-05,-5.9647e-11,0,0.00016798,-8.252e-06,1.2814e+07,-15.676,0,5.0874e+07,1.267,12081,10985,1,10985,1,-0.0002785,-4.2733e-10,0,9.4637e-06,-6.8886e-05,-1.1327e+08,-94.033,0,2.7765e+06,-25.948,10984,11571,1,11571,1,-0.00012252,-1.3023e-10,0,8.399e-05,-3.9671e-05,-4.9824e+07,-32.379,0,2.6569e+07,-0.99695,11570,12593,1,12593,1,0.00021344,3.4222e-13,0,0.00025197,2.3101e-05,5.0874e+07,0.084145,0,7.3246e+07,2.8833,12592,591.12,0,591.12,0,0.00019389,1.0139e-10,0,0.00010193,3.6251e-05,5.8966e+07,25.028,0,2.9451e+07,4.6794,591.12,1
2044,1.19,12082,1,12082,1,4.5845e-05,-6.4764e-11,0,0.0001725,-8.3431e-06,4.7718,-16.401,0,5.1506e+07,-3.484,12081,13104,1,13104,1,0.00037255,4.2594e-10,0,0.00037255,5.2752e-05,8.308e+07,98.268,0,1.1423e+08,8.0707,13103,12082,1,12082,1,4.5845e-05,-2.5907e-11,0,0.0001694,-8.322e-06,1.2923e+07,-6.9704,0,5.1306e+07,-1.3685,12081,10985,1,10985,1,-0.00028086,-7.2127e-10,0,9.5442e-06,-6.947e-05,-1.1423e+08,-166.46,0,2.8002e+06,-39.538,10984,11571,1,11571,1,-0.00012356,-1.523e-10,0,8.4702e-05,-4.0008e-05,-5.0246e+07,-39.383,0,2.6795e+07,-5.5683,11570,12593,1,12593,1,0.00021525,3.6949e-11,0,0.00025411,2.3297e-05,5.1306e+07,10.328,0,7.3867e+07,0.91697,12592,591.12,0,591.12,0,0.00019553,1.8652e-10,0,0.0001028,3.6558e-05,5.9466e+07,46.92,0,2.97e+07,6.6471,591.12,1
2044,1.2,12082,1,12082,1,4.623e-05,1.2762e-10,0,0.00017395,-8.4132e-06,20.757,32.755,0,5.1939e+07,-2.854,12081,13104,1,13104,1,0.00037568,6.8953e-10,0,0.00037568,5.3195e-05,8.3779e+07,160.93,0,1.1519e+08,6.9777,13103,12082,1,12082,1,4.623e-05,1.0304e-10,0,0.00017083,-8.392e-06,1.3031e+07,27.293,0,5.1737e+07,-1.6578,12081,10985,1,10985,1,-0.00028322,-3.7112e-10,0,9.6245e-06,-7.0054e-05,-1.1519e+08,-85.068,0,2.8237e+06,-43.828,10984,11571,1,11571,1,-0.0001246,-4.6078e-12,0,8.5414e-05,-4.0344e-05,-5.0669e+07,-1.0375,0,2.702e+07,-4.3807,11570,12593,1,12593,1,0.00021706,2.4593e-10,0,0.00025624,2.3493e-05,5.1737e+07,65.041,0,7.4488e+07,1.1518,12592,591.12,0,591.12,0,0.00019718,1.8889e-10,0,0.00010366,3.6865e-05,5.9966e+07,47.434,0,2.995e+07,6.2645,591.12,1
2044,1.21,12082,1,12082,1,4.6616e-05,2.8077e-10,0,0.0001754,-8.4833e-06,9.3412,71.524,0,5.2371e+07,2.0436,12081,13104,1,13104,1,0.00037882,6.1135e-10,0,0.00037882,5.3639e-05,8.4477e+07,148.45,0,1.1615e+08,28.93,13103,12082,1,12082,1,4.6616e-05,2.9248e-10,0,0.00017225,-8.4619e-06,1.314e+07,80.581,0,5.2168e+07,1.9686,12081,10985,1,10985,1,-0.00028559,-1.0075e-10,0,9.7045e-06,-7.0638e-05,-1.1615e+08,-34.499,0,2.8472e+06,-48.308,10984,11571,1,11571,1,-0.00012564,1.49e-10,0,8.6126e-05,-4.068e-05,-5.1091e+07,36.922,0,2.7245e+07,-1.4984,11570,12593,1,12593,1,0.00021887,4.2298e-10,0,0.00025838,2.3688e-05,5.2168e+07,107.38,0,7.5109e+07,5.3941,12592,591.12,0,591.12,0,0.00019882,1.8577e-10,0,0.00010452,3.7172e-05,6.0466e+07,45.317,0,3.02e+07,8.4733,591.12,1
2044,1.22,12082,1,12082,1,4.7001e-05,-6.3829e-11,0,0.00017685,-8.5535e-06,10.314,-15.414,0,5.2805e+07,-7.6865,12081,13104,1,13104,1,0.00038195,4.9551e-10,0,0.00038195,5.4082e-05,8.5176e+07,123.82,0,1.1711e+08,24.488,13103,12082,1,12082,1,4.7001e-05,1.3693e-11,0,0.00017368,-8.5319e-06,1.3248e+07,3.3698,0,5.26e+07,-6.01,12081,10985,1,10985,1,-0.00028795,-1.0343e-09,0,9.7849e-06,-7.1222e-05,-1.1711e+08,-242.39,0,2.8708e+06,-112.16,10984,11571,1,11571,1,-0.00012667,-1.6196e-10,0,8.6838e-05,-4.1017e-05,-5.1513e+07,-41.35,0,2.747e+07,-12.413,11570,12593,1,12593,1,0.00022068,7.7498e-11,0,0.00026051,2.3884e-05,5.26e+07,21.327,0,7.573e+07,-0.45238,12592,591.12,0,591.12,0,0.00020046,2.6758e-10,0,0.00010539,3.748e-05,6.0966e+07,66.964,0,3.0449e+07,11.102,591.12,1
2044,1.23,12082,1,12082,1,4.7386e-05,-1.1338e-10,0,0.00017829,-8.6235e-06,-3.1277,-29.036,0,5.3237e+07,-1.5085,12081,13104,1,13104,1,0.00038507,2.7335e-10,0,0.00038507,5.4525e-05,8.5873e+07,61.639,0,1.1807e+08,6.0285,13103,12082,1,12082,1,4.7386e-05,-6.717e-11,0,0.0001751,-8.6017e-06,1.3357e+07,-17.157,0,5.303e+07,-0.72458,12081,10985,1,10985,1,-0.0002903,-7.0228e-10,0,9.8649e-06,-7.1805e-05,-1.1807e+08,-161.94,0,2.8943e+06,-27.134,10984,11571,1,11571,1,-0.00012771,-2.1911e-10,0,8.7549e-05,-4.1352e-05,-5.1935e+07,-56.679,0,2.7695e+07,-3.2377,11570,12593,1,12593,1,0.00022248,9.7572e-12,0,0.00026265,2.408e-05,5.303e+07,2.6231,0,7.635e+07,1.8706,12592,591.12,0,591.12,0,0.00020211,1.8208e-10,0,0.00010625,3.7787e-05,6.1465e+07,45.84,0,3.0699e+07,4.7435,591.12,1
2044,1.24,12082,1,12082,1,4.7771e-05,-1.1521e-10,0,0.00017974,-8.6935e-06,19.839,-29.552,0,5.3669e+07,-0.92946,12081,13104,1,13104,1,0.0003882,2.3287e-10,0,0.0003882,5.4968e-05,8.6571e+07,51.623,0,1.1903e+08,7.3536,13103,12082,1,12082,1,4.7771e-05,-1.1636e-10,0,0.00017652,-8.6716e-06,1.3465e+07,-31.224,0,5.3461e+07,0.27603,12081,10985,1,10985,1,-0.00029266,-4.8557e-10,0,9.9452e-06,-7.2389e-05,-1.1903e+08,-124,0,2.9178e+06,-25.813,10984,11571,1,11571,1,-0.00012875,-2.0546e-10,0,8.826e-05,-4.1688e-05,-5.2357e+07,-51.412,0,2.792e+07,-2.1239,11570,12593,1,12593,1,0.00022429,-1.9217e-11,0,0.00026478,2.4275e-05,5.3461e+07,-4.9087,0,7.697e+07,1.6815,12592,591.12,0,591.12,0,0.00020375,1.2323e-10,0,0.00010711,3.8094e-05,6.1964e+07,30.903,0,3.0948e+07,4.7832,591.12,1
2044,1.25,12082,1,12082,1,4.8156e-05,8.6839e-11,0,0.00018119,-8.7637e-06,19.089,22.626,0,5.4102e+07,-0.33434,12081,13104,1,13104,1,0.00039134,4.926e-10,0,0.00039134,5.5411e-05,8.7269e+07,115.54,0,1.1999e+08,7.855,13103,12082,1,12082,1,4.8156e-05,6.4479e-11,0,0.00017794,-8.7416e-06,1.3574e+07,17.061,0,5.3892e+07,1.4669,12081,10985,1,10985,1,-0.00029502,-5.586e-11,0,1.0025e-05,-7.2973e-05,-1.1999e+08,-11.71,0,2.9414e+06,-25.409,10984,11571,1,11571,1,-0.00012979,4.3154e-11,0,8.8972e-05,-4.2025e-05,-5.278e+07,11.127,0,2.8145e+07,-2.293,11570,12593,1,12593,1,0.0002261,9.5782e-11,0,0.00026692,2.4471e-05,5.3892e+07,25.584,0,7.7591e+07,3.4561,12592,591.12,0,591.12,0,0.00020539,8.4386e-11,0,0.00010798,3.8401e-05,6.2464e+07,21.424,0,3.1198e+07,5.8627,591.12,1
2044,1.26,12082,1,12082,1,4.8542e-05,1.5627e-10,0,0.00018264,-8.8338e-06,5.0768,40.202,0,5.4536e+07,-2.2716,12081,13104,1,13104,1,0.00039447,8.1111e-10,0,0.00039447,5.5855e-05,8.7968e+07,192.37,0,1.2095e+08,36.807,13103,12082,1,12082,1,4.8542e-05,1.2858e-10,0,0.00017937,-8.8116e-06,1.3683e+07,32.951,0,5.4324e+07,-1.4393,12081,10985,1,10985,1,-0.00029738,-5.1552e-10,0,1.0106e-05,-7.3557e-05,-1.2095e+08,-120.22,0,2.9649e+06,-30.855,10984,11571,1,11571,1,-0.00013083,-1.701e-11,0,8.9684e-05,-4.2361e-05,-5.3202e+07,-4.6819,0,2.8371e+07,-4.8596,11570,12593,1,12593,1,0.00022791,3.3421e-10,0,0.00026905,2.4667e-05,5.4324e+07,88.128,0,7.8212e+07,2.2375,12592,591.12,0,591.12,0,0.00020704,2.5489e-10,0,0.00010884,3.8708e-05,6.2965e+07,64.575,0,3.1448e+07,7.0987,591.12,1
2044,1.27,12082,1,12082,1,4.8926e-05,1.1665e-10,0,0.00018409,-8.9038e-06,28.987,29.868,0,5.4967e+07,-0.22854,12081,13104,1,13104,1,0.00039759,7.4376e-10,0,0.00039759,5.6297e-05,8.8664e+07,183.89,0,1.2191e+08,18.48,13103,12082,1,12082,1,4.8926e-05,4.0868e-11,0,0.00018079,-8.8814e-06,1.3791e+07,10.369,0,5.4754e+07,0.46289,12081,10985,1,10985,1,-0.00029974,-1.2601e-10,0,1.0186e-05,-7.414e-05,-1.2191e+08,-43.148,0,2.9884e+06,-40.251,10984,11571,1,11571,1,-0.00013186,-9.3518e-13,0,9.0395e-05,-4.2697e-05,-5.3623e+07,-0.20661,0,2.8595e+07,-3.0695,11570,12593,1,12593,1,0.00022972,1.8747e-10,0,0.00027118,2.4863e-05,5.4754e+07,48.983,0,7.8832e+07,4.4535,12592,591.12,0,591.12,0,0.00020867,1.7444e-10,0,0.0001097,3.9015e-05,6.3463e+07,44.362,0,3.1696e+07,8.2296,591.12,1
2044,1.28,12082,1,12082,1,4.9312e-05,1.4193e-10,0,0.00018554,-8.9739e-06,9.5369,36.192,0,5.54e+07,-0.39979,12081,13104,1,13104,1,0.00040072,3.4423e-10,0,0.00040072,5.6741e-05,8.9363e+07,78.611,0,1.2287e+08,6.4163,13103,12082,1,12082,1,4.9312e-05,1.5295e-10,0,0.00018221,-8.9513e-06,1.39e+07,42.469,0,5.5185e+07,1.1113,12081,10985,1,10985,1,-0.0003021,-7.2784e-11,0,1.0266e-05,-7.4724e-05,-1.2287e+08,-24.922,0,3.0119e+06,-30.015,10984,11571,1,11571,1,-0.0001329,7.1479e-11,0,9.1107e-05,-4.3033e-05,-5.4046e+07,18.605,0,2.8821e+07,-1.0967,11570,12593,1,12593,1,0.00023152,2.2438e-10,0,0.00027332,2.5058e-05,5.5185e+07,55.255,0,7.9453e+07,1.9395,12592,591.12,0,591.12,0,0.00021032,9.4981e-11,0,0.00011057,3.9322e-05,6.3963e+07,23.589,0,3.1946e+07,4.6103,591.12,1
2044,1.29,12082,1,12082,1,4.9697e-05,-2.1357e-10,0,0.00018699,-9.044e-06,16.687,-53.679,0,5.5833e+07,0.10256,12081,13104,1,13104,1,0.00040386,1.3243e-10,0,0.00040386,5.7184e-05,9.0061e+07,45.348,0,1.2383e+08,15.398,13103,12082,1,12082,1,4.9697e-05,-2.0834e-10,0,0.00018364,-9.0212e-06,1.4008e+07,-58.05,0,5.5616e+07,1.5247,12081,10985,1,10985,1,-0.00030446,-6.1421e-10,0,1.0346e-05,-7.5308e-05,-1.2383e+08,-149.27,0,3.0354e+06,-36.51,10984,11571,1,11571,1,-0.00013394,-3.5043e-10,0,9.1818e-05,-4.3369e-05,-5.4468e+07,-84.895,0,2.9046e+07,-3.295,11570,12593,1,12593,1,0.00023333,-8.4163e-11,0,0.00027546,2.5254e-05,5.5616e+07,-21.518,0,8.0074e+07,5.8928,12592,591.12,0,591.12,0,0.00021196,1.7239e-10,0,0.00011143,3.9629e-05,6.4463e+07,41.922,0,3.2196e+07,8.6818,591.12,1
2044,1.3,12082,1,12082,1,5.0082e-05,1.8551e-10,0,0.00018844,-9.1141e-06,-0.12695,47.18,0,5.6265e+07,1.0629,12081,13104,1,13104,1,0.00040698,4.1096e-10,0,0.00040698,5.7627e-05,9.0758e+07,99.118,0,1.2479e+08,13.972,13103,12082,1,12082,1,5.0082e-05,1.9684e-10,0,0.00018506,-9.0911e-06,1.4117e+07,53.677,0,5.6047e+07,1.196,12081,10985,1,10985,1,-0.00030682,-7.5696e-11,0,1.0426e-05,-7.5891e-05,-1.2479e+08,-25.92,0,3.0589e+06,-18.398,10984,11571,1,11571,1,-0.00013498,8.852e-11,0,9.253e-05,-4.3705e-05,-5.489e+07,22.405,0,2.9271e+07,-0.74975,11570,12593,1,12593,1,0.00023514,2.9228e-10,0,0.00027759,2.545e-05,5.6047e+07,73.403,0,8.0694e+07,3.2259,12592,591.12,0,591.12,0,0.0002136,1.2768e-10,0,0.00011229,3.9936e-05,6.4962e+07,31.497,0,3.2445e+07,3.9683,591.12,1
2044,1.31,12082,1,12082,1,5.0468e-05,5.5284e-11,0,0.00018989,-9.1844e-06,36.934,14.954,0,5.6699e+07,-6.7944,12081,13104,1,13104,1,0.00041012,7.2907e-10,0,0.00041012,5.8071e-05,9.1458e+07,170.93,0,1.2575e+08,6.7723,13103,12082,1,12082,1,5.0468e-05,4.8318e-11,0,0.00018649,-9.1612e-06,1.4226e+07,13.642,0,5.6479e+07,-5.0643,12081,10985,1,10985,1,-0.00030918,-6.4049e-10,0,1.0507e-05,-7.6475e-05,-1.2575e+08,-150.28,0,3.0825e+06,-29.155,10984,11571,1,11571,1,-0.00013602,-5.5154e-11,0,9.3243e-05,-4.4042e-05,-5.5313e+07,-13.195,0,2.9496e+07,-10.851,11570,12593,1,12593,1,0.00023695,1.7151e-10,0,0.00027973,2.5646e-05,5.6479e+07,45.646,0,8.1316e+07,-1.3023,12592,591.12,0,591.12,0,0.00021525,2.2733e-10,0,0.00011316,4.0244e-05,6.5463e+07,56.665,0,3.2695e+07,6.9027,591.12,1
2044,1.32,12082,1,12082,1,5.0852e-05,8.5751e-11,0,0.00019133,-9.2542e-06,-20.608,22.068,0,5.7131e+07,0.081844,12081,13104,1,13104,1,0.00041324,5.4359e-10,0,0.00041324,5.8513e-05,9.2154e+07,139.37,0,1.2671e+08,11.065,13103,12082,1,12082,1,5.0852e-05,4.3909e-11,0,0.00018791,-9.2309e-06,1.4334e+07,11.714,0,5.6909e+07,0.90947,12081,10985,1,10985,1,-0.00031154,-8.6537e-11,0,1.0586e-05,-7.7058e-05,-1.2671e+08,-23.538,0,3.1059e+06,-37.489,10984,11571,1,11571,1,-0.00013705,5.1299e-12,0,9.3953e-05,-4.4377e-05,-5.5734e+07,1.2276,0,2.9721e+07,-0.94811,11570,12593,1,12593,1,0.00023876,1.3748e-10,0,0.00028186,2.5841e-05,5.6909e+07,35.863,0,8.1935e+07,3.0183,12592,591.12,0,591.12,0,0.00021689,1.207e-10,0,0.00011402,4.0551e-05,6.5961e+07,30.913,0,3.2944e+07,5.0965,591.12,1
2044,1.33,12082,1,12082,1,5.1238e-05,-7.0157e-11,0,0.00019279,-9.3245e-06,17.327,-17.759,0,5.7564e+07,-0.99891,12081,13104,1,13104,1,0.00041638,1.118e-10,0,0.00041638,5.8957e-05,9.2853e+07,23.379,0,1.2767e+08,9.5076,13103,12082,1,12082,1,5.1238e-05,-7.5835e-11,0,0.00018933,-9.301e-06,1.4443e+07,-20.799,0,5.7341e+07,0.19118,12081,10985,1,10985,1,-0.0003139,-2.212e-10,0,1.0667e-05,-7.7642e-05,-1.2767e+08,-53.784,0,3.1296e+06,-31.219,10984,11571,1,11571,1,-0.00013809,-1.1629e-10,0,9.4666e-05,-4.4714e-05,-5.6157e+07,-29.001,0,2.9947e+07,-4.1134,11570,12593,1,12593,1,0.00024057,-2.5508e-11,0,0.000284,2.6037e-05,5.7341e+07,-6.8623,0,8.2557e+07,3.706,12592,591.12,0,591.12,0,0.00021853,6.5205e-11,0,0.00011489,4.0858e-05,6.6462e+07,16.166,0,3.3194e+07,7.1416,591.12,1
2044,1.34,12082,1,12082,1,5.1622e-05,-4.1396e-11,0,0.00019423,-9.3944e-06,4.1411,-10.464,0,5.7996e+07,3.0716,12081,13104,1,13104,1,0.0004195,6.5801e-10,0,0.0004195,5.94e-05,9.3551e+07,171.67,0,1.2863e+08,34.036,13103,12082,1,12082,1,5.1622e-05,-1.968e-11,0,0.00019075,-9.3708e-06,1.4551e+07,-5.3208,0,5.7771e+07,1.7246,12081,10985,1,10985,1,-0.00031626,-5.8661e-10,0,1.0747e-05,-7.8225e-05,-1.2863e+08,-140.74,0,3.153e+06,-24.958,10984,11571,1,11571,1,-0.00013913,-2.2736e-10,0,9.5376e-05,-4.505e-05,-5.6579e+07,-58.161,0,3.0171e+07,-3.6692,11570,12593,1,12593,1,0.00024238,9.7893e-11,0,0.00028613,2.6233e-05,5.7771e+07,26.869,0,8.3176e+07,9.3413,12592,591.12,0,591.12,0,0.00022018,2.6064e-10,0,0.00011575,4.1165e-05,6.696e+07,66.407,0,3.3443e+07,10.613,591.12,1
2044,1.35,12082,1,12082,1,5.2008e-05,-2.2418e-10,0,0.00019568,-9.4645e-06,17.579,-56.638,0,5.8429e+07,1.6857,12081,13104,1,13104,1,0.00042264,4.1553e-10,0,0.00042264,5.9843e-05,9.4249e+07,107.71,0,1.2959e+08,20.398,13103,12082,1,12082,1,5.2008e-05,-1.3151e-10,0,0.00019218,-9.4407e-06,1.466e+07,-35.295,0,5.8203e+07,1.6919,12081,10985,1,10985,1,-0.00031862,-1.0698e-09,0,1.0827e-05,-7.8809e-05,-1.2959e+08,-257.63,0,3.1766e+06,-34.221,10984,11571,1,11571,1,-0.00014017,-4.645e-10,0,9.6088e-05,-4.5386e-05,-5.7001e+07,-122.73,0,3.0396e+07,-4.0412,11570,12593,1,12593,1,0.00024418,2.3493e-11,0,0.00028826,2.6428e-05,5.8203e+07,6.7942,0,8.3797e+07,8.5728,12592,591.12,0,591.12,0,0.00022182,3.4113e-10,0,0.00011661,4.1472e-05,6.746e+07,85.672,0,3.3693e+07,9.4821,591.12,1
2044,1.36,12082,1,12082,1,5.2394e-05,4.8533e-12,0,0.00019714,-9.5348e-06,-4.2477,1.6961,0,5.8863e+07,-0.74557,12081,13104,1,13104,1,0.00042577,2.942e-10,0,0.00042577,6.0287e-05,9.4948e+07,64.759,0,1.3055e+08,8.6334,13103,12082,1,12082,1,5.2394e-05,-3.8487e-12,0,0.0001936,-9.5108e-06,1.4769e+07,-1.0371,0,5.8635e+07,0.69122,12081,10985,1,10985,1,-0.00032098,-1.0284e-10,0,1.0907e-05,-7.9394e-05,-1.3055e+08,-24.666,0,3.2001e+06,-29.122,10984,11571,1,11571,1,-0.00014121,-2.4704e-11,0,9.6801e-05,-4.5723e-05,-5.7424e+07,-5.6995,0,3.0622e+07,-2.3166,11570,12593,1,12593,1,0.000246,2.0598e-11,0,0.0002904,2.6625e-05,5.8635e+07,5.9312,0,8.4419e+07,2.874,12592,591.12,0,591.12,0,0.00022346,5.5856e-11,0,0.00011748,4.178e-05,6.7961e+07,13.848,0,3.3943e+07,5.9007,591.12,1
2044,1.37,12082,1,12082,1,5.2779e-05,-8.3439e-12,0,0.00019859,-9.6049e-06,31.406,-2.0097,0,5.9296e+07,-0.62822,12081,13104,1,13104,1,0.0004289,2.8575e-10,0,0.0004289,6.073e-05,9.5646e+07,63.744,0,1.3151e+08,11.462,13103,12082,1,12082,1,5.2779e-05,-6.1443e-12,0,0.00019503,-9.5807e-06,1.4877e+07,-1.58,0,5.9066e+07,0.90843,12081,10985,1,10985,1,-0.00032334,-1.4644e-10,0,1.0988e-05,-7.9977e-05,-1.3151e+08,-35.489,0,3.2237e+06,-31.604,10984,11571,1,11571,1,-0.00014225,-4.569e-11,0,9.7513e-05,-4.6059e-05,-5.7846e+07,-11.684,0,3.0847e+07,-3.689,11570,12593,1,12593,1,0.0002478,2.4751e-11,0,0.00029254,2.682e-05,5.9066e+07,5.6009,0,8.5039e+07,3.5564,12592,591.12,0,591.12,0,0.00022511,6.469e-11,0,0.00011834,4.2087e-05,6.846e+07,16.183,0,3.4192e+07,7.336,591.12,1
2044,1.38,12082,1,12082,1,5.3164e-05,4.8622e-11,0,0.00020003,-9.675e-06,27.153,12.751,0,5.9729e+07,-0.60321,12081,13104,1,13104,1,0.00043203,2.901e-10,0,0.00043203,6.1173e-05,9.6344e+07,64.893,0,1.3247e+08,15.941,13103,12082,1,12082,1,5.3164e-05,4.2243e-11,0,0.00019645,-9.6506e-06,1.4986e+07,10.891,0,5.9497e+07,0.30115,12081,10985,1,10985,1,-0.0003257,-5.445e-11,0,1.1068e-05,-8.0561e-05,-1.3247e+08,-17.795,0,3.2472e+06,-36.581,10984,11571,1,11571,1,-0.00014328,1.1209e-11,0,9.8225e-05,-4.6395e-05,-5.8268e+07,2.7106,0,3.1072e+07,-3.2965,11570,12593,1,12593,1,0.00024961,8.1033e-11,0,0.00029467,2.7016e-05,5.9497e+07,22.269,0,8.566e+07,3.4836,12592,591.12,0,591.12,0,0.00022675,5.4782e-11,0,0.00011921,4.2394e-05,6.896e+07,13.871,0,3.4442e+07,7.9887,591.12,1
2044,1.39,12082,1,12082,1,5.3549e-05,-1.096e-10,0,0.00020148,-9.7451e-06,17.144,-27.626,0,6.0161e+07,1.0645,12081,13104,1,13104,1,0.00043516,1.5519e-10,0,0.00043516,6.1617e-05,9.7042e+07,51.211,0,1.3343e+08,23.752,13103,12082,1,12082,1,5.3549e-05,-5.3159e-11,0,0.00019787,-9.7205e-06,1.5094e+07,-14.236,0,5.9928e+07,0.93913,12081,10985,1,10985,1,-0.00032806,-4.9367e-10,0,1.1148e-05,-8.1145e-05,-1.3343e+08,-115.55,0,3.2707e+06,-31.603,10984,11571,1,11571,1,-0.00014432,-2.1494e-10,0,9.8936e-05,-4.6731e-05,-5.869e+07,-56.081,0,3.1297e+07,-1.5914,11570,12593,1,12593,1,0.00025142,3.6536e-13,0,0.00029681,2.7212e-05,5.9928e+07,0.072253,0,8.628e+07,4.9892,12592,591.12,0,591.12,0,0.00022839,1.5093e-10,0,0.00012007,4.2701e-05,6.9459e+07,38.054,0,3.4691e+07,5.9203,591.12,1
2044,1.4,12082,1,12082,1,5.3935e-05,-1.3678e-10,0,0.00020294,-9.8154e-06,6.0333,-34.559,0,6.0595e+07,-1.4242,12081,13104,1,13104,1,0.0004383,5.8838e-10,0,0.0004383,6.2061e-05,9.7742e+07,135.63,0,1.3439e+08,12.625,13103,12082,1,12082,1,5.3935e-05,-5.4256e-11,0,0.0001993,-9.7906e-06,1.5203e+07,-13.84,0,6.036e+07,-0.074802,12081,10985,1,10985,1,-0.00033043,-1.2724e-09,0,1.1229e-05,-8.173e-05,-1.3439e+08,-309.2,0,3.2943e+06,-30.815,10984,11571,1,11571,1,-0.00014536,-2.7929e-10,0,9.9649e-05,-4.7068e-05,-5.9113e+07,-70.072,0,3.1523e+07,-4.5145,11570,12593,1,12593,1,0.00025323,4.5634e-11,0,0.00029895,2.7408e-05,6.036e+07,13.731,0,8.6903e+07,3.9846,12592,591.12,0,591.12,0,0.00023004,3.2066e-10,0,0.00012094,4.3009e-05,6.996e+07,80.166,0,3.4942e+07,7.3217,591.12,1
2044,1.41,12082,1,12082,1,5.4319e-05,-1.6626e-10,0,0.00020438,-9.8853e-06,2.3708,-42.41,0,6.1026e+07,-2.0245,12081,13104,1,13104,1,0.00044142,2.4653e-11,0,0.00044142,6.2503e-05,9.8438e+07,8.4416,0,1.3535e+08,3.9538,13103,12082,1,12082,1,5.4319e-05,-1.5881e-10,0,0.00020072,-9.8604e-06,1.5311e+07,-43.198,0,6.079e+07,-0.88385,12081,10985,1,10985,1,-0.00033278,-5.4061e-10,0,1.1308e-05,-8.2312e-05,-1.3535e+08,-121.89,0,3.3178e+06,-22.297,10984,11571,1,11571,1,-0.0001464,-2.4972e-10,0,0.00010036,-4.7403e-05,-5.9534e+07,-62.217,0,3.1748e+07,-2.2845,11570,12593,1,12593,1,0.00025504,-7.9056e-11,0,0.00030108,2.7603e-05,6.079e+07,-21.525,0,8.7522e+07,0.20353,12592,591.12,0,591.12,0,0.00023168,1.1309e-10,0,0.0001218,4.3316e-05,7.0459e+07,27.422,0,3.5191e+07,3.9352,591.12,1
2044,1.42,12082,1,12082,1,5.4706e-05,-1.1985e-10,0,0.00020583,-9.9555e-06,24.331,-30.466,0,6.146e+07,1.6638,12081,13104,1,13104,1,0.00044456,3.2097e-10,0,0.00044456,6.2947e-05,9.9137e+07,84.915,0,1.3631e+08,14.139,13103,12082,1,12082,1,5.4706e-05,-1.2542e-10,0,0.00020214,-9.9304e-06,1.542e+07,-33.342,0,6.1222e+07,2.7769,12081,10985,1,10985,1,-0.00033515,-6.9344e-10,0,1.1389e-05,-8.2897e-05,-1.3631e+08,-170.14,0,3.3414e+06,-32.439,10984,11571,1,11571,1,-0.00014744,-2.0951e-10,0,0.00010107,-4.774e-05,-5.9957e+07,-53.787,0,3.1973e+07,-0.49976,11570,12593,1,12593,1,0.00025685,-2.629e-11,0,0.00030322,2.7799e-05,6.1222e+07,-6.6904,0,8.8144e+07,5.9012,12592,591.12,0,591.12,0,0.00023332,1.3667e-10,0,0.00012266,4.3623e-05,7.0959e+07,33.577,0,3.5441e+07,6.7256,591.12,1
2044,1.43,12082,1,12082,1,5.5091e-05,-8.809e-11,0,0.00020728,-1.0026e-05,1.7774,-21.672,0,6.1893e+07,-0.87391,12081,13104,1,13104,1,0.00044769,2.1335e-10,0,0.00044769,6.339e-05,9.9835e+07,46.691,0,1.3727e+08,8.3668,13103,12082,1,12082,1,5.5091e-05,-6.3639e-11,0,0.00020357,-1e-05,1.5529e+07,-18.07,0,6.1653e+07,0.021479,12081,10985,1,10985,1,-0.00033751,-6.1254e-10,0,1.1469e-05,-8.3481e-05,-1.3727e+08,-146.66,0,3.3649e+06,-24.344,10984,11571,1,11571,1,-0.00014848,-1.5014e-10,0,0.00010178,-4.8076e-05,-6.038e+07,-35.456,0,3.2198e+07,-1.9141,11570,12593,1,12593,1,0.00025866,1.0876e-11,0,0.00030535,2.7995e-05,6.1653e+07,2.7608,0,8.8764e+07,1.322,12592,591.12,0,591.12,0,0.00023497,1.3461e-10,0,0.00012353,4.3931e-05,7.1459e+07,32.824,0,3.569e+07,4.8826,591.12,1
2044,1.44,12082,1,12082,1,5.5476e-05,4.7779e-11,0,0.00020873,-1.0096e-05,5.8139,12.331,0,6.2326e+07,-2.3514,12081,13104,1,13104,1,0.00045082,4.0145e-10,0,0.00045082,6.3833e-05,1.0053e+08,95.297,0,1.3823e+08,5.3868,13103,12082,1,12082,1,5.5476e-05,4.1404e-11,0,0.00020499,-1.007e-05,1.5637e+07,10.45,0,6.2084e+07,-1.0406,12081,10985,1,10985,1,-0.00033986,-5.055e-10,0,1.1549e-05,-8.4064e-05,-1.3823e+08,-124,0,3.3884e+06,-51.535,10984,11571,1,11571,1,-0.00014952,-1.5213e-12,0,0.0001025,-4.8412e-05,-6.0802e+07,-0.35851,0,3.2423e+07,-2.9614,11570,12593,1,12593,1,0.00026047,1.1445e-10,0,0.00030749,2.8191e-05,6.2084e+07,31.011,0,8.9385e+07,0.71061,12592,591.12,0,591.12,0,0.00023661,1.285e-10,0,0.00012439,4.4238e-05,7.1959e+07,31.526,0,3.594e+07,5.8162,591.12,1
2044,1.45,12082,1,12082,1,5.5861e-05,-1.3366e-10,0,0.00021018,-1.0166e-05,41.249,-34.194,0,6.2758e+07,0.48197,12081,13104,1,13104,1,0.00045394,2.697e-10,0,0.00045394,6.4276e-05,1.0123e+08,70.076,0,1.3919e+08,15.137,13103,12082,1,12082,1,5.5861e-05,-9.019e-11,0,0.00020641,-1.014e-05,1.5746e+07,-24.421,0,6.2514e+07,0.72769,12081,10985,1,10985,1,-0.00034222,-5.772e-10,0,1.1629e-05,-8.4647e-05,-1.3919e+08,-138.91,0,3.4119e+06,-29.494,10984,11571,1,11571,1,-0.00015055,-2.569e-10,0,0.00010321,-4.8748e-05,-6.1223e+07,-67.207,0,3.2648e+07,-2.9745,11570,12593,1,12593,1,0.00026227,-1.9169e-11,0,0.00030962,2.8386e-05,6.2514e+07,-4.7464,0,9.0005e+07,5.6496,12592,591.12,0,591.12,0,0.00023825,1.7877e-10,0,0.00012525,4.4545e-05,7.2458e+07,45.1,0,3.6189e+07,7.9322,591.12,1
2044,1.46,12082,1,12082,1,5.6245e-05,-2.1567e-12,0,0.00021163,-1.0236e-05,16.501,-0.73931,0,6.319e+07,1.3068,12081,13104,1,13104,1,0.00045707,6.0555e-10,0,0.00045707,6.4719e-05,1.0193e+08,167.37,0,1.4015e+08,19.676,13103,12082,1,12082,1,5.6245e-05,-1.5545e-11,0,0.00020783,-1.021e-05,1.5854e+07,-3.8204,0,6.2945e+07,0.88752,12081,10985,1,10985,1,-0.00034458,-4.3433e-10,0,1.1709e-05,-8.523e-05,-1.4015e+08,-107.68,0,3.4354e+06,-28.997,10984,11571,1,11571,1,-0.00015159,-1.4813e-10,0,0.00010392,-4.9084e-05,-6.1645e+07,-38.751,0,3.2873e+07,-2.6851,11570,12593,1,12593,1,0.00026408,1.2181e-10,0,0.00031175,2.8582e-05,6.2945e+07,31.231,0,9.0625e+07,6.7002,12592,591.12,0,591.12,0,0.00023989,2.2321e-10,0,0.00012612,4.4851e-05,7.2957e+07,57.2,0,3.6438e+07,7.4921,591.12,1
2044,1.47,12082,1,12082,1,5.6632e-05,1.5742e-11,0,0.00021308,-1.0306e-05,19.96,4.1461,0,6.3625e+07,-3.164,12081,13104,1,13104,1,0.00046021,9.4704e-10,0,0.00046021,6.5164e-05,1.0263e+08,220.21,0,1.4111e+08,13.812,13103,12082,1,12082,1,5.6632e-05,2.3436e-11,0,0.00020926,-1.028e-05,1.5963e+07,5.8244,0,6.3378e+07,-1.7384,12081,10985,1,10985,1,-0.00034695,-1.0943e-09,0,1.179e-05,-8.5816e-05,-1.4111e+08,-255.02,0,3.459e+06,-39.471,10984,11571,1,11571,1,-0.00015263,-1.4547e-10,0,0.00010463,-4.9421e-05,-6.2069e+07,-38.462,0,3.3099e+07,-7.1595,11570,12593,1,12593,1,0.0002659,2.057e-10,0,0.00031389,2.8778e-05,6.3378e+07,54.604,0,9.1248e+07,3.2907,12592,591.12,0,591.12,0,0.00024154,3.446e-10,0,0.00012698,4.516e-05,7.3458e+07,86.776,0,3.6689e+07,8.5246,591.12,1
2044,1.48,12082,1,12082,1,5.7017e-05,-8.266e-11,0,0.00021453,-1.0376e-05,14.77,-20.94,0,6.4057e+07,-3.1455,12081,13104,1,13104,1,0.00046334,6.7546e-10,0,0.00046334,6.5607e-05,1.0333e+08,155.71,0,1.4207e+08,15.948,13103,12082,1,12082,1,5.7017e-05,2.0252e-11,0,0.00021069,-1.035e-05,1.6072e+07,4.5902,0,6.3809e+07,-2.3598,12081,10985,1,10985,1,-0.00034931,-1.2232e-09,0,1.187e-05,-8.64e-05,-1.4207e+08,-291.58,0,3.4826e+06,-34.435,10984,11571,1,11571,1,-0.00015367,-2.4219e-10,0,0.00010534,-4.9757e-05,-6.2491e+07,-62.304,0,3.3324e+07,-7.2211,11570,12593,1,12593,1,0.0002677,1.1621e-10,0,0.00031603,2.8974e-05,6.3809e+07,31.271,0,9.1868e+07,2.3848,12592,591.12,0,591.12,0,0.00024318,3.4915e-10,0,0.00012785,4.5467e-05,7.3958e+07,88.35,0,3.6938e+07,8.5253,591.12,1
2044,1.49,12082,1,12082,1,5.7402e-05,9.2224e-11,0,0.00021598,-1.0446e-05,2.6875,23.819,0,6.449e+07,-4.0126,12081,13104,1,13104,1,0.00046647,6.7238e-10,0,0.00046647,6.605e-05,1.0402e+08,155.6,0,1.4303e+08,5.735,13103,12082,1,12082,1,5.7402e-05,6.3419e-11,0,0.00021211,-1.042e-05,1.618e+07,16.158,0,6.4239e+07,-3.3753,12081,10985,1,10985,1,-0.00035166,-5.1963e-10,0,1.195e-05,-8.6983e-05,-1.4303e+08,-119.85,0,3.5061e+06,-26.074,10984,11571,1,11571,1,-0.00015471,-1.3131e-11,0,0.00010605,-5.0093e-05,-6.2913e+07,-3.3557,0,3.3549e+07,-6.3475,11570,12593,1,12593,1,0.00026951,2.2319e-10,0,0.00031816,2.917e-05,6.4239e+07,58.541,0,9.2488e+07,-0.20121,12592,591.12,0,591.12,0,0.00024483,2.1429e-10,0,0.00012871,4.5774e-05,7.4457e+07,53.463,0,3.7188e+07,4.9568,591.12,1
2044,1.5,12082,1,12082,1,5.7787e-05,7.9394e-11,0,0.00021743,-1.0516e-05,11.509,20.724,0,6.4923e+07,-1.5846,12081,13104,1,13104,1,0.0004696,5.764e-10,0,0.0004696,6.6493e-05,1.0472e+08,139.35,0,1.4399e+08,6.0986,13103,12082,1,12082,1,5.7787e-05,5.6477e-11,0,0.00021353,-1.049e-05,1.6289e+07,14.374,0,6.467e+07,-0.30816,12081,10985,1,10985,1,-0.00035402,-4.0847e-10,0,1.203e-05,-8.7567e-05,-1.4399e+08,-102.51,0,3.5296e+06,-26.089,10984,11571,1,11571,1,-0.00015574,1.2239e-11,0,0.00010677,-5.0429e-05,-6.3335e+07,2.9843,0,3.3774e+07,-3.0301,11570,12593,1,12593,1,0.00027132,1.4364e-10,0,0.0003203,2.9365e-05,6.467e+07,38.296,0,9.3109e+07,1.8205,12592,591.12,0,591.12,0,0.00024647,1.4462e-10,0,0.00012957,4.6081e-05,7.4957e+07,36.279,0,3.7437e+07,5.2648,591.12,1
2044,1.51,12082,1,12082,1,5.8173e-05,-2.5093e-11,0,0.00021888,-1.0586e-05,-6.956,-6.1072,0,6.5355e+07,-6.2087,12081,13104,1,13104,1,0.00047273,9.3402e-10,0,0.00047273,6.6937e-05,1.0542e+08,220.13,0,1.4495e+08,18.079,13103,12082,1,12082,1,5.8173e-05,2.5562e-11,0,0.00021496,-1.056e-05,1.6397e+07,7.2741,0,6.5102e+07,-3.6977,12081,10985,1,10985,1,-0.00035639,-1.421e-09,0,1.2111e-05,-8.8151e-05,-1.4495e+08,-341.74,0,3.5531e+06,-44.363,10984,11571,1,11571,1,-0.00015678,-2.7868e-10,0,0.00010748,-5.0766e-05,-6.3757e+07,-71.983,0,3.4e+07,-11.47,11570,12593,1,12593,1,0.00027313,2.8335e-10,0,0.00032243,2.9561e-05,6.5102e+07,72.854,0,9.373e+07,3.1781,12592,591.12,0,591.12,0,0.00024811,4.6407e-10,0,0.00013044,4.6388e-05,7.5457e+07,117.59,0,3.7687e+07,12.145,591.12,1
2044,1.52,12082,1,12082,1,5.8557e-05,2.4739e-10,0,0.00022033,-1.0656e-05,-39.054,62.821,0,6.5787e+07,-2.3424,12081,13104,1,13104,1,0.00047586,1.0202e-09,0,0.00047586,6.7379e-05,1.0612e+08,246.41,0,1.4591e+08,16.846,13103,12082,1,12082,1,5.8557e-05,1.8298e-10,0,0.00021638,-1.063e-05,1.6506e+07,46.806,0,6.5532e+07,-0.71641,12081,10985,1,10985,1,-0.00035874,-5.3648e-10,0,1.219e-05,-8.8733e-05,-1.4591e+08,-124.05,0,3.5765e+06,-43.128,10984,11571,1,11571,1,-0.00015782,3.1117e-12,0,0.00010819,-5.1101e-05,-6.4179e+07,1.035,0,3.4224e+07,-9.9188,11570,12593,1,12593,1,0.00027493,4.9987e-10,0,0.00032456,2.9757e-05,6.5532e+07,130.37,0,9.4349e+07,4.7974,12592,591.12,0,591.12,0,0.00024975,3.3994e-10,0,0.0001313,4.6695e-05,7.5955e+07,85.064,0,3.7936e+07,8.7137,591.12,1
2044,1.53,12082,1,12082,1,5.8943e-05,-2.912e-11,0,0.00022178,-1.0727e-05,-23.374,-7.3105,0,6.6221e+07,-2.2711,12081,13104,1,13104,1,0.00047899,6.9762e-10,0,0.00047899,6.7823e-05,1.0682e+08,175.55,0,1.4687e+08,24.897,13103,12082,1,12082,1,5.8943e-05,1.5485e-11,0,0.0002178,-1.07e-05,1.6615e+07,4.624,0,6.5964e+07,-2.1842,12081,10985,1,10985,1,-0.00036111,-1.3389e-09,0,1.2271e-05,-8.9318e-05,-1.4687e+08,-328.62,0,3.6001e+06,-25.787,10984,11571,1,11571,1,-0.00015886,-2.2575e-10,0,0.0001089,-5.1438e-05,-6.4602e+07,-58.084,0,3.445e+07,-7.4827,11570,12593,1,12593,1,0.00027675,2.3085e-10,0,0.0003267,2.9953e-05,6.5964e+07,59.88,0,9.4971e+07,2.4366,12592,591.12,0,591.12,0,0.0002514,3.8942e-10,0,0.00013216,4.7003e-05,7.6456e+07,97.949,0,3.8186e+07,7.8578,591.12,1
2044,1.54,12082,1,12082,1,5.9328e-05,-1.0632e-11,0,0.00022323,-1.0797e-05,8.7255,-2.5184,0,6.6654e+07,-4.9208,12081,13104,1,13104,1,0.00048212,9.3518e-10,0,0.00048212,6.8266e-05,1.0751e+08,220.02,0,1.4783e+08,13.798,13103,12082,1,12082,1,5.9328e-05,1.1323e-11,0,0.00021923,-1.077e-05,1.6723e+07,2.741,0,6.6395e+07,-3.4426,12081,10985,1,10985,1,-0.00036347,-1.1525e-09,0,1.2351e-05,-8.9902e-05,-1.4783e+08,-280.19,0,3.6237e+06,-34.343,10984,11571,1,11571,1,-0.0001599,-1.7872e-10,0,0.00010961,-5.1774e-05,-6.5024e+07,-45.788,0,3.4675e+07,-9.4966,11570,12593,1,12593,1,0.00027855,1.8483e-10,0,0.00032884,3.0149e-05,6.6395e+07,48.052,0,9.5592e+07,1.7359,12592,591.12,0,591.12,0,0.00025304,3.5958e-10,0,0.00013303,4.731e-05,7.6956e+07,90.94,0,3.8436e+07,8.4705,591.12,1
2044,1.55,12082,1,12082,1,5.9714e-05,-1.0608e-10,0,0.00022468,-1.0867e-05,16.837,-26.516,0,6.7087e+07,-3.0358,12081,13104,1,13104,1,0.00048526,9.0329e-10,0,0.00048526,6.871e-05,1.0821e+08,209.57,0,1.4879e+08,28.337,13103,12082,1,12082,1,5.9714e-05,-2.3222e-12,0,0.00022065,-1.084e-05,1.6832e+07,-0.74065,0,6.6827e+07,-0.98046,12081,10985,1,10985,1,-0.00036583,-1.7914e-09,0,1.2432e-05,-9.0487e-05,-1.4879e+08,-433.63,0,3.6473e+06,-48.813,10984,11571,1,11571,1,-0.00016094,-2.5253e-10,0,0.00011033,-5.2111e-05,-6.5447e+07,-64.502,0,3.49e+07,-7.77,11570,12593,1,12593,1,0.00028037,1.1418e-10,0,0.00033098,3.0344e-05,6.6827e+07,30.693,0,9.6213e+07,3.7135,12592,591.12,0,591.12,0,0.00025469,4.4433e-10,0,0.00013389,4.7617e-05,7.7456e+07,111.76,0,3.8685e+07,11.695,591.12,1
2044,1.56,12082,1,12082,1,6.0099e-05,3.3127e-11,0,0.00022613,-1.0937e-05,12.966,8.755,0,6.7519e+07,-5.356,12081,13104,1,13104,1,0.00048838,8.1962e-10,0,0.00048838,6.9153e-05,1.0891e+08,189.48,0,1.4975e+08,11.357,13103,12082,1,12082,1,6.0099e-05,3.3084e-11,0,0.00022207,-1.0909e-05,1.694e+07,8.905,0,6.7257e+07,-4.2066,12081,10985,1,10985,1,-0.00036819,-9.4163e-10,0,1.2512e-05,-9.1069e-05,-1.4975e+08,-217.89,0,3.6708e+06,-28.382,10984,11571,1,11571,1,-0.00016197,-1.0003e-10,0,0.00011104,-5.2447e-05,-6.5868e+07,-26.726,0,3.5125e+07,-9.2749,11570,12593,1,12593,1,0.00028217,2.0323e-10,0,0.00033311,3.054e-05,6.7257e+07,53.405,0,9.6833e+07,0.67416,12592,591.12,0,591.12,0,0.00025633,3.0187e-10,0,0.00013476,4.7924e-05,7.7955e+07,75.34,0,3.8935e+07,7.3843,591.12,1
2044,1.57,12082,1,12082,1,6.0484e-05,2.0995e-10,0,0.00022758,-1.1007e-05,8.1146,53.013,0,6.7952e+07,-4.3637,12081,13104,1,13104,1,0.00049151,9.5405e-10,0,0.00049151,6.9596e-05,1.0961e+08,232.95,0,1.5071e+08,10.203,13103,12082,1,12082,1,6.0484e-05,1.3981e-10,0,0.0002235,-1.0979e-05,1.7049e+07,37.453,0,6.7688e+07,-3.4164,12081,10985,1,10985,1,-0.00037055,-5.5703e-10,0,1.2592e-05,-9.1653e-05,-1.5071e+08,-136.65,0,3.6943e+06,-30.924,10984,11571,1,11571,1,-0.00016301,-3.0615e-11,0,0.00011175,-5.2783e-05,-6.629e+07,-8.2231,0,3.535e+07,-9.1465,11570,12593,1,12593,1,0.00028398,4.4825e-10,0,0.00033524,3.0736e-05,6.7688e+07,115.59,0,9.7454e+07,1.2076,12592,591.12,0,591.12,0,0.00025797,3.3519e-10,0,0.00013562,4.8231e-05,7.8455e+07,83.525,0,3.9184e+07,6.6694,591.12,1
2044,1.58,12082,1,12082,1,6.0869e-05,4.4476e-11,0,0.00022903,-1.1077e-05,2.7333,11.447,0,6.8385e+07,-7.0002,12081,13104,1,13104,1,0.00049464,6.5922e-10,0,0.00049464,7.0039e-05,1.1031e+08,154.6,0,1.5167e+08,9.191,13103,12082,1,12082,1,6.0869e-05,2.9079e-11,0,0.00022492,-1.1049e-05,1.7158e+07,7.7346,0,6.8119e+07,-2.7007,12081,10985,1,10985,1,-0.00037291,-7.7792e-10,0,1.2672e-05,-9.2237e-05,-1.5167e+08,-175.63,0,3.7178e+06,-69.009,10984,11571,1,11571,1,-0.00016405,-3.8321e-11,0,0.00011246,-5.3119e-05,-6.6713e+07,-9.8686,0,3.5576e+07,-9.3218,11570,12593,1,12593,1,0.00028579,1.6368e-10,0,0.00033738,3.0932e-05,6.8119e+07,42.372,0,9.8075e+07,0.10711,12592,591.12,0,591.12,0,0.00025961,2.2722e-10,0,0.00013648,4.8539e-05,7.8954e+07,56.892,0,3.9434e+07,11.343,591.12,1
2044,1.59,12082,1,12082,1,6.1255e-05,-8.877e-13,0,0.00023048,-1.1147e-05,19.115,-0.36149,0,6.8818e+07,-6.6605,12081,13104,1,13104,1,0.00049778,9.7371e-10,0,0.00049778,7.0483e-05,1.1101e+08,225.95,0,1.5263e+08,16.58,13103,12082,1,12082,1,6.1255e-05,1.2822e-11,0,0.00022634,-1.1119e-05,1.7266e+07,3.312,0,6.8551e+07,-4.727,12081,10985,1,10985,1,-0.00037527,-1.3597e-09,0,1.2752e-05,-9.2821e-05,-1.5263e+08,-318.52,0,3.7414e+06,-48.985,10984,11571,1,11571,1,-0.00016509,-1.7696e-10,0,0.00011317,-5.3455e-05,-6.7135e+07,-46.393,0,3.5801e+07,-10.805,11570,12593,1,12593,1,0.0002876,2.3488e-10,0,0.00033952,3.1127e-05,6.8551e+07,60.527,0,9.8696e+07,1.2906,12592,591.12,0,591.12,0,0.00026126,4.07e-10,0,0.00013735,4.8846e-05,7.9455e+07,102.24,0,3.9683e+07,10.692,591.12,1
2044,1.6,12082,1,12082,1,6.1639e-05,1.4217e-10,0,0.00023192,-1.1217e-05,3.191,36.447,0,6.925e+07,-1.3898,12081,13104,1,13104,1,0.0005009,4.6312e-10,0,0.0005009,7.0926e-05,1.117e+08,115.58,0,1.5359e+08,32.615,13103,12082,1,12082,1,6.1639e-05,1.204e-10,0,0.00022777,-1.1189e-05,1.7375e+07,31.052,0,6.8981e+07,-0.55268,12081,10985,1,10985,1,-0.00037763,-1.8259e-10,0,1.2832e-05,-9.3404e-05,-1.5359e+08,-44.745,0,3.7649e+06,-31.965,10984,11571,1,11571,1,-0.00016613,1.9862e-11,0,0.00011388,-5.3791e-05,-6.7557e+07,5.6918,0,3.6026e+07,-3.5714,11570,12593,1,12593,1,0.00028941,2.4821e-10,0,0.00034165,3.1323e-05,6.8981e+07,66.474,0,9.9316e+07,1.4005,12592,591.12,0,591.12,0,0.0002629,1.4473e-10,0,0.00013821,4.9153e-05,7.9954e+07,35.939,0,3.9933e+07,4.2432,591.12,1
2044,1.61,12082,1,12082,1,6.2025e-05,2.3959e-10,0,0.00023338,-1.1288e-05,0.62536,61.383,0,6.9684e+07,-2.9558,12081,13104,1,13104,1,0.00050404,1.29e-09,0,0.00050404,7.137e-05,1.124e+08,304.03,0,1.5455e+08,14.274,13103,12082,1,12082,1,6.2025e-05,1.6308e-10,0,0.00022919,-1.1259e-05,1.7483e+07,42.368,0,6.9413e+07,-2.2398,12081,10985,1,10985,1,-0.00037999,-7.8392e-10,0,1.2913e-05,-9.3989e-05,-1.5455e+08,-191.6,0,3.7884e+06,-32.004,10984,11571,1,11571,1,-0.00016717,-2.6958e-11,0,0.0001146,-5.4128e-05,-6.798e+07,-6.4174,0,3.6251e+07,-8.0385,11570,12593,1,12593,1,0.00029122,5.3952e-10,0,0.00034379,3.1519e-05,6.9413e+07,142.9,0,9.9937e+07,3.8686,12592,591.12,0,591.12,0,0.00026454,4.3245e-10,0,0.00013907,4.946e-05,8.0454e+07,109.63,0,4.0183e+07,8.3164,591.12,1
2044,1.62,12082,1,12082,1,6.241e-05,-2.1699e-11,0,0.00023482,-1.1358e-05,-2.6047,-5.6003,0,7.0116e+07,-3.2968,12081,13104,1,13104,1,0.00050717,5.5358e-10,0,0.00050717,7.1813e-05,1.131e+08,128.4,0,1.5551e+08,10.251,13103,12082,1,12082,1,6.241e-05,5.1395e-12,0,0.00023061,-1.1329e-05,1.7592e+07,1.2986,0,6.9844e+07,-2.8678,12081,10985,1,10985,1,-0.00038235,-9.3411e-10,0,1.2993e-05,-9.4572e-05,-1.5551e+08,-218.76,0,3.8119e+06,-29.597,10984,11571,1,11571,1,-0.0001682,-1.3919e-10,0,0.00011531,-5.4464e-05,-6.8402e+07,-36.197,0,3.6476e+07,-6.1053,11570,12593,1,12593,1,0.00029302,1.3713e-10,0,0.00034592,3.1715e-05,6.9844e+07,36.473,0,1.0056e+08,0.95865,12592,591.12,0,591.12,0,0.00026619,2.6198e-10,0,0.00013994,4.9768e-05,8.0953e+07,65.837,0,4.0432e+07,6.2384,591.12,1
2044,1.63,12082,1,12082,1,6.2795e-05,-1.0495e-10,0,0.00023627,-1.1428e-05,-6.9195,-26.174,0,7.0549e+07,-0.3547,12081,13104,1,13104,1,0.0005103,4.8012e-10,0,0.0005103,7.2256e-05,1.138e+08,118.71,0,1.5647e+08,22.809,13103,12082,1,12082,1,6.2795e-05,-1.3366e-11,0,0.00023204,-1.1399e-05,1.77e+07,-3.2405,0,7.0275e+07,0.20695,12081,10985,1,10985,1,-0.00038471,-1.2486e-09,0,1.3073e-05,-9.5156e-05,-1.5647e+08,-306.36,0,3.8354e+06,-31.986,10984,11571,1,11571,1,-0.00016924,-2.4761e-10,0,0.00011602,-5.48e-05,-6.8824e+07,-62.237,0,3.6701e+07,-4.3069,11570,12593,1,12593,1,0.00029483,7.5562e-11,0,0.00034806,3.191e-05,7.0275e+07,20.413,0,1.0118e+08,5.2891,12592,591.12,0,591.12,0,0.00026783,3.0135e-10,0,0.0001408,5.0074e-05,8.1453e+07,74.415,0,4.0682e+07,8.7415,591.12,1
2044,1.64,12082,1,12082,1,6.3181e-05,1.2569e-10,0,0.00023772,-1.1498e-05,13.488,32.707,0,7.0982e+07,-5.8749,12081,13104,1,13104,1,0.00051343,1.0251e-09,0,0.00051343,7.2699e-05,1.145e+08,242.64,0,1.5743e+08,11.884,13103,12082,1,12082,1,6.3181e-05,1.0761e-10,0,0.00023346,-1.1469e-05,1.7809e+07,27.407,0,7.0706e+07,-3.5173,12081,10985,1,10985,1,-0.00038707,-9.5725e-10,0,1.3153e-05,-9.574e-05,-1.5743e+08,-221.76,0,3.859e+06,-54.181,10984,11571,1,11571,1,-0.00017028,-1.3181e-11,0,0.00011673,-5.5136e-05,-6.9247e+07,-3.4492,0,3.6927e+07,-9.7234,11570,12593,1,12593,1,0.00029664,3.0743e-10,0,0.00035019,3.2106e-05,7.0706e+07,80.699,0,1.018e+08,1.2803,12592,591.12,0,591.12,0,0.00026947,3.3245e-10,0,0.00014167,5.0382e-05,8.1953e+07,83.854,0,4.0931e+07,10.645,591.12,1
2044,1.65,12082,1,12082,1,6.3567e-05,-8.45e-11,0,0.00023917,-1.1568e-05,0.26162,-21.761,0,7.1415e+07,-6.0639,12081,13104,1,13104,1,0.00051656,1.1666e-09,0,0.00051656,7.3143e-05,1.152e+08,272.69,0,1.5839e+08,17.316,13103,12082,1,12082,1,6.3566e-05,-1.173e-11,0,0.00023489,-1.1539e-05,1.7918e+07,-3.1764,0,7.1138e+07,-4.3993,12081,10985,1,10985,1,-0.00038943,-1.6925e-09,0,1.3234e-05,-9.6324e-05,-1.5839e+08,-387.29,0,3.8826e+06,-54.932,10984,11571,1,11571,1,-0.00017132,-3.4054e-10,0,0.00011744,-5.5473e-05,-6.9669e+07,-90.008,0,3.7152e+07,-12.955,11570,12593,1,12593,1,0.00029845,2.0674e-10,0,0.00035233,3.2302e-05,7.1138e+07,54.572,0,1.0242e+08,3.1834,12592,591.12,0,591.12,0,0.00027112,5.1409e-10,0,0.00014253,5.069e-05,8.2453e+07,128.56,0,4.1181e+07,12.51,591.12,1
2044,1.66,12082,1,12082,1,6.3951e-05,-6.6774e-11,0,0.00024062,-1.1638e-05,14.45,-16.961,0,7.1848e+07,-3.0371,12081,13104,1,13104,1,0.00051969,8.4696e-10,0,0.00051969,7.3586e-05,1.1589e+08,194.08,0,1.5935e+08,17.594,13103,12082,1,12082,1,6.3951e-05,1.4859e-12,0,0.00023631,-1.1609e-05,1.8026e+07,0.31351,0,7.1569e+07,-2.2269,12081,10985,1,10985,1,-0.00039179,-1.3742e-09,0,1.3314e-05,-9.6907e-05,-1.5935e+08,-320.23,0,3.9061e+06,-42.128,10984,11571,1,11571,1,-0.00017236,-2.5761e-10,0,0.00011815,-5.5809e-05,-7.0091e+07,-66.829,0,3.7377e+07,-8.4826,11570,12593,1,12593,1,0.00030026,1.5551e-10,0,0.00035446,3.2498e-05,7.1569e+07,41.247,0,1.0304e+08,3.5691,12592,591.12,0,591.12,0,0.00027276,3.8755e-10,0,0.00014339,5.0996e-05,8.2952e+07,96.496,0,4.1431e+07,10.228,591.12,1
2044,1.67,12082,1,12082,1,6.4336e-05,1.8393e-10,0,0.00024207,-1.1708e-05,-3.0721,47.554,0,7.228e+07,-2.5714,12081,13104,1,13104,1,0.00052282,1.1577e-09,0,0.00052282,7.4029e-05,1.1659e+08,275.44,0,1.6031e+08,20.611,13103,12082,1,12082,1,6.4336e-05,1.5611e-10,0,0.00023773,-1.1679e-05,1.8135e+07,41.449,0,7.2e+07,-0.65918,12081,10985,1,10985,1,-0.00039415,-8.5065e-10,0,1.3394e-05,-9.7491e-05,-1.6031e+08,-208.48,0,3.9296e+06,-40.941,10984,11571,1,11571,1,-0.0001734,9.3889e-12,0,0.00011887,-5.6145e-05,-7.0513e+07,2.3739,0,3.7602e+07,-6.2397,11570,12593,1,12593,1,0.00030207,3.856e-10,0,0.0003566,3.2693e-05,7.2e+07,100.87,0,1.0366e+08,3.7152,12592,591.12,0,591.12,0,0.0002744,3.5104e-10,0,0.00014426,5.1303e-05,8.3452e+07,88.508,0,4.168e+07,9.2996,591.12,1
2044,1.68,12082,1,12082,1,6.4721e-05,-1.5045e-10,0,0.00024352,-1.1778e-05,-4.7916,-38.295,0,7.2712e+07,-2.2962,12081,13104,1,13104,1,0.00052595,4.7661e-11,0,0.00052595,7.4471e-05,1.1729e+08,16.321,0,1.6126e+08,7.6828,13103,12082,1,12082,1,6.4721e-05,-1.1485e-10,0,0.00023915,-1.1748e-05,1.8243e+07,-30.53,0,7.243e+07,-1.6225,12081,10985,1,10985,1,-0.0003965,-5.6463e-10,0,1.3474e-05,-9.8074e-05,-1.6126e+08,-130.6,0,3.9531e+06,-21.598,10984,11571,1,11571,1,-0.00017443,-2.3106e-10,0,0.00011958,-5.648e-05,-7.0934e+07,-60.512,0,3.7827e+07,-4.6545,11570,12593,1,12593,1,0.00030387,-4.2627e-11,0,0.00035873,3.2889e-05,7.243e+07,-12.383,0,1.0428e+08,0.35631,12592,591.12,0,591.12,0,0.00027604,1.3481e-10,0,0.00014512,5.161e-05,8.3951e+07,32.801,0,4.1929e+07,4.0581,591.12,1
2044,1.69,12082,1,12082,1,6.5107e-05,1.7804e-10,0,0.00024497,-1.1849e-05,7.676,45.361,0,7.3146e+07,-6.2901,12081,13104,1,13104,1,0.00052909,1.3064e-09,0,0.00052909,7.4916e-05,1.1799e+08,301.35,0,1.6223e+08,11.485,13103,12082,1,12082,1,6.5107e-05,1.2151e-10,0,0.00024058,-1.1819e-05,1.8352e+07,29.645,0,7.2862e+07,-4.1956,12081,10985,1,10985,1,-0.00039887,-9.2589e-10,0,1.3554e-05,-9.8659e-05,-1.6223e+08,-207.88,0,3.9767e+06,-46.339,10984,11571,1,11571,1,-0.00017547,-1.9413e-11,0,0.00012029,-5.6817e-05,-7.1358e+07,-4.9407,0,3.8053e+07,-10.831,11570,12593,1,12593,1,0.00030569,4.0562e-10,0,0.00036087,3.3085e-05,7.2862e+07,106.12,0,1.049e+08,1.192,12592,591.12,0,591.12,0,0.00027769,3.925e-10,0,0.00014599,5.1918e-05,8.4452e+07,96.939,0,4.2179e+07,10.722,591.12,1
2044,1.7,12082,1,12082,1,6.5493e-05,1.2672e-10,0,0.00024642,-1.1919e-05,3.0898,32.94,0,7.3579e+07,-7.5507,12081,13104,1,13104,1,0.00053222,1.3393e-09,0,0.00053222,7.5359e-05,1.1869e+08,318.53,0,1.6319e+08,13.334,13103,12082,1,12082,1,6.5493e-05,6.4664e-11,0,0.000242,-1.1889e-05,1.8461e+07,17.486,0,7.3294e+07,-5.2726,12081,10985,1,10985,1,-0.00040123,-1.0077e-09,0,1.3635e-05,-9.9243e-05,-1.6319e+08,-232.14,0,4.0002e+06,-55.783,10984,11571,1,11571,1,-0.00017651,-8.2042e-11,0,0.000121,-5.7154e-05,-7.178e+07,-22.727,0,3.8278e+07,-12.862,11570,12593,1,12593,1,0.0003075,3.5409e-10,0,0.00036301,3.3281e-05,7.3294e+07,92.4,0,1.0552e+08,0.88349,12592,591.12,0,591.12,0,0.00027933,4.1042e-10,0,0.00014685,5.2225e-05,8.4952e+07,103.62,0,4.2429e+07,11.285,591.12,1
2044,1.71,12082,1,12082,1,6.5878e-05,1.2075e-10,0,0.00024787,-1.1989e-05,17.977,31.459,0,7.4012e+07,-4.9084,12081,13104,1,13104,1,0.00053535,1.3497e-09,0,0.00053535,7.5803e-05,1.1938e+08,319.12,0,1.6415e+08,22.594,13103,12082,1,12082,1,6.5878e-05,1.0233e-10,0,0.00024343,-1.1958e-05,1.8569e+07,26.558,0,7.3725e+07,-4.5236,12081,10985,1,10985,1,-0.00040359,-1.5355e-09,0,1.3715e-05,-9.9827e-05,-1.6415e+08,-362.08,0,4.0238e+06,-44.644,10984,11571,1,11571,1,-0.00017755,-1.3238e-10,0,0.00012171,-5.749e-05,-7.2202e+07,-36.671,0,3.8503e+07,-11.854,11570,12593,1,12593,1,0.00030931,4.7126e-10,0,0.00036514,3.3477e-05,7.3725e+07,124.21,0,1.0614e+08,3.5765,12592,591.12,0,591.12,0,0.00028098,5.393e-10,0,0.00014771,5.2533e-05,8.5451e+07,136.25,0,4.2679e+07,12.047,591.12,1
2044,1.72,12082,1,12082,1,6.6263e-05,-3.665e-11,0,0.00024932,-1.2059e-05,-6.2868,-8.9835,0,7.4445e+07,-5.0627,12081,13104,1,13104,1,0.00053848,1.0657e-09,0,0.00053848,7.6246e-05,1.2008e+08,257.19,0,1.6511e+08,12.406,13103,12082,1,12082,1,6.6263e-05,2.1789e-11,0,0.00024485,-1.2028e-05,1.8678e+07,5.3661,0,7.4156e+07,-3.5614,12081,10985,1,10985,1,-0.00040595,-1.4343e-09,0,1.3795e-05,-0.00010041,-1.6511e+08,-359.29,0,4.0472e+06,-81.379,10984,11571,1,11571,1,-0.00017859,-2.6148e-10,0,0.00012243,-5.7826e-05,-7.2625e+07,-67.11,0,3.8728e+07,-10.415,11570,12593,1,12593,1,0.00031111,2.0885e-10,0,0.00036728,3.3673e-05,7.4156e+07,54.813,0,1.0677e+08,2.9047,12592,591.12,0,591.12,0,0.00028262,4.364e-10,0,0.00014858,5.284e-05,8.5951e+07,110.49,0,4.2928e+07,10.278,591.12,1
2044,1.73,12082,1,12082,1,6.6648e-05,4.7504e-11,0,0.00025077,-1.2129e-05,0.89504,12.203,0,7.4877e+07,-3.657,12081,13104,1,13104,1,0.0005416,9.862e-10,0,0.0005416,7.6689e-05,1.2078e+08,232.85,0,1.6607e+08,12.002,13103,12082,1,12082,1,6.6648e-05,2.9673e-11,0,0.00024627,-1.2098e-05,1.8786e+07,8.0793,0,7.4586e+07,-2.6146,12081,10985,1,10985,1,-0.00040831,-1.0474e-09,0,1.3875e-05,-0.00010099,-1.6607e+08,-242.95,0,4.0708e+06,-42.8,10984,11571,1,11571,1,-0.00017963,-1.354e-10,0,0.00012314,-5.8162e-05,-7.3046e+07,-34.485,0,3.8953e+07,-7.4055,11570,12593,1,12593,1,0.00031292,2.615e-10,0,0.00036941,3.3868e-05,7.4586e+07,69.135,0,1.0739e+08,3.3585,12592,591.12,0,591.12,0,0.00028426,3.6401e-10,0,0.00014944,5.3147e-05,8.645e+07,91.378,0,4.3177e+07,9.2184,591.12,1
2044,1.74,12082,1,12082,1,6.7034e-05,4.618e-11,0,0.00025222,-1.2199e-05,9.4057,11.339,0,7.531e+07,-4.4213,12081,13104,1,13104,1,0.00054474,7.5416e-10,0,0.00054474,7.7132e-05,1.2148e+08,170.76,0,1.6703e+08,10.301,13103,12082,1,12082,1,6.7034e-05,3.6788e-11,0,0.0002477,-1.2168e-05,1.8895e+07,9.8471,0,7.5018e+07,-2.5398,12081,10985,1,10985,1,-0.00041067,-8.3501e-10,0,1.3955e-05,-0.00010158,-1.6703e+08,-188.64,0,4.0943e+06,-42.682,10984,11571,1,11571,1,-0.00018066,-5.8393e-11,0,0.00012385,-5.8498e-05,-7.3469e+07,-15.707,0,3.9178e+07,-6.1207,11570,12593,1,12593,1,0.00031473,1.8397e-10,0,0.00037155,3.4064e-05,7.5018e+07,48.886,0,1.0801e+08,0.66825,12592,591.12,0,591.12,0,0.0002859,2.563e-10,0,0.0001503,5.3454e-05,8.695e+07,63.424,0,4.3427e+07,8.2101,591.12,1
2044,1.75,12082,1,12082,1,6.7418e-05,-2.5898e-10,0,0.00025367,-1.2269e-05,-18.984,-66.233,0,7.5742e+07,-4.2334,12081,13104,1,13104,1,0.00054786,1.8196e-10,0,0.00054786,7.7575e-05,1.2218e+08,39.571,0,1.6799e+08,23.033,13103,12082,1,12082,1,6.7418e-05,-1.4669e-10,0,0.00024912,-1.2238e-05,1.9003e+07,-38.048,0,7.5448e+07,-2.7835,12081,10985,1,10985,1,-0.00041303,-1.2895e-09,0,1.4035e-05,-0.00010216,-1.6799e+08,-309.86,0,4.1178e+06,-31.684,10984,11571,1,11571,1,-0.0001817,-4.2151e-10,0,0.00012456,-5.8834e-05,-7.389e+07,-108.57,0,3.9403e+07,-7.263,11570,12593,1,12593,1,0.00031654,-1.0196e-11,0,0.00037368,3.4259e-05,7.5448e+07,-2.9227,0,1.0863e+08,0.80294,12592,591.12,0,591.12,0,0.00028754,3.2066e-10,0,0.00015117,5.3761e-05,8.7449e+07,80.868,0,4.3676e+07,8.4382,591.12,1
2044,1.76,12082,1,12082,1,6.7802e-05,3.8495e-10,0,0.00025511,-1.2339e-05,-18.418,98.187,0,7.6173e+07,0.31415,12081,13104,1,13104,1,0.00055098,1.3023e-09,0,0.00055098,7.8017e-05,1.2287e+08,317.29,0,1.6894e+08,17.13,13103,12082,1,12082,1,6.7802e-05,3.4895e-10,0,0.00025054,-1.2308e-05,1.9112e+07,94.086,0,7.5878e+07,0.30593,12081,10985,1,10985,1,-0.00041538,-1.0117e-10,0,1.4115e-05,-0.00010274,-1.6894e+08,-34.642,0,4.1412e+06,-34.512,10984,11571,1,11571,1,-0.00018274,1.4214e-10,0,0.00012527,-5.9169e-05,-7.4311e+07,37.984,0,3.9627e+07,-3.2968,11570,12593,1,12593,1,0.00031834,5.8237e-10,0,0.00037581,3.4455e-05,7.5878e+07,140.97,0,1.0924e+08,4.8458,12592,591.12,0,591.12,0,0.00028918,3.0835e-10,0,0.00015203,5.4067e-05,8.7947e+07,77.247,0,4.3925e+07,7.1937,591.12,1
2044,1.77,12082,1,12082,1,6.8189e-05,-6.6916e-11,0,0.00025657,-1.2409e-05,-23.142,-16.252,0,7.6608e+07,-7.8841,12081,13104,1,13104,1,0.00055413,9.0013e-10,0,0.00055413,7.8462e-05,1.2357e+08,211.81,0,1.6991e+08,23.683,13103,12082,1,12082,1,6.8188e-05,2.9584e-11,0,0.00025197,-1.2378e-05,1.9221e+07,6.9906,0,7.6311e+07,-6.5836,12081,10985,1,10985,1,-0.00041775,-1.859e-09,0,1.4196e-05,-0.00010333,-1.6991e+08,-425.59,0,4.1648e+06,-50.495,10984,11571,1,11571,1,-0.00018378,-2.8973e-10,0,0.00012598,-5.9506e-05,-7.4735e+07,-73.476,0,3.9854e+07,-14.399,11570,12593,1,12593,1,0.00032016,2.5455e-10,0,0.00037795,3.4651e-05,7.6311e+07,65.852,0,1.0987e+08,1.244,12592,591.12,0,591.12,0,0.00029083,5.2351e-10,0,0.0001529,5.4375e-05,8.8449e+07,131.63,0,4.4176e+07,11.623,591.12,1
2044,1.78,12082,1,12082,1,6.8574e-05,-1.0341e-10,0,0.00025802,-1.2479e-05,-9.5755,-26.465,0,7.7041e+07,-0.86627,12081,13104,1,13104,1,0.00055726,2.5701e-10,0,0.00055726,7.8905e-05,1.2427e+08,56.411,0,1.7086e+08,4.5785,13103,12082,1,12082,1,6.8574e-05,-6.6776e-11,0,0.00025339,-1.2448e-05,1.9329e+07,-17.849,0,7.6742e+07,-0.33272,12081,10985,1,10985,1,-0.00042011,-5.8788e-10,0,1.4276e-05,-0.00010391,-1.7086e+08,-132.68,0,4.1884e+06,-22.249,10984,11571,1,11571,1,-0.00018482,-1.9789e-10,0,0.00012669,-5.9843e-05,-7.5157e+07,-51.732,0,4.0079e+07,-2.2432,11570,12593,1,12593,1,0.00032196,8.6434e-12,0,0.00038008,3.4847e-05,7.6742e+07,2.0874,0,1.1049e+08,1.9637,12592,591.12,0,591.12,0,0.00029247,1.5557e-10,0,0.00015376,5.4682e-05,8.8948e+07,38.594,0,4.4425e+07,3.8538,591.12,1
2044,1.79,12082,1,12082,1,6.8959e-05,-3.062e-11,0,0.00025946,-1.2549e-05,-8.978,-7.9109,0,7.7474e+07,-2.5978,12081,13104,1,13104,1,0.00056039,6.49e-10,0,0.00056039,7.9348e-05,1.2497e+08,149.19,0,1.7182e+08,12.363,13103,12082,1,12082,1,6.8959e-05,-2.1026e-11,0,0.00025481,-1.2518e-05,1.9438e+07,-5.3828,0,7.7173e+07,-0.011715,12081,10985,1,10985,1,-0.00042247,-7.3292e-10,0,1.4356e-05,-0.0001045,-1.7182e+08,-178.31,0,4.2119e+06,-38.352,10984,11571,1,11571,1,-0.00018585,-1.4999e-10,0,0.00012741,-6.0179e-05,-7.5579e+07,-39.023,0,4.0304e+07,-5.6852,11570,12593,1,12593,1,0.00032377,7.4219e-11,0,0.00038222,3.5043e-05,7.7173e+07,20.273,0,1.1111e+08,2.8898,12592,591.12,0,591.12,0,0.00029412,2.2216e-10,0,0.00015462,5.499e-05,8.9448e+07,55.535,0,4.4675e+07,8.1179,591.12,1
2044,1.8,12082,1,12082,1,6.9344e-05,-1.0609e-10,0,0.00026091,-1.2619e-05,1.4026,-27.11,0,7.7906e+07,-1.1534,12081,13104,1,13104,1,0.00056351,1.2312e-11,0,0.00056351,7.979e-05,1.2566e+08,4.2163,0,1.7278e+08,2.0262,13103,12082,1,12082,1,6.9344e-05,-1.0702e-10,0,0.00025623,-1.2588e-05,1.9546e+07,-29.859,0,7.7603e+07,0.10614,12081,10985,1,10985,1,-0.00042482,-2.5212e-10,0,1.4436e-05,-0.00010508,-1.7278e+08,-54.942,0,4.2354e+06,-21.025,10984,11571,1,11571,1,-0.00018689,-1.6129e-10,0,0.00012812,-6.0514e-05,-7.6001e+07,-40.23,0,4.0529e+07,-0.95363,11570,12593,1,12593,1,0.00032558,-5.7321e-11,0,0.00038435,3.5238e-05,7.7603e+07,-14.846,0,1.1173e+08,0.46316,12592,591.12,0,591.12,0,0.00029576,6.3402e-11,0,0.00015548,5.5296e-05,8.9947e+07,15.274,0,4.4924e+07,3.5435,591.12,1
2044,1.81,12082,1,12082,1,6.9729e-05,-3.2996e-11,0,0.00026236,-1.269e-05,-4.2997,-8.4484,0,7.8339e+07,-5.1045,12081,13104,1,13104,1,0.00056665,6.1078e-10,0,0.00056665,8.0234e-05,1.2636e+08,148.46,0,1.7374e+08,40.376,13103,12082,1,12082,1,6.9729e-05,2.1871e-11,0,0.00025766,-1.2658e-05,1.9655e+07,5.6575,0,7.8035e+07,-1.7023,12081,10985,1,10985,1,-0.00042719,-1.1509e-09,0,1.4516e-05,-0.00010566,-1.7374e+08,-270.5,0,4.259e+06,-44.83,10984,11571,1,11571,1,-0.00018793,-2.5759e-10,0,0.00012883,-6.0851e-05,-7.6424e+07,-66.382,0,4.0754e+07,-10.567,11570,12593,1,12593,1,0.00032739,2.477e-10,0,0.00038649,3.5434e-05,7.8035e+07,64.684,0,1.1235e+08,1.6432,12592,591.12,0,591.12,0,0.0002974,3.9183e-10,0,0.00015635,5.5604e-05,9.0447e+07,99.365,0,4.5174e+07,11.922,591.12,1
2044,1.82,12082,1,12082,1,7.0113e-05,-1.1329e-10,0,0.00026381,-1.2759e-05,-15.557,-29.235,0,7.877e+07,-1.1412,12081,13104,1,13104,1,0.00056976,1.5483e-11,0,0.00056976,8.0676e-05,1.2706e+08,5.3025,0,1.747e+08,6.7092,13103,12082,1,12082,1,7.0113e-05,-1.136e-10,0,0.00025908,-1.2727e-05,1.9763e+07,-30.957,0,7.8465e+07,-0.74075,12081,10985,1,10985,1,-0.00042954,-3.2133e-10,0,1.4596e-05,-0.00010624,-1.747e+08,-81.285,0,4.2824e+06,-20.413,10984,11571,1,11571,1,-0.00018896,-1.5448e-10,0,0.00012954,-6.1186e-05,-7.6844e+07,-38.875,0,4.0978e+07,-2.2193,11570,12593,1,12593,1,0.00032919,-7.0607e-11,0,0.00038862,3.5629e-05,7.8465e+07,-18.259,0,1.1297e+08,0.48867,12592,591.12,0,591.12,0,0.00029904,6.0618e-11,0,0.00015721,5.591e-05,9.0945e+07,15.302,0,4.5422e+07,3.165,591.12,1
2044,1.83,12082,1,12082,1,7.0501e-05,3.1701e-11,0,0.00026527,-1.283e-05,12.921,8.5483,0,7.9206e+07,-6.2968,12081,13104,1,13104,1,0.00057291,9.9017e-10,0,0.00057291,8.1122e-05,1.2776e+08,233.29,0,1.7567e+08,14.686,13103,12082,1,12082,1,7.0501e-05,4.0528e-11,0,0.00026051,-1.2798e-05,1.9872e+07,11.824,0,7.8898e+07,-3.8018,12081,10985,1,10985,1,-0.00043191,-1.1529e-09,0,1.4677e-05,-0.00010683,-1.7567e+08,-266.09,0,4.3061e+06,-38.231,10984,11571,1,11571,1,-0.00019001,-1.0579e-10,0,0.00013025,-6.1524e-05,-7.7269e+07,-27.251,0,4.1205e+07,-11.376,11570,12593,1,12593,1,0.00033101,1.9838e-10,0,0.00039076,3.5826e-05,7.8898e+07,51.746,0,1.1359e+08,0.87198,12592,591.12,0,591.12,0,0.00030069,3.3891e-10,0,0.00015808,5.6219e-05,9.1448e+07,85.336,0,4.5673e+07,9.3855,591.12,1
2044,1.84,12082,1,12082,1,7.0884e-05,2.6095e-10,0,0.00026671,-1.29e-05,-8.2367,66.769,0,7.9636e+07,-0.10858,12081,13104,1,13104,1,0.00057603,1.1773e-09,0,0.00057603,8.1563e-05,1.2846e+08,284.64,0,1.7662e+08,15.49,13103,12082,1,12082,1,7.0884e-05,1.7371e-10,0,0.00026193,-1.2867e-05,1.998e+07,44.686,0,7.9327e+07,0.49663,12081,10985,1,10985,1,-0.00043426,-7.4717e-11,0,1.4757e-05,-0.00010741,-1.7662e+08,-24.045,0,4.3295e+06,-28.193,10984,11571,1,11571,1,-0.00019104,3.4732e-11,0,0.00013096,-6.1859e-05,-7.7689e+07,8.4975,0,4.1429e+07,-3.5594,11570,12593,1,12593,1,0.00033281,4.1644e-10,0,0.00039289,3.6021e-05,7.9327e+07,107.75,0,1.1421e+08,4.2741,12592,591.12,0,591.12,0,0.00030233,2.7996e-10,0,0.00015894,5.6525e-05,9.1945e+07,70.961,0,4.5922e+07,5.7667,591.12,1
2044,1.85,12082,1,12082,1,7.127e-05,-1.0967e-10,0,0.00026816,-1.297e-05,-24.77,-27.908,0,8.007e+07,0.37966,12081,13104,1,13104,1,0.00057916,6.3486e-11,0,0.00057916,8.2007e-05,1.2915e+08,21.739,0,1.7758e+08,15.603,13103,12082,1,12082,1,7.1269e-05,-6.6702e-11,0,0.00026335,-1.2937e-05,2.0089e+07,-16.872,0,7.9759e+07,0.71411,12081,10985,1,10985,1,-0.00043662,-4.0761e-10,0,1.4837e-05,-0.000108,-1.7758e+08,-93.215,0,4.353e+06,-19.166,10984,11571,1,11571,1,-0.00019208,-1.8731e-10,0,0.00013168,-6.2195e-05,-7.8112e+07,-49.066,0,4.1654e+07,-1.7633,11570,12593,1,12593,1,0.00033462,-2.3845e-11,0,0.00039503,3.6217e-05,7.9759e+07,-6.4197,0,1.1483e+08,2.7881,12592,591.12,0,591.12,0,0.00030397,1.1322e-10,0,0.0001598,5.6832e-05,9.2445e+07,28.278,0,4.6172e+07,4.0942,591.12,1
2044,1.86,12082,1,12082,1,7.1656e-05,-3.6196e-12,0,0.00026961,-1.304e-05,-10.864,-1.022,0,8.0503e+07,-2.1123,12081,13104,1,13104,1,0.0005823,2.527e-10,0,0.0005823,8.2451e-05,1.2985e+08,55.658,0,1.7854e+08,3.5728,13103,12082,1,12082,1,7.1656e-05,4.7472e-12,0,0.00026478,-1.3007e-05,2.0198e+07,1.1995,0,8.0191e+07,-1.0765,12081,10985,1,10985,1,-0.00043899,-3.9801e-10,0,1.4918e-05,-0.00010858,-1.7854e+08,-91.901,0,4.3766e+06,-25.487,10984,11571,1,11571,1,-0.00019312,-6.5444e-11,0,0.00013239,-6.2532e-05,-7.8535e+07,-16.922,0,4.188e+07,-3.7084,11570,12593,1,12593,1,0.00033643,8.2198e-11,0,0.00039717,3.6413e-05,8.0191e+07,21.835,0,1.1545e+08,0.62604,12592,591.12,0,591.12,0,0.00030562,1.2652e-10,0,0.00016067,5.714e-05,9.2946e+07,31.634,0,4.6422e+07,4.3289,591.12,1
2044,1.87,12082,1,12082,1,7.2041e-05,1.6252e-10,0,0.00027106,-1.311e-05,4.8973,40.972,0,8.0936e+07,-7.888,12081,13104,1,13104,1,0.00058543,9.8486e-10,0,0.00058543,8.2894e-05,1.3055e+08,224.78,0,1.795e+08,11.187,13103,12082,1,12082,1,7.2041e-05,1.062e-10,0,0.0002662,-1.3077e-05,2.0307e+07,29.187,0,8.0622e+07,-6.5189,12081,10985,1,10985,1,-0.00044135,-8.477e-10,0,1.4998e-05,-0.00010917,-1.795e+08,-205.53,0,4.4002e+06,-32.443,10984,11571,1,11571,1,-0.00019416,-3.071e-11,0,0.0001331,-6.2868e-05,-7.8957e+07,-8.0269,0,4.2105e+07,-12.912,11570,12593,1,12593,1,0.00033824,3.9373e-10,0,0.0003993,3.6609e-05,8.0622e+07,104.54,0,1.1608e+08,-1.0838,12592,591.12,0,591.12,0,0.00030726,3.5663e-10,0,0.00016153,5.7447e-05,9.3446e+07,88.813,0,4.6671e+07,8.9388,591.12,1
2044,1.88,12082,1,12082,1,7.2426e-05,-7.4513e-11,0,0.00027251,-1.318e-05,0.16982,-18.615,0,8.1369e+07,-5.4281,12081,13104,1,13104,1,0.00058856,7.2237e-10,0,0.00058856,8.3337e-05,1.3125e+08,177.24,0,1.8046e+08,19.722,13103,12082,1,12082,1,7.2426e-05,5.2155e-12,0,0.00026762,-1.3147e-05,2.0415e+07,1.1294,0,8.1053e+07,-3.9489,12081,10985,1,10985,1,-0.00044371,-1.7188e-09,0,1.5078e-05,-0.00010975,-1.8046e+08,-429.51,0,4.4237e+06,-30.18,10984,11571,1,11571,1,-0.0001952,-2.9979e-10,0,0.00013381,-6.3204e-05,-7.9379e+07,-77.149,0,4.233e+07,-12.597,11570,12593,1,12593,1,0.00034005,2.4471e-10,0,0.00040144,3.6804e-05,8.1053e+07,63.968,0,1.167e+08,1.8481,12592,591.12,0,591.12,0,0.00030891,4.7334e-10,0,0.0001624,5.7754e-05,9.3945e+07,118.72,0,4.6921e+07,9.9924,591.12,1
2044,1.89,12082,1,12082,1,7.2812e-05,1.169e-10,0,0.00027396,-1.3251e-05,-0.9116,29.869,0,8.1802e+07,-5.9799,12081,13104,1,13104,1,0.00059169,1.0148e-09,0,0.00059169,8.3781e-05,1.3195e+08,239.03,0,1.8142e+08,9.9381,13103,12082,1,12082,1,7.2811e-05,5.7976e-11,0,0.00026905,-1.3217e-05,2.0524e+07,14.66,0,8.1484e+07,-4.8924,12081,10985,1,10985,1,-0.00044607,-9.0366e-10,0,1.5158e-05,-0.00011033,-1.8142e+08,-213.16,0,4.4472e+06,-64.004,10984,11571,1,11571,1,-0.00019624,-8.8238e-11,0,0.00013452,-6.3541e-05,-7.9802e+07,-24.762,0,4.2555e+07,-10.66,11570,12593,1,12593,1,0.00034186,3.7838e-10,0,0.00040357,3.7e-05,8.1484e+07,98.952,0,1.1732e+08,1.7818,12592,591.12,0,591.12,0,0.00031055,3.8613e-10,0,0.00016326,5.8062e-05,9.4445e+07,96.955,0,4.7171e+07,10.237,591.12,1
2044,1.9,12082,1,12082,1,7.3196e-05,-1.7309e-10,0,0.00027541,-1.332e-05,-18.398,-44.501,0,8.2234e+07,-1.059,12081,13104,1,13104,1,0.00059482,6.5286e-11,0,0.00059482,8.4223e-05,1.3265e+08,22.356,0,1.8238e+08,13.407,13103,12082,1,12082,1,7.3196e-05,-1.4662e-10,0,0.00027047,-1.3287e-05,2.0632e+07,-37.609,0,8.1914e+07,-0.52705,12081,10985,1,10985,1,-0.00044842,-6.2753e-10,0,1.5238e-05,-0.00011092,-1.8238e+08,-143.42,0,4.4707e+06,-22.244,10984,11571,1,11571,1,-0.00019727,-2.2925e-10,0,0.00013523,-6.3876e-05,-8.0223e+07,-60.148,0,4.278e+07,-3.4232,11570,12593,1,12593,1,0.00034366,-8.1702e-11,0,0.0004057,3.7196e-05,8.1914e+07,-20.875,0,1.1794e+08,1.4507,12592,591.12,0,591.12,0,0.00031219,1.3452e-10,0,0.00016412,5.8368e-05,9.4944e+07,33.449,0,4.7419e+07,4.1018,591.12,1
2044,1.91,12082,1,12082,1,7.3582e-05,1.8891e-11,0,0.00027686,-1.3391e-05,-2.047,4.6664,0,8.2668e+07,-4.8444,12081,13104,1,13104,1,0.00059796,8.4879e-10,0,0.00059796,8.4668e-05,1.3335e+08,205.74,0,1.8334e+08,11.861,13103,12082,1,12082,1,7.3582e-05,3.0553e-11,0,0.0002719,-1.3357e-05,2.0741e+07,7.8022,0,8.2347e+07,-3.3836,12081,10985,1,10985,1,-0.00045079,-1.2997e-09,0,1.5319e-05,-0.0001115,-1.8334e+08,-323.71,0,4.4943e+06,-30.838,10984,11571,1,11571,1,-0.00019831,-1.919e-10,0,0.00013595,-6.4213e-05,-8.0646e+07,-48.589,0,4.3006e+07,-11.047,11570,12593,1,12593,1,0.00034548,3.1139e-10,0,0.00040784,3.7392e-05,8.2347e+07,81.233,0,1.1856e+08,1.8639,12592,591.12,0,591.12,0,0.00031384,4.3449e-10,0,0.00016499,5.8676e-05,9.5445e+07,109.55,0,4.767e+07,8.2194,591.12,1
2044,1.92,12082,1,12082,1,7.3967e-05,3.1365e-11,0,0.00027831,-1.3461e-05,6.3899,7.9086,0,8.31e+07,-6.4538,12081,13104,1,13104,1,0.00060109,1.15e-09,0,0.00060109,8.5111e-05,1.3404e+08,271.12,0,1.843e+08,19.287,13103,12082,1,12082,1,7.3967e-05,4.3619e-11,0,0.00027332,-1.3427e-05,2.085e+07,11.544,0,8.2778e+07,-4.8538,12081,10985,1,10985,1,-0.00045315,-1.4506e-09,0,1.5399e-05,-0.00011209,-1.843e+08,-337.24,0,4.5178e+06,-39.545,10984,11571,1,11571,1,-0.00019935,-1.754e-10,0,0.00013666,-6.4549e-05,-8.1069e+07,-44.5,0,4.3231e+07,-12.662,11570,12593,1,12593,1,0.00034729,3.0658e-10,0,0.00040998,3.7588e-05,8.2778e+07,80.161,0,1.1918e+08,2.5557,12592,591.12,0,591.12,0,0.00031548,4.6208e-10,0,0.00016585,5.8983e-05,9.5944e+07,115.83,0,4.7919e+07,11.807,591.12,1
2044,1.93,12082,1,12082,1,7.4352e-05,-1.3971e-10,0,0.00027976,-1.3531e-05,9.1846,-34.933,0,8.3533e+07,-2.9713,12081,13104,1,13104,1,0.00060422,3.5744e-10,0,0.00060422,8.5554e-05,1.3474e+08,79.458,0,1.8526e+08,12.011,13103,12082,1,12082,1,7.4352e-05,-1.1221e-10,0,0.00027474,-1.3497e-05,2.0958e+07,-29.99,0,8.3209e+07,-0.66136,12081,10985,1,10985,1,-0.00045551,-8.7729e-10,0,1.5479e-05,-0.00011267,-1.8526e+08,-207.92,0,4.5414e+06,-40.887,10984,11571,1,11571,1,-0.00020039,-2.5521e-10,0,0.00013737,-6.4885e-05,-8.1491e+07,-60.539,0,4.3456e+07,-5.9073,11570,12593,1,12593,1,0.00034909,2.607e-11,0,0.00041211,3.7783e-05,8.3209e+07,6.55,0,1.198e+08,1.6185,12592,591.12,0,591.12,0,0.00031712,2.1283e-10,0,0.00016672,5.929e-05,9.6444e+07,52.803,0,4.8169e+07,8.1771,591.12,1
2044,1.94,12082,1,12082,1,7.4738e-05,1.6043e-10,0,0.00028121,-1.3601e-05,3.3353,41.032,0,8.3966e+07,-0.67547,12081,13104,1,13104,1,0.00060734,8.8702e-10,0,0.00060734,8.5997e-05,1.3544e+08,217.63,0,1.8622e+08,19.97,13103,12082,1,12082,1,7.4738e-05,1.2102e-10,0,0.00027617,-1.3567e-05,2.1067e+07,32.36,0,8.364e+07,-0.49891,12081,10985,1,10985,1,-0.00045787,-6.6527e-10,0,1.5559e-05,-0.00011325,-1.8622e+08,-165.14,0,4.5649e+06,-41.486,10984,11571,1,11571,1,-0.00020143,-1.7313e-11,0,0.00013808,-6.5222e-05,-8.1913e+07,-4.9866,0,4.3681e+07,-4.6162,11570,12593,1,12593,1,0.0003509,3.6298e-10,0,0.00041425,3.7979e-05,8.364e+07,95.069,0,1.2042e+08,4.3477,12592,591.12,0,591.12,0,0.00031876,3.0727e-10,0,0.00016758,5.9598e-05,9.6943e+07,76.39,0,4.8418e+07,7.8954,591.12,1
2044,1.95,12082,1,12082,1,7.5124e-05,2.1707e-10,0,0.00028266,-1.3671e-05,-3.5899,55.507,0,8.44e+07,-8.7342,12081,13104,1,13104,1,0.00061048,1.6241e-09,0,0.00061048,8.6442e-05,1.3614e+08,379.83,0,1.8719e+08,36.328,13103,12082,1,12082,1,7.5124e-05,1.68e-10,0,0.00027759,-1.3637e-05,2.1176e+07,44.873,0,8.4072e+07,-3.9185,12081,10985,1,10985,1,-0.00046024,-1.9875e-09,0,1.564e-05,-0.00011384,-1.8719e+08,-448.33,0,4.5885e+06,-206.34,10984,11571,1,11571,1,-0.00020247,-7.8746e-11,0,0.0001388,-6.5558e-05,-8.2336e+07,-21.133,0,4.3907e+07,-17.583,11570,12593,1,12593,1,0.00035272,6.4639e-10,0,0.00041639,3.8175e-05,8.4072e+07,173.84,0,1.2104e+08,4.6116,12592,591.12,0,591.12,0,0.00032041,6.6559e-10,0,0.00016845,5.9906e-05,9.7444e+07,165.04,0,4.8669e+07,21.158,591.12,1
2044,1.96,12082,1,12082,1,7.5509e-05,3.4224e-10,0,0.00028411,-1.3741e-05,16.955,86.971,0,8.4832e+07,0.25792,12081,13104,1,13104,1,0.00061361,2.266e-09,0,0.00061361,8.6884e-05,1.3684e+08,545.56,0,1.8814e+08,73.543,13103,12082,1,12082,1,7.5508e-05,2.1182e-10,0,0.00027901,-1.3707e-05,2.1284e+07,58.23,0,8.4502e+07,1.2351,12081,10985,1,10985,1,-0.00046259,-2.4077e-09,0,1.5719e-05,-0.00011442,-1.8814e+08,-563.6,0,4.6119e+06,-396.81,10984,11571,1,11571,1,-0.00020351,-8.7372e-11,0,0.00013951,-6.5894e-05,-8.2757e+07,-21.034,0,4.4132e+07,-11.916,11570,12593,1,12593,1,0.00035452,8.2125e-10,0,0.00041852,3.8371e-05,8.4502e+07,227.61,0,1.2166e+08,18.072,12592,591.12,0,591.12,0,0.00032205,8.3434e-10,0,0.00016931,6.0212e-05,9.7943e+07,199.82,0,4.8918e+07,36.597,591.12,1
2044,1.97,12082,1,12082,1,7.5894e-05,1.1422e-10,0,0.00028556,-1.3811e-05,-5.879,29.278,0,8.5265e+07,-7.6025,12081,13104,1,13104,1,0.00061674,1.4244e-09,0,0.00061674,8.7328e-05,1.3754e+08,333.19,0,1.891e+08,30.541,13103,12082,1,12082,1,7.5894e-05,8.2577e-11,0,0.00028044,-1.3777e-05,2.1393e+07,19.186,0,8.4934e+07,-4.336,12081,10985,1,10985,1,-0.00046495,-1.8367e-09,0,1.58e-05,-0.000115,-1.891e+08,-443.71,0,4.6355e+06,-47.525,10984,11571,1,11571,1,-0.00020454,-1.9026e-10,0,0.00014022,-6.6231e-05,-8.318e+07,-51.857,0,4.4357e+07,-20.574,11570,12593,1,12593,1,0.00035633,5.4685e-10,0,0.00042066,3.8567e-05,8.4934e+07,144.75,0,1.2228e+08,5.0077,12592,591.12,0,591.12,0,0.0003237,6.6472e-10,0,0.00017017,6.052e-05,9.8443e+07,165.39,0,4.9167e+07,16.828,591.12,1
2044,1.98,12082,1,12082,1,7.6278e-05,3.4015e-10,0,0.000287,-1.3881e-05,11.276,85.87,0,8.5697e+07,1.1107,12081,13104,1,13104,1,0.00061987,1.1863e-09,0,0.00061987,8.777e-05,1.3823e+08,291.11,0,1.9006e+08,20.905,13103,12082,1,12082,1,7.6278e-05,3.1386e-10,0,0.00028186,-1.3846e-05,2.1501e+07,82.218,0,8.5364e+07,2.9881,12081,10985,1,10985,1,-0.00046731,-1.3378e-10,0,1.588e-05,-0.00011559,-1.9006e+08,-45.81,0,4.6589e+06,-175.64,10984,11571,1,11571,1,-0.00020558,1.4688e-10,0,0.00014093,-6.6566e-05,-8.3601e+07,38.203,0,4.4582e+07,-2.7238,11570,12593,1,12593,1,0.00035814,4.6997e-10,0,0.00042279,3.8762e-05,8.5364e+07,126.8,0,1.229e+08,7.8971,12592,591.12,0,591.12,0,0.00032533,2.8223e-10,0,0.00017103,6.0826e-05,9.8942e+07,67.588,0,4.9416e+07,12.645,591.12,1
2044,1.99,12082,1,12082,1,7.6664e-05,3.9444e-10,0,0.00028846,-1.3952e-05,11.255,100.02,0,8.613e+07,1.1942,12081,13104,1,13104,1,0.000623,1.9545e-09,0,0.000623,8.8214e-05,1.3893e+08,479.55,0,1.9102e+08,33.888,13103,12082,1,12082,1,7.6664e-05,3.1015e-10,0,0.00028328,-1.3916e-05,2.161e+07,81.984,0,8.5796e+07,2.2522,12081,10985,1,10985,1,-0.00046967,-1.2632e-09,0,1.596e-05,-0.00011617,-1.9102e+08,-309.89,0,4.6826e+06,-445.99,10984,11571,1,11571,1,-0.00020662,-3.1688e-12,0,0.00014164,-6.6903e-05,-8.4024e+07,-0.88146,0,4.4807e+07,-3.6982,11570,12593,1,12593,1,0.00035995,7.0032e-10,0,0.00042493,3.8958e-05,8.5796e+07,199.95,0,1.2352e+08,11.265,12592,591.12,0,591.12,0,0.00032698,5.634e-10,0,0.0001719,6.1134e-05,9.9443e+07,135.4,0,4.9667e+07,30.32,591.12,1
2044,2,12082,1,12082,1,7.705e-05,1.0075e-10,0,0.00028991,-1.4022e-05,-7.8227,25.231,0,8.6563e+07,-12.198,12081,13104,1,13104,1,0.00062613,1.2786e-09,0,0.00062613,8.8657e-05,1.3963e+08,296.65,0,1.9198e+08,23.697,13103,12082,1,12082,1,7.7049e-05,7.575e-11,0,0.00028471,-1.3986e-05,2.1718e+07,19.586,0,8.6227e+07,-10.938,12081,10985,1,10985,1,-0.00047203,-1.4013e-09,0,1.604e-05,-0.00011676,-1.9198e+08,-345.81,0,4.7061e+06,-65.949,10984,11571,1,11571,1,-0.00020766,-1.5975e-10,0,0.00014235,-6.7239e-05,-8.4447e+07,-43.778,0,4.5032e+07,-22.493,11570,12593,1,12593,1,0.00036176,4.4219e-10,0,0.00042706,3.9154e-05,8.6227e+07,117.64,0,1.2415e+08,-0.41073,12592,591.12,0,591.12,0,0.00032862,5.3497e-10,0,0.00017276,6.1441e-05,9.9942e+07,133.79,0,4.9916e+07,14.584,591.12,1
2044,2.01,12082,1,12082,1,7.7435e-05,1.0034e-10,0,0.00029136,-1.4092e-05,-6.3072,25.521,0,8.6996e+07,-2.308,12081,13104,1,13104,1,0.00062927,1.9428e-09,0,0.00062927,8.9101e-05,1.4033e+08,476.68,0,1.9295e+08,33.515,13103,12082,1,12082,1,7.7435e-05,7.6681e-11,0,0.00028613,-1.4056e-05,2.1827e+07,20.901,0,8.6659e+07,-1.9917,12081,10985,1,10985,1,-0.0004744,-2.2261e-09,0,1.6121e-05,-0.00011734,-1.9295e+08,-533.14,0,4.7296e+06,-69.709,10984,11571,1,11571,1,-0.0002087,-3.1726e-10,0,0.00014307,-6.7576e-05,-8.4869e+07,-80.567,0,4.5258e+07,-13.377,11570,12593,1,12593,1,0.00036357,5.7322e-10,0,0.0004292,3.935e-05,8.6659e+07,150.68,0,1.2477e+08,10.123,12592,591.12,0,591.12,0,0.00033027,7.5654e-10,0,0.00017363,6.1749e-05,1.0044e+08,187.6,0,5.0166e+07,16.941,591.12,1
2044,2.02,12082,1,12082,1,7.782e-05,8.509e-12,0,0.0002928,-1.4162e-05,-1.4642,2.427,0,8.7428e+07,-0.7614,12081,13104,1,13104,1,0.00063239,1.1559e-09,0,0.00063239,8.9544e-05,1.4102e+08,283.61,0,1.939e+08,43.641,13103,12082,1,12082,1,7.782e-05,3.2371e-11,0,0.00028755,-1.4126e-05,2.1935e+07,8.5591,0,8.7089e+07,0.54941,12081,10985,1,10985,1,-0.00047675,-2.0628e-09,0,1.6201e-05,-0.00011792,-1.939e+08,-506.19,0,4.7531e+06,-37.694,10984,11571,1,11571,1,-0.00020973,-2.9235e-10,0,0.00014378,-6.7911e-05,-8.5291e+07,-75.819,0,4.5482e+07,-9.9754,11570,12593,1,12593,1,0.00036537,4.1763e-10,0,0.00043133,3.9545e-05,8.7089e+07,109.38,0,1.2539e+08,7.6767,12592,591.12,0,591.12,0,0.00033191,6.1101e-10,0,0.00017449,6.2055e-05,1.0094e+08,153.54,0,5.0415e+07,13.931,591.12,1
2044,2.03,12082,1,12082,1,7.8205e-05,-1.6445e-10,0,0.00029425,-1.4232e-05,-14.554,-40.555,0,8.7861e+07,-3.8434,12081,13104,1,13104,1,0.00063552,5.6164e-10,0,0.00063552,8.9987e-05,1.4172e+08,130.09,0,1.9486e+08,27.95,13103,12082,1,12082,1,7.8205e-05,-2.422e-11,0,0.00028898,-1.4196e-05,2.2044e+07,-5.9184,0,8.752e+07,-4.3899,12081,10985,1,10985,1,-0.00047911,-1.6564e-09,0,1.6281e-05,-0.00011851,-1.9486e+08,-394.49,0,4.7766e+06,-34.519,10984,11571,1,11571,1,-0.00021077,-3.3727e-10,0,0.00014449,-6.8247e-05,-8.5713e+07,-85.375,0,4.5708e+07,-10.406,11570,12593,1,12593,1,0.00036718,8.5909e-11,0,0.00043347,3.9741e-05,8.752e+07,21.626,0,1.2601e+08,0.7786,12592,591.12,0,591.12,0,0.00033355,4.1309e-10,0,0.00017535,6.2363e-05,1.0144e+08,102.12,0,5.0665e+07,9.6816,591.12,1
2044,2.04,12082,1,12082,1,7.8588e-05,-1.4259e-10,0,0.0002957,-1.4302e-05,8.4558,-36.421,0,8.8292e+07,-1.9687,12081,13104,1,13104,1,0.00063864,4.5967e-10,0,0.00063864,9.0428e-05,1.4242e+08,112.84,0,1.9582e+08,24.685,13103,12082,1,12082,1,7.8588e-05,-8.5887e-11,0,0.0002904,-1.4266e-05,2.2152e+07,-22.682,0,8.7949e+07,-1.068,12081,10985,1,10985,1,-0.00048146,-7.8195e-10,0,1.6361e-05,-0.00011909,-1.9582e+08,-192.61,0,4.8001e+06,-56.547,10984,11571,1,11571,1,-0.00021181,-3.3784e-10,0,0.0001452,-6.8582e-05,-8.6133e+07,-90.733,0,4.5932e+07,-7.5385,11570,12593,1,12593,1,0.00036898,4.0866e-11,0,0.00043559,3.9936e-05,8.7949e+07,9.9052,0,1.2662e+08,7.0736,12592,591.12,0,591.12,0,0.00033519,2.6793e-10,0,0.00017621,6.2668e-05,1.0194e+08,67.867,0,5.0913e+07,13.962,591.12,1
2044,2.05,12082,1,12082,1,7.8976e-05,1.4616e-10,0,0.00029715,-1.4372e-05,16.456,36.98,0,8.8727e+07,-6.2424,12081,13104,1,13104,1,0.00064178,1.1612e-09,0,0.00064178,9.0874e-05,1.4312e+08,266.93,0,1.9678e+08,9.9251,13103,12082,1,12082,1,7.8976e-05,9.8138e-11,0,0.00029183,-1.4336e-05,2.2261e+07,25.227,0,8.8383e+07,-4.3292,12081,10985,1,10985,1,-0.00048383,-8.8119e-10,0,1.6442e-05,-0.00011967,-1.9678e+08,-204.77,0,4.8238e+06,-49.842,10984,11571,1,11571,1,-0.00021285,-4.5792e-11,0,0.00014591,-6.892e-05,-8.6558e+07,-12.465,0,4.6158e+07,-10.541,11570,12593,1,12593,1,0.0003708,3.6637e-10,0,0.00043774,4.0133e-05,8.8383e+07,96.644,0,1.2725e+08,1.3625,12592,591.12,0,591.12,0,0.00033684,3.655e-10,0,0.00017708,6.2977e-05,1.0244e+08,91.089,0,5.1164e+07,10.256,591.12,1
2044,2.06,12082,1,12082,1,7.9359e-05,-1.0446e-10,0,0.0002986,-1.4442e-05,3.5641,-27.263,0,8.9158e+07,0.80887,12081,13104,1,13104,1,0.0006449,4.7977e-10,0,0.0006449,9.1315e-05,1.4381e+08,117.99,0,1.9774e+08,15.275,13103,12082,1,12082,1,7.9359e-05,-8.7937e-11,0,0.00029324,-1.4406e-05,2.2369e+07,-23.981,0,8.8812e+07,0.76516,12081,10985,1,10985,1,-0.00048618,-5.9049e-10,0,1.6521e-05,-0.00012026,-1.9774e+08,-145.21,0,4.8472e+06,-19.184,10984,11571,1,11571,1,-0.00021388,-2.4287e-10,0,0.00014662,-6.9255e-05,-8.6978e+07,-64.42,0,4.6382e+07,-2.7151,11570,12593,1,12593,1,0.0003726,2.8197e-12,0,0.00043987,4.0328e-05,8.8812e+07,0.91081,0,1.2787e+08,5.047,12592,591.12,0,591.12,0,0.00033848,2.1298e-10,0,0.00017794,6.3283e-05,1.0294e+08,54.086,0,5.1412e+07,5.5611,591.12,1
2044,2.07,12082,1,12082,1,7.9746e-05,-3.5208e-11,0,0.00030005,-1.4512e-05,8.7734,-9.1213,0,8.9592e+07,-4.2037,12081,13104,1,13104,1,0.00064804,4.6246e-10,0,0.00064804,9.176e-05,1.4452e+08,106.07,0,1.987e+08,10.459,13103,12082,1,12082,1,7.9746e-05,-1.0036e-11,0,0.00029467,-1.4476e-05,2.2478e+07,-2.4187,0,8.9244e+07,-1.1931,12081,10985,1,10985,1,-0.00048855,-6.1434e-10,0,1.6602e-05,-0.00012084,-1.987e+08,-138.96,0,4.8708e+06,-40.546,10984,11571,1,11571,1,-0.00021493,-1.0009e-10,0,0.00014734,-6.9592e-05,-8.7402e+07,-25.363,0,4.6608e+07,-5.953,11570,12593,1,12593,1,0.00037442,3.0645e-11,0,0.00044201,4.0524e-05,8.9244e+07,8.4074,0,1.2849e+08,0.33375,12592,591.12,0,591.12,0,0.00034012,1.5405e-10,0,0.00017881,6.3591e-05,1.0344e+08,38.555,0,5.1663e+07,7.7955,591.12,1
2044,2.08,12082,1,12082,1,8.0131e-05,3.5287e-10,0,0.0003015,-1.4582e-05,-17.2,90.09,0,9.0025e+07,-0.76441,12081,13104,1,13104,1,0.00065117,8.6667e-10,0,0.00065117,9.2203e-05,1.4521e+08,209.03,0,1.9966e+08,13.065,13103,12082,1,12082,1,8.013e-05,3.4436e-10,0,0.00029609,-1.4546e-05,2.2587e+07,90.645,0,8.9675e+07,0.74973,12081,10985,1,10985,1,-0.00049091,-9.2547e-11,0,1.6682e-05,-0.00012142,-1.9966e+08,-31.69,0,4.8942e+06,-36.542,10984,11571,1,11571,1,-0.00021596,1.7108e-10,0,0.00014805,-6.9928e-05,-8.7824e+07,43.317,0,4.6833e+07,-3.0996,11570,12593,1,12593,1,0.00037622,5.2962e-10,0,0.00044414,4.072e-05,8.9675e+07,136.21,0,1.2911e+08,3.4636,12592,591.12,0,591.12,0,0.00034177,2.4666e-10,0,0.00017967,6.3898e-05,1.0394e+08,60.919,0,5.1912e+07,7.1266,591.12,1
2044,2.09,12082,1,12082,1,8.0515e-05,2.5811e-10,0,0.00030294,-1.4652e-05,-15.794,65.398,0,9.0457e+07,0.1439,12081,13104,1,13104,1,0.0006543,7.2231e-10,0,0.0006543,9.2645e-05,1.4591e+08,177.24,0,2.0062e+08,30.792,13103,12082,1,12082,1,8.0515e-05,2.4671e-10,0,0.00029751,-1.4615e-05,2.2695e+07,64.819,0,9.0105e+07,-0.88533,12081,10985,1,10985,1,-0.00049327,-1.3385e-10,0,1.6762e-05,-0.00012201,-2.0062e+08,-45.831,0,4.9177e+06,-24.138,10984,11571,1,11571,1,-0.000217,1.1102e-10,0,0.00014876,-7.0263e-05,-8.8245e+07,26.82,0,4.7058e+07,-4.6239,11570,12593,1,12593,1,0.00037803,3.9698e-10,0,0.00044627,4.0915e-05,9.0105e+07,103.53,0,1.2973e+08,2.3077,12592,591.12,0,591.12,0,0.0003434,2.0009e-10,0,0.00018053,6.4205e-05,1.0444e+08,49.113,0,5.2161e+07,8.2808,591.12,1
2044,2.1,12082,1,12082,1,8.0901e-05,-6.2347e-11,0,0.0003044,-1.4723e-05,-8.4682,-15.036,0,9.089e+07,-2.8583,12081,13104,1,13104,1,0.00065743,4.8757e-10,0,0.00065743,9.3089e-05,1.4661e+08,114.96,0,2.0158e+08,22.447,13103,12082,1,12082,1,8.0901e-05,2.0758e-11,0,0.00029894,-1.4685e-05,2.2804e+07,4.9347,0,9.0537e+07,-2.9573,12081,10985,1,10985,1,-0.00049563,-1.0831e-09,0,1.6842e-05,-0.00012259,-2.0158e+08,-270.03,0,4.9413e+06,-30.559,10984,11571,1,11571,1,-0.00021804,-2.2255e-10,0,0.00014947,-7.06e-05,-8.8668e+07,-57.7,0,4.7283e+07,-8.6236,11570,12593,1,12593,1,0.00037984,1.4638e-10,0,0.00044841,4.1111e-05,9.0537e+07,39.326,0,1.3035e+08,2.0808,12592,591.12,0,591.12,0,0.00034505,3.3073e-10,0,0.0001814,6.4512e-05,1.0494e+08,82.747,0,5.2411e+07,8.029,591.12,1
2044,2.11,12082,1,12082,1,8.1287e-05,4.5329e-11,0,0.00030585,-1.4793e-05,-1.1875,11.629,0,9.1324e+07,-6.6868,12081,13104,1,13104,1,0.00066057,1.2906e-09,0,0.00066057,9.3533e-05,1.4731e+08,305.89,0,2.0254e+08,16.365,13103,12082,1,12082,1,8.1287e-05,2.6628e-11,0,0.00030037,-1.4756e-05,2.2913e+07,7.0193,0,9.097e+07,-4.5787,12081,10985,1,10985,1,-0.00049799,-1.4658e-09,0,1.6923e-05,-0.00012318,-2.0254e+08,-346.73,0,4.9649e+06,-43.942,10984,11571,1,11571,1,-0.00021908,-1.8627e-10,0,0.00015018,-7.0937e-05,-8.9091e+07,-47.542,0,4.7509e+07,-12.343,11570,12593,1,12593,1,0.00038165,3.3191e-10,0,0.00045055,4.1307e-05,9.097e+07,86.221,0,1.3097e+08,2.7997,12592,591.12,0,591.12,0,0.0003467,4.8346e-10,0,0.00018226,6.482e-05,1.0544e+08,122.77,0,5.2661e+07,12.399,591.12,1
2044,2.12,12082,1,12082,1,8.1672e-05,2.8234e-10,0,0.0003073,-1.4863e-05,1.3919,72.567,0,9.1756e+07,-7.5962,12081,13104,1,13104,1,0.0006637,1.2264e-09,0,0.0006637,9.3976e-05,1.4801e+08,298.86,0,2.035e+08,20.021,13103,12082,1,12082,1,8.1672e-05,2.1931e-10,0,0.00030179,-1.4825e-05,2.3021e+07,55.822,0,9.14e+07,-4.3938,12081,10985,1,10985,1,-0.00050035,-7.875e-10,0,1.7003e-05,-0.00012376,-2.035e+08,-196.47,0,4.9884e+06,-41.982,10984,11571,1,11571,1,-0.00022012,-1.617e-11,0,0.00015089,-7.1273e-05,-8.9513e+07,-4.6697,0,4.7734e+07,-13.754,11570,12593,1,12593,1,0.00038346,6.1895e-10,0,0.00045268,4.1503e-05,9.14e+07,165.9,0,1.3159e+08,0.35275,12592,591.12,0,591.12,0,0.00034834,4.4325e-10,0,0.00018313,6.5127e-05,1.0594e+08,111.65,0,5.2911e+07,11.913,591.12,1
2044,2.13,12082,1,12082,1,8.2057e-05,-1.0306e-10,0,0.00030875,-1.4933e-05,-19.84,-26.211,0,9.2189e+07,0.55979,12081,13104,1,13104,1,0.00066682,2.2456e-11,0,0.00066682,9.4419e-05,1.487e+08,7.3879,0,2.0446e+08,5.2025,13103,12082,1,12082,1,8.2057e-05,-1.0842e-10,0,0.00030321,-1.4895e-05,2.313e+07,-29.503,0,9.1831e+07,1.3952,12081,10985,1,10985,1,-0.00050271,-2.1842e-10,0,1.7083e-05,-0.00012434,-2.0446e+08,-51.924,0,5.0119e+06,-21.456,10984,11571,1,11571,1,-0.00022115,-1.5683e-10,0,0.00015161,-7.1609e-05,-8.9935e+07,-38.033,0,4.7959e+07,0.54026,11570,12593,1,12593,1,0.00038527,-5.5162e-11,0,0.00045482,4.1698e-05,9.1831e+07,-14.497,0,1.3221e+08,2.4561,12592,591.12,0,591.12,0,0.00034998,6.118e-11,0,0.00018399,6.5434e-05,1.0644e+08,14.806,0,5.316e+07,3.7617,591.12,1
2044,2.14,12082,1,12082,1,8.2443e-05,7.626e-11,0,0.0003102,-1.5003e-05,6.462,19.986,0,9.2622e+07,-3.4173,12081,13104,1,13104,1,0.00066996,9.3786e-10,0,0.00066996,9.4863e-05,1.494e+08,221.64,0,2.0542e+08,12.737,13103,12082,1,12082,1,8.2443e-05,6.1554e-11,0,0.00030464,-1.4965e-05,2.3239e+07,16.938,0,9.2263e+07,-1.9044,12081,10985,1,10985,1,-0.00050507,-1.0446e-09,0,1.7163e-05,-0.00012493,-2.0542e+08,-252.35,0,5.0355e+06,-42.938,10984,11571,1,11571,1,-0.00022219,-6.2269e-11,0,0.00015232,-7.1946e-05,-9.0358e+07,-17.888,0,4.8184e+07,-6.4624,11570,12593,1,12593,1,0.00038708,2.7476e-10,0,0.00045696,4.1894e-05,9.2263e+07,71.599,0,1.3283e+08,2.963,12592,591.12,0,591.12,0,0.00035163,3.4584e-10,0,0.00018486,6.5742e-05,1.0694e+08,86.937,0,5.341e+07,8.8042,591.12,1
2044,2.15,12082,1,12082,1,8.2828e-05,7.3897e-11,0,0.00031165,-1.5073e-05,-3.9574,19.089,0,9.3055e+07,-5.5099,12081,13104,1,13104,1,0.00067309,8.8974e-10,0,0.00067309,9.5306e-05,1.501e+08,210.64,0,2.0638e+08,11.876,13103,12082,1,12082,1,8.2828e-05,7.2768e-11,0,0.00030606,-1.5035e-05,2.3347e+07,18.522,0,9.2694e+07,-4.2428,12081,10985,1,10985,1,-0.00050743,-1.2068e-09,0,1.7243e-05,-0.00012551,-2.0638e+08,-291.81,0,5.059e+06,-60.692,10984,11571,1,11571,1,-0.00022323,-8.2267e-11,0,0.00015303,-7.2282e-05,-9.078e+07,-21.71,0,4.841e+07,-9.0453,11570,12593,1,12593,1,0.00038889,3.2389e-10,0,0.00045909,4.209e-05,9.2694e+07,85.622,0,1.3346e+08,1.1841,12592,591.12,0,591.12,0,0.00035327,3.8878e-10,0,0.00018572,6.6049e-05,1.0744e+08,98.254,0,5.366e+07,10.048,591.12,1
2044,2.16,12082,1,12082,1,8.3213e-05,1.997e-10,0,0.00031309,-1.5143e-05,-39.958,50.44,0,9.3487e+07,-2.4087,12081,13104,1,13104,1,0.00067622,1.0075e-09,0,0.00067622,9.5749e-05,1.508e+08,245.85,0,2.0734e+08,12.559,13103,12082,1,12082,1,8.3212e-05,1.1295e-10,0,0.00030748,-1.5105e-05,2.3456e+07,29.781,0,9.3124e+07,-0.77798,12081,10985,1,10985,1,-0.00050979,-4.9612e-10,0,1.7323e-05,-0.00012609,-2.0734e+08,-115.32,0,5.0825e+06,-24.855,10984,11571,1,11571,1,-0.00022427,-4.3122e-11,0,0.00015374,-7.2617e-05,-9.1201e+07,-11.933,0,4.8634e+07,-7.9496,11570,12593,1,12593,1,0.00039069,4.5077e-10,0,0.00046122,4.2286e-05,9.3124e+07,118.08,0,1.3408e+08,3.1845,12592,591.12,0,591.12,0,0.00035491,3.4012e-10,0,0.00018658,6.6356e-05,1.0794e+08,85.274,0,5.3909e+07,7.0858,591.12,1
2044,2.17,12082,1,12082,1,8.3598e-05,1.5224e-10,0,0.00031455,-1.5213e-05,4.1109,38.459,0,9.392e+07,-0.95132,12081,13104,1,13104,1,0.00067935,5.8824e-10,0,0.00067935,9.6192e-05,1.515e+08,143.79,0,2.083e+08,20.874,13103,12082,1,12082,1,8.3598e-05,1.2112e-10,0,0.00030891,-1.5175e-05,2.3564e+07,30.238,0,9.3556e+07,0.0006636,12081,10985,1,10985,1,-0.00051215,-2.7654e-10,0,1.7404e-05,-0.00012668,-2.083e+08,-62.007,0,5.1061e+06,-35.157,10984,11571,1,11571,1,-0.00022531,-3.7138e-11,0,0.00015445,-7.2954e-05,-9.1624e+07,-9.0396,0,4.886e+07,-4.1091,11570,12593,1,12593,1,0.0003925,3.1532e-10,0,0.00046336,4.2482e-05,9.3556e+07,84.26,0,1.347e+08,2.9684,12592,591.12,0,591.12,0,0.00035655,2.095e-10,0,0.00018745,6.6663e-05,1.0844e+08,52.389,0,5.4159e+07,6.4709,591.12,1
2044,2.18,12082,1,12082,1,8.3984e-05,1.6153e-10,0,0.000316,-1.5284e-05,6.4389,41.805,0,9.4353e+07,-5.4222,12081,13104,1,13104,1,0.00068248,1.011e-09,0,0.00068248,9.6636e-05,1.5219e+08,237.33,0,2.0926e+08,7.5548,13103,12082,1,12082,1,8.3983e-05,1.0968e-10,0,0.00031033,-1.5245e-05,2.3673e+07,26.498,0,9.3987e+07,-3.9174,12081,10985,1,10985,1,-0.00051451,-6.1923e-10,0,1.7484e-05,-0.00012726,-2.0926e+08,-141.68,0,5.1296e+06,-48.571,10984,11571,1,11571,1,-0.00022635,-3.0784e-11,0,0.00015517,-7.329e-05,-9.2046e+07,-8.2849,0,4.9085e+07,-9.3311,11570,12593,1,12593,1,0.00039431,3.7839e-10,0,0.0004655,4.2677e-05,9.3987e+07,99.997,0,1.3532e+08,1.3218,12592,591.12,0,591.12,0,0.0003582,3.2486e-10,0,0.00018831,6.6971e-05,1.0894e+08,81.778,0,5.4408e+07,8.9431,591.12,1
2044,2.19,12082,1,12082,1,8.4369e-05,2.0075e-11,0,0.00031745,-1.5354e-05,9.3883,5.9595,0,9.4787e+07,-5.3985,12081,13104,1,13104,1,0.00068561,1.0332e-09,0,0.00068561,9.708e-05,1.5289e+08,238.89,0,2.1022e+08,13.71,13103,12082,1,12082,1,8.4369e-05,3.7746e-11,0,0.00031176,-1.5315e-05,2.3782e+07,9.9395,0,9.4419e+07,-4.5192,12081,10985,1,10985,1,-0.00051688,-1.2874e-09,0,1.7564e-05,-0.00012785,-2.1022e+08,-294.45,0,5.1532e+06,-50.19,10984,11571,1,11571,1,-0.00022739,-1.7404e-10,0,0.00015588,-7.3627e-05,-9.2469e+07,-44.345,0,4.931e+07,-10.628,11570,12593,1,12593,1,0.00039613,2.6596e-10,0,0.00046763,4.2873e-05,9.4419e+07,69.837,0,1.3594e+08,1.791,12592,591.12,0,591.12,0,0.00035984,4.1117e-10,0,0.00018918,6.7278e-05,1.0944e+08,102.26,0,5.4658e+07,9.7406,591.12,1
2044,2.2,12082,1,12082,1,8.4754e-05,9.2646e-11,0,0.0003189,-1.5424e-05,12.296,23.846,0,9.5219e+07,-4.675,12081,13104,1,13104,1,0.00068874,9.1757e-10,0,0.00068874,9.7523e-05,1.5359e+08,211.96,0,2.1118e+08,12.88,13103,12082,1,12082,1,8.4754e-05,7.5799e-11,0,0.00031318,-1.5385e-05,2.389e+07,18.59,0,9.485e+07,-3.0624,12081,10985,1,10985,1,-0.00051923,-9.8485e-10,0,1.7645e-05,-0.00012843,-2.1118e+08,-228.11,0,5.1767e+06,-45.126,10984,11571,1,11571,1,-0.00022842,-5.6469e-11,0,0.00015659,-7.3963e-05,-9.2891e+07,-14.774,0,4.9535e+07,-7.6632,11570,12593,1,12593,1,0.00039793,3.0295e-10,0,0.00046977,4.3069e-05,9.485e+07,79.486,0,1.3656e+08,1.6143,12592,591.12,0,591.12,0,0.00036149,3.3426e-10,0,0.00019004,6.7585e-05,1.0994e+08,83.792,0,5.4908e+07,8.7521,591.12,1
2044,2.21,12082,1,12082,1,8.5137e-05,-8.6814e-11,0,0.00032034,-1.5494e-05,2.4784,-22.148,0,9.5649e+07,-2.2934,12081,13104,1,13104,1,0.00069186,5.1126e-10,0,0.00069186,9.7963e-05,1.5429e+08,133.05,0,2.1214e+08,10.488,13103,12082,1,12082,1,8.5137e-05,-5.2434e-11,0,0.00031459,-1.5455e-05,2.3998e+07,-14.222,0,9.5278e+07,-0.51541,12081,10985,1,10985,1,-0.00052158,-4.9046e-10,0,1.7724e-05,-0.00012901,-2.1214e+08,-120.08,0,5.2001e+06,-73.552,10984,11571,1,11571,1,-0.00022946,-2.238e-10,0,0.0001573,-7.4297e-05,-9.3311e+07,-57.995,0,4.9759e+07,-3.3478,11570,12593,1,12593,1,0.00039973,2.5313e-11,0,0.00047189,4.3264e-05,9.5278e+07,5.9661,0,1.3718e+08,2.9167,12592,591.12,0,591.12,0,0.00036312,1.8954e-10,0,0.0001909,6.789e-05,1.1043e+08,48.404,0,5.5156e+07,9.8922,591.12,1
2044,2.22,12082,1,12082,1,8.5525e-05,1.987e-10,0,0.0003218,-1.5564e-05,1.2599,51.03,0,9.6086e+07,-2.4315,12081,13104,1,13104,1,0.00069501,2.1065e-09,0,0.00069501,9.841e-05,1.5499e+08,516.77,0,2.131e+08,49.744,13103,12082,1,12082,1,8.5525e-05,1.1944e-10,0,0.00031603,-1.5525e-05,2.4108e+07,32.264,0,9.5712e+07,2.3461,12081,10985,1,10985,1,-0.00052396,-2.4659e-09,0,1.7805e-05,-0.0001296,-2.131e+08,-605,0,5.2238e+06,-388.25,10984,11571,1,11571,1,-0.0002305,-1.4905e-10,0,0.00015801,-7.4636e-05,-9.3736e+07,-43.169,0,4.9986e+07,-14.117,11570,12593,1,12593,1,0.00040155,6.5777e-10,0,0.00047404,4.3461e-05,9.5712e+07,176.16,0,1.378e+08,13.301,12592,591.12,0,591.12,0,0.00036477,7.7313e-10,0,0.00019177,6.82e-05,1.1094e+08,189.38,0,5.5407e+07,35.001,591.12,1
2044,2.23,12082,1,12082,1,8.591e-05,1.6474e-10,0,0.00032324,-1.5634e-05,11.215,42.141,0,9.6518e+07,1.6212,12081,13104,1,13104,1,0.00069814,1.3448e-09,0,0.00069814,9.8853e-05,1.5569e+08,329.95,0,2.1406e+08,33.922,13103,12082,1,12082,1,8.591e-05,1.2911e-10,0,0.00031745,-1.5595e-05,2.4216e+07,34.612,0,9.6143e+07,2.0666,12081,10985,1,10985,1,-0.00052632,-1.2421e-09,0,1.7885e-05,-0.00013018,-2.1406e+08,-304.73,0,5.2473e+06,-103.48,10984,11571,1,11571,1,-0.00023154,2.0201e-11,0,0.00015872,-7.4971e-05,-9.4158e+07,5.3981,0,5.0211e+07,-4.7979,11570,12593,1,12593,1,0.00040336,3.1329e-10,0,0.00047617,4.3656e-05,9.6143e+07,84.572,0,1.3842e+08,8.3733,12592,591.12,0,591.12,0,0.00036642,3.5478e-10,0,0.00019263,6.8507e-05,1.1144e+08,85.192,0,5.5656e+07,12.597,591.12,1
2044,2.24,12082,1,12082,1,8.6293e-05,1.2377e-10,0,0.00032469,-1.5704e-05,-22.825,31.332,0,9.6948e+07,5.2815,12081,13104,1,13104,1,0.00070125,5.4217e-10,0,0.00070125,9.9294e-05,1.5638e+08,133.05,0,2.1502e+08,27.544,13103,12082,1,12082,1,8.6293e-05,1.137e-10,0,0.00031887,-1.5664e-05,2.4324e+07,29.513,0,9.6572e+07,3.6285,12081,10985,1,10985,1,-0.00052866,-2.0427e-10,0,1.7965e-05,-0.00013076,-2.1502e+08,-67.313,0,5.2707e+06,-15.657,10984,11571,1,11571,1,-0.00023257,2.9894e-11,0,0.00015943,-7.5306e-05,-9.4578e+07,8.0577,0,5.0435e+07,1.4473,11570,12593,1,12593,1,0.00040516,1.8641e-10,0,0.0004783,4.3851e-05,9.6572e+07,49.525,0,1.3904e+08,8.3471,12592,591.12,0,591.12,0,0.00036805,1.1988e-10,0,0.00019349,6.8813e-05,1.1193e+08,30.171,0,5.5905e+07,6.8765,591.12,1
2044,2.25,12082,1,12082,1,8.6681e-05,2.4573e-10,0,0.00032614,-1.5774e-05,-4.1572,62.778,0,9.7383e+07,-2.999,12081,13104,1,13104,1,0.0007044,1.3231e-09,0,0.0007044,9.9739e-05,1.5708e+08,325.88,0,2.1598e+08,20.279,13103,12082,1,12082,1,8.668e-05,1.7384e-10,0,0.0003203,-1.5735e-05,2.4433e+07,44.593,0,9.7005e+07,-1.1756,12081,10985,1,10985,1,-0.00053104,-1.1519e-09,0,1.8045e-05,-0.00013135,-2.1598e+08,-284.08,0,5.2943e+06,-25.188,10984,11571,1,11571,1,-0.00023362,-5.8903e-11,0,0.00016015,-7.5644e-05,-9.5002e+07,-12.581,0,5.0661e+07,-9.5146,11570,12593,1,12593,1,0.00040698,6.099e-10,0,0.00048044,4.4048e-05,9.7005e+07,158.63,0,1.3966e+08,3.3872,12592,591.12,0,591.12,0,0.0003697,5.1597e-10,0,0.00019436,6.9121e-05,1.1243e+08,129.86,0,5.6155e+07,9.4193,591.12,1
2044,2.26,12082,1,12082,1,8.7066e-05,1.8635e-10,0,0.00032759,-1.5845e-05,-40.15,47.993,0,9.7816e+07,-4.8044,12081,13104,1,13104,1,0.00070753,1.274e-09,0,0.00070753,0.00010018,1.5778e+08,307.19,0,2.1694e+08,25.346,13103,12082,1,12082,1,8.7066e-05,1.2535e-10,0,0.00032172,-1.5805e-05,2.4542e+07,31.614,0,9.7436e+07,-2.7573,12081,10985,1,10985,1,-0.0005334,-1.3637e-09,0,1.8126e-05,-0.00013193,-2.1694e+08,-321.26,0,5.3178e+06,-35.053,10984,11571,1,11571,1,-0.00023465,-1.1502e-10,0,0.00016086,-7.598e-05,-9.5425e+07,-32.069,0,5.0886e+07,-12.461,11570,12593,1,12593,1,0.00040879,5.8404e-10,0,0.00048258,4.4244e-05,9.7436e+07,154.91,0,1.4028e+08,3.4483,12592,591.12,0,591.12,0,0.00037135,5.517e-10,0,0.00019522,6.9428e-05,1.1293e+08,139.28,0,5.6405e+07,11.095,591.12,1
2044,2.27,12082,1,12082,1,8.7451e-05,-1.5848e-11,0,0.00032904,-1.5915e-05,-10.302,-3.88,0,9.8249e+07,-5.594,12081,13104,1,13104,1,0.00071066,1.2206e-09,0,0.00071066,0.00010063,1.5848e+08,283.23,0,2.179e+08,18.743,13103,12082,1,12082,1,8.7451e-05,2.6683e-11,0,0.00032314,-1.5875e-05,2.465e+07,6.0312,0,9.7868e+07,-5.1286,12081,10985,1,10985,1,-0.00053576,-1.5448e-09,0,1.8206e-05,-0.00013252,-2.179e+08,-360.87,0,5.3414e+06,-45.447,10984,11571,1,11571,1,-0.00023569,-2.888e-10,0,0.00016157,-7.6316e-05,-9.5847e+07,-75.28,0,5.1112e+07,-13.404,11570,12593,1,12593,1,0.00041059,3.0964e-10,0,0.00048472,4.444e-05,9.7868e+07,80.308,0,1.409e+08,3.044,12592,591.12,0,591.12,0,0.00037299,5.2351e-10,0,0.00019609,6.9736e-05,1.1343e+08,131.64,0,5.6655e+07,11.581,591.12,1
2044,2.28,12082,1,12082,1,8.7835e-05,4.3503e-10,0,0.00033049,-1.5985e-05,-38.683,111.13,0,9.8681e+07,-7.2022,12081,13104,1,13104,1,0.00071378,1.6697e-09,0,0.00071378,0.00010107,1.5918e+08,402.73,0,2.1886e+08,19.724,13103,12082,1,12082,1,8.7835e-05,3.4928e-10,0,0.00032456,-1.5944e-05,2.4759e+07,89.626,0,9.8297e+07,-3.8237,12081,10985,1,10985,1,-0.00053811,-6.6374e-10,0,1.8286e-05,-0.0001331,-2.1886e+08,-151.19,0,5.3648e+06,-40.916,10984,11571,1,11571,1,-0.00023673,4.2972e-12,0,0.00016228,-7.6651e-05,-9.6268e+07,1.1937,0,5.1336e+07,-17.741,11570,12593,1,12593,1,0.0004124,8.4026e-10,0,0.00048684,4.4635e-05,9.8297e+07,224.18,0,1.4152e+08,2.8619,12592,591.12,0,591.12,0,0.00037463,5.3647e-10,0,0.00019695,7.0042e-05,1.1393e+08,134.31,0,5.6904e+07,12.878,591.12,1
2044,2.29,12082,1,12082,1,8.8221e-05,1.8085e-10,0,0.00033194,-1.6055e-05,-15.561,46.426,0,9.9114e+07,-2.3489,12081,13104,1,13104,1,0.00071691,6.5538e-10,0,0.00071691,0.00010151,1.5987e+08,151.6,0,2.1982e+08,5.2051,13103,12082,1,12082,1,8.8221e-05,1.293e-10,0,0.00032599,-1.6014e-05,2.4867e+07,33.878,0,9.8729e+07,-1.3111,12081,10985,1,10985,1,-0.00054047,-1.5717e-10,0,1.8366e-05,-0.00013368,-2.1982e+08,-33.447,0,5.3884e+06,-28.316,10984,11571,1,11571,1,-0.00023777,2.0631e-11,0,0.00016299,-7.6988e-05,-9.669e+07,5.8895,0,5.1562e+07,-5.5264,11570,12593,1,12593,1,0.00041421,3.1523e-10,0,0.00048898,4.4831e-05,9.8729e+07,82.893,0,1.4214e+08,1.3075,12592,591.12,0,591.12,0,0.00037627,1.9161e-10,0,0.00019781,7.0349e-05,1.1443e+08,47.705,0,5.7153e+07,4.9179,591.12,1
2044,2.3,12082,1,12082,1,8.8607e-05,1.56e-10,0,0.00033339,-1.6125e-05,-8.8971,39.886,0,9.9547e+07,-10.63,12081,13104,1,13104,1,0.00072005,1.3609e-09,0,0.00072005,0.00010196,1.6057e+08,322.19,0,2.2078e+08,14.258,13103,12082,1,12082,1,8.8607e-05,1.0059e-10,0,0.00032741,-1.6084e-05,2.4976e+07,25.673,0,9.9161e+07,-7.074,12081,10985,1,10985,1,-0.00054284,-1.1781e-09,0,1.8447e-05,-0.00013427,-2.2078e+08,-273.76,0,5.412e+06,-66.066,10984,11571,1,11571,1,-0.00023881,-6.7902e-11,0,0.00016371,-7.7325e-05,-9.7113e+07,-17.02,0,5.1787e+07,-16.154,11570,12593,1,12593,1,0.00041602,4.2645e-10,0,0.00049112,4.5027e-05,9.9161e+07,113.02,0,1.4277e+08,0.24568,12592,591.12,0,591.12,0,0.00037792,4.6339e-10,0,0.00019868,7.0657e-05,1.1493e+08,115.85,0,5.7403e+07,14.861,591.12,1
2044,2.31,12082,1,12082,1,8.8992e-05,9.5624e-11,0,0.00033484,-1.6195e-05,4.3954,24.465,0,9.998e+07,-4.6247,12081,13104,1,13104,1,0.00072318,6.9616e-10,0,0.00072318,0.0001024,1.6127e+08,159.54,0,2.2174e+08,7.6828,13103,12082,1,12082,1,8.8991e-05,5.7742e-11,0,0.00032884,-1.6154e-05,2.5085e+07,14.982,0,9.9591e+07,-3.0917,12081,10985,1,10985,1,-0.00054519,-6.7719e-10,0,1.8527e-05,-0.00013485,-2.2174e+08,-152.88,0,5.4355e+06,-46.482,10984,11571,1,11571,1,-0.00023984,-3.2704e-11,0,0.00016442,-7.7661e-05,-9.7535e+07,-9.2781,0,5.2012e+07,-6.2629,11570,12593,1,12593,1,0.00041783,2.5276e-10,0,0.00049325,4.5222e-05,9.9591e+07,66.493,0,1.4339e+08,0.50204,12592,591.12,0,591.12,0,0.00037956,2.4219e-10,0,0.00019954,7.0964e-05,1.1543e+08,59.962,0,5.7653e+07,7.7502,591.12,1
2044,2.32,12082,1,12082,1,8.9377e-05,-9.1521e-11,0,0.00033629,-1.6265e-05,-0.057432,-22.647,0,1.0041e+08,-3.8315,12081,13104,1,13104,1,0.00072631,5.0706e-10,0,0.00072631,0.00010284,1.6197e+08,116.08,0,2.227e+08,30.335,13103,12082,1,12082,1,8.9377e-05,-9.924e-12,0,0.00033026,-1.6224e-05,2.5193e+07,-2.7228,0,1.0002e+08,-4.2133,12081,10985,1,10985,1,-0.00054755,-1.2782e-09,0,1.8607e-05,-0.00013544,-2.227e+08,-297.31,0,5.459e+06,-31.682,10984,11571,1,11571,1,-0.00024088,-2.1779e-10,0,0.00016513,-7.7997e-05,-9.7957e+07,-55.369,0,5.2237e+07,-8.6495,11570,12593,1,12593,1,0.00041964,8.414e-11,0,0.00049539,4.5418e-05,1.0002e+08,23.382,0,1.4401e+08,0.010545,12592,591.12,0,591.12,0,0.0003812,3.0914e-10,0,0.0002004,7.1271e-05,1.1593e+08,76.368,0,5.7902e+07,7.7932,591.12,1
2044,2.33,12082,1,12082,1,8.9762e-05,3.9256e-10,0,0.00033774,-1.6335e-05,-6.5163,100.23,0,1.0084e+08,-5.415,12081,13104,1,13104,1,0.00072944,1.6041e-09,0,0.00072944,0.00010328,1.6267e+08,387.48,0,2.2366e+08,18.658,13103,12082,1,12082,1,8.9761e-05,2.8703e-10,0,0.00033168,-1.6294e-05,2.5302e+07,72.942,0,1.0045e+08,-2.4607,12081,10985,1,10985,1,-0.00054991,-7.411e-10,0,1.8687e-05,-0.00013602,-2.2366e+08,-175.96,0,5.4825e+06,-45.581,10984,11571,1,11571,1,-0.00024192,8.5994e-12,0,0.00016584,-7.8333e-05,-9.8379e+07,2.7346,0,5.2462e+07,-14.286,11570,12593,1,12593,1,0.00042144,7.8852e-10,0,0.00049752,4.5614e-05,1.0045e+08,208.86,0,1.4463e+08,3.816,12592,591.12,0,591.12,0,0.00038284,5.2946e-10,0,0.00020127,7.1578e-05,1.1643e+08,133.5,0,5.8152e+07,11.751,591.12,1
2044,2.34,12082,1,12082,1,9.0147e-05,1.2191e-10,0,0.00033919,-1.6405e-05,6.9883,31.48,0,1.0128e+08,-5.8651,12081,13104,1,13104,1,0.00073257,9.7305e-10,0,0.00073257,0.00010373,1.6337e+08,228.08,0,2.2462e+08,9.5551,13103,12082,1,12082,1,9.0147e-05,7.7919e-11,0,0.00033311,-1.6364e-05,2.541e+07,19.781,0,1.0089e+08,-5.2669,12081,10985,1,10985,1,-0.00055227,-8.5352e-10,0,1.8767e-05,-0.0001366,-2.2462e+08,-198.15,0,5.5061e+06,-39.753,10984,11571,1,11571,1,-0.00024296,-4.7728e-11,0,0.00016655,-7.8669e-05,-9.8802e+07,-12.045,0,5.2688e+07,-9.847,11570,12593,1,12593,1,0.00042325,3.4241e-10,0,0.00049966,4.581e-05,1.0089e+08,90.815,0,1.4525e+08,0.41661,12592,591.12,0,591.12,0,0.00038449,3.486e-10,0,0.00020213,7.1886e-05,1.1693e+08,87.617,0,5.8401e+07,8.1654,591.12,1
2044,2.35,12082,1,12082,1,9.0533e-05,-1.4257e-10,0,0.00034064,-1.6476e-05,11.727,-36.913,0,1.0171e+08,-5.4233,12081,13104,1,13104,1,0.0007357,7.6657e-10,0,0.0007357,0.00010417,1.6406e+08,178.56,0,2.2558e+08,11.048,13103,12082,1,12082,1,9.0533e-05,-8.0315e-11,0,0.00033453,-1.6434e-05,2.5519e+07,-20.927,0,1.0132e+08,-3.3277,12081,10985,1,10985,1,-0.00055464,-1.2132e-09,0,1.8848e-05,-0.00013719,-2.2558e+08,-289.62,0,5.5296e+06,-40.805,10984,11571,1,11571,1,-0.000244,-3.3918e-10,0,0.00016727,-7.9006e-05,-9.9224e+07,-87.54,0,5.2913e+07,-11.019,11570,12593,1,12593,1,0.00042506,4.5901e-11,0,0.0005018,4.6006e-05,1.0132e+08,12.174,0,1.4587e+08,1.5631,12592,591.12,0,591.12,0,0.00038613,3.4845e-10,0,0.000203,7.2193e-05,1.1743e+08,87.679,0,5.8651e+07,9.3102,591.12,1
2044,2.36,12082,1,12082,1,9.0918e-05,-1.8273e-10,0,0.00034209,-1.6546e-05,5.6303,-46.227,0,1.0214e+08,-10.609,12081,13104,1,13104,1,0.00073883,7.2165e-10,0,0.00073883,0.00010461,1.6476e+08,166.25,0,2.2654e+08,17.842,13103,12082,1,12082,1,9.0918e-05,-3.3557e-11,0,0.00033595,-1.6504e-05,2.5628e+07,-9.3941,0,1.0175e+08,-7.2396,12081,10985,1,10985,1,-0.000557,-1.8513e-09,0,1.8928e-05,-0.00013777,-2.2654e+08,-428.3,0,5.5532e+06,-75.101,10984,11571,1,11571,1,-0.00024504,-3.9092e-10,0,0.00016798,-7.9342e-05,-9.9646e+07,-101.11,0,5.3138e+07,-15.445,11570,12593,1,12593,1,0.00042687,1.0713e-10,0,0.00050393,4.6201e-05,1.0175e+08,28.605,0,1.4649e+08,0.09766,12592,591.12,0,591.12,0,0.00038777,4.8492e-10,0,0.00020386,7.25e-05,1.1793e+08,121.88,0,5.8901e+07,14.185,591.12,1
2044,2.37,12082,1,12082,1,9.1301e-05,2.0799e-10,0,0.00034353,-1.6615e-05,-2.5874,52.897,0,1.0257e+08,2.6403,12081,13104,1,13104,1,0.00074195,1.491e-09,0,0.00074195,0.00010506,1.6546e+08,364.93,0,2.2749e+08,36.129,13103,12082,1,12082,1,9.1301e-05,7.8683e-11,0,0.00033737,-1.6573e-05,2.5735e+07,20.537,0,1.0218e+08,2.3969,12081,10985,1,10985,1,-0.00055934,-4.6198e-10,0,1.9007e-05,-0.00013835,-2.2749e+08,-113.84,0,5.5765e+06,-35.394,10984,11571,1,11571,1,-0.00024607,-4.5828e-11,0,0.00016868,-7.9676e-05,-1.0007e+08,-11.177,0,5.3362e+07,-3.0546,11570,12593,1,12593,1,0.00042867,3.9921e-10,0,0.00050605,4.6396e-05,1.0218e+08,101.14,0,1.4711e+08,9.3846,12592,591.12,0,591.12,0,0.00038941,3.8843e-10,0,0.00020472,7.2805e-05,1.1843e+08,99.13,0,5.9149e+07,10.181,591.12,1
2044,2.38,12082,1,12082,1,9.1688e-05,1.5135e-10,0,0.00034498,-1.6686e-05,1.8057,38.98,0,1.0301e+08,-3.6883,12081,13104,1,13104,1,0.00074509,7.6979e-10,0,0.00074509,0.0001055,1.6616e+08,183.22,0,2.2846e+08,10.909,13103,12082,1,12082,1,9.1688e-05,1.1329e-10,0,0.0003388,-1.6644e-05,2.5845e+07,29.211,0,1.0261e+08,-1.6627,12081,10985,1,10985,1,-0.00056171,-6.6162e-10,0,1.9088e-05,-0.00013894,-2.2846e+08,-154.25,0,5.6002e+06,-33.733,10984,11571,1,11571,1,-0.00024711,-3.0775e-11,0,0.0001694,-8.0014e-05,-1.0049e+08,-9.0441,0,5.3588e+07,-8.2763,11570,12593,1,12593,1,0.00043049,3.8948e-10,0,0.0005082,4.6593e-05,1.0261e+08,102.56,0,1.4773e+08,1.8072,12592,591.12,0,591.12,0,0.00039106,3.1675e-10,0,0.00020559,7.3114e-05,1.1893e+08,79.866,0,5.94e+07,7.5202,591.12,1
2044,2.39,12082,1,12082,1,9.2074e-05,1.7885e-11,0,0.00034644,-1.6756e-05,7.0053,4.4474,0,1.0344e+08,-5.5766,12081,13104,1,13104,1,0.00074822,1.0146e-09,0,0.00074822,0.00010594,1.6686e+08,238.77,0,2.2942e+08,13.636,13103,12082,1,12082,1,9.2074e-05,2.2757e-11,0,0.00034023,-1.6714e-05,2.5953e+07,6.0614,0,1.0304e+08,-4.0221,12081,10985,1,10985,1,-0.00056408,-1.1361e-09,0,1.9168e-05,-0.00013952,-2.2942e+08,-270.48,0,5.6238e+06,-44.041,10984,11571,1,11571,1,-0.00024815,-2.1599e-10,0,0.00017011,-8.035e-05,-1.0091e+08,-55.899,0,5.3813e+07,-11.04,11570,12593,1,12593,1,0.0004323,2.7935e-10,0,0.00051034,4.6789e-05,1.0304e+08,73.112,0,1.4835e+08,2.255,12592,591.12,0,591.12,0,0.0003927,4.1054e-10,0,0.00020645,7.3422e-05,1.1943e+08,104.36,0,5.9649e+07,10.34,591.12,1
2044,2.4,12082,1,12082,1,9.2459e-05,-4.4819e-11,0,0.00034789,-1.6826e-05,16.741,-11.348,0,1.0388e+08,-5.5989,12081,13104,1,13104,1,0.00075135,7.3194e-10,0,0.00075135,0.00010639,1.6755e+08,170.76,0,2.3038e+08,8.9665,13103,12082,1,12082,1,9.2459e-05,-3.965e-13,0,0.00034165,-1.6784e-05,2.6062e+07,-0.10566,0,1.0347e+08,-4.3093,12081,10985,1,10985,1,-0.00056644,-1.1182e-09,0,1.9249e-05,-0.00014011,-2.3038e+08,-258.6,0,5.6473e+06,-44.271,10984,11571,1,11571,1,-0.00024919,-1.982e-10,0,0.00017082,-8.0687e-05,-1.0134e+08,-52.522,0,5.4039e+07,-9.3571,11570,12593,1,12593,1,0.00043411,1.527e-10,0,0.00051247,4.6984e-05,1.0347e+08,40.621,0,1.4897e+08,1.168,12592,591.12,0,591.12,0,0.00039435,3.3423e-10,0,0.00020731,7.3729e-05,1.1993e+08,84.395,0,5.9899e+07,8.602,591.12,1
2044,2.41,12082,1,12082,1,9.2845e-05,1.5688e-10,0,0.00034934,-1.6896e-05,-2.3189,40.193,0,1.0431e+08,-2.071,12081,13104,1,13104,1,0.00075449,1.5267e-09,0,0.00075449,0.00010683,1.6825e+08,358.04,0,2.3134e+08,28.48,13103,12082,1,12082,1,9.2845e-05,1.1893e-10,0,0.00034307,-1.6854e-05,2.6171e+07,31.86,0,1.039e+08,-1.5492,12081,10985,1,10985,1,-0.0005688,-1.646e-09,0,1.9329e-05,-0.00014069,-2.3134e+08,-392.74,0,5.6708e+06,-38.497,10984,11571,1,11571,1,-0.00025023,-1.7436e-10,0,0.00017154,-8.1023e-05,-1.0176e+08,-44.884,0,5.4264e+07,-10.946,11570,12593,1,12593,1,0.00043592,5.8464e-10,0,0.00051461,4.718e-05,1.039e+08,157.82,0,1.496e+08,7.3159,12592,591.12,0,591.12,0,0.00039599,6.2804e-10,0,0.00020818,7.4037e-05,1.2043e+08,159.12,0,6.0149e+07,12.98,591.12,1
2044,2.42,12082,1,12082,1,9.3229e-05,4.5806e-12,0,0.00035078,-1.6966e-05,-13.414,1.3323,0,1.0474e+08,-10.173,12081,13104,1,13104,1,0.00075762,1.0582e-09,0,0.00075762,0.00010727,1.6895e+08,241.7,0,2.323e+08,24.339,13103,12082,1,12082,1,9.3229e-05,5.665e-11,0,0.0003445,-1.6923e-05,2.6279e+07,14.76,0,1.0433e+08,-7.4819,12081,10985,1,10985,1,-0.00057116,-1.6909e-09,0,1.9409e-05,-0.00014127,-2.323e+08,-402.41,0,5.6943e+06,-58.08,10984,11571,1,11571,1,-0.00025127,-2.3291e-10,0,0.00017225,-8.1359e-05,-1.0218e+08,-59.207,0,5.4489e+07,-16.471,11570,12593,1,12593,1,0.00043772,3.394e-10,0,0.00051674,4.7376e-05,1.0433e+08,88.992,0,1.5021e+08,0.18923,12592,591.12,0,591.12,0,0.00039763,5.2348e-10,0,0.00020904,7.4343e-05,1.2093e+08,131.27,0,6.0398e+07,14.716,591.12,1
2044,2.43,12082,1,12082,1,9.3615e-05,6.3279e-11,0,0.00035223,-1.7036e-05,34.559,16.301,0,1.0517e+08,-6.4793,12081,13104,1,13104,1,0.00076075,9.8418e-10,0,0.00076075,0.00010772,1.6965e+08,229.6,0,2.3326e+08,15.746,13103,12082,1,12082,1,9.3615e-05,5.699e-11,0,0.00034592,-1.6993e-05,2.6388e+07,14.647,0,1.0477e+08,-5.1811,12081,10985,1,10985,1,-0.00057352,-1.1348e-09,0,1.9489e-05,-0.00014186,-2.3326e+08,-268.54,0,5.7179e+06,-48.541,10984,11571,1,11571,1,-0.0002523,-1.0184e-10,0,0.00017296,-8.1695e-05,-1.026e+08,-26.339,0,5.4714e+07,-11.929,11570,12593,1,12593,1,0.00043953,2.7527e-10,0,0.00051888,4.7572e-05,1.0477e+08,72.869,0,1.5084e+08,0.72898,12592,591.12,0,591.12,0,0.00039928,3.6465e-10,0,0.00020991,7.4651e-05,1.2143e+08,90.986,0,6.0648e+07,11.297,591.12,1
2044,2.44,12082,1,12082,1,9.4e-05,7.285e-11,0,0.00035368,-1.7106e-05,6.5953,19.594,0,1.0561e+08,-6.8191,12081,13104,1,13104,1,0.00076388,9.9872e-10,0,0.00076388,0.00010816,1.7035e+08,232.44,0,2.3422e+08,10.823,13103,12082,1,12082,1,9.4e-05,4.8361e-11,0,0.00034734,-1.7063e-05,2.6496e+07,13.562,0,1.052e+08,-5.2486,12081,10985,1,10985,1,-0.00057588,-9.9399e-10,0,1.9569e-05,-0.00014244,-2.3422e+08,-222.81,0,5.7414e+06,-47.03,10984,11571,1,11571,1,-0.00025334,-8.0209e-11,0,0.00017367,-8.2031e-05,-1.0302e+08,-22.075,0,5.4939e+07,-10.051,11570,12593,1,12593,1,0.00044134,2.6764e-10,0,0.00052101,4.7767e-05,1.052e+08,69.746,0,1.5146e+08,0.17924,12592,591.12,0,591.12,0,0.00040092,3.4863e-10,0,0.00021077,7.4958e-05,1.2193e+08,86.664,0,6.0897e+07,9.2339,591.12,1
2044,2.45,12082,1,12082,1,9.4385e-05,-1.3841e-10,0,0.00035513,-1.7176e-05,3.8414,-35.437,0,1.0604e+08,-3.7426,12081,13104,1,13104,1,0.000767,2.7875e-10,0,0.000767,0.0001086,1.7104e+08,60.85,0,2.3518e+08,7.7337,13103,12082,1,12082,1,9.4385e-05,-9.2881e-11,0,0.00034876,-1.7133e-05,2.6605e+07,-24.658,0,1.0563e+08,-1.0212,12081,10985,1,10985,1,-0.00057823,-8.3034e-10,0,1.9649e-05,-0.00014302,-2.3518e+08,-193.73,0,5.7649e+06,-38.231,10984,11571,1,11571,1,-0.00025438,-2.2859e-10,0,0.00017438,-8.2367e-05,-1.0345e+08,-58.398,0,5.5164e+07,-5.4184,11570,12593,1,12593,1,0.00044315,-5.4669e-12,0,0.00052315,4.7963e-05,1.0563e+08,-1.489,0,1.5208e+08,0.82422,12592,591.12,0,591.12,0,0.00040256,1.9034e-10,0,0.00021163,7.5265e-05,1.2243e+08,47.127,0,6.1147e+07,7.4434,591.12,1
2044,2.46,12082,1,12082,1,9.477e-05,-2.306e-10,0,0.00035658,-1.7247e-05,8.052,-58.925,0,1.0647e+08,-4.8179,12081,13104,1,13104,1,0.00077014,2.4361e-10,0,0.00077014,0.00010905,1.7174e+08,53.265,0,2.3614e+08,12.162,13103,12082,1,12082,1,9.477e-05,-1.6941e-10,0,0.00035019,-1.7203e-05,2.6713e+07,-44.489,0,1.0606e+08,-2.7532,12081,10985,1,10985,1,-0.0005806,-1.0607e-09,0,1.973e-05,-0.00014361,-2.3614e+08,-248.84,0,5.7884e+06,-40.184,10984,11571,1,11571,1,-0.00025542,-3.8042e-10,0,0.00017509,-8.2703e-05,-1.0387e+08,-97.241,0,5.5389e+07,-7.8578,11570,12593,1,12593,1,0.00044496,-2.8211e-11,0,0.00052528,4.8159e-05,1.0606e+08,-7.0873,0,1.527e+08,0.21438,12592,591.12,0,591.12,0,0.0004042,2.5364e-10,0,0.0002125,7.5572e-05,1.2293e+08,63.017,0,6.1396e+07,7.335,591.12,1
2044,2.47,12082,1,12082,1,9.5155e-05,-1.8438e-13,0,0.00035803,-1.7317e-05,10.048,0.22866,0,1.069e+08,-4.3586,12081,13104,1,13104,1,0.00077327,6.3704e-10,0,0.00077327,0.00010949,1.7244e+08,144.98,0,2.371e+08,9.1623,13103,12082,1,12082,1,9.5155e-05,1.6714e-11,0,0.00035161,-1.7273e-05,2.6822e+07,4.2819,0,1.0649e+08,-2.7258,12081,10985,1,10985,1,-0.00058295,-8.1836e-10,0,1.981e-05,-0.00014419,-2.371e+08,-183.71,0,5.812e+06,-42.725,10984,11571,1,11571,1,-0.00025646,-1.1023e-10,0,0.00017581,-8.304e-05,-1.0429e+08,-28.613,0,5.5614e+07,-6.6542,11570,12593,1,12593,1,0.00044677,1.2431e-10,0,0.00052742,4.8355e-05,1.0649e+08,33.235,0,1.5332e+08,1.142,12592,591.12,0,591.12,0,0.00040585,2.3722e-10,0,0.00021336,7.5879e-05,1.2343e+08,59.087,0,6.1646e+07,7.835,591.12,1
2044,2.48,12082,1,12082,1,9.5541e-05,2.0939e-10,0,0.00035948,-1.7387e-05,-3.8306,53.87,0,1.0734e+08,-5.1085,12081,13104,1,13104,1,0.0007764,1.0888e-09,0,0.0007764,0.00010993,1.7314e+08,254.46,0,2.3806e+08,11.362,13103,12082,1,12082,1,9.5541e-05,1.5045e-10,0,0.00035304,-1.7343e-05,2.6931e+07,38.823,0,1.0692e+08,-2.5984,12081,10985,1,10985,1,-0.00058532,-8.6149e-10,0,1.989e-05,-0.00014478,-2.3806e+08,-196.05,0,5.8355e+06,-53.621,10984,11571,1,11571,1,-0.0002575,-1.1336e-11,0,0.00017652,-8.3376e-05,-1.0471e+08,-2.7129,0,5.584e+07,-8.8041,11570,12593,1,12593,1,0.00044858,4.6495e-10,0,0.00052956,4.8551e-05,1.0692e+08,120.68,0,1.5394e+08,2.6163,12592,591.12,0,591.12,0,0.00040749,3.7197e-10,0,0.00021423,7.6187e-05,1.2393e+08,93.288,0,6.1896e+07,11.562,591.12,1
2044,2.49,12082,1,12082,1,9.5926e-05,3.4292e-10,0,0.00036093,-1.7457e-05,-11.526,87.718,0,1.0777e+08,-5.7594,12081,13104,1,13104,1,0.00077953,1.432e-09,0,0.00077953,0.00011038,1.7384e+08,346.34,0,2.3902e+08,25.344,13103,12082,1,12082,1,9.5925e-05,2.598e-10,0,0.00035446,-1.7413e-05,2.7039e+07,65.957,0,1.0735e+08,-2.486,12081,10985,1,10985,1,-0.00058768,-7.65e-10,0,1.997e-05,-0.00014536,-2.3902e+08,-177.27,0,5.859e+06,-38.136,10984,11571,1,11571,1,-0.00025853,-1.3337e-11,0,0.00017723,-8.3712e-05,-1.0513e+08,-3.7896,0,5.6065e+07,-17.101,11570,12593,1,12593,1,0.00045038,7.1865e-10,0,0.00053169,4.8746e-05,1.0735e+08,189.25,0,1.5456e+08,4.0448,12592,591.12,0,591.12,0,0.00040913,4.9697e-10,0,0.00021509,7.6493e-05,1.2443e+08,125.01,0,6.2145e+07,13.846,591.12,1
2044,2.5,12082,1,12082,1,9.6311e-05,5.2737e-11,0,0.00036238,-1.7527e-05,3.6282,13.401,0,1.082e+08,-5.5963,12081,13104,1,13104,1,0.00078266,7.675e-10,0,0.00078266,0.00011082,1.7454e+08,177.08,0,2.3998e+08,6.8778,13103,12082,1,12082,1,9.6311e-05,2.5049e-11,0,0.00035588,-1.7483e-05,2.7148e+07,6.2301,0,1.0778e+08,-3.6423,12081,10985,1,10985,1,-0.00059004,-8.3448e-10,0,2.005e-05,-0.00014594,-2.3998e+08,-189.48,0,5.8826e+06,-50.606,10984,11571,1,11571,1,-0.00025957,-7.2714e-11,0,0.00017794,-8.4048e-05,-1.0556e+08,-19.398,0,5.629e+07,-7.4155,11570,12593,1,12593,1,0.00045219,2.1895e-10,0,0.00053383,4.8942e-05,1.0778e+08,56.304,0,1.5518e+08,0.87592,12592,591.12,0,591.12,0,0.00041078,2.7396e-10,0,0.00021595,7.6801e-05,1.2493e+08,68.404,0,6.2395e+07,9.5549,591.12,1
2044,2.51,12082,1,12082,1,9.6697e-05,1.3344e-10,0,0.00036383,-1.7597e-05,-1.1037,34.26,0,1.0864e+08,-5.817,12081,13104,1,13104,1,0.00078579,1.2026e-09,0,0.00078579,0.00011126,1.7523e+08,278.77,0,2.4094e+08,12.633,13103,12082,1,12082,1,9.6697e-05,7.8418e-11,0,0.00035731,-1.7553e-05,2.7256e+07,20.823,0,1.0821e+08,-4.8835,12081,10985,1,10985,1,-0.0005924,-1.1319e-09,0,2.0131e-05,-0.00014653,-2.4094e+08,-266.4,0,5.9061e+06,-54.871,10984,11571,1,11571,1,-0.00026061,-9.0245e-11,0,0.00017865,-8.4385e-05,-1.0598e+08,-24.718,0,5.6515e+07,-11.387,11570,12593,1,12593,1,0.000454,4.1926e-10,0,0.00053596,4.9138e-05,1.0821e+08,109.81,0,1.558e+08,2.5188,12592,591.12,0,591.12,0,0.00041242,4.3969e-10,0,0.00021682,7.7108e-05,1.2543e+08,110.3,0,6.2644e+07,11.145,591.12,1
2044,2.52,12082,1,12082,1,9.7081e-05,-5.0143e-11,0,0.00036527,-1.7667e-05,5.1885,-12.288,0,1.0907e+08,-4.0144,12081,13104,1,13104,1,0.00078891,1.9934e-10,0,0.00078891,0.00011171,1.7593e+08,42.936,0,2.419e+08,7.7248,13103,12082,1,12082,1,9.7081e-05,-1.2152e-11,0,0.00035873,-1.7623e-05,2.7365e+07,-3.3987,0,1.0864e+08,-1.9649,12081,10985,1,10985,1,-0.00059475,-5.7445e-10,0,2.0211e-05,-0.00014711,-2.419e+08,-129.73,0,5.9296e+06,-40.041,10984,11571,1,11571,1,-0.00026165,-7.9782e-11,0,0.00017936,-8.472e-05,-1.064e+08,-19.451,0,5.674e+07,-4.676,11570,12593,1,12593,1,0.00045581,1.6639e-11,0,0.00053809,4.9333e-05,1.0864e+08,4.8914,0,1.5642e+08,-0.53875,12592,591.12,0,591.12,0,0.00041406,1.2393e-10,0,0.00021768,7.7415e-05,1.2593e+08,30.257,0,6.2893e+07,6.5006,591.12,1
2044,2.53,12082,1,12082,1,9.7467e-05,8.1849e-11,0,0.00036673,-1.7737e-05,-3.8129,21.476,0,1.095e+08,-5.0977,12081,13104,1,13104,1,0.00079205,1.1869e-09,0,0.00079205,0.00011215,1.7663e+08,276.67,0,2.4286e+08,14.488,13103,12082,1,12082,1,9.7467e-05,5.852e-11,0,0.00036016,-1.7693e-05,2.7474e+07,16.377,0,1.0908e+08,-2.7656,12081,10985,1,10985,1,-0.00059712,-1.1397e-09,0,2.0291e-05,-0.0001477,-2.4286e+08,-263.61,0,5.9532e+06,-57.715,10984,11571,1,11571,1,-0.00026269,-1.3893e-10,0,0.00018008,-8.5057e-05,-1.0682e+08,-35.975,0,5.6966e+07,-11.05,11570,12593,1,12593,1,0.00045762,3.3627e-10,0,0.00054023,4.9529e-05,1.0908e+08,88.865,0,1.5704e+08,3.9579,12592,591.12,0,591.12,0,0.00041571,4.1968e-10,0,0.00021854,7.7723e-05,1.2643e+08,105.53,0,6.3144e+07,11.945,591.12,1
2044,2.54,12082,1,12082,1,9.7851e-05,-2.7034e-10,0,0.00036817,-1.7807e-05,8.7543,-68.325,0,1.0993e+08,-1.8724,12081,13104,1,13104,1,0.00079518,1.3434e-10,0,0.00079518,0.00011259,1.7733e+08,46.001,0,2.4382e+08,14.424,13103,12082,1,12082,1,9.7851e-05,-2.6804e-10,0,0.00036157,-1.7762e-05,2.7582e+07,-72.099,0,1.0951e+08,-0.2469,12081,10985,1,10985,1,-0.00059947,-7.6609e-10,0,2.0371e-05,-0.00014828,-2.4382e+08,-184.86,0,5.9766e+06,-44.177,10984,11571,1,11571,1,-0.00026372,-4.1929e-10,0,0.00018079,-8.5392e-05,-1.0725e+08,-105.62,0,5.719e+07,-4.5977,11570,12593,1,12593,1,0.00045942,-1.1491e-10,0,0.00054236,4.9725e-05,1.0951e+08,-29.883,0,1.5766e+08,3.9824,12592,591.12,0,591.12,0,0.00041734,2.1036e-10,0,0.0002194,7.8029e-05,1.2692e+08,51.579,0,6.3392e+07,9.7664,591.12,1
2044,2.55,12082,1,12082,1,9.8237e-05,-5.7317e-11,0,0.00036962,-1.7878e-05,8.2094,-14.491,0,1.1037e+08,-10.608,12081,13104,1,13104,1,0.00079831,6.8228e-10,0,0.00079831,0.00011304,1.7802e+08,158.35,0,2.4478e+08,21.818,13103,12082,1,12082,1,9.8237e-05,1.544e-11,0,0.000363,-1.7832e-05,2.7691e+07,3.9737,0,1.0994e+08,-8.574,12081,10985,1,10985,1,-0.00060183,-1.3532e-09,0,2.0451e-05,-0.00014886,-2.4478e+08,-328.7,0,6.0002e+06,-48.507,10984,11571,1,11571,1,-0.00026476,-2.4943e-10,0,0.0001815,-8.5729e-05,-1.0767e+08,-65.536,0,5.7415e+07,-16.949,11570,12593,1,12593,1,0.00046124,1.962e-10,0,0.0005445,4.9921e-05,1.0994e+08,51.725,0,1.5828e+08,-1.7895,12592,591.12,0,591.12,0,0.00041899,4.0606e-10,0,0.00022027,7.8337e-05,1.2742e+08,102.06,0,6.3642e+07,11.726,591.12,1
2044,2.56,12082,1,12082,1,9.8622e-05,-1.88e-10,0,0.00037107,-1.7948e-05,5.627,-47.122,0,1.108e+08,-0.5381,12081,13104,1,13104,1,0.00080144,1.096e-10,0,0.00080144,0.00011348,1.7872e+08,37.53,0,2.4574e+08,18.08,13103,12082,1,12082,1,9.8622e-05,-1.8513e-10,0,0.00036442,-1.7902e-05,2.7799e+07,-50.814,0,1.1037e+08,-0.60176,12081,10985,1,10985,1,-0.00060419,-5.3566e-10,0,2.0531e-05,-0.00014944,-2.4574e+08,-128.39,0,6.0237e+06,-36.11,10984,11571,1,11571,1,-0.0002658,-3.0095e-10,0,0.00018221,-8.6065e-05,-1.0809e+08,-74.241,0,5.7641e+07,-3.5911,11570,12593,1,12593,1,0.00046304,-7.1205e-11,0,0.00054663,5.0116e-05,1.1037e+08,-18.474,0,1.589e+08,3.6998,12592,591.12,0,591.12,0,0.00042063,1.5897e-10,0,0.00022113,7.8643e-05,1.2792e+08,38.798,0,6.3892e+07,7.7368,591.12,1
2044,2.57,12082,1,12082,1,9.9008e-05,1.0129e-10,0,0.00037253,-1.8018e-05,16.118,25.473,0,1.1123e+08,-7.9196,12081,13104,1,13104,1,0.00080457,9.606e-10,0,0.00080457,0.00011392,1.7942e+08,218.61,0,2.467e+08,7.6833,13103,12082,1,12082,1,9.9008e-05,5.8743e-11,0,0.00036585,-1.7972e-05,2.7908e+07,15.61,0,1.108e+08,-5.322,12081,10985,1,10985,1,-0.00060656,-7.2739e-10,0,2.0612e-05,-0.00015003,-2.467e+08,-167.29,0,6.0473e+06,-56.166,10984,11571,1,11571,1,-0.00026684,-6.6704e-11,0,0.00018292,-8.6402e-05,-1.0851e+08,-17.75,0,5.7866e+07,-11.449,11570,12593,1,12593,1,0.00046486,2.8897e-10,0,0.00054877,5.0312e-05,1.108e+08,76.645,0,1.5953e+08,-0.57863,12592,591.12,0,591.12,0,0.00042228,3.1359e-10,0,0.000222,7.8951e-05,1.2842e+08,77.721,0,6.4142e+07,10.9,591.12,1
2044,2.58,12082,1,12082,1,9.9393e-05,1.6293e-10,0,0.00037397,-1.8088e-05,9.6526,41.625,0,1.1167e+08,-6.26,12081,13104,1,13104,1,0.0008077,1.0192e-09,0,0.0008077,0.00011437,1.8012e+08,239.7,0,2.4766e+08,9.9207,13103,12082,1,12082,1,9.9393e-05,1.0017e-10,0,0.00036727,-1.8042e-05,2.8016e+07,27.501,0,1.1123e+08,-4.5521,12081,10985,1,10985,1,-0.00060892,-9.1268e-10,0,2.0692e-05,-0.00015061,-2.4766e+08,-207.4,0,6.0708e+06,-50.32,10984,11571,1,11571,1,-0.00026788,-5.7833e-11,0,0.00018363,-8.6737e-05,-1.0893e+08,-14.027,0,5.8091e+07,-12.732,11570,12593,1,12593,1,0.00046666,4.3881e-10,0,0.0005509,5.0508e-05,1.1123e+08,115.55,0,1.6015e+08,1.6497,12592,591.12,0,591.12,0,0.00042392,3.9799e-10,0,0.00022286,7.9258e-05,1.2892e+08,99.177,0,6.4391e+07,9.6403,591.12,1
2044,2.59,12082,1,12082,1,9.9779e-05,-1.1368e-11,0,0.00037543,-1.8158e-05,45.084,-2.7429,0,1.121e+08,-8.4957,12081,13104,1,13104,1,0.00081084,9.7294e-10,0,0.00081084,0.00011481,1.8082e+08,223.66,0,2.4862e+08,15.636,13103,12082,1,12082,1,9.9779e-05,2.2798e-11,0,0.0003687,-1.8112e-05,2.8125e+07,6.2878,0,1.1166e+08,-6.58,12081,10985,1,10985,1,-0.00061128,-1.3707e-09,0,2.0772e-05,-0.0001512,-2.4862e+08,-317.76,0,6.0944e+06,-53.642,10984,11571,1,11571,1,-0.00026892,-1.7852e-10,0,0.00018435,-8.7074e-05,-1.0936e+08,-45.665,0,5.8317e+07,-12.456,11570,12593,1,12593,1,0.00046847,2.0737e-10,0,0.00055304,5.0704e-05,1.1166e+08,55.126,0,1.6077e+08,-0.058654,12592,591.12,0,591.12,0,0.00042557,3.9871e-10,0,0.00022373,7.9566e-05,1.2942e+08,99.811,0,6.4641e+07,11.318,591.12,1
2044,2.6,12082,1,12082,1,0.00010016,2.6019e-11,0,0.00037687,-1.8228e-05,4.7863,6.9046,0,1.1253e+08,-4.84,12081,13104,1,13104,1,0.00081396,4.4227e-10,0,0.00081396,0.00011525,1.8151e+08,100.61,0,2.4957e+08,6.9451,13103,12082,1,12082,1,0.00010016,3.321e-11,0,0.00037012,-1.8182e-05,2.8233e+07,7.7019,0,1.1209e+08,-3.0952,12081,10985,1,10985,1,-0.00061363,-6.6589e-10,0,2.0852e-05,-0.00015178,-2.4957e+08,-159.89,0,6.1178e+06,-43.377,10984,11571,1,11571,1,-0.00026995,-8.1156e-11,0,0.00018506,-8.7409e-05,-1.0978e+08,-19.88,0,5.8541e+07,-7.8707,11570,12593,1,12593,1,0.00047028,1.8023e-10,0,0.00055517,5.0899e-05,1.1209e+08,47.551,0,1.6139e+08,0.18582,12592,591.12,0,591.12,0,0.0004272,2.2476e-10,0,0.00022459,7.9872e-05,1.2992e+08,56.411,0,6.489e+07,7.4811,591.12,1
2044,2.61,12082,1,12082,1,0.00010055,1.2818e-10,0,0.00037832,-1.8298e-05,37.288,32.891,0,1.1296e+08,-5.7391,12081,13104,1,13104,1,0.00081709,7.4439e-10,0,0.00081709,0.0001157,1.8221e+08,171.81,0,2.5054e+08,10.409,13103,12082,1,12082,1,0.00010055,1.1268e-10,0,0.00037154,-1.8252e-05,2.8342e+07,29.919,0,1.1253e+08,-1.1691,12081,10985,1,10985,1,-0.000616,-4.3772e-10,0,2.0933e-05,-0.00015236,-2.5054e+08,-97.203,0,6.1414e+06,-63.341,10984,11571,1,11571,1,-0.00027099,1.4218e-11,0,0.00018577,-8.7746e-05,-1.102e+08,3.674,0,5.8767e+07,-7.6889,11570,12593,1,12593,1,0.00047209,2.1787e-10,0,0.00055731,5.1095e-05,1.1253e+08,56.413,0,1.6201e+08,0.65077,12592,591.12,0,591.12,0,0.00042885,1.8025e-10,0,0.00022545,8.018e-05,1.3042e+08,44.312,0,6.514e+07,11.152,591.12,1
2044,2.62,12082,1,12082,1,0.00010093,-1.9263e-10,0,0.00037977,-1.8368e-05,3.0929,-49.186,0,1.134e+08,-1.1306,12081,13104,1,13104,1,0.00082022,4.0121e-11,0,0.00082022,0.00011614,1.8291e+08,13.739,0,2.5149e+08,5.2054,13103,12082,1,12082,1,0.00010093,-1.9756e-10,0,0.00037296,-1.8322e-05,2.8451e+07,-55.634,0,1.1296e+08,0.475,12081,10985,1,10985,1,-0.00061835,-4.1512e-10,0,2.1013e-05,-0.00015295,-2.5149e+08,-99.875,0,6.1649e+06,-31.872,10984,11571,1,11571,1,-0.00027203,-2.9062e-10,0,0.00018648,-8.8082e-05,-1.1062e+08,-71.624,0,5.8991e+07,-1.367,11570,12593,1,12593,1,0.00047389,-1.0486e-10,0,0.00055944,5.1291e-05,1.1296e+08,-27.496,0,1.6263e+08,1.8086,12592,591.12,0,591.12,0,0.00043049,1.1791e-10,0,0.00022632,8.0487e-05,1.3092e+08,28.759,0,6.5389e+07,5.7079,591.12,1
2044,2.63,12082,1,12082,1,0.00010132,5.0081e-12,0,0.00038122,-1.8439e-05,8.7936,1.2929,0,1.1383e+08,-4.4152,12081,13104,1,13104,1,0.00082336,9.809e-10,0,0.00082336,0.00011658,1.8361e+08,227.59,0,2.5246e+08,14.72,13103,12082,1,12082,1,0.00010132,1.2755e-11,0,0.00037439,-1.8392e-05,2.856e+07,3.5491,0,1.1339e+08,-2.6603,12081,10985,1,10985,1,-0.00062072,-1.2679e-09,0,2.1093e-05,-0.00015353,-2.5246e+08,-295.09,0,6.1885e+06,-54.742,10984,11571,1,11571,1,-0.00027307,-1.7458e-10,0,0.00018719,-8.8419e-05,-1.1105e+08,-44.967,0,5.9217e+07,-9.067,11570,12593,1,12593,1,0.00047571,2.3506e-10,0,0.00056159,5.1487e-05,1.1339e+08,62.597,0,1.6325e+08,3.2364,12592,591.12,0,591.12,0,0.00043214,3.8996e-10,0,0.00022718,8.0795e-05,1.3142e+08,98.506,0,6.5639e+07,11.306,591.12,1
2044,2.64,12082,1,12082,1,0.0001017,-1.3905e-09,0,0.00038265,-1.8507e-05,-27.603,-360.99,0,1.1425e+08,18.687,12081,13104,1,13104,1,0.00082645,5.334e-09,0,0.00082645,0.00011702,1.843e+08,1243.3,0,2.5341e+08,150.7,13103,12082,1,12082,1,0.0001017,-1.0748e-09,0,0.00037579,-1.8461e-05,2.8666e+07,-292.65,0,1.1381e+08,15.881,12081,10985,1,10985,1,-0.00062305,-6.3461e-09,0,2.1171e-05,-0.00015411,-2.5341e+08,-1525.8,0,6.2113e+06,-157.71,10984,11571,1,11571,1,-0.00027409,-3.1516e-09,0,0.0001879,-8.875e-05,-1.1146e+08,-806.87,0,5.9439e+07,-9.3728,11570,12593,1,12593,1,0.00047749,-1.9052e-11,0,0.00056369,5.168e-05,1.1381e+08,-5.596,0,1.6386e+08,47.975,12592,591.12,0,591.12,0,0.00043375,2.4217e-09,0,0.00022803,8.1096e-05,1.3191e+08,610.25,0,6.5884e+07,49.385,591.12,1
2044,2.65,12082,1,12082,1,0.00010209,-4.3095e-11,0,0.00038412,-1.8579e-05,-13.36,-10.767,0,1.1469e+08,-2.8349,12081,13104,1,13104,1,0.00082961,3.2178e-10,0,0.00082961,0.00011747,1.8501e+08,70.72,0,2.5437e+08,14.833,13103,12082,1,12082,1,0.00010209,2.3489e-11,0,0.00037723,-1.8532e-05,2.8776e+07,5.9896,0,1.1425e+08,-1.8929,12081,10985,1,10985,1,-0.00062543,-8.7778e-10,0,2.1253e-05,-0.0001547,-2.5437e+08,-196.33,0,6.2355e+06,-34.067,10984,11571,1,11571,1,-0.00027514,-1.2259e-10,0,0.00018862,-8.909e-05,-1.1189e+08,-31.322,0,5.9667e+07,-6.0746,11570,12593,1,12593,1,0.00047932,9.4169e-11,0,0.00056585,5.1878e-05,1.1425e+08,25.433,0,1.6449e+08,1.0169,12592,591.12,0,591.12,0,0.00043542,2.2564e-10,0,0.00022891,8.1408e-05,1.3242e+08,56.489,0,6.6138e+07,6.2768,591.12,1
2044,2.66,12082,1,12082,1,0.00010247,-1.4147e-10,0,0.00038557,-1.8649e-05,-1.68,-35.425,0,1.1513e+08,-4.8811,12081,13104,1,13104,1,0.00083274,3.7773e-10,0,0.00083274,0.00011791,1.857e+08,83.962,0,2.5533e+08,27.368,13103,12082,1,12082,1,0.00010247,-3.4071e-11,0,0.00037866,-1.8602e-05,2.8885e+07,-8.2039,0,1.1468e+08,-3.7484,12081,10985,1,10985,1,-0.00062779,-1.0868e-09,0,2.1333e-05,-0.00015528,-2.5533e+08,-254.46,0,6.2589e+06,-34.342,10984,11571,1,11571,1,-0.00027618,-3.2554e-10,0,0.00018933,-8.9426e-05,-1.1231e+08,-81.772,0,5.9892e+07,-9.5592,11570,12593,1,12593,1,0.00048113,6.8642e-11,0,0.00056798,5.2074e-05,1.1468e+08,17.389,0,1.6511e+08,1.009,12592,591.12,0,591.12,0,0.00043706,3.0283e-10,0,0.00022977,8.1715e-05,1.3292e+08,75.258,0,6.6387e+07,9.0096,591.12,1
2044,2.67,12082,1,12082,1,0.00010286,1.5847e-10,0,0.00038702,-1.8719e-05,-0.16691,40.246,0,1.1556e+08,-4.4122,12081,13104,1,13104,1,0.00083588,7.9766e-10,0,0.00083588,0.00011836,1.864e+08,192.58,0,2.563e+08,17.13,13103,12082,1,12082,1,0.00010286,9.9325e-11,0,0.00038008,-1.8672e-05,2.8994e+07,25.906,0,1.1511e+08,-3.0138,12081,10985,1,10985,1,-0.00063016,-5.4514e-10,0,2.1414e-05,-0.00015587,-2.563e+08,-120.06,0,6.2825e+06,-35.233,10984,11571,1,11571,1,-0.00027722,-2.8074e-11,0,0.00019004,-8.9763e-05,-1.1273e+08,-7.8888,0,6.0117e+07,-10.977,11570,12593,1,12593,1,0.00048294,3.603e-10,0,0.00057012,5.227e-05,1.1511e+08,92.949,0,1.6573e+08,1.7144,12592,591.12,0,591.12,0,0.00043871,2.8417e-10,0,0.00023064,8.2023e-05,1.3342e+08,71.266,0,6.6637e+07,8.9096,591.12,1
2044,2.68,12082,1,12082,1,0.00010324,-1.491e-10,0,0.00038847,-1.8789e-05,2.2357,-38.143,0,1.1599e+08,-4.5505,12081,13104,1,13104,1,0.000839,1.0806e-10,0,0.000839,0.0001188,1.871e+08,22.72,0,2.5725e+08,4.9431,13103,12082,1,12082,1,0.00010324,-8.6187e-11,0,0.0003815,-1.8742e-05,2.9102e+07,-22.62,0,1.1554e+08,-2.5615,12081,10985,1,10985,1,-0.00063251,-8.122e-10,0,2.1494e-05,-0.00015645,-2.5725e+08,-186.8,0,6.3061e+06,-41.735,10984,11571,1,11571,1,-0.00027826,-2.2038e-10,0,0.00019075,-9.0099e-05,-1.1316e+08,-56.689,0,6.0342e+07,-5.6022,11570,12593,1,12593,1,0.00048475,-2.2278e-11,0,0.00057226,5.2465e-05,1.1554e+08,-6.3502,0,1.6635e+08,-0.083125,12592,591.12,0,591.12,0,0.00044035,1.771e-10,0,0.0002315,8.233e-05,1.3392e+08,43.766,0,6.6886e+07,7.2078,591.12,1
2044,2.69,12082,1,12082,1,0.00010363,5.1181e-11,0,0.00038992,-1.8859e-05,1.59,13.458,0,1.1643e+08,-4.5819,12081,13104,1,13104,1,0.00084214,6.6002e-10,0,0.00084214,0.00011924,1.878e+08,152.18,0,2.5822e+08,7.6296,13103,12082,1,12082,1,0.00010363,2.8143e-11,0,0.00038293,-1.8812e-05,2.9211e+07,7.9937,0,1.1597e+08,-2.5497,12081,10985,1,10985,1,-0.00063488,-5.9081e-10,0,2.1574e-05,-0.00015703,-2.5822e+08,-130.88,0,6.3296e+06,-42.482,10984,11571,1,11571,1,-0.0002793,-3.2955e-11,0,0.00019146,-9.0436e-05,-1.1358e+08,-9.2137,0,6.0568e+07,-6.9257,11570,12593,1,12593,1,0.00048656,1.4618e-10,0,0.00057439,5.2661e-05,1.1597e+08,38.738,0,1.6697e+08,0.574,12592,591.12,0,591.12,0,0.000442,1.9427e-10,0,0.00023236,8.2638e-05,1.3442e+08,47.501,0,6.7136e+07,7.5386,591.12,1
2044,2.7,12082,1,12082,1,0.00010402,2.0793e-11,0,0.00039137,-1.8929e-05,1.8582,6.0726,0,1.1686e+08,-3.0666,12081,13104,1,13104,1,0.00084527,5.0402e-10,0,0.00084527,0.00011969,1.885e+08,114.87,0,2.5917e+08,7.3902,13103,12082,1,12082,1,0.00010402,3.199e-11,0,0.00038435,-1.8881e-05,2.9319e+07,7.9292,0,1.1641e+08,-1.0603,12081,10985,1,10985,1,-0.00063724,-4.2442e-10,0,2.1654e-05,-0.00015762,-2.5917e+08,-94.252,0,6.3531e+06,-38.872,10984,11571,1,11571,1,-0.00028034,-5.3829e-11,0,0.00019218,-9.0772e-05,-1.14e+08,-13.73,0,6.0793e+07,-5.166,11570,12593,1,12593,1,0.00048837,7.833e-11,0,0.00057653,5.2857e-05,1.1641e+08,23.471,0,1.6759e+08,1.3327,12592,591.12,0,591.12,0,0.00044364,1.4582e-10,0,0.00023323,8.2945e-05,1.3492e+08,35.955,0,6.7386e+07,7.3671,591.12,1
2044,2.71,12082,1,12082,1,0.0001044,-1.086e-10,0,0.00039282,-1.8999e-05,-2.6724,-27.576,0,1.1729e+08,-2.7239,12081,13104,1,13104,1,0.0008484,5.7058e-11,0,0.0008484,0.00012013,1.8919e+08,11.584,0,2.6013e+08,2.5311,13103,12082,1,12082,1,0.0001044,-8.408e-11,0,0.00038577,-1.8951e-05,2.9428e+07,-22.557,0,1.1684e+08,-1.0917,12081,10985,1,10985,1,-0.00063959,-4.5145e-10,0,2.1735e-05,-0.0001582,-2.6013e+08,-99.018,0,6.3767e+06,-32.41,10984,11571,1,11571,1,-0.00028137,-1.5853e-10,0,0.00019289,-9.1108e-05,-1.1442e+08,-40.796,0,6.1018e+07,-2.7936,11570,12593,1,12593,1,0.00049018,-3.831e-11,0,0.00057866,5.3053e-05,1.1684e+08,-10.158,0,1.6821e+08,0.19689,12592,591.12,0,591.12,0,0.00044528,9.7277e-11,0,0.00023409,8.3252e-05,1.3542e+08,23.234,0,6.7635e+07,5.3025,591.12,1
2044,2.72,12082,1,12082,1,0.00010479,3.8886e-10,0,0.00039427,-1.9069e-05,-19.914,99.517,0,1.1772e+08,-6.3155,12081,13104,1,13104,1,0.00085153,1.9106e-09,0,0.00085153,0.00012057,1.8989e+08,470.64,0,2.611e+08,26.163,13103,12082,1,12082,1,0.00010479,2.3678e-10,0,0.0003872,-1.9021e-05,2.9537e+07,63.384,0,1.1727e+08,-2.7433,12081,10985,1,10985,1,-0.00064196,-1.1053e-09,0,2.1815e-05,-0.00015879,-2.611e+08,-269.57,0,6.4001e+06,-41.814,10984,11571,1,11571,1,-0.00028241,-5.7892e-11,0,0.0001936,-9.1444e-05,-1.1485e+08,-14.365,0,6.1243e+07,-16.911,11570,12593,1,12593,1,0.00049199,8.7654e-10,0,0.0005808,5.3249e-05,1.1727e+08,230.1,0,1.6884e+08,4.1675,12592,591.12,0,591.12,0,0.00044692,6.5752e-10,0,0.00023496,8.3559e-05,1.3592e+08,165.3,0,6.7885e+07,14.614,591.12,1
2044,2.73,12082,1,12082,1,0.00010517,6.3963e-11,0,0.00039572,-1.914e-05,3.0479,16.866,0,1.1816e+08,-7.0319,12081,13104,1,13104,1,0.00085466,7.242e-10,0,0.00085466,0.00012102,1.9059e+08,166.68,0,2.6206e+08,8.4923,13103,12082,1,12082,1,0.00010517,4.6364e-11,0,0.00038862,-1.9091e-05,2.9645e+07,11.749,0,1.177e+08,-4.3598,12081,10985,1,10985,1,-0.00064432,-7.3665e-10,0,2.1895e-05,-0.00015937,-2.6206e+08,-169.24,0,6.4238e+06,-44.24,10984,11571,1,11571,1,-0.00028345,-4.8456e-11,0,0.00019431,-9.1781e-05,-1.1527e+08,-12.362,0,6.1469e+07,-10.068,11570,12593,1,12593,1,0.0004938,2.0647e-10,0,0.00058294,5.3445e-05,1.177e+08,54.532,0,1.6946e+08,-0.42698,12592,591.12,0,591.12,0,0.00044857,2.431e-10,0,0.00023582,8.3866e-05,1.3642e+08,60.643,0,6.8135e+07,9.2739,591.12,1
2044,2.74,12082,1,12082,1,0.00010556,-9.7813e-11,0,0.00039717,-1.921e-05,6.0432,-24.322,0,1.1859e+08,-9.7473,12081,13104,1,13104,1,0.00085779,7.8087e-10,0,0.00085779,0.00012146,1.9129e+08,184.79,0,2.6302e+08,23.018,13103,12082,1,12082,1,0.00010556,-9.0677e-12,0,0.00039005,-1.9161e-05,2.9754e+07,-2.1893,0,1.1813e+08,-6.4739,12081,10985,1,10985,1,-0.00064668,-1.5114e-09,0,2.1975e-05,-0.00015995,-2.6302e+08,-360.26,0,6.4473e+06,-55.818,10984,11571,1,11571,1,-0.00028449,-3.227e-10,0,0.00019502,-9.2117e-05,-1.1569e+08,-82.701,0,6.1694e+07,-15.708,11570,12593,1,12593,1,0.0004956,1.8175e-10,0,0.00058507,5.364e-05,1.1813e+08,47.893,0,1.7008e+08,0.86751,12592,591.12,0,591.12,0,0.00045021,4.4707e-10,0,0.00023668,8.4174e-05,1.3692e+08,111.72,0,6.8384e+07,14.569,591.12,1
2044,2.75,12082,1,12082,1,0.00010594,-6.6027e-11,0,0.00039862,-1.928e-05,5.3134,-16.382,0,1.1902e+08,-5.5051,12081,13104,1,13104,1,0.00086093,9.5275e-10,0,0.00086093,0.0001219,1.9199e+08,220.95,0,2.6398e+08,18.106,13103,12082,1,12082,1,0.00010594,1.9581e-11,0,0.00039147,-1.9231e-05,2.9863e+07,4.5743,0,1.1856e+08,-4.7991,12081,10985,1,10985,1,-0.00064904,-1.6674e-09,0,2.2056e-05,-0.00016054,-2.6398e+08,-400.97,0,6.4709e+06,-40.7,10984,11571,1,11571,1,-0.00028553,-2.7086e-10,0,0.00019574,-9.2453e-05,-1.1611e+08,-70.351,0,6.1919e+07,-11.85,11570,12593,1,12593,1,0.00049741,2.0832e-10,0,0.00058721,5.3836e-05,1.1856e+08,55.468,0,1.707e+08,2.0739,12592,591.12,0,591.12,0,0.00045186,4.7104e-10,0,0.00023755,8.4481e-05,1.3742e+08,118.2,0,6.8634e+07,10.931,591.12,1
2044,2.76,12082,1,12082,1,0.00010633,3.9222e-10,0,0.00040006,-1.935e-05,10.901,98.81,0,1.1946e+08,-5.4492,12081,13104,1,13104,1,0.00086405,1.5619e-09,0,0.00086405,0.00012235,1.9269e+08,374.84,0,2.6494e+08,21.58,13103,12082,1,12082,1,0.00010633,2.7852e-10,0,0.00039289,-1.9301e-05,2.9971e+07,70.016,0,1.1899e+08,-3.1889,12081,10985,1,10985,1,-0.0006514,-5.126e-10,0,2.2135e-05,-0.00016112,-2.6494e+08,-114.71,0,6.4943e+06,-50.458,10984,11571,1,11571,1,-0.00028657,-1.1296e-11,0,0.00019645,-9.2789e-05,-1.1653e+08,-3.1165,0,6.2144e+07,-16.204,11570,12593,1,12593,1,0.00049922,7.5185e-10,0,0.00058934,5.4032e-05,1.1899e+08,196.69,0,1.7132e+08,4.5628,12592,591.12,0,591.12,0,0.0004535,4.9884e-10,0,0.00023841,8.4788e-05,1.3792e+08,123.71,0,6.8883e+07,12.927,591.12,1
2044,2.77,12082,1,12082,1,0.00010671,2.8255e-10,0,0.00040151,-1.942e-05,-13.837,71.82,0,1.1989e+08,-0.5707,12081,13104,1,13104,1,0.00086718,8.0969e-10,0,0.00086718,0.00012279,1.9338e+08,194.56,0,2.6589e+08,14.226,13103,12082,1,12082,1,0.00010671,2.7212e-10,0,0.00039431,-1.9371e-05,3.0079e+07,71.725,0,1.1942e+08,-0.20164,12081,10985,1,10985,1,-0.00065375,-1.0597e-10,0,2.2215e-05,-0.0001617,-2.6589e+08,-36.286,0,6.5177e+06,-29.069,10984,11571,1,11571,1,-0.0002876,1.2046e-10,0,0.00019716,-9.3124e-05,-1.1696e+08,32.528,0,6.2369e+07,-3.8067,11570,12593,1,12593,1,0.00050102,4.1084e-10,0,0.00059147,5.4227e-05,1.1942e+08,105.22,0,1.7194e+08,3.6643,12592,591.12,0,591.12,0,0.00045513,2.1795e-10,0,0.00023927,8.5094e-05,1.3842e+08,53.791,0,6.9132e+07,6.5463,591.12,1
2044,2.78,12082,1,12082,1,0.00010709,-1.8645e-09,0,0.00040294,-1.9489e-05,38.046,-477.91,0,1.2031e+08,1.4702,12081,13104,1,13104,1,0.00087028,2.2088e-09,0,0.00087028,0.00012323,1.9407e+08,534.87,0,2.6684e+08,79.6,13103,12082,1,12082,1,0.00010709,-1.3589e-09,0,0.00039572,-1.944e-05,3.0186e+07,-363.12,0,1.1985e+08,-1.2661,12081,10985,1,10985,1,-0.00065609,-6.9777e-09,0,2.2294e-05,-0.00016228,-2.6684e+08,-1665,0,6.5408e+06,-75.588,10984,11571,1,11571,1,-0.00028863,-3.5335e-09,0,0.00019786,-9.3456e-05,-1.1737e+08,-924.74,0,6.2591e+07,-24.526,11570,12593,1,12593,1,0.00050281,4.6594e-11,0,0.00059358,5.442e-05,1.1985e+08,13.086,0,1.7255e+08,24.312,12592,591.12,0,591.12,0,0.00045675,2.2493e-09,0,0.00024012,8.5397e-05,1.3891e+08,567.81,0,6.9378e+07,33.189,591.12,1
2044,2.79,12082,1,12082,1,0.00010748,1.4176e-10,0,0.00040441,-1.956e-05,-3.0232,36.241,0,1.2075e+08,-6.775,12081,13104,1,13104,1,0.00087344,9.4682e-10,0,0.00087344,0.00012368,1.9478e+08,215.88,0,2.6781e+08,17.155,13103,12082,1,12082,1,0.00010748,1.0465e-10,0,0.00039716,-1.9511e-05,3.0297e+07,29.566,0,1.2029e+08,-5.8037,12081,10985,1,10985,1,-0.00065848,-9.6921e-10,0,2.2376e-05,-0.00016287,-2.6781e+08,-235.79,0,6.5649e+06,-40.113,10984,11571,1,11571,1,-0.00028968,-4.8205e-11,0,0.00019858,-9.3797e-05,-1.178e+08,-11.554,0,6.2819e+07,-13.426,11570,12593,1,12593,1,0.00050465,3.9657e-10,0,0.00059575,5.4619e-05,1.2029e+08,106.31,0,1.7318e+08,0.33994,12592,591.12,0,591.12,0,0.00045842,3.8938e-10,0,0.000241,8.5709e-05,1.3942e+08,97.391,0,6.9632e+07,9.3917,591.12,1
2044,2.8,12082,1,12082,1,0.00010787,4.5029e-11,0,0.00040586,-1.963e-05,-18.917,11.528,0,1.2119e+08,-6.4609,12081,13104,1,13104,1,0.00087657,9.144e-10,0,0.00087657,0.00012412,1.9548e+08,219.7,0,2.6877e+08,21.515,13103,12082,1,12082,1,0.00010787,6.0322e-11,0,0.00039859,-1.9581e-05,3.0405e+07,13.657,0,1.2072e+08,-4.3051,12081,10985,1,10985,1,-0.00066084,-1.4345e-09,0,2.2456e-05,-0.00016346,-2.6877e+08,-349.17,0,6.5884e+06,-53.371,10984,11571,1,11571,1,-0.00029072,-1.6922e-10,0,0.00019929,-9.4134e-05,-1.1822e+08,-42.453,0,6.3044e+07,-13.652,11570,12593,1,12593,1,0.00050645,3.8822e-10,0,0.00059788,5.4815e-05,1.2072e+08,102.86,0,1.738e+08,1.9682,12592,591.12,0,591.12,0,0.00046007,4.8833e-10,0,0.00024186,8.6017e-05,1.3992e+08,123.62,0,6.9882e+07,12.305,591.12,1
2044,2.81,12082,1,12082,1,0.00010825,4.2017e-11,0,0.00040731,-1.97e-05,-1.3605,11.55,0,1.2162e+08,-4.5292,12081,13104,1,13104,1,0.0008797,5.3705e-10,0,0.0008797,0.00012456,1.9618e+08,121.26,0,2.6973e+08,18.125,13103,12082,1,12082,1,0.00010825,6.5119e-11,0,0.00040001,-1.9651e-05,3.0514e+07,17.946,0,1.2115e+08,-3.225,12081,10985,1,10985,1,-0.00066319,-9.0622e-10,0,2.2537e-05,-0.00016404,-2.6973e+08,-207.84,0,6.612e+06,-33.707,10984,11571,1,11571,1,-0.00029176,-4.2e-11,0,0.0002,-9.4469e-05,-1.1865e+08,-10.03,0,6.3269e+07,-9.2315,11570,12593,1,12593,1,0.00050826,1.982e-10,0,0.00060001,5.501e-05,1.2115e+08,52.533,0,1.7442e+08,0.46012,12592,591.12,0,591.12,0,0.00046171,2.5638e-10,0,0.00024273,8.6324e-05,1.4042e+08,64.087,0,7.0131e+07,7.6976,591.12,1
2044,2.82,12082,1,12082,1,0.00010864,-1.8672e-10,0,0.00040876,-1.977e-05,13.93,-47.082,0,1.2205e+08,-3.7571,12081,13104,1,13104,1,0.00088284,3.6372e-10,0,0.00088284,0.00012501,1.9687e+08,80.31,0,2.7069e+08,10.477,13103,12082,1,12082,1,0.00010864,-1.3201e-10,0,0.00040143,-1.9721e-05,3.0623e+07,-33.779,0,1.2158e+08,-1.7965,12081,10985,1,10985,1,-0.00066556,-9.6209e-10,0,2.2617e-05,-0.00016462,-2.7069e+08,-227.67,0,6.6355e+06,-42.823,10984,11571,1,11571,1,-0.0002928,-3.3955e-10,0,0.00020072,-9.4806e-05,-1.1907e+08,-86.109,0,6.3495e+07,-6.7603,11570,12593,1,12593,1,0.00051007,8.0397e-12,0,0.00060215,5.5206e-05,1.2158e+08,2.1457,0,1.7504e+08,1.5225,12592,591.12,0,591.12,0,0.00046335,2.5372e-10,0,0.00024359,8.6631e-05,1.4092e+08,62.255,0,7.0381e+07,7.9795,591.12,1
2044,2.83,12082,1,12082,1,0.00010903,-7.2313e-10,0,0.00041022,-1.9841e-05,-95.167,-186.35,0,1.2249e+08,8.8276,12081,13104,1,13104,1,0.00088599,1.9361e-10,0,0.00088599,0.00012545,1.9758e+08,66.296,0,2.7166e+08,42.071,13103,12082,1,12082,1,0.00010903,-6.0435e-10,0,0.00040287,-1.9791e-05,3.0732e+07,-161.58,0,1.2201e+08,6.9111,12081,10985,1,10985,1,-0.00066793,-2.0071e-09,0,2.2697e-05,-0.00016521,-2.7166e+08,-480.89,0,6.659e+06,-28.466,10984,11571,1,11571,1,-0.00029384,-1.1163e-09,0,0.00020143,-9.5144e-05,-1.1949e+08,-291.48,0,6.3721e+07,-0.28105,11570,12593,1,12593,1,0.00051189,-2.612e-10,0,0.0006043,5.5403e-05,1.2201e+08,-66.357,0,1.7567e+08,18.392,12592,591.12,0,591.12,0,0.000465,5.5926e-10,0,0.00024446,8.694e-05,1.4142e+08,140.29,0,7.0631e+07,13.82,591.12,1
2044,2.84,12082,1,12082,1,0.00010941,1.3247e-10,0,0.00041166,-1.9911e-05,-0.25024,34.213,0,1.2292e+08,-4.5134,12081,13104,1,13104,1,0.0008891,7.9068e-10,0,0.0008891,0.00012589,1.9827e+08,182.59,0,2.7261e+08,8.5717,13103,12082,1,12082,1,0.00010941,1.0092e-10,0,0.00040428,-1.9861e-05,3.084e+07,26.706,0,1.2244e+08,-3.0697,12081,10985,1,10985,1,-0.00067028,-6.8616e-10,0,2.2777e-05,-0.00016579,-2.7261e+08,-154.66,0,6.6826e+06,-41.483,10984,11571,1,11571,1,-0.00029487,-1.6504e-11,0,0.00020214,-9.5479e-05,-1.1991e+08,-4.3323,0,6.3945e+07,-6.679,11570,12593,1,12593,1,0.00051369,3.2013e-10,0,0.00060642,5.5598e-05,1.2244e+08,83.615,0,1.7628e+08,1.0057,12592,591.12,0,591.12,0,0.00046664,2.7476e-10,0,0.00024532,8.7246e-05,1.4192e+08,68.615,0,7.088e+07,8.2981,591.12,1
2044,2.85,12082,1,12082,1,0.00010979,2.2869e-10,0,0.00041311,-1.9981e-05,2.0081,58.127,0,1.2335e+08,-11.93,12081,13104,1,13104,1,0.00089223,1.2767e-09,0,0.00089223,0.00012634,1.9897e+08,298.93,0,2.7357e+08,18.52,13103,12082,1,12082,1,0.00010979,1.5339e-10,0,0.00040571,-1.993e-05,3.0948e+07,42.01,0,1.2287e+08,-10.126,12081,10985,1,10985,1,-0.00067264,-1.1041e-09,0,2.2857e-05,-0.00016638,-2.7357e+08,-265.52,0,6.7061e+06,-51.349,10984,11571,1,11571,1,-0.00029591,-6.8177e-11,0,0.00020285,-9.5815e-05,-1.2034e+08,-15.603,0,6.417e+07,-19.306,11570,12593,1,12593,1,0.0005155,5.7409e-10,0,0.00060856,5.5794e-05,1.2287e+08,153.75,0,1.7691e+08,-2.0561,12592,591.12,0,591.12,0,0.00046829,5.0751e-10,0,0.00024618,8.7553e-05,1.4242e+08,126.61,0,7.113e+07,13.248,591.12,1
2044,2.86,12082,1,12082,1,0.00011018,1.8385e-10,0,0.00041456,-2.0051e-05,14.981,47.243,0,1.2378e+08,-5.627,12081,13104,1,13104,1,0.00089536,9.7603e-10,0,0.00089536,0.00012678,1.9967e+08,224.33,0,2.7453e+08,7.9993,13103,12082,1,12082,1,0.00011018,1.3979e-10,0,0.00040713,-2e-05,3.1057e+07,37.618,0,1.233e+08,-3.8918,12081,10985,1,10985,1,-0.000675,-6.7966e-10,0,2.2938e-05,-0.00016696,-2.7453e+08,-152.34,0,6.7297e+06,-50.657,10984,11571,1,11571,1,-0.00029695,2.1208e-12,0,0.00020357,-9.6151e-05,-1.2076e+08,0.52786,0,6.4396e+07,-7.9984,11570,12593,1,12593,1,0.00051731,3.8982e-10,0,0.0006107,5.599e-05,1.233e+08,101.15,0,1.7753e+08,0.70248,12592,591.12,0,591.12,0,0.00046993,3.0627e-10,0,0.00024705,8.786e-05,1.4292e+08,76.469,0,7.1379e+07,8.8572,591.12,1
2044,2.87,12082,1,12082,1,0.00011057,1.4741e-10,0,0.00041601,-2.0121e-05,-1.9585,38.02,0,1.2422e+08,-4.7126,12081,13104,1,13104,1,0.00089849,9.2665e-10,0,0.00089849,0.00012722,2.0037e+08,215.89,0,2.7549e+08,8.464,13103,12082,1,12082,1,0.00011057,1.0062e-10,0,0.00040855,-2.007e-05,3.1166e+07,26.279,0,1.2373e+08,-3.0302,12081,10985,1,10985,1,-0.00067736,-6.1974e-10,0,2.3018e-05,-0.00016754,-2.7549e+08,-148.44,0,6.7532e+06,-53.366,10984,11571,1,11571,1,-0.00029799,-5.714e-12,0,0.00020428,-9.6487e-05,-1.2118e+08,-1.3382,0,6.4621e+07,-7.0351,11570,12593,1,12593,1,0.00051912,3.1827e-10,0,0.00061283,5.6185e-05,1.2373e+08,82.335,0,1.7815e+08,1.2425,12592,591.12,0,591.12,0,0.00047157,2.7801e-10,0,0.00024791,8.8167e-05,1.4342e+08,69.798,0,7.1629e+07,8.5572,591.12,1
2044,2.88,12082,1,12082,1,0.00011095,1.0061e-10,0,0.00041746,-2.0191e-05,3.9239,25.868,0,1.2465e+08,-7.0546,12081,13104,1,13104,1,0.00090162,9.4862e-10,0,0.00090162,0.00012766,2.0106e+08,225.81,0,2.7645e+08,19.437,13103,12082,1,12082,1,0.00011095,7.5392e-11,0,0.00040998,-2.014e-05,3.1274e+07,18.731,0,1.2417e+08,-5.9898,12081,10985,1,10985,1,-0.00067972,-1.265e-09,0,2.3098e-05,-0.00016813,-2.7645e+08,-286.52,0,6.7767e+06,-57.948,10984,11571,1,11571,1,-0.00029903,-9.9993e-11,0,0.00020499,-9.6823e-05,-1.216e+08,-27.172,0,6.4846e+07,-13.899,11570,12593,1,12593,1,0.00052092,3.8398e-10,0,0.00061496,5.6381e-05,1.2417e+08,102.21,0,1.7877e+08,0.71142,12592,591.12,0,591.12,0,0.00047321,4.3921e-10,0,0.00024878,8.8474e-05,1.4392e+08,109.14,0,7.1878e+07,11.422,591.12,1
2044,2.89,12082,1,12082,1,0.00011134,5.0914e-11,0,0.00041891,-2.0261e-05,-0.2996,13.584,0,1.2508e+08,-4.5557,12081,13104,1,13104,1,0.00090475,7.1871e-10,0,0.00090475,0.00012811,2.0176e+08,165.21,0,2.7741e+08,12.083,13103,12082,1,12082,1,0.00011134,5.0338e-11,0,0.0004114,-2.021e-05,3.1383e+07,12.979,0,1.246e+08,-3.3433,12081,10985,1,10985,1,-0.00068208,-9.2358e-10,0,2.3178e-05,-0.00016871,-2.7741e+08,-214.2,0,6.8002e+06,-32.123,10984,11571,1,11571,1,-0.00030006,-8.2176e-11,0,0.0002057,-9.7159e-05,-1.2202e+08,-20.603,0,6.5071e+07,-9.527,11570,12593,1,12593,1,0.00052273,2.4955e-10,0,0.0006171,5.6577e-05,1.246e+08,65.644,0,1.7939e+08,1.3653,12592,591.12,0,591.12,0,0.00047486,3.0981e-10,0,0.00024964,8.8781e-05,1.4441e+08,77.853,0,7.2128e+07,7.2014,591.12,1
2044,2.9,12082,1,12082,1,0.00011172,-1.1196e-10,0,0.00042036,-2.0331e-05,-12.03,-27.943,0,1.2551e+08,-6.406,12081,13104,1,13104,1,0.00090787,3.0415e-10,0,0.00090787,0.00012855,2.0246e+08,66.586,0,2.7837e+08,20.282,13103,12082,1,12082,1,0.00011172,-4.0068e-11,0,0.00041282,-2.028e-05,3.1491e+07,-11.402,0,1.2503e+08,-5.1961,12081,10985,1,10985,1,-0.00068443,-7.5079e-10,0,2.3258e-05,-0.00016929,-2.7837e+08,-176.98,0,6.8237e+06,-33.153,10984,11571,1,11571,1,-0.0003011,-2.5977e-10,0,0.00020641,-9.7495e-05,-1.2245e+08,-66.936,0,6.5296e+07,-10.6,11570,12593,1,12593,1,0.00052454,5.4619e-11,0,0.00061923,5.6772e-05,1.2503e+08,14.122,0,1.8001e+08,-0.30598,12592,591.12,0,591.12,0,0.0004765,2.3444e-10,0,0.0002505,8.9088e-05,1.4491e+08,57.873,0,7.2377e+07,8.4069,591.12,1
2044,2.91,12082,1,12082,1,0.00011211,-8.2778e-11,0,0.00042181,-2.0401e-05,-23.622,-20.327,0,1.2595e+08,-5.2004,12081,13104,1,13104,1,0.00091101,7.6525e-10,0,0.00091101,0.00012899,2.0316e+08,172.32,0,2.7933e+08,30.904,13103,12082,1,12082,1,0.00011211,4.011e-11,0,0.00041425,-2.035e-05,3.16e+07,9.5336,0,1.2546e+08,-5.1,12081,10985,1,10985,1,-0.0006868,-1.6729e-09,0,2.3338e-05,-0.00016988,-2.7933e+08,-402.54,0,6.8472e+06,-37.701,10984,11571,1,11571,1,-0.00030214,-2.7451e-10,0,0.00020712,-9.7832e-05,-1.2287e+08,-68.916,0,6.5521e+07,-13.321,11570,12593,1,12593,1,0.00052635,2.0517e-10,0,0.00062137,5.6968e-05,1.2546e+08,55.738,0,1.8063e+08,1.5726,12592,591.12,0,591.12,0,0.00047814,4.83e-10,0,0.00025137,8.9396e-05,1.4541e+08,120.42,0,7.2627e+07,10.826,591.12,1
2044,2.92,12082,1,12082,1,0.00011249,1.559e-10,0,0.00042325,-2.0471e-05,7.1043,39.588,0,1.2638e+08,-2.4887,12081,13104,1,13104,1,0.00091414,6.1759e-10,0,0.00091414,0.00012944,2.0385e+08,153.74,0,2.8029e+08,13.291,13103,12082,1,12082,1,0.00011249,1.2359e-10,0,0.00041567,-2.042e-05,3.1708e+07,31.718,0,1.2589e+08,-1.1474,12081,10985,1,10985,1,-0.00068916,-3.924e-10,0,2.3419e-05,-0.00017046,-2.8029e+08,-96.477,0,6.8708e+06,-43.378,10984,11571,1,11571,1,-0.00030318,1.1223e-11,0,0.00020783,-9.8167e-05,-1.2329e+08,3.3307,0,6.5746e+07,-4.6589,11570,12593,1,12593,1,0.00052816,2.8476e-10,0,0.0006235,5.7164e-05,1.2589e+08,75.428,0,1.8125e+08,1.162,12592,591.12,0,591.12,0,0.00047978,1.9454e-10,0,0.00025223,8.9703e-05,1.4591e+08,47.57,0,7.2876e+07,5.8472,591.12,1
2044,2.93,12082,1,12082,1,0.00011288,-6.4682e-12,0,0.00042471,-2.0542e-05,-2.4735,-1.3051,0,1.2681e+08,-2.9808,12081,13104,1,13104,1,0.00091727,9.1372e-10,0,0.00091727,0.00012988,2.0455e+08,213.86,0,2.8125e+08,25.502,13103,12082,1,12082,1,0.00011288,2.2633e-11,0,0.00041709,-2.049e-05,3.1817e+07,6.622,0,1.2632e+08,-1.3531,12081,10985,1,10985,1,-0.00069152,-1.6249e-09,0,2.3499e-05,-0.00017104,-2.8125e+08,-377.29,0,6.8943e+06,-38.738,10984,11571,1,11571,1,-0.00030422,-2.6005e-10,0,0.00020855,-9.8504e-05,-1.2371e+08,-66.994,0,6.5972e+07,-11.411,11570,12593,1,12593,1,0.00052997,3.4345e-10,0,0.00062564,5.736e-05,1.2632e+08,89.665,0,1.8187e+08,5.4639,12592,591.12,0,591.12,0,0.00048143,5.1705e-10,0,0.00025309,9.001e-05,1.4641e+08,129.36,0,7.3126e+07,11.293,591.12,1
2044,2.94,12082,1,12082,1,0.00011326,2.2596e-10,0,0.00042616,-2.0612e-05,11.08,56.82,0,1.2725e+08,-4.2776,12081,13104,1,13104,1,0.0009204,9.1751e-10,0,0.0009204,0.00013032,2.0525e+08,221.29,0,2.8221e+08,14.313,13103,12082,1,12082,1,0.00011326,1.7273e-10,0,0.00041852,-2.056e-05,3.1926e+07,43.526,0,1.2675e+08,-1.925,12081,10985,1,10985,1,-0.00069388,-4.65e-10,0,2.3579e-05,-0.00017163,-2.8221e+08,-104.26,0,6.9179e+06,-58.012,10984,11571,1,11571,1,-0.00030525,-3.2875e-11,0,0.00020926,-9.884e-05,-1.2413e+08,-8.6658,0,6.6197e+07,-8.0639,11570,12593,1,12593,1,0.00053178,4.5594e-10,0,0.00062777,5.7555e-05,1.2675e+08,119.41,0,1.8249e+08,2.5063,12592,591.12,0,591.12,0,0.00048307,3.1105e-10,0,0.00025396,9.0317e-05,1.4691e+08,77.305,0,7.3376e+07,10.197,591.12,1
2044,2.95,12082,1,12082,1,0.00011365,3.7904e-10,0,0.0004276,-2.0682e-05,-0.59224,95.804,0,1.2768e+08,-5.442,12081,13104,1,13104,1,0.00092353,1.2962e-09,0,0.00092353,0.00013077,2.0595e+08,310.96,0,2.8317e+08,11.211,13103,12082,1,12082,1,0.00011365,2.8869e-10,0,0.00041994,-2.063e-05,3.2034e+07,74.595,0,1.2718e+08,-3.4866,12081,10985,1,10985,1,-0.00069624,-1.9087e-10,0,2.3659e-05,-0.00017221,-2.8317e+08,-47.18,0,6.9413e+06,-48.131,10984,11571,1,11571,1,-0.00030629,4.8024e-11,0,0.00020997,-9.9176e-05,-1.2456e+08,12.227,0,6.6422e+07,-11.492,11570,12593,1,12593,1,0.00053359,6.4966e-10,0,0.00062991,5.7751e-05,1.2718e+08,170.09,0,1.8311e+08,1.1615,12592,591.12,0,591.12,0,0.00048471,3.8016e-10,0,0.00025482,9.0624e-05,1.4741e+08,93.46,0,7.3625e+07,9.0701,591.12,1
2044,2.96,12082,1,12082,1,0.00011403,-4.94e-11,0,0.00042906,-2.0752e-05,-4.5933,-12.651,0,1.2811e+08,-4.9748,12081,13104,1,13104,1,0.00092666,6.2698e-10,0,0.00092666,0.00013121,2.0665e+08,142.34,0,2.8413e+08,9.1666,13103,12082,1,12082,1,0.00011403,4.698e-12,0,0.00042136,-2.07e-05,3.2143e+07,1.0387,0,1.2761e+08,-2.0836,12081,10985,1,10985,1,-0.0006986,-1.0865e-09,0,2.374e-05,-0.0001728,-2.8413e+08,-244.53,0,6.965e+06,-58.002,10984,11571,1,11571,1,-0.00030733,-1.7565e-10,0,0.00021068,-9.9513e-05,-1.2498e+08,-45.195,0,6.6647e+07,-7.7066,11570,12593,1,12593,1,0.0005354,1.1231e-10,0,0.00063205,5.7947e-05,1.2761e+08,30.022,0,1.8373e+08,2.0281,12592,591.12,0,591.12,0,0.00048636,2.8989e-10,0,0.00025569,9.0932e-05,1.4791e+08,72.417,0,7.3875e+07,10.505,591.12,1
2044,2.97,12082,1,12082,1,0.00011442,1.0362e-10,0,0.00043051,-2.0822e-05,18.353,26.841,0,1.2855e+08,-7.4359,12081,13104,1,13104,1,0.0009298,1.0753e-09,0,0.0009298,0.00013166,2.0735e+08,247.34,0,2.8509e+08,9.5053,13103,12082,1,12082,1,0.00011442,7.1513e-11,0,0.00042279,-2.077e-05,3.2252e+07,19.354,0,1.2805e+08,-5.4616,12081,10985,1,10985,1,-0.00070096,-1.1071e-09,0,2.382e-05,-0.00017338,-2.8509e+08,-251.24,0,6.9885e+06,-66.914,10984,11571,1,11571,1,-0.00030837,-6.887e-11,0,0.00021139,-9.9849e-05,-1.254e+08,-18.94,0,6.6873e+07,-11.408,11570,12593,1,12593,1,0.00053721,3.4167e-10,0,0.00063418,5.8143e-05,1.2805e+08,89.59,0,1.8435e+08,0.70404,12592,591.12,0,591.12,0,0.000488,3.8829e-10,0,0.00025655,9.124e-05,1.4841e+08,97.111,0,7.4125e+07,11.484,591.12,1
2044,2.98,12082,1,12082,1,0.0001148,-1.2684e-10,0,0.00043195,-2.0892e-05,1.9969,-31.921,0,1.2898e+08,-3.9621,12081,13104,1,13104,1,0.00093292,5.3403e-10,0,0.00093292,0.0001321,2.0804e+08,125,0,2.8605e+08,24.813,13103,12082,1,12082,1,0.0001148,-2.6459e-11,0,0.00042421,-2.0839e-05,3.236e+07,-6.5733,0,1.2848e+08,-3.9581,12081,10985,1,10985,1,-0.00070332,-1.4589e-09,0,2.39e-05,-0.00017396,-2.8605e+08,-363.54,0,7.012e+06,-40.585,10984,11571,1,11571,1,-0.00030941,-2.8755e-10,0,0.0002121,-0.00010018,-1.2582e+08,-73.351,0,6.7097e+07,-10.042,11570,12593,1,12593,1,0.00053901,9.3655e-11,0,0.00063631,5.8338e-05,1.2848e+08,24.173,0,1.8497e+08,1.4999,12592,591.12,0,591.12,0,0.00048964,3.6573e-10,0,0.00025741,9.1546e-05,1.4891e+08,90.058,0,7.4374e+07,9.6155,591.12,1
2044,2.99,12082,1,12082,1,0.00011519,-2.2846e-10,0,0.0004334,-2.0962e-05,-9.8334,-58.26,0,1.2941e+08,-4.6748,12081,13104,1,13104,1,0.00093605,8.0263e-11,0,0.00093605,0.00013254,2.0874e+08,27.488,0,2.8701e+08,17.592,13103,12082,1,12082,1,0.00011519,-1.8764e-10,0,0.00042563,-2.0909e-05,3.2468e+07,-48.4,0,1.2891e+08,-2.668,12081,10985,1,10985,1,-0.00070567,-7.7354e-10,0,2.398e-05,-0.00017455,-2.8701e+08,-179.98,0,7.0354e+06,-44.964,10984,11571,1,11571,1,-0.00031044,-3.0822e-10,0,0.00021282,-0.00010052,-1.2624e+08,-79.092,0,6.7322e+07,-8.5348,11570,12593,1,12593,1,0.00054082,-1.0755e-10,0,0.00063844,5.8534e-05,1.2891e+08,-28.153,0,1.8559e+08,0.27201,12592,591.12,0,591.12,0,0.00049128,1.7552e-10,0,0.00025827,9.1853e-05,1.4941e+08,42.989,0,7.4623e+07,7.6224,591.12,1
2044,3,12082,1,12082,1,0.00011557,-2.4838e-11,0,0.00043486,-2.1032e-05,-7.6104,-5.1074,0,1.2984e+08,-1.5868,12081,13104,1,13104,1,0.00093919,1.2416e-09,0,0.00093919,0.00013299,2.0944e+08,304.62,0,2.8797e+08,37.454,13103,12082,1,12082,1,0.00011557,5.5058e-11,0,0.00042706,-2.0979e-05,3.2577e+07,14.733,0,1.2934e+08,-1.0777,12081,10985,1,10985,1,-0.00070804,-2.3111e-09,0,2.4061e-05,-0.00017513,-2.8797e+08,-558.52,0,7.0591e+06,-46.277,10984,11571,1,11571,1,-0.00031149,-2.5432e-10,0,0.00021353,-0.00010086,-1.2667e+08,-63.97,0,6.7548e+07,-9.7212,11570,12593,1,12593,1,0.00054263,2.9864e-10,0,0.00064059,5.873e-05,1.2934e+08,79.842,0,1.8622e+08,6.8778,12592,591.12,0,591.12,0,0.00049293,5.881e-10,0,0.00025914,9.2161e-05,1.4991e+08,144.21,0,7.4874e+07,12.917,591.12,1
2044,3.01,12082,1,12082,1,0.00011596,1.56e-10,0,0.0004363,-2.1102e-05,-51.156,39.413,0,1.3027e+08,4.2149,12081,13104,1,13104,1,0.00094231,6.6098e-10,0,0.00094231,0.00013343,2.1014e+08,202.42,0,2.8893e+08,28.52,13103,12082,1,12082,1,0.00011596,1.417e-10,0,0.00042848,-2.1049e-05,3.2685e+07,38.066,0,1.2977e+08,3.6913,12081,10985,1,10985,1,-0.0007104,-2.0571e-10,0,2.414e-05,-0.00017571,-2.8893e+08,-50.402,0,7.0825e+06,-44.338,10984,11571,1,11571,1,-0.00031252,6.1238e-11,0,0.00021424,-0.00010119,-1.2709e+08,15.791,0,6.7772e+07,1.1405,11570,12593,1,12593,1,0.00054444,2.1719e-10,0,0.00064272,5.8926e-05,1.2977e+08,53.6,0,1.8683e+08,8.001,12592,591.12,0,591.12,0,0.00049457,1.3479e-10,0,0.00026,9.2467e-05,1.5041e+08,33.856,0,7.5122e+07,7.1532,591.12,1
2044,3.02,12082,1,12082,1,0.00011634,-7.392e-11,0,0.00043775,-2.1173e-05,-9.512,-17.506,0,1.3071e+08,-5.8502,12081,13104,1,13104,1,0.00094545,7.8882e-10,0,0.00094545,0.00013387,2.1084e+08,193.51,0,2.8989e+08,19.354,13103,12082,1,12082,1,0.00011634,2.4708e-11,0,0.00042991,-2.1119e-05,3.2794e+07,6.0778,0,1.302e+08,-5.103,12081,10985,1,10985,1,-0.00071276,-1.4848e-09,0,2.4221e-05,-0.0001763,-2.8989e+08,-364.44,0,7.1061e+06,-59.351,10984,11571,1,11571,1,-0.00031356,-2.6242e-10,0,0.00021495,-0.00010153,-1.2751e+08,-67.849,0,6.7998e+07,-12.333,11570,12593,1,12593,1,0.00054625,1.6571e-10,0,0.00064486,5.9122e-05,1.302e+08,45.383,0,1.8746e+08,1.597,12592,591.12,0,591.12,0,0.00049622,4.1839e-10,0,0.00026087,9.2775e-05,1.5091e+08,103.33,0,7.5373e+07,10.158,591.12,1
2044,3.03,12082,1,12082,1,0.00011673,-1.7543e-11,0,0.0004392,-2.1243e-05,5.6252,-3.7619,0,1.3114e+08,-2.9334,12081,13104,1,13104,1,0.00094858,3.6704e-10,0,0.00094858,0.00013431,2.1154e+08,80.244,0,2.9085e+08,6.4649,13103,12082,1,12082,1,0.00011673,2.1467e-11,0,0.00043133,-2.1189e-05,3.2903e+07,5.3259,0,1.3063e+08,-1.0232,12081,10985,1,10985,1,-0.00071512,-5.2992e-10,0,2.4301e-05,-0.00017688,-2.9085e+08,-114.53,0,7.1297e+06,-39.543,10984,11571,1,11571,1,-0.0003146,-8.0567e-11,0,0.00021566,-0.00010187,-1.2794e+08,-20.424,0,6.8223e+07,-3.5972,11570,12593,1,12593,1,0.00054806,5.3482e-11,0,0.00064699,5.9317e-05,1.3063e+08,16.272,0,1.8808e+08,0.79265,12592,591.12,0,591.12,0,0.00049786,1.4291e-10,0,0.00026173,9.3082e-05,1.5141e+08,35.045,0,7.5622e+07,7.0096,591.12,1
2044,3.04,12082,1,12082,1,0.00011711,9.5046e-11,0,0.00044066,-2.1313e-05,-4.6711,24.334,0,1.3158e+08,-6.0878,12081,13104,1,13104,1,0.00095172,1.3934e-09,0,0.00095172,0.00013476,2.1224e+08,325.45,0,2.9181e+08,22.658,13103,12082,1,12082,1,0.00011711,5.014e-11,0,0.00043276,-2.1259e-05,3.3012e+07,13.505,0,1.3106e+08,-5.6856,12081,10985,1,10985,1,-0.00071749,-1.3854e-09,0,2.4381e-05,-0.00017747,-2.9181e+08,-327.68,0,7.1532e+06,-35.542,10984,11571,1,11571,1,-0.00031564,-1.7932e-10,0,0.00021638,-0.0001022,-1.2836e+08,-45.108,0,6.8449e+07,-14.099,11570,12593,1,12593,1,0.00054987,4.2615e-10,0,0.00064913,5.9514e-05,1.3106e+08,109.23,0,1.887e+08,3.229,12592,591.12,0,591.12,0,0.00049951,5.1946e-10,0,0.0002626,9.339e-05,1.5191e+08,130.89,0,7.5872e+07,11.101,591.12,1
2044,3.05,12082,1,12082,1,0.0001175,2.9424e-10,0,0.0004421,-2.1383e-05,10.331,75.665,0,1.3201e+08,-6.0273,12081,13104,1,13104,1,0.00095484,1.1829e-09,0,0.00095484,0.0001352,2.1293e+08,273.14,0,2.9277e+08,11.261,13103,12082,1,12082,1,0.0001175,2.5174e-10,0,0.00043418,-2.1329e-05,3.312e+07,64.846,0,1.315e+08,-4.1078,12081,10985,1,10985,1,-0.00071984,-6.9277e-10,0,2.4462e-05,-0.00017805,-2.9277e+08,-155.09,0,7.1767e+06,-54.359,10984,11571,1,11571,1,-0.00031668,2.3979e-11,0,0.00021709,-0.00010254,-1.2878e+08,5.9294,0,6.8674e+07,-9.011,11570,12593,1,12593,1,0.00055168,5.5782e-10,0,0.00065127,5.9709e-05,1.315e+08,147.78,0,1.8932e+08,1.0026,12592,591.12,0,591.12,0,0.00050115,3.7437e-10,0,0.00026346,9.3697e-05,1.5241e+08,93.634,0,7.6121e+07,10.289,591.12,1
2044,3.06,12082,1,12082,1,0.00011788,7.067e-11,0,0.00044355,-2.1453e-05,8.5046,18.192,0,1.3244e+08,-4.8277,12081,13104,1,13104,1,0.00095797,6.2434e-10,0,0.00095797,0.00013564,2.1363e+08,140.83,0,2.9373e+08,6.6548,13103,12082,1,12082,1,0.00011788,5.6052e-11,0,0.0004356,-2.1399e-05,3.3229e+07,13.668,0,1.3193e+08,-2.9986,12081,10985,1,10985,1,-0.0007222,-6.9819e-10,0,2.4542e-05,-0.00017863,-2.9373e+08,-157.78,0,7.2003e+06,-54.394,10984,11571,1,11571,1,-0.00031772,-4.1989e-11,0,0.0002178,-0.00010287,-1.292e+08,-11.685,0,6.8899e+07,-6.3684,11570,12593,1,12593,1,0.00055348,2.2926e-10,0,0.0006534,5.9905e-05,1.3193e+08,61.142,0,1.8994e+08,1.0867,12592,591.12,0,591.12,0,0.00050279,2.4183e-10,0,0.00026432,9.4004e-05,1.5291e+08,60.248,0,7.6371e+07,8.9446,591.12,1
2044,3.07,12082,1,12082,1,0.00011827,1.0999e-10,0,0.000445,-2.1523e-05,5.5661,27.897,0,1.3287e+08,-1.2034,12081,13104,1,13104,1,0.0009611,1.063e-09,0,0.0009611,0.00013609,2.1433e+08,260.8,0,2.9469e+08,29.389,13103,12082,1,12082,1,0.00011827,4.6643e-11,0,0.00043702,-2.1469e-05,3.3337e+07,12.612,0,1.3236e+08,0.31262,12081,10985,1,10985,1,-0.00072456,-1.1166e-09,0,2.4622e-05,-0.00017922,-2.9469e+08,-273.91,0,7.2238e+06,-66.525,10984,11571,1,11571,1,-0.00031875,-6.7853e-11,0,0.00021851,-0.00010321,-1.2962e+08,-19.758,0,6.9124e+07,-7.2987,11570,12593,1,12593,1,0.00055529,3.1998e-10,0,0.00065554,6.0101e-05,1.3236e+08,85.102,0,1.9056e+08,4.7113,12592,591.12,0,591.12,0,0.00050443,3.5385e-10,0,0.00026519,9.4311e-05,1.5341e+08,86.171,0,7.6621e+07,10.448,591.12,1
2044,3.08,12082,1,12082,1,0.00011865,2.7757e-10,0,0.00044645,-2.1593e-05,0.70207,70.192,0,1.3331e+08,0.81991,12081,13104,1,13104,1,0.00096423,1.7606e-09,0,0.00096423,0.00013653,2.1503e+08,432.01,0,2.9565e+08,32.443,13103,12082,1,12082,1,0.00011865,1.9456e-10,0,0.00043844,-2.1539e-05,3.3446e+07,50.954,0,1.3279e+08,1.6309,12081,10985,1,10985,1,-0.00072692,-1.3914e-09,0,2.4702e-05,-0.0001798,-2.9565e+08,-341.32,0,7.2472e+06,-51.563,10984,11571,1,11571,1,-0.00031979,-3.4087e-11,0,0.00021922,-0.00010355,-1.3005e+08,-9.8289,0,6.9349e+07,-7.7436,11570,12593,1,12593,1,0.0005571,5.3598e-10,0,0.00065767,6.0296e-05,1.3279e+08,151.91,0,1.9118e+08,10.124,12592,591.12,0,591.12,0,0.00050607,5.3476e-10,0,0.00026605,9.4618e-05,1.5391e+08,127.79,0,7.687e+07,13.964,591.12,1
2044,3.09,12082,1,12082,1,0.00011904,1.7953e-10,0,0.0004479,-2.1664e-05,-2.2619,46.342,0,1.3374e+08,-2.9362,12081,13104,1,13104,1,0.00096737,1.662e-09,0,0.00096737,0.00013698,2.1573e+08,404.67,0,2.9661e+08,22.968,13103,12082,1,12082,1,0.00011904,1.2733e-10,0,0.00043987,-2.1609e-05,3.3555e+07,35.166,0,1.3322e+08,-1.6126,12081,10985,1,10985,1,-0.00072929,-1.5112e-09,0,2.4783e-05,-0.00018039,-2.9661e+08,-369.05,0,7.2709e+06,-68.383,10984,11571,1,11571,1,-0.00032083,-1.4707e-10,0,0.00021994,-0.00010388,-1.3047e+08,-38.148,0,6.9575e+07,-10.166,11570,12593,1,12593,1,0.00055892,5.8085e-10,0,0.00065981,6.0493e-05,1.3322e+08,152.6,0,1.918e+08,7.7715,12592,591.12,0,591.12,0,0.00050772,6.0753e-10,0,0.00026692,9.4927e-05,1.5441e+08,152.62,0,7.712e+07,14.268,591.12,1
2044,3.1,12082,1,12082,1,0.00011942,-1.8025e-11,0,0.00044935,-2.1733e-05,-17.4,-4.1552,0,1.3417e+08,-5.7803,12081,13104,1,13104,1,0.00097049,5.8172e-10,0,0.00097049,0.00013742,2.1642e+08,139.9,0,2.9757e+08,24.483,13103,12082,1,12082,1,0.00011942,2.5505e-11,0,0.00044129,-2.1679e-05,3.3663e+07,7.1978,0,1.3365e+08,-4.3177,12081,10985,1,10985,1,-0.00073164,-1.2548e-09,0,2.4862e-05,-0.00018097,-2.9757e+08,-274.85,0,7.2943e+06,-49.877,10984,11571,1,11571,1,-0.00032187,-1.7449e-10,0,0.00022065,-0.00010422,-1.3089e+08,-45.839,0,6.9799e+07,-12.894,11570,12593,1,12593,1,0.00056072,2.1531e-10,0,0.00066194,6.0688e-05,1.3365e+08,57.877,0,1.9242e+08,1.1265,12592,591.12,0,591.12,0,0.00050936,3.5623e-10,0,0.00026778,9.5232e-05,1.5491e+08,88.791,0,7.7369e+07,9.5577,591.12,1
2044,3.11,12082,1,12082,1,0.00011981,-3.7894e-11,0,0.0004508,-2.1804e-05,-10.562,-9.5095,0,1.346e+08,-8.8535,12081,13104,1,13104,1,0.00097363,9.5384e-10,0,0.00097363,0.00013786,2.1712e+08,222.15,0,2.9853e+08,31.759,13103,12082,1,12082,1,0.00011981,2.8357e-11,0,0.00044272,-2.1749e-05,3.3772e+07,7.5724,0,1.3408e+08,-6.4677,12081,10985,1,10985,1,-0.00073401,-1.5468e-09,0,2.4943e-05,-0.00018155,-2.9853e+08,-365.45,0,7.3179e+06,-52.838,10984,11571,1,11571,1,-0.00032291,-3.3588e-10,0,0.00022136,-0.00010456,-1.3131e+08,-85.895,0,7.0025e+07,-18.234,11570,12593,1,12593,1,0.00056253,3.1627e-10,0,0.00066408,6.0884e-05,1.3408e+08,82.935,0,1.9304e+08,1.655,12592,591.12,0,591.12,0,0.00051101,5.1306e-10,0,0.00026864,9.554e-05,1.5541e+08,129.61,0,7.7619e+07,13.743,591.12,1
2044,3.12,12082,1,12082,1,0.0001202,1.8626e-11,0,0.00045225,-2.1874e-05,-7.741,5.1053,0,1.3504e+08,-12.513,12081,13104,1,13104,1,0.00097676,1.3798e-09,0,0.00097676,0.0001383,2.1782e+08,336.27,0,2.9949e+08,25.011,13103,12082,1,12082,1,0.0001202,5.9022e-11,0,0.00044414,-2.1819e-05,3.3881e+07,14.778,0,1.3451e+08,-5.5628,12081,10985,1,10985,1,-0.00073637,-2.3774e-09,0,2.5023e-05,-0.00018214,-2.9949e+08,-564.91,0,7.3415e+06,-92.49,10984,11571,1,11571,1,-0.00032395,-3.1623e-10,0,0.00022207,-0.00010489,-1.3174e+08,-79.572,0,7.025e+07,-24.916,11570,12593,1,12593,1,0.00056434,5.2072e-10,0,0.00066622,6.108e-05,1.3451e+08,137.22,0,1.9367e+08,3.4719,12592,591.12,0,591.12,0,0.00051265,7.5058e-10,0,0.00026951,9.5848e-05,1.5591e+08,188.48,0,7.7869e+07,21.853,591.12,1
2044,3.13,12082,1,12082,1,0.00012058,3.5636e-11,0,0.0004537,-2.1944e-05,0.64493,8.7581,0,1.3547e+08,-3.4615,12081,13104,1,13104,1,0.00097989,1.0659e-09,0,0.00097989,0.00013875,2.1852e+08,261.51,0,3.0045e+08,22.073,13103,12082,1,12082,1,0.00012058,5.2365e-11,0,0.00044557,-2.1889e-05,3.3989e+07,13.402,0,1.3494e+08,-1.8719,12081,10985,1,10985,1,-0.00073873,-1.7273e-09,0,2.5103e-05,-0.00018272,-3.0045e+08,-423.93,0,7.365e+06,-60.349,10984,11571,1,11571,1,-0.00032498,-1.7994e-10,0,0.00022278,-0.00010523,-1.3216e+08,-45.48,0,7.0475e+07,-10.319,11570,12593,1,12593,1,0.00056615,3.5199e-10,0,0.00066835,6.1275e-05,1.3494e+08,93.909,0,1.9429e+08,4.7767,12592,591.12,0,591.12,0,0.00051429,5.0311e-10,0,0.00027037,9.6155e-05,1.5641e+08,125.37,0,7.8118e+07,11.937,591.12,1
2044,3.14,12082,1,12082,1,0.00012097,2.3192e-10,0,0.00045515,-2.2014e-05,2.5088,59.475,0,1.359e+08,-6.9952,12081,13104,1,13104,1,0.00098302,1.1495e-09,0,0.00098302,0.00013919,2.1922e+08,275.31,0,3.0141e+08,10.622,13103,12082,1,12082,1,0.00012097,1.72e-10,0,0.00044699,-2.1959e-05,3.4098e+07,45.933,0,1.3538e+08,-3.3123,12081,10985,1,10985,1,-0.00074109,-5.4144e-10,0,2.5183e-05,-0.0001833,-3.0141e+08,-123.09,0,7.3885e+06,-72.277,10984,11571,1,11571,1,-0.00032602,3.0783e-11,0,0.00022349,-0.00010556,-1.3258e+08,8.2871,0,7.07e+07,-9.5442,11570,12593,1,12593,1,0.00056796,4.0503e-10,0,0.00067048,6.1471e-05,1.3538e+08,105.84,0,1.9491e+08,0.50134,12592,591.12,0,591.12,0,0.00051594,3.0106e-10,0,0.00027124,9.6462e-05,1.5691e+08,74.646,0,7.8368e+07,11.36,591.12,1
2044,3.15,12082,1,12082,1,0.00012135,2.6177e-11,0,0.0004566,-2.2084e-05,3.204,6.4938,0,1.3634e+08,-5.7603,12081,13104,1,13104,1,0.00098615,8.5858e-10,0,0.00098615,0.00013963,2.1991e+08,197.36,0,3.0237e+08,9.5184,13103,12082,1,12082,1,0.00012135,2.1895e-11,0,0.00044841,-2.2028e-05,3.4206e+07,5.6074,0,1.3581e+08,-3.8348,12081,10985,1,10985,1,-0.00074344,-1.0402e-09,0,2.5264e-05,-0.00018389,-3.0237e+08,-234.36,0,7.4121e+06,-58.224,10984,11571,1,11571,1,-0.00032706,-1.4356e-10,0,0.00022421,-0.0001059,-1.33e+08,-37.654,0,7.0925e+07,-8.9165,11570,12593,1,12593,1,0.00056976,2.3829e-10,0,0.00067262,6.1667e-05,1.3581e+08,62.848,0,1.9553e+08,2.2233,12592,591.12,0,591.12,0,0.00051758,3.4146e-10,0,0.0002721,9.6769e-05,1.5741e+08,85.075,0,7.8617e+07,10.821,591.12,1
2044,3.16,12082,1,12082,1,0.00012174,9.0726e-11,0,0.00045805,-2.2154e-05,-3.4492,23.26,0,1.3677e+08,-4.8502,12081,13104,1,13104,1,0.00098928,7.8281e-10,0,0.00098928,0.00014008,2.2061e+08,178.13,0,3.0333e+08,9.1164,13103,12082,1,12082,1,0.00012174,6.2088e-11,0,0.00044983,-2.2098e-05,3.4315e+07,15.169,0,1.3624e+08,-3.3025,12081,10985,1,10985,1,-0.0007458,-8.0035e-10,0,2.5344e-05,-0.00018447,-3.0333e+08,-185.51,0,7.4355e+06,-50.573,10984,11571,1,11571,1,-0.0003281,-6.3716e-11,0,0.00022492,-0.00010624,-1.3342e+08,-17.279,0,7.115e+07,-7.3435,11570,12593,1,12593,1,0.00057157,2.9084e-10,0,0.00067475,6.1862e-05,1.3624e+08,77.353,0,1.9615e+08,1.5644,12592,591.12,0,591.12,0,0.00051922,2.9894e-10,0,0.00027296,9.7076e-05,1.5791e+08,74.718,0,7.8867e+07,8.9725,591.12,1
2044,3.17,12082,1,12082,1,0.00012212,2.3948e-10,0,0.0004595,-2.2224e-05,2.3072,62.005,0,1.372e+08,-5.3584,12081,13104,1,13104,1,0.00099241,1.4835e-09,0,0.00099241,0.00014052,2.2131e+08,348.36,0,3.0429e+08,17.357,13103,12082,1,12082,1,0.00012212,1.8848e-10,0,0.00045126,-2.2168e-05,3.4423e+07,48.594,0,1.3667e+08,-3.7762,12081,10985,1,10985,1,-0.00074817,-1.0577e-09,0,2.5424e-05,-0.00018506,-3.0429e+08,-257.76,0,7.4591e+06,-56.837,10984,11571,1,11571,1,-0.00032914,3.7599e-12,0,0.00022563,-0.00010657,-1.3385e+08,0.92138,0,7.1376e+07,-10.834,11570,12593,1,12593,1,0.00057338,5.2719e-10,0,0.00067689,6.2058e-05,1.3667e+08,138.49,0,1.9677e+08,3.4773,12592,591.12,0,591.12,0,0.00052087,4.6832e-10,0,0.00027383,9.7384e-05,1.5841e+08,118.14,0,7.9116e+07,12.14,591.12,1
2044,3.18,12082,1,12082,1,0.00012251,-4.6607e-11,0,0.00046096,-2.2295e-05,-28.4,-11.847,0,1.3764e+08,6.8697,12081,13104,1,13104,1,0.00099556,1.9096e-10,0,0.00099556,0.00014097,2.2201e+08,62.941,0,3.0526e+08,22.46,13103,12082,1,12082,1,0.00012251,-1.837e-11,0,0.00045269,-2.2239e-05,3.4533e+07,-4.7092,0,1.371e+08,8.1205,12081,10985,1,10985,1,-0.00075054,-3.5564e-10,0,2.5505e-05,-0.00018564,-3.0526e+08,-85.003,0,7.4827e+06,-27.345,10984,11571,1,11571,1,-0.00033018,-1.0697e-10,0,0.00022635,-0.00010691,-1.3427e+08,-28.149,0,7.1603e+07,3.9503,11570,12593,1,12593,1,0.0005752,2.516e-11,0,0.00067904,6.2256e-05,1.371e+08,6.7355,0,1.9739e+08,11.489,12592,591.12,0,591.12,0,0.00052252,1.0841e-10,0,0.0002747,9.7693e-05,1.5891e+08,27.496,0,7.9368e+07,7.6747,591.12,1
2044,3.19,12082,1,12082,1,0.00012289,1.4081e-10,0,0.00046239,-2.2364e-05,-17.418,36.348,0,1.3807e+08,-7.5071,12081,13104,1,13104,1,0.00099867,1.2531e-09,0,0.00099867,0.00014141,2.2271e+08,294.65,0,3.0621e+08,24.546,13103,12082,1,12082,1,0.00012289,7.5682e-11,0,0.00045411,-2.2308e-05,3.464e+07,18.681,0,1.3753e+08,-6.9374,12081,10985,1,10985,1,-0.00075288,-1.2353e-09,0,2.5584e-05,-0.00018622,-3.0621e+08,-289.15,0,7.5061e+06,-42.525,10984,11571,1,11571,1,-0.00033121,-9.8225e-11,0,0.00022705,-0.00010725,-1.3469e+08,-25.299,0,7.1826e+07,-16.465,11570,12593,1,12593,1,0.000577,4.2681e-10,0,0.00068116,6.245e-05,1.3753e+08,113.66,0,1.9801e+08,0.66391,12592,591.12,0,591.12,0,0.00052415,4.7066e-10,0,0.00027555,9.7998e-05,1.5941e+08,116.53,0,7.9615e+07,10.938,591.12,1
2044,3.2,12082,1,12082,1,0.00012328,2.1262e-10,0,0.00046384,-2.2434e-05,-8.5264,53.744,0,1.385e+08,-4.4044,12081,13104,1,13104,1,0.0010018,8.6804e-10,0,0.0010018,0.00014185,2.234e+08,217.12,0,3.0717e+08,17.991,13103,12082,1,12082,1,0.00012328,1.4529e-10,0,0.00045553,-2.2378e-05,3.4749e+07,37.716,0,1.3796e+08,-2.4142,12081,10985,1,10985,1,-0.00075524,-3.2451e-10,0,2.5664e-05,-0.00018681,-3.0717e+08,-69.363,0,7.5296e+06,-58.467,10984,11571,1,11571,1,-0.00033225,-9.8402e-12,0,0.00022776,-0.00010758,-1.3511e+08,-2.7149,0,7.2051e+07,-9.5273,11570,12593,1,12593,1,0.0005788,4.1113e-10,0,0.00068329,6.2645e-05,1.3796e+08,108.08,0,1.9863e+08,1.7258,12592,591.12,0,591.12,0,0.00052579,2.7085e-10,0,0.00027642,9.8304e-05,1.5991e+08,67.138,0,7.9864e+07,9.2895,591.12,1
2044,3.21,12082,1,12082,1,0.00012366,-1.7953e-12,0,0.00046529,-2.2505e-05,-12.328,0.58744,0,1.3893e+08,-2.5476,12081,13104,1,13104,1,0.0010049,7.4303e-10,0,0.0010049,0.00014229,2.241e+08,170.26,0,3.0813e+08,34.308,13103,12082,1,12082,1,0.00012366,7.1759e-11,0,0.00045695,-2.2448e-05,3.4858e+07,18.697,0,1.3839e+08,-3.0366,12081,10985,1,10985,1,-0.0007576,-1.3443e-09,0,2.5744e-05,-0.00018739,-3.0813e+08,-311.86,0,7.5531e+06,-36.166,10984,11571,1,11571,1,-0.00033329,-1.5787e-10,0,0.00022848,-0.00010792,-1.3554e+08,-38.874,0,7.2276e+07,-9.5649,11570,12593,1,12593,1,0.00058061,2.4511e-10,0,0.00068543,6.2841e-05,1.3839e+08,65.622,0,1.9925e+08,2.5543,12592,591.12,0,591.12,0,0.00052743,4.0153e-10,0,0.00027728,9.8612e-05,1.6041e+08,100.83,0,8.0114e+07,10.666,591.12,1
2044,3.22,12082,1,12082,1,0.00012405,-7.9381e-11,0,0.00046674,-2.2575e-05,2.2073,-19.905,0,1.3936e+08,-4.1168,12081,13104,1,13104,1,0.0010081,3.7877e-11,0,0.0010081,0.00014274,2.248e+08,12.97,0,3.0909e+08,3.6755,13103,12082,1,12082,1,0.00012405,-7.8862e-11,0,0.00045837,-2.2518e-05,3.4966e+07,-19.951,0,1.3882e+08,-0.94905,12081,10985,1,10985,1,-0.00075996,-2.3914e-10,0,2.5825e-05,-0.00018797,-3.0909e+08,-56.617,0,7.5767e+06,-70.273,10984,11571,1,11571,1,-0.00033433,-1.2301e-10,0,0.00022919,-0.00010825,-1.3596e+08,-31.955,0,7.2501e+07,-4.1976,11570,12593,1,12593,1,0.00058242,-2.675e-11,0,0.00068756,6.3037e-05,1.3882e+08,-7.3112,0,1.9987e+08,0.77337,12592,591.12,0,591.12,0,0.00052908,6.6793e-11,0,0.00027814,9.8919e-05,1.609e+08,16.43,0,8.0363e+07,9.0501,591.12,1
2044,3.23,12082,1,12082,1,0.00012443,1.0952e-11,0,0.00046819,-2.2645e-05,1.7358,3.2459,0,1.398e+08,-3.8064,12081,13104,1,13104,1,0.0010112,5.8207e-10,0,0.0010112,0.00014318,2.255e+08,130.49,0,3.1005e+08,12.941,13103,12082,1,12082,1,0.00012443,4.2113e-11,0,0.0004598,-2.2588e-05,3.5075e+07,12.009,0,1.3926e+08,-2.3117,12081,10985,1,10985,1,-0.00076232,-9.9028e-10,0,2.5905e-05,-0.00018856,-3.1005e+08,-224.33,0,7.6003e+06,-47.37,10984,11571,1,11571,1,-0.00033537,-8.7802e-11,0,0.0002299,-0.00010859,-1.3638e+08,-22.535,0,7.2727e+07,-6.0355,11570,12593,1,12593,1,0.00058423,1.8088e-10,0,0.0006897,6.3233e-05,1.3926e+08,47.902,0,2.0049e+08,1.8446,12592,591.12,0,591.12,0,0.00053072,2.7407e-10,0,0.00027901,9.9227e-05,1.6141e+08,68.595,0,8.0614e+07,9.0601,591.12,1
2044,3.24,12082,1,12082,1,0.00012482,-1.4201e-09,0,0.00046964,-2.2715e-05,-7.9471,-363.59,0,1.4023e+08,-1.4208,12081,13104,1,13104,1,0.0010143,9.7057e-11,0,0.0010143,0.00014362,2.262e+08,33.237,0,3.1101e+08,55.386,13103,12082,1,12082,1,0.00012482,-1.4774e-09,0,0.00046122,-2.2657e-05,3.5183e+07,-408.32,0,1.3968e+08,-0.39363,12081,10985,1,10985,1,-0.00076468,-2.7845e-09,0,2.5985e-05,-0.00018914,-3.1101e+08,-666.17,0,7.6236e+06,-37.676,10984,11571,1,11571,1,-0.0003364,-2.085e-09,0,0.00023061,-0.00010893,-1.368e+08,-523.57,0,7.2951e+07,-5.5364,11570,12593,1,12593,1,0.00058604,-8.1168e-10,0,0.00069183,6.3428e-05,1.3968e+08,-212.01,0,2.0111e+08,2.2441,12592,591.12,0,591.12,0,0.00053236,7.8883e-10,0,0.00027987,9.9533e-05,1.619e+08,192.65,0,8.0862e+07,8.2921,591.12,1
2044,3.25,12082,1,12082,1,0.0001252,-5.8975e-11,0,0.00047109,-2.2785e-05,-6.2308,-14.359,0,1.4066e+08,-6.8812,12081,13104,1,13104,1,0.0010174,5.3935e-10,0,0.0010174,0.00014407,2.2689e+08,120.76,0,3.1197e+08,21.14,13103,12082,1,12082,1,0.0001252,1.9284e-11,0,0.00046264,-2.2728e-05,3.5292e+07,4.7496,0,1.4012e+08,-5.7535,12081,10985,1,10985,1,-0.00076704,-1.291e-09,0,2.6065e-05,-0.00018972,-3.1197e+08,-296.04,0,7.6473e+06,-40.712,10984,11571,1,11571,1,-0.00033744,-1.8146e-10,0,0.00023132,-0.00010926,-1.3722e+08,-46.634,0,7.3176e+07,-12.916,11570,12593,1,12593,1,0.00058785,1.3091e-10,0,0.00069397,6.3624e-05,1.4012e+08,35.527,0,2.0173e+08,-0.32263,12592,591.12,0,591.12,0,0.00053401,3.2748e-10,0,0.00028074,9.984e-05,1.624e+08,81.512,0,8.1112e+07,9.5785,591.12,1
2044,3.26,12082,1,12082,1,0.00012559,2.3841e-10,0,0.00047254,-2.2855e-05,-1.6424,60.179,0,1.411e+08,-4.7863,12081,13104,1,13104,1,0.0010206,7.2318e-10,0,0.0010206,0.00014451,2.2759e+08,173.08,0,3.1293e+08,7.2356,13103,12082,1,12082,1,0.00012559,2.0663e-10,0,0.00046407,-2.2797e-05,3.54e+07,54.619,0,1.4055e+08,-2.7285,12081,10985,1,10985,1,-0.0007694,-1.0641e-10,0,2.6145e-05,-0.00019031,-3.1293e+08,-36.436,0,7.6708e+06,-54.083,10984,11571,1,11571,1,-0.00033848,7.8253e-11,0,0.00023203,-0.0001096,-1.3765e+08,20.687,0,7.3402e+07,-5.6509,11570,12593,1,12593,1,0.00058966,3.8086e-10,0,0.0006961,6.382e-05,1.4055e+08,99.712,0,2.0235e+08,-0.24727,12592,591.12,0,591.12,0,0.00053565,2.0856e-10,0,0.0002816,0.00010015,1.629e+08,50.872,0,8.1362e+07,8.5091,591.12,1
2044,3.27,12082,1,12082,1,0.00012597,2.9089e-11,0,0.00047399,-2.2925e-05,10.157,7.7255,0,1.4153e+08,-9.7489,12081,13104,1,13104,1,0.0010237,7.8558e-10,0,0.0010237,0.00014495,2.2829e+08,175.66,0,3.1389e+08,9.9944,13103,12082,1,12082,1,0.00012597,3.3737e-11,0,0.00046549,-2.2868e-05,3.5509e+07,8.8908,0,1.4098e+08,-6.898,12081,10985,1,10985,1,-0.00077176,-9.2668e-10,0,2.6226e-05,-0.00019089,-3.1389e+08,-212.02,0,7.6944e+06,-48.004,10984,11571,1,11571,1,-0.00033952,-1.2486e-10,0,0.00023275,-0.00010993,-1.3807e+08,-31.64,0,7.3627e+07,-14.405,11570,12593,1,12593,1,0.00059147,2.1008e-10,0,0.00069824,6.4016e-05,1.4098e+08,56.044,0,2.0297e+08,-1.87,12592,591.12,0,591.12,0,0.00053729,3.0237e-10,0,0.00028246,0.00010046,1.634e+08,74.119,0,8.1612e+07,10.83,591.12,1
2044,3.28,12082,1,12082,1,0.00012636,-1.8236e-11,0,0.00047544,-2.2995e-05,-0.19861,-4.7665,0,1.4196e+08,-6.2909,12081,13104,1,13104,1,0.0010268,5.6196e-10,0,0.0010268,0.0001454,2.2899e+08,127.68,0,3.1485e+08,20.437,13103,12082,1,12082,1,0.00012636,1.5167e-11,0,0.00046691,-2.2937e-05,3.5618e+07,3.8926,0,1.4141e+08,-4.524,12081,10985,1,10985,1,-0.00077412,-9.5951e-10,0,2.6306e-05,-0.00019148,-3.1485e+08,-230.73,0,7.7179e+06,-44.321,10984,11571,1,11571,1,-0.00034056,-1.8121e-10,0,0.00023346,-0.00011027,-1.3849e+08,-46.23,0,7.3852e+07,-10.828,11570,12593,1,12593,1,0.00059327,1.8848e-10,0,0.00070037,6.4211e-05,1.4141e+08,49.085,0,2.0359e+08,-0.017061,12592,591.12,0,591.12,0,0.00053893,3.1077e-10,0,0.00028333,0.00010076,1.639e+08,78.446,0,8.1861e+07,8.5083,591.12,1
2044,3.29,12082,1,12082,1,0.00012674,1.8132e-10,0,0.00047689,-2.3065e-05,5.6888,46.279,0,1.4239e+08,-5.6763,12081,13104,1,13104,1,0.00103,9.5428e-10,0,0.00103,0.00014584,2.2969e+08,231.67,0,3.1581e+08,18.089,13103,12082,1,12082,1,0.00012674,1.2919e-10,0,0.00046834,-2.3007e-05,3.5726e+07,34.161,0,1.4184e+08,-3.7358,12081,10985,1,10985,1,-0.00077648,-8.373e-10,0,2.6386e-05,-0.00019206,-3.1581e+08,-205.14,0,7.7414e+06,-36.439,10984,11571,1,11571,1,-0.00034159,-4.7379e-11,0,0.00023417,-0.00011061,-1.3891e+08,-11.655,0,7.4077e+07,-11.263,11570,12593,1,12593,1,0.00059508,4.5265e-10,0,0.00070251,6.4407e-05,1.4184e+08,117.87,0,2.0422e+08,1.3652,12592,591.12,0,591.12,0,0.00054058,3.7765e-10,0,0.00028419,0.00010107,1.644e+08,95.107,0,8.2111e+07,9.4063,591.12,1
2044,3.3,12082,1,12082,1,0.00012713,-7.1045e-11,0,0.00047834,-2.3136e-05,-1.2352,-17.609,0,1.4283e+08,-4.6248,12081,13104,1,13104,1,0.0010331,7.0241e-10,0,0.0010331,0.00014628,2.3039e+08,160.02,0,3.1677e+08,11.785,13103,12082,1,12082,1,0.00012713,3.313e-12,0,0.00046976,-2.3077e-05,3.5835e+07,0.9061,0,1.4227e+08,-1.8774,12081,10985,1,10985,1,-0.00077885,-1.111e-09,0,2.6467e-05,-0.00019264,-3.1677e+08,-250.44,0,7.765e+06,-52.183,10984,11571,1,11571,1,-0.00034263,-2.2747e-10,0,0.00023488,-0.00011094,-1.3934e+08,-58.771,0,7.4303e+07,-7.7799,11570,12593,1,12593,1,0.00059689,8.2733e-11,0,0.00070465,6.4603e-05,1.4227e+08,24.986,0,2.0484e+08,2.3054,12592,591.12,0,591.12,0,0.00054222,3.0064e-10,0,0.00028506,0.00010138,1.649e+08,74.515,0,8.2361e+07,10.827,591.12,1
2044,3.31,12082,1,12082,1,0.00012752,2.1852e-10,0,0.00047979,-2.3206e-05,-0.30978,55.806,0,1.4326e+08,-8.0427,12081,13104,1,13104,1,0.0010362,1.1658e-09,0,0.0010362,0.00014673,2.3108e+08,265.88,0,3.1773e+08,16.667,13103,12082,1,12082,1,0.00012752,1.5524e-10,0,0.00047119,-2.3147e-05,3.5943e+07,42.325,0,1.427e+08,-6.656,12081,10985,1,10985,1,-0.0007812,-9.3579e-10,0,2.6547e-05,-0.00019323,-3.1773e+08,-224.77,0,7.7885e+06,-46.871,10984,11571,1,11571,1,-0.00034367,-1.084e-11,0,0.00023559,-0.00011128,-1.3976e+08,-2.2382,0,7.4528e+07,-14.181,11570,12593,1,12593,1,0.0005987,4.8412e-10,0,0.00070678,6.4799e-05,1.427e+08,129.07,0,2.0546e+08,-0.12933,12592,591.12,0,591.12,0,0.00054387,4.1021e-10,0,0.00028592,0.00010168,1.654e+08,101.85,0,8.261e+07,10.997,591.12,1
2044,3.32,12082,1,12082,1,0.0001279,3.3292e-10,0,0.00048124,-2.3276e-05,-2.7735,84.554,0,1.4369e+08,-7.6295,12081,13104,1,13104,1,0.0010394,1.3701e-09,0,0.0010394,0.00014717,2.3178e+08,326.79,0,3.1869e+08,15.142,13103,12082,1,12082,1,0.0001279,2.4712e-10,0,0.00047261,-2.3217e-05,3.6052e+07,63.725,0,1.4313e+08,-6.2082,12081,10985,1,10985,1,-0.00078356,-7.7568e-10,0,2.6627e-05,-0.00019381,-3.1869e+08,-174.85,0,7.812e+06,-56.893,10984,11571,1,11571,1,-0.00034471,3.7411e-13,0,0.0002363,-0.00011162,-1.4018e+08,0.116,0,7.4753e+07,-14.209,11570,12593,1,12593,1,0.00060051,6.7596e-10,0,0.00070891,6.4994e-05,1.4313e+08,179.65,0,2.0608e+08,0.92308,12592,591.12,0,591.12,0,0.00054551,4.7179e-10,0,0.00028678,0.00010199,1.659e+08,117,0,8.2859e+07,11.969,591.12,1
2044,3.33,12082,1,12082,1,0.00012829,1.8741e-10,0,0.00048269,-2.3346e-05,-3.3034,47.582,0,1.4413e+08,-5.4874,12081,13104,1,13104,1,0.0010425,1.0325e-09,0,0.0010425,0.00014761,2.3248e+08,249.99,0,3.1965e+08,18.076,13103,12082,1,12082,1,0.00012829,1.0024e-10,0,0.00047403,-2.3287e-05,3.6161e+07,26.408,0,1.4357e+08,-3.3297,12081,10985,1,10985,1,-0.00078592,-8.0053e-10,0,2.6707e-05,-0.0001944,-3.1965e+08,-179.2,0,7.8355e+06,-53.665,10984,11571,1,11571,1,-0.00034575,-6.6271e-11,0,0.00023702,-0.00011195,-1.406e+08,-16.689,0,7.4978e+07,-12.996,11570,12593,1,12593,1,0.00060232,4.6905e-10,0,0.00071105,6.519e-05,1.4357e+08,121.76,0,2.067e+08,2.2913,12592,591.12,0,591.12,0,0.00054715,3.903e-10,0,0.00028765,0.0001023,1.664e+08,98.078,0,8.3109e+07,10.796,591.12,1
2044,3.34,12082,1,12082,1,0.00012867,1.0256e-10,0,0.00048414,-2.3416e-05,13.904,25.813,0,1.4456e+08,-8.1525,12081,13104,1,13104,1,0.0010456,9.2283e-10,0,0.0010456,0.00014806,2.3318e+08,207.84,0,3.2061e+08,7.8667,13103,12082,1,12082,1,0.00012867,5.1546e-11,0,0.00047546,-2.3357e-05,3.6269e+07,13.715,0,1.44e+08,-6.4806,12081,10985,1,10985,1,-0.00078829,-7.8705e-10,0,2.6787e-05,-0.00019498,-3.2061e+08,-174.55,0,7.8591e+06,-49.419,10984,11571,1,11571,1,-0.00034679,-6.5408e-11,0,0.00023773,-0.00011229,-1.4102e+08,-17.539,0,7.5203e+07,-11.388,11570,12593,1,12593,1,0.00060413,2.9672e-10,0,0.00071319,6.5386e-05,1.44e+08,78.244,0,2.0732e+08,-1.1083,12592,591.12,0,591.12,0,0.0005488,3.1578e-10,0,0.00028851,0.00010261,1.669e+08,77.409,0,8.3359e+07,9.4662,591.12,1
2044,3.35,12082,1,12082,1,0.00012906,-2.0666e-11,0,0.00048559,-2.3486e-05,-2.5974,-4.5934,0,1.4499e+08,-6.551,12081,13104,1,13104,1,0.0010488,6.0582e-10,0,0.0010488,0.0001485,2.3388e+08,135.7,0,3.2157e+08,8.8576,13103,12082,1,12082,1,0.00012906,2.0041e-11,0,0.00047688,-2.3427e-05,3.6378e+07,5.4223,0,1.4443e+08,-3.2717,12081,10985,1,10985,1,-0.00079065,-9.2337e-10,0,2.6868e-05,-0.00019556,-3.2157e+08,-205.51,0,7.8826e+06,-57.512,10984,11571,1,11571,1,-0.00034783,-1.0136e-10,0,0.00023844,-0.00011262,-1.4145e+08,-25.583,0,7.5428e+07,-8.4004,11570,12593,1,12593,1,0.00060594,8.3122e-11,0,0.00071532,6.5582e-05,1.4443e+08,22.112,0,2.0794e+08,-0.51714,12592,591.12,0,591.12,0,0.00055044,2.3067e-10,0,0.00028937,0.00010291,1.674e+08,56.277,0,8.3609e+07,9.9541,591.12,1
2044,3.36,12082,1,12082,1,0.00012944,4.3812e-10,0,0.00048704,-2.3556e-05,-56.53,109.66,0,1.4543e+08,2.1656,12081,13104,1,13104,1,0.0010519,1.1471e-09,0,0.0010519,0.00014894,2.3458e+08,275.48,0,3.2253e+08,43.535,13103,12082,1,12082,1,0.00012944,4.3413e-10,0,0.00047831,-2.3497e-05,3.6487e+07,115.6,0,1.4486e+08,0.14448,12081,10985,1,10985,1,-0.00079302,-2.096e-10,0,2.6947e-05,-0.00019615,-3.2253e+08,-71.769,0,7.9061e+06,-53.169,10984,11571,1,11571,1,-0.00034887,1.0552e-10,0,0.00023916,-0.00011296,-1.4187e+08,28.732,0,7.5654e+07,-4.0586,11570,12593,1,12593,1,0.00060775,7.7321e-10,0,0.00071747,6.5779e-05,1.4486e+08,192.32,0,2.0856e+08,6.9504,12592,591.12,0,591.12,0,0.00055209,3.7646e-10,0,0.00029024,0.00010322,1.679e+08,91.137,0,8.3859e+07,13.681,591.12,1
2044,3.37,12082,1,12082,1,0.00012983,1.0741e-09,0,0.0004885,-2.3627e-05,-27.417,275.59,0,1.4586e+08,-7.6943,12081,13104,1,13104,1,0.0010551,4.0982e-09,0,0.0010551,0.00014939,2.3528e+08,979.26,0,3.235e+08,44.808,13103,12082,1,12082,1,0.00012983,7.6502e-10,0,0.00047974,-2.3567e-05,3.6596e+07,206.8,0,1.4529e+08,-6.2509,12081,10985,1,10985,1,-0.00079539,-1.9701e-09,0,2.7028e-05,-0.00019674,-3.235e+08,-452.24,0,7.9298e+06,-56.242,10984,11571,1,11571,1,-0.00034991,8.7213e-11,0,0.00023987,-0.0001133,-1.4229e+08,20.377,0,7.588e+07,-24.266,11570,12593,1,12593,1,0.00060957,2.1076e-09,0,0.00071961,6.5975e-05,1.4529e+08,546.21,0,2.0919e+08,7.8787,12592,591.12,0,591.12,0,0.00055374,1.3889e-09,0,0.00029111,0.00010353,1.6841e+08,349.71,0,8.411e+07,21.759,591.12,1
2044,3.38,12082,1,12082,1,0.00013021,3.3639e-10,0,0.00048994,-2.3697e-05,2.3514,86.054,0,1.4629e+08,-5.193,12081,13104,1,13104,1,0.0010582,1.6246e-09,0,0.0010582,0.00014983,2.3597e+08,392.36,0,3.2445e+08,24.101,13103,12082,1,12082,1,0.00013021,2.264e-10,0,0.00048115,-2.3637e-05,3.6704e+07,62.464,0,1.4572e+08,-2.0806,12081,10985,1,10985,1,-0.00079773,-1.1365e-09,0,2.7108e-05,-0.00019732,-3.2445e+08,-276.74,0,7.9532e+06,-54.086,10984,11571,1,11571,1,-0.00035094,-6.5835e-11,0,0.00024058,-0.00011363,-1.4271e+08,-16.625,0,7.6104e+07,-16.031,11570,12593,1,12593,1,0.00061136,8.0075e-10,0,0.00072173,6.6169e-05,1.4572e+08,207.18,0,2.098e+08,5.9828,12592,591.12,0,591.12,0,0.00055537,6.2201e-10,0,0.00029197,0.00010383,1.689e+08,157.22,0,8.4357e+07,14.133,591.12,1
2044,3.39,12082,1,12082,1,0.0001306,1.7179e-10,0,0.00049138,-2.3767e-05,5.4126,43.86,0,1.4672e+08,-6.3464,12081,13104,1,13104,1,0.0010613,9.8503e-10,0,0.0010613,0.00015027,2.3667e+08,236.97,0,3.2541e+08,9.975,13103,12082,1,12082,1,0.0001306,1.1104e-10,0,0.00048257,-2.3707e-05,3.6812e+07,29.722,0,1.4615e+08,-5.0494,12081,10985,1,10985,1,-0.00080008,-8.4665e-10,0,2.7188e-05,-0.0001979,-3.2541e+08,-195.81,0,7.9767e+06,-48.366,10984,11571,1,11571,1,-0.00035198,-6.8933e-11,0,0.00024129,-0.00011397,-1.4313e+08,-16.202,0,7.6329e+07,-12.29,11570,12593,1,12593,1,0.00061317,4.6783e-10,0,0.00072386,6.6365e-05,1.4615e+08,122.19,0,2.1042e+08,0.41079,12592,591.12,0,591.12,0,0.00055701,3.9837e-10,0,0.00029283,0.00010414,1.694e+08,100.35,0,8.4606e+07,9.253,591.12,1
2044,3.4,12082,1,12082,1,0.00013098,3.1037e-10,0,0.00049283,-2.3837e-05,-0.86106,79.277,0,1.4716e+08,-6.1434,12081,13104,1,13104,1,0.0010644,1.2553e-09,0,0.0010644,0.00015072,2.3737e+08,301.32,0,3.2637e+08,13.685,13103,12082,1,12082,1,0.00013098,2.2962e-10,0,0.000484,-2.3777e-05,3.6921e+07,59.846,0,1.4658e+08,-3.5599,12081,10985,1,10985,1,-0.00080245,-7.5194e-10,0,2.7268e-05,-0.00019848,-3.2637e+08,-168.33,0,8.0002e+06,-53.206,10984,11571,1,11571,1,-0.00035302,-1.0215e-11,0,0.000242,-0.00011431,-1.4356e+08,-2.9008,0,7.6554e+07,-12.487,11570,12593,1,12593,1,0.00061498,6.4097e-10,0,0.000726,6.6561e-05,1.4658e+08,171.06,0,2.1104e+08,1.1075,12592,591.12,0,591.12,0,0.00055865,4.4656e-10,0,0.00029369,0.00010445,1.699e+08,111.73,0,8.4856e+07,10.488,591.12,1
2044,3.41,12082,1,12082,1,0.00013137,1.1053e-10,0,0.00049428,-2.3907e-05,-11.684,28.037,0,1.4759e+08,-2.6311,12081,13104,1,13104,1,0.0010675,5.9473e-10,0,0.0010675,0.00015116,2.3806e+08,137.94,0,3.2733e+08,8.9788,13103,12082,1,12082,1,0.00013137,5.7869e-11,0,0.00048542,-2.3846e-05,3.7029e+07,15.269,0,1.4702e+08,-0.88666,12081,10985,1,10985,1,-0.0008048,-4.5125e-10,0,2.7349e-05,-0.00019907,-3.2733e+08,-98.785,0,8.0238e+06,-46.304,10984,11571,1,11571,1,-0.00035405,-3.6168e-11,0,0.00024271,-0.00011464,-1.4398e+08,-8.481,0,7.6779e+07,-5.7362,11570,12593,1,12593,1,0.00061679,2.6887e-10,0,0.00072813,6.6757e-05,1.4702e+08,69.875,0,2.1166e+08,2.2451,12592,591.12,0,591.12,0,0.0005603,2.1862e-10,0,0.00029456,0.00010476,1.704e+08,54.424,0,8.5106e+07,7.6138,591.12,1
2044,3.42,12082,1,12082,1,0.00013175,-8.2762e-10,0,0.00049574,-2.3977e-05,-33.892,-212.09,0,1.4802e+08,-14.204,12081,13104,1,13104,1,0.0010707,2.4516e-10,0,0.0010707,0.0001516,2.3877e+08,83.962,0,3.2829e+08,68.217,13103,12082,1,12082,1,0.00013175,-3.4936e-10,0,0.00048685,-2.3917e-05,3.7138e+07,-91.048,0,1.4745e+08,-4.6174,12081,10985,1,10985,1,-0.00080718,-4.4155e-09,0,2.7429e-05,-0.00019965,-3.2829e+08,-1065.7,0,8.0472e+06,-109.14,10984,11571,1,11571,1,-0.0003551,-1.2484e-09,0,0.00024343,-0.00011498,-1.444e+08,-317.67,0,7.7005e+07,-24.705,11570,12593,1,12593,1,0.0006186,-1.4301e-10,0,0.00073028,6.6953e-05,1.4745e+08,-36.659,0,2.1229e+08,3.0483,12592,591.12,0,591.12,0,0.00056195,1.0061e-09,0,0.00029542,0.00010506,1.709e+08,251.76,0,8.5356e+07,27.302,591.12,1
2044,3.43,12082,1,12082,1,0.00013214,-4.9947e-10,0,0.0004972,-2.4048e-05,24.982,-125.33,0,1.4846e+08,1.9352,12081,13104,1,13104,1,0.0010738,3.0474e-10,0,0.0010738,0.00015205,2.3947e+08,78.169,0,3.2926e+08,36.772,13103,12082,1,12082,1,0.00013214,-4.86e-10,0,0.00048828,-2.3987e-05,3.7248e+07,-132.45,0,1.4788e+08,2.1585,12081,10985,1,10985,1,-0.00080955,-1.6585e-09,0,2.751e-05,-0.00020024,-3.2926e+08,-381.88,0,8.0711e+06,-63.391,10984,11571,1,11571,1,-0.00035614,-8.4879e-10,0,0.00024414,-0.00011532,-1.4483e+08,-207.55,0,7.7232e+07,-4.0905,11570,12593,1,12593,1,0.00062043,-1.4206e-10,0,0.00073243,6.715e-05,1.4788e+08,-36.074,0,2.1291e+08,10.776,12592,591.12,0,591.12,0,0.0005636,4.408e-10,0,0.00029629,0.00010537,1.714e+08,106.24,0,8.5608e+07,13.768,591.12,1
2044,3.44,12082,1,12082,1,0.00013252,2.3207e-11,0,0.00049863,-2.4117e-05,-0.79464,6.5752,0,1.4889e+08,-5.7088,12081,13104,1,13104,1,0.0010769,7.3173e-10,0,0.0010769,0.00015249,2.4016e+08,167.66,0,3.3021e+08,15.832,13103,12082,1,12082,1,0.00013252,4.9288e-11,0,0.00048969,-2.4056e-05,3.7355e+07,13.263,0,1.4831e+08,-4.6071,12081,10985,1,10985,1,-0.00081189,-9.9528e-10,0,2.7589e-05,-0.00020082,-3.3021e+08,-230.27,0,8.0944e+06,-42.297,10984,11571,1,11571,1,-0.00035717,-1.434e-10,0,0.00024485,-0.00011565,-1.4525e+08,-35.525,0,7.7455e+07,-10.411,11570,12593,1,12593,1,0.00062222,2.2852e-10,0,0.00073454,6.7344e-05,1.4831e+08,60.656,0,2.1353e+08,0.77636,12592,591.12,0,591.12,0,0.00056523,3.2414e-10,0,0.00029715,0.00010568,1.719e+08,80.671,0,8.5855e+07,8.5827,591.12,1
2044,3.45,12082,1,12082,1,0.00013291,-1.9559e-11,0,0.00050008,-2.4187e-05,1.5223,-4.8132,0,1.4932e+08,-5.1086,12081,13104,1,13104,1,0.0010801,5.497e-10,0,0.0010801,0.00015293,2.4086e+08,122.69,0,3.3117e+08,8.4796,13103,12082,1,12082,1,0.00013291,1.8835e-11,0,0.00049112,-2.4126e-05,3.7464e+07,4.7174,0,1.4874e+08,-3.113,12081,10985,1,10985,1,-0.00081424,-8.6279e-10,0,2.7669e-05,-0.0002014,-3.3117e+08,-201.05,0,8.1179e+06,-53.347,10984,11571,1,11571,1,-0.00035821,-1.3295e-10,0,0.00024556,-0.00011599,-1.4567e+08,-34.596,0,7.768e+07,-6.8684,11570,12593,1,12593,1,0.00062402,1.3454e-10,0,0.00073667,6.754e-05,1.4874e+08,35.137,0,2.1415e+08,0.99999,12592,591.12,0,591.12,0,0.00056687,2.5507e-10,0,0.00029801,0.00010598,1.724e+08,63.599,0,8.6104e+07,9.4394,591.12,1
2044,3.46,12082,1,12082,1,0.00013329,-1.2582e-11,0,0.00050153,-2.4257e-05,-0.38247,-2.5985,0,1.4975e+08,-7.8791,12081,13104,1,13104,1,0.0010832,9.0915e-10,0,0.0010832,0.00015338,2.4156e+08,209.72,0,3.3213e+08,22.319,13103,12082,1,12082,1,0.00013329,4.2352e-11,0,0.00049254,-2.4196e-05,3.7572e+07,11.427,0,1.4917e+08,-5.9688,12081,10985,1,10985,1,-0.00081661,-1.2073e-09,0,2.775e-05,-0.00020198,-3.3213e+08,-279.09,0,8.1414e+06,-42.389,10984,11571,1,11571,1,-0.00035925,-2.4319e-10,0,0.00024627,-0.00011632,-1.4609e+08,-62.843,0,7.7905e+07,-13.197,11570,12593,1,12593,1,0.00062583,2.5047e-10,0,0.00073881,6.7736e-05,1.4917e+08,64.489,0,2.1477e+08,0.88495,12592,591.12,0,591.12,0,0.00056851,4.1098e-10,0,0.00029888,0.00010629,1.729e+08,103.52,0,8.6354e+07,11.5,591.12,1
2044,3.47,12082,1,12082,1,0.00013368,1.8819e-10,0,0.00050298,-2.4327e-05,-10.361,48.176,0,1.5019e+08,-4.9508,12081,13104,1,13104,1,0.0010863,1.0804e-09,0,0.0010863,0.00015382,2.4225e+08,253.27,0,3.3309e+08,12.873,13103,12082,1,12082,1,0.00013368,1.2124e-10,0,0.00049396,-2.4266e-05,3.7681e+07,32.653,0,1.496e+08,-3.812,12081,10985,1,10985,1,-0.00081897,-8.4456e-10,0,2.783e-05,-0.00020257,-3.3309e+08,-190.87,0,8.165e+06,-38.967,10984,11571,1,11571,1,-0.00036028,-3.3437e-11,0,0.00024698,-0.00011666,-1.4651e+08,-8.1445,0,7.813e+07,-11.221,11570,12593,1,12593,1,0.00062764,4.3317e-10,0,0.00074094,6.7931e-05,1.496e+08,114.43,0,2.1539e+08,2.5423,12592,591.12,0,591.12,0,0.00057016,3.8029e-10,0,0.00029974,0.0001066,1.734e+08,94.379,0,8.6603e+07,9.0146,591.12,1
2044,3.48,12082,1,12082,1,0.00013406,1.4625e-10,0,0.00050443,-2.4398e-05,23.029,37.271,0,1.5062e+08,-5.5306,12081,13104,1,13104,1,0.0010895,5.4356e-10,0,0.0010895,0.00015426,2.4295e+08,119.75,0,3.3405e+08,4.2358,13103,12082,1,12082,1,0.00013406,1.2639e-10,0,0.00049539,-2.4336e-05,3.779e+07,32.97,0,1.5003e+08,-2.4139,12081,10985,1,10985,1,-0.00082133,-3.0313e-10,0,2.791e-05,-0.00020315,-3.3405e+08,-64.703,0,8.1885e+06,-62.943,10984,11571,1,11571,1,-0.00036132,3.398e-12,0,0.00024769,-0.00011699,-1.4694e+08,0.76869,0,7.8355e+07,-5.8836,11570,12593,1,12593,1,0.00062945,2.6695e-10,0,0.00074308,6.8127e-05,1.5003e+08,71.611,0,2.1601e+08,-0.48117,12592,591.12,0,591.12,0,0.0005718,1.6866e-10,0,0.0003006,0.00010691,1.739e+08,41.171,0,8.6853e+07,9.6075,591.12,1
2044,3.49,12082,1,12082,1,0.00013445,6.7116e-11,0,0.00050588,-2.4468e-05,5.288,17.783,0,1.5105e+08,-7.4859,12081,13104,1,13104,1,0.0010926,9.8085e-10,0,0.0010926,0.00015471,2.4365e+08,225.24,0,3.3501e+08,13.489,13103,12082,1,12082,1,0.00013445,7.2725e-11,0,0.00049681,-2.4406e-05,3.7898e+07,19.63,0,1.5046e+08,-6.0412,12081,10985,1,10985,1,-0.00082369,-1.1538e-09,0,2.799e-05,-0.00020374,-3.3501e+08,-267.58,0,8.2121e+06,-49.6,10984,11571,1,11571,1,-0.00036236,-8.3932e-11,0,0.00024841,-0.00011733,-1.4736e+08,-21.63,0,7.8581e+07,-11.669,11570,12593,1,12593,1,0.00063126,2.852e-10,0,0.00074522,6.8323e-05,1.5046e+08,75.005,0,2.1663e+08,0.28553,12592,591.12,0,591.12,0,0.00057344,3.7438e-10,0,0.00030147,0.00010721,1.744e+08,94.302,0,8.7103e+07,10.59,591.12,1
2044,3.5,12082,1,12082,1,0.00013483,-1.7535e-10,0,0.00050733,-2.4538e-05,-9.3643,-43.826,0,1.5148e+08,-7.4487,12081,13104,1,13104,1,0.0010957,8.0838e-10,0,0.0010957,0.00015515,2.4435e+08,185.3,0,3.3597e+08,35.393,13103,12082,1,12082,1,0.00013483,-4.166e-11,0,0.00049823,-2.4476e-05,3.8007e+07,-11.03,0,1.509e+08,-6.2601,12081,10985,1,10985,1,-0.00082605,-1.5993e-09,0,2.807e-05,-0.00020432,-3.3597e+08,-362.92,0,8.2355e+06,-43.624,10984,11571,1,11571,1,-0.0003634,-4.8535e-10,0,0.00024912,-0.00011767,-1.4778e+08,-122.01,0,7.8806e+07,-15.022,11570,12593,1,12593,1,0.00063307,1.414e-10,0,0.00074735,6.8518e-05,1.509e+08,38.48,0,2.1725e+08,1.8182,12592,591.12,0,591.12,0,0.00057508,4.9037e-10,0,0.00030233,0.00010752,1.749e+08,122.06,0,8.7352e+07,12.133,591.12,1
2044,3.51,12082,1,12082,1,0.00013522,3.4794e-11,0,0.00050878,-2.4608e-05,0.4736,9.4778,0,1.5192e+08,-6.1872,12081,13104,1,13104,1,0.0010988,7.5978e-10,0,0.0010988,0.00015559,2.4505e+08,172.75,0,3.3693e+08,8.815,13103,12082,1,12082,1,0.00013522,4.3386e-11,0,0.00049966,-2.4546e-05,3.8115e+07,11.443,0,1.5133e+08,-4.605,12081,10985,1,10985,1,-0.00082841,-1.0132e-09,0,2.8151e-05,-0.0002049,-3.3693e+08,-227.33,0,8.2591e+06,-54.425,10984,11571,1,11571,1,-0.00036444,-1.029e-10,0,0.00024983,-0.000118,-1.482e+08,-26.99,0,7.9031e+07,-8.4653,11570,12593,1,12593,1,0.00063488,2.2452e-10,0,0.00074949,6.8714e-05,1.5133e+08,58.669,0,2.1787e+08,0.43421,12592,591.12,0,591.12,0,0.00057673,3.07e-10,0,0.0003032,0.00010783,1.754e+08,76.373,0,8.7602e+07,9.4893,591.12,1
2044,3.52,12082,1,12082,1,0.00013561,1.5201e-10,0,0.00051023,-2.4678e-05,-17.165,38.666,0,1.5235e+08,-6.5948,12081,13104,1,13104,1,0.001102,1.2765e-09,0,0.001102,0.00015603,2.4574e+08,305.28,0,3.3789e+08,17.294,13103,12082,1,12082,1,0.00013561,9.7811e-11,0,0.00050108,-2.4616e-05,3.8224e+07,22.598,0,1.5176e+08,-4.8935,12081,10985,1,10985,1,-0.00083077,-1.4215e-09,0,2.8231e-05,-0.00020549,-3.3789e+08,-323.61,0,8.2826e+06,-53.736,10984,11571,1,11571,1,-0.00036548,-1.4754e-10,0,0.00025054,-0.00011834,-1.4862e+08,-41.146,0,7.9256e+07,-15.629,11570,12593,1,12593,1,0.00063669,5.5454e-10,0,0.00075162,6.891e-05,1.5176e+08,146.85,0,2.1849e+08,2.9777,12592,591.12,0,591.12,0,0.00057837,5.6929e-10,0,0.00030406,0.00010814,1.759e+08,143.5,0,8.7851e+07,12.149,591.12,1
2044,3.53,12082,1,12082,1,0.00013599,1.1067e-10,0,0.00051168,-2.4748e-05,4.9336,28.422,0,1.5278e+08,-6.2191,12081,13104,1,13104,1,0.0011051,8.3761e-10,0,0.0011051,0.00015648,2.4644e+08,190.24,0,3.3885e+08,6.0902,13103,12082,1,12082,1,0.00013599,6.9483e-11,0,0.0005025,-2.4686e-05,3.8333e+07,16.851,0,1.5219e+08,-4.1497,12081,10985,1,10985,1,-0.00083313,-6.0088e-10,0,2.8311e-05,-0.00020607,-3.3885e+08,-131.05,0,8.3062e+06,-49.971,10984,11571,1,11571,1,-0.00036651,-2.7213e-11,0,0.00025125,-0.00011868,-1.4905e+08,-6.6161,0,7.9481e+07,-8.1117,11570,12593,1,12593,1,0.0006385,2.6978e-10,0,0.00075376,6.9106e-05,1.5219e+08,71.367,0,2.1911e+08,-0.20232,12592,591.12,0,591.12,0,0.00058001,2.5966e-10,0,0.00030492,0.00010844,1.764e+08,64.602,0,8.8101e+07,8.9935,591.12,1
2044,3.54,12082,1,12082,1,0.00013638,-1.7793e-10,0,0.00051314,-2.4819e-05,-27.263,-44.205,0,1.5322e+08,-9.3445,12081,13104,1,13104,1,0.0011083,9.7742e-10,0,0.0011083,0.00015692,2.4715e+08,223.39,0,3.3981e+08,52.088,13103,12082,1,12082,1,0.00013638,3.8343e-12,0,0.00050394,-2.4756e-05,3.8442e+07,1.1594,0,1.5262e+08,-7.6405,12081,10985,1,10985,1,-0.00083551,-2.5513e-09,0,2.8392e-05,-0.00020666,-3.3981e+08,-605.82,0,8.3298e+06,-63.864,10984,11571,1,11571,1,-0.00036756,-4.3592e-10,0,0.00025197,-0.00011901,-1.4947e+08,-111.81,0,7.9708e+07,-18.727,11570,12593,1,12593,1,0.00064032,2.1909e-10,0,0.00075591,6.9303e-05,1.5262e+08,59.831,0,2.1974e+08,2.3355,12592,591.12,0,591.12,0,0.00058167,6.6511e-10,0,0.00030579,0.00010875,1.769e+08,166.79,0,8.8352e+07,15.502,591.12,1
2044,3.55,12082,1,12082,1,0.00013676,4.7969e-11,0,0.00051458,-2.4888e-05,4.4243,12.161,0,1.5365e+08,-7.628,12081,13104,1,13104,1,0.0011114,1.0323e-09,0,0.0011114,0.00015736,2.4784e+08,240.58,0,3.4077e+08,16.868,13103,12082,1,12082,1,0.00013676,3.9401e-11,0,0.00050535,-2.4826e-05,3.855e+07,10.253,0,1.5305e+08,-5.9251,12081,10985,1,10985,1,-0.00083785,-1.236e-09,0,2.8472e-05,-0.00020724,-3.4077e+08,-285.81,0,8.3532e+06,-42.29,10984,11571,1,11571,1,-0.00036859,-1.9953e-10,0,0.00025268,-0.00011935,-1.4989e+08,-51.624,0,7.9931e+07,-15.307,11570,12593,1,12593,1,0.00064211,3.6058e-10,0,0.00075803,6.9497e-05,1.5305e+08,96.809,0,2.2035e+08,1.5436,12592,591.12,0,591.12,0,0.0005833,4.5945e-10,0,0.00030665,0.00010906,1.774e+08,115.22,0,8.86e+07,10.99,591.12,1
2044,3.56,12082,1,12082,1,0.00013715,2.2848e-10,0,0.00051602,-2.4958e-05,-3.5129,58.004,0,1.5408e+08,-6.9666,12081,13104,1,13104,1,0.0011145,1.2444e-09,0,0.0011145,0.00015781,2.4854e+08,299.66,0,3.4173e+08,13.32,13103,12082,1,12082,1,0.00013715,1.3947e-10,0,0.00050677,-2.4895e-05,3.8658e+07,36.545,0,1.5348e+08,-4.7353,12081,10985,1,10985,1,-0.00084021,-9.7e-10,0,2.8552e-05,-0.00020782,-3.4173e+08,-224.77,0,8.3767e+06,-57.819,10984,11571,1,11571,1,-0.00036963,-7.1122e-11,0,0.00025339,-0.00011968,-1.5031e+08,-17.86,0,8.0156e+07,-13.851,11570,12593,1,12593,1,0.00064392,5.7286e-10,0,0.00076016,6.9693e-05,1.5348e+08,148.28,0,2.2098e+08,1.0372,12592,591.12,0,591.12,0,0.00058494,4.7277e-10,0,0.00030751,0.00010936,1.7789e+08,119.13,0,8.8849e+07,10.65,591.12,1
2044,3.57,12082,1,12082,1,0.00013753,-1.5414e-10,0,0.00051748,-2.5029e-05,2.9645,-38.898,0,1.5451e+08,-7.9787,12081,13104,1,13104,1,0.0011176,7.5302e-10,0,0.0011176,0.00015825,2.4924e+08,172.09,0,3.4269e+08,23.832,13103,12082,1,12082,1,0.00013753,-1.9506e-11,0,0.0005082,-2.4965e-05,3.8767e+07,-5.2784,0,1.5391e+08,-5.9153,12081,10985,1,10985,1,-0.00084257,-1.6676e-09,0,2.8632e-05,-0.00020841,-3.4269e+08,-392.65,0,8.4003e+06,-49.225,10984,11571,1,11571,1,-0.00037067,-3.7777e-10,0,0.0002541,-0.00012002,-1.5074e+08,-97.988,0,8.0382e+07,-13.803,11570,12593,1,12593,1,0.00064573,1.1799e-10,0,0.0007623,6.9889e-05,1.5391e+08,33.125,0,2.216e+08,1.1792,12592,591.12,0,591.12,0,0.00058659,4.5364e-10,0,0.00030838,0.00010967,1.7839e+08,113.48,0,8.9099e+07,12.632,591.12,1
2044,3.58,12082,1,12082,1,0.00013792,3.4731e-10,0,0.00051892,-2.5099e-05,-18.241,88.138,0,1.5495e+08,-6.1809,12081,13104,1,13104,1,0.0011208,1.3187e-09,0,0.0011208,0.00015869,2.4993e+08,316.87,0,3.4365e+08,13.432,13103,12082,1,12082,1,0.00013792,2.6942e-10,0,0.00050962,-2.5035e-05,3.8875e+07,67.798,0,1.5434e+08,-3.0768,12081,10985,1,10985,1,-0.00084493,-5.729e-10,0,2.8712e-05,-0.00020899,-3.4365e+08,-124.7,0,8.4237e+06,-59.131,10984,11571,1,11571,1,-0.0003717,5.4129e-12,0,0.00025481,-0.00012036,-1.5116e+08,1.3738,0,8.0607e+07,-12.293,11570,12593,1,12593,1,0.00064754,6.6329e-10,0,0.00076443,7.0084e-05,1.5434e+08,174.82,0,2.2222e+08,1.4314,12592,591.12,0,591.12,0,0.00058823,4.3065e-10,0,0.00030924,0.00010998,1.7889e+08,106.95,0,8.9349e+07,10.736,591.12,1
2044,3.59,12082,1,12082,1,0.0001383,-1.7628e-10,0,0.00052036,-2.5168e-05,2.4907,-45.009,0,1.5537e+08,10.418,12081,13104,1,13104,1,0.0011239,2.5351e-09,0,0.0011239,0.00015913,2.5062e+08,620.04,0,3.446e+08,79.645,13103,12082,1,12082,1,0.0001383,-1.3535e-10,0,0.00051103,-2.5104e-05,3.8983e+07,-34.999,0,1.5477e+08,6.0866,12081,10985,1,10985,1,-0.00084727,-2.1365e-09,0,2.8791e-05,-0.00020957,-3.446e+08,-518.27,0,8.447e+06,-34.791,10984,11571,1,11571,1,-0.00037273,-8.5582e-10,0,0.00025552,-0.00012069,-1.5158e+08,-225.54,0,8.083e+07,-4.3571,11570,12593,1,12593,1,0.00064933,3.6487e-10,0,0.00076655,7.0279e-05,1.5477e+08,91.173,0,2.2283e+08,20.34,12592,591.12,0,591.12,0,0.00058986,9.6372e-10,0,0.0003101,0.00011028,1.7939e+08,246.78,0,8.9596e+07,21.68,591.12,1
2044,3.6,12082,1,12082,1,0.00013869,3.2655e-11,0,0.00052182,-2.5239e-05,3.4962,8.3754,0,1.5581e+08,-2.7249,12081,13104,1,13104,1,0.001127,1.2587e-10,0,0.001127,0.00015958,2.5133e+08,25.849,0,3.4556e+08,3.1,13103,12082,1,12082,1,0.00013869,3.3084e-11,0,0.00051247,-2.5175e-05,3.9092e+07,8.8649,0,1.5521e+08,0.18095,12081,10985,1,10985,1,-0.00084964,-1.1603e-10,0,2.8872e-05,-0.00021016,-3.4556e+08,-23.555,0,8.4708e+06,-49.688,10984,11571,1,11571,1,-0.00037378,1.4397e-11,0,0.00025623,-0.00012103,-1.52e+08,3.9493,0,8.1057e+07,-2.3268,11570,12593,1,12593,1,0.00065115,5.0704e-11,0,0.0007687,7.0476e-05,1.5521e+08,13.536,0,2.2346e+08,1.0373,12592,591.12,0,591.12,0,0.00059151,2.8984e-11,0,0.00031097,0.00011059,1.7989e+08,6.8848,0,8.9847e+07,7.7261,591.12,1
2044,3.61,12082,1,12082,1,0.00013907,-5.0771e-10,0,0.00052327,-2.5309e-05,7.5715,-130.29,0,1.5624e+08,-1.2932,12081,13104,1,13104,1,0.0011301,1.2038e-10,0,0.0011301,0.00016002,2.5202e+08,41.221,0,3.4652e+08,16.94,13103,12082,1,12082,1,0.00013907,-4.115e-10,0,0.00051389,-2.5245e-05,3.9201e+07,-108.82,0,1.5564e+08,-0.54547,12081,10985,1,10985,1,-0.000852,-1.4924e-09,0,2.8953e-05,-0.00021074,-3.4652e+08,-360.41,0,8.4945e+06,-42.819,10984,11571,1,11571,1,-0.00037482,-7.9333e-10,0,0.00025694,-0.00012136,-1.5242e+08,-207.97,0,8.1282e+07,-5.704,11570,12593,1,12593,1,0.00065296,-1.4628e-10,0,0.00077083,7.0671e-05,1.5564e+08,-37.383,0,2.2408e+08,6.172,12592,591.12,0,591.12,0,0.00059315,4.2374e-10,0,0.00031183,0.0001109,1.8039e+08,106.78,0,9.0096e+07,9.8785,591.12,1
2044,3.62,12082,1,12082,1,0.00013946,4.6543e-11,0,0.00052472,-2.5379e-05,9.7839,12.14,0,1.5668e+08,2.5044,12081,13104,1,13104,1,0.0011333,1.3962e-09,0,0.0011333,0.00016047,2.5271e+08,344.76,0,3.4748e+08,37.334,13103,12082,1,12082,1,0.00013946,1.6389e-11,0,0.00051531,-2.5315e-05,3.931e+07,3.6616,0,1.5607e+08,1.2295,12081,10985,1,10985,1,-0.00085436,-6.9646e-10,0,2.9033e-05,-0.00021132,-3.4748e+08,-168.1,0,8.5181e+06,-50.386,10984,11571,1,11571,1,-0.00037585,-2.6669e-10,0,0.00025766,-0.0001217,-1.5284e+08,-69.482,0,8.1507e+07,-4.0639,11570,12593,1,12593,1,0.00065477,2.3946e-10,0,0.00077297,7.0867e-05,1.5607e+08,62.974,0,2.247e+08,11.183,12592,591.12,0,591.12,0,0.0005948,4.2525e-10,0,0.00031269,0.00011121,1.8089e+08,108.98,0,9.0346e+07,15.043,591.12,1
2044,3.63,12082,1,12082,1,0.00013985,-1.1758e-10,0,0.00052618,-2.545e-05,-2.4665,-29.025,0,1.5711e+08,0.55888,12081,13104,1,13104,1,0.0011364,1.2809e-09,0,0.0011364,0.00016091,2.5342e+08,295.78,0,3.4845e+08,30.142,13103,12082,1,12082,1,0.00013985,-3.3064e-11,0,0.00051675,-2.5386e-05,3.9419e+07,-8.2584,0,1.565e+08,2.9569,12081,10985,1,10985,1,-0.00085674,-1.5328e-09,0,2.9115e-05,-0.00021191,-3.4845e+08,-350.3,0,8.542e+06,-70.91,10984,11571,1,11571,1,-0.0003769,-4.0482e-10,0,0.00025837,-0.00012204,-1.5327e+08,-102.23,0,8.1734e+07,-6.6566,11570,12593,1,12593,1,0.00065659,1.6051e-10,0,0.00077512,7.1064e-05,1.565e+08,46.319,0,2.2532e+08,13.025,12592,591.12,0,591.12,0,0.00059645,5.0145e-10,0,0.00031357,0.00011152,1.814e+08,127.5,0,9.0597e+07,17.021,591.12,1
2044,3.64,12082,1,12082,1,0.00014023,1.7612e-10,0,0.00052762,-2.552e-05,3.8824,45.39,0,1.5754e+08,0.97258,12081,13104,1,13104,1,0.0011395,1.1149e-09,0,0.0011395,0.00016135,2.5411e+08,277.54,0,3.4941e+08,23.963,13103,12082,1,12082,1,0.00014023,6.8231e-11,0,0.00051816,-2.5455e-05,3.9528e+07,17.106,0,1.5693e+08,2.3722,12081,10985,1,10985,1,-0.00085909,-1.6933e-10,0,2.9195e-05,-0.00021249,-3.4941e+08,-42.142,0,8.5655e+06,-59.155,10984,11571,1,11571,1,-0.00037793,-1.026e-11,0,0.00025908,-0.00012237,-1.5369e+08,-2.8011,0,8.1958e+07,-3.3932,11570,12593,1,12593,1,0.00065839,2.9818e-10,0,0.00077725,7.1259e-05,1.5693e+08,76.329,0,2.2594e+08,9.3989,12592,591.12,0,591.12,0,0.00059809,2.7614e-10,0,0.00031442,0.00011182,1.8189e+08,71.087,0,9.0845e+07,13.041,591.12,1
2044,3.65,12082,1,12082,1,0.00014061,-3.5535e-10,0,0.00052907,-2.559e-05,-2.7679,-90.536,0,1.5797e+08,-0.1921,12081,13104,1,13104,1,0.0011427,1.1659e-10,0,0.0011427,0.0001618,2.548e+08,39.922,0,3.5036e+08,15.401,13103,12082,1,12082,1,0.00014061,-2.929e-10,0,0.00051958,-2.5525e-05,3.9636e+07,-77.796,0,1.5736e+08,0.41612,12081,10985,1,10985,1,-0.00086144,-1.0946e-09,0,2.9275e-05,-0.00021307,-3.5036e+08,-261.56,0,8.5891e+06,-45.308,10984,11571,1,11571,1,-0.00037897,-5.8112e-10,0,0.00025979,-0.00012271,-1.5411e+08,-153.98,0,8.2182e+07,-2.8871,11570,12593,1,12593,1,0.0006602,-8.0988e-11,0,0.00077937,7.1454e-05,1.5736e+08,-20.006,0,2.2656e+08,5.1168,12592,591.12,0,591.12,0,0.00059973,3.1528e-10,0,0.00031529,0.00011213,1.8239e+08,78.786,0,9.1094e+07,8.967,591.12,1
2044,3.66,12082,1,12082,1,0.000141,3.7684e-10,0,0.00053051,-2.5659e-05,-1.6969,96.948,0,1.584e+08,3.2234,12081,13104,1,13104,1,0.0011458,3.1696e-09,0,0.0011458,0.00016224,2.5549e+08,765.55,0,3.5132e+08,48.365,13103,12082,1,12082,1,0.000141,1.4018e-10,0,0.000521,-2.5595e-05,3.9744e+07,39.212,0,1.5779e+08,2.0055,12081,10985,1,10985,1,-0.00086379,-1.2692e-09,0,2.9356e-05,-0.00021366,-3.5132e+08,-307.67,0,8.6126e+06,-41.572,10984,11571,1,11571,1,-0.00038,-1.596e-10,0,0.0002605,-0.00012304,-1.5453e+08,-41.805,0,8.2406e+07,-9.2534,11570,12593,1,12593,1,0.000662,8.3038e-10,0,0.0007815,7.1649e-05,1.5779e+08,213.67,0,2.2718e+08,15.333,12592,591.12,0,591.12,0,0.00060136,8.7022e-10,0,0.00031615,0.00011243,1.8289e+08,222.4,0,9.1342e+07,16.265,591.12,1
2044,3.67,12082,1,12082,1,0.00014139,8.6257e-11,0,0.00053197,-2.573e-05,2.4714,22.231,0,1.5884e+08,-0.42035,12081,13104,1,13104,1,0.0011489,1.0306e-09,0,0.0011489,0.00016268,2.5619e+08,256.09,0,3.5228e+08,24.466,13103,12082,1,12082,1,0.00014139,2.0129e-11,0,0.00052243,-2.5665e-05,3.9854e+07,4.762,0,1.5823e+08,0.51109,12081,10985,1,10985,1,-0.00086616,-3.5618e-10,0,2.9437e-05,-0.00021424,-3.5228e+08,-85.779,0,8.6365e+06,-49.825,10984,11571,1,11571,1,-0.00038105,-1.1493e-10,0,0.00026122,-0.00012338,-1.5496e+08,-29.72,0,8.2633e+07,-4.0761,11570,12593,1,12593,1,0.00066382,2.0745e-10,0,0.00078365,7.1846e-05,1.5823e+08,53.195,0,2.278e+08,6.5755,12592,591.12,0,591.12,0,0.00060302,2.8897e-10,0,0.00031702,0.00011274,1.8339e+08,74.299,0,9.1593e+07,11.636,591.12,1
2044,3.68,12082,1,12082,1,0.00014177,1.4597e-10,0,0.00053342,-2.58e-05,8.4866,38.166,0,1.5927e+08,-1.1743,12081,13104,1,13104,1,0.0011521,4.486e-10,0,0.0011521,0.00016313,2.5688e+08,100.86,0,3.5325e+08,14.277,13103,12082,1,12082,1,0.00014177,1.2403e-10,0,0.00052386,-2.5735e-05,3.9963e+07,34.75,0,1.5866e+08,1.6286,12081,10985,1,10985,1,-0.00086853,-4.6245e-11,0,2.9518e-05,-0.00021483,-3.5325e+08,-15.35,0,8.6603e+06,-55.91,10984,11571,1,11571,1,-0.00038209,8.7694e-11,0,0.00026193,-0.00012372,-1.5538e+08,21.116,0,8.2859e+07,-3.8842,11570,12593,1,12593,1,0.00066563,1.9702e-10,0,0.00078579,7.2042e-05,1.5866e+08,52.993,0,2.2842e+08,5.0455,12592,591.12,0,591.12,0,0.00060466,8.491e-11,0,0.00031788,0.00011305,1.8389e+08,22.069,0,9.1843e+07,11.432,591.12,1
2044,3.69,12082,1,12082,1,0.00014216,-1.2376e-10,0,0.00053487,-2.587e-05,6.841,-31.404,0,1.597e+08,2.3936,12081,13104,1,13104,1,0.0011552,1.1445e-09,0,0.0011552,0.00016357,2.5758e+08,286.29,0,3.542e+08,45.409,13103,12082,1,12082,1,0.00014216,-8.4085e-11,0,0.00052528,-2.5805e-05,4.0071e+07,-20.188,0,1.5909e+08,0.94983,12081,10985,1,10985,1,-0.00087088,-1.1814e-09,0,2.9598e-05,-0.00021541,-3.542e+08,-283.38,0,8.6838e+06,-63.328,10984,11571,1,11571,1,-0.00038312,-5.2798e-10,0,0.00026264,-0.00012406,-1.558e+08,-138.77,0,8.3083e+07,-7.2593,11570,12593,1,12593,1,0.00066744,1.8607e-10,0,0.00078792,7.2237e-05,1.5909e+08,52.146,0,2.2904e+08,12.79,12592,591.12,0,591.12,0,0.0006063,5.2375e-10,0,0.00031874,0.00011336,1.8439e+08,133.69,0,9.2092e+07,17.62,591.12,1
2044,3.7,12082,1,12082,1,0.00014255,2.836e-10,0,0.00053633,-2.5941e-05,13.009,72.401,0,1.6014e+08,-1.8351,12081,13104,1,13104,1,0.0011583,1.252e-09,0,0.0011583,0.00016402,2.5827e+08,289.51,0,3.5517e+08,16.92,13103,12082,1,12082,1,0.00014255,2.3038e-10,0,0.00052671,-2.5876e-05,4.018e+07,60.358,0,1.5952e+08,1.2275,12081,10985,1,10985,1,-0.00087326,-5.1122e-10,0,2.9679e-05,-0.000216,-3.5517e+08,-112.54,0,8.7077e+06,-84.621,10984,11571,1,11571,1,-0.00038416,1.4433e-12,0,0.00026336,-0.00012439,-1.5622e+08,0.27798,0,8.3309e+07,-4.3777,11570,12593,1,12593,1,0.00066926,5.1455e-10,0,0.00079007,7.2434e-05,1.5952e+08,134.4,0,2.2967e+08,6.9326,12592,591.12,0,591.12,0,0.00060795,3.4468e-10,0,0.00031961,0.00011367,1.8489e+08,86.718,0,9.2343e+07,13.801,591.12,1
2044,3.71,12082,1,12082,1,0.00014293,-6.3125e-10,0,0.00053777,-2.6011e-05,-23.914,-161.53,0,1.6057e+08,3.0905,12081,13104,1,13104,1,0.0011615,1.5341e-10,0,0.0011615,0.00016446,2.5897e+08,52.534,0,3.5612e+08,21.972,13103,12082,1,12082,1,0.00014293,-5.3463e-10,0,0.00052813,-2.5945e-05,4.0288e+07,-139.25,0,1.5995e+08,3.271,12081,10985,1,10985,1,-0.00087561,-1.8031e-09,0,2.9759e-05,-0.00021658,-3.5612e+08,-431.73,0,8.7311e+06,-41.573,10984,11571,1,11571,1,-0.0003852,-9.9001e-10,0,0.00026406,-0.00012473,-1.5664e+08,-263.88,0,8.3533e+07,-2.4766,11570,12593,1,12593,1,0.00067106,-1.9514e-10,0,0.00079219,7.2629e-05,1.5995e+08,-48.606,0,2.3029e+08,10.763,12592,591.12,0,591.12,0,0.00060959,5.0664e-10,0,0.00032047,0.00011397,1.8539e+08,126.69,0,9.2591e+07,10.651,591.12,1
2044,3.72,12082,1,12082,1,0.00014331,-3.0836e-10,0,0.00053922,-2.6081e-05,2.3898,-78.936,0,1.61e+08,5.5598,12081,13104,1,13104,1,0.0011646,1.5167e-09,0,0.0011646,0.0001649,2.5966e+08,374.53,0,3.5708e+08,55.647,13103,12082,1,12082,1,0.00014331,-2.3896e-10,0,0.00052955,-2.6015e-05,4.0397e+07,-63.99,0,1.6038e+08,2.9368,12081,10985,1,10985,1,-0.00087796,-1.5743e-09,0,2.984e-05,-0.00021716,-3.5708e+08,-377.97,0,8.7548e+06,-59.458,10984,11571,1,11571,1,-0.00038623,-7.5039e-10,0,0.00026477,-0.00012506,-1.5707e+08,-196.29,0,8.3758e+07,-4.5603,11570,12593,1,12593,1,0.00067286,3.4021e-11,0,0.00079432,7.2824e-05,1.6038e+08,8.7824,0,2.3091e+08,17.977,12592,591.12,0,591.12,0,0.00061123,6.2325e-10,0,0.00032133,0.00011428,1.8589e+08,159.18,0,9.284e+07,20.292,591.12,1
2044,3.73,12082,1,12082,1,0.0001437,-4.5327e-11,0,0.00054067,-2.6152e-05,-6.7742,-11.001,0,1.6144e+08,-1.5629,12081,13104,1,13104,1,0.0011677,6.0426e-10,0,0.0011677,0.00016534,2.6036e+08,133.89,0,3.5805e+08,14.587,13103,12082,1,12082,1,0.0001437,-7.1442e-11,0,0.00053098,-2.6086e-05,4.0506e+07,-19.548,0,1.6081e+08,2.3586,12081,10985,1,10985,1,-0.00088033,-2.938e-10,0,2.9921e-05,-0.00021775,-3.5805e+08,-62.913,0,8.7787e+06,-63.639,10984,11571,1,11571,1,-0.00038728,-1.3451e-10,0,0.00026549,-0.0001254,-1.5749e+08,-33.041,0,8.3985e+07,-4.1568,11570,12593,1,12593,1,0.00067468,1.2069e-11,0,0.00079647,7.3021e-05,1.6081e+08,3.4319,0,2.3153e+08,5.8615,12592,591.12,0,591.12,0,0.00061288,1.3902e-10,0,0.0003222,0.00011459,1.8639e+08,34.048,0,9.3091e+07,13.094,591.12,1
2044,3.74,12082,1,12082,1,0.00014409,-4.9599e-11,0,0.00054212,-2.6222e-05,42.305,-12.204,0,1.6187e+08,-2.0704,12081,13104,1,13104,1,0.0011709,3.274e-10,0,0.0011709,0.00016579,2.6105e+08,95.872,0,3.5901e+08,21,13103,12082,1,12082,1,0.00014409,-1.4404e-11,0,0.0005324,-2.6156e-05,4.0615e+07,-3.7459,0,1.6125e+08,-0.69372,12081,10985,1,10985,1,-0.00088269,-5.0033e-10,0,3.0002e-05,-0.00021833,-3.5901e+08,-121.13,0,8.8023e+06,-60.928,10984,11571,1,11571,1,-0.00038831,-1.578e-10,0,0.0002662,-0.00012574,-1.5791e+08,-42.292,0,8.421e+07,-5.4943,11570,12593,1,12593,1,0.00067649,6.1543e-11,0,0.0007986,7.3216e-05,1.6125e+08,16.753,0,2.3215e+08,5.8981,12592,591.12,0,591.12,0,0.00061452,1.7228e-10,0,0.00032307,0.00011489,1.8689e+08,44.205,0,9.334e+07,13.423,591.12,1
2044,3.75,12082,1,12082,1,0.00014447,-3.8932e-10,0,0.00054357,-2.6292e-05,17.24,-99.413,0,1.623e+08,0.7908,12081,13104,1,13104,1,0.001174,1.7163e-10,0,0.001174,0.00016623,2.6174e+08,58.682,0,3.5996e+08,24.292,13103,12082,1,12082,1,0.00014447,-3.2364e-10,0,0.00053382,-2.6226e-05,4.0724e+07,-84.908,0,1.6168e+08,1.0479,12081,10985,1,10985,1,-0.00088505,-1.2899e-09,0,3.0082e-05,-0.00021892,-3.5996e+08,-309.21,0,8.8259e+06,-50.63,10984,11571,1,11571,1,-0.00038935,-6.5863e-10,0,0.00026691,-0.00012607,-1.5833e+08,-176.85,0,8.4434e+07,-4.0012,11570,12593,1,12593,1,0.0006783,-6.2294e-11,0,0.00080074,7.3412e-05,1.6168e+08,-14.438,0,2.3277e+08,8.5085,12592,591.12,0,591.12,0,0.00061616,3.756e-10,0,0.00032393,0.0001152,1.8739e+08,94.462,0,9.3589e+07,12.655,591.12,1
2044,3.76,12082,1,12082,1,0.00014486,-1.0551e-10,0,0.00054502,-2.6362e-05,23.338,-27.48,0,1.6273e+08,3.0913,12081,13104,1,13104,1,0.0011771,1.2901e-09,0,0.0011771,0.00016667,2.6244e+08,320.59,0,3.6092e+08,49.44,13103,12082,1,12082,1,0.00014486,-8.0434e-11,0,0.00053525,-2.6295e-05,4.0832e+07,-19.344,0,1.6211e+08,2.1476,12081,10985,1,10985,1,-0.0008874,-1.2348e-09,0,3.0163e-05,-0.0002195,-3.6092e+08,-297.59,0,8.8495e+06,-69.137,10984,11571,1,11571,1,-0.00039039,-5.175e-10,0,0.00026762,-0.00012641,-1.5875e+08,-135.99,0,8.4659e+07,-7.4938,11570,12593,1,12593,1,0.0006801,2.0406e-10,0,0.00080287,7.3607e-05,1.6211e+08,55.055,0,2.3339e+08,15.561,12592,591.12,0,591.12,0,0.00061781,5.5996e-10,0,0.00032479,0.00011551,1.8789e+08,141.18,0,9.3838e+07,20.229,591.12,1
2044,3.77,12082,1,12082,1,0.00014524,3.947e-10,0,0.00054647,-2.6432e-05,3.1929,98.902,0,1.6317e+08,-3.1098,12081,13104,1,13104,1,0.0011803,1.0659e-09,0,0.0011803,0.00016712,2.6313e+08,236.75,0,3.6188e+08,19.982,13103,12082,1,12082,1,0.00014524,3.8778e-10,0,0.00053667,-2.6366e-05,4.0941e+07,106.63,0,1.6254e+08,0.43438,12081,10985,1,10985,1,-0.00088977,-1.8212e-10,0,3.0244e-05,-0.00022008,-3.6188e+08,-62.361,0,8.8733e+06,-86.09,10984,11571,1,11571,1,-0.00039143,1.6569e-10,0,0.00026834,-0.00012675,-1.5918e+08,42.018,0,8.4885e+07,-4.8212,11570,12593,1,12593,1,0.00068192,6.2769e-10,0,0.00080501,7.3803e-05,1.6254e+08,158.95,0,2.3401e+08,5.3357,12592,591.12,0,591.12,0,0.00061945,3.0496e-10,0,0.00032566,0.00011582,1.8839e+08,72.571,0,9.4087e+07,14.981,591.12,1
2044,3.78,12082,1,12082,1,0.00014563,1.345e-11,0,0.00054792,-2.6502e-05,-0.084485,3.3808,0,1.636e+08,-5.9271,12081,13104,1,13104,1,0.0011834,6.3448e-10,0,0.0011834,0.00016756,2.6382e+08,142.67,0,3.6284e+08,8.3943,13103,12082,1,12082,1,0.00014563,1.6301e-11,0,0.00053809,-2.6436e-05,4.105e+07,3.9373,0,1.6297e+08,-3.552,12081,10985,1,10985,1,-0.00089212,-8.1758e-10,0,3.0324e-05,-0.00022067,-3.6284e+08,-183.91,0,8.897e+06,-57.377,10984,11571,1,11571,1,-0.00039246,-9.8141e-11,0,0.00026905,-0.00012708,-1.596e+08,-25.564,0,8.511e+07,-7.82,11570,12593,1,12593,1,0.00068372,1.6499e-10,0,0.00080714,7.3998e-05,1.6297e+08,43.051,0,2.3463e+08,0.45647,12592,591.12,0,591.12,0,0.00062109,2.553e-10,0,0.00032652,0.00011612,1.8888e+08,63.735,0,9.4337e+07,9.8912,591.12,1
2044,3.79,12082,1,12082,1,0.00014601,-4.8826e-11,0,0.00054936,-2.6572e-05,-5.3795,-12.059,0,1.6403e+08,4.8972,12081,13104,1,13104,1,0.0011865,2.4556e-09,0,0.0011865,0.000168,2.6452e+08,594.39,0,3.638e+08,55.677,13103,12082,1,12082,1,0.00014601,-6.2669e-11,0,0.00053951,-2.6505e-05,4.1158e+07,-14.963,0,1.634e+08,1.8836,12081,10985,1,10985,1,-0.00089448,-1.6031e-09,0,3.0405e-05,-0.00022125,-3.638e+08,-387.67,0,8.9205e+06,-49.696,10984,11571,1,11571,1,-0.0003935,-6.2832e-10,0,0.00026976,-0.00012742,-1.6002e+08,-164.77,0,8.5334e+07,-8.1412,11570,12593,1,12593,1,0.00068553,3.6644e-10,0,0.00080927,7.4194e-05,1.634e+08,94.344,0,2.3525e+08,18.237,12592,591.12,0,591.12,0,0.00062273,8.4934e-10,0,0.00032738,0.00011643,1.8938e+08,216.98,0,9.4585e+07,18.995,591.12,1
2044,3.8,12082,1,12082,1,0.0001464,8.0548e-12,0,0.00055082,-2.6643e-05,-1.5095,2.7597,0,1.6447e+08,0.27229,12081,13104,1,13104,1,0.0011897,3.8525e-10,0,0.0011897,0.00016845,2.6521e+08,104.73,0,3.6476e+08,19.163,13103,12082,1,12082,1,0.0001464,1.7231e-11,0,0.00054094,-2.6576e-05,4.1267e+07,4.4342,0,1.6383e+08,2.5701,12081,10985,1,10985,1,-0.00089685,-3.2095e-10,0,3.0486e-05,-0.00022183,-3.6476e+08,-76.83,0,8.9444e+06,-54.936,10984,11571,1,11571,1,-0.00039454,-7.2735e-11,0,0.00027047,-0.00012776,-1.6044e+08,-18.885,0,8.556e+07,-3.1689,11570,12593,1,12593,1,0.00068735,8.4568e-11,0,0.00081141,7.439e-05,1.6383e+08,20.897,0,2.3587e+08,6.786,12592,591.12,0,591.12,0,0.00062438,1.3693e-10,0,0.00032825,0.00011674,1.8988e+08,35.122,0,9.4836e+07,12.421,591.12,1
2044,3.81,12082,1,12082,1,0.00014679,2.7726e-10,0,0.00055227,-2.6713e-05,6.3755,70.538,0,1.649e+08,2.1052,12081,13104,1,13104,1,0.0011928,2.1349e-09,0,0.0011928,0.00016889,2.6591e+08,522.02,0,3.6572e+08,38.354,13103,12082,1,12082,1,0.00014679,6.055e-11,0,0.00054237,-2.6646e-05,4.1376e+07,16.177,0,1.6426e+08,2.1058,12081,10985,1,10985,1,-0.00089921,-4.6136e-10,0,3.0566e-05,-0.00022242,-3.6572e+08,-117.12,0,8.968e+06,-85.626,10984,11571,1,11571,1,-0.00039558,-1.1979e-10,0,0.00027118,-0.00012809,-1.6087e+08,-30.707,0,8.5785e+07,-4.8758,11570,12593,1,12593,1,0.00068915,5.7452e-10,0,0.00081355,7.4586e-05,1.6426e+08,144.83,0,2.3649e+08,15.163,12592,591.12,0,591.12,0,0.00062602,5.716e-10,0,0.00032911,0.00011704,1.9038e+08,146.71,0,9.5085e+07,17.494,591.12,1
2044,3.82,12082,1,12082,1,0.00014717,-3.96e-10,0,0.00055371,-2.6783e-05,2.0848,-101.21,0,1.6533e+08,4.3478,12081,13104,1,13104,1,0.0011959,9.4944e-10,0,0.0011959,0.00016933,2.666e+08,235.89,0,3.6668e+08,37.773,13103,12082,1,12082,1,0.00014717,-2.5258e-10,0,0.00054379,-2.6716e-05,4.1485e+07,-65.963,0,1.6469e+08,2.6585,12081,10985,1,10985,1,-0.00090157,-1.8224e-09,0,3.0647e-05,-0.000223,-3.6668e+08,-436.69,0,8.9917e+06,-51.678,10984,11571,1,11571,1,-0.00039661,-8.5988e-10,0,0.00027189,-0.00012843,-1.6129e+08,-225.59,0,8.601e+07,-4.657,11570,12593,1,12593,1,0.00069096,2.8115e-11,0,0.00081568,7.4781e-05,1.6469e+08,7.0163,0,2.3711e+08,15.247,12592,591.12,0,591.12,0,0.00062766,6.2553e-10,0,0.00032998,0.00011735,1.9088e+08,158.79,0,9.5334e+07,15.193,591.12,1
2044,3.83,12082,1,12082,1,0.00014756,-1.594e-10,0,0.00055517,-2.6854e-05,-7.8496,-40.399,0,1.6576e+08,-1.5115,12081,13104,1,13104,1,0.0011991,1.6679e-10,0,0.0011991,0.00016978,2.673e+08,34.489,0,3.6764e+08,8.2547,13103,12082,1,12082,1,0.00014756,-1.6167e-10,0,0.00054522,-2.6786e-05,4.1594e+07,-44.489,0,1.6513e+08,1.688,12081,10985,1,10985,1,-0.00090393,-4.139e-10,0,3.0728e-05,-0.00022359,-3.6764e+08,-98.259,0,9.0155e+06,-55.304,10984,11571,1,11571,1,-0.00039766,-2.5911e-10,0,0.00027261,-0.00012876,-1.6171e+08,-63.605,0,8.6236e+07,-2.2552,11570,12593,1,12593,1,0.00069278,-6.4771e-11,0,0.00081783,7.4978e-05,1.6513e+08,-15.557,0,2.3774e+08,4.3602,12592,591.12,0,591.12,0,0.00062931,1.2568e-10,0,0.00033084,0.00011766,1.9138e+08,30.177,0,9.5585e+07,10.349,591.12,1
2044,3.84,12082,1,12082,1,0.00014794,-2.048e-11,0,0.00055661,-2.6924e-05,1.1091,-5.3846,0,1.662e+08,1.3058,12081,13104,1,13104,1,0.0012022,1.0653e-09,0,0.0012022,0.00017022,2.6799e+08,264.63,0,3.686e+08,29.607,13103,12082,1,12082,1,0.00014795,-5.4378e-11,0,0.00054664,-2.6856e-05,4.1702e+07,-15.1,0,1.6556e+08,1.8003,12081,10985,1,10985,1,-0.00090628,-6.2395e-10,0,3.0809e-05,-0.00022417,-3.686e+08,-149.95,0,9.0391e+06,-61.659,10984,11571,1,11571,1,-0.00039869,-2.6238e-10,0,0.00027332,-0.0001291,-1.6213e+08,-68.221,0,8.6461e+07,-3.6239,11570,12593,1,12593,1,0.00069458,1.3145e-10,0,0.00081995,7.5173e-05,1.6556e+08,33.394,0,2.3836e+08,9.6923,12592,591.12,0,591.12,0,0.00063095,3.5091e-10,0,0.0003317,0.00011797,1.9188e+08,90.445,0,9.5833e+07,13.407,591.12,1
2044,3.85,12082,1,12082,1,0.00014833,2.439e-10,0,0.00055807,-2.6994e-05,13.497,62.522,0,1.6663e+08,-0.081994,12081,13104,1,13104,1,0.0012053,1.4012e-09,0,0.0012053,0.00017066,2.6868e+08,344.01,0,3.6956e+08,24.765,13103,12082,1,12082,1,0.00014833,9.2906e-11,0,0.00054806,-2.6926e-05,4.1811e+07,25.483,0,1.6599e+08,0.017821,12081,10985,1,10985,1,-0.00090864,-1.4289e-10,0,3.0889e-05,-0.00022475,-3.6956e+08,-48.555,0,9.0628e+06,-62.528,10984,11571,1,11571,1,-0.00039973,-1.206e-13,0,0.00027403,-0.00012944,-1.6255e+08,-0.027088,0,8.6686e+07,-5.3694,11570,12593,1,12593,1,0.00069639,4.0825e-10,0,0.00082209,7.5369e-05,1.6599e+08,105.8,0,2.3898e+08,8.6561,12592,591.12,0,591.12,0,0.0006326,3.4459e-10,0,0.00033257,0.00011827,1.9238e+08,87.854,0,9.6082e+07,13.253,591.12,1
2044,3.86,12082,1,12082,1,0.00014872,5.2897e-10,0,0.00055952,-2.7064e-05,6.978,134.32,0,1.6706e+08,-4.2539,12081,13104,1,13104,1,0.0012084,1.5019e-09,0,0.0012084,0.00017111,2.6938e+08,373.96,0,3.7052e+08,46.201,13103,12082,1,12082,1,0.00014872,4.758e-10,0,0.00054949,-2.6996e-05,4.192e+07,125.5,0,1.6642e+08,-1.1933,12081,10985,1,10985,1,-0.00091101,-2.657e-10,0,3.097e-05,-0.00022534,-3.7052e+08,-90.979,0,9.0865e+06,-108.6,10984,11571,1,11571,1,-0.00040077,2.1312e-10,0,0.00027474,-0.00012977,-1.6298e+08,57.149,0,8.6911e+07,-9.2425,11570,12593,1,12593,1,0.0006982,8.1342e-10,0,0.00082423,7.5564e-05,1.6642e+08,209.01,0,2.396e+08,4.3886,12592,591.12,0,591.12,0,0.00063424,4.1287e-10,0,0.00033343,0.00011858,1.9288e+08,102.46,0,9.6332e+07,19.559,591.12,1
2044,3.87,12082,1,12082,1,0.0001491,1.0489e-10,0,0.00056097,-2.7135e-05,4.3375,27.849,0,1.675e+08,-0.30007,12081,13104,1,13104,1,0.0012116,6.4175e-10,0,0.0012116,0.00017155,2.7007e+08,163.86,0,3.7148e+08,30.52,13103,12082,1,12082,1,0.0001491,7.9345e-11,0,0.00055091,-2.7066e-05,4.2029e+07,21.045,0,1.6685e+08,1.7055,12081,10985,1,10985,1,-0.00091337,-3.9082e-10,0,3.1051e-05,-0.00022592,-3.7148e+08,-94.08,0,9.1103e+06,-87.508,10984,11571,1,11571,1,-0.00040181,-4.231e-11,0,0.00027546,-0.00013011,-1.634e+08,-11.472,0,8.7137e+07,-6.4553,11570,12593,1,12593,1,0.00070002,2.4546e-10,0,0.00082637,7.5761e-05,1.6685e+08,63.053,0,2.4022e+08,10.53,12592,591.12,0,591.12,0,0.00063589,2.3034e-10,0,0.0003343,0.00011889,1.9338e+08,58.784,0,9.6582e+07,18.879,591.12,1
2044,3.88,12082,1,12082,1,0.00014949,6.1005e-10,0,0.00056242,-2.7205e-05,7.1725,155.32,0,1.6793e+08,-4.7433,12081,13104,1,13104,1,0.0012147,1.6371e-09,0,0.0012147,0.00017199,2.7076e+08,407.67,0,3.7244e+08,40.934,13103,12082,1,12082,1,0.00014949,5.9547e-10,0,0.00055233,-2.7136e-05,4.2137e+07,155.53,0,1.6728e+08,-1.7239,12081,10985,1,10985,1,-0.00091573,-2.2698e-10,0,3.1132e-05,-0.00022651,-3.7244e+08,-77.727,0,9.1339e+06,-104.5,10984,11571,1,11571,1,-0.00040284,2.805e-10,0,0.00027617,-0.00013045,-1.6382e+08,78.127,0,8.7361e+07,-8.9421,11570,12593,1,12593,1,0.00070182,8.9967e-10,0,0.0008285,7.5956e-05,1.6728e+08,228.23,0,2.4084e+08,2.4812,12592,591.12,0,591.12,0,0.00063753,4.26e-10,0,0.00033516,0.0001192,1.9388e+08,105.44,0,9.6831e+07,17.695,591.12,1
2044,3.89,12082,1,12082,1,0.00014987,-2.318e-10,0,0.00056386,-2.7274e-05,18.224,-59.66,0,1.6836e+08,3.366,12081,13104,1,13104,1,0.0012178,1.5854e-09,0,0.0012178,0.00017243,2.7145e+08,389.9,0,3.734e+08,44.018,13103,12082,1,12082,1,0.00014987,-1.8838e-10,0,0.00055375,-2.7206e-05,4.2246e+07,-48.398,0,1.6771e+08,2.1617,12081,10985,1,10985,1,-0.00091807,-1.6252e-09,0,3.1212e-05,-0.00022709,-3.734e+08,-393.11,0,9.1575e+06,-46.84,10984,11571,1,11571,1,-0.00040388,-7.0588e-10,0,0.00027687,-0.00013078,-1.6424e+08,-185.83,0,8.7585e+07,-6.8736,11570,12593,1,12593,1,0.00070362,1.1945e-10,0,0.00083062,7.615e-05,1.6771e+08,33.694,0,2.4146e+08,13.937,12592,591.12,0,591.12,0,0.00063916,6.8866e-10,0,0.00033602,0.0001195,1.9438e+08,175,0,9.7079e+07,14.807,591.12,1
2044,3.9,12082,1,12082,1,0.00015026,-3.8405e-10,0,0.00056531,-2.7345e-05,7.8143,-97.895,0,1.6879e+08,0.88381,12081,13104,1,13104,1,0.001221,3.8667e-10,0,0.001221,0.00017288,2.7215e+08,104.22,0,3.7436e+08,28.364,13103,12082,1,12082,1,0.00015026,-2.5834e-10,0,0.00055518,-2.7276e-05,4.2355e+07,-67.795,0,1.6815e+08,1.4704,12081,10985,1,10985,1,-0.00092045,-1.5163e-09,0,3.1293e-05,-0.00022767,-3.7436e+08,-365.09,0,9.1814e+06,-57.358,10984,11571,1,11571,1,-0.00040492,-7.4712e-10,0,0.00027759,-0.00013112,-1.6466e+08,-196.88,0,8.7812e+07,-5.8516,11570,12593,1,12593,1,0.00070544,-4.833e-12,0,0.00083277,7.6347e-05,1.6815e+08,-1.4471,0,2.4208e+08,8.006,12592,591.12,0,591.12,0,0.00064081,4.7506e-10,0,0.00033689,0.00011981,1.9488e+08,120.01,0,9.7329e+07,13.11,591.12,1
2044,3.91,12082,1,12082,1,0.00015065,-5.8751e-11,0,0.00056677,-2.7415e-05,0.30729,-14.122,0,1.6923e+08,-1.8534,12081,13104,1,13104,1,0.0012241,3.3131e-10,0,0.0012241,0.00017332,2.7285e+08,71.198,0,3.7532e+08,16.055,13103,12082,1,12082,1,0.00015065,-4.6585e-11,0,0.00055661,-2.7346e-05,4.2464e+07,-11.645,0,1.6858e+08,1.7603,12081,10985,1,10985,1,-0.00092281,-3.6743e-10,0,3.1375e-05,-0.00022826,-3.7532e+08,-80.616,0,9.2052e+06,-65.591,10984,11571,1,11571,1,-0.00040596,-1.2538e-10,0,0.0002783,-0.00013146,-1.6509e+08,-32.139,0,8.8037e+07,-4.5531,11570,12593,1,12593,1,0.00070725,1.175e-11,0,0.00083491,7.6543e-05,1.6858e+08,2.9106,0,2.427e+08,5.6991,12592,591.12,0,591.12,0,0.00064246,1.1482e-10,0,0.00033776,0.00012012,1.9538e+08,28.028,0,9.758e+07,13.727,591.12,1
2044,3.92,12082,1,12082,1,0.00015103,-4.892e-11,0,0.00056821,-2.7485e-05,-0.52653,-12.467,0,1.6966e+08,-1.1084,12081,13104,1,13104,1,0.0012272,3.763e-10,0,0.0012272,0.00017376,2.7354e+08,101.92,0,3.7628e+08,21.313,13103,12082,1,12082,1,0.00015103,-3.3623e-11,0,0.00055803,-2.7416e-05,4.2572e+07,-9.1672,0,1.6901e+08,1.0684,12081,10985,1,10985,1,-0.00092516,-4.4568e-10,0,3.1455e-05,-0.00022884,-3.7628e+08,-106.75,0,9.2288e+06,-70.541,10984,11571,1,11571,1,-0.00040699,-1.7833e-10,0,0.00027901,-0.00013179,-1.6551e+08,-47.809,0,8.8262e+07,-3.4771,11570,12593,1,12593,1,0.00070906,6.8948e-11,0,0.00083704,7.6738e-05,1.6901e+08,17.775,0,2.4332e+08,6.2188,12592,591.12,0,591.12,0,0.0006441,1.7977e-10,0,0.00033862,0.00012042,1.9588e+08,46.085,0,9.7828e+07,13.329,591.12,1
2044,3.93,12082,1,12082,1,0.00015142,1.3454e-10,0,0.00056966,-2.7556e-05,19.772,34.709,0,1.7009e+08,0.30599,12081,13104,1,13104,1,0.0012304,1.511e-09,0,0.0012304,0.00017421,2.7423e+08,374.4,0,3.7724e+08,48.052,13103,12082,1,12082,1,0.00015142,2.6228e-11,0,0.00055945,-2.7486e-05,4.2681e+07,6.2918,0,1.6944e+08,-0.20623,12081,10985,1,10985,1,-0.00092752,-5.1403e-10,0,3.1536e-05,-0.00022942,-3.7724e+08,-123.64,0,9.2526e+06,-77.371,10984,11571,1,11571,1,-0.00040803,-1.6465e-10,0,0.00027972,-0.00013213,-1.6593e+08,-44.61,0,8.8487e+07,-7.3082,11570,12593,1,12593,1,0.00071087,3.4324e-10,0,0.00083917,7.6934e-05,1.6944e+08,88.206,0,2.4394e+08,10.594,12592,591.12,0,591.12,0,0.00064574,4.3058e-10,0,0.00033948,0.00012073,1.9638e+08,109.94,0,9.8078e+07,19.064,591.12,1
2044,3.94,12082,1,12082,1,0.0001518,4.3526e-10,0,0.00057111,-2.7626e-05,16.437,110.36,0,1.7052e+08,-3.4758,12081,13104,1,13104,1,0.0012335,1.8544e-09,0,0.0012335,0.00017465,2.7492e+08,462.65,0,3.782e+08,52.707,13103,12082,1,12082,1,0.0001518,2.8072e-10,0,0.00056087,-2.7556e-05,4.279e+07,74.2,0,1.6987e+08,-1.3072,12081,10985,1,10985,1,-0.00092988,-2.7018e-10,0,3.1617e-05,-0.00023001,-3.782e+08,-92.519,0,9.2763e+06,-108.5,10984,11571,1,11571,1,-0.00040907,5.8605e-11,0,0.00028044,-0.00013246,-1.6635e+08,14.802,0,8.8712e+07,-9.8363,11570,12593,1,12593,1,0.00071268,7.2179e-10,0,0.00084131,7.7129e-05,1.6987e+08,183.42,0,2.4456e+08,5.5245,12592,591.12,0,591.12,0,0.00064738,4.7524e-10,0,0.00034034,0.00012104,1.9688e+08,120.06,0,9.8327e+07,20.272,591.12,1
2044,3.95,12082,1,12082,1,0.00015219,-1.3651e-10,0,0.00057256,-2.7696e-05,24.541,-34.756,0,1.7095e+08,-0.040317,12081,13104,1,13104,1,0.0012366,3.0995e-10,0,0.0012366,0.00017509,2.7562e+08,89.988,0,3.7916e+08,13.911,13103,12082,1,12082,1,0.00015219,-9.3971e-11,0,0.0005623,-2.7627e-05,4.2899e+07,-24.649,0,1.703e+08,0.87161,12081,10985,1,10985,1,-0.00093224,-6.1374e-10,0,3.1698e-05,-0.00023059,-3.7916e+08,-147.28,0,9.3002e+06,-46.792,10984,11571,1,11571,1,-0.00041011,-2.8754e-10,0,0.00028115,-0.0001328,-1.6677e+08,-74.419,0,8.8937e+07,-2.1949,11570,12593,1,12593,1,0.00071449,2.5397e-12,0,0.00084345,7.7325e-05,1.703e+08,0.78731,0,2.4518e+08,5.5215,12592,591.12,0,591.12,0,0.00064903,2.0462e-10,0,0.00034121,0.00012135,1.9738e+08,52.207,0,9.8576e+07,8.9978,591.12,1
2044,3.96,12082,1,12082,1,0.00015258,6.2154e-10,0,0.00057401,-2.7767e-05,23.084,159.01,0,1.7139e+08,-3.7104,12081,13104,1,13104,1,0.0012398,1.8951e-09,0,0.0012398,0.00017554,2.7631e+08,458.68,0,3.8012e+08,24.215,13103,12082,1,12082,1,0.00015258,5.536e-10,0,0.00056372,-2.7697e-05,4.3008e+07,143.91,0,1.7073e+08,0.19462,12081,10985,1,10985,1,-0.00093461,-2.0292e-10,0,3.178e-05,-0.00023118,-3.8012e+08,-69.487,0,9.3241e+06,-101.71,10984,11571,1,11571,1,-0.00041114,2.6661e-10,0,0.00028186,-0.00013314,-1.672e+08,66.762,0,8.9163e+07,-6.4742,11570,12593,1,12593,1,0.0007163,9.4823e-10,0,0.00084558,7.7521e-05,1.7073e+08,247.8,0,2.458e+08,6.3082,12592,591.12,0,591.12,0,0.00065067,4.6825e-10,0,0.00034207,0.00012165,1.9788e+08,117.55,0,9.8826e+07,17.764,591.12,1
2044,3.97,12082,1,12082,1,0.00015296,5.3318e-10,0,0.00057546,-2.7837e-05,9.4379,136.57,0,1.7182e+08,-1.1162,12081,13104,1,13104,1,0.0012429,2.0046e-09,0,0.0012429,0.00017598,2.7701e+08,484.28,0,3.8108e+08,30.853,13103,12082,1,12082,1,0.00015296,4.2982e-10,0,0.00056514,-2.7767e-05,4.3117e+07,111.98,0,1.7117e+08,2.1603,12081,10985,1,10985,1,-0.00093696,-1.9658e-10,0,3.1861e-05,-0.00023176,-3.8108e+08,-67.315,0,9.3481e+06,-87.981,10984,11571,1,11571,1,-0.00041218,1.9012e-10,0,0.00028257,-0.00013347,-1.6762e+08,48.379,0,8.9387e+07,-4.1618,11570,12593,1,12593,1,0.00071811,8.109e-10,0,0.00084772,7.7716e-05,1.7117e+08,210.34,0,2.4642e+08,8.6456,12592,591.12,0,591.12,0,0.00065232,4.5211e-10,0,0.00034294,0.00012196,1.9837e+08,114.29,0,9.9074e+07,16.401,591.12,1
2044,3.98,12082,1,12082,1,0.00015335,4.6893e-10,0,0.00057691,-2.7907e-05,16.465,120.48,0,1.7225e+08,0.42098,12081,13104,1,13104,1,0.001246,2.4538e-09,0,0.001246,0.00017642,2.777e+08,592.27,0,3.8204e+08,38.125,13103,12082,1,12082,1,0.00015335,2.7036e-10,0,0.00056657,-2.7837e-05,4.3226e+07,70.455,0,1.716e+08,2.5597,12081,10985,1,10985,1,-0.00093932,-3.2267e-10,0,3.1943e-05,-0.00023235,-3.8204e+08,-81.049,0,9.372e+06,-87.494,10984,11571,1,11571,1,-0.00041322,3.8308e-11,0,0.00028328,-0.00013381,-1.6804e+08,9.2814,0,8.9613e+07,-5.6011,11570,12593,1,12593,1,0.00071992,7.8642e-10,0,0.00084985,7.7912e-05,1.716e+08,202.27,0,2.4704e+08,13.647,12592,591.12,0,591.12,0,0.00065396,5.8928e-10,0,0.0003438,0.00012227,1.9887e+08,150.3,0,9.9323e+07,18.852,591.12,1
2044,3.99,12082,1,12082,1,0.00015374,5.1664e-10,0,0.00057836,-2.7978e-05,5.362,131.68,0,1.7268e+08,-3.4593,12081,13104,1,13104,1,0.0012492,1.6164e-09,0,0.0012492,0.00017687,2.7839e+08,391.49,0,3.83e+08,24.884,13103,12082,1,12082,1,0.00015374,5.0333e-10,0,0.00056799,-2.7907e-05,4.3335e+07,127.52,0,1.7203e+08,0.64057,12081,10985,1,10985,1,-0.00094168,-2.0358e-10,0,3.2025e-05,-0.00023293,-3.83e+08,-69.71,0,9.396e+06,-88.628,10984,11571,1,11571,1,-0.00041426,2.18e-10,0,0.000284,-0.00013415,-1.6846e+08,57.306,0,8.9838e+07,-4.3312,11570,12593,1,12593,1,0.00072173,7.8755e-10,0,0.00085199,7.8107e-05,1.7203e+08,203.57,0,2.4766e+08,4.5603,12592,591.12,0,591.12,0,0.0006556,3.9243e-10,0,0.00034467,0.00012257,1.9937e+08,98.288,0,9.9573e+07,15.508,591.12,1
2044,4,12082,1,12082,1,0.00015412,3.9977e-10,0,0.00057981,-2.8048e-05,13.752,102.58,0,1.7312e+08,0.11686,12081,13104,1,13104,1,0.0012523,2.3607e-09,0,0.0012523,0.00017731,2.7909e+08,569.53,0,3.8396e+08,38.462,13103,12082,1,12082,1,0.00015412,2.0156e-10,0,0.00056942,-2.7978e-05,4.3444e+07,53.597,0,1.7246e+08,2.1939,12081,10985,1,10985,1,-0.00094404,-4.3995e-10,0,3.2106e-05,-0.00023351,-3.8396e+08,-110.48,0,9.42e+06,-85.133,10984,11571,1,11571,1,-0.00041529,-7.067e-12,0,0.00028471,-0.00013448,-1.6888e+08,-1.9885,0,9.0063e+07,-6.0229,11570,12593,1,12593,1,0.00072354,7.0738e-10,0,0.00085412,7.8303e-05,1.7246e+08,182.35,0,2.4828e+08,13.081,12592,591.12,0,591.12,0,0.00065725,5.8196e-10,0,0.00034553,0.00012288,1.9987e+08,148.73,0,9.9822e+07,18.729,591.12,1
2044,4.01,12082,1,12082,1,0.00015451,6.4022e-11,0,0.00058127,-2.8119e-05,18.269,17.852,0,1.7355e+08,-2.8473,12081,13104,1,13104,1,0.0012554,2.9205e-10,0,0.0012554,0.00017775,2.7978e+08,88.212,0,3.8492e+08,15.409,13103,12082,1,12082,1,0.00015451,6.8409e-11,0,0.00057084,-2.8048e-05,4.3553e+07,18.235,0,1.7289e+08,-0.25966,12081,10985,1,10985,1,-0.0009464,-1.5079e-10,0,3.2188e-05,-0.0002341,-3.8492e+08,-35.498,0,9.4441e+06,-61.238,10984,11571,1,11571,1,-0.00041633,8.3947e-13,0,0.00028542,-0.00013482,-1.6931e+08,0.27083,0,9.0289e+07,-5.2595,11570,12593,1,12593,1,0.00072536,1.3071e-10,0,0.00085627,7.8499e-05,1.7289e+08,35.8,0,2.489e+08,3.5042,12592,591.12,0,591.12,0,0.0006589,9.853e-11,0,0.0003464,0.00012319,2.0037e+08,26.18,0,1.0007e+08,12.599,591.12,1
2044,4.02,12082,1,12082,1,0.0001549,-3.3414e-10,0,0.00058272,-2.8189e-05,3.8341,-85.227,0,1.7398e+08,0.10569,12081,13104,1,13104,1,0.0012586,4.6479e-10,0,0.0012586,0.0001782,2.8047e+08,134.75,0,3.8588e+08,27.119,13103,12082,1,12082,1,0.0001549,-2.8026e-10,0,0.00057227,-2.8118e-05,4.3662e+07,-73.085,0,1.7332e+08,0.065539,12081,10985,1,10985,1,-0.00094876,-1.2022e-09,0,3.227e-05,-0.00023468,-3.8588e+08,-289.74,0,9.468e+06,-57.764,10984,11571,1,11571,1,-0.00041737,-6.1077e-10,0,0.00028613,-0.00013516,-1.6973e+08,-163.79,0,9.0513e+07,-5.7027,11570,12593,1,12593,1,0.00072716,-2.8425e-11,0,0.0008584,7.8694e-05,1.7332e+08,-7.462,0,2.4952e+08,8.9333,12592,591.12,0,591.12,0,0.00066054,3.8166e-10,0,0.00034726,0.0001235,2.0087e+08,96.626,0,1.0032e+08,13.218,591.12,1
2044,4.03,12082,1,12082,1,0.00015528,-5.3325e-11,0,0.00058416,-2.8259e-05,10.378,-13.327,0,1.7441e+08,0.91351,12081,13104,1,13104,1,0.0012617,1.2532e-09,0,0.0012617,0.00017864,2.8117e+08,304.49,0,3.8683e+08,27.455,13103,12082,1,12082,1,0.00015528,-6.1538e-11,0,0.00057369,-2.8188e-05,4.3771e+07,-17.085,0,1.7375e+08,2.8588,12081,10985,1,10985,1,-0.00095112,-8.3382e-10,0,3.2351e-05,-0.00023527,-3.8683e+08,-205.79,0,9.4919e+06,-63.673,10984,11571,1,11571,1,-0.0004184,-3.2717e-10,0,0.00028684,-0.00013549,-1.7015e+08,-85.721,0,9.0738e+07,-4.5532,11570,12593,1,12593,1,0.00072897,1.2266e-10,0,0.00086053,7.889e-05,1.7375e+08,33.876,0,2.5014e+08,11.69,12592,591.12,0,591.12,0,0.00066218,4.1145e-10,0,0.00034812,0.0001238,2.0137e+08,105.68,0,1.0057e+08,14.803,591.12,1
2044,4.04,12082,1,12082,1,0.00015567,1.0348e-10,0,0.00058561,-2.833e-05,12.332,26.4,0,1.7485e+08,-0.15263,12081,13104,1,13104,1,0.0012648,1.8117e-09,0,0.0012648,0.00017908,2.8186e+08,442.83,0,3.8779e+08,33.943,13103,12082,1,12082,1,0.00015567,-9.5574e-12,0,0.00057511,-2.8258e-05,4.388e+07,-2.2799,0,1.7419e+08,1.8588,12081,10985,1,10985,1,-0.00095347,-8.3908e-10,0,3.2433e-05,-0.00023585,-3.8779e+08,-209.23,0,9.5159e+06,-75.595,10984,11571,1,11571,1,-0.00041944,-1.9081e-10,0,0.00028756,-0.00013583,-1.7057e+08,-51.892,0,9.0963e+07,-5.6568,11570,12593,1,12593,1,0.00073078,3.2191e-10,0,0.00086266,7.9085e-05,1.7419e+08,81.664,0,2.5075e+08,11.203,12592,591.12,0,591.12,0,0.00066382,5.0032e-10,0,0.00034899,0.00012411,2.0187e+08,128.79,0,1.0082e+08,16.182,591.12,1
2044,4.05,12082,1,12082,1,0.00015606,4.8911e-10,0,0.00058707,-2.84e-05,4.645,124.3,0,1.7528e+08,-4.6339,12081,13104,1,13104,1,0.001268,1.4898e-09,0,0.001268,0.00017953,2.8256e+08,361.36,0,3.8876e+08,22.306,13103,12082,1,12082,1,0.00015606,4.5681e-10,0,0.00057654,-2.8329e-05,4.3989e+07,118.38,0,1.7462e+08,-0.35154,12081,10985,1,10985,1,-0.00095584,-2.1425e-10,0,3.2515e-05,-0.00023644,-3.8876e+08,-73.366,0,9.5399e+06,-94.947,10984,11571,1,11571,1,-0.00042048,1.8588e-10,0,0.00028827,-0.00013617,-1.7099e+08,44.903,0,9.1189e+07,-6.1499,11570,12593,1,12593,1,0.0007326,7.7379e-10,0,0.00086481,7.9281e-05,1.7462e+08,204.21,0,2.5137e+08,3.8805,12592,591.12,0,591.12,0,0.00066547,3.9757e-10,0,0.00034985,0.00012442,2.0237e+08,99.749,0,1.0107e+08,16.266,591.12,1
2044,4.06,12082,1,12082,1,0.00015645,5.5775e-10,0,0.00058851,-2.8471e-05,6.4746,141.9,0,1.7571e+08,-4.7655,12081,13104,1,13104,1,0.0012711,1.8088e-09,0,0.0012711,0.00017997,2.8325e+08,438.33,0,3.8972e+08,27,13103,12082,1,12082,1,0.00015645,5.1316e-10,0,0.00057796,-2.8399e-05,4.4098e+07,133.13,0,1.7505e+08,-0.62519,12081,10985,1,10985,1,-0.0009582,-2.2457e-10,0,3.2596e-05,-0.00023702,-3.8972e+08,-76.899,0,9.5639e+06,-95.626,10984,11571,1,11571,1,-0.00042152,1.9714e-10,0,0.00028898,-0.0001365,-1.7141e+08,49.76,0,9.1414e+07,-6.7555,11570,12593,1,12593,1,0.00073441,8.9125e-10,0,0.00086694,7.9476e-05,1.7505e+08,232.44,0,2.5199e+08,3.9702,12592,591.12,0,591.12,0,0.00066711,4.6432e-10,0,0.00035072,0.00012473,2.0287e+08,116.78,0,1.0132e+08,16.344,591.12,1
2044,4.07,12082,1,12082,1,0.00015683,1.9347e-10,0,0.00058997,-2.8541e-05,16.328,48.775,0,1.7615e+08,-7.2979,12081,13104,1,13104,1,0.0012742,5.4964e-10,0,0.0012742,0.00018041,2.8394e+08,123.67,0,3.9068e+08,8.7913,13103,12082,1,12082,1,0.00015683,1.873e-10,0,0.00057939,-2.8469e-05,4.4208e+07,51.904,0,1.7548e+08,-3.0966,12081,10985,1,10985,1,-0.00096056,-1.3943e-10,0,3.2679e-05,-0.0002376,-3.9068e+08,-47.74,0,9.588e+06,-83.197,10984,11571,1,11571,1,-0.00042255,6.2894e-11,0,0.00028969,-0.00013684,-1.7184e+08,16.019,0,9.1639e+07,-7.83,11570,12593,1,12593,1,0.00073622,3.1786e-10,0,0.00086908,7.9672e-05,1.7548e+08,83.33,0,2.5261e+08,-0.52179,12592,591.12,0,591.12,0,0.00066876,1.7203e-10,0,0.00035158,0.00012503,2.0337e+08,41.832,0,1.0157e+08,12.562,591.12,1
2044,4.08,12082,1,12082,1,0.00015722,1.5216e-10,0,0.00059141,-2.8611e-05,-6.1665,36.885,0,1.7658e+08,1.1239,12081,13104,1,13104,1,0.0012774,1.6005e-09,0,0.0012774,0.00018085,2.8463e+08,388.03,0,3.9163e+08,32.933,13103,12082,1,12082,1,0.00015722,9.5369e-12,0,0.00058081,-2.8539e-05,4.4316e+07,2.2099,0,1.7591e+08,1.8757,12081,10985,1,10985,1,-0.00096291,-4.4405e-10,0,3.276e-05,-0.00023819,-3.9163e+08,-116.81,0,9.6119e+06,-58.945,10984,11571,1,11571,1,-0.00042359,-1.106e-10,0,0.0002904,-0.00013718,-1.7226e+08,-29.938,0,9.1864e+07,-5.8291,11570,12593,1,12593,1,0.00073803,3.1658e-10,0,0.00087121,7.9867e-05,1.7591e+08,78.859,0,2.5323e+08,11.026,12592,591.12,0,591.12,0,0.0006704,4.1332e-10,0,0.00035244,0.00012534,2.0386e+08,103.51,0,1.0181e+08,14.683,591.12,1
2044,4.09,12082,1,12082,1,0.00015761,4.4686e-11,0,0.00059286,-2.8682e-05,4.0692,11.16,0,1.7701e+08,0.095433,12081,13104,1,13104,1,0.0012805,1.5339e-09,0,0.0012805,0.0001813,2.8533e+08,371.63,0,3.9259e+08,33.758,13103,12082,1,12082,1,0.00015761,-4.0922e-11,0,0.00058223,-2.861e-05,4.4425e+07,-10.275,0,1.7634e+08,2.0848,12081,10985,1,10985,1,-0.00096527,-8.0537e-10,0,3.2842e-05,-0.00023877,-3.9259e+08,-201.12,0,9.6359e+06,-74.764,10984,11571,1,11571,1,-0.00042463,-2.2747e-10,0,0.00029112,-0.00013751,-1.7268e+08,-60.305,0,9.2089e+07,-4.9607,11570,12593,1,12593,1,0.00073984,2.4444e-10,0,0.00087335,8.0063e-05,1.7634e+08,62.382,0,2.5385e+08,11.445,12592,591.12,0,591.12,0,0.00067204,4.4987e-10,0,0.00035331,0.00012565,2.0436e+08,115.93,0,1.0206e+08,16.21,591.12,1
2044,4.1,12082,1,12082,1,0.00015799,2.6364e-10,0,0.00059432,-2.8752e-05,5.3208,66.174,0,1.7744e+08,-2.7938,12081,13104,1,13104,1,0.0012836,1.0703e-09,0,0.0012836,0.00018174,2.8602e+08,279.39,0,3.9355e+08,14.61,13103,12082,1,12082,1,0.00015799,1.9982e-10,0,0.00058366,-2.868e-05,4.4534e+07,54.376,0,1.7678e+08,0.70439,12081,10985,1,10985,1,-0.00096763,-1.862e-10,0,3.2923e-05,-0.00023936,-3.9355e+08,-63.759,0,9.6599e+06,-73.473,10984,11571,1,11571,1,-0.00042566,1.2351e-11,0,0.00029183,-0.00013785,-1.731e+08,3.2917,0,9.2314e+07,-6.6502,11570,12593,1,12593,1,0.00074165,4.5653e-10,0,0.00087548,8.0258e-05,1.7678e+08,112.04,0,2.5447e+08,5.917,12592,591.12,0,591.12,0,0.00067368,3.002e-10,0,0.00035417,0.00012595,2.0486e+08,75.649,0,1.0231e+08,13.184,591.12,1
2044,4.11,12082,1,12082,1,0.00015838,4.4612e-10,0,0.00059577,-2.8823e-05,11.519,113.71,0,1.7787e+08,-1.8423,12081,13104,1,13104,1,0.0012868,1.9753e-09,0,0.0012868,0.00018219,2.8672e+08,478.08,0,3.9451e+08,32.763,13103,12082,1,12082,1,0.00015838,3.1224e-10,0,0.00058508,-2.875e-05,4.4644e+07,83.395,0,1.7721e+08,1.2529,12081,10985,1,10985,1,-0.00097,-2.53e-10,0,3.3005e-05,-0.00023994,-3.9451e+08,-86.633,0,9.684e+06,-96.526,10984,11571,1,11571,1,-0.0004267,2.4331e-11,0,0.00029254,-0.00013819,-1.7352e+08,5.1035,0,9.2539e+07,-5.7365,11570,12593,1,12593,1,0.00074346,7.6093e-10,0,0.00087762,8.0454e-05,1.7721e+08,195.84,0,2.5509e+08,9.3511,12592,591.12,0,591.12,0,0.00067533,4.9278e-10,0,0.00035504,0.00012626,2.0536e+08,125.31,0,1.0256e+08,18.625,591.12,1
2044,4.12,12082,1,12082,1,0.00015877,-7.3761e-11,0,0.00059722,-2.8893e-05,6.7861,-19.359,0,1.7831e+08,-0.84214,12081,13104,1,13104,1,0.0012899,4.9044e-10,0,0.0012899,0.00018263,2.8741e+08,128.77,0,3.9547e+08,29.689,13103,12082,1,12082,1,0.00015877,-6.8837e-11,0,0.00058651,-2.8821e-05,4.4753e+07,-18.301,0,1.7764e+08,0.046555,12081,10985,1,10985,1,-0.00097235,-5.0464e-10,0,3.3087e-05,-0.00024052,-3.9547e+08,-121.24,0,9.708e+06,-72.197,10984,11571,1,11571,1,-0.00042774,-2.3415e-10,0,0.00029325,-0.00013852,-1.7394e+08,-61.994,0,9.2765e+07,-4.7984,11570,12593,1,12593,1,0.00074527,4.5177e-11,0,0.00087976,8.065e-05,1.7764e+08,12.677,0,2.5571e+08,7.1923,12592,591.12,0,591.12,0,0.00067697,2.1544e-10,0,0.0003559,0.00012657,2.0586e+08,55.224,0,1.0281e+08,15.132,591.12,1
2044,4.13,12082,1,12082,1,0.00015915,-1.1115e-11,0,0.00059867,-2.8964e-05,-0.28109,-2.3039,0,1.7874e+08,-1.1459,12081,13104,1,13104,1,0.001293,4.5681e-10,0,0.001293,0.00018307,2.881e+08,121.37,0,3.9643e+08,14.869,13103,12082,1,12082,1,0.00015915,-1.89e-11,0,0.00058793,-2.8891e-05,4.4862e+07,-4.5795,0,1.7807e+08,1.8621,12081,10985,1,10985,1,-0.00097471,-2.8801e-10,0,3.3169e-05,-0.00024111,-3.9643e+08,-68.112,0,9.732e+06,-60.789,10984,11571,1,11571,1,-0.00042878,-1.1434e-10,0,0.00029397,-0.00013886,-1.7437e+08,-32.092,0,9.299e+07,-3.5396,11570,12593,1,12593,1,0.00074709,6.8008e-11,0,0.0008819,8.0845e-05,1.7807e+08,16.898,0,2.5633e+08,6.2834,12592,591.12,0,591.12,0,0.00067862,1.5181e-10,0,0.00035677,0.00012688,2.0636e+08,39.357,0,1.0306e+08,12.546,591.12,1
2044,4.14,12082,1,12082,1,0.00015954,1.8331e-10,0,0.00060012,-2.9034e-05,1.6052,45.318,0,1.7917e+08,5.1985,12081,13104,1,13104,1,0.0012962,1.7167e-09,0,0.0012962,0.00018351,2.8879e+08,411.98,0,3.9739e+08,64.642,13103,12082,1,12082,1,0.00015954,3.7386e-11,0,0.00058935,-2.8961e-05,4.4971e+07,10.307,0,1.785e+08,3.9509,12081,10985,1,10985,1,-0.00097707,-7.4618e-10,0,3.3251e-05,-0.00024169,-3.9739e+08,-187.36,0,9.756e+06,-76.964,10984,11571,1,11571,1,-0.00042981,-1.5579e-10,0,0.00029468,-0.0001392,-1.7479e+08,-39.788,0,9.3215e+07,-4.0006,11570,12593,1,12593,1,0.00074889,4.9345e-10,0,0.00088403,8.1041e-05,1.785e+08,124.94,0,2.5695e+08,15.561,12592,591.12,0,591.12,0,0.00068026,5.103e-10,0,0.00035763,0.00012718,2.0686e+08,129.11,0,1.0331e+08,19.832,591.12,1
2044,4.15,12082,1,12082,1,0.00015993,1.6721e-10,0,0.00060156,-2.9104e-05,4.9557,42.582,0,1.796e+08,-0.65345,12081,13104,1,13104,1,0.0012993,1.5898e-09,0,0.0012993,0.00018396,2.8949e+08,385.11,0,3.9835e+08,29.862,13103,12082,1,12082,1,0.00015993,4.1845e-11,0,0.00059078,-2.9031e-05,4.508e+07,11.38,0,1.7893e+08,1.4134,12081,10985,1,10985,1,-0.00097943,-5.9153e-10,0,3.3332e-05,-0.00024228,-3.9835e+08,-148.9,0,9.78e+06,-73.711,10984,11571,1,11571,1,-0.00043085,-1.056e-10,0,0.00029539,-0.00013953,-1.7521e+08,-25.613,0,9.3439e+07,-5.141,11570,12593,1,12593,1,0.0007507,3.8146e-10,0,0.00088616,8.1236e-05,1.7893e+08,96.849,0,2.5756e+08,9.3046,12592,591.12,0,591.12,0,0.0006819,4.2328e-10,0,0.0003585,0.00012749,2.0736e+08,108.99,0,1.0356e+08,14.982,591.12,1
2044,4.16,12082,1,12082,1,0.00016031,3.6443e-10,0,0.00060302,-2.9175e-05,13.043,92.693,0,1.8004e+08,-2.0401,12081,13104,1,13104,1,0.0013024,2.0721e-09,0,0.0013024,0.0001844,2.9018e+08,500.52,0,3.9931e+08,35.001,13103,12082,1,12082,1,0.00016031,2.1211e-10,0,0.0005922,-2.9102e-05,4.5189e+07,53.301,0,1.7937e+08,0.81852,12081,10985,1,10985,1,-0.00098179,-4.014e-10,0,3.3414e-05,-0.00024286,-3.9931e+08,-113.26,0,9.804e+06,-95.858,10984,11571,1,11571,1,-0.00043189,-5.0646e-11,0,0.0002961,-0.00013987,-1.7563e+08,-13.858,0,9.3665e+07,-6.8662,11570,12593,1,12593,1,0.00075252,6.8136e-10,0,0.0008883,8.1432e-05,1.7937e+08,173.92,0,2.5818e+08,9.6633,12592,591.12,0,591.12,0,0.00068354,5.3061e-10,0,0.00035936,0.0001278,2.0786e+08,135.71,0,1.0381e+08,18.884,591.12,1
2044,4.17,12082,1,12082,1,0.0001607,5.0689e-10,0,0.00060447,-2.9245e-05,2.9289,130.03,0,1.8047e+08,-3.4173,12081,13104,1,13104,1,0.0013056,1.3074e-09,0,0.0013056,0.00018484,2.9088e+08,319.61,0,4.0027e+08,14.431,13103,12082,1,12082,1,0.0001607,5.1388e-10,0,0.00059363,-2.9172e-05,4.5298e+07,137.22,0,1.798e+08,0.47912,12081,10985,1,10985,1,-0.00098416,-1.1208e-10,0,3.3496e-05,-0.00024345,-4.0027e+08,-38.38,0,9.8282e+06,-77.173,10984,11571,1,11571,1,-0.00043293,2.6636e-10,0,0.00029681,-0.00014021,-1.7605e+08,70.206,0,9.389e+07,-4.4147,11570,12593,1,12593,1,0.00075433,7.2003e-10,0,0.00089044,8.1628e-05,1.798e+08,185.1,0,2.588e+08,3.9856,12592,591.12,0,591.12,0,0.00068519,3.1709e-10,0,0.00036023,0.00012811,2.0836e+08,79.233,0,1.0406e+08,13.175,591.12,1
2044,4.18,12082,1,12082,1,0.00016109,4.3243e-10,0,0.00060592,-2.9316e-05,-0.86226,110.04,0,1.809e+08,-3.8113,12081,13104,1,13104,1,0.0013087,1.2753e-09,0,0.0013087,0.00018529,2.9157e+08,309.68,0,4.0123e+08,17.349,13103,12082,1,12082,1,0.00016109,3.9899e-10,0,0.00059505,-2.9242e-05,4.5407e+07,103.6,0,1.8023e+08,-0.45993,12081,10985,1,10985,1,-0.00098651,-1.7221e-10,0,3.3578e-05,-0.00024403,-4.0123e+08,-58.968,0,9.8521e+06,-90.635,10984,11571,1,11571,1,-0.00043396,1.4936e-10,0,0.00029752,-0.00014054,-1.7647e+08,37.55,0,9.4115e+07,-5.0424,11570,12593,1,12593,1,0.00075614,6.9908e-10,0,0.00089257,8.1823e-05,1.8023e+08,184.43,0,2.5942e+08,3.9401,12592,591.12,0,591.12,0,0.00068683,3.5472e-10,0,0.00036109,0.00012841,2.0886e+08,89.11,0,1.0431e+08,14.85,591.12,1
2044,4.19,12082,1,12082,1,0.00016148,2.5934e-10,0,0.00060737,-2.9386e-05,44.921,66.365,0,1.8133e+08,-2.3851,12081,13104,1,13104,1,0.0013118,2.1574e-09,0,0.0013118,0.00018573,2.9226e+08,521.18,0,4.0219e+08,34.972,13103,12082,1,12082,1,0.00016148,6.5373e-11,0,0.00059647,-2.9312e-05,4.5516e+07,18.234,0,1.8066e+08,0.48731,12081,10985,1,10985,1,-0.00098887,-5.8314e-10,0,3.366e-05,-0.00024461,-4.0219e+08,-146.14,0,9.8762e+06,-96.985,10984,11571,1,11571,1,-0.000435,-1.0739e-10,0,0.00029824,-0.00014088,-1.769e+08,-27.156,0,9.434e+07,-8.3499,11570,12593,1,12593,1,0.00075795,5.2447e-10,0,0.00089471,8.2018e-05,1.8066e+08,134.77,0,2.6004e+08,11.317,12592,591.12,0,591.12,0,0.00068848,5.5293e-10,0,0.00036195,0.00012872,2.0935e+08,142.01,0,1.0456e+08,19.909,591.12,1
2044,4.2,12082,1,12082,1,0.00016186,-3.244e-10,0,0.00060882,-2.9456e-05,6.123,-82.123,0,1.8177e+08,2.0484,12081,13104,1,13104,1,0.001315,5.4488e-10,0,0.001315,0.00018617,2.9295e+08,137.1,0,4.0315e+08,31.06,13103,12082,1,12082,1,0.00016186,-2.6813e-10,0,0.0005979,-2.9382e-05,4.5625e+07,-67.295,0,1.8109e+08,3.9447,12081,10985,1,10985,1,-0.00099123,-1.1545e-09,0,3.3742e-05,-0.0002452,-4.0315e+08,-275.13,0,9.9002e+06,-58.557,10984,11571,1,11571,1,-0.00043603,-6.3025e-10,0,0.00029895,-0.00014121,-1.7732e+08,-170.05,0,9.4565e+07,-3.6509,11570,12593,1,12593,1,0.00075976,-2.0321e-11,0,0.00089685,8.2214e-05,1.8109e+08,-4.2912,0,2.6066e+08,11.72,12592,591.12,0,591.12,0,0.00069012,4.0571e-10,0,0.00036282,0.00012903,2.0985e+08,102.27,0,1.048e+08,15.326,591.12,1
2044,4.21,12082,1,12082,1,0.00016225,2.1654e-10,0,0.00061027,-2.9527e-05,-4.3825,54.938,0,1.822e+08,-1.0082,12081,13104,1,13104,1,0.0013181,1.1304e-09,0,0.0013181,0.00018661,2.9364e+08,264.04,0,4.0411e+08,26.635,13103,12082,1,12082,1,0.00016225,1.2259e-10,0,0.00059932,-2.9453e-05,4.5734e+07,32.275,0,1.8152e+08,0.86109,12081,10985,1,10985,1,-0.00099358,-2.2668e-10,0,3.3823e-05,-0.00024578,-4.0411e+08,-62.358,0,9.9242e+06,-69.097,10984,11571,1,11571,1,-0.00043707,-2.6631e-12,0,0.00029966,-0.00014155,-1.7774e+08,-0.77327,0,9.479e+07,-3.5009,11570,12593,1,12593,1,0.00076157,3.9097e-10,0,0.00089898,8.2409e-05,1.8152e+08,97.974,0,2.6128e+08,5.7958,12592,591.12,0,591.12,0,0.00069176,2.8777e-10,0,0.00036368,0.00012933,2.1035e+08,72.569,0,1.0505e+08,12.986,591.12,1
2044,4.22,12082,1,12082,1,0.00016265,-2.5e-09,0,0.00061176,-2.9599e-05,-33.875,-637.1,0,1.8264e+08,-19.533,12081,13104,1,13104,1,0.0013213,2.9759e-09,0,0.0013213,0.00018707,2.9436e+08,701.25,0,4.051e+08,259.45,13103,12082,1,12082,1,0.00016264,-1.65e-09,0,0.00060077,-2.9524e-05,4.5845e+07,-416.29,0,1.8197e+08,-21.849,12081,10985,1,10985,1,-0.00099602,-1.3851e-08,0,3.3906e-05,-0.00024638,-4.051e+08,-3286.7,0,9.9484e+06,-246.43,10984,11571,1,11571,1,-0.00043813,-4.4275e-09,0,0.00030039,-0.00014189,-1.7817e+08,-1134.7,0,9.502e+07,-66.945,11570,12593,1,12593,1,0.00076342,1.9137e-10,0,0.00090116,8.2609e-05,1.8197e+08,50.88,0,2.6191e+08,21.008,12592,591.12,0,591.12,0,0.00069345,3.384e-09,0,0.00036457,0.00012965,2.1087e+08,855.79,0,1.0531e+08,72.3,591.12,1
2044,4.23,12082,1,12082,1,0.00016303,-1.347e-09,0,0.00061315,-2.9669e-05,-78.227,-350.43,0,1.8305e+08,17.943,12081,13104,1,13104,1,0.0013243,4.4948e-09,0,0.0013243,0.00018749,2.9496e+08,1029.4,0,4.0601e+08,196.2,13103,12082,1,12082,1,0.00016303,-1.1002e-09,0,0.00060215,-2.9595e-05,4.5955e+07,-302.36,0,1.8238e+08,0.8749,12081,10985,1,10985,1,-0.00099826,-5.7305e-09,0,3.4e-05,-0.00024695,-4.0601e+08,-1376.1,0,9.9761e+06,-161.65,10984,11571,1,11571,1,-0.00043912,-3.1004e-09,0,0.00030107,-0.00014222,-1.7857e+08,-832.1,0,9.5236e+07,-14.909,11570,12593,1,12593,1,0.00076518,1.0506e-10,0,0.00090322,8.2795e-05,1.8238e+08,31.67,0,2.625e+08,43.312,12592,591.12,0,591.12,0,0.00069502,2.2956e-09,0,0.0003654,0.00012994,2.1134e+08,579.5,0,1.0554e+08,59.151,591.12,1
2044,4.24,12082,1,12082,1,0.00016345,1.5109e-09,0,0.00061467,-2.9746e-05,-11.314,384.98,0,1.835e+08,-44.381,12081,13104,1,13104,1,0.0013276,8.6051e-09,0,0.0013276,0.00018795,2.9562e+08,2060.8,0,4.0701e+08,80.482,13103,12082,1,12082,1,0.00016345,9.3711e-10,0,0.00060363,-2.9671e-05,4.6073e+07,254.63,0,1.8284e+08,-29.277,12081,10985,1,10985,1,-0.0010007,-6.8145e-09,0,3.41e-05,-0.00024756,-4.0701e+08,-1563.8,0,1.0006e+07,-212.58,10984,11571,1,11571,1,-0.00044018,-6.1371e-10,0,0.00030182,-0.00014258,-1.79e+08,-166.79,0,9.5469e+07,-96.681,11570,12593,1,12593,1,0.00076708,4.0857e-09,0,0.00090545,8.2995e-05,1.8284e+08,1060.6,0,2.6313e+08,7.8577,12592,591.12,0,591.12,0,0.00069674,3.4162e-09,0,0.00036631,0.00013027,2.1185e+08,858.91,0,1.058e+08,67.321,591.12,1
2044,4.25,12082,1,12082,1,0.00016385,-1.5071e-10,0,0.00061609,-2.9818e-05,2.537,-37.611,0,1.8392e+08,2.6325,12081,13104,1,13104,1,0.0013307,3.5241e-10,0,0.0013307,0.00018839,2.9623e+08,82.495,0,4.0794e+08,22.733,13103,12082,1,12082,1,0.00016385,-1.0186e-10,0,0.00060504,-2.9743e-05,4.6185e+07,-28.625,0,1.8327e+08,3.5442,12081,10985,1,10985,1,-0.001003,-6.6475e-10,0,3.4197e-05,-0.00024813,-4.0794e+08,-152.29,0,1.0035e+07,-53.511,10984,11571,1,11571,1,-0.00044119,-3.449e-10,0,0.00030252,-0.00014291,-1.7941e+08,-87.72,0,9.5691e+07,-1.9041,11570,12593,1,12593,1,0.00076888,2.4023e-11,0,0.00090755,8.3186e-05,1.8327e+08,6.8573,0,2.6373e+08,10.915,12592,591.12,0,591.12,0,0.00069836,2.5439e-10,0,0.00036716,0.00013057,2.1233e+08,60.901,0,1.0604e+08,12.147,591.12,1
2044,4.26,12082,1,12082,1,0.00016425,-2.6183e-10,0,0.00061756,-2.9892e-05,2.8264,-66.946,0,1.8435e+08,-2.7552,12081,13104,1,13104,1,0.0013339,3.5435e-11,0,0.0013339,0.00018883,2.9686e+08,12.134,0,4.089e+08,5.7638,13103,12082,1,12082,1,0.00016425,-2.671e-10,0,0.00060647,-2.9817e-05,4.6299e+07,-73.046,0,1.8371e+08,0.076043,12081,10985,1,10985,1,-0.0010054,-5.7271e-10,0,3.4295e-05,-0.00024872,-4.089e+08,-137.2,0,1.0063e+07,-51.427,10984,11571,1,11571,1,-0.00044222,-3.7566e-10,0,0.00030323,-0.00014325,-1.7983e+08,-94.801,0,9.5916e+07,-2.6329,11570,12593,1,12593,1,0.00077072,-1.4401e-10,0,0.0009097,8.3379e-05,1.8371e+08,-38.517,0,2.6435e+08,1.789,12592,591.12,0,591.12,0,0.00070001,1.5358e-10,0,0.00036803,0.00013088,2.1283e+08,37.462,0,1.0628e+08,9.1606,591.12,1
2044,4.27,12082,1,12082,1,0.00016466,-2.005e-09,0,0.00061905,-2.9967e-05,-134.2,-504.71,0,1.8479e+08,-6.3889,12081,13104,1,13104,1,0.0013371,1.6804e-09,0,0.0013371,0.00018928,2.975e+08,388.44,0,4.0988e+08,124.93,13103,12082,1,12082,1,0.00016466,-1.6756e-09,0,0.00060792,-2.9892e-05,4.6415e+07,-444.95,0,1.8415e+08,-0.33168,12081,10985,1,10985,1,-0.0010078,-7.9396e-09,0,3.4393e-05,-0.00024933,-4.0988e+08,-1811.3,0,1.0092e+07,-168.15,10984,11571,1,11571,1,-0.00044326,-3.3998e-09,0,0.00030396,-0.0001436,-1.8026e+08,-868.88,0,9.6145e+07,-33.894,11570,12593,1,12593,1,0.00077259,-2.0439e-10,0,0.00091189,8.3577e-05,1.8415e+08,-56.565,0,2.6497e+08,22.766,12592,591.12,0,591.12,0,0.0007017,2.0742e-09,0,0.00036892,0.00013119,2.1333e+08,506.36,0,1.0653e+08,46.554,591.12,1
2044,4.28,12082,1,12082,1,0.00016507,2.0193e-09,0,0.00062049,-3.004e-05,10.088,505.56,0,1.8521e+08,-25.552,12081,13104,1,13104,1,0.0013403,7.0324e-09,0,0.0013403,0.00018972,2.9813e+08,1684.7,0,4.1083e+08,127.89,13103,12082,1,12082,1,0.00016507,1.721e-09,0,0.00060934,-2.9965e-05,4.6528e+07,459.8,0,1.8459e+08,-9.9103,12081,10985,1,10985,1,-0.0010101,-2.5617e-09,0,3.4491e-05,-0.00024991,-4.1083e+08,-610.84,0,1.0122e+07,-226.3,10984,11571,1,11571,1,-0.00044428,2.6014e-11,0,0.00030467,-0.00014394,-1.8067e+08,7.5709,0,9.6368e+07,-68.232,11570,12593,1,12593,1,0.00077441,3.7327e-09,0,0.00091402,8.3768e-05,1.8459e+08,964.99,0,2.6558e+08,17.956,12592,591.12,0,591.12,0,0.00070334,2.2916e-09,0,0.00036979,0.0001315,2.1382e+08,567.81,0,1.0677e+08,73.543,591.12,1
2044,4.29,12082,1,12082,1,0.00016547,1.7986e-10,0,0.00062193,-3.0112e-05,-2.3731,46.453,0,1.8563e+08,2.001,12081,13104,1,13104,1,0.0013434,1.3892e-09,0,0.0013434,0.00019015,2.9874e+08,320.67,0,4.1177e+08,35.331,13103,12082,1,12082,1,0.00016547,4.881e-11,0,0.00061076,-3.0037e-05,4.6641e+07,13.517,0,1.8502e+08,2.5025,12081,10985,1,10985,1,-0.0010124,-4.4259e-10,0,3.4589e-05,-0.00025049,-4.1177e+08,-112.82,0,1.015e+07,-61.683,10984,11571,1,11571,1,-0.00044529,-1.0847e-10,0,0.00030538,-0.00014428,-1.8108e+08,-25.572,0,9.6591e+07,-4.1552,11570,12593,1,12593,1,0.00077622,4.1076e-10,0,0.00091614,8.396e-05,1.8502e+08,105.81,0,2.6618e+08,10.989,12592,591.12,0,591.12,0,0.00070496,3.9656e-10,0,0.00037065,0.0001318,2.1431e+08,97.896,0,1.0701e+08,14.647,591.12,1
2044,4.3,12082,1,12082,1,0.00016588,-3.5021e-10,0,0.00062342,-3.0188e-05,23.543,-86.461,0,1.8607e+08,-24.668,12081,13104,1,13104,1,0.0013466,4.8481e-09,0,0.0013466,0.00019061,2.9938e+08,1155.4,0,4.1275e+08,93.446,13103,12082,1,12082,1,0.00016588,-7.3714e-11,0,0.00061222,-3.0112e-05,4.6757e+07,-18.509,0,1.8546e+08,-22.239,12081,10985,1,10985,1,-0.0010148,-6.933e-09,0,3.4689e-05,-0.00025109,-4.1275e+08,-1591.1,0,1.018e+07,-110.52,10984,11571,1,11571,1,-0.00044634,-1.9034e-09,0,0.00030611,-0.00014462,-1.8151e+08,-494.99,0,9.682e+07,-64.359,11570,12593,1,12593,1,0.00077809,1.2e-09,0,0.00091833,8.4157e-05,1.8546e+08,320.15,0,2.6681e+08,12.847,12592,591.12,0,591.12,0,0.00070665,2.4154e-09,0,0.00037154,0.00013212,2.1481e+08,607.85,0,1.0726e+08,46.271,591.12,1
2044,4.31,12082,1,12082,1,0.00016628,2.6054e-11,0,0.00062485,-3.026e-05,2.8616,6.9283,0,1.8649e+08,1.7078,12081,13104,1,13104,1,0.0013497,3.2646e-10,0,0.0013497,0.00019104,2.9999e+08,86.337,0,4.1369e+08,18.306,13103,12082,1,12082,1,0.00016628,2.5175e-11,0,0.00061362,-3.0185e-05,4.687e+07,7.0529,0,1.8589e+08,3.6649,12081,10985,1,10985,1,-0.0010171,-2.4455e-10,0,3.4786e-05,-0.00025167,-4.1369e+08,-56.219,0,1.0209e+07,-52.889,10984,11571,1,11571,1,-0.00044735,-6.3225e-11,0,0.00030681,-0.00014496,-1.8192e+08,-16.406,0,9.7041e+07,-1.5684,11570,12593,1,12593,1,0.0007799,9.9534e-11,0,0.00092043,8.4347e-05,1.8589e+08,27.279,0,2.6741e+08,9.277,12592,591.12,0,591.12,0,0.00070827,1.3266e-10,0,0.00037239,0.00013242,2.153e+08,31.726,0,1.075e+08,11.842,591.12,1
2044,4.32,12082,1,12082,1,0.00016669,-8.5776e-10,0,0.00062635,-3.0336e-05,-121.82,-208.32,0,1.8693e+08,-54.913,12081,13104,1,13104,1,0.001353,7.8449e-09,0,0.001353,0.0001915,3.0064e+08,1876.1,0,4.1468e+08,351.17,13103,12082,1,12082,1,0.00016669,1.8637e-10,0,0.00061509,-3.026e-05,4.6986e+07,48.723,0,1.8634e+08,-42.72,12081,10985,1,10985,1,-0.0010196,-1.6327e-08,0,3.4883e-05,-0.00025228,-4.1468e+08,-3744.3,0,1.0237e+07,-394.85,10984,11571,1,11571,1,-0.0004484,-3.5294e-09,0,0.00030754,-0.00014531,-1.8234e+08,-895.72,0,9.7271e+07,-138.8,11570,12593,1,12593,1,0.00078178,2.3111e-09,0,0.00092263,8.4545e-05,1.8634e+08,589.1,0,2.6804e+08,18.249,12592,591.12,0,591.12,0,0.00070997,4.8776e-09,0,0.00037329,0.00013274,2.158e+08,1222.2,0,1.0775e+08,122.87,591.12,1
2044,4.33,12082,1,12082,1,0.00016709,-5.025e-11,0,0.00062777,-3.0408e-05,-1.3124,-14.099,0,1.8735e+08,2.3766,12081,13104,1,13104,1,0.001356,3.9699e-10,0,0.001356,0.00019192,3.0124e+08,75.193,0,4.156e+08,16.977,13103,12082,1,12082,1,0.00016709,-6.3111e-11,0,0.00061648,-3.0332e-05,4.7098e+07,-16.129,0,1.8677e+08,3.3942,12081,10985,1,10985,1,-0.0010218,-2.9782e-10,0,3.4983e-05,-0.00025285,-4.156e+08,-69.472,0,1.0267e+07,-50.634,10984,11571,1,11571,1,-0.0004494,-1.2087e-10,0,0.00030824,-0.00014564,-1.8275e+08,-29.676,0,9.7491e+07,-0.45406,11570,12593,1,12593,1,0.00078357,9.843e-12,0,0.00092472,8.4734e-05,1.8677e+08,2.8763,0,2.6863e+08,9.7171,12592,591.12,0,591.12,0,0.00071157,1.0562e-10,0,0.00037414,0.00013304,2.1628e+08,25.189,0,1.0799e+08,10.631,591.12,1
2044,4.34,12082,1,12082,1,0.0001675,-1.3339e-09,0,0.00062925,-3.0483e-05,0.89886,-333.08,0,1.8778e+08,-19.618,12081,13104,1,13104,1,0.0013592,1.9256e-09,0,0.0013592,0.00019237,3.0188e+08,450.25,0,4.1658e+08,211.4,13103,12082,1,12082,1,0.0001675,-3.8222e-10,0,0.00061793,-3.0407e-05,4.7213e+07,-95.792,0,1.8721e+08,-9.6693,12081,10985,1,10985,1,-0.0010242,-8.737e-09,0,3.5081e-05,-0.00025345,-4.1658e+08,-1992.9,0,1.0296e+07,-213.8,10984,11571,1,11571,1,-0.00045044,-2.6077e-09,0,0.00030897,-0.00014599,-1.8317e+08,-657.33,0,9.7719e+07,-48.622,11570,12593,1,12593,1,0.00078543,2.5483e-10,0,0.0009269,8.493e-05,1.8721e+08,70.077,0,2.6925e+08,10.879,12592,591.12,0,591.12,0,0.00071325,2.2771e-09,0,0.00037502,0.00013335,2.1678e+08,564.76,0,1.0824e+08,63.123,591.12,1
2044,4.35,12082,1,12082,1,0.0001679,1.4335e-09,0,0.00063072,-3.0557e-05,-39.794,364.9,0,1.8822e+08,-30.095,12081,13104,1,13104,1,0.0013624,6.5029e-09,0,0.0013624,0.00019282,3.0251e+08,1561.8,0,4.1754e+08,75.132,13103,12082,1,12082,1,0.0001679,9.8004e-10,0,0.00061937,-3.0481e-05,4.7328e+07,266.61,0,1.8765e+08,-28.382,12081,10985,1,10985,1,-0.0010266,-4.3685e-09,0,3.5181e-05,-0.00025404,-4.1754e+08,-1037.7,0,1.0326e+07,-150.64,10984,11571,1,11571,1,-0.00045147,-9.2626e-11,0,0.00030969,-0.00014633,-1.8359e+08,-21.775,0,9.7945e+07,-66.061,11570,12593,1,12593,1,0.00078727,3.1379e-09,0,0.00092906,8.5124e-05,1.8765e+08,812.35,0,2.6987e+08,8.3188,12592,591.12,0,591.12,0,0.00071491,2.3555e-09,0,0.0003759,0.00013366,2.1728e+08,594.49,0,1.0848e+08,45.949,591.12,1
2044,4.36,12082,1,12082,1,0.00016831,-1.4659e-09,0,0.00063218,-3.0631e-05,-8.6071,-368.77,0,1.8864e+08,-34.777,12081,13104,1,13104,1,0.0013656,4.0828e-09,0,0.0013656,0.00019326,3.0313e+08,974.87,0,4.185e+08,184.04,13103,12082,1,12082,1,0.00016831,-2.98e-10,0,0.0006208,-3.0554e-05,4.7442e+07,-93.298,0,1.8809e+08,-28.123,12081,10985,1,10985,1,-0.001029,-1.2388e-08,0,3.528e-05,-0.00025463,-4.185e+08,-2850,0,1.0355e+07,-256.98,10984,11571,1,11571,1,-0.00045249,-3.3985e-09,0,0.0003104,-0.00014667,-1.8401e+08,-878.79,0,9.817e+07,-78.223,11570,12593,1,12593,1,0.00078911,8.1248e-10,0,0.0009312,8.5317e-05,1.8809e+08,216.09,0,2.7048e+08,16.702,12592,591.12,0,591.12,0,0.00071656,3.428e-09,0,0.00037677,0.00013397,2.1777e+08,860.81,0,1.0872e+08,76.174,591.12,1
2044,4.37,12082,1,12082,1,0.00016871,1.26e-10,0,0.00063361,-3.0703e-05,-3.3412,29.309,0,1.8906e+08,7.1888,12081,13104,1,13104,1,0.0013687,2.066e-09,0,0.0013687,0.00019369,3.0374e+08,470.58,0,4.1943e+08,57.465,13103,12082,1,12082,1,0.00016871,-2.667e-11,0,0.0006222,-3.0627e-05,4.7555e+07,-6.2629,0,1.8852e+08,5.4333,12081,10985,1,10985,1,-0.0010313,-9.1049e-10,0,3.5378e-05,-0.00025521,-4.1943e+08,-223.29,0,1.0384e+07,-66.674,10984,11571,1,11571,1,-0.0004535,-3.0028e-10,0,0.0003111,-0.00014701,-1.8442e+08,-78.78,0,9.8391e+07,-2.5123,11570,12593,1,12593,1,0.00079091,4.7313e-10,0,0.00093331,8.5507e-05,1.8852e+08,120.9,0,2.7108e+08,19.336,12592,591.12,0,591.12,0,0.00071818,6.2636e-10,0,0.00037762,0.00013427,2.1825e+08,154.17,0,1.0896e+08,19.267,591.12,1
2044,4.38,12082,1,12082,1,0.00016911,-2.5291e-10,0,0.00063507,-3.0777e-05,4.3263,-64.048,0,1.8949e+08,-0.67417,12081,13104,1,13104,1,0.0013718,2.3195e-10,0,0.0013718,0.00019413,3.0436e+08,74.231,0,4.2039e+08,21.045,13103,12082,1,12082,1,0.00016911,-1.9147e-10,0,0.00062364,-3.0701e-05,4.7669e+07,-49.376,0,1.8896e+08,0.28967,12081,10985,1,10985,1,-0.0010336,-9.2104e-10,0,3.5477e-05,-0.0002558,-4.2039e+08,-221.14,0,1.0413e+07,-51.475,10984,11571,1,11571,1,-0.00045452,-4.6307e-10,0,0.00031182,-0.00014735,-1.8484e+08,-124.48,0,9.8616e+07,-3.7716,11570,12593,1,12593,1,0.00079275,-1.904e-11,0,0.00093546,8.57e-05,1.8896e+08,-5.4542,0,2.7169e+08,5.976,12592,591.12,0,591.12,0,0.00071983,2.8372e-10,0,0.0003785,0.00013458,2.1875e+08,71.889,0,1.0921e+08,11.657,591.12,1
2044,4.39,12082,1,12082,1,0.00016952,2.4176e-10,0,0.00063653,-3.0851e-05,3.9326,60.306,0,1.8992e+08,-7.1983,12081,13104,1,13104,1,0.001375,1.06e-09,0,0.001375,0.00019458,3.0499e+08,253.4,0,4.2135e+08,10.991,13103,12082,1,12082,1,0.00016952,1.9221e-10,0,0.00062507,-3.0775e-05,4.7784e+07,48.736,0,1.894e+08,-3.2463,12081,10985,1,10985,1,-0.001036,-7.3007e-10,0,3.5577e-05,-0.00025639,-4.2135e+08,-164.22,0,1.0443e+07,-70.325,10984,11571,1,11571,1,-0.00045555,-6.604e-11,0,0.00031254,-0.00014769,-1.8525e+08,-15.276,0,9.8842e+07,-10.772,11570,12593,1,12593,1,0.00079459,5.2605e-10,0,0.00093761,8.5894e-05,1.894e+08,139.62,0,2.7231e+08,0.76372,12592,591.12,0,591.12,0,0.00072149,3.858e-10,0,0.00037937,0.00013489,2.1924e+08,95.863,0,1.0945e+08,12.002,591.12,1
2044,4.4,12082,1,12082,1,0.00016992,-3.1467e-10,0,0.00063799,-3.0925e-05,2.4276,-79.521,0,1.9035e+08,0.96535,12081,13104,1,13104,1,0.0013782,3.8232e-10,0,0.0013782,0.00019502,3.056e+08,107,0,4.223e+08,27.082,13103,12082,1,12082,1,0.00016992,-2.54e-10,0,0.0006265,-3.0848e-05,4.7898e+07,-64.807,0,1.8983e+08,1.1473,12081,10985,1,10985,1,-0.0010383,-1.1377e-09,0,3.5675e-05,-0.00025698,-4.223e+08,-271.75,0,1.0472e+07,-49.418,10984,11571,1,11571,1,-0.00045657,-5.9386e-10,0,0.00031325,-0.00014803,-1.8567e+08,-157.37,0,9.9066e+07,-3.3177,11570,12593,1,12593,1,0.00079642,-6.1524e-12,0,0.00093974,8.6086e-05,1.8983e+08,-1.6644,0,2.7291e+08,8.1348,12592,591.12,0,591.12,0,0.00072313,3.675e-10,0,0.00038024,0.0001352,2.1973e+08,92.217,0,1.0969e+08,12.225,591.12,1
2044,4.41,12082,1,12082,1,0.00017034,-5.0562e-09,0,0.00063947,-3.0999e-05,-209.29,-1280.5,0,1.9078e+08,-23.144,12081,13104,1,13104,1,0.0013814,1.3674e-09,0,0.0013814,0.00019547,3.0624e+08,468.22,0,4.2329e+08,324.13,13103,12082,1,12082,1,0.00017033,-4.3215e-09,0,0.00062794,-3.0922e-05,4.8013e+07,-1157.9,0,1.9027e+08,-21.954,12081,10985,1,10985,1,-0.0010407,-1.7647e-08,0,3.5773e-05,-0.00025758,-4.2329e+08,-4030.4,0,1.0501e+07,-242.28,10984,11571,1,11571,1,-0.00045761,-7.493e-09,0,0.00031397,-0.00014837,-1.8609e+08,-1873.8,0,9.9293e+07,-81.013,11570,12593,1,12593,1,0.00079827,-1.9611e-09,0,0.00094191,8.6282e-05,1.9027e+08,-528.93,0,2.7353e+08,24.248,12592,591.12,0,591.12,0,0.00072481,4.0871e-09,0,0.00038112,0.00013551,2.2023e+08,990.45,0,1.0994e+08,80.433,591.12,1
2044,4.42,12082,1,12082,1,0.00017075,-9.122e-10,0,0.00064096,-3.1075e-05,-228.13,-234.05,0,1.9122e+08,-34.069,12081,13104,1,13104,1,0.0013846,9.629e-09,0,0.0013846,0.00019592,3.0687e+08,2302.8,0,4.2426e+08,149.5,13103,12082,1,12082,1,0.00017075,-3.413e-10,0,0.00062941,-3.0998e-05,4.8131e+07,-84.226,0,1.9072e+08,-31.664,12081,10985,1,10985,1,-0.0010431,-1.3859e-08,0,3.5876e-05,-0.00025818,-4.2426e+08,-3193.9,0,1.0531e+07,-207.65,10984,11571,1,11571,1,-0.00045866,-3.8271e-09,0,0.0003147,-0.00014872,-1.8652e+08,-1005.1,0,9.9523e+07,-110,11570,12593,1,12593,1,0.00080016,1.9629e-09,0,0.00094411,8.648e-05,1.9072e+08,503.13,0,2.7416e+08,39.505,12592,591.12,0,591.12,0,0.0007265,4.634e-09,0,0.00038202,0.00013583,2.2074e+08,1171.7,0,1.1019e+08,85.594,591.12,1
2044,4.43,12082,1,12082,1,0.00017116,-3.4203e-09,0,0.00064244,-3.115e-05,-165.14,-859.45,0,1.9166e+08,-55.75,12081,13104,1,13104,1,0.0013879,1.1707e-08,0,0.0013879,0.00019637,3.0751e+08,2812.2,0,4.2523e+08,346.18,13103,12082,1,12082,1,0.00017116,-1.3004e-09,0,0.00063085,-3.1073e-05,4.8246e+07,-316.51,0,1.9116e+08,-43.575,12081,10985,1,10985,1,-0.0010455,-2.7247e-08,0,3.5976e-05,-0.00025878,-4.2523e+08,-6258.1,0,1.0561e+07,-456.28,10984,11571,1,11571,1,-0.00045969,-8.2935e-09,0,0.00031543,-0.00014907,-1.8694e+08,-2109.8,0,9.975e+07,-177.16,11570,12593,1,12593,1,0.00080201,1.543e-09,0,0.00094628,8.6675e-05,1.9116e+08,432.24,0,2.7478e+08,65.693,12592,591.12,0,591.12,0,0.00072817,7.8769e-09,0,0.0003829,0.00013614,2.2124e+08,1977.8,0,1.1044e+08,154.61,591.12,1
2044,4.44,12082,1,12082,1,0.00017156,-3.1067e-09,0,0.00064388,-3.1223e-05,33.018,-779.49,0,1.9208e+08,-23.947,12081,13104,1,13104,1,0.001391,4.8636e-09,0,0.001391,0.0001968,3.0811e+08,1159.5,0,4.2617e+08,352.34,13103,12082,1,12082,1,0.00017156,-1.7038e-09,0,0.00063226,-3.1146e-05,4.8359e+07,-426.29,0,1.916e+08,-22.924,12081,10985,1,10985,1,-0.0010478,-1.8138e-08,0,3.6075e-05,-0.00025936,-4.2617e+08,-4173.7,0,1.059e+07,-298.59,10984,11571,1,11571,1,-0.0004607,-5.6517e-09,0,0.00031613,-0.00014941,-1.8735e+08,-1421.2,0,9.9972e+07,-104.34,11570,12593,1,12593,1,0.00080382,2.9381e-10,0,0.00094839,8.6865e-05,1.916e+08,71.925,0,2.7538e+08,46.447,12592,591.12,0,591.12,0,0.0007298,4.6151e-09,0,0.00038376,0.00013644,2.2172e+08,1150.2,0,1.1067e+08,116.89,591.12,1
2044,4.45,12082,1,12082,1,0.00017197,-2.6744e-09,0,0.0006453,-3.1297e-05,9.9163,-680.74,0,1.9249e+08,-1.3599,12081,13104,1,13104,1,0.0013941,1.0541e-09,0,0.0013941,0.00019724,3.087e+08,360.95,0,4.2711e+08,199.85,13103,12082,1,12082,1,0.00017197,-2.7494e-09,0,0.00063367,-3.122e-05,4.8474e+07,-742.9,0,1.9203e+08,7.7595,12081,10985,1,10985,1,-0.0010501,-7.5085e-09,0,3.6179e-05,-0.00025994,-4.2711e+08,-1753.8,0,1.0621e+07,-253.57,10984,11571,1,11571,1,-0.0004617,-4.318e-09,0,0.00031683,-0.00014974,-1.8775e+08,-1092.7,0,1.0019e+08,-24.399,11570,12593,1,12593,1,0.00080563,-1.0082e-09,0,0.0009505,8.7053e-05,1.9203e+08,-260.25,0,2.7597e+08,38.076,12592,591.12,0,591.12,0,0.00073141,2.0969e-09,0,0.00038461,0.00013675,2.222e+08,519.8,0,1.1091e+08,62.925,591.12,1
2044,4.46,12082,1,12082,1,0.00017241,-2.1241e-10,0,0.00064683,-3.1378e-05,-64.476,-58.297,0,1.9294e+08,-82.647,12081,13104,1,13104,1,0.0013974,1.544e-08,0,0.0013974,0.00019769,3.093e+08,3651.4,0,4.281e+08,345.03,13103,12082,1,12082,1,0.00017241,6.861e-10,0,0.00063516,-3.13e-05,4.8599e+07,186.11,0,1.9249e+08,-59.201,12081,10985,1,10985,1,-0.0010526,-2.0279e-08,0,3.6303e-05,-0.00026056,-4.281e+08,-4732.4,0,1.0658e+07,-500.54,10984,11571,1,11571,1,-0.00046275,-4.2166e-09,0,0.00031758,-0.0001501,-1.8818e+08,-1077.1,0,1.0043e+08,-202.25,11570,12593,1,12593,1,0.00080757,4.0731e-09,0,0.00095274,8.7251e-05,1.9249e+08,1062.4,0,2.7658e+08,30.568,12592,591.12,0,591.12,0,0.00073314,7.3048e-09,0,0.00038553,0.00013707,2.2271e+08,1836.2,0,1.1116e+08,172.49,591.12,1
2044,4.47,12082,1,12082,1,0.00017283,-1.7721e-09,0,0.00064826,-3.1454e-05,227.98,-444.73,0,1.9335e+08,-3.6437,12081,13104,1,13104,1,0.0014005,2.2014e-09,0,0.0014005,0.00019812,3.0985e+08,554.98,0,4.2902e+08,197.42,13103,12082,1,12082,1,0.00017283,-1.6279e-09,0,0.00063656,-3.1377e-05,4.8718e+07,-427.43,0,1.9292e+08,5.3811,12081,10985,1,10985,1,-0.0010548,-7.1111e-09,0,3.6425e-05,-0.00026114,-4.2902e+08,-1674.6,0,1.0694e+07,-241.73,10984,11571,1,11571,1,-0.00046373,-3.2975e-09,0,0.00031828,-0.00015044,-1.8858e+08,-792.69,0,1.0064e+08,-35.963,11570,12593,1,12593,1,0.00080939,-6.7897e-11,0,0.00095484,8.7436e-05,1.9292e+08,-17.85,0,2.7715e+08,36.946,12592,591.12,0,591.12,0,0.00073475,2.0204e-09,0,0.00038639,0.00013737,2.2318e+08,510.67,0,1.1139e+08,67.164,591.12,1
2044,4.48,12082,1,12082,1,0.00017327,-1.1572e-09,0,0.00064976,-3.1533e-05,-495.71,-293.61,0,1.9378e+08,-14.689,12081,13104,1,13104,1,0.0014038,6.0458e-09,0,0.0014038,0.00019857,3.1043e+08,1427.3,0,4.2999e+08,159.52,13103,12082,1,12082,1,0.00017327,-6.1358e-10,0,0.00063802,-3.1456e-05,4.884e+07,-160.97,0,1.9338e+08,-2.2302,12081,10985,1,10985,1,-0.0010572,-1.0882e-08,0,3.6545e-05,-0.00026174,-4.2999e+08,-2517,0,1.073e+07,-250.19,10984,11571,1,11571,1,-0.00046476,-2.5346e-09,0,0.00031901,-0.00015079,-1.89e+08,-631.91,0,1.0087e+08,-56.681,11570,12593,1,12593,1,0.00081129,5.6382e-10,0,0.00095704,8.763e-05,1.9338e+08,137.63,0,2.7775e+08,31.138,12592,591.12,0,591.12,0,0.00073644,2.8608e-09,0,0.00038728,0.00013769,2.2367e+08,718.67,0,1.1163e+08,69.477,591.12,1
2044,4.49,12082,1,12082,1,0.00017369,1.7063e-09,0,0.00065121,-3.1611e-05,-16.543,433.73,0,1.9419e+08,-28.081,12081,13104,1,13104,1,0.0014069,7.2748e-09,0,0.0014069,0.000199,3.1099e+08,1736.7,0,4.3093e+08,95.023,13103,12082,1,12082,1,0.00017369,1.3754e-09,0,0.00063944,-3.1534e-05,4.8961e+07,352.98,0,1.9382e+08,-13.599,12081,10985,1,10985,1,-0.0010595,-5.5816e-09,0,3.667e-05,-0.00026233,-4.3093e+08,-1300.9,0,1.0767e+07,-169.93,10984,11571,1,11571,1,-0.00046575,-1.1063e-11,0,0.00031972,-0.00015114,-1.894e+08,-3.6912,0,1.0109e+08,-70.808,11570,12593,1,12593,1,0.00081314,3.6602e-09,0,0.00095917,8.7817e-05,1.9382e+08,967.94,0,2.7833e+08,17.387,12592,591.12,0,591.12,0,0.00073808,2.7171e-09,0,0.00038815,0.00013799,2.2415e+08,683.83,0,1.1186e+08,56.923,591.12,1
2044,4.5,12082,1,12082,1,0.00017412,-1.0249e-09,0,0.00065268,-3.169e-05,82.311,-250.75,0,1.9462e+08,-41.336,12081,13104,1,13104,1,0.0014101,4.3538e-09,0,0.0014101,0.00019944,3.1156e+08,1044.6,0,4.3188e+08,204.84,13103,12082,1,12082,1,0.00017412,-4.2556e-10,0,0.00064088,-3.1612e-05,4.9082e+07,-98.489,0,1.9426e+08,-37.816,12081,10985,1,10985,1,-0.0010619,-8.7013e-09,0,3.6791e-05,-0.00026293,-4.3188e+08,-2010.6,0,1.0803e+07,-238.83,10984,11571,1,11571,1,-0.00046676,-2.2525e-09,0,0.00032044,-0.00015148,-1.8981e+08,-562.87,0,1.0132e+08,-84.915,11570,12593,1,12593,1,0.000815,5.0661e-10,0,0.00096132,8.8007e-05,1.9426e+08,145.81,0,2.7891e+08,3.4797,12592,591.12,0,591.12,0,0.00073974,2.4438e-09,0,0.00038903,0.0001383,2.2463e+08,614.91,0,1.121e+08,67.939,591.12,1
2044,4.51,12082,1,12082,1,0.00017456,-2.8463e-09,0,0.00065417,-3.1769e-05,-80.581,-724.08,0,1.9505e+08,-40.713,12081,13104,1,13104,1,0.0014134,5.8071e-09,0,0.0014134,0.00019989,3.1214e+08,1377.8,0,4.3285e+08,316.6,13103,12082,1,12082,1,0.00017456,-1.1361e-09,0,0.00064233,-3.1691e-05,4.9204e+07,-301.77,0,1.9471e+08,-37.459,12081,10985,1,10985,1,-0.0010643,-1.9449e-08,0,3.6912e-05,-0.00026353,-4.3285e+08,-4557.5,0,1.0839e+07,-375.88,10984,11571,1,11571,1,-0.00046778,-5.2627e-09,0,0.00032117,-0.00015183,-1.9023e+08,-1338.3,0,1.0155e+08,-129.71,11570,12593,1,12593,1,0.00081689,4.7778e-10,0,0.0009635,8.8199e-05,1.9471e+08,124.39,0,2.795e+08,32.002,12592,591.12,0,591.12,0,0.00074142,5.0488e-09,0,0.00038993,0.00013862,2.2513e+08,1270,0,1.1234e+08,117.36,591.12,1
2044,4.52,12082,1,12082,1,0.00017499,-3.0626e-09,0,0.00065562,-3.1847e-05,-135.93,-786.01,0,1.9546e+08,-7.3655,12081,13104,1,13104,1,0.0014165,7.7922e-10,0,0.0014165,0.00020032,3.1269e+08,266.82,0,4.3379e+08,121.3,13103,12082,1,12082,1,0.00017498,-2.9122e-09,0,0.00064375,-3.1769e-05,4.9325e+07,-762.44,0,1.9515e+08,6.7238,12081,10985,1,10985,1,-0.0010666,-1.0304e-08,0,3.7036e-05,-0.00026412,-4.3379e+08,-2427.5,0,1.0876e+07,-190.09,10984,11571,1,11571,1,-0.00046877,-4.8246e-09,0,0.00032188,-0.00015218,-1.9063e+08,-1207.3,0,1.0177e+08,-36.969,11570,12593,1,12593,1,0.00081874,-1.1169e-09,0,0.00096563,8.8387e-05,1.9515e+08,-282.55,0,2.8008e+08,32.845,12592,591.12,0,591.12,0,0.00074306,2.3547e-09,0,0.0003908,0.00013892,2.256e+08,590.6,0,1.1257e+08,59.682,591.12,1
2044,4.53,12082,1,12082,1,0.00017542,2.3463e-09,0,0.00065712,-3.1927e-05,-74.924,592.41,0,1.9589e+08,-42.329,12081,13104,1,13104,1,0.0014198,9.3392e-09,0,0.0014198,0.00020077,3.1327e+08,2216.5,0,4.3476e+08,105.4,13103,12082,1,12082,1,0.00017542,1.9334e-09,0,0.00064522,-3.1849e-05,4.9448e+07,489.21,0,1.956e+08,-18.112,12081,10985,1,10985,1,-0.001069,-6.7109e-09,0,3.7161e-05,-0.00026473,-4.3476e+08,-1557.6,0,1.0913e+07,-309.4,10984,11571,1,11571,1,-0.0004698,3.4139e-11,0,0.00032261,-0.00015253,-1.9105e+08,9.0974,0,1.02e+08,-73.943,11570,12593,1,12593,1,0.00082064,4.8483e-09,0,0.00096783,8.858e-05,1.956e+08,1250,0,2.8068e+08,17.484,12592,591.12,0,591.12,0,0.00074475,3.4162e-09,0,0.00039169,0.00013924,2.261e+08,852.25,0,1.1281e+08,85.526,591.12,1
2044,4.54,12082,1,12082,1,0.00017586,-3.6599e-09,0,0.00065859,-3.2005e-05,24.236,-916.97,0,1.9631e+08,-26.162,12081,13104,1,13104,1,0.001423,3.1588e-09,0,0.001423,0.00020121,3.1384e+08,806.86,0,4.3572e+08,311.77,13103,12082,1,12082,1,0.00017585,-3.1755e-09,0,0.00064666,-3.1928e-05,4.957e+07,-841.24,0,1.9605e+08,-25.753,12081,10985,1,10985,1,-0.0010713,-1.4268e-08,0,3.7283e-05,-0.00026533,-4.3572e+08,-3317.4,0,1.095e+07,-297.02,10984,11571,1,11571,1,-0.0004708,-6.4548e-09,0,0.00032333,-0.00015288,-1.9146e+08,-1600.1,0,1.0222e+08,-102.94,11570,12593,1,12593,1,0.00082251,-2.9818e-10,0,0.00096998,8.877e-05,1.9605e+08,-65.28,0,2.8126e+08,47.617,12592,591.12,0,591.12,0,0.00074641,3.9102e-09,0,0.00039258,0.00013955,2.2658e+08,969.46,0,1.1305e+08,114.6,591.12,1
2044,4.55,12082,1,12082,1,0.00017629,4.8379e-10,0,0.00066006,-3.2084e-05,22.145,121.39,0,1.9674e+08,-33.392,12081,13104,1,13104,1,0.0014262,7.3979e-09,0,0.0014262,0.00020165,3.144e+08,1759.8,0,4.3666e+08,183.1,13103,12082,1,12082,1,0.00017629,1.0376e-09,0,0.0006481,-3.2007e-05,4.9692e+07,258.6,0,1.965e+08,-22.477,12081,10985,1,10985,1,-0.0010736,-1.0988e-08,0,3.7408e-05,-0.00026592,-4.3666e+08,-2574.9,0,1.0987e+07,-259.8,10984,11571,1,11571,1,-0.00047181,-6.7877e-10,0,0.00032405,-0.00015323,-1.9187e+08,-171.48,0,1.0245e+08,-71.671,11570,12593,1,12593,1,0.00082438,2.4585e-09,0,0.00097215,8.896e-05,1.965e+08,634.8,0,2.8185e+08,17.905,12592,591.12,0,591.12,0,0.00074807,3.3131e-09,0,0.00039346,0.00013986,2.2706e+08,841.27,0,1.1329e+08,82.473,591.12,1
2044,4.56,12082,1,12082,1,0.00017672,-1.8542e-09,0,0.00066151,-3.2162e-05,182.92,-474.27,0,1.9715e+08,-23.853,12081,13104,1,13104,1,0.0014294,1.093e-09,0,0.0014294,0.00020208,3.1495e+08,263.23,0,4.376e+08,111.59,13103,12082,1,12082,1,0.00017671,-1.193e-09,0,0.00064951,-3.2085e-05,4.9813e+07,-311.49,0,1.9694e+08,-18.098,12081,10985,1,10985,1,-0.0010759,-9.4448e-09,0,3.7532e-05,-0.00026651,-4.376e+08,-2226.5,0,1.1024e+07,-167.15,10984,11571,1,11571,1,-0.0004728,-2.7131e-09,0,0.00032476,-0.00015357,-1.9227e+08,-686.55,0,1.0267e+08,-52.849,11570,12593,1,12593,1,0.00082623,-2.9184e-10,0,0.00097427,8.9147e-05,1.9694e+08,-71.675,0,2.8242e+08,9.1913,12592,591.12,0,591.12,0,0.0007497,2.1182e-09,0,0.00039433,0.00014016,2.2754e+08,535.94,0,1.1352e+08,49.655,591.12,1
2044,4.57,12082,1,12082,1,0.00017714,1.8651e-09,0,0.00066295,-3.2239e-05,-4.1504,468.25,0,1.9757e+08,22.095,12081,13104,1,13104,1,0.0014325,6.6181e-09,0,0.0014325,0.00020252,3.1551e+08,1536.7,0,4.3854e+08,174.29,13103,12082,1,12082,1,0.00017714,1.6301e-09,0,0.00065094,-3.2162e-05,4.9933e+07,429.02,0,1.9738e+08,20.97,12081,10985,1,10985,1,-0.0010783,-9.5877e-10,0,3.7654e-05,-0.0002671,-4.3854e+08,-328.34,0,1.106e+07,-257.58,10984,11571,1,11571,1,-0.00047379,5.9768e-10,0,0.00032547,-0.00015391,-1.9267e+08,153.29,0,1.0289e+08,-0.45395,11570,12593,1,12593,1,0.00082808,2.8815e-09,0,0.0009764,8.9335e-05,1.9738e+08,701.78,0,2.83e+08,49.552,12592,591.12,0,591.12,0,0.00075134,1.6183e-09,0,0.00039519,0.00014047,2.2802e+08,394.13,0,1.1375e+08,54.381,591.12,1
2044,4.58,12082,1,12082,1,0.00017757,-3.1479e-09,0,0.00066441,-3.2317e-05,85.66,-801.33,0,1.9799e+08,-17.724,12081,13104,1,13104,1,0.0014357,6.3477e-10,0,0.0014357,0.00020295,3.1606e+08,217.39,0,4.3948e+08,223.47,13103,12082,1,12082,1,0.00017757,-3.1973e-09,0,0.00065235,-3.224e-05,5.0053e+07,-876.81,0,1.9782e+08,-12.914,12081,10985,1,10985,1,-0.0010806,-7.6124e-09,0,3.7776e-05,-0.00026769,-4.3948e+08,-1788.2,0,1.1097e+07,-170.17,10984,11571,1,11571,1,-0.00047479,-4.5605e-09,0,0.00032618,-0.00015426,-1.9308e+08,-1117.2,0,1.0311e+08,-33.151,11570,12593,1,12593,1,0.00082992,-1.7842e-09,0,0.00097853,8.9522e-05,1.9782e+08,-464.78,0,2.8357e+08,3.1289,12592,591.12,0,591.12,0,0.00075298,1.8359e-09,0,0.00039606,0.00014078,2.2849e+08,445.54,0,1.1398e+08,48.106,591.12,1
2044,4.59,12082,1,12082,1,0.00017801,-3.0696e-09,0,0.00066592,-3.2399e-05,58.045,-782.31,0,1.9842e+08,-48.577,12081,13104,1,13104,1,0.001439,1.7426e-09,0,0.001439,0.00020341,3.1664e+08,596.71,0,4.4047e+08,377.79,13103,12082,1,12082,1,0.00017801,-2.6277e-09,0,0.00065383,-3.2321e-05,5.0178e+07,-729.16,0,1.9827e+08,-42.477,12081,10985,1,10985,1,-0.001083,-1.1396e-08,0,3.7903e-05,-0.0002683,-4.4047e+08,-2802,0,1.1134e+07,-267.04,10984,11571,1,11571,1,-0.00047582,-5.1686e-09,0,0.00032692,-0.00015461,-1.935e+08,-1253.6,0,1.0334e+08,-104.89,11570,12593,1,12593,1,0.00083184,-4.8583e-10,0,0.00098075,8.9716e-05,1.9827e+08,-120.62,0,2.8417e+08,4.0758,12592,591.12,0,591.12,0,0.00075469,3.0379e-09,0,0.00039697,0.0001411,2.2899e+08,763.73,0,1.1423e+08,89.693,591.12,1
2044,4.6,12082,1,12082,1,0.00017847,-7.3037e-10,0,0.00066738,-3.2482e-05,-10.968,-204.17,0,1.9883e+08,-4.3303,12081,13104,1,13104,1,0.0014422,4.1486e-10,0,0.0014422,0.00020383,3.1713e+08,78.294,0,4.4138e+08,61.832,13103,12082,1,12082,1,0.00017847,-6.2683e-10,0,0.00065525,-3.2405e-05,5.0308e+07,-176.49,0,1.9872e+08,-3.0005,12081,10985,1,10985,1,-0.0010852,-2.2872e-09,0,3.8059e-05,-0.00026889,-4.4138e+08,-607.29,0,1.1181e+07,-60.605,10984,11571,1,11571,1,-0.00047678,-1.1353e-09,0,0.00032763,-0.00015496,-1.9389e+08,-321.41,0,1.0356e+08,-15.774,11570,12593,1,12593,1,0.00083373,-3.2535e-10,0,0.00098288,8.9898e-05,1.9872e+08,-79.925,0,2.8471e+08,8.5285,12592,591.12,0,591.12,0,0.00075633,6.0381e-10,0,0.00039785,0.0001414,2.2946e+08,166.56,0,1.1445e+08,18.994,591.12,1
2044,4.61,12082,1,12082,1,0.00017894,-1.5763e-09,0,0.00066889,-3.2568e-05,-152.8,-399.01,0,1.9925e+08,1.3488,12081,13104,1,13104,1,0.0014455,9.9322e-10,0,0.0014455,0.00020428,3.1765e+08,340.1,0,4.4236e+08,131.99,13103,12082,1,12082,1,0.00017894,-1.1449e-09,0,0.00065673,-3.2492e-05,5.0442e+07,-302.8,0,1.9919e+08,6.7853,12081,10985,1,10985,1,-0.0010876,-5.9473e-09,0,3.8216e-05,-0.00026951,-4.4236e+08,-1428.1,0,1.1228e+07,-307.48,10984,11571,1,11571,1,-0.00047779,-2.5142e-09,0,0.00032837,-0.00015533,-1.943e+08,-648.02,0,1.0379e+08,-17.643,11570,12593,1,12593,1,0.00083568,-4.1112e-10,0,0.0009851,9.0087e-05,1.9919e+08,-107.9,0,2.8528e+08,34.87,12592,591.12,0,591.12,0,0.00075803,1.6117e-09,0,0.00039876,0.00014172,2.2994e+08,396.8,0,1.1468e+08,68.657,591.12,1
2044,4.62,12082,1,12082,1,0.00017941,2.8583e-09,0,0.00067038,-3.2654e-05,6.0735,721.65,0,1.9966e+08,-21.652,12081,13104,1,13104,1,0.0014488,8.2138e-09,0,0.0014488,0.00020472,3.1816e+08,1958.9,0,4.433e+08,97.304,13103,12082,1,12082,1,0.00017941,2.3834e-09,0,0.00065818,-3.2577e-05,5.0574e+07,630.47,0,1.9964e+08,-13.279,12081,10985,1,10985,1,-0.00109,-6.4713e-10,0,3.8375e-05,-0.00027012,-4.433e+08,-221.6,0,1.1276e+07,-132.18,10984,11571,1,11571,1,-0.00047876,9.2091e-10,0,0.00032909,-0.00015568,-1.9469e+08,239.79,0,1.0401e+08,-57.624,11570,12593,1,12593,1,0.00083759,4.4707e-09,0,0.00098727,9.0272e-05,1.9964e+08,1158.1,0,2.8584e+08,11.99,12592,591.12,0,591.12,0,0.0007597,2.3029e-09,0,0.00039966,0.00014203,2.3041e+08,560.92,0,1.1491e+08,48.499,591.12,1
2044,4.63,12082,1,12082,1,0.00017989,-1.6771e-09,0,0.00067191,-3.2741e-05,28.865,-417,0,2.0009e+08,-27.276,12081,13104,1,13104,1,0.0014521,5.9332e-09,0,0.0014521,0.00020516,3.1868e+08,1432.7,0,4.4427e+08,157.47,13103,12082,1,12082,1,0.00017989,-1.0042e-09,0,0.00065967,-3.2664e-05,5.0709e+07,-271.72,0,2.0011e+08,-16.997,12081,10985,1,10985,1,-0.0010923,-9.8986e-09,0,3.8535e-05,-0.00027074,-4.4427e+08,-2405.5,0,1.1324e+07,-245.21,10984,11571,1,11571,1,-0.00047977,-4.0041e-09,0,0.00032983,-0.00015605,-1.951e+08,-1012.8,0,1.0424e+08,-75.747,11570,12593,1,12593,1,0.00083956,4.593e-10,0,0.0009895,9.0462e-05,2.0011e+08,125.44,0,2.8641e+08,23.787,12592,591.12,0,591.12,0,0.00076142,3.2291e-09,0,0.00040058,0.00014235,2.309e+08,817.77,0,1.1514e+08,79.467,591.12,1
2044,4.64,12082,1,12082,1,0.00018036,-3.4587e-09,0,0.00067338,-3.2826e-05,-65.554,-877.49,0,2.005e+08,-5.9235,12081,13104,1,13104,1,0.0014554,1.488e-09,0,0.0014554,0.0002056,3.1917e+08,509.51,0,4.4522e+08,394.68,13103,12082,1,12082,1,0.00018036,-3.4545e-09,0,0.0006611,-3.2749e-05,5.084e+07,-907.25,0,2.0057e+08,6.2648,12081,10985,1,10985,1,-0.0010947,-9.9205e-09,0,3.8691e-05,-0.00027135,-4.4522e+08,-2462.4,0,1.137e+07,-345.18,10984,11571,1,11571,1,-0.00048074,-5.9397e-09,0,0.00033055,-0.0001564,-1.955e+08,-1471.4,0,1.0446e+08,-52.594,11570,12593,1,12593,1,0.00084146,-9.7666e-10,0,0.00099165,9.0645e-05,2.0057e+08,-253.93,0,2.8695e+08,53.131,12592,591.12,0,591.12,0,0.00076308,2.8662e-09,0,0.00040146,0.00014266,2.3136e+08,716.87,0,1.1537e+08,96.395,591.12,1
2044,4.65,12082,1,12082,1,0.00018083,-1.2615e-09,0,0.00067488,-3.2912e-05,-76.343,-335.35,0,2.0092e+08,-19.758,12081,13104,1,13104,1,0.0014586,3.2666e-09,0,0.0014586,0.00020604,3.1967e+08,776.43,0,4.4616e+08,154.17,13103,12082,1,12082,1,0.00018083,-5.9696e-10,0,0.00066256,-3.2835e-05,5.0973e+07,-162.96,0,2.0103e+08,-19.612,12081,10985,1,10985,1,-0.001097,-7.5727e-09,0,3.885e-05,-0.00027195,-4.4616e+08,-1866.1,0,1.1418e+07,-140.72,10984,11571,1,11571,1,-0.00048173,-2.7965e-09,0,0.00033128,-0.00015676,-1.959e+08,-730.29,0,1.0469e+08,-59.777,11570,12593,1,12593,1,0.00084339,4.4604e-10,0,0.00099384,9.0832e-05,2.0103e+08,93.522,0,2.8751e+08,17.961,12592,591.12,0,591.12,0,0.00076476,2.3306e-09,0,0.00040237,0.00014298,2.3184e+08,597.92,0,1.156e+08,51.936,591.12,1
2044,4.66,12082,1,12082,1,0.00018131,-4.1859e-09,0,0.00067639,-3.3e-05,-84.007,-1064.5,0,2.0134e+08,-30.792,12081,13104,1,13104,1,0.001462,1.6841e-09,0,0.001462,0.00020649,3.2019e+08,576.66,0,4.4714e+08,231.77,13103,12082,1,12082,1,0.00018131,-4.2253e-09,0,0.00066404,-3.2923e-05,5.1108e+07,-1120.5,0,2.0149e+08,-21.727,12081,10985,1,10985,1,-0.0010994,-1.2189e-08,0,3.9011e-05,-0.00027258,-4.4714e+08,-2995.3,0,1.1466e+07,-355.98,10984,11571,1,11571,1,-0.00048273,-7.2097e-09,0,0.00033202,-0.00015712,-1.9631e+08,-1809.6,0,1.0492e+08,-90.558,11570,12593,1,12593,1,0.00084534,-1.1853e-09,0,0.00099606,9.102e-05,2.0149e+08,-286.63,0,2.8807e+08,42.423,12592,591.12,0,591.12,0,0.00076647,3.4057e-09,0,0.00040328,0.0001433,2.3232e+08,846.67,0,1.1583e+08,96.912,591.12,1
2044,4.67,12082,1,12082,1,0.00018176,-2.732e-09,0,0.00067781,-3.3082e-05,30.92,-717.74,0,2.0173e+08,19.881,12081,13104,1,13104,1,0.0014651,4.4406e-10,0,0.0014651,0.0002069,3.2065e+08,109.03,0,4.4803e+08,148.14,13103,12082,1,12082,1,0.00018176,-2.8498e-09,0,0.00066542,-3.3005e-05,5.1236e+07,-792.53,0,2.0193e+08,12.234,12081,10985,1,10985,1,-0.0011016,-6.1767e-09,0,3.9167e-05,-0.00027316,-4.4803e+08,-1494.5,0,1.1513e+07,-46.839,10984,11571,1,11571,1,-0.00048366,-4.0463e-09,0,0.00033271,-0.00015747,-1.9669e+08,-1091.1,0,1.0513e+08,-2.6225,11570,12593,1,12593,1,0.00084718,-1.3367e-09,0,0.00099814,9.1196e-05,2.0193e+08,-334.84,0,2.886e+08,36.759,12592,591.12,0,591.12,0,0.00076806,1.7566e-09,0,0.00040413,0.00014359,2.3277e+08,448.74,0,1.1604e+08,32.459,591.12,1
2044,4.68,12082,1,12082,1,0.00018224,-2.6096e-09,0,0.00067936,-3.317e-05,-180.68,-669.52,0,2.0216e+08,-35.482,12081,13104,1,13104,1,0.0014685,5.3524e-09,0,0.0014685,0.00020736,3.2119e+08,1263,0,4.4902e+08,206.88,13103,12082,1,12082,1,0.00018224,-2.0593e-09,0,0.00066693,-3.3094e-05,5.1372e+07,-555.06,0,2.0241e+08,-25.395,12081,10985,1,10985,1,-0.001104,-1.191e-08,0,3.9327e-05,-0.00027379,-4.4902e+08,-2908,0,1.1561e+07,-264.14,10984,11571,1,11571,1,-0.00048469,-5.2055e-09,0,0.00033347,-0.00015784,-1.971e+08,-1296.3,0,1.0536e+08,-104.5,11570,12593,1,12593,1,0.00084917,2.2637e-10,0,0.0010004,9.1389e-05,2.0241e+08,57.406,0,2.8918e+08,31.223,12592,591.12,0,591.12,0,0.00076981,3.5637e-09,0,0.00040507,0.00014392,2.3326e+08,897.26,0,1.1628e+08,88.734,591.12,1
2044,4.69,12082,1,12082,1,0.00018271,1.5414e-09,0,0.00068083,-3.3256e-05,-51.918,380.09,0,2.0257e+08,-4.9729,12081,13104,1,13104,1,0.0014717,6.0302e-09,0,0.0014717,0.00020779,3.2167e+08,1454.2,0,4.4995e+08,74.907,13103,12082,1,12082,1,0.00018271,1.1654e-09,0,0.00066837,-3.318e-05,5.1505e+07,282.05,0,2.0286e+08,0.8813,12081,10985,1,10985,1,-0.0011063,-2.6973e-09,0,3.9491e-05,-0.00027439,-4.4995e+08,-672.47,0,1.161e+07,-122.46,10984,11571,1,11571,1,-0.00048565,1.3215e-10,0,0.00033418,-0.00015819,-1.975e+08,36.226,0,1.0558e+08,-31.05,11570,12593,1,12593,1,0.00085108,2.8001e-09,0,0.0010026,9.1572e-05,2.0286e+08,711.14,0,2.8972e+08,25.812,12592,591.12,0,591.12,0,0.00077147,1.8943e-09,0,0.00040595,0.00014423,2.3373e+08,476.56,0,1.165e+08,41.526,591.12,1
2044,4.7,12082,1,12082,1,0.00018318,9.3232e-10,0,0.00068231,-3.3341e-05,5.6064,237.36,0,2.0298e+08,6.3078,12081,13104,1,13104,1,0.001475,3.0106e-09,0,0.001475,0.00020822,3.2216e+08,727.99,0,4.5089e+08,81.041,13103,12082,1,12082,1,0.00018318,8.0198e-10,0,0.00066981,-3.3265e-05,5.1637e+07,212,0,2.0331e+08,5.4149,12081,10985,1,10985,1,-0.0011086,-5.3767e-10,0,3.965e-05,-0.00027499,-4.5089e+08,-184.11,0,1.1657e+07,-71.795,10984,11571,1,11571,1,-0.00048662,2.7865e-10,0,0.0003349,-0.00015855,-1.9789e+08,74.66,0,1.0581e+08,-13.315,11570,12593,1,12593,1,0.00085299,1.5363e-09,0,0.0010047,9.1755e-05,2.0331e+08,390.76,0,2.9027e+08,25.38,12592,591.12,0,591.12,0,0.00077312,8.5925e-10,0,0.00040684,0.00014454,2.3419e+08,214.8,0,1.1673e+08,29.842,591.12,1
2044,4.71,12082,1,12082,1,0.00018366,1.127e-09,0,0.00068383,-3.3429e-05,-19.927,293.12,0,2.0341e+08,-52.345,12081,13104,1,13104,1,0.0014783,8.7795e-09,0,0.0014783,0.00020867,3.2267e+08,2117,0,4.5186e+08,146.52,13103,12082,1,12082,1,0.00018366,6.2767e-10,0,0.00067129,-3.3353e-05,5.1772e+07,155.97,0,2.0378e+08,-34.048,12081,10985,1,10985,1,-0.001111,-8.2273e-09,0,3.9813e-05,-0.00027561,-4.5186e+08,-2024.9,0,1.1706e+07,-255.26,10984,11571,1,11571,1,-0.00048763,-9.7268e-10,0,0.00033565,-0.00015891,-1.983e+08,-258.65,0,1.0603e+08,-113.94,11570,12593,1,12593,1,0.00085495,3.6834e-09,0,0.0010069,9.1944e-05,2.0378e+08,969.19,0,2.9083e+08,2.2624,12592,591.12,0,591.12,0,0.00077484,3.6958e-09,0,0.00040776,0.00014486,2.3468e+08,936.73,0,1.1696e+08,78.617,591.12,1
2044,4.72,12082,1,12082,1,0.00018414,7.3921e-10,0,0.00068533,-3.3516e-05,45.007,191.42,0,2.0382e+08,-20.13,12081,13104,1,13104,1,0.0014816,7.3406e-09,0,0.0014816,0.0002091,3.2316e+08,1779.7,0,4.528e+08,126.65,13103,12082,1,12082,1,0.00018414,3.0458e-10,0,0.00067275,-3.344e-05,5.1907e+07,83.475,0,2.0424e+08,-8.6601,12081,10985,1,10985,1,-0.0011133,-6.4617e-09,0,3.9977e-05,-0.00027622,-4.528e+08,-1581.2,0,1.1755e+07,-239.62,10984,11571,1,11571,1,-0.00048861,-4.5977e-10,0,0.00033637,-0.00015927,-1.987e+08,-118,0,1.0626e+08,-54.647,11570,12593,1,12593,1,0.00085689,2.2018e-09,0,0.0010091,9.2129e-05,2.0424e+08,577.24,0,2.9138e+08,30.265,12592,591.12,0,591.12,0,0.00077652,2.4541e-09,0,0.00040866,0.00014517,2.3515e+08,635.46,0,1.1719e+08,71.169,591.12,1
2044,4.73,12082,1,12082,1,0.00018462,-3.706e-09,0,0.00068683,-3.3603e-05,-104.56,-933.21,0,2.0424e+08,-57.31,12081,13104,1,13104,1,0.0014849,8.4778e-09,0,0.0014849,0.00020955,3.2367e+08,2056.5,0,4.5377e+08,601.69,13103,12082,1,12082,1,0.00018461,-2.3616e-09,0,0.00067421,-3.3526e-05,5.204e+07,-574.72,0,2.047e+08,-51.865,12081,10985,1,10985,1,-0.0011157,-1.9085e-08,0,4.0138e-05,-0.00027684,-4.5377e+08,-4685,0,1.1803e+07,-364.5,10984,11571,1,11571,1,-0.00048959,-7.5689e-09,0,0.0003371,-0.00015963,-1.991e+08,-1924.5,0,1.0648e+08,-177.01,11570,12593,1,12593,1,0.00085882,4.7719e-10,0,0.0010113,9.2315e-05,2.047e+08,132.77,0,2.9194e+08,43.856,12592,591.12,0,591.12,0,0.00077821,5.8053e-09,0,0.00040957,0.00014549,2.3563e+08,1473,0,1.1742e+08,150.03,591.12,1
2044,4.74,12082,1,12082,1,0.00018508,2.4257e-10,0,0.00068826,-3.3687e-05,22.656,45.782,0,2.0463e+08,0.98431,12081,13104,1,13104,1,0.001488,2.4843e-09,0,0.001488,0.00020996,3.2413e+08,610.55,0,4.5467e+08,67.7,13103,12082,1,12082,1,0.00018507,2.849e-10,0,0.00067561,-3.3611e-05,5.2171e+07,74.806,0,2.0515e+08,2.8957,12081,10985,1,10985,1,-0.0011179,-2.6709e-09,0,4.0299e-05,-0.00027742,-4.5467e+08,-715.23,0,1.1852e+07,-90.414,10984,11571,1,11571,1,-0.00049054,-3.912e-10,0,0.00033781,-0.00015998,-1.9948e+08,-113.78,0,1.067e+08,-18.248,11570,12593,1,12593,1,0.00086069,1.0236e-09,0,0.0010134,9.2493e-05,2.0515e+08,221.03,0,2.9247e+08,22.636,12592,591.12,0,591.12,0,0.00077982,1.1062e-09,0,0.00041043,0.00014579,2.3608e+08,293.41,0,1.1763e+08,32.437,591.12,1
2044,4.75,12082,1,12082,1,0.00018559,-1.3027e-09,0,0.00068979,-3.378e-05,-60.056,-333.2,0,2.0505e+08,9.441,12081,13104,1,13104,1,0.0014914,1.5737e-09,0,0.0014914,0.00021041,3.2459e+08,382.93,0,4.5563e+08,107.64,13103,12082,1,12082,1,0.00018559,-1.2232e-09,0,0.00067709,-3.3705e-05,5.2315e+07,-325.92,0,2.0562e+08,19.574,12081,10985,1,10985,1,-0.0011203,-5.6025e-09,0,4.0493e-05,-0.00027805,-4.5563e+08,-1418.8,0,1.191e+07,-215.52,10984,11571,1,11571,1,-0.00049151,-2.2451e-09,0,0.00033855,-0.00016035,-1.9988e+08,-549.89,0,1.0693e+08,-9.6384,11570,12593,1,12593,1,0.00086268,-1.5365e-10,0,0.0010156,9.2676e-05,2.0562e+08,-35.739,0,2.93e+08,38.432,12592,591.12,0,591.12,0,0.00078154,1.3934e-09,0,0.00041136,0.00014611,2.3655e+08,360.26,0,1.1786e+08,48.756,591.12,1
2044,4.76,12082,1,12082,1,0.00018612,-5.9351e-10,0,0.00069133,-3.3877e-05,142.86,-159.39,0,2.0546e+08,-14.418,12081,13104,1,13104,1,0.0014948,6.8392e-09,0,0.0014948,0.00021085,3.2504e+08,1640.5,0,4.5658e+08,184.94,13103,12082,1,12082,1,0.00018611,-4.1259e-12,0,0.00067859,-3.3801e-05,5.2464e+07,-0.97801,0,2.0611e+08,-14.247,12081,10985,1,10985,1,-0.0011226,-9.7177e-09,0,4.0702e-05,-0.00027868,-4.5658e+08,-2451.4,0,1.1972e+07,-197.52,10984,11571,1,11571,1,-0.00049247,-2.3834e-09,0,0.00033929,-0.00016072,-2.0027e+08,-624,0,1.0715e+08,-68.84,11570,12593,1,12593,1,0.0008647,1.1509e-09,0,0.0010179,9.2858e-05,2.0611e+08,308.62,0,2.9353e+08,35.892,12592,591.12,0,591.12,0,0.00078326,3.1394e-09,0,0.00041229,0.00014643,2.3701e+08,807.24,0,1.1808e+08,66.041,591.12,1
2044,4.77,12082,1,12082,1,0.00018664,-3.1237e-09,0,0.00069284,-3.3972e-05,47.356,-804.21,0,2.0586e+08,-6.1133,12081,13104,1,13104,1,0.0014982,4.5193e-09,0,0.0014982,0.00021128,3.2547e+08,1107.9,0,4.5752e+08,282.06,13103,12082,1,12082,1,0.00018663,-2.2226e-09,0,0.00068004,-3.3897e-05,5.261e+07,-588.21,0,2.0658e+08,5.6536,12081,10985,1,10985,1,-0.0011249,-1.6417e-08,0,4.0907e-05,-0.00027931,-4.5752e+08,-4216.2,0,1.2034e+07,-462.72,10984,11571,1,11571,1,-0.00049341,-5.5912e-09,0,0.00034002,-0.00016109,-2.0065e+08,-1414.2,0,1.0738e+08,-79.066,11570,12593,1,12593,1,0.00086668,1.9239e-10,0,0.0010201,9.3035e-05,2.0658e+08,46.4,0,2.9404e+08,68.874,12592,591.12,0,591.12,0,0.00078495,4.1946e-09,0,0.0004132,0.00014675,2.3747e+08,1086.8,0,1.1829e+08,110.7,591.12,1
2044,4.78,12082,1,12082,1,0.00018716,2.7761e-10,0,0.00069435,-3.4067e-05,-19.733,47.076,0,2.0626e+08,7.9629,12081,13104,1,13104,1,0.0015015,6.3476e-09,0,0.0015015,0.00021171,3.259e+08,1532.5,0,4.5846e+08,174.33,13103,12082,1,12082,1,0.00018715,5.4682e-10,0,0.00068152,-3.3992e-05,5.2758e+07,128.61,0,2.0705e+08,14.594,12081,10985,1,10985,1,-0.0011272,-9.8235e-09,0,4.1114e-05,-0.00027993,-4.5846e+08,-2528.5,0,1.2096e+07,-233.55,10984,11571,1,11571,1,-0.00049436,-1.2851e-09,0,0.00034076,-0.00016146,-2.0104e+08,-355.74,0,1.076e+08,-39.384,11570,12593,1,12593,1,0.00086867,2.6033e-09,0,0.0010223,9.3214e-05,2.0705e+08,662.95,0,2.9457e+08,62.204,12592,591.12,0,591.12,0,0.00078664,3.3625e-09,0,0.00041412,0.00014706,2.3793e+08,880.84,0,1.1851e+08,75.385,591.12,1
2044,4.79,12082,1,12082,1,0.00018769,-4.8752e-09,0,0.0006959,-3.4164e-05,-31.046,-1252.4,0,2.0668e+08,6.7963,12081,13104,1,13104,1,0.001505,6.9152e-09,0,0.001505,0.00021217,3.2635e+08,1670.2,0,4.5943e+08,399.88,13103,12082,1,12082,1,0.00018768,-3.3752e-09,0,0.00068302,-3.4089e-05,5.2907e+07,-884.26,0,2.0754e+08,11.366,12081,10985,1,10985,1,-0.0011296,-2.2922e-08,0,4.1322e-05,-0.00028057,-4.5943e+08,-5811.1,0,1.2159e+07,-337.62,10984,11571,1,11571,1,-0.00049533,-8.9923e-09,0,0.00034151,-0.00016184,-2.0143e+08,-2313.3,0,1.0783e+08,-95.538,11570,12593,1,12593,1,0.0008707,2.3452e-11,0,0.0010245,9.3397e-05,2.0754e+08,5.7582,0,2.951e+08,98.578,12592,591.12,0,591.12,0,0.00078838,6.2991e-09,0,0.00041506,0.00014739,2.384e+08,1619.6,0,1.1873e+08,146.77,591.12,1
2044,4.8,12082,1,12082,1,0.00018821,1.2567e-09,0,0.00069739,-3.4259e-05,-72.445,291.74,0,2.0707e+08,15.709,12081,13104,1,13104,1,0.0015083,8.7372e-09,0,0.0015083,0.00021259,3.2676e+08,2112.8,0,4.6034e+08,209.14,13103,12082,1,12082,1,0.00018821,1.2337e-09,0,0.00068447,-3.4185e-05,5.3054e+07,259.8,0,2.0801e+08,21.527,12081,10985,1,10985,1,-0.0011319,-9.4113e-09,0,4.1532e-05,-0.00028118,-4.6034e+08,-2478,0,1.2222e+07,-199.43,10984,11571,1,11571,1,-0.00049626,-6.8877e-10,0,0.00034223,-0.00016221,-2.0181e+08,-210.95,0,1.0805e+08,-48.139,11570,12593,1,12593,1,0.00087267,3.8635e-09,0,0.0010267,9.3573e-05,2.0801e+08,998.83,0,2.956e+08,76.399,12592,591.12,0,591.12,0,0.00079005,3.8245e-09,0,0.00041596,0.0001477,2.3884e+08,1000.9,0,1.1894e+08,79.515,591.12,1
2044,4.81,12082,1,12082,1,0.00018873,1.005e-09,0,0.0006989,-3.4354e-05,-163.38,256.52,0,2.0747e+08,3.1739,12081,13104,1,13104,1,0.0015116,1.2024e-08,0,0.0015116,0.00021302,3.2719e+08,2905,0,4.6129e+08,327.29,13103,12082,1,12082,1,0.00018873,8.1346e-10,0,0.00068593,-3.428e-05,5.3201e+07,198.86,0,2.0848e+08,11.173,12081,10985,1,10985,1,-0.0011342,-1.2094e-08,0,4.1739e-05,-0.0002818,-4.6129e+08,-3153.1,0,1.2284e+07,-293.27,10984,11571,1,11571,1,-0.00049721,-1.717e-09,0,0.00034297,-0.00016258,-2.0219e+08,-428.2,0,1.0827e+08,-84.478,11570,12593,1,12593,1,0.00087466,4.0924e-09,0,0.0010289,9.3751e-05,2.0848e+08,1065.3,0,2.9612e+08,80.891,12592,591.12,0,591.12,0,0.00079174,5.0799e-09,0,0.00041688,0.00014802,2.393e+08,1320.4,0,1.1915e+08,114.13,591.12,1
2044,4.82,12082,1,12082,1,0.00018926,-1.4221e-09,0,0.00070043,-3.4451e-05,-11.31,-362.21,0,2.0788e+08,5.0264,12081,13104,1,13104,1,0.001515,8.6739e-09,0,0.001515,0.00021346,3.2762e+08,2122.5,0,4.6223e+08,283.52,13103,12082,1,12082,1,0.00018925,6.7816e-11,0,0.00068741,-3.4377e-05,5.335e+07,14.881,0,2.0896e+08,-1.1576,12081,10985,1,10985,1,-0.0011365,-1.8442e-08,0,4.1951e-05,-0.00028243,-4.6223e+08,-4640.9,0,1.2347e+07,-411.52,10984,11571,1,11571,1,-0.00049816,-3.65e-09,0,0.00034371,-0.00016295,-2.0258e+08,-931,0,1.085e+08,-75.848,11570,12593,1,12593,1,0.00087667,1.4835e-09,0,0.0010311,9.3931e-05,2.0896e+08,425.45,0,2.9664e+08,88.595,12592,591.12,0,591.12,0,0.00079346,5.1918e-09,0,0.00041781,0.00014834,2.3976e+08,1361.9,0,1.1937e+08,121.49,591.12,1
2044,4.83,12082,1,12082,1,0.00018978,-3.6222e-10,0,0.00070193,-3.4546e-05,10.812,-101.9,0,2.0828e+08,14.809,12081,13104,1,13104,1,0.0015183,6.3458e-09,0,0.0015183,0.00021389,3.2803e+08,1552.7,0,4.6316e+08,258.18,13103,12082,1,12082,1,0.00018978,2.6247e-10,0,0.00068887,-3.4473e-05,5.3498e+07,63.775,0,2.0943e+08,9.2082,12081,10985,1,10985,1,-0.0011388,-1.0858e-08,0,4.2161e-05,-0.00028305,-4.6316e+08,-2839.2,0,1.241e+07,-261.61,10984,11571,1,11571,1,-0.00049909,-1.7038e-09,0,0.00034444,-0.00016332,-2.0296e+08,-445.39,0,1.0872e+08,-39.644,11570,12593,1,12593,1,0.00087865,1.2447e-09,0,0.0010333,9.4107e-05,2.0943e+08,340.18,0,2.9715e+08,64.539,12592,591.12,0,591.12,0,0.00079514,3.1419e-09,0,0.00041872,0.00014865,2.4021e+08,835.82,0,1.1958e+08,85.407,591.12,1
2044,4.84,12082,1,12082,1,0.00019029,3.4708e-09,0,0.00070341,-3.464e-05,-73.51,882.5,0,2.0867e+08,0.72783,12081,13104,1,13104,1,0.0015216,8.0132e-09,0,0.0015216,0.00021431,3.2845e+08,1945.2,0,4.6408e+08,103.68,13103,12082,1,12082,1,0.00019029,3.5187e-09,0,0.00069031,-3.4567e-05,5.3643e+07,967.54,0,2.099e+08,10.16,12081,10985,1,10985,1,-0.001141,-7.0868e-10,0,4.2369e-05,-0.00028366,-4.6408e+08,-242.11,0,1.2473e+07,-244.75,10984,11571,1,11571,1,-0.00050001,1.9794e-09,0,0.00034515,-0.00016368,-2.0334e+08,512.3,0,1.0894e+08,-26.678,11570,12593,1,12593,1,0.0008806,4.9486e-09,0,0.0010355,9.4281e-05,2.099e+08,1163.2,0,2.9765e+08,40.495,12592,591.12,0,591.12,0,0.00079679,2.011e-09,0,0.00041962,0.00014896,2.4066e+08,495.51,0,1.1979e+08,55.394,591.12,1
2044,4.85,12082,1,12082,1,0.00019083,2.8213e-10,0,0.00070495,-3.4737e-05,-19.283,86.973,0,2.0908e+08,-11.718,12081,13104,1,13104,1,0.001525,5.6802e-09,0,0.001525,0.00021475,3.2888e+08,1382.2,0,4.6503e+08,147.34,13103,12082,1,12082,1,0.00019082,2.9798e-10,0,0.00069181,-3.4664e-05,5.3793e+07,83.522,0,2.1038e+08,-4.0406,12081,10985,1,10985,1,-0.0011434,-8.68e-09,0,4.2579e-05,-0.00028429,-4.6503e+08,-2069.1,0,1.2536e+07,-220.45,10984,11571,1,11571,1,-0.00050098,-1.0785e-09,0,0.0003459,-0.00016406,-2.0373e+08,-266.42,0,1.0916e+08,-44.048,11570,12593,1,12593,1,0.00088263,2.3419e-09,0,0.0010377,9.4463e-05,2.1038e+08,618.58,0,2.9818e+08,28.254,12592,591.12,0,591.12,0,0.00079852,2.9501e-09,0,0.00042055,0.00014928,2.4112e+08,759.84,0,1.2001e+08,59.64,591.12,1
2044,4.86,12082,1,12082,1,0.00019135,7.9654e-10,0,0.00070647,-3.4834e-05,-30.651,208.26,0,2.0948e+08,-0.22316,12081,13104,1,13104,1,0.0015284,5.7125e-09,0,0.0015284,0.00021518,3.293e+08,1384.5,0,4.6597e+08,116.12,13103,12082,1,12082,1,0.00019135,3.9081e-10,0,0.00069327,-3.4761e-05,5.3943e+07,99.929,0,2.1086e+08,-2.7342,12081,10985,1,10985,1,-0.0011457,-4.7835e-09,0,4.2794e-05,-0.00028492,-4.6597e+08,-1221.1,0,1.26e+07,-84.662,10984,11571,1,11571,1,-0.00050192,-4.0047e-10,0,0.00034664,-0.00016443,-2.0411e+08,-99.158,0,1.0939e+08,-34.504,11570,12593,1,12593,1,0.00088463,2.229e-09,0,0.0010399,9.4641e-05,2.1086e+08,597.34,0,2.9869e+08,28.906,12592,591.12,0,591.12,0,0.00080021,2.1541e-09,0,0.00042147,0.0001496,2.4158e+08,566.83,0,1.2023e+08,41.906,591.12,1
2044,4.87,12082,1,12082,1,0.00019188,1.0469e-09,0,0.00070796,-3.4929e-05,-18.617,273.73,0,2.0988e+08,3.956,12081,13104,1,13104,1,0.0015317,4.6048e-09,0,0.0015317,0.00021561,3.2971e+08,1130.4,0,4.6689e+08,98.805,13103,12082,1,12082,1,0.00019188,6.6242e-10,0,0.00069472,-3.4857e-05,5.409e+07,162.53,0,2.1133e+08,4.0481,12081,10985,1,10985,1,-0.001148,-2.3977e-09,0,4.3006e-05,-0.00028553,-4.6689e+08,-633.63,0,1.2664e+07,-80.223,10984,11571,1,11571,1,-0.00050285,1.3856e-10,0,0.00034736,-0.0001648,-2.0449e+08,31.222,0,1.0961e+08,-20.708,11570,12593,1,12593,1,0.0008866,2.0396e-09,0,0.0010421,9.4816e-05,2.1133e+08,545.11,0,2.9919e+08,26.116,12592,591.12,0,591.12,0,0.00080189,1.5147e-09,0,0.00042238,0.00014991,2.4202e+08,401.91,0,1.2044e+08,33.635,591.12,1
2044,4.88,12082,1,12082,1,0.00019239,-3.7062e-10,0,0.00070944,-3.5024e-05,-30.122,-88.043,0,2.1027e+08,11.766,12081,13104,1,13104,1,0.001535,1.9211e-09,0,0.001535,0.00021603,3.3011e+08,438.7,0,4.6781e+08,60.858,13103,12082,1,12082,1,0.00019239,-8.1934e-11,0,0.00069616,-3.4952e-05,5.4236e+07,-21.728,0,2.1179e+08,10.851,12081,10985,1,10985,1,-0.0011502,-2.6807e-09,0,4.3217e-05,-0.00028614,-4.6781e+08,-613.94,0,1.2727e+07,-83.506,10984,11571,1,11571,1,-0.00050377,-1.1715e-09,0,0.00034808,-0.00016516,-2.0486e+08,-313.61,0,1.0982e+08,-4.6039,11570,12593,1,12593,1,0.00088856,3.9611e-10,0,0.0010442,9.4989e-05,2.1179e+08,113.94,0,2.9969e+08,26.666,12592,591.12,0,591.12,0,0.00080354,1.1067e-09,0,0.00042328,0.00015022,2.4247e+08,266.3,0,1.2065e+08,23.579,591.12,1
2044,4.89,12082,1,12082,1,0.00019294,-6.7633e-10,0,0.00071102,-3.5124e-05,23.545,-174.21,0,2.1069e+08,-24.604,12081,13104,1,13104,1,0.0015385,8.239e-09,0,0.0015385,0.00021649,3.3057e+08,1954.1,0,4.688e+08,210.86,13103,12082,1,12082,1,0.00019294,-5.3792e-11,0,0.00069769,-3.5052e-05,5.439e+07,-12.43,0,2.1229e+08,-18.669,12081,10985,1,10985,1,-0.0011526,-1.1767e-08,0,4.3433e-05,-0.0002868,-4.688e+08,-2862.2,0,1.2792e+07,-277.49,10984,11571,1,11571,1,-0.00050475,-2.5676e-09,0,0.00034885,-0.00016555,-2.0526e+08,-662.74,0,1.1006e+08,-86.027,11570,12593,1,12593,1,0.00089063,1.2553e-09,0,0.0010465,9.5175e-05,2.1229e+08,350.54,0,3.0023e+08,30.328,12592,591.12,0,591.12,0,0.00080532,3.6803e-09,0,0.00042424,0.00015055,2.4295e+08,932.39,0,1.2087e+08,82.912,591.12,1
2044,4.9,12082,1,12082,1,0.00019347,-1.7961e-09,0,0.00071253,-3.5221e-05,-26.769,-468.13,0,2.1109e+08,17.768,12081,13104,1,13104,1,0.0015419,4.2732e-09,0,0.0015419,0.00021692,3.3096e+08,1043.2,0,4.6973e+08,207.1,13103,12082,1,12082,1,0.00019347,-1.4334e-09,0,0.00069915,-3.5149e-05,5.454e+07,-355.95,0,2.1276e+08,24.93,12081,10985,1,10985,1,-0.0011549,-7.7508e-09,0,4.3651e-05,-0.00028742,-4.6973e+08,-2051,0,1.2857e+07,-168.25,10984,11571,1,11571,1,-0.00050568,-3.6987e-09,0,0.00034958,-0.00016592,-2.0564e+08,-970.77,0,1.1028e+08,-35.741,11570,12593,1,12593,1,0.00089262,1.1411e-10,0,0.0010487,9.535e-05,2.1276e+08,26.744,0,3.0073e+08,70.441,12592,591.12,0,591.12,0,0.000807,2.5066e-09,0,0.00042515,0.00015086,2.4339e+08,659.74,0,1.2108e+08,73.234,591.12,1
2044,4.91,12082,1,12082,1,0.00019403,-2.0255e-09,0,0.00071405,-3.5323e-05,-233.28,-531.44,0,2.1148e+08,12.966,12081,13104,1,13104,1,0.0015453,2.6615e-09,0,0.0015453,0.00021735,3.3134e+08,656.81,0,4.7065e+08,228.99,13103,12082,1,12082,1,0.00019403,-1.2395e-09,0,0.00070062,-3.5251e-05,5.4697e+07,-326.59,0,2.1324e+08,16.271,12081,10985,1,10985,1,-0.0011572,-1.0774e-08,0,4.3891e-05,-0.00028805,-4.7065e+08,-2646.9,0,1.2929e+07,-209.06,10984,11571,1,11571,1,-0.0005066,-3.5463e-09,0,0.00035031,-0.00016629,-2.0601e+08,-936.26,0,1.105e+08,-21.969,11570,12593,1,12593,1,0.00089465,-2.2855e-12,0,0.0010509,9.5523e-05,2.1324e+08,-0.60092,0,3.0122e+08,67.199,12592,591.12,0,591.12,0,0.0008087,2.699e-09,0,0.00042608,0.00015118,2.4384e+08,704.93,0,1.2129e+08,69.355,591.12,1
2044,4.92,12082,1,12082,1,0.00019462,-1.4785e-09,0,0.0007156,-3.543e-05,-195.76,-395.27,0,2.1187e+08,3.9428,12081,13104,1,13104,1,0.0015487,6.8002e-09,0,0.0015487,0.00021778,3.3171e+08,1639,0,4.7159e+08,345.67,13103,12082,1,12082,1,0.00019461,-3.5459e-10,0,0.00070212,-3.5359e-05,5.4862e+07,-87.22,0,2.1372e+08,5.3061,12081,10985,1,10985,1,-0.0011595,-1.4557e-08,0,4.4155e-05,-0.0002887,-4.7159e+08,-3579.6,0,1.3009e+07,-296.25,10984,11571,1,11571,1,-0.00050751,-3.981e-09,0,0.00035106,-0.00016668,-2.0638e+08,-1049.7,0,1.1072e+08,-68.172,11570,12593,1,12593,1,0.00089673,1.2367e-09,0,0.0010532,9.5695e-05,2.1372e+08,311.47,0,3.0171e+08,78.961,12592,591.12,0,591.12,0,0.00081043,4.292e-09,0,0.00042703,0.0001515,2.4428e+08,1111.5,0,1.215e+08,104.76,591.12,1
2044,4.93,12082,1,12082,1,0.00019521,-1.3038e-09,0,0.00071715,-3.5538e-05,16.372,-349.35,0,2.1226e+08,22.077,12081,13104,1,13104,1,0.0015522,3.74e-09,0,0.0015522,0.00021821,3.3206e+08,933.36,0,4.7252e+08,264.57,13103,12082,1,12082,1,0.0001952,-2.3815e-10,0,0.00070361,-3.5467e-05,5.5029e+07,-56.012,0,2.142e+08,23.795,12081,10985,1,10985,1,-0.0011618,-1.0711e-08,0,4.4426e-05,-0.00028934,-4.7252e+08,-2652,0,1.309e+07,-250.8,10984,11571,1,11571,1,-0.00050841,-2.8289e-09,0,0.00035181,-0.00016707,-2.0675e+08,-752.94,0,1.1095e+08,-22.043,11570,12593,1,12593,1,0.00089882,5.7091e-10,0,0.0010554,9.5866e-05,2.142e+08,141.03,0,3.0219e+08,80.453,12592,591.12,0,591.12,0,0.00081215,2.871e-09,0,0.00042798,0.00015182,2.4472e+08,766.45,0,1.217e+08,82.279,591.12,1
2044,4.94,12082,1,12082,1,0.0001958,-3.0524e-09,0,0.00071871,-3.5647e-05,-13.848,-791.61,0,2.1265e+08,-2.9634,12081,13104,1,13104,1,0.0015557,5.6119e-09,0,0.0015557,0.00021865,3.3243e+08,1361.7,0,4.7346e+08,340.04,13103,12082,1,12082,1,0.0001958,-1.8362e-09,0,0.00070512,-3.5576e-05,5.5197e+07,-488.91,0,2.1468e+08,5.3006,12081,10985,1,10985,1,-0.0011641,-1.6696e-08,0,4.4697e-05,-0.00028999,-4.7346e+08,-4104.9,0,1.3171e+07,-313.1,10984,11571,1,11571,1,-0.00050932,-5.782e-09,0,0.00035256,-0.00016746,-2.0712e+08,-1518.6,0,1.1117e+08,-84.028,11570,12593,1,12593,1,0.00090092,2.2639e-10,0,0.0010577,9.6037e-05,2.1468e+08,64.157,0,3.0267e+08,83.494,12592,591.12,0,591.12,0,0.00081389,4.4917e-09,0,0.00042893,0.00015215,2.4516e+08,1161.9,0,1.219e+08,117.35,591.12,1
2044,4.95,12082,1,12082,1,0.00019639,-2.7651e-09,0,0.00072025,-3.5755e-05,-27.111,-734.49,0,2.1304e+08,18.545,12081,13104,1,13104,1,0.0015592,3.6838e-09,0,0.0015592,0.00021907,3.3277e+08,907.18,0,4.7439e+08,312.23,13103,12082,1,12082,1,0.00019639,-1.619e-09,0,0.0007066,-3.5685e-05,5.5363e+07,-431.25,0,2.1516e+08,15.095,12081,10985,1,10985,1,-0.0011664,-1.4021e-08,0,4.4969e-05,-0.00029063,-4.7439e+08,-3477.7,0,1.3253e+07,-239.41,10984,11571,1,11571,1,-0.00051022,-5.0604e-09,0,0.00035331,-0.00016784,-2.0748e+08,-1362.2,0,1.1139e+08,-50.25,11570,12593,1,12593,1,0.00090299,2.5441e-11,0,0.0010599,9.6207e-05,2.1516e+08,5.9843,0,3.0314e+08,89.492,12592,591.12,0,591.12,0,0.00081561,3.7339e-09,0,0.00042987,0.00015247,2.456e+08,986.26,0,1.2211e+08,91.55,591.12,1
2044,4.96,12082,1,12082,1,0.00019698,-6.5601e-10,0,0.00072178,-3.5862e-05,-68.387,-192.91,0,2.1342e+08,11.983,12081,13104,1,13104,1,0.0015626,4.6852e-09,0,0.0015626,0.0002195,3.3311e+08,1149.1,0,4.7531e+08,173.12,13103,12082,1,12082,1,0.00019698,-4.5682e-11,0,0.00070809,-3.5793e-05,5.553e+07,-9.3904,0,2.1564e+08,16.85,12081,10985,1,10985,1,-0.0011686,-8.6297e-09,0,4.5242e-05,-0.00029127,-4.7531e+08,-2146.2,0,1.3335e+07,-201.88,10984,11571,1,11571,1,-0.00051111,-1.8896e-09,0,0.00035405,-0.00016823,-2.0785e+08,-521.01,0,1.1161e+08,-25.317,11570,12593,1,12593,1,0.00090507,7.8464e-10,0,0.0010621,9.6375e-05,2.1564e+08,183.22,0,3.0362e+08,64.86,12592,591.12,0,591.12,0,0.00081732,2.2997e-09,0,0.00043081,0.00015279,2.4603e+08,614.89,0,1.2231e+08,68.091,591.12,1
2044,4.97,12082,1,12082,1,0.00019756,-1.5427e-09,0,0.0007233,-3.5969e-05,-28.739,-411.43,0,2.138e+08,11.471,12081,13104,1,13104,1,0.001566,7.5869e-10,0,0.001566,0.00021992,3.3345e+08,147.73,0,4.7622e+08,154.92,13103,12082,1,12082,1,0.00019756,-1.292e-09,0,0.00070955,-3.5901e-05,5.5695e+07,-330.06,0,2.1611e+08,15.405,12081,10985,1,10985,1,-0.0011709,-5.5867e-09,0,4.5513e-05,-0.0002919,-4.7622e+08,-1402.7,0,1.3416e+07,-122.84,10984,11571,1,11571,1,-0.00051199,-2.5126e-09,0,0.00035478,-0.00016861,-2.0821e+08,-697.22,0,1.1183e+08,-12.874,11570,12593,1,12593,1,0.00090712,-3.8024e-10,0,0.0010643,9.6541e-05,2.1611e+08,-91.211,0,3.0408e+08,45.022,12592,591.12,0,591.12,0,0.000819,1.386e-09,0,0.00043174,0.0001531,2.4646e+08,374.08,0,1.225e+08,44.3,591.12,1
2044,4.98,12082,1,12082,1,0.00019816,9.3163e-10,0,0.00072487,-3.6078e-05,-35.46,220.42,0,2.142e+08,-8.0392,12081,13104,1,13104,1,0.0015695,6.5402e-09,0,0.0015695,0.00022035,3.3381e+08,1559.1,0,4.7716e+08,137.14,13103,12082,1,12082,1,0.00019816,6.9819e-10,0,0.00071107,-3.6011e-05,5.5864e+07,168.24,0,2.166e+08,-7.2906,12081,10985,1,10985,1,-0.0011732,-7.4757e-09,0,4.5787e-05,-0.00029255,-4.7716e+08,-1851.8,0,1.3498e+07,-173.5,10984,11571,1,11571,1,-0.00051291,-5.6785e-10,0,0.00035554,-0.000169,-2.0858e+08,-170.87,0,1.1206e+08,-40.551,11570,12593,1,12593,1,0.00090923,3.0014e-09,0,0.0010666,9.6715e-05,2.166e+08,771.07,0,3.0457e+08,31.548,12592,591.12,0,591.12,0,0.00082076,2.9063e-09,0,0.0004327,0.00015343,2.469e+08,744.91,0,1.2271e+08,57.208,591.12,1
2044,4.99,12082,1,12082,1,0.00019875,3.312e-09,0,0.00072639,-3.6186e-05,101.74,842.25,0,2.1458e+08,10.754,12081,13104,1,13104,1,0.001573,9.2482e-09,0,0.001573,0.00022078,3.3414e+08,2253.5,0,4.7808e+08,182.33,13103,12082,1,12082,1,0.00019875,3.0753e-09,0,0.00071254,-3.6119e-05,5.603e+07,777.81,0,2.1708e+08,11.026,12081,10985,1,10985,1,-0.0011755,-1.1744e-09,0,4.6063e-05,-0.00029319,-4.7808e+08,-402.12,0,1.3581e+07,-211.54,10984,11571,1,11571,1,-0.00051379,1.326e-09,0,0.00035627,-0.00016939,-2.0894e+08,347.11,0,1.1228e+08,-25.319,11570,12593,1,12593,1,0.00091129,5.2133e-09,0,0.0010688,9.688e-05,2.1708e+08,1336.4,0,3.0503e+08,48.46,12592,591.12,0,591.12,0,0.00082245,2.5896e-09,0,0.00043363,0.00015375,2.4733e+08,650.56,0,1.2291e+08,57.943,591.12,1
2044,5,12082,1,12082,1,0.00019935,-1.2893e-09,0,0.00072795,-3.6296e-05,2.3346,-301.45,0,2.1497e+08,-9.2755,12081,13104,1,13104,1,0.0015764,2.5627e-09,0,0.0015764,0.00022121,3.3449e+08,633.53,0,4.7901e+08,128.03,13103,12082,1,12082,1,0.00019935,-9.5843e-10,0,0.00071404,-3.6229e-05,5.6199e+07,-241.93,0,2.1756e+08,-6.9107,12081,10985,1,10985,1,-0.0011777,-6.8722e-09,0,4.6338e-05,-0.00029384,-4.7901e+08,-1664.8,0,1.3663e+07,-155.79,10984,11571,1,11571,1,-0.00051469,-2.5117e-09,0,0.00035702,-0.00016978,-2.093e+08,-589.15,0,1.125e+08,-41.732,11570,12593,1,12593,1,0.00091339,7.1168e-11,0,0.0010711,9.7051e-05,2.1756e+08,20.52,0,3.0551e+08,29.994,12592,591.12,0,591.12,0,0.00082418,1.8414e-09,0,0.00043459,0.00015407,2.4777e+08,460.11,0,1.2311e+08,54.101,591.12,1
2044,5.01,12082,1,12082,1,0.00019995,-2.2374e-09,0,0.0007295,-3.6405e-05,71.112,-567.94,0,2.1536e+08,-7.3173,12081,13104,1,13104,1,0.0015799,2.3308e-09,0,0.0015799,0.00022164,3.3483e+08,594.14,0,4.7994e+08,385.57,13103,12082,1,12082,1,0.00019995,-1.648e-09,0,0.00071553,-3.6339e-05,5.6368e+07,-414.19,0,2.1804e+08,-6.0013,12081,10985,1,10985,1,-0.00118,-1.0524e-08,0,4.6616e-05,-0.00029449,-4.7994e+08,-2595.1,0,1.3747e+07,-303.94,10984,11571,1,11571,1,-0.00051559,-3.8771e-09,0,0.00035777,-0.00017017,-2.0967e+08,-989.08,0,1.1272e+08,-46.33,11570,12593,1,12593,1,0.00091548,-9.0093e-11,0,0.0010733,9.7221e-05,2.1804e+08,-20.988,0,3.0598e+08,43.747,12592,591.12,0,591.12,0,0.00082591,2.685e-09,0,0.00043554,0.00015439,2.4821e+08,688.09,0,1.2331e+08,90.271,591.12,1
2044,5.02,12082,1,12082,1,0.00020054,4.7087e-10,0,0.00073104,-3.6514e-05,-6.6883,96.986,0,2.1574e+08,8.1225,12081,13104,1,13104,1,0.0015834,2.4944e-09,0,0.0015834,0.00022206,3.3516e+08,602.53,0,4.8086e+08,82.557,13103,12082,1,12082,1,0.00020054,5.6372e-10,0,0.00071702,-3.6448e-05,5.6536e+07,139.11,0,2.1852e+08,9.2733,12081,10985,1,10985,1,-0.0011823,-3.5978e-09,0,4.6895e-05,-0.00029512,-4.8086e+08,-937,0,1.383e+07,-184.79,10984,11571,1,11571,1,-0.00051648,-2.1566e-10,0,0.00035851,-0.00017055,-2.1003e+08,-63.857,0,1.1294e+08,-6.9326,11570,12593,1,12593,1,0.00091756,1.3473e-09,0,0.0010755,9.7388e-05,2.1852e+08,300.32,0,3.0644e+08,34.6,12592,591.12,0,591.12,0,0.00082762,1.1391e-09,0,0.00043648,0.00015471,2.4864e+08,298.28,0,1.2351e+08,38.058,591.12,1
2044,5.03,12082,1,12082,1,0.00020115,4.9332e-10,0,0.00073261,-3.6625e-05,-51.674,126.38,0,2.1613e+08,4.3682,12081,13104,1,13104,1,0.0015869,6.0188e-09,0,0.0015869,0.0002225,3.3551e+08,1452.7,0,4.818e+08,164.49,13103,12082,1,12082,1,0.00020115,4.977e-10,0,0.00071853,-3.6559e-05,5.6707e+07,121.53,0,2.1901e+08,7.8103,12081,10985,1,10985,1,-0.0011846,-6.5171e-09,0,4.7175e-05,-0.00029578,-4.818e+08,-1615.4,0,1.3914e+07,-141.46,10984,11571,1,11571,1,-0.00051739,-4.059e-10,0,0.00035927,-0.00017095,-2.104e+08,-97.659,0,1.1317e+08,-24.79,11570,12593,1,12593,1,0.00091968,1.7588e-09,0,0.0010778,9.756e-05,2.1901e+08,465.25,0,3.0692e+08,43.414,12592,591.12,0,591.12,0,0.00082937,2.1492e-09,0,0.00043744,0.00015504,2.4908e+08,560.99,0,1.2371e+08,55.293,591.12,1
2044,5.04,12082,1,12082,1,0.00020176,-3.0798e-09,0,0.00073418,-3.6736e-05,-89.5,-783.03,0,2.1652e+08,-20.52,12081,13104,1,13104,1,0.0015905,9.0722e-09,0,0.0015905,0.00022293,3.3585e+08,2193.1,0,4.8275e+08,520.6,13103,12082,1,12082,1,0.00020175,-1.1878e-09,0,0.00072004,-3.6671e-05,5.6878e+07,-313.39,0,2.195e+08,-13.563,12081,10985,1,10985,1,-0.0011869,-2.3248e-08,0,4.7457e-05,-0.00029644,-4.8275e+08,-5674.9,0,1.3999e+07,-505.39,10984,11571,1,11571,1,-0.00051828,-6.6741e-09,0,0.00036002,-0.00017134,-2.1077e+08,-1733.6,0,1.1339e+08,-127.24,11570,12593,1,12593,1,0.00092179,1.1521e-09,0,0.0010801,9.773e-05,2.195e+08,302.01,0,3.074e+08,81.122,12592,591.12,0,591.12,0,0.00083112,6.4445e-09,0,0.0004384,0.00015536,2.4952e+08,1648.1,0,1.2392e+08,159.9,591.12,1
2044,5.05,12082,1,12082,1,0.00020235,-6.6999e-10,0,0.00073567,-3.6843e-05,-4.6581,-191.28,0,2.1689e+08,66.398,12081,13104,1,13104,1,0.0015938,4.0192e-09,0,0.0015938,0.00022334,3.3615e+08,764.01,0,4.8363e+08,178.29,13103,12082,1,12082,1,0.00020234,-8.001e-10,0,0.00072148,-3.6779e-05,5.7045e+07,-235.53,0,2.1997e+08,66.214,12081,10985,1,10985,1,-0.0011891,-3.7459e-09,0,4.7737e-05,-0.00029706,-4.8363e+08,-840.63,0,1.4083e+07,-67.655,10984,11571,1,11571,1,-0.00051914,-1.4138e-09,0,0.00036075,-0.00017172,-2.1111e+08,-402.73,0,1.1361e+08,21.098,11570,12593,1,12593,1,0.00092383,1.2172e-10,0,0.0010822,9.7892e-05,2.1997e+08,36.549,0,3.0784e+08,105.08,12592,591.12,0,591.12,0,0.00083277,1.5327e-09,0,0.00043932,0.00015567,2.4993e+08,339,0,1.2411e+08,51.987,591.12,1
2044,5.06,12082,1,12082,1,0.00020295,-4.5005e-10,0,0.00073725,-3.6954e-05,-88.263,-123.24,0,2.1729e+08,-14.768,12081,13104,1,13104,1,0.0015973,5.111e-09,0,0.0015973,0.00022378,3.365e+08,1222.2,0,4.8458e+08,267.53,13103,12082,1,12082,1,0.00020295,2.3467e-10,0,0.00072301,-3.689e-05,5.7215e+07,59.122,0,2.2046e+08,-0.11759,12081,10985,1,10985,1,-0.0011914,-1.0335e-08,0,4.8017e-05,-0.00029772,-4.8458e+08,-2533.7,0,1.4166e+07,-332.68,10984,11571,1,11571,1,-0.00052006,-1.3905e-09,0,0.0003615,-0.00017211,-2.1149e+08,-364,0,1.1383e+08,-45.347,11570,12593,1,12593,1,0.00092596,9.6456e-10,0,0.0010845,9.8064e-05,2.2046e+08,246.94,0,3.0832e+08,33.142,12592,591.12,0,591.12,0,0.00083453,2.6488e-09,0,0.00044029,0.000156,2.5038e+08,679.31,0,1.2431e+08,91.958,591.12,1
2044,5.07,12082,1,12082,1,0.00020355,-2.4275e-09,0,0.00073878,-3.7064e-05,30.206,-630.93,0,2.1766e+08,-1.9368,12081,13104,1,13104,1,0.0016008,1.403e-09,0,0.0016008,0.0002242,3.3682e+08,351.76,0,4.8549e+08,242.38,13103,12082,1,12082,1,0.00020355,-1.7492e-09,0,0.00072447,-3.7001e-05,5.7385e+07,-446.93,0,2.2093e+08,0.23742,12081,10985,1,10985,1,-0.0011937,-1.167e-08,0,4.8302e-05,-0.00029835,-4.8549e+08,-2883.8,0,1.4252e+07,-240.6,10984,11571,1,11571,1,-0.00052093,-3.9457e-09,0,0.00036224,-0.0001725,-2.1184e+08,-1027.8,0,1.1405e+08,-39.691,11570,12593,1,12593,1,0.00092802,-2.863e-10,0,0.0010867,9.8228e-05,2.2093e+08,-62.368,0,3.0878e+08,44.532,12592,591.12,0,591.12,0,0.00083623,2.6689e-09,0,0.00044122,0.00015632,2.508e+08,698.11,0,1.2451e+08,75.279,591.12,1
2044,5.08,12082,1,12082,1,0.00020416,3.6959e-09,0,0.0007403,-3.7176e-05,-50.738,913.88,0,2.1804e+08,20.284,12081,13104,1,13104,1,0.0016042,9.2077e-09,0,0.0016042,0.00022462,3.3713e+08,2211.2,0,4.864e+08,155.24,13103,12082,1,12082,1,0.00020416,3.9415e-09,0,0.00072595,-3.7113e-05,5.7558e+07,984.13,0,2.214e+08,21.003,12081,10985,1,10985,1,-0.0011959,-1.2085e-09,0,4.86e-05,-0.00029899,-4.864e+08,-413.8,0,1.4341e+07,-74.656,10984,11571,1,11571,1,-0.00052179,1.6797e-09,0,0.00036297,-0.00017288,-2.1219e+08,466.22,0,1.1427e+08,-11.371,11570,12593,1,12593,1,0.00093011,5.4171e-09,0,0.0010889,9.8391e-05,2.214e+08,1269.6,0,3.0923e+08,47.182,12592,591.12,0,591.12,0,0.00083793,2.4908e-09,0,0.00044216,0.00015663,2.5122e+08,594.63,0,1.247e+08,42.099,591.12,1
2044,5.09,12082,1,12082,1,0.00020482,-2.3971e-09,0,0.00074185,-3.7296e-05,28.604,-588.96,0,2.184e+08,-5.0121,12081,13104,1,13104,1,0.0016077,3.8843e-10,0,0.0016077,0.00022503,3.374e+08,133.02,0,4.8729e+08,95.757,13103,12082,1,12082,1,0.00020482,-2.3442e-09,0,0.00072744,-3.7234e-05,5.7742e+07,-658.9,0,2.2185e+08,-1.3336,12081,10985,1,10985,1,-0.0011981,-4.8668e-09,0,4.8934e-05,-0.00029965,-4.8729e+08,-1024,0,1.4441e+07,-91.135,10984,11571,1,11571,1,-0.00052262,-3.5635e-09,0,0.00036372,-0.00017328,-2.1253e+08,-832.24,0,1.1449e+08,-17.772,11570,12593,1,12593,1,0.00093225,-1.3142e-09,0,0.0010912,9.8549e-05,2.2185e+08,-349.2,0,3.0966e+08,11.707,12592,591.12,0,591.12,0,0.00083964,1.4359e-09,0,0.00044312,0.00015695,2.5163e+08,313.48,0,1.2489e+08,23.786,591.12,1
2044,5.1,12082,1,12082,1,0.00020548,3.9058e-10,0,0.00074342,-3.7417e-05,-16.998,89.099,0,2.1877e+08,9.5478,12081,13104,1,13104,1,0.0016113,7.3403e-09,0,0.0016113,0.00022545,3.3767e+08,1763.6,0,4.882e+08,131.11,13103,12082,1,12082,1,0.00020548,1.1338e-10,0,0.00072895,-3.7356e-05,5.793e+07,26.141,0,2.223e+08,2.6239,12081,10985,1,10985,1,-0.0012003,-4.207e-09,0,4.9276e-05,-0.00030031,-4.882e+08,-1020.4,0,1.4544e+07,-100.35,10984,11571,1,11571,1,-0.00052347,-1.3354e-09,0,0.00036447,-0.00017369,-2.1287e+08,-342.92,0,1.1471e+08,-24.557,11570,12593,1,12593,1,0.00093443,1.8144e-09,0,0.0010934,9.8708e-05,2.223e+08,460.24,0,3.1004e+08,42.561,12592,591.12,0,591.12,0,0.00084138,2.4493e-09,0,0.00044409,0.00015728,2.5205e+08,615.98,0,1.2508e+08,45.7,591.12,1
2044,5.11,12082,1,12082,1,0.00020615,2.4461e-09,0,0.000745,-3.754e-05,-12.757,619.1,0,2.1914e+08,-14.534,12081,13104,1,13104,1,0.0016149,1.0061e-08,0,0.0016149,0.00022588,3.3794e+08,2513.3,0,4.8913e+08,148.66,13103,12082,1,12082,1,0.00020615,2.1099e-09,0,0.00073046,-3.748e-05,5.812e+07,566.4,0,2.2276e+08,-19.631,12081,10985,1,10985,1,-0.0012026,-9.509e-10,0,4.9623e-05,-0.00030098,-4.8913e+08,-313.9,0,1.4648e+07,-151.72,10984,11571,1,11571,1,-0.00052431,6.4579e-10,0,0.00036523,-0.00017409,-2.1322e+08,169.15,0,1.1493e+08,-54.532,11570,12593,1,12593,1,0.00093662,3.7123e-09,0,0.0010957,9.8868e-05,2.2276e+08,876.09,0,3.1033e+08,15.932,12592,591.12,0,591.12,0,0.00084313,2.2843e-09,0,0.00044507,0.0001576,2.5246e+08,585.02,0,1.2526e+08,57.744,591.12,1
2044,5.12,12082,1,12082,1,0.00020684,-5.4532e-10,0,0.00074664,-3.7666e-05,-9.3881,-112.23,0,2.1952e+08,-47.593,12081,13104,1,13104,1,0.0016186,4.1241e-09,0,0.0016186,0.00022632,3.3822e+08,975.58,0,4.9007e+08,122.34,13103,12082,1,12082,1,0.00020684,-2.7263e-11,0,0.00073203,-3.7607e-05,5.8314e+07,-6.8113,0,2.2323e+08,-41.05,12081,10985,1,10985,1,-0.0012049,-6.5831e-09,0,4.9976e-05,-0.00030166,-4.9007e+08,-1456.6,0,1.4754e+07,-228.94,10984,11571,1,11571,1,-0.00052519,-1.9482e-09,0,0.00036601,-0.00017451,-2.1357e+08,-503.76,0,1.1516e+08,-87.314,11570,12593,1,12593,1,0.00093887,9.0716e-10,0,0.001098,9.9033e-05,2.2323e+08,260.96,0,3.1064e+08,-6.0653,12592,591.12,0,591.12,0,0.00084495,2.3368e-09,0,0.00044608,0.00015794,2.5289e+08,564,0,1.2546e+08,56.443,591.12,1
2044,5.13,12082,1,12082,1,0.00020751,1.1063e-09,0,0.00074817,-3.7789e-05,-10.927,280.52,0,2.1987e+08,28.441,12081,13104,1,13104,1,0.0016221,1.0069e-08,0,0.0016221,0.00022672,3.3845e+08,2436.4,0,4.9095e+08,220.73,13103,12082,1,12082,1,0.00020751,9.7654e-11,0,0.0007335,-3.7731e-05,5.8504e+07,28.002,0,2.2367e+08,19.255,12081,10985,1,10985,1,-0.0012071,-4.481e-09,0,5.0333e-05,-0.00030231,-4.9095e+08,-1026,0,1.486e+07,-126.38,10984,11571,1,11571,1,-0.00052599,-7.4187e-10,0,0.00036675,-0.00017491,-2.139e+08,-192.21,0,1.1537e+08,-17.887,11570,12593,1,12593,1,0.00094101,2.7911e-09,0,0.0011003,9.9184e-05,2.2367e+08,704.36,0,3.1089e+08,69.97,12592,591.12,0,591.12,0,0.00084664,3.001e-09,0,0.00044703,0.00015826,2.5328e+08,742.22,0,1.2564e+08,61.676,591.12,1
2044,5.14,12082,1,12082,1,0.00020818,-3.858e-09,0,0.00074976,-3.7912e-05,50.516,-973.16,0,2.2025e+08,-37.793,12081,13104,1,13104,1,0.0016258,7.0548e-10,0,0.0016258,0.00022715,3.3873e+08,241.57,0,4.9188e+08,193.84,13103,12082,1,12082,1,0.00020818,-3.9519e-09,0,0.00073502,-3.7855e-05,5.8694e+07,-972.69,0,2.2413e+08,-32.658,12081,10985,1,10985,1,-0.0012094,-9.2308e-09,0,5.0679e-05,-0.00030299,-4.9188e+08,-2226.9,0,1.4964e+07,-264.14,10984,11571,1,11571,1,-0.00052684,-5.539e-09,0,0.00036751,-0.00017532,-2.1424e+08,-1405.2,0,1.1559e+08,-69.971,11570,12593,1,12593,1,0.00094321,-1.8774e-09,0,0.0011025,9.9345e-05,2.2413e+08,-505.9,0,3.1118e+08,-1.0041,12592,591.12,0,591.12,0,0.00084839,2.5218e-09,0,0.00044802,0.00015858,2.537e+08,626.67,0,1.2583e+08,59.621,591.12,1
2044,5.15,12082,1,12082,1,0.00020888,2.0876e-09,0,0.00075141,-3.804e-05,-224.2,504.83,0,2.2063e+08,-52.053,12081,13104,1,13104,1,0.0016295,1.2014e-08,0,0.0016295,0.00022759,3.3901e+08,2807.8,0,4.9283e+08,159.72,13103,12082,1,12082,1,0.00020888,1.2558e-09,0,0.0007366,-3.7983e-05,5.889e+07,324.78,0,2.246e+08,-31.405,12081,10985,1,10985,1,-0.0012117,-9.2251e-09,0,5.1036e-05,-0.00030368,-4.9283e+08,-2273,0,1.5071e+07,-300.64,10984,11571,1,11571,1,-0.00052772,-9.1225e-10,0,0.0003683,-0.00017574,-2.146e+08,-241.84,0,1.1582e+08,-130.38,11570,12593,1,12593,1,0.00094548,5.683e-09,0,0.0011049,9.9511e-05,2.246e+08,1467.3,0,3.1148e+08,19.847,12592,591.12,0,591.12,0,0.00085022,4.9001e-09,0,0.00044904,0.00015892,2.5414e+08,1213.8,0,1.2602e+08,92.199,591.12,1
2044,5.16,12082,1,12082,1,0.00020956,-1.6761e-09,0,0.00075294,-3.8163e-05,7.0516,-424.26,0,2.2098e+08,45.44,12081,13104,1,13104,1,0.001633,2.6389e-09,0,0.001633,0.00022799,3.3922e+08,516.49,0,4.937e+08,160.64,13103,12082,1,12082,1,0.00020956,-1.299e-09,0,0.00073807,-3.8107e-05,5.9081e+07,-359.94,0,2.2504e+08,33.272,12081,10985,1,10985,1,-0.0012139,-5.5992e-09,0,5.1399e-05,-0.00030433,-4.937e+08,-1225.5,0,1.5179e+07,-70.034,10984,11571,1,11571,1,-0.00052851,-2.9396e-09,0,0.00036903,-0.00017614,-2.1492e+08,-812.88,0,1.1603e+08,9.286,11570,12593,1,12593,1,0.00094762,-2.3418e-10,0,0.0011071,9.9661e-05,2.2504e+08,-72.78,0,3.1173e+08,78.731,12592,591.12,0,591.12,0,0.00085191,1.9486e-09,0,0.00044999,0.00015924,2.5452e+08,443.72,0,1.262e+08,47.659,591.12,1
2044,5.17,12082,1,12082,1,0.00021024,-1.3589e-09,0,0.00075456,-3.8289e-05,42.812,-358.83,0,2.2136e+08,-11.72,12081,13104,1,13104,1,0.0016367,5.9197e-10,0,0.0016367,0.00022843,3.395e+08,118.03,0,4.9464e+08,66.344,13103,12082,1,12082,1,0.00021024,-1.0574e-09,0,0.00073961,-3.8233e-05,5.9274e+07,-282.94,0,2.2551e+08,-5.9844,12081,10985,1,10985,1,-0.0012162,-5.499e-09,0,5.1751e-05,-0.00030501,-4.9464e+08,-1359.2,0,1.5285e+07,-112.8,10984,11571,1,11571,1,-0.00052937,-2.1455e-09,0,0.00036981,-0.00017655,-2.1527e+08,-566.58,0,1.1626e+08,-26.239,11570,12593,1,12593,1,0.00094986,-2.4764e-10,0,0.0011094,9.9824e-05,2.2551e+08,-60.81,0,3.1203e+08,9.6318,12592,591.12,0,591.12,0,0.0008537,1.3582e-09,0,0.00045099,0.00015957,2.5495e+08,349.84,0,1.2639e+08,30.264,591.12,1
2044,5.18,12082,1,12082,1,0.00021093,1.901e-09,0,0.00075615,-3.8415e-05,67.049,470.62,0,2.2173e+08,-15.295,12081,13104,1,13104,1,0.0016403,7.2503e-09,0,0.0016403,0.00022885,3.3975e+08,1745.5,0,4.9555e+08,83.87,13103,12082,1,12082,1,0.00021093,1.332e-09,0,0.00074114,-3.8361e-05,5.947e+07,348.5,0,2.2597e+08,-6.8646,12081,10985,1,10985,1,-0.0012184,-3.5065e-09,0,5.2115e-05,-0.00030568,-4.9555e+08,-891.56,0,1.5394e+07,-131.14,10984,11571,1,11571,1,-0.00053021,2.067e-10,0,0.00037057,-0.00017696,-2.1561e+08,54.771,0,1.1648e+08,-52.129,11570,12593,1,12593,1,0.00095207,3.6565e-09,0,0.0011117,9.9982e-05,2.2597e+08,924.58,0,3.123e+08,23.981,12592,591.12,0,591.12,0,0.00085546,2.4458e-09,0,0.00045198,0.0001599,2.5536e+08,619.67,0,1.2658e+08,46.504,591.12,1
2044,5.19,12082,1,12082,1,0.00021162,6.8578e-10,0,0.00075773,-3.8541e-05,13.421,186.06,0,2.2209e+08,17.744,12081,13104,1,13104,1,0.0016439,4.1568e-09,0,0.0016439,0.00022927,3.3999e+08,1060.5,0,4.9646e+08,89.03,13103,12082,1,12082,1,0.00021162,4.1876e-10,0,0.00074265,-3.8487e-05,5.9663e+07,94.435,0,2.2642e+08,13.791,12081,10985,1,10985,1,-0.0012206,-1.7605e-09,0,5.2475e-05,-0.00030635,-4.9646e+08,-454.9,0,1.5501e+07,-60.409,10984,11571,1,11571,1,-0.00053104,8.1892e-11,0,0.00037133,-0.00017737,-2.1595e+08,19.28,0,1.167e+08,-7.2008,11570,12593,1,12593,1,0.00095427,1.2234e-09,0,0.001114,0.00010014,2.2642e+08,342.19,0,3.1256e+08,43.432,12592,591.12,0,591.12,0,0.00085721,1.0566e-09,0,0.00045296,0.00016023,2.5577e+08,298.49,0,1.2676e+08,31.384,591.12,1
2044,5.2,12082,1,12082,1,0.00021229,1.6671e-09,0,0.00075928,-3.8664e-05,-27.525,431.86,0,2.2245e+08,29.693,12081,13104,1,13104,1,0.0016474,5.2932e-09,0,0.0016474,0.00022968,3.4022e+08,1233.7,0,4.9735e+08,94.68,13103,12082,1,12082,1,0.00021229,1.5337e-09,0,0.00074414,-3.8611e-05,5.9854e+07,430.49,0,2.2687e+08,27.239,12081,10985,1,10985,1,-0.0012228,-9.8121e-10,0,5.2833e-05,-0.000307,-4.9735e+08,-184.15,0,1.5608e+07,-41.944,10984,11571,1,11571,1,-0.00053185,6.5832e-10,0,0.00037207,-0.00017777,-2.1628e+08,175.37,0,1.1692e+08,9.0053,11570,12593,1,12593,1,0.00095643,2.501e-09,0,0.0011162,0.00010029,2.2687e+08,643.89,0,3.1282e+08,49.952,12592,591.12,0,591.12,0,0.00085892,1.3208e-09,0,0.00045392,0.00016054,2.5617e+08,320.26,0,1.2694e+08,26.438,591.12,1
2044,5.21,12082,1,12082,1,0.00021298,1.6027e-09,0,0.00076087,-3.879e-05,-9.3458,425.31,0,2.2282e+08,-18.063,12081,13104,1,13104,1,0.0016511,5.2997e-09,0,0.0016511,0.0002301,3.4048e+08,1296.2,0,4.9827e+08,62.825,13103,12082,1,12082,1,0.00021298,1.2744e-09,0,0.00074566,-3.8738e-05,6.0047e+07,345.31,0,2.2733e+08,-16.695,12081,10985,1,10985,1,-0.0012251,-6.2206e-10,0,5.3191e-05,-0.00030768,-4.9827e+08,-213.01,0,1.5715e+07,-89.715,10984,11571,1,11571,1,-0.00053269,3.6343e-10,0,0.00037283,-0.00017818,-2.1662e+08,102.99,0,1.1714e+08,-33.238,11570,12593,1,12593,1,0.00095864,2.6093e-09,0,0.0011185,0.00010045,2.2733e+08,698.73,0,3.131e+08,0.61562,12592,591.12,0,591.12,0,0.00086068,1.473e-09,0,0.00045491,0.00016087,2.5658e+08,382.67,0,1.2713e+08,26.883,591.12,1
2044,5.22,12082,1,12082,1,0.00021367,1.586e-09,0,0.00076246,-3.8916e-05,-34.905,426.15,0,2.2318e+08,0.91623,12081,13104,1,13104,1,0.0016547,4.1411e-09,0,0.0016547,0.00023052,3.4071e+08,1037,0,4.9918e+08,48.565,13103,12082,1,12082,1,0.00021367,1.466e-09,0,0.00074718,-3.8865e-05,6.0242e+07,389.42,0,2.2778e+08,1.5258,12081,10985,1,10985,1,-0.0012273,-2.8253e-10,0,5.3182e-05,-0.00030835,-4.9918e+08,-49.256,0,1.5824e+07,-95.178,10984,11571,1,11571,1,-0.00053351,6.3643e-10,0,0.00037359,-0.00017859,-2.1696e+08,156.63,0,1.1736e+08,-7.0298,11570,12593,1,12593,1,0.00096085,2.4723e-09,0,0.0011208,0.00010061,2.2778e+08,671.18,0,3.1336e+08,14.354,12592,591.12,0,591.12,0,0.00086244,1.1237e-09,0,0.0004559,0.0001612,2.5699e+08,308.95,0,1.2732e+08,20.804,591.12,1
2044,5.23,12082,1,12082,1,0.00021443,-9.6882e-10,0,0.0007641,-3.9055e-05,26.629,-221.28,0,2.2354e+08,-28.954,12081,13104,1,13104,1,0.0016584,3.6943e-09,0,0.0016584,0.00023095,3.4093e+08,917.13,0,5.0009e+08,134.6,13103,12082,1,12082,1,0.00021443,-3.563e-10,0,0.00074874,-3.9005e-05,6.0456e+07,-76.29,0,2.2821e+08,-21.19,12081,10985,1,10985,1,-0.0012296,-9.2596e-09,0,5.2979e-05,-0.00030905,-5.0009e+08,-2206.5,0,1.5951e+07,-218.46,10984,11571,1,11571,1,-0.00053432,-2.2666e-09,0,0.00037437,-0.00017902,-2.1728e+08,-557.45,0,1.1758e+08,-52.359,11570,12593,1,12593,1,0.00096317,6.9654e-10,0,0.0011231,0.00010076,2.2821e+08,196.15,0,3.136e+08,13.194,12592,591.12,0,591.12,0,0.00086424,2.6294e-09,0,0.00045692,0.00016153,2.5739e+08,672.44,0,1.275e+08,59.087,591.12,1
2044,5.24,12082,1,12082,1,0.00021525,6.2184e-10,0,0.00076574,-3.9207e-05,-0.069707,158.12,0,2.2387e+08,23.874,12081,13104,1,13104,1,0.0016623,4.4921e-09,0,0.0016623,0.00023136,3.4108e+08,1120.7,0,5.0098e+08,120.32,13103,12082,1,12082,1,0.00021525,2.9076e-10,0,0.0007503,-3.9157e-05,6.069e+07,66.903,0,2.2859e+08,18.965,12081,10985,1,10985,1,-0.0012318,-1.8465e-09,0,5.2712e-05,-0.00030975,-5.0098e+08,-590.53,0,1.6098e+07,-71.82,10984,11571,1,11571,1,-0.00053505,-2.1195e-10,0,0.00037515,-0.00017946,-2.1758e+08,-59.7,0,1.178e+08,-7.2652,11570,12593,1,12593,1,0.00096556,1.2105e-09,0,0.0011255,0.0001009,2.2859e+08,304.66,0,3.1378e+08,55.407,12592,591.12,0,591.12,0,0.00086604,1.2411e-09,0,0.00045796,0.00016187,2.5776e+08,347.52,0,1.2766e+08,41.531,591.12,1
2044,5.25,12082,1,12082,1,0.00021609,-2.9917e-09,0,0.00076738,-3.9359e-05,-185.4,-747.99,0,2.242e+08,24.448,12081,13104,1,13104,1,0.0016661,9.2239e-10,0,0.0016661,0.00023176,3.4122e+08,315.85,0,5.0187e+08,298.43,13103,12082,1,12082,1,0.00021608,-3.0694e-09,0,0.00075185,-3.9311e-05,6.0924e+07,-800.5,0,2.2896e+08,27.583,12081,10985,1,10985,1,-0.0012339,-7.9375e-09,0,5.2433e-05,-0.00031047,-5.0187e+08,-2008.1,0,1.6248e+07,-127.27,10984,11571,1,11571,1,-0.00053577,-4.6701e-09,0,0.00037593,-0.0001799,-2.1787e+08,-1092.5,0,1.1801e+08,0.57364,11570,12593,1,12593,1,0.00096794,-1.2898e-09,0,0.0011278,0.00010103,2.2896e+08,-364.71,0,3.1395e+08,52.67,12592,591.12,0,591.12,0,0.00086783,2.0547e-09,0,0.000459,0.0001622,2.5813e+08,509.92,0,1.2782e+08,53.906,591.12,1
2044,5.26,12082,1,12082,1,0.00021691,-2.129e-09,0,0.00076899,-3.951e-05,5.7415,-574.77,0,2.2452e+08,28.023,12081,13104,1,13104,1,0.0016699,3.9359e-09,0,0.0016699,0.00023216,3.4133e+08,795.76,0,5.0272e+08,272.27,13103,12082,1,12082,1,0.00021691,-1.7746e-09,0,0.00075338,-3.9464e-05,6.1158e+07,-485.83,0,2.2933e+08,23.194,12081,10985,1,10985,1,-0.0012361,-8.484e-09,0,5.215e-05,-0.00031116,-5.0272e+08,-2011.8,0,1.6396e+07,-99.775,10984,11571,1,11571,1,-0.00053647,-3.9615e-09,0,0.00037669,-0.00018034,-2.1816e+08,-1049.2,0,1.1822e+08,-1.8399,11570,12593,1,12593,1,0.00097029,-1.623e-10,0,0.0011301,0.00010116,2.2933e+08,-44.638,0,3.141e+08,50.995,12592,591.12,0,591.12,0,0.00086958,2.6434e-09,0,0.00046001,0.00016253,2.5848e+08,656.01,0,1.2798e+08,45.041,591.12,1
2044,5.27,12082,1,12082,1,0.00021776,3.1497e-09,0,0.0007707,-3.9666e-05,204.29,749.42,0,2.2487e+08,-21.762,12081,13104,1,13104,1,0.0016738,7.9085e-09,0,0.0016738,0.00023259,3.415e+08,1731.4,0,5.0365e+08,156.25,13103,12082,1,12082,1,0.00021776,3.075e-09,0,0.00075499,-3.9622e-05,6.1399e+07,828.93,0,2.2973e+08,-15.46,12081,10985,1,10985,1,-0.0012383,-1.2762e-09,0,5.1876e-05,-0.0003119,-5.0365e+08,-437,0,1.6548e+07,-351.64,10984,11571,1,11571,1,-0.00053723,1.26e-09,0,0.0003775,-0.0001808,-2.1847e+08,346.17,0,1.1845e+08,-49.37,11570,12593,1,12593,1,0.00097276,5.0409e-09,0,0.0011325,0.00010131,2.2973e+08,1138.3,0,3.143e+08,14.408,12592,591.12,0,591.12,0,0.00087145,2.374e-09,0,0.00046109,0.00016288,2.5887e+08,530.82,0,1.2815e+08,65.399,591.12,1
2044,5.28,12082,1,12082,1,0.00021863,-2.4423e-09,0,0.00077239,-3.9825e-05,-91.423,-593.87,0,2.252e+08,-21.469,12081,13104,1,13104,1,0.0016778,1.21e-09,0,0.0016778,0.000233,3.4162e+08,414.35,0,5.0455e+08,315.51,13103,12082,1,12082,1,0.00021863,-2.0617e-09,0,0.00075659,-3.9781e-05,6.1642e+07,-535.5,0,2.3011e+08,-17.752,12081,10985,1,10985,1,-0.0012405,-9.797e-09,0,5.1582e-05,-0.00031263,-5.0455e+08,-2373.8,0,1.6704e+07,-238.09,10984,11571,1,11571,1,-0.00053796,-3.6496e-09,0,0.0003783,-0.00018125,-2.1877e+08,-826.21,0,1.1867e+08,-50.918,11570,12593,1,12593,1,0.00097522,-7.3687e-10,0,0.0011349,0.00010145,2.3011e+08,-215.72,0,3.1446e+08,7.7687,12592,591.12,0,591.12,0,0.0008733,2.2052e-09,0,0.00046216,0.00016322,2.5924e+08,534.41,0,1.2832e+08,80.371,591.12,1
2044,5.29,12082,1,12082,1,0.00021946,7.1925e-10,0,0.00077397,-3.9978e-05,202.04,153.17,0,2.255e+08,27.772,12081,13104,1,13104,1,0.0016815,1.3546e-08,0,0.0016815,0.00023339,3.417e+08,3030,0,5.0538e+08,271.59,13103,12082,1,12082,1,0.00021946,-1.6748e-10,0,0.00075809,-3.9936e-05,6.1879e+07,-36.092,0,2.3047e+08,15.332,12081,10985,1,10985,1,-0.0012426,-9.0317e-09,0,5.1282e-05,-0.00031331,-5.0538e+08,-2162,0,1.6858e+07,-221.91,10984,11571,1,11571,1,-0.00053863,-1.8814e-09,0,0.00037905,-0.00018168,-2.1904e+08,-499.29,0,1.1888e+08,-43.33,11570,12593,1,12593,1,0.00097755,3.1047e-09,0,0.0011371,0.00010157,2.3047e+08,782.97,0,3.1458e+08,91.491,12592,591.12,0,591.12,0,0.00087502,4.2764e-09,0,0.00046317,0.00016354,2.5958e+08,1052.7,0,1.2846e+08,92.237,591.12,1
2044,5.3,12082,1,12082,1,0.00022031,-1.7204e-09,0,0.00077565,-4.0133e-05,-29.105,-437.05,0,2.2585e+08,-24.687,12081,13104,1,13104,1,0.0016854,4.9048e-09,0,0.0016854,0.00023381,3.4185e+08,1258.1,0,5.0629e+08,141.86,13103,12082,1,12082,1,0.00022031,-1.5032e-09,0,0.00075968,-4.0092e-05,6.2117e+07,-359.78,0,2.3086e+08,-22.631,12081,10985,1,10985,1,-0.0012448,-7.1057e-09,0,5.1007e-05,-0.00031404,-5.0629e+08,-1785.4,0,1.7008e+07,-202.09,10984,11571,1,11571,1,-0.00053938,-3.2786e-09,0,0.00037984,-0.00018213,-2.1934e+08,-828.85,0,1.191e+08,-71.117,11570,12593,1,12593,1,0.00097999,-1.8187e-10,0,0.0011395,0.00010172,2.3086e+08,-44.182,0,3.1476e+08,15.389,12592,591.12,0,591.12,0,0.00087686,2.2601e-09,0,0.00046423,0.00016388,2.5996e+08,608.11,0,1.2863e+08,62.809,591.12,1
2044,5.31,12082,1,12082,1,0.00022119,1.7867e-09,0,0.00077739,-4.0294e-05,-68.164,436.15,0,2.262e+08,-74.274,12081,13104,1,13104,1,0.0016895,8.2924e-09,0,0.0016895,0.00023424,3.42e+08,1772.5,0,5.0722e+08,69.335,13103,12082,1,12082,1,0.00022119,1.105e-09,0,0.00076132,-4.0255e-05,6.2366e+07,291.37,0,2.3125e+08,-57.213,12081,10985,1,10985,1,-0.0012471,-5.1138e-09,0,5.0713e-05,-0.00031479,-5.0722e+08,-1071,0,1.7166e+07,-254.94,10984,11571,1,11571,1,-0.00054014,-4.2727e-11,0,0.00038067,-0.0001826,-2.1965e+08,-9.6272,0,1.1933e+08,-124.98,11570,12593,1,12593,1,0.00098251,3.4696e-09,0,0.001142,0.00010186,2.3125e+08,910.94,0,3.1494e+08,-16.407,12592,591.12,0,591.12,0,0.00087876,2.8132e-09,0,0.00046534,0.00016424,2.6035e+08,645.61,0,1.2881e+08,72.512,591.12,1
2044,5.32,12082,1,12082,1,0.00022206,2.042e-09,0,0.00077903,-4.0453e-05,150.49,526.13,0,2.2651e+08,39.217,12081,13104,1,13104,1,0.0016934,7.6542e-09,0,0.0016934,0.00023464,3.4208e+08,1911.8,0,5.0809e+08,232.65,13103,12082,1,12082,1,0.00022206,1.868e-09,0,0.00076288,-4.0416e-05,6.2612e+07,511.58,0,2.3162e+08,27.27,12081,10985,1,10985,1,-0.0012492,-1.0816e-09,0,5.04e-05,-0.00031551,-5.0809e+08,-370.34,0,1.7325e+07,-229.77,10984,11571,1,11571,1,-0.00054082,5.7961e-10,0,0.00038144,-0.00018305,-2.1993e+08,147.3,0,1.1954e+08,-5.1068,11570,12593,1,12593,1,0.00098494,3.3717e-09,0,0.0011443,0.00010199,2.3162e+08,857.08,0,3.1507e+08,87.796,12592,591.12,0,591.12,0,0.00088055,1.8915e-09,0,0.00046638,0.00016457,2.607e+08,471.76,0,1.2896e+08,69.325,591.12,1
2044,5.33,12082,1,12082,1,0.00022292,1.8321e-09,0,0.00078071,-4.0611e-05,-7.7367,508.42,0,2.2684e+08,-26.297,12081,13104,1,13104,1,0.0016973,5.6514e-09,0,0.0016973,0.00023505,3.422e+08,1417.7,0,5.0897e+08,96.567,13103,12082,1,12082,1,0.00022292,1.6494e-09,0,0.00076446,-4.0575e-05,6.2855e+07,454.26,0,2.32e+08,-21.407,12081,10985,1,10985,1,-0.0012514,-1.8047e-09,0,5.0103e-05,-0.00031623,-5.0897e+08,-349.18,0,1.7481e+07,-148.85,10984,11571,1,11571,1,-0.00054154,4.1706e-10,0,0.00038223,-0.0001835,-2.2022e+08,105.87,0,1.1976e+08,-50.833,11570,12593,1,12593,1,0.00098738,3.1482e-09,0,0.0011467,0.00010213,2.32e+08,885.11,0,3.1522e+08,2.4011,12592,591.12,0,591.12,0,0.00088238,1.7087e-09,0,0.00046745,0.00016491,2.6107e+08,459.69,0,1.2912e+08,43.214,591.12,1
2044,5.34,12082,1,12082,1,0.00022378,2.5987e-09,0,0.00078236,-4.0769e-05,41.732,695.12,0,2.2716e+08,27.072,12081,13104,1,13104,1,0.0017012,6.3365e-09,0,0.0017012,0.00023545,3.423e+08,1591.1,0,5.0985e+08,153.18,13103,12082,1,12082,1,0.00022378,2.7835e-09,0,0.00076603,-4.0734e-05,6.3098e+07,762.16,0,2.3237e+08,27.722,12081,10985,1,10985,1,-0.0012536,-8.5842e-10,0,4.98e-05,-0.00031695,-5.0985e+08,-241.53,0,1.7637e+07,-109.19,10984,11571,1,11571,1,-0.00054224,1.0784e-09,0,0.00038301,-0.00018395,-2.2051e+08,253.55,0,1.1998e+08,-9.6857,11570,12593,1,12593,1,0.0009898,4.0812e-09,0,0.001149,0.00010226,2.3237e+08,1122.5,0,3.1536e+08,66.017,12592,591.12,0,591.12,0,0.00088418,1.8599e-09,0,0.0004685,0.00016525,2.6142e+08,498.67,0,1.2928e+08,50.262,591.12,1
2044,5.35,12082,1,12082,1,0.00022465,-3.3056e-09,0,0.00078406,-4.0929e-05,24.296,-782.1,0,2.275e+08,-26.296,12081,13104,1,13104,1,0.0017051,1.1637e-09,0,0.0017051,0.00023587,3.4243e+08,398.47,0,5.1075e+08,272.28,13103,12082,1,12082,1,0.00022465,-2.9718e-09,0,0.00076762,-4.0896e-05,6.3345e+07,-773.13,0,2.3276e+08,-25.049,12081,10985,1,10985,1,-0.0012558,-9.1067e-09,0,4.9498e-05,-0.00031768,-5.1075e+08,-2133,0,1.7796e+07,-205.63,10984,11571,1,11571,1,-0.00054298,-5.556e-09,0,0.00038382,-0.00018441,-2.2081e+08,-1279.3,0,1.202e+08,-75.352,11570,12593,1,12593,1,0.00099228,-1.074e-09,0,0.0011514,0.0001024,2.3276e+08,-268.46,0,3.1552e+08,24.19,12592,591.12,0,591.12,0,0.00088604,2.6277e-09,0,0.00046958,0.00016559,2.618e+08,599.81,0,1.2945e+08,77.45,591.12,1
2044,5.36,12082,1,12082,1,0.00022552,-1.5109e-09,0,0.0007857,-4.1088e-05,-20.975,-400.73,0,2.2782e+08,24.271,12081,13104,1,13104,1,0.001709,5.0479e-10,0,0.001709,0.00023627,3.4251e+08,122.38,0,5.1162e+08,131.34,13103,12082,1,12082,1,0.00022552,-1.5901e-09,0,0.00076918,-4.1056e-05,6.359e+07,-437.5,0,2.3313e+08,20.719,12081,10985,1,10985,1,-0.0012579,-4.3823e-09,0,4.9188e-05,-0.0003184,-5.1162e+08,-1142.6,0,1.7956e+07,-103.91,10984,11571,1,11571,1,-0.00054366,-2.2658e-09,0,0.00038459,-0.00018486,-2.2108e+08,-611.55,0,1.2041e+08,1.496,11570,12593,1,12593,1,0.0009947,-6.2789e-10,0,0.0011538,0.00010253,2.3313e+08,-170.4,0,3.1565e+08,47.506,12592,591.12,0,591.12,0,0.00088783,1.0518e-09,0,0.00047063,0.00016592,2.6215e+08,276.25,0,1.296e+08,42.535,591.12,1
2044,5.37,12082,1,12082,1,0.0002264,2.2623e-09,0,0.00078743,-4.125e-05,60.128,550.37,0,2.2816e+08,-25.182,12081,13104,1,13104,1,0.001713,9.1268e-09,0,0.001713,0.00023669,3.4264e+08,2174.9,0,5.1254e+08,210.26,13103,12082,1,12082,1,0.0002264,1.971e-09,0,0.00077081,-4.122e-05,6.384e+07,502.87,0,2.3352e+08,-14.995,12081,10985,1,10985,1,-0.0012602,-7.0265e-09,0,4.8885e-05,-0.00031914,-5.1254e+08,-1750.3,0,1.8115e+07,-286.68,10984,11571,1,11571,1,-0.00054441,2.5295e-10,0,0.00038541,-0.00018532,-2.2139e+08,56.321,0,1.2064e+08,-58.144,11570,12593,1,12593,1,0.00099722,4.5299e-09,0,0.0011562,0.00010267,2.3352e+08,1154.6,0,3.1582e+08,26.677,12592,591.12,0,591.12,0,0.00088971,3.2197e-09,0,0.00047173,0.00016627,2.6253e+08,811.82,0,1.2977e+08,78.724,591.12,1
2044,5.38,12082,1,12082,1,0.00022727,-3.4886e-09,0,0.00078902,-4.1408e-05,-170.35,-878.01,0,2.2845e+08,59.78,12081,13104,1,13104,1,0.0017168,9.6208e-10,0,0.0017168,0.00023708,3.4269e+08,291.58,0,5.1337e+08,492.98,13103,12082,1,12082,1,0.00022726,-3.6035e-09,0,0.00077231,-4.1378e-05,6.4082e+07,-1005.6,0,2.3386e+08,39.89,12081,10985,1,10985,1,-0.0012622,-7.1074e-09,0,4.856e-05,-0.00031984,-5.1337e+08,-1633,0,1.8276e+07,-111.22,10984,11571,1,11571,1,-0.00054505,-5.5514e-09,0,0.00038616,-0.00018576,-2.2165e+08,-1349.4,0,1.2084e+08,9.8626,11570,12593,1,12593,1,0.00099957,-1.7115e-09,0,0.0011585,0.00010279,2.3386e+08,-451.27,0,3.1591e+08,90.614,12592,591.12,0,591.12,0,0.00089144,2.2831e-09,0,0.00047274,0.0001666,2.6286e+08,535.48,0,1.2992e+08,80.358,591.12,1
2044,5.39,12082,1,12082,1,0.00022815,1.4846e-09,0,0.00079076,-4.157e-05,-178.61,340.06,0,2.2881e+08,-34.184,12081,13104,1,13104,1,0.0017208,1.1403e-08,0,0.0017208,0.00023751,3.4284e+08,2706.4,0,5.143e+08,307.51,13103,12082,1,12082,1,0.00022814,1.2817e-09,0,0.00077396,-4.1542e-05,6.4332e+07,280.44,0,2.3426e+08,-15.407,12081,10985,1,10985,1,-0.0012645,-1.4677e-08,0,4.8267e-05,-0.00032059,-5.143e+08,-3617.1,0,1.8433e+07,-408.25,10984,11571,1,11571,1,-0.00054582,-1.1508e-09,0,0.00038698,-0.00018623,-2.2196e+08,-305.33,0,1.2107e+08,-100.15,11570,12593,1,12593,1,0.0010021,5.1406e-09,0,0.0011609,0.00010293,2.3426e+08,1274.7,0,3.1609e+08,51.927,12592,591.12,0,591.12,0,0.00089335,5.2624e-09,0,0.00047385,0.00016695,2.6325e+08,1341.4,0,1.3009e+08,118.9,591.12,1
2044,5.4,12082,1,12082,1,0.00022902,-2.5454e-09,0,0.00079238,-4.173e-05,-33.614,-655.18,0,2.2911e+08,74.524,12081,13104,1,13104,1,0.0017246,1.9711e-09,0,0.0017246,0.00023789,3.4289e+08,350.09,0,5.1514e+08,240.68,13103,12082,1,12082,1,0.00022902,-2.7468e-09,0,0.00077548,-4.1703e-05,6.4579e+07,-732.13,0,2.3462e+08,61.532,12081,10985,1,10985,1,-0.0012666,-5.4896e-09,0,4.7935e-05,-0.00032129,-5.1514e+08,-1642.4,0,1.8597e+07,-48.201,10984,11571,1,11571,1,-0.00054646,-4.2231e-09,0,0.00038774,-0.00018667,-2.2222e+08,-1046.3,0,1.2128e+08,16.614,11570,12593,1,12593,1,0.0010045,-1.0039e-09,0,0.0011632,0.00010306,2.3462e+08,-274.6,0,3.1619e+08,121.82,12592,591.12,0,591.12,0,0.0008951,1.861e-09,0,0.00047489,0.00016728,2.6359e+08,451.89,0,1.3024e+08,66.685,591.12,1
2044,5.41,12082,1,12082,1,0.00022988,-7.9458e-10,0,0.000794,-4.1887e-05,43.566,-238.83,0,2.2942e+08,62.306,12081,13104,1,13104,1,0.0017284,8.9785e-09,0,0.0017284,0.00023829,3.4297e+08,1875.6,0,5.1599e+08,285.72,13103,12082,1,12082,1,0.00022988,-7.3583e-10,0,0.00077702,-4.1862e-05,6.4822e+07,-192.47,0,2.3498e+08,54.509,12081,10985,1,10985,1,-0.0012687,-6.8944e-09,0,4.7626e-05,-0.000322,-5.1599e+08,-1641.4,0,1.8754e+07,-150.76,10984,11571,1,11571,1,-0.00054714,-3.1901e-09,0,0.00038851,-0.00018711,-2.225e+08,-862.16,0,1.2149e+08,7.1104,11570,12593,1,12593,1,0.0010069,8.4715e-10,0,0.0011655,0.00010318,2.3498e+08,213.31,0,3.1631e+08,105.86,12592,591.12,0,591.12,0,0.00089687,3.3744e-09,0,0.00047592,0.00016761,2.6393e+08,807.17,0,1.3039e+08,77.926,591.12,1
2044,5.42,12082,1,12082,1,0.00023075,-1.94e-09,0,0.00079567,-4.2047e-05,-30.728,-520.1,0,2.2974e+08,-10.608,12081,13104,1,13104,1,0.0017324,1.5482e-09,0,0.0017324,0.0002387,3.4307e+08,380.45,0,5.1688e+08,83.816,13103,12082,1,12082,1,0.00023075,-1.5261e-09,0,0.0007786,-4.2024e-05,6.5068e+07,-389.09,0,2.3535e+08,-5.6132,12081,10985,1,10985,1,-0.0012708,-6.3074e-09,0,4.7318e-05,-0.00032273,-5.1688e+08,-1593.4,0,1.8914e+07,-118.66,10984,11571,1,11571,1,-0.00054785,-3.4782e-09,0,0.0003893,-0.00018757,-2.2279e+08,-938.33,0,1.2171e+08,-45.919,11570,12593,1,12593,1,0.0010094,-2.7207e-10,0,0.0011679,0.00010332,2.3535e+08,-59.793,0,3.1645e+08,22.989,12592,591.12,0,591.12,0,0.00089869,1.9185e-09,0,0.00047699,0.00016794,2.643e+08,522.37,0,1.3055e+08,41.858,591.12,1
2044,5.43,12082,1,12082,1,0.00023164,-9.474e-10,0,0.00079738,-4.2211e-05,-2.9181,-273.65,0,2.3007e+08,-18.98,12081,13104,1,13104,1,0.0017364,1.778e-09,0,0.0017364,0.00023912,3.4317e+08,439.96,0,5.1778e+08,140.11,13103,12082,1,12082,1,0.00023165,-7.1787e-10,0,0.00078022,-4.2189e-05,6.5321e+07,-192.42,0,2.3573e+08,-22.501,12081,10985,1,10985,1,-0.0012731,-4.5071e-09,0,4.6999e-05,-0.00032347,-5.1778e+08,-1151.2,0,1.9077e+07,-163.48,10984,11571,1,11571,1,-0.00054857,-2.0224e-09,0,0.0003901,-0.00018803,-2.2308e+08,-560.71,0,1.2193e+08,-63.893,11570,12593,1,12593,1,0.0010119,2.2778e-10,0,0.0011703,0.00010345,2.3573e+08,46.84,0,3.1659e+08,23.675,12592,591.12,0,591.12,0,0.00090056,1.4468e-09,0,0.00047808,0.00016829,2.6467e+08,393.83,0,1.3072e+08,59.98,591.12,1
2044,5.44,12082,1,12082,1,0.00023255,-1.5155e-09,0,0.00079908,-4.2377e-05,-117.02,-419.28,0,2.304e+08,-51.376,12081,13104,1,13104,1,0.0017404,4.3082e-09,0,0.0017404,0.00023953,3.4326e+08,958.26,0,5.1867e+08,222.9,13103,12082,1,12082,1,0.00023255,-5.4462e-10,0,0.00078181,-4.2356e-05,6.5575e+07,-155.3,0,2.3611e+08,-30.154,12081,10985,1,10985,1,-0.0012753,-1.3197e-08,0,4.6669e-05,-0.00032421,-5.1867e+08,-3203.5,0,1.9006e+07,-363.26,10984,11571,1,11571,1,-0.00054926,-3.645e-09,0,0.0003909,-0.00018849,-2.2336e+08,-960.19,0,1.2215e+08,-107.92,11570,12593,1,12593,1,0.0010144,9.4858e-10,0,0.0011727,0.00010359,2.3611e+08,235.8,0,3.1671e+08,25.409,12592,591.12,0,591.12,0,0.00090241,3.8091e-09,0,0.00047917,0.00016864,2.6503e+08,945.77,0,1.3088e+08,102.78,591.12,1
2044,5.45,12082,1,12082,1,0.00023343,2.1353e-09,0,0.00080072,-4.2539e-05,-54.633,503.33,0,2.307e+08,53.934,12081,13104,1,13104,1,0.0017442,7.7039e-09,0,0.0017442,0.00023992,3.4331e+08,1588.2,0,5.1951e+08,161.17,13103,12082,1,12082,1,0.00023343,1.6841e-09,0,0.00078335,-4.252e-05,6.5826e+07,467.26,0,2.3646e+08,51.847,12081,10985,1,10985,1,-0.0012773,-3.4991e-10,0,4.6334e-05,-0.00032491,-5.1951e+08,-119.82,0,1.8873e+07,-70.559,10984,11571,1,11571,1,-0.00054992,8.3242e-10,0,0.00039168,-0.00018894,-2.2363e+08,232.09,0,1.2236e+08,12.31,11570,12593,1,12593,1,0.0010168,2.9621e-09,0,0.001175,0.00010371,2.3646e+08,687.67,0,3.1681e+08,93.175,12592,591.12,0,591.12,0,0.00090418,1.7667e-09,0,0.00048022,0.00016897,2.6537e+08,367.21,0,1.3103e+08,47.465,591.12,1
2044,5.46,12082,1,12082,1,0.00023433,-5.0578e-11,0,0.00080243,-4.2703e-05,-144.18,-6.2372,0,2.3104e+08,-14.871,12081,13104,1,13104,1,0.0017482,6.2672e-09,0,0.0017482,0.00024034,3.4341e+08,1544.8,0,5.2042e+08,196.63,13103,12082,1,12082,1,0.00023433,2.7524e-10,0,0.00078497,-4.2686e-05,6.6079e+07,61.135,0,2.3685e+08,-8.589,12081,10985,1,10985,1,-0.0012796,-9.2292e-09,0,4.6018e-05,-0.00032566,-5.2042e+08,-2251.8,0,1.8748e+07,-211.28,10984,11571,1,11571,1,-0.00055065,-1.9296e-09,0,0.00039249,-0.00018941,-2.2392e+08,-487.85,0,1.2258e+08,-64.181,11570,12593,1,12593,1,0.0010193,2.2015e-09,0,0.0011775,0.00010385,2.3685e+08,565.51,0,3.1696e+08,36.838,12592,591.12,0,591.12,0,0.00090606,3.2816e-09,0,0.00048131,0.00016931,2.6574e+08,841.83,0,1.312e+08,72.655,591.12,1
2044,5.47,12082,1,12082,1,0.00023525,3.9657e-10,0,0.00080415,-4.2871e-05,-45.206,101.88,0,2.3136e+08,-22.539,12081,13104,1,13104,1,0.0017523,1.2823e-08,0,0.0017523,0.00024075,3.4349e+08,3181.6,0,5.2132e+08,468.3,13103,12082,1,12082,1,0.00023524,5.8797e-10,0,0.00078659,-4.2855e-05,6.6337e+07,138.57,0,2.3722e+08,-23.863,12081,10985,1,10985,1,-0.0012818,-2.0523e-08,0,4.568e-05,-0.00032641,-5.2132e+08,-5084.1,0,1.8614e+07,-496.05,10984,11571,1,11571,1,-0.00055135,-2.794e-09,0,0.00039329,-0.00018988,-2.2421e+08,-713.12,0,1.228e+08,-106.28,11570,12593,1,12593,1,0.0010218,4.9097e-09,0,0.0011799,0.00010398,2.3722e+08,1253.6,0,3.1707e+08,83.382,12592,591.12,0,591.12,0,0.00090792,6.6693e-09,0,0.00048241,0.00016966,2.661e+08,1746.2,0,1.3136e+08,157.62,591.12,1
2044,5.48,12082,1,12082,1,0.00023613,3.7437e-09,0,0.00080574,-4.3033e-05,87.56,943.42,0,2.3165e+08,124.97,12081,13104,1,13104,1,0.0017561,1.1607e-08,0,0.0017561,0.00024113,3.4352e+08,2319.4,0,5.2214e+08,378.34,13103,12082,1,12082,1,0.00023612,3.8034e-09,0,0.00078809,-4.3018e-05,6.6586e+07,1049.9,0,2.3756e+08,117.88,12081,10985,1,10985,1,-0.0012838,-3.2354e-09,0,4.5332e-05,-0.00032711,-5.2214e+08,-584.15,0,1.8477e+07,-150.73,10984,11571,1,11571,1,-0.00055196,1.2273e-09,0,0.00039404,-0.00019032,-2.2446e+08,317.2,0,1.2301e+08,29.297,11570,12593,1,12593,1,0.0010242,6.2166e-09,0,0.0011821,0.0001041,2.3756e+08,1555,0,3.1715e+08,206.86,12592,591.12,0,591.12,0,0.00090966,3.0869e-09,0,0.00048344,0.00016998,2.6642e+08,724.4,0,1.315e+08,112.57,591.12,1
2044,5.49,12082,1,12082,1,0.00023702,1.2358e-09,0,0.00080746,-4.3197e-05,4.2929,368.84,0,2.3199e+08,18.215,12081,13104,1,13104,1,0.0017601,1.0248e-08,0,0.0017601,0.00024155,3.4362e+08,2610.2,0,5.2304e+08,264.04,13103,12082,1,12082,1,0.00023702,3.5481e-10,0,0.00078971,-4.3183e-05,6.6838e+07,91.291,0,2.3795e+08,7.454,12081,10985,1,10985,1,-0.001286,-8.754e-09,0,4.5016e-05,-0.00032785,-5.2304e+08,-2173,0,1.8352e+07,-186.04,10984,11571,1,11571,1,-0.00055269,-1.1188e-09,0,0.00039485,-0.00019078,-2.2475e+08,-241.04,0,1.2323e+08,-56.456,11570,12593,1,12593,1,0.0010267,4.0768e-09,0,0.0011846,0.00010423,2.3795e+08,1115.7,0,3.1729e+08,97.288,12592,591.12,0,591.12,0,0.00091152,3.944e-09,0,0.00048454,0.00017033,2.668e+08,1069.4,0,1.3167e+08,98.911,591.12,1
2044,5.5,12082,1,12082,1,0.00023794,9.0715e-11,0,0.00080918,-4.3366e-05,47.05,77.024,0,2.3231e+08,30.333,12081,13104,1,13104,1,0.0017641,1.2681e-08,0,0.0017641,0.00024196,3.4369e+08,3194.8,0,5.2394e+08,464.15,13103,12082,1,12082,1,0.00023794,2.0143e-10,0,0.00079134,-4.3354e-05,6.7099e+07,43.691,0,2.3833e+08,7.1929,12081,10985,1,10985,1,-0.0012882,-1.7171e-08,0,4.4674e-05,-0.0003286,-5.2394e+08,-4253,0,1.8217e+07,-340.79,10984,11571,1,11571,1,-0.00055339,-2.6942e-09,0,0.00039566,-0.00019125,-2.2504e+08,-627.1,0,1.2352e+08,-80.992,11570,12593,1,12593,1,0.0010293,3.6071e-09,0,0.001187,0.00010437,2.3833e+08,980.34,0,3.1741e+08,141.91,12592,591.12,0,591.12,0,0.0009134,5.596e-09,0,0.00048565,0.00017068,2.6716e+08,1511.4,0,1.3183e+08,153.66,591.12,1
2044,5.51,12082,1,12082,1,0.00023885,9.0672e-10,0,0.00081084,-4.3532e-05,6.0972,251.91,0,2.3262e+08,99.261,12081,13104,1,13104,1,0.001768,8.0649e-09,0,0.001768,0.00024235,3.4372e+08,2247,0,5.2479e+08,352.11,13103,12082,1,12082,1,0.00023885,6.6866e-10,0,0.00079289,-4.3522e-05,6.7356e+07,137.83,0,2.3868e+08,68.157,12081,10985,1,10985,1,-0.0012903,-8.0718e-09,0,4.4322e-05,-0.00032932,-5.2479e+08,-2242.1,0,1.8079e+07,-101.32,10984,11571,1,11571,1,-0.00055404,-6.4974e-10,0,0.00039644,-0.00019171,-2.253e+08,-130.98,0,1.2388e+08,6.2726,11570,12593,1,12593,1,0.0010317,2.4873e-09,0,0.0011893,0.00010449,2.3868e+08,742.37,0,3.1749e+08,201.25,12592,591.12,0,591.12,0,0.0009152,2.9806e-09,0,0.00048671,0.00017101,2.675e+08,869.03,0,1.3198e+08,111.04,591.12,1
2044,5.52,12082,1,12082,1,0.00023975,-3.6026e-10,0,0.00081251,-4.3698e-05,-14.815,-70.046,0,2.3293e+08,61.648,12081,13104,1,13104,1,0.001772,8.6959e-09,0,0.001772,0.00024276,3.4379e+08,2321.3,0,5.2566e+08,447.12,13103,12082,1,12082,1,0.00023975,-3.0209e-10,0,0.00079447,-4.3689e-05,6.761e+07,-61.959,0,2.3904e+08,45.758,12081,10985,1,10985,1,-0.0012925,-1.2824e-08,0,4.3985e-05,-0.00033005,-5.2566e+08,-3307.5,0,1.7947e+07,-218.81,10984,11571,1,11571,1,-0.00055472,-2.2375e-09,0,0.00039723,-0.00019217,-2.2558e+08,-553.86,0,1.2424e+08,-25.757,11570,12593,1,12593,1,0.0010342,1.9913e-09,0,0.0011917,0.00010462,2.3904e+08,525.47,0,3.1759e+08,148.46,12592,591.12,0,591.12,0,0.00091702,4.0334e-09,0,0.00048779,0.00017135,2.6785e+08,1130.2,0,1.3213e+08,120.58,591.12,1
2044,5.53,12082,1,12082,1,0.00024066,-2.9146e-09,0,0.00081418,-4.3863e-05,-214.78,-732.77,0,2.3324e+08,88.024,12081,13104,1,13104,1,0.0017759,4.392e-09,0,0.0017759,0.00024316,3.4385e+08,1314.8,0,5.2653e+08,397.3,13103,12082,1,12082,1,0.00024065,-2.631e-09,0,0.00079604,-4.3856e-05,6.7865e+07,-588.89,0,2.3941e+08,79.917,12081,10985,1,10985,1,-0.0012946,-1.3144e-08,0,4.3644e-05,-0.00033078,-5.2653e+08,-3463.3,0,1.7813e+07,-178.38,10984,11571,1,11571,1,-0.00055538,-5.1225e-09,0,0.00039802,-0.00019263,-2.2585e+08,-1274.7,0,1.246e+08,-11.659,11570,12593,1,12593,1,0.0010367,-1.218e-10,0,0.0011941,0.00010474,2.3941e+08,-30.752,0,3.177e+08,180.32,12592,591.12,0,591.12,0,0.00091883,3.4397e-09,0,0.00048886,0.00017169,2.682e+08,952.9,0,1.3229e+08,127.09,591.12,1
2044,5.54,12082,1,12082,1,0.00024157,5.9341e-10,0,0.00081588,-4.4031e-05,-413.49,112.53,0,2.3356e+08,41.37,12081,13104,1,13104,1,0.0017799,1.2851e-08,0,0.0017799,0.00024357,3.4391e+08,3221.3,0,5.2742e+08,540.89,13103,12082,1,12082,1,0.00024157,1.1948e-09,0,0.00079765,-4.4025e-05,6.8124e+07,274.97,0,2.3978e+08,50.156,12081,10985,1,10985,1,-0.0012968,-1.9823e-08,0,4.33e-05,-0.00033153,-5.2742e+08,-4965.8,0,1.7678e+07,-427.53,10984,11571,1,11571,1,-0.00055608,-2.0384e-09,0,0.00039882,-0.00019309,-2.2613e+08,-543.37,0,1.2497e+08,-61.127,11570,12593,1,12593,1,0.0010392,4.3538e-09,0,0.0011965,0.00010488,2.3978e+08,1065,0,3.178e+08,146.11,12592,591.12,0,591.12,0,0.00092069,6.101e-09,0,0.00048996,0.00017203,2.6855e+08,1644,0,1.3245e+08,161.44,591.12,1
2044,5.55,12082,1,12082,1,0.00024249,-9.3461e-10,0,0.00081755,-4.4199e-05,-95.876,-259.08,0,2.3387e+08,90.674,12081,13104,1,13104,1,0.0017839,8.0416e-09,0,0.0017839,0.00024396,3.4394e+08,2222.2,0,5.2827e+08,583.21,13103,12082,1,12082,1,0.00024248,-1.6902e-10,0,0.00079921,-4.4194e-05,6.8382e+07,-34.785,0,2.4013e+08,77.668,12081,10985,1,10985,1,-0.0012989,-1.6457e-08,0,4.2945e-05,-0.00033225,-5.2827e+08,-4400.5,0,1.7539e+07,-294.76,10984,11571,1,11571,1,-0.00055672,-2.4517e-09,0,0.0003996,-0.00019355,-2.264e+08,-659.32,0,1.2533e+08,-9.0001,11570,12593,1,12593,1,0.0010417,1.4883e-09,0,0.0011988,0.000105,2.4013e+08,348.37,0,3.1789e+08,190.47,12592,591.12,0,591.12,0,0.00092249,4.3219e-09,0,0.00049103,0.00017237,2.6889e+08,1232.2,0,1.326e+08,145.38,591.12,1
2044,5.56,12082,1,12082,1,0.0002434,-3.591e-09,0,0.00081922,-4.4366e-05,19.752,-940.5,0,2.3418e+08,88.525,12081,13104,1,13104,1,0.0017878,2.8477e-09,0,0.0017878,0.00024437,3.44e+08,790.17,0,5.2914e+08,479.22,13103,12082,1,12082,1,0.00024339,-3.5865e-09,0,0.00080078,-4.4362e-05,6.8639e+07,-854.37,0,2.4049e+08,79.845,12081,10985,1,10985,1,-0.001301,-1.4061e-08,0,4.2597e-05,-0.00033299,-5.2914e+08,-3897.4,0,1.7402e+07,-170.99,10984,11571,1,11571,1,-0.00055739,-6.1451e-09,0,0.00040039,-0.00019401,-2.2667e+08,-1547.7,0,1.2569e+08,-8.9902,11570,12593,1,12593,1,0.0010442,-6.3222e-10,0,0.0012012,0.00010512,2.4049e+08,-145.91,0,3.1798e+08,177.67,12592,591.12,0,591.12,0,0.00092431,3.5019e-09,0,0.00049211,0.00017271,2.6924e+08,957.89,0,1.3275e+08,124.19,591.12,1
2044,5.57,12082,1,12082,1,0.0002443,-1.4382e-09,0,0.00082086,-4.4532e-05,6.6343,-442.8,0,2.3448e+08,94.364,12081,13104,1,13104,1,0.0017917,4.1192e-09,0,0.0017917,0.00024475,3.4402e+08,733.92,0,5.2998e+08,292.58,13103,12082,1,12082,1,0.0002443,-1.6538e-09,0,0.00080234,-4.453e-05,6.8895e+07,-404.49,0,2.4085e+08,91.527,12081,10985,1,10985,1,-0.0013031,-6.8981e-09,0,4.2243e-05,-0.0003337,-5.2998e+08,-2129.7,0,1.7264e+07,-43.267,10984,11571,1,11571,1,-0.00055803,-2.9114e-09,0,0.00040116,-0.00019446,-2.2693e+08,-827.04,0,1.2605e+08,23.563,11570,12593,1,12593,1,0.0010466,4.0234e-11,0,0.0012035,0.00010525,2.4085e+08,9.3971,0,3.1806e+08,154.64,12592,591.12,0,591.12,0,0.00092609,2.1773e-09,0,0.00049317,0.00017304,2.6957e+08,589.03,0,1.329e+08,77.067,591.12,1
2044,5.58,12082,1,12082,1,0.00024519,1.2457e-09,0,0.00082247,-4.4695e-05,54.604,247.41,0,2.3477e+08,97.473,12081,13104,1,13104,1,0.0017955,1.3364e-08,0,0.0017955,0.00024513,3.4406e+08,2762,0,5.3081e+08,379.79,13103,12082,1,12082,1,0.00024519,6.085e-11,0,0.00080385,-4.4696e-05,6.9148e+07,13.584,0,2.4119e+08,91.473,12081,10985,1,10985,1,-0.0013051,-3.6466e-09,0,4.1895e-05,-0.0003344,-5.3081e+08,-753.26,0,1.7128e+07,-177.74,10984,11571,1,11571,1,-0.00055866,-1.0456e-09,0,0.00040193,-0.00019491,-2.2718e+08,-307.12,0,1.264e+08,23.565,11570,12593,1,12593,1,0.001049,2.621e-09,0,0.0012058,0.00010537,2.4119e+08,614.21,0,3.1814e+08,164.65,12592,591.12,0,591.12,0,0.00092784,3.4545e-09,0,0.00049421,0.00017337,2.699e+08,776.38,0,1.3304e+08,102.34,591.12,1
2044,5.59,12082,1,12082,1,0.00024611,8.604e-10,0,0.00082421,-4.4864e-05,-17.295,200.79,0,2.3511e+08,-21.918,12081,13104,1,13104,1,0.0017996,6.699e-09,0,0.0017996,0.00024555,3.4414e+08,1569,0,5.3171e+08,147.57,13103,12082,1,12082,1,0.00024611,5.9038e-10,0,0.00080548,-4.4867e-05,6.9408e+07,140.33,0,2.4157e+08,-6.3096,12081,10985,1,10985,1,-0.0013073,-7.7905e-09,0,4.1559e-05,-0.00033516,-5.3171e+08,-1886.6,0,1.6997e+07,-223.56,10984,11571,1,11571,1,-0.00055937,-7.9267e-10,0,0.00040274,-0.00019538,-2.2747e+08,-221.4,0,1.2677e+08,-61.714,11570,12593,1,12593,1,0.0010516,3.1649e-09,0,0.0012082,0.0001055,2.4157e+08,792.9,0,3.1826e+08,32.763,12592,591.12,0,591.12,0,0.00092973,3.0826e-09,0,0.00049533,0.00017372,2.7027e+08,759.61,0,1.3321e+08,73.591,591.12,1
2044,5.6,12082,1,12082,1,0.00024705,-2.2568e-12,0,0.00082591,-4.5037e-05,-85.709,6.0594,0,2.3541e+08,9.1106,12081,13104,1,13104,1,0.0018036,6.6679e-09,0,0.0018036,0.00024596,3.4416e+08,1675.4,0,5.3258e+08,308.4,13103,12082,1,12082,1,0.00024705,2.3295e-10,0,0.00080708,-4.504e-05,6.9673e+07,51.868,0,2.4193e+08,9.0526,12081,10985,1,10985,1,-0.0013095,-1.1045e-08,0,4.119e-05,-0.0003359,-5.3258e+08,-2749.4,0,1.6854e+07,-238.87,10984,11571,1,11571,1,-0.00056003,-1.7392e-09,0,0.00040354,-0.00019585,-2.2774e+08,-433.66,0,1.2714e+08,-47.669,11570,12593,1,12593,1,0.0010541,2.2349e-09,0,0.0012106,0.00010562,2.4193e+08,587.25,0,3.1834e+08,60.448,12592,591.12,0,591.12,0,0.00093157,3.4976e-09,0,0.00049643,0.00017406,2.7062e+08,932.02,0,1.3336e+08,90.341,591.12,1
2044,5.61,12082,1,12082,1,0.00024797,2.7953e-09,0,0.00082754,-4.5205e-05,107.29,698.39,0,2.3571e+08,89.548,12081,13104,1,13104,1,0.0018075,7.6773e-09,0,0.0018075,0.00024634,3.4418e+08,1807.1,0,5.3342e+08,276.32,13103,12082,1,12082,1,0.00024797,2.7765e-09,0,0.00080861,-4.521e-05,6.9932e+07,754.49,0,2.4227e+08,87.951,12081,10985,1,10985,1,-0.0013115,-2.4011e-09,0,4.0821e-05,-0.00033662,-5.3342e+08,-437.49,0,1.671e+07,-182.41,10984,11571,1,11571,1,-0.00056065,9.2081e-10,0,0.00040431,-0.00019631,-2.2799e+08,215.05,0,1.275e+08,17.394,11570,12593,1,12593,1,0.0010566,4.8024e-09,0,0.0012129,0.00010574,2.4227e+08,1150.6,0,3.184e+08,163.21,12592,591.12,0,591.12,0,0.00093335,2.357e-09,0,0.00049749,0.00017439,2.7094e+08,569.55,0,1.3351e+08,92.153,591.12,1
2044,5.62,12082,1,12082,1,0.0002489,-2.4389e-10,0,0.00082925,-4.5375e-05,44.284,-7.0613,0,2.3602e+08,25.809,12081,13104,1,13104,1,0.0018115,2.6077e-09,0,0.0018115,0.00024675,3.4423e+08,814.32,0,5.343e+08,196.17,13103,12082,1,12082,1,0.00024889,-1.9497e-10,0,0.00081023,-4.5382e-05,7.0194e+07,-46.449,0,2.4264e+08,10.392,12081,10985,1,10985,1,-0.0013137,-2.9557e-09,0,4.0468e-05,-0.00033736,-5.343e+08,-740.61,0,1.6573e+07,-150.28,10984,11571,1,11571,1,-0.00056133,-1.317e-09,0,0.00040511,-0.00019677,-2.2827e+08,-272.04,0,1.2787e+08,-10.114,11570,12593,1,12593,1,0.0010591,7.9406e-10,0,0.0012153,0.00010587,2.4264e+08,248.26,0,3.185e+08,67.849,12592,591.12,0,591.12,0,0.0009352,1.2496e-09,0,0.00049859,0.00017473,2.713e+08,329.72,0,1.3367e+08,59.457,591.12,1
2044,5.63,12082,1,12082,1,0.00024984,1.4864e-09,0,0.00083096,-4.5548e-05,0.93707,394.1,0,2.3634e+08,5.9288,12081,13104,1,13104,1,0.0018155,8.4321e-09,0,0.0018155,0.00024715,3.4426e+08,2096.2,0,5.3518e+08,158.77,13103,12082,1,12082,1,0.00024984,9.3331e-10,0,0.00081183,-4.5556e-05,7.046e+07,234.06,0,2.43e+08,3.781,12081,10985,1,10985,1,-0.0013159,-4.7702e-09,0,4.01e-05,-0.00033811,-5.3518e+08,-1203.4,0,1.6431e+07,-183.2,10984,11571,1,11571,1,-0.00056199,-2.8319e-10,0,0.00040591,-0.00019725,-2.2854e+08,-55.266,0,1.2825e+08,-51.282,11570,12593,1,12593,1,0.0010617,3.1397e-09,0,0.0012177,0.000106,2.43e+08,833.86,0,3.1858e+08,59.801,12592,591.12,0,591.12,0,0.00093706,2.5984e-09,0,0.0004997,0.00017508,2.7165e+08,688.89,0,1.3382e+08,67.032,591.12,1
2044,5.64,12082,1,12082,1,0.00025079,1.6034e-09,0,0.00083266,-4.5721e-05,-69.09,445.66,0,2.3664e+08,29.596,12081,13104,1,13104,1,0.0018196,1.5311e-08,0,0.0018196,0.00024756,3.4428e+08,3820.1,0,5.3605e+08,349.51,13103,12082,1,12082,1,0.00025078,5.2139e-10,0,0.00081343,-4.5731e-05,7.0727e+07,138.06,0,2.4336e+08,20.964,12081,10985,1,10985,1,-0.001318,-8.1678e-09,0,3.9724e-05,-0.00033886,-5.3605e+08,-2044.7,0,1.6286e+07,-407.07,10984,11571,1,11571,1,-0.00056264,-2.3135e-09,0,0.00040671,-0.00019772,-2.288e+08,-540.04,0,1.2862e+08,-92.544,11570,12593,1,12593,1,0.0010642,5.4169e-09,0,0.0012201,0.00010612,2.4336e+08,1391,0,3.1865e+08,151.4,12592,591.12,0,591.12,0,0.0009389,5.6321e-09,0,0.0005008,0.00017542,2.7199e+08,1485.4,0,1.3398e+08,140.28,591.12,1
2044,5.65,12082,1,12082,1,0.00025173,-5.8697e-09,0,0.00083435,-4.5894e-05,-148.67,-1431.2,0,2.3695e+08,114.53,12081,13104,1,13104,1,0.0018236,2.0428e-09,0,0.0018236,0.00024796,3.4431e+08,699.48,0,5.3692e+08,567,13103,12082,1,12082,1,0.00025172,-6.2438e-09,0,0.00081501,-4.5905e-05,7.0993e+07,-1585.4,0,2.4372e+08,98.165,12081,10985,1,10985,1,-0.0013201,-1.3933e-08,0,3.935e-05,-0.0003396,-5.3692e+08,-3393.9,0,1.6141e+07,-234.35,10984,11571,1,11571,1,-0.00056329,-9.7445e-09,0,0.00040751,-0.00019818,-2.2907e+08,-2352.3,0,1.2899e+08,9.9305,11570,12593,1,12593,1,0.0010667,-2.1352e-09,0,0.0012225,0.00010624,2.4372e+08,-532.91,0,3.1872e+08,196.99,12592,591.12,0,591.12,0,0.00094073,4.2996e-09,0,0.0005019,0.00017576,2.7233e+08,1044.6,0,1.3413e+08,140.65,591.12,1
2044,5.66,12082,1,12082,1,0.0002527,-1.3814e-09,0,0.00083603,-4.6073e-05,-40.028,-415.18,0,2.3724e+08,77.404,12081,13104,1,13104,1,0.0018276,4.0629e-09,0,0.0018276,0.00024834,3.4429e+08,755.3,0,5.3775e+08,322.29,13103,12082,1,12082,1,0.0002527,-1.0458e-09,0,0.00081659,-4.6085e-05,7.1268e+07,-233.85,0,2.4405e+08,69.549,12081,10985,1,10985,1,-0.0013222,-7.9815e-09,0,3.8934e-05,-0.00034034,-5.3775e+08,-2268.4,0,1.5981e+07,-376.04,10984,11571,1,11571,1,-0.00056389,-2.9451e-09,0,0.00040829,-0.00019865,-2.2931e+08,-837.87,0,1.2937e+08,12.281,11570,12593,1,12593,1,0.0010693,3.3672e-10,0,0.0012249,0.00010636,2.4405e+08,85.183,0,3.1875e+08,155.18,12592,591.12,0,591.12,0,0.00094255,2.3399e-09,0,0.000503,0.0001761,2.7265e+08,648.18,0,1.3427e+08,103.09,591.12,1
2044,5.67,12082,1,12082,1,0.00025371,1.6905e-09,0,0.00083775,-4.6259e-05,-58.838,342.68,0,2.3753e+08,71.148,12081,13104,1,13104,1,0.0018317,5.7348e-09,0,0.0018317,0.00024873,3.4428e+08,1345.3,0,5.386e+08,310.22,13103,12082,1,12082,1,0.00025371,1.8085e-09,0,0.0008182,-4.6273e-05,7.1555e+07,408.86,0,2.4437e+08,47.451,12081,10985,1,10985,1,-0.0013243,-3.0619e-09,0,3.8497e-05,-0.0003411,-5.386e+08,-1047.1,0,1.5812e+07,-87.46,10984,11571,1,11571,1,-0.00056449,-3.2325e-10,0,0.0004091,-0.00019914,-2.2955e+08,-91.237,0,1.2976e+08,6.8411,11570,12593,1,12593,1,0.0010719,3.7563e-09,0,0.0012273,0.00010647,2.4437e+08,815.27,0,3.1879e+08,131.79,12592,591.12,0,591.12,0,0.00094441,2.2299e-09,0,0.00050412,0.00017644,2.7297e+08,546.34,0,1.3442e+08,88.263,591.12,1
2044,5.68,12082,1,12082,1,0.00025474,-2.2804e-09,0,0.00083947,-4.6448e-05,-20.066,-588.64,0,2.3781e+08,44.633,12081,13104,1,13104,1,0.0018358,1.7823e-09,0,0.0018358,0.00024912,3.4424e+08,609.06,0,5.3944e+08,233.51,13103,12082,1,12082,1,0.00025474,-1.816e-09,0,0.00081981,-4.6464e-05,7.1845e+07,-386.23,0,2.4469e+08,45.407,12081,10985,1,10985,1,-0.0013263,-9.1335e-09,0,3.8046e-05,-0.00034186,-5.3944e+08,-2373.9,0,1.5639e+07,-413.73,10984,11571,1,11571,1,-0.00056506,-3.8291e-09,0,0.0004099,-0.00019963,-2.2979e+08,-1007.7,0,1.3016e+08,-5.7295,11570,12593,1,12593,1,0.0010745,-3.3923e-10,0,0.0012297,0.00010658,2.4469e+08,-78.337,0,3.1881e+08,112.56,12592,591.12,0,591.12,0,0.00094626,2.449e-09,0,0.00050526,0.00017679,2.7329e+08,671.01,0,1.3456e+08,89.486,591.12,1
2044,5.69,12082,1,12082,1,0.00025577,1.4804e-09,0,0.00084119,-4.6636e-05,-41.9,320.29,0,2.3809e+08,67.662,12081,13104,1,13104,1,0.0018399,5.5309e-09,0,0.0018399,0.00024951,3.442e+08,1131.4,0,5.4028e+08,198.35,13103,12082,1,12082,1,0.00025577,1.4416e-09,0,0.00082141,-4.6655e-05,7.2136e+07,338.2,0,2.45e+08,58.861,12081,10985,1,10985,1,-0.0013284,-1.375e-09,0,3.7587e-05,-0.00034262,-5.4028e+08,-470.44,0,1.5463e+07,-49.096,10984,11571,1,11571,1,-0.00056564,9.7425e-11,0,0.0004107,-0.00020011,-2.3002e+08,29.077,0,1.3056e+08,17.869,11570,12593,1,12593,1,0.0010772,2.7298e-09,0,0.0012321,0.00010669,2.45e+08,601.94,0,3.1883e+08,112.85,12592,591.12,0,591.12,0,0.00094811,1.6036e-09,0,0.00050638,0.00017713,2.736e+08,375.56,0,1.347e+08,57.17,591.12,1
2044,5.7,12082,1,12082,1,0.00025682,7.9556e-10,0,0.00084295,-4.6829e-05,78.263,184.65,0,2.3838e+08,24.423,12081,13104,1,13104,1,0.0018442,5.8864e-09,0,0.0018442,0.00024991,3.4417e+08,1513.6,0,5.4115e+08,189.19,13103,12082,1,12082,1,0.00025682,6.6568e-10,0,0.00082306,-4.6849e-05,7.2432e+07,138.63,0,2.4533e+08,26.062,12081,10985,1,10985,1,-0.0013305,-3.4585e-09,0,3.7131e-05,-0.0003434,-5.4115e+08,-985.43,0,1.5288e+07,-223.03,10984,11571,1,11571,1,-0.00056624,-5.2627e-10,0,0.00041153,-0.00020061,-2.3026e+08,-137.63,0,1.3096e+08,-26.358,11570,12593,1,12593,1,0.0010799,1.9982e-09,0,0.0012346,0.0001068,2.4533e+08,498.76,0,3.1886e+08,72.901,12592,591.12,0,591.12,0,0.00095002,2.1236e-09,0,0.00050754,0.00017749,2.7393e+08,585.83,0,1.3485e+08,67.464,591.12,1
2044,5.71,12082,1,12082,1,0.00025787,4.4447e-10,0,0.0008447,-4.7022e-05,-100.58,105.3,0,2.3866e+08,40.836,12081,13104,1,13104,1,0.0018484,5.5863e-09,0,0.0018484,0.0002503,3.4412e+08,1427.3,0,5.4199e+08,211.08,13103,12082,1,12082,1,0.00025787,2.5817e-10,0,0.00082468,-4.7044e-05,7.273e+07,56.568,0,2.4564e+08,37.855,12081,10985,1,10985,1,-0.0013326,-4.7173e-09,0,3.6659e-05,-0.00034418,-5.4199e+08,-1354.2,0,1.5107e+07,-77.654,10984,11571,1,11571,1,-0.00056681,-8.0435e-10,0,0.00041234,-0.00020111,-2.305e+08,-209.3,0,1.3136e+08,-8.3194,11570,12593,1,12593,1,0.0010826,1.4356e-09,0,0.001237,0.00010691,2.4564e+08,348.63,0,3.1886e+08,84.43,12592,591.12,0,591.12,0,0.00095189,2.0655e-09,0,0.00050869,0.00017783,2.7424e+08,588.37,0,1.3499e+08,60.542,591.12,1
2044,5.72,12082,1,12082,1,0.00025892,1.7768e-09,0,0.00084644,-4.7215e-05,-203.81,458.3,0,2.3895e+08,52.865,12081,13104,1,13104,1,0.0018526,8.5717e-09,0,0.0018526,0.0002507,3.4407e+08,2177.7,0,5.4285e+08,238.43,13103,12082,1,12082,1,0.00025892,1.2944e-09,0,0.00082631,-4.7239e-05,7.3027e+07,253.07,0,2.4596e+08,51.97,12081,10985,1,10985,1,-0.0013347,-3.1085e-09,0,3.6188e-05,-0.00034495,-5.4285e+08,-968.1,0,1.4928e+07,-103.52,10984,11571,1,11571,1,-0.00056739,-6.6567e-11,0,0.00041315,-0.0002016,-2.3073e+08,-18.769,0,1.3177e+08,-2.4969,11570,12593,1,12593,1,0.0010852,3.2909e-09,0,0.0012395,0.00010702,2.4596e+08,861.8,0,3.1887e+08,105.97,12592,591.12,0,591.12,0,0.00095378,2.5923e-09,0,0.00050985,0.00017818,2.7456e+08,729.81,0,1.3513e+08,69.381,591.12,1
2044,5.73,12082,1,12082,1,0.00025997,-4.6771e-09,0,0.00084816,-4.7408e-05,5.053,-1126,0,2.3922e+08,69.36,12081,13104,1,13104,1,0.0018567,1.8694e-09,0,0.0018567,0.00025108,3.4402e+08,561.54,0,5.4368e+08,408.73,13103,12082,1,12082,1,0.00025997,-4.8483e-09,0,0.0008279,-4.7433e-05,7.3323e+07,-1233.7,0,2.4626e+08,49.948,12081,10985,1,10985,1,-0.0013367,-1.3148e-08,0,3.5709e-05,-0.00034572,-5.4368e+08,-3130.4,0,1.4746e+07,-493.91,10984,11571,1,11571,1,-0.00056794,-7.7115e-09,0,0.00041395,-0.00020209,-2.3096e+08,-1750.8,0,1.3217e+08,0.92565,11570,12593,1,12593,1,0.0010879,-1.6994e-09,0,0.0012419,0.00010712,2.4626e+08,-453.93,0,3.1886e+08,143.81,12592,591.12,0,591.12,0,0.00095562,3.4895e-09,0,0.00051098,0.00017853,2.7486e+08,823.48,0,1.3527e+08,123.67,591.12,1
2044,5.74,12082,1,12082,1,0.00026102,-1.9634e-09,0,0.00084989,-4.7599e-05,-68.465,-558.13,0,2.395e+08,54.029,12081,13104,1,13104,1,0.0018608,2.5909e-09,0,0.0018608,0.00025147,3.4396e+08,433.02,0,5.4451e+08,202.06,13103,12082,1,12082,1,0.00026101,-1.765e-09,0,0.00082953,-4.7627e-05,7.3618e+07,-409.75,0,2.4658e+08,47.495,12081,10985,1,10985,1,-0.0013388,-7.3261e-09,0,3.5242e-05,-0.00034648,-5.4451e+08,-2069.3,0,1.4568e+07,-205.19,10984,11571,1,11571,1,-0.00056851,-3.3577e-09,0,0.00041475,-0.00020258,-2.3119e+08,-939.84,0,1.3257e+08,6.5722,11570,12593,1,12593,1,0.0010905,-5.0592e-10,0,0.0012443,0.00010723,2.4658e+08,-130.32,0,3.1887e+08,104.51,12592,591.12,0,591.12,0,0.00095748,2.0223e-09,0,0.00051212,0.00017887,2.7518e+08,572.72,0,1.3541e+08,64.51,591.12,1
2044,5.75,12082,1,12082,1,0.00026207,8.7799e-10,0,0.00085162,-4.7793e-05,6.3508,138.89,0,2.3978e+08,64.1,12081,13104,1,13104,1,0.001865,5.6868e-09,0,0.001865,0.00025185,3.4391e+08,1063.8,0,5.4535e+08,215.52,13103,12082,1,12082,1,0.00026206,4.4828e-10,0,0.00083115,-4.7822e-05,7.3916e+07,127.65,0,2.4689e+08,55.407,12081,10985,1,10985,1,-0.0013409,-1.8851e-09,0,3.4767e-05,-0.00034725,-5.4535e+08,-645.15,0,1.4389e+07,-104.86,10984,11571,1,11571,1,-0.00056908,-4.7385e-10,0,0.00041557,-0.00020307,-2.3142e+08,-143.64,0,1.3297e+08,11.947,11570,12593,1,12593,1,0.0010932,1.9153e-09,0,0.0012467,0.00010734,2.4689e+08,379.43,0,3.1887e+08,117.77,12592,591.12,0,591.12,0,0.00095935,1.7604e-09,0,0.00051327,0.00017922,2.7549e+08,384.2,0,1.3555e+08,63.23,591.12,1
2044,5.76,12082,1,12082,1,0.00026314,1.6687e-10,0,0.0008534,-4.7989e-05,-1.5601,13.87,0,2.4006e+08,-11.815,12081,13104,1,13104,1,0.0018693,6.0408e-09,0,0.0018693,0.00025225,3.4386e+08,1481,0,5.4622e+08,130.78,13103,12082,1,12082,1,0.00026313,1.3192e-10,0,0.0008328,-4.8021e-05,7.4218e+07,28.393,0,2.4721e+08,1.4754,12081,10985,1,10985,1,-0.001343,-5.5945e-09,0,3.4291e-05,-0.00034804,-5.4622e+08,-1484.5,0,1.4209e+07,-318.83,10984,11571,1,11571,1,-0.00056966,-1.536e-09,0,0.0004164,-0.00020358,-2.3166e+08,-413.98,0,1.3338e+08,-58.564,11570,12593,1,12593,1,0.0010959,1.9146e-09,0,0.0012492,0.00010745,2.4721e+08,454.67,0,3.1888e+08,39.07,12592,591.12,0,591.12,0,0.00096126,2.7612e-09,0,0.00051444,0.00017957,2.7581e+08,729.57,0,1.3569e+08,65.963,591.12,1
2044,5.77,12082,1,12082,1,0.00026422,-1.7071e-09,0,0.00085517,-4.8187e-05,95.064,-433.88,0,2.4035e+08,53.364,12081,13104,1,13104,1,0.0018735,3.1685e-09,0,0.0018735,0.00025265,3.438e+08,611.83,0,5.4707e+08,270.91,13103,12082,1,12082,1,0.00026421,-1.706e-09,0,0.00083445,-4.822e-05,7.4523e+07,-421.63,0,2.4753e+08,51.25,12081,10985,1,10985,1,-0.0013451,-6.5464e-09,0,3.38e-05,-0.00034883,-5.4707e+08,-1706.6,0,1.4024e+07,-352.93,10984,11571,1,11571,1,-0.00057023,-3.0518e-09,0,0.00041722,-0.00020408,-2.3189e+08,-717.4,0,1.338e+08,-3.3023,11570,12593,1,12593,1,0.0010987,-1.0164e-10,0,0.0012517,0.00010756,2.4753e+08,-25.166,0,3.1887e+08,108.71,12592,591.12,0,591.12,0,0.00096316,1.9562e-09,0,0.00051561,0.00017993,2.7613e+08,516.63,0,1.3583e+08,93.763,591.12,1
2044,5.78,12082,1,12082,1,0.00026529,9.208e-10,0,0.00085692,-4.8385e-05,44.568,177.98,0,2.4062e+08,30.786,12081,13104,1,13104,1,0.0018778,7.2225e-09,0,0.0018778,0.00025304,3.4372e+08,1817,0,5.4791e+08,204.34,13103,12082,1,12082,1,0.00026529,1.0503e-09,0,0.00083608,-4.842e-05,7.4827e+07,228.65,0,2.4784e+08,40.149,12081,10985,1,10985,1,-0.0013472,-5.8161e-09,0,3.3304e-05,-0.00034961,-5.4791e+08,-1702.3,0,1.3838e+07,-372.33,10984,11571,1,11571,1,-0.00057079,-8.4246e-10,0,0.00041803,-0.00020458,-2.3211e+08,-247.98,0,1.3421e+08,-40.267,11570,12593,1,12593,1,0.0011014,2.8949e-09,0,0.0012541,0.00010766,2.4784e+08,652.21,0,3.1886e+08,104.93,12592,591.12,0,591.12,0,0.00096505,3.0506e-09,0,0.00051678,0.00018028,2.7643e+08,820.47,0,1.3597e+08,91.118,591.12,1
2044,5.79,12082,1,12082,1,0.00026636,-5.3804e-10,0,0.00085864,-4.8581e-05,42.963,-160.36,0,2.4089e+08,124.29,12081,13104,1,13104,1,0.0018819,6.8933e-09,0,0.0018819,0.00025342,3.4363e+08,1274.1,0,5.4873e+08,299.85,13103,12082,1,12082,1,0.00026635,-7.7783e-10,0,0.00083768,-4.8617e-05,7.5128e+07,-223.75,0,2.4813e+08,125.2,12081,10985,1,10985,1,-0.0013492,-5.4208e-09,0,3.2811e-05,-0.00035037,-5.4873e+08,-1089,0,1.3653e+07,-82.643,10984,11571,1,11571,1,-0.00057132,-1.4539e-09,0,0.00041884,-0.00020507,-2.3233e+08,-448.58,0,1.3461e+08,43.215,11570,12593,1,12593,1,0.001104,5.8573e-10,0,0.0012565,0.00010777,2.4813e+08,128.16,0,3.1883e+08,193.24,12592,591.12,0,591.12,0,0.00096689,2.3188e-09,0,0.00051792,0.00018062,2.7673e+08,478.21,0,1.3611e+08,90.16,591.12,1
2044,5.8,12082,1,12082,1,0.00026742,3.0208e-09,0,0.00086035,-4.8775e-05,21.502,710.34,0,2.4116e+08,62.262,12081,13104,1,13104,1,0.0018861,1.0224e-08,0,0.0018861,0.0002538,3.4357e+08,2169.5,0,5.4956e+08,435.83,13103,12082,1,12082,1,0.00026741,2.5911e-09,0,0.00083928,-4.8814e-05,7.5428e+07,692.88,0,2.4844e+08,54.15,12081,10985,1,10985,1,-0.0013512,-1.267e-09,0,3.2326e-05,-0.00035114,-5.4956e+08,-433.79,0,1.3471e+07,-284.04,10984,11571,1,11571,1,-0.00057187,1.0125e-09,0,0.00041964,-0.00020557,-2.3255e+08,253.76,0,1.3502e+08,2.1186,11570,12593,1,12593,1,0.0011067,4.8583e-09,0,0.0012589,0.00010787,2.4844e+08,1121,0,3.1882e+08,108.76,12592,591.12,0,591.12,0,0.00096874,2.6059e-09,0,0.00051906,0.00018096,2.7704e+08,575.82,0,1.3624e+08,92.175,591.12,1
2044,5.81,12082,1,12082,1,0.0002685,-1.4973e-09,0,0.00086215,-4.8974e-05,-126.01,-337.31,0,2.4145e+08,-16.158,12081,13104,1,13104,1,0.0018903,3.4659e-09,0,0.0018903,0.0002542,3.4351e+08,876.13,0,5.5043e+08,188.75,13103,12082,1,12082,1,0.0002685,-8.4135e-10,0,0.00084095,-4.9015e-05,7.5733e+07,-197.21,0,2.4876e+08,-16.571,12081,10985,1,10985,1,-0.0013534,-7.4386e-09,0,3.1841e-05,-0.00035193,-5.5043e+08,-1690.3,0,1.3291e+07,-330,10984,11571,1,11571,1,-0.00057245,-3.428e-09,0,0.00042048,-0.00020607,-2.3279e+08,-814.55,0,1.3543e+08,-67.013,11570,12593,1,12593,1,0.0011094,3.345e-10,0,0.0012614,0.00010798,2.4876e+08,89.406,0,3.1882e+08,23,12592,591.12,0,591.12,0,0.00097067,2.5877e-09,0,0.00052025,0.00018132,2.7736e+08,629.18,0,1.3639e+08,78.231,591.12,1
2044,5.82,12082,1,12082,1,0.00026959,-2.0253e-10,0,0.0008639,-4.9175e-05,-58.391,-49.757,0,2.4172e+08,28.518,12081,13104,1,13104,1,0.0018946,4.4069e-09,0,0.0018946,0.00025459,3.4342e+08,1169.8,0,5.5127e+08,196.83,13103,12082,1,12082,1,0.00026959,-4.0822e-11,0,0.00084258,-4.9217e-05,7.6042e+07,-8.0777,0,2.4906e+08,26.416,12081,10985,1,10985,1,-0.0013554,-4.8495e-09,0,3.1332e-05,-0.00035272,-5.5127e+08,-1271.3,0,1.3102e+07,-293.91,10984,11571,1,11571,1,-0.00057299,-1.2713e-09,0,0.00042129,-0.00020658,-2.3301e+08,-320.42,0,1.3585e+08,-17.391,11570,12593,1,12593,1,0.0011122,8.3573e-10,0,0.0012639,0.00010808,2.4906e+08,206.74,0,3.1879e+08,73.074,12592,591.12,0,591.12,0,0.00097255,1.8133e-09,0,0.00052142,0.00018167,2.7766e+08,501.87,0,1.3653e+08,67.49,591.12,1
2044,5.83,12082,1,12082,1,0.00027068,-1.5405e-09,0,0.00086567,-4.9375e-05,-307.47,-390.98,0,2.42e+08,50.456,12081,13104,1,13104,1,0.0018989,3.6454e-09,0,0.0018989,0.00025498,3.4334e+08,1056.9,0,5.5212e+08,250.1,13103,12082,1,12082,1,0.00027068,-1.2575e-09,0,0.00084422,-4.9419e-05,7.6349e+07,-251.53,0,2.4937e+08,50.755,12081,10985,1,10985,1,-0.0013575,-8.0774e-09,0,3.0829e-05,-0.00035351,-5.5212e+08,-2081.7,0,1.2915e+07,-362.04,10984,11571,1,11571,1,-0.00057355,-2.9857e-09,0,0.00042211,-0.00020708,-2.3323e+08,-778.13,0,1.3626e+08,-0.5435,11570,12593,1,12593,1,0.0011149,2.1071e-10,0,0.0012663,0.00010819,2.4937e+08,55.185,0,3.1877e+08,109.34,12592,591.12,0,591.12,0,0.00097445,2.3249e-09,0,0.00052259,0.00018202,2.7797e+08,636.12,0,1.3667e+08,81.052,591.12,1
2044,5.84,12082,1,12082,1,0.00027177,-7.7361e-10,0,0.00086743,-4.9576e-05,-153.3,-236.77,0,2.4227e+08,14.8,12081,13104,1,13104,1,0.0019031,7.8171e-09,0,0.0019031,0.00025537,3.4325e+08,1963.7,0,5.5296e+08,358.15,13103,12082,1,12082,1,0.00027177,-9.8849e-11,0,0.00084586,-4.9621e-05,7.6658e+07,-22.804,0,2.4967e+08,35.605,12081,10985,1,10985,1,-0.0013596,-1.2693e-08,0,3.0319e-05,-0.00035429,-5.5296e+08,-3364,0,1.2726e+07,-817.38,10984,11571,1,11571,1,-0.00057409,-3.5882e-09,0,0.00042292,-0.00020758,-2.3346e+08,-934.74,0,1.3668e+08,-94.085,11570,12593,1,12593,1,0.0011176,2.1841e-09,0,0.0012688,0.00010829,2.4967e+08,506.55,0,3.1875e+08,143.34,12592,591.12,0,591.12,0,0.00097634,4.6039e-09,0,0.00052377,0.00018237,2.7828e+08,1238.9,0,1.3681e+08,164.85,591.12,1
2044,5.85,12082,1,12082,1,0.00027287,2.5611e-10,0,0.00086918,-4.9776e-05,70.138,11.595,0,2.4254e+08,88.023,12081,13104,1,13104,1,0.0019073,6.2744e-09,0,0.0019073,0.00025575,3.4316e+08,1738.3,0,5.5379e+08,342.41,13103,12082,1,12082,1,0.00027286,5.1504e-10,0,0.00084749,-4.9824e-05,7.6966e+07,121.47,0,2.4998e+08,67.448,12081,10985,1,10985,1,-0.0013616,-6.6147e-09,0,2.9808e-05,-0.00035507,-5.5379e+08,-1997.3,0,1.2538e+07,-257.92,10984,11571,1,11571,1,-0.00057463,-1.5122e-09,0,0.00042374,-0.00020809,-2.3367e+08,-379.67,0,1.3709e+08,7.0476,11570,12593,1,12593,1,0.0011203,2.316e-09,0,0.0012712,0.00010839,2.4998e+08,491.75,0,3.1871e+08,152.85,12592,591.12,0,591.12,0,0.00097822,2.9665e-09,0,0.00052494,0.00018272,2.7858e+08,841.2,0,1.3695e+08,107.62,591.12,1
2044,5.86,12082,1,12082,1,0.00027395,-1.8515e-09,0,0.0008709,-4.9975e-05,-27.853,-498.86,0,2.428e+08,127.08,12081,13104,1,13104,1,0.0019115,4.7204e-09,0,0.0019115,0.00025613,3.4305e+08,807.2,0,5.546e+08,374.67,13103,12082,1,12082,1,0.00027394,-2.0596e-09,0,0.00084909,-5.0024e-05,7.7272e+07,-513.19,0,2.5027e+08,112.38,12081,10985,1,10985,1,-0.0013636,-6.4671e-09,0,2.9299e-05,-0.00035584,-5.546e+08,-1773.9,0,1.235e+07,-73.078,10984,11571,1,11571,1,-0.00057514,-3.6967e-09,0,0.00042454,-0.00020858,-2.3388e+08,-897.58,0,1.375e+08,36.233,11570,12593,1,12593,1,0.001123,-7.7682e-11,0,0.0012736,0.00010849,2.5027e+08,-22.438,0,3.1867e+08,193.62,12592,591.12,0,591.12,0,0.00098006,2.2984e-09,0,0.00052609,0.00018306,2.7887e+08,573.8,0,1.3708e+08,102.09,591.12,1
2044,5.87,12082,1,12082,1,0.00027507,-6.3795e-10,0,0.00087269,-5.0181e-05,-279.52,-212.28,0,2.4307e+08,86.274,12081,13104,1,13104,1,0.0019158,3.3968e-09,0,0.0019158,0.00025652,3.4297e+08,638.21,0,5.5545e+08,281.84,13103,12082,1,12082,1,0.00027506,-5.9568e-10,0,0.00085075,-5.0232e-05,7.7589e+07,-146.33,0,2.5057e+08,63.501,12081,10985,1,10985,1,-0.0013657,-4.346e-09,0,2.8771e-05,-0.00035664,-5.5545e+08,-1423.5,0,1.2156e+07,-90.2,10984,11571,1,11571,1,-0.00057569,-1.6197e-09,0,0.00042537,-0.0002091,-2.341e+08,-429.13,0,1.3792e+08,24.718,11570,12593,1,12593,1,0.0011258,5.1846e-10,0,0.0012761,0.00010859,2.5057e+08,118.49,0,3.1865e+08,148.96,12592,591.12,0,591.12,0,0.00098198,1.6977e-09,0,0.00052728,0.00018342,2.7918e+08,467.44,0,1.3722e+08,78.986,591.12,1
2044,5.88,12082,1,12082,1,0.00027625,1.3525e-09,0,0.00087449,-5.0399e-05,62.956,278.99,0,2.4332e+08,50.112,12081,13104,1,13104,1,0.0019202,6.5373e-09,0,0.0019202,0.0002569,3.4284e+08,1664.4,0,5.5627e+08,201.35,13103,12082,1,12082,1,0.00027625,1.4588e-09,0,0.00085242,-5.0453e-05,7.7924e+07,317.86,0,2.5084e+08,36.655,12081,10985,1,10985,1,-0.0013677,-2.9736e-09,0,2.8181e-05,-0.00035745,-5.5627e+08,-1005.7,0,1.194e+07,-84.247,10984,11571,1,11571,1,-0.00057617,-3.9683e-10,0,0.00042621,-0.00020962,-2.343e+08,-108.69,0,1.3835e+08,4.0859,11570,12593,1,12593,1,0.0011287,3.0564e-09,0,0.0012786,0.00010869,2.5084e+08,622.06,0,3.1858e+08,91.595,12592,591.12,0,591.12,0,0.00098391,2.2165e-09,0,0.0005285,0.00018378,2.7947e+08,588.37,0,1.3735e+08,62.906,591.12,1
2044,5.89,12082,1,12082,1,0.00027743,-2.6916e-11,0,0.00087623,-5.0616e-05,-23.409,-30.505,0,2.4355e+08,119.08,12081,13104,1,13104,1,0.0019245,6.9565e-09,0,0.0019245,0.00025726,3.4267e+08,1317.3,0,5.5705e+08,290.07,13103,12082,1,12082,1,0.00027743,-2.9824e-10,0,0.00085403,-5.0671e-05,7.8257e+07,-89.216,0,2.5109e+08,122.08,12081,10985,1,10985,1,-0.0013696,-6.6318e-09,0,2.7578e-05,-0.00035824,-5.5705e+08,-1256.6,0,1.1719e+07,-43.521,10984,11571,1,11571,1,-0.0005766,-8.1356e-10,0,0.00042701,-0.00021014,-2.3447e+08,-226.63,0,1.3878e+08,44.142,11570,12593,1,12593,1,0.0011315,5.6329e-10,0,0.001281,0.00010877,2.5109e+08,127.02,0,3.1848e+08,183.67,12592,591.12,0,591.12,0,0.00098575,2.1874e-09,0,0.00052968,0.00018412,2.7973e+08,432.02,0,1.3747e+08,79.349,591.12,1
2044,5.9,12082,1,12082,1,0.00027861,3.984e-10,0,0.00087802,-5.0833e-05,79.518,90.121,0,2.4381e+08,62.082,12081,13104,1,13104,1,0.0019289,4.972e-09,0,0.0019289,0.00025764,3.4254e+08,1035.2,0,5.5787e+08,259.87,13103,12082,1,12082,1,0.00027861,3.0722e-10,0,0.00085568,-5.0891e-05,7.8591e+07,86.215,0,2.5136e+08,49.394,12081,10985,1,10985,1,-0.0013716,-5.4006e-09,0,2.6992e-05,-0.00035905,-5.5787e+08,-1153.9,0,1.1506e+07,-89.632,10984,11571,1,11571,1,-0.00057708,-3.2723e-10,0,0.00042784,-0.00021066,-2.3467e+08,-91.848,0,1.3921e+08,12.242,11570,12593,1,12593,1,0.0011343,1.4198e-09,0,0.0012835,0.00010886,2.5136e+08,353.64,0,3.1841e+08,95.763,12592,591.12,0,591.12,0,0.00098767,1.9132e-09,0,0.0005309,0.00018447,2.8001e+08,417.87,0,1.3761e+08,65.609,591.12,1
2044,5.91,12082,1,12082,1,0.00027983,1.0808e-09,0,0.00087988,-5.1057e-05,-15.084,271.32,0,2.4407e+08,-9.7623,12081,13104,1,13104,1,0.0019334,2.647e-09,0,0.0019334,0.00025803,3.4241e+08,636.99,0,5.5872e+08,57.099,13103,12082,1,12082,1,0.00027983,1.0593e-09,0,0.0008574,-5.1117e-05,7.8935e+07,259.12,0,2.5164e+08,-6.6106,12081,10985,1,10985,1,-0.0013737,-1.864e-10,0,2.6388e-05,-0.00035988,-5.5872e+08,-63.83,0,1.1286e+07,-149.13,10984,11571,1,11571,1,-0.00057757,5.5617e-10,0,0.0004287,-0.0002112,-2.3487e+08,140.44,0,1.3965e+08,-24.846,11570,12593,1,12593,1,0.0011372,1.5175e-09,0,0.0012861,0.00010895,2.5164e+08,391.99,0,3.1835e+08,6.9586,12592,591.12,0,591.12,0,0.00098965,6.5954e-10,0,0.00053215,0.00018484,2.8031e+08,169.36,0,1.3774e+08,31.155,591.12,1
2044,5.92,12082,1,12082,1,0.00028105,1.6097e-09,0,0.00088169,-5.1282e-05,26.764,420.7,0,2.4431e+08,-2.9485,12081,13104,1,13104,1,0.0019378,4.0835e-09,0,0.0019378,0.00025841,3.4223e+08,1018.4,0,5.5953e+08,70.8,13103,12082,1,12082,1,0.00028105,1.5623e-09,0,0.00085907,-5.1345e-05,7.9282e+07,418.63,0,2.5189e+08,-2.2793,12081,10985,1,10985,1,-0.0013757,-4.9025e-10,0,2.5758e-05,-0.0003607,-5.5953e+08,-167.87,0,1.1057e+07,-67.381,10984,11571,1,11571,1,-0.00057802,8.0836e-10,0,0.00042953,-0.00021174,-2.3505e+08,185.78,0,1.4009e+08,-26.365,11570,12593,1,12593,1,0.0011401,2.2796e-09,0,0.0012886,0.00010904,2.5189e+08,625.25,0,3.1824e+08,14.875,12592,591.12,0,591.12,0,0.00099158,1.0352e-09,0,0.00053339,0.0001852,2.8058e+08,280.78,0,1.3787e+08,30.276,591.12,1
2044,5.93,12082,1,12082,1,0.00028227,8.3629e-11,0,0.0008835,-5.1506e-05,-32.136,62.235,0,2.4455e+08,19.066,12081,13104,1,13104,1,0.0019423,2.1234e-09,0,0.0019423,0.00025878,3.4206e+08,536.67,0,5.6035e+08,108.2,13103,12082,1,12082,1,0.00028227,2.9698e-10,0,0.00086075,-5.1571e-05,7.9626e+07,87.084,0,2.5215e+08,9.5155,12081,10985,1,10985,1,-0.0013777,-1.7785e-09,0,2.5135e-05,-0.00036152,-5.6035e+08,-323.38,0,1.0832e+07,-88.829,10984,11571,1,11571,1,-0.00057847,-4.8942e-10,0,0.00043037,-0.00021227,-2.3524e+08,-96.045,0,1.4053e+08,-0.93462,11570,12593,1,12593,1,0.001143,6.7009e-10,0,0.0012911,0.00010912,2.5215e+08,221,0,3.1814e+08,35.987,12592,591.12,0,591.12,0,0.00099351,8.3662e-10,0,0.00053462,0.00018556,2.8085e+08,195.15,0,1.38e+08,30.848,591.12,1
2044,5.94,12082,1,12082,1,0.0002835,-2.4955e-09,0,0.00088533,-5.1732e-05,81.665,-590.22,0,2.448e+08,-3.7524,12081,13104,1,13104,1,0.0019468,7.1394e-10,0,0.0019468,0.00025917,3.419e+08,244.46,0,5.6118e+08,174.89,13103,12082,1,12082,1,0.0002835,-2.3743e-09,0,0.00086242,-5.1799e-05,7.9973e+07,-613.1,0,2.5242e+08,-4.5819,12081,10985,1,10985,1,-0.0013798,-5.7672e-09,0,2.4511e-05,-0.00036235,-5.6118e+08,-1270.2,0,1.0607e+07,-152.76,10984,11571,1,11571,1,-0.00057893,-4.0835e-09,0,0.00043122,-0.00021281,-2.3542e+08,-940.83,0,1.4097e+08,-33.922,11570,12593,1,12593,1,0.0011459,-1.0042e-09,0,0.0012936,0.00010921,2.5242e+08,-267.14,0,3.1805e+08,24.54,12592,591.12,0,591.12,0,0.00099545,1.7699e-09,0,0.00053586,0.00018592,2.8113e+08,401.36,0,1.3813e+08,48.059,591.12,1
2044,5.95,12082,1,12082,1,0.00028474,-5.5686e-11,0,0.0008872,-5.1961e-05,4.7532,-44.391,0,2.4505e+08,-33.01,12081,13104,1,13104,1,0.0019513,2.4951e-09,0,0.0019513,0.00025955,3.4175e+08,524.81,0,5.6202e+08,68.874,13103,12082,1,12082,1,0.00028474,-5.0123e-11,0,0.00086415,-5.203e-05,8.0325e+07,-12.911,0,2.5269e+08,-19.022,12081,10985,1,10985,1,-0.0013818,-4.4744e-09,0,2.3882e-05,-0.00036319,-5.6202e+08,-1024.8,0,1.038e+07,-246.46,10984,11571,1,11571,1,-0.00057941,-8.8453e-10,0,0.00043207,-0.00021335,-2.3562e+08,-248.13,0,1.4142e+08,-60.314,11570,12593,1,12593,1,0.0011489,9.7323e-10,0,0.0012962,0.0001093,2.5269e+08,221.44,0,3.1796e+08,4.2979,12592,591.12,0,591.12,0,0.00099745,1.45e-09,0,0.00053714,0.00018629,2.8142e+08,350,0,1.3826e+08,57.575,591.12,1
2044,5.96,12082,1,12082,1,0.000286,2.0322e-09,0,0.00088905,-5.2193e-05,25.794,490.56,0,2.453e+08,-15.246,12081,13104,1,13104,1,0.0019559,8.5468e-09,0,0.0019559,0.00025994,3.4156e+08,2123.3,0,5.6285e+08,118.96,13103,12082,1,12082,1,0.000286,1.3683e-09,0,0.00086586,-5.2264e-05,8.0681e+07,264.93,0,2.5295e+08,-21.683,12081,10985,1,10985,1,-0.0013839,-2.2362e-09,0,2.3234e-05,-0.00036404,-5.6285e+08,-535.69,0,1.0148e+07,-226.91,10984,11571,1,11571,1,-0.00057986,1.8787e-10,0,0.00043293,-0.0002139,-2.358e+08,48.091,0,1.4188e+08,-50.556,11570,12593,1,12593,1,0.0011519,3.6719e-09,0,0.0012988,0.00010939,2.5295e+08,895.63,0,3.18e+08,19.609,12592,591.12,0,591.12,0,0.00099942,2.487e-09,0,0.0005384,0.00018665,2.817e+08,640.1,0,1.3839e+08,52.543,591.12,1
2044,5.97,12082,1,12082,1,0.00028724,-3.5881e-10,0,0.00089085,-5.2421e-05,-17.666,-76.226,0,2.4553e+08,82.985,12081,13104,1,13104,1,0.0019603,1.9314e-09,0,0.0019603,0.00026031,3.4136e+08,363.27,0,5.6364e+08,261.74,13103,12082,1,12082,1,0.00028724,-2.7095e-11,0,0.00086752,-5.2493e-05,8.1031e+07,-6.9274,0,2.5319e+08,71.948,12081,10985,1,10985,1,-0.0013858,-5.5657e-09,0,2.2585e-05,-0.00036485,-5.6364e+08,-1015.1,0,9.915e+06,-91.958,10984,11571,1,11571,1,-0.00058028,-9.732e-10,0,0.00043376,-0.00021444,-2.3597e+08,-232.02,0,1.4232e+08,23.955,11570,12593,1,12593,1,0.0011548,5.9912e-10,0,0.0013013,0.00010947,2.5319e+08,167.79,0,3.1808e+08,126.67,12592,591.12,0,591.12,0,0.0010013,1.3727e-09,0,0.00053964,0.00018701,2.8196e+08,291.91,0,1.3852e+08,71.061,591.12,1
2044,5.98,12082,1,12082,1,0.00028847,-8.1697e-10,0,0.00089266,-5.2647e-05,154.61,-187.88,0,2.4576e+08,54.032,12081,13104,1,13104,1,0.0019648,2.966e-09,0,0.0019648,0.00026068,3.4118e+08,548.54,0,5.6445e+08,187.61,13103,12082,1,12082,1,0.00028847,-6.0519e-10,0,0.00086919,-5.2722e-05,8.1379e+07,-186.23,0,2.5345e+08,42.853,12081,10985,1,10985,1,-0.0013878,-4.1558e-09,0,2.195e-05,-0.00036567,-5.6445e+08,-795.39,0,9.688e+06,-66.102,10984,11571,1,11571,1,-0.00058071,-1.4502e-09,0,0.00043459,-0.00021497,-2.3615e+08,-317.29,0,1.4276e+08,14.244,11570,12593,1,12593,1,0.0011577,-1.3486e-10,0,0.0013038,0.00010955,2.5345e+08,-35.666,0,3.1817e+08,88.509,12592,591.12,0,591.12,0,0.0010033,1.2373e-09,0,0.00054088,0.00018736,2.8222e+08,239.44,0,1.3864e+08,48.225,591.12,1
2044,5.99,12082,1,12082,1,0.00028972,8.4307e-10,0,0.00089451,-5.2877e-05,-10.377,218.15,0,2.4601e+08,5.0107,12081,13104,1,13104,1,0.0019693,3.4908e-09,0,0.0019693,0.00026106,3.4101e+08,890.99,0,5.6528e+08,169.21,13103,12082,1,12082,1,0.00028972,5.8524e-10,0,0.00087089,-5.2954e-05,8.1731e+07,144.64,0,2.5371e+08,0.6367,12081,10985,1,10985,1,-0.0013899,-9.5734e-10,0,2.1315e-05,-0.00036651,-5.6528e+08,-269.87,0,9.4614e+06,-137.09,10984,11571,1,11571,1,-0.00058117,2.6976e-10,0,0.00043544,-0.00021551,-2.3634e+08,63.231,0,1.4321e+08,-18.733,11570,12593,1,12593,1,0.0011606,1.3573e-09,0,0.0013063,0.00010964,2.5371e+08,339.16,0,3.1828e+08,28.764,12592,591.12,0,591.12,0,0.0010052,8.777e-10,0,0.00054214,0.00018773,2.8251e+08,246.46,0,1.3878e+08,34.592,591.12,1
2044,6,12082,1,12082,1,0.00029097,-1.9722e-10,0,0.00089633,-5.3107e-05,-72.735,-43.651,0,2.4624e+08,54.637,12081,13104,1,13104,1,0.0019738,2.3931e-09,0,0.0019738,0.00026143,3.4082e+08,488.16,0,5.6609e+08,212.32,13103,12082,1,12082,1,0.00029097,-7.9702e-11,0,0.00087257,-5.3186e-05,8.2085e+07,-18.534,0,2.5396e+08,51.702,12081,10985,1,10985,1,-0.0013918,-3.7277e-09,0,2.0662e-05,-0.00036734,-5.6609e+08,-725.47,0,9.2285e+06,-87.339,10984,11571,1,11571,1,-0.0005816,-8.2393e-10,0,0.00043629,-0.00021605,-2.3651e+08,-198.05,0,1.4366e+08,21.218,11570,12593,1,12593,1,0.0011635,5.0526e-10,0,0.0013089,0.00010972,2.5396e+08,138.3,0,3.1836e+08,91.672,12592,591.12,0,591.12,0,0.0010072,1.3573e-09,0,0.00054339,0.00018809,2.8277e+08,285.59,0,1.389e+08,43.868,591.12,1
2044,6.01,12082,1,12082,1,0.00029224,-1.8315e-09,0,0.00089821,-5.3341e-05,-24.287,-446.07,0,2.465e+08,-31.71,12081,13104,1,13104,1,0.0019784,3.5862e-09,0,0.0019784,0.00026183,3.4065e+08,891.51,0,5.6693e+08,270.32,13103,12082,1,12082,1,0.00029224,-1.1453e-09,0,0.0008743,-5.3421e-05,8.2443e+07,-276.77,0,2.5422e+08,-24.077,12081,10985,1,10985,1,-0.0013939,-8.4807e-09,0,2.0012e-05,-0.00036819,-5.6693e+08,-2031.6,0,8.9978e+06,-371.87,10984,11571,1,11571,1,-0.00058206,-3.7977e-09,0,0.00043715,-0.00021661,-2.367e+08,-966.55,0,1.4411e+08,-74.751,11570,12593,1,12593,1,0.0011665,2.1233e-10,0,0.0013114,0.00010981,2.5422e+08,46.816,0,3.1846e+08,10.704,12592,591.12,0,591.12,0,0.0010092,2.7241e-09,0,0.00054468,0.00018846,2.8306e+08,671.36,0,1.3904e+08,62.628,591.12,1
2044,6.02,12082,1,12082,1,0.0002935,2.8297e-09,0,0.00090001,-5.3573e-05,-2.1692,654.69,0,2.4672e+08,89.123,12081,13104,1,13104,1,0.0019829,1.2535e-08,0,0.0019829,0.00026219,3.4043e+08,2655,0,5.6773e+08,603.13,13103,12082,1,12082,1,0.0002935,1.8078e-09,0,0.00087596,-5.3656e-05,8.28e+07,476.36,0,2.5446e+08,79.636,12081,10985,1,10985,1,-0.0013959,-2.4151e-09,0,1.9341e-05,-0.00036902,-5.6773e+08,-601.61,0,8.7594e+06,-429.58,10984,11571,1,11571,1,-0.00058246,3.787e-10,0,0.00043798,-0.00021715,-2.3686e+08,98.277,0,1.4456e+08,24.658,11570,12593,1,12593,1,0.0011695,5.0965e-09,0,0.0013139,0.00010988,2.5446e+08,1176.7,0,3.1853e+08,166.88,12592,591.12,0,591.12,0,0.0010111,3.2485e-09,0,0.00054593,0.00018881,2.8331e+08,715.46,0,1.3916e+08,116.37,591.12,1
2044,6.03,12082,1,12082,1,0.00029477,1.2897e-09,0,0.00090189,-5.3807e-05,161.79,367.2,0,2.4697e+08,-38.05,12081,13104,1,13104,1,0.0019875,7.909e-09,0,0.0019875,0.00026258,3.4025e+08,1980.8,0,5.6856e+08,173.98,13103,12082,1,12082,1,0.00029477,6.9069e-10,0,0.00087769,-5.3892e-05,8.3159e+07,187.01,0,2.5472e+08,-31.583,12081,10985,1,10985,1,-0.0013979,-2.7406e-09,0,1.8689e-05,-0.00036987,-5.6856e+08,-623.65,0,8.5282e+06,-234.89,10984,11571,1,11571,1,-0.00058292,-4.3485e-10,0,0.00043884,-0.0002177,-2.3705e+08,-94.868,0,1.4502e+08,-62.945,11570,12593,1,12593,1,0.0011725,2.8014e-09,0,0.0013165,0.00010997,2.5472e+08,732.92,0,3.1863e+08,-5.2683,12592,591.12,0,591.12,0,0.0010131,2.4052e-09,0,0.00054722,0.00018918,2.836e+08,618.27,0,1.3929e+08,64.984,591.12,1
2044,6.04,12082,1,12082,1,0.00029605,1.5638e-09,0,0.00090374,-5.4043e-05,-28.823,456.97,0,2.472e+08,11.608,12081,13104,1,13104,1,0.0019921,8.4026e-09,0,0.0019921,0.00026296,3.4004e+08,2253.2,0,5.6938e+08,211.07,13103,12082,1,12082,1,0.00029605,7.7825e-10,0,0.00087939,-5.4129e-05,8.3521e+07,199.26,0,2.5497e+08,12.964,12081,10985,1,10985,1,-0.0013999,-4.1352e-09,0,1.8013e-05,-0.00037071,-5.6938e+08,-967.13,0,8.2892e+06,-265.25,10984,11571,1,11571,1,-0.00058334,-6.4336e-10,0,0.00043969,-0.00021825,-2.3722e+08,-134.61,0,1.4548e+08,-38.275,11570,12593,1,12593,1,0.0011754,3.7353e-09,0,0.0013191,0.00011005,2.5497e+08,1018.4,0,3.1871e+08,61.791,12592,591.12,0,591.12,0,0.001015,2.9171e-09,0,0.00054849,0.00018954,2.8386e+08,806.38,0,1.3942e+08,70.154,591.12,1
2044,6.05,12082,1,12082,1,0.00029732,-2.0905e-09,0,0.00090555,-5.4276e-05,5.1946,-442.59,0,2.4742e+08,75.877,12081,13104,1,13104,1,0.0019965,2.6187e-09,0,0.0019965,0.00026332,3.3982e+08,895.5,0,5.7016e+08,252.52,13103,12082,1,12082,1,0.00029731,-2.2646e-09,0,0.00088106,-5.4364e-05,8.3879e+07,-510.05,0,2.5521e+08,58.971,12081,10985,1,10985,1,-0.0014019,-6.5781e-09,0,1.734e-05,-0.00037153,-5.7016e+08,-1470.4,0,8.0513e+06,-83.535,10984,11571,1,11571,1,-0.00058374,-4.1668e-09,0,0.00044052,-0.00021879,-2.3738e+08,-887.23,0,1.4593e+08,10.646,11570,12593,1,12593,1,0.0011784,-1.0977e-10,0,0.0013216,0.00011013,2.5521e+08,-29.421,0,3.1877e+08,139.86,12592,591.12,0,591.12,0,0.001017,2.3235e-09,0,0.00054975,0.0001899,2.8411e+08,566.08,0,1.3954e+08,77.2,591.12,1
2044,6.06,12082,1,12082,1,0.00029859,-7.4166e-10,0,0.00090739,-5.4509e-05,-25.535,-159.47,0,2.4766e+08,89.068,12081,13104,1,13104,1,0.0020011,2.7047e-09,0,0.0020011,0.00026369,3.3962e+08,901.5,0,5.7098e+08,291.21,13103,12082,1,12082,1,0.00029858,-7.7361e-10,0,0.00088275,-5.46e-05,8.4237e+07,-173.56,0,2.5546e+08,84.444,12081,10985,1,10985,1,-0.0014039,-4.4597e-09,0,1.6681e-05,-0.00037237,-5.7098e+08,-1336.6,0,7.8185e+06,-92.758,10984,11571,1,11571,1,-0.00058416,-1.9488e-09,0,0.00044137,-0.00021934,-2.3755e+08,-438.89,0,1.4625e+08,19.77,11570,12593,1,12593,1,0.0011813,4.3381e-10,0,0.0013241,0.00011021,2.5546e+08,103.23,0,3.1885e+08,154.21,12592,591.12,0,591.12,0,0.0010189,1.6309e-09,0,0.00055102,0.00019026,2.8438e+08,427.1,0,1.3967e+08,72.673,591.12,1
2044,6.07,12082,1,12082,1,0.00029987,2.069e-09,0,0.00090925,-5.4745e-05,-17.723,514.17,0,2.479e+08,85.651,12081,13104,1,13104,1,0.0020056,6.1483e-09,0,0.0020056,0.00026408,3.3942e+08,1390.6,0,5.718e+08,335.17,13103,12082,1,12082,1,0.00029987,2.41e-09,0,0.00088446,-5.4838e-05,8.46e+07,578.4,0,2.5571e+08,80.769,12081,10985,1,10985,1,-0.0014059,-2.4766e-09,0,1.6009e-05,-0.00037321,-5.718e+08,-847.21,0,7.5819e+06,-182.31,10984,11571,1,11571,1,-0.00058459,3.48e-10,0,0.00044223,-0.00021989,-2.3773e+08,74.319,0,1.4649e+08,18.839,11570,12593,1,12593,1,0.0011843,3.5305e-09,0,0.0013267,0.00011029,2.5571e+08,969.54,0,3.1893e+08,152.29,12592,591.12,0,591.12,0,0.0010209,2.0408e-09,0,0.0005523,0.00019063,2.8465e+08,508.5,0,1.398e+08,83.818,591.12,1
2044,6.08,12082,1,12082,1,0.00030114,-1.012e-09,0,0.00091103,-5.4978e-05,-28.817,-210.64,0,2.4811e+08,119.2,12081,13104,1,13104,1,0.00201,8.4364e-09,0,0.00201,0.00026443,3.3918e+08,1651,0,5.7256e+08,443.52,13103,12082,1,12082,1,0.00030113,-5.3499e-10,0,0.00088609,-5.5073e-05,8.4958e+07,-159.39,0,2.5593e+08,104.35,12081,10985,1,10985,1,-0.0014078,-7.539e-09,0,1.5325e-05,-0.00037402,-5.7256e+08,-1418.2,0,7.3409e+06,-120.63,10984,11571,1,11571,1,-0.00058496,-2.837e-09,0,0.00044305,-0.00022042,-2.3787e+08,-596.05,0,1.4671e+08,44.728,11570,12593,1,12593,1,0.0011872,1.9994e-10,0,0.0013291,0.00011036,2.5593e+08,60.615,0,3.1898e+08,165.27,12592,591.12,0,591.12,0,0.0010228,2.8046e-09,0,0.00055354,0.00019098,2.849e+08,565.34,0,1.3992e+08,92.776,591.12,1
2044,6.09,12082,1,12082,1,0.00030247,-3.9659e-11,0,0.00091295,-5.5224e-05,-66.885,8.3683,0,2.4835e+08,-11.576,12081,13104,1,13104,1,0.0020148,4.2829e-09,0,0.0020148,0.00026481,3.3898e+08,1089.1,0,5.734e+08,111.01,13103,12082,1,12082,1,0.00030247,-1.3591e-10,0,0.00088786,-5.5323e-05,8.5337e+07,-28.906,0,2.5617e+08,-8.1971,12081,10985,1,10985,1,-0.0014098,-3.7497e-09,0,1.4617e-05,-0.0003749,-5.734e+08,-917.38,0,7.0919e+06,-101.64,10984,11571,1,11571,1,-0.00058538,-1.1265e-09,0,0.00044393,-0.00022099,-2.3805e+08,-257.32,0,1.4694e+08,-39.27,11570,12593,1,12593,1,0.0011903,9.2312e-10,0,0.0013318,0.00011044,2.5617e+08,230.28,0,3.1907e+08,14.208,12592,591.12,0,591.12,0,0.0010248,1.5868e-09,0,0.00055487,0.00019135,2.8517e+08,412.75,0,1.4006e+08,40.873,591.12,1
2044,6.1,12082,1,12082,1,0.00030388,-2.3445e-09,0,0.00091487,-5.5483e-05,28.337,-558.43,0,2.4856e+08,7.4476,12081,13104,1,13104,1,0.0020196,2.722e-09,0,0.0020196,0.00026519,3.3873e+08,890.27,0,5.7421e+08,296.78,13103,12082,1,12082,1,0.00030387,-1.9884e-09,0,0.00088961,-5.5583e-05,8.5733e+07,-410.31,0,2.5639e+08,9.6313,12081,10985,1,10985,1,-0.0014118,-9.2364e-09,0,1.3841e-05,-0.00037579,-5.7421e+08,-2342.1,0,6.8188e+06,-322.17,10984,11571,1,11571,1,-0.00058574,-4.4118e-09,0,0.00044481,-0.00022158,-2.3819e+08,-1080.5,0,1.4717e+08,-29.335,11570,12593,1,12593,1,0.0011935,-2.2863e-10,0,0.0013344,0.00011051,2.5639e+08,-53.859,0,3.1911e+08,53.877,12592,591.12,0,591.12,0,0.0010268,2.6084e-09,0,0.00055622,0.00019173,2.8542e+08,691.66,0,1.4018e+08,69.665,591.12,1
2044,6.11,12082,1,12082,1,0.00030529,1.1505e-09,0,0.00091678,-5.5742e-05,-23.422,242.06,0,2.4877e+08,36.854,12081,13104,1,13104,1,0.0020244,1.0352e-08,0,0.0020244,0.00026555,3.3845e+08,3261.8,0,5.75e+08,261.22,13103,12082,1,12082,1,0.00030529,1.2604e-09,0,0.00089136,-5.5845e-05,8.6132e+07,264.09,0,2.5659e+08,42.108,12081,10985,1,10985,1,-0.0014138,-4.0647e-09,0,1.305e-05,-0.00037667,-5.75e+08,-1384.3,0,6.5405e+06,-2951.6,10984,11571,1,11571,1,-0.00058606,-4.1116e-10,0,0.00044567,-0.00022216,-2.3832e+08,-105.73,0,1.4739e+08,-6.4356,11570,12593,1,12593,1,0.0011966,2.712e-09,0,0.001337,0.00011057,2.5659e+08,567.91,0,3.1914e+08,104.04,12592,591.12,0,591.12,0,0.0010288,2.2167e-09,0,0.00055756,0.0001921,2.8565e+08,615.49,0,1.403e+08,172.26,591.12,1
2044,6.12,12082,1,12082,1,0.0003067,-2.4065e-09,0,0.00091868,-5.6002e-05,-30.8,-597.46,0,2.4897e+08,41.444,12081,13104,1,13104,1,0.0020291,1.7431e-09,0,0.0020291,0.00026592,3.3816e+08,596.34,0,5.7579e+08,342.42,13103,12082,1,12082,1,0.00030669,-2.6325e-09,0,0.00089309,-5.6107e-05,8.653e+07,-605.39,0,2.568e+08,50.28,12081,10985,1,10985,1,-0.0014157,-8.0801e-09,0,1.226e-05,-0.00037754,-5.7579e+08,-2394.4,0,6.2633e+06,-910.66,10984,11571,1,11571,1,-0.00058639,-4.1256e-09,0,0.00044654,-0.00022274,-2.3846e+08,-956.58,0,1.4761e+08,2.7024,11570,12593,1,12593,1,0.0011998,-5.8121e-10,0,0.0013396,0.00011063,2.568e+08,-126.73,0,3.1916e+08,115.34,12592,591.12,0,591.12,0,0.0010308,2.0734e-09,0,0.0005589,0.00019247,2.8589e+08,567.73,0,1.4042e+08,141.77,591.12,1
2044,6.13,12082,1,12082,1,0.00030812,3.6412e-09,0,0.00092061,-5.6262e-05,19.088,838.29,0,2.4918e+08,91.244,12081,13104,1,13104,1,0.0020339,9.0127e-09,0,0.0020339,0.00026629,3.379e+08,1919,0,5.766e+08,509.9,13103,12082,1,12082,1,0.00030812,3.7935e-09,0,0.00089485,-5.6371e-05,8.6933e+07,953.28,0,2.5701e+08,96.039,12081,10985,1,10985,1,-0.0014177,-1.5626e-09,0,1.1469e-05,-0.00037843,-5.766e+08,-476.83,0,5.9864e+06,-3869.7,10984,11571,1,11571,1,-0.00058674,1.1986e-09,0,0.00044743,-0.00022332,-2.386e+08,293.86,0,1.4783e+08,21.664,11570,12593,1,12593,1,0.001203,6.046e-09,0,0.0013423,0.0001107,2.5701e+08,1410.8,0,3.192e+08,167.41,12592,591.12,0,591.12,0,0.0010329,2.7554e-09,0,0.00056026,0.00019285,2.8613e+08,611.48,0,1.4054e+08,170.4,591.12,1
2044,6.14,12082,1,12082,1,0.00030956,-3.1734e-10,0,0.00092257,-5.6527e-05,11.381,-44.541,0,2.4939e+08,10.287,12081,13104,1,13104,1,0.0020388,7.6013e-09,0,0.0020388,0.00026667,3.3761e+08,2085.1,0,5.7741e+08,382.92,13103,12082,1,12082,1,0.00030956,-4.405e-10,0,0.00089665,-5.664e-05,8.7341e+07,-94.459,0,2.5722e+08,9.5596,12081,10985,1,10985,1,-0.0014197,-9.32e-09,0,1.0664e-05,-0.00037934,-5.7741e+08,-2553,0,5.7047e+06,-347.7,10984,11571,1,11571,1,-0.00058708,-1.8893e-09,0,0.00044832,-0.00022392,-2.3874e+08,-437.65,0,1.4806e+08,-50.048,11570,12593,1,12593,1,0.0012062,1.4555e-09,0,0.001345,0.00011077,2.5722e+08,371.62,0,3.1923e+08,74.503,12592,591.12,0,591.12,0,0.001035,3.1197e-09,0,0.00056165,0.00019323,2.8638e+08,875,0,1.4067e+08,81.264,591.12,1
2044,6.15,12082,1,12082,1,0.00031101,3.9262e-10,0,0.00092448,-5.6792e-05,-17.488,110.3,0,2.4959e+08,140.06,12081,13104,1,13104,1,0.0020436,5.5386e-09,0,0.0020436,0.00026703,3.373e+08,1224.9,0,5.7819e+08,369.73,13103,12082,1,12082,1,0.000311,6.0511e-10,0,0.00089839,-5.6907e-05,8.7748e+07,139.85,0,2.5741e+08,130.3,12081,10985,1,10985,1,-0.0014216,-5.7112e-09,0,9.8436e-06,-0.00038022,-5.7819e+08,-1275.9,0,5.4172e+06,-54.886,10984,11571,1,11571,1,-0.00058738,-9.9262e-10,0,0.00044919,-0.0002245,-2.3886e+08,-221,0,1.4828e+08,36.919,11570,12593,1,12593,1,0.0012094,1.9956e-09,0,0.0013476,0.00011082,2.5741e+08,505.7,0,3.1924e+08,236.59,12592,591.12,0,591.12,0,0.001037,2.1785e-09,0,0.000563,0.0001936,2.8661e+08,524.7,0,1.4078e+08,108.04,591.12,1
2044,6.16,12082,1,12082,1,0.00031242,-2.9496e-09,0,0.00092635,-5.7052e-05,117.26,-694.9,0,2.4977e+08,175.34,12081,13104,1,13104,1,0.0020483,7.7141e-09,0,0.0020483,0.00026738,3.37e+08,1367.7,0,5.7895e+08,535.33,13103,12082,1,12082,1,0.00031242,-2.1712e-09,0,0.00090009,-5.7171e-05,8.8149e+07,-584.84,0,2.576e+08,161.53,12081,10985,1,10985,1,-0.0014235,-1.3035e-08,0,9.0344e-06,-0.00038108,-5.7895e+08,-2526.6,0,5.1338e+06,-121.55,10984,11571,1,11571,1,-0.00058767,-5.5271e-09,0,0.00045005,-0.00022508,-2.3897e+08,-1307,0,1.485e+08,60.379,11570,12593,1,12593,1,0.0012125,-3.6713e-10,0,0.0013501,0.00011088,2.576e+08,-106.53,0,3.1924e+08,258.28,12592,591.12,0,591.12,0,0.0010389,4.1099e-09,0,0.00056433,0.00019397,2.8683e+08,833.38,0,1.409e+08,133.69,591.12,1
2044,6.17,12082,1,12082,1,0.00031386,-2.6626e-09,0,0.00092832,-5.7316e-05,-64.023,-688.75,0,2.4999e+08,-1.8898,12081,13104,1,13104,1,0.0020532,1.295e-09,0,0.0020532,0.00026776,3.3673e+08,345.89,0,5.7978e+08,322.04,13103,12082,1,12082,1,0.00031385,-2.4875e-09,0,0.00090188,-5.7438e-05,8.8554e+07,-593.2,0,2.5782e+08,5.9889,12081,10985,1,10985,1,-0.0014255,-8.2742e-09,0,8.2413e-06,-0.00038199,-5.7978e+08,-2239.4,0,4.8563e+06,-444.43,10984,11571,1,11571,1,-0.00058802,-4.2277e-09,0,0.00045094,-0.00022567,-2.3912e+08,-1147.1,0,1.4873e+08,-25.15,11570,12593,1,12593,1,0.0012157,-9.6986e-10,0,0.0013528,0.00011095,2.5782e+08,-205.53,0,3.1929e+08,35.763,12592,591.12,0,591.12,0,0.001041,2.1204e-09,0,0.00056572,0.00019435,2.8708e+08,585.88,0,1.4103e+08,68.881,591.12,1
2044,6.18,12082,1,12082,1,0.0003153,-2.9736e-10,0,0.00093019,-5.7579e-05,-50.102,-183.06,0,2.5017e+08,96.764,12081,13104,1,13104,1,0.002058,8.714e-09,0,0.002058,0.00026811,3.364e+08,1566.2,0,5.8052e+08,269.89,13103,12082,1,12082,1,0.00031529,-9.9112e-10,0,0.00090359,-5.7706e-05,8.8961e+07,-279.08,0,2.5799e+08,88.361,12081,10985,1,10985,1,-0.0014273,-5.4311e-09,0,7.4083e-06,-0.00038286,-5.8052e+08,-1322.2,0,4.5644e+06,-151.91,10984,11571,1,11571,1,-0.00058829,-2.2073e-09,0,0.00045179,-0.00022625,-2.3923e+08,-672.63,0,1.4894e+08,32.998,11570,12593,1,12593,1,0.0012189,9.9086e-10,0,0.0013554,0.000111,2.5799e+08,176.43,0,3.1927e+08,167.04,12592,591.12,0,591.12,0,0.001043,2.7593e-09,0,0.00056706,0.00019471,2.8729e+08,605.65,0,1.4114e+08,79.222,591.12,1
2044,6.19,12082,1,12082,1,0.00031674,-2.0924e-09,0,0.00093214,-5.7844e-05,-23.065,-597.87,0,2.5038e+08,-17.61,12081,13104,1,13104,1,0.0020629,1.1015e-09,0,0.0020629,0.00026848,3.3612e+08,247.48,0,5.8134e+08,238.11,13103,12082,1,12082,1,0.00031673,-2.1914e-09,0,0.00090537,-5.7974e-05,8.9369e+07,-581.98,0,2.582e+08,-4.5516,12081,10985,1,10985,1,-0.0014294,-6.701e-09,0,6.6031e-06,-0.00038376,-5.8134e+08,-1954.7,0,4.2826e+06,-417.57,10984,11571,1,11571,1,-0.00058863,-3.4263e-09,0,0.00045268,-0.00022685,-2.3937e+08,-979.6,0,1.4917e+08,-54.961,11570,12593,1,12593,1,0.0012221,-4.6679e-10,0,0.001358,0.00011106,2.582e+08,-92.725,0,3.1931e+08,24.704,12592,591.12,0,591.12,0,0.001045,1.8538e-09,0,0.00056844,0.0001951,2.8754e+08,529.17,0,1.4127e+08,79.046,591.12,1
2044,6.2,12082,1,12082,1,0.00031822,8.1178e-10,0,0.00093413,-5.8116e-05,37.679,73.496,0,2.5059e+08,-31.092,12081,13104,1,13104,1,0.0020678,5.0366e-09,0,0.0020678,0.00026886,3.3583e+08,965.67,0,5.8215e+08,129.14,13103,12082,1,12082,1,0.00031822,5.7092e-10,0,0.00090719,-5.8249e-05,8.9787e+07,127.6,0,2.5841e+08,-15.147,12081,10985,1,10985,1,-0.0014314,-4.8812e-09,0,5.7671e-06,-0.00038468,-5.8215e+08,-1508.6,0,3.9899e+06,-458.31,10984,11571,1,11571,1,-0.00058896,-7.9138e-10,0,0.00045358,-0.00022745,-2.395e+08,-253.71,0,1.4939e+08,-44.798,11570,12593,1,12593,1,0.0012254,2.9459e-09,0,0.0013608,0.00011113,2.5841e+08,537.78,0,3.1933e+08,11.325,12592,591.12,0,591.12,0,0.0010471,2.3827e-09,0,0.00056985,0.00019548,2.8778e+08,558.87,0,1.414e+08,73.407,591.12,1
2044,6.21,12082,1,12082,1,0.0003197,-3.6933e-09,0,0.00093605,-5.8387e-05,-2.2518,-995.45,0,2.5078e+08,-15.928,12081,13104,1,13104,1,0.0020727,1.5295e-09,0,0.0020727,0.00026922,3.3549e+08,273.35,0,5.8294e+08,342.82,13103,12082,1,12082,1,0.00031969,-3.2036e-09,0,0.00090893,-5.8523e-05,9.0204e+07,-787.59,0,2.5859e+08,-14.296,12081,10985,1,10985,1,-0.0014333,-1.1176e-08,0,4.9177e-06,-0.00038558,-5.8294e+08,-3152.2,0,3.6923e+06,-429.84,10984,11571,1,11571,1,-0.00058923,-6.0966e-09,0,0.00045445,-0.00022805,-2.3961e+08,-1676,0,1.4961e+08,-64.687,11570,12593,1,12593,1,0.0012286,-1.247e-09,0,0.0013634,0.00011118,2.5859e+08,-278.67,0,3.1932e+08,25.109,12592,591.12,0,591.12,0,0.0010491,2.9674e-09,0,0.00057123,0.00019586,2.88e+08,848.46,0,1.4151e+08,84.482,591.12,1
2044,6.22,12082,1,12082,1,0.00032115,-1.9105e-09,0,0.00093796,-5.8654e-05,-21.289,-635.29,0,2.5097e+08,111.43,12081,13104,1,13104,1,0.0020775,1.0877e-08,0,0.0020775,0.00026958,3.3517e+08,1906.5,0,5.8371e+08,385.24,13103,12082,1,12082,1,0.00032115,-2.4407e-09,0,0.00091068,-5.8795e-05,9.0617e+07,-638.12,0,2.5878e+08,110.35,12081,10985,1,10985,1,-0.0014352,-9.2177e-09,0,4.0771e-06,-0.00038647,-5.8371e+08,-2355.6,0,3.3978e+06,-500.89,10984,11571,1,11571,1,-0.00058952,-5.4247e-09,0,0.00045532,-0.00022864,-2.3973e+08,-1557,0,1.4983e+08,37.183,11570,12593,1,12593,1,0.0012318,7.5036e-10,0,0.001366,0.00011124,2.5878e+08,142.83,0,3.1932e+08,213.75,12592,591.12,0,591.12,0,0.0010511,4.4325e-09,0,0.0005726,0.00019623,2.8822e+08,1056.2,0,1.4163e+08,135.23,591.12,1
2044,6.23,12082,1,12082,1,0.0003226,4.4658e-10,0,0.00093987,-5.8921e-05,-32.053,-91.743,0,2.5115e+08,32.868,12081,13104,1,13104,1,0.0020823,9.9906e-09,0,0.0020823,0.00026993,3.3486e+08,1914.2,0,5.8447e+08,308.39,13103,12082,1,12082,1,0.0003226,-1.2583e-10,0,0.00091242,-5.9065e-05,9.1028e+07,-31.19,0,2.5896e+08,41.587,12081,10985,1,10985,1,-0.0014371,-8.2975e-09,0,3.2405e-06,-0.00038735,-5.8447e+08,-2308.7,0,3.1047e+06,-644.88,10984,11571,1,11571,1,-0.0005898,-3.0097e-09,0,0.00045619,-0.00022922,-2.3984e+08,-888.89,0,1.5005e+08,-22.85,11570,12593,1,12593,1,0.001235,3.4476e-09,0,0.0013686,0.00011129,2.5896e+08,666.42,0,3.1932e+08,109.17,12592,591.12,0,591.12,0,0.0010531,4.1421e-09,0,0.00057397,0.0001966,2.8844e+08,984.97,0,1.4174e+08,139.99,591.12,1
2044,6.24,12082,1,12082,1,0.0003241,-4.252e-11,0,0.00094191,-5.9196e-05,8.4152,-165.18,0,2.5138e+08,-156.46,12081,13104,1,13104,1,0.0020874,9.4415e-09,0,0.0020874,0.00027032,3.3458e+08,1719.3,0,5.8532e+08,255.08,13103,12082,1,12082,1,0.0003241,-8.0459e-10,0,0.00091427,-5.9344e-05,9.1451e+07,-225.15,0,2.5918e+08,-105.84,12081,10985,1,10985,1,-0.0014391,-8.9676e-09,0,2.4089e-06,-0.00038828,-5.8532e+08,-2675.8,0,2.8137e+06,-1579.3,10984,11571,1,11571,1,-0.00059016,-2.5729e-09,0,0.00045712,-0.00022984,-2.3999e+08,-752.84,0,1.5028e+08,-212.39,11570,12593,1,12593,1,0.0012384,2.6924e-09,0,0.0013714,0.00011136,2.5918e+08,501.41,0,3.1936e+08,-38.244,12592,591.12,0,591.12,0,0.0010553,3.9632e-09,0,0.00057541,0.000197,2.8871e+08,886.33,0,1.4188e+08,182.32,591.12,1
2044,6.25,12082,1,12082,1,0.00032562,-4.6131e-10,0,0.00094388,-5.9475e-05,54.605,-243.89,0,2.5156e+08,-40.447,12081,13104,1,13104,1,0.0020924,4.5051e-09,0,0.0020924,0.00027069,3.3422e+08,838.52,0,5.8611e+08,153.54,13103,12082,1,12082,1,0.00032562,-3.51e-10,0,0.00091606,-5.9626e-05,9.1881e+07,-114.64,0,2.5936e+08,-28.406,12081,10985,1,10985,1,-0.0014411,-5.239e-09,0,1.5296e-06,-0.0003892,-5.8611e+08,-1662.9,0,2.5055e+06,-496.01,10984,11571,1,11571,1,-0.00059043,-2.5894e-09,0,0.00045802,-0.00023045,-2.401e+08,-764.48,0,1.505e+08,-73.85,11570,12593,1,12593,1,0.0012417,1.6134e-09,0,0.0013741,0.00011141,2.5936e+08,266.42,0,3.1934e+08,3.5731,12592,591.12,0,591.12,0,0.0010574,2.4278e-09,0,0.00057684,0.00019738,2.8893e+08,618.5,0,1.42e+08,75.67,591.12,1
2044,6.26,12082,1,12082,1,0.00032712,-1.8799e-09,0,0.0009458,-5.9749e-05,7.9769,-593.18,0,2.5174e+08,54.899,12081,13104,1,13104,1,0.0020972,5.0983e-09,0,0.0020972,0.00027104,3.3387e+08,832.55,0,5.8688e+08,491.14,13103,12082,1,12082,1,0.00032712,-2.2333e-09,0,0.00091781,-5.9904e-05,9.2304e+07,-580.6,0,2.5953e+08,34.735,12081,10985,1,10985,1,-0.001443,-6.6869e-09,0,6.5972e-07,-0.0003901,-5.8688e+08,-1894.1,0,2.2006e+06,-361.58,10984,11571,1,11571,1,-0.00059068,-4.2035e-09,0,0.00045889,-0.00023105,-2.402e+08,-1229,0,1.5072e+08,3.0137,11570,12593,1,12593,1,0.0012449,1.7466e-10,0,0.0013767,0.00011146,2.5953e+08,31.505,0,3.1931e+08,100.08,12592,591.12,0,591.12,0,0.0010594,2.7491e-09,0,0.00057822,0.00019775,2.8914e+08,708.16,0,1.4212e+08,101.85,591.12,1
2044,6.27,12082,1,12082,1,0.00032863,2.7015e-11,0,0.00094783,-6.0027e-05,-13.988,-158.44,0,2.5195e+08,-72.627,12081,13104,1,13104,1,0.0021023,7.7068e-09,0,0.0021023,0.00027142,3.3357e+08,1530.2,0,5.877e+08,269.51,13103,12082,1,12082,1,0.00032863,-6.7085e-11,0,0.00091962,-6.0185e-05,9.2731e+07,-14.304,0,2.5973e+08,-52.879,12081,10985,1,10985,1,-0.001445,-9.1874e-09,0,1.7479e-07,-0.00039103,-5.877e+08,-2687.1,0,1.9003e+06,-957.79,10984,11571,1,11571,1,-0.00059101,-2.8669e-09,0,0.00045983,-0.00023166,-2.4033e+08,-834.71,0,1.5095e+08,-134.82,11570,12593,1,12593,1,0.0012483,2.717e-09,0,0.0013795,0.00011152,2.5973e+08,544.13,0,3.1933e+08,6.4066,12592,591.12,0,591.12,0,0.0010615,3.791e-09,0,0.00057965,0.00019815,2.8939e+08,921.03,0,1.4225e+08,119.18,591.12,1
2044,6.28,12082,1,12082,1,0.00033016,1.3312e-09,0,0.00094988,-6.0308e-05,-22.876,175.46,0,2.5214e+08,7.7705,12081,13104,1,13104,1,0.0021073,6.9215e-09,0,0.0021073,0.00027179,3.3322e+08,1684.7,0,5.8848e+08,227.18,13103,12082,1,12082,1,0.00033015,1.4577e-09,0,0.00092142,-6.0469e-05,9.3163e+07,305.23,0,2.5991e+08,8.0212,12081,10985,1,10985,1,-0.0014469,-7.8352e-09,0,1.0618e-06,-0.00039195,-5.8848e+08,-2416.9,0,1.5903e+06,-510.59,10984,11571,1,11571,1,-0.00059128,-1.023e-09,0,0.00046072,-0.00023228,-2.4044e+08,-324.55,0,1.5117e+08,-30.588,11570,12593,1,12593,1,0.0012516,4.3639e-09,0,0.0013822,0.00011157,2.5991e+08,841.92,0,3.1932e+08,67.292,12592,591.12,0,591.12,0,0.0010636,3.4064e-09,0,0.00058097,0.00019853,2.8961e+08,844.59,0,1.4237e+08,105.12,591.12,1
2044,6.29,12082,1,12082,1,0.00033169,8.3855e-10,0,0.00095191,-6.0587e-05,-19.831,95.88,0,2.5232e+08,40.865,12081,13104,1,13104,1,0.0021122,8.6187e-09,0,0.0021122,0.00027215,3.3286e+08,2196.8,0,5.8927e+08,473.91,13103,12082,1,12082,1,0.00033168,1.1969e-09,0,0.00092322,-6.0752e-05,9.3593e+07,258.37,0,2.6009e+08,27.831,12081,10985,1,10985,1,-0.0014488,-1.0969e-08,0,1.9464e-06,-0.00039287,-5.8927e+08,-3231.7,0,1.2811e+06,-2785.9,10984,11571,1,11571,1,-0.00059154,-1.5783e-09,0,0.00046162,-0.00023289,-2.4055e+08,-462.03,0,1.5139e+08,-27.715,11570,12593,1,12593,1,0.0012549,3.7281e-09,0,0.0013848,0.00011162,2.6009e+08,678.89,0,3.193e+08,122.39,12592,591.12,0,591.12,0,0.0010656,3.7369e-09,0,0.0005823,0.00019891,2.8983e+08,1014.7,0,1.4249e+08,148.19,591.12,1
2044,6.3,12082,1,12082,1,0.00033321,4.3428e-09,0,0.00095391,-6.0866e-05,-53.889,981.16,0,2.5249e+08,128.78,12081,13104,1,13104,1,0.0021171,1.513e-08,0,0.0021171,0.0002725,3.325e+08,2869.8,0,5.9002e+08,623.33,13103,12082,1,12082,1,0.0003332,3.7069e-09,0,0.00092498,-6.1035e-05,9.4023e+07,1040.4,0,2.6025e+08,127.33,12081,10985,1,10985,1,-0.0014507,-5.5412e-09,0,2.8441e-06,-0.00039376,-5.9002e+08,-881.22,0,9.6693e+05,-1655.7,10984,11571,1,11571,1,-0.00059178,7.7421e-10,0,0.00046249,-0.00023349,-2.4064e+08,175.23,0,1.516e+08,27.939,11570,12593,1,12593,1,0.0012582,7.7218e-09,0,0.0013875,0.00011167,2.6025e+08,1679.3,0,3.1927e+08,278.47,12592,591.12,0,591.12,0,0.0010677,4.5895e-09,0,0.0005836,0.00019929,2.9004e+08,912.56,0,1.4261e+08,249.74,591.12,1
2044,6.31,12082,1,12082,1,0.0003348,-5.8997e-09,0,0.00095602,-6.1159e-05,204.7,-1391.6,0,2.5268e+08,32.071,12081,13104,1,13104,1,0.0021223,3.52e-09,0,0.0021223,0.00027287,3.3217e+08,1203.5,0,5.9084e+08,610.17,13103,12082,1,12082,1,0.0003348,-5.471e-09,0,0.00092682,-6.1331e-05,9.4465e+07,-1291,0,2.6042e+08,38.423,12081,10985,1,10985,1,-0.0014527,-1.8791e-08,0,3.7847e-06,-0.00039472,-5.9084e+08,-4394.8,0,6.3959e+05,-2205.8,10984,11571,1,11571,1,-0.00059202,-9.9779e-09,0,0.00046341,-0.00023412,-2.4075e+08,-2390.2,0,1.5181e+08,-38.534,11570,12593,1,12593,1,0.0012616,-1.2805e-09,0,0.0013902,0.00011172,2.6042e+08,-306.2,0,3.1925e+08,149.38,12592,591.12,0,591.12,0,0.0010698,5.3898e-09,0,0.00058497,0.00019968,2.9026e+08,1318.5,0,1.4274e+08,243.66,591.12,1
2044,6.32,12082,1,12082,1,0.00033645,2.1662e-09,0,0.00095813,-6.146e-05,-82.048,397.75,0,2.5284e+08,82.116,12081,13104,1,13104,1,0.0021275,8.0031e-09,0,0.0021275,0.00027323,3.3177e+08,2140,0,5.916e+08,486.83,13103,12082,1,12082,1,0.00033644,2.2515e-09,0,0.00092866,-6.1637e-05,9.4921e+07,488.8,0,2.6056e+08,37.107,12081,10985,1,10985,1,-0.0014546,-4.6601e-09,0,4.7623e-06,-0.00039568,-5.916e+08,-1594.2,0,2.9241e+05,-367.32,10984,11571,1,11571,1,-0.00059223,-5.8846e-10,0,0.00046434,-0.00023477,-2.4083e+08,-160.74,0,1.5201e+08,-24.209,11570,12593,1,12593,1,0.0012651,5.1737e-09,0,0.001393,0.00011176,2.6056e+08,1056.8,0,3.1921e+08,179.09,12592,591.12,0,591.12,0,0.0010719,3.3116e-09,0,0.00058635,0.00020007,2.9046e+08,804.39,0,1.4286e+08,158.94,591.12,1
2044,6.33,12082,1,12082,1,0.00033809,-2.0106e-09,0,0.0009602,-6.1761e-05,45.066,-557.98,0,2.53e+08,138.57,12081,13104,1,13104,1,0.0021326,5.2462e-09,0,0.0021326,0.00027357,3.3134e+08,820.03,0,5.9235e+08,538.9,13103,12082,1,12082,1,0.00033808,-2.3847e-09,0,0.00093046,-6.1942e-05,9.5376e+07,-566.76,0,2.607e+08,94.902,12081,10985,1,10985,1,-0.0014564,-9.2708e-09,0,5.7647e-06,-0.00039662,-5.9235e+08,-2025.8,0,51367,-299.16,10984,11571,1,11571,1,-0.00059239,-4.369e-09,0,0.00046524,-0.0002354,-2.4089e+08,-1117.1,0,1.522e+08,17.916,11570,12593,1,12593,1,0.0012686,1.5552e-10,0,0.0013957,0.00011179,2.607e+08,34.296,0,3.1913e+08,221.53,12592,591.12,0,591.12,0,0.001074,2.9488e-09,0,0.00058771,0.00020046,2.9065e+08,705.75,0,1.4296e+08,160.39,591.12,1
2044,6.34,12082,1,12082,1,0.00033976,-2.6557e-09,0,0.00096237,-6.2066e-05,8.7881,-757.53,0,2.532e+08,89.144,12081,13104,1,13104,1,0.002138,4.283e-09,0,0.002138,0.00027395,3.3096e+08,657.99,0,5.9316e+08,506.96,13103,12082,1,12082,1,0.00033975,-2.859e-09,0,0.00093235,-6.2251e-05,9.5837e+07,-628.53,0,2.6086e+08,48.329,12081,10985,1,10985,1,-0.0014584,-9.4648e-09,0,6.7527e-06,-0.00039761,-5.9316e+08,-2880.1,0,3.9751e+05,-315.65,10984,11571,1,11571,1,-0.00059261,-5.2504e-09,0,0.00046619,-0.00023605,-2.4098e+08,-1469.1,0,1.5241e+08,-5.0858,11570,12593,1,12593,1,0.0012721,2.0351e-10,0,0.0013986,0.00011183,2.6086e+08,45.341,0,3.191e+08,158.63,12592,591.12,0,591.12,0,0.0010762,3.302e-09,0,0.00058913,0.00020086,2.9087e+08,916.69,0,1.4305e+08,156.24,591.12,1
2044,6.35,12082,1,12082,1,0.00034145,2.2605e-09,0,0.00096452,-6.2377e-05,-307.77,357.93,0,2.5338e+08,115.21,12081,13104,1,13104,1,0.0021433,1.2056e-08,0,0.0021433,0.0002743,3.3054e+08,2054.5,0,5.9393e+08,556.87,13103,12082,1,12082,1,0.00034145,1.4101e-09,0,0.00093423,-6.2567e-05,9.6308e+07,365.05,0,2.6099e+08,96.881,12081,10985,1,10985,1,-0.0014603,-4.6971e-09,0,7.7757e-06,-0.00039858,-5.9393e+08,-1606.9,0,7.5584e+05,-673.37,10984,11571,1,11571,1,-0.00059279,-7.0231e-10,0,0.00046713,-0.00023671,-2.4106e+08,-190.21,0,1.5261e+08,4.4061,11570,12593,1,12593,1,0.0012757,4.7246e-09,0,0.0014014,0.00011187,2.6099e+08,905.21,0,3.1904e+08,285,12592,591.12,0,591.12,0,0.0010784,3.986e-09,0,0.00059054,0.00020126,2.9106e+08,818.17,0,1.4312e+08,225.18,591.12,1
2044,6.36,12082,1,12082,1,0.00034314,-2.1278e-10,0,0.00096662,-6.2685e-05,9.1008,-161.06,0,2.5355e+08,148.77,12081,13104,1,13104,1,0.0021485,1.0567e-08,0,0.0021485,0.00027465,3.301e+08,1787.3,0,5.9469e+08,498.51,13103,12082,1,12082,1,0.00034313,-9.9022e-10,0,0.00093606,-6.288e-05,9.6775e+07,-279.28,0,2.6112e+08,123.66,12081,10985,1,10985,1,-0.0014622,-6.5915e-09,0,8.8132e-06,-0.00039954,-5.9469e+08,-1259.7,0,1.1193e+06,-460.55,10984,11571,1,11571,1,-0.00059294,-2.8117e-09,0,0.00046804,-0.00023736,-2.4112e+08,-768.84,0,1.5281e+08,43.834,11570,12593,1,12593,1,0.0012792,1.1113e-09,0,0.0014041,0.0001119,2.6112e+08,237.43,0,3.1895e+08,257.99,12592,591.12,0,591.12,0,0.0010805,3.6466e-09,0,0.00059193,0.00020165,2.9124e+08,740.77,0,1.4319e+08,153.76,591.12,1
2044,6.37,12082,1,12082,1,0.00034484,1.464e-09,0,0.00096881,-6.2997e-05,24.075,228.91,0,2.5375e+08,21.652,12081,13104,1,13104,1,0.0021538,6.8436e-09,0,0.0021538,0.00027502,3.297e+08,1178.8,0,5.9549e+08,304.97,13103,12082,1,12082,1,0.00034484,1.3275e-09,0,0.00093798,-6.3197e-05,9.7247e+07,311.25,0,2.6127e+08,16.917,12081,10985,1,10985,1,-0.0014641,-3.0931e-09,0,9.835e-06,-0.00040053,-5.9549e+08,-1057.4,0,1.4768e+06,-544.47,10984,11571,1,11571,1,-0.00059315,-4.5622e-10,0,0.000469,-0.00023802,-2.412e+08,-151.06,0,1.5301e+08,-40.635,11570,12593,1,12593,1,0.0012828,3.2316e-09,0,0.001407,0.00011194,2.6127e+08,679.04,0,3.1891e+08,107.1,12592,591.12,0,591.12,0,0.0010827,2.4492e-09,0,0.00059337,0.00020206,2.9146e+08,539.62,0,1.4327e+08,134.59,591.12,1
2044,6.38,12082,1,12082,1,0.00034652,4.0974e-09,0,0.00097085,-6.3304e-05,80.243,916.12,0,2.539e+08,88.244,12081,13104,1,13104,1,0.0021589,1.5356e-08,0,0.0021589,0.00027535,3.2921e+08,3162.8,0,5.9619e+08,636.08,13103,12082,1,12082,1,0.00034652,3.1395e-09,0,0.00093975,-6.3509e-05,9.7713e+07,762.53,0,2.6137e+08,67.894,12081,10985,1,10985,1,-0.0014659,-8.8007e-09,0,1.089e-05,-0.00040146,-5.9619e+08,-1743.5,0,1.8461e+06,-461.65,10984,11571,1,11571,1,-0.00059323,2.8726e-10,0,0.00046987,-0.00023866,-2.4123e+08,78.92,0,1.5319e+08,-18.851,11570,12593,1,12593,1,0.0012863,7.8958e-09,0,0.0014096,0.00011195,2.6137e+08,1808.7,0,3.1879e+08,204.49,12592,591.12,0,591.12,0,0.0010847,5.2918e-09,0,0.00059472,0.00020244,2.9161e+08,1110,0,1.4333e+08,170.51,591.12,1
2044,6.39,12082,1,12082,1,0.00034821,4.1515e-09,0,0.00097303,-6.3613e-05,28.137,1008.2,0,2.541e+08,-8.8733,12081,13104,1,13104,1,0.0021643,1.4398e-08,0,0.0021643,0.00027573,3.2884e+08,3656.3,0,5.9701e+08,385.43,13103,12082,1,12082,1,0.00034821,2.9265e-09,0,0.00094166,-6.3824e-05,9.818e+07,683.51,0,2.6153e+08,1.2837,12081,10985,1,10985,1,-0.0014679,-2.6917e-09,0,1.19e-05,-0.00040246,-5.9701e+08,-828.17,0,2.199e+06,-815.12,10984,11571,1,11571,1,-0.00059345,-2.9345e-11,0,0.00047083,-0.00023932,-2.4132e+08,-6.6909,0,1.534e+08,-60.89,11570,12593,1,12593,1,0.0012899,7.4994e-09,0,0.0014125,0.000112,2.6153e+08,1791.9,0,3.1875e+08,85.972,12592,591.12,0,591.12,0,0.0010869,4.6365e-09,0,0.00059616,0.00020285,2.9183e+08,1160.8,0,1.4341e+08,161.1,591.12,1
2044,6.4,12082,1,12082,1,0.00034994,8.3651e-10,0,0.00097521,-6.393e-05,46.712,315.52,0,2.5428e+08,-83.54,12081,13104,1,13104,1,0.0021697,9.6171e-09,0,0.0021697,0.00027609,3.2839e+08,2856.5,0,5.978e+08,294.9,13103,12082,1,12082,1,0.00034994,-2.4388e-10,0,0.00094355,-6.4147e-05,9.8662e+07,-64.262,0,2.6166e+08,-65.68,12081,10985,1,10985,1,-0.0014698,-5.2071e-09,0,1.295e-05,-0.00040346,-5.978e+08,-1519.2,0,2.5658e+06,-662.11,10984,11571,1,11571,1,-0.00059362,-1.6771e-09,0,0.00047179,-0.00023999,-2.4139e+08,-290.3,0,1.5361e+08,-138.77,11570,12593,1,12593,1,0.0012935,2.9228e-09,0,0.0014154,0.00011203,2.6166e+08,817.83,0,3.1868e+08,0.58751,12592,591.12,0,591.12,0,0.0010891,3.4404e-09,0,0.00059761,0.00020325,2.9203e+08,963.99,0,1.4349e+08,138.86,591.12,1
2044,6.41,12082,1,12082,1,0.00035168,1.5443e-09,0,0.00097738,-6.4248e-05,-38.549,513.58,0,2.5446e+08,-98.496,12081,13104,1,13104,1,0.0021751,1.1562e-08,0,0.0021751,0.00027645,3.2794e+08,3645.3,0,5.9857e+08,258.63,13103,12082,1,12082,1,0.00035169,6.5226e-11,0,0.00094544,-6.447e-05,9.9143e+07,13.385,0,2.6179e+08,-88.356,12081,10985,1,10985,1,-0.0014717,-6.2581e-09,0,1.4017e-05,-0.00040445,-5.9857e+08,-1917.2,0,2.9379e+06,-644.02,10984,11571,1,11571,1,-0.00059376,-1.3255e-09,0,0.00047273,-0.00024066,-2.4145e+08,-225.18,0,1.5381e+08,-180.31,11570,12593,1,12593,1,0.0012971,4.1049e-09,0,0.0014182,0.00011206,2.6179e+08,1143,0,3.1859e+08,-2.6708,12592,591.12,0,591.12,0,0.0010913,3.9984e-09,0,0.00059904,0.00020365,2.9222e+08,1165.1,0,1.4356e+08,130.13,591.12,1
2044,6.42,12082,1,12082,1,0.00035339,-9.9384e-10,0,0.00097948,-6.4562e-05,-62.235,-54.992,0,2.5461e+08,-128.53,12081,13104,1,13104,1,0.0021803,1.8907e-08,0,0.0021803,0.00027678,3.2747e+08,5683.9,0,5.9929e+08,403.12,13103,12082,1,12082,1,0.0003534,-1.9029e-09,0,0.00094725,-6.4788e-05,9.9618e+07,-364.1,0,2.6189e+08,-103.87,12081,10985,1,10985,1,-0.0014735,-1.4259e-08,0,1.508e-05,-0.00040541,-5.9929e+08,-3952.8,0,3.3087e+06,-802.63,10984,11571,1,11571,1,-0.00059386,-5.5564e-09,0,0.00047364,-0.00024131,-2.4149e+08,-1037.6,0,1.5399e+08,-282.4,11570,12593,1,12593,1,0.0013007,2.1558e-09,0,0.0014209,0.00011208,2.6189e+08,604.84,0,3.1849e+08,12.118,12592,591.12,0,591.12,0,0.0010934,5.9491e-09,0,0.00060044,0.00020404,2.9239e+08,1651.6,0,1.4363e+08,194.86,591.12,1
2044,6.43,12082,1,12082,1,0.00035513,3.1633e-09,0,0.0009817,-6.488e-05,-106.8,903.77,0,2.5481e+08,-243.53,12081,13104,1,13104,1,0.0021859,1.7748e-08,0,0.0021859,0.00027716,3.2705e+08,5838.1,0,6.0012e+08,410.59,13103,12082,1,12082,1,0.00035514,2.1641e-09,0,0.00094919,-6.5113e-05,1.001e+08,389.07,0,2.6204e+08,-219.33,12081,10985,1,10985,1,-0.0014755,-9.845e-09,0,1.6126e-05,-0.00040643,-6.0012e+08,-3346,0,3.6727e+06,-1161.6,10984,11571,1,11571,1,-0.00059406,-8.4946e-10,0,0.00047461,-0.00024198,-2.4157e+08,-207.98,0,1.542e+08,-418.89,11570,12593,1,12593,1,0.0013043,6.6916e-09,0,0.0014238,0.00011212,2.6204e+08,1841.5,0,3.1843e+08,-23.568,12592,591.12,0,591.12,0,0.0010956,6.0801e-09,0,0.00060191,0.00020445,2.926e+08,1809.9,0,1.4371e+08,264.78,591.12,1
2044,6.44,12082,1,12082,1,0.00035693,-1.7467e-09,0,0.00098398,-6.5209e-05,-104.17,-187.1,0,2.55e+08,-416.28,12081,13104,1,13104,1,0.0021914,1.589e-08,0,0.0021914,0.00027754,3.2662e+08,2714.9,0,6.0092e+08,130.84,13103,12082,1,12082,1,0.00035694,-4.3429e-11,0,0.00095116,-6.5448e-05,1.006e+08,-11.435,0,2.6218e+08,-400.19,12081,10985,1,10985,1,-0.0014775,-2.4709e-08,0,1.7215e-05,-0.00040745,-6.0092e+08,-4051.5,0,4.0509e+06,-1447.7,10984,11571,1,11571,1,-0.00059424,-4.3908e-09,0,0.0004756,-0.00024268,-2.4165e+08,-846.87,0,1.5441e+08,-642.6,11570,12593,1,12593,1,0.0013081,2.4567e-09,0,0.0014268,0.00011215,2.6218e+08,670.62,0,3.1837e+08,-133.66,12592,591.12,0,591.12,0,0.0010979,7.2175e-09,0,0.00060342,0.00020488,2.9281e+08,1362.1,0,1.438e+08,314.05,591.12,1
2044,6.45,12082,1,12082,1,0.00035873,-1.4499e-09,0,0.00098617,-6.5538e-05,-331.98,-174.85,0,2.5516e+08,-266.08,12081,13104,1,13104,1,0.0021969,7.3621e-09,0,0.0021969,0.00027788,3.2611e+08,2181.9,0,6.0167e+08,115.91,13103,12082,1,12082,1,0.00035874,-3.9023e-11,0,0.00095305,-6.5781e-05,1.0109e+08,-10.733,0,2.6228e+08,-259.48,12081,10985,1,10985,1,-0.0014793,-1.746e-08,0,1.8342e-05,-0.00040845,-6.0167e+08,-2842.6,0,4.4427e+06,-818.44,10984,11571,1,11571,1,-0.00059433,-3.1521e-09,0,0.00047654,-0.00024336,-2.4168e+08,-703.4,0,1.546e+08,-432.24,11570,12593,1,12593,1,0.0013118,1.5956e-09,0,0.0014296,0.00011217,2.6228e+08,422.83,0,3.1825e+08,-80.044,12592,591.12,0,591.12,0,0.0011001,4.8882e-09,0,0.00060489,0.00020528,2.9298e+08,941.84,0,1.4387e+08,196.26,591.12,1
2044,6.46,12082,1,12082,1,0.00036049,5.0061e-11,0,0.00098832,-6.5861e-05,247.72,146.19,0,2.5532e+08,-229.59,12081,13104,1,13104,1,0.0022022,1.3011e-08,0,0.0022022,0.00027823,3.2563e+08,4163.8,0,6.0242e+08,152.35,13103,12082,1,12082,1,0.0003605,-7.3047e-10,0,0.00095493,-6.6109e-05,1.0158e+08,-159.33,0,2.6239e+08,-198.51,12081,10985,1,10985,1,-0.0014812,-5.7658e-09,0,1.9443e-05,-0.00040944,-6.0242e+08,-1531.4,0,4.8246e+06,-983.78,10984,11571,1,11571,1,-0.00059443,-2.2992e-09,0,0.00047748,-0.00024402,-2.4172e+08,-509.1,0,1.5479e+08,-333.01,11570,12593,1,12593,1,0.0013154,1.5921e-09,0,0.0014324,0.00011219,2.6239e+08,383.98,0,3.1814e+08,-57.646,12592,591.12,0,591.12,0,0.0011022,3.6936e-09,0,0.00060633,0.00020568,2.9315e+08,1017.3,0,1.4393e+08,215.49,591.12,1
2044,6.47,12082,1,12082,1,0.00036226,2.5395e-11,0,0.00099053,-6.6185e-05,5.6044,140.35,0,2.555e+08,-279.58,12081,13104,1,13104,1,0.0022077,7.803e-09,0,0.0022077,0.00027859,3.2517e+08,2652.4,0,6.032e+08,215.21,13103,12082,1,12082,1,0.00036227,7.4362e-10,0,0.00095684,-6.6438e-05,1.0207e+08,193.64,0,2.6251e+08,-228.29,12081,10985,1,10985,1,-0.0014831,-1.6394e-08,0,2.0529e-05,-0.00041044,-6.032e+08,-2619.7,0,5.2004e+06,-1086.9,10984,11571,1,11571,1,-0.00059457,-1.7405e-09,0,0.00047843,-0.0002447,-2.4178e+08,-362.16,0,1.5499e+08,-451.58,11570,12593,1,12593,1,0.0013191,2.8514e-09,0,0.0014353,0.00011222,2.6251e+08,757.39,0,3.1804e+08,-74.819,12592,591.12,0,591.12,0,0.0011044,4.5373e-09,0,0.00060781,0.00020609,2.9335e+08,912.29,0,1.4401e+08,244.27,591.12,1
2044,6.48,12082,1,12082,1,0.00036406,-4.0595e-09,0,0.00099275,-6.6514e-05,-23.22,-789.98,0,2.5567e+08,-289.09,12081,13104,1,13104,1,0.0022131,5.1666e-09,0,0.0022131,0.00027895,3.2471e+08,1768.1,0,6.0397e+08,142.16,13103,12082,1,12082,1,0.00036406,-2.4272e-09,0,0.00095877,-6.6771e-05,1.0257e+08,-646.84,0,2.6262e+08,-262.94,12081,10985,1,10985,1,-0.001485,-1.9581e-08,0,2.1635e-05,-0.00041145,-6.0397e+08,-3224.5,0,5.5824e+06,-1300.2,10984,11571,1,11571,1,-0.0005947,-6.9776e-09,0,0.00047938,-0.00024538,-2.4183e+08,-1419,0,1.5519e+08,-398.02,11570,12593,1,12593,1,0.0013228,-5.1851e-10,0,0.0014381,0.00011224,2.6262e+08,-124.54,0,3.176e+08,-94.314,12592,591.12,0,591.12,0,0.0011066,5.1153e-09,0,0.00060929,0.0002065,2.9353e+08,971.23,0,1.4409e+08,246.53,591.12,1
2044,6.49,12082,1,12082,1,0.00036586,-3.1126e-09,0,0.00099497,-6.6844e-05,-51.739,-696.31,0,2.5584e+08,-149.98,12081,13104,1,13104,1,0.0022187,7.3259e-09,0,0.0022187,0.00027931,3.2422e+08,2504.9,0,6.0475e+08,154.87,13103,12082,1,12082,1,0.00036586,-3.4227e-09,0,0.00096069,-6.7106e-05,1.0307e+08,-714.09,0,2.6274e+08,-71.215,12081,10985,1,10985,1,-0.0014869,-9.9229e-09,0,2.2758e-05,-0.00041246,-6.0475e+08,-3071.7,0,5.9697e+06,-1086.3,10984,11571,1,11571,1,-0.00059483,-5.4256e-09,0,0.00048035,-0.00024607,-2.4188e+08,-1210.4,0,1.5539e+08,-242.67,11570,12593,1,12593,1,0.0013266,-6.7132e-10,0,0.001441,0.00011227,2.6274e+08,-147.47,0,3.1715e+08,-8.7135,12592,591.12,0,591.12,0,0.0011089,3.3973e-09,0,0.00061078,0.00020691,2.9372e+08,921.38,0,1.4417e+08,202.22,591.12,1
2044,6.5,12082,1,12082,1,0.00036769,-6.1862e-12,0,0.00099723,-6.7178e-05,-24.252,-42.603,0,2.5602e+08,-226.34,12081,13104,1,13104,1,0.0022243,8.3205e-09,0,0.0022243,0.00027967,3.2375e+08,2217.3,0,6.0554e+08,31.762,13103,12082,1,12082,1,0.0003677,2.1437e-10,0,0.00096265,-6.7446e-05,1.0357e+08,48.14,0,2.6285e+08,-123.73,12081,10985,1,10985,1,-0.0014889,-1.0774e-08,0,2.3884e-05,-0.0004135,-6.0554e+08,-2219.6,0,6.3569e+06,-1353.3,10984,11571,1,11571,1,-0.00059496,-1.5993e-09,0,0.00048133,-0.00024676,-2.4194e+08,-417.83,0,1.5559e+08,-333.85,11570,12593,1,12593,1,0.0013303,1.8078e-09,0,0.001444,0.0001123,2.6285e+08,356.32,0,3.1671e+08,-33.125,12592,591.12,0,591.12,0,0.0011111,2.7813e-09,0,0.0006123,0.00020733,2.9391e+08,690.12,0,1.4425e+08,266.55,591.12,1
2044,6.51,12082,1,12082,1,0.00036954,1.1783e-09,0,0.00099949,-6.7518e-05,-43.593,232.58,0,2.5618e+08,-206,12081,13104,1,13104,1,0.0022299,8.844e-09,0,0.0022299,0.00028003,3.2324e+08,3023.8,0,6.0632e+08,83.865,13103,12082,1,12082,1,0.00036955,1.2956e-09,0,0.00096459,-6.779e-05,1.0408e+08,257.5,0,2.6295e+08,-125.1,12081,10985,1,10985,1,-0.0014908,-6.9749e-09,0,2.5044e-05,-0.00041453,-6.0632e+08,-2256.5,0,6.7551e+06,-1254.5,10984,11571,1,11571,1,-0.00059505,-1.0815e-09,0,0.0004823,-0.00024746,-2.4197e+08,-288.6,0,1.5578e+08,-310.8,11570,12593,1,12593,1,0.0013341,3.4762e-09,0,0.0014469,0.00011231,2.6295e+08,661.85,0,3.1623e+08,-23.897,12592,591.12,0,591.12,0,0.0011134,3.2705e-09,0,0.00061382,0.00020774,2.9409e+08,904.19,0,1.4432e+08,249.49,591.12,1
2044,6.52,12082,1,12082,1,0.00037146,-4.8517e-09,0,0.0010018,-6.7869e-05,-3.9066,-1131.8,0,2.5633e+08,-238.36,12081,13104,1,13104,1,0.0022357,8.0222e-09,0,0.0022357,0.00028039,3.2273e+08,2744.3,0,6.071e+08,178.86,13103,12082,1,12082,1,0.00037147,-5.4246e-09,0,0.00096657,-6.8146e-05,1.0459e+08,-1160.2,0,2.6304e+08,-225.06,12081,10985,1,10985,1,-0.0014927,-1.7091e-08,0,2.6259e-05,-0.0004156,-6.071e+08,-4732.8,0,7.1712e+06,-891.22,10984,11571,1,11571,1,-0.0005951,-8.9827e-09,0,0.00048329,-0.00024818,-2.4199e+08,-1893.3,0,1.5596e+08,-400.02,11570,12593,1,12593,1,0.001338,-4.056e-10,0,0.0014499,0.00011232,2.6304e+08,-84.209,0,3.1575e+08,-50.958,12592,591.12,0,591.12,0,0.0011156,5.2254e-09,0,0.00061536,0.00020816,2.9426e+08,1410.8,0,1.4439e+08,204.53,591.12,1
2044,6.53,12082,1,12082,1,0.00037342,-4.9842e-10,0,0.0010041,-6.8227e-05,-51.044,-282.75,0,2.5648e+08,-272.65,12081,13104,1,13104,1,0.0022415,1.1632e-08,0,0.0022415,0.00028074,3.2219e+08,2686,0,6.0785e+08,97.122,13103,12082,1,12082,1,0.00037343,-6.0432e-10,0,0.00096854,-6.8509e-05,1.051e+08,-139.39,0,2.6312e+08,-217.86,12081,10985,1,10985,1,-0.0014945,-1.0499e-08,0,2.75e-05,-0.00041666,-6.0785e+08,-3316.8,0,7.5949e+06,-1158.5,10984,11571,1,11571,1,-0.00059513,-3.8031e-09,0,0.0004843,-0.0002489,-2.4201e+08,-955.69,0,1.5614e+08,-438.99,11570,12593,1,12593,1,0.001342,2.4254e-09,0,0.0014529,0.00011233,2.6312e+08,493.49,0,3.1525e+08,-60.737,12592,591.12,0,591.12,0,0.0011179,4.6183e-09,0,0.00061694,0.00020859,2.9442e+08,1160.1,0,1.4447e+08,246.57,591.12,1
2044,6.54,12082,1,12082,1,0.00037541,-1.6873e-10,0,0.0010065,-6.8591e-05,16.835,-235.86,0,2.5663e+08,-268.13,12081,13104,1,13104,1,0.0022474,1.1587e-08,0,0.0022474,0.0002811,3.2165e+08,3044.4,0,6.0864e+08,74.507,13103,12082,1,12082,1,0.00037542,2.4418e-10,0,0.00097057,-6.8879e-05,1.0563e+08,49.234,0,2.632e+08,-191.41,12081,10985,1,10985,1,-0.0014965,-1.1584e-08,0,2.8766e-05,-0.00041775,-6.0864e+08,-3960.6,0,8.0258e+06,-1336.7,10984,11571,1,11571,1,-0.00059517,-3.7128e-09,0,0.00048531,-0.00024964,-2.4202e+08,-959.93,0,1.5632e+08,-399.57,11570,12593,1,12593,1,0.001346,3.5047e-09,0,0.0014559,0.00011234,2.632e+08,713.78,0,3.1474e+08,-46.557,12592,591.12,0,591.12,0,0.0011203,5.2285e-09,0,0.00061854,0.00020902,2.9459e+08,1391.9,0,1.4454e+08,283.28,591.12,1
2044,6.55,12082,1,12082,1,0.00037744,-2.2452e-10,0,0.0010088,-6.8962e-05,156.13,-253.1,0,2.5677e+08,-340.51,12081,13104,1,13104,1,0.0022534,1.352e-08,0,0.0022534,0.00028146,3.2109e+08,2964.6,0,6.0942e+08,144.89,13103,12082,1,12082,1,0.00037745,-4.5838e-11,0,0.00097262,-6.9255e-05,1.0616e+08,-14.316,0,2.6327e+08,-288.11,12081,10985,1,10985,1,-0.0014984,-1.191e-08,0,3.0062e-05,-0.00041885,-6.0942e+08,-4072,0,8.4653e+06,-1145,10984,11571,1,11571,1,-0.00059518,-4.5236e-09,0,0.00048634,-0.00025039,-2.4203e+08,-1096.5,0,1.565e+08,-546.37,11570,12593,1,12593,1,0.0013501,3.343e-09,0,0.001459,0.00011235,2.6327e+08,709.57,0,3.1421e+08,-87.69,12592,591.12,0,591.12,0,0.0011226,5.6857e-09,0,0.00062016,0.00020945,2.9475e+08,1413.7,0,1.4461e+08,291.5,591.12,1
2044,6.56,12082,1,12082,1,0.00037948,-3.7832e-09,0,0.0010112,-6.9336e-05,-2.9321,-1112.1,0,2.5691e+08,-358.64,12081,13104,1,13104,1,0.0022594,1.2771e-08,0,0.0022594,0.00028182,3.2051e+08,2561.6,0,6.102e+08,649.14,13103,12082,1,12082,1,0.00037949,-4.3209e-09,0,0.00097465,-6.9633e-05,1.067e+08,-999.38,0,2.6333e+08,-341.38,12081,10985,1,10985,1,-0.0015003,-1.7476e-08,0,3.1374e-05,-0.00041996,-6.102e+08,-5134.3,0,8.9087e+06,-1328.5,10984,11571,1,11571,1,-0.00059517,-9.075e-09,0,0.00048735,-0.00025114,-2.4202e+08,-2167.5,0,1.5667e+08,-587.33,11570,12593,1,12593,1,0.0013542,1.344e-09,0,0.001462,0.00011235,2.6333e+08,286.01,0,3.1366e+08,-111.82,12592,591.12,0,591.12,0,0.001125,6.6925e-09,0,0.00062178,0.00020989,2.949e+08,1750.3,0,1.4468e+08,300.93,591.12,1
2044,6.57,12082,1,12082,1,0.00038156,4.9432e-09,0,0.0010137,-6.9717e-05,-38.916,777.4,0,2.5707e+08,-413.03,12081,13104,1,13104,1,0.0022655,2.9086e-08,0,0.0022655,0.00028219,3.1997e+08,4766.6,0,6.11e+08,317.72,13103,12082,1,12082,1,0.00038158,1.8094e-09,0,0.00097678,-7.002e-05,1.0725e+08,466.73,0,2.6342e+08,-241.36,12081,10985,1,10985,1,-0.0015023,-1.5118e-08,0,3.2691e-05,-0.00042109,-6.11e+08,-2406,0,9.3517e+06,-1401.4,10984,11571,1,11571,1,-0.00059523,-2.0315e-09,0,0.00048842,-0.00025192,-2.4205e+08,-611.14,0,1.5686e+08,-763.82,11570,12593,1,12593,1,0.0013584,1.0303e-08,0,0.0014652,0.00011236,2.6342e+08,1851.1,0,3.1314e+08,-27.224,12592,591.12,0,591.12,0,0.0011275,9.7836e-09,0,0.00062348,0.00021034,2.9509e+08,1779.8,0,1.4477e+08,465.43,591.12,1
2044,6.58,12082,1,12082,1,0.00038367,4.0885e-09,0,0.0010161,-7.0103e-05,-13.862,715.15,0,2.572e+08,-227.25,12081,13104,1,13104,1,0.0022716,1.6254e-08,0,0.0022716,0.00028255,3.1934e+08,3587.8,0,6.1176e+08,179.05,13103,12082,1,12082,1,0.00038368,4.19e-09,0,0.00097885,-7.0409e-05,1.078e+08,895.96,0,2.6347e+08,-125.45,12081,10985,1,10985,1,-0.0015041,-8.6704e-09,0,3.4068e-05,-0.00042221,-6.1176e+08,-2966,0,9.8136e+06,-955.19,10984,11571,1,11571,1,-0.00059519,-9.5848e-10,0,0.00048945,-0.00025268,-2.4203e+08,-251.26,0,1.5703e+08,-426.66,11570,12593,1,12593,1,0.0013625,8.9629e-09,0,0.0014683,0.00011235,2.6347e+08,1922.8,0,3.1256e+08,7.5379,12592,591.12,0,591.12,0,0.0011298,6.2246e-09,0,0.00062514,0.00021078,2.9523e+08,1427.7,0,1.4483e+08,292.45,591.12,1
2044,6.59,12082,1,12082,1,0.00038577,-6.2957e-10,0,0.0010186,-7.0488e-05,62.794,-301.03,0,2.5733e+08,-297.85,12081,13104,1,13104,1,0.0022777,1.2577e-08,0,0.0022777,0.00028291,3.1874e+08,2362.4,0,6.1254e+08,246.4,13103,12082,1,12082,1,0.00038578,-1.2934e-09,0,0.00098092,-7.0799e-05,1.0835e+08,-298.08,0,2.6352e+08,-227.83,12081,10985,1,10985,1,-0.0015061,-1.2883e-08,0,3.543e-05,-0.00042333,-6.1254e+08,-3097.8,0,1.0268e+07,-880.75,10984,11571,1,11571,1,-0.00059516,-4.5229e-09,0,0.00049049,-0.00025345,-2.4202e+08,-1125.1,0,1.572e+08,-521.57,11570,12593,1,12593,1,0.0013667,2.5363e-09,0,0.0014714,0.00011235,2.6352e+08,565.42,0,3.1199e+08,-52.837,12592,591.12,0,591.12,0,0.0011322,5.3788e-09,0,0.00062681,0.00021123,2.9538e+08,1214.4,0,1.449e+08,276.73,591.12,1
2044,6.6,12082,1,12082,1,0.00038789,-2.3848e-09,0,0.001021,-7.0877e-05,23.594,-735.68,0,2.5748e+08,-287.03,12081,13104,1,13104,1,0.0022839,1.1227e-08,0,0.0022839,0.00028328,3.1814e+08,1675.2,0,6.1335e+08,248.8,13103,12082,1,12082,1,0.00038791,-2.7944e-09,0,0.00098305,-7.1193e-05,1.0891e+08,-655.41,0,2.6359e+08,-246.1,12081,10985,1,10985,1,-0.0015081,-1.3497e-08,0,3.6795e-05,-0.00042448,-6.1335e+08,-3529.2,0,1.0722e+07,-865.86,10984,11571,1,11571,1,-0.00059516,-6.8551e-09,0,0.00049155,-0.00025423,-2.4202e+08,-1642.8,0,1.5738e+08,-478.44,11570,12593,1,12593,1,0.001371,1.1786e-09,0,0.0014746,0.00011235,2.6359e+08,237.76,0,3.1143e+08,-56.624,12592,591.12,0,591.12,0,0.0011347,5.3871e-09,0,0.00062851,0.00021168,2.9555e+08,1310.9,0,1.4498e+08,250.47,591.12,1
2044,6.61,12082,1,12082,1,0.00039003,6.3382e-10,0,0.0010235,-7.1268e-05,71.952,-110.23,0,2.5761e+08,-199.9,12081,13104,1,13104,1,0.0022901,1.2797e-08,0,0.0022901,0.00028364,3.1752e+08,3148.1,0,6.1412e+08,601.75,13103,12082,1,12082,1,0.00039005,1.0145e-09,0,0.00098514,-7.1589e-05,1.0947e+08,201.71,0,2.6364e+08,-137.26,12081,10985,1,10985,1,-0.0015099,-1.2641e-08,0,3.8184e-05,-0.00042562,-6.1412e+08,-4321.6,0,1.1181e+07,-816.93,10984,11571,1,11571,1,-0.00059511,-3.5922e-09,0,0.0004926,-0.00025501,-2.42e+08,-997.78,0,1.5755e+08,-375.77,11570,12593,1,12593,1,0.0013752,5.0437e-09,0,0.0014778,0.00011234,2.6364e+08,978.55,0,3.1084e+08,-13.027,12592,591.12,0,591.12,0,0.0011371,6.0445e-09,0,0.0006302,0.00021212,2.9569e+08,1569.5,0,1.4505e+08,259.39,591.12,1
2044,6.62,12082,1,12082,1,0.00039221,-1.2814e-09,0,0.0010261,-7.1668e-05,-17.5,-574.05,0,2.5776e+08,-305.56,12081,13104,1,13104,1,0.0022966,1.7218e-08,0,0.0022966,0.00028403,3.1694e+08,2554.4,0,6.1496e+08,731.23,13103,12082,1,12082,1,0.00039223,-2.6283e-09,0,0.00098734,-7.1993e-05,1.1004e+08,-665.76,0,2.6371e+08,-207.98,12081,10985,1,10985,1,-0.001512,-1.4723e-08,0,3.9578e-05,-0.0004268,-6.1496e+08,-3595,0,1.164e+07,-1215.3,10984,11571,1,11571,1,-0.00059513,-6.5324e-09,0,0.0004937,-0.00025581,-2.42e+08,-1667.4,0,1.5774e+08,-574.96,11570,12593,1,12593,1,0.0013796,2.3618e-09,0,0.0014811,0.00011235,2.6371e+08,455.78,0,3.1029e+08,-17.266,12592,591.12,0,591.12,0,0.0011396,7.1676e-09,0,0.00063197,0.00021259,2.9587e+08,1492.3,0,1.4514e+08,387.93,591.12,1
2044,6.63,12082,1,12082,1,0.0003945,4.2994e-09,0,0.0010286,-7.2087e-05,293.93,663.07,0,2.5787e+08,-218.42,12081,13104,1,13104,1,0.002303,2.1431e-08,0,0.002303,0.00028438,3.1627e+08,3308.3,0,6.1571e+08,1218,13103,12082,1,12082,1,0.00039452,3.8368e-09,0,0.00098949,-7.2416e-05,1.106e+08,838.04,0,2.6373e+08,-158.3,12081,10985,1,10985,1,-0.0015139,-8.0094e-09,0,4.1092e-05,-0.00042799,-6.1571e+08,-2739.8,0,1.2134e+07,-963.01,10984,11571,1,11571,1,-0.00059501,-1.2632e-09,0,0.00049478,-0.00025663,-2.4195e+08,-281.15,0,1.5789e+08,-473.67,11570,12593,1,12593,1,0.001384,8.6764e-09,0,0.0014843,0.00011233,2.6373e+08,1828.8,0,3.0966e+08,-14.815,12592,591.12,0,591.12,0,0.0011421,7.1498e-09,0,0.00063374,0.00021305,2.96e+08,1529.9,0,1.4521e+08,369.48,591.12,1
2044,6.64,12082,1,12082,1,0.00039691,1.5047e-09,0,0.0010313,-7.2527e-05,-128.65,106.78,0,2.5799e+08,-211.59,12081,13104,1,13104,1,0.0023098,1.9022e-08,0,0.0023098,0.00028476,3.1561e+08,2890.1,0,6.1654e+08,1516.9,13103,12082,1,12082,1,0.00039692,3.4596e-10,0,0.00099179,-7.2858e-05,1.1118e+08,76.009,0,2.6376e+08,-161.09,12081,10985,1,10985,1,-0.0015159,-8.7685e-09,0,4.2678e-05,-0.00042925,-6.1654e+08,-2567.8,0,1.2649e+07,-1058.1,10984,11571,1,11571,1,-0.0005949,-3.3065e-09,0,0.00049593,-0.00025749,-2.4191e+08,-805.24,0,1.5804e+08,-506.36,11570,12593,1,12593,1,0.0013887,4.3804e-09,0,0.0014878,0.00011231,2.6376e+08,1023.3,0,3.0904e+08,0.86756,12592,591.12,0,591.12,0,0.0011448,6.4599e-09,0,0.00063562,0.00021354,2.9615e+08,1310,0,1.4529e+08,423.98,591.12,1
2044,6.65,12082,1,12082,1,0.00039941,1.6156e-09,0,0.0010341,-7.2985e-05,-22.391,136.07,0,2.5809e+08,-29.324,12081,13104,1,13104,1,0.0023168,1.3876e-08,0,0.0023168,0.00028513,3.1489e+08,2761.4,0,6.1734e+08,2386.9,13103,12082,1,12082,1,0.00039942,2.0496e-09,0,0.0009941,-7.3319e-05,1.1178e+08,362.91,0,2.6376e+08,-44.18,12081,10985,1,10985,1,-0.0015179,-9.9598e-09,0,4.4352e-05,-0.00043053,-6.1734e+08,-3404.9,0,1.3189e+07,-964.7,10984,11571,1,11571,1,-0.00059471,-2.9712e-09,0,0.00049708,-0.00025838,-2.4183e+08,-706.91,0,1.5819e+08,-306.82,11570,12593,1,12593,1,0.0013936,6.2805e-09,0,0.0014912,0.00011228,2.6376e+08,1270.4,0,3.0835e+08,87.133,12592,591.12,0,591.12,0,0.0011475,5.9885e-09,0,0.00063754,0.00021404,2.9627e+08,1510.2,0,1.4537e+08,507.23,591.12,1
2044,6.66,12082,1,12082,1,0.00040198,3.4185e-10,0,0.0010369,-7.3456e-05,33.936,-128.65,0,2.5819e+08,-7.9428,12081,13104,1,13104,1,0.002324,1.5346e-08,0,0.002324,0.00028551,3.1414e+08,2229.8,0,6.1816e+08,3224.8,13103,12082,1,12082,1,0.00040199,2.3406e-10,0,0.00099648,-7.3791e-05,1.1239e+08,54.535,0,2.6376e+08,-56.238,12081,10985,1,10985,1,-0.0015199,-1.0161e-08,0,4.6073e-05,-0.00043185,-6.1816e+08,-3473.7,0,1.3741e+07,-1229.4,10984,11571,1,11571,1,-0.00059452,-4.419e-09,0,0.00049827,-0.00025928,-2.4175e+08,-953.72,0,1.5833e+08,-444.86,11570,12593,1,12593,1,0.0013985,4.2814e-09,0,0.0014948,0.00011224,2.6376e+08,936.88,0,3.0765e+08,154.48,12592,591.12,0,591.12,0,0.0011502,5.9356e-09,0,0.00063952,0.00021454,2.964e+08,1411.3,0,1.4544e+08,741.25,591.12,1
2044,6.67,12082,1,12082,1,0.00040461,3.6246e-09,0,0.0010397,-7.3939e-05,177.5,587.38,0,2.5829e+08,104.18,12081,13104,1,13104,1,0.0023312,2.1447e-08,0,0.0023312,0.00028589,3.1337e+08,3217.9,0,6.1898e+08,4644.4,13103,12082,1,12082,1,0.00040462,3.2355e-09,0,0.0009989,-7.4277e-05,1.1301e+08,691.53,0,2.6375e+08,-59.47,12081,10985,1,10985,1,-0.0015219,-8.0575e-09,0,4.7845e-05,-0.00043318,-6.1898e+08,-2756.2,0,1.4306e+07,-1296,10984,11571,1,11571,1,-0.0005943,-2.0405e-09,0,0.00049947,-0.00026021,-2.4167e+08,-461.75,0,1.5847e+08,-503.73,11570,12593,1,12593,1,0.0014035,8.2316e-09,0,0.0014984,0.00011221,2.6375e+08,1815.3,0,3.0692e+08,325.69,12592,591.12,0,591.12,0,0.001153,6.99e-09,0,0.00064154,0.00021506,2.9652e+08,1544.2,0,1.4552e+08,999.29,591.12,1
2044,6.68,12082,1,12082,1,0.00040732,1.4244e-09,0,0.0010427,-7.4435e-05,-22.441,209.66,0,2.5839e+08,226.99,12081,13104,1,13104,1,0.0023388,1.4961e-08,0,0.0023388,0.00028628,3.1259e+08,3122.1,0,6.1983e+08,5496.9,13103,12082,1,12082,1,0.00040733,1.6301e-09,0,0.0010014,-7.4774e-05,1.1365e+08,328.28,0,2.6374e+08,-12.791,12081,10985,1,10985,1,-0.001524,-1.5368e-08,0,4.9664e-05,-0.00043457,-6.1983e+08,-3454.5,0,1.4884e+07,-1386.7,10984,11571,1,11571,1,-0.00059409,-3.3619e-09,0,0.00050072,-0.00026116,-2.4158e+08,-723.52,0,1.5862e+08,-410.11,11570,12593,1,12593,1,0.0014087,6.4031e-09,0,0.0015022,0.00011217,2.6374e+08,1369.8,0,3.0618e+08,392.77,12592,591.12,0,591.12,0,0.0011559,6.2938e-09,0,0.00064363,0.00021559,2.9665e+08,1524.6,0,1.456e+08,1161.9,591.12,1
2044,6.69,12082,1,12082,1,0.00041013,1.2697e-09,0,0.0010458,-7.495e-05,535.7,174.48,0,2.585e+08,290.33,12081,13104,1,13104,1,0.0023465,2.0787e-08,0,0.0023465,0.00028669,3.1179e+08,3084.3,0,6.2072e+08,7128.6,13103,12082,1,12082,1,0.00041013,7.328e-10,0,0.001004,-7.529e-05,1.1432e+08,178.89,0,2.6373e+08,-56.284,12081,10985,1,10985,1,-0.0015262,-1.3951e-08,0,5.1548e-05,-0.000436,-6.2072e+08,-2989.1,0,1.5478e+07,-1644.7,10984,11571,1,11571,1,-0.00059387,-2.76e-09,0,0.00050201,-0.00026215,-2.4149e+08,-698.44,0,1.5878e+08,-591.77,11570,12593,1,12593,1,0.0014141,4.0416e-09,0,0.001506,0.00011213,2.6373e+08,987.87,0,3.0542e+08,559.58,12592,591.12,0,591.12,0,0.0011589,6.5805e-09,0,0.0006458,0.00021614,2.9678e+08,1224.8,0,1.4569e+08,1539.1,591.12,1
2044,6.7,12082,1,12082,1,0.00041303,-3.1438e-10,0,0.0010489,-7.5481e-05,-7.2554,-181.64,0,2.586e+08,593.51,12081,13104,1,13104,1,0.0023545,2.47e-08,0,0.0023545,0.0002871,3.1094e+08,4800.4,0,6.2161e+08,9207.2,13103,12082,1,12082,1,0.00041303,-8.4431e-10,0,0.0010066,-7.5821e-05,1.15e+08,-211.15,0,2.6371e+08,4.2962,12081,10985,1,10985,1,-0.0015284,-2.2401e-08,0,5.3498e-05,-0.00043747,-6.2161e+08,-6196.3,0,1.6093e+07,-1600.9,10984,11571,1,11571,1,-0.00059361,-3.8515e-09,0,0.00050333,-0.00026317,-2.4139e+08,-955.28,0,1.5893e+08,-455.12,11570,12593,1,12593,1,0.0014197,2.1057e-09,0,0.00151,0.00011209,2.6371e+08,537.64,0,3.0462e+08,908.79,12592,591.12,0,591.12,0,0.0011619,6.4048e-09,0,0.00064803,0.0002167,2.9691e+08,1286.5,0,1.4578e+08,1893.6,591.12,1
2044,6.71,12082,1,12082,1,0.000416,-1.2597e-09,0,0.0010521,-7.6024e-05,157.24,-429.46,0,2.5869e+08,996.4,12081,13104,1,13104,1,0.0023626,4.629e-08,0,0.0023626,0.00028751,3.1005e+08,7375.5,0,6.225e+08,11728,13103,12082,1,12082,1,0.00041598,-2.0053e-09,0,0.0010093,-7.6362e-05,1.157e+08,-499.71,0,2.6367e+08,54.358,12081,10985,1,10985,1,-0.0015305,-3.9978e-08,0,5.5493e-05,-0.00043896,-6.225e+08,-9098,0,1.6718e+07,-1365.6,10984,11571,1,11571,1,-0.00059331,-4.9713e-09,0,0.00050466,-0.0002642,-2.4126e+08,-1205.3,0,1.5907e+08,-298.8,11570,12593,1,12593,1,0.0014253,1.1139e-09,0,0.001514,0.00011203,2.6367e+08,239.21,0,3.0378e+08,1399.9,12592,591.12,0,591.12,0,0.001165,8.1727e-09,0,0.00065029,0.00021727,2.9703e+08,1752.1,0,1.4586e+08,2336.9,591.12,1
2044,6.72,12082,1,12082,1,0.00041903,-1.3659e-09,0,0.0010554,-7.6579e-05,-7.6362,-530.76,0,2.5878e+08,1475.9,12081,13104,1,13104,1,0.002371,6.808e-08,0,0.002371,0.00028794,3.0917e+08,10593,0,6.2342e+08,14461,13103,12082,1,12082,1,0.000419,-2.5459e-09,0,0.001012,-7.6915e-05,1.164e+08,-600.41,0,2.6364e+08,201.9,12081,10985,1,10985,1,-0.0015328,-6.1308e-08,0,5.7521e-05,-0.0004405,-6.2342e+08,-13165,0,1.735e+07,-1111.6,10984,11571,1,11571,1,-0.00059303,-4.8563e-09,0,0.00050604,-0.00026525,-2.4115e+08,-1366.2,0,1.5922e+08,-129.73,11570,12593,1,12593,1,0.0014311,2.0758e-09,0,0.0015181,0.00011199,2.6364e+08,307.58,0,3.0294e+08,2002.6,12592,591.12,0,591.12,0,0.0011682,1.2077e-08,0,0.00065262,0.00021785,2.9716e+08,2583.5,0,1.4595e+08,2846.8,591.12,1
2044,6.73,12082,1,12082,1,0.00042211,5.6345e-09,0,0.0010586,-7.7141e-05,-171.13,948.24,0,2.5885e+08,2118,12081,13104,1,13104,1,0.0023792,1.1013e-07,0,0.0023792,0.00028834,3.0824e+08,17211,0,6.2428e+08,17564,13103,12082,1,12082,1,0.00042206,4.2805e-09,0,0.0010147,-7.7477e-05,1.1712e+08,952.91,0,2.6357e+08,448.94,12081,10985,1,10985,1,-0.0015349,-8.1447e-08,0,5.9605e-05,-0.000442,-6.2428e+08,-14409,0,1.7997e+07,-1064,10984,11571,1,11571,1,-0.00059266,-1.7271e-09,0,0.00050738,-0.00026631,-2.41e+08,-533.07,0,1.5936e+08,-35.702,11570,12593,1,12593,1,0.0014369,1.2303e-08,0,0.0015221,0.00011192,2.6357e+08,2287.3,0,3.0204e+08,2862.8,12592,591.12,0,591.12,0,0.0011713,1.9125e-08,0,0.00065494,0.00021843,2.9725e+08,3696.5,0,1.4603e+08,3564.2,591.12,1
2044,6.74,12082,1,12082,1,0.00042525,7.7502e-09,0,0.001062,-7.7717e-05,-60.866,1648.7,0,2.5896e+08,2714,12081,13104,1,13104,1,0.0023879,1.3875e-07,0,0.0023879,0.00028879,3.0735e+08,21612,0,6.2526e+08,21295,13103,12082,1,12082,1,0.0004252,6.8255e-09,0,0.0010176,-7.8052e-05,1.1786e+08,1565.7,0,2.6355e+08,694.99,12081,10985,1,10985,1,-0.0015373,-1.1099e-07,0,6.1721e-05,-0.00044361,-6.2526e+08,-17052,0,1.8652e+07,-547.27,10984,11571,1,11571,1,-0.00059239,-1.4902e-10,0,0.00050881,-0.00026741,-2.4089e+08,-28.529,0,1.5952e+08,77.602,11570,12593,1,12593,1,0.0014429,1.5383e-08,0,0.0015264,0.00011188,2.6355e+08,3387.4,0,3.012e+08,3606.9,12592,591.12,0,591.12,0,0.0011746,2.5203e-08,0,0.00065738,0.00021904,2.974e+08,4812.7,0,1.4613e+08,4196.2,591.12,1
2044,6.75,12082,1,12082,1,0.00042853,-5.0389e-10,0,0.0010655,-7.8316e-05,-144.58,28.985,0,2.5905e+08,3341.3,12081,13104,1,13104,1,0.0023969,1.5336e-07,0,0.0023969,0.00028924,3.0638e+08,23546,0,6.2623e+08,26094,13103,12082,1,12082,1,0.00042845,3.7153e-11,0,0.0010205,-7.8649e-05,1.1862e+08,8.4035,0,2.635e+08,954.28,12081,10985,1,10985,1,-0.0015397,-1.4995e-07,0,6.3918e-05,-0.00044526,-6.2623e+08,-24384,0,1.9329e+07,-432.21,10984,11571,1,11571,1,-0.00059206,-5.4462e-09,0,0.00051029,-0.00026855,-2.4075e+08,-881.78,0,1.5968e+08,69.634,11570,12593,1,12593,1,0.0014491,3.902e-09,0,0.0015308,0.00011182,2.635e+08,1072.9,0,3.0029e+08,4529,12592,591.12,0,591.12,0,0.001178,3.0147e-08,0,0.00065991,0.00021967,2.9753e+08,5955.1,0,1.4624e+08,5085.5,591.12,1
2044,6.76,12082,1,12082,1,0.00043192,-3.0238e-09,0,0.0010691,-7.8935e-05,61.404,-512.26,0,2.5914e+08,4227.9,12081,13104,1,13104,1,0.0024061,1.9338e-07,0,0.0024061,0.0002897,3.054e+08,29410,0,6.2722e+08,31518,13103,12082,1,12082,1,0.00043182,-1.6628e-09,0,0.0010235,-7.9262e-05,1.194e+08,-367.54,0,2.6344e+08,1346.1,12081,10985,1,10985,1,-0.0015422,-1.9848e-07,0,6.619e-05,-0.00044695,-6.2722e+08,-31489,0,2.0028e+07,-251.91,10984,11571,1,11571,1,-0.0005917,-9.8405e-09,0,0.0005118,-0.00026972,-2.4061e+08,-2005,0,1.5983e+08,173.33,11570,12593,1,12593,1,0.0014555,4.023e-09,0,0.0015354,0.00011176,2.6344e+08,991.22,0,2.9935e+08,5729.9,12592,591.12,0,591.12,0,0.0011815,3.9834e-08,0,0.00066251,0.00022031,2.9766e+08,7780,0,1.4634e+08,6155.8,591.12,1
2044,6.77,12082,1,12082,1,0.00043541,1.0207e-09,0,0.0010729,-7.9574e-05,-42.935,262.07,0,2.5923e+08,5170.4,12081,13104,1,13104,1,0.0024156,2.4369e-07,0,0.0024156,0.00029018,3.0437e+08,38006,0,6.2825e+08,37527,13103,12082,1,12082,1,0.00043529,8.2596e-10,0,0.0010266,-7.9893e-05,1.2021e+08,185.23,0,2.6338e+08,1708.2,12081,10985,1,10985,1,-0.0015447,-2.2859e-07,0,6.8538e-05,-0.00044871,-6.2825e+08,-40653,0,2.0749e+07,-139.68,10984,11571,1,11571,1,-0.00059132,-7.0442e-09,0,0.00051337,-0.00027092,-2.4045e+08,-1536.6,0,1.5999e+08,210.7,11570,12593,1,12593,1,0.001462,9.5247e-09,0,0.00154,0.0001117,2.6338e+08,2234.5,0,2.9837e+08,7042.3,12592,591.12,0,591.12,0,0.0011851,4.8743e-08,0,0.0006652,0.00022097,2.978e+08,9863.7,0,1.4645e+08,7432.1,591.12,1
2044,6.78,12082,1,12082,1,0.00043901,-2.0454e-09,0,0.0010767,-8.0229e-05,5.0731,-383.23,0,2.5931e+08,6567.3,12081,13104,1,13104,1,0.0024253,3.1387e-07,0,0.0024253,0.00029065,3.0332e+08,46967,0,6.2927e+08,44719,13103,12082,1,12082,1,0.00043885,-1.0854e-09,0,0.0010297,-8.0539e-05,1.2103e+08,-224.3,0,2.633e+08,2552.7,12081,10985,1,10985,1,-0.0015472,-2.9839e-07,0,7.0944e-05,-0.00045049,-6.2927e+08,-50083,0,2.1485e+07,-76.026,10984,11571,1,11571,1,-0.0005909,-1.6974e-08,0,0.00051495,-0.00027215,-2.4028e+08,-3506.1,0,1.6014e+08,751.59,11570,12593,1,12593,1,0.0014688,1.151e-08,0,0.0015447,0.00011163,2.633e+08,2671.5,0,2.9736e+08,8929.8,12592,591.12,0,591.12,0,0.0011887,6.5616e-08,0,0.00066795,0.00022164,2.9792e+08,12798,0,1.4656e+08,8814.7,591.12,1
2044,6.79,12082,1,12082,1,0.00044271,3.2537e-09,0,0.0010806,-8.0904e-05,140.69,735.26,0,2.594e+08,8035.1,12081,13104,1,13104,1,0.0024354,3.9099e-07,0,0.0024354,0.00029114,3.0225e+08,58033,0,6.3034e+08,52702,13103,12082,1,12082,1,0.00044251,2.9668e-09,0,0.0010329,-8.1204e-05,1.2188e+08,687.87,0,2.6322e+08,3309,12081,10985,1,10985,1,-0.0015498,-3.621e-07,0,7.3415e-05,-0.00045235,-6.3034e+08,-61324,0,2.224e+07,-44.025,10984,11571,1,11571,1,-0.00059048,-1.6172e-08,0,0.0005166,-0.00027341,-2.4011e+08,-3449.4,0,1.603e+08,995.34,11570,12593,1,12593,1,0.0014757,2.2323e-08,0,0.0015498,0.00011156,2.6322e+08,5057.7,0,2.9633e+08,10992,12592,591.12,0,591.12,0,0.0011925,8.1457e-08,0,0.0006708,0.00022234,2.9805e+08,15960,0,1.4667e+08,10524,591.12,1
2044,6.8,12082,1,12082,1,0.00044656,-2.1063e-09,0,0.0010846,-8.1605e-05,-2.5868,-302.15,0,2.595e+08,9789,12081,13104,1,13104,1,0.0024459,4.7262e-07,0,0.0024459,0.00029166,3.0115e+08,71424,0,6.3146e+08,62505,13103,12082,1,12082,1,0.00044631,-1.2808e-09,0,0.0010365,-8.189e-05,1.2276e+08,-277.37,0,2.6314e+08,4263,12081,10985,1,10985,1,-0.0015526,-4.5038e-07,0,7.168e-05,-0.00045428,-6.3146e+08,-76372,0,2.3015e+07,7.6472,10984,11571,1,11571,1,-0.00059005,-2.8837e-08,0,0.00051805,-0.00027473,-2.3993e+08,-6076,0,1.6046e+08,1381,11570,12593,1,12593,1,0.0014829,2.3012e-08,0,0.0015546,0.00011149,2.6314e+08,5487.7,0,2.9527e+08,13398,12592,591.12,0,591.12,0,0.0011965,1.013e-07,0,0.00067378,0.00022307,2.982e+08,19928,0,1.468e+08,12474,591.12,1
2044,6.81,12082,1,12082,1,0.00045054,-4.7832e-09,0,0.0010888,-8.2329e-05,294.87,-960.74,0,2.5957e+08,12017,12081,13104,1,13104,1,0.0024567,5.8638e-07,0,0.0024567,0.00029217,2.9999e+08,86871,0,6.3257e+08,73539,13103,12082,1,12082,1,0.00045024,-4.281e-09,0,0.00104,-8.2595e-05,1.2366e+08,-950.8,0,2.6304e+08,5631.5,12081,10985,1,10985,1,-0.0015553,-5.6027e-07,0,6.9419e-05,-0.00045625,-6.3257e+08,-93894,0,2.3822e+07,-5.8153,10984,11571,1,11571,1,-0.00058956,-4.0692e-08,0,0.00051974,-0.00027608,-2.3973e+08,-8761.3,0,1.6062e+08,1914.6,11570,12593,1,12593,1,0.0014903,2.9435e-08,0,0.0015597,0.00011141,2.6304e+08,6846.3,0,2.9415e+08,16531,12592,591.12,0,591.12,0,0.0012005,1.2807e-07,0,0.00067684,0.00022381,2.9832e+08,24956,0,1.4692e+08,14783,591.12,1
2044,6.82,12082,1,12082,1,0.00045464,4.1509e-09,0,0.0010931,-8.3074e-05,-78.765,805.21,0,2.5965e+08,14743,12081,13104,1,13104,1,0.0024678,7.3814e-07,0,0.0024678,0.00029271,2.9881e+08,1.0702e+05,0,6.3372e+08,86010,13103,12082,1,12082,1,0.00045428,3.8046e-09,0,0.0010436,-8.332e-05,1.2459e+08,888.9,0,2.6293e+08,7456.1,12081,10985,1,10985,1,-0.0015581,-6.8228e-07,0,6.709e-05,-0.0004583,-6.3372e+08,-1.1232e+05,0,2.4645e+07,-76.293,10984,11571,1,11571,1,-0.00058906,-4.4074e-08,0,0.00052147,-0.00027747,-2.3953e+08,-9408.2,0,1.6077e+08,2627.3,11570,12593,1,12593,1,0.0014979,4.9644e-08,0,0.001565,0.00011133,2.6293e+08,11086,0,2.9301e+08,20456,12592,591.12,0,591.12,0,0.0012046,1.6143e-07,0,0.00068,0.00022457,2.9846e+08,30942,0,1.4706e+08,17424,591.12,1
2044,6.83,12082,1,12082,1,0.00045893,-4.1423e-10,0,0.0010977,-8.3853e-05,180.65,-24.743,0,2.5975e+08,17657,12081,13104,1,13104,1,0.0024796,8.8134e-07,0,0.0024796,0.00029328,2.9761e+08,1.2899e+05,0,6.3497e+08,1.0092e+05,13103,12082,1,12082,1,0.00045849,7.7958e-11,0,0.0010474,-8.4075e-05,1.2555e+08,13.005,0,2.6283e+08,9233.2,12081,10985,1,10985,1,-0.0015612,-8.3058e-07,0,6.4673e-05,-0.00046046,-6.3497e+08,-1.3716e+05,0,2.5496e+07,20.088,10984,11571,1,11571,1,-0.00058857,-6.1572e-08,0,0.00052327,-0.00027892,-2.3933e+08,-13148,0,1.6094e+08,3171.6,11570,12593,1,12593,1,0.0015059,5.719e-08,0,0.0015706,0.00011125,2.6283e+08,13096,0,2.9184e+08,24520,12592,591.12,0,591.12,0,0.001209,1.9593e-07,0,0.00068334,0.00022538,2.9862e+08,37828,0,1.4721e+08,20570,591.12,1
2044,6.84,12082,1,12082,1,0.00046343,1.7535e-10,0,0.0011024,-8.4667e-05,-60.753,72.068,0,2.5984e+08,21466,12081,13104,1,13104,1,0.0024918,1.0786e-06,0,0.0024918,0.00029387,2.9634e+08,1.5609e+05,0,6.3623e+08,1.1783e+05,13103,12082,1,12082,1,0.00046289,6.7504e-10,0,0.0010513,-8.4858e-05,1.2656e+08,152.08,0,2.627e+08,11817,12081,10985,1,10985,1,-0.0015643,-1.0184e-06,0,6.2107e-05,-0.00046272,-6.3623e+08,-1.6602e+05,0,2.5294e+07,52.013,10984,11571,1,11571,1,-0.00058802,-7.8946e-08,0,0.00052513,-0.00028043,-2.391e+08,-16974,0,1.6111e+08,4143,11570,12593,1,12593,1,0.0015142,7.5279e-08,0,0.0015763,0.00011117,2.627e+08,16962,0,2.906e+08,29956,12592,591.12,0,591.12,0,0.0012135,2.4355e-07,0,0.00068683,0.00022621,2.9877e+08,46637,0,1.4736e+08,24220,591.12,1
2044,6.85,12082,1,12082,1,0.00046814,-1.6273e-09,0,0.0011073,-8.5519e-05,-12.504,-321.61,0,2.5993e+08,25847,12081,13104,1,13104,1,0.0025047,1.3083e-06,0,0.0025047,0.00029449,2.9503e+08,1.8881e+05,0,6.3757e+08,1.3735e+05,13103,12082,1,12082,1,0.00046748,-1.4362e-09,0,0.0010554,-8.5672e-05,1.2761e+08,-258.18,0,2.6257e+08,14912,12081,10985,1,10985,1,-0.0015676,-1.2391e-06,0,5.9416e-05,-0.00046509,-6.3757e+08,-2.0096e+05,0,2.4225e+07,83.944,10984,11571,1,11571,1,-0.00058744,-1.0275e-07,0,0.00052706,-0.00028201,-2.3886e+08,-21894,0,1.6128e+08,5289.5,11570,12593,1,12593,1,0.0015229,9.4324e-08,0,0.0015823,0.00011108,2.6257e+08,21195,0,2.8932e+08,36235,12592,591.12,0,591.12,0,0.0012183,2.9934e-07,0,0.0006905,0.00022709,2.9893e+08,57116,0,1.4752e+08,28435,591.12,1
2044,6.86,12082,1,12082,1,0.00047315,-1.5231e-09,0,0.0011125,-8.6422e-05,-27.417,-405.79,0,2.6001e+08,31206,12081,13104,1,13104,1,0.0025185,1.5899e-06,0,0.0025185,0.00029513,2.9366e+08,2.288e+05,0,6.3896e+08,1.6001e+05,13103,12082,1,12082,1,0.00047232,-1.6666e-09,0,0.0010597,-8.6526e-05,1.2869e+08,-352.56,0,2.6241e+08,19091,12081,10985,1,10985,1,-0.001571,-1.504e-06,0,5.6499e-05,-0.00046762,-6.3896e+08,-2.4353e+05,0,2.307e+07,105.82,10984,11571,1,11571,1,-0.0005868,-1.3065e-07,0,0.00052903,-0.00028367,-2.386e+08,-27908,0,1.6149e+08,6582.3,11570,12593,1,12593,1,0.0015321,1.2161e-07,0,0.0015885,0.00011099,2.6241e+08,27047,0,2.8797e+08,43988,12592,591.12,0,591.12,0,0.0012233,3.6791e-07,0,0.00069438,0.00022801,2.9908e+08,70083,0,1.477e+08,33378,591.12,1
2044,6.87,12082,1,12082,1,0.00047891,2.9959e-09,0,0.0011183,-8.7455e-05,-50.625,454.7,0,2.6004e+08,38081,12081,13104,1,13104,1,0.0025341,1.9235e-06,0,0.0025341,0.00029583,2.9223e+08,2.8382e+05,0,6.4045e+08,1.8397e+05,13103,12082,1,12082,1,0.00047783,2.7896e-09,0,0.0010646,-8.7492e-05,1.2978e+08,612.09,0,2.6219e+08,25908,12081,10985,1,10985,1,-0.0015747,-1.8131e-06,0,5.3042e-05,-0.0004705,-6.4045e+08,-3.0108e+05,0,2.1712e+07,172.96,10984,11571,1,11571,1,-0.00058593,-1.6684e-07,0,0.00053118,-0.00028553,-2.3824e+08,-35928,0,1.6249e+08,8643.2,11570,12593,1,12593,1,0.0015423,1.6583e-07,0,0.0015953,0.00011086,2.6219e+08,37129,0,2.8654e+08,53628,12592,591.12,0,591.12,0,0.0012288,4.5921e-07,0,0.00069878,0.00022903,2.9921e+08,87772,0,1.479e+08,38755,591.12,1
2044,6.88,12082,1,12082,1,0.00048544,3.9087e-09,0,0.0011249,-8.862e-05,-91.033,650.99,0,2.6005e+08,48569,12081,13104,1,13104,1,0.0025521,2.4648e-06,0,0.0025521,0.0002966,2.9066e+08,3.6387e+05,0,6.4212e+08,2.1474e+05,13103,12082,1,12082,1,0.00048404,4.1457e-09,0,0.0010701,-8.857e-05,1.3097e+08,1017.4,0,2.6191e+08,36453,12081,10985,1,10985,1,-0.0015788,-2.3332e-06,0,4.9067e-05,-0.0004738,-6.4212e+08,-3.8434e+05,0,2.0164e+07,38.553,10984,11571,1,11571,1,-0.00058489,-2.3876e-07,0,0.00053351,-0.00028761,-2.3782e+08,-50650,0,1.6357e+08,12095,11570,12593,1,12593,1,0.0015539,2.384e-07,0,0.0016028,0.00011071,2.6191e+08,51951,0,2.8493e+08,69383,12592,591.12,0,591.12,0,0.0012351,6.1037e-07,0,0.00070378,0.00023019,2.9933e+08,1.1581e+05,0,1.4813e+08,46345,591.12,1
2044,6.89,12082,1,12082,1,0.00049286,-3.2473e-10,0,0.0011323,-8.9937e-05,275.05,-258.91,0,2.6005e+08,62759,12081,13104,1,13104,1,0.0025726,3.2173e-06,0,0.0025726,0.00029748,2.8891e+08,4.7352e+05,0,6.4401e+08,2.5519e+05,13103,12082,1,12082,1,0.000491,-1.8783e-10,0,0.0010763,-8.9763e-05,1.323e+08,-18.608,0,2.6158e+08,50087,12081,10985,1,10985,1,-0.0015834,-3.0638e-06,0,4.4497e-05,-0.00047758,-6.4401e+08,-4.9911e+05,0,1.8406e+07,37.931,10984,11571,1,11571,1,-0.00058368,-3.4521e-07,0,0.00053603,-0.00028994,-2.3732e+08,-72015,0,1.6478e+08,16744,11570,12593,1,12593,1,0.0015668,3.3412e-07,0,0.0016111,0.00011055,2.6158e+08,71828,0,2.8311e+08,91075,12592,591.12,0,591.12,0,0.0012422,8.2037e-07,0,0.00070947,0.0002315,2.9946e+08,1.5443e+05,0,1.4839e+08,56728,591.12,1
2044,6.9,12082,1,12082,1,0.00050127,-6.709e-09,0,0.0011406,-9.142e-05,-223.04,-1925.7,0,2.6001e+08,81909,12081,13104,1,13104,1,0.002596,4.2467e-06,0,0.002596,0.00029846,2.8697e+08,6.1303e+05,0,6.4609e+08,3.0561e+05,13103,12082,1,12082,1,0.00049877,-6.0696e-09,0,0.0010832,-9.108e-05,1.3375e+08,-1638.6,0,2.6116e+08,69407,12081,10985,1,10985,1,-0.0015886,-4.0695e-06,0,3.9218e-05,-0.00048189,-6.4609e+08,-6.4775e+05,0,1.6411e+07,527.61,10984,11571,1,11571,1,-0.00058223,-4.8695e-07,0,0.00053871,-0.00029252,-2.3673e+08,-1.0292e+05,0,1.661e+08,22573,11570,12593,1,12593,1,0.0015812,4.5736e-07,0,0.0016201,0.00011035,2.6116e+08,1.005e+05,0,2.8104e+08,1.1959e+05,12592,591.12,0,591.12,0,0.0012501,1.1121e-06,0,0.00071591,0.00023295,2.9957e+08,2.0656e+05,0,1.4868e+08,70239,591.12,1
2044,6.91,12082,1,12082,1,0.00051079,1.1273e-08,0,0.00115,-9.3094e-05,-243,1247.6,0,2.5997e+08,1.0616e+05,12081,13104,1,13104,1,0.002623,5.6073e-06,0,0.002623,0.00029957,2.8489e+08,8.038e+05,0,6.4848e+08,3.6347e+05,13103,12082,1,12082,1,0.00050748,5.2772e-09,0,0.0010912,-9.2543e-05,1.3538e+08,1420.6,0,2.6068e+08,93806,12081,10985,1,10985,1,-0.0015945,-5.332e-06,0,3.3155e-05,-0.00048685,-6.4848e+08,-8.3926e+05,0,1.4167e+07,803.44,10984,11571,1,11571,1,-0.00058062,-6.6227e-07,0,0.00054161,-0.00029541,-2.3606e+08,-1.3785e+05,0,1.6757e+08,29758,11570,12593,1,12593,1,0.0015974,6.6351e-07,0,0.0016301,0.00011014,2.6068e+08,1.4229e+05,0,2.7875e+08,1.5704e+05,12592,591.12,0,591.12,0,0.001259,1.4957e-06,0,0.00072325,0.0002346,2.997e+08,2.753e+05,0,1.4901e+08,87023,591.12,1
2044,6.92,12082,1,12082,1,0.00052162,1.0574e-08,0,0.0011606,-9.4985e-05,-361.05,918.71,0,2.5988e+08,1.3777e+05,12081,13104,1,13104,1,0.0026542,7.3733e-06,0,0.0026542,0.00030083,2.8257e+08,1.0426e+06,0,6.5118e+08,4.296e+05,13103,12082,1,12082,1,0.00051723,6.5768e-09,0,0.0011002,-9.4165e-05,1.3718e+08,1506.2,0,2.6009e+08,1.2724e+05,12081,10985,1,10985,1,-0.0016011,-7.0593e-06,0,2.6118e-05,-0.00049259,-6.5118e+08,-1.0872e+06,0,1.1619e+07,1253.1,10984,11571,1,11571,1,-0.00057872,-9.1591e-07,0,0.00054467,-0.00029862,-2.3528e+08,-1.9321e+05,0,1.6919e+08,39687,11570,12593,1,12593,1,0.0016155,9.1308e-07,0,0.0016409,0.00010989,2.6009e+08,1.9504e+05,0,2.7615e+08,2.061e+05,12592,591.12,0,591.12,0,0.0012691,2.0206e-06,0,0.00073162,0.00023645,2.9981e+08,3.6679e+05,0,1.4938e+08,1.0789e+05,591.12,1
2044,6.93,12082,1,12082,1,0.00053395,1.9468e-09,0,0.0011726,-9.7127e-05,-419.72,-1180.6,0,2.5977e+08,1.7806e+05,12081,13104,1,13104,1,0.0026906,9.6575e-06,0,0.0026906,0.00030229,2.8005e+08,1.3504e+06,0,6.5429e+08,4.9653e+05,13103,12082,1,12082,1,0.00052815,-5.8686e-09,0,0.0011105,-9.5969e-05,1.3918e+08,-922.73,0,2.594e+08,1.6867e+05,12081,10985,1,10985,1,-0.0016087,-9.3116e-06,0,1.7939e-05,-0.00049929,-6.5429e+08,-1.4054e+06,0,8.7145e+06,1568.1,10984,11571,1,11571,1,-0.00057655,-1.273e-06,0,0.00054784,-0.00030221,-2.3439e+08,-2.6876e+05,0,1.7098e+08,51591,11570,12593,1,12593,1,0.0016357,1.2493e-06,0,0.0016526,0.0001096,2.594e+08,2.6492e+05,0,2.7323e+08,2.7137e+05,12592,591.12,0,591.12,0,0.0012805,2.7237e-06,0,0.00074121,0.00023856,2.9994e+08,4.8795e+05,0,1.4983e+08,1.3353e+05,591.12,1
2044,6.94,12082,1,12082,1,0.00054814,6.0825e-09,0,0.0011863,-9.957e-05,-49.324,-1211,0,2.5963e+08,2.289e+05,12081,13104,1,13104,1,0.0027338,1.2623e-05,0,0.0027338,0.000304,2.7738e+08,1.7457e+06,0,6.5795e+08,5.6615e+05,13103,12082,1,12082,1,0.00054047,-8.2592e-09,0,0.0011225,-9.7998e-05,1.414e+08,-1104.1,0,2.5788e+08,2.2351e+05,12081,10985,1,10985,1,-0.0016177,-1.2201e-05,0,8.3117e-06,-0.00050723,-6.5795e+08,-1.8088e+06,0,5.3472e+06,2283,10984,11571,1,11571,1,-0.00057406,-1.7711e-06,0,0.00055113,-0.00030624,-2.3337e+08,-3.6987e+05,0,1.7297e+08,70894,11570,12593,1,12593,1,0.0016585,1.7423e-06,0,0.0016653,0.00010928,2.5788e+08,3.651e+05,0,2.6997e+08,3.5512e+05,12592,591.12,0,591.12,0,0.0012936,3.6708e-06,0,0.00075234,0.00024097,3.0007e+08,6.4845e+05,0,1.5035e+08,1.6499e+05,591.12,1
2044,6.95,12082,1,12082,1,0.00056454,1.1565e-08,0,0.0012023,-0.00010237,-1724.6,-1034.6,0,2.5943e+08,2.9319e+05,12081,13104,1,13104,1,0.0027855,1.6429e-05,0,0.0027855,0.00030601,2.7449e+08,2.2438e+06,0,6.6225e+08,6.6322e+05,13103,12082,1,12082,1,0.00055443,-4.859e-09,0,0.0011354,-0.0001003,1.4389e+08,-753.46,0,2.5608e+08,2.9176e+05,12081,10985,1,10985,1,-0.0016283,-1.5949e-05,0,1.3193e-06,-0.00051675,-6.6225e+08,-2.317e+06,0,1.3573e+06,3216.8,10984,11571,1,11571,1,-0.00057117,-2.428e-06,0,0.00055443,-0.00031079,-2.3218e+08,-5.1115e+05,0,1.7519e+08,95712,11570,12593,1,12593,1,0.0016843,2.4123e-06,0,0.0016843,0.00010889,2.5608e+08,5.1051e+05,0,2.6625e+08,4.734e+05,12592,591.12,0,591.12,0,0.0013087,4.9598e-06,0,0.0007652,0.00024375,3.0021e+08,8.6188e+05,0,1.5097e+08,2.046e+05,591.12,1
2044,6.96,12082,1,12082,1,0.00058367,7.3105e-09,0,0.0012212,-0.00010562,-2754.7,-3201.5,0,2.5926e+08,3.7308e+05,12081,13104,1,13104,1,0.0028486,2.1278e-05,0,0.0028486,0.00030842,2.7141e+08,2.8654e+06,0,6.674e+08,8.0809e+05,13103,12082,1,12082,1,0.00057041,-1.3619e-08,0,0.001142,-0.00010295,1.467e+08,-2742.7,0,2.5284e+08,3.8209e+05,12081,10985,1,10985,1,-0.001641,-2.0749e-05,0,3.8993e-06,-0.00052837,-6.674e+08,-2.9477e+06,0,8.2508e+05,4430.8,10984,11571,1,11571,1,-0.00056777,-3.3381e-06,0,0.00057041,-0.00031596,-2.3078e+08,-7.0565e+05,0,1.7767e+08,1.1811e+05,11570,12593,1,12593,1,0.0017136,3.2798e-06,0,0.0017136,0.00010841,2.5284e+08,6.9521e+05,0,2.6307e+08,6.2073e+05,12592,591.12,0,591.12,0,0.0013263,6.7194e-06,0,0.00077962,0.00024698,3.0036e+08,1.1455e+06,0,1.5156e+08,2.5708e+05,591.12,1
2044,6.97,12082,1,12082,1,0.0006063,2.1209e-08,0,0.0012437,-0.00010943,-2628.2,-2690.1,0,2.5915e+08,4.7108e+05,12081,13104,1,13104,1,0.0029272,2.7364e-05,0,0.0029272,0.00031136,2.6818e+08,3.6336e+06,0,6.7368e+08,1.0306e+06,13103,12082,1,12082,1,0.00058898,-1.4087e-08,0,0.0011482,-0.00010604,1.4989e+08,-2403,0,2.4959e+08,4.6902e+05,12081,10985,1,10985,1,-0.0016564,-2.6757e-05,0,6.1808e-06,-0.00054284,-6.7368e+08,-3.7255e+06,0,1.6039e+06,4074.4,10984,11571,1,11571,1,-0.00056373,-4.6335e-06,0,0.00058899,-0.00032193,-2.2913e+08,-9.7451e+05,0,1.8048e+08,1.4114e+05,11570,12593,1,12593,1,0.0017474,4.5662e-06,0,0.0017475,0.0001077,2.4959e+08,9.7085e+05,0,2.6114e+08,7.7606e+05,12592,591.12,0,591.12,0,0.001347,9.1238e-06,0,0.00079664,0.00025079,3.0052e+08,1.5222e+06,0,1.5206e+08,3.322e+05,591.12,1
2044,6.98,12082,1,12082,1,0.00063342,3.2461e-08,0,0.0012705,-0.000114,-233.63,-2272.2,0,2.5901e+08,5.8781e+05,12081,13104,1,13104,1,0.0030276,3.4678e-05,0,0.0030276,0.00031501,2.6469e+08,4.5691e+06,0,6.8148e+08,1.4003e+06,13103,12082,1,12082,1,0.00061105,5.3082e-10,0,0.0011553,-0.00010979,1.536e+08,38.104,0,2.4652e+08,5.3122e+05,12081,10985,1,10985,1,-0.0016756,-3.4144e-05,0,8.4669e-06,-0.00056133,-6.8148e+08,-4.6551e+06,0,2.2999e+06,1582.8,10984,11571,1,11571,1,-0.00055878,-6.5134e-06,0,0.0006065,-0.00033029,-2.271e+08,-1.3496e+06,0,1.8313e+08,1.6833e+05,11570,12593,1,12593,1,0.0017993,6.3813e-06,0,0.0017993,0.00010664,2.4651e+08,1.3462e+06,0,2.589e+08,9.7812e+05,12592,591.12,0,591.12,0,0.0013717,1.2427e-05,0,0.00081733,0.00025533,3.007e+08,2.0225e+06,0,1.5266e+08,4.492e+05,591.12,1
2044,6.99,12082,1,12082,1,0.00066663,4.3586e-08,0,0.0013032,-0.00011961,233.81,-2844,0,2.5875e+08,7.2502e+05,12081,13104,1,13104,1,0.0031601,4.4228e-05,0,0.0031601,0.00031968,2.6097e+08,5.7022e+06,0,6.9143e+08,2.0249e+06,13103,12082,1,12082,1,0.00063802,6.7191e-09,0,0.0011639,-0.0001144,1.5798e+08,282.97,0,2.4184e+08,5.7767e+05,12081,10985,1,10985,1,-0.0017001,-4.3639e-05,0,1.412e-05,-0.00058574,-6.9143e+08,-5.7805e+06,0,3.0531e+06,-1.8448e+05,10984,11571,1,11571,1,-0.00055254,-9.3181e-06,0,0.00062513,-0.00034326,-2.2455e+08,-1.8698e+06,0,1.8383e+08,1.3245e+05,11570,12593,1,12593,1,0.0018749,9.1826e-06,0,0.0018751,0.00010525,2.4184e+08,1.8499e+06,0,2.56e+08,1.2602e+06,12592,591.12,0,591.12,0,0.0014019,1.7038e-05,0,0.00084331,0.00026087,3.0089e+08,2.6924e+06,0,1.5349e+08,6.4247e+05,591.12,1
2044,7,12082,1,12082,1,0.00070833,4.9898e-08,0,0.0013439,-0.0001266,433.32,-4083.7,0,2.583e+08,8.8425e+05,12081,13104,1,13104,1,0.0033421,5.8574e-05,0,0.0033421,0.00032581,2.5686e+08,7.2385e+06,0,7.045e+08,2.9938e+06,13103,12082,1,12082,1,0.00067862,2.9368e-08,0,0.0012297,-0.00012,1.6329e+08,2920.9,0,2.378e+08,5.9739e+05,12081,10985,1,10985,1,-0.0017322,-5.7968e-05,0,2.1902e-05,-0.00061928,-7.045e+08,-7.3391e+06,0,5.0157e+06,-8.711e+05,10984,11571,1,11571,1,-0.00054447,-1.3203e-05,0,0.00062462,-0.00035843,-2.2125e+08,-2.6798e+06,0,1.8249e+08,75425,11570,12593,1,12593,1,0.0019559,1.3021e-05,0,0.0019564,0.00010347,2.3778e+08,2.6722e+06,0,2.5235e+08,1.6352e+06,12592,591.12,0,591.12,0,0.0014401,2.3653e-05,0,0.00087721,0.00026779,3.0111e+08,3.6038e+06,0,1.547e+08,9.6768e+05,591.12,1
2044,7.01,12082,1,12082,1,0.00076248,4.4582e-08,0,0.0013962,-0.0001354,-1039,-5160.1,0,2.5752e+08,1.0661e+06,12081,13104,1,13104,1,0.0036052,8.1419e-05,0,0.0036052,0.00033414,2.533e+08,9.498e+06,0,7.2223e+08,4.5204e+06,13103,12082,1,12082,1,0.00074583,5.7389e-08,0,0.0012885,-0.00012663,1.7372e+08,4943.8,0,2.3358e+08,5.6868e+05,12081,10985,1,10985,1,-0.0017759,-8.0929e-05,0,2.3137e-05,-0.00066781,-7.2223e+08,-9.5767e+06,0,7.7309e+06,-1.9384e+06,10984,11571,1,11571,1,-0.0005334,-1.8614e-05,0,0.00061766,-0.0003706,-2.1671e+08,-3.8388e+06,0,1.8039e+08,17243,11570,12593,1,12593,1,0.0020249,1.8463e-05,0,0.0020262,0.00010133,2.3349e+08,3.8248e+06,0,2.5103e+08,2.1339e+06,12592,591.12,0,591.12,0,0.0014903,3.3507e-05,0,0.00092384,0.00027669,3.0137e+08,4.8654e+06,0,1.5652e+08,1.5097e+06,591.12,1
2044,7.02,12082,1,12082,1,0.00083612,6.2582e-08,0,0.0014673,-0.00014698,-1259.1,-6021.9,0,2.5637e+08,1.2684e+06,12081,13104,1,13104,1,0.0040116,0.00012023,0,0.0040116,0.00034597,2.5573e+08,1.2924e+07,0,7.4735e+08,7.0026e+06,13103,12082,1,12082,1,0.00082796,7.6693e-08,0,0.0013153,-0.00013481,1.8483e+08,12541,0,2.2978e+08,5.3491e+05,12081,10985,1,10985,1,-0.0018377,-0.0001194,0,2.0863e-05,-0.00074281,-7.4735e+08,-1.3019e+07,0,5.1772e+06,-3.4263e+06,10984,11571,1,11571,1,-0.00051739,-2.6577e-05,0,0.00063085,-0.00038165,-2.1011e+08,-5.393e+06,0,1.8483e+08,-1.4113e+05,11570,12593,1,12593,1,0.002141,2.6489e-05,0,0.0021427,9.9076e-05,2.2972e+08,5.3919e+06,0,2.4963e+08,2.859e+06,12592,591.12,0,591.12,0,0.0015607,4.8946e-05,0,0.00099169,0.00028875,3.0168e+08,6.6539e+06,0,1.5906e+08,2.401e+06,591.12,1
2044,7.03,12082,1,12082,1,0.00094263,5.5445e-08,0,0.0015709,-0.00016283,44.18,-8140.6,0,2.5487e+08,1.4976e+06,12081,13104,1,13104,1,0.0047023,0.00019181,0,0.0047023,0.0003639,2.6201e+08,1.8429e+07,0,7.8532e+08,1.1176e+07,13103,12082,1,12082,1,0.00089141,1.0546e-08,0,0.001384,-0.00014838,1.6995e+08,5278.5,0,2.2339e+08,4.2263e+05,12081,10985,1,10985,1,-0.0019311,-0.00019094,0,3.8373e-05,-0.00087045,-7.8532e+08,-1.8543e+07,0,1.0918e+07,-5.5186e+06,10984,11571,1,11571,1,-0.00049228,-3.8537e-05,0,0.00070909,-0.0004037,-1.9969e+08,-7.6924e+06,0,1.7165e+08,-7.4381e+05,11570,12593,1,12593,1,0.0022708,3.8627e-05,0,0.002276,9.6334e-05,2.2408e+08,7.6698e+06,0,2.5405e+08,3.8046e+06,12592,591.12,0,591.12,0,0.0016692,7.5489e-05,0,0.0011009,0.00030627,3.022e+08,9.3086e+06,0,1.6254e+08,3.8877e+06,591.12,1
2044,7.04,12082,1,12082,1,0.0011104,2.0055e-08,0,0.0017336,-0.0001852,-0.64574,-13421,0,2.521e+08,1.7524e+06,12081,13104,1,13104,1,0.0060436,0.00034901,0,0.0060436,0.00039284,2.764e+08,2.7675e+07,0,8.4641e+08,1.8375e+07,13103,12082,1,12082,1,0.0010277,1.8043e-07,0,0.0014527,-0.00016977,1.561e+08,17200,0,2.1545e+08,1.9986e+05,12081,10985,1,10985,1,-0.0020814,-0.00034783,0,4.385e-05,-0.0011188,-8.4641e+08,-2.7797e+07,0,1.0527e+07,-8.9005e+06,10984,11571,1,11571,1,-0.00044768,-6.0645e-05,0,0.00074692,-0.00041783,-1.8103e+08,-1.0976e+07,0,1.5838e+08,-2.214e+06,11570,12593,1,12593,1,0.0024133,6.0478e-05,0,0.0024187,9.2385e-05,2.1725e+08,1.0769e+07,0,2.6269e+08,5.2378e+06,12592,591.12,0,591.12,0,0.0018614,0.00012717,0,0.0013069,0.00033434,3.0307e+08,1.3399e+07,0,1.6866e+08,6.4072e+06,591.12,1
2044,7.05,12082,1,12082,1,0.0014027,-3.8907e-08,0,0.0020189,-0.00021542,-357.48,-19163,0,2.4697e+08,2.0205e+06,12081,13104,1,13104,1,0.0092078,0.00076777,0,0.0092078,0.00044272,3.0493e+08,4.3736e+07,0,9.5093e+08,3.0832e+07,13103,12082,1,12082,1,0.0011949,-2.4262e-08,0,0.0015498,-0.0002007,1.4092e+08,-5156.5,0,2.0416e+08,7876.4,12081,10985,1,10985,1,-0.0023387,-0.00076508,0,4.6254e-06,-0.0017053,-9.5093e+08,-4.3875e+07,0,9.5607e+05,-1.5002e+07,10984,11571,1,11571,1,-0.00034932,-9.8466e-05,0,0.00076592,-0.00041682,-1.4042e+08,-1.5567e+07,0,1.4184e+08,-4.9468e+06,11570,12593,1,12593,1,0.0025476,9.8556e-05,0,0.0025682,7.7812e-05,2.065e+08,1.5461e+07,0,2.7541e+08,7.3951e+06,12592,591.12,0,591.12,0,0.0022742,0.00024662,0,0.0017674,0.00038492,3.0435e+08,1.9808e+07,0,1.7888e+08,1.0643e+07,591.12,1
2044,7.05,12082,1,12082,1,0.001463,-7.6334e-08,0,0.0020793,-0.00021862,0.35806,-20614,0,2.4613e+08,2.0654e+06,12081,13104,1,13104,1,0.010266,0.0009184,0,0.010266,0.00045373,3.1322e+08,4.7334e+07,0,9.7402e+08,3.4165e+07,13103,12082,1,12082,1,0.0012075,2.4097e-08,0,0.001557,-0.00020354,1.3838e+08,5447.4,0,2.0156e+08,-67930,12081,10985,1,10985,1,-0.0023956,-0.00091741,0,4.9333e-05,-0.0018994,-9.7402e+08,-4.7546e+07,0,1.4631e+07,-1.641e+07,10984,11571,1,11571,1,-0.00032853,-0.0001069,0,0.00079033,-0.0004122,-1.3259e+08,-1.6542e+07,0,1.389e+08,-5.6715e+06,11570,12593,1,12593,1,0.0025816,0.00010551,0,0.0025938,7.4377e-05,2.0462e+08,1.6541e+07,0,2.7757e+08,7.7844e+06,12592,591.12,0,591.12,0,0.0023819,0.00028472,0,0.0018894,0.00039431,3.0497e+08,2.1243e+07,0,1.8125e+08,1.1661e+07,591.12,1
