"N","Time","avg(GlobalElementId)","avg(ObjectId)","avg(PedigreeElementId)","avg(alpha)","avg(strain_x (0))","avg(strain_x (1))","avg(strain_x (2))","avg(strain_x (Magnitude))","avg(strain_yy)","avg(stress_x (0))","avg(stress_x (1))","avg(stress_x (2))","avg(stress_x (Magnitude))","avg(stress_yy)","avg(vtkOriginalCellIds)","max(GlobalElementId)","max(ObjectId)","max(PedigreeElementId)","max(alpha)","max(strain_x (0))","max(strain_x (1))","max(strain_x (2))","max(strain_x (Magnitude))","max(strain_yy)","max(stress_x (0))","max(stress_x (1))","max(stress_x (2))","max(stress_x (Magnitude))","max(stress_yy)","max(vtkOriginalCellIds)","med(GlobalElementId)","med(ObjectId)","med(PedigreeElementId)","med(alpha)","med(strain_x (0))","med(strain_x (1))","med(strain_x (2))","med(strain_x (Magnitude))","med(strain_yy)","med(stress_x (0))","med(stress_x (1))","med(stress_x (2))","med(stress_x (Magnitude))","med(stress_yy)","med(vtkOriginalCellIds)","min(GlobalElementId)","min(ObjectId)","min(PedigreeElementId)","min(alpha)","min(strain_x (0))","min(strain_x (1))","min(strain_x (2))","min(strain_x (Magnitude))","min(strain_yy)","min(stress_x (0))","min(stress_x (1))","min(stress_x (2))","min(stress_x (Magnitude))","min(stress_yy)","min(vtkOriginalCellIds)","q1(GlobalElementId)","q1(ObjectId)","q1(PedigreeElementId)","q1(alpha)","q1(strain_x (0))","q1(strain_x (1))","q1(strain_x (2))","q1(strain_x (Magnitude))","q1(strain_yy)","q1(stress_x (0))","q1(stress_x (1))","q1(stress_x (2))","q1(stress_x (Magnitude))","q1(stress_yy)","q1(vtkOriginalCellIds)","q3(GlobalElementId)","q3(ObjectId)","q3(PedigreeElementId)","q3(alpha)","q3(strain_x (0))","q3(strain_x (1))","q3(strain_x (2))","q3(strain_x (Magnitude))","q3(strain_yy)","q3(stress_x (0))","q3(stress_x (1))","q3(stress_x (2))","q3(stress_x (Magnitude))","q3(stress_yy)","q3(vtkOriginalCellIds)","std(GlobalElementId)","std(ObjectId)","std(PedigreeElementId)","std(alpha)","std(strain_x (0))","std(strain_x (1))","std(strain_x (2))","std(strain_x (Magnitude))","std(strain_yy)","std(stress_x (0))","std(stress_x (1))","std(stress_x (2))","std(stress_x (Magnitude))","std(stress_yy)","std(vtkOriginalCellIds)","vtkValidPointMask"
1988,0,12110,1,12110,1,0,0,0,0,0,0,0,0,0,0,12109,13104,1,13104,1,0,0,0,0,0,0,0,0,0,0,13103,12110,1,12110,1,0,0,0,0,0,0,0,0,0,0,12109,11091,1,11091,1,0,0,0,0,0,0,0,0,0,0,11090,11613,1,11613,1,0,0,0,0,0,0,0,0,0,0,11612,12607,1,12607,1,0,0,0,0,0,0,0,0,0,0,12606,574.93,0,574.93,0,0,0,0,0,0,0,0,0,0,0,574.93,1
1988,0.01,12110,1,12110,1,5.4794e-09,-2.4378e-09,0,1.3373e-06,-1.9498e-09,-38208,-771.07,0,5.0362e+05,-651.15,12109,13104,1,13104,1,2.9233e-06,1.3062e-07,0,2.9236e-06,4.9494e-07,9.9928e+05,37792,0,1.0733e+06,11572,13103,12110,1,12110,1,2.1643e-08,-1.2402e-09,0,1.3964e-06,-7.6418e-09,7782.1,-394.74,0,5.0072e+05,-105.11,12109,11091,1,11091,1,-2.6389e-06,-1.0865e-07,0,2.4117e-08,-5.9892e-07,-1.0733e+06,-31417,0,8983.5,-22612,11090,11613,1,11613,1,-1.3291e-06,-8.3648e-09,0,6.604e-07,-2.529e-07,-5.4063e+05,-2669.6,0,2.6031e+05,-1269.2,11612,12607,1,12607,1,1.3963e-06,2.0021e-09,0,1.9937e-06,2.4818e-07,4.8704e+05,631.71,0,7.4177e+05,795.42,12606,574.93,0,574.93,0,1.5444e-06,1.1382e-08,0,7.7189e-07,2.8931e-07,5.8094e+05,3463.3,0,2.9189e+05,3729.4,574.93,1
1988,0.02,12110,1,12110,1,2.2534e-07,-1.4783e-09,0,2.8414e-06,-4.3881e-08,-293.23,-459.96,0,1.0638e+06,-1135.3,12109,13104,1,13104,1,5.7185e-06,1.2784e-08,0,5.7185e-06,9.8833e-07,1.9603e+06,3895.7,0,2.1426e+06,52.997,13103,12110,1,12110,1,2.2262e-07,-9.636e-10,0,2.8418e-06,-4.2603e-08,79794,-295.39,0,1.0687e+06,-591.17,12109,11091,1,11091,1,-5.2678e-06,-1.7632e-08,0,1.8846e-08,-1.0713e-06,-2.1426e+06,-5373.5,0,4752,-5558.9,11090,11613,1,11613,1,-2.6158e-06,-1.9105e-09,0,1.4201e-06,-5.7846e-07,-1.0641e+06,-628.49,0,5.3512e+05,-1747.6,11612,12607,1,12607,1,3.0662e-06,-8.1783e-11,0,4.2611e-06,4.8913e-07,1.0687e+06,-27.345,0,1.5929e+06,-161.46,12606,574.93,0,574.93,0,3.2778e-06,3.6534e-09,0,1.6485e-06,6.1479e-07,1.2275e+06,1127.9,0,6.1195e+05,1305.4,574.93,1
1988,0.03,12110,1,12110,1,3.3806e-07,4.598e-10,0,4.2573e-06,-6.2527e-08,-38.176,145.83,0,1.5941e+06,-394.53,12109,13104,1,13104,1,8.5564e-06,1.1462e-08,0,8.5564e-06,1.4782e-06,2.9331e+06,3535.9,0,3.205e+06,185.45,13103,12110,1,12110,1,3.3706e-07,4.4511e-10,0,4.2567e-06,-6.3501e-08,1.21e+05,138.89,0,1.6022e+06,-78.215,12109,11091,1,11091,1,-7.8799e-06,-1.1347e-08,0,3.2596e-08,-1.6017e-06,-3.205e+06,-3500.6,0,8721.5,-3842.8,11090,11613,1,11613,1,-3.9182e-06,-4.753e-10,0,2.1283e-06,-8.6075e-07,-1.5937e+06,-148.61,0,8.024e+05,-416.22,11612,12607,1,12607,1,4.5946e-06,1.8528e-09,0,6.384e-06,7.3507e-07,1.6022e+06,597.54,0,2.3864e+06,-9.9031,12606,574.93,0,574.93,0,4.9112e-06,2.1878e-09,0,2.4699e-06,9.2024e-07,1.8393e+06,682.62,0,9.1684e+05,718.88,574.93,1
1988,0.04,12110,1,12110,1,4.5099e-07,1.8099e-10,0,5.6813e-06,-8.2623e-08,-48.798,57.851,0,2.1273e+06,-212.13,12109,13104,1,13104,1,1.1408e-05,7.2366e-09,0,1.1408e-05,1.9709e-06,3.9108e+06,2235.7,0,4.2732e+06,51.49,13103,12110,1,12110,1,4.5053e-07,6.8276e-11,0,5.6794e-06,-8.4722e-08,1.6176e+05,21.61,0,2.1378e+06,-33.877,12109,11091,1,11091,1,-1.0506e-05,-6.308e-09,0,4.3978e-08,-2.1354e-06,-4.2732e+06,-1948.7,0,11812,-2816.6,11090,11613,1,11613,1,-5.2281e-06,-3.76e-10,0,2.8394e-06,-1.1466e-06,-2.1264e+06,-115.75,0,1.0705e+06,-152.34,11612,12607,1,12607,1,6.1302e-06,8.6721e-10,0,8.5183e-06,9.8145e-07,2.1378e+06,278.8,0,3.1842e+06,1.2118,12606,574.93,0,574.93,0,6.5539e-06,1.1409e-09,0,3.296e-06,1.2279e-06,2.4545e+06,356.88,0,1.2235e+06,464.23,574.93,1
1988,0.05,12110,1,12110,1,5.6382e-07,-1.6977e-09,0,7.0998e-06,-1.0339e-07,19.917,-538.03,0,2.6584e+06,-305.7,12109,13104,1,13104,1,1.4275e-05,8.7109e-09,0,1.4275e-05,2.466e-06,4.8935e+06,2686.9,0,5.3464e+06,134.3,13103,12110,1,12110,1,5.6238e-07,-1.6997e-09,0,7.0975e-06,-1.0579e-07,2.0179e+05,-542.05,0,2.6715e+06,-61.348,12109,11091,1,11091,1,-1.3145e-05,-8.592e-09,0,5.4956e-08,-2.6721e-06,-5.3464e+06,-2649.5,0,14807,-4134.7,11090,11613,1,11613,1,-6.533e-06,-3.1692e-09,0,3.5485e-06,-1.433e-06,-2.6571e+06,-1017,0,1.3376e+06,-301.36,11612,12607,1,12607,1,7.6608e-06,-3.8914e-11,0,1.0646e-05,1.2262e-06,2.6715e+06,-12.019,0,3.9794e+06,-2.3816,12606,574.93,0,574.93,0,8.1902e-06,1.9417e-09,0,4.1189e-06,1.5345e-06,3.0673e+06,610.62,0,1.529e+06,609.37,574.93,1
1988,0.06,12110,1,12110,1,6.7722e-07,2.8571e-10,0,8.529e-06,-1.237e-07,21.612,91.253,0,3.1935e+06,-173.53,12109,13104,1,13104,1,1.7118e-05,3.8211e-09,0,1.7118e-05,2.9571e-06,5.8681e+06,1178.5,0,6.4114e+06,54.464,13103,12110,1,12110,1,6.7648e-07,3.5052e-10,0,8.5243e-06,-1.2721e-07,2.43e+05,109.97,0,3.2088e+06,-29.147,12109,11091,1,11091,1,-1.5763e-05,-5.1758e-09,0,6.7087e-08,-3.2042e-06,-6.4114e+06,-1596.2,0,18077,-3564.3,11090,11613,1,11613,1,-7.8472e-06,9.7802e-11,0,4.2622e-06,-1.7206e-06,-3.1916e+06,30.535,0,1.6068e+06,-148.03,11612,12607,1,12607,1,9.2014e-06,5.9816e-10,0,1.2786e-05,1.4732e-06,3.2088e+06,194.54,0,4.7795e+06,-2.6694,12606,574.93,0,574.93,0,9.839e-06,6.058e-10,0,4.9482e-06,1.8434e-06,3.6848e+06,190.69,0,1.8368e+06,423.82,574.93,1
1988,0.07,12110,1,12110,1,7.892e-07,-2.2877e-09,0,9.9379e-06,-1.4387e-07,89.086,-726.22,0,3.7211e+06,-88.724,12109,13104,1,13104,1,1.9977e-05,4.1111e-09,0,1.9977e-05,3.4513e-06,6.8483e+06,1266.9,0,7.4821e+06,221.25,13103,12110,1,12110,1,7.8816e-07,-2.0242e-09,0,9.936e-06,-1.4549e-07,2.831e+05,-639.41,0,3.74e+06,-35.105,12109,11091,1,11091,1,-1.8395e-05,-7.1457e-09,0,7.9168e-08,-3.7394e-06,-7.4821e+06,-2275,0,21897,-2458.7,11090,11613,1,11613,1,-9.1456e-06,-4.3002e-09,0,4.967e-06,-2.0052e-06,-3.7197e+06,-1373.1,0,1.8725e+06,-104.93,11612,12607,1,12607,1,1.0725e-05,-1.5013e-10,0,1.4903e-05,1.7171e-06,3.74e+06,-47.612,0,5.5709e+06,11.556,12606,574.93,0,574.93,0,1.1464e-05,2.3189e-09,0,5.7655e-06,2.1479e-06,4.2934e+06,735.25,0,2.1402e+06,255.89,574.93,1
1988,0.08,12110,1,12110,1,9.0356e-07,-8.2094e-10,0,1.1382e-05,-1.6476e-07,-19.535,-260.52,0,4.2618e+06,-119.99,12109,13104,1,13104,1,2.2847e-05,1.6462e-09,0,2.2847e-05,3.947e-06,7.8322e+06,560.01,0,8.5575e+06,95.724,13103,12110,1,12110,1,9.0275e-07,-6.2681e-10,0,1.1374e-05,-1.6629e-07,3.2434e+05,-196.5,0,4.2815e+06,-21.485,12109,11091,1,11091,1,-2.104e-05,-3.9166e-09,0,9.0235e-08,-4.2766e-06,-8.5575e+06,-1332.6,0,25117,-2460,11090,11613,1,11613,1,-1.047e-05,-1.353e-09,0,5.6869e-06,-2.2957e-06,-4.2585e+06,-432.88,0,2.1437e+06,-110.03,11612,12607,1,12607,1,1.2277e-05,-1.8152e-10,0,1.7061e-05,1.9659e-06,4.2815e+06,-55.425,0,6.3775e+06,-2.5257,12606,574.93,0,574.93,0,1.313e-05,8.1218e-10,0,6.6033e-06,2.46e-06,4.9173e+06,259.93,0,2.4512e+06,295.05,574.93,1
1988,0.09,12110,1,12110,1,1.0141e-06,-1.5372e-09,0,1.2778e-05,-1.8471e-07,-104.6,-488.46,0,4.7846e+06,-50.021,12109,13104,1,13104,1,2.5671e-05,4.2093e-09,0,2.5671e-05,4.4349e-06,8.8e+06,1297.8,0,9.6151e+06,201.56,13103,12110,1,12110,1,1.0137e-06,-8.1857e-10,0,1.2775e-05,-1.843e-07,3.6427e+05,-262.57,0,4.8087e+06,-30.493,12109,11091,1,11091,1,-2.364e-05,-7.4072e-09,0,1.0131e-07,-4.8051e-06,-9.6151e+06,-2389.7,0,28366,-2353.9,11090,11613,1,11613,1,-1.176e-05,-3.3168e-09,0,6.3872e-06,-2.578e-06,-4.7831e+06,-1059.4,0,2.4077e+06,-88.474,11612,12607,1,12607,1,1.3789e-05,2.9135e-10,0,1.9162e-05,2.208e-06,4.8087e+06,89.211,0,7.163e+06,35.878,12606,574.93,0,574.93,0,1.4741e-05,2.4442e-09,0,7.4132e-06,2.7618e-06,5.5205e+06,775.68,0,2.7519e+06,174.19,574.93,1
1988,0.1,12110,1,12110,1,1.1295e-06,-8.6793e-10,0,1.4225e-05,-2.0585e-07,63.45,-275.77,0,5.3264e+06,-104.56,12109,13104,1,13104,1,2.8559e-05,8.5262e-10,0,2.8559e-05,4.9335e-06,9.7901e+06,263,0,1.0697e+07,52.945,13103,12110,1,12110,1,1.129e-06,-8.7814e-10,0,1.4217e-05,-2.0543e-07,4.0563e+05,-278.18,0,5.3518e+06,-22.23,12109,11091,1,11091,1,-2.6298e-05,-4.0643e-09,0,1.1326e-07,-5.3457e-06,-1.0697e+07,-1337.5,0,31709,-3041,11090,11613,1,11613,1,-1.3088e-05,-1.3109e-09,0,7.1084e-06,-2.8693e-06,-5.323e+06,-416.67,0,2.6796e+06,-103.68,11612,12607,1,12607,1,1.5347e-05,-3.5939e-10,0,2.1326e-05,2.4573e-06,5.3518e+06,-114.8,0,7.9717e+06,3.3491,12606,574.93,0,574.93,0,1.641e-05,7.3126e-10,0,8.2529e-06,3.0745e-06,6.1457e+06,232.51,0,3.0635e+06,270.33,574.93,1
1988,0.11,12110,1,12110,1,1.2404e-06,-7.0391e-10,0,1.5623e-05,-2.2586e-07,54.225,-224.11,0,5.8498e+06,-38.178,12109,13104,1,13104,1,3.1374e-05,6.7023e-09,0,3.1374e-05,5.4199e-06,1.0755e+07,2160.8,0,1.1751e+07,202.24,13103,12110,1,12110,1,1.24e-06,-4.0152e-10,0,1.5617e-05,-2.2547e-07,4.4577e+05,-128.36,0,5.8787e+06,-28.442,12109,11091,1,11091,1,-2.8891e-05,-6.5819e-09,0,1.247e-07,-5.8725e-06,-1.1751e+07,-2122,0,35026,-686.08,11090,11613,1,11613,1,-1.4376e-05,-2.6187e-09,0,7.8084e-06,-3.1517e-06,-5.8471e+06,-837.99,0,2.9434e+06,-94.509,11612,12607,1,12607,1,1.6857e-05,8.164e-10,0,2.3425e-05,2.6993e-06,5.8787e+06,259.12,0,8.7565e+06,45.139,12606,574.93,0,574.93,0,1.8022e-05,2.6581e-09,0,9.0636e-06,3.3766e-06,6.7496e+06,844.02,0,3.3645e+06,125.03,574.93,1
1988,0.12,12110,1,12110,1,1.3543e-06,-2.4314e-09,0,1.7058e-05,-2.4668e-07,27.787,-771.97,0,6.3873e+06,-71.816,12109,13104,1,13104,1,3.4266e-05,2.5738e-09,0,3.4266e-05,5.9196e-06,1.1746e+07,793.54,0,1.2834e+07,271.38,13103,12110,1,12110,1,1.3536e-06,-2.4711e-09,0,1.7051e-05,-2.4618e-07,4.8643e+05,-773.63,0,6.4182e+06,-10.518,12109,11091,1,11091,1,-3.1554e-05,-6.7577e-09,0,1.3594e-07,-6.4139e-06,-1.2834e+07,-2179.8,0,38116,-2755.3,11090,11613,1,11613,1,-1.5695e-05,-4.2734e-09,0,8.5245e-06,-3.4411e-06,-6.3835e+06,-1360,0,3.2135e+06,-153.18,11612,12607,1,12607,1,1.8405e-05,-4.7829e-10,0,2.5575e-05,2.9467e-06,6.4182e+06,-150.82,0,9.5601e+06,58.686,12606,574.93,0,574.93,0,1.9678e-05,2.1515e-09,0,9.8965e-06,3.6869e-06,7.3698e+06,680.75,0,3.6737e+06,221.89,574.93,1
1988,0.13,12110,1,12110,1,1.4667e-06,-1.3745e-09,0,1.8473e-05,-2.6707e-07,93.629,-433.88,0,6.9169e+06,-42.761,12109,13104,1,13104,1,3.7097e-05,2.1456e-09,0,3.7097e-05,6.4085e-06,1.2717e+07,689.13,0,1.3894e+07,473.62,13103,12110,1,12110,1,1.4662e-06,-1.1636e-09,0,1.8465e-05,-2.6682e-07,5.2706e+05,-374.81,0,6.9505e+06,-18.623,12109,11091,1,11091,1,-3.4161e-05,-5.0681e-09,0,1.4733e-07,-6.9438e-06,-1.3894e+07,-1634.1,0,41286,-843.47,11090,11613,1,11613,1,-1.6997e-05,-2.652e-09,0,9.2317e-06,-3.7262e-06,-6.9131e+06,-840.08,0,3.4801e+06,-63.506,11612,12607,1,12607,1,1.9931e-05,1.0354e-10,0,2.7696e-05,3.1914e-06,6.9505e+06,31.771,0,1.0353e+07,21.972,12606,574.93,0,574.93,0,2.131e-05,1.6198e-09,0,1.0717e-05,3.9925e-06,7.9808e+06,509.38,0,3.9783e+06,130,574.93,1
1988,0.14,12110,1,12110,1,1.5796e-06,-3.1e-09,0,1.9902e-05,-2.8765e-07,-135.95,-985.55,0,7.4521e+06,-56.197,12109,13104,1,13104,1,3.9979e-05,1.8524e-09,0,3.9979e-05,6.9072e-06,1.3705e+07,634.42,0,1.4975e+07,181.08,13103,12110,1,12110,1,1.5779e-06,-3.3883e-09,0,1.9891e-05,-2.8882e-07,5.6721e+05,-1085.3,0,7.4867e+06,0.24733,12109,11091,1,11091,1,-3.6818e-05,-7.1112e-09,0,1.5802e-07,-7.4835e-06,-1.4975e+07,-2226,0,44234,-1734.7,11090,11613,1,11613,1,-1.831e-05,-4.9866e-09,0,9.9441e-06,-4.0137e-06,-7.4472e+06,-1583.4,0,3.7487e+06,-92.082,11612,12607,1,12607,1,2.1468e-05,-1.3246e-09,0,2.9834e-05,3.4379e-06,7.4867e+06,-412.05,0,1.1152e+07,58.919,12606,574.93,0,574.93,0,2.2959e-05,2.3304e-09,0,1.1546e-05,4.3014e-06,8.5984e+06,739.59,0,4.2862e+06,208.29,574.93,1
1988,0.15,12110,1,12110,1,1.6939e-06,-8.6954e-10,0,2.134e-05,-3.0947e-07,-127.03,-276.64,0,7.9903e+06,-457.08,12109,13104,1,13104,1,4.2832e-05,8.4501e-10,0,4.2832e-05,7.3995e-06,1.4683e+07,281.04,0,1.6043e+07,671.08,13103,12110,1,12110,1,1.6931e-06,-5.0332e-10,0,2.1325e-05,-3.1256e-07,6.0844e+05,-153.69,0,8.0272e+06,-286.22,12109,11091,1,11091,1,-3.9444e-05,-6.7699e-09,0,1.6939e-07,-8.0213e-06,-1.6043e+07,-2303.6,0,46858,-3788.3,11090,11613,1,11613,1,-1.9631e-05,-1.6117e-09,0,1.0663e-05,-4.3045e-06,-7.9845e+06,-508.27,0,4.0192e+06,-535.83,11612,12607,1,12607,1,2.3019e-05,5.9232e-11,0,3.1987e-05,3.6856e-06,8.0272e+06,19.299,0,1.1957e+07,-123.39,12606,574.93,0,574.93,0,2.4617e-05,1.1722e-09,0,1.238e-05,4.6123e-06,9.2194e+06,379.97,0,4.5958e+06,574.29,574.93,1
1988,0.16,12110,1,12110,1,1.8056e-06,-1.8193e-10,0,2.2743e-05,-3.2873e-07,49.956,-57.871,0,8.5156e+06,-38.254,12109,13104,1,13104,1,4.5653e-05,4.8026e-09,0,4.5653e-05,7.8867e-06,1.565e+07,1480.5,0,1.7099e+07,742.1,13103,12110,1,12110,1,1.8053e-06,3.4075e-11,0,2.2731e-05,-3.2817e-07,6.4906e+05,10.941,0,8.5568e+06,-29.414,12109,11091,1,11091,1,-4.2041e-05,-4.3932e-09,0,1.8174e-07,-8.5454e-06,-1.7099e+07,-1407.9,0,51078,-631.75,11090,11613,1,11613,1,-2.0926e-05,-1.2451e-09,0,1.1365e-05,-4.5871e-06,-8.5109e+06,-388.37,0,4.2843e+06,-80.122,11612,12607,1,12607,1,2.4537e-05,6.3261e-10,0,3.4097e-05,3.929e-06,8.5568e+06,203.58,0,1.2746e+07,11.524,12606,574.93,0,574.93,0,2.6236e-05,1.5764e-09,0,1.3194e-05,4.9153e-06,9.8255e+06,499.73,0,4.8978e+06,109.29,574.93,1
1988,0.17,12110,1,12110,1,1.9204e-06,1.3436e-10,0,2.419e-05,-3.4953e-07,17.407,42.641,0,9.0575e+06,-0.062725,12109,13104,1,13104,1,4.8548e-05,6.952e-10,0,4.8548e-05,8.387e-06,1.6642e+07,215.75,0,1.8184e+07,21.247,13103,12110,1,12110,1,1.9203e-06,9.5305e-11,0,2.4176e-05,-3.4847e-07,6.904e+05,30.077,0,9.1007e+06,-0.17021,12109,11091,1,11091,1,-4.4707e-05,-3.5559e-10,0,1.9347e-07,-9.0872e-06,-1.8184e+07,-113.94,0,54402,-27.62,11090,11613,1,11613,1,-2.2256e-05,-2.9973e-11,0,1.2088e-05,-4.8786e-06,-9.052e+06,-9.4383,0,4.5567e+06,-4.8158,11612,12607,1,12607,1,2.6097e-05,2.8764e-10,0,3.6265e-05,4.1788e-06,9.1007e+06,92.327,0,1.3556e+07,4.328,12606,574.93,0,574.93,0,2.7905e-05,2.0982e-10,0,1.4034e-05,5.2281e-06,1.0451e+07,66.675,0,5.2095e+06,6.6299,574.93,1
1988,0.18,12110,1,12110,1,2.0333e-06,1.1392e-10,0,2.5613e-05,-3.7009e-07,25.375,36.236,0,9.5903e+06,0.65589,12109,13104,1,13104,1,5.1403e-05,5.2198e-10,0,5.1403e-05,8.8802e-06,1.7621e+07,167.17,0,1.9253e+07,182.06,13103,12110,1,12110,1,2.0333e-06,9.7359e-11,0,2.5598e-05,-3.6911e-07,7.3102e+05,30.932,0,9.6361e+06,1.9133,12109,11091,1,11091,1,-4.7336e-05,-2.0805e-10,0,2.0482e-07,-9.6222e-06,-1.9253e+07,-66.66,0,57594,-402.02,11090,11613,1,11613,1,-2.3565e-05,-1.2837e-12,0,1.2799e-05,-5.1653e-06,-9.5844e+06,-0.42491,0,4.8247e+06,-14.74,11612,12607,1,12607,1,2.7632e-05,2.2415e-10,0,3.8398e-05,4.4246e-06,9.6361e+06,70.953,0,1.4353e+07,17.711,12606,574.93,0,574.93,0,2.9547e-05,1.3375e-10,0,1.486e-05,5.5357e-06,1.1066e+07,42.224,0,5.516e+06,59.877,574.93,1
1988,0.19,12110,1,12110,1,2.1465e-06,8.8791e-11,0,2.704e-05,-3.9079e-07,-40.959,28.385,0,1.0125e+07,-40.438,12109,13104,1,13104,1,5.4266e-05,8.1629e-10,0,5.4266e-05,9.3749e-06,1.8603e+07,277.69,0,2.0326e+07,290.91,13103,12110,1,12110,1,2.1464e-06,5.8748e-11,0,2.7024e-05,-3.8965e-07,7.7167e+05,18.199,0,1.0173e+07,-13.069,12109,11091,1,11091,1,-4.9973e-05,-9.9713e-10,0,2.159e-07,-1.0159e-05,-2.0326e+07,-339.19,0,60671,-511.77,11090,11613,1,11613,1,-2.4878e-05,-6.7033e-11,0,1.3512e-05,-5.4534e-06,-1.0118e+07,-21.38,0,5.0934e+06,-103.83,11612,12607,1,12607,1,2.9171e-05,2.6637e-10,0,4.0536e-05,4.6713e-06,1.0173e+07,84.447,0,1.5153e+07,26.896,12606,574.93,0,574.93,0,3.1193e-05,2.5586e-10,0,1.5688e-05,5.8442e-06,1.1682e+07,82.903,0,5.8234e+06,113.42,574.93,1
1988,0.2,12110,1,12110,1,2.259e-06,-3.1182e-11,0,2.8458e-05,-4.1136e-07,-49.356,-9.3792,0,1.0656e+07,-73.657,12109,13104,1,13104,1,5.7111e-05,1.0634e-09,0,5.7111e-05,9.8663e-06,1.9578e+07,327.73,0,2.1391e+07,78.363,13103,12110,1,12110,1,2.259e-06,-1.2673e-11,0,2.8441e-05,-4.1016e-07,8.1214e+05,-4.1481,0,1.0706e+07,-66.984,12109,11091,1,11091,1,-5.2593e-05,-1.0997e-09,0,2.2727e-07,-1.0691e-05,-2.1391e+07,-338.97,0,63850,-381.32,11090,11613,1,11613,1,-2.6182e-05,-1.8604e-10,0,1.4221e-05,-5.7394e-06,-1.0649e+07,-59.085,0,5.3605e+06,-129.3,11612,12607,1,12607,1,3.0701e-05,1.3105e-10,0,4.2662e-05,4.9161e-06,1.0706e+07,41.345,0,1.5947e+07,-9.3447,12606,574.93,0,574.93,0,3.2829e-05,3.2288e-10,0,1.651e-05,6.1506e-06,1.2295e+07,98.664,0,6.1286e+06,68.168,574.93,1
1988,0.21,12110,1,12110,1,2.3718e-06,-2.2809e-10,0,2.9884e-05,-4.3197e-07,-233.55,-71.881,0,1.119e+07,-110.43,12109,13104,1,13104,1,5.9974e-05,1.7338e-09,0,5.9974e-05,1.0361e-05,2.0559e+07,500.6,0,2.2464e+07,199.02,13103,12110,1,12110,1,2.3716e-06,-2.0512e-10,0,2.9867e-05,-4.3071e-07,8.5261e+05,-66.56,0,1.1243e+07,-61.508,12109,11091,1,11091,1,-5.523e-05,-2.4654e-09,0,2.3771e-07,-1.1229e-05,-2.2464e+07,-711.85,0,66670,-1466.7,11090,11613,1,11613,1,-2.7495e-05,-3.6737e-10,0,1.4933e-05,-6.0268e-06,-1.1183e+07,-115.84,0,5.6292e+06,-135.77,11612,12607,1,12607,1,3.2239e-05,-5.9677e-11,0,4.48e-05,5.1625e-06,1.1243e+07,-18.416,0,1.6747e+07,-26.486,12606,574.93,0,574.93,0,3.4474e-05,3.0802e-10,0,1.7337e-05,6.459e-06,1.2911e+07,92.076,0,6.4358e+06,177.27,574.93,1
1988,0.22,12110,1,12110,1,2.4845e-06,-3.341e-11,0,3.1304e-05,-4.525e-07,-206.21,-10.704,0,1.1721e+07,-113.32,12109,13104,1,13104,1,6.2822e-05,1.4087e-09,0,6.2822e-05,1.0853e-05,2.1536e+07,434.21,0,2.3531e+07,32.73,13103,12110,1,12110,1,2.4846e-06,-5.8521e-11,0,3.1286e-05,-4.5114e-07,8.9325e+05,-18.763,0,1.1777e+07,-99.445,12109,11091,1,11091,1,-5.7853e-05,-1.0834e-09,0,2.4951e-07,-1.176e-05,-2.3531e+07,-334.02,0,70050,-424.93,11090,11613,1,11613,1,-2.8801e-05,-2.1059e-10,0,1.5643e-05,-6.3135e-06,-1.1714e+07,-68.045,0,5.8966e+06,-179.7,11612,12607,1,12607,1,3.377e-05,1.0459e-10,0,4.6929e-05,5.4077e-06,1.1777e+07,33.654,0,1.7542e+07,-28.457,12606,574.93,0,574.93,0,3.6112e-05,3.4475e-10,0,1.8161e-05,6.7658e-06,1.3524e+07,105.01,0,6.7416e+06,94.945,574.93,1
1988,0.23,12110,1,12110,1,2.5982e-06,-9.6616e-11,0,3.2731e-05,-4.7311e-07,-90.213,-29.152,0,1.2256e+07,-84.871,12109,13104,1,13104,1,6.5687e-05,9.1395e-10,0,6.5687e-05,1.1348e-05,2.2518e+07,264.09,0,2.4604e+07,241.54,13103,12110,1,12110,1,2.598e-06,-8.0558e-11,0,3.2712e-05,-4.7172e-07,9.3401e+05,-25.632,0,1.2314e+07,-53.998,12109,11091,1,11091,1,-6.049e-05,-1.0815e-09,0,2.6119e-07,-1.2298e-05,-2.4604e+07,-312.2,0,73356,-995.81,11090,11613,1,11613,1,-3.0114e-05,-2.3909e-10,0,1.6356e-05,-6.6011e-06,-1.2248e+07,-75.93,0,6.1654e+06,-129.22,11612,12607,1,12607,1,3.531e-05,5.4774e-11,0,4.9068e-05,5.6542e-06,1.2314e+07,18.469,0,1.8342e+07,-24.053,12606,574.93,0,574.93,0,3.7758e-05,2.6989e-10,0,1.8989e-05,7.0742e-06,1.4141e+07,84.686,0,7.049e+06,130.56,574.93,1
1988,0.24,12110,1,12110,1,2.7109e-06,3.5433e-10,0,3.4151e-05,-4.937e-07,-86.304,112.58,0,1.2787e+07,-111.76,12109,13104,1,13104,1,6.854e-05,2.2532e-09,0,6.854e-05,1.1841e-05,2.3496e+07,694.62,0,2.5672e+07,30.174,13103,12110,1,12110,1,2.7108e-06,2.1606e-10,0,3.4132e-05,-4.9229e-07,9.7456e+05,67.098,0,1.2848e+07,-114.5,12109,11091,1,11091,1,-6.3118e-05,-8.7696e-10,0,2.7268e-07,-1.2829e-05,-2.5672e+07,-270.39,0,76589,-362.05,11090,11613,1,11613,1,-3.1421e-05,-3.0761e-11,0,1.7066e-05,-6.8879e-06,-1.2779e+07,-9.4006,0,6.433e+06,-195.24,11612,12607,1,12607,1,3.6843e-05,6.5552e-10,0,5.1197e-05,5.8996e-06,1.2848e+07,211.88,0,1.9138e+07,-13.415,12606,574.93,0,574.93,0,3.9396e-05,5.2639e-10,0,1.9813e-05,7.3811e-06,1.4754e+07,164.74,0,7.3547e+06,96.957,574.93,1
1988,0.25,12110,1,12110,1,2.8238e-06,-1.2112e-10,0,3.5574e-05,-5.1414e-07,-119.93,-38.826,0,1.332e+07,-70.294,12109,13104,1,13104,1,7.1394e-05,1.1719e-09,0,7.1394e-05,1.2334e-05,2.4474e+07,361.36,0,2.6742e+07,80.144,13103,12110,1,12110,1,2.8237e-06,-8.0657e-11,0,3.5554e-05,-5.1259e-07,1.0152e+06,-24.971,0,1.3384e+07,-52.242,12109,11091,1,11091,1,-6.5747e-05,-1.5836e-09,0,2.839e-07,-1.3364e-05,-2.6742e+07,-488.18,0,79737,-514.04,11090,11613,1,11613,1,-3.273e-05,-3.9711e-10,0,1.7777e-05,-7.1746e-06,-1.3312e+07,-122.83,0,6.7011e+06,-115.23,11612,12607,1,12607,1,3.8378e-05,1.3353e-10,0,5.3331e-05,6.1455e-06,1.3384e+07,41.913,0,1.9935e+07,-15.307,12606,574.93,0,574.93,0,4.1038e-05,4.4578e-10,0,2.0639e-05,7.6887e-06,1.5369e+07,137.96,0,7.6613e+06,70.962,574.93,1
1988,0.26,12110,1,12110,1,2.937e-06,1.2683e-10,0,3.6999e-05,-5.3482e-07,-58.371,40.398,0,1.3854e+07,-94.379,12109,13104,1,13104,1,7.4252e-05,8.5054e-10,0,7.4252e-05,1.2828e-05,2.5454e+07,262.19,0,2.7812e+07,109.42,13103,12110,1,12110,1,2.937e-06,1.0951e-10,0,3.6978e-05,-5.3334e-07,1.0559e+06,34.15,0,1.3919e+07,-59.208,12109,11091,1,11091,1,-6.8378e-05,-4.406e-10,0,2.9561e-07,-1.39e-05,-2.7812e+07,-135.81,0,83063,-503.56,11090,11613,1,11613,1,-3.404e-05,2.9542e-11,0,1.8489e-05,-7.4621e-06,-1.3845e+07,9.1047,0,6.9694e+06,-174.72,11612,12607,1,12607,1,3.9915e-05,2.0856e-10,0,5.5466e-05,6.3915e-06,1.3919e+07,66.731,0,2.0734e+07,-10.664,12606,574.93,0,574.93,0,4.2682e-05,1.5824e-10,0,2.1465e-05,7.9966e-06,1.5985e+07,49.29,0,7.9681e+06,98.451,574.93,1
1988,0.27,12110,1,12110,1,3.0499e-06,2.6904e-11,0,3.8421e-05,-5.5524e-07,-83.112,8.8446,0,1.4386e+07,-52.154,12109,13104,1,13104,1,7.7107e-05,1.1647e-09,0,7.7107e-05,1.3321e-05,2.6432e+07,359.01,0,2.8881e+07,43.988,13103,12110,1,12110,1,3.0498e-06,-1.2082e-11,0,3.8399e-05,-5.5361e-07,1.0964e+06,-4.0834,0,1.4455e+07,-33.555,12109,11091,1,11091,1,-7.1007e-05,-1.0783e-09,0,3.0685e-07,-1.4433e-05,-2.8881e+07,-332.43,0,86214,-332.13,11090,11613,1,11613,1,-3.5349e-05,-1.3021e-10,0,1.92e-05,-7.7487e-06,-1.4377e+07,-40.997,0,7.2373e+06,-86.592,11612,12607,1,12607,1,4.1449e-05,1.4082e-10,0,5.7599e-05,6.6373e-06,1.4455e+07,45.216,0,2.1531e+07,-14.162,12606,574.93,0,574.93,0,4.4322e-05,3.039e-10,0,2.229e-05,8.3039e-06,1.6599e+07,93.434,0,8.2744e+06,52.992,574.93,1
1988,0.28,12110,1,12110,1,3.1627e-06,2.9265e-10,0,3.9842e-05,-5.7583e-07,-45.357,93.443,0,1.4918e+07,-67.834,12109,13104,1,13104,1,7.9961e-05,2.0938e-09,0,7.9961e-05,1.3814e-05,2.7411e+07,645.46,0,2.995e+07,100.74,13103,12110,1,12110,1,3.1626e-06,1.513e-10,0,3.982e-05,-5.7408e-07,1.137e+06,48.292,0,1.4989e+07,-52.164,12109,11091,1,11091,1,-7.3635e-05,-1.1055e-09,0,3.1823e-07,-1.4967e-05,-2.995e+07,-340.82,0,89430,-364.62,11090,11613,1,11613,1,-3.6657e-05,-7.0251e-11,0,1.991e-05,-8.0355e-06,-1.4909e+07,-21.406,0,7.505e+06,-119.58,11612,12607,1,12607,1,4.2982e-05,6.186e-10,0,5.9729e-05,6.8827e-06,1.4989e+07,198.69,0,2.2327e+07,-4.3725,12606,574.93,0,574.93,0,4.5961e-05,5.3072e-10,0,2.3114e-05,8.611e-06,1.7213e+07,167.03,0,8.5803e+06,79.185,574.93,1
1988,0.29,12110,1,12110,1,3.2758e-06,-6.945e-11,0,4.1267e-05,-5.9635e-07,-97.794,-21.901,0,1.5452e+07,-50.059,12109,13104,1,13104,1,8.2819e-05,1.3145e-09,0,8.2819e-05,1.4307e-05,2.839e+07,405.19,0,3.102e+07,94.179,13103,12110,1,12110,1,3.2757e-06,-7.4627e-11,0,4.1244e-05,-5.9463e-07,1.1777e+06,-23.262,0,1.5525e+07,-31.274,12109,11091,1,11091,1,-7.6267e-05,-1.1592e-09,0,3.2961e-07,-1.5502e-05,-3.102e+07,-357.37,0,92628,-283.08,11090,11613,1,11613,1,-3.7968e-05,-3.114e-10,0,2.0622e-05,-8.3227e-06,-1.5442e+07,-99.407,0,7.7735e+06,-93.264,11612,12607,1,12607,1,4.452e-05,1.0427e-10,0,6.1866e-05,7.1289e-06,1.5525e+07,33.226,0,2.3126e+07,0.856,12606,574.93,0,574.93,0,4.7606e-05,3.7031e-10,0,2.3941e-05,8.9191e-06,1.7829e+07,116.05,0,8.8873e+06,61.87,574.93,1
1988,0.3,12110,1,12110,1,3.3888e-06,-3.2173e-11,0,4.2689e-05,-6.1706e-07,-52.942,-9.8661,0,1.5984e+07,-102.92,12109,13104,1,13104,1,8.5672e-05,1.4242e-09,0,8.5672e-05,1.48e-05,2.9368e+07,439.03,0,3.2089e+07,79.254,13103,12110,1,12110,1,3.3887e-06,-3.2227e-11,0,4.2665e-05,-6.1516e-07,1.2183e+06,-10.668,0,1.606e+07,-89.079,12109,11091,1,11091,1,-7.8894e-05,-1.4899e-09,0,3.4102e-07,-1.6037e-05,-3.2089e+07,-459.28,0,95851,-596.62,11090,11613,1,11613,1,-3.9276e-05,-2.6058e-10,0,2.1332e-05,-8.6096e-06,-1.5974e+07,-84.321,0,8.0412e+06,-187.5,11612,12607,1,12607,1,4.6053e-05,2.0378e-10,0,6.3997e-05,7.3746e-06,1.606e+07,64.541,0,2.3922e+07,-10.725,12606,574.93,0,574.93,0,4.9246e-05,4.295e-10,0,2.4766e-05,9.2264e-06,1.8443e+07,133.35,0,9.1935e+06,102.57,574.93,1
1988,0.31,12110,1,12110,1,3.5018e-06,1.686e-10,0,4.4114e-05,-6.3757e-07,-52.882,53.56,0,1.6518e+07,-76.105,12109,13104,1,13104,1,8.8531e-05,1.0435e-09,0,8.8531e-05,1.5294e-05,3.0349e+07,321.65,0,3.316e+07,73.697,13103,12110,1,12110,1,3.5018e-06,1.5558e-10,0,4.4088e-05,-6.3576e-07,1.2589e+06,49.98,0,1.6596e+07,-60.267,12109,11091,1,11091,1,-8.1527e-05,-8.6654e-10,0,3.525e-07,-1.6572e-05,-3.316e+07,-267.17,0,99066,-334.35,11090,11613,1,11613,1,-4.0587e-05,2.6232e-11,0,2.2044e-05,-8.8967e-06,-1.6507e+07,8.3128,0,8.3096e+06,-131.61,11612,12607,1,12607,1,4.759e-05,2.839e-10,0,6.6133e-05,7.6205e-06,1.6596e+07,91.841,0,2.4721e+07,-15.157,12606,574.93,0,574.93,0,5.0889e-05,2.1691e-10,0,2.5593e-05,9.5343e-06,1.9058e+07,67.014,0,9.5003e+06,67.968,574.93,1
1988,0.32,12110,1,12110,1,3.6157e-06,1.9381e-11,0,4.5546e-05,-6.5821e-07,4.4873,6.509,0,1.7054e+07,-39.456,12109,13104,1,13104,1,9.1407e-05,1.1501e-09,0,9.1407e-05,1.5791e-05,3.1334e+07,379.63,0,3.4237e+07,148.12,13103,12110,1,12110,1,3.6157e-06,2.741e-11,0,4.552e-05,-6.5641e-07,1.2999e+06,8.3432,0,1.7135e+07,-28.031,12109,11091,1,11091,1,-8.4175e-05,-1.7728e-09,0,3.6418e-07,-1.711e-05,-3.4237e+07,-568.61,0,1.0237e+05,-311.33,11090,11613,1,11613,1,-4.1904e-05,-2.7575e-10,0,2.276e-05,-9.1854e-06,-1.7043e+07,-87.801,0,8.5794e+06,-80.122,11612,12607,1,12607,1,4.9136e-05,3.9993e-10,0,6.828e-05,7.868e-06,1.7135e+07,123.07,0,2.5523e+07,-5.5502,12606,574.93,0,574.93,0,5.2542e-05,5.5386e-10,0,2.6424e-05,9.8439e-06,1.9677e+07,177.37,0,9.8089e+06,69.861,574.93,1
1988,0.33,12110,1,12110,1,3.7278e-06,2.8035e-10,0,4.6959e-05,-6.7876e-07,-16.626,89.816,0,1.7583e+07,-98.856,12109,13104,1,13104,1,9.4242e-05,1.4213e-09,0,9.4242e-05,1.6281e-05,3.2306e+07,438.07,0,3.5299e+07,95.955,13103,12110,1,12110,1,3.7277e-06,2.4143e-10,0,4.6932e-05,-6.7689e-07,1.3402e+06,76.636,0,1.7667e+07,-84.821,12109,11091,1,11091,1,-8.6787e-05,-6.3116e-10,0,3.7527e-07,-1.7641e-05,-3.5299e+07,-194.49,0,1.0545e+05,-403.64,11090,11613,1,11613,1,-4.3204e-05,3.9426e-11,0,2.3466e-05,-9.4707e-06,-1.7572e+07,12.869,0,8.8456e+06,-174.91,11612,12607,1,12607,1,5.066e-05,5.1565e-10,0,7.0398e-05,8.1121e-06,1.7667e+07,167.89,0,2.6315e+07,-13.145,12606,574.93,0,574.93,0,5.4171e-05,3.1519e-10,0,2.7243e-05,1.0149e-05,2.0288e+07,98.976,0,1.0113e+07,94.626,574.93,1
1988,0.34,12110,1,12110,1,3.8407e-06,1.1951e-11,0,4.8381e-05,-6.993e-07,-23.883,3.4335,0,1.8115e+07,-99.48,12109,13104,1,13104,1,9.7095e-05,2.2694e-09,0,9.7095e-05,1.6774e-05,3.3285e+07,699.54,0,3.6368e+07,94.747,13103,12110,1,12110,1,3.8406e-06,-5.1459e-11,0,4.8353e-05,-6.972e-07,1.3807e+06,-16.031,0,1.8202e+07,-60.509,12109,11091,1,11091,1,-8.9414e-05,-1.4719e-09,0,3.8672e-07,-1.8175e-05,-3.6368e+07,-453.72,0,1.0871e+05,-572.47,11090,11613,1,11613,1,-4.4512e-05,-4.8227e-10,0,2.4177e-05,-9.7577e-06,-1.8104e+07,-156.17,0,9.1134e+06,-181.6,11612,12607,1,12607,1,5.2194e-05,3.7996e-10,0,7.253e-05,8.3578e-06,1.8202e+07,118.05,0,2.7112e+07,5.729,12606,574.93,0,574.93,0,5.5811e-05,7.336e-10,0,2.8068e-05,1.0457e-05,2.0902e+07,231.11,0,1.0419e+07,127.54,574.93,1
1988,0.35,12110,1,12110,1,3.954e-06,-8.0223e-11,0,4.9809e-05,-7.1981e-07,-43.001,-25.497,0,1.865e+07,-53.61,12109,13104,1,13104,1,9.996e-05,4.4467e-10,0,9.996e-05,1.7269e-05,3.4266e+07,151.34,0,3.7441e+07,70.995,13103,12110,1,12110,1,3.9539e-06,-5.0207e-11,0,4.978e-05,-7.1771e-07,1.4215e+06,-15.718,0,1.8739e+07,-38.563,12109,11091,1,11091,1,-9.2052e-05,-6.302e-10,0,3.9812e-07,-1.8711e-05,-3.7441e+07,-215.4,0,1.1192e+05,-321.52,11090,11613,1,11613,1,-4.5826e-05,-1.6889e-10,0,2.489e-05,-1.0045e-05,-1.8639e+07,-52.594,0,9.3824e+06,-91.838,11612,12607,1,12607,1,5.3734e-05,2.0545e-11,0,7.467e-05,8.6044e-06,1.8739e+07,6.4895,0,2.7912e+07,-7.1416,12606,574.93,0,574.93,0,5.7459e-05,1.6095e-10,0,2.8897e-05,1.0765e-05,2.1519e+07,52.94,0,1.0727e+07,59.514,574.93,1
1988,0.36,12110,1,12110,1,4.0674e-06,1.0367e-10,0,5.1236e-05,-7.4046e-07,2.2187,33.784,0,1.9185e+07,-56.957,12109,13104,1,13104,1,0.00010283,5.0224e-10,0,0.00010283,1.7764e-05,3.5249e+07,170.89,0,3.8514e+07,40.905,13103,12110,1,12110,1,4.0673e-06,1.0568e-10,0,5.1207e-05,-7.3836e-07,1.4623e+06,33.016,0,1.9276e+07,-45.09,12109,11091,1,11091,1,-9.469e-05,-3.0069e-10,0,4.0966e-07,-1.9247e-05,-3.8514e+07,-92.723,0,1.1516e+05,-278.5,11090,11613,1,11613,1,-4.7139e-05,-1.2469e-11,0,2.5603e-05,-1.0333e-05,-1.9173e+07,-3.7637,0,9.6512e+06,-94.674,11612,12607,1,12607,1,5.5274e-05,1.9239e-10,0,7.681e-05,8.8509e-06,1.9276e+07,60.765,0,2.8712e+07,-11.524,12606,574.93,0,574.93,0,5.9106e-05,1.4021e-10,0,2.9725e-05,1.1074e-05,2.2136e+07,46.29,0,1.1034e+07,52.959,574.93,1
1988,0.37,12110,1,12110,1,4.1797e-06,1.623e-10,0,5.2654e-05,-7.6101e-07,-106.97,52.052,0,1.9715e+07,-99.464,12109,13104,1,13104,1,0.00010567,6.4642e-10,0,0.00010567,1.8255e-05,3.6224e+07,219.93,0,3.958e+07,85.346,13103,12110,1,12110,1,4.1798e-06,1.5904e-10,0,5.2624e-05,-7.5887e-07,1.5027e+06,50.141,0,1.9809e+07,-58.968,12109,11091,1,11091,1,-9.7311e-05,-5.4562e-10,0,4.2055e-07,-1.978e-05,-3.958e+07,-168.19,0,1.1815e+05,-556.71,11090,11613,1,11613,1,-4.8444e-05,3.9351e-11,0,2.6312e-05,-1.0619e-05,-1.9703e+07,12.765,0,9.9183e+06,-180.19,11612,12607,1,12607,1,5.6804e-05,2.7367e-10,0,7.8936e-05,9.0959e-06,1.9809e+07,86.87,0,2.9506e+07,-11.879,12606,574.93,0,574.93,0,6.0741e-05,1.6786e-10,0,3.0548e-05,1.138e-05,2.2748e+07,54.602,0,1.134e+07,106.24,574.93,1
1988,0.38,12110,1,12110,1,4.2928e-06,1.7427e-11,0,5.4075e-05,-7.8144e-07,22.915,5.6517,0,2.0247e+07,-36.961,12109,13104,1,13104,1,0.00010852,1.0683e-09,0,0.00010852,1.8748e-05,3.7201e+07,329.35,0,4.0647e+07,87.185,13103,12110,1,12110,1,4.2927e-06,-1.3917e-11,0,5.4044e-05,-7.7914e-07,1.5433e+06,-4.4395,0,2.0344e+07,-15.374,12109,11091,1,11091,1,-9.9935e-05,-9.092e-10,0,4.3242e-07,-2.0313e-05,-4.0647e+07,-280.32,0,1.2158e+05,-286.27,11090,11613,1,11613,1,-4.9751e-05,-1.1755e-10,0,2.7022e-05,-1.0906e-05,-2.0235e+07,-37.775,0,1.0186e+07,-65.392,11612,12607,1,12607,1,5.8337e-05,1.5306e-10,0,8.1066e-05,9.3413e-06,2.0344e+07,48.915,0,3.0303e+07,0.53798,12606,574.93,0,574.93,0,6.238e-05,2.5318e-10,0,3.1372e-05,1.1687e-05,2.3362e+07,79.204,0,1.1646e+07,55.61,574.93,1
1988,0.39,12110,1,12110,1,4.4057e-06,5.3239e-12,0,5.5497e-05,-8.0202e-07,24.902,1.5796,0,2.078e+07,-50.512,12109,13104,1,13104,1,0.00011138,1.504e-09,0,0.00011138,1.9241e-05,3.818e+07,463.61,0,4.1716e+07,38.655,13103,12110,1,12110,1,4.4056e-06,-2.5369e-11,0,5.5465e-05,-7.9966e-07,1.5839e+06,-7.6004,0,2.0879e+07,-35.241,12109,11091,1,11091,1,-0.00010256,-9.6865e-10,0,4.4377e-07,-2.0847e-05,-4.1716e+07,-298.61,0,1.2477e+05,-293.15,11090,11613,1,11613,1,-5.106e-05,-2.4891e-10,0,2.7733e-05,-1.1193e-05,-2.0767e+07,-79.338,0,1.0454e+07,-93.646,11612,12607,1,12607,1,5.9871e-05,2.001e-10,0,8.3198e-05,9.5871e-06,2.0879e+07,63.228,0,3.11e+07,2.2427,12606,574.93,0,574.93,0,6.4021e-05,3.9613e-10,0,3.2197e-05,1.1994e-05,2.3976e+07,124.81,0,1.1952e+07,64.265,574.93,1
1988,0.4,12110,1,12110,1,4.5186e-06,-1.6181e-10,0,5.6921e-05,-8.2253e-07,-28.03,-51.263,0,2.1313e+07,-33.319,12109,13104,1,13104,1,0.00011424,1.2672e-09,0,0.00011424,1.9735e-05,3.916e+07,390.63,0,4.2788e+07,55.053,13103,12110,1,12110,1,4.5186e-06,-1.3238e-10,0,5.6889e-05,-8.2015e-07,1.6245e+06,-42.461,0,2.1415e+07,-14.601,12109,11091,1,11091,1,-0.0001052,-1.0851e-09,0,4.5503e-07,-2.1383e-05,-4.2788e+07,-334.48,0,1.2792e+05,-186.5,11090,11613,1,11613,1,-5.2371e-05,-4.5237e-10,0,2.8444e-05,-1.148e-05,-2.13e+07,-146.11,0,1.0722e+07,-65.611,11612,12607,1,12607,1,6.1408e-05,6.991e-11,0,8.5334e-05,9.8332e-06,2.1415e+07,22.2,0,3.1898e+07,2.9184,12606,574.93,0,574.93,0,6.5664e-05,4.0255e-10,0,3.3023e-05,1.2302e-05,2.4592e+07,126.31,0,1.2259e+07,48.629,574.93,1
1988,0.41,12110,1,12110,1,4.6317e-06,2.2487e-10,0,5.8344e-05,-8.4311e-07,17.615,71.504,0,2.1846e+07,-35.804,12109,13104,1,13104,1,0.00011709,1.1096e-09,0,0.00011709,2.0228e-05,4.0139e+07,344.87,0,4.3857e+07,63.742,13103,12110,1,12110,1,4.6316e-06,1.6172e-10,0,5.8311e-05,-8.4069e-07,1.6652e+06,49.771,0,2.195e+07,-4.6142,12109,11091,1,11091,1,-0.00010783,-6.6704e-10,0,4.6656e-07,-2.1917e-05,-4.3857e+07,-205.67,0,1.3116e+05,-367.25,11090,11613,1,11613,1,-5.3679e-05,-1.5794e-11,0,2.9155e-05,-1.1767e-05,-2.1832e+07,-4.8183,0,1.099e+07,-58.508,11612,12607,1,12607,1,6.2942e-05,4.5877e-10,0,8.7466e-05,1.0079e-05,2.195e+07,146.4,0,3.2695e+07,10.948,12606,574.93,0,574.93,0,6.7305e-05,3.1505e-10,0,3.3848e-05,1.261e-05,2.5206e+07,99.998,0,1.2565e+07,73.331,574.93,1
1988,0.42,12110,1,12110,1,4.7447e-06,1.4908e-10,0,5.9768e-05,-8.6365e-07,1.935,47.621,0,2.2379e+07,-22.334,12109,13104,1,13104,1,0.00011995,4.4753e-10,0,0.00011995,2.0722e-05,4.1118e+07,140.07,0,4.4927e+07,92.56,13103,12110,1,12110,1,4.7447e-06,1.434e-10,0,5.9734e-05,-8.6116e-07,1.7058e+06,45.698,0,2.2486e+07,-3.5768,12109,11091,1,11091,1,-0.00011046,-2.6309e-10,0,4.779e-07,-2.2452e-05,-4.4927e+07,-81.114,0,1.3435e+05,-214.4,11090,11613,1,11613,1,-5.4989e-05,3.177e-11,0,2.9867e-05,-1.2054e-05,-2.2365e+07,10.419,0,1.1258e+07,-52.177,11612,12607,1,12607,1,6.4478e-05,2.6254e-10,0,8.9601e-05,1.0325e-05,2.2486e+07,83.769,0,3.3493e+07,11.73,12606,574.93,0,574.93,0,6.8948e-05,1.3159e-10,0,3.4675e-05,1.2918e-05,2.5822e+07,42.216,0,1.2872e+07,56.484,574.93,1
1988,0.43,12110,1,12110,1,4.8578e-06,-6.7568e-11,0,6.1194e-05,-8.8424e-07,-2.9465,-21.448,0,2.2913e+07,-20.362,12109,13104,1,13104,1,0.00012281,2.9325e-10,0,0.00012281,2.1216e-05,4.2099e+07,99.763,0,4.5998e+07,80.155,13103,12110,1,12110,1,4.8578e-06,-3.2598e-11,0,6.1158e-05,-8.816e-07,1.7465e+06,-10.341,0,2.3022e+07,-11.985,12109,11091,1,11091,1,-0.00011309,-5.0232e-10,0,4.8929e-07,-2.2987e-05,-4.5998e+07,-170.81,0,1.3755e+05,-232.07,11090,11613,1,11613,1,-5.63e-05,-1.7205e-10,0,3.0579e-05,-1.2341e-05,-2.2899e+07,-54.539,0,1.1527e+07,-34.271,11612,12607,1,12607,1,6.6016e-05,2.8649e-11,0,9.1737e-05,1.0571e-05,2.3022e+07,9.1865,0,3.4292e+07,-1.2961,12606,574.93,0,574.93,0,7.0593e-05,1.412e-10,0,3.5502e-05,1.3226e-05,2.6438e+07,45.452,0,1.3179e+07,32.985,574.93,1
1988,0.44,12110,1,12110,1,4.9704e-06,2.3126e-10,0,6.2611e-05,-9.0478e-07,-2.6931,73.583,0,2.3444e+07,-38.828,12109,13104,1,13104,1,0.00012566,1.7346e-09,0,0.00012566,2.1708e-05,4.3075e+07,534.68,0,4.7065e+07,46.748,13103,12110,1,12110,1,4.9704e-06,1.2076e-10,0,6.2576e-05,-9.022e-07,1.7869e+06,38.57,0,2.3556e+07,-15.223,12109,11091,1,11091,1,-0.00011572,-1.0512e-09,0,5.006e-07,-2.352e-05,-4.7065e+07,-324.06,0,1.4074e+05,-232.79,11090,11613,1,11613,1,-5.7606e-05,-9.1345e-11,0,3.1288e-05,-1.2627e-05,-2.343e+07,-28.825,0,1.1794e+07,-79.25,11612,12607,1,12607,1,6.7547e-05,5.463e-10,0,9.3864e-05,1.0816e-05,2.3556e+07,176.75,0,3.5087e+07,9.9718,12606,574.93,0,574.93,0,7.2228e-05,4.874e-10,0,3.6325e-05,1.3532e-05,2.705e+07,154.45,0,1.3484e+07,62.435,574.93,1
1988,0.45,12110,1,12110,1,5.0836e-06,1.5935e-10,0,6.4037e-05,-9.2528e-07,4.2647,50.53,0,2.3978e+07,0.64574,12109,13104,1,13104,1,0.00012852,1.2476e-09,0,0.00012852,2.2202e-05,4.4056e+07,384.57,0,4.8137e+07,46.155,13103,12110,1,12110,1,5.0835e-06,6.2779e-11,0,6.4001e-05,-9.2252e-07,1.8276e+06,19.977,0,2.4092e+07,4.0007,12109,11091,1,11091,1,-0.00011835,-5.9806e-10,0,5.1207e-07,-2.4056e-05,-4.8137e+07,-191.64,0,1.4397e+05,-103.88,11090,11613,1,11613,1,-5.8917e-05,-9.0775e-11,0,3.2e-05,-1.2915e-05,-2.3963e+07,-28.959,0,1.2063e+07,-6.6667,11612,12607,1,12607,1,6.9085e-05,4.1562e-10,0,9.6002e-05,1.1062e-05,2.4092e+07,130.62,0,3.5886e+07,11.314,12606,574.93,0,574.93,0,7.3873e-05,3.6465e-10,0,3.7152e-05,1.384e-05,2.7666e+07,115.49,0,1.3791e+07,18.298,574.93,1
1988,0.46,12110,1,12110,1,5.1965e-06,1.3187e-10,0,6.5458e-05,-9.4581e-07,33.267,42.024,0,2.451e+07,7.2675,12109,13104,1,13104,1,0.00013137,1.2792e-09,0,0.00013137,2.2695e-05,4.5034e+07,400.78,0,4.9205e+07,58.605,13103,12110,1,12110,1,5.1965e-06,3.3346e-11,0,6.5422e-05,-9.4302e-07,1.8682e+06,10.819,0,2.4627e+07,8.2596,12109,11091,1,11091,1,-0.00012098,-8.5314e-10,0,5.2351e-07,-2.4589e-05,-4.9205e+07,-268.34,0,1.4719e+05,-110.56,11090,11613,1,11613,1,-6.0225e-05,-1.4169e-10,0,3.2711e-05,-1.3201e-05,-2.4495e+07,-44.287,0,1.233e+07,-1.9675,11612,12607,1,12607,1,7.0618e-05,4.2374e-10,0,9.8132e-05,1.1308e-05,2.4627e+07,133.15,0,3.6682e+07,19.555,12606,574.93,0,574.93,0,7.5513e-05,4.3999e-10,0,3.7976e-05,1.4147e-05,2.828e+07,139.87,0,1.4097e+07,20.115,574.93,1
1988,0.47,12110,1,12110,1,5.3101e-06,1.3024e-10,0,6.6892e-05,-9.665e-07,-42.387,41.205,0,2.5046e+07,-0.37484,12109,13104,1,13104,1,0.00013424,1.2234e-09,0,0.00013424,2.3191e-05,4.6019e+07,377.13,0,5.0282e+07,57.842,13103,12110,1,12110,1,5.31e-06,5.9525e-11,0,6.6853e-05,-9.6356e-07,1.909e+06,18.19,0,2.5165e+07,-2.0134,12109,11091,1,11091,1,-0.00012362,-9.9397e-10,0,5.3483e-07,-2.5127e-05,-5.0282e+07,-318.58,0,1.5037e+05,-54.541,11090,11613,1,11613,1,-6.1543e-05,-1.0752e-10,0,3.3426e-05,-1.349e-05,-2.5031e+07,-33.831,0,1.26e+07,-11.535,11612,12607,1,12607,1,7.2163e-05,4.0086e-10,0,0.00010028,1.1555e-05,2.5165e+07,126.4,0,3.7485e+07,9.1142,12606,574.93,0,574.93,0,7.7166e-05,4.201e-10,0,3.8808e-05,1.4457e-05,2.8899e+07,133.37,0,1.4406e+07,16.644,574.93,1
1988,0.48,12110,1,12110,1,5.4233e-06,-1.0997e-10,0,6.8316e-05,-9.8712e-07,17.34,-34.897,0,2.558e+07,-0.63989,12109,13104,1,13104,1,0.0001371,1.0079e-09,0,0.0001371,2.3685e-05,4.6999e+07,316.84,0,5.1353e+07,121.88,13103,12110,1,12110,1,5.4232e-06,2.6105e-12,0,6.8277e-05,-9.8418e-07,1.9498e+06,0.75614,0,2.5702e+07,-4.7053,12109,11091,1,11091,1,-0.00012626,-1.9563e-09,0,5.4635e-07,-2.5663e-05,-5.1353e+07,-597.56,0,1.5362e+05,-143.04,11090,11613,1,11613,1,-6.2853e-05,-4.3337e-10,0,3.4138e-05,-1.3777e-05,-2.5564e+07,-136.17,0,1.2869e+07,-21.999,11612,12607,1,12607,1,7.37e-05,2.6851e-10,0,0.00010242,1.1802e-05,2.5702e+07,86.578,0,3.8283e+07,16.77,12606,574.93,0,574.93,0,7.881e-05,5.7793e-10,0,3.9634e-05,1.4765e-05,2.9515e+07,183.65,0,1.4713e+07,30.16,574.93,1
1988,0.49,12110,1,12110,1,5.5357e-06,1.2221e-10,0,6.9731e-05,-1.0076e-06,43.729,38.799,0,2.611e+07,7.5188,12109,13104,1,13104,1,0.00013994,2.9804e-10,0,0.00013994,2.4176e-05,4.7972e+07,91.9,0,5.2416e+07,103.23,13103,12110,1,12110,1,5.5357e-06,1.3121e-10,0,6.9691e-05,-1.0045e-06,1.9902e+06,41.047,0,2.6234e+07,3.5779,12109,11091,1,11091,1,-0.00012887,-5.7749e-11,0,5.5768e-07,-2.6194e-05,-5.2416e+07,-19.778,0,1.5681e+05,-68.977,11090,11613,1,11613,1,-6.4156e-05,5.7823e-11,0,3.4846e-05,-1.4063e-05,-2.6093e+07,18.2,0,1.3135e+07,-2.3132,11612,12607,1,12607,1,7.5227e-05,1.924e-10,0,0.00010454,1.2046e-05,2.6234e+07,61.834,0,3.9076e+07,19.546,12606,574.93,0,574.93,0,8.0442e-05,8.3523e-11,0,4.0455e-05,1.5071e-05,3.0126e+07,26.463,0,1.5017e+07,20.632,574.93,1
1988,0.5,12110,1,12110,1,5.6483e-06,-5.2491e-11,0,7.1152e-05,-1.0281e-06,-14.498,-16.669,0,2.6642e+07,4.8246,12109,13104,1,13104,1,0.00014279,1.2424e-09,0,0.00014279,2.4668e-05,4.895e+07,392.27,0,5.3484e+07,62.495,13103,12110,1,12110,1,5.6483e-06,-6.3983e-11,0,7.1112e-05,-1.025e-06,2.0307e+06,-20.705,0,2.6769e+07,4.1697,12109,11091,1,11091,1,-0.0001315,-1.0929e-09,0,5.6888e-07,-2.6728e-05,-5.3484e+07,-346.99,0,1.5994e+05,-107.27,11090,11613,1,11613,1,-6.5463e-05,-3.6799e-10,0,3.5556e-05,-1.435e-05,-2.6625e+07,-119.44,0,1.3403e+07,-3.1662,11612,12607,1,12607,1,7.676e-05,2.1264e-10,0,0.00010667,1.2292e-05,2.6769e+07,68.709,0,3.9873e+07,13.773,12606,574.93,0,574.93,0,8.208e-05,4.7449e-10,0,4.1279e-05,1.5378e-05,3.074e+07,150.51,0,1.5323e+07,16.382,574.93,1
1988,0.51,12110,1,12110,1,5.7616e-06,1.7117e-10,0,7.2575e-05,-1.0487e-06,71.176,54.313,0,2.7175e+07,-0.96693,12109,13104,1,13104,1,0.00014565,1.0395e-09,0,0.00014565,2.5162e-05,4.993e+07,320.84,0,5.4554e+07,22.692,13103,12110,1,12110,1,5.7616e-06,8.6876e-11,0,7.2534e-05,-1.0455e-06,2.0714e+06,27.982,0,2.7304e+07,-0.18768,12109,11091,1,11091,1,-0.00013413,-4.465e-10,0,5.8053e-07,-2.7263e-05,-5.4554e+07,-143.05,0,1.6325e+05,-61.207,11090,11613,1,11613,1,-6.6773e-05,-2.7947e-11,0,3.6267e-05,-1.4637e-05,-2.7158e+07,-9.1153,0,1.3671e+07,-7.9873,11612,12607,1,12607,1,7.8296e-05,3.4505e-10,0,0.0001088,1.2537e-05,2.7304e+07,109.46,0,4.067e+07,7.8361,12606,574.93,0,574.93,0,8.3723e-05,2.7293e-10,0,4.2105e-05,1.5686e-05,3.1355e+07,86.745,0,1.563e+07,10.798,574.93,1
1988,0.52,12110,1,12110,1,5.8747e-06,4.1339e-11,0,7.4002e-05,-1.0693e-06,-2.6667,13.049,0,2.7709e+07,-3.9942,12109,13104,1,13104,1,0.00014851,4.2976e-10,0,0.00014851,2.5656e-05,5.091e+07,146.23,0,5.5626e+07,96.563,13103,12110,1,12110,1,5.8747e-06,1.8216e-11,0,7.396e-05,-1.0661e-06,2.112e+06,5.7102,0,2.7841e+07,-0.9261,12109,11091,1,11091,1,-0.00013676,-3.5331e-10,0,5.9177e-07,-2.7798e-05,-5.5626e+07,-120.22,0,1.6638e+05,-143.95,11090,11613,1,11613,1,-6.8085e-05,-3.0911e-11,0,3.698e-05,-1.4924e-05,-2.7692e+07,-10.046,0,1.394e+07,-12.076,11612,12607,1,12607,1,7.9834e-05,1.1201e-10,0,0.00011094,1.2784e-05,2.7841e+07,35.346,0,4.147e+07,10.037,12606,574.93,0,574.93,0,8.5369e-05,1.2145e-10,0,4.2933e-05,1.5994e-05,3.1971e+07,38.729,0,1.5937e+07,31.311,574.93,1
1988,0.53,12110,1,12110,1,5.9876e-06,1.4486e-10,0,7.5423e-05,-1.0898e-06,56.705,45.974,0,2.8241e+07,0.57101,12109,13104,1,13104,1,0.00015136,6.2275e-10,0,0.00015136,2.6149e-05,5.1888e+07,199.84,0,5.6695e+07,56.752,13103,12110,1,12110,1,5.9876e-06,1.083e-10,0,7.538e-05,-1.0866e-06,2.1527e+06,34.007,0,2.8375e+07,1.6696,12109,11091,1,11091,1,-0.00013939,-1.8638e-10,0,6.0327e-07,-2.8332e-05,-5.6695e+07,-59.672,0,1.6962e+05,-142.03,11090,11613,1,11613,1,-6.9392e-05,1.47e-11,0,3.769e-05,-1.5211e-05,-2.8223e+07,4.6441,0,1.4207e+07,-4.2737,11612,12607,1,12607,1,8.1368e-05,2.5382e-10,0,0.00011307,1.3029e-05,2.8375e+07,81.045,0,4.2266e+07,12.718,12606,574.93,0,574.93,0,8.7008e-05,1.5026e-10,0,4.3757e-05,1.6301e-05,3.2585e+07,47.628,0,1.6243e+07,23.391,574.93,1
1988,0.54,12110,1,12110,1,6.1005e-06,-2.1271e-10,0,7.6847e-05,-1.1104e-06,3.3116,-67.554,0,2.8774e+07,1.6182,12109,13104,1,13104,1,0.00015422,7.1794e-10,0,0.00015422,2.6643e-05,5.2868e+07,230.2,0,5.7765e+07,54.517,13103,12110,1,12110,1,6.1005e-06,-1.7762e-10,0,7.6804e-05,-1.1071e-06,2.1932e+06,-56.313,0,2.8911e+07,6.4926,12109,11091,1,11091,1,-0.00014202,-8.6417e-10,0,6.1451e-07,-2.8867e-05,-5.7765e+07,-276.95,0,1.7276e+05,-180.79,11090,11613,1,11613,1,-7.0703e-05,-4.6344e-10,0,3.8402e-05,-1.5498e-05,-2.8756e+07,-146.48,0,1.4476e+07,-3.7584,11612,12607,1,12607,1,8.2904e-05,-1.3586e-11,0,0.00011521,1.3275e-05,2.8911e+07,-4.1991,0,4.3064e+07,17.911,12606,574.93,0,574.93,0,8.865e-05,3.2344e-10,0,4.4583e-05,1.6609e-05,3.32e+07,102.64,0,1.655e+07,29.566,574.93,1
1988,0.55,12110,1,12110,1,6.214e-06,-2.0265e-10,0,7.8277e-05,-1.131e-06,-19.429,-64.372,0,2.931e+07,2.978,12109,13104,1,13104,1,0.00015709,6.5659e-10,0,0.00015709,2.7139e-05,5.3852e+07,201.11,0,5.884e+07,35.481,13103,12110,1,12110,1,6.2139e-06,-1.0653e-10,0,7.8232e-05,-1.1275e-06,2.234e+06,-33.415,0,2.9449e+07,2.1539,12109,11091,1,11091,1,-0.00014466,-1.4666e-09,0,6.2593e-07,-2.9404e-05,-5.884e+07,-450.38,0,1.7599e+05,-34.847,11090,11613,1,11613,1,-7.2018e-05,-4.7435e-10,0,3.9116e-05,-1.5786e-05,-2.9291e+07,-151.72,0,1.4745e+07,-5.0644,11612,12607,1,12607,1,8.4446e-05,8.2432e-11,0,0.00011735,1.3522e-05,2.9449e+07,25.348,0,4.3865e+07,12.025,12606,574.93,0,574.93,0,9.03e-05,4.0265e-10,0,4.5413e-05,1.6918e-05,3.3818e+07,127.83,0,1.6858e+07,12.047,574.93,1
1988,0.56,12110,1,12110,1,6.3265e-06,-1.4865e-11,0,7.9693e-05,-1.1515e-06,14.604,-4.7196,0,2.984e+07,-3.5928,12109,13104,1,13104,1,0.00015993,1.0385e-10,0,0.00015993,2.7629e-05,5.4826e+07,35.31,0,5.9904e+07,45.501,13103,12110,1,12110,1,6.3265e-06,-3.2904e-12,0,7.9648e-05,-1.148e-06,2.2745e+06,-1.0311,0,2.9982e+07,-0.098267,12109,11091,1,11091,1,-0.00014728,-2.497e-10,0,6.3734e-07,-2.9936e-05,-5.9904e+07,-84.925,0,1.792e+05,-98.499,11090,11613,1,11613,1,-7.3321e-05,-2.9898e-11,0,3.9824e-05,-1.6072e-05,-2.9821e+07,-9.6194,0,1.5012e+07,-9.882,11612,12607,1,12607,1,8.5974e-05,1.2156e-11,0,0.00011947,1.3767e-05,2.9982e+07,3.7503,0,4.4659e+07,5.7155,12606,574.93,0,574.93,0,9.1934e-05,4.9612e-11,0,4.6235e-05,1.7224e-05,3.443e+07,15.908,0,1.7163e+07,16.466,574.93,1
1988,0.57,12110,1,12110,1,6.4393e-06,1.7111e-10,0,8.1113e-05,-1.1721e-06,35.244,54.465,0,3.0372e+07,-10.777,12109,13104,1,13104,1,0.00016279,1.433e-09,0,0.00016279,2.8122e-05,5.5804e+07,441.7,0,6.0973e+07,38.405,13103,12110,1,12110,1,6.4393e-06,6.8097e-11,0,8.1068e-05,-1.1685e-06,2.315e+06,21.144,0,3.0516e+07,-3.2282,12109,11091,1,11091,1,-0.00014991,-7.1768e-10,0,6.4869e-07,-3.047e-05,-6.0973e+07,-226.74,0,1.824e+05,-102.69,11090,11613,1,11613,1,-7.4628e-05,-9.8298e-11,0,4.0534e-05,-1.6359e-05,-3.0353e+07,-31.588,0,1.5279e+07,-21.736,11612,12607,1,12607,1,8.7507e-05,4.3511e-10,0,0.0001216,1.4012e-05,3.0516e+07,137.33,0,4.5455e+07,7.3146,12606,574.93,0,574.93,0,9.3572e-05,4.0875e-10,0,4.7059e-05,1.7531e-05,3.5044e+07,129.82,0,1.7469e+07,26.476,574.93,1
1988,0.58,12110,1,12110,1,6.5529e-06,1.5227e-10,0,8.2545e-05,-1.1927e-06,16.533,48.278,0,3.0908e+07,-3.2598,12109,13104,1,13104,1,0.00016566,7.7252e-10,0,0.00016566,2.8618e-05,5.6788e+07,236.39,0,6.2048e+07,11.48,13103,12110,1,12110,1,6.5528e-06,1.166e-10,0,8.2498e-05,-1.189e-06,2.3559e+06,35.975,0,3.1055e+07,-2.2147,12109,11091,1,11091,1,-0.00015255,-5.1058e-10,0,6.6014e-07,-3.1008e-05,-6.2048e+07,-160.93,0,1.8562e+05,-35.822,11090,11613,1,11613,1,-7.5945e-05,-2.0903e-11,0,4.1249e-05,-1.6647e-05,-3.0888e+07,-6.7359,0,1.5549e+07,-7.9865,11612,12607,1,12607,1,8.9051e-05,3.2956e-10,0,0.00012375,1.426e-05,3.1055e+07,105.43,0,4.6257e+07,2.2266,12606,574.93,0,574.93,0,9.5224e-05,2.538e-10,0,4.7889e-05,1.784e-05,3.5662e+07,80.384,0,1.7777e+07,7.5931,574.93,1
1988,0.59,12110,1,12110,1,6.665e-06,3.5727e-10,0,8.3959e-05,-1.2131e-06,-20.421,113.42,0,3.1437e+07,-6.8917,12109,13104,1,13104,1,0.0001685,2.0311e-09,0,0.0001685,2.9109e-05,5.7762e+07,630.79,0,6.3113e+07,49.515,13103,12110,1,12110,1,6.6649e-06,1.8565e-10,0,8.3912e-05,-1.2096e-06,2.3962e+06,56.997,0,3.1587e+07,-2.4368,12109,11091,1,11091,1,-0.00015517,-1.0502e-09,0,6.7129e-07,-3.1539e-05,-6.3113e+07,-323.77,0,1.8874e+05,-169.35,11090,11613,1,11613,1,-7.7247e-05,-1.0533e-10,0,4.1956e-05,-1.6932e-05,-3.1418e+07,-34.316,0,1.5815e+07,-19.635,11612,12607,1,12607,1,9.0577e-05,8.5678e-10,0,0.00012587,1.4504e-05,3.1587e+07,266.67,0,4.705e+07,10.545,12606,574.93,0,574.93,0,9.6854e-05,6.8065e-10,0,4.8709e-05,1.8146e-05,3.6273e+07,216.07,0,1.8081e+07,27.344,574.93,1
1988,0.6,12110,1,12110,1,6.7781e-06,1.2219e-10,0,8.5382e-05,-1.2337e-06,12.793,38.605,0,3.197e+07,4.2341,12109,13104,1,13104,1,0.00017135,1.4382e-09,0,0.00017135,2.9602e-05,5.8741e+07,452.43,0,6.4182e+07,54.387,13103,12110,1,12110,1,6.7781e-06,1.4818e-11,0,8.5334e-05,-1.2299e-06,2.4369e+06,4.5602,0,3.2122e+07,2.7746,12109,11091,1,11091,1,-0.0001578,-8.7207e-10,0,6.8279e-07,-3.2074e-05,-6.4182e+07,-279.4,0,1.9198e+05,-38.74,11090,11613,1,11613,1,-7.8556e-05,-1.7396e-10,0,4.2667e-05,-1.722e-05,-3.195e+07,-55.218,0,1.6083e+07,-7.472,11612,12607,1,12607,1,9.2112e-05,3.9063e-10,0,0.000128,1.475e-05,3.2122e+07,124.38,0,4.7847e+07,13.144,12606,574.93,0,574.93,0,9.8497e-05,4.7109e-10,0,4.9535e-05,1.8454e-05,3.6888e+07,149.26,0,1.8388e+07,16.551,574.93,1
1988,0.61,12110,1,12110,1,6.8911e-06,-2.7214e-10,0,8.6807e-05,-1.2543e-06,-32.901,-86.514,0,3.2504e+07,1.7601,12109,13104,1,13104,1,0.00017421,5.0899e-10,0,0.00017421,3.0096e-05,5.9721e+07,163.13,0,6.5253e+07,26.297,13103,12110,1,12110,1,6.891e-06,-2.11e-10,0,8.6758e-05,-1.2504e-06,2.4775e+06,-67.725,0,3.2658e+07,1.4582,12109,11091,1,11091,1,-0.00016043,-9.4213e-10,0,6.9405e-07,-3.2609e-05,-6.5253e+07,-301.64,0,1.9513e+05,-66.36,11090,11613,1,11613,1,-7.9867e-05,-5.2674e-10,0,4.3379e-05,-1.7507e-05,-3.2484e+07,-168.69,0,1.6352e+07,-3.8147,11612,12607,1,12607,1,9.3649e-05,-3.6959e-11,0,0.00013014,1.4996e-05,3.2658e+07,-11.293,0,4.8646e+07,9.7129,12606,574.93,0,574.93,0,0.00010014,3.2452e-10,0,5.0362e-05,1.8761e-05,3.7503e+07,103.17,0,1.8695e+07,11.657,574.93,1
1988,0.62,12110,1,12110,1,7.0043e-06,-1.289e-11,0,8.8232e-05,-1.2749e-06,9.8898,-4.1078,0,3.3037e+07,-5.7401,12109,13104,1,13104,1,0.00017707,2.3219e-10,0,0.00017707,3.059e-05,6.07e+07,74.663,0,6.6323e+07,44.975,13103,12110,1,12110,1,7.0043e-06,-2.4703e-11,0,8.8182e-05,-1.2709e-06,2.5182e+06,-7.8413,0,3.3194e+07,-1.5979,12109,11091,1,11091,1,-0.00016306,-2.4656e-10,0,7.056e-07,-3.3144e-05,-6.6323e+07,-78.982,0,1.984e+05,-118.32,11090,11613,1,11613,1,-8.1178e-05,-8.344e-11,0,4.4091e-05,-1.7794e-05,-3.3017e+07,-26.329,0,1.662e+07,-10.204,11612,12607,1,12607,1,9.5186e-05,4.9116e-11,0,0.00013227,1.5242e-05,3.3194e+07,15.285,0,4.9444e+07,4.1452,12606,574.93,0,574.93,0,0.00010178,9.5326e-11,0,5.1189e-05,1.9069e-05,3.8119e+07,30.256,0,1.9002e+07,20.72,574.93,1
1988,0.63,12110,1,12110,1,7.1172e-06,1.6394e-10,0,8.9654e-05,-1.2955e-06,5.5623,52.046,0,3.357e+07,-15.035,12109,13104,1,13104,1,0.00017992,6.9636e-10,0,0.00017992,3.1083e-05,6.1679e+07,214.64,0,6.7392e+07,27.73,13103,12110,1,12110,1,7.1172e-06,1.0561e-10,0,8.9603e-05,-1.2917e-06,2.5588e+06,34.373,0,3.3729e+07,-3.3582,12109,11091,1,11091,1,-0.00016569,-2.2966e-10,0,7.1695e-07,-3.3678e-05,-6.7392e+07,-70.805,0,2.0157e+05,-182.49,11090,11613,1,11613,1,-8.2486e-05,-1.5542e-12,0,4.4802e-05,-1.8081e-05,-3.3549e+07,-0.44894,0,1.6888e+07,-20.82,11612,12607,1,12607,1,9.672e-05,3.2398e-10,0,0.0001344,1.5488e-05,3.3729e+07,101.51,0,5.0241e+07,2.8173,12606,574.93,0,574.93,0,0.00010342,1.9935e-10,0,5.2014e-05,1.9377e-05,3.8733e+07,63.085,0,1.9308e+07,32.251,574.93,1
1988,0.64,12110,1,12110,1,7.2303e-06,2.3217e-10,0,9.1078e-05,-1.316e-06,35.453,73.607,0,3.4103e+07,-3.5155,12109,13104,1,13104,1,0.00018278,7.4804e-10,0,0.00018278,3.1577e-05,6.2659e+07,233.05,0,6.8463e+07,18.709,13103,12110,1,12110,1,7.2303e-06,1.6793e-10,0,9.1026e-05,-1.312e-06,2.5994e+06,52.645,0,3.4265e+07,-1.255,12109,11091,1,11091,1,-0.00016832,-7.7642e-11,0,7.2842e-07,-3.4213e-05,-6.8463e+07,-26.592,0,2.0481e+05,-95.291,11090,11613,1,11613,1,-8.3796e-05,8.5452e-11,0,4.5513e-05,-1.8368e-05,-3.4082e+07,27.971,0,1.7156e+07,-5.8756,11612,12607,1,12607,1,9.8257e-05,3.5381e-10,0,0.00013654,1.5734e-05,3.4265e+07,112.38,0,5.1039e+07,2.3369,12606,574.93,0,574.93,0,0.00010507,2.056e-10,0,5.284e-05,1.9685e-05,3.9349e+07,64.972,0,1.9615e+07,12.255,574.93,1
1988,0.65,12110,1,12110,1,7.3432e-06,1.2504e-10,0,9.25e-05,-1.3366e-06,45.139,39.69,0,3.4635e+07,-3.6404,12109,13104,1,13104,1,0.00018564,9.0764e-10,0,0.00018564,3.207e-05,6.3637e+07,277.9,0,6.9531e+07,19.205,13103,12110,1,12110,1,7.3432e-06,2.6134e-11,0,9.2448e-05,-1.3324e-06,2.64e+06,8.5118,0,3.48e+07,-3.2227,12109,11091,1,11091,1,-0.00017095,-3.1106e-10,0,7.3981e-07,-3.4747e-05,-6.9531e+07,-99.689,0,2.0803e+05,-43.325,11090,11613,1,11613,1,-8.5104e-05,-7.2134e-11,0,4.6224e-05,-1.8655e-05,-3.4614e+07,-22.942,0,1.7424e+07,-9.7248,11612,12607,1,12607,1,9.9791e-05,3.0639e-10,0,0.00013867,1.5979e-05,3.48e+07,97.059,0,5.1836e+07,2.9824,12606,574.93,0,574.93,0,0.00010671,2.7162e-10,0,5.3665e-05,1.9992e-05,3.9963e+07,86.24,0,1.9921e+07,9.1738,574.93,1
1988,0.66,12110,1,12110,1,7.4562e-06,1.7256e-10,0,9.3924e-05,-1.3571e-06,30.385,54.935,0,3.5168e+07,-2.9378,12109,13104,1,13104,1,0.00018849,5.0604e-10,0,0.00018849,3.2563e-05,6.4616e+07,155.98,0,7.0601e+07,16.57,13103,12110,1,12110,1,7.4562e-06,1.5998e-10,0,9.387e-05,-1.353e-06,2.6807e+06,51.81,0,3.5336e+07,-1.1934,12109,11091,1,11091,1,-0.00017358,-6.4244e-11,0,7.5114e-07,-3.5282e-05,-7.0601e+07,-20.1,0,2.1121e+05,-35.979,11090,11613,1,11613,1,-8.6414e-05,5.6321e-11,0,4.6935e-05,-1.8942e-05,-3.5146e+07,17.249,0,1.7692e+07,-6.2222,11612,12607,1,12607,1,0.00010133,2.8212e-10,0,0.00014081,1.6225e-05,3.5336e+07,90.316,0,5.2634e+07,1.7243,12606,574.93,0,574.93,0,0.00010835,1.4196e-10,0,5.4491e-05,2.03e-05,4.0578e+07,45.289,0,2.0227e+07,7.1972,574.93,1
1988,0.67,12110,1,12110,1,7.5691e-06,2.2148e-10,0,9.5346e-05,-1.3777e-06,15.391,70.167,0,3.5701e+07,3.1066,12109,13104,1,13104,1,0.00019135,1.3255e-09,0,0.00019135,3.3057e-05,6.5595e+07,412.72,0,7.1671e+07,61.979,13103,12110,1,12110,1,7.5691e-06,5.3494e-11,0,9.5292e-05,-1.3735e-06,2.7212e+06,17.721,0,3.5871e+07,0.89857,12109,11091,1,11091,1,-0.00017621,-4.8345e-10,0,7.6246e-07,-3.5817e-05,-7.1671e+07,-154.89,0,2.1438e+05,-102.06,11090,11613,1,11613,1,-8.7723e-05,-9.0964e-11,0,4.7646e-05,-1.9229e-05,-3.5679e+07,-28.545,0,1.796e+07,-5.5089,11612,12607,1,12607,1,0.00010286,4.7981e-10,0,0.00014294,1.6471e-05,3.5871e+07,155.89,0,5.3431e+07,14.166,12606,574.93,0,574.93,0,0.00010999,4.3237e-10,0,5.5316e-05,2.0607e-05,4.1193e+07,136.99,0,2.0534e+07,21.617,574.93,1
1988,0.68,12110,1,12110,1,7.6818e-06,2.8274e-10,0,9.6766e-05,-1.3982e-06,-3.2891,89.78,0,3.6233e+07,2.6809,12109,13104,1,13104,1,0.0001942,2.429e-09,0,0.0001942,3.3549e-05,6.6573e+07,741.17,0,7.2739e+07,58.111,13103,12110,1,12110,1,7.6817e-06,7.7235e-11,0,9.6712e-05,-1.3938e-06,2.7617e+06,23.908,0,3.6405e+07,1.9118,12109,11091,1,11091,1,-0.00017884,-1.0953e-09,0,7.7377e-07,-3.635e-05,-7.2739e+07,-349.05,0,2.1756e+05,-53.525,11090,11613,1,11613,1,-8.903e-05,-1.8208e-10,0,4.8356e-05,-1.9515e-05,-3.621e+07,-58.157,0,1.8228e+07,-11.593,11612,12607,1,12607,1,0.00010439,6.8697e-10,0,0.00014507,1.6716e-05,3.6405e+07,218.4,0,5.4227e+07,17.437,12606,574.93,0,574.93,0,0.00011163,7.3373e-10,0,5.614e-05,2.0914e-05,4.1806e+07,233.14,0,2.084e+07,20.328,574.93,1
1988,0.69,12110,1,12110,1,7.7949e-06,1.3635e-10,0,9.819e-05,-1.4187e-06,9.1103,43.099,0,3.6766e+07,5.8098,12109,13104,1,13104,1,0.00019706,1.4178e-09,0,0.00019706,3.4043e-05,6.7552e+07,444.82,0,7.3809e+07,46.711,13103,12110,1,12110,1,7.7949e-06,2.2488e-11,0,9.8135e-05,-1.4144e-06,2.8024e+06,7.2115,0,3.6941e+07,5.2976,12109,11091,1,11091,1,-0.00018147,-7.525e-10,0,7.852e-07,-3.6885e-05,-7.3809e+07,-237.29,0,2.2078e+05,-34.101,11090,11613,1,11613,1,-9.034e-05,-1.3815e-10,0,4.9067e-05,-1.9803e-05,-3.6743e+07,-44.937,0,1.8496e+07,-3.82,11612,12607,1,12607,1,0.00010593,3.8698e-10,0,0.0001472,1.6962e-05,3.6941e+07,121.89,0,5.5025e+07,14.61,12606,574.93,0,574.93,0,0.00011327,4.452e-10,0,5.6966e-05,2.1222e-05,4.2421e+07,141.13,0,2.1146e+07,13.973,574.93,1
1988,0.7,12110,1,12110,1,7.9083e-06,-3.3358e-10,0,9.962e-05,-1.4394e-06,-25.422,-105.99,0,3.7301e+07,2.0842,12109,13104,1,13104,1,0.00019993,6.1372e-11,0,0.00019993,3.4539e-05,6.8535e+07,21.02,0,7.4884e+07,27.397,13103,12110,1,12110,1,7.9082e-06,-3.4953e-10,0,9.9563e-05,-1.435e-06,2.8431e+06,-111.53,0,3.7479e+07,1.3012,12109,11091,1,11091,1,-0.00018411,-6.8341e-10,0,7.9657e-07,-3.7422e-05,-7.4884e+07,-207.8,0,2.2397e+05,-50.697,11090,11613,1,11613,1,-9.1655e-05,-5.0496e-10,0,4.9781e-05,-2.0091e-05,-3.7278e+07,-159.73,0,1.8765e+07,-2.0109,11612,12607,1,12607,1,0.00010747,-1.7364e-10,0,0.00014934,1.7209e-05,3.7479e+07,-53.892,0,5.5826e+07,6.064,12606,574.93,0,574.93,0,0.00011492,2.0463e-10,0,5.7795e-05,2.1531e-05,4.3039e+07,64.954,0,2.1454e+07,9.0359,574.93,1
1988,0.71,12110,1,12110,1,8.0211e-06,-2.6281e-10,0,0.00010104,-1.4599e-06,1.2807,-83.547,0,3.7833e+07,-0.45343,12109,13104,1,13104,1,0.00020278,1.7487e-10,0,0.00020278,3.5031e-05,6.9512e+07,56.944,0,7.5951e+07,15.946,13103,12110,1,12110,1,8.021e-06,-2.3476e-10,0,0.00010098,-1.4554e-06,2.8837e+06,-74.107,0,3.8013e+07,-1.0609,12109,11091,1,11091,1,-0.00018673,-7.2497e-10,0,8.08e-07,-3.7955e-05,-7.5951e+07,-223.48,0,2.2719e+05,-16.434,11090,11613,1,11613,1,-9.2962e-05,-4.6435e-10,0,5.0491e-05,-2.0377e-05,-3.781e+07,-147.49,0,1.9033e+07,-5.0739,11612,12607,1,12607,1,0.000109,-4.7328e-11,0,0.00015147,1.7455e-05,3.8013e+07,-15.057,0,5.6622e+07,4.0443,12606,574.93,0,574.93,0,0.00011656,2.3245e-10,0,5.8619e-05,2.1838e-05,4.3653e+07,73.976,0,2.176e+07,6.3263,574.93,1
1988,0.72,12110,1,12110,1,8.1339e-06,1.0653e-10,0,0.00010246,-1.4805e-06,27.389,33.726,0,3.8365e+07,3.1017,12109,13104,1,13104,1,0.00020563,1.1667e-09,0,0.00020563,3.5523e-05,7.0489e+07,365.58,0,7.7018e+07,47.545,13103,12110,1,12110,1,8.1338e-06,1.1926e-11,0,0.0001024,-1.476e-06,2.9243e+06,3.8092,0,3.8547e+07,6.3162,12109,11091,1,11091,1,-0.00018936,-7.3865e-10,0,8.1939e-07,-3.8489e-05,-7.7018e+07,-227.71,0,2.3038e+05,-145.48,11090,11613,1,11613,1,-9.4268e-05,-1.4084e-10,0,5.1201e-05,-2.0664e-05,-3.8341e+07,-45.726,0,1.93e+07,-3.6966,11612,12607,1,12607,1,0.00011054,3.4809e-10,0,0.0001536,1.77e-05,3.8547e+07,110.77,0,5.7417e+07,14.985,12606,574.93,0,574.93,0,0.0001182,3.9806e-10,0,5.9443e-05,2.2144e-05,4.4266e+07,126.29,0,2.2066e+07,21.753,574.93,1
1988,0.73,12110,1,12110,1,8.247e-06,1.3686e-10,0,0.00010389,-1.5011e-06,18.53,43.307,0,3.8898e+07,-2.1844,12109,13104,1,13104,1,0.00020848,4.6074e-10,0,0.00020848,3.6017e-05,7.1469e+07,140.25,0,7.8089e+07,19.4,13103,12110,1,12110,1,8.247e-06,1.2403e-10,0,0.00010383,-1.4964e-06,2.965e+06,39.516,0,3.9083e+07,-2.1749,12109,11091,1,11091,1,-0.00019199,-2.0365e-10,0,8.3078e-07,-3.9024e-05,-7.8089e+07,-65.266,0,2.336e+05,-44.827,11090,11613,1,11613,1,-9.5579e-05,1.1404e-11,0,5.1913e-05,-2.0951e-05,-3.8874e+07,3.54,0,1.9569e+07,-6.1724,11612,12607,1,12607,1,0.00011207,2.5845e-10,0,0.00015574,1.7946e-05,3.9083e+07,82.223,0,5.8216e+07,2.2507,12606,574.93,0,574.93,0,0.00011984,1.4612e-10,0,6.027e-05,2.2453e-05,4.4882e+07,46.303,0,2.2373e+07,7.7511,574.93,1
1988,0.74,12110,1,12110,1,8.3599e-06,2.7781e-11,0,0.00010531,-1.5216e-06,27.117,8.8126,0,3.9431e+07,0.16334,12109,13104,1,13104,1,0.00021134,9.0116e-10,0,0.00021134,3.651e-05,7.2447e+07,288.96,0,7.9158e+07,32.04,13103,12110,1,12110,1,8.3599e-06,-2.0063e-11,0,0.00010525,-1.5169e-06,3.0055e+06,-6.3548,0,3.9618e+07,-0.54628,12109,11091,1,11091,1,-0.00019462,-6.8206e-10,0,8.4218e-07,-3.9558e-05,-7.9158e+07,-218.62,0,2.3681e+05,-31.191,11090,11613,1,11613,1,-9.6887e-05,-1.6062e-10,0,5.2624e-05,-2.1238e-05,-3.9406e+07,-50.827,0,1.9837e+07,-7.9274,11612,12607,1,12607,1,0.00011361,2.2082e-10,0,0.00015787,1.8192e-05,3.9618e+07,68.634,0,5.9013e+07,6.0469,12606,574.93,0,574.93,0,0.00012148,3.0801e-10,0,6.1095e-05,2.276e-05,4.5496e+07,98.006,0,2.2679e+07,10.436,574.93,1
1988,0.75,12110,1,12110,1,8.473e-06,2.3213e-10,0,0.00010673,-1.5422e-06,22.582,73.823,0,3.9964e+07,-1.3707,12109,13104,1,13104,1,0.0002142,7.9667e-10,0,0.0002142,3.7004e-05,7.3428e+07,255.29,0,8.023e+07,25.307,13103,12110,1,12110,1,8.473e-06,1.5348e-10,0,0.00010667,-1.5374e-06,3.0462e+06,48.678,0,4.0155e+07,-0.79554,12109,11091,1,11091,1,-0.00019725,-8.884e-11,0,8.5358e-07,-4.0094e-05,-8.023e+07,-30.427,0,2.4001e+05,-39.375,11090,11613,1,11613,1,-9.8199e-05,5.192e-11,0,5.3336e-05,-2.1525e-05,-3.994e+07,16.389,0,2.0105e+07,-4.8511,11612,12607,1,12607,1,0.00011514,3.8064e-10,0,0.00016001,1.8438e-05,4.0155e+07,119.2,0,5.9811e+07,3.3617,12606,574.93,0,574.93,0,0.00012313,2.3164e-10,0,6.1922e-05,2.3068e-05,4.6112e+07,73.871,0,2.2986e+07,9.3692,574.93,1
1988,0.76,12110,1,12110,1,8.5858e-06,2.3177e-10,0,0.00010815,-1.5627e-06,3.6226,73.747,0,4.0496e+07,-2.6917,12109,13104,1,13104,1,0.00021705,1.3032e-09,0,0.00021705,3.7497e-05,7.4406e+07,428.18,0,8.1298e+07,26.747,13103,12110,1,12110,1,8.5857e-06,1.1759e-10,0,0.00010809,-1.5579e-06,3.0868e+06,37.772,0,4.0689e+07,-2.631,12109,11091,1,11091,1,-0.00019988,-4.6046e-10,0,8.6489e-07,-4.0628e-05,-8.1298e+07,-147.51,0,2.4318e+05,-31.399,11090,11613,1,11613,1,-9.9507e-05,-2.7359e-11,0,5.4046e-05,-2.1812e-05,-4.0471e+07,-8.2793,0,2.0373e+07,-8.6545,11612,12607,1,12607,1,0.00011668,4.8098e-10,0,0.00016214,1.8684e-05,4.0689e+07,151.23,0,6.0608e+07,3.8168,12606,574.93,0,574.93,0,0.00012477,3.632e-10,0,6.2746e-05,2.3375e-05,4.6726e+07,115.77,0,2.3292e+07,8.2497,574.93,1
1988,0.77,12110,1,12110,1,8.699e-06,2.2698e-10,0,0.00010958,-1.5833e-06,16.23,72.005,0,4.103e+07,-3.5719,12109,13104,1,13104,1,0.00021991,5.1226e-10,0,0.00021991,3.7991e-05,7.5387e+07,157.7,0,8.237e+07,23.564,13103,12110,1,12110,1,8.6989e-06,2.4147e-10,0,0.00010952,-1.5784e-06,3.1274e+06,77.344,0,4.1226e+07,-2.7829,12109,11091,1,11091,1,-0.00020251,-1.0003e-10,0,8.763e-07,-4.1163e-05,-8.237e+07,-34.258,0,2.464e+05,-53.582,11090,11613,1,11613,1,-0.00010082,7.6364e-11,0,5.4758e-05,-2.2099e-05,-4.1005e+07,24.258,0,2.0641e+07,-8.0762,11612,12607,1,12607,1,0.00011822,3.7794e-10,0,0.00016428,1.893e-05,4.1226e+07,121.17,0,6.1407e+07,1.4602,12606,574.93,0,574.93,0,0.00012641,1.7065e-10,0,6.3573e-05,2.3683e-05,4.7342e+07,53.918,0,2.3599e+07,9.3095,574.93,1
1988,0.78,12110,1,12110,1,8.812e-06,2.7559e-10,0,0.000111,-1.6039e-06,-0.86959,87.518,0,4.1564e+07,-1.3054,12109,13104,1,13104,1,0.00022277,7.0986e-10,0,0.00022277,3.8485e-05,7.6367e+07,227.55,0,8.344e+07,9.1949,13103,12110,1,12110,1,8.812e-06,2.7438e-10,0,0.00011094,-1.5989e-06,3.1681e+06,87.557,0,4.1761e+07,-0.53166,12109,11091,1,11091,1,-0.00020515,-5.4049e-11,0,8.8768e-07,-4.1698e-05,-8.344e+07,-16.52,0,2.4959e+05,-24.819,11090,11613,1,11613,1,-0.00010213,1.391e-10,0,5.547e-05,-2.2387e-05,-4.1538e+07,44.479,0,2.091e+07,-3.5026,11612,12607,1,12607,1,0.00011975,3.9989e-10,0,0.00016641,1.9176e-05,4.1761e+07,127.19,0,6.2205e+07,1.647,12606,574.93,0,574.93,0,0.00012805,1.7726e-10,0,6.44e-05,2.3991e-05,4.7957e+07,56.149,0,2.3906e+07,5.0694,574.93,1
1988,0.79,12110,1,12110,1,8.9248e-06,2.9509e-10,0,0.00011242,-1.6244e-06,9.8232,93.627,0,4.2095e+07,3.5598,12109,13104,1,13104,1,0.00022562,1.0529e-09,0,0.00022562,3.8978e-05,7.7344e+07,320.62,0,8.4508e+07,37.98,13103,12110,1,12110,1,8.9247e-06,1.9238e-10,0,0.00011236,-1.6194e-06,3.2086e+06,61.56,0,4.2296e+07,3.1519,12109,11091,1,11091,1,-0.00020777,-1.5005e-10,0,8.9903e-07,-4.2232e-05,-8.4508e+07,-48.099,0,2.5279e+05,-30.473,11090,11613,1,11613,1,-0.00010344,2.0518e-11,0,5.618e-05,-2.2673e-05,-4.2069e+07,6.7671,0,2.1177e+07,-4.3319,11612,12607,1,12607,1,0.00012128,5.2997e-10,0,0.00016854,1.9421e-05,4.2296e+07,169.29,0,6.3001e+07,10.805,12606,574.93,0,574.93,0,0.00012969,3.2299e-10,0,6.5223e-05,2.4298e-05,4.8571e+07,102.21,0,2.4212e+07,11.541,574.93,1
1988,0.8,12110,1,12110,1,9.0376e-06,-9.3302e-11,0,0.00011385,-1.645e-06,-13.687,-29.637,0,4.2628e+07,2.5867,12109,13104,1,13104,1,0.00022847,9.6649e-10,0,0.00022847,3.947e-05,7.8322e+07,299.03,0,8.5577e+07,25.647,13103,12110,1,12110,1,9.0376e-06,-4.9628e-11,0,0.00011378,-1.6399e-06,3.2492e+06,-15.429,0,4.2831e+07,1.4505,12109,11091,1,11091,1,-0.0002104,-1.0467e-09,0,9.1035e-07,-4.2766e-05,-8.5577e+07,-323.7,0,2.5597e+05,-68.955,11090,11613,1,11613,1,-0.00010474,-4.0578e-10,0,5.6891e-05,-2.296e-05,-4.2601e+07,-125.38,0,2.1445e+07,-5.2877,11612,12607,1,12607,1,0.00012282,1.707e-10,0,0.00017067,1.9667e-05,4.2831e+07,55.287,0,6.3798e+07,10.937,12606,574.93,0,574.93,0,0.00013133,4.2645e-10,0,6.6048e-05,2.4605e-05,4.9185e+07,135.36,0,2.4518e+07,10.733,574.93,1
1988,0.81,12110,1,12110,1,9.1508e-06,1.139e-10,0,0.00011527,-1.6655e-06,-10.937,36.13,0,4.3161e+07,2.697,12109,13104,1,13104,1,0.00023133,7.0764e-10,0,0.00023133,3.9965e-05,7.9302e+07,226.85,0,8.6648e+07,33.915,13103,12110,1,12110,1,9.1507e-06,1.8068e-11,0,0.00011521,-1.6604e-06,3.2899e+06,5.6524,0,4.3367e+07,1.7867,12109,11091,1,11091,1,-0.00021303,-2.2371e-10,0,9.2175e-07,-4.3301e-05,-8.6648e+07,-71.662,0,2.5917e+05,-25.002,11090,11613,1,11613,1,-0.00010605,-5.5285e-11,0,5.7603e-05,-2.3247e-05,-4.3135e+07,-17.211,0,2.1713e+07,-2.7504,11612,12607,1,12607,1,0.00012436,2.5178e-10,0,0.00017281,1.9913e-05,4.3367e+07,80.208,0,6.4596e+07,9.012,12606,574.93,0,574.93,0,0.00013298,2.2476e-10,0,6.6875e-05,2.4913e-05,4.9801e+07,71.333,0,2.4825e+07,10.265,574.93,1
1988,0.82,12110,1,12110,1,9.2637e-06,2.1689e-10,0,0.00011669,-1.6861e-06,-14.707,68.943,0,4.3694e+07,-0.21848,12109,13104,1,13104,1,0.00023419,9.5264e-10,0,0.00023419,4.0458e-05,8.0281e+07,303.81,0,8.7718e+07,17.475,13103,12110,1,12110,1,9.2637e-06,1.5718e-10,0,0.00011663,-1.6809e-06,3.3305e+06,49.817,0,4.3902e+07,0.96879,12109,11091,1,11091,1,-0.00021566,-1.2701e-10,0,9.3316e-07,-4.3835e-05,-8.7718e+07,-40.733,0,2.6238e+05,-35.127,11090,11613,1,11613,1,-0.00010736,3.2368e-11,0,5.8314e-05,-2.3534e-05,-4.3667e+07,10.413,0,2.1982e+07,-3.7624,11612,12607,1,12607,1,0.00012589,3.6221e-10,0,0.00017494,2.0159e-05,4.3902e+07,114.99,0,6.5394e+07,5.0841,12606,574.93,0,574.93,0,0.00013462,2.2762e-10,0,6.7701e-05,2.5221e-05,5.0416e+07,72.59,0,2.5131e+07,7.3959,574.93,1
1988,0.83,12110,1,12110,1,9.3764e-06,-1.8996e-11,0,0.00011811,-1.7066e-06,-11.894,-6.2322,0,4.4226e+07,7.8588,12109,13104,1,13104,1,0.00023704,1.4548e-09,0,0.00023704,4.095e-05,8.1258e+07,439.18,0,8.8784e+07,53.379,13103,12110,1,12110,1,9.3764e-06,-4.2787e-11,0,0.00011805,-1.7013e-06,3.371e+06,-12.996,0,4.4436e+07,5.9069,12109,11091,1,11091,1,-0.00021829,-1.028e-09,0,9.4446e-07,-4.4369e-05,-8.8784e+07,-317.53,0,2.6556e+05,-20.63,11090,11613,1,11613,1,-0.00010867,-3.5078e-10,0,5.9023e-05,-2.3821e-05,-4.4198e+07,-110.99,0,2.2249e+07,-3.6057,11612,12607,1,12607,1,0.00012742,2.1754e-10,0,0.00017707,2.0404e-05,4.4436e+07,69.825,0,6.6189e+07,16.052,12606,574.93,0,574.93,0,0.00013626,4.9131e-10,0,6.8524e-05,2.5528e-05,5.1029e+07,155.8,0,2.5437e+07,15.475,574.93,1
1988,0.84,12110,1,12110,1,9.4897e-06,1.4165e-10,0,0.00011954,-1.7272e-06,7.254,44.853,0,4.476e+07,5.278,12109,13104,1,13104,1,0.0002399,1.1314e-09,0,0.0002399,4.1445e-05,8.2239e+07,349.12,0,8.9857e+07,53.555,13103,12110,1,12110,1,9.4896e-06,3.2326e-11,0,0.00011947,-1.7218e-06,3.4117e+06,10.631,0,4.4973e+07,1.0648,12109,11091,1,11091,1,-0.00022092,-4.0994e-10,0,9.5587e-07,-4.4904e-05,-8.9857e+07,-131.39,0,2.6877e+05,-33.926,11090,11613,1,11613,1,-0.00010998,-8.4195e-11,0,5.9736e-05,-2.4108e-05,-4.4732e+07,-26.11,0,2.2518e+07,-6.5019,11612,12607,1,12607,1,0.00012896,3.4076e-10,0,0.00017921,2.065e-05,4.4973e+07,107.09,0,6.6988e+07,10.985,12606,574.93,0,574.93,0,0.0001379,3.2168e-10,0,6.9352e-05,2.5836e-05,5.1645e+07,101.95,0,2.5744e+07,16.829,574.93,1
1988,0.85,12110,1,12110,1,9.6026e-06,7.4011e-11,0,0.00012096,-1.7478e-06,1.002,23.304,0,4.5292e+07,3.3847,12109,13104,1,13104,1,0.00024276,1.0362e-09,0,0.00024276,4.1938e-05,8.3218e+07,316.97,0,9.0926e+07,37.048,13103,12110,1,12110,1,9.6025e-06,5.9104e-13,0,0.00012089,-1.7423e-06,3.4523e+06,0.20286,0,4.5508e+07,2.9172,12109,11091,1,11091,1,-0.00022355,-5.5855e-10,0,9.6723e-07,-4.5439e-05,-9.0926e+07,-179.02,0,2.7196e+05,-33.333,11090,11613,1,11613,1,-0.00011129,-1.2898e-10,0,6.0447e-05,-2.4395e-05,-4.5264e+07,-41.973,0,2.2786e+07,-5.1409,11612,12607,1,12607,1,0.0001305,2.581e-10,0,0.00018134,2.0896e-05,4.5508e+07,82.278,0,6.7786e+07,9.375,12606,574.93,0,574.93,0,0.00013954,3.2651e-10,0,7.0177e-05,2.6143e-05,5.226e+07,103.31,0,2.605e+07,11.598,574.93,1
1988,0.86,12110,1,12110,1,9.7157e-06,3.2719e-11,0,0.00012239,-1.7684e-06,-37.293,10.372,0,4.5826e+07,-3.6098,12109,13104,1,13104,1,0.00024562,3.3827e-10,0,0.00024562,4.2432e-05,8.4198e+07,102.12,0,9.1997e+07,13.369,13103,12110,1,12110,1,9.7157e-06,1.3824e-11,0,0.00012232,-1.7629e-06,3.493e+06,4.2542,0,4.6044e+07,-2.4738,12109,11091,1,11091,1,-0.00022618,-2.6575e-10,0,9.7862e-07,-4.5974e-05,-9.1997e+07,-90.413,0,2.7516e+05,-41.828,11090,11613,1,11613,1,-0.0001126,-2.5455e-11,0,6.1159e-05,-2.4683e-05,-4.5798e+07,-8.1937,0,2.3054e+07,-7.2234,11612,12607,1,12607,1,0.00013203,9.5608e-11,0,0.00018348,2.1142e-05,4.6044e+07,30.629,0,6.8585e+07,1.5921,12606,574.93,0,574.93,0,0.00014119,1.0896e-10,0,7.1005e-05,2.6452e-05,5.2876e+07,34.611,0,2.6358e+07,7.1037,574.93,1
1988,0.87,12110,1,12110,1,9.8288e-06,2.9423e-11,0,0.00012381,-1.789e-06,-14.296,9.4115,0,4.636e+07,-0.97332,12109,13104,1,13104,1,0.00024847,1.3516e-10,0,0.00024847,4.2925e-05,8.5178e+07,43.365,0,9.3068e+07,11.503,13103,12110,1,12110,1,9.8288e-06,4.2223e-11,0,0.00012374,-1.7835e-06,3.5336e+06,13.383,0,4.658e+07,0.20573,12109,11091,1,11091,1,-0.00022882,-9.7805e-11,0,9.9003e-07,-4.6509e-05,-9.3068e+07,-29.525,0,2.7836e+05,-50.605,11090,11613,1,11613,1,-0.00011391,6.871e-12,0,6.1871e-05,-2.497e-05,-4.6331e+07,2.2045,0,2.3322e+07,-1.2551,11612,12607,1,12607,1,0.00013357,5.6705e-11,0,0.00018561,2.1389e-05,4.658e+07,18.268,0,6.9383e+07,1.5438,12606,574.93,0,574.93,0,0.00014283,3.8372e-11,0,7.1831e-05,2.6759e-05,5.3491e+07,12.02,0,2.6664e+07,7.1789,574.93,1
1988,0.88,12110,1,12110,1,9.9416e-06,1.8171e-10,0,0.00012523,-1.8095e-06,12.812,57.933,0,4.6891e+07,-0.38479,12109,13104,1,13104,1,0.00025133,1.4328e-09,0,0.00025133,4.3418e-05,8.6155e+07,450.62,0,9.4136e+07,45.624,13103,12110,1,12110,1,9.9416e-06,2.6079e-11,0,0.00012516,-1.8039e-06,3.5742e+06,8.2757,0,4.7114e+07,-0.18714,12109,11091,1,11091,1,-0.00023144,-5.6803e-10,0,1.0014e-06,-4.7043e-05,-9.4136e+07,-182.05,0,2.8159e+05,-51.893,11090,11613,1,11613,1,-0.00011522,-1.3534e-10,0,6.2581e-05,-2.5256e-05,-4.6862e+07,-43.081,0,2.359e+07,-8.4758,11612,12607,1,12607,1,0.0001351,4.594e-10,0,0.00018774,2.1634e-05,4.7114e+07,145.49,0,7.0179e+07,9.0797,12606,574.93,0,574.93,0,0.00014447,4.6131e-10,0,7.2654e-05,2.7066e-05,5.4104e+07,146.97,0,2.697e+07,16.432,574.93,1
1988,0.89,12110,1,12110,1,1.0055e-05,1.9475e-10,0,0.00012666,-1.8301e-06,5.3359,61.829,0,4.7424e+07,-3.6053,12109,13104,1,13104,1,0.00025418,6.7305e-10,0,0.00025418,4.3912e-05,8.7135e+07,215.63,0,9.5206e+07,31.637,13103,12110,1,12110,1,1.0055e-05,1.345e-10,0,0.00012658,-1.8244e-06,3.6148e+06,42.779,0,4.765e+07,-3.2147,12109,11091,1,11091,1,-0.00023407,-1.0616e-10,0,1.0129e-06,-4.7578e-05,-9.5206e+07,-36.359,0,2.8479e+05,-38.288,11090,11613,1,11613,1,-0.00011653,1.973e-11,0,6.3292e-05,-2.5543e-05,-4.7395e+07,6.0805,0,2.3858e+07,-9.1613,11612,12607,1,12607,1,0.00013664,3.5159e-10,0,0.00018988,2.188e-05,4.765e+07,111.44,0,7.0976e+07,1.3172,12606,574.93,0,574.93,0,0.00014611,2.0438e-10,0,7.3481e-05,2.7374e-05,5.472e+07,64.93,0,2.7277e+07,8.2633,574.93,1
1988,0.9,12110,1,12110,1,1.0167e-05,-5.5347e-11,0,0.00012808,-1.8506e-06,-12.633,-17.603,0,4.7957e+07,0.77162,12109,13104,1,13104,1,0.00025703,6.424e-10,0,0.00025703,4.4404e-05,8.8112e+07,198,0,9.6274e+07,20.788,13103,12110,1,12110,1,1.0167e-05,-3.7058e-11,0,0.000128,-1.8449e-06,3.6554e+06,-11.73,0,4.8185e+07,0.78763,12109,11091,1,11091,1,-0.0002367,-6.2571e-10,0,1.0242e-06,-4.8111e-05,-9.6274e+07,-200.49,0,2.8797e+05,-43.921,11090,11613,1,11613,1,-0.00011784,-2.0311e-10,0,6.4002e-05,-2.583e-05,-4.7927e+07,-64.555,0,2.4126e+07,-4.0783,11612,12607,1,12607,1,0.00013817,6.7572e-11,0,0.00019201,2.2125e-05,4.8185e+07,21.667,0,7.1773e+07,6.694,12606,574.93,0,574.93,0,0.00014775,2.2777e-10,0,7.4305e-05,2.7681e-05,5.5334e+07,72.452,0,2.7583e+07,7.866,574.93,1
1988,0.91,12110,1,12110,1,1.028e-05,-2.9589e-11,0,0.0001295,-1.8712e-06,13.446,-9.2836,0,4.849e+07,-0.83846,12109,13104,1,13104,1,0.00025989,7.7262e-10,0,0.00025989,4.4898e-05,8.9092e+07,247.72,0,9.7344e+07,22.416,13103,12110,1,12110,1,1.028e-05,-2.4801e-11,0,0.00012943,-1.8654e-06,3.696e+06,-8.0683,0,4.872e+07,-0.82973,12109,11091,1,11091,1,-0.00023933,-5.9691e-10,0,1.0356e-06,-4.8646e-05,-9.7344e+07,-191.31,0,2.912e+05,-19.585,11090,11613,1,11613,1,-0.00011915,-1.7365e-10,0,6.4714e-05,-2.6117e-05,-4.846e+07,-54.936,0,2.4394e+07,-5.9356,11612,12607,1,12607,1,0.00013971,7.6037e-11,0,0.00019414,2.2371e-05,4.872e+07,24.441,0,7.2571e+07,4.9112,12606,574.93,0,574.93,0,0.00014939,2.4146e-10,0,7.5131e-05,2.7989e-05,5.5949e+07,76.968,0,2.7889e+07,7.1574,574.93,1
1988,0.92,12110,1,12110,1,1.0394e-05,4.6124e-11,0,0.00013093,-1.8918e-06,18.349,14.619,0,4.9023e+07,-0.057498,12109,13104,1,13104,1,0.00026275,3.1816e-10,0,0.00026275,4.5392e-05,9.0072e+07,101.98,0,9.8415e+07,12.225,13103,12110,1,12110,1,1.0394e-05,7.5552e-12,0,0.00013085,-1.8859e-06,3.7367e+06,2.3473,0,4.9257e+07,-0.11353,12109,11091,1,11091,1,-0.00024196,-4.8035e-11,0,1.0471e-06,-4.9182e-05,-9.8415e+07,-16.448,0,2.9442e+05,-23.736,11090,11613,1,11613,1,-0.00012046,-1.4287e-11,0,6.5426e-05,-2.6405e-05,-4.8993e+07,-4.4721,0,2.4662e+07,-1.8252,11612,12607,1,12607,1,0.00014125,8.9068e-11,0,0.00019628,2.2617e-05,4.9257e+07,28.252,0,7.3369e+07,2.7781,12606,574.93,0,574.93,0,0.00015104,8.3082e-11,0,7.5958e-05,2.8297e-05,5.6564e+07,26.425,0,2.8196e+07,5.2665,574.93,1
1988,0.93,12110,1,12110,1,1.0506e-05,2.2179e-10,0,0.00013235,-1.9123e-06,-8.9614,70.356,0,4.9556e+07,0.80673,12109,13104,1,13104,1,0.00026561,6.7371e-10,0,0.00026561,4.5886e-05,9.1051e+07,205.15,0,9.9485e+07,25.876,13103,12110,1,12110,1,1.0506e-05,1.8688e-10,0,0.00013227,-1.9064e-06,3.7773e+06,60.228,0,4.9792e+07,1.8552,12109,11091,1,11091,1,-0.0002446,-8.9702e-11,0,1.0584e-06,-4.9716e-05,-9.9485e+07,-28.48,0,2.9759e+05,-34.914,11090,11613,1,11613,1,-0.00012177,7.5393e-11,0,6.6137e-05,-2.6691e-05,-4.9525e+07,24.253,0,2.493e+07,-2.5139,11612,12607,1,12607,1,0.00014278,3.5428e-10,0,0.00019841,2.2863e-05,4.9792e+07,112.59,0,7.4167e+07,5.1241,12606,574.93,0,574.93,0,0.00015268,1.904e-10,0,7.6783e-05,2.8604e-05,5.7179e+07,60.165,0,2.8503e+07,8.1166,574.93,1
1988,0.94,12110,1,12110,1,1.0619e-05,2.0808e-10,0,0.00013377,-1.9329e-06,-5.1201,66.146,0,5.0089e+07,0.42796,12109,13104,1,13104,1,0.00026846,1.1097e-09,0,0.00026846,4.6379e-05,9.203e+07,342.77,0,1.0055e+08,40.4,13103,12110,1,12110,1,1.0619e-05,7.5889e-11,0,0.0001337,-1.9269e-06,3.8179e+06,24.844,0,5.0327e+07,-0.37924,12109,11091,1,11091,1,-0.00024722,-2.2493e-10,0,1.0697e-06,-5.0251e-05,-1.0055e+08,-72.115,0,3.0077e+05,-55.543,11090,11613,1,11613,1,-0.00012308,-4.1759e-11,0,6.6848e-05,-2.6978e-05,-5.0058e+07,-13.108,0,2.5198e+07,-7.2207,11612,12607,1,12607,1,0.00014431,4.2338e-10,0,0.00020054,2.3109e-05,5.0327e+07,134.86,0,7.4964e+07,6.5932,12606,574.93,0,574.93,0,0.00015432,3.223e-10,0,7.7608e-05,2.8912e-05,5.7793e+07,102.55,0,2.8809e+07,13.312,574.93,1
1988,0.95,12110,1,12110,1,1.0732e-05,2.0018e-10,0,0.00013519,-1.9534e-06,9.9965,63.598,0,5.0622e+07,-1.2575,12109,13104,1,13104,1,0.00027132,7.5151e-10,0,0.00027132,4.6872e-05,9.3009e+07,240.92,0,1.0162e+08,34.198,13103,12110,1,12110,1,1.0732e-05,1.4182e-10,0,0.00013512,-1.9474e-06,3.8585e+06,45.07,0,5.0863e+07,-1.3299,12109,11091,1,11091,1,-0.00024985,-1.4711e-10,0,1.0811e-06,-5.0785e-05,-1.0162e+08,-47.158,0,3.04e+05,-66.044,11090,11613,1,11613,1,-0.00012439,1.54e-11,0,6.7559e-05,-2.7265e-05,-5.059e+07,4.9081,0,2.5466e+07,-6.5945,11612,12607,1,12607,1,0.00014585,3.6474e-10,0,0.00020268,2.3355e-05,5.0863e+07,115.75,0,7.5761e+07,4.2211,12606,574.93,0,574.93,0,0.00015596,2.1466e-10,0,7.8434e-05,2.9219e-05,5.8409e+07,68.12,0,2.9116e+07,13.211,574.93,1
1988,0.96,12110,1,12110,1,1.0845e-05,1.3251e-10,0,0.00013662,-1.974e-06,24.101,41.998,0,5.1154e+07,0.21171,12109,13104,1,13104,1,0.00027417,1.4845e-09,0,0.00027417,4.7365e-05,9.3988e+07,471.98,0,1.0269e+08,42.317,13103,12110,1,12110,1,1.0845e-05,2.2981e-11,0,0.00013654,-1.9679e-06,3.8991e+06,7.3679,0,5.1398e+07,-0.51707,12109,11091,1,11091,1,-0.00025248,-8.7038e-10,0,1.0925e-06,-5.132e-05,-1.0269e+08,-278.96,0,3.072e+05,-51.78,11090,11613,1,11613,1,-0.00012569,-2.1564e-10,0,6.827e-05,-2.7552e-05,-5.1122e+07,-69.376,0,2.5734e+07,-10.673,11612,12607,1,12607,1,0.00014738,4.4924e-10,0,0.00020481,2.3601e-05,5.1398e+07,146.24,0,7.6558e+07,12.667,12606,574.93,0,574.93,0,0.0001576,5.2599e-10,0,7.9259e-05,2.9527e-05,5.9023e+07,166.98,0,2.9422e+07,17.33,574.93,1
1988,0.97,12110,1,12110,1,1.0958e-05,2.6362e-10,0,0.00013804,-1.9946e-06,9.5991,83.746,0,5.1688e+07,1.3532,12109,13104,1,13104,1,0.00027703,1.0506e-09,0,0.00027703,4.7859e-05,9.4968e+07,336.86,0,1.0376e+08,44.381,13103,12110,1,12110,1,1.0958e-05,1.6451e-10,0,0.00013796,-1.9884e-06,3.9398e+06,52.507,0,5.1934e+07,0.24776,12109,11091,1,11091,1,-0.00025512,-1.4697e-10,0,1.1039e-06,-5.1855e-05,-1.0376e+08,-50.337,0,3.104e+05,-33.052,11090,11613,1,11613,1,-0.000127,9.4856e-12,0,6.8982e-05,-2.784e-05,-5.1656e+07,3.0709,0,2.6003e+07,-5.144,11612,12607,1,12607,1,0.00014892,4.7534e-10,0,0.00020694,2.3847e-05,5.1934e+07,151.38,0,7.7357e+07,6.4095,12606,574.93,0,574.93,0,0.00015924,2.9863e-10,0,8.0086e-05,2.9835e-05,5.9638e+07,94.888,0,2.9729e+07,12.839,574.93,1
1988,0.98,12110,1,12110,1,1.1071e-05,1.9844e-10,0,0.00013946,-2.0151e-06,-4.544,63.056,0,5.2219e+07,-2.2352,12109,13104,1,13104,1,0.00027988,1.4241e-09,0,0.00027988,4.8352e-05,9.5945e+07,447.42,0,1.0483e+08,32.084,13103,12110,1,12110,1,1.1071e-05,3.6183e-11,0,0.00013938,-2.0089e-06,3.9803e+06,11.532,0,5.2468e+07,-1.0876,12109,11091,1,11091,1,-0.00025774,-5.0993e-10,0,1.1152e-06,-5.2388e-05,-1.0483e+08,-163.43,0,3.1357e+05,-47.529,11090,11613,1,11613,1,-0.00012831,-8.0695e-11,0,6.9691e-05,-2.8126e-05,-5.2187e+07,-25.69,0,2.627e+07,-7.9022,11612,12607,1,12607,1,0.00015045,4.2519e-10,0,0.00020907,2.4092e-05,5.2468e+07,136.55,0,7.8153e+07,5.8197,12606,574.93,0,574.93,0,0.00016088,4.2131e-10,0,8.091e-05,3.0142e-05,6.0252e+07,133.82,0,3.0035e+07,13.423,574.93,1
1988,0.99,12110,1,12110,1,1.1185e-05,2.5762e-10,0,0.00014089,-2.0358e-06,20.104,81.884,0,5.2754e+07,-1.6288,12109,13104,1,13104,1,0.00028275,7.2332e-10,0,0.00028275,4.8847e-05,9.6928e+07,220.73,0,1.0591e+08,13.223,13103,12110,1,12110,1,1.1185e-05,2.1263e-10,0,0.00014081,-2.0295e-06,4.0211e+06,67.922,0,5.3005e+07,-1.2103,12109,11091,1,11091,1,-0.00026038,-1.0641e-10,0,1.1267e-06,-5.2925e-05,-1.0591e+08,-33.394,0,3.1682e+05,-41.065,11090,11613,1,11613,1,-0.00012963,9.766e-11,0,7.0405e-05,-2.8414e-05,-5.2722e+07,30.809,0,2.6539e+07,-4.7656,11612,12607,1,12607,1,0.000152,4.2617e-10,0,0.00021122,2.4339e-05,5.3005e+07,133.91,0,7.8953e+07,2.8411,12606,574.93,0,574.93,0,0.00016253,2.1153e-10,0,8.1739e-05,3.045e-05,6.0869e+07,67.417,0,3.0342e+07,7.4705,574.93,1
1988,1,12110,1,12110,1,1.1297e-05,1.5507e-10,0,0.00014231,-2.0563e-06,14.173,49.295,0,5.3286e+07,1.4813,12109,13104,1,13104,1,0.0002856,8.6944e-10,0,0.0002856,4.9339e-05,9.7905e+07,270.01,0,1.0697e+08,38.104,13103,12110,1,12110,1,1.1297e-05,4.1007e-11,0,0.00014223,-2.0499e-06,4.0616e+06,12.772,0,5.354e+07,1.1805,12109,11091,1,11091,1,-0.00026301,-3.5776e-10,0,1.1381e-06,-5.3458e-05,-1.0697e+08,-114.68,0,3.2001e+05,-47.558,11090,11613,1,11613,1,-0.00013093,-7.4352e-11,0,7.1115e-05,-2.87e-05,-5.3253e+07,-23.165,0,2.6807e+07,-5.9106,11612,12607,1,12607,1,0.00015353,3.7741e-10,0,0.00021334,2.4584e-05,5.354e+07,118.64,0,7.9749e+07,8.3713,12606,574.93,0,574.93,0,0.00016417,3.1363e-10,0,8.2563e-05,3.0757e-05,6.1483e+07,99.65,0,3.0648e+07,11.734,574.93,1
1988,1.01,12110,1,12110,1,1.141e-05,1.3986e-10,0,0.00014373,-2.0768e-06,17.005,44.324,0,5.3819e+07,1.1188,12109,13104,1,13104,1,0.00028846,8.1151e-10,0,0.00028846,4.9832e-05,9.8883e+07,256.37,0,1.0804e+08,22.274,13103,12110,1,12110,1,1.141e-05,6.6599e-11,0,0.00014365,-2.0704e-06,4.1022e+06,20.882,0,5.4075e+07,0.40619,12109,11091,1,11091,1,-0.00026563,-2.0913e-10,0,1.1494e-06,-5.3993e-05,-1.0804e+08,-67.05,0,3.232e+05,-30.958,11090,11613,1,11613,1,-0.00013224,-2.1247e-11,0,7.1826e-05,-2.8987e-05,-5.3785e+07,-6.9037,0,2.7075e+07,-4.2402,11612,12607,1,12607,1,0.00015506,2.814e-10,0,0.00021548,2.483e-05,5.4075e+07,90.296,0,8.0546e+07,6.1929,12606,574.93,0,574.93,0,0.00016581,2.1682e-10,0,8.3388e-05,3.1065e-05,6.2097e+07,68.667,0,3.0954e+07,8.1078,574.93,1
1988,1.02,12110,1,12110,1,1.1523e-05,1.2112e-10,0,0.00014516,-2.0973e-06,-14.421,38.199,0,5.4351e+07,3.2405,12109,13104,1,13104,1,0.00029131,1.164e-09,0,0.00029131,5.0326e-05,9.9862e+07,357.22,0,1.0911e+08,33.003,13103,12110,1,12110,1,1.1523e-05,2.0708e-11,0,0.00014507,-2.0909e-06,4.1428e+06,6.5088,0,5.461e+07,0.36602,12109,11091,1,11091,1,-0.00026826,-4.4093e-10,0,1.1607e-06,-5.4527e-05,-1.0911e+08,-141.3,0,3.2636e+05,-99.576,11090,11613,1,11613,1,-0.00013355,-1.3548e-10,0,7.2536e-05,-2.9274e-05,-5.4318e+07,-43.503,0,2.7343e+07,-5.5556,11612,12607,1,12607,1,0.0001566,3.343e-10,0,0.00021761,2.5076e-05,5.461e+07,106.4,0,8.1343e+07,12.523,12606,574.93,0,574.93,0,0.00016745,3.6809e-10,0,8.4213e-05,3.1372e-05,6.2712e+07,116.59,0,3.1261e+07,14.056,574.93,1
1988,1.03,12110,1,12110,1,1.1636e-05,7.8894e-11,0,0.00014658,-2.1179e-06,3.4301,25.2,0,5.4884e+07,1.0278,12109,13104,1,13104,1,0.00029417,1.2001e-09,0,0.00029417,5.0819e-05,1.0084e+08,384.74,0,1.1018e+08,36.321,13103,12110,1,12110,1,1.1636e-05,6.6476e-13,0,0.0001465,-2.1114e-06,4.1835e+06,0.21018,0,5.5146e+07,-0.1269,12109,11091,1,11091,1,-0.00027089,-5.7623e-10,0,1.1722e-06,-5.5062e-05,-1.1018e+08,-184.72,0,3.2959e+05,-36.672,11090,11613,1,11613,1,-0.00013486,-2.3489e-10,0,7.3248e-05,-2.9561e-05,-5.485e+07,-74.533,0,2.7611e+07,-7.0733,11612,12607,1,12607,1,0.00015813,3.3331e-10,0,0.00021974,2.5322e-05,5.5146e+07,105.19,0,8.2141e+07,9.9469,12606,574.93,0,574.93,0,0.00016909,4.1715e-10,0,8.5039e-05,3.168e-05,6.3327e+07,132.98,0,3.1567e+07,13.794,574.93,1
1988,1.04,12110,1,12110,1,1.1749e-05,2.2439e-10,0,0.000148,-2.1385e-06,9.6809,71.221,0,5.5417e+07,0.69057,12109,13104,1,13104,1,0.00029702,1.0631e-09,0,0.00029702,5.1313e-05,1.0182e+08,328.34,0,1.1125e+08,40.182,13103,12110,1,12110,1,1.1749e-05,1.0526e-10,0,0.00014792,-2.1319e-06,4.2241e+06,32.79,0,5.5681e+07,0.58539,12109,11091,1,11091,1,-0.00027352,-3.1336e-10,0,1.1835e-06,-5.5597e-05,-1.1125e+08,-100.45,0,3.3279e+05,-39.367,11090,11613,1,11613,1,-0.00013617,-3.1421e-11,0,7.3959e-05,-2.9848e-05,-5.5383e+07,-10.299,0,2.7879e+07,-7.1588,11612,12607,1,12607,1,0.00015967,4.66e-10,0,0.00022188,2.5567e-05,5.5681e+07,147.13,0,8.2939e+07,8.3767,12606,574.93,0,574.93,0,0.00017073,3.3947e-10,0,8.5865e-05,3.1987e-05,6.3942e+07,107.73,0,3.1874e+07,13.184,574.93,1
1988,1.05,12110,1,12110,1,1.1862e-05,-1.0739e-10,0,0.00014943,-2.1591e-06,33.794,-34.221,0,5.595e+07,2.1585,12109,13104,1,13104,1,0.00029988,1.3251e-09,0,0.00029988,5.1806e-05,1.028e+08,408.25,0,1.1232e+08,51.215,13103,12110,1,12110,1,1.1862e-05,-9.5246e-11,0,0.00014934,-2.1524e-06,4.2647e+06,-30.758,0,5.6216e+07,-0.73362,12109,11091,1,11091,1,-0.00027615,-1.1236e-09,0,1.195e-06,-5.6131e-05,-1.1232e+08,-360.12,0,3.3601e+05,-48.902,11090,11613,1,11613,1,-0.00013748,-5.5199e-10,0,7.467e-05,-3.0135e-05,-5.5915e+07,-174.8,0,2.8147e+07,-11.663,11612,12607,1,12607,1,0.0001612,1.9275e-10,0,0.00022401,2.5813e-05,5.6216e+07,61.258,0,8.3736e+07,13.668,12606,574.93,0,574.93,0,0.00017238,5.5585e-10,0,8.669e-05,3.2295e-05,6.4557e+07,176.54,0,3.218e+07,19.145,574.93,1
1988,1.06,12110,1,12110,1,1.1975e-05,8.7141e-11,0,0.00015085,-2.1796e-06,13.593,27.673,0,5.6482e+07,2.2134,12109,13104,1,13104,1,0.00030273,1.6416e-09,0,0.00030273,5.2299e-05,1.0378e+08,519.34,0,1.1339e+08,41.371,13103,12110,1,12110,1,1.1975e-05,-7.2344e-12,0,0.00015076,-2.1728e-06,4.3053e+06,-2.2965,0,5.6751e+07,0.56677,12109,11091,1,11091,1,-0.00027878,-9.0043e-10,0,1.2063e-06,-5.6665e-05,-1.1339e+08,-288.6,0,3.3917e+05,-49.34,11090,11613,1,11613,1,-0.00013879,-2.9592e-10,0,7.5381e-05,-3.0422e-05,-5.6447e+07,-90.112,0,2.8415e+07,-8.966,11612,12607,1,12607,1,0.00016274,4.3361e-10,0,0.00022614,2.6059e-05,5.6751e+07,133.68,0,8.4533e+07,14.901,12606,574.93,0,574.93,0,0.00017402,5.4317e-10,0,8.7515e-05,3.2602e-05,6.5171e+07,172.19,0,3.2486e+07,16.695,574.93,1
1988,1.07,12110,1,12110,1,1.2088e-05,1.8516e-10,0,0.00015227,-2.2002e-06,-2.2444,58.915,0,5.7016e+07,-0.86168,12109,13104,1,13104,1,0.00030559,5.7278e-10,0,0.00030559,5.2793e-05,1.0476e+08,172.91,0,1.1446e+08,25.449,13103,12110,1,12110,1,1.2088e-05,1.8239e-10,0,0.00015219,-2.1934e-06,4.3459e+06,58.539,0,5.7288e+07,-0.74356,12109,11091,1,11091,1,-0.00028142,-1.094e-10,0,1.2177e-06,-5.7201e-05,-1.1446e+08,-34.264,0,3.4239e+05,-46.19,11090,11613,1,11613,1,-0.0001401,5.1299e-11,0,7.6093e-05,-3.071e-05,-5.6981e+07,16.725,0,2.8683e+07,-4.8865,11612,12607,1,12607,1,0.00016427,3.1323e-10,0,0.00022828,2.6305e-05,5.7288e+07,99.636,0,8.5332e+07,3.241,12606,574.93,0,574.93,0,0.00017566,1.6328e-10,0,8.8342e-05,3.2911e-05,6.5787e+07,51.836,0,3.2794e+07,9.1055,574.93,1
1988,1.08,12110,1,12110,1,1.2201e-05,7.6186e-11,0,0.0001537,-2.2208e-06,24.795,24.159,0,5.7549e+07,0.91893,12109,13104,1,13104,1,0.00030845,8.0091e-10,0,0.00030845,5.3286e-05,1.0574e+08,250.36,0,1.1553e+08,34.631,13103,12110,1,12110,1,1.2201e-05,-9.079e-13,0,0.00015361,-2.2139e-06,4.3866e+06,-0.27209,0,5.7823e+07,-0.49132,12109,11091,1,11091,1,-0.00028405,-3.1269e-10,0,1.2292e-06,-5.7735e-05,-1.1553e+08,-100.22,0,3.4562e+05,-39.581,11090,11613,1,11613,1,-0.00014141,-1.081e-10,0,7.6804e-05,-3.0997e-05,-5.7514e+07,-34.435,0,2.8952e+07,-5.8903,11612,12607,1,12607,1,0.00016581,2.2667e-10,0,0.00023041,2.6551e-05,5.7823e+07,71.684,0,8.6129e+07,6.236,12606,574.93,0,574.93,0,0.0001773,2.5629e-10,0,8.9168e-05,3.3218e-05,6.6402e+07,81.488,0,3.31e+07,11.686,574.93,1
1988,1.09,12110,1,12110,1,1.2314e-05,3.0597e-10,0,0.00015512,-2.2413e-06,8.3991,97.259,0,5.8082e+07,-3.1241,12109,13104,1,13104,1,0.00031131,1.275e-09,0,0.00031131,5.378e-05,1.0672e+08,390.12,0,1.166e+08,20.682,13103,12110,1,12110,1,1.2314e-05,1.4999e-10,0,0.00015503,-2.2344e-06,4.4272e+06,47.842,0,5.8358e+07,-0.89636,12109,11091,1,11091,1,-0.00028668,-2.576e-10,0,1.2405e-06,-5.827e-05,-1.166e+08,-82.577,0,3.4879e+05,-52.973,11090,11613,1,11613,1,-0.00014272,-3.6434e-11,0,7.7515e-05,-3.1284e-05,-5.8046e+07,-11.703,0,2.9219e+07,-8.6942,11612,12607,1,12607,1,0.00016734,6.0318e-10,0,0.00023255,2.6797e-05,5.8358e+07,190.85,0,8.6926e+07,6.0543,12606,574.93,0,574.93,0,0.00017894,4.0826e-10,0,8.9993e-05,3.3525e-05,6.7016e+07,129.85,0,3.3406e+07,12.982,574.93,1
1988,1.1,12110,1,12110,1,1.2427e-05,1.2119e-10,0,0.00015654,-2.2619e-06,-6.2285,38.372,0,5.8615e+07,0.060512,12109,13104,1,13104,1,0.00031416,7.8205e-10,0,0.00031416,5.4273e-05,1.077e+08,250.76,0,1.1767e+08,25.03,13103,12110,1,12110,1,1.2427e-05,2.2987e-11,0,0.00015645,-2.2549e-06,4.4678e+06,7.4915,0,5.8894e+07,-0.78321,12109,11091,1,11091,1,-0.00028931,-1.8683e-10,0,1.2518e-06,-5.8804e-05,-1.1767e+08,-59.89,0,3.5198e+05,-39.65,11090,11613,1,11613,1,-0.00014403,-5.9676e-11,0,7.8227e-05,-3.1571e-05,-5.8579e+07,-18.334,0,2.9488e+07,-5.7878,11612,12607,1,12607,1,0.00016888,2.7408e-10,0,0.00023468,2.7043e-05,5.8894e+07,86.403,0,8.7724e+07,5.9712,12606,574.93,0,574.93,0,0.00018059,2.3535e-10,0,9.0819e-05,3.3833e-05,6.7631e+07,74.574,0,3.3713e+07,10.199,574.93,1
1988,1.11,12110,1,12110,1,1.254e-05,2.6281e-10,0,0.00015797,-2.2825e-06,5.2735,83.469,0,5.9148e+07,-0.11605,12109,13104,1,13104,1,0.00031702,6.4996e-10,0,0.00031702,5.4767e-05,1.0867e+08,197.46,0,1.1874e+08,24.897,13103,12110,1,12110,1,1.254e-05,2.8371e-10,0,0.00015788,-2.2754e-06,4.5084e+06,89.233,0,5.9429e+07,-0.21934,12109,11091,1,11091,1,-0.00029194,-9.5227e-11,0,1.2633e-06,-5.9339e-05,-1.1874e+08,-32.541,0,3.552e+05,-27.287,11090,11613,1,11613,1,-0.00014534,1.3237e-10,0,7.8938e-05,-3.1858e-05,-5.9111e+07,40.539,0,2.9756e+07,-3.3298,11612,12607,1,12607,1,0.00017042,3.9371e-10,0,0.00023681,2.7289e-05,5.9429e+07,126.24,0,8.8522e+07,2.0376,12606,574.93,0,574.93,0,0.00018223,1.7946e-10,0,9.1645e-05,3.4141e-05,6.8246e+07,56.795,0,3.402e+07,7.1943,574.93,1
1988,1.12,12110,1,12110,1,1.2653e-05,1.5621e-10,0,0.00015939,-2.303e-06,12.671,49.472,0,5.968e+07,-1.4635,12109,13104,1,13104,1,0.00031987,1.2336e-09,0,0.00031987,5.526e-05,1.0965e+08,385.97,0,1.1981e+08,26.857,13103,12110,1,12110,1,1.2653e-05,1.2728e-11,0,0.0001593,-2.2959e-06,4.549e+06,4.0302,0,5.9964e+07,-1.4457,12109,11091,1,11091,1,-0.00029456,-3.7457e-10,0,1.2746e-06,-5.9873e-05,-1.1981e+08,-120.06,0,3.5839e+05,-43.271,11090,11613,1,11613,1,-0.00014664,-1.0491e-10,0,7.9648e-05,-3.2144e-05,-5.9643e+07,-33.066,0,3.0024e+07,-6.8584,11612,12607,1,12607,1,0.00017195,3.6655e-10,0,0.00023895,2.7534e-05,5.9964e+07,118.72,0,8.9319e+07,6.0476,12606,574.93,0,574.93,0,0.00018387,3.6917e-10,0,9.247e-05,3.4448e-05,6.886e+07,117.08,0,3.4326e+07,11.533,574.93,1
1988,1.13,12110,1,12110,1,1.2766e-05,1.6927e-10,0,0.00016081,-2.3236e-06,14.714,53.693,0,6.0213e+07,0.99331,12109,13104,1,13104,1,0.00032273,8.6793e-10,0,0.00032273,5.5753e-05,1.1063e+08,267.07,0,1.2088e+08,29.78,13103,12110,1,12110,1,1.2766e-05,4.5429e-11,0,0.00016072,-2.3164e-06,4.5897e+06,14.427,0,6.05e+07,0.29032,12109,11091,1,11091,1,-0.0002972,-2.4469e-10,0,1.286e-06,-6.0408e-05,-1.2088e+08,-78.46,0,3.6161e+05,-49.01,11090,11613,1,11613,1,-0.00014795,-6.2677e-11,0,8.036e-05,-3.2432e-05,-6.0176e+07,-19.479,0,3.0292e+07,-5.2076,11612,12607,1,12607,1,0.00017349,3.7983e-10,0,0.00024108,2.778e-05,6.05e+07,120.93,0,9.0117e+07,9.159,12606,574.93,0,574.93,0,0.00018551,3.0127e-10,0,9.3296e-05,3.4756e-05,6.9476e+07,95.613,0,3.4632e+07,11.92,574.93,1
1988,1.14,12110,1,12110,1,1.2879e-05,1.6334e-10,0,0.00016223,-2.3441e-06,3.9501,51.839,0,6.0746e+07,-2.5465,12109,13104,1,13104,1,0.00032558,9.4411e-10,0,0.00032558,5.6247e-05,1.1161e+08,300.98,0,1.2195e+08,20.617,13103,12110,1,12110,1,1.2879e-05,5.707e-11,0,0.00016214,-2.3369e-06,4.6303e+06,17.802,0,6.1035e+07,-2.2164,12109,11091,1,11091,1,-0.00029983,-3.3216e-10,0,1.2974e-06,-6.0943e-05,-1.2195e+08,-106.48,0,3.648e+05,-37.237,11090,11613,1,11613,1,-0.00014926,-6.1977e-11,0,8.1071e-05,-3.2719e-05,-6.0709e+07,-19.411,0,3.056e+07,-8.7921,11612,12607,1,12607,1,0.00017502,3.8113e-10,0,0.00024321,2.8026e-05,6.1035e+07,119.5,0,9.0914e+07,4.4878,12606,574.93,0,574.93,0,0.00018715,3.0433e-10,0,9.4122e-05,3.5063e-05,7.0091e+07,96.81,0,3.4939e+07,9.1625,574.93,1
1988,1.15,12110,1,12110,1,1.2992e-05,1.7346e-11,0,0.00016366,-2.3647e-06,10.533,5.4288,0,6.1279e+07,-1.5276,12109,13104,1,13104,1,0.00032844,9.9059e-10,0,0.00032844,5.674e-05,1.1259e+08,309.87,0,1.2302e+08,23.342,13103,12110,1,12110,1,1.2992e-05,-1.8245e-11,0,0.00016356,-2.3574e-06,4.6709e+06,-5.8305,0,6.1571e+07,-1.1512,12109,11091,1,11091,1,-0.00030245,-5.396e-10,0,1.3088e-06,-6.1477e-05,-1.2302e+08,-172.95,0,3.68e+05,-51.038,11090,11613,1,11613,1,-0.00015057,-2.1914e-10,0,8.1782e-05,-3.3006e-05,-6.1241e+07,-68.569,0,3.0828e+07,-7.8249,11612,12607,1,12607,1,0.00017656,2.1068e-10,0,0.00024535,2.8272e-05,6.1571e+07,66.917,0,9.1711e+07,6.845,12606,574.93,0,574.93,0,0.00018879,3.256e-10,0,9.4947e-05,3.5371e-05,7.0705e+07,103.45,0,3.5245e+07,12.401,574.93,1
1988,1.16,12110,1,12110,1,1.3105e-05,1.6427e-10,0,0.00016508,-2.3853e-06,-0.74173,52.152,0,6.1812e+07,-0.55075,12109,13104,1,13104,1,0.0003313,5.2109e-10,0,0.0003313,5.7234e-05,1.1357e+08,159.31,0,1.2409e+08,16.071,13103,12110,1,12110,1,1.3105e-05,1.2393e-10,0,0.00016499,-2.3779e-06,4.7115e+06,38.61,0,6.2106e+07,-0.3822,12109,11091,1,11091,1,-0.00030509,-7.3065e-11,0,1.3201e-06,-6.2012e-05,-1.2409e+08,-25.024,0,3.712e+05,-33.028,11090,11613,1,11613,1,-0.00015188,1.3348e-11,0,8.2494e-05,-3.3293e-05,-6.1774e+07,4.1484,0,3.1096e+07,-3.9508,11612,12607,1,12607,1,0.00017809,3.0904e-10,0,0.00024748,2.8518e-05,6.2106e+07,98.571,0,9.251e+07,3.2103,12606,574.93,0,574.93,0,0.00019044,1.6465e-10,0,9.5773e-05,3.5679e-05,7.1321e+07,52.266,0,3.5552e+07,6.2116,574.93,1
1988,1.17,12110,1,12110,1,1.3218e-05,8.2946e-11,0,0.0001665,-2.4058e-06,8.1449,26.432,0,6.2345e+07,-0.055823,12109,13104,1,13104,1,0.00033415,7.6379e-10,0,0.00033415,5.7727e-05,1.1455e+08,244.88,0,1.2516e+08,23.455,13103,12110,1,12110,1,1.3218e-05,2.4125e-12,0,0.00016641,-2.3984e-06,4.7521e+06,0.8265,0,6.2642e+07,-0.28179,12109,11091,1,11091,1,-0.00030772,-3.3949e-10,0,1.3316e-06,-6.2546e-05,-1.2516e+08,-108.84,0,3.7441e+05,-34.058,11090,11613,1,11613,1,-0.00015319,-7.3197e-11,0,8.3205e-05,-3.358e-05,-6.2306e+07,-23.58,0,3.1364e+07,-4.3115,11612,12607,1,12607,1,0.00017963,2.1929e-10,0,0.00024961,2.8764e-05,6.2642e+07,69.134,0,9.3307e+07,4.461,12606,574.93,0,574.93,0,0.00019208,2.2979e-10,0,9.6599e-05,3.5986e-05,7.1935e+07,73.317,0,3.5858e+07,8.1573,574.93,1
1988,1.18,12110,1,12110,1,1.3331e-05,1.197e-11,0,0.00016793,-2.4264e-06,0.47115,3.785,0,6.2878e+07,-0.9545,12109,13104,1,13104,1,0.00033701,5.3255e-10,0,0.00033701,5.822e-05,1.1553e+08,167.76,0,1.2623e+08,23.253,13103,12110,1,12110,1,1.3331e-05,-1.4603e-11,0,0.00016783,-2.4189e-06,4.7927e+06,-4.6185,0,6.3177e+07,-0.57004,12109,11091,1,11091,1,-0.00031035,-3.3343e-10,0,1.3429e-06,-6.3081e-05,-1.2623e+08,-106.88,0,3.776e+05,-37.65,11090,11613,1,11613,1,-0.0001545,-1.4085e-10,0,8.3916e-05,-3.3867e-05,-6.2839e+07,-44.282,0,3.1632e+07,-5.826,11612,12607,1,12607,1,0.00018116,1.3269e-10,0,0.00025175,2.9009e-05,6.3177e+07,41.42,0,9.4104e+07,5.1671,12606,574.93,0,574.93,0,0.00019372,1.9704e-10,0,9.7425e-05,3.6294e-05,7.255e+07,62.554,0,3.6165e+07,9.6988,574.93,1
1988,1.19,12110,1,12110,1,1.3444e-05,8.3891e-11,0,0.00016935,-2.447e-06,5.6794,26.622,0,6.3411e+07,0.86046,12109,13104,1,13104,1,0.00033986,6.0078e-10,0,0.00033986,5.8714e-05,1.1651e+08,190.01,0,1.273e+08,33.041,13103,12110,1,12110,1,1.3444e-05,2.1129e-11,0,0.00016925,-2.4394e-06,4.8334e+06,6.3203,0,6.3713e+07,0.07508,12109,11091,1,11091,1,-0.00031298,-3.3897e-10,0,1.3543e-06,-6.3616e-05,-1.273e+08,-108.69,0,3.8079e+05,-39.247,11090,11613,1,11613,1,-0.00015581,-8.3369e-11,0,8.4627e-05,-3.4154e-05,-6.3372e+07,-25.828,0,3.19e+07,-5.7751,11612,12607,1,12607,1,0.0001827,2.6064e-10,0,0.00025388,2.9255e-05,6.3713e+07,81.938,0,9.4902e+07,7.6981,12606,574.93,0,574.93,0,0.00019536,2.2128e-10,0,9.825e-05,3.6601e-05,7.3165e+07,70.266,0,3.6471e+07,10.893,574.93,1
1988,1.2,12110,1,12110,1,1.3557e-05,1.3982e-10,0,0.00017077,-2.4675e-06,3.2501,44.309,0,6.3943e+07,2.2631,12109,13104,1,13104,1,0.00034272,8.2836e-10,0,0.00034272,5.9207e-05,1.1749e+08,261.68,0,1.2837e+08,32.479,13103,12110,1,12110,1,1.3557e-05,4.1181e-11,0,0.00017068,-2.4599e-06,4.874e+06,13.219,0,6.4248e+07,2.0385,12109,11091,1,11091,1,-0.00031561,-3.0717e-10,0,1.3657e-06,-6.415e-05,-1.2837e+08,-98.476,0,3.8399e+05,-38.744,11090,11613,1,11613,1,-0.00015712,-5.0104e-11,0,8.5338e-05,-3.4441e-05,-6.3904e+07,-15.212,0,3.2168e+07,-4.088,11612,12607,1,12607,1,0.00018423,3.2203e-10,0,0.00025601,2.9501e-05,6.4248e+07,100.55,0,9.5699e+07,7.9478,12606,574.93,0,574.93,0,0.000197,2.6241e-10,0,9.9075e-05,3.6909e-05,7.3779e+07,83.224,0,3.6778e+07,10.284,574.93,1
1988,1.21,12110,1,12110,1,1.367e-05,2.0276e-10,0,0.0001722,-2.4881e-06,15.362,64.313,0,6.4476e+07,-4.6041,12109,13104,1,13104,1,0.00034558,4.9829e-10,0,0.00034558,5.9701e-05,1.1846e+08,151.74,0,1.2944e+08,10.36,13103,12110,1,12110,1,1.367e-05,2.1474e-10,0,0.0001721,-2.4804e-06,4.9146e+06,68.92,0,6.4783e+07,-3.0987,12109,11091,1,11091,1,-0.00031824,-8.7422e-11,0,1.3771e-06,-6.4685e-05,-1.2944e+08,-29.941,0,3.8722e+05,-40.214,11090,11613,1,11613,1,-0.00015843,8.3996e-11,0,8.6049e-05,-3.4728e-05,-6.4436e+07,25.757,0,3.2436e+07,-7.2592,11612,12607,1,12607,1,0.00018577,3.2514e-10,0,0.00025815,2.9747e-05,6.4783e+07,103.15,0,9.6497e+07,0.32899,12606,574.93,0,574.93,0,0.00019865,1.5204e-10,0,9.9901e-05,3.7217e-05,7.4394e+07,48.056,0,3.7084e+07,7.5397,574.93,1
1988,1.22,12110,1,12110,1,1.3783e-05,2.1371e-10,0,0.00017362,-2.5086e-06,15.855,67.824,0,6.5009e+07,1.8076,12109,13104,1,13104,1,0.00034843,9.5347e-10,0,0.00034843,6.0194e-05,1.1944e+08,302.02,0,1.3051e+08,38.37,13103,12110,1,12110,1,1.3783e-05,9.9028e-11,0,0.00017352,-2.5009e-06,4.9552e+06,31.388,0,6.5318e+07,0.2166,12109,11091,1,11091,1,-0.00032087,-2.1051e-10,0,1.3885e-06,-6.5219e-05,-1.3051e+08,-67.507,0,3.9041e+05,-30.708,11090,11613,1,11613,1,-0.00015974,-3.7367e-11,0,8.676e-05,-3.5015e-05,-6.4969e+07,-11.453,0,3.2704e+07,-5.259,11612,12607,1,12607,1,0.0001873,4.281e-10,0,0.00026028,2.9993e-05,6.5318e+07,135.46,0,9.7294e+07,8.4475,12606,574.93,0,574.93,0,0.00020029,3.0481e-10,0,0.00010073,3.7524e-05,7.5009e+07,96.729,0,3.7391e+07,12.068,574.93,1
1988,1.23,12110,1,12110,1,1.3896e-05,3.1627e-10,0,0.00017504,-2.5292e-06,4.9859,100.43,0,6.5542e+07,-0.12492,12109,13104,1,13104,1,0.00035129,1.1694e-09,0,0.00035129,6.0687e-05,1.2042e+08,356.11,0,1.3158e+08,29.439,13103,12110,1,12110,1,1.3896e-05,2.3618e-10,0,0.00017494,-2.5214e-06,4.9958e+06,73.097,0,6.5854e+07,1.1252,12109,11091,1,11091,1,-0.0003235,-5.6682e-10,0,1.3998e-06,-6.5754e-05,-1.3158e+08,-181.67,0,3.9359e+05,-76.965,11090,11613,1,11613,1,-0.00016105,-2.9195e-11,0,8.7471e-05,-3.5302e-05,-6.5501e+07,-8.7974,0,3.2972e+07,-10.15,11612,12607,1,12607,1,0.00018884,7.036e-10,0,0.00026241,3.0238e-05,6.5854e+07,222.44,0,9.8091e+07,12.173,12606,574.93,0,574.93,0,0.00020193,4.3198e-10,0,0.00010155,3.7831e-05,7.5624e+07,137.27,0,3.7697e+07,16.702,574.93,1
1988,1.24,12110,1,12110,1,1.4009e-05,9.1337e-11,0,0.00017647,-2.5498e-06,3.2042,29.024,0,6.6075e+07,-0.51856,12109,13104,1,13104,1,0.00035414,8.399e-10,0,0.00035414,6.118e-05,1.214e+08,255.77,0,1.3265e+08,18.713,13103,12110,1,12110,1,1.4009e-05,2.6772e-11,0,0.00017636,-2.5419e-06,5.0364e+06,8.7464,0,6.6389e+07,-0.096269,12109,11091,1,11091,1,-0.00032613,-5.5113e-10,0,1.4112e-06,-6.6288e-05,-1.3265e+08,-176.66,0,3.968e+05,-34.942,11090,11613,1,11613,1,-0.00016236,-6.8492e-11,0,8.8182e-05,-3.5589e-05,-6.6034e+07,-21.882,0,3.3241e+07,-6.4052,11612,12607,1,12607,1,0.00019037,2.5654e-10,0,0.00026455,3.0484e-05,6.6389e+07,81.947,0,9.8889e+07,6.07,12606,574.93,0,574.93,0,0.00020357,2.7425e-10,0,0.00010238,3.8139e-05,7.6239e+07,86.919,0,3.8004e+07,9.1471,574.93,1
1988,1.25,12110,1,12110,1,1.4122e-05,1.7765e-10,0,0.00017789,-2.5703e-06,3.2447,56.337,0,6.6607e+07,6.0277,12109,13104,1,13104,1,0.000357,1.5977e-09,0,0.000357,6.1674e-05,1.2238e+08,499.77,0,1.3372e+08,67.285,13103,12110,1,12110,1,1.4122e-05,2.4831e-11,0,0.00017779,-2.5623e-06,5.077e+06,8.1137,0,6.6924e+07,3.1091,12109,11091,1,11091,1,-0.00032875,-7.1267e-10,0,1.4225e-06,-6.6822e-05,-1.3372e+08,-228.42,0,3.9998e+05,-49.63,11090,11613,1,11613,1,-0.00016366,-1.4887e-10,0,8.8893e-05,-3.5875e-05,-6.6566e+07,-47.772,0,3.3508e+07,-7.3781,11612,12607,1,12607,1,0.00019191,4.6337e-10,0,0.00026668,3.073e-05,6.6924e+07,149.25,0,9.9686e+07,15.517,12606,574.93,0,574.93,0,0.00020521,5.0048e-10,0,0.0001032,3.8446e-05,7.6853e+07,158.91,0,3.831e+07,19.11,574.93,1
1988,1.26,12110,1,12110,1,1.4235e-05,6.8868e-12,0,0.00017931,-2.5909e-06,8.2773,2.1269,0,6.7141e+07,0.49962,12109,13104,1,13104,1,0.00035986,1.5385e-10,0,0.00035986,6.2167e-05,1.2336e+08,46.443,0,1.3479e+08,19.584,13103,12110,1,12110,1,1.4235e-05,-2.7131e-12,0,0.00017921,-2.5829e-06,5.1177e+06,-0.91445,0,6.746e+07,0.62759,12109,11091,1,11091,1,-0.00033139,-1.7336e-10,0,1.434e-06,-6.7357e-05,-1.3479e+08,-55.604,0,4.0321e+05,-35.66,11090,11613,1,11613,1,-0.00016498,-3.504e-11,0,8.9605e-05,-3.6163e-05,-6.7099e+07,-10.958,0,3.3777e+07,-2.329,11612,12607,1,12607,1,0.00019345,4.7415e-11,0,0.00026882,3.0976e-05,6.746e+07,14.777,0,1.0048e+08,3.7749,12606,574.93,0,574.93,0,0.00020685,6.0597e-11,0,0.00010403,3.8755e-05,7.7469e+07,19.259,0,3.8617e+07,6.9365,574.93,1
1988,1.27,12110,1,12110,1,1.4348e-05,1.4957e-10,0,0.00018074,-2.6115e-06,12.647,47.427,0,6.7674e+07,-2.2282,12109,13104,1,13104,1,0.00036271,1.0264e-09,0,0.00036271,6.2661e-05,1.2434e+08,327.05,0,1.3586e+08,18.494,13103,12110,1,12110,1,1.4348e-05,2.8053e-11,0,0.00018063,-2.6034e-06,5.1583e+06,8.713,0,6.7996e+07,-1.1327,12109,11091,1,11091,1,-0.00033402,-2.6087e-10,0,1.4454e-06,-6.7892e-05,-1.3586e+08,-83.616,0,4.0641e+05,-36.057,11090,11613,1,11613,1,-0.00016628,-7.9584e-11,0,9.0316e-05,-3.645e-05,-6.7632e+07,-25.175,0,3.4045e+07,-7.421,11612,12607,1,12607,1,0.00019498,3.3202e-10,0,0.00027095,3.1222e-05,6.7996e+07,105.95,0,1.0128e+08,5.0598,12606,574.93,0,574.93,0,0.0002085,3.105e-10,0,0.00010485,3.9062e-05,7.8083e+07,98.536,0,3.8923e+07,10.649,574.93,1
1988,1.28,12110,1,12110,1,1.4461e-05,2.3265e-10,0,0.00018216,-2.632e-06,5.5696,73.867,0,6.8206e+07,2.5571,12109,13104,1,13104,1,0.00036557,8.1869e-10,0,0.00036557,6.3154e-05,1.2532e+08,255.56,0,1.3693e+08,36.539,13103,12110,1,12110,1,1.4461e-05,1.6704e-10,0,0.00018205,-2.6239e-06,5.1989e+06,53.012,0,6.8531e+07,0.61334,12109,11091,1,11091,1,-0.00033665,-1.3412e-10,0,1.4567e-06,-6.8427e-05,-1.3693e+08,-43.958,0,4.096e+05,-50.52,11090,11613,1,11613,1,-0.00016759,1.7631e-11,0,9.1027e-05,-3.6737e-05,-6.8164e+07,5.6113,0,3.4313e+07,-5.0344,11612,12607,1,12607,1,0.00019652,4.219e-10,0,0.00027308,3.1468e-05,6.8531e+07,131.51,0,1.0208e+08,7.8054,12606,574.93,0,574.93,0,0.00021014,2.5136e-10,0,0.00010568,3.9369e-05,7.8698e+07,79.914,0,3.923e+07,12.152,574.93,1
1988,1.29,12110,1,12110,1,1.4574e-05,2.2561e-10,0,0.00018358,-2.6526e-06,4.3232,71.613,0,6.874e+07,-1.8004,12109,13104,1,13104,1,0.00036843,6.6204e-10,0,0.00036843,6.3648e-05,1.263e+08,199.86,0,1.38e+08,21.313,13103,12110,1,12110,1,1.4574e-05,2.1353e-10,0,0.00018348,-2.6444e-06,5.2395e+06,68.364,0,6.9067e+07,-0.82436,12109,11091,1,11091,1,-0.00033928,-1.1101e-10,0,1.4681e-06,-6.8962e-05,-1.38e+08,-36.468,0,4.128e+05,-38.261,11090,11613,1,11613,1,-0.0001689,7.6221e-11,0,9.1739e-05,-3.7024e-05,-6.8697e+07,24.063,0,3.4581e+07,-5.8966,11612,12607,1,12607,1,0.00019805,3.6448e-10,0,0.00027522,3.1714e-05,6.9067e+07,116.59,0,1.0288e+08,3.4425,12606,574.93,0,574.93,0,0.00021178,1.8552e-10,0,0.00010651,3.9677e-05,7.9314e+07,58.708,0,3.9536e+07,8.1909,574.93,1
1988,1.3,12110,1,12110,1,1.4686e-05,2.7078e-11,0,0.000185,-2.6731e-06,-2.509,8.5146,0,6.9272e+07,-3.2332,12109,13104,1,13104,1,0.00037128,6.0637e-10,0,0.00037128,6.414e-05,1.2727e+08,186.47,0,1.3906e+08,11.537,13103,12110,1,12110,1,1.4686e-05,8.0733e-12,0,0.0001849,-2.6649e-06,5.2801e+06,2.6035,0,6.9601e+07,-1.095,12109,11091,1,11091,1,-0.0003419,-5.0226e-10,0,1.4795e-06,-6.9495e-05,-1.3906e+08,-160.99,0,4.1599e+05,-47.357,11090,11613,1,11613,1,-0.00017021,-9.3151e-11,0,9.2449e-05,-3.7311e-05,-6.9229e+07,-29.518,0,3.4849e+07,-6.5391,11612,12607,1,12607,1,0.00019958,1.7035e-10,0,0.00027735,3.1959e-05,6.9601e+07,53.846,0,1.0367e+08,3.3608,12606,574.93,0,574.93,0,0.00021342,2.066e-10,0,0.00010733,3.9984e-05,7.9927e+07,65.58,0,3.9842e+07,9.5852,574.93,1
1988,1.31,12110,1,12110,1,1.48e-05,1.3612e-10,0,0.00018643,-2.6937e-06,2.2589,43.08,0,6.9805e+07,-0.78934,12109,13104,1,13104,1,0.00037414,6.3204e-10,0,0.00037414,6.4635e-05,1.2826e+08,197.75,0,1.4014e+08,23.355,13103,12110,1,12110,1,1.48e-05,6.856e-11,0,0.00018632,-2.6854e-06,5.3207e+06,21.759,0,7.0137e+07,0.31103,12109,11091,1,11091,1,-0.00034454,-1.9878e-10,0,1.4908e-06,-7.0031e-05,-1.4014e+08,-63.747,0,4.1919e+05,-32.504,11090,11613,1,11613,1,-0.00017152,-3.5388e-11,0,9.3161e-05,-3.7598e-05,-6.9762e+07,-10.771,0,3.5117e+07,-4.0131,11612,12607,1,12607,1,0.00020112,2.7933e-10,0,0.00027948,3.2205e-05,7.0137e+07,88.462,0,1.0447e+08,4.4391,12606,574.93,0,574.93,0,0.00021506,2.0852e-10,0,0.00010816,4.0292e-05,8.0543e+07,66.007,0,4.0149e+07,8.0767,574.93,1
1988,1.32,12110,1,12110,1,1.4912e-05,2.3581e-11,0,0.00018785,-2.7143e-06,-8.6386,7.5535,0,7.0338e+07,0.49446,12109,13104,1,13104,1,0.00037699,4.9686e-10,0,0.00037699,6.5127e-05,1.2923e+08,158.83,0,1.412e+08,18.836,13103,12110,1,12110,1,1.4912e-05,3.2822e-13,0,0.00018774,-2.7059e-06,5.3613e+06,0.11275,0,7.0672e+07,0.70021,12109,11091,1,11091,1,-0.00034716,-3.2615e-10,0,1.5022e-06,-7.0565e-05,-1.412e+08,-104.56,0,4.2239e+05,-27.315,11090,11613,1,11613,1,-0.00017283,-6.0122e-11,0,9.3872e-05,-3.7885e-05,-7.0294e+07,-18.982,0,3.5385e+07,-2.6683,11612,12607,1,12607,1,0.00020266,9.6262e-11,0,0.00028162,3.2451e-05,7.0672e+07,30.586,0,1.0527e+08,3.6107,12606,574.93,0,574.93,0,0.0002167,1.4772e-10,0,0.00010898,4.06e-05,8.1157e+07,47.055,0,4.0456e+07,6.2196,574.93,1
1988,1.33,12110,1,12110,1,1.5025e-05,3.1559e-10,0,0.00018927,-2.7348e-06,-0.96141,100.28,0,7.0871e+07,1.0946,12109,13104,1,13104,1,0.00037985,7.6252e-10,0,0.00037985,6.5621e-05,1.3021e+08,232.19,0,1.4227e+08,26.913,13103,12110,1,12110,1,1.5025e-05,3.2643e-10,0,0.00018917,-2.7263e-06,5.4019e+06,104.63,0,7.1208e+07,-0.1728,12109,11091,1,11091,1,-0.0003498,-1.0888e-10,0,1.5136e-06,-7.11e-05,-1.4227e+08,-37.291,0,4.2559e+05,-33.269,11090,11613,1,11613,1,-0.00017414,9.832e-11,0,9.4583e-05,-3.8172e-05,-7.0827e+07,31.074,0,3.5653e+07,-4.8628,11612,12607,1,12607,1,0.00020419,5.2388e-10,0,0.00028375,3.2697e-05,7.1208e+07,167.43,0,1.0607e+08,6.8221,12606,574.93,0,574.93,0,0.00021835,2.3753e-10,0,0.00010981,4.0907e-05,8.1772e+07,75.453,0,4.0762e+07,9.287,574.93,1
1988,1.34,12110,1,12110,1,1.5138e-05,2.2411e-10,0,0.0001907,-2.7554e-06,7.4003,71.219,0,7.1403e+07,-3.087,12109,13104,1,13104,1,0.0003827,1.1154e-09,0,0.0003827,6.6114e-05,1.3119e+08,346.05,0,1.4334e+08,29.442,13103,12110,1,12110,1,1.5138e-05,9.0485e-11,0,0.00019059,-2.7469e-06,5.4425e+06,28.476,0,7.1743e+07,-1.5764,12109,11091,1,11091,1,-0.00035243,-3.276e-10,0,1.525e-06,-7.1634e-05,-1.4334e+08,-105.02,0,4.288e+05,-46.198,11090,11613,1,11613,1,-0.00017545,-3.2724e-11,0,9.5294e-05,-3.8459e-05,-7.1359e+07,-10.444,0,3.5921e+07,-7.7288,11612,12607,1,12607,1,0.00020573,4.5465e-10,0,0.00028588,3.2943e-05,7.1743e+07,144.17,0,1.0686e+08,5.556,12606,574.93,0,574.93,0,0.00021999,3.4865e-10,0,0.00011063,4.1215e-05,8.2387e+07,110.92,0,4.1068e+07,12.18,574.93,1
1988,1.35,12110,1,12110,1,1.5251e-05,2.6362e-10,0,0.00019212,-2.7759e-06,2.61,83.598,0,7.1936e+07,-1.4552,12109,13104,1,13104,1,0.00038556,1.3322e-09,0,0.00038556,6.6608e-05,1.3217e+08,424.39,0,1.4441e+08,21.944,13103,12110,1,12110,1,1.5251e-05,1.1046e-10,0,0.00019201,-2.7674e-06,5.4832e+06,34.692,0,7.2279e+07,-0.49119,12109,11091,1,11091,1,-0.00035506,-4.1472e-10,0,1.5363e-06,-7.2169e-05,-1.4441e+08,-132.94,0,4.3198e+05,-48.777,11090,11613,1,11613,1,-0.00017676,-4.9544e-11,0,9.6005e-05,-3.8746e-05,-7.1892e+07,-15.427,0,3.6189e+07,-8.1586,11612,12607,1,12607,1,0.00020726,5.5058e-10,0,0.00028802,3.3189e-05,7.2279e+07,171.45,0,1.0766e+08,8.4731,12606,574.93,0,574.93,0,0.00022163,4.23e-10,0,0.00011146,4.1522e-05,8.3002e+07,134.16,0,4.1375e+07,12.455,574.93,1
1988,1.36,12110,1,12110,1,1.5364e-05,1.5461e-10,0,0.00019354,-2.7965e-06,-4.4812,49.115,0,7.2469e+07,-0.79451,12109,13104,1,13104,1,0.00038842,7.6586e-10,0,0.00038842,6.7101e-05,1.3315e+08,250.34,0,1.4548e+08,23.454,13103,12110,1,12110,1,1.5364e-05,1.0097e-10,0,0.00019343,-2.7879e-06,5.5238e+06,32.379,0,7.2814e+07,0.22573,12109,11091,1,11091,1,-0.00035769,-3.9984e-10,0,1.5477e-06,-7.2703e-05,-1.4548e+08,-128.17,0,4.3519e+05,-47.288,11090,11613,1,11613,1,-0.00017807,-3.5939e-11,0,9.6716e-05,-3.9033e-05,-7.2424e+07,-11.185,0,3.6457e+07,-7.3712,11612,12607,1,12607,1,0.0002088,3.5816e-10,0,0.00029015,3.3434e-05,7.2814e+07,111.83,0,1.0846e+08,6.3095,12606,574.93,0,574.93,0,0.00022327,2.6117e-10,0,0.00011229,4.183e-05,8.3617e+07,83.196,0,4.1681e+07,10.723,574.93,1
1988,1.37,12110,1,12110,1,1.5477e-05,1.2253e-10,0,0.00019497,-2.8171e-06,6.6981,38.996,0,7.3002e+07,-4.2053,12109,13104,1,13104,1,0.00039127,4.2789e-10,0,0.00039127,6.7595e-05,1.3413e+08,129.17,0,1.4655e+08,12.228,13103,12110,1,12110,1,1.5477e-05,8.7174e-11,0,0.00019486,-2.8084e-06,5.5645e+06,27.564,0,7.335e+07,-3.113,12109,11091,1,11091,1,-0.00036032,-9.1574e-11,0,1.5592e-06,-7.3238e-05,-1.4655e+08,-30.737,0,4.3841e+05,-36.328,11090,11613,1,11613,1,-0.00017938,1.183e-11,0,9.7428e-05,-3.932e-05,-7.2957e+07,3.8333,0,3.6726e+07,-7.9506,11612,12607,1,12607,1,0.00021033,2.3851e-10,0,0.00029228,3.368e-05,7.335e+07,75.907,0,1.0926e+08,0.27519,12606,574.93,0,574.93,0,0.00022491,1.3221e-10,0,0.00011311,4.2138e-05,8.4232e+07,42.179,0,4.1988e+07,6.7312,574.93,1
1988,1.38,12110,1,12110,1,1.559e-05,8.7629e-11,0,0.00019639,-2.8376e-06,-1.9512,27.863,0,7.3535e+07,-1.3889,12109,13104,1,13104,1,0.00039413,9.2107e-10,0,0.00039413,6.8088e-05,1.3511e+08,291.4,0,1.4762e+08,22.134,13103,12110,1,12110,1,1.559e-05,6.1217e-12,0,0.00019628,-2.8289e-06,5.605e+06,1.8273,0,7.3885e+07,-0.7681,12109,11091,1,11091,1,-0.00036295,-4.4781e-10,0,1.5705e-06,-7.3772e-05,-1.4762e+08,-143.56,0,4.416e+05,-34.79,11090,11613,1,11613,1,-0.00018069,-1.0552e-10,0,9.8138e-05,-3.9607e-05,-7.3489e+07,-33.989,0,3.6993e+07,-6.2107,11612,12607,1,12607,1,0.00021187,2.631e-10,0,0.00029442,3.3926e-05,7.3885e+07,83.352,0,1.1005e+08,5.691,12606,574.93,0,574.93,0,0.00022655,2.9702e-10,0,0.00011394,4.2445e-05,8.4846e+07,94.542,0,4.2294e+07,9.3569,574.93,1
1988,1.39,12110,1,12110,1,1.57e-05,1.7657e-10,0,0.00019777,-2.8576e-06,-91.714,55.702,0,7.4053e+07,-3.9546,12109,13104,1,13104,1,0.00039691,7.2696e-09,0,0.00039691,6.8569e-05,1.3606e+08,2330.4,0,1.4867e+08,2212.3,13103,12110,1,12110,1,1.57e-05,3.1304e-10,0,0.00019766,-2.8485e-06,5.6445e+06,97.826,0,7.4406e+07,0.84438,12109,11091,1,11091,1,-0.00036551,-7.2583e-09,0,1.581e-06,-7.4293e-05,-1.4867e+08,-2325.4,0,4.4456e+05,-563.42,11090,11613,1,11613,1,-0.00018196,-1.2341e-09,0,9.8831e-05,-3.9887e-05,-7.4008e+07,-406.41,0,3.7254e+07,-99.296,11612,12607,1,12607,1,0.00021336,1.6336e-09,0,0.00029649,3.4166e-05,7.4406e+07,519.54,0,1.1083e+08,74.089,12606,574.93,0,574.93,0,0.00022815,2.4677e-09,0,0.00011474,4.2744e-05,8.5444e+07,785.36,0,4.2592e+07,240.14,574.93,1
1988,1.4,12110,1,12110,1,1.5816e-05,-7.0743e-11,0,0.00019923,-2.8787e-06,7.7392,-22.423,0,7.46e+07,-0.72082,12109,13104,1,13104,1,0.00039983,2.5319e-10,0,0.00039983,6.9074e-05,1.3706e+08,83.037,0,1.4976e+08,14.732,13103,12110,1,12110,1,1.5816e-05,-2.4093e-11,0,0.00019912,-2.8698e-06,5.6862e+06,-7.7731,0,7.4955e+07,-0.2251,12109,11091,1,11091,1,-0.0003682,-6.2018e-10,0,1.5933e-06,-7.4841e-05,-1.4976e+08,-195.74,0,4.48e+05,-29.751,11090,11613,1,11613,1,-0.0001833,-1.5111e-10,0,9.956e-05,-4.018e-05,-7.4554e+07,-47.796,0,3.7529e+07,-3.3002,11612,12607,1,12607,1,0.00021494,2.8471e-11,0,0.00029868,3.4418e-05,7.4955e+07,9.067,0,1.1165e+08,2.8503,12606,574.93,0,574.93,0,0.00022984,1.6149e-10,0,0.00011559,4.306e-05,8.6075e+07,51.262,0,4.2907e+07,6.3889,574.93,1
1988,1.41,12110,1,12110,1,1.5929e-05,2.7329e-10,0,0.00020066,-2.8993e-06,-2.3844,86.447,0,7.5133e+07,2.6732,12109,13104,1,13104,1,0.0004027,1.2533e-09,0,0.0004027,6.9568e-05,1.3805e+08,395.51,0,1.5083e+08,34.222,13103,12110,1,12110,1,1.5929e-05,1.4083e-10,0,0.00020054,-2.8904e-06,5.7269e+06,45.921,0,7.5491e+07,2.5213,12109,11091,1,11091,1,-0.00037084,-3.5179e-10,0,1.6046e-06,-7.5376e-05,-1.5083e+08,-112.78,0,4.5118e+05,-52.503,11090,11613,1,11613,1,-0.00018461,-2.3888e-11,0,0.00010027,-4.0468e-05,-7.5087e+07,-7.3741,0,3.7798e+07,-5.3576,11612,12607,1,12607,1,0.00021647,5.2913e-10,0,0.00030082,3.4664e-05,7.5491e+07,169.34,0,1.1245e+08,11.217,12606,574.93,0,574.93,0,0.00023148,3.8646e-10,0,0.00011641,4.3368e-05,8.6691e+07,122.17,0,4.3214e+07,12.653,574.93,1
1988,1.42,12110,1,12110,1,1.6042e-05,2.3289e-10,0,0.00020208,-2.9199e-06,4.1077,73.802,0,7.5666e+07,-0.23963,12109,13104,1,13104,1,0.00040555,1.1147e-09,0,0.00040555,7.0062e-05,1.3902e+08,352.46,0,1.519e+08,20.059,13103,12110,1,12110,1,1.6042e-05,1.1737e-10,0,0.00020197,-2.9109e-06,5.7675e+06,36.389,0,7.6027e+07,0.80882,12109,11091,1,11091,1,-0.00037347,-2.6866e-10,0,1.6161e-06,-7.5911e-05,-1.519e+08,-86.147,0,4.544e+05,-41.946,11090,11613,1,11613,1,-0.00018592,-3.1589e-11,0,0.00010098,-4.0755e-05,-7.562e+07,-9.6374,0,3.8066e+07,-5.2753,11612,12607,1,12607,1,0.00021801,4.5632e-10,0,0.00030295,3.491e-05,7.6027e+07,144.68,0,1.1324e+08,7.4964,12606,574.93,0,574.93,0,0.00023312,3.358e-10,0,0.00011724,4.3676e-05,8.7306e+07,106.38,0,4.352e+07,9.9096,574.93,1
1988,1.43,12110,1,12110,1,1.6155e-05,-3.2687e-10,0,0.0002035,-2.9403e-06,-20.914,-104.03,0,7.6197e+07,17.942,12109,13104,1,13104,1,0.00040839,1.1476e-09,0,0.00040839,7.0553e-05,1.4e+08,367.85,0,1.5297e+08,1290.3,13103,12110,1,12110,1,1.6155e-05,-1.7985e-10,0,0.00020338,-2.9308e-06,5.808e+06,-57.768,0,7.6559e+07,2.7428,12109,11091,1,11091,1,-0.00037608,-2.6877e-09,0,1.6272e-06,-7.6442e-05,-1.5297e+08,-861.36,0,4.5762e+05,-114.09,11090,11613,1,11613,1,-0.00018723,-5.165e-10,0,0.00010169,-4.1041e-05,-7.615e+07,-162.17,0,3.8333e+07,-17.211,11612,12607,1,12607,1,0.00021954,-6.9492e-11,0,0.00030507,3.5154e-05,7.6559e+07,-21.599,0,1.1404e+08,16.862,12606,574.93,0,574.93,0,0.00023475,4.3992e-10,0,0.00011806,4.3982e-05,8.7918e+07,140.35,0,4.3825e+07,135.15,574.93,1
1988,1.44,12110,1,12110,1,1.6268e-05,1.7859e-10,0,0.00020493,-2.961e-06,-0.13488,56.587,0,7.6732e+07,1.2532,12109,13104,1,13104,1,0.00041126,1.198e-09,0,0.00041126,7.1048e-05,1.4098e+08,374.73,0,1.5404e+08,36.637,13103,12110,1,12110,1,1.6268e-05,4.7643e-11,0,0.00020481,-2.9518e-06,5.8487e+06,15.254,0,7.7097e+07,0.9905,12109,11091,1,11091,1,-0.00037873,-4.4655e-10,0,1.6388e-06,-7.698e-05,-1.5404e+08,-143.14,0,4.6079e+05,-38.74,11090,11613,1,11613,1,-0.00018854,-6.594e-11,0,0.00010241,-4.1329e-05,-7.6684e+07,-20.164,0,3.8602e+07,-5.9522,11612,12607,1,12607,1,0.00022108,3.7978e-10,0,0.00030722,3.5401e-05,7.7097e+07,121.41,0,1.1484e+08,8.2386,12606,574.93,0,574.93,0,0.0002364,3.6003e-10,0,0.00011889,4.429e-05,8.8535e+07,114.18,0,4.4133e+07,12.351,574.93,1
1988,1.45,12110,1,12110,1,1.6381e-05,1.0487e-10,0,0.00020635,-2.9816e-06,11.929,33.228,0,7.7265e+07,4.2889,12109,13104,1,13104,1,0.00041412,7.3001e-10,0,0.00041412,7.1542e-05,1.4196e+08,234.8,0,1.5511e+08,50.919,13103,12110,1,12110,1,1.6381e-05,7.351e-12,0,0.00020623,-2.9723e-06,5.8894e+06,2.4559,0,7.7633e+07,2.347,12109,11091,1,11091,1,-0.00038136,-3.4887e-10,0,1.6502e-06,-7.7514e-05,-1.5511e+08,-111.86,0,4.64e+05,-49.221,11090,11613,1,11613,1,-0.00018985,-9.37e-11,0,0.00010312,-4.1616e-05,-7.7217e+07,-29.201,0,3.887e+07,-4.3359,11612,12607,1,12607,1,0.00022261,2.9948e-10,0,0.00030935,3.5647e-05,7.7633e+07,96.435,0,1.1564e+08,11.061,12606,574.93,0,574.93,0,0.00023805,2.7242e-10,0,0.00011972,4.4598e-05,8.915e+07,86.426,0,4.444e+07,14.601,574.93,1
1988,1.46,12110,1,12110,1,1.6494e-05,5.3144e-11,0,0.00020777,-3.0021e-06,10.385,16.775,0,7.7798e+07,0.029312,12109,13104,1,13104,1,0.00041697,7.4634e-10,0,0.00041697,7.2035e-05,1.4294e+08,235.39,0,1.5618e+08,24.474,13103,12110,1,12110,1,1.6494e-05,-3.0943e-11,0,0.00020766,-2.9928e-06,5.93e+06,-9.4556,0,7.8168e+07,0.65531,12109,11091,1,11091,1,-0.00038399,-4.4053e-10,0,1.6616e-06,-7.8049e-05,-1.5618e+08,-141.22,0,4.672e+05,-33.508,11090,11613,1,11613,1,-0.00019116,-1.245e-10,0,0.00010383,-4.1903e-05,-7.7749e+07,-39.494,0,3.9138e+07,-4.2117,11612,12607,1,12607,1,0.00022415,2.1239e-10,0,0.00031148,3.5893e-05,7.8168e+07,66.727,0,1.1643e+08,5.4049,12606,574.93,0,574.93,0,0.00023969,2.6123e-10,0,0.00012054,4.4906e-05,8.9765e+07,82.877,0,4.4746e+07,9.1464,574.93,1
1988,1.47,12110,1,12110,1,1.6607e-05,7.5157e-11,0,0.0002092,-3.0227e-06,6.4308,23.781,0,7.8331e+07,-2.7012,12109,13104,1,13104,1,0.00041983,4.9298e-10,0,0.00041983,7.2529e-05,1.4392e+08,158.04,0,1.5725e+08,13.612,13103,12110,1,12110,1,1.6607e-05,-6.9008e-12,0,0.00020908,-3.0134e-06,5.9706e+06,-2.3349,0,7.8704e+07,-0.64522,12109,11091,1,11091,1,-0.00038662,-8.927e-11,0,1.673e-06,-7.8584e-05,-1.5725e+08,-30.575,0,4.704e+05,-50.144,11090,11613,1,11613,1,-0.00019247,-3.695e-11,0,0.00010454,-4.219e-05,-7.8283e+07,-11.88,0,3.9406e+07,-5.5881,11612,12607,1,12607,1,0.00022569,1.6397e-10,0,0.00031362,3.6139e-05,7.8704e+07,52.38,0,1.1723e+08,2.1631,12606,574.93,0,574.93,0,0.00024133,1.5231e-10,0,0.00012137,4.5214e-05,9.0381e+07,48.283,0,4.5053e+07,8.0424,574.93,1
1988,1.48,12110,1,12110,1,1.672e-05,1.2197e-10,0,0.00021062,-3.0433e-06,-6.7745,38.702,0,7.8864e+07,1.1678,12109,13104,1,13104,1,0.00042269,3.7139e-10,0,0.00042269,7.3022e-05,1.449e+08,114.48,0,1.5832e+08,19.343,13103,12110,1,12110,1,1.672e-05,1.2755e-10,0,0.0002105,-3.0339e-06,6.0112e+06,40.592,0,7.9239e+07,0.8897,12109,11091,1,11091,1,-0.00038925,-1.0831e-10,0,1.6843e-06,-7.9118e-05,-1.5832e+08,-37.096,0,4.7359e+05,-29.21,11090,11613,1,11613,1,-0.00019378,3.7338e-11,0,0.00010525,-4.2477e-05,-7.8815e+07,12.466,0,3.9674e+07,-3.4369,11612,12607,1,12607,1,0.00022722,2.0686e-10,0,0.00031575,3.6385e-05,7.9239e+07,64.86,0,1.1803e+08,5.6268,12606,574.93,0,574.93,0,0.00024297,1.1212e-10,0,0.00012219,4.5521e-05,9.0995e+07,35.526,0,4.536e+07,7.4084,574.93,1
1988,1.49,12110,1,12110,1,1.6833e-05,2.2126e-10,0,0.00021204,-3.0638e-06,-1.5754,70.256,0,7.9396e+07,-2.5291,12109,13104,1,13104,1,0.00042554,9.6377e-10,0,0.00042554,7.3516e-05,1.4588e+08,307.12,0,1.5939e+08,19.45,13103,12110,1,12110,1,1.6833e-05,1.5053e-10,0,0.00021192,-3.0544e-06,6.0518e+06,47.947,0,7.9774e+07,-1.4492,12109,11091,1,11091,1,-0.00039188,-2.3672e-10,0,1.6957e-06,-7.9653e-05,-1.5939e+08,-75.915,0,4.7679e+05,-47.406,11090,11613,1,11613,1,-0.00019509,-1.3196e-11,0,0.00010596,-4.2764e-05,-7.9347e+07,-4.285,0,3.9942e+07,-7.3451,11612,12607,1,12607,1,0.00022876,4.1806e-10,0,0.00031788,3.663e-05,7.9774e+07,133.47,0,1.1883e+08,4.0088,12606,574.93,0,574.93,0,0.00024461,2.7562e-10,0,0.00012302,4.5829e-05,9.161e+07,87.557,0,4.5666e+07,10.283,574.93,1
1988,1.5,12110,1,12110,1,1.6946e-05,2.5784e-10,0,0.00021347,-3.0844e-06,-6.5857,81.863,0,7.9929e+07,0.041771,12109,13104,1,13104,1,0.0004284,8.0031e-10,0,0.0004284,7.4009e-05,1.4686e+08,260.94,0,1.6046e+08,15.596,13103,12110,1,12110,1,1.6946e-05,2.2664e-10,0,0.00021335,-3.0748e-06,6.0924e+06,72.26,0,8.031e+07,0.19801,12109,11091,1,11091,1,-0.00039451,-8.6729e-11,0,1.7071e-06,-8.0187e-05,-1.6046e+08,-27.577,0,4.7999e+05,-31.151,11090,11613,1,11613,1,-0.0001964,7.082e-11,0,0.00010667,-4.3051e-05,-7.988e+07,21.91,0,4.021e+07,-3.4966,11612,12607,1,12607,1,0.00023029,4.1119e-10,0,0.00032002,3.6876e-05,8.031e+07,131.08,0,1.1962e+08,4.6385,12606,574.93,0,574.93,0,0.00024625,2.223e-10,0,0.00012384,4.6136e-05,9.2224e+07,70.591,0,4.5972e+07,7.4658,574.93,1
1988,1.51,12110,1,12110,1,1.7059e-05,1.5571e-10,0,0.00021489,-3.105e-06,6.2965,49.424,0,8.0463e+07,-1.0717,12109,13104,1,13104,1,0.00043126,4.4619e-10,0,0.00043126,7.4503e-05,1.4784e+08,135.1,0,1.6153e+08,20.934,13103,12110,1,12110,1,1.7059e-05,1.6325e-10,0,0.00021477,-3.0954e-06,6.1331e+06,51.246,0,8.0846e+07,0.3944,12109,11091,1,11091,1,-0.00039714,-8.8197e-11,0,1.7185e-06,-8.0722e-05,-1.6153e+08,-29.25,0,4.8321e+05,-45.22,11090,11613,1,11613,1,-0.00019771,6.5644e-11,0,0.00010738,-4.3338e-05,-8.0413e+07,21.257,0,4.0479e+07,-3.4301,11612,12607,1,12607,1,0.00023183,2.3843e-10,0,0.00032215,3.7122e-05,8.0846e+07,75.812,0,1.2042e+08,3.112,12606,574.93,0,574.93,0,0.0002479,1.2201e-10,0,0.00012467,4.6444e-05,9.284e+07,38.598,0,4.6279e+07,7.8222,574.93,1
1988,1.52,12110,1,12110,1,1.7172e-05,1.5419e-10,0,0.00021632,-3.1256e-06,2.5007,48.945,0,8.0996e+07,-3.6576,12109,13104,1,13104,1,0.00043412,3.7409e-10,0,0.00043412,7.4996e-05,1.4882e+08,117.53,0,1.626e+08,8.8204,13103,12110,1,12110,1,1.7172e-05,1.4885e-10,0,0.00021619,-3.1159e-06,6.1738e+06,47.77,0,8.1381e+07,-2.4262,12109,11091,1,11091,1,-0.00039977,-6.9957e-11,0,1.7299e-06,-8.1257e-05,-1.626e+08,-23.96,0,4.8642e+05,-37.24,11090,11613,1,11613,1,-0.00019902,5.1683e-11,0,0.0001081,-4.3625e-05,-8.0946e+07,16.26,0,4.0747e+07,-5.3783,11612,12607,1,12607,1,0.00023336,2.6145e-10,0,0.00032429,3.7368e-05,8.1381e+07,83.04,0,1.2122e+08,-0.18774,12606,574.93,0,574.93,0,0.00024954,1.2055e-10,0,0.0001255,4.6752e-05,9.3456e+07,38.141,0,4.6586e+07,6.3568,574.93,1
1988,1.53,12110,1,12110,1,1.7285e-05,3.0938e-10,0,0.00021774,-3.1461e-06,-1.6352,98.076,0,8.1528e+07,1.5983,12109,13104,1,13104,1,0.00043697,1.3101e-09,0,0.00043697,7.5489e-05,1.4979e+08,400.79,0,1.6367e+08,40.859,13103,12110,1,12110,1,1.7285e-05,1.8991e-10,0,0.00021761,-3.1363e-06,6.2143e+06,60.204,0,8.1916e+07,1.517,12109,11091,1,11091,1,-0.0004024,-3.8331e-10,0,1.7412e-06,-8.1791e-05,-1.6367e+08,-122.88,0,4.8958e+05,-52.189,11090,11613,1,11613,1,-0.00020033,-2.5048e-11,0,0.00010881,-4.3912e-05,-8.1477e+07,-7.9004,0,4.1015e+07,-8.0335,11612,12607,1,12607,1,0.0002349,6.2396e-10,0,0.00032642,3.7614e-05,8.1916e+07,197.46,0,1.2202e+08,9.49,12606,574.93,0,574.93,0,0.00025118,4.147e-10,0,0.00012632,4.7059e-05,9.4069e+07,131.41,0,4.6892e+07,13.383,574.93,1
1988,1.54,12110,1,12110,1,1.7398e-05,2.18e-10,0,0.00021916,-3.1667e-06,-0.89909,69.153,0,8.2061e+07,-0.3806,12109,13104,1,13104,1,0.00043983,7.9569e-10,0,0.00043983,7.5983e-05,1.5077e+08,252.65,0,1.6474e+08,16.529,13103,12110,1,12110,1,1.7398e-05,1.5602e-10,0,0.00021904,-3.1569e-06,6.2549e+06,48.693,0,8.2452e+07,0.8143,12109,11091,1,11091,1,-0.00040503,-2.6269e-10,0,1.7526e-06,-8.2326e-05,-1.6474e+08,-84.242,0,4.928e+05,-31.97,11090,11613,1,11613,1,-0.00020164,-8.34e-12,0,0.00010952,-4.4199e-05,-8.201e+07,-2.805,0,4.1283e+07,-5.4633,11612,12607,1,12607,1,0.00023643,4.2729e-10,0,0.00032855,3.786e-05,8.2452e+07,135.88,0,1.2281e+08,6.0542,12606,574.93,0,574.93,0,0.00025282,2.627e-10,0,0.00012715,4.7367e-05,9.4684e+07,83.339,0,4.7198e+07,8.348,574.93,1
1988,1.55,12110,1,12110,1,1.7511e-05,2.8246e-10,0,0.00022058,-3.1872e-06,-5.2985,89.648,0,8.2594e+07,-2.663,12109,13104,1,13104,1,0.00044268,7.442e-10,0,0.00044268,7.6476e-05,1.5175e+08,224.66,0,1.6581e+08,25.12,13103,12110,1,12110,1,1.7511e-05,2.8211e-10,0,0.00022046,-3.1773e-06,6.2955e+06,89.662,0,8.2987e+07,-2.1586,12109,11091,1,11091,1,-0.00040766,-1.5443e-10,0,1.764e-06,-8.286e-05,-1.6581e+08,-50.389,0,4.9599e+05,-49.364,11090,11613,1,11613,1,-0.00020295,5.4821e-11,0,0.00011023,-4.4486e-05,-8.2542e+07,17.6,0,4.1551e+07,-8.292,11612,12607,1,12607,1,0.00023797,5.0898e-10,0,0.00033068,3.8105e-05,8.2987e+07,161.36,0,1.2361e+08,4.8296,12606,574.93,0,574.93,0,0.00025446,2.4957e-10,0,0.00012797,4.7674e-05,9.5299e+07,79.014,0,4.7505e+07,11.799,574.93,1
1988,1.56,12110,1,12110,1,1.7624e-05,1.5257e-10,0,0.000222,-3.2078e-06,8.9948,48.384,0,8.3126e+07,1.051,12109,13104,1,13104,1,0.00044553,1.3653e-09,0,0.00044553,7.6969e-05,1.5273e+08,433.36,0,1.6688e+08,41.626,13103,12110,1,12110,1,1.7624e-05,2.0424e-11,0,0.00022188,-3.1978e-06,6.3361e+06,6.2143,0,8.3522e+07,1.1493,12109,11091,1,11091,1,-0.00041029,-6.707e-10,0,1.7753e-06,-8.3395e-05,-1.6688e+08,-214.98,0,4.9919e+05,-43.383,11090,11613,1,11613,1,-0.00020425,-1.542e-10,0,0.00011094,-4.4773e-05,-8.3075e+07,-49.902,0,4.1819e+07,-7.0055,11612,12607,1,12607,1,0.0002395,4.3812e-10,0,0.00033282,3.8351e-05,8.3522e+07,143.45,0,1.2441e+08,11.175,12606,574.93,0,574.93,0,0.0002561,4.6117e-10,0,0.0001288,4.7981e-05,9.5913e+07,146.44,0,4.7811e+07,14.946,574.93,1
1988,1.57,12110,1,12110,1,1.7737e-05,1.1552e-10,0,0.00022343,-3.2283e-06,-1.0645,36.678,0,8.3659e+07,-2.1061,12109,13104,1,13104,1,0.00044839,1.2405e-09,0,0.00044839,7.7462e-05,1.5371e+08,388.35,0,1.6795e+08,29.884,13103,12110,1,12110,1,1.7737e-05,1.3391e-11,0,0.0002233,-3.2183e-06,6.3767e+06,4.3461,0,8.4057e+07,-0.9084,12109,11091,1,11091,1,-0.00041292,-4.9273e-10,0,1.7867e-06,-8.3929e-05,-1.6795e+08,-157.95,0,5.0238e+05,-56.658,11090,11613,1,11613,1,-0.00020556,-1.2165e-10,0,0.00011165,-4.506e-05,-8.3607e+07,-38.185,0,4.2087e+07,-7.6494,11612,12607,1,12607,1,0.00024104,3.1649e-10,0,0.00033495,3.8597e-05,8.4057e+07,99.925,0,1.2521e+08,7.1669,12606,574.93,0,574.93,0,0.00025775,3.5265e-10,0,0.00012962,4.8289e-05,9.6528e+07,112.13,0,4.8118e+07,15.143,574.93,1
1988,1.58,12110,1,12110,1,1.785e-05,1.7714e-10,0,0.00022485,-3.2489e-06,-9.3025,56.158,0,8.4193e+07,-0.82492,12109,13104,1,13104,1,0.00045125,4.9619e-10,0,0.00045125,7.7956e-05,1.5469e+08,150.45,0,1.6902e+08,18.034,13103,12110,1,12110,1,1.785e-05,1.8567e-10,0,0.00022472,-3.2388e-06,6.4174e+06,58.989,0,8.4593e+07,-1.2409,12109,11091,1,11091,1,-0.00041555,-1.1378e-10,0,1.7981e-06,-8.4464e-05,-1.6902e+08,-38.967,0,5.0559e+05,-35.451,11090,11613,1,11613,1,-0.00020687,4.4653e-11,0,0.00011236,-4.5347e-05,-8.414e+07,13.892,0,4.2355e+07,-5.2047,11612,12607,1,12607,1,0.00024257,3.0294e-10,0,0.00033709,3.8843e-05,8.4593e+07,97.089,0,1.26e+08,3.9155,12606,574.93,0,574.93,0,0.00025939,1.5468e-10,0,0.00013045,4.8597e-05,9.7144e+07,48.91,0,4.8424e+07,7.7246,574.93,1
1988,1.59,12110,1,12110,1,1.7963e-05,3.0622e-10,0,0.00022627,-3.2695e-06,2.1148,97.358,0,8.4725e+07,-1.047,12109,13104,1,13104,1,0.0004541,1.0664e-09,0,0.0004541,7.845e-05,1.5567e+08,349.21,0,1.7009e+08,24.773,13103,12110,1,12110,1,1.7963e-05,2.0899e-10,0,0.00022615,-3.2593e-06,6.458e+06,67.058,0,8.5128e+07,0.05765,12109,11091,1,11091,1,-0.00041818,-2.5387e-10,0,1.8095e-06,-8.4999e-05,-1.7009e+08,-81.403,0,5.088e+05,-36.951,11090,11613,1,11613,1,-0.00020818,-2.4308e-12,0,0.00011307,-4.5634e-05,-8.4673e+07,-0.708,0,4.2623e+07,-7.1049,11612,12607,1,12607,1,0.00024411,5.7718e-10,0,0.00033922,3.9089e-05,8.5128e+07,185.87,0,1.268e+08,7.0073,12606,574.93,0,574.93,0,0.00026103,3.5444e-10,0,0.00013127,4.8904e-05,9.7758e+07,112.8,0,4.8731e+07,11.295,574.93,1
1988,1.6,12110,1,12110,1,1.8076e-05,-1.083e-10,0,0.0002277,-3.2901e-06,1.1853,-34.363,0,8.5259e+07,-3.8658,12109,13104,1,13104,1,0.00045696,1.4902e-10,0,0.00045696,7.8943e-05,1.5665e+08,44.641,0,1.7116e+08,10.985,13103,12110,1,12110,1,1.8076e-05,-6.8099e-11,0,0.00022757,-3.2799e-06,6.4987e+06,-21.509,0,8.5664e+07,-2.7419,12109,11091,1,11091,1,-0.00042081,-4.4804e-10,0,1.8209e-06,-8.5533e-05,-1.7116e+08,-135.72,0,5.1201e+05,-40.027,11090,11613,1,11613,1,-0.00020949,-2.0721e-10,0,0.00011378,-4.5921e-05,-8.5206e+07,-66.274,0,4.2891e+07,-5.9648,11612,12607,1,12607,1,0.00024565,-3.4599e-12,0,0.00034135,3.9335e-05,8.5664e+07,-1.1495,0,1.276e+08,1.2678,12606,574.93,0,574.93,0,0.00026267,1.3736e-10,0,0.0001321,4.9212e-05,9.8374e+07,43.356,0,4.9037e+07,7.7359,574.93,1
1988,1.61,12110,1,12110,1,1.8189e-05,6.9338e-11,0,0.00022912,-3.3106e-06,-5.0815,22.036,0,8.5791e+07,-0.20614,12109,13104,1,13104,1,0.00045982,5.8498e-10,0,0.00045982,7.9436e-05,1.5763e+08,181.03,0,1.7223e+08,17.148,13103,12110,1,12110,1,1.8189e-05,2.3116e-11,0,0.00022899,-3.3004e-06,6.5392e+06,7.5867,0,8.6199e+07,0.63649,12109,11091,1,11091,1,-0.00042344,-2.9242e-10,0,1.8323e-06,-8.6068e-05,-1.7223e+08,-93.772,0,5.1519e+05,-47.677,11090,11613,1,11613,1,-0.0002108,-4.478e-11,0,0.0001145,-4.6208e-05,-8.5738e+07,-13.792,0,4.3159e+07,-3.3097,11612,12607,1,12607,1,0.00024718,1.6765e-10,0,0.00034349,3.9581e-05,8.6199e+07,53.932,0,1.284e+08,6.264,12606,574.93,0,574.93,0,0.00026431,1.7454e-10,0,0.00013293,4.952e-05,9.8988e+07,55.596,0,4.9344e+07,9.5941,574.93,1
1988,1.62,12110,1,12110,1,1.8302e-05,8.8316e-11,0,0.00023054,-3.3311e-06,5.2608,27.929,0,8.6323e+07,-1.5453,12109,13104,1,13104,1,0.00046267,8.376e-10,0,0.00046267,7.9929e-05,1.586e+08,267.67,0,1.733e+08,13.863,13103,12110,1,12110,1,1.8302e-05,2.2758e-11,0,0.00023041,-3.3208e-06,6.5798e+06,7.2781,0,8.6734e+07,-0.79281,12109,11091,1,11091,1,-0.00042607,-4.9107e-10,0,1.8437e-06,-8.6602e-05,-1.733e+08,-157.42,0,5.184e+05,-42.142,11090,11613,1,11613,1,-0.00021211,-7.2902e-11,0,0.00011521,-4.6495e-05,-8.627e+07,-22.742,0,4.3427e+07,-5.6427,11612,12607,1,12607,1,0.00024871,2.4274e-10,0,0.00034562,3.9826e-05,8.6734e+07,78.834,0,1.2919e+08,4.2463,12606,574.93,0,574.93,0,0.00026595,2.6208e-10,0,0.00013375,4.9827e-05,9.9602e+07,83.271,0,4.965e+07,8.3206,574.93,1
1988,1.63,12110,1,12110,1,1.8415e-05,2.6587e-10,0,0.00023197,-3.3517e-06,2.1213,84.436,0,8.6856e+07,-2.1002,12109,13104,1,13104,1,0.00046553,1.131e-09,0,0.00046553,8.0423e-05,1.5958e+08,361.67,0,1.7437e+08,17.016,13103,12110,1,12110,1,1.8415e-05,1.6537e-10,0,0.00023184,-3.3413e-06,6.6204e+06,53.336,0,8.727e+07,-1.0599,12109,11091,1,11091,1,-0.0004287,-3.3702e-10,0,1.855e-06,-8.7137e-05,-1.7437e+08,-108.05,0,5.216e+05,-34.582,11090,11613,1,11613,1,-0.00021342,-1.6751e-11,0,0.00011592,-4.6782e-05,-8.6803e+07,-5.2633,0,4.3695e+07,-7.4482,11612,12607,1,12607,1,0.00025025,5.1263e-10,0,0.00034775,4.0072e-05,8.727e+07,161.99,0,1.2999e+08,5.4854,12606,574.93,0,574.93,0,0.0002676,3.4283e-10,0,0.00013458,5.0135e-05,1.0022e+08,108.81,0,4.9957e+07,9.8383,574.93,1
1988,1.64,12110,1,12110,1,1.8528e-05,-7.5112e-11,0,0.00023339,-3.3723e-06,8.397,-23.873,0,8.7389e+07,-0.046723,12109,13104,1,13104,1,0.00046838,9.5873e-10,0,0.00046838,8.0916e-05,1.6056e+08,307.32,0,1.7543e+08,39.298,13103,12110,1,12110,1,1.8528e-05,-7.4967e-11,0,0.00023326,-3.3618e-06,6.6611e+06,-23.514,0,8.7805e+07,-1.1859,12109,11091,1,11091,1,-0.00043132,-7.6807e-10,0,1.8664e-06,-8.7671e-05,-1.7543e+08,-242.2,0,5.248e+05,-47.728,11090,11613,1,11613,1,-0.00021473,-3.7078e-10,0,0.00011663,-4.7069e-05,-8.7335e+07,-118.03,0,4.3963e+07,-8.2726,11612,12607,1,12607,1,0.00025178,1.5138e-10,0,0.00034988,4.0318e-05,8.7805e+07,49.355,0,1.3079e+08,9.5479,12606,574.93,0,574.93,0,0.00026924,3.9673e-10,0,0.0001354,5.0442e-05,1.0083e+08,126.19,0,5.0263e+07,14.626,574.93,1
1988,1.65,12110,1,12110,1,1.8641e-05,1.1391e-10,0,0.00023481,-3.3928e-06,-2.6951,36.033,0,8.7922e+07,-1.294,12109,13104,1,13104,1,0.00047124,1.0115e-09,0,0.00047124,8.141e-05,1.6154e+08,322.33,0,1.7651e+08,21.545,13103,12110,1,12110,1,1.8641e-05,9.7334e-12,0,0.00023468,-3.3823e-06,6.7017e+06,3.1903,0,8.8341e+07,-0.56292,12109,11091,1,11091,1,-0.00043396,-4.8279e-10,0,1.8778e-06,-8.8206e-05,-1.7651e+08,-154.77,0,5.2799e+05,-40.558,11090,11613,1,11613,1,-0.00021604,-9.5428e-11,0,0.00011734,-4.7356e-05,-8.7868e+07,-30.353,0,4.4231e+07,-6.4159,11612,12607,1,12607,1,0.00025332,3.0748e-10,0,0.00035202,4.0564e-05,8.8341e+07,99.818,0,1.3159e+08,5.8017,12606,574.93,0,574.93,0,0.00027088,3.1876e-10,0,0.00013623,5.075e-05,1.0145e+08,101.19,0,5.0569e+07,10.116,574.93,1
1988,1.66,12110,1,12110,1,1.8754e-05,1.6126e-10,0,0.00023624,-3.4134e-06,-1.3851,51.252,0,8.8455e+07,-1.4081,12109,13104,1,13104,1,0.0004741,6.6257e-10,0,0.0004741,8.1903e-05,1.6252e+08,212.41,0,1.7758e+08,14.693,13103,12110,1,12110,1,1.8754e-05,1.2374e-10,0,0.0002361,-3.4029e-06,6.7423e+06,38.775,0,8.8876e+07,-0.17495,12109,11091,1,11091,1,-0.00043659,-2.336e-10,0,1.8892e-06,-8.8741e-05,-1.7758e+08,-76.669,0,5.312e+05,-42.431,11090,11613,1,11613,1,-0.00021735,-1.2982e-11,0,0.00011805,-4.7643e-05,-8.84e+07,-4.1804,0,4.45e+07,-5.4447,11612,12607,1,12607,1,0.00025486,3.1963e-10,0,0.00035415,4.081e-05,8.8876e+07,102.3,0,1.3238e+08,3.7374,12606,574.93,0,574.93,0,0.00027252,2.0203e-10,0,0.00013705,5.1057e-05,1.0206e+08,64.386,0,5.0876e+07,8.0039,574.93,1
1988,1.67,12110,1,12110,1,1.8867e-05,3.3984e-10,0,0.00023766,-3.434e-06,4.4349,107.89,0,8.8989e+07,-1.0982,12109,13104,1,13104,1,0.00047696,8.9933e-10,0,0.00047696,8.2397e-05,1.635e+08,278.1,0,1.7865e+08,31.328,13103,12110,1,12110,1,1.8867e-05,3.2028e-10,0,0.00023753,-3.4233e-06,6.7829e+06,100.67,0,8.9412e+07,-2.1696,12109,11091,1,11091,1,-0.00043922,-1.5234e-10,0,1.9006e-06,-8.9276e-05,-1.7865e+08,-52.176,0,5.344e+05,-40.464,11090,11613,1,11613,1,-0.00021866,1.1495e-10,0,0.00011876,-4.793e-05,-8.8933e+07,36.815,0,4.4768e+07,-7.6342,11612,12607,1,12607,1,0.00025639,5.6329e-10,0,0.00035629,4.1056e-05,8.9412e+07,179.62,0,1.3318e+08,4.4637,12606,574.93,0,574.93,0,0.00027416,2.6845e-10,0,0.00013788,5.1365e-05,1.0268e+08,84.972,0,5.1183e+07,10.868,574.93,1
1988,1.68,12110,1,12110,1,1.898e-05,-1.6891e-10,0,0.00023909,-3.4546e-06,4.0039,-53.682,0,8.9522e+07,-2.8765,12109,13104,1,13104,1,0.00047981,4.8821e-11,0,0.00047981,8.2891e-05,1.6448e+08,16.721,0,1.7972e+08,5.0443,13103,12110,1,12110,1,1.898e-05,-1.8416e-10,0,0.00023895,-3.4439e-06,6.8236e+06,-59.604,0,8.9948e+07,-0.24191,12109,11091,1,11091,1,-0.00044185,-3.3126e-10,0,1.912e-06,-8.9811e-05,-1.7972e+08,-102.66,0,5.3762e+05,-42.414,11090,11613,1,11613,1,-0.00021997,-2.605e-10,0,0.00011947,-4.8217e-05,-8.9466e+07,-84.356,0,4.5036e+07,-4.9142,11612,12607,1,12607,1,0.00025793,-8.7679e-11,0,0.00035842,4.1302e-05,8.9948e+07,-28.178,0,1.3398e+08,1.873,12606,574.93,0,574.93,0,0.00027581,1.0584e-10,0,0.00013871,5.1673e-05,1.0329e+08,33.556,0,5.149e+07,7.5482,574.93,1
1988,1.69,12110,1,12110,1,1.9093e-05,1.0778e-10,0,0.00024051,-3.4751e-06,4.2669,34.134,0,9.0054e+07,3.0739,12109,13104,1,13104,1,0.00048266,8.9538e-10,0,0.00048266,8.3383e-05,1.6546e+08,279.78,0,1.8078e+08,33.231,13103,12110,1,12110,1,1.9093e-05,1.1742e-11,0,0.00024037,-3.4643e-06,6.8641e+06,3.6505,0,9.0482e+07,2.7217,12109,11091,1,11091,1,-0.00044448,-4.3353e-10,0,1.9233e-06,-9.0344e-05,-1.8078e+08,-138.99,0,5.408e+05,-35.36,11090,11613,1,11613,1,-0.00022128,-9.6999e-11,0,0.00012018,-4.8504e-05,-8.9998e+07,-30.537,0,4.5304e+07,-3.4641,11612,12607,1,12607,1,0.00025946,3.0794e-10,0,0.00036055,4.1547e-05,9.0482e+07,97.876,0,1.3478e+08,10.787,12606,574.93,0,574.93,0,0.00027745,2.9796e-10,0,0.00013953,5.198e-05,1.0391e+08,94.302,0,5.1795e+07,11.759,574.93,1
1988,1.7,12110,1,12110,1,1.9206e-05,1.2741e-10,0,0.00024193,-3.4957e-06,12.796,40.473,0,9.0587e+07,-3.115,12109,13104,1,13104,1,0.00048552,2.6772e-10,0,0.00048552,8.3877e-05,1.6644e+08,83.205,0,1.8185e+08,3.4808,13103,12110,1,12110,1,1.9206e-05,1.2434e-10,0,0.00024179,-3.4849e-06,6.9048e+06,40.278,0,9.1018e+07,-1.4925,12109,11091,1,11091,1,-0.00044711,-3.1764e-11,0,1.9348e-06,-9.0879e-05,-1.8185e+08,-10.879,0,5.4403e+05,-38.961,11090,11613,1,11613,1,-0.00022259,7.1396e-11,0,0.0001209,-4.8791e-05,-9.0531e+07,22.772,0,4.5572e+07,-2.8583,11612,12607,1,12607,1,0.000261,1.8679e-10,0,0.00036269,4.1793e-05,9.1018e+07,59.546,0,1.3557e+08,-0.030565,12606,574.93,0,574.93,0,0.00027909,7.406e-11,0,0.00014036,5.2288e-05,1.0452e+08,23.463,0,5.2102e+07,5.8826,574.93,1
1988,1.71,12110,1,12110,1,1.9318e-05,2.6365e-11,0,0.00024335,-3.5162e-06,-2.2987,8.335,0,9.1119e+07,-0.37775,12109,13104,1,13104,1,0.00048837,7.2228e-10,0,0.00048837,8.437e-05,1.6742e+08,231.02,0,1.8292e+08,29.797,13103,12110,1,12110,1,1.9318e-05,-1.8763e-11,0,0.00024321,-3.5053e-06,6.9454e+06,-5.9402,0,9.1553e+07,-0.42553,12109,11091,1,11091,1,-0.00044974,-5.1366e-10,0,1.9461e-06,-9.1413e-05,-1.8292e+08,-164.67,0,5.472e+05,-40.957,11090,11613,1,11613,1,-0.00022389,-1.2744e-10,0,0.00012161,-4.9078e-05,-9.1063e+07,-40.773,0,4.584e+07,-5.523,11612,12607,1,12607,1,0.00026253,1.6875e-10,0,0.00036482,4.2039e-05,9.1553e+07,53.34,0,1.3637e+08,5.1853,12606,574.93,0,574.93,0,0.00028073,2.4968e-10,0,0.00014118,5.2595e-05,1.0514e+08,79.472,0,5.2408e+07,9.6158,574.93,1
1988,1.72,12110,1,12110,1,1.9432e-05,2.8432e-10,0,0.00024477,-3.5368e-06,22.36,90.406,0,9.1652e+07,-4.2653,12109,13104,1,13104,1,0.00049123,1.4177e-09,0,0.00049123,8.4864e-05,1.684e+08,456.32,0,1.8399e+08,27.245,13103,12110,1,12110,1,1.9431e-05,1.1138e-10,0,0.00024464,-3.5258e-06,6.986e+06,34.823,0,9.2088e+07,-3.4501,12109,11091,1,11091,1,-0.00045237,-4.7846e-10,0,1.9575e-06,-9.1948e-05,-1.8399e+08,-153.38,0,5.5041e+05,-46.803,11090,11613,1,11613,1,-0.0002252,-7.8878e-11,0,0.00012232,-4.9365e-05,-9.1595e+07,-24.989,0,4.6108e+07,-13.299,11612,12607,1,12607,1,0.00026407,6.4198e-10,0,0.00036695,4.2285e-05,9.2088e+07,199.81,0,1.3717e+08,5.2088,12606,574.93,0,574.93,0,0.00028237,4.7796e-10,0,0.00014201,5.2903e-05,1.0575e+08,152.34,0,5.2715e+07,12.602,574.93,1
1988,1.73,12110,1,12110,1,1.9544e-05,5.2419e-11,0,0.0002462,-3.5573e-06,-4.5886,16.636,0,9.2185e+07,-1.5451,12109,13104,1,13104,1,0.00049409,2.897e-10,0,0.00049409,8.5356e-05,1.6937e+08,92.916,0,1.8506e+08,7.9485,13103,12110,1,12110,1,1.9544e-05,4.7046e-11,0,0.00024606,-3.5463e-06,7.0266e+06,15.002,0,9.2624e+07,-0.11667,12109,11091,1,11091,1,-0.000455,-1.6532e-10,0,1.9689e-06,-9.2482e-05,-1.8506e+08,-56.591,0,5.536e+05,-35.758,11090,11613,1,11613,1,-0.00022651,3.9334e-12,0,0.00012303,-4.9652e-05,-9.2128e+07,1.1711,0,4.6376e+07,-1.9687,11612,12607,1,12607,1,0.0002656,1.0105e-10,0,0.00036909,4.2531e-05,9.2624e+07,32.122,0,1.3797e+08,1.1405,12606,574.93,0,574.93,0,0.00028401,7.2397e-11,0,0.00014283,5.321e-05,1.0637e+08,23.204,0,5.3021e+07,5.6438,574.93,1
1988,1.74,12110,1,12110,1,1.9658e-05,-6.864e-11,0,0.00024762,-3.5779e-06,3.9356,-21.813,0,9.2719e+07,-2.4087,12109,13104,1,13104,1,0.00049694,1.7309e-11,0,0.00049694,8.585e-05,1.7035e+08,4.9965,0,1.8613e+08,8.5753,13103,12110,1,12110,1,1.9658e-05,-4.6815e-11,0,0.00024748,-3.5669e-06,7.0673e+06,-14.931,0,9.316e+07,-0.27158,12109,11091,1,11091,1,-0.00045763,-4.0531e-10,0,1.9803e-06,-9.3018e-05,-1.8613e+08,-125.4,0,5.5682e+05,-41.426,11090,11613,1,11613,1,-0.00022782,-7.3179e-11,0,0.00012374,-4.9939e-05,-9.2661e+07,-23.556,0,4.6644e+07,-2.5177,11612,12607,1,12607,1,0.00026714,-3.1245e-11,0,0.00037122,4.2777e-05,9.316e+07,-9.9692,0,1.3876e+08,0.57755,12606,574.93,0,574.93,0,0.00028566,6.6424e-11,0,0.00014366,5.3518e-05,1.0698e+08,20.965,0,5.3328e+07,6.6031,574.93,1
1988,1.75,12110,1,12110,1,1.977e-05,6.1408e-11,0,0.00024904,-3.5985e-06,-0.047972,19.477,0,9.3251e+07,-1.7229,12109,13104,1,13104,1,0.0004998,5.6885e-10,0,0.0004998,8.6343e-05,1.7133e+08,182.3,0,1.872e+08,16.037,13103,12110,1,12110,1,1.977e-05,1.4812e-11,0,0.0002489,-3.5873e-06,7.1079e+06,4.4324,0,9.3695e+07,-0.39996,12109,11091,1,11091,1,-0.00046026,-4.1031e-10,0,1.9916e-06,-9.3552e-05,-1.872e+08,-131.55,0,5.6e+05,-46.097,11090,11613,1,11613,1,-0.00022913,-7.9517e-11,0,0.00012445,-5.0226e-05,-9.3193e+07,-25.201,0,4.6912e+07,-5.527,11612,12607,1,12607,1,0.00026867,2.2251e-10,0,0.00037335,4.3022e-05,9.3695e+07,70.896,0,1.3956e+08,5.3046,12606,574.93,0,574.93,0,0.0002873,2.1557e-10,0,0.00014448,5.3825e-05,1.076e+08,68.668,0,5.3634e+07,9.6126,574.93,1
1988,1.76,12110,1,12110,1,1.9883e-05,1.5099e-10,0,0.00025047,-3.619e-06,0.23157,47.984,0,9.3784e+07,1.6195,12109,13104,1,13104,1,0.00050266,1.1307e-09,0,0.00050266,8.6837e-05,1.7231e+08,357.52,0,1.8827e+08,38.212,13103,12110,1,12110,1,1.9883e-05,2.8896e-11,0,0.00025033,-3.6078e-06,7.1485e+06,9.2049,0,9.423e+07,2.1425,12109,11091,1,11091,1,-0.00046289,-4.6585e-10,0,2.003e-06,-9.4086e-05,-1.8827e+08,-149.35,0,5.6319e+05,-56.928,11090,11613,1,11613,1,-0.00023044,-8.9748e-11,0,0.00012516,-5.0513e-05,-9.3726e+07,-28.556,0,4.718e+07,-5.7606,11612,12607,1,12607,1,0.00027021,3.622e-10,0,0.00037549,4.3268e-05,9.423e+07,116.76,0,1.4036e+08,10.068,12606,574.93,0,574.93,0,0.00028894,3.6203e-10,0,0.00014531,5.4133e-05,1.0821e+08,115.2,0,5.3941e+07,13.795,574.93,1
1988,1.77,12110,1,12110,1,1.9996e-05,1.9633e-10,0,0.00025189,-3.6396e-06,8.9504,62.213,0,9.4317e+07,3.6591,12109,13104,1,13104,1,0.00050551,9.1407e-10,0,0.00050551,8.7331e-05,1.7329e+08,290.98,0,1.8934e+08,37.714,13103,12110,1,12110,1,1.9996e-05,1.009e-10,0,0.00025175,-3.6283e-06,7.1891e+06,32.062,0,9.4766e+07,3.9789,12109,11091,1,11091,1,-0.00046552,-4.1896e-10,0,2.0144e-06,-9.4621e-05,-1.8934e+08,-134.32,0,5.664e+05,-35.263,11090,11613,1,11613,1,-0.00023175,-3.6632e-11,0,0.00012587,-5.08e-05,-9.4258e+07,-11.973,0,4.7448e+07,-4.2123,11612,12607,1,12607,1,0.00027174,4.2705e-10,0,0.00037762,4.3514e-05,9.4766e+07,136.82,0,1.4116e+08,11.213,12606,574.93,0,574.93,0,0.00029058,3.1722e-10,0,0.00014614,5.4441e-05,1.0882e+08,100.41,0,5.4247e+07,12.13,574.93,1
1988,1.78,12110,1,12110,1,2.0109e-05,1.707e-10,0,0.00025331,-3.6602e-06,0.72178,54.341,0,9.485e+07,-3.4784,12109,13104,1,13104,1,0.00050837,6.2158e-10,0,0.00050837,8.7824e-05,1.7427e+08,199.26,0,1.9041e+08,14.671,13103,12110,1,12110,1,2.0109e-05,1.2895e-10,0,0.00025317,-3.6489e-06,7.2297e+06,41.481,0,9.5301e+07,-2.5012,12109,11091,1,11091,1,-0.00046815,-2.6597e-10,0,2.0258e-06,-9.5156e-05,-1.9041e+08,-85.3,0,5.6961e+05,-49.991,11090,11613,1,11613,1,-0.00023306,-2.2121e-11,0,0.00012659,-5.1087e-05,-9.4791e+07,-6.7469,0,4.7716e+07,-8.0026,11612,12607,1,12607,1,0.00027328,3.7397e-10,0,0.00037976,4.376e-05,9.5301e+07,119.02,0,1.4195e+08,2.5338,12606,574.93,0,574.93,0,0.00029222,2.2451e-10,0,0.00014696,5.4748e-05,1.0944e+08,71.658,0,5.4554e+07,8.9077,574.93,1
1988,1.79,12110,1,12110,1,2.0222e-05,2.8151e-10,0,0.00025474,-3.6807e-06,-7.4036,89.15,0,9.5383e+07,3.2137,12109,13104,1,13104,1,0.00051123,9.8652e-10,0,0.00051123,8.8318e-05,1.7525e+08,309.79,0,1.9148e+08,46.448,13103,12110,1,12110,1,2.0222e-05,1.9579e-10,0,0.00025459,-3.6693e-06,7.2703e+06,61.502,0,9.5837e+07,1.9252,12109,11091,1,11091,1,-0.00047078,-1.8973e-10,0,2.0371e-06,-9.5691e-05,-1.9148e+08,-60.866,0,5.7278e+05,-41.295,11090,11613,1,11613,1,-0.00023437,1.1057e-11,0,0.0001273,-5.1374e-05,-9.5324e+07,3.4333,0,4.7985e+07,-4.856,11612,12607,1,12607,1,0.00027482,5.0952e-10,0,0.00038189,4.4006e-05,9.5837e+07,161.54,0,1.4275e+08,9.5183,12606,574.93,0,574.93,0,0.00029386,3.1075e-10,0,0.00014779,5.5056e-05,1.1005e+08,98.122,0,5.486e+07,13.997,574.93,1
1988,1.8,12110,1,12110,1,2.0335e-05,9.3154e-11,0,0.00025616,-3.7013e-06,4.298,29.428,0,9.5915e+07,-1.747,12109,13104,1,13104,1,0.00051408,1.0303e-09,0,0.00051408,8.881e-05,1.7623e+08,330.26,0,1.9255e+08,22.579,13103,12110,1,12110,1,2.0335e-05,-3.2305e-12,0,0.00025601,-3.6898e-06,7.311e+06,-1.0458,0,9.6372e+07,-0.8775,12109,11091,1,11091,1,-0.00047341,-4.5211e-10,0,2.0485e-06,-9.6225e-05,-1.9255e+08,-144.97,0,5.76e+05,-48.361,11090,11613,1,11613,1,-0.00023568,-1.1539e-10,0,0.00012801,-5.1661e-05,-9.5856e+07,-36.947,0,4.8253e+07,-7.1425,11612,12607,1,12607,1,0.00027635,2.7317e-10,0,0.00038402,4.4252e-05,9.6372e+07,89.313,0,1.4355e+08,5.7567,12606,574.93,0,574.93,0,0.00029551,3.1554e-10,0,0.00014861,5.5363e-05,1.1067e+08,100.22,0,5.5167e+07,10.563,574.93,1
1988,1.81,12110,1,12110,1,2.0448e-05,1.2284e-10,0,0.00025758,-3.7218e-06,7.2877,38.849,0,9.6448e+07,-1.6805,12109,13104,1,13104,1,0.00051694,1.1028e-09,0,0.00051694,8.9304e-05,1.7721e+08,353.44,0,1.9362e+08,21.662,13103,12110,1,12110,1,2.0448e-05,3.0666e-12,0,0.00025744,-3.7103e-06,7.3516e+06,0.96597,0,9.6907e+07,-0.76894,12109,11091,1,11091,1,-0.00047604,-5.4104e-10,0,2.0599e-06,-9.6759e-05,-1.9362e+08,-173.45,0,5.792e+05,-45.167,11090,11613,1,11613,1,-0.00023699,-1.1851e-10,0,0.00012872,-5.1948e-05,-9.6388e+07,-38.144,0,4.8521e+07,-7.2599,11612,12607,1,12607,1,0.00027788,3.4799e-10,0,0.00038615,4.4497e-05,9.6907e+07,114.53,0,1.4435e+08,6.6184,12606,574.93,0,574.93,0,0.00029715,3.6503e-10,0,0.00014944,5.5671e-05,1.1128e+08,115.84,0,5.5473e+07,11.486,574.93,1
1988,1.82,12110,1,12110,1,2.0561e-05,1.7077e-10,0,0.00025901,-3.7424e-06,3.6942,54.084,0,9.6981e+07,-1.2735,12109,13104,1,13104,1,0.00051979,1.1873e-09,0,0.00051979,8.9797e-05,1.7819e+08,374.29,0,1.9469e+08,24.612,13103,12110,1,12110,1,2.0561e-05,4.1737e-11,0,0.00025886,-3.7308e-06,7.3922e+06,12.896,0,9.7442e+07,-0.06284,12109,11091,1,11091,1,-0.00047867,-5.5182e-10,0,2.0713e-06,-9.7294e-05,-1.9469e+08,-176.9,0,5.8239e+05,-54.512,11090,11613,1,11613,1,-0.0002383,-1.2144e-10,0,0.00012943,-5.2235e-05,-9.6921e+07,-38.28,0,4.8789e+07,-8.8646,11612,12607,1,12607,1,0.00027942,4.4943e-10,0,0.00038829,4.4743e-05,9.7442e+07,143.11,0,1.4514e+08,9.5088,12606,574.93,0,574.93,0,0.00029879,4.2135e-10,0,0.00015026,5.5979e-05,1.119e+08,133.67,0,5.578e+07,13.689,574.93,1
1988,1.83,12110,1,12110,1,2.0674e-05,2.2799e-10,0,0.00026043,-3.763e-06,2.2925,72.365,0,9.7514e+07,0.54956,12109,13104,1,13104,1,0.00052265,7.7243e-10,0,0.00052265,9.0291e-05,1.7917e+08,233.18,0,1.9576e+08,25.996,13103,12110,1,12110,1,2.0674e-05,1.7284e-10,0,0.00026028,-3.7513e-06,7.4328e+06,55.629,0,9.7978e+07,1.6054,12109,11091,1,11091,1,-0.0004813,-1.0703e-10,0,2.0827e-06,-9.7829e-05,-1.9576e+08,-35.032,0,5.8561e+05,-46.946,11090,11613,1,11613,1,-0.00023961,2.7675e-11,0,0.00013014,-5.2522e-05,-9.7454e+07,8.5531,0,4.9057e+07,-4.2957,11612,12607,1,12607,1,0.00028096,4.0947e-10,0,0.00039042,4.4989e-05,9.7978e+07,131.42,0,1.4594e+08,6.6027,12606,574.93,0,574.93,0,0.00030043,2.2924e-10,0,0.00015109,5.6286e-05,1.1251e+08,72.62,0,5.6086e+07,10.116,574.93,1
1988,1.84,12110,1,12110,1,2.0787e-05,2.6718e-10,0,0.00026185,-3.7835e-06,6.9565,84.756,0,9.8046e+07,-3.2926,12109,13104,1,13104,1,0.0005255,1.4307e-09,0,0.0005255,9.0784e-05,1.8014e+08,458.79,0,1.9683e+08,28.837,13103,12110,1,12110,1,2.0787e-05,1.1997e-10,0,0.0002617,-3.7718e-06,7.4734e+06,37.85,0,9.8513e+07,-2.1813,12109,11091,1,11091,1,-0.00048393,-6.0841e-10,0,2.094e-06,-9.8363e-05,-1.9683e+08,-195.02,0,5.8879e+05,-65.61,11090,11613,1,11613,1,-0.00024092,-6.8308e-11,0,0.00013085,-5.2809e-05,-9.7986e+07,-21.598,0,4.9325e+07,-13.143,11612,12607,1,12607,1,0.00028249,6.0601e-10,0,0.00039255,4.5235e-05,9.8513e+07,189.53,0,1.4674e+08,8.9166,12606,574.93,0,574.93,0,0.00030207,4.7175e-10,0,0.00015192,5.6594e-05,1.1313e+08,149.81,0,5.6392e+07,15.564,574.93,1
1988,1.85,12110,1,12110,1,2.09e-05,1.7312e-10,0,0.00026328,-3.8041e-06,-2.3665,54.838,0,9.8579e+07,3.2358,12109,13104,1,13104,1,0.00052836,1.0267e-09,0,0.00052836,9.1277e-05,1.8112e+08,322.61,0,1.979e+08,44.579,13103,12110,1,12110,1,2.09e-05,7.9636e-11,0,0.00026313,-3.7923e-06,7.514e+06,25.126,0,9.9049e+07,1.6786,12109,11091,1,11091,1,-0.00048656,-3.2777e-10,0,2.1054e-06,-9.8898e-05,-1.979e+08,-105.1,0,5.9199e+05,-45.098,11090,11613,1,11613,1,-0.00024223,-3.1365e-11,0,0.00013156,-5.3096e-05,-9.8518e+07,-10.222,0,4.9593e+07,-4.3508,11612,12607,1,12607,1,0.00028403,3.4772e-10,0,0.00039469,4.5481e-05,9.9049e+07,110.73,0,1.4754e+08,7.8831,12606,574.93,0,574.93,0,0.00030371,2.8788e-10,0,0.00015274,5.6901e-05,1.1374e+08,91.13,0,5.6699e+07,12.821,574.93,1
1988,1.86,12110,1,12110,1,2.1013e-05,3.3867e-10,0,0.0002647,-3.8247e-06,5.6127,107.62,0,9.9113e+07,-4.4485,12109,13104,1,13104,1,0.00053122,1.1755e-09,0,0.00053122,9.1772e-05,1.821e+08,363.27,0,1.9897e+08,17.427,13103,12110,1,12110,1,2.1013e-05,2.3749e-10,0,0.00026455,-3.8128e-06,7.5547e+06,75.429,0,9.9585e+07,-2.1639,12109,11091,1,11091,1,-0.00048919,-1.3992e-10,0,2.1168e-06,-9.9433e-05,-1.9897e+08,-44.915,0,5.952e+05,-46.809,11090,11613,1,11613,1,-0.00024354,2.3625e-11,0,0.00013227,-5.3383e-05,-9.9051e+07,7.4829,0,4.9861e+07,-10.389,11612,12607,1,12607,1,0.00028556,6.1523e-10,0,0.00039682,4.5727e-05,9.9585e+07,198.53,0,1.4833e+08,4.7404,12606,574.93,0,574.93,0,0.00030536,3.5297e-10,0,0.00015357,5.7209e-05,1.1436e+08,112.12,0,5.7006e+07,12.272,574.93,1
1988,1.87,12110,1,12110,1,2.1126e-05,8.1641e-11,0,0.00026612,-3.8452e-06,11.727,25.92,0,9.9645e+07,-0.65464,12109,13104,1,13104,1,0.00053407,1.5382e-09,0,0.00053407,9.2264e-05,1.8308e+08,474.43,0,2.0004e+08,53.453,13103,12110,1,12110,1,2.1126e-05,-1.0809e-11,0,0.00026597,-3.8333e-06,7.5952e+06,-3.3398,0,1.0012e+08,-1.4833,12109,11091,1,11091,1,-0.00049182,-8.9281e-10,0,2.1282e-06,-9.9966e-05,-2.0004e+08,-286.17,0,5.9841e+05,-51.142,11090,11613,1,11613,1,-0.00024484,-2.9564e-10,0,0.00013298,-5.367e-05,-9.9583e+07,-94.933,0,5.0129e+07,-11.144,11612,12607,1,12607,1,0.00028709,4.1067e-10,0,0.00039895,4.5972e-05,1.0012e+08,129.08,0,1.4913e+08,10.593,12606,574.93,0,574.93,0,0.00030699,5.4712e-10,0,0.00015439,5.7516e-05,1.1497e+08,174.05,0,5.7312e+07,18.809,574.93,1
1988,1.88,12110,1,12110,1,2.1237e-05,-3.3297e-10,0,0.00026752,-3.8652e-06,-82.382,-106.08,0,1.0017e+08,51.486,12109,13104,1,13104,1,0.00053688,4.7901e-09,0,0.00053688,9.275e-05,1.8404e+08,1534.6,0,2.0109e+08,1742.2,13103,12110,1,12110,1,2.1237e-05,-4.7547e-11,0,0.00026737,-3.8533e-06,7.6351e+06,-15.331,0,1.0065e+08,25.614,12109,11091,1,11091,1,-0.00049441,-6.2663e-09,0,2.1388e-06,-0.00010049,-2.0109e+08,-2007.5,0,6.0142e+05,-121.91,11090,11613,1,11613,1,-0.00024613,-1.3725e-09,0,0.00013368,-5.3952e-05,-1.0011e+08,-433.59,0,5.0392e+07,-26.336,11612,12607,1,12607,1,0.0002886,6.8193e-10,0,0.00040105,4.6214e-05,1.0065e+08,216.62,0,1.4991e+08,68.511,12606,574.93,0,574.93,0,0.00030861,1.7593e-09,0,0.0001552,5.7818e-05,1.1558e+08,559.34,0,5.7613e+07,176.73,574.93,1
1988,1.89,12110,1,12110,1,2.135e-05,-1.4844e-11,0,0.00026895,-3.8859e-06,-92.008,-4.5675,0,1.007e+08,30.083,12109,13104,1,13104,1,0.00053974,9.6748e-10,0,0.00053974,9.3243e-05,1.8502e+08,309.42,0,2.0216e+08,1535,13103,12110,1,12110,1,2.135e-05,1.3923e-10,0,0.00026879,-3.874e-06,7.6759e+06,43.567,0,1.0118e+08,6.0744,12109,11091,1,11091,1,-0.00049704,-2.8924e-09,0,2.1502e-06,-0.00010103,-2.0216e+08,-926.43,0,6.0466e+05,-134.8,11090,11613,1,11613,1,-0.00024744,-7.9436e-11,0,0.0001344,-5.424e-05,-1.0064e+08,-26.037,0,5.0661e+07,-14.221,11612,12607,1,12607,1,0.00029014,3.1029e-10,0,0.00040319,4.646e-05,1.0118e+08,98.161,0,1.5071e+08,32.183,12606,574.93,0,574.93,0,0.00031025,5.7487e-10,0,0.00015603,5.8127e-05,1.1619e+08,183.23,0,5.792e+07,157.11,574.93,1
1988,1.9,12110,1,12110,1,2.1465e-05,2.4029e-10,0,0.00027039,-3.9069e-06,1.7161,76.247,0,1.0124e+08,-1.9917,12109,13104,1,13104,1,0.00054264,1.295e-09,0,0.00054264,9.3744e-05,1.8602e+08,400.1,0,2.0325e+08,31.401,13103,12110,1,12110,1,2.1465e-05,1.0085e-10,0,0.00027024,-3.8948e-06,7.7171e+06,31.098,0,1.0173e+08,-0.8016,12109,11091,1,11091,1,-0.00049971,-4.1721e-10,0,2.1623e-06,-0.00010157,-2.0325e+08,-133.77,0,6.08e+05,-43.73,11090,11613,1,11613,1,-0.00024877,-5.0115e-11,0,0.00013512,-5.4531e-05,-1.0118e+08,-15.685,0,5.0933e+07,-8.3164,11612,12607,1,12607,1,0.0002917,4.7625e-10,0,0.00040535,4.671e-05,1.0173e+08,153.56,0,1.5152e+08,6.8451,12606,574.93,0,574.93,0,0.00031192,3.9753e-10,0,0.00015687,5.8439e-05,1.1682e+08,126.29,0,5.8231e+07,13.143,574.93,1
1988,1.91,12110,1,12110,1,2.1578e-05,1.0302e-10,0,0.00027182,-3.9275e-06,17.388,32.693,0,1.0178e+08,-2.9449,12109,13104,1,13104,1,0.0005455,4.4432e-10,0,0.0005455,9.4238e-05,1.87e+08,142.51,0,2.0432e+08,19.65,13103,12110,1,12110,1,2.1578e-05,5.5203e-11,0,0.00027166,-3.9154e-06,7.7578e+06,17.79,0,1.0226e+08,-1.3473,12109,11091,1,11091,1,-0.00050234,-1.2719e-10,0,2.1738e-06,-0.00010211,-2.0432e+08,-43.556,0,6.1123e+05,-51.685,11090,11613,1,11613,1,-0.00025008,-2.6318e-12,0,0.00013583,-5.4818e-05,-1.0171e+08,-0.8486,0,5.1202e+07,-6.1292,11612,12607,1,12607,1,0.00029324,1.9351e-10,0,0.00040749,4.6956e-05,1.0226e+08,61.574,0,1.5232e+08,1.5709,12606,574.93,0,574.93,0,0.00031357,1.4092e-10,0,0.0001577,5.8747e-05,1.1743e+08,44.968,0,5.8538e+07,9.3765,574.93,1
1988,1.92,12110,1,12110,1,2.1691e-05,-1.3566e-11,0,0.00027324,-3.948e-06,4.8638,-4.3346,0,1.0231e+08,-2.6695,12109,13104,1,13104,1,0.00054835,2.6077e-11,0,0.00054835,9.4731e-05,1.8798e+08,8.0397,0,2.0539e+08,2.5095,13103,12110,1,12110,1,2.1691e-05,-8.6078e-12,0,0.00027308,-3.9358e-06,7.7984e+06,-2.7926,0,1.028e+08,-0.62223,12109,11091,1,11091,1,-0.00050497,-1.2027e-10,0,2.1851e-06,-0.00010264,-2.0539e+08,-35.75,0,6.1441e+05,-42.752,11090,11613,1,11613,1,-0.00025139,-2.6354e-11,0,0.00013654,-5.5105e-05,-1.0225e+08,-8.3075,0,5.1469e+07,-2.1059,11612,12607,1,12607,1,0.00029477,3.6332e-12,0,0.00040962,4.7202e-05,1.028e+08,1.1232,0,1.5312e+08,0.32637,12606,574.93,0,574.93,0,0.00031521,2.4729e-11,0,0.00015852,5.9055e-05,1.1805e+08,7.8668,0,5.8845e+07,6.428,574.93,1
1988,1.93,12110,1,12110,1,2.1802e-05,4.9727e-10,0,0.00027464,-3.9682e-06,-7.6983,157.53,0,1.0283e+08,21.663,12109,13104,1,13104,1,0.00055117,4.9223e-09,0,0.00055117,9.5218e-05,1.8894e+08,1577.8,0,2.0645e+08,1176.2,13103,12110,1,12110,1,2.1802e-05,2.8273e-10,0,0.00027448,-3.9559e-06,7.8384e+06,87.902,0,1.0332e+08,6.3699,12109,11091,1,11091,1,-0.00050757,-3.4777e-09,0,2.1961e-06,-0.00010317,-2.0645e+08,-1113.9,0,6.1752e+05,-102.33,11090,11613,1,11613,1,-0.00025268,-4.1265e-10,0,0.00013724,-5.5388e-05,-1.0277e+08,-133.91,0,5.1734e+07,-31.517,11612,12607,1,12607,1,0.00029629,1.5362e-09,0,0.00041173,4.7444e-05,1.0332e+08,485,0,1.539e+08,41.018,12606,574.93,0,574.93,0,0.00031682,1.591e-09,0,0.00015933,5.9357e-05,1.1865e+08,505.45,0,5.9146e+07,130.48,574.93,1
1988,1.94,12110,1,12110,1,2.1914e-05,-6.1058e-10,0,0.00027606,-3.9886e-06,-67.912,-194.15,0,1.0336e+08,32.477,12109,13104,1,13104,1,0.00055402,3.5826e-09,0,0.00055402,9.571e-05,1.8992e+08,1148.4,0,2.0751e+08,1160.9,13103,12110,1,12110,1,2.1914e-05,-4.9689e-11,0,0.0002759,-3.9761e-06,7.8787e+06,-15.453,0,1.0386e+08,15.465,12109,11091,1,11091,1,-0.00051019,-5.9937e-09,0,2.2073e-06,-0.0001037,-2.0751e+08,-1920.1,0,6.2063e+05,-112.68,11090,11613,1,11613,1,-0.00025399,-1.8161e-09,0,0.00013795,-5.5674e-05,-1.033e+08,-577.63,0,5.2001e+07,-24.166,11612,12607,1,12607,1,0.00029782,6.4762e-10,0,0.00041385,4.7689e-05,1.0386e+08,204.41,0,1.547e+08,65.633,12606,574.93,0,574.93,0,0.00031846,1.9525e-09,0,0.00016016,5.9663e-05,1.1926e+08,621.1,0,5.9451e+07,122.15,574.93,1
1988,1.95,12110,1,12110,1,2.2027e-05,-1.2418e-09,0,0.00027747,-4.0092e-06,-0.1761,-394.33,0,1.039e+08,5.1947,12109,13104,1,13104,1,0.00055687,2.8055e-09,0,0.00055687,9.6203e-05,1.909e+08,864.98,0,2.0858e+08,1081.5,13103,12110,1,12110,1,2.2027e-05,-7.8453e-10,0,0.00027732,-3.9967e-06,7.9191e+06,-240.98,0,1.0439e+08,-1.1451,12109,11091,1,11091,1,-0.00051282,-5.8352e-09,0,2.2185e-06,-0.00010423,-2.0858e+08,-1798.8,0,6.2391e+05,-190.16,11090,11613,1,11613,1,-0.00025529,-2.5174e-09,0,0.00013866,-5.596e-05,-1.0383e+08,-795.55,0,5.2268e+07,-41.486,11612,12607,1,12607,1,0.00029935,8.0654e-11,0,0.00041598,4.7934e-05,1.0439e+08,24.349,0,1.5549e+08,42.728,12606,574.93,0,574.93,0,0.00032009,1.8332e-09,0,0.00016098,5.997e-05,1.1988e+08,582.72,0,5.9757e+07,108.22,574.93,1
1988,1.96,12110,1,12110,1,2.2141e-05,-1.1717e-09,0,0.00027891,-4.0299e-06,-26.097,-372.04,0,1.0443e+08,20.596,12109,13104,1,13104,1,0.00055975,8.4509e-10,0,0.00055975,9.67e-05,1.9188e+08,289.43,0,2.0966e+08,1050.1,13103,12110,1,12110,1,2.2141e-05,-9.7351e-10,0,0.00027875,-4.0174e-06,7.9602e+06,-309.52,0,1.0493e+08,4.5066,12109,11091,1,11091,1,-0.00051546,-4.7755e-09,0,2.2302e-06,-0.00010477,-2.0966e+08,-1529.8,0,6.2711e+05,-156.56,11090,11613,1,11613,1,-0.00025661,-1.5521e-09,0,0.00013938,-5.625e-05,-1.0437e+08,-495.85,0,5.2538e+07,-23.288,11612,12607,1,12607,1,0.00030089,-4.6336e-10,0,0.00041813,4.8182e-05,1.0493e+08,-145.39,0,1.563e+08,36.692,12606,574.93,0,574.93,0,0.00032175,1.0832e-09,0,0.00016181,6.028e-05,1.205e+08,344.25,0,6.0066e+07,121.31,574.93,1
1988,1.97,12110,1,12110,1,2.2253e-05,-1.9516e-09,0,0.00028032,-4.0503e-06,-60.281,-620.24,0,1.0496e+08,12.764,12109,13104,1,13104,1,0.00056261,6.4908e-09,0,0.00056261,9.7194e-05,1.9286e+08,2000.6,0,2.1073e+08,1080.2,13103,12110,1,12110,1,2.2253e-05,-9.8802e-10,0,0.00028017,-4.0379e-06,8.0003e+06,-302.73,0,1.0546e+08,-11.739,12109,11091,1,11091,1,-0.0005181,-1.1155e-08,0,2.2409e-06,-0.00010531,-2.1073e+08,-3575.5,0,6.2997e+05,-352.99,11090,11613,1,11613,1,-0.00025791,-4.9477e-09,0,0.00014008,-5.6535e-05,-1.049e+08,-1570.3,0,5.2804e+07,-87.541,11612,12607,1,12607,1,0.00030242,8.0355e-10,0,0.00042025,4.8426e-05,1.0546e+08,255.43,0,1.5709e+08,113.88,12606,574.93,0,574.93,0,0.00032338,4.0239e-09,0,0.00016263,6.0585e-05,1.2111e+08,1279.7,0,6.037e+07,150.18,574.93,1
1988,1.98,12110,1,12110,1,2.2368e-05,-2.5922e-09,0,0.00028176,-4.0711e-06,88.581,-823.39,0,1.055e+08,32.906,12109,13104,1,13104,1,0.00056548,1.243e-09,0,0.00056548,9.769e-05,1.9385e+08,420.02,0,2.118e+08,2650.2,13103,12110,1,12110,1,2.2367e-05,-2.8057e-09,0,0.0002816,-4.0584e-06,8.0414e+06,-899.04,0,1.06e+08,6.4226,12109,11091,1,11091,1,-0.00052074,-6.0054e-09,0,2.2528e-06,-0.00010585,-2.118e+08,-1923.9,0,6.3367e+05,-242.38,11090,11613,1,11613,1,-0.00025923,-4.0849e-09,0,0.0001408,-5.6824e-05,-1.0543e+08,-1317.6,0,5.3074e+07,-48.121,11612,12607,1,12607,1,0.00030397,-1.1494e-09,0,0.0004224,4.8674e-05,1.06e+08,-357.31,0,1.5789e+08,54.982,12606,574.93,0,574.93,0,0.00032503,1.768e-09,0,0.00016346,6.0896e-05,1.2173e+08,560.71,0,6.0679e+07,264.6,574.93,1
1988,1.99,12110,1,12110,1,2.2479e-05,-2.2842e-09,0,0.00028316,-4.0914e-06,-129.53,-725.11,0,1.0603e+08,12.815,12109,13104,1,13104,1,0.0005683,3.9171e-09,0,0.0005683,9.8178e-05,1.9482e+08,1255.5,0,2.1286e+08,1012.2,13103,12110,1,12110,1,2.2478e-05,-2.3457e-09,0,0.000283,-4.0787e-06,8.0812e+06,-735.06,0,1.0653e+08,5.1432,12109,11091,1,11091,1,-0.00052334,-6.7187e-09,0,2.2635e-06,-0.00010637,-2.1286e+08,-2117.5,0,6.3645e+05,-353.29,11090,11613,1,11613,1,-0.00026053,-4.3131e-09,0,0.0001415,-5.7108e-05,-1.0596e+08,-1379.2,0,5.3339e+07,-46.61,11612,12607,1,12607,1,0.00030548,-1.3902e-10,0,0.00042451,4.8917e-05,1.0653e+08,-41.957,0,1.5868e+08,80.903,12606,574.93,0,574.93,0,0.00032666,2.4149e-09,0,0.00016428,6.12e-05,1.2234e+08,766.95,0,6.0982e+07,134.39,574.93,1
1988,2,12110,1,12110,1,2.2595e-05,1.0385e-10,0,0.00028462,-4.1126e-06,-6.1292,33.034,0,1.0657e+08,-0.49932,12109,13104,1,13104,1,0.0005712,3.2411e-10,0,0.0005712,9.8679e-05,1.9581e+08,103.93,0,2.1395e+08,27.968,13103,12110,1,12110,1,2.2595e-05,9.2696e-11,0,0.00028446,-4.0998e-06,8.1234e+06,29.326,0,1.0708e+08,0.77909,12109,11091,1,11091,1,-0.00052601,-1.1595e-10,0,2.2763e-06,-0.00010692,-2.1395e+08,-37.233,0,6.4005e+05,-44.432,11090,11613,1,11613,1,-0.00026187,1.1815e-11,0,0.00014223,-5.7402e-05,-1.0651e+08,3.7265,0,5.3614e+07,-2.0808,11612,12607,1,12607,1,0.00030706,1.9708e-10,0,0.00042669,4.9169e-05,1.0708e+08,62.419,0,1.595e+08,2.8986,12606,574.93,0,574.93,0,0.00032834,1.0251e-10,0,0.00016513,6.1515e-05,1.2297e+08,32.731,0,6.1297e+07,7.9938,574.93,1
1988,2.01,12110,1,12110,1,2.2708e-05,6.1922e-11,0,0.00028605,-4.1331e-06,-5.0044,19.78,0,1.0711e+08,0.19526,12109,13104,1,13104,1,0.00057406,7.4132e-10,0,0.00057406,9.9172e-05,1.9679e+08,237.74,0,2.1502e+08,23.887,13103,12110,1,12110,1,2.2708e-05,8.5673e-12,0,0.00028588,-4.1204e-06,8.164e+06,2.828,0,1.0762e+08,0.51176,12109,11091,1,11091,1,-0.00052864,-3.2933e-10,0,2.2878e-06,-0.00010745,-2.1502e+08,-105.62,0,6.433e+05,-44.415,11090,11613,1,11613,1,-0.00026318,-6.8751e-11,0,0.00014294,-5.7688e-05,-1.0704e+08,-21.477,0,5.3882e+07,-3.4341,11612,12607,1,12607,1,0.00030859,1.7695e-10,0,0.00042883,4.9414e-05,1.0762e+08,55.298,0,1.603e+08,5.8025,12606,574.93,0,574.93,0,0.00032998,1.9653e-10,0,0.00016595,6.1823e-05,1.2358e+08,62.908,0,6.1603e+07,9.5307,574.93,1
1988,2.02,12110,1,12110,1,2.2819e-05,-1.7216e-09,0,0.00028744,-4.1532e-06,64.05,-547.36,0,1.0763e+08,62.446,12109,13104,1,13104,1,0.00057688,2.9352e-09,0,0.00057688,9.9659e-05,1.9775e+08,944.29,0,2.1607e+08,3837.3,13103,12110,1,12110,1,2.2818e-05,-1.2332e-09,0,0.00028728,-4.1403e-06,8.204e+06,-394.89,0,1.0814e+08,-3.3367,12109,11091,1,11091,1,-0.00053124,-7.7918e-09,0,2.2989e-06,-0.00010798,-2.1607e+08,-2497.1,0,6.4651e+05,-641.34,11090,11613,1,11613,1,-0.00026446,-3.0908e-09,0,0.00014364,-5.797e-05,-1.0756e+08,-976.07,0,5.4145e+07,-42.711,11612,12607,1,12607,1,0.0003101,-8.1951e-11,0,0.00043092,4.9655e-05,1.0814e+08,-24.237,0,1.6108e+08,41.669,12606,574.93,0,574.93,0,0.00033159,1.935e-09,0,0.00016676,6.2124e-05,1.2418e+08,614.21,0,6.1903e+07,412.04,574.93,1
1988,2.03,12110,1,12110,1,2.2933e-05,-9.8309e-10,0,0.00028887,-4.174e-06,132.46,-312.62,0,1.0816e+08,38.955,12109,13104,1,13104,1,0.00057975,1.706e-09,0,0.00057975,0.00010015,1.9873e+08,547.91,0,2.1715e+08,2358.7,13103,12110,1,12110,1,2.2933e-05,-5.293e-10,0,0.00028871,-4.1606e-06,8.245e+06,-164.44,0,1.0868e+08,-2.7565,12109,11091,1,11091,1,-0.00053388,-4.54e-09,0,2.3107e-06,-0.00010852,-2.1715e+08,-1399.5,0,6.4988e+05,-114.66,11090,11613,1,11613,1,-0.00026578,-2.0115e-09,0,0.00014435,-5.8259e-05,-1.081e+08,-649.5,0,5.4415e+07,-29.757,11612,12607,1,12607,1,0.00031164,1.8527e-10,0,0.00043307,4.9903e-05,1.0868e+08,60.195,0,1.6188e+08,38.631,12606,574.93,0,574.93,0,0.00033324,1.4765e-09,0,0.00016759,6.2434e-05,1.248e+08,468.71,0,6.2211e+07,235.62,574.93,1
1988,2.04,12110,1,12110,1,2.3046e-05,6.1006e-10,0,0.0002903,-4.1945e-06,54.666,193.72,0,1.087e+08,85.379,12109,13104,1,13104,1,0.0005826,8.5684e-09,0,0.0005826,0.00010065,1.9971e+08,2749.1,0,2.1821e+08,4264,13103,12110,1,12110,1,2.3046e-05,2.9545e-10,0,0.00029013,-4.1809e-06,8.2858e+06,95.125,0,1.0922e+08,18.32,12109,11091,1,11091,1,-0.0005365,-3.4216e-09,0,2.322e-06,-0.00010905,-2.1821e+08,-1096.4,0,6.5307e+05,-78.989,11090,11613,1,11613,1,-0.00026709,-6.3765e-10,0,0.00014507,-5.8546e-05,-1.0863e+08,-197.94,0,5.4683e+07,-20.639,11612,12607,1,12607,1,0.00031318,1.6731e-09,0,0.0004352,5.0149e-05,1.0922e+08,528.03,0,1.6268e+08,77.164,12606,574.93,0,574.93,0,0.00033489,1.9377e-09,0,0.00016842,6.2742e-05,1.2542e+08,616.31,0,6.2518e+07,391.91,574.93,1
1988,2.05,12110,1,12110,1,2.3159e-05,-2.3678e-09,0,0.00029171,-4.2151e-06,262,-752.65,0,1.0923e+08,44.596,12109,13104,1,13104,1,0.00058546,5.0533e-09,0,0.00058546,0.00010114,2.0069e+08,1621.1,0,2.1929e+08,3447.1,13103,12110,1,12110,1,2.3158e-05,-1.7421e-09,0,0.00029155,-4.2018e-06,8.326e+06,-551.81,0,1.0975e+08,-7.8629,12109,11091,1,11091,1,-0.00053914,-9.4071e-09,0,2.3337e-06,-0.00010959,-2.1929e+08,-2909.5,0,6.5644e+05,-238.48,11090,11613,1,11613,1,-0.00026839,-4.843e-09,0,0.00014577,-5.8832e-05,-1.0916e+08,-1555.2,0,5.4949e+07,-69.294,11612,12607,1,12607,1,0.00031471,2.9208e-10,0,0.00043732,5.0393e-05,1.0975e+08,93.88,0,1.6347e+08,89.873,12606,574.93,0,574.93,0,0.00033651,3.1745e-09,0,0.00016924,6.3047e-05,1.2603e+08,1008.1,0,6.2822e+07,315.58,574.93,1
1988,2.06,12110,1,12110,1,2.3272e-05,-1.35e-09,0,0.00029313,-4.2356e-06,166.83,-428.93,0,1.0976e+08,56.205,12109,13104,1,13104,1,0.00058831,8.6958e-09,0,0.00058831,0.00010163,2.0166e+08,2788.3,0,2.2035e+08,2590.8,13103,12110,1,12110,1,2.3271e-05,-7.9247e-10,0,0.00029297,-4.2221e-06,8.3666e+06,-257.61,0,1.1028e+08,3.7704,12109,11091,1,11091,1,-0.00054176,-8.5397e-09,0,2.345e-06,-0.00011012,-2.2035e+08,-2736.8,0,6.5961e+05,-177.7,11090,11613,1,11613,1,-0.0002697,-4.1667e-09,0,0.00014648,-5.9118e-05,-1.0969e+08,-1297.5,0,5.5217e+07,-70.92,11612,12607,1,12607,1,0.00031624,9.5553e-10,0,0.00043945,5.0639e-05,1.1028e+08,303.06,0,1.6427e+08,111.21,12606,574.93,0,574.93,0,0.00033815,3.5398e-09,0,0.00017006,6.3354e-05,1.2664e+08,1124.6,0,6.3128e+07,279.89,574.93,1
1988,2.07,12110,1,12110,1,2.3384e-05,-1.7822e-09,0,0.00029455,-4.2561e-06,100.88,-566.28,0,1.1029e+08,56.964,12109,13104,1,13104,1,0.00059115,5.1306e-09,0,0.00059115,0.00010213,2.0264e+08,1646.2,0,2.2142e+08,3161.1,13103,12110,1,12110,1,2.3384e-05,-9.6263e-10,0,0.00029439,-4.2423e-06,8.4071e+06,-305.23,0,1.1082e+08,4.9723,12109,11091,1,11091,1,-0.00054438,-9.236e-09,0,2.3564e-06,-0.00011065,-2.2142e+08,-2847.1,0,6.6282e+05,-183.89,11090,11613,1,11613,1,-0.000271,-4.0996e-09,0,0.00014719,-5.9405e-05,-1.1022e+08,-1317.3,0,5.5485e+07,-59.341,11612,12607,1,12607,1,0.00031777,4.8374e-10,0,0.00044158,5.0884e-05,1.1082e+08,151.78,0,1.6506e+08,95.274,12606,574.93,0,574.93,0,0.00033979,3.2346e-09,0,0.00017088,6.366e-05,1.2725e+08,1027.2,0,6.3433e+07,306.89,574.93,1
1988,2.08,12110,1,12110,1,2.3499e-05,-2.498e-09,0,0.00029598,-4.277e-06,245.08,-794.53,0,1.1083e+08,7.4254,12109,13104,1,13104,1,0.00059404,1.7991e-09,0,0.00059404,0.00010262,2.0362e+08,616.16,0,2.225e+08,1697.4,13103,12110,1,12110,1,2.3498e-05,-2.151e-09,0,0.00029582,-4.2641e-06,8.4481e+06,-696.29,0,1.1136e+08,-25.642,12109,11091,1,11091,1,-0.00054704,-7.9272e-09,0,2.3683e-06,-0.00011119,-2.225e+08,-2475.6,0,6.662e+05,-375.94,11090,11613,1,11613,1,-0.00027232,-3.8195e-09,0,0.00014791,-5.9693e-05,-1.1076e+08,-1197.6,0,5.5754e+07,-66.717,11612,12607,1,12607,1,0.00031932,-9.7784e-10,0,0.00044373,5.1131e-05,1.1136e+08,-299.27,0,1.6587e+08,29.358,12606,574.93,0,574.93,0,0.00034145,2.2228e-09,0,0.00017172,6.3971e-05,1.2787e+08,706.02,0,6.3743e+07,177.66,574.93,1
1988,2.09,12110,1,12110,1,2.361e-05,-2.3009e-09,0,0.00029739,-4.2973e-06,134.34,-731.15,0,1.1135e+08,32.262,12109,13104,1,13104,1,0.00059687,5.9731e-09,0,0.00059687,0.00010311,2.0459e+08,1917.3,0,2.2356e+08,2552.6,13103,12110,1,12110,1,2.361e-05,-1.467e-09,0,0.00029723,-4.284e-06,8.4882e+06,-457.65,0,1.1189e+08,-10.411,12109,11091,1,11091,1,-0.00054965,-1.0423e-08,0,2.3794e-06,-0.00011172,-2.2356e+08,-3262.9,0,6.6926e+05,-248.37,11090,11613,1,11613,1,-0.00027362,-5.1814e-09,0,0.00014861,-5.9978e-05,-1.1129e+08,-1622,0,5.602e+07,-82.624,11612,12607,1,12607,1,0.00032084,4.5253e-10,0,0.00044584,5.1375e-05,1.1189e+08,143.76,0,1.6666e+08,89.94,12606,574.93,0,574.93,0,0.00034307,3.7062e-09,0,0.00017253,6.4275e-05,1.2848e+08,1177,0,6.4046e+07,256.51,574.93,1
1988,2.1,12110,1,12110,1,2.3724e-05,-1.1867e-09,0,0.00029882,-4.3178e-06,150.5,-377.08,0,1.1189e+08,67.916,12109,13104,1,13104,1,0.00059972,7.0027e-09,0,0.00059972,0.0001036,2.0557e+08,2246.2,0,2.2463e+08,3427.8,13103,12110,1,12110,1,2.3723e-05,-6.0588e-10,0,0.00029865,-4.3038e-06,8.5293e+06,-195.82,0,1.1242e+08,9.3937,12109,11091,1,11091,1,-0.00055227,-8.1862e-09,0,2.3911e-06,-0.00011225,-2.2463e+08,-2560.9,0,6.7263e+05,-145.74,11090,11613,1,11613,1,-0.00027493,-3.5994e-09,0,0.00014933,-6.0266e-05,-1.1182e+08,-1141,0,5.6289e+07,-54.02,11612,12607,1,12607,1,0.00032238,9.3847e-10,0,0.00044798,5.1621e-05,1.1242e+08,298.03,0,1.6746e+08,105.21,12606,574.93,0,574.93,0,0.00034472,3.2643e-09,0,0.00017336,6.4583e-05,1.291e+08,1037.3,0,6.4353e+07,318.07,574.93,1
1988,2.11,12110,1,12110,1,2.3837e-05,-1.6289e-09,0,0.00030024,-4.3385e-06,167.77,-517.5,0,1.1242e+08,45.94,12109,13104,1,13104,1,0.00060258,5.1218e-09,0,0.00060258,0.0001041,2.0655e+08,1642.1,0,2.257e+08,2160,13103,12110,1,12110,1,2.3837e-05,-7.0703e-10,0,0.00030008,-4.3249e-06,8.5699e+06,-222.19,0,1.1296e+08,-7.9628,12109,11091,1,11091,1,-0.0005549,-9.5544e-09,0,2.4027e-06,-0.00011279,-2.257e+08,-3062.2,0,6.7592e+05,-170.77,11090,11613,1,11613,1,-0.00027624,-3.5857e-09,0,0.00015004,-6.0553e-05,-1.1235e+08,-1141.1,0,5.6557e+07,-56.033,11612,12607,1,12607,1,0.00032391,4.7919e-10,0,0.00045012,5.1867e-05,1.1296e+08,153.71,0,1.6826e+08,61.98,12606,574.93,0,574.93,0,0.00034636,2.9306e-09,0,0.00017419,6.4891e-05,1.2971e+08,930.94,0,6.466e+07,263.18,574.93,1
1988,2.12,12110,1,12110,1,2.3952e-05,-3.3815e-12,0,0.0003017,-4.3596e-06,-4.16,-1.1822,0,1.1297e+08,-1.6469,12109,13104,1,13104,1,0.00060547,5.7217e-10,0,0.00060547,0.0001046,2.0754e+08,183.51,0,2.2678e+08,21.603,13103,12110,1,12110,1,2.3952e-05,-2.0718e-11,0,0.00030153,-4.3461e-06,8.6114e+06,-6.6537,0,1.1351e+08,-0.58679,12109,11091,1,11091,1,-0.00055757,-4.3819e-10,0,2.4145e-06,-0.00011333,-2.2678e+08,-140.5,0,6.7909e+05,-46.46,11090,11613,1,11613,1,-0.00027758,-1.485e-10,0,0.00015076,-6.0846e-05,-1.129e+08,-47.265,0,5.6831e+07,-4.7241,11612,12607,1,12607,1,0.00032548,1.2539e-10,0,0.00045229,5.2118e-05,1.1351e+08,40.2,0,1.6907e+08,4.5804,12606,574.93,0,574.93,0,0.00034804,2.0636e-10,0,0.00017503,6.5206e-05,1.3034e+08,65.666,0,6.4973e+07,9.8401,574.93,1
1988,2.13,12110,1,12110,1,2.4061e-05,-4.131e-09,0,0.00030308,-4.3793e-06,-189.47,-1313,0,1.1348e+08,60.371,12109,13104,1,13104,1,0.0006083,6.7579e-09,0,0.0006083,0.00010509,2.0851e+08,2168.5,0,2.2784e+08,3285.6,13103,12110,1,12110,1,2.406e-05,-3.0734e-09,0,0.00030291,-4.3649e-06,8.6502e+06,-973.26,0,1.1403e+08,4.5374,12109,11091,1,11091,1,-0.00056017,-1.6075e-08,0,2.4241e-06,-0.00011386,-2.2784e+08,-4986.1,0,6.8196e+05,-364.15,11090,11613,1,11613,1,-0.00027885,-8.641e-09,0,0.00015145,-6.1125e-05,-1.1341e+08,-2751.2,0,5.7091e+07,-107.95,11612,12607,1,12607,1,0.00032697,3.0347e-10,0,0.00045437,5.2357e-05,1.1403e+08,101.04,0,1.6984e+08,150.44,12606,574.93,0,574.93,0,0.00034963,5.5178e-09,0,0.00017583,6.5503e-05,1.3094e+08,1752.4,0,6.5269e+07,353.64,574.93,1
1988,2.14,12110,1,12110,1,2.4176e-05,-9.5599e-10,0,0.00030452,-4.4001e-06,42.971,-303.57,0,1.1402e+08,99.292,12109,13104,1,13104,1,0.00061115,7.6378e-09,0,0.00061115,0.00010558,2.0948e+08,2448.6,0,2.2891e+08,2642.5,13103,12110,1,12110,1,2.4176e-05,-5.7228e-10,0,0.00030435,-4.386e-06,8.692e+06,-182.56,0,1.1457e+08,38.749,12109,11091,1,11091,1,-0.00056279,-6.6668e-09,0,2.4371e-06,-0.00011439,-2.2891e+08,-2066.7,0,6.8552e+05,-283.59,11090,11613,1,11613,1,-0.00028017,-2.6364e-09,0,0.00015217,-6.1414e-05,-1.1395e+08,-834.19,0,5.7362e+07,-15.537,11612,12607,1,12607,1,0.00032852,5.7016e-10,0,0.00045652,5.2605e-05,1.1457e+08,175.72,0,1.7065e+08,109.99,12606,574.93,0,574.93,0,0.00035129,2.4641e-09,0,0.00017667,6.5815e-05,1.3156e+08,782.11,0,6.558e+07,320.58,574.93,1
1988,2.15,12110,1,12110,1,2.4289e-05,-1.4016e-09,0,0.00030593,-4.4207e-06,215.11,-445.2,0,1.1455e+08,50.635,12109,13104,1,13104,1,0.00061399,7.7508e-09,0,0.00061399,0.00010607,2.1045e+08,2485.1,0,2.2997e+08,2940.2,13103,12110,1,12110,1,2.4288e-05,-6.3299e-10,0,0.00030576,-4.4068e-06,8.7324e+06,-206.7,0,1.151e+08,-0.30854,12109,11091,1,11091,1,-0.00056541,-9.7742e-09,0,2.4489e-06,-0.00011493,-2.2997e+08,-3013,0,6.8893e+05,-174.59,11090,11613,1,11613,1,-0.00028147,-4.0731e-09,0,0.00015288,-6.17e-05,-1.1448e+08,-1284.7,0,5.7628e+07,-64.041,11612,12607,1,12607,1,0.00033005,1.08e-09,0,0.00045864,5.2849e-05,1.151e+08,337.59,0,1.7144e+08,98.546,12606,574.93,0,574.93,0,0.00035292,3.7186e-09,0,0.00017749,6.612e-05,1.3217e+08,1181.3,0,6.5883e+07,285.88,574.93,1
1988,2.16,12110,1,12110,1,2.4402e-05,-1.9557e-09,0,0.00030736,-4.4413e-06,-67.874,-621.76,0,1.1509e+08,79.43,12109,13104,1,13104,1,0.00061686,6.5159e-09,0,0.00061686,0.00010657,2.1144e+08,2090.2,0,2.3105e+08,3503.1,13103,12110,1,12110,1,2.4401e-05,-1.6308e-09,0,0.00030719,-4.4268e-06,8.7731e+06,-523.98,0,1.1564e+08,6.3668,12109,11091,1,11091,1,-0.00056806,-8.0022e-09,0,2.4598e-06,-0.00011546,-2.3105e+08,-2565.3,0,6.9202e+05,-176.43,11090,11613,1,11613,1,-0.00028279,-4.0587e-09,0,0.00015359,-6.1988e-05,-1.1502e+08,-1301.8,0,5.7898e+07,-39.624,11612,12607,1,12607,1,0.00033159,1.6002e-10,0,0.00046078,5.3097e-05,1.1564e+08,51.397,0,1.7224e+08,99.431,12606,574.93,0,574.93,0,0.00035457,2.6239e-09,0,0.00017832,6.6429e-05,1.3279e+08,833.27,0,6.6192e+07,342.82,574.93,1
1988,2.17,12110,1,12110,1,2.4516e-05,-9.5045e-10,0,0.0003088,-4.4622e-06,-36.35,-301.88,0,1.1562e+08,29.478,12109,13104,1,13104,1,0.00061973,4.8415e-09,0,0.00061973,0.00010706,2.1242e+08,1552.8,0,2.3212e+08,2062.9,13103,12110,1,12110,1,2.4516e-05,-5.1745e-10,0,0.00030862,-4.4485e-06,8.8141e+06,-165.5,0,1.1618e+08,-1.3959,12109,11091,1,11091,1,-0.0005707,-5.8521e-09,0,2.4716e-06,-0.000116,-2.3212e+08,-1826.6,0,6.9526e+05,-179.63,11090,11613,1,11613,1,-0.00028411,-2.3668e-09,0,0.00015431,-6.2277e-05,-1.1555e+08,-750.48,0,5.8168e+07,-35.91,11612,12607,1,12607,1,0.00033314,3.8372e-10,0,0.00046293,5.3344e-05,1.1618e+08,122.18,0,1.7305e+08,57.75,12606,574.93,0,574.93,0,0.00035622,2.0708e-09,0,0.00017915,6.6739e-05,1.3341e+08,657.7,0,6.6501e+07,185.06,574.93,1
1988,2.18,12110,1,12110,1,2.4629e-05,-1.0825e-09,0,0.0003102,-4.4826e-06,144.47,-343.94,0,1.1615e+08,61.839,12109,13104,1,13104,1,0.00062256,6.4981e-09,0,0.00062256,0.00010755,2.1339e+08,2083.4,0,2.3318e+08,2842.5,13103,12110,1,12110,1,2.4628e-05,-3.4562e-10,0,0.00031003,-4.4684e-06,8.8546e+06,-106.8,0,1.1671e+08,5.9813,12109,11091,1,11091,1,-0.0005733,-8.7655e-09,0,2.4834e-06,-0.00011653,-2.3318e+08,-2702.1,0,6.9871e+05,-148.2,11090,11613,1,11613,1,-0.0002854,-3.4116e-09,0,0.00015501,-6.2562e-05,-1.1608e+08,-1065.6,0,5.8433e+07,-61.401,11612,12607,1,12607,1,0.00033466,1.0759e-09,0,0.00046505,5.3588e-05,1.1671e+08,337.79,0,1.7384e+08,98.989,12606,574.93,0,574.93,0,0.00035785,3.3172e-09,0,0.00017997,6.7044e-05,1.3402e+08,1053.7,0,6.6804e+07,295.49,574.93,1
1988,2.19,12110,1,12110,1,2.4742e-05,-1.0531e-09,0,0.00031164,-4.5033e-06,50.075,-334.63,0,1.1669e+08,53.465,12109,13104,1,13104,1,0.00062543,3.1826e-09,0,0.00062543,0.00010805,2.1437e+08,1021.3,0,2.3426e+08,2291.1,13103,12110,1,12110,1,2.4742e-05,-6.4654e-10,0,0.00031146,-4.4892e-06,8.8955e+06,-206.63,0,1.1725e+08,2.7823,12109,11091,1,11091,1,-0.00057595,-6.0767e-09,0,2.4949e-06,-0.00011707,-2.3426e+08,-1947.8,0,7.0191e+05,-77.279,11090,11613,1,11613,1,-0.00028672,-2.3659e-09,0,0.00015573,-6.2851e-05,-1.1662e+08,-750.99,0,5.8703e+07,-27.573,11612,12607,1,12607,1,0.0003362,2.5789e-10,0,0.00046719,5.3835e-05,1.1725e+08,81.949,0,1.7464e+08,48.706,12606,574.93,0,574.93,0,0.0003595,1.8075e-09,0,0.0001808,6.7354e-05,1.3464e+08,574.11,0,6.7113e+07,267.78,574.93,1
1988,2.2,12110,1,12110,1,2.4856e-05,-3.5432e-09,0,0.00031306,-4.5241e-06,284.11,-1126.8,0,1.1722e+08,30.682,12109,13104,1,13104,1,0.00062832,2.2707e-09,0,0.00062832,0.00010855,2.1536e+08,777.68,0,2.3534e+08,3250.8,13103,12110,1,12110,1,2.4855e-05,-3.4297e-09,0,0.00031289,-4.5094e-06,8.9363e+06,-1091.2,0,1.1778e+08,-9.2684,12109,11091,1,11091,1,-0.00057861,-1.01e-08,0,2.5066e-06,-0.00011761,-2.3534e+08,-3113.6,0,7.0535e+05,-355.9,11090,11613,1,11613,1,-0.00028803,-5.1673e-09,0,0.00015644,-6.3138e-05,-1.1715e+08,-1646.5,0,5.8972e+07,-84.627,11612,12607,1,12607,1,0.00033774,-1.5382e-09,0,0.00046933,5.4081e-05,1.1778e+08,-484.56,0,1.7544e+08,76.933,12606,574.93,0,574.93,0,0.00036115,2.7802e-09,0,0.00018163,6.7662e-05,1.3525e+08,883.74,0,6.742e+07,319.11,574.93,1
1988,2.21,12110,1,12110,1,2.4968e-05,-1.4015e-09,0,0.00031447,-4.5443e-06,5.9414,-445.35,0,1.1775e+08,56.672,12109,13104,1,13104,1,0.00063114,6.5565e-09,0,0.00063114,0.00010903,2.1632e+08,2102.2,0,2.3639e+08,2831.1,13103,12110,1,12110,1,2.4967e-05,-8.5998e-10,0,0.0003143,-4.53e-06,8.9764e+06,-280.64,0,1.1831e+08,9.0156,12109,11091,1,11091,1,-0.0005812,-8.4057e-09,0,2.5175e-06,-0.00011814,-2.3639e+08,-2603,0,7.0835e+05,-169.71,11090,11613,1,11613,1,-0.00028933,-3.521e-09,0,0.00015715,-6.3423e-05,-1.1768e+08,-1108.5,0,5.9237e+07,-46.531,11612,12607,1,12607,1,0.00033927,5.2543e-10,0,0.00047145,5.4325e-05,1.1831e+08,166.39,0,1.7623e+08,95.188,12606,574.93,0,574.93,0,0.00036278,3.0169e-09,0,0.00018244,6.7967e-05,1.3586e+08,957.77,0,6.7723e+07,271.93,574.93,1
1988,2.22,12110,1,12110,1,2.5083e-05,-1.9085e-09,0,0.00031592,-4.5653e-06,22.992,-604.81,0,1.1829e+08,5.7236,12109,13104,1,13104,1,0.00063403,1.5558e-09,0,0.00063403,0.00010953,2.1731e+08,499.82,0,2.3748e+08,581.99,13103,12110,1,12110,1,2.5082e-05,-1.6036e-09,0,0.00031574,-4.5511e-06,9.0176e+06,-506.92,0,1.1885e+08,-8.3009,12109,11091,1,11091,1,-0.00058386,-6.5697e-09,0,2.5297e-06,-0.00011868,-2.3748e+08,-2079.8,0,7.117e+05,-202.23,11090,11613,1,11613,1,-0.00029065,-3.5762e-09,0,0.00015787,-6.3713e-05,-1.1822e+08,-1130.8,0,5.9509e+07,-54.922,11612,12607,1,12607,1,0.00034082,2.1215e-12,0,0.00047361,5.4574e-05,1.1885e+08,0.64761,0,1.7704e+08,54.509,12606,574.93,0,574.93,0,0.00036444,2.1173e-09,0,0.00018328,6.8278e-05,1.3648e+08,670.68,0,6.8033e+07,100.7,574.93,1
1988,2.23,12110,1,12110,1,2.5196e-05,-7.835e-10,0,0.00031734,-4.5859e-06,67.272,-248.38,0,1.1882e+08,15.482,12109,13104,1,13104,1,0.00063687,2.2477e-09,0,0.00063687,0.00011002,2.1828e+08,708.37,0,2.3854e+08,959.39,13103,12110,1,12110,1,2.5196e-05,-4.6928e-10,0,0.00031716,-4.5717e-06,9.0585e+06,-148.53,0,1.1939e+08,-6.1019,12109,11091,1,11091,1,-0.00058647,-4.0189e-09,0,2.5418e-06,-0.00011921,-2.3854e+08,-1280.8,0,7.1511e+05,-125.89,11090,11613,1,11613,1,-0.00029196,-1.7777e-09,0,0.00015858,-6.4e-05,-1.1875e+08,-576.81,0,5.9776e+07,-35.433,11612,12607,1,12607,1,0.00034235,1.9278e-10,0,0.00047574,5.4819e-05,1.1939e+08,59.458,0,1.7783e+08,33.922,12606,574.93,0,574.93,0,0.00036608,1.4056e-09,0,0.0001841,6.8585e-05,1.371e+08,446.03,0,6.8339e+07,134.42,574.93,1
1988,2.24,12110,1,12110,1,2.531e-05,-5.801e-10,0,0.00031877,-4.6068e-06,58.748,-183.61,0,1.1936e+08,16.148,12109,13104,1,13104,1,0.00063974,4.1673e-10,0,0.00063974,0.00011052,2.1927e+08,142.72,0,2.3962e+08,798.31,13103,12110,1,12110,1,2.531e-05,-5.5597e-10,0,0.00031859,-4.592e-06,9.0996e+06,-177,0,1.1993e+08,-2.1883,12109,11091,1,11091,1,-0.00058912,-1.8801e-09,0,2.5537e-06,-0.00011975,-2.3962e+08,-579.84,0,7.1861e+05,-77.745,11090,11613,1,11613,1,-0.00029328,-9.017e-10,0,0.00015929,-6.4289e-05,-1.1928e+08,-287.2,0,6.0046e+07,-19.457,11612,12607,1,12607,1,0.0003439,-2.2197e-10,0,0.00047788,5.5067e-05,1.1993e+08,-68.471,0,1.7864e+08,14.561,12606,574.93,0,574.93,0,0.00036774,4.8046e-10,0,0.00018494,6.8896e-05,1.3772e+08,151.18,0,6.8648e+07,107.79,574.93,1
1988,2.25,12110,1,12110,1,2.5425e-05,-1.1313e-09,0,0.00032022,-4.6277e-06,24.371,-358.17,0,1.199e+08,2.8718,12109,13104,1,13104,1,0.00064265,6.1774e-10,0,0.00064265,0.00011102,2.2026e+08,211.57,0,2.407e+08,517.28,13103,12110,1,12110,1,2.5425e-05,-9.7199e-10,0,0.00032003,-4.6133e-06,9.1409e+06,-315.47,0,1.2047e+08,-0.263,12109,11091,1,11091,1,-0.0005918,-3.9925e-09,0,2.5654e-06,-0.00012029,-2.407e+08,-1266.1,0,7.2193e+05,-118.68,11090,11613,1,11613,1,-0.00029461,-1.9435e-09,0,0.00016002,-6.458e-05,-1.1982e+08,-617.56,0,6.0318e+07,-32.002,11612,12607,1,12607,1,0.00034546,-1.5042e-10,0,0.00048005,5.5316e-05,1.2047e+08,-49.258,0,1.7944e+08,20.129,12606,574.93,0,574.93,0,0.0003694,1.1276e-09,0,0.00018578,6.9208e-05,1.3834e+08,355.23,0,6.896e+07,76.063,574.93,1
1988,2.26,12110,1,12110,1,2.5537e-05,-1.6807e-09,0,0.00032162,-4.648e-06,1.8323,-533.23,0,1.2042e+08,26.413,12109,13104,1,13104,1,0.00064547,5.9172e-10,0,0.00064547,0.00011151,2.2123e+08,202.66,0,2.4176e+08,1237.8,13103,12110,1,12110,1,2.5537e-05,-1.8239e-09,0,0.00032144,-4.6331e-06,9.1811e+06,-577.82,0,1.21e+08,7.1787,12109,11091,1,11091,1,-0.00059439,-3.7806e-09,0,2.577e-06,-0.00012082,-2.4176e+08,-1211.8,0,7.2525e+05,-101.78,11090,11613,1,11613,1,-0.0002959,-2.5016e-09,0,0.00016072,-6.4864e-05,-1.2035e+08,-797.06,0,6.0583e+07,-15.685,11612,12607,1,12607,1,0.00034697,-8.6073e-10,0,0.00048216,5.5559e-05,1.21e+08,-280.48,0,1.8023e+08,32.628,12606,574.93,0,574.93,0,0.00037102,1.0747e-09,0,0.00018659,6.9511e-05,1.3895e+08,340.04,0,6.9261e+07,132.09,574.93,1
1988,2.27,12110,1,12110,1,2.565e-05,-1.6779e-09,0,0.00032304,-4.6687e-06,-3.3412,-531.39,0,1.2096e+08,9.2032,12109,13104,1,13104,1,0.00064833,7.1805e-10,0,0.00064833,0.000112,2.222e+08,245.92,0,2.4283e+08,1034.2,13103,12110,1,12110,1,2.565e-05,-1.7869e-09,0,0.00032286,-4.6538e-06,9.2217e+06,-563.36,0,1.2154e+08,-4.8309,12109,11091,1,11091,1,-0.00059702,-3.6965e-09,0,2.5885e-06,-0.00012135,-2.4283e+08,-1182.9,0,7.285e+05,-178.48,11090,11613,1,11613,1,-0.00029721,-2.7642e-09,0,0.00016143,-6.5151e-05,-1.2088e+08,-890.21,0,6.0851e+07,-43.641,11612,12607,1,12607,1,0.00034851,-6.3453e-10,0,0.00048429,5.5804e-05,1.2154e+08,-195.65,0,1.8103e+08,31.755,12606,574.93,0,574.93,0,0.00037266,1.2396e-09,0,0.00018742,6.9819e-05,1.3956e+08,390.47,0,6.9567e+07,107.95,574.93,1
1988,2.28,12110,1,12110,1,2.5765e-05,2.6896e-10,0,0.00032448,-4.6895e-06,-6.1743,85.48,0,1.2149e+08,0.66112,12109,13104,1,13104,1,0.00065119,9.6982e-10,0,0.00065119,0.0001125,2.2318e+08,310.39,0,2.439e+08,254.61,13103,12110,1,12110,1,2.5765e-05,2.2334e-10,0,0.00032429,-4.6751e-06,9.2631e+06,70.653,0,1.2208e+08,-1.3187,12109,11091,1,11091,1,-0.00059966,-5.6241e-10,0,2.6009e-06,-0.00012189,-2.439e+08,-173.47,0,7.3198e+05,-87.57,11090,11613,1,11613,1,-0.00029853,3.7389e-11,0,0.00016215,-6.5441e-05,-1.2142e+08,11.719,0,6.1122e+07,-11.048,11612,12607,1,12607,1,0.00035006,5.2497e-10,0,0.00048644,5.6053e-05,1.2208e+08,165.64,0,1.8183e+08,4.5127,12606,574.93,0,574.93,0,0.00037432,3.1829e-10,0,0.00018825,7.0129e-05,1.4018e+08,100.48,0,6.9877e+07,29.304,574.93,1
1988,2.29,12110,1,12110,1,2.5879e-05,-1.3794e-09,0,0.00032591,-4.7102e-06,5.6997,-437.31,0,1.2203e+08,14.942,12109,13104,1,13104,1,0.00065407,4.5278e-10,0,0.00065407,0.00011299,2.2417e+08,155.07,0,2.4498e+08,1180.2,13103,12110,1,12110,1,2.5878e-05,-1.0519e-09,0,0.00032572,-4.6954e-06,9.3039e+06,-340.29,0,1.2261e+08,3.9861,12109,11091,1,11091,1,-0.00060231,-4.7669e-09,0,2.6126e-06,-0.00012243,-2.4498e+08,-1527.6,0,7.3539e+05,-100.73,11090,11613,1,11613,1,-0.00029984,-2.3392e-09,0,0.00016286,-6.5728e-05,-1.2195e+08,-740.18,0,6.139e+07,-20.899,11612,12607,1,12607,1,0.0003516,-2.2987e-10,0,0.00048858,5.6299e-05,1.2261e+08,-70.874,0,1.8263e+08,32.45,12606,574.93,0,574.93,0,0.00037597,1.3404e-09,0,0.00018908,7.0438e-05,1.408e+08,423.63,0,7.0184e+07,101.65,574.93,1
1988,2.3,12110,1,12110,1,2.5992e-05,-1.1534e-09,0,0.00032734,-4.7309e-06,3.5647,-365.42,0,1.2256e+08,11.643,12109,13104,1,13104,1,0.00065693,1.5202e-09,0,0.00065693,0.00011349,2.2515e+08,462.88,0,2.4605e+08,1019.3,13103,12110,1,12110,1,2.5992e-05,-6.5953e-10,0,0.00032715,-4.7164e-06,9.3448e+06,-215.13,0,1.2315e+08,-0.29691,12109,11091,1,11091,1,-0.00060495,-5.456e-09,0,2.6244e-06,-0.00012296,-2.4605e+08,-1681.5,0,7.3873e+05,-250.56,11090,11613,1,11613,1,-0.00030115,-2.2865e-09,0,0.00016357,-6.6016e-05,-1.2249e+08,-730.82,0,6.1659e+07,-34.209,11612,12607,1,12607,1,0.00035314,1.5402e-10,0,0.00049072,5.6545e-05,1.2315e+08,50.604,0,1.8343e+08,32.96,12606,574.93,0,574.93,0,0.00037761,1.6222e-09,0,0.00018991,7.0746e-05,1.4142e+08,513.04,0,7.0491e+07,122.18,574.93,1
1988,2.31,12110,1,12110,1,2.6106e-05,-8.0537e-10,0,0.00032876,-4.7516e-06,18.986,-254.81,0,1.231e+08,7.6381,12109,13104,1,13104,1,0.00065979,7.8054e-10,0,0.00065979,0.00011398,2.2612e+08,249.51,0,2.4712e+08,942.24,13103,12110,1,12110,1,2.6106e-05,-6.847e-10,0,0.00032857,-4.7368e-06,9.3857e+06,-219.11,0,1.2369e+08,1.8431,12109,11091,1,11091,1,-0.00060758,-3.3629e-09,0,2.6364e-06,-0.0001235,-2.4712e+08,-1077.3,0,7.4213e+05,-131.67,11090,11613,1,11613,1,-0.00030246,-1.4279e-09,0,0.00016429,-6.6304e-05,-1.2302e+08,-454.17,0,6.1928e+07,-25.363,11612,12607,1,12607,1,0.00035468,-1.1614e-11,0,0.00049286,5.6791e-05,1.2369e+08,-3.5882,0,1.8423e+08,19.74,12606,574.93,0,574.93,0,0.00037926,9.2604e-10,0,0.00019073,7.1054e-05,1.4203e+08,291.78,0,7.0798e+07,97.047,574.93,1
1988,2.32,12110,1,12110,1,2.6217e-05,-1.614e-09,0,0.00033015,-4.7718e-06,149.25,-512,0,1.2362e+08,23.451,12109,13104,1,13104,1,0.00066259,1.167e-09,0,0.00066259,0.00011446,2.2708e+08,375.22,0,2.4817e+08,1601.2,13103,12110,1,12110,1,2.6217e-05,-1.5987e-09,0,0.00032996,-4.7567e-06,9.4257e+06,-516.49,0,1.2421e+08,-0.01894,12109,11091,1,11091,1,-0.00061016,-4.5995e-09,0,2.6481e-06,-0.00012402,-2.4817e+08,-1446.1,0,7.4552e+05,-136.07,11090,11613,1,11613,1,-0.00030374,-2.7307e-09,0,0.00016498,-6.6585e-05,-1.2354e+08,-854.05,0,6.219e+07,-37.847,11612,12607,1,12607,1,0.00035618,-3.0235e-10,0,0.00049494,5.7032e-05,1.2421e+08,-99.721,0,1.8501e+08,41.873,12606,574.93,0,574.93,0,0.00038086,1.4576e-09,0,0.00019154,7.1355e-05,1.4263e+08,461.63,0,7.1097e+07,162.95,574.93,1
1988,2.33,12110,1,12110,1,2.633e-05,-5.7961e-10,0,0.00033158,-4.7924e-06,-31.998,-183.96,0,1.2415e+08,13.861,12109,13104,1,13104,1,0.00066544,1.4935e-09,0,0.00066544,0.00011496,2.2806e+08,478.69,0,2.4924e+08,1042.4,13103,12110,1,12110,1,2.633e-05,-3.1368e-10,0,0.00033139,-4.7778e-06,9.4664e+06,-99.426,0,1.2475e+08,-0.66148,12109,11091,1,11091,1,-0.00061278,-2.9909e-09,0,2.6595e-06,-0.00012456,-2.4924e+08,-959.05,0,7.4867e+05,-203.76,11090,11613,1,11613,1,-0.00030506,-1.2561e-09,0,0.00016569,-6.6872e-05,-1.2407e+08,-399.11,0,6.2458e+07,-23.496,11612,12607,1,12607,1,0.00035772,9.5326e-11,0,0.00049708,5.7278e-05,1.2475e+08,30.315,0,1.8581e+08,24.897,12606,574.93,0,574.93,0,0.0003825,9.8264e-10,0,0.00019237,7.1663e-05,1.4325e+08,312.15,0,7.1404e+07,115.66,574.93,1
1988,2.34,12110,1,12110,1,2.6444e-05,-1.3271e-09,0,0.000333,-4.8131e-06,-52.921,-420.04,0,1.2468e+08,-13.503,12109,13104,1,13104,1,0.00066831,1.0549e-09,0,0.00066831,0.00011545,2.2904e+08,361.3,0,2.5031e+08,151.59,13103,12110,1,12110,1,2.6443e-05,-1.2758e-09,0,0.00033281,-4.7984e-06,9.5068e+06,-406.11,0,1.2528e+08,-8.6961,12109,11091,1,11091,1,-0.00061542,-4.4282e-09,0,2.6709e-06,-0.00012509,-2.5031e+08,-1419,0,7.5181e+05,-355.56,11090,11613,1,11613,1,-0.00030636,-2.257e-09,0,0.0001664,-6.7159e-05,-1.2461e+08,-706.02,0,6.2726e+07,-45.473,11612,12607,1,12607,1,0.00035925,-1.7759e-10,0,0.00049921,5.7524e-05,1.2528e+08,-57.839,0,1.8661e+08,23.636,12606,574.93,0,574.93,0,0.00038414,1.3113e-09,0,0.00019319,7.197e-05,1.4386e+08,414.54,0,7.171e+07,72.94,574.93,1
1988,2.35,12110,1,12110,1,2.6558e-05,-1.0523e-09,0,0.00033442,-4.8339e-06,65.751,-333.83,0,1.2521e+08,-2.7965,12109,13104,1,13104,1,0.00067115,3.3188e-09,0,0.00067115,0.00011594,2.3001e+08,1063.9,0,2.5138e+08,152.11,13103,12110,1,12110,1,2.6557e-05,-7.5739e-10,0,0.00033423,-4.8192e-06,9.5481e+06,-240.51,0,1.2582e+08,-1.4189,12109,11091,1,11091,1,-0.00061803,-4.8036e-09,0,2.6842e-06,-0.00012563,-2.5138e+08,-1539.5,0,7.5578e+05,-349.12,11090,11613,1,11613,1,-0.00030767,-2.3982e-09,0,0.00016711,-6.7446e-05,-1.2514e+08,-760.74,0,6.2993e+07,-43.105,11612,12607,1,12607,1,0.00036078,1.6971e-10,0,0.00050134,5.7769e-05,1.2582e+08,54.745,0,1.874e+08,46.838,12606,574.93,0,574.93,0,0.00038578,1.754e-09,0,0.00019401,7.2276e-05,1.4447e+08,556.44,0,7.2014e+07,70.451,574.93,1
1988,2.36,12110,1,12110,1,2.6675e-05,-2.3864e-09,0,0.00033583,-4.8552e-06,66.644,-756.76,0,1.2574e+08,-2.7547,12109,13104,1,13104,1,0.000674,2.6852e-09,0,0.000674,0.00011643,2.3096e+08,860.97,0,2.5244e+08,193.3,13103,12110,1,12110,1,2.6674e-05,-1.9228e-09,0,0.00033564,-4.8405e-06,9.5901e+06,-620.49,0,1.2635e+08,-2.7996,12109,11091,1,11091,1,-0.00062065,-8.3034e-09,0,2.7005e-06,-0.00012616,-2.5244e+08,-2628.2,0,7.6082e+05,-389.91,11090,11613,1,11613,1,-0.00030896,-4.3098e-09,0,0.00016782,-6.7731e-05,-1.2566e+08,-1362,0,6.3259e+07,-50.484,11612,12607,1,12607,1,0.00036231,-1.1952e-10,0,0.00050346,5.8011e-05,1.2635e+08,-35.014,0,1.8819e+08,60.131,12606,574.93,0,574.93,0,0.00038741,2.6431e-09,0,0.00019483,7.2581e-05,1.4508e+08,837.9,0,7.2315e+07,88.098,574.93,1
1988,2.37,12110,1,12110,1,2.6794e-05,-2.1551e-10,0,0.00033727,-4.877e-06,7.6657,-68.684,0,1.2628e+08,-2.8859,12109,13104,1,13104,1,0.00067688,2.7835e-09,0,0.00067688,0.00011693,2.3192e+08,892.35,0,2.5352e+08,102.43,13103,12110,1,12110,1,2.6794e-05,-1.2752e-10,0,0.00033708,-4.8622e-06,9.6334e+06,-39.685,0,1.2689e+08,-0.57803,12109,11091,1,11091,1,-0.00062329,-2.7003e-09,0,2.7171e-06,-0.0001267,-2.5352e+08,-865.32,0,7.6608e+05,-325.39,11090,11613,1,11613,1,-0.00031029,-8.982e-10,0,0.00016854,-6.8023e-05,-1.262e+08,-282.94,0,6.3531e+07,-21.284,11612,12607,1,12607,1,0.00036388,3.2245e-10,0,0.00050562,5.826e-05,1.2689e+08,100.23,0,1.89e+08,23.453,12606,574.93,0,574.93,0,0.00038908,1.0114e-09,0,0.00019567,7.2894e-05,1.457e+08,321.51,0,7.2624e+07,53.566,574.93,1
1988,2.38,12110,1,12110,1,2.6913e-05,-2.0218e-09,0,0.00033869,-4.8987e-06,369.9,-640.75,0,1.2681e+08,-32.584,12109,13104,1,13104,1,0.00067976,1.0604e-09,0,0.00067976,0.00011742,2.3287e+08,363.18,0,2.5459e+08,102.44,13103,12110,1,12110,1,2.6913e-05,-1.9857e-09,0,0.0003385,-4.8838e-06,9.6763e+06,-633.45,0,1.2743e+08,-9.5385,12109,11091,1,11091,1,-0.00062593,-5.6903e-09,0,2.7344e-06,-0.00012724,-2.5459e+08,-1823.6,0,7.7153e+05,-383.89,11090,11613,1,11613,1,-0.00031159,-3.382e-09,0,0.00016925,-6.8311e-05,-1.2673e+08,-1062.3,0,6.3799e+07,-60.291,11612,12607,1,12607,1,0.00036541,-4.9202e-10,0,0.00050775,5.8504e-05,1.2743e+08,-153.81,0,1.898e+08,14.699,12606,574.93,0,574.93,0,0.00039071,1.7449e-09,0,0.0001965,7.3201e-05,1.4631e+08,551.99,0,7.2927e+07,80.214,574.93,1
1988,2.39,12110,1,12110,1,2.7031e-05,-1.6585e-09,0,0.00034012,-4.92e-06,-13.397,-525.64,0,1.2734e+08,-5.3433,12109,13104,1,13104,1,0.00068263,1.7983e-09,0,0.00068263,0.00011792,2.3383e+08,576.55,0,2.5566e+08,152.56,13103,12110,1,12110,1,2.703e-05,-1.3391e-09,0,0.00033993,-4.9052e-06,9.7184e+06,-427.8,0,1.2797e+08,5.5168,12109,11091,1,11091,1,-0.00062856,-6.0206e-09,0,2.7501e-06,-0.00012777,-2.5566e+08,-1929.3,0,7.7638e+05,-408.13,11090,11613,1,11613,1,-0.0003129,-3.0791e-09,0,0.00016996,-6.86e-05,-1.2726e+08,-970.86,0,6.4067e+07,-39.983,11612,12607,1,12607,1,0.00036696,-2.2334e-11,0,0.00050989,5.875e-05,1.2797e+08,-7.6708,0,1.906e+08,44.083,12606,574.93,0,574.93,0,0.00039236,1.8789e-09,0,0.00019732,7.3509e-05,1.4692e+08,595.62,0,7.3231e+07,79.004,574.93,1
1988,2.4,12110,1,12110,1,2.715e-05,-1.4806e-10,0,0.00034155,-4.9417e-06,28.149,-47.243,0,1.2787e+08,-6.3383,12109,13104,1,13104,1,0.00068548,2.361e-09,0,0.00068548,0.00011841,2.3478e+08,756.86,0,2.5672e+08,62.322,13103,12110,1,12110,1,2.715e-05,-1.8328e-11,0,0.00034135,-4.9267e-06,9.7614e+06,-6.0276,0,1.2851e+08,-0.67394,12109,11091,1,11091,1,-0.00063118,-2.8065e-09,0,2.7672e-06,-0.00012831,-2.5672e+08,-899.33,0,7.8181e+05,-342.2,11090,11613,1,11613,1,-0.0003142,-6.7534e-10,0,0.00017068,-6.8888e-05,-1.2779e+08,-213.92,0,6.4336e+07,-19.851,11612,12607,1,12607,1,0.0003685,3.5516e-10,0,0.00051203,5.8996e-05,1.2851e+08,114.89,0,1.914e+08,22.985,12606,574.93,0,574.93,0,0.00039401,9.0794e-10,0,0.00019815,7.3818e-05,1.4754e+08,288.69,0,7.3536e+07,54.166,574.93,1
1988,2.41,12110,1,12110,1,2.727e-05,-1.0889e-09,0,0.000343,-4.9636e-06,25.515,-345.13,0,1.2841e+08,-30.048,12109,13104,1,13104,1,0.00068839,4.3052e-10,0,0.00068839,0.00011891,2.3574e+08,140.34,0,2.5781e+08,90.139,13103,12110,1,12110,1,2.7269e-05,-9.7193e-10,0,0.00034279,-4.9486e-06,9.8045e+06,-307.69,0,1.2905e+08,-13.626,12109,11091,1,11091,1,-0.00063385,-3.2518e-09,0,2.7843e-06,-0.00012885,-2.5781e+08,-981.64,0,7.8716e+05,-431.78,11090,11613,1,11613,1,-0.00031552,-1.8905e-09,0,0.0001714,-6.918e-05,-1.2833e+08,-601.82,0,6.4607e+07,-54.243,11612,12607,1,12607,1,0.00037006,-2.3923e-10,0,0.00051419,5.9244e-05,1.2905e+08,-74.739,0,1.9221e+08,7.1772,12606,574.93,0,574.93,0,0.00039567,9.6507e-10,0,0.00019899,7.413e-05,1.4816e+08,304.19,0,7.3844e+07,69.945,574.93,1
1988,2.42,12110,1,12110,1,2.7386e-05,-1.1201e-09,0,0.00034439,-4.9848e-06,76.826,-354.99,0,1.2893e+08,-8.1673,12109,13104,1,13104,1,0.00069121,3.1615e-09,0,0.00069121,0.00011939,2.3668e+08,1013.5,0,2.5886e+08,119.35,13103,12110,1,12110,1,2.7386e-05,-7.4495e-10,0,0.0003442,-4.9697e-06,9.8465e+06,-227.68,0,1.2958e+08,-5.0891,12109,11091,1,11091,1,-0.00063643,-5.4648e-09,0,2.8009e-06,-0.00012938,-2.5886e+08,-1751.1,0,7.9242e+05,-396.89,11090,11613,1,11613,1,-0.00031681,-2.465e-09,0,0.0001721,-6.9464e-05,-1.2885e+08,-792.64,0,6.4871e+07,-40.861,11612,12607,1,12607,1,0.00037158,2.1428e-10,0,0.00051629,5.9485e-05,1.2958e+08,68.128,0,1.9299e+08,36.911,12606,574.93,0,574.93,0,0.00039729,1.8666e-09,0,0.0001998,7.4432e-05,1.4876e+08,592.36,0,7.4142e+07,72.684,574.93,1
1988,2.43,12110,1,12110,1,2.7506e-05,2.3524e-10,0,0.00034584,-5.0065e-06,11.389,74.257,0,1.2947e+08,8.2667,12109,13104,1,13104,1,0.00069409,1.4043e-09,0,0.00069409,0.00011989,2.3764e+08,450.25,0,2.5994e+08,758.69,13103,12110,1,12110,1,2.7506e-05,1.6507e-10,0,0.00034563,-4.9911e-06,9.8898e+06,52.996,0,1.3013e+08,-0.47935,12109,11091,1,11091,1,-0.00063908,-7.1782e-10,0,2.8178e-06,-0.00012992,-2.5994e+08,-229.48,0,7.9779e+05,-64.498,11090,11613,1,11613,1,-0.00031813,-8.7046e-11,0,0.00017282,-6.9755e-05,-1.2939e+08,-27.709,0,6.5142e+07,-12.205,11612,12607,1,12607,1,0.00037314,5.4676e-10,0,0.00051845,5.9733e-05,1.3013e+08,175.63,0,1.938e+08,9.8314,12606,574.93,0,574.93,0,0.00039895,4.1154e-10,0,0.00020064,7.4744e-05,1.4938e+08,130.61,0,7.445e+07,67.02,574.93,1
1988,2.44,12110,1,12110,1,2.7623e-05,-1.9075e-09,0,0.00034724,-5.0278e-06,-80.612,-604.9,0,1.3e+08,19.736,12109,13104,1,13104,1,0.00069694,1.863e-09,0,0.00069694,0.00012038,2.3859e+08,578.93,0,2.61e+08,789.69,13103,12110,1,12110,1,2.7622e-05,-1.5064e-09,0,0.00034704,-5.0121e-06,9.9318e+06,-487.01,0,1.3066e+08,0.46886,12109,11091,1,11091,1,-0.00064169,-6.4985e-09,0,2.834e-06,-0.00013045,-2.61e+08,-2082.8,0,8.0291e+05,-166.53,11090,11613,1,11613,1,-0.00031942,-3.5166e-09,0,0.00017352,-7.0041e-05,-1.2991e+08,-1132.2,0,6.5408e+07,-31.963,11612,12607,1,12607,1,0.00037467,-1.0861e-10,0,0.00052056,5.9975e-05,1.3066e+08,-32.839,0,1.9459e+08,48.955,12606,574.93,0,574.93,0,0.00040057,2.1099e-09,0,0.00020145,7.5048e-05,1.4998e+08,669.28,0,7.4749e+07,106.71,574.93,1
1988,2.45,12110,1,12110,1,2.7745e-05,-8.991e-10,0,0.0003487,-5.0502e-06,-20.797,-285.09,0,1.3054e+08,-33.085,12109,13104,1,13104,1,0.00069986,1.2032e-09,0,0.00069986,0.00012088,2.3956e+08,366.63,0,2.6209e+08,67.558,13103,12110,1,12110,1,2.7744e-05,-7.7819e-10,0,0.0003485,-5.035e-06,9.9756e+06,-250.29,0,1.3121e+08,-11.749,12109,11091,1,11091,1,-0.00064437,-3.3008e-09,0,2.8518e-06,-0.000131,-2.6209e+08,-1017.4,0,8.0843e+05,-473.64,11090,11613,1,11613,1,-0.00032075,-1.7452e-09,0,0.00017425,-7.0335e-05,-1.3046e+08,-561.38,0,6.5682e+07,-61.545,11612,12607,1,12607,1,0.00037624,1.9871e-11,0,0.00052275,6.0225e-05,1.3121e+08,5.9211,0,1.954e+08,11.892,12606,574.93,0,574.93,0,0.00040226,1.052e-09,0,0.0002023,7.5364e-05,1.5061e+08,332.03,0,7.5061e+07,76.145,574.93,1
1988,2.46,12110,1,12110,1,2.7862e-05,-1.8946e-09,0,0.0003501,-5.0713e-06,95.908,-601.3,0,1.3106e+08,16.735,12109,13104,1,13104,1,0.00070268,7.8262e-10,0,0.00070268,0.00012137,2.4049e+08,268.04,0,2.6314e+08,1431.6,13103,12110,1,12110,1,2.7861e-05,-1.7144e-09,0,0.0003499,-5.0561e-06,1.0018e+07,-547.5,0,1.3174e+08,2.1634,12109,11091,1,11091,1,-0.00064696,-5.3917e-09,0,2.869e-06,-0.00013153,-2.6314e+08,-1727.9,0,8.1395e+05,-477.85,11090,11613,1,11613,1,-0.00032204,-3.2048e-09,0,0.00017495,-7.0619e-05,-1.3098e+08,-1013.2,0,6.5945e+07,-28.507,11612,12607,1,12607,1,0.00037776,-5.0629e-10,0,0.00052485,6.0466e-05,1.3174e+08,-164.02,0,1.9619e+08,34.377,12606,574.93,0,574.93,0,0.00040387,1.5788e-09,0,0.00020311,7.5665e-05,1.5121e+08,500.79,0,7.5359e+07,133.13,574.93,1
1988,2.47,12110,1,12110,1,2.7984e-05,-1.0406e-09,0,0.00035157,-5.0935e-06,10.425,-329.86,0,1.3161e+08,5.849,12109,13104,1,13104,1,0.00070561,3.124e-09,0,0.00070561,0.00012187,2.4147e+08,962.45,0,2.6423e+08,2207.1,13103,12110,1,12110,1,2.7983e-05,-6.4179e-10,0,0.00035136,-5.0777e-06,1.0062e+07,-204.18,0,1.3229e+08,-21.262,12109,11091,1,11091,1,-0.00064965,-5.9674e-09,0,2.8863e-06,-0.00013207,-2.6423e+08,-1817.1,0,8.195e+05,-208.18,11090,11613,1,11613,1,-0.00032337,-2.4858e-09,0,0.00017568,-7.0914e-05,-1.3152e+08,-795.78,0,6.622e+07,-64.022,11612,12607,1,12607,1,0.00037934,3.9321e-10,0,0.00052703,6.0717e-05,1.3229e+08,121.85,0,1.9701e+08,34.543,12606,574.93,0,574.93,0,0.00040556,1.9376e-09,0,0.00020396,7.5982e-05,1.5184e+08,613.03,0,7.5671e+07,208.12,574.93,1
1988,2.48,12110,1,12110,1,2.81e-05,-1.61e-09,0,0.00035296,-5.1148e-06,74.652,-511.28,0,1.3213e+08,-13.738,12109,13104,1,13104,1,0.00070842,8.4694e-10,0,0.00070842,0.00012236,2.424e+08,290.07,0,2.6528e+08,95.805,13103,12110,1,12110,1,2.81e-05,-1.5632e-09,0,0.00035275,-5.0994e-06,1.0104e+07,-492.64,0,1.3281e+08,4.653,12109,11091,1,11091,1,-0.00065222,-4.5691e-09,0,2.9035e-06,-0.0001326,-2.6528e+08,-1464.3,0,8.2487e+05,-485.05,11090,11613,1,11613,1,-0.00032465,-2.7185e-09,0,0.00017638,-7.1197e-05,-1.3204e+08,-877.07,0,6.6483e+07,-37.016,11612,12607,1,12607,1,0.00038085,-4.4607e-10,0,0.00052913,6.0957e-05,1.3281e+08,-140.63,0,1.9779e+08,29.817,12606,574.93,0,574.93,0,0.00040716,1.3266e-09,0,0.00020477,7.6282e-05,1.5244e+08,421.15,0,7.5967e+07,80.152,574.93,1
1988,2.49,12110,1,12110,1,2.8222e-05,-1.793e-09,0,0.00035439,-5.137e-06,15.372,-569.14,0,1.3266e+08,-8.5654,12109,13104,1,13104,1,0.0007113,7.1622e-10,0,0.0007113,0.00012285,2.4335e+08,245.3,0,2.6635e+08,124.51,13103,12110,1,12110,1,2.8221e-05,-1.7179e-09,0,0.00035418,-5.1215e-06,1.0147e+07,-545.07,0,1.3336e+08,5.367,12109,11091,1,11091,1,-0.00065486,-5.1094e-09,0,2.9229e-06,-0.00013314,-2.6635e+08,-1637.4,0,8.3113e+05,-476.95,11090,11613,1,11613,1,-0.00032596,-2.8407e-09,0,0.00017709,-7.1487e-05,-1.3257e+08,-904.86,0,6.6752e+07,-25.309,11612,12607,1,12607,1,0.0003824,-6.725e-10,0,0.00053127,6.1203e-05,1.3336e+08,-219.21,0,1.9859e+08,26.28,12606,574.93,0,574.93,0,0.00040881,1.3603e-09,0,0.0002056,7.6592e-05,1.5305e+08,431.36,0,7.6271e+07,78.141,574.93,1
1988,2.5,12110,1,12110,1,2.8348e-05,-5.1235e-10,0,0.00035583,-5.16e-06,-15.625,-162.56,0,1.3319e+08,-15.127,12109,13104,1,13104,1,0.00071419,5.3847e-10,0,0.00071419,0.00012334,2.4428e+08,160.8,0,2.6743e+08,66.708,13103,12110,1,12110,1,2.8348e-05,-5.0929e-10,0,0.00035562,-5.1446e-06,1.0193e+07,-165.23,0,1.339e+08,0.71512,12109,11091,1,11091,1,-0.0006575,-1.7428e-09,0,2.9468e-06,-0.00013368,-2.6743e+08,-530.7,0,8.3914e+05,-500.24,11090,11613,1,11613,1,-0.00032727,-9.5208e-10,0,0.00017781,-7.1779e-05,-1.3311e+08,-305.29,0,6.7023e+07,-20.369,11612,12607,1,12607,1,0.00038397,-5.0664e-12,0,0.00053343,6.1449e-05,1.339e+08,-1.734,0,1.9939e+08,15.7,12606,574.93,0,574.93,0,0.00041048,5.6484e-10,0,0.00020643,7.6903e-05,1.5367e+08,178.3,0,7.6575e+07,73.679,574.93,1
1988,2.51,12110,1,12110,1,2.8474e-05,9.7218e-11,0,0.00035725,-5.183e-06,82.376,30.78,0,1.3372e+08,-20.65,12109,13104,1,13104,1,0.00071706,1.0212e-09,0,0.00071706,0.00012384,2.4521e+08,311.87,0,2.6849e+08,36.527,13103,12110,1,12110,1,2.8474e-05,7.2688e-11,0,0.00035704,-5.1675e-06,1.0239e+07,22.291,0,1.3444e+08,-9.3102,12109,11091,1,11091,1,-0.00066011,-7.5533e-10,0,2.9711e-06,-0.00013421,-2.6849e+08,-230.8,0,8.4733e+05,-487.5,11090,11613,1,11613,1,-0.00032857,-1.2171e-10,0,0.00017852,-7.2069e-05,-1.3364e+08,-39.272,0,6.7291e+07,-20.625,11612,12607,1,12607,1,0.00038552,3.3423e-10,0,0.00053556,6.1693e-05,1.3444e+08,105.44,0,2.0018e+08,1.1005,12606,574.93,0,574.93,0,0.00041212,3.731e-10,0,0.00020726,7.7211e-05,1.5427e+08,118,0,7.6875e+07,67.792,574.93,1
1988,2.52,12110,1,12110,1,2.8599e-05,-4.3846e-10,0,0.00035867,-5.2056e-06,40.172,-138.89,0,1.3425e+08,-3.7868,12109,13104,1,13104,1,0.00071991,2.7868e-09,0,0.00071991,0.00012432,2.4614e+08,893.05,0,2.6955e+08,150.74,13103,12110,1,12110,1,2.8598e-05,-3.9099e-11,0,0.00035845,-5.19e-06,1.0284e+07,-11.692,0,1.3498e+08,-3.4869,12109,11091,1,11091,1,-0.00066271,-4.1197e-09,0,2.9946e-06,-0.00013475,-2.6955e+08,-1320,0,8.5522e+05,-496.84,11090,11613,1,11613,1,-0.00032985,-1.3892e-09,0,0.00017923,-7.2356e-05,-1.3416e+08,-440.87,0,6.7557e+07,-25.478,11612,12607,1,12607,1,0.00038705,5.5555e-10,0,0.00053768,6.1934e-05,1.3498e+08,171.8,0,2.0097e+08,30.803,12606,574.93,0,574.93,0,0.00041374,1.4582e-09,0,0.00020808,7.7515e-05,1.5488e+08,462.59,0,7.7172e+07,79.998,574.93,1
1988,2.53,12110,1,12110,1,2.8725e-05,3.3306e-10,0,0.0003601,-5.2287e-06,55.949,105.33,0,1.3478e+08,-17.397,12109,13104,1,13104,1,0.00072279,2.7796e-09,0,0.00072279,0.00012482,2.4707e+08,890.73,0,2.7062e+08,59.75,13103,12110,1,12110,1,2.8725e-05,8.2846e-11,0,0.00035988,-5.2131e-06,1.0329e+07,26.057,0,1.3552e+08,-6.212,12109,11091,1,11091,1,-0.00066534,-1.8271e-09,0,3.0188e-06,-0.00013529,-2.7062e+08,-585.46,0,8.6337e+05,-528.74,11090,11613,1,11613,1,-0.00033116,-1.8213e-10,0,0.00017994,-7.2647e-05,-1.3469e+08,-58.167,0,6.7826e+07,-24.855,11612,12607,1,12607,1,0.00038861,8.2672e-10,0,0.00053983,6.2179e-05,1.3552e+08,265.23,0,2.0176e+08,11.072,12606,574.93,0,574.93,0,0.0004154,8.071e-10,0,0.00020891,7.7825e-05,1.5549e+08,256.31,0,7.7474e+07,72.345,574.93,1
1988,2.54,12110,1,12110,1,2.8851e-05,-1.6899e-09,0,0.00036153,-5.2516e-06,-4.0356,-535.71,0,1.3531e+08,-0.27961,12109,13104,1,13104,1,0.00072568,7.7741e-10,0,0.00072568,0.00012531,2.48e+08,266.26,0,2.7169e+08,131.93,13103,12110,1,12110,1,2.885e-05,-1.5087e-09,0,0.00036131,-5.2359e-06,1.0375e+07,-477.92,0,1.3606e+08,8.8971,12109,11091,1,11091,1,-0.00066798,-5.3818e-09,0,3.0428e-06,-0.00013583,-2.7169e+08,-1724.5,0,8.7145e+05,-555.16,11090,11613,1,11613,1,-0.00033246,-2.7272e-09,0,0.00018065,-7.2937e-05,-1.3522e+08,-866.6,0,6.8094e+07,-19.408,11612,12607,1,12607,1,0.00039016,-5.2783e-10,0,0.00054196,6.2423e-05,1.3606e+08,-165.09,0,2.0256e+08,39.519,12606,574.93,0,574.93,0,0.00041704,1.4241e-09,0,0.00020974,7.8133e-05,1.561e+08,451.06,0,7.7774e+07,88.847,574.93,1
1988,2.55,12110,1,12110,1,2.8977e-05,-2.5465e-11,0,0.00036295,-5.2747e-06,16.073,-8.2443,0,1.3583e+08,-11.608,12109,13104,1,13104,1,0.00072854,1.9497e-09,0,0.00072854,0.0001258,2.4893e+08,624.79,0,2.7275e+08,51.283,13103,12110,1,12110,1,2.8977e-05,8.2094e-11,0,0.00036273,-5.2589e-06,1.042e+07,25.573,0,1.366e+08,-3.1269,12109,11091,1,11091,1,-0.00067058,-2.3337e-09,0,3.0675e-06,-0.00013636,-2.7275e+08,-747.74,0,8.7977e+05,-547.14,11090,11613,1,11613,1,-0.00033376,-4.3383e-10,0,0.00018137,-7.3227e-05,-1.3575e+08,-134.56,0,6.8362e+07,-17.37,11612,12607,1,12607,1,0.00039171,4.2509e-10,0,0.0005441,6.2667e-05,1.366e+08,134.17,0,2.0335e+08,15.254,12606,574.93,0,574.93,0,0.00041869,7.0756e-10,0,0.00021056,7.8441e-05,1.567e+08,225.06,0,7.8074e+07,76.657,574.93,1
1988,2.56,12110,1,12110,1,2.9103e-05,-8.5231e-10,0,0.00036438,-5.2976e-06,-52.218,-270.23,0,1.3636e+08,-1.9538,12109,13104,1,13104,1,0.00073142,6.1262e-10,0,0.00073142,0.00012629,2.4986e+08,196.55,0,2.7382e+08,99.842,13103,12110,1,12110,1,2.9103e-05,-7.9164e-10,0,0.00036416,-5.2818e-06,1.0466e+07,-247.26,0,1.3714e+08,6.7361,12109,11091,1,11091,1,-0.00067321,-3.1724e-09,0,3.0916e-06,-0.0001369,-2.7382e+08,-1016.4,0,8.8787e+05,-576.46,11090,11613,1,11613,1,-0.00033505,-1.344e-09,0,0.00018208,-7.3517e-05,-1.3627e+08,-426.19,0,6.863e+07,-5.3789,11612,12607,1,12607,1,0.00039326,-2.3916e-10,0,0.00054624,6.291e-05,1.3714e+08,-73.277,0,2.0415e+08,28.069,12606,574.93,0,574.93,0,0.00042033,7.6114e-10,0,0.00021139,7.8749e-05,1.5731e+08,241.38,0,7.8374e+07,82.053,574.93,1
1988,2.57,12110,1,12110,1,2.9229e-05,-1.6062e-09,0,0.0003658,-5.3206e-06,19.384,-509.36,0,1.3689e+08,2.9579,12109,13104,1,13104,1,0.00073429,3.0186e-09,0,0.00073429,0.00012678,2.5079e+08,967.47,0,2.7488e+08,191.89,13103,12110,1,12110,1,2.9229e-05,-1.1266e-09,0,0.00036558,-5.3047e-06,1.0511e+07,-346.63,0,1.3768e+08,3.6045,12109,11091,1,11091,1,-0.00067583,-6.8648e-09,0,3.1164e-06,-0.00013744,-2.7488e+08,-2199.5,0,8.9626e+05,-601.6,11090,11613,1,11613,1,-0.00033635,-3.2195e-09,0,0.00018279,-7.3806e-05,-1.368e+08,-1015.7,0,6.8898e+07,-31.505,11612,12607,1,12607,1,0.00039481,1.0728e-10,0,0.00054837,6.3154e-05,1.3768e+08,36.169,0,2.0494e+08,58.731,12606,574.93,0,574.93,0,0.00042197,2.1544e-09,0,0.00021222,7.9056e-05,1.5792e+08,683.07,0,7.8673e+07,102.03,574.93,1
1988,2.58,12110,1,12110,1,2.936e-05,-1.713e-09,0,0.00036724,-5.3446e-06,-49.394,-544.08,0,1.3742e+08,-32.552,12109,13104,1,13104,1,0.00073719,6.204e-10,0,0.00073719,0.00012728,2.5171e+08,212.48,0,2.7596e+08,102.83,13103,12110,1,12110,1,2.936e-05,-1.8151e-09,0,0.00036701,-5.3288e-06,1.0559e+07,-576.38,0,1.3823e+08,-11.687,12109,11091,1,11091,1,-0.00067847,-4.4266e-09,0,3.1447e-06,-0.00013798,-2.7596e+08,-1418.3,0,9.0598e+05,-674.58,11090,11613,1,11613,1,-0.00033765,-2.6861e-09,0,0.00018351,-7.4099e-05,-1.3733e+08,-867.42,0,6.9168e+07,-42.469,11612,12607,1,12607,1,0.00039637,-7.7612e-10,0,0.00055052,6.3398e-05,1.3823e+08,-249.48,0,2.0573e+08,7.6433,12606,574.93,0,574.93,0,0.00042363,1.213e-09,0,0.00021305,7.9366e-05,1.5853e+08,384.04,0,7.8974e+07,99.002,574.93,1
1988,2.59,12110,1,12110,1,2.9497e-05,-6.5983e-10,0,0.00036867,-5.3694e-06,-84.63,-209.65,0,1.3795e+08,-15.843,12109,13104,1,13104,1,0.00074007,2.1272e-09,0,0.00074007,0.00012777,2.5262e+08,681.71,0,2.7702e+08,95.568,13103,12110,1,12110,1,2.9497e-05,-4.0609e-10,0,0.00036844,-5.3536e-06,1.0608e+07,-131.24,0,1.3877e+08,-7.2823,12109,11091,1,11091,1,-0.00068108,-3.7802e-09,0,3.1792e-06,-0.00013852,-2.7702e+08,-1211.1,0,9.1812e+05,-693.8,11090,11613,1,11613,1,-0.00033895,-1.4462e-09,0,0.00018422,-7.4391e-05,-1.3786e+08,-461.45,0,6.9436e+07,-29.081,11612,12607,1,12607,1,0.00039794,1.5945e-10,0,0.00055266,6.3641e-05,1.3877e+08,52.651,0,2.0652e+08,22.467,12606,574.93,0,574.93,0,0.00042527,1.0719e-09,0,0.00021388,7.9675e-05,1.5913e+08,340.8,0,7.9271e+07,94.049,574.93,1
1988,2.6,12110,1,12110,1,2.9633e-05,-1.6735e-09,0,0.00037009,-5.3942e-06,-40.374,-531.4,0,1.3847e+08,-13.805,12109,13104,1,13104,1,0.00074296,1.9558e-09,0,0.00074296,0.00012826,2.5352e+08,626.9,0,2.7808e+08,181.8,13103,12110,1,12110,1,2.9632e-05,-1.4239e-09,0,0.00036986,-5.3783e-06,1.0657e+07,-451.93,0,1.3932e+08,-11.925,12109,11091,1,11091,1,-0.00068369,-6.0073e-09,0,3.2136e-06,-0.00013906,-2.7808e+08,-1924.5,0,9.3018e+05,-736.12,11090,11613,1,11613,1,-0.00034023,-2.9712e-09,0,0.00018493,-7.4682e-05,-1.3838e+08,-943.51,0,6.9703e+07,-45.18,11612,12607,1,12607,1,0.00039949,-1.7052e-10,0,0.00055479,6.3882e-05,1.3932e+08,-50.709,0,2.073e+08,30.851,12606,574.93,0,574.93,0,0.00042691,1.6789e-09,0,0.0002147,7.9982e-05,1.5973e+08,533.44,0,7.9565e+07,98.791,574.93,1
1988,2.61,12110,1,12110,1,2.977e-05,1.3215e-09,0,0.00037153,-5.4193e-06,21.934,418.27,0,1.39e+08,-6.1954,12109,13104,1,13104,1,0.00074587,7.6862e-09,0,0.00074587,0.00012875,2.5444e+08,2462.3,0,2.7915e+08,225.53,13103,12110,1,12110,1,2.977e-05,7.9637e-10,0,0.0003713,-5.404e-06,1.0707e+07,253.38,0,1.3987e+08,6.358,12109,11091,1,11091,1,-0.00068633,-3.6815e-09,0,3.2486e-06,-0.0001396,-2.7915e+08,-1179.2,0,9.4243e+05,-1371.8,11090,11613,1,11613,1,-0.00034153,-3.3034e-10,0,0.00018565,-7.4977e-05,-1.3891e+08,-108.75,0,6.9974e+07,-45.514,11612,12607,1,12607,1,0.00040107,2.8411e-09,0,0.00055695,6.4127e-05,1.3987e+08,888.39,0,2.0809e+08,61.766,12606,574.93,0,574.93,0,0.00042857,2.218e-09,0,0.00021554,8.0293e-05,1.6034e+08,704.45,0,7.9863e+07,135.62,574.93,1
1988,2.62,12110,1,12110,1,2.991e-05,-1.5861e-09,0,0.00037299,-5.4448e-06,-30.014,-502.7,0,1.3954e+08,-32.424,12109,13104,1,13104,1,0.00074881,4.885e-10,0,0.00074881,0.00012925,2.5536e+08,167.31,0,2.8024e+08,129.16,13103,12110,1,12110,1,2.9909e-05,-1.4969e-09,0,0.00037275,-5.4288e-06,1.0758e+07,-470.86,0,1.4042e+08,-8.8155,12109,11091,1,11091,1,-0.00068899,-5.1118e-09,0,3.2843e-06,-0.00014015,-2.8024e+08,-1575.5,0,9.5506e+05,-828.91,11090,11613,1,11613,1,-0.00034284,-2.6533e-09,0,0.00018638,-7.5275e-05,-1.3944e+08,-847.8,0,7.0247e+07,-49.706,11612,12607,1,12607,1,0.00040266,-3.4932e-10,0,0.00055913,6.4373e-05,1.4042e+08,-113.19,0,2.0889e+08,13.194,12606,574.93,0,574.93,0,0.00043026,1.3812e-09,0,0.00021639,8.0608e-05,1.6096e+08,436.54,0,8.0166e+07,110.49,574.93,1
1988,2.63,12110,1,12110,1,3.0045e-05,-1.8929e-09,0,0.00037438,-5.4694e-06,-90.736,-600.84,0,1.4005e+08,-16.075,12109,13104,1,13104,1,0.00075164,4.9742e-09,0,0.00075164,0.00012973,2.5625e+08,1593.8,0,2.8128e+08,220.49,13103,12110,1,12110,1,3.0044e-05,-1.6577e-09,0,0.00037415,-5.4534e-06,1.0806e+07,-516.13,0,1.4096e+08,-2.5058,12109,11091,1,11091,1,-0.00069155,-7.6695e-09,0,3.3191e-06,-0.00014068,-2.8128e+08,-2457,0,9.6738e+05,-846.39,11090,11613,1,11613,1,-0.00034411,-3.97e-09,0,0.00018707,-7.5561e-05,-1.3996e+08,-1268.5,0,7.051e+07,-60.819,11612,12607,1,12607,1,0.00040419,8.8517e-11,0,0.00056123,6.461e-05,1.4096e+08,27.858,0,2.0965e+08,55.922,12606,574.93,0,574.93,0,0.00043186,2.518e-09,0,0.00021719,8.0909e-05,1.6154e+08,799.57,0,8.0453e+07,138.19,574.93,1
1988,2.64,12110,1,12110,1,3.0185e-05,-1.8532e-09,0,0.00037586,-5.4951e-06,-29.467,-588.99,0,1.4059e+08,-29.369,12109,13104,1,13104,1,0.00075461,5.3654e-10,0,0.00075461,0.00013024,2.5718e+08,183.76,0,2.8237e+08,98.754,13103,12110,1,12110,1,3.0185e-05,-1.9305e-09,0,0.00037562,-5.479e-06,1.0857e+07,-610.9,0,1.4152e+08,-5.9639,12109,11091,1,11091,1,-0.00069424,-5.0132e-09,0,3.3549e-06,-0.00014124,-2.8237e+08,-1545.1,0,9.799e+05,-902.37,11090,11613,1,11613,1,-0.00034543,-2.9847e-09,0,0.00018781,-7.5861e-05,-1.4049e+08,-958.26,0,7.0786e+07,-42.305,11612,12607,1,12607,1,0.0004058,-7.0857e-10,0,0.00056343,6.4859e-05,1.4152e+08,-218.71,0,2.1046e+08,14.003,12606,574.93,0,574.93,0,0.00043356,1.3636e-09,0,0.00021805,8.1227e-05,1.6217e+08,432.07,0,8.0759e+07,111.43,574.93,1
1988,2.65,12110,1,12110,1,3.0321e-05,-1.9321e-09,0,0.00037725,-5.5198e-06,-23.704,-613.64,0,1.411e+08,-10.634,12109,13104,1,13104,1,0.00075744,2.9728e-09,0,0.00075744,0.00013072,2.5806e+08,953.36,0,2.8341e+08,499.78,13103,12110,1,12110,1,3.032e-05,-1.5922e-09,0,0.00037701,-5.5037e-06,1.0906e+07,-502.11,0,1.4205e+08,-7.0414,12109,11091,1,11091,1,-0.0006968,-7.273e-09,0,3.3909e-06,-0.00014177,-2.8341e+08,-2329.8,0,9.9276e+05,-910.39,11090,11613,1,11613,1,-0.00034669,-3.8461e-09,0,0.00018851,-7.6148e-05,-1.4101e+08,-1218.2,0,7.1048e+07,-58.39,11612,12607,1,12607,1,0.00040733,4.4867e-11,0,0.00056552,6.5096e-05,1.4205e+08,14.977,0,2.1122e+08,49.586,12606,574.93,0,574.93,0,0.00043516,2.32e-09,0,0.00021886,8.1527e-05,1.6275e+08,736.77,0,8.1046e+07,108.64,574.93,1
1988,2.66,12110,1,12110,1,3.0458e-05,-5.9646e-10,0,0.00037869,-5.5449e-06,-35.979,-189.93,0,1.4163e+08,-11.184,12109,13104,1,13104,1,0.00076032,5.2168e-09,0,0.00076032,0.00013121,2.5896e+08,1671.2,0,2.8447e+08,124.65,13103,12110,1,12110,1,3.0458e-05,-3.2178e-10,0,0.00037844,-5.5288e-06,1.0956e+07,-104.03,0,1.426e+08,-4.823,12109,11091,1,11091,1,-0.0006994,-5.6347e-09,0,3.4266e-06,-0.00014231,-2.8447e+08,-1804.5,0,1.0053e+06,-919.55,11090,11613,1,11613,1,-0.00034798,-1.9048e-09,0,0.00018922,-7.6441e-05,-1.4153e+08,-594.8,0,7.1317e+07,-39.99,11612,12607,1,12607,1,0.0004089,4.8255e-10,0,0.00056766,6.5338e-05,1.426e+08,152.62,0,2.1201e+08,41.947,12606,574.93,0,574.93,0,0.00043682,1.8483e-09,0,0.00021969,8.1837e-05,1.6336e+08,588.98,0,8.1343e+07,115.21,574.93,1
1988,2.67,12110,1,12110,1,3.0597e-05,-7.7262e-10,0,0.00038011,-5.5702e-06,38.588,-245.32,0,1.4216e+08,-16.642,12109,13104,1,13104,1,0.00076322,4.7885e-09,0,0.00076322,0.0001317,2.5986e+08,1534.1,0,2.8554e+08,169.43,13103,12110,1,12110,1,3.0597e-05,-2.9029e-10,0,0.00037987,-5.5541e-06,1.1007e+07,-88.634,0,1.4314e+08,-12.439,12109,11091,1,11091,1,-0.00070202,-6.1372e-09,0,3.4632e-06,-0.00014285,-2.8554e+08,-1965.7,0,1.0181e+06,-989.49,11090,11613,1,11613,1,-0.00034927,-2.2061e-09,0,0.00018994,-7.6734e-05,-1.4206e+08,-700.64,0,7.1585e+07,-46.321,11612,12607,1,12607,1,0.00041047,5.419e-10,0,0.00056981,6.558e-05,1.4314e+08,168.59,0,2.1279e+08,42.411,12606,574.93,0,574.93,0,0.00043846,2.0164e-09,0,0.00022052,8.2145e-05,1.6396e+08,642.01,0,8.1638e+07,128.8,574.93,1
1988,2.68,12110,1,12110,1,3.0744e-05,-1.1187e-09,0,0.00038156,-5.5971e-06,49.603,-356,0,1.4268e+08,-17.298,12109,13104,1,13104,1,0.00076614,4.1672e-09,0,0.00076614,0.00013219,2.6076e+08,1335,0,2.866e+08,113.65,13103,12110,1,12110,1,3.0744e-05,-8.0099e-10,0,0.00038131,-5.5809e-06,1.106e+07,-248.09,0,1.437e+08,-7.6706,12109,11091,1,11091,1,-0.00070465,-5.9507e-09,0,3.5077e-06,-0.00014339,-2.866e+08,-1905.9,0,1.0341e+06,-1039.1,11090,11613,1,11613,1,-0.00035056,-2.5767e-09,0,0.00019065,-7.703e-05,-1.4258e+08,-825.82,0,7.1855e+07,-45.268,11612,12607,1,12607,1,0.00041205,1.6506e-10,0,0.00057196,6.5823e-05,1.437e+08,52.294,0,2.1357e+08,37.207,12606,574.93,0,574.93,0,0.00044012,1.8311e-09,0,0.00022135,8.2456e-05,1.6456e+08,583.66,0,8.1932e+07,122.16,574.93,1
1988,2.69,12110,1,12110,1,3.0896e-05,-2.0945e-09,0,0.00038299,-5.6249e-06,473.48,-665.87,0,1.432e+08,-40.724,12109,13104,1,13104,1,0.00076906,4.4987e-09,0,0.00076906,0.00013268,2.6164e+08,1441.1,0,2.8767e+08,162.64,13103,12110,1,12110,1,3.0896e-05,-1.8212e-09,0,0.00038274,-5.6088e-06,1.1115e+07,-568.52,0,1.4425e+08,-21.588,12109,11091,1,11091,1,-0.00070727,-8.5708e-09,0,3.5578e-06,-0.00014394,-2.8767e+08,-2744.9,0,1.0522e+06,-1162,11090,11613,1,11613,1,-0.00035184,-4.1917e-09,0,0.00019137,-7.7326e-05,-1.431e+08,-1339.6,0,7.2124e+07,-79.972,11612,12607,1,12607,1,0.00041363,1.4168e-10,0,0.00057411,6.6062e-05,1.4425e+08,44.524,0,2.1435e+08,31.37,12606,574.93,0,574.93,0,0.00044177,2.5713e-09,0,0.00022218,8.2765e-05,1.6516e+08,818.94,0,8.2222e+07,141.77,574.93,1
1988,2.7,12110,1,12110,1,3.1048e-05,-1.5485e-09,0,0.00038443,-5.6525e-06,221.02,-493.21,0,1.4373e+08,-14.274,12109,13104,1,13104,1,0.00077197,4.2025e-09,0,0.00077197,0.00013317,2.6252e+08,1346.3,0,2.8873e+08,146.18,13103,12110,1,12110,1,3.1047e-05,-1.0707e-09,0,0.00038417,-5.6364e-06,1.117e+07,-349.82,0,1.448e+08,-3.9025,12109,11091,1,11091,1,-0.00070987,-7.4384e-09,0,3.6066e-06,-0.00014448,-2.8873e+08,-2381.8,0,1.07e+06,-1169.7,11090,11613,1,11613,1,-0.00035312,-3.1417e-09,0,0.00019209,-7.7622e-05,-1.4362e+08,-1003.8,0,7.2393e+07,-49.476,11612,12607,1,12607,1,0.00041522,6.8315e-11,0,0.00057626,6.6303e-05,1.448e+08,21.96,0,2.1512e+08,42.889,12606,574.93,0,574.93,0,0.00044343,2.1488e-09,0,0.00022301,8.3075e-05,1.6576e+08,684.89,0,8.2513e+07,123.33,574.93,1
1988,2.71,12110,1,12110,1,3.1199e-05,-1.2687e-09,0,0.00038586,-5.6801e-06,-30.077,-403.88,0,1.4425e+08,-1.6184,12109,13104,1,13104,1,0.00077487,5.1022e-09,0,0.00077487,0.00013366,2.6339e+08,1634.2,0,2.8979e+08,150.08,13103,12110,1,12110,1,3.1199e-05,-8.2786e-10,0,0.0003856,-5.6639e-06,1.1225e+07,-251.97,0,1.4535e+08,-1.3869,12109,11091,1,11091,1,-0.00071247,-7.6794e-09,0,3.6558e-06,-0.00014503,-2.8979e+08,-2458.9,0,1.0876e+06,-1178,11090,11613,1,11613,1,-0.0003544,-2.9121e-09,0,0.0001928,-7.7917e-05,-1.4414e+08,-907.58,0,7.2662e+07,-44.77,11612,12607,1,12607,1,0.0004168,2.3977e-10,0,0.0005784,6.6543e-05,1.4535e+08,74.254,0,2.1589e+08,49.802,12606,574.93,0,574.93,0,0.00044508,2.2017e-09,0,0.00022384,8.3384e-05,1.6636e+08,701.69,0,8.2803e+07,100.71,574.93,1
1988,2.72,12110,1,12110,1,3.1352e-05,-1.2542e-09,0,0.0003873,-5.708e-06,52.409,-399.27,0,1.4477e+08,-7.0094,12109,13104,1,13104,1,0.0007778,7.5641e-09,0,0.0007778,0.00013415,2.6428e+08,2422.6,0,2.9085e+08,213.87,13103,12110,1,12110,1,3.1352e-05,-7.7504e-10,0,0.00038704,-5.6919e-06,1.1281e+07,-240.52,0,1.4591e+08,-5.2507,12109,11091,1,11091,1,-0.0007151,-8.0011e-09,0,3.7061e-06,-0.00014557,-2.9085e+08,-2561.7,0,1.106e+06,-1299,11090,11613,1,11613,1,-0.00035569,-3.5183e-09,0,0.00019352,-7.8215e-05,-1.4466e+08,-1122.6,0,7.2931e+07,-72.192,11612,12607,1,12607,1,0.00041839,5.648e-10,0,0.00058056,6.6784e-05,1.4591e+08,181.26,0,2.1667e+08,71.113,12606,574.93,0,574.93,0,0.00044673,2.9011e-09,0,0.00022468,8.3694e-05,1.6696e+08,924.22,0,8.3095e+07,129.23,574.93,1
1988,2.73,12110,1,12110,1,3.1508e-05,7.138e-11,0,0.00038878,-5.7366e-06,-36.174,21.783,0,1.4531e+08,-20.972,12109,13104,1,13104,1,0.00078078,2.2004e-09,0,0.00078078,0.00013465,2.6518e+08,677.32,0,2.9194e+08,55.121,13103,12110,1,12110,1,3.1508e-05,8.4485e-11,0,0.00038851,-5.7205e-06,1.1338e+07,24.824,0,1.4647e+08,-12.994,12109,11091,1,11091,1,-0.00071776,-2.7044e-09,0,3.7575e-06,-0.00014613,-2.9194e+08,-833.43,0,1.1244e+06,-1269,11090,11613,1,11613,1,-0.000357,-4.6512e-10,0,0.00019425,-7.8519e-05,-1.452e+08,-147.27,0,7.3208e+07,-32.913,11612,12607,1,12607,1,0.00042002,7.3136e-10,0,0.00058276,6.7031e-05,1.4647e+08,229.88,0,2.1746e+08,4.8697,12606,574.93,0,574.93,0,0.00044844,9.5788e-10,0,0.00022554,8.4013e-05,1.6757e+08,301.67,0,8.3394e+07,90.312,574.93,1
1988,2.74,12110,1,12110,1,3.1661e-05,-6.5815e-10,0,0.0003902,-5.7646e-06,5.0889,-209,0,1.4582e+08,-7.2038,12109,13104,1,13104,1,0.00078367,2.5296e-09,0,0.00078367,0.00013513,2.6604e+08,810.16,0,2.9299e+08,53.63,13103,12110,1,12110,1,3.1661e-05,-5.309e-10,0,0.00038992,-5.7484e-06,1.1393e+07,-169.71,0,1.4702e+08,0.31907,12109,11091,1,11091,1,-0.00072034,-4.0094e-09,0,3.8094e-06,-0.00014667,-2.9299e+08,-1283.7,0,1.1433e+06,-1350.1,11090,11613,1,11613,1,-0.00035826,-1.2198e-09,0,0.00019496,-7.8812e-05,-1.4571e+08,-387.11,0,7.3474e+07,-13.576,11612,12607,1,12607,1,0.00042159,-4.2265e-11,0,0.00058489,6.7268e-05,1.4702e+08,-13.303,0,2.1822e+08,17.32,12606,574.93,0,574.93,0,0.00045007,7.5193e-10,0,0.00022636,8.4319e-05,1.6816e+08,239.07,0,8.368e+07,93.927,574.93,1
1988,2.75,12110,1,12110,1,3.1814e-05,-9.7927e-10,0,0.00039163,-5.7925e-06,43.668,-311.38,0,1.4634e+08,-13.639,12109,13104,1,13104,1,0.00078657,3.4454e-09,0,0.00078657,0.00013562,2.6691e+08,1103.3,0,2.9405e+08,62.319,13103,12110,1,12110,1,3.1814e-05,-8.7352e-10,0,0.00039135,-5.7764e-06,1.1449e+07,-273.62,0,1.4757e+08,-3.6551,12109,11091,1,11091,1,-0.00072294,-5.101e-09,0,3.8605e-06,-0.00014721,-2.9405e+08,-1633,0,1.1618e+06,-1417.7,11090,11613,1,11613,1,-0.00035954,-1.9057e-09,0,0.00019568,-7.9107e-05,-1.4623e+08,-593.53,0,7.3741e+07,-25.647,11612,12607,1,12607,1,0.00042317,-5.358e-11,0,0.00058703,6.7508e-05,1.4757e+08,-16.927,0,2.1899e+08,21.338,12606,574.93,0,574.93,0,0.00045172,1.1446e-09,0,0.00022719,8.4627e-05,1.6875e+08,364.9,0,8.3969e+07,108.46,574.93,1
1988,2.76,12110,1,12110,1,3.1968e-05,-2.1804e-09,0,0.00039305,-5.8206e-06,153.2,-692.7,0,1.4686e+08,-8.2678,12109,13104,1,13104,1,0.00078949,4.857e-09,0,0.00078949,0.00013611,2.6779e+08,1555.4,0,2.9511e+08,246.26,13103,12110,1,12110,1,3.1967e-05,-1.6832e-09,0,0.00039278,-5.8041e-06,1.1505e+07,-527.08,0,1.4812e+08,-8.4506,12109,11091,1,11091,1,-0.00072556,-8.4841e-09,0,3.9121e-06,-0.00014776,-2.9511e+08,-2632.3,0,1.1806e+06,-1368,11090,11613,1,11613,1,-0.00036081,-4.4034e-09,0,0.00019639,-7.9403e-05,-1.4675e+08,-1412.8,0,7.4009e+07,-64.43,11612,12607,1,12607,1,0.00042474,1.7052e-10,0,0.00058916,6.7746e-05,1.4812e+08,52.47,0,2.1976e+08,58.912,12606,574.93,0,574.93,0,0.00045336,2.7801e-09,0,0.00022801,8.4935e-05,1.6935e+08,884.29,0,8.4256e+07,114.52,574.93,1
1988,2.77,12110,1,12110,1,3.2122e-05,-9.0192e-10,0,0.0003945,-5.8488e-06,-65.933,-287.72,0,1.4739e+08,-0.089006,12109,13104,1,13104,1,0.00079242,3.7051e-09,0,0.00079242,0.0001366,2.6866e+08,1186.3,0,2.9617e+08,121.13,13103,12110,1,12110,1,3.2122e-05,-4.7445e-10,0,0.00039422,-5.8325e-06,1.1561e+07,-152.21,0,1.4868e+08,4.3474,12109,11091,1,11091,1,-0.00072817,-4.6671e-09,0,3.9636e-06,-0.00014831,-2.9617e+08,-1494.4,0,1.1992e+06,-1468.7,11090,11613,1,11613,1,-0.00036209,-1.9094e-09,0,0.00019711,-7.9701e-05,-1.4727e+08,-617.14,0,7.428e+07,-26.575,11612,12607,1,12607,1,0.00042634,2.5931e-10,0,0.00059133,6.7988e-05,1.4868e+08,84.15,0,2.2054e+08,37.204,12606,574.93,0,574.93,0,0.00045502,1.517e-09,0,0.00022885,8.5247e-05,1.6995e+08,483.81,0,8.4548e+07,80.102,574.93,1
1988,2.78,12110,1,12110,1,3.2279e-05,-2.0875e-09,0,0.00039593,-5.8773e-06,-96.332,-663.31,0,1.479e+08,6.9087,12109,13104,1,13104,1,0.00079533,1.2969e-09,0,0.00079533,0.00013709,2.6953e+08,411.56,0,2.9723e+08,192.1,13103,12110,1,12110,1,3.2278e-05,-1.8743e-09,0,0.00039564,-5.8592e-06,1.1618e+07,-590.83,0,1.4923e+08,9.1415,12109,11091,1,11091,1,-0.00073077,-6.8389e-09,0,4.0178e-06,-0.00014885,-2.9723e+08,-2114.1,0,1.2192e+06,-214.07,11090,11613,1,11613,1,-0.00036336,-3.4231e-09,0,0.00019782,-7.9997e-05,-1.4779e+08,-1089.3,0,7.4547e+07,-26.714,11612,12607,1,12607,1,0.00042792,-3.6015e-10,0,0.00059347,6.8226e-05,1.4923e+08,-118.33,0,2.213e+08,47.769,12606,574.93,0,574.93,0,0.00045667,2.0005e-09,0,0.00022968,8.5555e-05,1.7054e+08,635.3,0,8.4836e+07,65.073,574.93,1
1988,2.79,12110,1,12110,1,3.2447e-05,-5.1394e-10,0,0.00039736,-5.9082e-06,0.057355,-164.97,0,1.4842e+08,2.0085,12109,13104,1,13104,1,0.00079824,9.5834e-09,0,0.00079824,0.00013757,2.7037e+08,3074,0,2.9828e+08,255.65,13103,12110,1,12110,1,3.2447e-05,-7.5795e-11,0,0.00039707,-5.8919e-06,1.1679e+07,-24.177,0,1.4978e+08,-5.4421,12109,11091,1,11091,1,-0.00073334,-1.0969e-08,0,4.085e-06,-0.0001494,-2.9828e+08,-3510.6,0,1.2439e+06,-1635.3,11090,11613,1,11613,1,-0.00036462,-3.3414e-09,0,0.00019853,-8.0295e-05,-1.483e+08,-1068.1,0,7.4814e+07,-76.719,11612,12607,1,12607,1,0.00042952,1.8022e-09,0,0.0005956,6.8462e-05,1.4978e+08,573.63,0,2.2206e+08,91.536,12606,574.93,0,574.93,0,0.00045831,4.065e-09,0,0.00023051,8.5862e-05,1.7112e+08,1291,0,8.5118e+07,133.06,574.93,1
1988,2.8,12110,1,12110,1,3.2619e-05,-2.1472e-09,0,0.00039882,-5.9396e-06,-158.83,-681.44,0,1.4894e+08,-0.53993,12109,13104,1,13104,1,0.00080123,2.9948e-09,0,0.00080123,0.00013807,2.7124e+08,958.93,0,2.9935e+08,170.12,13103,12110,1,12110,1,3.2619e-05,-1.8334e-09,0,0.00039853,-5.9231e-06,1.1742e+07,-586.03,0,1.5034e+08,4.3517,12109,11091,1,11091,1,-0.00073599,-7.099e-09,0,4.1526e-06,-0.00014995,-2.9935e+08,-2188,0,1.2686e+06,-1678.8,11090,11613,1,11613,1,-0.00036591,-3.5765e-09,0,0.00019926,-8.0599e-05,-1.4882e+08,-1149.8,0,7.5087e+07,-43.228,11612,12607,1,12607,1,0.00043114,-3.8613e-10,0,0.00059779,6.8703e-05,1.5034e+08,-118.39,0,2.2283e+08,54.324,12606,574.93,0,574.93,0,0.00046,2.1493e-09,0,0.00023135,8.6177e-05,1.7172e+08,682.97,0,8.5407e+07,89.021,574.93,1
1988,2.81,12110,1,12110,1,3.2791e-05,-7.3559e-10,0,0.00040025,-5.971e-06,-4.9486,-235.2,0,1.4945e+08,11.832,12109,13104,1,13104,1,0.00080415,6.9161e-09,0,0.00080415,0.00013855,2.7208e+08,2141.5,0,3.004e+08,251.72,13103,12110,1,12110,1,3.2791e-05,-1.0795e-10,0,0.00039995,-5.9529e-06,1.1805e+07,-33.747,0,1.509e+08,7.2622,12109,11091,1,11091,1,-0.00073856,-9.7068e-09,0,4.2224e-06,-0.0001505,-3.004e+08,-3110.3,0,1.2945e+06,-395.01,11090,11613,1,11613,1,-0.00036716,-3.3074e-09,0,0.00019998,-8.0898e-05,-1.4933e+08,-1068.8,0,7.5355e+07,-57.059,11612,12607,1,12607,1,0.00043274,1.7426e-09,0,0.00059993,6.894e-05,1.509e+08,554.93,0,2.2358e+08,86.663,12606,574.93,0,574.93,0,0.00046164,3.7747e-09,0,0.00023218,8.6486e-05,1.7231e+08,1198.9,0,8.5689e+07,98.581,574.93,1
1988,2.82,12110,1,12110,1,3.2964e-05,-9.3118e-10,0,0.0004017,-6.0026e-06,6.3468,-296.37,0,1.4997e+08,-8.7498,12109,13104,1,13104,1,0.00080711,6.4272e-09,0,0.00080711,0.00013904,2.7293e+08,2062.7,0,3.0146e+08,164.33,13103,12110,1,12110,1,3.2963e-05,-4.0908e-10,0,0.0004014,-5.9855e-06,1.1868e+07,-126.36,0,1.5146e+08,-14.018,12109,11091,1,11091,1,-0.00074118,-6.6923e-09,0,4.2918e-06,-0.00015105,-3.0146e+08,-2083.9,0,1.32e+06,-1241.7,11090,11613,1,11613,1,-0.00036844,-2.8107e-09,0,0.0002007,-8.1201e-05,-1.4985e+08,-890.94,0,7.5626e+07,-62.83,11612,12607,1,12607,1,0.00043436,7.0175e-10,0,0.0006021,6.9179e-05,1.5146e+08,214.17,0,2.2435e+08,47.514,12606,574.93,0,574.93,0,0.00046331,2.5867e-09,0,0.00023302,8.6799e-05,1.729e+08,823.9,0,8.5975e+07,79.339,574.93,1
1988,2.83,12110,1,12110,1,3.3137e-05,-7.1199e-10,0,0.00040315,-6.0343e-06,-17.321,-226.64,0,1.5049e+08,-15.944,12109,13104,1,13104,1,0.00081006,4.8451e-09,0,0.00081006,0.00013953,2.7378e+08,1550.6,0,3.0252e+08,122.94,13103,12110,1,12110,1,3.3137e-05,-2.0888e-10,0,0.00040284,-6.0182e-06,1.1931e+07,-67.909,0,1.5201e+08,-10.211,12109,11091,1,11091,1,-0.00074378,-7.3385e-09,0,4.3622e-06,-0.0001516,-3.0252e+08,-2348.1,0,1.3459e+06,-2010.9,11090,11613,1,11613,1,-0.0003697,-1.988e-09,0,0.00020142,-8.1503e-05,-1.5037e+08,-621.39,0,7.5897e+07,-42.734,11612,12607,1,12607,1,0.00043598,5.273e-10,0,0.00060426,6.9417e-05,1.5201e+08,167.1,0,2.2511e+08,29.895,12606,574.93,0,574.93,0,0.00046498,1.7572e-09,0,0.00023386,8.711e-05,1.7349e+08,560.85,0,8.626e+07,135,574.93,1
1988,2.84,12110,1,12110,1,3.3309e-05,-1.4013e-09,0,0.00040458,-6.0657e-06,-102.53,-445.4,0,1.51e+08,10.752,12109,13104,1,13104,1,0.00081298,5.1595e-09,0,0.00081298,0.00014002,2.7462e+08,1602.8,0,3.0357e+08,171.89,13103,12110,1,12110,1,3.3308e-05,-9.1651e-10,0,0.00040427,-6.0469e-06,1.1993e+07,-295.1,0,1.5256e+08,5.3375,12109,11091,1,11091,1,-0.00074636,-7.5455e-09,0,4.4325e-06,-0.00015215,-3.0357e+08,-2330.8,0,1.372e+06,-143.33,11090,11613,1,11613,1,-0.00037096,-3.5813e-09,0,0.00020213,-8.1801e-05,-1.5088e+08,-1127.1,0,7.6163e+07,-44.894,11612,12607,1,12607,1,0.00043757,5.3081e-10,0,0.0006064,6.9652e-05,1.5256e+08,169.94,0,2.2586e+08,65.342,12606,574.93,0,574.93,0,0.00046662,2.8338e-09,0,0.00023469,8.7418e-05,1.7408e+08,899.85,0,8.654e+07,73.023,574.93,1
1988,2.85,12110,1,12110,1,3.3482e-05,-1.4261e-09,0,0.00040602,-6.0974e-06,10.831,-453.91,0,1.5152e+08,5.6612,12109,13104,1,13104,1,0.00081594,7.5835e-09,0,0.00081594,0.00014051,2.7547e+08,2349.9,0,3.0463e+08,262.02,13103,12110,1,12110,1,3.3482e-05,-4.3065e-10,0,0.0004057,-6.0812e-06,1.2057e+07,-131.46,0,1.5312e+08,4.0981,12109,11091,1,11091,1,-0.00074897,-1.4119e-08,0,4.5033e-06,-0.0001527,-3.0463e+08,-4517.1,0,1.3982e+06,-2105.6,11090,11613,1,11613,1,-0.00037222,-4.2668e-09,0,0.00020285,-8.2102e-05,-1.5139e+08,-1363.3,0,7.6433e+07,-78.001,11612,12607,1,12607,1,0.00043919,1.2835e-09,0,0.00060856,6.989e-05,1.5312e+08,383.62,0,2.2662e+08,96.433,12606,574.93,0,574.93,0,0.00046828,4.2271e-09,0,0.00023552,8.7728e-05,1.7467e+08,1343.7,0,8.6823e+07,132.66,574.93,1
1988,2.86,12110,1,12110,1,3.3658e-05,-1.6341e-09,0,0.00040748,-6.1296e-06,38.249,-519.81,0,1.5204e+08,-4.1511,12109,13104,1,13104,1,0.00081891,4.3585e-09,0,0.00081891,0.000141,2.7632e+08,1358.1,0,3.057e+08,199.72,13103,12110,1,12110,1,3.3658e-05,-1.0125e-09,0,0.00040715,-6.1106e-06,1.2121e+07,-325.37,0,1.5368e+08,-6.4896,12109,11091,1,11091,1,-0.00075159,-7.7153e-09,0,4.5753e-06,-0.00015326,-3.057e+08,-2387.9,0,1.4247e+06,-215.26,11090,11613,1,11613,1,-0.0003735,-3.9055e-09,0,0.00020358,-8.2406e-05,-1.5191e+08,-1256.5,0,7.6705e+07,-62.968,11612,12607,1,12607,1,0.00044081,4.036e-10,0,0.00061073,7.0129e-05,1.5368e+08,125.32,0,2.2739e+08,54.613,12606,574.93,0,574.93,0,0.00046995,2.8873e-09,0,0.00023637,8.8042e-05,1.7526e+08,918.54,0,8.7109e+07,83.913,574.93,1
1988,2.87,12110,1,12110,1,3.3833e-05,-1.2039e-09,0,0.00040892,-6.1616e-06,54.871,-383.38,0,1.5255e+08,-0.33676,12109,13104,1,13104,1,0.00082185,5.9504e-09,0,0.00082185,0.00014148,2.7715e+08,1851.8,0,3.0675e+08,205.35,13103,12110,1,12110,1,3.3833e-05,-4.1723e-10,0,0.00040859,-6.1426e-06,1.2185e+07,-131.54,0,1.5424e+08,-4.9731,12109,11091,1,11091,1,-0.00075418,-9.0948e-09,0,4.6481e-06,-0.00015381,-3.0675e+08,-2831.7,0,1.4516e+06,-195.29,11090,11613,1,11613,1,-0.00037475,-3.5023e-09,0,0.00020429,-8.2707e-05,-1.5242e+08,-1113.3,0,7.6973e+07,-67.097,11612,12607,1,12607,1,0.00044242,9.4342e-10,0,0.00061288,7.0365e-05,1.5424e+08,295.56,0,2.2814e+08,66.445,12606,574.93,0,574.93,0,0.00047161,3.3142e-09,0,0.0002372,8.8352e-05,1.7585e+08,1054.1,0,8.7391e+07,85.394,574.93,1
1988,2.88,12110,1,12110,1,3.401e-05,-7.2703e-10,0,0.00041037,-6.1939e-06,37.723,-232.13,0,1.5307e+08,-7.4931,12109,13104,1,13104,1,0.00082481,5.4654e-09,0,0.00082481,0.00014197,2.78e+08,1749.1,0,3.0781e+08,244.06,13103,12110,1,12110,1,3.4009e-05,-4.2429e-10,0,0.00041004,-6.1768e-06,1.2249e+07,-130.42,0,1.548e+08,-3.8008,12109,11091,1,11091,1,-0.00075679,-7.3389e-09,0,4.7211e-06,-0.00015436,-3.0781e+08,-2349.1,0,1.4786e+06,-1625.9,11090,11613,1,11613,1,-0.00037603,-2.1998e-09,0,0.00020502,-8.3011e-05,-1.5294e+08,-700.77,0,7.7245e+07,-47.701,11612,12607,1,12607,1,0.00044405,5.2161e-10,0,0.00061505,7.0604e-05,1.548e+08,160.61,0,2.2891e+08,40.421,12606,574.93,0,574.93,0,0.00047328,2.0483e-09,0,0.00023804,8.8665e-05,1.7644e+08,653.06,0,8.7677e+07,91.725,574.93,1
1988,2.89,12110,1,12110,1,3.4187e-05,-1.2025e-09,0,0.00041182,-6.2263e-06,22.687,-382.04,0,1.5359e+08,-1.3184,12109,13104,1,13104,1,0.00082777,2.3054e-09,0,0.00082777,0.00014246,2.7884e+08,731.51,0,3.0887e+08,137.16,13103,12110,1,12110,1,3.4186e-05,-7.0704e-10,0,0.00041148,-6.2071e-06,1.2314e+07,-220.54,0,1.5536e+08,-2.1405,12109,11091,1,11091,1,-0.0007594,-5.8321e-09,0,4.7951e-06,-0.00015491,-3.0887e+08,-1804.4,0,1.5059e+06,-129.99,11090,11613,1,11613,1,-0.00037729,-2.4542e-09,0,0.00020574,-8.3314e-05,-1.5345e+08,-774.78,0,7.7515e+07,-37.07,11612,12607,1,12607,1,0.00044567,1.7456e-10,0,0.00061722,7.0842e-05,1.5536e+08,54.175,0,2.2967e+08,40.835,12606,574.93,0,574.93,0,0.00047495,1.8359e-09,0,0.00023888,8.8977e-05,1.7703e+08,583.73,0,8.796e+07,57.154,574.93,1
1988,2.9,12110,1,12110,1,3.4376e-05,-8.2339e-10,0,0.00041329,-6.261e-06,53.82,-262.7,0,1.5411e+08,-20.876,12109,13104,1,13104,1,0.00083077,2.5766e-10,0,0.00083077,0.00014295,2.7968e+08,87.716,0,3.0994e+08,46.606,13103,12110,1,12110,1,3.4376e-05,-9.1579e-10,0,0.00041294,-6.2417e-06,1.2383e+07,-291.12,0,1.5592e+08,-14.74,12109,11091,1,11091,1,-0.00076201,-2.2784e-09,0,4.8802e-06,-0.00015547,-3.0994e+08,-693.77,0,1.5375e+06,-118.58,11090,11613,1,11613,1,-0.00037856,-1.2431e-09,0,0.00020647,-8.3621e-05,-1.5397e+08,-399.1,0,7.7788e+07,-35.458,11612,12607,1,12607,1,0.00044731,-3.6431e-10,0,0.00061941,7.108e-05,1.5592e+08,-111.04,0,2.3043e+08,-3.2041,12606,574.93,0,574.93,0,0.00047663,5.7319e-10,0,0.00023973,8.9292e-05,1.7762e+08,182.63,0,8.8243e+07,26.348,574.93,1
1988,2.91,12110,1,12110,1,3.4569e-05,-2.271e-09,0,0.00041471,-6.2962e-06,-56.534,-721.27,0,1.5461e+08,12.213,12109,13104,1,13104,1,0.00083373,4.0396e-09,0,0.00083373,0.00014343,2.8049e+08,1260,0,3.1098e+08,231.06,13103,12110,1,12110,1,3.4568e-05,-1.9099e-09,0,0.00041436,-6.2768e-06,1.2453e+07,-611.6,0,1.5646e+08,12.065,12109,11091,1,11091,1,-0.00076458,-8.6473e-09,0,4.971e-06,-0.00015603,-3.1098e+08,-2665,0,1.5714e+06,-220.75,11090,11613,1,11613,1,-0.00037979,-4.7086e-09,0,0.00020718,-8.3923e-05,-1.5447e+08,-1508.6,0,7.8054e+07,-60.596,11612,12607,1,12607,1,0.00044893,2.5496e-10,0,0.00062154,7.1311e-05,1.5646e+08,78.796,0,2.3116e+08,95.02,12606,574.93,0,574.93,0,0.00047827,3.0269e-09,0,0.00024056,8.9599e-05,1.7819e+08,960.1,0,8.8515e+07,103.64,574.93,1
1988,2.92,12110,1,12110,1,3.4764e-05,-1.4821e-09,0,0.00041617,-6.332e-06,162.56,-473.26,0,1.5513e+08,-13.33,12109,13104,1,13104,1,0.00083671,2.6813e-09,0,0.00083671,0.00014392,2.8131e+08,844.86,0,3.1204e+08,165.66,13103,12110,1,12110,1,3.4764e-05,-9.8683e-10,0,0.00041581,-6.3125e-06,1.2525e+07,-319.26,0,1.5701e+08,-19.882,12109,11091,1,11091,1,-0.00076717,-6.3399e-09,0,5.063e-06,-0.00015658,-3.1204e+08,-1957.9,0,1.6057e+06,-147.61,11090,11613,1,11613,1,-0.00038105,-3.1876e-09,0,0.00020791,-8.4231e-05,-1.5498e+08,-1018.2,0,7.8325e+07,-59.929,11612,12607,1,12607,1,0.00045058,2.6851e-10,0,0.00062372,7.1546e-05,1.5701e+08,81.183,0,2.3191e+08,39.814,12606,574.93,0,574.93,0,0.00047995,2.2225e-09,0,0.0002414,8.9912e-05,1.7877e+08,708.88,0,8.8794e+07,68.002,574.93,1
1988,2.93,12110,1,12110,1,3.4961e-05,-1.4954e-09,0,0.00041762,-6.3681e-06,153.54,-476.58,0,1.5564e+08,-17.962,12109,13104,1,13104,1,0.0008397,2.1426e-09,0,0.0008397,0.00014441,2.8212e+08,676.59,0,3.1309e+08,166.88,13103,12110,1,12110,1,3.4961e-05,-9.4732e-10,0,0.00041726,-6.3484e-06,1.2597e+07,-304.17,0,1.5756e+08,-19.651,12109,11091,1,11091,1,-0.00076977,-6.1776e-09,0,5.1566e-06,-0.00015714,-3.1309e+08,-1903.8,0,1.6406e+06,-189.56,11090,11613,1,11613,1,-0.0003823,-2.963e-09,0,0.00020863,-8.4538e-05,-1.5549e+08,-937.38,0,7.8596e+07,-62.457,11612,12607,1,12607,1,0.00045222,1.3518e-10,0,0.00062589,7.1781e-05,1.5756e+08,42.254,0,2.3266e+08,24.196,12606,574.93,0,574.93,0,0.00048162,2.0481e-09,0,0.00024224,9.0225e-05,1.7936e+08,653.14,0,8.9072e+07,67.772,574.93,1
1988,2.94,12110,1,12110,1,3.5157e-05,-1.2474e-09,0,0.00041907,-6.404e-06,74.413,-397.89,0,1.5614e+08,-5.4694,12109,13104,1,13104,1,0.00084266,3.0136e-09,0,0.00084266,0.00014489,2.8293e+08,944.27,0,3.1414e+08,152.33,13103,12110,1,12110,1,3.5157e-05,-7.4863e-10,0,0.0004187,-6.3842e-06,1.2669e+07,-235.13,0,1.5811e+08,-5.7928,12109,11091,1,11091,1,-0.00077234,-6.392e-09,0,5.2503e-06,-0.00015769,-3.1414e+08,-1984.5,0,1.6755e+06,-144.04,11090,11613,1,11613,1,-0.00038354,-2.7985e-09,0,0.00020935,-8.4843e-05,-1.5599e+08,-880.42,0,7.8865e+07,-53.875,11612,12607,1,12607,1,0.00045385,3.112e-10,0,0.00062804,7.2014e-05,1.5811e+08,97.029,0,2.334e+08,44.196,12606,574.93,0,574.93,0,0.00048328,2.1715e-09,0,0.00024308,9.0536e-05,1.7993e+08,691.98,0,8.9347e+07,63.074,574.93,1
1988,2.95,12110,1,12110,1,3.5356e-05,-6.2485e-10,0,0.00042053,-6.4404e-06,138.58,-199.91,0,1.5666e+08,-17.861,12109,13104,1,13104,1,0.00084566,1.1085e-09,0,0.00084566,0.00014538,2.8375e+08,370.31,0,3.152e+08,68.553,13103,12110,1,12110,1,3.5356e-05,-3.0459e-10,0,0.00042015,-6.4205e-06,1.2742e+07,-96.024,0,1.5867e+08,-19.915,12109,11091,1,11091,1,-0.00077495,-3.0115e-09,0,5.3451e-06,-0.00015826,-3.152e+08,-936.99,0,1.7109e+06,-134.28,11090,11613,1,11613,1,-0.0003848,-1.355e-09,0,0.00021008,-8.5152e-05,-1.5651e+08,-434.42,0,7.9138e+07,-39.4,11612,12607,1,12607,1,0.00045551,1.4052e-10,0,0.00063023,7.2251e-05,1.5867e+08,43.78,0,2.3415e+08,5.5079,12606,574.93,0,574.93,0,0.00048496,1.0435e-09,0,0.00024393,9.0851e-05,1.8052e+08,334.3,0,8.9627e+07,35.544,574.93,1
1988,2.96,12110,1,12110,1,3.5554e-05,-5.8842e-10,0,0.00042197,-6.4766e-06,5.8723,-187.41,0,1.5716e+08,1.5962,12109,13104,1,13104,1,0.00084863,4.411e-09,0,0.00084863,0.00014586,2.8455e+08,1371.1,0,3.1624e+08,152.78,13103,12110,1,12110,1,3.5554e-05,-6.4416e-11,0,0.00042159,-6.4566e-06,1.2814e+07,-20.351,0,1.5921e+08,0.40875,12109,11091,1,11091,1,-0.00077751,-6.3866e-09,0,5.4406e-06,-0.00015881,-3.1624e+08,-1977.8,0,1.7466e+06,-142.81,11090,11613,1,11613,1,-0.00038603,-2.1617e-09,0,0.00021079,-8.5457e-05,-1.5701e+08,-686.6,0,7.9405e+07,-50.132,11612,12607,1,12607,1,0.00045714,8.8095e-10,0,0.00063238,7.2483e-05,1.5921e+08,279.01,0,2.3489e+08,53.07,12606,574.93,0,574.93,0,0.00048661,2.3578e-09,0,0.00024476,9.116e-05,1.8109e+08,749.67,0,8.99e+07,67.203,574.93,1
1988,2.97,12110,1,12110,1,3.5754e-05,-4.4664e-10,0,0.00042343,-6.5131e-06,34.293,-142.6,0,1.5768e+08,-18.222,12109,13104,1,13104,1,0.00085163,2.2356e-09,0,0.00085163,0.00014635,2.8537e+08,713.55,0,3.173e+08,86.702,13103,12110,1,12110,1,3.5754e-05,-7.0878e-11,0,0.00042304,-6.493e-06,1.2887e+07,-22.091,0,1.5977e+08,-9.722,12109,11091,1,11091,1,-0.00078012,-3.8373e-09,0,5.5363e-06,-0.00015937,-3.173e+08,-1197.9,0,1.7823e+06,-122.78,11090,11613,1,11613,1,-0.00038729,-1.2366e-09,0,0.00021152,-8.5766e-05,-1.5752e+08,-394.08,0,7.9677e+07,-54.991,11612,12607,1,12607,1,0.00045879,4.2722e-10,0,0.00063456,7.2718e-05,1.5977e+08,138.57,0,2.3564e+08,17.718,12606,574.93,0,574.93,0,0.00048829,1.2899e-09,0,0.00024561,9.1475e-05,1.8168e+08,412.22,0,9.0178e+07,50.501,574.93,1
1988,2.98,12110,1,12110,1,3.5954e-05,-1.7416e-09,0,0.00042488,-6.5498e-06,90.414,-553.43,0,1.5818e+08,-8.9162,12109,13104,1,13104,1,0.00085462,3.3991e-09,0,0.00085462,0.00014684,2.8618e+08,1062.3,0,3.1836e+08,213.36,13103,12110,1,12110,1,3.5954e-05,-1.102e-09,0,0.00042448,-6.5296e-06,1.296e+07,-347.04,0,1.6032e+08,-15.67,12109,11091,1,11091,1,-0.00078271,-7.6664e-09,0,5.6336e-06,-0.00015993,-3.1836e+08,-2362.5,0,1.8186e+06,-185.1,11090,11613,1,11613,1,-0.00038853,-3.8054e-09,0,0.00021224,-8.6073e-05,-1.5802e+08,-1193.4,0,7.9947e+07,-66.119,11612,12607,1,12607,1,0.00046044,2.6685e-10,0,0.00063672,7.2951e-05,1.6032e+08,88.655,0,2.3638e+08,51.362,12606,574.93,0,574.93,0,0.00048995,2.6732e-09,0,0.00024645,9.1786e-05,1.8225e+08,850.06,0,9.0452e+07,83.958,574.93,1
1988,2.99,12110,1,12110,1,3.6154e-05,-1.8697e-10,0,0.00042632,-6.5863e-06,57.194,-61.712,0,1.5869e+08,-1.2958,12109,13104,1,13104,1,0.00085758,8.5556e-09,0,0.00085758,0.00014731,2.8697e+08,2661.1,0,3.194e+08,208.81,13103,12110,1,12110,1,3.6154e-05,9.3039e-11,0,0.00042591,-6.566e-06,1.3034e+07,27.415,0,1.6086e+08,-3.8785,12109,11091,1,11091,1,-0.00078527,-7.1425e-09,0,5.7307e-06,-0.00016048,-3.194e+08,-2213.3,0,1.8548e+06,-194.28,11090,11613,1,11613,1,-0.00038976,-2.3138e-09,0,0.00021296,-8.6378e-05,-1.5852e+08,-724.65,0,8.0215e+07,-70.159,11612,12607,1,12607,1,0.00046207,1.3982e-09,0,0.00063887,7.3183e-05,1.6086e+08,448.63,0,2.3712e+08,69.227,12606,574.93,0,574.93,0,0.00049161,3.1857e-09,0,0.00024728,9.2096e-05,1.8283e+08,1014,0,9.0725e+07,90.051,574.93,1
1988,3,12110,1,12110,1,3.6355e-05,-1.4759e-09,0,0.00042778,-6.6233e-06,57.949,-469.06,0,1.592e+08,-12.289,12109,13104,1,13104,1,0.00086059,4.7247e-09,0,0.00086059,0.0001478,2.8778e+08,1484.9,0,3.2046e+08,199.39,13103,12110,1,12110,1,3.6355e-05,-8.6678e-10,0,0.00042737,-6.6029e-06,1.3107e+07,-270.37,0,1.614e+08,-19.348,12109,11091,1,11091,1,-0.00078787,-7.5457e-09,0,5.8289e-06,-0.00016104,-3.2046e+08,-2325.2,0,1.8915e+06,-181.28,11090,11613,1,11613,1,-0.00039101,-3.5892e-09,0,0.00021368,-8.6687e-05,-1.5903e+08,-1111.1,0,8.0486e+07,-72.495,11612,12607,1,12607,1,0.00046372,4.3497e-10,0,0.00064105,7.3418e-05,1.6142e+08,136.58,0,2.3786e+08,55.992,12606,574.93,0,574.93,0,0.00049329,2.8184e-09,0,0.00024812,9.2409e-05,1.8341e+08,898.48,0,9.1002e+07,85.85,574.93,1
1988,3.01,12110,1,12110,1,3.6575e-05,-1.6449e-09,0,0.00042927,-6.6635e-06,-58.152,-524.82,0,1.5972e+08,-25.517,12109,13104,1,13104,1,0.00086367,6.407e-10,0,0.00086367,0.0001483,2.8859e+08,191.93,0,3.2153e+08,69.257,13103,12110,1,12110,1,3.6575e-05,-1.8162e-09,0,0.00042885,-6.643e-06,1.3188e+07,-569.4,0,1.6195e+08,-13.295,12109,11091,1,11091,1,-0.00079051,-3.5784e-09,0,5.942e-06,-0.00016162,-3.2153e+08,-1102.6,0,1.9339e+06,-164.23,11090,11613,1,11613,1,-0.00039227,-2.6481e-09,0,0.00021443,-8.7004e-05,-1.5955e+08,-840.55,0,8.0763e+07,-55.312,11612,12607,1,12607,1,0.00046543,-6.6033e-10,0,0.00064328,7.3655e-05,1.6197e+08,-212.71,0,2.3862e+08,7.9665,12606,574.93,0,574.93,0,0.000495,1.167e-09,0,0.00024899,9.273e-05,1.84e+08,371.96,0,9.1282e+07,48.021,574.93,1
1988,3.02,12110,1,12110,1,3.6813e-05,-1.5459e-09,0,0.00043071,-6.7071e-06,-9.9229,-494.07,0,1.6021e+08,-10.419,12109,13104,1,13104,1,0.00086667,4.5665e-09,0,0.00086667,0.00014877,2.8935e+08,1390.6,0,3.2256e+08,226.01,13103,12110,1,12110,1,3.6813e-05,-9.8804e-10,0,0.00043028,-6.6865e-06,1.3275e+07,-312.52,0,1.6246e+08,-16.928,12109,11091,1,11091,1,-0.00079304,-7.1654e-09,0,6.078e-06,-0.00016218,-3.2256e+08,-2218.4,0,1.9851e+06,-261.86,11090,11613,1,11613,1,-0.00039347,-3.711e-09,0,0.00021514,-8.7316e-05,-1.6003e+08,-1182.1,0,8.1029e+07,-69.14,11612,12607,1,12607,1,0.00046709,3.3367e-10,0,0.00064542,7.3879e-05,1.6249e+08,102.91,0,2.3933e+08,57.824,12606,574.93,0,574.93,0,0.00049665,2.6549e-09,0,0.00024982,9.3038e-05,1.8455e+08,844.52,0,9.1541e+07,89.687,574.93,1
1988,3.03,12110,1,12110,1,3.7052e-05,-2.444e-09,0,0.00043218,-6.751e-06,36.834,-778.51,0,1.6071e+08,-35.126,12109,13104,1,13104,1,0.00086973,1.3007e-09,0,0.00086973,0.00014926,2.9012e+08,445.46,0,3.236e+08,198.86,13103,12110,1,12110,1,3.7052e-05,-2.2535e-09,0,0.00043174,-6.7303e-06,1.3363e+07,-715.25,0,1.6299e+08,-27.136,12109,11091,1,11091,1,-0.00079562,-7.2873e-09,0,6.2129e-06,-0.00016275,-3.236e+08,-2267.7,0,2.0359e+06,-259.59,11090,11613,1,11613,1,-0.00039469,-4.2375e-09,0,0.00021587,-8.7633e-05,-1.6053e+08,-1355.2,0,8.1301e+07,-91.643,11612,12607,1,12607,1,0.00046879,-5.0634e-10,0,0.00064761,7.4108e-05,1.6303e+08,-160.45,0,2.4005e+08,20.482,12606,574.93,0,574.93,0,0.00049833,2.2008e-09,0,0.00025067,9.3353e-05,1.8512e+08,704.16,0,9.1809e+07,88.19,574.93,1
1988,3.04,12110,1,12110,1,3.7296e-05,2.9716e-10,0,0.00043367,-6.7956e-06,6.9675,89.811,0,1.6121e+08,-10.431,12109,13104,1,13104,1,0.00087278,9.079e-10,0,0.00087278,0.00014974,2.9089e+08,267.1,0,3.2465e+08,33.712,13103,12110,1,12110,1,3.7296e-05,2.7196e-10,0,0.00043321,-6.7746e-06,1.3453e+07,90.194,0,1.6352e+08,-8.0297,12109,11091,1,11091,1,-0.00079819,-2.8634e-10,0,6.3513e-06,-0.00016332,-3.2465e+08,-98.057,0,2.0881e+06,-105.79,11090,11613,1,11613,1,-0.00039592,5.3359e-11,0,0.00021661,-8.7953e-05,-1.6103e+08,18.235,0,8.1576e+07,-21.296,11612,12607,1,12607,1,0.00047051,5.4827e-10,0,0.00064982,7.4339e-05,1.6356e+08,161.85,0,2.4079e+08,1.1365,12606,574.93,0,574.93,0,0.00050004,3.0099e-10,0,0.00025153,9.3672e-05,1.8569e+08,90.141,0,9.2079e+07,19.09,574.93,1
1988,3.05,12110,1,12110,1,3.7539e-05,-1.118e-09,0,0.00043512,-6.8402e-06,-57.997,-355.03,0,1.6171e+08,-7.2851,12109,13104,1,13104,1,0.00087583,1.5126e-09,0,0.00087583,0.00015022,2.9165e+08,465.53,0,3.2569e+08,151.86,13103,12110,1,12110,1,3.7539e-05,-7.1672e-10,0,0.00043466,-6.8191e-06,1.3542e+07,-225.61,0,1.6403e+08,-8.2975,12109,11091,1,11091,1,-0.00080075,-4.5214e-09,0,6.492e-06,-0.00016389,-3.2569e+08,-1394.5,0,2.1411e+06,-172.66,11090,11613,1,11613,1,-0.00039712,-2.3637e-09,0,0.00021733,-8.8269e-05,-1.6152e+08,-740.85,0,8.1846e+07,-38.747,11612,12607,1,12607,1,0.0004722,8.811e-11,0,0.00065199,7.4565e-05,1.6409e+08,28.368,0,2.415e+08,31.985,12606,574.93,0,574.93,0,0.00050171,1.5228e-09,0,0.00025237,9.3985e-05,1.8625e+08,483.75,0,9.2342e+07,60.336,574.93,1
1988,3.06,12110,1,12110,1,3.7783e-05,-1.4465e-09,0,0.00043659,-6.8848e-06,-60.865,-461.21,0,1.622e+08,-19.965,12109,13104,1,13104,1,0.00087889,1.4544e-09,0,0.00087889,0.0001507,2.9241e+08,460.08,0,3.2674e+08,162.67,13103,12110,1,12110,1,3.7783e-05,-1.2384e-09,0,0.00043612,-6.8636e-06,1.3632e+07,-389.75,0,1.6456e+08,-15.044,12109,11091,1,11091,1,-0.00080332,-5.1118e-09,0,6.6312e-06,-0.00016446,-3.2674e+08,-1589,0,2.1936e+06,-195.6,11090,11613,1,11613,1,-0.00039833,-2.845e-09,0,0.00021806,-8.8585e-05,-1.6201e+08,-904.59,0,8.2116e+07,-65.177,11612,12607,1,12607,1,0.0004739,1.1724e-10,0,0.00065418,7.4793e-05,1.6462e+08,36.907,0,2.4222e+08,27.211,12606,574.93,0,574.93,0,0.00050339,1.6651e-09,0,0.00025322,9.4299e-05,1.8681e+08,531.57,0,9.2606e+07,70.828,574.93,1
1988,3.07,12110,1,12110,1,3.8029e-05,-9.7483e-10,0,0.00043806,-6.9298e-06,-0.28264,-312.39,0,1.627e+08,-17.502,12109,13104,1,13104,1,0.00088194,1.1563e-09,0,0.00088194,0.00015118,2.9317e+08,360.67,0,3.2778e+08,100.55,13103,12110,1,12110,1,3.8029e-05,-7.1849e-10,0,0.00043758,-6.9085e-06,1.3722e+07,-223.33,0,1.6508e+08,-14.909,12109,11091,1,11091,1,-0.00080588,-3.6058e-09,0,6.7725e-06,-0.00016503,-3.2778e+08,-1125.4,0,2.2469e+06,-141.31,11090,11613,1,11613,1,-0.00039955,-1.9259e-09,0,0.00021879,-8.8903e-05,-1.625e+08,-617.36,0,8.2388e+07,-47.706,11612,12607,1,12607,1,0.0004756,1.0153e-11,0,0.00065636,7.502e-05,1.6515e+08,3.1418,0,2.4294e+08,15.571,12606,574.93,0,574.93,0,0.00050507,1.185e-09,0,0.00025407,9.4614e-05,1.8738e+08,380.17,0,9.2872e+07,48.203,574.93,1
1988,3.08,12110,1,12110,1,3.8278e-05,-4.4629e-10,0,0.00043955,-6.9754e-06,15.991,-143.27,0,1.6321e+08,-11.272,12109,13104,1,13104,1,0.00088503,5.3172e-10,0,0.00088503,0.00015167,2.9394e+08,156.23,0,3.2883e+08,50.15,13103,12110,1,12110,1,3.8277e-05,-3.3531e-10,0,0.00043905,-6.9539e-06,1.3814e+07,-109.08,0,1.6561e+08,-6.4692,12109,11091,1,11091,1,-0.00080847,-2.3393e-09,0,6.9161e-06,-0.0001656,-3.2883e+08,-712.28,0,2.301e+06,-80.838,11090,11613,1,11613,1,-0.00040077,-7.3686e-10,0,0.00021953,-8.9225e-05,-1.63e+08,-236.22,0,8.2663e+07,-20.012,11612,12607,1,12607,1,0.00047733,-4.6827e-11,0,0.00065858,7.5251e-05,1.6569e+08,-14.573,0,2.4368e+08,-1.1081,12606,574.93,0,574.93,0,0.00050678,5.311e-10,0,0.00025494,9.4933e-05,1.8795e+08,167.25,0,9.3141e+07,16.825,574.93,1
1988,3.09,12110,1,12110,1,3.8526e-05,-4.7538e-10,0,0.000441,-7.021e-06,-11.642,-151.82,0,1.637e+08,-3.0858,12109,13104,1,13104,1,0.00088807,4.0761e-10,0,0.00088807,0.00015214,2.9469e+08,119.71,0,3.2987e+08,37.76,13103,12110,1,12110,1,3.8526e-05,-4.923e-10,0,0.0004405,-6.9993e-06,1.3905e+07,-154.82,0,1.6613e+08,0.29243,12109,11091,1,11091,1,-0.00081101,-1.2879e-09,0,7.0615e-06,-0.00016617,-3.2987e+08,-399.57,0,2.3558e+06,-82.409,11090,11613,1,11613,1,-0.00040197,-8.5286e-10,0,0.00022025,-8.9542e-05,-1.6349e+08,-273.73,0,8.2932e+07,-13.998,11612,12607,1,12607,1,0.00047903,-6.6663e-11,0,0.00066075,7.5476e-05,1.6621e+08,-19.947,0,2.4439e+08,11.016,12606,574.93,0,574.93,0,0.00050845,4.3214e-10,0,0.00025578,9.5245e-05,1.885e+08,137.55,0,9.3401e+07,21.001,574.93,1
1988,3.1,12110,1,12110,1,3.8774e-05,-8.3215e-10,0,0.00044246,-7.0664e-06,3.6997,-264.9,0,1.6419e+08,-5.9709,12109,13104,1,13104,1,0.00089111,4.8473e-10,0,0.00089111,0.00015262,2.9544e+08,166.01,0,3.309e+08,78.786,13103,12110,1,12110,1,3.8774e-05,-6.1507e-10,0,0.00044195,-7.0445e-06,1.3996e+07,-194.78,0,1.6664e+08,-3.6961,12109,11091,1,11091,1,-0.00081356,-2.8504e-09,0,7.2056e-06,-0.00016674,-3.309e+08,-880.57,0,2.4101e+06,-128.19,11090,11613,1,11613,1,-0.00040317,-1.467e-09,0,0.00022097,-8.9858e-05,-1.6398e+08,-467.3,0,8.3202e+07,-22.834,11612,12607,1,12607,1,0.00048072,-5.9118e-11,0,0.00066292,7.5702e-05,1.6674e+08,-19.216,0,2.451e+08,13.851,12606,574.93,0,574.93,0,0.00051012,8.8061e-10,0,0.00025662,9.5558e-05,1.8906e+08,280.64,0,9.3663e+07,34.534,574.93,1
1988,3.11,12110,1,12110,1,3.9022e-05,-1.9941e-09,0,0.00044392,-7.112e-06,124.77,-634.31,0,1.6468e+08,-22.74,12109,13104,1,13104,1,0.00089417,2.0254e-09,0,0.00089417,0.0001531,2.9619e+08,627.93,0,3.3194e+08,217.93,13103,12110,1,12110,1,3.9022e-05,-1.5611e-09,0,0.0004434,-7.09e-06,1.4087e+07,-487.24,0,1.6716e+08,-25.599,12109,11091,1,11091,1,-0.00081612,-7.2129e-09,0,7.351e-06,-0.00016731,-3.3194e+08,-2234.8,0,2.465e+06,-224.24,11090,11613,1,11613,1,-0.00040437,-3.8801e-09,0,0.0002217,-9.0175e-05,-1.6447e+08,-1239.9,0,8.3471e+07,-76.617,11612,12607,1,12607,1,0.00048242,6.6993e-11,0,0.00066509,7.5927e-05,1.6726e+08,20.587,0,2.4581e+08,30.596,12606,574.93,0,574.93,0,0.00051179,2.3412e-09,0,0.00025746,9.587e-05,1.8962e+08,745.3,0,9.3924e+07,85.618,574.93,1
1988,3.12,12110,1,12110,1,3.9273e-05,-1.4864e-09,0,0.00044539,-7.1579e-06,25.979,-475.45,0,1.6518e+08,-21.115,12109,13104,1,13104,1,0.00089723,2.0526e-09,0,0.00089723,0.00015358,2.9694e+08,632.81,0,3.3299e+08,152.85,13103,12110,1,12110,1,3.9273e-05,-1.2736e-09,0,0.00044486,-7.1358e-06,1.4179e+07,-401.3,0,1.6768e+08,-13.659,12109,11091,1,11091,1,-0.00081868,-5.205e-09,0,7.4968e-06,-0.00016788,-3.3299e+08,-1624.7,0,2.5199e+06,-216.34,11090,11613,1,11613,1,-0.00040558,-2.9375e-09,0,0.00022243,-9.0494e-05,-1.6496e+08,-939.27,0,8.3743e+07,-66.581,11612,12607,1,12607,1,0.00048413,2.4248e-11,0,0.00066729,7.6154e-05,1.6779e+08,8.2075,0,2.4653e+08,31.426,12606,574.93,0,574.93,0,0.00051347,1.732e-09,0,0.00025832,9.6186e-05,1.9018e+08,554.66,0,9.4188e+07,72.853,574.93,1
1988,3.13,12110,1,12110,1,3.9526e-05,-1.5607e-09,0,0.00044685,-7.2042e-06,30.022,-498.53,0,1.6567e+08,-24.245,12109,13104,1,13104,1,0.00090029,2.8732e-09,0,0.00090029,0.00015406,2.9769e+08,884.11,0,3.3403e+08,151.23,13103,12110,1,12110,1,3.9526e-05,-1.0164e-09,0,0.00044631,-7.182e-06,1.4272e+07,-323.56,0,1.682e+08,-27.397,12109,11091,1,11091,1,-0.00082124,-6.3806e-09,0,7.6458e-06,-0.00016845,-3.3403e+08,-1984.1,0,2.5761e+06,-212.45,11090,11613,1,11613,1,-0.00040678,-3.2617e-09,0,0.00022316,-9.0813e-05,-1.6545e+08,-1029.7,0,8.4014e+07,-69.72,11612,12607,1,12607,1,0.00048584,9.7465e-11,0,0.00066947,7.638e-05,1.6832e+08,27.89,0,2.4725e+08,30.891,12606,574.93,0,574.93,0,0.00051515,2.1968e-09,0,0.00025916,9.65e-05,1.9074e+08,702.28,0,9.4449e+07,70.712,574.93,1
1988,3.14,12110,1,12110,1,3.978e-05,-1.0344e-09,0,0.00044832,-7.2508e-06,31.016,-331.25,0,1.6616e+08,-22.965,12109,13104,1,13104,1,0.00090335,1.3986e-09,0,0.00090335,0.00015454,2.9843e+08,441.41,0,3.3506e+08,86.775,13103,12110,1,12110,1,3.978e-05,-7.0301e-10,0,0.00044777,-7.2284e-06,1.4366e+07,-217.69,0,1.6872e+08,-16.889,12109,11091,1,11091,1,-0.00082379,-4.0181e-09,0,7.7957e-06,-0.00016902,-3.3506e+08,-1255.3,0,2.6327e+06,-158.35,11090,11613,1,11613,1,-0.00040799,-2.0097e-09,0,0.00022389,-9.1132e-05,-1.6594e+08,-637.82,0,8.4285e+07,-53.412,11612,12607,1,12607,1,0.00048755,1.3936e-11,0,0.00067166,7.6606e-05,1.6885e+08,4.0621,0,2.4796e+08,12.602,12606,574.93,0,574.93,0,0.00051684,1.3258e-09,0,0.00026002,9.6815e-05,1.913e+08,426.22,0,9.4712e+07,48.544,574.93,1
1988,3.15,12110,1,12110,1,4.0034e-05,-2.4172e-09,0,0.00044979,-7.2974e-06,-227.21,-769.08,0,1.6666e+08,-23.153,12109,13104,1,13104,1,0.00090643,3.7322e-09,0,0.00090643,0.00015502,2.9918e+08,1149.6,0,3.3611e+08,253.15,13103,12110,1,12110,1,4.0034e-05,-2.4305e-09,0,0.00044923,-7.2749e-06,1.4459e+07,-757.44,0,1.6924e+08,-7.6615,12109,11091,1,11091,1,-0.00082636,-7.81e-09,0,7.9457e-06,-0.0001696,-3.3611e+08,-2423.4,0,2.6892e+06,-329.48,11090,11613,1,11613,1,-0.00040919,-4.799e-09,0,0.00022461,-9.1451e-05,-1.6643e+08,-1539,0,8.4556e+07,-111.79,11612,12607,1,12607,1,0.00048926,1.5054e-10,0,0.00067384,7.6832e-05,1.6938e+08,44.509,0,2.4867e+08,62.56,12606,574.93,0,574.93,0,0.00051852,2.7463e-09,0,0.00026086,9.7129e-05,1.9185e+08,874.26,0,9.4972e+07,128.02,574.93,1
1988,3.16,12110,1,12110,1,4.0292e-05,-3.2067e-10,0,0.00045127,-7.3447e-06,0.16172,-106.97,0,1.6716e+08,-16.704,12109,13104,1,13104,1,0.0009095,1.0077e-09,0,0.0009095,0.0001555,2.9992e+08,322.23,0,3.3715e+08,31.385,13103,12110,1,12110,1,4.0293e-05,-1.2876e-10,0,0.0004507,-7.322e-06,1.4554e+07,-41.297,0,1.6977e+08,-13.326,12109,11091,1,11091,1,-0.00082891,-1.7987e-09,0,8.0988e-06,-0.00017017,-3.3715e+08,-604.33,0,2.747e+06,-146.8,11090,11613,1,11613,1,-0.0004104,-7.8323e-10,0,0.00022535,-9.1774e-05,-1.6692e+08,-256.36,0,8.483e+07,-28.143,11612,12607,1,12607,1,0.00049099,1.9603e-10,0,0.00067605,7.706e-05,1.6991e+08,58.368,0,2.4939e+08,3.8375,12606,574.93,0,574.93,0,0.00052022,6.6462e-10,0,0.00026172,9.7447e-05,1.9242e+08,215.83,0,9.5237e+07,28.051,574.93,1
1988,3.17,12110,1,12110,1,4.055e-05,-1.529e-09,0,0.00045273,-7.3919e-06,41.668,-486.59,0,1.6764e+08,-23.152,12109,13104,1,13104,1,0.00091256,3.3611e-09,0,0.00091256,0.00015598,3.0066e+08,1053.8,0,3.3818e+08,133.17,13103,12110,1,12110,1,4.055e-05,-1.0351e-09,0,0.00045214,-7.369e-06,1.4649e+07,-330.29,0,1.7028e+08,-25.942,12109,11091,1,11091,1,-0.00083146,-6.5868e-09,0,8.2539e-06,-0.00017074,-3.3818e+08,-2041.9,0,2.8055e+06,-207.97,11090,11613,1,11613,1,-0.00041159,-3.3679e-09,0,0.00022607,-9.2091e-05,-1.674e+08,-1062.7,0,8.5098e+07,-72.115,11612,12607,1,12607,1,0.00049269,2.1704e-10,0,0.00067821,7.7282e-05,1.7043e+08,69.166,0,2.501e+08,38.72,12606,574.93,0,574.93,0,0.00052188,2.328e-09,0,0.00026257,9.7758e-05,1.9297e+08,741.28,0,9.5494e+07,76.183,574.93,1
1988,3.18,12110,1,12110,1,4.0809e-05,-1.9782e-09,0,0.00045421,-7.4394e-06,-28.375,-630.22,0,1.6814e+08,-29.341,12109,13104,1,13104,1,0.00091566,7.7547e-10,0,0.00091566,0.00015646,3.014e+08,256.82,0,3.3923e+08,97.949,13103,12110,1,12110,1,4.0808e-05,-2.0068e-09,0,0.00045361,-7.4163e-06,1.4744e+07,-616.99,0,1.7081e+08,-16.074,12109,11091,1,11091,1,-0.00083403,-4.8138e-09,0,8.4071e-06,-0.00017132,-3.3923e+08,-1507.2,0,2.8633e+06,-178.8,11090,11613,1,11613,1,-0.0004128,-3.2621e-09,0,0.00022681,-9.2413e-05,-1.679e+08,-1044.4,0,8.5372e+07,-64.078,11612,12607,1,12607,1,0.00049442,-7.7114e-10,0,0.00068042,7.751e-05,1.7096e+08,-239.72,0,2.5082e+08,5.3277,12606,574.93,0,574.93,0,0.00052358,1.4718e-09,0,0.00026342,9.8076e-05,1.9353e+08,472.43,0,9.5758e+07,56.017,574.93,1
1988,3.19,12110,1,12110,1,4.1069e-05,-2.4976e-09,0,0.00045567,-7.487e-06,-25.118,-795.92,0,1.6863e+08,-19.603,12109,13104,1,13104,1,0.00091871,1.3564e-09,0,0.00091871,0.00015694,3.0213e+08,464.56,0,3.4026e+08,176.61,13103,12110,1,12110,1,4.1068e-05,-1.9628e-09,0,0.00045506,-7.4638e-06,1.484e+07,-615.17,0,1.7132e+08,-21.026,12109,11091,1,11091,1,-0.00083657,-8.1219e-09,0,8.5636e-06,-0.00017189,-3.4026e+08,-2524.1,0,2.9223e+06,-232.83,11090,11613,1,11613,1,-0.00041399,-4.4625e-09,0,0.00022753,-9.2732e-05,-1.6838e+08,-1415.5,0,8.564e+07,-65.589,11612,12607,1,12607,1,0.00049613,-3.0084e-10,0,0.00068259,7.7732e-05,1.7149e+08,-96.993,0,2.5152e+08,31.037,12606,574.93,0,574.93,0,0.00052525,2.4433e-09,0,0.00026427,9.8388e-05,1.9408e+08,780.84,0,9.6014e+07,79.596,574.93,1
1988,3.2,12110,1,12110,1,4.133e-05,-1.2571e-09,0,0.00045714,-7.5348e-06,73.11,-403.93,0,1.6912e+08,-27.605,12109,13104,1,13104,1,0.00092178,1.4984e-09,0,0.00092178,0.00015742,3.0286e+08,468.34,0,3.413e+08,129,13103,12110,1,12110,1,4.133e-05,-6.2594e-10,0,0.00045652,-7.5115e-06,1.4936e+07,-203.36,0,1.7184e+08,-31.26,12109,11091,1,11091,1,-0.00083912,-5.7358e-09,0,8.7204e-06,-0.00017246,-3.413e+08,-1793.8,0,2.9814e+06,-188.2,11090,11613,1,11613,1,-0.00041519,-2.6452e-09,0,0.00022826,-9.3053e-05,-1.6887e+08,-837,0,8.5912e+07,-67.368,11612,12607,1,12607,1,0.00049785,2.3707e-10,0,0.00068478,7.7958e-05,1.7201e+08,73.522,0,2.5223e+08,11.669,12606,574.93,0,574.93,0,0.00052694,1.8819e-09,0,0.00026512,9.8704e-05,1.9464e+08,603.17,0,9.6275e+07,62.685,574.93,1
1988,3.21,12110,1,12110,1,4.1593e-05,-1.6104e-10,0,0.00045862,-7.5832e-06,42.852,-54.484,0,1.6961e+08,-13.534,12109,13104,1,13104,1,0.00092486,8.4777e-10,0,0.00092486,0.0001579,3.036e+08,277.89,0,3.4234e+08,27.491,13103,12110,1,12110,1,4.1594e-05,-1.4964e-12,0,0.00045798,-7.5595e-06,1.5033e+07,-0.40394,0,1.7236e+08,-10.74,12109,11091,1,11091,1,-0.00084167,-1.6951e-09,0,8.8797e-06,-0.00017304,-3.4234e+08,-567,0,3.0416e+06,-106.54,11090,11613,1,11613,1,-0.00041639,-4.6447e-10,0,0.00022899,-9.3376e-05,-1.6936e+08,-149.17,0,8.6185e+07,-28.277,11612,12607,1,12607,1,0.00049958,2.2545e-10,0,0.00068698,7.8184e-05,1.7254e+08,67.393,0,2.5294e+08,1.3808,12606,574.93,0,574.93,0,0.00052863,5.7591e-10,0,0.00026598,9.9021e-05,1.952e+08,186.7,0,9.6536e+07,20.565,574.93,1
1988,3.22,12110,1,12110,1,4.1858e-05,-1.6222e-09,0,0.00046008,-7.6316e-06,-29.55,-514.99,0,1.701e+08,-18.157,12109,13104,1,13104,1,0.00092794,1.0051e-09,0,0.00092794,0.00015837,3.0432e+08,316.07,0,3.4337e+08,92.408,13103,12110,1,12110,1,4.1857e-05,-1.4908e-09,0,0.00045944,-7.6078e-06,1.513e+07,-466.2,0,1.7288e+08,-10.548,12109,11091,1,11091,1,-0.00084422,-4.8689e-09,0,9.0401e-06,-0.00017361,-3.4337e+08,-1510.8,0,3.1021e+06,-178.56,11090,11613,1,11613,1,-0.00041758,-2.9727e-09,0,0.00022972,-9.3696e-05,-1.6984e+08,-946.24,0,8.6455e+07,-51.932,11612,12607,1,12607,1,0.0005013,-1.9203e-10,0,0.00068916,7.8407e-05,1.7307e+08,-62.596,0,2.5365e+08,24.461,12606,574.93,0,574.93,0,0.00053031,1.5437e-09,0,0.00026683,9.9334e-05,1.9575e+08,491.83,0,9.6793e+07,57.897,574.93,1
1988,3.23,12110,1,12110,1,4.2124e-05,-4.6102e-10,0,0.00046156,-7.6803e-06,138.8,-149.19,0,1.7059e+08,-22.45,12109,13104,1,13104,1,0.00093102,2.532e-10,0,0.00093102,0.00015885,3.0505e+08,72.643,0,3.4441e+08,30.876,13103,12110,1,12110,1,4.2124e-05,-4.6094e-10,0,0.0004609,-7.6564e-06,1.5228e+07,-148.75,0,1.734e+08,-16.683,12109,11091,1,11091,1,-0.00084677,-1.208e-09,0,9.2012e-06,-0.00017419,-3.4441e+08,-382.39,0,3.1629e+06,-120.06,11090,11613,1,11613,1,-0.00041878,-7.8913e-10,0,0.00023045,-9.4019e-05,-1.7033e+08,-257.53,0,8.6727e+07,-38.335,11612,12607,1,12607,1,0.00050303,-1.23e-10,0,0.00069136,7.8633e-05,1.736e+08,-38.158,0,2.5436e+08,-5.6157,12606,574.93,0,574.93,0,0.000532,3.8766e-10,0,0.00026768,9.9651e-05,1.9631e+08,124.78,0,9.7053e+07,23.018,574.93,1
1988,3.24,12110,1,12110,1,4.2389e-05,-1.0164e-09,0,0.00046302,-7.729e-06,6.7354,-323.58,0,1.7108e+08,-7.9978,12109,13104,1,13104,1,0.00093408,2.3103e-09,0,0.00093408,0.00015933,3.0577e+08,715.71,0,3.4544e+08,100.37,13103,12110,1,12110,1,4.2389e-05,-7.0038e-10,0,0.00046235,-7.7049e-06,1.5325e+07,-223.17,0,1.7391e+08,-7.6137,12109,11091,1,11091,1,-0.0008493,-4.3242e-09,0,9.3635e-06,-0.00017476,-3.4544e+08,-1336.6,0,3.2241e+06,-158.8,11090,11613,1,11613,1,-0.00041996,-2.2519e-09,0,0.00023118,-9.4338e-05,-1.7081e+08,-713.73,0,8.6997e+07,-42.937,11612,12607,1,12607,1,0.00050474,1.2892e-10,0,0.00069353,7.8855e-05,1.7412e+08,39.583,0,2.5506e+08,37.472,12606,574.93,0,574.93,0,0.00053367,1.5485e-09,0,0.00026853,9.9963e-05,1.9685e+08,491.68,0,9.7308e+07,55.698,574.93,1
1988,3.25,12110,1,12110,1,4.2655e-05,-1.3996e-09,0,0.00046448,-7.7778e-06,41.557,-445.8,0,1.7157e+08,-18.745,12109,13104,1,13104,1,0.00093716,8.1242e-10,0,0.00093716,0.0001598,3.0649e+08,278.25,0,3.4647e+08,101.98,13103,12110,1,12110,1,4.2655e-05,-9.4014e-10,0,0.00046381,-7.7536e-06,1.5423e+07,-297.42,0,1.7443e+08,-20.369,12109,11091,1,11091,1,-0.00085184,-5.091e-09,0,9.5258e-06,-0.00017533,-3.4647e+08,-1586.2,0,3.2853e+06,-158.2,11090,11613,1,11613,1,-0.00042115,-2.6157e-09,0,0.0002319,-9.4659e-05,-1.7129e+08,-833.34,0,8.7266e+07,-49.039,11612,12607,1,12607,1,0.00050646,-3.3304e-12,0,0.00069571,7.9077e-05,1.7464e+08,-0.88026,0,2.5576e+08,11.46,12606,574.93,0,574.93,0,0.00053535,1.6103e-09,0,0.00026937,0.00010028,1.9741e+08,515.09,0,9.7564e+07,48.695,574.93,1
1988,3.26,12110,1,12110,1,4.2924e-05,-9.9772e-10,0,0.00046596,-7.8271e-06,144.92,-319.48,0,1.7206e+08,-24.546,12109,13104,1,13104,1,0.00094024,2.421e-09,0,0.00094024,0.00016028,3.0721e+08,758.45,0,3.4751e+08,77.947,13103,12110,1,12110,1,4.2924e-05,-7.4558e-10,0,0.00046527,-7.8027e-06,1.5522e+07,-233.13,0,1.7495e+08,-22.253,12109,11091,1,11091,1,-0.00085439,-4.2419e-09,0,9.6901e-06,-0.00017591,-3.4751e+08,-1326.2,0,3.3474e+06,-164.02,11090,11613,1,11613,1,-0.00042234,-2.2382e-09,0,0.00023263,-9.4982e-05,-1.7178e+08,-711.19,0,8.7538e+07,-57.839,11612,12607,1,12607,1,0.00050819,1.8295e-10,0,0.0006979,7.9301e-05,1.7517e+08,54.013,0,2.5647e+08,17.252,12606,574.93,0,574.93,0,0.00053703,1.53e-09,0,0.00027023,0.00010059,1.9796e+08,489.45,0,9.7822e+07,53.64,574.93,1
1988,3.27,12110,1,12110,1,4.3194e-05,-2.0564e-09,0,0.00046742,-7.8766e-06,73.456,-654.4,0,1.7254e+08,-30.179,12109,13104,1,13104,1,0.00094333,2.3516e-09,0,0.00094333,0.00016076,3.0793e+08,740.85,0,3.4855e+08,142.29,13103,12110,1,12110,1,4.3194e-05,-1.6648e-09,0,0.00046672,-7.852e-06,1.5621e+07,-518.64,0,1.7546e+08,-29.525,12109,11091,1,11091,1,-0.00085694,-7.2794e-09,0,9.8559e-06,-0.00017648,-3.4855e+08,-2264.9,0,3.4099e+06,-228.61,11090,11613,1,11613,1,-0.00042353,-4.0526e-09,0,0.00023336,-9.5304e-05,-1.7226e+08,-1285.5,0,8.7808e+07,-79.289,11612,12607,1,12607,1,0.00050992,4.8747e-11,0,0.00070009,7.9524e-05,1.757e+08,15.891,0,2.5711e+08,32.149,12606,574.93,0,574.93,0,0.00053871,2.392e-09,0,0.00027108,0.00010091,1.9851e+08,763.52,0,9.8078e+07,79.124,574.93,1
1988,3.28,12110,1,12110,1,4.3466e-05,-1.6386e-09,0,0.0004689,-7.9264e-06,21.681,-523.96,0,1.7303e+08,-28.38,12109,13104,1,13104,1,0.00094642,8.4944e-10,0,0.00094642,0.00016124,3.0865e+08,265.96,0,3.4958e+08,89.416,13103,12110,1,12110,1,4.3466e-05,-1.4314e-09,0,0.00046819,-7.9016e-06,1.5721e+07,-441.68,0,1.7598e+08,-26.443,12109,11091,1,11091,1,-0.00085949,-5.225e-09,0,1.0023e-05,-0.00017706,-3.4958e+08,-1640.8,0,3.4728e+06,-163.75,11090,11613,1,11613,1,-0.00042472,-2.9507e-09,0,0.00023409,-9.5627e-05,-1.7274e+08,-942.1,0,8.808e+07,-62.862,11612,12607,1,12607,1,0.00051165,-1.7317e-10,0,0.00070228,7.9748e-05,1.7622e+08,-52.063,0,2.5775e+08,9.1108,12606,574.93,0,574.93,0,0.0005404,1.6231e-09,0,0.00027193,0.00010122,1.9906e+08,521.97,0,9.8336e+07,51.832,574.93,1
1988,3.29,12110,1,12110,1,4.374e-05,-1.0017e-09,0,0.00047038,-7.9767e-06,41.128,-321.5,0,1.7353e+08,-21.642,12109,13104,1,13104,1,0.00094952,4.8567e-10,0,0.00094952,0.00016172,3.0937e+08,139.47,0,3.5062e+08,33.681,13103,12110,1,12110,1,4.374e-05,-9.6225e-10,0,0.00046966,-7.9517e-06,1.5822e+07,-303.44,0,1.765e+08,-16.151,12109,11091,1,11091,1,-0.00086204,-2.7953e-09,0,1.0192e-05,-0.00017764,-3.5062e+08,-884.17,0,3.5368e+06,-128.99,11090,11613,1,11613,1,-0.00042592,-1.7458e-09,0,0.00023483,-9.5953e-05,-1.7323e+08,-560.11,0,8.8353e+07,-37.789,11612,12607,1,12607,1,0.0005134,-2.39e-10,0,0.00070449,7.9973e-05,1.7675e+08,-70.498,0,2.584e+08,0.54,12606,574.93,0,574.93,0,0.0005421,8.6438e-10,0,0.00027279,0.00010154,1.9962e+08,279.53,0,9.8594e+07,30.992,574.93,1
1988,3.3,12110,1,12110,1,4.4017e-05,-2.8641e-11,0,0.00047184,-8.0273e-06,-2.8434,-11.907,0,1.74e+08,33.912,12109,13104,1,13104,1,0.00095257,4.1742e-09,0,0.00095257,0.00016219,3.1006e+08,1315.8,0,3.5164e+08,193.52,13103,12110,1,12110,1,4.4017e-05,-1.6126e-10,0,0.0004711,-8.002e-06,1.5924e+07,-48.158,0,1.7701e+08,29.986,12109,11091,1,11091,1,-0.00086453,-4.723e-09,0,1.0367e-05,-0.00017821,-3.5164e+08,-1469.1,0,3.6027e+06,-112.36,11090,11613,1,11613,1,-0.00042708,-1.0148e-09,0,0.00023555,-9.6273e-05,-1.737e+08,-321.28,0,8.862e+07,-17.292,11612,12607,1,12607,1,0.00051511,1.1665e-09,0,0.00070664,8.0191e-05,1.7727e+08,363.5,0,2.5902e+08,77.34,12606,574.93,0,574.93,0,0.00054376,1.8149e-09,0,0.00027364,0.00010185,2.0016e+08,575.27,0,9.8844e+07,62.748,574.93,1
1988,3.31,12110,1,12110,1,4.4311e-05,-1.7294e-09,0,0.00047334,-8.0814e-06,81.068,-545.2,0,1.7449e+08,-15.519,12109,13104,1,13104,1,0.00095574,6.6084e-10,0,0.00095574,0.00016267,3.1078e+08,226.33,0,3.5269e+08,63.506,13103,12110,1,12110,1,4.4311e-05,-1.8952e-09,0,0.00047258,-8.0561e-06,1.6033e+07,-581.75,0,1.7752e+08,-9.3512,12109,11091,1,11091,1,-0.00086712,-3.6898e-09,0,1.0555e-05,-0.0001788,-3.5269e+08,-1140.7,0,3.6739e+06,-150.07,11090,11613,1,11613,1,-0.00042827,-2.6839e-09,0,0.00023629,-9.6605e-05,-1.7419e+08,-857.5,0,8.8892e+07,-39.697,11612,12607,1,12607,1,0.00051689,-8.449e-10,0,0.00070887,8.0415e-05,1.7779e+08,-270.27,0,2.5965e+08,12.983,12606,574.93,0,574.93,0,0.00054548,1.153e-09,0,0.00027451,0.00010217,2.0071e+08,363.9,0,9.9101e+07,40.389,574.93,1
1988,3.32,12110,1,12110,1,4.4609e-05,-1.3187e-09,0,0.00047479,-8.1359e-06,411.6,-418.27,0,1.7496e+08,-2.8713,12109,13104,1,13104,1,0.00095883,5.3814e-09,0,0.00095883,0.00016314,3.1145e+08,1672.7,0,3.537e+08,167.44,13103,12110,1,12110,1,4.4608e-05,-1.1505e-09,0,0.00047402,-8.1104e-06,1.6142e+07,-363.3,0,1.7802e+08,10.05,12109,11091,1,11091,1,-0.0008696,-6.633e-09,0,1.0749e-05,-0.00017937,-3.537e+08,-2057,0,3.7471e+06,-304.79,11090,11613,1,11613,1,-0.00042942,-3.4823e-09,0,0.00023701,-9.6929e-05,-1.7465e+08,-1105.3,0,8.9156e+07,-52.874,11612,12607,1,12607,1,0.00051863,5.6065e-10,0,0.00071104,8.063e-05,1.783e+08,179.4,0,2.6026e+08,55.347,12606,574.93,0,574.93,0,0.00054714,2.683e-09,0,0.00027535,0.00010248,2.0124e+08,849.31,0,9.9346e+07,86.54,574.93,1
1988,3.33,12110,1,12110,1,4.4906e-05,-2.4017e-09,0,0.00047629,-8.1905e-06,124.45,-761.51,0,1.7545e+08,-22.617,12109,13104,1,13104,1,0.000962,1.4158e-09,0,0.000962,0.00016362,3.1217e+08,470.73,0,3.5475e+08,129.67,13103,12110,1,12110,1,4.4906e-05,-2.3151e-09,0,0.00047551,-8.1648e-06,1.6252e+07,-707.32,0,1.7854e+08,8.2291,12109,11091,1,11091,1,-0.00087219,-6.9242e-09,0,1.094e-05,-0.00017997,-3.5475e+08,-2130.9,0,3.8192e+06,-417.73,11090,11613,1,11613,1,-0.00043061,-4.3742e-09,0,0.00023776,-9.7262e-05,-1.7514e+08,-1397.1,0,8.9428e+07,-75.903,11612,12607,1,12607,1,0.00052042,-2.3105e-10,0,0.00071327,8.0853e-05,1.7882e+08,-72.728,0,2.6089e+08,52.331,12606,574.93,0,574.93,0,0.00054886,2.3307e-09,0,0.00027622,0.0001028,2.0179e+08,740.36,0,9.9603e+07,102.82,574.93,1
1988,3.34,12110,1,12110,1,4.5207e-05,-2.763e-09,0,0.00047776,-8.2456e-06,52.09,-877.12,0,1.7593e+08,0.46748,12109,13104,1,13104,1,0.00096512,1.6077e-09,0,0.00096512,0.00016409,3.1284e+08,550.61,0,3.5577e+08,189.27,13103,12110,1,12110,1,4.5206e-05,-2.4912e-09,0,0.00047697,-8.2197e-06,1.6362e+07,-762.89,0,1.7904e+08,12.302,12109,11091,1,11091,1,-0.0008747,-7.9503e-09,0,1.1136e-05,-0.00018055,-3.5577e+08,-2467.1,0,3.8934e+06,-344.08,11090,11613,1,11613,1,-0.00043176,-5.0657e-09,0,0.00023849,-9.7589e-05,-1.7561e+08,-1606.5,0,8.9694e+07,-60.836,11612,12607,1,12607,1,0.00052218,-3.7779e-10,0,0.00071545,8.107e-05,1.7933e+08,-119.6,0,2.615e+08,71.921,12606,574.93,0,574.93,0,0.00055054,2.6117e-09,0,0.00027707,0.00010312,2.0233e+08,830.89,0,9.985e+07,104.87,574.93,1
1988,3.35,12110,1,12110,1,4.5508e-05,-6.8558e-10,0,0.00047925,-8.3008e-06,88.664,-223.55,0,1.7641e+08,6.1161,12109,13104,1,13104,1,0.00096823,3.27e-09,0,0.00096823,0.00016456,3.1353e+08,1022.7,0,3.5679e+08,130.29,13103,12110,1,12110,1,4.5508e-05,-5.1602e-10,0,0.00047844,-8.2748e-06,1.6474e+07,-155.8,0,1.7955e+08,8.9731,12109,11091,1,11091,1,-0.00087721,-3.8856e-09,0,1.1333e-05,-0.00018113,-3.5679e+08,-1228.9,0,3.9676e+06,-121.91,11090,11613,1,11613,1,-0.00043293,-1.9204e-09,0,0.00023922,-9.7919e-05,-1.7608e+08,-606.75,0,8.9963e+07,-22.818,11612,12607,1,12607,1,0.00052395,3.0114e-10,0,0.00071766,8.129e-05,1.7985e+08,88.454,0,2.6212e+08,41.409,12606,574.93,0,574.93,0,0.00055224,1.5818e-09,0,0.00027793,0.00010344,2.0287e+08,506.47,0,1.001e+08,50.018,574.93,1
1988,3.36,12110,1,12110,1,4.5812e-05,3.4867e-10,0,0.00048073,-8.3566e-06,28.411,106.94,0,1.7689e+08,-1.4623,12109,13104,1,13104,1,0.00097136,2.4608e-09,0,0.00097136,0.00016504,3.1421e+08,787.73,0,3.5782e+08,72.236,13103,12110,1,12110,1,4.5813e-05,2.0903e-10,0,0.00047991,-8.3303e-06,1.6586e+07,63.64,0,1.8006e+08,-2.8833,12109,11091,1,11091,1,-0.00087974,-1.2183e-09,0,1.1532e-05,-0.00018171,-3.5782e+08,-407.57,0,4.0431e+06,-96.236,11090,11613,1,11613,1,-0.0004341,-1.1145e-10,0,0.00023996,-9.825e-05,-1.7656e+08,-35.868,0,9.0233e+07,-18.898,11612,12607,1,12607,1,0.00052572,7.5333e-10,0,0.00071987,8.151e-05,1.8036e+08,232.08,0,2.6274e+08,14.454,12606,574.93,0,574.93,0,0.00055394,7.3013e-10,0,0.00027879,0.00010375,2.0341e+08,233.58,0,1.0035e+08,25.186,574.93,1
1988,3.37,12110,1,12110,1,4.6117e-05,-6.9591e-10,0,0.0004822,-8.4124e-06,76.618,-219.1,0,1.7737e+08,8.2656,12109,13104,1,13104,1,0.00097448,3.5563e-09,0,0.00097448,0.00016551,3.1489e+08,1134.6,0,3.5884e+08,132.93,13103,12110,1,12110,1,4.6117e-05,-5.6095e-10,0,0.00048137,-8.3859e-06,1.6698e+07,-178.19,0,1.8056e+08,7.2173,12109,11091,1,11091,1,-0.00088225,-4.0686e-09,0,1.1733e-05,-0.00018229,-3.5884e+08,-1264.3,0,4.119e+06,-128.71,11090,11613,1,11613,1,-0.00043525,-1.9166e-09,0,0.00024068,-9.8578e-05,-1.7703e+08,-606.95,0,9.0499e+07,-21.433,11612,12607,1,12607,1,0.00052749,3.069e-10,0,0.00072205,8.1726e-05,1.8087e+08,92.024,0,2.6334e+08,45.231,12606,574.93,0,574.93,0,0.00055562,1.6095e-09,0,0.00027965,0.00010407,2.0395e+08,510.82,0,1.006e+08,48.213,574.93,1
1988,3.38,12110,1,12110,1,4.6422e-05,-1.816e-09,0,0.00048368,-8.4684e-06,162.37,-574,0,1.7784e+08,-4.9447,12109,13104,1,13104,1,0.00097763,1.2703e-09,0,0.00097763,0.00016598,3.1557e+08,435.06,0,3.5987e+08,172.36,13103,12110,1,12110,1,4.6422e-05,-1.5289e-09,0,0.00048284,-8.4418e-06,1.681e+07,-483.26,0,1.8107e+08,-8.8741,12109,11091,1,11091,1,-0.00088478,-5.7106e-09,0,1.1933e-05,-0.00018288,-3.5987e+08,-1768.3,0,4.1946e+06,-185.47,11090,11613,1,11613,1,-0.00043641,-3.1322e-09,0,0.00024142,-9.8909e-05,-1.775e+08,-989.81,0,9.0766e+07,-45.87,11612,12607,1,12607,1,0.00052926,-3.9049e-10,0,0.00072425,8.1944e-05,1.8139e+08,-119.08,0,2.6395e+08,31.574,12606,574.93,0,574.93,0,0.00055731,1.7423e-09,0,0.00028051,0.00010438,2.0449e+08,553.33,0,1.0085e+08,69.641,574.93,1
1988,3.39,12110,1,12110,1,4.6728e-05,-2.0315e-09,0,0.00048516,-8.5246e-06,106.19,-644.01,0,1.7832e+08,9.8533,12109,13104,1,13104,1,0.00098076,3.0956e-09,0,0.00098076,0.00016646,3.1625e+08,989.79,0,3.6089e+08,211.48,13103,12110,1,12110,1,4.6728e-05,-1.6158e-09,0,0.00048429,-8.4979e-06,1.6923e+07,-508.87,0,1.8157e+08,20.661,12109,11091,1,11091,1,-0.0008873,-7.5813e-09,0,1.2135e-05,-0.00018346,-3.6089e+08,-2349.4,0,4.2707e+06,-277.72,11090,11613,1,11613,1,-0.00043757,-4.2984e-09,0,0.00024215,-9.9238e-05,-1.7797e+08,-1378.8,0,9.1033e+07,-51.628,11612,12607,1,12607,1,0.00053102,3.5715e-10,0,0.00072644,8.216e-05,1.819e+08,106.26,0,2.6456e+08,68.808,12606,574.93,0,574.93,0,0.00055899,2.7495e-09,0,0.00028136,0.0001047,2.0502e+08,871.97,0,1.0109e+08,94.481,574.93,1
1988,3.4,12110,1,12110,1,4.7038e-05,-3.0634e-09,0,0.00048666,-8.5815e-06,27.295,-971.85,0,1.788e+08,-25.695,12109,13104,1,13104,1,0.00098393,1.1553e-09,0,0.00098393,0.00016693,3.1693e+08,390.19,0,3.6193e+08,135.91,13103,12110,1,12110,1,4.7037e-05,-3.5166e-09,0,0.00048577,-8.5545e-06,1.7037e+07,-1103.1,0,1.8208e+08,-6.7521,12109,11091,1,11091,1,-0.00088985,-6.2206e-09,0,1.2338e-05,-0.00018406,-3.6193e+08,-1940.2,0,4.3474e+06,-312.89,11090,11613,1,11613,1,-0.00043874,-4.7947e-09,0,0.00024289,-9.9571e-05,-1.7844e+08,-1537.1,0,9.1303e+07,-81.27,11612,12607,1,12607,1,0.00053281,-1.3702e-09,0,0.00072867,8.238e-05,1.8242e+08,-436.5,0,2.6518e+08,39.531,12606,574.93,0,574.93,0,0.00056071,2.0686e-09,0,0.00028223,0.00010502,2.0557e+08,660.07,0,1.0135e+08,89.707,574.93,1
1988,3.41,12110,1,12110,1,4.7351e-05,-3.3297e-09,0,0.00048813,-8.6388e-06,508.1,-1056.6,0,1.7927e+08,-17.088,12109,13104,1,13104,1,0.00098706,1.5922e-09,0,0.00098706,0.0001674,3.176e+08,545.31,0,3.6295e+08,169.1,13103,12110,1,12110,1,4.735e-05,-3.3964e-09,0,0.00048723,-8.6116e-06,1.7152e+07,-1107.2,0,1.8258e+08,-6.8081,12109,11091,1,11091,1,-0.00089235,-7.52e-09,0,1.2546e-05,-0.00018464,-3.6295e+08,-2335.6,0,4.426e+06,-257.96,11090,11613,1,11613,1,-0.00043988,-5.5737e-09,0,0.00024362,-9.9901e-05,-1.7891e+08,-1802.6,0,9.1568e+07,-64.069,11612,12607,1,12607,1,0.00053458,-1.4507e-09,0,0.00073085,8.2595e-05,1.8292e+08,-413.07,0,2.6577e+08,37.497,12606,574.93,0,574.93,0,0.00056239,2.5251e-09,0,0.00028308,0.00010533,2.061e+08,802.87,0,1.0159e+08,76.911,574.93,1
1988,3.42,12110,1,12110,1,4.7662e-05,-2.0584e-09,0,0.00048962,-8.6958e-06,62.594,-657.88,0,1.7975e+08,10.447,12109,13104,1,13104,1,0.00099021,1.3377e-09,0,0.00099021,0.00016788,3.1827e+08,458.14,0,3.6398e+08,140.7,13103,12110,1,12110,1,4.7661e-05,-1.9713e-09,0,0.00048871,-8.6685e-06,1.7266e+07,-623.85,0,1.8309e+08,19.62,12109,11091,1,11091,1,-0.00089488,-5.4266e-09,0,1.2751e-05,-0.00018523,-3.6398e+08,-1698.7,0,4.5035e+06,-169.28,11090,11613,1,11613,1,-0.00044105,-3.669e-09,0,0.00024436,-0.00010023,-1.7938e+08,-1181.1,0,9.1838e+07,-24.703,11612,12607,1,12607,1,0.00053637,-5.0505e-10,0,0.00073307,8.2814e-05,1.8344e+08,-158.18,0,2.6638e+08,51.538,12606,574.93,0,574.93,0,0.00056409,1.8184e-09,0,0.00028395,0.00010565,2.0664e+08,581.46,0,1.0184e+08,64.259,574.93,1
1988,3.43,12110,1,12110,1,4.7977e-05,-2.3592e-09,0,0.0004911,-8.7535e-06,170.76,-749.86,0,1.8023e+08,14.554,12109,13104,1,13104,1,0.00099336,1.6446e-09,0,0.00099336,0.00016835,3.1894e+08,563.24,0,3.65e+08,156.13,13103,12110,1,12110,1,4.7976e-05,-2.2198e-09,0,0.00049018,-8.7262e-06,1.7382e+07,-712.37,0,1.836e+08,26.469,12109,11091,1,11091,1,-0.0008974,-6.3599e-09,0,1.2962e-05,-0.00018581,-3.65e+08,-1974.7,0,4.5831e+06,-231.77,11090,11613,1,11613,1,-0.0004422,-4.2078e-09,0,0.00024509,-0.00010057,-1.7985e+08,-1353,0,9.2106e+07,-29.699,11612,12607,1,12607,1,0.00053816,-5.1635e-10,0,0.00073527,8.3031e-05,1.8395e+08,-161.43,0,2.6699e+08,66.09,12606,574.93,0,574.93,0,0.00056579,2.1282e-09,0,0.00028481,0.00010597,2.0717e+08,676.68,0,1.0209e+08,76.495,574.93,1
1988,3.44,12110,1,12110,1,4.8292e-05,-1.8667e-09,0,0.00049258,-8.8114e-06,141.62,-595.47,0,1.807e+08,3.8347,12109,13104,1,13104,1,0.00099649,1.1289e-09,0,0.00099649,0.00016882,3.196e+08,386.63,0,3.6602e+08,133.04,13103,12110,1,12110,1,4.8292e-05,-1.7873e-09,0,0.00049164,-8.7839e-06,1.7499e+07,-546.07,0,1.841e+08,11.469,12109,11091,1,11091,1,-0.0008999,-5.1582e-09,0,1.3173e-05,-0.0001864,-3.6602e+08,-1612.9,0,4.6627e+06,-178.72,11090,11613,1,11613,1,-0.00044335,-3.3817e-09,0,0.00024582,-0.0001009,-1.8032e+08,-1086.3,0,9.2373e+07,-27.195,11612,12607,1,12607,1,0.00053994,-3.0657e-10,0,0.00073747,8.3247e-05,1.8446e+08,-90.761,0,2.6758e+08,40.85,12606,574.93,0,574.93,0,0.00056748,1.7306e-09,0,0.00028567,0.00010628,2.0771e+08,553.29,0,1.0233e+08,59.213,574.93,1
1988,3.45,12110,1,12110,1,4.8609e-05,-2.2496e-09,0,0.00049406,-8.8693e-06,152.1,-714.2,0,1.8117e+08,18.155,12109,13104,1,13104,1,0.00099963,1.5666e-09,0,0.00099963,0.00016929,3.2026e+08,536.53,0,3.6704e+08,179.17,13103,12110,1,12110,1,4.8608e-05,-2.0123e-09,0,0.00049311,-8.8417e-06,1.7615e+07,-624.33,0,1.846e+08,26.806,12109,11091,1,11091,1,-0.00090241,-6.5818e-09,0,1.3385e-05,-0.00018698,-3.6704e+08,-2045.7,0,4.7426e+06,-182.29,11090,11613,1,11613,1,-0.0004445,-4.058e-09,0,0.00024655,-0.00010123,-1.8079e+08,-1284.2,0,9.264e+07,-29.352,11612,12607,1,12607,1,0.00054172,-3.6691e-10,0,0.00073966,8.3462e-05,1.8497e+08,-110.85,0,2.6818e+08,61.392,12606,574.93,0,574.93,0,0.00056917,2.1371e-09,0,0.00028653,0.0001066,2.0824e+08,680.01,0,1.0257e+08,69.568,574.93,1
1988,3.46,12110,1,12110,1,4.8936e-05,-3.3647e-09,0,0.00049555,-8.9295e-06,110.48,-1069.7,0,1.8165e+08,-47.38,12109,13104,1,13104,1,0.0010028,1.1664e-09,0,0.0010028,0.00016976,3.2092e+08,366.49,0,3.6807e+08,164.06,13103,12110,1,12110,1,4.8935e-05,-3.6863e-09,0,0.00049458,-8.9017e-06,1.7736e+07,-1158.7,0,1.851e+08,-43.038,12109,11091,1,11091,1,-0.00090493,-7.2768e-09,0,1.3607e-05,-0.00018757,-3.6807e+08,-2289.4,0,4.8265e+06,-238.36,11090,11613,1,11613,1,-0.00044564,-5.1181e-09,0,0.00024729,-0.00010156,-1.8125e+08,-1656.4,0,9.2941e+07,-97.182,11612,12607,1,12607,1,0.00054351,-1.69e-09,0,0.00074187,8.3677e-05,1.8548e+08,-497.96,0,2.6877e+08,1.5687,12606,574.93,0,574.93,0,0.00057087,2.1622e-09,0,0.00028739,0.00010692,2.0877e+08,696.9,0,1.0282e+08,79.826,574.93,1
1988,3.47,12110,1,12110,1,4.9274e-05,-2.1136e-09,0,0.00049704,-8.9916e-06,-52.92,-677.53,0,1.8211e+08,-34.033,12109,13104,1,13104,1,0.001006,1.5285e-09,0,0.001006,0.00017023,3.2156e+08,512.56,0,3.6908e+08,202.17,13103,12110,1,12110,1,4.9274e-05,-1.9045e-09,0,0.00049605,-8.9636e-06,1.786e+07,-588.64,0,1.856e+08,-31.936,12109,11091,1,11091,1,-0.00090742,-6.7557e-09,0,1.384e-05,-0.00018817,-3.6908e+08,-2123,0,4.9143e+06,-251.28,11090,11613,1,11613,1,-0.00044678,-3.8631e-09,0,0.00024803,-0.0001019,-1.8171e+08,-1230.7,0,9.3274e+07,-87.088,11612,12607,1,12607,1,0.00054532,-3.1455e-10,0,0.00074408,8.389e-05,1.8598e+08,-98.732,0,2.6936e+08,21.118,12606,574.93,0,574.93,0,0.00057257,2.1182e-09,0,0.00028825,0.00010723,2.0929e+08,678.42,0,1.0306e+08,89.214,574.93,1
1988,3.48,12110,1,12110,1,4.9614e-05,-2.895e-09,0,0.00049851,-9.054e-06,-95.122,-922.69,0,1.8258e+08,-26.026,12109,13104,1,13104,1,0.0010092,2.0754e-09,0,0.0010092,0.0001707,3.222e+08,674.94,0,3.7009e+08,280.56,13103,12110,1,12110,1,4.9614e-05,-2.6784e-09,0,0.00049751,-9.026e-06,1.7986e+07,-835.16,0,1.8609e+08,-16.592,12109,11091,1,11091,1,-0.00090991,-8.9689e-09,0,1.4076e-05,-0.00018876,-3.7009e+08,-2807.4,0,5.0035e+06,-337.94,11090,11613,1,11613,1,-0.0004479,-5.5247e-09,0,0.00024876,-0.00010224,-1.8217e+08,-1750.7,0,9.3605e+07,-106.17,11612,12607,1,12607,1,0.00054713,-1.1959e-10,0,0.00074627,8.4101e-05,1.8648e+08,-37.785,0,2.6994e+08,52.703,12606,574.93,0,574.93,0,0.00057425,2.9792e-09,0,0.00028911,0.00010755,2.0981e+08,951.6,0,1.033e+08,120.8,574.93,1
1988,3.49,12110,1,12110,1,4.9959e-05,-2.929e-09,0,0.00050003,-9.1171e-06,-73.036,-934.76,0,1.8305e+08,-30.544,12109,13104,1,13104,1,0.0010124,1.885e-09,0,0.0010124,0.00017117,3.2285e+08,613.07,0,3.7112e+08,301.22,13103,12110,1,12110,1,4.9958e-05,-2.591e-09,0,0.000499,-9.089e-06,1.8113e+07,-813.61,0,1.8659e+08,-23.209,12109,11091,1,11091,1,-0.00091245,-9.4706e-09,0,1.4313e-05,-0.00018936,-3.7112e+08,-2977.1,0,5.093e+06,-348.15,11090,11613,1,11613,1,-0.00044905,-5.4822e-09,0,0.00024951,-0.00010258,-1.8264e+08,-1740.7,0,9.3943e+07,-117.46,11612,12607,1,12607,1,0.00054897,-1.8045e-10,0,0.00074851,8.4316e-05,1.8699e+08,-50.444,0,2.7053e+08,52.827,12606,574.93,0,574.93,0,0.00057598,3.0011e-09,0,0.00028999,0.00010787,2.1035e+08,962.44,0,1.0355e+08,130.34,574.93,1
1988,3.5,12110,1,12110,1,5.0303e-05,-3.9657e-09,0,0.00050148,-9.1804e-06,-42.788,-1261.8,0,1.8351e+08,-33.072,12109,13104,1,13104,1,0.0010155,4.1222e-09,0,0.0010155,0.00017163,3.2347e+08,1275.3,0,3.7212e+08,404.74,13103,12110,1,12110,1,5.0303e-05,-3.2833e-09,0,0.00050045,-9.1522e-06,1.824e+07,-1012.1,0,1.8707e+08,-42.732,12109,11091,1,11091,1,-0.0009149,-1.3559e-08,0,1.4555e-05,-0.00018994,-3.7212e+08,-4240.6,0,5.1842e+06,-373.27,11090,11613,1,11613,1,-0.00045015,-7.8101e-09,0,0.00025023,-0.00010291,-1.8308e+08,-2484.2,0,9.4273e+07,-132.48,11612,12607,1,12607,1,0.00055076,1.1189e-10,0,0.00075068,8.4523e-05,1.8748e+08,33.771,0,2.7109e+08,62.691,12606,574.93,0,574.93,0,0.00057764,4.4968e-09,0,0.00029084,0.00010818,2.1086e+08,1435.8,0,1.0378e+08,154.69,574.93,1
1988,3.51,12110,1,12110,1,5.0648e-05,-2.1034e-09,0,0.00050299,-9.2435e-06,-86.333,-677.61,0,1.8398e+08,-30.139,12109,13104,1,13104,1,0.0010187,3.3213e-09,0,0.0010187,0.0001721,3.2411e+08,1022.5,0,3.7314e+08,240.42,13103,12110,1,12110,1,5.0648e-05,-1.5027e-09,0,0.00050193,-9.2153e-06,1.8367e+07,-470.28,0,1.8757e+08,-33.151,12109,11091,1,11091,1,-0.0009174,-8.269e-09,0,1.4793e-05,-0.00019054,-3.7314e+08,-2629.3,0,5.2742e+06,-231.32,11090,11613,1,11613,1,-0.00045128,-4.3787e-09,0,0.00025097,-0.00010325,-1.8355e+08,-1394.8,0,9.4609e+07,-92.355,11612,12607,1,12607,1,0.00055258,2.1255e-10,0,0.00075291,8.4737e-05,1.8798e+08,66.367,0,2.7168e+08,33.86,12606,574.93,0,574.93,0,0.00057935,2.8248e-09,0,0.00029171,0.0001085,2.1139e+08,910.09,0,1.0402e+08,96.167,574.93,1
1988,3.52,12110,1,12110,1,5.1002e-05,-1.9251e-09,0,0.00050451,-9.3085e-06,113.65,-615.53,0,1.8445e+08,-43.059,12109,13104,1,13104,1,0.0010219,2.8665e-10,0,0.0010219,0.00017258,3.2475e+08,77.207,0,3.7417e+08,35.386,13103,12110,1,12110,1,5.1002e-05,-2.1506e-09,0,0.00050344,-9.2801e-06,1.8497e+07,-685.14,0,1.8808e+08,-30.825,12109,11091,1,11091,1,-0.00091993,-4.3017e-09,0,1.5041e-05,-0.00019114,-3.7417e+08,-1313.5,0,5.3675e+06,-189.89,11090,11613,1,11613,1,-0.00045243,-2.946e-09,0,0.00025172,-0.0001036,-1.8401e+08,-955.8,0,9.4951e+07,-66.123,11612,12607,1,12607,1,0.00055444,-9.0557e-10,0,0.00075516,8.4953e-05,1.8849e+08,-285.91,0,2.7227e+08,-9.8624,12606,574.93,0,574.93,0,0.0005811,1.2055e-09,0,0.0002926,0.00010883,2.1192e+08,390.51,0,1.0427e+08,45.475,574.93,1
1988,3.53,12110,1,12110,1,5.1353e-05,-1.7804e-09,0,0.00050597,-9.3729e-06,-217.38,-568.54,0,1.849e+08,-8.4981,12109,13104,1,13104,1,0.0010251,6.2439e-09,0,0.0010251,0.00017304,3.2536e+08,1922.1,0,3.7517e+08,327.49,13103,12110,1,12110,1,5.1353e-05,-1.0078e-09,0,0.00050489,-9.3444e-06,1.8626e+07,-297.95,0,1.8856e+08,-20.85,12109,11091,1,11091,1,-0.00092239,-9.6489e-09,0,1.5288e-05,-0.00019173,-3.7517e+08,-3001.5,0,5.461e+06,-262.78,11090,11613,1,11613,1,-0.00045353,-4.7052e-09,0,0.00025244,-0.00010394,-1.8446e+08,-1494.2,0,9.5283e+07,-89.138,11612,12607,1,12607,1,0.00055624,8.2489e-10,0,0.00075733,8.5159e-05,1.8898e+08,251.23,0,2.7282e+08,76.115,12606,574.93,0,574.93,0,0.00058276,3.7203e-09,0,0.00029345,0.00010914,2.1243e+08,1178.6,0,1.045e+08,120.35,574.93,1
1988,3.54,12110,1,12110,1,5.1704e-05,-2.2071e-09,0,0.00050747,-9.4373e-06,76.793,-703.82,0,1.8537e+08,-45.522,12109,13104,1,13104,1,0.0010283,1.6506e-09,0,0.0010283,0.00017351,3.26e+08,563.88,0,3.7619e+08,187.1,13103,12110,1,12110,1,5.1704e-05,-1.9478e-09,0,0.00050637,-9.4089e-06,1.8756e+07,-604.16,0,1.8906e+08,-34.763,12109,11091,1,11091,1,-0.00092489,-7.2103e-09,0,1.5534e-05,-0.00019233,-3.7619e+08,-2273.5,0,5.5533e+06,-279.61,11090,11613,1,11613,1,-0.00045466,-4.1805e-09,0,0.00025319,-0.00010428,-1.8492e+08,-1318.1,0,9.5621e+07,-109.73,11612,12607,1,12607,1,0.00055807,-1.4471e-10,0,0.00075956,8.5371e-05,1.8948e+08,-41.029,0,2.734e+08,17.998,12606,574.93,0,574.93,0,0.00058447,2.3326e-09,0,0.00029432,0.00010946,2.1296e+08,749.71,0,1.0474e+08,96.491,574.93,1
1988,3.55,12110,1,12110,1,5.2059e-05,-2.7894e-09,0,0.00050896,-9.5024e-06,25.493,-888.91,0,1.8583e+08,-44.649,12109,13104,1,13104,1,0.0010315,3.7166e-09,0,0.0010315,0.00017398,3.2662e+08,1184.9,0,3.772e+08,371.03,13103,12110,1,12110,1,5.2059e-05,-1.9582e-09,0,0.00050784,-9.4739e-06,1.8886e+07,-606.24,0,1.8955e+08,-50.645,12109,11091,1,11091,1,-0.00092739,-1.1312e-08,0,1.5783e-05,-0.00019292,-3.772e+08,-3536.2,0,5.6474e+06,-363.79,11090,11613,1,11613,1,-0.00045578,-5.9928e-09,0,0.00025392,-0.00010462,-1.8538e+08,-1867.8,0,9.5958e+07,-125.21,11612,12607,1,12607,1,0.0005599,5.2762e-10,0,0.00076176,8.5581e-05,1.8998e+08,159.54,0,2.7397e+08,33.983,12606,574.93,0,574.93,0,0.00058617,3.823e-09,0,0.00029518,0.00010978,2.1347e+08,1218.9,0,1.0498e+08,140.16,574.93,1
1988,3.56,12110,1,12110,1,5.2415e-05,-2.8372e-09,0,0.00051046,-9.5677e-06,-64.468,-906.16,0,1.863e+08,-45.011,12109,13104,1,13104,1,0.0010347,1.7275e-09,0,0.0010347,0.00017445,3.2724e+08,533.16,0,3.7821e+08,250.26,13103,12110,1,12110,1,5.2415e-05,-2.5307e-09,0,0.00050932,-9.5391e-06,1.9018e+07,-776.12,0,1.9004e+08,-40.612,12109,11091,1,11091,1,-0.00092988,-9.0224e-09,0,1.6032e-05,-0.00019352,-3.7821e+08,-2848.9,0,5.7414e+06,-306.48,11090,11613,1,11613,1,-0.0004569,-5.2187e-09,0,0.00025466,-0.00010496,-1.8583e+08,-1646.9,0,9.6297e+07,-116.82,11612,12607,1,12607,1,0.00056174,-2.9136e-10,0,0.00076398,8.5792e-05,1.9048e+08,-84.94,0,2.7454e+08,25.488,12606,574.93,0,574.93,0,0.00058788,2.8468e-09,0,0.00029606,0.0001101,2.14e+08,916.13,0,1.0521e+08,111.56,574.93,1
1988,3.57,12110,1,12110,1,5.2775e-05,-1.6085e-09,0,0.00051197,-9.6338e-06,-57.527,-518.91,0,1.8676e+08,-28.091,12109,13104,1,13104,1,0.0010379,1.0106e-09,0,0.0010379,0.00017491,3.2786e+08,282.98,0,3.7923e+08,112.39,13103,12110,1,12110,1,5.2775e-05,-1.4871e-09,0,0.0005108,-9.605e-06,1.915e+07,-468.95,0,1.9053e+08,-19.383,12109,11091,1,11091,1,-0.00093237,-4.8096e-09,0,1.6287e-05,-0.00019412,-3.7923e+08,-1556.7,0,5.8371e+06,-221.05,11090,11613,1,11613,1,-0.00045803,-2.9602e-09,0,0.0002554,-0.0001053,-1.8629e+08,-952.65,0,9.6637e+07,-67.104,11612,12607,1,12607,1,0.00056358,-1.5173e-10,0,0.00076621,8.6004e-05,1.9098e+08,-49.145,0,2.7511e+08,12.42,12606,574.93,0,574.93,0,0.0005896,1.5902e-09,0,0.00029693,0.00011042,2.1452e+08,515.59,0,1.0545e+08,62.056,574.93,1
1988,3.58,12110,1,12110,1,5.3137e-05,-2.2889e-09,0,0.00051346,-9.7002e-06,-26.416,-728.87,0,1.8722e+08,-21.108,12109,13104,1,13104,1,0.0010411,1.0564e-09,0,0.0010411,0.00017538,3.2848e+08,336.43,0,3.8024e+08,155.55,13103,12110,1,12110,1,5.3137e-05,-2.0966e-09,0,0.00051228,-9.6714e-06,1.9283e+07,-659.66,0,1.9103e+08,-14.796,12109,11091,1,11091,1,-0.00093487,-6.3469e-09,0,1.6544e-05,-0.00019472,-3.8024e+08,-1998.7,0,5.9339e+06,-170.71,11090,11613,1,11613,1,-0.00045915,-3.9511e-09,0,0.00025614,-0.00010564,-1.8674e+08,-1266.8,0,9.6978e+07,-66.443,11612,12607,1,12607,1,0.00056542,-5.5006e-10,0,0.00076843,8.6213e-05,1.9148e+08,-161.99,0,2.7568e+08,18.915,12606,574.93,0,574.93,0,0.0005913,1.9485e-09,0,0.0002978,0.00011074,2.1504e+08,627.3,0,1.0569e+08,66.754,574.93,1
1988,3.59,12110,1,12110,1,5.35e-05,1.2147e-09,0,0.00051496,-9.7667e-06,-102.73,373.96,0,1.8769e+08,-8.5185,12109,13104,1,13104,1,0.0010443,3.5011e-09,0,0.0010443,0.00017584,3.2909e+08,1049.6,0,3.8125e+08,165.03,13103,12110,1,12110,1,5.3501e-05,1.0739e-09,0,0.00051377,-9.7379e-06,1.9417e+07,341.9,0,1.9152e+08,-4.9975,12109,11091,1,11091,1,-0.00093734,-7.3404e-10,0,1.6801e-05,-0.00019531,-3.8125e+08,-251.4,0,6.0309e+06,-214.16,11090,11613,1,11613,1,-0.00046026,3.0494e-10,0,0.00025688,-0.00010599,-1.872e+08,92.512,0,9.7318e+07,-49.124,11612,12607,1,12607,1,0.00056726,2.0853e-09,0,0.00077064,8.6423e-05,1.9198e+08,652.27,0,2.7624e+08,33.612,12606,574.93,0,574.93,0,0.00059301,1.0873e-09,0,0.00029868,0.00011106,2.1556e+08,333.76,0,1.0593e+08,67.579,574.93,1
1988,3.6,12110,1,12110,1,5.3865e-05,-1.4454e-09,0,0.00051645,-9.8336e-06,59.663,-454.16,0,1.8814e+08,-12.045,12109,13104,1,13104,1,0.0010476,8.1769e-10,0,0.0010476,0.00017631,3.297e+08,280.05,0,3.8226e+08,127.69,13103,12110,1,12110,1,5.3864e-05,-1.2076e-09,0,0.00051524,-9.8048e-06,1.9551e+07,-376.22,0,1.92e+08,-10.312,12109,11091,1,11091,1,-0.00093982,-4.3805e-09,0,1.7062e-05,-0.00019591,-3.8226e+08,-1355.2,0,6.129e+06,-152.72,11090,11613,1,11613,1,-0.00046137,-2.5566e-09,0,0.00025762,-0.00010633,-1.8765e+08,-805.38,0,9.7658e+07,-31.738,11612,12607,1,12607,1,0.0005691,-2.7101e-10,0,0.00077285,8.6631e-05,1.9247e+08,-85.096,0,2.768e+08,12.084,12606,574.93,0,574.93,0,0.00059471,1.3381e-09,0,0.00029954,0.00011137,2.1607e+08,422.25,0,1.0616e+08,50.135,574.93,1
1988,3.61,12110,1,12110,1,5.423e-05,-2.2967e-09,0,0.00051795,-9.9007e-06,-96.005,-726.7,0,1.8861e+08,-22.902,12109,13104,1,13104,1,0.0010508,6.5217e-10,0,0.0010508,0.00017678,3.3031e+08,208.24,0,3.8327e+08,90.902,13103,12110,1,12110,1,5.4229e-05,-2.6548e-09,0,0.00051671,-9.8718e-06,1.9686e+07,-823.73,0,1.925e+08,-14.509,12109,11091,1,11091,1,-0.00094231,-4.3821e-09,0,1.732e-05,-0.00019651,-3.8327e+08,-1359.3,0,6.2261e+06,-193.83,11090,11613,1,11613,1,-0.00046248,-3.5092e-09,0,0.00025836,-0.00010667,-1.881e+08,-1119.3,0,9.7999e+07,-55.29,11612,12607,1,12607,1,0.00057094,-1.2162e-09,0,0.00077507,8.6841e-05,1.9297e+08,-355.96,0,2.7736e+08,11.682,12606,574.93,0,574.93,0,0.00059642,1.4338e-09,0,0.00030042,0.00011169,2.1659e+08,459.38,0,1.064e+08,48.332,574.93,1
1988,3.62,12110,1,12110,1,5.4596e-05,-3.7679e-09,0,0.00051942,-9.9679e-06,494.33,-1193.7,0,1.8905e+08,-29.268,12109,13104,1,13104,1,0.001054,5.1915e-09,0,0.001054,0.00017724,3.3091e+08,1580.5,0,3.8427e+08,375.76,13103,12110,1,12110,1,5.4596e-05,-2.9613e-09,0,0.00051817,-9.9394e-06,1.9821e+07,-930.78,0,1.9298e+08,-38.389,12109,11091,1,11091,1,-0.00094477,-1.3653e-08,0,1.7583e-05,-0.00019711,-3.8427e+08,-4253.8,0,6.3249e+06,-359.74,11090,11613,1,11613,1,-0.00046357,-7.7625e-09,0,0.00025909,-0.00010701,-1.8854e+08,-2441.3,0,9.8337e+07,-124.42,11612,12607,1,12607,1,0.00057277,5.0671e-11,0,0.00077726,8.7044e-05,1.9346e+08,14.638,0,2.779e+08,70.704,12606,574.93,0,574.93,0,0.00059809,4.6786e-09,0,0.00030127,0.000112,2.1709e+08,1484.2,0,1.0663e+08,145.98,574.93,1
1988,3.63,12110,1,12110,1,5.4978e-05,-3.1097e-09,0,0.00052094,-1.0038e-05,-20.353,-990.4,0,1.8952e+08,-43.687,12109,13104,1,13104,1,0.0010572,1.6415e-09,0,0.0010572,0.00017771,3.3151e+08,475.99,0,3.8529e+08,153.86,13103,12110,1,12110,1,5.4979e-05,-3.3868e-09,0,0.00051967,-1.0009e-05,1.9962e+07,-1070.5,0,1.9347e+08,-13.563,12109,11091,1,11091,1,-0.00094728,-7.3752e-09,0,1.7857e-05,-0.00019772,-3.8529e+08,-2339.2,0,6.428e+06,-390.51,11090,11613,1,11613,1,-0.00046469,-4.9808e-09,0,0.00025984,-0.00010736,-1.89e+08,-1585.1,0,9.8678e+07,-80.503,11612,12607,1,12607,1,0.00057465,-1.3099e-09,0,0.00077951,8.7254e-05,1.9395e+08,-405.29,0,2.7847e+08,24.12,12606,574.93,0,574.93,0,0.00059983,2.3034e-09,0,0.00030216,0.00011233,2.1761e+08,742.25,0,1.0686e+08,115.52,574.93,1
1988,3.64,12110,1,12110,1,5.5372e-05,-1.6879e-09,0,0.00052245,-1.011e-05,-40.966,-544.4,0,1.8997e+08,1.5069,12109,13104,1,13104,1,0.0010605,2.041e-09,0,0.0010605,0.00017817,3.321e+08,637.49,0,3.8629e+08,157.79,13103,12110,1,12110,1,5.5372e-05,-1.3973e-09,0,0.00052116,-1.0082e-05,2.0106e+07,-438.08,0,1.9395e+08,12.793,12109,11091,1,11091,1,-0.00094975,-6.0958e-09,0,1.8144e-05,-0.00019832,-3.8629e+08,-1933.4,0,6.5359e+06,-227,11090,11613,1,11613,1,-0.00046578,-3.4199e-09,0,0.00026058,-0.00010771,-1.8944e+08,-1096.2,0,9.9019e+07,-33.5,11612,12607,1,12607,1,0.00057653,1.2122e-10,0,0.00078174,8.746e-05,1.9444e+08,36.793,0,2.7901e+08,49.436,12606,574.93,0,574.93,0,0.00060154,2.0909e-09,0,0.00030304,0.00011265,2.1812e+08,672.02,0,1.071e+08,74.723,574.93,1
1988,3.65,12110,1,12110,1,5.5768e-05,-2.2937e-09,0,0.00052397,-1.0183e-05,-53.867,-730.5,0,1.9043e+08,-8.5103,12109,13104,1,13104,1,0.0010638,1.5218e-09,0,0.0010638,0.00017864,3.3269e+08,481.82,0,3.8731e+08,136.98,13103,12110,1,12110,1,5.5768e-05,-2.2576e-09,0,0.00052265,-1.0155e-05,2.0252e+07,-713.31,0,1.9443e+08,5.699,12109,11091,1,11091,1,-0.00095223,-6.2301e-09,0,1.8433e-05,-0.00019893,-3.8731e+08,-1969.5,0,6.6446e+06,-231.4,11090,11613,1,11613,1,-0.00046688,-3.8516e-09,0,0.00026133,-0.00010806,-1.8989e+08,-1212.7,0,9.9361e+07,-46.522,11612,12607,1,12607,1,0.00057842,-7.3935e-10,0,0.00078398,8.7667e-05,1.9493e+08,-224.69,0,2.7956e+08,51.204,12606,574.93,0,574.93,0,0.00060327,1.9358e-09,0,0.00030392,0.00011297,2.1863e+08,622.26,0,1.0733e+08,81.826,574.93,1
1988,3.66,12110,1,12110,1,5.6164e-05,-1.2366e-09,0,0.00052546,-1.0256e-05,-21.405,-399.24,0,1.9087e+08,-2.8966,12109,13104,1,13104,1,0.001067,6.2232e-10,0,0.001067,0.00017909,3.3326e+08,167.81,0,3.883e+08,95.047,13103,12110,1,12110,1,5.6164e-05,-1.0482e-09,0,0.00052412,-1.0227e-05,2.0398e+07,-332.51,0,1.9491e+08,2.0959,12109,11091,1,11091,1,-0.00095466,-3.9146e-09,0,1.8724e-05,-0.00019953,-3.883e+08,-1261.2,0,6.754e+06,-199.42,11090,11613,1,11613,1,-0.00046796,-1.9604e-09,0,0.00026207,-0.00010841,-1.9033e+08,-634.83,0,9.97e+07,-23.279,11612,12607,1,12607,1,0.00058029,-3.1473e-10,0,0.00078619,8.7869e-05,1.9541e+08,-95.874,0,2.8009e+08,23.273,12606,574.93,0,574.93,0,0.00060497,1.1424e-09,0,0.00030479,0.00011329,2.1913e+08,372.63,0,1.0756e+08,45.587,574.93,1
1988,3.67,12110,1,12110,1,5.6561e-05,-2.9401e-09,0,0.00052698,-1.0328e-05,-55.763,-929.55,0,1.9133e+08,-7.5564,12109,13104,1,13104,1,0.0010703,1.3743e-09,0,0.0010703,0.00017956,3.3385e+08,466.77,0,3.8931e+08,128.55,13103,12110,1,12110,1,5.6561e-05,-3.0982e-09,0,0.00052562,-1.03e-05,2.0544e+07,-982.27,0,1.954e+08,9.435,12109,11091,1,11091,1,-0.00095717,-6.8686e-09,0,1.9015e-05,-0.00020015,-3.8931e+08,-2150.2,0,6.8633e+06,-265.05,11090,11613,1,11613,1,-0.00046906,-4.7206e-09,0,0.00026281,-0.00010876,-1.9078e+08,-1498.4,0,1.0004e+08,-45.661,11612,12607,1,12607,1,0.00058218,-1.3342e-09,0,0.00078843,8.8075e-05,1.959e+08,-401.11,0,2.8063e+08,46.157,12606,574.93,0,574.93,0,0.0006067,2.118e-09,0,0.00030568,0.00011361,2.1964e+08,676.71,0,1.0779e+08,83.554,574.93,1
1988,3.68,12110,1,12110,1,5.6962e-05,-2.2275e-09,0,0.00052847,-1.0402e-05,-57.921,-710.62,0,1.9177e+08,10.715,12109,13104,1,13104,1,0.0010735,1.507e-09,0,0.0010735,0.00018002,3.3442e+08,477.87,0,3.9031e+08,160.09,13103,12110,1,12110,1,5.6961e-05,-2.0055e-09,0,0.0005271,-1.0374e-05,2.0691e+07,-624.07,0,1.9587e+08,20.184,12109,11091,1,11091,1,-0.00095961,-6.911e-09,0,1.9309e-05,-0.00020075,-3.9031e+08,-2176.6,0,6.9736e+06,-234.67,11090,11613,1,11613,1,-0.00047013,-4.1549e-09,0,0.00026355,-0.00010911,-1.9121e+08,-1317.5,0,1.0038e+08,-23.244,11612,12607,1,12607,1,0.00058406,-1.8868e-10,0,0.00079065,8.8277e-05,1.9639e+08,-61.002,0,2.8116e+08,61.489,12606,574.93,0,574.93,0,0.0006084,2.2922e-09,0,0.00030655,0.00011393,2.2014e+08,734.36,0,1.0802e+08,77.792,574.93,1
1988,3.69,12110,1,12110,1,5.7363e-05,-9.5383e-10,0,0.00052998,-1.0476e-05,26.624,-310.76,0,1.9222e+08,-3.0847,12109,13104,1,13104,1,0.0010768,2.1853e-09,0,0.0010768,0.00018048,3.3499e+08,693.14,0,3.913e+08,84.362,13103,12110,1,12110,1,5.7363e-05,-6.6181e-10,0,0.00052858,-1.0448e-05,2.0839e+07,-206.97,0,1.9635e+08,1.7545,12109,11091,1,11091,1,-0.00096206,-4.0551e-09,0,1.9605e-05,-0.00020136,-3.913e+08,-1321.2,0,7.0846e+06,-136.26,11090,11613,1,11613,1,-0.00047122,-2.0464e-09,0,0.00026429,-0.00010946,-1.9166e+08,-673.05,0,1.0073e+08,-26.379,11612,12607,1,12607,1,0.00058595,1.9229e-10,0,0.00079288,8.8482e-05,1.9687e+08,55.188,0,2.817e+08,26.176,12606,574.93,0,574.93,0,0.00061012,1.4581e-09,0,0.00030743,0.00011425,2.2065e+08,471.2,0,1.0825e+08,42.43,574.93,1
1988,3.7,12110,1,12110,1,5.7768e-05,3.2563e-09,0,0.00053149,-1.055e-05,33.197,1014.3,0,1.9267e+08,19.526,12109,13104,1,13104,1,0.0010801,9.858e-09,0,0.0010801,0.00018095,3.3558e+08,3065.3,0,3.9232e+08,420.6,13103,12110,1,12110,1,5.7768e-05,2.9819e-09,0,0.00053007,-1.0522e-05,2.0988e+07,921.76,0,1.9683e+08,-11.94,12109,11091,1,11091,1,-0.00096455,-1.6014e-09,0,1.9905e-05,-0.00020197,-3.9232e+08,-548.46,0,7.197e+06,-308.79,11090,11613,1,11613,1,-0.0004723,7.0653e-10,0,0.00026503,-0.00010982,-1.921e+08,214.69,0,1.0107e+08,-73.957,11612,12607,1,12607,1,0.00058784,5.4761e-09,0,0.00079511,8.8685e-05,1.9736e+08,1709,0,2.8223e+08,90.315,12606,574.93,0,574.93,0,0.00061183,2.9792e-09,0,0.00030831,0.00011457,2.2115e+08,934.69,0,1.0847e+08,139.29,574.93,1
1988,3.71,12110,1,12110,1,5.8173e-05,4.9597e-11,0,0.00053299,-1.0624e-05,-112.56,24.831,0,1.9312e+08,14.781,12109,13104,1,13104,1,0.0010833,4.6562e-09,0,0.0010833,0.0001814,3.3613e+08,1561,0,3.933e+08,207.61,13103,12110,1,12110,1,5.8174e-05,-1.244e-11,0,0.00053155,-1.0597e-05,2.1137e+07,-4.098,0,1.9731e+08,9.9789,12109,11091,1,11091,1,-0.00096697,-3.6999e-09,0,2.0204e-05,-0.00020257,-3.933e+08,-1155.7,0,7.3092e+06,-126.15,11090,11613,1,11613,1,-0.00047338,-1.0456e-09,0,0.00026578,-0.00011017,-1.9253e+08,-311.92,0,1.0141e+08,-35.48,11612,12607,1,12607,1,0.00058973,1.0228e-09,0,0.00079733,8.8887e-05,1.9784e+08,320.87,0,2.8276e+08,52.137,12606,574.93,0,574.93,0,0.00061354,1.7164e-09,0,0.00030919,0.00011489,2.2165e+08,548.1,0,1.087e+08,64.348,574.93,1
1988,3.72,12110,1,12110,1,5.8583e-05,-1.6054e-09,0,0.00053451,-1.0699e-05,12.031,-501.52,0,1.9357e+08,-19.345,12109,13104,1,13104,1,0.0010866,8.0013e-10,0,0.0010866,0.00018187,3.3671e+08,274.03,0,3.9431e+08,72.705,13103,12110,1,12110,1,5.8583e-05,-1.7447e-09,0,0.00053305,-1.0672e-05,2.1288e+07,-532.34,0,1.9779e+08,-9.7518,12109,11091,1,11091,1,-0.00096946,-3.9121e-09,0,2.0507e-05,-0.00020319,-3.9431e+08,-1219.1,0,7.423e+06,-197.03,11090,11613,1,11613,1,-0.00047447,-2.6005e-09,0,0.00026652,-0.00011052,-1.9298e+08,-798.76,0,1.0176e+08,-44.232,11612,12607,1,12607,1,0.00059163,-6.3875e-10,0,0.00079958,8.9091e-05,1.9832e+08,-199.26,0,2.8329e+08,18.05,12606,574.93,0,574.93,0,0.00061527,1.2021e-09,0,0.00031008,0.00011521,2.2216e+08,378.75,0,1.0893e+08,53.845,574.93,1
1988,3.73,12110,1,12110,1,5.8996e-05,1.0173e-09,0,0.00053603,-1.0775e-05,-46.011,313.59,0,1.9402e+08,0.86584,12109,13104,1,13104,1,0.0010899,2.6502e-09,0,0.0010899,0.00018233,3.3727e+08,811.51,0,3.9531e+08,142.92,13103,12110,1,12110,1,5.8996e-05,1.0523e-09,0,0.00053454,-1.0748e-05,2.144e+07,326.58,0,1.9827e+08,-10.587,12109,11091,1,11091,1,-0.00097191,-5.3979e-10,0,2.0813e-05,-0.0002038,-3.9531e+08,-184.76,0,7.5376e+06,-139.18,11090,11613,1,11613,1,-0.00047555,2.9622e-10,0,0.00026727,-0.00011088,-1.9341e+08,91.255,0,1.021e+08,-36.299,11612,12607,1,12607,1,0.00059354,1.7293e-09,0,0.00080181,8.9294e-05,1.9881e+08,525.21,0,2.8382e+08,26.642,12606,574.93,0,574.93,0,0.000617,8.4376e-10,0,0.00031096,0.00011553,2.2266e+08,261.76,0,1.0916e+08,48.191,574.93,1
1988,3.74,12110,1,12110,1,5.941e-05,1.7277e-09,0,0.00053754,-1.0851e-05,19.036,543.23,0,1.9447e+08,-5.1066,12109,13104,1,13104,1,0.0010932,3.7703e-09,0,0.0010932,0.00018279,3.3783e+08,1146.9,0,3.9632e+08,149.25,13103,12110,1,12110,1,5.941e-05,1.9347e-09,0,0.00053603,-1.0825e-05,2.1592e+07,595.1,0,1.9874e+08,-19.208,12109,11091,1,11091,1,-0.00097439,-7.9488e-10,0,2.1121e-05,-0.00020441,-3.9632e+08,-272.24,0,7.6529e+06,-121.69,11090,11613,1,11613,1,-0.00047662,8.0778e-10,0,0.00026802,-0.00011123,-1.9385e+08,249.72,0,1.0245e+08,-48.597,11612,12607,1,12607,1,0.00059544,2.7882e-09,0,0.00080405,8.9496e-05,1.9929e+08,898.26,0,2.8435e+08,27.76,12606,574.93,0,574.93,0,0.00061872,1.2247e-09,0,0.00031184,0.00011586,2.2316e+08,387.93,0,1.0939e+08,56.541,574.93,1
1988,3.75,12110,1,12110,1,5.9823e-05,-1.2723e-09,0,0.00053903,-1.0927e-05,25.622,-392.48,0,1.949e+08,27.562,12109,13104,1,13104,1,0.0010964,4.0595e-09,0,0.0010964,0.00018325,3.3838e+08,1297.2,0,3.973e+08,182.88,13103,12110,1,12110,1,5.9824e-05,-1.0871e-09,0,0.0005375,-1.0901e-05,2.1744e+07,-331.57,0,1.9921e+08,14.222,12109,11091,1,11091,1,-0.00097679,-5.1256e-09,0,2.143e-05,-0.00020502,-3.973e+08,-1577.3,0,7.7683e+06,-148.35,11090,11613,1,11613,1,-0.00047767,-2.9454e-09,0,0.00026875,-0.00011158,-1.9428e+08,-903.85,0,1.0279e+08,-15.925,11612,12607,1,12607,1,0.00059732,1.9624e-10,0,0.00080625,8.9694e-05,1.9977e+08,63.693,0,2.8486e+08,78.461,12606,574.93,0,574.93,0,0.00062041,2.018e-09,0,0.00031271,0.00011617,2.2365e+08,632.73,0,1.0961e+08,64.473,574.93,1
1988,3.76,12110,1,12110,1,6.0238e-05,1.1775e-09,0,0.00054055,-1.1003e-05,16.55,365.39,0,1.9535e+08,-0.76539,12109,13104,1,13104,1,0.0010997,5.0766e-09,0,0.0010997,0.00018371,3.3894e+08,1622.5,0,3.983e+08,147.47,13103,12110,1,12110,1,6.0238e-05,8.4052e-10,0,0.00053899,-1.0978e-05,2.1896e+07,250.17,0,1.9969e+08,-5.0303,12109,11091,1,11091,1,-0.00097926,-5.1954e-10,0,2.1738e-05,-0.00020563,-3.983e+08,-177.83,0,7.8836e+06,-102.43,11090,11613,1,11613,1,-0.00047876,2.5364e-10,0,0.0002695,-0.00011193,-1.9472e+08,79.043,0,1.0314e+08,-26.03,11612,12607,1,12607,1,0.00059923,1.7683e-09,0,0.00080849,8.9897e-05,2.0025e+08,549.75,0,2.8538e+08,15.065,12606,574.93,0,574.93,0,0.00062213,1.1944e-09,0,0.0003136,0.00011649,2.2415e+08,380.59,0,1.0983e+08,44.164,574.93,1
1988,3.77,12110,1,12110,1,6.066e-05,1.6028e-10,0,0.00054207,-1.1081e-05,-27.124,52.559,0,1.958e+08,-23.237,12109,13104,1,13104,1,0.001103,5.661e-10,0,0.001103,0.00018417,3.3949e+08,179.93,0,3.993e+08,65.17,13103,12110,1,12110,1,6.066e-05,2.5549e-10,0,0.00054049,-1.1056e-05,2.2051e+07,80.863,0,2.0017e+08,-16.393,12109,11091,1,11091,1,-0.00098172,-9.948e-10,0,2.2053e-05,-0.00020624,-3.993e+08,-282.55,0,8.0014e+06,-134.87,11090,11613,1,11613,1,-0.00047983,7.3834e-11,0,0.00027025,-0.00011229,-1.9516e+08,20.992,0,1.0348e+08,-33.905,11612,12607,1,12607,1,0.00060115,4.042e-10,0,0.00081074,9.0099e-05,2.0073e+08,128.4,0,2.859e+08,-0.87575,12606,574.93,0,574.93,0,0.00062386,3.3797e-10,0,0.00031449,0.00011682,2.2465e+08,102.17,0,1.1006e+08,33.652,574.93,1
1988,3.78,12110,1,12110,1,6.1082e-05,-2.6259e-09,0,0.00054357,-1.1158e-05,-34.974,-821.88,0,1.9624e+08,12.233,12109,13104,1,13104,1,0.0011063,1.0683e-09,0,0.0011063,0.00018463,3.4004e+08,365.87,0,4.003e+08,145.58,13103,12110,1,12110,1,6.1081e-05,-2.5419e-09,0,0.00054197,-1.1133e-05,2.2206e+07,-794.2,0,2.0064e+08,13.238,12109,11091,1,11091,1,-0.00098417,-6.6595e-09,0,2.2369e-05,-0.00020686,-4.003e+08,-2060.6,0,8.1197e+06,-170.1,11090,11613,1,11613,1,-0.00048089,-4.1648e-09,0,0.00027098,-0.00011265,-1.9559e+08,-1308.7,0,1.0381e+08,-25.22,11612,12607,1,12607,1,0.00060305,-1.1232e-09,0,0.00081296,9.0297e-05,2.0121e+08,-336.45,0,2.8641e+08,51.1,12606,574.93,0,574.93,0,0.00062557,1.9491e-09,0,0.00031537,0.00011714,2.2515e+08,615.76,0,1.1028e+08,60.856,574.93,1
1988,3.79,12110,1,12110,1,6.1505e-05,-2.206e-09,0,0.00054509,-1.1236e-05,-5.7053,-699.66,0,1.9668e+08,-10.585,12109,13104,1,13104,1,0.0011097,1.1097e-09,0,0.0011097,0.00018509,3.4059e+08,361.56,0,4.013e+08,111.68,13103,12110,1,12110,1,6.1505e-05,-2.4702e-09,0,0.00054346,-1.1212e-05,2.2362e+07,-771.73,0,2.0112e+08,11.499,12109,11091,1,11091,1,-0.00098664,-4.7519e-09,0,2.2684e-05,-0.00020748,-4.013e+08,-1485.9,0,8.2372e+06,-245.37,11090,11613,1,11613,1,-0.00048196,-3.6258e-09,0,0.00027174,-0.000113,-1.9602e+08,-1161.5,0,1.0408e+08,-44.765,11612,12607,1,12607,1,0.00060497,-9.1856e-10,0,0.0008152,9.0499e-05,2.0169e+08,-273.52,0,2.8693e+08,39.191,12606,574.93,0,574.93,0,0.0006273,1.6158e-09,0,0.00031626,0.00011746,2.2565e+08,517.74,0,1.1051e+08,70.909,574.93,1
1988,3.8,12110,1,12110,1,6.1942e-05,-1.6391e-09,0,0.00054659,-1.1316e-05,-29.287,-524.6,0,1.9712e+08,-1.052,12109,13104,1,13104,1,0.0011129,1.0546e-09,0,0.0011129,0.00018555,3.4112e+08,351.28,0,4.0228e+08,135.94,13103,12110,1,12110,1,6.1941e-05,-1.3992e-09,0,0.00054495,-1.1292e-05,2.2521e+07,-427.16,0,2.0158e+08,-1.0101,12109,11091,1,11091,1,-0.00098906,-5.1976e-09,0,2.3014e-05,-0.00020809,-4.0228e+08,-1656.5,0,8.3604e+06,-153.12,11090,11613,1,11613,1,-0.00048301,-3.0725e-09,0,0.00027248,-0.00011336,-1.9645e+08,-977.84,0,1.0435e+08,-39.421,11612,12607,1,12607,1,0.00060689,-1.5995e-10,0,0.00081743,9.0695e-05,2.0216e+08,-50.45,0,2.8744e+08,38.254,12606,574.93,0,574.93,0,0.00062901,1.655e-09,0,0.00031714,0.00011778,2.2613e+08,530.79,0,1.1073e+08,56.915,574.93,1
1988,3.81,12110,1,12110,1,6.2385e-05,-2.4312e-09,0,0.0005481,-1.1397e-05,-98.098,-771.32,0,1.9755e+08,10.758,12109,13104,1,13104,1,0.0011163,1.413e-09,0,0.0011163,0.000186,3.4165e+08,481.46,0,4.0327e+08,209.5,13103,12110,1,12110,1,6.2384e-05,-2.2601e-09,0,0.00054643,-1.1374e-05,2.2683e+07,-709.33,0,2.0205e+08,10.399,12109,11091,1,11091,1,-0.00099149,-6.9853e-09,0,2.3351e-05,-0.00020871,-4.0327e+08,-2213.6,0,8.4864e+06,-185.43,11090,11613,1,11613,1,-0.00048405,-4.5088e-09,0,0.00027322,-0.00011372,-1.9687e+08,-1428.8,0,1.0461e+08,-42.615,11612,12607,1,12607,1,0.00060882,-2.8828e-10,0,0.00081966,9.0891e-05,2.0263e+08,-88.85,0,2.8793e+08,57.224,12606,574.93,0,574.93,0,0.00063072,2.324e-09,0,0.00031802,0.0001181,2.2662e+08,742.54,0,1.1095e+08,72.834,574.93,1
1988,3.82,12110,1,12110,1,6.283e-05,-3.181e-09,0,0.0005496,-1.1479e-05,-95.801,-1008.5,0,1.9798e+08,-5.1739,12109,13104,1,13104,1,0.0011196,5.38e-09,0,0.0011196,0.00018646,3.4217e+08,1679.1,0,4.0426e+08,256.11,13103,12110,1,12110,1,6.283e-05,-2.7269e-09,0,0.00054791,-1.1456e-05,2.2846e+07,-856.52,0,2.0251e+08,5.1205,12109,11091,1,11091,1,-0.00099391,-1.1337e-08,0,2.3691e-05,-0.00020932,-4.0426e+08,-3564.8,0,8.6132e+06,-295.85,11090,11613,1,11613,1,-0.00048508,-6.7849e-09,0,0.00027396,-0.00011408,-1.9729e+08,-2134.4,0,1.0487e+08,-106.51,11612,12607,1,12607,1,0.00061075,2.7413e-10,0,0.00082188,9.1086e-05,2.031e+08,76.004,0,2.8843e+08,89.017,12606,574.93,0,574.93,0,0.00063243,4.0598e-09,0,0.0003189,0.00011842,2.271e+08,1290.9,0,1.1117e+08,128.8,574.93,1
1988,3.83,12110,1,12110,1,6.3282e-05,-5.9163e-10,0,0.00055114,-1.1562e-05,35.132,-202.76,0,1.9842e+08,-35.337,12109,13104,1,13104,1,0.0011229,3.3542e-09,0,0.0011229,0.00018691,3.4269e+08,1114.5,0,4.0525e+08,93.904,13103,12110,1,12110,1,6.3283e-05,-1.559e-10,0,0.00054942,-1.154e-05,2.3011e+07,-51.847,0,2.0298e+08,-20.635,12109,11091,1,11091,1,-0.00099634,-4.2722e-09,0,2.4035e-05,-0.00020994,-4.0525e+08,-1461.6,0,8.7414e+06,-236.36,11090,11613,1,11613,1,-0.00048614,-1.9905e-09,0,0.00027472,-0.00011444,-1.9772e+08,-643.91,0,1.0514e+08,-75.061,11612,12607,1,12607,1,0.00061271,6.6429e-10,0,0.00082414,9.1284e-05,2.0358e+08,190.52,0,2.8893e+08,8.1079,12606,574.93,0,574.93,0,0.00063417,1.816e-09,0,0.0003198,0.00011874,2.2759e+08,587.24,0,1.1139e+08,62.967,574.93,1
1988,3.84,12110,1,12110,1,6.3738e-05,-1.6414e-09,0,0.00055266,-1.1646e-05,-49.107,-521.91,0,1.9885e+08,-17.589,12109,13104,1,13104,1,0.0011263,4.2974e-09,0,0.0011263,0.00018737,3.4321e+08,1409.1,0,4.0624e+08,169.23,13103,12110,1,12110,1,6.3739e-05,-1.2261e-09,0,0.00055092,-1.1624e-05,2.3177e+07,-375.21,0,2.0344e+08,-9.301,12109,11091,1,11091,1,-0.00099878,-7.258e-09,0,2.4386e-05,-0.00021057,-4.0624e+08,-2305.9,0,8.8724e+06,-193.73,11090,11613,1,11613,1,-0.00048718,-3.9463e-09,0,0.00027546,-0.0001148,-1.9815e+08,-1232.9,0,1.054e+08,-80.866,11612,12607,1,12607,1,0.00061466,4.583e-10,0,0.00082638,9.1479e-05,2.0404e+08,132.12,0,2.8942e+08,42.321,12606,574.93,0,574.93,0,0.0006359,2.7484e-09,0,0.00032069,0.00011906,2.2808e+08,876.95,0,1.1161e+08,81.28,574.93,1
1988,3.85,12110,1,12110,1,6.4195e-05,-1.396e-09,0,0.00055418,-1.173e-05,38.452,-446.95,0,1.9929e+08,-26.458,12109,13104,1,13104,1,0.0011296,3.426e-09,0,0.0011296,0.00018783,3.4373e+08,1132.8,0,4.0722e+08,133.77,13103,12110,1,12110,1,6.4196e-05,-8.5375e-10,0,0.00055242,-1.1709e-05,2.3343e+07,-254.3,0,2.0391e+08,-21.258,12109,11091,1,11091,1,-0.0010012,-6.4571e-09,0,2.4735e-05,-0.00021119,-4.0722e+08,-2084.6,0,9.0028e+06,-184.9,11090,11613,1,11613,1,-0.00048822,-3.2717e-09,0,0.00027621,-0.00011517,-1.9857e+08,-1021,0,1.0567e+08,-81.137,11612,12607,1,12607,1,0.00061662,3.6011e-10,0,0.00082863,9.1675e-05,2.0451e+08,107.16,0,2.8992e+08,24.72,12606,574.93,0,574.93,0,0.00063763,2.3779e-09,0,0.00032159,0.00011939,2.2856e+08,763.37,0,1.1183e+08,68.022,574.93,1
1988,3.86,12110,1,12110,1,6.4655e-05,-1.4241e-09,0,0.0005557,-1.1814e-05,26.874,-455.2,0,1.9972e+08,-29.838,12109,13104,1,13104,1,0.0011329,4.1829e-09,0,0.0011329,0.00018828,3.4424e+08,1372.4,0,4.0821e+08,133.24,13103,12110,1,12110,1,6.4656e-05,-1.028e-09,0,0.00055391,-1.1794e-05,2.3511e+07,-311.6,0,2.0437e+08,-22.22,12109,11091,1,11091,1,-0.0010036,-6.4963e-09,0,2.5089e-05,-0.00021181,-4.0821e+08,-2099.4,0,9.1343e+06,-210.86,11090,11613,1,11613,1,-0.00048926,-3.5112e-09,0,0.00027696,-0.00011553,-1.9899e+08,-1103.4,0,1.0593e+08,-86.323,11612,12607,1,12607,1,0.00061857,4.2326e-10,0,0.00083087,9.1869e-05,2.0498e+08,126.27,0,2.904e+08,23.486,12606,574.93,0,574.93,0,0.00063935,2.5418e-09,0,0.00032248,0.00011971,2.2905e+08,814.48,0,1.1205e+08,72.295,574.93,1
1988,3.87,12110,1,12110,1,6.5117e-05,-1.5274e-09,0,0.00055723,-1.1899e-05,-166.6,-486.94,0,2.0015e+08,-17.753,12109,13104,1,13104,1,0.0011363,2.0423e-09,0,0.0011363,0.00018874,3.4476e+08,698.75,0,4.092e+08,163.05,13103,12110,1,12110,1,6.5117e-05,-1.4193e-09,0,0.00055541,-1.1879e-05,2.3679e+07,-428.42,0,2.0483e+08,-9.1489,12109,11091,1,11091,1,-0.0010061,-4.847e-09,0,2.5443e-05,-0.00021244,-4.092e+08,-1575.5,0,9.2662e+06,-173.85,11090,11613,1,11613,1,-0.0004903,-3.0858e-09,0,0.00027771,-0.0001159,-1.9941e+08,-995.73,0,1.062e+08,-64.229,11612,12607,1,12607,1,0.00062053,5.8151e-11,0,0.00083313,9.2065e-05,2.0545e+08,19.079,0,2.909e+08,16.671,12606,574.93,0,574.93,0,0.00064109,1.7548e-09,0,0.00032338,0.00012003,2.2953e+08,564.53,0,1.1227e+08,62.046,574.93,1
1988,3.88,12110,1,12110,1,6.5582e-05,-2.1871e-09,0,0.00055873,-1.1984e-05,324.53,-694.02,0,2.0058e+08,-32.086,12109,13104,1,13104,1,0.0011396,4.8782e-09,0,0.0011396,0.00018919,3.4526e+08,1582.8,0,4.1018e+08,233.17,13103,12110,1,12110,1,6.5582e-05,-1.5199e-09,0,0.0005569,-1.1965e-05,2.3848e+07,-477.84,0,2.0529e+08,-27.136,12109,11091,1,11091,1,-0.0010085,-9.4955e-09,0,2.5802e-05,-0.00021306,-4.1018e+08,-2991.2,0,9.3999e+06,-302.88,11090,11613,1,11613,1,-0.00049131,-5.1649e-09,0,0.00027845,-0.00011626,-1.9983e+08,-1607.8,0,1.0646e+08,-107.07,11612,12607,1,12607,1,0.00062248,5.0566e-10,0,0.00083535,9.2256e-05,2.0591e+08,148.16,0,2.9137e+08,31.213,12606,574.93,0,574.93,0,0.00064279,3.5564e-09,0,0.00032426,0.00012035,2.3001e+08,1130.2,0,1.1248e+08,100.07,574.93,1
1988,3.89,12110,1,12110,1,6.6047e-05,-1.3824e-09,0,0.00056028,-1.207e-05,38.562,-444.25,0,2.0101e+08,-36.139,12109,13104,1,13104,1,0.001143,1.4298e-09,0,0.001143,0.00018965,3.4577e+08,489.41,0,4.1117e+08,85.3,13103,12110,1,12110,1,6.6048e-05,-1.1778e-09,0,0.00055841,-1.2052e-05,2.4018e+07,-358.05,0,2.0576e+08,-27.662,12109,11091,1,11091,1,-0.0010109,-4.3009e-09,0,2.6159e-05,-0.00021368,-4.1117e+08,-1439.4,0,9.5328e+06,-177.6,11090,11613,1,11613,1,-0.00049236,-2.7179e-09,0,0.00027921,-0.00011662,-2.0025e+08,-866.35,0,1.0673e+08,-72.955,11612,12607,1,12607,1,0.00062446,-7.0719e-11,0,0.00083762,9.2453e-05,2.0638e+08,-19.072,0,2.9187e+08,-0.53595,12606,574.93,0,574.93,0,0.00064455,1.4965e-09,0,0.00032517,0.00012068,2.305e+08,487.84,0,1.127e+08,48.54,574.93,1
1988,3.9,12110,1,12110,1,6.6517e-05,-1.2839e-09,0,0.00056178,-1.2156e-05,47.111,-411.85,0,2.0143e+08,-19.368,12109,13104,1,13104,1,0.0011463,6.4982e-09,0,0.0011463,0.00019009,3.4626e+08,2038.2,0,4.1214e+08,195.9,13103,12110,1,12110,1,6.6517e-05,-6.9184e-10,0,0.00055989,-1.2139e-05,2.4188e+07,-197.47,0,2.0621e+08,-12.086,12109,11091,1,11091,1,-0.0010133,-8.5665e-09,0,2.6523e-05,-0.0002143,-4.1214e+08,-2692,0,9.6683e+06,-253.63,11090,11613,1,11613,1,-0.00049337,-3.8708e-09,0,0.00027995,-0.00011699,-2.0066e+08,-1209.9,0,1.0699e+08,-86.497,11612,12607,1,12607,1,0.00062641,1.0485e-09,0,0.00083984,9.2642e-05,2.0684e+08,302.11,0,2.9235e+08,48.285,12606,574.93,0,574.93,0,0.00064625,3.434e-09,0,0.00032605,0.00012099,2.3097e+08,1088.7,0,1.1291e+08,89.155,574.93,1
1988,3.91,12110,1,12110,1,6.6984e-05,-2.1486e-09,0,0.00056329,-1.2242e-05,35.793,-681.72,0,2.0186e+08,-38.251,12109,13104,1,13104,1,0.0011497,7.459e-09,0,0.0011497,0.00019055,3.4676e+08,2403.6,0,4.1312e+08,287.35,13103,12110,1,12110,1,6.6985e-05,-1.1832e-09,0,0.00056138,-1.2225e-05,2.4358e+07,-346.49,0,2.0667e+08,-40.877,12109,11091,1,11091,1,-0.0010157,-1.1516e-08,0,2.6884e-05,-0.00021492,-4.1312e+08,-3649.1,0,9.8025e+06,-280.21,11090,11613,1,11613,1,-0.00049439,-5.6495e-09,0,0.00028069,-0.00011735,-2.0108e+08,-1741.5,0,1.0725e+08,-134.49,11612,12607,1,12607,1,0.00062836,1.0553e-09,0,0.00084207,9.2834e-05,2.073e+08,320.49,0,2.9291e+08,48.693,12606,574.93,0,574.93,0,0.00064796,4.5744e-09,0,0.00032694,0.00012132,2.3144e+08,1455.7,0,1.1313e+08,120.66,574.93,1
1988,3.92,12110,1,12110,1,6.746e-05,-2.0372e-09,0,0.00056485,-1.2329e-05,15.278,-649.35,0,2.023e+08,-51.623,12109,13104,1,13104,1,0.0011531,1.4523e-09,0,0.0011531,0.00019101,3.4727e+08,470.38,0,4.1413e+08,92.456,13103,12110,1,12110,1,6.7461e-05,-1.5987e-09,0,0.0005629,-1.2314e-05,2.4532e+07,-483.74,0,2.0714e+08,-38.119,12109,11091,1,11091,1,-0.0010182,-6.8245e-09,0,2.725e-05,-0.00021556,-4.1413e+08,-2252.7,0,9.9385e+06,-228.83,11090,11613,1,11613,1,-0.00049544,-3.8325e-09,0,0.00028146,-0.00011772,-2.0151e+08,-1217.6,0,1.0752e+08,-110.75,11612,12607,1,12607,1,0.00063037,-1.9429e-10,0,0.00084436,9.3031e-05,2.0778e+08,-55.519,0,2.9348e+08,3.1342,12606,574.93,0,574.93,0,0.00064973,2.195e-09,0,0.00032786,0.00012164,2.3193e+08,713.31,0,1.1335e+08,71.561,574.93,1
1988,3.93,12110,1,12110,1,6.7941e-05,-2.2017e-09,0,0.00056637,-1.2418e-05,149.99,-700.61,0,2.0272e+08,-25.59,12109,13104,1,13104,1,0.0011565,1.6917e-09,0,0.0011565,0.00019146,3.4776e+08,570.09,0,4.151e+08,198.22,13103,12110,1,12110,1,6.7942e-05,-1.3569e-09,0,0.0005644,-1.2403e-05,2.4707e+07,-410.74,0,2.0759e+08,-21.735,12109,11091,1,11091,1,-0.0010206,-8.5958e-09,0,2.7625e-05,-0.00021619,-4.151e+08,-2776.7,0,1.0078e+07,-211.9,11090,11613,1,11613,1,-0.00049646,-4.3219e-09,0,0.0002822,-0.00011809,-2.0192e+08,-1366.6,0,1.0778e+08,-80.85,11612,12607,1,12607,1,0.00063234,1.6585e-10,0,0.0008466,9.3222e-05,2.0824e+08,47.516,0,2.9403e+08,17.815,12606,574.93,0,574.93,0,0.00065145,2.8058e-09,0,0.00032875,0.00012197,2.3241e+08,900.02,0,1.1356e+08,78.454,574.93,1
1988,3.94,12110,1,12110,1,6.8417e-05,-2.6537e-09,0,0.00056787,-1.2505e-05,-50.593,-841.56,0,2.0314e+08,-28.144,12109,13104,1,13104,1,0.0011598,5.3704e-09,0,0.0011598,0.00019191,3.4823e+08,1736.5,0,4.1607e+08,261.66,13103,12110,1,12110,1,6.8418e-05,-1.9072e-09,0,0.00056588,-1.2491e-05,2.488e+07,-579.37,0,2.0804e+08,-22.632,12109,11091,1,11091,1,-0.001023,-1.115e-08,0,2.7996e-05,-0.00021681,-4.1607e+08,-3554.1,0,1.0215e+07,-258.92,11090,11613,1,11613,1,-0.00049746,-5.9874e-09,0,0.00028294,-0.00011845,-2.0233e+08,-1890.5,0,1.0804e+08,-117.75,11612,12607,1,12607,1,0.0006343,4.6138e-10,0,0.00084882,9.341e-05,2.087e+08,138.19,0,2.9457e+08,52.344,12606,574.93,0,574.93,0,0.00065316,4.0936e-09,0,0.00032964,0.00012228,2.3287e+08,1304.8,0,1.1377e+08,110.76,574.93,1
1988,3.95,12110,1,12110,1,6.89e-05,-2.6987e-09,0,0.00056943,-1.2594e-05,47.715,-856.73,0,2.0358e+08,-37.598,12109,13104,1,13104,1,0.0011632,1.475e-09,0,0.0011632,0.00019237,3.4874e+08,381.23,0,4.1708e+08,115.16,13103,12110,1,12110,1,6.8901e-05,-2.3383e-09,0,0.00056741,-1.2581e-05,2.5055e+07,-711.11,0,2.0851e+08,-23.103,12109,11091,1,11091,1,-0.0010254,-7.7857e-09,0,2.8369e-05,-0.00021745,-4.1708e+08,-2539.6,0,1.0354e+07,-215.29,11090,11613,1,11613,1,-0.00049851,-4.7072e-09,0,0.00028371,-0.00011883,-2.0275e+08,-1496.8,0,1.0831e+08,-94.792,11612,12607,1,12607,1,0.00063631,-7.2196e-10,0,0.00085112,9.3607e-05,2.0917e+08,-212.19,0,2.9514e+08,18.328,12606,574.93,0,574.93,0,0.00065493,2.3815e-09,0,0.00033056,0.00012261,2.3337e+08,771.86,0,1.1399e+08,73.338,574.93,1
1988,3.96,12110,1,12110,1,6.9389e-05,-2.4064e-09,0,0.00057095,-1.2683e-05,36.558,-766.73,0,2.0399e+08,-13.147,12109,13104,1,13104,1,0.0011666,3.6879e-09,0,0.0011666,0.00019282,3.4921e+08,1177.4,0,4.1805e+08,201.23,13103,12110,1,12110,1,6.9389e-05,-1.909e-09,0,0.0005689,-1.2671e-05,2.5233e+07,-585.93,0,2.0896e+08,-4.4291,12109,11091,1,11091,1,-0.0010278,-8.9582e-09,0,2.875e-05,-0.00021807,-4.1805e+08,-2884.4,0,1.0495e+07,-199.92,11090,11613,1,11613,1,-0.00049951,-5.0828e-09,0,0.00028445,-0.00011919,-2.0316e+08,-1584.4,0,1.0857e+08,-86.691,11612,12607,1,12607,1,0.00063829,1.7757e-10,0,0.00085335,9.3795e-05,2.0963e+08,54.833,0,2.9568e+08,53.027,12606,574.93,0,574.93,0,0.00065665,3.1029e-09,0,0.00033145,0.00012294,2.3383e+08,992.59,0,1.142e+08,91.62,574.93,1
1988,3.97,12110,1,12110,1,6.9876e-05,-1.4185e-09,0,0.00057248,-1.2773e-05,-27.331,-459.5,0,2.0442e+08,-28.05,12109,13104,1,13104,1,0.00117,1.1698e-09,0,0.00117,0.00019327,3.4969e+08,295.3,0,4.1902e+08,74.665,13103,12110,1,12110,1,6.9877e-05,-1.3553e-09,0,0.0005704,-1.2762e-05,2.541e+07,-424.75,0,2.0942e+08,-22.592,12109,11091,1,11091,1,-0.0010302,-4.1389e-09,0,2.913e-05,-0.0002187,-4.1902e+08,-1341.7,0,1.0636e+07,-216.37,11090,11613,1,11613,1,-0.00050053,-2.7151e-09,0,0.00028521,-0.00011957,-2.0357e+08,-879.21,0,1.0884e+08,-48.327,11612,12607,1,12607,1,0.00064028,-1.3529e-10,0,0.00085561,9.3986e-05,2.1009e+08,-43.979,0,2.9623e+08,8.8344,12606,574.93,0,574.93,0,0.00065839,1.4166e-09,0,0.00033235,0.00012326,2.3431e+08,459.74,0,1.1442e+08,52.895,574.93,1
1988,3.98,12110,1,12110,1,7.0381e-05,-2.5583e-09,0,0.00057401,-1.2865e-05,-7.5698,-810.28,0,2.0484e+08,-7.0562,12109,13104,1,13104,1,0.0011734,1.5498e-09,0,0.0011734,0.00019372,3.5016e+08,486.33,0,4.2e+08,133.39,13103,12110,1,12110,1,7.0381e-05,-2.3591e-09,0,0.0005719,-1.2855e-05,2.559e+07,-697.98,0,2.0987e+08,-3.407,12109,11091,1,11091,1,-0.0010326,-8.5483e-09,0,2.9528e-05,-0.00021933,-4.2e+08,-2688.9,0,1.0783e+07,-216.06,11090,11613,1,11613,1,-0.00050152,-4.6126e-09,0,0.00028595,-0.00011994,-2.0398e+08,-1473.3,0,1.0909e+08,-49.379,11612,12607,1,12607,1,0.00064228,-1.9279e-10,0,0.00085786,9.4173e-05,2.1054e+08,-54.654,0,2.9676e+08,42.031,12606,574.93,0,574.93,0,0.00066012,2.5635e-09,0,0.00033325,0.00012358,2.3477e+08,819.38,0,1.1463e+08,69.091,574.93,1
1988,3.99,12110,1,12110,1,7.089e-05,-1.467e-09,0,0.00057555,-1.2959e-05,55.466,-474.49,0,2.0526e+08,-17.433,12109,13104,1,13104,1,0.0011768,1.4766e-09,0,0.0011768,0.00019417,3.5063e+08,500.18,0,4.2097e+08,75.23,13103,12110,1,12110,1,7.0891e-05,-1.0949e-09,0,0.00057342,-1.295e-05,2.5773e+07,-349.37,0,2.1032e+08,-17.05,12109,11091,1,11091,1,-0.001035,-5.6858e-09,0,2.9929e-05,-0.00021997,-4.2097e+08,-1828,0,1.093e+07,-166.77,11090,11613,1,11613,1,-0.00050253,-2.9291e-09,0,0.00028671,-0.00012031,-2.0439e+08,-937.4,0,1.0936e+08,-47.083,11612,12607,1,12607,1,0.00064431,1.1271e-10,0,0.00086013,9.4362e-05,2.11e+08,35.595,0,2.9731e+08,18.34,12606,574.93,0,574.93,0,0.00066187,1.8563e-09,0,0.00033417,0.00012391,2.3524e+08,598.36,0,1.1484e+08,47.334,574.93,1
1988,4,12110,1,12110,1,7.1405e-05,-6.7704e-10,0,0.00057709,-1.3054e-05,13.636,-224.28,0,2.0567e+08,-28.253,12109,13104,1,13104,1,0.0011802,5.9255e-10,0,0.0011802,0.00019462,3.5108e+08,149.07,0,4.2194e+08,61.443,13103,12110,1,12110,1,7.1406e-05,-4.2576e-10,0,0.00057493,-1.3045e-05,2.5957e+07,-132.54,0,2.1077e+08,-29.394,12109,11091,1,11091,1,-0.0010374,-3.0275e-09,0,3.0337e-05,-0.0002206,-4.2194e+08,-1029.4,0,1.1081e+07,-165.04,11090,11613,1,11613,1,-0.00050352,-1.2081e-09,0,0.00028747,-0.00012069,-2.0479e+08,-389.44,0,1.0961e+08,-51.784,11612,12607,1,12607,1,0.00064633,4.3931e-11,0,0.0008624,9.4549e-05,2.1145e+08,13.345,0,2.9784e+08,1.1467,12606,574.93,0,574.93,0,0.00066361,8.9888e-10,0,0.00033508,0.00012423,2.3571e+08,294.03,0,1.1505e+08,42.569,574.93,1
1988,4.01,12110,1,12110,1,7.1922e-05,-2.8621e-09,0,0.00057863,-1.3148e-05,-37.301,-899.12,0,2.0609e+08,-11.817,12109,13104,1,13104,1,0.0011837,1.3457e-09,0,0.0011837,0.00019507,3.5155e+08,428.51,0,4.2293e+08,104.31,13103,12110,1,12110,1,7.1922e-05,-3.0033e-09,0,0.00057644,-1.3141e-05,2.6142e+07,-918.67,0,2.1122e+08,3.7375,12109,11091,1,11091,1,-0.0010398,-6.5709e-09,0,3.0746e-05,-0.00022124,-4.2293e+08,-2067.7,0,1.1231e+07,-211.2,11090,11613,1,11613,1,-0.00050451,-4.7113e-09,0,0.00028822,-0.00012107,-2.052e+08,-1505,0,1.0987e+08,-44.117,11612,12607,1,12607,1,0.00064836,-1.1817e-09,0,0.00086466,9.4735e-05,2.119e+08,-332.77,0,2.9838e+08,34.95,12606,574.93,0,574.93,0,0.00066535,2.0864e-09,0,0.00033599,0.00012456,2.3618e+08,665.46,0,1.1526e+08,62.106,574.93,1
1988,4.02,12110,1,12110,1,7.2442e-05,-4.321e-10,0,0.00058018,-1.3244e-05,9.4209,-150.91,0,2.0651e+08,-28.023,12109,13104,1,13104,1,0.0011871,8.9379e-10,0,0.0011871,0.00019551,3.52e+08,233.82,0,4.2389e+08,50.385,13103,12110,1,12110,1,7.2442e-05,-5.4359e-10,0,0.00057795,-1.3237e-05,2.6328e+07,-171.33,0,2.1167e+08,-12.305,12109,11091,1,11091,1,-0.0010422,-1.975e-09,0,3.1157e-05,-0.00022188,-4.2389e+08,-636.29,0,1.1382e+07,-208.74,11090,11613,1,11613,1,-0.00050551,-1.0214e-09,0,0.00028898,-0.00012144,-2.056e+08,-345.61,0,1.1013e+08,-49.576,11612,12607,1,12607,1,0.00065039,2.1396e-10,0,0.00086693,9.4922e-05,2.1236e+08,59.064,0,2.9891e+08,9.2611,12606,574.93,0,574.93,0,0.0006671,7.1588e-10,0,0.0003369,0.00012489,2.3664e+08,224.02,0,1.1547e+08,53.783,574.93,1
1988,4.03,12110,1,12110,1,7.2964e-05,-1.1507e-09,0,0.00058171,-1.334e-05,9.7688,-366.7,0,2.0692e+08,-5.4216,12109,13104,1,13104,1,0.0011905,8.3928e-10,0,0.0011905,0.00019596,3.5245e+08,258.48,0,4.2487e+08,73.454,13103,12110,1,12110,1,7.2964e-05,-1.1847e-09,0,0.00057946,-1.3334e-05,2.6515e+07,-362.73,0,2.1211e+08,-1.8127,12109,11091,1,11091,1,-0.0010446,-2.811e-09,0,3.1572e-05,-0.00022252,-4.2487e+08,-888.77,0,1.1535e+07,-134.43,11090,11613,1,11613,1,-0.00050649,-2.0305e-09,0,0.00028973,-0.00012182,-2.06e+08,-650.61,0,1.1039e+08,-25.669,11612,12607,1,12607,1,0.00065242,-3.3064e-10,0,0.00086919,9.5107e-05,2.128e+08,-105.19,0,2.9944e+08,23.078,12606,574.93,0,574.93,0,0.00066884,9.8799e-10,0,0.00033781,0.00012521,2.371e+08,316.54,0,1.1568e+08,38.872,574.93,1
1988,4.04,12110,1,12110,1,7.3485e-05,1.4314e-09,0,0.00058323,-1.3435e-05,-89.831,440.52,0,2.0732e+08,59.405,12109,13104,1,13104,1,0.0011939,1.2074e-08,0,0.0011939,0.00019641,3.5289e+08,3980.1,0,4.2583e+08,418.67,13103,12110,1,12110,1,7.3486e-05,-3.4329e-11,0,0.00058095,-1.343e-05,2.6701e+07,-10.579,0,2.1255e+08,59.772,12109,11091,1,11091,1,-0.0010469,-5.757e-09,0,3.1987e-05,-0.00022315,-4.2583e+08,-1829.9,0,1.1688e+07,-370.39,11090,11613,1,11613,1,-0.00050746,-1.5827e-09,0,0.00029047,-0.00012219,-2.064e+08,-506.26,0,1.1064e+08,-43.927,11612,12607,1,12607,1,0.00065443,4.3032e-09,0,0.00087142,9.529e-05,2.1325e+08,1289.8,0,2.9996e+08,151.2,12606,574.93,0,574.93,0,0.00067056,4.27e-09,0,0.00033871,0.00012553,2.3756e+08,1339.8,0,1.1588e+08,151.28,574.93,1
1988,4.05,12110,1,12110,1,7.4011e-05,-1.5231e-09,0,0.00058479,-1.3532e-05,-12.997,-466.56,0,2.0774e+08,-52.303,12109,13104,1,13104,1,0.0011974,6.8591e-10,0,0.0011974,0.00019686,3.5335e+08,219.02,0,4.2681e+08,71.868,13103,12110,1,12110,1,7.4012e-05,-1.5967e-09,0,0.00058248,-1.3529e-05,2.689e+07,-504.81,0,2.13e+08,-49.871,12109,11091,1,11091,1,-0.0010493,-4.0314e-09,0,3.2405e-05,-0.00022379,-4.2681e+08,-1160.6,0,1.1841e+07,-189.62,11090,11613,1,11613,1,-0.00050846,-2.3592e-09,0,0.00029124,-0.00012257,-2.068e+08,-745.53,0,1.1091e+08,-81.005,11612,12607,1,12607,1,0.00065649,-5.6442e-10,0,0.00087371,9.5477e-05,2.137e+08,-181.35,0,3.005e+08,-15.886,12606,574.93,0,574.93,0,0.00067233,1.215e-09,0,0.00033963,0.00012586,2.3803e+08,361.84,0,1.1609e+08,47.373,574.93,1
1988,4.06,12110,1,12110,1,7.4544e-05,-3.1676e-09,0,0.00058633,-1.363e-05,-167.41,-986.54,0,2.0815e+08,3.7351,12109,13104,1,13104,1,0.0012008,1.487e-09,0,0.0012008,0.00019731,3.5379e+08,509.28,0,4.2778e+08,180.24,13103,12110,1,12110,1,7.4543e-05,-3.3157e-09,0,0.00058398,-1.3627e-05,2.7079e+07,-1008.8,0,2.1345e+08,18.394,12109,11091,1,11091,1,-0.0010517,-7.2102e-09,0,3.2829e-05,-0.00022444,-4.2778e+08,-2222.8,0,1.1997e+07,-270.51,11090,11613,1,11613,1,-0.00050944,-4.993e-09,0,0.00029199,-0.00012295,-2.072e+08,-1568.8,0,1.1116e+08,-41.446,11612,12607,1,12607,1,0.00065853,-1.5484e-09,0,0.00087598,9.5661e-05,2.1415e+08,-453.75,0,3.0102e+08,57.635,12606,574.93,0,574.93,0,0.00067406,2.213e-09,0,0.00034054,0.00012618,2.3848e+08,697.84,0,1.163e+08,84.896,574.93,1
1988,4.07,12110,1,12110,1,7.5079e-05,4.2745e-10,0,0.00058788,-1.3728e-05,14.571,115.85,0,2.0857e+08,-17.819,12109,13104,1,13104,1,0.0012043,1.8436e-09,0,0.0012043,0.00019775,3.5422e+08,510.5,0,4.2874e+08,57.056,13103,12110,1,12110,1,7.5079e-05,3.4036e-10,0,0.0005855,-1.3727e-05,2.7271e+07,100.23,0,2.1389e+08,-12.903,12109,11091,1,11091,1,-0.0010541,-8.8899e-10,0,3.3254e-05,-0.00022508,-4.2874e+08,-304.39,0,1.2153e+07,-121.6,11090,11613,1,11613,1,-0.00051043,-6.1402e-11,0,0.00029275,-0.00012333,-2.076e+08,-19.653,0,1.1142e+08,-44.258,11612,12607,1,12607,1,0.00066058,9.7385e-10,0,0.00087826,9.5846e-05,2.146e+08,272.28,0,3.0155e+08,10.936,12606,574.93,0,574.93,0,0.00067582,6.6719e-10,0,0.00034146,0.00012651,2.3895e+08,194.6,0,1.1651e+08,38.386,574.93,1
1988,4.08,12110,1,12110,1,7.5624e-05,-2.2398e-09,0,0.00058942,-1.3828e-05,108.49,-698.47,0,2.0897e+08,7.2101,12109,13104,1,13104,1,0.0012077,1.1032e-09,0,0.0012077,0.0001982,3.5465e+08,377.85,0,4.2971e+08,221.98,13103,12110,1,12110,1,7.5623e-05,-2.1626e-09,0,0.00058701,-1.3828e-05,2.7464e+07,-651.06,0,2.1433e+08,7.1991,12109,11091,1,11091,1,-0.0010565,-6.2399e-09,0,3.3693e-05,-0.00022572,-4.2971e+08,-1941.3,0,1.2313e+07,-178.41,11090,11613,1,11613,1,-0.00051139,-3.8472e-09,0,0.00029351,-0.00012372,-2.0799e+08,-1205.5,0,1.1168e+08,-37.835,11612,12607,1,12607,1,0.00066263,-5.2034e-10,0,0.00088052,9.6026e-05,2.1504e+08,-155.53,0,3.0206e+08,50.307,12606,574.93,0,574.93,0,0.00067756,1.9398e-09,0,0.00034237,0.00012684,2.394e+08,611.48,0,1.1671e+08,78.495,574.93,1
1988,4.09,12110,1,12110,1,7.6186e-05,-1.0125e-10,0,0.00059098,-1.3931e-05,-62.431,-44.555,0,2.0938e+08,-12.513,12109,13104,1,13104,1,0.0012112,7.5698e-10,0,0.0012112,0.00019864,3.5507e+08,197.66,0,4.3068e+08,36.407,13103,12110,1,12110,1,7.6186e-05,-1.4764e-10,0,0.00058854,-1.3932e-05,2.7661e+07,-46.256,0,2.1477e+08,-5.1148,12109,11091,1,11091,1,-0.0010589,-1.0273e-09,0,3.4145e-05,-0.00022637,-4.3068e+08,-351.6,0,1.2477e+07,-174.71,11090,11613,1,11613,1,-0.00051236,-4.24e-10,0,0.00029427,-0.0001241,-2.0839e+08,-144.4,0,1.1193e+08,-26.649,11612,12607,1,12607,1,0.00066473,2.9095e-10,0,0.00088282,9.6209e-05,2.1548e+08,75.69,0,3.0258e+08,7.3622,12606,574.93,0,574.93,0,0.00067933,4.6861e-10,0,0.0003433,0.00012717,2.3986e+08,144.56,0,1.1692e+08,28.77,574.93,1
1988,4.1,12110,1,12110,1,7.6758e-05,-1.953e-09,0,0.00059254,-1.4036e-05,-8.3073,-610.38,0,2.0978e+08,-0.88011,12109,13104,1,13104,1,0.0012148,5.2266e-10,0,0.0012148,0.00019909,3.5549e+08,160.83,0,4.3165e+08,86.83,13103,12110,1,12110,1,7.6758e-05,-2.1555e-09,0,0.00059007,-1.4037e-05,2.786e+07,-662.47,0,2.152e+08,2.5047,12109,11091,1,11091,1,-0.0010612,-4.0905e-09,0,3.4609e-05,-0.00022703,-4.3165e+08,-1276.6,0,1.2645e+07,-130.41,11090,11613,1,11613,1,-0.00051331,-2.9541e-09,0,0.00029503,-0.00012449,-2.0877e+08,-933.29,0,1.1218e+08,-23.897,11612,12607,1,12607,1,0.00066682,-1.0015e-09,0,0.0008851,9.6388e-05,2.1592e+08,-282.87,0,3.0309e+08,25.648,12606,574.93,0,574.93,0,0.00068109,1.2365e-09,0,0.00034423,0.00012749,2.4031e+08,396.39,0,1.1712e+08,40.742,574.93,1
1988,4.11,12110,1,12110,1,7.7331e-05,-1.44e-09,0,0.00059408,-1.4142e-05,175.39,-457.01,0,2.1017e+08,20.562,12109,13104,1,13104,1,0.0012183,1.4837e-09,0,0.0012183,0.00019953,3.5589e+08,433.49,0,4.326e+08,187.97,13103,12110,1,12110,1,7.7331e-05,-1.2564e-09,0,0.00059158,-1.4143e-05,2.806e+07,-392.64,0,2.1563e+08,16.8,12109,11091,1,11091,1,-0.0010636,-4.9645e-09,0,3.5073e-05,-0.00022768,-4.326e+08,-1561.7,0,1.2813e+07,-143.73,11090,11613,1,11613,1,-0.00051425,-2.9357e-09,0,0.00029579,-0.00012488,-2.0915e+08,-924.71,0,1.1243e+08,-26.433,11612,12607,1,12607,1,0.00066891,1.2877e-10,0,0.00088737,9.6564e-05,2.1635e+08,40.984,0,3.036e+08,65.606,12606,574.93,0,574.93,0,0.00068283,1.7091e-09,0,0.00034515,0.00012782,2.4075e+08,540.05,0,1.1732e+08,65.851,574.93,1
1988,4.12,12110,1,12110,1,7.7905e-05,-1.9405e-09,0,0.00059564,-1.4247e-05,-83.269,-612.94,0,2.1057e+08,-0.71143,12109,13104,1,13104,1,0.0012218,1.0903e-09,0,0.0012218,0.00019998,3.563e+08,373.41,0,4.3356e+08,169.46,13103,12110,1,12110,1,7.7905e-05,-1.9154e-09,0,0.0005931,-1.425e-05,2.826e+07,-589.59,0,2.1606e+08,-4.7456,12109,11091,1,11091,1,-0.001066,-5.2397e-09,0,3.5537e-05,-0.00022833,-4.3356e+08,-1673.2,0,1.298e+07,-196.38,11090,11613,1,11613,1,-0.0005152,-3.1136e-09,0,0.00029656,-0.00012527,-2.0954e+08,-989.24,0,1.1268e+08,-45.847,11612,12607,1,12607,1,0.00067101,-7.7354e-10,0,0.00088966,9.6743e-05,2.1679e+08,-217.35,0,3.041e+08,38.582,12606,574.93,0,574.93,0,0.00068459,1.5542e-09,0,0.00034608,0.00012815,2.412e+08,499.86,0,1.1752e+08,68.872,574.93,1
1988,4.13,12110,1,12110,1,7.8486e-05,-3.7385e-09,0,0.0005972,-1.4353e-05,-121.56,-1170.4,0,2.1097e+08,-3.5361,12109,13104,1,13104,1,0.0012253,1.054e-09,0,0.0012253,0.00020042,3.5671e+08,321.8,0,4.3453e+08,186.68,13103,12110,1,12110,1,7.8484e-05,-4.0536e-09,0,0.00059463,-1.4357e-05,2.8462e+07,-1270.8,0,2.1649e+08,3.6007,12109,11091,1,11091,1,-0.0010683,-8.2188e-09,0,3.6007e-05,-0.00022899,-4.3453e+08,-2526,0,1.315e+07,-265.2,11090,11613,1,11613,1,-0.00051614,-5.9206e-09,0,0.00029732,-0.00012566,-2.0993e+08,-1886.7,0,1.1293e+08,-63.434,11612,12607,1,12607,1,0.00067311,-1.8036e-09,0,0.00089195,9.692e-05,2.1722e+08,-503.58,0,3.0461e+08,56.428,12606,574.93,0,574.93,0,0.00068636,2.4562e-09,0,0.00034701,0.00012848,2.4164e+08,786.09,0,1.1772e+08,89.196,574.93,1
1988,4.14,12110,1,12110,1,7.9069e-05,-3.0988e-09,0,0.00059875,-1.446e-05,22.153,-981.95,0,2.1137e+08,25.052,12109,13104,1,13104,1,0.0012288,1.3899e-09,0,0.0012288,0.00020086,3.571e+08,437.72,0,4.3548e+08,316.51,13103,12110,1,12110,1,7.9067e-05,-2.9957e-09,0,0.00059614,-1.4465e-05,2.8665e+07,-917.3,0,2.1692e+08,26.931,12109,11091,1,11091,1,-0.0010707,-8.1035e-09,0,3.648e-05,-0.00022964,-4.3548e+08,-2568.8,0,1.3321e+07,-209.7,11090,11613,1,11613,1,-0.00051708,-5.1538e-09,0,0.00029808,-0.00012605,-2.1031e+08,-1632.4,0,1.1318e+08,-49.414,11612,12607,1,12607,1,0.00067521,-1.0413e-09,0,0.00089423,9.7096e-05,2.1765e+08,-303.45,0,3.0511e+08,85.009,12606,574.93,0,574.93,0,0.0006881,2.5302e-09,0,0.00034793,0.0001288,2.4208e+08,811.89,0,1.1792e+08,108.05,574.93,1
1988,4.15,12110,1,12110,1,7.9653e-05,-2.4656e-09,0,0.0006003,-1.4568e-05,165.6,-786.52,0,2.1176e+08,2.5272,12109,13104,1,13104,1,0.0012324,1.7743e-09,0,0.0012324,0.0002013,3.5749e+08,607.68,0,4.3644e+08,292.02,13103,12110,1,12110,1,7.9652e-05,-1.8835e-09,0,0.00059766,-1.4573e-05,2.8869e+07,-575.96,0,2.1735e+08,-0.83854,12109,11091,1,11091,1,-0.001073,-8.5554e-09,0,3.6956e-05,-0.00023029,-4.3644e+08,-2730.1,0,1.3493e+07,-225.81,11090,11613,1,11613,1,-0.00051801,-4.7082e-09,0,0.00029884,-0.00012644,-2.1069e+08,-1470.9,0,1.1343e+08,-71.611,11612,12607,1,12607,1,0.00067732,-1.468e-10,0,0.00089651,9.7272e-05,2.1808e+08,-47.347,0,3.0561e+08,59.308,12606,574.93,0,574.93,0,0.00068986,2.6912e-09,0,0.00034886,0.00012913,2.4252e+08,857.41,0,1.1812e+08,103,574.93,1
1988,4.16,12110,1,12110,1,8.024e-05,-1.0373e-09,0,0.00060186,-1.4675e-05,187.79,-344.97,0,2.1215e+08,-1.1162,12109,13104,1,13104,1,0.0012359,4.8808e-09,0,0.0012359,0.00020174,3.5788e+08,1487.9,0,4.3738e+08,210.88,13103,12110,1,12110,1,8.0241e-05,-3.587e-10,0,0.00059918,-1.4682e-05,2.9074e+07,-118.95,0,2.1777e+08,-4.27,12109,11091,1,11091,1,-0.0010754,-7.0364e-09,0,3.7437e-05,-0.00023094,-4.3738e+08,-2287.3,0,1.3666e+07,-216.27,11090,11613,1,11613,1,-0.00051894,-3.3454e-09,0,0.0002996,-0.00012683,-2.1107e+08,-1021.4,0,1.1368e+08,-55.725,11612,12607,1,12607,1,0.00067943,1.005e-09,0,0.00089879,9.7447e-05,2.1851e+08,292.27,0,3.061e+08,48.194,12606,574.93,0,574.93,0,0.00069161,2.9116e-09,0,0.00034979,0.00012945,2.4296e+08,919.31,0,1.1832e+08,77.837,574.93,1
1988,4.17,12110,1,12110,1,8.083e-05,-1.9134e-09,0,0.00060341,-1.4784e-05,-34.758,-606.29,0,2.1255e+08,-8.8731,12109,13104,1,13104,1,0.0012394,1.7978e-09,0,0.0012394,0.00020218,3.5827e+08,598.54,0,4.3834e+08,181.29,13103,12110,1,12110,1,8.0831e-05,-1.324e-09,0,0.00060071,-1.4791e-05,2.9279e+07,-400.32,0,2.182e+08,-5.0336,12109,11091,1,11091,1,-0.0010777,-7.0991e-09,0,3.7919e-05,-0.0002316,-4.3834e+08,-2294.6,0,1.384e+07,-185.09,11090,11613,1,11613,1,-0.00051988,-3.8193e-09,0,0.00030036,-0.00012722,-2.1145e+08,-1207.2,0,1.1393e+08,-60.896,11612,12607,1,12607,1,0.00068154,1.1322e-10,0,0.00090107,9.7622e-05,2.1894e+08,34.43,0,3.0659e+08,41.227,12606,574.93,0,574.93,0,0.00069337,2.3479e-09,0,0.00035072,0.00012978,2.434e+08,753.95,0,1.1852e+08,69.641,574.93,1
1988,4.18,12110,1,12110,1,8.1426e-05,-1.432e-09,0,0.00060498,-1.4893e-05,22.693,-459.35,0,2.1294e+08,-14.734,12109,13104,1,13104,1,0.0012429,2.0052e-09,0,0.0012429,0.00020262,3.5866e+08,649.38,0,4.393e+08,136.02,13103,12110,1,12110,1,8.1427e-05,-9.785e-10,0,0.00060224,-1.4902e-05,2.9487e+07,-301.24,0,2.1863e+08,-9.6913,12109,11091,1,11091,1,-0.0010801,-5.4538e-09,0,3.8406e-05,-0.00023226,-4.393e+08,-1794.8,0,1.4015e+07,-155.53,11090,11613,1,11613,1,-0.00052081,-2.9759e-09,0,0.00030113,-0.00012762,-2.1183e+08,-942.82,0,1.1418e+08,-59.15,11612,12607,1,12607,1,0.00068367,9.8724e-11,0,0.00090337,9.7798e-05,2.1937e+08,26.925,0,3.0709e+08,22.878,12606,574.93,0,574.93,0,0.00069514,1.8837e-09,0,0.00035165,0.00013011,2.4385e+08,607.29,0,1.1872e+08,56.686,574.93,1
1988,4.19,12110,1,12110,1,8.2028e-05,-3.1018e-10,0,0.00060655,-1.5004e-05,21.114,-110.67,0,2.1333e+08,-19.405,12109,13104,1,13104,1,0.0012465,1.6637e-09,0,0.0012465,0.00020306,3.5903e+08,554.33,0,4.4025e+08,81.558,13103,12110,1,12110,1,8.2029e-05,8.1417e-11,0,0.00060377,-1.5013e-05,2.9695e+07,26.468,0,2.1905e+08,-16.824,12109,11091,1,11091,1,-0.0010824,-2.7957e-09,0,3.8899e-05,-0.00023292,-4.4025e+08,-956.39,0,1.4192e+07,-142.22,11090,11613,1,11613,1,-0.00052174,-1.1087e-09,0,0.00030189,-0.00012801,-2.122e+08,-355.21,0,1.1442e+08,-50.969,11612,12607,1,12607,1,0.0006858,5.2014e-10,0,0.00090566,9.7972e-05,2.198e+08,137.33,0,3.0758e+08,8.4233,12606,574.93,0,574.93,0,0.0006969,1.1055e-09,0,0.00035259,0.00013044,2.4429e+08,355.39,0,1.1892e+08,42.368,574.93,1
1988,4.2,12110,1,12110,1,8.2628e-05,-3.344e-09,0,0.00060809,-1.5114e-05,30.013,-1039.7,0,2.1371e+08,-6.5147,12109,13104,1,13104,1,0.00125,5.1706e-09,0,0.00125,0.0002035,3.5941e+08,1619.7,0,4.412e+08,320.55,13103,12110,1,12110,1,8.2628e-05,-2.8463e-09,0,0.00060528,-1.5124e-05,2.9903e+07,-845.1,0,2.1947e+08,-5.0721,12109,11091,1,11091,1,-0.0010847,-1.1928e-08,0,3.9392e-05,-0.00023357,-4.412e+08,-3707.3,0,1.4369e+07,-329.47,11090,11613,1,11613,1,-0.00052265,-6.8514e-09,0,0.00030264,-0.0001284,-2.1257e+08,-2131.4,0,1.1467e+08,-98.304,11612,12607,1,12607,1,0.00068791,1.3058e-10,0,0.00090792,9.8142e-05,2.2022e+08,34.434,0,3.0806e+08,85.975,12606,574.93,0,574.93,0,0.00069864,4.0895e-09,0,0.00035351,0.00013076,2.4471e+08,1283.8,0,1.1911e+08,136.44,574.93,1
1988,4.21,12110,1,12110,1,8.3231e-05,-3.0172e-09,0,0.00060966,-1.5225e-05,169.52,-951.53,0,2.1411e+08,-44.887,12109,13104,1,13104,1,0.0012536,1.6739e-09,0,0.0012536,0.00020394,3.5979e+08,572.63,0,4.4216e+08,169.66,13103,12110,1,12110,1,8.3232e-05,-2.7532e-09,0,0.00060681,-1.5236e-05,3.0113e+07,-817.54,0,2.199e+08,-22.974,12109,11091,1,11091,1,-0.0010871,-9.0226e-09,0,3.9883e-05,-0.00023424,-4.4216e+08,-2905.4,0,1.4546e+07,-361.83,11090,11613,1,11613,1,-0.00052358,-5.4765e-09,0,0.00030341,-0.0001288,-2.1295e+08,-1719.2,0,1.1492e+08,-107.92,11612,12607,1,12607,1,0.00069005,-3.7464e-10,0,0.00091023,9.8318e-05,2.2065e+08,-106.4,0,3.0856e+08,17.211,12606,574.93,0,574.93,0,0.00070041,2.8997e-09,0,0.00035445,0.0001311,2.4515e+08,932.2,0,1.1931e+08,99.132,574.93,1
1988,4.22,12110,1,12110,1,8.3842e-05,-2.891e-09,0,0.00061123,-1.5337e-05,55.46,-915.14,0,2.145e+08,-34.66,12109,13104,1,13104,1,0.0012571,1.4775e-09,0,0.0012571,0.00020438,3.6016e+08,464.72,0,4.4311e+08,168.95,13103,12110,1,12110,1,8.3843e-05,-2.3591e-09,0,0.00060834,-1.5349e-05,3.0325e+07,-722.64,0,2.2032e+08,-22.291,12109,11091,1,11091,1,-0.0010894,-8.633e-09,0,4.0384e-05,-0.0002349,-4.4311e+08,-2792.5,0,1.4726e+07,-254.39,11090,11613,1,11613,1,-0.0005245,-4.9576e-09,0,0.00030418,-0.0001292,-2.1333e+08,-1546,0,1.1517e+08,-92.144,11612,12607,1,12607,1,0.00069219,-7.9297e-10,0,0.00091253,9.8491e-05,2.2108e+08,-225,0,3.0905e+08,18.215,12606,574.93,0,574.93,0,0.00070218,2.568e-09,0,0.00035539,0.00013142,2.4559e+08,831,0,1.1951e+08,81.582,574.93,1
1988,4.23,12110,1,12110,1,8.4457e-05,-3.4601e-09,0,0.00061279,-1.545e-05,233,-1091.3,0,2.1489e+08,-42.049,12109,13104,1,13104,1,0.0012607,1.9602e-09,0,0.0012607,0.00020482,3.6053e+08,630.86,0,4.4407e+08,245.9,13103,12110,1,12110,1,8.4457e-05,-3.028e-09,0,0.00060987,-1.5463e-05,3.0538e+07,-908.72,0,2.2074e+08,-18.676,12109,11091,1,11091,1,-0.0010918,-1.1053e-08,0,4.0889e-05,-0.00023556,-4.4407e+08,-3503.8,0,1.4907e+07,-378.77,11090,11613,1,11613,1,-0.00052542,-6.3994e-09,0,0.00030494,-0.0001296,-2.137e+08,-2011,0,1.1541e+08,-133.12,11612,12607,1,12607,1,0.00069434,-1.2258e-10,0,0.00091482,9.8663e-05,2.215e+08,-40.919,0,3.0953e+08,46.33,12606,574.93,0,574.93,0,0.00070395,3.6087e-09,0,0.00035633,0.00013175,2.4602e+08,1149.5,0,1.197e+08,123.25,574.93,1
1988,4.24,12110,1,12110,1,8.5076e-05,-1.8479e-09,0,0.00061438,-1.5563e-05,-34.696,-599.49,0,2.1528e+08,-47.084,12109,13104,1,13104,1,0.0012643,1.1074e-09,0,0.0012643,0.00020526,3.6089e+08,276.96,0,4.4502e+08,96.112,13103,12110,1,12110,1,8.5076e-05,-2.0793e-09,0,0.00061142,-1.5578e-05,3.0752e+07,-657.25,0,2.2117e+08,-29.559,12109,11091,1,11091,1,-0.0010941,-4.2617e-09,0,4.1397e-05,-0.00023623,-4.4502e+08,-1457.8,0,1.5089e+07,-250.39,11090,11613,1,11613,1,-0.00052635,-3.275e-09,0,0.00030572,-0.00013,-2.1408e+08,-1062.7,0,1.1566e+08,-83.999,11612,12607,1,12607,1,0.0006965,-4.5128e-10,0,0.00091714,9.8837e-05,2.2193e+08,-136.59,0,3.1002e+08,-1.752,12606,574.93,0,574.93,0,0.00070574,1.606e-09,0,0.00035729,0.00013209,2.4647e+08,517.78,0,1.199e+08,67.676,574.93,1
1988,4.25,12110,1,12110,1,8.5698e-05,2.9871e-10,0,0.00061593,-1.5677e-05,-52.819,69.228,0,2.1566e+08,-5.3182,12109,13104,1,13104,1,0.0012678,2.0296e-09,0,0.0012678,0.00020569,3.6124e+08,591.39,0,4.4595e+08,90.403,13103,12110,1,12110,1,8.5698e-05,3.1094e-10,0,0.00061294,-1.5693e-05,3.0967e+07,95.387,0,2.2158e+08,-5.1517,12109,11091,1,11091,1,-0.0010964,-1.8906e-09,0,4.1912e-05,-0.00023688,-4.4595e+08,-646.76,0,1.5274e+07,-160.53,11090,11613,1,11613,1,-0.00052724,-3.9398e-10,0,0.00030647,-0.0001304,-2.1444e+08,-132.23,0,1.1591e+08,-29.975,11612,12607,1,12607,1,0.00069864,1.1256e-09,0,0.00091942,9.9006e-05,2.2235e+08,318.22,0,3.1049e+08,17.2,12606,574.93,0,574.93,0,0.00070749,1.0303e-09,0,0.00035822,0.00013241,2.4689e+08,311.46,0,1.2009e+08,36.476,574.93,1
1988,4.26,12110,1,12110,1,8.6316e-05,-4.6624e-09,0,0.00061748,-1.5791e-05,-85.419,-1440.4,0,2.1604e+08,-19.333,12109,13104,1,13104,1,0.0012714,1.9817e-09,0,0.0012714,0.00020613,3.616e+08,678.71,0,4.469e+08,238.22,13103,12110,1,12110,1,8.6315e-05,-4.4563e-09,0,0.00061445,-1.5807e-05,3.1181e+07,-1319.4,0,2.2199e+08,-2.4927,12109,11091,1,11091,1,-0.0010988,-1.2099e-08,0,4.2423e-05,-0.00023755,-4.469e+08,-3741.8,0,1.5457e+07,-306.75,11090,11613,1,11613,1,-0.00052814,-7.6362e-09,0,0.00030723,-0.00013079,-2.148e+08,-2366.5,0,1.1615e+08,-78.581,11612,12607,1,12607,1,0.00070077,-1.846e-09,0,0.00092169,9.9174e-05,2.2276e+08,-524.18,0,3.1096e+08,46.076,12606,574.93,0,574.93,0,0.00070924,3.6122e-09,0,0.00035915,0.00013274,2.4731e+08,1135.7,0,1.2028e+08,103.75,574.93,1
1988,4.27,12110,1,12110,1,8.6938e-05,-4.2042e-09,0,0.00061905,-1.5905e-05,-34.138,-1320.8,0,2.1642e+08,-20.231,12109,13104,1,13104,1,0.001275,2.1313e-09,0,0.001275,0.00020657,3.6195e+08,729.94,0,4.4785e+08,312.1,13103,12110,1,12110,1,8.6938e-05,-3.4362e-09,0,0.00061598,-1.5923e-05,3.1396e+07,-1029.9,0,2.2241e+08,-10.138,12109,11091,1,11091,1,-0.0011011,-1.3472e-08,0,4.2932e-05,-0.00023821,-4.4785e+08,-4246.2,0,1.5639e+07,-311.26,11090,11613,1,11613,1,-0.00052905,-7.8995e-09,0,0.000308,-0.00013119,-2.1518e+08,-2471.9,0,1.164e+08,-118.78,11612,12607,1,12607,1,0.00070293,-2.5065e-10,0,0.000924,9.9345e-05,2.2319e+08,-77.413,0,3.1144e+08,59.813,12606,574.93,0,574.93,0,0.000711,4.2951e-09,0,0.0003601,0.00013307,2.4774e+08,1362.9,0,1.2048e+08,122.81,574.93,1
1988,4.28,12110,1,12110,1,8.757e-05,-2.9319e-09,0,0.00062063,-1.6021e-05,130.84,-937.87,0,2.1681e+08,-49.671,12109,13104,1,13104,1,0.0012786,1.6988e-09,0,0.0012786,0.000207,3.623e+08,456.2,0,4.488e+08,140.86,13103,12110,1,12110,1,8.7571e-05,-2.572e-09,0,0.00061753,-1.604e-05,3.1615e+07,-775.17,0,2.2283e+08,-30.778,12109,11091,1,11091,1,-0.0011034,-8.4939e-09,0,4.3454e-05,-0.00023888,-4.488e+08,-2797.4,0,1.5826e+07,-317.38,11090,11613,1,11613,1,-0.00052996,-5.0899e-09,0,0.00030877,-0.00013159,-2.1555e+08,-1612.9,0,1.1665e+08,-117.58,11612,12607,1,12607,1,0.00070511,-6.9425e-10,0,0.00092631,9.9516e-05,2.2361e+08,-187.19,0,3.1192e+08,15.718,12606,574.93,0,574.93,0,0.00071279,2.705e-09,0,0.00036105,0.0001334,2.4818e+08,876.39,0,1.2067e+08,89.472,574.93,1
1988,4.29,12110,1,12110,1,8.8207e-05,-3.1028e-09,0,0.00062221,-1.6138e-05,121.1,-985.45,0,2.1719e+08,-38.246,12109,13104,1,13104,1,0.0012822,1.5967e-09,0,0.0012822,0.00020744,3.6265e+08,485.14,0,4.4975e+08,161.85,13103,12110,1,12110,1,8.8207e-05,-2.77e-09,0,0.00061906,-1.6158e-05,3.1834e+07,-833.55,0,2.2325e+08,-20.563,12109,11091,1,11091,1,-0.0011058,-8.9989e-09,0,4.3981e-05,-0.00023955,-4.4975e+08,-2918,0,1.6014e+07,-305.6,11090,11613,1,11613,1,-0.00053086,-5.3321e-09,0,0.00030954,-0.000132,-2.1591e+08,-1703.3,0,1.1689e+08,-102.62,11612,12607,1,12607,1,0.00070728,-8.0712e-10,0,0.00092861,9.9685e-05,2.2403e+08,-221.42,0,3.1239e+08,27.889,12606,574.93,0,574.93,0,0.00071456,2.7848e-09,0,0.000362,0.00013373,2.486e+08,899.3,0,1.2087e+08,88.989,574.93,1
1988,4.3,12110,1,12110,1,8.8846e-05,-2.9145e-09,0,0.00062379,-1.6255e-05,126.72,-927.28,0,2.1757e+08,-41.414,12109,13104,1,13104,1,0.0012858,1.4229e-09,0,0.0012858,0.00020788,3.6299e+08,389.18,0,4.5069e+08,114.73,13103,12110,1,12110,1,8.8846e-05,-2.8614e-09,0,0.00062061,-1.6276e-05,3.2055e+07,-897.47,0,2.2367e+08,-25.321,12109,11091,1,11091,1,-0.0011081,-7.2717e-09,0,4.4135e-05,-0.00024022,-4.5069e+08,-2378,0,1.6204e+07,-291.35,11090,11613,1,11613,1,-0.00053176,-4.8382e-09,0,0.0003103,-0.0001324,-2.1628e+08,-1558.2,0,1.1714e+08,-95.446,11612,12607,1,12607,1,0.00070945,-1.0442e-09,0,0.00093091,9.9855e-05,2.2444e+08,-289.94,0,3.1287e+08,19.592,12606,574.93,0,574.93,0,0.00071634,2.3492e-09,0,0.00036295,0.00013406,2.4903e+08,762.21,0,1.2106e+08,80.752,574.93,1
1988,4.31,12110,1,12110,1,8.9487e-05,-1.4089e-09,0,0.00062535,-1.6373e-05,12.697,-463.52,0,2.1795e+08,-23.796,12109,13104,1,13104,1,0.0012894,1.0329e-09,0,0.0012894,0.00020831,3.6331e+08,246.07,0,4.5163e+08,78.126,13103,12110,1,12110,1,8.9487e-05,-1.1687e-09,0,0.00062214,-1.6395e-05,3.2276e+07,-378.2,0,2.2408e+08,-10.285,12109,11091,1,11091,1,-0.0011104,-4.6438e-09,0,4.3822e-05,-0.00024088,-4.5163e+08,-1565.5,0,1.6394e+07,-230.44,11090,11613,1,11613,1,-0.00053265,-2.7192e-09,0,0.00031106,-0.0001328,-2.1664e+08,-887.73,0,1.1738e+08,-61.356,11612,12607,1,12607,1,0.00071162,1.8876e-11,0,0.0009332,0.00010002,2.2486e+08,5.9764,0,3.1333e+08,21.002,12606,574.93,0,574.93,0,0.0007181,1.6429e-09,0,0.00036389,0.00013439,2.4945e+08,529.23,0,1.2125e+08,58.784,574.93,1
1988,4.32,12110,1,12110,1,9.0129e-05,-1.107e-09,0,0.00062692,-1.6491e-05,-8.9632,-362.45,0,2.1832e+08,-16.256,12109,13104,1,13104,1,0.0012929,1.4688e-09,0,0.0012929,0.00020874,3.6365e+08,427.01,0,4.5256e+08,88.684,13103,12110,1,12110,1,9.0129e-05,-7.6337e-10,0,0.00062367,-1.6514e-05,3.2497e+07,-236.86,0,2.2449e+08,-5.5254,12109,11091,1,11091,1,-0.0011127,-4.6002e-09,0,4.3509e-05,-0.00024155,-4.5256e+08,-1511.7,0,1.6584e+07,-195.14,11090,11613,1,11613,1,-0.00053354,-2.4588e-09,0,0.00031183,-0.00013321,-2.17e+08,-776.68,0,1.1762e+08,-53.177,11612,12607,1,12607,1,0.00071379,3.0953e-10,0,0.00093549,0.00010019,2.2527e+08,87.918,0,3.1379e+08,21.706,12606,574.93,0,574.93,0,0.00071987,1.6191e-09,0,0.00036484,0.00013472,2.4987e+08,515.7,0,1.2144e+08,52.964,574.93,1
1988,4.33,12110,1,12110,1,9.0774e-05,-2.4125e-09,0,0.00062848,-1.6609e-05,314.68,-756.92,0,2.187e+08,-24.194,12109,13104,1,13104,1,0.0012966,3.1843e-09,0,0.0012966,0.00020917,3.6398e+08,992.03,0,4.535e+08,191.04,13103,12110,1,12110,1,9.0775e-05,-2.1597e-09,0,0.0006252,-1.6634e-05,3.2719e+07,-626.06,0,2.249e+08,-12.897,12109,11091,1,11091,1,-0.001115,-8.1184e-09,0,4.3193e-05,-0.00024222,-4.535e+08,-2550,0,1.6776e+07,-231.29,11090,11613,1,11613,1,-0.00053442,-4.8763e-09,0,0.00031259,-0.00013361,-2.1736e+08,-1521.6,0,1.1787e+08,-84.363,11612,12607,1,12607,1,0.00071597,4.3601e-11,0,0.00093779,0.00010035,2.2568e+08,13.372,0,3.1425e+08,25.149,12606,574.93,0,574.93,0,0.00072163,2.8316e-09,0,0.00036579,0.00013505,2.5029e+08,892.59,0,1.2163e+08,80.244,574.93,1
1988,4.34,12110,1,12110,1,9.1423e-05,-1.3701e-09,0,0.00063006,-1.6728e-05,10.959,-442.78,0,2.1908e+08,-37.112,12109,13104,1,13104,1,0.0013002,7.6838e-10,0,0.0013002,0.00020961,3.643e+08,182.15,0,4.5444e+08,43.915,13103,12110,1,12110,1,9.1424e-05,-1.1413e-09,0,0.00062674,-1.6754e-05,3.2943e+07,-341.6,0,2.2531e+08,-18.575,12109,11091,1,11091,1,-0.0011173,-4.1261e-09,0,4.2871e-05,-0.00024289,-4.5444e+08,-1411.4,0,1.6968e+07,-205.37,11090,11613,1,11613,1,-0.00053531,-2.5211e-09,0,0.00031336,-0.00013401,-2.1772e+08,-803.98,0,1.1811e+08,-67.609,11612,12607,1,12607,1,0.00071816,-1.7343e-10,0,0.0009401,0.00010052,2.261e+08,-53.358,0,3.1472e+08,3.7068,12606,574.93,0,574.93,0,0.00072341,1.387e-09,0,0.00036674,0.00013538,2.5072e+08,452.58,0,1.2182e+08,52.836,574.93,1
1988,4.35,12110,1,12110,1,9.2086e-05,-1.4856e-09,0,0.00063164,-1.685e-05,-149.14,-471.53,0,2.1945e+08,-7.7154,12109,13104,1,13104,1,0.0013038,8.9317e-10,0,0.0013038,0.00021004,3.6462e+08,305.9,0,4.5538e+08,120.13,13103,12110,1,12110,1,9.2086e-05,-1.6023e-09,0,0.00062828,-1.6877e-05,3.3169e+07,-489.16,0,2.2572e+08,-4.6401,12109,11091,1,11091,1,-0.0011196,-3.7755e-09,0,4.254e-05,-0.00024356,-4.5538e+08,-1194,0,1.7165e+07,-167.39,11090,11613,1,11613,1,-0.00053619,-2.4175e-09,0,0.00031413,-0.00013442,-2.1808e+08,-777.32,0,1.1835e+08,-44.046,11612,12607,1,12607,1,0.00072036,-4.8325e-10,0,0.00094241,0.00010069,2.2651e+08,-144.72,0,3.1518e+08,29.12,12606,574.93,0,574.93,0,0.00072518,1.1728e-09,0,0.0003677,0.00013571,2.5113e+08,379.87,0,1.2201e+08,55.445,574.93,1
1988,4.36,12110,1,12110,1,9.279e-05,-2.4022e-09,0,0.00063322,-1.6979e-05,54.923,-751.39,0,2.1981e+08,11.099,12109,13104,1,13104,1,0.0013075,3.7357e-09,0,0.0013075,0.00021047,3.6492e+08,1133.5,0,4.5631e+08,185.58,13103,12110,1,12110,1,9.279e-05,-2.0364e-09,0,0.00062982,-1.7006e-05,3.3402e+07,-604.06,0,2.2611e+08,6.1704,12109,11091,1,11091,1,-0.0011219,-8.5181e-09,0,4.2167e-05,-0.00024425,-4.5631e+08,-2654.8,0,1.7148e+07,-175.76,11090,11613,1,11613,1,-0.00053702,-4.9647e-09,0,0.0003149,-0.00013484,-2.1842e+08,-1554,0,1.1858e+08,-49.863,11612,12607,1,12607,1,0.00072261,1.3991e-10,0,0.00094472,0.00010084,2.269e+08,36.153,0,3.1561e+08,71.701,12606,574.93,0,574.93,0,0.00072696,3.0222e-09,0,0.00036866,0.00013604,2.5154e+08,944.56,0,1.2219e+08,80.873,574.93,1
1988,4.37,12110,1,12110,1,9.3506e-05,-9.5139e-10,0,0.00063482,-1.711e-05,-27.762,-314.14,0,2.2017e+08,-10.5,12109,13104,1,13104,1,0.0013112,4.9681e-09,0,0.0013112,0.00021089,3.6521e+08,1532.9,0,4.5723e+08,123.8,13103,12110,1,12110,1,9.3507e-05,-4.4924e-10,0,0.00063138,-1.7138e-05,3.3639e+07,-136.21,0,2.265e+08,0.82497,12109,11091,1,11091,1,-0.0011242,-6.0763e-09,0,4.1782e-05,-0.00024493,-4.5723e+08,-1928.7,0,1.6993e+07,-184.84,11090,11613,1,11613,1,-0.00053786,-3.0277e-09,0,0.00031568,-0.00013526,-2.1876e+08,-937.6,0,1.1881e+08,-64.083,11612,12607,1,12607,1,0.00072488,8.1574e-10,0,0.00094705,0.000101,2.2729e+08,220.71,0,3.1605e+08,47.679,12606,574.93,0,574.93,0,0.00072876,2.5815e-09,0,0.00036964,0.00013638,2.5194e+08,812.68,0,1.2238e+08,70.259,574.93,1
1988,4.38,12110,1,12110,1,9.4233e-05,-1.3263e-09,0,0.00063644,-1.7243e-05,-329.73,-423.05,0,2.2053e+08,-16.47,12109,13104,1,13104,1,0.001315,2.0006e-09,0,0.001315,0.00021133,3.655e+08,684.71,0,4.5817e+08,131.6,13103,12110,1,12110,1,9.4235e-05,-9.7255e-10,0,0.00063295,-1.7273e-05,3.3878e+07,-284.1,0,2.2689e+08,-4.6273,12109,11091,1,11091,1,-0.0011265,-5.3485e-09,0,4.1393e-05,-0.00024563,-4.5817e+08,-1685,0,1.6835e+07,-199.3,11090,11613,1,11613,1,-0.00053871,-2.7596e-09,0,0.00031647,-0.00013569,-2.191e+08,-874.56,0,1.1904e+08,-72.953,11612,12607,1,12607,1,0.00072718,1.7588e-10,0,0.00094941,0.00010116,2.2769e+08,46.434,0,3.1649e+08,41.147,12606,574.93,0,574.93,0,0.00073057,1.8015e-09,0,0.00037062,0.00013671,2.5235e+08,577.07,0,1.2257e+08,76.044,574.93,1
1988,4.39,12110,1,12110,1,9.4971e-05,3.8974e-10,0,0.00063805,-1.7378e-05,71.244,98.703,0,2.2088e+08,-27.742,12109,13104,1,13104,1,0.0013187,3.4496e-09,0,0.0013187,0.00021175,3.6577e+08,1067.4,0,4.5909e+08,80.929,13103,12110,1,12110,1,9.4972e-05,4.9608e-10,0,0.00063451,-1.7408e-05,3.4121e+07,136.93,0,2.2728e+08,-17.593,12109,11091,1,11091,1,-0.0011287,-2.1968e-09,0,4.099e-05,-0.00024632,-4.5909e+08,-736.82,0,1.6673e+07,-155.29,11090,11613,1,11613,1,-0.00053954,-4.1396e-10,0,0.00031725,-0.00013611,-2.1944e+08,-134.96,0,1.1927e+08,-63.428,11612,12607,1,12607,1,0.00072948,1.2393e-09,0,0.00095176,0.00010132,2.2808e+08,337.39,0,3.1692e+08,7.28,12606,574.93,0,574.93,0,0.00073238,1.1953e-09,0,0.0003716,0.00013705,2.5275e+08,373.72,0,1.2275e+08,50.808,574.93,1
1988,4.4,12110,1,12110,1,9.5713e-05,-2.3559e-09,0,0.00063968,-1.7514e-05,125.78,-724.98,0,2.2124e+08,-46.736,12109,13104,1,13104,1,0.0013225,8.6411e-10,0,0.0013225,0.00021219,3.6605e+08,295.95,0,4.6004e+08,63.037,13103,12110,1,12110,1,9.5713e-05,-2.676e-09,0,0.00063609,-1.7545e-05,3.4365e+07,-800.85,0,2.2767e+08,-31.452,12109,11091,1,11091,1,-0.0011311,-5.0223e-09,0,4.059e-05,-0.00024703,-4.6004e+08,-1565,0,1.6511e+07,-279.25,11090,11613,1,11613,1,-0.00054037,-3.6247e-09,0,0.00031804,-0.00013654,-2.1978e+08,-1140.6,0,1.195e+08,-78.854,11612,12607,1,12607,1,0.0007318,-1.1094e-09,0,0.00095413,0.00010148,2.2847e+08,-326.99,0,3.1736e+08,-0.0049978,12606,574.93,0,574.93,0,0.00073421,1.5743e-09,0,0.0003726,0.00013739,2.5315e+08,496.53,0,1.2294e+08,67.642,574.93,1
1988,4.41,12110,1,12110,1,9.646e-05,-6.374e-10,0,0.00064129,-1.765e-05,-152.36,-214.62,0,2.216e+08,-4.008,12109,13104,1,13104,1,0.0013263,2.0633e-09,0,0.0013263,0.00021262,3.6631e+08,582.11,0,4.6096e+08,146.06,13103,12110,1,12110,1,9.646e-05,-4.9931e-10,0,0.00063766,-1.7682e-05,3.461e+07,-151.22,0,2.2806e+08,0.0042664,12109,11091,1,11091,1,-0.0011333,-3.1804e-09,0,4.0177e-05,-0.00024773,-4.6096e+08,-1011.9,0,1.6344e+07,-161.51,11090,11613,1,11613,1,-0.0005412,-1.6177e-09,0,0.00031883,-0.00013697,-2.2012e+08,-519.01,0,1.1973e+08,-47.116,11612,12607,1,12607,1,0.00073412,4.288e-10,0,0.00095649,0.00010163,2.2886e+08,115.84,0,3.1779e+08,37.622,12606,574.93,0,574.93,0,0.00073602,1.2683e-09,0,0.00037359,0.00013773,2.5355e+08,397.56,0,1.2312e+08,55.309,574.93,1
1988,4.42,12110,1,12110,1,9.7207e-05,-1.5301e-09,0,0.00064289,-1.7787e-05,-41.743,-482.18,0,2.2194e+08,12.269,12109,13104,1,13104,1,0.00133,4.4696e-09,0,0.00133,0.00021304,3.6657e+08,1347.1,0,4.6188e+08,242.72,13103,12110,1,12110,1,9.7207e-05,-1.3227e-09,0,0.00063921,-1.782e-05,3.4855e+07,-396.23,0,2.2844e+08,15.941,12109,11091,1,11091,1,-0.0011356,-6.1804e-09,0,3.9762e-05,-0.00024843,-4.6188e+08,-1922.7,0,1.6177e+07,-170.89,11090,11613,1,11613,1,-0.000542,-3.5244e-09,0,0.0003196,-0.0001374,-2.2044e+08,-1100.5,0,1.1996e+08,-47.782,11612,12607,1,12607,1,0.00073642,3.0086e-10,0,0.00095881,0.00010179,2.2924e+08,73.228,0,3.182e+08,62.102,12606,574.93,0,574.93,0,0.00073781,2.3672e-09,0,0.00037456,0.00013806,2.5394e+08,736.46,0,1.233e+08,81.111,574.93,1
1988,4.43,12110,1,12110,1,9.7955e-05,-4.8512e-10,0,0.0006445,-1.7924e-05,20.558,-167.35,0,2.2229e+08,-9.6292,12109,13104,1,13104,1,0.0013338,2.865e-09,0,0.0013338,0.00021347,3.6682e+08,882.2,0,4.628e+08,114.62,13103,12110,1,12110,1,9.7956e-05,-8.0259e-11,0,0.00064078,-1.7958e-05,3.51e+07,-25.58,0,2.2883e+08,-3.7213,12109,11091,1,11091,1,-0.0011378,-3.9697e-09,0,3.9349e-05,-0.00024912,-4.628e+08,-1269.7,0,1.6011e+07,-150.35,11090,11613,1,11613,1,-0.00054282,-1.7695e-09,0,0.00032038,-0.00013783,-2.2078e+08,-551.39,0,1.2019e+08,-56.375,11612,12607,1,12607,1,0.00073873,6.8903e-10,0,0.00096116,0.00010194,2.2962e+08,184.59,0,3.1863e+08,39.551,12606,574.93,0,574.93,0,0.00073961,1.6361e-09,0,0.00037555,0.0001384,2.5433e+08,514.56,0,1.2348e+08,62.954,574.93,1
1988,4.44,12110,1,12110,1,9.8712e-05,-3.2447e-09,0,0.00064612,-1.8062e-05,12.444,-998.84,0,2.2264e+08,-48.902,12109,13104,1,13104,1,0.0013376,7.8568e-10,0,0.0013376,0.0002139,3.6709e+08,269.09,0,4.6373e+08,113.19,13103,12110,1,12110,1,9.8711e-05,-3.5855e-09,0,0.00064235,-1.8097e-05,3.5348e+07,-1092,0,2.2921e+08,-28.263,12109,11091,1,11091,1,-0.0011401,-8.0838e-09,0,3.8932e-05,-0.00024983,-4.6373e+08,-2434.8,0,1.5842e+07,-339.47,11090,11613,1,11613,1,-0.00054364,-4.867e-09,0,0.00032117,-0.00013826,-2.2111e+08,-1551.5,0,1.2041e+08,-97.413,11612,12607,1,12607,1,0.00074106,-1.5743e-09,0,0.00096352,0.00010209,2.3001e+08,-469.46,0,3.1905e+08,17.188,12606,574.93,0,574.93,0,0.00074144,2.0331e-09,0,0.00037655,0.00013874,2.5473e+08,641.05,0,1.2366e+08,89.365,574.93,1
1988,4.45,12110,1,12110,1,9.9475e-05,-2.7277e-09,0,0.00064774,-1.8202e-05,299.53,-854.28,0,2.2299e+08,-46.766,12109,13104,1,13104,1,0.0013414,1.4613e-09,0,0.0013414,0.00021432,3.6734e+08,500.47,0,4.6465e+08,191.9,13103,12110,1,12110,1,9.9473e-05,-3.0157e-09,0,0.00064392,-1.8238e-05,3.5597e+07,-921.31,0,2.2959e+08,-32.461,12109,11091,1,11091,1,-0.0011424,-6.4952e-09,0,3.8503e-05,-0.00025053,-4.6465e+08,-2015.7,0,1.567e+07,-365.97,11090,11613,1,11613,1,-0.00054444,-4.1906e-09,0,0.00032195,-0.00013869,-2.2143e+08,-1338.5,0,1.2064e+08,-119.35,11612,12607,1,12607,1,0.00074339,-1.1222e-09,0,0.00096587,0.00010225,2.3039e+08,-309.77,0,3.1947e+08,40.152,12606,574.93,0,574.93,0,0.00074324,1.9183e-09,0,0.00037754,0.00013907,2.5512e+08,617.14,0,1.2384e+08,111.77,574.93,1
1988,4.46,12110,1,12110,1,0.00010024,-1.0805e-09,0,0.00064936,-1.8341e-05,41.691,-360.8,0,2.2334e+08,3.9995,12109,13104,1,13104,1,0.0013452,1.2436e-09,0,0.0013452,0.00021475,3.6758e+08,307.6,0,4.6557e+08,137.11,13103,12110,1,12110,1,0.00010024,-1.075e-09,0,0.0006455,-1.8378e-05,3.5847e+07,-352.65,0,2.2997e+08,2.7607,12109,11091,1,11091,1,-0.0011447,-3.7129e-09,0,3.8075e-05,-0.00025124,-4.6557e+08,-1231.2,0,1.5497e+07,-92.357,11090,11613,1,11613,1,-0.00054525,-2.0885e-09,0,0.00032274,-0.00013912,-2.2176e+08,-677.91,0,1.2087e+08,-25.41,11612,12607,1,12607,1,0.00074573,1.1439e-10,0,0.00096823,0.0001024,2.3077e+08,32.836,0,3.1989e+08,28.537,12606,574.93,0,574.93,0,0.00074506,1.3049e-09,0,0.00037854,0.00013941,2.5551e+08,415.32,0,1.2402e+08,38.352,574.93,1
1988,4.47,12110,1,12110,1,0.000101,-4.1144e-10,0,0.00065093,-1.8481e-05,77.768,-147.15,0,2.2367e+08,55.592,12109,13104,1,13104,1,0.0013489,8.9833e-09,0,0.0013489,0.00021516,3.678e+08,2703.9,0,4.6646e+08,410.95,13103,12110,1,12110,1,0.00010101,-6.1638e-10,0,0.00064703,-1.8519e-05,3.6096e+07,-185.8,0,2.3034e+08,57.771,12109,11091,1,11091,1,-0.0011468,-8.5508e-09,0,3.7639e-05,-0.00025192,-4.6646e+08,-2604.7,0,1.5322e+07,-323.92,11090,11613,1,11613,1,-0.00054602,-2.7518e-09,0,0.00032351,-0.00013955,-2.2208e+08,-853.68,0,1.2108e+08,-28.96,11612,12607,1,12607,1,0.00074803,1.8804e-09,0,0.00097053,0.00010255,2.3114e+08,542.45,0,3.2028e+08,141.67,12606,574.93,0,574.93,0,0.00074683,3.6408e-09,0,0.00037951,0.00013974,2.5589e+08,1107.4,0,1.2419e+08,117.84,574.93,1
1988,4.48,12110,1,12110,1,0.00010177,1.1393e-09,0,0.00065258,-1.8622e-05,-34.844,336.54,0,2.2403e+08,-24.887,12109,13104,1,13104,1,0.0013527,3.5713e-09,0,0.0013527,0.00021559,3.6807e+08,1149.2,0,4.674e+08,90.013,13103,12110,1,12110,1,0.00010177,1.1613e-09,0,0.00064863,-1.8661e-05,3.6347e+07,319.6,0,2.3073e+08,-15.42,12109,11091,1,11091,1,-0.0011492,-1.1194e-09,0,3.7214e-05,-0.00025264,-4.674e+08,-383.21,0,1.5151e+07,-212.31,11090,11613,1,11613,1,-0.00054685,1.1532e-10,0,0.00032431,-0.00013998,-2.2242e+08,31.274,0,1.2131e+08,-54.058,11612,12607,1,12607,1,0.0007504,2.0628e-09,0,0.00097294,0.0001027,2.3153e+08,611.96,0,3.2071e+08,13.702,12606,574.93,0,574.93,0,0.00074868,1.1896e-09,0,0.00038053,0.00014009,2.5629e+08,373.14,0,1.2438e+08,55.721,574.93,1
1988,4.49,12110,1,12110,1,0.00010256,4.81e-10,0,0.00065418,-1.8765e-05,123.82,150.35,0,2.2436e+08,-6.0303,12109,13104,1,13104,1,0.0013565,6.8582e-09,0,0.0013565,0.00021601,3.6828e+08,2090.8,0,4.683e+08,280.89,13103,12110,1,12110,1,0.00010256,-5.0647e-11,0,0.00065018,-1.8805e-05,3.66e+07,-14.033,0,2.311e+08,-12.218,12109,11091,1,11091,1,-0.0011514,-4.7864e-09,0,3.6767e-05,-0.00025334,-4.683e+08,-1455.5,0,1.4971e+07,-219.58,11090,11613,1,11613,1,-0.00054762,-1.1417e-09,0,0.00032509,-0.00014042,-2.2273e+08,-336.02,0,1.2153e+08,-62.663,11612,12607,1,12607,1,0.00075273,2.1966e-09,0,0.00097526,0.00010285,2.319e+08,657.05,0,3.211e+08,46.446,12606,574.93,0,574.93,0,0.00075046,2.5177e-09,0,0.00038151,0.00014042,2.5666e+08,778.68,0,1.2455e+08,81.404,574.93,1
1988,4.5,12110,1,12110,1,0.00010333,-1.2994e-09,0,0.00065581,-1.8908e-05,-124.37,-384.32,0,2.2471e+08,-6.4808,12109,13104,1,13104,1,0.0013603,4.0776e-09,0,0.0013603,0.00021644,3.6852e+08,1285.1,0,4.6923e+08,231.74,13103,12110,1,12110,1,0.00010333,-1.1726e-09,0,0.00065176,-1.8949e-05,3.6854e+07,-335.56,0,2.3148e+08,-16.383,12109,11091,1,11091,1,-0.0011536,-5.4689e-09,0,3.6325e-05,-0.00025405,-4.6923e+08,-1683.9,0,1.4794e+07,-164.7,11090,11613,1,11613,1,-0.00054842,-3.0447e-09,0,0.00032588,-0.00014085,-2.2305e+08,-909.45,0,1.2176e+08,-65.394,11612,12607,1,12607,1,0.00075509,2.5331e-10,0,0.00097764,0.000103,2.3228e+08,77.908,0,3.2152e+08,37.417,12606,574.93,0,574.93,0,0.00075229,2.0972e-09,0,0.00038252,0.00014076,2.5705e+08,650.67,0,1.2474e+08,78.991,574.93,1
1988,4.51,12110,1,12110,1,0.00010412,3.1844e-09,0,0.00065741,-1.9051e-05,21.882,959.77,0,2.2504e+08,58.936,12109,13104,1,13104,1,0.0013641,1.2242e-08,0,0.0013641,0.00021686,3.6874e+08,3725.4,0,4.7014e+08,606.5,13103,12110,1,12110,1,0.00010412,2.6286e-09,0,0.00065331,-1.9093e-05,3.7108e+07,732.39,0,2.3184e+08,31.305,12109,11091,1,11091,1,-0.0011559,-4.7902e-09,0,3.587e-05,-0.00025475,-4.7014e+08,-1479.2,0,1.4612e+07,-350.07,11090,11613,1,11613,1,-0.00054919,-3.312e-10,0,0.00032666,-0.00014129,-2.2337e+08,-97.211,0,1.2198e+08,-64.565,11612,12607,1,12607,1,0.00075744,6.7218e-09,0,0.00097997,0.00010314,2.3264e+08,2020.1,0,3.2191e+08,175.86,12606,574.93,0,574.93,0,0.00075408,4.1169e-09,0,0.00038351,0.00014109,2.5743e+08,1267.8,0,1.2491e+08,172.08,574.93,1
1988,4.52,12110,1,12110,1,0.00010491,8.451e-10,0,0.00065905,-1.9196e-05,-64.029,281.56,0,2.2538e+08,-27.382,12109,13104,1,13104,1,0.001368,3.7306e-09,0,0.001368,0.00021728,3.6897e+08,1276,0,4.7105e+08,162.67,13103,12110,1,12110,1,0.00010491,5.2881e-10,0,0.00065491,-1.9239e-05,3.7365e+07,153.4,0,2.3222e+08,-13.32,12109,11091,1,11091,1,-0.0011581,-1.4911e-09,0,3.542e-05,-0.00025547,-4.7105e+08,-510.27,0,1.4431e+07,-225.3,11090,11613,1,11613,1,-0.00054999,-2.6483e-10,0,0.00032745,-0.00014173,-2.2369e+08,-77.401,0,1.222e+08,-72.733,11612,12607,1,12607,1,0.00075982,1.9506e-09,0,0.00098235,0.0001033,2.3302e+08,620.77,0,3.2232e+08,28.036,12606,574.93,0,574.93,0,0.00075592,1.3783e-09,0,0.00038453,0.00014144,2.5782e+08,446.39,0,1.2509e+08,80.131,574.93,1
1988,4.53,12110,1,12110,1,0.00010571,3.0369e-09,0,0.00066068,-1.9343e-05,26.987,938.88,0,2.2572e+08,4.9294,12109,13104,1,13104,1,0.0013718,7.7955e-09,0,0.0013718,0.0002177,3.6919e+08,2590.3,0,4.7197e+08,357.25,13103,12110,1,12110,1,0.00010571,2.7719e-09,0,0.00065649,-1.9387e-05,3.7624e+07,815.91,0,2.3259e+08,6.5617,12109,11091,1,11091,1,-0.0011604,-1.1527e-09,0,3.4958e-05,-0.00025619,-4.7197e+08,-316.55,0,1.4246e+07,-205.67,11090,11613,1,11613,1,-0.00055077,7.3662e-10,0,0.00032824,-0.00014217,-2.2401e+08,192.13,0,1.2243e+08,-56.488,11612,12607,1,12607,1,0.0007622,5.2742e-09,0,0.00098473,0.00010344,2.3339e+08,1630.5,0,3.2272e+08,59.109,12606,574.93,0,574.93,0,0.00075775,2.5182e-09,0,0.00038554,0.00014178,2.582e+08,804.81,0,1.2527e+08,92.687,574.93,1
1988,4.54,12110,1,12110,1,0.00010651,1.4934e-09,0,0.00066228,-1.9489e-05,433.64,488.38,0,2.2604e+08,50.781,12109,13104,1,13104,1,0.0013756,1.0688e-08,0,0.0013756,0.00021812,3.6938e+08,3293.2,0,4.7286e+08,537.3,13103,12110,1,12110,1,0.00010651,8.7261e-10,0,0.00065804,-1.9534e-05,3.7883e+07,256.58,0,2.3295e+08,35.705,12109,11091,1,11091,1,-0.0011626,-7.6475e-09,0,3.4487e-05,-0.00025689,-4.7286e+08,-2268.1,0,1.4058e+07,-289.1,11090,11613,1,11613,1,-0.00055152,-1.1711e-09,0,0.00032901,-0.0001426,-2.2431e+08,-316.61,0,1.2264e+08,-69.95,11612,12607,1,12607,1,0.00076455,4.6207e-09,0,0.00098705,0.00010359,2.3375e+08,1407.6,0,3.231e+08,161.57,12606,574.93,0,574.93,0,0.00075953,3.8154e-09,0,0.00038653,0.00014211,2.5857e+08,1179.7,0,1.2544e+08,160.21,574.93,1
1988,4.55,12110,1,12110,1,0.00010731,1.9819e-09,0,0.00066393,-1.9636e-05,-105.87,632.91,0,2.2639e+08,-28.416,12109,13104,1,13104,1,0.0013795,5.7621e-09,0,0.0013795,0.00021854,3.696e+08,1970.6,0,4.7379e+08,281.1,13103,12110,1,12110,1,0.00010732,1.7547e-09,0,0.00065964,-1.9682e-05,3.8142e+07,526.39,0,2.3333e+08,-24.068,12109,11091,1,11091,1,-0.0011649,-1.3564e-09,0,3.4027e-05,-0.00025761,-4.7379e+08,-314.33,0,1.3874e+07,-262.64,11090,11613,1,11613,1,-0.00055232,3.8146e-10,0,0.00032981,-0.00014305,-2.2464e+08,101.08,0,1.2287e+08,-92.247,11612,12607,1,12607,1,0.00076695,3.6451e-09,0,0.00098945,0.00010374,2.3413e+08,1160.9,0,3.2351e+08,43.242,12606,574.93,0,574.93,0,0.00076138,1.9174e-09,0,0.00038755,0.00014245,2.5896e+08,621.68,0,1.2562e+08,100.88,574.93,1
1988,4.56,12110,1,12110,1,0.00010813,-7.8864e-10,0,0.00066557,-1.9786e-05,-143.18,-201.86,0,2.2672e+08,0.81107,12109,13104,1,13104,1,0.0013834,2.6292e-09,0,0.0013834,0.00021896,3.6981e+08,899.72,0,4.7469e+08,200.82,13103,12110,1,12110,1,0.00010813,-7.5833e-10,0,0.00066123,-1.9833e-05,3.8405e+07,-206.78,0,2.337e+08,-10.795,12109,11091,1,11091,1,-0.0011671,-3.6605e-09,0,3.355e-05,-0.00025832,-4.7469e+08,-1064.6,0,1.3683e+07,-121.59,11090,11613,1,11613,1,-0.00055309,-2.1627e-09,0,0.00033061,-0.00014349,-2.2495e+08,-608.4,0,1.2309e+08,-48.969,11612,12607,1,12607,1,0.00076936,4.4814e-10,0,0.00099183,0.00010388,2.345e+08,147.65,0,3.239e+08,41.81,12606,574.93,0,574.93,0,0.00076322,1.6352e-09,0,0.00038858,0.00014279,2.5933e+08,485.37,0,1.2579e+08,68.545,574.93,1
1988,4.57,12110,1,12110,1,0.00010895,8.7783e-10,0,0.00066721,-1.9936e-05,-90.214,276.66,0,2.2706e+08,4.2481,12109,13104,1,13104,1,0.0013873,2.7332e-09,0,0.0013873,0.00021938,3.7e+08,934.69,0,4.7561e+08,135.67,13103,12110,1,12110,1,0.00010896,7.8167e-10,0,0.00066281,-1.9984e-05,3.8669e+07,231.76,0,2.3407e+08,3.6023,12109,11091,1,11091,1,-0.0011693,-6.5871e-10,0,3.3073e-05,-0.00025904,-4.7561e+08,-201.85,0,1.3493e+07,-136.71,11090,11613,1,11613,1,-0.00055385,4.0133e-11,0,0.0003314,-0.00014394,-2.2526e+08,10.225,0,1.2331e+08,-34.151,11612,12607,1,12607,1,0.00077177,1.6769e-09,0,0.00099421,0.00010403,2.3487e+08,527.26,0,3.2429e+08,52.262,12606,574.93,0,574.93,0,0.00076505,9.2735e-10,0,0.0003896,0.00014314,2.5971e+08,297.89,0,1.2597e+08,60.244,574.93,1
1988,4.58,12110,1,12110,1,0.00010978,6.7999e-10,0,0.00066885,-2.0087e-05,35.551,218.85,0,2.2739e+08,-10.562,12109,13104,1,13104,1,0.0013911,2.2734e-09,0,0.0013911,0.0002198,3.702e+08,750.71,0,4.7651e+08,157.57,13103,12110,1,12110,1,0.00010978,6.5879e-10,0,0.0006644,-2.0136e-05,3.8934e+07,197.91,0,2.3443e+08,-14.186,12109,11091,1,11091,1,-0.0011716,-1.1111e-09,0,3.2588e-05,-0.00025976,-4.7651e+08,-287.57,0,1.33e+07,-124.36,11090,11613,1,11613,1,-0.00055461,-6.5617e-11,0,0.0003322,-0.00014439,-2.2557e+08,-17.598,0,1.2353e+08,-48.081,11612,12607,1,12607,1,0.00077418,1.4128e-09,0,0.00099659,0.00010417,2.3523e+08,442.01,0,3.2468e+08,24.439,12606,574.93,0,574.93,0,0.00076688,8.6601e-10,0,0.00039062,0.00014348,2.6008e+08,269.25,0,1.2614e+08,60.107,574.93,1
1988,4.59,12110,1,12110,1,0.00011061,1.5242e-09,0,0.00067046,-2.0238e-05,275.64,473.38,0,2.2771e+08,64.94,12109,13104,1,13104,1,0.001395,6.7946e-09,0,0.001395,0.00022022,3.7038e+08,2027.8,0,4.7741e+08,432.95,13103,12110,1,12110,1,0.00011061,1.2448e-09,0,0.00066596,-2.0288e-05,3.9199e+07,380.74,0,2.3479e+08,37.765,12109,11091,1,11091,1,-0.0011738,-3.4087e-09,0,3.2098e-05,-0.00026048,-4.7741e+08,-963.85,0,1.3105e+07,-156.62,11090,11613,1,11613,1,-0.00055535,-3.5573e-10,0,0.00033298,-0.00014483,-2.2587e+08,-102.27,0,1.2374e+08,-22.187,11612,12607,1,12607,1,0.00077657,3.3607e-09,0,0.00099894,0.00010431,2.3559e+08,1038.7,0,3.2505e+08,137.56,12606,574.93,0,574.93,0,0.00076868,2.2503e-09,0,0.00039163,0.00014381,2.6045e+08,683.73,0,1.2631e+08,115.19,574.93,1
1988,4.6,12110,1,12110,1,0.00011143,-1.6397e-09,0,0.0006721,-2.0389e-05,84.188,-467.9,0,2.2804e+08,-18.33,12109,13104,1,13104,1,0.0013989,1.0792e-09,0,0.0013989,0.00022064,3.7058e+08,369.59,0,4.7832e+08,302.62,13103,12110,1,12110,1,0.00011143,-1.6285e-09,0,0.00066755,-2.0441e-05,3.9464e+07,-480.19,0,2.3515e+08,-19.244,12109,11091,1,11091,1,-0.001176,-4.1416e-09,0,3.1609e-05,-0.00026119,-4.7832e+08,-1161.3,0,1.2911e+07,-167.09,11090,11613,1,11613,1,-0.00055612,-2.8405e-09,0,0.00033378,-0.00014527,-2.2618e+08,-812.44,0,1.2396e+08,-73.665,11612,12607,1,12607,1,0.00077898,-4.1766e-10,0,0.0010013,0.00010446,2.3595e+08,-131.07,0,3.2544e+08,13.566,12606,574.93,0,574.93,0,0.00077052,1.4299e-09,0,0.00039265,0.00014415,2.6082e+08,406.89,0,1.2649e+08,81.028,574.93,1
1988,4.61,12110,1,12110,1,0.00011227,-1.5517e-09,0,0.00067373,-2.0542e-05,7.4568,-465.74,0,2.2836e+08,38.937,12109,13104,1,13104,1,0.0014028,4.2394e-09,0,0.0014028,0.00022105,3.7076e+08,1254.5,0,4.7922e+08,257.91,13103,12110,1,12110,1,0.00011227,-1.1128e-09,0,0.00066913,-2.0594e-05,3.9732e+07,-308.07,0,2.3551e+08,37.249,12109,11091,1,11091,1,-0.0011782,-7.0634e-09,0,3.1115e-05,-0.00026192,-4.7922e+08,-2137.9,0,1.2715e+07,-182.65,11090,11613,1,11613,1,-0.00055686,-3.7017e-09,0,0.00033457,-0.00014572,-2.2648e+08,-1100.1,0,1.2418e+08,-26.077,11612,12607,1,12607,1,0.0007814,3.3946e-10,0,0.0010037,0.0001046,2.3631e+08,103.29,0,3.2581e+08,101.71,12606,574.93,0,574.93,0,0.00077234,2.6152e-09,0,0.00039368,0.00014449,2.6119e+08,787.59,0,1.2666e+08,86.141,574.93,1
1988,4.62,12110,1,12110,1,0.00011311,1.1585e-09,0,0.00067536,-2.0696e-05,37.986,333.7,0,2.2868e+08,26.708,12109,13104,1,13104,1,0.0014066,5.4015e-09,0,0.0014066,0.00022146,3.7093e+08,1615.7,0,4.8011e+08,270.23,13103,12110,1,12110,1,0.00011311,1.012e-09,0,0.0006707,-2.0749e-05,4e+07,293.2,0,2.3587e+08,16.838,12109,11091,1,11091,1,-0.0011804,-2.6612e-09,0,3.0612e-05,-0.00026263,-4.8011e+08,-832.28,0,1.2515e+07,-153.78,11090,11613,1,11613,1,-0.0005576,-3.0264e-10,0,0.00033535,-0.00014617,-2.2678e+08,-86.889,0,1.2439e+08,-28.2,11612,12607,1,12607,1,0.00078381,2.5332e-09,0,0.0010061,0.00010474,2.3666e+08,729.85,0,3.2618e+08,79.3,12606,574.93,0,574.93,0,0.00077416,1.7987e-09,0,0.00039469,0.00014483,2.6155e+08,548.71,0,1.2683e+08,81.314,574.93,1
1988,4.63,12110,1,12110,1,0.00011395,-1.9299e-09,0,0.00067699,-2.085e-05,41.304,-570.54,0,2.2901e+08,8.6955,12109,13104,1,13104,1,0.0014105,2.7039e-09,0,0.0014105,0.00022188,3.711e+08,821.67,0,4.8101e+08,234.2,13103,12110,1,12110,1,0.00011395,-1.5481e-09,0,0.00067229,-2.0904e-05,4.0268e+07,-455.73,0,2.3622e+08,9.7575,12109,11091,1,11091,1,-0.0011826,-7.3915e-09,0,3.0111e-05,-0.00026336,-4.8101e+08,-2221.3,0,1.2317e+07,-179.62,11090,11613,1,11613,1,-0.00055834,-3.9487e-09,0,0.00033614,-0.00014662,-2.2708e+08,-1156.5,0,1.2461e+08,-68.984,11612,12607,1,12607,1,0.00078624,1.9765e-10,0,0.0010084,0.00010488,2.3702e+08,52.325,0,3.2656e+08,77.647,12606,574.93,0,574.93,0,0.00077598,2.5061e-09,0,0.00039572,0.00014517,2.6191e+08,755.86,0,1.27e+08,90.219,574.93,1
1988,4.64,12110,1,12110,1,0.0001148,-1.0692e-10,0,0.00067864,-2.1005e-05,-3.5926,-49.07,0,2.2933e+08,-5.9246,12109,13104,1,13104,1,0.0014145,2.7863e-09,0,0.0014145,0.0002223,3.7127e+08,827.24,0,4.8192e+08,194.07,13103,12110,1,12110,1,0.0001148,2.0575e-10,0,0.00067389,-2.106e-05,4.054e+07,58.067,0,2.3658e+08,0.47519,12109,11091,1,11091,1,-0.0011848,-2.9921e-09,0,2.9601e-05,-0.00026408,-4.8192e+08,-916.23,0,1.2116e+07,-157.63,11090,11613,1,11613,1,-0.00055908,-1.0598e-09,0,0.00033694,-0.00014707,-2.2739e+08,-321.03,0,1.2483e+08,-56.436,11612,12607,1,12607,1,0.00078868,7.3117e-10,0,0.0010108,0.00010502,2.3738e+08,192.24,0,3.2694e+08,43.882,12606,574.93,0,574.93,0,0.00077783,1.2573e-09,0,0.00039676,0.00014551,2.6228e+08,390.56,0,1.2717e+08,67.863,574.93,1
1988,4.65,12110,1,12110,1,0.00011566,-1.9909e-09,0,0.00068029,-2.1163e-05,85.726,-611.38,0,2.2965e+08,-37.183,12109,13104,1,13104,1,0.0014184,7.8977e-10,0,0.0014184,0.00022272,3.7144e+08,270.48,0,4.8282e+08,233.44,13103,12110,1,12110,1,0.00011566,-2.1876e-09,0,0.00067548,-2.1219e-05,4.0813e+07,-655.37,0,2.3694e+08,-22.919,12109,11091,1,11091,1,-0.0011871,-4.4231e-09,0,2.9083e-05,-0.00026482,-4.8282e+08,-1335.7,0,1.1911e+07,-309.81,11090,11613,1,11613,1,-0.00055982,-3.2317e-09,0,0.00033774,-0.00014752,-2.2769e+08,-995.59,0,1.2504e+08,-85.836,11612,12607,1,12607,1,0.00079114,-8.3412e-10,0,0.0010132,0.00010516,2.3774e+08,-224.97,0,3.2731e+08,20.611,12606,574.93,0,574.93,0,0.00077967,1.4232e-09,0,0.0003978,0.00014586,2.6265e+08,446.8,0,1.2734e+08,98.82,574.93,1
1988,4.66,12110,1,12110,1,0.00011652,-7.2113e-10,0,0.00068194,-2.1321e-05,16.37,-240.66,0,2.2997e+08,14.677,12109,13104,1,13104,1,0.0014223,1.0437e-09,0,0.0014223,0.00022313,3.716e+08,357.45,0,4.8372e+08,240.85,13103,12110,1,12110,1,0.00011652,-7.3445e-10,0,0.00067707,-2.1378e-05,4.1087e+07,-228.35,0,2.3729e+08,13.36,12109,11091,1,11091,1,-0.0011893,-2.7991e-09,0,2.856e-05,-0.00026554,-4.8372e+08,-853.9,0,1.1705e+07,-161.98,11090,11613,1,11613,1,-0.00056055,-1.547e-09,0,0.00033853,-0.00014798,-2.2798e+08,-497.57,0,1.2525e+08,-38.352,11612,12607,1,12607,1,0.00079359,2.0971e-10,0,0.0010156,0.00010529,2.3809e+08,55.565,0,3.2767e+08,67.068,12606,574.93,0,574.93,0,0.00078151,1.0009e-09,0,0.00039883,0.0001462,2.6301e+08,311,0,1.2751e+08,78.952,574.93,1
1988,4.67,12110,1,12110,1,0.00011739,-2.1311e-09,0,0.00068357,-2.1479e-05,-225.49,-658.49,0,2.3028e+08,53.685,12109,13104,1,13104,1,0.0014263,1.6676e-09,0,0.0014263,0.00022354,3.7175e+08,451.52,0,4.8461e+08,262.27,13103,12110,1,12110,1,0.00011739,-1.837e-09,0,0.00067865,-2.1537e-05,4.1361e+07,-541.35,0,2.3764e+08,46.715,12109,11091,1,11091,1,-0.0011915,-7.0067e-09,0,2.8034e-05,-0.00026627,-4.8461e+08,-2136,0,1.1498e+07,-130.38,11090,11613,1,11613,1,-0.00056126,-3.9452e-09,0,0.00033932,-0.00014843,-2.2827e+08,-1214.7,0,1.2547e+08,-10.7,11612,12607,1,12607,1,0.00079603,-2.4806e-10,0,0.001018,0.00010543,2.3843e+08,-73.8,0,3.2803e+08,116.92,12606,574.93,0,574.93,0,0.00078333,2.2181e-09,0,0.00039986,0.00014654,2.6336e+08,681.07,0,1.2768e+08,78.098,574.93,1
1988,4.68,12110,1,12110,1,0.00011826,-7.2412e-10,0,0.00068523,-2.1639e-05,290.96,-250.97,0,2.3061e+08,-18.711,12109,13104,1,13104,1,0.0014302,1.1404e-09,0,0.0014302,0.00022396,3.719e+08,256.88,0,4.8551e+08,308.16,13103,12110,1,12110,1,0.00011826,-7.3857e-10,0,0.00068026,-2.1697e-05,4.1638e+07,-222.78,0,2.38e+08,-25.198,12109,11091,1,11091,1,-0.0011937,-2.8276e-09,0,2.7504e-05,-0.000267,-4.8551e+08,-967.56,0,1.129e+07,-204.16,11090,11613,1,11613,1,-0.00056199,-1.6361e-09,0,0.00034012,-0.00014889,-2.2857e+08,-530.77,0,1.2568e+08,-69.206,11612,12607,1,12607,1,0.00079851,3.3182e-10,0,0.0010204,0.00010557,2.3879e+08,85.804,0,3.284e+08,16.199,12606,574.93,0,574.93,0,0.00078518,1.1153e-09,0,0.00040091,0.00014688,2.6373e+08,348.16,0,1.2785e+08,81.01,574.93,1
1988,4.69,12110,1,12110,1,0.00011913,1.7371e-09,0,0.00068686,-2.1799e-05,-103.03,491.39,0,2.3091e+08,118.41,12109,13104,1,13104,1,0.0014341,9.3598e-09,0,0.0014341,0.00022436,3.7205e+08,2757.5,0,4.8639e+08,435.7,13103,12110,1,12110,1,0.00011913,1.0541e-09,0,0.00068183,-2.1858e-05,4.1915e+07,309.16,0,2.3834e+08,106.85,12109,11091,1,11091,1,-0.0011958,-5.1579e-09,0,2.6968e-05,-0.00026772,-4.8639e+08,-1513.9,0,1.108e+07,-160.8,11090,11613,1,11613,1,-0.0005627,-7.1978e-10,0,0.00034092,-0.00014934,-2.2886e+08,-219.88,0,1.2589e+08,16.852,11612,12607,1,12607,1,0.00080096,4.2624e-09,0,0.0010227,0.0001057,2.3913e+08,1230.1,0,3.2874e+08,205.17,12606,574.93,0,574.93,0,0.000787,3.2909e-09,0,0.00040195,0.00014722,2.6407e+08,963.71,0,1.2802e+08,129.1,574.93,1
1988,4.7,12110,1,12110,1,0.00012001,3.0127e-10,0,0.00068852,-2.196e-05,470.78,92.534,0,2.3123e+08,-0.28554,12109,13104,1,13104,1,0.0014381,2.6585e-09,0,0.0014381,0.00022478,3.7219e+08,808.15,0,4.8729e+08,239.57,13103,12110,1,12110,1,0.00012001,2.3102e-10,0,0.00068344,-2.2021e-05,4.2194e+07,63.323,0,2.3869e+08,-5.7651,12109,11091,1,11091,1,-0.001198,-1.302e-09,0,2.6434e-05,-0.00026846,-4.8729e+08,-395.8,0,1.0871e+07,-169.74,11090,11613,1,11613,1,-0.00056342,-3.4613e-10,0,0.00034172,-0.0001498,-2.2915e+08,-95.846,0,1.261e+08,-51.332,11612,12607,1,12607,1,0.00080345,7.5848e-10,0,0.0010252,0.00010584,2.3948e+08,234.97,0,3.2911e+08,50.319,12606,574.93,0,574.93,0,0.00078886,7.9901e-10,0,0.000403,0.00014757,2.6444e+08,250.59,0,1.2819e+08,79.132,574.93,1
1988,4.71,12110,1,12110,1,0.0001209,5.6632e-11,0,0.00069015,-2.2122e-05,151.96,26.058,0,2.3153e+08,40.451,12109,13104,1,13104,1,0.001442,6.3894e-09,0,0.001442,0.00022518,3.7232e+08,1903.7,0,4.8816e+08,341.58,13103,12110,1,12110,1,0.0001209,2.4918e-11,0,0.00068501,-2.2184e-05,4.2473e+07,6.2711,0,2.3903e+08,28.731,12109,11091,1,11091,1,-0.0012002,-3.7933e-09,0,2.5886e-05,-0.00026919,-4.8816e+08,-1108.7,0,1.0657e+07,-119.05,11090,11613,1,11613,1,-0.00056411,-1.4611e-09,0,0.00034251,-0.00015026,-2.2943e+08,-423.6,0,1.2631e+08,-15.909,11612,12607,1,12607,1,0.00080591,1.1713e-09,0,0.0010275,0.00010597,2.3982e+08,356.55,0,3.2945e+08,76.298,12606,574.93,0,574.93,0,0.00079067,2.1329e-09,0,0.00040403,0.0001479,2.6478e+08,641.74,0,1.2835e+08,84.984,574.93,1
1988,4.72,12110,1,12110,1,0.00012179,-2.5306e-09,0,0.00069181,-2.2284e-05,-151.08,-749.98,0,2.3185e+08,16.919,12109,13104,1,13104,1,0.001446,1.2155e-09,0,0.001446,0.0002256,3.7246e+08,416.29,0,4.8906e+08,300.9,13103,12110,1,12110,1,0.00012179,-2.4466e-09,0,0.00068661,-2.2347e-05,4.2753e+07,-697.05,0,2.3938e+08,17.726,12109,11091,1,11091,1,-0.0012024,-6.6384e-09,0,2.5343e-05,-0.00026993,-4.8906e+08,-2010,0,1.0445e+07,-157.97,11090,11613,1,11613,1,-0.00056482,-4.1647e-09,0,0.00034331,-0.00015072,-2.2972e+08,-1239.2,0,1.2652e+08,-45.976,11612,12607,1,12607,1,0.0008084,-9.1432e-10,0,0.0010299,0.0001061,2.4017e+08,-253.25,0,3.2981e+08,65.353,12606,574.93,0,574.93,0,0.00079252,2.0005e-09,0,0.00040509,0.00014825,2.6514e+08,606.61,0,1.2852e+08,89.64,574.93,1
1988,4.73,12110,1,12110,1,0.00012269,9.0486e-10,0,0.00069347,-2.2449e-05,275.39,246.9,0,2.3216e+08,26.125,12109,13104,1,13104,1,0.00145,3.6098e-09,0,0.00145,0.00022601,3.7259e+08,1063,0,4.8995e+08,337.06,13103,12110,1,12110,1,0.00012269,8.1297e-10,0,0.00068822,-2.2513e-05,4.3037e+07,236.1,0,2.3973e+08,9.9983,12109,11091,1,11091,1,-0.0012046,-1.1417e-09,0,2.4783e-05,-0.00027067,-4.8995e+08,-346.29,0,1.0228e+07,-234.82,11090,11613,1,11613,1,-0.00056553,-1.5334e-10,0,0.00034411,-0.00015118,-2.3001e+08,-46.503,0,1.2673e+08,-48.023,11612,12607,1,12607,1,0.00081091,1.9239e-09,0,0.0010323,0.00010624,2.4051e+08,520.69,0,3.3016e+08,92.277,12606,574.93,0,574.93,0,0.00079438,1.1525e-09,0,0.00040615,0.00014859,2.6549e+08,333.71,0,1.2869e+08,111.49,574.93,1
1988,4.74,12110,1,12110,1,0.00012359,-6.1038e-10,0,0.00069513,-2.2615e-05,91.771,-184.38,0,2.3247e+08,13.202,12109,13104,1,13104,1,0.001454,4.9785e-10,0,0.001454,0.00022642,3.7271e+08,170.5,0,4.9084e+08,286.35,13103,12110,1,12110,1,0.00012359,-5.6949e-10,0,0.00068982,-2.268e-05,4.3321e+07,-167.16,0,2.4007e+08,-0.3277,12109,11091,1,11091,1,-0.0012068,-1.8981e-09,0,2.4224e-05,-0.00027141,-4.9084e+08,-558.87,0,1.001e+07,-131.28,11090,11613,1,11613,1,-0.00056623,-9.8227e-10,0,0.00034491,-0.00015164,-2.3029e+08,-297.12,0,1.2694e+08,-40.233,11612,12607,1,12607,1,0.00081342,-2.0268e-10,0,0.0010347,0.00010637,2.4085e+08,-55.625,0,3.3051e+08,46.219,12606,574.93,0,574.93,0,0.00079623,5.5095e-10,0,0.0004072,0.00014894,2.6584e+08,169.42,0,1.2885e+08,83.711,574.93,1
1988,4.75,12110,1,12110,1,0.0001245,3.4918e-10,0,0.00069678,-2.2782e-05,304.15,94.593,0,2.3277e+08,24.084,12109,13104,1,13104,1,0.0014579,1.7307e-09,0,0.0014579,0.00022683,3.7282e+08,451.44,0,4.9171e+08,392.75,13103,12110,1,12110,1,0.0001245,3.145e-10,0,0.00069141,-2.2847e-05,4.3606e+07,92.391,0,2.404e+08,-1.6587,12109,11091,1,11091,1,-0.0012089,-1.6008e-09,0,2.3656e-05,-0.00027214,-4.9171e+08,-438.9,0,9.7903e+06,-127.42,11090,11613,1,11613,1,-0.00056691,4.1545e-12,0,0.00034571,-0.0001521,-2.3057e+08,1.1995,0,1.2715e+08,-49.574,11612,12607,1,12607,1,0.00081592,7.8641e-10,0,0.0010371,0.0001065,2.4119e+08,208.94,0,3.3084e+08,69.108,12606,574.93,0,574.93,0,0.00079807,5.1528e-10,0,0.00040826,0.00014928,2.6618e+08,140.1,0,1.2902e+08,104.73,574.93,1
1988,4.76,12110,1,12110,1,0.00012541,2.3104e-09,0,0.00069841,-2.2948e-05,480.33,685.68,0,2.3306e+08,137.09,12109,13104,1,13104,1,0.0014619,1.4238e-08,0,0.0014619,0.00022723,3.7294e+08,4208.1,0,4.926e+08,626.98,13103,12110,1,12110,1,0.00012541,1.5101e-09,0,0.00069299,-2.3014e-05,4.3891e+07,415.61,0,2.4074e+08,94.172,12109,11091,1,11091,1,-0.0012111,-6.7761e-09,0,2.3087e-05,-0.00027288,-4.926e+08,-1928.4,0,9.5702e+06,-235.24,11090,11613,1,11613,1,-0.00056758,-6.1187e-10,0,0.0003465,-0.00015256,-2.3084e+08,-177.64,0,1.2735e+08,-13.108,11612,12607,1,12607,1,0.0008184,5.0485e-09,0,0.0010395,0.00010663,2.4152e+08,1488.4,0,3.3117e+08,284.65,12606,574.93,0,574.93,0,0.00079988,4.1311e-09,0,0.0004093,0.00014962,2.6652e+08,1220.2,0,1.2918e+08,181.83,574.93,1
1988,4.77,12110,1,12110,1,0.00012632,1.4078e-09,0,0.00070005,-2.3114e-05,171.46,444.23,0,2.3336e+08,74.007,12109,13104,1,13104,1,0.0014659,1.4411e-08,0,0.0014659,0.00022764,3.7305e+08,4357.1,0,4.9347e+08,736.75,13103,12110,1,12110,1,0.00012632,3.3198e-10,0,0.00069459,-2.3181e-05,4.4175e+07,94.132,0,2.4107e+08,28.899,12109,11091,1,11091,1,-0.0012133,-6.3584e-09,0,2.2517e-05,-0.00027362,-4.9347e+08,-1869.5,0,9.3501e+06,-298.32,11090,11613,1,11613,1,-0.00056826,-1.113e-09,0,0.00034729,-0.00015303,-2.3112e+08,-301.44,0,1.2756e+08,-69.534,11612,12607,1,12607,1,0.0008209,3.5659e-09,0,0.0010419,0.00010676,2.4185e+08,1086.8,0,3.3151e+08,184.65,12606,574.93,0,574.93,0,0.00080172,3.8563e-09,0,0.00041035,0.00014996,2.6686e+08,1177.1,0,1.2934e+08,194.22,574.93,1
1988,4.78,12110,1,12110,1,0.00012724,1.6014e-10,0,0.00070176,-2.3283e-05,-168.91,84.359,0,2.3368e+08,-35.761,12109,13104,1,13104,1,0.00147,2.975e-09,0,0.00147,0.00022806,3.7318e+08,1018.3,0,4.9438e+08,229.86,13103,12110,1,12110,1,0.00012724,3.277e-11,0,0.00069623,-2.3352e-05,4.4465e+07,9.4695,0,2.4142e+08,-20.115,12109,11091,1,11091,1,-0.0012155,-2.467e-09,0,2.1941e-05,-0.00027437,-4.9438e+08,-579.02,0,9.1283e+06,-196.53,11090,11613,1,11613,1,-0.00056898,-3.9629e-10,0,0.00034811,-0.0001535,-2.3141e+08,-115.91,0,1.2777e+08,-89.147,11612,12607,1,12607,1,0.00082347,8.0582e-10,0,0.0010443,0.00010689,2.422e+08,267.64,0,3.3187e+08,8.227,12606,574.93,0,574.93,0,0.00080361,1.1745e-09,0,0.00041144,0.00015031,2.6722e+08,352.06,0,1.2952e+08,78.086,574.93,1
1988,4.79,12110,1,12110,1,0.00012818,-2.0768e-09,0,0.00070343,-2.3456e-05,6.8781,-588.79,0,2.3398e+08,-2.9642,12109,13104,1,13104,1,0.001474,9.7393e-10,0,0.001474,0.00022847,3.7328e+08,333.55,0,4.9526e+08,310.51,13103,12110,1,12110,1,0.00012818,-2.0082e-09,0,0.00069783,-2.3526e-05,4.4758e+07,-546.8,0,2.4176e+08,-7.7812,12109,11091,1,11091,1,-0.0012177,-5.644e-09,0,2.1348e-05,-0.00027512,-4.9526e+08,-1670.6,0,8.9001e+06,-155.29,11090,11613,1,11613,1,-0.00056965,-3.5635e-09,0,0.00034892,-0.00015397,-2.3168e+08,-1003.7,0,1.2797e+08,-47.251,11612,12607,1,12607,1,0.00082602,-4.6106e-10,0,0.0010468,0.00010702,2.4253e+08,-138.66,0,3.322e+08,33.419,12606,574.93,0,574.93,0,0.00080548,1.8205e-09,0,0.00041252,0.00015066,2.6756e+08,528.21,0,1.2968e+08,71.04,574.93,1
1988,4.8,12110,1,12110,1,0.00012912,-1.2687e-09,0,0.0007051,-2.3628e-05,-21.298,-380.2,0,2.3428e+08,28.693,12109,13104,1,13104,1,0.0014781,1.1936e-09,0,0.0014781,0.00022887,3.7337e+08,408.77,0,4.9614e+08,319.11,13103,12110,1,12110,1,0.00012912,-1.1185e-09,0,0.00069945,-2.3698e-05,4.5051e+07,-322.31,0,2.4209e+08,22.433,12109,11091,1,11091,1,-0.0012198,-4.2342e-09,0,2.0756e-05,-0.00027587,-4.9614e+08,-1276.9,0,8.6728e+06,-138.25,11090,11613,1,11613,1,-0.00057032,-2.3567e-09,0,0.00034972,-0.00015444,-2.3196e+08,-694.18,0,1.2818e+08,-28.894,11612,12607,1,12607,1,0.00082857,-1.6985e-10,0,0.0010492,0.00010715,2.4287e+08,-49.139,0,3.3253e+08,68.551,12606,574.93,0,574.93,0,0.00080734,1.3446e-09,0,0.00041359,0.000151,2.679e+08,408.94,0,1.2984e+08,78.944,574.93,1
1988,4.81,12110,1,12110,1,0.00013006,7.0801e-10,0,0.00070675,-2.38e-05,-149.86,189.2,0,2.3457e+08,61.619,12109,13104,1,13104,1,0.0014821,6.2625e-09,0,0.0014821,0.00022927,3.7345e+08,1815.5,0,4.9701e+08,401.31,13103,12110,1,12110,1,0.00013006,3.2585e-10,0,0.00070104,-2.3872e-05,4.5344e+07,86.88,0,2.4242e+08,57.165,12109,11091,1,11091,1,-0.001222,-3.2311e-09,0,2.0155e-05,-0.00027661,-4.9701e+08,-922.13,0,8.4422e+06,-144.08,11090,11613,1,11613,1,-0.00057098,-7.2742e-10,0,0.00035052,-0.00015491,-2.3222e+08,-229.07,0,1.2838e+08,2.5438,11612,12607,1,12607,1,0.00083111,2.0324e-09,0,0.0010516,0.00010727,2.4319e+08,571.88,0,3.3285e+08,112.17,12606,574.93,0,574.93,0,0.00080918,2.0591e-09,0,0.00041466,0.00015135,2.6823e+08,605.34,0,1.3e+08,93.193,574.93,1
1988,4.82,12110,1,12110,1,0.00013101,1.9048e-09,0,0.00070842,-2.3973e-05,-19.697,558.69,0,2.3486e+08,37.503,12109,13104,1,13104,1,0.0014861,7.033e-09,0,0.0014861,0.00022968,3.7354e+08,2066.2,0,4.9789e+08,414.97,13103,12110,1,12110,1,0.00013101,1.6951e-09,0,0.00070265,-2.4045e-05,4.5637e+07,471.13,0,2.4275e+08,19.543,12109,11091,1,11091,1,-0.0012241,-8.9501e-10,0,1.9559e-05,-0.00027736,-4.9789e+08,-244.24,0,8.2143e+06,-174.15,11090,11613,1,11613,1,-0.00057164,4.3933e-10,0,0.00035133,-0.00015538,-2.3249e+08,128.19,0,1.2858e+08,-34.013,11612,12607,1,12607,1,0.00083366,3.0626e-09,0,0.001054,0.0001074,2.4352e+08,903.47,0,3.3317e+08,92.283,12606,574.93,0,574.93,0,0.00081104,1.6822e-09,0,0.00041574,0.00015169,2.6857e+08,504.67,0,1.3016e+08,108.34,574.93,1
1988,4.83,12110,1,12110,1,0.00013196,-2.5558e-10,0,0.00071008,-2.4147e-05,435.03,-57.904,0,2.3515e+08,24.093,12109,13104,1,13104,1,0.0014902,5.7402e-09,0,0.0014902,0.00023008,3.7361e+08,1707.1,0,4.9876e+08,340.64,13103,12110,1,12110,1,0.00013196,-4.519e-10,0,0.00070425,-2.4221e-05,4.5932e+07,-125.38,0,2.4307e+08,23.002,12109,11091,1,11091,1,-0.0012263,-5.6361e-09,0,1.895e-05,-0.00027811,-4.9876e+08,-1569.7,0,7.9817e+06,-204.33,11090,11613,1,11613,1,-0.00057229,-1.5562e-09,0,0.00035212,-0.00015586,-2.3276e+08,-446.77,0,1.2878e+08,-41.262,11612,12607,1,12607,1,0.00083621,1.1014e-09,0,0.0010564,0.00010752,2.4384e+08,331.6,0,3.3349e+08,76.476,12606,574.93,0,574.93,0,0.00081288,2.1776e-09,0,0.00041681,0.00015204,2.689e+08,647.19,0,1.3032e+08,95.322,574.93,1
1988,4.84,12110,1,12110,1,0.00013291,2.4148e-10,0,0.00071177,-2.4323e-05,65.345,84.686,0,2.3545e+08,-1.9449,12109,13104,1,13104,1,0.0014943,1.48e-09,0,0.0014943,0.00023049,3.7371e+08,506.48,0,4.9964e+08,354.04,13103,12110,1,12110,1,0.00013291,2.2324e-10,0,0.00070588,-2.4397e-05,4.6228e+07,67.243,0,2.4341e+08,-11.87,12109,11091,1,11091,1,-0.0012284,-1.0902e-09,0,1.8343e-05,-0.00027887,-4.9964e+08,-250.07,0,7.7503e+06,-188.13,11090,11613,1,11613,1,-0.00057296,-1.1675e-10,0,0.00035294,-0.00015633,-2.3303e+08,-31.431,0,1.2899e+08,-73.882,11612,12607,1,12607,1,0.0008388,6.1201e-10,0,0.0010588,0.00010765,2.4417e+08,175.93,0,3.3382e+08,43.579,12606,574.93,0,574.93,0,0.00081476,5.4831e-10,0,0.0004179,0.00015239,2.6924e+08,166.02,0,1.3049e+08,105.71,574.93,1
1988,4.85,12110,1,12110,1,0.00013389,6.8165e-11,0,0.00071346,-2.4501e-05,273.97,31.059,0,2.3575e+08,15.261,12109,13104,1,13104,1,0.0014984,9.9147e-10,0,0.0014984,0.0002309,3.7378e+08,339.47,0,5.0052e+08,380.21,13103,12110,1,12110,1,0.00013389,8.983e-11,0,0.00070751,-2.4576e-05,4.6529e+07,23.501,0,2.4374e+08,-8.3081,12109,11091,1,11091,1,-0.0012306,-1.2271e-09,0,1.7722e-05,-0.00027963,-5.0052e+08,-365.03,0,7.5137e+06,-119.98,11090,11613,1,11613,1,-0.00057362,-1.7814e-10,0,0.00035375,-0.00015681,-2.333e+08,-43.923,0,1.2919e+08,-40.569,11612,12607,1,12607,1,0.0008414,3.4088e-10,0,0.0010613,0.00010777,2.445e+08,113.7,0,3.3414e+08,42.982,12606,574.93,0,574.93,0,0.00081665,3.705e-10,0,0.000419,0.00015274,2.6958e+08,112.81,0,1.3065e+08,90.725,574.93,1
1988,4.86,12110,1,12110,1,0.00013486,5.7455e-10,0,0.00071514,-2.4679e-05,73.124,175.68,0,2.3603e+08,54.108,12109,13104,1,13104,1,0.0015025,2.4267e-09,0,0.0015025,0.0002313,3.7385e+08,622.76,0,5.014e+08,407.78,13103,12110,1,12110,1,0.00013486,5.47e-10,0,0.00070913,-2.4755e-05,4.683e+07,170.06,0,2.4406e+08,30.257,12109,11091,1,11091,1,-0.0012327,-1.93e-09,0,1.7093e-05,-0.00028039,-5.014e+08,-483.9,0,7.2749e+06,-187.07,11090,11613,1,11613,1,-0.00057427,6.6677e-11,0,0.00035456,-0.00015729,-2.3356e+08,16.388,0,1.2939e+08,-15.947,11612,12607,1,12607,1,0.00084399,1.172e-09,0,0.0010637,0.0001079,2.4482e+08,348.13,0,3.3445e+08,98.863,12606,574.93,0,574.93,0,0.00081851,7.4659e-10,0,0.00042009,0.00015308,2.6991e+08,216.08,0,1.3081e+08,100.96,574.93,1
1988,4.87,12110,1,12110,1,0.00013584,-1.7095e-09,0,0.00071681,-2.4858e-05,205.2,-488.61,0,2.3632e+08,66.129,12109,13104,1,13104,1,0.0015066,2.9715e-09,0,0.0015066,0.0002317,3.7391e+08,761.4,0,5.0227e+08,495.54,13103,12110,1,12110,1,0.00013584,-1.1206e-09,0,0.00071073,-2.4935e-05,4.7131e+07,-321.91,0,2.4438e+08,33.063,12109,11091,1,11091,1,-0.0012349,-7.8893e-09,0,1.6461e-05,-0.00028114,-5.0227e+08,-2149.3,0,7.035e+06,-109.37,11090,11613,1,11613,1,-0.0005749,-3.1831e-09,0,0.00035537,-0.00015777,-2.3382e+08,-922.08,0,1.2959e+08,-10.875,11612,12607,1,12607,1,0.00084657,1.9822e-10,0,0.0010661,0.00010802,2.4514e+08,64.187,0,3.3476e+08,113.74,12606,574.93,0,574.93,0,0.00082037,2.3967e-09,0,0.00042117,0.00015343,2.7023e+08,676.76,0,1.3097e+08,108.56,574.93,1
1988,4.88,12110,1,12110,1,0.00013682,8.9989e-11,0,0.00071851,-2.5038e-05,-272.83,9.8308,0,2.3661e+08,55.195,12109,13104,1,13104,1,0.0015107,2.6447e-09,0,0.0015107,0.00023211,3.7398e+08,676.61,0,5.0315e+08,487.73,13103,12110,1,12110,1,0.00013682,9.7896e-11,0,0.00071237,-2.5115e-05,4.7433e+07,29.303,0,2.4471e+08,37.347,12109,11091,1,11091,1,-0.001237,-1.871e-09,0,1.5832e-05,-0.00028191,-5.0315e+08,-582.48,0,6.7965e+06,-107.32,11090,11613,1,11613,1,-0.00057555,-4.5497e-10,0,0.00035618,-0.00015825,-2.3408e+08,-140.12,0,1.2979e+08,-3.0531,11612,12607,1,12607,1,0.00084919,6.3851e-10,0,0.0010686,0.00010814,2.4546e+08,163.51,0,3.3507e+08,86.457,12606,574.93,0,574.93,0,0.00082226,8.9744e-10,0,0.00042228,0.00015378,2.7057e+08,259.2,0,1.3113e+08,95.507,574.93,1
1988,4.89,12110,1,12110,1,0.00013781,2.7859e-10,0,0.00072019,-2.522e-05,-32.708,71.843,0,2.3689e+08,45.555,12109,13104,1,13104,1,0.0015148,1.6429e-09,0,0.0015148,0.00023251,3.7403e+08,404.43,0,5.0401e+08,559.29,13103,12110,1,12110,1,0.00013781,2.5585e-10,0,0.00071399,-2.5298e-05,4.7739e+07,68.295,0,2.4502e+08,8.8203,12109,11091,1,11091,1,-0.0012392,-1.1743e-09,0,1.5186e-05,-0.00028267,-5.0401e+08,-402.07,0,6.5524e+06,-97.464,11090,11613,1,11613,1,-0.00057618,-4.2887e-11,0,0.000357,-0.00015874,-2.3434e+08,-13.666,0,1.2999e+08,-22.299,11612,12607,1,12607,1,0.0008518,5.7868e-10,0,0.001071,0.00010826,2.4578e+08,166.16,0,3.3538e+08,77.82,12606,574.93,0,574.93,0,0.00082413,4.6996e-10,0,0.00042338,0.00015413,2.7089e+08,131.6,0,1.3129e+08,115.27,574.93,1
1988,4.9,12110,1,12110,1,0.00013881,1.4907e-09,0,0.00072188,-2.5402e-05,-58.708,434.69,0,2.3717e+08,80.527,12109,13104,1,13104,1,0.0015189,5.5667e-09,0,0.0015189,0.00023292,3.7408e+08,1517.6,0,5.0489e+08,524.92,13103,12110,1,12110,1,0.0001388,1.6094e-09,0,0.00071562,-2.5481e-05,4.8044e+07,481.18,0,2.4534e+08,46.414,12109,11091,1,11091,1,-0.0012413,-1.1156e-09,0,1.4539e-05,-0.00028344,-5.0489e+08,-300.66,0,6.308e+06,-93.592,11090,11613,1,11613,1,-0.00057681,4.9187e-10,0,0.00035781,-0.00015922,-2.346e+08,141.71,0,1.3019e+08,-5.7245,11612,12607,1,12607,1,0.00085442,2.312e-09,0,0.0010734,0.00010838,2.4609e+08,686.17,0,3.3568e+08,153.17,12606,574.93,0,574.93,0,0.000826,1.3045e-09,0,0.00042448,0.00015448,2.7122e+08,372.27,0,1.3145e+08,116.59,574.93,1
1988,4.91,12110,1,12110,1,0.00013981,1.4356e-09,0,0.00072356,-2.5585e-05,461.55,440.7,0,2.3745e+08,65.851,12109,13104,1,13104,1,0.0015231,5.3483e-09,0,0.0015231,0.00023332,3.7412e+08,1528.1,0,5.0575e+08,515.96,13103,12110,1,12110,1,0.0001398,1.2735e-09,0,0.00071724,-2.5665e-05,4.835e+07,396.14,0,2.4566e+08,42.929,12109,11091,1,11091,1,-0.0012435,-3.1328e-09,0,1.3885e-05,-0.0002842,-5.0575e+08,-763.9,0,6.0612e+06,-176.04,11090,11613,1,11613,1,-0.00057743,7.2268e-11,0,0.00035861,-0.0001597,-2.3485e+08,16.757,0,1.3038e+08,-14.284,11612,12607,1,12607,1,0.00085704,2.7873e-09,0,0.0010759,0.0001085,2.4641e+08,832.33,0,3.3598e+08,129.51,12606,574.93,0,574.93,0,0.00082787,1.7642e-09,0,0.00042558,0.00015482,2.7154e+08,515.06,0,1.3161e+08,121.57,574.93,1
1988,4.92,12110,1,12110,1,0.00014081,3.5867e-09,0,0.00072524,-2.5769e-05,157.43,1081.8,0,2.3773e+08,108.36,12109,13104,1,13104,1,0.0015272,1.1438e-08,0,0.0015272,0.00023372,3.7417e+08,3323.3,0,5.0662e+08,664.89,13103,12110,1,12110,1,0.0001408,3.589e-09,0,0.00071886,-2.5849e-05,4.8656e+07,1069.9,0,2.4597e+08,64.806,12109,11091,1,11091,1,-0.0012456,-2.1417e-09,0,1.3229e-05,-0.00028497,-5.0662e+08,-633.29,0,5.8141e+06,-199.71,11090,11613,1,11613,1,-0.00057804,1.0459e-09,0,0.00035942,-0.00016019,-2.351e+08,287.83,0,1.3058e+08,-16.418,11612,12607,1,12607,1,0.00085966,5.9182e-09,0,0.0010783,0.00010862,2.4671e+08,1802.4,0,3.3627e+08,224.84,12606,574.93,0,574.93,0,0.00082974,3.1032e-09,0,0.00042669,0.00015517,2.7186e+08,936.71,0,1.3176e+08,164.71,574.93,1
1988,4.93,12110,1,12110,1,0.00014182,1.6487e-09,0,0.00072693,-2.5954e-05,970.47,550.1,0,2.3801e+08,53.867,12109,13104,1,13104,1,0.0015314,9.9976e-09,0,0.0015314,0.00023412,3.742e+08,2967.9,0,5.0748e+08,690.66,13103,12110,1,12110,1,0.00014182,1.2678e-09,0,0.00072049,-2.6035e-05,4.8966e+07,393.89,0,2.4628e+08,10.157,12109,11091,1,11091,1,-0.0012477,-4.5339e-09,0,1.2563e-05,-0.00028574,-5.0748e+08,-1127.3,0,5.5632e+06,-230.02,11090,11613,1,11613,1,-0.00057866,-7.3505e-10,0,0.00036023,-0.00016067,-2.3535e+08,-176.39,0,1.3077e+08,-53.694,11612,12607,1,12607,1,0.0008623,3.6804e-09,0,0.0010807,0.00010873,2.4703e+08,1152.6,0,3.3657e+08,136.6,12606,574.93,0,574.93,0,0.00083161,2.8169e-09,0,0.00042779,0.00015552,2.7217e+08,843.87,0,1.3192e+08,156.85,574.93,1
1988,4.94,12110,1,12110,1,0.00014283,-2.7382e-09,0,0.00072862,-2.614e-05,737.2,-728.63,0,2.3828e+08,20.888,12109,13104,1,13104,1,0.0015355,2.5234e-09,0,0.0015355,0.00023451,3.7424e+08,838.05,0,5.0834e+08,656.2,13103,12110,1,12110,1,0.00014283,-2.3653e-09,0,0.00072211,-2.6223e-05,4.9277e+07,-629.58,0,2.466e+08,-15.79,12109,11091,1,11091,1,-0.0012498,-9.5414e-09,0,1.1896e-05,-0.0002865,-5.0834e+08,-2633.6,0,5.3126e+06,-210.87,11090,11613,1,11613,1,-0.00057928,-5.4162e-09,0,0.00036106,-0.00016116,-2.356e+08,-1465.3,0,1.3097e+08,-69.926,11612,12607,1,12607,1,0.00086494,3.1572e-10,0,0.0010832,0.00010885,2.4734e+08,97.778,0,3.3687e+08,64.284,12606,574.93,0,574.93,0,0.00083349,3.3677e-09,0,0.00042891,0.00015587,2.7249e+08,934.16,0,1.3208e+08,139.18,574.93,1
1988,4.95,12110,1,12110,1,0.00014385,-3.6738e-09,0,0.00073032,-2.6327e-05,-140.65,-1061.5,0,2.3856e+08,54.945,12109,13104,1,13104,1,0.0015397,2.1627e-09,0,0.0015397,0.00023492,3.7427e+08,740.66,0,5.0922e+08,660.26,13103,12110,1,12110,1,0.00014385,-3.1349e-09,0,0.00072374,-2.6411e-05,4.9587e+07,-905.75,0,2.4691e+08,20.507,12109,11091,1,11091,1,-0.001252,-1.1805e-08,0,1.1231e-05,-0.00028728,-5.0922e+08,-3438.1,0,5.063e+06,-208.73,11090,11613,1,11613,1,-0.00057989,-6.0573e-09,0,0.00036187,-0.00016165,-2.3585e+08,-1764.2,0,1.3116e+08,-51.605,11612,12607,1,12607,1,0.0008676,-7.1411e-10,0,0.0010856,0.00010897,2.4764e+08,-211.68,0,3.3715e+08,129.36,12606,574.93,0,574.93,0,0.00083538,3.4811e-09,0,0.00043003,0.00015622,2.7281e+08,1016,0,1.3224e+08,146.79,574.93,1
1988,4.96,12110,1,12110,1,0.00014489,-5.2127e-10,0,0.00073203,-2.6516e-05,351.85,-192.36,0,2.3884e+08,29.772,12109,13104,1,13104,1,0.0015439,4.4753e-09,0,0.0015439,0.00023531,3.7428e+08,1175.9,0,5.1007e+08,680.95,13103,12110,1,12110,1,0.00014489,-1.5753e-11,0,0.00072539,-2.6601e-05,4.9902e+07,-4.2247,0,2.4722e+08,8.5387,12109,11091,1,11091,1,-0.0012541,-5.2478e-09,0,1.0545e-05,-0.00028805,-5.1007e+08,-1659,0,4.806e+06,-240.1,11090,11613,1,11613,1,-0.00058049,-2.152e-09,0,0.00036269,-0.00016215,-2.3609e+08,-657.86,0,1.3136e+08,-54.982,11612,12607,1,12607,1,0.00087027,9.8855e-10,0,0.0010881,0.00010908,2.4795e+08,227.26,0,3.3744e+08,73.252,12606,574.93,0,574.93,0,0.00083727,2.1793e-09,0,0.00043115,0.00015657,2.7313e+08,655.24,0,1.324e+08,141.97,574.93,1
1988,4.97,12110,1,12110,1,0.00014592,5.5276e-10,0,0.00073373,-2.6706e-05,-651.94,129.41,0,2.3911e+08,69.592,12109,13104,1,13104,1,0.0015481,3.743e-09,0,0.0015481,0.00023571,3.743e+08,955.72,0,5.1094e+08,806.75,13103,12110,1,12110,1,0.00014592,7.2317e-10,0,0.00072702,-2.6791e-05,5.0216e+07,193.83,0,2.4753e+08,30.283,12109,11091,1,11091,1,-0.0012562,-3.1248e-09,0,9.8622e-06,-0.00028883,-5.1094e+08,-1012.4,0,4.5502e+06,-182.41,11090,11613,1,11613,1,-0.0005811,-6.0686e-10,0,0.00036351,-0.00016264,-2.3634e+08,-183.29,0,1.3155e+08,-34.298,11612,12607,1,12607,1,0.00087295,1.9203e-09,0,0.0010905,0.0001092,2.4825e+08,505.63,0,3.3773e+08,122.58,12606,574.93,0,574.93,0,0.00083916,1.7326e-09,0,0.00043228,0.00015692,2.7344e+08,503.3,0,1.3255e+08,163.76,574.93,1
1988,4.98,12110,1,12110,1,0.00014697,-2.4915e-09,0,0.00073541,-2.6897e-05,296.86,-739.66,0,2.3937e+08,34.208,12109,13104,1,13104,1,0.0015523,2.1522e-09,0,0.0015523,0.00023611,3.7431e+08,737.06,0,5.1179e+08,859.15,13103,12110,1,12110,1,0.00014697,-1.068e-09,0,0.00072864,-2.6983e-05,5.0532e+07,-306.8,0,2.4783e+08,-15.892,12109,11091,1,11091,1,-0.0012583,-1.1628e-08,0,9.1678e-06,-0.0002896,-5.1179e+08,-3266.7,0,4.2906e+06,-789.42,11090,11613,1,11613,1,-0.00058167,-4.5727e-09,0,0.00036432,-0.00016313,-2.3657e+08,-1360.1,0,1.3174e+08,-99.862,11612,12607,1,12607,1,0.00087561,3.3428e-11,0,0.001093,0.00010931,2.4855e+08,9.9795,0,3.38e+08,122.82,12606,574.93,0,574.93,0,0.00084103,3.3513e-09,0,0.0004334,0.00015727,2.7375e+08,983.4,0,1.327e+08,209.8,574.93,1
1988,4.99,12110,1,12110,1,0.00014801,-1.3278e-09,0,0.00073714,-2.7089e-05,391.27,-428.38,0,2.3965e+08,45.717,12109,13104,1,13104,1,0.0015565,3.5156e-09,0,0.0015565,0.00023651,3.7433e+08,884.22,0,5.1267e+08,746.93,13103,12110,1,12110,1,0.00014801,-4.9254e-10,0,0.00073031,-2.7176e-05,5.085e+07,-149.58,0,2.4814e+08,24.219,12109,11091,1,11091,1,-0.0012605,-7.5113e-09,0,8.4711e-06,-0.00029039,-5.1267e+08,-2364.6,0,4.0302e+06,-303.51,11090,11613,1,11613,1,-0.00058228,-3.1355e-09,0,0.00036514,-0.00016363,-2.3682e+08,-945.22,0,1.3193e+08,-49.28,11612,12607,1,12607,1,0.00087832,4.4895e-10,0,0.0010954,0.00010942,2.4886e+08,113.07,0,3.3829e+08,108.28,12606,574.93,0,574.93,0,0.00084295,2.4287e-09,0,0.00043454,0.00015762,2.7407e+08,735.54,0,1.3286e+08,149.07,574.93,1
1988,5,12110,1,12110,1,0.00014908,-1.2698e-09,0,0.00073885,-2.7284e-05,235.51,-418.85,0,2.3991e+08,55.947,12109,13104,1,13104,1,0.0015607,4.2631e-09,0,0.0015607,0.00023691,3.7432e+08,1362.2,0,5.1352e+08,846.62,13103,12110,1,12110,1,0.00014908,-5.0906e-10,0,0.00073195,-2.7372e-05,5.1171e+07,-158.32,0,2.4844e+08,33.532,12109,11091,1,11091,1,-0.0012625,-8.894e-09,0,7.7597e-06,-0.00029117,-5.1352e+08,-2842.8,0,3.7651e+06,-1401.4,11090,11613,1,11613,1,-0.00058286,-3.0706e-09,0,0.00036596,-0.00016413,-2.3706e+08,-935.93,0,1.3212e+08,-29.582,11612,12607,1,12607,1,0.00088102,6.5455e-10,0,0.0010979,0.00010953,2.4916e+08,157.4,0,3.3856e+08,90.871,12606,574.93,0,574.93,0,0.00084484,2.4859e-09,0,0.00043568,0.00015798,2.7437e+08,745.31,0,1.3302e+08,182.8,574.93,1
1988,5.01,12110,1,12110,1,0.00015014,1.3038e-09,0,0.00074056,-2.7478e-05,252.64,324.67,0,2.4018e+08,46.666,12109,13104,1,13104,1,0.0015649,8.1164e-09,0,0.0015649,0.0002373,3.7432e+08,2145.7,0,5.1436e+08,851.56,13103,12110,1,12110,1,0.00015014,9.8588e-10,0,0.00073358,-2.7567e-05,5.1492e+07,259.22,0,2.4874e+08,18.5,12109,11091,1,11091,1,-0.0012646,-3.2835e-09,0,7.0487e-06,-0.00029194,-5.1436e+08,-930.89,0,3.4996e+06,-319.28,11090,11613,1,11613,1,-0.00058344,-6.905e-10,0,0.00036679,-0.00016463,-2.3729e+08,-225.1,0,1.3231e+08,-61.083,11612,12607,1,12607,1,0.00088372,3.0546e-09,0,0.0011004,0.00010964,2.4945e+08,798.24,0,3.3884e+08,109.84,12606,574.93,0,574.93,0,0.00084673,2.4379e-09,0,0.00043682,0.00015833,2.7468e+08,684.59,0,1.3317e+08,190.13,574.93,1
1988,5.02,12110,1,12110,1,0.0001512,-5.7499e-10,0,0.00074226,-2.7673e-05,162.18,-182.05,0,2.4044e+08,66.684,12109,13104,1,13104,1,0.0015691,8.1069e-09,0,0.0015691,0.00023769,3.7431e+08,2213.4,0,5.1522e+08,773.44,13103,12110,1,12110,1,0.0001512,-1.4846e-10,0,0.00073522,-2.7763e-05,5.1812e+07,-36.86,0,2.4903e+08,34.238,12109,11091,1,11091,1,-0.0012667,-7.7986e-09,0,6.3392e-06,-0.00029273,-5.1522e+08,-2139.6,0,3.2354e+06,-221.95,11090,11613,1,11613,1,-0.00058401,-2.6467e-09,0,0.0003676,-0.00016513,-2.3752e+08,-783.97,0,1.325e+08,-56.109,11612,12607,1,12607,1,0.00088642,1.06e-09,0,0.0011028,0.00010975,2.4974e+08,313.07,0,3.391e+08,136.18,12606,574.93,0,574.93,0,0.00084862,3.0673e-09,0,0.00043795,0.00015868,2.7498e+08,893.7,0,1.3333e+08,177.89,574.93,1
1988,5.03,12110,1,12110,1,0.00015228,-6.4544e-11,0,0.00074399,-2.7869e-05,275.39,-41.44,0,2.4071e+08,17.415,12109,13104,1,13104,1,0.0015734,2.5343e-09,0,0.0015734,0.00023809,3.7431e+08,633.17,0,5.1608e+08,764.71,13103,12110,1,12110,1,0.00015228,3.315e-11,0,0.00073688,-2.7961e-05,5.2135e+07,8.7447,0,2.4934e+08,-14.83,12109,11091,1,11091,1,-0.0012688,-2.0795e-09,0,5.6199e-06,-0.00029352,-5.1608e+08,-711.7,0,2.9676e+06,-252.12,11090,11613,1,11613,1,-0.00058459,-6.154e-10,0,0.00036843,-0.00016563,-2.3776e+08,-188.99,0,1.3269e+08,-94.108,11612,12607,1,12607,1,0.00088915,4.4423e-10,0,0.0011053,0.00010986,2.5004e+08,127.74,0,3.3938e+08,69.563,12606,574.93,0,574.93,0,0.00085054,8.3596e-10,0,0.00043911,0.00015903,2.7529e+08,247,0,1.3348e+08,171.02,574.93,1
1988,5.04,12110,1,12110,1,0.00015336,-1.969e-09,0,0.0007457,-2.8068e-05,469.48,-581.5,0,2.4096e+08,106.1,12109,13104,1,13104,1,0.0015777,3.9113e-09,0,0.0015777,0.00023849,3.7429e+08,975.66,0,5.1694e+08,836.44,13103,12110,1,12110,1,0.00015336,-1.042e-09,0,0.00073852,-2.816e-05,5.2461e+07,-291.86,0,2.4963e+08,59.253,12109,11091,1,11091,1,-0.001271,-1.028e-08,0,4.888e-06,-0.00029431,-5.1694e+08,-2772.4,0,2.6953e+06,-138.69,11090,11613,1,11613,1,-0.00058516,-3.9746e-09,0,0.00036926,-0.00016614,-2.3799e+08,-1160.6,0,1.3287e+08,-21.441,11612,12607,1,12607,1,0.00089188,2.8891e-10,0,0.0011078,0.00010997,2.5033e+08,91.303,0,3.3964e+08,171.11,12606,574.93,0,574.93,0,0.00085243,3.0817e-09,0,0.00044026,0.00015939,2.7559e+08,884.21,0,1.3364e+08,177.68,574.93,1
1988,5.05,12110,1,12110,1,0.00015445,2.868e-10,0,0.00074744,-2.8267e-05,185.15,36.963,0,2.4123e+08,46.988,12109,13104,1,13104,1,0.001582,4.6355e-09,0,0.001582,0.00023888,3.7427e+08,1153.9,0,5.1779e+08,907.21,13103,12110,1,12110,1,0.00015445,4.3551e-11,0,0.00074019,-2.8362e-05,5.2788e+07,12.182,0,2.4993e+08,-2.7553,12109,11091,1,11091,1,-0.0012731,-1.6638e-09,0,4.1513e-06,-0.0002951,-5.1779e+08,-569.53,0,2.4214e+06,-207.61,11090,11613,1,11613,1,-0.00058573,-6.3409e-10,0,0.00037009,-0.00016665,-2.3822e+08,-208.43,0,1.3306e+08,-56.996,11612,12607,1,12607,1,0.00089464,1.2293e-09,0,0.0011103,0.00011008,2.5063e+08,296.6,0,3.3991e+08,95.133,12606,574.93,0,574.93,0,0.00085436,1.2097e-09,0,0.00044142,0.00015975,2.759e+08,329.54,0,1.3379e+08,184.77,574.93,1
1988,5.06,12110,1,12110,1,0.00015555,4.3522e-10,0,0.00074917,-2.8469e-05,-165.04,101.28,0,2.4148e+08,109.94,12109,13104,1,13104,1,0.0015863,6.822e-09,0,0.0015863,0.00023928,3.7424e+08,1730.2,0,5.1864e+08,883.49,13103,12110,1,12110,1,0.00015555,2.0358e-10,0,0.00074185,-2.8564e-05,5.3117e+07,59.987,0,2.5022e+08,52.032,12109,11091,1,11091,1,-0.0012751,-3.5797e-09,0,3.4091e-06,-0.00029589,-5.1864e+08,-888.19,0,2.1457e+06,-100.99,11090,11613,1,11613,1,-0.00058629,-7.0833e-10,0,0.00037092,-0.00016716,-2.3845e+08,-221.9,0,1.3325e+08,6.3043,11612,12607,1,12607,1,0.0008974,1.1669e-09,0,0.0011128,0.00011019,2.5092e+08,316.75,0,3.4017e+08,160.74,12606,574.93,0,574.93,0,0.00085627,1.7305e-09,0,0.00044258,0.0001601,2.762e+08,474.47,0,1.3395e+08,166.73,574.93,1
1988,5.07,12110,1,12110,1,0.00015666,1.7997e-09,0,0.00075088,-2.867e-05,100.97,507.94,0,2.4173e+08,83.493,12109,13104,1,13104,1,0.0015905,8.2186e-09,0,0.0015905,0.00023967,3.7421e+08,2214.5,0,5.1949e+08,1038.6,13103,12110,1,12110,1,0.00015666,1.4868e-09,0,0.00074348,-2.8767e-05,5.3447e+07,419.28,0,2.5051e+08,35.388,12109,11091,1,11091,1,-0.0012772,-4.2631e-09,0,2.6595e-06,-0.00029668,-5.1949e+08,-1045.3,0,1.8673e+06,-274.1,11090,11613,1,11613,1,-0.00058683,6.0476e-11,0,0.00037174,-0.00016766,-2.3867e+08,18.39,0,1.3343e+08,-61.386,11612,12607,1,12607,1,0.00090014,3.3994e-09,0,0.0011152,0.00011029,2.512e+08,969.19,0,3.4042e+08,150.47,12606,574.93,0,574.93,0,0.00085817,2.3019e-09,0,0.00044374,0.00016045,2.7649e+08,637.58,0,1.341e+08,224.96,574.93,1
1988,5.08,12110,1,12110,1,0.00015776,-5.7746e-12,0,0.00075261,-2.8873e-05,55.088,22.058,0,2.4199e+08,92.883,12109,13104,1,13104,1,0.0015948,3.6527e-09,0,0.0015948,0.00024006,3.7417e+08,912.81,0,5.2034e+08,837.48,13103,12110,1,12110,1,0.00015776,5.4393e-11,0,0.00074515,-2.897e-05,5.3776e+07,14.623,0,2.508e+08,25.887,12109,11091,1,11091,1,-0.0012793,-4.8099e-09,0,1.9105e-06,-0.00029748,-5.2034e+08,-1164.5,0,1.5894e+06,-120.28,11090,11613,1,11613,1,-0.00058739,-6.1216e-10,0,0.00037257,-0.00016817,-2.3889e+08,-149.51,0,1.3362e+08,-14.426,11612,12607,1,12607,1,0.00090291,7.4798e-10,0,0.0011177,0.00011039,2.5148e+08,236.33,0,3.4067e+08,137.92,12606,574.93,0,574.93,0,0.00086009,1.2103e-09,0,0.00044491,0.00016081,2.7679e+08,328.23,0,1.3425e+08,179.43,574.93,1
1988,5.09,12110,1,12110,1,0.00015888,-8.0964e-10,0,0.00075436,-2.9077e-05,-352.83,-216.16,0,2.4225e+08,133.71,12109,13104,1,13104,1,0.0015992,3.3191e-09,0,0.0015992,0.00024046,3.7414e+08,810.86,0,5.2119e+08,866.43,13103,12110,1,12110,1,0.00015888,-4.2182e-10,0,0.00074682,-2.9176e-05,5.4109e+07,-118.1,0,2.5109e+08,70.883,12109,11091,1,11091,1,-0.0012814,-6.2371e-09,0,1.151e-06,-0.00029828,-5.2119e+08,-1532.3,0,1.3078e+06,-50.62,11090,11613,1,11613,1,-0.00058794,-1.641e-09,0,0.00037341,-0.00016869,-2.3912e+08,-460.46,0,1.338e+08,21.183,11612,12607,1,12607,1,0.0009057,2.7064e-10,0,0.0011202,0.0001105,2.5177e+08,84.607,0,3.4093e+08,174.02,12606,574.93,0,574.93,0,0.00086202,1.5621e-09,0,0.00044608,0.00016117,2.7709e+08,417.47,0,1.344e+08,173.35,574.93,1
1988,5.1,12110,1,12110,1,0.00016,-3.0337e-09,0,0.00075606,-2.9282e-05,66.392,-868.52,0,2.4249e+08,162.39,12109,13104,1,13104,1,0.0016035,7.2231e-09,0,0.0016035,0.00024084,3.7408e+08,1783.8,0,5.2203e+08,893.52,13103,12110,1,12110,1,0.00016,-2.1218e-09,0,0.00074846,-2.9382e-05,5.4442e+07,-581.64,0,2.5137e+08,130.6,12109,11091,1,11091,1,-0.0012835,-1.2846e-08,0,3.8082e-07,-0.00029908,-5.2203e+08,-3462.6,0,1.0224e+06,-174.9,11090,11613,1,11613,1,-0.00058845,-6.2543e-09,0,0.00037423,-0.0001692,-2.3933e+08,-1791.6,0,1.3398e+08,19.901,11612,12607,1,12607,1,0.00090846,2.5605e-10,0,0.0011227,0.0001106,2.5204e+08,82.348,0,3.4116e+08,256.58,12606,574.93,0,574.93,0,0.0008639,4.325e-09,0,0.00044724,0.00016152,2.7737e+08,1209.7,0,1.3455e+08,184.8,574.93,1
1988,5.11,12110,1,12110,1,0.00016113,-8.0792e-11,0,0.00075784,-2.9488e-05,425.89,-66.46,0,2.4274e+08,77.989,12109,13104,1,13104,1,0.0016078,5.3644e-09,0,0.0016078,0.00024123,3.7404e+08,1322.7,0,5.2288e+08,1076.9,13103,12110,1,12110,1,0.00016112,-4.2643e-12,0,0.00075012,-2.9589e-05,5.4777e+07,-1.0374,0,2.5166e+08,15,12109,11091,1,11091,1,-0.0012856,-4.431e-09,0,3.7532e-07,-0.00029988,-5.2288e+08,-1142.9,0,7.3715e+05,-251.69,11090,11613,1,11613,1,-0.000589,-1.2208e-09,0,0.00037507,-0.00016971,-2.3955e+08,-383.7,0,1.3416e+08,-66.255,11612,12607,1,12607,1,0.00091126,1.1138e-09,0,0.0011252,0.0001107,2.5233e+08,269.83,0,3.4142e+08,149.31,12606,574.93,0,574.93,0,0.00086584,1.6893e-09,0,0.00044838,0.00016188,2.7767e+08,471.44,0,1.3471e+08,228.79,574.93,1
1988,5.12,12110,1,12110,1,0.00016226,-1.2083e-09,0,0.00075963,-2.9696e-05,173.89,-376.91,0,2.4299e+08,124.04,12109,13104,1,13104,1,0.0016122,3.5479e-09,0,0.0016122,0.00024163,3.7398e+08,813.77,0,5.2373e+08,1115.7,13103,12110,1,12110,1,0.00016226,-1.0891e-09,0,0.00075179,-2.9798e-05,5.5113e+07,-328.83,0,2.5194e+08,40.595,12109,11091,1,11091,1,-0.0012877,-6.0144e-09,0,1.1576e-06,-0.00030069,-5.2373e+08,-1532,0,4.4897e+05,-145.57,11090,11613,1,11613,1,-0.00058953,-2.276e-09,0,0.0003759,-0.00017023,-2.3977e+08,-706.64,0,1.3434e+08,-35.032,11612,12607,1,12607,1,0.00091406,1.0506e-10,0,0.0011277,0.0001108,2.5261e+08,23.804,0,3.4166e+08,207.45,12606,574.93,0,574.93,0,0.00086776,1.6806e-09,0,0.00044947,0.00016224,2.7796e+08,484.24,0,1.3486e+08,233.59,574.93,1
1988,5.13,12110,1,12110,1,0.00016341,2.7136e-09,0,0.00076143,-2.9906e-05,848.19,737.08,0,2.4323e+08,113.16,12109,13104,1,13104,1,0.0016165,1.3863e-08,0,0.0016165,0.00024202,3.7393e+08,3637,0,5.2457e+08,1284.9,13103,12110,1,12110,1,0.00016341,1.934e-09,0,0.00075347,-3.001e-05,5.5453e+07,529.2,0,2.5222e+08,48.6,12109,11091,1,11091,1,-0.0012897,-5.3887e-09,0,1.9445e-06,-0.00030149,-5.2457e+08,-1349.9,0,1.5614e+05,-345.27,11090,11613,1,11613,1,-0.00059005,-3.0003e-10,0,0.00037673,-0.00017075,-2.3998e+08,-79.842,0,1.3452e+08,-54.717,11612,12607,1,12607,1,0.00091687,5.324e-09,0,0.0011302,0.0001109,2.5288e+08,1440.5,0,3.419e+08,222.64,12606,574.93,0,574.93,0,0.00086968,3.7607e-09,0,0.00045056,0.00016259,2.7824e+08,1023.1,0,1.3501e+08,261.36,574.93,1
1988,5.14,12110,1,12110,1,0.00016456,-7.5123e-10,0,0.00076324,-3.0116e-05,203.56,-199.6,0,2.4349e+08,124.29,12109,13104,1,13104,1,0.0016209,4.4022e-09,0,0.0016209,0.00024241,3.7386e+08,1083,0,5.2541e+08,1089.2,13103,12110,1,12110,1,0.00016456,-5.5538e-10,0,0.00075514,-3.0221e-05,5.5792e+07,-148.62,0,2.525e+08,38.327,12109,11091,1,11091,1,-0.0012918,-5.6976e-09,0,2.7392e-06,-0.0003023,-5.2541e+08,-1399.5,0,1.3194e+05,-109.29,11090,11613,1,11613,1,-0.00059058,-1.8476e-09,0,0.00037757,-0.00017127,-2.4019e+08,-510.42,0,1.347e+08,-10.667,11612,12607,1,12607,1,0.0009197,4.2287e-10,0,0.0011327,0.00011101,2.5316e+08,130.24,0,3.4214e+08,177.5,12606,574.93,0,574.93,0,0.00087162,1.6137e-09,0,0.00045166,0.00016295,2.7853e+08,445.77,0,1.3515e+08,221.94,574.93,1
1988,5.15,12110,1,12110,1,0.00016572,1.7778e-09,0,0.00076504,-3.0328e-05,156.49,503.85,0,2.4375e+08,167.43,12109,13104,1,13104,1,0.0016253,1.2766e-08,0,0.0016253,0.0002428,3.7378e+08,3445.3,0,5.2626e+08,1276.7,13103,12110,1,12110,1,0.00016572,9.2422e-10,0,0.00075681,-3.0434e-05,5.6133e+07,251.76,0,2.5278e+08,76.532,12109,11091,1,11091,1,-0.0012939,-6.949e-09,0,3.5417e-06,-0.00030311,-5.2626e+08,-1715.9,0,4.2827e+05,-300.15,11090,11613,1,11613,1,-0.00059109,-4.35e-10,0,0.0003784,-0.00017179,-2.404e+08,-126.67,0,1.3488e+08,-30.759,11612,12607,1,12607,1,0.00092253,3.5807e-09,0,0.0011352,0.0001111,2.5343e+08,1006.9,0,3.4237e+08,318.17,12606,574.93,0,574.93,0,0.00087355,3.384e-09,0,0.00045276,0.00016331,2.7882e+08,935.74,0,1.3526e+08,287.77,574.93,1
1988,5.16,12110,1,12110,1,0.00016688,-2.7224e-09,0,0.00076685,-3.0541e-05,91.857,-746.44,0,2.4401e+08,126.1,12109,13104,1,13104,1,0.0016297,1.8471e-09,0,0.0016297,0.00024319,3.7371e+08,632.57,0,5.271e+08,1111.5,13103,12110,1,12110,1,0.00016688,-2.5786e-09,0,0.00075849,-3.0649e-05,5.6476e+07,-722.48,0,2.5305e+08,55.645,12109,11091,1,11091,1,-0.0012959,-8.5015e-09,0,4.3431e-06,-0.00030392,-5.271e+08,-2142.7,0,7.2383e+05,-836.67,11090,11613,1,11613,1,-0.0005916,-4.7014e-09,0,0.00037924,-0.00017232,-2.4061e+08,-1285.8,0,1.3506e+08,-8.6197,11612,12607,1,12607,1,0.00092537,-6.0234e-10,0,0.0011377,0.0001112,2.537e+08,-182.97,0,3.426e+08,173.12,12606,574.93,0,574.93,0,0.00087548,2.4885e-09,0,0.00045386,0.00016367,2.791e+08,685.86,0,1.3537e+08,229.96,574.93,1
1988,5.17,12110,1,12110,1,0.00016805,-1.4848e-09,0,0.00076866,-3.0755e-05,-265.46,-443.39,0,2.4427e+08,166.17,12109,13104,1,13104,1,0.0016341,5.7332e-09,0,0.0016341,0.00024358,3.7363e+08,1388,0,5.2794e+08,1265.2,13103,12110,1,12110,1,0.00016805,-1.0398e-09,0,0.00076016,-3.0864e-05,5.682e+07,-306.03,0,2.5333e+08,75.964,12109,11091,1,11091,1,-0.001298,-7.6957e-09,0,5.1545e-06,-0.00030474,-5.2794e+08,-1980.1,0,1.0232e+06,-401.62,11090,11613,1,11613,1,-0.00059211,-3.2037e-09,0,0.00038008,-0.00017284,-2.4082e+08,-927.63,0,1.3523e+08,7.6241,11612,12607,1,12607,1,0.00092822,1.078e-10,0,0.0011403,0.0001113,2.5397e+08,29.108,0,3.4283e+08,236.73,12606,574.93,0,574.93,0,0.00087742,2.3489e-09,0,0.00045497,0.00016403,2.7938e+08,659.54,0,1.3548e+08,250.34,574.93,1
1988,5.18,12110,1,12110,1,0.00016923,-9.6888e-10,0,0.00077046,-3.097e-05,473.51,-313.5,0,2.4453e+08,162.87,12109,13104,1,13104,1,0.0016385,8.5812e-09,0,0.0016385,0.00024396,3.7353e+08,2090.3,0,5.2877e+08,1298.1,13103,12110,1,12110,1,0.00016923,-5.319e-10,0,0.00076183,-3.1081e-05,5.7165e+07,-157.68,0,2.536e+08,74.501,12109,11091,1,11091,1,-0.0013,-9.0955e-09,0,5.9729e-06,-0.00030556,-5.2877e+08,-2297.1,0,1.3248e+06,-154.54,11090,11613,1,11613,1,-0.0005926,-2.9715e-09,0,0.00038092,-0.00017337,-2.4102e+08,-884.77,0,1.354e+08,-0.0027671,11612,12607,1,12607,1,0.00093107,7.5358e-10,0,0.0011428,0.00011139,2.5423e+08,179.57,0,3.4305e+08,217.72,12606,574.93,0,574.93,0,0.00087935,2.8988e-09,0,0.00045607,0.00016439,2.7966e+08,796.48,0,1.3559e+08,250.75,574.93,1
1988,5.19,12110,1,12110,1,0.00017042,-8.0782e-10,0,0.00077228,-3.1187e-05,252.49,-275.57,0,2.4479e+08,151.19,12109,13104,1,13104,1,0.001643,6.5862e-09,0,0.001643,0.00024435,3.7344e+08,1585.1,0,5.2961e+08,1385.1,13103,12110,1,12110,1,0.00017041,-5.6678e-10,0,0.00076352,-3.1298e-05,5.7512e+07,-178.09,0,2.5387e+08,53.66,12109,11091,1,11091,1,-0.0013021,-7.8147e-09,0,6.7946e-06,-0.00030638,-5.2961e+08,-1974.7,0,1.6272e+06,-122.09,11090,11613,1,11613,1,-0.00059311,-2.3304e-09,0,0.00038176,-0.0001739,-2.4122e+08,-713.85,0,1.3558e+08,-18.974,11612,12607,1,12607,1,0.00093394,7.7748e-10,0,0.0011453,0.00011149,2.545e+08,183.31,0,3.4327e+08,213.56,12606,574.93,0,574.93,0,0.0008813,2.2745e-09,0,0.00045718,0.00016475,2.7994e+08,625.02,0,1.357e+08,265.82,574.93,1
1988,5.2,12110,1,12110,1,0.00017161,-8.6087e-10,0,0.0007741,-3.1404e-05,151.41,-295.04,0,2.4504e+08,193.33,12109,13104,1,13104,1,0.0016474,8.8857e-09,0,0.0016474,0.00024473,3.7335e+08,2157,0,5.3044e+08,1478.5,13103,12110,1,12110,1,0.0001716,-4.1685e-10,0,0.00076519,-3.1518e-05,5.786e+07,-126.45,0,2.5414e+08,83.45,12109,11091,1,11091,1,-0.0013042,-9.9526e-09,0,7.626e-06,-0.0003072,-5.3044e+08,-2562.7,0,1.9329e+06,-108.36,11090,11613,1,11613,1,-0.00059359,-2.827e-09,0,0.0003826,-0.00017443,-2.4142e+08,-863.39,0,1.3575e+08,3.881,11612,12607,1,12607,1,0.00093681,1.0939e-09,0,0.0011478,0.00011158,2.5476e+08,242.71,0,3.4349e+08,266.36,12606,574.93,0,574.93,0,0.00088323,3.1289e-09,0,0.0004583,0.00016511,2.8021e+08,855.7,0,1.3581e+08,283.91,574.93,1
1988,5.21,12110,1,12110,1,0.00017281,-1.3952e-09,0,0.00077594,-3.1624e-05,-122.4,-452.19,0,2.453e+08,163.89,12109,13104,1,13104,1,0.0016519,2.2412e-09,0,0.0016519,0.00024513,3.7326e+08,767.39,0,5.3129e+08,1475.6,13103,12110,1,12110,1,0.00017281,-1.5376e-09,0,0.0007669,-3.1739e-05,5.8211e+07,-442.74,0,2.5441e+08,39.567,12109,11091,1,11091,1,-0.0013062,-5.9738e-09,0,8.4613e-06,-0.00030803,-5.3129e+08,-2044.8,0,2.2397e+06,-166.15,11090,11613,1,11613,1,-0.0005941,-2.9394e-09,0,0.00038346,-0.00017496,-2.4162e+08,-914.35,0,1.3593e+08,-5.7709,11612,12607,1,12607,1,0.00093971,2.6976e-10,0,0.0011504,0.00011168,2.5502e+08,57.85,0,3.4347e+08,237.84,12606,574.93,0,574.93,0,0.00088521,1.7916e-09,0,0.00045943,0.00016547,2.805e+08,548.64,0,1.3593e+08,292.85,574.93,1
1988,5.22,12110,1,12110,1,0.00017403,-1.5746e-10,0,0.00077777,-3.1846e-05,81.851,-110.38,0,2.4555e+08,206.17,12109,13104,1,13104,1,0.0016564,8.9811e-09,0,0.0016564,0.00024551,3.7314e+08,2054.3,0,5.3212e+08,1552.1,13103,12110,1,12110,1,0.00017402,-4.8441e-10,0,0.00076858,-3.1962e-05,5.8564e+07,-145.08,0,2.5467e+08,80.835,12109,11091,1,11091,1,-0.0013083,-6.5925e-09,0,9.3132e-06,-0.00030885,-5.3212e+08,-1599,0,2.5523e+06,-100.94,11090,11613,1,11613,1,-0.00059457,-1.7723e-09,0,0.0003843,-0.0001755,-2.4181e+08,-580.84,0,1.361e+08,22.049,11612,12607,1,12607,1,0.00094262,1.2889e-09,0,0.0011529,0.00011177,2.5528e+08,296.26,0,3.4342e+08,273.18,12606,574.93,0,574.93,0,0.00088716,2.3207e-09,0,0.00046056,0.00016584,2.8077e+08,605.57,0,1.3603e+08,291.28,574.93,1
1988,5.23,12110,1,12110,1,0.00017524,-2.7011e-09,0,0.00077958,-3.2067e-05,-511.33,-821.25,0,2.4579e+08,316,12109,13104,1,13104,1,0.0016608,9.3307e-09,0,0.0016608,0.00024589,3.7302e+08,2158.3,0,5.3295e+08,1679.1,13103,12110,1,12110,1,0.00017523,-2.209e-09,0,0.00077026,-3.2185e-05,5.8916e+07,-656.51,0,2.5493e+08,198.75,12109,11091,1,11091,1,-0.0013103,-1.2809e-08,0,1.0167e-05,-0.00030968,-5.3295e+08,-3254.5,0,2.8651e+06,-173.63,11090,11613,1,11613,1,-0.00059503,-5.7341e-09,0,0.00038514,-0.00017603,-2.42e+08,-1696.7,0,1.3627e+08,85.286,11612,12607,1,12607,1,0.0009455,2.3903e-10,0,0.0011554,0.00011186,2.5553e+08,55.905,0,3.4336e+08,449.68,12606,574.93,0,574.93,0,0.00088908,4.1617e-09,0,0.00046167,0.00016619,2.8103e+08,1151,0,1.3614e+08,331.42,574.93,1
1988,5.24,12110,1,12110,1,0.00017646,-1.5008e-09,0,0.00078144,-3.229e-05,-784.11,-513.26,0,2.4605e+08,255,12109,13104,1,13104,1,0.0016654,5.4422e-09,0,0.0016654,0.00024629,3.7292e+08,1217.2,0,5.3379e+08,1759.7,13103,12110,1,12110,1,0.00017645,-1.7794e-09,0,0.00077197,-3.2409e-05,5.927e+07,-520.24,0,2.552e+08,114.51,12109,11091,1,11091,1,-0.0013124,-6.4782e-09,0,1.1016e-05,-0.00031051,-5.3379e+08,-1911.2,0,3.1758e+06,-68.753,11090,11613,1,11613,1,-0.00059553,-3.8114e-09,0,0.000386,-0.00017657,-2.422e+08,-1184.8,0,1.3644e+08,38.201,11612,12607,1,12607,1,0.00094844,7.8088e-10,0,0.001158,0.00011195,2.5579e+08,207.82,0,3.4333e+08,355.42,12606,574.93,0,574.93,0,0.00089107,2.4516e-09,0,0.00046282,0.00016656,2.8131e+08,719.8,0,1.3625e+08,329.05,574.93,1
1988,5.25,12110,1,12110,1,0.0001777,-4.211e-10,0,0.00078326,-3.2515e-05,-165.48,-213.38,0,2.4629e+08,309.18,12109,13104,1,13104,1,0.0016698,1.391e-08,0,0.0016698,0.00024666,3.7278e+08,3322.2,0,5.3461e+08,1843.8,13103,12110,1,12110,1,0.00017769,-5.1563e-10,0,0.00077365,-3.2637e-05,5.9628e+07,-159.15,0,2.5545e+08,202.59,12109,11091,1,11091,1,-0.0013144,-1.1052e-08,0,1.189e-05,-0.00031134,-5.3461e+08,-2792.9,0,3.4955e+06,-148.27,11090,11613,1,11613,1,-0.00059597,-3.5289e-09,0,0.00038684,-0.00017711,-2.4238e+08,-1061.1,0,1.366e+08,59.878,11612,12607,1,12607,1,0.00095136,2.1263e-09,0,0.0011605,0.00011204,2.5604e+08,486.59,0,3.4326e+08,419.5,12606,574.93,0,574.93,0,0.00089301,4.4678e-09,0,0.00046395,0.00016692,2.8157e+08,1188.6,0,1.3636e+08,347.96,574.93,1
1988,5.26,12110,1,12110,1,0.00017893,-4.9905e-10,0,0.0007851,-3.2741e-05,2.1337,-230.44,0,2.4653e+08,279.1,12109,13104,1,13104,1,0.0016744,1.2731e-08,0,0.0016744,0.00024705,3.7266e+08,3057.3,0,5.3544e+08,1930.1,13103,12110,1,12110,1,0.00017892,-4.0079e-10,0,0.00077535,-3.2864e-05,5.9985e+07,-129.02,0,2.5571e+08,142.81,12109,11091,1,11091,1,-0.0013164,-1.1032e-08,0,1.2764e-05,-0.00031218,-5.3544e+08,-2804.3,0,3.8143e+06,-137.74,11090,11613,1,11613,1,-0.00059643,-3.369e-09,0,0.00038769,-0.00017765,-2.4257e+08,-1005.8,0,1.3677e+08,26.721,11612,12607,1,12607,1,0.0009543,2.0563e-09,0,0.0011631,0.00011213,2.5629e+08,461.37,0,3.432e+08,389.86,12606,574.93,0,574.93,0,0.00089496,4.1119e-09,0,0.00046508,0.00016729,2.8184e+08,1110.2,0,1.3646e+08,365.49,574.93,1
1988,5.27,12110,1,12110,1,0.00018017,-3.081e-10,0,0.00078692,-3.2967e-05,-816.58,-170.84,0,2.4677e+08,282.82,12109,13104,1,13104,1,0.0016788,1.1741e-08,0,0.0016788,0.00024742,3.7252e+08,2814.5,0,5.3625e+08,2036.8,13103,12110,1,12110,1,0.00018016,2.4324e-10,0,0.00077704,-3.3092e-05,6.0342e+07,79.773,0,2.5596e+08,135.12,12109,11091,1,11091,1,-0.0013185,-1.2086e-08,0,1.3642e-05,-0.000313,-5.3625e+08,-3104.6,0,4.1346e+06,-145.82,11090,11613,1,11613,1,-0.00059688,-3.0861e-09,0,0.00038853,-0.00017819,-2.4275e+08,-955.22,0,1.3694e+08,14.181,11612,12607,1,12607,1,0.00095722,2.2752e-09,0,0.0011656,0.00011221,2.5653e+08,535.16,0,3.4313e+08,410.61,12606,574.93,0,574.93,0,0.00089691,4.1518e-09,0,0.00046622,0.00016765,2.821e+08,1125.5,0,1.3657e+08,401.67,574.93,1
1988,5.28,12110,1,12110,1,0.00018143,-2.1955e-09,0,0.00078881,-3.3197e-05,242.03,-699.11,0,2.4703e+08,206.09,12109,13104,1,13104,1,0.0016835,3.1475e-09,0,0.0016835,0.00024782,3.7241e+08,770.71,0,5.3711e+08,1843.4,13103,12110,1,12110,1,0.00018142,-2.5377e-09,0,0.00077878,-3.3323e-05,6.0705e+07,-707.29,0,2.5623e+08,59.112,12109,11091,1,11091,1,-0.0013206,-7.0751e-09,0,1.4527e-05,-0.00031386,-5.3711e+08,-2187.7,0,4.4567e+06,-272.39,11090,11613,1,11613,1,-0.00059736,-4.4485e-09,0,0.0003894,-0.00017874,-2.4295e+08,-1412.9,0,1.3711e+08,-40.304,11612,12607,1,12607,1,0.00096021,6.7361e-11,0,0.0011682,0.00011231,2.5679e+08,18.813,0,3.4308e+08,348.67,12606,574.93,0,574.93,0,0.00089892,2.5058e-09,0,0.00046739,0.00016802,2.8238e+08,756.59,0,1.3668e+08,383.06,574.93,1
1988,5.29,12110,1,12110,1,0.00018271,-1.8068e-10,0,0.00079068,-3.343e-05,490.87,-152.81,0,2.4727e+08,223.14,12109,13104,1,13104,1,0.001688,9.3371e-09,0,0.001688,0.0002482,3.7226e+08,2073.9,0,5.3793e+08,1965.4,13103,12110,1,12110,1,0.0001827,-6.2517e-10,0,0.00078049,-3.3559e-05,6.1072e+07,-187.15,0,2.5648e+08,73.661,12109,11091,1,11091,1,-0.0013226,-6.8757e-09,0,1.5435e-05,-0.0003147,-5.3793e+08,-1655.6,0,4.7864e+06,-109.08,11090,11613,1,11613,1,-0.0005978,-2.3878e-09,0,0.00039026,-0.0001793,-2.4313e+08,-773.93,0,1.3727e+08,-6.8577,11612,12607,1,12607,1,0.00096321,1.9872e-09,0,0.0011708,0.00011239,2.5704e+08,435.22,0,3.43e+08,316.55,12606,574.93,0,574.93,0,0.0009009,2.7985e-09,0,0.00046855,0.00016839,2.8263e+08,744.06,0,1.3679e+08,361.6,574.93,1
1988,5.3,12110,1,12110,1,0.00018398,-1.4215e-09,0,0.00079252,-3.3662e-05,265.17,-481.82,0,2.475e+08,296.32,12109,13104,1,13104,1,0.0016926,1.1777e-08,0,0.0016926,0.00024858,3.7209e+08,2674,0,5.3875e+08,2128.2,13103,12110,1,12110,1,0.00018397,-1.5516e-09,0,0.00078219,-3.3792e-05,6.1436e+07,-471.75,0,2.5672e+08,113.96,12109,11091,1,11091,1,-0.0013246,-1.2693e-08,0,1.6345e-05,-0.00031554,-5.3875e+08,-3088.4,0,5.1169e+06,-122.75,11090,11613,1,11613,1,-0.00059822,-3.9605e-09,0,0.00039111,-0.00017984,-2.433e+08,-1210.9,0,1.3743e+08,11.977,11612,12607,1,12607,1,0.00096617,1.0668e-09,0,0.0011733,0.00011247,2.5727e+08,230.41,0,3.4291e+08,446.46,12606,574.93,0,574.93,0,0.00090286,3.8249e-09,0,0.00046969,0.00016875,2.8289e+08,1016.5,0,1.3689e+08,420.61,574.93,1
1988,5.31,12110,1,12110,1,0.00018526,-1.8541e-09,0,0.00079441,-3.3896e-05,253.27,-609.23,0,2.4775e+08,252.99,12109,13104,1,13104,1,0.0016972,6.6852e-09,0,0.0016972,0.00024897,3.7195e+08,1463.2,0,5.3959e+08,2098.4,13103,12110,1,12110,1,0.00018525,-2.1948e-09,0,0.00078393,-3.4028e-05,6.1803e+07,-614.26,0,2.5698e+08,70.854,12109,11091,1,11091,1,-0.0013267,-8.5763e-09,0,1.7252e-05,-0.0003164,-5.3959e+08,-2528,0,5.4451e+06,-115,11090,11613,1,11613,1,-0.00059868,-4.332e-09,0,0.00039198,-0.0001804,-2.4349e+08,-1366.6,0,1.376e+08,-20.762,11612,12607,1,12607,1,0.00096919,6.1206e-10,0,0.0011759,0.00011256,2.5752e+08,168.51,0,3.4284e+08,380.91,12606,574.93,0,574.93,0,0.00090487,2.774e-09,0,0.00047087,0.00016913,2.8316e+08,808.06,0,1.37e+08,410.03,574.93,1
1988,5.32,12110,1,12110,1,0.00018656,-1.515e-09,0,0.00079628,-3.4133e-05,242.93,-524.03,0,2.4798e+08,290.18,12109,13104,1,13104,1,0.0017018,1.0443e-08,0,0.0017018,0.00024935,3.7178e+08,2294,0,5.4041e+08,2143.3,13103,12110,1,12110,1,0.00018655,-1.8756e-09,0,0.00078564,-3.4267e-05,6.2174e+07,-553.3,0,2.5722e+08,143.59,12109,11091,1,11091,1,-0.0013287,-1.0261e-08,0,1.8179e-05,-0.00031725,-5.4041e+08,-2401.8,0,5.78e+06,-126.73,11090,11613,1,11613,1,-0.0005991,-4.2826e-09,0,0.00039284,-0.00018095,-2.4366e+08,-1307.6,0,1.3776e+08,24.939,11612,12607,1,12607,1,0.00097221,1.0668e-09,0,0.0011785,0.00011264,2.5776e+08,268.59,0,3.4275e+08,399.03,12606,574.93,0,574.93,0,0.00090685,3.553e-09,0,0.00047204,0.00016949,2.8341e+08,970.34,0,1.371e+08,403.34,574.93,1
1988,5.33,12110,1,12110,1,0.00018786,-2.9557e-09,0,0.00079815,-3.437e-05,515.33,-933.12,0,2.4821e+08,327.62,12109,13104,1,13104,1,0.0017065,1.1606e-08,0,0.0017065,0.00024973,3.7162e+08,2543.6,0,5.4124e+08,2192.2,13103,12110,1,12110,1,0.00018785,-2.9317e-09,0,0.00078736,-3.4505e-05,6.2544e+07,-875.43,0,2.5747e+08,207.52,12109,11091,1,11091,1,-0.0013307,-1.3028e-08,0,1.9108e-05,-0.00031811,-5.4124e+08,-3763.5,0,6.1153e+06,-218.66,11090,11613,1,11613,1,-0.00059952,-6.9872e-09,0,0.0003937,-0.00018151,-2.4383e+08,-2033.9,0,1.3792e+08,38.441,11612,12607,1,12607,1,0.00097523,1.1024e-09,0,0.0011811,0.00011272,2.5799e+08,283.39,0,3.4265e+08,460.84,12606,574.93,0,574.93,0,0.00090884,5.1331e-09,0,0.00047321,0.00016986,2.8366e+08,1427.5,0,1.372e+08,420.44,574.93,1
1988,5.34,12110,1,12110,1,0.00018916,-3.2982e-09,0,0.00080001,-3.4608e-05,219.74,-1063.2,0,2.4844e+08,347.07,12109,13104,1,13104,1,0.0017111,1.804e-08,0,0.0017111,0.00025011,3.7144e+08,4147.1,0,5.4206e+08,2322.4,13103,12110,1,12110,1,0.00018915,-2.5929e-09,0,0.00078907,-3.4744e-05,6.2914e+07,-785.22,0,2.5771e+08,240.78,12109,11091,1,11091,1,-0.0013327,-1.68e-08,0,2.0038e-05,-0.00031897,-5.4206e+08,-4889.2,0,6.45e+06,-288.34,11090,11613,1,11613,1,-0.00059993,-9.0707e-09,0,0.00039456,-0.00018207,-2.4399e+08,-2583.3,0,1.3808e+08,28.932,11612,12607,1,12607,1,0.00097824,1.5712e-09,0,0.0011837,0.0001128,2.5822e+08,377.27,0,3.4255e+08,505.82,12606,574.93,0,574.93,0,0.00091081,6.9411e-09,0,0.00047438,0.00017023,2.8391e+08,1932.2,0,1.3731e+08,462.75,574.93,1
1988,5.35,12110,1,12110,1,0.00019047,4.8739e-09,0,0.0008019,-3.4847e-05,373.26,1185.8,0,2.4867e+08,272.26,12109,13104,1,13104,1,0.0017157,2.0998e-08,0,0.0017157,0.00025048,3.713e+08,4958.7,0,5.4286e+08,2745.2,13103,12110,1,12110,1,0.00019046,3.2963e-09,0,0.00079082,-3.4987e-05,6.3289e+07,884.67,0,2.5795e+08,71.413,12109,11091,1,11091,1,-0.0013347,-5.5872e-09,0,2.0978e-05,-0.00031981,-5.4286e+08,-1267.5,0,6.787e+06,-262.88,11090,11613,1,11613,1,-0.00060036,1.9624e-10,0,0.00039542,-0.00018263,-2.4417e+08,55.261,0,1.3825e+08,-60.652,11612,12607,1,12607,1,0.0009813,9.5567e-09,0,0.0011863,0.00011288,2.5846e+08,2271.2,0,3.4246e+08,401.26,12606,574.93,0,574.93,0,0.00091282,5.4785e-09,0,0.00047557,0.0001706,2.8417e+08,1320.1,0,1.3741e+08,527.77,574.93,1
1988,5.36,12110,1,12110,1,0.0001918,-4.2876e-10,0,0.00080381,-3.509e-05,233.64,-189.67,0,2.4891e+08,301.56,12109,13104,1,13104,1,0.0017204,1.2814e-08,0,0.0017204,0.00025087,3.711e+08,2983.2,0,5.437e+08,2541.6,13103,12110,1,12110,1,0.0001918,-7.6506e-10,0,0.00079257,-3.5232e-05,6.3666e+07,-231.68,0,2.582e+08,114.86,12109,11091,1,11091,1,-0.0013368,-1.1255e-08,0,2.1945e-05,-0.00032068,-5.437e+08,-2566.6,0,7.1337e+06,-171.02,11090,11613,1,11613,1,-0.00060078,-2.6694e-09,0,0.0003963,-0.0001832,-2.4434e+08,-809.29,0,1.384e+08,-6.8694,11612,12607,1,12607,1,0.00098438,1.6751e-09,0,0.0011889,0.00011296,2.587e+08,364.97,0,3.4235e+08,438.95,12606,574.93,0,574.93,0,0.00091484,3.482e-09,0,0.00047677,0.00017098,2.8442e+08,911.7,0,1.3752e+08,479.01,574.93,1
1988,5.37,12110,1,12110,1,0.00019314,-1.1273e-09,0,0.00080568,-3.5334e-05,178.54,-367.61,0,2.4912e+08,380.72,12109,13104,1,13104,1,0.0017251,1.5242e-08,0,0.0017251,0.00025124,3.709e+08,3556.6,0,5.4451e+08,2764.1,13103,12110,1,12110,1,0.00019313,-6.1695e-10,0,0.00079429,-3.5477e-05,6.4044e+07,-184.31,0,2.5842e+08,212.82,12109,11091,1,11091,1,-0.0013387,-1.554e-08,0,2.2915e-05,-0.00032154,-5.4451e+08,-3609.1,0,7.48e+06,-178.35,11090,11613,1,11613,1,-0.00060116,-4.5799e-09,0,0.00039715,-0.00018376,-2.4449e+08,-1317.6,0,1.3856e+08,41.663,11612,12607,1,12607,1,0.00098744,1.5198e-09,0,0.0011915,0.00011304,2.5892e+08,346.6,0,3.4222e+08,516.16,12606,574.93,0,574.93,0,0.00091682,4.8421e-09,0,0.00047795,0.00017134,2.8466e+08,1276.3,0,1.3762e+08,519.97,574.93,1
1988,5.38,12110,1,12110,1,0.00019448,-2.6451e-09,0,0.00080759,-3.5579e-05,110.62,-802.9,0,2.4936e+08,322.94,12109,13104,1,13104,1,0.0017298,8.7352e-09,0,0.0017298,0.00025163,3.7072e+08,2173.3,0,5.4535e+08,2664.8,13103,12110,1,12110,1,0.00019447,-2.7995e-09,0,0.00079604,-3.5724e-05,6.4422e+07,-784.17,0,2.5867e+08,125.04,12109,11091,1,11091,1,-0.0013408,-1.1233e-08,0,2.3876e-05,-0.00032242,-5.4535e+08,-3081.7,0,7.8222e+06,-225.11,11090,11613,1,11613,1,-0.00060158,-5.4431e-09,0,0.00039804,-0.00018433,-2.4466e+08,-1563.4,0,1.3872e+08,13.863,11612,12607,1,12607,1,0.00099053,1.2628e-10,0,0.0011941,0.00011312,2.5915e+08,31.218,0,3.4212e+08,455.96,12606,574.93,0,574.93,0,0.00091885,3.5556e-09,0,0.00047916,0.00017172,2.8492e+08,1034.4,0,1.3772e+08,509.22,574.93,1
1988,5.39,12110,1,12110,1,0.00019584,3.0439e-10,0,0.0008095,-3.5827e-05,123.85,-15.319,0,2.4958e+08,367.92,12109,13104,1,13104,1,0.0017345,1.3973e-08,0,0.0017345,0.00025201,3.7052e+08,3070.3,0,5.4616e+08,2960.3,13103,12110,1,12110,1,0.00019583,-2.4217e-10,0,0.00079779,-3.5974e-05,6.4805e+07,-77.505,0,2.589e+08,121.46,12109,11091,1,11091,1,-0.0013428,-1.1244e-08,0,2.4855e-05,-0.00032329,-5.4616e+08,-2486.8,0,8.17e+06,-123.1,11090,11613,1,11613,1,-0.00060197,-2.2173e-09,0,0.00039891,-0.0001849,-2.4482e+08,-710.17,0,1.3887e+08,1.6991,11612,12607,1,12607,1,0.00099364,2.69e-09,0,0.0011967,0.00011319,2.5938e+08,612.8,0,3.42e+08,522.05,12606,574.93,0,574.93,0,0.00092087,3.4684e-09,0,0.00048037,0.0001721,2.8516e+08,892.58,0,1.3783e+08,562.95,574.93,1
1988,5.4,12110,1,12110,1,0.00019721,1.4166e-09,0,0.00081142,-3.6077e-05,273.87,319.49,0,2.498e+08,422.26,12109,13104,1,13104,1,0.0017393,1.7027e-08,0,0.0017393,0.00025239,3.7032e+08,3821.3,0,5.4697e+08,3123.1,13103,12110,1,12110,1,0.0001972,6.1704e-10,0,0.00079955,-3.6226e-05,6.519e+07,168.58,0,2.5913e+08,166.09,12109,11091,1,11091,1,-0.0013448,-1.3249e-08,0,2.5849e-05,-0.00032416,-5.4697e+08,-2905.9,0,8.5219e+06,-104.98,11090,11613,1,11613,1,-0.00060236,-8.7699e-10,0,0.00039979,-0.00018548,-2.4498e+08,-288.08,0,1.3903e+08,15.842,11612,12607,1,12607,1,0.00099677,3.6627e-09,0,0.0011994,0.00011327,2.596e+08,891.43,0,3.4187e+08,608.87,12606,574.93,0,574.93,0,0.0009229,3.8577e-09,0,0.00048158,0.00017247,2.8541e+08,941.3,0,1.3793e+08,594.39,574.93,1
1988,5.41,12110,1,12110,1,0.00019858,4.6069e-10,0,0.00081333,-3.6328e-05,-79.83,94.566,0,2.5002e+08,448.8,12109,13104,1,13104,1,0.001744,1.3705e-08,0,0.001744,0.00025276,3.701e+08,2988.7,0,5.4779e+08,3211,13103,12110,1,12110,1,0.00019857,2.7964e-10,0,0.00080131,-3.6478e-05,6.5576e+07,81.689,0,2.5936e+08,184.82,12109,11091,1,11091,1,-0.0013468,-1.6267e-08,0,2.6852e-05,-0.00032504,-5.4779e+08,-3574.4,0,8.8757e+06,-82.271,11090,11613,1,11613,1,-0.00060274,-8.4161e-10,0,0.00040066,-0.00018606,-2.4513e+08,-264.32,0,1.3918e+08,34.827,11612,12607,1,12607,1,0.00099989,2.4622e-09,0,0.001202,0.00011334,2.5982e+08,591.55,0,3.4173e+08,624.93,12606,574.93,0,574.93,0,0.00092492,3.6178e-09,0,0.0004828,0.00017285,2.8565e+08,904.46,0,1.3803e+08,614.45,574.93,1
1988,5.42,12110,1,12110,1,0.00019997,-6.6848e-11,0,0.00081526,-3.658e-05,-11.077,-31.98,0,2.5024e+08,461.72,12109,13104,1,13104,1,0.0017488,1.596e-08,0,0.0017488,0.00025314,3.6989e+08,3558.6,0,5.4861e+08,2976,13103,12110,1,12110,1,0.00019996,-4.6206e-10,0,0.00080307,-3.6733e-05,6.5963e+07,-138.98,0,2.5959e+08,246.81,12109,11091,1,11091,1,-0.0013488,-1.5626e-08,0,2.7858e-05,-0.00032592,-5.4861e+08,-3387.2,0,9.2298e+06,-129.11,11090,11613,1,11613,1,-0.00060312,-1.7996e-09,0,0.00040154,-0.00018664,-2.4529e+08,-544.94,0,1.3933e+08,89.247,11612,12607,1,12607,1,0.001003,1.4699e-09,0,0.0012046,0.00011342,2.6004e+08,364.56,0,3.416e+08,616.45,12606,574.93,0,574.93,0,0.00092696,4.0174e-09,0,0.00048403,0.00017323,2.8589e+08,1010.1,0,1.3813e+08,568.79,574.93,1
1988,5.43,12110,1,12110,1,0.00020135,-1.9973e-09,0,0.00081715,-3.6833e-05,504.9,-558.6,0,2.5045e+08,527.89,12109,13104,1,13104,1,0.0017535,1.8886e-08,0,0.0017535,0.00025351,3.6966e+08,4112,0,5.4941e+08,3245.1,13103,12110,1,12110,1,0.00020134,-1.6555e-09,0,0.0008048,-3.6987e-05,6.635e+07,-511.13,0,2.5981e+08,314.83,12109,11091,1,11091,1,-0.0013508,-2.269e-08,0,2.8873e-05,-0.0003268,-5.4941e+08,-5092.8,0,9.5856e+06,-175.92,11090,11613,1,11613,1,-0.00060346,-5.186e-09,0,0.00040241,-0.00018721,-2.4543e+08,-1506.5,0,1.3948e+08,92.887,11612,12607,1,12607,1,0.0010062,1.1367e-09,0,0.0012072,0.00011348,2.6024e+08,253.53,0,3.4144e+08,732.65,12606,574.93,0,574.93,0,0.00092896,5.8421e-09,0,0.00048524,0.0001736,2.8612e+08,1443.4,0,1.3823e+08,633.9,574.93,1
1988,5.44,12110,1,12110,1,0.00020274,-3.4963e-09,0,0.00081907,-3.7086e-05,-514.15,-1017.2,0,2.5067e+08,557.72,12109,13104,1,13104,1,0.0017583,1.8453e-08,0,0.0017583,0.0002539,3.6944e+08,3983,0,5.5024e+08,3482.7,13103,12110,1,12110,1,0.00020272,-3.6338e-09,0,0.00080656,-3.7242e-05,6.6736e+07,-1079.5,0,2.6003e+08,316.79,12109,11091,1,11091,1,-0.0013528,-2.1537e-08,0,2.9877e-05,-0.00032769,-5.5024e+08,-4853.4,0,9.9361e+06,-195.42,11090,11613,1,11613,1,-0.00060384,-7.9147e-09,0,0.00040329,-0.00018779,-2.4558e+08,-2266.1,0,1.3963e+08,102.09,11612,12607,1,12607,1,0.0010093,5.5802e-10,0,0.0012099,0.00011356,2.6046e+08,123.3,0,3.413e+08,782.57,12606,574.93,0,574.93,0,0.00093099,6.0777e-09,0,0.00048646,0.00017397,2.8636e+08,1583.5,0,1.3833e+08,678.8,574.93,1
1988,5.45,12110,1,12110,1,0.00020415,6.2736e-10,0,0.00082102,-3.7344e-05,585.08,60.654,0,2.5088e+08,477.52,12109,13104,1,13104,1,0.0017632,1.815e-08,0,0.0017632,0.00025427,3.6922e+08,3877.6,0,5.5104e+08,3716.2,13103,12110,1,12110,1,0.00020414,-4.1333e-11,0,0.00080833,-3.7501e-05,6.713e+07,-12.177,0,2.6026e+08,177.08,12109,11091,1,11091,1,-0.0013548,-1.6765e-08,0,3.09e-05,-0.00032858,-5.5104e+08,-3655.6,0,1.0292e+07,-155.97,11090,11613,1,11613,1,-0.0006042,-1.9575e-09,0,0.00040418,-0.00018838,-2.4573e+08,-631.64,0,1.3978e+08,9.5514,11612,12607,1,12607,1,0.0010125,3.6196e-09,0,0.0012125,0.00011363,2.6068e+08,841.48,0,3.4116e+08,666.86,12606,574.93,0,574.93,0,0.00093304,4.5324e-09,0,0.00048771,0.00017435,2.866e+08,1135.8,0,1.3843e+08,702.85,574.93,1
1988,5.46,12110,1,12110,1,0.00020557,5.032e-10,0,0.00082296,-3.7603e-05,-705.52,70.447,0,2.5109e+08,619.27,12109,13104,1,13104,1,0.001768,2.3789e-08,0,0.001768,0.00025465,3.6897e+08,5213.6,0,5.5186e+08,3595.9,13103,12110,1,12110,1,0.00020556,-2.6783e-10,0,0.0008101,-3.7762e-05,6.7524e+07,-83.043,0,2.6048e+08,362.5,12109,11091,1,11091,1,-0.0013568,-1.9927e-08,0,3.1943e-05,-0.00032947,-5.5186e+08,-4373.3,0,1.0654e+07,-103.24,11090,11613,1,11613,1,-0.00060456,-2.3188e-09,0,0.00040507,-0.00018896,-2.4587e+08,-731.74,0,1.3993e+08,145.47,11612,12607,1,12607,1,0.0010157,3.0036e-09,0,0.0012152,0.0001137,2.6088e+08,735.53,0,3.41e+08,843.2,12606,574.93,0,574.93,0,0.00093509,5.7856e-09,0,0.00048895,0.00017473,2.8683e+08,1387,0,1.3853e+08,684.85,574.93,1
1988,5.47,12110,1,12110,1,0.000207,-9.5454e-10,0,0.0008249,-3.7865e-05,-131.8,-319.64,0,2.513e+08,587.2,12109,13104,1,13104,1,0.0017729,1.8616e-08,0,0.0017729,0.00025502,3.6872e+08,3961.8,0,5.5267e+08,3859.8,13103,12110,1,12110,1,0.00020699,-1.2643e-09,0,0.00081188,-3.8025e-05,6.7921e+07,-363.32,0,2.6069e+08,261.13,12109,11091,1,11091,1,-0.0013588,-2.1267e-08,0,3.2995e-05,-0.00033037,-5.5267e+08,-4651.9,0,1.1018e+07,-87.617,11090,11613,1,11613,1,-0.0006049,-3.3718e-09,0,0.00040596,-0.00018956,-2.4601e+08,-1061.6,0,1.4007e+08,88.678,11612,12607,1,12607,1,0.0010189,1.4116e-09,0,0.0012179,0.00011376,2.6109e+08,308.65,0,3.4083e+08,824.09,12606,574.93,0,574.93,0,0.00093714,4.9715e-09,0,0.0004902,0.00017511,2.8706e+08,1245.8,0,1.3863e+08,745.64,574.93,1
1988,5.48,12110,1,12110,1,0.00020844,-1.9329e-09,0,0.00082686,-3.8128e-05,-133.34,-602.84,0,2.5151e+08,615.02,12109,13104,1,13104,1,0.0017778,1.9958e-08,0,0.0017778,0.0002554,3.6848e+08,4220.6,0,5.5349e+08,3894.2,13103,12110,1,12110,1,0.00020843,-2.4895e-09,0,0.00081366,-3.829e-05,6.8319e+07,-717.19,0,2.6091e+08,290.9,12109,11091,1,11091,1,-0.0013608,-2.1893e-08,0,3.4051e-05,-0.00033127,-5.5349e+08,-4779.4,0,1.1381e+07,-130.35,11090,11613,1,11613,1,-0.00060524,-5.3818e-09,0,0.00040685,-0.00019015,-2.4615e+08,-1626.9,0,1.4022e+08,112.55,11612,12607,1,12607,1,0.0010221,1.3664e-09,0,0.0012205,0.00011383,2.613e+08,321.29,0,3.4067e+08,859.06,12606,574.93,0,574.93,0,0.0009392,5.5863e-09,0,0.00049146,0.0001755,2.8729e+08,1431.8,0,1.3873e+08,756.19,574.93,1
1988,5.49,12110,1,12110,1,0.00020989,4.0176e-09,0,0.0008288,-3.8392e-05,-478.83,996.26,0,2.5171e+08,697.22,12109,13104,1,13104,1,0.0017826,2.9652e-08,0,0.0017826,0.00025577,3.6823e+08,6528.9,0,5.5429e+08,4467.1,13103,12110,1,12110,1,0.00020988,3.3407e-09,0,0.00081545,-3.8557e-05,6.872e+07,991.6,0,2.6112e+08,384.05,12109,11091,1,11091,1,-0.0013628,-2.0209e-08,0,3.5117e-05,-0.00033216,-5.5429e+08,-4308.9,0,1.1746e+07,-174.87,11090,11613,1,11613,1,-0.00060557,-5.2541e-10,0,0.00040773,-0.00019074,-2.4628e+08,-115.96,0,1.4037e+08,146.69,11612,12607,1,12607,1,0.0010253,8.2483e-09,0,0.0012232,0.00011389,2.615e+08,2062.5,0,3.4049e+08,933.87,12606,574.93,0,574.93,0,0.00094125,6.8229e-09,0,0.00049271,0.00017588,2.8751e+08,1629,0,1.3883e+08,820.62,574.93,1
1988,5.5,12110,1,12110,1,0.00021135,1.7856e-09,0,0.00083078,-3.866e-05,-57.481,486.98,0,2.5192e+08,666.3,12109,13104,1,13104,1,0.0017875,2.3319e-08,0,0.0017875,0.00025615,3.6796e+08,5139.5,0,5.551e+08,4230.9,13103,12110,1,12110,1,0.00021134,1.9437e-09,0,0.00081724,-3.8825e-05,6.9122e+07,527.46,0,2.6133e+08,312.47,12109,11091,1,11091,1,-0.0013648,-2.1267e-08,0,3.6202e-05,-0.00033307,-5.551e+08,-4479.5,0,1.2117e+07,-64.336,11090,11613,1,11613,1,-0.00060591,-4.791e-10,0,0.00040863,-0.00019134,-2.4642e+08,-132.94,0,1.4051e+08,95.284,11612,12607,1,12607,1,0.0010286,3.8682e-09,0,0.0012259,0.00011396,2.617e+08,1014.5,0,3.4032e+08,926.91,12606,574.93,0,574.93,0,0.00094333,5.3752e-09,0,0.00049399,0.00017626,2.8775e+08,1352.7,0,1.3893e+08,838.29,574.93,1
1988,5.51,12110,1,12110,1,0.00021283,-1.6021e-09,0,0.00083275,-3.893e-05,248.87,-406.04,0,2.5212e+08,685.86,12109,13104,1,13104,1,0.0017925,1.8951e-08,0,0.0017925,0.00025652,3.677e+08,5133.7,0,5.5591e+08,4304.7,13103,12110,1,12110,1,0.00021282,-1.5091e-09,0,0.00081904,-3.9097e-05,6.9529e+07,-414.49,0,2.6154e+08,333.32,12109,11091,1,11091,1,-0.0013668,-2.7069e-08,0,3.7288e-05,-0.00033399,-5.5591e+08,-5770.3,0,1.2487e+07,-92.391,11090,11613,1,11613,1,-0.00060623,-3.6463e-09,0,0.00040953,-0.00019195,-2.4655e+08,-955.58,0,1.4065e+08,105.04,11612,12607,1,12607,1,0.0010319,8.6868e-10,0,0.0012286,0.00011402,2.619e+08,223.66,0,3.4013e+08,924.22,12606,574.93,0,574.93,0,0.00094541,5.9067e-09,0,0.00049527,0.00017665,2.8797e+08,1510.7,0,1.3903e+08,858.66,574.93,1
1988,5.52,12110,1,12110,1,0.00021432,6.4613e-10,0,0.00083472,-3.92e-05,-74.202,171.76,0,2.5232e+08,816.1,12109,13104,1,13104,1,0.0017974,2.8129e-08,0,0.0017974,0.0002569,3.6742e+08,6014.4,0,5.5672e+08,4598.5,13103,12110,1,12110,1,0.0002143,8.4315e-10,0,0.00082083,-3.9369e-05,6.9935e+07,232.95,0,2.6175e+08,480.56,12109,11091,1,11091,1,-0.0013688,-2.7827e-08,0,3.8388e-05,-0.0003349,-5.5672e+08,-5900.8,0,1.286e+07,-76.184,11090,11613,1,11613,1,-0.00060654,-2.0243e-09,0,0.00041043,-0.00019255,-2.4668e+08,-567.89,0,1.4079e+08,179.99,11612,12607,1,12607,1,0.0010352,3.0609e-09,0,0.0012313,0.00011408,2.6209e+08,800,0,3.3994e+08,1124.8,12606,574.93,0,574.93,0,0.00094748,6.8745e-09,0,0.00049655,0.00017703,2.8819e+08,1675.7,0,1.3913e+08,898.71,574.93,1
1988,5.53,12110,1,12110,1,0.00021581,-3.7763e-10,0,0.0008367,-3.9473e-05,-54.36,-77.064,0,2.5252e+08,821.64,12109,13104,1,13104,1,0.0018024,2.7896e-08,0,0.0018024,0.00025727,3.6714e+08,5920.5,0,5.5753e+08,4567.9,13103,12110,1,12110,1,0.00021579,-5.489e-10,0,0.00082264,-3.9643e-05,7.0344e+07,-161.06,0,2.6195e+08,514.34,12109,11091,1,11091,1,-0.0013708,-2.943e-08,0,3.9491e-05,-0.00033582,-5.5753e+08,-6235.7,0,1.3232e+07,-80.178,11090,11613,1,11613,1,-0.00060686,-3.2351e-09,0,0.00041133,-0.00019316,-2.4681e+08,-853.15,0,1.4093e+08,181.39,11612,12607,1,12607,1,0.0010385,2.2919e-09,0,0.001234,0.00011415,2.6229e+08,633.53,0,3.3975e+08,1119.9,12606,574.93,0,574.93,0,0.00094956,7.2698e-09,0,0.00049784,0.00017742,2.8841e+08,1761.7,0,1.3923e+08,901.26,574.93,1
1988,5.54,12110,1,12110,1,0.00021732,-1.1861e-09,0,0.00083869,-3.9749e-05,161.85,-314.69,0,2.5272e+08,836.07,12109,13104,1,13104,1,0.0018074,2.459e-08,0,0.0018074,0.00025765,3.6685e+08,5888,0,5.5834e+08,4951.7,13103,12110,1,12110,1,0.0002173,-1.248e-09,0,0.00082445,-3.992e-05,7.0755e+07,-343.76,0,2.6215e+08,434.11,12109,11091,1,11091,1,-0.0013727,-3.0922e-08,0,4.061e-05,-0.00033674,-5.5834e+08,-6545.3,0,1.3609e+07,-97.203,11090,11613,1,11613,1,-0.00060716,-3.5232e-09,0,0.00041224,-0.00019377,-2.4693e+08,-955.85,0,1.4107e+08,156.2,11612,12607,1,12607,1,0.0010418,1.618e-09,0,0.0012367,0.00011421,2.6248e+08,424.46,0,3.3955e+08,1149.6,12606,574.93,0,574.93,0,0.00095165,7.025e-09,0,0.00049913,0.0001778,2.8863e+08,1767.6,0,1.3932e+08,986.37,574.93,1
1988,5.55,12110,1,12110,1,0.00021884,1.3601e-09,0,0.00084069,-4.0026e-05,31.346,350.22,0,2.5291e+08,916.34,12109,13104,1,13104,1,0.0018124,3.2008e-08,0,0.0018124,0.00025802,3.6657e+08,6757.8,0,5.5914e+08,5208.5,13103,12110,1,12110,1,0.00021882,1.4798e-09,0,0.00082627,-4.0199e-05,7.1169e+07,421.28,0,2.6236e+08,559.25,12109,11091,1,11091,1,-0.0013747,-3.1126e-08,0,4.1736e-05,-0.00033767,-5.5914e+08,-6538.2,0,1.3987e+07,-73.369,11090,11613,1,11613,1,-0.00060746,-1.6353e-09,0,0.00041315,-0.00019438,-2.4705e+08,-463.22,0,1.4121e+08,201.68,11612,12607,1,12607,1,0.0010451,4.4613e-09,0,0.0012394,0.00011426,2.6267e+08,1139.1,0,3.3934e+08,1259,12606,574.93,0,574.93,0,0.00095375,7.8594e-09,0,0.00050044,0.00017819,2.8885e+08,1913.3,0,1.3942e+08,1006.7,574.93,1
1988,5.56,12110,1,12110,1,0.00022037,2.5432e-09,0,0.00084269,-4.0305e-05,-161.08,706.28,0,2.531e+08,954.88,12109,13104,1,13104,1,0.0018175,3.1145e-08,0,0.0018175,0.0002584,3.6626e+08,6927.8,0,5.5995e+08,5339.2,13103,12110,1,12110,1,0.00022034,3.3879e-09,0,0.00082808,-4.0479e-05,7.1583e+07,917.64,0,2.6255e+08,593.38,12109,11091,1,11091,1,-0.0013767,-3.1102e-08,0,4.2872e-05,-0.0003386,-5.5995e+08,-6456.7,0,1.4366e+07,-77.728,11090,11613,1,11613,1,-0.00060775,-9.0775e-10,0,0.00041406,-0.000195,-2.4717e+08,-254.26,0,1.4134e+08,214.66,11612,12607,1,12607,1,0.0010485,6.5161e-09,0,0.0012422,0.00011432,2.6285e+08,1809.5,0,3.3913e+08,1290.1,12606,574.93,0,574.93,0,0.00095585,7.9622e-09,0,0.00050175,0.00017858,2.8907e+08,2012.2,0,1.3952e+08,1044.1,574.93,1
1988,5.57,12110,1,12110,1,0.00022191,3.0232e-10,0,0.0008447,-4.0587e-05,335.41,139.76,0,2.5329e+08,986.83,12109,13104,1,13104,1,0.0018225,3.5783e-08,0,0.0018225,0.00025877,3.6596e+08,7544.9,0,5.6075e+08,5290.7,13103,12110,1,12110,1,0.00022188,4.0535e-10,0,0.00082991,-4.0763e-05,7.2001e+07,115.7,0,2.6275e+08,626.69,12109,11091,1,11091,1,-0.0013787,-3.4981e-08,0,4.4017e-05,-0.00033953,-5.6075e+08,-7289,0,1.4747e+07,-116.31,11090,11613,1,11613,1,-0.00060804,-3.2401e-09,0,0.00041498,-0.00019562,-2.4729e+08,-831.13,0,1.4148e+08,214.26,11612,12607,1,12607,1,0.0010518,3.4731e-09,0,0.0012449,0.00011438,2.6304e+08,978.25,0,3.3892e+08,1350.5,12606,574.93,0,574.93,0,0.00095796,8.9777e-09,0,0.00050307,0.00017897,2.8928e+08,2170.1,0,1.3962e+08,1075.8,574.93,1
1988,5.58,12110,1,12110,1,0.00022346,-3.7955e-09,0,0.00084672,-4.0871e-05,35.972,-974.41,0,2.5348e+08,983.28,12109,13104,1,13104,1,0.0018276,2.868e-08,0,0.0018276,0.00025914,3.6565e+08,7440.7,0,5.6156e+08,5688.6,13103,12110,1,12110,1,0.00022344,-4.3913e-09,0,0.00083174,-4.1048e-05,7.2422e+07,-1199.9,0,2.6294e+08,523.75,12109,11091,1,11091,1,-0.0013807,-3.8587e-08,0,4.5175e-05,-0.00034047,-5.6156e+08,-8080.8,0,1.5132e+07,-113.42,11090,11613,1,11613,1,-0.00060831,-8.6754e-09,0,0.00041589,-0.00019624,-2.474e+08,-2309.4,0,1.4161e+08,175.92,11612,12607,1,12607,1,0.0010552,8.5189e-10,0,0.0012476,0.00011443,2.6322e+08,215.56,0,3.3869e+08,1351.1,12606,574.93,0,574.93,0,0.00096007,9.1077e-09,0,0.00050439,0.00017937,2.8949e+08,2305.2,0,1.3972e+08,1159,574.93,1
1988,5.59,12110,1,12110,1,0.00022502,2.147e-09,0,0.00084873,-4.1156e-05,580.16,562.11,0,2.5366e+08,1114.5,12109,13104,1,13104,1,0.0018327,4.1558e-08,0,0.0018327,0.00025951,3.6533e+08,8723.9,0,5.6235e+08,6074.5,13103,12110,1,12110,1,0.000225,2.3086e-09,0,0.00083356,-4.1334e-05,7.2843e+07,644.43,0,2.6313e+08,721.56,12109,11091,1,11091,1,-0.0013826,-3.8674e-08,0,4.6347e-05,-0.00034141,-5.6235e+08,-8023,0,1.5519e+07,-128.49,11090,11613,1,11613,1,-0.00060858,-1.938e-09,0,0.0004168,-0.00019686,-2.4751e+08,-532.13,0,1.4174e+08,241.92,11612,12607,1,12607,1,0.0010586,6.3255e-09,0,0.0012504,0.00011449,2.634e+08,1632.1,0,3.3846e+08,1539.9,12606,574.93,0,574.93,0,0.00096218,1.0168e-08,0,0.00050572,0.00017976,2.897e+08,2429,0,1.3981e+08,1196.2,574.93,1
1988,5.6,12110,1,12110,1,0.00022659,-6.5295e-10,0,0.00085076,-4.1443e-05,-13.618,-143.26,0,2.5385e+08,1094.1,12109,13104,1,13104,1,0.0018378,3.6133e-08,0,0.0018378,0.00025988,3.6501e+08,8454.6,0,5.6317e+08,6233.1,13103,12110,1,12110,1,0.00022657,-1.025e-09,0,0.00083541,-4.1623e-05,7.3266e+07,-275.35,0,2.6332e+08,604.13,12109,11091,1,11091,1,-0.0013846,-3.9739e-08,0,4.7518e-05,-0.00034236,-5.6317e+08,-8198.2,0,1.5905e+07,-69.809,11090,11613,1,11613,1,-0.00060886,-4.1773e-09,0,0.00041773,-0.00019749,-2.4762e+08,-1107.1,0,1.4187e+08,203.48,11612,12607,1,12607,1,0.001062,2.9282e-09,0,0.0012532,0.00011454,2.6357e+08,764,0,3.3823e+08,1511.3,12606,574.93,0,574.93,0,0.00096431,9.6157e-09,0,0.00050706,0.00018015,2.8991e+08,2397.7,0,1.3991e+08,1258.4,574.93,1
1988,5.61,12110,1,12110,1,0.00022818,-7.6481e-10,0,0.00085281,-4.1733e-05,-356.13,-191.05,0,2.5404e+08,1213.1,12109,13104,1,13104,1,0.001843,3.9547e-08,0,0.001843,0.00026026,3.6468e+08,8746.4,0,5.6398e+08,6522.7,13103,12110,1,12110,1,0.00022816,-1.1541e-09,0,0.00083727,-4.1915e-05,7.3693e+07,-318.9,0,2.6351e+08,766.74,12109,11091,1,11091,1,-0.0013866,-4.3198e-08,0,4.8709e-05,-0.00034331,-5.6398e+08,-8909.1,0,1.6297e+07,-76.912,11090,11613,1,11613,1,-0.00060913,-4.7694e-09,0,0.00041866,-0.00019813,-2.4773e+08,-1283.3,0,1.4214e+08,270.4,11612,12607,1,12607,1,0.0010655,3.2337e-09,0,0.0012559,0.00011459,2.6375e+08,855.09,0,3.38e+08,1671.9,12606,574.93,0,574.93,0,0.00096646,1.0618e-08,0,0.00050841,0.00018055,2.9012e+08,2601.9,0,1.4001e+08,1298.2,574.93,1
1988,5.62,12110,1,12110,1,0.00022979,5.1474e-10,0,0.00085487,-4.2028e-05,-165.26,140.25,0,2.5422e+08,1255.2,12109,13104,1,13104,1,0.0018482,4.0741e-08,0,0.0018482,0.00026063,3.6434e+08,9296.4,0,5.6478e+08,6864.5,13103,12110,1,12110,1,0.00022976,7.4105e-10,0,0.00083912,-4.221e-05,7.4124e+07,203.89,0,2.637e+08,794.75,12109,11091,1,11091,1,-0.0013886,-4.371e-08,0,4.9917e-05,-0.00034427,-5.6478e+08,-8942.6,0,1.6693e+07,-46.487,11090,11613,1,11613,1,-0.00060938,-3.5001e-09,0,0.00041959,-0.00019877,-2.4783e+08,-953.32,0,1.4257e+08,279.8,11612,12607,1,12607,1,0.0010689,4.7057e-09,0,0.0012587,0.00011464,2.6393e+08,1233.2,0,3.3775e+08,1718.9,12606,574.93,0,574.93,0,0.00096861,1.0813e-08,0,0.00050978,0.00018095,2.9033e+08,2691.7,0,1.4011e+08,1354,574.93,1
1988,5.63,12110,1,12110,1,0.00023141,-2.9208e-09,0,0.00085691,-4.2323e-05,348.39,-770.43,0,2.5439e+08,1275.9,12109,13104,1,13104,1,0.0018534,4.2263e-08,0,0.0018534,0.000261,3.64e+08,9459.1,0,5.6558e+08,7156.8,13103,12110,1,12110,1,0.00023138,-3.8172e-09,0,0.00084097,-4.2507e-05,7.4556e+07,-1034.2,0,2.6387e+08,732.25,12109,11091,1,11091,1,-0.0013906,-4.9522e-08,0,5.1134e-05,-0.00034523,-5.6558e+08,-10200,0,1.709e+07,-151.3,11090,11613,1,11613,1,-0.00060961,-8.389e-09,0,0.00042051,-0.0001994,-2.4792e+08,-2254.1,0,1.43e+08,227.41,11612,12607,1,12607,1,0.0010724,2.1814e-09,0,0.0012615,0.00011469,2.6409e+08,585.63,0,3.3749e+08,1794.5,12606,574.93,0,574.93,0,0.00097074,1.2108e-08,0,0.00051114,0.00018134,2.9052e+08,2972.3,0,1.402e+08,1457.2,574.93,1
1988,5.64,12110,1,12110,1,0.00023303,-1.7132e-09,0,0.00085898,-4.262e-05,-474.27,-502.9,0,2.5457e+08,1384.6,12109,13104,1,13104,1,0.0018587,4.2572e-08,0,0.0018587,0.00026138,3.6365e+08,10147,0,5.6639e+08,7606.3,13103,12110,1,12110,1,0.000233,-2.3095e-09,0,0.00084284,-4.2805e-05,7.4988e+07,-629.82,0,2.6406e+08,851.51,12109,11091,1,11091,1,-0.0013926,-4.9002e-08,0,5.2349e-05,-0.0003462,-5.6639e+08,-10391,0,1.7485e+07,-20.786,11090,11613,1,11613,1,-0.00060986,-6.4847e-09,0,0.00042146,-0.00020005,-2.4803e+08,-1850.3,0,1.4344e+08,306.26,11612,12607,1,12607,1,0.0010759,3.3423e-09,0,0.0012643,0.00011474,2.6426e+08,839.31,0,3.3724e+08,1905.3,12606,574.93,0,574.93,0,0.00097291,1.2075e-08,0,0.00051252,0.00018175,2.9073e+08,3063.4,0,1.403e+08,1504.5,574.93,1
1988,5.65,12110,1,12110,1,0.00023467,7.0405e-10,0,0.00086103,-4.2919e-05,247.46,126.59,0,2.5474e+08,1513.7,12109,13104,1,13104,1,0.0018639,5.5252e-08,0,0.0018639,0.00026174,3.6329e+08,11294,0,5.6718e+08,7920.8,13103,12110,1,12110,1,0.00023464,-7.1176e-11,0,0.00084469,-4.3105e-05,7.5425e+07,-15.813,0,2.6423e+08,1006.3,12109,11091,1,11091,1,-0.0013945,-5.333e-08,0,5.3585e-05,-0.00034716,-5.6718e+08,-10912,0,1.7887e+07,-129.39,11090,11613,1,11613,1,-0.00061008,-4.7176e-09,0,0.00042238,-0.00020069,-2.4811e+08,-1330.6,0,1.4387e+08,332.49,11612,12607,1,12607,1,0.0010794,6.2358e-09,0,0.0012671,0.00011478,2.6442e+08,1590.7,0,3.3697e+08,2101.9,12606,574.93,0,574.93,0,0.00097505,1.412e-08,0,0.00051389,0.00018214,2.9092e+08,3355.2,0,1.404e+08,1592,574.93,1
1988,5.66,12110,1,12110,1,0.00023632,5.3999e-09,0,0.00086311,-4.322e-05,-431.15,1397,0,2.5492e+08,1658.2,12109,13104,1,13104,1,0.0018692,5.9768e-08,0,0.0018692,0.00026212,3.6294e+08,12337,0,5.6799e+08,8395.4,13103,12110,1,12110,1,0.00023629,5.6918e-09,0,0.00084659,-4.3407e-05,7.5862e+07,1576.9,0,2.6441e+08,1186.8,12109,11091,1,11091,1,-0.0013965,-5.2957e-08,0,5.4832e-05,-0.00034813,-5.6799e+08,-10694,0,1.829e+07,-168.05,11090,11613,1,11613,1,-0.00061032,-1.8841e-09,0,0.00042332,-0.00020134,-2.4821e+08,-462.8,0,1.4431e+08,438.06,11612,12607,1,12607,1,0.0010829,1.2659e-08,0,0.0012699,0.00011483,2.6458e+08,3319.1,0,3.3671e+08,2315.8,12606,574.93,0,574.93,0,0.00097723,1.4915e-08,0,0.00051528,0.00018254,2.9113e+08,3553.5,0,1.4049e+08,1632.6,574.93,1
1988,5.67,12110,1,12110,1,0.00023798,2.4225e-09,0,0.00086518,-4.3524e-05,112.27,729.35,0,2.5508e+08,1660.5,12109,13104,1,13104,1,0.0018744,5.8494e-08,0,0.0018744,0.00026249,3.6256e+08,12012,0,5.6878e+08,8500.2,13103,12110,1,12110,1,0.00023794,3.1742e-09,0,0.00084844,-4.3711e-05,7.63e+07,886.12,0,2.6458e+08,1101,12109,11091,1,11091,1,-0.0013984,-5.9755e-08,0,5.6083e-05,-0.00034911,-5.6878e+08,-12098,0,1.8694e+07,-111.93,11090,11613,1,11613,1,-0.00061053,-3.2491e-09,0,0.00042426,-0.00020199,-2.4829e+08,-858.46,0,1.4474e+08,389.27,11612,12607,1,12607,1,0.0010864,8.541e-09,0,0.0012727,0.00011488,2.6474e+08,2333.6,0,3.3643e+08,2309.4,12606,574.93,0,574.93,0,0.00097938,1.4962e-08,0,0.00051667,0.00018294,2.9132e+08,3557.5,0,1.4059e+08,1719.2,574.93,1
1988,5.68,12110,1,12110,1,0.00023965,8.3135e-10,0,0.00086728,-4.383e-05,-426.36,370.58,0,2.5526e+08,1721.1,12109,13104,1,13104,1,0.0018798,5.6083e-08,0,0.0018798,0.00026286,3.6219e+08,11951,0,5.6959e+08,8657,13103,12110,1,12110,1,0.00023961,1.9864e-09,0,0.00085033,-4.4017e-05,7.6742e+07,541.73,0,2.6475e+08,1113.9,12109,11091,1,11091,1,-0.0014004,-6.3233e-08,0,5.7339e-05,-0.00035009,-5.6959e+08,-12780,0,1.9099e+07,-49.088,11090,11613,1,11613,1,-0.00061075,-4.7318e-09,0,0.00042521,-0.00020264,-2.4839e+08,-1163.4,0,1.4518e+08,398.25,11612,12607,1,12607,1,0.00109,6.8841e-09,0,0.0012756,0.00011492,2.649e+08,1929.2,0,3.3616e+08,2388.3,12606,574.93,0,574.93,0,0.00098158,1.5287e-08,0,0.00051808,0.00018335,2.9152e+08,3653.6,0,1.4069e+08,1785.5,574.93,1
1988,5.69,12110,1,12110,1,0.00024136,1.9153e-09,0,0.0008694,-4.4141e-05,371.14,681.96,0,2.5543e+08,1712.9,12109,13104,1,13104,1,0.0018852,5.4847e-08,0,0.0018852,0.00026324,3.6181e+08,13932,0,5.704e+08,9030.7,13103,12110,1,12110,1,0.00024131,2.549e-09,0,0.00085224,-4.4329e-05,7.719e+07,666.69,0,2.6492e+08,1046.4,12109,11091,1,11091,1,-0.0014024,-6.0475e-08,0,5.8624e-05,-0.00035109,-5.704e+08,-12029,0,1.9512e+07,-128.56,11090,11613,1,11613,1,-0.00061096,-3.949e-09,0,0.00042617,-0.00020331,-2.4847e+08,-960.53,0,1.4562e+08,337.28,11612,12607,1,12607,1,0.0010936,8.3092e-09,0,0.0012785,0.00011496,2.6506e+08,2390.6,0,3.3588e+08,2394.3,12606,574.93,0,574.93,0,0.00098379,1.4988e-08,0,0.00051951,0.00018376,2.9172e+08,3807.1,0,1.4079e+08,1875.9,574.93,1
1988,5.7,12110,1,12110,1,0.00024307,1.7997e-09,0,0.00087151,-4.4454e-05,51.38,684.9,0,2.5558e+08,1949.7,12109,13104,1,13104,1,0.0018906,6.5614e-08,0,0.0018906,0.00026361,3.6141e+08,13780,0,5.712e+08,9423.1,13103,12110,1,12110,1,0.00024302,3.133e-09,0,0.00085413,-4.4642e-05,7.7639e+07,850.74,0,2.6508e+08,1381.6,12109,11091,1,11091,1,-0.0014044,-7.1865e-08,0,5.992e-05,-0.00035208,-5.712e+08,-14396,0,1.9927e+07,-121.11,11090,11613,1,11613,1,-0.00061115,-5.3574e-09,0,0.00042712,-0.00020397,-2.4855e+08,-1301,0,1.4606e+08,470.22,11612,12607,1,12607,1,0.0010972,9.4642e-09,0,0.0012813,0.000115,2.652e+08,2761.3,0,3.3557e+08,2734.2,12606,574.93,0,574.93,0,0.00098598,1.7911e-08,0,0.00052093,0.00018417,2.919e+08,4275.7,0,1.4088e+08,1952.4,574.93,1
1988,5.71,12110,1,12110,1,0.0002448,1.4452e-09,0,0.00087364,-4.4769e-05,-426.99,638.85,0,2.5575e+08,2010.1,12109,13104,1,13104,1,0.0018961,6.3645e-08,0,0.0018961,0.00026398,3.6102e+08,14982,0,5.7201e+08,9758.1,13103,12110,1,12110,1,0.00024473,2.8515e-09,0,0.00085614,-4.4958e-05,7.809e+07,777.06,0,2.6525e+08,1407.1,12109,11091,1,11091,1,-0.0014064,-7.3247e-08,0,6.0953e-05,-0.00035309,-5.7201e+08,-14558,0,2.0342e+07,-70.007,11090,11613,1,11613,1,-0.00061136,-5.8134e-09,0,0.00042801,-0.00020464,-2.4863e+08,-1396.6,0,1.4651e+08,487.18,11612,12607,1,12607,1,0.0011009,9.6604e-09,0,0.0012841,0.00011504,2.6536e+08,2854,0,3.3528e+08,2800.2,12606,574.93,0,574.93,0,0.00098821,1.8071e-08,0,0.00052238,0.00018458,2.9209e+08,4419.1,0,1.4098e+08,2027.7,574.93,1
1988,5.72,12110,1,12110,1,0.00024654,2.7259e-09,0,0.00087578,-4.5088e-05,-278.08,1015.4,0,2.5591e+08,2146,12109,13104,1,13104,1,0.0019015,6.9645e-08,0,0.0019015,0.00026436,3.6061e+08,16397,0,5.7282e+08,10302,13103,12110,1,12110,1,0.00024647,4.1015e-09,0,0.00085807,-4.5277e-05,7.8546e+07,1112.1,0,2.6541e+08,1513.1,12109,11091,1,11091,1,-0.0014084,-7.6162e-08,0,5.9894e-05,-0.0003541,-5.7282e+08,-15033,0,2.0764e+07,-93.337,11090,11613,1,11613,1,-0.00061154,-5.6167e-09,0,0.00042896,-0.00020531,-2.487e+08,-1296.4,0,1.4695e+08,529.84,11612,12607,1,12607,1,0.0011045,1.1771e-08,0,0.001287,0.00011508,2.655e+08,3496.6,0,3.3497e+08,2984.6,12606,574.93,0,574.93,0,0.00099043,1.9326e-08,0,0.00052383,0.00018499,2.9228e+08,4759.7,0,1.4108e+08,2151.6,574.93,1
1988,5.73,12110,1,12110,1,0.0002483,7.1694e-10,0,0.00087793,-4.5408e-05,-1086.3,547.04,0,2.5607e+08,2270.3,12109,13104,1,13104,1,0.001907,7.0909e-08,0,0.001907,0.00026473,3.6021e+08,17204,0,5.7362e+08,10934,13103,12110,1,12110,1,0.00024823,2.6682e-09,0,0.00086002,-4.5598e-05,7.9003e+07,711.23,0,2.6557e+08,1623.9,12109,11091,1,11091,1,-0.0014103,-8.3829e-08,0,5.8825e-05,-0.00035512,-5.7362e+08,-16564,0,2.1186e+07,-59.006,11090,11613,1,11613,1,-0.00061172,-8.1515e-09,0,0.00042993,-0.00020599,-2.4878e+08,-1888.8,0,1.474e+08,575.02,11612,12607,1,12607,1,0.0011082,1.0596e-08,0,0.0012899,0.00011512,2.6565e+08,3125.5,0,3.3466e+08,3157.3,12606,574.93,0,574.93,0,0.00099267,2.0981e-08,0,0.00052529,0.00018541,2.9247e+08,5091.7,0,1.4118e+08,2249.1,574.93,1
1988,5.74,12110,1,12110,1,0.00025008,-4.3288e-10,0,0.0008801,-4.5734e-05,541.46,245.94,0,2.5623e+08,2295.9,12109,13104,1,13104,1,0.0019126,7.2831e-08,0,0.0019126,0.0002651,3.5979e+08,18296,0,5.7443e+08,11423,13103,12110,1,12110,1,0.00025001,1.2967e-09,0,0.00086198,-4.5925e-05,7.9467e+07,350.06,0,2.6573e+08,1576.2,12109,11091,1,11091,1,-0.0014123,-8.7973e-08,0,5.7741e-05,-0.00035614,-5.7443e+08,-17300,0,2.1617e+07,-54.565,11090,11613,1,11613,1,-0.0006119,-9.8435e-09,0,0.00043091,-0.00020668,-2.4885e+08,-2285.8,0,1.4786e+08,521.83,11612,12607,1,12607,1,0.001112,9.6885e-09,0,0.0012928,0.00011515,2.6579e+08,2838.9,0,3.3435e+08,3202.5,12606,574.93,0,574.93,0,0.00099493,2.1745e-08,0,0.00052678,0.00018582,2.9266e+08,5340.2,0,1.4128e+08,2378.3,574.93,1
1988,5.75,12110,1,12110,1,0.00025188,-6.9672e-10,0,0.00088227,-4.6062e-05,205.47,159.5,0,2.5638e+08,2490.3,12109,13104,1,13104,1,0.0019182,7.8215e-08,0,0.0019182,0.00026548,3.5936e+08,19031,0,5.7523e+08,11927,13103,12110,1,12110,1,0.0002518,1.065e-09,0,0.00086393,-4.6254e-05,7.9933e+07,279.43,0,2.6588e+08,1766.9,12109,11091,1,11091,1,-0.0014143,-9.5038e-08,0,5.664e-05,-0.00035717,-5.7523e+08,-18702,0,2.2051e+07,-128.09,11090,11613,1,11613,1,-0.00061205,-1.0522e-08,0,0.00043188,-0.00020737,-2.4891e+08,-2497.3,0,1.4831e+08,595.94,11612,12607,1,12607,1,0.0011157,1.0043e-08,0,0.0012957,0.00011519,2.6593e+08,2920,0,3.3402e+08,3490.2,12606,574.93,0,574.93,0,0.00099719,2.3456e-08,0,0.00052826,0.00018624,2.9283e+08,5707.8,0,1.4137e+08,2510,574.93,1
1988,5.76,12110,1,12110,1,0.00025368,-1.6671e-09,0,0.00088443,-4.6391e-05,-317.77,-112.07,0,2.5653e+08,2630.7,12109,13104,1,13104,1,0.0019237,8.9773e-08,0,0.0019237,0.00026584,3.5892e+08,19729,0,5.7601e+08,12606,13103,12110,1,12110,1,0.0002536,-2.0359e-10,0,0.00086588,-4.6584e-05,8.0398e+07,-53.879,0,2.6602e+08,1857.3,12109,11091,1,11091,1,-0.0014162,-1.0177e-07,0,5.5532e-05,-0.00035819,-5.7601e+08,-20051,0,2.2486e+07,-170.52,11090,11613,1,11613,1,-0.0006122,-1.2822e-08,0,0.00043286,-0.00020806,-2.4897e+08,-3131.7,0,1.4876e+08,632.64,11612,12607,1,12607,1,0.0011194,9.4997e-09,0,0.0012987,0.00011522,2.6605e+08,2677.5,0,3.3368e+08,3694.9,12606,574.93,0,574.93,0,0.00099943,2.5729e-08,0,0.00052974,0.00018666,2.9301e+08,6081.6,0,1.4147e+08,2634.4,574.93,1
1988,5.77,12110,1,12110,1,0.0002555,1.2449e-09,0,0.00088664,-4.6724e-05,6.8544,599.23,0,2.5669e+08,2775.4,12109,13104,1,13104,1,0.0019294,9.2613e-08,0,0.0019294,0.00026622,3.5848e+08,21465,0,5.7684e+08,13153,13103,12110,1,12110,1,0.00025542,2.371e-09,0,0.00086785,-4.6917e-05,8.0868e+07,632.22,0,2.6618e+08,1998,12109,11091,1,11091,1,-0.0014182,-1.0216e-07,0,5.4423e-05,-0.00035923,-5.7684e+08,-19880,0,2.2142e+07,-47.787,11090,11613,1,11613,1,-0.00061236,-9.4817e-09,0,0.00043384,-0.00020876,-2.4904e+08,-2289.5,0,1.4921e+08,691.81,11612,12607,1,12607,1,0.0011232,1.2589e-08,0,0.0013016,0.00011525,2.662e+08,3506,0,3.3335e+08,3884,12606,574.93,0,574.93,0,0.0010017,2.5897e-08,0,0.00053126,0.00018708,2.932e+08,6280.5,0,1.4157e+08,2759.1,574.93,1
1988,5.78,12110,1,12110,1,0.00025734,-3.6825e-09,0,0.00088885,-4.7061e-05,-449.83,-671.99,0,2.5683e+08,2933.3,12109,13104,1,13104,1,0.001935,9.536e-08,0,0.001935,0.0002666,3.5804e+08,21754,0,5.7764e+08,13614,13103,12110,1,12110,1,0.00025726,-2.8237e-09,0,0.00086985,-4.7255e-05,8.1344e+07,-758.67,0,2.6632e+08,2146.6,12109,11091,1,11091,1,-0.0014202,-1.1458e-07,0,5.3284e-05,-0.00036028,-5.7764e+08,-22460,0,2.1685e+07,-141.69,11090,11613,1,11613,1,-0.00061251,-1.5767e-08,0,0.00043484,-0.00020946,-2.491e+08,-3929,0,1.4967e+08,727.73,11612,12607,1,12607,1,0.0011271,8.8336e-09,0,0.0013046,0.00011529,2.6632e+08,2413.2,0,3.33e+08,4122.1,12606,574.93,0,574.93,0,0.001004,2.8416e-08,0,0.00053278,0.00018751,2.9337e+08,6745.7,0,1.4167e+08,2882.7,574.93,1
1988,5.79,12110,1,12110,1,0.00025921,7.8295e-10,0,0.00089108,-4.7401e-05,-707.44,420.96,0,2.5698e+08,3096,12109,13104,1,13104,1,0.0019408,1.0093e-07,0,0.0019408,0.00026698,3.5757e+08,24014,0,5.7846e+08,14632,13103,12110,1,12110,1,0.00025913,1.6451e-09,0,0.00087185,-4.7596e-05,8.1822e+07,426.77,0,2.6645e+08,2277.3,12109,11091,1,11091,1,-0.0014222,-1.132e-07,0,5.2134e-05,-0.00036134,-5.7846e+08,-21853,0,2.1224e+07,-21.007,11090,11613,1,11613,1,-0.00061264,-1.1011e-08,0,0.00043583,-0.00021017,-2.4915e+08,-2716,0,1.5013e+08,781.6,11612,12607,1,12607,1,0.0011309,1.3389e-08,0,0.0013076,0.00011531,2.6645e+08,3556.3,0,3.3265e+08,4317.6,12606,574.93,0,574.93,0,0.0010063,2.8699e-08,0,0.00053433,0.00018793,2.9355e+08,7023.7,0,1.4177e+08,3029.1,574.93,1
1988,5.8,12110,1,12110,1,0.0002611,-1.5578e-09,0,0.00089333,-4.7746e-05,-231.99,-164.89,0,2.5713e+08,3331.6,12109,13104,1,13104,1,0.0019466,1.0915e-07,0,0.0019466,0.00026735,3.5711e+08,24753,0,5.7927e+08,15326,13103,12110,1,12110,1,0.00026101,-5.4155e-10,0,0.00087387,-4.7942e-05,8.2306e+07,-152.56,0,2.6658e+08,2522.5,12109,11091,1,11091,1,-0.0014242,-1.2658e-07,0,5.0961e-05,-0.0003624,-5.7927e+08,-24514,0,2.0754e+07,-78.423,11090,11613,1,11613,1,-0.00061278,-1.4627e-08,0,0.00043684,-0.00021089,-2.4921e+08,-3661.5,0,1.506e+08,853.98,11612,12607,1,12607,1,0.0011349,1.252e-08,0,0.0013106,0.00011534,2.6658e+08,3349.8,0,3.3237e+08,4666.6,12606,574.93,0,574.93,0,0.0010087,3.1803e-08,0,0.00053588,0.00018837,2.9373e+08,7606.7,0,1.4187e+08,3198.2,574.93,1
1988,5.81,12110,1,12110,1,0.00026301,-6.7977e-10,0,0.00089557,-4.8094e-05,-168.08,44.65,0,2.5727e+08,3502.9,12109,13104,1,13104,1,0.0019524,1.1744e-07,0,0.0019524,0.00026772,3.5662e+08,26457,0,5.8008e+08,16106,13103,12110,1,12110,1,0.00026291,1.9742e-10,0,0.00087589,-4.829e-05,8.2791e+07,49.786,0,2.667e+08,2678.4,12109,11091,1,11091,1,-0.0014262,-1.3184e-07,0,4.9773e-05,-0.00036347,-5.8008e+08,-25354,0,2.028e+07,-62.482,11090,11613,1,11613,1,-0.00061288,-1.4745e-08,0,0.00043784,-0.00021161,-2.4925e+08,-3672.1,0,1.5106e+08,907.25,11612,12607,1,12607,1,0.0011388,1.4115e-08,0,0.0013137,0.00011537,2.667e+08,3786.1,0,3.3227e+08,4889.1,12606,574.93,0,574.93,0,0.001011,3.3693e-08,0,0.00053744,0.0001888,2.939e+08,8056.1,0,1.4197e+08,3353.8,574.93,1
1988,5.82,12110,1,12110,1,0.00026493,3.3772e-10,0,0.00089783,-4.8445e-05,-285.27,310.58,0,2.5741e+08,3748.3,12109,13104,1,13104,1,0.0019582,1.2545e-07,0,0.0019582,0.0002681,3.5614e+08,28748,0,5.8089e+08,17224,13103,12110,1,12110,1,0.00026482,1.191e-09,0,0.00087791,-4.864e-05,8.3278e+07,308.52,0,2.6682e+08,2832.2,12109,11091,1,11091,1,-0.0014282,-1.3786e-07,0,4.8576e-05,-0.00036455,-5.8089e+08,-26343,0,1.9802e+07,-72.237,11090,11613,1,11613,1,-0.00061299,-1.4582e-08,0,0.00043885,-0.00021233,-2.4929e+08,-3661.3,0,1.5152e+08,959.13,11612,12607,1,12607,1,0.0011427,1.6139e-08,0,0.0013167,0.00011539,2.6682e+08,4257.2,0,3.3218e+08,5256,12606,574.93,0,574.93,0,0.0010133,3.5474e-08,0,0.00053902,0.00018923,2.9407e+08,8592.5,0,1.4207e+08,3595.7,574.93,1
1988,5.83,12110,1,12110,1,0.00026687,1.1702e-09,0,0.00090012,-4.88e-05,1164,562.91,0,2.5755e+08,3989,12109,13104,1,13104,1,0.0019641,1.3487e-07,0,0.0019641,0.00026848,3.5565e+08,30505,0,5.8171e+08,18075,13103,12110,1,12110,1,0.00026676,2.8023e-09,0,0.00087996,-4.8994e-05,8.3771e+07,703.32,0,2.6694e+08,3110.2,12109,11091,1,11091,1,-0.0014302,-1.5025e-07,0,4.7359e-05,-0.00036564,-5.8171e+08,-28648,0,1.9318e+07,-91.539,11090,11613,1,11613,1,-0.00061309,-1.5177e-08,0,0.00043986,-0.00021306,-2.4933e+08,-3766.7,0,1.5199e+08,1028.9,11612,12607,1,12607,1,0.0011467,1.8775e-08,0,0.0013197,0.00011542,2.6694e+08,4986.8,0,3.3208e+08,5601.6,12606,574.93,0,574.93,0,0.0010157,3.8654e-08,0,0.00054062,0.00018967,2.9424e+08,9285.3,0,1.4217e+08,3764.1,574.93,1
1988,5.84,12110,1,12110,1,0.00026884,1.8339e-09,0,0.00090241,-4.9158e-05,458.92,791.32,0,2.5768e+08,4255.9,12109,13104,1,13104,1,0.0019701,1.4548e-07,0,0.0019701,0.00026886,3.5515e+08,32660,0,5.8252e+08,18872,13103,12110,1,12110,1,0.00026872,3.7263e-09,0,0.00088201,-4.9352e-05,8.4266e+07,940.42,0,2.6704e+08,3341.8,12109,11091,1,11091,1,-0.0014322,-1.5984e-07,0,4.6124e-05,-0.00036673,-5.8252e+08,-30359,0,1.8828e+07,-62.409,11090,11613,1,11613,1,-0.00061318,-1.5955e-08,0,0.00044087,-0.0002138,-2.4937e+08,-3912.7,0,1.5246e+08,1101.5,11612,12607,1,12607,1,0.0011507,2.0805e-08,0,0.0013228,0.00011544,2.6704e+08,5566.1,0,3.3196e+08,6008.7,12606,574.93,0,574.93,0,0.0010181,4.155e-08,0,0.00054222,0.00019011,2.944e+08,9935.9,0,1.4227e+08,3991.5,574.93,1
1988,5.85,12110,1,12110,1,0.00027082,-1.9028e-10,0,0.00090471,-4.952e-05,55.028,327.18,0,2.5781e+08,4572.6,12109,13104,1,13104,1,0.0019761,1.5568e-07,0,0.0019761,0.00026924,3.5464e+08,33728,0,5.8334e+08,19786,13103,12110,1,12110,1,0.00027069,1.3798e-09,0,0.00088408,-4.9713e-05,8.4764e+07,352.72,0,2.6715e+08,3655.1,12109,11091,1,11091,1,-0.0014342,-1.7554e-07,0,4.4878e-05,-0.00036784,-5.8334e+08,-33354,0,1.8334e+07,-102.96,11090,11613,1,11613,1,-0.00061327,-1.9268e-08,0,0.0004419,-0.00021454,-2.4941e+08,-4746.5,0,1.5293e+08,1224.5,11612,12607,1,12607,1,0.0011547,2.0075e-08,0,0.0013259,0.00011546,2.6715e+08,5461.5,0,3.3185e+08,6434.3,12606,574.93,0,574.93,0,0.0010204,4.5096e-08,0,0.00054384,0.00019055,2.9457e+08,10604,0,1.4237e+08,4207.7,574.93,1
1988,5.86,12110,1,12110,1,0.00027282,8.458e-10,0,0.00090703,-4.9886e-05,568.36,643.57,0,2.5794e+08,4774.9,12109,13104,1,13104,1,0.0019821,1.6391e-07,0,0.0019821,0.00026961,3.5413e+08,36367,0,5.8415e+08,20536,13103,12110,1,12110,1,0.00027268,3.0537e-09,0,0.00088616,-5.0078e-05,8.5267e+07,779.22,0,2.6726e+08,3804.9,12109,11091,1,11091,1,-0.0014362,-1.8344e-07,0,4.3613e-05,-0.00036895,-5.8415e+08,-34682,0,1.7835e+07,-158.93,11090,11613,1,11613,1,-0.00061334,-1.9367e-08,0,0.00044293,-0.00021528,-2.4944e+08,-4710.3,0,1.5341e+08,1248.9,11612,12607,1,12607,1,0.0011588,2.2632e-08,0,0.001329,0.00011548,2.6726e+08,6066.7,0,3.3172e+08,6768.2,12606,574.93,0,574.93,0,0.0010228,4.7606e-08,0,0.00054548,0.00019099,2.9473e+08,11226,0,1.4247e+08,4427.4,574.93,1
1988,5.87,12110,1,12110,1,0.00027484,-2.1988e-09,0,0.00090937,-5.0255e-05,176.15,-116.86,0,2.5807e+08,5045.9,12109,13104,1,13104,1,0.0019881,1.7053e-07,0,0.0019881,0.00026999,3.5361e+08,37844,0,5.8497e+08,21816,13103,12110,1,12110,1,0.0002747,-3.2105e-10,0,0.00088826,-5.0447e-05,8.5774e+07,-79.895,0,2.6736e+08,4014,12109,11091,1,11091,1,-0.0014382,-1.9813e-07,0,4.2333e-05,-0.00037006,-5.8497e+08,-37449,0,1.7331e+07,-115.78,11090,11613,1,11613,1,-0.00061342,-2.363e-08,0,0.00044397,-0.00021604,-2.4947e+08,-5791.5,0,1.5389e+08,1329.5,11612,12607,1,12607,1,0.0011629,2.0869e-08,0,0.0013321,0.00011549,2.6736e+08,5611.8,0,3.316e+08,7079.4,12606,574.93,0,574.93,0,0.0010253,5.0701e-08,0,0.00054713,0.00019144,2.9489e+08,11892,0,1.4257e+08,4676.6,574.93,1
1988,5.88,12110,1,12110,1,0.00027689,-7.9061e-10,0,0.00091173,-5.0628e-05,-202.27,232.64,0,2.582e+08,5366,12109,13104,1,13104,1,0.0019943,1.8307e-07,0,0.0019943,0.00027038,3.5307e+08,40301,0,5.8579e+08,23249,13103,12110,1,12110,1,0.00027674,1.2751e-09,0,0.00089037,-5.0819e-05,8.6285e+07,331.31,0,2.6746e+08,4262.6,12109,11091,1,11091,1,-0.0014403,-2.0893e-07,0,4.1036e-05,-0.00037119,-5.8579e+08,-39313,0,1.6823e+07,-45.778,11090,11613,1,11613,1,-0.00061348,-2.3348e-08,0,0.00044501,-0.0002168,-2.4949e+08,-5764.6,0,1.5436e+08,1425.4,11612,12607,1,12607,1,0.001167,2.381e-08,0,0.0013352,0.00011551,2.6746e+08,6300.5,0,3.3147e+08,7529.9,12606,574.93,0,574.93,0,0.0010277,5.367e-08,0,0.0005488,0.00019189,2.9505e+08,12602,0,1.4268e+08,4962.1,574.93,1
1988,5.89,12110,1,12110,1,0.00027897,1.2999e-09,0,0.00091414,-5.1009e-05,96.942,778.49,0,2.5833e+08,5700.6,12109,13104,1,13104,1,0.0020005,1.9289e-07,0,0.0020005,0.00027077,3.5253e+08,43420,0,5.8664e+08,24604,13103,12110,1,12110,1,0.00027881,4.0981e-09,0,0.00089252,-5.1198e-05,8.6803e+07,1051,0,2.6757e+08,4565.7,12109,11091,1,11091,1,-0.0014423,-2.1995e-07,0,3.9719e-05,-0.00037235,-5.8664e+08,-41095,0,1.6308e+07,-204.69,11090,11613,1,11613,1,-0.00061355,-2.269e-08,0,0.00044607,-0.00021757,-2.4952e+08,-5557.2,0,1.5485e+08,1514.2,11612,12607,1,12607,1,0.0011713,2.7717e-08,0,0.0013385,0.00011553,2.6757e+08,7448.9,0,3.3134e+08,8031,12606,574.93,0,574.93,0,0.0010302,5.7016e-08,0,0.00055051,0.00019235,2.9522e+08,13485,0,1.4278e+08,5232.3,574.93,1
1988,5.9,12110,1,12110,1,0.00028109,-2.5192e-09,0,0.00091656,-5.1396e-05,204.52,-133.22,0,2.5845e+08,6066.6,12109,13104,1,13104,1,0.0020069,2.0634e-07,0,0.0020069,0.00027116,3.5198e+08,46319,0,5.8747e+08,25782,13103,12110,1,12110,1,0.00028092,-2.0842e-10,0,0.00089469,-5.1584e-05,8.7329e+07,-56.569,0,2.6766e+08,4885.4,12109,11091,1,11091,1,-0.0014444,-2.3687e-07,0,3.8363e-05,-0.00037351,-5.8747e+08,-44120,0,1.5781e+07,-39.347,11090,11613,1,11613,1,-0.0006136,-2.9179e-08,0,0.00044715,-0.00021836,-2.4954e+08,-7193.7,0,1.5534e+08,1600.9,11612,12607,1,12607,1,0.0011755,2.5909e-08,0,0.0013417,0.00011554,2.6766e+08,6838.4,0,3.312e+08,8550.9,12606,574.93,0,574.93,0,0.0010327,6.1162e-08,0,0.00055223,0.00019281,2.9538e+08,14450,0,1.4289e+08,5555.5,574.93,1
1988,5.91,12110,1,12110,1,0.00028324,-7.2631e-10,0,0.00091898,-5.1787e-05,389.05,311.01,0,2.5857e+08,6501.9,12109,13104,1,13104,1,0.0020132,2.2402e-07,0,0.0020132,0.00027154,3.514e+08,49283,0,5.883e+08,27393,13103,12110,1,12110,1,0.00028305,1.8894e-09,0,0.00089685,-5.1973e-05,8.7858e+07,483.91,0,2.6775e+08,5292.4,12109,11091,1,11091,1,-0.0014464,-2.5425e-07,0,3.6987e-05,-0.00037468,-5.883e+08,-47172,0,1.5248e+07,-135.16,11090,11613,1,11613,1,-0.00061361,-2.9193e-08,0,0.00044822,-0.00021915,-2.4954e+08,-7164.2,0,1.5584e+08,1726,11612,12607,1,12607,1,0.0011798,3.0002e-08,0,0.0013449,0.00011555,2.6775e+08,7922.6,0,3.3104e+08,9204,12606,574.93,0,574.93,0,0.0010352,6.6181e-08,0,0.00055397,0.00019327,2.9553e+08,15539,0,1.4299e+08,5892.8,574.93,1
1988,5.92,12110,1,12110,1,0.0002854,2.7466e-09,0,0.00092143,-5.2183e-05,225.02,1245.1,0,2.5869e+08,6896.5,12109,13104,1,13104,1,0.0020196,2.4075e-07,0,0.0020196,0.00027193,3.5081e+08,52894,0,5.8914e+08,29078,13103,12110,1,12110,1,0.0002852,6.1716e-09,0,0.00089903,-5.2365e-05,8.8389e+07,1609.3,0,2.6784e+08,5625.5,12109,11091,1,11091,1,-0.0014485,-2.7071e-07,0,3.5597e-05,-0.00037586,-5.8914e+08,-49985,0,1.4712e+07,-345.01,11090,11613,1,11613,1,-0.00061363,-2.7325e-08,0,0.00044928,-0.00021994,-2.4955e+08,-6684.3,0,1.561e+08,1824.4,11612,12607,1,12607,1,0.0011841,3.6311e-08,0,0.0013481,0.00011556,2.6784e+08,9704.4,0,3.3089e+08,9791.7,12606,574.93,0,574.93,0,0.0010377,7.1171e-08,0,0.00055573,0.00019374,2.9568e+08,16683,0,1.431e+08,6244.2,574.93,1
1988,5.93,12110,1,12110,1,0.0002876,-2.6259e-09,0,0.00092392,-5.2583e-05,-294.71,5.2927,0,2.5881e+08,7446.2,12109,13104,1,13104,1,0.0020261,2.5665e-07,0,0.0020261,0.00027232,3.5025e+08,56990,0,5.8999e+08,30212,13103,12110,1,12110,1,0.00028738,8.1029e-10,0,0.00090127,-5.2763e-05,8.8929e+07,211.82,0,2.6792e+08,6127.6,12109,11091,1,11091,1,-0.0014506,-2.9174e-07,0,3.4186e-05,-0.00037706,-5.8999e+08,-53678,0,1.417e+07,-123.85,11090,11613,1,11613,1,-0.00061367,-3.6319e-08,0,0.00045039,-0.00022075,-2.4956e+08,-8908.6,0,1.5627e+08,2024.2,11612,12607,1,12607,1,0.0011886,3.3633e-08,0,0.0013515,0.00011557,2.6792e+08,8894.6,0,3.3073e+08,10649,12606,574.93,0,574.93,0,0.0010403,7.6473e-08,0,0.00055752,0.00019421,2.9584e+08,17949,0,1.4321e+08,6643.9,574.93,1
1988,5.94,12110,1,12110,1,0.00028984,-2.4194e-09,0,0.00092642,-5.2991e-05,172.75,42.545,0,2.5892e+08,7992.1,12109,13104,1,13104,1,0.0020327,2.7963e-07,0,0.0020327,0.00027271,3.4965e+08,60951,0,5.9083e+08,32205,13103,12110,1,12110,1,0.00028961,6.5268e-10,0,0.0009035,-5.3168e-05,8.9476e+07,172.24,0,2.68e+08,6697.6,12109,11091,1,11091,1,-0.0014527,-3.1414e-07,0,3.2741e-05,-0.00037827,-5.9083e+08,-57606,0,1.3619e+07,-59.81,11090,11613,1,11613,1,-0.00061366,-3.9212e-08,0,0.00045149,-0.00022156,-2.4956e+08,-9600.5,0,1.5643e+08,2192,11612,12607,1,12607,1,0.001193,3.6509e-08,0,0.0013548,0.00011558,2.68e+08,9569.8,0,3.3056e+08,11361,12606,574.93,0,574.93,0,0.0010428,8.2722e-08,0,0.00055932,0.00019469,2.9599e+08,19350,0,1.4331e+08,7083.4,574.93,1
1988,5.95,12110,1,12110,1,0.0002921,-2.7966e-09,0,0.00092896,-5.3404e-05,-502.55,-85.92,0,2.5903e+08,8583.5,12109,13104,1,13104,1,0.0020394,3.0017e-07,0,0.0020394,0.00027311,3.4904e+08,64357,0,5.9169e+08,34306,13103,12110,1,12110,1,0.00029185,1.2416e-10,0,0.00090577,-5.3578e-05,9.0027e+07,20.028,0,2.6808e+08,7309.5,12109,11091,1,11091,1,-0.0014548,-3.3978e-07,0,3.1278e-05,-0.0003795,-5.9169e+08,-62120,0,1.3063e+07,-79.341,11090,11613,1,11613,1,-0.00061366,-4.2662e-08,0,0.0004526,-0.00022239,-2.4956e+08,-10436,0,1.566e+08,2377.1,11612,12607,1,12607,1,0.0011975,4.0074e-08,0,0.0013581,0.00011558,2.6808e+08,10416,0,3.3038e+08,12217,12606,574.93,0,574.93,0,0.0010454,8.9637e-08,0,0.00056116,0.00019517,2.9614e+08,20814,0,1.4342e+08,7489.9,574.93,1
1988,5.96,12110,1,12110,1,0.0002944,-2.0497e-09,0,0.00093153,-5.3825e-05,256.09,128.34,0,2.5914e+08,9161.8,12109,13104,1,13104,1,0.0020461,3.2451e-07,0,0.0020461,0.00027351,3.4842e+08,69502,0,5.9255e+08,36282,13103,12110,1,12110,1,0.00029414,1.3294e-09,0,0.00090806,-5.3995e-05,9.0588e+07,350.35,0,2.6816e+08,7833.9,12109,11091,1,11091,1,-0.0014569,-3.623e-07,0,2.9782e-05,-0.00038075,-5.9255e+08,-65926,0,1.2498e+07,5.3681,11090,11613,1,11613,1,-0.00061365,-4.4961e-08,0,0.00045373,-0.00022323,-2.4955e+08,-11162,0,1.5677e+08,2579.6,11612,12607,1,12607,1,0.0012021,4.4109e-08,0,0.0013615,0.00011558,2.6816e+08,11451,0,3.302e+08,13030,12606,574.93,0,574.93,0,0.0010481,9.6388e-08,0,0.00056303,0.00019566,2.963e+08,22376,0,1.4353e+08,7964.9,574.93,1
1988,5.97,12110,1,12110,1,0.00029673,-7.9662e-09,0,0.0009341,-5.425e-05,-694.35,-1365,0,2.5924e+08,9925.4,12109,13104,1,13104,1,0.0020529,3.4875e-07,0,0.0020529,0.0002739,3.4778e+08,73136,0,5.9339e+08,38409,13103,12110,1,12110,1,0.00029646,-6.641e-09,0,0.00091036,-5.4417e-05,9.1152e+07,-1691.1,0,2.6822e+08,8578.8,12109,11091,1,11091,1,-0.001459,-3.9756e-07,0,2.8259e-05,-0.00038199,-5.9339e+08,-72479,0,1.1925e+07,-70.302,11090,11613,1,11613,1,-0.00061361,-5.5117e-08,0,0.00045487,-0.00022407,-2.4954e+08,-13807,0,1.5693e+08,2852.9,11612,12607,1,12607,1,0.0012067,4.186e-08,0,0.0013649,0.00011558,2.6822e+08,10762,0,3.3e+08,14137,12606,574.93,0,574.93,0,0.0010507,1.0494e-07,0,0.0005649,0.00019614,2.9643e+08,24197,0,1.4364e+08,8484.6,574.93,1
1988,5.98,12110,1,12110,1,0.00029911,-1.0575e-09,0,0.00093675,-5.4683e-05,319.66,238.78,0,2.5936e+08,10544,12109,13104,1,13104,1,0.0020599,3.824e-07,0,0.0020599,0.00027432,3.4713e+08,79092,0,5.9428e+08,41221,13103,12110,1,12110,1,0.00029882,1.7071e-09,0,0.00091271,-5.4845e-05,9.1725e+07,441.76,0,2.683e+08,9118.5,12109,11091,1,11091,1,-0.0014611,-4.1483e-07,0,2.6719e-05,-0.00038327,-5.9428e+08,-74892,0,1.135e+07,-47.037,11090,11613,1,11613,1,-0.00061359,-5.1507e-08,0,0.00045602,-0.00022493,-2.4953e+08,-12789,0,1.571e+08,2989.8,11612,12607,1,12607,1,0.0012114,5.2457e-08,0,0.0013684,0.00011559,2.683e+08,13521,0,3.2982e+08,15063,12606,574.93,0,574.93,0,0.0010534,1.1202e-07,0,0.00056683,0.00019665,2.9659e+08,25844,0,1.4375e+08,9031.8,574.93,1
1988,5.99,12110,1,12110,1,0.00030153,-3.0607e-09,0,0.00093942,-5.5125e-05,253.89,-220.41,0,2.5946e+08,11356,12109,13104,1,13104,1,0.0020669,4.11e-07,0,0.0020669,0.00027472,3.4647e+08,84846,0,5.9516e+08,43817,13103,12110,1,12110,1,0.00030122,-7.2904e-10,0,0.0009151,-5.5282e-05,9.2308e+07,-166.24,0,2.6836e+08,9873.2,12109,11091,1,11091,1,-0.0014633,-4.504e-07,0,2.5131e-05,-0.00038458,-5.9516e+08,-81047,0,1.0759e+07,-29.229,11090,11613,1,11613,1,-0.00061354,-5.8184e-08,0,0.00045718,-0.00022581,-2.4951e+08,-14519,0,1.5726e+08,3221.3,11612,12607,1,12607,1,0.0012162,5.5677e-08,0,0.001372,0.00011558,2.6836e+08,14148,0,3.2962e+08,16272,12606,574.93,0,574.93,0,0.0010562,1.215e-07,0,0.00056879,0.00019715,2.9674e+08,27962,0,1.4387e+08,9648.5,574.93,1
1988,6,12110,1,12110,1,0.000304,-4.9149e-09,0,0.00094213,-5.5575e-05,222.2,-698.07,0,2.5956e+08,12228,12109,13104,1,13104,1,0.0020741,4.4188e-07,0,0.0020741,0.00027514,3.458e+08,91612,0,5.9605e+08,46578,13103,12110,1,12110,1,0.00030367,-2.9468e-09,0,0.00091752,-5.5727e-05,9.2899e+07,-758.39,0,2.6842e+08,10648,12109,11091,1,11091,1,-0.0014655,-4.8475e-07,0,2.3509e-05,-0.0003859,-5.9605e+08,-86788,0,1.0158e+07,-13.13,11090,11613,1,11613,1,-0.00061348,-6.5699e-08,0,0.00045836,-0.0002267,-2.4949e+08,-16389,0,1.5743e+08,3466.4,11612,12607,1,12607,1,0.001221,5.7922e-08,0,0.0013755,0.00011558,2.6842e+08,14683,0,3.2943e+08,17530,12606,574.93,0,574.93,0,0.001059,1.3115e-07,0,0.00057078,0.00019767,2.9688e+08,30279,0,1.4398e+08,10344,574.93,1
1988,6.01,12110,1,12110,1,0.00030651,-4.2805e-09,0,0.00094484,-5.6032e-05,1119.3,-578.82,0,2.5965e+08,13237,12109,13104,1,13104,1,0.0020813,4.8911e-07,0,0.0020813,0.00027554,3.451e+08,98677,0,5.9693e+08,49687,13103,12110,1,12110,1,0.00030616,-3.577e-09,0,0.00091994,-5.6178e-05,9.3497e+07,-936.38,0,2.6847e+08,11653,12109,11091,1,11091,1,-0.0014676,-5.2682e-07,0,2.1848e-05,-0.00038723,-5.9693e+08,-94061,0,9.5462e+06,-159.28,11090,11613,1,11613,1,-0.00061339,-7.1284e-08,0,0.00045955,-0.00022759,-2.4945e+08,-17864,0,1.5759e+08,3767.4,11612,12607,1,12607,1,0.0012259,6.474e-08,0,0.0013791,0.00011557,2.6847e+08,16399,0,3.2928e+08,19008,12606,574.93,0,574.93,0,0.0010617,1.4389e-07,0,0.00057279,0.00019818,2.9701e+08,32958,0,1.441e+08,11083,574.93,1
1988,6.02,12110,1,12110,1,0.00030906,-2.3958e-09,0,0.00094765,-5.6496e-05,-206.02,-175.05,0,2.5976e+08,14275,12109,13104,1,13104,1,0.0020888,5.2872e-07,0,0.0020888,0.00027597,3.4441e+08,1.0632e+05,0,5.9785e+08,52928,13103,12110,1,12110,1,0.00030869,-7.812e-10,0,0.00092244,-5.6636e-05,9.4102e+07,-197.8,0,2.6854e+08,12645,12109,11091,1,11091,1,-0.0014699,-5.6455e-07,0,2.0173e-05,-0.0003886,-5.9785e+08,-1.0022e+05,0,8.9316e+06,86.287,11090,11613,1,11613,1,-0.00061334,-7.4678e-08,0,0.00046076,-0.00022851,-2.4942e+08,-18700,0,1.5776e+08,4100,11612,12607,1,12607,1,0.0012309,7.1892e-08,0,0.0013828,0.00011557,2.6854e+08,18324,0,3.2907e+08,20498,12606,574.93,0,574.93,0,0.0010646,1.5564e-07,0,0.00057486,0.00019871,2.9717e+08,35603,0,1.4422e+08,11803,574.93,1
1988,6.03,12110,1,12110,1,0.00031167,-6.3131e-09,0,0.00095046,-5.6972e-05,362.19,-1159.8,0,2.5985e+08,15495,12109,13104,1,13104,1,0.0020963,5.7448e-07,0,0.0020963,0.00027639,3.4368e+08,1.1408e+05,0,5.9875e+08,56406,13103,12110,1,12110,1,0.00031127,-6.9165e-09,0,0.00092494,-5.7104e-05,9.472e+07,-1774.5,0,2.6858e+08,13794,12109,11091,1,11091,1,-0.0014721,-6.1763e-07,0,1.8436e-05,-0.00038998,-5.9875e+08,-1.0935e+05,0,8.2963e+06,-79.577,11090,11613,1,11613,1,-0.00061322,-8.6292e-08,0,0.00046198,-0.00022944,-2.4938e+08,-21824,0,1.5792e+08,4456,11612,12607,1,12607,1,0.001236,7.6012e-08,0,0.0013865,0.00011556,2.6858e+08,19072,0,3.2883e+08,22330,12606,574.93,0,574.93,0,0.0010675,1.7027e-07,0,0.00057695,0.00019924,2.973e+08,38737,0,1.4434e+08,12699,574.93,1
1988,6.04,12110,1,12110,1,0.00031432,-5.6733e-09,0,0.00095333,-5.7455e-05,670.94,-1099.9,0,2.5994e+08,16696,12109,13104,1,13104,1,0.0021039,6.286e-07,0,0.0021039,0.00027682,3.4295e+08,1.2344e+05,0,5.9967e+08,60173,13103,12110,1,12110,1,0.0003139,-7.2695e-09,0,0.00092749,-5.758e-05,9.5346e+07,-1816.2,0,2.6862e+08,15021,12109,11091,1,11091,1,-0.0014744,-6.6513e-07,0,1.6673e-05,-0.00039139,-5.9967e+08,-1.1758e+05,0,7.6541e+06,-125.99,11090,11613,1,11613,1,-0.00061312,-9.3783e-08,0,0.00046322,-0.00023038,-2.4933e+08,-23535,0,1.5808e+08,4816.1,11612,12607,1,12607,1,0.0012412,8.3828e-08,0,0.0013903,0.00011555,2.6862e+08,20949,0,3.2859e+08,24230,12606,574.93,0,574.93,0,0.0010704,1.8523e-07,0,0.00057909,0.00019979,2.9744e+08,42039,0,1.4446e+08,13598,574.93,1
1988,6.05,12110,1,12110,1,0.00031704,-2.3819e-09,0,0.00095627,-5.795e-05,756.2,-380.37,0,2.6003e+08,17998,12109,13104,1,13104,1,0.0021118,6.796e-07,0,0.0021118,0.00027726,3.4219e+08,1.3389e+05,0,6.0062e+08,64661,13103,12110,1,12110,1,0.00031659,-1.3229e-09,0,0.00093012,-5.8065e-05,9.5984e+07,-325.69,0,2.6867e+08,16328,12109,11091,1,11091,1,-0.0014767,-7.1809e-07,0,1.4861e-05,-0.00039284,-6.0062e+08,-1.2891e+05,0,6.9963e+06,44.002,11090,11613,1,11613,1,-0.000613,-9.8253e-08,0,0.00046448,-0.00023135,-2.4929e+08,-24837,0,1.5825e+08,5206.8,11612,12607,1,12607,1,0.0012465,9.6045e-08,0,0.0013941,0.00011553,2.6867e+08,23813,0,3.2835e+08,26224,12606,574.93,0,574.93,0,0.0010734,2.0112e-07,0,0.00058129,0.00020034,2.9759e+08,45672,0,1.4459e+08,14587,574.93,1
1988,6.06,12110,1,12110,1,0.00031983,-1.0062e-09,0,0.00095926,-5.8456e-05,-204.31,-44.133,0,2.6012e+08,19631,12109,13104,1,13104,1,0.0021198,7.4712e-07,0,0.0021198,0.00027771,3.4142e+08,1.4521e+05,0,6.0158e+08,69193,13103,12110,1,12110,1,0.00031933,3.7198e-11,0,0.00093278,-5.856e-05,9.6632e+07,12.507,0,2.6871e+08,17983,12109,11091,1,11091,1,-0.0014791,-7.8305e-07,0,1.3e-05,-0.00039431,-6.0158e+08,-1.3925e+05,0,6.3228e+06,144.02,11090,11613,1,11613,1,-0.00061288,-1.0664e-07,0,0.00046575,-0.00023233,-2.4924e+08,-26932,0,1.5842e+08,5779.4,11612,12607,1,12607,1,0.0012518,1.0677e-07,0,0.001398,0.00011552,2.6871e+08,26715,0,3.2809e+08,28642,12606,574.93,0,574.93,0,0.0010765,2.2095e-07,0,0.00058353,0.00020091,2.9773e+08,49894,0,1.4472e+08,15694,574.93,1
1988,6.07,12110,1,12110,1,0.00032268,-2.6302e-09,0,0.00096231,-5.8973e-05,139.53,-431.5,0,2.6021e+08,21378,12109,13104,1,13104,1,0.002128,8.1911e-07,0,0.002128,0.00027815,3.4064e+08,1.5813e+05,0,6.0254e+08,73987,13103,12110,1,12110,1,0.00032215,-2.8098e-09,0,0.0009355,-5.9066e-05,9.7294e+07,-784.14,0,2.6874e+08,19650,12109,11091,1,11091,1,-0.0014815,-8.5417e-07,0,1.1081e-05,-0.00039582,-6.0254e+08,-1.5102e+05,0,5.6306e+06,61.403,11090,11613,1,11613,1,-0.00061273,-1.1928e-07,0,0.00046705,-0.00023334,-2.4917e+08,-30128,0,1.5858e+08,6388.6,11612,12607,1,12607,1,0.0012573,1.1604e-07,0,0.0014019,0.0001155,2.6874e+08,28941,0,3.2783e+08,31279,12606,574.93,0,574.93,0,0.0010796,2.4241e-07,0,0.00058583,0.00020148,2.9786e+08,54560,0,1.4485e+08,16917,574.93,1
1988,6.08,12110,1,12110,1,0.0003256,-3.4512e-09,0,0.00096542,-5.9502e-05,-147.65,-654.8,0,2.6029e+08,23287,12109,13104,1,13104,1,0.0021364,8.948e-07,0,0.0021364,0.00027861,3.3983e+08,1.7164e+05,0,6.0352e+08,79120,13103,12110,1,12110,1,0.00032502,-4.6892e-09,0,0.00093827,-5.9583e-05,9.7969e+07,-1251.2,0,2.6876e+08,21604,12109,11091,1,11091,1,-0.0014839,-9.366e-07,0,9.112e-06,-0.00039737,-6.0352e+08,-1.6493e+05,0,4.9223e+06,175.76,11090,11613,1,11613,1,-0.00061257,-1.3211e-07,0,0.00046837,-0.00023436,-2.4911e+08,-33338,0,1.5875e+08,7041.9,11612,12607,1,12607,1,0.001263,1.2677e-07,0,0.001406,0.00011548,2.6876e+08,31792,0,3.2755e+08,34186,12606,574.93,0,574.93,0,0.0010828,2.6657e-07,0,0.00058818,0.00020207,2.98e+08,59702,0,1.4498e+08,18252,574.93,1
1988,6.09,12110,1,12110,1,0.00032861,-2.1727e-09,0,0.00096861,-6.0046e-05,-133.94,-362.53,0,2.6037e+08,25343,12109,13104,1,13104,1,0.002145,9.8004e-07,0,0.002145,0.00027908,3.39e+08,1.8716e+05,0,6.0453e+08,85035,13103,12110,1,12110,1,0.00032797,-2.5548e-09,0,0.00094112,-6.0113e-05,9.8658e+07,-679.49,0,2.6879e+08,23730,12109,11091,1,11091,1,-0.0014863,-1.0233e-06,0,7.0852e-06,-0.00039895,-6.0453e+08,-1.7986e+05,0,4.1941e+06,209,11090,11613,1,11613,1,-0.00061239,-1.4353e-07,0,0.00046972,-0.00023541,-2.4903e+08,-36253,0,1.5892e+08,7638.4,11612,12607,1,12607,1,0.0012687,1.4138e-07,0,0.0014101,0.00011546,2.6879e+08,35611,0,3.2727e+08,37368,12606,574.93,0,574.93,0,0.001086,2.9261e-07,0,0.0005906,0.00020267,2.9814e+08,65347,0,1.4512e+08,19725,574.93,1
1988,6.1,12110,1,12110,1,0.00033169,5.2847e-10,0,0.00097186,-6.0603e-05,-50.868,310.21,0,2.6045e+08,27653,12109,13104,1,13104,1,0.0021539,1.0788e-06,0,0.0021539,0.00027955,3.3814e+08,2.0356e+05,0,6.0554e+08,91214,13103,12110,1,12110,1,0.00033099,1.8631e-09,0,0.00094402,-6.0654e-05,9.9361e+07,439.4,0,2.688e+08,26127,12109,11091,1,11091,1,-0.0014888,-1.1226e-06,0,4.9912e-06,-0.00040058,-6.0554e+08,-1.956e+05,0,3.4427e+06,132.94,11090,11613,1,11613,1,-0.00061219,-1.5581e-07,0,0.00047108,-0.00023648,-2.4895e+08,-38963,0,1.5908e+08,8420.9,11612,12607,1,12607,1,0.0012746,1.5908e-07,0,0.0014142,0.00011544,2.688e+08,39659,0,3.2697e+08,40846,12606,574.93,0,574.93,0,0.0010893,3.2286e-07,0,0.00059309,0.00020328,2.9828e+08,71605,0,1.4526e+08,21346,574.93,1
1988,6.11,12110,1,12110,1,0.00033486,-1.1655e-09,0,0.00097521,-6.1176e-05,-47.555,-5.2883,0,2.6053e+08,30108,12109,13104,1,13104,1,0.002163,1.1782e-06,0,0.002163,0.00028004,3.3728e+08,2.2327e+05,0,6.066e+08,97770,13103,12110,1,12110,1,0.00033409,3.4794e-10,0,0.00094701,-6.121e-05,1.0008e+08,81.166,0,2.6882e+08,28503,12109,11091,1,11091,1,-0.0014914,-1.2273e-06,0,2.8355e-06,-0.00040226,-6.066e+08,-2.1447e+05,0,2.6703e+06,290.86,11090,11613,1,11613,1,-0.00061199,-1.7316e-07,0,0.00047247,-0.00023758,-2.4887e+08,-43305,0,1.5925e+08,9064.9,11612,12607,1,12607,1,0.0012806,1.7468e-07,0,0.0014185,0.00011541,2.6882e+08,43746,0,3.2667e+08,44712,12606,574.93,0,574.93,0,0.0010928,3.5381e-07,0,0.00059565,0.00020391,2.9842e+08,78512,0,1.4541e+08,23098,574.93,1
1988,6.12,12110,1,12110,1,0.00033813,-2.5038e-09,0,0.00097864,-6.1766e-05,42.706,-290.2,0,2.606e+08,33016,12109,13104,1,13104,1,0.0021723,1.3012e-06,0,0.0021723,0.00028053,3.3639e+08,2.4428e+05,0,6.0766e+08,1.05e+05,13103,12110,1,12110,1,0.00033729,-1.2959e-09,0,0.00095008,-6.178e-05,1.0082e+08,-310.77,0,2.6883e+08,31324,12109,11091,1,11091,1,-0.001494,-1.3547e-06,0,6.008e-07,-0.00040398,-6.0766e+08,-2.343e+05,0,1.8705e+06,255.6,11090,11613,1,11613,1,-0.00061177,-1.9368e-07,0,0.0004739,-0.00023871,-2.4878e+08,-48463,0,1.5942e+08,9911.6,11612,12607,1,12607,1,0.0012868,1.9295e-07,0,0.0014229,0.00011538,2.6883e+08,48391,0,3.2635e+08,49275,12606,574.93,0,574.93,0,0.0010963,3.9222e-07,0,0.00059828,0.00020456,2.9855e+08,86526,0,1.4557e+08,25086,574.93,1
1988,6.13,12110,1,12110,1,0.00034151,-2.5797e-09,0,0.00098224,-6.2375e-05,116.18,-318.98,0,2.6067e+08,36113,12109,13104,1,13104,1,0.002182,1.4281e-06,0,0.002182,0.00028104,3.3546e+08,2.683e+05,0,6.0875e+08,1.1306e+05,13103,12110,1,12110,1,0.00034058,-3.5514e-09,0,0.0009518,-6.2367e-05,1.0158e+08,-968.05,0,2.6883e+08,34406,12109,11091,1,11091,1,-0.0014967,-1.49e-06,0,2.9354e-07,-0.00040576,-6.0875e+08,-2.5707e+05,0,1.0418e+06,318.68,11090,11613,1,11613,1,-0.00061151,-2.1468e-07,0,0.00047663,-0.00023987,-2.4867e+08,-53791,0,1.5959e+08,10858,11612,12607,1,12607,1,0.0012932,2.1471e-07,0,0.0014293,0.00011535,2.6883e+08,53409,0,3.2601e+08,54068,12606,574.93,0,574.93,0,0.0010998,4.328e-07,0,0.00060088,0.00020522,2.9869e+08,95272,0,1.4572e+08,27249,574.93,1
1988,6.14,12110,1,12110,1,0.000345,-2.873e-09,0,0.00098604,-6.3002e-05,238.44,-364.34,0,2.6073e+08,39624,12109,13104,1,13104,1,0.002192,1.5802e-06,0,0.002192,0.00028156,3.3452e+08,2.9417e+05,0,6.0987e+08,1.2162e+05,13103,12110,1,12110,1,0.00034397,-3.1326e-09,0,0.00095418,-6.297e-05,1.0235e+08,-793.83,0,2.6882e+08,37873,12109,11091,1,11091,1,-0.0014995,-1.6481e-06,0,1.697e-06,-0.0004076,-6.0987e+08,-2.8205e+05,0,1.8503e+05,313.48,11090,11613,1,11613,1,-0.00061125,-2.4042e-07,0,0.00047845,-0.00024107,-2.4856e+08,-59691,0,1.5977e+08,12002,11612,12607,1,12607,1,0.0012998,2.4005e-07,0,0.0014341,0.00011532,2.6882e+08,59232,0,3.2567e+08,59802,12606,574.93,0,574.93,0,0.0011035,4.8106e-07,0,0.00060343,0.0002059,2.9883e+08,1.0531e+05,0,1.4588e+08,29579,574.93,1
1988,6.15,12110,1,12110,1,0.00034861,1.1703e-09,0,0.00098998,-6.3651e-05,30.436,645.4,0,2.6083e+08,43579,12109,13104,1,13104,1,0.0022024,1.7448e-06,0,0.0022024,0.0002821,3.3353e+08,3.2404e+05,0,6.1104e+08,1.3095e+05,13103,12110,1,12110,1,0.00034747,5.4434e-09,0,0.00095728,-6.3591e-05,1.0315e+08,1361.8,0,2.6882e+08,41935,12109,11091,1,11091,1,-0.0015024,-1.816e-06,0,3.9035e-06,-0.00040952,-6.1104e+08,-3.1068e+05,0,1.0551e+05,397.68,11090,11613,1,11613,1,-0.00061096,-2.6433e-07,0,0.00048016,-0.0002423,-2.4845e+08,-65544,0,1.5994e+08,13199,11612,12607,1,12607,1,0.0013066,2.7255e-07,0,0.001439,0.00011528,2.6882e+08,67208,0,3.253e+08,66020,12606,574.93,0,574.93,0,0.0011074,5.3343e-07,0,0.00060608,0.00020661,2.9897e+08,1.164e+05,0,1.46e+08,32287,574.93,1
1988,6.16,12110,1,12110,1,0.00035237,-2.5032e-09,0,0.00099405,-6.4323e-05,-159.48,-78.032,0,2.6096e+08,48007,12109,13104,1,13104,1,0.0022133,1.9324e-06,0,0.0022133,0.00028266,3.3253e+08,3.5788e+05,0,6.1224e+08,1.4072e+05,13103,12110,1,12110,1,0.0003511,3.8931e-10,0,0.00096047,-6.4233e-05,1.0398e+08,78.609,0,2.688e+08,46298,12109,11091,1,11091,1,-0.0015053,-2.0124e-06,0,6.1863e-06,-0.00041151,-6.1224e+08,-3.4322e+05,0,5.7629e+05,452.5,11090,11613,1,11613,1,-0.00061067,-3.0073e-07,0,0.00048193,-0.00024357,-2.4832e+08,-73958,0,1.6012e+08,14530,11612,12607,1,12607,1,0.0013136,3.018e-07,0,0.0014442,0.00011525,2.688e+08,74766,0,3.2463e+08,73306,12606,574.93,0,574.93,0,0.0011113,5.9382e-07,0,0.00060882,0.00020734,2.9911e+08,1.2917e+05,0,1.4607e+08,35280,574.93,1
1988,6.17,12110,1,12110,1,0.00035628,1.6926e-09,0,0.00099826,-6.5022e-05,-118.12,998.56,0,2.6108e+08,53049,12109,13104,1,13104,1,0.0022245,2.1489e-06,0,0.0022245,0.00028323,3.3148e+08,3.959e+05,0,6.1347e+08,1.5155e+05,13103,12110,1,12110,1,0.00035486,7.8004e-09,0,0.00096372,-6.4896e-05,1.0482e+08,1946.9,0,2.6877e+08,51703,12109,11091,1,11091,1,-0.0015083,-2.2345e-06,0,8.556e-06,-0.00041358,-6.1347e+08,-3.785e+05,0,1.4104e+06,478.62,11090,11613,1,11613,1,-0.00061032,-3.3338e-07,0,0.00048377,-0.00024489,-2.4818e+08,-81563,0,1.603e+08,16282,11612,12607,1,12607,1,0.0013208,3.449e-07,0,0.0014495,0.0001152,2.6877e+08,84975,0,3.2357e+08,81767,12606,574.93,0,574.93,0,0.0011154,6.639e-07,0,0.00061168,0.0002081,2.9925e+08,1.4363e+05,0,1.4614e+08,38618,574.93,1
1988,6.18,12110,1,12110,1,0.00036035,-1.971e-09,0,0.0010026,-6.5749e-05,-71.064,363.8,0,2.6121e+08,58715,12109,13104,1,13104,1,0.0022363,2.3921e-06,0,0.0022363,0.00028383,3.3042e+08,4.3777e+05,0,6.1475e+08,1.6294e+05,13103,12110,1,12110,1,0.00035876,2.9285e-09,0,0.00096708,-6.5583e-05,1.057e+08,736.06,0,2.6874e+08,57984,12109,11091,1,11091,1,-0.0015115,-2.4926e-06,0,1.0991e-05,-0.00041575,-6.1475e+08,-4.1929e+05,0,2.2722e+06,606.4,11090,11613,1,11613,1,-0.00060997,-3.786e-07,0,0.00048569,-0.00024625,-2.4804e+08,-93010,0,1.6048e+08,18078,11612,12607,1,12607,1,0.0013283,3.836e-07,0,0.0014551,0.00011516,2.6874e+08,94142,0,3.2249e+08,91124,12606,574.93,0,574.93,0,0.0011197,7.4362e-07,0,0.00061467,0.00020889,2.994e+08,1.6011e+05,0,1.4621e+08,42362,574.93,1
1988,6.19,12110,1,12110,1,0.00036461,-6.6649e-09,0,0.0010072,-6.6507e-05,-251.17,-590.09,0,2.6133e+08,65129,12109,13104,1,13104,1,0.0022486,2.6663e-06,0,0.0022486,0.00028445,3.2932e+08,4.8454e+05,0,6.1609e+08,1.7581e+05,13103,12110,1,12110,1,0.00036284,-4.4038e-09,0,0.00097056,-6.6297e-05,1.0662e+08,-1074,0,2.687e+08,64460,12109,11091,1,11091,1,-0.0015148,-2.7875e-06,0,1.3522e-05,-0.00041802,-6.1609e+08,-4.6577e+05,0,3.1662e+06,653.83,11090,11613,1,11613,1,-0.0006096,-4.3346e-07,0,0.0004877,-0.00024768,-2.4788e+08,-1.0532e+05,0,1.6067e+08,20207,11612,12607,1,12607,1,0.0013362,4.3086e-07,0,0.0014609,0.00011511,2.687e+08,1.048e+05,0,3.2135e+08,1.0236e+05,12606,574.93,0,574.93,0,0.0011241,8.3493e-07,0,0.00061779,0.00020971,2.9955e+08,1.7882e+05,0,1.4629e+08,46596,574.93,1
1988,6.2,12110,1,12110,1,0.00036908,-5.3108e-09,0,0.001012,-6.7301e-05,-299.75,-188.57,0,2.6145e+08,72312,12109,13104,1,13104,1,0.0022616,2.9851e-06,0,0.0022616,0.0002851,3.2816e+08,5.3919e+05,0,6.1748e+08,1.8953e+05,13103,12110,1,12110,1,0.00036709,-1.7704e-09,0,0.00097415,-6.7041e-05,1.0757e+08,-457.65,0,2.6865e+08,71911,12109,11091,1,11091,1,-0.0015182,-3.1076e-06,0,1.6159e-05,-0.00042041,-6.1748e+08,-5.189e+05,0,4.0947e+06,873.95,11090,11613,1,11613,1,-0.00060917,-4.8895e-07,0,0.00048981,-0.00024916,-2.4771e+08,-1.1887e+05,0,1.6086e+08,22560,11612,12607,1,12607,1,0.0013444,4.8864e-07,0,0.0014669,0.00011506,2.6865e+08,1.1842e+05,0,3.2016e+08,1.1502e+05,12606,574.93,0,574.93,0,0.0011288,9.3857e-07,0,0.00062108,0.00021056,2.9969e+08,2.002e+05,0,1.4637e+08,51335,574.93,1
1988,6.21,12110,1,12110,1,0.00037376,2.6828e-09,0,0.001017,-6.8131e-05,433.34,1867.8,0,2.6157e+08,80622,12109,13104,1,13104,1,0.0022753,3.3609e-06,0,0.0022753,0.00028577,3.2694e+08,6.0105e+05,0,6.1892e+08,2.0447e+05,13103,12110,1,12110,1,0.00037152,1.2838e-08,0,0.0009778,-6.7811e-05,1.0855e+08,3152.7,0,2.6858e+08,81206,12109,11091,1,11091,1,-0.0015217,-3.4802e-06,0,1.8889e-05,-0.00042293,-6.1892e+08,-5.771e+05,0,5.0523e+06,769.96,11090,11613,1,11613,1,-0.00060869,-5.4917e-07,0,0.00049201,-0.00025069,-2.4751e+08,-1.3366e+05,0,1.6105e+08,25404,11612,12607,1,12607,1,0.0013529,5.6125e-07,0,0.0014732,0.000115,2.6858e+08,1.3595e+05,0,3.189e+08,1.3011e+05,12606,574.93,0,574.93,0,0.0011336,1.0606e-06,0,0.00062452,0.00021145,2.9984e+08,2.2493e+05,0,1.4645e+08,56757,574.93,1
1988,6.22,12110,1,12110,1,0.00037869,-1.8779e-09,0,0.0010222,-6.9003e-05,189.84,1227.9,0,2.617e+08,89840,12109,13104,1,13104,1,0.0022899,3.7665e-06,0,0.0022899,0.00028649,3.2572e+08,6.7229e+05,0,6.2047e+08,2.1987e+05,13103,12110,1,12110,1,0.00037616,8.0489e-09,0,0.00098163,-6.8615e-05,1.0957e+08,2050.5,0,2.6852e+08,90936,12109,11091,1,11091,1,-0.0015255,-3.9086e-06,0,2.169e-05,-0.0004256,-6.2047e+08,-6.4682e+05,0,6.029e+06,860.35,11090,11613,1,11613,1,-0.00060823,-6.2571e-07,0,0.00049436,-0.0002523,-2.4732e+08,-1.5235e+05,0,1.6115e+08,28426,11612,12607,1,12607,1,0.0013618,6.4228e-07,0,0.0014799,0.00011495,2.6852e+08,1.5505e+05,0,3.176e+08,1.464e+05,12606,574.93,0,574.93,0,0.0011387,1.1983e-06,0,0.00062817,0.00021239,3e+08,2.532e+05,0,1.4655e+08,62817,574.93,1
1988,6.23,12110,1,12110,1,0.00038391,-7.7814e-09,0,0.0010277,-6.9924e-05,-114.54,180.25,0,2.6182e+08,1.0084e+05,12109,13104,1,13104,1,0.0023053,4.262e-06,0,0.0023053,0.00028724,3.2445e+08,7.5225e+05,0,6.2207e+08,2.3681e+05,13103,12110,1,12110,1,0.00038105,1.1682e-09,0,0.00098558,-6.9458e-05,1.1065e+08,270.48,0,2.6843e+08,1.0155e+05,12109,11091,1,11091,1,-0.0015295,-4.4161e-06,0,2.4617e-05,-0.00042845,-6.2207e+08,-7.2562e+05,0,7.0439e+06,1324.7,11090,11613,1,11613,1,-0.00060771,-7.2646e-07,0,0.00049684,-0.00025399,-2.4711e+08,-1.7483e+05,0,1.611e+08,32433,11612,12607,1,12607,1,0.0013712,7.2534e-07,0,0.0014869,0.00011489,2.6843e+08,1.7593e+05,0,3.1623e+08,1.6592e+05,12606,574.93,0,574.93,0,0.001144,1.3658e-06,0,0.00063203,0.00021338,3.0015e+08,2.8637e+05,0,1.4666e+08,69950,574.93,1
1988,6.24,12110,1,12110,1,0.00038944,-7.2732e-09,0,0.0010336,-7.0897e-05,256.96,641.77,0,2.6193e+08,1.1317e+05,12109,13104,1,13104,1,0.0023218,4.8241e-06,0,0.0023218,0.00028803,3.231e+08,8.4351e+05,0,6.2377e+08,2.5517e+05,13103,12110,1,12110,1,0.0003862,4.7259e-09,0,0.00098966,-7.0341e-05,1.1177e+08,1185.7,0,2.6832e+08,1.1331e+05,12109,11091,1,11091,1,-0.0015337,-4.9959e-06,0,2.7676e-05,-0.00043147,-6.2377e+08,-8.1473e+05,0,8.0961e+06,1355.1,11090,11613,1,11613,1,-0.00060712,-8.2301e-07,0,0.00049947,-0.00025576,-2.4686e+08,-2.0012e+05,0,1.6113e+08,36758,11612,12607,1,12607,1,0.0013811,8.3125e-07,0,0.0014943,0.00011482,2.6832e+08,2.0189e+05,0,3.1477e+08,1.8821e+05,12606,574.93,0,574.93,0,0.0011496,1.5576e-06,0,0.00063612,0.00021442,3.0031e+08,3.2442e+05,0,1.4677e+08,78066,574.93,1
1988,6.25,12110,1,12110,1,0.00039531,-1.3368e-08,0,0.0010397,-7.1927e-05,-89.151,-359.63,0,2.6205e+08,1.2738e+05,12109,13104,1,13104,1,0.0023394,5.4763e-06,0,0.0023394,0.00028886,3.2171e+08,9.4868e+05,0,6.2556e+08,2.7449e+05,13103,12110,1,12110,1,0.00039163,-2.3215e-09,0,0.0009939,-7.1268e-05,1.1295e+08,-587,0,2.682e+08,1.2807e+05,12109,11091,1,11091,1,-0.0015381,-5.665e-06,0,3.085e-05,-0.00043472,-6.2556e+08,-9.1823e+05,0,9.178e+06,1706.6,11090,11613,1,11613,1,-0.00060649,-9.5507e-07,0,0.00050228,-0.00025763,-2.466e+08,-2.3156e+05,0,1.6128e+08,42093,11612,12607,1,12607,1,0.0013915,9.5861e-07,0,0.0015021,0.00011475,2.682e+08,2.3063e+05,0,3.1323e+08,2.1233e+05,12606,574.93,0,574.93,0,0.0011556,1.7818e-06,0,0.00064049,0.00021552,3.0047e+08,3.687e+05,0,1.469e+08,87408,574.93,1
1988,6.26,12110,1,12110,1,0.00040157,-1.47e-08,0,0.0010462,-7.3021e-05,206.63,-261.2,0,2.6216e+08,1.4366e+05,12109,13104,1,13104,1,0.0023584,6.2267e-06,0,0.0023584,0.00028976,3.2025e+08,1.0699e+06,0,6.2748e+08,2.9439e+05,13103,12110,1,12110,1,0.00039739,-1.6076e-09,0,0.0009983,-7.2244e-05,1.1419e+08,-396.21,0,2.6806e+08,1.4437e+05,12109,11091,1,11091,1,-0.0015428,-6.4377e-06,0,3.4162e-05,-0.00043821,-6.2748e+08,-1.0392e+06,0,1.0295e+07,1876.1,11090,11613,1,11613,1,-0.0006058,-1.1052e-06,0,0.0005053,-0.00025961,-2.4632e+08,-2.6737e+05,0,1.6142e+08,47307,11612,12607,1,12607,1,0.0014025,1.1043e-06,0,0.0015105,0.00011467,2.6806e+08,2.6616e+05,0,3.116e+08,2.4096e+05,12606,574.93,0,574.93,0,0.0011619,2.0451e-06,0,0.00064515,0.00021669,3.0063e+08,4.2045e+05,0,1.4703e+08,98238,574.93,1
1988,6.27,12110,1,12110,1,0.00040828,-1.9802e-08,0,0.0010532,-7.4191e-05,212.93,-1139.6,0,2.6227e+08,1.6257e+05,12109,13104,1,13104,1,0.002379,7.1216e-06,0,0.002379,0.00029071,3.1874e+08,1.2122e+06,0,6.2954e+08,3.215e+05,13103,12110,1,12110,1,0.0004035,-8.1308e-09,0,0.0010029,-7.3276e-05,1.155e+08,-1897.1,0,2.6789e+08,1.642e+05,12109,11091,1,11091,1,-0.0015478,-7.3325e-06,0,3.7613e-05,-0.00044201,-6.2954e+08,-1.1797e+06,0,1.1445e+07,2211.7,11090,11613,1,11613,1,-0.00060504,-1.2882e-06,0,0.00050855,-0.0002617,-2.4601e+08,-3.0959e+05,0,1.6155e+08,52650,11612,12607,1,12607,1,0.0014142,1.2775e-06,0,0.0015195,0.00011458,2.6789e+08,3.072e+05,0,3.0987e+08,2.7377e+05,12606,574.93,0,574.93,0,0.0011687,2.3584e-06,0,0.00065017,0.00021793,3.008e+08,4.8154e+05,0,1.4719e+08,1.1097e+05,574.93,1
1988,6.28,12110,1,12110,1,0.00041548,-1.4048e-08,0,0.0010607,-7.5443e-05,-95.017,579.7,0,2.6236e+08,1.8462e+05,12109,13104,1,13104,1,0.0024015,8.1771e-06,0,0.0024015,0.00029174,3.1713e+08,1.3778e+06,0,6.3174e+08,3.6645e+05,13103,12110,1,12110,1,0.00041001,4.6009e-09,0,0.0010076,-7.4364e-05,1.1689e+08,1118,0,2.677e+08,1.858e+05,12109,11091,1,11091,1,-0.0015533,-8.3836e-06,0,4.1207e-05,-0.00044614,-6.3174e+08,-1.3398e+06,0,1.2626e+07,2504.2,11090,11613,1,11613,1,-0.00060419,-1.4929e-06,0,0.00051207,-0.00026391,-2.4565e+08,-3.5738e+05,0,1.6167e+08,57424,11612,12607,1,12607,1,0.0014267,1.4944e-06,0,0.0015291,0.00011447,2.677e+08,3.5963e+05,0,3.08e+08,3.0331e+05,12606,574.93,0,574.93,0,0.0011759,2.7333e-06,0,0.00065557,0.00021926,3.0097e+08,5.5363e+05,0,1.4736e+08,1.2609e+05,574.93,1
1988,6.29,12110,1,12110,1,0.00042325,-1.82e-08,0,0.0010687,-7.6788e-05,-438.5,392.03,0,2.6245e+08,2.1018e+05,12109,13104,1,13104,1,0.0024261,9.3981e-06,0,0.0024261,0.00029285,3.1548e+08,1.5692e+06,0,6.3412e+08,4.3101e+05,13103,12110,1,12110,1,0.00041695,2.8715e-09,0,0.0010124,-7.5518e-05,1.1835e+08,656.04,0,2.6747e+08,2.1637e+05,12109,11091,1,11091,1,-0.0015591,-9.6287e-06,0,4.492e-05,-0.00045066,-6.3412e+08,-1.5291e+06,0,1.3827e+07,2683.5,11090,11613,1,11613,1,-0.00060326,-1.7502e-06,0,0.00051591,-0.00026627,-2.4527e+08,-4.1813e+05,0,1.6178e+08,64352,11612,12607,1,12607,1,0.0014399,1.7554e-06,0,0.0015394,0.00011433,2.6747e+08,4.1806e+05,0,3.0602e+08,3.5133e+05,12606,574.93,0,574.93,0,0.0011836,3.1812e-06,0,0.00066143,0.00022068,3.0114e+08,6.3923e+05,0,1.4755e+08,1.4406e+05,574.93,1
1988,6.3,12110,1,12110,1,0.00043167,-2.0794e-08,0,0.0010773,-7.824e-05,-1.033,592.95,0,2.6254e+08,2.4001e+05,12109,13104,1,13104,1,0.0024532,1.0848e-05,0,0.0024532,0.00029406,3.1377e+08,1.7925e+06,0,6.3672e+08,5.1194e+05,13103,12110,1,12110,1,0.00042438,2.2445e-09,0,0.0010174,-7.6746e-05,1.1991e+08,102.83,0,2.6721e+08,2.4593e+05,12109,11091,1,11091,1,-0.0015655,-1.1092e-05,0,4.8773e-05,-0.00045567,-6.3672e+08,-1.7495e+06,0,1.5056e+07,2835.2,11090,11613,1,11613,1,-0.00060224,-2.053e-06,0,0.00052012,-0.00026878,-2.4485e+08,-4.9163e+05,0,1.6187e+08,75712,11612,12607,1,12607,1,0.0014541,2.0772e-06,0,0.0015536,0.00011418,2.6721e+08,4.9042e+05,0,3.0389e+08,3.9204e+05,12606,574.93,0,574.93,0,0.0011919,3.7231e-06,0,0.00066781,0.00022222,3.0132e+08,7.4146e+05,0,1.4776e+08,1.6581e+05,574.93,1
1988,6.31,12110,1,12110,1,0.00044084,-2.2385e-08,0,0.0010867,-7.9813e-05,-128.36,1160.1,0,2.6261e+08,2.7484e+05,12109,13104,1,13104,1,0.0024835,1.2566e-05,0,0.0024835,0.00029539,3.1198e+08,2.0525e+06,0,6.3956e+08,6.1176e+05,13103,12110,1,12110,1,0.00043239,7.3302e-09,0,0.0010245,-7.806e-05,1.2158e+08,1866.3,0,2.669e+08,2.7187e+05,12109,11091,1,11091,1,-0.0015725,-1.2812e-05,0,5.2768e-05,-0.00046123,-6.3956e+08,-2.0085e+06,0,1.631e+07,2750,11090,11613,1,11613,1,-0.00060109,-2.447e-06,0,0.000524,-0.00027148,-2.4438e+08,-5.7705e+05,0,1.6194e+08,88595,11612,12607,1,12607,1,0.0014694,2.4455e-06,0,0.0015641,0.000114,2.669e+08,5.7848e+05,0,3.0159e+08,4.4488e+05,12606,574.93,0,574.93,0,0.001201,4.3794e-06,0,0.00067479,0.00022388,3.015e+08,8.64e+05,0,1.4801e+08,1.9244e+05,574.93,1
1988,6.32,12110,1,12110,1,0.00045088,-3.1465e-08,0,0.0010969,-8.1528e-05,-360.97,330.6,0,2.6266e+08,3.1537e+05,12109,13104,1,13104,1,0.0025175,1.4579e-05,0,0.0025175,0.00029685,3.1014e+08,2.3558e+06,0,6.427e+08,7.3695e+05,13103,12110,1,12110,1,0.00044105,-2.6618e-09,0,0.0010376,-7.9474e-05,1.2337e+08,-673.02,0,2.6653e+08,3.0728e+05,12109,11091,1,11091,1,-0.0015802,-1.4839e-05,0,5.6893e-05,-0.00046749,-6.427e+08,-2.3111e+06,0,1.7585e+07,2888.4,11090,11613,1,11613,1,-0.00059982,-2.918e-06,0,0.00052336,-0.00027439,-2.4385e+08,-6.8565e+05,0,1.6199e+08,1.0184e+05,11612,12607,1,12607,1,0.0014859,2.8971e-06,0,0.001574,0.00011377,2.6653e+08,6.8801e+05,0,2.991e+08,5.0791e+05,12606,574.93,0,574.93,0,0.0012108,5.1792e-06,0,0.00068248,0.0002257,3.0169e+08,1.0113e+06,0,1.4828e+08,2.2554e+05,574.93,1
1988,6.33,12110,1,12110,1,0.00046193,-3.5628e-08,0,0.001108,-8.3407e-05,-1045.2,589.61,0,2.627e+08,3.6259e+05,12109,13104,1,13104,1,0.0025561,1.6975e-05,0,0.0025561,0.00029848,3.0821e+08,2.7081e+06,0,6.4619e+08,8.9405e+05,13103,12110,1,12110,1,0.00045048,2.7599e-10,0,0.0010518,-8.1006e-05,1.253e+08,23.866,0,2.661e+08,3.4396e+05,12109,11091,1,11091,1,-0.0015888,-1.7208e-05,0,5.9825e-05,-0.00047459,-6.4619e+08,-2.6662e+06,0,1.8883e+07,2699.4,11090,11613,1,11613,1,-0.00059838,-3.4847e-06,0,0.0005226,-0.00027753,-2.4326e+08,-8.2138e+05,0,1.6201e+08,1.1292e+05,11612,12607,1,12607,1,0.0015038,3.5119e-06,0,0.0015838,0.0001135,2.661e+08,8.2169e+05,0,2.9638e+08,5.754e+05,12606,574.93,0,574.93,0,0.0012216,6.16e-06,0,0.00069102,0.00022768,3.0187e+08,1.1897e+06,0,1.486e+08,2.6747e+05,574.93,1
1988,6.34,12110,1,12110,1,0.00047421,-4.0096e-08,0,0.0011203,-8.5486e-05,-299.22,1023.4,0,2.6271e+08,4.172e+05,12109,13104,1,13104,1,0.0026005,1.9787e-05,0,0.0026005,0.00030032,3.0622e+08,3.1181e+06,0,6.5013e+08,1.094e+06,13103,12110,1,12110,1,0.00046083,-1.8671e-09,0,0.0010674,-8.268e-05,1.2738e+08,-496.14,0,2.6558e+08,3.6202e+05,12109,11091,1,11091,1,-0.0015985,-1.9978e-05,0,5.1024e-05,-0.00048275,-6.5013e+08,-3.0794e+06,0,2.0199e+07,2100.5,11090,11613,1,11613,1,-0.00059673,-4.2691e-06,0,0.00052176,-0.00028096,-2.4258e+08,-9.9266e+05,0,1.6197e+08,1.2068e+05,11612,12607,1,12607,1,0.0015234,4.2524e-06,0,0.0015943,0.00011314,2.6558e+08,9.8832e+05,0,2.9261e+08,6.7405e+05,12606,574.93,0,574.93,0,0.0012335,7.3689e-06,0,0.00070058,0.00022987,3.0206e+08,1.4062e+06,0,1.4896e+08,3.2169e+05,574.93,1
1988,6.35,12110,1,12110,1,0.00048793,-5.3794e-08,0,0.001134,-8.7804e-05,-208.81,-373.76,0,2.6269e+08,4.8053e+05,12109,13104,1,13104,1,0.0026522,2.3116e-05,0,0.0026522,0.00030242,3.0417e+08,3.5885e+06,0,6.5461e+08,1.3518e+06,13103,12110,1,12110,1,0.00047231,-1.9744e-08,0,0.0010846,-8.4538e-05,1.2968e+08,-4666.9,0,2.6496e+08,3.9008e+05,12109,11091,1,11091,1,-0.0016095,-2.3193e-05,0,4.0853e-05,-0.00049227,-6.5461e+08,-3.566e+06,0,1.6808e+07,1463.2,11090,11613,1,11613,1,-0.00059485,-5.2006e-06,0,0.00052059,-0.00028475,-2.418e+08,-1.1978e+06,0,1.6302e+08,1.3088e+05,11612,12607,1,12607,1,0.0015451,5.1613e-06,0,0.0016059,0.00011277,2.6496e+08,1.1977e+06,0,2.8842e+08,7.8216e+05,12606,574.93,0,574.93,0,0.0012468,8.8759e-06,0,0.0007114,0.0002323,3.0225e+08,1.6711e+06,0,1.4939e+08,3.9351e+05,574.93,1
1988,6.36,12110,1,12110,1,0.00050343,-6.6463e-08,0,0.0011493,-9.0418e-05,-368.96,-1403.1,0,2.6262e+08,5.5208e+05,12109,13104,1,13104,1,0.0027133,2.6934e-05,0,0.0027133,0.00030482,3.0202e+08,4.1267e+06,0,6.5976e+08,1.6865e+06,13103,12110,1,12110,1,0.00048519,-3.4447e-08,0,0.0011037,-8.6622e-05,1.3221e+08,-7046.9,0,2.6419e+08,4.0637e+05,12109,11091,1,11091,1,-0.0016222,-2.6966e-05,0,2.8925e-05,-0.00050352,-6.5976e+08,-4.1169e+06,0,1.236e+07,314.15,11090,11613,1,11613,1,-0.00059262,-6.428e-06,0,0.0005196,-0.00028942,-2.4089e+08,-1.4562e+06,0,1.6533e+08,1.2116e+05,11612,12607,1,12607,1,0.0015792,6.3644e-06,0,0.0016186,0.0001124,2.6419e+08,1.4624e+06,0,2.8376e+08,9.0406e+05,12606,574.93,0,574.93,0,0.0012617,1.0757e-05,0,0.00072376,0.00023503,3.0244e+08,1.9946e+06,0,1.4989e+08,4.9084e+05,574.93,1
1988,6.37,12110,1,12110,1,0.00052114,-6.9378e-08,0,0.0011667,-9.3398e-05,-425.02,-403.18,0,2.6249e+08,6.3332e+05,12109,13104,1,13104,1,0.002787,3.1803e-05,0,0.002787,0.00030764,2.9976e+08,4.7616e+06,0,6.6577e+08,2.1265e+06,13103,12110,1,12110,1,0.00049986,-3.3452e-08,0,0.0011226,-8.8985e-05,1.3503e+08,-7323.9,0,2.6243e+08,4.2475e+05,12109,11091,1,11091,1,-0.001637,-3.1835e-05,0,1.4728e-05,-0.00051709,-6.6577e+08,-4.7593e+06,0,7.2943e+06,-1.6009e+05,11090,11613,1,11613,1,-0.00058996,-7.9993e-06,0,0.00052127,-0.00029661,-2.3979e+08,-1.7746e+06,0,1.6789e+08,83341,11612,12607,1,12607,1,0.00162,7.8976e-06,0,0.0016325,0.00011194,2.6243e+08,1.773e+06,0,2.7963e+08,1.0823e+06,12606,574.93,0,574.93,0,0.0012786,1.3132e-05,0,0.00073812,0.00023813,3.0262e+08,2.3939e+06,0,1.5049e+08,6.2469e+05,574.93,1
1988,6.38,12110,1,12110,1,0.00054169,-7.4426e-08,0,0.0011867,-9.684e-05,306.57,488.99,0,2.6228e+08,7.2421e+05,12109,13104,1,13104,1,0.0028782,3.8295e-05,0,0.0028782,0.00031099,2.9739e+08,5.577e+06,0,6.7292e+08,2.7117e+06,13103,12110,1,12110,1,0.00051684,-4.7011e-08,0,0.0011345,-9.1682e-05,1.3824e+08,-9126.7,0,2.6017e+08,4.2965e+05,12109,11091,1,11091,1,-0.0016546,-3.8329e-05,0,2.4204e-06,-0.00053387,-6.7292e+08,-5.5704e+06,0,1.2379e+06,-4.8717e+05,11090,11613,1,11613,1,-0.00058676,-9.7728e-06,0,0.00052261,-0.00030429,-2.3847e+08,-2.1563e+06,0,1.7079e+08,47381,11612,12607,1,12607,1,0.0016649,9.7462e-06,0,0.001665,0.0001114,2.6014e+08,2.1554e+06,0,2.7541e+08,1.287e+06,12606,574.93,0,574.93,0,0.0012982,1.6182e-05,0,0.00075507,0.0002417,3.0279e+08,2.892e+06,0,1.5121e+08,8.1335e+05,574.93,1
1988,6.39,12110,1,12110,1,0.00056592,-9.1148e-08,0,0.0012106,-0.00010083,-519.51,-548.55,0,2.6207e+08,8.2457e+05,12109,13104,1,13104,1,0.0029939,4.7155e-05,0,0.0029939,0.00031505,2.9484e+08,6.6378e+06,0,6.816e+08,3.5146e+06,13103,12110,1,12110,1,0.00053714,-7.4018e-08,0,0.0011441,-9.4536e-05,1.4195e+08,-13764,0,2.5644e+08,4.2635e+05,12109,11091,1,11091,1,-0.0016759,-4.7196e-05,0,9.6395e-06,-0.00055518,-6.816e+08,-6.6308e+06,0,2.444e+06,-9.5909e+05,11090,11613,1,11613,1,-0.00058281,-1.2214e-05,0,0.00053714,-0.0003128,-2.3685e+08,-2.7105e+06,0,1.7412e+08,17485,11612,12607,1,12607,1,0.0017151,1.2099e-05,0,0.0017155,0.00011075,2.5641e+08,2.6954e+06,0,2.7146e+08,1.4955e+06,12606,574.93,0,574.93,0,0.0013214,2.016e-05,0,0.00077495,0.00024587,3.0296e+08,3.5194e+06,0,1.5193e+08,1.0818e+06,574.93,1
1988,6.4,12110,1,12110,1,0.00059517,-9.7007e-08,0,0.0012394,-0.00010556,-427.32,943.98,0,2.6183e+08,9.3619e+05,12109,13104,1,13104,1,0.0031457,5.9729e-05,0,0.0031457,0.00032012,2.9201e+08,8.0666e+06,0,6.924e+08,4.6443e+06,13103,12110,1,12110,1,0.00057679,-9.5417e-08,0,0.0011538,-9.7759e-05,1.4759e+08,-16839,0,2.5251e+08,4.0719e+05,12109,11091,1,11091,1,-0.0017025,-5.9786e-05,0,1.4204e-05,-0.00058315,-6.924e+08,-8.053e+06,0,3.9715e+06,-1.5861e+06,11090,11613,1,11613,1,-0.00057778,-1.5407e-05,0,0.00057679,-0.00032154,-2.3477e+08,-3.4245e+06,0,1.8027e+08,-15741,11612,12607,1,12607,1,0.0017505,1.5322e-05,0,0.0017512,0.00011004,2.5246e+08,3.4341e+06,0,2.6751e+08,1.8698e+06,12606,574.93,0,574.93,0,0.0013494,2.5499e-05,0,0.00079952,0.00025086,3.0311e+08,4.3247e+06,0,1.5266e+08,1.4664e+06,574.93,1
1988,6.41,12110,1,12110,1,0.00063162,-1.1444e-07,0,0.0012751,-0.00011135,-386.78,411.94,0,2.6146e+08,1.0584e+06,12109,13104,1,13104,1,0.0033539,7.8075e-05,0,0.0033539,0.00032666,2.8874e+08,1.0019e+07,0,7.0633e+08,6.2636e+06,13103,12110,1,12110,1,0.00061752,-1.3865e-07,0,0.0011769,-0.00010149,1.5564e+08,-24171,0,2.4805e+08,3.4957e+05,12109,11091,1,11091,1,-0.0017368,-7.817e-05,0,1.778e-05,-0.00062152,-7.0633e+08,-1.0007e+07,0,5.2706e+06,-2.4047e+06,11090,11613,1,11613,1,-0.00057112,-2.016e-05,0,0.00061756,-0.0003283,-2.3202e+08,-4.3448e+06,0,1.864e+08,-1.8177e+05,11612,12607,1,12607,1,0.0017893,1.9864e-05,0,0.0017901,0.00010937,2.4802e+08,4.3359e+06,0,2.6448e+08,2.2617e+06,12606,574.93,0,574.93,0,0.001385,3.2881e-05,0,0.00083169,0.00025703,3.0326e+08,5.3776e+06,0,1.5362e+08,2.0224e+06,574.93,1
1988,6.42,12110,1,12110,1,0.00067898,-1.2533e-07,0,0.0013211,-0.00011866,-706.39,1040.2,0,2.6083e+08,1.1954e+06,12109,13104,1,13104,1,0.0036564,0.00010656,0,0.0036564,0.00033545,2.8476e+08,1.2774e+07,0,7.2501e+08,8.6587e+06,13103,12110,1,12110,1,0.00067001,-2.0974e-07,0,0.0012,-0.00010664,1.6415e+08,-35808,0,2.4378e+08,2.6884e+05,12109,11091,1,11091,1,-0.0017827,-0.00010658,0,2.0564e-05,-0.00067731,-7.2501e+08,-1.2762e+07,0,6.3634e+06,-3.4598e+06,11090,11613,1,11613,1,-0.00056192,-2.6393e-05,0,0.00063207,-0.0003357,-2.2817e+08,-5.6128e+06,0,1.8259e+08,-5.1718e+05,11612,12607,1,12607,1,0.0018773,2.5962e-05,0,0.0018784,0.00010871,2.4371e+08,5.6342e+06,0,2.6086e+08,2.7536e+06,12606,574.93,0,574.93,0,0.0014324,4.366e-05,0,0.00087672,0.00026502,3.0341e+08,6.8004e+06,0,1.5505e+08,2.843e+06,574.93,1
1988,6.43,12110,1,12110,1,0.00074361,-1.4564e-07,0,0.0013834,-0.00012816,-2569.9,902.25,0,2.5972e+08,1.35e+06,12109,13104,1,13104,1,0.0041304,0.00015367,0,0.0041304,0.00034779,2.796e+08,1.6825e+07,0,7.5119e+08,1.2341e+07,13103,12110,1,12110,1,0.00071817,-3.1023e-07,0,0.0012425,-0.00011379,1.7312e+08,-52851,0,2.3976e+08,1.3819e+05,12109,11091,1,11091,1,-0.0018471,-0.00015371,0,3.3308e-06,-0.00076478,-7.5119e+08,-1.682e+07,0,6.5025e+05,-5.0063e+06,11090,11613,1,11613,1,-0.00054823,-3.458e-05,0,0.00062309,-0.00034747,-2.2242e+08,-7.4012e+06,0,1.8431e+08,-1.1465e+06,11612,12607,1,12607,1,0.0019558,3.4192e-05,0,0.0019571,0.00010801,2.3972e+08,7.3616e+06,0,2.5837e+08,3.5152e+06,12606,574.93,0,574.93,0,0.0015003,6.0529e-05,0,0.00094505,0.0002759,3.0357e+08,8.7984e+06,0,1.573e+08,4.0906e+06,574.93,1
1988,6.44,12110,1,12110,1,0.0008386,-1.4292e-07,0,0.0014755,-0.00014092,-1526.9,3300,0,2.5817e+08,1.5258e+06,12109,13104,1,13104,1,0.0049578,0.0002433,0,0.0049579,0.00036632,2.7241e+08,2.3244e+07,0,7.9039e+08,1.8346e+07,13103,12110,1,12110,1,0.00078362,-4.838e-07,0,0.0012801,-0.00012979,1.7132e+08,-81955,0,2.3396e+08,26616,12109,11091,1,11091,1,-0.0019436,-0.00024339,0,2.3225e-05,-0.00091773,-7.9039e+08,-2.3231e+07,0,7.7344e+06,-7.5414e+06,11090,11613,1,11613,1,-0.00052607,-4.7627e-05,0,0.00061781,-0.00035913,-2.1303e+08,-9.9151e+06,0,1.7556e+08,-2.3502e+06,11612,12607,1,12607,1,0.0020493,4.7078e-05,0,0.002052,0.00010587,2.3388e+08,9.9495e+06,0,2.6007e+08,4.3494e+06,12606,574.93,0,574.93,0,0.0016088,8.9687e-05,0,0.0010592,0.00029193,3.0377e+08,1.1745e+07,0,1.6039e+08,6.0714e+06,574.93,1
1988,6.45,12110,1,12110,1,0.00099171,-1.7407e-07,0,0.001624,-0.00015817,-2754.6,1285.5,0,2.5544e+08,1.7324e+06,12109,13104,1,13104,1,0.0066518,0.00044212,0,0.0066518,0.00039652,2.8522e+08,3.4053e+07,0,8.5405e+08,2.8448e+07,13103,12110,1,12110,1,0.00088591,-2.2201e-07,0,0.0013499,-0.00015155,1.5805e+08,-33553,0,2.2541e+08,-98195,12109,11091,1,11091,1,-0.0021003,-0.00044234,0,5.7771e-06,-0.0012306,-8.5405e+08,-3.4048e+07,0,1.436e+06,-1.1958e+07,11090,11613,1,11613,1,-0.0004853,-6.9093e-05,0,0.00070656,-0.0003582,-1.9567e+08,-1.3211e+07,0,1.634e+08,-4.5522e+06,11612,12607,1,12607,1,0.0021402,6.8907e-05,0,0.0021508,9.6336e-05,2.2658e+08,1.3345e+07,0,2.6723e+08,5.7476e+06,12606,574.93,0,574.93,0,0.0018119,0.00014754,0,0.0012845,0.00031814,3.043e+08,1.6307e+07,0,1.6608e+08,9.329e+06,574.93,1
1988,6.46,12110,1,12110,1,0.0012668,-1.733e-07,0,0.0018937,-0.00017735,-105.18,5215.4,0,2.5024e+08,1.972e+06,12109,13104,1,13104,1,0.011042,0.00099537,0,0.011042,0.00044906,3.1766e+08,5.2854e+07,0,9.6405e+08,4.5161e+07,13103,12110,1,12110,1,0.0010167,-6.6951e-07,0,0.001409,-0.0001698,1.4194e+08,-86097,0,2.1241e+08,-4.5576e+05,12109,11091,1,11091,1,-0.002371,-0.00099493,0,2.2782e-05,-0.0020339,-9.6405e+08,-5.2802e+07,0,7.974e+06,-1.9852e+07,11090,11613,1,11613,1,-0.00039383,-0.0001059,0,0.00072,-0.0003516,-1.5816e+08,-1.7807e+07,0,1.4646e+08,-8.1927e+06,11612,12607,1,12607,1,0.0022123,0.00010711,0,0.0022729,8.4956e-05,2.1479e+08,1.7708e+07,0,2.8386e+08,8.0491e+06,12606,574.93,0,574.93,0,0.0022837,0.00028622,0,0.0018207,0.0003655,3.0516e+08,2.3529e+07,0,1.7614e+08,1.4705e+07,574.93,1
1988,6.46,12110,1,12110,1,0.001314,-1.7408e-07,0,0.0019408,-0.0001781,0.15802,5453.7,0,2.4939e+08,2.0074e+06,12109,13104,1,13104,1,0.012209,0.0011464,0,0.012209,0.00045806,3.2477e+08,5.6066e+07,0,9.8287e+08,4.8218e+07,13103,12110,1,12110,1,0.0010413,-2.5105e-07,0,0.0014193,-0.00017435,1.4069e+08,-53778,0,2.1124e+08,-4.7968e+05,12109,11091,1,11091,1,-0.0024174,-0.0011451,0,9.5247e-06,-0.0022415,-9.8286e+08,-5.6049e+07,0,2.0992e+06,-2.1279e+07,11090,11613,1,11613,1,-0.00037701,-0.00011205,0,0.00071512,-0.0003471,-1.5248e+08,-1.8593e+07,0,1.445e+08,-8.7636e+06,11612,12607,1,12607,1,0.0022223,0.00011304,0,0.0022765,8.3071e-05,2.1301e+08,1.8573e+07,0,2.8348e+08,8.458e+06,12606,574.93,0,574.93,0,0.0023855,0.00031967,0,0.0019369,0.00037282,3.0549e+08,2.4761e+07,0,1.7808e+08,1.5644e+07,574.93,1
