"N","Time","avg(GlobalElementId)","avg(ObjectId)","avg(PedigreeElementId)","avg(alpha)","avg(strain_x (0))","avg(strain_x (1))","avg(strain_x (2))","avg(strain_x (Magnitude))","avg(strain_yy)","avg(stress_x (0))","avg(stress_x (1))","avg(stress_x (2))","avg(stress_x (Magnitude))","avg(stress_yy)","avg(vtkOriginalCellIds)","max(GlobalElementId)","max(ObjectId)","max(PedigreeElementId)","max(alpha)","max(strain_x (0))","max(strain_x (1))","max(strain_x (2))","max(strain_x (Magnitude))","max(strain_yy)","max(stress_x (0))","max(stress_x (1))","max(stress_x (2))","max(stress_x (Magnitude))","max(stress_yy)","max(vtkOriginalCellIds)","med(GlobalElementId)","med(ObjectId)","med(PedigreeElementId)","med(alpha)","med(strain_x (0))","med(strain_x (1))","med(strain_x (2))","med(strain_x (Magnitude))","med(strain_yy)","med(stress_x (0))","med(stress_x (1))","med(stress_x (2))","med(stress_x (Magnitude))","med(stress_yy)","med(vtkOriginalCellIds)","min(GlobalElementId)","min(ObjectId)","min(PedigreeElementId)","min(alpha)","min(strain_x (0))","min(strain_x (1))","min(strain_x (2))","min(strain_x (Magnitude))","min(strain_yy)","min(stress_x (0))","min(stress_x (1))","min(stress_x (2))","min(stress_x (Magnitude))","min(stress_yy)","min(vtkOriginalCellIds)","q1(GlobalElementId)","q1(ObjectId)","q1(PedigreeElementId)","q1(alpha)","q1(strain_x (0))","q1(strain_x (1))","q1(strain_x (2))","q1(strain_x (Magnitude))","q1(strain_yy)","q1(stress_x (0))","q1(stress_x (1))","q1(stress_x (2))","q1(stress_x (Magnitude))","q1(stress_yy)","q1(vtkOriginalCellIds)","q3(GlobalElementId)","q3(ObjectId)","q3(PedigreeElementId)","q3(alpha)","q3(strain_x (0))","q3(strain_x (1))","q3(strain_x (2))","q3(strain_x (Magnitude))","q3(strain_yy)","q3(stress_x (0))","q3(stress_x (1))","q3(stress_x (2))","q3(stress_x (Magnitude))","q3(stress_yy)","q3(vtkOriginalCellIds)","std(GlobalElementId)","std(ObjectId)","std(PedigreeElementId)","std(alpha)","std(strain_x (0))","std(strain_x (1))","std(strain_x (2))","std(strain_x (Magnitude))","std(strain_yy)","std(stress_x (0))","std(stress_x (1))","std(stress_x (2))","std(stress_x (Magnitude))","std(stress_yy)","std(vtkOriginalCellIds)","vtkValidPointMask"
1848,0,12125,1,12125,1,0,0,0,0,0,0,0,0,0,0,12124,13096,1,13096,1,0,0,0,0,0,0,0,0,0,0,13095,12124,1,12124,1,0,0,0,0,0,0,0,0,0,0,12123,11201,1,11201,1,0,0,0,0,0,0,0,0,0,0,11200,11662,1,11662,1,0,0,0,0,0,0,0,0,0,0,11661,12586,1,12586,1,0,0,0,0,0,0,0,0,0,0,12585,534.87,0,534.87,0,0,0,0,0,0,0,0,0,0,0,534.87,1
1848,0.01,12125,1,12125,1,4.6652e-08,-5.6132e-09,0,1.211e-06,-1.0817e-08,-95623,-1458.6,0,3.785e+05,-2663.5,12124,13096,1,13096,1,3.5602e-06,4.6576e-07,0,3.5631e-06,4.6033e-07,7.5396e+05,83191,0,9.9808e+05,62038,13095,12124,1,12124,1,1.8523e-08,1.3161e-09,0,1.1997e-06,-2.3455e-08,1530.3,295.52,0,3.402e+05,-560.14,12123,11201,1,11201,1,-2.4539e-06,-1.6183e-07,0,6.0284e-09,-6.9384e-07,-9.9808e+05,-31201,0,880.45,-35154,11200,11662,1,11662,1,-1.1616e-06,-1.9009e-08,0,6.1017e-07,-2.2242e-07,-4.7196e+05,-5753.8,0,1.859e+05,-5118.5,11661,12586,1,12586,1,1.1991e-06,1.1062e-08,0,1.7693e-06,2.1438e-07,2.7591e+05,2739.8,0,5.1446e+05,1133.3,12585,534.87,0,534.87,0,1.4102e-06,3.9692e-08,0,7.2462e-07,2.6094e-07,4.4113e+05,9389.4,0,2.4596e+05,11742,534.87,1
1848,0.02,12125,1,12125,1,8.2948e-07,7.2671e-10,0,2.949e-06,-1.5717e-07,-367.34,203.97,0,8.6179e+05,-2146.8,12124,13096,1,13096,1,6.4136e-06,2.8638e-08,0,6.4136e-06,8.9131e-07,1.3605e+06,7086.1,0,1.9305e+06,62.033,13095,12124,1,12124,1,8.2506e-07,7.5121e-10,0,2.8876e-06,-1.6254e-07,2.3113e+05,218.87,0,8.5891e+05,-885.09,12123,11201,1,11201,1,-4.7465e-06,-3.0041e-08,0,2.0269e-07,-1.1997e-06,-1.9305e+06,-7415.3,0,59347,-13239,11200,11662,1,11662,1,-2.0575e-06,-2.6655e-10,0,1.443e-06,-7.0195e-07,-8.3694e+05,-65.087,0,4.4982e+05,-3170.1,11661,12586,1,12586,1,3.7155e-06,2.3656e-09,0,4.3324e-06,3.8528e-07,8.5891e+05,547.9,0,1.226e+06,-224.3,12585,534.87,0,534.87,0,3.3351e-06,5.5079e-09,0,1.7636e-06,6.244e-07,9.9409e+05,1454.6,0,4.951e+05,2838.6,534.87,1
1848,0.03,12125,1,12125,1,1.248e-06,2.0429e-09,0,4.4352e-06,-2.291e-07,18.826,523.76,0,1.2963e+06,-635.14,12124,13096,1,13096,1,9.6467e-06,1.3692e-08,0,9.6467e-06,1.3422e-06,2.0463e+06,4463.2,0,2.9064e+06,96.769,13095,12124,1,12124,1,1.2461e-06,1.6294e-09,0,4.3398e-06,-2.3512e-07,3.4993e+05,454.13,0,1.2923e+06,-236.71,12123,11201,1,11201,1,-7.146e-06,-1.5881e-08,0,3.0346e-07,-1.7985e-06,-2.9064e+06,-5178.9,0,92067,-5603,11200,11662,1,11662,1,-3.0931e-06,-6.6676e-10,0,2.1699e-06,-1.0392e-06,-1.2579e+06,-186.7,0,6.7674e+05,-643.16,11661,12586,1,12586,1,5.5866e-06,5.6553e-09,0,6.5213e-06,5.8247e-07,1.2923e+06,1485.7,0,1.8433e+06,-52.741,12585,534.87,0,534.87,0,5.0161e-06,5.1512e-09,0,2.6529e-06,9.3733e-07,1.4954e+06,1322.6,0,7.4489e+05,1053.5,534.87,1
1848,0.04,12125,1,12125,1,1.6649e-06,6.9005e-09,0,5.9125e-06,-3.0499e-07,463.78,1746.1,0,1.728e+06,-618.33,12124,13096,1,13096,1,1.2877e-05,2.6646e-08,0,1.2877e-05,1.7916e-06,2.7315e+06,7061.3,0,3.8801e+06,264.38,13095,12124,1,12124,1,1.6593e-06,4.8196e-09,0,5.7794e-06,-3.1072e-07,4.6607e+05,1257.6,0,1.721e+06,-287.55,12123,11201,1,11201,1,-9.54e-06,-1.1293e-08,0,4.0264e-07,-2.4009e-06,-3.8801e+06,-3664.6,0,1.2267e+05,-5993.7,11200,11662,1,11662,1,-4.1172e-06,3.5106e-10,0,2.893e-06,-1.3837e-06,-1.6744e+06,76.006,0,9.007e+05,-603.69,11661,12586,1,12586,1,7.44e-06,1.3435e-08,0,8.6991e-06,7.7588e-07,1.721e+06,3494,0,2.4548e+06,-61.599,12585,534.87,0,534.87,0,6.6867e-06,8.5771e-09,0,3.5368e-06,1.2496e-06,1.9934e+06,2158.3,0,9.9292e+05,1002.4,534.87,1
1848,0.05,12125,1,12125,1,2.0596e-06,5.1558e-10,0,7.3216e-06,-3.7598e-07,-7.5228,129.34,0,2.14e+06,-295.28,12124,13096,1,13096,1,1.5904e-05,7.0683e-09,0,1.5904e-05,2.2131e-06,3.3737e+06,1982,0,4.7922e+06,105.85,13095,12124,1,12124,1,2.0588e-06,3.0337e-10,0,7.1704e-06,-3.7742e-07,5.787e+05,76.006,0,2.1349e+06,-87.083,12123,11201,1,11201,1,-1.1783e-05,-8.5382e-09,0,5.0174e-07,-2.9648e-06,-4.7922e+06,-2658.9,0,1.5352e+05,-4740.2,11200,11662,1,11662,1,-5.1116e-06,-9.9709e-10,0,3.5854e-06,-1.7153e-06,-2.0787e+06,-278.55,0,1.1185e+06,-261.04,11661,12586,1,12586,1,9.2294e-06,2.575e-09,0,1.0757e-05,9.6362e-07,2.1349e+06,658.85,0,3.0453e+06,-19.317,12585,534.87,0,534.87,0,8.2806e-06,3.0461e-09,0,4.3792e-06,1.5476e-06,2.4686e+06,768.57,0,1.2297e+06,632.97,534.87,1
1848,0.06,12125,1,12125,1,2.453e-06,-1.5977e-09,0,8.7194e-06,-4.4768e-07,43.622,-403.95,0,2.5485e+06,-316.19,12124,13096,1,13096,1,1.8943e-05,4.8465e-09,0,1.8943e-05,2.6353e-06,4.0184e+06,1294.9,0,5.7069e+06,33.424,13095,12124,1,12124,1,2.4523e-06,-1.663e-09,0,8.5429e-06,-4.4912e-07,6.8931e+05,-442.52,0,2.5435e+06,-56.21,12123,11201,1,11201,1,-1.4032e-05,-6.5816e-09,0,5.9812e-07,-3.531e-06,-5.7069e+06,-1759.2,0,1.8303e+05,-5028.9,11200,11662,1,11662,1,-6.0902e-06,-2.3611e-09,0,4.2718e-06,-2.044e-06,-2.4767e+06,-578.19,0,1.3327e+06,-262.93,11661,12586,1,12586,1,1.0996e-05,-8.9028e-10,0,1.2814e-05,1.1482e-06,2.5435e+06,-227.95,0,3.6281e+06,-16.237,12585,534.87,0,534.87,0,9.8614e-06,1.0971e-09,0,5.2151e-06,1.8432e-06,2.9398e+06,279.51,0,1.4643e+06,727.74,534.87,1
1848,0.07,12125,1,12125,1,2.8823e-06,-5.9766e-09,0,1.0249e-05,-5.2621e-07,-286.59,-1506.6,0,2.9957e+06,-441.76,12124,13096,1,13096,1,2.2288e-05,5.885e-09,0,2.2288e-05,3.1022e-06,4.7279e+06,1913.9,0,6.7179e+06,515.93,13095,12124,1,12124,1,2.8776e-06,-5.2363e-09,0,1.0032e-05,-5.2851e-07,8.0895e+05,-1320,0,2.9867e+06,-137.32,12123,11201,1,11201,1,-1.6517e-05,-2.0716e-08,0,7.0284e-07,-4.1547e-06,-6.7179e+06,-4638.8,0,2.1482e+05,-6982,11200,11662,1,11662,1,-7.1524e-06,-1.0226e-08,0,5.0155e-06,-2.3999e-06,-2.9086e+06,-2741.4,0,1.5646e+06,-382.3,11661,12586,1,12586,1,1.2912e-05,-8.2339e-10,0,1.507e-05,1.3485e-06,2.9867e+06,-216.9,0,4.261e+06,-22.912,12585,534.87,0,534.87,0,1.1592e-05,5.7067e-09,0,6.1301e-06,2.1665e-06,3.4558e+06,1419.8,0,1.7214e+06,984.89,534.87,1
1848,0.08,12125,1,12125,1,3.2722e-06,1.6099e-11,0,1.1633e-05,-5.9604e-07,6.8269,3.8469,0,3.4002e+06,-14.724,12124,13096,1,13096,1,2.5258e-05,2.0516e-09,0,2.5258e-05,3.5147e-06,5.3579e+06,472.57,0,7.6109e+06,83.338,13095,12124,1,12124,1,3.272e-06,2.3347e-11,0,1.1397e-05,-5.9512e-07,9.2001e+05,7.1133,0,3.3933e+06,-12.402,12123,11201,1,11201,1,-1.8713e-05,-2.1974e-09,0,7.9822e-07,-4.7081e-06,-7.6109e+06,-529.53,0,2.456e+05,-115.37,11200,11662,1,11662,1,-8.1253e-06,-6.6319e-10,0,5.6987e-06,-2.7256e-06,-3.3043e+06,-166.32,0,1.7779e+06,-37.194,11661,12586,1,12586,1,1.467e-05,7.0376e-10,0,1.7097e-05,1.532e-06,3.3933e+06,185.65,0,4.8402e+06,6.4746,12585,534.87,0,534.87,0,1.3157e-05,1.0156e-09,0,6.9577e-06,2.4591e-06,3.9223e+06,249.89,0,1.9537e+06,27.883,534.87,1
1848,0.09,12125,1,12125,1,3.6832e-06,9.4267e-11,0,1.3095e-05,-6.7089e-07,-39.546,23.401,0,3.8274e+06,-11.095,12124,13096,1,13096,1,2.8431e-05,2.6013e-09,0,2.8431e-05,3.9563e-06,6.031e+06,593.29,0,8.5671e+06,82.726,13095,12124,1,12124,1,3.6831e-06,4.4353e-11,0,1.283e-05,-6.6992e-07,1.0356e+06,11.277,0,3.8196e+06,-9.9296,12123,11201,1,11201,1,-2.1064e-05,-2.1703e-09,0,8.9859e-07,-5.2996e-06,-8.5671e+06,-521.39,0,2.7645e+05,-104.17,11200,11662,1,11662,1,-9.1465e-06,-6.4549e-10,0,6.4148e-06,-3.068e-06,-3.7195e+06,-164.08,0,2.0013e+06,-30.45,11661,12586,1,12586,1,1.6513e-05,8.4159e-10,0,1.9245e-05,1.7245e-06,3.8196e+06,222.79,0,5.4485e+06,10.599,12585,534.87,0,534.87,0,1.481e-05,1.1284e-09,0,7.8319e-06,2.7681e-06,4.4151e+06,276.61,0,2.1992e+06,26.031,534.87,1
1848,0.1,12125,1,12125,1,4.0878e-06,4.2238e-10,0,1.4532e-05,-7.4455e-07,47.319,107.54,0,4.2475e+06,3.038,12124,13096,1,13096,1,3.1553e-05,1.5627e-09,0,3.1553e-05,4.3905e-06,6.6933e+06,378.77,0,9.5077e+06,83.179,13095,12124,1,12124,1,4.088e-06,2.5098e-10,0,1.4239e-05,-7.4346e-07,1.1494e+06,64.452,0,4.2394e+06,-0.23009,12123,11201,1,11201,1,-2.3377e-05,-1.7915e-10,0,9.9735e-07,-5.8815e-06,-9.5077e+06,-61.343,0,3.069e+05,-38.149,11200,11662,1,11662,1,-1.0151e-05,9.2223e-11,0,7.1197e-06,-3.4053e-06,-4.1281e+06,25.436,0,2.2212e+06,-5.5292,11661,12586,1,12586,1,1.8328e-05,6.8319e-10,0,2.1359e-05,1.9141e-06,4.2394e+06,177.51,0,6.0471e+06,9.8657,12585,534.87,0,534.87,0,1.6435e-05,4.2448e-10,0,8.6917e-06,3.0719e-06,4.8998e+06,105.27,0,2.4406e+06,13.495,534.87,1
1848,0.11,12125,1,12125,1,4.4997e-06,-3.1341e-12,0,1.5997e-05,-8.1958e-07,-0.2627,-0.63908,0,4.6757e+06,-0.17466,12124,13096,1,13096,1,3.4729e-05,7.1547e-10,0,3.4729e-05,4.8325e-06,7.3669e+06,168.48,0,1.0465e+07,17.489,13095,12124,1,12124,1,4.4998e-06,-2.9584e-11,0,1.5674e-05,-8.184e-07,1.2652e+06,-7.7196,0,4.6665e+06,2.3558,12123,11201,1,11201,1,-2.573e-05,-4.321e-10,0,1.0979e-06,-6.4734e-06,-1.0465e+07,-101.53,0,3.3782e+05,-37.906,11200,11662,1,11662,1,-1.1174e-05,-8.1692e-11,0,7.837e-06,-3.7483e-06,-4.5441e+06,-20.878,0,2.4451e+06,-4.2579,11661,12586,1,12586,1,2.0174e-05,4.0724e-11,0,2.3511e-05,2.1069e-06,4.6665e+06,9.9497,0,6.6563e+06,6.8247,12585,534.87,0,534.87,0,1.8092e-05,1.5522e-10,0,9.5678e-06,3.3816e-06,5.3937e+06,38.927,0,2.6866e+06,10.244,534.87,1
1848,0.12,12125,1,12125,1,4.9047e-06,1.7613e-10,0,1.7437e-05,-8.9335e-07,5.4331,43.92,0,5.0965e+06,-0.80396,12124,13096,1,13096,1,3.7856e-05,7.0444e-10,0,3.7856e-05,5.2675e-06,8.0303e+06,156.33,0,1.1407e+07,16.248,13095,12124,1,12124,1,4.9047e-06,1.3837e-10,0,1.7085e-05,-8.9206e-07,1.3791e+06,36.104,0,5.0865e+06,-0.20431,12123,11201,1,11201,1,-2.8046e-05,-8.3199e-11,0,1.1969e-06,-7.0563e-06,-1.1407e+07,-28.487,0,3.6822e+05,-25.729,11200,11662,1,11662,1,-1.218e-05,2.6667e-11,0,8.5424e-06,-4.0857e-06,-4.9531e+06,7.3924,0,2.6651e+06,-3.4778,11661,12586,1,12586,1,2.199e-05,2.9252e-10,0,2.5627e-05,2.2966e-06,5.0865e+06,74.298,0,7.2555e+06,3.2213,12585,534.87,0,534.87,0,1.972e-05,1.7559e-10,0,1.0429e-05,3.6859e-06,5.8791e+06,42.682,0,2.9284e+06,5.1836,534.87,1
1848,0.13,12125,1,12125,1,5.3134e-06,8.7814e-11,0,1.889e-05,-9.6785e-07,5.7718,23.015,0,5.5211e+06,-21.712,12124,13096,1,13096,1,4.1009e-05,8.8421e-10,0,4.1009e-05,5.7063e-06,8.6991e+06,173.85,0,1.2357e+07,142.01,13095,12124,1,12124,1,5.3134e-06,3.9579e-11,0,1.8508e-05,-9.664e-07,1.494e+06,11.084,0,5.5103e+06,-8.5479,12123,11201,1,11201,1,-3.0382e-05,-7.0084e-10,0,1.2966e-06,-7.6473e-06,-1.2357e+07,-124.05,0,3.9889e+05,-1064.3,11200,11662,1,11662,1,-1.3195e-05,-4.1349e-11,0,9.2542e-06,-4.4266e-06,-5.3658e+06,-11.27,0,2.8872e+06,-22.384,11661,12586,1,12586,1,2.3822e-05,2.0825e-10,0,2.7763e-05,2.4879e-06,5.5103e+06,54.321,0,7.86e+06,-1.0976,12585,534.87,0,534.87,0,2.1364e-05,2.2622e-10,0,1.1298e-05,3.9931e-06,6.3689e+06,54.718,0,3.1724e+06,76.275,534.87,1
1848,0.14,12125,1,12125,1,5.7274e-06,2.0122e-10,0,2.0361e-05,-1.0433e-06,7.5806,51.606,0,5.9513e+06,-39.598,12124,13096,1,13096,1,4.4206e-05,2.1729e-09,0,4.4206e-05,6.1512e-06,9.3773e+06,571.73,0,1.332e+07,343.62,13095,12124,1,12124,1,5.7271e-06,1.1108e-10,0,1.9949e-05,-1.0417e-06,1.6103e+06,26.01,0,5.9393e+06,-23.546,12123,11201,1,11201,1,-3.2751e-05,-1.7355e-09,0,1.3974e-06,-8.2417e-06,-1.332e+07,-485,0,4.2996e+05,-947.5,11200,11662,1,11662,1,-1.4222e-05,-4.4942e-10,0,9.9745e-06,-4.7712e-06,-5.7835e+06,-113.84,0,3.1119e+06,-62.744,11661,12586,1,12586,1,2.5676e-05,9.2947e-10,0,2.9924e-05,2.6815e-06,5.9393e+06,237.01,0,8.4719e+06,2.3411,12585,534.87,0,534.87,0,2.3028e-05,9.8042e-10,0,1.2178e-05,4.3042e-06,6.8651e+06,248.33,0,3.4196e+06,87.667,534.87,1
1848,0.15,12125,1,12125,1,6.1295e-06,-1.6899e-10,0,2.1796e-05,-1.1168e-06,-430.73,-44.196,0,6.3706e+06,-112.8,12124,13096,1,13096,1,4.7328e-05,5.7285e-09,0,4.7328e-05,6.5849e-06,1.004e+07,1045.1,0,1.4259e+07,2551.5,13095,12124,1,12124,1,6.1293e-06,-1.5511e-10,0,2.1357e-05,-1.1147e-06,1.7234e+06,-44.717,0,6.3579e+06,-44.697,12123,11201,1,11201,1,-3.506e-05,-1.2993e-08,0,1.4971e-06,-8.8239e-06,-1.4259e+07,-2324.8,0,4.5941e+05,-2236.7,11200,11662,1,11662,1,-1.5227e-05,-9.5183e-10,0,1.0678e-05,-5.1074e-06,-6.192e+06,-243.15,0,3.3315e+06,-181.37,11661,12586,1,12586,1,2.7486e-05,5.8508e-10,0,3.2034e-05,2.871e-06,6.3579e+06,161.01,0,9.0697e+06,4.2188,12585,534.87,0,534.87,0,2.465e-05,1.3629e-09,0,1.3036e-05,4.6076e-06,7.3489e+06,303.26,0,3.6606e+06,270.05,534.87,1
1848,0.16,12125,1,12125,1,6.5451e-06,-2.9189e-10,0,2.3268e-05,-1.1923e-06,13.028,-74.777,0,6.8009e+06,-61.978,12124,13096,1,13096,1,5.0516e-05,1.0778e-09,0,5.0516e-05,7.0292e-06,1.0716e+07,350.07,0,1.5222e+07,468.72,13095,12124,1,12124,1,6.5448e-06,-1.7945e-10,0,2.2798e-05,-1.1904e-06,1.8402e+06,-43.734,0,6.7873e+06,-39.541,12123,11201,1,11201,1,-3.7426e-05,-1.8399e-09,0,1.5968e-06,-9.4192e-06,-1.5222e+07,-577.9,0,4.9131e+05,-1384.3,11200,11662,1,11662,1,-1.6253e-05,-7.8123e-10,0,1.1399e-05,-5.4523e-06,-6.6093e+06,-199.08,0,3.5563e+06,-94.287,11661,12586,1,12586,1,2.9342e-05,2.0512e-10,0,3.4197e-05,3.0644e-06,6.7873e+06,58.589,0,9.6816e+06,-3.1653,12585,534.87,0,534.87,0,2.6316e-05,6.9767e-10,0,1.3917e-05,4.9187e-06,7.8453e+06,186.52,0,3.9077e+06,120.23,534.87,1
1848,0.17,12125,1,12125,1,6.9547e-06,-2.7122e-11,0,2.4725e-05,-1.2669e-06,-59.462,-5.2256,0,7.2268e+06,-68.916,12124,13096,1,13096,1,5.3682e-05,1.9243e-08,0,5.3682e-05,7.4697e-06,1.1388e+07,3436.2,0,1.6175e+07,1491.5,13095,12124,1,12124,1,6.9544e-06,1.0086e-10,0,2.4225e-05,-1.2651e-06,1.9554e+06,25.048,0,7.2123e+06,-43.965,12123,11201,1,11201,1,-3.977e-05,-4.0617e-08,0,1.6963e-06,-1.0023e-05,-1.6175e+07,-7262.6,0,5.2181e+05,-7611.1,11200,11662,1,11662,1,-1.7271e-05,-4.6039e-10,0,1.2113e-05,-5.7941e-06,-7.0233e+06,-122.34,0,3.7791e+06,-111.01,11661,12586,1,12586,1,3.118e-05,7.8718e-10,0,3.6338e-05,3.2564e-06,7.2123e+06,181.82,0,1.0288e+07,19.268,12585,534.87,0,534.87,0,2.7964e-05,1.8736e-09,0,1.4788e-05,5.2268e-06,8.3366e+06,384.16,0,4.1525e+06,323.81,534.87,1
1848,0.18,12125,1,12125,1,7.3631e-06,-1.9141e-10,0,2.6176e-05,-1.3413e-06,38.888,-46.018,0,7.6509e+06,-48.593,12124,13096,1,13096,1,5.6829e-05,1.4226e-09,0,5.6829e-05,7.9077e-06,1.2055e+07,433.58,0,1.7124e+07,400.88,13095,12124,1,12124,1,7.3628e-06,-6.8318e-11,0,2.5647e-05,-1.3393e-06,2.0702e+06,-17.745,0,7.6356e+06,-37.779,12123,11201,1,11201,1,-4.2103e-05,-2.183e-09,0,1.7963e-06,-1.0597e-05,-1.7124e+07,-640.11,0,5.5274e+05,-1307.6,11200,11662,1,11662,1,-1.8284e-05,-8.1594e-10,0,1.2823e-05,-6.1334e-06,-7.4353e+06,-206.55,0,4.0007e+06,-83.647,11661,12586,1,12586,1,3.301e-05,4.1028e-10,0,3.8471e-05,3.4474e-06,7.6356e+06,106.98,0,1.0892e+07,15.453,12585,534.87,0,534.87,0,2.9604e-05,8.7151e-10,0,1.5656e-05,5.5334e-06,8.8257e+06,224.66,0,4.3961e+06,144.85,534.87,1
1848,0.19,12125,1,12125,1,7.7717e-06,-4.2362e-12,0,2.7629e-05,-1.4159e-06,-37.096,0.69854,0,8.0756e+06,-133.58,12124,13096,1,13096,1,5.9984e-05,5.9477e-09,0,5.9984e-05,8.3467e-06,1.2724e+07,1062.7,0,1.8075e+07,812.77,13095,12124,1,12124,1,7.7717e-06,4.3384e-11,0,2.7071e-05,-1.414e-06,2.1852e+06,12.771,0,8.0596e+06,-57.004,12123,11201,1,11201,1,-4.444e-05,-5.0781e-09,0,1.8961e-06,-1.1191e-05,-1.8075e+07,-912.3,0,5.8341e+05,-3444,11200,11662,1,11662,1,-1.9299e-05,-5.0695e-10,0,1.3536e-05,-6.4748e-06,-7.8483e+06,-123.14,0,4.223e+06,-168.25,11661,12586,1,12586,1,3.4843e-05,5.3585e-10,0,4.0607e-05,3.6389e-06,8.0596e+06,133.01,0,1.1496e+07,-8.1214,12585,534.87,0,534.87,0,3.1248e-05,7.5583e-10,0,1.6525e-05,5.8409e-06,9.3157e+06,187.76,0,4.6402e+06,269.16,534.87,1
1848,0.2,12125,1,12125,1,8.1688e-06,-1.312e-09,0,2.9057e-05,-1.4883e-06,-1541,-272.7,0,8.4933e+06,-141.94,12124,13096,1,13096,1,6.3095e-05,2.2613e-08,0,6.3095e-05,8.7788e-06,1.3384e+07,4043,0,1.9011e+07,3154.2,13095,12124,1,12124,1,8.168e-06,-1.5242e-10,0,2.8473e-05,-1.4863e-06,2.2966e+06,-46.369,0,8.4705e+06,-49.941,12123,11201,1,11201,1,-4.6742e-05,-4.9424e-08,0,1.9994e-06,-1.177e-05,-1.9011e+07,-9174.9,0,6.1149e+05,-5339.4,11200,11662,1,11662,1,-2.0303e-05,-1.1818e-09,0,1.4234e-05,-6.8077e-06,-8.2563e+06,-300.94,0,4.4411e+06,-279.46,11661,12586,1,12586,1,3.6619e-05,9.2689e-11,0,4.2679e-05,3.8283e-06,8.4705e+06,30.364,0,1.2093e+07,81.573,12585,534.87,0,534.87,0,3.2864e-05,5.3134e-09,0,1.7379e-05,6.1429e-06,9.7977e+06,989.46,0,4.8805e+06,677.55,534.87,1
1848,0.21,12125,1,12125,1,8.5816e-06,-8.1722e-10,0,3.0518e-05,-1.5632e-06,-887.01,-201.98,0,8.9202e+06,-42.54,12124,13096,1,13096,1,6.626e-05,1.333e-09,0,6.626e-05,9.2204e-06,1.4056e+07,293.02,0,1.9967e+07,424.01,13095,12124,1,12124,1,8.5817e-06,-6.3458e-10,0,2.9904e-05,-1.5608e-06,2.4129e+06,-178.23,0,8.9022e+06,-25.505,12123,11201,1,11201,1,-4.9092e-05,-2.7484e-09,0,2.0968e-06,-1.2351e-05,-1.9967e+07,-646.61,0,6.4323e+05,-464.66,11200,11662,1,11662,1,-2.1321e-05,-1.2466e-09,0,1.495e-05,-7.1504e-06,-8.6702e+06,-317.49,0,4.6644e+06,-90.012,11661,12586,1,12586,1,3.8485e-05,-2.445e-10,0,4.4854e-05,4.0201e-06,8.9022e+06,-60.366,0,1.27e+07,13.473,12585,534.87,0,534.87,0,3.4516e-05,8.1455e-10,0,1.8253e-05,6.4513e-06,1.029e+07,181.88,0,5.1256e+06,100.08,534.87,1
1848,0.22,12125,1,12125,1,8.9972e-06,5.6374e-10,0,3.1986e-05,-1.639e-06,-57.876,138.75,0,9.3491e+06,-89.529,12124,13096,1,13096,1,6.9442e-05,2.5345e-09,0,6.9442e-05,9.6629e-06,1.4731e+07,620.6,0,2.0925e+07,321.01,13095,12124,1,12124,1,8.9973e-06,4.3715e-10,0,3.1339e-05,-1.6366e-06,2.5298e+06,102.22,0,9.3304e+06,-61.697,12123,11201,1,11201,1,-5.1448e-05,-4.2645e-09,0,2.1942e-06,-1.2951e-05,-2.0925e+07,-762.2,0,6.7518e+05,-2329.6,11200,11662,1,11662,1,-2.2342e-05,1.2033e-11,0,1.567e-05,-7.4949e-06,-9.0856e+06,2.8712,0,4.889e+06,-132.74,11661,12586,1,12586,1,4.0337e-05,1.15e-09,0,4.701e-05,4.2127e-06,9.3304e+06,278.47,0,1.3309e+07,-8.0056,12585,534.87,0,534.87,0,3.6176e-05,7.8148e-10,0,1.9131e-05,6.7617e-06,1.0785e+07,202.05,0,5.3719e+06,164.95,534.87,1
1848,0.23,12125,1,12125,1,9.4046e-06,-4.5225e-10,0,3.3438e-05,-1.7132e-06,-374.34,-107.69,0,9.7736e+06,-84.715,12124,13096,1,13096,1,7.2593e-05,9.7911e-10,0,7.2593e-05,1.0102e-05,1.5399e+07,332.46,0,2.1875e+07,215.3,13095,12124,1,12124,1,9.4049e-06,-2.8009e-10,0,3.2763e-05,-1.7108e-06,2.6444e+06,-68.592,0,9.7539e+06,-54.272,12123,11201,1,11201,1,-5.3784e-05,-2.0874e-09,0,2.2954e-06,-1.3533e-05,-2.1875e+07,-555.92,0,7.0562e+05,-543.09,11200,11662,1,11662,1,-2.3358e-05,-8.7827e-10,0,1.6382e-05,-7.8354e-06,-9.4988e+06,-220.39,0,5.111e+06,-132.69,11661,12586,1,12586,1,4.2168e-05,-8.1463e-12,0,4.9144e-05,4.4042e-06,9.7539e+06,-2.0313,0,1.3913e+07,-0.86725,12585,534.87,0,534.87,0,3.7818e-05,6.3658e-10,0,1.9999e-05,7.0686e-06,1.1274e+07,162.52,0,5.6159e+06,120.56,534.87,1
1848,0.24,12125,1,12125,1,9.8158e-06,4.0162e-10,0,3.4895e-05,-1.7879e-06,113.72,101.94,0,1.0199e+07,-15.084,12124,13096,1,13096,1,7.576e-05,2.5074e-09,0,7.576e-05,1.0542e-05,1.6071e+07,756.22,0,2.2828e+07,247.91,13095,12124,1,12124,1,9.8152e-06,1.7654e-10,0,3.4189e-05,-1.7854e-06,2.7598e+06,42.494,0,1.0179e+07,-15.66,12123,11201,1,11201,1,-5.6126e-05,-1.4453e-09,0,2.3947e-06,-1.4122e-05,-2.2828e+07,-450.63,0,7.3683e+05,-250.71,11200,11662,1,11662,1,-2.4373e-05,-3.9972e-10,0,1.7094e-05,-8.176e-06,-9.9116e+06,-93.633,0,5.3331e+06,-59.29,11661,12586,1,12586,1,4.4004e-05,1.2712e-09,0,5.1283e-05,4.5957e-06,1.0179e+07,323.6,0,1.4519e+07,24.99,12585,534.87,0,534.87,0,3.9465e-05,1.0582e-09,0,2.0871e-05,7.3763e-06,1.1765e+07,273.38,0,5.8603e+06,64.116,534.87,1
1848,0.25,12125,1,12125,1,1.0224e-05,-1.9362e-12,0,3.6348e-05,-1.8625e-06,-114.14,-2.6094,0,1.0624e+07,-85.51,12124,13096,1,13096,1,7.8912e-05,1.633e-09,0,7.8912e-05,1.0981e-05,1.6739e+07,480.11,0,2.3778e+07,516.28,13095,12124,1,12124,1,1.0224e-05,-9.8426e-12,0,3.5614e-05,-1.8599e-06,2.8747e+06,-2.5238,0,1.0603e+07,-39.484,12123,11201,1,11201,1,-5.8464e-05,-2.5639e-09,0,2.4947e-06,-1.4714e-05,-2.3778e+07,-555.82,0,7.6736e+05,-1735.6,11200,11662,1,11662,1,-2.539e-05,-5.4922e-10,0,1.7808e-05,-8.5179e-06,-1.0325e+07,-133.44,0,5.5558e+06,-137.14,11661,12586,1,12586,1,4.5838e-05,5.7006e-10,0,5.3422e-05,4.7873e-06,1.0603e+07,135.78,0,1.5124e+07,27.628,12585,534.87,0,534.87,0,4.1109e-05,7.5341e-10,0,2.174e-05,7.6838e-06,1.2256e+07,206.18,0,6.1045e+06,216.51,534.87,1
1848,0.26,12125,1,12125,1,1.0631e-05,-3.2503e-10,0,3.7796e-05,-1.9365e-06,-117.61,-84.996,0,1.1047e+07,-65.317,12124,13096,1,13096,1,8.2055e-05,3.155e-08,0,8.2055e-05,1.1418e-05,1.7406e+07,5665.1,0,2.4725e+07,1751.3,13095,12124,1,12124,1,1.0631e-05,-3.3944e-10,0,3.7032e-05,-1.9337e-06,2.9891e+06,-81.849,0,1.1025e+07,-18.312,12123,11201,1,11201,1,-6.0791e-05,-1.0099e-08,0,2.5938e-06,-1.5306e-05,-2.4725e+07,-1807.5,0,7.9772e+05,-4900.6,11200,11662,1,11662,1,-2.6401e-05,-7.6657e-10,0,1.8515e-05,-8.8556e-06,-1.0736e+07,-180.07,0,5.7766e+06,-107.72,11661,12586,1,12586,1,4.7662e-05,-4.1936e-11,0,5.5547e-05,4.9779e-06,1.1025e+07,-10.114,0,1.5726e+07,21.856,12585,534.87,0,534.87,0,4.2746e-05,1.416e-09,0,2.2606e-05,7.9898e-06,1.2743e+07,275.16,0,6.3476e+06,272.48,534.87,1
1848,0.27,12125,1,12125,1,1.1038e-05,5.8268e-10,0,3.9245e-05,-2.0107e-06,-211.9,144.32,0,1.1471e+07,-69.157,12124,13096,1,13096,1,8.5201e-05,1.4372e-09,0,8.5201e-05,1.1855e-05,1.8073e+07,385.7,0,2.5673e+07,123.56,13095,12124,1,12124,1,1.1039e-05,5.7897e-10,0,3.8452e-05,-2.008e-06,3.1037e+06,139.15,0,1.1448e+07,-42.458,12123,11201,1,11201,1,-6.3123e-05,-3.4155e-10,0,2.6941e-06,-1.5883e-05,-2.5673e+07,-77.353,0,8.2844e+05,-657.43,11200,11662,1,11662,1,-2.7413e-05,2.0355e-10,0,1.9226e-05,-9.1957e-06,-1.1148e+07,59.083,0,5.9984e+06,-121.56,11661,12586,1,12586,1,4.9491e-05,9.6865e-10,0,5.7678e-05,5.1689e-06,1.1448e+07,226.49,0,1.633e+07,7.8225,12585,534.87,0,534.87,0,4.4385e-05,4.3137e-10,0,2.3472e-05,8.296e-06,1.3232e+07,108.58,0,6.591e+06,106.01,534.87,1
1848,0.28,12125,1,12125,1,1.1445e-05,-1.3449e-10,0,4.0689e-05,-2.0847e-06,-144.59,-29.449,0,1.1893e+07,-28.326,12124,13096,1,13096,1,8.8336e-05,1.0544e-09,0,8.8336e-05,1.2292e-05,1.8739e+07,232.12,0,2.6618e+07,64.043,13095,12124,1,12124,1,1.1445e-05,-7.7598e-11,0,3.9868e-05,-2.0817e-06,3.218e+06,-18.113,0,1.1869e+07,-7.8724,12123,11201,1,11201,1,-6.5445e-05,-1.5874e-09,0,2.7933e-06,-1.6466e-05,-2.6618e+07,-385.95,0,8.5897e+05,-257.25,11200,11662,1,11662,1,-2.8423e-05,-3.6088e-10,0,1.9934e-05,-9.5343e-06,-1.1559e+07,-107.43,0,6.2191e+06,-52.311,11661,12586,1,12586,1,5.1313e-05,2.058e-10,0,5.9802e-05,5.3593e-06,1.1869e+07,55.602,0,1.6931e+07,4.5822,12585,534.87,0,534.87,0,4.6019e-05,5.7401e-10,0,2.4336e-05,8.6013e-06,1.3719e+07,134.17,0,6.8335e+06,54.469,534.87,1
1848,0.29,12125,1,12125,1,1.1859e-05,-6.1953e-11,0,4.2161e-05,-2.1601e-06,-156.87,-10.134,0,1.2323e+07,-35.609,12124,13096,1,13096,1,9.153e-05,1.79e-09,0,9.153e-05,1.2737e-05,1.9416e+07,607.87,0,2.7581e+07,136.51,13095,12124,1,12124,1,1.1859e-05,-2.7203e-11,0,4.1309e-05,-2.1569e-06,3.3344e+06,-7.5295,0,1.2299e+07,-19.142,12123,11201,1,11201,1,-6.7813e-05,-2.0558e-09,0,2.8939e-06,-1.7063e-05,-2.7581e+07,-613.8,0,8.9011e+05,-855.85,11200,11662,1,11662,1,-2.9451e-05,-5.9341e-10,0,2.0655e-05,-9.8789e-06,-1.1976e+07,-143.53,0,6.4442e+06,-87.575,11661,12586,1,12586,1,5.3168e-05,4.7877e-10,0,6.1965e-05,5.5529e-06,1.2299e+07,117.19,0,1.7543e+07,14.334,12585,534.87,0,534.87,0,4.7683e-05,8.1705e-10,0,2.5217e-05,8.9124e-06,1.4215e+07,227.01,0,7.0808e+06,81.2,534.87,1
1848,0.3,12125,1,12125,1,1.2268e-05,1.9928e-10,0,4.3614e-05,-2.2348e-06,-99.852,54.328,0,1.2748e+07,-113.06,12124,13096,1,13096,1,9.4686e-05,4.0208e-09,0,9.4686e-05,1.3175e-05,2.0085e+07,723.16,0,2.8531e+07,883.12,13095,12124,1,12124,1,1.2268e-05,1.7828e-10,0,4.2732e-05,-2.2317e-06,3.4493e+06,42.483,0,1.2722e+07,-33.683,12123,11201,1,11201,1,-7.015e-05,-9.4876e-09,0,2.9935e-06,-1.7663e-05,-2.8531e+07,-1704,0,9.2082e+05,-4538.6,11200,11662,1,11662,1,-3.0465e-05,-2.567e-10,0,2.1367e-05,-1.0219e-05,-1.2389e+07,-68.358,0,6.6661e+06,-122.37,11661,12586,1,12586,1,5.5e-05,7.6871e-10,0,6.4099e-05,5.7443e-06,1.2722e+07,179.74,0,1.8147e+07,6.9608,12585,534.87,0,534.87,0,4.9326e-05,8.2332e-10,0,2.6086e-05,9.2198e-06,1.4705e+07,210.67,0,7.3247e+06,332.71,534.87,1
1848,0.31,12125,1,12125,1,1.2674e-05,4.8192e-10,0,4.5057e-05,-2.3085e-06,-3.3011,122.97,0,1.317e+07,-25.766,12124,13096,1,13096,1,9.7818e-05,1.8557e-09,0,9.7818e-05,1.3611e-05,2.075e+07,487.55,0,2.9475e+07,119.86,13095,12124,1,12124,1,1.2674e-05,2.9654e-10,0,4.4147e-05,-2.3052e-06,3.5635e+06,80.387,0,1.3143e+07,-23.011,12123,11201,1,11201,1,-7.247e-05,-5.3445e-10,0,3.0928e-06,-1.8233e-05,-2.9475e+07,-172.71,0,9.515e+05,-158.85,11200,11662,1,11662,1,-3.1473e-05,-3.8524e-11,0,2.2073e-05,-1.0557e-05,-1.2799e+07,-8.5646,0,6.8866e+06,-56.719,11661,12586,1,12586,1,5.682e-05,9.9975e-10,0,6.622e-05,5.9343e-06,1.3143e+07,253.18,0,1.8748e+07,3.1461,12585,534.87,0,534.87,0,5.0959e-05,6.4626e-10,0,2.6949e-05,9.5246e-06,1.5192e+07,162.53,0,7.5671e+06,41.766,534.87,1
1848,0.32,12125,1,12125,1,1.3083e-05,-2.0365e-10,0,4.6513e-05,-2.383e-06,-325.06,-49.729,0,1.3595e+07,-65.473,12124,13096,1,13096,1,0.00010098,6.4215e-10,0,0.00010098,1.4051e-05,2.142e+07,218.08,0,3.0427e+07,249.31,13095,12124,1,12124,1,1.3083e-05,-1.4219e-10,0,4.5574e-05,-2.3796e-06,3.6785e+06,-37.728,0,1.3568e+07,-60.096,12123,11201,1,11201,1,-7.4812e-05,-1.163e-09,0,3.1933e-06,-1.8822e-05,-3.0427e+07,-313.64,0,9.8187e+05,-375.61,11200,11662,1,11662,1,-3.2491e-05,-4.2682e-10,0,2.2787e-05,-1.0899e-05,-1.3213e+07,-101.04,0,7.1094e+06,-108.94,11661,12586,1,12586,1,5.8657e-05,3.1341e-11,0,6.8362e-05,6.1262e-06,1.3568e+07,7.0631,0,1.9354e+07,-19.363,12585,534.87,0,534.87,0,5.2605e-05,3.5115e-10,0,2.7819e-05,9.8324e-06,1.5683e+07,95.593,0,7.8117e+06,62.695,534.87,1
1848,0.33,12125,1,12125,1,1.3491e-05,3.0943e-10,0,4.7964e-05,-2.4576e-06,-194.65,79.511,0,1.4019e+07,-112.41,12124,13096,1,13096,1,0.00010413,2.6922e-09,0,0.00010413,1.4489e-05,2.2088e+07,481.26,0,3.1376e+07,424.64,13095,12124,1,12124,1,1.3491e-05,2.7696e-10,0,4.6995e-05,-2.4541e-06,3.7933e+06,64.032,0,1.3991e+07,-39.443,12123,11201,1,11201,1,-7.7145e-05,-1.9501e-09,0,3.2922e-06,-1.9417e-05,-3.1376e+07,-347.54,0,1.0125e+06,-2724.9,11200,11662,1,11662,1,-3.3504e-05,1.2343e-10,0,2.3498e-05,-1.1239e-05,-1.3625e+07,32.314,0,7.3311e+06,-139.24,11661,12586,1,12586,1,6.0487e-05,4.6333e-10,0,7.0493e-05,6.3173e-06,1.3991e+07,105.78,0,1.9958e+07,-5.241,12585,534.87,0,534.87,0,5.4246e-05,3.2089e-10,0,2.8687e-05,1.0139e-05,1.6172e+07,84.655,0,8.0553e+06,274.61,534.87,1
1848,0.34,12125,1,12125,1,1.3901e-05,-2.3181e-11,0,4.9423e-05,-2.5322e-06,-229.39,-4.0953,0,1.4446e+07,-64.65,12124,13096,1,13096,1,0.0001073,1.4214e-09,0,0.0001073,1.493e-05,2.276e+07,461.93,0,3.2331e+07,122.46,13095,12124,1,12124,1,1.3901e-05,9.6537e-13,0,4.8425e-05,-2.5287e-06,3.9086e+06,0.15413,0,1.4417e+07,-54.844,12123,11201,1,11201,1,-7.9493e-05,-1.2679e-09,0,3.3928e-06,-2.0001e-05,-3.2331e+07,-408.43,0,1.0435e+06,-660.95,11200,11662,1,11662,1,-3.4524e-05,-4.3807e-10,0,2.4213e-05,-1.1581e-05,-1.4039e+07,-110.05,0,7.5542e+06,-93.811,11661,12586,1,12586,1,6.2327e-05,3.9179e-10,0,7.2638e-05,6.5094e-06,1.4417e+07,95.25,0,2.0565e+07,-16.741,12585,534.87,0,534.87,0,5.5896e-05,5.8356e-10,0,2.956e-05,1.0448e-05,1.6664e+07,161.07,0,8.3004e+06,78.167,534.87,1
1848,0.35,12125,1,12125,1,1.4311e-05,2.0693e-10,0,5.0878e-05,-2.6068e-06,-214.92,54.426,0,1.4871e+07,-94.194,12124,13096,1,13096,1,0.00011045,4.9814e-09,0,0.00011045,1.537e-05,2.343e+07,890.04,0,3.3283e+07,437.28,13095,12124,1,12124,1,1.4311e-05,1.6348e-10,0,4.9849e-05,-2.6028e-06,4.0238e+06,41.649,0,1.4841e+07,-47.322,12123,11201,1,11201,1,-8.1832e-05,-1.4043e-08,0,3.4918e-06,-2.0597e-05,-3.3283e+07,-2513.7,0,1.0741e+06,-2808.6,11200,11662,1,11662,1,-3.5539e-05,-1.656e-10,0,2.4926e-05,-1.1921e-05,-1.4452e+07,-48.765,0,7.7766e+06,-109.03,11661,12586,1,12586,1,6.4161e-05,7.2785e-10,0,7.4776e-05,6.701e-06,1.4841e+07,183.25,0,2.117e+07,0.15453,12585,534.87,0,534.87,0,5.7542e-05,9.8722e-10,0,3.043e-05,1.0755e-05,1.7154e+07,228.04,0,8.5447e+06,271.57,534.87,1
1848,0.36,12125,1,12125,1,1.4719e-05,1.9727e-10,0,5.2328e-05,-2.6811e-06,-110.95,56.536,0,1.5295e+07,-51.708,12124,13096,1,13096,1,0.0001136,1.6382e-09,0,0.0001136,1.5808e-05,2.4098e+07,532.64,0,3.4232e+07,89.713,13095,12124,1,12124,1,1.4719e-05,1.0632e-10,0,5.1271e-05,-2.6772e-06,4.1385e+06,28.008,0,1.5264e+07,-45.307,12123,11201,1,11201,1,-8.4165e-05,-1.2677e-09,0,3.5918e-06,-2.1176e-05,-3.4232e+07,-338.53,0,1.1049e+06,-361.95,11200,11662,1,11662,1,-3.6552e-05,-1.6726e-10,0,2.5636e-05,-1.2261e-05,-1.4864e+07,-39.178,0,7.9981e+06,-87.422,11661,12586,1,12586,1,6.599e-05,6.2073e-10,0,7.6907e-05,6.892e-06,1.5264e+07,139,0,2.1773e+07,-11.365,12585,534.87,0,534.87,0,5.9182e-05,5.8214e-10,0,3.1298e-05,1.1062e-05,1.7644e+07,164.18,0,8.7883e+06,57.895,534.87,1
1848,0.37,12125,1,12125,1,1.5124e-05,-3.9583e-10,0,5.377e-05,-2.7549e-06,-142.58,-98.29,0,1.5716e+07,-49.42,12124,13096,1,13096,1,0.00011673,1.248e-10,0,0.00011673,1.6243e-05,2.4762e+07,23.129,0,3.5174e+07,90.701,13095,12124,1,12124,1,1.5124e-05,-2.9718e-10,0,5.2684e-05,-2.7509e-06,4.2525e+06,-85.991,0,1.5685e+07,-19.107,12123,11201,1,11201,1,-8.6482e-05,-1.3931e-09,0,3.6912e-06,-2.1761e-05,-3.5174e+07,-331.79,0,1.1353e+06,-912.97,11200,11662,1,11662,1,-3.756e-05,-4.75e-10,0,2.6342e-05,-1.2599e-05,-1.5274e+07,-120.38,0,8.2184e+06,-66.167,11661,12586,1,12586,1,6.7809e-05,-1.8309e-10,0,7.9026e-05,7.082e-06,1.5685e+07,-43.92,0,2.2374e+07,5.1,12585,534.87,0,534.87,0,6.0812e-05,3.2818e-10,0,3.216e-05,1.1366e-05,1.8129e+07,73.103,0,9.0303e+06,102.77,534.87,1
1848,0.38,12125,1,12125,1,1.5537e-05,-1.311e-11,0,5.5235e-05,-2.8299e-06,2.1372,-3.3455,0,1.6144e+07,-13.176,12124,13096,1,13096,1,0.00011991,1.8563e-09,0,0.00011991,1.6686e-05,2.5437e+07,439.96,0,3.6133e+07,93.011,13095,12124,1,12124,1,1.5537e-05,-3.3344e-11,0,5.4119e-05,-2.8259e-06,4.3685e+06,-7.7577,0,1.6112e+07,-7.4749,12123,11201,1,11201,1,-8.884e-05,-1.9805e-09,0,3.7914e-06,-2.2352e-05,-3.6133e+07,-553.89,0,1.1664e+06,-157.41,11200,11662,1,11662,1,-3.8583e-05,-6.3146e-10,0,2.706e-05,-1.2942e-05,-1.569e+07,-160.92,0,8.4423e+06,-38.021,11661,12586,1,12586,1,6.9656e-05,6.3493e-10,0,8.118e-05,7.2748e-06,1.6112e+07,164.08,0,2.2983e+07,14.779,12585,534.87,0,534.87,0,6.247e-05,9.4869e-10,0,3.3036e-05,1.1676e-05,1.8624e+07,235.83,0,9.2764e+06,37.158,534.87,1
1848,0.39,12125,1,12125,1,1.5946e-05,-1.4972e-10,0,5.669e-05,-2.9045e-06,-60.098,-33.884,0,1.657e+07,-29.073,12124,13096,1,13096,1,0.00012307,1.6167e-09,0,0.00012307,1.7125e-05,2.6107e+07,435.95,0,3.7084e+07,141.33,13095,12124,1,12124,1,1.5946e-05,-2.6759e-11,0,5.5544e-05,-2.9001e-06,4.4835e+06,-6.1911,0,1.6537e+07,-14.542,12123,11201,1,11201,1,-9.118e-05,-1.9638e-09,0,3.8911e-06,-2.2945e-05,-3.7084e+07,-666.95,0,1.1971e+06,-1751.7,11200,11662,1,11662,1,-3.9599e-05,-6.3382e-10,0,2.7772e-05,-1.3283e-05,-1.6103e+07,-156.08,0,8.6647e+06,-40.289,11661,12586,1,12586,1,7.149e-05,3.1008e-10,0,8.3317e-05,7.4665e-06,1.6537e+07,77.473,0,2.3588e+07,7.4527,12585,534.87,0,534.87,0,6.4115e-05,7.2528e-10,0,3.3906e-05,1.1984e-05,1.9114e+07,198.79,0,9.5207e+06,132.21,534.87,1
1848,0.4,12125,1,12125,1,1.6354e-05,1.5681e-10,0,5.8139e-05,-2.9787e-06,11.272,43.605,0,1.6993e+07,-19.235,12124,13096,1,13096,1,0.00012622,1.3937e-09,0,0.00012622,1.7563e-05,2.6774e+07,453.11,0,3.8032e+07,86.484,13095,12124,1,12124,1,1.6354e-05,1.4154e-10,0,5.6964e-05,-2.9744e-06,4.5981e+06,33.413,0,1.6959e+07,-6.5131,12123,11201,1,11201,1,-9.3509e-05,-1.0163e-09,0,3.9908e-06,-2.3529e-05,-3.8032e+07,-292.57,0,1.2278e+06,-1045.1,11200,11662,1,11662,1,-4.0611e-05,-2.3215e-10,0,2.8482e-05,-1.3622e-05,-1.6515e+07,-65.04,0,8.8861e+06,-32.853,11661,12586,1,12586,1,7.3318e-05,6.7797e-10,0,8.5447e-05,7.6573e-06,1.6959e+07,163.66,0,2.4191e+07,12.527,12585,534.87,0,534.87,0,6.5753e-05,6.0664e-10,0,3.4773e-05,1.229e-05,1.9602e+07,160.78,0,9.764e+06,86.994,534.87,1
1848,0.41,12125,1,12125,1,1.6763e-05,2.4719e-10,0,5.9595e-05,-3.0533e-06,-95.661,65.658,0,1.7419e+07,-49.44,12124,13096,1,13096,1,0.00012938,1.9119e-09,0,0.00012938,1.8003e-05,2.7445e+07,632.99,0,3.8985e+07,64.594,13095,12124,1,12124,1,1.6763e-05,1.5744e-10,0,5.839e-05,-3.0489e-06,4.7132e+06,39.418,0,1.7384e+07,-46.788,12123,11201,1,11201,1,-9.5852e-05,-1.1798e-09,0,4.0906e-06,-2.4116e-05,-3.8985e+07,-400.7,0,1.2584e+06,-483.6,11200,11662,1,11662,1,-4.1628e-05,-2.7317e-10,0,2.9196e-05,-1.3964e-05,-1.6928e+07,-72.004,0,9.1086e+06,-69.042,11661,12586,1,12586,1,7.5153e-05,8.3548e-10,0,8.7586e-05,7.849e-06,1.7384e+07,200.48,0,2.4797e+07,-23.756,12585,534.87,0,534.87,0,6.74e-05,7.4162e-10,0,3.5644e-05,1.2598e-05,2.0093e+07,205.57,0,1.0009e+07,47.551,534.87,1
1848,0.42,12125,1,12125,1,1.7167e-05,8.8876e-11,0,6.1032e-05,-3.1271e-06,2.1056,24.267,0,1.7839e+07,-68.126,12124,13096,1,13096,1,0.0001325,3.6929e-09,0,0.0001325,1.8436e-05,2.8106e+07,657.46,0,3.9924e+07,329.02,13095,12124,1,12124,1,1.7167e-05,7.2099e-11,0,5.98e-05,-3.123e-06,4.827e+06,20.014,0,1.7804e+07,-13.681,12123,11201,1,11201,1,-9.8161e-05,-4.5116e-09,0,4.1895e-06,-2.4714e-05,-3.9924e+07,-804.17,0,1.2888e+06,-5529.4,11200,11662,1,11662,1,-4.2632e-05,3.3245e-11,0,2.99e-05,-1.43e-05,-1.7337e+07,7.7851,0,9.3284e+06,-42.875,11661,12586,1,12586,1,7.6967e-05,1.3702e-10,0,8.9699e-05,8.0384e-06,1.7804e+07,39.921,0,2.5395e+07,-2.2641,12585,534.87,0,534.87,0,6.9025e-05,2.5334e-10,0,3.6503e-05,1.2902e-05,2.0578e+07,51.356,0,1.025e+07,338.18,534.87,1
1848,0.43,12125,1,12125,1,1.758e-05,4.4286e-10,0,6.2498e-05,-3.2022e-06,-124.92,114.84,0,1.8267e+07,-73.942,12124,13096,1,13096,1,0.00013568,1.5934e-09,0,0.00013568,1.888e-05,2.8782e+07,517.77,0,4.0884e+07,169.35,13095,12124,1,12124,1,1.758e-05,3.2525e-10,0,6.1236e-05,-3.1976e-06,4.9429e+06,75.796,0,1.8231e+07,-61.457,12123,11201,1,11201,1,-0.00010052,-2.3895e-10,0,4.2901e-06,-2.5293e-05,-4.0884e+07,-55.692,0,1.3197e+06,-980.16,11200,11662,1,11662,1,-4.3656e-05,1.4352e-10,0,3.0618e-05,-1.4644e-05,-1.7753e+07,36.033,0,9.5525e+06,-120.29,11661,12586,1,12586,1,7.8815e-05,6.8553e-10,0,9.1854e-05,8.2316e-06,1.8231e+07,169.4,0,2.6005e+07,-20.245,12585,534.87,0,534.87,0,7.0684e-05,4.1681e-10,0,3.738e-05,1.3212e-05,2.1072e+07,115.93,0,1.0496e+07,81.56,534.87,1
1848,0.44,12125,1,12125,1,1.799e-05,-5.1434e-11,0,6.3955e-05,-3.2767e-06,-9.9515,-7.9613,0,1.8693e+07,-8.7701,12124,13096,1,13096,1,0.00013885,1.7139e-09,0,0.00013885,1.932e-05,2.9453e+07,557.15,0,4.1837e+07,105.01,13095,12124,1,12124,1,1.799e-05,6.209e-11,0,6.2664e-05,-3.2719e-06,5.0581e+06,15.307,0,1.8656e+07,-2.5242,12123,11201,1,11201,1,-0.00010287,-1.8778e-09,0,4.3901e-06,-2.5881e-05,-4.1837e+07,-608.98,0,1.3506e+06,-567.56,11200,11662,1,11662,1,-4.4674e-05,-6.4591e-10,0,3.1332e-05,-1.4985e-05,-1.8167e+07,-166.66,0,9.7751e+06,-29.856,11661,12586,1,12586,1,8.0653e-05,5.3797e-10,0,9.3996e-05,8.4234e-06,1.8656e+07,137.06,0,2.6612e+07,22.551,12585,534.87,0,534.87,0,7.2332e-05,8.2203e-10,0,3.8252e-05,1.3519e-05,2.1564e+07,217.67,0,1.0741e+07,60.56,534.87,1
1848,0.45,12125,1,12125,1,1.8396e-05,-7.278e-11,0,6.54e-05,-3.3508e-06,-49.054,-14.701,0,1.9115e+07,-36.092,12124,13096,1,13096,1,0.00014198,1.9239e-09,0,0.00014198,1.9756e-05,3.0118e+07,343.91,0,4.2782e+07,208.76,13095,12124,1,12124,1,1.8396e-05,-3.7515e-11,0,6.4079e-05,-3.3459e-06,5.1724e+06,-9.5647,0,1.9078e+07,-10.272,12123,11201,1,11201,1,-0.00010519,-8.0364e-10,0,4.4893e-06,-2.6472e-05,-4.2782e+07,-270.98,0,1.3811e+06,-2477.9,11200,11662,1,11662,1,-4.5683e-05,-2.96e-10,0,3.204e-05,-1.5324e-05,-1.8578e+07,-70.426,0,9.9961e+06,-40.087,11661,12586,1,12586,1,8.2475e-05,1.2463e-10,0,9.6119e-05,8.6137e-06,1.9078e+07,29.745,0,2.7213e+07,9.2882,12585,534.87,0,534.87,0,7.3966e-05,3.2649e-10,0,3.9116e-05,1.3825e-05,2.2051e+07,87.428,0,1.0984e+07,176.95,534.87,1
1848,0.46,12125,1,12125,1,1.8807e-05,-3.7282e-11,0,6.6859e-05,-3.4255e-06,-6.1857,-11.033,0,1.9542e+07,-39.295,12124,13096,1,13096,1,0.00014515,1.2721e-09,0,0.00014515,2.0197e-05,3.079e+07,411.2,0,4.3737e+07,70.648,13095,12124,1,12124,1,1.8806e-05,-2.5436e-12,0,6.5509e-05,-3.4206e-06,5.2878e+06,-0.73284,0,1.9503e+07,-38.033,12123,11201,1,11201,1,-0.00010754,-1.8872e-09,0,4.5894e-06,-2.7056e-05,-4.3737e+07,-620.09,0,1.4119e+06,-257.29,11200,11662,1,11662,1,-4.6702e-05,-6.1816e-10,0,3.2754e-05,-1.5666e-05,-1.8992e+07,-154.11,0,1.0219e+07,-65.463,11661,12586,1,12586,1,8.4315e-05,5.9327e-10,0,9.8264e-05,8.8058e-06,1.9503e+07,145.95,0,2.782e+07,-13.025,12585,534.87,0,534.87,0,7.5616e-05,7.9034e-10,0,3.9989e-05,1.4133e-05,2.2543e+07,210.41,0,1.1229e+07,36.876,534.87,1
1848,0.47,12125,1,12125,1,1.9216e-05,-3.4094e-10,0,6.8314e-05,-3.5e-06,3.0274,-87.184,0,1.9967e+07,-19.194,12124,13096,1,13096,1,0.00014831,1.03e-09,0,0.00014831,2.0636e-05,3.146e+07,334.95,0,4.4688e+07,87.525,13095,12124,1,12124,1,1.9215e-05,-1.5614e-10,0,6.6934e-05,-3.4948e-06,5.4028e+06,-36.246,0,1.9928e+07,-16.396,12123,11201,1,11201,1,-0.00010987,-2.1264e-09,0,4.6892e-06,-2.7646e-05,-4.4688e+07,-711.35,0,1.4426e+06,-1011.3,11200,11662,1,11662,1,-4.7718e-05,-9.1968e-10,0,3.3467e-05,-1.6007e-05,-1.9405e+07,-233.35,0,1.0441e+07,-44.387,11661,12586,1,12586,1,8.6149e-05,2.7773e-10,0,0.0001004,8.9974e-06,1.9928e+07,74.211,0,2.8425e+07,12.477,12585,534.87,0,534.87,0,7.7261e-05,8.1476e-10,0,4.0859e-05,1.4441e-05,2.3033e+07,212.32,0,1.1473e+07,64.53,534.87,1
1848,0.48,12125,1,12125,1,1.9623e-05,-1.3419e-10,0,6.9761e-05,-3.5741e-06,-19.625,-33.193,0,2.039e+07,-3.7488,12124,13096,1,13096,1,0.00015145,1.3826e-09,0,0.00015145,2.1074e-05,3.2126e+07,359.23,0,4.5635e+07,67.644,13095,12124,1,12124,1,1.9623e-05,-3.1731e-11,0,6.8352e-05,-3.5688e-06,5.5173e+06,-7.4898,0,2.035e+07,-0.6447,12123,11201,1,11201,1,-0.0001122,-2.0297e-09,0,4.7887e-06,-2.823e-05,-4.5635e+07,-525.51,0,1.4732e+06,-268.45,11200,11662,1,11662,1,-4.8729e-05,-7.0875e-10,0,3.4176e-05,-1.6346e-05,-1.9816e+07,-179.36,0,1.0663e+07,-21.138,11661,12586,1,12586,1,8.7975e-05,4.7542e-10,0,0.00010253,9.1881e-06,2.035e+07,121.13,0,2.9027e+07,13.843,12585,534.87,0,534.87,0,7.8898e-05,8.4937e-10,0,4.1724e-05,1.4747e-05,2.3521e+07,214.57,0,1.1716e+07,31.016,534.87,1
1848,0.49,12125,1,12125,1,2.0033e-05,-2.1244e-10,0,7.1219e-05,-3.6489e-06,5.7299,-52.083,0,2.0816e+07,-22.854,12124,13096,1,13096,1,0.00015461,1.1918e-09,0,0.00015461,2.1514e-05,3.2798e+07,352.71,0,4.6588e+07,68.011,13095,12124,1,12124,1,2.0033e-05,-5.5262e-11,0,6.978e-05,-3.6436e-06,5.6326e+06,-11.914,0,2.0775e+07,-15.763,12123,11201,1,11201,1,-0.00011455,-2.1567e-09,0,4.8885e-06,-2.882e-05,-4.6588e+07,-587.24,0,1.504e+06,-372.7,11200,11662,1,11662,1,-4.9747e-05,-7.6424e-10,0,3.489e-05,-1.6687e-05,-2.023e+07,-193.82,0,1.0885e+07,-48.139,11661,12586,1,12586,1,8.9813e-05,3.5475e-10,0,0.00010467,9.38e-06,2.0775e+07,95.079,0,2.9634e+07,2.6156,12585,534.87,0,534.87,0,8.0547e-05,8.0932e-10,0,4.2596e-05,1.5055e-05,2.4013e+07,204,0,1.1961e+07,35.087,534.87,1
1848,0.5,12125,1,12125,1,2.044e-05,3.6939e-10,0,7.2667e-05,-3.723e-06,-6.8166,95.154,0,2.124e+07,-9.5883,12124,13096,1,13096,1,0.00015776,2.0436e-09,0,0.00015776,2.1951e-05,3.3465e+07,484.4,0,4.7536e+07,52.096,13095,12124,1,12124,1,2.044e-05,2.0724e-10,0,7.1199e-05,-3.7176e-06,5.7472e+06,51.298,0,2.1198e+07,-7.0991,12123,11201,1,11201,1,-0.00011688,-8.6896e-10,0,4.9881e-06,-2.9406e-05,-4.7536e+07,-240.08,0,1.5346e+06,-303.21,11200,11662,1,11662,1,-5.0759e-05,-1.359e-10,0,3.56e-05,-1.7027e-05,-2.0642e+07,-36.487,0,1.1107e+07,-20.785,11661,12586,1,12586,1,9.1639e-05,8.8416e-10,0,0.0001068,9.5708e-06,2.1198e+07,229.16,0,3.0236e+07,7.2245,12585,534.87,0,534.87,0,8.2185e-05,7.3745e-10,0,4.3462e-05,1.5361e-05,2.4501e+07,184.57,0,1.2204e+07,26.98,534.87,1
1848,0.51,12125,1,12125,1,2.085e-05,1.9414e-10,0,7.4123e-05,-3.7976e-06,2.8627,51.189,0,2.1665e+07,-9.2042,12124,13096,1,13096,1,0.00016092,1.4485e-09,0,0.00016092,2.2391e-05,3.4135e+07,431.68,0,4.8488e+07,65.454,13095,12124,1,12124,1,2.085e-05,1.3676e-10,0,7.2626e-05,-3.7921e-06,5.8623e+06,31.064,0,2.1622e+07,-4.4573,12123,11201,1,11201,1,-0.00011922,-1.0515e-09,0,5.088e-06,-2.9995e-05,-4.8488e+07,-273.89,0,1.5653e+06,-134.5,11200,11662,1,11662,1,-5.1776e-05,-2.1008e-10,0,3.6313e-05,-1.7368e-05,-2.1055e+07,-55.284,0,1.1329e+07,-27.128,11661,12586,1,12586,1,9.3476e-05,6.4521e-10,0,0.00010894,9.7626e-06,2.1622e+07,167.2,0,3.0842e+07,8.9719,12585,534.87,0,534.87,0,8.3831e-05,6.2452e-10,0,4.4333e-05,1.5669e-05,2.4992e+07,158.3,0,1.2449e+07,27.866,534.87,1
1848,0.52,12125,1,12125,1,2.1258e-05,2.1153e-11,0,7.5574e-05,-3.8719e-06,-7.6498,8.5022,0,2.2089e+07,-6.1259,12124,13096,1,13096,1,0.00016407,1.0782e-09,0,0.00016407,2.2829e-05,3.4803e+07,350.62,0,4.9437e+07,131.95,13095,12124,1,12124,1,2.1258e-05,4.8186e-11,0,7.4048e-05,-3.8663e-06,5.9771e+06,12.545,0,2.2046e+07,-5.8484,12123,11201,1,11201,1,-0.00012155,-1.126e-09,0,5.1877e-06,-3.0582e-05,-4.9437e+07,-298.68,0,1.596e+06,-185.83,11200,11662,1,11662,1,-5.279e-05,-3.2469e-10,0,3.7024e-05,-1.7708e-05,-2.1468e+07,-80.607,0,1.1551e+07,-24.133,11661,12586,1,12586,1,9.5306e-05,4.1906e-10,0,0.00011107,9.9537e-06,2.2046e+07,104.1,0,3.1446e+07,11.198,12585,534.87,0,534.87,0,8.5472e-05,5.1629e-10,0,4.5201e-05,1.5975e-05,2.5481e+07,135.22,0,1.2692e+07,32.266,534.87,1
1848,0.53,12125,1,12125,1,2.1667e-05,4.6834e-10,0,7.7028e-05,-3.9465e-06,3.9532,120.15,0,2.2514e+07,-23.677,12124,13096,1,13096,1,0.00016722,1.9625e-09,0,0.00016722,2.3269e-05,3.5473e+07,559.28,0,5.0388e+07,83.354,13095,12124,1,12124,1,2.1667e-05,2.8677e-10,0,7.5472e-05,-3.9409e-06,6.092e+06,82.195,0,2.247e+07,-17.811,12123,11201,1,11201,1,-0.00012389,-8.7288e-10,0,5.2875e-06,-3.1171e-05,-5.0388e+07,-220.76,0,1.6267e+06,-143.52,11200,11662,1,11662,1,-5.3805e-05,-9.1653e-11,0,3.7736e-05,-1.8048e-05,-2.188e+07,-19.942,0,1.1773e+07,-44.363,11661,12586,1,12586,1,9.7138e-05,1.0707e-09,0,0.00011321,1.0145e-05,2.247e+07,275.39,0,3.2051e+07,0.29286,12585,534.87,0,534.87,0,8.7117e-05,7.3227e-10,0,4.6071e-05,1.6283e-05,2.5971e+07,187.01,0,1.2936e+07,31.908,534.87,1
1848,0.54,12125,1,12125,1,2.2074e-05,2.6225e-11,0,7.8475e-05,-4.0205e-06,3.0564,6.5503,0,2.2937e+07,-4.7986,12124,13096,1,13096,1,0.00017036,8.466e-10,0,0.00017036,2.3706e-05,3.6139e+07,197.75,0,5.1334e+07,32.149,13095,12124,1,12124,1,2.2074e-05,2.5007e-11,0,7.689e-05,-4.0147e-06,6.2065e+06,6.8082,0,2.2892e+07,-2.4643,12123,11201,1,11201,1,-0.00012622,-7.894e-10,0,5.3869e-06,-3.1756e-05,-5.1334e+07,-227.22,0,1.6573e+06,-60.324,11200,11662,1,11662,1,-5.4816e-05,-2.5139e-10,0,3.8445e-05,-1.8388e-05,-2.2292e+07,-62.741,0,1.1994e+07,-12.126,11661,12586,1,12586,1,9.8964e-05,3.0325e-10,0,0.00011534,1.0336e-05,2.2892e+07,76.861,0,3.2653e+07,4.087,12585,534.87,0,534.87,0,8.8753e-05,3.9168e-10,0,4.6936e-05,1.6589e-05,2.6459e+07,99.964,0,1.3179e+07,12.657,534.87,1
1848,0.55,12125,1,12125,1,2.2484e-05,-6.7884e-10,0,7.9934e-05,-4.0954e-06,0.9186,-170.53,0,2.3363e+07,-49.017,12124,13096,1,13096,1,0.00017353,5.7274e-10,0,0.00017353,2.4147e-05,3.6811e+07,186.03,0,5.229e+07,69.707,13095,12124,1,12124,1,2.2484e-05,-4.059e-10,0,7.8318e-05,-4.0896e-06,6.3218e+06,-105.49,0,2.3317e+07,-45.422,12123,11201,1,11201,1,-0.00012856,-2.8872e-09,0,5.4867e-06,-3.2347e-05,-5.229e+07,-774,0,1.688e+06,-245.43,11200,11662,1,11662,1,-5.5834e-05,-1.2695e-09,0,3.9159e-05,-1.8729e-05,-2.2706e+07,-326.92,0,1.2217e+07,-76.042,11661,12586,1,12586,1,0.0001008,-1.0749e-11,0,0.00011748,1.0528e-05,2.3317e+07,-2.3683,0,3.326e+07,-12.344,12585,534.87,0,534.87,0,9.0403e-05,8.4442e-10,0,4.7809e-05,1.6897e-05,2.6951e+07,211.48,0,1.3424e+07,46.925,534.87,1
1848,0.56,12125,1,12125,1,2.2893e-05,3.1208e-10,0,8.1385e-05,-4.1697e-06,34.629,81.84,0,2.3788e+07,1.8883,12124,13096,1,13096,1,0.00017668,1.3118e-09,0,0.00017668,2.4585e-05,3.7479e+07,426.4,0,5.3238e+07,260.58,13095,12124,1,12124,1,2.2892e-05,2.1593e-10,0,7.9742e-05,-4.1638e-06,6.4367e+06,58.794,0,2.3741e+07,5.0573,12123,11201,1,11201,1,-0.0001309,-6.0762e-10,0,5.5866e-06,-3.2936e-05,-5.3238e+07,-197.89,0,1.7187e+06,-1314.9,11200,11662,1,11662,1,-5.6849e-05,-6.4443e-11,0,3.9871e-05,-1.9069e-05,-2.3118e+07,-15.166,0,1.2439e+07,-14.627,11661,12586,1,12586,1,0.00010263,7.4454e-10,0,0.00011961,1.0719e-05,2.3741e+07,188.19,0,3.3864e+07,29.31,12585,534.87,0,534.87,0,9.2045e-05,5.1943e-10,0,4.8677e-05,1.7204e-05,2.744e+07,134.69,0,1.3668e+07,80.854,534.87,1
1848,0.57,12125,1,12125,1,2.3301e-05,1.8943e-10,0,8.2837e-05,-4.2441e-06,-6.9069,49.463,0,2.4212e+07,-17.907,12124,13096,1,13096,1,0.00017984,1.3296e-09,0,0.00017984,2.5024e-05,3.8148e+07,368.8,0,5.4188e+07,52.168,13095,12124,1,12124,1,2.3301e-05,1.3199e-10,0,8.1164e-05,-4.2379e-06,6.5515e+06,33.297,0,2.4164e+07,-11.778,12123,11201,1,11201,1,-0.00013323,-9.7851e-10,0,5.6863e-06,-3.3522e-05,-5.4188e+07,-255.47,0,1.7494e+06,-391.97,11200,11662,1,11662,1,-5.7863e-05,-1.714e-10,0,4.0582e-05,-1.941e-05,-2.3531e+07,-49.959,0,1.2661e+07,-33.391,11661,12586,1,12586,1,0.00010447,6.5491e-10,0,0.00012175,1.091e-05,2.4164e+07,167.56,0,3.4468e+07,0.38762,12585,534.87,0,534.87,0,9.3687e-05,5.9762e-10,0,4.9545e-05,1.7511e-05,2.793e+07,150.33,0,1.3912e+07,31.843,534.87,1
1848,0.58,12125,1,12125,1,2.371e-05,-8.0486e-11,0,8.429e-05,-4.3185e-06,-10.323,-18.206,0,2.4637e+07,-11.782,12124,13096,1,13096,1,0.00018299,9.6796e-10,0,0.00018299,2.5462e-05,3.8817e+07,314.64,0,5.5138e+07,57.661,13095,12124,1,12124,1,2.3709e-05,-9.7943e-12,0,8.2588e-05,-4.3123e-06,6.6664e+06,-2.6667,0,2.4588e+07,-7.5083,12123,11201,1,11201,1,-0.00013557,-1.2633e-09,0,5.7861e-06,-3.411e-05,-5.5138e+07,-310.58,0,1.7801e+06,-476.5,11200,11662,1,11662,1,-5.8878e-05,-4.4015e-10,0,4.1294e-05,-1.975e-05,-2.3943e+07,-112.38,0,1.2883e+07,-22.036,11661,12586,1,12586,1,0.0001063,2.4279e-10,0,0.00012388,1.1102e-05,2.4588e+07,65.952,0,3.5073e+07,4.7574,12585,534.87,0,534.87,0,9.533e-05,4.9865e-10,0,5.0414e-05,1.7818e-05,2.842e+07,127.62,0,1.4156e+07,34.713,534.87,1
1848,0.59,12125,1,12125,1,2.4118e-05,-2.0459e-10,0,8.5741e-05,-4.3928e-06,-10.16,-51.662,0,2.5061e+07,-2.0152,12124,13096,1,13096,1,0.00018614,6.1445e-10,0,0.00018614,2.5901e-05,3.9485e+07,144.79,0,5.6087e+07,42.07,13095,12124,1,12124,1,2.4117e-05,-8.8822e-11,0,8.4009e-05,-4.3864e-06,6.7811e+06,-22.003,0,2.5011e+07,-1.2622,12123,11201,1,11201,1,-0.0001379,-1.2612e-09,0,5.8857e-06,-3.4696e-05,-5.6087e+07,-334.98,0,1.8107e+06,-50.046,11200,11662,1,11662,1,-5.9892e-05,-5.1983e-10,0,4.2005e-05,-2.009e-05,-2.4356e+07,-132.48,0,1.3105e+07,-10.197,11661,12586,1,12586,1,0.00010813,1.0977e-10,0,0.00012601,1.1293e-05,2.5011e+07,29.558,0,3.5676e+07,6.5071,12585,534.87,0,534.87,0,9.6971e-05,4.542e-10,0,5.1282e-05,1.8125e-05,2.8909e+07,114.38,0,1.44e+07,11.559,534.87,1
1848,0.6,12125,1,12125,1,2.4527e-05,-3.4638e-10,0,8.7198e-05,-4.4675e-06,-12.919,-86.879,0,2.5487e+07,-14.205,12124,13096,1,13096,1,0.0001893,8.0797e-10,0,0.0001893,2.6341e-05,4.0156e+07,188.29,0,5.7041e+07,57.918,13095,12124,1,12124,1,2.4527e-05,-1.5065e-10,0,8.5436e-05,-4.4609e-06,6.8963e+06,-41.307,0,2.5436e+07,-11.706,12123,11201,1,11201,1,-0.00014025,-1.9373e-09,0,5.9856e-06,-3.5286e-05,-5.7041e+07,-477.7,0,1.8414e+06,-118.03,11200,11662,1,11662,1,-6.0909e-05,-8.1123e-10,0,4.2718e-05,-2.0431e-05,-2.4769e+07,-207.23,0,1.3327e+07,-25.203,11661,12586,1,12586,1,0.00010996,1.3172e-10,0,0.00012815,1.1485e-05,2.5436e+07,32.524,0,3.6282e+07,0.48829,12585,534.87,0,534.87,0,9.8618e-05,6.5068e-10,0,5.2153e-05,1.8433e-05,2.94e+07,162.59,0,1.4644e+07,20.434,534.87,1
1848,0.61,12125,1,12125,1,2.4936e-05,-2.5919e-10,0,8.865e-05,-4.5419e-06,16.418,-63.754,0,2.5911e+07,-6.502,12124,13096,1,13096,1,0.00019246,1.1737e-09,0,0.00019246,2.678e-05,4.0825e+07,326.2,0,5.7991e+07,129.3,13095,12124,1,12124,1,2.4936e-05,-5.5013e-11,0,8.686e-05,-4.5352e-06,7.0112e+06,-15.129,0,2.586e+07,-3.7939,12123,11201,1,11201,1,-0.00014258,-2.1678e-09,0,6.0852e-06,-3.5874e-05,-5.7991e+07,-547.83,0,1.8721e+06,-140,11200,11662,1,11662,1,-6.1924e-05,-8.1003e-10,0,4.343e-05,-2.0772e-05,-2.5182e+07,-203.95,0,1.355e+07,-21.445,11661,12586,1,12586,1,0.0001118,2.9311e-10,0,0.00013029,1.1676e-05,2.586e+07,81.748,0,3.6887e+07,9.4416,12585,534.87,0,534.87,0,0.00010026,8.2232e-10,0,5.3022e-05,1.874e-05,2.989e+07,204.47,0,1.4888e+07,24.04,534.87,1
1848,0.62,12125,1,12125,1,2.5345e-05,-8.8869e-11,0,9.0104e-05,-4.6163e-06,-19.527,-21.708,0,2.6336e+07,-1.2376,12124,13096,1,13096,1,0.00019561,1.0882e-09,0,0.00019561,2.7218e-05,4.1494e+07,283.82,0,5.8941e+07,100.54,13095,12124,1,12124,1,2.5345e-05,-4.1679e-11,0,8.8284e-05,-4.6096e-06,7.1262e+06,-11.263,0,2.6284e+07,1.1042,12123,11201,1,11201,1,-0.00014492,-1.2788e-09,0,6.1851e-06,-3.6462e-05,-5.8941e+07,-328.69,0,1.9028e+06,-240.58,11200,11662,1,11662,1,-6.2939e-05,-4.2147e-10,0,4.4142e-05,-2.1112e-05,-2.5595e+07,-107.84,0,1.3772e+07,-13.901,11661,12586,1,12586,1,0.00011363,2.4842e-10,0,0.00013243,1.1867e-05,2.6284e+07,65.369,0,3.7492e+07,12.494,12585,534.87,0,534.87,0,0.0001019,5.3926e-10,0,5.3891e-05,1.9047e-05,3.038e+07,134.06,0,1.5132e+07,20.917,534.87,1
1848,0.63,12125,1,12125,1,2.5752e-05,-1.3877e-10,0,9.1552e-05,-4.6905e-06,6.2544,-34.686,0,2.6759e+07,-6.1019,12124,13096,1,13096,1,0.00019875,3.7787e-10,0,0.00019875,2.7656e-05,4.2161e+07,90.363,0,5.9889e+07,30.842,13095,12124,1,12124,1,2.5752e-05,-4.1398e-11,0,8.9703e-05,-4.6837e-06,7.2408e+06,-10.462,0,2.6707e+07,-3.4843,12123,11201,1,11201,1,-0.00014725,-9.1522e-10,0,6.2845e-06,-3.7047e-05,-5.9889e+07,-229.35,0,1.9335e+06,-81.071,11200,11662,1,11662,1,-6.3951e-05,-3.5643e-10,0,4.4852e-05,-2.1452e-05,-2.6006e+07,-92.767,0,1.3993e+07,-12.295,11661,12586,1,12586,1,0.00011546,9.3568e-11,0,0.00013455,1.2058e-05,2.6707e+07,24.524,0,3.8095e+07,2.0244,12585,534.87,0,534.87,0,0.00010354,3.1852e-10,0,5.4757e-05,1.9353e-05,3.0868e+07,79.566,0,1.5376e+07,12.351,534.87,1
1848,0.64,12125,1,12125,1,2.6162e-05,-1.6282e-10,0,9.301e-05,-4.7652e-06,-15.384,-41.245,0,2.7185e+07,-8.7973,12124,13096,1,13096,1,0.00020192,1.1741e-09,0,0.00020192,2.8096e-05,4.2832e+07,295.83,0,6.0842e+07,64.556,13095,12124,1,12124,1,2.6162e-05,-7.6115e-11,0,9.1131e-05,-4.7583e-06,7.356e+06,-20.095,0,2.7132e+07,-5.8697,12123,11201,1,11201,1,-0.00014959,-1.5493e-09,0,6.3846e-06,-3.7637e-05,-6.0842e+07,-402.83,0,1.9642e+06,-260.7,11200,11662,1,11662,1,-6.4969e-05,-5.5404e-10,0,4.5566e-05,-2.1793e-05,-2.642e+07,-142.36,0,1.4216e+07,-22.464,11661,12586,1,12586,1,0.00011729,2.175e-10,0,0.0001367,1.225e-05,2.7132e+07,57.708,0,3.8701e+07,4.5682,12585,534.87,0,534.87,0,0.00010519,6.1567e-10,0,5.5629e-05,1.9661e-05,3.136e+07,153.31,0,1.562e+07,20.601,534.87,1
1848,0.65,12125,1,12125,1,2.6571e-05,8.1822e-11,0,9.4462e-05,-4.8397e-06,3.8588,20.685,0,2.761e+07,-15.47,12124,13096,1,13096,1,0.00020507,8.7442e-10,0,0.00020507,2.8535e-05,4.3501e+07,253.93,0,6.1792e+07,72.808,13095,12124,1,12124,1,2.6571e-05,4.1086e-11,0,9.2555e-05,-4.8326e-06,7.4709e+06,10.547,0,2.7555e+07,-13.506,12123,11201,1,11201,1,-0.00015193,-6.7812e-10,0,6.4843e-06,-3.8225e-05,-6.1792e+07,-201.66,0,1.9949e+06,-245.51,11200,11662,1,11662,1,-6.5984e-05,-1.8732e-10,0,4.6277e-05,-2.2134e-05,-2.6833e+07,-47.207,0,1.4438e+07,-24.191,11661,12586,1,12586,1,0.00011913,3.7582e-10,0,0.00013883,1.2441e-05,2.7555e+07,96.576,0,3.9305e+07,-3.8155,12585,534.87,0,534.87,0,0.00010683,3.9528e-10,0,5.6498e-05,1.9968e-05,3.185e+07,100.94,0,1.5864e+07,17.67,534.87,1
1848,0.66,12125,1,12125,1,2.6979e-05,-1.9421e-10,0,9.5915e-05,-4.9141e-06,-20.322,-48.152,0,2.8034e+07,-9.1959,12124,13096,1,13096,1,0.00020823,7.4642e-10,0,0.00020823,2.8974e-05,4.417e+07,195.62,0,6.2743e+07,140.74,13095,12124,1,12124,1,2.6979e-05,-5.4863e-11,0,9.3978e-05,-4.9069e-06,7.5858e+06,-13.087,0,2.7979e+07,-7.1194,12123,11201,1,11201,1,-0.00015427,-1.4775e-09,0,6.5841e-06,-3.8813e-05,-6.2743e+07,-378.46,0,2.0255e+06,-329.53,11200,11662,1,11662,1,-6.6998e-05,-5.6197e-10,0,4.6989e-05,-2.2474e-05,-2.7245e+07,-145.55,0,1.466e+07,-20.525,11661,12586,1,12586,1,0.00012096,1.809e-10,0,0.00014097,1.2633e-05,2.7979e+07,49.85,0,3.991e+07,3.2034,12585,534.87,0,534.87,0,0.00010848,5.35e-10,0,5.7367e-05,2.0275e-05,3.2339e+07,134.5,0,1.6108e+07,24.012,534.87,1
1848,0.67,12125,1,12125,1,2.7388e-05,8.7883e-11,0,9.7366e-05,-4.9884e-06,-8.9972,21.983,0,2.8459e+07,-6.6715,12124,13096,1,13096,1,0.00021138,1.0371e-09,0,0.00021138,2.9412e-05,4.4839e+07,252.22,0,6.3692e+07,100.12,13095,12124,1,12124,1,2.7388e-05,3.4957e-11,0,9.54e-05,-4.9811e-06,7.7006e+06,8.9466,0,2.8403e+07,-4.1805,12123,11201,1,11201,1,-0.0001566,-9.8246e-10,0,6.6837e-06,-3.94e-05,-6.3692e+07,-241.96,0,2.0562e+06,-52.842,11200,11662,1,11662,1,-6.8012e-05,-2.1704e-10,0,4.77e-05,-2.2814e-05,-2.7658e+07,-54.437,0,1.4882e+07,-14.447,11661,12586,1,12586,1,0.00012279,4.5118e-10,0,0.0001431,1.2824e-05,2.8403e+07,116.34,0,4.0514e+07,2.9442,12585,534.87,0,534.87,0,0.00011012,4.7876e-10,0,5.8235e-05,2.0582e-05,3.2829e+07,120.66,0,1.6352e+07,12.798,534.87,1
1848,0.68,12125,1,12125,1,2.7797e-05,-4.5222e-10,0,9.882e-05,-5.0629e-06,9.0441,-113.07,0,2.8884e+07,-0.89219,12124,13096,1,13096,1,0.00021453,5.2586e-10,0,0.00021453,2.9852e-05,4.5508e+07,169.1,0,6.4643e+07,76.842,13095,12124,1,12124,1,2.7796e-05,-2.1877e-10,0,9.6824e-05,-5.0555e-06,7.8155e+06,-57.689,0,2.8827e+07,-0.42914,12123,11201,1,11201,1,-0.00015894,-2.1923e-09,0,6.7833e-06,-3.9989e-05,-6.4643e+07,-546.02,0,2.0869e+06,-70.619,11200,11662,1,11662,1,-6.9027e-05,-8.897e-10,0,4.8412e-05,-2.3155e-05,-2.8071e+07,-226.71,0,1.5104e+07,-14.807,11661,12586,1,12586,1,0.00012462,4.9397e-11,0,0.00014524,1.3015e-05,2.8827e+07,12.113,0,4.1119e+07,10.481,12585,534.87,0,534.87,0,0.00011176,6.6861e-10,0,5.9104e-05,2.0889e-05,3.3319e+07,166.2,0,1.6596e+07,17.82,534.87,1
1848,0.69,12125,1,12125,1,2.8205e-05,-2.8733e-10,0,0.00010027,-5.1373e-06,2.902,-72.72,0,2.9308e+07,-3.526,12124,13096,1,13096,1,0.00021768,5.1407e-10,0,0.00021768,3.029e-05,4.6177e+07,127.49,0,6.5593e+07,41.32,13095,12124,1,12124,1,2.8205e-05,-1.5272e-10,0,9.8247e-05,-5.1298e-06,7.9304e+06,-39.076,0,2.925e+07,-1.024,12123,11201,1,11201,1,-0.00016127,-1.3933e-09,0,6.8831e-06,-4.0576e-05,-6.5593e+07,-357.65,0,2.1176e+06,-63.527,11200,11662,1,11662,1,-7.0042e-05,-6.016e-10,0,4.9123e-05,-2.3495e-05,-2.8483e+07,-153.29,0,1.5326e+07,-11.074,11661,12586,1,12586,1,0.00012645,4.2537e-11,0,0.00014737,1.3207e-05,2.925e+07,10.124,0,4.1723e+07,5.0234,12585,534.87,0,534.87,0,0.0001134,4.5199e-10,0,5.9973e-05,2.1196e-05,3.3808e+07,113.59,0,1.684e+07,11.778,534.87,1
1848,0.7,12125,1,12125,1,2.8614e-05,-6.9017e-11,0,0.00010172,-5.2117e-06,-10.098,-17.268,0,2.9733e+07,-3.0226,12124,13096,1,13096,1,0.00022084,7.6926e-10,0,0.00022084,3.0729e-05,4.6846e+07,192.72,0,6.6543e+07,32.606,13095,12124,1,12124,1,2.8614e-05,-3.6989e-11,0,9.9671e-05,-5.2041e-06,8.0454e+06,-8.6807,0,2.9674e+07,-1.489,12123,11201,1,11201,1,-0.00016361,-1.0416e-09,0,6.9829e-06,-4.1164e-05,-6.6543e+07,-266.71,0,2.1483e+06,-72.22,11200,11662,1,11662,1,-7.1057e-05,-3.685e-10,0,4.9836e-05,-2.3835e-05,-2.8896e+07,-92.736,0,1.5548e+07,-12.748,11661,12586,1,12586,1,0.00012828,2.5882e-10,0,0.00014951,1.3398e-05,2.9674e+07,66.585,0,4.2328e+07,6.9182,12585,534.87,0,534.87,0,0.00011505,4.566e-10,0,6.0842e-05,2.1503e-05,3.4298e+07,114.92,0,1.7084e+07,14.866,534.87,1
1848,0.71,12125,1,12125,1,2.9023e-05,-3.5417e-10,0,0.00010318,-5.2862e-06,17.947,-89.12,0,3.0157e+07,-18.827,12124,13096,1,13096,1,0.00022399,2.2932e-10,0,0.00022399,3.1168e-05,4.7515e+07,70.62,0,6.7494e+07,51.166,13095,12124,1,12124,1,2.9022e-05,-2.3272e-10,0,0.00010109,-5.2785e-06,8.1603e+06,-58.341,0,3.0098e+07,-6.3548,12123,11201,1,11201,1,-0.00016595,-1.4492e-09,0,7.0825e-06,-4.1758e-05,-6.7494e+07,-366.48,0,2.179e+06,-2206.8,11200,11662,1,11662,1,-7.2072e-05,-6.4659e-10,0,5.0547e-05,-2.4176e-05,-2.9309e+07,-166.9,0,1.577e+07,-20.543,11661,12586,1,12586,1,0.00013012,-2.0272e-11,0,0.00015164,1.3589e-05,3.0098e+07,-5.3124,0,4.2932e+07,4.8547,12585,534.87,0,534.87,0,0.00011669,4.1241e-10,0,6.1711e-05,2.1811e-05,3.4788e+07,103.62,0,1.7328e+07,122.51,534.87,1
1848,0.72,12125,1,12125,1,2.9431e-05,-2.529e-10,0,0.00010463,-5.3607e-06,-12.136,-62.099,0,3.0582e+07,-28.047,12124,13096,1,13096,1,0.00022715,5.9801e-10,0,0.00022715,3.1607e-05,4.8184e+07,155.44,0,6.8445e+07,112.68,13095,12124,1,12124,1,2.9431e-05,-8.5968e-11,0,0.00010252,-5.3529e-06,8.2752e+06,-22.58,0,3.0522e+07,-7.2817,12123,11201,1,11201,1,-0.00016829,-1.4809e-09,0,7.1824e-06,-4.2348e-05,-6.8445e+07,-353.01,0,2.2096e+06,-2869.8,11200,11662,1,11662,1,-7.3087e-05,-5.8723e-10,0,5.1259e-05,-2.4516e-05,-2.9722e+07,-145.67,0,1.5992e+07,-25.738,11661,12586,1,12586,1,0.00013195,1.016e-10,0,0.00015378,1.3781e-05,3.0522e+07,27.076,0,4.3537e+07,3.0873,12585,534.87,0,534.87,0,0.00011834,5.1e-10,0,6.258e-05,2.2118e-05,3.5278e+07,125.16,0,1.7572e+07,158.94,534.87,1
1848,0.73,12125,1,12125,1,2.984e-05,8.6539e-11,0,0.00010608,-5.435e-06,13.719,21.789,0,3.1007e+07,-0.39797,12124,13096,1,13096,1,0.0002303,7.99e-10,0,0.0002303,3.2046e-05,4.8853e+07,202.89,0,6.9394e+07,35.256,13095,12124,1,12124,1,2.984e-05,5.49e-11,0,0.00010394,-5.4271e-06,8.3901e+06,13.32,0,3.0946e+07,0.13508,12123,11201,1,11201,1,-0.00017062,-5.5373e-10,0,7.2821e-06,-4.2928e-05,-6.9394e+07,-159.63,0,2.2404e+06,-45.009,11200,11662,1,11662,1,-7.4102e-05,-1.4925e-10,0,5.1971e-05,-2.4857e-05,-3.0134e+07,-37.814,0,1.6214e+07,-7.4305,11661,12586,1,12586,1,0.00013378,3.3908e-10,0,0.00015591,1.3972e-05,3.0946e+07,88.801,0,4.4141e+07,5.9886,12585,534.87,0,534.87,0,0.00011998,3.473e-10,0,6.3449e-05,2.2425e-05,3.5768e+07,88.465,0,1.7816e+07,10.916,534.87,1
1848,0.74,12125,1,12125,1,3.0249e-05,-8.0785e-11,0,0.00010754,-5.5096e-06,-5.6549,-19.849,0,3.1432e+07,-2.7764,12124,13096,1,13096,1,0.00023346,8.113e-10,0,0.00023346,3.2485e-05,4.9523e+07,209.61,0,7.0347e+07,57.256,13095,12124,1,12124,1,3.0249e-05,2.2263e-11,0,0.00010537,-5.5015e-06,8.5052e+06,5.9214,0,3.137e+07,-0.081344,12123,11201,1,11201,1,-0.00017296,-1.295e-09,0,7.382e-06,-4.3517e-05,-7.0347e+07,-340.15,0,2.271e+06,-231.13,11200,11662,1,11662,1,-7.5118e-05,-4.1636e-10,0,5.2684e-05,-2.5198e-05,-3.0548e+07,-104.76,0,1.6437e+07,-11.768,11661,12586,1,12586,1,0.00013562,2.7517e-10,0,0.00015805,1.4164e-05,3.137e+07,72.27,0,4.4747e+07,8.2071,12585,534.87,0,534.87,0,0.00012162,5.0986e-10,0,6.4319e-05,2.2732e-05,3.6259e+07,128.39,0,1.806e+07,16.417,534.87,1
1848,0.75,12125,1,12125,1,3.0656e-05,-2.4945e-10,0,0.00010899,-5.5838e-06,13.726,-62.284,0,3.1855e+07,-1.2587,12124,13096,1,13096,1,0.0002366,1.1002e-10,0,0.0002366,3.2922e-05,5.019e+07,37.67,0,7.1293e+07,31.666,13095,12124,1,12124,1,3.0656e-05,-2.009e-10,0,0.00010679,-5.5756e-06,8.6197e+06,-52.302,0,3.1792e+07,-1.4699,12123,11201,1,11201,1,-0.00017529,-9.3893e-10,0,7.4814e-06,-4.4103e-05,-7.1293e+07,-209.37,0,2.3016e+06,-23.254,11200,11662,1,11662,1,-7.6129e-05,-4.1247e-10,0,5.3393e-05,-2.5537e-05,-3.0959e+07,-105.83,0,1.6658e+07,-5.9684,11661,12586,1,12586,1,0.00013744,-4.2841e-11,0,0.00016018,1.4354e-05,3.1792e+07,-11.705,0,4.5349e+07,2.7381,12585,534.87,0,534.87,0,0.00012326,2.3977e-10,0,6.5185e-05,2.3038e-05,3.6747e+07,58.076,0,1.8304e+07,6.4747,534.87,1
1848,0.76,12125,1,12125,1,3.1066e-05,-3.0226e-10,0,0.00011044,-5.6585e-06,4.3324,-75.725,0,3.2281e+07,-27.75,12124,13096,1,13096,1,0.00023976,3.2131e-10,0,0.00023976,3.3362e-05,5.0861e+07,79.855,0,7.2246e+07,82.987,13095,12124,1,12124,1,3.1066e-05,-1.3391e-10,0,0.00010821,-5.6503e-06,8.7348e+06,-34.479,0,3.2217e+07,-24.467,12123,11201,1,11201,1,-0.00017763,-1.4001e-09,0,7.5813e-06,-4.4692e-05,-7.2246e+07,-340.92,0,2.3324e+06,-488.1,11200,11662,1,11662,1,-7.7147e-05,-5.5898e-10,0,5.4106e-05,-2.5878e-05,-3.1372e+07,-145.83,0,1.6881e+07,-42.063,11661,12586,1,12586,1,0.00013928,1.4764e-11,0,0.00016232,1.4546e-05,3.2217e+07,3.5907,0,4.5955e+07,-5.6729,12585,534.87,0,534.87,0,0.00012491,4.4092e-10,0,6.6056e-05,2.3346e-05,3.7238e+07,107.96,0,1.8548e+07,30.397,534.87,1
1848,0.77,12125,1,12125,1,3.1475e-05,-1.7109e-10,0,0.0001119,-5.7329e-06,4.9175,-44.091,0,3.2706e+07,-7.2,12124,13096,1,13096,1,0.00024292,1.0543e-09,0,0.00024292,3.3802e-05,5.153e+07,245.19,0,7.3197e+07,44.939,13095,12124,1,12124,1,3.1475e-05,-6.0156e-11,0,0.00010964,-5.7245e-06,8.8498e+06,-14.579,0,3.2641e+07,-4.4642,12123,11201,1,11201,1,-0.00017997,-1.5384e-09,0,7.681e-06,-4.528e-05,-7.3197e+07,-409.29,0,2.3631e+06,-81.75,11200,11662,1,11662,1,-7.8162e-05,-5.6893e-10,0,5.4818e-05,-2.6219e-05,-3.1785e+07,-146.29,0,1.7103e+07,-18.152,11661,12586,1,12586,1,0.00014111,2.4064e-10,0,0.00016446,1.4738e-05,3.2641e+07,62.662,0,4.656e+07,5.0776,12585,534.87,0,534.87,0,0.00012655,6.136e-10,0,6.6925e-05,2.3654e-05,3.7728e+07,155.16,0,1.8792e+07,15.445,534.87,1
1848,0.78,12125,1,12125,1,3.1884e-05,2.3699e-11,0,0.00011335,-5.8073e-06,-10.108,5.703,0,3.313e+07,-2.9383,12124,13096,1,13096,1,0.00024607,1.2131e-09,0,0.00024607,3.424e-05,5.2199e+07,287.5,0,7.4147e+07,29.47,13095,12124,1,12124,1,3.1883e-05,-4.315e-13,0,0.00011106,-5.7988e-06,8.9647e+06,-0.074289,0,3.3065e+07,-1.0645,12123,11201,1,11201,1,-0.00018231,-1.1214e-09,0,7.7809e-06,-4.5868e-05,-7.4147e+07,-275.14,0,2.3938e+06,-56.688,11200,11662,1,11662,1,-7.9177e-05,-3.5344e-10,0,5.553e-05,-2.6559e-05,-3.2198e+07,-90.255,0,1.7325e+07,-10.569,11661,12586,1,12586,1,0.00014294,4.0819e-10,0,0.00016659,1.4929e-05,3.3065e+07,103.72,0,4.7164e+07,6.0426,12585,534.87,0,534.87,0,0.0001282,5.6024e-10,0,6.7794e-05,2.3961e-05,3.8218e+07,140.25,0,1.9036e+07,11.469,534.87,1
1848,0.79,12125,1,12125,1,3.2292e-05,-2.1076e-10,0,0.0001148,-5.8818e-06,-8.2882,-53.582,0,3.3555e+07,-3.7249,12124,13096,1,13096,1,0.00024923,4.2896e-10,0,0.00024923,3.4679e-05,5.2868e+07,139.39,0,7.5098e+07,56.371,13095,12124,1,12124,1,3.2292e-05,-9.7427e-11,0,0.00011248,-5.8731e-06,9.0797e+06,-25.2,0,3.3489e+07,0.85638,12123,11201,1,11201,1,-0.00018464,-1.0924e-09,0,7.8807e-06,-4.6457e-05,-7.5098e+07,-302.42,0,2.4245e+06,-385.52,11200,11662,1,11662,1,-8.0192e-05,-4.8537e-10,0,5.6242e-05,-2.69e-05,-3.2611e+07,-123.75,0,1.7547e+07,-10.127,11661,12586,1,12586,1,0.00014478,7.8168e-11,0,0.00016873,1.5121e-05,3.3489e+07,20.481,0,4.7769e+07,6.7662,12585,534.87,0,534.87,0,0.00012984,3.9241e-10,0,6.8664e-05,2.4268e-05,3.8708e+07,99.573,0,1.928e+07,27.163,534.87,1
1848,0.8,12125,1,12125,1,3.2701e-05,2.2174e-13,0,0.00011625,-5.9561e-06,11.169,-0.48603,0,3.3979e+07,-0.22363,12124,13096,1,13096,1,0.00025238,6.2758e-10,0,0.00025238,3.5118e-05,5.3537e+07,147.1,0,7.6047e+07,38.311,13095,12124,1,12124,1,3.2701e-05,-2.6274e-11,0,0.00011391,-5.9474e-06,9.1945e+06,-5.853,0,3.3912e+07,0.29484,12123,11201,1,11201,1,-0.00018698,-6.1311e-10,0,7.9803e-06,-4.7043e-05,-7.6047e+07,-162.22,0,2.4551e+06,-29.319,11200,11662,1,11662,1,-8.1206e-05,-2.0556e-10,0,5.6953e-05,-2.724e-05,-3.3023e+07,-52.594,0,1.7769e+07,-6.1477,11661,12586,1,12586,1,0.00014661,2.2434e-10,0,0.00017086,1.5312e-05,3.3912e+07,57.307,0,4.8373e+07,5.2077,12585,534.87,0,534.87,0,0.00013148,3.0934e-10,0,6.9532e-05,2.4575e-05,3.9197e+07,77.546,0,1.9524e+07,9.7638,534.87,1
1848,0.81,12125,1,12125,1,3.311e-05,7.663e-11,0,0.00011771,-6.0306e-06,18.439,19.164,0,3.4404e+07,-8.1972,12124,13096,1,13096,1,0.00025554,1.0891e-09,0,0.00025554,3.5557e-05,5.4206e+07,256.52,0,7.6998e+07,21.922,13095,12124,1,12124,1,3.311e-05,2.561e-11,0,0.00011533,-6.0219e-06,9.3095e+06,5.4686,0,3.4336e+07,-6.2612,12123,11201,1,11201,1,-0.00018932,-9.2192e-10,0,8.08e-06,-4.7632e-05,-7.6998e+07,-216.51,0,2.4858e+06,-61.916,11200,11662,1,11662,1,-8.2221e-05,-2.4985e-10,0,5.7665e-05,-2.758e-05,-3.3436e+07,-64.042,0,1.7991e+07,-17.453,11661,12586,1,12586,1,0.00014844,4.4781e-10,0,0.000173,1.5503e-05,3.4336e+07,114.74,0,4.8978e+07,3.2243,12585,534.87,0,534.87,0,0.00013312,5.0377e-10,0,7.0401e-05,2.4882e-05,3.9687e+07,125.85,0,1.9768e+07,13.794,534.87,1
1848,0.82,12125,1,12125,1,3.3518e-05,-6.5695e-11,0,0.00011916,-6.1051e-06,42.473,-16.441,0,3.4829e+07,-14.645,12124,13096,1,13096,1,0.00025869,5.7913e-10,0,0.00025869,3.5996e-05,5.4875e+07,138.43,0,7.7948e+07,35.625,13095,12124,1,12124,1,3.3518e-05,1.351e-11,0,0.00011675,-6.0962e-06,9.4244e+06,3.7758,0,3.476e+07,-12.139,12123,11201,1,11201,1,-0.00019165,-9.2571e-10,0,8.1796e-06,-4.8219e-05,-7.7948e+07,-244.08,0,2.5165e+06,-86.91,11200,11662,1,11662,1,-8.3236e-05,-2.7579e-10,0,5.8377e-05,-2.7921e-05,-3.3849e+07,-68.694,0,1.8213e+07,-24.04,11661,12586,1,12586,1,0.00015027,1.638e-10,0,0.00017513,1.5694e-05,3.476e+07,42.473,0,4.9582e+07,-3.0569,12585,534.87,0,534.87,0,0.00013477,3.3998e-10,0,7.127e-05,2.5189e-05,4.0177e+07,85.771,0,2.0012e+07,15.532,534.87,1
1848,0.83,12125,1,12125,1,3.3927e-05,-1.8458e-10,0,0.00012062,-6.1796e-06,15.604,-45.281,0,3.5254e+07,-16.888,12124,13096,1,13096,1,0.00026185,7.1857e-10,0,0.00026185,3.6435e-05,5.5545e+07,198.58,0,7.89e+07,90.919,13095,12124,1,12124,1,3.3927e-05,-5.3306e-11,0,0.00011818,-6.1707e-06,9.5394e+06,-13.224,0,3.5185e+07,-15.222,12123,11201,1,11201,1,-0.00019399,-1.4227e-09,0,8.2795e-06,-4.8808e-05,-7.89e+07,-359.4,0,2.5472e+06,-120.47,11200,11662,1,11662,1,-8.4252e-05,-5.1571e-10,0,5.909e-05,-2.8261e-05,-3.4262e+07,-131.96,0,1.8435e+07,-30.049,11661,12586,1,12586,1,0.00015211,1.4969e-10,0,0.00017727,1.5886e-05,3.5185e+07,40.968,0,5.0188e+07,-1.761,12585,534.87,0,534.87,0,0.00013641,4.9936e-10,0,7.214e-05,2.5497e-05,4.0668e+07,123.95,0,2.0257e+07,21.913,534.87,1
1848,0.84,12125,1,12125,1,3.4335e-05,-2.6834e-10,0,0.00012206,-6.2537e-06,9.5685,-67.861,0,3.5677e+07,-0.89301,12124,13096,1,13096,1,0.00026499,6.5411e-11,0,0.00026499,3.6873e-05,5.6212e+07,22.397,0,7.9848e+07,21.687,13095,12124,1,12124,1,3.4335e-05,-2.2632e-10,0,0.0001196,-6.2446e-06,9.6539e+06,-58.825,0,3.5607e+07,-0.89511,12123,11201,1,11201,1,-0.00019632,-8.8881e-10,0,8.3791e-06,-4.9394e-05,-7.9848e+07,-210.51,0,2.5778e+06,-25.644,11200,11662,1,11662,1,-8.5264e-05,-4.2861e-10,0,5.9799e-05,-2.8601e-05,-3.4673e+07,-111.05,0,1.8657e+07,-4.131,11661,12586,1,12586,1,0.00015393,-6.8798e-11,0,0.0001794,1.6077e-05,3.5607e+07,-16.592,0,5.079e+07,2.7157,12585,534.87,0,534.87,0,0.00013805,2.3183e-10,0,7.3006e-05,2.5803e-05,4.1156e+07,57.666,0,2.05e+07,5.8321,534.87,1
1848,0.85,12125,1,12125,1,3.4745e-05,-6.4251e-11,0,0.00012352,-6.3285e-06,-21.801,-14.35,0,3.6104e+07,-20.375,12124,13096,1,13096,1,0.00026816,5.611e-10,0,0.00026816,3.7313e-05,5.6883e+07,174.51,0,8.0801e+07,86.141,13095,12124,1,12124,1,3.4745e-05,1.9425e-11,0,0.00012103,-6.3193e-06,9.7692e+06,5.3702,0,3.6032e+07,-13.245,12123,11201,1,11201,1,-0.00019867,-1.0019e-09,0,8.4792e-06,-4.9986e-05,-8.0801e+07,-252.96,0,2.6086e+06,-865.74,11200,11662,1,11662,1,-8.6283e-05,-2.8995e-10,0,6.0514e-05,-2.8943e-05,-3.5088e+07,-73.755,0,1.888e+07,-27.113,11661,12586,1,12586,1,0.00015577,2.1905e-10,0,0.00018154,1.6269e-05,3.6032e+07,56.508,0,5.1397e+07,-2.5139,12585,534.87,0,534.87,0,0.0001397,3.9784e-10,0,7.3878e-05,2.6111e-05,4.1647e+07,99.554,0,2.0745e+07,56.226,534.87,1
1848,0.86,12125,1,12125,1,3.5153e-05,-3.5692e-10,0,0.00012497,-6.4028e-06,29.165,-89.81,0,3.6528e+07,-12.566,12124,13096,1,13096,1,0.00027131,5.166e-10,0,0.00027131,3.7752e-05,5.7552e+07,119.25,0,8.1751e+07,61.371,13095,12124,1,12124,1,3.5153e-05,-1.7688e-10,0,0.00012245,-6.3935e-06,9.884e+06,-44.149,0,3.6456e+07,-13.442,12123,11201,1,11201,1,-0.000201,-1.8077e-09,0,8.5785e-06,-5.0572e-05,-8.1751e+07,-448.46,0,2.6393e+06,-103.95,11200,11662,1,11662,1,-8.7296e-05,-7.1266e-10,0,6.1224e-05,-2.9282e-05,-3.55e+07,-186.76,0,1.9101e+07,-24.724,11661,12586,1,12586,1,0.0001576,4.1291e-11,0,0.00018367,1.646e-05,3.6456e+07,10.419,0,5.2001e+07,1.2161,12585,534.87,0,534.87,0,0.00014134,5.3439e-10,0,7.4746e-05,2.6418e-05,4.2137e+07,133.74,0,2.0988e+07,21.686,534.87,1
1848,0.87,12125,1,12125,1,3.5562e-05,3.9729e-11,0,0.00012643,-6.4773e-06,14.859,10.504,0,3.6952e+07,-25.03,12124,13096,1,13096,1,0.00027446,6.2773e-10,0,0.00027446,3.819e-05,5.822e+07,153.38,0,8.2701e+07,72.897,13095,12124,1,12124,1,3.5562e-05,3.9157e-11,0,0.00012387,-6.4679e-06,9.9989e+06,9.2323,0,3.6879e+07,-10.742,12123,11201,1,11201,1,-0.00020334,-8.3224e-10,0,8.6784e-06,-5.1159e-05,-8.2701e+07,-203.63,0,2.6699e+06,-179.75,11200,11662,1,11662,1,-8.8311e-05,-1.4641e-10,0,6.1936e-05,-2.9623e-05,-3.5912e+07,-36.902,0,1.9323e+07,-33.207,11661,12586,1,12586,1,0.00015943,2.6293e-10,0,0.00018581,1.6651e-05,3.6879e+07,67.666,0,5.2605e+07,-2.1216,12585,534.87,0,534.87,0,0.00014298,3.1375e-10,0,7.5615e-05,2.6725e-05,4.2626e+07,78.288,0,2.1232e+07,37.464,534.87,1
1848,0.88,12125,1,12125,1,3.597e-05,-4.3086e-10,0,0.00012788,-6.5517e-06,8.4628,-108.15,0,3.7377e+07,-12.393,12124,13096,1,13096,1,0.00027762,1.0769e-10,0,0.00027762,3.8629e-05,5.889e+07,36.155,0,8.3652e+07,57.297,13095,12124,1,12124,1,3.597e-05,-3.5859e-10,0,0.0001253,-6.5421e-06,1.0114e+07,-92.445,0,3.7303e+07,-10.131,12123,11201,1,11201,1,-0.00020567,-1.3523e-09,0,8.7781e-06,-5.1747e-05,-8.3652e+07,-333.87,0,2.7006e+06,-916.93,11200,11662,1,11662,1,-8.9326e-05,-6.9567e-10,0,6.2648e-05,-2.9963e-05,-3.6325e+07,-179.97,0,1.9545e+07,-18.33,11661,12586,1,12586,1,0.00016127,-1.1305e-10,0,0.00018794,1.6843e-05,3.7303e+07,-26.738,0,5.321e+07,-1.7946,12585,534.87,0,534.87,0,0.00014463,3.6808e-10,0,7.6484e-05,2.7032e-05,4.3116e+07,91.126,0,2.1476e+07,31.855,534.87,1
1848,0.89,12125,1,12125,1,3.638e-05,-5.4987e-11,0,0.00012933,-6.6263e-06,3.712,-12.658,0,3.7802e+07,-17.398,12124,13096,1,13096,1,0.00028077,8.0449e-10,0,0.00028077,3.9069e-05,5.956e+07,214.49,0,8.4603e+07,94.168,13095,12124,1,12124,1,3.638e-05,3.343e-11,0,0.00012672,-6.6167e-06,1.0229e+07,8.2495,0,3.7728e+07,-8.3367,12123,11201,1,11201,1,-0.00020801,-1.1236e-09,0,8.8781e-06,-5.2337e-05,-8.4603e+07,-311.98,0,2.7313e+06,-738.65,11200,11662,1,11662,1,-9.0342e-05,-3.3574e-10,0,6.3361e-05,-3.0304e-05,-3.6739e+07,-84.386,0,1.9768e+07,-22.894,11661,12586,1,12586,1,0.0001631,2.516e-10,0,0.00019008,1.7034e-05,3.7728e+07,66.653,0,5.3815e+07,2.7675,12585,534.87,0,534.87,0,0.00014627,4.4894e-10,0,7.7355e-05,2.734e-05,4.3607e+07,114.61,0,2.1721e+07,49.999,534.87,1
1848,0.9,12125,1,12125,1,3.6789e-05,-5.5565e-10,0,0.00013079,-6.7007e-06,2.9448,-138.32,0,3.8227e+07,-4.3174,12124,13096,1,13096,1,0.00028393,3.9563e-10,0,0.00028393,3.9508e-05,6.023e+07,128.73,0,8.5555e+07,77.49,13095,12124,1,12124,1,3.6788e-05,-4.095e-10,0,0.00012815,-6.6909e-06,1.0344e+07,-104.75,0,3.8152e+07,-4.5427,12123,11201,1,11201,1,-0.00021036,-2.2334e-09,0,8.9779e-06,-5.2925e-05,-8.5555e+07,-520.53,0,2.762e+06,-94.69,11200,11662,1,11662,1,-9.1357e-05,-9.8864e-10,0,6.4073e-05,-3.0645e-05,-3.7151e+07,-259.59,0,1.999e+07,-16.566,11661,12586,1,12586,1,0.00016493,-3.8571e-11,0,0.00019222,1.7226e-05,3.8152e+07,-9.8146,0,5.442e+07,9.2081,12585,534.87,0,534.87,0,0.00014792,6.0537e-10,0,7.8224e-05,2.7647e-05,4.4097e+07,149.42,0,2.1965e+07,19.592,534.87,1
1848,0.91,12125,1,12125,1,3.7197e-05,1.0745e-11,0,0.00013224,-6.775e-06,-6.205,2.9939,0,3.8651e+07,-4.0915,12124,13096,1,13096,1,0.00028708,8.941e-10,0,0.00028708,3.9946e-05,6.0898e+07,212.53,0,8.6504e+07,24.982,13095,12124,1,12124,1,3.7197e-05,1.3851e-11,0,0.00012957,-6.7652e-06,1.0459e+07,3.6375,0,3.8575e+07,-3.4781,12123,11201,1,11201,1,-0.00021269,-9.5465e-10,0,9.0775e-06,-5.3512e-05,-8.6504e+07,-220.17,0,2.7927e+06,-52.594,11200,11662,1,11662,1,-9.2372e-05,-2.6198e-10,0,6.4784e-05,-3.0985e-05,-3.7564e+07,-65.71,0,2.0212e+07,-11.482,11661,12586,1,12586,1,0.00016677,3.1571e-10,0,0.00019435,1.7417e-05,3.8575e+07,79.907,0,5.5024e+07,4.1729,12585,534.87,0,534.87,0,0.00014956,4.3054e-10,0,7.9092e-05,2.7954e-05,4.4587e+07,107.4,0,2.2209e+07,10.697,534.87,1
1848,0.92,12125,1,12125,1,3.7606e-05,1.0533e-10,0,0.00013369,-6.8495e-06,9.4435,26.401,0,3.9076e+07,-2.4366,12124,13096,1,13096,1,0.00029024,9.5329e-10,0,0.00029024,4.0385e-05,6.1567e+07,225.83,0,8.7454e+07,175,13095,12124,1,12124,1,3.7605e-05,3.4561e-11,0,0.00013099,-6.8395e-06,1.0574e+07,8.7697,0,3.8999e+07,-0.41583,12123,11201,1,11201,1,-0.00021502,-7.1994e-10,0,9.1773e-06,-5.4099e-05,-8.7454e+07,-167.56,0,2.8234e+06,-45.217,11200,11662,1,11662,1,-9.3386e-05,-1.6108e-10,0,6.5496e-05,-3.1325e-05,-3.7976e+07,-42.587,0,2.0434e+07,-8.8409,11661,12586,1,12586,1,0.0001686,4.0855e-10,0,0.00019649,1.7608e-05,3.8999e+07,105.81,0,5.5629e+07,5.0626,12585,534.87,0,534.87,0,0.0001512,4.0877e-10,0,7.9961e-05,2.8261e-05,4.5076e+07,102.31,0,2.2453e+07,13.81,534.87,1
1848,0.93,12125,1,12125,1,3.8014e-05,-2.959e-11,0,0.00013514,-6.9239e-06,14.146,-6.6956,0,3.9501e+07,-1.6137,12124,13096,1,13096,1,0.00029339,6.3006e-10,0,0.00029339,4.0824e-05,6.2236e+07,153.68,0,8.8404e+07,29.412,13095,12124,1,12124,1,3.8014e-05,7.4998e-12,0,0.00013242,-6.9138e-06,1.0689e+07,2.3957,0,3.9423e+07,-0.27033,12123,11201,1,11201,1,-0.00021736,-8.6177e-10,0,9.277e-06,-5.4687e-05,-8.8404e+07,-213.53,0,2.8541e+06,-42.427,11200,11662,1,11662,1,-9.4401e-05,-2.8125e-10,0,6.6208e-05,-3.1666e-05,-3.8389e+07,-70.557,0,2.0656e+07,-7.9335,11661,12586,1,12586,1,0.00017043,2.4546e-10,0,0.00019862,1.78e-05,3.9423e+07,61.206,0,5.6233e+07,4.5955,12585,534.87,0,534.87,0,0.00015284,3.7453e-10,0,8.083e-05,2.8568e-05,4.5566e+07,93.486,0,2.2697e+07,10.395,534.87,1
1848,0.94,12125,1,12125,1,3.8423e-05,-1.4757e-10,0,0.0001366,-6.9984e-06,31.465,-37.553,0,3.9926e+07,-4.0865,12124,13096,1,13096,1,0.00029655,9.2407e-10,0,0.00029655,4.1263e-05,6.2905e+07,217.06,0,8.9355e+07,18.406,13095,12124,1,12124,1,3.8423e-05,-7.3223e-11,0,0.00013384,-6.9883e-06,1.0804e+07,-19.637,0,3.9847e+07,-5.5497,12123,11201,1,11201,1,-0.0002197,-1.1181e-09,0,9.3766e-06,-5.5276e-05,-8.9355e+07,-263.67,0,2.8848e+06,-40.881,11200,11662,1,11662,1,-9.5417e-05,-4.6691e-10,0,6.692e-05,-3.2007e-05,-3.8802e+07,-120.53,0,2.0878e+07,-11.563,11661,12586,1,12586,1,0.00017226,1.4618e-10,0,0.00020076,1.7991e-05,3.9847e+07,36.715,0,5.6838e+07,3.9876,12585,534.87,0,534.87,0,0.00015449,4.5849e-10,0,8.17e-05,2.8875e-05,4.6057e+07,114.52,0,2.2941e+07,9.3149,534.87,1
1848,0.95,12125,1,12125,1,3.8832e-05,-2.6735e-11,0,0.00013805,-7.0728e-06,18.406,-6.9816,0,4.035e+07,-5.1107,12124,13096,1,13096,1,0.0002997,3.4856e-10,0,0.0002997,4.1702e-05,6.3574e+07,87.782,0,9.0305e+07,8.2466,13095,12124,1,12124,1,3.8832e-05,-3.4134e-11,0,0.00013526,-7.0625e-06,1.0918e+07,-7.4007,0,4.0271e+07,-3.7097,12123,11201,1,11201,1,-0.00022203,-5.397e-10,0,9.4765e-06,-5.5863e-05,-9.0305e+07,-119.03,0,2.9155e+06,-24.589,11200,11662,1,11662,1,-9.6431e-05,-1.5138e-10,0,6.7631e-05,-3.2347e-05,-3.9215e+07,-38.76,0,2.11e+07,-10.218,11661,12586,1,12586,1,0.00017409,1.2225e-10,0,0.00020289,1.8182e-05,4.0271e+07,30.185,0,5.7442e+07,0.097492,12585,534.87,0,534.87,0,0.00015613,2.0246e-10,0,8.2568e-05,2.9182e-05,4.6546e+07,50.983,0,2.3185e+07,6.5711,534.87,1
1848,0.96,12125,1,12125,1,3.9241e-05,1.2625e-10,0,0.0001395,-7.1474e-06,-5.1962,32.886,0,4.0775e+07,-21.885,12124,13096,1,13096,1,0.00030285,9.2012e-10,0,0.00030285,4.2141e-05,6.4244e+07,238.08,0,9.1257e+07,47.453,13095,12124,1,12124,1,3.9241e-05,7.8699e-11,0,0.00013669,-7.137e-06,1.1033e+07,19.95,0,4.0695e+07,-8.1781,12123,11201,1,11201,1,-0.00022437,-6.4354e-10,0,9.5763e-06,-5.6455e-05,-9.1257e+07,-162.93,0,2.9461e+06,-1004.9,11200,11662,1,11662,1,-9.7447e-05,-1.2231e-10,0,6.8344e-05,-3.2688e-05,-3.9628e+07,-32.743,0,2.1322e+07,-25.293,11661,12586,1,12586,1,0.00017593,4.1427e-10,0,0.00020503,1.8374e-05,4.0695e+07,106.08,0,5.8048e+07,0.942,12585,534.87,0,534.87,0,0.00015778,3.8374e-10,0,8.3438e-05,2.949e-05,4.7036e+07,97.064,0,2.3429e+07,67.165,534.87,1
1848,0.97,12125,1,12125,1,3.965e-05,-1.0344e-10,0,0.00014096,-7.2218e-06,12.981,-26.409,0,4.12e+07,-25.481,12124,13096,1,13096,1,0.00030601,5.693e-10,0,0.00030601,4.258e-05,6.4913e+07,136.82,0,9.2207e+07,117.06,13095,12124,1,12124,1,3.9649e-05,-3.7246e-11,0,0.00013811,-7.2114e-06,1.1148e+07,-9.2568,0,4.1119e+07,-17.703,12123,11201,1,11201,1,-0.00022671,-8.4358e-10,0,9.676e-06,-5.7042e-05,-9.2207e+07,-213.52,0,2.9769e+06,-741.06,11200,11662,1,11662,1,-9.8462e-05,-3.3365e-10,0,6.9056e-05,-3.3028e-05,-4.0041e+07,-85.663,0,2.1545e+07,-29.225,11661,12586,1,12586,1,0.00017776,1.179e-10,0,0.00020717,1.8565e-05,4.1119e+07,30.889,0,5.8652e+07,-8.8123,12585,534.87,0,534.87,0,0.00015942,3.2609e-10,0,8.4307e-05,2.9797e-05,4.7526e+07,82.096,0,2.3673e+07,51.398,534.87,1
1848,0.98,12125,1,12125,1,4.0058e-05,-6.1587e-10,0,0.00014241,-7.2961e-06,31.871,-155.42,0,4.1624e+07,-8.0062,12124,13096,1,13096,1,0.00030916,1.5826e-10,0,0.00030916,4.3019e-05,6.5581e+07,51.728,0,9.3157e+07,52.401,13095,12124,1,12124,1,4.0057e-05,-5.5043e-10,0,0.00013953,-7.2855e-06,1.1263e+07,-143.81,0,4.1542e+07,-8.2189,12123,11201,1,11201,1,-0.00022905,-1.8406e-09,0,9.7753e-06,-5.7627e-05,-9.3157e+07,-464.77,0,3.0075e+06,-396.95,11200,11662,1,11662,1,-9.9475e-05,-9.4947e-10,0,6.9766e-05,-3.3368e-05,-4.0452e+07,-239.59,0,2.1766e+07,-17.484,11661,12586,1,12586,1,0.00017959,-2.3354e-10,0,0.0002093,1.8756e-05,4.1542e+07,-61.934,0,5.9256e+07,4.7286,12585,534.87,0,534.87,0,0.00016106,4.5846e-10,0,8.5174e-05,3.0103e-05,4.8015e+07,113.98,0,2.3916e+07,27.316,534.87,1
1848,0.99,12125,1,12125,1,4.0467e-05,-1.5922e-10,0,0.00014386,-7.3707e-06,-32.735,-40.394,0,4.2049e+07,-6.6124,12124,13096,1,13096,1,0.00031232,7.403e-10,0,0.00031232,4.3458e-05,6.6251e+07,192.97,0,9.4108e+07,24.457,13095,12124,1,12124,1,4.0467e-05,-7.0043e-11,0,0.00014096,-7.3599e-06,1.1378e+07,-17.962,0,4.1967e+07,-6.6024,12123,11201,1,11201,1,-0.00023139,-1.064e-09,0,9.8757e-06,-5.8217e-05,-9.4108e+07,-272.46,0,3.0382e+06,-304.87,11200,11662,1,11662,1,-0.00010049,-4.611e-10,0,7.048e-05,-3.3709e-05,-4.0866e+07,-117.47,0,2.1989e+07,-12.375,11661,12586,1,12586,1,0.00018143,1.0774e-10,0,0.00021144,1.8948e-05,4.1967e+07,27.18,0,5.9862e+07,1.7967,12585,534.87,0,534.87,0,0.00016271,4.19e-10,0,8.6045e-05,3.0411e-05,4.8506e+07,106.18,0,2.4161e+07,18.927,534.87,1
1848,1,12125,1,12125,1,4.0876e-05,3.7904e-10,0,0.00014532,-7.4451e-06,39.846,94.497,0,4.2474e+07,-9.4498,12124,13096,1,13096,1,0.00031547,1.4289e-09,0,0.00031547,4.3897e-05,6.6921e+07,340.47,0,9.5059e+07,50.899,13095,12124,1,12124,1,4.0875e-05,2.8178e-10,0,0.00014238,-7.4343e-06,1.1493e+07,69.024,0,4.239e+07,-9.3041,12123,11201,1,11201,1,-0.00023372,-5.1092e-10,0,9.975e-06,-5.8804e-05,-9.5059e+07,-136.18,0,3.0689e+06,-398.61,11200,11662,1,11662,1,-0.00010151,6.0569e-12,0,7.1191e-05,-3.4049e-05,-4.1279e+07,1.9556,0,2.2211e+07,-18.96,11661,12586,1,12586,1,0.00018326,7.0613e-10,0,0.00021357,1.9139e-05,4.239e+07,185.22,0,6.0466e+07,-0.90298,12585,534.87,0,534.87,0,0.00016435,4.7206e-10,0,8.6914e-05,3.0718e-05,4.8996e+07,115.62,0,2.4405e+07,16.747,534.87,1
1848,1.01,12125,1,12125,1,4.1284e-05,-4.4383e-10,0,0.00014677,-7.5195e-06,5.0791,-111.49,0,4.2898e+07,4.7081,12124,13096,1,13096,1,0.00031863,1.7742e-10,0,0.00031863,4.4336e-05,6.759e+07,60.75,0,9.6009e+07,50.507,13095,12124,1,12124,1,4.1284e-05,-4.3448e-10,0,0.00014381,-7.5085e-06,1.1608e+07,-112.26,0,4.2814e+07,2.3724,12123,11201,1,11201,1,-0.00023606,-1.3931e-09,0,1.0075e-05,-5.9392e-05,-9.6009e+07,-324.95,0,3.0995e+06,-337.7,11200,11662,1,11662,1,-0.00010252,-7.1898e-10,0,7.1903e-05,-3.439e-05,-4.1691e+07,-174.57,0,2.2433e+07,-4.6186,11661,12586,1,12586,1,0.00018509,-1.2943e-10,0,0.00021571,1.9331e-05,4.2814e+07,-32.217,0,6.107e+07,14.47,12585,534.87,0,534.87,0,0.00016599,3.6692e-10,0,8.7783e-05,3.1025e-05,4.9486e+07,90.692,0,2.4649e+07,21.438,534.87,1
1848,1.02,12125,1,12125,1,4.1693e-05,1.4479e-11,0,0.00014822,-7.5939e-06,18.945,3.3095,0,4.3323e+07,-4.1649,12124,13096,1,13096,1,0.00032178,6.2642e-10,0,0.00032178,4.4774e-05,6.8258e+07,147.08,0,9.6958e+07,14.208,13095,12124,1,12124,1,4.1692e-05,-4.7295e-12,0,0.00014523,-7.5828e-06,1.1723e+07,-1.1599,0,4.3237e+07,-3.1574,12123,11201,1,11201,1,-0.00023839,-5.7858e-10,0,1.0175e-05,-5.9979e-05,-9.6958e+07,-154.78,0,3.1302e+06,-34.75,11200,11662,1,11662,1,-0.00010354,-1.8124e-10,0,7.2614e-05,-3.473e-05,-4.2104e+07,-46.053,0,2.2655e+07,-9.3095,11661,12586,1,12586,1,0.00018692,2.2042e-10,0,0.00021784,1.9522e-05,4.3237e+07,56.21,0,6.1674e+07,1.8087,12585,534.87,0,534.87,0,0.00016763,2.974e-10,0,8.8651e-05,3.1332e-05,4.9975e+07,74.348,0,2.4893e+07,7.7211,534.87,1
1848,1.03,12125,1,12125,1,4.2102e-05,-2.9281e-10,0,0.00014967,-7.6684e-06,14.528,-74.508,0,4.3748e+07,-24.212,12124,13096,1,13096,1,0.00032493,2.8212e-10,0,0.00032493,4.5213e-05,6.8927e+07,71.69,0,9.791e+07,79.643,13095,12124,1,12124,1,4.2101e-05,-2.0748e-10,0,0.00014665,-7.6573e-06,1.1838e+07,-52.245,0,4.3662e+07,-11.711,12123,11201,1,11201,1,-0.00024073,-1.1051e-09,0,1.0274e-05,-6.0571e-05,-9.791e+07,-288.96,0,3.1609e+06,-1098.7,11200,11662,1,11662,1,-0.00010455,-5.4311e-10,0,7.3326e-05,-3.5071e-05,-4.2517e+07,-142.19,0,2.2877e+07,-25.203,11661,12586,1,12586,1,0.00018875,-2.2969e-11,0,0.00021998,1.9713e-05,4.3662e+07,-5.2951,0,6.2279e+07,-2.4641,12585,534.87,0,534.87,0,0.00016928,3.3448e-10,0,8.9521e-05,3.164e-05,5.0465e+07,84.468,0,2.5137e+07,85.291,534.87,1
1848,1.04,12125,1,12125,1,4.2509e-05,3.1935e-11,0,0.00015112,-7.7426e-06,-2.4622,7.6094,0,4.4171e+07,0.41557,12124,13096,1,13096,1,0.00032808,2.1836e-10,0,0.00032808,4.5651e-05,6.9595e+07,47.91,0,9.8858e+07,21.488,13095,12124,1,12124,1,4.2509e-05,3.7241e-11,0,0.00014807,-7.7314e-06,1.1952e+07,9.7255,0,4.4085e+07,0.8431,12123,11201,1,11201,1,-0.00024306,-1.5041e-10,0,1.0374e-05,-6.1154e-05,-9.8858e+07,-33.08,0,3.1916e+06,-17.695,11200,11662,1,11662,1,-0.00010556,-2.1105e-11,0,7.4037e-05,-3.541e-05,-4.2929e+07,-4.985,0,2.3099e+07,-1.2721,11661,12586,1,12586,1,0.00019058,8.502e-11,0,0.00022211,1.9905e-05,4.4085e+07,20.832,0,6.2883e+07,2.3987,12585,534.87,0,534.87,0,0.00017092,6.6334e-11,0,9.0388e-05,3.1946e-05,5.0954e+07,16.491,0,2.538e+07,5.0924,534.87,1
1848,1.05,12125,1,12125,1,4.2919e-05,-6.4407e-11,0,0.00015258,-7.8173e-06,3.4906,-16.179,0,4.4597e+07,-15.201,12124,13096,1,13096,1,0.00033124,5.1124e-10,0,0.00033124,4.6091e-05,7.0266e+07,118.43,0,9.981e+07,64.654,13095,12124,1,12124,1,4.2919e-05,-3.1612e-11,0,0.0001495,-7.806e-06,1.2068e+07,-8.4393,0,4.451e+07,-9.0356,12123,11201,1,11201,1,-0.0002454,-8.444e-10,0,1.0474e-05,-6.1744e-05,-9.981e+07,-205.58,0,3.2223e+06,-359.45,11200,11662,1,11662,1,-0.00010658,-2.1279e-10,0,7.475e-05,-3.5752e-05,-4.3342e+07,-55.013,0,2.3321e+07,-19.644,11661,12586,1,12586,1,0.00019242,9.6779e-11,0,0.00022425,2.0096e-05,4.451e+07,24.914,0,6.3489e+07,-2.798,12585,534.87,0,534.87,0,0.00017257,2.5584e-10,0,9.1259e-05,3.2254e-05,5.1445e+07,63.194,0,2.5625e+07,28.902,534.87,1
1848,1.06,12125,1,12125,1,4.3327e-05,2.1629e-10,0,0.00015403,-7.8915e-06,4.2766,54.604,0,4.5021e+07,0.11982,12124,13096,1,13096,1,0.00033439,7.5393e-10,0,0.00033439,4.6529e-05,7.0933e+07,170.78,0,1.0076e+08,56.512,13095,12124,1,12124,1,4.3327e-05,1.9455e-10,0,0.00015092,-7.88e-06,1.2182e+07,49.738,0,4.4932e+07,1.713,12123,11201,1,11201,1,-0.00024774,-3.1678e-10,0,1.0574e-05,-6.233e-05,-1.0076e+08,-56.697,0,3.2529e+06,-528.49,11200,11662,1,11662,1,-0.00010759,9.3271e-11,0,7.5461e-05,-3.6091e-05,-4.3754e+07,24.138,0,2.3543e+07,-1.9386,11661,12586,1,12586,1,0.00019425,3.1998e-10,0,0.00022638,2.0287e-05,4.4932e+07,82.289,0,6.4092e+07,5.9472,12585,534.87,0,534.87,0,0.0001742,1.7114e-10,0,9.2126e-05,3.256e-05,5.1934e+07,42.345,0,2.5868e+07,19.536,534.87,1
1848,1.07,12125,1,12125,1,4.3736e-05,-3.5142e-10,0,0.00015549,-7.9661e-06,0.74665,-87.529,0,4.5446e+07,-10.601,12124,13096,1,13096,1,0.00033755,2.6034e-10,0,0.00033755,4.6969e-05,7.1604e+07,50.635,0,1.0171e+08,118.13,13095,12124,1,12124,1,4.3736e-05,-2.8653e-10,0,0.00015235,-7.9545e-06,1.2297e+07,-76.136,0,4.5357e+07,-8.0337,12123,11201,1,11201,1,-0.00025008,-1.2395e-09,0,1.0673e-05,-6.2919e-05,-1.0171e+08,-287.53,0,3.2836e+06,-1611.9,11200,11662,1,11662,1,-0.00010861,-5.7395e-10,0,7.6173e-05,-3.6432e-05,-4.4167e+07,-144.54,0,2.3765e+07,-17.272,11661,12586,1,12586,1,0.00019608,-6.0321e-11,0,0.00022852,2.0479e-05,4.5357e+07,-17.062,0,6.4697e+07,1.4368,12585,534.87,0,534.87,0,0.00017585,3.3982e-10,0,9.2996e-05,3.2868e-05,5.2425e+07,82.718,0,2.6113e+07,49.973,534.87,1
1848,1.08,12125,1,12125,1,4.4145e-05,-5.6793e-11,0,0.00015694,-8.0406e-06,6.0519,-14.571,0,4.5871e+07,-2.3455,12124,13096,1,13096,1,0.0003407,2.142e-10,0,0.0003407,4.7408e-05,7.2273e+07,49.733,0,1.0266e+08,9.7363,13095,12124,1,12124,1,4.4145e-05,-5.1225e-11,0,0.00015377,-8.0289e-06,1.2412e+07,-13.648,0,4.5781e+07,-0.48423,12123,11201,1,11201,1,-0.00025241,-4.2309e-10,0,1.0773e-05,-6.3507e-05,-1.0266e+08,-106.43,0,3.3144e+06,-24.294,11200,11662,1,11662,1,-0.00010963,-8.7758e-11,0,7.6886e-05,-3.6773e-05,-4.4581e+07,-21.466,0,2.3987e+07,-5.8392,11661,12586,1,12586,1,0.00019792,-7.5536e-12,0,0.00023066,2.067e-05,4.5781e+07,-1.9593,0,6.5303e+07,2.43,12585,534.87,0,534.87,0,0.00017749,9.379e-11,0,9.3866e-05,3.3175e-05,5.2915e+07,23.608,0,2.6357e+07,6.7677,534.87,1
1848,1.09,12125,1,12125,1,4.4554e-05,3.4449e-10,0,0.00015839,-8.115e-06,15.975,87.554,0,4.6296e+07,-2.4982,12124,13096,1,13096,1,0.00034386,8.2149e-10,0,0.00034386,4.7847e-05,7.2943e+07,194.25,0,1.0361e+08,17.742,13095,12124,1,12124,1,4.4554e-05,3.4481e-10,0,0.0001552,-8.1032e-06,1.2527e+07,91.382,0,4.6205e+07,-1.5252,12123,11201,1,11201,1,-0.00025475,-5.1723e-11,0,1.0873e-05,-6.4095e-05,-1.0361e+08,-17.712,0,3.3451e+06,-27.834,11200,11662,1,11662,1,-0.00011064,1.371e-10,0,7.7598e-05,-3.7113e-05,-4.4993e+07,35.786,0,2.421e+07,-4.8721,11661,12586,1,12586,1,0.00019975,5.2357e-10,0,0.00023279,2.0862e-05,4.6205e+07,131.86,0,6.5907e+07,1.3266,12585,534.87,0,534.87,0,0.00017914,2.3604e-10,0,9.4735e-05,3.3482e-05,5.3405e+07,58.516,0,2.6601e+07,6.3034,534.87,1
1848,1.1,12125,1,12125,1,4.4961e-05,2.5626e-10,0,0.00015984,-8.1891e-06,-94.312,64.094,0,4.6719e+07,3.9874,12124,13096,1,13096,1,0.00034701,1.2295e-09,0,0.00034701,4.8285e-05,7.3609e+07,276.14,0,1.0456e+08,50.074,13095,12124,1,12124,1,4.4961e-05,1.776e-10,0,0.00015661,-8.1772e-06,1.2642e+07,45.329,0,4.6627e+07,6.106,12123,11201,1,11201,1,-0.00025708,-1.6221e-10,0,1.0973e-05,-6.4681e-05,-1.0456e+08,-52.736,0,3.3755e+06,-46.692,11200,11662,1,11662,1,-0.00011165,2.1147e-12,0,7.8307e-05,-3.7453e-05,-4.5405e+07,0.58099,0,2.4431e+07,-2.991,11661,12586,1,12586,1,0.00020157,4.4367e-10,0,0.00023492,2.1053e-05,4.6627e+07,113.38,0,6.651e+07,12.043,12585,534.87,0,534.87,0,0.00018078,3.0387e-10,0,9.5601e-05,3.3788e-05,5.3893e+07,75.599,0,2.6844e+07,11.578,534.87,1
1848,1.11,12125,1,12125,1,4.5371e-05,7.5791e-11,0,0.0001613,-8.2638e-06,13.604,18.164,0,4.7145e+07,-2.8773,12124,13096,1,13096,1,0.00035016,4.5426e-10,0,0.00035016,4.8724e-05,7.4279e+07,98.842,0,1.0551e+08,18.813,13095,12124,1,12124,1,4.5371e-05,6.0822e-11,0,0.00015804,-8.2518e-06,1.2757e+07,14.945,0,4.7052e+07,-1.7756,12123,11201,1,11201,1,-0.00025942,-1.8604e-10,0,1.1072e-05,-6.527e-05,-1.0551e+08,-52.862,0,3.4064e+06,-27.407,11200,11662,1,11662,1,-0.00011267,1.478e-12,0,7.902e-05,-3.7794e-05,-4.5818e+07,0.40325,0,2.4653e+07,-4.7925,11661,12586,1,12586,1,0.00020341,1.4018e-10,0,0.00023706,2.1244e-05,4.7052e+07,36.251,0,6.7115e+07,0.78379,12585,534.87,0,534.87,0,0.00018242,1.12e-10,0,9.6472e-05,3.4096e-05,5.4384e+07,27.171,0,2.7089e+07,6.5417,534.87,1
1848,1.12,12125,1,12125,1,4.5779e-05,-2.7217e-11,0,0.00016275,-8.3382e-06,-5.194,-6.9202,0,4.7569e+07,0.53347,12124,13096,1,13096,1,0.00035332,1.0492e-10,0,0.00035332,4.9163e-05,7.4948e+07,22.703,0,1.0646e+08,7.3992,13095,12124,1,12124,1,4.5779e-05,-1.1637e-11,0,0.00015946,-8.326e-06,1.2872e+07,-2.8182,0,4.7476e+07,0.44753,12123,11201,1,11201,1,-0.00026176,-2.0074e-10,0,1.1172e-05,-6.5858e-05,-1.0646e+08,-49.711,0,3.437e+06,-8.2748,11200,11662,1,11662,1,-0.00011368,-6.4933e-11,0,7.9732e-05,-3.8134e-05,-4.6231e+07,-16.306,0,2.4875e+07,-0.77606,11661,12586,1,12586,1,0.00020524,1.6175e-11,0,0.00023919,2.1436e-05,4.7476e+07,4.0841,0,6.772e+07,2.136,12585,534.87,0,534.87,0,0.00018406,6.5353e-11,0,9.734e-05,3.4403e-05,5.4874e+07,16.464,0,2.7333e+07,2.346,534.87,1
1848,1.13,12125,1,12125,1,4.6188e-05,-5.5365e-10,0,0.0001642,-8.4127e-06,12.486,-139.87,0,4.7994e+07,-0.87057,12124,13096,1,13096,1,0.00035648,1.0236e-10,0,0.00035648,4.9603e-05,7.5619e+07,35.044,0,1.0741e+08,32.461,13095,12124,1,12124,1,4.6188e-05,-5.4875e-10,0,0.00016089,-8.4004e-06,1.2987e+07,-144.43,0,4.79e+07,-0.26966,12123,11201,1,11201,1,-0.0002641,-1.411e-09,0,1.1272e-05,-6.6447e-05,-1.0741e+08,-318.28,0,3.4677e+06,-35.586,11200,11662,1,11662,1,-0.0001147,-8.5405e-10,0,8.0444e-05,-3.8475e-05,-4.6644e+07,-216.15,0,2.5098e+07,-5.3626,11661,12586,1,12586,1,0.00020708,-2.4553e-10,0,0.00024133,2.1627e-05,4.79e+07,-63.029,0,6.8325e+07,4.9325,12585,534.87,0,534.87,0,0.00018571,3.7583e-10,0,9.821e-05,3.4711e-05,5.5364e+07,92.406,0,2.7577e+07,8.7137,534.87,1
1848,1.14,12125,1,12125,1,4.6596e-05,-1.2713e-10,0,0.00016565,-8.4871e-06,-9.5221,-32.242,0,4.8418e+07,0.39132,12124,13096,1,13096,1,0.00035963,1.3905e-11,0,0.00035963,5.0041e-05,7.6286e+07,4.7619,0,1.0836e+08,2.8088,13095,12124,1,12124,1,4.6596e-05,-1.3046e-10,0,0.00016231,-8.4747e-06,1.3102e+07,-35.234,0,4.8323e+07,0.88941,12123,11201,1,11201,1,-0.00026643,-2.7724e-10,0,1.1372e-05,-6.7034e-05,-1.0836e+08,-65.934,0,3.4984e+06,-12.205,11200,11662,1,11662,1,-0.00011571,-1.8632e-10,0,8.1155e-05,-3.8815e-05,-4.7056e+07,-46.634,0,2.5319e+07,0.1413,11661,12586,1,12586,1,0.00020891,-7.7106e-11,0,0.00024347,2.1818e-05,4.8323e+07,-19.041,0,6.8929e+07,1.3179,12585,534.87,0,534.87,0,0.00018735,6.822e-11,0,9.9079e-05,3.5018e-05,5.5853e+07,16.631,0,2.7821e+07,1.6953,534.87,1
1848,1.15,12125,1,12125,1,4.7005e-05,-9.9233e-11,0,0.00016711,-8.5615e-06,3.8636,-24.922,0,4.8843e+07,1.6458,12124,13096,1,13096,1,0.00036278,2.14e-10,0,0.00036278,5.0479e-05,7.6955e+07,62.072,0,1.0931e+08,32.93,13095,12124,1,12124,1,4.7005e-05,-5.3911e-11,0,0.00016373,-8.549e-06,1.3216e+07,-14.364,0,4.8747e+07,1.5445,12123,11201,1,11201,1,-0.00026877,-5.5401e-10,0,1.1471e-05,-6.7621e-05,-1.0931e+08,-134.86,0,3.5291e+06,-360.84,11200,11662,1,11662,1,-0.00011673,-2.4417e-10,0,8.1867e-05,-3.9155e-05,-4.7469e+07,-63.42,0,2.5541e+07,-2.6457,11661,12586,1,12586,1,0.00021074,4.7652e-11,0,0.0002456,2.201e-05,4.8747e+07,11.312,0,6.9533e+07,7.4755,12585,534.87,0,534.87,0,0.00018899,1.9453e-10,0,9.9947e-05,3.5324e-05,5.6343e+07,48.626,0,2.8064e+07,13.345,534.87,1
1848,1.16,12125,1,12125,1,4.7415e-05,-3.0143e-10,0,0.00016856,-8.6361e-06,-2.2714,-76.61,0,4.9269e+07,-0.08518,12124,13096,1,13096,1,0.00036594,1.7488e-10,0,0.00036594,5.0919e-05,7.7626e+07,42.775,0,1.1027e+08,84.467,13095,12124,1,12124,1,4.7415e-05,-3.0748e-10,0,0.00016516,-8.6235e-06,1.3332e+07,-80.087,0,4.9172e+07,2.0713,12123,11201,1,11201,1,-0.00027111,-7.3613e-10,0,1.1571e-05,-6.8211e-05,-1.1027e+08,-185.09,0,3.5598e+06,-445.44,11200,11662,1,11662,1,-0.00011775,-4.7336e-10,0,8.258e-05,-3.9497e-05,-4.7883e+07,-122.61,0,2.5764e+07,-3.1431,11661,12586,1,12586,1,0.00021258,-1.1366e-10,0,0.00024774,2.2201e-05,4.9172e+07,-27.902,0,7.0139e+07,8.2517,12585,534.87,0,534.87,0,0.00019064,2.1593e-10,0,0.00010082,3.5632e-05,5.6834e+07,54.176,0,2.8309e+07,31.528,534.87,1
1848,1.17,12125,1,12125,1,4.7823e-05,-1.7163e-10,0,0.00017001,-8.7104e-06,-3.9844,-43.544,0,4.9693e+07,0.31393,12124,13096,1,13096,1,0.00036909,3.6953e-11,0,0.00036909,5.1357e-05,7.8294e+07,12.654,0,1.1121e+08,5.1917,13095,12124,1,12124,1,4.7823e-05,-1.8155e-10,0,0.00016658,-8.6977e-06,1.3446e+07,-49.388,0,4.9595e+07,0.75766,12123,11201,1,11201,1,-0.00027344,-3.394e-10,0,1.1671e-05,-6.8798e-05,-1.1121e+08,-80.6,0,3.5905e+06,-14.593,11200,11662,1,11662,1,-0.00011876,-2.5649e-10,0,8.3291e-05,-3.9836e-05,-4.8295e+07,-62.863,0,2.5986e+07,-0.75003,11661,12586,1,12586,1,0.0002144,-9.8004e-11,0,0.00024987,2.2392e-05,4.9595e+07,-25.036,0,7.0743e+07,1.9106,12585,534.87,0,534.87,0,0.00019228,9.3127e-11,0,0.00010169,3.5939e-05,5.7323e+07,22.857,0,2.8553e+07,2.5062,534.87,1
1848,1.18,12125,1,12125,1,4.8232e-05,-1.2256e-11,0,0.00017147,-8.785e-06,-5.3085,-3.4451,0,5.0118e+07,-0.1463,12124,13096,1,13096,1,0.00037225,3.2508e-10,0,0.00037225,5.1797e-05,7.8964e+07,79.127,0,1.1217e+08,61.026,13095,12124,1,12124,1,4.8232e-05,-3.8353e-11,0,0.00016801,-8.7722e-06,1.3562e+07,-8.5619,0,5.002e+07,0.2243,12123,11201,1,11201,1,-0.00027579,-4.3755e-10,0,1.1771e-05,-6.9387e-05,-1.1217e+08,-99.451,0,3.6212e+06,-612.62,11200,11662,1,11662,1,-0.00011978,-6.2286e-11,0,8.4004e-05,-4.0178e-05,-4.8708e+07,-19.621,0,2.6208e+07,-3.7558,11661,12586,1,12586,1,0.00021624,7.4342e-11,0,0.00025201,2.2584e-05,5.002e+07,18.693,0,7.1349e+07,5.5039,12585,534.87,0,534.87,0,0.00019393,1.3363e-10,0,0.00010256,3.6247e-05,5.7814e+07,33.249,0,2.8797e+07,22.186,534.87,1
1848,1.19,12125,1,12125,1,4.864e-05,-2.7966e-10,0,0.00017292,-8.8594e-06,9.315,-70.677,0,5.0542e+07,-15.569,12124,13096,1,13096,1,0.0003754,1.5077e-10,0,0.0003754,5.2236e-05,7.9633e+07,39.259,0,1.1312e+08,106.43,13095,12124,1,12124,1,4.864e-05,-2.7831e-10,0,0.00016943,-8.8466e-06,1.3676e+07,-72.51,0,5.0443e+07,-11.982,12123,11201,1,11201,1,-0.00027812,-6.9399e-10,0,1.187e-05,-6.9975e-05,-1.1312e+08,-177.71,0,3.6519e+06,-436.07,11200,11662,1,11662,1,-0.00012079,-4.3872e-10,0,8.4715e-05,-4.0518e-05,-4.912e+07,-113.7,0,2.643e+07,-25.467,11661,12586,1,12586,1,0.00021807,-1.2911e-10,0,0.00025415,2.2775e-05,5.0443e+07,-32.919,0,7.1953e+07,-2.0111,12585,534.87,0,534.87,0,0.00019557,1.9899e-10,0,0.00010342,3.6554e-05,5.8303e+07,49.801,0,2.9041e+07,28.637,534.87,1
1848,1.2,12125,1,12125,1,4.905e-05,3.1998e-10,0,0.00017438,-8.9339e-06,-19.272,80.699,0,5.0968e+07,-1.9114,12124,13096,1,13096,1,0.00037856,8.4745e-10,0,0.00037856,5.2675e-05,8.0303e+07,202.61,0,1.1407e+08,18.442,13095,12124,1,12124,1,4.905e-05,3.1914e-10,0,0.00017086,-8.9209e-06,1.3791e+07,84.18,0,5.0867e+07,-0.39765,12123,11201,1,11201,1,-0.00028046,-1.1234e-10,0,1.197e-05,-7.0563e-05,-1.1407e+08,-27.064,0,3.6826e+06,-29.211,11200,11662,1,11662,1,-0.00012181,9.7558e-11,0,8.5428e-05,-4.0858e-05,-4.9534e+07,23.616,0,2.6652e+07,-4.8278,11661,12586,1,12586,1,0.00021991,5.0452e-10,0,0.00025628,2.2967e-05,5.0867e+07,129.21,0,7.2558e+07,1.9871,12585,534.87,0,534.87,0,0.00019722,2.5459e-10,0,0.00010429,3.6861e-05,5.8794e+07,62.344,0,2.9285e+07,6.5202,534.87,1
1848,1.21,12125,1,12125,1,4.9458e-05,-9.2642e-11,0,0.00017583,-9.0082e-06,12.984,-22.93,0,5.1391e+07,-13.979,12124,13096,1,13096,1,0.00038171,3.412e-10,0,0.00038171,5.3113e-05,8.097e+07,59.996,0,1.1502e+08,212.3,13095,12124,1,12124,1,4.9458e-05,-9.018e-11,0,0.00017228,-8.9951e-06,1.3906e+07,-22.025,0,5.129e+07,1.9873,12123,11201,1,11201,1,-0.00028279,-4.6099e-10,0,1.207e-05,-7.116e-05,-1.1502e+08,-81.5,0,3.7132e+06,-3317,11200,11662,1,11662,1,-0.00012282,-1.4931e-10,0,8.6138e-05,-4.1198e-05,-4.9946e+07,-38.498,0,2.6874e+07,-2.5292,11661,12586,1,12586,1,0.00022173,-2.9926e-11,0,0.00025842,2.3158e-05,5.129e+07,-7.6381,0,7.3161e+07,5.679,12585,534.87,0,534.87,0,0.00019885,7.7596e-11,0,0.00010516,3.7168e-05,5.9283e+07,18.596,0,2.9529e+07,179.74,534.87,1
1848,1.22,12125,1,12125,1,4.9866e-05,-2.4362e-10,0,0.00017728,-9.0826e-06,8.5573,-60.552,0,5.1816e+07,1.3122,12124,13096,1,13096,1,0.00038486,1.2499e-10,0,0.00038486,5.3552e-05,8.164e+07,42.798,0,1.1597e+08,23.77,13095,12124,1,12124,1,4.9866e-05,-2.3916e-10,0,0.0001737,-9.0694e-06,1.4021e+07,-63.268,0,5.1714e+07,0.89767,12123,11201,1,11201,1,-0.00028513,-7.8158e-10,0,1.2169e-05,-7.1738e-05,-1.1597e+08,-189.41,0,3.7439e+06,-27.61,11200,11662,1,11662,1,-0.00012383,-4.0958e-10,0,8.685e-05,-4.1539e-05,-5.0358e+07,-99.922,0,2.7096e+07,-3.6753,11661,12586,1,12586,1,0.00022357,-8.3247e-11,0,0.00026055,2.3349e-05,5.1714e+07,-21.109,0,7.3766e+07,7.6323,12585,534.87,0,534.87,0,0.0002005,2.0358e-10,0,0.00010603,3.7475e-05,5.9773e+07,49.507,0,2.9773e+07,9.1132,534.87,1
1848,1.23,12125,1,12125,1,5.0275e-05,1.0162e-10,0,0.00017873,-9.157e-06,1.0798,24.405,0,5.224e+07,1.9877,12124,13096,1,13096,1,0.00038801,7.0543e-10,0,0.00038801,5.3991e-05,8.2308e+07,152.01,0,1.1692e+08,52.852,13095,12124,1,12124,1,5.0275e-05,5.736e-11,0,0.00017512,-9.1437e-06,1.4136e+07,14.955,0,5.2138e+07,1.8049,12123,11201,1,11201,1,-0.00028746,-1.7458e-10,0,1.2269e-05,-7.2325e-05,-1.1692e+08,-59.774,0,3.7746e+06,-35.202,11200,11662,1,11662,1,-0.00012485,-3.1517e-11,0,8.7561e-05,-4.1879e-05,-5.0771e+07,-7.4434,0,2.7318e+07,-2.0441,11661,12586,1,12586,1,0.0002254,2.0102e-10,0,0.00026268,2.3541e-05,5.2138e+07,51.561,0,7.437e+07,5.6414,12585,534.87,0,534.87,0,0.00020214,1.7247e-10,0,0.0001069,3.7782e-05,6.0262e+07,41.873,0,3.0017e+07,7.9437,534.87,1
1848,1.24,12125,1,12125,1,5.0684e-05,3.7661e-10,0,0.00018019,-9.2316e-06,16.897,95.061,0,5.2666e+07,-0.41525,12124,13096,1,13096,1,0.00039118,1.0202e-09,0,0.00039118,5.4431e-05,8.2979e+07,225.44,0,1.1787e+08,29.406,13095,12124,1,12124,1,5.0684e-05,3.7817e-10,0,0.00017655,-9.2182e-06,1.4251e+07,96.46,0,5.2563e+07,-0.69272,12123,11201,1,11201,1,-0.00028981,-1.2112e-10,0,1.2369e-05,-7.2915e-05,-1.1787e+08,-41.468,0,3.8053e+06,-41.511,11200,11662,1,11662,1,-0.00012587,1.8946e-10,0,8.8275e-05,-4.222e-05,-5.1184e+07,45.033,0,2.7541e+07,-3.7124,11661,12586,1,12586,1,0.00022723,5.5234e-10,0,0.00026482,2.3732e-05,5.2563e+07,144.63,0,7.4976e+07,3.9535,12585,534.87,0,534.87,0,0.00020379,2.5066e-10,0,0.00010777,3.809e-05,6.0753e+07,61.489,0,3.0261e+07,7.6518,534.87,1
1848,1.25,12125,1,12125,1,5.1092e-05,-2.6874e-10,0,0.00018164,-9.306e-06,22.287,-67.919,0,5.309e+07,1.0511,12124,13096,1,13096,1,0.00039433,7.7419e-11,0,0.00039433,5.4869e-05,8.3647e+07,26.511,0,1.1882e+08,10.308,13095,12124,1,12124,1,5.1093e-05,-2.6452e-10,0,0.00017797,-9.2924e-06,1.4366e+07,-68.405,0,5.2986e+07,0.86666,12123,11201,1,11201,1,-0.00029214,-6.6836e-10,0,1.2469e-05,-7.3502e-05,-1.1882e+08,-159.78,0,3.836e+06,-16.296,11200,11662,1,11662,1,-0.00012688,-3.8001e-10,0,8.8986e-05,-4.256e-05,-5.1597e+07,-99.2,0,2.7762e+07,-1.0732,11661,12586,1,12586,1,0.00022906,-1.4309e-10,0,0.00026696,2.3923e-05,5.2986e+07,-36.195,0,7.558e+07,3.5883,12585,534.87,0,534.87,0,0.00020543,1.7387e-10,0,0.00010864,3.8396e-05,6.1243e+07,42.534,0,3.0505e+07,4.4536,534.87,1
1848,1.26,12125,1,12125,1,5.1501e-05,-1.9877e-10,0,0.00018309,-9.3803e-06,44.124,-50.684,0,5.3514e+07,2.009,12124,13096,1,13096,1,0.00039748,3.0943e-10,0,0.00039748,5.5307e-05,8.4315e+07,84.047,0,1.1977e+08,51.709,13095,12124,1,12124,1,5.1501e-05,-1.2299e-10,0,0.00017939,-9.3666e-06,1.4481e+07,-32.149,0,5.3409e+07,0.35166,12123,11201,1,11201,1,-0.00029447,-8.7047e-10,0,1.2568e-05,-7.4089e-05,-1.1977e+08,-208.31,0,3.8666e+06,-25.458,11200,11662,1,11662,1,-0.00012789,-4.1117e-10,0,8.9697e-05,-4.29e-05,-5.2009e+07,-105.1,0,2.7984e+07,-5.2786,11661,12586,1,12586,1,0.00023089,1.2411e-11,0,0.00026909,2.4115e-05,5.3409e+07,3.4734,0,7.6183e+07,8.9932,12585,534.87,0,534.87,0,0.00020707,2.9254e-10,0,0.00010951,3.8703e-05,6.1732e+07,73.315,0,3.0749e+07,10.426,534.87,1
1848,1.27,12125,1,12125,1,5.191e-05,2.1233e-10,0,0.00018454,-9.4549e-06,26.5,52.446,0,5.394e+07,-3.7879,12124,13096,1,13096,1,0.00040064,7.5287e-10,0,0.00040064,5.5747e-05,8.4986e+07,164.68,0,1.2072e+08,23.192,13095,12124,1,12124,1,5.191e-05,2.1394e-10,0,0.00018082,-9.4412e-06,1.4596e+07,56.102,0,5.3834e+07,-1.5919,12123,11201,1,11201,1,-0.00029682,-1.2538e-10,0,1.2668e-05,-7.4678e-05,-1.2072e+08,-42.925,0,3.8974e+06,-40.924,11200,11662,1,11662,1,-0.00012891,7.2095e-11,0,9.041e-05,-4.3241e-05,-5.2422e+07,17.588,0,2.8207e+07,-5.8285,11661,12586,1,12586,1,0.00023273,3.5598e-10,0,0.00027123,2.4306e-05,5.3834e+07,86.42,0,7.6789e+07,0.66003,12585,534.87,0,534.87,0,0.00020872,1.7979e-10,0,0.00011038,3.9011e-05,6.2223e+07,43.19,0,3.0993e+07,7.6584,534.87,1
1848,1.28,12125,1,12125,1,5.2319e-05,-3.0982e-10,0,0.000186,-9.5293e-06,-44.996,-77.659,0,5.4364e+07,0.8521,12124,13096,1,13096,1,0.00040379,1.1253e-10,0,0.00040379,5.6186e-05,8.5655e+07,38.528,0,1.2167e+08,31.231,13095,12124,1,12124,1,5.2318e-05,-2.4067e-10,0,0.00018224,-9.5154e-06,1.471e+07,-63.393,0,5.4257e+07,1.7165,12123,11201,1,11201,1,-0.00029915,-1.1075e-09,0,1.2768e-05,-7.5266e-05,-1.2167e+08,-262.56,0,3.928e+06,-37.265,11200,11662,1,11662,1,-0.00012992,-5.0637e-10,0,9.1121e-05,-4.3581e-05,-5.2835e+07,-129.37,0,2.8429e+07,-2.9517,11661,12586,1,12586,1,0.00023456,-5.3684e-11,0,0.00027336,2.4498e-05,5.4257e+07,-13.889,0,7.7393e+07,5.4874,12585,534.87,0,534.87,0,0.00021036,2.9974e-10,0,0.00011125,3.9318e-05,6.2712e+07,73.403,0,3.1237e+07,7.2267,534.87,1
1848,1.29,12125,1,12125,1,5.2727e-05,-2.0262e-10,0,0.00018745,-9.6036e-06,1.9344,-51.415,0,5.4788e+07,2.4462,12124,13096,1,13096,1,0.00040694,1.2328e-10,0,0.00040694,5.6624e-05,8.6323e+07,38.511,0,1.2262e+08,23.246,13095,12124,1,12124,1,5.2727e-05,-1.2998e-10,0,0.00018366,-9.5896e-06,1.4825e+07,-32.475,0,5.4681e+07,1.1924,12123,11201,1,11201,1,-0.00030148,-7.6613e-10,0,1.2868e-05,-7.5853e-05,-1.2262e+08,-184.7,0,3.9586e+06,-16.811,11200,11662,1,11662,1,-0.00013094,-3.7776e-10,0,9.1832e-05,-4.3921e-05,-5.3247e+07,-98.498,0,2.865e+07,-2.4448,11661,12586,1,12586,1,0.00023639,-1.2261e-11,0,0.0002755,2.4689e-05,5.4681e+07,-2.9918,0,7.7997e+07,7.5053,12585,534.87,0,534.87,0,0.000212,2.3991e-10,0,0.00011211,3.9624e-05,6.3201e+07,60.068,0,3.1481e+07,6.9991,534.87,1
1848,1.3,12125,1,12125,1,5.3136e-05,-3.1351e-10,0,0.0001889,-9.6782e-06,-17.171,-78.989,0,5.5214e+07,2.8629,12124,13096,1,13096,1,0.0004101,7.6868e-11,0,0.0004101,5.7064e-05,8.6993e+07,26.322,0,1.2357e+08,21.568,13095,12124,1,12124,1,5.3136e-05,-3.2175e-10,0,0.00018509,-9.6641e-06,1.494e+07,-84.212,0,5.5105e+07,3.3531,12123,11201,1,11201,1,-0.00030383,-7.2002e-10,0,1.2968e-05,-7.6442e-05,-1.2357e+08,-164.86,0,3.9894e+06,-26.392,11200,11662,1,11662,1,-0.00013195,-4.677e-10,0,9.2545e-05,-4.4263e-05,-5.3661e+07,-121.08,0,2.8873e+07,-0.59051,11661,12586,1,12586,1,0.00023823,-1.5754e-10,0,0.00027764,2.488e-05,5.5105e+07,-41.821,0,7.8603e+07,8.4032,12585,534.87,0,534.87,0,0.00021365,2.0278e-10,0,0.00011298,3.9932e-05,6.3692e+07,49.269,0,3.1725e+07,7.4919,534.87,1
1848,1.31,12125,1,12125,1,5.3545e-05,2.3091e-10,0,0.00019036,-9.7527e-06,16.196,57.505,0,5.5639e+07,-3.9936,12124,13096,1,13096,1,0.00041325,5.8433e-10,0,0.00041325,5.7503e-05,8.7662e+07,136.09,0,1.2452e+08,15.486,13095,12124,1,12124,1,5.3545e-05,2.3445e-10,0,0.00018651,-9.7385e-06,1.5055e+07,63.3,0,5.5529e+07,-1.5011,12123,11201,1,11201,1,-0.00030616,-9.0282e-11,0,1.3067e-05,-7.703e-05,-1.2452e+08,-30.914,0,4.0201e+06,-33.201,11200,11662,1,11662,1,-0.00013297,7.1891e-11,0,9.3257e-05,-4.4603e-05,-5.4073e+07,18.114,0,2.9095e+07,-6.0176,11661,12586,1,12586,1,0.00024006,3.9255e-10,0,0.00027977,2.5072e-05,5.5529e+07,97.357,0,7.9208e+07,0.47451,12585,534.87,0,534.87,0,0.00021529,1.8422e-10,0,0.00011385,4.0239e-05,6.4182e+07,44.654,0,3.1969e+07,7.0862,534.87,1
1848,1.32,12125,1,12125,1,5.3954e-05,6.4032e-11,0,0.00019181,-9.8272e-06,34.53,16.058,0,5.6064e+07,-0.14617,12124,13096,1,13096,1,0.00041641,5.0963e-10,0,0.00041641,5.7942e-05,8.8332e+07,113.04,0,1.2547e+08,40.149,13095,12124,1,12124,1,5.3954e-05,2.9105e-11,0,0.00018794,-9.8129e-06,1.517e+07,7.0603,0,5.5953e+07,1.9752,12123,11201,1,11201,1,-0.0003085,-2.8638e-10,0,1.3167e-05,-7.7618e-05,-1.2547e+08,-51.224,0,4.0508e+06,-384.37,11200,11662,1,11662,1,-0.00013398,-2.1787e-11,0,9.3969e-05,-4.4944e-05,-5.4486e+07,-5.5225,0,2.9317e+07,-3.2759,11661,12586,1,12586,1,0.00024189,1.2629e-10,0,0.00028191,2.5263e-05,5.5953e+07,32.304,0,7.9813e+07,5.9159,12585,534.87,0,534.87,0,0.00021693,1.2257e-10,0,0.00011472,4.0547e-05,6.4672e+07,30.308,0,3.2213e+07,15.424,534.87,1
1848,1.33,12125,1,12125,1,5.4362e-05,4.1114e-11,0,0.00019326,-9.9014e-06,15.816,10.606,0,5.6487e+07,3.6048,12124,13096,1,13096,1,0.00041956,6.8056e-10,0,0.00041956,5.838e-05,8.8999e+07,174.03,0,1.2642e+08,46.921,13095,12124,1,12124,1,5.4362e-05,1.4084e-11,0,0.00018936,-9.887e-06,1.5285e+07,3.931,0,5.6376e+07,2.0919,12123,11201,1,11201,1,-0.00031083,-5.0483e-10,0,1.3267e-05,-7.8204e-05,-1.2642e+08,-119.03,0,4.0814e+06,-19.975,11200,11662,1,11662,1,-0.000135,-1.5637e-10,0,9.4679e-05,-4.5283e-05,-5.4898e+07,-39.485,0,2.9539e+07,-2.7853,11661,12586,1,12586,1,0.00024372,2.2428e-10,0,0.00028404,2.5454e-05,5.6376e+07,57.493,0,8.0416e+07,9.4239,12585,534.87,0,534.87,0,0.00021857,2.8919e-10,0,0.00011559,4.0853e-05,6.5161e+07,72.193,0,3.2457e+07,9.1406,534.87,1
1848,1.34,12125,1,12125,1,5.477e-05,-5.4862e-11,0,0.00019471,-9.9759e-06,20.26,-13.755,0,5.6912e+07,2.8949,12124,13096,1,13096,1,0.00042271,5.9848e-10,0,0.00042271,5.8819e-05,8.9669e+07,148.98,0,1.2737e+08,36.448,13095,12124,1,12124,1,5.4771e-05,-3.0693e-11,0,0.00019078,-9.9614e-06,1.54e+07,-6.9569,0,5.68e+07,1.3614,12123,11201,1,11201,1,-0.00031317,-7.216e-10,0,1.3366e-05,-7.8793e-05,-1.2737e+08,-173.21,0,4.1121e+06,-22.158,11200,11662,1,11662,1,-0.00013601,-2.7733e-10,0,9.5392e-05,-4.5624e-05,-5.5311e+07,-73.103,0,2.9761e+07,-3.7533,11661,12586,1,12586,1,0.00024555,1.4998e-10,0,0.00028618,2.5646e-05,5.68e+07,40.149,0,8.1021e+07,8.6364,12585,534.87,0,534.87,0,0.00022022,3.1317e-10,0,0.00011646,4.116e-05,6.5651e+07,77.741,0,3.2701e+07,9.2481,534.87,1
1848,1.35,12125,1,12125,1,5.5179e-05,1.3097e-10,0,0.00019617,-1.005e-05,18.161,32.731,0,5.7336e+07,4.0225,12124,13096,1,13096,1,0.00042586,1.1288e-09,0,0.00042586,5.9257e-05,9.0337e+07,273.32,0,1.2832e+08,73.455,13095,12124,1,12124,1,5.5179e-05,2.9447e-11,0,0.00019221,-1.0036e-05,1.5515e+07,8.2712,0,5.7224e+07,2.3647,12123,11201,1,11201,1,-0.00031551,-4.7042e-10,0,1.3466e-05,-7.938e-05,-1.2832e+08,-112.08,0,4.1428e+06,-40.495,11200,11662,1,11662,1,-0.00013703,-1.2004e-10,0,9.6103e-05,-4.5964e-05,-5.5723e+07,-30.393,0,2.9983e+07,-3.4911,11661,12586,1,12586,1,0.00024738,3.5738e-10,0,0.00028831,2.5837e-05,5.7224e+07,91.597,0,8.1625e+07,11.817,12585,534.87,0,534.87,0,0.00022186,3.6602e-10,0,0.00011733,4.1467e-05,6.6141e+07,91.036,0,3.2945e+07,13.294,534.87,1
1848,1.36,12125,1,12125,1,5.5588e-05,-8.3736e-11,0,0.00019762,-1.0125e-05,-9.9551,-21.285,0,5.7761e+07,3.634,12124,13096,1,13096,1,0.00042902,3.0207e-10,0,0.00042902,5.9697e-05,9.1007e+07,66.914,0,1.2927e+08,55.413,13095,12124,1,12124,1,5.5588e-05,-5.3221e-11,0,0.00019363,-1.011e-05,1.563e+07,-13.607,0,5.7648e+07,2.9853,12123,11201,1,11201,1,-0.00031784,-5.0208e-10,0,1.3566e-05,-7.9969e-05,-1.2927e+08,-120.78,0,4.1735e+06,-9.2893,11200,11662,1,11662,1,-0.00013804,-2.2369e-10,0,9.6815e-05,-4.6305e-05,-5.6137e+07,-58.155,0,3.0205e+07,-0.53145,11661,12586,1,12586,1,0.00024922,4.5418e-11,0,0.00029045,2.6029e-05,5.7648e+07,11.772,0,8.223e+07,7.228,12585,534.87,0,534.87,0,0.0002235,1.9543e-10,0,0.0001182,4.1775e-05,6.6631e+07,49.056,0,3.3189e+07,5.5954,534.87,1
1848,1.37,12125,1,12125,1,5.5996e-05,-7.4585e-11,0,0.00019907,-1.0199e-05,10.222,-19.505,0,5.8186e+07,3.2741,12124,13096,1,13096,1,0.00043217,4.793e-10,0,0.00043217,6.0135e-05,9.1675e+07,114.37,0,1.3022e+08,49.648,13095,12124,1,12124,1,5.5996e-05,-4.1351e-11,0,0.00019505,-1.0184e-05,1.5744e+07,-9.9078,0,5.8071e+07,1.2415,12123,11201,1,11201,1,-0.00032018,-6.6867e-10,0,1.3665e-05,-8.0556e-05,-1.3022e+08,-159.2,0,4.2041e+06,-19.062,11200,11662,1,11662,1,-0.00013906,-2.6969e-10,0,9.7526e-05,-4.6645e-05,-5.6549e+07,-69.917,0,3.0427e+07,-3.9158,11661,12586,1,12586,1,0.00025105,9.9391e-11,0,0.00029258,2.622e-05,5.8071e+07,27.161,0,8.2834e+07,9.1637,12585,534.87,0,534.87,0,0.00022514,2.8245e-10,0,0.00011906,4.2081e-05,6.712e+07,70.265,0,3.3433e+07,9.6396,534.87,1
1848,1.38,12125,1,12125,1,5.6406e-05,2.2167e-10,0,0.00020053,-1.0274e-05,13.656,55.195,0,5.8611e+07,1.1996,12124,13096,1,13096,1,0.00043533,1.0608e-09,0,0.00043533,6.0575e-05,9.2346e+07,233.77,0,1.3118e+08,56.459,13095,12124,1,12124,1,5.6406e-05,1.2774e-10,0,0.00019648,-1.0259e-05,1.586e+07,32.671,0,5.8496e+07,0.68299,12123,11201,1,11201,1,-0.00032252,-1.7611e-10,0,1.3765e-05,-8.1146e-05,-1.3118e+08,-60.3,0,4.2349e+06,-40.373,11200,11662,1,11662,1,-0.00014007,2.4899e-11,0,9.824e-05,-4.6986e-05,-5.6962e+07,5.8946,0,3.065e+07,-4.1022,11661,12586,1,12586,1,0.00025289,3.6978e-10,0,0.00029472,2.6411e-05,5.8496e+07,97.938,0,8.344e+07,7.0821,12585,534.87,0,534.87,0,0.00022679,2.5689e-10,0,0.00011994,4.2389e-05,6.7611e+07,62.197,0,3.3677e+07,9.5569,534.87,1
1848,1.39,12125,1,12125,1,5.6814e-05,-1.4213e-10,0,0.00020198,-1.0348e-05,20.285,-35.805,0,5.9036e+07,0.99164,12124,13096,1,13096,1,0.00043849,5.7356e-11,0,0.00043849,6.1014e-05,9.3015e+07,19.64,0,1.3212e+08,10.169,13095,12124,1,12124,1,5.6814e-05,-1.3641e-10,0,0.0001979,-1.0333e-05,1.5975e+07,-35.151,0,5.892e+07,1.0527,12123,11201,1,11201,1,-0.00032486,-3.7129e-10,0,1.3865e-05,-8.1733e-05,-1.3212e+08,-88.275,0,4.2656e+06,-14.027,11200,11662,1,11662,1,-0.00014109,-2.2575e-10,0,9.8951e-05,-4.7326e-05,-5.7375e+07,-58.282,0,3.0872e+07,-1.0149,11661,12586,1,12586,1,0.00025472,-4.7334e-11,0,0.00029685,2.6603e-05,5.892e+07,-12.603,0,8.4044e+07,3.655,12585,534.87,0,534.87,0,0.00022843,1.1197e-10,0,0.0001208,4.2696e-05,6.8101e+07,27.529,0,3.3921e+07,3.7947,534.87,1
1848,1.4,12125,1,12125,1,5.7222e-05,2.9418e-10,0,0.00020343,-1.0422e-05,21.115,73.081,0,5.946e+07,3.503,12124,13096,1,13096,1,0.00044164,1.673e-09,0,0.00044164,6.1452e-05,9.3683e+07,385.9,0,1.3307e+08,63.663,13095,12124,1,12124,1,5.7222e-05,1.5466e-10,0,0.00019932,-1.0407e-05,1.6089e+07,38.657,0,5.9343e+07,1.9744,12123,11201,1,11201,1,-0.00032719,-5.0455e-10,0,1.3965e-05,-8.232e-05,-1.3307e+08,-120.45,0,4.2962e+06,-59.792,11200,11662,1,11662,1,-0.0001421,-6.0468e-11,0,9.9662e-05,-4.7666e-05,-5.7787e+07,-15.278,0,3.1093e+07,-5.0828,11661,12586,1,12586,1,0.00025655,6.1284e-10,0,0.00029899,2.6794e-05,5.9343e+07,158.82,0,8.4647e+07,14.407,12585,534.87,0,534.87,0,0.00023007,4.8639e-10,0,0.00012167,4.3003e-05,6.859e+07,119.3,0,3.4165e+07,15.502,534.87,1
1848,1.41,12125,1,12125,1,5.7632e-05,-6.2361e-11,0,0.00020489,-1.0497e-05,18.311,-15.728,0,5.9886e+07,0.056725,12124,13096,1,13096,1,0.0004448,4.0705e-11,0,0.0004448,6.1892e-05,9.4353e+07,13.939,0,1.3403e+08,11.99,13095,12124,1,12124,1,5.7632e-05,-3.913e-11,0,0.00020075,-1.0482e-05,1.6205e+07,-10.511,0,5.9768e+07,0.0055214,12123,11201,1,11201,1,-0.00032953,-2.4315e-10,0,1.4065e-05,-8.2909e-05,-1.3403e+08,-58.809,0,4.327e+06,-18.413,11200,11662,1,11662,1,-0.00014312,-1.0596e-10,0,0.00010038,-4.8008e-05,-5.8201e+07,-27.587,0,3.1316e+07,-1.332,11661,12586,1,12586,1,0.00025838,-1.1644e-11,0,0.00030113,2.6986e-05,5.9768e+07,-2.7174,0,8.5254e+07,2.5164,12585,534.87,0,534.87,0,0.00023172,6.7659e-11,0,0.00012254,4.3311e-05,6.9081e+07,16.683,0,3.441e+07,4.1669,534.87,1
1848,1.42,12125,1,12125,1,5.8041e-05,-2.1069e-11,0,0.00020634,-1.0572e-05,31.621,-5.2302,0,6.0311e+07,-0.12854,12124,13096,1,13096,1,0.00044795,2.3328e-10,0,0.00044795,6.2331e-05,9.5023e+07,55.521,0,1.3498e+08,20.721,13095,12124,1,12124,1,5.8041e-05,-9.9077e-12,0,0.00020218,-1.0556e-05,1.632e+07,-2.5689,0,6.0192e+07,0.041996,12123,11201,1,11201,1,-0.00033187,-2.9665e-10,0,1.4164e-05,-8.3498e-05,-1.3498e+08,-71.728,0,4.3577e+06,-32.337,11200,11662,1,11662,1,-0.00014414,-7.2982e-11,0,0.00010109,-4.8349e-05,-5.8614e+07,-19.586,0,3.1538e+07,-4.1492,11661,12586,1,12586,1,0.00026022,3.8699e-11,0,0.00030327,2.7177e-05,6.0192e+07,10.396,0,8.5859e+07,5.7735,12585,534.87,0,534.87,0,0.00023337,1.0242e-10,0,0.00012341,4.3618e-05,6.9572e+07,25.511,0,3.4654e+07,9.2548,534.87,1
1848,1.43,12125,1,12125,1,5.845e-05,5.0933e-10,0,0.00020779,-1.0646e-05,-0.62791,128.59,0,6.0735e+07,-3.4411,12124,13096,1,13096,1,0.00045111,1.217e-09,0,0.00045111,6.277e-05,9.5693e+07,273.12,0,1.3593e+08,30.393,13095,12124,1,12124,1,5.845e-05,5.2158e-10,0,0.0002036,-1.0631e-05,1.6434e+07,137.91,0,6.0616e+07,-3.309,12123,11201,1,11201,1,-0.00033421,-1.0486e-10,0,1.4264e-05,-8.4086e-05,-1.3593e+08,-35.908,0,4.3883e+06,-36.032,11200,11662,1,11662,1,-0.00014515,2.5554e-10,0,0.0001018,-4.8689e-05,-5.9026e+07,63.801,0,3.176e+07,-6.898,11661,12586,1,12586,1,0.00026205,7.5718e-10,0,0.0003054,2.7368e-05,6.0616e+07,198.58,0,8.6463e+07,1.4083,12585,534.87,0,534.87,0,0.00023501,3.3066e-10,0,0.00012428,4.3925e-05,7.0061e+07,81.164,0,3.4898e+07,8.2862,534.87,1
1848,1.44,12125,1,12125,1,5.8858e-05,1.8055e-10,0,0.00020924,-1.072e-05,7.6814,45.504,0,6.1159e+07,1.3227,12124,13096,1,13096,1,0.00045426,1.1954e-09,0,0.00045426,6.3208e-05,9.6361e+07,295.69,0,1.3688e+08,72.097,13095,12124,1,12124,1,5.8858e-05,3.677e-11,0,0.00020502,-1.0705e-05,1.6549e+07,8.8247,0,6.1039e+07,0.31281,12123,11201,1,11201,1,-0.00033654,-2.5622e-10,0,1.4364e-05,-8.4673e-05,-1.3688e+08,-63.465,0,4.419e+06,-40.176,11200,11662,1,11662,1,-0.00014616,-8.4629e-11,0,0.00010251,-4.9029e-05,-5.9439e+07,-21.547,0,3.1982e+07,-5.6627,11661,12586,1,12586,1,0.00026388,4.0698e-10,0,0.00030753,2.756e-05,6.1039e+07,104.32,0,8.7067e+07,7.8267,12585,534.87,0,534.87,0,0.00023665,3.5297e-10,0,0.00012515,4.4232e-05,7.0551e+07,88.78,0,3.5141e+07,11.741,534.87,1
1848,1.45,12125,1,12125,1,5.9266e-05,-1.6823e-10,0,0.0002107,-1.0795e-05,4.9918,-42.008,0,6.1584e+07,2.9426,12124,13096,1,13096,1,0.00045741,1.3612e-10,0,0.00045741,6.3647e-05,9.7029e+07,36.367,0,1.3783e+08,17.007,13095,12124,1,12124,1,5.9266e-05,-1.5627e-10,0,0.00020644,-1.0779e-05,1.6664e+07,-40.364,0,6.1463e+07,2.6718,12123,11201,1,11201,1,-0.00033888,-5.4141e-10,0,1.4464e-05,-8.5261e-05,-1.3783e+08,-128.84,0,4.4497e+06,-14.326,11200,11662,1,11662,1,-0.00014718,-2.9259e-10,0,0.00010322,-4.9369e-05,-5.9851e+07,-75.66,0,3.2204e+07,-0.0079176,11661,12586,1,12586,1,0.00026571,-1.9789e-11,0,0.00030967,2.7751e-05,6.1463e+07,-4.5348,0,8.7671e+07,6.4105,12585,534.87,0,534.87,0,0.00023829,1.6907e-10,0,0.00012602,4.4539e-05,7.104e+07,41.644,0,3.5385e+07,4.8115,534.87,1
1848,1.46,12125,1,12125,1,5.9676e-05,4.175e-12,0,0.00021215,-1.0869e-05,36.089,1.0914,0,6.2009e+07,2.6864,12124,13096,1,13096,1,0.00046057,2.062e-10,0,0.00046057,6.4087e-05,9.7699e+07,53.81,0,1.3878e+08,35.035,13095,12124,1,12124,1,5.9676e-05,6.3577e-12,0,0.00020787,-1.0854e-05,1.6779e+07,1.7021,0,6.1887e+07,0.7727,12123,11201,1,11201,1,-0.00034122,-1.8932e-10,0,1.4563e-05,-8.5849e-05,-1.3878e+08,-51.997,0,4.4804e+06,-137.85,11200,11662,1,11662,1,-0.00014819,-4.8626e-11,0,0.00010394,-4.971e-05,-6.0265e+07,-12.138,0,3.2427e+07,-2.1857,11661,12586,1,12586,1,0.00026755,5.7962e-11,0,0.00031181,2.7943e-05,6.1887e+07,15.021,0,8.8277e+07,7.2928,12585,534.87,0,534.87,0,0.00023994,8.1973e-11,0,0.00012689,4.4847e-05,7.1531e+07,20.952,0,3.563e+07,9.207,534.87,1
1848,1.47,12125,1,12125,1,6.0084e-05,8.848e-11,0,0.0002136,-1.0944e-05,-37.649,22.081,0,6.2433e+07,0.19033,12124,13096,1,13096,1,0.00046372,3.2889e-10,0,0.00046372,6.4525e-05,9.8367e+07,79.285,0,1.3973e+08,15.66,13095,12124,1,12124,1,6.0084e-05,6.665e-11,0,0.00020929,-1.0928e-05,1.6894e+07,17.218,0,6.231e+07,0.27835,12123,11201,1,11201,1,-0.00034355,-8.1441e-11,0,1.4663e-05,-8.6436e-05,-1.3973e+08,-27.887,0,4.511e+06,-10.257,11200,11662,1,11662,1,-0.00014921,2.2164e-12,0,0.00010465,-5.005e-05,-6.0677e+07,0.57863,0,3.2648e+07,-2.938,11661,12586,1,12586,1,0.00026938,1.589e-10,0,0.00031394,2.8134e-05,6.231e+07,41.7,0,8.888e+07,3.0146,12585,534.87,0,534.87,0,0.00024158,1.0252e-10,0,0.00012776,4.5153e-05,7.202e+07,25.425,0,3.5873e+07,4.7908,534.87,1
1848,1.48,12125,1,12125,1,6.0493e-05,3.5139e-10,0,0.00021506,-1.1018e-05,25.728,87.249,0,6.2859e+07,-1.9568,12124,13096,1,13096,1,0.00046688,1.4068e-09,0,0.00046688,6.4965e-05,9.9039e+07,311.89,0,1.4068e+08,44.311,13095,12124,1,12124,1,6.0494e-05,2.577e-10,0,0.00021072,-1.1002e-05,1.7009e+07,67.065,0,6.2735e+07,-0.89655,12123,11201,1,11201,1,-0.0003459,-1.9919e-10,0,1.4763e-05,-8.7026e-05,-1.4068e+08,-68.199,0,4.5418e+06,-51.794,11200,11662,1,11662,1,-0.00015022,1.2396e-10,0,0.00010536,-5.0391e-05,-6.109e+07,33.205,0,3.2871e+07,-7.815,11661,12586,1,12586,1,0.00027121,5.3325e-10,0,0.00031608,2.8325e-05,6.2735e+07,134.15,0,8.9486e+07,5.7615,12585,534.87,0,534.87,0,0.00024323,3.1698e-10,0,0.00012863,4.5461e-05,7.2511e+07,76.179,0,3.6118e+07,11.652,534.87,1
1848,1.49,12125,1,12125,1,6.0902e-05,-5.1062e-11,0,0.00021651,-1.1093e-05,11.683,-13.231,0,6.3283e+07,2.2978,12124,13096,1,13096,1,0.00047003,5.1778e-10,0,0.00047003,6.5403e-05,9.9706e+07,121.45,0,1.4163e+08,36.113,13095,12124,1,12124,1,6.0902e-05,-4.7641e-11,0,0.00021214,-1.1076e-05,1.7124e+07,-10.487,0,6.3159e+07,1.8571,12123,11201,1,11201,1,-0.00034823,-5.4097e-10,0,1.4863e-05,-8.7613e-05,-1.4163e+08,-128.28,0,4.5724e+06,-119.87,11200,11662,1,11662,1,-0.00015124,-1.9351e-10,0,0.00010607,-5.0731e-05,-6.1503e+07,-49.459,0,3.3093e+07,-2.7334,11661,12586,1,12586,1,0.00027304,8.6262e-11,0,0.00031821,2.8517e-05,6.3159e+07,23.799,0,9.009e+07,7.5889,12585,534.87,0,534.87,0,0.00024487,2.2627e-10,0,0.0001295,4.5768e-05,7.3e+07,56.738,0,3.6362e+07,9.9983,534.87,1
1848,1.5,12125,1,12125,1,6.1311e-05,2.9526e-10,0,0.00021797,-1.1167e-05,9.2493,72.254,0,6.3708e+07,0.12776,12124,13096,1,13096,1,0.00047319,9.8637e-10,0,0.00047319,6.5843e-05,1.0038e+08,215.37,0,1.4258e+08,47.693,13095,12124,1,12124,1,6.1311e-05,2.9172e-10,0,0.00021356,-1.1151e-05,1.7239e+07,76.619,0,6.3583e+07,1.67,12123,11201,1,11201,1,-0.00035057,-1.7296e-10,0,1.4962e-05,-8.8202e-05,-1.4258e+08,-59.216,0,4.6031e+06,-42.857,11200,11662,1,11662,1,-0.00015225,1.1091e-10,0,0.00010678,-5.1072e-05,-6.1916e+07,26.167,0,3.3315e+07,-3.6719,11661,12586,1,12586,1,0.00027488,4.8803e-10,0,0.00032035,2.8708e-05,6.3583e+07,119.07,0,9.0695e+07,5.2771,12585,534.87,0,534.87,0,0.00024651,2.4797e-10,0,0.00013037,4.6075e-05,7.3491e+07,58.599,0,3.6606e+07,9.1006,534.87,1
1848,1.51,12125,1,12125,1,6.1719e-05,4.7955e-11,0,0.00021942,-1.1241e-05,2.45,11.626,0,6.4132e+07,1.3662,12124,13096,1,13096,1,0.00047634,7.2934e-10,0,0.00047634,6.6281e-05,1.0104e+08,170.18,0,1.4353e+08,34.029,13095,12124,1,12124,1,6.1719e-05,-2.6174e-12,0,0.00021499,-1.1225e-05,1.7354e+07,-0.58215,0,6.4006e+07,0.55276,12123,11201,1,11201,1,-0.0003529,-3.7832e-10,0,1.5062e-05,-8.8789e-05,-1.4353e+08,-89.837,0,4.6338e+06,-31.273,11200,11662,1,11662,1,-0.00015327,-1.2431e-10,0,0.00010749,-5.1412e-05,-6.2328e+07,-33.165,0,3.3537e+07,-3.8834,11661,12586,1,12586,1,0.00027671,2.1195e-10,0,0.00032248,2.8899e-05,6.4006e+07,54.834,0,9.1299e+07,7.9868,12585,534.87,0,534.87,0,0.00024816,2.5059e-10,0,0.00013123,4.6382e-05,7.398e+07,62.317,0,3.685e+07,9.1851,534.87,1
1848,1.52,12125,1,12125,1,6.2128e-05,1.767e-10,0,0.00022087,-1.1316e-05,28.145,44.552,0,6.4557e+07,1.5678,12124,13096,1,13096,1,0.00047949,1.2879e-09,0,0.00047949,6.672e-05,1.0171e+08,300.55,0,1.4448e+08,53.751,13095,12124,1,12124,1,6.2128e-05,6.6991e-11,0,0.00021641,-1.1299e-05,1.7469e+07,16.389,0,6.443e+07,-0.28119,12123,11201,1,11201,1,-0.00035524,-4.8897e-10,0,1.5162e-05,-8.9377e-05,-1.4448e+08,-113.46,0,4.6645e+06,-45.657,11200,11662,1,11662,1,-0.00015428,-1.2199e-10,0,0.00010821,-5.1753e-05,-6.2741e+07,-29.847,0,3.3759e+07,-7.7242,11661,12586,1,12586,1,0.00027854,4.5816e-10,0,0.00032462,2.9091e-05,6.443e+07,116.64,0,9.1904e+07,12.009,12585,534.87,0,534.87,0,0.0002498,4.1947e-10,0,0.0001321,4.6689e-05,7.447e+07,103.74,0,3.7094e+07,14.603,534.87,1
1848,1.53,12125,1,12125,1,6.2537e-05,5.1845e-11,0,0.00022233,-1.1391e-05,-9.432,13.627,0,6.4983e+07,-4.8878,12124,13096,1,13096,1,0.00048265,6.2355e-10,0,0.00048265,6.716e-05,1.0238e+08,153.05,0,1.4543e+08,23.092,13095,12124,1,12124,1,6.2537e-05,4.3619e-11,0,0.00021784,-1.1374e-05,1.7584e+07,11.245,0,6.4855e+07,-3.273,12123,11201,1,11201,1,-0.00035758,-5.6625e-10,0,1.5262e-05,-8.9966e-05,-1.4543e+08,-139.41,0,4.6952e+06,-56.052,11200,11662,1,11662,1,-0.0001553,-1.3692e-10,0,0.00010892,-5.2094e-05,-6.3154e+07,-34.067,0,3.3981e+07,-10.544,11661,12586,1,12586,1,0.00028037,2.6103e-10,0,0.00032676,2.9282e-05,6.4855e+07,69.069,0,9.251e+07,0.92855,12585,534.87,0,534.87,0,0.00025144,2.9587e-10,0,0.00013297,4.6997e-05,7.4961e+07,73.851,0,3.7338e+07,8.8458,534.87,1
1848,1.54,12125,1,12125,1,6.2945e-05,2.2585e-10,0,0.00022378,-1.1465e-05,-7.9125,56.219,0,6.5406e+07,0.82683,12124,13096,1,13096,1,0.0004858,7.5647e-10,0,0.0004858,6.7597e-05,1.0305e+08,185.24,0,1.4638e+08,24.867,13095,12124,1,12124,1,6.2945e-05,1.8603e-10,0,0.00021926,-1.1448e-05,1.7698e+07,48.925,0,6.5278e+07,2.4887,12123,11201,1,11201,1,-0.00035991,-1.0841e-10,0,1.5361e-05,-9.0554e-05,-1.4638e+08,-23.899,0,4.7258e+06,-444.53,11200,11662,1,11662,1,-0.00015631,1.0251e-10,0,0.00010963,-5.2433e-05,-6.3566e+07,25.524,0,3.4203e+07,-0.68358,11661,12586,1,12586,1,0.0002822,3.0801e-10,0,0.00032889,2.9473e-05,6.5278e+07,81.552,0,9.3113e+07,4.6774,12585,534.87,0,534.87,0,0.00025308,1.8507e-10,0,0.00013384,4.7304e-05,7.545e+07,43.376,0,3.7582e+07,16.832,534.87,1
1848,1.55,12125,1,12125,1,6.3354e-05,5.695e-11,0,0.00022523,-1.1539e-05,39.161,14.303,0,6.5831e+07,4.4051,12124,13096,1,13096,1,0.00048896,9.5898e-10,0,0.00048896,6.8037e-05,1.0372e+08,265.73,0,1.4733e+08,179.63,13095,12124,1,12124,1,6.3354e-05,1.3966e-12,0,0.00022068,-1.1522e-05,1.7813e+07,0.31337,0,6.5702e+07,7.2982,12123,11201,1,11201,1,-0.00036225,-6.301e-10,0,1.5461e-05,-9.1145e-05,-1.4733e+08,-177.68,0,4.7566e+06,-1419.7,11200,11662,1,11662,1,-0.00015733,-2.156e-10,0,0.00011034,-5.2774e-05,-6.3979e+07,-55.816,0,3.4425e+07,-1.7639,11661,12586,1,12586,1,0.00028404,2.9466e-10,0,0.00033102,2.9665e-05,6.5702e+07,75.417,0,9.3718e+07,18.195,12585,534.87,0,534.87,0,0.00025473,3.8213e-10,0,0.00013471,4.7611e-05,7.594e+07,96.13,0,3.7826e+07,71.215,534.87,1
1848,1.56,12125,1,12125,1,6.3762e-05,-1.9319e-10,0,0.00022668,-1.1614e-05,21.861,-47.889,0,6.6255e+07,3.6719,12124,13096,1,13096,1,0.00049211,3.5325e-10,0,0.00049211,6.8475e-05,1.0439e+08,115.06,0,1.4828e+08,45.114,13095,12124,1,12124,1,6.3762e-05,-9.2473e-11,0,0.00022211,-1.1597e-05,1.7928e+07,-24.595,0,6.6125e+07,1.6363,12123,11201,1,11201,1,-0.00036459,-9.3063e-10,0,1.5561e-05,-9.1729e-05,-1.4828e+08,-227.88,0,4.7872e+06,-32.281,11200,11662,1,11662,1,-0.00015834,-4.2381e-10,0,0.00011105,-5.3114e-05,-6.4392e+07,-108.34,0,3.4647e+07,-4.3993,11661,12586,1,12586,1,0.00028587,4.9102e-11,0,0.00033316,2.9856e-05,6.6125e+07,12.375,0,9.4322e+07,11.295,12585,534.87,0,534.87,0,0.00025637,3.1638e-10,0,0.00013558,4.7918e-05,7.6429e+07,79.068,0,3.807e+07,12.094,534.87,1
1848,1.57,12125,1,12125,1,6.4171e-05,-1.0902e-10,0,0.00022813,-1.1688e-05,20.273,-26.672,0,6.668e+07,5.6185,12124,13096,1,13096,1,0.00049526,5.4417e-10,0,0.00049526,6.8914e-05,1.0506e+08,144.7,0,1.4923e+08,52.68,13095,12124,1,12124,1,6.4171e-05,-4.2987e-11,0,0.00022353,-1.1671e-05,1.8043e+07,-11.024,0,6.6549e+07,4.3908,12123,11201,1,11201,1,-0.00036692,-9.5041e-10,0,1.566e-05,-9.2316e-05,-1.4923e+08,-221.54,0,4.8179e+06,-15.456,11200,11662,1,11662,1,-0.00015936,-3.4806e-10,0,0.00011176,-5.3455e-05,-6.4804e+07,-88.006,0,3.4869e+07,-0.38478,11661,12586,1,12586,1,0.0002877,1.3654e-10,0,0.00033529,3.0047e-05,6.6549e+07,35.499,0,9.4926e+07,11.206,12585,534.87,0,534.87,0,0.00025801,3.5698e-10,0,0.00013645,4.8225e-05,7.6919e+07,89.149,0,3.8313e+07,8.6588,534.87,1
1848,1.58,12125,1,12125,1,6.4579e-05,3.4186e-10,0,0.00022959,-1.1762e-05,-9.9602,85.211,0,6.7104e+07,3.9367,12124,13096,1,13096,1,0.00049842,1.8566e-09,0,0.00049842,6.9353e-05,1.0573e+08,438.07,0,1.5018e+08,110.36,13095,12124,1,12124,1,6.4579e-05,1.6201e-10,0,0.00022495,-1.1745e-05,1.8158e+07,41.138,0,6.6973e+07,1.3283,12123,11201,1,11201,1,-0.00036926,-4.0367e-10,0,1.576e-05,-9.2904e-05,-1.5018e+08,-123.81,0,4.8485e+06,-63.293,11200,11662,1,11662,1,-0.00016037,-3.227e-11,0,0.00011248,-5.3795e-05,-6.5217e+07,-8.4827,0,3.5091e+07,-7.6125,11661,12586,1,12586,1,0.00028953,6.567e-10,0,0.00033743,3.0239e-05,6.6973e+07,166.11,0,9.5531e+07,15.607,12585,534.87,0,534.87,0,0.00025965,5.1488e-10,0,0.00013732,4.8532e-05,7.7409e+07,127.85,0,3.8557e+07,19.662,534.87,1
1848,1.59,12125,1,12125,1,6.4988e-05,4.8649e-11,0,0.00023104,-1.1837e-05,13.284,12.153,0,6.7529e+07,0.40564,12124,13096,1,13096,1,0.00050157,8.2093e-10,0,0.00050157,6.9792e-05,1.064e+08,196.13,0,1.5113e+08,36.435,13095,12124,1,12124,1,6.4988e-05,-5.6855e-13,0,0.00022637,-1.182e-05,1.8273e+07,-0.13365,0,6.7396e+07,-0.076576,12123,11201,1,11201,1,-0.00037159,-5.4193e-10,0,1.586e-05,-9.3492e-05,-1.5113e+08,-126.54,0,4.8792e+06,-35.046,11200,11662,1,11662,1,-0.00016139,-1.4809e-10,0,0.00011319,-5.4135e-05,-6.5629e+07,-39.304,0,3.5313e+07,-5.4859,11661,12586,1,12586,1,0.00029136,2.4609e-10,0,0.00033956,3.043e-05,6.7396e+07,63.589,0,9.6135e+07,7.0059,12585,534.87,0,534.87,0,0.0002613,3.071e-10,0,0.00013818,4.8839e-05,7.7899e+07,75.987,0,3.8801e+07,9.3881,534.87,1
1848,1.6,12125,1,12125,1,6.5399e-05,-1.8939e-10,0,0.0002325,-1.1912e-05,1.9109,-47.837,0,6.7956e+07,0.36214,12124,13096,1,13096,1,0.00050474,1.7417e-10,0,0.00050474,7.0232e-05,1.0707e+08,44.403,0,1.5209e+08,15.752,13095,12124,1,12124,1,6.5398e-05,-1.5482e-10,0,0.0002278,-1.1894e-05,1.8388e+07,-40.681,0,6.7822e+07,0.23182,12123,11201,1,11201,1,-0.00037394,-6.7207e-10,0,1.596e-05,-9.4082e-05,-1.5209e+08,-168.24,0,4.9101e+06,-25.719,11200,11662,1,11662,1,-0.00016241,-3.059e-10,0,0.0001139,-5.4477e-05,-6.6044e+07,-79.2,0,3.5536e+07,-1.6118,11661,12586,1,12586,1,0.0002932,-3.8415e-11,0,0.00034171,3.0622e-05,6.7822e+07,-9.608,0,9.6742e+07,3.0567,12585,534.87,0,534.87,0,0.00026295,1.8437e-10,0,0.00013906,4.9147e-05,7.8391e+07,45.03,0,3.9047e+07,3.8144,534.87,1
1848,1.61,12125,1,12125,1,6.5805e-05,-7.4669e-12,0,0.00023394,-1.1986e-05,-11.075,-2.1817,0,6.8378e+07,4.8456,12124,13096,1,13096,1,0.00050788,6.8523e-10,0,0.00050788,7.0669e-05,1.0773e+08,161.2,0,1.5303e+08,45.71,13095,12124,1,12124,1,6.5805e-05,-1.2418e-11,0,0.00022922,-1.1968e-05,1.8503e+07,-2.7376,0,6.8244e+07,4.0199,12123,11201,1,11201,1,-0.00037627,-7.1272e-10,0,1.6059e-05,-9.4667e-05,-1.5303e+08,-174.04,0,4.9406e+06,-19.252,11200,11662,1,11662,1,-0.00016342,-2.067e-10,0,0.00011461,-5.4816e-05,-6.6455e+07,-52.213,0,3.5757e+07,-0.83727,11661,12586,1,12586,1,0.00029503,1.9217e-10,0,0.00034383,3.0813e-05,6.8244e+07,49.349,0,9.7344e+07,10.321,12585,534.87,0,534.87,0,0.00026458,3.1553e-10,0,0.00013992,4.9453e-05,7.8878e+07,79.103,0,3.9289e+07,7.2798,534.87,1
1848,1.62,12125,1,12125,1,6.6214e-05,-9.6711e-11,0,0.0002354,-1.206e-05,22.899,-25.221,0,6.8803e+07,2.6268,12124,13096,1,13096,1,0.00051104,9.8306e-10,0,0.00051104,7.1109e-05,1.084e+08,248.62,0,1.5399e+08,62.075,13095,12124,1,12124,1,6.6214e-05,-5.908e-11,0,0.00023065,-1.2043e-05,1.8618e+07,-14.393,0,6.8668e+07,0.083456,12123,11201,1,11201,1,-0.00037861,-1.1456e-09,0,1.6159e-05,-9.5256e-05,-1.5399e+08,-275.04,0,4.9713e+06,-45.569,11200,11662,1,11662,1,-0.00016443,-4.6459e-10,0,0.00011532,-5.5157e-05,-6.6868e+07,-118.05,0,3.5979e+07,-10.873,11661,12586,1,12586,1,0.00029686,2.202e-10,0,0.00034597,3.1004e-05,6.8668e+07,59.127,0,9.7949e+07,14.708,12585,534.87,0,534.87,0,0.00026623,5.1531e-10,0,0.00014079,4.976e-05,7.9369e+07,128.03,0,3.9534e+07,19.028,534.87,1
1848,1.63,12125,1,12125,1,6.6624e-05,1.7402e-10,0,0.00023685,-1.2135e-05,-3.128,43.527,0,6.9229e+07,0.56044,12124,13096,1,13096,1,0.00051419,5.8671e-10,0,0.00051419,7.1548e-05,1.0907e+08,129.84,0,1.5494e+08,23.199,13095,12124,1,12124,1,6.6623e-05,1.6835e-10,0,0.00023207,-1.2117e-05,1.8733e+07,45.619,0,6.9093e+07,-0.21506,12123,11201,1,11201,1,-0.00038094,-9.4947e-11,0,1.6259e-05,-9.5845e-05,-1.5494e+08,-32.512,0,5.002e+06,-21.422,11200,11662,1,11662,1,-0.00016545,3.6818e-11,0,0.00011604,-5.5498e-05,-6.7281e+07,10.62,0,3.6202e+07,-3.9127,11661,12586,1,12586,1,0.0002987,2.9865e-10,0,0.00034811,3.1196e-05,6.9093e+07,74.586,0,9.8554e+07,4.2284,12585,534.87,0,534.87,0,0.00026787,1.555e-10,0,0.00014166,5.0068e-05,7.9859e+07,37.982,0,3.9778e+07,6.6075,534.87,1
1848,1.64,12125,1,12125,1,6.7032e-05,3.8461e-10,0,0.0002383,-1.2209e-05,-2.6623,96.078,0,6.9653e+07,2.6784,12124,13096,1,13096,1,0.00051735,1.8936e-09,0,0.00051735,7.1987e-05,1.0974e+08,434.36,0,1.5589e+08,71.604,13095,12124,1,12124,1,6.7032e-05,2.0138e-10,0,0.00023349,-1.2191e-05,1.8847e+07,51.244,0,6.9516e+07,1.8173,12123,11201,1,11201,1,-0.00038328,-3.4031e-10,0,1.6359e-05,-9.6433e-05,-1.5589e+08,-84.416,0,5.0327e+06,-62.528,11200,11662,1,11662,1,-0.00016646,-1.2062e-11,0,0.00011675,-5.5838e-05,-6.7693e+07,-3.8237,0,3.6424e+07,-6.1892,11661,12586,1,12586,1,0.00030053,7.2557e-10,0,0.00035024,3.1387e-05,6.9516e+07,188.06,0,9.9159e+07,12.946,12585,534.87,0,534.87,0,0.00026952,5.2423e-10,0,0.00014253,5.0375e-05,8.0349e+07,129.59,0,4.0022e+07,15.241,534.87,1
1848,1.65,12125,1,12125,1,6.7441e-05,-3.2173e-11,0,0.00023976,-1.2284e-05,13.024,-8.0827,0,7.0078e+07,3.1176,12124,13096,1,13096,1,0.0005205,3.875e-10,0,0.0005205,7.2426e-05,1.1041e+08,126.24,0,1.5684e+08,53.623,13095,12124,1,12124,1,6.7441e-05,-1.3987e-11,0,0.00023492,-1.2266e-05,1.8963e+07,-3.5296,0,6.9941e+07,1.453,12123,11201,1,11201,1,-0.00038562,-4.8456e-10,0,1.6459e-05,-9.7021e-05,-1.5684e+08,-119.79,0,5.0634e+06,-33.262,11200,11662,1,11662,1,-0.00016748,-1.8273e-10,0,0.00011746,-5.6179e-05,-6.8107e+07,-48.011,0,3.6646e+07,-2.2944,11661,12586,1,12586,1,0.00030236,1.0177e-10,0,0.00035238,3.1579e-05,6.9941e+07,26.232,0,9.9764e+07,8.1185,12585,534.87,0,534.87,0,0.00027116,2.0953e-10,0,0.0001434,5.0683e-05,8.0839e+07,52.898,0,4.0266e+07,9.6513,534.87,1
1848,1.66,12125,1,12125,1,6.785e-05,2.9696e-10,0,0.00024121,-1.2358e-05,-28.81,73.792,0,7.0503e+07,-6.5068,12124,13096,1,13096,1,0.00052366,1.4093e-09,0,0.00052366,7.2865e-05,1.1108e+08,336.98,0,1.5779e+08,27.088,13095,12124,1,12124,1,6.785e-05,1.5071e-10,0,0.00023634,-1.234e-05,1.9077e+07,40.496,0,7.0364e+07,-4.3089,12123,11201,1,11201,1,-0.00038796,-3.4156e-10,0,1.6558e-05,-9.7609e-05,-1.5779e+08,-92.332,0,5.0941e+06,-36.464,11200,11662,1,11662,1,-0.00016849,-6.0869e-11,0,0.00011817,-5.6519e-05,-6.8519e+07,-17.46,0,3.6868e+07,-15.414,11661,12586,1,12586,1,0.00030419,6.1988e-10,0,0.00035451,3.177e-05,7.0364e+07,162.88,0,1.0037e+08,3.2418,12585,534.87,0,534.87,0,0.00027281,4.6343e-10,0,0.00014427,5.099e-05,8.1329e+07,113.37,0,4.051e+07,12.532,534.87,1
1848,1.67,12125,1,12125,1,6.8258e-05,-2.784e-10,0,0.00024266,-1.2432e-05,27.306,-69.536,0,7.0927e+07,2.9411,12124,13096,1,13096,1,0.00052681,6.6614e-10,0,0.00052681,7.3303e-05,1.1175e+08,165.54,0,1.5874e+08,60.934,13095,12124,1,12124,1,6.8258e-05,-1.1505e-10,0,0.00023776,-1.2414e-05,1.9192e+07,-30.184,0,7.0787e+07,-0.51288,12123,11201,1,11201,1,-0.00039029,-1.6343e-09,0,1.6658e-05,-9.8196e-05,-1.5874e+08,-390.54,0,5.1247e+06,-41.434,11200,11662,1,11662,1,-0.00016951,-7.0617e-10,0,0.00011888,-5.6859e-05,-6.8931e+07,-183.03,0,3.709e+07,-10.703,11661,12586,1,12586,1,0.00030602,1.4974e-10,0,0.00035665,3.1961e-05,7.0787e+07,35.678,0,1.0097e+08,15.074,12585,534.87,0,534.87,0,0.00027444,5.8555e-10,0,0.00014514,5.1296e-05,8.1818e+07,145.72,0,4.0754e+07,18.349,534.87,1
1848,1.68,12125,1,12125,1,6.8667e-05,-1.0076e-10,0,0.00024412,-1.2507e-05,2.9349,-24.929,0,7.1352e+07,3.566,12124,13096,1,13096,1,0.00052996,2.9731e-10,0,0.00052996,7.3742e-05,1.1242e+08,69.413,0,1.5969e+08,63.746,13095,12124,1,12124,1,6.8667e-05,-4.6246e-11,0,0.00023919,-1.2489e-05,1.9307e+07,-11.247,0,7.1212e+07,2.0201,12123,11201,1,11201,1,-0.00039263,-5.8509e-10,0,1.6758e-05,-9.8784e-05,-1.5969e+08,-132.43,0,5.1555e+06,-10.41,11200,11662,1,11662,1,-0.00017052,-2.2739e-10,0,0.00011959,-5.72e-05,-6.9345e+07,-57.96,0,3.7312e+07,-1.0264,11661,12586,1,12586,1,0.00030786,2.4671e-11,0,0.00035878,3.2153e-05,7.1212e+07,6.7508,0,1.0158e+08,7.4469,12585,534.87,0,534.87,0,0.00027609,1.9114e-10,0,0.00014601,5.1604e-05,8.2309e+07,46.907,0,4.0998e+07,6.592,534.87,1
1848,1.69,12125,1,12125,1,6.9075e-05,1.6415e-11,0,0.00024557,-1.2581e-05,-0.40424,3.6664,0,7.1776e+07,0.19426,12124,13096,1,13096,1,0.00053311,6.3723e-10,0,0.00053311,7.4181e-05,1.1309e+08,153.89,0,1.6064e+08,35.072,13095,12124,1,12124,1,6.9075e-05,-1.4899e-11,0,0.00024061,-1.2563e-05,1.9422e+07,-3.9344,0,7.1635e+07,-0.76198,12123,11201,1,11201,1,-0.00039496,-4.0831e-10,0,1.6857e-05,-9.9372e-05,-1.6064e+08,-97.432,0,5.1861e+06,-32.709,11200,11662,1,11662,1,-0.00017154,-1.4718e-10,0,0.00012031,-5.754e-05,-6.9757e+07,-38.68,0,3.7534e+07,-5.4972,11661,12586,1,12586,1,0.00030969,1.703e-10,0,0.00036092,3.2344e-05,7.1635e+07,44.412,0,1.0218e+08,5.8239,12585,534.87,0,534.87,0,0.00027773,2.3703e-10,0,0.00014688,5.1911e-05,8.2798e+07,59.408,0,4.1242e+07,9.2821,534.87,1
1848,1.7,12125,1,12125,1,6.9485e-05,-2.2106e-10,0,0.00024702,-1.2656e-05,14.135,-55.794,0,7.2202e+07,1.1095,12124,13096,1,13096,1,0.00053628,2.4375e-10,0,0.00053628,7.4621e-05,1.1376e+08,64.118,0,1.6159e+08,25.585,13095,12124,1,12124,1,6.9485e-05,-1.0883e-10,0,0.00024204,-1.2638e-05,1.9537e+07,-29.067,0,7.206e+07,-0.029502,12123,11201,1,11201,1,-0.0003973,-1.0282e-09,0,1.6957e-05,-9.9961e-05,-1.6159e+08,-239.54,0,5.2168e+06,-25.673,11200,11662,1,11662,1,-0.00017255,-4.7026e-10,0,0.00012102,-5.7881e-05,-7.017e+07,-120.9,0,3.7756e+07,-4.8342,11661,12586,1,12586,1,0.00031152,3.6963e-11,0,0.00036306,3.2536e-05,7.206e+07,10.392,0,1.0279e+08,6.952,12585,534.87,0,534.87,0,0.00027938,3.3583e-10,0,0.00014775,5.2218e-05,8.3289e+07,83.712,0,4.1486e+07,9.0799,534.87,1
1848,1.71,12125,1,12125,1,6.9893e-05,-6.5949e-11,0,0.00024848,-1.273e-05,27.982,-16.777,0,7.2626e+07,2.1563,12124,13096,1,13096,1,0.00053942,8.0925e-10,0,0.00053942,7.5059e-05,1.1443e+08,188.45,0,1.6254e+08,50.95,13095,12124,1,12124,1,6.9893e-05,-4.2606e-11,0,0.00024346,-1.2712e-05,1.9652e+07,-9.5187,0,7.2483e+07,-0.40512,12123,11201,1,11201,1,-0.00039964,-8.8993e-10,0,1.7057e-05,-0.00010055,-1.6254e+08,-207.43,0,5.2475e+06,-23.217,11200,11662,1,11662,1,-0.00017357,-3.7401e-10,0,0.00012173,-5.8221e-05,-7.0583e+07,-94.919,0,3.7978e+07,-7.1609,11661,12586,1,12586,1,0.00031335,1.8898e-10,0,0.00036519,3.2727e-05,7.2483e+07,49.899,0,1.0339e+08,10.696,12585,534.87,0,534.87,0,0.00028102,4.1595e-10,0,0.00014861,5.2525e-05,8.3778e+07,104.24,0,4.173e+07,12.854,534.87,1
1848,1.72,12125,1,12125,1,7.0302e-05,4.0842e-10,0,0.00024993,-1.2805e-05,8.5206,101.83,0,7.3051e+07,-5.2803,12124,13096,1,13096,1,0.00054258,1.1048e-09,0,0.00054258,7.5499e-05,1.151e+08,265.1,0,1.6349e+08,31.338,13095,12124,1,12124,1,7.0302e-05,3.9268e-10,0,0.00024488,-1.2786e-05,1.9767e+07,103.68,0,7.2907e+07,-6.1621,12123,11201,1,11201,1,-0.00040198,-1.8111e-10,0,1.7157e-05,-0.00010114,-1.6349e+08,-62.016,0,5.2782e+06,-29.431,11200,11662,1,11662,1,-0.00017458,1.7615e-10,0,0.00012244,-5.8562e-05,-7.0996e+07,44.12,0,3.8201e+07,-15.079,11661,12586,1,12586,1,0.00031519,6.4595e-10,0,0.00036733,3.2918e-05,7.2907e+07,160.02,0,1.04e+08,1.7733,12585,534.87,0,534.87,0,0.00028266,3.0935e-10,0,0.00014948,5.2832e-05,8.4268e+07,74.573,0,4.1974e+07,13.458,534.87,1
1848,1.73,12125,1,12125,1,7.071e-05,1.9062e-11,0,0.00025138,-1.2879e-05,7.4635,5.7229,0,7.3475e+07,2.286,12124,13096,1,13096,1,0.00054573,7.5689e-10,0,0.00054573,7.5936e-05,1.1576e+08,206.59,0,1.6444e+08,46.023,13095,12124,1,12124,1,7.071e-05,1.1989e-11,0,0.00024631,-1.286e-05,1.9882e+07,2.7653,0,7.3331e+07,0.27256,12123,11201,1,11201,1,-0.00040431,-6.7792e-10,0,1.7256e-05,-0.00010172,-1.6444e+08,-163.59,0,5.3088e+06,-28.036,11200,11662,1,11662,1,-0.0001756,-2.3454e-10,0,0.00012315,-5.8902e-05,-7.1408e+07,-60.691,0,3.8422e+07,-5.9289,11661,12586,1,12586,1,0.00031702,2.5215e-10,0,0.00036946,3.3109e-05,7.3331e+07,65.262,0,1.046e+08,9.5745,12585,534.87,0,534.87,0,0.00028431,3.6285e-10,0,0.00015035,5.3139e-05,8.4757e+07,91.112,0,4.2218e+07,10.564,534.87,1
1848,1.74,12125,1,12125,1,7.1119e-05,-5.533e-10,0,0.00025283,-1.2954e-05,20.627,-138.99,0,7.39e+07,3.3683,12124,13096,1,13096,1,0.00054889,2.7204e-10,0,0.00054889,7.6376e-05,1.1643e+08,93.153,0,1.6539e+08,38.944,13095,12124,1,12124,1,7.1119e-05,-4.5214e-10,0,0.00024773,-1.2935e-05,1.9997e+07,-116.49,0,7.3755e+07,3.9479,12123,11201,1,11201,1,-0.00040665,-1.7891e-09,0,1.7356e-05,-0.00010231,-1.6539e+08,-424,0,5.3395e+06,-50.835,11200,11662,1,11662,1,-0.00017661,-9.0878e-10,0,0.00012387,-5.9243e-05,-7.1821e+07,-235.95,0,3.8645e+07,-5.8396,11661,12586,1,12586,1,0.00031885,-1.0755e-10,0,0.0003716,3.3301e-05,7.3755e+07,-27.697,0,1.052e+08,14.777,12585,534.87,0,534.87,0,0.00028595,5.1169e-10,0,0.00015122,5.3446e-05,8.5248e+07,126.25,0,4.2462e+07,16.59,534.87,1
1848,1.75,12125,1,12125,1,7.1528e-05,-5.1427e-10,0,0.00025429,-1.3028e-05,10.92,-128.54,0,7.4325e+07,4.7636,12124,13096,1,13096,1,0.00055205,1.2402e-10,0,0.00055205,7.6815e-05,1.171e+08,42.468,0,1.6634e+08,50.475,13095,12124,1,12124,1,7.1528e-05,-5.3084e-10,0,0.00024916,-1.3009e-05,2.0112e+07,-143.09,0,7.4179e+07,1.4225,12123,11201,1,11201,1,-0.00040899,-1.306e-09,0,1.7456e-05,-0.0001029,-1.6634e+08,-297.63,0,5.3702e+06,-28.364,11200,11662,1,11662,1,-0.00017763,-7.9493e-10,0,0.00012458,-5.9583e-05,-7.2234e+07,-195.39,0,3.8867e+07,-0.93019,11661,12586,1,12586,1,0.00032068,-2.5528e-10,0,0.00037373,3.3492e-05,7.4179e+07,-68.604,0,1.0581e+08,6.4492,12585,534.87,0,534.87,0,0.00028759,3.3454e-10,0,0.00015209,5.3754e-05,8.5738e+07,79.655,0,4.2706e+07,10.772,534.87,1
1848,1.76,12125,1,12125,1,7.1937e-05,3.387e-10,0,0.00025574,-1.3103e-05,7.8883,85.194,0,7.475e+07,-2.6589,12124,13096,1,13096,1,0.0005552,1.2037e-09,0,0.0005552,7.7255e-05,1.1777e+08,285.74,0,1.6729e+08,39.92,13095,12124,1,12124,1,7.1937e-05,2.9915e-10,0,0.00025058,-1.3084e-05,2.0227e+07,78.01,0,7.4603e+07,-1.6491,12123,11201,1,11201,1,-0.00041133,-1.541e-10,0,1.7556e-05,-0.00010349,-1.6729e+08,-52.76,0,5.401e+06,-55.561,11200,11662,1,11662,1,-0.00017864,1.2674e-10,0,0.00012529,-5.9924e-05,-7.2647e+07,32.334,0,3.9089e+07,-6.5737,11661,12586,1,12586,1,0.00032252,5.2357e-10,0,0.00037587,3.3684e-05,7.4603e+07,130.55,0,1.0641e+08,4.3183,12585,534.87,0,534.87,0,0.00028924,2.7809e-10,0,0.00015296,5.4061e-05,8.6228e+07,69.355,0,4.295e+07,12.068,534.87,1
1848,1.77,12125,1,12125,1,7.2346e-05,1.7333e-10,0,0.0002572,-1.3177e-05,-25.389,43.281,0,7.5175e+07,0.68095,12124,13096,1,13096,1,0.00055835,5.8402e-10,0,0.00055835,7.7693e-05,1.1844e+08,147.91,0,1.6824e+08,30.239,13095,12124,1,12124,1,7.2346e-05,1.4862e-10,0,0.000252,-1.3158e-05,2.0342e+07,39.583,0,7.5027e+07,0.024326,12123,11201,1,11201,1,-0.00041366,-1.0016e-10,0,1.7656e-05,-0.00010408,-1.6824e+08,-34.299,0,5.4316e+06,-15.588,11200,11662,1,11662,1,-0.00017966,3.6586e-11,0,0.000126,-6.0264e-05,-7.306e+07,9.9401,0,3.9311e+07,-2.0018,11661,12586,1,12586,1,0.00032435,2.7868e-10,0,0.00037801,3.3875e-05,7.5027e+07,70.796,0,1.0702e+08,3.5374,12585,534.87,0,534.87,0,0.00029088,1.5415e-10,0,0.00015383,5.4368e-05,8.6718e+07,37.61,0,4.3194e+07,4.8349,534.87,1
1848,1.78,12125,1,12125,1,7.2754e-05,-3.099e-10,0,0.00025865,-1.3251e-05,12.408,-78.171,0,7.5599e+07,5.0656,12124,13096,1,13096,1,0.00056151,3.75e-10,0,0.00056151,7.8132e-05,1.1911e+08,86.768,0,1.692e+08,42.811,13095,12124,1,12124,1,7.2754e-05,-2.2072e-10,0,0.00025343,-1.3232e-05,2.0456e+07,-56.901,0,7.5451e+07,3.6499,12123,11201,1,11201,1,-0.000416,-1.2142e-09,0,1.7755e-05,-0.00010466,-1.692e+08,-282.79,0,5.4623e+06,-20.854,11200,11662,1,11662,1,-0.00018067,-6.0747e-10,0,0.00012671,-6.0605e-05,-7.3472e+07,-159.95,0,3.9533e+07,-1.5055,11661,12586,1,12586,1,0.00032618,-1.0669e-12,0,0.00038014,3.4067e-05,7.5451e+07,-0.21961,0,1.0762e+08,10.013,12585,534.87,0,534.87,0,0.00029253,3.9197e-10,0,0.0001547,5.4675e-05,8.7208e+07,97.181,0,4.3438e+07,10.149,534.87,1
1848,1.79,12125,1,12125,1,7.3163e-05,1.283e-10,0,0.0002601,-1.3326e-05,6.9755,31.31,0,7.6024e+07,-1.064,12124,13096,1,13096,1,0.00056467,5.7534e-10,0,0.00056467,7.8571e-05,1.1978e+08,126.29,0,1.7015e+08,19.808,13095,12124,1,12124,1,7.3163e-05,1.1197e-10,0,0.00025485,-1.3307e-05,2.0571e+07,29.705,0,7.5875e+07,-0.83545,12123,11201,1,11201,1,-0.00041834,-9.5976e-11,0,1.7855e-05,-0.00010525,-1.7015e+08,-32.861,0,5.493e+06,-25.692,11200,11662,1,11662,1,-0.00018169,4.9484e-12,0,0.00012743,-6.0945e-05,-7.3885e+07,1.2297,0,3.9755e+07,-3.3875,11661,12586,1,12586,1,0.00032802,2.3299e-10,0,0.00038228,3.4258e-05,7.5875e+07,56.535,0,1.0823e+08,1.8978,12585,534.87,0,534.87,0,0.00029417,1.4396e-10,0,0.00015557,5.4983e-05,8.7698e+07,34.727,0,4.3683e+07,5.6435,534.87,1
1848,1.8,12125,1,12125,1,7.3572e-05,1.8683e-10,0,0.00026155,-1.34e-05,-54.072,47.133,0,7.6449e+07,1.3304,12124,13096,1,13096,1,0.00056782,5.8959e-10,0,0.00056782,7.901e-05,1.2045e+08,146.75,0,1.711e+08,20.473,13095,12124,1,12124,1,7.3571e-05,1.4223e-10,0,0.00025627,-1.3381e-05,2.0686e+07,36.994,0,7.6298e+07,1.3781,12123,11201,1,11201,1,-0.00042067,-8.8759e-11,0,1.7955e-05,-0.00010584,-1.711e+08,-30.393,0,5.5236e+06,-13.901,11200,11662,1,11662,1,-0.0001827,6.8566e-11,0,0.00012814,-6.1285e-05,-7.4298e+07,18.177,0,3.9977e+07,-2.5426,11661,12586,1,12586,1,0.00032985,2.8834e-10,0,0.00038441,3.4449e-05,7.6298e+07,75.82,0,1.0883e+08,5.0189,12585,534.87,0,534.87,0,0.00029581,1.5753e-10,0,0.00015644,5.529e-05,8.8188e+07,38.839,0,4.3926e+07,6.4594,534.87,1
1848,1.81,12125,1,12125,1,7.3981e-05,1.8025e-10,0,0.00026301,-1.3475e-05,13.169,45.115,0,7.6874e+07,-1.0689,12124,13096,1,13096,1,0.00057098,5.9753e-10,0,0.00057098,7.945e-05,1.2112e+08,132.2,0,1.7205e+08,22.018,13095,12124,1,12124,1,7.3981e-05,1.721e-10,0,0.0002577,-1.3455e-05,2.0801e+07,43.101,0,7.6723e+07,-0.76597,12123,11201,1,11201,1,-0.00042302,-8.7072e-11,0,1.8055e-05,-0.00010643,-1.7205e+08,-29.811,0,5.5545e+06,-24.148,11200,11662,1,11662,1,-0.00018372,6.8901e-11,0,0.00012885,-6.1627e-05,-7.4711e+07,17.09,0,4.02e+07,-4.4461,11661,12586,1,12586,1,0.00033168,2.8548e-10,0,0.00038655,3.4641e-05,7.6723e+07,73.696,0,1.0944e+08,2.6294,12585,534.87,0,534.87,0,0.00029746,1.509e-10,0,0.00015731,5.5597e-05,8.8679e+07,37.022,0,4.4171e+07,5.9085,534.87,1
1848,1.82,12125,1,12125,1,7.439e-05,-3.6436e-10,0,0.00026446,-1.3549e-05,29.001,-90.625,0,7.7298e+07,1.8966,12124,13096,1,13096,1,0.00057413,2.641e-10,0,0.00057413,7.9888e-05,1.2179e+08,90.431,0,1.73e+08,35.181,13095,12124,1,12124,1,7.439e-05,-2.87e-10,0,0.00025912,-1.353e-05,2.0916e+07,-75.901,0,7.7147e+07,2.416,12123,11201,1,11201,1,-0.00042535,-1.3017e-09,0,1.8154e-05,-0.00010702,-1.73e+08,-312,0,5.5851e+06,-50.997,11200,11662,1,11662,1,-0.00018473,-6.1238e-10,0,0.00012956,-6.1967e-05,-7.5124e+07,-157.6,0,4.0422e+07,-4.7244,11661,12586,1,12586,1,0.00033351,-4.6166e-11,0,0.00038869,3.4832e-05,7.7147e+07,-11.491,0,1.1004e+08,13.012,12585,534.87,0,534.87,0,0.0002991,3.6854e-10,0,0.00015818,5.5904e-05,8.9168e+07,89.936,0,4.4415e+07,17.392,534.87,1
1848,1.83,12125,1,12125,1,7.4798e-05,-9.3996e-11,0,0.00026591,-1.3624e-05,-1.514,-23.335,0,7.7722e+07,2.379,12124,13096,1,13096,1,0.00057728,3.0933e-10,0,0.00057728,8.0326e-05,1.2246e+08,76.407,0,1.7395e+08,12.484,13095,12124,1,12124,1,7.4798e-05,-4.0215e-11,0,0.00026054,-1.3604e-05,2.1031e+07,-10.308,0,7.757e+07,2.2696,12123,11201,1,11201,1,-0.00042768,-5.4438e-10,0,1.8254e-05,-0.0001076,-1.7395e+08,-130,0,5.6157e+06,-8.0726,11200,11662,1,11662,1,-0.00018575,-2.2618e-10,0,0.00013027,-6.2307e-05,-7.5536e+07,-57.855,0,4.0643e+07,-0.47855,11661,12586,1,12586,1,0.00033534,3.0942e-11,0,0.00039082,3.5023e-05,7.757e+07,8.8402,0,1.1065e+08,5.0625,12585,534.87,0,534.87,0,0.00030074,1.9332e-10,0,0.00015904,5.6211e-05,8.9657e+07,48.396,0,4.4658e+07,3.7111,534.87,1
1848,1.84,12125,1,12125,1,7.5207e-05,-2.7542e-12,0,0.00026737,-1.3698e-05,-20.911,0.042583,0,7.8147e+07,3.74,12124,13096,1,13096,1,0.00058043,3.7017e-10,0,0.00058043,8.0765e-05,1.2313e+08,87.737,0,1.749e+08,23.322,13095,12124,1,12124,1,7.5206e-05,7.9635e-12,0,0.00026197,-1.3678e-05,2.1146e+07,1.7984,0,7.7994e+07,2.7203,12123,11201,1,11201,1,-0.00043002,-5.2448e-10,0,1.8354e-05,-0.00010819,-1.749e+08,-122.07,0,5.6464e+06,-9.8258,11200,11662,1,11662,1,-0.00018676,-1.0172e-10,0,0.00013098,-6.2647e-05,-7.5949e+07,-25.201,0,4.0866e+07,0.3429,11661,12586,1,12586,1,0.00033718,1.1812e-10,0,0.00039295,3.5215e-05,7.7994e+07,30.432,0,1.1125e+08,6.1715,12585,534.87,0,534.87,0,0.00030238,1.8054e-10,0,0.00015991,5.6518e-05,9.0147e+07,44.752,0,4.4902e+07,5.153,534.87,1
1848,1.85,12125,1,12125,1,7.5615e-05,-1.864e-10,0,0.00026882,-1.3772e-05,-16.946,-47.006,0,7.8572e+07,5.3645,12124,13096,1,13096,1,0.00058359,2.6781e-10,0,0.00058359,8.1204e-05,1.2379e+08,62.216,0,1.7585e+08,28.333,13095,12124,1,12124,1,7.5615e-05,-8.9189e-11,0,0.00026339,-1.3752e-05,2.1261e+07,-23.721,0,7.8417e+07,5,12123,11201,1,11201,1,-0.00043236,-9.2237e-10,0,1.8453e-05,-0.00010878,-1.7585e+08,-218.37,0,5.6771e+06,-11.946,11200,11662,1,11662,1,-0.00018778,-3.6371e-10,0,0.0001317,-6.2988e-05,-7.6361e+07,-94.421,0,4.1088e+07,0.79453,11661,12586,1,12586,1,0.00033901,1.6107e-11,0,0.00039509,3.5406e-05,7.8417e+07,3.7982,0,1.1186e+08,10.09,12585,534.87,0,534.87,0,0.00030403,2.8728e-10,0,0.00016078,5.6825e-05,9.0637e+07,71.209,0,4.5146e+07,6.1165,534.87,1
1848,1.86,12125,1,12125,1,7.6025e-05,1.5144e-10,0,0.00027027,-1.3847e-05,12.477,38.95,0,7.8997e+07,5.1606,12124,13096,1,13096,1,0.00058675,8.9157e-10,0,0.00058675,8.1644e-05,1.2447e+08,223.38,0,1.768e+08,45.192,13095,12124,1,12124,1,7.6025e-05,7.8227e-11,0,0.00026482,-1.3827e-05,2.1376e+07,20.316,0,7.8842e+07,3.9494,12123,11201,1,11201,1,-0.0004347,-3.6283e-10,0,1.8553e-05,-0.00010937,-1.768e+08,-81.766,0,5.7079e+06,-25.889,11200,11662,1,11662,1,-0.00018879,-5.7728e-11,0,0.00013241,-6.3329e-05,-7.6775e+07,-15.886,0,4.131e+07,-1.8094,11661,12586,1,12586,1,0.00034084,3.5715e-10,0,0.00039723,3.5598e-05,7.8842e+07,91.575,0,1.1246e+08,12.561,12585,534.87,0,534.87,0,0.00030567,3.0131e-10,0,0.00016165,5.7133e-05,9.1128e+07,74.918,0,4.5391e+07,9.4886,534.87,1
1848,1.87,12125,1,12125,1,7.6433e-05,1.2231e-10,0,0.00027173,-1.3922e-05,1.1081,30.6,0,7.9422e+07,-1.7753,12124,13096,1,13096,1,0.0005899,4.0648e-10,0,0.0005899,8.2083e-05,1.2513e+08,100.16,0,1.7775e+08,7.6351,13095,12124,1,12124,1,7.6433e-05,1.0832e-10,0,0.00026624,-1.3901e-05,2.1491e+07,28.308,0,7.9266e+07,-1.394,12123,11201,1,11201,1,-0.00043703,-5.7989e-11,0,1.8653e-05,-0.00010996,-1.7775e+08,-19.857,0,5.7385e+06,-15.012,11200,11662,1,11662,1,-0.00018981,3.2922e-11,0,0.00013312,-6.3669e-05,-7.7188e+07,8.6194,0,4.1532e+07,-3.9813,11661,12586,1,12586,1,0.00034268,1.9137e-10,0,0.00039936,3.5789e-05,7.9266e+07,49.435,0,1.1307e+08,0.86171,12585,534.87,0,534.87,0,0.00030732,1.0834e-10,0,0.00016252,5.744e-05,9.1618e+07,26.528,0,4.5635e+07,3.7748,534.87,1
1848,1.88,12125,1,12125,1,7.6841e-05,1.8167e-11,0,0.00027318,-1.3996e-05,-3.9795,4.4243,0,7.9846e+07,3.1242,12124,13096,1,13096,1,0.00059305,5.9526e-10,0,0.00059305,8.2521e-05,1.258e+08,146.01,0,1.787e+08,45.648,13095,12124,1,12124,1,7.6841e-05,-2.5021e-12,0,0.00026766,-1.3975e-05,2.1606e+07,-0.62727,0,7.9689e+07,2.4238,12123,11201,1,11201,1,-0.00043937,-6.0666e-10,0,1.8753e-05,-0.00011054,-1.787e+08,-149.37,0,5.7692e+06,-18.426,11200,11662,1,11662,1,-0.00019082,-1.3338e-10,0,0.00013383,-6.4009e-05,-7.76e+07,-36.387,0,4.1754e+07,-1.7653,11661,12586,1,12586,1,0.0003445,1.937e-10,0,0.00040149,3.598e-05,7.9689e+07,49.702,0,1.1367e+08,7.2439,12585,534.87,0,534.87,0,0.00030896,2.6579e-10,0,0.00016339,5.7747e-05,9.2107e+07,67.062,0,4.5878e+07,6.894,534.87,1
1848,1.89,12125,1,12125,1,7.725e-05,-1.3662e-10,0,0.00027463,-1.407e-05,7.1792,-34.618,0,8.027e+07,3.7789,12124,13096,1,13096,1,0.00059621,1.1895e-09,0,0.00059621,8.296e-05,1.2647e+08,305.67,0,1.7965e+08,62.84,13095,12124,1,12124,1,7.725e-05,-8.211e-11,0,0.00026909,-1.405e-05,2.172e+07,-19.069,0,8.0113e+07,1.4967,12123,11201,1,11201,1,-0.00044171,-1.5183e-09,0,1.8852e-05,-0.00011113,-1.7965e+08,-362.91,0,5.7998e+06,-43.623,11200,11662,1,11662,1,-0.00019184,-6.1809e-10,0,0.00013454,-6.435e-05,-7.8012e+07,-161.22,0,4.1976e+07,-8.2974,11661,12586,1,12586,1,0.00034634,2.9157e-10,0,0.00040363,3.6172e-05,8.0113e+07,79.069,0,1.1427e+08,14.148,12585,534.87,0,534.87,0,0.0003106,6.6067e-10,0,0.00016426,5.8054e-05,9.2597e+07,166.01,0,4.6122e+07,16.562,534.87,1
1848,1.9,12125,1,12125,1,7.7659e-05,-3.8125e-10,0,0.00027608,-1.4145e-05,3.6382,-95.285,0,8.0695e+07,4.9926,12124,13096,1,13096,1,0.00059936,2.395e-10,0,0.00059936,8.3399e-05,1.2714e+08,82.01,0,1.806e+08,37.354,13095,12124,1,12124,1,7.7659e-05,-2.8205e-10,0,0.00027051,-1.4124e-05,2.1835e+07,-70.611,0,8.0537e+07,5.1279,12123,11201,1,11201,1,-0.00044405,-1.3981e-09,0,1.8952e-05,-0.00011172,-1.806e+08,-335.13,0,5.8305e+06,-41.834,11200,11662,1,11662,1,-0.00019285,-6.7463e-10,0,0.00013526,-6.469e-05,-7.8425e+07,-175.06,0,4.2198e+07,-3.5064,11661,12586,1,12586,1,0.00034817,-3.4439e-11,0,0.00040577,3.6363e-05,8.0537e+07,-8.8415,0,1.1488e+08,16.414,12585,534.87,0,534.87,0,0.00031224,4.1587e-10,0,0.00016513,5.8361e-05,9.3087e+07,102.68,0,4.6367e+07,15.674,534.87,1
1848,1.91,12125,1,12125,1,7.8069e-05,2.7061e-10,0,0.00027754,-1.4219e-05,-4.3287,67.187,0,8.1121e+07,-6.7234,12124,13096,1,13096,1,0.00060252,1.2867e-09,0,0.00060252,8.3839e-05,1.2781e+08,308.37,0,1.8155e+08,18.204,13095,12124,1,12124,1,7.8069e-05,1.3662e-10,0,0.00027194,-1.4199e-05,2.1951e+07,37.894,0,8.0962e+07,-4.2978,12123,11201,1,11201,1,-0.00044639,-4.3905e-10,0,1.9052e-05,-0.00011231,-1.8155e+08,-100.8,0,5.8613e+06,-39.863,11200,11662,1,11662,1,-0.00019387,-5.8186e-11,0,0.00013597,-6.5031e-05,-7.8839e+07,-14.428,0,4.2421e+07,-14.571,11661,12586,1,12586,1,0.00035001,5.7282e-10,0,0.00040791,3.6555e-05,8.0962e+07,148.02,0,1.1548e+08,1.4726,12585,534.87,0,534.87,0,0.00031389,4.3245e-10,0,0.000166,5.8669e-05,9.3578e+07,106.04,0,4.6611e+07,12.49,534.87,1
1848,1.92,12125,1,12125,1,7.8477e-05,-2.0159e-10,0,0.00027899,-1.4294e-05,-2.5579,-50.681,0,8.1545e+07,1.6924,12124,13096,1,13096,1,0.00060567,8.533e-11,0,0.00060567,8.4277e-05,1.2848e+08,29.218,0,1.825e+08,17.982,13095,12124,1,12124,1,7.8477e-05,-1.9559e-10,0,0.00027336,-1.4273e-05,2.2065e+07,-51.892,0,8.1385e+07,0.56175,12123,11201,1,11201,1,-0.00044872,-5.6434e-10,0,1.9152e-05,-0.0001129,-1.825e+08,-133.2,0,5.8919e+06,-15.972,11200,11662,1,11662,1,-0.00019488,-3.0697e-10,0,0.00013668,-6.5371e-05,-7.9251e+07,-76.321,0,4.2642e+07,-1.0272,11661,12586,1,12586,1,0.00035184,-8.2895e-11,0,0.00041004,3.6746e-05,8.1385e+07,-20.783,0,1.1609e+08,4.2497,12585,534.87,0,534.87,0,0.00031553,1.5161e-10,0,0.00016687,5.8976e-05,9.4067e+07,37.168,0,4.6855e+07,4.2722,534.87,1
1848,1.93,12125,1,12125,1,7.8885e-05,3.1849e-10,0,0.00028044,-1.4368e-05,-29.014,80.235,0,8.1969e+07,1.4728,12124,13096,1,13096,1,0.00060882,1.2526e-09,0,0.00060882,8.4716e-05,1.2915e+08,297.31,0,1.8345e+08,37.899,13095,12124,1,12124,1,7.8885e-05,2.2899e-10,0,0.00027478,-1.4347e-05,2.218e+07,58.836,0,8.1808e+07,2.0008,12123,11201,1,11201,1,-0.00045105,-2.2668e-10,0,1.9251e-05,-0.00011348,-1.8345e+08,-54.477,0,5.9226e+06,-32.795,11200,11662,1,11662,1,-0.0001959,3.3486e-11,0,0.00013739,-6.5711e-05,-7.9663e+07,7.568,0,4.2864e+07,-4.7547,11661,12586,1,12586,1,0.00035367,5.4807e-10,0,0.00041217,3.6937e-05,8.1808e+07,141.93,0,1.1669e+08,7.6414,12585,534.87,0,534.87,0,0.00031717,3.4408e-10,0,0.00016773,5.9282e-05,9.4556e+07,85.576,0,4.7099e+07,8.6707,534.87,1
1848,1.94,12125,1,12125,1,7.9294e-05,-3.2508e-10,0,0.0002819,-1.4443e-05,6.2067,-81.562,0,8.2395e+07,3.2357,12124,13096,1,13096,1,0.00061199,1.3468e-10,0,0.00061199,8.5156e-05,1.2982e+08,46.118,0,1.844e+08,30.746,13095,12124,1,12124,1,7.9294e-05,-3.2905e-10,0,0.00027621,-1.4422e-05,2.2295e+07,-87.23,0,8.2233e+07,3.2244,12123,11201,1,11201,1,-0.0004534,-8.0159e-10,0,1.9351e-05,-0.00011407,-1.844e+08,-186.29,0,5.9533e+06,-25.767,11200,11662,1,11662,1,-0.00019691,-5.2224e-10,0,0.0001381,-6.6053e-05,-8.0077e+07,-129.84,0,4.3087e+07,-2.3595,11661,12586,1,12586,1,0.0003555,-1.369e-10,0,0.00041431,3.7129e-05,8.2233e+07,-34.273,0,1.173e+08,9.2987,12585,534.87,0,534.87,0,0.00031882,2.3427e-10,0,0.0001686,5.959e-05,9.5047e+07,57.13,0,4.7343e+07,8.7837,534.87,1
1848,1.95,12125,1,12125,1,7.9703e-05,1.651e-10,0,0.00028335,-1.4517e-05,0.77042,40.09,0,8.2819e+07,0.86023,12124,13096,1,13096,1,0.00061514,8.9098e-10,0,0.00061514,8.5594e-05,1.3049e+08,195.06,0,1.8535e+08,44.375,13095,12124,1,12124,1,7.9703e-05,1.0845e-10,0,0.00027763,-1.4496e-05,2.241e+07,29.881,0,8.2656e+07,1.2216,12123,11201,1,11201,1,-0.00045573,-2.3428e-10,0,1.9451e-05,-0.00011466,-1.8535e+08,-59.745,0,5.984e+06,-26.816,11200,11662,1,11662,1,-0.00019793,-2.4441e-11,0,0.00013882,-6.6393e-05,-8.0489e+07,-5.4721,0,4.3309e+07,-4.5212,11661,12586,1,12586,1,0.00035733,3.0176e-10,0,0.00041645,3.732e-05,8.2656e+07,76.893,0,1.179e+08,6.1594,12585,534.87,0,534.87,0,0.00032046,2.3419e-10,0,0.00016947,5.9897e-05,9.5537e+07,56.81,0,4.7587e+07,8.9286,534.87,1
1848,1.96,12125,1,12125,1,8.0111e-05,2.5406e-10,0,0.0002848,-1.4591e-05,13.49,63.106,0,8.3243e+07,1.5881,12124,13096,1,13096,1,0.00061829,1.7455e-09,0,0.00061829,8.6033e-05,1.3116e+08,399.35,0,1.863e+08,63.278,13095,12124,1,12124,1,8.0111e-05,5.9316e-11,0,0.00027905,-1.457e-05,2.2525e+07,15.396,0,8.308e+07,2.4405,12123,11201,1,11201,1,-0.00045807,-4.7175e-10,0,1.9551e-05,-0.00011525,-1.863e+08,-112.98,0,6.0146e+06,-74.16,11200,11662,1,11662,1,-0.00019894,-1.0477e-10,0,0.00013953,-6.6733e-05,-8.0902e+07,-26.283,0,4.3531e+07,-7.2961,11661,12586,1,12586,1,0.00035916,5.7399e-10,0,0.00041858,3.7511e-05,8.308e+07,147.92,0,1.1851e+08,13.298,12585,534.87,0,534.87,0,0.0003221,4.9689e-10,0,0.00017034,6.0204e-05,9.6026e+07,123.6,0,4.7831e+07,17.464,534.87,1
1848,1.97,12125,1,12125,1,8.052e-05,-1.2073e-10,0,0.00028626,-1.4666e-05,21.853,-29.93,0,8.3669e+07,4.7439,12124,13096,1,13096,1,0.00062144,6.4925e-10,0,0.00062144,8.6472e-05,1.3183e+08,167.21,0,1.8725e+08,49.159,13095,12124,1,12124,1,8.052e-05,-5.07e-11,0,0.00028048,-1.4645e-05,2.264e+07,-12.023,0,8.3504e+07,3.0876,12123,11201,1,11201,1,-0.0004604,-1.0524e-09,0,1.965e-05,-0.00011584,-1.8725e+08,-250.7,0,6.0454e+06,-24.618,11200,11662,1,11662,1,-0.00019996,-4.4475e-10,0,0.00014024,-6.7074e-05,-8.1315e+07,-113.98,0,4.3753e+07,-1.9086,11661,12586,1,12586,1,0.000361,1.7088e-10,0,0.00042072,3.7703e-05,8.3504e+07,43.041,0,1.1911e+08,12.124,12585,534.87,0,534.87,0,0.00032375,4.2514e-10,0,0.00017121,6.0511e-05,9.6516e+07,107.27,0,4.8075e+07,10.475,534.87,1
1848,1.98,12125,1,12125,1,8.0929e-05,-6.0483e-10,0,0.00028771,-1.474e-05,2.7506,-151.87,0,8.4093e+07,6.5893,12124,13096,1,13096,1,0.0006246,1.9216e-10,0,0.0006246,8.6911e-05,1.3249e+08,65.799,0,1.8821e+08,45.886,13095,12124,1,12124,1,8.0929e-05,-6.0499e-10,0,0.0002819,-1.4719e-05,2.2755e+07,-158.59,0,8.3928e+07,5.6052,12123,11201,1,11201,1,-0.00046274,-1.4858e-09,0,1.975e-05,-0.00011642,-1.8821e+08,-354.83,0,6.076e+06,-25.137,11200,11662,1,11662,1,-0.00020097,-9.4872e-10,0,0.00014095,-6.7414e-05,-8.1727e+07,-238.97,0,4.3975e+07,-2.3358,11661,12586,1,12586,1,0.00036283,-2.6151e-10,0,0.00042285,3.7894e-05,8.3928e+07,-66.359,0,1.1972e+08,16.245,12585,534.87,0,534.87,0,0.00032539,4.2417e-10,0,0.00017208,6.0818e-05,9.7006e+07,103.2,0,4.8319e+07,12.453,534.87,1
1848,1.99,12125,1,12125,1,8.1338e-05,2.8927e-10,0,0.00028917,-1.4815e-05,8.5322,71.916,0,8.4519e+07,-5.4739,12124,13096,1,13096,1,0.00062776,8.9238e-10,0,0.00062776,8.735e-05,1.3316e+08,219.14,0,1.8916e+08,19.988,13095,12124,1,12124,1,8.1338e-05,2.5551e-10,0,0.00028333,-1.4793e-05,2.287e+07,67.966,0,8.4353e+07,-5.008,12123,11201,1,11201,1,-0.00046508,-1.3624e-10,0,1.985e-05,-0.00011701,-1.8916e+08,-46.653,0,6.1068e+06,-24.799,11200,11662,1,11662,1,-0.00020199,6.932e-11,0,0.00014166,-6.7755e-05,-8.2141e+07,18.905,0,4.4197e+07,-11.867,11661,12586,1,12586,1,0.00036467,4.6281e-10,0,0.00042499,3.8086e-05,8.4353e+07,117.37,0,1.2032e+08,-0.60189,12585,534.87,0,534.87,0,0.00032704,2.5684e-10,0,0.00017295,6.1126e-05,9.7497e+07,62.193,0,4.8563e+07,8.1431,534.87,1
1848,2,12125,1,12125,1,8.1747e-05,3.5253e-11,0,0.00029062,-1.4889e-05,-3.0419,8.4844,0,8.4943e+07,-3.5301,12124,13096,1,13096,1,0.00063091,6.1155e-10,0,0.00063091,8.7789e-05,1.3383e+08,147.71,0,1.9011e+08,12.212,13095,12124,1,12124,1,8.1747e-05,4.9673e-12,0,0.00028475,-1.4868e-05,2.2985e+07,1.0233,0,8.4776e+07,-2.9509,12123,11201,1,11201,1,-0.00046742,-5.2102e-10,0,1.995e-05,-0.0001176,-1.9011e+08,-119.75,0,6.1375e+06,-35.089,11200,11662,1,11662,1,-0.000203,-1.3876e-10,0,0.00014238,-6.8095e-05,-8.2553e+07,-36.562,0,4.4419e+07,-8.8397,11661,12586,1,12586,1,0.0003665,2.3514e-10,0,0.00042713,3.8277e-05,8.4776e+07,60.481,0,1.2093e+08,3.0029,12585,534.87,0,534.87,0,0.00032868,2.6985e-10,0,0.00017382,6.1433e-05,9.7987e+07,67.741,0,4.8807e+07,8.3522,534.87,1
1848,2.01,12125,1,12125,1,8.2155e-05,-3.1404e-10,0,0.00029207,-1.4964e-05,21.663,-79.661,0,8.5367e+07,6.0915,12124,13096,1,13096,1,0.00063406,5.7056e-10,0,0.00063406,8.8227e-05,1.345e+08,134.91,0,1.9106e+08,61.169,13095,12124,1,12124,1,8.2155e-05,-1.4714e-10,0,0.00028617,-1.4942e-05,2.31e+07,-42.864,0,8.5199e+07,3.2962,12123,11201,1,11201,1,-0.00046975,-1.548e-09,0,2.0049e-05,-0.00011819,-1.9106e+08,-370.88,0,6.1681e+06,-24.549,11200,11662,1,11662,1,-0.00020402,-6.9513e-10,0,0.00014309,-6.8435e-05,-8.2965e+07,-180.64,0,4.4641e+07,-4.1439,11661,12586,1,12586,1,0.00036833,7.083e-11,0,0.00042926,3.8468e-05,8.5199e+07,18.96,0,1.2153e+08,14.708,12585,534.87,0,534.87,0,0.00033032,5.2728e-10,0,0.00017469,6.174e-05,9.8476e+07,131.42,0,4.9051e+07,13.962,534.87,1
1848,2.02,12125,1,12125,1,8.2564e-05,2.2955e-10,0,0.00029352,-1.5038e-05,-0.69495,57.663,0,8.5792e+07,2.7741,12124,13096,1,13096,1,0.00063722,1.2833e-09,0,0.00063722,8.8667e-05,1.3517e+08,292.58,0,1.9201e+08,55.873,13095,12124,1,12124,1,8.2564e-05,1.1841e-10,0,0.0002876,-1.5016e-05,2.3215e+07,32.684,0,8.5624e+07,1.0032,12123,11201,1,11201,1,-0.00047209,-4.1405e-10,0,2.0149e-05,-0.00011878,-1.9201e+08,-103.67,0,6.1988e+06,-37.924,11200,11662,1,11662,1,-0.00020503,-5.6554e-11,0,0.0001438,-6.8776e-05,-8.3379e+07,-13.383,0,4.4863e+07,-4.6657,11661,12586,1,12586,1,0.00037016,4.9803e-10,0,0.0004314,3.866e-05,8.5624e+07,130,0,1.2213e+08,10.65,12585,534.87,0,534.87,0,0.00033197,3.9169e-10,0,0.00017556,6.2047e-05,9.8966e+07,96.932,0,4.9295e+07,11.274,534.87,1
1848,2.03,12125,1,12125,1,8.2973e-05,3.3518e-10,0,0.00029498,-1.5113e-05,0.18753,83.659,0,8.6217e+07,-2.3048,12124,13096,1,13096,1,0.00064038,1.1249e-09,0,0.00064038,8.9106e-05,1.3584e+08,248.04,0,1.9296e+08,25.765,13095,12124,1,12124,1,8.2973e-05,3.1304e-10,0,0.00028902,-1.5091e-05,2.333e+07,81.888,0,8.6048e+07,-0.95813,12123,11201,1,11201,1,-0.00047443,-1.2521e-10,0,2.0249e-05,-0.00011936,-1.9296e+08,-42.872,0,6.2295e+06,-40.346,11200,11662,1,11662,1,-0.00020605,1.1632e-10,0,0.00014451,-6.9117e-05,-8.3792e+07,28.586,0,4.5086e+07,-5.4122,11661,12586,1,12586,1,0.00037199,5.2901e-10,0,0.00043353,3.8851e-05,8.6048e+07,132.48,0,1.2274e+08,3.3469,12585,534.87,0,534.87,0,0.00033361,2.718e-10,0,0.00017643,6.2355e-05,9.9456e+07,65.596,0,4.9539e+07,9.168,534.87,1
1848,2.04,12125,1,12125,1,8.3382e-05,-1.2896e-10,0,0.00029643,-1.5187e-05,-20.175,-31.747,0,8.6643e+07,2.3469,12124,13096,1,13096,1,0.00064353,6.6663e-11,0,0.00064353,8.9545e-05,1.3651e+08,22.827,0,1.9391e+08,16.336,13095,12124,1,12124,1,8.3382e-05,-1.2762e-10,0,0.00029045,-1.5165e-05,2.3445e+07,-34.499,0,8.6472e+07,2.2467,12123,11201,1,11201,1,-0.00047677,-4.1289e-10,0,2.0349e-05,-0.00011995,-1.9391e+08,-90.429,0,6.2602e+06,-15.905,11200,11662,1,11662,1,-0.00020707,-2.2156e-10,0,0.00014522,-6.9458e-05,-8.4205e+07,-52.773,0,4.5308e+07,1.0417,11661,12586,1,12586,1,0.00037383,-4.2564e-11,0,0.00043567,3.9043e-05,8.6472e+07,-10.456,0,1.2335e+08,3.9424,12585,534.87,0,534.87,0,0.00033526,1.0897e-10,0,0.0001773,6.2662e-05,9.9947e+07,25.749,0,4.9784e+07,3.4974,534.87,1
1848,2.05,12125,1,12125,1,8.379e-05,4.8335e-10,0,0.00029788,-1.5262e-05,10.916,122.17,0,8.7067e+07,-2.0542,12124,13096,1,13096,1,0.00064669,1.8147e-09,0,0.00064669,8.9984e-05,1.3718e+08,435.79,0,1.9486e+08,56.541,13095,12124,1,12124,1,8.379e-05,3.8651e-10,0,0.00029187,-1.5239e-05,2.3559e+07,98.496,0,8.6896e+07,-1.7376,12123,11201,1,11201,1,-0.0004791,-1.8679e-10,0,2.0448e-05,-0.00012054,-1.9486e+08,-63.956,0,6.2909e+06,-54.747,11200,11662,1,11662,1,-0.00020808,8.1728e-11,0,0.00014593,-6.9798e-05,-8.4617e+07,20.113,0,4.553e+07,-10.263,11661,12586,1,12586,1,0.00037566,8.0364e-10,0,0.0004378,3.9234e-05,8.6896e+07,208.36,0,1.2395e+08,7.2286,12585,534.87,0,534.87,0,0.0003369,4.6113e-10,0,0.00017816,6.2969e-05,1.0044e+08,116.15,0,5.0027e+07,13.236,534.87,1
1848,2.06,12125,1,12125,1,8.4199e-05,-4.2388e-11,0,0.00029934,-1.5336e-05,-25.447,-10.097,0,8.7492e+07,-0.38108,12124,13096,1,13096,1,0.00064984,3.1933e-10,0,0.00064984,9.0423e-05,1.3785e+08,76.716,0,1.9581e+08,28.085,13095,12124,1,12124,1,8.4199e-05,1.0163e-12,0,0.00029329,-1.5314e-05,2.3674e+07,0.20914,0,8.732e+07,0.96862,12123,11201,1,11201,1,-0.00048144,-6.3311e-10,0,2.0548e-05,-0.00012113,-1.9581e+08,-158.68,0,6.3216e+06,-29.252,11200,11662,1,11662,1,-0.00020909,-1.7786e-10,0,0.00014665,-7.0138e-05,-8.503e+07,-45.514,0,4.5752e+07,-5.3482,11661,12586,1,12586,1,0.00037749,1.195e-10,0,0.00043994,3.9425e-05,8.732e+07,30.47,0,1.2455e+08,4.5921,12585,534.87,0,534.87,0,0.00033854,2.2734e-10,0,0.00017903,6.3276e-05,1.0093e+08,56.148,0,5.0272e+07,8.1889,534.87,1
1848,2.07,12125,1,12125,1,8.4608e-05,4.4735e-10,0,0.00030079,-1.5411e-05,5.7853,112.3,0,8.7917e+07,2.0598,12124,13096,1,13096,1,0.000653,1.5246e-09,0,0.000653,9.0862e-05,1.3852e+08,335.63,0,1.9676e+08,69.961,13095,12124,1,12124,1,8.4608e-05,4.0682e-10,0,0.00029472,-1.5388e-05,2.3789e+07,107.06,0,8.7744e+07,1.3072,12123,11201,1,11201,1,-0.00048378,-2.2054e-10,0,2.0648e-05,-0.00012172,-1.9676e+08,-75.506,0,6.3523e+06,-58.459,11200,11662,1,11662,1,-0.00021011,1.7962e-10,0,0.00014736,-7.0479e-05,-8.5443e+07,45.778,0,4.5974e+07,-5.3823,11661,12586,1,12586,1,0.00037933,6.8755e-10,0,0.00044208,3.9617e-05,8.7744e+07,175.29,0,1.2516e+08,9.9155,12585,534.87,0,534.87,0,0.00034019,3.5518e-10,0,0.0001799,6.3584e-05,1.0142e+08,87.073,0,5.0516e+07,13.921,534.87,1
1848,2.08,12125,1,12125,1,8.5018e-05,3.2346e-10,0,0.00030225,-1.5485e-05,20.864,81.709,0,8.8342e+07,-3.8335,12124,13096,1,13096,1,0.00065615,8.6371e-10,0,0.00065615,9.1301e-05,1.3919e+08,206.35,0,1.9771e+08,8.9479,13095,12124,1,12124,1,8.5017e-05,3.0643e-10,0,0.00029614,-1.5463e-05,2.3904e+07,81.017,0,8.8168e+07,-2.8011,12123,11201,1,11201,1,-0.00048612,-9.0388e-11,0,2.0748e-05,-0.00012231,-1.9771e+08,-30.951,0,6.383e+06,-30.872,11200,11662,1,11662,1,-0.00021113,1.2319e-10,0,0.00014807,-7.082e-05,-8.5856e+07,32.374,0,4.6197e+07,-6.744,11661,12586,1,12586,1,0.00038116,4.8705e-10,0,0.00044421,3.9808e-05,8.8168e+07,120.43,0,1.2576e+08,0.56102,12585,534.87,0,534.87,0,0.00034183,2.3598e-10,0,0.00018077,6.3891e-05,1.0191e+08,57.834,0,5.076e+07,6.5957,534.87,1
1848,2.09,12125,1,12125,1,8.5425e-05,-1.5813e-10,0,0.00030369,-1.5559e-05,17.825,-40.154,0,8.8765e+07,2.1163,12124,13096,1,13096,1,0.0006593,2.4822e-10,0,0.0006593,9.1739e-05,1.3986e+08,64.715,0,1.9866e+08,21.392,13095,12124,1,12124,1,8.5425e-05,-8.8875e-11,0,0.00029756,-1.5537e-05,2.4019e+07,-25.071,0,8.8591e+07,1.6632,12123,11201,1,11201,1,-0.00048845,-7.6989e-10,0,2.0847e-05,-0.00012289,-1.9866e+08,-183.73,0,6.4136e+06,-16.698,11200,11662,1,11662,1,-0.00021214,-3.2682e-10,0,0.00014878,-7.1159e-05,-8.6268e+07,-85.653,0,4.6418e+07,-2.8043,11661,12586,1,12586,1,0.00038299,2.9693e-11,0,0.00044635,3.9999e-05,8.8591e+07,7.3012,0,1.2637e+08,6.789,12585,534.87,0,534.87,0,0.00034347,2.5832e-10,0,0.00018164,6.4197e-05,1.024e+08,63.872,0,5.1003e+07,6.4702,534.87,1
1848,2.1,12125,1,12125,1,8.5834e-05,-1.9045e-10,0,0.00030515,-1.5634e-05,-15.806,-47.197,0,8.9191e+07,-1.2593,12124,13096,1,13096,1,0.00066246,3.3418e-10,0,0.00066246,9.2179e-05,1.4053e+08,82.77,0,1.9961e+08,41.946,13095,12124,1,12124,1,8.5834e-05,-5.4493e-11,0,0.00029899,-1.5611e-05,2.4134e+07,-14.823,0,8.9015e+07,0.55256,12123,11201,1,11201,1,-0.00049079,-1.2793e-09,0,2.0947e-05,-0.00012348,-1.9961e+08,-303.6,0,6.4443e+06,-61.788,11200,11662,1,11662,1,-0.00021315,-4.2547e-10,0,0.00014949,-7.15e-05,-8.6681e+07,-108.01,0,4.664e+07,-8.1007,11661,12586,1,12586,1,0.00038482,8.2423e-11,0,0.00044848,4.0191e-05,8.9015e+07,21.633,0,1.2697e+08,4.7813,12585,534.87,0,534.87,0,0.00034512,3.6747e-10,0,0.00018251,6.4505e-05,1.0289e+08,90.621,0,5.1248e+07,12.864,534.87,1
1848,2.11,12125,1,12125,1,8.6243e-05,3.8233e-10,0,0.0003066,-1.5708e-05,0.23548,96.297,0,8.9615e+07,-5.8871,12124,13096,1,13096,1,0.00066561,1.2839e-09,0,0.00066561,9.2617e-05,1.4119e+08,314.19,0,2.0056e+08,11.559,13095,12124,1,12124,1,8.6243e-05,2.9712e-10,0,0.00030041,-1.5685e-05,2.4249e+07,76.461,0,8.9439e+07,-4.3738,12123,11201,1,11201,1,-0.00049313,-1.8196e-10,0,2.1047e-05,-0.00012407,-2.0056e+08,-54.347,0,6.475e+06,-24.256,11200,11662,1,11662,1,-0.00021417,4.4163e-11,0,0.00015021,-7.184e-05,-8.7094e+07,10.242,0,4.6862e+07,-12.381,11661,12586,1,12586,1,0.00038665,6.5793e-10,0,0.00045062,4.0382e-05,8.9439e+07,174.63,0,1.2758e+08,0.049717,12585,534.87,0,534.87,0,0.00034676,3.8387e-10,0,0.00018338,6.4812e-05,1.0338e+08,94.808,0,5.1492e+07,8.2995,534.87,1
1848,2.12,12125,1,12125,1,8.6651e-05,-1.0102e-10,0,0.00030805,-1.5783e-05,-7.029,-25.677,0,9.0039e+07,4.8272,12124,13096,1,13096,1,0.00066876,4.4902e-10,0,0.00066876,9.3056e-05,1.4186e+08,114.69,0,2.0151e+08,48.7,13095,12124,1,12124,1,8.6651e-05,-4.749e-11,0,0.00030183,-1.576e-05,2.4364e+07,-11.671,0,8.9862e+07,3.3723,12123,11201,1,11201,1,-0.00049546,-7.8931e-10,0,2.1147e-05,-0.00012466,-2.0151e+08,-187.21,0,6.5057e+06,-29.534,11200,11662,1,11662,1,-0.00021518,-3.2516e-10,0,0.00015092,-7.2181e-05,-8.7506e+07,-82.684,0,4.7084e+07,-2.2564,11661,12586,1,12586,1,0.00038849,1.0784e-10,0,0.00045275,4.0574e-05,8.9862e+07,26.354,0,1.2818e+08,11.801,12585,534.87,0,534.87,0,0.0003484,3.0861e-10,0,0.00018425,6.5119e-05,1.0387e+08,77.119,0,5.1736e+07,10.435,534.87,1
1848,2.13,12125,1,12125,1,8.7059e-05,7.4189e-11,0,0.0003095,-1.5857e-05,2.9046,17.684,0,9.0463e+07,3.0399,12124,13096,1,13096,1,0.00067191,1.0257e-09,0,0.00067191,9.3494e-05,1.4253e+08,235.26,0,2.0246e+08,49.439,13095,12124,1,12124,1,8.7059e-05,1.7572e-11,0,0.00030326,-1.5834e-05,2.4479e+07,4.1953,0,9.0286e+07,2.9603,12123,11201,1,11201,1,-0.00049779,-8.2301e-10,0,2.1246e-05,-0.00012524,-2.0246e+08,-195.86,0,6.5363e+06,-38.153,11200,11662,1,11662,1,-0.0002162,-1.6498e-10,0,0.00015163,-7.2521e-05,-8.7918e+07,-43.248,0,4.7306e+07,-3.8179,11661,12586,1,12586,1,0.00039032,3.4125e-10,0,0.00045488,4.0765e-05,9.0286e+07,86.761,0,1.2878e+08,10.879,12585,534.87,0,534.87,0,0.00035004,3.9254e-10,0,0.00018511,6.5426e-05,1.0435e+08,97.488,0,5.1979e+07,10.695,534.87,1
1848,2.14,12125,1,12125,1,8.7468e-05,-9.8708e-11,0,0.00031096,-1.5931e-05,-1.0677,-25.209,0,9.0889e+07,-0.12978,12124,13096,1,13096,1,0.00067507,9.2976e-12,0,0.00067507,9.3933e-05,1.432e+08,1.7818,0,2.0341e+08,6.831,13095,12124,1,12124,1,8.7468e-05,-9.5593e-11,0,0.00030468,-1.5908e-05,2.4594e+07,-24.711,0,9.071e+07,-0.36728,12123,11201,1,11201,1,-0.00050013,-3.0554e-10,0,2.1346e-05,-0.00012583,-2.0341e+08,-77.929,0,6.5671e+06,-7.6816,11200,11662,1,11662,1,-0.00021721,-1.2702e-10,0,0.00015234,-7.2861e-05,-8.8331e+07,-32.553,0,4.7528e+07,-1.9073,11661,12586,1,12586,1,0.00039215,-5.9588e-11,0,0.00045702,4.0956e-05,9.071e+07,-15.591,0,1.2939e+08,1.3543,12585,534.87,0,534.87,0,0.00035169,5.3888e-11,0,0.00018598,6.5733e-05,1.0485e+08,13.642,0,5.2223e+07,2.7721,534.87,1
1848,2.15,12125,1,12125,1,8.7877e-05,-2.3297e-10,0,0.00031241,-1.6006e-05,-0.22323,-58.297,0,9.1313e+07,2.5338,12124,13096,1,13096,1,0.00067822,8.6909e-11,0,0.00067822,9.4372e-05,1.4387e+08,29.76,0,2.0436e+08,26.217,13095,12124,1,12124,1,8.7877e-05,-2.1208e-10,0,0.0003061,-1.5983e-05,2.4709e+07,-53.924,0,9.1134e+07,1.8223,12123,11201,1,11201,1,-0.00050247,-6.8537e-10,0,2.1446e-05,-0.00012642,-2.0436e+08,-164.5,0,6.5977e+06,-19.645,11200,11662,1,11662,1,-0.00021823,-3.7889e-10,0,0.00015305,-7.3202e-05,-8.8744e+07,-96.486,0,4.775e+07,-1.1072,11661,12586,1,12586,1,0.00039398,-6.5672e-11,0,0.00045916,4.1148e-05,9.1134e+07,-15.943,0,1.2999e+08,5.6473,12585,534.87,0,534.87,0,0.00035333,1.9808e-10,0,0.00018685,6.604e-05,1.0533e+08,49.2,0,5.2467e+07,6.0995,534.87,1
1848,2.16,12125,1,12125,1,8.8287e-05,3.3459e-10,0,0.00031387,-1.6081e-05,0.55032,83.925,0,9.1739e+07,-0.61741,12124,13096,1,13096,1,0.00068139,8.9603e-10,0,0.00068139,9.4812e-05,1.4454e+08,219.41,0,2.0532e+08,68.152,13095,12124,1,12124,1,8.8287e-05,3.2148e-10,0,0.00030753,-1.6057e-05,2.4824e+07,84.271,0,9.1558e+07,-0.40104,12123,11201,1,11201,1,-0.00050481,-2.7253e-10,0,2.1546e-05,-0.00012701,-2.0532e+08,-48.768,0,6.6285e+06,-711.51,11200,11662,1,11662,1,-0.00021924,1.248e-10,0,0.00015377,-7.3543e-05,-8.9158e+07,30.623,0,4.7973e+07,-6.7808,11661,12586,1,12586,1,0.00039582,5.3265e-10,0,0.0004613,4.1339e-05,9.1558e+07,138.6,0,1.306e+08,5.2845,12585,534.87,0,534.87,0,0.00035498,2.6129e-10,0,0.00018772,6.6348e-05,1.0583e+08,63.362,0,5.2712e+07,26.402,534.87,1
1848,2.17,12125,1,12125,1,8.8695e-05,5.6055e-10,0,0.00031532,-1.6155e-05,2.3315,140.19,0,9.2163e+07,-0.23974,12124,13096,1,13096,1,0.00068454,2.4951e-09,0,0.00068454,9.5251e-05,1.4521e+08,555.95,0,2.0627e+08,74.764,13095,12124,1,12124,1,8.8695e-05,3.6251e-10,0,0.00030895,-1.6131e-05,2.4939e+07,92.191,0,9.1982e+07,0.91051,12123,11201,1,11201,1,-0.00050715,-2.9391e-10,0,2.1645e-05,-0.0001276,-2.0627e+08,-100.63,0,6.6591e+06,-102.22,11200,11662,1,11662,1,-0.00022026,6.1876e-11,0,0.00015448,-7.3883e-05,-8.957e+07,15.663,0,4.8195e+07,-11.527,11661,12586,1,12586,1,0.00039765,9.3476e-10,0,0.00046343,4.153e-05,9.1982e+07,239.82,0,1.312e+08,13.637,12585,534.87,0,534.87,0,0.00035662,6.0847e-10,0,0.00018859,6.6655e-05,1.0632e+08,150.14,0,5.2956e+07,22.22,534.87,1
1848,2.18,12125,1,12125,1,8.9103e-05,-6.8799e-12,0,0.00031677,-1.6229e-05,16.348,-1.9848,0,9.2587e+07,4.609,12124,13096,1,13096,1,0.00068768,1.1112e-09,0,0.00068768,9.5689e-05,1.4588e+08,273.73,0,2.0721e+08,57.273,13095,12124,1,12124,1,8.9103e-05,-9.5932e-12,0,0.00031037,-1.6206e-05,2.5053e+07,-2.7986,0,9.2405e+07,2.6638,12123,11201,1,11201,1,-0.00050948,-1.0295e-09,0,2.1745e-05,-0.00012818,-2.0721e+08,-245.72,0,6.6897e+06,-40.654,11200,11662,1,11662,1,-0.00022127,-3.6746e-10,0,0.00015519,-7.4223e-05,-8.9982e+07,-94.034,0,4.8417e+07,-6.2138,11661,12586,1,12586,1,0.00039948,3.4292e-10,0,0.00046556,4.1722e-05,9.2405e+07,85.199,0,1.3181e+08,15.021,12585,534.87,0,534.87,0,0.00035826,5.1814e-10,0,0.00018946,6.6961e-05,1.068e+08,128.76,0,5.3199e+07,14.266,534.87,1
1848,2.19,12125,1,12125,1,8.9513e-05,-1.4019e-10,0,0.00031823,-1.6304e-05,1.0507,-34.955,0,9.3013e+07,2.8978,12124,13096,1,13096,1,0.00069085,1.285e-10,0,0.00069085,9.6129e-05,1.4655e+08,44,0,2.0817e+08,13.531,13095,12124,1,12124,1,8.9513e-05,-1.1315e-10,0,0.0003118,-1.628e-05,2.5168e+07,-30.935,0,9.283e+07,2.9681,12123,11201,1,11201,1,-0.00051182,-4.5417e-10,0,2.1845e-05,-0.00012877,-2.0817e+08,-106.68,0,6.7205e+06,-15.093,11200,11662,1,11662,1,-0.00022229,-2.1911e-10,0,0.0001559,-7.4564e-05,-9.0396e+07,-57.739,0,4.8639e+07,0.04051,11661,12586,1,12586,1,0.00040131,-4.5248e-11,0,0.0004677,4.1913e-05,9.283e+07,-11.379,0,1.3241e+08,5.6214,12585,534.87,0,534.87,0,0.00035991,1.3068e-10,0,0.00019033,6.7269e-05,1.073e+08,31.727,0,5.3444e+07,4.3558,534.87,1
1848,2.2,12125,1,12125,1,8.9921e-05,-5.0778e-12,0,0.00031968,-1.6378e-05,1.02,-0.52156,0,9.3437e+07,-0.932,12124,13096,1,13096,1,0.000694,2.7309e-10,0,0.000694,9.6567e-05,1.4722e+08,66.553,0,2.0912e+08,24.959,13095,12124,1,12124,1,8.9921e-05,2.8528e-11,0,0.00031322,-1.6354e-05,2.5283e+07,7.3591,0,9.3253e+07,-0.10133,12123,11201,1,11201,1,-0.00051416,-4.9655e-10,0,2.1945e-05,-0.00012936,-2.0912e+08,-113.39,0,6.7512e+06,-27.785,11200,11662,1,11662,1,-0.0002233,-1.1057e-10,0,0.00015661,-7.4905e-05,-9.0808e+07,-28.2,0,4.8861e+07,-4.8179,11661,12586,1,12586,1,0.00040315,1.2124e-10,0,0.00046984,4.2105e-05,9.3253e+07,32.4,0,1.3302e+08,3.1074,12585,534.87,0,534.87,0,0.00036155,1.7388e-10,0,0.0001912,6.7576e-05,1.0779e+08,43.259,0,5.3688e+07,6.1517,534.87,1
1848,2.21,12125,1,12125,1,9.033e-05,1.4254e-10,0,0.00032113,-1.6453e-05,-1.6246,34.924,0,9.3862e+07,-3.5293,12124,13096,1,13096,1,0.00069715,7.3718e-10,0,0.00069715,9.7006e-05,1.4789e+08,180.55,0,2.1007e+08,17.709,13095,12124,1,12124,1,9.033e-05,6.8969e-11,0,0.00031465,-1.6429e-05,2.5398e+07,17.757,0,9.3677e+07,-2.0997,12123,11201,1,11201,1,-0.00051649,-2.0073e-10,0,2.2044e-05,-0.00012995,-2.1007e+08,-49.822,0,6.7819e+06,-24.001,11200,11662,1,11662,1,-0.00022432,-3.3137e-11,0,0.00015732,-7.5245e-05,-9.1221e+07,-9.1705,0,4.9083e+07,-7.9874,11661,12586,1,12586,1,0.00040498,2.9449e-10,0,0.00047197,4.2296e-05,9.3677e+07,76.748,0,1.3362e+08,0.93221,12585,534.87,0,534.87,0,0.00036319,2.2954e-10,0,0.00019207,6.7883e-05,1.0828e+08,56.063,0,5.3932e+07,7.8671,534.87,1
1848,2.22,12125,1,12125,1,9.0738e-05,-5.3205e-10,0,0.00032258,-1.6527e-05,19.855,-134.37,0,9.4286e+07,1.8866,12124,13096,1,13096,1,0.00070031,1.7548e-10,0,0.00070031,9.7445e-05,1.4855e+08,60.088,0,2.1102e+08,38.728,13095,12124,1,12124,1,9.0738e-05,-4.1537e-10,0,0.00031607,-1.6503e-05,2.5513e+07,-106.08,0,9.4101e+07,0.51077,12123,11201,1,11201,1,-0.00051883,-1.6104e-09,0,2.2144e-05,-0.00013054,-2.1102e+08,-382.23,0,6.8125e+06,-31.942,11200,11662,1,11662,1,-0.00022533,-8.4998e-10,0,0.00015804,-7.5585e-05,-9.1633e+07,-222.36,0,4.9305e+07,-4.95,11661,12586,1,12586,1,0.00040681,-1.4504e-10,0,0.00047411,4.2487e-05,9.4101e+07,-38.179,0,1.3423e+08,8.4359,12585,534.87,0,534.87,0,0.00036483,4.5155e-10,0,0.00019294,6.819e-05,1.0876e+08,111.33,0,5.4176e+07,11.198,534.87,1
1848,2.23,12125,1,12125,1,9.1147e-05,2.9383e-10,0,0.00032404,-1.6602e-05,-8.2287,74.021,0,9.4711e+07,-0.57364,12124,13096,1,13096,1,0.00070346,7.9553e-10,0,0.00070346,9.7885e-05,1.4922e+08,181.23,0,2.1197e+08,24.545,13095,12124,1,12124,1,9.1147e-05,2.886e-10,0,0.0003175,-1.6577e-05,2.5628e+07,75.583,0,9.4525e+07,-0.58668,12123,11201,1,11201,1,-0.00052117,-8.333e-11,0,2.2244e-05,-0.00013112,-2.1197e+08,-28.534,0,6.8432e+06,-22.475,11200,11662,1,11662,1,-0.00022635,1.3144e-10,0,0.00015875,-7.5926e-05,-9.2047e+07,35.423,0,4.9527e+07,-5.6922,11661,12586,1,12586,1,0.00040864,4.545e-10,0,0.00047624,4.2679e-05,9.4525e+07,113.38,0,1.3483e+08,3.2653,12585,534.87,0,534.87,0,0.00036648,2.0303e-10,0,0.00019381,6.8498e-05,1.0925e+08,49.704,0,5.442e+07,7.3599,534.87,1
1848,2.24,12125,1,12125,1,9.1556e-05,3.5967e-10,0,0.00032549,-1.6676e-05,2.3713,89.731,0,9.5136e+07,-3.7609,12124,13096,1,13096,1,0.00070662,8.7609e-10,0,0.00070662,9.8324e-05,1.4989e+08,210.86,0,2.1292e+08,17.794,13095,12124,1,12124,1,9.1556e-05,3.6192e-10,0,0.00031892,-1.6652e-05,2.5743e+07,95.591,0,9.4949e+07,-2.9425,12123,11201,1,11201,1,-0.00052351,-1.3871e-10,0,2.2344e-05,-0.00013171,-2.1292e+08,-47.496,0,6.8739e+06,-34.946,11200,11662,1,11662,1,-0.00022736,1.4298e-10,0,0.00015946,-7.6267e-05,-9.246e+07,36.409,0,4.975e+07,-8.0071,11661,12586,1,12586,1,0.00041048,5.7433e-10,0,0.00047838,4.287e-05,9.4949e+07,146.58,0,1.3544e+08,1.5458,12585,534.87,0,534.87,0,0.00036812,2.6973e-10,0,0.00019468,6.8805e-05,1.0975e+08,65.588,0,5.4664e+07,7.9182,534.87,1
1848,2.25,12125,1,12125,1,9.1964e-05,2.4802e-10,0,0.00032694,-1.675e-05,-9.1455,62.332,0,9.556e+07,-1.6099,12124,13096,1,13096,1,0.00070977,7.6756e-10,0,0.00070977,9.8762e-05,1.5056e+08,185.15,0,2.1387e+08,18.501,13095,12124,1,12124,1,9.1964e-05,2.073e-10,0,0.00032034,-1.6726e-05,2.5858e+07,52.962,0,9.5372e+07,-1.2999,12123,11201,1,11201,1,-0.00052584,-1.2234e-10,0,2.2443e-05,-0.0001323,-2.1387e+08,-41.894,0,6.9046e+06,-19.014,11200,11662,1,11662,1,-0.00022838,9.9694e-11,0,0.00016017,-7.6607e-05,-9.2872e+07,26.148,0,4.9971e+07,-5.7624,11661,12586,1,12586,1,0.00041231,3.8093e-10,0,0.00048051,4.3061e-05,9.5372e+07,96.879,0,1.3604e+08,1.5296,12585,534.87,0,534.87,0,0.00036976,2.0115e-10,0,0.00019554,6.9112e-05,1.1023e+08,49.324,0,5.4908e+07,7.3503,534.87,1
1848,2.26,12125,1,12125,1,9.2374e-05,5.6532e-10,0,0.0003284,-1.6825e-05,-15.887,142.79,0,9.5986e+07,-1.2121,12124,13096,1,13096,1,0.00071293,1.3726e-09,0,0.00071293,9.9202e-05,1.5123e+08,312.39,0,2.1482e+08,29.549,13095,12124,1,12124,1,9.2374e-05,5.5697e-10,0,0.00032177,-1.68e-05,2.5973e+07,145.52,0,9.5797e+07,-2.3123,12123,11201,1,11201,1,-0.00052818,-1.1865e-10,0,2.2543e-05,-0.00013289,-2.1482e+08,-40.627,0,6.9353e+06,-41.752,11200,11662,1,11662,1,-0.00022939,2.6003e-10,0,0.00016088,-7.6948e-05,-9.3285e+07,61.999,0,5.0194e+07,-6.7759,11661,12586,1,12586,1,0.00041414,8.5161e-10,0,0.00048265,4.3253e-05,9.5797e+07,224.86,0,1.3665e+08,3.4922,12585,534.87,0,534.87,0,0.00037141,3.852e-10,0,0.00019641,6.9419e-05,1.1072e+08,94.971,0,5.5152e+07,9.8585,534.87,1
1848,2.27,12125,1,12125,1,9.2782e-05,6.7896e-11,0,0.00032985,-1.6899e-05,8.8434,16.578,0,9.641e+07,2.2844,12124,13096,1,13096,1,0.00071608,1.1882e-09,0,0.00071608,9.964e-05,1.519e+08,273.52,0,2.1577e+08,64.117,13095,12124,1,12124,1,9.2782e-05,5.9282e-12,0,0.00032319,-1.6875e-05,2.6088e+07,1.4049,0,9.622e+07,-0.33273,12123,11201,1,11201,1,-0.00053051,-8.2993e-10,0,2.2643e-05,-0.00013348,-2.1577e+08,-204.11,0,6.9659e+06,-43.873,11200,11662,1,11662,1,-0.00023041,-2.57e-10,0,0.00016159,-7.7288e-05,-9.3697e+07,-65.263,0,5.0416e+07,-7.883,11661,12586,1,12586,1,0.00041597,3.9115e-10,0,0.00048478,4.3444e-05,9.622e+07,97.774,0,1.3725e+08,12.382,12585,534.87,0,534.87,0,0.00037305,4.6939e-10,0,0.00019728,6.9726e-05,1.1121e+08,117.36,0,5.5396e+07,13.717,534.87,1
1848,2.28,12125,1,12125,1,9.3191e-05,-3.8407e-10,0,0.0003313,-1.6974e-05,-2.2518,-95.841,0,9.6834e+07,7.8328,12124,13096,1,13096,1,0.00071924,2.1414e-10,0,0.00071924,0.00010008,1.5257e+08,73.325,0,2.1672e+08,26.32,13095,12124,1,12124,1,9.3191e-05,-3.1719e-10,0,0.00032461,-1.6949e-05,2.6203e+07,-82.578,0,9.6644e+07,6.5151,12123,11201,1,11201,1,-0.00053285,-1.1431e-09,0,2.2743e-05,-0.00013406,-2.1672e+08,-273.37,0,6.9966e+06,-13.028,11200,11662,1,11662,1,-0.00023142,-6.1081e-10,0,0.00016231,-7.7628e-05,-9.411e+07,-162.76,0,5.0638e+07,2.5055,11661,12586,1,12586,1,0.0004178,-8.0846e-11,0,0.00048692,4.3636e-05,9.6644e+07,-23.397,0,1.3785e+08,13.826,12585,534.87,0,534.87,0,0.00037469,3.456e-10,0,0.00019815,7.0033e-05,1.117e+08,82.768,0,5.564e+07,8.2086,534.87,1
1848,2.29,12125,1,12125,1,9.36e-05,4.1013e-10,0,0.00033276,-1.7048e-05,12.497,102.58,0,9.726e+07,-1.4422,12124,13096,1,13096,1,0.00072239,1.1364e-09,0,0.00072239,0.00010052,1.5324e+08,251.05,0,2.1767e+08,49.958,13095,12124,1,12124,1,9.36e-05,4.1862e-10,0,0.00032604,-1.7023e-05,2.6318e+07,110.97,0,9.7068e+07,-2.2106,12123,11201,1,11201,1,-0.00053519,-1.8524e-10,0,2.2842e-05,-0.00013465,-2.1767e+08,-63.429,0,7.0273e+06,-43.494,11200,11662,1,11662,1,-0.00023244,1.6741e-10,0,0.00016302,-7.7969e-05,-9.4523e+07,42.539,0,5.086e+07,-6.9822,11661,12586,1,12586,1,0.00041964,6.5866e-10,0,0.00048906,4.3827e-05,9.7068e+07,166.96,0,1.3846e+08,3.9562,12585,534.87,0,534.87,0,0.00037634,3.114e-10,0,0.00019902,7.0341e-05,1.1219e+08,76.219,0,5.5884e+07,10.675,534.87,1
1848,2.3,12125,1,12125,1,9.4008e-05,3.776e-11,0,0.00033421,-1.7123e-05,7.1687,9.0528,0,9.7684e+07,-0.060066,12124,13096,1,13096,1,0.00072554,6.8883e-10,0,0.00072554,0.00010096,1.5391e+08,168.98,0,2.1862e+08,28.578,13095,12124,1,12124,1,9.4008e-05,-2.2559e-12,0,0.00032746,-1.7098e-05,2.6432e+07,-0.49219,0,9.7492e+07,-0.37498,12123,11201,1,11201,1,-0.00053752,-6.4995e-10,0,2.2942e-05,-0.00013524,-2.1862e+08,-161.87,0,7.058e+06,-24.104,11200,11662,1,11662,1,-0.00023345,-1.3276e-10,0,0.00016373,-7.8309e-05,-9.4936e+07,-35.98,0,5.1082e+07,-5.2136,11661,12586,1,12586,1,0.00042147,2.4125e-10,0,0.00049119,4.4018e-05,9.7492e+07,61.016,0,1.3906e+08,5.604,12585,534.87,0,534.87,0,0.00037798,2.8808e-10,0,0.00019989,7.0648e-05,1.1268e+08,72.464,0,5.6128e+07,7.0248,534.87,1
1848,2.31,12125,1,12125,1,9.4417e-05,-4.023e-11,0,0.00033566,-1.7197e-05,-19.293,-10.557,0,9.8109e+07,-1.2378,12124,13096,1,13096,1,0.0007287,2.6645e-10,0,0.0007287,0.0001014,1.5458e+08,64.877,0,2.1957e+08,13.468,13095,12124,1,12124,1,9.4417e-05,-3.1605e-11,0,0.00032889,-1.7172e-05,2.6547e+07,-7.3286,0,9.7916e+07,-0.59386,12123,11201,1,11201,1,-0.00053986,-3.6787e-10,0,2.3042e-05,-0.00013583,-2.1957e+08,-92.172,0,7.0887e+06,-23.421,11200,11662,1,11662,1,-0.00023447,-1.3434e-10,0,0.00016444,-7.865e-05,-9.5349e+07,-35.022,0,5.1304e+07,-5.0337,11661,12586,1,12586,1,0.0004233,6.6543e-11,0,0.00049333,4.421e-05,9.7916e+07,16.598,0,1.3967e+08,3.1991,12585,534.87,0,534.87,0,0.00037963,1.4913e-10,0,0.00020076,7.0955e-05,1.1317e+08,37.398,0,5.6372e+07,6.2557,534.87,1
1848,2.32,12125,1,12125,1,9.4827e-05,1.2142e-10,0,0.00033712,-1.7272e-05,-2.2071,30.855,0,9.8535e+07,-1.265,12124,13096,1,13096,1,0.00073186,6.0686e-10,0,0.00073186,0.00010184,1.5525e+08,146.85,0,2.2053e+08,17.215,13095,12124,1,12124,1,9.4827e-05,6.1427e-11,0,0.00033031,-1.7247e-05,2.6663e+07,15.456,0,9.8341e+07,-0.15318,12123,11201,1,11201,1,-0.00054221,-2.5179e-10,0,2.3142e-05,-0.00013642,-2.2053e+08,-67.354,0,7.1195e+06,-18.622,11200,11662,1,11662,1,-0.00023549,-3.9443e-11,0,0.00016516,-7.8991e-05,-9.5763e+07,-10.758,0,5.1527e+07,-4.9852,11661,12586,1,12586,1,0.00042514,2.8822e-10,0,0.00049547,4.4402e-05,9.8341e+07,73.754,0,1.4028e+08,3.3436,12585,534.87,0,534.87,0,0.00038127,2.2284e-10,0,0.00020163,7.1263e-05,1.1367e+08,55.596,0,5.6617e+07,5.8897,534.87,1
1848,2.33,12125,1,12125,1,9.5235e-05,3.4305e-10,0,0.00033857,-1.7346e-05,0.52729,85.772,0,9.8959e+07,-7.274,12124,13096,1,13096,1,0.00073501,1.3149e-09,0,0.00073501,0.00010227,1.5592e+08,311.75,0,2.2147e+08,16.356,13095,12124,1,12124,1,9.5235e-05,2.2955e-10,0,0.00033173,-1.7321e-05,2.6777e+07,57.196,0,9.8764e+07,-6.4311,12123,11201,1,11201,1,-0.00054454,-1.8416e-10,0,2.3241e-05,-0.000137,-2.2147e+08,-63.06,0,7.1501e+06,-28.043,11200,11662,1,11662,1,-0.0002365,2.4714e-11,0,0.00016587,-7.9331e-05,-9.6174e+07,5.351,0,5.1748e+07,-12.311,11661,12586,1,12586,1,0.00042697,5.9906e-10,0,0.0004976,4.4593e-05,9.8764e+07,156.73,0,1.4088e+08,-1.4976,12585,534.87,0,534.87,0,0.00038291,3.8722e-10,0,0.0002025,7.157e-05,1.1415e+08,94.481,0,5.6861e+07,8.5459,534.87,1
1848,2.34,12125,1,12125,1,9.5644e-05,-2.2912e-10,0,0.00034002,-1.7421e-05,3.0623,-57.42,0,9.9384e+07,2.1513,12124,13096,1,13096,1,0.00073817,1.052e-10,0,0.00073817,0.00010271,1.5659e+08,36.022,0,2.2243e+08,17.456,13095,12124,1,12124,1,9.5644e-05,-2.3358e-10,0,0.00033316,-1.7395e-05,2.6892e+07,-60.42,0,9.9189e+07,2.6378,12123,11201,1,11201,1,-0.00054688,-5.6043e-10,0,2.3341e-05,-0.00013759,-2.2243e+08,-133.49,0,7.1809e+06,-23.747,11200,11662,1,11662,1,-0.00023752,-3.5158e-10,0,0.00016658,-7.9672e-05,-9.6588e+07,-90.038,0,5.1971e+07,-0.049915,11661,12586,1,12586,1,0.0004288,-1.0475e-10,0,0.00049974,4.4784e-05,9.9189e+07,-26.767,0,1.4148e+08,5.6119,12585,534.87,0,534.87,0,0.00038456,1.6191e-10,0,0.00020337,7.1877e-05,1.1464e+08,39.415,0,5.7105e+07,5.1775,534.87,1
1848,2.35,12125,1,12125,1,9.6052e-05,4.3046e-10,0,0.00034147,-1.7495e-05,5.4233,108.59,0,9.9808e+07,-0.48164,12124,13096,1,13096,1,0.00074132,1.703e-09,0,0.00074132,0.00010315,1.5725e+08,396.69,0,2.2338e+08,77.436,13095,12124,1,12124,1,9.6052e-05,3.2835e-10,0,0.00033458,-1.7469e-05,2.7007e+07,83.871,0,9.9612e+07,-0.87988,12123,11201,1,11201,1,-0.00054921,-2.9577e-10,0,2.3441e-05,-0.00013818,-2.2338e+08,-72.212,0,7.2115e+06,-46.452,11200,11662,1,11662,1,-0.00023853,4.1342e-11,0,0.00016729,-8.0012e-05,-9.7e+07,9.7036,0,5.2193e+07,-8.513,11661,12586,1,12586,1,0.00043063,7.4975e-10,0,0.00050187,4.4975e-05,9.9612e+07,194.22,0,1.4209e+08,7.6001,12585,534.87,0,534.87,0,0.0003862,4.5925e-10,0,0.00020424,7.2184e-05,1.1513e+08,114.54,0,5.7348e+07,13.535,534.87,1
1848,2.36,12125,1,12125,1,9.646e-05,6.449e-11,0,0.00034293,-1.7569e-05,0.44409,15.594,0,1.0023e+08,2.5992,12124,13096,1,13096,1,0.00074447,7.3988e-10,0,0.00074447,0.00010359,1.5792e+08,174.77,0,2.2432e+08,50.529,13095,12124,1,12124,1,9.646e-05,1.8133e-12,0,0.000336,-1.7544e-05,2.7122e+07,0.36343,0,1.0004e+08,2.422,12123,11201,1,11201,1,-0.00055155,-4.7746e-10,0,2.3541e-05,-0.00013877,-2.2432e+08,-115.52,0,7.2421e+06,-28.465,11200,11662,1,11662,1,-0.00023954,-8.9542e-11,0,0.000168,-8.0352e-05,-9.7412e+07,-23.006,0,5.2414e+07,-2.6275,11661,12586,1,12586,1,0.00043246,2.1851e-10,0,0.000504,4.5167e-05,1.0004e+08,54.415,0,1.4269e+08,8.0592,12585,534.87,0,534.87,0,0.00038784,2.4794e-10,0,0.0002051,7.249e-05,1.1562e+08,61.741,0,5.7592e+07,8.8302,534.87,1
1848,2.37,12125,1,12125,1,9.6871e-05,-8.3309e-12,0,0.00034439,-1.7644e-05,-6.433,-1.9888,0,1.0066e+08,-4.8866,12124,13096,1,13096,1,0.00074764,9.0758e-10,0,0.00074764,0.00010403,1.5859e+08,211.93,0,2.2528e+08,11.065,13095,12124,1,12124,1,9.6871e-05,-9.9808e-12,0,0.00033743,-1.7619e-05,2.7237e+07,-2.5196,0,1.0046e+08,-3.4773,12123,11201,1,11201,1,-0.0005539,-7.5593e-10,0,2.3641e-05,-0.00013936,-2.2528e+08,-169.36,0,7.273e+06,-41.059,11200,11662,1,11662,1,-0.00024056,-2.1445e-10,0,0.00016872,-8.0694e-05,-9.7827e+07,-54.913,0,5.2638e+07,-8.5326,11661,12586,1,12586,1,0.00043431,1.6988e-10,0,0.00050615,4.5359e-05,1.0046e+08,43.047,0,1.433e+08,0.91978,12585,534.87,0,534.87,0,0.00038949,3.1514e-10,0,0.00020598,7.2799e-05,1.1612e+08,78.119,0,5.7838e+07,8.8886,534.87,1
1848,2.38,12125,1,12125,1,9.7279e-05,-1.1415e-11,0,0.00034584,-1.7718e-05,-3.0547,-3.0678,0,1.0108e+08,-2.9214,12124,13096,1,13096,1,0.00075079,3.499e-10,0,0.00075079,0.00010447,1.5926e+08,80.897,0,2.2623e+08,8.4948,13095,12124,1,12124,1,9.7279e-05,-6.3447e-12,0,0.00033885,-1.7693e-05,2.7352e+07,-1.7659,0,1.0088e+08,-2.0145,12123,11201,1,11201,1,-0.00055623,-4.4642e-10,0,2.374e-05,-0.00013995,-2.2623e+08,-102.14,0,7.3036e+06,-24.682,11200,11662,1,11662,1,-0.00024158,-1.3075e-10,0,0.00016943,-8.1034e-05,-9.8239e+07,-33.496,0,5.2859e+07,-5.781,11661,12586,1,12586,1,0.00043613,1.2541e-10,0,0.00050828,4.555e-05,1.0088e+08,33.096,0,1.439e+08,0.44431,12585,534.87,0,534.87,0,0.00039113,1.9229e-10,0,0.00020685,7.3106e-05,1.166e+08,47.588,0,5.8081e+07,4.8396,534.87,1
1848,2.39,12125,1,12125,1,9.7687e-05,5.2294e-10,0,0.00034729,-1.7793e-05,-11.449,130.1,0,1.0151e+08,-3.3883,12124,13096,1,13096,1,0.00075394,1.2972e-09,0,0.00075394,0.00010491,1.5993e+08,310.33,0,2.2718e+08,45.515,13095,12124,1,12124,1,9.7687e-05,5.192e-10,0,0.00034028,-1.7767e-05,2.7467e+07,137.85,0,1.0131e+08,-5.3593,12123,11201,1,11201,1,-0.00055856,-1.9948e-10,0,2.384e-05,-0.00014053,-2.2718e+08,-68.307,0,7.3342e+06,-38.272,11200,11662,1,11662,1,-0.00024259,2.3946e-10,0,0.00017014,-8.1374e-05,-9.8651e+07,60.873,0,5.3081e+07,-15.162,11661,12586,1,12586,1,0.00043796,8.1849e-10,0,0.00051041,4.5741e-05,1.0131e+08,203.89,0,1.4451e+08,4.617,12585,534.87,0,534.87,0,0.00039277,3.7549e-10,0,0.00020771,7.3413e-05,1.1709e+08,89.703,0,5.8325e+07,15.723,534.87,1
1848,2.4,12125,1,12125,1,9.8096e-05,2.0995e-10,0,0.00034874,-1.7867e-05,6.7482,52.443,0,1.0193e+08,-3.6553,12124,13096,1,13096,1,0.00075709,6.008e-10,0,0.00075709,0.00010535,1.606e+08,139.55,0,2.2813e+08,11.399,13095,12124,1,12124,1,9.8096e-05,1.9686e-10,0,0.0003417,-1.7841e-05,2.7582e+07,52.545,0,1.0173e+08,-2.0876,12123,11201,1,11201,1,-0.0005609,-6.706e-11,0,2.394e-05,-0.00014112,-2.2813e+08,-22.963,0,7.365e+06,-35.261,11200,11662,1,11662,1,-0.0002436,5.7873e-11,0,0.00017085,-8.1715e-05,-9.9064e+07,13.519,0,5.3303e+07,-5.8611,11661,12586,1,12586,1,0.0004398,3.3009e-10,0,0.00051255,4.5933e-05,1.0173e+08,84.841,0,1.4511e+08,0.11475,12585,534.87,0,534.87,0,0.00039442,1.7733e-10,0,0.00020858,7.372e-05,1.1758e+08,42.754,0,5.8569e+07,5.946,534.87,1
1848,2.41,12125,1,12125,1,9.8505e-05,9.4173e-10,0,0.00035019,-1.7942e-05,-37.631,237.96,0,1.0236e+08,-2.0059,12124,13096,1,13096,1,0.00076025,2.0081e-09,0,0.00076025,0.00010579,1.6127e+08,492.37,0,2.2908e+08,48.931,13095,12124,1,12124,1,9.8505e-05,9.654e-10,0,0.00034312,-1.7916e-05,2.7697e+07,247.21,0,1.0216e+08,-2.5285,12123,11201,1,11201,1,-0.00056324,-1.7674e-10,0,2.404e-05,-0.00014171,-2.2908e+08,-60.521,0,7.3955e+06,-56.034,11200,11662,1,11662,1,-0.00024462,4.7721e-10,0,0.00017156,-8.2055e-05,-9.9477e+07,117.17,0,5.3525e+07,-8.5923,11661,12586,1,12586,1,0.00044163,1.3906e-09,0,0.00051469,4.6124e-05,1.0216e+08,371.45,0,1.4572e+08,4.7476,12585,534.87,0,534.87,0,0.00039606,6.1071e-10,0,0.00020945,7.4027e-05,1.1807e+08,149.81,0,5.8813e+07,12.611,534.87,1
1848,2.42,12125,1,12125,1,9.8913e-05,3.7932e-10,0,0.00035164,-1.8016e-05,12.452,94.124,0,1.0278e+08,2.7222,12124,13096,1,13096,1,0.0007634,1.7642e-09,0,0.0007634,0.00010622,1.6194e+08,389.31,0,2.3003e+08,64.387,13095,12124,1,12124,1,9.8913e-05,2.5029e-10,0,0.00034455,-1.799e-05,2.7812e+07,64.892,0,1.0258e+08,2.3355,12123,11201,1,11201,1,-0.00056557,-3.8755e-10,0,2.4139e-05,-0.0001423,-2.3003e+08,-94.664,0,7.4263e+06,-60.728,11200,11662,1,11662,1,-0.00024563,2.4943e-12,0,0.00017227,-8.2395e-05,-9.9889e+07,0.75649,0,5.3747e+07,-6.0631,11661,12586,1,12586,1,0.00044346,7.145e-10,0,0.00051682,4.6315e-05,1.0258e+08,188.06,0,1.4632e+08,13.195,12585,534.87,0,534.87,0,0.0003977,4.8551e-10,0,0.00021032,7.4334e-05,1.1856e+08,118.12,0,5.9056e+07,14.784,534.87,1
1848,2.43,12125,1,12125,1,9.9323e-05,4.3898e-10,0,0.0003531,-1.8091e-05,1.5935,109.55,0,1.0321e+08,-6.4383,12124,13096,1,13096,1,0.00076656,1.1507e-09,0,0.00076656,0.00010666,1.6261e+08,281.16,0,2.3098e+08,29.156,13095,12124,1,12124,1,9.9323e-05,4.3479e-10,0,0.00034597,-1.8064e-05,2.7927e+07,117.81,0,1.03e+08,-3.5391,12123,11201,1,11201,1,-0.00056792,-1.6535e-10,0,2.4239e-05,-0.00014289,-2.3098e+08,-56.62,0,7.457e+06,-52.262,11200,11662,1,11662,1,-0.00024665,1.2311e-10,0,0.00017299,-8.2736e-05,-1.003e+08,32.652,0,5.397e+07,-8.8387,11661,12586,1,12586,1,0.0004453,7.3083e-10,0,0.00051896,4.6507e-05,1.03e+08,181.77,0,1.4693e+08,0.11565,12585,534.87,0,534.87,0,0.00039935,3.5794e-10,0,0.00021119,7.4642e-05,1.1905e+08,86.951,0,5.9301e+07,10.846,534.87,1
1848,2.44,12125,1,12125,1,9.9731e-05,-1.034e-10,0,0.00035455,-1.8165e-05,-3.0146,-25.897,0,1.0363e+08,-3.3527,12124,13096,1,13096,1,0.00076971,2.7918e-10,0,0.00076971,0.0001071,1.6328e+08,66.875,0,2.3193e+08,29.668,13095,12124,1,12124,1,9.9731e-05,-3.6579e-11,0,0.00034739,-1.8138e-05,2.8041e+07,-8.1401,0,1.0343e+08,-2.1495,12123,11201,1,11201,1,-0.00057025,-7.7267e-10,0,2.4339e-05,-0.00014347,-2.3193e+08,-183.43,0,7.4877e+06,-39.586,11200,11662,1,11662,1,-0.00024766,-2.6861e-10,0,0.0001737,-8.3076e-05,-1.0071e+08,-69.697,0,5.4191e+07,-7.9265,11661,12586,1,12586,1,0.00044713,7.9919e-11,0,0.00052109,4.6698e-05,1.0343e+08,20.327,0,1.4753e+08,1.6864,12585,534.87,0,534.87,0,0.00040099,2.5073e-10,0,0.00021206,7.4948e-05,1.1954e+08,62.42,0,5.9545e+07,7.6146,534.87,1
1848,2.45,12125,1,12125,1,0.00010014,2.3812e-10,0,0.00035601,-1.8239e-05,-31.533,59.742,0,1.0406e+08,-4.3399,12124,13096,1,13096,1,0.00077287,1.1209e-09,0,0.00077287,0.00010754,1.6395e+08,269.72,0,2.3288e+08,15.951,13095,12124,1,12124,1,0.00010014,1.3287e-10,0,0.00034882,-1.8213e-05,2.8156e+07,33.644,0,1.0385e+08,-3.5627,12123,11201,1,11201,1,-0.00057259,-3.8554e-10,0,2.4439e-05,-0.00014406,-2.3288e+08,-88.267,0,7.5184e+06,-33.301,11200,11662,1,11662,1,-0.00024868,-3.5795e-11,0,0.00017441,-8.3417e-05,-1.0113e+08,-9.6965,0,5.4414e+07,-10.991,11661,12586,1,12586,1,0.00044896,5.0277e-10,0,0.00052323,4.689e-05,1.0385e+08,130.66,0,1.4813e+08,2.7,12585,534.87,0,534.87,0,0.00040264,3.642e-10,0,0.00021293,7.5256e-05,1.2003e+08,90.786,0,5.9789e+07,8.9794,534.87,1
1848,2.46,12125,1,12125,1,0.00010055,3.831e-10,0,0.00035746,-1.8314e-05,7.6502,96.127,0,1.0448e+08,-2.2103,12124,13096,1,13096,1,0.00077602,9.2515e-10,0,0.00077602,0.00010798,1.6461e+08,224.51,0,2.3383e+08,27.378,13095,12124,1,12124,1,0.00010055,3.9252e-10,0,0.00035024,-1.8287e-05,2.8271e+07,104.92,0,1.0427e+08,-1.2668,12123,11201,1,11201,1,-0.00057492,-1.1606e-10,0,2.4538e-05,-0.00014465,-2.3383e+08,-39.742,0,7.549e+06,-31.429,11200,11662,1,11662,1,-0.00024969,1.7682e-10,0,0.00017512,-8.3757e-05,-1.0154e+08,46.925,0,5.4636e+07,-5.7594,11661,12586,1,12586,1,0.00045079,6.0493e-10,0,0.00052536,4.7081e-05,1.0427e+08,149.1,0,1.4874e+08,1.613,12585,534.87,0,534.87,0,0.00040428,2.6357e-10,0,0.0002138,7.5562e-05,1.2052e+08,64.179,0,6.0033e+07,7.7545,534.87,1
1848,2.47,12125,1,12125,1,0.00010096,3.6865e-10,0,0.00035891,-1.8388e-05,-5.3016,91.836,0,1.049e+08,-2.8252,12124,13096,1,13096,1,0.00077918,1.1212e-09,0,0.00077918,0.00010842,1.6528e+08,281.93,0,2.3478e+08,28.372,13095,12124,1,12124,1,0.00010096,3.508e-10,0,0.00035167,-1.8362e-05,2.8386e+07,92.548,0,1.047e+08,-2.8163,12123,11201,1,11201,1,-0.00057726,-1.6686e-10,0,2.4638e-05,-0.00014524,-2.3478e+08,-57.137,0,7.5797e+06,-32.35,11200,11662,1,11662,1,-0.00025071,1.0024e-10,0,0.00017583,-8.4098e-05,-1.0195e+08,26.372,0,5.4858e+07,-8.3797,11661,12586,1,12586,1,0.00045262,5.9448e-10,0,0.0005275,4.7272e-05,1.047e+08,146.18,0,1.4934e+08,1.8011,12585,534.87,0,534.87,0,0.00040592,3.1818e-10,0,0.00021467,7.587e-05,1.2101e+08,77.79,0,6.0277e+07,8.3123,534.87,1
1848,2.48,12125,1,12125,1,0.00010137,5.8838e-10,0,0.00036037,-1.8463e-05,-13.025,147.38,0,1.0533e+08,-4.3646,12124,13096,1,13096,1,0.00078233,1.4978e-09,0,0.00078233,0.00010886,1.6595e+08,367.29,0,2.3573e+08,33.337,13095,12124,1,12124,1,0.00010137,5.9229e-10,0,0.00035309,-1.8436e-05,2.8501e+07,155.99,0,1.0512e+08,-3.3548,12123,11201,1,11201,1,-0.0005796,-1.9229e-10,0,2.4738e-05,-0.00014583,-2.3573e+08,-65.843,0,7.6104e+06,-46.781,11200,11662,1,11662,1,-0.00025172,2.7038e-10,0,0.00017655,-8.4438e-05,-1.0237e+08,68.293,0,5.508e+07,-11.587,11661,12586,1,12586,1,0.00045446,9.1417e-10,0,0.00052964,4.7464e-05,1.0512e+08,230.94,0,1.4995e+08,4.1588,12585,534.87,0,534.87,0,0.00040756,4.1879e-10,0,0.00021554,7.6177e-05,1.215e+08,101.19,0,6.0521e+07,11.831,534.87,1
1848,2.49,12125,1,12125,1,0.00010177,3.1616e-10,0,0.00036182,-1.8537e-05,10.851,79.149,0,1.0575e+08,2.5009,12124,13096,1,13096,1,0.00078548,1.5514e-09,0,0.00078548,0.0001093,1.6662e+08,347.64,0,2.3668e+08,98.191,13095,12124,1,12124,1,0.00010177,2.1068e-10,0,0.00035451,-1.851e-05,2.8616e+07,50.906,0,1.0555e+08,-0.68629,12123,11201,1,11201,1,-0.00058193,-2.5536e-10,0,2.4837e-05,-0.00014641,-2.3668e+08,-87.432,0,7.6411e+06,-58.725,11200,11662,1,11662,1,-0.00025274,-8.3485e-13,0,0.00017726,-8.4778e-05,-1.0278e+08,-0.16509,0,5.5302e+07,-7.751,11661,12586,1,12586,1,0.00045629,5.5912e-10,0,0.00053177,4.7655e-05,1.0555e+08,145.94,0,1.5055e+08,12.048,12585,534.87,0,534.87,0,0.0004092,3.8682e-10,0,0.0002164,7.6484e-05,1.2199e+08,96.024,0,6.0765e+07,17.529,534.87,1
1848,2.5,12125,1,12125,1,0.00010218,2.1858e-10,0,0.00036327,-1.8612e-05,5.7612,53.842,0,1.0618e+08,-4.5469,12124,13096,1,13096,1,0.00078864,1.3142e-09,0,0.00078864,0.00010974,1.6729e+08,316.61,0,2.3763e+08,31.476,13095,12124,1,12124,1,0.00010218,8.7363e-11,0,0.00035594,-1.8585e-05,2.8731e+07,22.835,0,1.0597e+08,-3.5068,12123,11201,1,11201,1,-0.00058427,-7.2262e-10,0,2.4937e-05,-0.000147,-2.3763e+08,-172.15,0,7.6719e+06,-34.743,11200,11662,1,11662,1,-0.00025376,-1.1532e-10,0,0.00017797,-8.512e-05,-1.0319e+08,-27.704,0,5.5524e+07,-15.523,11661,12586,1,12586,1,0.00045812,5.593e-10,0,0.00053391,4.7847e-05,1.0597e+08,145.92,0,1.5116e+08,5.7194,12585,534.87,0,534.87,0,0.00041085,4.7304e-10,0,0.00021728,7.6792e-05,1.2248e+08,117.51,0,6.101e+07,13.997,534.87,1
1848,2.51,12125,1,12125,1,0.00010259,4.0743e-10,0,0.00036472,-1.8686e-05,-37.827,103,0,1.066e+08,0.086004,12124,13096,1,13096,1,0.00079179,1.1565e-09,0,0.00079179,0.00011017,1.6796e+08,272.55,0,2.3858e+08,56.554,13095,12124,1,12124,1,0.00010259,4.1893e-10,0,0.00035736,-1.8659e-05,2.8846e+07,109.27,0,1.0639e+08,-0.82183,12123,11201,1,11201,1,-0.00058661,-1.7491e-10,0,2.5037e-05,-0.00014759,-2.3858e+08,-59.891,0,7.7024e+06,-36.126,11200,11662,1,11662,1,-0.00025477,1.6398e-10,0,0.00017868,-8.5459e-05,-1.036e+08,44.674,0,5.5746e+07,-6.7887,11661,12586,1,12586,1,0.00045995,6.63e-10,0,0.00053604,4.8038e-05,1.0639e+08,164.76,0,1.5176e+08,4.8925,12585,534.87,0,534.87,0,0.00041249,3.0091e-10,0,0.00021814,7.7098e-05,1.2297e+08,75.089,0,6.1253e+07,10.045,534.87,1
1848,2.52,12125,1,12125,1,0.000103,4.6372e-11,0,0.00036618,-1.8761e-05,-8.1282,11.449,0,1.0703e+08,-1.1298,12124,13096,1,13096,1,0.00079494,2.2085e-10,0,0.00079494,0.00011061,1.6863e+08,52.851,0,2.3953e+08,10.828,13095,12124,1,12124,1,0.000103,3.3213e-11,0,0.00035878,-1.8733e-05,2.8961e+07,8.7975,0,1.0682e+08,-1.3051,12123,11201,1,11201,1,-0.00058894,-9.5445e-11,0,2.5137e-05,-0.00014818,-2.3953e+08,-27.571,0,7.7332e+06,-11.592,11200,11662,1,11662,1,-0.00025578,-1.8985e-11,0,0.00017939,-8.58e-05,-1.0402e+08,-4.6835,0,5.5968e+07,-3.386,11661,12586,1,12586,1,0.00046179,1.0148e-10,0,0.00053818,4.8229e-05,1.0682e+08,26.314,0,1.5237e+08,0.62224,12585,534.87,0,534.87,0,0.00041414,7.7749e-11,0,0.00021901,7.7406e-05,1.2346e+08,19.491,0,6.1497e+07,3.8978,534.87,1
1848,2.53,12125,1,12125,1,0.00010341,2.1582e-10,0,0.00036763,-1.8835e-05,13.387,54.513,0,1.0745e+08,0.89685,12124,13096,1,13096,1,0.0007981,1.6232e-09,0,0.0007981,0.00011105,1.693e+08,386.9,0,2.4048e+08,59.524,13095,12124,1,12124,1,0.00010341,7.8285e-11,0,0.00036021,-1.8808e-05,2.9076e+07,18.75,0,1.0724e+08,1.5174,12123,11201,1,11201,1,-0.00059128,-7.5986e-10,0,2.5236e-05,-0.00014876,-2.4048e+08,-185.43,0,7.7638e+06,-67.046,11200,11662,1,11662,1,-0.0002568,-1.4212e-10,0,0.0001801,-8.614e-05,-1.0443e+08,-35.224,0,5.619e+07,-9.2327,11661,12586,1,12586,1,0.00046362,5.7964e-10,0,0.00054031,4.842e-05,1.0724e+08,146.3,0,1.5297e+08,13.348,12585,534.87,0,534.87,0,0.00041578,5.1905e-10,0,0.00021988,7.7713e-05,1.2395e+08,130.66,0,6.1741e+07,16.995,534.87,1
1848,2.54,12125,1,12125,1,0.00010382,1.9739e-10,0,0.00036908,-1.8909e-05,-4.3821,49.484,0,1.0788e+08,1.9893,12124,13096,1,13096,1,0.00080125,7.9687e-10,0,0.00080125,0.00011149,1.6997e+08,183.56,0,2.4143e+08,33.417,13095,12124,1,12124,1,0.00010382,1.5644e-10,0,0.00036163,-1.8882e-05,2.9191e+07,40.605,0,1.0767e+08,2.07,12123,11201,1,11201,1,-0.00059362,-1.7301e-10,0,2.5336e-05,-0.00014935,-2.4143e+08,-44.057,0,7.7945e+06,-23.774,11200,11662,1,11662,1,-0.00025781,2.1031e-11,0,0.00018082,-8.6481e-05,-1.0484e+08,5.3044,0,5.6412e+07,-1.7618,11661,12586,1,12586,1,0.00046545,3.3912e-10,0,0.00054245,4.8612e-05,1.0767e+08,87.237,0,1.5358e+08,6.0488,12585,534.87,0,534.87,0,0.00041742,2.1205e-10,0,0.00022075,7.802e-05,1.2444e+08,52.548,0,6.1985e+07,7.257,534.87,1
1848,2.55,12125,1,12125,1,0.00010423,1.202e-10,0,0.00037054,-1.8984e-05,-17.438,31.098,0,1.083e+08,-6.9193,12124,13096,1,13096,1,0.00080442,8.785e-10,0,0.00080442,0.00011193,1.7064e+08,208.09,0,2.4239e+08,19.556,13095,12124,1,12124,1,0.00010423,8.2067e-11,0,0.00036306,-1.8956e-05,2.9306e+07,19.219,0,1.0809e+08,-4.1119,12123,11201,1,11201,1,-0.00059596,-6.9059e-10,0,2.5436e-05,-0.00014994,-2.4239e+08,-155.46,0,7.8253e+06,-59.511,11200,11662,1,11662,1,-0.00025883,-9.2036e-11,0,0.00018153,-8.6822e-05,-1.0526e+08,-25.639,0,5.6635e+07,-11.921,11661,12586,1,12586,1,0.00046729,3.8116e-10,0,0.00054459,4.8804e-05,1.0809e+08,100.52,0,1.5418e+08,0.67176,12585,534.87,0,534.87,0,0.00041907,3.7442e-10,0,0.00022162,7.8328e-05,1.2493e+08,92.33,0,6.223e+07,10.803,534.87,1
1848,2.56,12125,1,12125,1,0.00010464,-1.3442e-10,0,0.00037199,-1.9058e-05,-18.58,-33.004,0,1.0873e+08,-3.7961,12124,13096,1,13096,1,0.00080757,5.8808e-10,0,0.00080757,0.00011237,1.7131e+08,135.1,0,2.4334e+08,36.496,13095,12124,1,12124,1,0.00010464,-4.3983e-11,0,0.00036448,-1.9031e-05,2.9421e+07,-10.123,0,1.0851e+08,-3.5041,12123,11201,1,11201,1,-0.0005983,-1.1315e-09,0,2.5536e-05,-0.00015053,-2.4334e+08,-260.98,0,7.856e+06,-51.015,11200,11662,1,11662,1,-0.00025985,-3.9498e-10,0,0.00018224,-8.7162e-05,-1.0567e+08,-100.71,0,5.6857e+07,-9.8396,11661,12586,1,12586,1,0.00046912,1.2814e-10,0,0.00054672,4.8995e-05,1.0851e+08,35.279,0,1.5479e+08,2.4076,12585,534.87,0,534.87,0,0.00042071,3.9245e-10,0,0.00022249,7.8635e-05,1.2542e+08,96.652,0,6.2474e+07,9.2981,534.87,1
1848,2.57,12125,1,12125,1,0.00010504,2.3724e-10,0,0.00037344,-1.9133e-05,-9.0605,58.873,0,1.0915e+08,0.89217,12124,13096,1,13096,1,0.00081072,6.8107e-10,0,0.00081072,0.00011281,1.7198e+08,149.26,0,2.4429e+08,34.237,13095,12124,1,12124,1,0.00010504,2.4312e-10,0,0.0003659,-1.9105e-05,2.9535e+07,62.846,0,1.0894e+08,1.2508,12123,11201,1,11201,1,-0.00060063,-1.4492e-10,0,2.5635e-05,-0.00015112,-2.4429e+08,-49.623,0,7.8866e+06,-30.06,11200,11662,1,11662,1,-0.00026086,8.3239e-11,0,0.00018295,-8.7502e-05,-1.0608e+08,21.707,0,5.7079e+07,-4.8608,11661,12586,1,12586,1,0.00047095,3.9482e-10,0,0.00054885,4.9186e-05,1.0894e+08,99.826,0,1.5539e+08,5.7456,12585,534.87,0,534.87,0,0.00042235,1.9982e-10,0,0.00022336,7.8941e-05,1.2591e+08,48.829,0,6.2717e+07,8.1317,534.87,1
1848,2.58,12125,1,12125,1,0.00010545,3.5127e-10,0,0.00037489,-1.9207e-05,6.1725,86.537,0,1.0958e+08,-3.7616,12124,13096,1,13096,1,0.00081387,1.2859e-09,0,0.00081387,0.00011325,1.7264e+08,280.99,0,2.4524e+08,35.629,13095,12124,1,12124,1,0.00010545,3.2151e-10,0,0.00036733,-1.9179e-05,2.965e+07,85.942,0,1.0936e+08,-3.0349,12123,11201,1,11201,1,-0.00060297,-1.6893e-10,0,2.5735e-05,-0.0001517,-2.4524e+08,-57.843,0,7.9173e+06,-55.55,11200,11662,1,11662,1,-0.00026187,9.6708e-11,0,0.00018366,-8.7843e-05,-1.0649e+08,24.985,0,5.7301e+07,-9.9853,11661,12586,1,12586,1,0.00047278,5.855e-10,0,0.00055099,4.9377e-05,1.0936e+08,142.03,0,1.5599e+08,3.5543,12585,534.87,0,534.87,0,0.000424,3.1402e-10,0,0.00022423,7.9248e-05,1.264e+08,74.799,0,6.2961e+07,12.896,534.87,1
1848,2.59,12125,1,12125,1,0.00010586,2.3663e-10,0,0.00037635,-1.9282e-05,5.2389,58.539,0,1.1e+08,-2.472,12124,13096,1,13096,1,0.00081703,8.3849e-10,0,0.00081703,0.00011369,1.7331e+08,183.75,0,2.4619e+08,24.61,13095,12124,1,12124,1,0.00010586,2.118e-10,0,0.00036875,-1.9254e-05,2.9765e+07,55.187,0,1.0979e+08,-0.80298,12123,11201,1,11201,1,-0.00060531,-1.3051e-10,0,2.5835e-05,-0.00015229,-2.4619e+08,-44.681,0,7.948e+06,-41.393,11200,11662,1,11662,1,-0.00026289,5.6703e-11,0,0.00018438,-8.8184e-05,-1.0691e+08,15.479,0,5.7523e+07,-4.6627,11661,12586,1,12586,1,0.00047461,3.8379e-10,0,0.00055313,4.9569e-05,1.0979e+08,100.58,0,1.566e+08,3.4286,12585,534.87,0,534.87,0,0.00042564,2.1545e-10,0,0.0002251,7.9556e-05,1.2689e+08,51.807,0,6.3205e+07,9.4932,534.87,1
1848,2.6,12125,1,12125,1,0.00010627,-8.7172e-11,0,0.0003778,-1.9356e-05,-0.56012,-22.25,0,1.1043e+08,-1.7351,12124,13096,1,13096,1,0.00082018,2.9844e-10,0,0.00082018,0.00011413,1.7398e+08,67.011,0,2.4714e+08,13.27,13095,12124,1,12124,1,0.00010627,-3.6809e-11,0,0.00037018,-1.9328e-05,2.988e+07,-10.17,0,1.1021e+08,-1.2203,12123,11201,1,11201,1,-0.00060764,-5.5326e-10,0,2.5935e-05,-0.00015288,-2.4714e+08,-134.29,0,7.9788e+06,-22.984,11200,11662,1,11662,1,-0.00026391,-2.1864e-10,0,0.00018509,-8.8524e-05,-1.0732e+08,-56.071,0,5.7745e+07,-4.9385,11661,12586,1,12586,1,0.00047645,5.1883e-11,0,0.00055527,4.976e-05,1.1021e+08,13.616,0,1.572e+08,2.1561,12585,534.87,0,534.87,0,0.00042729,2.0204e-10,0,0.00022597,7.9863e-05,1.2738e+08,50.128,0,6.345e+07,4.879,534.87,1
1848,2.61,12125,1,12125,1,0.00010668,1.7977e-10,0,0.00037925,-1.943e-05,-2.661,43.405,0,1.1085e+08,2.1644,12124,13096,1,13096,1,0.00082333,1.2522e-09,0,0.00082333,0.00011456,1.7465e+08,281.97,0,2.4809e+08,74.899,13095,12124,1,12124,1,0.00010668,2.059e-11,0,0.0003716,-1.9402e-05,2.9995e+07,5.5172,0,1.1063e+08,2.0108,12123,11201,1,11201,1,-0.00060997,-2.8498e-10,0,2.6034e-05,-0.00015347,-2.4809e+08,-73.656,0,8.0093e+06,-37.607,11200,11662,1,11662,1,-0.00026492,-7.1308e-11,0,0.0001858,-8.8864e-05,-1.0773e+08,-19.026,0,5.7967e+07,-4.7011,11661,12586,1,12586,1,0.00047828,3.8793e-10,0,0.0005574,4.9951e-05,1.1063e+08,99.121,0,1.5781e+08,8.5673,12585,534.87,0,534.87,0,0.00042892,3.5919e-10,0,0.00022683,8.017e-05,1.2787e+08,87.831,0,6.3693e+07,11.946,534.87,1
1848,2.62,12125,1,12125,1,0.00010709,3.6746e-10,0,0.00038071,-1.9505e-05,11.369,91.54,0,1.1128e+08,-4.0239,12124,13096,1,13096,1,0.0008265,9.7259e-10,0,0.0008265,0.000115,1.7532e+08,215.29,0,2.4904e+08,20.384,13095,12124,1,12124,1,0.00010709,3.7397e-10,0,0.00037302,-1.9477e-05,3.011e+07,97.801,0,1.1106e+08,-1.0152,12123,11201,1,11201,1,-0.00061232,-1.3491e-10,0,2.6134e-05,-0.00015406,-2.4904e+08,-46.195,0,8.0401e+06,-43.766,11200,11662,1,11662,1,-0.00026594,1.5493e-10,0,0.00018651,-8.9205e-05,-1.0815e+08,40.235,0,5.819e+07,-8.7902,11661,12586,1,12586,1,0.00048011,5.9899e-10,0,0.00055954,5.0143e-05,1.1106e+08,147.62,0,1.5841e+08,2.0058,12585,534.87,0,534.87,0,0.00043057,2.6897e-10,0,0.0002277,8.0478e-05,1.2836e+08,64.931,0,6.3938e+07,9.6566,534.87,1
1848,2.63,12125,1,12125,1,0.0001075,4.9587e-10,0,0.00038217,-1.958e-05,-36.556,124.13,0,1.117e+08,-9.2598,12124,13096,1,13096,1,0.00082966,2.3177e-09,0,0.00082966,0.00011544,1.7599e+08,559.92,0,2.4999e+08,24.799,13095,12124,1,12124,1,0.0001075,2.6741e-10,0,0.00037445,-1.9551e-05,3.0225e+07,70.944,0,1.1148e+08,-5.531,12123,11201,1,11201,1,-0.00061466,-9.2714e-10,0,2.6234e-05,-0.00015465,-2.4999e+08,-210.46,0,8.0708e+06,-63.606,11200,11662,1,11662,1,-0.00026695,-7.9715e-11,0,0.00018723,-8.9546e-05,-1.0856e+08,-18.189,0,5.8412e+07,-24.146,11661,12586,1,12586,1,0.00048195,1.0487e-09,0,0.00056168,5.0335e-05,1.1148e+08,269.96,0,1.5902e+08,4.7936,12585,534.87,0,534.87,0,0.00043222,7.7425e-10,0,0.00022857,8.0786e-05,1.2885e+08,191.46,0,6.4182e+07,17.687,534.87,1
1848,2.64,12125,1,12125,1,0.00010791,8.9931e-11,0,0.00038362,-1.9654e-05,-8.7289,22.698,0,1.1213e+08,-2.412,12124,13096,1,13096,1,0.0008328,5.2776e-10,0,0.0008328,0.00011588,1.7666e+08,119.94,0,2.5094e+08,6.1914,13095,12124,1,12124,1,0.00010791,6.343e-11,0,0.00037587,-1.9625e-05,3.034e+07,15.896,0,1.1191e+08,-0.42232,12123,11201,1,11201,1,-0.00061699,-2.47e-10,0,2.6334e-05,-0.00015523,-2.5094e+08,-57.393,0,8.1015e+06,-28.232,11200,11662,1,11662,1,-0.00026797,7.8621e-13,0,0.00018794,-8.9886e-05,-1.0897e+08,0.21144,0,5.8634e+07,-4.3895,11661,12586,1,12586,1,0.00048378,1.7473e-10,0,0.00056381,5.0526e-05,1.1191e+08,44.98,0,1.5962e+08,1.2735,12585,534.87,0,534.87,0,0.00043386,1.4128e-10,0,0.00022944,8.1092e-05,1.2934e+08,34.801,0,6.4426e+07,5.7754,534.87,1
1848,2.65,12125,1,12125,1,0.00010831,4.5567e-10,0,0.00038507,-1.9728e-05,1.8133,113.84,0,1.1255e+08,-6.9589,12124,13096,1,13096,1,0.00083596,1.6424e-09,0,0.00083596,0.00011632,1.7733e+08,398.5,0,2.5189e+08,18.703,13095,12124,1,12124,1,0.00010831,3.3925e-10,0,0.00037729,-1.97e-05,3.0455e+07,87.887,0,1.1233e+08,-5.7395,12123,11201,1,11201,1,-0.00061933,-2.409e-10,0,2.6433e-05,-0.00015582,-2.5189e+08,-82.488,0,8.1321e+06,-28.991,11200,11662,1,11662,1,-0.00026898,5.5644e-11,0,0.00018865,-9.0226e-05,-1.0938e+08,15.07,0,5.8856e+07,-12.784,11661,12586,1,12586,1,0.00048561,7.5411e-10,0,0.00056594,5.0717e-05,1.1233e+08,196.62,0,1.6023e+08,-0.70932,12585,534.87,0,534.87,0,0.0004355,4.7437e-10,0,0.00023031,8.1399e-05,1.2983e+08,115.13,0,6.467e+07,8.9911,534.87,1
1848,2.66,12125,1,12125,1,0.00010872,2.458e-11,0,0.00038652,-1.9803e-05,-28.142,7.1137,0,1.1297e+08,-0.15443,12124,13096,1,13096,1,0.00083911,9.893e-10,0,0.00083911,0.00011676,1.78e+08,244.6,0,2.5284e+08,43.863,13095,12124,1,12124,1,0.00010872,3.8542e-11,0,0.00037872,-1.9774e-05,3.057e+07,9.6723,0,1.1275e+08,-0.14323,12123,11201,1,11201,1,-0.00062166,-1.0068e-09,0,2.6533e-05,-0.00015641,-2.5284e+08,-252.29,0,8.1628e+06,-41.133,11200,11662,1,11662,1,-0.00027,-2.6993e-10,0,0.00018936,-9.0567e-05,-1.098e+08,-68.816,0,5.9078e+07,-8.0164,11661,12586,1,12586,1,0.00048744,3.1536e-10,0,0.00056808,5.0909e-05,1.1275e+08,80.935,0,1.6083e+08,6.4516,12585,534.87,0,534.87,0,0.00043715,4.4248e-10,0,0.00023118,8.1706e-05,1.3032e+08,109.99,0,6.4914e+07,12.39,534.87,1
1848,2.67,12125,1,12125,1,0.00010913,2.9666e-10,0,0.00038797,-1.9877e-05,-1.7935,74.362,0,1.134e+08,-3.9678,12124,13096,1,13096,1,0.00084227,7.794e-10,0,0.00084227,0.0001172,1.7867e+08,186.66,0,2.5379e+08,19.644,13095,12124,1,12124,1,0.00010913,2.8617e-10,0,0.00038014,-1.9848e-05,3.0685e+07,72.877,0,1.1318e+08,-3.7514,12123,11201,1,11201,1,-0.000624,-1.3386e-10,0,2.6633e-05,-0.000157,-2.5379e+08,-45.836,0,8.1935e+06,-35.807,11200,11662,1,11662,1,-0.00027101,8.1187e-11,0,0.00019007,-9.0907e-05,-1.1021e+08,21.768,0,5.93e+07,-8.2532,11661,12586,1,12586,1,0.00048927,4.8563e-10,0,0.00057021,5.11e-05,1.1318e+08,130.07,0,1.6144e+08,0.80444,12585,534.87,0,534.87,0,0.00043879,2.5013e-10,0,0.00023205,8.2013e-05,1.3081e+08,61.582,0,6.5158e+07,8.7095,534.87,1
1848,2.68,12125,1,12125,1,0.00010954,4.1747e-10,0,0.00038943,-1.9952e-05,6.3527,105.21,0,1.1382e+08,-2.5952,12124,13096,1,13096,1,0.00084542,1.6103e-09,0,0.00084542,0.00011764,1.7934e+08,364.37,0,2.5474e+08,44.977,13095,12124,1,12124,1,0.00010954,3.3558e-10,0,0.00038156,-1.9923e-05,3.08e+07,86.554,0,1.136e+08,0.38274,12123,11201,1,11201,1,-0.00062634,-1.8713e-10,0,2.6733e-05,-0.00015758,-2.5474e+08,-64.07,0,8.2242e+06,-66.657,11200,11662,1,11662,1,-0.00027202,1.4186e-10,0,0.00019078,-9.1247e-05,-1.1062e+08,37.759,0,5.9522e+07,-9.4444,11661,12586,1,12586,1,0.00049111,6.2272e-10,0,0.00057235,5.1291e-05,1.136e+08,158.52,0,1.6204e+08,6.316,12585,534.87,0,534.87,0,0.00044043,3.7286e-10,0,0.00023292,8.232e-05,1.313e+08,92.871,0,6.5402e+07,14.214,534.87,1
1848,2.69,12125,1,12125,1,0.00010995,1.6158e-10,0,0.00039088,-2.0026e-05,-4.6811,40.203,0,1.1425e+08,-2.3524,12124,13096,1,13096,1,0.00084857,6.6172e-10,0,0.00084857,0.00011808,1.8001e+08,159.17,0,2.5569e+08,19.219,13095,12124,1,12124,1,0.00010995,1.105e-10,0,0.00038299,-1.9997e-05,3.0915e+07,27.69,0,1.1402e+08,-2.2965,12123,11201,1,11201,1,-0.00062867,-1.5423e-10,0,2.6833e-05,-0.00015817,-2.5569e+08,-36.725,0,8.2549e+06,-19.464,11200,11662,1,11662,1,-0.00027304,1.4234e-12,0,0.00019149,-9.1588e-05,-1.1103e+08,0.39278,0,5.9744e+07,-8.556,11661,12586,1,12586,1,0.00049294,3.0623e-10,0,0.00057448,5.1483e-05,1.1402e+08,77.928,0,1.6265e+08,3.2302,12585,534.87,0,534.87,0,0.00044208,1.9856e-10,0,0.00023379,8.2628e-05,1.3179e+08,48.879,0,6.5646e+07,8.264,534.87,1
1848,2.7,12125,1,12125,1,0.00011036,1.5035e-10,0,0.00039233,-2.0101e-05,-3.6862,37.255,0,1.1467e+08,-1.6983,12124,13096,1,13096,1,0.00085173,4.2001e-10,0,0.00085173,0.00011851,1.8067e+08,104.18,0,2.5664e+08,8.7439,13095,12124,1,12124,1,0.00011036,1.4261e-10,0,0.00038441,-2.0071e-05,3.1029e+07,36.935,0,1.1445e+08,-1.3365,12123,11201,1,11201,1,-0.00063101,-6.9466e-11,0,2.6932e-05,-0.00015876,-2.5664e+08,-23.786,0,8.2856e+06,-18.883,11200,11662,1,11662,1,-0.00027405,6.0275e-11,0,0.00019221,-9.1928e-05,-1.1145e+08,15.712,0,5.9966e+07,-4.2704,11661,12586,1,12586,1,0.00049477,2.3687e-10,0,0.00057662,5.1674e-05,1.1445e+08,59.812,0,1.6325e+08,1.1107,12585,534.87,0,534.87,0,0.00044372,1.1803e-10,0,0.00023465,8.2935e-05,1.3228e+08,28.252,0,6.589e+07,4.5004,534.87,1
1848,2.71,12125,1,12125,1,0.00011077,1.0938e-10,0,0.00039378,-2.0175e-05,-10.711,27.479,0,1.151e+08,-2.5998,12124,13096,1,13096,1,0.00085488,6.092e-10,0,0.00085488,0.00011895,1.8134e+08,146.57,0,2.5759e+08,16.864,13095,12124,1,12124,1,0.00011077,6.4226e-11,0,0.00038583,-2.0146e-05,3.1144e+07,16.868,0,1.1487e+08,-0.84773,12123,11201,1,11201,1,-0.00063335,-2.8954e-10,0,2.7032e-05,-0.00015935,-2.5759e+08,-82.763,0,8.3162e+06,-27.666,11200,11662,1,11662,1,-0.00027507,-5.7287e-11,0,0.00019292,-9.2269e-05,-1.1186e+08,-12.466,0,6.0188e+07,-6.8329,11661,12586,1,12586,1,0.0004966,2.7587e-10,0,0.00057875,5.1865e-05,1.1487e+08,72.603,0,1.6385e+08,2.3457,12585,534.87,0,534.87,0,0.00044536,2.1984e-10,0,0.00023552,8.3242e-05,1.3277e+08,54.946,0,6.6134e+07,7.3041,534.87,1
1848,2.72,12125,1,12125,1,0.00011118,2.5371e-11,0,0.00039524,-2.025e-05,-3.437,6.5541,0,1.1552e+08,-1.7114,12124,13096,1,13096,1,0.00085805,1.0941e-09,0,0.00085805,0.00011939,1.8202e+08,256.72,0,2.5855e+08,16.338,13095,12124,1,12124,1,0.00011118,8.2752e-12,0,0.00038727,-2.022e-05,3.126e+07,2.0005,0,1.153e+08,-1.0036,12123,11201,1,11201,1,-0.00063569,-9.185e-10,0,2.7132e-05,-0.00015994,-2.5855e+08,-212.97,0,8.3471e+06,-31.876,11200,11662,1,11662,1,-0.00027609,-2.0935e-10,0,0.00019363,-9.2611e-05,-1.1227e+08,-54.83,0,6.0411e+07,-6.6886,11661,12586,1,12586,1,0.00049844,2.5213e-10,0,0.0005809,5.2057e-05,1.153e+08,66.169,0,1.6446e+08,5.2285,12585,534.87,0,534.87,0,0.00044701,3.8524e-10,0,0.0002364,8.355e-05,1.3326e+08,96.122,0,6.6379e+07,8.9163,534.87,1
1848,2.73,12125,1,12125,1,0.00011158,3.5544e-10,0,0.00039669,-2.0324e-05,-7.8279,89.448,0,1.1595e+08,-5.3179,12124,13096,1,13096,1,0.00086119,1.0765e-09,0,0.00086119,0.00011983,1.8268e+08,258.5,0,2.595e+08,16.649,13095,12124,1,12124,1,0.00011158,3.1322e-10,0,0.00038868,-2.0294e-05,3.1374e+07,80.141,0,1.1572e+08,-4.6021,12123,11201,1,11201,1,-0.00063802,-1.3708e-10,0,2.7231e-05,-0.00016052,-2.595e+08,-46.94,0,8.3776e+06,-20.767,11200,11662,1,11662,1,-0.0002771,7.2535e-11,0,0.00019434,-9.295e-05,-1.1269e+08,15.544,0,6.0632e+07,-11.539,11661,12586,1,12586,1,0.00050027,5.9672e-10,0,0.00058303,5.2248e-05,1.1572e+08,153.94,0,1.6506e+08,0.014584,12585,534.87,0,534.87,0,0.00044865,3.1736e-10,0,0.00023726,8.3856e-05,1.3375e+08,78.227,0,6.6622e+07,7.7339,534.87,1
1848,2.74,12125,1,12125,1,0.00011199,3.9213e-10,0,0.00039815,-2.0399e-05,1.5603,98.275,0,1.1637e+08,-6.1251,12124,13096,1,13096,1,0.00086435,1.1837e-09,0,0.00086435,0.00012027,1.8335e+08,282.52,0,2.6045e+08,15.111,13095,12124,1,12124,1,0.00011199,3.5356e-10,0,0.00039011,-2.0369e-05,3.1489e+07,90.853,0,1.1614e+08,-2.9976,12123,11201,1,11201,1,-0.00064036,-2.4018e-10,0,2.7331e-05,-0.00016111,-2.6045e+08,-57.716,0,8.4084e+06,-39.244,11200,11662,1,11662,1,-0.00027812,6.69e-11,0,0.00019505,-9.3291e-05,-1.131e+08,15.944,0,6.0855e+07,-11.324,11661,12586,1,12586,1,0.0005021,6.619e-10,0,0.00058516,5.244e-05,1.1614e+08,173.86,0,1.6567e+08,0.63561,12585,534.87,0,534.87,0,0.0004503,3.6314e-10,0,0.00023813,8.4164e-05,1.3424e+08,89.057,0,6.6866e+07,10.094,534.87,1
1848,2.75,12125,1,12125,1,0.0001124,-8.5304e-12,0,0.00039959,-2.0473e-05,-1.0664,-2.1667,0,1.168e+08,1.4995,12124,13096,1,13096,1,0.00086749,1.5608e-10,0,0.00086749,0.00012071,1.8402e+08,37.492,0,2.6139e+08,14.761,13095,12124,1,12124,1,0.0001124,-1.4208e-12,0,0.00039153,-2.0443e-05,3.1604e+07,-0.36626,0,1.1657e+08,0.88345,12123,11201,1,11201,1,-0.00064269,-2.1005e-10,0,2.7431e-05,-0.0001617,-2.6139e+08,-53.027,0,8.4389e+06,-11.794,11200,11662,1,11662,1,-0.00027913,-1.8403e-11,0,0.00019576,-9.363e-05,-1.1351e+08,-4.6782,0,6.1076e+07,-0.83242,11661,12586,1,12586,1,0.00050393,8.3083e-12,0,0.00058729,5.2631e-05,1.1657e+08,2.2881,0,1.6627e+08,3.6525,12585,534.87,0,534.87,0,0.00045193,4.9391e-11,0,0.000239,8.447e-05,1.3473e+08,12.654,0,6.7109e+07,3.6412,534.87,1
1848,2.76,12125,1,12125,1,0.00011281,1.5268e-10,0,0.00040105,-2.0547e-05,-4.7662,38.125,0,1.1722e+08,-0.4044,12124,13096,1,13096,1,0.00087066,3.6957e-10,0,0.00087066,0.00012115,1.8469e+08,82.601,0,2.6235e+08,12.747,13095,12124,1,12124,1,0.00011281,1.5024e-10,0,0.00039296,-2.0517e-05,3.1719e+07,38.248,0,1.1699e+08,-0.28256,12123,11201,1,11201,1,-0.00064503,-5.6389e-11,0,2.7531e-05,-0.00016229,-2.6235e+08,-19.309,0,8.4697e+06,-23.16,11200,11662,1,11662,1,-0.00028015,6.5278e-11,0,0.00019648,-9.3972e-05,-1.1392e+08,16.625,0,6.1299e+07,-2.3057,11661,12586,1,12586,1,0.00050577,2.3366e-10,0,0.00058943,5.2822e-05,1.1699e+08,61.877,0,1.6688e+08,2.2235,12585,534.87,0,534.87,0,0.00045358,1.1115e-10,0,0.00023987,8.4778e-05,1.3522e+08,26.782,0,6.7354e+07,5.156,534.87,1
1848,2.77,12125,1,12125,1,0.00011322,4.0055e-10,0,0.0004025,-2.0622e-05,1.7752,100.19,0,1.1765e+08,1.0073,12124,13096,1,13096,1,0.00087381,1.5331e-09,0,0.00087381,0.00012159,1.8536e+08,346.19,0,2.633e+08,73.812,13095,12124,1,12124,1,0.00011322,3.4061e-10,0,0.00039438,-2.0592e-05,3.1834e+07,88.578,0,1.1741e+08,1.9718,12123,11201,1,11201,1,-0.00064737,-2.2776e-10,0,2.763e-05,-0.00016288,-2.633e+08,-77.981,0,8.5003e+06,-54.984,11200,11662,1,11662,1,-0.00028116,1.2328e-10,0,0.00019719,-9.4312e-05,-1.1434e+08,29.462,0,6.1521e+07,-5.4901,11661,12586,1,12586,1,0.0005076,6.2562e-10,0,0.00059157,5.3014e-05,1.1741e+08,158.67,0,1.6748e+08,8.5474,12585,534.87,0,534.87,0,0.00045522,3.6428e-10,0,0.00024074,8.5085e-05,1.3571e+08,89.444,0,6.7598e+07,14.35,534.87,1
1848,2.78,12125,1,12125,1,0.00011363,5.6561e-11,0,0.00040396,-2.0696e-05,5.0795,14.76,0,1.1807e+08,-2.4567,12124,13096,1,13096,1,0.00087697,5.3828e-10,0,0.00087697,0.00012203,1.8603e+08,123.66,0,2.6425e+08,10.371,13095,12124,1,12124,1,0.00011363,4.8246e-11,0,0.00039581,-2.0666e-05,3.1949e+07,11.554,0,1.1784e+08,-0.55541,12123,11201,1,11201,1,-0.00064971,-1.9353e-10,0,2.773e-05,-0.00016347,-2.6425e+08,-46.484,0,8.5312e+06,-34.558,11200,11662,1,11662,1,-0.00028218,-2.0411e-11,0,0.0001979,-9.4653e-05,-1.1475e+08,-4.6382,0,6.1743e+07,-4.1378,11661,12586,1,12586,1,0.00050943,1.0595e-10,0,0.00059371,5.3205e-05,1.1784e+08,28.494,0,1.6809e+08,1.4139,12585,534.87,0,534.87,0,0.00045687,1.2889e-10,0,0.00024161,8.5393e-05,1.362e+08,32.26,0,6.7843e+07,6.3749,534.87,1
1848,2.79,12125,1,12125,1,0.00011404,5.1376e-10,0,0.00040541,-2.0771e-05,18.656,128.44,0,1.185e+08,-4.322,12124,13096,1,13096,1,0.00088012,1.248e-09,0,0.00088012,0.00012247,1.867e+08,295.74,0,2.652e+08,37.557,13095,12124,1,12124,1,0.00011404,5.1874e-10,0,0.00039723,-2.074e-05,3.2064e+07,138.33,0,1.1826e+08,-2.2097,12123,11201,1,11201,1,-0.00065205,-1.8355e-10,0,2.783e-05,-0.00016405,-2.652e+08,-62.85,0,8.5617e+06,-53.635,11200,11662,1,11662,1,-0.00028319,2.1474e-10,0,0.00019861,-9.4993e-05,-1.1516e+08,55.572,0,6.1965e+07,-7.8998,11661,12586,1,12586,1,0.00051126,8.1386e-10,0,0.00059584,5.3397e-05,1.1826e+08,204.98,0,1.6869e+08,3.0373,12585,534.87,0,534.87,0,0.00045851,3.7908e-10,0,0.00024248,8.5699e-05,1.3669e+08,91.857,0,6.8086e+07,11.475,534.87,1
1848,2.8,12125,1,12125,1,0.00011444,-1.0734e-10,0,0.00040686,-2.0845e-05,-7.373,-26.928,0,1.1892e+08,1.5769,12124,13096,1,13096,1,0.00088327,6.4682e-11,0,0.00088327,0.0001229,1.8736e+08,20.488,0,2.6615e+08,13.075,13095,12124,1,12124,1,0.00011444,-9.6765e-11,0,0.00039865,-2.0815e-05,3.2179e+07,-26.069,0,1.1869e+08,0.87217,12123,11201,1,11201,1,-0.00065438,-3.7388e-10,0,2.793e-05,-0.00016464,-2.6615e+08,-90.369,0,8.5924e+06,-10.279,11200,11662,1,11662,1,-0.0002842,-1.6653e-10,0,0.00019932,-9.5333e-05,-1.1557e+08,-40.84,0,6.2187e+07,-0.30979,11661,12586,1,12586,1,0.00051309,-2.4616e-11,0,0.00059797,5.3588e-05,1.1869e+08,-6.3192,0,1.6929e+08,3.3096,12585,534.87,0,534.87,0,0.00046015,9.8933e-11,0,0.00024334,8.6006e-05,1.3718e+08,24.379,0,6.833e+07,3.3949,534.87,1
1848,2.81,12125,1,12125,1,0.00011486,-6.2673e-12,0,0.00040832,-2.092e-05,4.2579,-1.9559,0,1.1935e+08,-3.6244,12124,13096,1,13096,1,0.00088643,5.8135e-10,0,0.00088643,0.00012334,1.8804e+08,135.7,0,2.671e+08,9.1893,13095,12124,1,12124,1,0.00011486,-1.5092e-11,0,0.00040008,-2.0889e-05,3.2294e+07,-3.3184,0,1.1911e+08,-3.5957,12123,11201,1,11201,1,-0.00065672,-5.6235e-10,0,2.803e-05,-0.00016523,-2.671e+08,-134.55,0,8.6232e+06,-22.946,11200,11662,1,11662,1,-0.00028522,-1.5089e-10,0,0.00020004,-9.5675e-05,-1.1599e+08,-39.276,0,6.241e+07,-7.8383,11661,12586,1,12586,1,0.00051493,1.4821e-10,0,0.00060012,5.378e-05,1.1911e+08,38.164,0,1.699e+08,0.43673,12585,534.87,0,534.87,0,0.0004618,2.3777e-10,0,0.00024422,8.6314e-05,1.3767e+08,59.318,0,6.8575e+07,5.5565,534.87,1
1848,2.82,12125,1,12125,1,0.00011526,6.0698e-10,0,0.00040977,-2.0994e-05,0.71108,152.26,0,1.1977e+08,-1.182,12124,13096,1,13096,1,0.00088959,1.9194e-09,0,0.00088959,0.00012378,1.8871e+08,428.49,0,2.6805e+08,65.16,13095,12124,1,12124,1,0.00011526,5.769e-10,0,0.0004015,-2.0963e-05,3.2409e+07,150.13,0,1.1953e+08,-0.27197,12123,11201,1,11201,1,-0.00065906,-2.3102e-10,0,2.8129e-05,-0.00016582,-2.6805e+08,-79.096,0,8.6538e+06,-66.025,11200,11662,1,11662,1,-0.00028623,2.4695e-10,0,0.00020075,-9.6014e-05,-1.164e+08,63.352,0,6.2631e+07,-8.3267,11661,12586,1,12586,1,0.00051676,9.4525e-10,0,0.00060225,5.3971e-05,1.1953e+08,238.22,0,1.7051e+08,7.3427,12585,534.87,0,534.87,0,0.00046344,4.6423e-10,0,0.00024508,8.6621e-05,1.3816e+08,113.33,0,6.8818e+07,14.285,534.87,1
1848,2.83,12125,1,12125,1,0.00011567,2.9062e-10,0,0.00041123,-2.1069e-05,12.743,72.594,0,1.202e+08,-4.1856,12124,13096,1,13096,1,0.00089274,9.8886e-10,0,0.00089274,0.00012422,1.8938e+08,235.47,0,2.69e+08,13.507,13095,12124,1,12124,1,0.00011567,2.3667e-10,0,0.00040292,-2.1038e-05,3.2524e+07,60.375,0,1.1996e+08,-2.7597,12123,11201,1,11201,1,-0.0006614,-1.7922e-10,0,2.8229e-05,-0.00016641,-2.69e+08,-42.307,0,8.6846e+06,-28.438,11200,11662,1,11662,1,-0.00028725,2.879e-11,0,0.00020146,-9.6355e-05,-1.1681e+08,7.6475,0,6.2854e+07,-8.9967,11661,12586,1,12586,1,0.0005186,5.0101e-10,0,0.00060439,5.4162e-05,1.1996e+08,130.5,0,1.7111e+08,1.397,12585,534.87,0,534.87,0,0.00046509,3.0091e-10,0,0.00024596,8.6929e-05,1.3865e+08,74.001,0,6.9063e+07,7.3181,534.87,1
1848,2.84,12125,1,12125,1,0.00011608,1.6986e-10,0,0.00041267,-2.1143e-05,2.464,41.951,0,1.2062e+08,-0.66309,12124,13096,1,13096,1,0.00089589,1.0066e-09,0,0.00089589,0.00012466,1.9004e+08,229.26,0,2.6995e+08,39.522,13095,12124,1,12124,1,0.00011608,6.472e-11,0,0.00040434,-2.1112e-05,3.2638e+07,16.895,0,1.2038e+08,-0.29324,12123,11201,1,11201,1,-0.00066373,-1.8231e-10,0,2.8329e-05,-0.00016699,-2.6995e+08,-51.67,0,8.7151e+06,-41.991,11200,11662,1,11662,1,-0.00028826,-3.6277e-11,0,0.00020217,-9.6695e-05,-1.1723e+08,-9.2067,0,6.3075e+07,-4.7011,11661,12586,1,12586,1,0.00052042,3.4781e-10,0,0.00060652,5.4353e-05,1.2038e+08,88.153,0,1.7171e+08,6.0252,12585,534.87,0,534.87,0,0.00046672,2.7282e-10,0,0.00024682,8.7235e-05,1.3914e+08,67.436,0,6.9306e+07,10.638,534.87,1
1848,2.85,12125,1,12125,1,0.00011649,1.2439e-10,0,0.00041413,-2.1217e-05,10.142,31.289,0,1.2104e+08,-2.4859,12124,13096,1,13096,1,0.00089905,3.7224e-10,0,0.00089905,0.0001251,1.9071e+08,82.784,0,2.709e+08,10.198,13095,12124,1,12124,1,0.00011649,1.2629e-10,0,0.00040577,-2.1187e-05,3.2754e+07,33.761,0,1.2081e+08,-0.78312,12123,11201,1,11201,1,-0.00066607,-5.3251e-11,0,2.8428e-05,-0.00016758,-2.709e+08,-15.132,0,8.746e+06,-29.083,11200,11662,1,11662,1,-0.00028928,4.6523e-11,0,0.00020289,-9.7036e-05,-1.1764e+08,12.776,0,6.3298e+07,-3.921,11661,12586,1,12586,1,0.00052226,1.9741e-10,0,0.00060866,5.4545e-05,1.2081e+08,49.695,0,1.7232e+08,0.80077,12585,534.87,0,534.87,0,0.00046837,9.1422e-11,0,0.00024769,8.7543e-05,1.3963e+08,22.026,0,6.9551e+07,5.5119,534.87,1
1848,2.86,12125,1,12125,1,0.0001169,-3.418e-11,0,0.00041559,-2.1292e-05,5.5275,-8.6153,0,1.2147e+08,-5.1856,12124,13096,1,13096,1,0.00090221,6.756e-10,0,0.00090221,0.00012554,1.9138e+08,153.47,0,2.7185e+08,12.96,13095,12124,1,12124,1,0.0001169,-5.4131e-12,0,0.0004072,-2.1261e-05,3.2869e+07,-1.2263,0,1.2123e+08,-4.3586,12123,11201,1,11201,1,-0.00066841,-6.9138e-10,0,2.8528e-05,-0.00016817,-2.7185e+08,-157.48,0,8.7767e+06,-35.394,11200,11662,1,11662,1,-0.0002903,-1.9441e-10,0,0.0002036,-9.7377e-05,-1.1805e+08,-50.51,0,6.352e+07,-9.0388,11661,12586,1,12586,1,0.00052409,1.0857e-10,0,0.00061079,5.4737e-05,1.2123e+08,29.525,0,1.7293e+08,0.4464,12585,534.87,0,534.87,0,0.00047002,2.6491e-10,0,0.00024856,8.785e-05,1.4012e+08,65.422,0,6.9795e+07,7.5382,534.87,1
1848,2.87,12125,1,12125,1,0.00011731,-1.935e-10,0,0.00041704,-2.1366e-05,-12.494,-49.055,0,1.2189e+08,-5.7753,12124,13096,1,13096,1,0.00090536,4.7844e-10,0,0.00090536,0.00012598,1.9205e+08,105.69,0,2.728e+08,34.099,13095,12124,1,12124,1,0.00011731,-8.6809e-11,0,0.00040862,-2.1335e-05,3.2983e+07,-22.62,0,1.2165e+08,-4.0983,12123,11201,1,11201,1,-0.00067074,-1.0503e-09,0,2.8628e-05,-0.00016876,-2.728e+08,-274.64,0,8.8073e+06,-52.69,11200,11662,1,11662,1,-0.00029131,-4.2527e-10,0,0.00020431,-9.7717e-05,-1.1846e+08,-105.73,0,6.3742e+07,-13.097,11661,12586,1,12586,1,0.00052592,4.523e-11,0,0.00061293,5.4928e-05,1.2165e+08,11.823,0,1.7353e+08,1.2237,12585,534.87,0,534.87,0,0.00047166,3.4361e-10,0,0.00024943,8.8157e-05,1.4061e+08,85.605,0,7.0039e+07,9.9394,534.87,1
1848,2.88,12125,1,12125,1,0.00011772,1.784e-10,0,0.00041849,-2.1441e-05,0.17369,44.271,0,1.2232e+08,-5.2105,12124,13096,1,13096,1,0.00090851,8.7804e-10,0,0.00090851,0.00012642,1.9272e+08,211.03,0,2.7375e+08,15.065,13095,12124,1,12124,1,0.00011772,9.4976e-11,0,0.00041004,-2.1409e-05,3.3098e+07,25.186,0,1.2208e+08,-3.3068,12123,11201,1,11201,1,-0.00067308,-3.0527e-10,0,2.8728e-05,-0.00016934,-2.7375e+08,-69.556,0,8.8379e+06,-30.664,11200,11662,1,11662,1,-0.00029232,-4.7512e-11,0,0.00020502,-9.8057e-05,-1.1888e+08,-12.527,0,6.3964e+07,-11.296,11661,12586,1,12586,1,0.00052776,3.8917e-10,0,0.00061506,5.5119e-05,1.2208e+08,100.56,0,1.7413e+08,1.3167,12585,534.87,0,534.87,0,0.0004733,2.9513e-10,0,0.0002503,8.8464e-05,1.411e+08,72.513,0,7.0282e+07,9.8349,534.87,1
1848,2.89,12125,1,12125,1,0.00011812,4.9769e-10,0,0.00041994,-2.1515e-05,3.6512,124.27,0,1.2274e+08,-5.761,12124,13096,1,13096,1,0.00091167,1.1668e-09,0,0.00091167,0.00012686,1.9339e+08,279.08,0,2.7471e+08,29.186,13095,12124,1,12124,1,0.00011812,4.9589e-10,0,0.00041147,-2.1484e-05,3.3213e+07,136.19,0,1.225e+08,-2.2746,12123,11201,1,11201,1,-0.00067542,-1.6189e-10,0,2.8827e-05,-0.00016993,-2.7471e+08,-55.436,0,8.8686e+06,-54.783,11200,11662,1,11662,1,-0.00029334,1.8736e-10,0,0.00020573,-9.8398e-05,-1.1929e+08,48.618,0,6.4186e+07,-9.686,11661,12586,1,12586,1,0.00052959,8.2157e-10,0,0.0006172,5.5311e-05,1.225e+08,202.12,0,1.7474e+08,1.4851,12585,534.87,0,534.87,0,0.00047495,3.6727e-10,0,0.00025117,8.8771e-05,1.4159e+08,88.262,0,7.0527e+07,11.613,534.87,1
1848,2.9,12125,1,12125,1,0.00011853,1.0224e-10,0,0.0004214,-2.159e-05,-11.502,25.587,0,1.2317e+08,-0.53259,12124,13096,1,13096,1,0.00091482,2.6232e-10,0,0.00091482,0.00012729,1.9406e+08,57.369,0,2.7565e+08,7.69,13095,12124,1,12124,1,0.00011853,1.0381e-10,0,0.00041289,-2.1558e-05,3.3328e+07,26.159,0,1.2293e+08,0.040277,12123,11201,1,11201,1,-0.00067775,-3.409e-11,0,2.8927e-05,-0.00017052,-2.7565e+08,-11.673,0,8.8993e+06,-16.923,11200,11662,1,11662,1,-0.00029436,4.4363e-11,0,0.00020644,-9.8738e-05,-1.197e+08,11.653,0,6.4408e+07,-2.0138,11661,12586,1,12586,1,0.00053142,1.5755e-10,0,0.00061933,5.5502e-05,1.2293e+08,41.33,0,1.7534e+08,1.5526,12585,534.87,0,534.87,0,0.00047659,7.2678e-11,0,0.00025204,8.9078e-05,1.4208e+08,17.594,0,7.0771e+07,3.411,534.87,1
1848,2.91,12125,1,12125,1,0.00011894,-1.6353e-10,0,0.00042285,-2.1664e-05,-0.64503,-41.447,0,1.2359e+08,-5.0931,12124,13096,1,13096,1,0.00091798,7.3774e-10,0,0.00091798,0.00012773,1.9473e+08,171.45,0,2.7661e+08,34.265,13095,12124,1,12124,1,0.00011894,-6.8459e-11,0,0.00041431,-2.1633e-05,3.3443e+07,-15.862,0,1.2335e+08,-4.1857,12123,11201,1,11201,1,-0.00068009,-1.2254e-09,0,2.9027e-05,-0.00017111,-2.7661e+08,-303.21,0,8.9301e+06,-69.382,11200,11662,1,11662,1,-0.00029537,-4.8182e-10,0,0.00020716,-9.9079e-05,-1.2012e+08,-123.1,0,6.463e+07,-12.577,11661,12586,1,12586,1,0.00053326,1.3787e-10,0,0.00062147,5.5693e-05,1.2335e+08,36.601,0,1.7595e+08,2.611,12585,534.87,0,534.87,0,0.00047823,4.5288e-10,0,0.00025291,8.9386e-05,1.4257e+08,113.21,0,7.1015e+07,11.058,534.87,1
1848,2.92,12125,1,12125,1,0.00011935,2.4661e-10,0,0.0004243,-2.1738e-05,6.5218,62.322,0,1.2402e+08,-2.7571,12124,13096,1,13096,1,0.00092113,6.5469e-10,0,0.00092113,0.00012817,1.954e+08,149.68,0,2.7756e+08,11.695,13095,12124,1,12124,1,0.00011935,2.462e-10,0,0.00041574,-2.1707e-05,3.3558e+07,63.481,0,1.2377e+08,-1.3462,12123,11201,1,11201,1,-0.00068243,-5.4683e-11,0,2.9127e-05,-0.0001717,-2.7756e+08,-18.723,0,8.9608e+06,-25.542,11200,11662,1,11662,1,-0.00029639,1.2782e-10,0,0.00020787,-9.9419e-05,-1.2053e+08,33.775,0,6.4852e+07,-4.6623,11661,12586,1,12586,1,0.00053509,3.6072e-10,0,0.0006236,5.5885e-05,1.2377e+08,90.732,0,1.7655e+08,0.70454,12585,534.87,0,534.87,0,0.00047987,1.5738e-10,0,0.00025378,8.9693e-05,1.4306e+08,38.684,0,7.1259e+07,5.2285,534.87,1
1848,2.93,12125,1,12125,1,0.00011976,2.4132e-10,0,0.00042576,-2.1813e-05,10.649,59.999,0,1.2444e+08,-2.9399,12124,13096,1,13096,1,0.00092429,6.5446e-10,0,0.00092429,0.00012861,1.9607e+08,155.82,0,2.7851e+08,15.593,13095,12124,1,12124,1,0.00011976,2.2934e-10,0,0.00041716,-2.1781e-05,3.3673e+07,60.924,0,1.242e+08,-1.1655,12123,11201,1,11201,1,-0.00068477,-8.0554e-11,0,2.9226e-05,-0.00017229,-2.7851e+08,-27.583,0,8.9915e+06,-29.141,11200,11662,1,11662,1,-0.0002974,7.0309e-11,0,0.00020858,-9.976e-05,-1.2094e+08,18.242,0,6.5074e+07,-4.1524,11661,12586,1,12586,1,0.00053692,3.9278e-10,0,0.00062574,5.6076e-05,1.242e+08,97.036,0,1.7716e+08,1.0531,12585,534.87,0,534.87,0,0.00048152,1.97e-10,0,0.00025465,9e-05,1.4355e+08,47.767,0,7.1503e+07,6.7329,534.87,1
1848,2.94,12125,1,12125,1,0.00012017,1.2183e-10,0,0.00042721,-2.1888e-05,-7.2009,31.151,0,1.2487e+08,-5.7739,12124,13096,1,13096,1,0.00092744,8.5231e-10,0,0.00092744,0.00012905,1.9674e+08,199.87,0,2.7946e+08,11.993,13095,12124,1,12124,1,0.00012017,7.2007e-11,0,0.00041859,-2.1856e-05,3.3788e+07,16.226,0,1.2462e+08,-5.1513,12123,11201,1,11201,1,-0.00068711,-6.6351e-10,0,2.9326e-05,-0.00017287,-2.7946e+08,-154.14,0,9.0222e+06,-42.102,11200,11662,1,11662,1,-0.00029842,-9.1822e-11,0,0.00020929,-0.0001001,-1.2135e+08,-24.142,0,6.5297e+07,-10.814,11661,12586,1,12586,1,0.00053875,3.6819e-10,0,0.00062788,5.6268e-05,1.2462e+08,96.073,0,1.7776e+08,0.25912,12585,534.87,0,534.87,0,0.00048316,3.4387e-10,0,0.00025552,9.0307e-05,1.4404e+08,85.747,0,7.1747e+07,7.985,534.87,1
1848,2.95,12125,1,12125,1,0.00012058,2.2508e-10,0,0.00042866,-2.1962e-05,-15.533,56.802,0,1.2529e+08,-3.9682,12124,13096,1,13096,1,0.00093059,7.9093e-10,0,0.00093059,0.00012949,1.974e+08,190.42,0,2.8041e+08,10.35,13095,12124,1,12124,1,0.00012058,1.7288e-10,0,0.00042001,-2.193e-05,3.3903e+07,44.422,0,1.2505e+08,-2.5299,12123,11201,1,11201,1,-0.00068944,-2.258e-10,0,2.9426e-05,-0.00017346,-2.8041e+08,-51.233,0,9.0529e+06,-21.458,11200,11662,1,11662,1,-0.00029943,1.832e-11,0,0.00021,-0.00010044,-1.2177e+08,4.6588,0,6.5519e+07,-8.2875,11661,12586,1,12586,1,0.00054058,4.1035e-10,0,0.00063001,5.6459e-05,1.2505e+08,107.2,0,1.7837e+08,0.12766,12585,534.87,0,534.87,0,0.00048481,2.4607e-10,0,0.00025638,9.0614e-05,1.4453e+08,61.103,0,7.1991e+07,5.8163,534.87,1
1848,2.96,12125,1,12125,1,0.00012099,5.7967e-11,0,0.00043011,-2.2036e-05,1.2003,14.499,0,1.2572e+08,-1.8887,12124,13096,1,13096,1,0.00093375,2.1851e-10,0,0.00093375,0.00012993,1.9807e+08,52.834,0,2.8136e+08,4.0435,13095,12124,1,12124,1,0.00012099,4.9334e-11,0,0.00042143,-2.2004e-05,3.4018e+07,12.749,0,1.2547e+08,-0.87188,12123,11201,1,11201,1,-0.00069178,-1.1157e-10,0,2.9525e-05,-0.00017405,-2.8136e+08,-23.723,0,9.0836e+06,-18.081,11200,11662,1,11662,1,-0.00030045,-3.1705e-12,0,0.00021072,-0.00010078,-1.2218e+08,-0.74394,0,6.5741e+07,-2.969,11661,12586,1,12586,1,0.00054242,1.1244e-10,0,0.00063215,5.665e-05,1.2547e+08,29.144,0,1.7897e+08,0.31625,12585,534.87,0,534.87,0,0.00048645,7.3118e-11,0,0.00025725,9.0921e-05,1.4502e+08,18.029,0,7.2235e+07,3.4565,534.87,1
1848,2.97,12125,1,12125,1,0.00012139,2.8467e-10,0,0.00043157,-2.2111e-05,-7.7885,71.526,0,1.2614e+08,-5.0588,12124,13096,1,13096,1,0.00093691,9.5293e-10,0,0.00093691,0.00013037,1.9874e+08,228.47,0,2.8231e+08,11.52,13095,12124,1,12124,1,0.00012139,2.3046e-10,0,0.00042286,-2.2079e-05,3.4133e+07,58.998,0,1.2589e+08,-3.7912,12123,11201,1,11201,1,-0.00069412,-2.0576e-10,0,2.9625e-05,-0.00017464,-2.8231e+08,-43.864,0,9.1143e+06,-27.194,11200,11662,1,11662,1,-0.00030146,3.5051e-11,0,0.00021143,-0.00010112,-1.2259e+08,8.622,0,6.5963e+07,-9.6088,11661,12586,1,12586,1,0.00054425,4.8976e-10,0,0.00063428,5.6842e-05,1.2589e+08,130.05,0,1.7958e+08,-0.40553,12585,534.87,0,534.87,0,0.00048809,2.8989e-10,0,0.00025812,9.1229e-05,1.4551e+08,71.434,0,7.2479e+07,6.3957,534.87,1
1848,2.98,12125,1,12125,1,0.0001218,4.3686e-10,0,0.00043302,-2.2185e-05,-6.3504,109.29,0,1.2657e+08,-6.1237,12124,13096,1,13096,1,0.00094006,1.2497e-09,0,0.00094006,0.00013081,1.9941e+08,297.29,0,2.8326e+08,11.975,13095,12124,1,12124,1,0.0001218,3.8023e-10,0,0.00042428,-2.2153e-05,3.4248e+07,98.934,0,1.2632e+08,-4.7892,12123,11201,1,11201,1,-0.00069645,-1.4265e-10,0,2.9725e-05,-0.00017523,-2.8326e+08,-48.847,0,9.145e+06,-29.483,11200,11662,1,11662,1,-0.00030248,1.2655e-10,0,0.00021214,-0.00010146,-1.23e+08,32.623,0,6.6185e+07,-11.405,11661,12586,1,12586,1,0.00054608,6.8509e-10,0,0.00063642,5.7033e-05,1.2632e+08,178.25,0,1.8018e+08,-0.97457,12585,534.87,0,534.87,0,0.00048974,3.5861e-10,0,0.00025899,9.1536e-05,1.46e+08,86.874,0,7.2723e+07,7.2868,534.87,1
1848,2.99,12125,1,12125,1,0.00012221,2.5801e-10,0,0.00043447,-2.226e-05,-2.7934,64.939,0,1.2699e+08,-1.8097,12124,13096,1,13096,1,0.00094321,8.198e-10,0,0.00094321,0.00013124,2.0008e+08,181.86,0,2.8421e+08,36.018,13095,12124,1,12124,1,0.00012221,2.4625e-10,0,0.0004257,-2.2227e-05,3.4363e+07,63.279,0,1.2674e+08,-1.0377,12123,11201,1,11201,1,-0.00069879,-9.6821e-11,0,2.9824e-05,-0.00017581,-2.8421e+08,-33.15,0,9.1757e+06,-31.654,11200,11662,1,11662,1,-0.00030349,1.0739e-10,0,0.00021285,-0.0001018,-1.2342e+08,29.047,0,6.6407e+07,-3.9864,11661,12586,1,12586,1,0.00054791,3.9091e-10,0,0.00063855,5.7224e-05,1.2674e+08,99.727,0,1.8078e+08,1.922,12585,534.87,0,534.87,0,0.00049138,1.9394e-10,0,0.00025986,9.1843e-05,1.4649e+08,47.865,0,7.2967e+07,7.2701,534.87,1
1848,3,12125,1,12125,1,0.00012262,-1.0477e-11,0,0.00043592,-2.2334e-05,1.921,-2.7695,0,1.2741e+08,-1.2379,12124,13096,1,13096,1,0.00094636,4.7857e-11,0,0.00094636,0.00013168,2.0075e+08,11.756,0,2.8516e+08,2.5656,13095,12124,1,12124,1,0.00012262,-6.4837e-12,0,0.00042712,-2.2302e-05,3.4477e+07,-1.6388,0,1.2716e+08,-0.62548,12123,11201,1,11201,1,-0.00070112,-7.987e-11,0,2.9924e-05,-0.0001764,-2.8516e+08,-21.447,0,9.2064e+06,-15.718,11200,11662,1,11662,1,-0.0003045,-2.9872e-11,0,0.00021356,-0.00010214,-1.2383e+08,-7.9461,0,6.6629e+07,-2.1871,11661,12586,1,12586,1,0.00054975,1.1711e-11,0,0.00064069,5.7415e-05,1.2716e+08,2.9303,0,1.8139e+08,0.24283,12585,534.87,0,534.87,0,0.00049302,3.0576e-11,0,0.00026073,9.215e-05,1.4698e+08,7.678,0,7.3211e+07,2.3687,534.87,1
1848,3.01,12125,1,12125,1,0.00012303,1.8893e-10,0,0.00043738,-2.2409e-05,13.028,47.722,0,1.2784e+08,-2.7701,12124,13096,1,13096,1,0.00094952,4.4619e-10,0,0.00094952,0.00013212,2.0142e+08,98.418,0,2.8611e+08,12.804,13095,12124,1,12124,1,0.00012303,1.9877e-10,0,0.00042855,-2.2376e-05,3.4593e+07,52.014,0,1.2759e+08,-1.145,12123,11201,1,11201,1,-0.00070346,-7.0523e-11,0,3.0024e-05,-0.00017699,-2.8611e+08,-24.145,0,9.2371e+06,-27.157,11200,11662,1,11662,1,-0.00030552,7.1519e-11,0,0.00021428,-0.00010248,-1.2424e+08,18.901,0,6.6851e+07,-3.4703,11661,12586,1,12586,1,0.00055158,3.0685e-10,0,0.00064283,5.7607e-05,1.2759e+08,78.617,0,1.8199e+08,0.39746,12585,534.87,0,534.87,0,0.00049467,1.3632e-10,0,0.0002616,9.2457e-05,1.4747e+08,33.446,0,7.3455e+07,5.6886,534.87,1
1848,3.02,12125,1,12125,1,0.00012344,1.3698e-10,0,0.00043883,-2.2483e-05,-8.7903,34.182,0,1.2826e+08,-4.0429,12124,13096,1,13096,1,0.00095268,6.2586e-10,0,0.00095268,0.00013256,2.0209e+08,147.23,0,2.8706e+08,6.8197,13095,12124,1,12124,1,0.00012344,7.169e-11,0,0.00042997,-2.245e-05,3.4707e+07,18.967,0,1.2801e+08,-3.5498,12123,11201,1,11201,1,-0.0007058,-2.2198e-10,0,3.0124e-05,-0.00017758,-2.8706e+08,-50.054,0,9.2678e+06,-22.535,11200,11662,1,11662,1,-0.00030654,-1.4985e-11,0,0.00021499,-0.00010282,-1.2466e+08,-3.4695,0,6.7073e+07,-7.9548,11661,12586,1,12586,1,0.00055341,2.7225e-10,0,0.00064496,5.7798e-05,1.2801e+08,71.579,0,1.826e+08,-0.075203,12585,534.87,0,534.87,0,0.00049631,2.0755e-10,0,0.00026247,9.2764e-05,1.4796e+08,50.667,0,7.3699e+07,5.1876,534.87,1
1848,3.03,12125,1,12125,1,0.00012385,-2.2274e-10,0,0.00044029,-2.2558e-05,5.1396,-56.421,0,1.2869e+08,0.10972,12124,13096,1,13096,1,0.00095583,3.8614e-11,0,0.00095583,0.000133,2.0276e+08,13.223,0,2.8801e+08,9.9077,13095,12124,1,12124,1,0.00012385,-2.2951e-10,0,0.0004314,-2.2525e-05,3.4822e+07,-60.771,0,1.2844e+08,0.97033,12123,11201,1,11201,1,-0.00070814,-4.778e-10,0,3.0223e-05,-0.00017817,-2.8801e+08,-109.02,0,9.2985e+06,-23.067,11200,11662,1,11662,1,-0.00030755,-3.2867e-10,0,0.0002157,-0.00010316,-1.2507e+08,-85.232,0,6.7295e+07,-1.0515,11661,12586,1,12586,1,0.00055525,-1.1658e-10,0,0.0006471,5.799e-05,1.2844e+08,-30.306,0,1.832e+08,2.6154,12585,534.87,0,534.87,0,0.00049795,1.363e-10,0,0.00026334,9.3071e-05,1.4845e+08,33.451,0,7.3943e+07,4.1198,534.87,1
1848,3.04,12125,1,12125,1,0.00012426,-2.5304e-12,0,0.00044174,-2.2632e-05,-7.3869,-0.79949,0,1.2911e+08,-2.4215,12124,13096,1,13096,1,0.00095899,3.1622e-10,0,0.00095899,0.00013344,2.0343e+08,73.295,0,2.8896e+08,7.8698,13095,12124,1,12124,1,0.00012426,-5.047e-12,0,0.00043282,-2.2599e-05,3.4937e+07,-1.3688,0,1.2886e+08,-1.9884,12123,11201,1,11201,1,-0.00071047,-3.2733e-10,0,3.0323e-05,-0.00017875,-2.8896e+08,-79.518,0,9.3293e+06,-19.037,11200,11662,1,11662,1,-0.00030857,-1.1097e-10,0,0.00021641,-0.00010351,-1.2548e+08,-28.921,0,6.7518e+07,-4.9971,11661,12586,1,12586,1,0.00055708,1.1017e-10,0,0.00064923,5.8181e-05,1.2886e+08,28.231,0,1.8381e+08,0.49153,12585,534.87,0,534.87,0,0.0004996,1.5884e-10,0,0.00026421,9.3379e-05,1.4894e+08,39.547,0,7.4187e+07,4.1882,534.87,1
1848,3.05,12125,1,12125,1,0.00012467,7.1614e-11,0,0.00044319,-2.2706e-05,-1.5656,17.896,0,1.2954e+08,-4.71,12124,13096,1,13096,1,0.00096214,5.8112e-10,0,0.00096214,0.00013388,2.041e+08,137.53,0,2.8991e+08,7.3494,13095,12124,1,12124,1,0.00012467,2.9798e-11,0,0.00043425,-2.2673e-05,3.5052e+07,7.0278,0,1.2928e+08,-4.2121,12123,11201,1,11201,1,-0.00071281,-4.222e-10,0,3.0423e-05,-0.00017934,-2.8991e+08,-95.15,0,9.36e+06,-22.987,11200,11662,1,11662,1,-0.00030958,-8.0762e-11,0,0.00021712,-0.00010385,-1.2589e+08,-21.199,0,6.774e+07,-8.7264,11661,12586,1,12586,1,0.00055891,2.376e-10,0,0.00065137,5.8373e-05,1.2928e+08,62.482,0,1.8441e+08,-0.4619,12585,534.87,0,534.87,0,0.00050124,2.3783e-10,0,0.00026507,9.3686e-05,1.4943e+08,58.87,0,7.4431e+07,5.5404,534.87,1
1848,3.06,12125,1,12125,1,0.00012507,8.4857e-11,0,0.00044465,-2.2781e-05,-4.1697,21.253,0,1.2996e+08,-2.4872,12124,13096,1,13096,1,0.00096529,3.9159e-10,0,0.00096529,0.00013432,2.0477e+08,93.988,0,2.9086e+08,5.2906,13095,12124,1,12124,1,0.00012507,4.7234e-11,0,0.00043567,-2.2748e-05,3.5167e+07,12.308,0,1.2971e+08,-1.4722,12123,11201,1,11201,1,-0.00071515,-2.0342e-10,0,3.0522e-05,-0.00017993,-2.9086e+08,-44.29,0,9.3907e+06,-17.879,11200,11662,1,11662,1,-0.0003106,-1.551e-11,0,0.00021783,-0.00010419,-1.2631e+08,-4.2859,0,6.7962e+07,-4.9864,11661,12586,1,12586,1,0.00056074,1.8752e-10,0,0.0006535,5.8564e-05,1.2971e+08,49.549,0,1.8502e+08,0.14484,12585,534.87,0,534.87,0,0.00050288,1.3701e-10,0,0.00026594,9.3993e-05,1.4992e+08,33.91,0,7.4675e+07,3.7152,534.87,1
1848,3.07,12125,1,12125,1,0.00012548,2.7884e-10,0,0.0004461,-2.2855e-05,4.262,69.94,0,1.3039e+08,-2.6211,12124,13096,1,13096,1,0.00096845,7.7261e-10,0,0.00096845,0.00013476,2.0543e+08,171.89,0,2.9181e+08,20.974,13095,12124,1,12124,1,0.00012548,2.8353e-10,0,0.00043709,-2.2822e-05,3.5282e+07,73.022,0,1.3013e+08,-1.6677,12123,11201,1,11201,1,-0.00071748,-9.3039e-11,0,3.0622e-05,-0.00018052,-2.9181e+08,-31.854,0,9.4214e+06,-31.587,11200,11662,1,11662,1,-0.00031161,1.3335e-10,0,0.00021855,-0.00010453,-1.2672e+08,33.654,0,6.8184e+07,-4.5469,11661,12586,1,12586,1,0.00056258,4.1804e-10,0,0.00065564,5.8755e-05,1.3013e+08,107.17,0,1.8562e+08,0.85988,12585,534.87,0,534.87,0,0.00050453,1.9331e-10,0,0.00026681,9.43e-05,1.5041e+08,46.842,0,7.4919e+07,6.7243,534.87,1
1848,3.08,12125,1,12125,1,0.00012589,5.7392e-11,0,0.00044755,-2.293e-05,-16.613,14.409,0,1.3081e+08,-4.7714,12124,13096,1,13096,1,0.0009716,6.2989e-10,0,0.0009716,0.00013519,2.061e+08,148.72,0,2.9276e+08,11.185,13095,12124,1,12124,1,0.00012589,2.4301e-11,0,0.00043852,-2.2896e-05,3.5397e+07,5.3974,0,1.3056e+08,-4.226,12123,11201,1,11201,1,-0.00071982,-4.8481e-10,0,3.0722e-05,-0.00018111,-2.9276e+08,-107.82,0,9.4521e+06,-33.628,11200,11662,1,11662,1,-0.00031263,-1.1093e-10,0,0.00021926,-0.00010487,-1.2713e+08,-30.07,0,6.8406e+07,-8.8658,11661,12586,1,12586,1,0.00056441,2.3814e-10,0,0.00065778,5.8947e-05,1.3056e+08,62.02,0,1.8623e+08,0.23941,12585,534.87,0,534.87,0,0.00050617,2.6592e-10,0,0.00026768,9.4607e-05,1.509e+08,65.879,0,7.5163e+07,6.5871,534.87,1
1848,3.09,12125,1,12125,1,0.0001263,1.3493e-10,0,0.000449,-2.3004e-05,-0.033723,33.995,0,1.3124e+08,-1.9912,12124,13096,1,13096,1,0.00097475,3.0258e-10,0,0.00097475,0.00013563,2.0677e+08,72.74,0,2.9371e+08,3.7322,13095,12124,1,12124,1,0.0001263,1.3823e-10,0,0.00043994,-2.2971e-05,3.5512e+07,36.489,0,1.3098e+08,-1.3195,12123,11201,1,11201,1,-0.00072215,-3.2794e-11,0,3.0821e-05,-0.00018169,-2.9371e+08,-11.23,0,9.4827e+06,-19.893,11200,11662,1,11662,1,-0.00031364,7.0827e-11,0,0.00021997,-0.00010521,-1.2754e+08,18.025,0,6.8628e+07,-2.6831,11661,12586,1,12586,1,0.00056624,2.0224e-10,0,0.00065991,5.9138e-05,1.3098e+08,50.289,0,1.8683e+08,-0.34443,12585,534.87,0,534.87,0,0.00050781,8.6023e-11,0,0.00026855,9.4914e-05,1.5139e+08,20.955,0,7.5407e+07,2.8746,534.87,1
1848,3.1,12125,1,12125,1,0.00012671,1.1261e-10,0,0.00045046,-2.3079e-05,-16.032,28.614,0,1.3166e+08,-2.3413,12124,13096,1,13096,1,0.00097791,3.5681e-10,0,0.00097791,0.00013607,2.0744e+08,84.244,0,2.9466e+08,3.0571,13095,12124,1,12124,1,0.00012671,8.1004e-11,0,0.00044136,-2.3045e-05,3.5627e+07,20.573,0,1.314e+08,-1.8105,12123,11201,1,11201,1,-0.00072449,-3.3901e-11,0,3.0921e-05,-0.00018228,-2.9466e+08,-11.608,0,9.5135e+06,-21.916,11200,11662,1,11662,1,-0.00031465,2.9593e-11,0,0.00022068,-0.00010555,-1.2796e+08,7.4844,0,6.885e+07,-3.8539,11661,12586,1,12586,1,0.00056807,1.824e-10,0,0.00066204,5.9329e-05,1.314e+08,47.363,0,1.8743e+08,-0.049695,12585,534.87,0,534.87,0,0.00050946,1.0147e-10,0,0.00026942,9.5221e-05,1.5188e+08,24.956,0,7.5651e+07,3.3679,534.87,1
1848,3.11,12125,1,12125,1,0.00012712,2.8258e-10,0,0.00045191,-2.3153e-05,6.3715,71.214,0,1.3209e+08,-2.6083,12124,13096,1,13096,1,0.00098107,6.2223e-10,0,0.00098107,0.00013651,2.0811e+08,149.65,0,2.9562e+08,14.463,13095,12124,1,12124,1,0.00012712,2.9063e-10,0,0.00044279,-2.312e-05,3.5742e+07,74.915,0,1.3183e+08,-1.59,12123,11201,1,11201,1,-0.00072683,-6.437e-11,0,3.1021e-05,-0.00018287,-2.9562e+08,-22.042,0,9.5442e+06,-28.176,11200,11662,1,11662,1,-0.00031567,1.2556e-10,0,0.00022139,-0.00010589,-1.2837e+08,32.191,0,6.9072e+07,-3.9807,11661,12586,1,12586,1,0.00056991,4.4545e-10,0,0.00066418,5.9521e-05,1.3183e+08,112.63,0,1.8804e+08,0.42516,12585,534.87,0,534.87,0,0.0005111,1.911e-10,0,0.00027029,9.5529e-05,1.5237e+08,46.747,0,7.5895e+07,5.3858,534.87,1
1848,3.12,12125,1,12125,1,0.00012753,-2.0262e-11,0,0.00045336,-2.3228e-05,-7.4343,-5.1323,0,1.3251e+08,-2.8657,12124,13096,1,13096,1,0.00098422,2.614e-10,0,0.00098422,0.00013695,2.0878e+08,58.78,0,2.9657e+08,5.9876,13095,12124,1,12124,1,0.00012753,-1.3576e-11,0,0.00044421,-2.3194e-05,3.5857e+07,-3.7412,0,1.3225e+08,-2.664,12123,11201,1,11201,1,-0.00072917,-3.5011e-10,0,3.112e-05,-0.00018346,-2.9657e+08,-77.787,0,9.5749e+06,-18.38,11200,11662,1,11662,1,-0.00031668,-1.1688e-10,0,0.00022211,-0.00010623,-1.2878e+08,-29.755,0,6.9294e+07,-5.6422,11661,12586,1,12586,1,0.00057174,7.9877e-11,0,0.00066632,5.9712e-05,1.3225e+08,20.278,0,1.8864e+08,0.37809,12585,534.87,0,534.87,0,0.00051274,1.434e-10,0,0.00027116,9.5836e-05,1.5286e+08,35.286,0,7.6139e+07,4.1278,534.87,1
1848,3.13,12125,1,12125,1,0.00012794,-7.2078e-11,0,0.00045482,-2.3302e-05,-24.811,-18.056,0,1.3294e+08,-2.7061,12124,13096,1,13096,1,0.00098738,3.6332e-10,0,0.00098738,0.00013739,2.0945e+08,81.99,0,2.9752e+08,17.859,13095,12124,1,12124,1,0.00012794,-3.046e-11,0,0.00044564,-2.3268e-05,3.5972e+07,-7.7322,0,1.3268e+08,-2.1894,12123,11201,1,11201,1,-0.00073151,-5.5613e-10,0,3.122e-05,-0.00018405,-2.9752e+08,-134.36,0,9.6056e+06,-31.099,11200,11662,1,11662,1,-0.0003177,-2.0715e-10,0,0.00022282,-0.00010657,-1.292e+08,-53.767,0,6.9516e+07,-6.3312,11661,12586,1,12586,1,0.00057357,6.2172e-11,0,0.00066845,5.9903e-05,1.3268e+08,15.896,0,1.8925e+08,1.3994,12585,534.87,0,534.87,0,0.00051439,2.0617e-10,0,0.00027203,9.6143e-05,1.5335e+08,51.046,0,7.6384e+07,5.5856,534.87,1
1848,3.14,12125,1,12125,1,0.00012834,2.2392e-10,0,0.00045627,-2.3377e-05,7.6649,56.306,0,1.3336e+08,-1.5366,12124,13096,1,13096,1,0.00099053,6.6211e-10,0,0.00099053,0.00013783,2.1012e+08,146.93,0,2.9847e+08,22.025,13095,12124,1,12124,1,0.00012834,2.2435e-10,0,0.00044706,-2.3343e-05,3.6087e+07,57.684,0,1.331e+08,-0.87098,12123,11201,1,11201,1,-0.00073384,-7.1753e-11,0,3.132e-05,-0.00018463,-2.9847e+08,-24.566,0,9.6363e+06,-29.573,11200,11662,1,11662,1,-0.00031871,1.0369e-10,0,0.00022353,-0.00010691,-1.2961e+08,27.235,0,6.9738e+07,-3.2257,11661,12586,1,12586,1,0.0005754,3.3039e-10,0,0.00067059,6.0095e-05,1.331e+08,83.668,0,1.8985e+08,1.8646,12585,534.87,0,534.87,0,0.00051603,1.5655e-10,0,0.0002729,9.645e-05,1.5384e+08,38.21,0,7.6628e+07,6.2288,534.87,1
1848,3.15,12125,1,12125,1,0.00012875,1.8998e-10,0,0.00045772,-2.3451e-05,-19.034,47.38,0,1.3378e+08,-2.6051,12124,13096,1,13096,1,0.00099368,5.6046e-10,0,0.00099368,0.00013827,2.1079e+08,132.87,0,2.9942e+08,7.603,13095,12124,1,12124,1,0.00012875,1.6379e-10,0,0.00044848,-2.3417e-05,3.6201e+07,43.42,0,1.3352e+08,-2.0449,12123,11201,1,11201,1,-0.00073618,-7.5034e-11,0,3.1419e-05,-0.00018522,-2.9942e+08,-25.694,0,9.667e+06,-20.121,11200,11662,1,11662,1,-0.00031973,4.6369e-11,0,0.00022424,-0.00010725,-1.3002e+08,12.375,0,6.996e+07,-4.9771,11661,12586,1,12586,1,0.00057723,3.0519e-10,0,0.00067272,6.0286e-05,1.3352e+08,79.813,0,1.9046e+08,0.12687,12585,534.87,0,534.87,0,0.00051767,1.6396e-10,0,0.00027376,9.6757e-05,1.5433e+08,39.641,0,7.6871e+07,3.9224,534.87,1
1848,3.16,12125,1,12125,1,0.00012916,2.006e-10,0,0.00045918,-2.3526e-05,2.7202,50.241,0,1.3421e+08,-3.2126,12124,13096,1,13096,1,0.00099684,5.8483e-10,0,0.00099684,0.00013871,2.1146e+08,138.69,0,3.0037e+08,13.218,13095,12124,1,12124,1,0.00012916,1.8584e-10,0,0.00044991,-2.3491e-05,3.6317e+07,50.357,0,1.3395e+08,-1.5221,12123,11201,1,11201,1,-0.00073852,-1.2056e-10,0,3.1519e-05,-0.00018581,-3.0037e+08,-25.628,0,9.6977e+06,-26.572,11200,11662,1,11662,1,-0.00032074,3.8101e-11,0,0.00022495,-0.00010759,-1.3043e+08,10.285,0,7.0183e+07,-5.1608,11661,12586,1,12586,1,0.00057907,3.3205e-10,0,0.00067486,6.0478e-05,1.3395e+08,87.137,0,1.9106e+08,0.69858,12585,534.87,0,534.87,0,0.00051932,1.848e-10,0,0.00027463,9.7065e-05,1.5482e+08,45.22,0,7.7116e+07,6.1199,534.87,1
1848,3.17,12125,1,12125,1,0.00012957,-3.4683e-11,0,0.00046063,-2.36e-05,4.7618,-8.8928,0,1.3463e+08,-2.0317,12124,13096,1,13096,1,0.00099999,2.2767e-10,0,0.00099999,0.00013915,2.1213e+08,49.299,0,3.0132e+08,3.6661,13095,12124,1,12124,1,0.00012957,-1.8442e-11,0,0.00045133,-2.3566e-05,3.6432e+07,-4.9186,0,1.3437e+08,-1.3468,12123,11201,1,11201,1,-0.00074085,-2.7368e-10,0,3.1619e-05,-0.0001864,-3.0132e+08,-60.57,0,9.7285e+06,-24.68,11200,11662,1,11662,1,-0.00032176,-1.0389e-10,0,0.00022567,-0.00010793,-1.3085e+08,-27.224,0,7.0405e+07,-3.0466,11661,12586,1,12586,1,0.0005809,2.7595e-11,0,0.000677,6.0669e-05,1.3437e+08,7.0495,0,1.9167e+08,0.50999,12585,534.87,0,534.87,0,0.00052096,9.9103e-11,0,0.0002755,9.7372e-05,1.5531e+08,24.522,0,7.736e+07,3.8634,534.87,1
1848,3.18,12125,1,12125,1,0.00012998,4.9139e-11,0,0.00046208,-2.3674e-05,-3.0776,12.169,0,1.3506e+08,-4.5339,12124,13096,1,13096,1,0.0010031,5.9432e-10,0,0.0010031,0.00013958,2.128e+08,141.62,0,3.0227e+08,9.3071,13095,12124,1,12124,1,0.00012998,1.9508e-11,0,0.00045275,-2.364e-05,3.6547e+07,4.7844,0,1.3479e+08,-4.0157,12123,11201,1,11201,1,-0.00074319,-5.63e-10,0,3.1718e-05,-0.00018699,-3.0227e+08,-127.69,0,9.7592e+06,-24.854,11200,11662,1,11662,1,-0.00032277,-1.1725e-10,0,0.00022638,-0.00010827,-1.3126e+08,-31.018,0,7.0627e+07,-8.7768,11661,12586,1,12586,1,0.00058273,2.4351e-10,0,0.00067913,6.086e-05,1.3479e+08,64.865,0,1.9227e+08,-0.22986,12585,534.87,0,534.87,0,0.0005226,2.6915e-10,0,0.00027637,9.7679e-05,1.558e+08,67.051,0,7.7604e+07,6.0012,534.87,1
1848,3.19,12125,1,12125,1,0.00013039,1.6611e-10,0,0.00046354,-2.3749e-05,-4.1696,41.685,0,1.3548e+08,-2.865,12124,13096,1,13096,1,0.0010063,4.8731e-10,0,0.0010063,0.00014002,2.1346e+08,116.57,0,3.0322e+08,6.1975,13095,12124,1,12124,1,0.00013039,1.5533e-10,0,0.00045418,-2.3714e-05,3.6661e+07,40.861,0,1.3522e+08,-2.0456,12123,11201,1,11201,1,-0.00074553,-8.9743e-11,0,3.1818e-05,-0.00018757,-3.0322e+08,-20.213,0,9.7899e+06,-19.601,11200,11662,1,11662,1,-0.00032379,3.4234e-11,0,0.00022709,-0.00010861,-1.3167e+08,8.2595,0,7.0849e+07,-5.3643,11661,12586,1,12586,1,0.00058457,2.7474e-10,0,0.00068127,6.1052e-05,1.3522e+08,71.814,0,1.9288e+08,-0.0065745,12585,534.87,0,534.87,0,0.00052425,1.4902e-10,0,0.00027724,9.7986e-05,1.5629e+08,36.59,0,7.7848e+07,4.0012,534.87,1
1848,3.2,12125,1,12125,1,0.0001308,2.5158e-10,0,0.00046499,-2.3823e-05,6.3421,62.654,0,1.3591e+08,-2.6477,12124,13096,1,13096,1,0.0010095,6.1739e-10,0,0.0010095,0.00014046,2.1413e+08,146.67,0,3.0417e+08,17.361,13095,12124,1,12124,1,0.0001308,2.4815e-10,0,0.0004556,-2.3789e-05,3.6776e+07,64.957,0,1.3564e+08,-2.1691,12123,11201,1,11201,1,-0.00074786,-9.1802e-11,0,3.1918e-05,-0.00018816,-3.0417e+08,-31.435,0,9.8205e+06,-26.073,11200,11662,1,11662,1,-0.0003248,8.9471e-11,0,0.0002278,-0.00010895,-1.3208e+08,23.718,0,7.1071e+07,-4.5211,11661,12586,1,12586,1,0.0005864,4.0605e-10,0,0.0006834,6.1243e-05,1.3564e+08,103.79,0,1.9348e+08,0.58736,12585,534.87,0,534.87,0,0.00052589,1.9715e-10,0,0.00027811,9.8293e-05,1.5678e+08,47.89,0,7.8092e+07,5.662,534.87,1
1848,3.21,12125,1,12125,1,0.00013121,-4.7254e-10,0,0.00046644,-2.3898e-05,8.8933,-119.48,0,1.3633e+08,0.12552,12124,13096,1,13096,1,0.0010126,8.4798e-11,0,0.0010126,0.0001409,2.148e+08,29.037,0,3.0512e+08,27.715,13095,12124,1,12124,1,0.00013121,-4.6905e-10,0,0.00045703,-2.3863e-05,3.6891e+07,-121.81,0,1.3607e+08,1.4026,12123,11201,1,11201,1,-0.0007502,-1.2298e-09,0,3.2017e-05,-0.00018875,-3.0512e+08,-278.45,0,9.8513e+06,-35.518,11200,11662,1,11662,1,-0.00032582,-7.2713e-10,0,0.00022851,-0.00010929,-1.325e+08,-185.02,0,7.1293e+07,-2.9843,11661,12586,1,12586,1,0.00058823,-2.1268e-10,0,0.00068554,6.1435e-05,1.3607e+08,-54.746,0,1.9409e+08,5.2064,12585,534.87,0,534.87,0,0.00052753,3.2144e-10,0,0.00027898,9.8601e-05,1.5727e+08,79.1,0,7.8336e+07,7.8911,534.87,1
1848,3.22,12125,1,12125,1,0.00013161,2.7346e-10,0,0.00046789,-2.3972e-05,6.3029,68.535,0,1.3676e+08,-3.0974,12124,13096,1,13096,1,0.0010158,8.0568e-10,0,0.0010158,0.00014134,2.1547e+08,180.26,0,3.0607e+08,22.147,13095,12124,1,12124,1,0.00013161,2.761e-10,0,0.00045845,-2.3937e-05,3.7006e+07,71.416,0,1.3649e+08,-1.3107,12123,11201,1,11201,1,-0.00075254,-9.4919e-11,0,3.2117e-05,-0.00018934,-3.0607e+08,-32.498,0,9.882e+06,-35.017,11200,11662,1,11662,1,-0.00032683,1.1996e-10,0,0.00022922,-0.00010963,-1.3291e+08,33.05,0,7.1515e+07,-4.6833,11661,12586,1,12586,1,0.00059006,4.2247e-10,0,0.00068767,6.1626e-05,1.3649e+08,104.65,0,1.9469e+08,0.96028,12585,534.87,0,534.87,0,0.00052918,1.9514e-10,0,0.00027985,9.8907e-05,1.5776e+08,47.785,0,7.858e+07,7.3589,534.87,1
1848,3.23,12125,1,12125,1,0.00013202,2.6462e-11,0,0.00046935,-2.4047e-05,2.5004,6.4931,0,1.3718e+08,-1.2316,12124,13096,1,13096,1,0.0010189,1.2869e-10,0,0.0010189,0.00014178,2.1614e+08,27.689,0,3.0702e+08,9.4997,13095,12124,1,12124,1,0.00013202,2.8635e-11,0,0.00045987,-2.4012e-05,3.7121e+07,7.5606,0,1.3691e+08,-0.061351,12123,11201,1,11201,1,-0.00075487,-8.6657e-11,0,3.2217e-05,-0.00018993,-3.0702e+08,-18.055,0,9.9127e+06,-20.867,11200,11662,1,11662,1,-0.00032785,3.6607e-12,0,0.00022994,-0.00010997,-1.3332e+08,0.98391,0,7.1737e+07,-1.4004,11661,12586,1,12586,1,0.0005919,5.2252e-11,0,0.00068981,6.1817e-05,1.3691e+08,12.64,0,1.953e+08,0.73859,12585,534.87,0,534.87,0,0.00053082,3.4589e-11,0,0.00028072,9.9215e-05,1.5825e+08,8.4174,0,7.8824e+07,3.8001,534.87,1
1848,3.24,12125,1,12125,1,0.00013243,3.6064e-11,0,0.0004708,-2.4121e-05,-2.5137,9.4382,0,1.3761e+08,-2.393,12124,13096,1,13096,1,0.0010221,2.9833e-10,0,0.0010221,0.00014222,2.1681e+08,65.351,0,3.0797e+08,7.0177,13095,12124,1,12124,1,0.00013243,2.5526e-11,0,0.0004613,-2.4086e-05,3.7236e+07,7.0943,0,1.3734e+08,-1.7204,12123,11201,1,11201,1,-0.00075721,-1.5245e-10,0,3.2317e-05,-0.00019051,-3.0797e+08,-33.347,0,9.9434e+06,-24.982,11200,11662,1,11662,1,-0.00032886,-1.3987e-11,0,0.00023065,-0.00011032,-1.3374e+08,-3.875,0,7.1959e+07,-3.4457,11661,12586,1,12586,1,0.00059373,8.9348e-11,0,0.00069195,6.2009e-05,1.3734e+08,23.298,0,1.959e+08,0.13536,12585,534.87,0,534.87,0,0.00053246,8.839e-11,0,0.00028159,9.9522e-05,1.5874e+08,21.598,0,7.9068e+07,3.948,534.87,1
1848,3.25,12125,1,12125,1,0.00013284,1.4362e-10,0,0.00047225,-2.4196e-05,-2.9579,35.833,0,1.3803e+08,-2.4766,12124,13096,1,13096,1,0.0010252,3.8296e-10,0,0.0010252,0.00014266,2.1748e+08,87.749,0,3.0892e+08,11.288,13095,12124,1,12124,1,0.00013284,1.497e-10,0,0.00046272,-2.416e-05,3.7351e+07,39.527,0,1.3776e+08,-0.83429,12123,11201,1,11201,1,-0.00075955,-6.2525e-11,0,3.2416e-05,-0.0001911,-3.0892e+08,-21.41,0,9.9741e+06,-25.329,11200,11662,1,11662,1,-0.00032988,4.1828e-11,0,0.00023136,-0.00011066,-1.3415e+08,10.614,0,7.2181e+07,-4.82,11661,12586,1,12586,1,0.00059556,2.4522e-10,0,0.00069408,6.22e-05,1.3776e+08,61.011,0,1.965e+08,0.89666,12585,534.87,0,534.87,0,0.00053411,1.1829e-10,0,0.00028246,9.9829e-05,1.5923e+08,28.929,0,7.9312e+07,5.2231,534.87,1
1848,3.26,12125,1,12125,1,0.00013325,3.2978e-10,0,0.00047371,-2.427e-05,-2.2029,82.971,0,1.3846e+08,-3.7267,12124,13096,1,13096,1,0.0010284,8.2001e-10,0,0.0010284,0.0001431,2.1815e+08,182.78,0,3.0987e+08,23.514,13095,12124,1,12124,1,0.00013325,3.3821e-10,0,0.00046414,-2.4235e-05,3.7466e+07,90.749,0,1.3819e+08,-1.5752,12123,11201,1,11201,1,-0.00076189,-8.2692e-11,0,3.2516e-05,-0.00019169,-3.0987e+08,-28.315,0,1.0005e+07,-36.907,11200,11662,1,11662,1,-0.00033089,1.5693e-10,0,0.00023207,-0.000111,-1.3456e+08,41.293,0,7.2403e+07,-6.3248,11661,12586,1,12586,1,0.00059739,5.2059e-10,0,0.00069622,6.2391e-05,1.3819e+08,129.28,0,1.9711e+08,0.27421,12585,534.87,0,534.87,0,0.00053575,2.1852e-10,0,0.00028333,0.00010014,1.5972e+08,53.154,0,7.9556e+07,7.5395,534.87,1
1848,3.27,12125,1,12125,1,0.00013366,2.1237e-10,0,0.00047516,-2.4345e-05,-2.3617,53.302,0,1.3888e+08,-4.2798,12124,13096,1,13096,1,0.0010315,7.1688e-10,0,0.0010315,0.00014353,2.1882e+08,173.04,0,3.1082e+08,6.5079,13095,12124,1,12124,1,0.00013366,1.6802e-10,0,0.00046557,-2.4309e-05,3.7581e+07,43.295,0,1.3861e+08,-2.7903,12123,11201,1,11201,1,-0.00076422,-2.0744e-10,0,3.2615e-05,-0.00019228,-3.1082e+08,-44.111,0,1.0036e+07,-23.603,11200,11662,1,11662,1,-0.00033191,1.5603e-11,0,0.00023278,-0.00011134,-1.3497e+08,4.4545,0,7.2626e+07,-8.1104,11661,12586,1,12586,1,0.00059923,3.7805e-10,0,0.00069835,6.2583e-05,1.3861e+08,99.843,0,1.9771e+08,-0.47948,12585,534.87,0,534.87,0,0.00053739,2.2671e-10,0,0.00028419,0.00010044,1.6021e+08,55.599,0,7.98e+07,5.2971,534.87,1
1848,3.28,12125,1,12125,1,0.00013407,2.3608e-10,0,0.00047661,-2.4419e-05,5.6659,59.343,0,1.3931e+08,-2.8156,12124,13096,1,13096,1,0.0010347,6.0818e-10,0,0.0010347,0.00014397,2.1949e+08,133.49,0,3.1177e+08,19.756,13095,12124,1,12124,1,0.00013407,2.4207e-10,0,0.00046699,-2.4384e-05,3.7696e+07,63.142,0,1.3903e+08,-1.4558,12123,11201,1,11201,1,-0.00076656,-9.1008e-11,0,3.2715e-05,-0.00019287,-3.1177e+08,-31.158,0,1.0066e+07,-32.735,11200,11662,1,11662,1,-0.00033292,8.7261e-11,0,0.0002335,-0.00011168,-1.3539e+08,22.099,0,7.2848e+07,-3.8716,11661,12586,1,12586,1,0.00060106,3.6845e-10,0,0.00070049,6.2774e-05,1.3903e+08,98.967,0,1.9832e+08,0.64082,12585,534.87,0,534.87,0,0.00053904,1.7979e-10,0,0.00028506,0.00010075,1.607e+08,43.969,0,8.0044e+07,6.9006,534.87,1
1848,3.29,12125,1,12125,1,0.00013448,2.4048e-10,0,0.00047807,-2.4494e-05,17.815,59.743,0,1.3973e+08,-4.8237,12124,13096,1,13096,1,0.0010379,6.0672e-10,0,0.0010379,0.00014441,2.2016e+08,146.51,0,3.1273e+08,21.921,13095,12124,1,12124,1,0.00013448,2.3959e-10,0,0.00046842,-2.4458e-05,3.7811e+07,64.122,0,1.3946e+08,-3.411,12123,11201,1,11201,1,-0.0007689,-1.0173e-10,0,3.2815e-05,-0.00019345,-3.1273e+08,-34.835,0,1.0097e+07,-32.432,11200,11662,1,11662,1,-0.00033394,6.5499e-11,0,0.00023421,-0.00011202,-1.358e+08,17.521,0,7.307e+07,-7.6701,11661,12586,1,12586,1,0.00060289,4.0922e-10,0,0.00070262,6.2966e-05,1.3946e+08,102.29,0,1.9892e+08,-0.6993,12585,534.87,0,534.87,0,0.00054068,2.0044e-10,0,0.00028593,0.00010106,1.6119e+08,48.497,0,8.0288e+07,7.3382,534.87,1
1848,3.3,12125,1,12125,1,0.00013489,3.1635e-10,0,0.00047952,-2.4568e-05,25.961,78.713,0,1.4016e+08,-4.3836,12124,13096,1,13096,1,0.001041,8.4257e-10,0,0.001041,0.00014485,2.2083e+08,184.93,0,3.1368e+08,23.071,13095,12124,1,12124,1,0.00013489,3.2126e-10,0,0.00046984,-2.4532e-05,3.7926e+07,83.975,0,1.3988e+08,-2.5088,12123,11201,1,11201,1,-0.00077124,-1.2015e-10,0,3.2914e-05,-0.00019404,-3.1368e+08,-41.135,0,1.0128e+07,-39.383,11200,11662,1,11662,1,-0.00033495,1.182e-10,0,0.00023492,-0.00011236,-1.3621e+08,29.743,0,7.3292e+07,-6.3816,11661,12586,1,12586,1,0.00060472,5.0018e-10,0,0.00070476,6.3157e-05,1.3988e+08,130.17,0,1.9953e+08,0.11099,12585,534.87,0,534.87,0,0.00054232,2.3987e-10,0,0.0002868,0.00010137,1.6168e+08,57.539,0,8.0532e+07,8.5759,534.87,1
1848,3.31,12125,1,12125,1,0.00013529,3.1836e-10,0,0.00048097,-2.4642e-05,-1.481,80.06,0,1.4058e+08,-4.6589,12124,13096,1,13096,1,0.0010442,8.7256e-10,0,0.0010442,0.00014529,2.2149e+08,208.34,0,3.1463e+08,10.352,13095,12124,1,12124,1,0.00013529,3.0102e-10,0,0.00047126,-2.4607e-05,3.8041e+07,79.373,0,1.4031e+08,-3.6507,12123,11201,1,11201,1,-0.00077357,-9.9148e-11,0,3.3014e-05,-0.00019463,-3.1463e+08,-33.951,0,1.0158e+07,-26.465,11200,11662,1,11662,1,-0.00033597,8.1493e-11,0,0.00023563,-0.0001127,-1.3662e+08,21.512,0,7.3514e+07,-8.3525,11661,12586,1,12586,1,0.00060656,5.086e-10,0,0.00070689,6.3348e-05,1.4031e+08,132.58,0,2.0013e+08,-0.30022,12585,534.87,0,534.87,0,0.00054397,2.6105e-10,0,0.00028767,0.00010167,1.6217e+08,63.927,0,8.0776e+07,5.9576,534.87,1
1848,3.32,12125,1,12125,1,0.0001357,-3.0706e-10,0,0.00048243,-2.4717e-05,-0.49105,-77.1,0,1.41e+08,-1.8143,12124,13096,1,13096,1,0.0010473,9.9983e-11,0,0.0010473,0.00014573,2.2216e+08,34.232,0,3.1558e+08,30.72,13095,12124,1,12124,1,0.0001357,-2.9702e-10,0,0.00047269,-2.4681e-05,3.8156e+07,-77.466,0,1.4073e+08,-0.74834,12123,11201,1,11201,1,-0.00077591,-8.9943e-10,0,3.3114e-05,-0.00019522,-3.1558e+08,-199.83,0,1.0189e+07,-30.542,11200,11662,1,11662,1,-0.00033698,-4.8387e-10,0,0.00023634,-0.00011304,-1.3704e+08,-122.49,0,7.3736e+07,-5.0509,11661,12586,1,12586,1,0.00060839,-1.2208e-10,0,0.00070903,6.354e-05,1.4073e+08,-29.801,0,2.0074e+08,2.1866,12585,534.87,0,534.87,0,0.00054561,2.2894e-10,0,0.00028854,0.00010198,1.6266e+08,55.708,0,8.102e+07,6.7202,534.87,1
1848,3.33,12125,1,12125,1,0.00013611,3.1949e-10,0,0.00048388,-2.4791e-05,16.992,80.591,0,1.4143e+08,-6.0023,12124,13096,1,13096,1,0.0010505,7.2092e-10,0,0.0010505,0.00014617,2.2283e+08,166.25,0,3.1653e+08,15.221,13095,12124,1,12124,1,0.00013611,3.3892e-10,0,0.00047411,-2.4755e-05,3.8271e+07,88.593,0,1.4115e+08,-2.3658,12123,11201,1,11201,1,-0.00077825,-8.0949e-11,0,3.3213e-05,-0.00019581,-3.1653e+08,-27.719,0,1.022e+07,-46.027,11200,11662,1,11662,1,-0.000338,1.2765e-10,0,0.00023706,-0.00011338,-1.3745e+08,31.045,0,7.3958e+07,-8.3002,11661,12586,1,12586,1,0.00061022,5.2134e-10,0,0.00071117,6.3731e-05,1.4115e+08,131.79,0,2.0134e+08,-0.39562,12585,534.87,0,534.87,0,0.00054726,2.2496e-10,0,0.00028941,0.00010229,1.6315e+08,55.194,0,8.1265e+07,9.1665,534.87,1
1848,3.34,12125,1,12125,1,0.00013652,-2.8047e-10,0,0.00048533,-2.4866e-05,4.6585,-70.938,0,1.4185e+08,0.27352,12124,13096,1,13096,1,0.0010536,5.5792e-11,0,0.0010536,0.00014661,2.235e+08,19.105,0,3.1748e+08,11.697,13095,12124,1,12124,1,0.00013652,-2.9557e-10,0,0.00047553,-2.483e-05,3.8386e+07,-77.401,0,1.4158e+08,1.2498,12123,11201,1,11201,1,-0.00078058,-5.7542e-10,0,3.3313e-05,-0.00019639,-3.1748e+08,-137.56,0,1.0251e+07,-28.611,11200,11662,1,11662,1,-0.00033901,-4.1219e-10,0,0.00023777,-0.00011372,-1.3786e+08,-107,0,7.418e+07,-1.2714,11661,12586,1,12586,1,0.00061205,-1.4663e-10,0,0.0007133,6.3922e-05,1.4158e+08,-38.767,0,2.0195e+08,3.4692,12585,534.87,0,534.87,0,0.0005489,1.7202e-10,0,0.00029028,0.00010259,1.6364e+08,42.156,0,8.1508e+07,5.2894,534.87,1
1848,3.35,12125,1,12125,1,0.00013693,2.4039e-10,0,0.00048679,-2.494e-05,5.2161,60.148,0,1.4228e+08,-2.4275,12124,13096,1,13096,1,0.0010568,6.3363e-10,0,0.0010568,0.00014705,2.2417e+08,138.36,0,3.1843e+08,20.555,13095,12124,1,12124,1,0.00013693,2.4995e-10,0,0.00047696,-2.4904e-05,3.8501e+07,66.979,0,1.42e+08,-1.0164,12123,11201,1,11201,1,-0.00078292,-9.0495e-11,0,3.3413e-05,-0.00019698,-3.1843e+08,-30.983,0,1.0281e+07,-28.036,11200,11662,1,11662,1,-0.00034003,9.3263e-11,0,0.00023848,-0.00011406,-1.3828e+08,23.451,0,7.4402e+07,-5.3084,11661,12586,1,12586,1,0.00061389,3.9667e-10,0,0.00071544,6.4114e-05,1.42e+08,97.629,0,2.0255e+08,1.5125,12585,534.87,0,534.87,0,0.00055054,1.777e-10,0,0.00029115,0.0001029,1.6413e+08,43.091,0,8.1752e+07,6.1251,534.87,1
1848,3.36,12125,1,12125,1,0.00013734,-8.704e-12,0,0.00048824,-2.5015e-05,-1.2771,-2.2919,0,1.427e+08,-2.3836,12124,13096,1,13096,1,0.0010599,3.5503e-10,0,0.0010599,0.00014748,2.2484e+08,79.392,0,3.1938e+08,9.3387,13095,12124,1,12124,1,0.00013734,-3.9758e-12,0,0.00047838,-2.4978e-05,3.8615e+07,-1.1563,0,1.4242e+08,-1.8594,12123,11201,1,11201,1,-0.00078525,-3.2221e-10,0,3.3512e-05,-0.00019757,-3.1938e+08,-82.454,0,1.0312e+07,-22.478,11200,11662,1,11662,1,-0.00034104,-1.1625e-10,0,0.00023919,-0.0001144,-1.3869e+08,-30.11,0,7.4624e+07,-5.0341,11661,12586,1,12586,1,0.00061572,9.4146e-11,0,0.00071757,6.4305e-05,1.4242e+08,24.373,0,2.0316e+08,0.75348,12585,534.87,0,534.87,0,0.00055218,1.5644e-10,0,0.00029202,0.00010321,1.6462e+08,38.917,0,8.1996e+07,4.3542,534.87,1
1848,3.37,12125,1,12125,1,0.00013775,8.6398e-11,0,0.00048969,-2.5089e-05,-0.80212,21.658,0,1.4313e+08,-1.5709,12124,13096,1,13096,1,0.0010631,2.34e-10,0,0.0010631,0.00014792,2.2551e+08,51.396,0,3.2033e+08,9.8325,13095,12124,1,12124,1,0.00013775,8.9077e-11,0,0.0004798,-2.5053e-05,3.873e+07,22.876,0,1.4285e+08,-0.60133,12123,11201,1,11201,1,-0.00078759,-3.1125e-11,0,3.3612e-05,-0.00019816,-3.2033e+08,-10.658,0,1.0343e+07,-21.131,11200,11662,1,11662,1,-0.00034206,3.3155e-11,0,0.0002399,-0.00011474,-1.391e+08,8.4752,0,7.4846e+07,-1.8913,11661,12586,1,12586,1,0.00061755,1.3599e-10,0,0.00071971,6.4496e-05,1.4285e+08,35.761,0,2.0376e+08,0.29646,12585,534.87,0,534.87,0,0.00055383,6.4919e-11,0,0.00029289,0.00010352,1.6511e+08,15.879,0,8.224e+07,3.8245,534.87,1
1848,3.38,12125,1,12125,1,0.00013816,-5.4644e-11,0,0.00049114,-2.5164e-05,-2.2624,-13.739,0,1.4355e+08,-2.4524,12124,13096,1,13096,1,0.0010662,1.4738e-10,0,0.0010662,0.00014836,2.2618e+08,31.089,0,3.2128e+08,14.117,13095,12124,1,12124,1,0.00013816,-1.8503e-11,0,0.00048123,-2.5127e-05,3.8845e+07,-4.7407,0,1.4327e+08,-1.8982,12123,11201,1,11201,1,-0.00078993,-3.5076e-10,0,3.3712e-05,-0.00019875,-3.2128e+08,-88.154,0,1.0373e+07,-22.747,11200,11662,1,11662,1,-0.00034307,-1.1908e-10,0,0.00024061,-0.00011508,-1.3951e+08,-30.49,0,7.5068e+07,-3.9607,11661,12586,1,12586,1,0.00061938,1.8861e-11,0,0.00072184,6.4688e-05,1.4327e+08,4.9933,0,2.0436e+08,0.20554,12585,534.87,0,534.87,0,0.00055547,1.0646e-10,0,0.00029375,0.00010382,1.656e+08,26.462,0,8.2484e+07,4.2651,534.87,1
1848,3.39,12125,1,12125,1,0.00013856,-1.7826e-10,0,0.0004926,-2.5238e-05,-10.394,-44.757,0,1.4398e+08,-2.7271,12124,13096,1,13096,1,0.0010694,3.4831e-10,0,0.0010694,0.0001488,2.2685e+08,78.224,0,3.2223e+08,22.705,13095,12124,1,12124,1,0.00013856,-8.7939e-11,0,0.00048265,-2.5201e-05,3.896e+07,-22.501,0,1.437e+08,-2.0161,12123,11201,1,11201,1,-0.00079227,-9.2968e-10,0,3.3812e-05,-0.00019933,-3.2223e+08,-220.06,0,1.0404e+07,-44.036,11200,11662,1,11662,1,-0.00034409,-3.7515e-10,0,0.00024133,-0.00011542,-1.3993e+08,-95.844,0,7.5291e+07,-7.6501,11661,12586,1,12586,1,0.00062122,3.4454e-11,0,0.00072398,6.4879e-05,1.437e+08,8.2015,0,2.0497e+08,2.67,12585,534.87,0,534.87,0,0.00055712,2.9391e-10,0,0.00029462,0.00010413,1.6609e+08,72.581,0,8.2729e+07,7.6463,534.87,1
1848,3.4,12125,1,12125,1,0.00013897,7.803e-11,0,0.00049405,-2.5313e-05,-3.0455,19.62,0,1.444e+08,-3.5777,12124,13096,1,13096,1,0.0010725,3.7916e-10,0,0.0010725,0.00014924,2.2752e+08,90.358,0,3.2318e+08,5.0276,13095,12124,1,12124,1,0.00013897,4.109e-11,0,0.00048408,-2.5276e-05,3.9075e+07,11.598,0,1.4412e+08,-2.7816,12123,11201,1,11201,1,-0.0007946,-1.5939e-10,0,3.3911e-05,-0.00019992,-3.2318e+08,-34.641,0,1.0435e+07,-20.02,11200,11662,1,11662,1,-0.0003451,-1.8504e-11,0,0.00024204,-0.00011576,-1.4034e+08,-4.5942,0,7.5513e+07,-6.4127,11661,12586,1,12586,1,0.00062305,1.7178e-10,0,0.00072611,6.507e-05,1.4412e+08,44.392,0,2.0557e+08,-0.39235,12585,534.87,0,534.87,0,0.00055876,1.3185e-10,0,0.00029549,0.00010444,1.6658e+08,32.35,0,8.2972e+07,4.1092,534.87,1
1848,3.41,12125,1,12125,1,0.00013938,-1.5962e-10,0,0.0004955,-2.5387e-05,-9.146,-39.979,0,1.4483e+08,-0.90282,12124,13096,1,13096,1,0.0010757,3.8786e-10,0,0.0010757,0.00014968,2.2819e+08,87.118,0,3.2413e+08,32.605,13095,12124,1,12124,1,0.00013938,-8.6739e-11,0,0.0004855,-2.535e-05,3.919e+07,-21.791,0,1.4454e+08,-0.91782,12123,11201,1,11201,1,-0.00079694,-9.0888e-10,0,3.4011e-05,-0.00020051,-3.2413e+08,-206.7,0,1.0466e+07,-24.791,11200,11662,1,11662,1,-0.00034612,-3.5715e-10,0,0.00024275,-0.0001161,-1.4075e+08,-93.88,0,7.5735e+07,-5.9894,11661,12586,1,12586,1,0.00062488,4.2322e-11,0,0.00072825,6.5262e-05,1.4454e+08,10.523,0,2.0618e+08,4.581,12585,534.87,0,534.87,0,0.0005604,2.8275e-10,0,0.00029636,0.00010474,1.6707e+08,69.756,0,8.3217e+07,7.5306,534.87,1
1848,3.42,12125,1,12125,1,0.00013979,-6.1615e-11,0,0.00049696,-2.5461e-05,13.267,-15.543,0,1.4525e+08,-0.37686,12124,13096,1,13096,1,0.0010789,4.9806e-11,0,0.0010789,0.00015012,2.2885e+08,14.812,0,3.2508e+08,9.2432,13095,12124,1,12124,1,0.00013979,-3.5852e-11,0,0.00048692,-2.5424e-05,3.9305e+07,-9.1279,0,1.4497e+08,0.065721,12123,11201,1,11201,1,-0.00079928,-2.6969e-10,0,3.411e-05,-0.0002011,-3.2508e+08,-64.495,0,1.0496e+07,-26.171,11200,11662,1,11662,1,-0.00034713,-1.2397e-10,0,0.00024346,-0.00011644,-1.4116e+08,-31.752,0,7.5957e+07,-1.5897,11661,12586,1,12586,1,0.00062671,5.1464e-12,0,0.00073038,6.5453e-05,1.4497e+08,1.3956,0,2.0678e+08,2.3825,12585,534.87,0,534.87,0,0.00056204,8.3404e-11,0,0.00029723,0.00010505,1.6756e+08,20.79,0,8.346e+07,4.8892,534.87,1
1848,3.43,12125,1,12125,1,0.0001402,8.6297e-12,0,0.00049841,-2.5536e-05,0.99968,2.1929,0,1.4568e+08,-1.1152,12124,13096,1,13096,1,0.001082,7.5627e-11,0,0.001082,0.00015056,2.2952e+08,15.322,0,3.2603e+08,1.4559,13095,12124,1,12124,1,0.0001402,6.8458e-12,0,0.00048835,-2.5499e-05,3.942e+07,2.0236,0,1.4539e+08,0.19681,12123,11201,1,11201,1,-0.00080161,-2.593e-11,0,3.421e-05,-0.00020169,-3.2603e+08,-5.9186,0,1.0527e+07,-23.615,11200,11662,1,11662,1,-0.00034815,4.4174e-12,0,0.00024417,-0.00011678,-1.4158e+08,0.96427,0,7.6179e+07,-0.78987,11661,12586,1,12586,1,0.00062855,1.1614e-11,0,0.00073252,6.5645e-05,1.4539e+08,2.9152,0,2.0739e+08,0.68421,12585,534.87,0,534.87,0,0.00056369,9.2893e-12,0,0.0002981,0.00010536,1.6805e+08,2.107,0,8.3705e+07,3.6538,534.87,1
1848,3.44,12125,1,12125,1,0.00014061,-1.1668e-09,0,0.00049986,-2.561e-05,-2.7817,-294.65,0,1.461e+08,13.291,12124,13096,1,13096,1,0.0010852,4.8263e-10,0,0.0010852,0.000151,2.302e+08,165.26,0,3.2698e+08,72.706,13095,12124,1,12124,1,0.00014061,-8.9475e-10,0,0.00048977,-2.5573e-05,3.9535e+07,-229.53,0,1.4582e+08,8.4567,12123,11201,1,11201,1,-0.00080396,-3.88e-09,0,3.431e-05,-0.00020228,-3.2698e+08,-932.09,0,1.0557e+07,-56.061,11200,11662,1,11662,1,-0.00034916,-1.9389e-09,0,0.00024489,-0.00011712,-1.4199e+08,-510.66,0,7.6401e+07,-2.9931,11661,12586,1,12586,1,0.00063038,-2.0586e-10,0,0.00073466,6.5836e-05,1.4582e+08,-51.177,0,2.0799e+08,28.489,12585,534.87,0,534.87,0,0.00056533,1.104e-09,0,0.00029897,0.00010566,1.6854e+08,274.4,0,8.3948e+07,24.472,534.87,1
1848,3.45,12125,1,12125,1,0.00014102,1.2644e-10,0,0.00050132,-2.5685e-05,-0.1478,31.715,0,1.4653e+08,-1.9851,12124,13096,1,13096,1,0.0010883,2.9212e-10,0,0.0010883,0.00015143,2.3086e+08,64.695,0,3.2793e+08,6.7519,13095,12124,1,12124,1,0.00014102,1.3127e-10,0,0.00049119,-2.5647e-05,3.965e+07,34.809,0,1.4624e+08,-0.61729,12123,11201,1,11201,1,-0.00080629,-3.4282e-11,0,3.4409e-05,-0.00020286,-3.2793e+08,-11.738,0,1.0588e+07,-23.598,11200,11662,1,11662,1,-0.00035018,5.7195e-11,0,0.0002456,-0.00011747,-1.424e+08,15.181,0,7.6623e+07,-2.2981,11661,12586,1,12586,1,0.00063221,2.0354e-10,0,0.00073679,6.6027e-05,1.4624e+08,50.166,0,2.086e+08,0.25439,12585,534.87,0,534.87,0,0.00056697,8.5239e-11,0,0.00029984,0.00010597,1.6903e+08,20.688,0,8.4193e+07,4.237,534.87,1
1848,3.46,12125,1,12125,1,0.00014143,-1.2039e-09,0,0.00050277,-2.5759e-05,7.2351,-304.85,0,1.4695e+08,4.8317,12124,13096,1,13096,1,0.0010915,2.4048e-10,0,0.0010915,0.00015188,2.3154e+08,82.348,0,3.2889e+08,41.371,13095,12124,1,12124,1,0.00014143,-1.2135e-09,0,0.00049262,-2.5722e-05,3.9765e+07,-317.29,0,1.4667e+08,4.1636,12123,11201,1,11201,1,-0.00080864,-2.7694e-09,0,3.4509e-05,-0.00020345,-3.2889e+08,-665.11,0,1.0619e+07,-62.611,11200,11662,1,11662,1,-0.0003512,-1.6962e-09,0,0.00024631,-0.00011781,-1.4282e+08,-436.56,0,7.6846e+07,-4.8207,11661,12586,1,12586,1,0.00063405,-6.7007e-10,0,0.00073893,6.6219e-05,1.4667e+08,-168.8,0,2.092e+08,15.6,12585,534.87,0,534.87,0,0.00056862,7.3177e-10,0,0.00030071,0.00010628,1.6952e+08,179.86,0,8.4437e+07,17.658,534.87,1
1848,3.47,12125,1,12125,1,0.00014184,-3.9317e-10,0,0.00050423,-2.5834e-05,41.035,-98.478,0,1.4738e+08,5.1857,12124,13096,1,13096,1,0.0010946,4.1043e-10,0,0.0010946,0.00015231,2.322e+08,118.24,0,3.2984e+08,47.649,13095,12124,1,12124,1,0.00014184,-2.3448e-10,0,0.00049405,-2.5796e-05,3.988e+07,-58.08,0,1.4709e+08,3.3728,12123,11201,1,11201,1,-0.00081097,-1.7907e-09,0,3.4609e-05,-0.00020404,-3.2984e+08,-430.76,0,1.065e+07,-55.326,11200,11662,1,11662,1,-0.00035221,-8.1615e-10,0,0.00024702,-0.00011815,-1.4323e+08,-213.16,0,7.7068e+07,-7.1587,11661,12586,1,12586,1,0.00063588,6.5019e-11,0,0.00074107,6.641e-05,1.4709e+08,16.486,0,2.0981e+08,15.948,12585,534.87,0,534.87,0,0.00057026,5.6999e-10,0,0.00030158,0.00010659,1.7001e+08,141.84,0,8.4681e+07,18.529,534.87,1
1848,3.48,12125,1,12125,1,0.00014224,1.7973e-10,0,0.00050567,-2.5908e-05,9.7515,44.893,0,1.478e+08,-1.572,12124,13096,1,13096,1,0.0010978,4.4044e-10,0,0.0010978,0.00015275,2.3287e+08,96.396,0,3.3078e+08,12.571,13095,12124,1,12124,1,0.00014224,1.8517e-10,0,0.00049547,-2.5871e-05,3.9995e+07,49.048,0,1.4751e+08,-0.45658,12123,11201,1,11201,1,-0.0008133,-5.8062e-11,0,3.4708e-05,-0.00020463,-3.3078e+08,-19.879,0,1.0681e+07,-23.8,11200,11662,1,11662,1,-0.00035322,8.7732e-11,0,0.00024773,-0.00011849,-1.4364e+08,22.657,0,7.7289e+07,-2.4844,11661,12586,1,12586,1,0.00063771,2.7922e-10,0,0.0007432,6.6601e-05,1.4751e+08,69.682,0,2.1041e+08,1.2837,12585,534.87,0,534.87,0,0.0005719,1.2102e-10,0,0.00030245,0.00010689,1.705e+08,28.939,0,8.4925e+07,4.9469,534.87,1
1848,3.49,12125,1,12125,1,0.00014265,-5.243e-11,0,0.00050713,-2.5983e-05,-3.2744,-13.488,0,1.4822e+08,-2.4765,12124,13096,1,13096,1,0.0011009,2.2725e-10,0,0.0011009,0.00015319,2.3354e+08,49.019,0,3.3173e+08,6.1412,13095,12124,1,12124,1,0.00014265,-2.4782e-11,0,0.00049689,-2.5945e-05,4.011e+07,-6.2892,0,1.4794e+08,-2.028,12123,11201,1,11201,1,-0.00081564,-3.2108e-10,0,3.4808e-05,-0.00020521,-3.3173e+08,-80.774,0,1.0711e+07,-23.471,11200,11662,1,11662,1,-0.00035424,-1.401e-10,0,0.00024844,-0.00011883,-1.4405e+08,-36.088,0,7.7511e+07,-4.4211,11661,12586,1,12586,1,0.00063954,2.9591e-11,0,0.00074533,6.6793e-05,1.4794e+08,7.8327,0,2.1102e+08,0.3781,12585,534.87,0,534.87,0,0.00057355,1.2454e-10,0,0.00030332,0.0001072,1.7099e+08,31.004,0,8.5169e+07,4.1392,534.87,1
1848,3.5,12125,1,12125,1,0.00014306,-2.2604e-11,0,0.00050858,-2.6057e-05,6.7254,-5.8573,0,1.4865e+08,-0.94608,12124,13096,1,13096,1,0.0011041,1.1485e-10,0,0.0011041,0.00015363,2.3421e+08,27.295,0,3.3268e+08,12.593,13095,12124,1,12124,1,0.00014306,-2.2414e-11,0,0.00049831,-2.6019e-05,4.0225e+07,-5.7418,0,1.4836e+08,0.17141,12123,11201,1,11201,1,-0.00081797,-1.3013e-10,0,3.4908e-05,-0.0002058,-3.3268e+08,-31.454,0,1.0742e+07,-24.503,11200,11662,1,11662,1,-0.00035525,-5.2226e-11,0,0.00024916,-0.00011917,-1.4447e+08,-13.348,0,7.7734e+07,-1.9406,11661,12586,1,12586,1,0.00064138,3.5051e-12,0,0.00074747,6.6984e-05,1.4836e+08,0.83109,0,2.1162e+08,1.9108,12585,534.87,0,534.87,0,0.00057519,4.6962e-11,0,0.00030418,0.00010751,1.7148e+08,11.899,0,8.5413e+07,5.0001,534.87,1
1848,3.51,12125,1,12125,1,0.00014347,-4.0096e-11,0,0.00051004,-2.6132e-05,80.964,-10.972,0,1.4907e+08,5.2957,12124,13096,1,13096,1,0.0011073,1.2045e-09,0,0.0011073,0.00015407,2.3488e+08,301.84,0,3.3364e+08,89.282,13095,12124,1,12124,1,0.00014347,-2.0572e-11,0,0.00049974,-2.6094e-05,4.034e+07,-5.9318,0,1.4878e+08,0.17414,12123,11201,1,11201,1,-0.00082031,-1.2264e-09,0,3.5007e-05,-0.00020639,-3.3364e+08,-292.73,0,1.0773e+07,-47.974,11200,11662,1,11662,1,-0.00035627,-4.6218e-10,0,0.00024987,-0.00011951,-1.4488e+08,-120.03,0,7.7956e+07,-8.5124,11661,12586,1,12586,1,0.00064321,3.0613e-10,0,0.00074961,6.7176e-05,1.4878e+08,81.694,0,2.1223e+08,16.042,12585,534.87,0,534.87,0,0.00057684,5.8726e-10,0,0.00030505,0.00010782,1.7197e+08,144.91,0,8.5657e+07,21.944,534.87,1
1848,3.52,12125,1,12125,1,0.00014388,-1.7741e-09,0,0.00051149,-2.6206e-05,106.74,-446.7,0,1.495e+08,0.61706,12124,13096,1,13096,1,0.0011104,4.0404e-10,0,0.0011104,0.00015451,2.3555e+08,138.35,0,3.3459e+08,102.66,13095,12124,1,12124,1,0.00014388,-1.7849e-09,0,0.00050117,-2.6168e-05,4.0455e+07,-466.13,0,1.4921e+08,4.0069,12123,11201,1,11201,1,-0.00082267,-4.0006e-09,0,3.5107e-05,-0.00020698,-3.3459e+08,-950.75,0,1.0803e+07,-89.359,11200,11662,1,11662,1,-0.00035728,-2.6562e-09,0,0.00025058,-0.00011985,-1.4529e+08,-689.91,0,7.8178e+07,-13.094,11661,12586,1,12586,1,0.00064505,-8.7956e-10,0,0.00075175,6.7367e-05,1.4921e+08,-217.91,0,2.1283e+08,16.481,12585,534.87,0,534.87,0,0.00057848,1.1894e-09,0,0.00030593,0.00010812,1.7246e+08,290.01,0,8.5902e+07,25.145,534.87,1
1848,3.53,12125,1,12125,1,0.00014429,-8.9107e-11,0,0.00051294,-2.6281e-05,23.107,-21.405,0,1.4992e+08,0.92121,12124,13096,1,13096,1,0.0011136,6.7074e-10,0,0.0011136,0.00015495,2.3622e+08,171.94,0,3.3554e+08,60.6,13095,12124,1,12124,1,0.00014429,4.275e-12,0,0.00050259,-2.6243e-05,4.057e+07,0.90079,0,1.4963e+08,0.22141,12123,11201,1,11201,1,-0.00082499,-1.1465e-09,0,3.5207e-05,-0.00020757,-3.3554e+08,-283.01,0,1.0834e+07,-79.897,11200,11662,1,11662,1,-0.0003583,-3.9339e-10,0,0.00025129,-0.00012019,-1.4571e+08,-104.02,0,7.84e+07,-11.231,11661,12586,1,12586,1,0.00064688,2.2496e-10,0,0.00075388,6.7559e-05,1.4963e+08,54.932,0,2.1344e+08,15.302,12585,534.87,0,534.87,0,0.00058013,4.3864e-10,0,0.00030679,0.00010843,1.7295e+08,109.6,0,8.6145e+07,24.616,534.87,1
1848,3.54,12125,1,12125,1,0.0001447,-4.6878e-10,0,0.0005144,-2.6355e-05,-10.584,-118.89,0,1.5035e+08,-2.3648,12124,13096,1,13096,1,0.0011167,5.9227e-11,0,0.0011167,0.00015539,2.3689e+08,20.28,0,3.3649e+08,19.089,13095,12124,1,12124,1,0.0001447,-4.7428e-10,0,0.00050401,-2.6317e-05,4.0685e+07,-125.99,0,1.5006e+08,-1.9709,12123,11201,1,11201,1,-0.00082733,-1.0631e-09,0,3.5307e-05,-0.00020816,-3.3649e+08,-248.8,0,1.0865e+07,-24.37,11200,11662,1,11662,1,-0.00035931,-6.5575e-10,0,0.00025201,-0.00012053,-1.4612e+08,-170.47,0,7.8622e+07,-4.7682,11661,12586,1,12586,1,0.00064871,-2.6382e-10,0,0.00075602,6.775e-05,1.5006e+08,-69.695,0,2.1404e+08,0.64904,12585,534.87,0,534.87,0,0.00058177,2.6455e-10,0,0.00030766,0.00010874,1.7344e+08,64.752,0,8.6389e+07,4.4722,534.87,1
1848,3.55,12125,1,12125,1,0.00014511,1.9313e-10,0,0.00051585,-2.6429e-05,6.9652,47.841,0,1.5077e+08,-2.5407,12124,13096,1,13096,1,0.0011199,5.204e-10,0,0.0011199,0.00015582,2.3755e+08,113.9,0,3.3744e+08,16.607,13095,12124,1,12124,1,0.00014511,1.9545e-10,0,0.00050543,-2.6391e-05,4.0799e+07,51.961,0,1.5048e+08,-0.55698,12123,11201,1,11201,1,-0.00082966,-8.7413e-11,0,3.5406e-05,-0.00020874,-3.3744e+08,-29.927,0,1.0895e+07,-30.922,11200,11662,1,11662,1,-0.00036033,7.1786e-11,0,0.00025272,-0.00012087,-1.4653e+08,18.33,0,7.8844e+07,-4.337,11661,12586,1,12586,1,0.00065054,3.1947e-10,0,0.00075815,6.7941e-05,1.5048e+08,78.722,0,2.1464e+08,1.6371,12585,534.87,0,534.87,0,0.00058341,1.4892e-10,0,0.00030853,0.00010904,1.7392e+08,35.467,0,8.6633e+07,6.9423,534.87,1
1848,3.56,12125,1,12125,1,0.00014551,1.9453e-10,0,0.0005173,-2.6504e-05,5.8794,48.652,0,1.512e+08,-2.1643,12124,13096,1,13096,1,0.001123,4.4443e-10,0,0.001123,0.00015626,2.3822e+08,106.09,0,3.3839e+08,12.05,13095,12124,1,12124,1,0.00014551,1.9541e-10,0,0.00050686,-2.6465e-05,4.0914e+07,51.814,0,1.509e+08,-0.48145,12123,11201,1,11201,1,-0.00083199,-5.9719e-11,0,3.5506e-05,-0.00020933,-3.3839e+08,-20.446,0,1.0926e+07,-26.502,11200,11662,1,11662,1,-0.00036134,8.6342e-11,0,0.00025343,-0.00012121,-1.4694e+08,21.925,0,7.9066e+07,-2.9509,11661,12586,1,12586,1,0.00065237,3.1028e-10,0,0.00076028,6.8132e-05,1.509e+08,77.248,0,2.1525e+08,1.2552,12585,534.87,0,534.87,0,0.00058505,1.3664e-10,0,0.0003094,0.00010935,1.7441e+08,32.974,0,8.6877e+07,5.6933,534.87,1
1848,3.57,12125,1,12125,1,0.00014592,1.7394e-10,0,0.00051875,-2.6578e-05,1.1109,43.809,0,1.5162e+08,-3.0812,12124,13096,1,13096,1,0.0011262,4.5512e-10,0,0.0011262,0.0001567,2.3889e+08,101.84,0,3.3934e+08,3.4228,13095,12124,1,12124,1,0.00014592,1.6361e-10,0,0.00050828,-2.654e-05,4.1029e+07,43.431,0,1.5133e+08,-1.3219,12123,11201,1,11201,1,-0.00083433,-2.6192e-11,0,3.5605e-05,-0.00020992,-3.3934e+08,-8.9687,0,1.0957e+07,-26.564,11200,11662,1,11662,1,-0.00036236,6.8496e-11,0,0.00025414,-0.00012155,-1.4736e+08,18.694,0,7.9288e+07,-4.4173,11661,12586,1,12586,1,0.0006542,2.5796e-10,0,0.00076242,6.8324e-05,1.5133e+08,66.541,0,2.1585e+08,-0.065579,12585,534.87,0,534.87,0,0.0005867,1.2282e-10,0,0.00031027,0.00010966,1.7491e+08,29.613,0,8.7121e+07,4.8338,534.87,1
1848,3.58,12125,1,12125,1,0.00014633,-2.835e-11,0,0.00052021,-2.6653e-05,2.4648,-6.8255,0,1.5205e+08,-3.1344,12124,13096,1,13096,1,0.0011293,2.4809e-10,0,0.0011293,0.00015714,2.3956e+08,53.62,0,3.4029e+08,10.575,13095,12124,1,12124,1,0.00014633,-6.8363e-12,0,0.0005097,-2.6614e-05,4.1144e+07,-2.0375,0,1.5175e+08,-2.4903,12123,11201,1,11201,1,-0.00083667,-2.7947e-10,0,3.5705e-05,-0.00021051,-3.4029e+08,-62.918,0,1.0988e+07,-29.337,11200,11662,1,11662,1,-0.00036337,-9.3402e-11,0,0.00025485,-0.00012189,-1.4777e+08,-23.802,0,7.951e+07,-4.2579,11661,12586,1,12586,1,0.00065604,3.4863e-11,0,0.00076456,6.8515e-05,1.5175e+08,9.0927,0,2.1646e+08,-0.02469,12585,534.87,0,534.87,0,0.00058834,1.0326e-10,0,0.00031114,0.00010997,1.754e+08,24.968,0,8.7365e+07,4.6995,534.87,1
1848,3.59,12125,1,12125,1,0.00014674,-3.112e-10,0,0.00052166,-2.6728e-05,32.44,-77.933,0,1.5247e+08,9.8478,12124,13096,1,13096,1,0.0011325,3.4519e-10,0,0.0011325,0.00015758,2.4023e+08,97.166,0,3.4124e+08,73.223,13095,12124,1,12124,1,0.00014674,-1.5765e-10,0,0.00051113,-2.6689e-05,4.126e+07,-42.812,0,1.5218e+08,7.5263,12123,11201,1,11201,1,-0.00083901,-1.4612e-09,0,3.5805e-05,-0.0002111,-3.4124e+08,-345.56,0,1.1018e+07,-33.22,11200,11662,1,11662,1,-0.00036439,-6.2646e-10,0,0.00025557,-0.00012223,-1.4818e+08,-164.08,0,7.9733e+07,-0.23519,11661,12586,1,12586,1,0.00065787,4.2586e-11,0,0.0007667,6.8707e-05,1.5218e+08,10.787,0,2.1706e+08,21.074,12585,534.87,0,534.87,0,0.00058999,4.7092e-10,0,0.00031201,0.00011027,1.7589e+08,115.3,0,8.761e+07,14.771,534.87,1
1848,3.6,12125,1,12125,1,0.00014715,2.9665e-10,0,0.00052312,-2.6802e-05,98.603,75.814,0,1.529e+08,0.4337,12124,13096,1,13096,1,0.0011357,1.5557e-09,0,0.0011357,0.00015802,2.409e+08,400.18,0,3.4219e+08,84.872,13095,12124,1,12124,1,0.00014715,1.3115e-10,0,0.00051256,-2.6763e-05,4.1375e+07,33.412,0,1.526e+08,-1.8404,12123,11201,1,11201,1,-0.00084135,-3.1527e-10,0,3.5904e-05,-0.00021168,-3.4219e+08,-90.168,0,1.1049e+07,-54.075,11200,11662,1,11662,1,-0.0003654,-3.0185e-11,0,0.00025628,-0.00012257,-1.486e+08,-7.9909,0,7.9955e+07,-10.019,11661,12586,1,12586,1,0.00065971,5.7555e-10,0,0.00076883,6.8898e-05,1.526e+08,148.01,0,2.1767e+08,11.265,12585,534.87,0,534.87,0,0.00059163,4.4637e-10,0,0.00031288,0.00011058,1.7638e+08,113.17,0,8.7854e+07,18.262,534.87,1
1848,3.61,12125,1,12125,1,0.00014756,1.5259e-10,0,0.00052457,-2.6876e-05,45.373,37.916,0,1.5332e+08,8.4171,12124,13096,1,13096,1,0.0011388,1.8063e-09,0,0.0011388,0.00015846,2.4157e+08,454.21,0,3.4314e+08,128.53,13095,12124,1,12124,1,0.00014756,2.7227e-11,0,0.00051398,-2.6837e-05,4.1489e+07,7.2767,0,1.5302e+08,2.6144,12123,11201,1,11201,1,-0.00084368,-9.5218e-10,0,3.6004e-05,-0.00021227,-3.4314e+08,-228.02,0,1.108e+07,-48.687,11200,11662,1,11662,1,-0.00036642,-3.2514e-10,0,0.00025699,-0.00012291,-1.4901e+08,-83.823,0,8.0177e+07,-8.4649,11661,12586,1,12586,1,0.00066154,5.4826e-10,0,0.00077096,6.9089e-05,1.5302e+08,141.48,0,2.1827e+08,21.446,12585,534.87,0,534.87,0,0.00059327,6.6522e-10,0,0.00031374,0.00011089,1.7686e+08,165.59,0,8.8097e+07,24.555,534.87,1
1848,3.62,12125,1,12125,1,0.00014797,-6.0267e-11,0,0.00052602,-2.6951e-05,-1.1235,-14.954,0,1.5374e+08,-1.7874,12124,13096,1,13096,1,0.0011419,1.2821e-10,0,0.0011419,0.0001589,2.4224e+08,26.723,0,3.4409e+08,12.58,13095,12124,1,12124,1,0.00014797,-2.843e-11,0,0.0005154,-2.6911e-05,4.1604e+07,-7.212,0,1.5345e+08,-1.2784,12123,11201,1,11201,1,-0.00084601,-3.6256e-10,0,3.6103e-05,-0.00021286,-3.4409e+08,-81.708,0,1.1111e+07,-24.047,11200,11662,1,11662,1,-0.00036743,-1.2328e-10,0,0.0002577,-0.00012325,-1.4942e+08,-31.731,0,8.0398e+07,-4.0352,11661,12586,1,12586,1,0.00066336,1.179e-11,0,0.0007731,6.928e-05,1.5345e+08,3.2284,0,2.1887e+08,0.9305,12585,534.87,0,534.87,0,0.00059491,1.0084e-10,0,0.00031461,0.00011119,1.7735e+08,24.544,0,8.8341e+07,4.4152,534.87,1
1848,3.63,12125,1,12125,1,0.00014838,2.1319e-10,0,0.00052748,-2.7025e-05,-57.13,53.793,0,1.5417e+08,1.71,12124,13096,1,13096,1,0.0011451,5.0671e-10,0,0.0011451,0.00015934,2.4291e+08,116.51,0,3.4505e+08,15.754,13095,12124,1,12124,1,0.00014838,2.1706e-10,0,0.00051683,-2.6986e-05,4.172e+07,59.655,0,1.5387e+08,2.8749,12123,11201,1,11201,1,-0.00084837,-4.8921e-11,0,3.6204e-05,-0.00021345,-3.4505e+08,-16.751,0,1.1141e+07,-22.508,11200,11662,1,11662,1,-0.00036845,1.1437e-10,0,0.00025841,-0.0001236,-1.4983e+08,29.168,0,8.0622e+07,0.63881,11661,12586,1,12586,1,0.00066521,3.1713e-10,0,0.00077524,6.9473e-05,1.5387e+08,77.304,0,2.1948e+08,4.4866,12585,534.87,0,534.87,0,0.00059656,1.2838e-10,0,0.00031549,0.0001115,1.7785e+08,30.913,0,8.8586e+07,4.9644,534.87,1
1848,3.64,12125,1,12125,1,0.00014879,2.1507e-10,0,0.00052892,-2.71e-05,-1.5863,54.166,0,1.5459e+08,-4.4588,12124,13096,1,13096,1,0.0011483,6.7795e-10,0,0.0011483,0.00015977,2.4358e+08,162.76,0,3.4599e+08,5.783,13095,12124,1,12124,1,0.00014878,1.7372e-10,0,0.00051825,-2.706e-05,4.1834e+07,44.655,0,1.5429e+08,-3.4937,12123,11201,1,11201,1,-0.00085069,-1.0692e-10,0,3.6303e-05,-0.00021403,-3.4599e+08,-28.325,0,1.1172e+07,-27.167,11200,11662,1,11662,1,-0.00036946,3.6267e-11,0,0.00025912,-0.00012393,-1.5024e+08,8.841,0,8.0843e+07,-7.5465,11661,12586,1,12586,1,0.00066703,3.636e-10,0,0.00077737,6.9663e-05,1.5429e+08,95.309,0,2.2008e+08,-0.72972,12585,534.87,0,534.87,0,0.0005982,2.0277e-10,0,0.00031635,0.00011181,1.7833e+08,49.904,0,8.8829e+07,5.2434,534.87,1
1848,3.65,12125,1,12125,1,0.0001492,2.408e-10,0,0.00053039,-2.7175e-05,9.9558,60.206,0,1.5502e+08,-0.35441,12124,13096,1,13096,1,0.0011514,9.8753e-10,0,0.0011514,0.00016022,2.4425e+08,215.4,0,3.4695e+08,53.079,13095,12124,1,12124,1,0.0001492,2.1842e-10,0,0.00051968,-2.7135e-05,4.195e+07,57.643,0,1.5472e+08,2.8983,12123,11201,1,11201,1,-0.00085304,-2.1757e-10,0,3.6403e-05,-0.00021463,-3.4695e+08,-62.119,0,1.1203e+07,-76.924,11200,11662,1,11662,1,-0.00037048,1.0669e-10,0,0.00025984,-0.00012428,-1.5066e+08,27.307,0,8.1066e+07,-7.9642,11661,12586,1,12586,1,0.00066888,3.5045e-10,0,0.00077952,6.9856e-05,1.5472e+08,89.23,0,2.2069e+08,11.08,12585,534.87,0,534.87,0,0.00059985,2.1813e-10,0,0.00031723,0.00011212,1.7883e+08,52.979,0,8.9075e+07,19.246,534.87,1
1848,3.66,12125,1,12125,1,0.0001496,1.1706e-10,0,0.00053183,-2.7249e-05,3.106,29.631,0,1.5544e+08,-3.5903,12124,13096,1,13096,1,0.0011546,5.2296e-10,0,0.0011546,0.00016065,2.4492e+08,118.11,0,3.4789e+08,5.571,13095,12124,1,12124,1,0.0001496,8.1536e-11,0,0.00052109,-2.7209e-05,4.2064e+07,21.385,0,1.5514e+08,-2.5686,12123,11201,1,11201,1,-0.00085537,-2.4749e-10,0,3.6502e-05,-0.00021521,-3.4789e+08,-55.688,0,1.1233e+07,-25.205,11200,11662,1,11662,1,-0.00037149,-5.9737e-12,0,0.00026055,-0.00012462,-1.5107e+08,-1.4029,0,8.1287e+07,-5.9316,11661,12586,1,12586,1,0.0006707,2.3688e-10,0,0.00078164,7.0046e-05,1.5514e+08,61.562,0,2.2129e+08,0.056262,12585,534.87,0,534.87,0,0.00060149,1.6563e-10,0,0.00031809,0.00011242,1.7931e+08,40.988,0,8.9318e+07,5.0496,534.87,1
1848,3.67,12125,1,12125,1,0.00015001,2.5761e-10,0,0.00053329,-2.7323e-05,33.818,64.848,0,1.5587e+08,-0.60709,12124,13096,1,13096,1,0.0011577,1.0893e-09,0,0.0011577,0.00016109,2.4559e+08,260.4,0,3.4885e+08,49.932,13095,12124,1,12124,1,0.00015001,1.4932e-10,0,0.00052252,-2.7284e-05,4.2179e+07,38.055,0,1.5557e+08,-1.2701,12123,11201,1,11201,1,-0.00085771,-1.5691e-10,0,3.6602e-05,-0.0002158,-3.4885e+08,-53.727,0,1.1264e+07,-37.871,11200,11662,1,11662,1,-0.00037251,2.254e-11,0,0.00026126,-0.00012496,-1.5148e+08,5.9097,0,8.151e+07,-6.228,11661,12586,1,12586,1,0.00067253,4.579e-10,0,0.00078378,7.0238e-05,1.5557e+08,117.39,0,2.219e+08,6.3301,12585,534.87,0,534.87,0,0.00060313,3.0023e-10,0,0.00031896,0.00011273,1.7981e+08,74.743,0,8.9562e+07,10.802,534.87,1
1848,3.68,12125,1,12125,1,0.00015042,-8.0762e-11,0,0.00053474,-2.7398e-05,6.5345,-20.625,0,1.5629e+08,-1.7761,12124,13096,1,13096,1,0.0011609,8.2437e-11,0,0.0011609,0.00016153,2.4625e+08,16.698,0,3.4979e+08,1.9777,13095,12124,1,12124,1,0.00015042,-7.8278e-11,0,0.00052394,-2.7358e-05,4.2294e+07,-20.488,0,1.5599e+08,-0.2855,12123,11201,1,11201,1,-0.00086004,-2.6087e-10,0,3.6701e-05,-0.00021639,-3.4979e+08,-57.029,0,1.1295e+07,-27.441,11200,11662,1,11662,1,-0.00037352,-1.2209e-10,0,0.00026197,-0.0001253,-1.519e+08,-32.157,0,8.1731e+07,-1.7635,11661,12586,1,12586,1,0.00067436,-3.2209e-11,0,0.00078591,7.0429e-05,1.5599e+08,-8.903,0,2.225e+08,0.4782,12585,534.87,0,534.87,0,0.00060477,5.9442e-11,0,0.00031983,0.00011304,1.8029e+08,14.5,0,8.9806e+07,4.3848,534.87,1
1848,3.69,12125,1,12125,1,0.00015083,-6.0751e-10,0,0.00053619,-2.7472e-05,9.4192,-153.7,0,1.5672e+08,8.1383,12124,13096,1,13096,1,0.001164,4.5061e-10,0,0.001164,0.00016197,2.4692e+08,121.94,0,3.5074e+08,64.061,13095,12124,1,12124,1,0.00015083,-3.867e-10,0,0.00052536,-2.7432e-05,4.2409e+07,-97.199,0,1.5641e+08,5.1749,12123,11201,1,11201,1,-0.00086238,-2.4405e-09,0,3.6801e-05,-0.00021697,-3.5074e+08,-583.7,0,1.1325e+07,-58,11200,11662,1,11662,1,-0.00037454,-1.1846e-09,0,0.00026268,-0.00012564,-1.5231e+08,-311.29,0,8.1953e+07,-3.7338,11661,12586,1,12586,1,0.00067619,1.5193e-11,0,0.00078805,7.062e-05,1.5641e+08,4.4469,0,2.2311e+08,20.92,12585,534.87,0,534.87,0,0.00060641,7.6568e-10,0,0.0003207,0.00011334,1.8078e+08,191.1,0,9.0049e+07,20.16,534.87,1
1848,3.7,12125,1,12125,1,0.00015124,-7.461e-11,0,0.00053764,-2.7546e-05,-2.2955,-18.446,0,1.5714e+08,-2.3722,12124,13096,1,13096,1,0.0011672,3.0595e-10,0,0.0011672,0.00016241,2.4759e+08,66.914,0,3.5169e+08,16.282,13095,12124,1,12124,1,0.00015124,-3.8124e-11,0,0.00052679,-2.7506e-05,4.2524e+07,-10.037,0,1.5684e+08,-1.981,12123,11201,1,11201,1,-0.00086471,-4.9226e-10,0,3.6901e-05,-0.00021756,-3.5169e+08,-114.14,0,1.1356e+07,-28.656,11200,11662,1,11662,1,-0.00037555,-1.8473e-10,0,0.00026339,-0.00012598,-1.5272e+08,-48.168,0,8.2175e+07,-5.2103,11661,12586,1,12586,1,0.00067803,3.5583e-11,0,0.00079018,7.0811e-05,1.5684e+08,8.8049,0,2.2371e+08,1.5456,12585,534.87,0,534.87,0,0.00060806,1.6434e-10,0,0.00032157,0.00011365,1.8127e+08,40.228,0,9.0294e+07,5.467,534.87,1
1848,3.71,12125,1,12125,1,0.00015165,1.8782e-10,0,0.0005391,-2.7621e-05,2.2422,47.498,0,1.5757e+08,-2.2274,12124,13096,1,13096,1,0.0011703,4.2108e-10,0,0.0011703,0.00016285,2.4826e+08,101.01,0,3.5264e+08,6.7653,13095,12124,1,12124,1,0.00015165,1.8893e-10,0,0.00052821,-2.7581e-05,4.2639e+07,49.428,0,1.5726e+08,-0.90178,12123,11201,1,11201,1,-0.00086705,-2.7011e-11,0,3.7e-05,-0.00021815,-3.5264e+08,-9.2496,0,1.1387e+07,-24.049,11200,11662,1,11662,1,-0.00037657,8.2858e-11,0,0.00026411,-0.00012632,-1.5313e+08,21.442,0,8.2397e+07,-2.8035,11661,12586,1,12586,1,0.00067986,2.8706e-10,0,0.00079232,7.1003e-05,1.5726e+08,72.491,0,2.2432e+08,0.038471,12585,534.87,0,534.87,0,0.0006097,1.2333e-10,0,0.00032244,0.00011396,1.8176e+08,30.216,0,9.0538e+07,4.3102,534.87,1
1848,3.72,12125,1,12125,1,0.00015206,4.3038e-11,0,0.00054055,-2.7695e-05,7.3848,10.791,0,1.5799e+08,-1.189,12124,13096,1,13096,1,0.0011735,1.9135e-10,0,0.0011735,0.00016329,2.4893e+08,44.593,0,3.5359e+08,8.358,13095,12124,1,12124,1,0.00015206,2.6349e-11,0,0.00052964,-2.7655e-05,4.2754e+07,6.575,0,1.5769e+08,-0.18872,12123,11201,1,11201,1,-0.00086938,-4.1108e-11,0,3.71e-05,-0.00021874,-3.5359e+08,-14.063,0,1.1418e+07,-24.782,11200,11662,1,11662,1,-0.00037758,4.0171e-12,0,0.00026482,-0.00012666,-1.5355e+08,0.97873,0,8.2619e+07,-1.6329,11661,12586,1,12586,1,0.00068169,7.7648e-11,0,0.00079445,7.1194e-05,1.5769e+08,19.704,0,2.2492e+08,1.3261,12585,534.87,0,534.87,0,0.00061135,5.1407e-11,0,0.0003233,0.00011427,1.8225e+08,12.938,0,9.0781e+07,4.3815,534.87,1
1848,3.73,12125,1,12125,1,0.00015247,3.5835e-10,0,0.00054201,-2.777e-05,31.574,90.285,0,1.5842e+08,-4.2664,12124,13096,1,13096,1,0.0011767,1.3987e-09,0,0.0011767,0.00016373,2.496e+08,318.37,0,3.5455e+08,70.47,13095,12124,1,12124,1,0.00015247,3.0193e-10,0,0.00053107,-2.773e-05,4.2869e+07,75.651,0,1.5811e+08,-1.6198,12123,11201,1,11201,1,-0.00087174,-2.0589e-10,0,3.72e-05,-0.00021933,-3.5455e+08,-70.489,0,1.1449e+07,-71.315,11200,11662,1,11662,1,-0.0003786,1.4865e-10,0,0.00026553,-0.000127,-1.5396e+08,39.922,0,8.2843e+07,-11.054,11661,12586,1,12586,1,0.00068353,5.1221e-10,0,0.0007966,7.1387e-05,1.5811e+08,127.18,0,2.2553e+08,6.2928,12585,534.87,0,534.87,0,0.000613,2.9881e-10,0,0.00032418,0.00011457,1.8275e+08,74.349,0,9.1027e+07,18.287,534.87,1
1848,3.74,12125,1,12125,1,0.00015287,2.4197e-10,0,0.00054345,-2.7844e-05,10.808,61.736,0,1.5884e+08,8.3387,12124,13096,1,13096,1,0.0011798,2.2094e-09,0,0.0011798,0.00016416,2.5027e+08,568.55,0,3.5549e+08,119.88,13095,12124,1,12124,1,0.00015287,1.0422e-10,0,0.00053248,-2.7804e-05,4.2983e+07,26.786,0,1.5853e+08,6.2656,12123,11201,1,11201,1,-0.00087406,-1.3019e-09,0,3.7299e-05,-0.00021991,-3.5549e+08,-309.11,0,1.1479e+07,-68.691,11200,11662,1,11662,1,-0.00037961,-3.3827e-10,0,0.00026624,-0.00012734,-1.5437e+08,-87.606,0,8.3063e+07,-6.7542,11661,12586,1,12586,1,0.00068535,8.3618e-10,0,0.00079872,7.1576e-05,1.5853e+08,217.49,0,2.2613e+08,21.477,12585,534.87,0,534.87,0,0.00061463,8.5528e-10,0,0.00032504,0.00011488,1.8323e+08,214.22,0,9.1269e+07,21.024,534.87,1
1848,3.75,12125,1,12125,1,0.00015328,-1.4637e-10,0,0.00054491,-2.7919e-05,7.8381,-37.747,0,1.5927e+08,3.2844,12124,13096,1,13096,1,0.001183,5.8587e-10,0,0.001183,0.0001646,2.5093e+08,147.81,0,3.5644e+08,47.935,13095,12124,1,12124,1,0.00015328,-9.9966e-11,0,0.00053391,-2.7878e-05,4.3099e+07,-24.854,0,1.5896e+08,3.4223,12123,11201,1,11201,1,-0.00087639,-9.5343e-10,0,3.7398e-05,-0.0002205,-3.5644e+08,-227.81,0,1.151e+07,-33.253,11200,11662,1,11662,1,-0.00038062,-4.0759e-10,0,0.00026695,-0.00012768,-1.5478e+08,-108.24,0,8.3285e+07,-3.3451,11661,12586,1,12586,1,0.00068719,1.0176e-10,0,0.00080086,7.1768e-05,1.5896e+08,27.689,0,2.2673e+08,10.165,12585,534.87,0,534.87,0,0.00061627,3.7924e-10,0,0.00032591,0.00011519,1.8372e+08,94.453,0,9.1513e+07,9.6452,534.87,1
1848,3.76,12125,1,12125,1,0.00015369,-1.2582e-09,0,0.00054636,-2.7993e-05,-4.6953,-316.6,0,1.5969e+08,8.0029,12124,13096,1,13096,1,0.0011861,3.3948e-10,0,0.0011861,0.00016504,2.516e+08,116.25,0,3.574e+08,60.676,13095,12124,1,12124,1,0.00015369,-1.1989e-09,0,0.00053533,-2.7953e-05,4.3213e+07,-317.18,0,1.5938e+08,8.817,12123,11201,1,11201,1,-0.00087874,-3.1532e-09,0,3.7497e-05,-0.00022109,-3.574e+08,-749.99,0,1.1541e+07,-52.176,11200,11662,1,11662,1,-0.00038164,-1.9243e-09,0,0.00026766,-0.00012802,-1.552e+08,-498.97,0,8.3507e+07,-3.5232,11661,12586,1,12586,1,0.00068902,-4.9822e-10,0,0.00080299,7.1959e-05,1.5938e+08,-129.92,0,2.2734e+08,21.449,12585,534.87,0,534.87,0,0.00061792,9.0951e-10,0,0.00032678,0.00011549,1.8421e+08,220.87,0,9.1757e+07,18.183,534.87,1
1848,3.77,12125,1,12125,1,0.0001541,4.9295e-10,0,0.00054781,-2.8068e-05,0.74064,124.49,0,1.6011e+08,1.3032,12124,13096,1,13096,1,0.0011893,1.5354e-09,0,0.0011893,0.00016548,2.5227e+08,356.43,0,3.5835e+08,56.736,13095,12124,1,12124,1,0.0001541,4.3009e-10,0,0.00053675,-2.8027e-05,4.3329e+07,110,0,1.598e+08,1.2132,12123,11201,1,11201,1,-0.00088107,-1.8383e-10,0,3.7597e-05,-0.00022168,-3.5835e+08,-62.942,0,1.1572e+07,-41.6,11200,11662,1,11662,1,-0.00038265,1.7919e-10,0,0.00026838,-0.00012836,-1.5561e+08,44.382,0,8.373e+07,-4.8264,11661,12586,1,12586,1,0.00069086,7.6366e-10,0,0.00080513,7.2151e-05,1.598e+08,199.43,0,2.2794e+08,7.8472,12585,534.87,0,534.87,0,0.00061956,3.843e-10,0,0.00032765,0.0001158,1.847e+08,95.357,0,9.2001e+07,10.912,534.87,1
1848,3.78,12125,1,12125,1,0.00015451,1.1789e-10,0,0.00054927,-2.8142e-05,5.1121,29.799,0,1.6054e+08,4.519,12124,13096,1,13096,1,0.0011924,1.1485e-09,0,0.0011924,0.00016592,2.5293e+08,307.95,0,3.593e+08,87.152,13095,12124,1,12124,1,0.00015451,2.7713e-11,0,0.00053818,-2.8102e-05,4.3444e+07,6.8323,0,1.6023e+08,3.368,12123,11201,1,11201,1,-0.0008834,-7.4768e-10,0,3.7696e-05,-0.00022227,-3.593e+08,-179.82,0,1.1603e+07,-37.496,11200,11662,1,11662,1,-0.00038367,-1.698e-10,0,0.00026909,-0.0001287,-1.5602e+08,-45.08,0,8.3952e+07,-3.7604,11661,12586,1,12586,1,0.00069269,4.1266e-10,0,0.00080727,7.2342e-05,1.6023e+08,104.39,0,2.2855e+08,12.027,12585,534.87,0,534.87,0,0.0006212,4.4343e-10,0,0.00032852,0.00011611,1.8519e+08,112.05,0,9.2245e+07,13.203,534.87,1
1848,3.79,12125,1,12125,1,0.00015492,4.1554e-10,0,0.00055072,-2.8217e-05,2.8802,102.86,0,1.6096e+08,-0.39559,12124,13096,1,13096,1,0.0011956,1.9288e-09,0,0.0011956,0.00016636,2.536e+08,459.05,0,3.6025e+08,67.932,13095,12124,1,12124,1,0.00015492,2.1877e-10,0,0.00053961,-2.8176e-05,4.3559e+07,58.165,0,1.6065e+08,0.64033,12123,11201,1,11201,1,-0.00088575,-3.018e-10,0,3.7795e-05,-0.00022286,-3.6025e+08,-103.34,0,1.1633e+07,-73.516,11200,11662,1,11662,1,-0.00038468,2.8783e-11,0,0.0002698,-0.00012904,-1.5644e+08,6.6648,0,8.4174e+07,-8.5153,11661,12586,1,12586,1,0.00069453,6.9981e-10,0,0.00080941,7.2534e-05,1.6065e+08,180.12,0,2.2915e+08,11.891,12585,534.87,0,534.87,0,0.00062285,5.015e-10,0,0.00032939,0.00011642,1.8568e+08,121.76,0,9.2489e+07,19.443,534.87,1
1848,3.8,12125,1,12125,1,0.00015533,-6.41e-10,0,0.00055217,-2.8291e-05,-2.6862,-161.3,0,1.6139e+08,6.4289,12124,13096,1,13096,1,0.0011987,2.2992e-10,0,0.0011987,0.0001668,2.5426e+08,78.73,0,3.612e+08,41.212,13095,12124,1,12124,1,0.00015533,-5.0925e-10,0,0.00054102,-2.825e-05,4.3674e+07,-131.27,0,1.6108e+08,4.7338,12123,11201,1,11201,1,-0.00088808,-1.9956e-09,0,3.7894e-05,-0.00022344,-3.612e+08,-475.12,0,1.1664e+07,-45.785,11200,11662,1,11662,1,-0.0003857,-1.0589e-09,0,0.00027051,-0.00012938,-1.5685e+08,-280.47,0,8.4396e+07,-2.7891,11661,12586,1,12586,1,0.00069635,-1.1625e-10,0,0.00081154,7.2724e-05,1.6108e+08,-30.107,0,2.2976e+08,15.891,12585,534.87,0,534.87,0,0.00062449,5.8288e-10,0,0.00033026,0.00011672,1.8617e+08,142.93,0,9.2732e+07,14.858,534.87,1
1848,3.81,12125,1,12125,1,0.00015574,-9.8465e-10,0,0.00055362,-2.8366e-05,10.055,-247.9,0,1.6181e+08,11.368,12124,13096,1,13096,1,0.0012019,4.2064e-10,0,0.0012019,0.00016724,2.5493e+08,134.94,0,3.6215e+08,63.001,13095,12124,1,12124,1,0.00015574,-7.222e-10,0,0.00054245,-2.8325e-05,4.3789e+07,-186.07,0,1.615e+08,7.972,12123,11201,1,11201,1,-0.00089042,-3.3545e-09,0,3.7993e-05,-0.00022403,-3.6215e+08,-799.86,0,1.1695e+07,-43.195,11200,11662,1,11662,1,-0.00038671,-1.7162e-09,0,0.00027122,-0.00012972,-1.5726e+08,-450.47,0,8.4618e+07,-3.3035,11661,12586,1,12586,1,0.00069819,-1.0968e-10,0,0.00081367,7.2916e-05,1.615e+08,-27.329,0,2.3036e+08,24.381,12585,534.87,0,534.87,0,0.00062613,1.0027e-09,0,0.00033113,0.00011703,1.8666e+08,247.36,0,9.2976e+07,21.105,534.87,1
1848,3.82,12125,1,12125,1,0.00015615,-7.2935e-11,0,0.00055508,-2.8441e-05,1.148,-18.573,0,1.6224e+08,-0.84507,12124,13096,1,13096,1,0.0012051,1.7493e-11,0,0.0012051,0.00016767,2.5559e+08,4.8898,0,3.631e+08,3.2885,13095,12124,1,12124,1,0.00015615,-7.644e-11,0,0.00054387,-2.84e-05,4.3904e+07,-20.365,0,1.6193e+08,0.37684,12123,11201,1,11201,1,-0.00089275,-1.5303e-10,0,3.8093e-05,-0.00022462,-3.631e+08,-36.447,0,1.1726e+07,-26.747,11200,11662,1,11662,1,-0.00038773,-1.0648e-10,0,0.00027194,-0.00013006,-1.5767e+08,-28.647,0,8.484e+07,-0.70169,11661,12586,1,12586,1,0.00070002,-3.7823e-11,0,0.00081581,7.3107e-05,1.6193e+08,-9.439,0,2.3097e+08,1.1116,12585,534.87,0,534.87,0,0.00062778,4.5922e-11,0,0.000332,0.00011734,1.8715e+08,11.36,0,9.3221e+07,3.9489,534.87,1
1848,3.83,12125,1,12125,1,0.00015656,1.6351e-10,0,0.00055653,-2.8515e-05,-10.112,41.62,0,1.6266e+08,5.4389,12124,13096,1,13096,1,0.0012082,1.3221e-09,0,0.0012082,0.00016811,2.5626e+08,334.53,0,3.6405e+08,83.742,13095,12124,1,12124,1,0.00015656,5.4743e-11,0,0.0005453,-2.8474e-05,4.4019e+07,14.566,0,1.6235e+08,4.121,12123,11201,1,11201,1,-0.00089509,-6.6929e-10,0,3.8192e-05,-0.00022521,-3.6405e+08,-162.34,0,1.1757e+07,-34.033,11200,11662,1,11662,1,-0.00038874,-1.8796e-10,0,0.00027265,-0.0001304,-1.5808e+08,-45.766,0,8.5062e+07,-4.6502,11661,12586,1,12586,1,0.00070185,4.8221e-10,0,0.00081794,7.3298e-05,1.6235e+08,122.7,0,2.3157e+08,14.58,12585,534.87,0,534.87,0,0.00062942,5.0149e-10,0,0.00033286,0.00011764,1.8764e+08,126.29,0,9.3464e+07,14.761,534.87,1
1848,3.84,12125,1,12125,1,0.00015697,-1.9724e-10,0,0.00055799,-2.859e-05,19.256,-49.424,0,1.6309e+08,2.3584,12124,13096,1,13096,1,0.0012114,4.2001e-10,0,0.0012114,0.00016855,2.5692e+08,101.36,0,3.65e+08,30.162,13095,12124,1,12124,1,0.00015697,-1.4519e-10,0,0.00054672,-2.8549e-05,4.4135e+07,-36.139,0,1.6277e+08,2.3145,12123,11201,1,11201,1,-0.00089743,-9.1525e-10,0,3.8291e-05,-0.0002258,-3.65e+08,-219.91,0,1.1788e+07,-43.404,11200,11662,1,11662,1,-0.00038976,-4.3093e-10,0,0.00027336,-0.00013075,-1.585e+08,-112.19,0,8.5285e+07,-3.134,11661,12586,1,12586,1,0.00070369,3.309e-11,0,0.00082009,7.349e-05,1.6277e+08,9.6168,0,2.3218e+08,9.3401,12585,534.87,0,534.87,0,0.00063107,3.1205e-10,0,0.00033374,0.00011795,1.8813e+08,77.655,0,9.3709e+07,11.117,534.87,1
1848,3.85,12125,1,12125,1,0.00015738,-5.9872e-10,0,0.00055944,-2.8664e-05,19.051,-149.99,0,1.6351e+08,4.8307,12124,13096,1,13096,1,0.0012145,2.5452e-10,0,0.0012145,0.00016899,2.5759e+08,87.154,0,3.6595e+08,34.134,13095,12124,1,12124,1,0.00015738,-5.2114e-10,0,0.00054814,-2.8623e-05,4.425e+07,-135.26,0,1.632e+08,4.8439,12123,11201,1,11201,1,-0.00089977,-1.8221e-09,0,3.839e-05,-0.00022638,-3.6595e+08,-433.07,0,1.1819e+07,-41.513,11200,11662,1,11662,1,-0.00039077,-9.8711e-10,0,0.00027407,-0.00013109,-1.5891e+08,-258.53,0,8.5506e+07,-3.2527,11661,12586,1,12586,1,0.00070552,-1.183e-10,0,0.00082222,7.3681e-05,1.632e+08,-26.394,0,2.3278e+08,13.693,12585,534.87,0,534.87,0,0.00063271,5.422e-10,0,0.0003346,0.00011826,1.8862e+08,132.21,0,9.3952e+07,12.646,534.87,1
1848,3.86,12125,1,12125,1,0.00015779,-4.9451e-10,0,0.00056089,-2.8739e-05,2.0478,-124.14,0,1.6394e+08,8.1757,12124,13096,1,13096,1,0.0012177,4.6311e-10,0,0.0012177,0.00016943,2.5825e+08,113.42,0,3.669e+08,57.178,13095,12124,1,12124,1,0.00015779,-3.4249e-10,0,0.00054957,-2.8697e-05,4.4365e+07,-86.641,0,1.6362e+08,5.4718,12123,11201,1,11201,1,-0.0009021,-1.896e-09,0,3.8489e-05,-0.00022697,-3.669e+08,-451.07,0,1.1849e+07,-37.305,11200,11662,1,11662,1,-0.00039178,-9.4011e-10,0,0.00027478,-0.00013143,-1.5932e+08,-246.88,0,8.5728e+07,-1.6934,11661,12586,1,12586,1,0.00070735,-9.8482e-12,0,0.00082435,7.3872e-05,1.6362e+08,-2.5882,0,2.3339e+08,17.797,12585,534.87,0,534.87,0,0.00063435,6.0223e-10,0,0.00033547,0.00011857,1.8911e+08,148.55,0,9.4196e+07,15.374,534.87,1
1848,3.87,12125,1,12125,1,0.00015819,-7.3603e-10,0,0.00056235,-2.8813e-05,6.4939,-185.09,0,1.6436e+08,6.7773,12124,13096,1,13096,1,0.0012208,2.5564e-10,0,0.0012208,0.00016987,2.5892e+08,87.538,0,3.6785e+08,38.075,13095,12124,1,12124,1,0.00015819,-6.4514e-10,0,0.00055099,-2.8772e-05,4.448e+07,-167.67,0,1.6405e+08,6.0809,12123,11201,1,11201,1,-0.00090444,-2.1197e-09,0,3.8588e-05,-0.00022756,-3.6785e+08,-504.01,0,1.188e+07,-38.456,11200,11662,1,11662,1,-0.0003928,-1.181e-09,0,0.0002755,-0.00013177,-1.5973e+08,-310.39,0,8.595e+07,-1.995,11661,12586,1,12586,1,0.00070919,-1.8162e-10,0,0.00082649,7.4063e-05,1.6405e+08,-46.202,0,2.3399e+08,16.582,12585,534.87,0,534.87,0,0.000636,6.1796e-10,0,0.00033634,0.00011887,1.896e+08,150.8,0,9.4439e+07,13.194,534.87,1
1848,3.88,12125,1,12125,1,0.0001586,-5.3537e-10,0,0.0005638,-2.8888e-05,19.787,-133.38,0,1.6478e+08,5.0228,12124,13096,1,13096,1,0.001224,2.6624e-10,0,0.001224,0.00017031,2.5958e+08,91.161,0,3.688e+08,39.257,13095,12124,1,12124,1,0.0001586,-5.4647e-10,0,0.00055242,-2.8846e-05,4.4595e+07,-142.7,0,1.6447e+08,6.364,12123,11201,1,11201,1,-0.00090678,-1.2709e-09,0,3.8687e-05,-0.00022815,-3.688e+08,-288.82,0,1.1911e+07,-51.566,11200,11662,1,11662,1,-0.00039381,-8.6491e-10,0,0.00027621,-0.00013211,-1.6015e+08,-217.05,0,8.6173e+07,-3.1993,11661,12586,1,12586,1,0.00071102,-2.2921e-10,0,0.00082863,7.4255e-05,1.6447e+08,-59.078,0,2.346e+08,15.332,12585,534.87,0,534.87,0,0.00063764,3.9505e-10,0,0.00033721,0.00011918,1.9009e+08,95.634,0,9.4684e+07,13.607,534.87,1
1848,3.89,12125,1,12125,1,0.00015901,-5.0658e-10,0,0.00056525,-2.8963e-05,6.7542,-126.64,0,1.6521e+08,5.494,12124,13096,1,13096,1,0.0012271,2.9011e-10,0,0.0012271,0.00017075,2.6025e+08,88.798,0,3.6975e+08,36.545,13095,12124,1,12124,1,0.00015901,-3.8091e-10,0,0.00055384,-2.8921e-05,4.471e+07,-93.216,0,1.6489e+08,4.1317,12123,11201,1,11201,1,-0.00090911,-1.8114e-09,0,3.8786e-05,-0.00022874,-3.6975e+08,-431.22,0,1.1942e+07,-44.12,11200,11662,1,11662,1,-0.00039483,-9.1049e-10,0,0.00027692,-0.00013245,-1.6056e+08,-237.82,0,8.6394e+07,-2.5251,11661,12586,1,12586,1,0.00071285,-2.8159e-11,0,0.00083076,7.4446e-05,1.6489e+08,-7.9941,0,2.352e+08,14.604,12585,534.87,0,534.87,0,0.00063928,5.4829e-10,0,0.00033808,0.00011949,1.9058e+08,135.72,0,9.4927e+07,14.214,534.87,1
1848,3.9,12125,1,12125,1,0.00015942,-1.0853e-09,0,0.00056671,-2.9038e-05,-5.0722,-271.62,0,1.6564e+08,2.6499,12124,13096,1,13096,1,0.0012303,3.964e-10,0,0.0012303,0.00017119,2.6092e+08,135.73,0,3.7071e+08,90.839,13095,12124,1,12124,1,0.00015942,-1.0696e-09,0,0.00055527,-2.8995e-05,4.4826e+07,-273.41,0,1.6532e+08,6.7367,12123,11201,1,11201,1,-0.00091146,-2.5758e-09,0,3.8886e-05,-0.00022933,-3.7071e+08,-593.92,0,1.1973e+07,-80.306,11200,11662,1,11662,1,-0.00039584,-1.669e-09,0,0.00027763,-0.00013279,-1.6097e+08,-451.34,0,8.6617e+07,-7.63,11661,12586,1,12586,1,0.00071469,-4.812e-10,0,0.0008329,7.4638e-05,1.6532e+08,-111.15,0,2.3581e+08,17.423,12585,534.87,0,534.87,0,0.00064093,8.1443e-10,0,0.00033895,0.0001198,1.9107e+08,197.2,0,9.5172e+07,22.913,534.87,1
1848,3.91,12125,1,12125,1,0.00015983,-6.6563e-10,0,0.00056816,-2.9112e-05,10.75,-167.11,0,1.6606e+08,10.8,12124,13096,1,13096,1,0.0012334,7.6085e-10,0,0.0012334,0.00017162,2.6158e+08,186.3,0,3.7165e+08,69.697,13095,12124,1,12124,1,0.00015983,-4.7891e-10,0,0.00055669,-2.9069e-05,4.494e+07,-123.96,0,1.6574e+08,8.0134,12123,11201,1,11201,1,-0.00091378,-2.5137e-09,0,3.8985e-05,-0.00022991,-3.7165e+08,-597.88,0,1.2004e+07,-41.017,11200,11662,1,11662,1,-0.00039685,-1.2643e-09,0,0.00027834,-0.00013313,-1.6138e+08,-332.6,0,8.6838e+07,-1.8393,11661,12586,1,12586,1,0.00071652,-2.7027e-11,0,0.00083503,7.4828e-05,1.6574e+08,-5.3696,0,2.3641e+08,23.197,12585,534.87,0,534.87,0,0.00064257,8.0765e-10,0,0.00033982,0.0001201,1.9156e+08,199.1,0,9.5415e+07,18.919,534.87,1
1848,3.92,12125,1,12125,1,0.00016024,-1.4046e-10,0,0.00056961,-2.9186e-05,0.60406,-35.028,0,1.6648e+08,7.1017,12124,13096,1,13096,1,0.0012366,8.4407e-10,0,0.0012366,0.00017206,2.6224e+08,212.89,0,3.726e+08,69.976,13095,12124,1,12124,1,0.00016024,-7.4028e-11,0,0.00055811,-2.9144e-05,4.5055e+07,-17.523,0,1.6617e+08,4.3157,12123,11201,1,11201,1,-0.00091612,-1.2602e-09,0,3.9084e-05,-0.0002305,-3.726e+08,-299.72,0,1.2035e+07,-28.016,11200,11662,1,11662,1,-0.00039787,-5.1027e-10,0,0.00027906,-0.00013347,-1.618e+08,-133.7,0,8.7061e+07,-3.28,11661,12586,1,12586,1,0.00071835,2.0005e-10,0,0.00083717,7.502e-05,1.6617e+08,54.638,0,2.3701e+08,16.402,12585,534.87,0,534.87,0,0.00064421,5.2669e-10,0,0.00034069,0.00012041,1.9205e+08,131.64,0,9.5659e+07,14.79,534.87,1
1848,3.93,12125,1,12125,1,0.00016065,4.3269e-10,0,0.00057107,-2.9261e-05,16.935,109.38,0,1.6691e+08,4.9393,12124,13096,1,13096,1,0.0012398,2.2042e-09,0,0.0012398,0.0001725,2.6291e+08,527.48,0,3.7355e+08,113.84,13095,12124,1,12124,1,0.00016065,2.4142e-10,0,0.00055954,-2.9219e-05,4.5171e+07,59.605,0,1.6659e+08,1.721,12123,11201,1,11201,1,-0.00091846,-5.0978e-10,0,3.9183e-05,-0.00023109,-3.7355e+08,-125.13,0,1.2066e+07,-74.433,11200,11662,1,11662,1,-0.00039889,-5.4034e-11,0,0.00027977,-0.00013381,-1.6221e+08,-12.917,0,8.7283e+07,-8.2267,11661,12586,1,12586,1,0.00072019,8.7969e-10,0,0.00083931,7.5212e-05,1.6659e+08,228.6,0,2.3762e+08,16.754,12585,534.87,0,534.87,0,0.00064586,6.332e-10,0,0.00034156,0.00012072,1.9254e+08,159.06,0,9.5903e+07,22.12,534.87,1
1848,3.94,12125,1,12125,1,0.00016106,-3.9913e-10,0,0.00057252,-2.9336e-05,15.352,-100.68,0,1.6733e+08,6.1374,12124,13096,1,13096,1,0.0012429,4.3519e-10,0,0.0012429,0.00017294,2.6357e+08,100.67,0,3.745e+08,37.103,13095,12124,1,12124,1,0.00016106,-2.7202e-10,0,0.00056096,-2.9293e-05,4.5286e+07,-69.035,0,1.6701e+08,4.9934,12123,11201,1,11201,1,-0.0009208,-1.5762e-09,0,3.9282e-05,-0.00023168,-3.745e+08,-376.31,0,1.2097e+07,-41.704,11200,11662,1,11662,1,-0.0003999,-7.6029e-10,0,0.00028048,-0.00013415,-1.6262e+08,-196.5,0,8.7505e+07,-1.5724,11661,12586,1,12586,1,0.00072202,-1.0172e-11,0,0.00084144,7.5403e-05,1.6701e+08,-2.4135,0,2.3822e+08,14.501,12585,534.87,0,534.87,0,0.0006475,4.8759e-10,0,0.00034243,0.00012102,1.9303e+08,121.05,0,9.6147e+07,13.298,534.87,1
1848,3.95,12125,1,12125,1,0.00016147,-4.6216e-10,0,0.00057397,-2.941e-05,0.60923,-115.18,0,1.6776e+08,8.9486,12124,13096,1,13096,1,0.0012461,6.6652e-10,0,0.0012461,0.00017338,2.6424e+08,163.98,0,3.7545e+08,46.561,13095,12124,1,12124,1,0.00016147,-3.1076e-10,0,0.00056238,-2.9367e-05,4.5401e+07,-78.476,0,1.6744e+08,6.8905,12123,11201,1,11201,1,-0.00092313,-1.9847e-09,0,3.9381e-05,-0.00023227,-3.7545e+08,-472.23,0,1.2127e+07,-48.773,11200,11662,1,11662,1,-0.00040091,-9.3512e-10,0,0.00028119,-0.00013449,-1.6304e+08,-246.16,0,8.7727e+07,-1.9148,11661,12586,1,12586,1,0.00072385,3.3663e-11,0,0.00084358,7.5594e-05,1.6744e+08,8.2869,0,2.3883e+08,20.62,12585,534.87,0,534.87,0,0.00064915,6.4643e-10,0,0.0003433,0.00012133,1.9352e+08,159.21,0,9.639e+07,17.05,534.87,1
1848,3.96,12125,1,12125,1,0.00016188,-3.3861e-10,0,0.00057543,-2.9485e-05,19.158,-85.18,0,1.6818e+08,4.1057,12124,13096,1,13096,1,0.0012492,1.6709e-10,0,0.0012492,0.00017382,2.649e+08,57.217,0,3.7641e+08,35.274,13095,12124,1,12124,1,0.00016188,-2.2869e-10,0,0.00056381,-2.9442e-05,4.5516e+07,-59.144,0,1.6786e+08,2.2668,12123,11201,1,11201,1,-0.00092547,-1.2592e-09,0,3.9481e-05,-0.00023285,-3.7641e+08,-300.07,0,1.2158e+07,-37.091,11200,11662,1,11662,1,-0.00040193,-6.1409e-10,0,0.00028191,-0.00013483,-1.6345e+08,-161.32,0,8.795e+07,-2.4248,11661,12586,1,12586,1,0.00072569,-1.927e-11,0,0.00084572,7.5786e-05,1.6786e+08,-4.3684,0,2.3943e+08,11.25,12585,534.87,0,534.87,0,0.00065079,3.7931e-10,0,0.00034417,0.00012164,1.9401e+08,93.791,0,9.6635e+07,11.771,534.87,1
1848,3.97,12125,1,12125,1,0.00016229,-5.7177e-10,0,0.00057688,-2.9559e-05,5.7165,-143.15,0,1.6861e+08,4.9238,12124,13096,1,13096,1,0.0012524,2.4816e-10,0,0.0012524,0.00017426,2.6557e+08,84.976,0,3.7736e+08,35.561,13095,12124,1,12124,1,0.00016229,-5.1022e-10,0,0.00056523,-2.9516e-05,4.5631e+07,-131.48,0,1.6829e+08,5.0923,12123,11201,1,11201,1,-0.00092781,-1.7364e-09,0,3.958e-05,-0.00023344,-3.7736e+08,-413.04,0,1.2189e+07,-50.91,11200,11662,1,11662,1,-0.00040294,-9.4137e-10,0,0.00028262,-0.00013517,-1.6386e+08,-245.75,0,8.8171e+07,-3.3375,11661,12586,1,12586,1,0.00072752,-1.101e-10,0,0.00084785,7.5977e-05,1.6829e+08,-24.552,0,2.4004e+08,14.677,12585,534.87,0,534.87,0,0.00065243,5.175e-10,0,0.00034504,0.00012195,1.945e+08,126.04,0,9.6878e+07,13.977,534.87,1
1848,3.98,12125,1,12125,1,0.0001627,-9.6451e-10,0,0.00057834,-2.9634e-05,-14.116,-242.46,0,1.6903e+08,3.9473,12124,13096,1,13096,1,0.0012556,2.7062e-10,0,0.0012556,0.0001747,2.6623e+08,92.667,0,3.7831e+08,55.722,13095,12124,1,12124,1,0.0001627,-9.6881e-10,0,0.00056666,-2.9591e-05,4.5746e+07,-250.06,0,1.6871e+08,6.5561,12123,11201,1,11201,1,-0.00093015,-2.1748e-09,0,3.9679e-05,-0.00023403,-3.7831e+08,-515.01,0,1.222e+07,-62.33,11200,11662,1,11662,1,-0.00040396,-1.4472e-09,0,0.00028333,-0.00013552,-1.6427e+08,-382.39,0,8.8394e+07,-4.0274,11661,12586,1,12586,1,0.00072936,-4.7705e-10,0,0.00084999,7.6168e-05,1.6871e+08,-111.17,0,2.4064e+08,15.808,12585,534.87,0,534.87,0,0.00065408,6.6175e-10,0,0.00034591,0.00012225,1.9499e+08,160.24,0,9.7123e+07,16.331,534.87,1
1848,3.99,12125,1,12125,1,0.00016311,-9.1886e-10,0,0.00057979,-2.9709e-05,14.406,-230.64,0,1.6946e+08,8.8641,12124,13096,1,13096,1,0.0012587,3.6148e-10,0,0.0012587,0.00017514,2.669e+08,123.78,0,3.7926e+08,47.286,13095,12124,1,12124,1,0.00016311,-7.8204e-10,0,0.00056808,-2.9665e-05,4.5862e+07,-200.85,0,1.6914e+08,7.6051,12123,11201,1,11201,1,-0.00093249,-2.7678e-09,0,3.9778e-05,-0.00023462,-3.7926e+08,-659.42,0,1.2251e+07,-66.71,11200,11662,1,11662,1,-0.00040497,-1.4915e-09,0,0.00028404,-0.00013586,-1.6469e+08,-390.94,0,8.8616e+07,-3.8039,11661,12586,1,12586,1,0.00073119,-2.0371e-10,0,0.00085213,7.6359e-05,1.6914e+08,-50.419,0,2.4125e+08,23.039,12585,534.87,0,534.87,0,0.00065572,8.0159e-10,0,0.00034678,0.00012256,1.9548e+08,195.56,0,9.7366e+07,20.634,534.87,1
1848,4,12125,1,12125,1,0.00016352,-3.0207e-10,0,0.00058125,-2.9783e-05,-5.4338,-75.951,0,1.6988e+08,2.2024,12124,13096,1,13096,1,0.0012619,2.2058e-10,0,0.0012619,0.00017558,2.6756e+08,59.428,0,3.8021e+08,33.564,13095,12124,1,12124,1,0.00016352,-1.9979e-10,0,0.00056951,-2.974e-05,4.5977e+07,-50.292,0,1.6956e+08,1.0344,12123,11201,1,11201,1,-0.00093482,-1.2267e-09,0,3.9877e-05,-0.00023521,-3.8021e+08,-294.22,0,1.2282e+07,-52.628,11200,11662,1,11662,1,-0.00040599,-5.7699e-10,0,0.00028475,-0.0001362,-1.651e+08,-151.94,0,8.8838e+07,-4.5053,11661,12586,1,12586,1,0.00073303,5.647e-12,0,0.00085426,7.6551e-05,1.6956e+08,1.6792,0,2.4185e+08,9.5713,12585,534.87,0,534.87,0,0.00065737,3.7538e-10,0,0.00034765,0.00012287,1.9597e+08,93.626,0,9.7611e+07,13.393,534.87,1
1848,4.01,12125,1,12125,1,0.00016393,-4.2816e-11,0,0.0005827,-2.9858e-05,8.0226,-10.419,0,1.703e+08,5.1963,12124,13096,1,13096,1,0.001265,8.4943e-10,0,0.001265,0.00017601,2.6822e+08,217,0,3.8116e+08,68.561,13095,12124,1,12124,1,0.00016393,-2.415e-11,0,0.00057093,-2.9814e-05,4.6092e+07,-6.5516,0,1.6998e+08,2.2354,12123,11201,1,11201,1,-0.00093715,-8.9765e-10,0,3.9976e-05,-0.00023579,-3.8116e+08,-213.84,0,1.2313e+07,-34.116,11200,11662,1,11662,1,-0.000407,-3.5087e-10,0,0.00028546,-0.00013654,-1.6551e+08,-89.385,0,8.906e+07,-4.0957,11661,12586,1,12586,1,0.00073486,2.4224e-10,0,0.00085639,7.6742e-05,1.6998e+08,60.427,0,2.4246e+08,13.772,12585,534.87,0,534.87,0,0.00065901,4.2507e-10,0,0.00034851,0.00012317,1.9645e+08,106.62,0,9.7854e+07,14.449,534.87,1
1848,4.02,12125,1,12125,1,0.00016434,-9.1701e-10,0,0.00058415,-2.9932e-05,7.53,-229.79,0,1.7073e+08,7.7998,12124,13096,1,13096,1,0.0012682,3.6694e-10,0,0.0012682,0.00017645,2.6889e+08,125.65,0,3.8211e+08,52.04,13095,12124,1,12124,1,0.00016434,-8.2473e-10,0,0.00057235,-2.9889e-05,4.6207e+07,-216.19,0,1.7041e+08,7.9089,12123,11201,1,11201,1,-0.0009395,-2.6651e-09,0,4.0075e-05,-0.00023638,-3.8211e+08,-634.8,0,1.2344e+07,-59.757,11200,11662,1,11662,1,-0.00040802,-1.4816e-09,0,0.00028618,-0.00013688,-1.6592e+08,-385.19,0,8.9282e+07,-4.0403,11661,12586,1,12586,1,0.00073669,-2.1372e-10,0,0.00085853,7.6933e-05,1.7041e+08,-57.494,0,2.4306e+08,20.809,12585,534.87,0,534.87,0,0.00066065,7.8183e-10,0,0.00034938,0.00012348,1.9694e+08,190.05,0,9.8098e+07,19.067,534.87,1
1848,4.03,12125,1,12125,1,0.00016475,1.9269e-10,0,0.0005856,-3.0007e-05,-10.189,47.465,0,1.7115e+08,0.67882,12124,13096,1,13096,1,0.0012713,1.0099e-09,0,0.0012713,0.00017689,2.6955e+08,219.98,0,3.8306e+08,56.167,13095,12124,1,12124,1,0.00016475,1.4054e-10,0,0.00057378,-2.9963e-05,4.6322e+07,36.526,0,1.7083e+08,0.36571,12123,11201,1,11201,1,-0.00094182,-2.9463e-10,0,4.0173e-05,-0.00023697,-3.8306e+08,-84.723,0,1.2375e+07,-36.517,11200,11662,1,11662,1,-0.00040903,-5.6247e-11,0,0.00028689,-0.00013722,-1.6634e+08,-14.435,0,8.9504e+07,-4.8009,11661,12586,1,12586,1,0.00073852,4.0074e-10,0,0.00086066,7.7124e-05,1.7083e+08,104.86,0,2.4366e+08,6.3226,12585,534.87,0,534.87,0,0.0006623,2.8718e-10,0,0.00035025,0.00012379,1.9743e+08,71.488,0,9.8341e+07,10.082,534.87,1
1848,4.04,12125,1,12125,1,0.00016516,2.0029e-10,0,0.00058705,-3.0082e-05,9.449,49.905,0,1.7158e+08,3.6924,12124,13096,1,13096,1,0.0012745,1.1447e-09,0,0.0012745,0.00017733,2.7022e+08,259.96,0,3.8401e+08,69.764,13095,12124,1,12124,1,0.00016516,1.1161e-10,0,0.0005752,-3.0038e-05,4.6437e+07,26.64,0,1.7126e+08,3.1089,12123,11201,1,11201,1,-0.00094416,-4.73e-10,0,4.0272e-05,-0.00023756,-3.8401e+08,-117.82,0,1.2406e+07,-37.391,11200,11662,1,11662,1,-0.00041004,-5.5512e-11,0,0.0002876,-0.00013756,-1.6675e+08,-13.956,0,8.9726e+07,-2.9207,11661,12586,1,12586,1,0.00074036,4.468e-10,0,0.0008628,7.7315e-05,1.7126e+08,117.48,0,2.4427e+08,10.002,12585,534.87,0,534.87,0,0.00066394,3.5848e-10,0,0.00035112,0.0001241,1.9792e+08,89.057,0,9.8585e+07,11.207,534.87,1
1848,4.05,12125,1,12125,1,0.00016557,5.9235e-10,0,0.00058851,-3.0157e-05,14.379,148.57,0,1.72e+08,-3.6824,12124,13096,1,13096,1,0.0012776,1.6374e-09,0,0.0012776,0.00017777,2.7089e+08,361.96,0,3.8496e+08,58.476,13095,12124,1,12124,1,0.00016557,6.1576e-10,0,0.00057663,-3.0113e-05,4.6553e+07,158.93,0,1.7168e+08,-2.401,12123,11201,1,11201,1,-0.00094651,-1.7898e-10,0,4.037e-05,-0.00023815,-3.8496e+08,-61.29,0,1.2437e+07,-55.222,11200,11662,1,11662,1,-0.00041106,2.7998e-10,0,0.00028831,-0.0001379,-1.6716e+08,71.15,0,8.9949e+07,-9.0233,11661,12586,1,12586,1,0.0007422,8.8951e-10,0,0.00086494,7.7507e-05,1.7168e+08,227.88,0,2.4487e+08,2.7797,12585,534.87,0,534.87,0,0.00066559,4.1651e-10,0,0.000352,0.0001244,1.9841e+08,101.47,0,9.8829e+07,12.705,534.87,1
1848,4.06,12125,1,12125,1,0.00016598,4.8846e-10,0,0.00058997,-3.0231e-05,18.081,120.44,0,1.7243e+08,-1.255,12124,13096,1,13096,1,0.0012808,1.9056e-09,0,0.0012808,0.00017821,2.7155e+08,416.02,0,3.8591e+08,74.515,13095,12124,1,12124,1,0.00016598,4.0605e-10,0,0.00057805,-3.0188e-05,4.6668e+07,105.39,0,1.7211e+08,-0.015615,12123,11201,1,11201,1,-0.00094884,-2.7358e-10,0,4.0468e-05,-0.00023874,-3.8591e+08,-93.668,0,1.2468e+07,-70.756,11200,11662,1,11662,1,-0.00041207,1.3295e-10,0,0.00028903,-0.00013824,-1.6757e+08,34.53,0,9.017e+07,-7.7938,11661,12586,1,12586,1,0.00074403,7.8702e-10,0,0.00086708,7.7698e-05,1.7211e+08,198.63,0,2.4547e+08,8.4991,12585,534.87,0,534.87,0,0.00066723,4.5125e-10,0,0.00035286,0.00012471,1.989e+08,107.17,0,9.9073e+07,16.418,534.87,1
1848,4.07,12125,1,12125,1,0.00016639,2.5653e-11,0,0.00059142,-3.0306e-05,-3.9612,6.7428,0,1.7285e+08,4.4845,12124,13096,1,13096,1,0.0012839,6.47e-10,0,0.0012839,0.00017865,2.7221e+08,150.24,0,3.8686e+08,46.884,13095,12124,1,12124,1,0.00016639,1.6437e-11,0,0.00057948,-3.0262e-05,4.6784e+07,4.2624,0,1.7253e+08,3.6508,12123,11201,1,11201,1,-0.00095117,-4.4355e-10,0,4.0567e-05,-0.00023932,-3.8686e+08,-106.01,0,1.2499e+07,-34.525,11200,11662,1,11662,1,-0.00041309,-1.5088e-10,0,0.00028974,-0.00013858,-1.6799e+08,-40.252,0,9.0392e+07,-1.1144,11661,12586,1,12586,1,0.00074586,1.6742e-10,0,0.00086921,7.7889e-05,1.7253e+08,44.344,0,2.4608e+08,10.763,12585,534.87,0,534.87,0,0.00066887,2.5458e-10,0,0.00035373,0.00012502,1.9939e+08,63.339,0,9.9316e+07,10.164,534.87,1
1848,4.08,12125,1,12125,1,0.0001668,5.9796e-10,0,0.00059287,-3.0381e-05,16.582,149.92,0,1.7327e+08,-0.53594,12124,13096,1,13096,1,0.0012871,1.9893e-09,0,0.0012871,0.00017909,2.7288e+08,441.09,0,3.8781e+08,77.894,13095,12124,1,12124,1,0.0001668,5.3642e-10,0,0.0005809,-3.0337e-05,4.6899e+07,136.58,0,1.7295e+08,-1.3217,12123,11201,1,11201,1,-0.00095351,-2.1747e-10,0,4.0665e-05,-0.00023991,-3.8781e+08,-74.462,0,1.2531e+07,-58.314,11200,11662,1,11662,1,-0.0004141,1.3558e-10,0,0.00029045,-0.00013892,-1.684e+08,34.958,0,9.0614e+07,-8.9508,11661,12586,1,12586,1,0.0007477,9.9016e-10,0,0.00087135,7.808e-05,1.7295e+08,258.89,0,2.4668e+08,7.8304,12585,534.87,0,534.87,0,0.00067052,5.225e-10,0,0.0003546,0.00012533,1.9988e+08,128.76,0,9.956e+07,14.233,534.87,1
1848,4.09,12125,1,12125,1,0.00016721,1.3613e-10,0,0.00059433,-3.0456e-05,13.559,34.563,0,1.737e+08,0.78199,12124,13096,1,13096,1,0.0012903,1.1404e-09,0,0.0012903,0.00017953,2.7354e+08,295.2,0,3.8876e+08,55.73,13095,12124,1,12124,1,0.00016721,4.2603e-11,0,0.00058233,-3.0411e-05,4.7015e+07,11.266,0,1.7338e+08,-0.50778,12123,11201,1,11201,1,-0.00095585,-4.8335e-10,0,4.0763e-05,-0.0002405,-3.8876e+08,-114.93,0,1.2562e+07,-42.187,11200,11662,1,11662,1,-0.00041512,-1.4218e-10,0,0.00029116,-0.00013926,-1.6881e+08,-35.745,0,9.0837e+07,-8.6123,11661,12586,1,12586,1,0.00074954,3.8244e-10,0,0.00087349,7.8272e-05,1.7338e+08,95.493,0,2.4728e+08,10.252,12585,534.87,0,534.87,0,0.00067216,3.8985e-10,0,0.00035547,0.00012563,2.0037e+08,98.322,0,9.9804e+07,14.853,534.87,1
1848,4.1,12125,1,12125,1,0.00016762,-3.2528e-10,0,0.00059578,-3.053e-05,5.2278,-82.516,0,1.7412e+08,3.3047,12124,13096,1,13096,1,0.0012934,1.3654e-10,0,0.0012934,0.00017996,2.7421e+08,46.753,0,3.8971e+08,36.046,13095,12124,1,12124,1,0.00016762,-2.2549e-10,0,0.00058375,-3.0486e-05,4.713e+07,-55.111,0,1.738e+08,3.0986,12123,11201,1,11201,1,-0.00095818,-1.1833e-09,0,4.0862e-05,-0.00024109,-3.8971e+08,-287.65,0,1.2593e+07,-26.78,11200,11662,1,11662,1,-0.00041613,-5.4457e-10,0,0.00029187,-0.0001396,-1.6922e+08,-141.68,0,9.1058e+07,-2.4235,11661,12586,1,12586,1,0.00075137,-5.1267e-11,0,0.00087562,7.8462e-05,1.738e+08,-13.54,0,2.4788e+08,10.634,12585,534.87,0,534.87,0,0.0006738,3.2914e-10,0,0.00035634,0.00012594,2.0086e+08,82.188,0,1.0005e+08,9.6843,534.87,1
1848,4.11,12125,1,12125,1,0.00016803,-2.9968e-10,0,0.00059724,-3.0605e-05,-5.7449,-75.325,0,1.7455e+08,-1.2443,12124,13096,1,13096,1,0.0012966,7.9372e-11,0,0.0012966,0.0001804,2.7487e+08,27.179,0,3.9066e+08,20.121,13095,12124,1,12124,1,0.00016803,-2.8281e-10,0,0.00058517,-3.0561e-05,4.7245e+07,-72.68,0,1.7423e+08,0.0061303,12123,11201,1,11201,1,-0.00096052,-8.7229e-10,0,4.096e-05,-0.00024168,-3.9066e+08,-194.66,0,1.2624e+07,-38.446,11200,11662,1,11662,1,-0.00041714,-4.8062e-10,0,0.00029259,-0.00013995,-1.6964e+08,-126.13,0,9.1281e+07,-4.6846,11661,12586,1,12586,1,0.0007532,-9.3411e-11,0,0.00087776,7.8654e-05,1.7423e+08,-25.266,0,2.4849e+08,4.7149,12585,534.87,0,534.87,0,0.00067545,2.3924e-10,0,0.00035721,0.00012625,2.0135e+08,58.652,0,1.0029e+08,7.8228,534.87,1
1848,4.12,12125,1,12125,1,0.00016844,1.0611e-10,0,0.00059868,-3.068e-05,7.8093,26.07,0,1.7497e+08,5.3802,12124,13096,1,13096,1,0.0012997,1.3389e-09,0,0.0012997,0.00018084,2.7553e+08,313.81,0,3.9161e+08,87.858,13095,12124,1,12124,1,0.00016844,3.7908e-11,0,0.00058659,-3.0635e-05,4.736e+07,9.3761,0,1.7465e+08,3.9794,12123,11201,1,11201,1,-0.00096285,-1.085e-09,0,4.1058e-05,-0.00024227,-3.9161e+08,-265.72,0,1.2655e+07,-46.294,11200,11662,1,11662,1,-0.00041815,-2.29e-10,0,0.0002933,-0.00014029,-1.7005e+08,-59.491,0,9.1502e+07,-4.8691,11661,12586,1,12586,1,0.00075503,4.8143e-10,0,0.00087989,7.8845e-05,1.7465e+08,122.91,0,2.4909e+08,15.446,12585,534.87,0,534.87,0,0.00067709,5.3549e-10,0,0.00035808,0.00012655,2.0184e+08,133.8,0,1.0053e+08,15.353,534.87,1
1848,4.13,12125,1,12125,1,0.00016885,-3.925e-10,0,0.00060014,-3.0755e-05,-4.118,-99.066,0,1.754e+08,1.5136,12124,13096,1,13096,1,0.0013029,1.2292e-10,0,0.0013029,0.00018128,2.762e+08,42.091,0,3.9256e+08,15.032,13095,12124,1,12124,1,0.00016885,-4.1133e-10,0,0.00058802,-3.071e-05,4.7476e+07,-107.08,0,1.7508e+08,2.8435,12123,11201,1,11201,1,-0.00096519,-8.1775e-10,0,4.1156e-05,-0.00024286,-3.9256e+08,-194.39,0,1.2686e+07,-36.677,11200,11662,1,11662,1,-0.00041917,-5.8003e-10,0,0.00029401,-0.00014063,-1.7046e+08,-148.67,0,9.1725e+07,-1.7513,11661,12586,1,12586,1,0.00075687,-2.1079e-10,0,0.00088203,7.9036e-05,1.7508e+08,-54.862,0,2.4969e+08,6.1002,12585,534.87,0,534.87,0,0.00067874,2.4133e-10,0,0.00035895,0.00012686,2.0233e+08,59.021,0,1.0078e+08,7.8266,534.87,1
1848,4.14,12125,1,12125,1,0.00016926,-9.573e-10,0,0.00060159,-3.0829e-05,21.031,-240.52,0,1.7582e+08,3.5546,12124,13096,1,13096,1,0.0013061,3.4763e-10,0,0.0013061,0.00018172,2.7687e+08,119.04,0,3.9351e+08,52.426,13095,12124,1,12124,1,0.00016926,-8.4041e-10,0,0.00058944,-3.0785e-05,4.7591e+07,-222.04,0,1.755e+08,2.504,12123,11201,1,11201,1,-0.00096753,-2.8383e-09,0,4.1254e-05,-0.00024344,-3.9351e+08,-676.06,0,1.2717e+07,-70.663,11200,11662,1,11662,1,-0.00042018,-1.4962e-09,0,0.00029472,-0.00014097,-1.7087e+08,-393.88,0,9.1947e+07,-6.5716,11661,12586,1,12586,1,0.00075871,-2.9726e-10,0,0.00088417,7.9227e-05,1.755e+08,-78.932,0,2.503e+08,16.086,12585,534.87,0,534.87,0,0.00068038,7.9217e-10,0,0.00035982,0.00012717,2.0282e+08,194.92,0,1.0102e+08,19.241,534.87,1
1848,4.15,12125,1,12125,1,0.00016967,-1.7407e-10,0,0.00060305,-3.0904e-05,9.1783,-44.873,0,1.7624e+08,6.0279,12124,13096,1,13096,1,0.0013092,6.8522e-10,0,0.0013092,0.00018216,2.7753e+08,166.35,0,3.9446e+08,74.67,13095,12124,1,12124,1,0.00016967,-8.8616e-11,0,0.00059087,-3.0859e-05,4.7707e+07,-21.504,0,1.7592e+08,4.5566,12123,11201,1,11201,1,-0.00096986,-1.3694e-09,0,4.1353e-05,-0.00024403,-3.9446e+08,-333.34,0,1.2749e+07,-36.021,11200,11662,1,11662,1,-0.0004212,-4.6454e-10,0,0.00029543,-0.00014131,-1.7128e+08,-118.33,0,9.2168e+07,-3.1457,11661,12586,1,12586,1,0.00076054,1.3342e-10,0,0.0008863,7.9418e-05,1.7592e+08,34.343,0,2.509e+08,16.348,12585,534.87,0,534.87,0,0.00068202,4.6151e-10,0,0.00036069,0.00012748,2.0331e+08,115.48,0,1.0126e+08,14.191,534.87,1
1848,4.16,12125,1,12125,1,0.00017008,-6.2873e-10,0,0.0006045,-3.0979e-05,3.8044,-158.28,0,1.7667e+08,4.8228,12124,13096,1,13096,1,0.0013124,1.7707e-10,0,0.0013124,0.0001826,2.782e+08,60.633,0,3.9541e+08,32.564,13095,12124,1,12124,1,0.00017008,-5.7518e-10,0,0.0005923,-3.0934e-05,4.7822e+07,-147.99,0,1.7635e+08,4.6156,12123,11201,1,11201,1,-0.00097221,-1.659e-09,0,4.1451e-05,-0.00024462,-3.9541e+08,-395.23,0,1.278e+07,-46.505,11200,11662,1,11662,1,-0.00042221,-9.548e-10,0,0.00029615,-0.00014165,-1.717e+08,-248.69,0,9.2391e+07,-0.76403,11661,12586,1,12586,1,0.00076238,-2.5997e-10,0,0.00088844,7.961e-05,1.7635e+08,-68.011,0,2.515e+08,12.204,12585,534.87,0,534.87,0,0.00068367,4.5823e-10,0,0.00036156,0.00012778,2.038e+08,111.87,0,1.0151e+08,12.264,534.87,1
1848,4.17,12125,1,12125,1,0.00017049,4.7504e-10,0,0.00060596,-3.1053e-05,23.201,119.2,0,1.7709e+08,1.747,12124,13096,1,13096,1,0.0013155,2.1027e-09,0,0.0013155,0.00018304,2.7886e+08,476.58,0,3.9636e+08,99.523,13095,12124,1,12124,1,0.00017049,3.3378e-10,0,0.00059372,-3.1009e-05,4.7938e+07,85.741,0,1.7677e+08,1.2366,12123,11201,1,11201,1,-0.00097454,-4.5396e-10,0,4.1549e-05,-0.00024521,-3.9636e+08,-116.5,0,1.2811e+07,-64.796,11200,11662,1,11662,1,-0.00042322,-2.7566e-11,0,0.00029686,-0.00014199,-1.7211e+08,-7.9769,0,9.2613e+07,-8.1258,11661,12586,1,12586,1,0.00076421,9.0757e-10,0,0.00089058,7.9801e-05,1.7677e+08,238.83,0,2.5211e+08,11.863,12585,534.87,0,534.87,0,0.00068531,5.9779e-10,0,0.00036243,0.00012809,2.0429e+08,149.09,0,1.0175e+08,18.272,534.87,1
1848,4.18,12125,1,12125,1,0.0001709,-5.9842e-10,0,0.00060741,-3.1128e-05,-17.527,-150.17,0,1.7752e+08,1.9219,12124,13096,1,13096,1,0.0013187,2.113e-10,0,0.0013187,0.00018347,2.7952e+08,72.354,0,3.9731e+08,40.468,13095,12124,1,12124,1,0.0001709,-6.1632e-10,0,0.00059514,-3.1083e-05,4.8053e+07,-155.52,0,1.772e+08,4.1318,12123,11201,1,11201,1,-0.00097688,-1.4326e-09,0,4.1648e-05,-0.0002458,-3.9731e+08,-319.83,0,1.2842e+07,-51.106,11200,11662,1,11662,1,-0.00042424,-8.9637e-10,0,0.00029757,-0.00014233,-1.7252e+08,-238.43,0,9.2835e+07,-5.4336,11661,12586,1,12586,1,0.00076605,-2.9056e-10,0,0.00089271,7.9992e-05,1.772e+08,-69.623,0,2.5271e+08,11.097,12585,534.87,0,534.87,0,0.00068696,4.209e-10,0,0.0003633,0.0001284,2.0478e+08,102.79,0,1.02e+08,13.216,534.87,1
1848,4.19,12125,1,12125,1,0.00017131,-2.1815e-10,0,0.00060887,-3.1203e-05,0.89604,-55.356,0,1.7794e+08,-1.1822,12124,13096,1,13096,1,0.0013218,4.0324e-11,0,0.0013218,0.00018391,2.8019e+08,13.808,0,3.9826e+08,7.5411,13095,12124,1,12124,1,0.00017131,-2.2207e-10,0,0.00059657,-3.1158e-05,4.8169e+07,-57.434,0,1.7762e+08,0.6663,12123,11201,1,11201,1,-0.00097922,-4.7214e-10,0,4.1746e-05,-0.00024639,-3.9826e+08,-108.55,0,1.2874e+07,-40.046,11200,11662,1,11662,1,-0.00042526,-3.3003e-10,0,0.00029829,-0.00014267,-1.7293e+08,-87.474,0,9.3058e+07,-2.9321,11661,12586,1,12586,1,0.00076789,-9.8295e-11,0,0.00089486,8.0184e-05,1.7762e+08,-25.725,0,2.5331e+08,3.5013,12585,534.87,0,534.87,0,0.00068861,1.3968e-10,0,0.00036417,0.00012871,2.0527e+08,34.423,0,1.0224e+08,7.4016,534.87,1
1848,4.2,12125,1,12125,1,0.00017172,6.4186e-10,0,0.00061032,-3.1278e-05,9.9255,160.68,0,1.7837e+08,-4.4358,12124,13096,1,13096,1,0.001325,1.8156e-09,0,0.001325,0.00018435,2.8085e+08,400.42,0,3.9921e+08,63.212,13095,12124,1,12124,1,0.00017172,6.62e-10,0,0.00059799,-3.1233e-05,4.8284e+07,169.23,0,1.7805e+08,-3.3424,12123,11201,1,11201,1,-0.00098155,-2.1168e-10,0,4.1844e-05,-0.00024698,-3.9921e+08,-72.482,0,1.2905e+07,-58.032,11200,11662,1,11662,1,-0.00042627,2.9137e-10,0,0.000299,-0.00014301,-1.7335e+08,73.391,0,9.3279e+07,-10.958,11661,12586,1,12586,1,0.00076972,9.7611e-10,0,0.00089699,8.0374e-05,1.7805e+08,251.8,0,2.5392e+08,3.5688,12585,534.87,0,534.87,0,0.00069025,4.6923e-10,0,0.00036504,0.00012901,2.0575e+08,114.43,0,1.0248e+08,14.159,534.87,1
1848,4.21,12125,1,12125,1,0.00017213,-3.2653e-10,0,0.00061177,-3.1353e-05,0.41928,-82.552,0,1.7879e+08,0.60437,12124,13096,1,13096,1,0.0013282,8.5727e-11,0,0.0013282,0.00018479,2.8152e+08,29.355,0,4.0016e+08,11.146,13095,12124,1,12124,1,0.00017213,-3.4217e-10,0,0.00059942,-3.1307e-05,4.84e+07,-90.877,0,1.7847e+08,2.0122,12123,11201,1,11201,1,-0.00098388,-6.7312e-10,0,4.1942e-05,-0.00024756,-4.0016e+08,-159.8,0,1.2936e+07,-36.621,11200,11662,1,11662,1,-0.00042728,-4.6775e-10,0,0.00029971,-0.00014335,-1.7376e+08,-120.68,0,9.3501e+07,-1.7726,11661,12586,1,12586,1,0.00077155,-1.8074e-10,0,0.00089912,8.0566e-05,1.7847e+08,-47.338,0,2.5452e+08,4.8512,12585,534.87,0,534.87,0,0.00069189,1.923e-10,0,0.00036591,0.00012932,2.0624e+08,47.1,0,1.0273e+08,7.2884,534.87,1
1848,4.22,12125,1,12125,1,0.00017254,3.1749e-10,0,0.00061322,-3.1427e-05,-3.2311,78.924,0,1.7921e+08,0.59519,12124,13096,1,13096,1,0.0013313,1.5165e-09,0,0.0013313,0.00018523,2.8218e+08,333.06,0,4.0111e+08,74.962,13095,12124,1,12124,1,0.00017254,2.3922e-10,0,0.00060084,-3.1382e-05,4.8515e+07,61.147,0,1.7889e+08,-0.10403,12123,11201,1,11201,1,-0.00098622,-4.2526e-10,0,4.204e-05,-0.00024815,-4.0111e+08,-117.31,0,1.2967e+07,-50.559,11200,11662,1,11662,1,-0.00042829,-6.338e-11,0,0.00030042,-0.00014369,-1.7417e+08,-16.287,0,9.3723e+07,-7.6072,11661,12586,1,12586,1,0.00077338,6.3922e-10,0,0.00090126,8.0756e-05,1.7889e+08,169.27,0,2.5512e+08,8.1744,12585,534.87,0,534.87,0,0.00069353,4.4053e-10,0,0.00036678,0.00012963,2.0673e+08,109.62,0,1.0297e+08,13.296,534.87,1
1848,4.23,12125,1,12125,1,0.00017296,3.1525e-10,0,0.00061468,-3.1502e-05,9.6189,78.316,0,1.7964e+08,0.56016,12124,13096,1,13096,1,0.0013345,1.5626e-09,0,0.0013345,0.00018567,2.8284e+08,342.8,0,4.0206e+08,80.813,13095,12124,1,12124,1,0.00017296,2.2708e-10,0,0.00060226,-3.1457e-05,4.863e+07,57.678,0,1.7932e+08,0.31953,12123,11201,1,11201,1,-0.00098856,-3.7199e-10,0,4.2138e-05,-0.00024874,-4.0206e+08,-104.46,0,1.2998e+07,-55.935,11200,11662,1,11662,1,-0.00042931,-6.2578e-11,0,0.00030113,-0.00014404,-1.7458e+08,-16.037,0,9.3945e+07,-7.1987,11661,12586,1,12586,1,0.00077522,6.29e-10,0,0.00090339,8.0948e-05,1.7932e+08,165.13,0,2.5572e+08,8.5943,12585,534.87,0,534.87,0,0.00069518,4.3584e-10,0,0.00036765,0.00012993,2.0722e+08,108.41,0,1.0321e+08,14.761,534.87,1
1848,4.24,12125,1,12125,1,0.00017337,-5.8016e-10,0,0.00061613,-3.1577e-05,3.1229,-145.46,0,1.8006e+08,1.0452,12124,13096,1,13096,1,0.0013376,2.1895e-10,0,0.0013376,0.00018611,2.8351e+08,74.972,0,4.0301e+08,43.404,13095,12124,1,12124,1,0.00017337,-5.9471e-10,0,0.00060369,-3.1531e-05,4.8746e+07,-149.74,0,1.7974e+08,2.9154,12123,11201,1,11201,1,-0.00099089,-1.4563e-09,0,4.2236e-05,-0.00024933,-4.0301e+08,-323.1,0,1.3029e+07,-49.149,11200,11662,1,11662,1,-0.00043032,-8.7354e-10,0,0.00030184,-0.00014438,-1.7499e+08,-232.9,0,9.4167e+07,-6.9005,11661,12586,1,12586,1,0.00077705,-2.6988e-10,0,0.00090553,8.1139e-05,1.7974e+08,-65.247,0,2.5633e+08,10.595,12585,534.87,0,534.87,0,0.00069682,4.1917e-10,0,0.00036852,0.00013024,2.0771e+08,102.46,0,1.0346e+08,13.152,534.87,1
1848,4.25,12125,1,12125,1,0.00017378,6.8656e-10,0,0.00061759,-3.1652e-05,-12.891,173.03,0,1.8049e+08,-1.937,12124,13096,1,13096,1,0.0013408,2.2326e-09,0,0.0013408,0.00018655,2.8417e+08,502.52,0,4.0396e+08,87.966,13095,12124,1,12124,1,0.00017378,6.4067e-10,0,0.00060511,-3.1606e-05,4.8861e+07,165.98,0,1.8017e+08,-2.1583,12123,11201,1,11201,1,-0.00099323,-2.9917e-10,0,4.2335e-05,-0.00024992,-4.0396e+08,-102.43,0,1.306e+07,-76.191,11200,11662,1,11662,1,-0.00043134,2.6675e-10,0,0.00030256,-0.00014472,-1.7541e+08,67.153,0,9.4389e+07,-12.096,11661,12586,1,12586,1,0.00077889,1.0608e-09,0,0.00090767,8.133e-05,1.8017e+08,272.89,0,2.5693e+08,6.4621,12585,534.87,0,534.87,0,0.00069847,5.3943e-10,0,0.00036939,0.00013055,2.082e+08,134.2,0,1.037e+08,16.9,534.87,1
1848,4.26,12125,1,12125,1,0.00017419,1.648e-10,0,0.00061904,-3.1726e-05,3.5382,41.151,0,1.8091e+08,1.3553,12124,13096,1,13096,1,0.0013439,9.2475e-10,0,0.0013439,0.00018698,2.8484e+08,206.13,0,4.0491e+08,48.071,13095,12124,1,12124,1,0.00017419,1.0718e-10,0,0.00060654,-3.1681e-05,4.8976e+07,25.917,0,1.8059e+08,1.0004,12123,11201,1,11201,1,-0.00099556,-4.0395e-10,0,4.2433e-05,-0.0002505,-4.0491e+08,-101.79,0,1.3092e+07,-30.668,11200,11662,1,11662,1,-0.00043235,-4.4744e-11,0,0.00030327,-0.00014506,-1.7582e+08,-11.406,0,9.4611e+07,-4.1504,11661,12586,1,12586,1,0.00078072,3.7236e-10,0,0.0009098,8.1521e-05,1.8059e+08,98.684,0,2.5753e+08,6.8225,12585,534.87,0,534.87,0,0.00070011,2.8873e-10,0,0.00037026,0.00013086,2.0869e+08,72.139,0,1.0394e+08,9.3836,534.87,1
1848,4.27,12125,1,12125,1,0.0001746,2.7032e-10,0,0.00062049,-3.1801e-05,18.612,67.216,0,1.8134e+08,1.1529,12124,13096,1,13096,1,0.0013471,1.5395e-09,0,0.0013471,0.00018742,2.855e+08,342.39,0,4.0586e+08,84.039,13095,12124,1,12124,1,0.0001746,1.6753e-10,0,0.00060796,-3.1755e-05,4.9092e+07,41.521,0,1.8102e+08,1.1511,12123,11201,1,11201,1,-0.0009979,-5.0573e-10,0,4.2531e-05,-0.00025109,-4.0586e+08,-130.24,0,1.3123e+07,-55.291,11200,11662,1,11662,1,-0.00043336,-7.6945e-11,0,0.00030398,-0.0001454,-1.7623e+08,-21.503,0,9.4833e+07,-6.5997,11661,12586,1,12586,1,0.00078256,5.9372e-10,0,0.00091194,8.1712e-05,1.8102e+08,156.47,0,2.5813e+08,9.5842,12585,534.87,0,534.87,0,0.00070175,4.518e-10,0,0.00037113,0.00013116,2.0918e+08,112.91,0,1.0419e+08,15.611,534.87,1
1848,4.28,12125,1,12125,1,0.00017501,-4.3958e-10,0,0.00062195,-3.1876e-05,-8.2436,-110.39,0,1.8176e+08,1.9217,12124,13096,1,13096,1,0.0013503,1.8369e-10,0,0.0013503,0.00018786,2.8617e+08,62.897,0,4.0681e+08,23.958,13095,12124,1,12124,1,0.00017501,-4.5394e-10,0,0.00060939,-3.183e-05,4.9208e+07,-117.57,0,1.8144e+08,3.7104,12123,11201,1,11201,1,-0.0010002,-9.7907e-10,0,4.2629e-05,-0.00025168,-4.0681e+08,-233.07,0,1.3154e+07,-42.982,11200,11662,1,11662,1,-0.00043438,-6.6838e-10,0,0.00030469,-0.00014574,-1.7664e+08,-172.92,0,9.5056e+07,-3.4251,11661,12586,1,12586,1,0.00078439,-2.2e-10,0,0.00091408,8.1903e-05,1.8144e+08,-55.179,0,2.5874e+08,8.192,12585,534.87,0,534.87,0,0.0007034,3.0064e-10,0,0.000372,0.00013147,2.0967e+08,73.407,0,1.0443e+08,10.037,534.87,1
1848,4.29,12125,1,12125,1,0.00017542,4.9544e-12,0,0.0006234,-3.1951e-05,11.454,0.20134,0,1.8219e+08,0.88211,12124,13096,1,13096,1,0.0013534,6.1083e-10,0,0.0013534,0.0001883,2.8683e+08,153.86,0,4.0776e+08,55.655,13095,12124,1,12124,1,0.00017542,-4.3703e-11,0,0.00061081,-3.1905e-05,4.9323e+07,-10.716,0,1.8187e+08,0.53445,12123,11201,1,11201,1,-0.0010026,-4.6777e-10,0,4.2727e-05,-0.00025227,-4.0776e+08,-119.61,0,1.3185e+07,-32.332,11200,11662,1,11662,1,-0.00043539,-1.1383e-10,0,0.0003054,-0.00014608,-1.7706e+08,-30.822,0,9.5278e+07,-3.8927,11661,12586,1,12586,1,0.00078623,1.1727e-10,0,0.00091621,8.2095e-05,1.8187e+08,29.543,0,2.5934e+08,5.7345,12585,534.87,0,534.87,0,0.00070504,2.0503e-10,0,0.00037287,0.00013178,2.1016e+08,52.145,0,1.0468e+08,9.4671,534.87,1
1848,4.3,12125,1,12125,1,0.00017583,6.697e-10,0,0.00062486,-3.2026e-05,3.5742,167.64,0,1.8261e+08,-1.2851,12124,13096,1,13096,1,0.0013566,2.2979e-09,0,0.0013566,0.00018874,2.8749e+08,507.61,0,4.0872e+08,90.794,13095,12124,1,12124,1,0.00017583,5.9633e-10,0,0.00061223,-3.1979e-05,4.9438e+07,151.68,0,1.8229e+08,-1.6223,12123,11201,1,11201,1,-0.0010049,-2.537e-10,0,4.2825e-05,-0.00025286,-4.0872e+08,-86.863,0,1.3217e+07,-72.531,11200,11662,1,11662,1,-0.0004364,1.7356e-10,0,0.00030612,-0.00014642,-1.7747e+08,43.128,0,9.55e+07,-10.953,11661,12586,1,12586,1,0.00078806,1.1049e-09,0,0.00091835,8.2286e-05,1.8229e+08,285.99,0,2.5994e+08,9.3315,12585,534.87,0,534.87,0,0.00070669,5.8998e-10,0,0.00037374,0.00013209,2.1065e+08,145.32,0,1.0492e+08,18.044,534.87,1
1848,4.31,12125,1,12125,1,0.00017624,1.8008e-10,0,0.00062631,-3.21e-05,8.7668,44.439,0,1.8303e+08,0.59324,12124,13096,1,13096,1,0.0013597,1.1608e-09,0,0.0013597,0.00018918,2.8816e+08,253.48,0,4.0966e+08,66.735,13095,12124,1,12124,1,0.00017624,1.0515e-10,0,0.00061366,-3.2054e-05,4.9554e+07,26.155,0,1.8272e+08,0.60092,12123,11201,1,11201,1,-0.0010072,-4.3444e-10,0,4.2923e-05,-0.00025345,-4.0966e+08,-114.54,0,1.3248e+07,-45.83,11200,11662,1,11662,1,-0.00043742,-7.6632e-11,0,0.00030683,-0.00014676,-1.7788e+08,-20.745,0,9.5722e+07,-5.755,11661,12586,1,12586,1,0.0007899,4.2072e-10,0,0.00092049,8.2477e-05,1.8272e+08,110.31,0,2.6055e+08,7.4306,12585,534.87,0,534.87,0,0.00070833,3.4173e-10,0,0.00037461,0.00013239,2.1114e+08,85.342,0,1.0516e+08,12.589,534.87,1
1848,4.32,12125,1,12125,1,0.00017665,-2.6708e-10,0,0.00062776,-3.2175e-05,3.471,-67.582,0,1.8346e+08,6.6175,12124,13096,1,13096,1,0.0013629,5.1738e-10,0,0.0013629,0.00018962,2.8882e+08,119.21,0,4.1061e+08,56.995,13095,12124,1,12124,1,0.00017665,-1.541e-10,0,0.00061508,-3.2129e-05,4.9669e+07,-40.133,0,1.8314e+08,5.2989,12123,11201,1,11201,1,-0.0010096,-1.3171e-09,0,4.3021e-05,-0.00025404,-4.1061e+08,-319.69,0,1.3279e+07,-35.229,11200,11662,1,11662,1,-0.00043843,-5.8076e-10,0,0.00030754,-0.0001471,-1.7829e+08,-147.86,0,9.5943e+07,-1.4429,11661,12586,1,12586,1,0.00079173,5.9259e-11,0,0.00092262,8.2668e-05,1.8314e+08,16.124,0,2.6115e+08,14.807,12585,534.87,0,534.87,0,0.00070997,4.4318e-10,0,0.00037548,0.0001327,2.1163e+08,110.4,0,1.0541e+08,12.224,534.87,1
1848,4.33,12125,1,12125,1,0.00017706,-8.875e-13,0,0.00062922,-3.225e-05,22.447,-0.77805,0,1.8388e+08,3.1858,12124,13096,1,13096,1,0.001366,7.7101e-10,0,0.001366,0.00019005,2.8948e+08,185.02,0,4.1156e+08,58.634,13095,12124,1,12124,1,0.00017706,-1.0211e-11,0,0.0006165,-3.2203e-05,4.9785e+07,-2.557,0,1.8356e+08,2.9118,12123,11201,1,11201,1,-0.0010119,-8.8396e-10,0,4.3119e-05,-0.00025462,-4.1156e+08,-218.19,0,1.331e+07,-31.333,11200,11662,1,11662,1,-0.00043944,-2.2371e-10,0,0.00030825,-0.00014744,-1.787e+08,-57.33,0,9.6165e+07,-3.7009,11661,12586,1,12586,1,0.00079356,2.4408e-10,0,0.00092475,8.2859e-05,1.8356e+08,60.437,0,2.6175e+08,10.877,12585,534.87,0,534.87,0,0.00071161,3.6476e-10,0,0.00037635,0.00013301,2.1211e+08,91.359,0,1.0565e+08,11.521,534.87,1
1848,4.34,12125,1,12125,1,0.00017747,-3.7407e-10,0,0.00063067,-3.2325e-05,-1.8849,-94.008,0,1.8431e+08,3.6386,12124,13096,1,13096,1,0.0013692,1.8396e-10,0,0.0013692,0.00019049,2.9015e+08,62.992,0,4.1251e+08,20.426,13095,12124,1,12124,1,0.00017747,-3.547e-10,0,0.00061793,-3.2278e-05,4.99e+07,-92.971,0,1.8399e+08,4.6117,12123,11201,1,11201,1,-0.0010143,-9.1308e-10,0,4.3217e-05,-0.00025521,-4.1251e+08,-216.73,0,1.3341e+07,-35.478,11200,11662,1,11662,1,-0.00044046,-5.7421e-10,0,0.00030896,-0.00014779,-1.7912e+08,-152.05,0,9.6388e+07,-0.51003,11661,12586,1,12586,1,0.0007954,-1.5656e-10,0,0.00092689,8.305e-05,1.8399e+08,-34.449,0,2.6235e+08,8.8415,12585,534.87,0,534.87,0,0.00071326,2.8073e-10,0,0.00037722,0.00013331,2.126e+08,68.899,0,1.0589e+08,8.4705,534.87,1
1848,4.35,12125,1,12125,1,0.00017788,-5.2482e-10,0,0.00063213,-3.24e-05,-14.307,-131.65,0,1.8473e+08,0.17525,12124,13096,1,13096,1,0.0013724,1.8131e-10,0,0.0013724,0.00019094,2.9081e+08,62.084,0,4.1347e+08,35.116,13095,12124,1,12124,1,0.00017788,-5.1149e-10,0,0.00061936,-3.2353e-05,5.0016e+07,-131.53,0,1.8441e+08,1.3629,12123,11201,1,11201,1,-0.0010166,-1.4739e-09,0,4.3315e-05,-0.0002558,-4.1347e+08,-328.23,0,1.3373e+07,-55.215,11200,11662,1,11662,1,-0.00044147,-8.4808e-10,0,0.00030968,-0.00014813,-1.7953e+08,-221.65,0,9.6611e+07,-6.507,11661,12586,1,12586,1,0.00079724,-1.7332e-10,0,0.00092904,8.3242e-05,1.8441e+08,-45.664,0,2.6296e+08,10.33,12585,534.87,0,534.87,0,0.00071491,4.1444e-10,0,0.00037809,0.00013362,2.131e+08,101.69,0,1.0614e+08,13.484,534.87,1
1848,4.36,12125,1,12125,1,0.00017829,5.2697e-10,0,0.00063358,-3.2474e-05,18.08,131.25,0,1.8516e+08,-2.1807,12124,13096,1,13096,1,0.0013755,2.1972e-09,0,0.0013755,0.00019137,2.9148e+08,481.77,0,4.1442e+08,95.05,13095,12124,1,12124,1,0.00017829,4.4728e-10,0,0.00062078,-3.2428e-05,5.0131e+07,112.84,0,1.8484e+08,-1.9205,12123,11201,1,11201,1,-0.0010189,-2.9128e-10,0,4.3413e-05,-0.00025639,-4.1442e+08,-99.745,0,1.3404e+07,-78.081,11200,11662,1,11662,1,-0.00044249,3.4632e-12,0,0.00031039,-0.00014847,-1.7994e+08,1.1992,0,9.6832e+07,-12.897,11661,12586,1,12586,1,0.00079907,9.4647e-10,0,0.00093117,8.3432e-05,1.8484e+08,246.68,0,2.6356e+08,10.053,12585,534.87,0,534.87,0,0.00071655,5.7812e-10,0,0.00037896,0.00013393,2.1358e+08,143.6,0,1.0638e+08,20.585,534.87,1
1848,4.37,12125,1,12125,1,0.00017871,2.3357e-10,0,0.00063504,-3.2549e-05,13.015,58.597,0,1.8558e+08,-0.61452,12124,13096,1,13096,1,0.0013787,9.1006e-10,0,0.0013787,0.00019181,2.9214e+08,201.09,0,4.1537e+08,46.37,13095,12124,1,12124,1,0.00017871,1.7327e-10,0,0.00062221,-3.2502e-05,5.0247e+07,44.461,0,1.8526e+08,0.29059,12123,11201,1,11201,1,-0.0010213,-1.3095e-10,0,4.3511e-05,-0.00025698,-4.1537e+08,-44.837,0,1.3435e+07,-41.615,11200,11662,1,11662,1,-0.0004435,5.7139e-11,0,0.0003111,-0.00014881,-1.8035e+08,15.032,0,9.7054e+07,-4.103,11661,12586,1,12586,1,0.00080091,3.7791e-10,0,0.00093331,8.3624e-05,1.8526e+08,98.946,0,2.6416e+08,4.9322,12585,534.87,0,534.87,0,0.0007182,2.2139e-10,0,0.00037983,0.00013424,2.1407e+08,54.655,0,1.0662e+08,10.09,534.87,1
1848,4.38,12125,1,12125,1,0.00017911,1.633e-10,0,0.00063649,-3.2624e-05,18.162,39.937,0,1.86e+08,2.5486,12124,13096,1,13096,1,0.0013818,1.3521e-09,0,0.0013818,0.00019225,2.928e+08,295.27,0,4.1631e+08,84.648,13095,12124,1,12124,1,0.00017911,8.0345e-11,0,0.00062363,-3.2577e-05,5.0362e+07,19.952,0,1.8569e+08,2.1898,12123,11201,1,11201,1,-0.0010236,-7.6467e-10,0,4.3609e-05,-0.00025757,-4.1631e+08,-190.22,0,1.3466e+07,-52.002,11200,11662,1,11662,1,-0.00044451,-1.3523e-10,0,0.00031181,-0.00014915,-1.8076e+08,-34.391,0,9.7276e+07,-5.492,11661,12586,1,12586,1,0.00080274,4.691e-10,0,0.00093544,8.3814e-05,1.8569e+08,123.42,0,2.6476e+08,11.063,12585,534.87,0,534.87,0,0.00071984,4.3676e-10,0,0.0003807,0.00013454,2.1456e+08,109.16,0,1.0687e+08,15.333,534.87,1
1848,4.39,12125,1,12125,1,0.00017953,7.2744e-10,0,0.00063794,-3.2699e-05,3.3947,182.3,0,1.8643e+08,-0.28205,12124,13096,1,13096,1,0.001385,2.4246e-09,0,0.001385,0.00019269,2.9347e+08,535.26,0,4.1727e+08,98.014,13095,12124,1,12124,1,0.00017953,6.563e-10,0,0.00062505,-3.2652e-05,5.0478e+07,168.14,0,1.8611e+08,-0.45327,12123,11201,1,11201,1,-0.0010259,-2.7111e-10,0,4.3707e-05,-0.00025816,-4.1727e+08,-92.844,0,1.3498e+07,-78.175,11200,11662,1,11662,1,-0.00044553,2.3525e-10,0,0.00031253,-0.00014949,-1.8118e+08,60.238,0,9.7498e+07,-9.4644,11661,12586,1,12586,1,0.00080458,1.1728e-09,0,0.00093758,8.4006e-05,1.8611e+08,302.2,0,2.6537e+08,10.767,12585,534.87,0,534.87,0,0.00072148,6.0859e-10,0,0.00038157,0.00013485,2.1505e+08,149.56,0,1.0711e+08,19.415,534.87,1
1848,4.4,12125,1,12125,1,0.00017994,3.7028e-10,0,0.0006394,-3.2774e-05,25.806,92.217,0,1.8685e+08,-0.78419,12124,13096,1,13096,1,0.0013881,1.6371e-09,0,0.0013881,0.00019313,2.9413e+08,359.55,0,4.1822e+08,76.572,13095,12124,1,12124,1,0.00017994,3.0326e-10,0,0.00062648,-3.2726e-05,5.0593e+07,77.224,0,1.8654e+08,-1.3891,12123,11201,1,11201,1,-0.0010283,-2.9902e-10,0,4.3805e-05,-0.00025874,-4.1822e+08,-90.82,0,1.3529e+07,-59.873,11200,11662,1,11662,1,-0.00044654,-3.9097e-11,0,0.00031324,-0.00014983,-1.8159e+08,-10.545,0,9.772e+07,-8.9206,11661,12586,1,12586,1,0.00080641,7.0352e-10,0,0.00093972,8.4197e-05,1.8654e+08,182.71,0,2.6597e+08,7.6101,12585,534.87,0,534.87,0,0.00072313,4.4634e-10,0,0.00038244,0.00013516,2.1554e+08,110.78,0,1.0735e+08,14.978,534.87,1
1848,4.41,12125,1,12125,1,0.00018035,-7.6836e-10,0,0.00064085,-3.2849e-05,-8.3854,-193.23,0,1.8728e+08,2.371,12124,13096,1,13096,1,0.0013913,2.3142e-10,0,0.0013913,0.00019357,2.948e+08,79.241,0,4.1917e+08,43.506,13095,12124,1,12124,1,0.00018035,-8.0796e-10,0,0.0006279,-3.2801e-05,5.0709e+07,-212.12,0,1.8696e+08,3.8152,12123,11201,1,11201,1,-0.0010306,-1.774e-09,0,4.3903e-05,-0.00025933,-4.1917e+08,-396.27,0,1.356e+07,-50.389,11200,11662,1,11662,1,-0.00044755,-1.147e-09,0,0.00031395,-0.00015017,-1.82e+08,-295.11,0,9.7942e+07,-5.1749,11661,12586,1,12586,1,0.00080825,-3.9163e-10,0,0.00094185,8.4388e-05,1.8696e+08,-99.155,0,2.6657e+08,11.06,12585,534.87,0,534.87,0,0.00072477,5.0433e-10,0,0.00038331,0.00013547,2.1603e+08,122.96,0,1.076e+08,13.553,534.87,1
1848,4.42,12125,1,12125,1,0.00018076,-3.5205e-10,0,0.0006423,-3.2923e-05,13.564,-88.723,0,1.877e+08,4.014,12124,13096,1,13096,1,0.0013945,2.2368e-10,0,0.0013945,0.00019401,2.9546e+08,60.468,0,4.2012e+08,34.451,13095,12124,1,12124,1,0.00018076,-2.551e-10,0,0.00062933,-3.2876e-05,5.0824e+07,-64.705,0,1.8738e+08,3.1232,12123,11201,1,11201,1,-0.0010329,-1.2788e-09,0,4.4001e-05,-0.00025992,-4.2012e+08,-306,0,1.3591e+07,-51.503,11200,11662,1,11662,1,-0.00044857,-6.3703e-10,0,0.00031466,-0.00015051,-1.8241e+08,-167.79,0,9.8164e+07,-2.798,11661,12586,1,12586,1,0.00081008,-2.7499e-11,0,0.00094399,8.4579e-05,1.8738e+08,-6.5628,0,2.6718e+08,12.533,12585,534.87,0,534.87,0,0.00072642,3.8508e-10,0,0.00038418,0.00013577,2.1652e+08,95.039,0,1.0784e+08,13.561,534.87,1
1848,4.43,12125,1,12125,1,0.00018117,5.3966e-10,0,0.00064376,-3.2998e-05,9.7584,135.01,0,1.8812e+08,-1.3345,12124,13096,1,13096,1,0.0013976,2.0611e-09,0,0.0013976,0.00019444,2.9612e+08,454.53,0,4.2107e+08,81.182,13095,12124,1,12124,1,0.00018117,4.7421e-10,0,0.00063075,-3.2951e-05,5.0939e+07,119.17,0,1.8781e+08,-1.72,12123,11201,1,11201,1,-0.0010353,-2.3736e-10,0,4.4099e-05,-0.00026051,-4.2107e+08,-81.281,0,1.3623e+07,-66.89,11200,11662,1,11662,1,-0.00044958,3.9418e-11,0,0.00031537,-0.00015085,-1.8283e+08,8.6566,0,9.8386e+07,-11.363,11661,12586,1,12586,1,0.00081192,9.4933e-10,0,0.00094612,8.477e-05,1.8781e+08,248.82,0,2.6778e+08,9.4375,12585,534.87,0,534.87,0,0.00072806,5.5029e-10,0,0.00038505,0.00013608,2.1701e+08,136.73,0,1.0808e+08,17.875,534.87,1
1848,4.44,12125,1,12125,1,0.00018158,4.7991e-10,0,0.00064521,-3.3073e-05,21.101,119.85,0,1.8855e+08,-3.6149,12124,13096,1,13096,1,0.0014008,1.5453e-09,0,0.0014008,0.00019488,2.9679e+08,340.62,0,4.2202e+08,58.695,13095,12124,1,12124,1,0.00018158,4.5065e-10,0,0.00063217,-3.3025e-05,5.1055e+07,116.12,0,1.8823e+08,-3.6094,12123,11201,1,11201,1,-0.0010376,-1.813e-10,0,4.4197e-05,-0.0002611,-4.2202e+08,-62.082,0,1.3654e+07,-49.619,11200,11662,1,11662,1,-0.00045059,1.5874e-10,0,0.00031609,-0.0001512,-1.8324e+08,40.931,0,9.8608e+07,-10.082,11661,12586,1,12586,1,0.00081375,7.7314e-10,0,0.00094826,8.4961e-05,1.8823e+08,200.51,0,2.6838e+08,3.3528,12585,534.87,0,534.87,0,0.0007297,4.0202e-10,0,0.00038592,0.00013639,2.175e+08,98.74,0,1.0833e+08,12.381,534.87,1
1848,4.45,12125,1,12125,1,0.00018199,-3.4382e-10,0,0.00064666,-3.3148e-05,-3.9734,-86.355,0,1.8897e+08,3.2387,12124,13096,1,13096,1,0.0014039,1.8324e-10,0,0.0014039,0.00019532,2.9745e+08,62.746,0,4.2297e+08,21.738,13095,12124,1,12124,1,0.00018199,-3.0877e-10,0,0.0006336,-3.31e-05,5.117e+07,-80.04,0,1.8866e+08,4.0055,12123,11201,1,11201,1,-0.0010399,-9.3173e-10,0,4.4295e-05,-0.00026169,-4.2297e+08,-221.25,0,1.3685e+07,-39.024,11200,11662,1,11662,1,-0.00045161,-5.5048e-10,0,0.0003168,-0.00015154,-1.8365e+08,-145.89,0,9.883e+07,-1.0306,11661,12586,1,12586,1,0.00081559,-8.4435e-11,0,0.0009504,8.5152e-05,1.8866e+08,-24.218,0,2.6898e+08,8.9919,12585,534.87,0,534.87,0,0.00073135,2.9078e-10,0,0.00038679,0.00013669,2.1799e+08,71.666,0,1.0857e+08,9.2997,534.87,1
1848,4.46,12125,1,12125,1,0.0001824,-1.4293e-11,0,0.00064812,-3.3223e-05,5.028,-4.1118,0,1.894e+08,2.4986,12124,13096,1,13096,1,0.0014071,5.7536e-10,0,0.0014071,0.00019576,2.9811e+08,137.17,0,4.2391e+08,47.912,13095,12124,1,12124,1,0.0001824,-2.279e-11,0,0.00063502,-3.3175e-05,5.1286e+07,-5.3379,0,1.8908e+08,2.7092,12123,11201,1,11201,1,-0.0010423,-6.4894e-10,0,4.4393e-05,-0.00026227,-4.2391e+08,-161.15,0,1.3716e+07,-31.225,11200,11662,1,11662,1,-0.00045262,-1.7091e-10,0,0.00031751,-0.00015188,-1.8406e+08,-44.912,0,9.9052e+07,-2.8304,11661,12586,1,12586,1,0.00081742,1.5301e-10,0,0.00095253,8.5343e-05,1.8908e+08,37.178,0,2.6958e+08,9.303,12585,534.87,0,534.87,0,0.00073299,2.6348e-10,0,0.00038766,0.000137,2.1848e+08,65.986,0,1.0882e+08,10.246,534.87,1
1848,4.47,12125,1,12125,1,0.00018281,-6.4888e-10,0,0.00064958,-3.3298e-05,-14.072,-163.39,0,1.8982e+08,-0.74052,12124,13096,1,13096,1,0.0014103,1.5885e-10,0,0.0014103,0.0001962,2.9878e+08,54.393,0,4.2487e+08,34.941,13095,12124,1,12124,1,0.00018281,-6.6309e-10,0,0.00063645,-3.325e-05,5.1402e+07,-174.8,0,1.8951e+08,1.0872,12123,11201,1,11201,1,-0.0010446,-1.5003e-09,0,4.4491e-05,-0.00026287,-4.2487e+08,-334.75,0,1.3748e+07,-53.853,11200,11662,1,11662,1,-0.00045364,-9.819e-10,0,0.00031822,-0.00015222,-1.8448e+08,-251.6,0,9.9275e+07,-5.9443,11661,12586,1,12586,1,0.00081926,-3.2494e-10,0,0.00095467,8.5535e-05,1.8951e+08,-83.401,0,2.7019e+08,6.2068,12585,534.87,0,534.87,0,0.00073464,4.2536e-10,0,0.00038853,0.00013731,2.1897e+08,103.73,0,1.0906e+08,11.987,534.87,1
1848,4.48,12125,1,12125,1,0.00018322,3.432e-10,0,0.00065102,-3.3372e-05,17.836,84.881,0,1.9025e+08,2.6672,12124,13096,1,13096,1,0.0014134,1.7356e-09,0,0.0014134,0.00019664,2.9944e+08,377.22,0,4.2582e+08,98.265,13095,12124,1,12124,1,0.00018322,2.5006e-10,0,0.00063787,-3.3324e-05,5.1517e+07,63.809,0,1.8993e+08,1.9471,12123,11201,1,11201,1,-0.001047,-4.4735e-10,0,4.4588e-05,-0.00026345,-4.2582e+08,-117.48,0,1.3779e+07,-65.413,11200,11662,1,11662,1,-0.00045465,-6.3673e-11,0,0.00031893,-0.00015256,-1.8489e+08,-13.832,0,9.9496e+07,-5.0066,11661,12586,1,12586,1,0.00082109,6.7486e-10,0,0.0009568,8.5725e-05,1.8993e+08,174.37,0,2.7079e+08,12.298,12585,534.87,0,534.87,0,0.00073628,4.7957e-10,0,0.00038939,0.00013762,2.1945e+08,118.53,0,1.093e+08,16.839,534.87,1
1848,4.49,12125,1,12125,1,0.00018363,-1.0565e-10,0,0.00065248,-3.3447e-05,5.0816,-26.936,0,1.9067e+08,4.2778,12124,13096,1,13096,1,0.0014166,4.6901e-10,0,0.0014166,0.00019708,3.001e+08,123.31,0,4.2677e+08,53.754,13095,12124,1,12124,1,0.00018363,-6.8048e-11,0,0.00063929,-3.3399e-05,5.1633e+07,-18.677,0,1.9036e+08,3.9371,12123,11201,1,11201,1,-0.0010493,-8.4975e-10,0,4.4686e-05,-0.00026404,-4.2677e+08,-207.86,0,1.381e+07,-31.924,11200,11662,1,11662,1,-0.00045566,-3.1329e-10,0,0.00031965,-0.0001529,-1.853e+08,-81.231,0,9.9718e+07,-2.356,11661,12586,1,12586,1,0.00082293,1.0033e-10,0,0.00095894,8.5917e-05,1.9036e+08,24.787,0,2.7139e+08,12.027,12585,534.87,0,534.87,0,0.00073792,3.1498e-10,0,0.00039026,0.00013792,2.1994e+08,78.733,0,1.0955e+08,11.256,534.87,1
1848,4.5,12125,1,12125,1,0.00018405,-2.3776e-09,0,0.00065396,-3.3523e-05,-79.918,-596.25,0,1.911e+08,-6.4823,12124,13096,1,13096,1,0.0014198,1.2086e-09,0,0.0014198,0.00019752,3.0078e+08,413.82,0,4.2774e+08,314.31,13095,12124,1,12124,1,0.00018405,-1.9622e-09,0,0.00064074,-3.3474e-05,5.1749e+07,-501.62,0,1.9078e+08,-9.7076,12123,11201,1,11201,1,-0.0010517,-8.8083e-09,0,4.4785e-05,-0.00026464,-4.2774e+08,-1965.1,0,1.3842e+07,-403.78,11200,11662,1,11662,1,-0.00045669,-3.9282e-09,0,0.00032037,-0.00015325,-1.8572e+08,-1017.6,0,9.9943e+07,-39.719,11661,12586,1,12586,1,0.00082478,-5.0119e-10,0,0.0009611,8.611e-05,1.9078e+08,-136.38,0,2.72e+08,21.655,12585,534.87,0,534.87,0,0.00073959,2.2228e-09,0,0.00039115,0.00013824,2.2044e+08,547.92,0,1.0979e+08,67.588,534.87,1
1848,4.51,12125,1,12125,1,0.00018445,4.4492e-12,0,0.00065539,-3.3597e-05,15.477,0.20597,0,1.9152e+08,3.0736,12124,13096,1,13096,1,0.0014229,8.2911e-10,0,0.0014229,0.00019795,3.0143e+08,201.37,0,4.2866e+08,54.074,13095,12124,1,12124,1,0.00018445,-1.8353e-11,0,0.00064214,-3.3548e-05,5.1863e+07,-4.4863,0,1.912e+08,2.4038,12123,11201,1,11201,1,-0.001054,-6.8393e-10,0,4.4882e-05,-0.00026522,-4.2866e+08,-164.89,0,1.3873e+07,-30.864,11200,11662,1,11662,1,-0.00045769,-2.3263e-10,0,0.00032107,-0.00015358,-1.8612e+08,-59.022,0,1.0016e+08,-4.3304,11661,12586,1,12586,1,0.00082659,2.3531e-10,0,0.00096321,8.6299e-05,1.912e+08,60.675,0,2.726e+08,10.621,12585,534.87,0,534.87,0,0.00074121,3.5354e-10,0,0.000392,0.00013854,2.2092e+08,88.267,0,1.1003e+08,10.851,534.87,1
1848,4.52,12125,1,12125,1,0.00018489,1.4253e-09,0,0.00065689,-3.3677e-05,-42.442,361.67,0,1.9195e+08,-44.921,12124,13096,1,13096,1,0.0014261,7.3554e-09,0,0.0014261,0.0001984,3.0204e+08,1750.4,0,4.2964e+08,184.52,13095,12124,1,12124,1,0.00018489,6.4529e-10,0,0.00064361,-3.3628e-05,5.1987e+07,174.82,0,1.9164e+08,-24.001,12123,11201,1,11201,1,-0.0010564,-4.4459e-09,0,4.4966e-05,-0.00026583,-4.2964e+08,-989.77,0,1.3909e+07,-322.58,11200,11662,1,11662,1,-0.00045871,-7.7239e-11,0,0.0003218,-0.00015394,-1.8654e+08,-18.585,0,1.0039e+08,-89.535,11661,12586,1,12586,1,0.0008285,2.9089e-09,0,0.00096541,8.6492e-05,1.9164e+08,748.64,0,2.7321e+08,8.6799,12585,534.87,0,534.87,0,0.0007429,2.4496e-09,0,0.0003929,0.00013885,2.2142e+08,604.89,0,1.1028e+08,85.024,534.87,1
1848,4.53,12125,1,12125,1,0.00018533,3.5421e-09,0,0.00065836,-3.3756e-05,128.11,897.41,0,1.9237e+08,-92.981,12124,13096,1,13096,1,0.0014294,1.3419e-08,0,0.0014294,0.00019884,3.0264e+08,3209.2,0,4.306e+08,182.59,13095,12124,1,12124,1,0.00018532,2.5307e-09,0,0.00064504,-3.3707e-05,5.2108e+07,644.48,0,1.9207e+08,-67.973,12123,11201,1,11201,1,-0.0010587,-5.8286e-09,0,4.5046e-05,-0.00026643,-4.306e+08,-1283.8,0,1.3946e+07,-452.94,11200,11662,1,11662,1,-0.00045971,2.2113e-10,0,0.00032252,-0.00015428,-1.8695e+08,63.371,0,1.0061e+08,-163.19,11661,12586,1,12586,1,0.00083036,6.6509e-09,0,0.00096756,8.6681e-05,1.9207e+08,1724.7,0,2.738e+08,-16.165,12585,534.87,0,534.87,0,0.00074456,4.3031e-09,0,0.00039379,0.00013916,2.219e+08,1063.9,0,1.1052e+08,115.63,534.87,1
1848,4.54,12125,1,12125,1,0.00018575,1.5918e-09,0,0.0006598,-3.3833e-05,-9.7864,405.6,0,1.9279e+08,-26.814,12124,13096,1,13096,1,0.0014325,6.4155e-09,0,0.0014325,0.00019928,3.0322e+08,1549.8,0,4.3153e+08,130.51,13095,12124,1,12124,1,0.00018575,9.897e-10,0,0.00064646,-3.3784e-05,5.2228e+07,249.75,0,1.925e+08,-17.301,12123,11201,1,11201,1,-0.001061,-2.2348e-09,0,4.5128e-05,-0.00026701,-4.3153e+08,-502,0,1.3982e+07,-163.21,11200,11662,1,11662,1,-0.00046071,7.8991e-11,0,0.00032323,-0.00015462,-1.8735e+08,17.432,0,1.0083e+08,-62.64,11661,12586,1,12586,1,0.00083221,3.0379e-09,0,0.00096969,8.6868e-05,1.925e+08,795.75,0,2.7439e+08,10.146,12585,534.87,0,534.87,0,0.00074619,2.0222e-09,0,0.00039465,0.00013947,2.2238e+08,505.96,0,1.1075e+08,53.03,534.87,1
1848,4.55,12125,1,12125,1,0.00018619,3.2604e-09,0,0.00066129,-3.3912e-05,8.6175,831.19,0,1.9321e+08,-67.854,12124,13096,1,13096,1,0.0014357,1.2744e-08,0,0.0014357,0.00019972,3.0382e+08,3031.3,0,4.3249e+08,147.54,13095,12124,1,12124,1,0.00018618,2.1352e-09,0,0.0006479,-3.3864e-05,5.235e+07,547.72,0,1.9294e+08,-59.909,12123,11201,1,11201,1,-0.0010634,-4.108e-09,0,4.5209e-05,-0.00026761,-4.3249e+08,-908.32,0,1.4019e+07,-360.62,11200,11662,1,11662,1,-0.00046172,2.1812e-10,0,0.00032395,-0.00015497,-1.8776e+08,52.762,0,1.0106e+08,-126.66,11661,12586,1,12586,1,0.00083409,5.9979e-09,0,0.00097186,8.7059e-05,1.9294e+08,1527.1,0,2.7499e+08,-6.042,12585,534.87,0,534.87,0,0.00074787,3.9744e-09,0,0.00039554,0.00013978,2.2287e+08,987.65,0,1.1099e+08,80.578,534.87,1
1848,4.56,12125,1,12125,1,0.00018664,7.9846e-09,0,0.00066281,-3.3994e-05,44.009,2018.2,0,1.9365e+08,-133.73,12124,13096,1,13096,1,0.0014391,2.6904e-08,0,0.0014391,0.00020018,3.0445e+08,6434.1,0,4.3349e+08,219.85,13095,12124,1,12124,1,0.00018663,6.1386e-09,0,0.00064939,-3.3945e-05,5.2475e+07,1573.7,0,1.9338e+08,-103.11,12123,11201,1,11201,1,-0.0010658,-6.5487e-09,0,4.5293e-05,-0.00026824,-4.3349e+08,-1466.1,0,1.4057e+07,-632.49,11200,11662,1,11662,1,-0.00046276,9.4593e-10,0,0.0003247,-0.00015533,-1.8819e+08,256.2,0,1.0129e+08,-256.31,11661,12586,1,12586,1,0.00083602,1.3819e-08,0,0.00097409,8.7255e-05,1.9338e+08,3614.6,0,2.7561e+08,-10.575,12585,534.87,0,534.87,0,0.00074959,8.2428e-09,0,0.00039646,0.0001401,2.2337e+08,2042.7,0,1.1124e+08,169.77,534.87,1
1848,4.57,12125,1,12125,1,0.00018704,-5.098e-10,0,0.00066418,-3.4067e-05,-0.54698,-118.42,0,1.9404e+08,11.133,12124,13096,1,13096,1,0.001442,1.6678e-10,0,0.001442,0.00020058,3.0498e+08,45.495,0,4.3436e+08,51.653,13095,12124,1,12124,1,0.00018704,-4.8016e-10,0,0.00065074,-3.4019e-05,5.259e+07,-131.76,0,1.9379e+08,12.555,12123,11201,1,11201,1,-0.001068,-1.1871e-09,0,4.5368e-05,-0.00026878,-4.3436e+08,-222.32,0,1.4093e+07,-44.906,11200,11662,1,11662,1,-0.0004637,-8.3072e-10,0,0.00032537,-0.00015566,-1.8857e+08,-182.45,0,1.0149e+08,1.9873,11661,12586,1,12586,1,0.00083777,-2.1247e-10,0,0.0009761,8.7432e-05,1.9379e+08,-63.14,0,2.7617e+08,20.629,12585,534.87,0,534.87,0,0.00075113,3.6321e-10,0,0.00039728,0.00014039,2.2382e+08,73.952,0,1.1146e+08,15.113,534.87,1
1848,4.58,12125,1,12125,1,0.00018747,-8.0404e-11,0,0.00066564,-3.4146e-05,0.05992,-20.848,0,1.9446e+08,0.16488,12124,13096,1,13096,1,0.0014452,3.163e-11,0,0.0014452,0.00020102,3.0558e+08,9.8962,0,4.353e+08,11.76,13095,12124,1,12124,1,0.00018747,-5.961e-11,0,0.00065217,-3.4097e-05,5.2711e+07,-15.937,0,1.9422e+08,0.96578,12123,11201,1,11201,1,-0.0010703,-2.5903e-10,0,4.545e-05,-0.00026938,-4.353e+08,-62.062,0,1.4129e+07,-31.292,11200,11662,1,11662,1,-0.0004647,-1.3214e-10,0,0.00032608,-0.000156,-1.8898e+08,-35.805,0,1.0172e+08,-1.0467,11661,12586,1,12586,1,0.00083963,-2.1626e-11,0,0.00097825,8.7621e-05,1.9422e+08,-5.3572,0,2.7677e+08,3.153,12585,534.87,0,534.87,0,0.00075278,7.2613e-11,0,0.00039816,0.0001407,2.2431e+08,18.145,0,1.117e+08,5.6374,534.87,1
1848,4.59,12125,1,12125,1,0.0001879,-4.8985e-10,0,0.0006671,-3.4224e-05,9.9924,-122.42,0,1.9488e+08,3.3773,12124,13096,1,13096,1,0.0014484,1.7399e-10,0,0.0014484,0.00020146,3.0617e+08,59.578,0,4.3625e+08,34.516,13095,12124,1,12124,1,0.0001879,-4.4956e-10,0,0.0006536,-3.4175e-05,5.2832e+07,-117.11,0,1.9465e+08,2.8472,12123,11201,1,11201,1,-0.0010726,-1.3537e-09,0,4.5531e-05,-0.00026997,-4.3625e+08,-322.89,0,1.4166e+07,-40.437,11200,11662,1,11662,1,-0.0004657,-7.6553e-10,0,0.0003268,-0.00015635,-1.8938e+08,-196.22,0,1.0194e+08,-1.4705,11661,12586,1,12586,1,0.00084149,-1.7301e-10,0,0.0009804,8.781e-05,1.9465e+08,-43.976,0,2.7736e+08,9.9113,12585,534.87,0,534.87,0,0.00075443,3.8809e-10,0,0.00039903,0.00014101,2.2479e+08,94.583,0,1.1194e+08,10.479,534.87,1
1848,4.6,12125,1,12125,1,0.00018833,-1.0314e-10,0,0.00066857,-3.4303e-05,-6.2162,-26.17,0,1.953e+08,0.77065,12124,13096,1,13096,1,0.0014516,8.3444e-11,0,0.0014516,0.00020189,3.0676e+08,28.573,0,4.372e+08,16.694,13095,12124,1,12124,1,0.00018833,-7.482e-11,0,0.00065503,-3.4254e-05,5.2953e+07,-19.36,0,1.9508e+08,1.2971,12123,11201,1,11201,1,-0.001075,-4.2462e-10,0,4.5611e-05,-0.00027057,-4.372e+08,-102.31,0,1.4203e+07,-42.791,11200,11662,1,11662,1,-0.0004667,-1.965e-10,0,0.00032752,-0.0001567,-1.8979e+08,-51.556,0,1.0216e+08,-1.5941,11661,12586,1,12586,1,0.00084336,1.1354e-11,0,0.00098255,8.7999e-05,1.9508e+08,2.9428,0,2.7796e+08,5.2602,12585,534.87,0,534.87,0,0.00075609,1.3257e-10,0,0.00039991,0.00014132,2.2527e+08,32.982,0,1.1218e+08,8.754,534.87,1
1848,4.61,12125,1,12125,1,0.00018876,-7.5175e-10,0,0.00067004,-3.4382e-05,-11.127,-186.35,0,1.9572e+08,-1.4776,12124,13096,1,13096,1,0.0014548,3.0969e-10,0,0.0014548,0.00020233,3.0735e+08,106.03,0,4.3815e+08,74.567,13095,12124,1,12124,1,0.00018876,-7.2091e-10,0,0.00065647,-3.4333e-05,5.3074e+07,-192.07,0,1.9551e+08,-1.1274,12123,11201,1,11201,1,-0.0010773,-2.313e-09,0,4.5692e-05,-0.00027116,-4.3815e+08,-508.33,0,1.424e+07,-72.731,11200,11662,1,11662,1,-0.00046771,-1.2172e-09,0,0.00032823,-0.00015704,-1.902e+08,-300.18,0,1.0238e+08,-10.129,11661,12586,1,12586,1,0.00084523,-2.91e-10,0,0.0009847,8.8188e-05,1.9551e+08,-78.229,0,2.7855e+08,7.0204,12585,534.87,0,534.87,0,0.00075775,5.827e-10,0,0.00040079,0.00014163,2.2576e+08,137.82,0,1.1242e+08,18.233,534.87,1
1848,4.62,12125,1,12125,1,0.00018919,-4.6057e-10,0,0.00067149,-3.446e-05,-2.1681,-117.45,0,1.9614e+08,6.2628,12124,13096,1,13096,1,0.001458,1.8688e-10,0,0.001458,0.00020277,3.0793e+08,57.775,0,4.391e+08,38.64,13095,12124,1,12124,1,0.00018919,-3.3579e-10,0,0.00065789,-3.4411e-05,5.3195e+07,-87.172,0,1.9594e+08,4.4665,12123,11201,1,11201,1,-0.0010796,-1.5447e-09,0,4.5772e-05,-0.00027176,-4.391e+08,-370.54,0,1.4277e+07,-33.036,11200,11662,1,11662,1,-0.0004687,-8.0024e-10,0,0.00032895,-0.00015739,-1.906e+08,-209.86,0,1.026e+08,-0.51578,11661,12586,1,12586,1,0.00084708,-6.1273e-11,0,0.00098684,8.8376e-05,1.9594e+08,-16.571,0,2.7914e+08,13.781,12585,534.87,0,534.87,0,0.00075939,4.6437e-10,0,0.00040167,0.00014194,2.2624e+08,115.22,0,1.1265e+08,11.72,534.87,1
1848,4.63,12125,1,12125,1,0.00018962,-7.867e-10,0,0.00067296,-3.4538e-05,-8.6906,-196.88,0,1.9656e+08,5.6857,12124,13096,1,13096,1,0.0014612,2.6138e-10,0,0.0014612,0.00020321,3.0852e+08,89.505,0,4.4005e+08,54.897,13095,12124,1,12124,1,0.00018962,-7.3307e-10,0,0.00065933,-3.449e-05,5.3317e+07,-194.3,0,1.9637e+08,5.0067,12123,11201,1,11201,1,-0.0010819,-2.0945e-09,0,4.5852e-05,-0.00027235,-4.4005e+08,-500.91,0,1.4313e+07,-57.696,11200,11662,1,11662,1,-0.0004697,-1.256e-09,0,0.00032966,-0.00015774,-1.9101e+08,-313.38,0,1.0283e+08,-2.6768,11661,12586,1,12586,1,0.00084895,-2.8796e-10,0,0.00098899,8.8565e-05,1.9637e+08,-74.057,0,2.7974e+08,16.331,12585,534.87,0,534.87,0,0.00076105,6.0969e-10,0,0.00040255,0.00014224,2.2672e+08,148.58,0,1.1289e+08,16.564,534.87,1
1848,4.64,12125,1,12125,1,0.00019005,-2.9088e-10,0,0.00067443,-3.4617e-05,-1.1155,-74.804,0,1.9698e+08,1.1882,12124,13096,1,13096,1,0.0014644,6.9605e-11,0,0.0014644,0.00020365,3.0911e+08,23.835,0,4.4099e+08,15.811,13095,12124,1,12124,1,0.00019005,-2.3577e-10,0,0.00066076,-3.4568e-05,5.3438e+07,-62.083,0,1.9681e+08,1.3179,12123,11201,1,11201,1,-0.0010843,-8.0076e-10,0,4.5932e-05,-0.00027295,-4.4099e+08,-194.04,0,1.4351e+07,-33.305,11200,11662,1,11662,1,-0.00047071,-4.4419e-10,0,0.00033038,-0.00015808,-1.9142e+08,-117.87,0,1.0305e+08,-1.6102,11661,12586,1,12586,1,0.00085082,-1.264e-10,0,0.00099114,8.8754e-05,1.9681e+08,-33.763,0,2.8034e+08,5.7083,12585,534.87,0,534.87,0,0.0007627,2.141e-10,0,0.00040343,0.00014255,2.2721e+08,53.961,0,1.1313e+08,7.2764,534.87,1
1848,4.65,12125,1,12125,1,0.00019049,-8.0464e-10,0,0.00067589,-3.4696e-05,-1.9942,-201.79,0,1.974e+08,6.6807,12124,13096,1,13096,1,0.0014676,2.639e-10,0,0.0014676,0.00020408,3.0969e+08,90.365,0,4.4194e+08,50.946,13095,12124,1,12124,1,0.00019049,-7.3024e-10,0,0.00066219,-3.4647e-05,5.356e+07,-189.81,0,1.9724e+08,5.4243,12123,11201,1,11201,1,-0.0010866,-2.212e-09,0,4.6011e-05,-0.00027354,-4.4194e+08,-528.57,0,1.4388e+07,-57.19,11200,11662,1,11662,1,-0.00047171,-1.2445e-09,0,0.0003311,-0.00015843,-1.9182e+08,-322.74,0,1.0327e+08,-1.4297,11661,12586,1,12586,1,0.00085268,-3.0161e-10,0,0.00099329,8.8942e-05,1.9724e+08,-77.507,0,2.8093e+08,17.05,12585,534.87,0,534.87,0,0.00076435,6.2401e-10,0,0.00040431,0.00014286,2.2769e+08,152.41,0,1.1337e+08,16.308,534.87,1
1848,4.66,12125,1,12125,1,0.00019092,5.7907e-10,0,0.00067736,-3.4775e-05,3.1665,144.94,0,1.9782e+08,-5.7849,12124,13096,1,13096,1,0.0014708,1.3335e-09,0,0.0014708,0.00020452,3.1028e+08,316.21,0,4.4289e+08,25.746,13095,12124,1,12124,1,0.00019092,5.8077e-10,0,0.00066362,-3.4726e-05,5.3681e+07,154.41,0,1.9767e+08,-2.7543,12123,11201,1,11201,1,-0.0010889,-1.3749e-10,0,4.6091e-05,-0.00027414,-4.4289e+08,-47.079,0,1.4425e+07,-44.923,11200,11662,1,11662,1,-0.00047271,2.7193e-10,0,0.00033181,-0.00015878,-1.9223e+08,71.195,0,1.0349e+08,-10.676,11661,12586,1,12586,1,0.00085454,8.8787e-10,0,0.00099544,8.9131e-05,1.9767e+08,221.59,0,2.8152e+08,0.46425,12585,534.87,0,534.87,0,0.00076601,3.9083e-10,0,0.00040519,0.00014317,2.2817e+08,94.456,0,1.1361e+08,9.3704,534.87,1
1848,4.67,12125,1,12125,1,0.00019135,-7.5849e-10,0,0.00067882,-3.4853e-05,-9.9824,-188.02,0,1.9824e+08,5.5922,12124,13096,1,13096,1,0.001474,2.5398e-10,0,0.001474,0.00020496,3.1087e+08,86.968,0,4.4384e+08,73.357,13095,12124,1,12124,1,0.00019135,-7.3991e-10,0,0.00066506,-3.4804e-05,5.3802e+07,-195.68,0,1.981e+08,3.7566,12123,11201,1,11201,1,-0.0010913,-1.9116e-09,0,4.6171e-05,-0.00027473,-4.4384e+08,-454.62,0,1.4462e+07,-58.998,11200,11662,1,11662,1,-0.00047371,-1.2197e-09,0,0.00033253,-0.00015912,-1.9264e+08,-305.86,0,1.0371e+08,-2.9569,11661,12586,1,12586,1,0.0008564,-2.7544e-10,0,0.00099758,8.932e-05,1.981e+08,-70.366,0,2.8212e+08,15.613,12585,534.87,0,534.87,0,0.00076766,5.8589e-10,0,0.00040606,0.00014348,2.2865e+08,140.96,0,1.1384e+08,18.342,534.87,1
1848,4.68,12125,1,12125,1,0.00019178,-5.676e-10,0,0.00068029,-3.4932e-05,-14.957,-142.13,0,1.9866e+08,-0.074779,12124,13096,1,13096,1,0.0014772,1.8514e-10,0,0.0014772,0.0002054,3.1145e+08,62.972,0,4.4478e+08,49.029,13095,12124,1,12124,1,0.00019178,-5.6759e-10,0,0.00066649,-3.4883e-05,5.3924e+07,-151.47,0,1.9853e+08,0.13187,12123,11201,1,11201,1,-0.0010936,-1.5666e-09,0,4.625e-05,-0.00027532,-4.4478e+08,-345.79,0,1.4499e+07,-50.969,11200,11662,1,11662,1,-0.00047471,-9.0055e-10,0,0.00033324,-0.00015947,-1.9304e+08,-227.8,0,1.0394e+08,-5.3358,11661,12586,1,12586,1,0.00085827,-2.3424e-10,0,0.00099973,8.9509e-05,1.9853e+08,-65.452,0,2.8271e+08,5.6943,12585,534.87,0,534.87,0,0.00076931,4.1564e-10,0,0.00040695,0.00014379,2.2914e+08,99.373,0,1.1408e+08,12.621,534.87,1
1848,4.69,12125,1,12125,1,0.00019223,1.3439e-09,0,0.0006818,-3.5013e-05,26.557,341.38,0,1.991e+08,-30.264,12124,13096,1,13096,1,0.0014805,7.6106e-09,0,0.0014805,0.00020585,3.1206e+08,1802.5,0,4.4576e+08,81.186,13095,12124,1,12124,1,0.00019223,7.745e-10,0,0.00066796,-3.4964e-05,5.4049e+07,178.17,0,1.9897e+08,-23.228,12123,11201,1,11201,1,-0.001096,-3.7925e-09,0,4.6332e-05,-0.00027594,-4.4576e+08,-853.14,0,1.4537e+07,-184.71,11200,11662,1,11662,1,-0.00047574,-1.1029e-10,0,0.00033398,-0.00015982,-1.9346e+08,-26.944,0,1.0416e+08,-66.121,11661,12586,1,12586,1,0.00086019,2.81e-09,0,0.0010019,8.9703e-05,1.9897e+08,716.48,0,2.8333e+08,11.025,12585,534.87,0,534.87,0,0.00077102,2.2947e-09,0,0.00040785,0.00014411,2.2963e+08,570.47,0,1.1433e+08,52.479,534.87,1
1848,4.7,12125,1,12125,1,0.00019265,-4.3415e-10,0,0.00068321,-3.509e-05,-5.6507,-106.95,0,1.995e+08,7.7383,12124,13096,1,13096,1,0.0014835,1.819e-10,0,0.0014835,0.00020627,3.1262e+08,62.288,0,4.4668e+08,34.266,13095,12124,1,12124,1,0.00019265,-3.8516e-10,0,0.00066935,-3.5041e-05,5.4167e+07,-101.63,0,1.9939e+08,7.3091,12123,11201,1,11201,1,-0.0010983,-1.2489e-09,0,4.6408e-05,-0.00027651,-4.4668e+08,-293.11,0,1.4574e+07,-39.854,11200,11662,1,11662,1,-0.00047671,-6.8937e-10,0,0.00033468,-0.00016016,-1.9386e+08,-175.2,0,1.0438e+08,2.5087,11661,12586,1,12586,1,0.000862,-1.3265e-10,0,0.001004,8.9885e-05,1.9939e+08,-34.806,0,2.839e+08,15.109,12585,534.87,0,534.87,0,0.00077262,3.6531e-10,0,0.0004087,0.00014441,2.301e+08,86.382,0,1.1456e+08,11.342,534.87,1
1848,4.71,12125,1,12125,1,0.00019308,-3.3234e-10,0,0.00068468,-3.5168e-05,-0.77412,-84.439,0,1.9992e+08,4.1209,12124,13096,1,13096,1,0.0014867,1.5733e-10,0,0.0014867,0.00020671,3.132e+08,50.297,0,4.4762e+08,31.928,13095,12124,1,12124,1,0.00019308,-2.2475e-10,0,0.00067078,-3.5119e-05,5.4289e+07,-57.576,0,1.9982e+08,3.0348,12123,11201,1,11201,1,-0.0011006,-1.1999e-09,0,4.6488e-05,-0.00027711,-4.4762e+08,-287.97,0,1.4611e+07,-35.74,11200,11662,1,11662,1,-0.00047771,-6.0147e-10,0,0.00033539,-0.00016051,-1.9426e+08,-156.73,0,1.046e+08,-1.7602,11661,12586,1,12586,1,0.00086386,-2.3613e-11,0,0.0010062,9.0074e-05,1.9982e+08,-6.4173,0,2.8449e+08,10.727,12585,534.87,0,534.87,0,0.00077427,3.6397e-10,0,0.00040958,0.00014472,2.3058e+08,90.656,0,1.1479e+08,10.433,534.87,1
1848,4.72,12125,1,12125,1,0.00019352,-7.0073e-09,0,0.00068617,-3.5249e-05,-24.689,-1736.7,0,2.0035e+08,6.6604,12124,13096,1,13096,1,0.0014901,2.6286e-09,0,0.0014901,0.00020717,3.1381e+08,900.02,0,4.4862e+08,596.44,13095,12124,1,12124,1,0.00019352,-6.881e-09,0,0.00067224,-3.5199e-05,5.4412e+07,-1796.6,0,2.0026e+08,12.68,12123,11201,1,11201,1,-0.001103,-2.0518e-08,0,4.6566e-05,-0.00027773,-4.4862e+08,-4505,0,1.4648e+07,-604.52,11200,11662,1,11662,1,-0.00047872,-1.1322e-08,0,0.00033612,-0.00016086,-1.9468e+08,-2801.3,0,1.0483e+08,-76.772,11661,12586,1,12586,1,0.00086576,-2.8496e-09,0,0.0010084,9.0266e-05,2.0026e+08,-743.5,0,2.851e+08,88.764,12585,534.87,0,534.87,0,0.00077596,5.3064e-09,0,0.00041048,0.00014503,2.3108e+08,1256.5,0,1.1504e+08,154.21,534.87,1
1848,4.73,12125,1,12125,1,0.00019396,-1.0179e-09,0,0.00068762,-3.5329e-05,-48.081,-275.86,0,2.0076e+08,-17.369,12124,13096,1,13096,1,0.0014932,1.473e-09,0,0.0014932,0.00020759,3.1435e+08,327.41,0,4.4953e+08,174.67,13095,12124,1,12124,1,0.00019396,-5.2565e-10,0,0.00067366,-3.528e-05,5.4536e+07,-146.26,0,2.0069e+08,-18.861,12123,11201,1,11201,1,-0.0011053,-5.2274e-09,0,4.6635e-05,-0.00027831,-4.4953e+08,-1336.5,0,1.4688e+07,-241.46,11200,11662,1,11662,1,-0.0004797,-2.0449e-09,0,0.00033683,-0.0001612,-1.9508e+08,-552.79,0,1.0505e+08,-46.562,11661,12586,1,12586,1,0.00086762,2.5611e-10,0,0.0010105,9.0451e-05,2.0069e+08,62.533,0,2.8567e+08,18.229,12585,534.87,0,534.87,0,0.00077759,1.619e-09,0,0.00041135,0.00014534,2.3155e+08,408.26,0,1.1527e+08,44.482,534.87,1
1848,4.74,12125,1,12125,1,0.00019442,5.4099e-09,0,0.00068913,-3.5414e-05,-80.477,1354.7,0,2.0119e+08,-94.357,12124,13096,1,13096,1,0.0014965,1.8787e-08,0,0.0014965,0.00020804,3.149e+08,4475.6,0,4.505e+08,261.08,13095,12124,1,12124,1,0.00019442,3.9606e-09,0,0.00067512,-3.5364e-05,5.4666e+07,985.03,0,2.0114e+08,-68.217,12123,11201,1,11201,1,-0.0011076,-3.3878e-09,0,4.6692e-05,-0.00027892,-4.505e+08,-842.34,0,1.4733e+07,-459.25,11200,11662,1,11662,1,-0.0004807,7.8035e-10,0,0.00033756,-0.00016156,-1.9548e+08,206.45,0,1.0527e+08,-192.55,11661,12586,1,12586,1,0.00086954,9.3308e-09,0,0.0010127,9.0638e-05,2.0114e+08,2421.5,0,2.8625e+08,-2.5851,12585,534.87,0,534.87,0,0.00077929,5.5626e-09,0,0.00041226,0.00014565,2.3203e+08,1363.9,0,1.155e+08,134.89,534.87,1
1848,4.75,12125,1,12125,1,0.00019488,-5.5058e-10,0,0.00069061,-3.5498e-05,-7.9189,-123.74,0,2.016e+08,-23.188,12124,13096,1,13096,1,0.0014997,4.7397e-09,0,0.0014997,0.00020847,3.1542e+08,1140.5,0,4.5143e+08,108.06,13095,12124,1,12124,1,0.00019488,-3.216e-10,0,0.00067657,-3.5449e-05,5.4797e+07,-67.189,0,2.0158e+08,-14.564,12123,11201,1,11201,1,-0.0011099,-7.7138e-09,0,4.6748e-05,-0.00027952,-4.5143e+08,-1818.9,0,1.4778e+07,-201.75,11200,11662,1,11662,1,-0.00048169,-1.7844e-09,0,0.00033829,-0.00016192,-1.9588e+08,-439.94,0,1.0549e+08,-71.498,11661,12586,1,12586,1,0.00087146,6.4996e-10,0,0.0010149,9.0825e-05,2.0158e+08,192.45,0,2.8682e+08,30.995,12585,534.87,0,534.87,0,0.00078095,2.2645e-09,0,0.00041315,0.00014596,2.3251e+08,571.28,0,1.1574e+08,66.912,534.87,1
1848,4.76,12125,1,12125,1,0.00019534,1.4836e-09,0,0.00069209,-3.5582e-05,222.52,375.24,0,2.0201e+08,-66.572,12124,13096,1,13096,1,0.001503,1.0481e-08,0,0.001503,0.0002089,3.1595e+08,2478.9,0,4.5238e+08,160.98,13095,12124,1,12124,1,0.00019534,7.5109e-10,0,0.00067801,-3.5533e-05,5.4926e+07,194.75,0,2.0202e+08,-57.213,12123,11201,1,11201,1,-0.0011123,-5.6392e-09,0,4.6804e-05,-0.00028013,-4.5238e+08,-1331.4,0,1.4823e+07,-277.07,11200,11662,1,11662,1,-0.00048267,-5.0249e-10,0,0.00033901,-0.00016227,-1.9628e+08,-130.4,0,1.0571e+08,-133.66,11661,12586,1,12586,1,0.00087336,3.2596e-09,0,0.001017,9.101e-05,2.0202e+08,840.95,0,2.8739e+08,1.4012,12585,534.87,0,534.87,0,0.00078262,3.2278e-09,0,0.00041404,0.00014627,2.3298e+08,804.48,0,1.1597e+08,81.166,534.87,1
1848,4.77,12125,1,12125,1,0.00019581,-1.0058e-09,0,0.00069357,-3.5666e-05,-4.1138,-244.84,0,2.0243e+08,-60.536,12124,13096,1,13096,1,0.0015062,7.9342e-09,0,0.0015062,0.00020934,3.1648e+08,1893.3,0,4.5333e+08,201.63,13095,12124,1,12124,1,0.0001958,9.0485e-11,0,0.00067946,-3.5617e-05,5.5056e+07,21.707,0,2.0246e+08,-40.736,12123,11201,1,11201,1,-0.0011146,-1.5722e-08,0,4.686e-05,-0.00028073,-4.5333e+08,-3705.3,0,1.4868e+07,-484,11200,11662,1,11662,1,-0.00048366,-3.4739e-09,0,0.00033973,-0.00016263,-1.9668e+08,-901.27,0,1.0594e+08,-151.93,11661,12586,1,12586,1,0.00087527,1.9473e-09,0,0.0010192,9.1196e-05,2.0246e+08,525.78,0,2.8796e+08,35.06,12585,534.87,0,534.87,0,0.00078429,4.8237e-09,0,0.00041494,0.00014659,2.3346e+08,1205.6,0,1.162e+08,129.68,534.87,1
1848,4.78,12125,1,12125,1,0.00019627,-4.2635e-09,0,0.00069508,-3.5751e-05,-184.85,-1070.1,0,2.0285e+08,-46.376,12124,13096,1,13096,1,0.0015095,6.2039e-09,0,0.0015095,0.00020979,3.1702e+08,1474.5,0,4.543e+08,251.61,13095,12124,1,12124,1,0.00019627,-2.1968e-09,0,0.00068093,-3.5702e-05,5.5186e+07,-571.7,0,2.0291e+08,-40.385,12123,11201,1,11201,1,-0.001117,-2.3913e-08,0,4.6916e-05,-0.00028135,-4.543e+08,-5637.9,0,1.4913e+07,-516.45,11200,11662,1,11662,1,-0.00048466,-8.0556e-09,0,0.00034046,-0.00016298,-1.9709e+08,-2015.4,0,1.0616e+08,-153.96,11661,12586,1,12586,1,0.0008772,3.1886e-10,0,0.0010214,9.1384e-05,2.0291e+08,99.199,0,2.8853e+08,68.205,12585,534.87,0,534.87,0,0.00078599,6.366e-09,0,0.00041584,0.0001469,2.3394e+08,1587.8,0,1.1643e+08,149.06,534.87,1
1848,4.79,12125,1,12125,1,0.00019671,2.2663e-10,0,0.00069648,-3.5831e-05,13.171,44.606,0,2.0325e+08,24.486,12124,13096,1,13096,1,0.0015126,2.3169e-09,0,0.0015126,0.0002102,3.1751e+08,426.68,0,4.5518e+08,72.526,13095,12124,1,12124,1,0.00019671,3.526e-12,0,0.00068231,-3.5782e-05,5.5311e+07,1.1863,0,2.0333e+08,23.003,12123,11201,1,11201,1,-0.0011192,-6.6058e-10,0,4.6967e-05,-0.00028192,-4.5518e+08,-125.07,0,1.4957e+07,-10.66,11200,11662,1,11662,1,-0.00048559,-1.6499e-10,0,0.00034115,-0.00016332,-1.9747e+08,-48.508,0,1.0637e+08,8.8806,11661,12586,1,12586,1,0.00087902,4.8672e-10,0,0.0010235,9.1561e-05,2.0333e+08,119.74,0,2.8907e+08,38.443,12585,534.87,0,534.87,0,0.00078757,6.2339e-10,0,0.00041669,0.0001472,2.3439e+08,131.75,0,1.1665e+08,18.491,534.87,1
1848,4.8,12125,1,12125,1,0.00019719,3.5749e-10,0,0.00069801,-3.5918e-05,39.618,98.332,0,2.0368e+08,-64.399,12124,13096,1,13096,1,0.0015159,7.6597e-09,0,0.0015159,0.00021065,3.1807e+08,1807.6,0,4.5616e+08,154.26,13095,12124,1,12124,1,0.00019719,7.1777e-10,0,0.00068379,-3.5869e-05,5.5444e+07,177.35,0,2.0378e+08,-47.234,12123,11201,1,11201,1,-0.0011216,-1.1573e-08,0,4.7025e-05,-0.00028254,-4.5616e+08,-2707.7,0,1.5003e+07,-384.91,11200,11662,1,11662,1,-0.00048661,-1.2863e-09,0,0.0003419,-0.00016369,-1.9788e+08,-326.93,0,1.066e+08,-125.19,11661,12586,1,12586,1,0.00088098,2.6276e-09,0,0.0010257,9.1753e-05,2.0378e+08,677.22,0,2.8966e+08,8.2248,12585,534.87,0,534.87,0,0.00078929,3.6559e-09,0,0.00041761,0.00014752,2.3488e+08,906.46,0,1.1689e+08,103.28,534.87,1
1848,4.81,12125,1,12125,1,0.00019763,-2.7277e-10,0,0.00069944,-3.5999e-05,4.784,-69.097,0,2.0407e+08,13.785,12124,13096,1,13096,1,0.0015191,8.3137e-10,0,0.0015191,0.00021107,3.1856e+08,151.91,0,4.5707e+08,33.841,13095,12124,1,12124,1,0.00019763,-2.6985e-10,0,0.00068519,-3.595e-05,5.557e+07,-76.791,0,2.0421e+08,14.383,12123,11201,1,11201,1,-0.0011238,-8.6785e-10,0,4.7077e-05,-0.00028312,-4.5707e+08,-192.29,0,1.5047e+07,-28.149,11200,11662,1,11662,1,-0.00048756,-4.9621e-10,0,0.00034259,-0.00016403,-1.9827e+08,-126.01,0,1.0682e+08,5.3161,11661,12586,1,12586,1,0.00088282,-5.8211e-11,0,0.0010278,9.1932e-05,2.0421e+08,-17.434,0,2.902e+08,24.015,12585,534.87,0,534.87,0,0.0007909,3.2005e-10,0,0.00041847,0.00014782,2.3534e+08,70.034,0,1.1711e+08,12.131,534.87,1
1848,4.82,12125,1,12125,1,0.00019811,4.9697e-10,0,0.00070097,-3.6086e-05,0.22003,127.7,0,2.045e+08,-89.156,12124,13096,1,13096,1,0.0015224,8.804e-09,0,0.0015224,0.00021152,3.1912e+08,2086.9,0,4.5805e+08,175.17,13095,12124,1,12124,1,0.00019811,5.7625e-10,0,0.00068668,-3.6037e-05,5.5703e+07,134.43,0,2.0466e+08,-55.475,12123,11201,1,11201,1,-0.0011262,-1.2556e-08,0,4.7134e-05,-0.00028375,-4.5805e+08,-2944.7,0,1.5093e+07,-455.29,11200,11662,1,11662,1,-0.00048857,-1.8305e-09,0,0.00034334,-0.0001644,-1.9868e+08,-441.49,0,1.0705e+08,-177.92,11661,12586,1,12586,1,0.00088479,3.4532e-09,0,0.00103,9.2123e-05,2.0466e+08,886.35,0,2.9079e+08,2.1224,12585,534.87,0,534.87,0,0.00079262,4.395e-09,0,0.0004194,0.00014814,2.3583e+08,1088.1,0,1.1735e+08,123.92,534.87,1
1848,4.83,12125,1,12125,1,0.00019856,-5.4183e-11,0,0.0007024,-3.6168e-05,15.846,-13.949,0,2.049e+08,18.044,12124,13096,1,13096,1,0.0015256,1.1782e-09,0,0.0015256,0.00021194,3.1961e+08,215.99,0,4.5896e+08,61.196,13095,12124,1,12124,1,0.00019856,-6.7812e-11,0,0.00068807,-3.6119e-05,5.583e+07,-20.887,0,2.0509e+08,16.161,12123,11201,1,11201,1,-0.0011284,-8.2975e-10,0,4.7185e-05,-0.00028433,-4.5896e+08,-151.57,0,1.5138e+07,-30.235,11200,11662,1,11662,1,-0.00048952,-2.5548e-10,0,0.00034404,-0.00016474,-1.9907e+08,-68.209,0,1.0726e+08,5.3522,11661,12586,1,12586,1,0.00088663,8.3271e-11,0,0.0010321,9.2302e-05,2.0509e+08,24.417,0,2.9133e+08,31.311,12585,534.87,0,534.87,0,0.00079423,3.7689e-10,0,0.00042026,0.00014844,2.3629e+08,78.664,0,1.1758e+08,17.756,534.87,1
1848,4.84,12125,1,12125,1,0.00019902,-6.8947e-11,0,0.00070388,-3.6251e-05,4.6274,-17.74,0,2.0532e+08,3.2757,12124,13096,1,13096,1,0.0015288,4.8628e-10,0,0.0015288,0.00021238,3.2013e+08,116.91,0,4.599e+08,26.09,13095,12124,1,12124,1,0.00019902,-5.5901e-11,0,0.00068952,-3.6203e-05,5.5959e+07,-14.901,0,2.0553e+08,2.107,12123,11201,1,11201,1,-0.0011308,-4.7217e-10,0,4.724e-05,-0.00028493,-4.599e+08,-112,0,1.5183e+07,-26.446,11200,11662,1,11662,1,-0.0004905,-2.1114e-10,0,0.00034476,-0.00016509,-1.9947e+08,-54.305,0,1.0748e+08,-1.2586,11661,12586,1,12586,1,0.00088853,4.3024e-11,0,0.0010343,9.2487e-05,2.0553e+08,11.157,0,2.919e+08,8.132,12585,534.87,0,534.87,0,0.00079589,2.0299e-10,0,0.00042115,0.00014875,2.3676e+08,50.357,0,1.1781e+08,8.0734,534.87,1
1848,4.85,12125,1,12125,1,0.00019948,2.1427e-09,0,0.00070537,-3.6337e-05,-302.45,539.12,0,2.0573e+08,-26.647,12124,13096,1,13096,1,0.0015321,6.5659e-09,0,0.0015321,0.00021282,3.2067e+08,1566.6,0,4.6086e+08,153.07,13095,12124,1,12124,1,0.00019948,1.9231e-09,0,0.00069097,-3.6288e-05,5.609e+07,492.38,0,2.0598e+08,-14.338,12123,11201,1,11201,1,-0.0011331,-2.3498e-09,0,4.7294e-05,-0.00028555,-4.6086e+08,-545.8,0,1.5228e+07,-203.28,11200,11662,1,11662,1,-0.00049149,3.7972e-10,0,0.00034549,-0.00016545,-1.9987e+08,94.32,0,1.0771e+08,-71.624,11661,12586,1,12586,1,0.00089045,3.7352e-09,0,0.0010365,9.2674e-05,2.0598e+08,960.98,0,2.9247e+08,11.307,12585,534.87,0,534.87,0,0.00079758,2.0748e-09,0,0.00042205,0.00014907,2.3724e+08,508.67,0,1.1804e+08,72.047,534.87,1
1848,4.86,12125,1,12125,1,0.00019997,-2.9835e-09,0,0.00070685,-3.6425e-05,-75.821,-739.35,0,2.0614e+08,-14.167,12124,13096,1,13096,1,0.0015354,6.9461e-10,0,0.0015354,0.00021325,3.2114e+08,237.85,0,4.6179e+08,82.286,13095,12124,1,12124,1,0.00019997,-3.0935e-09,0,0.00069241,-3.6377e-05,5.6227e+07,-845.88,0,2.0642e+08,-11.405,12123,11201,1,11201,1,-0.0011354,-6.2802e-09,0,4.7319e-05,-0.00028615,-4.6179e+08,-1525,0,1.5282e+07,-106.54,11200,11662,1,11662,1,-0.00049244,-4.6137e-09,0,0.0003462,-0.00016581,-2.0026e+08,-1092.8,0,1.0792e+08,-29.582,11661,12586,1,12586,1,0.00089238,-1.6028e-09,0,0.0010386,9.2853e-05,2.0642e+08,-415.98,0,2.93e+08,6.8534,12585,534.87,0,534.87,0,0.00079923,1.8347e-09,0,0.00042294,0.00014938,2.377e+08,433.18,0,1.1826e+08,34.026,534.87,1
1848,4.87,12125,1,12125,1,0.00020048,7.5445e-12,0,0.00070837,-3.6518e-05,12.805,-4.2728,0,2.0655e+08,-35.747,12124,13096,1,13096,1,0.0015387,2.5782e-09,0,0.0015387,0.00021369,3.2161e+08,598.82,0,4.6274e+08,53.456,13095,12124,1,12124,1,0.00020048,3.5405e-10,0,0.00069389,-3.647e-05,5.637e+07,100.67,0,2.0688e+08,-20.605,12123,11201,1,11201,1,-0.0011378,-5.6583e-09,0,4.7342e-05,-0.00028678,-4.6274e+08,-1394.5,0,1.5338e+07,-212.43,11200,11662,1,11662,1,-0.00049342,-3.8547e-10,0,0.00034695,-0.00016618,-2.0065e+08,-99.412,0,1.0815e+08,-48.213,11661,12586,1,12586,1,0.00089437,8.5304e-10,0,0.0010408,9.3037e-05,2.0688e+08,213.28,0,2.9355e+08,-1.7023,12585,534.87,0,534.87,0,0.00080095,1.4808e-09,0,0.00042387,0.0001497,2.3817e+08,372.21,0,1.1849e+08,54.127,534.87,1
1848,4.88,12125,1,12125,1,0.00020099,1.1905e-09,0,0.0007099,-3.6611e-05,-66.248,305.91,0,2.0696e+08,-99.931,12124,13096,1,13096,1,0.0015421,1.0307e-08,0,0.0015421,0.00021413,3.2208e+08,2474.4,0,4.637e+08,168.4,13095,12124,1,12124,1,0.00020099,1.0504e-09,0,0.00069537,-3.6563e-05,5.6513e+07,278.98,0,2.0734e+08,-69.329,12123,11201,1,11201,1,-0.0011401,-1.1557e-08,0,4.7361e-05,-0.0002874,-4.637e+08,-2854.3,0,1.5395e+07,-513.24,11200,11662,1,11662,1,-0.00049439,-7.3902e-10,0,0.00034769,-0.00016655,-2.0105e+08,-179.04,0,1.0837e+08,-169.7,11661,12586,1,12586,1,0.00089636,3.7463e-09,0,0.0010431,9.322e-05,2.0734e+08,975.8,0,2.9409e+08,-0.46131,12585,534.87,0,534.87,0,0.00080266,4.253e-09,0,0.00042479,0.00015002,2.3864e+08,1069.1,0,1.1871e+08,135.52,534.87,1
1848,4.89,12125,1,12125,1,0.0002015,3.8716e-09,0,0.00071145,-3.6706e-05,-71.426,981.86,0,2.0738e+08,-78.445,12124,13096,1,13096,1,0.0015455,2.1653e-08,0,0.0015455,0.00021459,3.2257e+08,5203.4,0,4.6468e+08,347.25,13095,12124,1,12124,1,0.0002015,2.5334e-09,0,0.00069688,-3.6657e-05,5.6658e+07,645.7,0,2.0781e+08,-30.975,12123,11201,1,11201,1,-0.0011425,-1.7955e-08,0,4.7382e-05,-0.00028804,-4.6468e+08,-4427.4,0,1.5452e+07,-682.85,11200,11662,1,11662,1,-0.00049537,-1.0547e-09,0,0.00034844,-0.00016692,-2.0145e+08,-252.21,0,1.086e+08,-213.09,11661,12586,1,12586,1,0.00089838,9.8604e-09,0,0.0010453,9.3406e-05,2.0781e+08,2520.9,0,2.9464e+08,72.878,12585,534.87,0,534.87,0,0.0008044,8.4904e-09,0,0.00042573,0.00015034,2.3912e+08,2147.1,0,1.1894e+08,209.76,534.87,1
1848,4.9,12125,1,12125,1,0.000202,1.4941e-09,0,0.00071291,-3.6796e-05,-68.72,398.3,0,2.0778e+08,-50.866,12124,13096,1,13096,1,0.0015487,9.6859e-09,0,0.0015487,0.000215,3.2299e+08,2377.1,0,4.6559e+08,163.81,13095,12124,1,12124,1,0.00020199,1.1065e-09,0,0.0006983,-3.6748e-05,5.6797e+07,276.36,0,2.0825e+08,-22.273,12123,11201,1,11201,1,-0.0011447,-1.0936e-08,0,4.7395e-05,-0.00028864,-4.6559e+08,-2704,0,1.5509e+07,-456.13,11200,11662,1,11662,1,-0.0004963,-4.1171e-10,0,0.00034915,-0.00016728,-2.0183e+08,-92.642,0,1.0882e+08,-114.32,11661,12586,1,12586,1,0.00090029,4.0854e-09,0,0.0010474,9.3581e-05,2.0825e+08,1072.2,0,2.9516e+08,43.699,12585,534.87,0,534.87,0,0.00080603,3.9652e-09,0,0.00042662,0.00015065,2.3957e+08,1027.1,0,1.1916e+08,127.18,534.87,1
1848,4.91,12125,1,12125,1,0.00020248,5.1062e-11,0,0.00071435,-3.6884e-05,-4.4401,17.676,0,2.0817e+08,33.396,12124,13096,1,13096,1,0.0015519,1.8971e-09,0,0.0015519,0.00021542,3.2343e+08,351.92,0,4.6648e+08,102.2,13095,12124,1,12124,1,0.00020248,8.8596e-11,0,0.0006997,-3.6836e-05,5.6934e+07,26.696,0,2.0869e+08,29.388,12123,11201,1,11201,1,-0.0011469,-1.305e-09,0,4.7413e-05,-0.00028923,-4.6648e+08,-239.08,0,1.5564e+07,-26.171,11200,11662,1,11662,1,-0.00049722,-1.1309e-10,0,0.00034985,-0.00016763,-2.022e+08,-27.115,0,1.0903e+08,8.0585,11661,12586,1,12586,1,0.00090218,2.0352e-10,0,0.0010496,9.3755e-05,2.0869e+08,64.211,0,2.9567e+08,55.202,12585,534.87,0,534.87,0,0.00080765,4.7825e-10,0,0.00042749,0.00015095,2.4001e+08,94.803,0,1.1937e+08,29.315,534.87,1
1848,4.92,12125,1,12125,1,0.00020299,-8.4318e-10,0,0.00071588,-3.6977e-05,90.798,-199.72,0,2.0858e+08,-80.523,12124,13096,1,13096,1,0.0015553,5.3955e-09,0,0.0015553,0.00021586,3.2391e+08,1297.9,0,4.6745e+08,161.96,13095,12124,1,12124,1,0.00020299,-5.8578e-11,0,0.00070118,-3.6929e-05,5.7077e+07,-16.836,0,2.0915e+08,-65.669,12123,11201,1,11201,1,-0.0011493,-1.0624e-08,0,4.7434e-05,-0.00028986,-4.6745e+08,-2579.3,0,1.5621e+07,-312.62,11200,11662,1,11662,1,-0.00049819,-2.6777e-09,0,0.00035059,-0.000168,-2.026e+08,-653.51,0,1.0926e+08,-164.28,11661,12586,1,12586,1,0.00090417,1.2441e-09,0,0.0010518,9.3938e-05,2.0915e+08,324.76,0,2.9622e+08,-5.991,12585,534.87,0,534.87,0,0.00080936,3.2981e-09,0,0.00042842,0.00015127,2.4048e+08,821.15,0,1.196e+08,97.503,534.87,1
1848,4.93,12125,1,12125,1,0.00020348,-1.8381e-09,0,0.00071731,-3.7066e-05,53.928,-477.45,0,2.0897e+08,24.513,12124,13096,1,13096,1,0.0015585,2.0077e-09,0,0.0015585,0.00021628,3.2433e+08,372.29,0,4.6834e+08,136.19,13095,12124,1,12124,1,0.00020347,-1.7394e-09,0,0.00070258,-3.7018e-05,5.7214e+07,-469.95,0,2.0958e+08,17.601,12123,11201,1,11201,1,-0.0011515,-5.4808e-09,0,4.7446e-05,-0.00029045,-4.6834e+08,-1294.4,0,1.5677e+07,-38.348,11200,11662,1,11662,1,-0.00049911,-3.0143e-09,0,0.00035129,-0.00016835,-2.0297e+08,-806.27,0,1.0947e+08,1.2101,11661,12586,1,12586,1,0.00090606,-5.7873e-10,0,0.0010539,9.4111e-05,2.0958e+08,-151.24,0,2.9672e+08,37.703,12585,534.87,0,534.87,0,0.00081097,1.6208e-09,0,0.00042929,0.00015157,2.4092e+08,396.12,0,1.1981e+08,34.088,534.87,1
1848,4.94,12125,1,12125,1,0.000204,-1.8109e-10,0,0.00071888,-3.7161e-05,-116.01,-37.288,0,2.0939e+08,-130.11,12124,13096,1,13096,1,0.0015619,6.8369e-09,0,0.0015619,0.00021673,3.2483e+08,1616.5,0,4.6933e+08,140.48,13095,12124,1,12124,1,0.00020399,6.7307e-10,0,0.0007041,-3.7114e-05,5.736e+07,167.71,0,2.1006e+08,-79.495,12123,11201,1,11201,1,-0.0011539,-1.4943e-08,0,4.7469e-05,-0.00029109,-4.6933e+08,-3592.5,0,1.5735e+07,-704.48,11200,11662,1,11662,1,-0.00050011,-1.3899e-09,0,0.00035205,-0.00016873,-2.0337e+08,-350.38,0,1.097e+08,-157.68,11661,12586,1,12586,1,0.0009081,2.0502e-09,0,0.0010562,9.4299e-05,2.1006e+08,538.69,0,2.9728e+08,-21.658,12585,534.87,0,534.87,0,0.00081274,3.9905e-09,0,0.00043024,0.0001519,2.4141e+08,985.34,0,1.2004e+08,170.17,534.87,1
1848,4.95,12125,1,12125,1,0.00020451,-6.3611e-10,0,0.00072041,-3.7255e-05,-71.24,-153.43,0,2.098e+08,-58.416,12124,13096,1,13096,1,0.0015653,9.0403e-09,0,0.0015653,0.00021717,3.2528e+08,2186.7,0,4.7028e+08,204.73,13095,12124,1,12124,1,0.00020451,2.4223e-10,0,0.00070559,-3.7208e-05,5.7505e+07,54.766,0,2.1052e+08,-30.592,12123,11201,1,11201,1,-0.0011563,-1.4366e-08,0,4.7484e-05,-0.00029172,-4.7028e+08,-3554.1,0,1.5793e+07,-476.41,11200,11662,1,11662,1,-0.00050108,-2.3574e-09,0,0.00035279,-0.0001691,-2.0377e+08,-582.2,0,1.0992e+08,-133.9,11661,12586,1,12586,1,0.0009101,1.3972e-09,0,0.0010584,9.4482e-05,2.1052e+08,397.45,0,2.9782e+08,30.651,12585,534.87,0,534.87,0,0.00081445,4.0864e-09,0,0.00043117,0.00015222,2.4188e+08,1042.9,0,1.2027e+08,131.2,534.87,1
1848,4.96,12125,1,12125,1,0.000205,4.2147e-11,0,0.00072185,-3.7344e-05,0.92361,1.6295,0,2.1019e+08,32.244,12124,13096,1,13096,1,0.0015685,1.9408e-09,0,0.0015685,0.00021758,3.257e+08,358.81,0,4.7117e+08,78.731,13095,12124,1,12124,1,0.000205,-4.9566e-11,0,0.00070699,-3.7297e-05,5.7643e+07,-13.37,0,2.1096e+08,34.009,12123,11201,1,11201,1,-0.0011585,-1.093e-09,0,4.7495e-05,-0.00029231,-4.7117e+08,-199.79,0,1.585e+07,-3.9468,11200,11662,1,11662,1,-0.00050199,-1.6668e-10,0,0.00035349,-0.00016945,-2.0414e+08,-48.379,0,1.1014e+08,13.508,11661,12586,1,12586,1,0.00091199,1.1963e-10,0,0.0010605,9.4654e-05,2.1096e+08,30.617,0,2.9833e+08,47.996,12585,534.87,0,534.87,0,0.00081606,4.1366e-10,0,0.00043204,0.00015252,2.4232e+08,83.973,0,1.2048e+08,20.547,534.87,1
1848,4.97,12125,1,12125,1,0.00020551,2.3357e-09,0,0.00072338,-3.7438e-05,-238.85,586.89,0,2.1061e+08,-36.662,12124,13096,1,13096,1,0.0015719,9.462e-09,0,0.0015719,0.00021803,3.2618e+08,2258.6,0,4.7214e+08,92.136,13095,12124,1,12124,1,0.00020551,1.6468e-09,0,0.00070847,-3.7391e-05,5.7786e+07,418.57,0,2.1142e+08,-14.755,12123,11201,1,11201,1,-0.0011609,-4.7736e-09,0,4.7516e-05,-0.00029294,-4.7214e+08,-1176.5,0,1.5907e+07,-264.02,11200,11662,1,11662,1,-0.00050296,1.2239e-10,0,0.00035424,-0.00016982,-2.0454e+08,29.059,0,1.1036e+08,-90.12,11661,12586,1,12586,1,0.00091399,4.6178e-09,0,0.0010627,9.4838e-05,2.1142e+08,1175.7,0,2.9887e+08,27.941,12585,534.87,0,534.87,0,0.00081778,3.1794e-09,0,0.00043297,0.00015284,2.4279e+08,790.68,0,1.207e+08,80.012,534.87,1
1848,4.98,12125,1,12125,1,0.00020601,-8.1109e-11,0,0.00072484,-3.7528e-05,6.8908,-11.4,0,2.11e+08,18.979,12124,13096,1,13096,1,0.0015751,8.3918e-10,0,0.0015751,0.00021845,3.2661e+08,155.53,0,4.7305e+08,59.402,13095,12124,1,12124,1,0.00020601,2.8998e-11,0,0.0007099,-3.7482e-05,5.7927e+07,8.0415,0,2.1186e+08,17.066,12123,11201,1,11201,1,-0.0011631,-1.1672e-09,0,4.7526e-05,-0.00029354,-4.7305e+08,-216.35,0,1.5964e+07,-26.997,11200,11662,1,11662,1,-0.00050389,-2.0584e-10,0,0.00035495,-0.00017018,-2.0491e+08,-43.856,0,1.1058e+08,4.8403,11661,12586,1,12586,1,0.00091591,9.7604e-11,0,0.0010648,9.5013e-05,2.1186e+08,31.764,0,2.9935e+08,33.032,12585,534.87,0,534.87,0,0.00081942,3.5975e-10,0,0.00043386,0.00015315,2.4324e+08,72.066,0,1.2092e+08,17.779,534.87,1
1848,4.99,12125,1,12125,1,0.00020652,-2.3331e-09,0,0.00072636,-3.7622e-05,214.82,-575.74,0,2.1141e+08,-49.693,12124,13096,1,13096,1,0.0015785,1.2692e-09,0,0.0015785,0.00021889,3.2707e+08,434.61,0,4.7401e+08,59.521,13095,12124,1,12124,1,0.00020652,-2.1258e-09,0,0.00071137,-3.7575e-05,5.807e+07,-574.56,0,2.1232e+08,-39.276,12123,11201,1,11201,1,-0.0011654,-8.2364e-09,0,4.7543e-05,-0.00029417,-4.7401e+08,-1965.6,0,1.6022e+07,-211.88,11200,11662,1,11662,1,-0.00050486,-3.783e-09,0,0.00035569,-0.00017055,-2.053e+08,-884.82,0,1.108e+08,-80.418,11661,12586,1,12586,1,0.00091789,-7.5041e-10,0,0.0010671,9.5195e-05,2.1232e+08,-185.84,0,2.9982e+08,-12.199,12585,534.87,0,534.87,0,0.00082113,2.0721e-09,0,0.00043478,0.00015347,2.4371e+08,504.28,0,1.2114e+08,54.617,534.87,1
1848,5,12125,1,12125,1,0.00020707,3.3876e-10,0,0.00072789,-3.7722e-05,87.814,68.509,0,2.1181e+08,-8.9288,12124,13096,1,13096,1,0.0015819,3.653e-09,0,0.0015819,0.00021932,3.2747e+08,859.92,0,4.7494e+08,138.98,13095,12124,1,12124,1,0.00020707,6.8131e-10,0,0.00071286,-3.7676e-05,5.8225e+07,152.82,0,2.1279e+08,1.5736,12123,11201,1,11201,1,-0.0011677,-7.9238e-09,0,4.7521e-05,-0.0002948,-4.7494e+08,-1992.3,0,1.6092e+07,-320.98,11200,11662,1,11662,1,-0.00050579,-2.3909e-10,0,0.00035643,-0.00017093,-2.0568e+08,-66.868,0,1.1102e+08,-26.619,11661,12586,1,12586,1,0.00091993,1.6572e-09,0,0.0010693,9.537e-05,2.1279e+08,408.83,0,3.0023e+08,23.705,12585,534.87,0,534.87,0,0.00082284,2.0569e-09,0,0.00043571,0.00015378,2.4416e+08,521.86,0,1.2136e+08,69.423,534.87,1
1848,5.01,12125,1,12125,1,0.00020763,-1.7906e-09,0,0.00072944,-3.7825e-05,-107.66,-453.2,0,2.1221e+08,-18.693,12124,13096,1,13096,1,0.0015853,6.7022e-09,0,0.0015853,0.00021976,3.2787e+08,1605.7,0,4.7589e+08,344.35,13095,12124,1,12124,1,0.00020763,-2.5787e-10,0,0.00071435,-3.7779e-05,5.8383e+07,-66.429,0,2.1327e+08,-23.605,12123,11201,1,11201,1,-0.0011701,-2.0797e-08,0,4.7491e-05,-0.00029544,-4.7589e+08,-5185.8,0,1.6164e+07,-632.65,11200,11662,1,11662,1,-0.00050672,-3.9045e-09,0,0.00035717,-0.00017131,-2.0606e+08,-992.26,0,1.1125e+08,-106.76,11661,12586,1,12586,1,0.00092198,1.3008e-09,0,0.0010715,9.5545e-05,2.1327e+08,330.58,0,3.0063e+08,52.732,12585,534.87,0,534.87,0,0.00082456,5.003e-09,0,0.00043666,0.00015411,2.4461e+08,1273.7,0,1.2157e+08,144.05,534.87,1
1848,5.02,12125,1,12125,1,0.0002082,1.0416e-09,0,0.00073097,-3.7928e-05,-50.949,246.62,0,2.126e+08,3.5666,12124,13096,1,13096,1,0.0015888,1.0227e-08,0,0.0015888,0.00022019,3.2825e+08,2465.3,0,4.7682e+08,366.77,13095,12124,1,12124,1,0.00020819,1.1913e-09,0,0.00071583,-3.7882e-05,5.8541e+07,294.92,0,2.1374e+08,-4.947,12123,11201,1,11201,1,-0.0011724,-1.2599e-08,0,4.746e-05,-0.00029607,-4.7682e+08,-3227.9,0,1.6237e+07,-357.71,11200,11662,1,11662,1,-0.00050764,-5.7698e-10,0,0.00035792,-0.00017169,-2.0644e+08,-147.33,0,1.1147e+08,-83.666,11661,12586,1,12586,1,0.00092403,3.0607e-09,0,0.0010737,9.572e-05,2.1374e+08,778.4,0,3.0102e+08,66.835,12585,534.87,0,534.87,0,0.00082627,3.8784e-09,0,0.0004376,0.00015443,2.4506e+08,1008.2,0,1.2178e+08,123.08,534.87,1
1848,5.03,12125,1,12125,1,0.00020875,-1.5348e-10,0,0.00073248,-3.8029e-05,-9.2732,-38.725,0,2.1299e+08,15.226,12124,13096,1,13096,1,0.0015921,4.8599e-09,0,0.0015921,0.00022062,3.2863e+08,1218.9,0,4.7774e+08,367.47,13095,12124,1,12124,1,0.00020875,5.76e-10,0,0.00071729,-3.7984e-05,5.8698e+07,135.75,0,2.1421e+08,6.5542,12123,11201,1,11201,1,-0.0011746,-1.3125e-08,0,4.7427e-05,-0.0002967,-4.7774e+08,-3322.7,0,1.6309e+07,-442.46,11200,11662,1,11662,1,-0.00050855,-4.48e-10,0,0.00035865,-0.00017206,-2.068e+08,-109.21,0,1.1169e+08,-27.223,11661,12586,1,12586,1,0.00092604,1.2609e-09,0,0.0010759,9.5891e-05,2.1421e+08,323.19,0,3.0141e+08,48.812,12585,534.87,0,534.87,0,0.00082796,2.8108e-09,0,0.00043852,0.00015474,2.455e+08,741.53,0,1.2199e+08,110.56,534.87,1
1848,5.04,12125,1,12125,1,0.00020931,1.9314e-09,0,0.000734,-3.8131e-05,59.185,474.53,0,2.1338e+08,17.155,12124,13096,1,13096,1,0.0015955,5.2935e-09,0,0.0015955,0.00022104,3.2902e+08,1276.4,0,4.7867e+08,106.14,13095,12124,1,12124,1,0.00020931,1.9046e-09,0,0.00071877,-3.8087e-05,5.8855e+07,440.23,0,2.1468e+08,18.144,12123,11201,1,11201,1,-0.0011769,-6.9359e-10,0,4.7396e-05,-0.00029733,-4.7867e+08,-237.49,0,1.6381e+07,-124.27,11200,11662,1,11662,1,-0.00050946,5.5972e-10,0,0.00035939,-0.00017244,-2.0718e+08,156.34,0,1.1191e+08,-5.7902,11661,12586,1,12586,1,0.00092808,3.0831e-09,0,0.0010782,9.6064e-05,2.1468e+08,796.63,0,3.018e+08,43.448,12585,534.87,0,534.87,0,0.00082966,1.6112e-09,0,0.00043945,0.00015506,2.4595e+08,407.28,0,1.222e+08,38.592,534.87,1
1848,5.05,12125,1,12125,1,0.00020987,3.7585e-09,0,0.00073553,-3.8233e-05,-8.2542,959.7,0,2.1378e+08,-17.145,12124,13096,1,13096,1,0.0015989,1.1992e-08,0,0.0015989,0.00022148,3.294e+08,2892.9,0,4.796e+08,129.68,13095,12124,1,12124,1,0.00020986,2.8245e-09,0,0.00072024,-3.8189e-05,5.9012e+07,711.12,0,2.1515e+08,-18.456,12123,11201,1,11201,1,-0.0011792,-1.4115e-09,0,4.7363e-05,-0.00029797,-4.796e+08,-483.32,0,1.6453e+07,-143.81,11200,11662,1,11662,1,-0.00051037,1.0827e-09,0,0.00036012,-0.00017282,-2.0755e+08,280.94,0,1.1212e+08,-51.5,11661,12586,1,12586,1,0.0009301,6.2502e-09,0,0.0010804,9.6236e-05,2.1515e+08,1649.3,0,3.0219e+08,21.549,12585,534.87,0,534.87,0,0.00083136,3.4148e-09,0,0.00044038,0.00015538,2.4639e+08,867.61,0,1.2241e+08,52.081,534.87,1
1848,5.06,12125,1,12125,1,0.00021042,-5.3046e-10,0,0.00073702,-3.8334e-05,8.8074,-105.99,0,2.1416e+08,20.5,12124,13096,1,13096,1,0.0016022,7.6979e-10,0,0.0016022,0.00022189,3.2976e+08,194.13,0,4.805e+08,64.133,13095,12124,1,12124,1,0.00021042,-2.5209e-10,0,0.00072168,-3.829e-05,5.9167e+07,-63.221,0,2.1561e+08,19.568,12123,11201,1,11201,1,-0.0011814,-2.5817e-09,0,4.7327e-05,-0.00029858,-4.805e+08,-486.78,0,1.6525e+07,-42.088,11200,11662,1,11662,1,-0.00051127,-1.0061e-09,0,0.00036084,-0.00017319,-2.0791e+08,-208.21,0,1.1234e+08,4.8139,11661,12586,1,12586,1,0.0009321,4.5599e-11,0,0.0010825,9.6405e-05,2.1561e+08,14.645,0,3.0257e+08,39.974,12585,534.87,0,534.87,0,0.00083302,7.6299e-10,0,0.00044129,0.00015569,2.4682e+08,154.33,0,1.2261e+08,21.559,534.87,1
1848,5.07,12125,1,12125,1,0.00021099,1.6295e-09,0,0.00073861,-3.844e-05,205.46,419.07,0,2.1457e+08,-51.806,12124,13096,1,13096,1,0.0016058,1.0386e-08,0,0.0016058,0.00022234,3.3017e+08,2468.8,0,4.8148e+08,174.68,13095,12124,1,12124,1,0.00021099,1.6895e-09,0,0.00072322,-3.8397e-05,5.933e+07,428.66,0,2.161e+08,-19.83,12123,11201,1,11201,1,-0.0011838,-1.2173e-08,0,4.7298e-05,-0.00029924,-4.8148e+08,-2977.2,0,1.66e+07,-663.9,11200,11662,1,11662,1,-0.00051223,3.3548e-10,0,0.00036161,-0.00017358,-2.083e+08,77.218,0,1.1257e+08,-80.03,11661,12586,1,12586,1,0.00093422,3.8797e-09,0,0.0010848,9.6586e-05,2.161e+08,1002.7,0,3.0299e+08,18.6,12585,534.87,0,534.87,0,0.0008348,3.7474e-09,0,0.00044227,0.00015602,2.4729e+08,939.88,0,1.2283e+08,130.51,534.87,1
1848,5.08,12125,1,12125,1,0.00021155,1.7974e-09,0,0.00074011,-3.8542e-05,91.356,454.6,0,2.1495e+08,-0.47893,12124,13096,1,13096,1,0.0016092,8.242e-09,0,0.0016092,0.00022276,3.3053e+08,2004.5,0,4.8239e+08,148.76,13095,12124,1,12124,1,0.00021155,8.8354e-10,0,0.00072467,-3.8499e-05,5.9487e+07,214.12,0,2.1656e+08,3.627,12123,11201,1,11201,1,-0.001186,-2.8876e-09,0,4.7258e-05,-0.00029986,-4.8239e+08,-763.89,0,1.6673e+07,-156.52,11200,11662,1,11662,1,-0.00051312,-1.385e-10,0,0.00036234,-0.00017396,-2.0866e+08,-40.097,0,1.1279e+08,-38.591,11661,12586,1,12586,1,0.00093623,3.6513e-09,0,0.001087,9.6755e-05,2.1656e+08,953.94,0,3.0335e+08,43.833,12585,534.87,0,534.87,0,0.00083648,2.6071e-09,0,0.00044319,0.00015633,2.4772e+08,677.54,0,1.2303e+08,59.633,534.87,1
1848,5.09,12125,1,12125,1,0.00021212,-4.3336e-11,0,0.00074166,-3.8646e-05,-183.14,4.2484,0,2.1535e+08,-15.58,12124,13096,1,13096,1,0.0016126,8.3666e-09,0,0.0016126,0.0002232,3.3091e+08,2049.3,0,4.8333e+08,165.97,13095,12124,1,12124,1,0.00021212,5.4205e-11,0,0.00072618,-3.8603e-05,5.9647e+07,11.686,0,2.1704e+08,-5.0869,12123,11201,1,11201,1,-0.0011884,-1.077e-08,0,4.7225e-05,-0.00030051,-4.8333e+08,-2719.5,0,1.6747e+07,-287.36,11200,11662,1,11662,1,-0.00051405,-1.6804e-09,0,0.00036309,-0.00017434,-2.0904e+08,-413.37,0,1.1301e+08,-78.452,11661,12586,1,12586,1,0.0009383,1.6586e-09,0,0.0010893,9.6931e-05,2.1704e+08,440.4,0,3.0375e+08,53.678,12585,534.87,0,534.87,0,0.00083821,3.3032e-09,0,0.00044414,0.00015665,2.4818e+08,850.66,0,1.2325e+08,90.924,534.87,1
1848,5.1,12125,1,12125,1,0.00021269,1.7345e-09,0,0.00074319,-3.8749e-05,-219.75,441.89,0,2.1575e+08,-32.513,12124,13096,1,13096,1,0.0016161,1.4281e-08,0,0.0016161,0.00022363,3.3129e+08,3448.5,0,4.8427e+08,434.39,13095,12124,1,12124,1,0.00021269,1.5911e-09,0,0.00072765,-3.8707e-05,5.9807e+07,391.03,0,2.1752e+08,-14.425,12123,11201,1,11201,1,-0.0011907,-2.0665e-08,0,4.7187e-05,-0.00030114,-4.8427e+08,-5170.5,0,1.6821e+07,-697.39,11200,11662,1,11662,1,-0.00051497,-1.1161e-09,0,0.00036383,-0.00017472,-2.0942e+08,-272.85,0,1.1323e+08,-149.67,11661,12586,1,12586,1,0.00094034,5.9452e-09,0,0.0010915,9.7102e-05,2.1752e+08,1515.4,0,3.0413e+08,72.157,12585,534.87,0,534.87,0,0.00083992,6.5249e-09,0,0.00044507,0.00015697,2.4862e+08,1669.3,0,1.2346e+08,174.91,534.87,1
1848,5.11,12125,1,12125,1,0.00021324,1.1577e-10,0,0.00074465,-3.8849e-05,2.2116,30.045,0,2.1612e+08,61.714,12124,13096,1,13096,1,0.0016193,3.8501e-09,0,0.0016193,0.00022404,3.3163e+08,710.43,0,4.8514e+08,165.6,13095,12124,1,12124,1,0.00021323,1.2797e-10,0,0.00072907,-3.8807e-05,5.9961e+07,31.538,0,2.1797e+08,53.674,12123,11201,1,11201,1,-0.0011928,-2.3434e-09,0,4.7146e-05,-0.00030175,-4.8514e+08,-432.4,0,1.6894e+07,-2.1506,11200,11662,1,11662,1,-0.00051583,-3.1513e-10,0,0.00036453,-0.00017509,-2.0977e+08,-81.084,0,1.1344e+08,15.682,11661,12586,1,12586,1,0.0009423,5.1691e-10,0,0.0010936,9.7267e-05,2.1797e+08,141.25,0,3.0449e+08,102.4,12585,534.87,0,534.87,0,0.00084155,8.626e-10,0,0.00044597,0.00015728,2.4904e+08,182.11,0,1.2365e+08,48.869,534.87,1
1848,5.12,12125,1,12125,1,0.00021381,-1.8795e-09,0,0.00074624,-3.8954e-05,22.275,-470.74,0,2.1653e+08,-20.349,12124,13096,1,13096,1,0.0016228,3.9695e-09,0,0.0016228,0.00022448,3.3203e+08,957.71,0,4.8612e+08,377.23,13095,12124,1,12124,1,0.00021381,-4.0906e-10,0,0.00073059,-3.8913e-05,6.0123e+07,-100.53,0,2.1845e+08,-29.823,12123,11201,1,11201,1,-0.0011952,-1.9276e-08,0,4.7115e-05,-0.0003024,-4.8612e+08,-4755.5,0,1.6968e+07,-488.43,11200,11662,1,11662,1,-0.00051678,-3.3348e-09,0,0.0003653,-0.00017548,-2.1015e+08,-839.6,0,1.1367e+08,-92.556,11661,12586,1,12586,1,0.0009444,7.4551e-10,0,0.0010959,9.7445e-05,2.1845e+08,196.36,0,3.049e+08,22.574,12585,534.87,0,534.87,0,0.00084332,4.2276e-09,0,0.00044694,0.00015761,2.4951e+08,1071.6,0,1.2387e+08,123.59,534.87,1
1848,5.13,12125,1,12125,1,0.00021437,3.9458e-10,0,0.00074771,-3.9056e-05,-5.4193,81.608,0,2.169e+08,39.552,12124,13096,1,13096,1,0.0016261,3.3423e-09,0,0.0016261,0.00022489,3.3237e+08,616.23,0,4.87e+08,118.46,13095,12124,1,12124,1,0.00021436,3.2452e-10,0,0.00073202,-3.9014e-05,6.0279e+07,83.311,0,2.1891e+08,33.746,12123,11201,1,11201,1,-0.0011974,-6.4209e-10,0,4.707e-05,-0.00030301,-4.87e+08,-219.69,0,1.7042e+07,-1.5211,11200,11662,1,11662,1,-0.00051766,6.5599e-12,0,0.00036601,-0.00017585,-2.1051e+08,1.8174,0,1.1388e+08,11.291,11661,12586,1,12586,1,0.00094639,5.6972e-10,0,0.001098,9.7611e-05,2.1891e+08,140.59,0,3.0526e+08,60.296,12585,534.87,0,534.87,0,0.00084496,6.2002e-10,0,0.00044784,0.00015791,2.4993e+08,129.29,0,1.2407e+08,31.929,534.87,1
1848,5.14,12125,1,12125,1,0.00021493,-1.3312e-10,0,0.00074925,-3.9159e-05,-209.42,-30.076,0,2.173e+08,9.5077,12124,13096,1,13096,1,0.0016296,3.6903e-09,0,0.0016296,0.00022533,3.3275e+08,891.99,0,4.8795e+08,191.72,13095,12124,1,12124,1,0.00021493,1.6786e-10,0,0.00073351,-3.9119e-05,6.0438e+07,42.481,0,2.1939e+08,3.9155,12123,11201,1,11201,1,-0.0011997,-6.1088e-09,0,4.7037e-05,-0.00030365,-4.8795e+08,-1531.7,0,1.7116e+07,-165.73,11200,11662,1,11662,1,-0.00051858,-7.3446e-10,0,0.00036676,-0.00017623,-2.1089e+08,-175.51,0,1.141e+08,-27.141,11661,12586,1,12586,1,0.00094845,6.7174e-10,0,0.0011003,9.7785e-05,2.1939e+08,177.85,0,3.0565e+08,30.185,12585,534.87,0,534.87,0,0.00084668,1.5247e-09,0,0.00044879,0.00015823,2.5038e+08,391.52,0,1.2428e+08,58.56,534.87,1
1848,5.15,12125,1,12125,1,0.00021555,1.6298e-10,0,0.00075081,-3.9272e-05,-202.69,32.513,0,2.1768e+08,-10.501,12124,13096,1,13096,1,0.0016331,6.5682e-09,0,0.0016331,0.00022576,3.3308e+08,1572.4,0,4.8887e+08,228.59,13095,12124,1,12124,1,0.00021555,3.504e-10,0,0.00073502,-3.9231e-05,6.0612e+07,83.966,0,2.1987e+08,-10.009,12123,11201,1,11201,1,-0.001202,-8.8627e-09,0,4.6958e-05,-0.00030431,-4.8887e+08,-2200.3,0,1.7203e+07,-216.01,11200,11662,1,11662,1,-0.00051947,-1.3879e-09,0,0.00036751,-0.00017662,-2.1125e+08,-341.66,0,1.1432e+08,-71.189,11661,12586,1,12586,1,0.00095056,2.0199e-09,0,0.0011025,9.7953e-05,2.1987e+08,503.6,0,3.0599e+08,43.007,12585,534.87,0,534.87,0,0.00084842,2.937e-09,0,0.00044975,0.00015856,2.5081e+08,749.68,0,1.2449e+08,78.508,534.87,1
1848,5.16,12125,1,12125,1,0.00021618,-4.6808e-09,0,0.00075239,-3.9388e-05,-87.174,-1174.9,0,2.1807e+08,7.7958,12124,13096,1,13096,1,0.0016367,2.0716e-09,0,0.0016367,0.00022619,3.334e+08,709.38,0,4.8982e+08,375.05,13095,12124,1,12124,1,0.00021618,-4.0845e-09,0,0.00073653,-3.9347e-05,6.079e+07,-1080.6,0,2.2035e+08,-0.70068,12123,11201,1,11201,1,-0.0012043,-1.6537e-08,0,4.6864e-05,-0.00030497,-4.8982e+08,-4091.2,0,1.7295e+07,-298.35,11200,11662,1,11662,1,-0.00052035,-7.2995e-09,0,0.00036826,-0.00017702,-2.116e+08,-1807,0,1.1455e+08,-65.773,11661,12586,1,12586,1,0.00095271,-1.357e-09,0,0.0011048,9.8119e-05,2.2035e+08,-319.78,0,3.0632e+08,75.036,12585,534.87,0,534.87,0,0.00085017,4.195e-09,0,0.00045072,0.00015888,2.5125e+08,1046.2,0,1.2469e+08,114.72,534.87,1
1848,5.17,12125,1,12125,1,0.00021682,-8.5826e-10,0,0.00075395,-3.9504e-05,23.336,-263.5,0,2.1844e+08,-15.425,12124,13096,1,13096,1,0.0016402,6.3637e-09,0,0.0016402,0.00022661,3.3369e+08,1516.9,0,4.9072e+08,232.34,13095,12124,1,12124,1,0.00021681,3.5658e-11,0,0.00073803,-3.9464e-05,6.0968e+07,8.3473,0,2.2082e+08,-5.4644,12123,11201,1,11201,1,-0.0012065,-1.4185e-08,0,4.6766e-05,-0.00030562,-4.9072e+08,-3546.5,0,1.7388e+07,-394.85,11200,11662,1,11662,1,-0.00052121,-2.7802e-09,0,0.00036901,-0.00017742,-2.1196e+08,-783.83,0,1.1476e+08,-74.37,11661,12586,1,12586,1,0.00095484,1.5877e-09,0,0.001107,9.8282e-05,2.2082e+08,375.28,0,3.0664e+08,65.484,12585,534.87,0,534.87,0,0.0008519,3.8838e-09,0,0.00045168,0.00015921,2.5167e+08,1006.2,0,1.2488e+08,113.21,534.87,1
1848,5.18,12125,1,12125,1,0.00021744,-3.1405e-09,0,0.00075548,-3.9618e-05,73.351,-808.38,0,2.1881e+08,37.786,12124,13096,1,13096,1,0.0016437,1.5745e-09,0,0.0016437,0.00022703,3.3399e+08,430.64,0,4.9164e+08,194.83,13095,12124,1,12124,1,0.00021744,-3.2492e-09,0,0.00073951,-3.9579e-05,6.1144e+07,-838.48,0,2.2129e+08,45.609,12123,11201,1,11201,1,-0.0012088,-9.1263e-09,0,4.667e-05,-0.00030627,-4.9164e+08,-2289.9,0,1.748e+07,-172.48,11200,11662,1,11662,1,-0.00052207,-5.1999e-09,0,0.00036975,-0.00017781,-2.123e+08,-1333.3,0,1.1498e+08,-10.511,11661,12586,1,12586,1,0.00095695,-1.176e-09,0,0.0011093,9.8444e-05,2.2129e+08,-278.68,0,3.0695e+08,90.714,12585,534.87,0,534.87,0,0.0008536,2.535e-09,0,0.00045264,0.00015952,2.5209e+08,643.84,0,1.2508e+08,76.157,534.87,1
1848,5.19,12125,1,12125,1,0.00021805,-1.5716e-09,0,0.00075696,-3.9729e-05,18.73,-436.18,0,2.1917e+08,45.982,12124,13096,1,13096,1,0.001647,7.5809e-09,0,0.001647,0.00022743,3.3425e+08,1644.6,0,4.925e+08,186.87,13095,12124,1,12124,1,0.00021805,-1.0018e-09,0,0.00074094,-3.9691e-05,6.1316e+07,-276.58,0,2.2175e+08,46.197,12123,11201,1,11201,1,-0.0012109,-9.6084e-09,0,4.657e-05,-0.00030689,-4.925e+08,-2298.9,0,1.7571e+07,-231.72,11200,11662,1,11662,1,-0.00052289,-4.2139e-09,0,0.00037047,-0.00017819,-2.1264e+08,-1126.3,0,1.1519e+08,-14.895,11661,12586,1,12586,1,0.00095899,6.3279e-10,0,0.0011114,9.8599e-05,2.2175e+08,158.62,0,3.0724e+08,122.83,12585,534.87,0,534.87,0,0.00085524,3.7642e-09,0,0.00045355,0.00015983,2.5249e+08,927.61,0,1.2526e+08,84.237,534.87,1
1848,5.2,12125,1,12125,1,0.00021869,-1.6233e-09,0,0.00075859,-3.9847e-05,-41.713,-433.03,0,2.1957e+08,-53.174,12124,13096,1,13096,1,0.0016507,3.3212e-09,0,0.0016507,0.00022788,3.346e+08,640.42,0,4.9347e+08,101.3,13095,12124,1,12124,1,0.00021869,-1.1017e-09,0,0.0007425,-3.981e-05,6.1497e+07,-295.71,0,2.2224e+08,-46.824,12123,11201,1,11201,1,-0.0012133,-8.0223e-09,0,4.6485e-05,-0.00030757,-4.9347e+08,-1931.2,0,1.7663e+07,-204.37,11200,11662,1,11662,1,-0.00052381,-3.3127e-09,0,0.00037125,-0.0001786,-2.1301e+08,-896.1,0,1.1542e+08,-100.56,11661,12586,1,12586,1,0.00096119,1.6423e-10,0,0.0011137,9.8772e-05,2.2224e+08,39.304,0,3.076e+08,-4.079,12585,534.87,0,534.87,0,0.00085705,2.518e-09,0,0.00045456,0.00016017,2.5294e+08,606.83,0,1.2547e+08,59.355,534.87,1
1848,5.21,12125,1,12125,1,0.00021934,-2.9362e-09,0,0.00076015,-3.9965e-05,-93.751,-760.39,0,2.1994e+08,9.4175,12124,13096,1,13096,1,0.0016542,8.1044e-10,0,0.0016542,0.0002283,3.3488e+08,235.82,0,4.9438e+08,128.89,13095,12124,1,12124,1,0.00021933,-2.8443e-09,0,0.000744,-3.9928e-05,6.1678e+07,-745.79,0,2.2272e+08,22.348,12123,11201,1,11201,1,-0.0012155,-9.357e-09,0,4.6379e-05,-0.00030823,-4.9438e+08,-2328.8,0,1.7759e+07,-202.89,11200,11662,1,11662,1,-0.00052466,-4.4302e-09,0,0.000372,-0.000179,-2.1336e+08,-1141.2,0,1.1564e+08,-13.426,11661,12586,1,12586,1,0.00096333,-1.2662e-09,0,0.001116,9.8934e-05,2.2272e+08,-304.47,0,3.079e+08,50.907,12585,534.87,0,534.87,0,0.00085878,2.1893e-09,0,0.00045552,0.00016049,2.5336e+08,562.39,0,1.2566e+08,61.466,534.87,1
1848,5.22,12125,1,12125,1,0.00021998,1.6143e-09,0,0.00076174,-4.0083e-05,33.916,374.43,0,2.2032e+08,-18.117,12124,13096,1,13096,1,0.0016578,8.5458e-09,0,0.0016578,0.00022873,3.3519e+08,2006.4,0,4.9531e+08,145.56,13095,12124,1,12124,1,0.00021998,1.1578e-09,0,0.00074553,-4.0047e-05,6.186e+07,262.01,0,2.232e+08,-14.932,12123,11201,1,11201,1,-0.0012178,-6.4782e-09,0,4.6278e-05,-0.00030889,-4.9531e+08,-1624.2,0,1.7854e+07,-205.61,11200,11662,1,11662,1,-0.00052555,-1.6929e-10,0,0.00037276,-0.0001794,-2.1372e+08,-45.374,0,1.1586e+08,-67.3,11661,12586,1,12586,1,0.00096551,3.6049e-09,0,0.0011183,9.91e-05,2.232e+08,889.7,0,3.0823e+08,33.22,12585,534.87,0,534.87,0,0.00086055,2.9711e-09,0,0.0004565,0.00016082,2.5379e+08,740.41,0,1.2586e+08,65.947,534.87,1
1848,5.23,12125,1,12125,1,0.00022063,-1.9455e-09,0,0.00076334,-4.0202e-05,-91.68,-484.61,0,2.2071e+08,-10.661,12124,13096,1,13096,1,0.0016614,1.0482e-08,0,0.0016614,0.00022917,3.3549e+08,2540.1,0,4.9626e+08,410.35,13095,12124,1,12124,1,0.00022063,-5.6771e-10,0,0.00074706,-4.0166e-05,6.2043e+07,-136.37,0,2.2369e+08,-8.9872,12123,11201,1,11201,1,-0.0012202,-1.9622e-08,0,4.6176e-05,-0.00030956,-4.9626e+08,-4841.8,0,1.795e+07,-349.64,11200,11662,1,11662,1,-0.00052643,-5.3276e-09,0,0.00037353,-0.0001798,-2.1408e+08,-1333.5,0,1.1608e+08,-121.5,11661,12586,1,12586,1,0.00096769,1.397e-09,0,0.0011206,9.9267e-05,2.2369e+08,413.5,0,3.0855e+08,100.54,12585,534.87,0,534.87,0,0.00086232,5.6397e-09,0,0.0004575,0.00016115,2.5423e+08,1438,0,1.2607e+08,152.5,534.87,1
1848,5.24,12125,1,12125,1,0.00022127,-7.4771e-10,0,0.00076487,-4.0318e-05,-21.809,-207.03,0,2.2107e+08,22.051,12124,13096,1,13096,1,0.0016649,8.9109e-09,0,0.0016649,0.00022958,3.3575e+08,2186.4,0,4.9716e+08,259.34,13095,12124,1,12124,1,0.00022126,-2.3868e-10,0,0.00074853,-4.0283e-05,6.2221e+07,-62.064,0,2.2416e+08,30.231,12123,11201,1,11201,1,-0.0012224,-8.4881e-09,0,4.6068e-05,-0.00031021,-4.9716e+08,-2146.5,0,1.8044e+07,-299.59,11200,11662,1,11662,1,-0.00052727,-2.9944e-09,0,0.00037426,-0.0001802,-2.1442e+08,-808.22,0,1.163e+08,-50.075,11661,12586,1,12586,1,0.0009698,1.1285e-09,0,0.0011228,9.9426e-05,2.2416e+08,272.47,0,3.0884e+08,113.89,12585,534.87,0,534.87,0,0.00086402,3.2675e-09,0,0.00045844,0.00016147,2.5464e+08,862.51,0,1.2625e+08,119.87,534.87,1
1848,5.25,12125,1,12125,1,0.00022188,-3.5809e-10,0,0.00076636,-4.0431e-05,19.405,-109.61,0,2.2143e+08,65.836,12124,13096,1,13096,1,0.0016683,4.2742e-09,0,0.0016683,0.00022998,3.3602e+08,806.32,0,4.9802e+08,209.27,13095,12124,1,12124,1,0.00022188,-3.8093e-10,0,0.00074997,-4.0396e-05,6.2395e+07,-120.32,0,2.2462e+08,60.692,12123,11201,1,11201,1,-0.0012245,-4.7066e-09,0,4.5964e-05,-0.00031083,-4.9802e+08,-908.84,0,1.8137e+07,-85.412,11200,11662,1,11662,1,-0.00052809,-1.2074e-09,0,0.00037498,-0.00018058,-2.1475e+08,-341.95,0,1.1651e+08,16.818,11661,12586,1,12586,1,0.00097185,4.2863e-10,0,0.001125,9.958e-05,2.2462e+08,107.65,0,3.0912e+08,106.04,12585,534.87,0,534.87,0,0.00086567,1.6623e-09,0,0.00045937,0.00016177,2.5504e+08,359.96,0,1.2644e+08,61.619,534.87,1
1848,5.26,12125,1,12125,1,0.00022251,3.7434e-09,0,0.00076792,-4.0547e-05,100.45,929.62,0,2.2181e+08,-0.97613,12124,13096,1,13096,1,0.0016718,8.7007e-09,0,0.0016718,0.00023041,3.3633e+08,2068.5,0,4.9895e+08,148.78,13095,12124,1,12124,1,0.00022251,3.8029e-09,0,0.00075147,-4.0513e-05,6.2573e+07,1056.9,0,2.2509e+08,-7.3639,12123,11201,1,11201,1,-0.0012268,-1.116e-09,0,4.5867e-05,-0.00031149,-4.9895e+08,-382.15,0,1.823e+07,-150.62,11200,11662,1,11662,1,-0.00052896,1.8453e-09,0,0.00037574,-0.00018098,-2.151e+08,471.99,0,1.1673e+08,-46.317,11661,12586,1,12586,1,0.00097398,5.9027e-09,0,0.0011272,9.9744e-05,2.2509e+08,1402.5,0,3.0944e+08,42.43,12585,534.87,0,534.87,0,0.00086741,2.4966e-09,0,0.00046033,0.0001621,2.5546e+08,595.64,0,1.2664e+08,56.869,534.87,1
1848,5.27,12125,1,12125,1,0.00022317,-2.6091e-10,0,0.00076955,-4.0667e-05,-23.036,-31.32,0,2.222e+08,-30.283,12124,13096,1,13096,1,0.0016755,8.5692e-09,0,0.0016755,0.00023085,3.3663e+08,2069.1,0,4.999e+08,260,13095,12124,1,12124,1,0.00022317,-7.5615e-12,0,0.00075303,-4.0635e-05,6.2759e+07,-1.6081,0,2.2559e+08,-29.601,12123,11201,1,11201,1,-0.0012291,-1.2174e-08,0,4.5765e-05,-0.00031217,-4.999e+08,-2928.8,0,1.8326e+07,-285.35,11200,11662,1,11662,1,-0.00052986,-2.3789e-09,0,0.00037652,-0.00018139,-2.1547e+08,-573.28,0,1.1695e+08,-94.778,11661,12586,1,12586,1,0.0009762,2.1752e-09,0,0.0011295,9.9915e-05,2.2559e+08,602.79,0,3.0977e+08,43.941,12585,534.87,0,534.87,0,0.00086921,3.9304e-09,0,0.00046134,0.00016243,2.5591e+08,981.97,0,1.2684e+08,100.41,534.87,1
1848,5.28,12125,1,12125,1,0.00022381,-3.5474e-10,0,0.00077106,-4.0784e-05,-1.9212,-81.902,0,2.2256e+08,42.882,12124,13096,1,13096,1,0.0016789,1.3016e-09,0,0.0016789,0.00023126,3.3688e+08,251.5,0,5.0078e+08,122.5,13095,12124,1,12124,1,0.00022381,-3.4054e-10,0,0.00075449,-4.0751e-05,6.2938e+07,-87.032,0,2.2605e+08,42.218,12123,11201,1,11201,1,-0.0012313,-1.905e-09,0,4.565e-05,-0.0003128,-5.0078e+08,-449.2,0,1.8423e+07,-10.668,11200,11662,1,11662,1,-0.00053068,-7.4261e-10,0,0.00037724,-0.00018178,-2.158e+08,-174.69,0,1.1717e+08,11.101,11661,12586,1,12586,1,0.0009783,9.0799e-11,0,0.0011317,0.00010007,2.2605e+08,24.28,0,3.1005e+08,68.929,12585,534.87,0,534.87,0,0.00087089,5.8842e-10,0,0.00046228,0.00016275,2.5631e+08,140.12,0,1.2703e+08,33.296,534.87,1
1848,5.29,12125,1,12125,1,0.00022446,-6.6842e-10,0,0.00077266,-4.0903e-05,-30.527,-170.8,0,2.2295e+08,-13.294,12124,13096,1,13096,1,0.0016825,6.1953e-09,0,0.0016825,0.00023169,3.3719e+08,1485.5,0,5.0173e+08,196.43,13095,12124,1,12124,1,0.00022446,-1.7388e-10,0,0.00075602,-4.0871e-05,6.3121e+07,-46.316,0,2.2654e+08,-12.368,12123,11201,1,11201,1,-0.0012336,-1.0408e-08,0,4.555e-05,-0.00031347,-5.0173e+08,-2564.4,0,1.8519e+07,-203.76,11200,11662,1,11662,1,-0.00053157,-2.5552e-09,0,0.00037801,-0.00018218,-2.1617e+08,-648.81,0,1.1739e+08,-76.25,11661,12586,1,12586,1,0.00098048,1.3285e-09,0,0.001134,0.00010024,2.2654e+08,339.43,0,3.1037e+08,44.636,12585,534.87,0,534.87,0,0.00087266,3.2046e-09,0,0.00046327,0.00016308,2.5675e+08,813.09,0,1.2723e+08,75.849,534.87,1
1848,5.3,12125,1,12125,1,0.00022511,-3.49e-09,0,0.00077423,-4.1021e-05,-98.851,-872.75,0,2.2332e+08,22.957,12124,13096,1,13096,1,0.0016861,1.6732e-09,0,0.0016861,0.00023212,3.3746e+08,554.7,0,5.0265e+08,317.91,13095,12124,1,12124,1,0.00022511,-3.3876e-09,0,0.00075753,-4.0989e-05,6.3303e+07,-910.14,0,2.2702e+08,25.842,12123,11201,1,11201,1,-0.0012359,-1.2042e-08,0,4.5436e-05,-0.00031414,-5.0265e+08,-2988.2,0,1.8502e+07,-252.99,11200,11662,1,11662,1,-0.00053242,-5.8354e-09,0,0.00037876,-0.00018258,-2.1651e+08,-1399.6,0,1.1761e+08,-31.778,11661,12586,1,12586,1,0.00098263,-1.1472e-09,0,0.0011363,0.0001004,2.2702e+08,-293.31,0,3.1067e+08,86.865,12585,534.87,0,534.87,0,0.0008744,2.9735e-09,0,0.00046424,0.0001634,2.5717e+08,739.87,0,1.2742e+08,98.065,534.87,1
1848,5.31,12125,1,12125,1,0.00022579,5.64e-10,0,0.00077579,-4.1146e-05,131.99,93.586,0,2.2368e+08,1.5972,12124,13096,1,13096,1,0.0016896,4.2788e-09,0,0.0016896,0.00023253,3.3769e+08,973.26,0,5.0354e+08,145.16,13095,12124,1,12124,1,0.00022579,9.1797e-10,0,0.00075902,-4.1116e-05,6.3496e+07,207.91,0,2.2747e+08,16.942,12123,11201,1,11201,1,-0.0012381,-9.2071e-09,0,4.5288e-05,-0.00031479,-5.0354e+08,-2364.6,0,1.8443e+07,-267.89,11200,11662,1,11662,1,-0.00053323,-4.7661e-10,0,0.00037951,-0.00018299,-2.1684e+08,-137.67,0,1.1782e+08,-37.62,11661,12586,1,12586,1,0.00098481,2.4686e-09,0,0.0011385,0.00010055,2.2747e+08,616.41,0,3.1093e+08,67.903,12585,534.87,0,534.87,0,0.00087613,2.6596e-09,0,0.00046522,0.00016372,2.5757e+08,687.09,0,1.2761e+08,87.672,534.87,1
1848,5.32,12125,1,12125,1,0.0002265,-1.1941e-09,0,0.00077739,-4.1277e-05,42.518,-314.91,0,2.2404e+08,-18.029,12124,13096,1,13096,1,0.0016933,5.3492e-09,0,0.0016933,0.00023295,3.3792e+08,1320.3,0,5.0445e+08,195.61,13095,12124,1,12124,1,0.0002265,-5.645e-11,0,0.00076055,-4.1247e-05,6.3696e+07,-11.419,0,2.2792e+08,-4.918,12123,11201,1,11201,1,-0.0012403,-1.343e-08,0,4.5123e-05,-0.00031547,-5.0445e+08,-3384,0,1.8378e+07,-321.77,11200,11662,1,11662,1,-0.00053405,-3.1307e-09,0,0.00038027,-0.0001834,-2.1718e+08,-797.3,0,1.1804e+08,-83.546,11661,12586,1,12586,1,0.00098705,1.1739e-09,0,0.0011408,0.00010071,2.2792e+08,308.58,0,3.1119e+08,46.626,12585,534.87,0,534.87,0,0.00087789,3.7676e-09,0,0.00046622,0.00016405,2.5797e+08,989.91,0,1.2779e+08,97.307,534.87,1
1848,5.33,12125,1,12125,1,0.00022722,2.96e-09,0,0.00077899,-4.1408e-05,-134.4,726.09,0,2.2439e+08,14.297,12124,13096,1,13096,1,0.001697,1.0687e-08,0,0.001697,0.00023337,3.3814e+08,2603.3,0,5.0535e+08,226.83,13095,12124,1,12124,1,0.00022722,2.5297e-09,0,0.00076207,-4.1379e-05,6.3899e+07,613.78,0,2.2837e+08,22.73,12123,11201,1,11201,1,-0.0012425,-7.0449e-09,0,4.4949e-05,-0.00031615,-5.0535e+08,-1846.5,0,1.831e+07,-274.32,11200,11662,1,11662,1,-0.00053485,3.8014e-10,0,0.00038104,-0.00018382,-2.175e+08,101.33,0,1.1826e+08,-34.336,11661,12586,1,12586,1,0.00098929,5.698e-09,0,0.0011431,0.00010086,2.2837e+08,1444.3,0,3.1142e+08,75.695,12585,534.87,0,534.87,0,0.00087965,3.7208e-09,0,0.00046722,0.00016438,2.5837e+08,972.28,0,1.2797e+08,97.804,534.87,1
1848,5.34,12125,1,12125,1,0.00022794,1.7275e-09,0,0.00078058,-4.154e-05,67.361,455.01,0,2.2475e+08,10.07,12124,13096,1,13096,1,0.0017006,6.623e-09,0,0.0017006,0.00023379,3.3835e+08,1667.9,0,5.0626e+08,156.28,13095,12124,1,12124,1,0.00022794,1.6306e-09,0,0.0007636,-4.1513e-05,6.4102e+07,394.81,0,2.2882e+08,32.397,12123,11201,1,11201,1,-0.0012447,-7.6284e-09,0,4.4773e-05,-0.00031683,-5.0626e+08,-1940.9,0,1.824e+07,-348.02,11200,11662,1,11662,1,-0.00053566,1.5012e-10,0,0.0003818,-0.00018423,-2.1783e+08,37.856,0,1.1848e+08,-22.522,11661,12586,1,12586,1,0.00099154,3.8064e-09,0,0.0011454,0.00010101,2.2882e+08,1032.1,0,3.1167e+08,86.943,12585,534.87,0,534.87,0,0.00088141,2.6289e-09,0,0.00046822,0.00016471,2.5877e+08,719.68,0,1.2815e+08,105.66,534.87,1
1848,5.35,12125,1,12125,1,0.00022867,6.0835e-10,0,0.00078221,-4.1674e-05,190.18,179.58,0,2.2512e+08,-35.153,12124,13096,1,13096,1,0.0017044,8.7127e-09,0,0.0017044,0.00023421,3.3857e+08,2175.9,0,5.0718e+08,199.16,13095,12124,1,12124,1,0.00022867,9.3851e-10,0,0.00076516,-4.1648e-05,6.4308e+07,236.22,0,2.2928e+08,-15.901,12123,11201,1,11201,1,-0.001247,-1.4676e-08,0,4.4595e-05,-0.00031752,-5.0718e+08,-3682.3,0,1.8171e+07,-448.68,11200,11662,1,11662,1,-0.00053649,-6.5495e-10,0,0.00038258,-0.00018466,-2.1817e+08,-149.54,0,1.187e+08,-92.495,11661,12586,1,12586,1,0.00099383,3.0798e-09,0,0.0011477,0.00010117,2.2928e+08,846.36,0,3.1192e+08,47.846,12585,534.87,0,534.87,0,0.00088321,3.9259e-09,0,0.00046924,0.00016504,2.5918e+08,1044.6,0,1.2834e+08,132.15,534.87,1
1848,5.36,12125,1,12125,1,0.0002294,1.0945e-09,0,0.00078382,-4.1808e-05,-47.345,281.4,0,2.2547e+08,-7.5616,12124,13096,1,13096,1,0.001708,1.1245e-08,0,0.001708,0.00023463,3.3877e+08,2798.2,0,5.0808e+08,233.83,13095,12124,1,12124,1,0.0002294,9.0923e-10,0,0.00076669,-4.1782e-05,6.4513e+07,228.3,0,2.2973e+08,-9.8677,12123,11201,1,11201,1,-0.0012492,-1.4569e-08,0,4.4414e-05,-0.0003182,-5.0808e+08,-3689.3,0,1.8099e+07,-379.64,11200,11662,1,11662,1,-0.00053729,-1.1263e-09,0,0.00038334,-0.00018508,-2.1849e+08,-286.94,0,1.1891e+08,-86.467,11661,12586,1,12586,1,0.00099609,4.3251e-09,0,0.00115,0.00010132,2.2973e+08,1126.1,0,3.1215e+08,86.295,12585,534.87,0,534.87,0,0.00088498,4.9509e-09,0,0.00047025,0.00016537,2.5958e+08,1313.8,0,1.2852e+08,124.12,534.87,1
1848,5.37,12125,1,12125,1,0.00023013,-9.0196e-10,0,0.00078543,-4.1942e-05,-19.375,-218.91,0,2.2583e+08,-2.4769,12124,13096,1,13096,1,0.0017117,8.6888e-09,0,0.0017117,0.00023505,3.3898e+08,2188.2,0,5.0899e+08,319.42,13095,12124,1,12124,1,0.00023013,1.0681e-10,0,0.00076823,-4.1917e-05,6.4719e+07,20.322,0,2.3018e+08,3.4381,12123,11201,1,11201,1,-0.0012515,-2.0609e-08,0,4.4233e-05,-0.00031889,-5.0899e+08,-5200.4,0,1.8028e+07,-511.28,11200,11662,1,11662,1,-0.00053809,-3.0007e-09,0,0.00038411,-0.0001855,-2.1882e+08,-753.86,0,1.1913e+08,-66.637,11661,12586,1,12586,1,0.00099836,2.4587e-09,0,0.0011523,0.00010147,2.3018e+08,630.92,0,3.1238e+08,93.781,12585,534.87,0,534.87,0,0.00088675,5.4259e-09,0,0.00047126,0.0001657,2.5999e+08,1451.3,0,1.2871e+08,153.46,534.87,1
1848,5.38,12125,1,12125,1,0.00023085,2.5209e-09,0,0.00078699,-4.2073e-05,-26.493,620.8,0,2.2617e+08,47.051,12124,13096,1,13096,1,0.0017153,1.0647e-08,0,0.0017153,0.00023546,3.3917e+08,2633.6,0,5.0987e+08,247.45,13095,12124,1,12124,1,0.00023085,2.3015e-09,0,0.00076972,-4.2048e-05,6.4921e+07,495.08,0,2.3062e+08,44.078,12123,11201,1,11201,1,-0.0012536,-7.1973e-09,0,4.4048e-05,-0.00031955,-5.0987e+08,-2002.6,0,1.7956e+07,-199.47,11200,11662,1,11662,1,-0.00053887,9.591e-11,0,0.00038486,-0.00018591,-2.1913e+08,24.337,0,1.1934e+08,-27.9,11661,12586,1,12586,1,0.0010006,4.9527e-09,0,0.0011546,0.00010162,2.3062e+08,1288.9,0,3.126e+08,128.95,12585,534.87,0,534.87,0,0.00088847,3.5876e-09,0,0.00047224,0.00016602,2.6037e+08,970.82,0,1.2888e+08,100.07,534.87,1
1848,5.39,12125,1,12125,1,0.00023158,-2.3111e-09,0,0.00078861,-4.2207e-05,192.88,-557.19,0,2.2654e+08,-46.341,12124,13096,1,13096,1,0.001719,7.019e-09,0,0.001719,0.00023588,3.3938e+08,1800.2,0,5.1079e+08,341.97,13095,12124,1,12124,1,0.00023158,-4.8722e-10,0,0.00077126,-4.2184e-05,6.5127e+07,-90.326,0,2.3107e+08,-25.961,12123,11201,1,11201,1,-0.0012559,-2.5077e-08,0,4.3868e-05,-0.00032024,-5.1079e+08,-6285.2,0,1.7885e+07,-683.38,11200,11662,1,11662,1,-0.00053968,-4.9364e-09,0,0.00038563,-0.00018633,-2.1947e+08,-1212,0,1.1956e+08,-95.629,11661,12586,1,12586,1,0.0010028,1.6524e-09,0,0.0011569,0.00010177,2.3107e+08,488.61,0,3.1284e+08,57.568,12585,534.87,0,534.87,0,0.00089026,6.3472e-09,0,0.00047326,0.00016635,2.6078e+08,1666.3,0,1.2907e+08,191.72,534.87,1
1848,5.4,12125,1,12125,1,0.00023231,-4.7155e-10,0,0.0007902,-4.234e-05,-152.21,-140.2,0,2.2689e+08,60.25,12124,13096,1,13096,1,0.0017227,4.4804e-09,0,0.0017227,0.00023629,3.3957e+08,1162.7,0,5.1168e+08,309.81,13095,12124,1,12124,1,0.00023231,3.0991e-12,0,0.00077278,-4.2317e-05,6.5332e+07,0.67981,0,2.3152e+08,43.617,12123,11201,1,11201,1,-0.0012581,-9.9072e-09,0,4.3685e-05,-0.00032092,-5.1168e+08,-2657.8,0,1.7813e+07,-165.23,11200,11662,1,11662,1,-0.00054047,-1.1976e-09,0,0.00038639,-0.00018675,-2.1979e+08,-328.65,0,1.1978e+08,-10.489,11661,12586,1,12586,1,0.0010051,1.0032e-09,0,0.0011592,0.00010192,2.3152e+08,242.82,0,3.1307e+08,123.53,12585,534.87,0,534.87,0,0.00089201,2.4479e-09,0,0.00047426,0.00016668,2.6117e+08,690.48,0,1.2924e+08,101.62,534.87,1
1848,5.41,12125,1,12125,1,0.00023305,-3.364e-09,0,0.00079183,-4.2476e-05,67.019,-865.72,0,2.2725e+08,-25.459,12124,13096,1,13096,1,0.0017264,6.1853e-09,0,0.0017264,0.00023672,3.3978e+08,1544.6,0,5.126e+08,365.4,13095,12124,1,12124,1,0.00023304,-7.7851e-10,0,0.00077433,-4.2454e-05,6.5539e+07,-192.95,0,2.3197e+08,-11.401,12123,11201,1,11201,1,-0.0012603,-2.6602e-08,0,4.35e-05,-0.00032161,-5.126e+08,-6694,0,1.7741e+07,-596.02,11200,11662,1,11662,1,-0.00054128,-6.3241e-09,0,0.00038716,-0.00018717,-2.2012e+08,-1602.1,0,1.2e+08,-96.683,11661,12586,1,12586,1,0.0010074,8.9827e-10,0,0.0011615,0.00010207,2.3197e+08,220.47,0,3.133e+08,73.325,12585,534.87,0,534.87,0,0.0008938,6.54e-09,0,0.00047528,0.00016702,2.6158e+08,1717.2,0,1.2943e+08,178.8,534.87,1
1848,5.42,12125,1,12125,1,0.00023379,-1.5668e-09,0,0.00079341,-4.2611e-05,-201.23,-436.32,0,2.2759e+08,71.765,12124,13096,1,13096,1,0.0017301,4.1013e-09,0,0.0017301,0.00023712,3.3995e+08,879.06,0,5.1348e+08,444.68,13095,12124,1,12124,1,0.00023378,-1.0786e-09,0,0.00077584,-4.2589e-05,6.5747e+07,-260.45,0,2.324e+08,54.292,12123,11201,1,11201,1,-0.0012625,-1.3637e-08,0,4.3297e-05,-0.00032229,-5.1348e+08,-3719.7,0,1.7661e+07,-249.01,11200,11662,1,11662,1,-0.00054205,-2.7284e-09,0,0.00038791,-0.00018759,-2.2043e+08,-719.05,0,1.2021e+08,-6.3945,11661,12586,1,12586,1,0.0010096,5.7199e-10,0,0.0011637,0.00010222,2.324e+08,141.78,0,3.1351e+08,137.51,12585,534.87,0,534.87,0,0.00089554,3.0124e-09,0,0.00047627,0.00016734,2.6196e+08,831.44,0,1.296e+08,123.42,534.87,1
1848,5.43,12125,1,12125,1,0.00023464,2.4843e-09,0,0.00079507,-4.2768e-05,-142.18,557.65,0,2.2792e+08,28.454,12124,13096,1,13096,1,0.001734,1.0932e-08,0,0.001734,0.00023753,3.4008e+08,2668,0,5.1436e+08,382.11,13095,12124,1,12124,1,0.00023464,2.7531e-09,0,0.00077741,-4.2748e-05,6.5989e+07,580.21,0,2.3278e+08,50.969,12123,11201,1,11201,1,-0.0012647,-1.3267e-08,0,4.3002e-05,-0.000323,-5.1436e+08,-3607.6,0,1.7545e+07,-438.13,11200,11662,1,11662,1,-0.00054277,-1.8804e-11,0,0.0003887,-0.00018804,-2.2072e+08,-5.4229,0,1.2043e+08,-40.816,11661,12586,1,12586,1,0.001012,5.6629e-09,0,0.0011661,0.00010235,2.3278e+08,1371.5,0,3.1367e+08,124.45,12585,534.87,0,534.87,0,0.00089735,4.5728e-09,0,0.00047734,0.00016768,2.6232e+08,1201.6,0,1.2977e+08,142.29,534.87,1
1848,5.44,12125,1,12125,1,0.00023553,-2.1549e-09,0,0.00079673,-4.293e-05,-65.678,-549.64,0,2.2823e+08,80.506,12124,13096,1,13096,1,0.0017379,3.3313e-09,0,0.0017379,0.00023793,3.4017e+08,649.87,0,5.1523e+08,445.67,13095,12124,1,12124,1,0.00023552,-2.1193e-09,0,0.00077898,-4.2911e-05,6.6238e+07,-504.61,0,2.3314e+08,56.518,12123,11201,1,11201,1,-0.0012668,-1.0456e-08,0,4.2678e-05,-0.00032373,-5.1523e+08,-2952.1,0,1.7418e+07,-175.91,11200,11662,1,11662,1,-0.00054345,-3.9847e-09,0,0.00038948,-0.00018849,-2.21e+08,-891.68,0,1.2072e+08,-4.7023,11661,12586,1,12586,1,0.0010145,5.0215e-11,0,0.0011685,0.00010248,2.3314e+08,12.472,0,3.138e+08,145.04,12585,534.87,0,534.87,0,0.00089916,2.6521e-09,0,0.0004784,0.00016801,2.6268e+08,713.72,0,1.2992e+08,115.04,534.87,1
1848,5.45,12125,1,12125,1,0.00023642,-8.8799e-10,0,0.0007984,-4.3093e-05,-16.912,-276.53,0,2.2855e+08,66.028,12124,13096,1,13096,1,0.0017418,2.9803e-09,0,0.0017418,0.00023833,3.4024e+08,521.3,0,5.161e+08,217.22,13095,12124,1,12124,1,0.00023641,-6.0506e-10,0,0.00078055,-4.3076e-05,6.6489e+07,-138.09,0,2.3351e+08,65.034,12123,11201,1,11201,1,-0.0012689,-6.6591e-09,0,4.2349e-05,-0.00032445,-5.161e+08,-1993.7,0,1.7289e+07,-83.144,11200,11662,1,11662,1,-0.00054413,-1.6831e-09,0,0.00039027,-0.00018895,-2.2128e+08,-487.07,0,1.2108e+08,12.223,11661,12586,1,12586,1,0.001017,1.5632e-10,0,0.0011708,0.00010261,2.3351e+08,40.84,0,3.1392e+08,116.3,12585,534.87,0,534.87,0,0.00090098,1.7267e-09,0,0.00047947,0.00016835,2.6303e+08,485.74,0,1.3008e+08,64.334,534.87,1
1848,5.46,12125,1,12125,1,0.00023733,1.1726e-09,0,0.00080011,-4.326e-05,-52.369,256.38,0,2.2888e+08,41.897,12124,13096,1,13096,1,0.0017458,5.5266e-09,0,0.0017458,0.00023875,3.4034e+08,1382.7,0,5.17e+08,190.64,13095,12124,1,12124,1,0.00023732,1.435e-09,0,0.00078217,-4.3245e-05,6.6745e+07,333.3,0,2.3388e+08,40.975,12123,11201,1,11201,1,-0.0012711,-6.2069e-09,0,4.2018e-05,-0.00032519,-5.17e+08,-1735.8,0,1.716e+07,-185.65,11200,11662,1,11662,1,-0.00054484,1.4195e-10,0,0.00039108,-0.00018941,-2.2156e+08,40.947,0,1.2144e+08,-0.53507,11661,12586,1,12586,1,0.0010195,2.6003e-09,0,0.0011732,0.00010275,2.3388e+08,571.39,0,3.1405e+08,94.87,12585,534.87,0,534.87,0,0.00090284,1.9838e-09,0,0.00048057,0.0001687,2.6339e+08,528.67,0,1.3025e+08,76.021,534.87,1
1848,5.47,12125,1,12125,1,0.00023824,-2.065e-09,0,0.0008018,-4.3427e-05,-66.618,-528.29,0,2.2919e+08,33.945,12124,13096,1,13096,1,0.0017498,2.9696e-09,0,0.0017498,0.00023915,3.4041e+08,817.68,0,5.1788e+08,354.31,13095,12124,1,12124,1,0.00023823,-9.8675e-10,0,0.00078375,-4.3413e-05,6.7002e+07,-235.95,0,2.3425e+08,34.784,12123,11201,1,11201,1,-0.0012733,-1.427e-08,0,4.1676e-05,-0.00032593,-5.1788e+08,-3615.8,0,1.7026e+07,-284.93,11200,11662,1,11662,1,-0.00054552,-3.4971e-09,0,0.00039187,-0.00018988,-2.2184e+08,-887.75,0,1.218e+08,-23.706,11661,12586,1,12586,1,0.001022,1.0342e-10,0,0.0011756,0.00010287,2.3425e+08,25.682,0,3.1416e+08,96.298,12585,534.87,0,534.87,0,0.00090468,3.1224e-09,0,0.00048166,0.00016904,2.6375e+08,842.86,0,1.304e+08,102.69,534.87,1
1848,5.48,12125,1,12125,1,0.00023916,2.5326e-09,0,0.00080352,-4.3596e-05,-62.793,602.21,0,2.2952e+08,6.9282,12124,13096,1,13096,1,0.0017538,1.1931e-08,0,0.0017538,0.00023957,3.4049e+08,2955.6,0,5.1878e+08,372.27,13095,12124,1,12124,1,0.00023916,2.4418e-09,0,0.00078538,-4.3583e-05,6.7262e+07,525.47,0,2.3462e+08,7.9517,12123,11201,1,11201,1,-0.0012755,-1.0589e-08,0,4.1335e-05,-0.00032668,-5.1878e+08,-2833.9,0,1.6892e+07,-326.32,11200,11662,1,11662,1,-0.00054622,6.5263e-10,0,0.00039269,-0.00019035,-2.2213e+08,171.69,0,1.2216e+08,-54.46,11661,12586,1,12586,1,0.0010245,4.7492e-09,0,0.0011781,0.00010301,2.3462e+08,1154.3,0,3.1429e+08,71.553,12585,534.87,0,534.87,0,0.00090655,3.8168e-09,0,0.00048277,0.00016939,2.6411e+08,1008.4,0,1.3057e+08,106.15,534.87,1
1848,5.49,12125,1,12125,1,0.00024006,-3.5844e-09,0,0.00080516,-4.3762e-05,-45.228,-908.03,0,2.2982e+08,58.546,12124,13096,1,13096,1,0.0017577,1.8612e-09,0,0.0017577,0.00023996,3.4053e+08,339.17,0,5.1962e+08,366.32,13095,12124,1,12124,1,0.00024006,-3.7699e-09,0,0.00078692,-4.375e-05,6.7516e+07,-872.37,0,2.3497e+08,39.964,12123,11201,1,11201,1,-0.0012776,-9.497e-09,0,4.0981e-05,-0.0003274,-5.1962e+08,-2639.5,0,1.6754e+07,-124.42,11200,11662,1,11662,1,-0.00054686,-5.7712e-09,0,0.00039346,-0.0001908,-2.2238e+08,-1543.8,0,1.2252e+08,-5.7874,11661,12586,1,12586,1,0.001027,-1.082e-09,0,0.0011804,0.00010313,2.3497e+08,-254.76,0,3.1437e+08,112.1,12585,534.87,0,534.87,0,0.00090833,2.8138e-09,0,0.00048383,0.00016972,2.6445e+08,735.76,0,1.3071e+08,88.635,534.87,1
1848,5.5,12125,1,12125,1,0.00024097,1.2403e-09,0,0.00080687,-4.3928e-05,168.35,255.25,0,2.3015e+08,36.978,12124,13096,1,13096,1,0.0017617,7.154e-09,0,0.0017617,0.00024037,3.4062e+08,1776.5,0,5.2051e+08,226.2,13095,12124,1,12124,1,0.00024097,1.3967e-09,0,0.00078853,-4.3919e-05,6.7773e+07,304.01,0,2.3534e+08,29.179,12123,11201,1,11201,1,-0.0012798,-4.2297e-09,0,4.0645e-05,-0.00032814,-5.2051e+08,-1414.5,0,1.6624e+07,-131.89,11200,11662,1,11662,1,-0.00054756,-5.3789e-10,0,0.00039426,-0.00019127,-2.2267e+08,-147.92,0,1.2288e+08,-23.305,11661,12586,1,12586,1,0.0010295,3.1522e-09,0,0.0011828,0.00010326,2.3534e+08,726.96,0,3.145e+08,98.78,12585,534.87,0,534.87,0,0.00091019,2.6299e-09,0,0.00048493,0.00017006,2.6481e+08,698.9,0,1.3088e+08,75.255,534.87,1
1848,5.51,12125,1,12125,1,0.0002419,-2.1309e-09,0,0.00080858,-4.4098e-05,-160.9,-544.42,0,2.3046e+08,51.524,12124,13096,1,13096,1,0.0017658,5.0043e-09,0,0.0017658,0.00024078,3.4068e+08,1370.5,0,5.214e+08,437.56,13095,12124,1,12124,1,0.00024189,-1.5277e-09,0,0.00079014,-4.409e-05,6.8033e+07,-355.34,0,2.3571e+08,50.861,12123,11201,1,11201,1,-0.001282,-1.0088e-08,0,4.0297e-05,-0.00032889,-5.214e+08,-2700.4,0,1.6488e+07,-268.22,11200,11662,1,11662,1,-0.00054825,-4.5709e-09,0,0.00039507,-0.00019174,-2.2295e+08,-1228.4,0,1.2324e+08,-19.464,11661,12586,1,12586,1,0.001032,2.7408e-10,0,0.0011852,0.00010339,2.3571e+08,66.275,0,3.1461e+08,120.64,12585,534.87,0,534.87,0,0.00091205,3.1837e-09,0,0.00048603,0.00017041,2.6517e+08,865.79,0,1.3104e+08,93.417,534.87,1
1848,5.52,12125,1,12125,1,0.00024283,2.9023e-09,0,0.00081029,-4.4269e-05,22.822,689.39,0,2.3078e+08,26.793,12124,13096,1,13096,1,0.0017698,9.6396e-09,0,0.0017698,0.00024119,3.4075e+08,2386.8,0,5.2229e+08,295.44,13095,12124,1,12124,1,0.00024282,2.8003e-09,0,0.00079175,-4.4262e-05,6.8296e+07,638.18,0,2.3608e+08,28.919,12123,11201,1,11201,1,-0.0012842,-5.8725e-09,0,3.9942e-05,-0.00032963,-5.2229e+08,-1630.7,0,1.635e+07,-311.38,11200,11662,1,11662,1,-0.00054893,1.6519e-10,0,0.00039588,-0.00019221,-2.2322e+08,40.255,0,1.2361e+08,-35.453,11661,12586,1,12586,1,0.0010346,5.6827e-09,0,0.0011876,0.00010352,2.3608e+08,1445.4,0,3.1471e+08,101.61,12585,534.87,0,534.87,0,0.00091391,3.5198e-09,0,0.00048713,0.00017075,2.6552e+08,911.35,0,1.3119e+08,117.16,534.87,1
1848,5.53,12125,1,12125,1,0.00024374,5.0125e-09,0,0.00081194,-4.4436e-05,231.24,1276.5,0,2.3108e+08,60.873,12124,13096,1,13096,1,0.0017737,1.2616e-08,0,0.0017737,0.00024159,3.4078e+08,3012.9,0,5.2314e+08,365.87,13095,12124,1,12124,1,0.00024374,5.372e-09,0,0.00079331,-4.4431e-05,6.8553e+07,1379,0,2.3643e+08,55.147,12123,11201,1,11201,1,-0.0012863,-1.8479e-09,0,3.9583e-05,-0.00033036,-5.2314e+08,-415.99,0,1.6211e+07,-402.56,11200,11662,1,11662,1,-0.00054957,2.0734e-09,0,0.00039665,-0.00019266,-2.2349e+08,514.65,0,1.2397e+08,-8.3706,11661,12586,1,12586,1,0.001037,7.7456e-09,0,0.00119,0.00010364,2.3643e+08,2048.7,0,3.148e+08,134.79,12585,534.87,0,534.87,0,0.0009157,3.647e-09,0,0.0004882,0.00017109,2.6586e+08,918.01,0,1.3134e+08,104.41,534.87,1
1848,5.54,12125,1,12125,1,0.00024466,8.3759e-11,0,0.00081366,-4.4606e-05,15.767,109.61,0,2.3141e+08,10.348,12124,13096,1,13096,1,0.0017778,6.7261e-09,0,0.0017778,0.00024199,3.4085e+08,1773.1,0,5.2402e+08,244.2,13095,12124,1,12124,1,0.00024466,-1.9212e-10,0,0.00079493,-4.4602e-05,6.8813e+07,-48.1,0,2.368e+08,-3.5043,12123,11201,1,11201,1,-0.0012884,-5.3902e-09,0,3.9235e-05,-0.00033111,-5.2402e+08,-1318,0,1.6076e+07,-148.62,11200,11662,1,11662,1,-0.00055026,-2.0627e-09,0,0.00039746,-0.00019313,-2.2377e+08,-423.27,0,1.2433e+08,-52.879,11661,12586,1,12586,1,0.0010396,2.23e-09,0,0.0011924,0.00010377,2.368e+08,635.82,0,3.1491e+08,62.298,12585,534.87,0,534.87,0,0.00091757,2.831e-09,0,0.00048931,0.00017143,2.6622e+08,746.28,0,1.3151e+08,82.519,534.87,1
1848,5.55,12125,1,12125,1,0.00024558,-1.3147e-09,0,0.00081531,-4.4774e-05,7.6846,-282.34,0,2.317e+08,44.202,12124,13096,1,13096,1,0.0017817,1.9655e-09,0,0.0017817,0.00024238,3.4088e+08,672.2,0,5.2486e+08,248.28,13095,12124,1,12124,1,0.00024558,-1.3322e-09,0,0.00079648,-4.4772e-05,6.9072e+07,-298.42,0,2.3715e+08,27.812,12123,11201,1,11201,1,-0.0012905,-5.0489e-09,0,3.8874e-05,-0.00033183,-5.2486e+08,-1277.5,0,1.5936e+07,-85.968,11200,11662,1,11662,1,-0.0005509,-2.8648e-09,0,0.00039823,-0.00019359,-2.2403e+08,-578.25,0,1.2469e+08,-10.427,11661,12586,1,12586,1,0.0010421,1.435e-10,0,0.0011947,0.00010389,2.3715e+08,41.45,0,3.1499e+08,92.197,12585,534.87,0,534.87,0,0.00091936,1.8434e-09,0,0.00049038,0.00017177,2.6655e+08,477,0,1.3165e+08,67.028,534.87,1
1848,5.56,12125,1,12125,1,0.0002465,2.2806e-09,0,0.00081701,-4.4943e-05,105.82,586.13,0,2.3202e+08,17.104,12124,13096,1,13096,1,0.0017857,6.7207e-09,0,0.0017857,0.00024279,3.4095e+08,1694.9,0,5.2575e+08,195.38,13095,12124,1,12124,1,0.0002465,2.2156e-09,0,0.00079808,-4.4943e-05,6.9332e+07,533.22,0,2.3752e+08,15.008,12123,11201,1,11201,1,-0.0012927,-1.2609e-09,0,3.8526e-05,-0.00033257,-5.2575e+08,-431.2,0,1.5802e+07,-214.88,11200,11662,1,11662,1,-0.00055158,7.4418e-10,0,0.00039904,-0.00019406,-2.243e+08,170.61,0,1.2506e+08,-34.541,11661,12586,1,12586,1,0.0010446,3.6207e-09,0,0.0011971,0.00010402,2.3752e+08,964.95,0,3.151e+08,62.282,12585,534.87,0,534.87,0,0.00092121,1.8604e-09,0,0.00049148,0.00017211,2.6691e+08,507.54,0,1.3181e+08,70.221,534.87,1
1848,5.57,12125,1,12125,1,0.00024744,-8.3861e-10,0,0.00081871,-4.5115e-05,-54.973,-171.78,0,2.3234e+08,35.253,12124,13096,1,13096,1,0.0017897,5.3105e-09,0,0.0017897,0.0002432,3.4099e+08,1431.2,0,5.2663e+08,296.28,13095,12124,1,12124,1,0.00024744,-7.8148e-10,0,0.00079968,-4.5116e-05,6.9596e+07,-159.02,0,2.3788e+08,23.225,12123,11201,1,11201,1,-0.0012948,-6.4983e-09,0,3.8161e-05,-0.00033331,-5.2663e+08,-1642.4,0,1.5661e+07,-203.38,11200,11662,1,11662,1,-0.00055224,-2.6306e-09,0,0.00039984,-0.00019453,-2.2457e+08,-586.99,0,1.2543e+08,-22.26,11661,12586,1,12586,1,0.0010471,7.45e-10,0,0.0011995,0.00010415,2.3788e+08,202.43,0,3.1519e+08,85.024,12585,534.87,0,534.87,0,0.00092306,2.601e-09,0,0.00049259,0.00017246,2.6726e+08,693.84,0,1.3197e+08,76.687,534.87,1
1848,5.58,12125,1,12125,1,0.00024836,-2.0858e-09,0,0.00082036,-4.5283e-05,14.066,-519.67,0,2.3263e+08,75.79,12124,13096,1,13096,1,0.0017936,1.6684e-09,0,0.0017936,0.00024358,3.4102e+08,293.91,0,5.2747e+08,180.43,13095,12124,1,12124,1,0.00024836,-2.0778e-09,0,0.00080123,-4.5286e-05,6.9855e+07,-581.63,0,2.3822e+08,80.186,12123,11201,1,11201,1,-0.0012969,-5.78e-09,0,3.7796e-05,-0.00033404,-5.2747e+08,-1128.4,0,1.552e+07,-50.213,11200,11662,1,11662,1,-0.00055288,-3.15e-09,0,0.00040062,-0.00019498,-2.2483e+08,-809.45,0,1.2579e+08,25.897,11661,12586,1,12586,1,0.0010496,-8.5867e-10,0,0.0012018,0.00010427,2.3822e+08,-226.75,0,3.1526e+08,120.62,12585,534.87,0,534.87,0,0.00092485,1.617e-09,0,0.00049366,0.00017279,2.6759e+08,353.89,0,1.3212e+08,52.077,534.87,1
1848,5.59,12125,1,12125,1,0.00024928,2.0603e-10,0,0.00082205,-4.5453e-05,-3.1561,29.315,0,2.3294e+08,36.206,12124,13096,1,13096,1,0.0017976,2.5109e-09,0,0.0017976,0.00024398,3.4107e+08,472.91,0,5.2833e+08,89.501,13095,12124,1,12124,1,0.00024928,-2.6376e-12,0,0.00080282,-4.5457e-05,7.0115e+07,-0.93541,0,2.3858e+08,36.354,12123,11201,1,11201,1,-0.001299,-5.8596e-10,0,3.744e-05,-0.00033477,-5.2833e+08,-166.41,0,1.5384e+07,-8.2971,11200,11662,1,11662,1,-0.00055354,-2.0525e-10,0,0.00040141,-0.00019545,-2.251e+08,-57.669,0,1.2615e+08,12.571,11661,12586,1,12586,1,0.0010521,3.6675e-10,0,0.0012042,0.00010439,2.3858e+08,79.098,0,3.1536e+08,56.119,12585,534.87,0,534.87,0,0.00092668,6.082e-10,0,0.00049475,0.00017313,2.6793e+08,125.1,0,1.3227e+08,25.143,534.87,1
1848,5.6,12125,1,12125,1,0.00025022,2.7298e-09,0,0.00082377,-4.5626e-05,96.101,676.63,0,2.3326e+08,-6.8168,12124,13096,1,13096,1,0.0018017,5.3416e-09,0,0.0018017,0.0002444,3.4112e+08,1281.5,0,5.2922e+08,114.83,13095,12124,1,12124,1,0.00025022,2.7916e-09,0,0.00080443,-4.5632e-05,7.0381e+07,714.15,0,2.3895e+08,4.8357,12123,11201,1,11201,1,-0.0013012,-3.3202e-10,0,3.7075e-05,-0.00033553,-5.2922e+08,-113.7,0,1.5244e+07,-242.74,11200,11662,1,11662,1,-0.00055421,1.434e-09,0,0.00040222,-0.00019592,-2.2537e+08,339.97,0,1.2652e+08,-11.274,11661,12586,1,12586,1,0.0010547,4.1324e-09,0,0.0012067,0.00010452,2.3895e+08,1031.2,0,3.1545e+08,21.841,12585,534.87,0,534.87,0,0.00092854,1.6287e-09,0,0.00049586,0.00017347,2.6829e+08,395.83,0,1.3243e+08,52.23,534.87,1
1848,5.61,12125,1,12125,1,0.00025115,-3.5138e-09,0,0.00082541,-4.5796e-05,5.5602,-855.33,0,2.3355e+08,37.019,12124,13096,1,13096,1,0.0018056,2.7822e-10,0,0.0018056,0.00024478,3.4113e+08,95.27,0,5.3005e+08,221.4,13095,12124,1,12124,1,0.00025115,-3.2512e-09,0,0.00080598,-4.5803e-05,7.0642e+07,-864.94,0,2.3929e+08,24.531,12123,11201,1,11201,1,-0.0013033,-7.4065e-09,0,3.6697e-05,-0.00033625,-5.3005e+08,-1638.8,0,1.5099e+07,-68.834,11200,11662,1,11662,1,-0.00055483,-5.35e-09,0,0.00040299,-0.00019638,-2.2562e+08,-1312.2,0,1.2688e+08,2.7543,11661,12586,1,12586,1,0.0010571,-1.6922e-09,0,0.001209,0.00010464,2.3929e+08,-442.4,0,3.1551e+08,63.888,12585,534.87,0,534.87,0,0.00093032,2.2423e-09,0,0.00049693,0.00017381,2.6861e+08,504.4,0,1.3258e+08,50.936,534.87,1
1848,5.62,12125,1,12125,1,0.0002521,1.2823e-09,0,0.00082715,-4.597e-05,71.715,293.51,0,2.3388e+08,-50.557,12124,13096,1,13096,1,0.0018097,7.1472e-09,0,0.0018097,0.0002452,3.4119e+08,1634.9,0,5.3095e+08,94.206,13095,12124,1,12124,1,0.00025209,9.3708e-10,0,0.00080762,-4.5979e-05,7.0909e+07,201.89,0,2.3966e+08,-49.726,12123,11201,1,11201,1,-0.0013055,-4.891e-09,0,3.6338e-05,-0.000337,-5.3095e+08,-1195.7,0,1.4962e+07,-327.26,11200,11662,1,11662,1,-0.00055552,-6.8112e-10,0,0.00040381,-0.00019686,-2.2591e+08,-163.16,0,1.2725e+08,-96.028,11661,12586,1,12586,1,0.0010597,3.4011e-09,0,0.0012114,0.00010477,2.3966e+08,862.54,0,3.1562e+08,-0.10538,12585,534.87,0,534.87,0,0.00093222,2.9319e-09,0,0.00049806,0.00017416,2.6898e+08,711.77,0,1.3274e+08,63.013,534.87,1
1848,5.63,12125,1,12125,1,0.00025306,-1.5497e-09,0,0.00082888,-4.6146e-05,-100.58,-387.4,0,2.3419e+08,27.607,12124,13096,1,13096,1,0.0018137,4.0552e-09,0,0.0018137,0.0002456,3.4122e+08,1035.6,0,5.3184e+08,317.12,13095,12124,1,12124,1,0.00025305,-5.1949e-10,0,0.00080924,-4.6156e-05,7.1179e+07,-110.21,0,2.4002e+08,23.38,12123,11201,1,11201,1,-0.0013076,-1.1007e-08,0,3.5956e-05,-0.00033776,-5.3184e+08,-2757.3,0,1.4816e+07,-369.96,11200,11662,1,11662,1,-0.00055618,-3.3973e-09,0,0.00040462,-0.00019733,-2.2617e+08,-844.5,0,1.2763e+08,-29.108,11661,12586,1,12586,1,0.0010623,6.9862e-10,0,0.0012139,0.00010489,2.4002e+08,171.55,0,3.157e+08,80.8,12585,534.87,0,534.87,0,0.00093409,3.3849e-09,0,0.00049918,0.00017451,2.6932e+08,899.19,0,1.329e+08,84.809,534.87,1
1848,5.64,12125,1,12125,1,0.00025401,-8.8473e-10,0,0.00083058,-4.6321e-05,43.742,-245.58,0,2.3449e+08,45.259,12124,13096,1,13096,1,0.0018178,5.8431e-09,0,0.0018178,0.000246,3.4123e+08,1483.8,0,5.327e+08,474.71,13095,12124,1,12124,1,0.00025401,-1.3786e-10,0,0.00081083,-4.6333e-05,7.1448e+07,-28.652,0,2.4038e+08,31.065,12123,11201,1,11201,1,-0.0013098,-9.9712e-09,0,3.557e-05,-0.00033851,-5.327e+08,-2738.5,0,1.4669e+07,-312.91,11200,11662,1,11662,1,-0.00055682,-2.8611e-09,0,0.00040541,-0.0001978,-2.2643e+08,-740.53,0,1.28e+08,-28.937,11661,12586,1,12586,1,0.0010648,1.3083e-09,0,0.0012162,0.00010501,2.4038e+08,299.9,0,3.1576e+08,105.39,12585,534.87,0,534.87,0,0.00093593,3.4412e-09,0,0.00050029,0.00017485,2.6966e+08,948.8,0,1.3305e+08,101.59,534.87,1
1848,5.65,12125,1,12125,1,0.00025497,4.8959e-09,0,0.0008323,-4.6497e-05,-20.76,1199.6,0,2.348e+08,50.564,12124,13096,1,13096,1,0.0018219,1.2319e-08,0,0.0018219,0.00024641,3.4127e+08,3086.6,0,5.3358e+08,366.05,13095,12124,1,12124,1,0.00025497,5.0655e-09,0,0.00081245,-4.651e-05,7.1718e+07,1165.2,0,2.4074e+08,41.48,12123,11201,1,11201,1,-0.0013119,-3.546e-09,0,3.519e-05,-0.00033926,-5.3358e+08,-1114.1,0,1.4525e+07,-410.68,11200,11662,1,11662,1,-0.00055748,1.7538e-09,0,0.00040622,-0.00019828,-2.267e+08,428.43,0,1.2837e+08,-17.964,11661,12586,1,12586,1,0.0010674,7.7893e-09,0,0.0012187,0.00010514,2.4074e+08,1961.3,0,3.1584e+08,143.71,12585,534.87,0,534.87,0,0.0009378,3.7079e-09,0,0.00050141,0.0001752,2.7001e+08,954.97,0,1.3321e+08,144.87,534.87,1
1848,5.66,12125,1,12125,1,0.00025591,-2.072e-09,0,0.00083392,-4.6668e-05,12.986,-478.39,0,2.3508e+08,116.23,12124,13096,1,13096,1,0.0018257,2.8688e-09,0,0.0018257,0.00024678,3.4125e+08,516.04,0,5.3439e+08,368.84,13095,12124,1,12124,1,0.0002559,-1.684e-09,0,0.00081398,-4.6683e-05,7.1982e+07,-477.22,0,2.4107e+08,106.2,12123,11201,1,11201,1,-0.0013139,-7.7828e-09,0,3.4799e-05,-0.00033998,-5.3439e+08,-1475.7,0,1.4377e+07,-21.893,11200,11662,1,11662,1,-0.00055807,-3.1144e-09,0,0.00040699,-0.00019874,-2.2694e+08,-724.93,0,1.2874e+08,40.443,11661,12586,1,12586,1,0.0010699,-6.1561e-10,0,0.001221,0.00010525,2.4107e+08,-163.59,0,3.1588e+08,169.09,12585,534.87,0,534.87,0,0.00093956,2.0333e-09,0,0.00050248,0.00017552,2.7032e+08,396.6,0,1.3335e+08,88.622,534.87,1
1848,5.67,12125,1,12125,1,0.00025685,5.6045e-10,0,0.00083565,-4.6843e-05,-35.207,141.12,0,2.354e+08,28.09,12124,13096,1,13096,1,0.0018298,5.4907e-09,0,0.0018298,0.0002472,3.413e+08,1384.5,0,5.3528e+08,195.42,13095,12124,1,12124,1,0.00025685,4.206e-10,0,0.0008156,-4.6859e-05,7.2249e+07,85.889,0,2.4143e+08,17.421,12123,11201,1,11201,1,-0.0013161,-4.7763e-09,0,3.4434e-05,-0.00034073,-5.3528e+08,-1227.3,0,1.4239e+07,-124.41,11200,11662,1,11662,1,-0.00055875,-4.3325e-10,0,0.0004078,-0.00019921,-2.2722e+08,-105.96,0,1.2911e+08,-17.267,11661,12586,1,12586,1,0.0010725,1.8418e-09,0,0.0012234,0.00010538,2.4143e+08,464.3,0,3.1598e+08,63.554,12585,534.87,0,534.87,0,0.00094144,1.9862e-09,0,0.0005036,0.00017587,2.7068e+08,541.81,0,1.3351e+08,58.155,534.87,1
1848,5.68,12125,1,12125,1,0.00025781,-1.8794e-09,0,0.00083734,-4.7018e-05,-34.322,-467.74,0,2.357e+08,39.833,12124,13096,1,13096,1,0.0018338,1.5631e-09,0,0.0018338,0.00024759,3.4131e+08,521.98,0,5.3614e+08,246.32,13095,12124,1,12124,1,0.00025781,-1.4246e-09,0,0.00081718,-4.7036e-05,7.2519e+07,-282.37,0,2.4178e+08,34.507,12123,11201,1,11201,1,-0.0013182,-8.41e-09,0,3.4042e-05,-0.00034147,-5.3614e+08,-2122.1,0,1.409e+07,-165.07,11200,11662,1,11662,1,-0.00055937,-3.1377e-09,0,0.00040859,-0.00019968,-2.2747e+08,-781.71,0,1.2948e+08,-10.779,11661,12586,1,12586,1,0.001075,-2.2218e-10,0,0.0012258,0.0001055,2.4178e+08,-61.574,0,3.1603e+08,88.798,12585,534.87,0,534.87,0,0.00094326,2.2368e-09,0,0.0005047,0.00017621,2.7101e+08,610.45,0,1.3366e+08,63.497,534.87,1
1848,5.69,12125,1,12125,1,0.00025876,5.2808e-10,0,0.00083901,-4.7192e-05,-6.0299,108.2,0,2.36e+08,74.948,12124,13096,1,13096,1,0.0018378,4.6893e-09,0,0.0018378,0.00024798,3.4131e+08,855.36,0,5.3698e+08,189.64,13095,12124,1,12124,1,0.00025875,4.1461e-10,0,0.00081875,-4.7211e-05,7.2786e+07,104.37,0,2.4212e+08,73.629,12123,11201,1,11201,1,-0.0013203,-1.3831e-09,0,3.3654e-05,-0.00034221,-5.3698e+08,-458,0,1.3944e+07,-0.52444,11200,11662,1,11662,1,-0.00056,-1.1902e-10,0,0.00040937,-0.00020015,-2.2773e+08,-29.931,0,1.2985e+08,25.029,11661,12586,1,12586,1,0.0010775,8.5538e-10,0,0.0012281,0.00010562,2.4212e+08,223.18,0,3.1609e+08,116.64,12585,534.87,0,534.87,0,0.00094507,1.0492e-09,0,0.00050579,0.00017655,2.7134e+08,220.52,0,1.338e+08,53.944,534.87,1
1848,5.7,12125,1,12125,1,0.00025973,-1.4632e-09,0,0.00084076,-4.737e-05,79.422,-371.38,0,2.3631e+08,-2.7363,12124,13096,1,13096,1,0.0018419,6.22e-09,0,0.0018419,0.00024839,3.4135e+08,1557.6,0,5.3788e+08,329.05,13095,12124,1,12124,1,0.00025972,-7.0309e-10,0,0.00082039,-4.7391e-05,7.3059e+07,-158.31,0,2.4249e+08,-3.5195,12123,11201,1,11201,1,-0.0013225,-1.0056e-08,0,3.3273e-05,-0.00034297,-5.3788e+08,-2580.2,0,1.3801e+07,-323.27,11200,11662,1,11662,1,-0.00056067,-3.9447e-09,0,0.00041019,-0.00020063,-2.28e+08,-983.75,0,1.3023e+08,-61.244,11661,12586,1,12586,1,0.0010801,9.4195e-10,0,0.0012306,0.00010574,2.4249e+08,232.99,0,3.1617e+08,51.541,12585,534.87,0,534.87,0,0.00094696,3.6342e-09,0,0.00050693,0.0001769,2.717e+08,950.48,0,1.3397e+08,86.657,534.87,1
1848,5.71,12125,1,12125,1,0.00026071,8.4109e-10,0,0.00084248,-4.755e-05,74.495,175.51,0,2.3662e+08,29.876,12124,13096,1,13096,1,0.001846,9.4472e-09,0,0.001846,0.00024879,3.4135e+08,2372,0,5.3875e+08,286.11,13095,12124,1,12124,1,0.0002607,9.4568e-10,0,0.00082201,-4.7572e-05,7.3335e+07,192.9,0,2.4284e+08,22.956,12123,11201,1,11201,1,-0.0013246,-8.5759e-09,0,3.2869e-05,-0.00034373,-5.3875e+08,-2188.1,0,1.365e+07,-302.14,11200,11662,1,11662,1,-0.00056131,-1.0929e-09,0,0.000411,-0.00020111,-2.2826e+08,-307.16,0,1.3061e+08,-43.985,11661,12586,1,12586,1,0.0010827,3.1988e-09,0,0.001233,0.00010586,2.4284e+08,787.38,0,3.1622e+08,93.126,12585,534.87,0,534.87,0,0.00094883,3.698e-09,0,0.00050806,0.00017725,2.7204e+08,1002.1,0,1.3412e+08,93.301,534.87,1
1848,5.72,12125,1,12125,1,0.00026165,-2.586e-09,0,0.00084408,-4.7723e-05,150.81,-658.29,0,2.3689e+08,90.824,12124,13096,1,13096,1,0.0018499,3.7382e-09,0,0.0018499,0.00024916,3.4131e+08,644.12,0,5.3954e+08,270.98,13095,12124,1,12124,1,0.00026164,-2.8428e-09,0,0.0008235,-4.7746e-05,7.36e+07,-729.27,0,2.4316e+08,86.059,12123,11201,1,11201,1,-0.0013266,-6.8615e-09,0,3.2464e-05,-0.00034444,-5.3954e+08,-1748.9,0,1.3498e+07,-130.59,11200,11662,1,11662,1,-0.00056186,-4.406e-09,0,0.00041175,-0.00020156,-2.2848e+08,-1067,0,1.3097e+08,18.654,11661,12586,1,12586,1,0.0010851,-8.5162e-10,0,0.0012353,0.00010597,2.4316e+08,-221.35,0,3.1623e+08,160.82,12585,534.87,0,534.87,0,0.00095056,2.1224e-09,0,0.00050911,0.00017757,2.7234e+08,508.86,0,1.3425e+08,81.225,534.87,1
1848,5.73,12125,1,12125,1,0.00026261,-3.8887e-10,0,0.00084583,-4.7899e-05,44.989,-145.89,0,2.3721e+08,31.76,12124,13096,1,13096,1,0.001854,4.8697e-09,0,0.001854,0.00024958,3.4136e+08,1217.8,0,5.4044e+08,311.2,13095,12124,1,12124,1,0.0002626,2.2033e-10,0,0.00082515,-4.7924e-05,7.387e+07,44.85,0,2.4353e+08,23.257,12123,11201,1,11201,1,-0.0013288,-8.0392e-09,0,3.2092e-05,-0.0003452,-5.4044e+08,-2249.9,0,1.3359e+07,-227.08,11200,11662,1,11662,1,-0.00056255,-2.0463e-09,0,0.00041257,-0.00020204,-2.2876e+08,-539.46,0,1.3134e+08,-29.869,11661,12586,1,12586,1,0.0010878,1.5688e-09,0,0.0012377,0.0001061,2.4353e+08,336.34,0,3.1633e+08,79.736,12585,534.87,0,534.87,0,0.00095246,2.911e-09,0,0.00051025,0.00017792,2.727e+08,795.69,0,1.3442e+08,78.758,534.87,1
1848,5.74,12125,1,12125,1,0.00026359,1.8691e-09,0,0.00084754,-4.8079e-05,-94.229,425.87,0,2.3751e+08,42.273,12124,13096,1,13096,1,0.0018581,9.6555e-09,0,0.0018581,0.00024997,3.4135e+08,2387,0,5.413e+08,417.23,13095,12124,1,12124,1,0.00026358,1.8708e-09,0,0.00082676,-4.8105e-05,7.4147e+07,389.42,0,2.4388e+08,35.493,12123,11201,1,11201,1,-0.0013309,-8.4477e-09,0,3.1684e-05,-0.00034596,-5.413e+08,-2191.5,0,1.3207e+07,-482.65,11200,11662,1,11662,1,-0.00056317,-7.3236e-10,0,0.00041338,-0.00020252,-2.2902e+08,-167.96,0,1.3172e+08,-34.54,11661,12586,1,12586,1,0.0010903,5.1645e-09,0,0.0012401,0.00010622,2.4388e+08,1274.5,0,3.1637e+08,118.93,12585,534.87,0,534.87,0,0.00095431,4.1583e-09,0,0.00051138,0.00017826,2.7303e+08,1112.2,0,1.3457e+08,120.77,534.87,1
1848,5.75,12125,1,12125,1,0.00026456,9.2325e-10,0,0.00084925,-4.8258e-05,90.024,233.71,0,2.378e+08,91.134,12124,13096,1,13096,1,0.0018621,6.8169e-09,0,0.0018621,0.00025037,3.4134e+08,1848.9,0,5.4215e+08,413.12,13095,12124,1,12124,1,0.00026456,7.7093e-10,0,0.00082836,-4.8286e-05,7.4422e+07,168.38,0,2.4423e+08,51.97,12123,11201,1,11201,1,-0.001333,-4.8787e-09,0,3.1278e-05,-0.00034671,-5.4215e+08,-1405.5,0,1.3056e+07,-117.35,11200,11662,1,11662,1,-0.0005638,-7.5068e-10,0,0.00041417,-0.000203,-2.2927e+08,-165.12,0,1.321e+08,-2.1319,11661,12586,1,12586,1,0.0010929,2.74e-09,0,0.0012425,0.00010634,2.4423e+08,663.31,0,3.1642e+08,170.99,12585,534.87,0,534.87,0,0.00095616,2.6036e-09,0,0.0005125,0.00017861,2.7337e+08,745.54,0,1.3472e+08,119.25,534.87,1
1848,5.76,12125,1,12125,1,0.00026553,-3.6594e-10,0,0.00085092,-4.8435e-05,-4.2643,-74.693,0,2.3809e+08,114.03,12124,13096,1,13096,1,0.0018661,4.7805e-09,0,0.0018661,0.00025075,3.4132e+08,850.54,0,5.4298e+08,326.91,13095,12124,1,12124,1,0.00026553,-3.3318e-10,0,0.00082992,-4.8465e-05,7.4694e+07,-81.042,0,2.4456e+08,100.1,12123,11201,1,11201,1,-0.001335,-4.6811e-09,0,3.0871e-05,-0.00034744,-5.4298e+08,-836.58,0,1.2905e+07,-24.704,11200,11662,1,11662,1,-0.00056439,-1.3047e-09,0,0.00041496,-0.00020346,-2.2951e+08,-319.99,0,1.3247e+08,33.634,11661,12586,1,12586,1,0.0010954,6.2049e-10,0,0.0012449,0.00010645,2.4456e+08,158.03,0,3.1645e+08,181.32,12585,534.87,0,534.87,0,0.00095796,1.6153e-09,0,0.00051359,0.00017894,2.7369e+08,349.61,0,1.3486e+08,89.13,534.87,1
1848,5.77,12125,1,12125,1,0.00026651,2.2705e-09,0,0.00085265,-4.8615e-05,125.54,565.07,0,2.384e+08,17.167,12124,13096,1,13096,1,0.0018702,9.7307e-09,0,0.0018702,0.00025116,3.4133e+08,2429.7,0,5.4387e+08,225.58,13095,12124,1,12124,1,0.0002665,1.4735e-09,0,0.00083154,-4.8646e-05,7.497e+07,316.36,0,2.4492e+08,8.6494,12123,11201,1,11201,1,-0.0013372,-3.27e-09,0,3.0475e-05,-0.0003482,-5.4387e+08,-851.14,0,1.2758e+07,-123.94,11200,11662,1,11662,1,-0.00056504,1.8611e-12,0,0.00041577,-0.00020394,-2.2978e+08,0.50506,0,1.3285e+08,-46.169,11661,12586,1,12586,1,0.001098,4.6123e-09,0,0.0012473,0.00010657,2.4492e+08,1176.6,0,3.1652e+08,76.605,12585,534.87,0,534.87,0,0.00095984,3.1374e-09,0,0.00051473,0.00017929,2.7403e+08,839.89,0,1.3502e+08,76.761,534.87,1
1848,5.78,12125,1,12125,1,0.00026749,2.5617e-09,0,0.00085436,-4.8797e-05,38.719,674.6,0,2.3869e+08,48.914,12124,13096,1,13096,1,0.0018743,8.9064e-09,0,0.0018743,0.00025156,3.4131e+08,2304,0,5.4472e+08,313.87,13095,12124,1,12124,1,0.00026749,2.2336e-09,0,0.00083315,-4.8829e-05,7.5248e+07,483.89,0,2.4526e+08,29.796,12123,11201,1,11201,1,-0.0013393,-2.3952e-09,0,3.0059e-05,-0.00034896,-5.4472e+08,-691.82,0,1.2604e+07,-165.08,11200,11662,1,11662,1,-0.00056565,5.2929e-10,0,0.00041657,-0.00020442,-2.3003e+08,127.15,0,1.3324e+08,-33.462,11661,12586,1,12586,1,0.0011006,4.2877e-09,0,0.0012497,0.00010669,2.4526e+08,1145.3,0,3.1655e+08,116.54,12585,534.87,0,534.87,0,0.00096169,2.5428e-09,0,0.00051585,0.00017963,2.7436e+08,718.06,0,1.3517e+08,97.541,534.87,1
1848,5.79,12125,1,12125,1,0.00026848,-6.5987e-09,0,0.00085607,-4.8978e-05,75.488,-1581.2,0,2.3899e+08,65.737,12124,13096,1,13096,1,0.0018784,2.468e-09,0,0.0018784,0.00025195,3.4131e+08,845.08,0,5.4559e+08,835.19,13095,12124,1,12124,1,0.00026847,-6.551e-09,0,0.00083474,-4.9011e-05,7.5525e+07,-1495.8,0,2.4561e+08,7.0655,12123,11201,1,11201,1,-0.0013414,-2.0845e-08,0,2.9644e-05,-0.00034971,-5.4559e+08,-4977.2,0,1.2451e+07,-538.34,11200,11662,1,11662,1,-0.00056627,-1.0553e-08,0,0.00041737,-0.0002049,-2.3028e+08,-2579.8,0,1.3362e+08,-59.112,11661,12586,1,12586,1,0.0011032,-2.0386e-09,0,0.0012521,0.0001068,2.4561e+08,-480.78,0,3.1659e+08,137.19,12585,534.87,0,534.87,0,0.00096354,5.3834e-09,0,0.00051698,0.00017998,2.747e+08,1325.6,0,1.3532e+08,194.71,534.87,1
1848,5.8,12125,1,12125,1,0.00026944,-5.8209e-10,0,0.0008577,-4.9154e-05,-25.525,-242.84,0,2.3926e+08,120.64,12124,13096,1,13096,1,0.0018823,6.992e-09,0,0.0018823,0.00025232,3.4125e+08,1262.2,0,5.4638e+08,342.44,13095,12124,1,12124,1,0.00026944,-1.3433e-09,0,0.00083628,-4.9189e-05,7.5797e+07,-391.95,0,2.4593e+08,118.22,12123,11201,1,11201,1,-0.0013434,-5.1335e-09,0,2.9228e-05,-0.00035043,-5.4638e+08,-1044.8,0,1.2298e+07,-76.978,11200,11662,1,11662,1,-0.00056684,-2.3731e-09,0,0.00041813,-0.00020536,-2.3051e+08,-726.62,0,1.3398e+08,33.208,11661,12586,1,12586,1,0.0011057,4.6473e-10,0,0.0012544,0.00010691,2.4593e+08,78.175,0,3.166e+08,210.98,12585,534.87,0,534.87,0,0.0009653,2.7098e-09,0,0.00051806,0.0001803,2.75e+08,593.16,0,1.3546e+08,92.693,534.87,1
1848,5.81,12125,1,12125,1,0.00027042,4.4536e-09,0,0.00085945,-4.9335e-05,2.8196,1046.7,0,2.3958e+08,24.792,12124,13096,1,13096,1,0.0018864,1.0895e-08,0,0.0018864,0.00025274,3.4128e+08,2364.1,0,5.4727e+08,267.39,13095,12124,1,12124,1,0.00027042,4.2502e-09,0,0.00083791,-4.9372e-05,7.6074e+07,1123.2,0,2.4629e+08,22.453,12123,11201,1,11201,1,-0.0013456,-1.3e-09,0,2.8832e-05,-0.0003512,-5.4727e+08,-445.16,0,1.2153e+07,-319.69,11200,11662,1,11662,1,-0.00056749,1.8013e-09,0,0.00041896,-0.00020585,-2.3077e+08,448.63,0,1.3437e+08,-33.304,11661,12586,1,12586,1,0.0011083,7.2608e-09,0,0.0012569,0.00010704,2.4629e+08,1664,0,3.1667e+08,105.76,12585,534.87,0,534.87,0,0.00096719,3.2542e-09,0,0.0005192,0.00018066,2.7535e+08,732.03,0,1.3562e+08,108.96,534.87,1
1848,5.82,12125,1,12125,1,0.00027142,2.8464e-09,0,0.00086117,-4.9519e-05,211.06,746.39,0,2.3987e+08,1.9795,12124,13096,1,13096,1,0.0018906,1.0306e-08,0,0.0018906,0.00025313,3.4124e+08,2568.9,0,5.4813e+08,255.61,13095,12124,1,12124,1,0.00027142,2.3396e-09,0,0.00083952,-4.9557e-05,7.6356e+07,594.63,0,2.4663e+08,1.2764,12123,11201,1,11201,1,-0.0013477,-2.3632e-09,0,2.8406e-05,-0.00035196,-5.4813e+08,-761.27,0,1.1997e+07,-222.6,11200,11662,1,11662,1,-0.0005681,2.8008e-10,0,0.00041976,-0.00020633,-2.3102e+08,58.442,0,1.3475e+08,-65.762,11661,12586,1,12586,1,0.0011109,5.0046e-09,0,0.0012593,0.00010715,2.4663e+08,1344,0,3.1669e+08,71.362,12585,534.87,0,534.87,0,0.00096905,3.0432e-09,0,0.00052034,0.000181,2.7568e+08,804.34,0,1.3577e+08,98.04,534.87,1
1848,5.83,12125,1,12125,1,0.00027242,-4.0581e-09,0,0.00086289,-4.9703e-05,76.039,-917.61,0,2.4016e+08,-11.763,12124,13096,1,13096,1,0.0018946,4.9088e-09,0,0.0018946,0.00025352,3.4122e+08,1432.2,0,5.4898e+08,413.12,13095,12124,1,12124,1,0.00027242,-3.4064e-09,0,0.00084113,-4.9742e-05,7.6638e+07,-701.32,0,2.4698e+08,-18.079,12123,11201,1,11201,1,-0.0013498,-1.649e-08,0,2.7979e-05,-0.00035271,-5.4898e+08,-3829.7,0,1.1841e+07,-682.13,11200,11662,1,11662,1,-0.00056871,-7.8509e-09,0,0.00042057,-0.00020681,-2.3127e+08,-1876.8,0,1.3514e+08,-100.95,11661,12586,1,12586,1,0.0011136,1.8366e-10,0,0.0012617,0.00010727,2.4698e+08,48.998,0,3.1672e+08,82.294,12585,534.87,0,534.87,0,0.00097091,5.013e-09,0,0.00052147,0.00018135,2.7601e+08,1246.2,0,1.3591e+08,137.06,534.87,1
1848,5.84,12125,1,12125,1,0.00027342,-1.5335e-09,0,0.00086459,-4.9885e-05,-10.99,-406.58,0,2.4045e+08,90.31,12124,13096,1,13096,1,0.0018987,3.3412e-09,0,0.0018987,0.00025391,3.4118e+08,861.96,0,5.4983e+08,322.81,13095,12124,1,12124,1,0.00027341,-1.5741e-09,0,0.00084273,-4.9926e-05,7.6917e+07,-355.17,0,2.4732e+08,73.305,12123,11201,1,11201,1,-0.0013519,-6.6936e-09,0,2.7558e-05,-0.00035346,-5.4983e+08,-1862.2,0,1.1687e+07,-112.4,11200,11662,1,11662,1,-0.00056931,-3.0081e-09,0,0.00042136,-0.00020729,-2.3151e+08,-770.93,0,1.3552e+08,12.982,11661,12586,1,12586,1,0.0011161,2.4079e-10,0,0.0012641,0.00010738,2.4732e+08,61.527,0,3.1674e+08,155.89,12585,534.87,0,534.87,0,0.00097275,2.1626e-09,0,0.0005226,0.00018169,2.7634e+08,607.82,0,1.3606e+08,92.396,534.87,1
1848,5.85,12125,1,12125,1,0.00027442,3.6243e-09,0,0.0008663,-5.007e-05,-130.73,847.34,0,2.4074e+08,74.992,12124,13096,1,13096,1,0.0019028,1.0901e-08,0,0.0019028,0.0002543,3.4115e+08,2712.5,0,5.5067e+08,296.79,13095,12124,1,12124,1,0.00027442,3.6987e-09,0,0.00084432,-5.0112e-05,7.7201e+07,817.96,0,2.4765e+08,70.543,12123,11201,1,11201,1,-0.0013539,-2.2153e-09,0,2.7122e-05,-0.00035422,-5.5067e+08,-757.94,0,1.1528e+07,-102.9,11200,11662,1,11662,1,-0.0005699,6.0844e-10,0,0.00042216,-0.00020777,-2.3175e+08,125.19,0,1.3591e+08,5.4358,11661,12586,1,12586,1,0.0011187,5.891e-09,0,0.0012665,0.00010749,2.4765e+08,1447.4,0,3.1676e+08,146.06,12585,534.87,0,534.87,0,0.00097459,3.368e-09,0,0.00052373,0.00018203,2.7666e+08,854.95,0,1.3621e+08,86.853,534.87,1
1848,5.86,12125,1,12125,1,0.00027549,-2.7516e-10,0,0.00086803,-5.0266e-05,-40,-29.348,0,2.4101e+08,88.669,12124,13096,1,13096,1,0.001907,3.4951e-09,0,0.001907,0.00025469,3.4107e+08,1194.3,0,5.515e+08,308.45,13095,12124,1,12124,1,0.00027548,-2.4998e-10,0,0.00084594,-5.031e-05,7.7502e+07,-51.3,0,2.4795e+08,81.297,12123,11201,1,11201,1,-0.001356,-4.7814e-09,0,2.663e-05,-0.00035499,-5.515e+08,-1408,0,1.1349e+07,-188.04,11200,11662,1,11662,1,-0.00057045,-1.4683e-09,0,0.00042296,-0.00020826,-2.3198e+08,-335.34,0,1.3631e+08,19.525,11661,12586,1,12586,1,0.0011214,9.5834e-10,0,0.0012689,0.0001076,2.4795e+08,254.89,0,3.1675e+08,147.54,12585,534.87,0,534.87,0,0.00097645,1.8684e-09,0,0.00052488,0.00018237,2.7696e+08,516.13,0,1.3635e+08,89.357,534.87,1
1848,5.87,12125,1,12125,1,0.00027658,-1.201e-09,0,0.00086979,-5.0467e-05,-57.628,-268.64,0,2.4129e+08,41.133,12124,13096,1,13096,1,0.0019112,4.9488e-09,0,0.0019112,0.00025508,3.41e+08,1434.3,0,5.5234e+08,321.86,13095,12124,1,12124,1,0.00027658,-1.2478e-09,0,0.00084758,-5.0513e-05,7.781e+07,-257.07,0,2.4825e+08,30.144,12123,11201,1,11201,1,-0.001358,-7.4751e-09,0,2.6125e-05,-0.00035578,-5.5234e+08,-1924.1,0,1.1166e+07,-308.77,11200,11662,1,11662,1,-0.000571,-2.9052e-09,0,0.00042379,-0.00020877,-2.322e+08,-707.38,0,1.3672e+08,-27.392,11661,12586,1,12586,1,0.0011242,5.6877e-10,0,0.0012714,0.0001077,2.4825e+08,147.75,0,3.1673e+08,96.09,12585,534.87,0,534.87,0,0.00097834,2.5723e-09,0,0.00052606,0.00018273,2.7727e+08,703.52,0,1.3649e+08,91.309,534.87,1
1848,5.88,12125,1,12125,1,0.00027769,-4.269e-10,0,0.00087156,-5.067e-05,114.11,-117.5,0,2.4156e+08,109,12124,13096,1,13096,1,0.0019155,4.0534e-09,0,0.0019155,0.00025546,3.4091e+08,712.26,0,5.5318e+08,335.75,13095,12124,1,12124,1,0.00027768,-6.8377e-10,0,0.00084923,-5.0718e-05,7.8122e+07,-177.95,0,2.4856e+08,96.845,12123,11201,1,11201,1,-0.0013601,-4.1228e-09,0,2.5606e-05,-0.00035656,-5.5318e+08,-820.78,0,1.0977e+07,-107.15,11200,11662,1,11662,1,-0.00057154,-1.4497e-09,0,0.00042461,-0.00020928,-2.3242e+08,-412.92,0,1.3714e+08,22.146,11661,12586,1,12586,1,0.0011269,4.3359e-10,0,0.0012738,0.0001078,2.4856e+08,118.22,0,3.167e+08,186.37,12585,534.87,0,534.87,0,0.00098024,1.6454e-09,0,0.00052725,0.00018308,2.7758e+08,359.73,0,1.3663e+08,99.411,534.87,1
1848,5.89,12125,1,12125,1,0.0002788,1.9968e-09,0,0.00087334,-5.0875e-05,94.925,484.8,0,2.4183e+08,13.732,12124,13096,1,13096,1,0.0019198,8.3942e-09,0,0.0019198,0.00025585,3.4081e+08,2121.2,0,5.5402e+08,155.18,13095,12124,1,12124,1,0.0002788,1.4597e-09,0,0.00085087,-5.0925e-05,7.8436e+07,322.34,0,2.4886e+08,12.68,12123,11201,1,11201,1,-0.0013622,-3.0378e-09,0,2.5082e-05,-0.00035736,-5.5402e+08,-958.62,0,1.0788e+07,-183.7,11200,11662,1,11662,1,-0.00057207,1.2669e-10,0,0.00042543,-0.00020979,-2.3264e+08,32.827,0,1.3755e+08,-39.072,11661,12586,1,12586,1,0.0011297,3.7947e-09,0,0.0012763,0.0001079,2.4886e+08,927.24,0,3.1667e+08,64.63,12585,534.87,0,534.87,0,0.00098215,2.5992e-09,0,0.00052844,0.00018343,2.7788e+08,695.34,0,1.3677e+08,65.323,534.87,1
1848,5.9,12125,1,12125,1,0.00027992,1.3325e-09,0,0.00087513,-5.1082e-05,251.76,358.12,0,2.421e+08,21.022,12124,13096,1,13096,1,0.0019241,8.5326e-09,0,0.0019241,0.00025624,3.4072e+08,2248,0,5.5487e+08,218.76,13095,12124,1,12124,1,0.00027992,8.2242e-10,0,0.00085254,-5.1133e-05,7.8752e+07,176.83,0,2.4916e+08,22.156,12123,11201,1,11201,1,-0.0013643,-5.6291e-09,0,2.4552e-05,-0.00035816,-5.5487e+08,-1584.3,0,1.0596e+07,-271.7,11200,11662,1,11662,1,-0.00057261,-2.4624e-10,0,0.00042626,-0.0002103,-2.3285e+08,-62.716,0,1.3797e+08,-36.841,11661,12586,1,12586,1,0.0011325,2.8631e-09,0,0.0012788,0.00010801,2.4916e+08,776.08,0,3.1663e+08,79.729,12585,534.87,0,534.87,0,0.00098407,2.7188e-09,0,0.00052964,0.00018379,2.7819e+08,768.54,0,1.3691e+08,91.687,534.87,1
1848,5.91,12125,1,12125,1,0.00028105,-2.4205e-09,0,0.00087689,-5.1288e-05,-23.669,-555.15,0,2.4236e+08,84.276,12124,13096,1,13096,1,0.0019284,3.2839e-09,0,0.0019284,0.00025663,3.4061e+08,1123,0,5.557e+08,367.7,13095,12124,1,12124,1,0.00028104,-2.5654e-09,0,0.00085417,-5.134e-05,7.9069e+07,-580.25,0,2.4945e+08,72.826,12123,11201,1,11201,1,-0.0013663,-8.0682e-09,0,2.4016e-05,-0.00035895,-5.557e+08,-2078.3,0,1.0403e+07,-197.75,11200,11662,1,11662,1,-0.00057313,-4.6753e-09,0,0.00042709,-0.00021081,-2.3307e+08,-999.76,0,1.3839e+08,1.2465,11661,12586,1,12586,1,0.0011352,-1.3154e-10,0,0.0012813,0.00010811,2.4945e+08,-30.402,0,3.1658e+08,149.4,12585,534.87,0,534.87,0,0.00098596,2.6222e-09,0,0.00053083,0.00018414,2.7849e+08,684.86,0,1.3705e+08,97.394,534.87,1
1848,5.92,12125,1,12125,1,0.00028216,2.004e-09,0,0.00087866,-5.1493e-05,33.613,480.13,0,2.4263e+08,50.929,12124,13096,1,13096,1,0.0019327,8.8969e-09,0,0.0019327,0.00025701,3.405e+08,2312.2,0,5.5653e+08,227.1,13095,12124,1,12124,1,0.00028216,1.8636e-09,0,0.00085581,-5.1548e-05,7.9384e+07,382.92,0,2.4975e+08,47.111,12123,11201,1,11201,1,-0.0013683,-3.2954e-09,0,2.3484e-05,-0.00035974,-5.5653e+08,-1126,0,1.0212e+07,-207.91,11200,11662,1,11662,1,-0.00057365,1.3117e-11,0,0.0004279,-0.00021132,-2.3328e+08,3.3922,0,1.3881e+08,-19.504,11661,12586,1,12586,1,0.001138,3.7432e-09,0,0.0012837,0.0001082,2.4975e+08,915.37,0,3.1654e+08,119.71,12585,534.87,0,534.87,0,0.00098785,2.7684e-09,0,0.00053202,0.00018449,2.7878e+08,766.1,0,1.3718e+08,81.529,534.87,1
1848,5.93,12125,1,12125,1,0.00028329,1.4766e-10,0,0.00088044,-5.17e-05,-97.95,55.991,0,2.429e+08,81.707,12124,13096,1,13096,1,0.001937,7.266e-09,0,0.001937,0.0002574,3.4039e+08,2039.5,0,5.5737e+08,292.63,13095,12124,1,12124,1,0.00028328,-1.5338e-10,0,0.00085747,-5.1756e-05,7.9701e+07,-34.355,0,2.5005e+08,75.231,12123,11201,1,11201,1,-0.0013704,-4.6341e-09,0,2.2951e-05,-0.00036054,-5.5737e+08,-1444.5,0,1.0021e+07,-176.97,11200,11662,1,11662,1,-0.00057419,-1.2266e-09,0,0.00042873,-0.00021183,-2.3349e+08,-264.82,0,1.3923e+08,8.3643,11661,12586,1,12586,1,0.0011408,1.2687e-09,0,0.0012862,0.00010831,2.5005e+08,290.58,0,3.165e+08,155.79,12585,534.87,0,534.87,0,0.00098976,2.2484e-09,0,0.00053322,0.00018484,2.7909e+08,653.11,0,1.3733e+08,96.502,534.87,1
1848,5.94,12125,1,12125,1,0.00028442,-4.0224e-10,0,0.00088224,-5.191e-05,-187.98,-88.797,0,2.4317e+08,36.509,12124,13096,1,13096,1,0.0019414,1.0579e-08,0,0.0019414,0.00025779,3.4028e+08,2740.1,0,5.5822e+08,310.03,13095,12124,1,12124,1,0.00028442,-2.8315e-10,0,0.00085914,-5.1967e-05,8.0021e+07,-52.416,0,2.5035e+08,47.343,12123,11201,1,11201,1,-0.0013725,-1.028e-08,0,2.2409e-05,-0.00036134,-5.5822e+08,-2707,0,9.8269e+06,-456.79,11200,11662,1,11662,1,-0.00057471,-3.01e-09,0,0.00042956,-0.00021235,-2.3371e+08,-763.7,0,1.3966e+08,-58.709,11661,12586,1,12586,1,0.0011436,2.054e-09,0,0.0012887,0.00010841,2.5035e+08,533.68,0,3.1645e+08,134.44,12585,534.87,0,534.87,0,0.00099168,4.4849e-09,0,0.00053443,0.0001852,2.7939e+08,1232.7,0,1.3747e+08,118.91,534.87,1
1848,5.95,12125,1,12125,1,0.00028556,2.8688e-09,0,0.00088402,-5.2119e-05,-120.72,710.89,0,2.4343e+08,107.65,12124,13096,1,13096,1,0.0019457,1.4308e-08,0,0.0019457,0.00025818,3.4017e+08,3714,0,5.5905e+08,476.7,13095,12124,1,12124,1,0.00028555,2.5095e-09,0,0.00086078,-5.2177e-05,8.0341e+07,489.32,0,2.5064e+08,93.536,12123,11201,1,11201,1,-0.0013745,-5.032e-09,0,2.1861e-05,-0.00036214,-5.5905e+08,-1693.3,0,9.6308e+06,-208.31,11200,11662,1,11662,1,-0.00057522,-2.4589e-10,0,0.00043039,-0.00021286,-2.3392e+08,-61.907,0,1.4008e+08,0.84988,11661,12586,1,12586,1,0.0011463,5.315e-09,0,0.0012912,0.0001085,2.5064e+08,1371.4,0,3.164e+08,195.72,12585,534.87,0,534.87,0,0.00099359,4.327e-09,0,0.00053563,0.00018555,2.7969e+08,1217.8,0,1.376e+08,136.14,534.87,1
1848,5.96,12125,1,12125,1,0.00028669,-3.4312e-09,0,0.00088578,-5.2327e-05,-9.9073,-792.61,0,2.4369e+08,128.29,12124,13096,1,13096,1,0.00195,4.9592e-09,0,0.00195,0.00025856,3.4005e+08,1695.9,0,5.5987e+08,510.96,13095,12124,1,12124,1,0.00028669,-3.8153e-09,0,0.00086242,-5.2388e-05,8.0661e+07,-869.95,0,2.5093e+08,116.25,12123,11201,1,11201,1,-0.0013766,-1.157e-08,0,2.1313e-05,-0.00036293,-5.5987e+08,-2995.2,0,9.4353e+06,-262.83,11200,11662,1,11662,1,-0.00057573,-6.7954e-09,0,0.00043121,-0.00021338,-2.3412e+08,-1449.7,0,1.4051e+08,6.9971,11661,12586,1,12586,1,0.0011491,-5.3792e-11,0,0.0012936,0.0001086,2.5093e+08,-12.957,0,3.1634e+08,237.97,12585,534.87,0,534.87,0,0.00099548,3.8137e-09,0,0.00053682,0.0001859,2.7998e+08,992.47,0,1.3774e+08,134.86,534.87,1
1848,5.97,12125,1,12125,1,0.00028783,3.2396e-09,0,0.00088758,-5.2537e-05,-0.46344,768.17,0,2.4396e+08,55.688,12124,13096,1,13096,1,0.0019543,1.7297e-08,0,0.0019543,0.00025895,3.3993e+08,4395.4,0,5.6072e+08,575.11,13095,12124,1,12124,1,0.00028783,2.5731e-09,0,0.00086409,-5.2599e-05,8.0982e+07,470.47,0,2.5123e+08,30.193,12123,11201,1,11201,1,-0.0013787,-8.6934e-09,0,2.0769e-05,-0.00036374,-5.6072e+08,-2520,0,9.2415e+06,-506.5,11200,11662,1,11662,1,-0.00057626,-7.8717e-10,0,0.00043204,-0.00021389,-2.3434e+08,-203.29,0,1.4093e+08,-63.176,11661,12586,1,12586,1,0.0011519,7.2431e-09,0,0.0012961,0.0001087,2.5123e+08,1761.5,0,3.1641e+08,157.81,12585,534.87,0,534.87,0,0.00099741,5.9055e-09,0,0.00053804,0.00018626,2.8029e+08,1603.8,0,1.3788e+08,168.48,534.87,1
1848,5.98,12125,1,12125,1,0.00028899,-3.0983e-09,0,0.00088939,-5.2749e-05,-196.94,-717.53,0,2.4423e+08,75.473,12124,13096,1,13096,1,0.0019587,1.309e-08,0,0.0019587,0.00025934,3.3981e+08,3592.4,0,5.6157e+08,611.55,13095,12124,1,12124,1,0.00028898,-2.9625e-09,0,0.00086577,-5.2813e-05,8.1308e+07,-586.53,0,2.5152e+08,65.867,12123,11201,1,11201,1,-0.0013807,-1.9233e-08,0,2.0212e-05,-0.00036455,-5.6157e+08,-5047.7,0,9.0435e+06,-672.66,11200,11662,1,11662,1,-0.00057678,-7.2307e-09,0,0.00043288,-0.00021442,-2.3455e+08,-1767.2,0,1.4136e+08,-77.481,11661,12586,1,12586,1,0.0011548,1.0991e-09,0,0.0012987,0.0001088,2.5152e+08,292.2,0,3.1655e+08,221.1,12585,534.87,0,534.87,0,0.00099935,6.7572e-09,0,0.00053927,0.00018662,2.8059e+08,1870,0,1.3802e+08,192.55,534.87,1
1848,5.99,12125,1,12125,1,0.00029013,-1.5809e-09,0,0.00089113,-5.2959e-05,-48.109,-416.14,0,2.4447e+08,220.36,12124,13096,1,13096,1,0.001963,8.269e-09,0,0.001963,0.00025971,3.3965e+08,2166,0,5.6237e+08,623.26,13095,12124,1,12124,1,0.00029012,-1.8546e-09,0,0.00086738,-5.3024e-05,8.1628e+07,-428.86,0,2.518e+08,203.95,12123,11201,1,11201,1,-0.0013827,-8.9232e-09,0,1.9648e-05,-0.00036533,-5.6237e+08,-2750.2,0,8.8428e+06,-156.59,11200,11662,1,11662,1,-0.00057725,-4.7679e-09,0,0.00043368,-0.00021492,-2.3474e+08,-1114.8,0,1.4178e+08,50.369,11661,12586,1,12586,1,0.0011575,1.3267e-09,0,0.0013011,0.00010889,2.518e+08,305.2,0,3.1665e+08,361.63,12585,534.87,0,534.87,0,0.0010012,3.9383e-09,0,0.00054045,0.00018697,2.8086e+08,1046.3,0,1.3815e+08,185.67,534.87,1
1848,6,12125,1,12125,1,0.00029126,-1.8654e-09,0,0.00089289,-5.3167e-05,23.399,-511.85,0,2.4473e+08,147.86,12124,13096,1,13096,1,0.0019673,4.9943e-09,0,0.0019673,0.00026009,3.3953e+08,1583,0,5.6319e+08,491.32,13095,12124,1,12124,1,0.00029125,-1.6328e-09,0,0.00086902,-5.3234e-05,8.1947e+07,-382.42,0,2.5209e+08,113,12123,11201,1,11201,1,-0.0013847,-1.0006e-08,0,1.9102e-05,-0.00036612,-5.6319e+08,-2929.5,0,8.6495e+06,-235.05,11200,11662,1,11662,1,-0.00057776,-4.2752e-09,0,0.0004345,-0.00021544,-2.3495e+08,-1034.5,0,1.4221e+08,21.123,11661,12586,1,12586,1,0.0011603,6.7339e-10,0,0.0013035,0.00010898,2.5209e+08,152.4,0,3.1679e+08,274,12585,534.87,0,534.87,0,0.0010031,3.4242e-09,0,0.00054164,0.00018732,2.8116e+08,969.22,0,1.3828e+08,151.35,534.87,1
1848,6.01,12125,1,12125,1,0.00029241,-5.3389e-09,0,0.00089469,-5.3378e-05,-90.228,-1381,0,2.45e+08,107.57,12124,13096,1,13096,1,0.0019716,3.8702e-09,0,0.0019716,0.00026048,3.3942e+08,1140,0,5.6404e+08,590.21,13095,12124,1,12124,1,0.00029239,-5.1854e-09,0,0.00087068,-5.3446e-05,8.2269e+07,-1123.3,0,2.5238e+08,86.98,12123,11201,1,11201,1,-0.0013868,-1.8319e-08,0,1.8549e-05,-0.00036693,-5.6404e+08,-4827.7,0,8.4537e+06,-432.04,11200,11662,1,11662,1,-0.00057827,-9.2597e-09,0,0.00043533,-0.00021595,-2.3516e+08,-2471.7,0,1.4263e+08,-13.427,11661,12586,1,12586,1,0.0011631,-8.2596e-10,0,0.001306,0.00010908,2.5238e+08,-211.77,0,3.1692e+08,233.93,12585,534.87,0,534.87,0,0.001005,5.1426e-09,0,0.00054286,0.00018767,2.8146e+08,1421.8,0,1.3843e+08,150.79,534.87,1
1848,6.02,12125,1,12125,1,0.00029354,-1.1454e-09,0,0.00089641,-5.3586e-05,-39,-451.07,0,2.4524e+08,188.6,12124,13096,1,13096,1,0.0019758,1.0087e-08,0,0.0019758,0.00026084,3.3925e+08,1734.7,0,5.6482e+08,580.78,13095,12124,1,12124,1,0.00029353,-2.3268e-09,0,0.00087228,-5.3657e-05,8.259e+07,-624.65,0,2.5265e+08,131.81,12123,11201,1,11201,1,-0.0013887,-7.8592e-09,0,1.7981e-05,-0.00036771,-5.6482e+08,-1882.6,0,8.2525e+06,-58.517,11200,11662,1,11662,1,-0.00057873,-4.2753e-09,0,0.00043612,-0.00021646,-2.3534e+08,-1199.9,0,1.4305e+08,41.637,11661,12586,1,12586,1,0.0011658,8.0761e-10,0,0.0013084,0.00010917,2.5265e+08,168.9,0,3.1702e+08,304.49,12585,534.87,0,534.87,0,0.0010068,3.9784e-09,0,0.00054403,0.00018801,2.8173e+08,895.4,0,1.3855e+08,171.09,534.87,1
1848,6.03,12125,1,12125,1,0.0002947,1.8829e-09,0,0.00089825,-5.38e-05,-8.7826,320.04,0,2.4552e+08,12.398,12124,13096,1,13096,1,0.0019803,1.2828e-08,0,0.0019803,0.00026124,3.3916e+08,3164.5,0,5.6569e+08,297.02,13095,12124,1,12124,1,0.00029469,1.8722e-09,0,0.00087399,-5.3873e-05,8.2917e+07,387.27,0,2.5296e+08,-2.7422,12123,11201,1,11201,1,-0.0013909,-7.562e-09,0,1.7434e-05,-0.00036853,-5.6569e+08,-2285,0,8.0595e+06,-427.12,11200,11662,1,11662,1,-0.00057929,-1.4197e-09,0,0.00043698,-0.00021699,-2.3557e+08,-466.22,0,1.4349e+08,-81.936,11661,12586,1,12586,1,0.0011687,5.3356e-09,0,0.001311,0.00010927,2.5296e+08,1092.3,0,3.1718e+08,101.82,12585,534.87,0,534.87,0,0.0010088,4.7212e-09,0,0.00054528,0.00018838,2.8205e+08,1202.7,0,1.387e+08,119.24,534.87,1
1848,6.04,12125,1,12125,1,0.00029585,-3.4181e-09,0,0.00089998,-5.4012e-05,-82.937,-907.7,0,2.4576e+08,162.99,12124,13096,1,13096,1,0.0019845,6.4924e-09,0,0.0019845,0.00026161,3.3898e+08,1105.7,0,5.6648e+08,426.41,13095,12124,1,12124,1,0.00029585,-3.8011e-09,0,0.00087559,-5.4086e-05,8.3242e+07,-1037.3,0,2.5322e+08,149.57,12123,11201,1,11201,1,-0.0013928,-9.723e-09,0,1.6853e-05,-0.00036931,-5.6648e+08,-2332.9,0,7.8544e+06,-143.61,11200,11662,1,11662,1,-0.00057973,-6.1903e-09,0,0.00043778,-0.0002175,-2.3575e+08,-1717.1,0,1.4391e+08,53.664,11661,12586,1,12586,1,0.0011714,-4.9876e-10,0,0.0013134,0.00010936,2.5322e+08,-132.81,0,3.1727e+08,263.55,12585,534.87,0,534.87,0,0.0010107,3.7167e-09,0,0.00054646,0.00018872,2.8231e+08,878.94,0,1.3883e+08,127.12,534.87,1
1848,6.05,12125,1,12125,1,0.00029703,1.21e-10,0,0.00090179,-5.4228e-05,21.092,-105.65,0,2.4602e+08,54.783,12124,13096,1,13096,1,0.0019889,4.5119e-09,0,0.0019889,0.00026199,3.3884e+08,765.42,0,5.673e+08,368.41,13095,12124,1,12124,1,0.00029702,1.7111e-10,0,0.00087726,-5.4305e-05,8.3574e+07,39.586,0,2.535e+08,19.378,12123,11201,1,11201,1,-0.0013948,-4.6796e-09,0,1.6272e-05,-0.00037012,-5.673e+08,-1598.8,0,7.6496e+06,-161.2,11200,11662,1,11662,1,-0.00058023,-1.8327e-09,0,0.00043862,-0.00021802,-2.3595e+08,-565.42,0,1.4434e+08,-23.219,11661,12586,1,12586,1,0.0011743,2.0504e-09,0,0.0013159,0.00010945,2.535e+08,416.3,0,3.1739e+08,117.61,12585,534.87,0,534.87,0,0.0010126,2.4661e-09,0,0.00054769,0.00018908,2.8261e+08,626.27,0,1.3896e+08,109.24,534.87,1
1848,6.06,12125,1,12125,1,0.00029829,-3.8525e-09,0,0.00090365,-5.446e-05,19.284,-1041.5,0,2.4626e+08,28.558,12124,13096,1,13096,1,0.0019935,3.5218e-09,0,0.0019935,0.00026238,3.3868e+08,1007.2,0,5.6815e+08,402.48,13095,12124,1,12124,1,0.00029828,-2.8878e-09,0,0.00087897,-5.4538e-05,8.3928e+07,-677.12,0,2.5376e+08,14.682,12123,11201,1,11201,1,-0.0013969,-1.4281e-08,0,1.563e-05,-0.00037097,-5.6815e+08,-3835.8,0,7.4233e+06,-498.81,11200,11662,1,11662,1,-0.00058069,-7.4847e-09,0,0.00043948,-0.00021857,-2.3614e+08,-2040.5,0,1.4479e+08,-51.172,11661,12586,1,12586,1,0.0011772,-4.3178e-11,0,0.0013184,0.00010954,2.5376e+08,-6.4876,0,3.175e+08,104.53,12585,534.87,0,534.87,0,0.0010146,4.3298e-09,0,0.00054898,0.00018945,2.8289e+08,1200.8,0,1.391e+08,120.63,534.87,1
1848,6.07,12125,1,12125,1,0.00029955,-2.4024e-09,0,0.00090544,-5.4692e-05,49.561,-759.21,0,2.4648e+08,108.83,12124,13096,1,13096,1,0.0019979,5.061e-09,0,0.0019979,0.00026274,3.3845e+08,818.42,0,5.6892e+08,479.72,13095,12124,1,12124,1,0.00029954,-1.7663e-09,0,0.00088062,-5.4772e-05,8.4284e+07,-428.09,0,2.5399e+08,65.762,12123,11201,1,11201,1,-0.0013988,-9.941e-09,0,1.495e-05,-0.00037179,-5.6892e+08,-3034.3,0,7.1834e+06,-162.72,11200,11662,1,11662,1,-0.00058107,-5.2711e-09,0,0.00044029,-0.0002191,-2.3629e+08,-1523.9,0,1.4524e+08,12.241,11661,12586,1,12586,1,0.0011802,-5.1259e-11,0,0.0013209,0.00010961,2.5399e+08,-14.172,0,3.1756e+08,183.43,12585,534.87,0,534.87,0,0.0010165,3.4591e-09,0,0.00055022,0.0001898,2.8314e+08,977.22,0,1.3922e+08,130.68,534.87,1
1848,6.08,12125,1,12125,1,0.0003008,3.8883e-10,0,0.00090724,-5.4922e-05,11.953,-80.171,0,2.4671e+08,147.28,12124,13096,1,13096,1,0.0020024,1.1344e-08,0,0.0020024,0.0002631,3.3825e+08,2035.9,0,5.6971e+08,487.34,13095,12124,1,12124,1,0.00030079,-9.9479e-10,0,0.00088228,-5.5005e-05,8.4638e+07,-271.01,0,2.5423e+08,115.77,12123,11201,1,11201,1,-0.0014007,-5.028e-09,0,1.4291e-05,-0.0003726,-5.6971e+08,-1216.9,0,6.9512e+06,-122.43,11200,11662,1,11662,1,-0.00058147,-2.3246e-09,0,0.00044113,-0.00021964,-2.3646e+08,-702.06,0,1.455e+08,27.039,11661,12586,1,12586,1,0.0011831,2.2444e-09,0,0.0013234,0.00010969,2.5423e+08,419.67,0,3.1763e+08,254.07,12585,534.87,0,534.87,0,0.0010184,3.7008e-09,0,0.00055147,0.00019015,2.834e+08,787.37,0,1.3935e+08,144.59,534.87,1
1848,6.09,12125,1,12125,1,0.00030208,-3.0118e-09,0,0.00090913,-5.5158e-05,-39.443,-862.83,0,2.4695e+08,51.502,12124,13096,1,13096,1,0.002007,2.1735e-09,0,0.002007,0.00026349,3.3807e+08,323.18,0,5.7055e+08,298.44,13095,12124,1,12124,1,0.00030208,-2.588e-09,0,0.00088402,-5.5244e-05,8.5e+07,-656.36,0,2.5449e+08,30.644,12123,11201,1,11201,1,-0.0014028,-9.7726e-09,0,1.3631e-05,-0.00037346,-5.7055e+08,-2656.4,0,6.719e+06,-265.57,11200,11662,1,11662,1,-0.00058193,-5.272e-09,0,0.00044199,-0.0002202,-2.3664e+08,-1499.8,0,1.4574e+08,-5.5685,11661,12586,1,12586,1,0.0011861,-5.2847e-10,0,0.001326,0.00010978,2.5449e+08,-111.7,0,3.1774e+08,109.46,12585,534.87,0,534.87,0,0.0010204,2.9883e-09,0,0.00055277,0.00019052,2.8368e+08,854.91,0,1.3948e+08,84.655,534.87,1
1848,6.1,12125,1,12125,1,0.0003034,7.6546e-10,0,0.00091102,-5.5401e-05,-18.469,33.613,0,2.4719e+08,8.6546,12124,13096,1,13096,1,0.0020117,1.007e-08,0,0.0020117,0.00026387,3.3786e+08,3175.1,0,5.7138e+08,261.27,13095,12124,1,12124,1,0.00030339,8.1527e-10,0,0.00088576,-5.5488e-05,8.5371e+07,187.02,0,2.5474e+08,-3.2364,12123,11201,1,11201,1,-0.0014049,-5.409e-09,0,1.2935e-05,-0.00037432,-5.7138e+08,-1772.8,0,6.4749e+06,-2930,11200,11662,1,11662,1,-0.00058236,-2.0615e-09,0,0.00044287,-0.00022076,-2.3682e+08,-622.75,0,1.4598e+08,-42.263,11661,12586,1,12586,1,0.0011891,3.7399e-09,0,0.0013286,0.00010986,2.5474e+08,679.45,0,3.1781e+08,80.589,12585,534.87,0,534.87,0,0.0010224,3.2638e-09,0,0.00055408,0.0001909,2.8396e+08,822.32,0,1.3962e+08,207.34,534.87,1
1848,6.11,12125,1,12125,1,0.00030472,2.1656e-09,0,0.0009129,-5.5643e-05,-26.139,414.73,0,2.4742e+08,53.842,12124,13096,1,13096,1,0.0020163,7.5365e-09,0,0.0020163,0.00026425,3.3763e+08,1566.5,0,5.7219e+08,324.18,13095,12124,1,12124,1,0.00030471,2.0099e-09,0,0.00088748,-5.5733e-05,8.5743e+07,449.29,0,2.5498e+08,24.984,12123,11201,1,11201,1,-0.0014068,-2.4511e-09,0,1.2234e-05,-0.00037517,-5.7219e+08,-838.62,0,6.2283e+06,-460.51,11200,11662,1,11662,1,-0.00058276,-2.3546e-10,0,0.00044373,-0.00022132,-2.3698e+08,-66.802,0,1.4621e+08,-21.709,11661,12586,1,12586,1,0.0011922,4.2604e-09,0,0.0013312,0.00010994,2.5498e+08,897.55,0,3.1787e+08,148.24,12585,534.87,0,534.87,0,0.0010244,2.5825e-09,0,0.00055539,0.00019126,2.8422e+08,559.69,0,1.3974e+08,132.82,534.87,1
1848,6.12,12125,1,12125,1,0.00030602,-1.1906e-09,0,0.00091474,-5.5882e-05,-14.478,-337.11,0,2.4764e+08,119.78,12124,13096,1,13096,1,0.0020209,5.1275e-09,0,0.0020209,0.00026462,3.3739e+08,895.78,0,5.7299e+08,364.63,13095,12124,1,12124,1,0.00030602,-1.4356e-09,0,0.00088917,-5.5975e-05,8.611e+07,-373.49,0,2.5522e+08,109.17,12123,11201,1,11201,1,-0.0014088,-5.0755e-09,0,1.1537e-05,-0.00037602,-5.7299e+08,-1276.7,0,5.984e+06,-91.047,11200,11662,1,11662,1,-0.00058315,-3.0108e-09,0,0.00044458,-0.00022188,-2.3714e+08,-731.17,0,1.4644e+08,37.308,11661,12586,1,12586,1,0.0011952,4.077e-10,0,0.0013337,0.00011001,2.5522e+08,84.861,0,3.1793e+08,194.91,12585,534.87,0,534.87,0,0.0010263,2.0575e-09,0,0.00055667,0.00019163,2.8447e+08,508.49,0,1.3987e+08,96.862,534.87,1
1848,6.13,12125,1,12125,1,0.00030731,-1.0201e-10,0,0.00091656,-5.6119e-05,-1.9347,-104.4,0,2.4786e+08,114,12124,13096,1,13096,1,0.0020254,7.5092e-09,0,0.0020254,0.00026498,3.3716e+08,1375.9,0,5.7377e+08,403.7,13095,12124,1,12124,1,0.00030731,-6.2572e-10,0,0.00089084,-5.6215e-05,8.6475e+07,-175.49,0,2.5544e+08,87.992,12123,11201,1,11201,1,-0.0014107,-6.6358e-09,0,1.0843e-05,-0.00037685,-5.7377e+08,-1286.7,0,5.7408e+06,-268.79,11200,11662,1,11662,1,-0.00058353,-2.1601e-09,0,0.00044541,-0.00022242,-2.3729e+08,-624.95,0,1.4666e+08,9.7359,11661,12586,1,12586,1,0.0011981,1.5561e-09,0,0.0013362,0.00011008,2.5544e+08,332.31,0,3.1799e+08,209.75,12585,534.87,0,534.87,0,0.0010283,2.9368e-09,0,0.00055794,0.00019198,2.8472e+08,644.04,0,1.3999e+08,132.65,534.87,1
1848,6.14,12125,1,12125,1,0.00030863,-4.3219e-09,0,0.00091848,-5.6361e-05,-69.207,-1098.5,0,2.4811e+08,-3.3074,12124,13096,1,13096,1,0.0020302,1.464e-09,0,0.0020302,0.00026538,3.3697e+08,395.48,0,5.7464e+08,279.76,13095,12124,1,12124,1,0.00030863,-4.3251e-09,0,0.00089261,-5.646e-05,8.6846e+07,-1064.6,0,2.557e+08,-8.5114,12123,11201,1,11201,1,-0.0014129,-1.1198e-08,0,1.0157e-05,-0.00037773,-5.7464e+08,-2757.5,0,5.5012e+06,-410.6,11200,11662,1,11662,1,-0.00058398,-7.0351e-09,0,0.0004463,-0.00022299,-2.3748e+08,-1871.7,0,1.4691e+08,-52.247,11661,12586,1,12586,1,0.0012012,-1.4196e-09,0,0.0013389,0.00011017,2.557e+08,-289.06,0,3.1809e+08,35.175,12585,534.87,0,534.87,0,0.0010303,3.3452e-09,0,0.00055928,0.00019236,2.8501e+08,870.55,0,1.4013e+08,97.16,534.87,1
1848,6.15,12125,1,12125,1,0.00030998,-3.3245e-09,0,0.00092041,-5.661e-05,29.073,-951.86,0,2.4835e+08,-49.55,12124,13096,1,13096,1,0.0020349,8.666e-09,0,0.0020349,0.00026576,3.3673e+08,2100.6,0,5.7547e+08,474.83,13095,12124,1,12124,1,0.00030997,-2.062e-09,0,0.00089437,-5.671e-05,8.7227e+07,-496.24,0,2.5595e+08,-61.088,12123,11201,1,11201,1,-0.0014149,-2.0126e-08,0,9.4288e-06,-0.00037861,-5.7547e+08,-4913.2,0,5.246e+06,-882.18,11200,11662,1,11662,1,-0.00058438,-7.7967e-09,0,0.00044717,-0.00022356,-2.3764e+08,-2144.6,0,1.4715e+08,-152.83,11661,12586,1,12586,1,0.0012043,1.5014e-09,0,0.0013415,0.00011025,2.5595e+08,273.83,0,3.1815e+08,30.252,12585,534.87,0,534.87,0,0.0010324,6.2142e-09,0,0.00056062,0.00019274,2.8528e+08,1603.8,0,1.4026e+08,166.47,534.87,1
1848,6.16,12125,1,12125,1,0.00031132,5.2925e-10,0,0.00092225,-5.6854e-05,2.506,-74.918,0,2.4856e+08,154.08,12124,13096,1,13096,1,0.0020395,1.0124e-08,0,0.0020395,0.00026612,3.3647e+08,1677.1,0,5.7625e+08,571.15,13095,12124,1,12124,1,0.00031131,3.2026e-10,0,0.00089607,-5.6957e-05,8.7602e+07,74.463,0,2.5617e+08,120.8,12123,11201,1,11201,1,-0.0014168,-6.3483e-09,0,8.6989e-06,-0.00037945,-5.7625e+08,-2170.7,0,4.9902e+06,-96.738,11200,11662,1,11662,1,-0.00058475,-2.6406e-09,0,0.00044801,-0.00022412,-2.3779e+08,-816.85,0,1.4737e+08,34.257,11661,12586,1,12586,1,0.0012074,3.0516e-09,0,0.0013441,0.00011032,2.5617e+08,621.9,0,3.1818e+08,241.92,12585,534.87,0,534.87,0,0.0010343,3.8469e-09,0,0.00056192,0.0001931,2.8552e+08,928.03,0,1.4038e+08,148.76,534.87,1
1848,6.17,12125,1,12125,1,0.00031264,-4.1371e-10,0,0.00092414,-5.7098e-05,-52.319,-259.08,0,2.4879e+08,140.29,12124,13096,1,13096,1,0.0020442,7.643e-09,0,0.0020442,0.0002665,3.3624e+08,1527.2,0,5.7707e+08,518.79,13095,12124,1,12124,1,0.00031264,-2.2485e-10,0,0.00089781,-5.7204e-05,8.7977e+07,-53.273,0,2.5641e+08,109.64,12123,11201,1,11201,1,-0.0014189,-6.3315e-09,0,7.9928e-06,-0.00038031,-5.7707e+08,-2164.9,0,4.743e+06,-121.74,11200,11662,1,11662,1,-0.00058516,-3.2075e-09,0,0.00044889,-0.00022469,-2.3795e+08,-949.23,0,1.4761e+08,28.272,11661,12586,1,12586,1,0.0012104,1.8399e-09,0,0.0013467,0.00011039,2.5641e+08,352.68,0,3.1826e+08,223.04,12585,534.87,0,534.87,0,0.0010363,3.2974e-09,0,0.00056324,0.00019347,2.8579e+08,850.88,0,1.4052e+08,141.89,534.87,1
1848,6.18,12125,1,12125,1,0.00031397,5.0119e-09,0,0.00092597,-5.734e-05,15.997,1069.1,0,2.49e+08,163.49,12124,13096,1,13096,1,0.0020487,1.5347e-08,0,0.0020487,0.00026686,3.3598e+08,2846.7,0,5.7784e+08,689.1,13095,12124,1,12124,1,0.00031396,4.3669e-09,0,0.00089947,-5.745e-05,8.835e+07,1155.2,0,2.5662e+08,107.12,12123,11201,1,11201,1,-0.0014208,-2.8716e-09,0,7.27e-06,-0.00038114,-5.7784e+08,-982.92,0,4.4896e+06,-307.03,11200,11662,1,11662,1,-0.00058551,9.9145e-10,0,0.00044974,-0.00022524,-2.381e+08,268.03,0,1.4783e+08,23.812,11661,12586,1,12586,1,0.0012134,8.9137e-09,0,0.0013492,0.00011046,2.5662e+08,1850.7,0,3.1829e+08,261.75,12585,534.87,0,534.87,0,0.0010382,4.6801e-09,0,0.00056453,0.00019383,2.8603e+08,947.32,0,1.4064e+08,187,534.87,1
1848,6.19,12125,1,12125,1,0.00031527,-2.9182e-09,0,0.00092778,-5.7579e-05,-19.274,-710.55,0,2.4921e+08,184.95,12124,13096,1,13096,1,0.0020532,5.742e-09,0,0.0020532,0.00026722,3.3573e+08,990.79,0,5.7862e+08,479.68,13095,12124,1,12124,1,0.00031526,-2.7149e-09,0,0.00090114,-5.7692e-05,8.8717e+07,-766.29,0,2.5685e+08,172.65,12123,11201,1,11201,1,-0.0014227,-1.1313e-08,0,6.5687e-06,-0.00038198,-5.7862e+08,-2112.3,0,4.244e+06,-69.395,11200,11662,1,11662,1,-0.00058587,-4.7795e-09,0,0.00045057,-0.00022579,-2.3825e+08,-1194.2,0,1.4805e+08,63.823,11661,12586,1,12586,1,0.0012164,-8.8268e-10,0,0.0013517,0.00011053,2.5685e+08,-205.24,0,3.1833e+08,278.58,12585,534.87,0,534.87,0,0.0010402,2.99e-09,0,0.0005658,0.00019419,2.8627e+08,628.83,0,1.4076e+08,133.11,534.87,1
1848,6.2,12125,1,12125,1,0.0003166,8.2502e-10,0,0.00092971,-5.7824e-05,-28.762,144.49,0,2.4945e+08,29.683,12124,13096,1,13096,1,0.0020579,5.0468e-09,0,0.0020579,0.00026761,3.3552e+08,1293.1,0,5.7946e+08,255.4,13095,12124,1,12124,1,0.0003166,8.7025e-10,0,0.00090291,-5.794e-05,8.9094e+07,186.2,0,2.571e+08,19.046,12123,11201,1,11201,1,-0.0014247,-4.3317e-09,0,5.8651e-06,-0.00038285,-5.7946e+08,-1208.3,0,3.9977e+06,-140.42,11200,11662,1,11662,1,-0.00058631,-4.0692e-10,0,0.00045145,-0.00022636,-2.3842e+08,-121.32,0,1.483e+08,-10.038,11661,12586,1,12586,1,0.0012195,2.2111e-09,0,0.0013544,0.00011061,2.571e+08,442.23,0,3.1842e+08,50.769,12585,534.87,0,534.87,0,0.0010422,1.7668e-09,0,0.00056714,0.00019456,2.8655e+08,452.38,0,1.409e+08,63.821,534.87,1
1848,6.21,12125,1,12125,1,0.00031797,5.3022e-10,0,0.00093163,-5.8075e-05,98.393,104.49,0,2.4968e+08,6.3589,12124,13096,1,13096,1,0.0020627,1.2753e-08,0,0.0020627,0.00026799,3.3527e+08,3239.6,0,5.8029e+08,301.42,13095,12124,1,12124,1,0.00031797,4.7746e-10,0,0.00090467,-5.8195e-05,8.948e+07,97.043,0,2.5733e+08,17.129,12123,11201,1,11201,1,-0.0014268,-8.8581e-09,0,5.1248e-06,-0.00038373,-5.8029e+08,-2230.5,0,3.7384e+06,-357.39,11200,11662,1,11662,1,-0.0005867,-1.7496e-09,0,0.00045233,-0.00022694,-2.3858e+08,-501.15,0,1.4853e+08,-60.758,11661,12586,1,12586,1,0.0012226,2.0184e-09,0,0.001357,0.00011069,2.5733e+08,450.79,0,3.1847e+08,89.715,12585,534.87,0,534.87,0,0.0010442,3.6611e-09,0,0.0005685,0.00019494,2.8682e+08,988.17,0,1.4103e+08,120.43,534.87,1
1848,6.22,12125,1,12125,1,0.00031934,3.0636e-09,0,0.00093353,-5.8326e-05,19.82,714.55,0,2.499e+08,95.336,12124,13096,1,13096,1,0.0020674,1.2568e-08,0,0.0020674,0.00026836,3.35e+08,3435.3,0,5.8109e+08,429.51,13095,12124,1,12124,1,0.00031933,3.1796e-09,0,0.0009064,-5.8449e-05,8.9866e+07,646.07,0,2.5756e+08,76.92,12123,11201,1,11201,1,-0.0014287,-7.1122e-09,0,4.376e-06,-0.0003846,-5.8109e+08,-2069.6,0,3.476e+06,-260.73,11200,11662,1,11662,1,-0.00058706,2.4409e-10,0,0.0004532,-0.00022751,-2.3873e+08,66.114,0,1.4877e+08,-7.9421,11661,12586,1,12586,1,0.0012257,5.8374e-09,0,0.0013596,0.00011076,2.5756e+08,1309.2,0,3.1851e+08,180.34,12585,534.87,0,534.87,0,0.0010462,3.7475e-09,0,0.00056984,0.00019531,2.8707e+08,1020.3,0,1.4116e+08,131.47,534.87,1
1848,6.23,12125,1,12125,1,0.00032067,2.7961e-09,0,0.00093533,-5.857e-05,-61.528,689.71,0,2.5009e+08,266.23,12124,13096,1,13096,1,0.0020719,1.2235e-08,0,0.0020719,0.00026871,3.3471e+08,2198.7,0,5.8184e+08,700.89,13095,12124,1,12124,1,0.00032066,3.187e-09,0,0.00090804,-5.8694e-05,9.024e+07,843.2,0,2.5776e+08,247.58,12123,11201,1,11201,1,-0.0014306,-1.1023e-08,0,3.6332e-06,-0.00038543,-5.8184e+08,-1845.5,0,3.2155e+06,-303.09,11200,11662,1,11662,1,-0.00058738,6.0925e-11,0,0.00045402,-0.00022805,-2.3886e+08,14.156,0,1.4898e+08,92.11,11661,12586,1,12586,1,0.0012287,5.5105e-09,0,0.0013621,0.00011082,2.5776e+08,1427.4,0,3.1852e+08,425.73,12585,534.87,0,534.87,0,0.0010481,4.0678e-09,0,0.00057111,0.00019566,2.8729e+08,855.68,0,1.4127e+08,195.64,534.87,1
1848,6.24,12125,1,12125,1,0.00032199,-5.0316e-10,0,0.0009372,-5.8813e-05,0.060727,-22.194,0,2.5032e+08,145.4,12124,13096,1,13096,1,0.0020766,3.7433e-09,0,0.0020766,0.00026908,3.3447e+08,1106.8,0,5.8265e+08,474.69,13095,12124,1,12124,1,0.00032199,3.7406e-11,0,0.00090977,-5.8941e-05,9.0614e+07,9.7041,0,2.5799e+08,136.16,12123,11201,1,11201,1,-0.0014326,-8.1756e-09,0,2.9205e-06,-0.00038629,-5.8265e+08,-1370.6,0,2.9659e+06,-15.09,11200,11662,1,11662,1,-0.00058777,-1.466e-09,0,0.00045487,-0.00022862,-2.3902e+08,-319.73,0,1.4922e+08,42.517,11661,12586,1,12586,1,0.0012317,1.0668e-09,0,0.0013646,0.00011089,2.5799e+08,299.42,0,3.1858e+08,217.8,12585,534.87,0,534.87,0,0.0010501,2.3292e-09,0,0.00057243,0.00019603,2.8755e+08,496.26,0,1.414e+08,112.65,534.87,1
1848,6.25,12125,1,12125,1,0.00032336,-3.0179e-09,0,0.00093909,-5.9065e-05,2.35,-660.75,0,2.5053e+08,103.5,12124,13096,1,13096,1,0.0020813,1.2216e-09,0,0.0020813,0.00026945,3.3421e+08,418.12,0,5.8345e+08,384.22,13095,12124,1,12124,1,0.00032336,-3.1261e-09,0,0.00091149,-5.9196e-05,9.1001e+07,-725.26,0,2.5821e+08,98.542,12123,11201,1,11201,1,-0.0014345,-8.1434e-09,0,2.1696e-06,-0.00038715,-5.8345e+08,-1539.5,0,2.7027e+06,-118.35,11200,11662,1,11662,1,-0.00058813,-5.0319e-09,0,0.00045575,-0.00022919,-2.3916e+08,-1099.8,0,1.4944e+08,26.1,11661,12586,1,12586,1,0.0012349,-8.1016e-10,0,0.0013672,0.00011096,2.5821e+08,-213.04,0,3.1862e+08,160.17,12585,534.87,0,534.87,0,0.0010521,2.3675e-09,0,0.00057377,0.0001964,2.878e+08,503.25,0,1.4153e+08,87.867,534.87,1
1848,6.26,12125,1,12125,1,0.0003248,-2.7818e-09,0,0.000941,-5.9329e-05,31.021,-676.57,0,2.5073e+08,64.72,12124,13096,1,13096,1,0.0020861,1.5992e-09,0,0.0020861,0.00026981,3.3392e+08,390.68,0,5.8423e+08,350.2,13095,12124,1,12124,1,0.00032479,-3.0144e-09,0,0.00091324,-5.9463e-05,9.1406e+07,-648.86,0,2.584e+08,45.45,12123,11201,1,11201,1,-0.0014365,-7.4189e-09,0,1.3572e-06,-0.00038804,-5.8423e+08,-2017.6,0,2.4178e+06,-148.27,11200,11662,1,11662,1,-0.00058844,-4.5107e-09,0,0.00045662,-0.00022977,-2.3929e+08,-1132.8,0,1.4966e+08,1.0872,11661,12586,1,12586,1,0.001238,-7.9792e-10,0,0.0013699,0.00011102,2.584e+08,-178.13,0,3.1864e+08,114.11,12585,534.87,0,534.87,0,0.0010541,2.2407e-09,0,0.00057513,0.00019677,2.8804e+08,588.84,0,1.4166e+08,84.522,534.87,1
1848,6.27,12125,1,12125,1,0.00032627,-1.156e-09,0,0.00094296,-5.9599e-05,44.912,-349.62,0,2.5093e+08,63.836,12124,13096,1,13096,1,0.002091,2.8224e-09,0,0.002091,0.00027018,3.3361e+08,748.01,0,5.8503e+08,239.53,13095,12124,1,12124,1,0.00032626,-5.3478e-10,0,0.00091502,-5.9737e-05,9.1821e+07,-111.64,0,2.5859e+08,53.006,12123,11201,1,11201,1,-0.0014384,-6.8795e-09,0,5.1996e-07,-0.00038894,-5.8503e+08,-2152.2,0,2.124e+06,-159.81,11200,11662,1,11662,1,-0.00058875,-2.7208e-09,0,0.0004575,-0.00023037,-2.3941e+08,-754.21,0,1.4989e+08,0.24884,11661,12586,1,12586,1,0.0012413,3.3526e-10,0,0.0013725,0.00011108,2.5859e+08,74.865,0,3.1865e+08,124.35,12585,534.87,0,534.87,0,0.0010562,2.1316e-09,0,0.00057654,0.00019715,2.8827e+08,617.01,0,1.4178e+08,75.083,534.87,1
1848,6.28,12125,1,12125,1,0.00032777,2.4773e-09,0,0.00094495,-5.9874e-05,-12.833,509.69,0,2.5112e+08,108.96,12124,13096,1,13096,1,0.0020959,8.0292e-09,0,0.0020959,0.00027055,3.333e+08,1698,0,5.8583e+08,262.54,13095,12124,1,12124,1,0.00032776,2.5035e-09,0,0.00091681,-6.0015e-05,9.2244e+07,560.4,0,2.5878e+08,108.15,12123,11201,1,11201,1,-0.0014404,-3.1743e-09,0,3.249e-07,-0.00038986,-5.8583e+08,-1086,0,1.8227e+06,-76.454,11200,11662,1,11662,1,-0.00058905,3.8401e-10,0,0.00045841,-0.00023098,-2.3954e+08,96.056,0,1.5011e+08,27.681,11661,12586,1,12586,1,0.0012446,4.2928e-09,0,0.0013752,0.00011114,2.5878e+08,930.86,0,3.1866e+08,190.01,12585,534.87,0,534.87,0,0.0010583,2.4807e-09,0,0.00057791,0.00019754,2.8851e+08,548.98,0,1.4191e+08,86.401,534.87,1
1848,6.29,12125,1,12125,1,0.00032928,-1.2932e-09,0,0.000947,-6.0152e-05,23.142,-345.53,0,2.5132e+08,75.005,12124,13096,1,13096,1,0.0021009,4.5421e-09,0,0.0021009,0.00027092,3.3296e+08,1417.7,0,5.8663e+08,328.59,13095,12124,1,12124,1,0.00032928,-8.8731e-10,0,0.00091861,-6.0297e-05,9.267e+07,-174.42,0,2.5897e+08,56.816,12123,11201,1,11201,1,-0.0014423,-7.2911e-09,0,1.1983e-06,-0.00039078,-5.8663e+08,-2199.7,0,1.5177e+06,-197.16,11200,11662,1,11662,1,-0.00058933,-3.0611e-09,0,0.00045931,-0.00023159,-2.3965e+08,-817.61,0,1.5033e+08,-9.3153,11661,12586,1,12586,1,0.0012479,4.4709e-10,0,0.0013779,0.00011119,2.5897e+08,105.6,0,3.1865e+08,153.37,12585,534.87,0,534.87,0,0.0010603,2.5297e-09,0,0.00057924,0.00019792,2.8874e+08,734.77,0,1.4203e+08,102.94,534.87,1
1848,6.3,12125,1,12125,1,0.0003308,2.0831e-09,0,0.00094903,-6.0431e-05,19.567,440.62,0,2.5151e+08,111.99,12124,13096,1,13096,1,0.0021059,6.504e-09,0,0.0021059,0.00027128,3.3262e+08,1810.3,0,5.8741e+08,364.4,13095,12124,1,12124,1,0.0003308,2.361e-09,0,0.00092041,-6.058e-05,9.3099e+07,531.4,0,2.5915e+08,93.518,12123,11201,1,11201,1,-0.0014443,-4.3181e-09,0,2.0746e-06,-0.00039169,-5.8741e+08,-1476.6,0,1.209e+06,-222.77,11200,11662,1,11662,1,-0.00058961,-1.9227e-10,0,0.0004602,-0.0002322,-2.3976e+08,-54.89,0,1.5055e+08,18.406,11661,12586,1,12586,1,0.0012512,4.6094e-09,0,0.0013806,0.00011125,2.5915e+08,986.62,0,3.1864e+08,205.98,12585,534.87,0,534.87,0,0.0010624,2.7942e-09,0,0.00058056,0.00019831,2.8896e+08,699.03,0,1.4216e+08,114.03,534.87,1
1848,6.31,12125,1,12125,1,0.00033231,-2.1028e-10,0,0.00095102,-6.0707e-05,-12.982,-56.232,0,2.5168e+08,157.65,12124,13096,1,13096,1,0.0021108,8.5455e-09,0,0.0021108,0.00027163,3.3226e+08,1440.3,0,5.8817e+08,406.43,13095,12124,1,12124,1,0.0003323,-3.2116e-10,0,0.00092215,-6.0859e-05,9.3524e+07,-80.916,0,2.5932e+08,172.93,12123,11201,1,11201,1,-0.0014461,-8.2236e-09,0,2.9581e-06,-0.00039259,-5.8817e+08,-1381.4,0,9.0017e+05,-979.14,11200,11662,1,11662,1,-0.00058985,-1.4492e-09,0,0.00046108,-0.0002328,-2.3986e+08,-374.84,0,1.5076e+08,57.662,11661,12586,1,12586,1,0.0012545,9.6987e-10,0,0.0013832,0.00011129,2.5932e+08,258.53,0,3.1862e+08,284.77,12585,534.87,0,534.87,0,0.0010644,2.6483e-09,0,0.00058186,0.00019868,2.8917e+08,513.36,0,1.4227e+08,179.44,534.87,1
1848,6.32,12125,1,12125,1,0.00033382,2.2487e-09,0,0.00095308,-6.0984e-05,-1.4262,542.6,0,2.5188e+08,70.591,12124,13096,1,13096,1,0.0021158,5.9234e-09,0,0.0021158,0.00027201,3.3194e+08,1751,0,5.8898e+08,253.08,13095,12124,1,12124,1,0.00033382,2.4666e-09,0,0.00092396,-6.1141e-05,9.3951e+07,574.7,0,2.5951e+08,84.562,12123,11201,1,11201,1,-0.0014481,-2.1764e-09,0,3.827e-06,-0.00039351,-5.8898e+08,-566.83,0,5.9609e+05,-1584.3,11200,11662,1,11662,1,-0.00059015,5.6529e-10,0,0.00046198,-0.00023341,-2.3998e+08,135.43,0,1.5099e+08,19.013,11661,12586,1,12586,1,0.0012578,3.9568e-09,0,0.0013859,0.00011135,2.5951e+08,879.48,0,3.1862e+08,162.7,12585,534.87,0,534.87,0,0.0010665,1.9512e-09,0,0.00058319,0.00019907,2.894e+08,493.25,0,1.424e+08,200.67,534.87,1
1848,6.33,12125,1,12125,1,0.00033535,-2.4159e-09,0,0.00095512,-6.1265e-05,45.732,-537.1,0,2.5206e+08,89.692,12124,13096,1,13096,1,0.0021208,2.529e-09,0,0.0021208,0.00027237,3.3159e+08,865.2,0,5.8977e+08,384.14,13095,12124,1,12124,1,0.00033535,-2.5122e-09,0,0.00092577,-6.1426e-05,9.4384e+07,-517.21,0,2.5968e+08,82.306,12123,11201,1,11201,1,-0.0014501,-7.9454e-09,0,4.7145e-06,-0.00039444,-5.8977e+08,-2211.9,0,2.8306e+05,-156.29,11200,11662,1,11662,1,-0.00059041,-4.2743e-09,0,0.00046288,-0.00023402,-2.4009e+08,-888.05,0,1.5121e+08,10.683,11661,12586,1,12586,1,0.0012611,-2.379e-10,0,0.0013887,0.0001114,2.5968e+08,-66.568,0,3.186e+08,162.56,12585,534.87,0,534.87,0,0.0010686,2.5058e-09,0,0.00058452,0.00019945,2.8963e+08,661.72,0,1.4252e+08,94.772,534.87,1
1848,6.34,12125,1,12125,1,0.00033689,-1.9003e-09,0,0.00095717,-6.1546e-05,95.346,-468.7,0,2.5225e+08,94.832,12124,13096,1,13096,1,0.0021258,2.321e-09,0,0.0021258,0.00027273,3.3123e+08,793.6,0,5.9055e+08,382.77,13095,12124,1,12124,1,0.00033689,-1.7656e-09,0,0.00092756,-6.1712e-05,9.4817e+07,-371.71,0,2.5986e+08,75.084,12123,11201,1,11201,1,-0.001452,-8.0874e-09,0,5.6118e-06,-0.00039536,-5.9055e+08,-2404.3,0,28270,-103.6,11200,11662,1,11662,1,-0.00059067,-3.3807e-09,0,0.00046378,-0.00023464,-2.402e+08,-739.7,0,1.5143e+08,13.147,11661,12586,1,12586,1,0.0012644,-6.3752e-11,0,0.0013913,0.00011145,2.5986e+08,-15.925,0,3.1858e+08,173,12585,534.87,0,534.87,0,0.0010707,2.36e-09,0,0.00058586,0.00019983,2.8985e+08,673.33,0,1.4264e+08,95.136,534.87,1
1848,6.35,12125,1,12125,1,0.00033844,3.2425e-09,0,0.00095924,-6.183e-05,41.896,740.76,0,2.5246e+08,92.262,12124,13096,1,13096,1,0.0021309,8.7572e-09,0,0.0021309,0.0002731,3.3089e+08,2371.5,0,5.9135e+08,382.35,13095,12124,1,12124,1,0.00033844,3.5355e-09,0,0.00092938,-6.2e-05,9.5254e+07,785.72,0,2.6004e+08,59.544,12123,11201,1,11201,1,-0.001454,-3.5651e-09,0,6.5068e-06,-0.00039629,-5.9135e+08,-1219.8,0,3.4203e+05,-180.92,11200,11662,1,11662,1,-0.00059095,7.5881e-10,0,0.00046469,-0.00023526,-2.4031e+08,172.16,0,1.5165e+08,8.4274,11661,12586,1,12586,1,0.0012678,5.7172e-09,0,0.0013941,0.0001115,2.6004e+08,1240.4,0,3.1857e+08,173.6,12585,534.87,0,534.87,0,0.0010728,2.8503e-09,0,0.00058721,0.00020022,2.9008e+08,716.95,0,1.4273e+08,116.25,534.87,1
1848,6.36,12125,1,12125,1,0.00034,-7.7873e-10,0,0.0009613,-6.2115e-05,33.96,-157.75,0,2.5267e+08,118.85,12124,13096,1,13096,1,0.0021359,5.0243e-09,0,0.0021359,0.00027347,3.3052e+08,1689,0,5.9214e+08,427.68,13095,12124,1,12124,1,0.00033999,-8.2565e-10,0,0.00093119,-6.2289e-05,9.5693e+07,-164.33,0,2.6021e+08,92.081,12123,11201,1,11201,1,-0.0014559,-7.2659e-09,0,7.4178e-06,-0.00039722,-5.9214e+08,-2277.8,0,6.6158e+05,-86.091,11200,11662,1,11662,1,-0.0005912,-2.6005e-09,0,0.0004656,-0.00023588,-2.4041e+08,-522.54,0,1.5187e+08,16.695,11661,12586,1,12586,1,0.0012712,1.0006e-09,0,0.0013968,0.00011155,2.6021e+08,234.6,0,3.1854e+08,216.08,12585,534.87,0,534.87,0,0.0010749,2.6794e-09,0,0.00058856,0.00020061,2.9029e+08,763.53,0,1.4281e+08,118.75,534.87,1
1848,6.37,12125,1,12125,1,0.00034153,-1.5825e-10,0,0.00096329,-6.2395e-05,-26.005,-26.763,0,2.5285e+08,231.32,12124,13096,1,13096,1,0.0021408,1.2671e-08,0,0.0021408,0.00027381,3.3013e+08,2202,0,5.9288e+08,617.93,13095,12124,1,12124,1,0.00034153,8.8217e-12,0,0.00093293,-6.2574e-05,9.6125e+07,2.2392,0,2.6036e+08,211.68,12123,11201,1,11201,1,-0.0014577,-1.2403e-08,0,8.3292e-06,-0.00039812,-5.9288e+08,-2184.3,0,9.8121e+05,-116.14,11200,11662,1,11662,1,-0.00059141,-1.6725e-09,0,0.00046647,-0.00023648,-2.405e+08,-426.83,0,1.5208e+08,81.479,11661,12586,1,12586,1,0.0012745,1.0329e-09,0,0.0013994,0.00011159,2.6036e+08,255.29,0,3.1849e+08,361.22,12585,534.87,0,534.87,0,0.0010769,4.4634e-09,0,0.00058986,0.00020098,2.9049e+08,826.55,0,1.4288e+08,163.98,534.87,1
1848,6.38,12125,1,12125,1,0.00034307,2.6793e-09,0,0.00096536,-6.2678e-05,9.7168,662.3,0,2.5307e+08,54.786,12124,13096,1,13096,1,0.0021459,7.6918e-09,0,0.0021459,0.00027418,3.2979e+08,1910.7,0,5.9369e+08,336.64,13095,12124,1,12124,1,0.00034307,2.8642e-09,0,0.00093476,-6.2861e-05,9.6559e+07,670.69,0,2.6054e+08,46.656,12123,11201,1,11201,1,-0.0014597,-2.52e-09,0,9.221e-06,-0.00039906,-5.9369e+08,-494.39,0,1.2936e+06,-161.15,11200,11662,1,11662,1,-0.00059169,6.3641e-10,0,0.00046738,-0.0002371,-2.4061e+08,143.48,0,1.5231e+08,-2.6839,11661,12586,1,12586,1,0.0012778,4.598e-09,0,0.0014021,0.00011165,2.6054e+08,1079,0,3.1849e+08,105.23,12585,534.87,0,534.87,0,0.001079,2.401e-09,0,0.00059121,0.00020137,2.9072e+08,606.02,0,1.4298e+08,81.735,534.87,1
1848,6.39,12125,1,12125,1,0.00034466,-4.3284e-09,0,0.00096749,-6.297e-05,71.653,-951.29,0,2.5329e+08,-51.11,12124,13096,1,13096,1,0.0021511,1.0397e-08,0,0.0021511,0.00027457,3.2945e+08,2683,0,5.9452e+08,631.41,13095,12124,1,12124,1,0.00034466,-3.3183e-09,0,0.00093664,-6.3158e-05,9.7009e+07,-703.5,0,2.6073e+08,-50.411,12123,11201,1,11201,1,-0.0014617,-1.7413e-08,0,1.0138e-05,-0.00040002,-5.9452e+08,-4461,0,1.6144e+06,-512.88,11200,11662,1,11662,1,-0.00059198,-9.6114e-09,0,0.00046832,-0.00023774,-2.4073e+08,-2125.6,0,1.5254e+08,-164.01,11661,12586,1,12586,1,0.0012813,4.8854e-10,0,0.001405,0.0001117,2.6073e+08,121.12,0,3.1848e+08,70.518,12585,534.87,0,534.87,0,0.0010812,6.4636e-09,0,0.00059261,0.00020177,2.9096e+08,1622.3,0,1.4307e+08,187.74,534.87,1
1848,6.4,12125,1,12125,1,0.00034626,1.0405e-09,0,0.00096957,-6.3262e-05,-89.302,231.76,0,2.5348e+08,150.93,12124,13096,1,13096,1,0.0021562,8.6236e-09,0,0.0021562,0.00027492,3.2904e+08,2568.6,0,5.9529e+08,462.12,13095,12124,1,12124,1,0.00034626,9.9178e-10,0,0.00093845,-6.3454e-05,9.746e+07,213.41,0,2.6089e+08,113.03,12123,11201,1,11201,1,-0.0014636,-5.9952e-09,0,1.1086e-05,-0.00040096,-5.9529e+08,-2047.8,0,1.9466e+06,-92.262,11200,11662,1,11662,1,-0.0005922,-1.2205e-09,0,0.00046923,-0.00023837,-2.4082e+08,-262.98,0,1.5276e+08,27.37,11661,12586,1,12586,1,0.0012847,3.3673e-09,0,0.0014077,0.00011175,2.6089e+08,741.23,0,3.1843e+08,272.95,12585,534.87,0,534.87,0,0.0010832,3.2271e-09,0,0.00059398,0.00020216,2.9117e+08,875.79,0,1.4315e+08,149.96,534.87,1
1848,6.41,12125,1,12125,1,0.00034785,3.5807e-09,0,0.00097165,-6.3553e-05,93.445,865.41,0,2.5368e+08,140.56,12124,13096,1,13096,1,0.0021613,1.4122e-08,0,0.0021613,0.00027529,3.2866e+08,4077,0,5.9608e+08,566.8,13095,12124,1,12124,1,0.00034784,3.8545e-09,0,0.00094027,-6.3748e-05,9.7907e+07,856.11,0,2.6105e+08,109.07,12123,11201,1,11201,1,-0.0014656,-5.6304e-09,0,1.2024e-05,-0.0004019,-5.9608e+08,-1925,0,2.2746e+06,-276.11,11200,11662,1,11662,1,-0.00059243,8.3774e-11,0,0.00047014,-0.00023899,-2.4091e+08,19.363,0,1.5298e+08,8.3133,11661,12586,1,12586,1,0.0012881,6.7633e-09,0,0.0014104,0.00011179,2.6105e+08,1476.5,0,3.184e+08,274.64,12585,534.87,0,534.87,0,0.0010854,3.9834e-09,0,0.00059535,0.00020255,2.9139e+08,1069.6,0,1.4323e+08,175.83,534.87,1
1848,6.42,12125,1,12125,1,0.0003494,-2.7543e-09,0,0.00097362,-6.3836e-05,-6.0117,-577.03,0,2.5385e+08,310.32,12124,13096,1,13096,1,0.0021661,1.2076e-08,0,0.0021661,0.00027561,3.2824e+08,1993,0,5.9678e+08,727.3,13095,12124,1,12124,1,0.00034939,-1.8437e-09,0,0.00094199,-6.4036e-05,9.8344e+07,-526.26,0,2.6118e+08,302.4,12123,11201,1,11201,1,-0.0014673,-2.0109e-08,0,1.2954e-05,-0.00040279,-5.9678e+08,-3461.6,0,2.5998e+06,-48.696,11200,11662,1,11662,1,-0.00059261,-4.7625e-09,0,0.000471,-0.0002396,-2.4098e+08,-963.6,0,1.5318e+08,116.65,11661,12586,1,12586,1,0.0012914,1.9728e-10,0,0.001413,0.00011183,2.6118e+08,58.01,0,3.1832e+08,484.7,12585,534.87,0,534.87,0,0.0010873,5.35e-09,0,0.00059665,0.00020292,2.9157e+08,954.65,0,1.433e+08,210.82,534.87,1
1848,6.43,12125,1,12125,1,0.00035096,3.1735e-09,0,0.00097572,-6.4122e-05,34.02,787.54,0,2.5407e+08,116.33,12124,13096,1,13096,1,0.0021713,7.7668e-09,0,0.0021713,0.000276,3.2791e+08,2182.1,0,5.9761e+08,453.18,13095,12124,1,12124,1,0.00035096,3.5326e-09,0,0.00094385,-6.4328e-05,9.8785e+07,842.6,0,2.6136e+08,91.119,12123,11201,1,11201,1,-0.0014694,-3.4833e-09,0,1.3863e-05,-0.00040374,-5.9761e+08,-503.49,0,2.9169e+06,-175.22,11200,11662,1,11662,1,-0.00059289,7.1713e-10,0,0.00047193,-0.00024022,-2.411e+08,148.15,0,1.5341e+08,16.229,11661,12586,1,12586,1,0.0012948,5.7604e-09,0,0.0014158,0.00011188,2.6136e+08,1314.4,0,3.1832e+08,211.94,12585,534.87,0,534.87,0,0.0010895,2.8656e-09,0,0.00059803,0.00020331,2.9181e+08,703.14,0,1.434e+08,118.27,534.87,1
1848,6.44,12125,1,12125,1,0.00035254,-8.08e-10,0,0.00097775,-6.4411e-05,-72.345,-88.993,0,2.5426e+08,183.19,12124,13096,1,13096,1,0.0021763,8.1072e-09,0,0.0021763,0.00027634,3.275e+08,1446.4,0,5.9835e+08,588.72,13095,12124,1,12124,1,0.00035253,2.7381e-10,0,0.00094562,-6.4621e-05,9.923e+07,80.677,0,2.6151e+08,148.37,12123,11201,1,11201,1,-0.0014712,-1.1568e-08,0,1.4805e-05,-0.00040466,-5.9835e+08,-1958.3,0,3.2457e+06,-114.3,11200,11662,1,11662,1,-0.00059309,-2.4012e-09,0,0.00047281,-0.00024084,-2.4118e+08,-458.34,0,1.5362e+08,51.09,11661,12586,1,12586,1,0.0012982,1.1224e-09,0,0.0014184,0.00011192,2.6151e+08,339.75,0,3.1826e+08,284.65,12585,534.87,0,534.87,0,0.0010915,3.6417e-09,0,0.00059937,0.00020369,2.92e+08,672.53,0,1.4347e+08,152.74,534.87,1
1848,6.45,12125,1,12125,1,0.00035414,7.6868e-10,0,0.00097981,-6.4703e-05,65.317,267.47,0,2.5445e+08,62.694,12124,13096,1,13096,1,0.0021813,5.8125e-09,0,0.0021813,0.00027669,3.2711e+08,1398.4,0,5.9912e+08,226.07,13095,12124,1,12124,1,0.00035413,1.2636e-09,0,0.00094742,-6.4919e-05,9.9677e+07,342.54,0,2.6166e+08,58.583,12123,11201,1,11201,1,-0.0014731,-6.5501e-09,0,1.5759e-05,-0.00040559,-5.9912e+08,-1099.5,0,3.5783e+06,-240.57,11200,11662,1,11662,1,-0.0005933,-9.7164e-11,0,0.00047372,-0.00024147,-2.4126e+08,-16.815,0,1.5383e+08,11.528,11661,12586,1,12586,1,0.0013016,2.2376e-09,0,0.0014211,0.00011196,2.6166e+08,659.41,0,3.1821e+08,118.87,12585,534.87,0,534.87,0,0.0010936,2.3655e-09,0,0.00060073,0.00020408,2.9221e+08,500.92,0,1.4355e+08,72.549,534.87,1
1848,6.46,12125,1,12125,1,0.00035581,2.4218e-09,0,0.00098194,-6.5009e-05,-31.729,673.42,0,2.5463e+08,61.568,12124,13096,1,13096,1,0.0021866,6.7077e-09,0,0.0021866,0.00027706,3.2671e+08,1736.3,0,5.999e+08,377.7,13095,12124,1,12124,1,0.00035581,2.6745e-09,0,0.00094928,-6.523e-05,1.0014e+08,668.96,0,2.6179e+08,65.674,12123,11201,1,11201,1,-0.001475,-2.9509e-09,0,1.677e-05,-0.00040657,-5.999e+08,-460.68,0,3.9306e+06,-466.68,11200,11662,1,11662,1,-0.00059348,3.4731e-10,0,0.00047465,-0.00024212,-2.4134e+08,79.625,0,1.5403e+08,-0.58667,11661,12586,1,12586,1,0.0013051,4.5034e-09,0,0.0014239,0.00011199,2.6179e+08,1297.5,0,3.1816e+08,138.75,12585,534.87,0,534.87,0,0.0010957,2.4698e-09,0,0.00060214,0.00020447,2.9241e+08,644.38,0,1.4364e+08,128.44,534.87,1
1848,6.47,12125,1,12125,1,0.00035752,-2.2189e-09,0,0.00098408,-6.5323e-05,-8.7651,-347.07,0,2.5481e+08,-50.954,12124,13096,1,13096,1,0.0021919,1.6169e-09,0,0.0021919,0.0002774,3.2627e+08,553.33,0,6.0065e+08,68.223,13095,12124,1,12124,1,0.00035752,-1.3996e-09,0,0.00095113,-6.5549e-05,1.0061e+08,-328.15,0,2.6191e+08,-7.2826,12123,11201,1,11201,1,-0.0014768,-7.5202e-09,0,1.7815e-05,-0.00040754,-6.0065e+08,-1255,0,4.2944e+06,-679.59,11200,11662,1,11662,1,-0.00059362,-4.976e-09,0,0.00047558,-0.00024277,-2.414e+08,-879.63,0,1.5422e+08,-69.344,11661,12586,1,12586,1,0.0013087,5.5774e-10,0,0.0014267,0.00011202,2.6191e+08,190.75,0,3.1808e+08,15.971,12585,534.87,0,534.87,0,0.0010979,2.8729e-09,0,0.00060357,0.00020487,2.926e+08,542.8,0,1.4371e+08,121.05,534.87,1
1848,6.48,12125,1,12125,1,0.00035926,3.058e-09,0,0.00098625,-6.5641e-05,152.13,849.66,0,2.5498e+08,-62.121,12124,13096,1,13096,1,0.0021973,1.086e-08,0,0.0021973,0.00027776,3.2582e+08,2806.1,0,6.0144e+08,216.18,13095,12124,1,12124,1,0.00035926,3.265e-09,0,0.00095302,-6.5872e-05,1.0109e+08,832.46,0,2.6204e+08,-35.332,12123,11201,1,11201,1,-0.0014788,-1.8049e-09,0,1.8882e-05,-0.00040853,-6.0144e+08,-383.4,0,4.6653e+06,-735.39,11200,11662,1,11662,1,-0.00059377,5.95e-10,0,0.00047652,-0.00024344,-2.4145e+08,132.84,0,1.5442e+08,-96.972,11661,12586,1,12586,1,0.0013123,5.0475e-09,0,0.0014295,0.00011205,2.6204e+08,1428,0,3.1799e+08,5.5949,12585,534.87,0,534.87,0,0.0011001,2.8101e-09,0,0.00060502,0.00020527,2.9279e+08,775.26,0,1.4379e+08,122.2,534.87,1
1848,6.49,12125,1,12125,1,0.00036101,-4.9993e-09,0,0.00098841,-6.5961e-05,65.681,-971.99,0,2.5515e+08,-22.186,12124,13096,1,13096,1,0.0022026,3.5568e-09,0,0.0022026,0.00027811,3.2537e+08,1216.1,0,6.0218e+08,256.12,13095,12124,1,12124,1,0.00036101,-4.2535e-09,0,0.0009549,-6.6198e-05,1.0158e+08,-927.82,0,2.6215e+08,29.61,12123,11201,1,11201,1,-0.0014806,-1.5356e-08,0,1.9959e-05,-0.00040951,-6.0218e+08,-2794.4,0,5.0391e+06,-1002.7,11200,11662,1,11662,1,-0.0005939,-8.9121e-09,0,0.00047746,-0.00024411,-2.4151e+08,-1750.2,0,1.5461e+08,-72.152,11661,12586,1,12586,1,0.0013159,-8.9688e-10,0,0.0014324,0.00011208,2.6215e+08,-178.76,0,3.1791e+08,112.9,12585,534.87,0,534.87,0,0.0011022,4.7527e-09,0,0.00060646,0.00020567,2.9297e+08,912.56,0,1.4386e+08,214.59,534.87,1
1848,6.5,12125,1,12125,1,0.00036277,-2.2223e-09,0,0.00099058,-6.6283e-05,129.52,-420.01,0,2.5532e+08,-22.932,12124,13096,1,13096,1,0.002208,1.0902e-08,0,0.002208,0.00027846,3.249e+08,3204.6,0,6.0295e+08,409.48,13095,12124,1,12124,1,0.00036277,-1.1022e-09,0,0.00095679,-6.6524e-05,1.0206e+08,-200.8,0,2.6227e+08,4.066,12123,11201,1,11201,1,-0.0014825,-1.4724e-08,0,2.1054e-05,-0.00041051,-6.0295e+08,-3343.3,0,5.4186e+06,-679.71,11200,11662,1,11662,1,-0.00059402,-6.3416e-09,0,0.0004784,-0.00024478,-2.4156e+08,-1392.2,0,1.548e+08,-129.83,11661,12586,1,12586,1,0.0013196,1.3201e-09,0,0.0014352,0.0001121,2.6227e+08,400.69,0,3.1778e+08,75.087,12585,534.87,0,534.87,0,0.0011044,5.8097e-09,0,0.00060791,0.00020607,2.9315e+08,1441.5,0,1.4394e+08,195.8,534.87,1
1848,6.51,12125,1,12125,1,0.00036455,-4.3519e-10,0,0.00099282,-6.661e-05,-15.351,-65.278,0,2.555e+08,-183.85,12124,13096,1,13096,1,0.0022136,7.3275e-09,0,0.0022136,0.00027883,3.2445e+08,2505.4,0,6.0374e+08,52.178,13095,12124,1,12124,1,0.00036456,-5.7071e-10,0,0.00095872,-6.6857e-05,1.0256e+08,-115.46,0,2.6239e+08,-164.11,12123,11201,1,11201,1,-0.0014844,-7.6336e-09,0,2.2149e-05,-0.00041152,-6.0374e+08,-2273.2,0,5.7971e+06,-849.73,11200,11662,1,11662,1,-0.00059417,-2.1745e-09,0,0.00047937,-0.00024546,-2.4162e+08,-468.73,0,1.5501e+08,-286.16,11661,12586,1,12586,1,0.0013233,1.0992e-09,0,0.0014381,0.00011213,2.6239e+08,246.39,0,3.1736e+08,-37.01,12585,534.87,0,534.87,0,0.0011066,2.7697e-09,0,0.00060941,0.00020649,2.9335e+08,771.33,0,1.4402e+08,169.97,534.87,1
1848,6.52,12125,1,12125,1,0.00036638,3.7275e-11,0,0.00099509,-6.6945e-05,-4.4569,45.729,0,2.5568e+08,-275.14,12124,13096,1,13096,1,0.0022192,1.0538e-08,0,0.0022192,0.0002792,3.2398e+08,1901,0,6.0454e+08,1.3893,13095,12124,1,12124,1,0.00036639,2.0513e-10,0,0.00096069,-6.7198e-05,1.0306e+08,50.037,0,2.6252e+08,-263.41,12123,11201,1,11201,1,-0.0014864,-1.2346e-08,0,2.3274e-05,-0.00041256,-6.0454e+08,-1963.9,0,6.1853e+06,-1099.9,11200,11662,1,11662,1,-0.00059431,-1.3754e-09,0,0.00048036,-0.00024616,-2.4168e+08,-335.58,0,1.5521e+08,-414.31,11661,12586,1,12586,1,0.0013271,1.833e-09,0,0.0014411,0.00011216,2.6252e+08,446.74,0,3.1692e+08,-82.847,12585,534.87,0,534.87,0,0.0011089,3.3518e-09,0,0.00061093,0.00020691,2.9355e+08,677.44,0,1.441e+08,210.74,534.87,1
1848,6.53,12125,1,12125,1,0.00036818,-9.0502e-09,0,0.00099722,-6.7274e-05,54.78,-2110.8,0,2.5581e+08,-107.02,12124,13096,1,13096,1,0.0022246,1.0711e-08,0,0.0022246,0.00027954,3.2345e+08,3529.7,0,6.0528e+08,425.15,13095,12124,1,12124,1,0.00036819,-7.4066e-09,0,0.00096254,-6.7532e-05,1.0356e+08,-1507.9,0,2.6259e+08,-77.221,12123,11201,1,11201,1,-0.0014882,-3.3991e-08,0,2.442e-05,-0.00041356,-6.0528e+08,-8705.1,0,6.5803e+06,-1078.9,11200,11662,1,11662,1,-0.00059435,-1.6227e-08,0,0.00048127,-0.00024683,-2.4169e+08,-3773.6,0,1.5539e+08,-234.89,11661,12586,1,12586,1,0.0013307,-1.2381e-09,0,0.0014438,0.00011217,2.6259e+08,-249.33,0,3.1641e+08,73.299,12585,534.87,0,534.87,0,0.001111,1.0039e-08,0,0.00061237,0.0002073,2.937e+08,2641.2,0,1.4416e+08,261.64,534.87,1
1848,6.54,12125,1,12125,1,0.00037001,1.6428e-09,0,0.00099954,-6.7609e-05,2.0625,168.83,0,2.5602e+08,-418.99,12124,13096,1,13096,1,0.0022303,2.1696e-08,0,0.0022303,0.00027992,3.2302e+08,3433,0,6.061e+08,-0.83542,13095,12124,1,12124,1,0.00037002,7.9117e-10,0,0.00096454,-6.7873e-05,1.0407e+08,187.95,0,2.6274e+08,-390.09,12123,11201,1,11201,1,-0.0014902,-1.3434e-08,0,2.5516e-05,-0.00041461,-6.061e+08,-3089.7,0,6.9564e+06,-1356.5,11200,11662,1,11662,1,-0.00059454,-2.6799e-09,0,0.00048229,-0.00024754,-2.4177e+08,-691.4,0,1.5561e+08,-663.74,11661,12586,1,12586,1,0.0013346,4.5035e-09,0,0.0014469,0.0001122,2.6274e+08,1023.4,0,3.1601e+08,-126.05,12585,534.87,0,534.87,0,0.0011134,6.4544e-09,0,0.00061393,0.00020773,2.9392e+08,1322.3,0,1.4426e+08,320.62,534.87,1
1848,6.55,12125,1,12125,1,0.00037189,-9.6143e-10,0,0.0010018,-6.7953e-05,52.255,-408.18,0,2.5618e+08,-435.65,12124,13096,1,13096,1,0.002236,1.8973e-08,0,0.002236,0.00028029,3.2251e+08,3009,0,6.0689e+08,88.601,13095,12124,1,12124,1,0.0003719,-1.8889e-09,0,0.00096653,-6.8222e-05,1.0459e+08,-483.21,0,2.6284e+08,-432.78,12123,11201,1,11201,1,-0.0014922,-1.7338e-08,0,2.6691e-05,-0.00041566,-6.0689e+08,-2845.9,0,7.3589e+06,-1265.8,11200,11662,1,11662,1,-0.00059464,-4.8222e-09,0,0.00048328,-0.00024825,-2.4181e+08,-1264.7,0,1.5581e+08,-674.68,11661,12586,1,12586,1,0.0013384,1.7347e-09,0,0.0014498,0.00011222,2.6284e+08,352.67,0,3.1553e+08,-139.33,12585,534.87,0,534.87,0,0.0011156,6.0335e-09,0,0.00061547,0.00020815,2.9411e+08,1227.2,0,1.4433e+08,303.06,534.87,1
1848,6.56,12125,1,12125,1,0.00037376,7.5957e-10,0,0.0010041,-6.8295e-05,-36.494,-37.635,0,2.5634e+08,-298.52,12124,13096,1,13096,1,0.0022416,1.5622e-08,0,0.0022416,0.00028064,3.2198e+08,2440.3,0,6.0765e+08,27.402,13095,12124,1,12124,1,0.00037377,3.2271e-11,0,0.00096846,-6.8569e-05,1.051e+08,8.0953,0,2.6293e+08,-269.42,12123,11201,1,11201,1,-0.001494,-8.3853e-09,0,2.7866e-05,-0.00041669,-6.0765e+08,-2868.6,0,7.7606e+06,-1078.8,11200,11662,1,11662,1,-0.00059471,-2.6599e-09,0,0.00048425,-0.00024895,-2.4184e+08,-702.51,0,1.56e+08,-479,11661,12586,1,12586,1,0.0013422,3.0998e-09,0,0.0014527,0.00011224,2.6293e+08,684.42,0,3.1504e+08,-84.069,12585,534.87,0,534.87,0,0.0011179,4.9965e-09,0,0.000617,0.00020857,2.9428e+08,1094.4,0,1.444e+08,239.42,534.87,1
1848,6.57,12125,1,12125,1,0.00037561,4.3421e-10,0,0.0010063,-6.8634e-05,61.795,-89.147,0,2.565e+08,-283.13,12124,13096,1,13096,1,0.0022472,1.3087e-08,0,0.0022472,0.00028099,3.2146e+08,2271.8,0,6.0841e+08,36.323,13095,12124,1,12124,1,0.00037562,2.0603e-10,0,0.00097039,-6.8913e-05,1.0561e+08,47.376,0,2.6303e+08,-252.79,12123,11201,1,11201,1,-0.0014959,-9.4263e-09,0,2.903e-05,-0.00041771,-6.0841e+08,-3222.9,0,8.1572e+06,-1078.5,11200,11662,1,11662,1,-0.00059479,-2.7687e-09,0,0.00048522,-0.00024964,-2.4187e+08,-713.01,0,1.5619e+08,-448.62,11661,12586,1,12586,1,0.001346,3.0769e-09,0,0.0014556,0.00011226,2.6303e+08,660.34,0,3.1455e+08,-65.38,12585,534.87,0,534.87,0,0.0011201,4.6006e-09,0,0.00061851,0.00020898,2.9445e+08,1096.4,0,1.4448e+08,236.41,534.87,1
1848,6.58,12125,1,12125,1,0.00037748,1.4777e-09,0,0.0010086,-6.8977e-05,-0.33361,167.23,0,2.5667e+08,-324.59,12124,13096,1,13096,1,0.0022529,1.7559e-08,0,0.0022529,0.00028136,3.2098e+08,2789.8,0,6.0921e+08,9.9629,13095,12124,1,12124,1,0.00037749,6.3693e-10,0,0.00097239,-6.9261e-05,1.0613e+08,147.81,0,2.6314e+08,-300.52,12123,11201,1,11201,1,-0.0014979,-1.009e-08,0,3.0189e-05,-0.00041877,-6.0921e+08,-2289.8,0,8.5509e+06,-1149.8,11200,11662,1,11662,1,-0.00059492,-1.7832e-09,0,0.00048621,-0.00025036,-2.4192e+08,-473.59,0,1.564e+08,-499.63,11661,12586,1,12586,1,0.0013499,3.6472e-09,0,0.0014586,0.00011228,2.6314e+08,808.56,0,3.141e+08,-97.869,12585,534.87,0,534.87,0,0.0011224,4.9862e-09,0,0.00062007,0.00020941,2.9465e+08,997.42,0,1.4456e+08,251.98,534.87,1
1848,6.59,12125,1,12125,1,0.00037936,5.0415e-09,0,0.0010109,-6.932e-05,-112.01,1051.6,0,2.5682e+08,-249.72,12124,13096,1,13096,1,0.0022584,1.6925e-08,0,0.0022584,0.0002817,3.2044e+08,3970.8,0,6.0996e+08,154.83,13095,12124,1,12124,1,0.00037937,5.075e-09,0,0.00097432,-6.9609e-05,1.0665e+08,1116.3,0,2.6322e+08,-224.69,12123,11201,1,11201,1,-0.0014997,-4.5104e-09,0,3.1382e-05,-0.00041979,-6.0996e+08,-1543,0,8.9547e+06,-1059.5,11200,11662,1,11662,1,-0.00059496,7.9877e-10,0,0.00048717,-0.00025105,-2.4194e+08,169.74,0,1.5658e+08,-397.6,11661,12586,1,12586,1,0.0013537,8.7532e-09,0,0.0014615,0.00011229,2.6322e+08,1865.4,0,3.1359e+08,-55.217,12585,534.87,0,534.87,0,0.0011246,4.8451e-09,0,0.00062159,0.00020982,2.9481e+08,1075.4,0,1.4463e+08,217.23,534.87,1
1848,6.6,12125,1,12125,1,0.00038124,2.5839e-09,0,0.0010132,-6.9666e-05,25.341,590.97,0,2.5699e+08,-254.76,12124,13096,1,13096,1,0.0022642,1.268e-08,0,0.0022642,0.00028208,3.1994e+08,4248.1,0,6.1076e+08,356.68,13095,12124,1,12124,1,0.00038125,2.6464e-09,0,0.00097632,-6.996e-05,1.0716e+08,565.97,0,2.6333e+08,-218.93,12123,11201,1,11201,1,-0.0015017,-7.3531e-09,0,3.2557e-05,-0.00042085,-6.1076e+08,-2304.4,0,9.3509e+06,-1249.8,11200,11662,1,11662,1,-0.00059507,-9.7345e-10,0,0.00048817,-0.00025177,-2.4198e+08,-197.76,0,1.5678e+08,-384.69,11661,12586,1,12586,1,0.0013576,5.6768e-09,0,0.0014645,0.00011231,2.6333e+08,1149.7,0,3.1313e+08,-46.432,12585,534.87,0,534.87,0,0.0011269,4.3664e-09,0,0.00062316,0.00021024,2.95e+08,1194.2,0,1.4472e+08,254.24,534.87,1
1848,6.61,12125,1,12125,1,0.00038311,-1.5679e-09,0,0.0010154,-7.0008e-05,-81.447,-284.91,0,2.5712e+08,-282.54,12124,13096,1,13096,1,0.0022697,1.3131e-08,0,0.0022697,0.0002824,3.1938e+08,4489.2,0,6.1147e+08,144.53,13095,12124,1,12124,1,0.00038312,-1.9024e-09,0,0.00097819,-7.0307e-05,1.0768e+08,-395.6,0,2.6339e+08,-265.3,12123,11201,1,11201,1,-0.0015034,-1.3266e-08,0,3.3754e-05,-0.00042186,-6.1147e+08,-4255.1,0,9.7535e+06,-841.31,11200,11662,1,11662,1,-0.00059508,-4.82e-09,0,0.00048911,-0.00025246,-2.4199e+08,-1023.9,0,1.5696e+08,-490.54,11661,12586,1,12586,1,0.0013613,1.1658e-09,0,0.0014673,0.00011232,2.6339e+08,241.81,0,3.1259e+08,-48.931,12585,534.87,0,534.87,0,0.0011291,5.02e-09,0,0.00062466,0.00021064,2.9514e+08,1423.9,0,1.4478e+08,241.91,534.87,1
1848,6.62,12125,1,12125,1,0.00038499,1.2923e-09,0,0.0010177,-7.0352e-05,-144.13,335.14,0,2.5729e+08,-439.51,12124,13096,1,13096,1,0.0022754,2.0054e-08,0,0.0022754,0.00028277,3.189e+08,3271.6,0,6.1227e+08,381.34,13095,12124,1,12124,1,0.000385,1.8129e-09,0,0.00098018,-7.0657e-05,1.082e+08,486.5,0,2.635e+08,-419.84,12123,11201,1,11201,1,-0.0015054,-2.2208e-08,0,3.4919e-05,-0.00042291,-6.1227e+08,-3486.7,0,1.0143e+07,-1210.6,11200,11662,1,11662,1,-0.00059519,-2.0352e-09,0,0.0004901,-0.00025317,-2.4203e+08,-501.61,0,1.5716e+08,-710.55,11661,12586,1,12586,1,0.0013652,5.258e-09,0,0.0014703,0.00011234,2.635e+08,1282.4,0,3.1214e+08,-142.29,12585,534.87,0,534.87,0,0.0011314,7.046e-09,0,0.00062622,0.00021107,2.9534e+08,1306.3,0,1.4487e+08,336.27,534.87,1
1848,6.63,12125,1,12125,1,0.00038689,-5.8155e-09,0,0.00102,-7.0701e-05,26.859,-1258.9,0,2.5745e+08,-329.35,12124,13096,1,13096,1,0.0022811,8.2547e-09,0,0.0022811,0.00028313,3.1837e+08,2822.7,0,6.1304e+08,499.04,13095,12124,1,12124,1,0.0003869,-6.6778e-09,0,0.00098216,-7.101e-05,1.0872e+08,-1387.7,0,2.6359e+08,-255.97,12123,11201,1,11201,1,-0.0015073,-1.682e-08,0,3.6122e-05,-0.00042396,-6.1304e+08,-4467,0,1.0545e+07,-1743.6,11200,11662,1,11662,1,-0.00059526,-1.0919e-08,0,0.00049108,-0.00025388,-2.4206e+08,-2280.3,0,1.5736e+08,-489.09,11661,12586,1,12586,1,0.0013691,-8.7884e-10,0,0.0014732,0.00011235,2.6359e+08,-185.94,0,3.1164e+08,-59.666,12585,534.87,0,534.87,0,0.0011337,5.6235e-09,0,0.00062778,0.00021149,2.9551e+08,1401.9,0,1.4495e+08,361.63,534.87,1
1848,6.64,12125,1,12125,1,0.00038886,2.3384e-09,0,0.0010223,-7.106e-05,-14.898,514.2,0,2.5762e+08,-409.98,12124,13096,1,13096,1,0.002287,1.8563e-08,0,0.002287,0.0002835,3.1785e+08,2921,0,6.1385e+08,131.45,13095,12124,1,12124,1,0.00038886,2.6949e-09,0,0.00098421,-7.1375e-05,1.0926e+08,655.92,0,2.6369e+08,-378.04,12123,11201,1,11201,1,-0.0015093,-1.6302e-08,0,3.735e-05,-0.00042505,-6.1385e+08,-2531,0,1.0953e+07,-1381.6,11200,11662,1,11662,1,-0.00059535,-9.4526e-10,0,0.00049211,-0.00025462,-2.4209e+08,-250.53,0,1.5756e+08,-641,11661,12586,1,12586,1,0.0013731,5.5546e-09,0,0.0014763,0.00011237,2.6369e+08,1317.7,0,3.1116e+08,-113.97,12585,534.87,0,534.87,0,0.001136,5.4835e-09,0,0.0006294,0.00021192,2.957e+08,1097.9,0,1.4504e+08,325.59,534.87,1
1848,6.65,12125,1,12125,1,0.00039088,-4.9467e-10,0,0.0010246,-7.1431e-05,-21.663,-86.092,0,2.5774e+08,-270.77,12124,13096,1,13096,1,0.0022929,1.3622e-08,0,0.0022929,0.00028384,3.1724e+08,4657.4,0,6.1457e+08,218.08,13095,12124,1,12124,1,0.00039089,-2.7698e-11,0,0.00098617,-7.1749e-05,1.0979e+08,-6.3759,0,2.6373e+08,-241.69,12123,11201,1,11201,1,-0.0015111,-1.9802e-08,0,3.8671e-05,-0.00042612,-6.1457e+08,-6299.4,0,1.139e+07,-1130,11200,11662,1,11662,1,-0.00059529,-3.4553e-09,0,0.0004931,-0.00025535,-2.4207e+08,-701.55,0,1.5772e+08,-456.29,11661,12586,1,12586,1,0.0013771,2.5251e-09,0,0.0014793,0.00011236,2.6373e+08,534.2,0,3.1059e+08,-34.458,12585,534.87,0,534.87,0,0.0011383,5.6812e-09,0,0.00063099,0.00021234,2.9583e+08,1684,0,1.451e+08,267.09,534.87,1
1848,6.66,12125,1,12125,1,0.00039295,1.9932e-09,0,0.0010271,-7.1811e-05,54.394,472.68,0,2.5789e+08,-548.58,12124,13096,1,13096,1,0.002299,2.6178e-08,0,0.002299,0.00028421,3.167e+08,4066.2,0,6.1538e+08,100.87,13095,12124,1,12124,1,0.00039296,2.249e-09,0,0.00098827,-7.2135e-05,1.1033e+08,517.74,0,2.638e+08,-536.11,12123,11201,1,11201,1,-0.001513,-1.9434e-08,0,3.9988e-05,-0.00042725,-6.1538e+08,-3250.1,0,1.1824e+07,-1731.9,11200,11662,1,11662,1,-0.00059532,-1.9767e-09,0,0.00049415,-0.00025612,-2.4208e+08,-454.06,0,1.579e+08,-854.18,11661,12586,1,12586,1,0.0013812,5.661e-09,0,0.0014824,0.00011237,2.638e+08,1355.9,0,3.1008e+08,-173.35,12585,534.87,0,534.87,0,0.0011407,6.9475e-09,0,0.00063268,0.00021279,2.9601e+08,1425.1,0,1.4519e+08,395.68,534.87,1
1848,6.67,12125,1,12125,1,0.00039507,5.6344e-10,0,0.0010295,-7.22e-05,233.31,194.9,0,2.5802e+08,-614.01,12124,13096,1,13096,1,0.0023051,2.6126e-08,0,0.0023051,0.00028456,3.1609e+08,4146.1,0,6.1614e+08,168.66,13095,12124,1,12124,1,0.00039509,1.2267e-09,0,0.00099035,-7.2529e-05,1.1089e+08,303.55,0,2.6385e+08,-608.69,12123,11201,1,11201,1,-0.0015149,-2.5818e-08,0,4.137e-05,-0.00042838,-6.1614e+08,-4028.4,0,1.2278e+07,-1718.9,11200,11662,1,11662,1,-0.00059527,-2.8343e-09,0,0.00049519,-0.00025689,-2.4206e+08,-674.74,0,1.5807e+08,-941.41,11661,12586,1,12586,1,0.0013854,4.049e-09,0,0.0014856,0.00011236,2.6385e+08,1094.5,0,3.095e+08,-227.47,12585,534.87,0,534.87,0,0.0011431,7.7418e-09,0,0.00063436,0.00021323,2.9616e+08,1435.4,0,1.4526e+08,428.95,534.87,1
1848,6.68,12125,1,12125,1,0.0003972,-9.6996e-10,0,0.001032,-7.259e-05,115.62,-109.2,0,2.5814e+08,-375.3,12124,13096,1,13096,1,0.0023113,1.5517e-08,0,0.0023113,0.00028492,3.1547e+08,5305.1,0,6.1691e+08,324.03,13095,12124,1,12124,1,0.00039722,-1.7236e-09,0,0.00099243,-7.2923e-05,1.1145e+08,-319.1,0,2.6389e+08,-284.97,12123,11201,1,11201,1,-0.0015168,-1.7682e-08,0,4.2758e-05,-0.00042951,-6.1691e+08,-6045.1,0,1.2732e+07,-1982.7,11200,11662,1,11662,1,-0.00059522,-5.3345e-09,0,0.00049624,-0.00025766,-2.4204e+08,-939.39,0,1.5824e+08,-577.02,11661,12586,1,12586,1,0.0013897,2.917e-09,0,0.0014887,0.00011236,2.6389e+08,675.84,0,3.0891e+08,-48.667,12585,534.87,0,534.87,0,0.0011455,6.6257e-09,0,0.00063605,0.00021368,2.963e+08,1911.6,0,1.4533e+08,431.92,534.87,1
1848,6.69,12125,1,12125,1,0.00039938,-2.818e-09,0,0.0010345,-7.299e-05,33.604,-561.11,0,2.5829e+08,-586.39,12124,13096,1,13096,1,0.0023176,2.0433e-08,0,0.0023176,0.0002853,3.1487e+08,3703.7,0,6.1773e+08,36.283,13095,12124,1,12124,1,0.0003994,-2.4772e-09,0,0.0009946,-7.3328e-05,1.1202e+08,-546.38,0,2.6395e+08,-564.16,12123,11201,1,11201,1,-0.0015188,-2.6555e-08,0,4.4161e-05,-0.00043068,-6.1773e+08,-5642.1,0,1.3188e+07,-1966.3,11200,11662,1,11662,1,-0.00059522,-7.228e-09,0,0.00049732,-0.00025846,-2.4204e+08,-1576.7,0,1.5842e+08,-916.53,11661,12586,1,12586,1,0.001394,2.1186e-09,0,0.0014919,0.00011236,2.6395e+08,492.64,0,3.0835e+08,-166.31,12585,534.87,0,534.87,0,0.001148,7.815e-09,0,0.00063781,0.00021414,2.9648e+08,1663.7,0,1.4542e+08,444.57,534.87,1
1848,6.7,12125,1,12125,1,0.0004016,-3.2595e-09,0,0.001037,-7.3396e-05,150.25,-739.42,0,2.5841e+08,-634.38,12124,13096,1,13096,1,0.002324,2.2838e-08,0,0.002324,0.00028565,3.1421e+08,3322.9,0,6.185e+08,112.06,13095,12124,1,12124,1,0.00040161,-3.1592e-09,0,0.00099673,-7.3739e-05,1.1259e+08,-738.48,0,2.6398e+08,-614.54,12123,11201,1,11201,1,-0.0015207,-2.6089e-08,0,4.5613e-05,-0.00043184,-6.185e+08,-6019.2,0,1.3659e+07,-1908.9,11200,11662,1,11662,1,-0.00059513,-7.968e-09,0,0.00049838,-0.00025926,-2.4201e+08,-1778.5,0,1.5859e+08,-982.46,11661,12586,1,12586,1,0.0013983,1.7815e-09,0,0.0014951,0.00011234,2.6398e+08,457.98,0,3.0772e+08,-203.6,12585,534.87,0,534.87,0,0.0011505,8.1935e-09,0,0.00063955,0.00021459,2.9661e+08,1700.3,0,1.4549e+08,470.51,534.87,1
1848,6.71,12125,1,12125,1,0.00040381,-1.7269e-09,0,0.0010395,-7.3802e-05,97.804,-491.49,0,2.5854e+08,-626.97,12124,13096,1,13096,1,0.0023303,2.5604e-08,0,0.0023303,0.00028602,3.1357e+08,3714.4,0,6.1929e+08,117.43,13095,12124,1,12124,1,0.00040383,-2.0325e-09,0,0.00099888,-7.4151e-05,1.1318e+08,-449.99,0,2.6402e+08,-601.84,12123,11201,1,11201,1,-0.0015227,-2.0841e-08,0,4.7063e-05,-0.00043302,-6.1929e+08,-6549.5,0,1.4126e+07,-1869.2,11200,11662,1,11662,1,-0.00059507,-6.3713e-09,0,0.00049946,-0.00026007,-2.4198e+08,-1449.5,0,1.5876e+08,-953.23,11661,12586,1,12586,1,0.0014027,2.6445e-09,0,0.0014984,0.00011233,2.6402e+08,608.58,0,3.0712e+08,-179.82,12585,534.87,0,534.87,0,0.001153,7.7869e-09,0,0.00064132,0.00021505,2.9676e+08,1778.1,0,1.4557e+08,477.78,534.87,1
1848,6.72,12125,1,12125,1,0.00040608,1.9095e-09,0,0.0010421,-7.4217e-05,-81.4,303.71,0,2.5866e+08,-543.27,12124,13096,1,13096,1,0.0023369,2.4835e-08,0,0.0023369,0.00028639,3.1292e+08,5785.6,0,6.2009e+08,164.18,13095,12124,1,12124,1,0.0004061,2.3326e-09,0,0.0010011,-7.457e-05,1.1376e+08,479.71,0,2.6405e+08,-521.47,12123,11201,1,11201,1,-0.0015246,-2.3331e-08,0,4.8541e-05,-0.00043422,-6.2009e+08,-7976.1,0,1.4601e+07,-1685.1,11200,11662,1,11662,1,-0.000595,-2.8619e-09,0,0.00050057,-0.00026088,-2.4195e+08,-600.16,0,1.5893e+08,-891.16,11661,12586,1,12586,1,0.0014072,7.0968e-09,0,0.0015017,0.00011232,2.6405e+08,1530.1,0,3.065e+08,-114.26,12585,534.87,0,534.87,0,0.0011555,8.3155e-09,0,0.00064311,0.00021552,2.9691e+08,2211.3,0,1.4565e+08,448.35,534.87,1
1848,6.73,12125,1,12125,1,0.0004085,-6.5856e-10,0,0.0010448,-7.4662e-05,135.27,-298.09,0,2.5877e+08,-747.17,12124,13096,1,13096,1,0.0023437,3.4274e-08,0,0.0023437,0.00028676,3.1224e+08,5579.2,0,6.2088e+08,114.27,13095,12124,1,12124,1,0.00040852,-1.3605e-09,0,0.0010033,-7.5019e-05,1.1434e+08,-289.15,0,2.6406e+08,-716.38,12123,11201,1,11201,1,-0.0015266,-2.4248e-08,0,5.0153e-05,-0.00043548,-6.2088e+08,-8289.7,0,1.5114e+07,-1984.8,11200,11662,1,11662,1,-0.00059484,-7.1425e-09,0,0.0005017,-0.00026175,-2.4189e+08,-1603,0,1.5908e+08,-1170.1,11661,12586,1,12586,1,0.0014119,5.1897e-09,0,0.0015051,0.00011229,2.6406e+08,1184.5,0,3.0586e+08,-204.74,12585,534.87,0,534.87,0,0.0011581,1.0382e-08,0,0.000645,0.000216,2.9704e+08,2423.9,0,1.4573e+08,564.16,534.87,1
1848,6.74,12125,1,12125,1,0.00041106,1.6668e-09,0,0.0010476,-7.5132e-05,-0.37269,182.58,0,2.5888e+08,-896.52,12124,13096,1,13096,1,0.0023509,4.7472e-08,0,0.0023509,0.00028715,3.1154e+08,7023.4,0,6.2173e+08,-7.1612,13095,12124,1,12124,1,0.00041109,8.5603e-10,0,0.0010057,-7.5493e-05,1.1495e+08,206.05,0,2.6407e+08,-909.39,12123,11201,1,11201,1,-0.0015287,-3.0834e-08,0,5.1853e-05,-0.0004368,-6.2173e+08,-7065.7,0,1.5653e+07,-2083.7,11200,11662,1,11662,1,-0.00059468,-5.8286e-09,0,0.00050291,-0.00026266,-2.4182e+08,-1362.4,0,1.5923e+08,-1454.2,11661,12586,1,12586,1,0.0014168,7.4565e-09,0,0.0015087,0.00011226,2.6407e+08,1768.4,0,3.0519e+08,-285.89,12585,534.87,0,534.87,0,0.0011609,1.2902e-08,0,0.000647,0.00021651,2.9719e+08,2579.6,0,1.4583e+08,624.51,534.87,1
1848,6.75,12125,1,12125,1,0.00041372,9.6398e-10,0,0.0010505,-7.562e-05,-25.28,25.659,0,2.5897e+08,-884.53,12124,13096,1,13096,1,0.0023582,4.5225e-08,0,0.0023582,0.00028752,3.1075e+08,6617.7,0,6.2253e+08,65.14,13095,12124,1,12124,1,0.00041375,5.3316e-10,0,0.0010081,-7.5984e-05,1.1558e+08,127.28,0,2.6404e+08,-872.86,12123,11201,1,11201,1,-0.0015306,-3.2008e-08,0,5.3656e-05,-0.00043815,-6.2253e+08,-7341.7,0,1.6221e+07,-2057.5,11200,11662,1,11662,1,-0.00059443,-6.9683e-09,0,0.00050411,-0.00026359,-2.4172e+08,-1602.3,0,1.5936e+08,-1438.5,11661,12586,1,12586,1,0.0014219,7.2538e-09,0,0.0015123,0.00011222,2.6404e+08,1718.9,0,3.0444e+08,-286.5,12585,534.87,0,534.87,0,0.0011637,1.3267e-08,0,0.00064903,0.00021702,2.973e+08,2659.5,0,1.459e+08,630.67,534.87,1
1848,6.76,12125,1,12125,1,0.00041646,-9.7059e-10,0,0.0010535,-7.6122e-05,-160.69,-414.52,0,2.5906e+08,-952.71,12124,13096,1,13096,1,0.0023658,4.8571e-08,0,0.0023658,0.00028791,3.0995e+08,7127.7,0,6.2338e+08,116.37,13095,12124,1,12124,1,0.00041648,-2.5012e-09,0,0.0010106,-7.6488e-05,1.1622e+08,-551.18,0,2.6402e+08,-876.88,12123,11201,1,11201,1,-0.0015327,-3.5573e-08,0,5.5499e-05,-0.00043954,-6.2338e+08,-6312.7,0,1.68e+07,-2276.5,11200,11662,1,11662,1,-0.00059418,-8.9855e-09,0,0.00050536,-0.00026455,-2.4162e+08,-2220.6,0,1.595e+08,-1574.5,11661,12586,1,12586,1,0.0014271,5.2799e-09,0,0.001516,0.00011217,2.6402e+08,1279,0,3.0369e+08,-307.29,12585,534.87,0,534.87,0,0.0011666,1.4705e-08,0,0.00065113,0.00021755,2.9742e+08,2740.2,0,1.4598e+08,696.02,534.87,1
1848,6.77,12125,1,12125,1,0.00041927,-1.1857e-09,0,0.0010565,-7.6637e-05,-166.2,-567.11,0,2.5914e+08,-803.88,12124,13096,1,13096,1,0.0023735,3.8384e-08,0,0.0023735,0.0002883,3.0912e+08,5480.7,0,6.2422e+08,1128.8,13095,12124,1,12124,1,0.00041929,-2.0751e-09,0,0.0010132,-7.7005e-05,1.1689e+08,-498.85,0,2.6398e+08,-687.83,12123,11201,1,11201,1,-0.0015348,-3.3733e-08,0,5.7405e-05,-0.00044095,-6.2422e+08,-7505,0,1.7397e+07,-2129.1,11200,11662,1,11662,1,-0.0005939,-9.3931e-09,0,0.00050663,-0.00026553,-2.415e+08,-2276.8,0,1.5964e+08,-1420.5,11661,12586,1,12586,1,0.0014325,4.7773e-09,0,0.0015198,0.00011212,2.6398e+08,1100.3,0,3.029e+08,-196.27,12585,534.87,0,534.87,0,0.0011695,1.3575e-08,0,0.00065328,0.00021809,2.9753e+08,2627.1,0,1.4607e+08,695.22,534.87,1
1848,6.78,12125,1,12125,1,0.00042215,5.5741e-09,0,0.0010596,-7.7164e-05,-124.58,893.68,0,2.5923e+08,-585.5,12124,13096,1,13096,1,0.0023814,4.3653e-08,0,0.0023814,0.0002887,3.0827e+08,6266.9,0,6.2508e+08,1498.5,13095,12124,1,12124,1,0.00042217,5.0695e-09,0,0.0010158,-7.7536e-05,1.1756e+08,1089.9,0,2.6394e+08,-477.33,12123,11201,1,11201,1,-0.0015369,-1.8903e-08,0,5.9357e-05,-0.0004424,-6.2508e+08,-6466.2,0,1.8006e+07,-1907.4,11200,11662,1,11662,1,-0.00059362,-2.583e-09,0,0.00050792,-0.00026653,-2.4139e+08,-581.87,0,1.5978e+08,-1109.5,11661,12586,1,12586,1,0.001438,1.2439e-08,0,0.0015237,0.00011207,2.6394e+08,2739.6,0,3.0209e+08,-73.403,12585,534.87,0,534.87,0,0.0011725,1.2654e-08,0,0.00065549,0.00021864,2.9765e+08,2737,0,1.4615e+08,623.08,534.87,1
1848,6.79,12125,1,12125,1,0.00042512,1.5041e-09,0,0.0010628,-7.7711e-05,-108.68,71.321,0,2.5932e+08,-715.46,12124,13096,1,13096,1,0.0023895,4.5747e-08,0,0.0023895,0.00028911,3.074e+08,6618.4,0,6.2598e+08,2910.8,13095,12124,1,12124,1,0.00042515,-2.048e-10,0,0.0010184,-7.8086e-05,1.1826e+08,-46.776,0,2.6391e+08,-575.94,12123,11201,1,11201,1,-0.0015391,-2.8093e-08,0,6.1372e-05,-0.00044391,-6.2598e+08,-5370,0,1.8632e+07,-2564.8,11200,11662,1,11662,1,-0.00059334,-7.5652e-09,0,0.00050927,-0.00026757,-2.4127e+08,-1752.5,0,1.5993e+08,-1393,11661,12586,1,12586,1,0.0014436,6.8917e-09,0,0.0015278,0.00011202,2.6391e+08,1755.2,0,3.0127e+08,-93.832,12585,534.87,0,534.87,0,0.0011756,1.4481e-08,0,0.00065779,0.00021922,2.9778e+08,2648.7,0,1.4625e+08,922.3,534.87,1
1848,6.8,12125,1,12125,1,0.0004282,-2.8922e-09,0,0.0010661,-7.8274e-05,349.92,-953.96,0,2.594e+08,-494.91,12124,13096,1,13096,1,0.0023979,3.7279e-08,0,0.0023979,0.00028954,3.0649e+08,5310.3,0,6.2689e+08,4322.7,13095,12124,1,12124,1,0.00042822,-5.2507e-09,0,0.0010212,-7.865e-05,1.1898e+08,-1201,0,2.6386e+08,-399.7,12123,11201,1,11201,1,-0.0015414,-2.4722e-08,0,6.3466e-05,-0.00044545,-6.2689e+08,-5706.4,0,1.9281e+07,-2578.4,11200,11662,1,11662,1,-0.000593,-1.2414e-08,0,0.00051064,-0.00026864,-2.4114e+08,-2889.4,0,1.6008e+08,-1264.5,11661,12586,1,12586,1,0.0014494,3.1818e-09,0,0.0015319,0.00011196,2.6386e+08,746.63,0,3.004e+08,18.153,12585,534.87,0,534.87,0,0.0011787,1.2972e-08,0,0.00066014,0.0002198,2.979e+08,2540.7,0,1.4634e+08,1099.7,534.87,1
1848,6.81,12125,1,12125,1,0.00043134,6.2496e-09,0,0.0010694,-7.885e-05,18.66,1001.2,0,2.5948e+08,-180.41,12124,13096,1,13096,1,0.0024064,4.3822e-08,0,0.0024064,0.00028994,3.0555e+08,6534.4,0,6.2777e+08,7231.4,13095,12124,1,12124,1,0.00043135,4.1372e-09,0,0.001024,-7.9226e-05,1.1971e+08,1044,0,2.6379e+08,-246.21,12123,11201,1,11201,1,-0.0015435,-1.3179e-08,0,6.5615e-05,-0.000447,-6.2777e+08,-3862.1,0,1.9945e+07,-2717.4,11200,11662,1,11662,1,-0.00059264,-2.7524e-09,0,0.00051201,-0.00026972,-2.4099e+08,-574.74,0,1.6022e+08,-1119.7,11661,12586,1,12586,1,0.0014554,1.092e-08,0,0.001536,0.0001119,2.6379e+08,2382.7,0,2.995e+08,137.7,12585,534.87,0,534.87,0,0.001182,1.2755e-08,0,0.00066254,0.00022039,2.9801e+08,2306.9,0,1.4643e+08,1486.7,534.87,1
1848,6.82,12125,1,12125,1,0.00043458,-1.49e-09,0,0.0010729,-7.9444e-05,47.061,-534.49,0,2.5957e+08,167.23,12124,13096,1,13096,1,0.0024153,2.467e-08,0,0.0024153,0.00029039,3.046e+08,3422.9,0,6.2875e+08,8993.5,13095,12124,1,12124,1,0.00043459,-2.2478e-09,0,0.0010269,-7.982e-05,1.2047e+08,-541.32,0,2.6375e+08,-117.79,12123,11201,1,11201,1,-0.0015459,-2.0967e-08,0,6.7821e-05,-0.00044864,-6.2875e+08,-4337.1,0,2.0624e+07,-2090.1,11200,11662,1,11662,1,-0.00059231,-7.1817e-09,0,0.00051347,-0.00027085,-2.4086e+08,-1680.4,0,1.6037e+08,-861.05,11661,12586,1,12586,1,0.0014615,2.3884e-09,0,0.0015404,0.00011184,2.6375e+08,556.61,0,2.9862e+08,422.94,12585,534.87,0,534.87,0,0.0011853,8.8293e-09,0,0.00066504,0.00022101,2.9814e+08,1664.3,0,1.4654e+08,1766.2,534.87,1
1848,6.83,12125,1,12125,1,0.00043794,2.6785e-09,0,0.0010764,-8.0058e-05,-32.487,318.4,0,2.5965e+08,585.22,12124,13096,1,13096,1,0.0024243,3.0578e-08,0,0.0024243,0.00029083,3.036e+08,4591.7,0,6.2969e+08,12176,13095,12124,1,12124,1,0.00043794,1.3449e-09,0,0.0010298,-8.0434e-05,1.2125e+08,298.02,0,2.6367e+08,-28.236,12123,11201,1,11201,1,-0.0015482,-2.1138e-08,0,7.0111e-05,-0.0004503,-6.2969e+08,-3867,0,2.133e+07,-2038,11200,11662,1,11662,1,-0.00059193,-2.9277e-09,0,0.00051495,-0.00027201,-2.407e+08,-704.1,0,1.6052e+08,-683.46,11661,12586,1,12586,1,0.0014678,5.017e-09,0,0.0015449,0.00011178,2.6367e+08,1264.5,0,2.9766e+08,893.11,12585,534.87,0,534.87,0,0.0011887,8.628e-09,0,0.00066761,0.00022164,2.9826e+08,1610.7,0,1.4664e+08,2287.9,534.87,1
1848,6.84,12125,1,12125,1,0.00044139,3.3181e-09,0,0.0010801,-8.069e-05,-63.504,551.93,0,2.5973e+08,1118.9,12124,13096,1,13096,1,0.0024336,4.1678e-08,0,0.0024336,0.00029128,3.0257e+08,8881.7,0,6.3067e+08,15983,13095,12124,1,12124,1,0.00044138,2.4518e-09,0,0.0010329,-8.1062e-05,1.2205e+08,522.55,0,2.636e+08,19.747,12123,11201,1,11201,1,-0.0015506,-4.5043e-08,0,7.2464e-05,-0.00045201,-6.3067e+08,-7247.7,0,2.2053e+07,-2000.7,11200,11662,1,11662,1,-0.00059152,-2.133e-09,0,0.00051646,-0.0002732,-2.4053e+08,-478.24,0,1.6067e+08,-517.42,11661,12586,1,12586,1,0.0014743,6.8028e-09,0,0.0015494,0.0001117,2.636e+08,1552.5,0,2.9669e+08,1616.6,12585,534.87,0,534.87,0,0.0011923,9.522e-09,0,0.00067026,0.00022229,2.9838e+08,1851.4,0,1.4675e+08,2989.5,534.87,1
1848,6.85,12125,1,12125,1,0.00044495,3.265e-09,0,0.0010838,-8.1341e-05,-153.11,658.98,0,2.5981e+08,1702.9,12124,13096,1,13096,1,0.0024431,6.0204e-08,0,0.0024431,0.00029175,3.0151e+08,14511,0,6.3168e+08,20273,13095,12124,1,12124,1,0.00044493,2.7276e-09,0,0.001036,-8.1709e-05,1.2287e+08,672.98,0,2.6351e+08,118.91,12123,11201,1,11201,1,-0.0015531,-7.3475e-08,0,7.3065e-05,-0.00045376,-6.3168e+08,-11216,0,2.2797e+07,-1947.1,11200,11662,1,11662,1,-0.00059109,-1.7339e-09,0,0.000518,-0.00027442,-2.4036e+08,-379.14,0,1.6082e+08,-389.04,11661,12586,1,12586,1,0.001481,8.1363e-09,0,0.001554,0.00011163,2.6351e+08,1632.7,0,2.9568e+08,2390.6,12585,534.87,0,534.87,0,0.0011959,1.2788e-08,0,0.00067299,0.00022296,2.985e+08,2641.1,0,1.4686e+08,3788.5,534.87,1
1848,6.86,12125,1,12125,1,0.00044863,-1.0921e-09,0,0.0010877,-8.2014e-05,106.27,-143.64,0,2.5989e+08,2594.7,12124,13096,1,13096,1,0.002453,8.9128e-08,0,0.002453,0.00029223,3.0043e+08,20879,0,6.3272e+08,25512,13095,12124,1,12124,1,0.00044858,-7.5721e-10,0,0.0010393,-8.2376e-05,1.2371e+08,-171.89,0,2.6342e+08,403.75,12123,11201,1,11201,1,-0.0015557,-1.2127e-07,0,7.1008e-05,-0.00045558,-6.3272e+08,-18273,0,2.3557e+07,-1521.2,11200,11662,1,11662,1,-0.00059066,-3.663e-09,0,0.0005196,-0.00027568,-2.4018e+08,-854.15,0,1.6098e+08,-167.98,11661,12586,1,12586,1,0.0014879,3.0033e-09,0,0.0015589,0.00011156,2.6342e+08,530.18,0,2.9466e+08,3504.2,12585,534.87,0,534.87,0,0.0011996,1.9803e-08,0,0.00067583,0.00022365,2.9863e+08,4087.2,0,1.4698e+08,4803.6,534.87,1
1848,6.87,12125,1,12125,1,0.00045242,2.4808e-09,0,0.0010916,-8.2706e-05,-169.4,694.98,0,2.5995e+08,3714.4,12124,13096,1,13096,1,0.0024632,1.3818e-07,0,0.0024632,0.00029272,2.993e+08,28659,0,6.3377e+08,32198,13095,12124,1,12124,1,0.00045233,3.3401e-09,0,0.0010425,-8.306e-05,1.2458e+08,750.11,0,2.6331e+08,900.27,12123,11201,1,11201,1,-0.0015583,-1.7179e-07,0,6.886e-05,-0.00045745,-6.3377e+08,-25594,0,2.4343e+07,-1090.1,11200,11662,1,11662,1,-0.00059016,-1.6119e-09,0,0.00052121,-0.00027696,-2.3998e+08,-328.6,0,1.6112e+08,-12.38,11661,12586,1,12586,1,0.0014949,8.3206e-09,0,0.0015638,0.00011147,2.6331e+08,1603.6,0,2.9357e+08,5069.5,12585,534.87,0,534.87,0,0.0012034,3.0472e-08,0,0.00067873,0.00022434,2.9875e+08,6051.4,0,1.4709e+08,6057.9,534.87,1
1848,6.88,12125,1,12125,1,0.00045636,-5.3663e-09,0,0.0010958,-8.3425e-05,218.12,-787.98,0,2.6005e+08,4954.6,12124,13096,1,13096,1,0.0024738,1.7617e-07,0,0.0024738,0.00029324,2.9818e+08,38287,0,6.349e+08,39213,13095,12124,1,12124,1,0.00045624,-4.1828e-09,0,0.001046,-8.3771e-05,1.2548e+08,-940.67,0,2.6322e+08,1451.4,12123,11201,1,11201,1,-0.001561,-2.3846e-07,0,6.6658e-05,-0.00045941,-6.349e+08,-35271,0,2.5147e+07,-438.22,11200,11662,1,11662,1,-0.00058972,-1.0279e-08,0,0.00052293,-0.00027832,-2.398e+08,-2209.4,0,1.6129e+08,97.968,11661,12586,1,12586,1,0.0015023,2.0841e-09,0,0.001569,0.0001114,2.6322e+08,481.68,0,2.925e+08,6701.3,12585,534.87,0,534.87,0,0.0012074,4.2779e-08,0,0.00068179,0.00022509,2.989e+08,8517.1,0,1.4723e+08,7483.3,534.87,1
1848,6.89,12125,1,12125,1,0.00046051,-7.7899e-10,0,0.0011001,-8.4182e-05,85.218,187.69,0,2.6012e+08,6520.7,12124,13096,1,13096,1,0.0024849,2.4002e-07,0,0.0024849,0.00029377,2.9697e+08,51421,0,6.3604e+08,48582,13095,12124,1,12124,1,0.00046034,1.0218e-09,0,0.0010496,-8.4514e-05,1.2641e+08,186.84,0,2.631e+08,2220.8,12123,11201,1,11201,1,-0.0015639,-3.0466e-07,0,6.4299e-05,-0.00046145,-6.3604e+08,-44583,0,2.5996e+07,-137.3,11200,11662,1,11662,1,-0.00058918,-9.4172e-09,0,0.00052468,-0.00027972,-2.3958e+08,-2190.1,0,1.6144e+08,337.74,11661,12586,1,12586,1,0.00151,1.1306e-08,0,0.0015743,0.00011131,2.631e+08,2530.6,0,2.9134e+08,8980.9,12585,534.87,0,534.87,0,0.0012116,5.771e-08,0,0.00068498,0.00022585,2.9903e+08,11673,0,1.4737e+08,9292.4,534.87,1
1848,6.9,12125,1,12125,1,0.00046525,1.1618e-09,0,0.0011049,-8.5041e-05,-151.22,814.39,0,2.6014e+08,8997.1,12124,13096,1,13096,1,0.0024974,3.3396e-07,0,0.0024974,0.00029432,2.957e+08,70059,0,6.3722e+08,59263,13095,12124,1,12124,1,0.000465,4.0746e-09,0,0.0010535,-8.5352e-05,1.2732e+08,857.93,0,2.6292e+08,3973.3,12123,11201,1,11201,1,-0.0015668,-4.0899e-07,0,6.1515e-05,-0.00046375,-6.3722e+08,-59752,0,2.506e+07,-190.4,11200,11662,1,11662,1,-0.0005884,-1.8319e-08,0,0.00052658,-0.00028129,-2.3926e+08,-4087.8,0,1.615e+08,1266.2,11661,12586,1,12586,1,0.0015186,2.526e-08,0,0.0015801,0.00011118,2.6292e+08,5687.3,0,2.9012e+08,12397,12585,534.87,0,534.87,0,0.0012162,8.4101e-08,0,0.00068856,0.0002267,2.9912e+08,16782,0,1.4752e+08,11475,534.87,1
1848,6.91,12125,1,12125,1,0.00047055,-3.8978e-09,0,0.0011103,-8.6001e-05,131.35,161.9,0,2.6016e+08,12870,12124,13096,1,13096,1,0.0025114,4.8716e-07,0,0.0025114,0.00029494,2.9432e+08,99816,0,6.3854e+08,76476,13095,12124,1,12124,1,0.0004702,7.5389e-10,0,0.001058,-8.6277e-05,1.2833e+08,176.11,0,2.627e+08,6550.3,12123,11201,1,11201,1,-0.00157,-5.966e-07,0,5.8383e-05,-0.00046633,-6.3854e+08,-86076,0,2.3817e+07,-133.96,11200,11662,1,11662,1,-0.00058754,-4.0289e-08,0,0.00052868,-0.00028304,-2.3891e+08,-8576.6,0,1.6157e+08,2227.8,11661,12586,1,12586,1,0.0015282,3.7097e-08,0,0.0015866,0.00011105,2.627e+08,8475.6,0,2.8878e+08,17969,12585,534.87,0,534.87,0,0.0012213,1.2816e-07,0,0.00069258,0.00022764,2.9922e+08,25283,0,1.477e+08,15225,534.87,1
1848,6.92,12125,1,12125,1,0.00047652,-3.0886e-09,0,0.0011162,-8.7076e-05,-182.25,634.53,0,2.6015e+08,18318,12124,13096,1,13096,1,0.0025271,7.117e-07,0,0.0025271,0.00029561,2.9276e+08,1.4293e+05,0,6.3998e+08,99466,13095,12124,1,12124,1,0.000476,2.6234e-09,0,0.0010629,-8.7301e-05,1.2944e+08,552.7,0,2.6243e+08,10845,12123,11201,1,11201,1,-0.0015735,-8.5541e-07,0,5.4822e-05,-0.00046922,-6.3998e+08,-1.2131e+05,0,2.2412e+07,-152.35,11200,11662,1,11662,1,-0.00058651,-6.3625e-08,0,0.00053095,-0.00028497,-2.3849e+08,-13513,0,1.6219e+08,3720,11661,12586,1,12586,1,0.0015389,6.6797e-08,0,0.0015937,0.00011089,2.6243e+08,14520,0,2.8724e+08,25620,12585,534.87,0,534.87,0,0.0012269,1.911e-07,0,0.00069708,0.00022868,2.9931e+08,37437,0,1.4789e+08,20122,534.87,1
1848,6.93,12125,1,12125,1,0.00048317,-1.0758e-08,0,0.0011228,-8.827e-05,125.96,-308.96,0,2.6013e+08,25978,12124,13096,1,13096,1,0.0025446,1.028e-06,0,0.0025446,0.00029634,2.9104e+08,1.9747e+05,0,6.4155e+08,1.2879e+05,13095,12124,1,12124,1,0.00048243,-4.6658e-10,0,0.0010683,-8.8428e-05,1.3066e+08,-131.43,0,2.621e+08,17374,12123,11201,1,11201,1,-0.0015774,-1.2362e-06,0,5.0811e-05,-0.00047244,-6.4155e+08,-1.7326e+05,0,2.0844e+07,14.193,11200,11662,1,11662,1,-0.00058532,-1.0635e-07,0,0.00053344,-0.00028711,-2.38e+08,-22540,0,1.633e+08,5794.9,11661,12586,1,12586,1,0.0015507,9.8225e-08,0,0.0016014,0.00011071,2.621e+08,21550,0,2.8553e+08,36475,12585,534.87,0,534.87,0,0.0012332,2.8334e-07,0,0.0007021,0.00022984,2.994e+08,54411,0,1.481e+08,26706,534.87,1
1848,6.94,12125,1,12125,1,0.00049059,-2.1516e-08,0,0.0011301,-8.96e-05,36.712,-1952,0,2.6009e+08,35958,12124,13096,1,13096,1,0.0025643,1.4425e-06,0,0.0025643,0.00029716,2.8915e+08,2.7137e+05,0,6.433e+08,1.6594e+05,13095,12124,1,12124,1,0.00048956,-7.5427e-09,0,0.0010743,-8.9669e-05,1.3201e+08,-1686.2,0,2.6173e+08,26100,12123,11201,1,11201,1,-0.0015817,-1.7345e-06,0,4.6298e-05,-0.00047605,-6.433e+08,-2.3983e+05,0,1.91e+07,-281.13,11200,11662,1,11662,1,-0.00058398,-1.6659e-07,0,0.00053614,-0.00028948,-2.3745e+08,-35125,0,1.6452e+08,8583.6,11661,12586,1,12586,1,0.0015638,1.4399e-07,0,0.00161,0.00011051,2.6173e+08,31613,0,2.8364e+08,51133,12585,534.87,0,534.87,0,0.0012401,4.0574e-07,0,0.00070772,0.00023112,2.9948e+08,77444,0,1.4834e+08,35209,534.87,1
1848,6.95,12125,1,12125,1,0.00049889,-1.8738e-08,0,0.0011383,-9.108e-05,-481.33,-707.31,0,2.6004e+08,49554,12124,13096,1,13096,1,0.0025864,2.0598e-06,0,0.0025864,0.00029806,2.8705e+08,3.7177e+05,0,6.4523e+08,2.1343e+05,13095,12124,1,12124,1,0.00049745,-3.5323e-09,0,0.001081,-9.1028e-05,1.3348e+08,-789.81,0,2.6129e+08,38543,12123,11201,1,11201,1,-0.0015865,-2.4003e-06,0,4.1205e-05,-0.00048011,-6.4523e+08,-3.2697e+05,0,1.7163e+07,202.6,11200,11662,1,11662,1,-0.00058245,-2.3967e-07,0,0.00053905,-0.00029209,-2.3682e+08,-50375,0,1.6585e+08,12805,11661,12586,1,12586,1,0.0015783,2.2769e-07,0,0.0016193,0.00011029,2.6129e+08,48717,0,2.8153e+08,71295,12585,534.87,0,534.87,0,0.0012479,5.8102e-07,0,0.00071402,0.00023254,2.9957e+08,1.0918e+05,0,1.4862e+08,46116,534.87,1
1848,6.96,12125,1,12125,1,0.00050819,-3.0637e-08,0,0.0011473,-9.273e-05,88.598,-2058.9,0,2.5995e+08,67520,12124,13096,1,13096,1,0.0026113,2.8696e-06,0,0.0026113,0.00029906,2.8478e+08,5.0387e+05,0,6.4738e+08,2.7064e+05,13095,12124,1,12124,1,0.00050621,-8.9095e-09,0,0.0010885,-9.2522e-05,1.351e+08,-1950.6,0,2.6078e+08,55080,12123,11201,1,11201,1,-0.0015917,-3.3126e-06,0,3.5431e-05,-0.0004847,-6.4738e+08,-4.4693e+05,0,1.5011e+07,74.37,11200,11662,1,11662,1,-0.00058071,-3.5481e-07,0,0.00054219,-0.00029497,-2.3611e+08,-74885,0,1.6731e+08,18325,11661,12586,1,12586,1,0.0015944,3.3192e-07,0,0.0016296,0.00011004,2.6078e+08,69917,0,2.7919e+08,97307,12585,534.87,0,534.87,0,0.0012564,8.1967e-07,0,0.0007211,0.00023413,2.9965e+08,1.5241e+05,0,1.4892e+08,60183,534.87,1
1848,6.97,12125,1,12125,1,0.00051866,-2.9209e-08,0,0.0011575,-9.4579e-05,-51.001,-570.68,0,2.5986e+08,91606,12124,13096,1,13096,1,0.0026398,4.0002e-06,0,0.0026398,0.0003002,2.823e+08,6.7891e+05,0,6.4982e+08,3.409e+05,13095,12124,1,12124,1,0.00051594,-4.7258e-09,0,0.001097,-9.4158e-05,1.3689e+08,-1097.2,0,2.602e+08,78322,12123,11201,1,11201,1,-0.0015977,-4.5344e-06,0,2.8865e-05,-0.00048994,-6.4982e+08,-6.0564e+05,0,1.2616e+07,654.03,11200,11662,1,11662,1,-0.00057875,-4.9931e-07,0,0.00054556,-0.00029818,-2.3531e+08,-1.0544e+05,0,1.689e+08,25214,11661,12586,1,12586,1,0.0016123,4.8451e-07,0,0.0016408,0.00010977,2.602e+08,1.0418e+05,0,2.766e+08,1.3342e+05,12585,534.87,0,534.87,0,0.0012661,1.1534e-06,0,0.00072913,0.00023591,2.9974e+08,2.1125e+05,0,1.4928e+08,77951,534.87,1
1848,6.98,12125,1,12125,1,0.00053054,-3.9813e-08,0,0.0011691,-9.6664e-05,794.22,-791.7,0,2.5974e+08,1.232e+05,12124,13096,1,13096,1,0.0026726,5.5254e-06,0,0.0026726,0.0003015,2.7962e+08,9.1e+05,0,6.526e+08,4.2181e+05,13095,12124,1,12124,1,0.00052681,-4.612e-09,0,0.0011066,-9.5972e-05,1.3887e+08,-851.45,0,2.5953e+08,1.0993e+05,12123,11201,1,11201,1,-0.0016046,-6.1807e-06,0,2.1316e-05,-0.00049598,-6.526e+08,-8.2001e+05,0,9.9186e+06,713.23,11200,11662,1,11662,1,-0.00057654,-7.2099e-07,0,0.00054917,-0.00030175,-2.344e+08,-1.5211e+05,0,1.7067e+08,34297,11661,12586,1,12586,1,0.0016324,6.9171e-07,0,0.0016531,0.00010948,2.5953e+08,1.491e+05,0,2.7373e+08,1.8223e+05,12585,534.87,0,534.87,0,0.0012771,1.6125e-06,0,0.0007383,0.00023793,2.9985e+08,2.9124e+05,0,1.4969e+08,1.0048e+05,534.87,1
1848,6.99,12125,1,12125,1,0.00054415,-4.7988e-08,0,0.0011823,-9.9034e-05,1671.2,129.06,0,2.5959e+08,1.6448e+05,12124,13096,1,13096,1,0.002711,7.5626e-06,0,0.002711,0.00030301,2.767e+08,1.2176e+06,0,6.5584e+08,5.1288e+05,13095,12124,1,12124,1,0.00053905,-4.5499e-09,0,0.0011176,-9.799e-05,1.4106e+08,-596.08,0,2.5845e+08,1.5138e+05,12123,11201,1,11201,1,-0.0016125,-8.3681e-06,0,1.2544e-05,-0.00050304,-6.5584e+08,-1.1064e+06,0,6.8377e+06,847.12,11200,11662,1,11662,1,-0.00057403,-1.0229e-06,0,0.00055302,-0.00030576,-2.3336e+08,-2.1503e+05,0,1.7263e+08,47070,11661,12586,1,12586,1,0.0016549,1.0127e-06,0,0.0016666,0.00010915,2.5845e+08,2.1265e+05,0,2.7052e+08,2.4628e+05,12585,534.87,0,534.87,0,0.0012896,2.2413e-06,0,0.00074888,0.00024023,2.9997e+08,3.9971e+05,0,1.5019e+08,1.2858e+05,534.87,1
1848,7,12125,1,12125,1,0.00055981,-7.8364e-08,0,0.0011974,-0.00010173,-839.41,-2458.6,0,2.594e+08,2.1971e+05,12124,13096,1,13096,1,0.0027563,1.0366e-05,0,0.0027563,0.00030477,2.7355e+08,1.6146e+06,0,6.5959e+08,6.0809e+05,13095,12124,1,12124,1,0.00055289,-1.8185e-08,0,0.0011316,-0.00010025,1.4352e+08,-4007.9,0,2.5698e+08,2.0864e+05,12123,11201,1,11201,1,-0.0016218,-1.1345e-05,0,2.2497e-06,-0.00051137,-6.5959e+08,-1.4839e+06,0,3.251e+06,1891.3,11200,11662,1,11662,1,-0.00057116,-1.4822e-06,0,0.00055712,-0.00031029,-2.3218e+08,-3.1007e+05,0,1.7482e+08,63731,11661,12586,1,12586,1,0.0016806,1.4373e-06,0,0.0016815,0.00010878,2.5698e+08,2.9477e+05,0,2.6704e+08,3.3496e+05,12585,534.87,0,534.87,0,0.001304,3.1309e-06,0,0.00076117,0.00024288,3.001e+08,5.484e+05,0,1.5078e+08,1.643e+05,534.87,1
1848,7.01,12125,1,12125,1,0.00057807,-8.3309e-08,0,0.0012154,-0.00010485,-1141.3,692.11,0,2.5919e+08,2.9117e+05,12124,13096,1,13096,1,0.0028107,1.4163e-05,0,0.0028107,0.00030685,2.701e+08,2.1311e+06,0,6.6405e+08,7.0743e+05,13095,12124,1,12124,1,0.00056867,-1.0543e-08,0,0.0011392,-0.00010281,1.4627e+08,-1558.4,0,2.5366e+08,2.8509e+05,12123,11201,1,11201,1,-0.0016327,-1.5276e-05,0,2.5569e-06,-0.0005214,-6.6405e+08,-1.9766e+06,0,3.4672e+05,2897.8,11200,11662,1,11662,1,-0.0005678,-2.0942e-06,0,0.00056867,-0.00031543,-2.308e+08,-4.3092e+05,0,1.7726e+08,90516,11661,12586,1,12586,1,0.0017097,2.0639e-06,0,0.0017098,0.00010836,2.5366e+08,4.2725e+05,0,2.6399e+08,4.5318e+05,12585,534.87,0,534.87,0,0.0013207,4.368e-06,0,0.00077504,0.00024597,3.0026e+08,7.501e+05,0,1.5146e+08,2.0914e+05,534.87,1
1848,7.02,12125,1,12125,1,0.00059958,-1.0808e-07,0,0.0012368,-0.00010849,-422.14,1958.9,0,2.5911e+08,3.8338e+05,12124,13096,1,13096,1,0.0028773,1.9256e-05,0,0.0028773,0.00030936,2.6638e+08,2.7937e+06,0,6.6941e+08,8.4451e+05,13095,12124,1,12124,1,0.00058686,-3.0381e-09,0,0.0011443,-0.00010576,1.4939e+08,-423.86,0,2.5104e+08,3.8228e+05,12123,11201,1,11201,1,-0.0016459,-2.0469e-05,0,4.8676e-06,-0.00053364,-6.6941e+08,-2.6219e+06,0,1.157e+06,4324.7,11200,11662,1,11662,1,-0.00056386,-2.9604e-06,0,0.00058502,-0.00032132,-2.2918e+08,-6.1386e+05,0,1.8001e+08,1.2654e+05,11661,12586,1,12586,1,0.0017433,2.9419e-06,0,0.0017433,0.00010784,2.5104e+08,6.0787e+05,0,2.6165e+08,6.2366e+05,12585,534.87,0,534.87,0,0.0013403,6.0978e-06,0,0.00079099,0.00024959,3.0043e+08,1.0244e+06,0,1.5195e+08,2.6699e+05,534.87,1
1848,7.03,12125,1,12125,1,0.00062536,-1.5785e-07,0,0.0012626,-0.00011281,900.21,51.69,0,2.5905e+08,5.0191e+05,12124,13096,1,13096,1,0.0029608,2.6109e-05,0,0.0029608,0.00031246,2.624e+08,3.6375e+06,0,6.7602e+08,1.0526e+06,13095,12124,1,12124,1,0.0006082,-2.8155e-08,0,0.0011508,-0.00010924,1.5298e+08,-5584.1,0,2.4691e+08,5.179e+05,12123,11201,1,11201,1,-0.0016622,-2.7234e-05,0,1.078e-05,-0.00054902,-6.7602e+08,-3.4746e+06,0,1.9182e+06,5824.8,11200,11662,1,11662,1,-0.00055922,-4.2352e-06,0,0.00059726,-0.0003282,-2.2727e+08,-8.6234e+05,0,1.8236e+08,1.5292e+05,11661,12586,1,12586,1,0.0017825,4.1566e-06,0,0.0017826,0.00010722,2.4691e+08,8.4954e+05,0,2.5969e+08,8.3936e+05,12585,534.87,0,534.87,0,0.0013639,8.5369e-06,0,0.00081034,0.00025393,3.0067e+08,1.3989e+06,0,1.525e+08,3.4562e+05,534.87,1
1848,7.04,12125,1,12125,1,0.00065675,-2.0957e-07,0,0.0012937,-0.00011807,-2410.9,926.81,0,2.5893e+08,6.5092e+05,12124,13096,1,13096,1,0.0030682,3.5042e-05,0,0.0030682,0.00031633,2.5803e+08,4.7008e+06,0,6.843e+08,1.3962e+06,13095,12124,1,12124,1,0.00063373,-3.5032e-08,0,0.0011631,-0.00011344,1.5716e+08,-6119.1,0,2.4319e+08,6.3523e+05,12123,11201,1,11201,1,-0.0016826,-3.5957e-05,0,1.9983e-05,-0.0005688,-6.843e+08,-4.5502e+06,0,4.463e+06,4846.7,11200,11662,1,11662,1,-0.00055348,-5.9552e-06,0,0.00061274,-0.00033635,-2.2492e+08,-1.2262e+06,0,1.8317e+08,1.9157e+05,11661,12586,1,12586,1,0.0018292,5.8954e-06,0,0.0018292,0.00010621,2.4318e+08,1.2148e+06,0,2.5725e+08,1.0713e+06,12585,534.87,0,534.87,0,0.0013925,1.1996e-05,0,0.00083432,0.00025918,3.0093e+08,1.9091e+06,0,1.5325e+08,4.5925e+05,534.87,1
1848,7.05,12125,1,12125,1,0.0006959,-2.8414e-07,0,0.0013323,-0.00012461,312.37,-139.46,0,2.5866e+08,8.3654e+05,12124,13096,1,13096,1,0.0032113,4.6729e-05,0,0.0032113,0.00032132,2.5328e+08,6.0239e+06,0,6.9493e+08,2.0113e+06,13095,12124,1,12124,1,0.00066514,-6.5393e-08,0,0.0011879,-0.00011866,1.6213e+08,-11517,0,2.3881e+08,7.5136e+05,12123,11201,1,11201,1,-0.0017087,-4.6978e-05,0,3.0573e-05,-0.00059517,-6.9493e+08,-5.9276e+06,0,7.8417e+06,1304.2,11200,11662,1,11662,1,-0.0005462,-8.6426e-06,0,0.00062642,-0.00035119,-2.2194e+08,-1.7484e+06,0,1.8299e+08,2.3632e+05,11661,12586,1,12586,1,0.0019182,8.5427e-06,0,0.0019182,0.00010473,2.3879e+08,1.7262e+06,0,2.5364e+08,1.3736e+06,12585,534.87,0,534.87,0,0.001428,1.7003e-05,0,0.00086497,0.00026571,3.0126e+08,2.6124e+06,0,1.5434e+08,6.4052e+05,534.87,1
1848,7.06,12125,1,12125,1,0.00074596,-3.5691e-07,0,0.0013813,-0.00013286,-1020.5,1931.5,0,2.5821e+08,1.0684e+06,12124,13096,1,13096,1,0.0034104,6.2703e-05,0,0.0034104,0.00032798,2.5151e+08,7.7112e+06,0,7.0911e+08,3.0369e+06,13095,12124,1,12124,1,0.00070559,-9.152e-08,0,0.0012726,-0.00012514,1.6821e+08,-15164,0,2.3447e+08,8.382e+05,12123,11201,1,11201,1,-0.0017436,-6.2714e-05,0,4.2423e-05,-0.00063186,-7.0911e+08,-7.7092e+06,0,1.158e+07,-3.4185e+05,11200,11662,1,11662,1,-0.00053673,-1.3017e-05,0,0.00062099,-0.00036911,-2.1806e+08,-2.5093e+06,0,1.813e+08,1.9743e+05,11661,12586,1,12586,1,0.0020228,1.2893e-05,0,0.0020235,0.00010273,2.3444e+08,2.4794e+06,0,2.5117e+08,1.8374e+06,12585,534.87,0,534.87,0,0.0014737,2.4445e-05,0,0.00090557,0.00027401,3.017e+08,3.5993e+06,0,1.5596e+08,9.499e+05,534.87,1
1848,7.07,12125,1,12125,1,0.00081247,-4.7198e-07,0,0.0014459,-0.00014345,-245.75,1283.4,0,2.5742e+08,1.351e+06,12124,13096,1,13096,1,0.003703,8.822e-05,0,0.003703,0.00033711,2.5312e+08,1.0173e+07,0,7.2853e+08,4.6726e+06,13095,12124,1,12124,1,0.00078814,-1.4505e-07,0,0.0013246,-0.00013304,1.795e+08,-23873,0,2.295e+08,8.9409e+05,12123,11201,1,11201,1,-0.0017914,-8.8367e-05,0,3.2325e-06,-0.00068583,-7.2853e+08,-1.0154e+07,0,3.9009e+06,-1.4563e+06,11200,11662,1,11662,1,-0.00052355,-1.9183e-05,0,0.00061303,-0.00038645,-2.1266e+08,-3.7392e+06,0,1.8032e+08,1.0399e+05,11661,12586,1,12586,1,0.002127,1.88e-05,0,0.0021283,0.00010017,2.2946e+08,3.6983e+06,0,2.5003e+08,2.5073e+06,12585,534.87,0,534.87,0,0.0015349,3.5901e-05,0,0.00096222,0.00028488,3.0226e+08,4.9977e+06,0,1.5839e+08,1.4873e+06,534.87,1
1848,7.08,12125,1,12125,1,0.00090491,-5.855e-07,0,0.0015366,-0.00015759,-2251.7,2337.2,0,2.5645e+08,1.6999e+06,12124,13096,1,13096,1,0.0041648,0.00013308,0,0.0041648,0.00035032,2.5671e+08,1.4018e+07,0,7.5657e+08,7.3978e+06,13095,12124,1,12124,1,0.00089073,-4.5198e-08,0,0.0013735,-0.00014315,1.8023e+08,-7505.6,0,2.251e+08,9.0304e+05,12123,11201,1,11201,1,-0.0018604,-0.00013317,0,2.6486e-05,-0.00077109,-7.5657e+08,-1.4012e+07,0,7.0036e+06,-3.1924e+06,11200,11662,1,11662,1,-0.00050422,-2.8557e-05,0,0.00068805,-0.00040319,-2.047e+08,-5.5993e+06,0,1.8025e+08,25817,11661,12586,1,12586,1,0.0022648,2.7799e-05,0,0.0022664,9.744e-05,2.2504e+08,5.5824e+06,0,2.5133e+08,3.3609e+06,12585,534.87,0,534.87,0,0.0016222,5.4681e-05,0,0.0010448,0.00029987,3.0305e+08,7.0538e+06,0,1.6151e+08,2.4271e+06,534.87,1
1848,7.09,12125,1,12125,1,0.0010422,-7.1715e-07,0,0.0016714,-0.00017748,-6224.4,7716.7,0,2.5502e+08,2.1132e+06,12124,13096,1,13096,1,0.0049737,0.00021871,0,0.0049737,0.00037077,2.6493e+08,2.0249e+07,0,7.9987e+08,1.2013e+07,13095,12124,1,12124,1,0.00098825,-1.7576e-07,0,0.0014503,-0.00015882,1.6463e+08,-27737,0,2.1834e+08,8.7188e+05,12123,11201,1,11201,1,-0.0019669,-0.00021901,0,4.09e-05,-0.00092064,-7.9987e+08,-2.0209e+07,0,1.1954e+07,-5.9163e+06,11200,11662,1,11662,1,-0.00047314,-4.4427e-05,0,0.00075903,-0.00042821,-1.9183e+08,-8.1429e+06,0,1.6558e+08,-2.7139e+05,11661,12586,1,12586,1,0.0024309,4.272e-05,0,0.0024341,9.3912e-05,2.1993e+08,8.108e+06,0,2.5538e+08,4.7196e+06,12585,534.87,0,534.87,0,0.00176,8.7967e-05,0,0.001182,0.00032213,3.0437e+08,1.0152e+07,0,1.6636e+08,4.0732e+06,534.87,1
1848,7.1,12125,1,12125,1,0.0012645,-9.4312e-07,0,0.0018898,-0.00020586,-141.54,1134.5,0,2.5238e+08,2.6015e+06,12124,13096,1,13096,1,0.0066092,0.00041708,0,0.0066092,0.00040429,2.8202e+08,3.0898e+07,0,8.7049e+08,2.0075e+07,13095,12124,1,12124,1,0.001168,-5.8604e-07,0,0.001553,-0.00018329,1.5046e+08,-86005,0,2.0927e+08,7.7304e+05,12123,11201,1,11201,1,-0.0021407,-0.00041773,0,4.755e-05,-0.0012236,-8.7049e+08,-3.0856e+07,0,1.5049e+07,-9.9121e+06,11200,11662,1,11662,1,-0.00041619,-7.2226e-05,0,0.00073697,-0.00044531,-1.6809e+08,-1.2061e+07,0,1.522e+08,-1.3324e+06,11661,12586,1,12586,1,0.0026269,7.0048e-05,0,0.002641,8.8811e-05,2.1297e+08,1.2129e+07,0,2.6495e+08,6.6323e+06,12585,534.87,0,534.87,0,0.0020106,0.00015572,0,0.0014468,0.00035838,3.0646e+08,1.4998e+07,0,1.7438e+08,6.9763e+06,534.87,1
1848,7.105,12125,1,12125,1,0.0016613,-1.1054e-06,0,0.0022817,-0.00024273,-131.67,2645.6,0,2.4675e+08,3.1434e+06,12124,13096,1,13096,1,0.010676,0.00097687,0,0.010676,0.00046226,3.1477e+08,4.9196e+07,0,9.9159e+08,3.3669e+07,13095,12124,1,12124,1,0.0013809,-1.4494e-06,0,0.0016766,-0.00022369,1.3422e+08,-2.1467e+05,0,1.9791e+08,4.6481e+05,12123,11201,1,11201,1,-0.0024388,-0.00097736,0,4.7152e-05,-0.0019765,-9.9159e+08,-4.9144e+07,0,1.5959e+07,-1.6849e+07,11200,11662,1,11662,1,-0.00027885,-0.00012201,0,0.00086857,-0.0004396,-1.1191e+08,-1.8187e+07,0,1.3304e+08,-4.0433e+06,11661,12586,1,12586,1,0.0028525,0.0001181,0,0.0028899,7.025e-05,2.0375e+08,1.8328e+07,0,2.7488e+08,9.6842e+06,12585,534.87,0,534.87,0,0.0025703,0.00031972,0,0.0020643,0.00042454,3.093e+08,2.2508e+07,0,1.8777e+08,1.1835e+07,534.87,1
1848,7.105,12125,1,12125,1,0.0017481,-1.1254e-06,0,0.0023705,-0.00024536,0.72863,2530,0,2.4594e+08,3.2381e+06,12124,13096,1,13096,1,0.01225,0.0012081,0,0.01225,0.00047592,3.2682e+08,5.3513e+07,0,1.0201e+09,3.7529e+07,13095,12124,1,12124,1,0.0013998,-1.827e-06,0,0.0017057,-0.00022831,1.2978e+08,-2.6969e+05,0,1.96e+08,3.7151e+05,12123,11201,1,11201,1,-0.0025091,-0.0012083,0,4.7028e-05,-0.0022623,-1.0201e+09,-5.3445e+07,0,1.5999e+07,-1.8501e+07,11200,11662,1,11662,1,-0.00025111,-0.00013412,0,0.00089212,-0.00042829,-1.0114e+08,-1.932e+07,0,1.2781e+08,-4.7736e+06,11661,12586,1,12586,1,0.0029124,0.0001307,0,0.0029247,6.6339e-05,2.0111e+08,1.9671e+07,0,2.7393e+08,1.0506e+07,12585,534.87,0,534.87,0,0.0027316,0.00037858,0,0.002245,0.00043731,3.1052e+08,2.4283e+07,0,1.9103e+08,1.3076e+07,534.87,1
