"N","Time","avg(GlobalElementId)","avg(ObjectId)","avg(PedigreeElementId)","avg(alpha)","avg(strain_x (0))","avg(strain_x (1))","avg(strain_x (2))","avg(strain_x (Magnitude))","avg(strain_yy)","avg(stress_x (0))","avg(stress_x (1))","avg(stress_x (2))","avg(stress_x (Magnitude))","avg(stress_yy)","avg(vtkOriginalCellIds)","max(GlobalElementId)","max(ObjectId)","max(PedigreeElementId)","max(alpha)","max(strain_x (0))","max(strain_x (1))","max(strain_x (2))","max(strain_x (Magnitude))","max(strain_yy)","max(stress_x (0))","max(stress_x (1))","max(stress_x (2))","max(stress_x (Magnitude))","max(stress_yy)","max(vtkOriginalCellIds)","med(GlobalElementId)","med(ObjectId)","med(PedigreeElementId)","med(alpha)","med(strain_x (0))","med(strain_x (1))","med(strain_x (2))","med(strain_x (Magnitude))","med(strain_yy)","med(stress_x (0))","med(stress_x (1))","med(stress_x (2))","med(stress_x (Magnitude))","med(stress_yy)","med(vtkOriginalCellIds)","min(GlobalElementId)","min(ObjectId)","min(PedigreeElementId)","min(alpha)","min(strain_x (0))","min(strain_x (1))","min(strain_x (2))","min(strain_x (Magnitude))","min(strain_yy)","min(stress_x (0))","min(stress_x (1))","min(stress_x (2))","min(stress_x (Magnitude))","min(stress_yy)","min(vtkOriginalCellIds)","q1(GlobalElementId)","q1(ObjectId)","q1(PedigreeElementId)","q1(alpha)","q1(strain_x (0))","q1(strain_x (1))","q1(strain_x (2))","q1(strain_x (Magnitude))","q1(strain_yy)","q1(stress_x (0))","q1(stress_x (1))","q1(stress_x (2))","q1(stress_x (Magnitude))","q1(stress_yy)","q1(vtkOriginalCellIds)","q3(GlobalElementId)","q3(ObjectId)","q3(PedigreeElementId)","q3(alpha)","q3(strain_x (0))","q3(strain_x (1))","q3(strain_x (2))","q3(strain_x (Magnitude))","q3(strain_yy)","q3(stress_x (0))","q3(stress_x (1))","q3(stress_x (2))","q3(stress_x (Magnitude))","q3(stress_yy)","q3(vtkOriginalCellIds)","std(GlobalElementId)","std(ObjectId)","std(PedigreeElementId)","std(alpha)","std(strain_x (0))","std(strain_x (1))","std(strain_x (2))","std(strain_x (Magnitude))","std(strain_yy)","std(stress_x (0))","std(stress_x (1))","std(stress_x (2))","std(stress_x (Magnitude))","std(stress_yy)","std(vtkOriginalCellIds)","vtkValidPointMask"
5396,0,12260,1,12260,1,0,0,0,0,0,0,0,0,0,0,12259,15904,1,15904,1,0,0,0,0,0,0,0,0,0,0,15903,12262,1,12262,1,0,0,0,0,0,0,0,0,0,0,12261,8553,1,8553,1,0,0,0,0,0,0,0,0,0,0,8552,10465,1,10465,1,0,0,0,0,0,0,0,0,0,0,10464,14059,1,14059,1,0,0,0,0,0,0,0,0,0,0,14058,2091.4,0,2091.4,0,0,0,0,0,0,0,0,0,0,0,2091.4,1
5396,0.01,12260,1,12260,1,1.6256e-06,4.6221e-09,0,1.6782e-06,-3.1136e-07,1.6852e+05,630.63,0,1.9007e+05,-4082.5,12259,15904,1,15904,1,3.7068e-06,2.0335e-07,0,3.7068e-06,9.6065e-08,2.9759e+05,34494,0,2.9759e+05,8743.7,15903,12262,1,12262,1,1.623e-06,3.3914e-10,0,1.6233e-06,-3.1444e-07,2.161e+05,33.141,0,2.1611e+05,-2492.5,12261,8553,1,8553,1,-4.7816e-07,-1.3136e-07,0,7.8692e-10,-7.9681e-07,-1.9402e+05,-21060,0,1697,-52894,8552,10465,1,10465,1,6.024e-07,-1.0242e-08,0,6.0252e-07,-5.0265e-07,1.2318e+05,-1295.1,0,1.418e+05,-4808,10464,14059,1,14059,1,2.6468e-06,1.1813e-08,0,2.6469e-06,-1.1535e-07,2.4991e+05,1358.1,0,2.4992e+05,-937.1,14058,2091.4,0,2091.4,0,1.2049e-06,3.6072e-08,0,1.131e-06,2.2618e-07,1.1751e+05,5245.5,0,78165,5662.1,2091.4,1
5396,0.02,12260,1,12260,1,3.361e-06,7.3653e-09,0,3.4621e-06,-6.492e-07,3.4988e+05,1128.3,0,3.9144e+05,-10688,12259,15904,1,15904,1,7.5524e-06,4.0417e-07,0,7.5524e-06,1.6604e-07,6.0618e+05,71716,0,6.0618e+05,2712.1,15903,12262,1,12262,1,3.3238e-06,4.2113e-09,0,3.3246e-06,-6.7095e-07,4.4303e+05,425.65,0,4.4318e+05,-5868.3,12261,8553,1,8553,1,-8.8619e-07,-2.0658e-07,0,4.5418e-10,-1.4177e-06,-3.6331e+05,-39125,0,982.28,-69630,8552,10465,1,10465,1,1.2337e-06,-1.7606e-08,0,1.2364e-06,-1.0508e-06,2.511e+05,-2366.2,0,3.0404e+05,-16381,10464,14059,1,14059,1,5.4306e-06,3.0392e-08,0,5.4307e-06,-2.6305e-07,5.1498e+05,4004,0,5.1498e+05,-2062.2,14058,2091.4,0,2091.4,0,2.4702e-06,7.8309e-08,0,2.3277e-06,4.5676e-07,2.3812e+05,11748,0,1.6131e+05,11695,2091.4,1
5396,0.03,12260,1,12260,1,4.9627e-06,1.481e-08,0,5.1102e-06,-9.2253e-07,5.178e+05,2107.8,0,5.785e+05,-3214.5,12259,15904,1,15904,1,1.1085e-05,5.8103e-07,0,1.1085e-05,2.4416e-07,8.8994e+05,1.0812e+05,0,8.8994e+05,643.3,15903,12262,1,12262,1,4.8924e-06,-1.5575e-10,0,4.8924e-06,-9.0976e-07,6.5482e+05,-12.244,0,6.5482e+05,-131.11,12261,8553,1,8553,1,-1.2638e-06,-3.1358e-07,0,1.1997e-08,-2.0561e-06,-5.135e+05,-57776,0,197.89,-1.003e+05,8552,10465,1,10465,1,1.8158e-06,-4.9914e-09,0,1.8159e-06,-1.4772e-06,3.7165e+05,-700.46,0,4.5546e+05,-2279.5,10464,14059,1,14059,1,7.9881e-06,4.4881e-09,0,7.9881e-06,-3.3309e-07,7.6084e+05,628.98,0,7.6087e+05,-28.684,14058,2091.4,0,2091.4,0,3.646e-06,8.8979e-08,0,3.4374e-06,6.7417e-07,3.5109e+05,13460,0,2.3853e+05,9661,2091.4,1
5396,0.04,12260,1,12260,1,6.6207e-06,1.9191e-08,0,6.8176e-06,-1.2286e-06,6.9082e+05,2730.5,0,7.7188e+05,-3662.4,12259,15904,1,15904,1,1.4786e-05,7.7643e-07,0,1.4786e-05,3.2602e-07,1.187e+06,1.4462e+05,0,1.187e+06,1231.8,15903,12262,1,12262,1,6.5348e-06,-4.4596e-10,0,6.5348e-06,-1.2043e-06,8.7468e+05,-39.611,0,8.7479e+05,-76.339,12261,8553,1,8553,1,-1.6864e-06,-4.2179e-07,0,1.3185e-08,-2.7483e-06,-6.8519e+05,-77582,0,459.76,-1.3423e+05,8552,10465,1,10465,1,2.4248e-06,-7.5201e-09,0,2.4251e-06,-1.9707e-06,4.966e+05,-1006.3,0,6.0749e+05,-388.26,10464,14059,1,14059,1,1.066e-05,6.667e-09,0,1.0661e-05,-4.3971e-07,1.0158e+06,900.26,0,1.0158e+06,-17.828,14058,2091.4,0,2091.4,0,4.8646e-06,1.194e-07,0,4.586e-06,9.0005e-07,4.6852e+05,18051,0,3.1821e+05,12953,2091.4,1
5396,0.05,12260,1,12260,1,8.2775e-06,2.5758e-08,0,8.5237e-06,-1.5362e-06,8.6372e+05,3699.4,0,9.6502e+05,-4750.5,12259,15904,1,15904,1,1.8803e-05,9.5961e-07,0,1.8817e-05,4.0791e-07,1.5075e+06,1.7923e+05,0,1.5084e+06,39413,15903,12262,1,12262,1,8.1599e-06,-1.7923e-09,0,8.1599e-06,-1.5047e-06,1.0919e+06,-165.26,0,1.0921e+06,-142.38,12261,8553,1,8553,1,-2.1093e-06,-2.4029e-06,0,7.9499e-09,-3.6125e-06,-8.5706e+05,-1.7389e+05,0,946.19,-1.6685e+05,8552,10465,1,10465,1,3.0269e-06,-6.8277e-09,0,3.0275e-06,-2.4629e-06,6.2001e+05,-941.02,0,7.6072e+05,-736.42,10464,14059,1,14059,1,1.3324e-05,1.0455e-08,0,1.3324e-05,-5.4998e-07,1.2686e+06,1496.7,0,1.2686e+06,-8.6041,14058,2091.4,0,2091.4,0,6.0819e-06,1.5354e-07,0,5.7339e-06,1.1256e-06,5.8571e+05,22649,0,3.9787e+05,16515,2091.4,1
5396,0.06,12260,1,12260,1,9.897e-06,2.9946e-08,0,1.0191e-05,-1.8358e-06,1.0328e+06,4263.9,0,1.1537e+06,-5241.2,12259,15904,1,15904,1,2.1973e-05,1.1409e-06,0,2.1973e-05,4.8526e-07,1.7641e+06,2.1319e+05,0,1.7641e+06,413.55,15903,12262,1,12262,1,9.7297e-06,1.7126e-10,0,9.7297e-06,-1.7898e-06,1.303e+06,19.348,0,1.303e+06,1.6174,12261,8553,1,8553,1,-2.5059e-06,-6.2371e-07,0,3.0829e-08,-4.0751e-06,-1.0181e+06,-1.1532e+05,0,1440.6,-2.0006e+05,8552,10465,1,10465,1,3.6107e-06,-1.042e-09,0,3.6108e-06,-2.9301e-06,7.3969e+05,-128.86,0,9.115e+05,-50.732,10464,14059,1,14059,1,1.5848e-05,9.459e-10,0,1.5848e-05,-6.5306e-07,1.5125e+06,126.94,0,1.5125e+06,22.478,14058,2091.4,0,2091.4,0,7.2705e-06,1.7395e-07,0,6.855e-06,1.3457e-06,6.9996e+05,26361,0,4.7562e+05,19485,2091.4,1
5396,0.07,12260,1,12260,1,1.1555e-05,3.4996e-08,0,1.1898e-05,-2.1434e-06,1.2058e+06,4983.3,0,1.347e+06,-6127.1,12259,15904,1,15904,1,2.5653e-05,1.3363e-06,0,2.5653e-05,5.6632e-07,2.0594e+06,2.4937e+05,0,2.0594e+06,340.93,15903,12262,1,12262,1,1.1361e-05,-2.2244e-10,0,1.1361e-05,-2.0899e-06,1.5216e+06,-25.97,0,1.5216e+06,-9.5296,12261,8553,1,8553,1,-2.926e-06,-7.3354e-07,0,3.2743e-08,-4.7577e-06,-1.1888e+06,-1.3556e+05,0,826.18,-2.3298e+05,8552,10465,1,10465,1,4.2176e-06,-6.804e-10,0,4.2176e-06,-3.4212e-06,8.6403e+05,-89.583,0,1.0644e+06,-35.072,10464,14059,1,14059,1,1.8506e-05,8.4513e-10,0,1.8506e-05,-7.6258e-07,1.7664e+06,100.85,0,1.7664e+06,0.21589,14058,2091.4,0,2091.4,0,8.4888e-06,2.0418e-07,0,8.0035e-06,1.5712e-06,8.1728e+05,30913,0,5.5531e+05,22705,2091.4,1
5396,0.08,12260,1,12260,1,1.3206e-05,3.9362e-08,0,1.3599e-05,-2.4491e-06,1.3781e+06,5643.5,0,1.5395e+06,-6903.5,12259,15904,1,15904,1,2.9465e-05,1.5157e-06,0,2.9465e-05,6.4802e-07,2.3659e+06,2.8448e+05,0,2.3659e+06,24295,15903,12262,1,12262,1,1.2988e-05,-3.6002e-12,0,1.2988e-05,-2.3887e-06,1.7395e+06,-0.3084,0,1.7395e+06,8.9263,12261,8553,1,8553,1,-3.3443e-06,-8.3084e-07,0,3.9019e-08,-5.5217e-06,-1.3587e+06,-1.5499e+05,0,1656.8,-2.6535e+05,8552,10465,1,10465,1,4.8216e-06,-9.9842e-10,0,4.8217e-06,-3.9104e-06,9.8779e+05,-126.88,0,1.2157e+06,-619.91,10464,14059,1,14059,1,2.1154e-05,9.1159e-10,0,2.1154e-05,-8.7177e-07,2.0193e+06,126.28,0,2.0193e+06,33.843,14058,2091.4,0,2091.4,0,9.7028e-06,2.3298e-07,0,9.1479e-06,1.7956e-06,9.3419e+05,35212,0,6.347e+05,25776,2091.4,1
5396,0.09,12260,1,12260,1,1.485e-05,4.2797e-08,0,1.5292e-05,-2.7545e-06,1.5494e+06,6233.9,0,1.7312e+06,-7940.3,12259,15904,1,15904,1,3.3179e-05,1.7065e-06,0,3.3179e-05,7.3094e-07,2.6643e+06,3.2089e+05,0,2.6643e+06,24198,15903,12262,1,12262,1,1.4611e-05,-3.0095e-10,0,1.4611e-05,-2.6877e-06,1.9563e+06,-34.445,0,1.9564e+06,15.514,12261,8553,1,8553,1,-3.7631e-06,-9.3742e-07,0,4.5713e-08,-6.1641e-06,-1.5287e+06,-1.7451e+05,0,2798,-2.997e+05,8552,10465,1,10465,1,5.4227e-06,-3.1033e-09,0,5.4231e-06,-4.401e-06,1.1109e+06,-409.11,0,1.3668e+06,-1625.6,10464,14059,1,14059,1,2.3802e-05,2.9417e-09,0,2.3802e-05,-9.8073e-07,2.2717e+06,484.33,0,2.2717e+06,240.72,14058,2091.4,0,2091.4,0,1.0912e-05,2.6155e-07,0,1.0288e-05,2.0198e-06,1.0508e+06,39629,0,7.1376e+05,29158,2091.4,1
5396,0.1,12260,1,12260,1,1.6508e-05,4.8298e-08,0,1.6998e-05,-3.0621e-06,1.7226e+06,7007,0,1.9243e+06,-8803.6,12259,15904,1,15904,1,3.6906e-05,1.9026e-06,0,3.6906e-05,8.1054e-07,2.9633e+06,3.5579e+05,0,2.9633e+06,24862,15903,12262,1,12262,1,1.624e-05,-2.1993e-10,0,1.624e-05,-2.9875e-06,2.1747e+06,-38.028,0,2.1748e+06,30.197,12261,8553,1,8553,1,-4.1818e-06,-1.0306e-06,0,5.021e-08,-6.8758e-06,-1.6989e+06,-1.9425e+05,0,3021,-3.3057e+05,8552,10465,1,10465,1,6.0289e-06,-3.2644e-09,0,6.0289e-06,-4.8916e-06,1.2351e+06,-365.27,0,1.5192e+06,-1593.9,10464,14059,1,14059,1,2.6457e-05,4.0784e-09,0,2.6457e-05,-1.0906e-06,2.5252e+06,533.42,0,2.5252e+06,318.84,14058,2091.4,0,2091.4,0,1.2128e-05,2.9245e-07,0,1.1435e-05,2.2452e-06,1.1676e+06,44084,0,7.9344e+05,32101,2091.4,1
5396,0.11,12260,1,12260,1,1.8157e-05,5.4186e-08,0,1.8695e-05,-3.3684e-06,1.8946e+06,7743.2,0,2.1165e+06,-9778.6,12259,15904,1,15904,1,4.0538e-05,2.0676e-06,0,4.0538e-05,8.9046e-07,3.255e+06,3.9319e+05,0,3.255e+06,31825,15903,12262,1,12262,1,1.7855e-05,-6.2345e-10,0,1.7856e-05,-3.2857e-06,2.3911e+06,-94.416,0,2.3911e+06,-19.033,12261,8553,1,8553,1,-4.5977e-06,-1.1284e-06,0,5.3686e-08,-7.5261e-06,-1.868e+06,-2.1309e+05,0,2493.6,-3.6538e+05,8552,10465,1,10465,1,6.629e-06,-3.332e-09,0,6.6291e-06,-5.3796e-06,1.3581e+06,-484.53,0,1.672e+06,-1738.6,10464,14059,1,14059,1,2.9094e-05,4.3078e-09,0,2.9094e-05,-1.1992e-06,2.7766e+06,607.39,0,2.7766e+06,327.36,14058,2091.4,0,2091.4,0,1.3339e-05,3.1555e-07,0,1.2577e-05,2.4698e-06,1.2842e+06,48247,0,8.7268e+05,35566,2091.4,1
5396,0.12,12260,1,12260,1,1.9799e-05,5.9557e-08,0,2.0387e-05,-3.6733e-06,2.0661e+06,8519.4,0,2.3081e+06,-10687,12259,15904,1,15904,1,4.4133e-05,2.2618e-06,0,4.4133e-05,9.7212e-07,3.544e+06,4.2793e+05,0,3.544e+06,32399,15903,12262,1,12262,1,1.9472e-05,4.9031e-10,0,1.9472e-05,-3.5818e-06,2.6078e+06,96.273,0,2.6078e+06,-38.606,12261,8553,1,8553,1,-5.0132e-06,-1.2455e-06,0,5.9922e-08,-8.2092e-06,-2.0368e+06,-2.3069e+05,0,3341.1,-3.9808e+05,8552,10465,1,10465,1,7.2292e-06,-2.0521e-09,0,7.2293e-06,-5.8654e-06,1.481e+06,-285.11,0,1.8239e+06,-1283.2,10464,14059,1,14059,1,3.1721e-05,4.2212e-09,0,3.1721e-05,-1.3071e-06,3.0277e+06,472.1,0,3.0277e+06,268.62,14058,2091.4,0,2091.4,0,1.4546e-05,3.4699e-07,0,1.3715e-05,2.6931e-06,1.4005e+06,52720,0,9.516e+05,38839,2091.4,1
5396,0.13,12260,1,12260,1,2.1447e-05,6.7238e-08,0,2.2083e-05,-3.9791e-06,2.2379e+06,9437.7,0,2.5001e+06,-11696,12259,15904,1,15904,1,4.7998e-05,2.4607e-06,0,4.7999e-05,1.053e-06,3.8555e+06,4.6199e+05,0,3.8555e+06,57286,15903,12262,1,12262,1,2.1098e-05,1.1389e-09,0,2.1098e-05,-3.8809e-06,2.8257e+06,167.19,0,2.8257e+06,-102.5,12261,8553,1,8553,1,-5.434e-06,-1.3589e-06,0,6.64e-08,-8.9075e-06,-2.2078e+06,-2.481e+05,0,3136,-4.3153e+05,8552,10465,1,10465,1,7.8348e-06,-1.6146e-09,0,7.8349e-06,-6.3565e-06,1.6051e+06,-210.12,0,1.9736e+06,-2107.3,10464,14059,1,14059,1,3.4367e-05,6.4539e-09,0,3.4367e-05,-1.4165e-06,3.2801e+06,744.52,0,3.2801e+06,251.15,14058,2091.4,0,2091.4,0,1.5756e-05,3.7774e-07,0,1.4856e-05,2.9171e-06,1.517e+06,57053,0,1.0307e+06,42196,2091.4,1
5396,0.14,12260,1,12260,1,2.3097e-05,6.5765e-08,0,2.3783e-05,-4.2849e-06,2.4101e+06,9590.4,0,2.6924e+06,-12410,12259,15904,1,15904,1,5.1727e-05,2.6346e-06,0,5.1727e-05,1.1339e-06,4.1547e+06,4.9753e+05,0,4.1547e+06,33215,15903,12262,1,12262,1,2.2712e-05,-1.2547e-09,0,2.2712e-05,-4.1779e-06,3.0414e+06,-199.67,0,3.0415e+06,-48.209,12261,8553,1,8553,1,-5.8501e-06,-1.4582e-06,0,7.2135e-08,-9.5803e-06,-2.3767e+06,-2.6919e+05,0,4595.3,-4.6381e+05,8552,10465,1,10465,1,8.4312e-06,-4.2445e-09,0,8.4316e-06,-6.8429e-06,1.7271e+06,-508.83,0,2.1269e+06,-1900.4,10464,14059,1,14059,1,3.7004e-05,3.2408e-09,0,3.7004e-05,-1.5247e-06,3.5318e+06,447.02,0,3.5318e+06,395.59,14058,2091.4,0,2091.4,0,1.6969e-05,4.0604e-07,0,1.5999e-05,3.1417e-06,1.6338e+06,61453,0,1.11e+06,45068,2091.4,1
5396,0.15,12260,1,12260,1,2.4749e-05,7.588e-08,0,2.5484e-05,-4.5912e-06,2.5826e+06,10736,0,2.885e+06,-13228,12259,15904,1,15904,1,5.5154e-05,2.857e-06,0,5.5154e-05,1.2131e-06,4.4281e+06,5.3283e+05,0,4.4281e+06,30375,15903,12262,1,12262,1,2.4341e-05,3.1854e-10,0,2.4341e-05,-4.4768e-06,3.2601e+06,60.663,0,3.2601e+06,-33.911,12261,8553,1,8553,1,-6.2664e-06,-1.5554e-06,0,7.4747e-08,-1.0244e-05,-2.5459e+06,-2.9035e+05,0,3311.6,-4.9961e+05,8552,10465,1,10465,1,9.0385e-06,-2.1938e-09,0,9.0385e-06,-7.3305e-06,1.8517e+06,-292.52,0,2.2785e+06,-1400.7,10464,14059,1,14059,1,3.9647e-05,4.2629e-09,0,3.9647e-05,-1.6341e-06,3.7842e+06,479.04,0,3.7842e+06,275.74,14058,2091.4,0,2091.4,0,1.8182e-05,4.3383e-07,0,1.7143e-05,3.3661e-06,1.7505e+06,65863,0,1.1895e+06,48666,2091.4,1
5396,0.16,12260,1,12260,1,2.6401e-05,7.9471e-08,0,2.7184e-05,-4.8976e-06,2.7551e+06,11353,0,3.0775e+06,-14033,12259,15904,1,15904,1,5.8855e-05,3.0274e-06,0,5.8855e-05,1.2941e-06,4.7254e+06,5.6834e+05,0,4.7254e+06,10692,15903,12262,1,12262,1,2.5958e-05,4.2562e-10,0,2.5958e-05,-4.7745e-06,3.4765e+06,68.551,0,3.4766e+06,0.31233,12261,8553,1,8553,1,-6.6821e-06,-1.6544e-06,0,8.0496e-08,-1.0902e-05,-2.7147e+06,-3.0944e+05,0,4232.8,-5.3224e+05,8552,10465,1,10465,1,9.6383e-06,-1.6268e-09,0,9.6384e-06,-7.818e-06,1.9745e+06,-211.33,0,2.4316e+06,-1302.4,10464,14059,1,14059,1,4.2277e-05,3.0858e-09,0,4.2277e-05,-1.7427e-06,4.0352e+06,340.68,0,4.0352e+06,249.8,14058,2091.4,0,2091.4,0,1.9395e-05,4.6163e-07,0,1.8287e-05,3.5908e-06,1.867e+06,70156,0,1.2689e+06,51662,2091.4,1
5396,0.17,12260,1,12260,1,2.804e-05,8.3339e-08,0,2.8873e-05,-5.202e-06,2.926e+06,11949,0,3.2687e+06,-15034,12259,15904,1,15904,1,6.2575e-05,3.2213e-06,0,6.2575e-05,1.3775e-06,5.026e+06,6.0397e+05,0,5.026e+06,32336,15903,12262,1,12262,1,2.7573e-05,-3.5651e-10,0,2.7573e-05,-5.0714e-06,3.693e+06,-61.144,0,3.693e+06,-2.4202,12261,8553,1,8553,1,-7.102e-06,-1.7666e-06,0,8.5501e-08,-1.1642e-05,-2.8851e+06,-3.28e+05,0,5157,-5.6391e+05,8552,10465,1,10465,1,1.0237e-05,-2.9294e-09,0,1.0238e-05,-8.3045e-06,2.0973e+06,-337.7,0,2.5824e+06,-1464.5,10464,14059,1,14059,1,4.4914e-05,2.8859e-09,0,4.4914e-05,-1.8509e-06,4.2872e+06,295.38,0,4.2872e+06,255.93,14058,2091.4,0,2091.4,0,2.0601e-05,4.9476e-07,0,1.9423e-05,3.814e-06,1.9835e+06,74755,0,1.3476e+06,54843,2091.4,1
5396,0.18,12260,1,12260,1,2.9688e-05,9.1172e-08,0,3.0569e-05,-5.5072e-06,3.0979e+06,12888,0,3.4607e+06,-15816,12259,15904,1,15904,1,6.6196e-05,3.4178e-06,0,6.6196e-05,1.4578e-06,5.3182e+06,6.384e+05,0,5.3182e+06,32094,15903,12262,1,12262,1,2.9191e-05,4.1842e-10,0,2.9191e-05,-5.3688e-06,3.9097e+06,58.565,0,3.9097e+06,8.8069,12261,8553,1,8553,1,-7.5174e-06,-1.8765e-06,0,9.4425e-08,-1.23e-05,-3.054e+06,-3.4587e+05,0,5608,-5.9732e+05,8552,10465,1,10465,1,1.0838e-05,-1.3455e-09,0,1.0838e-05,-8.7906e-06,2.2203e+06,-168.09,0,2.7338e+06,-918.1,10464,14059,1,14059,1,4.7547e-05,3.6465e-09,0,4.7547e-05,-1.9593e-06,4.5385e+06,392.04,0,4.5385e+06,214.68,14058,2091.4,0,2091.4,0,2.1811e-05,5.2333e-07,0,2.0564e-05,4.0373e-06,2.0999e+06,79056,0,1.4268e+06,58184,2091.4,1
5396,0.19,12260,1,12260,1,3.1349e-05,9.4767e-08,0,3.228e-05,-5.815e-06,3.2714e+06,13485,0,3.6543e+06,-16560,12259,15904,1,15904,1,6.9936e-05,3.5913e-06,0,6.9936e-05,1.5387e-06,5.615e+06,6.7602e+05,0,5.615e+06,33023,15903,12262,1,12262,1,3.0828e-05,-5.5299e-11,0,3.0828e-05,-5.6698e-06,4.1289e+06,-9.8147,0,4.129e+06,10.875,12261,8553,1,8553,1,-7.9364e-06,-1.9674e-06,0,9.4031e-08,-1.295e-05,-3.2242e+06,-3.672e+05,0,4392.7,-6.3072e+05,8552,10465,1,10465,1,1.1447e-05,-2.3268e-09,0,1.1447e-05,-9.2817e-06,2.3451e+06,-284.01,0,2.8867e+06,-1220.3,10464,14059,1,14059,1,5.0209e-05,2.8312e-09,0,5.0209e-05,-2.0696e-06,4.7924e+06,343.66,0,4.7924e+06,282.08,14058,2091.4,0,2091.4,0,2.3031e-05,5.4756e-07,0,2.1715e-05,4.2632e-06,2.2171e+06,83345,0,1.5067e+06,61188,2091.4,1
5396,0.2,12260,1,12260,1,3.2998e-05,9.9919e-08,0,3.3977e-05,-6.1213e-06,3.4433e+06,14236,0,3.8465e+06,-17559,12259,15904,1,15904,1,7.3585e-05,3.7992e-06,0,7.3585e-05,1.617e-06,5.9077e+06,7.1021e+05,0,5.9077e+06,26271,15903,12262,1,12262,1,3.2447e-05,5.3949e-10,0,3.2447e-05,-5.9678e-06,4.3458e+06,72.983,0,4.3459e+06,-34.722,12261,8553,1,8553,1,-8.3543e-06,-2.0743e-06,0,1.0193e-07,-1.3656e-05,-3.3942e+06,-3.8596e+05,0,4752.4,-6.6323e+05,8552,10465,1,10465,1,1.2046e-05,-2.5563e-09,0,1.2046e-05,-9.7717e-06,2.4678e+06,-314.12,0,3.0375e+06,-1894.3,10464,14059,1,14059,1,5.2848e-05,4.5368e-09,0,5.2848e-05,-2.178e-06,5.0444e+06,560.88,0,5.0444e+06,207.9,14058,2091.4,0,2091.4,0,2.4242e-05,5.793e-07,0,2.2856e-05,4.4882e-06,2.3339e+06,87810,0,1.5858e+06,64396,2091.4,1
5396,0.21,12260,1,12260,1,3.464e-05,1.0739e-07,0,3.5668e-05,-6.4256e-06,3.6148e+06,15097,0,4.038e+06,-18346,12259,15904,1,15904,1,7.7366e-05,3.9785e-06,0,7.7366e-05,1.6999e-06,6.2111e+06,7.4521e+05,0,6.2111e+06,26902,15903,12262,1,12262,1,3.4058e-05,1.2719e-10,0,3.4058e-05,-6.2639e-06,4.5616e+06,22.081,0,4.5616e+06,59.021,12261,8553,1,8553,1,-8.7701e-06,-2.1883e-06,0,1.0733e-07,-1.4363e-05,-3.5629e+06,-4.0315e+05,0,7110.7,-6.9556e+05,8552,10465,1,10465,1,1.2646e-05,-2.093e-09,0,1.2646e-05,-1.0254e-05,2.5907e+06,-228.97,0,3.1909e+06,-511.56,10464,14059,1,14059,1,5.5472e-05,3.275e-09,0,5.5472e-05,-2.2861e-06,5.295e+06,332.5,0,5.295e+06,352.17,14058,2091.4,0,2091.4,0,2.5448e-05,6.1096e-07,0,2.3993e-05,4.7105e-06,2.4499e+06,92249,0,1.6648e+06,67785,2091.4,1
5396,0.22,12260,1,12260,1,3.6292e-05,1.1005e-07,0,3.7369e-05,-6.7318e-06,3.7871e+06,15596,0,4.2305e+06,-19203,12259,15904,1,15904,1,8.0928e-05,4.1722e-06,0,8.0928e-05,1.7805e-06,6.4979e+06,7.7982e+05,0,6.4979e+06,39079,15903,12262,1,12262,1,3.5681e-05,-3.4326e-10,0,3.5681e-05,-6.5626e-06,4.7788e+06,-46.452,0,4.7788e+06,-5.7656,12261,8553,1,8553,1,-9.1872e-06,-2.2849e-06,0,1.0923e-07,-1.5002e-05,-3.7323e+06,-4.225e+05,0,4887.1,-7.3061e+05,8552,10465,1,10465,1,1.3246e-05,-3.3098e-09,0,1.3247e-05,-1.0744e-05,2.7137e+06,-409.71,0,3.3426e+06,-1182.9,10464,14059,1,14059,1,5.8118e-05,2.5411e-09,0,5.8118e-05,-2.395e-06,5.5475e+06,369.26,0,5.5475e+06,286.78,14058,2091.4,0,2091.4,0,2.6661e-05,6.3995e-07,0,2.5137e-05,4.935e-06,2.5668e+06,96585,0,1.7441e+06,71039,2091.4,1
5396,0.23,12260,1,12260,1,3.7935e-05,1.1328e-07,0,3.9061e-05,-7.0376e-06,3.9585e+06,16204,0,4.4221e+06,-20278,12259,15904,1,15904,1,8.4388e-05,4.3536e-06,0,8.4388e-05,1.8593e-06,6.775e+06,8.1614e+05,0,6.775e+06,27120,15903,12262,1,12262,1,3.7292e-05,-5.1757e-10,0,3.7292e-05,-6.859e-06,4.9948e+06,-88.312,0,4.9948e+06,-25.733,12261,8553,1,8553,1,-9.6051e-06,-2.3926e-06,0,1.1851e-07,-1.5672e-05,-3.9023e+06,-4.4213e+05,0,5482.7,-7.6333e+05,8552,10465,1,10465,1,1.3844e-05,-3.5264e-09,0,1.3844e-05,-1.1232e-05,2.8361e+06,-397.94,0,3.4933e+06,-2037.3,10464,14059,1,14059,1,6.0745e-05,3.6737e-09,0,6.0745e-05,-2.503e-06,5.7982e+06,506.5,0,5.7982e+06,242.03,14058,2091.4,0,2091.4,0,2.7869e-05,6.6627e-07,0,2.6276e-05,5.1598e-06,2.6832e+06,1.0091e+05,0,1.8231e+06,74261,2091.4,1
5396,0.24,12260,1,12260,1,3.9593e-05,1.2044e-07,0,4.0768e-05,-7.3446e-06,4.1316e+06,17104,0,4.6153e+06,-21001,12259,15904,1,15904,1,8.8037e-05,4.5503e-06,0,8.8037e-05,1.9418e-06,7.0676e+06,8.5218e+05,0,7.0676e+06,20517,15903,12262,1,12262,1,3.8924e-05,4.1051e-10,0,3.8924e-05,-7.1589e-06,5.2131e+06,47.303,0,5.2131e+06,-25.995,12261,8553,1,8553,1,-1.0022e-05,-2.4835e-06,0,1.1979e-07,-1.6331e-05,-4.0714e+06,-4.629e+05,0,5729.7,-7.9762e+05,8552,10465,1,10465,1,1.445e-05,-2.8506e-09,0,1.445e-05,-1.1721e-05,2.9603e+06,-380.56,0,3.6466e+06,-1460.7,10464,14059,1,14059,1,6.3397e-05,3.16e-09,0,6.3397e-05,-2.6127e-06,6.0513e+06,400.43,0,6.0513e+06,245.76,14058,2091.4,0,2091.4,0,2.9087e-05,6.9492e-07,0,2.7425e-05,5.3848e-06,2.8003e+06,1.0535e+05,0,1.9028e+06,77529,2091.4,1
5396,0.25,12260,1,12260,1,4.1234e-05,1.2515e-07,0,4.2458e-05,-7.6494e-06,4.3028e+06,17802,0,4.8067e+06,-21981,12259,15904,1,15904,1,9.1767e-05,4.7268e-06,0,9.1767e-05,2.022e-06,7.3709e+06,8.8737e+05,0,7.371e+06,34256,15903,12262,1,12262,1,4.0536e-05,3.497e-10,0,4.0536e-05,-7.4554e-06,5.4293e+06,37.27,0,5.4293e+06,-10.809,12261,8553,1,8553,1,-1.0439e-05,-2.5985e-06,0,1.2608e-07,-1.7046e-05,-4.2411e+06,-4.7956e+05,0,5399.9,-8.2988e+05,8552,10465,1,10465,1,1.505e-05,-1.179e-09,0,1.505e-05,-1.2207e-05,3.0831e+06,-135.6,0,3.7974e+06,-1399,10464,14059,1,14059,1,6.6025e-05,3.0007e-09,0,6.6025e-05,-2.7208e-06,6.3022e+06,438.08,0,6.3022e+06,217.08,14058,2091.4,0,2091.4,0,3.0293e-05,7.2409e-07,0,2.8561e-05,5.6078e-06,2.9165e+06,1.0966e+05,0,1.9816e+06,80911,2091.4,1
5396,0.26,12260,1,12260,1,4.2893e-05,1.3184e-07,0,4.4166e-05,-7.9564e-06,4.476e+06,18642,0,5e+06,-22691,12259,15904,1,15904,1,9.561e-05,4.92e-06,0,9.561e-05,2.1029e-06,7.6795e+06,9.2285e+05,0,7.6795e+06,31199,15903,12262,1,12262,1,4.2167e-05,8.6315e-10,0,4.2167e-05,-7.755e-06,5.6476e+06,123.23,0,5.6476e+06,29.048,12261,8553,1,8553,1,-1.086e-05,-2.704e-06,0,1.3221e-07,-1.7733e-05,-4.4121e+06,-5.0016e+05,0,6345.7,-8.6301e+05,8552,10465,1,10465,1,1.5655e-05,-7.8783e-10,0,1.5655e-05,-1.2697e-05,3.2071e+06,-86.357,0,3.9512e+06,-886.88,10464,14059,1,14059,1,6.8679e-05,2.6485e-09,0,6.8679e-05,-2.83e-06,6.5556e+06,344.99,0,6.5556e+06,223.99,14058,2091.4,0,2091.4,0,3.151e-05,7.5359e-07,0,2.9709e-05,5.8329e-06,3.0336e+06,1.1408e+05,0,2.0614e+06,83996,2091.4,1
5396,0.27,12260,1,12260,1,4.4539e-05,1.3362e-07,0,4.5861e-05,-8.2619e-06,4.6477e+06,19105,0,5.1919e+06,-23598,12259,15904,1,15904,1,9.9085e-05,5.1215e-06,0,9.9085e-05,2.1838e-06,7.9562e+06,9.5872e+05,0,7.9562e+06,18260,15903,12262,1,12262,1,4.3783e-05,1.7331e-10,0,4.3783e-05,-8.0526e-06,5.864e+06,19.877,0,5.864e+06,7.0882,12261,8553,1,8553,1,-1.1275e-05,-2.8044e-06,0,1.3731e-07,-1.8381e-05,-4.5805e+06,-5.1996e+05,0,6112.5,-8.9632e+05,8552,10465,1,10465,1,1.6254e-05,-1.6275e-09,0,1.6254e-05,-1.3183e-05,3.3299e+06,-221.18,0,4.1022e+06,-616.07,10464,14059,1,14059,1,7.1312e-05,2.1088e-09,0,7.1312e-05,-2.9385e-06,6.8068e+06,311.56,0,6.8068e+06,126.41,14058,2091.4,0,2091.4,0,3.272e-05,7.8166e-07,0,3.085e-05,6.0569e-06,3.1501e+06,1.1852e+05,0,2.1405e+06,87267,2091.4,1
5396,0.28,12260,1,12260,1,4.6188e-05,1.3934e-07,0,4.7559e-05,-8.5677e-06,4.8198e+06,19842,0,5.3842e+06,-24426,12259,15904,1,15904,1,0.00010275,5.3032e-06,0,0.00010275,2.2646e-06,8.2493e+06,9.9494e+05,0,8.2493e+06,29309,15903,12262,1,12262,1,4.5407e-05,8.3643e-10,0,4.5407e-05,-8.3511e-06,6.0817e+06,98.691,0,6.0817e+06,27.56,12261,8553,1,8553,1,-1.1692e-05,-2.9122e-06,0,1.4152e-07,-1.9067e-05,-4.7502e+06,-5.3897e+05,0,5978.1,-9.2922e+05,8552,10465,1,10465,1,1.6857e-05,-2.7086e-09,0,1.6858e-05,-1.3672e-05,3.4535e+06,-366.14,0,4.2542e+06,-1265,10464,14059,1,14059,1,7.3958e-05,2.9493e-09,0,7.3958e-05,-3.0473e-06,7.0593e+06,396.35,0,7.0593e+06,307.98,14058,2091.4,0,2091.4,0,3.3932e-05,8.0931e-07,0,3.1992e-05,6.2811e-06,3.2668e+06,1.2286e+05,0,2.2197e+06,90439,2091.4,1
5396,0.29,12260,1,12260,1,4.7836e-05,1.4568e-07,0,4.9255e-05,-8.8736e-06,4.9917e+06,20689,0,5.5762e+06,-25376,12259,15904,1,15904,1,0.00010635,5.4987e-06,0,0.00010635,2.3451e-06,8.5381e+06,1.0292e+06,0,8.5381e+06,18723,15903,12262,1,12262,1,4.7023e-05,7.4451e-10,0,4.7023e-05,-8.6485e-06,6.2981e+06,91.036,0,6.2981e+06,0.40323,12261,8553,1,8553,1,-1.2111e-05,-3.0147e-06,0,1.4663e-07,-1.9742e-05,-4.9202e+06,-5.577e+05,0,6717.1,-9.631e+05,8552,10465,1,10465,1,1.7457e-05,-1.1519e-09,0,1.7457e-05,-1.4159e-05,3.5764e+06,-130.31,0,4.4061e+06,-643.47,10464,14059,1,14059,1,7.659e-05,2.5344e-09,0,7.659e-05,-3.156e-06,7.3108e+06,372.15,0,7.3108e+06,130.53,14058,2091.4,0,2091.4,0,3.5142e-05,8.3915e-07,0,3.3133e-05,6.5051e-06,3.3833e+06,1.2723e+05,0,2.2989e+06,93864,2091.4,1
5396,0.3,12260,1,12260,1,4.9481e-05,1.4881e-07,0,5.0949e-05,-9.1786e-06,5.1635e+06,21253,0,5.768e+06,-26175,12259,15904,1,15904,1,0.00010993,5.6874e-06,0,0.00010993,2.4256e-06,8.8255e+06,1.0639e+06,0,8.8255e+06,6619.2,15903,12262,1,12262,1,4.8637e-05,4.8141e-10,0,4.8637e-05,-8.9452e-06,6.5143e+06,70.166,0,6.5143e+06,6.0102,12261,8553,1,8553,1,-1.2524e-05,-3.117e-06,0,1.5296e-07,-2.0402e-05,-5.0882e+06,-5.7608e+05,0,7184.6,-9.9571e+05,8552,10465,1,10465,1,1.8056e-05,-6.9555e-10,0,1.8056e-05,-1.4645e-05,3.6991e+06,-85.845,0,4.5584e+06,-465.97,10464,14059,1,14059,1,7.9217e-05,1.9126e-09,0,7.9217e-05,-3.2643e-06,7.5617e+06,238.94,0,7.5617e+06,219.49,14058,2091.4,0,2091.4,0,3.635e-05,8.6837e-07,0,3.4272e-05,6.7285e-06,3.4995e+06,1.3156e+05,0,2.378e+06,97012,2091.4,1
5396,0.31,12260,1,12260,1,5.1128e-05,1.5363e-07,0,5.2646e-05,-9.4847e-06,5.3352e+06,21936,0,5.9601e+06,-27260,12259,15904,1,15904,1,0.00011398,5.8817e-06,0,0.00011398,2.5083e-06,9.1519e+06,1.0994e+06,0,9.1519e+06,56972,15903,12262,1,12262,1,5.0267e-05,1.804e-10,0,5.0267e-05,-9.2453e-06,6.7324e+06,17.668,0,6.7324e+06,-4.687,12261,8553,1,8553,1,-1.2949e-05,-3.2224e-06,0,1.5956e-07,-2.1161e-05,-5.2607e+06,-5.9644e+05,0,7563.8,-1.0295e+06,8552,10465,1,10465,1,1.8661e-05,-3.0011e-09,0,1.8661e-05,-1.5137e-05,3.8229e+06,-389.19,0,4.7063e+06,-2642.7,10464,14059,1,14059,1,8.1874e-05,3.3881e-09,0,8.1874e-05,-3.3739e-06,7.815e+06,459.36,0,7.815e+06,147.99,14058,2091.4,0,2091.4,0,3.7562e-05,8.9967e-07,0,3.5414e-05,6.9536e-06,3.6164e+06,1.3609e+05,0,2.4571e+06,1.0022e+05,2091.4,1
5396,0.32,12260,1,12260,1,5.2782e-05,1.5871e-07,0,5.4349e-05,-9.7908e-06,5.5079e+06,22665,0,6.1529e+06,-27906,12259,15904,1,15904,1,0.00011725,6.0637e-06,0,0.00011725,2.5871e-06,9.4131e+06,1.1365e+06,0,9.4131e+06,14591,15903,12262,1,12262,1,5.1883e-05,4.0659e-10,0,5.1883e-05,-9.5421e-06,6.949e+06,50.378,0,6.949e+06,11.326,12261,8553,1,8553,1,-1.336e-05,-3.3273e-06,0,1.6106e-07,-2.1757e-05,-5.4277e+06,-6.1617e+05,0,7146.5,-1.0634e+06,8552,10465,1,10465,1,1.9261e-05,-1.5774e-09,0,1.9261e-05,-1.5622e-05,3.9459e+06,-230.23,0,4.8627e+06,-338.41,10464,14059,1,14059,1,8.4504e-05,2.0485e-09,0,8.4505e-05,-3.4821e-06,8.0663e+06,277.63,0,8.0663e+06,162.76,14058,2091.4,0,2091.4,0,3.8775e-05,9.2682e-07,0,3.6559e-05,7.1775e-06,3.7331e+06,1.4047e+05,0,2.5366e+06,1.0358e+05,2091.4,1
5396,0.33,12260,1,12260,1,5.4426e-05,1.6702e-07,0,5.6042e-05,-1.0097e-05,5.6793e+06,23632,0,6.3445e+06,-29005,12259,15904,1,15904,1,0.0001213,6.2572e-06,0,0.0001213,2.6686e-06,9.7417e+06,1.1703e+06,0,9.7417e+06,44560,15903,12262,1,12262,1,5.3504e-05,9.487e-10,0,5.3504e-05,-9.8404e-06,7.166e+06,121.11,0,7.166e+06,-2.535,12261,8553,1,8553,1,-1.3781e-05,-3.4327e-06,0,1.6875e-07,-2.2522e-05,-5.5988e+06,-6.3432e+05,0,7924.7,-1.0954e+06,8552,10465,1,10465,1,1.9862e-05,-1.0026e-09,0,1.9862e-05,-1.6112e-05,4.0691e+06,-143.39,0,5.0125e+06,-1275.5,10464,14059,1,14059,1,8.7147e-05,3.0673e-09,0,8.7147e-05,-3.5909e-06,8.3186e+06,447.25,0,8.3186e+06,112.87,14058,2091.4,0,2091.4,0,3.9984e-05,9.5591e-07,0,3.7698e-05,7.4019e-06,3.8496e+06,1.4475e+05,0,2.6156e+06,1.0665e+05,2091.4,1
5396,0.34,12260,1,12260,1,5.6075e-05,1.6943e-07,0,5.774e-05,-1.0402e-05,5.8515e+06,24111,0,6.5368e+06,-29866,12259,15904,1,15904,1,0.0001248,6.4559e-06,0,0.0001248,2.7499e-06,1.002e+07,1.2049e+06,0,1.002e+07,22307,15903,12262,1,12262,1,5.5126e-05,-2.8082e-11,0,5.5126e-05,-1.0139e-05,7.3833e+06,-2.7987,0,7.3833e+06,-7.8591,12261,8553,1,8553,1,-1.4199e-05,-3.5342e-06,0,1.7151e-07,-2.3131e-05,-5.7684e+06,-6.5418e+05,0,7516.8,-1.1291e+06,8552,10465,1,10465,1,2.0465e-05,-2.339e-09,0,2.0465e-05,-1.6599e-05,4.1925e+06,-325.61,0,5.1643e+06,-1384.2,10464,14059,1,14059,1,8.9787e-05,2.1209e-09,0,8.9787e-05,-3.6998e-06,8.5706e+06,297.45,0,8.5706e+06,103.52,14058,2091.4,0,2091.4,0,4.1196e-05,9.8747e-07,0,3.8841e-05,7.6261e-06,3.9662e+06,1.4923e+05,0,2.6949e+06,1.1003e+05,2091.4,1
5396,0.35,12260,1,12260,1,5.7733e-05,1.7418e-07,0,5.9446e-05,-1.0709e-05,6.0246e+06,24810,0,6.73e+06,-30500,12259,15904,1,15904,1,0.00012824,6.6255e-06,0,0.00012824,2.8303e-06,1.0296e+07,1.2423e+06,0,1.0296e+07,10378,15903,12262,1,12262,1,5.6749e-05,2.3926e-10,0,5.6749e-05,-1.0437e-05,7.6007e+06,24.883,0,7.6007e+06,0.8728,12261,8553,1,8553,1,-1.4612e-05,-3.6397e-06,0,1.7672e-07,-2.3806e-05,-5.9366e+06,-6.7345e+05,0,7527.2,-1.1625e+06,8552,10465,1,10465,1,2.1068e-05,-1.6488e-09,0,2.1068e-05,-1.7087e-05,4.316e+06,-206.47,0,5.3184e+06,-184.99,10464,14059,1,14059,1,9.2429e-05,2.1403e-09,0,9.2429e-05,-3.8088e-06,8.8227e+06,296.82,0,8.8227e+06,83.91,14058,2091.4,0,2091.4,0,4.2412e-05,1.0123e-06,0,3.9988e-05,7.8507e-06,4.0832e+06,1.5351e+05,0,2.7746e+06,1.1324e+05,2091.4,1
5396,0.36,12260,1,12260,1,5.9377e-05,1.8114e-07,0,6.1139e-05,-1.1015e-05,6.1959e+06,25670,0,6.9216e+06,-31509,12259,15904,1,15904,1,0.00013211,6.8301e-06,0,0.00013211,2.9134e-06,1.0607e+07,1.2758e+06,0,1.0607e+07,26638,15903,12262,1,12262,1,5.837e-05,1.634e-10,0,5.837e-05,-1.0735e-05,7.818e+06,21.243,0,7.818e+06,31.803,12261,8553,1,8553,1,-1.5035e-05,-3.7516e-06,0,1.8398e-07,-2.4527e-05,-6.1079e+06,-6.9191e+05,0,8551,-1.1947e+06,8552,10465,1,10465,1,2.1667e-05,-1.9565e-09,0,2.1668e-05,-1.7577e-05,4.4389e+06,-241.87,0,5.4686e+06,-2681.4,10464,14059,1,14059,1,9.5073e-05,5.3354e-09,0,9.5073e-05,-3.9174e-06,9.0753e+06,665.46,0,9.0753e+06,283.82,14058,2091.4,0,2091.4,0,4.3621e-05,1.0443e-06,0,4.1127e-05,8.075e-06,4.1998e+06,1.5794e+05,0,2.8535e+06,1.1626e+05,2091.4,1
5396,0.37,12260,1,12260,1,6.1026e-05,1.8604e-07,0,6.2838e-05,-1.132e-05,6.3682e+06,26356,0,7.1139e+06,-32322,12259,15904,1,15904,1,0.00013589,7.018e-06,0,0.00013589,2.9928e-06,1.0912e+07,1.312e+06,0,1.0912e+07,26207,15903,12262,1,12262,1,5.9988e-05,3.0956e-10,0,5.9988e-05,-1.1033e-05,8.0344e+06,39.114,0,8.0344e+06,21.651,12261,8553,1,8553,1,-1.5448e-05,-3.8435e-06,0,1.8641e-07,-2.5196e-05,-6.276e+06,-7.1204e+05,0,8106.1,-1.2288e+06,8552,10465,1,10465,1,2.2269e-05,-2.1218e-09,0,2.2269e-05,-1.8062e-05,4.5622e+06,-305.02,0,5.6213e+06,-430.81,10464,14059,1,14059,1,9.7706e-05,2.1366e-09,0,9.7706e-05,-4.026e-06,9.3264e+06,317.47,0,9.3264e+06,153.51,14058,2091.4,0,2091.4,0,4.4833e-05,1.0731e-06,0,4.227e-05,8.299e-06,4.3163e+06,1.6236e+05,0,2.9328e+06,1.1968e+05,2091.4,1
5396,0.38,12260,1,12260,1,6.2677e-05,1.906e-07,0,6.4537e-05,-1.1626e-05,6.5405e+06,27093,0,7.3063e+06,-33157,12259,15904,1,15904,1,0.00013936,7.2095e-06,0,0.00013936,3.0719e-06,1.1188e+07,1.3476e+06,0,1.1188e+07,13319,15903,12262,1,12262,1,6.1609e-05,6.72e-10,0,6.1609e-05,-1.1331e-05,8.2516e+06,80.588,0,8.2516e+06,4.4048,12261,8553,1,8553,1,-1.5866e-05,-3.9487e-06,0,1.9198e-07,-2.5849e-05,-6.4457e+06,-7.31e+05,0,8552.3,-1.262e+06,8552,10465,1,10465,1,2.2872e-05,-1.425e-09,0,2.2872e-05,-1.8551e-05,4.6857e+06,-188.06,0,5.7734e+06,-469.74,10464,14059,1,14059,1,0.00010035,3.281e-09,0,0.00010035,-4.1349e-06,9.5785e+06,490.89,0,9.5785e+06,84.219,14058,2091.4,0,2091.4,0,4.6045e-05,1.1005e-06,0,4.3413e-05,8.5231e-06,4.4329e+06,1.6669e+05,0,3.0121e+06,1.2294e+05,2091.4,1
5396,0.39,12260,1,12260,1,6.4324e-05,1.9486e-07,0,6.6234e-05,-1.1932e-05,6.7123e+06,27715,0,7.4983e+06,-34044,12259,15904,1,15904,1,0.00014297,7.3968e-06,0,0.00014297,3.153e-06,1.1478e+07,1.3826e+06,0,1.1478e+07,25254,15903,12262,1,12262,1,6.3229e-05,5.0258e-10,0,6.3229e-05,-1.1629e-05,8.4686e+06,49.275,0,8.4686e+06,5.7744,12261,8553,1,8553,1,-1.6283e-05,-4.0425e-06,0,1.9682e-07,-2.6549e-05,-6.6151e+06,-7.511e+05,0,8799.2,-1.2952e+06,8552,10465,1,10465,1,2.3473e-05,-2.0301e-09,0,2.3473e-05,-1.9039e-05,4.8088e+06,-288.82,0,5.9246e+06,-841.08,10464,14059,1,14059,1,0.00010299,2.8759e-09,0,0.00010299,-4.2437e-06,9.8304e+06,429.83,0,9.8304e+06,134.17,14058,2091.4,0,2091.4,0,4.7255e-05,1.1291e-06,0,4.4554e-05,8.7474e-06,4.5495e+06,1.7102e+05,0,3.0913e+06,1.2605e+05,2091.4,1
5396,0.4,12260,1,12260,1,6.5974e-05,1.9897e-07,0,6.7933e-05,-1.2238e-05,6.8846e+06,28336,0,7.6907e+06,-34967,12259,15904,1,15904,1,0.00014656,7.5929e-06,0,0.00014656,3.2343e-06,1.1766e+07,1.4185e+06,0,1.1766e+07,11221,15903,12262,1,12262,1,6.485e-05,2.3071e-10,0,6.485e-05,-1.1927e-05,8.6857e+06,23.873,0,8.6857e+06,3.9357,12261,8553,1,8553,1,-1.67e-05,-4.1558e-06,0,2.0182e-07,-2.7197e-05,-6.7847e+06,-7.6876e+05,0,8979.6,-1.3287e+06,8552,10465,1,10465,1,2.4075e-05,-2.3229e-09,0,2.4075e-05,-1.9526e-05,4.9321e+06,-293.01,0,6.0773e+06,-689.19,10464,14059,1,14059,1,0.00010562,2.0216e-09,0,0.00010562,-4.3523e-06,1.0082e+07,305,0,1.0082e+07,85.194,14058,2091.4,0,2091.4,0,4.8467e-05,1.1596e-06,0,4.5696e-05,8.9714e-06,4.6661e+06,1.7554e+05,0,3.1706e+06,1.295e+05,2091.4,1
5396,0.41,12260,1,12260,1,6.7624e-05,2.059e-07,0,6.9631e-05,-1.2544e-05,7.0567e+06,29229,0,7.883e+06,-35774,12259,15904,1,15904,1,0.00015022,7.7781e-06,0,0.00015022,3.3143e-06,1.206e+07,1.4546e+06,0,1.206e+07,17350,15903,12262,1,12262,1,6.6468e-05,6.3479e-10,0,6.6468e-05,-1.2225e-05,8.9026e+06,74.035,0,8.9026e+06,-5.9378,12261,8553,1,8553,1,-1.7118e-05,-4.2534e-06,0,2.074e-07,-2.7876e-05,-6.9544e+06,-7.8952e+05,0,9253.5,-1.3611e+06,8552,10465,1,10465,1,2.4676e-05,-1.1029e-09,0,2.4676e-05,-2.0015e-05,5.0553e+06,-134.17,0,6.2291e+06,-1111.1,10464,14059,1,14059,1,0.00010826,2.622e-09,0,0.00010826,-4.461e-06,1.0334e+07,404.22,0,1.0334e+07,97.238,14058,2091.4,0,2091.4,0,4.9679e-05,1.1856e-06,0,4.684e-05,9.196e-06,4.7828e+06,1.798e+05,0,3.2499e+06,1.3255e+05,2091.4,1
5396,0.42,12260,1,12260,1,6.9272e-05,2.0829e-07,0,7.1328e-05,-1.285e-05,7.2287e+06,29733,0,8.0751e+06,-36717,12259,15904,1,15904,1,0.00015387,7.9663e-06,0,0.00015387,3.3955e-06,1.2353e+07,1.4897e+06,0,1.2353e+07,14449,15903,12262,1,12262,1,6.8091e-05,5.3789e-10,0,6.8091e-05,-1.2523e-05,9.1199e+06,54.329,0,9.1199e+06,8.0288,12261,8553,1,8553,1,-1.7534e-05,-4.3593e-06,0,2.1123e-07,-2.8536e-05,-7.1234e+06,-8.0635e+05,0,9786.2,-1.3954e+06,8552,10465,1,10465,1,2.5278e-05,-1.7968e-09,0,2.5278e-05,-2.0502e-05,5.1785e+06,-252.57,0,6.3816e+06,-44.018,10464,14059,1,14059,1,0.0001109,2.2933e-09,0,0.0001109,-4.57e-06,1.0586e+07,321.91,0,1.0586e+07,65.745,14058,2091.4,0,2091.4,0,5.0889e-05,1.2159e-06,0,4.798e-05,9.4198e-06,4.8994e+06,1.8424e+05,0,3.3291e+06,1.361e+05,2091.4,1
5396,0.43,12260,1,12260,1,7.0919e-05,2.1537e-07,0,7.3024e-05,-1.3155e-05,7.4005e+06,30618,0,8.2671e+06,-37528,12259,15904,1,15904,1,0.00015761,8.1642e-06,0,0.00015761,3.4772e-06,1.2654e+07,1.5252e+06,0,1.2654e+07,24362,15903,12262,1,12262,1,6.9708e-05,7.3101e-10,0,6.9708e-05,-1.2821e-05,9.3365e+06,78.015,0,9.3365e+06,8.8419,12261,8553,1,8553,1,-1.7952e-05,-4.4695e-06,0,2.1738e-07,-2.9238e-05,-7.2934e+06,-8.2683e+05,0,9691.6,-1.4281e+06,8552,10465,1,10465,1,2.5879e-05,-8.6267e-10,0,2.5879e-05,-2.0988e-05,5.3016e+06,-108.63,0,6.5329e+06,-48.522,10464,14059,1,14059,1,0.00011354,2.639e-09,0,0.00011354,-4.6784e-06,1.0838e+07,399.1,0,1.0838e+07,58.437,14058,2091.4,0,2091.4,0,5.2099e-05,1.2454e-06,0,4.9121e-05,9.6437e-06,5.0158e+06,1.8865e+05,0,3.4082e+06,1.3916e+05,2091.4,1
5396,0.44,12260,1,12260,1,7.2571e-05,2.2124e-07,0,7.4725e-05,-1.3461e-05,7.5729e+06,31389,0,8.4597e+06,-38311,12259,15904,1,15904,1,0.00016136,8.3475e-06,0,0.00016136,3.557e-06,1.2957e+07,1.5603e+06,0,1.2957e+07,40161,15903,12262,1,12262,1,7.1332e-05,7.4829e-10,0,7.1332e-05,-1.3119e-05,9.5539e+06,79.354,0,9.5539e+06,7.9277,12261,8553,1,8553,1,-1.8372e-05,-4.5658e-06,0,2.2278e-07,-2.9942e-05,-7.4639e+06,-8.477e+05,0,10062,-1.4611e+06,8552,10465,1,10465,1,2.6481e-05,-1.0669e-09,0,2.6481e-05,-2.1477e-05,5.4251e+06,-144.36,0,6.6842e+06,-736.35,10464,14059,1,14059,1,0.00011618,2.8406e-09,0,0.00011618,-4.7875e-06,1.109e+07,430.91,0,1.109e+07,122.53,14058,2091.4,0,2091.4,0,5.3314e-05,1.2731e-06,0,5.0266e-05,9.8685e-06,5.1327e+06,1.9295e+05,0,3.4876e+06,1.4231e+05,2091.4,1
5396,0.45,12260,1,12260,1,7.4216e-05,2.2347e-07,0,7.6419e-05,-1.3767e-05,7.7445e+06,31871,0,8.6514e+06,-39333,12259,15904,1,15904,1,0.00016519,8.5325e-06,0,0.00016519,3.6383e-06,1.3262e+07,1.5954e+06,0,1.3262e+07,18396,15903,12262,1,12262,1,7.2949e-05,1.4697e-10,0,7.2949e-05,-1.3417e-05,9.7705e+06,17.861,0,9.7705e+06,6.2348,12261,8553,1,8553,1,-1.8787e-05,-4.677e-06,0,2.3013e-07,-3.0605e-05,-7.6326e+06,-8.6469e+05,0,10580,-1.4945e+06,8552,10465,1,10465,1,2.7082e-05,-2.0837e-09,0,2.7082e-05,-2.1967e-05,5.548e+06,-285.9,0,6.836e+06,-1322,10464,14059,1,14059,1,0.00011882,2.7635e-09,0,0.00011882,-4.8959e-06,1.1342e+07,398.71,0,1.1342e+07,140.04,14058,2091.4,0,2091.4,0,5.4522e-05,1.3032e-06,0,5.1405e-05,1.0092e-05,5.2491e+06,1.9736e+05,0,3.5666e+06,1.4555e+05,2091.4,1
5396,0.46,12260,1,12260,1,7.5875e-05,2.2989e-07,0,7.8127e-05,-1.4075e-05,7.9177e+06,32691,0,8.8448e+06,-40173,12259,15904,1,15904,1,0.00016852,8.7304e-06,0,0.00016852,3.7193e-06,1.3529e+07,1.632e+06,0,1.3529e+07,3743.3,15903,12262,1,12262,1,7.458e-05,1.4499e-10,0,7.458e-05,-1.3717e-05,9.989e+06,12.202,0,9.989e+06,-17.115,12261,8553,1,8553,1,-1.9205e-05,-4.7839e-06,0,2.3117e-07,-3.1258e-05,-7.8024e+06,-8.8618e+05,0,10108,-1.528e+06,8552,10465,1,10465,1,2.7687e-05,-1.8198e-09,0,2.7687e-05,-2.2455e-05,5.6721e+06,-250.68,0,6.9895e+06,-587.34,10464,14059,1,14059,1,0.00012147,2.5845e-09,0,0.00012147,-5.0055e-06,1.1595e+07,402.25,0,1.1595e+07,40.935,14058,2091.4,0,2091.4,0,5.5741e-05,1.3315e-06,0,5.2554e-05,1.0318e-05,5.3664e+06,2.0184e+05,0,3.6464e+06,1.4886e+05,2091.4,1
5396,0.47,12260,1,12260,1,7.752e-05,2.3384e-07,0,7.9821e-05,-1.4379e-05,8.0894e+06,33326,0,9.0366e+06,-40885,12259,15904,1,15904,1,0.00017216,8.9258e-06,0,0.00017216,3.7995e-06,1.3821e+07,1.6685e+06,0,1.3821e+07,15041,15903,12262,1,12262,1,7.6198e-05,2.0109e-10,0,7.6198e-05,-1.4014e-05,1.0206e+07,17.908,0,1.0206e+07,-1.4138,12261,8553,1,8553,1,-1.9621e-05,-4.8763e-06,0,2.3669e-07,-3.1923e-05,-7.9715e+06,-9.0437e+05,0,10477,-1.5608e+06,8552,10465,1,10465,1,2.8287e-05,-2.0265e-09,0,2.8287e-05,-2.2942e-05,5.7951e+06,-285.33,0,7.1414e+06,-58.33,10464,14059,1,14059,1,0.00012411,2.5648e-09,0,0.00012411,-5.114e-06,1.1846e+07,355.62,0,1.1846e+07,53.607,14058,2091.4,0,2091.4,0,5.6949e-05,1.3605e-06,0,5.3694e-05,1.0541e-05,5.4827e+06,2.0625e+05,0,3.7255e+06,1.5201e+05,2091.4,1
5396,0.48,12260,1,12260,1,7.9175e-05,2.3915e-07,0,8.1524e-05,-1.4686e-05,8.2622e+06,34086,0,9.2294e+06,-41828,12259,15904,1,15904,1,0.00017586,9.1088e-06,0,0.00017586,3.8805e-06,1.4118e+07,1.7029e+06,0,1.4118e+07,7657.3,15903,12262,1,12262,1,7.782e-05,6.6081e-10,0,7.782e-05,-1.4313e-05,1.0423e+07,83.176,0,1.0423e+07,-12.625,12261,8553,1,8553,1,-2.004e-05,-4.9834e-06,0,2.4273e-07,-3.2621e-05,-8.1417e+06,-9.2245e+05,0,10731,-1.594e+06,8552,10465,1,10465,1,2.8891e-05,-2.4868e-10,0,2.8892e-05,-2.343e-05,5.9188e+06,-27.055,0,7.294e+06,-79.212,10464,14059,1,14059,1,0.00012675,2.084e-09,0,0.00012675,-5.2232e-06,1.2099e+07,296.57,0,1.2099e+07,23.834,14058,2091.4,0,2091.4,0,5.8163e-05,1.3892e-06,0,5.4839e-05,1.0766e-05,5.5994e+06,2.1057e+05,0,3.805e+06,1.5521e+05,2091.4,1
5396,0.49,12260,1,12260,1,8.0817e-05,2.43e-07,0,8.3216e-05,-1.4992e-05,8.4334e+06,34697,0,9.421e+06,-42900,12259,15904,1,15904,1,0.00017962,9.2956e-06,0,0.00017962,3.9618e-06,1.4421e+07,1.7386e+06,0,1.4421e+07,21320,15903,12262,1,12262,1,7.9439e-05,4.1414e-11,0,7.9439e-05,-1.461e-05,1.064e+07,3.61,0,1.064e+07,19.124,12261,8553,1,8553,1,-2.0459e-05,-5.0939e-06,0,2.4621e-07,-3.3342e-05,-8.3119e+06,-9.4339e+05,0,11070,-1.6267e+06,8552,10465,1,10465,1,2.9492e-05,-8.6387e-10,0,2.9492e-05,-2.392e-05,6.0419e+06,-117.87,0,7.4445e+06,-1209.8,10464,14059,1,14059,1,0.00012939,1.2428e-09,0,0.00012939,-5.3314e-06,1.2351e+07,176.1,0,1.2351e+07,79.465,14058,2091.4,0,2091.4,0,5.9372e-05,1.4189e-06,0,5.5978e-05,1.0991e-05,5.7161e+06,2.1506e+05,0,3.884e+06,1.584e+05,2091.4,1
5396,0.5,12260,1,12260,1,8.246e-05,2.4852e-07,0,8.4908e-05,-1.5297e-05,8.6048e+06,35407,0,9.6125e+06,-43769,12259,15904,1,15904,1,0.00018334,9.4986e-06,0,0.00018334,4.0431e-06,1.4719e+07,1.7735e+06,0,1.4719e+07,59867,15903,12262,1,12262,1,8.1057e-05,-5.43e-11,0,8.1057e-05,-1.4908e-05,1.0856e+07,-5.1473,0,1.0856e+07,-12.712,12261,8553,1,8553,1,-2.0878e-05,-5.1995e-06,0,2.527e-07,-3.4069e-05,-8.4818e+06,-9.6133e+05,0,11314,-1.6611e+06,8552,10465,1,10465,1,3.0091e-05,-2.3506e-09,0,3.0092e-05,-2.4405e-05,6.1647e+06,-332.5,0,7.5951e+06,-1520,10464,14059,1,14059,1,0.00013202,1.901e-09,0,0.00013202,-5.4402e-06,1.2602e+07,282.15,0,1.2602e+07,67.407,14058,2091.4,0,2091.4,0,6.0579e-05,1.4493e-06,0,5.7116e-05,1.1214e-05,5.8323e+06,2.1944e+05,0,3.9629e+06,1.6171e+05,2091.4,1
5396,0.51,12260,1,12260,1,8.4114e-05,2.5451e-07,0,8.661e-05,-1.5602e-05,8.7775e+06,36251,0,9.8051e+06,-44400,12259,15904,1,15904,1,0.0001868,9.6752e-06,0,0.0001868,4.1231e-06,1.4997e+07,1.8077e+06,0,1.4997e+07,4218.6,15903,12262,1,12262,1,8.2675e-05,9.751e-10,0,8.2675e-05,-1.5206e-05,1.1073e+07,101.52,0,1.1073e+07,1.6651,12261,8553,1,8553,1,-2.1291e-05,-5.2952e-06,0,2.5901e-07,-3.464e-05,-8.6499e+06,-9.8037e+05,0,11847,-1.6931e+06,8552,10465,1,10465,1,3.0692e-05,-1.3997e-09,0,3.0692e-05,-2.4893e-05,6.2877e+06,-203.09,0,7.7484e+06,-56.221,10464,14059,1,14059,1,0.00013466,3.4158e-09,0,0.00013466,-5.5487e-06,1.2854e+07,517.01,0,1.2854e+07,67.706,14058,2091.4,0,2091.4,0,6.1792e-05,1.4758e-06,0,5.826e-05,1.1437e-05,5.9489e+06,2.236e+05,0,4.0423e+06,1.65e+05,2091.4,1
5396,0.52,12260,1,12260,1,8.5758e-05,2.5694e-07,0,8.8304e-05,-1.5908e-05,8.9489e+06,36725,0,9.9969e+06,-45485,12259,15904,1,15904,1,0.00019069,9.8628e-06,0,0.00019069,4.2063e-06,1.5314e+07,1.8448e+06,0,1.5314e+07,52023,15903,12262,1,12262,1,8.4298e-05,-2.0373e-10,0,8.4298e-05,-1.5504e-05,1.1291e+07,-20.22,0,1.1291e+07,-5.769,12261,8553,1,8553,1,-2.1713e-05,-5.4035e-06,0,2.6316e-07,-3.541e-05,-8.8213e+06,-9.9914e+05,0,11790,-1.7265e+06,8552,10465,1,10465,1,3.1295e-05,-2.3423e-09,0,3.1295e-05,-2.5382e-05,6.4112e+06,-328.14,0,7.8989e+06,-1042.7,10464,14059,1,14059,1,0.0001373,1.9385e-09,0,0.0001373,-5.6577e-06,1.3106e+07,313.35,0,1.3106e+07,103.8,14058,2091.4,0,2091.4,0,6.3002e-05,1.5065e-06,0,5.94e-05,1.1662e-05,6.0656e+06,2.282e+05,0,4.1213e+06,1.6819e+05,2091.4,1
5396,0.53,12260,1,12260,1,8.7412e-05,2.6414e-07,0,9.0006e-05,-1.6214e-05,9.1217e+06,37590,0,1.019e+07,-46150,12259,15904,1,15904,1,0.0001941,1.0053e-05,0,0.0001941,4.2845e-06,1.5582e+07,1.8796e+06,0,1.5582e+07,3627.7,15903,12262,1,12262,1,8.5915e-05,1.6391e-10,0,8.5915e-05,-1.5801e-05,1.1507e+07,14.032,0,1.1507e+07,2.7005,12261,8553,1,8553,1,-2.2125e-05,-5.5047e-06,0,2.6945e-07,-3.6001e-05,-8.9887e+06,-1.0185e+06,0,12135,-1.7604e+06,8552,10465,1,10465,1,3.1895e-05,-1.9747e-09,0,3.1895e-05,-2.5868e-05,6.5342e+06,-282.84,0,8.0525e+06,-41.079,10464,14059,1,14059,1,0.00013993,1.6969e-09,0,0.00013994,-5.7662e-06,1.3357e+07,234.74,0,1.3357e+07,52.82,14058,2091.4,0,2091.4,0,6.4215e-05,1.5349e-06,0,6.0544e-05,1.1886e-05,6.1822e+06,2.325e+05,0,4.2008e+06,1.7157e+05,2091.4,1
5396,0.54,12260,1,12260,1,8.906e-05,2.6881e-07,0,9.1703e-05,-1.652e-05,9.2936e+06,38301,0,1.0382e+07,-47061,12259,15904,1,15904,1,0.00019776,1.0248e-05,0,0.00019776,4.3653e-06,1.5876e+07,1.9156e+06,0,1.5876e+07,4878.9,15903,12262,1,12262,1,8.7537e-05,2.7656e-10,0,8.7537e-05,-1.61e-05,1.1724e+07,26.858,0,1.1724e+07,0.56861,12261,8553,1,8553,1,-2.2543e-05,-5.5938e-06,0,2.7235e-07,-3.6677e-05,-9.1584e+06,-1.0384e+06,0,12332,-1.793e+06,8552,10465,1,10465,1,3.2497e-05,-1.5265e-09,0,3.2498e-05,-2.6356e-05,6.6576e+06,-219.66,0,8.2044e+06,-489.57,10464,14059,1,14059,1,0.00014258,2.5962e-09,0,0.00014258,-5.875e-06,1.361e+07,380.19,0,1.361e+07,82.611,14058,2091.4,0,2091.4,0,6.5426e-05,1.5633e-06,0,6.1686e-05,1.211e-05,6.2989e+06,2.3685e+05,0,4.28e+06,1.7471e+05,2091.4,1
5396,0.55,12260,1,12260,1,9.071e-05,2.725e-07,0,9.3402e-05,-1.6827e-05,9.4657e+06,38883,0,1.0574e+07,-48058,12259,15904,1,15904,1,0.00020159,1.0437e-05,0,0.00020159,4.4469e-06,1.6184e+07,1.95e+06,0,1.6184e+07,14242,15903,12262,1,12262,1,8.9159e-05,-5.9934e-11,0,8.9159e-05,-1.6398e-05,1.1942e+07,-7.9125,0,1.1942e+07,7.4288,12261,8553,1,8553,1,-2.2963e-05,-5.7161e-06,0,2.8059e-07,-3.7415e-05,-9.3294e+06,-1.0563e+06,0,13019,-1.8248e+06,8552,10465,1,10465,1,3.3101e-05,-1.2527e-09,0,3.3101e-05,-2.6847e-05,6.7811e+06,-182.87,0,8.3552e+06,-1125.3,10464,14059,1,14059,1,0.00014522,6.3808e-10,0,0.00014522,-5.9838e-06,1.3862e+07,102.34,0,1.3862e+07,50.127,14058,2091.4,0,2091.4,0,6.6639e-05,1.5924e-06,0,6.2829e-05,1.2335e-05,6.4156e+06,2.4124e+05,0,4.3593e+06,1.777e+05,2091.4,1
5396,0.56,12260,1,12260,1,9.2355e-05,2.8175e-07,0,9.5096e-05,-1.7132e-05,9.6374e+06,39953,0,1.0766e+07,-48875,12259,15904,1,15904,1,0.00020525,1.0623e-05,0,0.00020525,4.5258e-06,1.6478e+07,1.9851e+06,0,1.6478e+07,32289,15903,12262,1,12262,1,9.0775e-05,8.5379e-10,0,9.0775e-05,-1.6695e-05,1.2158e+07,96.359,0,1.2158e+07,1.3928,12261,8553,1,8553,1,-2.3378e-05,-5.8103e-06,0,2.8408e-07,-3.807e-05,-9.498e+06,-1.0785e+06,0,12977,-1.8596e+06,8552,10465,1,10465,1,3.37e-05,-7.299e-10,0,3.37e-05,-2.7336e-05,6.9038e+06,-103.44,0,8.5072e+06,-1062.9,10464,14059,1,14059,1,0.00014785,3.1281e-09,0,0.00014785,-6.0923e-06,1.4113e+07,474.07,0,1.4113e+07,82.495,14058,2091.4,0,2091.4,0,6.7847e-05,1.6194e-06,0,6.3969e-05,1.2559e-05,6.5319e+06,2.4548e+05,0,4.4384e+06,1.811e+05,2091.4,1
5396,0.57,12260,1,12260,1,9.4009e-05,2.8413e-07,0,9.6799e-05,-1.7438e-05,9.8101e+06,40426,0,1.0959e+07,-49677,12259,15904,1,15904,1,0.00020879,1.0819e-05,0,0.00020879,4.6076e-06,1.6762e+07,2.0206e+06,0,1.6762e+07,39962,15903,12262,1,12262,1,9.2398e-05,-6.437e-12,0,9.2398e-05,-1.6993e-05,1.2376e+07,-0.58652,0,1.2376e+07,12.236,12261,8553,1,8553,1,-2.3796e-05,-5.9227e-06,0,2.8809e-07,-3.8778e-05,-9.6677e+06,-1.0947e+06,0,12836,-1.8923e+06,8552,10465,1,10465,1,3.4303e-05,-1.2904e-09,0,3.4303e-05,-2.7821e-05,7.0274e+06,-158.82,0,8.6601e+06,-624.78,10464,14059,1,14059,1,0.00015049,1.1757e-09,0,0.00015049,-6.2011e-06,1.4365e+07,181.8,0,1.4365e+07,41.85,14058,2091.4,0,2091.4,0,6.9061e-05,1.6501e-06,0,6.5114e-05,1.2783e-05,6.6488e+06,2.4997e+05,0,4.5179e+06,1.844e+05,2091.4,1
5396,0.58,12260,1,12260,1,9.5656e-05,2.8862e-07,0,9.8495e-05,-1.7744e-05,9.9819e+06,41144,0,1.1151e+07,-50580,12259,15904,1,15904,1,0.0002125,1.1e-05,0,0.0002125,4.6889e-06,1.706e+07,2.0564e+06,0,1.706e+07,8340.3,15903,12262,1,12262,1,9.4019e-05,5.4177e-10,0,9.4019e-05,-1.7292e-05,1.2593e+07,61.027,0,1.2593e+07,-8.275,12261,8553,1,8553,1,-2.4212e-05,-6.0241e-06,0,2.949e-07,-3.9409e-05,-9.8367e+06,-1.1152e+06,0,13264,-1.9261e+06,8552,10465,1,10465,1,3.4904e-05,-1.7081e-09,0,3.4904e-05,-2.8308e-05,7.1505e+06,-255.16,0,8.8118e+06,-551.76,10464,14059,1,14059,1,0.00015313,2.5615e-09,0,0.00015313,-6.31e-06,1.4617e+07,369.3,0,1.4617e+07,82.859,14058,2091.4,0,2091.4,0,7.0271e-05,1.6788e-06,0,6.6255e-05,1.3007e-05,6.7653e+06,2.5436e+05,0,4.597e+06,1.8766e+05,2091.4,1
5396,0.59,12260,1,12260,1,9.7303e-05,2.9404e-07,0,0.00010019,-1.8049e-05,1.0154e+07,41861,0,1.1343e+07,-51456,12259,15904,1,15904,1,0.00021609,1.119e-05,0,0.00021609,4.7693e-06,1.7348e+07,2.092e+06,0,1.7348e+07,7269.1,15903,12262,1,12262,1,9.5637e-05,1.4283e-10,0,9.5637e-05,-1.7589e-05,1.2809e+07,13.236,0,1.2809e+07,-9.4931,12261,8553,1,8553,1,-2.4629e-05,-6.1185e-06,0,2.9905e-07,-4.0068e-05,-1.0006e+07,-1.134e+06,0,13433,-1.9595e+06,8552,10465,1,10465,1,3.5505e-05,-1.5739e-09,0,3.5505e-05,-2.8796e-05,7.2736e+06,-211.71,0,8.9641e+06,-447.4,10464,14059,1,14059,1,0.00015577,2.2603e-09,0,0.00015577,-6.4187e-06,1.4869e+07,355.39,0,1.4869e+07,129.48,14058,2091.4,0,2091.4,0,7.1481e-05,1.7076e-06,0,6.7396e-05,1.3231e-05,6.8818e+06,2.5874e+05,0,4.6762e+06,1.9102e+05,2091.4,1
5396,0.6,12260,1,12260,1,9.8954e-05,2.992e-07,0,0.00010189,-1.8355e-05,1.0326e+07,42616,0,1.1535e+07,-52242,12259,15904,1,15904,1,0.00021975,1.1399e-05,0,0.00021975,4.8504e-06,1.7642e+07,2.1291e+06,0,1.7642e+07,20635,15903,12262,1,12262,1,9.7258e-05,6.0228e-10,0,9.7258e-05,-1.7887e-05,1.3026e+07,65.996,0,1.3026e+07,0.35019,12261,8553,1,8553,1,-2.5048e-05,-6.2322e-06,0,3.0459e-07,-4.0755e-05,-1.0176e+07,-1.1532e+06,0,13791,-1.9925e+06,8552,10465,1,10465,1,3.6107e-05,-7.822e-10,0,3.6107e-05,-2.9283e-05,7.397e+06,-99.835,0,9.116e+06,-34.209,10464,14059,1,14059,1,0.00015841,2.4465e-09,0,0.00015841,-6.5274e-06,1.5121e+07,352.42,0,1.5121e+07,44.693,14058,2091.4,0,2091.4,0,7.2694e-05,1.7363e-06,0,6.8539e-05,1.3455e-05,6.9986e+06,2.632e+05,0,4.7555e+06,1.941e+05,2091.4,1
5396,0.61,12260,1,12260,1,0.0001006,3.0387e-07,0,0.00010358,-1.8661e-05,1.0497e+07,43244,0,1.1727e+07,-53343,12259,15904,1,15904,1,0.00022373,1.1573e-05,0,0.00022373,4.9323e-06,1.7961e+07,2.1621e+06,0,1.7961e+07,17728,15903,12262,1,12262,1,9.8874e-05,-3.4263e-10,0,9.8874e-05,-1.8185e-05,1.3243e+07,-41.115,0,1.3243e+07,19.941,12261,8553,1,8553,1,-2.5466e-05,-6.3354e-06,0,3.114e-07,-4.1503e-05,-1.0346e+07,-1.1714e+06,0,14539,-2.0257e+06,8552,10465,1,10465,1,3.6707e-05,-7.8856e-10,0,3.6707e-05,-2.9778e-05,7.5199e+06,-122.9,0,9.2656e+06,-1827.5,10464,14059,1,14059,1,0.00016104,1.7688e-09,0,0.00016104,-6.6357e-06,1.5373e+07,239.37,0,1.5373e+07,55.347,14058,2091.4,0,2091.4,0,7.3902e-05,1.766e-06,0,6.9677e-05,1.368e-05,7.1149e+06,2.6748e+05,0,4.8344e+06,1.9734e+05,2091.4,1
5396,0.62,12260,1,12260,1,0.00010226,3.0934e-07,0,0.00010529,-1.8968e-05,1.0671e+07,44026,0,1.192e+07,-54044,12259,15904,1,15904,1,0.0002271,1.1762e-05,0,0.0002271,5.0123e-06,1.8232e+07,2.1978e+06,0,1.8232e+07,13983,15903,12262,1,12262,1,0.0001005,3.2516e-10,0,0.0001005,-1.8484e-05,1.3461e+07,37.753,0,1.3461e+07,19.469,12261,8553,1,8553,1,-2.5883e-05,-6.4355e-06,0,3.1464e-07,-4.2123e-05,-1.0515e+07,-1.1914e+06,0,14145,-2.0578e+06,8552,10465,1,10465,1,3.7311e-05,-5.7506e-10,0,3.7311e-05,-3.0261e-05,7.6437e+06,-73.162,0,9.4201e+06,-725.4,10464,14059,1,14059,1,0.00016369,1.6635e-09,0,0.00016369,-6.745e-06,1.5625e+07,241.63,0,1.5625e+07,60.1,14058,2091.4,0,2091.4,0,7.5119e-05,1.7944e-06,0,7.0825e-05,1.3905e-05,7.232e+06,2.7186e+05,0,4.9142e+06,2.0052e+05,2091.4,1
5396,0.63,12260,1,12260,1,0.0001039,3.1452e-07,0,0.00010698,-1.9273e-05,1.0842e+07,44769,0,1.2112e+07,-54947,12259,15904,1,15904,1,0.00023072,1.1954e-05,0,0.00023072,5.0927e-06,1.8522e+07,2.2334e+06,0,1.8522e+07,3710,15903,12262,1,12262,1,0.00010212,6.1764e-10,0,0.00010212,-1.8782e-05,1.3678e+07,67.384,0,1.3678e+07,-0.014721,12261,8553,1,8553,1,-2.63e-05,-6.5393e-06,0,3.1891e-07,-4.2787e-05,-1.0685e+07,-1.2109e+06,0,14311,-2.0924e+06,8552,10465,1,10465,1,3.7912e-05,-4.3179e-10,0,3.7912e-05,-3.0747e-05,7.7668e+06,-60.285,0,9.5716e+06,-89.56,10464,14059,1,14059,1,0.00016633,2.6412e-09,0,0.00016633,-6.8537e-06,1.5877e+07,391.87,0,1.5877e+07,47.29,14058,2091.4,0,2091.4,0,7.6327e-05,1.8241e-06,0,7.1964e-05,1.4128e-05,7.3483e+06,2.7626e+05,0,4.9932e+06,2.0395e+05,2091.4,1
5396,0.64,12260,1,12260,1,0.00010555,3.1941e-07,0,0.00010868,-1.9579e-05,1.1014e+07,45476,0,1.2304e+07,-55817,12259,15904,1,15904,1,0.00023444,1.2142e-05,0,0.00023444,5.173e-06,1.8821e+07,2.2685e+06,0,1.8821e+07,11407,15903,12262,1,12262,1,0.00010374,1.0215e-09,0,0.00010374,-1.908e-05,1.3895e+07,112.86,0,1.3895e+07,-6.5637,12261,8553,1,8553,1,-2.6718e-05,-6.6328e-06,0,3.2488e-07,-4.3476e-05,-1.0855e+07,-1.2298e+06,0,14795,-2.1256e+06,8552,10465,1,10465,1,3.8514e-05,-1.5367e-09,0,3.8514e-05,-3.1237e-05,7.89e+06,-212.96,0,9.723e+06,-331.62,10464,14059,1,14059,1,0.00016897,3.1246e-09,0,0.00016897,-6.9626e-06,1.6129e+07,467.61,0,1.6129e+07,78.834,14058,2091.4,0,2091.4,0,7.7539e-05,1.8525e-06,0,7.3107e-05,1.4352e-05,7.465e+06,2.806e+05,0,5.0724e+06,2.0718e+05,2091.4,1
5396,0.65,12260,1,12260,1,0.0001072,3.227e-07,0,0.00011038,-1.9885e-05,1.1187e+07,46035,0,1.2496e+07,-56719,12259,15904,1,15904,1,0.00023815,1.2328e-05,0,0.00023815,5.2549e-06,1.912e+07,2.3046e+06,0,1.912e+07,11978,15903,12262,1,12262,1,0.00010537,2.0393e-10,0,0.00010537,-1.9379e-05,1.4112e+07,18.988,0,1.4112e+07,-7.7107,12261,8553,1,8553,1,-2.7134e-05,-6.754e-06,0,3.3044e-07,-4.4187e-05,-1.1024e+07,-1.2486e+06,0,15069,-2.1586e+06,8552,10465,1,10465,1,3.9116e-05,-1.7437e-09,0,3.9116e-05,-3.1724e-05,8.0135e+06,-228.57,0,9.8753e+06,-105.97,10464,14059,1,14059,1,0.00017161,2.8412e-09,0,0.00017161,-7.0716e-06,1.6381e+07,430.24,0,1.6381e+07,51.415,14058,2091.4,0,2091.4,0,7.8752e-05,1.8816e-06,0,7.425e-05,1.4577e-05,7.5817e+06,2.8505e+05,0,5.1518e+06,2.1036e+05,2091.4,1
5396,0.66,12260,1,12260,1,0.00010885,3.2952e-07,0,0.00011208,-2.019e-05,1.1358e+07,46907,0,1.2688e+07,-57529,12259,15904,1,15904,1,0.00024171,1.252e-05,0,0.00024171,5.3353e-06,1.9405e+07,2.3396e+06,0,1.9405e+07,3817.4,15903,12262,1,12262,1,0.00010698,7.3215e-10,0,0.00010698,-1.9676e-05,1.4329e+07,80.031,0,1.4329e+07,-3.5373,12261,8553,1,8553,1,-2.7552e-05,-6.8445e-06,0,3.3477e-07,-4.4833e-05,-1.1193e+07,-1.2687e+06,0,15228,-2.1913e+06,8552,10465,1,10465,1,3.9717e-05,-1.2188e-09,0,3.9717e-05,-3.2211e-05,8.1365e+06,-164.9,0,1.0027e+07,-73.116,10464,14059,1,14059,1,0.00017425,3.1148e-09,0,0.00017425,-7.1801e-06,1.6633e+07,462.6,0,1.6633e+07,48.328,14058,2091.4,0,2091.4,0,7.9962e-05,1.91e-06,0,7.5391e-05,1.4801e-05,7.6982e+06,2.8936e+05,0,5.231e+06,2.1356e+05,2091.4,1
5396,0.67,12260,1,12260,1,0.0001105,3.3457e-07,0,0.00011378,-2.0497e-05,1.1531e+07,47607,0,1.2881e+07,-58400,12259,15904,1,15904,1,0.00024539,1.2711e-05,0,0.00024539,5.4154e-06,1.97e+07,2.3749e+06,0,1.97e+07,12587,15903,12262,1,12262,1,0.00010861,8.7353e-10,0,0.00010861,-1.9975e-05,1.4546e+07,90.184,0,1.4546e+07,-9.8986,12261,8553,1,8553,1,-2.797e-05,-6.9504e-06,0,3.4033e-07,-4.552e-05,-1.1364e+07,-1.2897e+06,0,15441,-2.2248e+06,8552,10465,1,10465,1,4.0319e-05,-1.3597e-09,0,4.0319e-05,-3.2703e-05,8.2599e+06,-182.51,0,1.0178e+07,-977.71,10464,14059,1,14059,1,0.00017689,3.0478e-09,0,0.00017689,-7.2891e-06,1.6885e+07,455.59,0,1.6885e+07,73.918,14058,2091.4,0,2091.4,0,8.1175e-05,1.9383e-06,0,7.6535e-05,1.5026e-05,7.815e+06,2.9373e+05,0,5.3103e+06,2.1668e+05,2091.4,1
5396,0.68,12260,1,12260,1,0.00011214,3.3672e-07,0,0.00011547,-2.0802e-05,1.1702e+07,48084,0,1.3073e+07,-59311,12259,15904,1,15904,1,0.00024902,1.29e-05,0,0.00024902,5.4968e-06,1.9992e+07,2.4115e+06,0,1.9992e+07,41321,15903,12262,1,12262,1,0.00011023,9.9488e-11,0,0.00011023,-2.0272e-05,1.4763e+07,7.8668,0,1.4763e+07,-6.9283,12261,8553,1,8553,1,-2.8386e-05,-7.0622e-06,0,3.443e-07,-4.6183e-05,-1.1532e+07,-1.3057e+06,0,15481,-2.2581e+06,8552,10465,1,10465,1,4.092e-05,-2.0139e-09,0,4.092e-05,-3.3187e-05,8.3831e+06,-269.97,0,1.0331e+07,-44.868,10464,14059,1,14059,1,0.00017953,2.1839e-09,0,0.00017953,-7.3977e-06,1.7137e+07,321.11,0,1.7137e+07,51.978,14058,2091.4,0,2091.4,0,8.2383e-05,1.9662e-06,0,7.7674e-05,1.5249e-05,7.9314e+06,2.9818e+05,0,5.3894e+06,2.2014e+05,2091.4,1
5396,0.69,12260,1,12260,1,0.00011379,3.4383e-07,0,0.00011717,-2.1108e-05,1.1875e+07,48962,0,1.3265e+07,-60116,12259,15904,1,15904,1,0.0002527,1.3089e-05,0,0.0002527,5.5777e-06,2.0287e+07,2.4458e+06,0,2.0287e+07,4071.3,15903,12262,1,12262,1,0.00011184,5.0768e-10,0,0.00011184,-2.057e-05,1.498e+07,53.047,0,1.498e+07,-6.5397,12261,8553,1,8553,1,-2.8803e-05,-7.1586e-06,0,3.5072e-07,-4.686e-05,-1.1702e+07,-1.3264e+06,0,16177,-2.2912e+06,8552,10465,1,10465,1,4.1521e-05,-1.075e-09,0,4.1521e-05,-3.3674e-05,8.5061e+06,-152.18,0,1.0483e+07,-40.393,10464,14059,1,14059,1,0.00018216,2.1352e-09,0,0.00018216,-7.5062e-06,1.7388e+07,322.15,0,1.7388e+07,41.655,14058,2091.4,0,2091.4,0,8.3596e-05,1.9963e-06,0,7.8818e-05,1.5473e-05,8.048e+06,3.0248e+05,0,5.4687e+06,2.2328e+05,2091.4,1
5396,0.7,12260,1,12260,1,0.00011544,3.4841e-07,0,0.00011887,-2.1414e-05,1.2047e+07,49603,0,1.3457e+07,-60950,12259,15904,1,15904,1,0.00025633,1.328e-05,0,0.00025633,5.6585e-06,2.0578e+07,2.4818e+06,0,2.0578e+07,4615.6,15903,12262,1,12262,1,0.00011347,-1.193e-11,0,0.00011347,-2.0868e-05,1.5197e+07,-1.1323,0,1.5197e+07,2.6568,12261,8553,1,8553,1,-2.9221e-05,-7.2642e-06,0,3.5613e-07,-4.7537e-05,-1.1871e+07,-1.3448e+06,0,16258,-2.3241e+06,8552,10465,1,10465,1,4.2123e-05,-2.2271e-09,0,4.2123e-05,-3.4163e-05,8.6295e+06,-315.67,0,1.0635e+07,-39.9,10464,14059,1,14059,1,0.00018481,2.1424e-09,0,0.00018481,-7.6152e-06,1.7641e+07,293.17,0,1.7641e+07,64.363,14058,2091.4,0,2091.4,0,8.4808e-05,2.0254e-06,0,7.9961e-05,1.5698e-05,8.1648e+06,3.0693e+05,0,5.548e+06,2.2648e+05,2091.4,1
5396,0.71,12260,1,12260,1,0.00011709,3.5461e-07,0,0.00012057,-2.172e-05,1.2219e+07,50440,0,1.365e+07,-61902,12259,15904,1,15904,1,0.00026,1.3466e-05,0,0.00026,5.7395e-06,2.0873e+07,2.5178e+06,0,2.0873e+07,12993,15903,12262,1,12262,1,0.00011509,3.0659e-10,0,0.00011509,-2.1167e-05,1.5415e+07,29.072,0,1.5415e+07,-1.3865,12261,8553,1,8553,1,-2.9638e-05,-7.3662e-06,0,3.6018e-07,-4.8218e-05,-1.2041e+07,-1.3645e+06,0,16466,-2.3577e+06,8552,10465,1,10465,1,4.2726e-05,-1.7569e-09,0,4.2726e-05,-3.4651e-05,8.7529e+06,-246.19,0,1.0787e+07,-47.722,10464,14059,1,14059,1,0.00018745,2.5857e-09,0,0.00018745,-7.7241e-06,1.7893e+07,372.48,0,1.7893e+07,48.484,14058,2091.4,0,2091.4,0,8.602e-05,2.0558e-06,0,8.1103e-05,1.5922e-05,8.2815e+06,3.1141e+05,0,5.6273e+06,2.2978e+05,2091.4,1
5396,0.72,12260,1,12260,1,0.00011874,3.5919e-07,0,0.00012226,-2.2026e-05,1.2391e+07,51094,0,1.3841e+07,-62860,12259,15904,1,15904,1,0.00026374,1.3659e-05,0,0.00026374,5.8202e-06,2.1173e+07,2.5528e+06,0,2.1173e+07,10017,15903,12262,1,12262,1,0.0001167,-1.4354e-10,0,0.0001167,-2.1464e-05,1.5631e+07,-14.437,0,1.5631e+07,13.039,12261,8553,1,8553,1,-3.0056e-05,-7.4676e-06,0,3.64e-07,-4.8923e-05,-1.2211e+07,-1.3841e+06,0,16295,-2.3918e+06,8552,10465,1,10465,1,4.3325e-05,-1.5853e-09,0,4.3326e-05,-3.5141e-05,8.8758e+06,-228.42,0,1.0939e+07,-1446.2,10464,14059,1,14059,1,0.00019008,3.8488e-09,0,0.00019008,-7.8324e-06,1.8145e+07,555.7,0,1.8145e+07,206.22,14058,2091.4,0,2091.4,0,8.7229e-05,2.0842e-06,0,8.2243e-05,1.6147e-05,8.3979e+06,3.1574e+05,0,5.7063e+06,2.3301e+05,2091.4,1
5396,0.73,12260,1,12260,1,0.00012039,3.627e-07,0,0.00012396,-2.2332e-05,1.2563e+07,51690,0,1.4034e+07,-63633,12259,15904,1,15904,1,0.00026732,1.3835e-05,0,0.00026732,5.9008e-06,2.1461e+07,2.5887e+06,0,2.1461e+07,5845.6,15903,12262,1,12262,1,0.00011832,-1.5124e-11,0,0.00011832,-2.1762e-05,1.5848e+07,-1.5872,0,1.5848e+07,3.4659,12261,8553,1,8553,1,-3.0472e-05,-7.5671e-06,0,3.7112e-07,-4.9575e-05,-1.238e+07,-1.4025e+06,0,16797,-2.4236e+06,8552,10465,1,10465,1,4.3927e-05,-1.8429e-09,0,4.3927e-05,-3.5628e-05,8.9991e+06,-259.59,0,1.1091e+07,-51.267,10464,14059,1,14059,1,0.00019272,1.7091e-09,0,0.00019272,-7.9412e-06,1.8396e+07,244.12,0,1.8396e+07,53.548,14058,2091.4,0,2091.4,0,8.8441e-05,2.1107e-06,0,8.3386e-05,1.637e-05,8.5145e+06,3.2003e+05,0,5.7857e+06,2.362e+05,2091.4,1
5396,0.74,12260,1,12260,1,0.00012204,3.6709e-07,0,0.00012566,-2.2637e-05,1.2735e+07,52355,0,1.4226e+07,-64620,12259,15904,1,15904,1,0.00027099,1.4042e-05,0,0.00027099,5.9817e-06,2.1756e+07,2.6237e+06,0,2.1756e+07,45160,15903,12262,1,12262,1,0.00011994,-5.3248e-10,0,0.00011994,-2.2059e-05,1.6065e+07,-68.54,0,1.6065e+07,17.111,12261,8553,1,8553,1,-3.089e-05,-7.6806e-06,0,3.7524e-07,-5.0271e-05,-1.255e+07,-1.4214e+06,0,16999,-2.4578e+06,8552,10465,1,10465,1,4.4529e-05,-1.1015e-09,0,4.4529e-05,-3.6118e-05,9.1223e+06,-158.08,0,1.1243e+07,-832.02,10464,14059,1,14059,1,0.00019536,1.8936e-09,0,0.00019536,-8.0497e-06,1.8648e+07,258.28,0,1.8648e+07,190.28,14058,2091.4,0,2091.4,0,8.9651e-05,2.1412e-06,0,8.4527e-05,1.6595e-05,8.631e+06,3.2452e+05,0,5.8649e+06,2.3956e+05,2091.4,1
5396,0.75,12260,1,12260,1,0.00012369,3.7475e-07,0,0.00012736,-2.2944e-05,1.2908e+07,53312,0,1.4419e+07,-65300,12259,15904,1,15904,1,0.00027465,1.4229e-05,0,0.00027465,6.0629e-06,2.2049e+07,2.6587e+06,0,2.2049e+07,8620.8,15903,12262,1,12262,1,0.00012157,9.1425e-10,0,0.00012157,-2.2359e-05,1.6283e+07,113.68,0,1.6283e+07,7.6364,12261,8553,1,8553,1,-3.131e-05,-7.79e-06,0,3.779e-07,-5.0936e-05,-1.272e+07,-1.443e+06,0,16574,-2.49e+06,8552,10465,1,10465,1,4.5133e-05,-3.3714e-10,0,4.5133e-05,-3.6603e-05,9.2462e+06,-36.883,0,1.1396e+07,-33.75,10464,14059,1,14059,1,0.00019801,1.9466e-09,0,0.00019801,-8.1591e-06,1.8901e+07,286.85,0,1.8901e+07,26.988,14058,2091.4,0,2091.4,0,9.0868e-05,2.1706e-06,0,8.5675e-05,1.6819e-05,8.7482e+06,3.2889e+05,0,5.9445e+06,2.426e+05,2091.4,1
5396,0.76,12260,1,12260,1,0.00012534,3.7734e-07,0,0.00012906,-2.3249e-05,1.3079e+07,53775,0,1.4611e+07,-66277,12259,15904,1,15904,1,0.00027832,1.4419e-05,0,0.00027832,6.1439e-06,2.2344e+07,2.6948e+06,0,2.2344e+07,34444,15903,12262,1,12262,1,0.00012319,-1.4243e-10,0,0.00012319,-2.2657e-05,1.65e+07,-13.961,0,1.65e+07,1.506,12261,8553,1,8553,1,-3.1727e-05,-7.8902e-06,0,3.8475e-07,-5.1616e-05,-1.2889e+07,-1.4595e+06,0,17190,-2.5255e+06,8552,10465,1,10465,1,4.5733e-05,-2.6982e-09,0,4.5733e-05,-3.709e-05,9.3692e+06,-371.61,0,1.1547e+07,-50.032,10464,14059,1,14059,1,0.00020065,9.8246e-10,0,0.00020065,-8.2677e-06,1.9153e+07,143.35,0,1.9153e+07,50.488,14058,2091.4,0,2091.4,0,9.2076e-05,2.1988e-06,0,8.6813e-05,1.7043e-05,8.8645e+06,3.3325e+05,0,6.0235e+06,2.4616e+05,2091.4,1
5396,0.77,12260,1,12260,1,0.00012699,3.8493e-07,0,0.00013076,-2.3555e-05,1.3251e+07,54743,0,1.4803e+07,-67079,12259,15904,1,15904,1,0.00028198,1.4603e-05,0,0.00028198,6.2245e-06,2.2638e+07,2.7296e+06,0,2.2638e+07,4525,15903,12262,1,12262,1,0.00012481,9.2936e-10,0,0.00012481,-2.2955e-05,1.6717e+07,98.525,0,1.6717e+07,-1.9523,12261,8553,1,8553,1,-3.2144e-05,-7.9815e-06,0,3.9025e-07,-5.2296e-05,-1.3059e+07,-1.4807e+06,0,17707,-2.557e+06,8552,10465,1,10465,1,4.6335e-05,-1.5571e-09,0,4.6335e-05,-3.7579e-05,9.4924e+06,-215.8,0,1.1698e+07,-51.157,10464,14059,1,14059,1,0.00020329,3.0537e-09,0,0.00020329,-8.3766e-06,1.9405e+07,461.57,0,1.9405e+07,70.445,14058,2091.4,0,2091.4,0,9.3288e-05,2.2275e-06,0,8.7956e-05,1.7268e-05,8.9812e+06,3.3755e+05,0,6.1027e+06,2.4913e+05,2091.4,1
5396,0.78,12260,1,12260,1,0.00012864,3.8874e-07,0,0.00013245,-2.3861e-05,1.3424e+07,55320,0,1.4995e+07,-67940,12259,15904,1,15904,1,0.00028566,1.4795e-05,0,0.00028566,6.3051e-06,2.2933e+07,2.7653e+06,0,2.2933e+07,7315.4,15903,12262,1,12262,1,0.00012643,-5.7332e-11,0,0.00012643,-2.3252e-05,1.6933e+07,-5.3205,0,1.6933e+07,22.121,12261,8553,1,8553,1,-3.2561e-05,-8.094e-06,0,3.9565e-07,-5.2976e-05,-1.3228e+07,-1.4984e+06,0,18049,-2.5904e+06,8552,10465,1,10465,1,4.6936e-05,-6.7211e-10,0,4.6936e-05,-3.8066e-05,9.6155e+06,-97.109,0,1.1851e+07,-95.785,10464,14059,1,14059,1,0.00020592,5.424e-10,0,0.00020592,-8.4849e-06,1.9656e+07,69.117,0,1.9656e+07,59.646,14058,2091.4,0,2091.4,0,9.45e-05,2.258e-06,0,8.9098e-05,1.7492e-05,9.0978e+06,3.4204e+05,0,6.182e+06,2.524e+05,2091.4,1
5396,0.79,12260,1,12260,1,0.00013028,3.9292e-07,0,0.00013415,-2.4167e-05,1.3596e+07,55955,0,1.5187e+07,-68791,12259,15904,1,15904,1,0.00028929,1.4974e-05,0,0.00028929,6.386e-06,2.3224e+07,2.8018e+06,0,2.3224e+07,4568.6,15903,12262,1,12262,1,0.00012805,-1.2652e-10,0,0.00012805,-2.355e-05,1.715e+07,-11.434,0,1.715e+07,-10.942,12261,8553,1,8553,1,-3.2978e-05,-8.2002e-06,0,4.0184e-07,-5.3648e-05,-1.3398e+07,-1.5177e+06,0,18360,-2.6228e+06,8552,10465,1,10465,1,4.7537e-05,-2.331e-09,0,4.7537e-05,-3.8554e-05,9.7387e+06,-339.6,0,1.2002e+07,-72.427,10464,14059,1,14059,1,0.00020856,1.5499e-09,0,0.00020856,-8.5939e-06,1.9908e+07,220.42,0,1.9908e+07,48.386,14058,2091.4,0,2091.4,0,9.5711e-05,2.2845e-06,0,9.024e-05,1.7716e-05,9.2143e+06,3.4636e+05,0,6.2612e+06,2.5555e+05,2091.4,1
5396,0.8,12260,1,12260,1,0.00013193,3.9858e-07,0,0.00013585,-2.4473e-05,1.3767e+07,56767,0,1.5379e+07,-69787,12259,15904,1,15904,1,0.00029295,1.5168e-05,0,0.00029295,6.4668e-06,2.3518e+07,2.8362e+06,0,2.3518e+07,11445,15903,12262,1,12262,1,0.00012967,2.9513e-10,0,0.00012967,-2.3849e-05,1.7368e+07,27.973,0,1.7368e+07,-10.56,12261,8553,1,8553,1,-3.3395e-05,-8.3067e-06,0,4.058e-07,-5.4336e-05,-1.3567e+07,-1.5369e+06,0,18232,-2.6567e+06,8552,10465,1,10465,1,4.814e-05,-1.3085e-09,0,4.814e-05,-3.9044e-05,9.8622e+06,-173.52,0,1.2154e+07,-43.336,10464,14059,1,14059,1,0.0002112,2.4663e-09,0,0.0002112,-8.7028e-06,2.0161e+07,354.76,0,2.0161e+07,60.58,14058,2091.4,0,2091.4,0,9.6921e-05,2.3156e-06,0,9.1381e-05,1.794e-05,9.3309e+06,3.508e+05,0,6.3404e+06,2.5895e+05,2091.4,1
5396,0.81,12260,1,12260,1,0.00013359,4.0385e-07,0,0.00013755,-2.4779e-05,1.394e+07,57496,0,1.5572e+07,-70599,12259,15904,1,15904,1,0.00029661,1.5356e-05,0,0.00029661,6.5478e-06,2.3812e+07,2.8715e+06,0,2.3812e+07,4648.4,15903,12262,1,12262,1,0.00013129,4.2369e-10,0,0.00013129,-2.4147e-05,1.7585e+07,51.862,0,1.7585e+07,9.6307,12261,8553,1,8553,1,-3.3813e-05,-8.4091e-06,0,4.0997e-07,-5.5008e-05,-1.3737e+07,-1.5561e+06,0,18382,-2.69e+06,8552,10465,1,10465,1,4.8743e-05,-8.9869e-10,0,4.8743e-05,-3.9531e-05,9.9857e+06,-112.64,0,1.2307e+07,-36.142,10464,14059,1,14059,1,0.00021385,1.9396e-09,0,0.00021385,-8.8116e-06,2.0413e+07,285.47,0,2.0413e+07,37.066,14058,2091.4,0,2091.4,0,9.8136e-05,2.3451e-06,0,9.2526e-05,1.8164e-05,9.4478e+06,3.5519e+05,0,6.4199e+06,2.6217e+05,2091.4,1
5396,0.82,12260,1,12260,1,0.00013523,4.0847e-07,0,0.00013925,-2.5085e-05,1.4112e+07,58152,0,1.5764e+07,-71461,12259,15904,1,15904,1,0.00030027,1.5554e-05,0,0.00030027,6.6279e-06,2.4106e+07,2.9059e+06,0,2.4106e+07,10820,15903,12262,1,12262,1,0.00013291,9.5941e-11,0,0.00013291,-2.4445e-05,1.7802e+07,8.2187,0,1.7802e+07,1.5299,12261,8553,1,8553,1,-3.423e-05,-8.5145e-06,0,4.167e-07,-5.5697e-05,-1.3906e+07,-1.5744e+06,0,19109,-2.7225e+06,8552,10465,1,10465,1,4.9345e-05,-1.0087e-09,0,4.9345e-05,-4.002e-05,1.0109e+07,-155.92,0,1.2458e+07,-601.21,10464,14059,1,14059,1,0.00021648,1.7418e-09,0,0.00021648,-8.9204e-06,2.0665e+07,272.65,0,2.0665e+07,59.582,14058,2091.4,0,2091.4,0,9.9346e-05,2.3726e-06,0,9.3668e-05,1.8389e-05,9.5644e+06,3.5946e+05,0,6.4991e+06,2.6535e+05,2091.4,1
5396,0.83,12260,1,12260,1,0.00013688,4.1357e-07,0,0.00014095,-2.5391e-05,1.4284e+07,58892,0,1.5957e+07,-72268,12259,15904,1,15904,1,0.00030394,1.5748e-05,0,0.00030394,6.7094e-06,2.4401e+07,2.942e+06,0,2.4401e+07,4759.5,15903,12262,1,12262,1,0.00013453,2.8712e-10,0,0.00013453,-2.4742e-05,1.8019e+07,35.271,0,1.8019e+07,9.533,12261,8553,1,8553,1,-3.4648e-05,-8.6131e-06,0,4.2126e-07,-5.6368e-05,-1.4076e+07,-1.595e+06,0,19129,-2.7555e+06,8552,10465,1,10465,1,4.9945e-05,-1.4746e-10,0,4.9945e-05,-4.0508e-05,1.0232e+07,-18.391,0,1.2611e+07,-40.136,10464,14059,1,14059,1,0.00021912,1.1082e-09,0,0.00021912,-9.0289e-06,2.0916e+07,164.04,0,2.0916e+07,38.665,14058,2091.4,0,2091.4,0,0.00010056,2.4013e-06,0,9.481e-05,1.8613e-05,9.681e+06,3.6388e+05,0,6.5784e+06,2.6851e+05,2091.4,1
5396,0.84,12260,1,12260,1,0.00013853,4.1798e-07,0,0.00014264,-2.5697e-05,1.4456e+07,59517,0,1.6149e+07,-73234,12259,15904,1,15904,1,0.00030759,1.5936e-05,0,0.00030759,6.7901e-06,2.4694e+07,2.9776e+06,0,2.4694e+07,4825.3,15903,12262,1,12262,1,0.00013615,-3.2926e-10,0,0.00013615,-2.5041e-05,1.8236e+07,-39.256,0,1.8236e+07,6.15,12261,8553,1,8553,1,-3.5065e-05,-8.7247e-06,0,4.2618e-07,-5.7045e-05,-1.4246e+07,-1.6128e+06,0,19274,-2.7892e+06,8552,10465,1,10465,1,5.0547e-05,-1.2545e-09,0,5.0547e-05,-4.0994e-05,1.0355e+07,-164.78,0,1.2763e+07,-36.193,10464,14059,1,14059,1,0.00022176,9.0951e-10,0,0.00022176,-9.1378e-06,2.1169e+07,119.35,0,2.1169e+07,22.109,14058,2091.4,0,2091.4,0,0.00010177,2.4322e-06,0,9.5952e-05,1.8837e-05,9.7976e+06,3.6837e+05,0,6.6576e+06,2.7191e+05,2091.4,1
5396,0.85,12260,1,12260,1,0.00014018,4.228e-07,0,0.00014434,-2.6003e-05,1.4628e+07,60228,0,1.6341e+07,-74133,12259,15904,1,15904,1,0.00031126,1.6123e-05,0,0.00031126,6.8707e-06,2.4988e+07,3.0128e+06,0,2.4988e+07,10787,15903,12262,1,12262,1,0.00013777,5.9214e-11,0,0.00013777,-2.5338e-05,1.8453e+07,5.1448,0,1.8453e+07,7.9027,12261,8553,1,8553,1,-3.5482e-05,-8.8273e-06,0,4.3085e-07,-5.7729e-05,-1.4415e+07,-1.6333e+06,0,19353,-2.8225e+06,8552,10465,1,10465,1,5.1149e-05,-5.5949e-10,0,5.1149e-05,-4.1486e-05,1.0479e+07,-82.323,0,1.2914e+07,-811.52,10464,14059,1,14059,1,0.0002244,1.4695e-09,0,0.0002244,-9.2465e-06,2.142e+07,211.07,0,2.142e+07,42.804,14058,2091.4,0,2091.4,0,0.00010298,2.4599e-06,0,9.7093e-05,1.9061e-05,9.914e+06,3.7267e+05,0,6.7368e+06,2.7508e+05,2091.4,1
5396,0.86,12260,1,12260,1,0.00014183,4.2851e-07,0,0.00014604,-2.6309e-05,1.48e+07,61014,0,1.6533e+07,-74915,12259,15904,1,15904,1,0.00031493,1.6301e-05,0,0.00031493,6.9519e-06,2.5283e+07,3.0487e+06,0,2.5283e+07,4962.5,15903,12262,1,12262,1,0.0001394,5.0424e-10,0,0.0001394,-2.5637e-05,1.867e+07,65.39,0,1.867e+07,9.9513,12261,8553,1,8553,1,-3.59e-05,-8.9095e-06,0,4.3604e-07,-5.8405e-05,-1.4585e+07,-1.6538e+06,0,19684,-2.8552e+06,8552,10465,1,10465,1,5.175e-05,-3.0428e-10,0,5.175e-05,-4.1971e-05,1.0602e+07,-32.746,0,1.3067e+07,-33.332,10464,14059,1,14059,1,0.00022704,1.2258e-09,0,0.00022704,-9.3553e-06,2.1673e+07,175.84,0,2.1673e+07,27.486,14058,2091.4,0,2091.4,0,0.00010419,2.4876e-06,0,9.8237e-05,1.9286e-05,1.0031e+07,3.7699e+05,0,6.8161e+06,2.7819e+05,2091.4,1
5396,0.87,12260,1,12260,1,0.00014348,4.3283e-07,0,0.00014774,-2.6614e-05,1.4972e+07,61719,0,1.6725e+07,-75886,12259,15904,1,15904,1,0.00031865,1.6501e-05,0,0.00031865,7.0321e-06,2.5582e+07,3.0832e+06,0,2.5582e+07,43424,15903,12262,1,12262,1,0.00014102,9.2032e-10,0,0.00014102,-2.5935e-05,1.8887e+07,125.22,0,1.8887e+07,13.383,12261,8553,1,8553,1,-3.6321e-05,-9.0302e-06,0,4.4067e-07,-5.9125e-05,-1.4756e+07,-1.6714e+06,0,19796,-2.8884e+06,8552,10465,1,10465,1,5.2352e-05,2.4888e-10,0,5.2352e-05,-4.2462e-05,1.0725e+07,19.918,0,1.3217e+07,-364.94,10464,14059,1,14059,1,0.00022969,2.0826e-09,0,0.00022969,-9.464e-06,2.1925e+07,294.64,0,2.1925e+07,35.256,14058,2091.4,0,2091.4,0,0.0001054,2.5175e-06,0,9.9378e-05,1.951e-05,1.0147e+07,3.8141e+05,0,6.8952e+06,2.8152e+05,2091.4,1
5396,0.88,12260,1,12260,1,0.00014513,4.3793e-07,0,0.00014943,-2.692e-05,1.5144e+07,62354,0,1.6918e+07,-76713,12259,15904,1,15904,1,0.00032224,1.6679e-05,0,0.00032224,7.1134e-06,2.587e+07,3.1193e+06,0,2.587e+07,5030,15903,12262,1,12262,1,0.00014264,-3.1997e-10,0,0.00014264,-2.6233e-05,1.9104e+07,-29.38,0,1.9104e+07,3.4268,12261,8553,1,8553,1,-3.6735e-05,-9.1377e-06,0,4.4566e-07,-5.9764e-05,-1.4924e+07,-1.69e+06,0,20159,-2.9216e+06,8552,10465,1,10465,1,5.2953e-05,-9.6771e-10,0,5.2953e-05,-4.2946e-05,1.0848e+07,-146.91,0,1.337e+07,-25.533,10464,14059,1,14059,1,0.00023232,1.2665e-09,0,0.00023232,-9.5729e-06,2.2176e+07,175.96,0,2.2176e+07,27.991,14058,2091.4,0,2091.4,0,0.00010661,2.5469e-06,0,0.00010052,1.9734e-05,1.0264e+07,3.8581e+05,0,6.9745e+06,2.8479e+05,2091.4,1
5396,0.89,12260,1,12260,1,0.00014678,4.4345e-07,0,0.00015113,-2.7226e-05,1.5316e+07,63137,0,1.711e+07,-77586,12259,15904,1,15904,1,0.0003259,1.6882e-05,0,0.0003259,7.194e-06,2.6164e+07,3.1541e+06,0,2.6164e+07,4992.1,15903,12262,1,12262,1,0.00014425,5.4722e-10,0,0.00014425,-2.6531e-05,1.9321e+07,74.432,0,1.9321e+07,3.0094,12261,8553,1,8553,1,-3.7152e-05,-9.2396e-06,0,4.5114e-07,-6.0443e-05,-1.5094e+07,-1.7094e+06,0,20392,-2.9549e+06,8552,10465,1,10465,1,5.3554e-05,6.5254e-11,0,5.3554e-05,-4.3435e-05,1.0971e+07,4.9877,0,1.3522e+07,-178.35,10464,14059,1,14059,1,0.00023496,1.5236e-09,0,0.00023496,-9.6814e-06,2.2428e+07,230.88,0,2.2428e+07,17.201,14058,2091.4,0,2091.4,0,0.00010782,2.5753e-06,0,0.00010166,1.9958e-05,1.0381e+07,3.9016e+05,0,7.0537e+06,2.8803e+05,2091.4,1
5396,0.9,12260,1,12260,1,0.00014842,4.4812e-07,0,0.00015283,-2.7532e-05,1.5488e+07,63828,0,1.7302e+07,-78458,12259,15904,1,15904,1,0.00032958,1.707e-05,0,0.00032958,7.2746e-06,2.6459e+07,3.1898e+06,0,2.6459e+07,5142.2,15903,12262,1,12262,1,0.00014587,5.7155e-10,0,0.00014587,-2.6828e-05,1.9538e+07,75.357,0,1.9538e+07,7.7309,12261,8553,1,8553,1,-3.7569e-05,-9.3411e-06,0,4.5709e-07,-6.1123e-05,-1.5263e+07,-1.7286e+06,0,20882,-2.9886e+06,8552,10465,1,10465,1,5.4155e-05,9.3665e-11,0,5.4155e-05,-4.3924e-05,1.1095e+07,7.4586,0,1.3674e+07,-89.811,10464,14059,1,14059,1,0.00023759,1.366e-09,0,0.00023759,-9.7901e-06,2.268e+07,217.3,0,2.268e+07,36.99,14058,2091.4,0,2091.4,0,0.00010903,2.6041e-06,0,0.0001028,2.0182e-05,1.0497e+07,3.9454e+05,0,7.1329e+06,2.9132e+05,2091.4,1
5396,0.91,12260,1,12260,1,0.00015008,4.5315e-07,0,0.00015453,-2.7838e-05,1.5661e+07,64538,0,1.7494e+07,-79304,12259,15904,1,15904,1,0.00033322,1.7264e-05,0,0.00033322,7.3554e-06,2.6751e+07,3.2254e+06,0,2.6751e+07,5170.1,15903,12262,1,12262,1,0.0001475,5.4503e-10,0,0.0001475,-2.7127e-05,1.9756e+07,64.6,0,1.9756e+07,-1.7007,12261,8553,1,8553,1,-3.7987e-05,-9.4454e-06,0,4.6125e-07,-6.1798e-05,-1.5433e+07,-1.7479e+06,0,20880,-3.0217e+06,8552,10465,1,10465,1,5.4759e-05,-6.4029e-10,0,5.4759e-05,-4.4411e-05,1.1218e+07,-73.743,0,1.3826e+07,-33.915,10464,14059,1,14059,1,0.00024024,1.7812e-09,0,0.00024024,-9.8993e-06,2.2932e+07,261.13,0,2.2932e+07,19.677,14058,2091.4,0,2091.4,0,0.00011025,2.6333e-06,0,0.00010395,2.0407e-05,1.0614e+07,3.9897e+05,0,7.2123e+06,2.9452e+05,2091.4,1
5396,0.92,12260,1,12260,1,0.00015172,4.5807e-07,0,0.00015623,-2.8144e-05,1.5833e+07,65228,0,1.7686e+07,-80225,12259,15904,1,15904,1,0.00033689,1.7449e-05,0,0.00033689,7.4366e-06,2.7046e+07,3.2604e+06,0,2.7046e+07,14163,15903,12262,1,12262,1,0.00014912,2.3514e-10,0,0.00014912,-2.7425e-05,1.9973e+07,26.842,0,1.9973e+07,-3.5341,12261,8553,1,8553,1,-3.8403e-05,-9.5518e-06,0,4.6722e-07,-6.2491e-05,-1.5602e+07,-1.7664e+06,0,21340,-3.0549e+06,8552,10465,1,10465,1,5.5361e-05,-7.3465e-10,0,5.5361e-05,-4.4905e-05,1.1342e+07,-106.42,0,1.3978e+07,-515.58,10464,14059,1,14059,1,0.00024287,1.0992e-09,0,0.00024287,-1.0008e-05,2.3184e+07,184.39,0,2.3184e+07,37.895,14058,2091.4,0,2091.4,0,0.00011146,2.6619e-06,0,0.00010509,2.0631e-05,1.073e+07,4.0329e+05,0,7.2915e+06,2.9775e+05,2091.4,1
5396,0.93,12260,1,12260,1,0.00015337,4.6264e-07,0,0.00015792,-2.8449e-05,1.6005e+07,65916,0,1.7879e+07,-81016,12259,15904,1,15904,1,0.00034054,1.7637e-05,0,0.00034054,7.5174e-06,2.7339e+07,3.2967e+06,0,2.7339e+07,5339.2,15903,12262,1,12262,1,0.00015074,3.091e-10,0,0.00015074,-2.7723e-05,2.0189e+07,42.23,0,2.0189e+07,3.8484,12261,8553,1,8553,1,-3.8821e-05,-9.6575e-06,0,4.7199e-07,-6.3155e-05,-1.5772e+07,-1.7855e+06,0,21428,-3.0874e+06,8552,10465,1,10465,1,5.5962e-05,-2.7528e-10,0,5.5962e-05,-4.5386e-05,1.1465e+07,-31.652,0,1.413e+07,-29.65,10464,14059,1,14059,1,0.00024551,1.644e-09,0,0.00024551,-1.0117e-05,2.3436e+07,235.97,0,2.3436e+07,22.783,14058,2091.4,0,2091.4,0,0.00011267,2.69e-06,0,0.00010623,2.0855e-05,1.0847e+07,4.0769e+05,0,7.3708e+06,3.0095e+05,2091.4,1
5396,0.94,12260,1,12260,1,0.00015502,4.6721e-07,0,0.00015962,-2.8755e-05,1.6177e+07,66583,0,1.8071e+07,-81969,12259,15904,1,15904,1,0.00034431,1.783e-05,0,0.00034431,7.598e-06,2.7642e+07,3.3313e+06,0,2.7642e+07,6500,15903,12262,1,12262,1,0.00015236,8.0428e-11,0,0.00015236,-2.802e-05,2.0406e+07,9.0151,0,2.0406e+07,2.2236,12261,8553,1,8553,1,-3.9238e-05,-9.7633e-06,0,4.7773e-07,-6.385e-05,-1.5941e+07,-1.8046e+06,0,21853,-3.1214e+06,8552,10465,1,10465,1,5.6562e-05,-7.5339e-10,0,5.6562e-05,-4.5877e-05,1.1588e+07,-96.321,0,1.4281e+07,-208.78,10464,14059,1,14059,1,0.00024815,1.1149e-09,0,0.00024815,-1.0225e-05,2.3687e+07,167.11,0,2.3687e+07,43.61,14058,2091.4,0,2091.4,0,0.00011388,2.7202e-06,0,0.00010737,2.1079e-05,1.0964e+07,4.1209e+05,0,7.4499e+06,3.0427e+05,2091.4,1
5396,0.95,12260,1,12260,1,0.00015667,4.7306e-07,0,0.00016132,-2.9061e-05,1.6349e+07,67370,0,1.8263e+07,-82809,12259,15904,1,15904,1,0.00034787,1.8019e-05,0,0.00034787,7.6788e-06,2.7928e+07,3.367e+06,0,2.7928e+07,5450.7,15903,12262,1,12262,1,0.00015397,4.8581e-10,0,0.00015397,-2.8318e-05,2.0623e+07,51.946,0,2.0623e+07,1.5484,12261,8553,1,8553,1,-3.9655e-05,-9.8651e-06,0,4.8327e-07,-6.4521e-05,-1.6111e+07,-1.8239e+06,0,22194,-3.1545e+06,8552,10465,1,10465,1,5.7163e-05,-6.4414e-10,0,5.7163e-05,-4.6361e-05,1.1711e+07,-89.103,0,1.4433e+07,-55.075,10464,14059,1,14059,1,0.00025079,1.267e-09,0,0.00025079,-1.0334e-05,2.3939e+07,197.33,0,2.3939e+07,33.793,14058,2091.4,0,2091.4,0,0.00011509,2.7488e-06,0,0.00010851,2.1303e-05,1.108e+07,4.1646e+05,0,7.5291e+06,3.0752e+05,2091.4,1
5396,0.96,12260,1,12260,1,0.00015832,4.779e-07,0,0.00016301,-2.9367e-05,1.6521e+07,68052,0,1.8455e+07,-83696,12259,15904,1,15904,1,0.00035152,1.8213e-05,0,0.00035152,7.7597e-06,2.8221e+07,3.4029e+06,0,2.8221e+07,8850.1,15903,12262,1,12262,1,0.00015559,-6.951e-11,0,0.00015559,-2.8616e-05,2.084e+07,-7.8792,0,2.084e+07,-1.9686,12261,8553,1,8553,1,-4.0072e-05,-9.9663e-06,0,4.8854e-07,-6.5192e-05,-1.628e+07,-1.8434e+06,0,22397,-3.1883e+06,8552,10465,1,10465,1,5.7765e-05,-5.4816e-10,0,5.7765e-05,-4.6849e-05,1.1834e+07,-68.209,0,1.4585e+07,-23.945,10464,14059,1,14059,1,0.00025342,4.6114e-10,0,0.00025342,-1.0442e-05,2.4191e+07,70.464,0,2.4191e+07,18.027,14058,2091.4,0,2091.4,0,0.0001163,2.7787e-06,0,0.00010965,2.1527e-05,1.1197e+07,4.2093e+05,0,7.6083e+06,3.1083e+05,2091.4,1
5396,0.97,12260,1,12260,1,0.00015997,4.823e-07,0,0.00016471,-2.9673e-05,1.6693e+07,68706,0,1.8647e+07,-84549,12259,15904,1,15904,1,0.00035519,1.84e-05,0,0.00035519,7.8406e-06,2.8515e+07,3.4378e+06,0,2.8515e+07,5584.1,15903,12262,1,12262,1,0.00015722,-2.7246e-10,0,0.00015722,-2.8915e-05,2.1057e+07,-33.124,0,2.1057e+07,6.0766,12261,8553,1,8553,1,-4.0491e-05,-1.0063e-05,0,4.9209e-07,-6.5873e-05,-1.645e+07,-1.8635e+06,0,22397,-3.2209e+06,8552,10465,1,10465,1,5.8367e-05,-7.2158e-10,0,5.8367e-05,-4.7339e-05,1.1957e+07,-91.103,0,1.4737e+07,-79.04,10464,14059,1,14059,1,0.00025607,4.8241e-10,0,0.00025607,-1.0551e-05,2.4443e+07,66.245,0,2.4443e+07,25.162,14058,2091.4,0,2091.4,0,0.00011752,2.8072e-06,0,0.0001108,2.1752e-05,1.1314e+07,4.2526e+05,0,7.6877e+06,3.1393e+05,2091.4,1
5396,0.98,12260,1,12260,1,0.00016161,4.8772e-07,0,0.00016641,-2.9978e-05,1.6865e+07,69467,0,1.8839e+07,-85423,12259,15904,1,15904,1,0.00035895,1.8587e-05,0,0.00035895,7.9212e-06,2.8817e+07,3.4733e+06,0,2.8817e+07,6176.4,15903,12262,1,12262,1,0.00015884,4.2528e-10,0,0.00015884,-2.9213e-05,2.1274e+07,54.234,0,2.1274e+07,2.3788,12261,8553,1,8553,1,-4.0908e-05,-1.018e-05,0,4.9835e-07,-6.6598e-05,-1.662e+07,-1.8815e+06,0,22816,-3.2542e+06,8552,10465,1,10465,1,5.8968e-05,-3.2461e-10,0,5.8968e-05,-4.7826e-05,1.208e+07,-39.722,0,1.4889e+07,-23.345,10464,14059,1,14059,1,0.00025871,1.1568e-09,0,0.00025871,-1.066e-05,2.4695e+07,172.49,0,2.4695e+07,40.977,14058,2091.4,0,2091.4,0,0.00011872,2.8357e-06,0,0.00011194,2.1975e-05,1.143e+07,4.2962e+05,0,7.7668e+06,3.172e+05,2091.4,1
5396,0.99,12260,1,12260,1,0.00016326,4.9312e-07,0,0.00016811,-3.0284e-05,1.7037e+07,70222,0,1.9032e+07,-86233,12259,15904,1,15904,1,0.00036253,1.8778e-05,0,0.00036253,8.0023e-06,2.9104e+07,3.5085e+06,0,2.9104e+07,5708.4,15903,12262,1,12262,1,0.00016046,1.1817e-10,0,0.00016046,-2.9511e-05,2.1492e+07,12.666,0,2.1492e+07,5.5751,12261,8553,1,8553,1,-4.1325e-05,-1.0274e-05,0,5.0233e-07,-6.7231e-05,-1.6789e+07,-1.9029e+06,0,22661,-3.2877e+06,8552,10465,1,10465,1,5.9571e-05,-2.5043e-10,0,5.9571e-05,-4.8315e-05,1.2204e+07,-31.367,0,1.5041e+07,-25.475,10464,14059,1,14059,1,0.00026135,1.692e-09,0,0.00026135,-1.0769e-05,2.4947e+07,249.29,0,2.4947e+07,30.765,14058,2091.4,0,2091.4,0,0.00011994,2.8643e-06,0,0.00011308,2.22e-05,1.1547e+07,4.3398e+05,0,7.8462e+06,3.2042e+05,2091.4,1
5396,1,12260,1,12260,1,0.00016491,4.9861e-07,0,0.00016981,-3.059e-05,1.7209e+07,70960,0,1.9224e+07,-87298,12259,15904,1,15904,1,0.0003662,1.8967e-05,0,0.0003662,8.0834e-06,2.9399e+07,3.544e+06,0,2.9399e+07,11094,15903,12262,1,12262,1,0.00016208,6.6563e-10,0,0.00016208,-2.9809e-05,2.1708e+07,87.884,0,2.1709e+07,-1.7086,12261,8553,1,8553,1,-4.1743e-05,-1.0376e-05,0,5.0407e-07,-6.7913e-05,-1.6959e+07,-1.9183e+06,0,23155,-3.3219e+06,8552,10465,1,10465,1,6.0172e-05,4.5078e-11,0,6.0172e-05,-4.8802e-05,1.2327e+07,4.1354,0,1.5193e+07,-23.734,10464,14059,1,14059,1,0.00026399,1.2787e-09,0,0.00026399,-1.0878e-05,2.5199e+07,200.57,0,2.5199e+07,17.99,14058,2091.4,0,2091.4,0,0.00012115,2.8928e-06,0,0.00011422,2.2424e-05,1.1663e+07,4.3833e+05,0,7.9253e+06,3.2397e+05,2091.4,1
5396,1.01,12260,1,12260,1,0.00016656,5.0251e-07,0,0.00017151,-3.0896e-05,1.7381e+07,71570,0,1.9416e+07,-88020,12259,15904,1,15904,1,0.00036983,1.9157e-05,0,0.00036983,8.1638e-06,2.969e+07,3.5795e+06,0,2.969e+07,5798,15903,12262,1,12262,1,0.0001637,8.2508e-11,0,0.0001637,-3.0107e-05,2.1926e+07,10.396,0,2.1926e+07,7.2831,12261,8553,1,8553,1,-4.216e-05,-1.0488e-05,0,5.1359e-07,-6.8586e-05,-1.7128e+07,-1.9387e+06,0,23527,-3.3537e+06,8552,10465,1,10465,1,6.0774e-05,-7.4419e-10,0,6.0774e-05,-4.929e-05,1.245e+07,-87.765,0,1.5345e+07,-95.029,10464,14059,1,14059,1,0.00026663,9.1817e-10,0,0.00026663,-1.0986e-05,2.5451e+07,136.89,0,2.5451e+07,26.284,14058,2091.4,0,2091.4,0,0.00012236,2.9224e-06,0,0.00011537,2.2648e-05,1.178e+07,4.4276e+05,0,8.0047e+06,3.2695e+05,2091.4,1
5396,1.02,12260,1,12260,1,0.00016821,5.0799e-07,0,0.0001732,-3.1202e-05,1.7553e+07,72337,0,1.9608e+07,-88812,12259,15904,1,15904,1,0.00037349,1.935e-05,0,0.00037349,8.2449e-06,2.9984e+07,3.6153e+06,0,2.9984e+07,5873.4,15903,12262,1,12262,1,0.00016532,4.623e-10,0,0.00016532,-3.0406e-05,2.2143e+07,46.979,0,2.2143e+07,-7.4943,12261,8553,1,8553,1,-4.2577e-05,-1.0582e-05,0,5.1794e-07,-6.9266e-05,-1.7298e+07,-1.9604e+06,0,23272,-3.3865e+06,8552,10465,1,10465,1,6.1376e-05,-1.3592e-09,0,6.1376e-05,-4.9777e-05,1.2574e+07,-179.4,0,1.5496e+07,-42.47,10464,14059,1,14059,1,0.00026927,2.8282e-09,0,0.00026927,-1.1096e-05,2.5704e+07,419.95,0,2.5704e+07,55.596,14058,2091.4,0,2091.4,0,0.00012357,2.9513e-06,0,0.00011651,2.2873e-05,1.1897e+07,4.4718e+05,0,8.0839e+06,3.3002e+05,2091.4,1
5396,1.03,12260,1,12260,1,0.00016986,5.1264e-07,0,0.0001749,-3.1508e-05,1.7725e+07,73014,0,1.9801e+07,-89720,12259,15904,1,15904,1,0.00037716,1.9536e-05,0,0.00037716,8.3256e-06,3.0278e+07,3.6503e+06,0,3.0278e+07,5928.6,15903,12262,1,12262,1,0.00016694,2.0245e-10,0,0.00016694,-3.0703e-05,2.2359e+07,26.641,0,2.2359e+07,6.3856,12261,8553,1,8553,1,-4.2994e-05,-1.0695e-05,0,5.2404e-07,-6.9945e-05,-1.7467e+07,-1.9775e+06,0,24016,-3.42e+06,8552,10465,1,10465,1,6.1977e-05,-1.3578e-10,0,6.1977e-05,-5.0266e-05,1.2697e+07,-14.316,0,1.5649e+07,-27.293,10464,14059,1,14059,1,0.0002719,8.7689e-10,0,0.0002719,-1.1204e-05,2.5955e+07,136.32,0,2.5955e+07,31.59,14058,2091.4,0,2091.4,0,0.00012478,2.9802e-06,0,0.00011765,2.3097e-05,1.2013e+07,4.5151e+05,0,8.1631e+06,3.3337e+05,2091.4,1
5396,1.04,12260,1,12260,1,0.00017151,5.1793e-07,0,0.0001766,-3.1814e-05,1.7898e+07,73742,0,1.9993e+07,-90597,12259,15904,1,15904,1,0.00038082,1.9729e-05,0,0.00038082,8.4066e-06,3.0573e+07,3.6864e+06,0,3.0573e+07,6007.1,15903,12262,1,12262,1,0.00016857,4.7235e-10,0,0.00016857,-3.1002e-05,2.2577e+07,47.84,0,2.2577e+07,-16.104,12261,8553,1,8553,1,-4.3412e-05,-1.08e-05,0,5.288e-07,-7.0625e-05,-1.7637e+07,-1.9984e+06,0,23929,-3.4538e+06,8552,10465,1,10465,1,6.258e-05,-1.6575e-09,0,6.258e-05,-5.0753e-05,1.282e+07,-215.71,0,1.58e+07,-45.164,10464,14059,1,14059,1,0.00027455,2.259e-09,0,0.00027455,-1.1313e-05,2.6208e+07,324.7,0,2.6208e+07,50.474,14058,2091.4,0,2091.4,0,0.000126,3.0095e-06,0,0.00011879,2.3321e-05,1.213e+07,4.5597e+05,0,8.2425e+06,3.366e+05,2091.4,1
5396,1.05,12260,1,12260,1,0.00017316,5.2248e-07,0,0.0001783,-3.212e-05,1.807e+07,74412,0,2.0185e+07,-91471,12259,15904,1,15904,1,0.00038447,1.9913e-05,0,0.00038447,8.4872e-06,3.0866e+07,3.721e+06,0,3.0866e+07,6010.9,15903,12262,1,12262,1,0.00017018,2.1401e-10,0,0.00017018,-3.1299e-05,2.2794e+07,26.404,0,2.2794e+07,10.569,12261,8553,1,8553,1,-4.3829e-05,-1.0905e-05,0,5.3376e-07,-7.1302e-05,-1.7806e+07,-2.0159e+06,0,24342,-3.4866e+06,8552,10465,1,10465,1,6.318e-05,-5.8726e-10,0,6.318e-05,-5.1242e-05,1.2943e+07,-69.685,0,1.5953e+07,-28.74,10464,14059,1,14059,1,0.00027718,8.4202e-10,0,0.00027718,-1.1422e-05,2.6459e+07,132.02,0,2.6459e+07,31.852,14058,2091.4,0,2091.4,0,0.00012721,3.0381e-06,0,0.00011994,2.3545e-05,1.2246e+07,4.6027e+05,0,8.3216e+06,3.3987e+05,2091.4,1
5396,1.06,12260,1,12260,1,0.00017481,5.2745e-07,0,0.00018,-3.2426e-05,1.8242e+07,75103,0,2.0378e+07,-92347,12259,15904,1,15904,1,0.00038814,2.0105e-05,0,0.00038814,8.5681e-06,3.1161e+07,3.7569e+06,0,3.1161e+07,6092.9,15903,12262,1,12262,1,0.00017181,-3.9247e-10,0,0.00017181,-3.1598e-05,2.3011e+07,-51.483,0,2.3011e+07,3.4382,12261,8553,1,8553,1,-4.4247e-05,-1.0999e-05,0,5.3772e-07,-7.1983e-05,-1.7976e+07,-2.0367e+06,0,24418,-3.5199e+06,8552,10465,1,10465,1,6.3783e-05,-1.3803e-09,0,6.3783e-05,-5.173e-05,1.3067e+07,-177.61,0,1.6105e+07,-48.724,10464,14059,1,14059,1,0.00027983,9.3173e-10,0,0.00027983,-1.1531e-05,2.6712e+07,128,0,2.6712e+07,24.304,14058,2091.4,0,2091.4,0,0.00012842,3.0668e-06,0,0.00012108,2.377e-05,1.2363e+07,4.6469e+05,0,8.401e+06,3.4305e+05,2091.4,1
5396,1.07,12260,1,12260,1,0.00017646,5.3178e-07,0,0.00018169,-3.2732e-05,1.8414e+07,75761,0,2.057e+07,-93249,12259,15904,1,15904,1,0.00039186,2.0296e-05,0,0.00039186,8.6491e-06,3.146e+07,3.7927e+06,0,3.146e+07,8020.6,15903,12262,1,12262,1,0.00017343,-5.1375e-11,0,0.00017343,-3.1896e-05,2.3228e+07,-4.5404,0,2.3228e+07,-7.4669,12261,8553,1,8553,1,-4.4664e-05,-1.1111e-05,0,5.4561e-07,-7.268e-05,-1.8146e+07,-2.0541e+06,0,25171,-3.5534e+06,8552,10465,1,10465,1,6.4384e-05,-2.5575e-09,0,6.4384e-05,-5.2217e-05,1.319e+07,-336.54,0,1.6256e+07,-40.816,10464,14059,1,14059,1,0.00028247,1.2604e-09,0,0.00028247,-1.1639e-05,2.6963e+07,183.03,0,2.6963e+07,57.469,14058,2091.4,0,2091.4,0,0.00012963,3.0964e-06,0,0.00012222,2.3994e-05,1.248e+07,4.6911e+05,0,8.4801e+06,3.4636e+05,2091.4,1
5396,1.08,12260,1,12260,1,0.0001781,5.3774e-07,0,0.00018339,-3.3037e-05,1.8585e+07,76570,0,2.0761e+07,-94227,12259,15904,1,15904,1,0.0003956,2.0487e-05,0,0.0003956,8.7292e-06,3.176e+07,3.8281e+06,0,3.176e+07,11332,15903,12262,1,12262,1,0.00017504,2.6452e-10,0,0.00017504,-3.2193e-05,2.3445e+07,25.643,0,2.3445e+07,-5.4656,12261,8553,1,8553,1,-4.5082e-05,-1.1213e-05,0,5.507e-07,-7.3358e-05,-1.8315e+07,-2.0737e+06,0,25355,-3.5863e+06,8552,10465,1,10465,1,6.4985e-05,-1.0159e-09,0,6.4985e-05,-5.2707e-05,1.3313e+07,-145.7,0,1.6407e+07,-1115.9,10464,14059,1,14059,1,0.0002851,2.1631e-09,0,0.0002851,-1.1748e-05,2.7215e+07,327.21,0,2.7215e+07,101.21,14058,2091.4,0,2091.4,0,0.00013084,3.1254e-06,0,0.00012336,2.4218e-05,1.2596e+07,4.7349e+05,0,8.5592e+06,3.4957e+05,2091.4,1
5396,1.09,12260,1,12260,1,0.00017976,5.4268e-07,0,0.00018509,-3.3343e-05,1.8758e+07,77288,0,2.0954e+07,-94964,12259,15904,1,15904,1,0.00039913,2.0674e-05,0,0.00039913,8.8106e-06,3.2042e+07,3.863e+06,0,3.2042e+07,7471.6,15903,12262,1,12262,1,0.00017667,1.0287e-09,0,0.00017667,-3.2492e-05,2.3662e+07,131.98,0,2.3662e+07,7.5516,12261,8553,1,8553,1,-4.55e-05,-1.1322e-05,0,5.5298e-07,-7.402e-05,-1.8485e+07,-2.0928e+06,0,25043,-3.6192e+06,8552,10465,1,10465,1,6.5587e-05,-1.7675e-10,0,6.5587e-05,-5.3193e-05,1.3436e+07,-16.714,0,1.656e+07,-48.656,10464,14059,1,14059,1,0.00028775,1.7178e-09,0,0.00028775,-1.1857e-05,2.7468e+07,265.41,0,2.7468e+07,40.29,14058,2091.4,0,2091.4,0,0.00013205,3.154e-06,0,0.0001245,2.4442e-05,1.2713e+07,4.7783e+05,0,8.6387e+06,3.5282e+05,2091.4,1
5396,1.1,12260,1,12260,1,0.0001814,5.4686e-07,0,0.00018678,-3.3648e-05,1.893e+07,77889,0,2.1146e+07,-95857,12259,15904,1,15904,1,0.00040278,2.0863e-05,0,0.00040278,8.8913e-06,3.2336e+07,3.8985e+06,0,3.2336e+07,6358.9,15903,12262,1,12262,1,0.00017828,-2.8873e-11,0,0.00017828,-3.2789e-05,2.3879e+07,-2.2599,0,2.3879e+07,-5.3941,12261,8553,1,8553,1,-4.5915e-05,-1.1423e-05,0,5.6029e-07,-7.4698e-05,-1.8654e+07,-2.1116e+06,0,25772,-3.6531e+06,8552,10465,1,10465,1,6.6187e-05,-1.7686e-09,0,6.6187e-05,-5.368e-05,1.3559e+07,-251.06,0,1.6712e+07,-30.444,10464,14059,1,14059,1,0.00029038,7.0706e-10,0,0.00029038,-1.1965e-05,2.7718e+07,99.944,0,2.7718e+07,41.405,14058,2091.4,0,2091.4,0,0.00013326,3.1827e-06,0,0.00012564,2.4666e-05,1.2829e+07,4.822e+05,0,8.7177e+06,3.5612e+05,2091.4,1
5396,1.11,12260,1,12260,1,0.00018305,5.5237e-07,0,0.00018848,-3.3955e-05,1.9102e+07,78673,0,2.1338e+07,-96718,12259,15904,1,15904,1,0.00040644,2.1055e-05,0,0.00040644,8.9721e-06,3.2629e+07,3.9342e+06,0,3.2629e+07,6397.8,15903,12262,1,12262,1,0.00017991,2.7384e-10,0,0.00017991,-3.3088e-05,2.4096e+07,25.924,0,2.4096e+07,-5.609,12261,8553,1,8553,1,-4.6332e-05,-1.1528e-05,0,5.6541e-07,-7.5375e-05,-1.8823e+07,-2.131e+06,0,25956,-3.6858e+06,8552,10465,1,10465,1,6.679e-05,-1.9878e-09,0,6.679e-05,-5.4168e-05,1.3683e+07,-270.43,0,1.6864e+07,-58.115,10464,14059,1,14059,1,0.00029303,2.584e-09,0,0.00029303,-1.2074e-05,2.7971e+07,379.13,0,2.7971e+07,55.895,14058,2091.4,0,2091.4,0,0.00013447,3.2119e-06,0,0.00012679,2.489e-05,1.2946e+07,4.8662e+05,0,8.797e+06,3.5931e+05,2091.4,1
5396,1.12,12260,1,12260,1,0.0001847,5.5881e-07,0,0.00019018,-3.4261e-05,1.9274e+07,79521,0,2.1531e+07,-97573,12259,15904,1,15904,1,0.00041013,2.1246e-05,0,0.00041013,9.0534e-06,3.2925e+07,3.9698e+06,0,3.2925e+07,6509.2,15903,12262,1,12262,1,0.00018153,5.6283e-10,0,0.00018153,-3.3386e-05,2.4314e+07,59.702,0,2.4314e+07,-12.731,12261,8553,1,8553,1,-4.6752e-05,-1.1621e-05,0,5.6914e-07,-7.6064e-05,-1.8994e+07,-2.1537e+06,0,26143,-3.7207e+06,8552,10465,1,10465,1,6.7393e-05,-9.7783e-10,0,6.7393e-05,-5.4657e-05,1.3806e+07,-131.37,0,1.7016e+07,-39.778,10464,14059,1,14059,1,0.00029567,2.5072e-09,0,0.00029567,-1.2183e-05,2.8223e+07,376.68,0,2.8223e+07,40.171,14058,2091.4,0,2091.4,0,0.00013569,3.2399e-06,0,0.00012793,2.5115e-05,1.3063e+07,4.9099e+05,0,8.8764e+06,3.6249e+05,2091.4,1
5396,1.13,12260,1,12260,1,0.00018635,5.6267e-07,0,0.00019188,-3.4567e-05,1.9446e+07,80137,0,2.1723e+07,-98462,12259,15904,1,15904,1,0.00041377,2.1435e-05,0,0.00041377,9.1339e-06,3.3218e+07,4.0047e+06,0,3.3218e+07,6524.6,15903,12262,1,12262,1,0.00018315,4.6002e-10,0,0.00018315,-3.3685e-05,2.4531e+07,41.259,0,2.4531e+07,-13.112,12261,8553,1,8553,1,-4.7168e-05,-1.1736e-05,0,5.752e-07,-7.6735e-05,-1.9163e+07,-2.1693e+06,0,26332,-3.7526e+06,8552,10465,1,10465,1,6.7994e-05,-1.822e-09,0,6.7994e-05,-5.5144e-05,1.393e+07,-252.88,0,1.7167e+07,-59.833,10464,14059,1,14059,1,0.00029831,3.089e-09,0,0.00029831,-1.2292e-05,2.8475e+07,445.44,0,2.8475e+07,62.322,14058,2091.4,0,2091.4,0,0.0001369,3.2698e-06,0,0.00012907,2.5339e-05,1.3179e+07,4.9537e+05,0,8.9556e+06,3.6577e+05,2091.4,1
5396,1.14,12260,1,12260,1,0.000188,5.6716e-07,0,0.00019358,-3.4872e-05,1.9618e+07,80783,0,2.1915e+07,-99360,12259,15904,1,15904,1,0.00041742,2.1622e-05,0,0.00041742,9.2145e-06,3.3511e+07,4.0403e+06,0,3.3511e+07,6560,15903,12262,1,12262,1,0.00018476,1.6958e-10,0,0.00018476,-3.3981e-05,2.4747e+07,20.8,0,2.4747e+07,-4.3691,12261,8553,1,8553,1,-4.7585e-05,-1.1838e-05,0,5.7998e-07,-7.7413e-05,-1.9332e+07,-2.1882e+06,0,26622,-3.7856e+06,8552,10465,1,10465,1,6.8594e-05,-8.8074e-10,0,6.8594e-05,-5.5634e-05,1.4052e+07,-108.24,0,1.732e+07,-36.092,10464,14059,1,14059,1,0.00030093,5.5596e-10,0,0.00030093,-1.24e-05,2.8726e+07,86.478,0,2.8726e+07,19.378,14058,2091.4,0,2091.4,0,0.00013811,3.2985e-06,0,0.00013021,2.5563e-05,1.3296e+07,4.9974e+05,0,9.0347e+06,3.6906e+05,2091.4,1
5396,1.15,12260,1,12260,1,0.00018965,5.7233e-07,0,0.00019528,-3.5178e-05,1.979e+07,81501,0,2.2107e+07,-1.0024e+05,12259,15904,1,15904,1,0.00042109,2.1815e-05,0,0.00042109,9.2955e-06,3.3805e+07,4.0764e+06,0,3.3805e+07,6626.8,15903,12262,1,12262,1,0.00018639,-1.9574e-11,0,0.00018639,-3.428e-05,2.4964e+07,-1.5352,0,2.4964e+07,-14.859,12261,8553,1,8553,1,-4.8002e-05,-1.1942e-05,0,5.8612e-07,-7.8093e-05,-1.9502e+07,-2.2078e+06,0,27086,-3.8195e+06,8552,10465,1,10465,1,6.9197e-05,-2.0669e-09,0,6.9197e-05,-5.6121e-05,1.4176e+07,-299.72,0,1.7471e+07,-43.693,10464,14059,1,14059,1,0.00030358,1.7443e-09,0,0.00030358,-1.2509e-05,2.8979e+07,249.61,0,2.8979e+07,45.254,14058,2091.4,0,2091.4,0,0.00013932,3.3278e-06,0,0.00013136,2.5787e-05,1.3413e+07,5.0419e+05,0,9.114e+06,3.7235e+05,2091.4,1
5396,1.16,12260,1,12260,1,0.00019129,5.7704e-07,0,0.00019697,-3.5484e-05,1.9962e+07,82183,0,2.2299e+07,-1.0106e+05,12259,15904,1,15904,1,0.00042475,2.2003e-05,0,0.00042475,9.3763e-06,3.4099e+07,4.1112e+06,0,3.4099e+07,6697.8,15903,12262,1,12262,1,0.00018801,1.6604e-10,0,0.00018801,-3.4578e-05,2.5181e+07,14.339,0,2.5181e+07,-10.224,12261,8553,1,8553,1,-4.8419e-05,-1.2046e-05,0,5.9153e-07,-7.8771e-05,-1.9671e+07,-2.2267e+06,0,27310,-3.8519e+06,8552,10465,1,10465,1,6.9798e-05,-2.4501e-09,0,6.9798e-05,-5.6608e-05,1.4299e+07,-338.64,0,1.7623e+07,-55.529,10464,14059,1,14059,1,0.00030622,1.9266e-09,0,0.00030622,-1.2618e-05,2.9231e+07,282.05,0,2.9231e+07,54.159,14058,2091.4,0,2091.4,0,0.00014053,3.3564e-06,0,0.0001325,2.6011e-05,1.3529e+07,5.0851e+05,0,9.1932e+06,3.755e+05,2091.4,1
5396,1.17,12260,1,12260,1,0.00019294,5.781e-07,0,0.00019866,-3.579e-05,2.0134e+07,82581,0,2.2491e+07,-1.0225e+05,12259,15904,1,15904,1,0.00042844,2.2183e-05,0,0.00042844,9.4575e-06,3.4396e+07,4.1472e+06,0,3.4396e+07,45964,15903,12262,1,12262,1,0.00018963,-6.2185e-10,0,0.00018963,-3.4876e-05,2.5398e+07,-77.291,0,2.5398e+07,-1.7385,12261,8553,1,8553,1,-4.8839e-05,-1.215e-05,0,5.9308e-07,-7.9456e-05,-1.9841e+07,-2.2461e+06,0,27150,-3.8868e+06,8552,10465,1,10465,1,7.04e-05,-1.5317e-09,0,7.04e-05,-5.7097e-05,1.4422e+07,-215.16,0,1.7775e+07,-50.082,10464,14059,1,14059,1,0.00030886,-2.1338e-11,0,0.00030886,-1.2727e-05,2.9482e+07,-1.9378,0,2.9482e+07,22.593,14058,2091.4,0,2091.4,0,0.00014174,3.3782e-06,0,0.00013364,2.6236e-05,1.3646e+07,5.1271e+05,0,9.2723e+06,3.7906e+05,2091.4,1
5396,1.18,12260,1,12260,1,0.00019459,5.8701e-07,0,0.00020037,-3.6096e-05,2.0306e+07,83600,0,2.2684e+07,-1.0285e+05,12259,15904,1,15904,1,0.00043207,2.2383e-05,0,0.00043207,9.5379e-06,3.4687e+07,4.1821e+06,0,3.4687e+07,6760,15903,12262,1,12262,1,0.00019125,-3.1353e-10,0,0.00019125,-3.5173e-05,2.5615e+07,-39.244,0,2.5615e+07,2.8562,12261,8553,1,8553,1,-4.9255e-05,-1.2254e-05,0,6.0069e-07,-8.013e-05,-2.0011e+07,-2.2652e+06,0,27651,-3.9186e+06,8552,10465,1,10465,1,7.1e-05,-9.119e-10,0,7.1e-05,-5.7585e-05,1.4545e+07,-127.07,0,1.7927e+07,-17.623,10464,14059,1,14059,1,0.00031149,5.1011e-10,0,0.00031149,-1.2835e-05,2.9734e+07,76.987,0,2.9734e+07,28.996,14058,2091.4,0,2091.4,0,0.00014295,3.4144e-06,0,0.00013478,2.646e-05,1.3762e+07,5.173e+05,0,9.3517e+06,3.8203e+05,2091.4,1
5396,1.19,12260,1,12260,1,0.00019624,5.916e-07,0,0.00020207,-3.6402e-05,2.0478e+07,84261,0,2.2876e+07,-1.037e+05,12259,15904,1,15904,1,0.00043574,2.2569e-05,0,0.00043574,9.6188e-06,3.4982e+07,4.2174e+06,0,3.4982e+07,6851.4,15903,12262,1,12262,1,0.00019287,-3.543e-10,0,0.00019287,-3.5472e-05,2.5832e+07,-41.864,0,2.5832e+07,0.96176,12261,8553,1,8553,1,-4.9673e-05,-1.2357e-05,0,6.0593e-07,-8.0809e-05,-2.018e+07,-2.2842e+06,0,27968,-3.9522e+06,8552,10465,1,10465,1,7.1603e-05,-1.238e-09,0,7.1603e-05,-5.8073e-05,1.4669e+07,-175.41,0,1.8079e+07,-16.889,10464,14059,1,14059,1,0.00031414,5.2346e-10,0,0.00031414,-1.2944e-05,2.9986e+07,75.978,0,2.9986e+07,28.402,14058,2091.4,0,2091.4,0,0.00014416,3.443e-06,0,0.00013592,2.6684e-05,1.3879e+07,5.2164e+05,0,9.431e+06,3.8527e+05,2091.4,1
5396,1.2,12260,1,12260,1,0.00019789,5.9699e-07,0,0.00020376,-3.6707e-05,2.065e+07,85027,0,2.3068e+07,-1.0458e+05,12259,15904,1,15904,1,0.00043939,2.2759e-05,0,0.00043939,9.6993e-06,3.5275e+07,4.2529e+06,0,3.5275e+07,6898.3,15903,12262,1,12262,1,0.00019448,6.3244e-11,0,0.00019448,-3.5768e-05,2.6049e+07,7.5377,0,2.6049e+07,4.1702,12261,8553,1,8553,1,-5.0088e-05,-1.2461e-05,0,6.1135e-07,-8.1487e-05,-2.0349e+07,-2.3035e+06,0,28171,-3.9849e+06,8552,10465,1,10465,1,7.2203e-05,-4.4553e-10,0,7.2203e-05,-5.856e-05,1.4792e+07,-55.342,0,1.8231e+07,-20.136,10464,14059,1,14059,1,0.00031677,5.4921e-10,0,0.00031677,-1.3053e-05,3.0237e+07,89.747,0,3.0237e+07,27.831,14058,2091.4,0,2091.4,0,0.00014537,3.4719e-06,0,0.00013706,2.6908e-05,1.3995e+07,5.2602e+05,0,9.5101e+06,3.885e+05,2091.4,1
5396,1.21,12260,1,12260,1,0.00019954,6.0215e-07,0,0.00020546,-3.7013e-05,2.0822e+07,85758,0,2.326e+07,-1.0542e+05,12259,15904,1,15904,1,0.00044305,2.2951e-05,0,0.00044305,9.7803e-06,3.5569e+07,4.2882e+06,0,3.5569e+07,6991.2,15903,12262,1,12262,1,0.00019611,2.0835e-10,0,0.00019611,-3.6068e-05,2.6267e+07,18.85,0,2.6267e+07,-4.9867,12261,8553,1,8553,1,-5.0506e-05,-1.2564e-05,0,6.1712e-07,-8.2165e-05,-2.0519e+07,-2.3224e+06,0,28513,-4.0178e+06,8552,10465,1,10465,1,7.2805e-05,-1.9912e-09,0,7.2805e-05,-5.9048e-05,1.4915e+07,-281.43,0,1.8383e+07,-65.894,10464,14059,1,14059,1,0.00031942,2.6055e-09,0,0.00031942,-1.3162e-05,3.049e+07,382.81,0,3.049e+07,63.994,14058,2091.4,0,2091.4,0,0.00014659,3.5009e-06,0,0.00013821,2.7132e-05,1.4112e+07,5.304e+05,0,9.5894e+06,3.9166e+05,2091.4,1
5396,1.22,12260,1,12260,1,0.00020119,6.0719e-07,0,0.00020716,-3.732e-05,2.0995e+07,86462,0,2.3453e+07,-1.0631e+05,12259,15904,1,15904,1,0.00044672,2.3144e-05,0,0.00044672,9.8615e-06,3.5864e+07,4.3244e+06,0,3.5864e+07,7146.4,15903,12262,1,12262,1,0.00019774,2.162e-10,0,0.00019774,-3.6368e-05,2.6485e+07,16.938,0,2.6485e+07,-17.709,12261,8553,1,8553,1,-5.0924e-05,-1.2684e-05,0,6.1868e-07,-8.2847e-05,-2.0689e+07,-2.3443e+06,0,27673,-4.0531e+06,8552,10465,1,10465,1,7.341e-05,-2.1243e-09,0,7.341e-05,-5.9537e-05,1.5039e+07,-292.23,0,1.8535e+07,-59.513,10464,14059,1,14059,1,0.00032207,2.2834e-09,0,0.00032207,-1.3271e-05,3.0743e+07,338.63,0,3.0743e+07,60.173,14058,2091.4,0,2091.4,0,0.0001478,3.5309e-06,0,0.00013935,2.7357e-05,1.4229e+07,5.3493e+05,0,9.669e+06,3.9495e+05,2091.4,1
5396,1.23,12260,1,12260,1,0.00020283,6.121e-07,0,0.00020885,-3.7624e-05,2.1166e+07,87174,0,2.3644e+07,-1.0718e+05,12259,15904,1,15904,1,0.00045037,2.3327e-05,0,0.00045037,9.9418e-06,3.6157e+07,4.359e+06,0,3.6157e+07,7018.3,15903,12262,1,12262,1,0.00019934,1.1412e-10,0,0.00019934,-3.6663e-05,2.67e+07,14.323,0,2.67e+07,0.16237,12261,8553,1,8553,1,-5.1341e-05,-1.2772e-05,0,6.2635e-07,-8.3524e-05,-2.0858e+07,-2.3612e+06,0,28878,-4.0844e+06,8552,10465,1,10465,1,7.4007e-05,-8.9092e-11,0,7.4008e-05,-6.0024e-05,1.5161e+07,-10.384,0,1.8687e+07,-9.5018,10464,14059,1,14059,1,0.00032468,7.0494e-10,0,0.00032469,-1.3379e-05,3.0993e+07,110.46,0,3.0993e+07,35.005,14058,2091.4,0,2091.4,0,0.00014901,3.5586e-06,0,0.00014049,2.758e-05,1.4345e+07,5.3915e+05,0,9.7478e+06,3.9817e+05,2091.4,1
5396,1.24,12260,1,12260,1,0.00020449,6.1703e-07,0,0.00021056,-3.7931e-05,2.1339e+07,87878,0,2.3837e+07,-1.0805e+05,12259,15904,1,15904,1,0.00045404,2.3521e-05,0,0.00045404,1.0023e-05,3.645e+07,4.3946e+06,0,3.645e+07,7179.2,15903,12262,1,12262,1,0.00020097,2.1024e-10,0,0.00020097,-3.6962e-05,2.6918e+07,19.174,0,2.6918e+07,-10.23,12261,8553,1,8553,1,-5.1758e-05,-1.2877e-05,0,6.3157e-07,-8.4203e-05,-2.1028e+07,-2.3803e+06,0,29012,-4.1173e+06,8552,10465,1,10465,1,7.4611e-05,-1.7283e-09,0,7.4611e-05,-6.0512e-05,1.5285e+07,-233.98,0,1.8838e+07,-44.741,10464,14059,1,14059,1,0.00032734,1.8005e-09,0,0.00032734,-1.3488e-05,3.1246e+07,263.41,0,3.1246e+07,49.521,14058,2091.4,0,2091.4,0,0.00015022,3.588e-06,0,0.00014163,2.7805e-05,1.4462e+07,5.4359e+05,0,9.8272e+06,4.0138e+05,2091.4,1
5396,1.25,12260,1,12260,1,0.00020613,6.2185e-07,0,0.00021225,-3.8236e-05,2.1511e+07,88569,0,2.4029e+07,-1.0892e+05,12259,15904,1,15904,1,0.0004577,2.371e-05,0,0.0004577,1.0104e-05,3.6745e+07,4.4303e+06,0,3.6745e+07,7226.2,15903,12262,1,12262,1,0.00020259,1.2451e-10,0,0.00020259,-3.726e-05,2.7134e+07,11.734,0,2.7134e+07,-9.2584,12261,8553,1,8553,1,-5.2175e-05,-1.2979e-05,0,6.3728e-07,-8.4882e-05,-2.1197e+07,-2.3994e+06,0,29463,-4.1509e+06,8552,10465,1,10465,1,7.5211e-05,-1.6283e-09,0,7.5211e-05,-6.1e-05,1.5408e+07,-237.08,0,1.899e+07,-39.137,10464,14059,1,14059,1,0.00032997,1.4618e-09,0,0.00032997,-1.3597e-05,3.1498e+07,212.5,0,3.1498e+07,58.25,14058,2091.4,0,2091.4,0,0.00015143,3.6168e-06,0,0.00014278,2.8029e-05,1.4579e+07,5.4797e+05,0,9.9064e+06,4.0465e+05,2091.4,1
5396,1.26,12260,1,12260,1,0.00020778,6.2719e-07,0,0.00021395,-3.8542e-05,2.1683e+07,89328,0,2.4221e+07,-1.098e+05,12259,15904,1,15904,1,0.00046136,2.39e-05,0,0.00046136,1.0185e-05,3.7039e+07,4.4657e+06,0,3.7039e+07,7267.3,15903,12262,1,12262,1,0.00020421,3.2076e-10,0,0.00020421,-3.7558e-05,2.7351e+07,31.748,0,2.7352e+07,-3.3591,12261,8553,1,8553,1,-5.2593e-05,-1.3084e-05,0,6.428e-07,-8.5562e-05,-2.1367e+07,-2.4186e+06,0,29694,-4.1843e+06,8552,10465,1,10465,1,7.5813e-05,-8.6699e-10,0,7.5813e-05,-6.1489e-05,1.5531e+07,-114.69,0,1.9142e+07,-40.221,10464,14059,1,14059,1,0.00033261,2.0564e-09,0,0.00033261,-1.3705e-05,3.175e+07,299.32,0,3.175e+07,54.307,14058,2091.4,0,2091.4,0,0.00015264,3.6458e-06,0,0.00014392,2.8253e-05,1.4695e+07,5.5235e+05,0,9.9856e+06,4.0792e+05,2091.4,1
5396,1.27,12260,1,12260,1,0.00020943,6.318e-07,0,0.00021565,-3.8848e-05,2.1855e+07,89983,0,2.4413e+07,-1.1069e+05,12259,15904,1,15904,1,0.00046502,2.4088e-05,0,0.00046502,1.0265e-05,3.7332e+07,4.5012e+06,0,3.7332e+07,7326.7,15903,12262,1,12262,1,0.00020583,9.0643e-11,0,0.00020583,-3.7856e-05,2.7568e+07,8.4745,0,2.7568e+07,-9.7055,12261,8553,1,8553,1,-5.301e-05,-1.3187e-05,0,6.4766e-07,-8.624e-05,-2.1536e+07,-2.4377e+06,0,29973,-4.2174e+06,8552,10465,1,10465,1,7.6414e-05,-1.6578e-09,0,7.6414e-05,-6.1976e-05,1.5655e+07,-243.29,0,1.9294e+07,-36.316,10464,14059,1,14059,1,0.00033525,1.3995e-09,0,0.00033525,-1.3814e-05,3.2001e+07,202.57,0,3.2001e+07,55.681,14058,2091.4,0,2091.4,0,0.00015385,3.6746e-06,0,0.00014506,2.8477e-05,1.4812e+07,5.5673e+05,0,1.0065e+07,4.1115e+05,2091.4,1
5396,1.28,12260,1,12260,1,0.00021108,6.3673e-07,0,0.00021735,-3.9154e-05,2.2027e+07,90688,0,2.4606e+07,-1.1154e+05,12259,15904,1,15904,1,0.00046869,2.428e-05,0,0.00046869,1.0346e-05,3.7627e+07,4.5365e+06,0,3.7627e+07,7384.3,15903,12262,1,12262,1,0.00020745,5.9067e-13,0,0.00020745,-3.8154e-05,2.7786e+07,0.040282,0,2.7786e+07,-7.7158,12261,8553,1,8553,1,-5.3428e-05,-1.3292e-05,0,6.523e-07,-8.692e-05,-2.1706e+07,-2.4571e+06,0,29989,-4.2502e+06,8552,10465,1,10465,1,7.7017e-05,-1.9037e-09,0,7.7017e-05,-6.2464e-05,1.5778e+07,-267.71,0,1.9446e+07,-34.385,10464,14059,1,14059,1,0.00033789,1.3593e-09,0,0.00033789,-1.3923e-05,3.2254e+07,203.53,0,3.2254e+07,56.495,14058,2091.4,0,2091.4,0,0.00015507,3.7038e-06,0,0.0001462,2.8702e-05,1.4929e+07,5.6114e+05,0,1.0144e+07,4.1435e+05,2091.4,1
5396,1.29,12260,1,12260,1,0.00021273,6.4147e-07,0,0.00021905,-3.9461e-05,2.2199e+07,91371,0,2.4798e+07,-1.1243e+05,12259,15904,1,15904,1,0.00047234,2.4468e-05,0,0.00047234,1.0427e-05,3.792e+07,4.5721e+06,0,3.792e+07,7429.7,15903,12262,1,12262,1,0.00020908,6.8737e-11,0,0.00020908,-3.8453e-05,2.8003e+07,5.7914,0,2.8003e+07,-9.1418,12261,8553,1,8553,1,-5.3845e-05,-1.3397e-05,0,6.5637e-07,-8.7598e-05,-2.1876e+07,-2.4765e+06,0,30092,-4.2842e+06,8552,10465,1,10465,1,7.762e-05,-2.3448e-09,0,7.762e-05,-6.2952e-05,1.5901e+07,-334.99,0,1.9598e+07,-44.351,10464,14059,1,14059,1,0.00034054,2.0142e-09,0,0.00034054,-1.4032e-05,3.2506e+07,301.65,0,3.2506e+07,50.635,14058,2091.4,0,2091.4,0,0.00015628,3.7327e-06,0,0.00014735,2.8926e-05,1.5045e+07,5.6552e+05,0,1.0223e+07,4.1766e+05,2091.4,1
5396,1.3,12260,1,12260,1,0.00021438,6.4677e-07,0,0.00022074,-3.9766e-05,2.2371e+07,92112,0,2.499e+07,-1.1327e+05,12259,15904,1,15904,1,0.000476,2.4658e-05,0,0.000476,1.0508e-05,3.8214e+07,4.6072e+06,0,3.8214e+07,7536.9,15903,12262,1,12262,1,0.0002107,2.3092e-10,0,0.0002107,-3.875e-05,2.822e+07,21.497,0,2.822e+07,-10.879,12261,8553,1,8553,1,-5.4262e-05,-1.3499e-05,0,6.6229e-07,-8.8277e-05,-2.2045e+07,-2.4952e+06,0,30431,-4.3166e+06,8552,10465,1,10465,1,7.822e-05,-2.4643e-09,0,7.8221e-05,-6.3439e-05,1.6024e+07,-347,0,1.975e+07,-61.388,10464,14059,1,14059,1,0.00034317,1.8152e-09,0,0.00034317,-1.4141e-05,3.2758e+07,268.7,0,3.2758e+07,62.26,14058,2091.4,0,2091.4,0,0.00015749,3.7615e-06,0,0.00014849,2.915e-05,1.5162e+07,5.6988e+05,0,1.0303e+07,4.2079e+05,2091.4,1
5396,1.31,12260,1,12260,1,0.00021603,6.5175e-07,0,0.00022244,-4.0072e-05,2.2543e+07,92824,0,2.5182e+07,-1.1414e+05,12259,15904,1,15904,1,0.00047967,2.4847e-05,0,0.00047967,1.0589e-05,3.8508e+07,4.6427e+06,0,3.8508e+07,7566.5,15903,12262,1,12262,1,0.00021231,8.8756e-11,0,0.00021231,-3.9048e-05,2.8437e+07,7.8216,0,2.8437e+07,-1.2023,12261,8553,1,8553,1,-5.468e-05,-1.3603e-05,0,6.6792e-07,-8.8956e-05,-2.2215e+07,-2.5146e+06,0,30886,-4.3501e+06,8552,10465,1,10465,1,7.8821e-05,-1.7758e-09,0,7.8821e-05,-6.3928e-05,1.6148e+07,-269.62,0,1.9902e+07,-51.157,10464,14059,1,14059,1,0.00034581,2.0499e-09,0,0.00034581,-1.4249e-05,3.301e+07,291.53,0,3.301e+07,79.454,14058,2091.4,0,2091.4,0,0.0001587,3.7904e-06,0,0.00014963,2.9374e-05,1.5278e+07,5.7425e+05,0,1.0382e+07,4.2407e+05,2091.4,1
5396,1.32,12260,1,12260,1,0.00021768,6.567e-07,0,0.00022414,-4.0378e-05,2.2715e+07,93532,0,2.5375e+07,-1.1502e+05,12259,15904,1,15904,1,0.00048333,2.5039e-05,0,0.00048333,1.0669e-05,3.8802e+07,4.6785e+06,0,3.8802e+07,7608.3,15903,12262,1,12262,1,0.00021394,7.8628e-11,0,0.00021394,-3.9346e-05,2.8654e+07,7.2115,0,2.8654e+07,-12.909,12261,8553,1,8553,1,-5.5097e-05,-1.3707e-05,0,6.7322e-07,-8.9635e-05,-2.2384e+07,-2.5338e+06,0,31099,-4.3834e+06,8552,10465,1,10465,1,7.9423e-05,-1.9644e-09,0,7.9423e-05,-6.4416e-05,1.6271e+07,-294.8,0,2.0054e+07,-54.305,10464,14059,1,14059,1,0.00034845,1.8757e-09,0,0.00034845,-1.4358e-05,3.3262e+07,270.29,0,3.3262e+07,61.643,14058,2091.4,0,2091.4,0,0.00015991,3.8195e-06,0,0.00015077,2.9598e-05,1.5395e+07,5.7867e+05,0,1.0461e+07,4.2732e+05,2091.4,1
5396,1.33,12260,1,12260,1,0.00021933,6.6137e-07,0,0.00022583,-4.0684e-05,2.2887e+07,94201,0,2.5567e+07,-1.1592e+05,12259,15904,1,15904,1,0.00048699,2.5227e-05,0,0.00048699,1.075e-05,3.9096e+07,4.7137e+06,0,3.9096e+07,7658.5,15903,12262,1,12262,1,0.00021556,-1.2382e-11,0,0.00021556,-3.9644e-05,2.8871e+07,-0.90318,0,2.8871e+07,-8.4249,12261,8553,1,8553,1,-5.5515e-05,-1.381e-05,0,6.7812e-07,-9.0315e-05,-2.2554e+07,-2.5528e+06,0,31314,-4.4167e+06,8552,10465,1,10465,1,8.0025e-05,-2.4761e-09,0,8.0025e-05,-6.4905e-05,1.6394e+07,-362.64,0,2.0206e+07,-48.754,10464,14059,1,14059,1,0.00035109,1.2864e-09,0,0.00035109,-1.4467e-05,3.3514e+07,189.16,0,3.3514e+07,52.391,14058,2091.4,0,2091.4,0,0.00016112,3.8483e-06,0,0.00015191,2.9823e-05,1.5512e+07,5.8304e+05,0,1.054e+07,4.3057e+05,2091.4,1
5396,1.34,12260,1,12260,1,0.00022097,6.6685e-07,0,0.00022753,-4.0989e-05,2.3059e+07,94974,0,2.5759e+07,-1.1676e+05,12259,15904,1,15904,1,0.00049065,2.5415e-05,0,0.00049065,1.0831e-05,3.939e+07,4.7487e+06,0,3.939e+07,7730,15903,12262,1,12262,1,0.00021718,4.5345e-10,0,0.00021718,-3.9942e-05,2.9088e+07,50.153,0,2.9088e+07,-8.2799,12261,8553,1,8553,1,-5.5931e-05,-1.3915e-05,0,6.8313e-07,-9.0992e-05,-2.2723e+07,-2.5722e+06,0,31513,-4.4498e+06,8552,10465,1,10465,1,8.0626e-05,-1.6114e-09,0,8.0626e-05,-6.5391e-05,1.6517e+07,-230.39,0,2.0357e+07,-41.63,10464,14059,1,14059,1,0.00035373,2.0833e-09,0,0.00035373,-1.4576e-05,3.3765e+07,314.33,0,3.3765e+07,63.351,14058,2091.4,0,2091.4,0,0.00016233,3.8769e-06,0,0.00015305,3.0047e-05,1.5628e+07,5.8737e+05,0,1.062e+07,4.3377e+05,2091.4,1
5396,1.35,12260,1,12260,1,0.00022262,6.717e-07,0,0.00022923,-4.1295e-05,2.3231e+07,95665,0,2.5951e+07,-1.1765e+05,12259,15904,1,15904,1,0.00049431,2.5603e-05,0,0.00049431,1.0912e-05,3.9684e+07,4.7845e+06,0,3.9684e+07,7733.1,15903,12262,1,12262,1,0.00021879,1.0028e-10,0,0.00021879,-4.0239e-05,2.9305e+07,12.427,0,2.9305e+07,8.2708,12261,8553,1,8553,1,-5.635e-05,-1.4018e-05,0,6.8803e-07,-9.1672e-05,-2.2893e+07,-2.5914e+06,0,31812,-4.4831e+06,8552,10465,1,10465,1,8.1227e-05,-2.9731e-10,0,8.1227e-05,-6.588e-05,1.6641e+07,-37.054,0,2.051e+07,-18.582,10464,14059,1,14059,1,0.00035636,6.4401e-10,0,0.00035636,-1.4684e-05,3.4017e+07,102.76,0,3.4017e+07,35.481,14058,2091.4,0,2091.4,0,0.00016354,3.9058e-06,0,0.0001542,3.0271e-05,1.5745e+07,5.9175e+05,0,1.0699e+07,4.3706e+05,2091.4,1
5396,1.36,12260,1,12260,1,0.00022427,6.7689e-07,0,0.00023093,-4.1601e-05,2.3403e+07,96398,0,2.6143e+07,-1.1851e+05,12259,15904,1,15904,1,0.00049798,2.5796e-05,0,0.00049798,1.0993e-05,3.9978e+07,4.8197e+06,0,3.9978e+07,7826.9,15903,12262,1,12262,1,0.00022042,2.5631e-10,0,0.00022042,-4.0538e-05,2.9522e+07,25.414,0,2.9522e+07,-4.2852,12261,8553,1,8553,1,-5.6767e-05,-1.4122e-05,0,6.9325e-07,-9.2352e-05,-2.3062e+07,-2.6105e+06,0,31923,-4.5162e+06,8552,10465,1,10465,1,8.1829e-05,-1.1352e-09,0,8.1829e-05,-6.6368e-05,1.6764e+07,-164.85,0,2.0661e+07,-26.705,10464,14059,1,14059,1,0.000359,1.5923e-09,0,0.000359,-1.4793e-05,3.4269e+07,237.88,0,3.4269e+07,61.082,14058,2091.4,0,2091.4,0,0.00016476,3.935e-06,0,0.00015534,3.0495e-05,1.5861e+07,5.9615e+05,0,1.0778e+07,4.4024e+05,2091.4,1
5396,1.37,12260,1,12260,1,0.00022592,6.8199e-07,0,0.00023263,-4.1907e-05,2.3576e+07,97124,0,2.6336e+07,-1.1939e+05,12259,15904,1,15904,1,0.00050164,2.5985e-05,0,0.00050164,1.1074e-05,4.0272e+07,4.8552e+06,0,4.0272e+07,7922.1,15903,12262,1,12262,1,0.00022204,3.95e-10,0,0.00022204,-4.0836e-05,2.9739e+07,39.744,0,2.9739e+07,-2.6133,12261,8553,1,8553,1,-5.7185e-05,-1.4227e-05,0,6.9868e-07,-9.3032e-05,-2.3232e+07,-2.6299e+06,0,32307,-4.5497e+06,8552,10465,1,10465,1,8.2431e-05,-9.9557e-10,0,8.2431e-05,-6.6856e-05,1.6887e+07,-146.01,0,2.0813e+07,-36.814,10464,14059,1,14059,1,0.00036164,2.0955e-09,0,0.00036164,-1.4902e-05,3.4521e+07,311.75,0,3.4521e+07,71.167,14058,2091.4,0,2091.4,0,0.00016597,3.9639e-06,0,0.00015648,3.072e-05,1.5978e+07,6.0054e+05,0,1.0857e+07,4.4352e+05,2091.4,1
5396,1.38,12260,1,12260,1,0.00022757,6.8669e-07,0,0.00023433,-4.2213e-05,2.3748e+07,97792,0,2.6528e+07,-1.2029e+05,12259,15904,1,15904,1,0.00050531,2.6175e-05,0,0.00050531,1.1154e-05,4.0567e+07,4.8913e+06,0,4.0567e+07,7896,15903,12262,1,12262,1,0.00022366,-5.2155e-11,0,0.00022366,-4.1134e-05,2.9956e+07,-6.4618,0,2.9956e+07,-4.7302,12261,8553,1,8553,1,-5.7602e-05,-1.4331e-05,0,7.0285e-07,-9.3711e-05,-2.3402e+07,-2.6492e+06,0,32354,-4.5831e+06,8552,10465,1,10465,1,8.3034e-05,-6.9521e-10,0,8.3034e-05,-6.7344e-05,1.7011e+07,-92.366,0,2.0966e+07,-20.781,10464,14059,1,14059,1,0.00036428,4.5974e-10,0,0.00036428,-1.5011e-05,3.4773e+07,73.39,0,3.4773e+07,32.28,14058,2091.4,0,2091.4,0,0.00016718,3.9931e-06,0,0.00015762,3.0944e-05,1.6095e+07,6.0498e+05,0,1.0937e+07,4.4682e+05,2091.4,1
5396,1.39,12260,1,12260,1,0.00022922,6.9146e-07,0,0.00023602,-4.2519e-05,2.392e+07,98477,0,2.672e+07,-1.2115e+05,12259,15904,1,15904,1,0.00050896,2.636e-05,0,0.00050896,1.1235e-05,4.086e+07,4.9257e+06,0,4.086e+07,8003.1,15903,12262,1,12262,1,0.00022528,-1.3943e-10,0,0.00022528,-4.1432e-05,3.0173e+07,-16.975,0,3.0173e+07,-5.1101,12261,8553,1,8553,1,-5.8019e-05,-1.4433e-05,0,7.0817e-07,-9.4389e-05,-2.3571e+07,-2.6681e+06,0,32746,-4.6159e+06,8552,10465,1,10465,1,8.3635e-05,-7.1408e-10,0,8.3635e-05,-6.7832e-05,1.7134e+07,-96.845,0,2.1117e+07,-29.999,10464,14059,1,14059,1,0.00036692,8.5217e-10,0,0.00036692,-1.5119e-05,3.5025e+07,132.31,0,3.5025e+07,35.453,14058,2091.4,0,2091.4,0,0.00016839,4.0214e-06,0,0.00015877,3.1168e-05,1.6211e+07,6.0925e+05,0,1.1016e+07,4.5002e+05,2091.4,1
5396,1.4,12260,1,12260,1,0.00023087,6.9644e-07,0,0.00023772,-4.2824e-05,2.4092e+07,99201,0,2.6912e+07,-1.22e+05,12259,15904,1,15904,1,0.00051262,2.6552e-05,0,0.00051262,1.1316e-05,4.1154e+07,4.9614e+06,0,4.1154e+07,8093.8,15903,12262,1,12262,1,0.0002269,2.5255e-10,0,0.0002269,-4.173e-05,3.039e+07,24.339,0,3.039e+07,-4.2848,12261,8553,1,8553,1,-5.8436e-05,-1.4536e-05,0,7.1392e-07,-9.5067e-05,-2.3741e+07,-2.6872e+06,0,33055,-4.649e+06,8552,10465,1,10465,1,8.4235e-05,-9.01e-10,0,8.4235e-05,-6.8319e-05,1.7257e+07,-135.73,0,2.1269e+07,-29.727,10464,14059,1,14059,1,0.00036956,1.5271e-09,0,0.00036956,-1.5228e-05,3.5276e+07,227.01,0,3.5276e+07,63.895,14058,2091.4,0,2091.4,0,0.0001696,4.0504e-06,0,0.00015991,3.1392e-05,1.6328e+07,6.1365e+05,0,1.1095e+07,4.5323e+05,2091.4,1
5396,1.41,12260,1,12260,1,0.00023252,7.0149e-07,0,0.00023942,-4.3131e-05,2.4264e+07,99911,0,2.7105e+07,-1.229e+05,12259,15904,1,15904,1,0.00051628,2.6744e-05,0,0.00051628,1.1397e-05,4.1448e+07,4.9975e+06,0,4.1448e+07,8087.6,15903,12262,1,12262,1,0.00022852,2.5139e-11,0,0.00022852,-4.2029e-05,3.0608e+07,2.1419,0,3.0608e+07,-3.4168,12261,8553,1,8553,1,-5.8854e-05,-1.4642e-05,0,7.1799e-07,-9.5748e-05,-2.3911e+07,-2.7067e+06,0,33056,-4.6828e+06,8552,10465,1,10465,1,8.484e-05,-1.2674e-09,0,8.484e-05,-6.8808e-05,1.7381e+07,-170.86,0,2.1421e+07,-24.592,10464,14059,1,14059,1,0.00037221,1.4363e-09,0,0.00037221,-1.5337e-05,3.5529e+07,211.3,0,3.5529e+07,38.612,14058,2091.4,0,2091.4,0,0.00017081,4.0798e-06,0,0.00016105,3.1617e-05,1.6445e+07,6.1812e+05,0,1.1174e+07,4.5653e+05,2091.4,1
5396,1.42,12260,1,12260,1,0.00023417,7.0673e-07,0,0.00024111,-4.3436e-05,2.4436e+07,1.0065e+05,0,2.7297e+07,-1.2375e+05,12259,15904,1,15904,1,0.00051994,2.6932e-05,0,0.00051994,1.1478e-05,4.1741e+07,5.0324e+06,0,4.1741e+07,8191.5,15903,12262,1,12262,1,0.00023014,2.663e-10,0,0.00023014,-4.2326e-05,3.0824e+07,26.995,0,3.0824e+07,-6.6205,12261,8553,1,8553,1,-5.9271e-05,-1.4745e-05,0,7.2402e-07,-9.6425e-05,-2.408e+07,-2.7257e+06,0,33456,-4.7156e+06,8552,10465,1,10465,1,8.5439e-05,-1.1308e-09,0,8.5439e-05,-6.9295e-05,1.7503e+07,-163.09,0,2.1573e+07,-31.355,10464,14059,1,14059,1,0.00037484,1.5421e-09,0,0.00037484,-1.5446e-05,3.5781e+07,235.71,0,3.5781e+07,57.264,14058,2091.4,0,2091.4,0,0.00017202,4.1084e-06,0,0.00016219,3.184e-05,1.6561e+07,6.2244e+05,0,1.1254e+07,4.5971e+05,2091.4,1
5396,1.43,12260,1,12260,1,0.00023582,7.1125e-07,0,0.00024281,-4.3742e-05,2.4608e+07,1.013e+05,0,2.7489e+07,-1.246e+05,12259,15904,1,15904,1,0.00052361,2.7123e-05,0,0.00052361,1.1559e-05,4.2036e+07,5.0678e+06,0,4.2036e+07,8277.5,15903,12262,1,12262,1,0.00023176,3.1996e-11,0,0.00023176,-4.2624e-05,3.1041e+07,2.4166,0,3.1041e+07,-1.9477,12261,8553,1,8553,1,-5.9688e-05,-1.4848e-05,0,7.2896e-07,-9.7105e-05,-2.4249e+07,-2.7448e+06,0,33716,-4.7486e+06,8552,10465,1,10465,1,8.6041e-05,-1.5977e-09,0,8.6041e-05,-6.9783e-05,1.7627e+07,-231.81,0,2.1725e+07,-30.516,10464,14059,1,14059,1,0.00037748,1.3705e-09,0,0.00037748,-1.5554e-05,3.6033e+07,201.56,0,3.6033e+07,67.447,14058,2091.4,0,2091.4,0,0.00017323,4.1374e-06,0,0.00016333,3.2065e-05,1.6678e+07,6.2683e+05,0,1.1333e+07,4.6293e+05,2091.4,1
5396,1.44,12260,1,12260,1,0.00023746,7.1664e-07,0,0.00024451,-4.4048e-05,2.478e+07,1.0205e+05,0,2.7681e+07,-1.2548e+05,12259,15904,1,15904,1,0.00052727,2.731e-05,0,0.00052727,1.1639e-05,4.233e+07,5.1028e+06,0,4.233e+07,8305.4,15903,12262,1,12262,1,0.00023338,1.2357e-10,0,0.00023338,-4.2922e-05,3.1258e+07,12.005,0,3.1258e+07,-2.8652,12261,8553,1,8553,1,-6.0105e-05,-1.4952e-05,0,7.343e-07,-9.7792e-05,-2.4419e+07,-2.7639e+06,0,33963,-4.7817e+06,8552,10465,1,10465,1,8.6641e-05,-1.0739e-09,0,8.6641e-05,-7.0271e-05,1.775e+07,-158.6,0,2.1877e+07,-31.907,10464,14059,1,14059,1,0.00038011,1.2838e-09,0,0.00038011,-1.5663e-05,3.6284e+07,192.71,0,3.6284e+07,70.311,14058,2091.4,0,2091.4,0,0.00017444,4.1659e-06,0,0.00016447,3.2289e-05,1.6794e+07,6.3116e+05,0,1.1412e+07,4.6615e+05,2091.4,1
5396,1.45,12260,1,12260,1,0.00023911,7.2154e-07,0,0.00024621,-4.4354e-05,2.4952e+07,1.0276e+05,0,2.7873e+07,-1.2635e+05,12259,15904,1,15904,1,0.00053093,2.75e-05,0,0.00053093,1.172e-05,4.2624e+07,5.1385e+06,0,4.2624e+07,8365.4,15903,12262,1,12262,1,0.000235,1.5981e-10,0,0.000235,-4.322e-05,3.1475e+07,15.018,0,3.1475e+07,-4.1981,12261,8553,1,8553,1,-6.0523e-05,-1.5056e-05,0,7.3946e-07,-9.8463e-05,-2.4588e+07,-2.7831e+06,0,34223,-4.8149e+06,8552,10465,1,10465,1,8.7243e-05,-8.8799e-10,0,8.7243e-05,-7.0759e-05,1.7873e+07,-132.54,0,2.2029e+07,-27.151,10464,14059,1,14059,1,0.00038275,1.3246e-09,0,0.00038275,-1.5772e-05,3.6536e+07,204.36,0,3.6536e+07,59.958,14058,2091.4,0,2091.4,0,0.00017566,4.195e-06,0,0.00016562,3.2513e-05,1.6911e+07,6.3556e+05,0,1.1491e+07,4.6939e+05,2091.4,1
5396,1.46,12260,1,12260,1,0.00024076,7.263e-07,0,0.00024791,-4.466e-05,2.5124e+07,1.0342e+05,0,2.8066e+07,-1.2727e+05,12259,15904,1,15904,1,0.0005346,2.7691e-05,0,0.0005346,1.1801e-05,4.2919e+07,5.1738e+06,0,4.2919e+07,8501.3,15903,12262,1,12262,1,0.00023662,-1.2454e-10,0,0.00023662,-4.3518e-05,3.1692e+07,-10.519,0,3.1692e+07,-0.59771,12261,8553,1,8553,1,-6.0941e-05,-1.5158e-05,0,7.4395e-07,-9.9145e-05,-2.4758e+07,-2.8021e+06,0,34580,-4.8486e+06,8552,10465,1,10465,1,8.7845e-05,-1.6952e-09,0,8.7845e-05,-7.1247e-05,1.7996e+07,-256.62,0,2.218e+07,-37.459,10464,14059,1,14059,1,0.0003854,1.0261e-09,0,0.0003854,-1.588e-05,3.6788e+07,145.63,0,3.6788e+07,80.572,14058,2091.4,0,2091.4,0,0.00017687,4.2243e-06,0,0.00016676,3.2737e-05,1.7028e+07,6.3994e+05,0,1.157e+07,4.7273e+05,2091.4,1
5396,1.47,12260,1,12260,1,0.00024241,7.3165e-07,0,0.0002496,-4.4965e-05,2.5296e+07,1.0417e+05,0,2.8258e+07,-1.2812e+05,12259,15904,1,15904,1,0.00053825,2.7876e-05,0,0.00053825,1.1882e-05,4.3211e+07,5.2093e+06,0,4.3211e+07,8478.1,15903,12262,1,12262,1,0.00023824,4.596e-11,0,0.00023824,-4.3816e-05,3.1909e+07,3.6937,0,3.1909e+07,-5.8375,12261,8553,1,8553,1,-6.1358e-05,-1.5263e-05,0,7.4964e-07,-9.9822e-05,-2.4928e+07,-2.8214e+06,0,34707,-4.8817e+06,8552,10465,1,10465,1,8.8446e-05,-1.2329e-09,0,8.8446e-05,-7.1735e-05,1.8119e+07,-186.11,0,2.2332e+07,-29.089,10464,14059,1,14059,1,0.00038803,8.5308e-10,0,0.00038803,-1.5989e-05,3.704e+07,126.41,0,3.704e+07,60.233,14058,2091.4,0,2091.4,0,0.00017808,4.2531e-06,0,0.0001679,3.2961e-05,1.7144e+07,6.4432e+05,0,1.165e+07,4.7589e+05,2091.4,1
5396,1.48,12260,1,12260,1,0.00024406,7.3637e-07,0,0.0002513,-4.5271e-05,2.5468e+07,1.0488e+05,0,2.845e+07,-1.2898e+05,12259,15904,1,15904,1,0.00054191,2.807e-05,0,0.00054191,1.1963e-05,4.3505e+07,5.2451e+06,0,4.3505e+07,8550.6,15903,12262,1,12262,1,0.00023986,1.1397e-10,0,0.00023986,-4.4114e-05,3.2126e+07,10.595,0,3.2126e+07,-4.9564,12261,8553,1,8553,1,-6.1775e-05,-1.5367e-05,0,7.5471e-07,-0.0001005,-2.5097e+07,-2.8408e+06,0,34893,-4.9148e+06,8552,10465,1,10465,1,8.9048e-05,-1.0619e-09,0,8.9048e-05,-7.2223e-05,1.8243e+07,-158.68,0,2.2484e+07,-24.357,10464,14059,1,14059,1,0.00039067,9.0971e-10,0,0.00039067,-1.6098e-05,3.7292e+07,138.48,0,3.7292e+07,61.918,14058,2091.4,0,2091.4,0,0.00017929,4.282e-06,0,0.00016904,3.3186e-05,1.7261e+07,6.4875e+05,0,1.1729e+07,4.7914e+05,2091.4,1
5396,1.49,12260,1,12260,1,0.00024571,7.4133e-07,0,0.000253,-4.5577e-05,2.564e+07,1.0558e+05,0,2.8642e+07,-1.2983e+05,12259,15904,1,15904,1,0.00054557,2.8258e-05,0,0.00054557,1.2043e-05,4.3799e+07,5.2801e+06,0,4.3799e+07,8588.2,15903,12262,1,12262,1,0.00024148,1.6166e-10,0,0.00024148,-4.4412e-05,3.2343e+07,15.775,0,3.2343e+07,-3.9242,12261,8553,1,8553,1,-6.2192e-05,-1.547e-05,0,7.6025e-07,-0.00010118,-2.5266e+07,-2.8598e+06,0,35261,-4.9476e+06,8552,10465,1,10465,1,8.9649e-05,-9.9549e-10,0,8.9649e-05,-7.2711e-05,1.8366e+07,-150,0,2.2636e+07,-27.894,10464,14059,1,14059,1,0.00039331,1.2991e-09,0,0.00039331,-1.6207e-05,3.7544e+07,195.73,0,3.7544e+07,61.713,14058,2091.4,0,2091.4,0,0.0001805,4.3106e-06,0,0.00017018,3.341e-05,1.7377e+07,6.5308e+05,0,1.1808e+07,4.8234e+05,2091.4,1
5396,1.5,12260,1,12260,1,0.00024736,7.4623e-07,0,0.0002547,-4.5883e-05,2.5813e+07,1.0629e+05,0,2.8835e+07,-1.3072e+05,12259,15904,1,15904,1,0.00054923,2.8448e-05,0,0.00054923,1.2124e-05,4.4093e+07,5.3161e+06,0,4.4093e+07,8597.5,15903,12262,1,12262,1,0.0002431,-3.1524e-11,0,0.0002431,-4.471e-05,3.2561e+07,-3.238,0,3.2561e+07,-1.8144,12261,8553,1,8553,1,-6.261e-05,-1.5576e-05,0,7.645e-07,-0.00010186,-2.5437e+07,-2.8793e+06,0,35344,-4.9812e+06,8552,10465,1,10465,1,9.0252e-05,-4.0878e-10,0,9.0252e-05,-7.32e-05,1.8489e+07,-60.709,0,2.2789e+07,-29.995,10464,14059,1,14059,1,0.00039596,8.1266e-10,0,0.00039596,-1.6316e-05,3.7796e+07,123.77,0,3.7796e+07,36.401,14058,2091.4,0,2091.4,0,0.00018171,4.3398e-06,0,0.00017133,3.3634e-05,1.7494e+07,6.5751e+05,0,1.1888e+07,4.8563e+05,2091.4,1
5396,1.51,12260,1,12260,1,0.00024901,7.5142e-07,0,0.0002564,-4.6189e-05,2.5985e+07,1.0702e+05,0,2.9027e+07,-1.3159e+05,12259,15904,1,15904,1,0.0005529,2.8639e-05,0,0.0005529,1.2205e-05,4.4387e+07,5.3516e+06,0,4.4387e+07,8676.6,15903,12262,1,12262,1,0.00024472,1.8965e-10,0,0.00024472,-4.5008e-05,3.2778e+07,26.018,0,3.2778e+07,-2.3722,12261,8553,1,8553,1,-6.3028e-05,-1.568e-05,0,7.6925e-07,-0.00010254,-2.5606e+07,-2.8985e+06,0,35501,-5.0141e+06,8552,10465,1,10465,1,9.0854e-05,-1.6807e-10,0,9.0854e-05,-7.3688e-05,1.8613e+07,-20.631,0,2.294e+07,-21.125,10464,14059,1,14059,1,0.0003986,8.4789e-10,0,0.0003986,-1.6424e-05,3.8048e+07,131.4,0,3.8048e+07,38.998,14058,2091.4,0,2091.4,0,0.00018293,4.3692e-06,0,0.00017247,3.3859e-05,1.7611e+07,6.6192e+05,0,1.1967e+07,4.8883e+05,2091.4,1
5396,1.52,12260,1,12260,1,0.00025066,7.5616e-07,0,0.0002581,-4.6495e-05,2.6157e+07,1.077e+05,0,2.9219e+07,-1.3248e+05,12259,15904,1,15904,1,0.00055656,2.883e-05,0,0.00055656,1.2286e-05,4.4681e+07,5.3874e+06,0,4.4681e+07,8734.8,15903,12262,1,12262,1,0.00024634,-1.0502e-10,0,0.00024634,-4.5307e-05,3.2995e+07,-10.683,0,3.2995e+07,-9.6544,12261,8553,1,8553,1,-6.3445e-05,-1.5783e-05,0,7.7472e-07,-0.00010322,-2.5776e+07,-2.9176e+06,0,35852,-5.0481e+06,8552,10465,1,10465,1,9.1456e-05,-7.9226e-10,0,9.1456e-05,-7.4176e-05,1.8736e+07,-114.85,0,2.3092e+07,-22.927,10464,14059,1,14059,1,0.00040123,6.8174e-10,0,0.00040124,-1.6533e-05,3.83e+07,107.4,0,3.83e+07,43.389,14058,2091.4,0,2091.4,0,0.00018414,4.398e-06,0,0.00017361,3.4083e-05,1.7727e+07,6.6633e+05,0,1.2046e+07,4.9213e+05,2091.4,1
5396,1.53,12260,1,12260,1,0.00025231,7.6138e-07,0,0.00025979,-4.6801e-05,2.6329e+07,1.0844e+05,0,2.9411e+07,-1.3333e+05,12259,15904,1,15904,1,0.00056022,2.9017e-05,0,0.00056022,1.2367e-05,4.4975e+07,5.4222e+06,0,4.4975e+07,8796.5,15903,12262,1,12262,1,0.00024796,1.7812e-10,0,0.00024796,-4.5604e-05,3.3212e+07,22.184,0,3.3212e+07,-2.1226,12261,8553,1,8553,1,-6.3863e-05,-1.5887e-05,0,7.8002e-07,-0.0001039,-2.5945e+07,-2.9369e+06,0,36112,-5.0806e+06,8552,10465,1,10465,1,9.2057e-05,-3.5394e-10,0,9.2057e-05,-7.4664e-05,1.8859e+07,-49.313,0,2.3244e+07,-20.285,10464,14059,1,14059,1,0.00040387,9.7553e-10,0,0.00040387,-1.6642e-05,3.8552e+07,156.64,0,3.8552e+07,46.258,14058,2091.4,0,2091.4,0,0.00018535,4.4265e-06,0,0.00017475,3.4307e-05,1.7844e+07,6.7064e+05,0,1.2125e+07,4.9533e+05,2091.4,1
5396,1.54,12260,1,12260,1,0.00025396,7.6598e-07,0,0.00026149,-4.7107e-05,2.6501e+07,1.091e+05,0,2.9604e+07,-1.3422e+05,12259,15904,1,15904,1,0.00056389,2.9208e-05,0,0.00056389,1.2448e-05,4.527e+07,5.458e+06,0,4.527e+07,8846.1,15903,12262,1,12262,1,0.00024959,-2.8528e-10,0,0.00024959,-4.5903e-05,3.3429e+07,-34.873,0,3.3429e+07,-1.3659,12261,8553,1,8553,1,-6.4281e-05,-1.5991e-05,0,7.8459e-07,-0.00010458,-2.6115e+07,-2.9561e+06,0,36222,-5.1141e+06,8552,10465,1,10465,1,9.2659e-05,-7.1916e-10,0,9.2659e-05,-7.5153e-05,1.8982e+07,-107.74,0,2.3396e+07,-29.904,10464,14059,1,14059,1,0.00040652,6.6818e-10,0,0.00040652,-1.6751e-05,3.8804e+07,100.88,0,3.8804e+07,37.911,14058,2091.4,0,2091.4,0,0.00018656,4.4558e-06,0,0.0001759,3.4532e-05,1.7961e+07,6.7508e+05,0,1.2205e+07,4.9857e+05,2091.4,1
5396,1.55,12260,1,12260,1,0.0002556,7.7128e-07,0,0.00026319,-4.7413e-05,2.6673e+07,1.0985e+05,0,2.9796e+07,-1.3508e+05,12259,15904,1,15904,1,0.00056754,2.9397e-05,0,0.00056754,1.2528e-05,4.5563e+07,5.4931e+06,0,4.5563e+07,8895.6,15903,12262,1,12262,1,0.0002512,2.161e-10,0,0.0002512,-4.62e-05,3.3646e+07,28.185,0,3.3646e+07,-2.3736,12261,8553,1,8553,1,-6.4698e-05,-1.6095e-05,0,7.8998e-07,-0.00010526,-2.6284e+07,-2.9754e+06,0,36489,-5.1471e+06,8552,10465,1,10465,1,9.3261e-05,1.3415e-11,0,9.3261e-05,-7.564e-05,1.9106e+07,1.2422,0,2.3548e+07,-24.706,10464,14059,1,14059,1,0.00040915,9.0652e-10,0,0.00040915,-1.6859e-05,3.9056e+07,142.45,0,3.9056e+07,35.548,14058,2091.4,0,2091.4,0,0.00018777,4.4845e-06,0,0.00017704,3.4755e-05,1.8077e+07,6.7942e+05,0,1.2284e+07,5.0181e+05,2091.4,1
5396,1.56,12260,1,12260,1,0.00025725,7.7608e-07,0,0.00026489,-4.7719e-05,2.6845e+07,1.1053e+05,0,2.9988e+07,-1.3596e+05,12259,15904,1,15904,1,0.00057121,2.9587e-05,0,0.00057121,1.2609e-05,4.5857e+07,5.5287e+06,0,4.5857e+07,8943.3,15903,12262,1,12262,1,0.00025283,-1.0101e-10,0,0.00025283,-4.6499e-05,3.3863e+07,-11.594,0,3.3863e+07,-6.9012,12261,8553,1,8553,1,-6.5115e-05,-1.6199e-05,0,7.9508e-07,-0.00010593,-2.6454e+07,-2.9944e+06,0,36764,-5.1805e+06,8552,10465,1,10465,1,9.3863e-05,-6.3087e-10,0,9.3863e-05,-7.6128e-05,1.9229e+07,-88.557,0,2.37e+07,-24.401,10464,14059,1,14059,1,0.00041179,7.6184e-10,0,0.00041179,-1.6968e-05,3.9308e+07,119.52,0,3.9308e+07,39.163,14058,2091.4,0,2091.4,0,0.00018898,4.5135e-06,0,0.00017818,3.498e-05,1.8194e+07,6.8382e+05,0,1.2363e+07,5.0505e+05,2091.4,1
5396,1.57,12260,1,12260,1,0.0002589,7.8097e-07,0,0.00026658,-4.8024e-05,2.7017e+07,1.1123e+05,0,3.018e+07,-1.368e+05,12259,15904,1,15904,1,0.00057486,2.9777e-05,0,0.00057486,1.269e-05,4.6151e+07,5.5639e+06,0,4.6151e+07,9052.1,15903,12262,1,12262,1,0.00025445,8.2772e-11,0,0.00025445,-4.6797e-05,3.408e+07,7.8296,0,3.408e+07,-4.4041,12261,8553,1,8553,1,-6.5531e-05,-1.63e-05,0,8.0121e-07,-0.00010661,-2.6623e+07,-3.0132e+06,0,37196,-5.2134e+06,8552,10465,1,10465,1,9.4463e-05,-1.4682e-09,0,9.4463e-05,-7.6615e-05,1.9352e+07,-221.85,0,2.3852e+07,-39.413,10464,14059,1,14059,1,0.00041443,1.4759e-09,0,0.00041443,-1.7077e-05,3.956e+07,216.6,0,3.956e+07,72.081,14058,2091.4,0,2091.4,0,0.00019019,4.5422e-06,0,0.00017932,3.5204e-05,1.831e+07,6.8817e+05,0,1.2442e+07,5.0825e+05,2091.4,1
5396,1.58,12260,1,12260,1,0.00026055,7.8611e-07,0,0.00026828,-4.833e-05,2.7189e+07,1.1196e+05,0,3.0372e+07,-1.3768e+05,12259,15904,1,15904,1,0.00057852,2.9964e-05,0,0.00057852,1.2771e-05,4.6445e+07,5.5992e+06,0,4.6445e+07,9096,15903,12262,1,12262,1,0.00025606,1.7703e-11,0,0.00025606,-4.7094e-05,3.4297e+07,1.4787,0,3.4297e+07,-4.3793,12261,8553,1,8553,1,-6.5949e-05,-1.6404e-05,0,8.0593e-07,-0.00010729,-2.6793e+07,-3.0325e+06,0,37375,-5.2466e+06,8552,10465,1,10465,1,9.5064e-05,-6.3439e-10,0,9.5064e-05,-7.7103e-05,1.9475e+07,-95.198,0,2.4004e+07,-16.378,10464,14059,1,14059,1,0.00041707,7.6113e-10,0,0.00041707,-1.7185e-05,3.9811e+07,119.32,0,3.9811e+07,56.138,14058,2091.4,0,2091.4,0,0.0001914,4.5711e-06,0,0.00018046,3.5428e-05,1.8427e+07,6.9253e+05,0,1.2521e+07,5.1149e+05,2091.4,1
5396,1.59,12260,1,12260,1,0.0002622,7.91e-07,0,0.00026998,-4.8636e-05,2.7361e+07,1.1266e+05,0,3.0564e+07,-1.3855e+05,12259,15904,1,15904,1,0.00058218,3.0154e-05,0,0.00058218,1.2851e-05,4.6738e+07,5.6347e+06,0,4.6738e+07,9156.5,15903,12262,1,12262,1,0.00025768,1.131e-10,0,0.00025768,-4.7392e-05,3.4514e+07,10.482,0,3.4514e+07,-4.8639,12261,8553,1,8553,1,-6.6366e-05,-1.6508e-05,0,8.1155e-07,-0.00010797,-2.6962e+07,-3.0517e+06,0,37741,-5.28e+06,8552,10465,1,10465,1,9.5666e-05,-7.0785e-10,0,9.5666e-05,-7.7591e-05,1.9598e+07,-105.04,0,2.4155e+07,-18.981,10464,14059,1,14059,1,0.0004197,7.9657e-10,0,0.00041971,-1.7294e-05,4.0063e+07,119.89,0,4.0063e+07,54.931,14058,2091.4,0,2091.4,0,0.00019262,4.5998e-06,0,0.00018161,3.5652e-05,1.8544e+07,6.9691e+05,0,1.2601e+07,5.1475e+05,2091.4,1
5396,1.6,12260,1,12260,1,0.00026385,7.9604e-07,0,0.00027168,-4.8942e-05,2.7533e+07,1.1338e+05,0,3.0757e+07,-1.3942e+05,12259,15904,1,15904,1,0.00058585,3.0346e-05,0,0.00058585,1.2932e-05,4.7033e+07,5.6703e+06,0,4.7033e+07,9206.6,15903,12262,1,12262,1,0.00025931,9.4472e-11,0,0.00025931,-4.7691e-05,3.4731e+07,8.3601,0,3.4731e+07,-6.6296,12261,8553,1,8553,1,-6.6784e-05,-1.6613e-05,0,8.1608e-07,-0.00010865,-2.7132e+07,-3.0711e+06,0,37781,-5.313e+06,8552,10465,1,10465,1,9.6269e-05,-9.9261e-10,0,9.6269e-05,-7.808e-05,1.9722e+07,-145.71,0,2.4308e+07,-28.067,10464,14059,1,14059,1,0.00042235,8.6003e-10,0,0.00042235,-1.7403e-05,4.0316e+07,131.68,0,4.0316e+07,54.301,14058,2091.4,0,2091.4,0,0.00019383,4.6291e-06,0,0.00018275,3.5877e-05,1.866e+07,7.0133e+05,0,1.268e+07,5.1797e+05,2091.4,1
5396,1.61,12260,1,12260,1,0.0002655,8.0095e-07,0,0.00027337,-4.9248e-05,2.7705e+07,1.1407e+05,0,3.0949e+07,-1.4029e+05,12259,15904,1,15904,1,0.00058951,3.0536e-05,0,0.00058951,1.3013e-05,4.7327e+07,5.7059e+06,0,4.7327e+07,9285,15903,12262,1,12262,1,0.00026093,-5.3115e-11,0,0.00026093,-4.7988e-05,3.4948e+07,-4.7235,0,3.4948e+07,-3.9507,12261,8553,1,8553,1,-6.7201e-05,-1.6716e-05,0,8.2162e-07,-0.00010933,-2.7302e+07,-3.0901e+06,0,38168,-5.3465e+06,8552,10465,1,10465,1,9.687e-05,-1.0337e-09,0,9.687e-05,-7.8567e-05,1.9845e+07,-154.5,0,2.4459e+07,-22.631,10464,14059,1,14059,1,0.00042498,8.0701e-10,0,0.00042498,-1.7512e-05,4.0567e+07,123.5,0,4.0567e+07,62.723,14058,2091.4,0,2091.4,0,0.00019504,4.658e-06,0,0.00018389,3.61e-05,1.8777e+07,7.0572e+05,0,1.2759e+07,5.2123e+05,2091.4,1
5396,1.62,12260,1,12260,1,0.00026714,8.0605e-07,0,0.00027507,-4.9553e-05,2.7877e+07,1.148e+05,0,3.1141e+07,-1.4116e+05,12259,15904,1,15904,1,0.00059317,3.0723e-05,0,0.00059317,1.3094e-05,4.762e+07,5.7409e+06,0,4.762e+07,9326.7,15903,12262,1,12262,1,0.00026255,2.1403e-10,0,0.00026255,-4.8286e-05,3.5165e+07,20.593,0,3.5165e+07,-4.5945,12261,8553,1,8553,1,-6.7618e-05,-1.682e-05,0,8.2658e-07,-0.00011001,-2.7471e+07,-3.1093e+06,0,38354,-5.3794e+06,8552,10465,1,10465,1,9.7471e-05,-9.2415e-10,0,9.7471e-05,-7.9055e-05,1.9968e+07,-138.36,0,2.4611e+07,-27.501,10464,14059,1,14059,1,0.00042762,1.1683e-09,0,0.00042762,-1.7621e-05,4.0819e+07,176.11,0,4.0819e+07,63.797,14058,2091.4,0,2091.4,0,0.00019625,4.6867e-06,0,0.00018503,3.6325e-05,1.8893e+07,7.1006e+05,0,1.2838e+07,5.2443e+05,2091.4,1
5396,1.63,12260,1,12260,1,0.00026879,8.1098e-07,0,0.00027677,-4.986e-05,2.8049e+07,1.155e+05,0,3.1333e+07,-1.4204e+05,12259,15904,1,15904,1,0.00059683,3.0913e-05,0,0.00059683,1.3175e-05,4.7914e+07,5.7764e+06,0,4.7914e+07,9385,15903,12262,1,12262,1,0.00026417,9.9235e-11,0,0.00026417,-4.8585e-05,3.5382e+07,9.4815,0,3.5382e+07,-6.5637,12261,8553,1,8553,1,-6.8036e-05,-1.6924e-05,0,8.3127e-07,-0.00011069,-2.7641e+07,-3.1286e+06,0,38545,-5.4127e+06,8552,10465,1,10465,1,9.8073e-05,-8.3919e-10,0,9.8073e-05,-7.9543e-05,2.0092e+07,-125.3,0,2.4763e+07,-21.463,10464,14059,1,14059,1,0.00043027,9.7629e-10,0,0.00043027,-1.773e-05,4.1072e+07,151.96,0,4.1072e+07,60.609,14058,2091.4,0,2091.4,0,0.00019746,4.7157e-06,0,0.00018618,3.6549e-05,1.901e+07,7.1445e+05,0,1.2918e+07,5.2768e+05,2091.4,1
5396,1.64,12260,1,12260,1,0.00027044,8.1585e-07,0,0.00027847,-5.0165e-05,2.8221e+07,1.162e+05,0,3.1525e+07,-1.4291e+05,12259,15904,1,15904,1,0.00060049,3.1102e-05,0,0.00060049,1.3256e-05,4.8208e+07,5.8117e+06,0,4.8208e+07,9437.9,15903,12262,1,12262,1,0.00026579,-1.769e-11,0,0.00026579,-4.8882e-05,3.5599e+07,-1.577,0,3.5599e+07,-6.6955,12261,8553,1,8553,1,-6.8453e-05,-1.7027e-05,0,8.3679e-07,-0.00011136,-2.781e+07,-3.1477e+06,0,38865,-5.4458e+06,8552,10465,1,10465,1,9.8674e-05,-6.4946e-10,0,9.8674e-05,-8.0031e-05,2.0215e+07,-98.334,0,2.4915e+07,-15.781,10464,14059,1,14059,1,0.0004329,7.8635e-10,0,0.0004329,-1.7838e-05,4.1323e+07,125.26,0,4.1323e+07,55.292,14058,2091.4,0,2091.4,0,0.00019867,4.7445e-06,0,0.00018732,3.6773e-05,1.9127e+07,7.1882e+05,0,1.2997e+07,5.3091e+05,2091.4,1
5396,1.65,12260,1,12260,1,0.00027209,8.2087e-07,0,0.00028017,-5.0472e-05,2.8394e+07,1.1691e+05,0,3.1718e+07,-1.4382e+05,12259,15904,1,15904,1,0.00060416,3.1292e-05,0,0.00060416,1.3337e-05,4.8503e+07,5.8475e+06,0,4.8503e+07,9493.6,15903,12262,1,12262,1,0.00026741,-1.0203e-10,0,0.00026741,-4.9181e-05,3.5816e+07,-11.784,0,3.5816e+07,-6.1505,12261,8553,1,8553,1,-6.8871e-05,-1.7132e-05,0,8.4104e-07,-0.00011204,-2.798e+07,-3.167e+06,0,38937,-5.4794e+06,8552,10465,1,10465,1,9.9277e-05,-4.8273e-10,0,9.9277e-05,-8.052e-05,2.0338e+07,-70.249,0,2.5067e+07,-23.622,10464,14059,1,14059,1,0.00043555,8.6625e-10,0,0.00043555,-1.7947e-05,4.1576e+07,134.46,0,4.1576e+07,45.967,14058,2091.4,0,2091.4,0,0.00019988,4.7737e-06,0,0.00018846,3.6998e-05,1.9243e+07,7.2324e+05,0,1.3076e+07,5.342e+05,2091.4,1
5396,1.66,12260,1,12260,1,0.00027374,8.2595e-07,0,0.00028187,-5.0777e-05,2.8566e+07,1.1764e+05,0,3.191e+07,-1.4465e+05,12259,15904,1,15904,1,0.00060782,3.1482e-05,0,0.00060782,1.3417e-05,4.8797e+07,5.8828e+06,0,4.8797e+07,9537.1,15903,12262,1,12262,1,0.00026903,1.1232e-10,0,0.00026903,-4.9479e-05,3.6033e+07,14.81,0,3.6033e+07,-2.8622,12261,8553,1,8553,1,-6.9289e-05,-1.7236e-05,0,8.465e-07,-0.00011272,-2.815e+07,-3.1863e+06,0,39219,-5.5124e+06,8552,10465,1,10465,1,9.9878e-05,-2.225e-12,0,9.9878e-05,-8.1008e-05,2.0461e+07,-0.25605,0,2.5219e+07,-16.584,10464,14059,1,14059,1,0.00043819,9.5457e-10,0,0.00043819,-1.8056e-05,4.1827e+07,147.79,0,4.1827e+07,46.723,14058,2091.4,0,2091.4,0,0.0002011,4.8025e-06,0,0.0001896,3.7222e-05,1.936e+07,7.2761e+05,0,1.3155e+07,5.3741e+05,2091.4,1
5396,1.67,12260,1,12260,1,0.00027539,8.3066e-07,0,0.00028356,-5.1083e-05,2.8738e+07,1.1831e+05,0,3.2102e+07,-1.4554e+05,12259,15904,1,15904,1,0.00061149,3.1673e-05,0,0.00061149,1.3498e-05,4.9091e+07,5.9189e+06,0,4.9091e+07,9607.6,15903,12262,1,12262,1,0.00027065,-5.7071e-11,0,0.00027065,-4.9777e-05,3.6251e+07,-7.3535,0,3.6251e+07,-1.6921,12261,8553,1,8553,1,-6.9706e-05,-1.734e-05,0,8.5174e-07,-0.0001134,-2.8319e+07,-3.2054e+06,0,39445,-5.5462e+06,8552,10465,1,10465,1,0.00010048,-1.108e-09,0,0.00010048,-8.1496e-05,2.0585e+07,-165.01,0,2.5371e+07,-21.462,10464,14059,1,14059,1,0.00044083,3.7435e-10,0,0.00044083,-1.8165e-05,4.208e+07,60.799,0,4.208e+07,58.363,14058,2091.4,0,2091.4,0,0.00020231,4.8317e-06,0,0.00019075,3.7446e-05,1.9477e+07,7.3205e+05,0,1.3235e+07,5.4068e+05,2091.4,1
5396,1.68,12260,1,12260,1,0.00027704,8.3573e-07,0,0.00028526,-5.1389e-05,2.891e+07,1.1904e+05,0,3.2294e+07,-1.464e+05,12259,15904,1,15904,1,0.00061514,3.1862e-05,0,0.00061514,1.3579e-05,4.9384e+07,5.9537e+06,0,4.9384e+07,9694.1,15903,12262,1,12262,1,0.00027227,8.9635e-11,0,0.00027227,-5.0075e-05,3.6467e+07,8.8068,0,3.6468e+07,-4.9991,12261,8553,1,8553,1,-7.0123e-05,-1.7442e-05,0,8.5722e-07,-0.00011409,-2.8488e+07,-3.2244e+06,0,39828,-5.5788e+06,8552,10465,1,10465,1,0.00010108,-7.7354e-10,0,0.00010108,-8.1983e-05,2.0708e+07,-115.88,0,2.5523e+07,-23.781,10464,14059,1,14059,1,0.00044346,1.0887e-09,0,0.00044346,-1.8273e-05,4.2331e+07,165.46,0,4.2331e+07,63.537,14058,2091.4,0,2091.4,0,0.00020352,4.8604e-06,0,0.00019189,3.767e-05,1.9593e+07,7.3638e+05,0,1.3314e+07,5.4388e+05,2091.4,1
5396,1.69,12260,1,12260,1,0.00027869,8.4071e-07,0,0.00028696,-5.1695e-05,2.9082e+07,1.1974e+05,0,3.2487e+07,-1.4727e+05,12259,15904,1,15904,1,0.0006188,3.2051e-05,0,0.0006188,1.366e-05,4.9678e+07,5.9891e+06,0,4.9678e+07,9734,15903,12262,1,12262,1,0.00027389,-1.1255e-11,0,0.00027389,-5.0373e-05,3.6684e+07,-0.8718,0,3.6684e+07,-4.3239,12261,8553,1,8553,1,-7.054e-05,-1.7546e-05,0,8.6234e-07,-0.00011476,-2.8658e+07,-3.2436e+06,0,40079,-5.612e+06,8552,10465,1,10465,1,0.00010168,-8.182e-10,0,0.00010168,-8.2471e-05,2.0831e+07,-124.32,0,2.5675e+07,-16.203,10464,14059,1,14059,1,0.0004461,6.6632e-10,0,0.0004461,-1.8382e-05,4.2583e+07,108.52,0,4.2583e+07,60.344,14058,2091.4,0,2091.4,0,0.00020473,4.8893e-06,0,0.00019303,3.7894e-05,1.971e+07,7.4075e+05,0,1.3393e+07,5.4711e+05,2091.4,1
5396,1.7,12260,1,12260,1,0.00028034,8.4571e-07,0,0.00028866,-5.2001e-05,2.9254e+07,1.2045e+05,0,3.2679e+07,-1.4814e+05,12259,15904,1,15904,1,0.00062246,3.2242e-05,0,0.00062246,1.3741e-05,4.9972e+07,6.0247e+06,0,4.9972e+07,9782.6,15903,12262,1,12262,1,0.00027551,3.0792e-11,0,0.00027551,-5.0671e-05,3.6902e+07,2.5614,0,3.6902e+07,-5.2552,12261,8553,1,8553,1,-7.0958e-05,-1.7651e-05,0,8.6717e-07,-0.00011544,-2.8828e+07,-3.263e+06,0,40204,-5.6453e+06,8552,10465,1,10465,1,0.00010228,-8.9591e-10,0,0.00010228,-8.2959e-05,2.0954e+07,-135.35,0,2.5827e+07,-21.215,10464,14059,1,14059,1,0.00044874,7.6777e-10,0,0.00044874,-1.8491e-05,4.2835e+07,117.51,0,4.2835e+07,59.95,14058,2091.4,0,2091.4,0,0.00020594,4.9183e-06,0,0.00019417,3.8119e-05,1.9827e+07,7.4516e+05,0,1.3472e+07,5.5035e+05,2091.4,1
5396,1.71,12260,1,12260,1,0.00028199,8.5068e-07,0,0.00029036,-5.2307e-05,2.9426e+07,1.2116e+05,0,3.2871e+07,-1.4902e+05,12259,15904,1,15904,1,0.00062613,3.2431e-05,0,0.00062613,1.3822e-05,5.0267e+07,6.0603e+06,0,5.0267e+07,9808.3,15903,12262,1,12262,1,0.00027714,-1.4248e-10,0,0.00027714,-5.0969e-05,3.7119e+07,-17.361,0,3.7119e+07,-4.4687,12261,8553,1,8553,1,-7.1376e-05,-1.7755e-05,0,8.7185e-07,-0.00011612,-2.8998e+07,-3.2822e+06,0,40388,-5.6786e+06,8552,10465,1,10465,1,0.00010289,-5.7879e-10,0,0.00010289,-8.3448e-05,2.1078e+07,-80.822,0,2.5979e+07,-20.265,10464,14059,1,14059,1,0.00045139,6.3785e-10,0,0.00045139,-1.86e-05,4.3088e+07,97.797,0,4.3088e+07,46.252,14058,2091.4,0,2091.4,0,0.00020715,4.9473e-06,0,0.00019531,3.8343e-05,1.9943e+07,7.4955e+05,0,1.3552e+07,5.5361e+05,2091.4,1
5396,1.72,12260,1,12260,1,0.00028364,8.5545e-07,0,0.00029205,-5.2613e-05,2.9598e+07,1.2184e+05,0,3.3063e+07,-1.4989e+05,12259,15904,1,15904,1,0.00062979,3.262e-05,0,0.00062979,1.3902e-05,5.0561e+07,6.0957e+06,0,5.0561e+07,9884.8,15903,12262,1,12262,1,0.00027875,-3.2247e-10,0,0.00027875,-5.1267e-05,3.7336e+07,-39.089,0,3.7336e+07,-6.6805,12261,8553,1,8553,1,-7.1793e-05,-1.7858e-05,0,8.7725e-07,-0.0001168,-2.9167e+07,-3.3013e+06,0,40680,-5.7118e+06,8552,10465,1,10465,1,0.00010349,-9.3424e-10,0,0.00010349,-8.3936e-05,2.1201e+07,-142.14,0,2.6131e+07,-16.462,10464,14059,1,14059,1,0.00045402,5.0938e-10,0,0.00045403,-1.8708e-05,4.3339e+07,75.815,0,4.3339e+07,53.083,14058,2091.4,0,2091.4,0,0.00020836,4.9762e-06,0,0.00019646,3.8567e-05,2.006e+07,7.5393e+05,0,1.3631e+07,5.5684e+05,2091.4,1
5396,1.73,12260,1,12260,1,0.00028528,8.6068e-07,0,0.00029375,-5.2918e-05,2.977e+07,1.2258e+05,0,3.3255e+07,-1.5075e+05,12259,15904,1,15904,1,0.00063345,3.281e-05,0,0.00063345,1.3983e-05,5.0854e+07,6.131e+06,0,5.0854e+07,9950.3,15903,12262,1,12262,1,0.00028037,-3.4041e-11,0,0.00028037,-5.1565e-05,3.7553e+07,-3.4531,0,3.7553e+07,-6.324,12261,8553,1,8553,1,-7.221e-05,-1.7962e-05,0,8.8266e-07,-0.00011748,-2.9336e+07,-3.3205e+06,0,40968,-5.7449e+06,8552,10465,1,10465,1,0.00010409,-6.9977e-10,0,0.00010409,-8.4423e-05,2.1324e+07,-103.17,0,2.6282e+07,-20.192,10464,14059,1,14059,1,0.00045666,7.3735e-10,0,0.00045666,-1.8817e-05,4.3591e+07,115.18,0,4.3591e+07,55.466,14058,2091.4,0,2091.4,0,0.00020957,5.0051e-06,0,0.0001976,3.8791e-05,2.0176e+07,7.583e+05,0,1.371e+07,5.6006e+05,2091.4,1
5396,1.74,12260,1,12260,1,0.00028693,8.6562e-07,0,0.00029545,-5.3224e-05,2.9942e+07,1.2329e+05,0,3.3448e+07,-1.5163e+05,12259,15904,1,15904,1,0.00063711,3.2999e-05,0,0.00063711,1.4064e-05,5.1148e+07,6.1663e+06,0,5.1148e+07,9998.3,15903,12262,1,12262,1,0.00028199,-9.8871e-11,0,0.00028199,-5.1863e-05,3.777e+07,-11.46,0,3.777e+07,-2.0584,12261,8553,1,8553,1,-7.2627e-05,-1.8066e-05,0,8.8749e-07,-0.00011815,-2.9506e+07,-3.3397e+06,0,41188,-5.7781e+06,8552,10465,1,10465,1,0.00010469,-3.0718e-10,0,0.00010469,-8.4911e-05,2.1447e+07,-44.275,0,2.6434e+07,-16.39,10464,14059,1,14059,1,0.0004593,8.2422e-10,0,0.0004593,-1.8926e-05,4.3843e+07,127.18,0,4.3843e+07,51.483,14058,2091.4,0,2091.4,0,0.00021079,5.0339e-06,0,0.00019874,3.9015e-05,2.0293e+07,7.6267e+05,0,1.3789e+07,5.6332e+05,2091.4,1
5396,1.75,12260,1,12260,1,0.00028858,8.7067e-07,0,0.00029715,-5.353e-05,3.0114e+07,1.24e+05,0,3.364e+07,-1.5248e+05,12259,15904,1,15904,1,0.00064077,3.3191e-05,0,0.00064077,1.4145e-05,5.1442e+07,6.2017e+06,0,5.1442e+07,10065,15903,12262,1,12262,1,0.00028362,1.2345e-10,0,0.00028362,-5.2162e-05,3.7987e+07,11.337,0,3.7987e+07,-8.1082,12261,8553,1,8553,1,-7.3045e-05,-1.8171e-05,0,8.9243e-07,-0.00011883,-2.9676e+07,-3.3589e+06,0,41269,-5.8109e+06,8552,10465,1,10465,1,0.00010529,-1.3659e-09,0,0.00010529,-8.5399e-05,2.1571e+07,-203.96,0,2.6586e+07,-37.159,10464,14059,1,14059,1,0.00046194,1.294e-09,0,0.00046194,-1.9035e-05,4.4095e+07,196.54,0,4.4095e+07,69.66,14058,2091.4,0,2091.4,0,0.000212,5.0631e-06,0,0.00019988,3.924e-05,2.041e+07,7.6708e+05,0,1.3869e+07,5.6649e+05,2091.4,1
5396,1.76,12260,1,12260,1,0.00029023,8.7523e-07,0,0.00029885,-5.3836e-05,3.0287e+07,1.2466e+05,0,3.3832e+07,-1.5339e+05,12259,15904,1,15904,1,0.00064444,3.338e-05,0,0.00064444,1.4226e-05,5.1737e+07,6.2376e+06,0,5.1737e+07,10106,15903,12262,1,12262,1,0.00028524,-3.7686e-10,0,0.00028524,-5.246e-05,3.8204e+07,-47.833,0,3.8204e+07,-1.6804,12261,8553,1,8553,1,-7.3463e-05,-1.8274e-05,0,8.9737e-07,-0.00011951,-2.9846e+07,-3.3781e+06,0,41590,-5.845e+06,8552,10465,1,10465,1,0.0001059,-9.3291e-10,0,0.0001059,-8.5888e-05,2.1694e+07,-135.95,0,2.6738e+07,-16.388,10464,14059,1,14059,1,0.00046459,3.9025e-10,0,0.00046459,-1.9143e-05,4.4347e+07,57.047,0,4.4347e+07,52.89,14058,2091.4,0,2091.4,0,0.00021321,5.0921e-06,0,0.00020102,3.9464e-05,2.0526e+07,7.7149e+05,0,1.3948e+07,5.6982e+05,2091.4,1
5396,1.77,12260,1,12260,1,0.00029188,8.8051e-07,0,0.00030054,-5.4142e-05,3.0459e+07,1.2541e+05,0,3.4025e+07,-1.5425e+05,12259,15904,1,15904,1,0.00064809,3.3568e-05,0,0.00064809,1.4306e-05,5.203e+07,6.2729e+06,0,5.203e+07,10158,15903,12262,1,12262,1,0.00028686,5.9256e-11,0,0.00028686,-5.2758e-05,3.8421e+07,7.7459,0,3.8421e+07,-7.6048,12261,8553,1,8553,1,-7.3879e-05,-1.8378e-05,0,9.0231e-07,-0.00012019,-3.0015e+07,-3.3974e+06,0,41784,-5.878e+06,8552,10465,1,10465,1,0.0001065,-5.716e-10,0,0.0001065,-8.6376e-05,2.1817e+07,-77.692,0,2.689e+07,-23.724,10464,14059,1,14059,1,0.00046722,7.6747e-10,0,0.00046722,-1.9252e-05,4.4599e+07,120.27,0,4.4599e+07,48.163,14058,2091.4,0,2091.4,0,0.00021442,5.1208e-06,0,0.00020217,3.9688e-05,2.0643e+07,7.7584e+05,0,1.4027e+07,5.7304e+05,2091.4,1
5396,1.78,12260,1,12260,1,0.00029353,8.8575e-07,0,0.00030224,-5.4448e-05,3.0631e+07,1.2615e+05,0,3.4217e+07,-1.5512e+05,12259,15904,1,15904,1,0.00065176,3.3759e-05,0,0.00065176,1.4387e-05,5.2324e+07,6.3083e+06,0,5.2324e+07,10244,15903,12262,1,12262,1,0.00028848,6.7673e-11,0,0.00028848,-5.3056e-05,3.8638e+07,8.057,0,3.8638e+07,-1.0072,12261,8553,1,8553,1,-7.4298e-05,-1.8482e-05,0,9.0731e-07,-0.00012087,-3.0185e+07,-3.4167e+06,0,42032,-5.911e+06,8552,10465,1,10465,1,0.0001071,-1.6273e-10,0,0.0001071,-8.6864e-05,2.1941e+07,-21.298,0,2.7042e+07,-15.775,10464,14059,1,14059,1,0.00046986,1.1956e-09,0,0.00046986,-1.9361e-05,4.4851e+07,190.88,0,4.4851e+07,50.63,14058,2091.4,0,2091.4,0,0.00021563,5.1499e-06,0,0.00020331,3.9913e-05,2.076e+07,7.8024e+05,0,1.4106e+07,5.7627e+05,2091.4,1
5396,1.79,12260,1,12260,1,0.00029518,8.9044e-07,0,0.00030394,-5.4754e-05,3.0803e+07,1.2683e+05,0,3.4409e+07,-1.56e+05,12259,15904,1,15904,1,0.00065542,3.3949e-05,0,0.00065542,1.4468e-05,5.2618e+07,6.3439e+06,0,5.2618e+07,10278,15903,12262,1,12262,1,0.0002901,2.737e-11,0,0.0002901,-5.3354e-05,3.8855e+07,2.5569,0,3.8855e+07,-2.4268,12261,8553,1,8553,1,-7.4715e-05,-1.8586e-05,0,9.1273e-07,-0.00012155,-3.0354e+07,-3.4358e+06,0,42318,-5.9444e+06,8552,10465,1,10465,1,0.0001077,-6.1137e-10,0,0.0001077,-8.7352e-05,2.2064e+07,-85.268,0,2.7194e+07,-16.633,10464,14059,1,14059,1,0.0004725,6.1763e-10,0,0.0004725,-1.947e-05,4.5103e+07,95.339,0,4.5103e+07,53.741,14058,2091.4,0,2091.4,0,0.00021684,5.1788e-06,0,0.00020445,4.0137e-05,2.0876e+07,7.8462e+05,0,1.4186e+07,5.7952e+05,2091.4,1
5396,1.8,12260,1,12260,1,0.00029683,8.9551e-07,0,0.00030563,-5.5059e-05,3.0975e+07,1.2754e+05,0,3.4601e+07,-1.5685e+05,12259,15904,1,15904,1,0.00065907,3.4137e-05,0,0.00065907,1.4549e-05,5.2911e+07,6.3789e+06,0,5.2911e+07,10329,15903,12262,1,12262,1,0.00029172,-1.028e-10,0,0.00029172,-5.3651e-05,3.9072e+07,-11.943,0,3.9072e+07,-2.1635,12261,8553,1,8553,1,-7.5131e-05,-1.8689e-05,0,9.1806e-07,-0.00012223,-3.0523e+07,-3.4549e+06,0,42575,-5.9773e+06,8552,10465,1,10465,1,0.0001083,-4.1869e-10,0,0.0001083,-8.7839e-05,2.2187e+07,-58.976,0,2.7346e+07,-19.103,10464,14059,1,14059,1,0.00047514,8.6675e-10,0,0.00047514,-1.9578e-05,4.5355e+07,137.29,0,4.5355e+07,54.014,14058,2091.4,0,2091.4,0,0.00021805,5.2075e-06,0,0.00020559,4.0361e-05,2.0993e+07,7.8897e+05,0,1.4265e+07,5.8273e+05,2091.4,1
5396,1.81,12260,1,12260,1,0.00029847,9.0043e-07,0,0.00030733,-5.5365e-05,3.1146e+07,1.2824e+05,0,3.4793e+07,-1.5772e+05,12259,15904,1,15904,1,0.00066273,3.4326e-05,0,0.00066273,1.463e-05,5.3205e+07,6.4142e+06,0,5.3205e+07,10422,15903,12262,1,12262,1,0.00029333,6.3068e-11,0,0.00029333,-5.3949e-05,3.9289e+07,5.9327,0,3.9289e+07,-3.0952,12261,8553,1,8553,1,-7.5548e-05,-1.8792e-05,0,9.2395e-07,-0.00012291,-3.0693e+07,-3.4739e+06,0,42982,-6.0105e+06,8552,10465,1,10465,1,0.0001089,-5.0902e-10,0,0.0001089,-8.8326e-05,2.231e+07,-76.79,0,2.7497e+07,-13.399,10464,14059,1,14059,1,0.00047777,7.1451e-10,0,0.00047777,-1.9687e-05,4.5606e+07,102.41,0,4.5606e+07,64.006,14058,2091.4,0,2091.4,0,0.00021926,5.2362e-06,0,0.00020673,4.0585e-05,2.1109e+07,7.9332e+05,0,1.4344e+07,5.8597e+05,2091.4,1
5396,1.82,12260,1,12260,1,0.00030013,9.0509e-07,0,0.00030903,-5.5672e-05,3.1319e+07,1.2891e+05,0,3.4986e+07,-1.5862e+05,12259,15904,1,15904,1,0.00066641,3.4517e-05,0,0.00066641,1.4711e-05,5.35e+07,6.4501e+06,0,5.35e+07,10435,15903,12262,1,12262,1,0.00029496,-3.7825e-10,0,0.00029496,-5.4248e-05,3.9507e+07,-50.5,0,3.9507e+07,-11.654,12261,8553,1,8553,1,-7.5967e-05,-1.8897e-05,0,9.2774e-07,-0.00012359,-3.0863e+07,-3.4933e+06,0,42961,-6.044e+06,8552,10465,1,10465,1,0.00010951,-8.907e-10,0,0.00010951,-8.8816e-05,2.2434e+07,-133.97,0,2.765e+07,-36.406,10464,14059,1,14059,1,0.00048042,4.2479e-10,0,0.00048042,-1.9796e-05,4.5859e+07,65.119,0,4.5859e+07,39.413,14058,2091.4,0,2091.4,0,0.00022048,5.2656e-06,0,0.00020788,4.0809e-05,2.1226e+07,7.9777e+05,0,1.4424e+07,5.8923e+05,2091.4,1
5396,1.83,12260,1,12260,1,0.00030178,9.1021e-07,0,0.00031073,-5.5978e-05,3.1491e+07,1.2964e+05,0,3.5178e+07,-1.5947e+05,12259,15904,1,15904,1,0.00067007,3.4711e-05,0,0.00067007,1.4792e-05,5.3794e+07,6.4858e+06,0,5.3794e+07,10534,15903,12262,1,12262,1,0.00029659,-1.1523e-11,0,0.00029659,-5.4547e-05,3.9724e+07,-0.85653,0,3.9724e+07,-8.6287,12261,8553,1,8553,1,-7.6385e-05,-1.9001e-05,0,9.3318e-07,-0.00012427,-3.1033e+07,-3.5125e+06,0,43172,-6.0771e+06,8552,10465,1,10465,1,0.00011011,-2.1537e-09,0,0.00011011,-8.9303e-05,2.2557e+07,-324.6,0,2.7802e+07,-50.642,10464,14059,1,14059,1,0.00048307,1.4576e-09,0,0.00048307,-1.9905e-05,4.6112e+07,215.4,0,4.6112e+07,80.015,14058,2091.4,0,2091.4,0,0.00022169,5.295e-06,0,0.00020902,4.1034e-05,2.1343e+07,8.0222e+05,0,1.4503e+07,5.9243e+05,2091.4,1
5396,1.84,12260,1,12260,1,0.00030342,9.1537e-07,0,0.00031243,-5.6283e-05,3.1663e+07,1.3037e+05,0,3.537e+07,-1.6034e+05,12259,15904,1,15904,1,0.00067372,3.4896e-05,0,0.00067372,1.4872e-05,5.4087e+07,6.5208e+06,0,5.4087e+07,10608,15903,12262,1,12262,1,0.0002982,8.0365e-11,0,0.0002982,-5.4844e-05,3.994e+07,7.3099,0,3.994e+07,-4.2899,12261,8553,1,8553,1,-7.6801e-05,-1.9104e-05,0,9.3884e-07,-0.00012494,-3.1201e+07,-3.5317e+06,0,43591,-6.1103e+06,8552,10465,1,10465,1,0.00011071,-9.8215e-10,0,0.00011071,-8.9791e-05,2.268e+07,-149.18,0,2.7953e+07,-22.917,10464,14059,1,14059,1,0.00048569,1.0701e-09,0,0.00048569,-2.0013e-05,4.6363e+07,164.1,0,4.6363e+07,69.824,14058,2091.4,0,2091.4,0,0.0002229,5.3232e-06,0,0.00021016,4.1257e-05,2.1459e+07,8.0651e+05,0,1.4582e+07,5.9569e+05,2091.4,1
5396,1.85,12260,1,12260,1,0.00030507,9.2029e-07,0,0.00031413,-5.6589e-05,3.1835e+07,1.3107e+05,0,3.5562e+07,-1.6122e+05,12259,15904,1,15904,1,0.00067739,3.5086e-05,0,0.00067739,1.4953e-05,5.4381e+07,6.5564e+06,0,5.4381e+07,10613,15903,12262,1,12262,1,0.00029982,-1.5551e-10,0,0.00029982,-5.5142e-05,4.0158e+07,-18.272,0,4.0158e+07,-3.1856,12261,8553,1,8553,1,-7.7219e-05,-1.9208e-05,0,9.4341e-07,-0.00012562,-3.1371e+07,-3.5509e+06,0,43782,-6.1436e+06,8552,10465,1,10465,1,0.00011131,-3.908e-10,0,0.00011131,-9.0279e-05,2.2803e+07,-59.791,0,2.8106e+07,-16.652,10464,14059,1,14059,1,0.00048834,8.2008e-10,0,0.00048834,-2.0122e-05,4.6615e+07,119.47,0,4.6615e+07,52.159,14058,2091.4,0,2091.4,0,0.00022411,5.3523e-06,0,0.0002113,4.1482e-05,2.1576e+07,8.1091e+05,0,1.4661e+07,5.9894e+05,2091.4,1
5396,1.86,12260,1,12260,1,0.00030672,9.2521e-07,0,0.00031583,-5.6895e-05,3.2008e+07,1.3178e+05,0,3.5755e+07,-1.621e+05,12259,15904,1,15904,1,0.00068106,3.5277e-05,0,0.00068106,1.5034e-05,5.4676e+07,6.5921e+06,0,5.4676e+07,10666,15903,12262,1,12262,1,0.00030145,-2.5521e-10,0,0.00030145,-5.5441e-05,4.0375e+07,-31.026,0,4.0375e+07,-4.975,12261,8553,1,8553,1,-7.7637e-05,-1.9313e-05,0,9.481e-07,-0.0001263,-3.1541e+07,-3.5702e+06,0,43869,-6.177e+06,8552,10465,1,10465,1,0.00011191,-8.6353e-10,0,0.00011191,-9.0768e-05,2.2927e+07,-126.26,0,2.8258e+07,-23.063,10464,14059,1,14059,1,0.00049098,7.1616e-10,0,0.00049098,-2.0231e-05,4.6867e+07,110.94,0,4.6867e+07,52.357,14058,2091.4,0,2091.4,0,0.00022533,5.3815e-06,0,0.00021245,4.1707e-05,2.1693e+07,8.1534e+05,0,1.4741e+07,6.0219e+05,2091.4,1
5396,1.87,12260,1,12260,1,0.00030837,9.3038e-07,0,0.00031753,-5.7201e-05,3.218e+07,1.3251e+05,0,3.5947e+07,-1.6297e+05,12259,15904,1,15904,1,0.00068471,3.5467e-05,0,0.00068471,1.5115e-05,5.497e+07,6.6277e+06,0,5.497e+07,10713,15903,12262,1,12262,1,0.00030307,-4.2064e-11,0,0.00030307,-5.5739e-05,4.0592e+07,-4.265,0,4.0592e+07,-2.4158,12261,8553,1,8553,1,-7.8054e-05,-1.9417e-05,0,9.5289e-07,-0.00012698,-3.1711e+07,-3.5895e+06,0,44010,-6.2103e+06,8552,10465,1,10465,1,0.00011251,-3.7629e-10,0,0.00011251,-9.1256e-05,2.305e+07,-56.451,0,2.841e+07,-29.138,10464,14059,1,14059,1,0.00049362,9.3734e-10,0,0.00049363,-2.034e-05,4.7119e+07,145.69,0,4.7119e+07,47.529,14058,2091.4,0,2091.4,0,0.00022654,5.4105e-06,0,0.00021359,4.1931e-05,2.1809e+07,8.1973e+05,0,1.482e+07,6.0543e+05,2091.4,1
5396,1.88,12260,1,12260,1,0.00031002,9.3532e-07,0,0.00031922,-5.7507e-05,3.2352e+07,1.3322e+05,0,3.6139e+07,-1.6385e+05,12259,15904,1,15904,1,0.00068838,3.5653e-05,0,0.00068838,1.5196e-05,5.5264e+07,6.6626e+06,0,5.5264e+07,10781,15903,12262,1,12262,1,0.00030469,3.1617e-10,0,0.00030469,-5.6037e-05,4.0809e+07,40.467,0,4.0809e+07,-4.2347,12261,8553,1,8553,1,-7.8472e-05,-1.9522e-05,0,9.5813e-07,-0.00012766,-3.188e+07,-3.6088e+06,0,44354,-6.2432e+06,8552,10465,1,10465,1,0.00011312,-2.6267e-10,0,0.00011312,-9.1744e-05,2.3173e+07,-33.997,0,2.8562e+07,-21.383,10464,14059,1,14059,1,0.00049626,1.1806e-09,0,0.00049626,-2.0449e-05,4.7371e+07,186.54,0,4.7371e+07,46.676,14058,2091.4,0,2091.4,0,0.00022775,5.439e-06,0,0.00021473,4.2155e-05,2.1926e+07,8.2404e+05,0,1.4899e+07,6.0866e+05,2091.4,1
5396,1.89,12260,1,12260,1,0.00031167,9.4008e-07,0,0.00032092,-5.7812e-05,3.2523e+07,1.3389e+05,0,3.6331e+07,-1.6469e+05,12259,15904,1,15904,1,0.00069203,3.5845e-05,0,0.00069203,1.5276e-05,5.5557e+07,6.6979e+06,0,5.5557e+07,10888,15903,12262,1,12262,1,0.0003063,-7.194e-11,0,0.0003063,-5.6334e-05,4.1026e+07,-6.4245,0,4.1026e+07,-5.3372,12261,8553,1,8553,1,-7.8888e-05,-1.9622e-05,0,9.6426e-07,-0.00012834,-3.205e+07,-3.6275e+06,0,44768,-6.2762e+06,8552,10465,1,10465,1,0.00011372,-1.4133e-09,0,0.00011372,-9.2231e-05,2.3296e+07,-213.87,0,2.8713e+07,-28.447,10464,14059,1,14059,1,0.00049889,8.7121e-10,0,0.00049889,-2.0557e-05,4.7623e+07,130.77,0,4.7623e+07,75.508,14058,2091.4,0,2091.4,0,0.00022896,5.468e-06,0,0.00021587,4.2379e-05,2.2042e+07,8.2843e+05,0,1.4978e+07,6.1185e+05,2091.4,1
5396,1.9,12260,1,12260,1,0.00031332,9.4539e-07,0,0.00032261,-5.8118e-05,3.2695e+07,1.3465e+05,0,3.6523e+07,-1.6557e+05,12259,15904,1,15904,1,0.00069569,3.6034e-05,0,0.00069569,1.5357e-05,5.5851e+07,6.7332e+06,0,5.5851e+07,10945,15903,12262,1,12262,1,0.00030792,2.2146e-10,0,0.00030792,-5.6632e-05,4.1243e+07,22.407,0,4.1243e+07,-5.7318,12261,8553,1,8553,1,-7.9305e-05,-1.9728e-05,0,9.6951e-07,-0.00012902,-3.2219e+07,-3.6469e+06,0,44978,-6.3095e+06,8552,10465,1,10465,1,0.00011432,-9.5457e-10,0,0.00011432,-9.2719e-05,2.3419e+07,-142.34,0,2.8865e+07,-27.49,10464,14059,1,14059,1,0.00050153,1.4032e-09,0,0.00050153,-2.0666e-05,4.7875e+07,215.71,0,4.7875e+07,74.232,14058,2091.4,0,2091.4,0,0.00023017,5.4967e-06,0,0.00021701,4.2603e-05,2.2159e+07,8.3279e+05,0,1.5057e+07,6.151e+05,2091.4,1
5396,1.91,12260,1,12260,1,0.00031497,9.5011e-07,0,0.00032432,-5.8425e-05,3.2868e+07,1.3532e+05,0,3.6716e+07,-1.6646e+05,12259,15904,1,15904,1,0.00069936,3.6224e-05,0,0.00069936,1.5438e-05,5.6145e+07,6.7692e+06,0,5.6145e+07,10945,15903,12262,1,12262,1,0.00030955,-1.6713e-10,0,0.00030955,-5.6931e-05,4.146e+07,-21.407,0,4.146e+07,-2.9394,12261,8553,1,8553,1,-7.9724e-05,-1.9832e-05,0,9.7369e-07,-0.0001297,-3.2389e+07,-3.6662e+06,0,45137,-6.3429e+06,8552,10465,1,10465,1,0.00011492,-5.9499e-10,0,0.00011492,-9.3208e-05,2.3543e+07,-80.95,0,2.9017e+07,-28.66,10464,14059,1,14059,1,0.00050418,8.157e-10,0,0.00050418,-2.0775e-05,4.8127e+07,129.26,0,4.8127e+07,46.935,14058,2091.4,0,2091.4,0,0.00023138,5.526e-06,0,0.00021816,4.2828e-05,2.2276e+07,8.3723e+05,0,1.5137e+07,6.1838e+05,2091.4,1
5396,1.92,12260,1,12260,1,0.00031662,9.5465e-07,0,0.00032601,-5.8731e-05,3.304e+07,1.3602e+05,0,3.6908e+07,-1.6734e+05,12259,15904,1,15904,1,0.00070302,3.6416e-05,0,0.00070302,1.5519e-05,5.6439e+07,6.8053e+06,0,5.6439e+07,13080,15903,12262,1,12262,1,0.00031117,1.2013e-10,0,0.00031117,-5.7229e-05,4.1677e+07,15.164,0,4.1677e+07,-7.3612,12261,8553,1,8553,1,-8.0141e-05,-1.9936e-05,0,9.7874e-07,-0.00013038,-3.2559e+07,-3.6854e+06,0,45242,-6.3759e+06,8552,10465,1,10465,1,0.00011552,-4.4214e-10,0,0.00011552,-9.3696e-05,2.3666e+07,-57.794,0,2.9169e+07,-31.484,10464,14059,1,14059,1,0.00050682,7.4945e-10,0,0.00050682,-2.0884e-05,4.8379e+07,120.02,0,4.8379e+07,46.888,14058,2091.4,0,2091.4,0,0.00023259,5.5544e-06,0,0.0002193,4.3052e-05,2.2392e+07,8.4165e+05,0,1.5216e+07,6.2156e+05,2091.4,1
5396,1.93,12260,1,12260,1,0.00031826,9.6016e-07,0,0.00032771,-5.9036e-05,3.3212e+07,1.3675e+05,0,3.71e+07,-1.6818e+05,12259,15904,1,15904,1,0.00070667,3.6602e-05,0,0.00070667,1.56e-05,5.6733e+07,6.8397e+06,0,5.6733e+07,11095,15903,12262,1,12262,1,0.00031279,-2.6141e-11,0,0.00031279,-5.7526e-05,4.1894e+07,-3.0986,0,4.1894e+07,-3.9177,12261,8553,1,8553,1,-8.0557e-05,-2.0039e-05,0,9.8449e-07,-0.00013106,-3.2728e+07,-3.7044e+06,0,45716,-6.409e+06,8552,10465,1,10465,1,0.00011612,-2.6317e-10,0,0.00011612,-9.4183e-05,2.3789e+07,-35.819,0,2.9321e+07,-19.862,10464,14059,1,14059,1,0.00050945,9.4852e-10,0,0.00050946,-2.0992e-05,4.863e+07,147.3,0,4.863e+07,56.852,14058,2091.4,0,2091.4,0,0.0002338,5.5835e-06,0,0.00022044,4.3276e-05,2.2509e+07,8.4594e+05,0,1.5295e+07,6.2482e+05,2091.4,1
5396,1.94,12260,1,12260,1,0.00031992,9.6513e-07,0,0.00032941,-5.9342e-05,3.3384e+07,1.3746e+05,0,3.7293e+07,-1.6906e+05,12259,15904,1,15904,1,0.00071034,3.6795e-05,0,0.00071034,1.5681e-05,5.7027e+07,6.8756e+06,0,5.7027e+07,11140,15903,12262,1,12262,1,0.00031441,-1.2507e-10,0,0.00031441,-5.7825e-05,4.2111e+07,-13.591,0,4.2111e+07,-4.1912,12261,8553,1,8553,1,-8.0976e-05,-2.0144e-05,0,9.8909e-07,-0.00013174,-3.2898e+07,-3.7238e+06,0,45783,-6.4425e+06,8552,10465,1,10465,1,0.00011673,-4.9818e-10,0,0.00011673,-9.4672e-05,2.3913e+07,-71.025,0,2.9473e+07,-16.992,10464,14059,1,14059,1,0.0005121,8.3434e-10,0,0.0005121,-2.1101e-05,4.8883e+07,128.68,0,4.8883e+07,59.687,14058,2091.4,0,2091.4,0,0.00023502,5.613e-06,0,0.00022158,4.35e-05,2.2626e+07,8.504e+05,0,1.5374e+07,6.2807e+05,2091.4,1
5396,1.95,12260,1,12260,1,0.00032156,9.7008e-07,0,0.0003311,-5.9647e-05,3.3556e+07,1.3816e+05,0,3.7484e+07,-1.6991e+05,12259,15904,1,15904,1,0.000714,3.6983e-05,0,0.000714,1.5761e-05,5.7321e+07,6.9104e+06,0,5.7321e+07,11238,15903,12262,1,12262,1,0.00031603,5.2026e-11,0,0.00031603,-5.8122e-05,4.2328e+07,3.8043,0,4.2328e+07,-6.0046,12261,8553,1,8553,1,-8.1392e-05,-2.0246e-05,0,9.9501e-07,-0.00013241,-3.3067e+07,-3.7427e+06,0,46201,-6.4752e+06,8552,10465,1,10465,1,0.00011733,-1.1985e-09,0,0.00011733,-9.5159e-05,2.4036e+07,-180.93,0,2.9624e+07,-30.966,10464,14059,1,14059,1,0.00051473,1.1863e-09,0,0.00051473,-2.121e-05,4.9134e+07,181.25,0,4.9134e+07,76.232,14058,2091.4,0,2091.4,0,0.00023623,5.6414e-06,0,0.00022272,4.3724e-05,2.2742e+07,8.5471e+05,0,1.5454e+07,6.3126e+05,2091.4,1
5396,1.96,12260,1,12260,1,0.00032321,9.751e-07,0,0.0003328,-5.9953e-05,3.3728e+07,1.3888e+05,0,3.7676e+07,-1.7079e+05,12259,15904,1,15904,1,0.00071766,3.7172e-05,0,0.00071766,1.5842e-05,5.7614e+07,6.9459e+06,0,5.7614e+07,11286,15903,12262,1,12262,1,0.00031765,6.2557e-11,0,0.00031765,-5.842e-05,4.2545e+07,5.9967,0,4.2545e+07,-4.0856,12261,8553,1,8553,1,-8.1809e-05,-2.0349e-05,0,1.0002e-06,-0.00013309,-3.3236e+07,-3.7618e+06,0,46476,-6.5085e+06,8552,10465,1,10465,1,0.00011793,-8.9267e-10,0,0.00011793,-9.5646e-05,2.4159e+07,-133.19,0,2.9776e+07,-23.061,10464,14059,1,14059,1,0.00051737,1.0355e-09,0,0.00051737,-2.1319e-05,4.9386e+07,156.15,0,4.9386e+07,75.076,14058,2091.4,0,2091.4,0,0.00023744,5.6703e-06,0,0.00022387,4.3948e-05,2.2859e+07,8.5909e+05,0,1.5533e+07,6.3452e+05,2091.4,1
5396,1.97,12260,1,12260,1,0.00032486,9.8024e-07,0,0.0003345,-6.026e-05,3.39e+07,1.3961e+05,0,3.7869e+07,-1.7167e+05,12259,15904,1,15904,1,0.00072133,3.7361e-05,0,0.00072133,1.5923e-05,5.7909e+07,6.9815e+06,0,5.7909e+07,11305,15903,12262,1,12262,1,0.00031927,1.7727e-10,0,0.00031927,-5.8719e-05,4.2763e+07,25.852,0,4.2763e+07,-4.8451,12261,8553,1,8553,1,-8.2228e-05,-2.0455e-05,0,1.0043e-06,-0.00013377,-3.3406e+07,-3.7814e+06,0,46512,-6.5418e+06,8552,10465,1,10465,1,0.00011853,-1.5927e-10,0,0.00011853,-9.6135e-05,2.4282e+07,-20.898,0,2.9929e+07,-20.078,10464,14059,1,14059,1,0.00052002,1.2123e-09,0,0.00052002,-2.1428e-05,4.9639e+07,191.69,0,4.9639e+07,57.477,14058,2091.4,0,2091.4,0,0.00023865,5.6994e-06,0,0.00022501,4.4173e-05,2.2976e+07,8.6349e+05,0,1.5612e+07,6.3776e+05,2091.4,1
5396,1.98,12260,1,12260,1,0.00032651,9.8506e-07,0,0.0003362,-6.0566e-05,3.4072e+07,1.403e+05,0,3.8061e+07,-1.7255e+05,12259,15904,1,15904,1,0.00072499,3.7552e-05,0,0.00072499,1.6004e-05,5.8203e+07,7.0172e+06,0,5.8203e+07,11362,15903,12262,1,12262,1,0.00032089,-7.8015e-12,0,0.00032089,-5.9017e-05,4.298e+07,-0.81109,0,4.298e+07,-4.971,12261,8553,1,8553,1,-8.2645e-05,-2.0558e-05,0,1.0098e-06,-0.00013445,-3.3576e+07,-3.8005e+06,0,46842,-6.5754e+06,8552,10465,1,10465,1,0.00011913,-5.4054e-10,0,0.00011913,-9.6624e-05,2.4406e+07,-76.493,0,3.0081e+07,-20.834,10464,14059,1,14059,1,0.00052266,9.3721e-10,0,0.00052266,-2.1536e-05,4.9891e+07,146.15,0,4.9891e+07,57.89,14058,2091.4,0,2091.4,0,0.00023986,5.7284e-06,0,0.00022615,4.4397e-05,2.3092e+07,8.679e+05,0,1.5691e+07,6.4104e+05,2091.4,1
5396,1.99,12260,1,12260,1,0.00032816,9.9002e-07,0,0.0003379,-6.0872e-05,3.4244e+07,1.4101e+05,0,3.8254e+07,-1.7342e+05,12259,15904,1,15904,1,0.00072865,3.7741e-05,0,0.00072865,1.6085e-05,5.8497e+07,7.0526e+06,0,5.8497e+07,11420,15903,12262,1,12262,1,0.00032251,2.2639e-11,0,0.00032251,-5.9315e-05,4.3197e+07,2.6279,0,4.3197e+07,-1.5503,12261,8553,1,8553,1,-8.3062e-05,-2.0663e-05,0,1.0149e-06,-0.00013513,-3.3745e+07,-3.8197e+06,0,47031,-6.6085e+06,8552,10465,1,10465,1,0.00011973,-4.4982e-10,0,0.00011973,-9.7112e-05,2.4529e+07,-61.531,0,3.0233e+07,-18.473,10464,14059,1,14059,1,0.0005253,7.7279e-10,0,0.0005253,-2.1645e-05,5.0142e+07,117.87,0,5.0142e+07,56.384,14058,2091.4,0,2091.4,0,0.00024107,5.7573e-06,0,0.00022729,4.4621e-05,2.3209e+07,8.7227e+05,0,1.5771e+07,6.4428e+05,2091.4,1
5396,2,12260,1,12260,1,0.00032981,9.9499e-07,0,0.00033959,-6.1177e-05,3.4416e+07,1.4171e+05,0,3.8446e+07,-1.7427e+05,12259,15904,1,15904,1,0.00073231,3.7933e-05,0,0.00073231,1.6165e-05,5.879e+07,7.0878e+06,0,5.879e+07,11531,15903,12262,1,12262,1,0.00032413,6.4226e-11,0,0.00032413,-5.9613e-05,4.3414e+07,5.0483,0,4.3414e+07,-5.6822,12261,8553,1,8553,1,-8.3479e-05,-2.0765e-05,0,1.0205e-06,-0.00013581,-3.3915e+07,-3.8387e+06,0,47344,-6.6412e+06,8552,10465,1,10465,1,0.00012033,-1.224e-09,0,0.00012033,-9.7599e-05,2.4652e+07,-184.11,0,3.0384e+07,-31.144,10464,14059,1,14059,1,0.00052793,1.329e-09,0,0.00052793,-2.1754e-05,5.0394e+07,201.86,0,5.0394e+07,80.869,14058,2091.4,0,2091.4,0,0.00024228,5.7863e-06,0,0.00022843,4.4845e-05,2.3325e+07,8.7665e+05,0,1.585e+07,6.4745e+05,2091.4,1
5396,2.01,12260,1,12260,1,0.00033146,1.0001e-06,0,0.0003413,-6.1483e-05,3.4589e+07,1.4243e+05,0,3.8638e+07,-1.7516e+05,12259,15904,1,15904,1,0.00073597,3.812e-05,0,0.00073597,1.6246e-05,5.9085e+07,7.1234e+06,0,5.9085e+07,11523,15903,12262,1,12262,1,0.00032575,-9.3773e-12,0,0.00032575,-5.9911e-05,4.3631e+07,-1.0124,0,4.3631e+07,-8.3704,12261,8553,1,8553,1,-8.3897e-05,-2.087e-05,0,1.0251e-06,-0.00013649,-3.4085e+07,-3.8582e+06,0,47530,-6.6749e+06,8552,10465,1,10465,1,0.00012094,-3.8518e-10,0,0.00012094,-9.8088e-05,2.4775e+07,-54.578,0,3.0536e+07,-21.005,10464,14059,1,14059,1,0.00053058,9.8433e-10,0,0.00053058,-2.1863e-05,5.0646e+07,155.29,0,5.0646e+07,53.058,14058,2091.4,0,2091.4,0,0.0002435,5.8152e-06,0,0.00022958,4.507e-05,2.3442e+07,8.8104e+05,0,1.5929e+07,6.5074e+05,2091.4,1
5396,2.02,12260,1,12260,1,0.00033311,1.005e-06,0,0.00034299,-6.1789e-05,3.476e+07,1.4313e+05,0,3.883e+07,-1.7601e+05,12259,15904,1,15904,1,0.00073963,3.8311e-05,0,0.00073963,1.6327e-05,5.9378e+07,7.1586e+06,0,5.9378e+07,11636,15903,12262,1,12262,1,0.00032737,2.0036e-10,0,0.00032737,-6.0209e-05,4.3848e+07,18.949,0,4.3848e+07,-5.1712,12261,8553,1,8553,1,-8.4314e-05,-2.0973e-05,0,1.0309e-06,-0.00013717,-3.4254e+07,-3.8771e+06,0,47864,-6.7077e+06,8552,10465,1,10465,1,0.00012154,-1.2821e-09,0,0.00012154,-9.8575e-05,2.4898e+07,-192.12,0,3.0688e+07,-33.261,10464,14059,1,14059,1,0.00053321,1.4808e-09,0,0.00053321,-2.1971e-05,5.0898e+07,220.71,0,5.0898e+07,83.913,14058,2091.4,0,2091.4,0,0.00024471,5.844e-06,0,0.00023072,4.5294e-05,2.3558e+07,8.854e+05,0,1.6008e+07,6.5393e+05,2091.4,1
5396,2.03,12260,1,12260,1,0.00033476,1.0099e-06,0,0.00034469,-6.2095e-05,3.4933e+07,1.4384e+05,0,3.9023e+07,-1.7691e+05,12259,15904,1,15904,1,0.0007433,3.85e-05,0,0.0007433,1.6408e-05,5.9673e+07,7.1946e+06,0,5.9673e+07,11650,15903,12262,1,12262,1,0.000329,-3.1877e-11,0,0.000329,-6.0507e-05,4.4065e+07,-3.9041,0,4.4065e+07,-3.5141,12261,8553,1,8553,1,-8.4732e-05,-2.1078e-05,0,1.0353e-06,-0.00013785,-3.4424e+07,-3.8966e+06,0,47961,-6.7416e+06,8552,10465,1,10465,1,0.00012214,-5.2744e-10,0,0.00012214,-9.9064e-05,2.5022e+07,-74.05,0,3.084e+07,-22.378,10464,14059,1,14059,1,0.00053586,8.4831e-10,0,0.00053586,-2.208e-05,5.115e+07,136.27,0,5.115e+07,55.121,14058,2091.4,0,2091.4,0,0.00024592,5.8732e-06,0,0.00023186,4.5518e-05,2.3675e+07,8.8983e+05,0,1.6088e+07,6.5726e+05,2091.4,1
5396,2.04,12260,1,12260,1,0.0003364,1.0149e-06,0,0.00034639,-6.2401e-05,3.5105e+07,1.4454e+05,0,3.9214e+07,-1.7776e+05,12259,15904,1,15904,1,0.00074695,3.8691e-05,0,0.00074695,1.6489e-05,5.9966e+07,7.2296e+06,0,5.9966e+07,11755,15903,12262,1,12262,1,0.00033061,8.9499e-11,0,0.00033061,-6.0805e-05,4.4282e+07,8.5014,0,4.4282e+07,-5.1284,12261,8553,1,8553,1,-8.5149e-05,-2.1181e-05,0,1.0407e-06,-0.00013853,-3.4593e+07,-3.9155e+06,0,48246,-6.7742e+06,8552,10465,1,10465,1,0.00012274,-1.1374e-09,0,0.00012274,-9.9551e-05,2.5145e+07,-172.07,0,3.0992e+07,-28.224,10464,14059,1,14059,1,0.00053849,1.2267e-09,0,0.00053849,-2.2189e-05,5.1402e+07,183.48,0,5.1402e+07,79.694,14058,2091.4,0,2091.4,0,0.00024713,5.902e-06,0,0.000233,4.5742e-05,2.3792e+07,8.9419e+05,0,1.6167e+07,6.6041e+05,2091.4,1
5396,2.05,12260,1,12260,1,0.00033805,1.0198e-06,0,0.00034808,-6.2706e-05,3.5277e+07,1.4525e+05,0,3.9407e+07,-1.7863e+05,12259,15904,1,15904,1,0.00075061,3.8881e-05,0,0.00075061,1.657e-05,6.026e+07,7.265e+06,0,6.026e+07,11808,15903,12262,1,12262,1,0.00033224,8.5478e-11,0,0.00033224,-6.1103e-05,4.4499e+07,6.7864,0,4.4499e+07,-7.1471,12261,8553,1,8553,1,-8.5566e-05,-2.1285e-05,0,1.046e-06,-0.0001392,-3.4763e+07,-3.9346e+06,0,48516,-6.8072e+06,8552,10465,1,10465,1,0.00012334,-1.5284e-09,0,0.00012334,-0.00010004,2.5268e+07,-229.92,0,3.1144e+07,-39.624,10464,14059,1,14059,1,0.00054113,1.4867e-09,0,0.00054113,-2.2298e-05,5.1654e+07,221.47,0,5.1654e+07,84.37,14058,2091.4,0,2091.4,0,0.00024834,5.931e-06,0,0.00023415,4.5966e-05,2.3908e+07,8.9857e+05,0,1.6246e+07,6.6364e+05,2091.4,1
5396,2.06,12260,1,12260,1,0.0003397,1.025e-06,0,0.00034978,-6.3012e-05,3.5449e+07,1.4598e+05,0,3.9599e+07,-1.795e+05,12259,15904,1,15904,1,0.00075428,3.9068e-05,0,0.00075428,1.665e-05,6.0554e+07,7.3004e+06,0,6.0554e+07,11897,15903,12262,1,12262,1,0.00033385,2.508e-10,0,0.00033385,-6.1401e-05,4.4716e+07,26.509,0,4.4716e+07,-4.598,12261,8553,1,8553,1,-8.5983e-05,-2.1388e-05,0,1.0515e-06,-0.00013988,-3.4932e+07,-3.9539e+06,0,48890,-6.8408e+06,8552,10465,1,10465,1,0.00012394,-8.4909e-10,0,0.00012394,-0.00010053,2.5391e+07,-127.78,0,3.1295e+07,-26.159,10464,14059,1,14059,1,0.00054376,1.4847e-09,0,0.00054377,-2.2406e-05,5.1906e+07,227.21,0,5.1906e+07,80.745,14058,2091.4,0,2091.4,0,0.00024955,5.9596e-06,0,0.00023529,4.619e-05,2.4025e+07,9.0292e+05,0,1.6325e+07,6.669e+05,2091.4,1
5396,2.07,12260,1,12260,1,0.00034135,1.0296e-06,0,0.00035148,-6.3318e-05,3.5621e+07,1.4665e+05,0,3.9791e+07,-1.8038e+05,12259,15904,1,15904,1,0.00075794,3.926e-05,0,0.00075794,1.6731e-05,6.0848e+07,7.3361e+06,0,6.0848e+07,11931,15903,12262,1,12262,1,0.00033548,-6.7081e-11,0,0.00033548,-6.1699e-05,4.4933e+07,-5.4782,0,4.4933e+07,-8.5622,12261,8553,1,8553,1,-8.6401e-05,-2.1492e-05,0,1.0561e-06,-0.00014056,-3.5102e+07,-3.973e+06,0,48997,-6.8741e+06,8552,10465,1,10465,1,0.00012455,-1.7293e-09,0,0.00012455,-0.00010101,2.5515e+07,-262.11,0,3.1447e+07,-37.175,10464,14059,1,14059,1,0.00054641,1.0985e-09,0,0.00054641,-2.2515e-05,5.2158e+07,165.94,0,5.2158e+07,81.211,14058,2091.4,0,2091.4,0,0.00025076,5.9889e-06,0,0.00023643,4.6415e-05,2.4142e+07,9.0735e+05,0,1.6405e+07,6.7013e+05,2091.4,1
5396,2.08,12260,1,12260,1,0.000343,1.0349e-06,0,0.00035318,-6.3624e-05,3.5793e+07,1.474e+05,0,3.9983e+07,-1.8123e+05,12259,15904,1,15904,1,0.0007616,3.9447e-05,0,0.0007616,1.6812e-05,6.1142e+07,7.3708e+06,0,6.1142e+07,11992,15903,12262,1,12262,1,0.0003371,2.6356e-10,0,0.0003371,-6.1997e-05,4.515e+07,25.352,0,4.515e+07,-6.117,12261,8553,1,8553,1,-8.6818e-05,-2.1596e-05,0,1.0617e-06,-0.00014124,-3.5271e+07,-3.9921e+06,0,49289,-6.9067e+06,8552,10465,1,10465,1,0.00012515,-1.3487e-09,0,0.00012515,-0.0001015,2.5638e+07,-198.97,0,3.1599e+07,-41.187,10464,14059,1,14059,1,0.00054905,1.8623e-09,0,0.00054905,-2.2624e-05,5.241e+07,279.83,0,5.241e+07,90.824,14058,2091.4,0,2091.4,0,0.00025197,6.0173e-06,0,0.00023757,4.6639e-05,2.4258e+07,9.1166e+05,0,1.6484e+07,6.7333e+05,2091.4,1
5396,2.09,12260,1,12260,1,0.00034465,1.0396e-06,0,0.00035488,-6.393e-05,3.5965e+07,1.4807e+05,0,4.0176e+07,-1.8215e+05,12259,15904,1,15904,1,0.00076526,3.9637e-05,0,0.00076526,1.6893e-05,6.1436e+07,7.4069e+06,0,6.1436e+07,11988,15903,12262,1,12262,1,0.00033872,-1.5362e-10,0,0.00033872,-6.2295e-05,4.5367e+07,-18.152,0,4.5367e+07,-4.6212,12261,8553,1,8553,1,-8.7236e-05,-2.17e-05,0,1.0656e-06,-0.00014192,-3.5441e+07,-4.0115e+06,0,49457,-6.9405e+06,8552,10465,1,10465,1,0.00012575,-5.81e-10,0,0.00012575,-0.00010199,2.5761e+07,-79.896,0,3.1752e+07,-25.287,10464,14059,1,14059,1,0.00055169,7.8703e-10,0,0.00055169,-2.2733e-05,5.2662e+07,121.67,0,5.2662e+07,52.801,14058,2091.4,0,2091.4,0,0.00025319,6.0465e-06,0,0.00023872,4.6863e-05,2.4375e+07,9.1609e+05,0,1.6563e+07,6.7666e+05,2091.4,1
5396,2.1,12260,1,12260,1,0.0003463,1.0448e-06,0,0.00035657,-6.4235e-05,3.6137e+07,1.488e+05,0,4.0368e+07,-1.8298e+05,12259,15904,1,15904,1,0.00076892,3.9826e-05,0,0.00076892,1.6974e-05,6.173e+07,7.4418e+06,0,6.173e+07,12091,15903,12262,1,12262,1,0.00034033,1.743e-10,0,0.00034033,-6.2593e-05,4.5584e+07,16.466,0,4.5584e+07,-5.8066,12261,8553,1,8553,1,-8.7652e-05,-2.1803e-05,0,1.0719e-06,-0.0001426,-3.561e+07,-4.0305e+06,0,49804,-6.9732e+06,8552,10465,1,10465,1,0.00012635,-1.1019e-09,0,0.00012635,-0.00010248,2.5884e+07,-163.32,0,3.1903e+07,-30.857,10464,14059,1,14059,1,0.00055432,1.2869e-09,0,0.00055432,-2.2841e-05,5.2914e+07,195.04,0,5.2914e+07,84.665,14058,2091.4,0,2091.4,0,0.0002544,6.0751e-06,0,0.00023986,4.7087e-05,2.4491e+07,9.2042e+05,0,1.6642e+07,6.7981e+05,2091.4,1
5396,2.11,12260,1,12260,1,0.00034795,1.0497e-06,0,0.00035827,-6.4542e-05,3.6309e+07,1.495e+05,0,4.056e+07,-1.8386e+05,12259,15904,1,15904,1,0.00077258,4.0018e-05,0,0.00077258,1.7054e-05,6.2024e+07,7.4774e+06,0,6.2024e+07,12161,15903,12262,1,12262,1,0.00034196,1.0043e-10,0,0.00034196,-6.2892e-05,4.5801e+07,8.1728,0,4.5801e+07,-6.9666,12261,8553,1,8553,1,-8.807e-05,-2.1907e-05,0,1.0767e-06,-0.00014328,-3.578e+07,-4.0497e+06,0,49948,-7.0065e+06,8552,10465,1,10465,1,0.00012695,-1.6624e-09,0,0.00012695,-0.00010297,2.6008e+07,-248.65,0,3.2055e+07,-39.042,10464,14059,1,14059,1,0.00055697,1.4505e-09,0,0.00055697,-2.295e-05,5.3166e+07,217.1,0,5.3166e+07,88.437,14058,2091.4,0,2091.4,0,0.00025561,6.1044e-06,0,0.000241,4.7312e-05,2.4608e+07,9.2485e+05,0,1.6722e+07,6.8305e+05,2091.4,1
5396,2.12,12260,1,12260,1,0.0003496,1.0547e-06,0,0.00035997,-6.4848e-05,3.6481e+07,1.5021e+05,0,4.0752e+07,-1.8473e+05,12259,15904,1,15904,1,0.00077624,4.0209e-05,0,0.00077624,1.7135e-05,6.2318e+07,7.5133e+06,0,6.2318e+07,12227,15903,12262,1,12262,1,0.00034358,1.0112e-10,0,0.00034358,-6.319e-05,4.6019e+07,8.3408,0,4.6019e+07,-7.5541,12261,8553,1,8553,1,-8.8488e-05,-2.2012e-05,0,1.0815e-06,-0.00014396,-3.595e+07,-4.0691e+06,0,50146,-7.0401e+06,8552,10465,1,10465,1,0.00012755,-1.5487e-09,0,0.00012756,-0.00010345,2.6131e+07,-231.58,0,3.2207e+07,-38.406,10464,14059,1,14059,1,0.00055961,1.5742e-09,0,0.00055961,-2.3059e-05,5.3418e+07,238.36,0,5.3418e+07,81.847,14058,2091.4,0,2091.4,0,0.00025682,6.1336e-06,0,0.00024214,4.7536e-05,2.4725e+07,9.2927e+05,0,1.6801e+07,6.8632e+05,2091.4,1
5396,2.13,12260,1,12260,1,0.00035124,1.0596e-06,0,0.00036167,-6.5153e-05,3.6653e+07,1.5092e+05,0,4.0944e+07,-1.856e+05,12259,15904,1,15904,1,0.0007799,4.0396e-05,0,0.0007799,1.7216e-05,6.2612e+07,7.5485e+06,0,6.2612e+07,12275,15903,12262,1,12262,1,0.0003452,7.7305e-11,0,0.0003452,-6.3487e-05,4.6235e+07,6.3505,0,4.6235e+07,-5.6171,12261,8553,1,8553,1,-8.8905e-05,-2.2115e-05,0,1.0872e-06,-0.00014464,-3.6119e+07,-4.0882e+06,0,50539,-7.0731e+06,8552,10465,1,10465,1,0.00012816,-1.4185e-09,0,0.00012816,-0.00010394,2.6254e+07,-213.86,0,3.2359e+07,-32.285,10464,14059,1,14059,1,0.00056224,1.2729e-09,0,0.00056224,-2.3168e-05,5.367e+07,192.3,0,5.367e+07,84.964,14058,2091.4,0,2091.4,0,0.00025803,6.1622e-06,0,0.00024328,4.776e-05,2.4841e+07,9.3361e+05,0,1.688e+07,6.8955e+05,2091.4,1
5396,2.14,12260,1,12260,1,0.00035289,1.0648e-06,0,0.00036336,-6.5459e-05,3.6825e+07,1.5165e+05,0,4.1137e+07,-1.8647e+05,12259,15904,1,15904,1,0.00078357,4.0585e-05,0,0.00078357,1.7297e-05,6.2906e+07,7.5837e+06,0,6.2906e+07,12337,15903,12262,1,12262,1,0.00034682,2.0435e-10,0,0.00034682,-6.3786e-05,4.6452e+07,19.379,0,4.6452e+07,-5.9623,12261,8553,1,8553,1,-8.9322e-05,-2.2219e-05,0,1.0922e-06,-0.00014532,-3.6289e+07,-4.1074e+06,0,50715,-7.1064e+06,8552,10465,1,10465,1,0.00012876,-1.1852e-09,0,0.00012876,-0.00010443,2.6377e+07,-174.95,0,3.2511e+07,-32.716,10464,14059,1,14059,1,0.00056488,1.4249e-09,0,0.00056488,-2.3277e-05,5.3922e+07,216.77,0,5.3922e+07,85.509,14058,2091.4,0,2091.4,0,0.00025924,6.191e-06,0,0.00024442,4.7984e-05,2.4958e+07,9.3798e+05,0,1.6959e+07,6.9279e+05,2091.4,1
5396,2.15,12260,1,12260,1,0.00035455,1.0696e-06,0,0.00036507,-6.5766e-05,3.6998e+07,1.5235e+05,0,4.1329e+07,-1.8736e+05,12259,15904,1,15904,1,0.00078723,4.0776e-05,0,0.00078723,1.7378e-05,6.32e+07,7.6196e+06,0,6.32e+07,12328,15903,12262,1,12262,1,0.00034844,-9.9623e-12,0,0.00034844,-6.4084e-05,4.667e+07,-0.9185,0,4.667e+07,-3.9544,12261,8553,1,8553,1,-8.9741e-05,-2.2324e-05,0,1.096e-06,-0.000146,-3.6459e+07,-4.1268e+06,0,50694,-7.1397e+06,8552,10465,1,10465,1,0.00012936,-9.3274e-10,0,0.00012936,-0.00010492,2.6501e+07,-133.21,0,3.2663e+07,-24.709,10464,14059,1,14059,1,0.00056753,9.9727e-10,0,0.00056753,-2.3386e-05,5.4174e+07,155.56,0,5.4174e+07,58.167,14058,2091.4,0,2091.4,0,0.00026046,6.2204e-06,0,0.00024557,4.8209e-05,2.5075e+07,9.4243e+05,0,1.7039e+07,6.9606e+05,2091.4,1
5396,2.16,12260,1,12260,1,0.00035619,1.0746e-06,0,0.00036676,-6.6071e-05,3.7169e+07,1.5305e+05,0,4.1521e+07,-1.8821e+05,12259,15904,1,15904,1,0.00079089,4.0966e-05,0,0.00079089,1.7459e-05,6.3494e+07,7.6546e+06,0,6.3494e+07,12442,15903,12262,1,12262,1,0.00035006,6.6089e-11,0,0.00035006,-6.4382e-05,4.6886e+07,5.2773,0,4.6886e+07,-5.3354,12261,8553,1,8553,1,-9.0157e-05,-2.2426e-05,0,1.1023e-06,-0.00014667,-3.6628e+07,-4.1457e+06,0,51124,-7.1724e+06,8552,10465,1,10465,1,0.00012996,-1.2981e-09,0,0.00012996,-0.00010541,2.6624e+07,-192.96,0,3.2815e+07,-31.986,10464,14059,1,14059,1,0.00057016,1.2682e-09,0,0.00057016,-2.3494e-05,5.4426e+07,191.74,0,5.4426e+07,89.537,14058,2091.4,0,2091.4,0,0.00026166,6.249e-06,0,0.00024671,4.8433e-05,2.5191e+07,9.4676e+05,0,1.7118e+07,6.9924e+05,2091.4,1
5396,2.17,12260,1,12260,1,0.00035784,1.0799e-06,0,0.00036846,-6.6378e-05,3.7342e+07,1.538e+05,0,4.1714e+07,-1.8909e+05,12259,15904,1,15904,1,0.00079456,4.1158e-05,0,0.00079456,1.754e-05,6.3788e+07,7.6906e+06,0,6.3788e+07,12513,15903,12262,1,12262,1,0.00035169,3.2421e-10,0,0.00035169,-6.4681e-05,4.7104e+07,31.616,0,4.7104e+07,-8.17,12261,8553,1,8553,1,-9.0576e-05,-2.2533e-05,0,1.1072e-06,-0.00014735,-3.6798e+07,-4.1654e+06,0,51301,-7.2061e+06,8552,10465,1,10465,1,0.00013056,-1.5985e-09,0,0.00013056,-0.0001059,2.6747e+07,-240.16,0,3.2967e+07,-45.222,10464,14059,1,14059,1,0.00057281,2.1806e-09,0,0.00057281,-2.3603e-05,5.4679e+07,331.51,0,5.4679e+07,89.406,14058,2091.4,0,2091.4,0,0.00026288,6.2784e-06,0,0.00024785,4.8657e-05,2.5308e+07,9.5121e+05,0,1.7197e+07,7.0252e+05,2091.4,1
5396,2.18,12260,1,12260,1,0.00035949,1.0845e-06,0,0.00037016,-6.6683e-05,3.7514e+07,1.5446e+05,0,4.1905e+07,-1.8997e+05,12259,15904,1,15904,1,0.00079821,4.1342e-05,0,0.00079821,1.762e-05,6.4081e+07,7.7256e+06,0,6.4081e+07,12515,15903,12262,1,12262,1,0.0003533,-3.0344e-11,0,0.0003533,-6.4977e-05,4.732e+07,-3.1307,0,4.732e+07,-5.7218,12261,8553,1,8553,1,-9.0992e-05,-2.2633e-05,0,1.1123e-06,-0.00014803,-3.6967e+07,-4.1841e+06,0,51686,-7.2393e+06,8552,10465,1,10465,1,0.00013116,-3.8716e-10,0,0.00013116,-0.00010638,2.687e+07,-55.861,0,3.3119e+07,-14.182,10464,14059,1,14059,1,0.00057544,8.8728e-10,0,0.00057544,-2.3711e-05,5.4929e+07,135.13,0,5.4929e+07,64.512,14058,2091.4,0,2091.4,0,0.00026409,6.3067e-06,0,0.00024899,4.8881e-05,2.5424e+07,9.555e+05,0,1.7276e+07,7.0576e+05,2091.4,1
5396,2.19,12260,1,12260,1,0.00036114,1.0895e-06,0,0.00037186,-6.6989e-05,3.7686e+07,1.5517e+05,0,4.2098e+07,-1.9084e+05,12259,15904,1,15904,1,0.00080187,4.1534e-05,0,0.00080187,1.7701e-05,6.4375e+07,7.7611e+06,0,6.4375e+07,12625,15903,12262,1,12262,1,0.00035492,9.0174e-11,0,0.00035492,-6.5276e-05,4.7538e+07,7.3594,0,4.7538e+07,-6.4217,12261,8553,1,8553,1,-9.1409e-05,-2.2738e-05,0,1.1176e-06,-0.00014871,-3.7137e+07,-4.2034e+06,0,51925,-7.2725e+06,8552,10465,1,10465,1,0.00013177,-1.5898e-09,0,0.00013177,-0.00010687,2.6994e+07,-239.93,0,3.327e+07,-38.1,10464,14059,1,14059,1,0.00057808,1.5397e-09,0,0.00057808,-2.382e-05,5.5182e+07,233.53,0,5.5182e+07,88.115,14058,2091.4,0,2091.4,0,0.0002653,6.3358e-06,0,0.00025014,4.9105e-05,2.5541e+07,9.5992e+05,0,1.7356e+07,7.09e+05,2091.4,1
5396,2.2,12260,1,12260,1,0.00036279,1.0945e-06,0,0.00037355,-6.7294e-05,3.7858e+07,1.5589e+05,0,4.229e+07,-1.9169e+05,12259,15904,1,15904,1,0.00080553,4.1723e-05,0,0.00080553,1.7782e-05,6.4669e+07,7.7963e+06,0,6.4669e+07,12695,15903,12262,1,12262,1,0.00035654,1.3116e-10,0,0.00035654,-6.5574e-05,4.7755e+07,12.275,0,4.7755e+07,-6.6783,12261,8553,1,8553,1,-9.1826e-05,-2.2842e-05,0,1.123e-06,-0.00014939,-3.7306e+07,-4.2225e+06,0,52189,-7.3053e+06,8552,10465,1,10465,1,0.00013237,-1.4973e-09,0,0.00013237,-0.00010736,2.7117e+07,-223.99,0,3.3422e+07,-40.044,10464,14059,1,14059,1,0.00058072,1.7253e-09,0,0.00058072,-2.3929e-05,5.5434e+07,261.35,0,5.5434e+07,90.746,14058,2091.4,0,2091.4,0,0.00026651,6.3646e-06,0,0.00025128,4.9329e-05,2.5658e+07,9.6427e+05,0,1.7435e+07,7.122e+05,2091.4,1
5396,2.21,12260,1,12260,1,0.00036444,1.0995e-06,0,0.00037525,-6.7601e-05,3.803e+07,1.566e+05,0,4.2482e+07,-1.9257e+05,12259,15904,1,15904,1,0.0008092,4.1916e-05,0,0.0008092,1.7863e-05,6.4963e+07,7.8323e+06,0,6.4963e+07,12755,15903,12262,1,12262,1,0.00035817,8.8274e-11,0,0.00035817,-6.5872e-05,4.7972e+07,7.9309,0,4.7972e+07,-5.9471,12261,8553,1,8553,1,-9.2244e-05,-2.2946e-05,0,1.1277e-06,-0.00015007,-3.7476e+07,-4.2418e+06,0,52340,-7.3387e+06,8552,10465,1,10465,1,0.00013297,-1.4317e-09,0,0.00013297,-0.00010785,2.724e+07,-214.07,0,3.3574e+07,-36.237,10464,14059,1,14059,1,0.00058336,1.6047e-09,0,0.00058336,-2.4038e-05,5.5686e+07,242.31,0,5.5686e+07,92.001,14058,2091.4,0,2091.4,0,0.00026772,6.394e-06,0,0.00025242,4.9554e-05,2.5774e+07,9.6872e+05,0,1.7514e+07,7.1545e+05,2091.4,1
5396,2.22,12260,1,12260,1,0.00036609,1.1044e-06,0,0.00037695,-6.7906e-05,3.8202e+07,1.573e+05,0,4.2674e+07,-1.9343e+05,12259,15904,1,15904,1,0.00081286,4.2104e-05,0,0.00081286,1.7944e-05,6.5257e+07,7.8673e+06,0,6.5257e+07,12797,15903,12262,1,12262,1,0.00035979,4.7986e-11,0,0.00035979,-6.617e-05,4.8189e+07,4.158,0,4.8189e+07,-8.8112,12261,8553,1,8553,1,-9.2661e-05,-2.3049e-05,0,1.1329e-06,-0.00015075,-3.7645e+07,-4.261e+06,0,52554,-7.3717e+06,8552,10465,1,10465,1,0.00013357,-1.4492e-09,0,0.00013357,-0.00010833,2.7363e+07,-216.3,0,3.3726e+07,-37.295,10464,14059,1,14059,1,0.000586,1.3845e-09,0,0.000586,-2.4147e-05,5.5938e+07,210.88,0,5.5938e+07,85.808,14058,2091.4,0,2091.4,0,0.00026893,6.4227e-06,0,0.00025356,4.9778e-05,2.5891e+07,9.7307e+05,0,1.7593e+07,7.1866e+05,2091.4,1
5396,2.23,12260,1,12260,1,0.00036773,1.1095e-06,0,0.00037865,-6.8212e-05,3.8374e+07,1.5802e+05,0,4.2867e+07,-1.9431e+05,12259,15904,1,15904,1,0.00081652,4.2293e-05,0,0.00081652,1.8024e-05,6.5551e+07,7.9028e+06,0,6.5551e+07,12841,15903,12262,1,12262,1,0.00036141,1.7615e-10,0,0.00036141,-6.6468e-05,4.8406e+07,17.212,0,4.8406e+07,-7.4501,12261,8553,1,8553,1,-9.3079e-05,-2.3154e-05,0,1.1379e-06,-0.00015143,-3.7815e+07,-4.2802e+06,0,52781,-7.405e+06,8552,10465,1,10465,1,0.00013417,-1.4337e-09,0,0.00013417,-0.00010882,2.7487e+07,-212.02,0,3.3878e+07,-38.123,10464,14059,1,14059,1,0.00058864,1.5735e-09,0,0.00058864,-2.4256e-05,5.619e+07,234.62,0,5.619e+07,91.508,14058,2091.4,0,2091.4,0,0.00027014,6.4515e-06,0,0.0002547,5.0002e-05,2.6008e+07,9.7745e+05,0,1.7673e+07,7.2192e+05,2091.4,1
5396,2.24,12260,1,12260,1,0.00036938,1.1144e-06,0,0.00038035,-6.8518e-05,3.8546e+07,1.5872e+05,0,4.3059e+07,-1.9518e+05,12259,15904,1,15904,1,0.00082018,4.2483e-05,0,0.00082018,1.8105e-05,6.5845e+07,7.9382e+06,0,6.5845e+07,12916,15903,12262,1,12262,1,0.00036303,1.6934e-10,0,0.00036303,-6.6766e-05,4.8623e+07,16.413,0,4.8623e+07,-6.361,12261,8553,1,8553,1,-9.3496e-05,-2.3257e-05,0,1.1428e-06,-0.00015211,-3.7984e+07,-4.2994e+06,0,53011,-7.4381e+06,8552,10465,1,10465,1,0.00013477,-1.4106e-09,0,0.00013477,-0.00010931,2.761e+07,-210.7,0,3.403e+07,-37.475,10464,14059,1,14059,1,0.00059128,1.7202e-09,0,0.00059128,-2.4364e-05,5.6442e+07,259.52,0,5.6442e+07,90.503,14058,2091.4,0,2091.4,0,0.00027136,6.4805e-06,0,0.00025585,5.0226e-05,2.6124e+07,9.8183e+05,0,1.7752e+07,7.2514e+05,2091.4,1
5396,2.25,12260,1,12260,1,0.00037103,1.1193e-06,0,0.00038204,-6.8824e-05,3.8718e+07,1.5941e+05,0,4.3251e+07,-1.9605e+05,12259,15904,1,15904,1,0.00082384,4.2674e-05,0,0.00082384,1.8186e-05,6.6139e+07,7.9738e+06,0,6.6139e+07,12976,15903,12262,1,12262,1,0.00036465,-4.4903e-12,0,0.00036465,-6.7065e-05,4.884e+07,-0.27787,0,4.884e+07,-7.2008,12261,8553,1,8553,1,-9.3914e-05,-2.3361e-05,0,1.1477e-06,-0.00015279,-3.8154e+07,-4.3186e+06,0,53197,-7.4713e+06,8552,10465,1,10465,1,0.00013538,-1.7395e-09,0,0.00013538,-0.0001098,2.7733e+07,-262.66,0,3.4182e+07,-37.51,10464,14059,1,14059,1,0.00059392,1.4155e-09,0,0.00059392,-2.4473e-05,5.6694e+07,214.9,0,5.6694e+07,89.812,14058,2091.4,0,2091.4,0,0.00027257,6.5097e-06,0,0.00025699,5.0451e-05,2.6241e+07,9.8625e+05,0,1.7831e+07,7.2838e+05,2091.4,1
5396,2.26,12260,1,12260,1,0.00037268,1.1243e-06,0,0.00038374,-6.913e-05,3.889e+07,1.6013e+05,0,4.3443e+07,-1.9692e+05,12259,15904,1,15904,1,0.0008275,4.2862e-05,0,0.0008275,1.8267e-05,6.6433e+07,8.0091e+06,0,6.6433e+07,13022,15903,12262,1,12262,1,0.00036627,1.1587e-10,0,0.00036627,-6.7362e-05,4.9057e+07,10.701,0,4.9057e+07,-5.5925,12261,8553,1,8553,1,-9.4331e-05,-2.3465e-05,0,1.1536e-06,-0.00015346,-3.8324e+07,-4.3378e+06,0,53589,-7.5047e+06,8552,10465,1,10465,1,0.00013598,-1.3606e-09,0,0.00013598,-0.00011029,2.7856e+07,-201.59,0,3.4334e+07,-35.172,10464,14059,1,14059,1,0.00059656,1.4833e-09,0,0.00059656,-2.4582e-05,5.6945e+07,221.15,0,5.6945e+07,92.833,14058,2091.4,0,2091.4,0,0.00027378,6.5383e-06,0,0.00025813,5.0675e-05,2.6357e+07,9.9059e+05,0,1.791e+07,7.3163e+05,2091.4,1
5396,2.27,12260,1,12260,1,0.00037434,1.1293e-06,0,0.00038544,-6.9437e-05,3.9063e+07,1.6084e+05,0,4.3636e+07,-1.9783e+05,12259,15904,1,15904,1,0.00083118,4.3054e-05,0,0.00083118,1.8348e-05,6.6728e+07,8.0454e+06,0,6.6728e+07,13031,15903,12262,1,12262,1,0.00036789,-8.4555e-11,0,0.00036789,-6.7661e-05,4.9275e+07,-8.772,0,4.9275e+07,-5.7142,12261,8553,1,8553,1,-9.475e-05,-2.357e-05,0,1.1579e-06,-0.00015415,-3.8494e+07,-4.3572e+06,0,53697,-7.539e+06,8552,10465,1,10465,1,0.00013658,-9.9576e-10,0,0.00013658,-0.00011078,2.798e+07,-147.57,0,3.4486e+07,-16.355,10464,14059,1,14059,1,0.00059921,8.7476e-10,0,0.00059921,-2.4691e-05,5.7198e+07,135.55,0,5.7198e+07,68.578,14058,2091.4,0,2091.4,0,0.00027499,6.5678e-06,0,0.00025928,5.09e-05,2.6474e+07,9.9507e+05,0,1.799e+07,7.3497e+05,2091.4,1
5396,2.28,12260,1,12260,1,0.00037598,1.1341e-06,0,0.00038714,-6.9741e-05,3.9234e+07,1.6153e+05,0,4.3828e+07,-1.9868e+05,12259,15904,1,15904,1,0.00083483,4.3239e-05,0,0.00083483,1.8428e-05,6.7021e+07,8.08e+06,0,6.7021e+07,13091,15903,12262,1,12262,1,0.00036951,-2.0296e-10,0,0.00036951,-6.7958e-05,4.9491e+07,-25.053,0,4.9491e+07,-2.2172,12261,8553,1,8553,1,-9.5166e-05,-2.3671e-05,0,1.1633e-06,-0.00015482,-3.8663e+07,-4.376e+06,0,54076,-7.5714e+06,8552,10465,1,10465,1,0.00013718,-6.3487e-10,0,0.00013718,-0.00011126,2.8103e+07,-90.764,0,3.4638e+07,-17.087,10464,14059,1,14059,1,0.00060184,7.1572e-10,0,0.00060184,-2.4799e-05,5.7449e+07,111.32,0,5.7449e+07,69.046,14058,2091.4,0,2091.4,0,0.0002762,6.596e-06,0,0.00026041,5.1123e-05,2.6591e+07,9.9933e+05,0,1.8069e+07,7.3813e+05,2091.4,1
5396,2.29,12260,1,12260,1,0.00037763,1.1392e-06,0,0.00038884,-7.0048e-05,3.9407e+07,1.6225e+05,0,4.402e+07,-1.9957e+05,12259,15904,1,15904,1,0.0008385,4.3432e-05,0,0.0008385,1.8509e-05,6.7315e+07,8.116e+06,0,6.7315e+07,13151,15903,12262,1,12262,1,0.00037113,-1.4962e-10,0,0.00037113,-6.8257e-05,4.9709e+07,-16.429,0,4.9709e+07,-3.9736,12261,8553,1,8553,1,-9.5584e-05,-2.3777e-05,0,1.1682e-06,-0.0001555,-3.8833e+07,-4.3954e+06,0,54228,-7.6051e+06,8552,10465,1,10465,1,0.00013778,-8.1588e-10,0,0.00013778,-0.00011175,2.8226e+07,-115.67,0,3.479e+07,-20.526,10464,14059,1,14059,1,0.00060449,9.4995e-10,0,0.00060449,-2.4908e-05,5.7702e+07,148.5,0,5.7702e+07,64.827,14058,2091.4,0,2091.4,0,0.00027742,6.6254e-06,0,0.00026156,5.1348e-05,2.6708e+07,1.0038e+06,0,1.8148e+07,7.4142e+05,2091.4,1
5396,2.3,12260,1,12260,1,0.00037928,1.1442e-06,0,0.00039053,-7.0353e-05,3.9578e+07,1.6297e+05,0,4.4212e+07,-2.0041e+05,12259,15904,1,15904,1,0.00084215,4.362e-05,0,0.00084215,1.859e-05,6.7609e+07,8.1508e+06,0,6.7609e+07,13248,15903,12262,1,12262,1,0.00037275,1.3213e-10,0,0.00037275,-6.8554e-05,4.9925e+07,12.115,0,4.9925e+07,-5.2494,12261,8553,1,8553,1,-9.6e-05,-2.388e-05,0,1.174e-06,-0.00015618,-3.9002e+07,-4.4145e+06,0,54548,-7.6377e+06,8552,10465,1,10465,1,0.00013838,-1.417e-09,0,0.00013838,-0.00011224,2.8349e+07,-211.01,0,3.4941e+07,-39.123,10464,14059,1,14059,1,0.00060712,1.6953e-09,0,0.00060712,-2.5017e-05,5.7953e+07,255.23,0,5.7953e+07,95.846,14058,2091.4,0,2091.4,0,0.00027862,6.6539e-06,0,0.0002627,5.1572e-05,2.6824e+07,1.0081e+06,0,1.8227e+07,7.4459e+05,2091.4,1
5396,2.31,12260,1,12260,1,0.00038093,1.1492e-06,0,0.00039223,-7.066e-05,3.9751e+07,1.6368e+05,0,4.4405e+07,-2.0129e+05,12259,15904,1,15904,1,0.00084581,4.3809e-05,0,0.00084581,1.8671e-05,6.7903e+07,8.1864e+06,0,6.7903e+07,13259,15903,12262,1,12262,1,0.00037437,1.567e-11,0,0.00037437,-6.8853e-05,5.0143e+07,1.4467,0,5.0143e+07,-1.3827,12261,8553,1,8553,1,-9.6419e-05,-2.3984e-05,0,1.178e-06,-0.00015686,-3.9172e+07,-4.4338e+06,0,54647,-7.6709e+06,8552,10465,1,10465,1,0.00013899,-3.8769e-10,0,0.00013899,-0.00011273,2.8473e+07,-54.49,0,3.5094e+07,-27.554,10464,14059,1,14059,1,0.00060976,9.6571e-10,0,0.00060976,-2.5126e-05,5.8205e+07,148.4,0,5.8205e+07,68.043,14058,2091.4,0,2091.4,0,0.00027984,6.683e-06,0,0.00026384,5.1796e-05,2.6941e+07,1.0125e+06,0,1.8307e+07,7.4785e+05,2091.4,1
5396,2.32,12260,1,12260,1,0.00038258,1.1543e-06,0,0.00039393,-7.0965e-05,3.9923e+07,1.644e+05,0,4.4597e+07,-2.0215e+05,12259,15904,1,15904,1,0.00084947,4.4e-05,0,0.00084947,1.8752e-05,6.8197e+07,8.2218e+06,0,6.8197e+07,13378,15903,12262,1,12262,1,0.00037599,2.2445e-10,0,0.00037599,-6.9151e-05,5.036e+07,21.469,0,5.036e+07,-6.4006,12261,8553,1,8553,1,-9.6835e-05,-2.4088e-05,0,1.184e-06,-0.00015754,-3.9341e+07,-4.453e+06,0,54933,-7.7039e+06,8552,10465,1,10465,1,0.00013959,-1.3648e-09,0,0.00013959,-0.00011321,2.8596e+07,-204.78,0,3.5245e+07,-35.961,10464,14059,1,14059,1,0.0006124,1.706e-09,0,0.0006124,-2.5234e-05,5.8457e+07,255.06,0,5.8457e+07,94.098,14058,2091.4,0,2091.4,0,0.00028105,6.7119e-06,0,0.00026498,5.202e-05,2.7057e+07,1.0169e+06,0,1.8386e+07,7.5105e+05,2091.4,1
5396,2.33,12260,1,12260,1,0.00038422,1.159e-06,0,0.00039563,-7.1271e-05,4.0095e+07,1.6508e+05,0,4.4789e+07,-2.0302e+05,12259,15904,1,15904,1,0.00085314,4.4189e-05,0,0.00085314,1.8833e-05,6.8491e+07,8.2571e+06,0,6.8491e+07,13422,15903,12262,1,12262,1,0.00037761,2.9454e-11,0,0.00037761,-6.9449e-05,5.0577e+07,2.1969,0,5.0577e+07,-6.9619,12261,8553,1,8553,1,-9.7253e-05,-2.4191e-05,0,1.189e-06,-0.00015822,-3.9511e+07,-4.4721e+06,0,55179,-7.7371e+06,8552,10465,1,10465,1,0.00014019,-1.6581e-09,0,0.00014019,-0.0001137,2.8719e+07,-249.39,0,3.5397e+07,-37.65,10464,14059,1,14059,1,0.00061504,1.3895e-09,0,0.00061504,-2.5343e-05,5.8709e+07,210.41,0,5.8709e+07,94.422,14058,2091.4,0,2091.4,0,0.00028226,6.7408e-06,0,0.00026613,5.2244e-05,2.7174e+07,1.0213e+06,0,1.8465e+07,7.5428e+05,2091.4,1
5396,2.34,12260,1,12260,1,0.00038587,1.1642e-06,0,0.00039732,-7.1577e-05,4.0267e+07,1.6581e+05,0,4.4981e+07,-2.0391e+05,12259,15904,1,15904,1,0.00085679,4.4378e-05,0,0.00085679,1.8913e-05,6.8784e+07,8.2927e+06,0,6.8784e+07,13487,15903,12262,1,12262,1,0.00037923,1.135e-10,0,0.00037923,-6.9747e-05,5.0794e+07,10.841,0,5.0794e+07,-6.7788,12261,8553,1,8553,1,-9.767e-05,-2.4296e-05,0,1.1942e-06,-0.0001589,-3.968e+07,-4.4914e+06,0,55489,-7.7707e+06,8552,10465,1,10465,1,0.00014079,-1.2934e-09,0,0.00014079,-0.00011419,2.8842e+07,-194.36,0,3.5549e+07,-31.568,10464,14059,1,14059,1,0.00061768,1.5053e-09,0,0.00061768,-2.5452e-05,5.8961e+07,229.12,0,5.8961e+07,90.477,14058,2091.4,0,2091.4,0,0.00028347,6.7697e-06,0,0.00026727,5.2469e-05,2.729e+07,1.0257e+06,0,1.8544e+07,7.5757e+05,2091.4,1
5396,2.35,12260,1,12260,1,0.00038752,1.1692e-06,0,0.00039902,-7.1883e-05,4.0439e+07,1.6652e+05,0,4.5173e+07,-2.0477e+05,12259,15904,1,15904,1,0.00086045,4.4569e-05,0,0.00086045,1.8994e-05,6.9078e+07,8.3282e+06,0,6.9078e+07,13548,15903,12262,1,12262,1,0.00038085,2.126e-10,0,0.00038085,-7.0045e-05,5.1011e+07,19.822,0,5.1011e+07,-7.1134,12261,8553,1,8553,1,-9.8087e-05,-2.4399e-05,0,1.1993e-06,-0.00015957,-3.985e+07,-4.5105e+06,0,55706,-7.8038e+06,8552,10465,1,10465,1,0.00014139,-1.4927e-09,0,0.00014139,-0.00011468,2.8966e+07,-220.96,0,3.5701e+07,-40.797,10464,14059,1,14059,1,0.00062032,1.8053e-09,0,0.00062032,-2.5561e-05,5.9213e+07,270.05,0,5.9213e+07,94.164,14058,2091.4,0,2091.4,0,0.00028468,6.7987e-06,0,0.00026841,5.2693e-05,2.7407e+07,1.03e+06,0,1.8624e+07,7.6079e+05,2091.4,1
5396,2.36,12260,1,12260,1,0.00038917,1.174e-06,0,0.00040072,-7.2189e-05,4.0611e+07,1.6721e+05,0,4.5366e+07,-2.0566e+05,12259,15904,1,15904,1,0.00086412,4.4758e-05,0,0.00086412,1.9075e-05,6.9373e+07,8.3639e+06,0,6.9373e+07,13539,15903,12262,1,12262,1,0.00038248,1.0929e-11,0,0.00038248,-7.0343e-05,5.1228e+07,1.2235,0,5.1228e+07,-3.375,12261,8553,1,8553,1,-9.8506e-05,-2.4504e-05,0,1.2035e-06,-0.00016026,-4.002e+07,-4.5299e+06,0,55803,-7.8374e+06,8552,10465,1,10465,1,0.000142,-8.3765e-10,0,0.000142,-0.00011517,2.9089e+07,-116.95,0,3.5854e+07,-25.301,10464,14059,1,14059,1,0.00062296,1.0117e-09,0,0.00062296,-2.567e-05,5.9465e+07,161.13,0,5.9465e+07,68.206,14058,2091.4,0,2091.4,0,0.0002859,6.8278e-06,0,0.00026955,5.2918e-05,2.7524e+07,1.0344e+06,0,1.8703e+07,7.6407e+05,2091.4,1
5396,2.37,12260,1,12260,1,0.00039082,1.179e-06,0,0.00040242,-7.2494e-05,4.0783e+07,1.6791e+05,0,4.5558e+07,-2.0652e+05,12259,15904,1,15904,1,0.00086778,4.4944e-05,0,0.00086778,1.9156e-05,6.9666e+07,8.3987e+06,0,6.9666e+07,13617,15903,12262,1,12262,1,0.00038409,-5.833e-11,0,0.00038409,-7.064e-05,5.1444e+07,-7.3241,0,5.1444e+07,-3.1339,12261,8553,1,8553,1,-9.8922e-05,-2.4605e-05,0,1.2095e-06,-0.00016093,-4.0189e+07,-4.5486e+06,0,56315,-7.8702e+06,8552,10465,1,10465,1,0.00014259,-3.3644e-10,0,0.00014259,-0.00011565,2.9212e+07,-46.198,0,3.6005e+07,-14.283,10464,14059,1,14059,1,0.00062559,9.3912e-10,0,0.00062559,-2.5778e-05,5.9716e+07,132.99,0,5.9716e+07,73.898,14058,2091.4,0,2091.4,0,0.0002871,6.8561e-06,0,0.00027069,5.3141e-05,2.764e+07,1.0387e+06,0,1.8782e+07,7.6726e+05,2091.4,1
5396,2.38,12260,1,12260,1,0.00039247,1.1839e-06,0,0.00040412,-7.28e-05,4.0955e+07,1.6862e+05,0,4.575e+07,-2.0739e+05,12259,15904,1,15904,1,0.00087144,4.5139e-05,0,0.00087144,1.9237e-05,6.996e+07,8.4345e+06,0,6.996e+07,13733,15903,12262,1,12262,1,0.00038572,7.5315e-11,0,0.00038572,-7.0939e-05,5.1662e+07,6.0451,0,5.1662e+07,-9.0262,12261,8553,1,8553,1,-9.9339e-05,-2.4711e-05,0,1.2142e-06,-0.00016161,-4.0358e+07,-4.568e+06,0,56299,-7.9035e+06,8552,10465,1,10465,1,0.0001432,-1.7204e-09,0,0.0001432,-0.00011614,2.9335e+07,-258.93,0,3.6157e+07,-42.413,10464,14059,1,14059,1,0.00062823,1.5882e-09,0,0.00062823,-2.5887e-05,5.9969e+07,240.16,0,5.9969e+07,92.524,14058,2091.4,0,2091.4,0,0.00028832,6.8856e-06,0,0.00027184,5.3365e-05,2.7757e+07,1.0432e+06,0,1.8861e+07,7.7049e+05,2091.4,1
5396,2.39,12260,1,12260,1,0.00039412,1.1891e-06,0,0.00040582,-7.3106e-05,4.1127e+07,1.6936e+05,0,4.5942e+07,-2.0825e+05,12259,15904,1,15904,1,0.0008751,4.5327e-05,0,0.0008751,1.9318e-05,7.0254e+07,8.4696e+06,0,7.0254e+07,13774,15903,12262,1,12262,1,0.00038734,2.7656e-10,0,0.00038734,-7.1238e-05,5.1879e+07,25.681,0,5.1879e+07,-7.8549,12261,8553,1,8553,1,-9.9757e-05,-2.4815e-05,0,1.2193e-06,-0.00016229,-4.0528e+07,-4.5874e+06,0,56507,-7.9364e+06,8552,10465,1,10465,1,0.0001438,-1.6661e-09,0,0.0001438,-0.00011663,2.9459e+07,-250.01,0,3.6309e+07,-42.989,10464,14059,1,14059,1,0.00063088,1.9871e-09,0,0.00063088,-2.5996e-05,6.0221e+07,300.72,0,6.0221e+07,98.018,14058,2091.4,0,2091.4,0,0.00028953,6.9143e-06,0,0.00027298,5.359e-05,2.7874e+07,1.0476e+06,0,1.8941e+07,7.737e+05,2091.4,1
5396,2.4,12260,1,12260,1,0.00039577,1.194e-06,0,0.00040751,-7.3412e-05,4.1299e+07,1.7006e+05,0,4.6134e+07,-2.0913e+05,12259,15904,1,15904,1,0.00087876,4.5517e-05,0,0.00087876,1.9398e-05,7.0548e+07,8.5053e+06,0,7.0548e+07,13843,15903,12262,1,12262,1,0.00038896,1.0123e-10,0,0.00038896,-7.1535e-05,5.2096e+07,8.3558,0,5.2096e+07,-7.113,12261,8553,1,8553,1,-0.00010017,-2.4918e-05,0,1.225e-06,-0.00016297,-4.0698e+07,-4.6064e+06,0,56897,-7.9697e+06,8552,10465,1,10465,1,0.0001444,-1.6218e-09,0,0.0001444,-0.00011712,2.9582e+07,-241.03,0,3.6461e+07,-36.696,10464,14059,1,14059,1,0.00063351,1.4362e-09,0,0.00063351,-2.6105e-05,6.0473e+07,218.79,0,6.0473e+07,97.607,14058,2091.4,0,2091.4,0,0.00029074,6.9434e-06,0,0.00027412,5.3814e-05,2.799e+07,1.052e+06,0,1.902e+07,7.7696e+05,2091.4,1
5396,2.41,12260,1,12260,1,0.00039742,1.199e-06,0,0.00040921,-7.3718e-05,4.1471e+07,1.7076e+05,0,4.6327e+07,-2.0998e+05,12259,15904,1,15904,1,0.00088243,4.5706e-05,0,0.00088243,1.9479e-05,7.0842e+07,8.5404e+06,0,7.0842e+07,13876,15903,12262,1,12262,1,0.00039058,9.3022e-11,0,0.00039058,-7.1833e-05,5.2313e+07,7.8157,0,5.2313e+07,-5.9021,12261,8553,1,8553,1,-0.00010059,-2.5022e-05,0,1.2297e-06,-0.00016365,-4.0867e+07,-4.6257e+06,0,57018,-8.0026e+06,8552,10465,1,10465,1,0.000145,-1.4208e-09,0,0.000145,-0.00011761,2.9705e+07,-211.88,0,3.6613e+07,-34.582,10464,14059,1,14059,1,0.00063615,1.4615e-09,0,0.00063615,-2.6213e-05,6.0725e+07,223.43,0,6.0725e+07,96.641,14058,2091.4,0,2091.4,0,0.00029195,6.9722e-06,0,0.00027526,5.4038e-05,2.8107e+07,1.0563e+06,0,1.9099e+07,7.8015e+05,2091.4,1
5396,2.42,12260,1,12260,1,0.00039906,1.2038e-06,0,0.00041091,-7.4024e-05,4.1643e+07,1.7146e+05,0,4.6519e+07,-2.1088e+05,12259,15904,1,15904,1,0.00088609,4.5895e-05,0,0.00088609,1.956e-05,7.1136e+07,8.576e+06,0,7.1136e+07,13918,15903,12262,1,12262,1,0.0003922,3.3901e-11,0,0.0003922,-7.2131e-05,5.253e+07,3.0239,0,5.253e+07,-6.3167,12261,8553,1,8553,1,-0.00010101,-2.5125e-05,0,1.235e-06,-0.00016433,-4.1037e+07,-4.6447e+06,0,57380,-8.0361e+06,8552,10465,1,10465,1,0.0001456,-1.2739e-09,0,0.0001456,-0.00011809,2.9828e+07,-193.93,0,3.6765e+07,-29.239,10464,14059,1,14059,1,0.00063879,1.0773e-09,0,0.00063879,-2.6322e-05,6.0977e+07,160.89,0,6.0977e+07,90.323,14058,2091.4,0,2091.4,0,0.00029316,7.0011e-06,0,0.0002764,5.4262e-05,2.8223e+07,1.0607e+06,0,1.9178e+07,7.8344e+05,2091.4,1
5396,2.43,12260,1,12260,1,0.00040072,1.2089e-06,0,0.00041261,-7.433e-05,4.1816e+07,1.7217e+05,0,4.6711e+07,-2.1175e+05,12259,15904,1,15904,1,0.00088975,4.6087e-05,0,0.00088975,1.9641e-05,7.143e+07,8.6118e+06,0,7.143e+07,14019,15903,12262,1,12262,1,0.00039382,6.7619e-11,0,0.00039382,-7.243e-05,5.2747e+07,5.6927,0,5.2747e+07,-6.573,12261,8553,1,8553,1,-0.00010143,-2.523e-05,0,1.2398e-06,-0.00016501,-4.1206e+07,-4.6641e+06,0,57513,-8.0695e+06,8552,10465,1,10465,1,0.00014621,-1.5349e-09,0,0.00014621,-0.00011858,2.9952e+07,-230.88,0,3.6917e+07,-35.435,10464,14059,1,14059,1,0.00064143,1.5378e-09,0,0.00064143,-2.6431e-05,6.1229e+07,233.67,0,6.1229e+07,93.893,14058,2091.4,0,2091.4,0,0.00029437,7.0303e-06,0,0.00027755,5.4487e-05,2.834e+07,1.0651e+06,0,1.9258e+07,7.8669e+05,2091.4,1
5396,2.44,12260,1,12260,1,0.00040236,1.2139e-06,0,0.00041431,-7.4636e-05,4.1988e+07,1.7288e+05,0,4.6904e+07,-2.1262e+05,12259,15904,1,15904,1,0.00089341,4.6277e-05,0,0.00089341,1.9722e-05,7.1724e+07,8.6473e+06,0,7.1724e+07,14060,15903,12262,1,12262,1,0.00039544,4.1678e-11,0,0.00039544,-7.2728e-05,5.2965e+07,3.1759,0,5.2965e+07,-8.0214,12261,8553,1,8553,1,-0.00010184,-2.5334e-05,0,1.2452e-06,-0.00016569,-4.1376e+07,-4.6832e+06,0,57804,-8.1026e+06,8552,10465,1,10465,1,0.00014681,-1.9759e-09,0,0.00014681,-0.00011907,3.0075e+07,-295.91,0,3.7069e+07,-44.843,10464,14059,1,14059,1,0.00064408,1.6209e-09,0,0.00064408,-2.654e-05,6.1481e+07,247.46,0,6.1481e+07,99.975,14058,2091.4,0,2091.4,0,0.00029558,7.0593e-06,0,0.00027869,5.4711e-05,2.8457e+07,1.0695e+06,0,1.9337e+07,7.8992e+05,2091.4,1
5396,2.45,12260,1,12260,1,0.00040401,1.2189e-06,0,0.000416,-7.4941e-05,4.216e+07,1.736e+05,0,4.7095e+07,-2.1349e+05,12259,15904,1,15904,1,0.00089707,4.6464e-05,0,0.00089707,1.9803e-05,7.2018e+07,8.6825e+06,0,7.2018e+07,14139,15903,12262,1,12262,1,0.00039706,1.3724e-10,0,0.00039706,-7.3025e-05,5.3181e+07,13.315,0,5.3181e+07,-5.1515,12261,8553,1,8553,1,-0.00010226,-2.5437e-05,0,1.2505e-06,-0.00016637,-4.1545e+07,-4.7023e+06,0,58164,-8.136e+06,8552,10465,1,10465,1,0.00014741,-1.1554e-09,0,0.00014741,-0.00011956,3.0198e+07,-174.82,0,3.722e+07,-31.046,10464,14059,1,14059,1,0.00064671,1.575e-09,0,0.00064671,-2.6648e-05,6.1733e+07,239.64,0,6.1733e+07,95.305,14058,2091.4,0,2091.4,0,0.00029679,7.0878e-06,0,0.00027983,5.4935e-05,2.8573e+07,1.0739e+06,0,1.9416e+07,7.9318e+05,2091.4,1
5396,2.46,12260,1,12260,1,0.00040566,1.2239e-06,0,0.0004177,-7.5247e-05,4.2332e+07,1.7431e+05,0,4.7288e+07,-2.1437e+05,12259,15904,1,15904,1,0.00090073,4.6655e-05,0,0.00090073,1.9883e-05,7.2312e+07,8.7182e+06,0,7.2312e+07,14167,15903,12262,1,12262,1,0.00039868,1.6004e-10,0,0.00039868,-7.3324e-05,5.3398e+07,15.217,0,5.3398e+07,-5.9926,12261,8553,1,8553,1,-0.00010268,-2.5542e-05,0,1.2555e-06,-0.00016704,-4.1715e+07,-4.7217e+06,0,58360,-8.1693e+06,8552,10465,1,10465,1,0.00014801,-1.463e-09,0,0.00014801,-0.00012005,3.0321e+07,-220.13,0,3.7372e+07,-35.435,10464,14059,1,14059,1,0.00064935,1.6512e-09,0,0.00064935,-2.6757e-05,6.1985e+07,248.69,0,6.1985e+07,98.426,14058,2091.4,0,2091.4,0,0.00029801,7.1169e-06,0,0.00028097,5.5159e-05,2.869e+07,1.0783e+06,0,1.9495e+07,7.9643e+05,2091.4,1
5396,2.47,12260,1,12260,1,0.00040731,1.2289e-06,0,0.0004194,-7.5553e-05,4.2504e+07,1.7502e+05,0,4.748e+07,-2.1521e+05,12259,15904,1,15904,1,0.0009044,4.6846e-05,0,0.0009044,1.9964e-05,7.2606e+07,8.7532e+06,0,7.2606e+07,14223,15903,12262,1,12262,1,0.0004003,1.1387e-10,0,0.0004003,-7.3622e-05,5.3616e+07,9.2549,0,5.3616e+07,-6.8462,12261,8553,1,8553,1,-0.0001031,-2.5646e-05,0,1.2601e-06,-0.00016772,-4.1885e+07,-4.7409e+06,0,58326,-8.2019e+06,8552,10465,1,10465,1,0.00014861,-1.7091e-09,0,0.00014861,-0.00012053,3.0445e+07,-254.68,0,3.7524e+07,-40.145,10464,14059,1,14059,1,0.00065199,1.7706e-09,0,0.00065199,-2.6866e-05,6.2237e+07,263.92,0,6.2237e+07,105.9,14058,2091.4,0,2091.4,0,0.00029922,7.146e-06,0,0.00028212,5.5384e-05,2.8807e+07,1.0826e+06,0,1.9575e+07,7.9957e+05,2091.4,1
5396,2.48,12260,1,12260,1,0.00040896,1.2337e-06,0,0.00042109,-7.5859e-05,4.2676e+07,1.7571e+05,0,4.7672e+07,-2.1609e+05,12259,15904,1,15904,1,0.00090806,4.7035e-05,0,0.00090806,2.0045e-05,7.29e+07,8.7889e+06,0,7.29e+07,14303,15903,12262,1,12262,1,0.00040192,-1.4454e-11,0,0.00040192,-7.3919e-05,5.3832e+07,-1.1639,0,5.3832e+07,-5.3008,12261,8553,1,8553,1,-0.00010351,-2.5748e-05,0,1.2656e-06,-0.0001684,-4.2054e+07,-4.7599e+06,0,58811,-8.2353e+06,8552,10465,1,10465,1,0.00014921,-1.4156e-09,0,0.00014921,-0.00012102,3.0568e+07,-214.47,0,3.7676e+07,-31.679,10464,14059,1,14059,1,0.00065463,1.2504e-09,0,0.00065463,-2.6974e-05,6.2488e+07,188.26,0,6.2488e+07,97.721,14058,2091.4,0,2091.4,0,0.00030043,7.1748e-06,0,0.00028326,5.5608e-05,2.8923e+07,1.087e+06,0,1.9654e+07,8.0286e+05,2091.4,1
5396,2.49,12260,1,12260,1,0.00041061,1.2387e-06,0,0.00042279,-7.6165e-05,4.2848e+07,1.7642e+05,0,4.7865e+07,-2.1697e+05,12259,15904,1,15904,1,0.00091172,4.7225e-05,0,0.00091172,2.0126e-05,7.3194e+07,8.8243e+06,0,7.3194e+07,14359,15903,12262,1,12262,1,0.00040354,1.8933e-11,0,0.00040354,-7.4218e-05,5.405e+07,1.7329,0,5.405e+07,-6.9911,12261,8553,1,8553,1,-0.00010393,-2.5853e-05,0,1.2706e-06,-0.00016908,-4.2224e+07,-4.7791e+06,0,58999,-8.2685e+06,8552,10465,1,10465,1,0.00014982,-1.5618e-09,0,0.00014982,-0.00012151,3.0691e+07,-234.99,0,3.7828e+07,-36.883,10464,14059,1,14059,1,0.00065727,1.4672e-09,0,0.00065727,-2.7083e-05,6.2741e+07,223.42,0,6.2741e+07,96.284,14058,2091.4,0,2091.4,0,0.00030164,7.2038e-06,0,0.0002844,5.5832e-05,2.904e+07,1.0914e+06,0,1.9733e+07,8.061e+05,2091.4,1
5396,2.5,12260,1,12260,1,0.00041226,1.2437e-06,0,0.0004245,-7.6472e-05,4.3021e+07,1.7714e+05,0,4.8057e+07,-2.1787e+05,12259,15904,1,15904,1,0.00091539,4.7415e-05,0,0.00091539,2.0207e-05,7.3488e+07,8.8604e+06,0,7.3488e+07,14350,15903,12262,1,12262,1,0.00040517,1.1766e-11,0,0.00040517,-7.4516e-05,5.4267e+07,1.0595,0,5.4267e+07,-4.9583,12261,8553,1,8553,1,-0.00010435,-2.5958e-05,0,1.2752e-06,-0.00016976,-4.2394e+07,-4.7986e+06,0,59175,-8.3026e+06,8552,10465,1,10465,1,0.00015042,-8.8062e-10,0,0.00015042,-0.000122,3.0815e+07,-126.11,0,3.7981e+07,-20.463,10464,14059,1,14059,1,0.00065992,1.0117e-09,0,0.00065992,-2.7192e-05,6.2993e+07,154.58,0,6.2993e+07,74.753,14058,2091.4,0,2091.4,0,0.00030286,7.233e-06,0,0.00028555,5.6057e-05,2.9157e+07,1.0959e+06,0,1.9812e+07,8.0943e+05,2091.4,1
5396,2.51,12260,1,12260,1,0.00041391,1.2486e-06,0,0.00042619,-7.6777e-05,4.3192e+07,1.7783e+05,0,4.8249e+07,-2.1873e+05,12259,15904,1,15904,1,0.00091905,4.7603e-05,0,0.00091905,2.0288e-05,7.3782e+07,8.8954e+06,0,7.3782e+07,14427,15903,12262,1,12262,1,0.00040678,-1.1517e-10,0,0.00040678,-7.4814e-05,5.4484e+07,-12.294,0,5.4484e+07,-5.5134,12261,8553,1,8553,1,-0.00010477,-2.606e-05,0,1.28e-06,-0.00017044,-4.2563e+07,-4.8176e+06,0,59357,-8.3355e+06,8552,10465,1,10465,1,0.00015102,-6.3017e-10,0,0.00015102,-0.00012249,3.0938e+07,-85.585,0,3.8132e+07,-23.748,10464,14059,1,14059,1,0.00066256,9.5106e-10,0,0.00066256,-2.7301e-05,6.3245e+07,148.49,0,6.3245e+07,74.151,14058,2091.4,0,2091.4,0,0.00030407,7.2617e-06,0,0.00028669,5.6281e-05,2.9273e+07,1.1002e+06,0,1.9892e+07,8.1262e+05,2091.4,1
5396,2.52,12260,1,12260,1,0.00041555,1.2538e-06,0,0.00042789,-7.7083e-05,4.3364e+07,1.7857e+05,0,4.8441e+07,-2.1957e+05,12259,15904,1,15904,1,0.0009227,4.7792e-05,0,0.0009227,2.0368e-05,7.4076e+07,8.9303e+06,0,7.4076e+07,14528,15903,12262,1,12262,1,0.0004084,1.8389e-10,0,0.0004084,-7.5112e-05,5.4701e+07,17.992,0,5.4701e+07,-7.6075,12261,8553,1,8553,1,-0.00010518,-2.6164e-05,0,1.2862e-06,-0.00017112,-4.2732e+07,-4.8368e+06,0,59735,-8.3679e+06,8552,10465,1,10465,1,0.00015162,-1.4464e-09,0,0.00015162,-0.00012297,3.1061e+07,-213.25,0,3.8284e+07,-40.536,10464,14059,1,14059,1,0.00066519,1.7906e-09,0,0.00066519,-2.741e-05,6.3496e+07,270.81,0,6.3496e+07,100.22,14058,2091.4,0,2091.4,0,0.00030527,7.2903e-06,0,0.00028783,5.6505e-05,2.939e+07,1.1045e+06,0,1.9971e+07,8.1578e+05,2091.4,1
5396,2.53,12260,1,12260,1,0.00041721,1.2588e-06,0,0.00042959,-7.7389e-05,4.3537e+07,1.7929e+05,0,4.8634e+07,-2.2047e+05,12259,15904,1,15904,1,0.00092637,4.7979e-05,0,0.00092637,2.0449e-05,7.437e+07,8.9659e+06,0,7.437e+07,14509,15903,12262,1,12262,1,0.00041003,1.8412e-10,0,0.00041003,-7.541e-05,5.4918e+07,23.338,0,5.4918e+07,-2.7995,12261,8553,1,8553,1,-0.0001056,-2.6269e-05,0,1.2902e-06,-0.0001718,-4.2902e+07,-4.8562e+06,0,59875,-8.4017e+06,8552,10465,1,10465,1,0.00015222,-4.3982e-10,0,0.00015222,-0.00012346,3.1184e+07,-61.702,0,3.8436e+07,-24.675,10464,14059,1,14059,1,0.00066783,1.4459e-09,0,0.00066784,-2.7518e-05,6.3749e+07,229.77,0,6.3749e+07,74.296,14058,2091.4,0,2091.4,0,0.00030649,7.3192e-06,0,0.00028897,5.6729e-05,2.9506e+07,1.1089e+06,0,2.005e+07,8.1908e+05,2091.4,1
5396,2.54,12260,1,12260,1,0.00041885,1.2637e-06,0,0.00043128,-7.7695e-05,4.3709e+07,1.7998e+05,0,4.8826e+07,-2.2133e+05,12259,15904,1,15904,1,0.00093002,4.8173e-05,0,0.00093002,2.053e-05,7.4663e+07,9.0013e+06,0,7.4663e+07,14640,15903,12262,1,12262,1,0.00041165,9.9801e-11,0,0.00041165,-7.5708e-05,5.5135e+07,7.6772,0,5.5135e+07,-6.6504,12261,8553,1,8553,1,-0.00010602,-2.6372e-05,0,1.2961e-06,-0.00017248,-4.3072e+07,-4.8752e+06,0,60161,-8.4344e+06,8552,10465,1,10465,1,0.00015282,-1.5633e-09,0,0.00015282,-0.00012395,3.1307e+07,-235.38,0,3.8588e+07,-40.75,10464,14059,1,14059,1,0.00067047,1.8219e-09,0,0.00067047,-2.7627e-05,6.4001e+07,277.65,0,6.4001e+07,101.26,14058,2091.4,0,2091.4,0,0.0003077,7.3484e-06,0,0.00029011,5.6953e-05,2.9623e+07,1.1133e+06,0,2.0129e+07,8.2228e+05,2091.4,1
5396,2.55,12260,1,12260,1,0.00042051,1.2687e-06,0,0.00043299,-7.8001e-05,4.3881e+07,1.807e+05,0,4.9018e+07,-2.2222e+05,12259,15904,1,15904,1,0.00093369,4.8362e-05,0,0.00093369,2.0611e-05,7.4958e+07,9.0371e+06,0,7.4958e+07,14630,15903,12262,1,12262,1,0.00041327,4.7615e-11,0,0.00041327,-7.6007e-05,5.5353e+07,5.1899,0,5.5353e+07,-8.7817,12261,8553,1,8553,1,-0.00010644,-2.6477e-05,0,1.3002e-06,-0.00017316,-4.3241e+07,-4.8945e+06,0,60203,-8.468e+06,8552,10465,1,10465,1,0.00015343,-7.1967e-10,0,0.00015343,-0.00012444,3.1431e+07,-101.25,0,3.874e+07,-30.235,10464,14059,1,14059,1,0.00067312,1.1946e-09,0,0.00067312,-2.7736e-05,6.4253e+07,188.62,0,6.4253e+07,66.502,14058,2091.4,0,2091.4,0,0.00030891,7.3775e-06,0,0.00029126,5.7178e-05,2.974e+07,1.1177e+06,0,2.0209e+07,8.2557e+05,2091.4,1
5396,2.56,12260,1,12260,1,0.00042215,1.2735e-06,0,0.00043468,-7.8306e-05,4.4052e+07,1.8138e+05,0,4.921e+07,-2.2306e+05,12259,15904,1,15904,1,0.00093735,4.855e-05,0,0.00093735,2.0692e-05,7.5251e+07,9.0721e+06,0,7.5251e+07,14755,15903,12262,1,12262,1,0.00041488,9.8762e-11,0,0.00041488,-7.6304e-05,5.5569e+07,9.3708,0,5.5569e+07,-6.0488,12261,8553,1,8553,1,-0.00010685,-2.6579e-05,0,1.3066e-06,-0.00017383,-4.341e+07,-4.9134e+06,0,60699,-8.5009e+06,8552,10465,1,10465,1,0.00015403,-1.3136e-09,0,0.00015403,-0.00012493,3.1554e+07,-198.7,0,3.8891e+07,-30.948,10464,14059,1,14059,1,0.00067574,1.3161e-09,0,0.00067575,-2.7845e-05,6.4504e+07,197.37,0,6.4504e+07,102.36,14058,2091.4,0,2091.4,0,0.00031012,7.406e-06,0,0.00029239,5.7401e-05,2.9856e+07,1.1221e+06,0,2.0288e+07,8.2874e+05,2091.4,1
5396,2.57,12260,1,12260,1,0.0004238,1.2784e-06,0,0.00043638,-7.8612e-05,4.4225e+07,1.8208e+05,0,4.9402e+07,-2.2394e+05,12259,15904,1,15904,1,0.00094101,4.8741e-05,0,0.00094101,2.0772e-05,7.5545e+07,9.1077e+06,0,7.5545e+07,14824,15903,12262,1,12262,1,0.00041651,-1.4676e-12,0,0.00041651,-7.6602e-05,5.5786e+07,-0.16939,0,5.5786e+07,-5.9681,12261,8553,1,8553,1,-0.00010727,-2.6683e-05,0,1.3115e-06,-0.00017451,-4.358e+07,-4.9326e+06,0,60928,-8.5344e+06,8552,10465,1,10465,1,0.00015463,-1.3335e-09,0,0.00015463,-0.00012541,3.1677e+07,-202.63,0,3.9043e+07,-30.05,10464,14059,1,14059,1,0.00067838,1.1888e-09,0,0.00067839,-2.7953e-05,6.4756e+07,180.32,0,6.4756e+07,98.226,14058,2091.4,0,2091.4,0,0.00031133,7.4351e-06,0,0.00029354,5.7626e-05,2.9973e+07,1.1265e+06,0,2.0367e+07,8.3201e+05,2091.4,1
5396,2.58,12260,1,12260,1,0.00042545,1.2834e-06,0,0.00043807,-7.8918e-05,4.4397e+07,1.8279e+05,0,4.9595e+07,-2.2482e+05,12259,15904,1,15904,1,0.00094467,4.8931e-05,0,0.00094467,2.0853e-05,7.5839e+07,9.1434e+06,0,7.5839e+07,14877,15903,12262,1,12262,1,0.00041813,4.6241e-11,0,0.00041813,-7.69e-05,5.6003e+07,3.2019,0,5.6003e+07,-6.9367,12261,8553,1,8553,1,-0.00010769,-2.6787e-05,0,1.3167e-06,-0.00017519,-4.375e+07,-4.9519e+06,0,61191,-8.5678e+06,8552,10465,1,10465,1,0.00015523,-1.8458e-09,0,0.00015523,-0.0001259,3.18e+07,-277.88,0,3.9195e+07,-37.842,10464,14059,1,14059,1,0.00068103,1.3796e-09,0,0.00068103,-2.8062e-05,6.5008e+07,208.82,0,6.5008e+07,102.82,14058,2091.4,0,2091.4,0,0.00031254,7.4642e-06,0,0.00029468,5.785e-05,3.0089e+07,1.1309e+06,0,2.0446e+07,8.3527e+05,2091.4,1
5396,2.59,12260,1,12260,1,0.0004271,1.2884e-06,0,0.00043977,-7.9224e-05,4.4569e+07,1.835e+05,0,4.9787e+07,-2.257e+05,12259,15904,1,15904,1,0.00094833,4.9117e-05,0,0.00094833,2.0934e-05,7.6133e+07,9.1785e+06,0,7.6133e+07,14887,15903,12262,1,12262,1,0.00041974,-9.0239e-11,0,0.00041974,-7.7197e-05,5.622e+07,-11.395,0,5.622e+07,-3.2706,12261,8553,1,8553,1,-0.0001081,-2.6889e-05,0,1.322e-06,-0.00017587,-4.3919e+07,-4.9709e+06,0,61556,-8.6009e+06,8552,10465,1,10465,1,0.00015583,-6.0845e-10,0,0.00015583,-0.00012639,3.1923e+07,-88.781,0,3.9347e+07,-16.005,10464,14059,1,14059,1,0.00068367,9.6038e-10,0,0.00068367,-2.8171e-05,6.5259e+07,129.11,0,6.5259e+07,82.947,14058,2091.4,0,2091.4,0,0.00031375,7.4926e-06,0,0.00029582,5.8074e-05,3.0206e+07,1.1352e+06,0,2.0525e+07,8.3851e+05,2091.4,1
5396,2.6,12260,1,12260,1,0.00042875,1.2935e-06,0,0.00044147,-7.953e-05,4.4741e+07,1.8423e+05,0,4.9979e+07,-2.2657e+05,12259,15904,1,15904,1,0.00095199,4.9309e-05,0,0.00095199,2.1015e-05,7.6427e+07,9.2139e+06,0,7.6427e+07,14971,15903,12262,1,12262,1,0.00042137,1.0685e-10,0,0.00042137,-7.7496e-05,5.6437e+07,9.7062,0,5.6437e+07,-8.6455,12261,8553,1,8553,1,-0.00010852,-2.6995e-05,0,1.3269e-06,-0.00017655,-4.4089e+07,-4.9904e+06,0,61581,-8.6339e+06,8552,10465,1,10465,1,0.00015643,-1.4334e-09,0,0.00015643,-0.00012688,3.2047e+07,-215.5,0,3.9499e+07,-36.213,10464,14059,1,14059,1,0.0006863,1.5024e-09,0,0.00068631,-2.828e-05,6.5512e+07,228.81,0,6.5512e+07,99.169,14058,2091.4,0,2091.4,0,0.00031497,7.5219e-06,0,0.00029696,5.8298e-05,3.0323e+07,1.1396e+06,0,2.0605e+07,8.4173e+05,2091.4,1
5396,2.61,12260,1,12260,1,0.00043039,1.2984e-06,0,0.00044317,-7.9835e-05,4.4913e+07,1.8493e+05,0,5.0171e+07,-2.2742e+05,12259,15904,1,15904,1,0.00095565,4.9498e-05,0,0.00095565,2.1096e-05,7.6721e+07,9.2491e+06,0,7.6721e+07,15029,15903,12262,1,12262,1,0.00042299,9.0923e-11,0,0.00042299,-7.7794e-05,5.6654e+07,8.3893,0,5.6654e+07,-5.6494,12261,8553,1,8553,1,-0.00010894,-2.7097e-05,0,1.3323e-06,-0.00017723,-4.4258e+07,-5.0093e+06,0,61936,-8.6668e+06,8552,10465,1,10465,1,0.00015703,-1.2109e-09,0,0.00015703,-0.00012737,3.217e+07,-180.37,0,3.9651e+07,-30.513,10464,14059,1,14059,1,0.00068894,1.2184e-09,0,0.00068894,-2.8388e-05,6.5764e+07,181.29,0,6.5764e+07,102.33,14058,2091.4,0,2091.4,0,0.00031618,7.5505e-06,0,0.00029811,5.8522e-05,3.0439e+07,1.144e+06,0,2.0684e+07,8.4493e+05,2091.4,1
5396,2.62,12260,1,12260,1,0.00043205,1.3034e-06,0,0.00044487,-8.0142e-05,4.5086e+07,1.8564e+05,0,5.0364e+07,-2.2832e+05,12259,15904,1,15904,1,0.00095933,4.9689e-05,0,0.00095933,2.1177e-05,7.7016e+07,9.2855e+06,0,7.7016e+07,15048,15903,12262,1,12262,1,0.00042461,3.9664e-12,0,0.00042461,-7.8093e-05,5.6872e+07,0.3753,0,5.6872e+07,-4.0672,12261,8553,1,8553,1,-0.00010936,-2.7204e-05,0,1.3366e-06,-0.00017791,-4.4429e+07,-5.029e+06,0,62010,-8.7008e+06,8552,10465,1,10465,1,0.00015764,-9.7853e-10,0,0.00015764,-0.00012786,3.2294e+07,-141.6,0,3.9804e+07,-20.022,10464,14059,1,14059,1,0.00069159,9.8113e-10,0,0.0006916,-2.8498e-05,6.6017e+07,146.63,0,6.6017e+07,78.431,14058,2091.4,0,2091.4,0,0.00031739,7.5801e-06,0,0.00029925,5.8747e-05,3.0556e+07,1.1484e+06,0,2.0763e+07,8.4825e+05,2091.4,1
5396,2.63,12260,1,12260,1,0.00043369,1.3082e-06,0,0.00044656,-8.0447e-05,4.5257e+07,1.8632e+05,0,5.0555e+07,-2.2918e+05,12259,15904,1,15904,1,0.00096298,4.9876e-05,0,0.00096298,2.1257e-05,7.7309e+07,9.3201e+06,0,7.7309e+07,15121,15903,12262,1,12262,1,0.00042623,-1.5521e-10,0,0.00042623,-7.8389e-05,5.7088e+07,-18.849,0,5.7088e+07,-3.4154,12261,8553,1,8553,1,-0.00010977,-2.7304e-05,0,1.3424e-06,-0.00017859,-4.4598e+07,-5.0476e+06,0,62487,-8.7336e+06,8552,10465,1,10465,1,0.00015824,-6.8251e-10,0,0.00015824,-0.00012834,3.2416e+07,-100.91,0,3.9955e+07,-14.195,10464,14059,1,14059,1,0.00069422,9.3673e-10,0,0.00069422,-2.8606e-05,6.6267e+07,126.38,0,6.6267e+07,87.587,14058,2091.4,0,2091.4,0,0.0003186,7.6083e-06,0,0.00030039,5.8971e-05,3.0672e+07,1.1527e+06,0,2.0842e+07,8.5144e+05,2091.4,1
5396,2.64,12260,1,12260,1,0.00043534,1.3134e-06,0,0.00044826,-8.0753e-05,4.5429e+07,1.8707e+05,0,5.0748e+07,-2.3004e+05,12259,15904,1,15904,1,0.00096664,5.0068e-05,0,0.00096664,2.1338e-05,7.7603e+07,9.3556e+06,0,7.7603e+07,15215,15903,12262,1,12262,1,0.00042785,2.6066e-10,0,0.00042785,-7.8689e-05,5.7306e+07,23.991,0,5.7306e+07,-7.5564,12261,8553,1,8553,1,-0.00011019,-2.741e-05,0,1.3474e-06,-0.00017927,-4.4767e+07,-5.0671e+06,0,62534,-8.7665e+06,8552,10465,1,10465,1,0.00015884,-1.7076e-09,0,0.00015884,-0.00012883,3.254e+07,-256.86,0,4.0107e+07,-45.527,10464,14059,1,14059,1,0.00069686,1.9276e-09,0,0.00069686,-2.8715e-05,6.652e+07,287.99,0,6.652e+07,109.9,14058,2091.4,0,2091.4,0,0.00031981,7.6376e-06,0,0.00030153,5.9195e-05,3.0789e+07,1.1571e+06,0,2.0922e+07,8.5465e+05,2091.4,1
5396,2.65,12260,1,12260,1,0.00043699,1.3184e-06,0,0.00044996,-8.1059e-05,4.5601e+07,1.8777e+05,0,5.094e+07,-2.3091e+05,12259,15904,1,15904,1,0.0009703,5.0258e-05,0,0.0009703,2.1419e-05,7.7897e+07,9.3912e+06,0,7.7897e+07,15289,15903,12262,1,12262,1,0.00042947,1.3468e-10,0,0.00042947,-7.8987e-05,5.7523e+07,12.571,0,5.7523e+07,-6.7051,12261,8553,1,8553,1,-0.00011061,-2.7514e-05,0,1.3525e-06,-0.00017995,-4.4937e+07,-5.0863e+06,0,62822,-8.7997e+06,8552,10465,1,10465,1,0.00015944,-1.4055e-09,0,0.00015944,-0.00012932,3.2663e+07,-211.33,0,4.0259e+07,-37.571,10464,14059,1,14059,1,0.0006995,1.7347e-09,0,0.0006995,-2.8824e-05,6.6772e+07,264.39,0,6.6772e+07,104.2,14058,2091.4,0,2091.4,0,0.00032102,7.6666e-06,0,0.00030268,5.942e-05,3.0906e+07,1.1615e+06,0,2.1001e+07,8.5789e+05,2091.4,1
5396,2.66,12260,1,12260,1,0.00043864,1.3234e-06,0,0.00045166,-8.1365e-05,4.5773e+07,1.8849e+05,0,5.1132e+07,-2.3178e+05,12259,15904,1,15904,1,0.00097396,5.0448e-05,0,0.00097396,2.15e-05,7.8191e+07,9.4267e+06,0,7.8191e+07,15348,15903,12262,1,12262,1,0.00043109,1.5234e-10,0,0.00043109,-7.9285e-05,5.774e+07,14.541,0,5.774e+07,-7.8923,12261,8553,1,8553,1,-0.00011103,-2.7618e-05,0,1.3576e-06,-0.00018063,-4.5106e+07,-5.1056e+06,0,63036,-8.8332e+06,8552,10465,1,10465,1,0.00016004,-1.4976e-09,0,0.00016004,-0.00012981,3.2786e+07,-222.46,0,4.0411e+07,-39.029,10464,14059,1,14059,1,0.00070214,1.8043e-09,0,0.00070214,-2.8933e-05,6.7024e+07,276.91,0,6.7024e+07,105.15,14058,2091.4,0,2091.4,0,0.00032224,7.6956e-06,0,0.00030382,5.9644e-05,3.1022e+07,1.1659e+06,0,2.108e+07,8.6114e+05,2091.4,1
5396,2.67,12260,1,12260,1,0.00044029,1.3283e-06,0,0.00045335,-8.167e-05,4.5945e+07,1.8919e+05,0,5.1324e+07,-2.3264e+05,12259,15904,1,15904,1,0.00097762,5.0635e-05,0,0.00097762,2.1581e-05,7.8485e+07,9.4615e+06,0,7.8485e+07,15386,15903,12262,1,12262,1,0.00043271,2.5085e-10,0,0.00043271,-7.9582e-05,5.7956e+07,23.924,0,5.7956e+07,-5.3322,12261,8553,1,8553,1,-0.00011144,-2.7721e-05,0,1.3628e-06,-0.0001813,-4.5276e+07,-5.1245e+06,0,63295,-8.8659e+06,8552,10465,1,10465,1,0.00016064,-1.2448e-09,0,0.00016064,-0.00013029,3.2909e+07,-186.98,0,4.0562e+07,-34.751,10464,14059,1,14059,1,0.00070478,1.7082e-09,0,0.00070478,-2.9041e-05,6.7275e+07,258.61,0,6.7275e+07,107.25,14058,2091.4,0,2091.4,0,0.00032344,7.724e-06,0,0.00030496,5.9868e-05,3.1139e+07,1.1702e+06,0,2.1159e+07,8.6434e+05,2091.4,1
5396,2.68,12260,1,12260,1,0.00044194,1.3332e-06,0,0.00045506,-8.1977e-05,4.6118e+07,1.8988e+05,0,5.1517e+07,-2.3354e+05,12259,15904,1,15904,1,0.00098129,5.0826e-05,0,0.00098129,2.1662e-05,7.8779e+07,9.4978e+06,0,7.8779e+07,15394,15903,12262,1,12262,1,0.00043433,-1.8564e-10,0,0.00043433,-7.9881e-05,5.8174e+07,-23.058,0,5.8174e+07,-1.1156,12261,8553,1,8553,1,-0.00011186,-2.7825e-05,0,1.3671e-06,-0.00018198,-4.5446e+07,-5.1439e+06,0,63463,-8.9e+06,8552,10465,1,10465,1,0.00016125,-5.5359e-10,0,0.00016125,-0.00013078,3.3033e+07,-77.055,0,4.0715e+07,-21.665,10464,14059,1,14059,1,0.00070743,1.012e-09,0,0.00070743,-2.915e-05,6.7528e+07,156.27,0,6.7528e+07,79.067,14058,2091.4,0,2091.4,0,0.00032466,7.7534e-06,0,0.0003061,6.0092e-05,3.1256e+07,1.1747e+06,0,2.1239e+07,8.6765e+05,2091.4,1
5396,2.69,12260,1,12260,1,0.00044359,1.3382e-06,0,0.00045675,-8.2283e-05,4.629e+07,1.9059e+05,0,5.1709e+07,-2.3441e+05,12259,15904,1,15904,1,0.00098495,5.1015e-05,0,0.00098495,2.1742e-05,7.9073e+07,9.533e+06,0,7.9073e+07,15447,15903,12262,1,12262,1,0.00043596,-1.0862e-10,0,0.00043596,-8.0179e-05,5.8391e+07,-13.574,0,5.8391e+07,-3.9046,12261,8553,1,8553,1,-0.00011228,-2.793e-05,0,1.3721e-06,-0.00018266,-4.5615e+07,-5.1631e+06,0,63655,-8.933e+06,8552,10465,1,10465,1,0.00016185,-8.6649e-10,0,0.00016185,-0.00013127,3.3156e+07,-124.18,0,4.0867e+07,-23.331,10464,14059,1,14059,1,0.00071007,1.0223e-09,0,0.00071007,-2.9259e-05,6.778e+07,157.99,0,6.778e+07,79.642,14058,2091.4,0,2091.4,0,0.00032587,7.7823e-06,0,0.00030725,6.0317e-05,3.1372e+07,1.1791e+06,0,2.1318e+07,8.7089e+05,2091.4,1
5396,2.7,12260,1,12260,1,0.00044524,1.3432e-06,0,0.00045845,-8.2589e-05,4.6462e+07,1.9131e+05,0,5.1901e+07,-2.353e+05,12259,15904,1,15904,1,0.00098861,5.1205e-05,0,0.00098861,2.1823e-05,7.9367e+07,9.5686e+06,0,7.9367e+07,15505,15903,12262,1,12262,1,0.00043757,-6.2237e-11,0,0.00043757,-8.0477e-05,5.8608e+07,-6.472,0,5.8608e+07,-8.0283,12261,8553,1,8553,1,-0.0001127,-2.8033e-05,0,1.3779e-06,-0.00018334,-4.5785e+07,-5.1822e+06,0,64074,-8.9664e+06,8552,10465,1,10465,1,0.00016245,-6.4771e-10,0,0.00016245,-0.00013176,3.3279e+07,-94.248,0,4.1019e+07,-22.678,10464,14059,1,14059,1,0.0007127,1.1561e-09,0,0.00071271,-2.9367e-05,6.8032e+07,174.9,0,6.8032e+07,82.615,14058,2091.4,0,2091.4,0,0.00032708,7.8111e-06,0,0.00030839,6.0541e-05,3.1489e+07,1.1834e+06,0,2.1397e+07,8.7415e+05,2091.4,1
5396,2.71,12260,1,12260,1,0.00044689,1.3481e-06,0,0.00046015,-8.2894e-05,4.6634e+07,1.9201e+05,0,5.2093e+07,-2.3614e+05,12259,15904,1,15904,1,0.00099227,5.1395e-05,0,0.00099227,2.1904e-05,7.9661e+07,9.6038e+06,0,7.9661e+07,15617,15903,12262,1,12262,1,0.00043919,3.8159e-11,0,0.00043919,-8.0775e-05,5.8825e+07,3.0553,0,5.8825e+07,-6.2002,12261,8553,1,8553,1,-0.00011311,-2.8136e-05,0,1.3834e-06,-0.00018402,-4.5954e+07,-5.2013e+06,0,64339,-8.9991e+06,8552,10465,1,10465,1,0.00016305,-1.5054e-09,0,0.00016305,-0.00013225,3.3402e+07,-227.58,0,4.117e+07,-34.263,10464,14059,1,14059,1,0.00071534,1.3473e-09,0,0.00071534,-2.9476e-05,6.8284e+07,202.57,0,6.8284e+07,106.73,14058,2091.4,0,2091.4,0,0.00032829,7.84e-06,0,0.00030953,6.0765e-05,3.1605e+07,1.1878e+06,0,2.1476e+07,8.7732e+05,2091.4,1
5396,2.72,12260,1,12260,1,0.00044853,1.3531e-06,0,0.00046185,-8.32e-05,4.6806e+07,1.9272e+05,0,5.2286e+07,-2.3702e+05,12259,15904,1,15904,1,0.00099593,5.1584e-05,0,0.00099593,2.1985e-05,7.9955e+07,9.6392e+06,0,7.9955e+07,15680,15903,12262,1,12262,1,0.00044081,7.2746e-11,0,0.00044081,-8.1073e-05,5.9042e+07,6.8215,0,5.9042e+07,-5.1629,12261,8553,1,8553,1,-0.00011353,-2.824e-05,0,1.3884e-06,-0.0001847,-4.6124e+07,-5.2205e+06,0,64564,-9.0324e+06,8552,10465,1,10465,1,0.00016365,-1.1539e-09,0,0.00016365,-0.00013273,3.3526e+07,-175.46,0,4.1322e+07,-28.738,10464,14059,1,14059,1,0.00071798,1.3164e-09,0,0.00071798,-2.9585e-05,6.8535e+07,198.89,0,6.8535e+07,104.11,14058,2091.4,0,2091.4,0,0.0003295,7.8689e-06,0,0.00031067,6.0989e-05,3.1722e+07,1.1922e+06,0,2.1556e+07,8.8058e+05,2091.4,1
5396,2.73,12260,1,12260,1,0.00045018,1.358e-06,0,0.00046354,-8.3506e-05,4.6978e+07,1.9341e+05,0,5.2478e+07,-2.3789e+05,12259,15904,1,15904,1,0.00099959,5.1772e-05,0,0.00099959,2.2066e-05,8.0249e+07,9.6746e+06,0,8.0249e+07,15690,15903,12262,1,12262,1,0.00044243,-1.3717e-10,0,0.00044243,-8.137e-05,5.9259e+07,-17.468,0,5.9259e+07,-1.4592,12261,8553,1,8553,1,-0.00011395,-2.8343e-05,0,1.3933e-06,-0.00018538,-4.6293e+07,-5.2396e+06,0,64830,-9.0658e+06,8552,10465,1,10465,1,0.00016425,-6.2037e-10,0,0.00016425,-0.00013322,3.3649e+07,-89.041,0,4.1474e+07,-14.21,10464,14059,1,14059,1,0.00072062,9.6752e-10,0,0.00072062,-2.9693e-05,6.8787e+07,133.73,0,6.8787e+07,89.501,14058,2091.4,0,2091.4,0,0.00033071,7.8976e-06,0,0.00031181,6.1213e-05,3.1839e+07,1.1965e+06,0,2.1635e+07,8.8383e+05,2091.4,1
5396,2.74,12260,1,12260,1,0.00045183,1.3631e-06,0,0.00046524,-8.3812e-05,4.715e+07,1.9414e+05,0,5.267e+07,-2.3877e+05,12259,15904,1,15904,1,0.0010033,5.1965e-05,0,0.0010033,2.2147e-05,8.0543e+07,9.7104e+06,0,8.0543e+07,15802,15903,12262,1,12262,1,0.00044406,4.6155e-11,0,0.00044406,-8.1669e-05,5.9476e+07,3.5022,0,5.9476e+07,-6.1534,12261,8553,1,8553,1,-0.00011437,-2.8448e-05,0,1.3985e-06,-0.00018606,-4.6463e+07,-5.259e+06,0,64990,-9.0991e+06,8552,10465,1,10465,1,0.00016486,-1.368e-09,0,0.00016486,-0.00013371,3.3772e+07,-206.65,0,4.1626e+07,-31.061,10464,14059,1,14059,1,0.00072326,1.3272e-09,0,0.00072326,-2.9802e-05,6.904e+07,202.93,0,6.904e+07,102.58,14058,2091.4,0,2091.4,0,0.00033193,7.9269e-06,0,0.00031295,6.1437e-05,3.1955e+07,1.201e+06,0,2.1714e+07,8.8709e+05,2091.4,1
5396,2.75,12260,1,12260,1,0.00045348,1.3681e-06,0,0.00046694,-8.4118e-05,4.7322e+07,1.9485e+05,0,5.2862e+07,-2.3964e+05,12259,15904,1,15904,1,0.0010069,5.2152e-05,0,0.0010069,2.2227e-05,8.0836e+07,9.7454e+06,0,8.0836e+07,15797,15903,12262,1,12262,1,0.00044568,-2.5609e-12,0,0.00044568,-8.1967e-05,5.9693e+07,-0.26683,0,5.9693e+07,-4.1862,12261,8553,1,8553,1,-0.00011478,-2.8552e-05,0,1.4028e-06,-0.00018674,-4.6633e+07,-5.2782e+06,0,65165,-9.132e+06,8552,10465,1,10465,1,0.00016546,-3.3249e-10,0,0.00016546,-0.0001342,3.3896e+07,-43.264,0,4.1778e+07,-30.052,10464,14059,1,14059,1,0.0007259,1.2355e-09,0,0.00072591,-2.9911e-05,6.9291e+07,186.54,0,6.9291e+07,78.6,14058,2091.4,0,2091.4,0,0.00033314,7.9556e-06,0,0.0003141,6.1662e-05,3.2072e+07,1.2053e+06,0,2.1794e+07,8.9029e+05,2091.4,1
5396,2.76,12260,1,12260,1,0.00045513,1.3732e-06,0,0.00046864,-8.4423e-05,4.7494e+07,1.9558e+05,0,5.3054e+07,-2.4049e+05,12259,15904,1,15904,1,0.0010106,5.2341e-05,0,0.0010106,2.2308e-05,8.113e+07,9.7804e+06,0,8.113e+07,15898,15903,12262,1,12262,1,0.0004473,3.0226e-10,0,0.0004473,-8.2265e-05,5.991e+07,31.732,0,5.991e+07,-5.1805,12261,8553,1,8553,1,-0.0001152,-2.8656e-05,0,1.4087e-06,-0.00018742,-4.6802e+07,-5.2973e+06,0,65442,-9.1649e+06,8552,10465,1,10465,1,0.00016606,-1.0789e-09,0,0.00016606,-0.00013469,3.4019e+07,-160.42,0,4.193e+07,-30.996,10464,14059,1,14059,1,0.00072854,1.6121e-09,0,0.00072854,-3.002e-05,6.9543e+07,244.46,0,6.9543e+07,108.48,14058,2091.4,0,2091.4,0,0.00033435,7.9843e-06,0,0.00031524,6.1886e-05,3.2189e+07,1.2097e+06,0,2.1873e+07,8.9348e+05,2091.4,1
5396,2.77,12260,1,12260,1,0.00045678,1.3781e-06,0,0.00047033,-8.4729e-05,4.7666e+07,1.9627e+05,0,5.3247e+07,-2.4137e+05,12259,15904,1,15904,1,0.0010142,5.2533e-05,0,0.0010142,2.2389e-05,8.1424e+07,9.8164e+06,0,8.1424e+07,15974,15903,12262,1,12262,1,0.00044892,9.5018e-11,0,0.00044892,-8.2563e-05,6.0127e+07,8.4901,0,6.0127e+07,-4.6838,12261,8553,1,8553,1,-0.00011562,-2.8759e-05,0,1.414e-06,-0.00018809,-4.6971e+07,-5.3165e+06,0,65792,-9.1984e+06,8552,10465,1,10465,1,0.00016666,-1.1138e-09,0,0.00016666,-0.00013517,3.4142e+07,-168.27,0,4.2082e+07,-27.52,10464,14059,1,14059,1,0.00073118,1.3333e-09,0,0.00073118,-3.0129e-05,6.9795e+07,200.65,0,6.9795e+07,104.75,14058,2091.4,0,2091.4,0,0.00033556,8.0135e-06,0,0.00031638,6.211e-05,3.2305e+07,1.2141e+06,0,2.1952e+07,8.9675e+05,2091.4,1
5396,2.78,12260,1,12260,1,0.00045843,1.383e-06,0,0.00047204,-8.5036e-05,4.7839e+07,1.9697e+05,0,5.3439e+07,-2.4225e+05,12259,15904,1,15904,1,0.0010179,5.2722e-05,0,0.0010179,2.247e-05,8.1719e+07,9.8518e+06,0,8.1719e+07,15966,15903,12262,1,12262,1,0.00045054,-2.762e-11,0,0.00045054,-8.2861e-05,6.0345e+07,-2.713,0,6.0345e+07,-6.3735,12261,8553,1,8553,1,-0.00011604,-2.8864e-05,0,1.4183e-06,-0.00018877,-4.7142e+07,-5.3358e+06,0,65844,-9.2317e+06,8552,10465,1,10465,1,0.00016727,-1.0074e-09,0,0.00016727,-0.00013566,3.4266e+07,-147.36,0,4.2234e+07,-22.02,10464,14059,1,14059,1,0.00073382,1.1626e-09,0,0.00073383,-3.0238e-05,7.0048e+07,181.38,0,7.0048e+07,86.234,14058,2091.4,0,2091.4,0,0.00033677,8.0426e-06,0,0.00031752,6.2335e-05,3.2422e+07,1.2185e+06,0,2.2031e+07,9.0001e+05,2091.4,1
5396,2.79,12260,1,12260,1,0.00046008,1.388e-06,0,0.00047373,-8.5342e-05,4.801e+07,1.9769e+05,0,5.3631e+07,-2.4313e+05,12259,15904,1,15904,1,0.0010216,5.291e-05,0,0.0010216,2.2551e-05,8.2012e+07,9.8873e+06,0,8.2012e+07,16024,15903,12262,1,12262,1,0.00045216,1.6707e-10,0,0.00045216,-8.3159e-05,6.0562e+07,21.764,0,6.0562e+07,-3.7312,12261,8553,1,8553,1,-0.00011645,-2.8967e-05,0,1.4233e-06,-0.00018945,-4.7311e+07,-5.355e+06,0,66112,-9.265e+06,8552,10465,1,10465,1,0.00016787,-4.4051e-10,0,0.00016787,-0.00013615,3.4389e+07,-60.004,0,4.2386e+07,-23.319,10464,14059,1,14059,1,0.00073646,1.2763e-09,0,0.00073646,-3.0346e-05,7.0299e+07,194.97,0,7.0299e+07,85.14,14058,2091.4,0,2091.4,0,0.00033798,8.0713e-06,0,0.00031867,6.2559e-05,3.2539e+07,1.2229e+06,0,2.2111e+07,9.0325e+05,2091.4,1
5396,2.8,12260,1,12260,1,0.00046173,1.393e-06,0,0.00047543,-8.5647e-05,4.8182e+07,1.984e+05,0,5.3823e+07,-2.4398e+05,12259,15904,1,15904,1,0.0010252,5.3101e-05,0,0.0010252,2.2631e-05,8.2306e+07,9.9224e+06,0,8.2306e+07,16132,15903,12262,1,12262,1,0.00045378,1.6528e-10,0,0.00045378,-8.3457e-05,6.0778e+07,15.937,0,6.0778e+07,-4.8022,12261,8553,1,8553,1,-0.00011687,-2.907e-05,0,1.4292e-06,-0.00019013,-4.748e+07,-5.3739e+06,0,66433,-9.2977e+06,8552,10465,1,10465,1,0.00016847,-1.1519e-09,0,0.00016847,-0.00013664,3.4512e+07,-175.63,0,4.2537e+07,-28.73,10464,14059,1,14059,1,0.00073909,1.4024e-09,0,0.0007391,-3.0455e-05,7.0551e+07,208.39,0,7.0551e+07,107.66,14058,2091.4,0,2091.4,0,0.00033919,8.1002e-06,0,0.00031981,6.2783e-05,3.2655e+07,1.2272e+06,0,2.219e+07,9.0643e+05,2091.4,1
5396,2.81,12260,1,12260,1,0.00046337,1.3978e-06,0,0.00047713,-8.5953e-05,4.8354e+07,1.9908e+05,0,5.4015e+07,-2.4485e+05,12259,15904,1,15904,1,0.0010289,5.3291e-05,0,0.0010289,2.2712e-05,8.26e+07,9.9581e+06,0,8.26e+07,16194,15903,12262,1,12262,1,0.0004554,-7.4469e-12,0,0.0004554,-8.3755e-05,6.0995e+07,-0.66021,0,6.0995e+07,-5.168,12261,8553,1,8553,1,-0.00011729,-2.9173e-05,0,1.4342e-06,-0.00019081,-4.765e+07,-5.3931e+06,0,66706,-9.3312e+06,8552,10465,1,10465,1,0.00016907,-1.3779e-09,0,0.00016907,-0.00013713,3.4635e+07,-210.13,0,4.2689e+07,-28.448,10464,14059,1,14059,1,0.00074173,1.1461e-09,0,0.00074174,-3.0564e-05,7.0803e+07,174.3,0,7.0803e+07,106.6,14058,2091.4,0,2091.4,0,0.0003404,8.1292e-06,0,0.00032095,6.3007e-05,3.2772e+07,1.2316e+06,0,2.2269e+07,9.097e+05,2091.4,1
5396,2.82,12260,1,12260,1,0.00046503,1.4028e-06,0,0.00047883,-8.6259e-05,4.8527e+07,1.9979e+05,0,5.4208e+07,-2.4574e+05,12259,15904,1,15904,1,0.0010326,5.348e-05,0,0.0010326,2.2793e-05,8.2894e+07,9.9939e+06,0,8.2894e+07,16187,15903,12262,1,12262,1,0.00045702,-7.1456e-11,0,0.00045702,-8.4053e-05,6.1213e+07,-8.9959,0,6.1213e+07,-7.5888,12261,8553,1,8553,1,-0.00011771,-2.9279e-05,0,1.4384e-06,-0.00019149,-4.782e+07,-5.4126e+06,0,66762,-9.3648e+06,8552,10465,1,10465,1,0.00016967,-7.6278e-10,0,0.00016967,-0.00013761,3.4758e+07,-106.85,0,4.2842e+07,-24.115,10464,14059,1,14059,1,0.00074438,9.9874e-10,0,0.00074438,-3.0673e-05,7.1055e+07,153.08,0,7.1055e+07,81.571,14058,2091.4,0,2091.4,0,0.00034162,8.1583e-06,0,0.00032209,6.3231e-05,3.2888e+07,1.236e+06,0,2.2348e+07,9.1296e+05,2091.4,1
5396,2.83,12260,1,12260,1,0.00046667,1.4078e-06,0,0.00048052,-8.6565e-05,4.8699e+07,2.0051e+05,0,5.44e+07,-2.466e+05,12259,15904,1,15904,1,0.0010362,5.367e-05,0,0.0010362,2.2874e-05,8.3188e+07,1.0029e+07,0,8.3188e+07,16301,15903,12262,1,12262,1,0.00045864,5.9697e-11,0,0.00045864,-8.4351e-05,6.1429e+07,4.7191,0,6.1429e+07,-5.5694,12261,8553,1,8553,1,-0.00011812,-2.9381e-05,0,1.4443e-06,-0.00019217,-4.7989e+07,-5.4315e+06,0,67106,-9.3974e+06,8552,10465,1,10465,1,0.00017027,-1.3416e-09,0,0.00017027,-0.0001381,3.4881e+07,-204.47,0,4.2993e+07,-30.789,10464,14059,1,14059,1,0.00074701,1.2989e-09,0,0.00074701,-3.0781e-05,7.1307e+07,195.15,0,7.1307e+07,108.54,14058,2091.4,0,2091.4,0,0.00034283,8.1871e-06,0,0.00032323,6.3455e-05,3.3005e+07,1.2404e+06,0,2.2427e+07,9.1616e+05,2091.4,1
5396,2.84,12260,1,12260,1,0.00046832,1.4128e-06,0,0.00048222,-8.687e-05,4.8871e+07,2.0122e+05,0,5.4592e+07,-2.4747e+05,12259,15904,1,15904,1,0.0010399,5.386e-05,0,0.0010399,2.2955e-05,8.3482e+07,1.0064e+07,0,8.3482e+07,16376,15903,12262,1,12262,1,0.00046026,1.1116e-10,0,0.00046026,-8.4649e-05,6.1646e+07,10.15,0,6.1647e+07,-5.6398,12261,8553,1,8553,1,-0.00011854,-2.9485e-05,0,1.4496e-06,-0.00019285,-4.8158e+07,-5.4508e+06,0,67387,-9.4309e+06,8552,10465,1,10465,1,0.00017087,-1.387e-09,0,0.00017087,-0.00013859,3.5005e+07,-211.02,0,4.3145e+07,-32.991,10464,14059,1,14059,1,0.00074965,1.4834e-09,0,0.00074965,-3.089e-05,7.1559e+07,224.03,0,7.1559e+07,107.84,14058,2091.4,0,2091.4,0,0.00034404,8.216e-06,0,0.00032437,6.3679e-05,3.3122e+07,1.2448e+06,0,2.2507e+07,9.1942e+05,2091.4,1
5396,2.85,12260,1,12260,1,0.00046997,1.4179e-06,0,0.00048392,-8.7177e-05,4.9043e+07,2.0194e+05,0,5.4785e+07,-2.4836e+05,12259,15904,1,15904,1,0.0010435,5.4049e-05,0,0.0010435,2.3036e-05,8.3776e+07,1.01e+07,0,8.3776e+07,16371,15903,12262,1,12262,1,0.00046188,-1.3148e-10,0,0.00046188,-8.4948e-05,6.1864e+07,-14.008,0,6.1864e+07,-4.755,12261,8553,1,8553,1,-0.00011896,-2.959e-05,0,1.4543e-06,-0.00019353,-4.8328e+07,-5.4702e+06,0,67595,-9.4645e+06,8552,10465,1,10465,1,0.00017148,-6.1885e-10,0,0.00017148,-0.00013908,3.5128e+07,-92.872,0,4.3297e+07,-22.295,10464,14059,1,14059,1,0.0007523,1.3622e-09,0,0.0007523,-3.0999e-05,7.1811e+07,209.36,0,7.1811e+07,89.292,14058,2091.4,0,2091.4,0,0.00034525,8.245e-06,0,0.00032552,6.3904e-05,3.3238e+07,1.2492e+06,0,2.2586e+07,9.2269e+05,2091.4,1
5396,2.86,12260,1,12260,1,0.00047162,1.4227e-06,0,0.00048562,-8.7483e-05,4.9215e+07,2.0264e+05,0,5.4977e+07,-2.4923e+05,12259,15904,1,15904,1,0.0010472,5.424e-05,0,0.0010472,2.3116e-05,8.407e+07,1.0136e+07,0,8.407e+07,16418,15903,12262,1,12262,1,0.00046351,-1.33e-10,0,0.00046351,-8.5246e-05,6.2081e+07,-15.213,0,6.2081e+07,-3.7889,12261,8553,1,8553,1,-0.00011938,-2.9694e-05,0,1.4592e-06,-0.00019421,-4.8498e+07,-5.4894e+06,0,67790,-9.4975e+06,8552,10465,1,10465,1,0.00017208,-7.5103e-10,0,0.00017208,-0.00013957,3.5251e+07,-109.56,0,4.3449e+07,-17.496,10464,14059,1,14059,1,0.00075494,1.1263e-09,0,0.00075494,-3.1108e-05,7.2063e+07,172.87,0,7.2063e+07,90.258,14058,2091.4,0,2091.4,0,0.00034646,8.2741e-06,0,0.00032666,6.4128e-05,3.3355e+07,1.2536e+06,0,2.2665e+07,9.2592e+05,2091.4,1
5396,2.87,12260,1,12260,1,0.00047327,1.4277e-06,0,0.00048732,-8.7789e-05,4.9387e+07,2.0334e+05,0,5.5169e+07,-2.5009e+05,12259,15904,1,15904,1,0.0010509,5.4429e-05,0,0.0010509,2.3197e-05,8.4364e+07,1.0171e+07,0,8.4364e+07,16486,15903,12262,1,12262,1,0.00046513,-7.1845e-11,0,0.00046513,-8.5544e-05,6.2298e+07,-7.378,0,6.2298e+07,-2.9173,12261,8553,1,8553,1,-0.00011979,-2.9798e-05,0,1.464e-06,-0.00019489,-4.8668e+07,-5.5086e+06,0,68010,-9.5306e+06,8552,10465,1,10465,1,0.00017268,-6.0664e-10,0,0.00017268,-0.00014005,3.5375e+07,-84.827,0,4.3601e+07,-18.564,10464,14059,1,14059,1,0.00075758,1.1728e-09,0,0.00075758,-3.1216e-05,7.2315e+07,175.83,0,7.2315e+07,88.515,14058,2091.4,0,2091.4,0,0.00034767,8.303e-06,0,0.0003278,6.4353e-05,3.3472e+07,1.2579e+06,0,2.2745e+07,9.2914e+05,2091.4,1
5396,2.88,12260,1,12260,1,0.00047492,1.4327e-06,0,0.00048901,-8.8095e-05,4.9559e+07,2.0405e+05,0,5.5361e+07,-2.5096e+05,12259,15904,1,15904,1,0.0010545,5.4618e-05,0,0.0010545,2.3278e-05,8.4658e+07,1.0206e+07,0,8.4658e+07,16547,15903,12262,1,12262,1,0.00046675,-6.82e-11,0,0.00046675,-8.5842e-05,6.2515e+07,-7.6295,0,6.2515e+07,-3.9471,12261,8553,1,8553,1,-0.00012021,-2.9901e-05,0,1.4693e-06,-0.00019556,-4.8837e+07,-5.5277e+06,0,68258,-9.5638e+06,8552,10465,1,10465,1,0.00017328,-6.626e-10,0,0.00017328,-0.00014054,3.5498e+07,-93.211,0,4.3753e+07,-21.457,10464,14059,1,14059,1,0.00076022,1.2027e-09,0,0.00076022,-3.1325e-05,7.2567e+07,180.53,0,7.2567e+07,89.903,14058,2091.4,0,2091.4,0,0.00034889,8.3318e-06,0,0.00032895,6.4577e-05,3.3588e+07,1.2623e+06,0,2.2824e+07,9.3238e+05,2091.4,1
5396,2.89,12260,1,12260,1,0.00047657,1.438e-06,0,0.00049071,-8.84e-05,4.9731e+07,2.048e+05,0,5.5553e+07,-2.5182e+05,12259,15904,1,15904,1,0.0010582,5.4805e-05,0,0.0010582,2.3359e-05,8.4952e+07,1.0241e+07,0,8.4952e+07,16650,15903,12262,1,12262,1,0.00046836,3.6756e-10,0,0.00046836,-8.6139e-05,6.2732e+07,38.928,0,6.2732e+07,-4.6981,12261,8553,1,8553,1,-0.00012063,-3.0005e-05,0,1.4751e-06,-0.00019624,-4.9006e+07,-5.5468e+06,0,68614,-9.5967e+06,8552,10465,1,10465,1,0.00017388,-7.9971e-10,0,0.00017388,-0.00014103,3.5621e+07,-119.02,0,4.3905e+07,-26.905,10464,14059,1,14059,1,0.00076285,1.5339e-09,0,0.00076285,-3.1434e-05,7.2819e+07,237.42,0,7.2819e+07,111.8,14058,2091.4,0,2091.4,0,0.0003501,8.3603e-06,0,0.00033009,6.4801e-05,3.3705e+07,1.2666e+06,0,2.2903e+07,9.3558e+05,2091.4,1
5396,2.9,12260,1,12260,1,0.00047821,1.4426e-06,0,0.00049241,-8.8705e-05,4.9903e+07,2.0547e+05,0,5.5745e+07,-2.5269e+05,12259,15904,1,15904,1,0.0010618,5.4996e-05,0,0.0010618,2.344e-05,8.5245e+07,1.0277e+07,0,8.5245e+07,16708,15903,12262,1,12262,1,0.00046998,4.6844e-11,0,0.00046998,-8.6437e-05,6.2948e+07,3.7095,0,6.2948e+07,-3.6709,12261,8553,1,8553,1,-0.00012104,-3.0107e-05,0,1.4805e-06,-0.00019692,-4.9176e+07,-5.5658e+06,0,68914,-9.6298e+06,8552,10465,1,10465,1,0.00017448,-1.0541e-09,0,0.00017448,-0.00014152,3.5744e+07,-158.77,0,4.4057e+07,-25.5,10464,14059,1,14059,1,0.00076549,1.2116e-09,0,0.00076549,-3.1542e-05,7.307e+07,170.2,0,7.307e+07,111.8,14058,2091.4,0,2091.4,0,0.00035131,8.3893e-06,0,0.00033123,6.5025e-05,3.3821e+07,1.271e+06,0,2.2982e+07,9.3881e+05,2091.4,1
5396,2.91,12260,1,12260,1,0.00047986,1.4476e-06,0,0.00049411,-8.9012e-05,5.0075e+07,2.0618e+05,0,5.5938e+07,-2.5357e+05,12259,15904,1,15904,1,0.0010655,5.5186e-05,0,0.0010655,2.352e-05,8.5539e+07,1.0312e+07,0,8.5539e+07,16762,15903,12262,1,12262,1,0.0004716,6.2095e-11,0,0.0004716,-8.6735e-05,6.3166e+07,4.9758,0,6.3166e+07,-4.6431,12261,8553,1,8553,1,-0.00012146,-3.0212e-05,0,1.4857e-06,-0.0001976,-4.9345e+07,-5.5851e+06,0,69127,-9.6631e+06,8552,10465,1,10465,1,0.00017508,-1.1829e-09,0,0.00017508,-0.00014201,3.5867e+07,-176.72,0,4.4209e+07,-29.148,10464,14059,1,14059,1,0.00076813,1.2599e-09,0,0.00076813,-3.1651e-05,7.3323e+07,190.31,0,7.3323e+07,112.66,14058,2091.4,0,2091.4,0,0.00035252,8.4183e-06,0,0.00033237,6.5249e-05,3.3938e+07,1.2754e+06,0,2.3061e+07,9.4207e+05,2091.4,1
5396,2.92,12260,1,12260,1,0.00048152,1.4526e-06,0,0.0004958,-8.9318e-05,5.0247e+07,2.0689e+05,0,5.613e+07,-2.5444e+05,12259,15904,1,15904,1,0.0010692,5.5377e-05,0,0.0010692,2.3601e-05,8.5834e+07,1.0348e+07,0,8.5834e+07,16820,15903,12262,1,12262,1,0.00047323,1.7487e-10,0,0.00047323,-8.7034e-05,6.3383e+07,16.903,0,6.3383e+07,-5.2668,12261,8553,1,8553,1,-0.00012188,-3.0316e-05,0,1.4905e-06,-0.00019828,-4.9515e+07,-5.6044e+06,0,69319,-9.6965e+06,8552,10465,1,10465,1,0.00017569,-1.2806e-09,0,0.00017569,-0.00014249,3.5991e+07,-194.44,0,4.4361e+07,-32.641,10464,14059,1,14059,1,0.00077077,1.5332e-09,0,0.00077077,-3.176e-05,7.3575e+07,230.36,0,7.3575e+07,115.15,14058,2091.4,0,2091.4,0,0.00035373,8.4474e-06,0,0.00033351,6.5473e-05,3.4055e+07,1.2798e+06,0,2.3141e+07,9.4532e+05,2091.4,1
5396,2.93,12260,1,12260,1,0.00048317,1.4577e-06,0,0.0004975,-8.9624e-05,5.042e+07,2.0762e+05,0,5.6323e+07,-2.5533e+05,12259,15904,1,15904,1,0.0010728,5.5567e-05,0,0.0010728,2.3682e-05,8.6128e+07,1.0384e+07,0,8.6128e+07,16833,15903,12262,1,12262,1,0.00047485,9.2514e-11,0,0.00047485,-8.7332e-05,6.3601e+07,11.343,0,6.3601e+07,-4.9461,12261,8553,1,8553,1,-0.0001223,-3.0421e-05,0,1.4951e-06,-0.00019896,-4.9685e+07,-5.6237e+06,0,69509,-9.7301e+06,8552,10465,1,10465,1,0.00017629,-4.0458e-10,0,0.00017629,-0.00014298,3.6114e+07,-56.598,0,4.4513e+07,-20.261,10464,14059,1,14059,1,0.00077342,1.4292e-09,0,0.00077342,-3.1869e-05,7.3827e+07,219.51,0,7.3827e+07,87.785,14058,2091.4,0,2091.4,0,0.00035494,8.4765e-06,0,0.00033466,6.5698e-05,3.4171e+07,1.2842e+06,0,2.322e+07,9.486e+05,2091.4,1
5396,2.94,12260,1,12260,1,0.00048481,1.4625e-06,0,0.0004992,-8.9929e-05,5.0591e+07,2.083e+05,0,5.6514e+07,-2.5618e+05,12259,15904,1,15904,1,0.0010765,5.5754e-05,0,0.0010765,2.3763e-05,8.6421e+07,1.0418e+07,0,8.6421e+07,16933,15903,12262,1,12262,1,0.00047646,7.2591e-11,0,0.00047646,-8.7629e-05,6.3817e+07,6.7415,0,6.3817e+07,-4.1421,12261,8553,1,8553,1,-0.00012271,-3.0523e-05,0,1.5009e-06,-0.00019964,-4.9854e+07,-5.6426e+06,0,69834,-9.7626e+06,8552,10465,1,10465,1,0.00017689,-1.2073e-09,0,0.00017689,-0.00014347,3.6237e+07,-180.83,0,4.4664e+07,-27.898,10464,14059,1,14059,1,0.00077605,1.1798e-09,0,0.00077605,-3.1977e-05,7.4078e+07,177.59,0,7.4078e+07,114.38,14058,2091.4,0,2091.4,0,0.00035615,8.505e-06,0,0.0003358,6.5922e-05,3.4288e+07,1.2886e+06,0,2.3299e+07,9.5176e+05,2091.4,1
5396,2.95,12260,1,12260,1,0.00048646,1.4675e-06,0,0.0005009,-9.0236e-05,5.0764e+07,2.0901e+05,0,5.6707e+07,-2.5707e+05,12259,15904,1,15904,1,0.0010802,5.5946e-05,0,0.0010802,2.3844e-05,8.6716e+07,1.0454e+07,0,8.6716e+07,16936,15903,12262,1,12262,1,0.00047809,-1.833e-10,0,0.00047809,-8.7928e-05,6.4035e+07,-22.939,0,6.4035e+07,-7.3845,12261,8553,1,8553,1,-0.00012313,-3.0628e-05,0,1.5051e-06,-0.00020032,-5.0024e+07,-5.662e+06,0,69893,-9.7963e+06,8552,10465,1,10465,1,0.00017749,-5.9648e-10,0,0.00017749,-0.00014396,3.6361e+07,-82.734,0,4.4817e+07,-34.209,10464,14059,1,14059,1,0.0007787,1.2343e-09,0,0.0007787,-3.2087e-05,7.4331e+07,186.82,0,7.4331e+07,85.169,14058,2091.4,0,2091.4,0,0.00035737,8.5344e-06,0,0.00033694,6.6146e-05,3.4405e+07,1.293e+06,0,2.3379e+07,9.5505e+05,2091.4,1
5396,2.96,12260,1,12260,1,0.00048811,1.4727e-06,0,0.0005026,-9.0542e-05,5.0936e+07,2.0975e+05,0,5.6899e+07,-2.5795e+05,12259,15904,1,15904,1,0.0010838,5.6136e-05,0,0.0010838,2.3925e-05,8.701e+07,1.049e+07,0,8.701e+07,17018,15903,12262,1,12262,1,0.00047971,2.6563e-10,0,0.00047971,-8.8226e-05,6.4252e+07,36.698,0,6.4252e+07,-3.2751,12261,8553,1,8553,1,-0.00012355,-3.0733e-05,0,1.5101e-06,-0.000201,-5.0194e+07,-5.6814e+06,0,70146,-9.8297e+06,8552,10465,1,10465,1,0.00017809,-1.67e-10,0,0.00017809,-0.00014445,3.6484e+07,-21.611,0,4.4969e+07,-18.36,10464,14059,1,14059,1,0.00078134,1.4123e-09,0,0.00078134,-3.2195e-05,7.4583e+07,219.34,0,7.4583e+07,91.929,14058,2091.4,0,2091.4,0,0.00035858,8.5633e-06,0,0.00033808,6.6371e-05,3.4521e+07,1.2974e+06,0,2.3458e+07,9.5832e+05,2091.4,1
5396,2.97,12260,1,12260,1,0.00048976,1.4776e-06,0,0.0005043,-9.0847e-05,5.1108e+07,2.1045e+05,0,5.7091e+07,-2.588e+05,12259,15904,1,15904,1,0.0010875,5.6324e-05,0,0.0010875,2.4005e-05,8.7303e+07,1.0525e+07,0,8.7303e+07,17068,15903,12262,1,12262,1,0.00048133,-7.2821e-12,0,0.00048133,-8.8524e-05,6.4469e+07,-0.80582,0,6.4469e+07,-2.5409,12261,8553,1,8553,1,-0.00012397,-3.0836e-05,0,1.5152e-06,-0.00020168,-5.0363e+07,-5.7005e+06,0,70409,-9.8626e+06,8552,10465,1,10465,1,0.0001787,-2.7047e-10,0,0.0001787,-0.00014493,3.6607e+07,-36.905,0,4.512e+07,-18.829,10464,14059,1,14059,1,0.00078397,1.4388e-09,0,0.00078398,-3.2304e-05,7.4835e+07,222.16,0,7.4835e+07,90.673,14058,2091.4,0,2091.4,0,0.00035979,8.592e-06,0,0.00033922,6.6595e-05,3.4638e+07,1.3017e+06,0,2.3537e+07,9.615e+05,2091.4,1
5396,2.98,12260,1,12260,1,0.00049141,1.4825e-06,0,0.00050599,-9.1153e-05,5.128e+07,2.1115e+05,0,5.7283e+07,-2.5966e+05,12259,15904,1,15904,1,0.0010911,5.6513e-05,0,0.0010911,2.4086e-05,8.7597e+07,1.056e+07,0,8.7597e+07,17169,15903,12262,1,12262,1,0.00048295,7.6708e-11,0,0.00048295,-8.8822e-05,6.4685e+07,6.9989,0,6.4685e+07,-6.1106,12261,8553,1,8553,1,-0.00012438,-3.0938e-05,0,1.5213e-06,-0.00020235,-5.0532e+07,-5.7193e+06,0,70757,-9.8954e+06,8552,10465,1,10465,1,0.0001793,-1.0425e-09,0,0.0001793,-0.00014542,3.673e+07,-155.88,0,4.5272e+07,-26.442,10464,14059,1,14059,1,0.00078661,1.289e-09,0,0.00078661,-3.2413e-05,7.5086e+07,188.39,0,7.5086e+07,111.36,14058,2091.4,0,2091.4,0,0.000361,8.6207e-06,0,0.00034036,6.6818e-05,3.4754e+07,1.3061e+06,0,2.3616e+07,9.6471e+05,2091.4,1
5396,2.99,12260,1,12260,1,0.00049306,1.4874e-06,0,0.00050769,-9.146e-05,5.1452e+07,2.1185e+05,0,5.7476e+07,-2.6056e+05,12259,15904,1,15904,1,0.0010948,5.6705e-05,0,0.0010948,2.4167e-05,8.7892e+07,1.0596e+07,0,8.7892e+07,17167,15903,12262,1,12262,1,0.00048457,-6.9106e-11,0,0.00048457,-8.9121e-05,6.4903e+07,-7.1142,0,6.4903e+07,-4.912,12261,8553,1,8553,1,-0.0001248,-3.1044e-05,0,1.5253e-06,-0.00020303,-5.0703e+07,-5.7389e+06,0,70847,-9.9296e+06,8552,10465,1,10465,1,0.0001799,-7.1496e-10,0,0.0001799,-0.00014591,3.6854e+07,-100.33,0,4.5424e+07,-22.286,10464,14059,1,14059,1,0.00078926,1.1952e-09,0,0.00078926,-3.2522e-05,7.5339e+07,178.45,0,7.5339e+07,90.547,14058,2091.4,0,2091.4,0,0.00036221,8.6502e-06,0,0.00034151,6.7043e-05,3.4871e+07,1.3106e+06,0,2.3696e+07,9.6803e+05,2091.4,1
5396,3,12260,1,12260,1,0.0004947,1.4924e-06,0,0.00050939,-9.1764e-05,5.1624e+07,2.1256e+05,0,5.7668e+07,-2.6141e+05,12259,15904,1,15904,1,0.0010984,5.6892e-05,0,0.0010984,2.4248e-05,8.8185e+07,1.0631e+07,0,8.8185e+07,17267,15903,12262,1,12262,1,0.00048619,1.6098e-10,0,0.00048619,-8.9418e-05,6.5119e+07,15.078,0,6.5119e+07,-5.0167,12261,8553,1,8553,1,-0.00012522,-3.1146e-05,0,1.5314e-06,-0.00020371,-5.0871e+07,-5.7577e+06,0,71241,-9.9619e+06,8552,10465,1,10465,1,0.0001805,-9.7522e-10,0,0.0001805,-0.0001464,3.6976e+07,-148.49,0,4.5576e+07,-25.821,10464,14059,1,14059,1,0.00079189,1.2192e-09,0,0.00079189,-3.263e-05,7.559e+07,180.43,0,7.559e+07,112.9,14058,2091.4,0,2091.4,0,0.00036342,8.6785e-06,0,0.00034265,6.7267e-05,3.4987e+07,1.3148e+06,0,2.3775e+07,9.7119e+05,2091.4,1
5396,3.01,12260,1,12260,1,0.00049636,1.4974e-06,0,0.00051109,-9.2071e-05,5.1796e+07,2.1326e+05,0,5.786e+07,-2.623e+05,12259,15904,1,15904,1,0.0011021,5.7084e-05,0,0.0011021,2.4329e-05,8.8479e+07,1.0667e+07,0,8.8479e+07,17299,15903,12262,1,12262,1,0.00048781,-3.0914e-11,0,0.00048781,-8.9717e-05,6.5337e+07,-2.8703,0,6.5337e+07,-4.8713,12261,8553,1,8553,1,-0.00012564,-3.1251e-05,0,1.5356e-06,-0.00020439,-5.1042e+07,-5.7772e+06,0,71291,-9.9958e+06,8552,10465,1,10465,1,0.0001811,-8.5003e-10,0,0.0001811,-0.00014689,3.71e+07,-122.98,0,4.5728e+07,-17.631,10464,14059,1,14059,1,0.00079453,1.2383e-09,0,0.00079454,-3.2739e-05,7.5843e+07,191.02,0,7.5843e+07,94.202,14058,2091.4,0,2091.4,0,0.00036463,8.708e-06,0,0.00034379,6.7492e-05,3.5104e+07,1.3193e+06,0,2.3854e+07,9.7449e+05,2091.4,1
5396,3.02,12260,1,12260,1,0.00049801,1.5023e-06,0,0.00051279,-9.2377e-05,5.1968e+07,2.1397e+05,0,5.8053e+07,-2.6317e+05,12259,15904,1,15904,1,0.0011058,5.7274e-05,0,0.0011058,2.441e-05,8.8773e+07,1.0703e+07,0,8.8773e+07,17340,15903,12262,1,12262,1,0.00048943,-1.2873e-10,0,0.00048943,-9.0015e-05,6.5554e+07,-16.497,0,6.5554e+07,-2.4622,12261,8553,1,8553,1,-0.00012605,-3.1355e-05,0,1.5406e-06,-0.00020507,-5.1211e+07,-5.7964e+06,0,71542,-1.0029e+07,8552,10465,1,10465,1,0.0001817,-8.3612e-10,0,0.0001817,-0.00014737,3.7223e+07,-117.1,0,4.588e+07,-21.828,10464,14059,1,14059,1,0.00079718,1.0607e-09,0,0.00079718,-3.2848e-05,7.6095e+07,164.05,0,7.6095e+07,90.409,14058,2091.4,0,2091.4,0,0.00036585,8.737e-06,0,0.00034494,6.7716e-05,3.5221e+07,1.3237e+06,0,2.3933e+07,9.7773e+05,2091.4,1
5396,3.03,12260,1,12260,1,0.00049965,1.5073e-06,0,0.00051448,-9.2682e-05,5.214e+07,2.1467e+05,0,5.8244e+07,-2.6402e+05,12259,15904,1,15904,1,0.0011094,5.7462e-05,0,0.0011094,2.449e-05,8.9067e+07,1.0737e+07,0,8.9067e+07,17453,15903,12262,1,12262,1,0.00049105,8.3838e-12,0,0.00049105,-9.0312e-05,6.5771e+07,0.70959,0,6.5771e+07,-5.9701,12261,8553,1,8553,1,-0.00012647,-3.1457e-05,0,1.5467e-06,-0.00020575,-5.138e+07,-5.8153e+06,0,71975,-1.0062e+07,8552,10465,1,10465,1,0.0001823,-1.3362e-09,0,0.0001823,-0.00014786,3.7346e+07,-202.94,0,4.6032e+07,-29.792,10464,14059,1,14059,1,0.00079981,1.1486e-09,0,0.00079981,-3.2956e-05,7.6346e+07,175.58,0,7.6346e+07,112.2,14058,2091.4,0,2091.4,0,0.00036705,8.7655e-06,0,0.00034608,6.794e-05,3.5337e+07,1.328e+06,0,2.4012e+07,9.8091e+05,2091.4,1
5396,3.04,12260,1,12260,1,0.0005013,1.5122e-06,0,0.00051618,-9.2989e-05,5.2312e+07,2.1537e+05,0,5.8437e+07,-2.649e+05,12259,15904,1,15904,1,0.0011131,5.7652e-05,0,0.0011131,2.4571e-05,8.9361e+07,1.0773e+07,0,8.9361e+07,17462,15903,12262,1,12262,1,0.00049267,-2.1925e-10,0,0.00049267,-9.061e-05,6.5988e+07,-25.695,0,6.5988e+07,-3.5357,12261,8553,1,8553,1,-0.00012689,-3.1562e-05,0,1.5512e-06,-0.00020643,-5.155e+07,-5.8346e+06,0,72135,-1.0095e+07,8552,10465,1,10465,1,0.00018291,-8.9815e-10,0,0.00018291,-0.00014835,3.747e+07,-130.47,0,4.6184e+07,-21.38,10464,14059,1,14059,1,0.00080245,1.1097e-09,0,0.00080245,-3.3065e-05,7.6598e+07,166.33,0,7.6598e+07,95.427,14058,2091.4,0,2091.4,0,0.00036827,8.7946e-06,0,0.00034722,6.8164e-05,3.5454e+07,1.3324e+06,0,2.4092e+07,9.8417e+05,2091.4,1
5396,3.05,12260,1,12260,1,0.00050295,1.5173e-06,0,0.00051788,-9.3294e-05,5.2484e+07,2.1611e+05,0,5.8629e+07,-2.6578e+05,12259,15904,1,15904,1,0.0011168,5.7841e-05,0,0.0011168,2.4652e-05,8.9655e+07,1.0809e+07,0,8.9655e+07,17541,15903,12262,1,12262,1,0.00049429,2.3964e-11,0,0.00049429,-9.0908e-05,6.6205e+07,2.5336,0,6.6205e+07,-2.9629,12261,8553,1,8553,1,-0.0001273,-3.1667e-05,0,1.5564e-06,-0.00020711,-5.172e+07,-5.854e+06,0,72358,-1.0128e+07,8552,10465,1,10465,1,0.00018351,-4.6546e-10,0,0.00018351,-0.00014884,3.7593e+07,-63.895,0,4.6336e+07,-16.986,10464,14059,1,14059,1,0.00080509,1.335e-09,0,0.00080509,-3.3174e-05,7.685e+07,205.77,0,7.685e+07,97.07,14058,2091.4,0,2091.4,0,0.00036948,8.8235e-06,0,0.00034836,6.8388e-05,3.5571e+07,1.3368e+06,0,2.4171e+07,9.8744e+05,2091.4,1
5396,3.06,12260,1,12260,1,0.0005046,1.5223e-06,0,0.00051957,-9.36e-05,5.2656e+07,2.1681e+05,0,5.8821e+07,-2.6665e+05,12259,15904,1,15904,1,0.0011204,5.803e-05,0,0.0011204,2.4733e-05,8.9949e+07,1.0844e+07,0,8.9949e+07,17585,15903,12262,1,12262,1,0.00049591,6.7674e-11,0,0.00049591,-9.1206e-05,6.6422e+07,8.579,0,6.6422e+07,-4.5521,12261,8553,1,8553,1,-0.00012772,-3.1769e-05,0,1.5616e-06,-0.00020779,-5.1889e+07,-5.873e+06,0,72632,-1.0162e+07,8552,10465,1,10465,1,0.00018411,-4.5142e-10,0,0.00018411,-0.00014933,3.7716e+07,-62.638,0,4.6488e+07,-20.084,10464,14059,1,14059,1,0.00080773,1.1875e-09,0,0.00080773,-3.3283e-05,7.7102e+07,163.18,0,7.7102e+07,97.013,14058,2091.4,0,2091.4,0,0.00037069,8.8522e-06,0,0.0003495,6.8612e-05,3.5687e+07,1.3412e+06,0,2.425e+07,9.9066e+05,2091.4,1
5396,3.07,12260,1,12260,1,0.00050625,1.5272e-06,0,0.00052128,-9.3907e-05,5.2829e+07,2.1751e+05,0,5.9014e+07,-2.6753e+05,12259,15904,1,15904,1,0.0011241,5.8222e-05,0,0.0011241,2.4814e-05,9.0243e+07,1.088e+07,0,9.0243e+07,17634,15903,12262,1,12262,1,0.00049754,-6.1922e-11,0,0.00049754,-9.1505e-05,6.664e+07,-6.4596,0,6.664e+07,-5.6129,12261,8553,1,8553,1,-0.00012814,-3.1875e-05,0,1.5664e-06,-0.00020847,-5.2059e+07,-5.8924e+06,0,72790,-1.0195e+07,8552,10465,1,10465,1,0.00018471,-1.1674e-09,0,0.00018471,-0.00014981,3.784e+07,-171.01,0,4.664e+07,-23.263,10464,14059,1,14059,1,0.00081037,1.1646e-09,0,0.00081037,-3.3392e-05,7.7355e+07,185.18,0,7.7355e+07,97.62,14058,2091.4,0,2091.4,0,0.0003719,8.8816e-06,0,0.00035065,6.8837e-05,3.5804e+07,1.3456e+06,0,2.433e+07,9.9392e+05,2091.4,1
5396,3.08,12260,1,12260,1,0.0005079,1.5323e-06,0,0.00052297,-9.4212e-05,5.3e+07,2.1824e+05,0,5.9205e+07,-2.6838e+05,12259,15904,1,15904,1,0.0011277,5.841e-05,0,0.0011277,2.4894e-05,9.0537e+07,1.0915e+07,0,9.0537e+07,17744,15903,12262,1,12262,1,0.00049915,1.9061e-10,0,0.00049915,-9.1802e-05,6.6856e+07,18.306,0,6.6856e+07,-4.7309,12261,8553,1,8553,1,-0.00012856,-3.1977e-05,0,1.5724e-06,-0.00020914,-5.2228e+07,-5.9114e+06,0,73157,-1.0228e+07,8552,10465,1,10465,1,0.00018531,-1.0361e-09,0,0.00018531,-0.0001503,3.7962e+07,-157.49,0,4.6791e+07,-26.282,10464,14059,1,14059,1,0.000813,1.3685e-09,0,0.00081301,-3.35e-05,7.7606e+07,210.42,0,7.7606e+07,117.51,14058,2091.4,0,2091.4,0,0.00037311,8.9101e-06,0,0.00035179,6.9061e-05,3.592e+07,1.3499e+06,0,2.4409e+07,9.971e+05,2091.4,1
5396,3.09,12260,1,12260,1,0.00050955,1.5372e-06,0,0.00052467,-9.4518e-05,5.3173e+07,2.1894e+05,0,5.9398e+07,-2.6926e+05,12259,15904,1,15904,1,0.0011314,5.86e-05,0,0.0011314,2.4975e-05,9.0831e+07,1.095e+07,0,9.0831e+07,17773,15903,12262,1,12262,1,0.00050078,-3.1416e-11,0,0.00050078,-9.2101e-05,6.7073e+07,-2.9937,0,6.7073e+07,-3.3144,12261,8553,1,8553,1,-0.00012897,-3.2081e-05,0,1.5769e-06,-0.00020982,-5.2398e+07,-5.9306e+06,0,73328,-1.0261e+07,8552,10465,1,10465,1,0.00018592,-6.3545e-10,0,0.00018592,-0.00015079,3.8086e+07,-90.871,0,4.6943e+07,-12.878,10464,14059,1,14059,1,0.00081565,1.2949e-09,0,0.00081565,-3.3609e-05,7.7858e+07,201.85,0,7.7858e+07,99.306,14058,2091.4,0,2091.4,0,0.00037432,8.9392e-06,0,0.00035293,6.9285e-05,3.6037e+07,1.3544e+06,0,2.4488e+07,1.0004e+06,2091.4,1
5396,3.1,12260,1,12260,1,0.0005112,1.5423e-06,0,0.00052637,-9.4824e-05,5.3345e+07,2.1966e+05,0,5.959e+07,-2.7013e+05,12259,15904,1,15904,1,0.0011351,5.8788e-05,0,0.0011351,2.5056e-05,9.1125e+07,1.0986e+07,0,9.1125e+07,17811,15903,12262,1,12262,1,0.0005024,7.2123e-11,0,0.0005024,-9.2399e-05,6.729e+07,8.9046,0,6.729e+07,-4.124,12261,8553,1,8553,1,-0.00012939,-3.2185e-05,0,1.5818e-06,-0.0002105,-5.2568e+07,-5.9499e+06,0,73508,-1.0294e+07,8552,10465,1,10465,1,0.00018652,-4.1078e-10,0,0.00018652,-0.00015128,3.8209e+07,-57.599,0,4.7095e+07,-17.759,10464,14059,1,14059,1,0.00081829,1.476e-09,0,0.00081829,-3.3718e-05,7.811e+07,222.59,0,7.811e+07,98.855,14058,2091.4,0,2091.4,0,0.00037554,8.968e-06,0,0.00035407,6.951e-05,3.6154e+07,1.3587e+06,0,2.4567e+07,1.0036e+06,2091.4,1
5396,3.11,12260,1,12260,1,0.00051285,1.5473e-06,0,0.00052807,-9.513e-05,5.3517e+07,2.2038e+05,0,5.9782e+07,-2.7101e+05,12259,15904,1,15904,1,0.0011387,5.8979e-05,0,0.0011387,2.5137e-05,9.1419e+07,1.1021e+07,0,9.1419e+07,17878,15903,12262,1,12262,1,0.00050402,1.8417e-10,0,0.00050402,-9.2697e-05,6.7507e+07,24.732,0,6.7507e+07,-5.2142,12261,8553,1,8553,1,-0.00012981,-3.2289e-05,0,1.587e-06,-0.00021118,-5.2737e+07,-5.9691e+06,0,73780,-1.0328e+07,8552,10465,1,10465,1,0.00018712,-2.4888e-10,0,0.00018712,-0.00015177,3.8332e+07,-34.183,0,4.7247e+07,-20.489,10464,14059,1,14059,1,0.00082093,1.5297e-09,0,0.00082093,-3.3827e-05,7.8362e+07,232.61,0,7.8362e+07,96.051,14058,2091.4,0,2091.4,0,0.00037675,8.997e-06,0,0.00035521,6.9734e-05,3.6271e+07,1.3631e+06,0,2.4646e+07,1.0069e+06,2091.4,1
5396,3.12,12260,1,12260,1,0.0005145,1.5522e-06,0,0.00052976,-9.5436e-05,5.3689e+07,2.2107e+05,0,5.9975e+07,-2.7188e+05,12259,15904,1,15904,1,0.0011424,5.9168e-05,0,0.0011424,2.5218e-05,9.1713e+07,1.1057e+07,0,9.1713e+07,17926,15903,12262,1,12262,1,0.00050564,1.0574e-11,0,0.00050564,-9.2995e-05,6.7724e+07,1.0357,0,6.7724e+07,-6.0537,12261,8553,1,8553,1,-0.00013023,-3.2393e-05,0,1.5921e-06,-0.00021186,-5.2907e+07,-5.9884e+06,0,74018,-1.0361e+07,8552,10465,1,10465,1,0.00018772,-4.132e-10,0,0.00018772,-0.00015225,3.8456e+07,-57.122,0,4.7399e+07,-21.986,10464,14059,1,14059,1,0.00082357,1.3636e-09,0,0.00082357,-3.3935e-05,7.8614e+07,209.07,0,7.8614e+07,94.517,14058,2091.4,0,2091.4,0,0.00037796,9.0259e-06,0,0.00035636,6.9958e-05,3.6387e+07,1.3675e+06,0,2.4726e+07,1.0101e+06,2091.4,1
5396,3.13,12260,1,12260,1,0.00051614,1.5572e-06,0,0.00053146,-9.5741e-05,5.3861e+07,2.2179e+05,0,6.0167e+07,-2.7273e+05,12259,15904,1,15904,1,0.0011461,5.9357e-05,0,0.0011461,2.5299e-05,9.2007e+07,1.1092e+07,0,9.2007e+07,18021,15903,12262,1,12262,1,0.00050726,3.1187e-10,0,0.00050726,-9.3293e-05,6.7941e+07,34.064,0,6.7941e+07,-6.014,12261,8553,1,8553,1,-0.00013064,-3.2497e-05,0,1.5974e-06,-0.00021254,-5.3076e+07,-6.0075e+06,0,74095,-1.0393e+07,8552,10465,1,10465,1,0.00018832,-1.052e-09,0,0.00018832,-0.00015274,3.8579e+07,-158.48,0,4.7551e+07,-31.529,10464,14059,1,14059,1,0.0008262,1.5888e-09,0,0.0008262,-3.4044e-05,7.8866e+07,237.09,0,7.8866e+07,122.5,14058,2091.4,0,2091.4,0,0.00037917,9.0546e-06,0,0.0003575,7.0182e-05,3.6504e+07,1.3718e+06,0,2.4805e+07,1.0132e+06,2091.4,1
5396,3.14,12260,1,12260,1,0.00051779,1.562e-06,0,0.00053316,-9.6047e-05,5.4033e+07,2.2247e+05,0,6.0359e+07,-2.7362e+05,12259,15904,1,15904,1,0.0011497,5.9548e-05,0,0.0011497,2.5379e-05,9.2301e+07,1.1128e+07,0,9.2301e+07,18047,15903,12262,1,12262,1,0.00050888,-1.1073e-10,0,0.00050888,-9.3591e-05,6.8158e+07,-12.98,0,6.8158e+07,-2.8633,12261,8553,1,8553,1,-0.00013106,-3.26e-05,0,1.6023e-06,-0.00021322,-5.3246e+07,-6.0266e+06,0,74496,-1.0428e+07,8552,10465,1,10465,1,0.00018892,-7.3175e-10,0,0.00018892,-0.00015323,3.8702e+07,-103.85,0,4.7703e+07,-18.397,10464,14059,1,14059,1,0.00082885,1.1683e-09,0,0.00082885,-3.4153e-05,7.9118e+07,172.6,0,7.9118e+07,101.85,14058,2091.4,0,2091.4,0,0.00038038,9.0839e-06,0,0.00035864,7.0406e-05,3.662e+07,1.3763e+06,0,2.4884e+07,1.0166e+06,2091.4,1
5396,3.15,12260,1,12260,1,0.00051944,1.5671e-06,0,0.00053486,-9.6353e-05,5.4205e+07,2.2319e+05,0,6.0551e+07,-2.7449e+05,12259,15904,1,15904,1,0.0011534,5.9736e-05,0,0.0011534,2.546e-05,9.2594e+07,1.1163e+07,0,9.2594e+07,18094,15903,12262,1,12262,1,0.0005105,-3.0873e-11,0,0.0005105,-9.3889e-05,6.8376e+07,-4.0586,0,6.8376e+07,-1.5209,12261,8553,1,8553,1,-0.00013148,-3.2704e-05,0,1.6074e-06,-0.0002139,-5.3415e+07,-6.0459e+06,0,74773,-1.046e+07,8552,10465,1,10465,1,0.00018953,-4.4038e-10,0,0.00018953,-0.00015372,3.8825e+07,-60.786,0,4.7855e+07,-20.366,10464,14059,1,14059,1,0.00083149,1.3586e-09,0,0.00083149,-3.4262e-05,7.937e+07,210.7,0,7.937e+07,98.838,14058,2091.4,0,2091.4,0,0.00038159,9.1127e-06,0,0.00035978,7.0631e-05,3.6737e+07,1.3806e+06,0,2.4963e+07,1.0198e+06,2091.4,1
5396,3.16,12260,1,12260,1,0.00052109,1.572e-06,0,0.00053656,-9.6659e-05,5.4377e+07,2.239e+05,0,6.0743e+07,-2.7536e+05,12259,15904,1,15904,1,0.001157,5.9928e-05,0,0.001157,2.5541e-05,9.2888e+07,1.1198e+07,0,9.2888e+07,18155,15903,12262,1,12262,1,0.00051212,-9.7094e-11,0,0.00051212,-9.4187e-05,6.8593e+07,-10.956,0,6.8593e+07,-2.1345,12261,8553,1,8553,1,-0.0001319,-3.2808e-05,0,1.6125e-06,-0.00021458,-5.3585e+07,-6.065e+06,0,74955,-1.0494e+07,8552,10465,1,10465,1,0.00019013,-6.2152e-10,0,0.00019013,-0.00015421,3.8949e+07,-88.152,0,4.8007e+07,-21.505,10464,14059,1,14059,1,0.00083413,1.3361e-09,0,0.00083413,-3.4371e-05,7.9622e+07,208.91,0,7.9622e+07,99.388,14058,2091.4,0,2091.4,0,0.0003828,9.1417e-06,0,0.00036093,7.0855e-05,3.6854e+07,1.385e+06,0,2.5043e+07,1.023e+06,2091.4,1
5396,3.17,12260,1,12260,1,0.00052274,1.577e-06,0,0.00053825,-9.6965e-05,5.4549e+07,2.246e+05,0,6.0936e+07,-2.7623e+05,12259,15904,1,15904,1,0.0011607,6.0117e-05,0,0.0011607,2.5622e-05,9.3182e+07,1.1234e+07,0,9.3182e+07,18209,15903,12262,1,12262,1,0.00051374,-6.0241e-12,0,0.00051374,-9.4485e-05,6.881e+07,-0.5372,0,6.881e+07,-4.583,12261,8553,1,8553,1,-0.00013231,-3.2912e-05,0,1.6174e-06,-0.00021526,-5.3755e+07,-6.0842e+06,0,75152,-1.0527e+07,8552,10465,1,10465,1,0.00019073,-5.2954e-10,0,0.00019073,-0.00015469,3.9072e+07,-73.605,0,4.8159e+07,-22.445,10464,14059,1,14059,1,0.00083677,1.2613e-09,0,0.00083677,-3.4479e-05,7.9874e+07,189.47,0,7.9874e+07,96.158,14058,2091.4,0,2091.4,0,0.00038402,9.1706e-06,0,0.00036207,7.1079e-05,3.697e+07,1.3894e+06,0,2.5122e+07,1.0263e+06,2091.4,1
5396,3.18,12260,1,12260,1,0.00052439,1.5818e-06,0,0.00053995,-9.727e-05,5.4721e+07,2.253e+05,0,6.1128e+07,-2.7709e+05,12259,15904,1,15904,1,0.0011644,6.0305e-05,0,0.0011644,2.5703e-05,9.3476e+07,1.1269e+07,0,9.3476e+07,18310,15903,12262,1,12262,1,0.00051536,2.3862e-11,0,0.00051536,-9.4782e-05,6.9026e+07,1.9135,0,6.9026e+07,-4.4479,12261,8553,1,8553,1,-0.00013273,-3.3014e-05,0,1.6231e-06,-0.00021594,-5.3924e+07,-6.1032e+06,0,75491,-1.056e+07,8552,10465,1,10465,1,0.00019133,-9.5164e-10,0,0.00019133,-0.00015518,3.9195e+07,-145.61,0,4.831e+07,-21.022,10464,14059,1,14059,1,0.0008394,1.2569e-09,0,0.0008394,-3.4588e-05,8.0125e+07,171.77,0,8.0125e+07,115.75,14058,2091.4,0,2091.4,0,0.00038522,9.1993e-06,0,0.00036321,7.1303e-05,3.7087e+07,1.3937e+06,0,2.5201e+07,1.0295e+06,2091.4,1
5396,3.19,12260,1,12260,1,0.00052603,1.5868e-06,0,0.00054164,-9.7576e-05,5.4893e+07,2.2601e+05,0,6.132e+07,-2.7797e+05,12259,15904,1,15904,1,0.001168,6.0493e-05,0,0.001168,2.5783e-05,9.377e+07,1.1304e+07,0,9.377e+07,18356,15903,12262,1,12262,1,0.00051698,-1.8577e-11,0,0.00051698,-9.508e-05,6.9243e+07,-1.7709,0,6.9243e+07,-1.7604,12261,8553,1,8553,1,-0.00013315,-3.3117e-05,0,1.6286e-06,-0.00021661,-5.4093e+07,-6.1223e+06,0,75880,-1.0593e+07,8552,10465,1,10465,1,0.00019193,-3.681e-10,0,0.00019193,-0.00015567,3.9318e+07,-53.376,0,4.8462e+07,-9.0944,10464,14059,1,14059,1,0.00084204,1.3136e-09,0,0.00084204,-3.4696e-05,8.0377e+07,174.59,0,8.0377e+07,110.76,14058,2091.4,0,2091.4,0,0.00038643,9.228e-06,0,0.00036435,7.1527e-05,3.7203e+07,1.3981e+06,0,2.528e+07,1.0327e+06,2091.4,1
5396,3.2,12260,1,12260,1,0.00052769,1.5919e-06,0,0.00054335,-9.7882e-05,5.5065e+07,2.2672e+05,0,6.1512e+07,-2.7884e+05,12259,15904,1,15904,1,0.0011717,6.0683e-05,0,0.0011717,2.5864e-05,9.4064e+07,1.134e+07,0,9.4064e+07,18388,15903,12262,1,12262,1,0.0005186,-4.6427e-11,0,0.0005186,-9.5379e-05,6.946e+07,-4.6936,0,6.946e+07,-1.8732,12261,8553,1,8553,1,-0.00013356,-3.3222e-05,0,1.6331e-06,-0.00021729,-5.4263e+07,-6.1416e+06,0,75973,-1.0626e+07,8552,10465,1,10465,1,0.00019253,-4.7922e-10,0,0.00019253,-0.00015616,3.9441e+07,-72.398,0,4.8614e+07,-33.647,10464,14059,1,14059,1,0.00084468,1.4054e-09,0,0.00084468,-3.4805e-05,8.0629e+07,213.57,0,8.0629e+07,98.715,14058,2091.4,0,2091.4,0,0.00038765,9.257e-06,0,0.00036549,7.1751e-05,3.732e+07,1.4025e+06,0,2.536e+07,1.036e+06,2091.4,1
5396,3.21,12260,1,12260,1,0.00052934,1.5969e-06,0,0.00054504,-9.8188e-05,5.5238e+07,2.2743e+05,0,6.1704e+07,-2.7972e+05,12259,15904,1,15904,1,0.0011753,6.0874e-05,0,0.0011753,2.5945e-05,9.4358e+07,1.1376e+07,0,9.4358e+07,18448,15903,12262,1,12262,1,0.00052022,9.6603e-11,0,0.00052022,-9.5677e-05,6.9678e+07,11.017,0,6.9678e+07,-6.2447,12261,8553,1,8553,1,-0.00013398,-3.3327e-05,0,1.6382e-06,-0.00021797,-5.4433e+07,-6.1609e+06,0,76187,-1.066e+07,8552,10465,1,10465,1,0.00019314,-6.3057e-10,0,0.00019314,-0.00015665,3.9565e+07,-88.596,0,4.8766e+07,-24.93,10464,14059,1,14059,1,0.00084732,1.2607e-09,0,0.00084732,-3.4914e-05,8.0881e+07,183.18,0,8.0881e+07,102.83,14058,2091.4,0,2091.4,0,0.00038886,9.2861e-06,0,0.00036663,7.1976e-05,3.7437e+07,1.4069e+06,0,2.5439e+07,1.0392e+06,2091.4,1
5396,3.22,12260,1,12260,1,0.00053098,1.6019e-06,0,0.00054674,-9.8494e-05,5.5409e+07,2.2815e+05,0,6.1896e+07,-2.8057e+05,12259,15904,1,15904,1,0.001179,6.1065e-05,0,0.001179,2.6026e-05,9.4652e+07,1.1411e+07,0,9.4652e+07,18546,15903,12262,1,12262,1,0.00052184,1.1701e-10,0,0.00052184,-9.5975e-05,6.9894e+07,11.178,0,6.9894e+07,-3.6356,12261,8553,1,8553,1,-0.0001344,-3.343e-05,0,1.6437e-06,-0.00021865,-5.4602e+07,-6.1799e+06,0,76444,-1.0692e+07,8552,10465,1,10465,1,0.00019374,-8.5195e-10,0,0.00019374,-0.00015713,3.9688e+07,-130.18,0,4.8918e+07,-21.719,10464,14059,1,14059,1,0.00084996,1.3802e-09,0,0.00084996,-3.5023e-05,8.1133e+07,190.79,0,8.1133e+07,122.25,14058,2091.4,0,2091.4,0,0.00039007,9.315e-06,0,0.00036778,7.22e-05,3.7553e+07,1.4113e+06,0,2.5518e+07,1.0424e+06,2091.4,1
5396,3.23,12260,1,12260,1,0.00053264,1.6067e-06,0,0.00054844,-9.8801e-05,5.5582e+07,2.2883e+05,0,6.2089e+07,-2.8147e+05,12259,15904,1,15904,1,0.0011827,6.1257e-05,0,0.0011827,2.6107e-05,9.4947e+07,1.1447e+07,0,9.4947e+07,18559,15903,12262,1,12262,1,0.00052347,-2.0682e-10,0,0.00052347,-9.6274e-05,7.0112e+07,-24.967,0,7.0112e+07,-3.0125,12261,8553,1,8553,1,-0.00013482,-3.3535e-05,0,1.6479e-06,-0.00021933,-5.4772e+07,-6.1995e+06,0,76526,-1.0727e+07,8552,10465,1,10465,1,0.00019434,-8.2658e-10,0,0.00019434,-0.00015762,3.9811e+07,-118.34,0,4.907e+07,-17.167,10464,14059,1,14059,1,0.00085261,1.0191e-09,0,0.00085261,-3.5132e-05,8.1386e+07,150.17,0,8.1386e+07,100.6,14058,2091.4,0,2091.4,0,0.00039129,9.3446e-06,0,0.00036892,7.2425e-05,3.767e+07,1.4158e+06,0,2.5598e+07,1.0457e+06,2091.4,1
5396,3.24,12260,1,12260,1,0.00053428,1.6117e-06,0,0.00055014,-9.9106e-05,5.5754e+07,2.2955e+05,0,6.2281e+07,-2.8232e+05,12259,15904,1,15904,1,0.0011863,6.1445e-05,0,0.0011863,2.6188e-05,9.524e+07,1.1482e+07,0,9.524e+07,18678,15903,12262,1,12262,1,0.00052508,1.2973e-11,0,0.00052508,-9.6571e-05,7.0329e+07,0.98688,0,7.0329e+07,-5.5825,12261,8553,1,8553,1,-0.00013523,-3.3637e-05,0,1.6538e-06,-0.00022001,-5.4941e+07,-6.2183e+06,0,76918,-1.0759e+07,8552,10465,1,10465,1,0.00019494,-1.2393e-09,0,0.00019494,-0.00015811,3.9934e+07,-188.36,0,4.9222e+07,-27.546,10464,14059,1,14059,1,0.00085524,1.2546e-09,0,0.00085524,-3.5241e-05,8.1637e+07,188.05,0,8.1637e+07,122.56,14058,2091.4,0,2091.4,0,0.00039249,9.3731e-06,0,0.00037006,7.2648e-05,3.7786e+07,1.4201e+06,0,2.5677e+07,1.0489e+06,2091.4,1
5396,3.25,12260,1,12260,1,0.00053593,1.6168e-06,0,0.00055183,-9.9411e-05,5.5926e+07,2.3027e+05,0,6.2473e+07,-2.8319e+05,12259,15904,1,15904,1,0.00119,6.1634e-05,0,0.00119,2.6268e-05,9.5534e+07,1.1517e+07,0,9.5534e+07,18731,15903,12262,1,12262,1,0.0005267,4.6308e-11,0,0.0005267,-9.6869e-05,7.0546e+07,3.8896,0,7.0546e+07,-5.2192,12261,8553,1,8553,1,-0.00013565,-3.3742e-05,0,1.6592e-06,-0.00022069,-5.5111e+07,-6.2376e+06,0,77199,-1.0792e+07,8552,10465,1,10465,1,0.00019554,-1.1654e-09,0,0.00019554,-0.0001586,4.0057e+07,-176.38,0,4.9374e+07,-25.927,10464,14059,1,14059,1,0.00085788,1.3225e-09,0,0.00085788,-3.5349e-05,8.1889e+07,203.23,0,8.1889e+07,121.99,14058,2091.4,0,2091.4,0,0.0003937,9.4019e-06,0,0.0003712,7.2872e-05,3.7903e+07,1.4245e+06,0,2.5756e+07,1.0521e+06,2091.4,1
5396,3.26,12260,1,12260,1,0.00053758,1.6217e-06,0,0.00055353,-9.9717e-05,5.6098e+07,2.3097e+05,0,6.2665e+07,-2.8406e+05,12259,15904,1,15904,1,0.0011937,6.1823e-05,0,0.0011937,2.6349e-05,9.5828e+07,1.1552e+07,0,9.5828e+07,18776,15903,12262,1,12262,1,0.00052832,3.4758e-11,0,0.00052832,-9.7167e-05,7.0763e+07,2.8962,0,7.0763e+07,-5.7624,12261,8553,1,8553,1,-0.00013607,-3.3845e-05,0,1.6644e-06,-0.00022137,-5.528e+07,-6.2567e+06,0,77437,-1.0825e+07,8552,10465,1,10465,1,0.00019614,-1.0832e-09,0,0.00019614,-0.00015908,4.0181e+07,-162.99,0,4.9526e+07,-26.659,10464,14059,1,14059,1,0.00086052,1.338e-09,0,0.00086052,-3.5458e-05,8.2141e+07,181.26,0,8.2141e+07,120.47,14058,2091.4,0,2091.4,0,0.00039492,9.4307e-06,0,0.00037234,7.3097e-05,3.802e+07,1.4288e+06,0,2.5835e+07,1.0554e+06,2091.4,1
5396,3.27,12260,1,12260,1,0.00053923,1.6267e-06,0,0.00055523,-0.00010002,5.627e+07,2.3168e+05,0,6.2858e+07,-2.8493e+05,12259,15904,1,15904,1,0.0011973,6.2012e-05,0,0.0011973,2.643e-05,9.6122e+07,1.1588e+07,0,9.6122e+07,18820,15903,12262,1,12262,1,0.00052995,3.1576e-11,0,0.00052995,-9.7465e-05,7.098e+07,2.5864,0,7.098e+07,-5.8002,12261,8553,1,8553,1,-0.00013649,-3.3949e-05,0,1.6691e-06,-0.00022205,-5.545e+07,-6.2758e+06,0,77581,-1.0858e+07,8552,10465,1,10465,1,0.00019674,-1.192e-09,0,0.00019674,-0.00015957,4.0304e+07,-178.13,0,4.9678e+07,-27.552,10464,14059,1,14059,1,0.00086316,1.332e-09,0,0.00086316,-3.5567e-05,8.2393e+07,189.02,0,8.2393e+07,120.8,14058,2091.4,0,2091.4,0,0.00039613,9.4596e-06,0,0.00037349,7.3321e-05,3.8136e+07,1.4332e+06,0,2.5914e+07,1.0586e+06,2091.4,1
5396,3.28,12260,1,12260,1,0.00054088,1.6316e-06,0,0.00055693,-0.00010033,5.6442e+07,2.3238e+05,0,6.305e+07,-2.8581e+05,12259,15904,1,15904,1,0.001201,6.2205e-05,0,0.001201,2.6511e-05,9.6416e+07,1.1624e+07,0,9.6416e+07,18893,15903,12262,1,12262,1,0.00053157,-8.6322e-12,0,0.00053157,-9.7764e-05,7.1197e+07,-0.80837,0,7.1197e+07,-5.8023,12261,8553,1,8553,1,-0.0001369,-3.4053e-05,0,1.6739e-06,-0.00022273,-5.562e+07,-6.2952e+06,0,77773,-1.0892e+07,8552,10465,1,10465,1,0.00019735,-1.5697e-09,0,0.00019735,-0.00016006,4.0427e+07,-240.25,0,4.983e+07,-33.755,10464,14059,1,14059,1,0.0008658,1.3512e-09,0,0.0008658,-3.5676e-05,8.2645e+07,203.07,0,8.2645e+07,125.6,14058,2091.4,0,2091.4,0,0.00039734,9.489e-06,0,0.00037463,7.3545e-05,3.8253e+07,1.4376e+06,0,2.5994e+07,1.0618e+06,2091.4,1
5396,3.29,12260,1,12260,1,0.00054253,1.6367e-06,0,0.00055863,-0.00010063,5.6614e+07,2.3311e+05,0,6.3242e+07,-2.8667e+05,12259,15904,1,15904,1,0.0012046,6.2391e-05,0,0.0012046,2.6592e-05,9.6709e+07,1.1659e+07,0,9.6709e+07,18946,15903,12262,1,12262,1,0.00053319,1.1644e-10,0,0.00053319,-9.8061e-05,7.1414e+07,11.086,0,7.1414e+07,-4.591,12261,8553,1,8553,1,-0.00013732,-3.4156e-05,0,1.6795e-06,-0.0002234,-5.5789e+07,-6.3143e+06,0,78122,-1.0925e+07,8552,10465,1,10465,1,0.00019795,-1.0558e-09,0,0.00019795,-0.00016055,4.055e+07,-159.43,0,4.9981e+07,-26.287,10464,14059,1,14059,1,0.00086843,1.4389e-09,0,0.00086844,-3.5784e-05,8.2897e+07,206.15,0,8.2897e+07,123.26,14058,2091.4,0,2091.4,0,0.00039855,9.5174e-06,0,0.00037577,7.3769e-05,3.837e+07,1.4419e+06,0,2.6073e+07,1.0651e+06,2091.4,1
5396,3.3,12260,1,12260,1,0.00054418,1.6418e-06,0,0.00056032,-0.00010094,5.6786e+07,2.3383e+05,0,6.3434e+07,-2.8755e+05,12259,15904,1,15904,1,0.0012083,6.2581e-05,0,0.0012083,2.6673e-05,9.7003e+07,1.1694e+07,0,9.7003e+07,19023,15903,12262,1,12262,1,0.00053481,2.1802e-10,0,0.00053481,-9.836e-05,7.1631e+07,20.729,0,7.1631e+07,-5.4672,12261,8553,1,8553,1,-0.00013774,-3.4261e-05,0,1.6847e-06,-0.00022408,-5.5959e+07,-6.3336e+06,0,78391,-1.0958e+07,8552,10465,1,10465,1,0.00019855,-1.3402e-09,0,0.00019855,-0.00016104,4.0674e+07,-201.76,0,5.0133e+07,-33.245,10464,14059,1,14059,1,0.00087107,1.5511e-09,0,0.00087108,-3.5893e-05,8.3149e+07,232.99,0,8.3149e+07,127.34,14058,2091.4,0,2091.4,0,0.00039976,9.5465e-06,0,0.00037691,7.3994e-05,3.8486e+07,1.4463e+06,0,2.6152e+07,1.0683e+06,2091.4,1
5396,3.31,12260,1,12260,1,0.00054583,1.6466e-06,0,0.00056203,-0.00010125,5.6958e+07,2.3452e+05,0,6.3627e+07,-2.8843e+05,12259,15904,1,15904,1,0.001212,6.2771e-05,0,0.001212,2.6753e-05,9.7298e+07,1.173e+07,0,9.7298e+07,19021,15903,12262,1,12262,1,0.00053643,4.1061e-11,0,0.00053643,-9.8658e-05,7.1849e+07,4.1028,0,7.1849e+07,-4.5523,12261,8553,1,8553,1,-0.00013816,-3.4365e-05,0,1.689e-06,-0.00022476,-5.6128e+07,-6.3529e+06,0,78509,-1.0992e+07,8552,10465,1,10465,1,0.00019915,-7.4304e-10,0,0.00019915,-0.00016153,4.0797e+07,-105.04,0,5.0286e+07,-21.945,10464,14059,1,14059,1,0.00087372,1.3355e-09,0,0.00087372,-3.6002e-05,8.3401e+07,209.66,0,8.3401e+07,106.72,14058,2091.4,0,2091.4,0,0.00040098,9.5756e-06,0,0.00037806,7.4218e-05,3.8603e+07,1.4508e+06,0,2.6231e+07,1.0716e+06,2091.4,1
5396,3.32,12260,1,12260,1,0.00054748,1.6515e-06,0,0.00056372,-0.00010155,5.713e+07,2.3522e+05,0,6.3819e+07,-2.8931e+05,12259,15904,1,15904,1,0.0012156,6.2961e-05,0,0.0012156,2.6834e-05,9.7592e+07,1.1766e+07,0,9.7592e+07,19075,15903,12262,1,12262,1,0.00053805,-9.4818e-11,0,0.00053805,-9.8956e-05,7.2066e+07,-11.926,0,7.2066e+07,-4.209,12261,8553,1,8553,1,-0.00013857,-3.4468e-05,0,1.6941e-06,-0.00022544,-5.6298e+07,-6.372e+06,0,78764,-1.1025e+07,8552,10465,1,10465,1,0.00019975,-7.9217e-10,0,0.00019975,-0.00016201,4.092e+07,-109.76,0,5.0438e+07,-25.689,10464,14059,1,14059,1,0.00087636,1.1325e-09,0,0.00087636,-3.6111e-05,8.3653e+07,167.48,0,8.3653e+07,101.4,14058,2091.4,0,2091.4,0,0.00040219,9.6045e-06,0,0.0003792,7.4442e-05,3.872e+07,1.4551e+06,0,2.6311e+07,1.0748e+06,2091.4,1
5396,3.33,12260,1,12260,1,0.00054913,1.6568e-06,0,0.00056542,-0.00010186,5.7303e+07,2.3597e+05,0,6.4011e+07,-2.9018e+05,12259,15904,1,15904,1,0.0012193,6.315e-05,0,0.0012193,2.6915e-05,9.7886e+07,1.1801e+07,0,9.7886e+07,19149,15903,12262,1,12262,1,0.00053967,3.6471e-10,0,0.00053967,-9.9254e-05,7.2283e+07,53.114,0,7.2283e+07,-1.4897,12261,8553,1,8553,1,-0.00013899,-3.4574e-05,0,1.6989e-06,-0.00022612,-5.6468e+07,-6.3915e+06,0,78887,-1.1058e+07,8552,10465,1,10465,1,0.00020036,1.1767e-11,0,0.00020036,-0.0001625,4.1044e+07,1.0355,0,5.059e+07,-22.412,10464,14059,1,14059,1,0.000879,1.7451e-09,0,0.000879,-3.622e-05,8.3906e+07,263.2,0,8.3906e+07,103.51,14058,2091.4,0,2091.4,0,0.0004034,9.6334e-06,0,0.00038034,7.4667e-05,3.8836e+07,1.4595e+06,0,2.639e+07,1.0781e+06,2091.4,1
5396,3.34,12260,1,12260,1,0.00055077,1.6616e-06,0,0.00056712,-0.00010216,5.7475e+07,2.3665e+05,0,6.4203e+07,-2.9105e+05,12259,15904,1,15904,1,0.0012229,6.334e-05,0,0.0012229,2.6996e-05,9.8179e+07,1.1836e+07,0,9.8179e+07,19195,15903,12262,1,12262,1,0.00054129,6.9089e-11,0,0.00054129,-9.9552e-05,7.25e+07,9.0747,0,7.25e+07,-2.9465,12261,8553,1,8553,1,-0.00013941,-3.4677e-05,0,1.7045e-06,-0.0002268,-5.6637e+07,-6.4105e+06,0,79266,-1.1091e+07,8552,10465,1,10465,1,0.00020096,-2.9416e-10,0,0.00020096,-0.00016299,4.1167e+07,-39.845,0,5.0741e+07,-22.247,10464,14059,1,14059,1,0.00088164,1.3904e-09,0,0.00088164,-3.6328e-05,8.4157e+07,204.99,0,8.4157e+07,104.15,14058,2091.4,0,2091.4,0,0.00040461,9.6623e-06,0,0.00038148,7.4891e-05,3.8953e+07,1.4639e+06,0,2.6469e+07,1.0813e+06,2091.4,1
5396,3.35,12260,1,12260,1,0.00055242,1.6664e-06,0,0.00056881,-0.00010247,5.7647e+07,2.3734e+05,0,6.4396e+07,-2.9192e+05,12259,15904,1,15904,1,0.0012266,6.3529e-05,0,0.0012266,2.7077e-05,9.8473e+07,1.1872e+07,0,9.8473e+07,19258,15903,12262,1,12262,1,0.00054291,-1.1374e-10,0,0.00054291,-9.9849e-05,7.2716e+07,-14.729,0,7.2716e+07,-0.80608,12261,8553,1,8553,1,-0.00013983,-3.478e-05,0,1.7098e-06,-0.00022748,-5.6807e+07,-6.4295e+06,0,79577,-1.1124e+07,8552,10465,1,10465,1,0.00020156,-5.1133e-10,0,0.00020156,-0.00016348,4.129e+07,-71.495,0,5.0893e+07,-21.938,10464,14059,1,14059,1,0.00088428,1.2995e-09,0,0.00088428,-3.6437e-05,8.4409e+07,178.68,0,8.4409e+07,108.17,14058,2091.4,0,2091.4,0,0.00040582,9.6912e-06,0,0.00038262,7.5115e-05,3.9069e+07,1.4683e+06,0,2.6548e+07,1.0845e+06,2091.4,1
5396,3.36,12260,1,12260,1,0.00055407,1.6715e-06,0,0.00057051,-0.00010278,5.7819e+07,2.3806e+05,0,6.4588e+07,-2.9279e+05,12259,15904,1,15904,1,0.0012303,6.3719e-05,0,0.0012303,2.7158e-05,9.8767e+07,1.1907e+07,0,9.8767e+07,19328,15903,12262,1,12262,1,0.00054453,-7.71e-11,0,0.00054453,-0.00010015,7.2934e+07,-8.9473,0,7.2934e+07,-3.1708,12261,8553,1,8553,1,-0.00014024,-3.4884e-05,0,1.7151e-06,-0.00022816,-5.6976e+07,-6.4488e+06,0,79861,-1.1158e+07,8552,10465,1,10465,1,0.00020216,-4.7615e-10,0,0.00020216,-0.00016396,4.1413e+07,-67.12,0,5.1045e+07,-22.641,10464,14059,1,14059,1,0.00088692,1.4371e-09,0,0.00088692,-3.6546e-05,8.4661e+07,213.42,0,8.4661e+07,107.7,14058,2091.4,0,2091.4,0,0.00040703,9.7201e-06,0,0.00038377,7.5339e-05,3.9186e+07,1.4727e+06,0,2.6628e+07,1.0878e+06,2091.4,1
5396,3.37,12260,1,12260,1,0.00055572,1.6764e-06,0,0.00057221,-0.00010308,5.7991e+07,2.3876e+05,0,6.478e+07,-2.9366e+05,12259,15904,1,15904,1,0.0012339,6.3908e-05,0,0.0012339,2.7238e-05,9.9061e+07,1.1942e+07,0,9.9061e+07,19372,15903,12262,1,12262,1,0.00054615,-1.2817e-10,0,0.00054615,-0.00010045,7.3151e+07,-15.223,0,7.3151e+07,-5.4886,12261,8553,1,8553,1,-0.00014066,-3.4987e-05,0,1.72e-06,-0.00022884,-5.7146e+07,-6.4678e+06,0,80045,-1.1191e+07,8552,10465,1,10465,1,0.00020276,-6.1897e-10,0,0.00020276,-0.00016445,4.1536e+07,-88.376,0,5.1197e+07,-22.42,10464,14059,1,14059,1,0.00088956,1.3114e-09,0,0.00088956,-3.6654e-05,8.4913e+07,185.92,0,8.4913e+07,108.33,14058,2091.4,0,2091.4,0,0.00040824,9.749e-06,0,0.00038491,7.5563e-05,3.9303e+07,1.477e+06,0,2.6707e+07,1.091e+06,2091.4,1
5396,3.38,12260,1,12260,1,0.00055737,1.6815e-06,0,0.00057391,-0.00010339,5.8163e+07,2.3949e+05,0,6.4972e+07,-2.9452e+05,12259,15904,1,15904,1,0.0012376,6.4097e-05,0,0.0012376,2.7319e-05,9.9355e+07,1.1978e+07,0,9.9355e+07,19464,15903,12262,1,12262,1,0.00054777,2.284e-10,0,0.00054777,-0.00010074,7.3368e+07,23.776,0,7.3368e+07,-4.9054,12261,8553,1,8553,1,-0.00014108,-3.5091e-05,0,1.7256e-06,-0.00022952,-5.7315e+07,-6.4871e+06,0,80287,-1.1224e+07,8552,10465,1,10465,1,0.00020336,-9.3914e-10,0,0.00020336,-0.00016494,4.1659e+07,-142.63,0,5.1349e+07,-26.209,10464,14059,1,14059,1,0.00089219,1.4923e-09,0,0.00089219,-3.6763e-05,8.5165e+07,211.81,0,8.5165e+07,126.89,14058,2091.4,0,2091.4,0,0.00040945,9.7777e-06,0,0.00038605,7.5787e-05,3.9419e+07,1.4814e+06,0,2.6786e+07,1.0942e+06,2091.4,1
5396,3.39,12260,1,12260,1,0.00055902,1.6865e-06,0,0.00057561,-0.00010369,5.8335e+07,2.402e+05,0,6.5165e+07,-2.9541e+05,12259,15904,1,15904,1,0.0012412,6.4289e-05,0,0.0012412,2.74e-05,9.9649e+07,1.2014e+07,0,9.9649e+07,19503,15903,12262,1,12262,1,0.00054939,-1.5592e-11,0,0.00054939,-0.00010104,7.3585e+07,-1.4428,0,7.3585e+07,-2.7386,12261,8553,1,8553,1,-0.0001415,-3.5195e-05,0,1.7304e-06,-0.00023019,-5.7485e+07,-6.5064e+06,0,80518,-1.1258e+07,8552,10465,1,10465,1,0.00020397,-4.7659e-10,0,0.00020397,-0.00016543,4.1783e+07,-66.349,0,5.1501e+07,-18.941,10464,14059,1,14059,1,0.00089484,1.4657e-09,0,0.00089484,-3.6872e-05,8.5417e+07,227.17,0,8.5417e+07,107.91,14058,2091.4,0,2091.4,0,0.00041067,9.807e-06,0,0.00038719,7.6012e-05,3.9536e+07,1.4858e+06,0,2.6865e+07,1.0975e+06,2091.4,1
5396,3.4,12260,1,12260,1,0.00056067,1.6913e-06,0,0.00057731,-0.000104,5.8507e+07,2.4089e+05,0,6.5357e+07,-2.9628e+05,12259,15904,1,15904,1,0.0012449,6.4478e-05,0,0.0012449,2.7481e-05,9.9943e+07,1.2049e+07,0,9.9943e+07,19548,15903,12262,1,12262,1,0.00055102,4.9126e-11,0,0.00055102,-0.00010134,7.3802e+07,4.3702,0,7.3802e+07,-5.3142,12261,8553,1,8553,1,-0.00014191,-3.5299e-05,0,1.7352e-06,-0.00023087,-5.7654e+07,-6.5255e+06,0,80754,-1.1291e+07,8552,10465,1,10465,1,0.00020457,-7.1654e-10,0,0.00020457,-0.00016592,4.1906e+07,-99.796,0,5.1653e+07,-25.364,10464,14059,1,14059,1,0.00089748,1.2639e-09,0,0.00089748,-3.6981e-05,8.5669e+07,194.91,0,8.5669e+07,106.27,14058,2091.4,0,2091.4,0,0.00041188,9.8358e-06,0,0.00038834,7.6236e-05,3.9653e+07,1.4902e+06,0,2.6945e+07,1.1008e+06,2091.4,1
5396,3.41,12260,1,12260,1,0.00056232,1.6964e-06,0,0.000579,-0.00010431,5.8679e+07,2.4161e+05,0,6.5549e+07,-2.9715e+05,12259,15904,1,15904,1,0.0012486,6.4667e-05,0,0.0012486,2.7562e-05,1.0024e+08,1.2084e+07,0,1.0024e+08,19597,15903,12262,1,12262,1,0.00055264,6.0737e-11,0,0.00055264,-0.00010164,7.4019e+07,6.4491,0,7.4019e+07,-6.4673,12261,8553,1,8553,1,-0.00014233,-3.5403e-05,0,1.7404e-06,-0.00023155,-5.7824e+07,-6.5447e+06,0,80949,-1.1324e+07,8552,10465,1,10465,1,0.00020517,-6.234e-10,0,0.00020517,-0.0001664,4.2029e+07,-87.605,0,5.1805e+07,-26.658,10464,14059,1,14059,1,0.00090011,1.3851e-09,0,0.00090012,-3.709e-05,8.5921e+07,201.55,0,8.5921e+07,107.09,14058,2091.4,0,2091.4,0,0.00041309,9.8647e-06,0,0.00038948,7.646e-05,3.9769e+07,1.4946e+06,0,2.7024e+07,1.104e+06,2091.4,1
5396,3.42,12260,1,12260,1,0.00056397,1.7013e-06,0,0.0005807,-0.00010461,5.8851e+07,2.4231e+05,0,6.5741e+07,-2.9802e+05,12259,15904,1,15904,1,0.0012522,6.4858e-05,0,0.0012522,2.7643e-05,1.0053e+08,1.212e+07,0,1.0053e+08,19653,15903,12262,1,12262,1,0.00055426,-1.2153e-10,0,0.00055426,-0.00010194,7.4236e+07,-14.769,0,7.4236e+07,-3.2352,12261,8553,1,8553,1,-0.00014275,-3.5507e-05,0,1.7453e-06,-0.00023223,-5.7994e+07,-6.564e+06,0,81137,-1.1357e+07,8552,10465,1,10465,1,0.00020577,-8.1402e-10,0,0.00020577,-0.00016689,4.2153e+07,-118.65,0,5.1957e+07,-22.662,10464,14059,1,14059,1,0.00090276,1.2916e-09,0,0.00090276,-3.7198e-05,8.6173e+07,190.26,0,8.6173e+07,113.49,14058,2091.4,0,2091.4,0,0.0004143,9.8939e-06,0,0.00039062,7.6685e-05,3.9886e+07,1.499e+06,0,2.7103e+07,1.1072e+06,2091.4,1
5396,3.43,12260,1,12260,1,0.00056562,1.7065e-06,0,0.0005824,-0.00010492,5.9023e+07,2.4304e+05,0,6.5934e+07,-2.9887e+05,12259,15904,1,15904,1,0.0012559,6.5049e-05,0,0.0012559,2.7723e-05,1.0083e+08,1.2155e+07,0,1.0083e+08,19769,15903,12262,1,12262,1,0.00055588,2.2178e-10,0,0.00055588,-0.00010224,7.4454e+07,21.213,0,7.4454e+07,-8.5549,12261,8553,1,8553,1,-0.00014316,-3.5612e-05,0,1.7505e-06,-0.00023291,-5.8163e+07,-6.5833e+06,0,81248,-1.139e+07,8552,10465,1,10465,1,0.00020637,-1.7336e-09,0,0.00020637,-0.00016738,4.2276e+07,-257.85,0,5.2108e+07,-45.374,10464,14059,1,14059,1,0.00090539,1.9226e-09,0,0.00090539,-3.7307e-05,8.6425e+07,290.58,0,8.6425e+07,135.98,14058,2091.4,0,2091.4,0,0.00041551,9.9229e-06,0,0.00039176,7.6909e-05,4.0003e+07,1.5034e+06,0,2.7182e+07,1.1104e+06,2091.4,1
5396,3.44,12260,1,12260,1,0.00056726,1.7113e-06,0,0.0005841,-0.00010522,5.9195e+07,2.4374e+05,0,6.6126e+07,-2.9977e+05,12259,15904,1,15904,1,0.0012596,6.5237e-05,0,0.0012596,2.7804e-05,1.0112e+08,1.2191e+07,0,1.0112e+08,19771,15903,12262,1,12262,1,0.0005575,3.0159e-11,0,0.0005575,-0.00010253,7.467e+07,3.455,0,7.467e+07,-4.1084,12261,8553,1,8553,1,-0.00014358,-3.5715e-05,0,1.7555e-06,-0.00023359,-5.8333e+07,-6.6024e+06,0,81636,-1.1424e+07,8552,10465,1,10465,1,0.00020697,-5.657e-10,0,0.00020697,-0.00016787,4.2399e+07,-78.554,0,5.2261e+07,-22.764,10464,14059,1,14059,1,0.00090804,1.454e-09,0,0.00090804,-3.7416e-05,8.6677e+07,226.52,0,8.6677e+07,109.02,14058,2091.4,0,2091.4,0,0.00041672,9.9517e-06,0,0.00039291,7.7133e-05,4.0119e+07,1.5077e+06,0,2.7262e+07,1.1137e+06,2091.4,1
5396,3.45,12260,1,12260,1,0.00056891,1.7162e-06,0,0.00058579,-0.00010553,5.9367e+07,2.4443e+05,0,6.6318e+07,-3.0064e+05,12259,15904,1,15904,1,0.0012632,6.5425e-05,0,0.0012632,2.7885e-05,1.0141e+08,1.2226e+07,0,1.0141e+08,19826,15903,12262,1,12262,1,0.00055912,-9.1614e-11,0,0.00055912,-0.00010283,7.4887e+07,-10.277,0,7.4887e+07,-5.7583,12261,8553,1,8553,1,-0.000144,-3.5818e-05,0,1.7608e-06,-0.00023427,-5.8502e+07,-6.6214e+06,0,81931,-1.1457e+07,8552,10465,1,10465,1,0.00020757,-5.7162e-10,0,0.00020757,-0.00016836,4.2522e+07,-80.099,0,5.2412e+07,-22.212,10464,14059,1,14059,1,0.00091067,1.3527e-09,0,0.00091067,-3.7525e-05,8.6928e+07,196.25,0,8.6928e+07,107.97,14058,2091.4,0,2091.4,0,0.00041793,9.9804e-06,0,0.00039405,7.7357e-05,4.0236e+07,1.5121e+06,0,2.7341e+07,1.1169e+06,2091.4,1
5396,3.46,12260,1,12260,1,0.00057056,1.7212e-06,0,0.00058749,-0.00010584,5.9539e+07,2.4515e+05,0,6.651e+07,-3.015e+05,12259,15904,1,15904,1,0.0012669,6.5615e-05,0,0.0012669,2.7966e-05,1.0171e+08,1.2261e+07,0,1.0171e+08,19896,15903,12262,1,12262,1,0.00056074,2.698e-12,0,0.00056074,-0.00010313,7.5104e+07,0.18278,0,7.5104e+07,-3.3494,12261,8553,1,8553,1,-0.00014442,-3.5922e-05,0,1.7659e-06,-0.00023495,-5.8672e+07,-6.6406e+06,0,82143,-1.149e+07,8552,10465,1,10465,1,0.00020818,-6.9935e-10,0,0.00020818,-0.00016884,4.2646e+07,-101.55,0,5.2564e+07,-18.703,10464,14059,1,14059,1,0.00091331,1.4216e-09,0,0.00091331,-3.7633e-05,8.718e+07,205.95,0,8.718e+07,121.09,14058,2091.4,0,2091.4,0,0.00041914,1.0009e-05,0,0.00039519,7.7581e-05,4.0352e+07,1.5165e+06,0,2.742e+07,1.1201e+06,2091.4,1
5396,3.47,12260,1,12260,1,0.00057221,1.7262e-06,0,0.00058919,-0.00010614,5.9711e+07,2.4585e+05,0,6.6702e+07,-3.0237e+05,12259,15904,1,15904,1,0.0012705,6.5804e-05,0,0.0012705,2.8047e-05,1.02e+08,1.2297e+07,0,1.02e+08,19960,15903,12262,1,12262,1,0.00056236,2.4067e-11,0,0.00056236,-0.00010343,7.5321e+07,2.6122,0,7.5321e+07,-3.4393,12261,8553,1,8553,1,-0.00014483,-3.6025e-05,0,1.7713e-06,-0.00023563,-5.8841e+07,-6.6598e+06,0,82459,-1.1523e+07,8552,10465,1,10465,1,0.00020878,-4.8379e-10,0,0.00020878,-0.00016933,4.2769e+07,-69.753,0,5.2716e+07,-14.558,10464,14059,1,14059,1,0.00091595,1.499e-09,0,0.00091595,-3.7742e-05,8.7432e+07,205.29,0,8.7432e+07,119.43,14058,2091.4,0,2091.4,0,0.00042036,1.0038e-05,0,0.00039633,7.7805e-05,4.0469e+07,1.5208e+06,0,2.7499e+07,1.1234e+06,2091.4,1
5396,3.48,12260,1,12260,1,0.00057386,1.731e-06,0,0.00059089,-0.00010645,5.9883e+07,2.4654e+05,0,6.6894e+07,-3.0323e+05,12259,15904,1,15904,1,0.0012742,6.5995e-05,0,0.0012742,2.8127e-05,1.0229e+08,1.2332e+07,0,1.0229e+08,20053,15903,12262,1,12262,1,0.00056398,-4.719e-11,0,0.00056398,-0.00010372,7.5538e+07,-4.3057,0,7.5538e+07,-3.9456,12261,8553,1,8553,1,-0.00014525,-3.6128e-05,0,1.7766e-06,-0.00023631,-5.9011e+07,-6.6789e+06,0,82729,-1.1556e+07,8552,10465,1,10465,1,0.00020938,-1.2413e-09,0,0.00020938,-0.00016982,4.2892e+07,-191.16,0,5.2868e+07,-23.378,10464,14059,1,14059,1,0.00091859,1.31e-09,0,0.00091859,-3.7851e-05,8.7684e+07,177.31,0,8.7684e+07,130.7,14058,2091.4,0,2091.4,0,0.00042157,1.0067e-05,0,0.00039747,7.8029e-05,4.0585e+07,1.5252e+06,0,2.7579e+07,1.1266e+06,2091.4,1
5396,3.49,12260,1,12260,1,0.00057551,1.7361e-06,0,0.00059259,-0.00010675,6.0056e+07,2.4726e+05,0,6.7087e+07,-3.0413e+05,12259,15904,1,15904,1,0.0012779,6.6186e-05,0,0.0012779,2.8208e-05,1.0259e+08,1.2368e+07,0,1.0259e+08,20057,15903,12262,1,12262,1,0.0005656,-2.1933e-10,0,0.0005656,-0.00010402,7.5756e+07,-26.785,0,7.5756e+07,-3.9194,12261,8553,1,8553,1,-0.00014567,-3.6233e-05,0,1.781e-06,-0.00023699,-5.9181e+07,-6.6982e+06,0,82747,-1.159e+07,8552,10465,1,10465,1,0.00020998,-9.9086e-10,0,0.00020998,-0.00017031,4.3015e+07,-143.01,0,5.302e+07,-26.832,10464,14059,1,14059,1,0.00092123,1.3197e-09,0,0.00092124,-3.796e-05,8.7937e+07,201.08,0,8.7937e+07,110.96,14058,2091.4,0,2091.4,0,0.00042278,1.0096e-05,0,0.00039862,7.8254e-05,4.0702e+07,1.5297e+06,0,2.7658e+07,1.1299e+06,2091.4,1
5396,3.5,12260,1,12260,1,0.00057716,1.7411e-06,0,0.00059428,-0.00010706,6.0228e+07,2.4797e+05,0,6.7279e+07,-3.0497e+05,12259,15904,1,15904,1,0.0012815,6.6375e-05,0,0.0012815,2.8289e-05,1.0288e+08,1.2403e+07,0,1.0288e+08,20185,15903,12262,1,12262,1,0.00056722,1.2099e-11,0,0.00056722,-0.00010432,7.5972e+07,1.0132,0,7.5972e+07,-4.1301,12261,8553,1,8553,1,-0.00014609,-3.6336e-05,0,1.7867e-06,-0.00023766,-5.935e+07,-6.7173e+06,0,83129,-1.1622e+07,8552,10465,1,10465,1,0.00021058,-1.3056e-09,0,0.00021058,-0.0001708,4.3138e+07,-196.79,0,5.3172e+07,-29.536,10464,14059,1,14059,1,0.00092387,1.4524e-09,0,0.00092387,-3.8068e-05,8.8188e+07,222.97,0,8.8188e+07,136.41,14058,2091.4,0,2091.4,0,0.00042399,1.0125e-05,0,0.00039976,7.8478e-05,4.0819e+07,1.534e+06,0,2.7737e+07,1.1331e+06,2091.4,1
5396,3.51,12260,1,12260,1,0.00057881,1.746e-06,0,0.00059598,-0.00010737,6.04e+07,2.4867e+05,0,6.7471e+07,-3.0588e+05,12259,15904,1,15904,1,0.0012852,6.6565e-05,0,0.0012852,2.837e-05,1.0318e+08,1.2439e+07,0,1.0318e+08,20178,15903,12262,1,12262,1,0.00056884,-9.1706e-11,0,0.00056884,-0.00010462,7.619e+07,-10.281,0,7.619e+07,-4.7674,12261,8553,1,8553,1,-0.0001465,-3.6442e-05,0,1.7911e-06,-0.00023834,-5.952e+07,-6.7368e+06,0,83249,-1.1656e+07,8552,10465,1,10465,1,0.00021119,-1.1409e-09,0,0.00021119,-0.00017129,4.3262e+07,-164.89,0,5.3324e+07,-25.248,10464,14059,1,14059,1,0.00092651,1.2457e-09,0,0.00092652,-3.8177e-05,8.8441e+07,192.3,0,8.8441e+07,114.46,14058,2091.4,0,2091.4,0,0.0004252,1.0154e-05,0,0.0004009,7.8703e-05,4.0936e+07,1.5384e+06,0,2.7817e+07,1.1364e+06,2091.4,1
5396,3.52,12260,1,12260,1,0.00058045,1.751e-06,0,0.00059768,-0.00010767,6.0572e+07,2.4939e+05,0,6.7663e+07,-3.0672e+05,12259,15904,1,15904,1,0.0012888,6.6753e-05,0,0.0012888,2.8451e-05,1.0347e+08,1.2474e+07,0,1.0347e+08,20265,15903,12262,1,12262,1,0.00057046,8.6415e-11,0,0.00057046,-0.00010492,7.6406e+07,7.8758,0,7.6406e+07,-5.0824,12261,8553,1,8553,1,-0.00014692,-3.6544e-05,0,1.7967e-06,-0.00023902,-5.9689e+07,-6.7557e+06,0,83524,-1.1689e+07,8552,10465,1,10465,1,0.00021179,-1.1854e-09,0,0.00021179,-0.00017177,4.3385e+07,-180.09,0,5.3476e+07,-26.978,10464,14059,1,14059,1,0.00092915,1.4086e-09,0,0.00092915,-3.8286e-05,8.8692e+07,194.44,0,8.8692e+07,132.89,14058,2091.4,0,2091.4,0,0.00042641,1.0183e-05,0,0.00040204,7.8926e-05,4.1052e+07,1.5428e+06,0,2.7896e+07,1.1395e+06,2091.4,1
5396,3.53,12260,1,12260,1,0.0005821,1.7561e-06,0,0.00059938,-0.00010798,6.0744e+07,2.5011e+05,0,6.7856e+07,-3.076e+05,12259,15904,1,15904,1,0.0012925,6.6943e-05,0,0.0012925,2.8532e-05,1.0376e+08,1.2509e+07,0,1.0376e+08,20291,15903,12262,1,12262,1,0.00057208,-5.3861e-11,0,0.00057208,-0.00010521,7.6624e+07,-6.1388,0,7.6624e+07,-2.4736,12261,8553,1,8553,1,-0.00014734,-3.6649e-05,0,1.8017e-06,-0.0002397,-5.9859e+07,-6.775e+06,0,83810,-1.1722e+07,8552,10465,1,10465,1,0.00021239,-5.2535e-10,0,0.00021239,-0.00017226,4.3508e+07,-74.729,0,5.3628e+07,-19.973,10464,14059,1,14059,1,0.00093179,1.416e-09,0,0.00093179,-3.8395e-05,8.8944e+07,202.74,0,8.8944e+07,115.02,14058,2091.4,0,2091.4,0,0.00042763,1.0212e-05,0,0.00040318,7.9151e-05,4.1169e+07,1.5472e+06,0,2.7975e+07,1.1428e+06,2091.4,1
5396,3.54,12260,1,12260,1,0.00058375,1.761e-06,0,0.00060108,-0.00010828,6.0916e+07,2.5081e+05,0,6.8048e+07,-3.0848e+05,12259,15904,1,15904,1,0.0012962,6.7133e-05,0,0.0012962,2.8612e-05,1.0406e+08,1.2545e+07,0,1.0406e+08,20346,15903,12262,1,12262,1,0.0005737,-1.3594e-10,0,0.0005737,-0.00010551,7.6841e+07,-16.683,0,7.6841e+07,-2.3585,12261,8553,1,8553,1,-0.00014776,-3.6752e-05,0,1.8068e-06,-0.00024038,-6.0029e+07,-6.7943e+06,0,84041,-1.1756e+07,8552,10465,1,10465,1,0.00021299,-6.0708e-10,0,0.00021299,-0.00017275,4.3631e+07,-87.195,0,5.378e+07,-22.739,10464,14059,1,14059,1,0.00093443,1.454e-09,0,0.00093443,-3.8503e-05,8.9196e+07,207.35,0,8.9196e+07,116.05,14058,2091.4,0,2091.4,0,0.00042884,1.0241e-05,0,0.00040433,7.9375e-05,4.1285e+07,1.5516e+06,0,2.8054e+07,1.1461e+06,2091.4,1
5396,3.55,12260,1,12260,1,0.0005854,1.766e-06,0,0.00060277,-0.00010859,6.1088e+07,2.5152e+05,0,6.824e+07,-3.0935e+05,12259,15904,1,15904,1,0.0012998,6.7322e-05,0,0.0012998,2.8693e-05,1.0435e+08,1.258e+07,0,1.0435e+08,20401,15903,12262,1,12262,1,0.00057532,-2.0684e-11,0,0.00057532,-0.00010581,7.7058e+07,-2.8758,0,7.7058e+07,-5.004,12261,8553,1,8553,1,-0.00014817,-3.6856e-05,0,1.8117e-06,-0.00024106,-6.0198e+07,-6.8134e+06,0,84259,-1.1789e+07,8552,10465,1,10465,1,0.00021359,-6.0955e-10,0,0.00021359,-0.00017324,4.3755e+07,-85.263,0,5.3932e+07,-26.144,10464,14059,1,14059,1,0.00093707,1.3937e-09,0,0.00093707,-3.8612e-05,8.9448e+07,195.02,0,8.9448e+07,111.68,14058,2091.4,0,2091.4,0,0.00043005,1.027e-05,0,0.00040547,7.9599e-05,4.1402e+07,1.5559e+06,0,2.8133e+07,1.1493e+06,2091.4,1
5396,3.56,12260,1,12260,1,0.00058705,1.7709e-06,0,0.00060447,-0.00010889,6.126e+07,2.5222e+05,0,6.8432e+07,-3.1022e+05,12259,15904,1,15904,1,0.0013035,6.7511e-05,0,0.0013035,2.8774e-05,1.0465e+08,1.2616e+07,0,1.0465e+08,20467,15903,12262,1,12262,1,0.00057694,-9.8023e-11,0,0.00057694,-0.00010611,7.7275e+07,-12.565,0,7.7275e+07,-1.8821,12261,8553,1,8553,1,-0.00014859,-3.696e-05,0,1.8171e-06,-0.00024174,-6.0368e+07,-6.8325e+06,0,84546,-1.1822e+07,8552,10465,1,10465,1,0.00021419,-6.6968e-10,0,0.00021419,-0.00017372,4.3878e+07,-95.105,0,5.4084e+07,-18.435,10464,14059,1,14059,1,0.00093971,1.3265e-09,0,0.00093971,-3.8721e-05,8.97e+07,186.23,0,8.97e+07,117.89,14058,2091.4,0,2091.4,0,0.00043126,1.0299e-05,0,0.00040661,7.9823e-05,4.1518e+07,1.5603e+06,0,2.8213e+07,1.1525e+06,2091.4,1
5396,3.57,12260,1,12260,1,0.0005887,1.776e-06,0,0.00060617,-0.0001092,6.1432e+07,2.5295e+05,0,6.8625e+07,-3.1109e+05,12259,15904,1,15904,1,0.0013072,6.7702e-05,0,0.0013072,2.8855e-05,1.0494e+08,1.2651e+07,0,1.0494e+08,20518,15903,12262,1,12262,1,0.00057857,6.4764e-11,0,0.00057857,-0.00010641,7.7492e+07,6.9037,0,7.7492e+07,-5.8999,12261,8553,1,8553,1,-0.00014901,-3.7065e-05,0,1.822e-06,-0.00024242,-6.0537e+07,-6.8519e+06,0,84728,-1.1855e+07,8552,10465,1,10465,1,0.0002148,-6.8467e-10,0,0.0002148,-0.00017421,4.4001e+07,-96.373,0,5.4236e+07,-22.33,10464,14059,1,14059,1,0.00094235,1.5145e-09,0,0.00094235,-3.883e-05,8.9952e+07,232.66,0,8.9952e+07,117.05,14058,2091.4,0,2091.4,0,0.00043247,1.0328e-05,0,0.00040775,8.0048e-05,4.1635e+07,1.5647e+06,0,2.8292e+07,1.1558e+06,2091.4,1
5396,3.58,12260,1,12260,1,0.00059035,1.7809e-06,0,0.00060787,-0.00010951,6.1604e+07,2.5365e+05,0,6.8817e+07,-3.1196e+05,12259,15904,1,15904,1,0.0013108,6.7891e-05,0,0.0013108,2.8936e-05,1.0523e+08,1.2687e+07,0,1.0523e+08,20577,15903,12262,1,12262,1,0.00058018,2.0694e-11,0,0.00058018,-0.0001067,7.7709e+07,2.1258,0,7.7709e+07,-3.468,12261,8553,1,8553,1,-0.00014943,-3.7167e-05,0,1.8274e-06,-0.0002431,-6.0707e+07,-6.871e+06,0,85032,-1.1888e+07,8552,10465,1,10465,1,0.0002154,-6.0349e-10,0,0.0002154,-0.0001747,4.4124e+07,-85.782,0,5.4387e+07,-18.891,10464,14059,1,14059,1,0.00094499,1.4369e-09,0,0.00094499,-3.8939e-05,9.0204e+07,197.98,0,9.0204e+07,118.69,14058,2091.4,0,2091.4,0,0.00043368,1.0356e-05,0,0.00040889,8.0272e-05,4.1752e+07,1.5691e+06,0,2.8371e+07,1.159e+06,2091.4,1
5396,3.59,12260,1,12260,1,0.000592,1.786e-06,0,0.00060957,-0.00010981,6.1776e+07,2.5437e+05,0,6.9009e+07,-3.1283e+05,12259,15904,1,15904,1,0.0013145,6.8081e-05,0,0.0013145,2.9017e-05,1.0553e+08,1.2722e+07,0,1.0553e+08,20640,15903,12262,1,12262,1,0.00058181,4.765e-11,0,0.00058181,-0.000107,7.7926e+07,6.2038,0,7.7926e+07,-3.3987,12261,8553,1,8553,1,-0.00014984,-3.7272e-05,0,1.8323e-06,-0.00024378,-6.0876e+07,-6.8902e+06,0,85218,-1.1921e+07,8552,10465,1,10465,1,0.000216,-4.5253e-10,0,0.000216,-0.00017519,4.4248e+07,-63.303,0,5.4539e+07,-19.257,10464,14059,1,14059,1,0.00094763,1.5698e-09,0,0.00094763,-3.9047e-05,9.0456e+07,220.26,0,9.0456e+07,119.04,14058,2091.4,0,2091.4,0,0.00043489,1.0385e-05,0,0.00041004,8.0496e-05,4.1868e+07,1.5735e+06,0,2.845e+07,1.1622e+06,2091.4,1
5396,3.6,12260,1,12260,1,0.00059365,1.7909e-06,0,0.00061126,-0.00011012,6.1948e+07,2.5507e+05,0,6.9201e+07,-3.137e+05,12259,15904,1,15904,1,0.0013181,6.827e-05,0,0.0013181,2.9097e-05,1.0582e+08,1.2757e+07,0,1.0582e+08,20701,15903,12262,1,12262,1,0.00058343,-3.9455e-11,0,0.00058343,-0.0001073,7.8143e+07,-5.0036,0,7.8143e+07,-2.1429,12261,8553,1,8553,1,-0.00015026,-3.7375e-05,0,1.8373e-06,-0.00024445,-6.1046e+07,-6.9094e+06,0,85459,-1.1955e+07,8552,10465,1,10465,1,0.0002166,-3.222e-10,0,0.0002166,-0.00017568,4.4371e+07,-44.921,0,5.4691e+07,-18.438,10464,14059,1,14059,1,0.00095027,1.6038e-09,0,0.00095027,-3.9156e-05,9.0708e+07,223.29,0,9.0708e+07,117.61,14058,2091.4,0,2091.4,0,0.0004361,1.0414e-05,0,0.00041118,8.072e-05,4.1985e+07,1.5778e+06,0,2.853e+07,1.1655e+06,2091.4,1
5396,3.61,12260,1,12260,1,0.00059529,1.7959e-06,0,0.00061296,-0.00011042,6.212e+07,2.5578e+05,0,6.9393e+07,-3.1456e+05,12259,15904,1,15904,1,0.0013218,6.8458e-05,0,0.0013218,2.9178e-05,1.0612e+08,1.2792e+07,0,1.0612e+08,20775,15903,12262,1,12262,1,0.00058504,1.9509e-10,0,0.00058504,-0.0001076,7.836e+07,21.533,0,7.836e+07,-3.5028,12261,8553,1,8553,1,-0.00015068,-3.7478e-05,0,1.8427e-06,-0.00024513,-6.1215e+07,-6.9284e+06,0,85712,-1.1987e+07,8552,10465,1,10465,1,0.0002172,-5.1393e-10,0,0.0002172,-0.00017616,4.4494e+07,-70.724,0,5.4843e+07,-17.134,10464,14059,1,14059,1,0.0009529,1.5503e-09,0,0.0009529,-3.9265e-05,9.0959e+07,220.53,0,9.0959e+07,122.04,14058,2091.4,0,2091.4,0,0.00043731,1.0443e-05,0,0.00041232,8.0944e-05,4.2101e+07,1.5822e+06,0,2.8609e+07,1.1687e+06,2091.4,1
5396,3.62,12260,1,12260,1,0.00059694,1.8008e-06,0,0.00061466,-0.00011073,6.2292e+07,2.5649e+05,0,6.9585e+07,-3.1543e+05,12259,15904,1,15904,1,0.0013255,6.8647e-05,0,0.0013255,2.9259e-05,1.0641e+08,1.2828e+07,0,1.0641e+08,20833,15903,12262,1,12262,1,0.00058666,1.8357e-10,0,0.00058666,-0.0001079,7.8577e+07,19.851,0,7.8577e+07,-3.6092,12261,8553,1,8553,1,-0.00015109,-3.7582e-05,0,1.8478e-06,-0.00024581,-6.1385e+07,-6.9476e+06,0,85974,-1.2021e+07,8552,10465,1,10465,1,0.0002178,-7.442e-10,0,0.0002178,-0.00017665,4.4617e+07,-102.02,0,5.4995e+07,-20.321,10464,14059,1,14059,1,0.00095554,1.4079e-09,0,0.00095554,-3.9373e-05,9.1211e+07,201.09,0,9.1211e+07,125.54,14058,2091.4,0,2091.4,0,0.00043852,1.0472e-05,0,0.00041346,8.1168e-05,4.2218e+07,1.5865e+06,0,2.8688e+07,1.1719e+06,2091.4,1
5396,3.63,12260,1,12260,1,0.00059859,1.8057e-06,0,0.00061636,-0.00011103,6.2464e+07,2.5718e+05,0,6.9777e+07,-3.1631e+05,12259,15904,1,15904,1,0.0013291,6.8838e-05,0,0.0013291,2.934e-05,1.067e+08,1.2863e+07,0,1.067e+08,20885,15903,12262,1,12262,1,0.00058829,-3.1367e-13,0,0.00058829,-0.00010819,7.8794e+07,-0.024941,0,7.8794e+07,-3.9387,12261,8553,1,8553,1,-0.00015151,-3.7685e-05,0,1.8528e-06,-0.00024649,-6.1554e+07,-6.9667e+06,0,86170,-1.2054e+07,8552,10465,1,10465,1,0.0002184,-7.5884e-10,0,0.0002184,-0.00017714,4.474e+07,-107.25,0,5.5147e+07,-17.258,10464,14059,1,14059,1,0.00095818,1.3742e-09,0,0.00095818,-3.9482e-05,9.1464e+07,193.21,0,9.1464e+07,122.12,14058,2091.4,0,2091.4,0,0.00043974,1.0501e-05,0,0.0004146,8.1393e-05,4.2335e+07,1.591e+06,0,2.8767e+07,1.1751e+06,2091.4,1
5396,3.64,12260,1,12260,1,0.00060024,1.8106e-06,0,0.00061805,-0.00011134,6.2637e+07,2.5787e+05,0,6.997e+07,-3.1718e+05,12259,15904,1,15904,1,0.0013328,6.9028e-05,0,0.0013328,2.9421e-05,1.07e+08,1.2899e+07,0,1.07e+08,20956,15903,12262,1,12262,1,0.00058991,-1.0703e-10,0,0.00058991,-0.00010849,7.9011e+07,-11.317,0,7.9011e+07,-4.435,12261,8553,1,8553,1,-0.00015193,-3.7788e-05,0,1.8584e-06,-0.00024717,-6.1724e+07,-6.9859e+06,0,86486,-1.2087e+07,8552,10465,1,10465,1,0.00021901,-9.0964e-10,0,0.00021901,-0.00017763,4.4864e+07,-129.82,0,5.5299e+07,-17.709,10464,14059,1,14059,1,0.00096082,1.2151e-09,0,0.00096082,-3.9591e-05,9.1715e+07,166.45,0,9.1715e+07,126.84,14058,2091.4,0,2091.4,0,0.00044095,1.053e-05,0,0.00041575,8.1617e-05,4.2451e+07,1.5953e+06,0,2.8846e+07,1.1784e+06,2091.4,1
5396,3.65,12260,1,12260,1,0.00060189,1.8158e-06,0,0.00061975,-0.00011165,6.2809e+07,2.5861e+05,0,7.0162e+07,-3.1805e+05,12259,15904,1,15904,1,0.0013364,6.9217e-05,0,0.0013364,2.9501e-05,1.0729e+08,1.2934e+07,0,1.0729e+08,20999,15903,12262,1,12262,1,0.00059153,8.4472e-11,0,0.00059153,-0.00010879,7.9228e+07,7.7641,0,7.9228e+07,-4.4823,12261,8553,1,8553,1,-0.00015235,-3.7892e-05,0,1.8632e-06,-0.00024785,-6.1893e+07,-7.0052e+06,0,86657,-1.212e+07,8552,10465,1,10465,1,0.00021961,-6.115e-10,0,0.00021961,-0.00017812,4.4987e+07,-84.935,0,5.5451e+07,-15.757,10464,14059,1,14059,1,0.00096346,1.491e-09,0,0.00096346,-3.97e-05,9.1968e+07,206.08,0,9.1968e+07,125.98,14058,2091.4,0,2091.4,0,0.00044216,1.0559e-05,0,0.00041689,8.1841e-05,4.2568e+07,1.5997e+06,0,2.8926e+07,1.1816e+06,2091.4,1
5396,3.66,12260,1,12260,1,0.00060354,1.8209e-06,0,0.00062145,-0.00011195,6.2981e+07,2.5934e+05,0,7.0354e+07,-3.1892e+05,12259,15904,1,15904,1,0.0013401,6.9407e-05,0,0.0013401,2.9582e-05,1.0759e+08,1.297e+07,0,1.0759e+08,21062,15903,12262,1,12262,1,0.00059315,3.7198e-10,0,0.00059315,-0.00010909,7.9446e+07,42.798,0,7.9446e+07,-6.4913,12261,8553,1,8553,1,-0.00015276,-3.7997e-05,0,1.868e-06,-0.00024853,-6.2063e+07,-7.0246e+06,0,86785,-1.2154e+07,8552,10465,1,10465,1,0.00022021,-6.7451e-10,0,0.00022021,-0.0001786,4.511e+07,-89.025,0,5.5603e+07,-30.843,10464,14059,1,14059,1,0.0009661,1.5325e-09,0,0.00096611,-3.9809e-05,9.222e+07,250.65,0,9.222e+07,123.49,14058,2091.4,0,2091.4,0,0.00044337,1.0588e-05,0,0.00041803,8.2066e-05,4.2685e+07,1.6041e+06,0,2.9005e+07,1.1849e+06,2091.4,1
5396,3.67,12260,1,12260,1,0.00060519,1.8257e-06,0,0.00062315,-0.00011226,6.3153e+07,2.6003e+05,0,7.0546e+07,-3.1979e+05,12259,15904,1,15904,1,0.0013438,6.9597e-05,0,0.0013438,2.9663e-05,1.0788e+08,1.3005e+07,0,1.0788e+08,21121,15903,12262,1,12262,1,0.00059477,1.9051e-10,0,0.00059477,-0.00010939,7.9663e+07,18.147,0,7.9663e+07,-4.4311,12261,8553,1,8553,1,-0.00015318,-3.81e-05,0,1.8728e-06,-0.00024921,-6.2232e+07,-7.0437e+06,0,86941,-1.2187e+07,8552,10465,1,10465,1,0.00022081,-1.0479e-09,0,0.00022081,-0.00017909,4.5234e+07,-141.65,0,5.5755e+07,-29.39,10464,14059,1,14059,1,0.00096874,1.5304e-09,0,0.00096874,-3.9918e-05,9.2472e+07,237.23,0,9.2472e+07,131.33,14058,2091.4,0,2091.4,0,0.00044458,1.0617e-05,0,0.00041917,8.229e-05,4.2801e+07,1.6085e+06,0,2.9084e+07,1.1881e+06,2091.4,1
5396,3.68,12260,1,12260,1,0.00060684,1.8307e-06,0,0.00062485,-0.00011256,6.3325e+07,2.6074e+05,0,7.0739e+07,-3.2066e+05,12259,15904,1,15904,1,0.0013474,6.9785e-05,0,0.0013474,2.9744e-05,1.0817e+08,1.3041e+07,0,1.0817e+08,21167,15903,12262,1,12262,1,0.00059639,2.2738e-10,0,0.00059639,-0.00010969,7.988e+07,26.236,0,7.988e+07,-5.8167,12261,8553,1,8553,1,-0.0001536,-3.8203e-05,0,1.8779e-06,-0.00024989,-6.2402e+07,-7.0629e+06,0,87202,-1.222e+07,8552,10465,1,10465,1,0.00022141,-5.4813e-10,0,0.00022141,-0.00017958,4.5357e+07,-73.863,0,5.5907e+07,-24.316,10464,14059,1,14059,1,0.00097138,1.5231e-09,0,0.00097139,-4.0026e-05,9.2724e+07,234.13,0,9.2724e+07,121.2,14058,2091.4,0,2091.4,0,0.00044579,1.0646e-05,0,0.00042032,8.2514e-05,4.2918e+07,1.6129e+06,0,2.9164e+07,1.1913e+06,2091.4,1
5396,3.69,12260,1,12260,1,0.00060849,1.8355e-06,0,0.00062655,-0.00011287,6.3497e+07,2.6143e+05,0,7.0931e+07,-3.2153e+05,12259,15904,1,15904,1,0.0013511,6.9978e-05,0,0.0013511,2.9825e-05,1.0847e+08,1.3076e+07,0,1.0847e+08,21239,15903,12262,1,12262,1,0.00059801,2.1109e-11,0,0.00059801,-0.00010998,8.0097e+07,1.5368,0,8.0097e+07,-4.9081,12261,8553,1,8553,1,-0.00015402,-3.8306e-05,0,1.8831e-06,-0.00025057,-6.2571e+07,-7.0819e+06,0,87452,-1.2253e+07,8552,10465,1,10465,1,0.00022202,-1.0959e-09,0,0.00022202,-0.00018007,4.548e+07,-149.8,0,5.6059e+07,-27.416,10464,14059,1,14059,1,0.00097402,1.2076e-09,0,0.00097402,-4.0135e-05,9.2976e+07,186.93,0,9.2976e+07,128.01,14058,2091.4,0,2091.4,0,0.00044701,1.0675e-05,0,0.00042146,8.2738e-05,4.3034e+07,1.6173e+06,0,2.9243e+07,1.1946e+06,2091.4,1
5396,3.7,12260,1,12260,1,0.00061014,1.8406e-06,0,0.00062824,-0.00011318,6.3669e+07,2.6215e+05,0,7.1123e+07,-3.224e+05,12259,15904,1,15904,1,0.0013548,7.0165e-05,0,0.0013548,2.9905e-05,1.0876e+08,1.3112e+07,0,1.0876e+08,21287,15903,12262,1,12262,1,0.00059963,1.9068e-10,0,0.00059963,-0.00011028,8.0314e+07,22.249,0,8.0314e+07,-1.9912,12261,8553,1,8553,1,-0.00015443,-3.8409e-05,0,1.8885e-06,-0.00025125,-6.2741e+07,-7.1012e+06,0,87766,-1.2286e+07,8552,10465,1,10465,1,0.00022262,-5.0718e-10,0,0.00022262,-0.00018056,4.5603e+07,-69.545,0,5.6211e+07,-16.94,10464,14059,1,14059,1,0.00097666,1.4544e-09,0,0.00097666,-4.0244e-05,9.3228e+07,204.54,0,9.3228e+07,130.45,14058,2091.4,0,2091.4,0,0.00044822,1.0703e-05,0,0.0004226,8.2962e-05,4.3151e+07,1.6216e+06,0,2.9322e+07,1.1978e+06,2091.4,1
5396,3.71,12260,1,12260,1,0.00061179,1.8456e-06,0,0.00062994,-0.00011348,6.3841e+07,2.6285e+05,0,7.1315e+07,-3.2327e+05,12259,15904,1,15904,1,0.0013584,7.0356e-05,0,0.0013584,2.9986e-05,1.0906e+08,1.3147e+07,0,1.0906e+08,21352,15903,12262,1,12262,1,0.00060126,-3.5673e-12,0,0.00060126,-0.00011058,8.0531e+07,-0.31783,0,8.0531e+07,-6.504,12261,8553,1,8553,1,-0.00015485,-3.8513e-05,0,1.8934e-06,-0.00025192,-6.291e+07,-7.1204e+06,0,87870,-1.2319e+07,8552,10465,1,10465,1,0.00022322,-1.024e-09,0,0.00022322,-0.00018104,4.5727e+07,-141.38,0,5.6363e+07,-27.331,10464,14059,1,14059,1,0.0009793,1.4022e-09,0,0.0009793,-4.0353e-05,9.348e+07,224.04,0,9.348e+07,130.34,14058,2091.4,0,2091.4,0,0.00044943,1.0733e-05,0,0.00042374,8.3187e-05,4.3268e+07,1.626e+06,0,2.9401e+07,1.201e+06,2091.4,1
5396,3.72,12260,1,12260,1,0.00061344,1.8506e-06,0,0.00063164,-0.00011379,6.4013e+07,2.6358e+05,0,7.1507e+07,-3.2414e+05,12259,15904,1,15904,1,0.0013621,7.0546e-05,0,0.0013621,3.0067e-05,1.0935e+08,1.3182e+07,0,1.0935e+08,21399,15903,12262,1,12262,1,0.00060288,1.0327e-10,0,0.00060288,-0.00011088,8.0748e+07,9.7287,0,8.0748e+07,-4.9789,12261,8553,1,8553,1,-0.00015527,-3.8617e-05,0,1.8984e-06,-0.0002526,-6.308e+07,-7.1396e+06,0,88080,-1.2353e+07,8552,10465,1,10465,1,0.00022382,-8.468e-10,0,0.00022382,-0.00018153,4.585e+07,-115.77,0,5.6515e+07,-23.08,10464,14059,1,14059,1,0.00098194,1.4643e-09,0,0.00098195,-4.0462e-05,9.3732e+07,203.37,0,9.3732e+07,131.64,14058,2091.4,0,2091.4,0,0.00045064,1.0761e-05,0,0.00042489,8.3411e-05,4.3384e+07,1.6304e+06,0,2.948e+07,1.2043e+06,2091.4,1
5396,3.73,12260,1,12260,1,0.00061508,1.8555e-06,0,0.00063334,-0.00011409,6.4185e+07,2.6428e+05,0,7.1699e+07,-3.2502e+05,12259,15904,1,15904,1,0.0013657,7.0734e-05,0,0.0013657,3.0148e-05,1.0964e+08,1.3218e+07,0,1.0964e+08,21472,15903,12262,1,12262,1,0.00060449,9.7573e-11,0,0.00060449,-0.00011118,8.0965e+07,10.316,0,8.0965e+07,-2.7524,12261,8553,1,8553,1,-0.00015568,-3.8719e-05,0,1.9041e-06,-0.00025328,-6.3249e+07,-7.1588e+06,0,88475,-1.2386e+07,8552,10465,1,10465,1,0.00022442,-6.1852e-10,0,0.00022442,-0.00018202,4.5973e+07,-86.54,0,5.6666e+07,-18.028,10464,14059,1,14059,1,0.00098458,1.4435e-09,0,0.00098458,-4.057e-05,9.3983e+07,204.6,0,9.3983e+07,131.38,14058,2091.4,0,2091.4,0,0.00045185,1.079e-05,0,0.00042603,8.3635e-05,4.3501e+07,1.6348e+06,0,2.956e+07,1.2075e+06,2091.4,1
5396,3.74,12260,1,12260,1,0.00061673,1.8605e-06,0,0.00063503,-0.0001144,6.4357e+07,2.6498e+05,0,7.1892e+07,-3.2589e+05,12259,15904,1,15904,1,0.0013694,7.0923e-05,0,0.0013694,3.0228e-05,1.0994e+08,1.3253e+07,0,1.0994e+08,21526,15903,12262,1,12262,1,0.00060612,1.2335e-10,0,0.00060612,-0.00011147,8.1182e+07,13.643,0,8.1182e+07,-3.586,12261,8553,1,8553,1,-0.0001561,-3.8823e-05,0,1.9092e-06,-0.00025396,-6.3419e+07,-7.178e+06,0,88724,-1.2419e+07,8552,10465,1,10465,1,0.00022502,-5.9871e-10,0,0.00022502,-0.00018251,4.6096e+07,-83.2,0,5.6818e+07,-19.077,10464,14059,1,14059,1,0.00098722,1.4773e-09,0,0.00098722,-4.0679e-05,9.4235e+07,206.02,0,9.4235e+07,130.96,14058,2091.4,0,2091.4,0,0.00045306,1.0819e-05,0,0.00042717,8.3859e-05,4.3617e+07,1.6391e+06,0,2.9639e+07,1.2108e+06,2091.4,1
5396,3.75,12260,1,12260,1,0.00061839,1.8655e-06,0,0.00063674,-0.00011471,6.4529e+07,2.6569e+05,0,7.2084e+07,-3.2676e+05,12259,15904,1,15904,1,0.0013731,7.1115e-05,0,0.0013731,3.0309e-05,1.1023e+08,1.3289e+07,0,1.1023e+08,21576,15903,12262,1,12262,1,0.00060774,1.1636e-10,0,0.00060774,-0.00011177,8.14e+07,11.335,0,8.14e+07,-6.288,12261,8553,1,8553,1,-0.00015652,-3.8927e-05,0,1.9137e-06,-0.00025464,-6.3588e+07,-7.1973e+06,0,88793,-1.2452e+07,8552,10465,1,10465,1,0.00022563,-7.6725e-10,0,0.00022563,-0.000183,4.622e+07,-105.36,0,5.697e+07,-23.538,10464,14059,1,14059,1,0.00098986,1.4395e-09,0,0.00098987,-4.0788e-05,9.4488e+07,196.64,0,9.4488e+07,128.32,14058,2091.4,0,2091.4,0,0.00045428,1.0848e-05,0,0.00042831,8.4084e-05,4.3734e+07,1.6436e+06,0,2.9718e+07,1.214e+06,2091.4,1
5396,3.76,12260,1,12260,1,0.00062003,1.8705e-06,0,0.00063843,-0.00011501,6.4701e+07,2.664e+05,0,7.2276e+07,-3.2763e+05,12259,15904,1,15904,1,0.0013767,7.1303e-05,0,0.0013767,3.039e-05,1.1053e+08,1.3324e+07,0,1.1053e+08,21637,15903,12262,1,12262,1,0.00060936,1.3925e-10,0,0.00060936,-0.00011207,8.1616e+07,14.84,0,8.1616e+07,-5.0226,12261,8553,1,8553,1,-0.00015694,-3.903e-05,0,1.9192e-06,-0.00025532,-6.3758e+07,-7.2163e+06,0,89138,-1.2486e+07,8552,10465,1,10465,1,0.00022623,-6.8096e-10,0,0.00022623,-0.00018348,4.6343e+07,-93.14,0,5.7122e+07,-21.958,10464,14059,1,14059,1,0.0009925,1.5142e-09,0,0.0009925,-4.0897e-05,9.474e+07,210.71,0,9.474e+07,130.23,14058,2091.4,0,2091.4,0,0.00045549,1.0877e-05,0,0.00042945,8.4308e-05,4.385e+07,1.6479e+06,0,2.9797e+07,1.2172e+06,2091.4,1
5396,3.77,12260,1,12260,1,0.00062168,1.8754e-06,0,0.00064013,-0.00011532,6.4873e+07,2.671e+05,0,7.2468e+07,-3.285e+05,12259,15904,1,15904,1,0.0013804,7.1491e-05,0,0.0013804,3.0471e-05,1.1082e+08,1.3359e+07,0,1.1082e+08,21695,15903,12262,1,12262,1,0.00061097,1.966e-11,0,0.00061097,-0.00011237,8.1833e+07,1.8654,0,8.1833e+07,-2.8237,12261,8553,1,8553,1,-0.00015735,-3.9132e-05,0,1.9249e-06,-0.000256,-6.3927e+07,-7.2353e+06,0,89526,-1.2519e+07,8552,10465,1,10465,1,0.00022683,-4.723e-10,0,0.00022683,-0.00018397,4.6466e+07,-67.326,0,5.7274e+07,-12.318,10464,14059,1,14059,1,0.00099514,1.5184e-09,0,0.00099514,-4.1005e-05,9.4991e+07,204.44,0,9.4991e+07,133.86,14058,2091.4,0,2091.4,0,0.0004567,1.0906e-05,0,0.00043059,8.4532e-05,4.3967e+07,1.6523e+06,0,2.9876e+07,1.2205e+06,2091.4,1
5396,3.78,12260,1,12260,1,0.00062333,1.8804e-06,0,0.00064183,-0.00011562,6.5045e+07,2.6781e+05,0,7.266e+07,-3.2938e+05,12259,15904,1,15904,1,0.001384,7.168e-05,0,0.001384,3.0552e-05,1.1111e+08,1.3395e+07,0,1.1111e+08,21760,15903,12262,1,12262,1,0.0006126,6.2115e-11,0,0.0006126,-0.00011267,8.205e+07,6.2399,0,8.205e+07,-2.9423,12261,8553,1,8553,1,-0.00015777,-3.9236e-05,0,1.9301e-06,-0.00025668,-6.4097e+07,-7.2546e+06,0,89757,-1.2552e+07,8552,10465,1,10465,1,0.00022743,-5.0165e-10,0,0.00022743,-0.00018446,4.6589e+07,-71.188,0,5.7426e+07,-15.827,10464,14059,1,14059,1,0.00099778,1.4779e-09,0,0.00099778,-4.1114e-05,9.5243e+07,198.73,0,9.5243e+07,131.61,14058,2091.4,0,2091.4,0,0.00045791,1.0935e-05,0,0.00043174,8.4756e-05,4.4083e+07,1.6566e+06,0,2.9956e+07,1.2237e+06,2091.4,1
5396,3.79,12260,1,12260,1,0.00062498,1.8853e-06,0,0.00064352,-0.00011593,6.5217e+07,2.6851e+05,0,7.2852e+07,-3.3025e+05,12259,15904,1,15904,1,0.0013877,7.1872e-05,0,0.0013877,3.0632e-05,1.1141e+08,1.343e+07,0,1.1141e+08,21813,15903,12262,1,12262,1,0.00061422,1.4045e-11,0,0.00061422,-0.00011296,8.2267e+07,1.2511,0,8.2267e+07,-3.3763,12261,8553,1,8553,1,-0.00015819,-3.934e-05,0,1.9349e-06,-0.00025736,-6.4266e+07,-7.2738e+06,0,89882,-1.2585e+07,8552,10465,1,10465,1,0.00022803,-6.8943e-10,0,0.00022803,-0.00018495,4.6713e+07,-97.584,0,5.7578e+07,-17.717,10464,14059,1,14059,1,0.0010004,1.3979e-09,0,0.0010004,-4.1223e-05,9.5495e+07,190.41,0,9.5495e+07,132.25,14058,2091.4,0,2091.4,0,0.00045912,1.0964e-05,0,0.00043288,8.498e-05,4.42e+07,1.6611e+06,0,3.0035e+07,1.2269e+06,2091.4,1
5396,3.8,12260,1,12260,1,0.00062663,1.8903e-06,0,0.00064522,-0.00011624,6.539e+07,2.6922e+05,0,7.3045e+07,-3.3112e+05,12259,15904,1,15904,1,0.0013914,7.206e-05,0,0.0013914,3.0713e-05,1.117e+08,1.3466e+07,0,1.117e+08,21856,15903,12262,1,12262,1,0.00061584,4.9263e-11,0,0.00061584,-0.00011326,8.2485e+07,4.8936,0,8.2485e+07,-4.7317,12261,8553,1,8553,1,-0.0001586,-3.9445e-05,0,1.9396e-06,-0.00025804,-6.4436e+07,-7.2931e+06,0,90064,-1.2618e+07,8552,10465,1,10465,1,0.00022864,-7.7465e-10,0,0.00022864,-0.00018544,4.6836e+07,-107.14,0,5.773e+07,-22.887,10464,14059,1,14059,1,0.0010031,1.3839e-09,0,0.0010031,-4.1332e-05,9.5747e+07,192.12,0,9.5747e+07,128.74,14058,2091.4,0,2091.4,0,0.00046033,1.0993e-05,0,0.00043402,8.5205e-05,4.4317e+07,1.6654e+06,0,3.0114e+07,1.2302e+06,2091.4,1
5396,3.81,12260,1,12260,1,0.00062828,1.8952e-06,0,0.00064692,-0.00011654,6.5562e+07,2.6992e+05,0,7.3237e+07,-3.3199e+05,12259,15904,1,15904,1,0.001395,7.225e-05,0,0.001395,3.0794e-05,1.12e+08,1.3501e+07,0,1.12e+08,21921,15903,12262,1,12262,1,0.00061746,-7.3655e-12,0,0.00061746,-0.00011356,8.2702e+07,-0.50549,0,8.2702e+07,-3.8988,12261,8553,1,8553,1,-0.00015902,-3.9548e-05,0,1.945e-06,-0.00025872,-6.4605e+07,-7.3122e+06,0,90358,-1.2652e+07,8552,10465,1,10465,1,0.00022924,-8.3111e-10,0,0.00022924,-0.00018592,4.6959e+07,-117.47,0,5.7882e+07,-18.556,10464,14059,1,14059,1,0.0010057,1.331e-09,0,0.0010057,-4.1441e-05,9.5999e+07,183.07,0,9.5999e+07,134.01,14058,2091.4,0,2091.4,0,0.00046154,1.1022e-05,0,0.00043516,8.5429e-05,4.4433e+07,1.6698e+06,0,3.0194e+07,1.2334e+06,2091.4,1
5396,3.82,12260,1,12260,1,0.00062993,1.9001e-06,0,0.00064862,-0.00011685,6.5734e+07,2.7062e+05,0,7.3429e+07,-3.3286e+05,12259,15904,1,15904,1,0.0013987,7.2442e-05,0,0.0013987,3.0875e-05,1.1229e+08,1.3537e+07,0,1.1229e+08,21973,15903,12262,1,12262,1,0.00061908,-7.2071e-11,0,0.00061908,-0.00011386,8.2919e+07,-6.8865,0,8.2919e+07,-5.6416,12261,8553,1,8553,1,-0.00015944,-3.9652e-05,0,1.9495e-06,-0.0002594,-6.4775e+07,-7.3314e+06,0,90454,-1.2685e+07,8552,10465,1,10465,1,0.00022984,-1.1689e-09,0,0.00022984,-0.00018641,4.7083e+07,-165.21,0,5.8034e+07,-24.092,10464,14059,1,14059,1,0.0010083,1.2148e-09,0,0.0010083,-4.155e-05,9.6252e+07,167.1,0,9.6252e+07,132.49,14058,2091.4,0,2091.4,0,0.00046275,1.1051e-05,0,0.00043631,8.5653e-05,4.455e+07,1.6742e+06,0,3.0273e+07,1.2366e+06,2091.4,1
5396,3.83,12260,1,12260,1,0.00063157,1.9052e-06,0,0.00065032,-0.00011715,6.5905e+07,2.7135e+05,0,7.3621e+07,-3.3373e+05,12259,15904,1,15904,1,0.0014024,7.2628e-05,0,0.0014024,3.0956e-05,1.1258e+08,1.3572e+07,0,1.1258e+08,22041,15903,12262,1,12262,1,0.0006207,3.7266e-11,0,0.0006207,-0.00011416,8.3136e+07,3.4478,0,8.3136e+07,-3.1689,12261,8553,1,8553,1,-0.00015986,-3.9755e-05,0,1.9554e-06,-0.00026007,-6.4944e+07,-7.3505e+06,0,90841,-1.2718e+07,8552,10465,1,10465,1,0.00023044,-5.6607e-10,0,0.00023044,-0.0001869,4.7206e+07,-80.424,0,5.8186e+07,-14.953,10464,14059,1,14059,1,0.001011,1.486e-09,0,0.001011,-4.1658e-05,9.6503e+07,201.15,0,9.6503e+07,134.32,14058,2091.4,0,2091.4,0,0.00046396,1.1079e-05,0,0.00043745,8.5877e-05,4.4666e+07,1.6785e+06,0,3.0352e+07,1.2399e+06,2091.4,1
5396,3.84,12260,1,12260,1,0.00063322,1.9102e-06,0,0.00065201,-0.00011746,6.6078e+07,2.7206e+05,0,7.3813e+07,-3.346e+05,12259,15904,1,15904,1,0.001406,7.2818e-05,0,0.001406,3.1036e-05,1.1288e+08,1.3607e+07,0,1.1288e+08,22098,15903,12262,1,12262,1,0.00062232,2.9409e-11,0,0.00062232,-0.00011445,8.3353e+07,2.7683,0,8.3353e+07,-3.5906,12261,8553,1,8553,1,-0.00016027,-3.9858e-05,0,1.9606e-06,-0.00026075,-6.5114e+07,-7.3697e+06,0,91062,-1.2751e+07,8552,10465,1,10465,1,0.00023104,-6.4793e-10,0,0.00023104,-0.00018739,4.7329e+07,-91.99,0,5.8338e+07,-16.018,10464,14059,1,14059,1,0.0010136,1.4828e-09,0,0.0010136,-4.1767e-05,9.6755e+07,202.45,0,9.6755e+07,138.44,14058,2091.4,0,2091.4,0,0.00046518,1.1108e-05,0,0.00043859,8.6101e-05,4.4783e+07,1.6829e+06,0,3.0431e+07,1.2431e+06,2091.4,1
5396,3.85,12260,1,12260,1,0.00063487,1.9151e-06,0,0.00065371,-0.00011776,6.625e+07,2.7276e+05,0,7.4006e+07,-3.3547e+05,12259,15904,1,15904,1,0.0014097,7.3008e-05,0,0.0014097,3.1117e-05,1.1317e+08,1.3643e+07,0,1.1317e+08,22148,15903,12262,1,12262,1,0.00062394,-1.6716e-11,0,0.00062394,-0.00011475,8.357e+07,-1.7053,0,8.357e+07,-2.8553,12261,8553,1,8553,1,-0.00016069,-3.9962e-05,0,1.9655e-06,-0.00026143,-6.5283e+07,-7.3889e+06,0,91276,-1.2784e+07,8552,10465,1,10465,1,0.00023164,-7.0116e-10,0,0.00023164,-0.00018788,4.7452e+07,-100.16,0,5.849e+07,-14.319,10464,14059,1,14059,1,0.0010163,1.3803e-09,0,0.0010163,-4.1876e-05,9.7007e+07,186.26,0,9.7007e+07,135.38,14058,2091.4,0,2091.4,0,0.00046639,1.1137e-05,0,0.00043973,8.6326e-05,4.49e+07,1.6873e+06,0,3.051e+07,1.2464e+06,2091.4,1
5396,3.86,12260,1,12260,1,0.00063652,1.9202e-06,0,0.00065541,-0.00011807,6.6422e+07,2.7348e+05,0,7.4198e+07,-3.3634e+05,12259,15904,1,15904,1,0.0014133,7.3196e-05,0,0.0014133,3.1198e-05,1.1346e+08,1.3678e+07,0,1.1346e+08,22205,15903,12262,1,12262,1,0.00062557,2.5614e-10,0,0.00062557,-0.00011505,8.3787e+07,30.79,0,8.3787e+07,-3.4368,12261,8553,1,8553,1,-0.00016111,-4.0067e-05,0,1.9701e-06,-0.00026211,-6.5453e+07,-7.4083e+06,0,91370,-1.2817e+07,8552,10465,1,10465,1,0.00023225,-6.3489e-10,0,0.00023225,-0.00018836,4.7576e+07,-85.922,0,5.8642e+07,-23.044,10464,14059,1,14059,1,0.0010189,1.4843e-09,0,0.0010189,-4.1985e-05,9.7259e+07,208.91,0,9.7259e+07,131.43,14058,2091.4,0,2091.4,0,0.0004676,1.1166e-05,0,0.00044088,8.655e-05,4.5016e+07,1.6917e+06,0,3.059e+07,1.2496e+06,2091.4,1
5396,3.87,12260,1,12260,1,0.00063817,1.9252e-06,0,0.00065711,-0.00011838,6.6594e+07,2.742e+05,0,7.439e+07,-3.3721e+05,12259,15904,1,15904,1,0.001417,7.3385e-05,0,0.001417,3.1279e-05,1.1376e+08,1.3714e+07,0,1.1376e+08,22274,15903,12262,1,12262,1,0.00062719,1.9991e-10,0,0.00062719,-0.00011535,8.4004e+07,22.904,0,8.4004e+07,-4.8797,12261,8553,1,8553,1,-0.00016153,-4.0171e-05,0,1.9754e-06,-0.00026279,-6.5622e+07,-7.4275e+06,0,91598,-1.2851e+07,8552,10465,1,10465,1,0.00023285,-5.502e-10,0,0.00023285,-0.00018885,4.7699e+07,-75.202,0,5.8794e+07,-19.52,10464,14059,1,14059,1,0.0010215,1.6575e-09,0,0.0010215,-4.2093e-05,9.7511e+07,231.88,0,9.7511e+07,136.34,14058,2091.4,0,2091.4,0,0.00046881,1.1195e-05,0,0.00044202,8.6774e-05,4.5133e+07,1.6961e+06,0,3.0669e+07,1.2528e+06,2091.4,1
5396,3.88,12260,1,12260,1,0.00063982,1.9301e-06,0,0.00065881,-0.00011868,6.6766e+07,2.7489e+05,0,7.4582e+07,-3.3809e+05,12259,15904,1,15904,1,0.0014207,7.3576e-05,0,0.0014207,3.136e-05,1.1405e+08,1.3749e+07,0,1.1405e+08,22325,15903,12262,1,12262,1,0.00062881,1.8862e-10,0,0.00062881,-0.00011565,8.4222e+07,21.039,0,8.4222e+07,-4.7246,12261,8553,1,8553,1,-0.00016194,-4.0275e-05,0,1.9802e-06,-0.00026347,-6.5792e+07,-7.4467e+06,0,91769,-1.2884e+07,8552,10465,1,10465,1,0.00023345,-8.461e-10,0,0.00023345,-0.00018934,4.7822e+07,-114.38,0,5.8946e+07,-25.603,10464,14059,1,14059,1,0.0010242,1.4348e-09,0,0.0010242,-4.2202e-05,9.7764e+07,199.12,0,9.7764e+07,133.01,14058,2091.4,0,2091.4,0,0.00047002,1.1224e-05,0,0.00044316,8.6999e-05,4.5249e+07,1.7005e+06,0,3.0748e+07,1.2561e+06,2091.4,1
5396,3.89,12260,1,12260,1,0.00064147,1.9351e-06,0,0.00066051,-0.00011899,6.6938e+07,2.756e+05,0,7.4775e+07,-3.3896e+05,12259,15904,1,15904,1,0.0014243,7.3766e-05,0,0.0014243,3.144e-05,1.1435e+08,1.3785e+07,0,1.1435e+08,22385,15903,12262,1,12262,1,0.00063043,1.3522e-10,0,0.00063043,-0.00011595,8.4439e+07,13.357,0,8.4439e+07,-4.9626,12261,8553,1,8553,1,-0.00016236,-4.0378e-05,0,1.9854e-06,-0.00026415,-6.5961e+07,-7.4659e+06,0,92049,-1.2917e+07,8552,10465,1,10465,1,0.00023405,-7.9326e-10,0,0.00023405,-0.00018983,4.7946e+07,-108.78,0,5.9098e+07,-23.176,10464,14059,1,14059,1,0.0010268,1.4413e-09,0,0.0010268,-4.2311e-05,9.8016e+07,202.93,0,9.8016e+07,134.73,14058,2091.4,0,2091.4,0,0.00047123,1.1253e-05,0,0.0004443,8.7223e-05,4.5366e+07,1.7049e+06,0,3.0827e+07,1.2593e+06,2091.4,1
5396,3.9,12260,1,12260,1,0.00064312,1.9401e-06,0,0.00066221,-0.00011929,6.711e+07,2.7632e+05,0,7.4967e+07,-3.3982e+05,12259,15904,1,15904,1,0.001428,7.3954e-05,0,0.001428,3.1521e-05,1.1464e+08,1.382e+07,0,1.1464e+08,22447,15903,12262,1,12262,1,0.00063205,7.1573e-11,0,0.00063205,-0.00011624,8.4656e+07,7.9424,0,8.4656e+07,-5.4902,12261,8553,1,8553,1,-0.00016278,-4.0482e-05,0,1.9906e-06,-0.00026483,-6.6131e+07,-7.485e+06,0,92252,-1.295e+07,8552,10465,1,10465,1,0.00023465,-8.0028e-10,0,0.00023465,-0.00019032,4.8069e+07,-109.12,0,5.925e+07,-23.173,10464,14059,1,14059,1,0.0010295,1.5679e-09,0,0.0010295,-4.242e-05,9.8267e+07,222.52,0,9.8267e+07,136.98,14058,2091.4,0,2091.4,0,0.00047245,1.1282e-05,0,0.00044545,8.7447e-05,4.5483e+07,1.7092e+06,0,3.0907e+07,1.2625e+06,2091.4,1
5396,3.91,12260,1,12260,1,0.00064477,1.9451e-06,0,0.0006639,-0.0001196,6.7282e+07,2.7703e+05,0,7.5159e+07,-3.407e+05,12259,15904,1,15904,1,0.0014317,7.4143e-05,0,0.0014317,3.1602e-05,1.1493e+08,1.3856e+07,0,1.1493e+08,22493,15903,12262,1,12262,1,0.00063367,7.4933e-11,0,0.00063367,-0.00011654,8.4873e+07,8.4307,0,8.4873e+07,-3.2596,12261,8553,1,8553,1,-0.00016319,-4.0586e-05,0,1.9958e-06,-0.00026551,-6.63e+07,-7.5042e+06,0,92536,-1.2983e+07,8552,10465,1,10465,1,0.00023526,-5.4131e-10,0,0.00023526,-0.00019081,4.8192e+07,-73.656,0,5.9402e+07,-20.062,10464,14059,1,14059,1,0.0010321,1.6203e-09,0,0.0010321,-4.2529e-05,9.8519e+07,221.46,0,9.8519e+07,131.98,14058,2091.4,0,2091.4,0,0.00047366,1.1311e-05,0,0.00044659,8.7671e-05,4.5599e+07,1.7136e+06,0,3.0986e+07,1.2658e+06,2091.4,1
5396,3.92,12260,1,12260,1,0.00064642,1.95e-06,0,0.0006656,-0.00011991,6.7454e+07,2.7772e+05,0,7.5351e+07,-3.4158e+05,12259,15904,1,15904,1,0.0014353,7.4332e-05,0,0.0014353,3.1683e-05,1.1523e+08,1.3891e+07,0,1.1523e+08,22558,15903,12262,1,12262,1,0.00063529,-8.7812e-13,0,0.00063529,-0.00011684,8.509e+07,-0.067442,0,8.509e+07,-4.4337,12261,8553,1,8553,1,-0.00016361,-4.0688e-05,0,2.0011e-06,-0.00026619,-6.647e+07,-7.5233e+06,0,92830,-1.3017e+07,8552,10465,1,10465,1,0.00023586,-7.313e-10,0,0.00023586,-0.00019129,4.8315e+07,-102.88,0,5.9553e+07,-18.011,10464,14059,1,14059,1,0.0010347,1.4694e-09,0,0.0010347,-4.2637e-05,9.8771e+07,209.67,0,9.8771e+07,135.38,14058,2091.4,0,2091.4,0,0.00047487,1.134e-05,0,0.00044773,8.7895e-05,4.5716e+07,1.718e+06,0,3.1065e+07,1.269e+06,2091.4,1
5396,3.93,12260,1,12260,1,0.00064807,1.9549e-06,0,0.0006673,-0.00012021,6.7626e+07,2.7843e+05,0,7.5543e+07,-3.4244e+05,12259,15904,1,15904,1,0.001439,7.452e-05,0,0.001439,3.1764e-05,1.1552e+08,1.3926e+07,0,1.1552e+08,22625,15903,12262,1,12262,1,0.00063691,3.1194e-11,0,0.00063691,-0.00011714,8.5306e+07,3.0793,0,8.5306e+07,-3.3475,12261,8553,1,8553,1,-0.00016403,-4.0792e-05,0,2.0064e-06,-0.00026686,-6.6639e+07,-7.5424e+06,0,93099,-1.305e+07,8552,10465,1,10465,1,0.00023646,-6.1652e-10,0,0.00023646,-0.00019178,4.8438e+07,-85.947,0,5.9705e+07,-15.722,10464,14059,1,14059,1,0.0010374,1.5068e-09,0,0.0010374,-4.2746e-05,9.9023e+07,207.91,0,9.9023e+07,139.17,14058,2091.4,0,2091.4,0,0.00047608,1.1369e-05,0,0.00044887,8.8119e-05,4.5832e+07,1.7224e+06,0,3.1144e+07,1.2722e+06,2091.4,1
5396,3.94,12260,1,12260,1,0.00064972,1.9601e-06,0,0.000669,-0.00012052,6.7798e+07,2.7916e+05,0,7.5735e+07,-3.4332e+05,12259,15904,1,15904,1,0.0014426,7.471e-05,0,0.0014426,3.1844e-05,1.1582e+08,1.3962e+07,0,1.1582e+08,22664,15903,12262,1,12262,1,0.00063853,1.8099e-10,0,0.00063853,-0.00011744,8.5524e+07,20.954,0,8.5524e+07,-4.5528,12261,8553,1,8553,1,-0.00016445,-4.0897e-05,0,2.0111e-06,-0.00026754,-6.6809e+07,-7.5618e+06,0,93244,-1.3083e+07,8552,10465,1,10465,1,0.00023706,-4.4763e-10,0,0.00023706,-0.00019227,4.8562e+07,-61.747,0,5.9858e+07,-18.755,10464,14059,1,14059,1,0.00104,1.7246e-09,0,0.00104,-4.2855e-05,9.9275e+07,235.97,0,9.9275e+07,135.59,14058,2091.4,0,2091.4,0,0.00047729,1.1398e-05,0,0.00045001,8.8344e-05,4.5949e+07,1.7268e+06,0,3.1224e+07,1.2755e+06,2091.4,1
5396,3.95,12260,1,12260,1,0.00065137,1.965e-06,0,0.0006707,-0.00012082,6.797e+07,2.7985e+05,0,7.5928e+07,-3.4419e+05,12259,15904,1,15904,1,0.0014463,7.4899e-05,0,0.0014463,3.1925e-05,1.1611e+08,1.3997e+07,0,1.1611e+08,22728,15903,12262,1,12262,1,0.00064015,5.9202e-11,0,0.00064015,-0.00011773,8.5741e+07,6.1001,0,8.5741e+07,-4.9907,12261,8553,1,8553,1,-0.00016486,-4.1e-05,0,2.0163e-06,-0.00026822,-6.6978e+07,-7.5809e+06,0,93463,-1.3116e+07,8552,10465,1,10465,1,0.00023766,-6.7332e-10,0,0.00023766,-0.00019276,4.8685e+07,-92.779,0,6.0009e+07,-19.947,10464,14059,1,14059,1,0.0010427,1.5526e-09,0,0.0010427,-4.2964e-05,9.9527e+07,215.24,0,9.9527e+07,136.03,14058,2091.4,0,2091.4,0,0.0004785,1.1427e-05,0,0.00045116,8.8568e-05,4.6065e+07,1.7311e+06,0,3.1303e+07,1.2787e+06,2091.4,1
5396,3.96,12260,1,12260,1,0.00065302,1.9699e-06,0,0.00067239,-0.00012113,6.8142e+07,2.8055e+05,0,7.612e+07,-3.4506e+05,12259,15904,1,15904,1,0.00145,7.5089e-05,0,0.00145,3.2006e-05,1.164e+08,1.4033e+07,0,1.164e+08,22783,15903,12262,1,12262,1,0.00064177,3.3312e-11,0,0.00064177,-0.00011803,8.5958e+07,3.2232,0,8.5958e+07,-5.017,12261,8553,1,8553,1,-0.00016528,-4.1103e-05,0,2.0213e-06,-0.0002689,-6.7148e+07,-7.6e+06,0,93662,-1.3149e+07,8552,10465,1,10465,1,0.00023826,-7.4166e-10,0,0.00023826,-0.00019325,4.8808e+07,-103.61,0,6.0161e+07,-20.843,10464,14059,1,14059,1,0.0010453,1.4229e-09,0,0.0010453,-4.3073e-05,9.9779e+07,201.17,0,9.9779e+07,136.65,14058,2091.4,0,2091.4,0,0.00047971,1.1456e-05,0,0.0004523,8.8792e-05,4.6182e+07,1.7355e+06,0,3.1382e+07,1.2819e+06,2091.4,1
5396,3.97,12260,1,12260,1,0.00065467,1.9749e-06,0,0.00067409,-0.00012144,6.8314e+07,2.8127e+05,0,7.6312e+07,-3.4593e+05,12259,15904,1,15904,1,0.0014536,7.5278e-05,0,0.0014536,3.2087e-05,1.167e+08,1.4068e+07,0,1.167e+08,22852,15903,12262,1,12262,1,0.00064339,7.8426e-11,0,0.00064339,-0.00011833,8.6175e+07,7.3013,0,8.6175e+07,-4.1149,12261,8553,1,8553,1,-0.0001657,-4.1207e-05,0,2.0267e-06,-0.00026958,-6.7317e+07,-7.6193e+06,0,93946,-1.3183e+07,8552,10465,1,10465,1,0.00023887,-7.6525e-10,0,0.00023887,-0.00019373,4.8932e+07,-106.71,0,6.0313e+07,-20.539,10464,14059,1,14059,1,0.0010479,1.4832e-09,0,0.0010479,-4.3182e-05,1.0003e+08,211.26,0,1.0003e+08,138.22,14058,2091.4,0,2091.4,0,0.00048093,1.1485e-05,0,0.00045344,8.9017e-05,4.6299e+07,1.7399e+06,0,3.1461e+07,1.2852e+06,2091.4,1
5396,3.98,12260,1,12260,1,0.00065632,1.9799e-06,0,0.00067579,-0.00012174,6.8486e+07,2.8197e+05,0,7.6504e+07,-3.468e+05,12259,15904,1,15904,1,0.0014573,7.5466e-05,0,0.0014573,3.2168e-05,1.1699e+08,1.4104e+07,0,1.1699e+08,22897,15903,12262,1,12262,1,0.00064502,3.3673e-11,0,0.00064502,-0.00011863,8.6392e+07,3.4164,0,8.6392e+07,-4.9112,12261,8553,1,8553,1,-0.00016611,-4.1311e-05,0,2.0316e-06,-0.00027026,-6.7487e+07,-7.6385e+06,0,94126,-1.3216e+07,8552,10465,1,10465,1,0.00023947,-6.4434e-10,0,0.00023947,-0.00019422,4.9055e+07,-88.363,0,6.0465e+07,-18.538,10464,14059,1,14059,1,0.0010506,1.6228e-09,0,0.0010506,-4.329e-05,1.0028e+08,221.96,0,1.0028e+08,139.74,14058,2091.4,0,2091.4,0,0.00048214,1.1513e-05,0,0.00045458,8.9241e-05,4.6415e+07,1.7443e+06,0,3.1541e+07,1.2884e+06,2091.4,1
5396,3.99,12260,1,12260,1,0.00065796,1.9848e-06,0,0.00067749,-0.00012205,6.8659e+07,2.8268e+05,0,7.6696e+07,-3.4767e+05,12259,15904,1,15904,1,0.0014609,7.5656e-05,0,0.0014609,3.2248e-05,1.1729e+08,1.4139e+07,0,1.1729e+08,22951,15903,12262,1,12262,1,0.00064664,4.3041e-11,0,0.00064664,-0.00011893,8.6609e+07,4.6791,0,8.6609e+07,-3.6081,12261,8553,1,8553,1,-0.00016653,-4.1415e-05,0,2.0365e-06,-0.00027094,-6.7656e+07,-7.6577e+06,0,94313,-1.3249e+07,8552,10465,1,10465,1,0.00024007,-6.8132e-10,0,0.00024007,-0.00019471,4.9178e+07,-94.533,0,6.0617e+07,-18.436,10464,14059,1,14059,1,0.0010532,1.4997e-09,0,0.0010532,-4.3399e-05,1.0054e+08,214.47,0,1.0054e+08,139.48,14058,2091.4,0,2091.4,0,0.00048335,1.1542e-05,0,0.00045572,8.9465e-05,4.6532e+07,1.7487e+06,0,3.162e+07,1.2917e+06,2091.4,1
5396,4,12260,1,12260,1,0.00065961,1.9899e-06,0,0.00067918,-0.00012235,6.883e+07,2.834e+05,0,7.6888e+07,-3.4854e+05,12259,15904,1,15904,1,0.0014646,7.5843e-05,0,0.0014646,3.2329e-05,1.1758e+08,1.4174e+07,0,1.1758e+08,23021,15903,12262,1,12262,1,0.00064825,1.2328e-10,0,0.00064825,-0.00011922,8.6826e+07,13.788,0,8.6826e+07,-2.3465,12261,8553,1,8553,1,-0.00016695,-4.1517e-05,0,2.0424e-06,-0.00027162,-6.7826e+07,-7.6767e+06,0,94743,-1.3282e+07,8552,10465,1,10465,1,0.00024067,-4.1871e-10,0,0.00024067,-0.0001952,4.9301e+07,-58.938,0,6.0769e+07,-13.973,10464,14059,1,14059,1,0.0010559,1.6835e-09,0,0.0010559,-4.3508e-05,1.0079e+08,230.33,0,1.0079e+08,143.99,14058,2091.4,0,2091.4,0,0.00048456,1.1571e-05,0,0.00045687,8.9689e-05,4.6648e+07,1.753e+06,0,3.1699e+07,1.2949e+06,2091.4,1
5396,4.01,12260,1,12260,1,0.00066126,1.9948e-06,0,0.00068088,-0.00012266,6.9003e+07,2.841e+05,0,7.7081e+07,-3.4942e+05,12259,15904,1,15904,1,0.0014683,7.6034e-05,0,0.0014683,3.241e-05,1.1787e+08,1.421e+07,0,1.1787e+08,23066,15903,12262,1,12262,1,0.00064988,1.359e-10,0,0.00064988,-0.00011952,8.7044e+07,15.411,0,8.7044e+07,-3.3542,12261,8553,1,8553,1,-0.00016737,-4.1622e-05,0,2.0468e-06,-0.0002723,-6.7995e+07,-7.696e+06,0,94810,-1.3316e+07,8552,10465,1,10465,1,0.00024127,-5.9836e-10,0,0.00024127,-0.00019569,4.9425e+07,-83.081,0,6.0921e+07,-18.943,10464,14059,1,14059,1,0.0010585,1.5347e-09,0,0.0010585,-4.3617e-05,1.0104e+08,217.83,0,1.0104e+08,138.98,14058,2091.4,0,2091.4,0,0.00048577,1.16e-05,0,0.00045801,8.9913e-05,4.6765e+07,1.7574e+06,0,3.1778e+07,1.2981e+06,2091.4,1
5396,4.02,12260,1,12260,1,0.00066291,1.9997e-06,0,0.00068258,-0.00012297,6.9175e+07,2.848e+05,0,7.7273e+07,-3.5029e+05,12259,15904,1,15904,1,0.0014719,7.6222e-05,0,0.0014719,3.2491e-05,1.1817e+08,1.4245e+07,0,1.1817e+08,23129,15903,12262,1,12262,1,0.0006515,7.7972e-11,0,0.0006515,-0.00011982,8.726e+07,7.1544,0,8.726e+07,-3.6979,12261,8553,1,8553,1,-0.00016778,-4.1726e-05,0,2.0521e-06,-0.00027298,-6.8165e+07,-7.7152e+06,0,95064,-1.3349e+07,8552,10465,1,10465,1,0.00024188,-7.3671e-10,0,0.00024188,-0.00019617,4.9548e+07,-103.68,0,6.1073e+07,-20.394,10464,14059,1,14059,1,0.0010611,1.498e-09,0,0.0010611,-4.3725e-05,1.0129e+08,213.32,0,1.0129e+08,140.43,14058,2091.4,0,2091.4,0,0.00048698,1.1629e-05,0,0.00045915,9.0138e-05,4.6881e+07,1.7618e+06,0,3.1857e+07,1.3014e+06,2091.4,1
5396,4.03,12260,1,12260,1,0.00066456,2.0048e-06,0,0.00068428,-0.00012327,6.9347e+07,2.8553e+05,0,7.7465e+07,-3.5116e+05,12259,15904,1,15904,1,0.0014756,7.6411e-05,0,0.0014756,3.2571e-05,1.1846e+08,1.4281e+07,0,1.1846e+08,23176,15903,12262,1,12262,1,0.00065312,1.7174e-10,0,0.00065312,-0.00012012,8.7478e+07,19.26,0,8.7478e+07,-3.7375,12261,8553,1,8553,1,-0.0001682,-4.183e-05,0,2.0571e-06,-0.00027365,-6.8334e+07,-7.7345e+06,0,95248,-1.3382e+07,8552,10465,1,10465,1,0.00024248,-5.2849e-10,0,0.00024248,-0.00019666,4.9671e+07,-73.553,0,6.1225e+07,-17.506,10464,14059,1,14059,1,0.0010638,1.6716e-09,0,0.0010638,-4.3834e-05,1.0154e+08,230.24,0,1.0154e+08,139.66,14058,2091.4,0,2091.4,0,0.00048819,1.1658e-05,0,0.00046029,9.0362e-05,4.6998e+07,1.7662e+06,0,3.1937e+07,1.3046e+06,2091.4,1
5396,4.04,12260,1,12260,1,0.00066621,2.0097e-06,0,0.00068598,-0.00012358,6.9519e+07,2.8622e+05,0,7.7657e+07,-3.5203e+05,12259,15904,1,15904,1,0.0014793,7.6601e-05,0,0.0014793,3.2652e-05,1.1876e+08,1.4316e+07,0,1.1876e+08,23244,15903,12262,1,12262,1,0.00065474,4.9012e-11,0,0.00065474,-0.00012042,8.7695e+07,5.0506,0,8.7695e+07,-3.5149,12261,8553,1,8553,1,-0.00016862,-4.1933e-05,0,2.0622e-06,-0.00027433,-6.8504e+07,-7.7536e+06,0,95469,-1.3415e+07,8552,10465,1,10465,1,0.00024308,-7.1453e-10,0,0.00024308,-0.00019715,4.9795e+07,-100.58,0,6.1377e+07,-16.391,10464,14059,1,14059,1,0.0010664,1.5412e-09,0,0.0010664,-4.3943e-05,1.0179e+08,218.28,0,1.0179e+08,142.2,14058,2091.4,0,2091.4,0,0.0004894,1.1687e-05,0,0.00046144,9.0586e-05,4.7115e+07,1.7706e+06,0,3.2016e+07,1.3079e+06,2091.4,1
5396,4.05,12260,1,12260,1,0.00066786,2.0147e-06,0,0.00068768,-0.00012388,6.9691e+07,2.8693e+05,0,7.7849e+07,-3.529e+05,12259,15904,1,15904,1,0.0014829,7.6792e-05,0,0.0014829,3.2733e-05,1.1905e+08,1.4352e+07,0,1.1905e+08,23298,15903,12262,1,12262,1,0.00065636,1.0864e-10,0,0.00065636,-0.00012072,8.7912e+07,10.859,0,8.7912e+07,-4.4485,12261,8553,1,8553,1,-0.00016904,-4.2038e-05,0,2.0669e-06,-0.00027501,-6.8673e+07,-7.7729e+06,0,95558,-1.3448e+07,8552,10465,1,10465,1,0.00024368,-8.8202e-10,0,0.00024368,-0.00019764,4.9918e+07,-122.32,0,6.1529e+07,-25.726,10464,14059,1,14059,1,0.0010691,1.4529e-09,0,0.0010691,-4.4052e-05,1.0205e+08,200.18,0,1.0205e+08,139.94,14058,2091.4,0,2091.4,0,0.00049062,1.1716e-05,0,0.00046258,9.081e-05,4.7231e+07,1.775e+06,0,3.2095e+07,1.3111e+06,2091.4,1
5396,4.06,12260,1,12260,1,0.00066951,2.0197e-06,0,0.00068937,-0.00012419,6.9863e+07,2.8764e+05,0,7.8041e+07,-3.5377e+05,12259,15904,1,15904,1,0.0014866,7.6979e-05,0,0.0014866,3.2814e-05,1.1934e+08,1.4387e+07,0,1.1934e+08,23351,15903,12262,1,12262,1,0.00065798,1.6275e-10,0,0.00065798,-0.00012101,8.8129e+07,18.639,0,8.8129e+07,-3.0019,12261,8553,1,8553,1,-0.00016945,-4.2141e-05,0,2.0723e-06,-0.00027569,-6.8843e+07,-7.7921e+06,0,95892,-1.3481e+07,8552,10465,1,10465,1,0.00024428,-6.7271e-10,0,0.00024428,-0.00019813,5.0041e+07,-94.925,0,6.1681e+07,-19.023,10464,14059,1,14059,1,0.0010717,1.5447e-09,0,0.0010717,-4.4161e-05,1.023e+08,219.33,0,1.023e+08,143.29,14058,2091.4,0,2091.4,0,0.00049183,1.1745e-05,0,0.00046372,9.1035e-05,4.7348e+07,1.7793e+06,0,3.2174e+07,1.3143e+06,2091.4,1
5396,4.07,12260,1,12260,1,0.00067116,2.0246e-06,0,0.00069107,-0.00012449,7.0035e+07,2.8834e+05,0,7.8233e+07,-3.5464e+05,12259,15904,1,15904,1,0.0014902,7.7169e-05,0,0.0014902,3.2895e-05,1.1964e+08,1.4422e+07,0,1.1964e+08,23419,15903,12262,1,12262,1,0.0006596,4.2134e-11,0,0.0006596,-0.00012131,8.8346e+07,3.9731,0,8.8346e+07,-3.5709,12261,8553,1,8553,1,-0.00016987,-4.2243e-05,0,2.0778e-06,-0.00027637,-6.9012e+07,-7.811e+06,0,96209,-1.3515e+07,8552,10465,1,10465,1,0.00024489,-8.6473e-10,0,0.00024489,-0.00019861,5.0164e+07,-121.57,0,6.1833e+07,-20.864,10464,14059,1,14059,1,0.0010743,1.4604e-09,0,0.0010743,-4.4269e-05,1.0255e+08,201.09,0,1.0255e+08,142.29,14058,2091.4,0,2091.4,0,0.00049304,1.1774e-05,0,0.00046486,9.1259e-05,4.7464e+07,1.7837e+06,0,3.2254e+07,1.3175e+06,2091.4,1
5396,4.08,12260,1,12260,1,0.00067281,2.0296e-06,0,0.00069277,-0.0001248,7.0207e+07,2.8905e+05,0,7.8426e+07,-3.5552e+05,12259,15904,1,15904,1,0.0014939,7.7358e-05,0,0.0014939,3.2975e-05,1.1993e+08,1.4458e+07,0,1.1993e+08,23473,15903,12262,1,12262,1,0.00066122,6.1575e-11,0,0.00066122,-0.00012161,8.8563e+07,5.6897,0,8.8563e+07,-2.9843,12261,8553,1,8553,1,-0.00017029,-4.2348e-05,0,2.0828e-06,-0.00027705,-6.9182e+07,-7.8303e+06,0,96422,-1.3548e+07,8552,10465,1,10465,1,0.00024549,-7.525e-10,0,0.00024549,-0.0001991,5.0288e+07,-106.45,0,6.1985e+07,-17.287,10464,14059,1,14059,1,0.001077,1.4828e-09,0,0.001077,-4.4378e-05,1.028e+08,207,0,1.028e+08,144.71,14058,2091.4,0,2091.4,0,0.00049425,1.1803e-05,0,0.000466,9.1483e-05,4.7581e+07,1.7881e+06,0,3.2333e+07,1.3208e+06,2091.4,1
5396,4.09,12260,1,12260,1,0.00067446,2.0346e-06,0,0.00069447,-0.00012511,7.0379e+07,2.8976e+05,0,7.8618e+07,-3.5639e+05,12259,15904,1,15904,1,0.0014976,7.7549e-05,0,0.0014976,3.3056e-05,1.2023e+08,1.4494e+07,0,1.2023e+08,23531,15903,12262,1,12262,1,0.00066285,1.0992e-10,0,0.00066285,-0.00012191,8.8781e+07,10.157,0,8.8781e+07,-6.124,12261,8553,1,8553,1,-0.0001707,-4.2453e-05,0,2.0875e-06,-0.00027773,-6.9351e+07,-7.8497e+06,0,96498,-1.3581e+07,8552,10465,1,10465,1,0.00024609,-9.9857e-10,0,0.00024609,-0.00019959,5.0411e+07,-135.76,0,6.2137e+07,-27.918,10464,14059,1,14059,1,0.0010796,1.4563e-09,0,0.0010796,-4.4487e-05,1.0306e+08,200,0,1.0306e+08,141.28,14058,2091.4,0,2091.4,0,0.00049546,1.1832e-05,0,0.00046715,9.1708e-05,4.7698e+07,1.7925e+06,0,3.2412e+07,1.324e+06,2091.4,1
5396,4.1,12260,1,12260,1,0.00067611,2.0395e-06,0,0.00069617,-0.00012541,7.0551e+07,2.9047e+05,0,7.881e+07,-3.5726e+05,12259,15904,1,15904,1,0.0015012,7.7737e-05,0,0.0015012,3.3137e-05,1.2052e+08,1.4529e+07,0,1.2052e+08,23574,15903,12262,1,12262,1,0.00066447,6.9645e-11,0,0.00066447,-0.00012221,8.8997e+07,7.3138,0,8.8997e+07,-4.4134,12261,8553,1,8553,1,-0.00017112,-4.2556e-05,0,2.0926e-06,-0.00027841,-6.9521e+07,-7.8688e+06,0,96770,-1.3614e+07,8552,10465,1,10465,1,0.00024669,-7.2062e-10,0,0.00024669,-0.00020008,5.0534e+07,-101.27,0,6.2289e+07,-22.588,10464,14059,1,14059,1,0.0010823,1.4926e-09,0,0.0010823,-4.4596e-05,1.0331e+08,209.67,0,1.0331e+08,140.14,14058,2091.4,0,2091.4,0,0.00049667,1.1861e-05,0,0.00046829,9.1931e-05,4.7814e+07,1.7969e+06,0,3.2491e+07,1.3273e+06,2091.4,1
5396,4.11,12260,1,12260,1,0.00067776,2.0445e-06,0,0.00069787,-0.00012572,7.0723e+07,2.9117e+05,0,7.9002e+07,-3.5813e+05,12259,15904,1,15904,1,0.0015049,7.7927e-05,0,0.0015049,3.3218e-05,1.2081e+08,1.4564e+07,0,1.2081e+08,23638,15903,12262,1,12262,1,0.00066609,1.1083e-11,0,0.00066609,-0.0001225,8.9214e+07,0.96881,0,8.9214e+07,-3.8913,12261,8553,1,8553,1,-0.00017154,-4.2659e-05,0,2.0981e-06,-0.00027909,-6.969e+07,-7.8879e+06,0,97062,-1.3647e+07,8552,10465,1,10465,1,0.00024729,-7.9595e-10,0,0.00024729,-0.00020057,5.0657e+07,-113.15,0,6.2441e+07,-18.709,10464,14059,1,14059,1,0.0010849,1.4808e-09,0,0.0010849,-4.4705e-05,1.0356e+08,205.18,0,1.0356e+08,144.82,14058,2091.4,0,2091.4,0,0.00049788,1.1889e-05,0,0.00046943,9.2156e-05,4.7931e+07,1.8012e+06,0,3.2571e+07,1.3305e+06,2091.4,1
5396,4.12,12260,1,12260,1,0.0006794,2.0496e-06,0,0.00069956,-0.00012602,7.0895e+07,2.919e+05,0,7.9194e+07,-3.59e+05,12259,15904,1,15904,1,0.0015085,7.8115e-05,0,0.0015085,3.3299e-05,1.2111e+08,1.4599e+07,0,1.2111e+08,23702,15903,12262,1,12262,1,0.00066771,1.5898e-10,0,0.00066771,-0.0001228,8.9431e+07,17.958,0,8.9431e+07,-3.3373,12261,8553,1,8553,1,-0.00017195,-4.2762e-05,0,2.1032e-06,-0.00027977,-6.986e+07,-7.907e+06,0,97328,-1.3681e+07,8552,10465,1,10465,1,0.00024789,-5.0172e-10,0,0.00024789,-0.00020105,5.0781e+07,-70.652,0,6.2593e+07,-16.485,10464,14059,1,14059,1,0.0010875,1.7097e-09,0,0.0010875,-4.4814e-05,1.0381e+08,238.52,0,1.0381e+08,145.07,14058,2091.4,0,2091.4,0,0.0004991,1.1918e-05,0,0.00047057,9.238e-05,4.8047e+07,1.8056e+06,0,3.265e+07,1.3337e+06,2091.4,1
5396,4.13,12260,1,12260,1,0.00068106,2.0546e-06,0,0.00070126,-0.00012633,7.1067e+07,2.9261e+05,0,7.9387e+07,-3.5987e+05,12259,15904,1,15904,1,0.0015122,7.8306e-05,0,0.0015122,3.3379e-05,1.214e+08,1.4635e+07,0,1.214e+08,23755,15903,12262,1,12262,1,0.00066933,1.7003e-10,0,0.00066933,-0.0001231,8.9649e+07,19.132,0,8.9649e+07,-4.3529,12261,8553,1,8553,1,-0.00017237,-4.2868e-05,0,2.1079e-06,-0.00028045,-7.0029e+07,-7.9265e+06,0,97382,-1.3714e+07,8552,10465,1,10465,1,0.0002485,-6.8771e-10,0,0.0002485,-0.00020154,5.0904e+07,-93.658,0,6.2745e+07,-21.779,10464,14059,1,14059,1,0.0010902,1.6726e-09,0,0.0010902,-4.4923e-05,1.0406e+08,231.48,0,1.0406e+08,145.31,14058,2091.4,0,2091.4,0,0.00050031,1.1947e-05,0,0.00047172,9.2604e-05,4.8164e+07,1.81e+06,0,3.2729e+07,1.337e+06,2091.4,1
5396,4.14,12260,1,12260,1,0.0006827,2.0596e-06,0,0.00070296,-0.00012664,7.1239e+07,2.9332e+05,0,7.9579e+07,-3.6074e+05,12259,15904,1,15904,1,0.0015159,7.8493e-05,0,0.0015159,3.346e-05,1.217e+08,1.467e+07,0,1.217e+08,23818,15903,12262,1,12262,1,0.00067095,1.9866e-10,0,0.00067095,-0.0001234,8.9865e+07,23.583,0,8.9865e+07,-2.3091,12261,8553,1,8553,1,-0.00017279,-4.297e-05,0,2.1136e-06,-0.00028113,-7.0199e+07,-7.9454e+06,0,97813,-1.3747e+07,8552,10465,1,10465,1,0.0002491,-3.1709e-10,0,0.0002491,-0.00020203,5.1027e+07,-43.302,0,6.2897e+07,-15.364,10464,14059,1,14059,1,0.0010928,1.815e-09,0,0.0010928,-4.5031e-05,1.0431e+08,247.49,0,1.0431e+08,143.94,14058,2091.4,0,2091.4,0,0.00050152,1.1976e-05,0,0.00047286,9.2828e-05,4.828e+07,1.8143e+06,0,3.2808e+07,1.3402e+06,2091.4,1
5396,4.15,12260,1,12260,1,0.00068435,2.0645e-06,0,0.00070466,-0.00012694,7.1411e+07,2.9403e+05,0,7.9771e+07,-3.6161e+05,12259,15904,1,15904,1,0.0015195,7.8683e-05,0,0.0015195,3.3541e-05,1.2199e+08,1.4706e+07,0,1.2199e+08,23873,15903,12262,1,12262,1,0.00067257,1.928e-10,0,0.00067257,-0.0001237,9.0083e+07,21.89,0,9.0083e+07,-3.4511,12261,8553,1,8553,1,-0.00017321,-4.3074e-05,0,2.1187e-06,-0.0002818,-7.0368e+07,-7.9646e+06,0,98023,-1.378e+07,8552,10465,1,10465,1,0.0002497,-3.9736e-10,0,0.0002497,-0.00020252,5.115e+07,-55.718,0,6.3049e+07,-15.67,10464,14059,1,14059,1,0.0010955,1.7962e-09,0,0.0010955,-4.514e-05,1.0457e+08,247.48,0,1.0457e+08,144.39,14058,2091.4,0,2091.4,0,0.00050273,1.2005e-05,0,0.000474,9.3052e-05,4.8397e+07,1.8187e+06,0,3.2887e+07,1.3435e+06,2091.4,1
5396,4.16,12260,1,12260,1,0.000686,2.0693e-06,0,0.00070636,-0.00012725,7.1584e+07,2.9471e+05,0,7.9963e+07,-3.6249e+05,12259,15904,1,15904,1,0.0015232,7.8875e-05,0,0.0015232,3.3622e-05,1.2228e+08,1.4742e+07,0,1.2228e+08,23933,15903,12262,1,12262,1,0.00067419,9.0241e-12,0,0.00067419,-0.00012399,9.03e+07,0.64185,0,9.03e+07,-6.2761,12261,8553,1,8553,1,-0.00017362,-4.3178e-05,0,2.1233e-06,-0.00028248,-7.0538e+07,-7.9839e+06,0,98105,-1.3814e+07,8552,10465,1,10465,1,0.0002503,-1.1235e-09,0,0.0002503,-0.00020301,5.1274e+07,-154.93,0,6.3201e+07,-27.779,10464,14059,1,14059,1,0.0010981,1.4143e-09,0,0.0010981,-4.5249e-05,1.0482e+08,195.53,0,1.0482e+08,146.3,14058,2091.4,0,2091.4,0,0.00050394,1.2034e-05,0,0.00047514,9.3277e-05,4.8514e+07,1.8232e+06,0,3.2967e+07,1.3467e+06,2091.4,1
5396,4.17,12260,1,12260,1,0.00068765,2.0744e-06,0,0.00070806,-0.00012755,7.1756e+07,2.9544e+05,0,8.0156e+07,-3.6336e+05,12259,15904,1,15904,1,0.0015269,7.9064e-05,0,0.0015269,3.3703e-05,1.2258e+08,1.4777e+07,0,1.2258e+08,23989,15903,12262,1,12262,1,0.00067581,1.8215e-10,0,0.00067581,-0.00012429,9.0517e+07,20.76,0,9.0517e+07,-4.7717,12261,8553,1,8553,1,-0.00017404,-4.3282e-05,0,2.1283e-06,-0.00028316,-7.0707e+07,-8.0032e+06,0,98310,-1.3847e+07,8552,10465,1,10465,1,0.00025091,-7.7641e-10,0,0.00025091,-0.00020349,5.1397e+07,-105.24,0,6.3353e+07,-25.938,10464,14059,1,14059,1,0.0011007,1.5635e-09,0,0.0011007,-4.5358e-05,1.0507e+08,221.57,0,1.0507e+08,143.72,14058,2091.4,0,2091.4,0,0.00050515,1.2063e-05,0,0.00047629,9.3501e-05,4.863e+07,1.8275e+06,0,3.3046e+07,1.3499e+06,2091.4,1
5396,4.18,12260,1,12260,1,0.0006893,2.0792e-06,0,0.00070975,-0.00012786,7.1928e+07,2.9612e+05,0,8.0348e+07,-3.6423e+05,12259,15904,1,15904,1,0.0015305,7.9253e-05,0,0.0015305,3.3783e-05,1.2287e+08,1.4812e+07,0,1.2287e+08,24041,15903,12262,1,12262,1,0.00067743,1.7114e-11,0,0.00067743,-0.00012459,9.0734e+07,1.8382,0,9.0734e+07,-3.9878,12261,8553,1,8553,1,-0.00017446,-4.3385e-05,0,2.1332e-06,-0.00028384,-7.0877e+07,-8.0223e+06,0,98520,-1.388e+07,8552,10465,1,10465,1,0.00025151,-9.241e-10,0,0.00025151,-0.00020398,5.1521e+07,-128.01,0,6.3505e+07,-25.584,10464,14059,1,14059,1,0.0011034,1.3816e-09,0,0.0011034,-4.5467e-05,1.0532e+08,187.77,0,1.0532e+08,141.3,14058,2091.4,0,2091.4,0,0.00050637,1.2092e-05,0,0.00047743,9.3725e-05,4.8747e+07,1.8319e+06,0,3.3125e+07,1.3532e+06,2091.4,1
5396,4.19,12260,1,12260,1,0.00069095,2.0844e-06,0,0.00071145,-0.00012817,7.21e+07,2.9685e+05,0,8.054e+07,-3.651e+05,12259,15904,1,15904,1,0.0015342,7.9441e-05,0,0.0015342,3.3864e-05,1.2317e+08,1.4848e+07,0,1.2317e+08,24101,15903,12262,1,12262,1,0.00067905,1.2476e-11,0,0.00067905,-0.00012489,9.0951e+07,0.94655,0,9.0951e+07,-3.5272,12261,8553,1,8553,1,-0.00017488,-4.3488e-05,0,2.139e-06,-0.00028452,-7.1046e+07,-8.0414e+06,0,98884,-1.3913e+07,8552,10465,1,10465,1,0.00025211,-5.9779e-10,0,0.00025211,-0.00020447,5.1644e+07,-83.382,0,6.3656e+07,-13.61,10464,14059,1,14059,1,0.001106,1.6602e-09,0,0.001106,-4.5575e-05,1.0557e+08,224.38,0,1.0557e+08,148.29,14058,2091.4,0,2091.4,0,0.00050758,1.2121e-05,0,0.00047857,9.3949e-05,4.8863e+07,1.8363e+06,0,3.3204e+07,1.3564e+06,2091.4,1
5396,4.2,12260,1,12260,1,0.0006926,2.0894e-06,0,0.00071315,-0.00012847,7.2272e+07,2.9756e+05,0,8.0732e+07,-3.6597e+05,12259,15904,1,15904,1,0.0015378,7.9631e-05,0,0.0015378,3.3945e-05,1.2346e+08,1.4883e+07,0,1.2346e+08,24170,15903,12262,1,12262,1,0.00068067,1.1687e-10,0,0.00068067,-0.00012519,9.1168e+07,11.871,0,9.1168e+07,-4.1289,12261,8553,1,8553,1,-0.00017529,-4.3592e-05,0,2.144e-06,-0.0002852,-7.1215e+07,-8.0605e+06,0,99068,-1.3946e+07,8552,10465,1,10465,1,0.00025271,-6.4052e-10,0,0.00025271,-0.00020496,5.1767e+07,-89.354,0,6.3808e+07,-18.833,10464,14059,1,14059,1,0.0011087,1.702e-09,0,0.0011087,-4.5684e-05,1.0583e+08,237.3,0,1.0583e+08,148.68,14058,2091.4,0,2091.4,0,0.00050879,1.215e-05,0,0.00047971,9.4174e-05,4.898e+07,1.8407e+06,0,3.3284e+07,1.3596e+06,2091.4,1
5396,4.21,12260,1,12260,1,0.00069425,2.0942e-06,0,0.00071485,-0.00012878,7.2444e+07,2.9826e+05,0,8.0924e+07,-3.6684e+05,12259,15904,1,15904,1,0.0015415,7.9821e-05,0,0.0015415,3.4026e-05,1.2375e+08,1.4919e+07,0,1.2375e+08,24221,15903,12262,1,12262,1,0.00068229,-7.2501e-12,0,0.00068229,-0.00012548,9.1385e+07,-0.55234,0,9.1385e+07,-3.675,12261,8553,1,8553,1,-0.00017571,-4.3696e-05,0,2.1491e-06,-0.00028588,-7.1385e+07,-8.0798e+06,0,99308,-1.398e+07,8552,10465,1,10465,1,0.00025331,-7.5934e-10,0,0.00025331,-0.00020545,5.189e+07,-107.01,0,6.396e+07,-17.72,10464,14059,1,14059,1,0.0011113,1.5018e-09,0,0.0011113,-4.5793e-05,1.0608e+08,208.83,0,1.0608e+08,146.73,14058,2091.4,0,2091.4,0,0.00051,1.2179e-05,0,0.00048085,9.4398e-05,4.9096e+07,1.8451e+06,0,3.3363e+07,1.3629e+06,2091.4,1
5396,4.22,12260,1,12260,1,0.0006959,2.0994e-06,0,0.00071654,-0.00012908,7.2616e+07,2.9898e+05,0,8.1116e+07,-3.6771e+05,12259,15904,1,15904,1,0.0015452,8.0009e-05,0,0.0015452,3.4106e-05,1.2405e+08,1.4954e+07,0,1.2405e+08,24274,15903,12262,1,12262,1,0.00068391,1.3546e-10,0,0.00068391,-0.00012578,9.1602e+07,15.48,0,9.1602e+07,-3.4723,12261,8553,1,8553,1,-0.00017613,-4.38e-05,0,2.1542e-06,-0.00028656,-7.1554e+07,-8.099e+06,0,99532,-1.4012e+07,8552,10465,1,10465,1,0.00025391,-4.641e-10,0,0.00025391,-0.00020593,5.2013e+07,-65.326,0,6.4112e+07,-16.954,10464,14059,1,14059,1,0.0011139,1.769e-09,0,0.0011139,-4.5902e-05,1.0633e+08,239.68,0,1.0633e+08,146.46,14058,2091.4,0,2091.4,0,0.00051121,1.2208e-05,0,0.000482,9.4622e-05,4.9213e+07,1.8494e+06,0,3.3442e+07,1.3661e+06,2091.4,1
5396,4.23,12260,1,12260,1,0.00069755,2.1041e-06,0,0.00071824,-0.00012939,7.2788e+07,2.9966e+05,0,8.1308e+07,-3.6858e+05,12259,15904,1,15904,1,0.0015488,8.0199e-05,0,0.0015488,3.4187e-05,1.2434e+08,1.4989e+07,0,1.2434e+08,24340,15903,12262,1,12262,1,0.00068553,-1.1196e-10,0,0.00068553,-0.00012608,9.1819e+07,-11.156,0,9.1819e+07,-3.6319,12261,8553,1,8553,1,-0.00017654,-4.3903e-05,0,2.1595e-06,-0.00028724,-7.1724e+07,-8.118e+06,0,99796,-1.4046e+07,8552,10465,1,10465,1,0.00025452,-7.9832e-10,0,0.00025452,-0.00020642,5.2137e+07,-114.22,0,6.4264e+07,-15.389,10464,14059,1,14059,1,0.0011166,1.5229e-09,0,0.0011166,-4.601e-05,1.0658e+08,207.84,0,1.0658e+08,149.98,14058,2091.4,0,2091.4,0,0.00051242,1.2237e-05,0,0.00048314,9.4846e-05,4.9329e+07,1.8538e+06,0,3.3521e+07,1.3693e+06,2091.4,1
5396,4.24,12260,1,12260,1,0.00069919,2.1092e-06,0,0.00071994,-0.0001297,7.296e+07,3.0038e+05,0,8.15e+07,-3.6945e+05,12259,15904,1,15904,1,0.0015525,8.0388e-05,0,0.0015525,3.4268e-05,1.2464e+08,1.5025e+07,0,1.2464e+08,24395,15903,12262,1,12262,1,0.00068715,-5.3692e-12,0,0.00068715,-0.00012638,9.2036e+07,-0.46123,0,9.2036e+07,-3.9232,12261,8553,1,8553,1,-0.00017696,-4.4006e-05,0,2.1648e-06,-0.00028792,-7.1893e+07,-8.1372e+06,0,1.0006e+05,-1.4079e+07,8552,10465,1,10465,1,0.00025512,-6.3298e-10,0,0.00025512,-0.00020691,5.226e+07,-90.855,0,6.4416e+07,-14.832,10464,14059,1,14059,1,0.0011192,1.6391e-09,0,0.0011192,-4.6119e-05,1.0683e+08,223.39,0,1.0683e+08,153.92,14058,2091.4,0,2091.4,0,0.00051363,1.2265e-05,0,0.00048428,9.507e-05,4.9446e+07,1.8582e+06,0,3.36e+07,1.3726e+06,2091.4,1
5396,4.25,12260,1,12260,1,0.00070085,2.1143e-06,0,0.00072164,-0.00013,7.3132e+07,3.011e+05,0,8.1693e+07,-3.7033e+05,12259,15904,1,15904,1,0.0015562,8.0578e-05,0,0.0015562,3.4349e-05,1.2493e+08,1.506e+07,0,1.2493e+08,24429,15903,12262,1,12262,1,0.00068878,1.2976e-12,0,0.00068878,-0.00012668,9.2254e+07,0.11685,0,9.2254e+07,-4.2088,12261,8553,1,8553,1,-0.00017738,-4.4112e-05,0,2.1694e-06,-0.0002886,-7.2063e+07,-8.1567e+06,0,1.0016e+05,-1.4112e+07,8552,10465,1,10465,1,0.00025572,-5.8198e-10,0,0.00025572,-0.0002074,5.2383e+07,-81.397,0,6.4568e+07,-18.546,10464,14059,1,14059,1,0.0011219,1.7672e-09,0,0.0011219,-4.6228e-05,1.0709e+08,241.85,0,1.0709e+08,146.19,14058,2091.4,0,2091.4,0,0.00051485,1.2295e-05,0,0.00048542,9.5295e-05,4.9563e+07,1.8626e+06,0,3.368e+07,1.3758e+06,2091.4,1
5396,4.26,12260,1,12260,1,0.0007025,2.1191e-06,0,0.00072334,-0.00013031,7.3304e+07,3.018e+05,0,8.1885e+07,-3.712e+05,12259,15904,1,15904,1,0.0015598,8.0769e-05,0,0.0015598,3.443e-05,1.2522e+08,1.5096e+07,0,1.2522e+08,24488,15903,12262,1,12262,1,0.0006904,-1.407e-10,0,0.0006904,-0.00012698,9.2471e+07,-15.208,0,9.2471e+07,-4.1105,12261,8553,1,8553,1,-0.0001778,-4.4215e-05,0,2.1744e-06,-0.00028928,-7.2233e+07,-8.1758e+06,0,1.0031e+05,-1.4145e+07,8552,10465,1,10465,1,0.00025632,-7.7365e-10,0,0.00025632,-0.00020789,5.2507e+07,-110.32,0,6.472e+07,-16.744,10464,14059,1,14059,1,0.0011245,1.5791e-09,0,0.0011245,-4.6337e-05,1.0734e+08,214.5,0,1.0734e+08,148.16,14058,2091.4,0,2091.4,0,0.00051606,1.2324e-05,0,0.00048657,9.5519e-05,4.9679e+07,1.867e+06,0,3.3759e+07,1.379e+06,2091.4,1
5396,4.27,12260,1,12260,1,0.00070414,2.1241e-06,0,0.00072504,-0.00013061,7.3476e+07,3.025e+05,0,8.2077e+07,-3.7207e+05,12259,15904,1,15904,1,0.0015635,8.0958e-05,0,0.0015635,3.451e-05,1.2552e+08,1.5131e+07,0,1.2552e+08,24572,15903,12262,1,12262,1,0.00069202,-1.5842e-10,0,0.00069202,-0.00012727,9.2688e+07,-17.228,0,9.2688e+07,-4.8687,12261,8553,1,8553,1,-0.00017821,-4.4318e-05,0,2.1797e-06,-0.00028995,-7.2402e+07,-8.1949e+06,0,1.0063e+05,-1.4179e+07,8552,10465,1,10465,1,0.00025692,-7.302e-10,0,0.00025692,-0.00020837,5.263e+07,-102.51,0,6.4872e+07,-21.629,10464,14059,1,14059,1,0.0011271,1.7311e-09,0,0.0011271,-4.6446e-05,1.0759e+08,238.78,0,1.0759e+08,149.87,14058,2091.4,0,2091.4,0,0.00051727,1.2352e-05,0,0.00048771,9.5743e-05,4.9796e+07,1.8713e+06,0,3.3838e+07,1.3823e+06,2091.4,1
5396,4.28,12260,1,12260,1,0.00070579,2.1291e-06,0,0.00072673,-0.00013092,7.3648e+07,3.0321e+05,0,8.2269e+07,-3.7294e+05,12259,15904,1,15904,1,0.0015671,8.1147e-05,0,0.0015671,3.4591e-05,1.2581e+08,1.5167e+07,0,1.2581e+08,24624,15903,12262,1,12262,1,0.00069364,-8.8618e-11,0,0.00069364,-0.00012757,9.2905e+07,-9.2039,0,9.2905e+07,-4.5313,12261,8553,1,8553,1,-0.00017863,-4.4421e-05,0,2.1852e-06,-0.00029063,-7.2571e+07,-8.214e+06,0,1.0095e+05,-1.4212e+07,8552,10465,1,10465,1,0.00025752,-7.8391e-10,0,0.00025752,-0.00020886,5.2753e+07,-115.16,0,6.5024e+07,-17.504,10464,14059,1,14059,1,0.0011298,1.6305e-09,0,0.0011298,-4.6554e-05,1.0784e+08,221.76,0,1.0784e+08,156.05,14058,2091.4,0,2091.4,0,0.00051848,1.2381e-05,0,0.00048885,9.5967e-05,4.9912e+07,1.8757e+06,0,3.3917e+07,1.3855e+06,2091.4,1
5396,4.29,12260,1,12260,1,0.00070744,2.1341e-06,0,0.00072843,-0.00013123,7.382e+07,3.0393e+05,0,8.2461e+07,-3.7381e+05,12259,15904,1,15904,1,0.0015708,8.1336e-05,0,0.0015708,3.4672e-05,1.2611e+08,1.5202e+07,0,1.2611e+08,24681,15903,12262,1,12262,1,0.00069526,-3.721e-11,0,0.00069526,-0.00012787,9.3122e+07,-3.4397,0,9.3122e+07,-4.4763,12261,8553,1,8553,1,-0.00017905,-4.4526e-05,0,2.1901e-06,-0.00029131,-7.2741e+07,-8.2333e+06,0,1.0109e+05,-1.4245e+07,8552,10465,1,10465,1,0.00025813,-7.6938e-10,0,0.00025813,-0.00020935,5.2876e+07,-109.73,0,6.5176e+07,-17.834,10464,14059,1,14059,1,0.0011324,1.6564e-09,0,0.0011324,-4.6663e-05,1.0809e+08,222.15,0,1.0809e+08,153.01,14058,2091.4,0,2091.4,0,0.00051969,1.241e-05,0,0.00048999,9.6192e-05,5.0029e+07,1.8801e+06,0,3.3997e+07,1.3888e+06,2091.4,1
5396,4.3,12260,1,12260,1,0.00070909,2.1391e-06,0,0.00073013,-0.00013153,7.3992e+07,3.0465e+05,0,8.2654e+07,-3.7469e+05,12259,15904,1,15904,1,0.0015745,8.1525e-05,0,0.0015745,3.4753e-05,1.264e+08,1.5237e+07,0,1.264e+08,24732,15903,12262,1,12262,1,0.00069688,2.7721e-11,0,0.00069688,-0.00012817,9.3339e+07,3.1372,0,9.3339e+07,-4.3769,12261,8553,1,8553,1,-0.00017946,-4.463e-05,0,2.1951e-06,-0.00029199,-7.291e+07,-8.2526e+06,0,1.0132e+05,-1.4278e+07,8552,10465,1,10465,1,0.00025873,-5.6697e-10,0,0.00025873,-0.00020984,5.3e+07,-78.906,0,6.5328e+07,-18.701,10464,14059,1,14059,1,0.0011351,1.813e-09,0,0.0011351,-4.6772e-05,1.0835e+08,248.79,0,1.0835e+08,149.4,14058,2091.4,0,2091.4,0,0.0005209,1.2439e-05,0,0.00049113,9.6416e-05,5.0146e+07,1.8845e+06,0,3.4076e+07,1.392e+06,2091.4,1
5396,4.31,12260,1,12260,1,0.00071074,2.1441e-06,0,0.00073183,-0.00013184,7.4164e+07,3.0536e+05,0,8.2846e+07,-3.7556e+05,12259,15904,1,15904,1,0.0015781,8.1715e-05,0,0.0015781,3.4834e-05,1.2669e+08,1.5273e+07,0,1.2669e+08,24771,15903,12262,1,12262,1,0.00069851,-6.6227e-11,0,0.00069851,-0.00012847,9.3557e+07,-7.424,0,9.3557e+07,-4.3851,12261,8553,1,8553,1,-0.00017988,-4.4734e-05,0,2.1996e-06,-0.00029267,-7.308e+07,-8.2719e+06,0,1.014e+05,-1.4311e+07,8552,10465,1,10465,1,0.00025933,-7.212e-10,0,0.00025933,-0.00021033,5.3123e+07,-99.61,0,6.548e+07,-24.047,10464,14059,1,14059,1,0.0011377,1.7751e-09,0,0.0011377,-4.6881e-05,1.086e+08,244.3,0,1.086e+08,147,14058,2091.4,0,2091.4,0,0.00052211,1.2468e-05,0,0.00049228,9.664e-05,5.0262e+07,1.8889e+06,0,3.4155e+07,1.3952e+06,2091.4,1
5396,4.32,12260,1,12260,1,0.00071239,2.149e-06,0,0.00073353,-0.00013214,7.4336e+07,3.0605e+05,0,8.3038e+07,-3.7643e+05,12259,15904,1,15904,1,0.0015818,8.1904e-05,0,0.0015818,3.4914e-05,1.2699e+08,1.5308e+07,0,1.2699e+08,24856,15903,12262,1,12262,1,0.00070012,6.6771e-11,0,0.00070012,-0.00012876,9.3773e+07,5.9697,0,9.3773e+07,-4.7243,12261,8553,1,8553,1,-0.0001803,-4.4837e-05,0,2.2052e-06,-0.00029335,-7.3249e+07,-8.2908e+06,0,1.0174e+05,-1.4345e+07,8552,10465,1,10465,1,0.00025993,-8.5052e-10,0,0.00025993,-0.00021081,5.3246e+07,-119.5,0,6.5632e+07,-21.499,10464,14059,1,14059,1,0.0011403,1.5848e-09,0,0.0011403,-4.699e-05,1.0885e+08,224.84,0,1.0885e+08,152.5,14058,2091.4,0,2091.4,0,0.00052332,1.2497e-05,0,0.00049342,9.6864e-05,5.0379e+07,1.8932e+06,0,3.4234e+07,1.3985e+06,2091.4,1
5396,4.33,12260,1,12260,1,0.00071404,2.154e-06,0,0.00073523,-0.00013245,7.4509e+07,3.0677e+05,0,8.323e+07,-3.773e+05,12259,15904,1,15904,1,0.0015855,8.2095e-05,0,0.0015855,3.4995e-05,1.2728e+08,1.5344e+07,0,1.2728e+08,24902,15903,12262,1,12262,1,0.00070175,2.4523e-11,0,0.00070175,-0.00012906,9.3991e+07,2.2604,0,9.3991e+07,-6.4032,12261,8553,1,8553,1,-0.00018072,-4.4942e-05,0,2.2099e-06,-0.00029403,-7.3419e+07,-8.3102e+06,0,1.0185e+05,-1.4378e+07,8552,10465,1,10465,1,0.00026054,-9.4985e-10,0,0.00026054,-0.0002113,5.337e+07,-128.72,0,6.5784e+07,-25.75,10464,14059,1,14059,1,0.001143,1.6859e-09,0,0.001143,-4.7099e-05,1.091e+08,235.43,0,1.091e+08,148.82,14058,2091.4,0,2091.4,0,0.00052454,1.2526e-05,0,0.00049456,9.7089e-05,5.0495e+07,1.8977e+06,0,3.4314e+07,1.4017e+06,2091.4,1
5396,4.34,12260,1,12260,1,0.00071569,2.1589e-06,0,0.00073692,-0.00013275,7.468e+07,3.0747e+05,0,8.3422e+07,-3.7817e+05,12259,15904,1,15904,1,0.0015891,8.2282e-05,0,0.0015891,3.5076e-05,1.2758e+08,1.5379e+07,0,1.2758e+08,24966,15903,12262,1,12262,1,0.00070336,4.9581e-11,0,0.00070336,-0.00012936,9.4207e+07,4.9073,0,9.4207e+07,-3.5437,12261,8553,1,8553,1,-0.00018113,-4.5044e-05,0,2.2156e-06,-0.00029471,-7.3588e+07,-8.3291e+06,0,1.0225e+05,-1.4411e+07,8552,10465,1,10465,1,0.00026114,-5.6133e-10,0,0.00026114,-0.00021179,5.3493e+07,-80.112,0,6.5936e+07,-15.552,10464,14059,1,14059,1,0.0011456,1.713e-09,0,0.0011456,-4.7207e-05,1.0935e+08,233.3,0,1.0935e+08,153.17,14058,2091.4,0,2091.4,0,0.00052575,1.2555e-05,0,0.0004957,9.7313e-05,5.0612e+07,1.902e+06,0,3.4393e+07,1.4049e+06,2091.4,1
5396,4.35,12260,1,12260,1,0.00071734,2.1639e-06,0,0.00073862,-0.00013306,7.4852e+07,3.0818e+05,0,8.3614e+07,-3.7904e+05,12259,15904,1,15904,1,0.0015928,8.2473e-05,0,0.0015928,3.5157e-05,1.2787e+08,1.5415e+07,0,1.2787e+08,25029,15903,12262,1,12262,1,0.00070499,3.581e-11,0,0.00070499,-0.00012966,9.4425e+07,3.3229,0,9.4425e+07,-4.3038,12261,8553,1,8553,1,-0.00018155,-4.5148e-05,0,2.2206e-06,-0.00029539,-7.3758e+07,-8.3484e+06,0,1.0243e+05,-1.4444e+07,8552,10465,1,10465,1,0.00026174,-7.5088e-10,0,0.00026174,-0.00021228,5.3616e+07,-106.96,0,6.6088e+07,-18.799,10464,14059,1,14059,1,0.0011483,1.6435e-09,0,0.0011483,-4.7316e-05,1.0961e+08,227.33,0,1.0961e+08,152.8,14058,2091.4,0,2091.4,0,0.00052696,1.2584e-05,0,0.00049685,9.7537e-05,5.0728e+07,1.9064e+06,0,3.4472e+07,1.4082e+06,2091.4,1
5396,4.36,12260,1,12260,1,0.00071899,2.1689e-06,0,0.00074032,-0.00013337,7.5024e+07,3.0888e+05,0,8.3807e+07,-3.7991e+05,12259,15904,1,15904,1,0.0015964,8.2661e-05,0,0.0015964,3.5237e-05,1.2816e+08,1.545e+07,0,1.2816e+08,25082,15903,12262,1,12262,1,0.00070661,4.7914e-11,0,0.00070661,-0.00012996,9.4642e+07,4.7527,0,9.4642e+07,-3.1292,12261,8553,1,8553,1,-0.00018197,-4.5251e-05,0,2.2258e-06,-0.00029607,-7.3927e+07,-8.3675e+06,0,1.027e+05,-1.4477e+07,8552,10465,1,10465,1,0.00026234,-6.7894e-10,0,0.00026234,-0.00021277,5.3739e+07,-95.035,0,6.624e+07,-16.302,10464,14059,1,14059,1,0.0011509,1.6616e-09,0,0.0011509,-4.7425e-05,1.0986e+08,229.89,0,1.0986e+08,154.92,14058,2091.4,0,2091.4,0,0.00052817,1.2613e-05,0,0.00049799,9.7761e-05,5.0845e+07,1.9107e+06,0,3.4551e+07,1.4114e+06,2091.4,1
5396,4.37,12260,1,12260,1,0.00072064,2.1739e-06,0,0.00074202,-0.00013367,7.5196e+07,3.096e+05,0,8.3999e+07,-3.8078e+05,12259,15904,1,15904,1,0.0016001,8.2852e-05,0,0.0016001,3.5318e-05,1.2846e+08,1.5486e+07,0,1.2846e+08,25133,15903,12262,1,12262,1,0.00070823,3.2901e-11,0,0.00070823,-0.00013025,9.4859e+07,2.9385,0,9.4859e+07,-5.2128,12261,8553,1,8553,1,-0.00018238,-4.5355e-05,0,2.2306e-06,-0.00029674,-7.4097e+07,-8.3868e+06,0,1.0284e+05,-1.4511e+07,8552,10465,1,10465,1,0.00026294,-8.6832e-10,0,0.00026294,-0.00021326,5.3863e+07,-121.46,0,6.6392e+07,-23.17,10464,14059,1,14059,1,0.0011535,1.697e-09,0,0.0011535,-4.7534e-05,1.1011e+08,236.14,0,1.1011e+08,152.11,14058,2091.4,0,2091.4,0,0.00052938,1.2642e-05,0,0.00049913,9.7986e-05,5.0962e+07,1.9152e+06,0,3.4631e+07,1.4147e+06,2091.4,1
5396,4.38,12260,1,12260,1,0.00072229,2.1789e-06,0,0.00074372,-0.00013398,7.5369e+07,3.103e+05,0,8.4191e+07,-3.8166e+05,12259,15904,1,15904,1,0.0016038,8.3044e-05,0,0.0016038,3.5399e-05,1.2875e+08,1.5521e+07,0,1.2875e+08,25183,15903,12262,1,12262,1,0.00070986,9.6452e-13,0,0.00070986,-0.00013055,9.5077e+07,0.061135,0,9.5077e+07,-6.6509,12261,8553,1,8553,1,-0.0001828,-4.546e-05,0,2.235e-06,-0.00029743,-7.4266e+07,-8.4062e+06,0,1.0285e+05,-1.4544e+07,8552,10465,1,10465,1,0.00026355,-1.14e-09,0,0.00026355,-0.00021374,5.3986e+07,-157.79,0,6.6544e+07,-28.169,10464,14059,1,14059,1,0.0011562,1.5398e-09,0,0.0011562,-4.7643e-05,1.1036e+08,214.58,0,1.1036e+08,150.11,14058,2091.4,0,2091.4,0,0.0005306,1.2671e-05,0,0.00050027,9.821e-05,5.1078e+07,1.9196e+06,0,3.471e+07,1.4179e+06,2091.4,1
5396,4.39,12260,1,12260,1,0.00072394,2.1839e-06,0,0.00074542,-0.00013429,7.5541e+07,3.1102e+05,0,8.4383e+07,-3.8252e+05,12259,15904,1,15904,1,0.0016074,8.3232e-05,0,0.0016074,3.548e-05,1.2905e+08,1.5557e+07,0,1.2905e+08,25242,15903,12262,1,12262,1,0.00071147,1.6277e-10,0,0.00071147,-0.00013085,9.5294e+07,18.265,0,9.5294e+07,-5.0248,12261,8553,1,8553,1,-0.00018322,-4.5564e-05,0,2.2402e-06,-0.0002981,-7.4436e+07,-8.4254e+06,0,1.0308e+05,-1.4577e+07,8552,10465,1,10465,1,0.00026415,-7.6466e-10,0,0.00026415,-0.00021423,5.4109e+07,-104.39,0,6.6696e+07,-26.425,10464,14059,1,14059,1,0.0011588,1.7176e-09,0,0.0011588,-4.7752e-05,1.1062e+08,239.33,0,1.1062e+08,150.02,14058,2091.4,0,2091.4,0,0.00053181,1.27e-05,0,0.00050142,9.8434e-05,5.1195e+07,1.9239e+06,0,3.4789e+07,1.4211e+06,2091.4,1
5396,4.4,12260,1,12260,1,0.00072558,2.1887e-06,0,0.00074711,-0.00013459,7.5712e+07,3.117e+05,0,8.4575e+07,-3.834e+05,12259,15904,1,15904,1,0.0016111,8.3419e-05,0,0.0016111,3.5561e-05,1.2934e+08,1.5592e+07,0,1.2934e+08,25311,15903,12262,1,12262,1,0.00071309,-1.7096e-10,0,0.00071309,-0.00013115,9.551e+07,-19.682,0,9.551e+07,-3.0457,12261,8553,1,8553,1,-0.00018364,-4.5665e-05,0,2.2466e-06,-0.00029878,-7.4605e+07,-8.4442e+06,0,1.0365e+05,-1.461e+07,8552,10465,1,10465,1,0.00026475,-6.9266e-10,0,0.00026475,-0.00021472,5.4232e+07,-101.62,0,6.6848e+07,-11.864,10464,14059,1,14059,1,0.0011615,1.6644e-09,0,0.0011615,-4.786e-05,1.1087e+08,229.76,0,1.1087e+08,157.96,14058,2091.4,0,2091.4,0,0.00053302,1.2728e-05,0,0.00050256,9.8658e-05,5.1311e+07,1.9283e+06,0,3.4868e+07,1.4244e+06,2091.4,1
5396,4.41,12260,1,12260,1,0.00072723,2.1937e-06,0,0.00074881,-0.0001349,7.5884e+07,3.1242e+05,0,8.4767e+07,-3.8427e+05,12259,15904,1,15904,1,0.0016147,8.3608e-05,0,0.0016147,3.5641e-05,1.2963e+08,1.5627e+07,0,1.2963e+08,25363,15903,12262,1,12262,1,0.00071471,-9.2902e-11,0,0.00071471,-0.00013145,9.5727e+07,-10.193,0,9.5727e+07,-2.1464,12261,8553,1,8553,1,-0.00018405,-4.5769e-05,0,2.2516e-06,-0.00029946,-7.4774e+07,-8.4634e+06,0,1.039e+05,-1.4644e+07,8552,10465,1,10465,1,0.00026535,-5.6993e-10,0,0.00026535,-0.00021521,5.4356e+07,-83.607,0,6.7e+07,-10.032,10464,14059,1,14059,1,0.0011641,1.7044e-09,0,0.0011641,-4.7969e-05,1.1112e+08,229.97,0,1.1112e+08,158.54,14058,2091.4,0,2091.4,0,0.00053423,1.2757e-05,0,0.0005037,9.8882e-05,5.1428e+07,1.9326e+06,0,3.4947e+07,1.4276e+06,2091.4,1
5396,4.42,12260,1,12260,1,0.00072888,2.1988e-06,0,0.00075051,-0.0001352,7.6057e+07,3.1314e+05,0,8.496e+07,-3.8514e+05,12259,15904,1,15904,1,0.0016184,8.3798e-05,0,0.0016184,3.5722e-05,1.2993e+08,1.5662e+07,0,1.2993e+08,25431,15903,12262,1,12262,1,0.00071633,1.2353e-11,0,0.00071633,-0.00013174,9.5944e+07,0.93576,0,9.5944e+07,-3.5894,12261,8553,1,8553,1,-0.00018447,-4.5873e-05,0,2.2567e-06,-0.00030014,-7.4944e+07,-8.4827e+06,0,1.0407e+05,-1.4677e+07,8552,10465,1,10465,1,0.00026595,-6.5025e-10,0,0.00026595,-0.0002157,5.4479e+07,-92.41,0,6.7152e+07,-16.155,10464,14059,1,14059,1,0.0011667,1.7767e-09,0,0.0011667,-4.8078e-05,1.1137e+08,240.04,0,1.1137e+08,161.27,14058,2091.4,0,2091.4,0,0.00053544,1.2786e-05,0,0.00050484,9.9107e-05,5.1544e+07,1.937e+06,0,3.5027e+07,1.4308e+06,2091.4,1
5396,4.43,12260,1,12260,1,0.00073053,2.2036e-06,0,0.00075221,-0.00013551,7.6229e+07,3.1383e+05,0,8.5152e+07,-3.8601e+05,12259,15904,1,15904,1,0.0016221,8.3989e-05,0,0.0016221,3.5803e-05,1.3022e+08,1.5698e+07,0,1.3022e+08,25478,15903,12262,1,12262,1,0.00071795,-2.7465e-10,0,0.00071795,-0.00013204,9.6162e+07,-35.386,0,9.6162e+07,-3.4203,12261,8553,1,8553,1,-0.00018489,-4.5977e-05,0,2.2615e-06,-0.00030082,-7.5114e+07,-8.5019e+06,0,1.042e+05,-1.471e+07,8552,10465,1,10465,1,0.00026655,-9.0203e-10,0,0.00026655,-0.00021618,5.4602e+07,-130.88,0,6.7304e+07,-15.121,10464,14059,1,14059,1,0.0011694,1.5762e-09,0,0.0011694,-4.8187e-05,1.1162e+08,205.63,0,1.1162e+08,154.25,14058,2091.4,0,2091.4,0,0.00053665,1.2816e-05,0,0.00050598,9.9331e-05,5.1661e+07,1.9415e+06,0,3.5106e+07,1.4341e+06,2091.4,1
5396,4.44,12260,1,12260,1,0.00073218,2.2087e-06,0,0.0007539,-0.00013581,7.6401e+07,3.1454e+05,0,8.5344e+07,-3.8689e+05,12259,15904,1,15904,1,0.0016257,8.4178e-05,0,0.0016257,3.5884e-05,1.3052e+08,1.5734e+07,0,1.3052e+08,25545,15903,12262,1,12262,1,0.00071958,-7.8067e-11,0,0.00071958,-0.00013234,9.6379e+07,-8.1887,0,9.6379e+07,-4.5794,12261,8553,1,8553,1,-0.0001853,-4.6081e-05,0,2.2668e-06,-0.0003015,-7.5283e+07,-8.5211e+06,0,1.045e+05,-1.4743e+07,8552,10465,1,10465,1,0.00026716,-8.3608e-10,0,0.00026716,-0.00021667,5.4726e+07,-119.4,0,6.7456e+07,-17.199,10464,14059,1,14059,1,0.001172,1.648e-09,0,0.001172,-4.8296e-05,1.1187e+08,225.25,0,1.1187e+08,159.27,14058,2091.4,0,2091.4,0,0.00053786,1.2844e-05,0,0.00050713,9.9555e-05,5.1777e+07,1.9458e+06,0,3.5185e+07,1.4373e+06,2091.4,1
5396,4.45,12260,1,12260,1,0.00073383,2.2137e-06,0,0.0007556,-0.00013612,7.6573e+07,3.1527e+05,0,8.5536e+07,-3.8776e+05,12259,15904,1,15904,1,0.0016294,8.4366e-05,0,0.0016294,3.5964e-05,1.3081e+08,1.5769e+07,0,1.3081e+08,25592,15903,12262,1,12262,1,0.0007212,5.7856e-12,0,0.0007212,-0.00013264,9.6596e+07,0.59136,0,9.6596e+07,-5.419,12261,8553,1,8553,1,-0.00018572,-4.6185e-05,0,2.2716e-06,-0.00030218,-7.5452e+07,-8.5403e+06,0,1.0465e+05,-1.4776e+07,8552,10465,1,10465,1,0.00026776,-7.3131e-10,0,0.00026776,-0.00021716,5.4849e+07,-102.64,0,6.7608e+07,-20.895,10464,14059,1,14059,1,0.0011747,1.7902e-09,0,0.0011747,-4.8405e-05,1.1213e+08,247.48,0,1.1213e+08,154.24,14058,2091.4,0,2091.4,0,0.00053907,1.2873e-05,0,0.00050827,9.9779e-05,5.1894e+07,1.9502e+06,0,3.5264e+07,1.4406e+06,2091.4,1
5396,4.46,12260,1,12260,1,0.00073548,2.2186e-06,0,0.0007573,-0.00013643,7.6745e+07,3.1595e+05,0,8.5728e+07,-3.8863e+05,12259,15904,1,15904,1,0.0016331,8.4556e-05,0,0.0016331,3.6045e-05,1.311e+08,1.5804e+07,0,1.311e+08,25660,15903,12262,1,12262,1,0.00072282,-1.2299e-10,0,0.00072282,-0.00013294,9.6813e+07,-12.244,0,9.6813e+07,-4.2469,12261,8553,1,8553,1,-0.00018614,-4.6288e-05,0,2.2769e-06,-0.00030286,-7.5622e+07,-8.5594e+06,0,1.0491e+05,-1.4809e+07,8552,10465,1,10465,1,0.00026836,-8.842e-10,0,0.00026836,-0.00021765,5.4972e+07,-127.89,0,6.776e+07,-17.069,10464,14059,1,14059,1,0.0011773,1.6197e-09,0,0.0011773,-4.8513e-05,1.1238e+08,223.19,0,1.1238e+08,157.34,14058,2091.4,0,2091.4,0,0.00054028,1.2902e-05,0,0.00050941,0.0001,5.2011e+07,1.9546e+06,0,3.5344e+07,1.4438e+06,2091.4,1
5396,4.47,12260,1,12260,1,0.00073713,2.2236e-06,0,0.000759,-0.00013673,7.6917e+07,3.1666e+05,0,8.592e+07,-3.895e+05,12259,15904,1,15904,1,0.0016367,8.4747e-05,0,0.0016367,3.6126e-05,1.314e+08,1.584e+07,0,1.314e+08,25717,15903,12262,1,12262,1,0.00072444,-1.3074e-10,0,0.00072444,-0.00013324,9.703e+07,-13.168,0,9.703e+07,-3.8714,12261,8553,1,8553,1,-0.00018656,-4.6391e-05,0,2.2821e-06,-0.00030354,-7.5791e+07,-8.5786e+06,0,1.0516e+05,-1.4843e+07,8552,10465,1,10465,1,0.00026896,-9.2271e-10,0,0.00026896,-0.00021814,5.5095e+07,-135.25,0,6.7912e+07,-17.503,10464,14059,1,14059,1,0.0011799,1.6376e-09,0,0.0011799,-4.8622e-05,1.1263e+08,220.64,0,1.1263e+08,163.03,14058,2091.4,0,2091.4,0,0.0005415,1.2931e-05,0,0.00051055,0.00010023,5.2127e+07,1.959e+06,0,3.5423e+07,1.447e+06,2091.4,1
5396,4.48,12260,1,12260,1,0.00073878,2.2287e-06,0,0.0007607,-0.00013704,7.7089e+07,3.1739e+05,0,8.6113e+07,-3.9036e+05,12259,15904,1,15904,1,0.0016404,8.4935e-05,0,0.0016404,3.6207e-05,1.3169e+08,1.5875e+07,0,1.3169e+08,25763,15903,12262,1,12262,1,0.00072606,-1.1869e-11,0,0.00072606,-0.00013353,9.7247e+07,-1.0846,0,9.7247e+07,-4.8025,12261,8553,1,8553,1,-0.00018697,-4.6496e-05,0,2.2866e-06,-0.00030422,-7.5961e+07,-8.598e+06,0,1.0519e+05,-1.4876e+07,8552,10465,1,10465,1,0.00026956,-7.8405e-10,0,0.00026956,-0.00021862,5.5219e+07,-108.15,0,6.8064e+07,-22.873,10464,14059,1,14059,1,0.0011826,1.7711e-09,0,0.0011826,-4.8731e-05,1.1288e+08,246.54,0,1.1288e+08,153.75,14058,2091.4,0,2091.4,0,0.00054271,1.296e-05,0,0.0005117,0.00010045,5.2244e+07,1.9633e+06,0,3.5502e+07,1.4502e+06,2091.4,1
5396,4.49,12260,1,12260,1,0.00074043,2.2337e-06,0,0.0007624,-0.00013734,7.7261e+07,3.1811e+05,0,8.6305e+07,-3.9124e+05,12259,15904,1,15904,1,0.001644,8.5124e-05,0,0.001644,3.6288e-05,1.3199e+08,1.5911e+07,0,1.3199e+08,25810,15903,12262,1,12262,1,0.00072768,1.4548e-11,0,0.00072768,-0.00013383,9.7464e+07,1.1107,0,9.7464e+07,-7.5031,12261,8553,1,8553,1,-0.00018739,-4.66e-05,0,2.292e-06,-0.00030489,-7.613e+07,-8.6172e+06,0,1.0549e+05,-1.4909e+07,8552,10465,1,10465,1,0.00027017,-6.6649e-10,0,0.00027017,-0.00021911,5.5342e+07,-93.084,0,6.8216e+07,-21.643,10464,14059,1,14059,1,0.0011852,1.8675e-09,0,0.0011852,-4.884e-05,1.1313e+08,257.41,0,1.1313e+08,154.74,14058,2091.4,0,2091.4,0,0.00054392,1.2989e-05,0,0.00051284,0.00010068,5.236e+07,1.9677e+06,0,3.5581e+07,1.4535e+06,2091.4,1
5396,4.5,12260,1,12260,1,0.00074208,2.2385e-06,0,0.00076409,-0.00013765,7.7433e+07,3.188e+05,0,8.6497e+07,-3.9211e+05,12259,15904,1,15904,1,0.0016477,8.5314e-05,0,0.0016477,3.6368e-05,1.3228e+08,1.5946e+07,0,1.3228e+08,25881,15903,12262,1,12262,1,0.0007293,-6.6367e-11,0,0.0007293,-0.00013413,9.7681e+07,-6.9785,0,9.7681e+07,-5.5043,12261,8553,1,8553,1,-0.00018781,-4.6703e-05,0,2.2974e-06,-0.00030557,-7.63e+07,-8.6362e+06,0,1.0579e+05,-1.4942e+07,8552,10465,1,10465,1,0.00027077,-7.2124e-10,0,0.00027077,-0.0002196,5.5465e+07,-104.32,0,6.8368e+07,-17.136,10464,14059,1,14059,1,0.0011879,1.7462e-09,0,0.0011879,-4.8948e-05,1.1339e+08,233.35,0,1.1339e+08,160.65,14058,2091.4,0,2091.4,0,0.00054513,1.3018e-05,0,0.00051398,0.0001009,5.2477e+07,1.9721e+06,0,3.566e+07,1.4567e+06,2091.4,1
5396,4.51,12260,1,12260,1,0.00074373,2.2436e-06,0,0.00076579,-0.00013796,7.7605e+07,3.1952e+05,0,8.6689e+07,-3.9298e+05,12259,15904,1,15904,1,0.0016514,8.5502e-05,0,0.0016514,3.6449e-05,1.3257e+08,1.5981e+07,0,1.3257e+08,25952,15903,12262,1,12262,1,0.00073092,8.4251e-11,0,0.00073092,-0.00013443,9.7898e+07,7.9434,0,9.7898e+07,-3.2904,12261,8553,1,8553,1,-0.00018822,-4.6807e-05,0,2.3028e-06,-0.00030625,-7.6469e+07,-8.6554e+06,0,1.061e+05,-1.4975e+07,8552,10465,1,10465,1,0.00027137,-5.6862e-10,0,0.00027137,-0.00022009,5.5588e+07,-81.172,0,6.8519e+07,-16.516,10464,14059,1,14059,1,0.0011905,1.8636e-09,0,0.0011905,-4.9057e-05,1.1364e+08,254.8,0,1.1364e+08,163.94,14058,2091.4,0,2091.4,0,0.00054634,1.3047e-05,0,0.00051512,0.00010112,5.2593e+07,1.9764e+06,0,3.574e+07,1.46e+06,2091.4,1
5396,4.52,12260,1,12260,1,0.00074538,2.2485e-06,0,0.00076749,-0.00013826,7.7777e+07,3.2021e+05,0,8.6881e+07,-3.9385e+05,12259,15904,1,15904,1,0.001655,8.5692e-05,0,0.001655,3.653e-05,1.3287e+08,1.6017e+07,0,1.3287e+08,25988,15903,12262,1,12262,1,0.00073254,-6.3217e-11,0,0.00073254,-0.00013473,9.8115e+07,-6.7215,0,9.8115e+07,-4.1204,12261,8553,1,8553,1,-0.00018864,-4.691e-05,0,2.3074e-06,-0.00030693,-7.6639e+07,-8.6746e+06,0,1.0621e+05,-1.5008e+07,8552,10465,1,10465,1,0.00027197,-6.598e-10,0,0.00027197,-0.00022058,5.5712e+07,-94.255,0,6.8671e+07,-16.632,10464,14059,1,14059,1,0.0011931,1.745e-09,0,0.0011931,-4.9166e-05,1.1389e+08,235.04,0,1.1389e+08,157.65,14058,2091.4,0,2091.4,0,0.00054755,1.3076e-05,0,0.00051626,0.00010135,5.271e+07,1.9808e+06,0,3.5819e+07,1.4632e+06,2091.4,1
5396,4.53,12260,1,12260,1,0.00074703,2.2535e-06,0,0.00076919,-0.00013857,7.7949e+07,3.2093e+05,0,8.7074e+07,-3.9472e+05,12259,15904,1,15904,1,0.0016587,8.5882e-05,0,0.0016587,3.6611e-05,1.3316e+08,1.6052e+07,0,1.3316e+08,26038,15903,12262,1,12262,1,0.00073416,-3.5644e-12,0,0.00073416,-0.00013502,9.8333e+07,-0.28731,0,9.8333e+07,-4.8328,12261,8553,1,8553,1,-0.00018906,-4.7015e-05,0,2.3122e-06,-0.00030761,-7.6808e+07,-8.6939e+06,0,1.0636e+05,-1.5042e+07,8552,10465,1,10465,1,0.00027257,-5.9955e-10,0,0.00027257,-0.00022106,5.5835e+07,-83.414,0,6.8824e+07,-21.324,10464,14059,1,14059,1,0.0011958,1.8301e-09,0,0.0011958,-4.9275e-05,1.1414e+08,253.01,0,1.1414e+08,154.48,14058,2091.4,0,2091.4,0,0.00054876,1.3105e-05,0,0.00051741,0.00010157,5.2826e+07,1.9852e+06,0,3.5898e+07,1.4664e+06,2091.4,1
5396,4.54,12260,1,12260,1,0.00074868,2.2585e-06,0,0.00077089,-0.00013887,7.8121e+07,3.2163e+05,0,8.7266e+07,-3.9559e+05,12259,15904,1,15904,1,0.0016624,8.6073e-05,0,0.0016624,3.6692e-05,1.3346e+08,1.6088e+07,0,1.3346e+08,26106,15903,12262,1,12262,1,0.00073579,-6.7998e-11,0,0.00073579,-0.00013532,9.855e+07,-6.4733,0,9.855e+07,-5.1298,12261,8553,1,8553,1,-0.00018948,-4.7118e-05,0,2.3176e-06,-0.00030829,-7.6978e+07,-8.7131e+06,0,1.0661e+05,-1.5075e+07,8552,10465,1,10465,1,0.00027318,-8.9044e-10,0,0.00027318,-0.00022155,5.5959e+07,-127.16,0,6.8976e+07,-19.894,10464,14059,1,14059,1,0.0011984,1.7323e-09,0,0.0011984,-4.9384e-05,1.1439e+08,234.32,0,1.1439e+08,162.7,14058,2091.4,0,2091.4,0,0.00054998,1.3134e-05,0,0.00051855,0.0001018,5.2943e+07,1.9897e+06,0,3.5977e+07,1.4697e+06,2091.4,1
5396,4.55,12260,1,12260,1,0.00075033,2.2634e-06,0,0.00077259,-0.00013918,7.8293e+07,3.2234e+05,0,8.7458e+07,-3.9646e+05,12259,15904,1,15904,1,0.001666,8.6263e-05,0,0.001666,3.6772e-05,1.3375e+08,1.6123e+07,0,1.3375e+08,26175,15903,12262,1,12262,1,0.00073741,-4.1751e-11,0,0.00073741,-0.00013562,9.8767e+07,-3.9312,0,9.8767e+07,-8.1943,12261,8553,1,8553,1,-0.00018989,-4.7222e-05,0,2.3221e-06,-0.00030897,-7.7147e+07,-8.7323e+06,0,1.0667e+05,-1.5108e+07,8552,10465,1,10465,1,0.00027378,-1.3664e-09,0,0.00027378,-0.00022204,5.6082e+07,-194.08,0,6.9127e+07,-34.597,10464,14059,1,14059,1,0.0012011,1.6441e-09,0,0.0012011,-4.9493e-05,1.1465e+08,229.74,0,1.1465e+08,163.19,14058,2091.4,0,2091.4,0,0.00055119,1.3163e-05,0,0.00051969,0.00010202,5.306e+07,1.994e+06,0,3.6057e+07,1.4729e+06,2091.4,1
5396,4.56,12260,1,12260,1,0.00075197,2.2685e-06,0,0.00077428,-0.00013949,7.8465e+07,3.2306e+05,0,8.765e+07,-3.9733e+05,12259,15904,1,15904,1,0.0016697,8.645e-05,0,0.0016697,3.6853e-05,1.3404e+08,1.6158e+07,0,1.3404e+08,26235,15903,12262,1,12262,1,0.00073903,5.3445e-11,0,0.00073903,-0.00013592,9.8984e+07,5.7168,0,9.8984e+07,-5.0159,12261,8553,1,8553,1,-0.00019031,-4.7325e-05,0,2.3279e-06,-0.00030965,-7.7316e+07,-8.7514e+06,0,1.0707e+05,-1.5141e+07,8552,10465,1,10465,1,0.00027438,-7.1455e-10,0,0.00027438,-0.00022253,5.6205e+07,-100.11,0,6.9279e+07,-20.746,10464,14059,1,14059,1,0.0012037,1.9361e-09,0,0.0012037,-4.9601e-05,1.149e+08,264.68,0,1.149e+08,163.82,14058,2091.4,0,2091.4,0,0.0005524,1.3191e-05,0,0.00052083,0.00010225,5.3176e+07,1.9984e+06,0,3.6136e+07,1.4761e+06,2091.4,1
5396,4.57,12260,1,12260,1,0.00075362,2.2734e-06,0,0.00077598,-0.00013979,7.8637e+07,3.2376e+05,0,8.7842e+07,-3.9821e+05,12259,15904,1,15904,1,0.0016733,8.664e-05,0,0.0016733,3.6934e-05,1.3434e+08,1.6194e+07,0,1.3434e+08,26275,15903,12262,1,12262,1,0.00074065,-1.2476e-10,0,0.00074065,-0.00013622,9.9201e+07,-13.816,0,9.9201e+07,-4.8959,12261,8553,1,8553,1,-0.00019073,-4.7429e-05,0,2.3327e-06,-0.00031033,-7.7486e+07,-8.7705e+06,0,1.0725e+05,-1.5174e+07,8552,10465,1,10465,1,0.00027498,-7.9011e-10,0,0.00027498,-0.00022302,5.6328e+07,-111,0,6.9431e+07,-20.655,10464,14059,1,14059,1,0.0012063,1.8114e-09,0,0.0012063,-4.971e-05,1.1515e+08,251.9,0,1.1515e+08,158.97,14058,2091.4,0,2091.4,0,0.00055361,1.322e-05,0,0.00052198,0.00010247,5.3293e+07,2.0028e+06,0,3.6215e+07,1.4794e+06,2091.4,1
5396,4.58,12260,1,12260,1,0.00075527,2.2783e-06,0,0.00077768,-0.0001401,7.8809e+07,3.2446e+05,0,8.8034e+07,-3.9908e+05,12259,15904,1,15904,1,0.001677,8.6829e-05,0,0.001677,3.7015e-05,1.3463e+08,1.6229e+07,0,1.3463e+08,26339,15903,12262,1,12262,1,0.00074227,-4.2969e-11,0,0.00074227,-0.00013651,9.9418e+07,-3.9709,0,9.9418e+07,-4.6303,12261,8553,1,8553,1,-0.00019114,-4.7532e-05,0,2.3381e-06,-0.00031101,-7.7656e+07,-8.7897e+06,0,1.0754e+05,-1.5208e+07,8552,10465,1,10465,1,0.00027558,-8.5282e-10,0,0.00027558,-0.0002235,5.6452e+07,-121.87,0,6.9583e+07,-18.367,10464,14059,1,14059,1,0.001209,1.7601e-09,0,0.001209,-4.9819e-05,1.154e+08,238.26,0,1.154e+08,162.13,14058,2091.4,0,2091.4,0,0.00055482,1.3249e-05,0,0.00052312,0.00010269,5.3409e+07,2.0071e+06,0,3.6294e+07,1.4826e+06,2091.4,1
5396,4.59,12260,1,12260,1,0.00075692,2.2834e-06,0,0.00077938,-0.0001404,7.8981e+07,3.2518e+05,0,8.8226e+07,-3.9995e+05,12259,15904,1,15904,1,0.0016807,8.7018e-05,0,0.0016807,3.7095e-05,1.3493e+08,1.6265e+07,0,1.3493e+08,26405,15903,12262,1,12262,1,0.00074389,6.2442e-11,0,0.00074389,-0.00013681,9.9635e+07,6.0059,0,9.9635e+07,-3.9572,12261,8553,1,8553,1,-0.00019156,-4.7636e-05,0,2.3433e-06,-0.00031168,-7.7825e+07,-8.8089e+06,0,1.078e+05,-1.5241e+07,8552,10465,1,10465,1,0.00027619,-6.5401e-10,0,0.00027619,-0.00022399,5.6575e+07,-91.477,0,6.9735e+07,-16.88,10464,14059,1,14059,1,0.0012116,1.8548e-09,0,0.0012116,-4.9928e-05,1.1565e+08,248.2,0,1.1565e+08,162.9,14058,2091.4,0,2091.4,0,0.00055603,1.3278e-05,0,0.00052426,0.00010292,5.3526e+07,2.0115e+06,0,3.6373e+07,1.4859e+06,2091.4,1
5396,4.6,12260,1,12260,1,0.00075857,2.2882e-06,0,0.00078108,-0.00014071,7.9153e+07,3.2587e+05,0,8.8419e+07,-4.0082e+05,12259,15904,1,15904,1,0.0016843,8.7208e-05,0,0.0016843,3.7176e-05,1.3522e+08,1.63e+07,0,1.3522e+08,26465,15903,12262,1,12262,1,0.00074551,-1.499e-10,0,0.00074551,-0.00013711,9.9852e+07,-16.517,0,9.9852e+07,-3.9904,12261,8553,1,8553,1,-0.00019198,-4.7739e-05,0,2.3485e-06,-0.00031237,-7.7994e+07,-8.828e+06,0,1.0807e+05,-1.5274e+07,8552,10465,1,10465,1,0.00027679,-7.8835e-10,0,0.00027679,-0.00022448,5.6698e+07,-114.39,0,6.9887e+07,-14.469,10464,14059,1,14059,1,0.0012143,1.7018e-09,0,0.0012143,-5.0037e-05,1.1591e+08,227.02,0,1.1591e+08,165.44,14058,2091.4,0,2091.4,0,0.00055724,1.3307e-05,0,0.0005254,0.00010314,5.3642e+07,2.0159e+06,0,3.6453e+07,1.4891e+06,2091.4,1
5396,4.61,12260,1,12260,1,0.00076022,2.2933e-06,0,0.00078277,-0.00014102,7.9325e+07,3.2659e+05,0,8.8611e+07,-4.0169e+05,12259,15904,1,15904,1,0.001688,8.7396e-05,0,0.001688,3.7257e-05,1.3551e+08,1.6336e+07,0,1.3551e+08,26516,15903,12262,1,12262,1,0.00074713,-1.7362e-11,0,0.00074713,-0.00013741,1.0007e+08,-1.6035,0,1.0007e+08,-3.115,12261,8553,1,8553,1,-0.0001924,-4.7843e-05,0,2.3536e-06,-0.00031304,-7.8164e+07,-8.8472e+06,0,1.0825e+05,-1.5307e+07,8552,10465,1,10465,1,0.00027739,-6.5912e-10,0,0.00027739,-0.00022497,5.6821e+07,-94.702,0,7.0039e+07,-14.331,10464,14059,1,14059,1,0.0012169,1.8461e-09,0,0.0012169,-5.0145e-05,1.1616e+08,246.26,0,1.1616e+08,166.62,14058,2091.4,0,2091.4,0,0.00055846,1.3336e-05,0,0.00052654,0.00010337,5.3759e+07,2.0203e+06,0,3.6532e+07,1.4923e+06,2091.4,1
5396,4.62,12260,1,12260,1,0.00076187,2.2983e-06,0,0.00078448,-0.00014132,7.9498e+07,3.2731e+05,0,8.8803e+07,-4.0257e+05,12259,15904,1,15904,1,0.0016916,8.7588e-05,0,0.0016916,3.7338e-05,1.3581e+08,1.6371e+07,0,1.3581e+08,26570,15903,12262,1,12262,1,0.00074876,1.7937e-10,0,0.00074876,-0.00013771,1.0029e+08,19.683,0,1.0029e+08,-6.3128,12261,8553,1,8553,1,-0.00019281,-4.7949e-05,0,2.3577e-06,-0.00031372,-7.8333e+07,-8.8667e+06,0,1.082e+05,-1.5341e+07,8552,10465,1,10465,1,0.00027799,-1.0129e-09,0,0.00027799,-0.00022546,5.6945e+07,-138.9,0,7.0192e+07,-32.938,10464,14059,1,14059,1,0.0012195,1.6865e-09,0,0.0012195,-5.0255e-05,1.1641e+08,233.72,0,1.1641e+08,158.86,14058,2091.4,0,2091.4,0,0.00055967,1.3365e-05,0,0.00052769,0.00010359,5.3876e+07,2.0247e+06,0,3.6611e+07,1.4956e+06,2091.4,1
5396,4.63,12260,1,12260,1,0.00076352,2.3033e-06,0,0.00078617,-0.00014163,7.9669e+07,3.2802e+05,0,8.8995e+07,-4.0343e+05,12259,15904,1,15904,1,0.0016953,8.7775e-05,0,0.0016953,3.7418e-05,1.361e+08,1.6406e+07,0,1.361e+08,26642,15903,12262,1,12262,1,0.00075037,7.7793e-11,0,0.00075037,-0.00013801,1.005e+08,8.0408,0,1.005e+08,-4.3925,12261,8553,1,8553,1,-0.00019323,-4.8051e-05,0,2.3639e-06,-0.0003144,-7.8503e+07,-8.8856e+06,0,1.087e+05,-1.5374e+07,8552,10465,1,10465,1,0.00027859,-6.8733e-10,0,0.00027859,-0.00022594,5.7068e+07,-95.894,0,7.0343e+07,-18.477,10464,14059,1,14059,1,0.0012222,1.9252e-09,0,0.0012222,-5.0363e-05,1.1666e+08,267.85,0,1.1666e+08,165.2,14058,2091.4,0,2091.4,0,0.00056088,1.3394e-05,0,0.00052883,0.00010382,5.3992e+07,2.029e+06,0,3.669e+07,1.4988e+06,2091.4,1
5396,4.64,12260,1,12260,1,0.00076517,2.3082e-06,0,0.00078787,-0.00014193,7.9842e+07,3.2871e+05,0,8.9187e+07,-4.0431e+05,12259,15904,1,15904,1,0.001699,8.7966e-05,0,0.001699,3.7499e-05,1.364e+08,1.6442e+07,0,1.364e+08,26686,15903,12262,1,12262,1,0.00075199,-9.5597e-12,0,0.00075199,-0.0001383,1.0072e+08,-0.80003,0,1.0072e+08,-3.8487,12261,8553,1,8553,1,-0.00019365,-4.8154e-05,0,2.3687e-06,-0.00031508,-7.8672e+07,-8.9048e+06,0,1.0888e+05,-1.5407e+07,8552,10465,1,10465,1,0.00027919,-7.3548e-10,0,0.00027919,-0.00022643,5.7191e+07,-105.19,0,7.0495e+07,-16.348,10464,14059,1,14059,1,0.0012248,1.7796e-09,0,0.0012248,-5.0472e-05,1.1691e+08,240.91,0,1.1691e+08,167.49,14058,2091.4,0,2091.4,0,0.00056209,1.3423e-05,0,0.00052997,0.00010404,5.4109e+07,2.0334e+06,0,3.677e+07,1.502e+06,2091.4,1
5396,4.65,12260,1,12260,1,0.00076682,2.3132e-06,0,0.00078957,-0.00014224,8.0014e+07,3.2942e+05,0,8.938e+07,-4.0518e+05,12259,15904,1,15904,1,0.0017026,8.8155e-05,0,0.0017026,3.758e-05,1.3669e+08,1.6478e+07,0,1.3669e+08,26736,15903,12262,1,12262,1,0.00075362,-3.1545e-11,0,0.00075362,-0.0001386,1.0094e+08,-2.9579,0,1.0094e+08,-5.0736,12261,8553,1,8553,1,-0.00019406,-4.8259e-05,0,2.3732e-06,-0.00031576,-7.8842e+07,-8.9242e+06,0,1.0896e+05,-1.544e+07,8552,10465,1,10465,1,0.0002798,-8.9104e-10,0,0.0002798,-0.00022692,5.7315e+07,-124.67,0,7.0647e+07,-22.549,10464,14059,1,14059,1,0.0012275,1.7358e-09,0,0.0012275,-5.0581e-05,1.1717e+08,246.59,0,1.1717e+08,159.52,14058,2091.4,0,2091.4,0,0.0005633,1.3452e-05,0,0.00053112,0.00010426,5.4225e+07,2.0378e+06,0,3.6849e+07,1.5053e+06,2091.4,1
5396,4.66,12260,1,12260,1,0.00076847,2.3182e-06,0,0.00079127,-0.00014255,8.0186e+07,3.3013e+05,0,8.9572e+07,-4.0606e+05,12259,15904,1,15904,1,0.0017063,8.8347e-05,0,0.0017063,3.7661e-05,1.3698e+08,1.6513e+07,0,1.3698e+08,26809,15903,12262,1,12262,1,0.00075524,1.7536e-10,0,0.00075524,-0.0001389,1.0116e+08,16.29,0,1.0116e+08,-8.2158,12261,8553,1,8553,1,-0.00019448,-4.8364e-05,0,2.3781e-06,-0.00031644,-7.9011e+07,-8.9435e+06,0,1.0905e+05,-1.5473e+07,8552,10465,1,10465,1,0.0002804,-1.4426e-09,0,0.0002804,-0.00022741,5.7438e+07,-193.79,0,7.0799e+07,-40.719,10464,14059,1,14059,1,0.0012301,1.5035e-09,0,0.0012301,-5.069e-05,1.1742e+08,224.25,0,1.1742e+08,158.43,14058,2091.4,0,2091.4,0,0.00056452,1.3481e-05,0,0.00053226,0.00010449,5.4342e+07,2.0422e+06,0,3.6928e+07,1.5085e+06,2091.4,1
5396,4.67,12260,1,12260,1,0.00077012,2.3232e-06,0,0.00079296,-0.00014285,8.0358e+07,3.3084e+05,0,8.9764e+07,-4.0692e+05,12259,15904,1,15904,1,0.00171,8.8533e-05,0,0.00171,3.7741e-05,1.3728e+08,1.6548e+07,0,1.3728e+08,26858,15903,12262,1,12262,1,0.00075686,1.2046e-11,0,0.00075686,-0.0001392,1.0137e+08,0.89462,0,1.0137e+08,-5.0607,12261,8553,1,8553,1,-0.0001949,-4.8466e-05,0,2.384e-06,-0.00031712,-7.9181e+07,-8.9624e+06,0,1.0952e+05,-1.5506e+07,8552,10465,1,10465,1,0.000281,-7.448e-10,0,0.000281,-0.0002279,5.7561e+07,-105.2,0,7.0951e+07,-20.051,10464,14059,1,14059,1,0.0012327,1.849e-09,0,0.0012327,-5.0799e-05,1.1767e+08,253.28,0,1.1767e+08,164.15,14058,2091.4,0,2091.4,0,0.00056572,1.351e-05,0,0.0005334,0.00010471,5.4458e+07,2.0466e+06,0,3.7007e+07,1.5117e+06,2091.4,1
5396,4.68,12260,1,12260,1,0.00077176,2.3282e-06,0,0.00079466,-0.00014316,8.053e+07,3.3156e+05,0,8.9956e+07,-4.0779e+05,12259,15904,1,15904,1,0.0017136,8.8722e-05,0,0.0017136,3.7822e-05,1.3757e+08,1.6584e+07,0,1.3757e+08,26913,15903,12262,1,12262,1,0.00075848,8.7166e-11,0,0.00075848,-0.0001395,1.0159e+08,8.9196,0,1.0159e+08,-3.2491,12261,8553,1,8553,1,-0.00019531,-4.8569e-05,0,2.3892e-06,-0.0003178,-7.935e+07,-8.9816e+06,0,1.098e+05,-1.554e+07,8552,10465,1,10465,1,0.0002816,-5.0847e-10,0,0.0002816,-0.00022838,5.7684e+07,-72.256,0,7.1103e+07,-15.638,10464,14059,1,14059,1,0.0012354,1.9657e-09,0,0.0012354,-5.0907e-05,1.1792e+08,267.15,0,1.1792e+08,167.14,14058,2091.4,0,2091.4,0,0.00056694,1.3539e-05,0,0.00053454,0.00010494,5.4575e+07,2.0509e+06,0,3.7086e+07,1.515e+06,2091.4,1
5396,4.69,12260,1,12260,1,0.00077342,2.333e-06,0,0.00079636,-0.00014346,8.0702e+07,3.3225e+05,0,9.0148e+07,-4.0866e+05,12259,15904,1,15904,1,0.0017173,8.8913e-05,0,0.0017173,3.7903e-05,1.3787e+08,1.6619e+07,0,1.3787e+08,26967,15903,12262,1,12262,1,0.0007601,-9.2948e-11,0,0.0007601,-0.00013979,1.0181e+08,-9.4975,0,1.0181e+08,-5.5335,12261,8553,1,8553,1,-0.00019573,-4.8673e-05,0,2.394e-06,-0.00031848,-7.952e+07,-9.0008e+06,0,1.0993e+05,-1.5573e+07,8552,10465,1,10465,1,0.00028221,-9.161e-10,0,0.00028221,-0.00022887,5.7808e+07,-128.9,0,7.1255e+07,-21.448,10464,14059,1,14059,1,0.001238,1.7328e-09,0,0.001238,-5.1016e-05,1.1817e+08,240.24,0,1.1817e+08,163.61,14058,2091.4,0,2091.4,0,0.00056815,1.3568e-05,0,0.00053568,0.00010516,5.4691e+07,2.0553e+06,0,3.7166e+07,1.5182e+06,2091.4,1
5396,4.7,12260,1,12260,1,0.00077506,2.338e-06,0,0.00079806,-0.00014377,8.0874e+07,3.3296e+05,0,9.034e+07,-4.0953e+05,12259,15904,1,15904,1,0.0017209,8.9102e-05,0,0.0017209,3.7984e-05,1.3816e+08,1.6655e+07,0,1.3816e+08,27020,15903,12262,1,12262,1,0.00076172,-1.391e-10,0,0.00076172,-0.00014009,1.0202e+08,-15.927,0,1.0202e+08,-4.1301,12261,8553,1,8553,1,-0.00019615,-4.8777e-05,0,2.3988e-06,-0.00031916,-7.9689e+07,-9.02e+06,0,1.101e+05,-1.5606e+07,8552,10465,1,10465,1,0.00028281,-7.3551e-10,0,0.00028281,-0.00022936,5.7931e+07,-102.64,0,7.1407e+07,-23.669,10464,14059,1,14059,1,0.0012407,1.8603e-09,0,0.0012407,-5.1125e-05,1.1843e+08,259.11,0,1.1843e+08,159.93,14058,2091.4,0,2091.4,0,0.00056936,1.3597e-05,0,0.00053683,0.00010539,5.4808e+07,2.0597e+06,0,3.7245e+07,1.5214e+06,2091.4,1
5396,4.71,12260,1,12260,1,0.00077671,2.3432e-06,0,0.00079976,-0.00014407,8.1046e+07,3.3369e+05,0,9.0532e+07,-4.104e+05,12259,15904,1,15904,1,0.0017246,8.929e-05,0,0.0017246,3.8065e-05,1.3845e+08,1.669e+07,0,1.3845e+08,27084,15903,12262,1,12262,1,0.00076334,1.4393e-10,0,0.00076334,-0.00014039,1.0224e+08,15.992,0,1.0224e+08,-4.7782,12261,8553,1,8553,1,-0.00019657,-4.8881e-05,0,2.4045e-06,-0.00031983,-7.9858e+07,-9.0392e+06,0,1.1043e+05,-1.5639e+07,8552,10465,1,10465,1,0.00028341,-5.2528e-10,0,0.00028341,-0.00022985,5.8054e+07,-73.517,0,7.1559e+07,-19.956,10464,14059,1,14059,1,0.0012433,2.0071e-09,0,0.0012433,-5.1234e-05,1.1868e+08,273.54,0,1.1868e+08,164.33,14058,2091.4,0,2091.4,0,0.00057057,1.3625e-05,0,0.00053797,0.00010561,5.4924e+07,2.0641e+06,0,3.7324e+07,1.5247e+06,2091.4,1
5396,4.72,12260,1,12260,1,0.00077836,2.348e-06,0,0.00080145,-0.00014438,8.1218e+07,3.3437e+05,0,9.0725e+07,-4.1128e+05,12259,15904,1,15904,1,0.0017283,8.9481e-05,0,0.0017283,3.8145e-05,1.3875e+08,1.6726e+07,0,1.3875e+08,27151,15903,12262,1,12262,1,0.00076496,-7.5537e-11,0,0.00076496,-0.00014069,1.0246e+08,-8.1255,0,1.0246e+08,-4.6309,12261,8553,1,8553,1,-0.00019698,-4.8984e-05,0,2.4095e-06,-0.00032051,-8.0028e+07,-9.0583e+06,0,1.1065e+05,-1.5673e+07,8552,10465,1,10465,1,0.00028401,-8.4468e-10,0,0.00028401,-0.00023034,5.8177e+07,-120.15,0,7.1711e+07,-17.555,10464,14059,1,14059,1,0.0012459,1.7542e-09,0,0.0012459,-5.1343e-05,1.1893e+08,240.08,0,1.1893e+08,166.49,14058,2091.4,0,2091.4,0,0.00057178,1.3655e-05,0,0.00053911,0.00010583,5.5041e+07,2.0685e+06,0,3.7403e+07,1.5279e+06,2091.4,1
5396,4.73,12260,1,12260,1,0.00078001,2.353e-06,0,0.00080315,-0.00014469,8.139e+07,3.3509e+05,0,9.0917e+07,-4.1215e+05,12259,15904,1,15904,1,0.0017319,8.967e-05,0,0.0017319,3.8226e-05,1.3904e+08,1.6761e+07,0,1.3904e+08,27212,15903,12262,1,12262,1,0.00076658,2.1741e-12,0,0.00076658,-0.00014099,1.0267e+08,0.14689,0,1.0267e+08,-4.4339,12261,8553,1,8553,1,-0.0001974,-4.9088e-05,0,2.4147e-06,-0.00032119,-8.0197e+07,-9.0775e+06,0,1.109e+05,-1.5706e+07,8552,10465,1,10465,1,0.00028461,-7.2536e-10,0,0.00028461,-0.00023082,5.8301e+07,-103.4,0,7.1863e+07,-18.426,10464,14059,1,14059,1,0.0012486,1.9419e-09,0,0.0012486,-5.1451e-05,1.1918e+08,259.02,0,1.1918e+08,170.09,14058,2091.4,0,2091.4,0,0.00057299,1.3683e-05,0,0.00054025,0.00010606,5.5158e+07,2.0728e+06,0,3.7483e+07,1.5312e+06,2091.4,1
5396,4.74,12260,1,12260,1,0.00078166,2.3579e-06,0,0.00080485,-0.00014499,8.1562e+07,3.3579e+05,0,9.1109e+07,-4.1302e+05,12259,15904,1,15904,1,0.0017356,8.9861e-05,0,0.0017356,3.8307e-05,1.3934e+08,1.6797e+07,0,1.3934e+08,27253,15903,12262,1,12262,1,0.00076821,-2.1882e-11,0,0.00076821,-0.00014128,1.0289e+08,-1.8961,0,1.0289e+08,-4.3571,12261,8553,1,8553,1,-0.00019782,-4.9192e-05,0,2.4193e-06,-0.00032187,-8.0367e+07,-9.0968e+06,0,1.1101e+05,-1.5739e+07,8552,10465,1,10465,1,0.00028522,-9.0841e-10,0,0.00028522,-0.00023131,5.8424e+07,-128.26,0,7.2015e+07,-23.215,10464,14059,1,14059,1,0.0012512,1.6021e-09,0,0.0012512,-5.156e-05,1.1943e+08,225.54,0,1.1943e+08,163.38,14058,2091.4,0,2091.4,0,0.00057421,1.3713e-05,0,0.0005414,0.00010628,5.5274e+07,2.0773e+06,0,3.7562e+07,1.5344e+06,2091.4,1
5396,4.75,12260,1,12260,1,0.00078331,2.363e-06,0,0.00080655,-0.0001453,8.1734e+07,3.3651e+05,0,9.1301e+07,-4.1389e+05,12259,15904,1,15904,1,0.0017392,9.005e-05,0,0.0017392,3.8388e-05,1.3963e+08,1.6832e+07,0,1.3963e+08,27313,15903,12262,1,12262,1,0.00076983,-1.2449e-11,0,0.00076983,-0.00014158,1.0311e+08,-1.0824,0,1.0311e+08,-5.2598,12261,8553,1,8553,1,-0.00019824,-4.9296e-05,0,2.4243e-06,-0.00032255,-8.0536e+07,-9.116e+06,0,1.1119e+05,-1.5772e+07,8552,10465,1,10465,1,0.00028582,-7.4321e-10,0,0.00028582,-0.0002318,5.8548e+07,-102.38,0,7.2167e+07,-18.171,10464,14059,1,14059,1,0.0012539,1.9198e-09,0,0.0012539,-5.1669e-05,1.1969e+08,262.38,0,1.1969e+08,164.73,14058,2091.4,0,2091.4,0,0.00057542,1.3741e-05,0,0.00054254,0.00010651,5.5391e+07,2.0816e+06,0,3.7641e+07,1.5376e+06,2091.4,1
5396,4.76,12260,1,12260,1,0.00078496,2.3678e-06,0,0.00080825,-0.0001456,8.1906e+07,3.372e+05,0,9.1493e+07,-4.1476e+05,12259,15904,1,15904,1,0.0017429,9.0238e-05,0,0.0017429,3.8468e-05,1.3992e+08,1.6867e+07,0,1.3992e+08,27376,15903,12262,1,12262,1,0.00077144,-7.5789e-11,0,0.00077144,-0.00014188,1.0333e+08,-8.4813,0,1.0333e+08,-3.4611,12261,8553,1,8553,1,-0.00019865,-4.9398e-05,0,2.4299e-06,-0.00032323,-8.0706e+07,-9.135e+06,0,1.1155e+05,-1.5805e+07,8552,10465,1,10465,1,0.00028642,-8.459e-10,0,0.00028642,-0.00023229,5.8671e+07,-120.39,0,7.2319e+07,-16.219,10464,14059,1,14059,1,0.0012565,1.7078e-09,0,0.0012565,-5.1778e-05,1.1994e+08,228.67,0,1.1994e+08,169.24,14058,2091.4,0,2091.4,0,0.00057663,1.377e-05,0,0.00054368,0.00010673,5.5507e+07,2.086e+06,0,3.772e+07,1.5409e+06,2091.4,1
5396,4.77,12260,1,12260,1,0.00078661,2.3729e-06,0,0.00080994,-0.00014591,8.2078e+07,3.3792e+05,0,9.1685e+07,-4.1563e+05,12259,15904,1,15904,1,0.0017466,9.0427e-05,0,0.0017466,3.8549e-05,1.4022e+08,1.6902e+07,0,1.4022e+08,27434,15903,12262,1,12262,1,0.00077307,-3.5167e-11,0,0.00077307,-0.00014218,1.0354e+08,-3.6704,0,1.0354e+08,-3.9325,12261,8553,1,8553,1,-0.00019907,-4.9502e-05,0,2.4353e-06,-0.00032391,-8.0875e+07,-9.1542e+06,0,1.1182e+05,-1.5838e+07,8552,10465,1,10465,1,0.00028702,-6.7712e-10,0,0.00028702,-0.00023278,5.8794e+07,-97.506,0,7.2471e+07,-14.795,10464,14059,1,14059,1,0.0012591,1.8671e-09,0,0.0012591,-5.1887e-05,1.2019e+08,249.31,0,1.2019e+08,171.57,14058,2091.4,0,2091.4,0,0.00057784,1.3799e-05,0,0.00054482,0.00010695,5.5624e+07,2.0904e+06,0,3.7799e+07,1.5441e+06,2091.4,1
5396,4.78,12260,1,12260,1,0.00078826,2.3779e-06,0,0.00081165,-0.00014622,8.225e+07,3.3864e+05,0,9.1878e+07,-4.1651e+05,12259,15904,1,15904,1,0.0017502,9.0619e-05,0,0.0017502,3.863e-05,1.4051e+08,1.6938e+07,0,1.4051e+08,27486,15903,12262,1,12262,1,0.00077469,3.7149e-11,0,0.00077469,-0.00014248,1.0376e+08,3.2238,0,1.0376e+08,-8.92,12261,8553,1,8553,1,-0.00019949,-4.9608e-05,0,2.4397e-06,-0.00032459,-8.1045e+07,-9.1737e+06,0,1.1183e+05,-1.5872e+07,8552,10465,1,10465,1,0.00028762,-1.0885e-09,0,0.00028762,-0.00023327,5.8918e+07,-149.55,0,7.2623e+07,-31.794,10464,14059,1,14059,1,0.0012618,1.8261e-09,0,0.0012618,-5.1996e-05,1.2044e+08,257.03,0,1.2044e+08,166.13,14058,2091.4,0,2091.4,0,0.00057905,1.3828e-05,0,0.00054597,0.00010718,5.5741e+07,2.0948e+06,0,3.7879e+07,1.5473e+06,2091.4,1
5396,4.79,12260,1,12260,1,0.00078991,2.3829e-06,0,0.00081334,-0.00014652,8.2422e+07,3.3934e+05,0,9.2069e+07,-4.1737e+05,12259,15904,1,15904,1,0.0017539,9.0805e-05,0,0.0017539,3.8711e-05,1.408e+08,1.6973e+07,0,1.408e+08,27551,15903,12262,1,12262,1,0.00077631,1.4216e-12,0,0.00077631,-0.00014277,1.0398e+08,0.13447,0,1.0398e+08,-4.0801,12261,8553,1,8553,1,-0.0001999,-4.9709e-05,0,2.4455e-06,-0.00032527,-8.1214e+07,-9.1926e+06,0,1.1222e+05,-1.5905e+07,8552,10465,1,10465,1,0.00028822,-6.7893e-10,0,0.00028822,-0.00023375,5.904e+07,-96.447,0,7.2775e+07,-16.68,10464,14059,1,14059,1,0.0012644,1.9203e-09,0,0.0012644,-5.2104e-05,1.2069e+08,260.78,0,1.2069e+08,172.65,14058,2091.4,0,2091.4,0,0.00058026,1.3857e-05,0,0.0005471,0.0001074,5.5857e+07,2.0991e+06,0,3.7958e+07,1.5506e+06,2091.4,1
5396,4.8,12260,1,12260,1,0.00079156,2.3878e-06,0,0.00081504,-0.00014683,8.2594e+07,3.4004e+05,0,9.2262e+07,-4.1825e+05,12259,15904,1,15904,1,0.0017576,9.0996e-05,0,0.0017576,3.8792e-05,1.411e+08,1.7009e+07,0,1.411e+08,27595,15903,12262,1,12262,1,0.00077793,-3.3833e-11,0,0.00077793,-0.00014307,1.0419e+08,-3.3412,0,1.0419e+08,-4.711,12261,8553,1,8553,1,-0.00020032,-4.9813e-05,0,2.4499e-06,-0.00032595,-8.1384e+07,-9.2119e+06,0,1.1231e+05,-1.5938e+07,8552,10465,1,10465,1,0.00028883,-8.3833e-10,0,0.00028883,-0.00023424,5.9164e+07,-119.55,0,7.2927e+07,-20.809,10464,14059,1,14059,1,0.0012671,1.7523e-09,0,0.0012671,-5.2213e-05,1.2095e+08,240.82,0,1.2095e+08,167.66,14058,2091.4,0,2091.4,0,0.00058147,1.3886e-05,0,0.00054825,0.00010763,5.5973e+07,2.1035e+06,0,3.8037e+07,1.5538e+06,2091.4,1
5396,4.81,12260,1,12260,1,0.00079321,2.3928e-06,0,0.00081674,-0.00014713,8.2766e+07,3.4076e+05,0,9.2454e+07,-4.1911e+05,12259,15904,1,15904,1,0.0017612,9.1184e-05,0,0.0017612,3.8872e-05,1.4139e+08,1.7044e+07,0,1.4139e+08,27665,15903,12262,1,12262,1,0.00077955,3.3068e-11,0,0.00077955,-0.00014337,1.0441e+08,3.5431,0,1.0441e+08,-4.1088,12261,8553,1,8553,1,-0.00020074,-4.9917e-05,0,2.4556e-06,-0.00032663,-8.1553e+07,-9.231e+06,0,1.1265e+05,-1.5971e+07,8552,10465,1,10465,1,0.00028943,-6.5684e-10,0,0.00028943,-0.00023473,5.9287e+07,-93.493,0,7.3079e+07,-17.96,10464,14059,1,14059,1,0.0012697,1.8992e-09,0,0.0012697,-5.2322e-05,1.212e+08,257.33,0,1.212e+08,170.34,14058,2091.4,0,2091.4,0,0.00058268,1.3915e-05,0,0.00054939,0.00010785,5.609e+07,2.1079e+06,0,3.8116e+07,1.557e+06,2091.4,1
5396,4.82,12260,1,12260,1,0.00079486,2.3979e-06,0,0.00081844,-0.00014744,8.2939e+07,3.4148e+05,0,9.2646e+07,-4.1998e+05,12259,15904,1,15904,1,0.0017649,9.1374e-05,0,0.0017649,3.8953e-05,1.4169e+08,1.708e+07,0,1.4169e+08,27697,15903,12262,1,12262,1,0.00078118,1.9143e-10,0,0.00078118,-0.00014367,1.0463e+08,19.011,0,1.0463e+08,-7.4096,12261,8553,1,8553,1,-0.00020115,-5.0022e-05,0,2.4596e-06,-0.0003273,-8.1722e+07,-9.2504e+06,0,1.1254e+05,-1.6004e+07,8552,10465,1,10465,1,0.00029003,-9.9273e-10,0,0.00029003,-0.00023522,5.9411e+07,-133.83,0,7.3231e+07,-32.877,10464,14059,1,14059,1,0.0012723,1.9683e-09,0,0.0012723,-5.2431e-05,1.2145e+08,283.89,0,1.2145e+08,167.89,14058,2091.4,0,2091.4,0,0.0005839,1.3944e-05,0,0.00055053,0.00010808,5.6207e+07,2.1123e+06,0,3.8196e+07,1.5602e+06,2091.4,1
5396,4.83,12260,1,12260,1,0.00079651,2.4029e-06,0,0.00082013,-0.00014775,8.311e+07,3.4219e+05,0,9.2838e+07,-4.2086e+05,12259,15904,1,15904,1,0.0017685,9.1562e-05,0,0.0017685,3.9034e-05,1.4198e+08,1.7115e+07,0,1.4198e+08,27775,15903,12262,1,12262,1,0.00078279,1.3142e-10,0,0.00078279,-0.00014397,1.0485e+08,15.106,0,1.0485e+08,-3.7014,12261,8553,1,8553,1,-0.00020157,-5.0125e-05,0,2.4658e-06,-0.00032798,-8.1892e+07,-9.2695e+06,0,1.1311e+05,-1.6037e+07,8552,10465,1,10465,1,0.00029063,-4.8196e-10,0,0.00029063,-0.00023571,5.9534e+07,-67.585,0,7.3383e+07,-16.848,10464,14059,1,14059,1,0.001275,2.116e-09,0,0.001275,-5.254e-05,1.217e+08,288.82,0,1.217e+08,175.71,14058,2091.4,0,2091.4,0,0.00058511,1.3972e-05,0,0.00055167,0.0001083,5.6323e+07,2.1166e+06,0,3.8275e+07,1.5635e+06,2091.4,1
5396,4.84,12260,1,12260,1,0.00079816,2.4079e-06,0,0.00082183,-0.00014805,8.3282e+07,3.429e+05,0,9.303e+07,-4.2173e+05,12259,15904,1,15904,1,0.0017722,9.1752e-05,0,0.0017722,3.9115e-05,1.4227e+08,1.715e+07,0,1.4227e+08,27829,15903,12262,1,12262,1,0.00078441,2.2782e-10,0,0.00078441,-0.00014427,1.0506e+08,26.298,0,1.0506e+08,-4.0281,12261,8553,1,8553,1,-0.00020199,-5.0229e-05,0,2.4706e-06,-0.00032866,-8.2061e+07,-9.2887e+06,0,1.1321e+05,-1.6071e+07,8552,10465,1,10465,1,0.00029124,-5.4889e-10,0,0.00029124,-0.00023619,5.9657e+07,-76.33,0,7.3535e+07,-22.123,10464,14059,1,14059,1,0.0012776,2.0243e-09,0,0.0012776,-5.2649e-05,1.2195e+08,283.92,0,1.2195e+08,171.05,14058,2091.4,0,2091.4,0,0.00058632,1.4002e-05,0,0.00055282,0.00010852,5.644e+07,2.121e+06,0,3.8354e+07,1.5668e+06,2091.4,1
5396,4.85,12260,1,12260,1,0.00079981,2.4128e-06,0,0.00082353,-0.00014836,8.3454e+07,3.4359e+05,0,9.3223e+07,-4.226e+05,12259,15904,1,15904,1,0.0017759,9.1943e-05,0,0.0017759,3.9195e-05,1.4257e+08,1.7186e+07,0,1.4257e+08,27877,15903,12262,1,12262,1,0.00078604,4.959e-11,0,0.00078604,-0.00014456,1.0528e+08,4.8189,0,1.0528e+08,-4.5738,12261,8553,1,8553,1,-0.00020241,-5.0333e-05,0,2.4754e-06,-0.00032934,-8.2231e+07,-9.3079e+06,0,1.1336e+05,-1.6104e+07,8552,10465,1,10465,1,0.00029184,-7.1864e-10,0,0.00029184,-0.00023668,5.978e+07,-100.59,0,7.3687e+07,-22.82,10464,14059,1,14059,1,0.0012803,1.9118e-09,0,0.0012803,-5.2757e-05,1.2221e+08,263.28,0,1.2221e+08,169.41,14058,2091.4,0,2091.4,0,0.00058753,1.4031e-05,0,0.00055396,0.00010875,5.6556e+07,2.1254e+06,0,3.8433e+07,1.57e+06,2091.4,1
5396,4.86,12260,1,12260,1,0.00080145,2.4177e-06,0,0.00082523,-0.00014866,8.3627e+07,3.4429e+05,0,9.3415e+07,-4.2347e+05,12259,15904,1,15904,1,0.0017795,9.2132e-05,0,0.0017795,3.9276e-05,1.4286e+08,1.7221e+07,0,1.4286e+08,27936,15903,12262,1,12262,1,0.00078766,-2.4301e-11,0,0.00078766,-0.00014486,1.055e+08,-2.2245,0,1.055e+08,-5.3439,12261,8553,1,8553,1,-0.00020282,-5.0436e-05,0,2.4806e-06,-0.00033002,-8.24e+07,-9.327e+06,0,1.1363e+05,-1.6137e+07,8552,10465,1,10465,1,0.00029244,-8.4409e-10,0,0.00029244,-0.00023717,5.9904e+07,-118.88,0,7.3839e+07,-20.792,10464,14059,1,14059,1,0.0012829,1.9037e-09,0,0.0012829,-5.2866e-05,1.2246e+08,269.05,0,1.2246e+08,170.58,14058,2091.4,0,2091.4,0,0.00058874,1.406e-05,0,0.0005551,0.00010897,5.6673e+07,2.1298e+06,0,3.8513e+07,1.5732e+06,2091.4,1
5396,4.87,12260,1,12260,1,0.0008031,2.4227e-06,0,0.00082693,-0.00014897,8.3799e+07,3.4501e+05,0,9.3607e+07,-4.2435e+05,12259,15904,1,15904,1,0.0017832,9.2321e-05,0,0.0017832,3.9357e-05,1.4316e+08,1.7257e+07,0,1.4316e+08,27990,15903,12262,1,12262,1,0.00078928,-4.576e-11,0,0.00078928,-0.00014516,1.0571e+08,-4.8666,0,1.0571e+08,-4.4532,12261,8553,1,8553,1,-0.00020324,-5.054e-05,0,2.4859e-06,-0.0003307,-8.257e+07,-9.3463e+06,0,1.1388e+05,-1.6171e+07,8552,10465,1,10465,1,0.00029304,-7.5398e-10,0,0.00029304,-0.00023766,6.0027e+07,-106.19,0,7.3991e+07,-18.793,10464,14059,1,14059,1,0.0012855,1.8978e-09,0,0.0012855,-5.2975e-05,1.2271e+08,259.8,0,1.2271e+08,170.26,14058,2091.4,0,2091.4,0,0.00058995,1.4089e-05,0,0.00055624,0.0001092,5.6789e+07,2.1342e+06,0,3.8592e+07,1.5765e+06,2091.4,1
5396,4.88,12260,1,12260,1,0.00080475,2.4276e-06,0,0.00082862,-0.00014928,8.397e+07,3.4571e+05,0,9.3799e+07,-4.2522e+05,12259,15904,1,15904,1,0.0017869,9.251e-05,0,0.0017869,3.9438e-05,1.4345e+08,1.7292e+07,0,1.4345e+08,28069,15903,12262,1,12262,1,0.0007909,6.4819e-12,0,0.0007909,-0.00014546,1.0593e+08,0.57031,0,1.0593e+08,-3.5989,12261,8553,1,8553,1,-0.00020366,-5.0642e-05,0,2.4914e-06,-0.00033138,-8.2739e+07,-9.3653e+06,0,1.1422e+05,-1.6204e+07,8552,10465,1,10465,1,0.00029364,-6.1634e-10,0,0.00029364,-0.00023815,6.015e+07,-87.386,0,7.4143e+07,-15.39,10464,14059,1,14059,1,0.0012882,1.9517e-09,0,0.0012882,-5.3084e-05,1.2296e+08,264.15,0,1.2296e+08,176.17,14058,2091.4,0,2091.4,0,0.00059116,1.4117e-05,0,0.00055739,0.00010942,5.6906e+07,2.1385e+06,0,3.8671e+07,1.5797e+06,2091.4,1
5396,4.89,12260,1,12260,1,0.0008064,2.4327e-06,0,0.00083032,-0.00014958,8.4142e+07,3.4643e+05,0,9.3991e+07,-4.2609e+05,12259,15904,1,15904,1,0.0017905,9.2699e-05,0,0.0017905,3.9518e-05,1.4374e+08,1.7328e+07,0,1.4374e+08,28115,15903,12262,1,12262,1,0.00079252,9.8494e-11,0,0.00079252,-0.00014576,1.0615e+08,10.317,0,1.0615e+08,-3.6222,12261,8553,1,8553,1,-0.00020407,-5.0747e-05,0,2.4965e-06,-0.00033206,-8.2908e+07,-9.3846e+06,0,1.1442e+05,-1.6237e+07,8552,10465,1,10465,1,0.00029424,-5.5132e-10,0,0.00029424,-0.00023863,6.0273e+07,-78.045,0,7.4295e+07,-16.945,10464,14059,1,14059,1,0.0012908,2.0497e-09,0,0.0012908,-5.3193e-05,1.2321e+08,279.97,0,1.2321e+08,175.03,14058,2091.4,0,2091.4,0,0.00059238,1.4146e-05,0,0.00055853,0.00010965,5.7022e+07,2.1429e+06,0,3.875e+07,1.5829e+06,2091.4,1
5396,4.9,12260,1,12260,1,0.00080805,2.4376e-06,0,0.00083202,-0.00014989,8.4314e+07,3.4713e+05,0,9.4183e+07,-4.2696e+05,12259,15904,1,15904,1,0.0017942,9.2889e-05,0,0.0017942,3.9599e-05,1.4404e+08,1.7363e+07,0,1.4404e+08,28183,15903,12262,1,12262,1,0.00079414,-6.2871e-11,0,0.00079414,-0.00014605,1.0637e+08,-6.753,0,1.0637e+08,-4.5005,12261,8553,1,8553,1,-0.00020449,-5.085e-05,0,2.5018e-06,-0.00033274,-8.3078e+07,-9.4037e+06,0,1.1468e+05,-1.627e+07,8552,10465,1,10465,1,0.00029485,-7.1063e-10,0,0.00029485,-0.00023912,6.0397e+07,-101.53,0,7.4447e+07,-16.003,10464,14059,1,14059,1,0.0012935,1.9444e-09,0,0.0012935,-5.3301e-05,1.2347e+08,262.23,0,1.2347e+08,176.24,14058,2091.4,0,2091.4,0,0.00059359,1.4175e-05,0,0.00055967,0.00010987,5.7139e+07,2.1473e+06,0,3.8829e+07,1.5862e+06,2091.4,1
5396,4.91,12260,1,12260,1,0.0008097,2.4427e-06,0,0.00083372,-0.00015019,8.4487e+07,3.4786e+05,0,9.4375e+07,-4.2783e+05,12259,15904,1,15904,1,0.0017978,9.3078e-05,0,0.0017978,3.968e-05,1.4433e+08,1.7398e+07,0,1.4433e+08,28219,15903,12262,1,12262,1,0.00079576,7.5726e-11,0,0.00079576,-0.00014635,1.0658e+08,8.0369,0,1.0658e+08,-3.7414,12261,8553,1,8553,1,-0.00020491,-5.0954e-05,0,2.5065e-06,-0.00033342,-8.3247e+07,-9.423e+06,0,1.1483e+05,-1.6303e+07,8552,10465,1,10465,1,0.00029545,-4.3588e-10,0,0.00029545,-0.00023961,6.052e+07,-60.588,0,7.4599e+07,-15.411,10464,14059,1,14059,1,0.0012961,2.1641e-09,0,0.0012961,-5.341e-05,1.2372e+08,297.96,0,1.2372e+08,174.59,14058,2091.4,0,2091.4,0,0.0005948,1.4204e-05,0,0.00056081,0.00011009,5.7256e+07,2.1517e+06,0,3.8909e+07,1.5894e+06,2091.4,1
5396,4.92,12260,1,12260,1,0.00081135,2.4476e-06,0,0.00083542,-0.0001505,8.4659e+07,3.4855e+05,0,9.4567e+07,-4.287e+05,12259,15904,1,15904,1,0.0018015,9.3267e-05,0,0.0018015,3.9761e-05,1.4463e+08,1.7434e+07,0,1.4463e+08,28279,15903,12262,1,12262,1,0.00079738,3.2271e-11,0,0.00079738,-0.00014665,1.068e+08,3.3141,0,1.068e+08,-2.2219,12261,8553,1,8553,1,-0.00020532,-5.1057e-05,0,2.5118e-06,-0.0003341,-8.3417e+07,-9.4421e+06,0,1.1508e+05,-1.6336e+07,8552,10465,1,10465,1,0.00029605,-3.6594e-10,0,0.00029605,-0.0002401,6.0643e+07,-52.833,0,7.4751e+07,-11.086,10464,14059,1,14059,1,0.0012987,2.1227e-09,0,0.0012987,-5.3519e-05,1.2397e+08,274.01,0,1.2397e+08,175.98,14058,2091.4,0,2091.4,0,0.00059601,1.4233e-05,0,0.00056195,0.00011032,5.7372e+07,2.1561e+06,0,3.8988e+07,1.5927e+06,2091.4,1
5396,4.93,12260,1,12260,1,0.000813,2.4525e-06,0,0.00083712,-0.00015081,8.4831e+07,3.4926e+05,0,9.476e+07,-4.2957e+05,12259,15904,1,15904,1,0.0018052,9.3457e-05,0,0.0018052,3.9841e-05,1.4492e+08,1.7469e+07,0,1.4492e+08,28343,15903,12262,1,12262,1,0.000799,-8.3819e-11,0,0.000799,-0.00014695,1.0702e+08,-8.0928,0,1.0702e+08,-3.6986,12261,8553,1,8553,1,-0.00020574,-5.1161e-05,0,2.5166e-06,-0.00033478,-8.3586e+07,-9.4612e+06,0,1.152e+05,-1.6369e+07,8552,10465,1,10465,1,0.00029665,-6.4038e-10,0,0.00029665,-0.00024059,6.0766e+07,-92.25,0,7.4903e+07,-13.506,10464,14059,1,14059,1,0.0013014,1.9891e-09,0,0.0013014,-5.3628e-05,1.2422e+08,265.67,0,1.2422e+08,176.11,14058,2091.4,0,2091.4,0,0.00059722,1.4262e-05,0,0.0005631,0.00011054,5.7489e+07,2.1605e+06,0,3.9067e+07,1.5959e+06,2091.4,1
5396,4.94,12260,1,12260,1,0.00081465,2.4576e-06,0,0.00083882,-0.00015111,8.5003e+07,3.4998e+05,0,9.4952e+07,-4.3044e+05,12259,15904,1,15904,1,0.0018088,9.3647e-05,0,0.0018088,3.9922e-05,1.4521e+08,1.7505e+07,0,1.4521e+08,28407,15903,12262,1,12262,1,0.00080062,2.6431e-11,0,0.00080062,-0.00014725,1.0723e+08,2.4679,0,1.0723e+08,-6.008,12261,8553,1,8553,1,-0.00020616,-5.1265e-05,0,2.5215e-06,-0.00033545,-8.3756e+07,-9.4805e+06,0,1.1537e+05,-1.6402e+07,8552,10465,1,10465,1,0.00029726,-7.9595e-10,0,0.00029726,-0.00024107,6.089e+07,-109.7,0,7.5055e+07,-23.904,10464,14059,1,14059,1,0.001304,2.0695e-09,0,0.001304,-5.3737e-05,1.2447e+08,284.04,0,1.2447e+08,172.41,14058,2091.4,0,2091.4,0,0.00059843,1.4291e-05,0,0.00056424,0.00011077,5.7605e+07,2.1648e+06,0,3.9146e+07,1.5991e+06,2091.4,1
5396,4.95,12260,1,12260,1,0.0008163,2.4625e-06,0,0.00084051,-0.00015142,8.5175e+07,3.5067e+05,0,9.5144e+07,-4.3131e+05,12259,15904,1,15904,1,0.0018125,9.3836e-05,0,0.0018125,4.0003e-05,1.4551e+08,1.754e+07,0,1.4551e+08,28465,15903,12262,1,12262,1,0.00080224,-4.674e-11,0,0.00080224,-0.00014754,1.0745e+08,-4.5869,0,1.0745e+08,-3.7273,12261,8553,1,8553,1,-0.00020658,-5.1368e-05,0,2.5271e-06,-0.00033613,-8.3925e+07,-9.4996e+06,0,1.1572e+05,-1.6436e+07,8552,10465,1,10465,1,0.00029786,-7.0303e-10,0,0.00029786,-0.00024156,6.1013e+07,-101.56,0,7.5207e+07,-15.042,10464,14059,1,14059,1,0.0013067,1.9438e-09,0,0.0013067,-5.3846e-05,1.2473e+08,261.35,0,1.2473e+08,178.6,14058,2091.4,0,2091.4,0,0.00059964,1.432e-05,0,0.00056538,0.00011099,5.7722e+07,2.1692e+06,0,3.9225e+07,1.6024e+06,2091.4,1
5396,4.96,12260,1,12260,1,0.00081795,2.4674e-06,0,0.00084221,-0.00015172,8.5347e+07,3.5138e+05,0,9.5336e+07,-4.3219e+05,12259,15904,1,15904,1,0.0018162,9.4027e-05,0,0.0018162,4.0084e-05,1.458e+08,1.7576e+07,0,1.458e+08,28507,15903,12262,1,12262,1,0.00080387,-1.4225e-10,0,0.00080387,-0.00014784,1.0767e+08,-14.617,0,1.0767e+08,-4.3466,12261,8553,1,8553,1,-0.00020699,-5.1473e-05,0,2.5318e-06,-0.00033681,-8.4095e+07,-9.519e+06,0,1.1581e+05,-1.6469e+07,8552,10465,1,10465,1,0.00029846,-8.9865e-10,0,0.00029846,-0.00024205,6.1136e+07,-129.67,0,7.5359e+07,-17.428,10464,14059,1,14059,1,0.0013093,1.9026e-09,0,0.0013093,-5.3955e-05,1.2498e+08,255.84,0,1.2498e+08,176.41,14058,2091.4,0,2091.4,0,0.00060086,1.4349e-05,0,0.00056653,0.00011122,5.7838e+07,2.1736e+06,0,3.9305e+07,1.6056e+06,2091.4,1
5396,4.97,12260,1,12260,1,0.0008196,2.4726e-06,0,0.00084391,-0.00015203,8.5519e+07,3.5211e+05,0,9.5528e+07,-4.3305e+05,12259,15904,1,15904,1,0.0018198,9.4213e-05,0,0.0018198,4.0165e-05,1.461e+08,1.7611e+07,0,1.461e+08,28571,15903,12262,1,12262,1,0.00080549,2.1889e-10,0,0.00080549,-0.00014814,1.0789e+08,26.024,0,1.0789e+08,-3.3102,12261,8553,1,8553,1,-0.00020741,-5.1576e-05,0,2.5373e-06,-0.00033749,-8.4264e+07,-9.5381e+06,0,1.1621e+05,-1.6502e+07,8552,10465,1,10465,1,0.00029906,-2.6417e-10,0,0.00029906,-0.00024254,6.126e+07,-35.579,0,7.5511e+07,-14.377,10464,14059,1,14059,1,0.0013119,2.3218e-09,0,0.0013119,-5.4063e-05,1.2523e+08,316.19,0,1.2523e+08,178.49,14058,2091.4,0,2091.4,0,0.00060207,1.4377e-05,0,0.00056767,0.00011144,5.7955e+07,2.1779e+06,0,3.9384e+07,1.6088e+06,2091.4,1
5396,4.98,12260,1,12260,1,0.00082125,2.4776e-06,0,0.00084561,-0.00015234,8.5691e+07,3.5282e+05,0,9.5721e+07,-4.3393e+05,12259,15904,1,15904,1,0.0018235,9.4403e-05,0,0.0018235,4.0245e-05,1.4639e+08,1.7646e+07,0,1.4639e+08,28620,15903,12262,1,12262,1,0.00080711,2.3487e-10,0,0.00080711,-0.00014844,1.081e+08,28.883,0,1.081e+08,-3.7743,12261,8553,1,8553,1,-0.00020783,-5.1681e-05,0,2.542e-06,-0.00033817,-8.4434e+07,-9.5574e+06,0,1.1628e+05,-1.6535e+07,8552,10465,1,10465,1,0.00029966,-3.8512e-10,0,0.00029966,-0.00024303,6.1383e+07,-52.618,0,7.5663e+07,-21.146,10464,14059,1,14059,1,0.0013146,2.2632e-09,0,0.0013146,-5.4172e-05,1.2548e+08,307.82,0,1.2548e+08,173.58,14058,2091.4,0,2091.4,0,0.00060328,1.4407e-05,0,0.00056881,0.00011166,5.8071e+07,2.1823e+06,0,3.9463e+07,1.6121e+06,2091.4,1
5396,4.99,12260,1,12260,1,0.0008229,2.4825e-06,0,0.00084731,-0.00015264,8.5863e+07,3.5352e+05,0,9.5913e+07,-4.348e+05,12259,15904,1,15904,1,0.0018271,9.4594e-05,0,0.0018271,4.0326e-05,1.4668e+08,1.7682e+07,0,1.4668e+08,28684,15903,12262,1,12262,1,0.00080873,1.9725e-11,0,0.00080873,-0.00014874,1.0832e+08,1.5187,0,1.0832e+08,-4.5049,12261,8553,1,8553,1,-0.00020824,-5.1784e-05,0,2.5473e-06,-0.00033885,-8.4603e+07,-9.5765e+06,0,1.1656e+05,-1.6569e+07,8552,10465,1,10465,1,0.00030027,-5.8056e-10,0,0.00030027,-0.00024352,6.1506e+07,-81.244,0,7.5815e+07,-18.498,10464,14059,1,14059,1,0.0013172,2.1651e-09,0,0.0013172,-5.4281e-05,1.2573e+08,292.21,0,1.2573e+08,173.67,14058,2091.4,0,2091.4,0,0.00060449,1.4436e-05,0,0.00056995,0.00011189,5.8188e+07,2.1867e+06,0,3.9542e+07,1.6153e+06,2091.4,1
5396,5,12260,1,12260,1,0.00082455,2.4874e-06,0,0.00084901,-0.00015295,8.6035e+07,3.5421e+05,0,9.6105e+07,-4.3567e+05,12259,15904,1,15904,1,0.0018308,9.4784e-05,0,0.0018308,4.0407e-05,1.4698e+08,1.7718e+07,0,1.4698e+08,28736,15903,12262,1,12262,1,0.00081035,-4.7589e-11,0,0.00081035,-0.00014904,1.0854e+08,-4.5394,0,1.0854e+08,-5.0549,12261,8553,1,8553,1,-0.00020866,-5.1888e-05,0,2.5521e-06,-0.00033953,-8.4772e+07,-9.5957e+06,0,1.1671e+05,-1.6602e+07,8552,10465,1,10465,1,0.00030087,-8.4178e-10,0,0.00030087,-0.000244,6.163e+07,-119.19,0,7.5967e+07,-21.571,10464,14059,1,14059,1,0.0013199,1.9394e-09,0,0.0013199,-5.439e-05,1.2599e+08,264.56,0,1.2599e+08,174.87,14058,2091.4,0,2091.4,0,0.0006057,1.4465e-05,0,0.0005711,0.00011211,5.8305e+07,2.1911e+06,0,3.9622e+07,1.6185e+06,2091.4,1
5396,5.01,12260,1,12260,1,0.00082619,2.4926e-06,0,0.0008507,-0.00015325,8.6207e+07,3.5495e+05,0,9.6297e+07,-4.3653e+05,12259,15904,1,15904,1,0.0018345,9.497e-05,0,0.0018345,4.0488e-05,1.4727e+08,1.7752e+07,0,1.4727e+08,28814,15903,12262,1,12262,1,0.00081197,2.6232e-10,0,0.00081197,-0.00014933,1.0875e+08,30.675,0,1.0875e+08,-4.9758,12261,8553,1,8553,1,-0.00020908,-5.1991e-05,0,2.5576e-06,-0.00034021,-8.4942e+07,-9.6149e+06,0,1.1703e+05,-1.6635e+07,8552,10465,1,10465,1,0.00030147,-3.7359e-10,0,0.00030147,-0.00024449,6.1753e+07,-50.308,0,7.6119e+07,-21.63,10464,14059,1,14059,1,0.0013225,2.3349e-09,0,0.0013225,-5.4499e-05,1.2624e+08,316.86,0,1.2624e+08,178.41,14058,2091.4,0,2091.4,0,0.00060691,1.4493e-05,0,0.00057224,0.00011234,5.8421e+07,2.1954e+06,0,3.9701e+07,1.6217e+06,2091.4,1
5396,5.02,12260,1,12260,1,0.00082785,2.4973e-06,0,0.0008524,-0.00015356,8.6379e+07,3.5563e+05,0,9.6489e+07,-4.3741e+05,12259,15904,1,15904,1,0.0018381,9.5162e-05,0,0.0018381,4.0568e-05,1.4757e+08,1.7788e+07,0,1.4757e+08,28857,15903,12262,1,12262,1,0.00081359,-1.3456e-10,0,0.00081359,-0.00014963,1.0897e+08,-15.395,0,1.0897e+08,-5.1472,12261,8553,1,8553,1,-0.0002095,-5.2094e-05,0,2.5624e-06,-0.00034089,-8.5111e+07,-9.634e+06,0,1.1715e+05,-1.6668e+07,8552,10465,1,10465,1,0.00030207,-7.5174e-10,0,0.00030207,-0.00024498,6.1876e+07,-105.49,0,7.6271e+07,-24.707,10464,14059,1,14059,1,0.0013251,2.064e-09,0,0.0013251,-5.4608e-05,1.2649e+08,283.24,0,1.2649e+08,171.17,14058,2091.4,0,2091.4,0,0.00060812,1.4523e-05,0,0.00057338,0.00011256,5.8538e+07,2.1999e+06,0,3.978e+07,1.625e+06,2091.4,1
5396,5.03,12260,1,12260,1,0.00082949,2.5023e-06,0,0.0008541,-0.00015387,8.6551e+07,3.5634e+05,0,9.6681e+07,-4.3828e+05,12259,15904,1,15904,1,0.0018418,9.5351e-05,0,0.0018418,4.0649e-05,1.4786e+08,1.7824e+07,0,1.4786e+08,28919,15903,12262,1,12262,1,0.00081521,-8.088e-12,0,0.00081521,-0.00014993,1.0919e+08,-0.71643,0,1.0919e+08,-5.1302,12261,8553,1,8553,1,-0.00020991,-5.2198e-05,0,2.5679e-06,-0.00034157,-8.528e+07,-9.6531e+06,0,1.1745e+05,-1.6701e+07,8552,10465,1,10465,1,0.00030267,-7.7106e-10,0,0.00030267,-0.00024547,6.1999e+07,-110.15,0,7.6423e+07,-19.032,10464,14059,1,14059,1,0.0013278,2.0097e-09,0,0.0013278,-5.4716e-05,1.2674e+08,275.08,0,1.2674e+08,180.81,14058,2091.4,0,2091.4,0,0.00060934,1.4551e-05,0,0.00057452,0.00011278,5.8654e+07,2.2043e+06,0,3.9859e+07,1.6282e+06,2091.4,1
5396,5.04,12260,1,12260,1,0.00083114,2.5071e-06,0,0.0008558,-0.00015417,8.6723e+07,3.5702e+05,0,9.6873e+07,-4.3916e+05,12259,15904,1,15904,1,0.0018455,9.5542e-05,0,0.0018455,4.073e-05,1.4815e+08,1.7859e+07,0,1.4815e+08,28972,15903,12262,1,12262,1,0.00081683,-2.1968e-10,0,0.00081683,-0.00015023,1.0941e+08,-26.557,0,1.0941e+08,-4.8253,12261,8553,1,8553,1,-0.00021033,-5.2301e-05,0,2.5727e-06,-0.00034225,-8.545e+07,-9.6723e+06,0,1.1763e+05,-1.6735e+07,8552,10465,1,10465,1,0.00030328,-1.0307e-09,0,0.00030328,-0.00024596,6.2123e+07,-148.74,0,7.6575e+07,-20.022,10464,14059,1,14059,1,0.0013304,1.7638e-09,0,0.0013304,-5.4825e-05,1.2699e+08,241.25,0,1.2699e+08,175.56,14058,2091.4,0,2091.4,0,0.00061055,1.4581e-05,0,0.00057566,0.00011301,5.8771e+07,2.2087e+06,0,3.9939e+07,1.6315e+06,2091.4,1
5396,5.05,12260,1,12260,1,0.00083279,2.5124e-06,0,0.0008575,-0.00015448,8.6895e+07,3.5777e+05,0,9.7066e+07,-4.4002e+05,12259,15904,1,15904,1,0.0018491,9.5729e-05,0,0.0018491,4.0811e-05,1.4845e+08,1.7894e+07,0,1.4845e+08,29028,15903,12262,1,12262,1,0.00081846,1.131e-10,0,0.00081846,-0.00015053,1.0962e+08,11.874,0,1.0962e+08,-5.1039,12261,8553,1,8553,1,-0.00021075,-5.2405e-05,0,2.5777e-06,-0.00034292,-8.5619e+07,-9.6915e+06,0,1.178e+05,-1.6767e+07,8552,10465,1,10465,1,0.00030388,-7.1361e-10,0,0.00030388,-0.00024644,6.2246e+07,-99.324,0,7.6727e+07,-23.042,10464,14059,1,14059,1,0.0013331,2.1217e-09,0,0.0013331,-5.4934e-05,1.2725e+08,291.26,0,1.2725e+08,177.74,14058,2091.4,0,2091.4,0,0.00061176,1.4609e-05,0,0.00057681,0.00011323,5.8887e+07,2.213e+06,0,4.0018e+07,1.6347e+06,2091.4,1
5396,5.06,12260,1,12260,1,0.00083444,2.5172e-06,0,0.0008592,-0.00015478,8.7067e+07,3.5847e+05,0,9.7258e+07,-4.409e+05,12259,15904,1,15904,1,0.0018528,9.592e-05,0,0.0018528,4.0892e-05,1.4874e+08,1.793e+07,0,1.4874e+08,29085,15903,12262,1,12262,1,0.00082008,-6.0972e-11,0,0.00082008,-0.00015082,1.0984e+08,-6.7343,0,1.0984e+08,-3.9185,12261,8553,1,8553,1,-0.00021116,-5.2509e-05,0,2.5826e-06,-0.0003436,-8.5789e+07,-9.7108e+06,0,1.1796e+05,-1.6801e+07,8552,10465,1,10465,1,0.00030448,-9.2768e-10,0,0.00030448,-0.00024693,6.2369e+07,-129.74,0,7.6879e+07,-22.897,10464,14059,1,14059,1,0.0013357,1.9273e-09,0,0.0013357,-5.5043e-05,1.275e+08,269.71,0,1.275e+08,174.66,14058,2091.4,0,2091.4,0,0.00061297,1.4638e-05,0,0.00057795,0.00011346,5.9004e+07,2.2174e+06,0,4.0097e+07,1.638e+06,2091.4,1
5396,5.07,12260,1,12260,1,0.00083609,2.5223e-06,0,0.00086089,-0.00015509,8.7239e+07,3.5919e+05,0,9.745e+07,-4.4177e+05,12259,15904,1,15904,1,0.0018564,9.6108e-05,0,0.0018564,4.0972e-05,1.4904e+08,1.7965e+07,0,1.4904e+08,29151,15903,12262,1,12262,1,0.0008217,9.4154e-11,0,0.0008217,-0.00015112,1.1006e+08,8.846,0,1.1006e+08,-3.8165,12261,8553,1,8553,1,-0.00021158,-5.2613e-05,0,2.5882e-06,-0.00034428,-8.5958e+07,-9.7299e+06,0,1.1834e+05,-1.6834e+07,8552,10465,1,10465,1,0.00030508,-5.4513e-10,0,0.00030508,-0.00024742,6.2492e+07,-76.753,0,7.7031e+07,-15.473,10464,14059,1,14059,1,0.0013383,2.2139e-09,0,0.0013383,-5.5152e-05,1.2775e+08,300.75,0,1.2775e+08,183.04,14058,2091.4,0,2091.4,0,0.00061418,1.4667e-05,0,0.00057909,0.00011368,5.912e+07,2.2218e+06,0,4.0176e+07,1.6412e+06,2091.4,1
5396,5.08,12260,1,12260,1,0.00083774,2.5274e-06,0,0.00086259,-0.0001554,8.7411e+07,3.5991e+05,0,9.7642e+07,-4.4264e+05,12259,15904,1,15904,1,0.0018601,9.6297e-05,0,0.0018601,4.1053e-05,1.4933e+08,1.8001e+07,0,1.4933e+08,29202,15903,12262,1,12262,1,0.00082332,2.084e-10,0,0.00082332,-0.00015142,1.1027e+08,24.768,0,1.1027e+08,-4.4775,12261,8553,1,8553,1,-0.000212,-5.2717e-05,0,2.5931e-06,-0.00034496,-8.6128e+07,-9.7492e+06,0,1.1853e+05,-1.6867e+07,8552,10465,1,10465,1,0.00030568,-4.4618e-10,0,0.00030568,-0.00024791,6.2616e+07,-61.201,0,7.7183e+07,-18.703,10464,14059,1,14059,1,0.001341,2.3561e-09,0,0.001341,-5.5261e-05,1.28e+08,319.08,0,1.28e+08,177.55,14058,2091.4,0,2091.4,0,0.00061539,1.4696e-05,0,0.00058023,0.00011391,5.9237e+07,2.2261e+06,0,4.0255e+07,1.6444e+06,2091.4,1
5396,5.09,12260,1,12260,1,0.00083939,2.5322e-06,0,0.00086429,-0.0001557,8.7583e+07,3.6059e+05,0,9.7834e+07,-4.4351e+05,12259,15904,1,15904,1,0.0018638,9.6486e-05,0,0.0018638,4.1134e-05,1.4962e+08,1.8036e+07,0,1.4962e+08,29265,15903,12262,1,12262,1,0.00082494,4.8587e-11,0,0.00082494,-0.00015172,1.1049e+08,4.9565,0,1.1049e+08,-3.303,12261,8553,1,8553,1,-0.00021241,-5.2819e-05,0,2.5987e-06,-0.00034564,-8.6297e+07,-9.7682e+06,0,1.1886e+05,-1.69e+07,8552,10465,1,10465,1,0.00030629,-6.2045e-10,0,0.00030629,-0.0002484,6.2739e+07,-88.745,0,7.7335e+07,-15.435,10464,14059,1,14059,1,0.0013436,2.147e-09,0,0.0013436,-5.5369e-05,1.2825e+08,292.14,0,1.2825e+08,183.96,14058,2091.4,0,2091.4,0,0.0006166,1.4725e-05,0,0.00058137,0.00011413,5.9353e+07,2.2305e+06,0,4.0335e+07,1.6477e+06,2091.4,1
5396,5.1,12260,1,12260,1,0.00084104,2.5371e-06,0,0.00086599,-0.00015601,8.7755e+07,3.6129e+05,0,9.8026e+07,-4.4438e+05,12259,15904,1,15904,1,0.0018674,9.6677e-05,0,0.0018674,4.1214e-05,1.4992e+08,1.8072e+07,0,1.4992e+08,29327,15903,12262,1,12262,1,0.00082656,-5.768e-12,0,0.00082656,-0.00015202,1.1071e+08,-0.40649,0,1.1071e+08,-3.747,12261,8553,1,8553,1,-0.00021283,-5.2923e-05,0,2.6037e-06,-0.00034632,-8.6466e+07,-9.7874e+06,0,1.1905e+05,-1.6934e+07,8552,10465,1,10465,1,0.00030689,-7.676e-10,0,0.00030689,-0.00024888,6.2862e+07,-109.38,0,7.7487e+07,-16.135,10464,14059,1,14059,1,0.0013463,2.0119e-09,0,0.0013463,-5.5478e-05,1.2851e+08,272.62,0,1.2851e+08,184.49,14058,2091.4,0,2091.4,0,0.00061782,1.4754e-05,0,0.00058252,0.00011435,5.947e+07,2.2349e+06,0,4.0414e+07,1.6509e+06,2091.4,1
5396,5.11,12260,1,12260,1,0.00084269,2.5421e-06,0,0.00086769,-0.00015631,8.7927e+07,3.62e+05,0,9.8218e+07,-4.4525e+05,12259,15904,1,15904,1,0.0018711,9.6866e-05,0,0.0018711,4.1295e-05,1.5021e+08,1.8107e+07,0,1.5021e+08,29381,15903,12262,1,12262,1,0.00082818,-2.8385e-12,0,0.00082818,-0.00015232,1.1093e+08,-0.20993,0,1.1093e+08,-3.9671,12261,8553,1,8553,1,-0.00021325,-5.3027e-05,0,2.6088e-06,-0.000347,-8.6636e+07,-9.8066e+06,0,1.1925e+05,-1.6967e+07,8552,10465,1,10465,1,0.00030749,-8.0938e-10,0,0.00030749,-0.00024937,6.2986e+07,-115.06,0,7.7639e+07,-17.202,10464,14059,1,14059,1,0.0013489,2.0009e-09,0,0.0013489,-5.5587e-05,1.2876e+08,274.45,0,1.2876e+08,185.07,14058,2091.4,0,2091.4,0,0.00061903,1.4783e-05,0,0.00058366,0.00011458,5.9586e+07,2.2393e+06,0,4.0493e+07,1.6541e+06,2091.4,1
5396,5.12,12260,1,12260,1,0.00084434,2.547e-06,0,0.00086939,-0.00015662,8.8099e+07,3.6271e+05,0,9.8411e+07,-4.4613e+05,12259,15904,1,15904,1,0.0018747,9.7057e-05,0,0.0018747,4.1376e-05,1.5051e+08,1.8143e+07,0,1.5051e+08,29426,15903,12262,1,12262,1,0.0008298,-5.7035e-11,0,0.0008298,-0.00015261,1.1114e+08,-5.1628,0,1.1114e+08,-5.0228,12261,8553,1,8553,1,-0.00021367,-5.3131e-05,0,2.6135e-06,-0.00034768,-8.6806e+07,-9.8259e+06,0,1.1939e+05,-1.7e+07,8552,10465,1,10465,1,0.00030809,-9.5518e-10,0,0.00030809,-0.00024986,6.3109e+07,-136.45,0,7.7791e+07,-20.148,10464,14059,1,14059,1,0.0013515,1.9499e-09,0,0.0013515,-5.5696e-05,1.2901e+08,267.22,0,1.2901e+08,182.33,14058,2091.4,0,2091.4,0,0.00062024,1.4812e-05,0,0.0005848,0.0001148,5.9703e+07,2.2437e+06,0,4.0572e+07,1.6574e+06,2091.4,1
5396,5.13,12260,1,12260,1,0.00084599,2.5521e-06,0,0.00087108,-0.00015693,8.8272e+07,3.6343e+05,0,9.8603e+07,-4.4701e+05,12259,15904,1,15904,1,0.0018784,9.7246e-05,0,0.0018784,4.1457e-05,1.508e+08,1.8178e+07,0,1.508e+08,29483,15903,12262,1,12262,1,0.00083143,-4.4713e-11,0,0.00083143,-0.00015291,1.1136e+08,-4.0578,0,1.1136e+08,-3.9446,12261,8553,1,8553,1,-0.00021408,-5.3235e-05,0,2.6188e-06,-0.00034836,-8.6975e+07,-9.8451e+06,0,1.1964e+05,-1.7034e+07,8552,10465,1,10465,1,0.00030869,-7.9605e-10,0,0.0003087,-0.00025035,6.3232e+07,-112.53,0,7.7943e+07,-15.402,10464,14059,1,14059,1,0.0013542,2.046e-09,0,0.0013542,-5.5805e-05,1.2926e+08,279.24,0,1.2926e+08,180.74,14058,2091.4,0,2091.4,0,0.00062145,1.4841e-05,0,0.00058595,0.00011503,5.982e+07,2.2481e+06,0,4.0652e+07,1.6606e+06,2091.4,1
5396,5.14,12260,1,12260,1,0.00084764,2.5572e-06,0,0.00087278,-0.00015723,8.8443e+07,3.6415e+05,0,9.8795e+07,-4.4787e+05,12259,15904,1,15904,1,0.0018821,9.7434e-05,0,0.0018821,4.1538e-05,1.5109e+08,1.8213e+07,0,1.5109e+08,29542,15903,12262,1,12262,1,0.00083305,1.8472e-10,0,0.00083305,-0.00015321,1.1158e+08,21.726,0,1.1158e+08,-4.8665,12261,8553,1,8553,1,-0.0002145,-5.3339e-05,0,2.6237e-06,-0.00034904,-8.7144e+07,-9.8643e+06,0,1.1983e+05,-1.7066e+07,8552,10465,1,10465,1,0.0003093,-5.9757e-10,0,0.0003093,-0.00025084,6.3356e+07,-82.34,0,7.8095e+07,-23.349,10464,14059,1,14059,1,0.0013568,2.228e-09,0,0.0013568,-5.5914e-05,1.2952e+08,303.97,0,1.2952e+08,178.6,14058,2091.4,0,2091.4,0,0.00062266,1.487e-05,0,0.00058709,0.00011525,5.9936e+07,2.2524e+06,0,4.0731e+07,1.6638e+06,2091.4,1
5396,5.15,12260,1,12260,1,0.00084929,2.5621e-06,0,0.00087448,-0.00015754,8.8615e+07,3.6484e+05,0,9.8987e+07,-4.4873e+05,12259,15904,1,15904,1,0.0018857,9.7623e-05,0,0.0018857,4.1618e-05,1.5139e+08,1.8249e+07,0,1.5139e+08,29606,15903,12262,1,12262,1,0.00083467,4.9048e-11,0,0.00083467,-0.00015351,1.1179e+08,5.139,0,1.1179e+08,-4.0864,12261,8553,1,8553,1,-0.00021492,-5.3442e-05,0,2.629e-06,-0.00034972,-8.7314e+07,-9.8834e+06,0,1.2008e+05,-1.71e+07,8552,10465,1,10465,1,0.0003099,-8.2796e-10,0,0.0003099,-0.00025132,6.3479e+07,-117.46,0,7.8247e+07,-21.014,10464,14059,1,14059,1,0.0013595,2.0706e-09,0,0.0013595,-5.6022e-05,1.2977e+08,279.71,0,1.2977e+08,184.28,14058,2091.4,0,2091.4,0,0.00062387,1.4899e-05,0,0.00058823,0.00011548,6.0053e+07,2.2568e+06,0,4.081e+07,1.6671e+06,2091.4,1
5396,5.16,12260,1,12260,1,0.00085094,2.5669e-06,0,0.00087618,-0.00015784,8.8787e+07,3.6554e+05,0,9.9179e+07,-4.4961e+05,12259,15904,1,15904,1,0.0018894,9.7813e-05,0,0.0018894,4.1699e-05,1.5168e+08,1.8284e+07,0,1.5168e+08,29667,15903,12262,1,12262,1,0.00083629,-4.4374e-11,0,0.00083629,-0.00015381,1.1201e+08,-4.0215,0,1.1201e+08,-4.4114,12261,8553,1,8553,1,-0.00021533,-5.3545e-05,0,2.6344e-06,-0.0003504,-8.7483e+07,-9.9025e+06,0,1.2038e+05,-1.7133e+07,8552,10465,1,10465,1,0.0003105,-8.1811e-10,0,0.0003105,-0.00025181,6.3602e+07,-117.82,0,7.8399e+07,-17.14,10464,14059,1,14059,1,0.0013621,2.0157e-09,0,0.0013621,-5.6131e-05,1.3002e+08,275.6,0,1.3002e+08,185.72,14058,2091.4,0,2091.4,0,0.00062508,1.4928e-05,0,0.00058937,0.0001157,6.0169e+07,2.2612e+06,0,4.0889e+07,1.6703e+06,2091.4,1
5396,5.17,12260,1,12260,1,0.00085259,2.5721e-06,0,0.00087788,-0.00015815,8.896e+07,3.6628e+05,0,9.9371e+07,-4.5048e+05,12259,15904,1,15904,1,0.0018931,9.8002e-05,0,0.0018931,4.178e-05,1.5198e+08,1.8319e+07,0,1.5198e+08,29713,15903,12262,1,12262,1,0.00083791,1.7626e-10,0,0.00083791,-0.0001541,1.1223e+08,19.537,0,1.1223e+08,-4.355,12261,8553,1,8553,1,-0.00021575,-5.365e-05,0,2.6389e-06,-0.00035107,-8.7653e+07,-9.9219e+06,0,1.2046e+05,-1.7166e+07,8552,10465,1,10465,1,0.0003111,-6.8583e-10,0,0.0003111,-0.0002523,6.3726e+07,-95.648,0,7.8551e+07,-22.099,10464,14059,1,14059,1,0.0013647,2.2307e-09,0,0.0013647,-5.624e-05,1.3027e+08,304.9,0,1.3027e+08,182.33,14058,2091.4,0,2091.4,0,0.0006263,1.4957e-05,0,0.00059051,0.00011592,6.0286e+07,2.2656e+06,0,4.0968e+07,1.6735e+06,2091.4,1
5396,5.18,12260,1,12260,1,0.00085423,2.5769e-06,0,0.00087957,-0.00015845,8.9131e+07,3.6696e+05,0,9.9563e+07,-4.5135e+05,12259,15904,1,15904,1,0.0018967,9.8191e-05,0,0.0018967,4.1861e-05,1.5227e+08,1.8355e+07,0,1.5227e+08,29775,15903,12262,1,12262,1,0.00083953,-5.5039e-11,0,0.00083953,-0.0001544,1.1244e+08,-5.9751,0,1.1244e+08,-3.5142,12261,8553,1,8553,1,-0.00021617,-5.3752e-05,0,2.6445e-06,-0.00035175,-8.7822e+07,-9.9409e+06,0,1.2079e+05,-1.7199e+07,8552,10465,1,10465,1,0.0003117,-7.1106e-10,0,0.0003117,-0.00025279,6.3849e+07,-102.76,0,7.8703e+07,-13.459,10464,14059,1,14059,1,0.0013674,2.0769e-09,0,0.0013674,-5.6349e-05,1.3052e+08,276.77,0,1.3052e+08,186.54,14058,2091.4,0,2091.4,0,0.00062751,1.4985e-05,0,0.00059165,0.00011615,6.0402e+07,2.27e+06,0,4.1047e+07,1.6768e+06,2091.4,1
5396,5.19,12260,1,12260,1,0.00085588,2.582e-06,0,0.00088127,-0.00015876,8.9303e+07,3.6768e+05,0,9.9755e+07,-4.5222e+05,12259,15904,1,15904,1,0.0019004,9.838e-05,0,0.0019004,4.1941e-05,1.5256e+08,1.839e+07,0,1.5256e+08,29836,15903,12262,1,12262,1,0.00084115,2.1581e-11,0,0.00084115,-0.0001547,1.1266e+08,1.8973,0,1.1266e+08,-3.8614,12261,8553,1,8553,1,-0.00021658,-5.3856e-05,0,2.6496e-06,-0.00035243,-8.7991e+07,-9.9601e+06,0,1.21e+05,-1.7232e+07,8552,10465,1,10465,1,0.00031231,-7.1366e-10,0,0.00031231,-0.00025328,6.3972e+07,-101.49,0,7.8855e+07,-16.913,10464,14059,1,14059,1,0.00137,2.1458e-09,0,0.00137,-5.6458e-05,1.3077e+08,292.29,0,1.3077e+08,188.92,14058,2091.4,0,2091.4,0,0.00062872,1.5014e-05,0,0.0005928,0.00011637,6.0519e+07,2.2743e+06,0,4.1127e+07,1.68e+06,2091.4,1
5396,5.2,12260,1,12260,1,0.00085753,2.587e-06,0,0.00088297,-0.00015907,8.9475e+07,3.6839e+05,0,9.9948e+07,-4.5309e+05,12259,15904,1,15904,1,0.001904,9.8569e-05,0,0.001904,4.2022e-05,1.5286e+08,1.8426e+07,0,1.5286e+08,29893,15903,12262,1,12262,1,0.00084277,1.4858e-10,0,0.00084277,-0.000155,1.1288e+08,16.06,0,1.1288e+08,-3.9748,12261,8553,1,8553,1,-0.000217,-5.396e-05,0,2.6548e-06,-0.00035311,-8.8161e+07,-9.9793e+06,0,1.2126e+05,-1.7266e+07,8552,10465,1,10465,1,0.00031291,-5.7567e-10,0,0.00031291,-0.00025376,6.4095e+07,-81.891,0,7.9007e+07,-18.335,10464,14059,1,14059,1,0.0013727,2.2442e-09,0,0.0013727,-5.6567e-05,1.3103e+08,306.23,0,1.3103e+08,188.08,14058,2091.4,0,2091.4,0,0.00062993,1.5043e-05,0,0.00059394,0.0001166,6.0635e+07,2.2787e+06,0,4.1206e+07,1.6833e+06,2091.4,1
5396,5.21,12260,1,12260,1,0.00085919,2.592e-06,0,0.00088467,-0.00015937,8.9648e+07,3.691e+05,0,1.0014e+08,-4.5396e+05,12259,15904,1,15904,1,0.0019077,9.8759e-05,0,0.0019077,4.2103e-05,1.5315e+08,1.8461e+07,0,1.5315e+08,29955,15903,12262,1,12262,1,0.00084439,1.3842e-10,0,0.00084439,-0.0001553,1.131e+08,12.712,0,1.131e+08,-5.7985,12261,8553,1,8553,1,-0.00021742,-5.4064e-05,0,2.6596e-06,-0.00035379,-8.833e+07,-9.9986e+06,0,1.2139e+05,-1.7299e+07,8552,10465,1,10465,1,0.00031351,-8.7155e-10,0,0.00031351,-0.00025425,6.4219e+07,-120.92,0,7.9159e+07,-25.192,10464,14059,1,14059,1,0.0013753,2.2016e-09,0,0.0013753,-5.6676e-05,1.3128e+08,299.8,0,1.3128e+08,184.48,14058,2091.4,0,2091.4,0,0.00063114,1.5072e-05,0,0.00059508,0.00011682,6.0752e+07,2.2831e+06,0,4.1285e+07,1.6865e+06,2091.4,1
5396,5.22,12260,1,12260,1,0.00086083,2.5969e-06,0,0.00088637,-0.00015968,8.982e+07,3.6981e+05,0,1.0033e+08,-4.5483e+05,12259,15904,1,15904,1,0.0019114,9.8948e-05,0,0.0019114,4.2184e-05,1.5345e+08,1.8497e+07,0,1.5345e+08,30005,15903,12262,1,12262,1,0.00084601,1.1052e-10,0,0.00084601,-0.00015559,1.1331e+08,11.435,0,1.1331e+08,-3.2546,12261,8553,1,8553,1,-0.00021784,-5.4167e-05,0,2.665e-06,-0.00035447,-8.8499e+07,-1.0018e+07,0,1.2169e+05,-1.7332e+07,8552,10465,1,10465,1,0.00031411,-5.1849e-10,0,0.00031411,-0.00025474,6.4342e+07,-73.984,0,7.9311e+07,-14.825,10464,14059,1,14059,1,0.0013779,2.242e-09,0,0.0013779,-5.6784e-05,1.3153e+08,304.46,0,1.3153e+08,189.14,14058,2091.4,0,2091.4,0,0.00063235,1.5101e-05,0,0.00059622,0.00011704,6.0868e+07,2.2875e+06,0,4.1364e+07,1.6897e+06,2091.4,1
5396,5.23,12260,1,12260,1,0.00086248,2.602e-06,0,0.00088807,-0.00015998,8.9992e+07,3.7053e+05,0,1.0052e+08,-4.557e+05,12259,15904,1,15904,1,0.001915,9.9137e-05,0,0.001915,4.2264e-05,1.5374e+08,1.8532e+07,0,1.5374e+08,30055,15903,12262,1,12262,1,0.00084763,2.4141e-10,0,0.00084763,-0.00015589,1.1353e+08,27.964,0,1.1353e+08,-3.2596,12261,8553,1,8553,1,-0.00021825,-5.4271e-05,0,2.6699e-06,-0.00035515,-8.8669e+07,-1.0037e+07,0,1.2184e+05,-1.7365e+07,8552,10465,1,10465,1,0.00031471,-4.4165e-10,0,0.00031471,-0.00025523,6.4465e+07,-61.378,0,7.9463e+07,-17.135,10464,14059,1,14059,1,0.0013806,2.3399e-09,0,0.0013806,-5.6893e-05,1.3178e+08,321.81,0,1.3178e+08,188.13,14058,2091.4,0,2091.4,0,0.00063356,1.513e-05,0,0.00059737,0.00011727,6.0985e+07,2.2918e+06,0,4.1444e+07,1.6929e+06,2091.4,1
5396,5.24,12260,1,12260,1,0.00086413,2.6068e-06,0,0.00088976,-0.00016029,9.0164e+07,3.7122e+05,0,1.0072e+08,-4.5658e+05,12259,15904,1,15904,1,0.0019187,9.9328e-05,0,0.0019187,4.2345e-05,1.5403e+08,1.8568e+07,0,1.5403e+08,30110,15903,12262,1,12262,1,0.00084926,5.5204e-12,0,0.00084926,-0.00015619,1.1375e+08,0.38426,0,1.1375e+08,-4.3313,12261,8553,1,8553,1,-0.00021867,-5.4375e-05,0,2.6749e-06,-0.00035583,-8.8838e+07,-1.0056e+07,0,1.2204e+05,-1.7398e+07,8552,10465,1,10465,1,0.00031532,-7.3972e-10,0,0.00031532,-0.00025572,6.4589e+07,-104.35,0,7.9615e+07,-19.635,10464,14059,1,14059,1,0.0013832,2.1655e-09,0,0.0013832,-5.7002e-05,1.3203e+08,289.75,0,1.3203e+08,185.93,14058,2091.4,0,2091.4,0,0.00063478,1.5159e-05,0,0.00059851,0.00011749,6.1101e+07,2.2962e+06,0,4.1523e+07,1.6962e+06,2091.4,1
5396,5.25,12260,1,12260,1,0.00086578,2.6119e-06,0,0.00089146,-0.0001606,9.0336e+07,3.7193e+05,0,1.0091e+08,-4.5745e+05,12259,15904,1,15904,1,0.0019223,9.9517e-05,0,0.0019223,4.2426e-05,1.5433e+08,1.8603e+07,0,1.5433e+08,30162,15903,12262,1,12262,1,0.00085088,2.1115e-11,0,0.00085088,-0.00015649,1.1397e+08,1.6875,0,1.1397e+08,-4.6859,12261,8553,1,8553,1,-0.00021909,-5.4479e-05,0,2.6798e-06,-0.00035651,-8.9008e+07,-1.0075e+07,0,1.2224e+05,-1.7432e+07,8552,10465,1,10465,1,0.00031592,-6.6396e-10,0,0.00031592,-0.00025621,6.4712e+07,-93.375,0,7.9767e+07,-17.689,10464,14059,1,14059,1,0.0013859,2.2483e-09,0,0.0013859,-5.7111e-05,1.3229e+08,311.35,0,1.3229e+08,185.59,14058,2091.4,0,2091.4,0,0.00063599,1.5188e-05,0,0.00059965,0.00011772,6.1218e+07,2.3006e+06,0,4.1602e+07,1.6994e+06,2091.4,1
5396,5.26,12260,1,12260,1,0.00086743,2.6167e-06,0,0.00089316,-0.0001609,9.0508e+07,3.7262e+05,0,1.011e+08,-4.5832e+05,12259,15904,1,15904,1,0.001926,9.9708e-05,0,0.001926,4.2507e-05,1.5462e+08,1.8639e+07,0,1.5462e+08,30235,15903,12262,1,12262,1,0.0008525,2.5764e-12,0,0.0008525,-0.00015679,1.1418e+08,0.15755,0,1.1418e+08,-4.9023,12261,8553,1,8553,1,-0.0002195,-5.4582e-05,0,2.685e-06,-0.00035719,-8.9177e+07,-1.0095e+07,0,1.2244e+05,-1.7465e+07,8552,10465,1,10465,1,0.00031652,-1.17e-09,0,0.00031652,-0.00025669,6.4835e+07,-167,0,7.9919e+07,-26.259,10464,14059,1,14059,1,0.0013885,1.9834e-09,0,0.0013885,-5.722e-05,1.3254e+08,275.97,0,1.3254e+08,192.11,14058,2091.4,0,2091.4,0,0.0006372,1.5217e-05,0,0.0006008,0.00011794,6.1335e+07,2.305e+06,0,4.1681e+07,1.7027e+06,2091.4,1
5396,5.27,12260,1,12260,1,0.00086908,2.6216e-06,0,0.00089486,-0.00016121,9.068e+07,3.7332e+05,0,1.0129e+08,-4.5919e+05,12259,15904,1,15904,1,0.0019297,9.9896e-05,0,0.0019297,4.2587e-05,1.5492e+08,1.8674e+07,0,1.5492e+08,30296,15903,12262,1,12262,1,0.00085412,-6.457e-11,0,0.00085412,-0.00015709,1.144e+08,-6.8841,0,1.144e+08,-3.778,12261,8553,1,8553,1,-0.00021992,-5.4685e-05,0,2.6904e-06,-0.00035787,-8.9347e+07,-1.0114e+07,0,1.2276e+05,-1.7498e+07,8552,10465,1,10465,1,0.00031712,-9.158e-10,0,0.00031712,-0.00025718,6.4958e+07,-131.79,0,8.0071e+07,-17.504,10464,14059,1,14059,1,0.0013911,1.978e-09,0,0.0013911,-5.7329e-05,1.3279e+08,266.94,0,1.3279e+08,189.52,14058,2091.4,0,2091.4,0,0.00063841,1.5246e-05,0,0.00060194,0.00011817,6.1451e+07,2.3094e+06,0,4.176e+07,1.7059e+06,2091.4,1
5396,5.28,12260,1,12260,1,0.00087073,2.6267e-06,0,0.00089656,-0.00016151,9.0852e+07,3.7404e+05,0,1.0148e+08,-4.6006e+05,12259,15904,1,15904,1,0.0019333,0.00010008,0,0.0019333,4.2668e-05,1.5521e+08,1.8709e+07,0,1.5521e+08,30351,15903,12262,1,12262,1,0.00085574,-3.0524e-11,0,0.00085574,-0.00015738,1.1462e+08,-2.8594,0,1.1462e+08,-4.0524,12261,8553,1,8553,1,-0.00022034,-5.4788e-05,0,2.6957e-06,-0.00035854,-8.9516e+07,-1.0133e+07,0,1.2301e+05,-1.7531e+07,8552,10465,1,10465,1,0.00031772,-7.1738e-10,0,0.00031772,-0.00025767,6.5082e+07,-103.83,0,8.0223e+07,-16.672,10464,14059,1,14059,1,0.0013938,2.0724e-09,0,0.0013938,-5.7437e-05,1.3304e+08,282.03,0,1.3304e+08,189.72,14058,2091.4,0,2091.4,0,0.00063962,1.5275e-05,0,0.00060308,0.00011839,6.1567e+07,2.3138e+06,0,4.184e+07,1.7091e+06,2091.4,1
5396,5.29,12260,1,12260,1,0.00087238,2.6317e-06,0,0.00089826,-0.00016182,9.1024e+07,3.7476e+05,0,1.0168e+08,-4.6093e+05,12259,15904,1,15904,1,0.001937,0.00010027,0,0.001937,4.2749e-05,1.555e+08,1.8745e+07,0,1.555e+08,30403,15903,12262,1,12262,1,0.00085736,6.6326e-11,0,0.00085736,-0.00015768,1.1483e+08,6.9617,0,1.1483e+08,-3.8686,12261,8553,1,8553,1,-0.00022076,-5.4893e-05,0,2.7007e-06,-0.00035922,-8.9685e+07,-1.0152e+07,0,1.2321e+05,-1.7564e+07,8552,10465,1,10465,1,0.00031833,-6.1717e-10,0,0.00031833,-0.00025816,6.5205e+07,-87.073,0,8.0375e+07,-15.908,10464,14059,1,14059,1,0.0013964,2.2421e-09,0,0.0013964,-5.7546e-05,1.3329e+08,307.87,0,1.3329e+08,190.33,14058,2091.4,0,2091.4,0,0.00064083,1.5304e-05,0,0.00060422,0.00011861,6.1684e+07,2.3181e+06,0,4.1919e+07,1.7124e+06,2091.4,1
5396,5.3,12260,1,12260,1,0.00087403,2.6367e-06,0,0.00089995,-0.00016213,9.1196e+07,3.7547e+05,0,1.0187e+08,-4.618e+05,12259,15904,1,15904,1,0.0019407,0.00010046,0,0.0019407,4.283e-05,1.558e+08,1.878e+07,0,1.558e+08,30460,15903,12262,1,12262,1,0.00085898,7.9337e-11,0,0.00085898,-0.00015798,1.1505e+08,7.3325,0,1.1505e+08,-4.0411,12261,8553,1,8553,1,-0.00022117,-5.4996e-05,0,2.7057e-06,-0.0003599,-8.9855e+07,-1.0171e+07,0,1.2341e+05,-1.7597e+07,8552,10465,1,10465,1,0.00031893,-5.7121e-10,0,0.00031893,-0.00025865,6.5328e+07,-81.024,0,8.0527e+07,-15.882,10464,14059,1,14059,1,0.0013991,2.2582e-09,0,0.0013991,-5.7655e-05,1.3355e+08,301.5,0,1.3355e+08,191.53,14058,2091.4,0,2091.4,0,0.00064204,1.5333e-05,0,0.00060536,0.00011884,6.18e+07,2.3225e+06,0,4.1998e+07,1.7156e+06,2091.4,1
5396,5.31,12260,1,12260,1,0.00087568,2.6415e-06,0,0.00090165,-0.00016243,9.1368e+07,3.7615e+05,0,1.0206e+08,-4.6268e+05,12259,15904,1,15904,1,0.0019443,0.00010065,0,0.0019443,4.291e-05,1.5609e+08,1.8816e+07,0,1.5609e+08,30520,15903,12262,1,12262,1,0.0008606,-1.2099e-10,0,0.0008606,-0.00015828,1.1527e+08,-14.059,0,1.1527e+08,-2.7501,12261,8553,1,8553,1,-0.00022159,-5.5099e-05,0,2.7108e-06,-0.00036058,-9.0024e+07,-1.019e+07,0,1.2368e+05,-1.7631e+07,8552,10465,1,10465,1,0.00031953,-7.2438e-10,0,0.00031953,-0.00025913,6.5451e+07,-104.44,0,8.0679e+07,-14.684,10464,14059,1,14059,1,0.0014017,2.0415e-09,0,0.0014017,-5.7764e-05,1.338e+08,275.98,0,1.338e+08,188.99,14058,2091.4,0,2091.4,0,0.00064326,1.5362e-05,0,0.00060651,0.00011906,6.1917e+07,2.3269e+06,0,4.2077e+07,1.7189e+06,2091.4,1
5396,5.32,12260,1,12260,1,0.00087733,2.6467e-06,0,0.00090335,-0.00016274,9.154e+07,3.769e+05,0,1.0225e+08,-4.6355e+05,12259,15904,1,15904,1,0.001948,0.00010084,0,0.001948,4.2991e-05,1.5639e+08,1.8851e+07,0,1.5639e+08,30574,15903,12262,1,12262,1,0.00086222,1.2779e-10,0,0.00086222,-0.00015858,1.1548e+08,13.996,0,1.1548e+08,-3.5381,12261,8553,1,8553,1,-0.00022201,-5.5204e-05,0,2.7159e-06,-0.00036126,-9.0194e+07,-1.021e+07,0,1.2385e+05,-1.7664e+07,8552,10465,1,10465,1,0.00032013,-5.2396e-10,0,0.00032013,-0.00025962,6.5575e+07,-74.658,0,8.0831e+07,-16.652,10464,14059,1,14059,1,0.0014043,2.3161e-09,0,0.0014043,-5.7873e-05,1.3405e+08,320.72,0,1.3405e+08,190.38,14058,2091.4,0,2091.4,0,0.00064447,1.5391e-05,0,0.00060765,0.00011929,6.2034e+07,2.3313e+06,0,4.2157e+07,1.7221e+06,2091.4,1
5396,5.33,12260,1,12260,1,0.00087898,2.6517e-06,0,0.00090505,-0.00016304,9.1712e+07,3.776e+05,0,1.0245e+08,-4.6442e+05,12259,15904,1,15904,1,0.0019516,0.00010103,0,0.0019516,4.3072e-05,1.5668e+08,1.8886e+07,0,1.5668e+08,30623,15903,12262,1,12262,1,0.00086385,1.0734e-11,0,0.00086385,-0.00015887,1.157e+08,0.78397,0,1.157e+08,-4.2236,12261,8553,1,8553,1,-0.00022242,-5.5308e-05,0,2.7206e-06,-0.00036194,-9.0363e+07,-1.0229e+07,0,1.2398e+05,-1.7697e+07,8552,10465,1,10465,1,0.00032074,-7.2158e-10,0,0.00032074,-0.00026011,6.5698e+07,-101.3,0,8.0983e+07,-18.326,10464,14059,1,14059,1,0.001407,2.1998e-09,0,0.001407,-5.7982e-05,1.343e+08,305.78,0,1.343e+08,187.66,14058,2091.4,0,2091.4,0,0.00064568,1.542e-05,0,0.00060879,0.00011951,6.215e+07,2.3357e+06,0,4.2236e+07,1.7253e+06,2091.4,1
5396,5.34,12260,1,12260,1,0.00088063,2.6567e-06,0,0.00090675,-0.00016335,9.1884e+07,3.7831e+05,0,1.0264e+08,-4.6529e+05,12259,15904,1,15904,1,0.0019553,0.00010122,0,0.0019553,4.3153e-05,1.5697e+08,1.8922e+07,0,1.5697e+08,30689,15903,12262,1,12262,1,0.00086547,1.4961e-10,0,0.00086547,-0.00015917,1.1592e+08,16.748,0,1.1592e+08,-3.8159,12261,8553,1,8553,1,-0.00022284,-5.5411e-05,0,2.726e-06,-0.00036262,-9.0533e+07,-1.0248e+07,0,1.2427e+05,-1.773e+07,8552,10465,1,10465,1,0.00032134,-6.6062e-10,0,0.00032134,-0.0002606,6.5822e+07,-93.822,0,8.1135e+07,-20.736,10464,14059,1,14059,1,0.0014096,2.2841e-09,0,0.0014096,-5.8091e-05,1.3456e+08,308.36,0,1.3456e+08,188.95,14058,2091.4,0,2091.4,0,0.00064689,1.5448e-05,0,0.00060993,0.00011974,6.2267e+07,2.34e+06,0,4.2315e+07,1.7286e+06,2091.4,1
5396,5.35,12260,1,12260,1,0.00088228,2.6616e-06,0,0.00090845,-0.00016366,9.2056e+07,3.79e+05,0,1.0283e+08,-4.6616e+05,12259,15904,1,15904,1,0.001959,0.00010141,0,0.001959,4.3233e-05,1.5727e+08,1.8957e+07,0,1.5727e+08,30740,15903,12262,1,12262,1,0.00086709,-5.822e-11,0,0.00086709,-0.00015947,1.1614e+08,-6.2629,0,1.1614e+08,-4.0421,12261,8553,1,8553,1,-0.00022326,-5.5515e-05,0,2.7308e-06,-0.0003633,-9.0702e+07,-1.0267e+07,0,1.244e+05,-1.7763e+07,8552,10465,1,10465,1,0.00032194,-7.708e-10,0,0.00032194,-0.00026109,6.5945e+07,-107.58,0,8.1287e+07,-19.319,10464,14059,1,14059,1,0.0014123,2.1454e-09,0,0.0014123,-5.8199e-05,1.3481e+08,291.32,0,1.3481e+08,188,14058,2091.4,0,2091.4,0,0.0006481,1.5478e-05,0,0.00061108,0.00011996,6.2383e+07,2.3444e+06,0,4.2394e+07,1.7318e+06,2091.4,1
5396,5.36,12260,1,12260,1,0.00088393,2.6665e-06,0,0.00091014,-0.00016396,9.2228e+07,3.797e+05,0,1.0302e+08,-4.6703e+05,12259,15904,1,15904,1,0.0019626,0.0001016,0,0.0019626,4.3314e-05,1.5756e+08,1.8993e+07,0,1.5756e+08,30807,15903,12262,1,12262,1,0.00086871,-1.5618e-10,0,0.00086871,-0.00015977,1.1635e+08,-14.949,0,1.1635e+08,-4.435,12261,8553,1,8553,1,-0.00022367,-5.5618e-05,0,2.7362e-06,-0.00036398,-9.0871e+07,-1.0286e+07,0,1.2467e+05,-1.7797e+07,8552,10465,1,10465,1,0.00032254,-9.513e-10,0,0.00032254,-0.00026157,6.6068e+07,-137.98,0,8.1439e+07,-16.709,10464,14059,1,14059,1,0.0014149,2.127e-09,0,0.0014149,-5.8308e-05,1.3506e+08,291.3,0,1.3506e+08,193.09,14058,2091.4,0,2091.4,0,0.00064931,1.5506e-05,0,0.00061222,0.00012018,6.25e+07,2.3488e+06,0,4.2473e+07,1.735e+06,2091.4,1
5396,5.37,12260,1,12260,1,0.00088557,2.6715e-06,0,0.00091184,-0.00016427,9.24e+07,3.8042e+05,0,1.0321e+08,-4.679e+05,12259,15904,1,15904,1,0.0019663,0.00010179,0,0.0019663,4.3395e-05,1.5786e+08,1.9028e+07,0,1.5786e+08,30869,15903,12262,1,12262,1,0.00087033,7.873e-11,0,0.00087033,-0.00016007,1.1657e+08,7.4197,0,1.1657e+08,-3.1874,12261,8553,1,8553,1,-0.00022409,-5.5721e-05,0,2.7415e-06,-0.00036466,-9.1041e+07,-1.0305e+07,0,1.2497e+05,-1.783e+07,8552,10465,1,10465,1,0.00032314,-5.8295e-10,0,0.00032314,-0.00026206,6.6191e+07,-82.594,0,8.1591e+07,-14.999,10464,14059,1,14059,1,0.0014175,2.2508e-09,0,0.0014175,-5.8417e-05,1.3531e+08,306.45,0,1.3531e+08,194.1,14058,2091.4,0,2091.4,0,0.00065052,1.5535e-05,0,0.00061336,0.00012041,6.2616e+07,2.3532e+06,0,4.2553e+07,1.7383e+06,2091.4,1
5396,5.38,12260,1,12260,1,0.00088722,2.6766e-06,0,0.00091354,-0.00016457,9.2572e+07,3.8114e+05,0,1.0341e+08,-4.6877e+05,12259,15904,1,15904,1,0.00197,0.00010198,0,0.00197,4.3476e-05,1.5815e+08,1.9063e+07,0,1.5815e+08,30920,15903,12262,1,12262,1,0.00087195,1.4536e-10,0,0.00087195,-0.00016036,1.1679e+08,16.097,0,1.1679e+08,-3.7557,12261,8553,1,8553,1,-0.00022451,-5.5825e-05,0,2.7465e-06,-0.00036534,-9.121e+07,-1.0325e+07,0,1.2515e+05,-1.7863e+07,8552,10465,1,10465,1,0.00032375,-5.2267e-10,0,0.00032375,-0.00026255,6.6315e+07,-74.363,0,8.1743e+07,-16.612,10464,14059,1,14059,1,0.0014202,2.3739e-09,0,0.0014202,-5.8526e-05,1.3556e+08,323.07,0,1.3556e+08,194.76,14058,2091.4,0,2091.4,0,0.00065174,1.5564e-05,0,0.0006145,0.00012063,6.2733e+07,2.3575e+06,0,4.2632e+07,1.7415e+06,2091.4,1
5396,5.39,12260,1,12260,1,0.00088887,2.6815e-06,0,0.00091524,-0.00016488,9.2744e+07,3.8184e+05,0,1.036e+08,-4.6964e+05,12259,15904,1,15904,1,0.0019736,0.00010217,0,0.0019736,4.3556e-05,1.5844e+08,1.9099e+07,0,1.5844e+08,30982,15903,12262,1,12262,1,0.00087357,9.5224e-11,0,0.00087357,-0.00016066,1.17e+08,9.3877,0,1.17e+08,-3.741,12261,8553,1,8553,1,-0.00022492,-5.5929e-05,0,2.7518e-06,-0.00036601,-9.1379e+07,-1.0344e+07,0,1.2545e+05,-1.7896e+07,8552,10465,1,10465,1,0.00032435,-5.2407e-10,0,0.00032435,-0.00026304,6.6438e+07,-74.645,0,8.1895e+07,-14.774,10464,14059,1,14059,1,0.0014228,2.3504e-09,0,0.0014228,-5.8635e-05,1.3581e+08,317.02,0,1.3581e+08,193.93,14058,2091.4,0,2091.4,0,0.00065295,1.5593e-05,0,0.00061564,0.00012086,6.2849e+07,2.3619e+06,0,4.2711e+07,1.7447e+06,2091.4,1
5396,5.4,12260,1,12260,1,0.00089052,2.6865e-06,0,0.00091694,-0.00016519,9.2916e+07,3.8255e+05,0,1.0379e+08,-4.7051e+05,12259,15904,1,15904,1,0.0019773,0.00010236,0,0.0019773,4.3637e-05,1.5874e+08,1.9134e+07,0,1.5874e+08,31038,15903,12262,1,12262,1,0.00087519,6.6784e-11,0,0.00087519,-0.00016096,1.1722e+08,6.1371,0,1.1722e+08,-3.2256,12261,8553,1,8553,1,-0.00022534,-5.6032e-05,0,2.7569e-06,-0.00036669,-9.1549e+07,-1.0363e+07,0,1.2565e+05,-1.7929e+07,8552,10465,1,10465,1,0.00032495,-5.9392e-10,0,0.00032495,-0.00026353,6.6561e+07,-84.502,0,8.2047e+07,-14.556,10464,14059,1,14059,1,0.0014255,2.2805e-09,0,0.0014255,-5.8743e-05,1.3607e+08,302.11,0,1.3607e+08,194.59,14058,2091.4,0,2091.4,0,0.00065416,1.5622e-05,0,0.00061679,0.00012108,6.2966e+07,2.3663e+06,0,4.279e+07,1.748e+06,2091.4,1
5396,5.41,12260,1,12260,1,0.00089217,2.6915e-06,0,0.00091863,-0.00016549,9.3088e+07,3.8327e+05,0,1.0398e+08,-4.7138e+05,12259,15904,1,15904,1,0.0019809,0.00010254,0,0.0019809,4.3718e-05,1.5903e+08,1.917e+07,0,1.5903e+08,31091,15903,12262,1,12262,1,0.00087681,1.7689e-10,0,0.00087681,-0.00016126,1.1744e+08,19.976,0,1.1744e+08,-3.3901,12261,8553,1,8553,1,-0.00022576,-5.6136e-05,0,2.7619e-06,-0.00036737,-9.1718e+07,-1.0382e+07,0,1.2584e+05,-1.7963e+07,8552,10465,1,10465,1,0.00032555,-4.5393e-10,0,0.00032555,-0.00026401,6.6684e+07,-63.905,0,8.2199e+07,-15.47,10464,14059,1,14059,1,0.0014281,2.4171e-09,0,0.0014281,-5.8852e-05,1.3632e+08,329.85,0,1.3632e+08,195.58,14058,2091.4,0,2091.4,0,0.00065537,1.5651e-05,0,0.00061793,0.00012131,6.3082e+07,2.3707e+06,0,4.2869e+07,1.7512e+06,2091.4,1
5396,5.42,12260,1,12260,1,0.00089382,2.6965e-06,0,0.00092033,-0.0001658,9.326e+07,3.8397e+05,0,1.0417e+08,-4.7225e+05,12259,15904,1,15904,1,0.0019846,0.00010273,0,0.0019846,4.3799e-05,1.5933e+08,1.9205e+07,0,1.5933e+08,31155,15903,12262,1,12262,1,0.00087843,1.1262e-10,0,0.00087843,-0.00016156,1.1766e+08,10.645,0,1.1766e+08,-4.0317,12261,8553,1,8553,1,-0.00022618,-5.624e-05,0,2.7671e-06,-0.00036805,-9.1888e+07,-1.0401e+07,0,1.2607e+05,-1.7996e+07,8552,10465,1,10465,1,0.00032615,-6.2815e-10,0,0.00032615,-0.0002645,6.6808e+07,-89.608,0,8.2351e+07,-17.94,10464,14059,1,14059,1,0.0014307,2.3388e-09,0,0.0014307,-5.8961e-05,1.3657e+08,319.58,0,1.3657e+08,197.25,14058,2091.4,0,2091.4,0,0.00065658,1.568e-05,0,0.00061907,0.00012153,6.3199e+07,2.3751e+06,0,4.2949e+07,1.7544e+06,2091.4,1
5396,5.43,12260,1,12260,1,0.00089547,2.7013e-06,0,0.00092203,-0.0001661,9.3432e+07,3.8466e+05,0,1.0437e+08,-4.7313e+05,12259,15904,1,15904,1,0.0019883,0.00010292,0,0.0019883,4.3879e-05,1.5962e+08,1.924e+07,0,1.5962e+08,31207,15903,12262,1,12262,1,0.00088005,5.2472e-12,0,0.00088005,-0.00016186,1.1787e+08,0.35487,0,1.1787e+08,-2.8986,12261,8553,1,8553,1,-0.00022659,-5.6343e-05,0,2.7722e-06,-0.00036873,-9.2057e+07,-1.0421e+07,0,1.2631e+05,-1.8029e+07,8552,10465,1,10465,1,0.00032676,-6.5299e-10,0,0.00032676,-0.00026499,6.6931e+07,-94.023,0,8.2503e+07,-13.925,10464,14059,1,14059,1,0.0014334,2.2394e-09,0,0.0014334,-5.907e-05,1.3682e+08,291.91,0,1.3682e+08,196.08,14058,2091.4,0,2091.4,0,0.00065779,1.5709e-05,0,0.00062021,0.00012175,6.3315e+07,2.3794e+06,0,4.3028e+07,1.7577e+06,2091.4,1
5396,5.44,12260,1,12260,1,0.00089712,2.7062e-06,0,0.00092373,-0.00016641,9.3604e+07,3.8536e+05,0,1.0456e+08,-4.7401e+05,12259,15904,1,15904,1,0.0019919,0.00010312,0,0.0019919,4.396e-05,1.5991e+08,1.9276e+07,0,1.5991e+08,31263,15903,12262,1,12262,1,0.00088168,-2.7968e-10,0,0.00088168,-0.00016215,1.1809e+08,-35.633,0,1.1809e+08,-3.0839,12261,8553,1,8553,1,-0.00022701,-5.6448e-05,0,2.7768e-06,-0.00036941,-9.2227e+07,-1.044e+07,0,1.264e+05,-1.8063e+07,8552,10465,1,10465,1,0.00032736,-1.113e-09,0,0.00032736,-0.00026548,6.7055e+07,-158.84,0,8.2655e+07,-21.259,10464,14059,1,14059,1,0.001436,1.923e-09,0,0.001436,-5.9179e-05,1.3708e+08,265.94,0,1.3708e+08,189.37,14058,2091.4,0,2091.4,0,0.00065901,1.5738e-05,0,0.00062136,0.00012198,6.3432e+07,2.3839e+06,0,4.3107e+07,1.7609e+06,2091.4,1
5396,5.45,12260,1,12260,1,0.00089877,2.7113e-06,0,0.00092543,-0.00016672,9.3776e+07,3.8608e+05,0,1.0475e+08,-4.7488e+05,12259,15904,1,15904,1,0.0019956,0.0001033,0,0.0019956,4.4041e-05,1.6021e+08,1.9312e+07,0,1.6021e+08,31314,15903,12262,1,12262,1,0.0008833,-2.9739e-11,0,0.0008833,-0.00016245,1.1831e+08,-2.9215,0,1.1831e+08,-4.0481,12261,8553,1,8553,1,-0.00022743,-5.6551e-05,0,2.782e-06,-0.00037009,-9.2396e+07,-1.0459e+07,0,1.2666e+05,-1.8096e+07,8552,10465,1,10465,1,0.00032796,-8.5507e-10,0,0.00032796,-0.00026597,6.7178e+07,-120.63,0,8.2807e+07,-18.678,10464,14059,1,14059,1,0.0014387,2.1183e-09,0,0.0014387,-5.9288e-05,1.3733e+08,290.4,0,1.3733e+08,192.99,14058,2091.4,0,2091.4,0,0.00066022,1.5767e-05,0,0.0006225,0.0001222,6.3548e+07,2.3882e+06,0,4.3186e+07,1.7642e+06,2091.4,1
5396,5.46,12260,1,12260,1,0.00090042,2.7163e-06,0,0.00092713,-0.00016702,9.3948e+07,3.868e+05,0,1.0494e+08,-4.7575e+05,12259,15904,1,15904,1,0.0019992,0.00010349,0,0.0019992,4.4122e-05,1.605e+08,1.9347e+07,0,1.605e+08,31383,15903,12262,1,12262,1,0.00088492,2.1943e-11,0,0.00088492,-0.00016275,1.1852e+08,2.1424,0,1.1852e+08,-4.0079,12261,8553,1,8553,1,-0.00022784,-5.6654e-05,0,2.7876e-06,-0.00037077,-9.2565e+07,-1.0478e+07,0,1.2697e+05,-1.8129e+07,8552,10465,1,10465,1,0.00032856,-7.1285e-10,0,0.00032856,-0.00026645,6.7301e+07,-102.22,0,8.2959e+07,-16.738,10464,14059,1,14059,1,0.0014413,2.2818e-09,0,0.0014413,-5.9397e-05,1.3758e+08,313.09,0,1.3758e+08,196.72,14058,2091.4,0,2091.4,0,0.00066143,1.5796e-05,0,0.00062364,0.00012243,6.3665e+07,2.3926e+06,0,4.3266e+07,1.7674e+06,2091.4,1
5396,5.47,12260,1,12260,1,0.00090207,2.7214e-06,0,0.00092883,-0.00016733,9.412e+07,3.8752e+05,0,1.0514e+08,-4.7661e+05,12259,15904,1,15904,1,0.0020029,0.00010368,0,0.0020029,4.4202e-05,1.608e+08,1.9382e+07,0,1.608e+08,31443,15903,12262,1,12262,1,0.00088654,1.6816e-10,0,0.00088654,-0.00016305,1.1874e+08,16.333,0,1.1874e+08,-4.3227,12261,8553,1,8553,1,-0.00022826,-5.6758e-05,0,2.7925e-06,-0.00037145,-9.2735e+07,-1.0497e+07,0,1.2715e+05,-1.8162e+07,8552,10465,1,10465,1,0.00032917,-7.939e-10,0,0.00032917,-0.00026694,6.7424e+07,-112.08,0,8.3111e+07,-23.875,10464,14059,1,14059,1,0.0014439,2.305e-09,0,0.0014439,-5.9506e-05,1.3783e+08,326.85,0,1.3783e+08,199.72,14058,2091.4,0,2091.4,0,0.00066264,1.5825e-05,0,0.00062478,0.00012265,6.3781e+07,2.397e+06,0,4.3345e+07,1.7706e+06,2091.4,1
5396,5.48,12260,1,12260,1,0.00090372,2.7262e-06,0,0.00093052,-0.00016763,9.4292e+07,3.882e+05,0,1.0533e+08,-4.7748e+05,12259,15904,1,15904,1,0.0020066,0.00010387,0,0.0020066,4.4283e-05,1.6109e+08,1.9418e+07,0,1.6109e+08,31502,15903,12262,1,12262,1,0.00088816,-4.0067e-11,0,0.00088816,-0.00016335,1.1896e+08,-3.4914,0,1.1896e+08,-4.0153,12261,8553,1,8553,1,-0.00022868,-5.6861e-05,0,2.7978e-06,-0.00037213,-9.2904e+07,-1.0516e+07,0,1.274e+05,-1.8195e+07,8552,10465,1,10465,1,0.00032977,-7.929e-10,0,0.00032977,-0.00026743,6.7547e+07,-114.97,0,8.3263e+07,-17.288,10464,14059,1,14059,1,0.0014466,2.1896e-09,0,0.0014466,-5.9614e-05,1.3808e+08,295.63,0,1.3808e+08,197.65,14058,2091.4,0,2091.4,0,0.00066385,1.5854e-05,0,0.00062592,0.00012287,6.3898e+07,2.4013e+06,0,4.3424e+07,1.7739e+06,2091.4,1
5396,5.49,12260,1,12260,1,0.00090537,2.7314e-06,0,0.00093222,-0.00016794,9.4464e+07,3.8894e+05,0,1.0552e+08,-4.7835e+05,12259,15904,1,15904,1,0.0020102,0.00010406,0,0.0020102,4.4364e-05,1.6138e+08,1.9453e+07,0,1.6138e+08,31560,15903,12262,1,12262,1,0.00088978,2.2377e-10,0,0.00088978,-0.00016364,1.1918e+08,24.65,0,1.1918e+08,-4.3894,12261,8553,1,8553,1,-0.00022909,-5.6966e-05,0,2.8027e-06,-0.00037281,-9.3074e+07,-1.0536e+07,0,1.2759e+05,-1.8228e+07,8552,10465,1,10465,1,0.00033037,-6.7598e-10,0,0.00033037,-0.00026792,6.7671e+07,-95.435,0,8.3415e+07,-23.722,10464,14059,1,14059,1,0.0014492,2.3736e-09,0,0.0014492,-5.9723e-05,1.3834e+08,332.84,0,1.3834e+08,200.08,14058,2091.4,0,2091.4,0,0.00066506,1.5882e-05,0,0.00062707,0.0001231,6.4014e+07,2.4057e+06,0,4.3503e+07,1.7771e+06,2091.4,1
5396,5.5,12260,1,12260,1,0.00090702,2.7362e-06,0,0.00093392,-0.00016825,9.4636e+07,3.8962e+05,0,1.0571e+08,-4.7923e+05,12259,15904,1,15904,1,0.0020139,0.00010425,0,0.0020139,4.4445e-05,1.6168e+08,1.9489e+07,0,1.6168e+08,31608,15903,12262,1,12262,1,0.0008914,3.927e-12,0,0.0008914,-0.00016394,1.1939e+08,0.34563,0,1.1939e+08,-3.3082,12261,8553,1,8553,1,-0.00022951,-5.7069e-05,0,2.8079e-06,-0.00037349,-9.3243e+07,-1.0555e+07,0,1.2783e+05,-1.8261e+07,8552,10465,1,10465,1,0.00033097,-6.9426e-10,0,0.00033097,-0.00026841,6.7794e+07,-100.15,0,8.3567e+07,-15.285,10464,14059,1,14059,1,0.0014519,2.1635e-09,0,0.0014519,-5.9832e-05,1.3859e+08,293.82,0,1.3859e+08,197.34,14058,2091.4,0,2091.4,0,0.00066627,1.5911e-05,0,0.00062821,0.00012332,6.4131e+07,2.4101e+06,0,4.3582e+07,1.7803e+06,2091.4,1
5396,5.51,12260,1,12260,1,0.00090867,2.7412e-06,0,0.00093562,-0.00016855,9.4808e+07,3.9034e+05,0,1.059e+08,-4.801e+05,12259,15904,1,15904,1,0.0020176,0.00010444,0,0.0020176,4.4525e-05,1.6197e+08,1.9524e+07,0,1.6197e+08,31658,15903,12262,1,12262,1,0.00089303,2.2297e-11,0,0.00089303,-0.00016424,1.1961e+08,2.0966,0,1.1961e+08,-4.5076,12261,8553,1,8553,1,-0.00022993,-5.7173e-05,0,2.8127e-06,-0.00037417,-9.3412e+07,-1.0574e+07,0,1.2798e+05,-1.8295e+07,8552,10465,1,10465,1,0.00033157,-7.965e-10,0,0.00033157,-0.0002689,6.7918e+07,-112.53,0,8.3719e+07,-19.631,10464,14059,1,14059,1,0.0014545,2.2201e-09,0,0.0014545,-5.9941e-05,1.3884e+08,298.97,0,1.3884e+08,194.97,14058,2091.4,0,2091.4,0,0.00066749,1.5941e-05,0,0.00062935,0.00012355,6.4248e+07,2.4145e+06,0,4.3662e+07,1.7836e+06,2091.4,1
5396,5.52,12260,1,12260,1,0.00091032,2.7461e-06,0,0.00093732,-0.00016886,9.498e+07,3.9104e+05,0,1.061e+08,-4.8097e+05,12259,15904,1,15904,1,0.0020212,0.00010463,0,0.0020212,4.4606e-05,1.6227e+08,1.9559e+07,0,1.6227e+08,31722,15903,12262,1,12262,1,0.00089464,-4.7268e-12,0,0.00089464,-0.00016454,1.1983e+08,-0.44088,0,1.1983e+08,-3.0933,12261,8553,1,8553,1,-0.00023035,-5.7276e-05,0,2.8182e-06,-0.00037484,-9.3582e+07,-1.0593e+07,0,1.2829e+05,-1.8328e+07,8552,10465,1,10465,1,0.00033218,-5.9378e-10,0,0.00033218,-0.00026938,6.8041e+07,-85.729,0,8.3871e+07,-13.288,10464,14059,1,14059,1,0.0014571,2.3313e-09,0,0.0014571,-6.005e-05,1.3909e+08,297.82,0,1.3909e+08,198.46,14058,2091.4,0,2091.4,0,0.0006687,1.5969e-05,0,0.00063049,0.00012377,6.4364e+07,2.4189e+06,0,4.3741e+07,1.7868e+06,2091.4,1
5396,5.53,12260,1,12260,1,0.00091197,2.7512e-06,0,0.00093902,-0.00016916,9.5152e+07,3.9176e+05,0,1.0629e+08,-4.8184e+05,12259,15904,1,15904,1,0.0020249,0.00010482,0,0.0020249,4.4687e-05,1.6256e+08,1.9595e+07,0,1.6256e+08,31770,15903,12262,1,12262,1,0.00089627,7.3146e-11,0,0.00089627,-0.00016484,1.2004e+08,7.6107,0,1.2004e+08,-3.4184,12261,8553,1,8553,1,-0.00023076,-5.738e-05,0,2.8229e-06,-0.00037552,-9.3751e+07,-1.0613e+07,0,1.2843e+05,-1.8361e+07,8552,10465,1,10465,1,0.00033278,-6.0399e-10,0,0.00033278,-0.00026987,6.8164e+07,-85.314,0,8.4023e+07,-16.691,10464,14059,1,14059,1,0.0014598,2.3578e-09,0,0.0014598,-6.0159e-05,1.3934e+08,322.63,0,1.3934e+08,197.36,14058,2091.4,0,2091.4,0,0.00066991,1.5998e-05,0,0.00063164,0.000124,6.4481e+07,2.4233e+06,0,4.382e+07,1.79e+06,2091.4,1
5396,5.54,12260,1,12260,1,0.00091362,2.756e-06,0,0.00094071,-0.00016947,9.5324e+07,3.9245e+05,0,1.0648e+08,-4.8271e+05,12259,15904,1,15904,1,0.0020285,0.00010501,0,0.0020285,4.4768e-05,1.6285e+08,1.963e+07,0,1.6285e+08,31828,15903,12262,1,12262,1,0.00089789,-5.5238e-11,0,0.00089789,-0.00016514,1.2026e+08,-5.9043,0,1.2026e+08,-4.5855,12261,8553,1,8553,1,-0.00023118,-5.7483e-05,0,2.8279e-06,-0.0003762,-9.3921e+07,-1.0632e+07,0,1.2864e+05,-1.8394e+07,8552,10465,1,10465,1,0.00033338,-8.6024e-10,0,0.00033338,-0.00027036,6.8287e+07,-123.45,0,8.4175e+07,-19.436,10464,14059,1,14059,1,0.0014624,2.144e-09,0,0.0014624,-6.0268e-05,1.396e+08,290.14,0,1.396e+08,194.86,14058,2091.4,0,2091.4,0,0.00067112,1.6027e-05,0,0.00063278,0.00012422,6.4597e+07,2.4276e+06,0,4.3899e+07,1.7933e+06,2091.4,1
5396,5.55,12260,1,12260,1,0.00091527,2.7611e-06,0,0.00094241,-0.00016978,9.5497e+07,3.9317e+05,0,1.0667e+08,-4.8359e+05,12259,15904,1,15904,1,0.0020322,0.0001052,0,0.0020322,4.4848e-05,1.6315e+08,1.9666e+07,0,1.6315e+08,31881,15903,12262,1,12262,1,0.00089951,6.6698e-12,0,0.00089951,-0.00016543,1.2048e+08,0.45013,0,1.2048e+08,-4.2304,12261,8553,1,8553,1,-0.0002316,-5.7588e-05,0,2.8329e-06,-0.00037688,-9.409e+07,-1.0651e+07,0,1.2882e+05,-1.8427e+07,8552,10465,1,10465,1,0.00033398,-7.6033e-10,0,0.00033398,-0.00027085,6.8411e+07,-107.26,0,8.4327e+07,-17.708,10464,14059,1,14059,1,0.0014651,2.2563e-09,0,0.0014651,-6.0376e-05,1.3985e+08,305.74,0,1.3985e+08,197.3,14058,2091.4,0,2091.4,0,0.00067233,1.6056e-05,0,0.00063392,0.00012444,6.4714e+07,2.432e+06,0,4.3979e+07,1.7965e+06,2091.4,1
5396,5.56,12260,1,12260,1,0.00091692,2.766e-06,0,0.00094411,-0.00017008,9.5669e+07,3.9387e+05,0,1.0686e+08,-4.8446e+05,12259,15904,1,15904,1,0.0020359,0.00010539,0,0.0020359,4.4929e-05,1.6344e+08,1.9701e+07,0,1.6344e+08,31949,15903,12262,1,12262,1,0.00090113,-2.806e-11,0,0.00090113,-0.00016573,1.207e+08,-2.7455,0,1.207e+08,-4.3964,12261,8553,1,8553,1,-0.00023201,-5.7691e-05,0,2.8383e-06,-0.00037756,-9.4259e+07,-1.067e+07,0,1.2909e+05,-1.8461e+07,8552,10465,1,10465,1,0.00033458,-8.4947e-10,0,0.00033458,-0.00027134,6.8534e+07,-119.61,0,8.4479e+07,-20.494,10464,14059,1,14059,1,0.0014677,2.2163e-09,0,0.0014677,-6.0485e-05,1.401e+08,298.12,0,1.401e+08,195.14,14058,2091.4,0,2091.4,0,0.00067354,1.6085e-05,0,0.00063506,0.00012467,6.483e+07,2.4364e+06,0,4.4058e+07,1.7997e+06,2091.4,1
5396,5.57,12260,1,12260,1,0.00091857,2.7711e-06,0,0.00094581,-0.00017039,9.5841e+07,3.9459e+05,0,1.0706e+08,-4.8533e+05,12259,15904,1,15904,1,0.0020395,0.00010558,0,0.0020395,4.501e-05,1.6374e+08,1.9737e+07,0,1.6374e+08,32006,15903,12262,1,12262,1,0.00090275,5.0179e-11,0,0.00090275,-0.00016603,1.2091e+08,4.8782,0,1.2091e+08,-5.451,12261,8553,1,8553,1,-0.00023243,-5.7795e-05,0,2.8434e-06,-0.00037824,-9.4429e+07,-1.0689e+07,0,1.2928e+05,-1.8494e+07,8552,10465,1,10465,1,0.00033519,-9.9167e-10,0,0.00033519,-0.00027182,6.8657e+07,-140.79,0,8.4631e+07,-25.157,10464,14059,1,14059,1,0.0014703,2.2406e-09,0,0.0014703,-6.0594e-05,1.4035e+08,306.69,0,1.4035e+08,201.82,14058,2091.4,0,2091.4,0,0.00067475,1.6114e-05,0,0.00063621,0.00012489,6.4947e+07,2.4408e+06,0,4.4137e+07,1.803e+06,2091.4,1
5396,5.58,12260,1,12260,1,0.00092021,2.7759e-06,0,0.00094751,-0.00017069,9.6012e+07,3.9528e+05,0,1.0725e+08,-4.862e+05,12259,15904,1,15904,1,0.0020432,0.00010576,0,0.0020432,4.5091e-05,1.6403e+08,1.9772e+07,0,1.6403e+08,32067,15903,12262,1,12262,1,0.00090437,-3.6671e-11,0,0.00090437,-0.00016633,1.2113e+08,-3.1816,0,1.2113e+08,-4.23,12261,8553,1,8553,1,-0.00023285,-5.7897e-05,0,2.8488e-06,-0.00037892,-9.4598e+07,-1.0708e+07,0,1.2961e+05,-1.8527e+07,8552,10465,1,10465,1,0.00033579,-7.4823e-10,0,0.00033579,-0.00027231,6.878e+07,-108.11,0,8.4783e+07,-15.902,10464,14059,1,14059,1,0.001473,2.2062e-09,0,0.001473,-6.0703e-05,1.406e+08,298.28,0,1.406e+08,200.58,14058,2091.4,0,2091.4,0,0.00067596,1.6143e-05,0,0.00063735,0.00012512,6.5063e+07,2.4451e+06,0,4.4216e+07,1.8062e+06,2091.4,1
5396,5.59,12260,1,12260,1,0.00092186,2.781e-06,0,0.0009492,-0.000171,9.6184e+07,3.96e+05,0,1.0744e+08,-4.8707e+05,12259,15904,1,15904,1,0.0020469,0.00010595,0,0.0020469,4.5171e-05,1.6432e+08,1.9807e+07,0,1.6432e+08,32123,15903,12262,1,12262,1,0.00090599,3.2373e-11,0,0.00090599,-0.00016663,1.2135e+08,3.0614,0,1.2135e+08,-3.9107,12261,8553,1,8553,1,-0.00023326,-5.8001e-05,0,2.8538e-06,-0.0003796,-9.4767e+07,-1.0728e+07,0,1.2981e+05,-1.856e+07,8552,10465,1,10465,1,0.00033639,-7.2666e-10,0,0.00033639,-0.0002728,6.8904e+07,-104.56,0,8.4935e+07,-17.485,10464,14059,1,14059,1,0.0014756,2.249e-09,0,0.0014756,-6.0812e-05,1.4086e+08,302.45,0,1.4086e+08,201.11,14058,2091.4,0,2091.4,0,0.00067718,1.6172e-05,0,0.00063849,0.00012534,6.518e+07,2.4495e+06,0,4.4295e+07,1.8094e+06,2091.4,1
5396,5.6,12260,1,12260,1,0.00092351,2.786e-06,0,0.0009509,-0.00017131,9.6357e+07,3.9671e+05,0,1.0763e+08,-4.8794e+05,12259,15904,1,15904,1,0.0020505,0.00010614,0,0.0020505,4.5252e-05,1.6462e+08,1.9843e+07,0,1.6462e+08,32174,15903,12262,1,12262,1,0.00090762,-1.796e-11,0,0.00090762,-0.00016692,1.2156e+08,-1.6989,0,1.2156e+08,-4.0403,12261,8553,1,8553,1,-0.00023368,-5.8105e-05,0,2.8587e-06,-0.00038028,-9.4937e+07,-1.0747e+07,0,1.2997e+05,-1.8593e+07,8552,10465,1,10465,1,0.00033699,-7.8735e-10,0,0.00033699,-0.00027329,6.9027e+07,-111.55,0,8.5087e+07,-17.038,10464,14059,1,14059,1,0.0014783,2.3625e-09,0,0.0014783,-6.0921e-05,1.4111e+08,315.84,0,1.4111e+08,199.37,14058,2091.4,0,2091.4,0,0.00067839,1.6201e-05,0,0.00063963,0.00012557,6.5296e+07,2.4539e+06,0,4.4375e+07,1.8127e+06,2091.4,1
5396,5.61,12260,1,12260,1,0.00092516,2.791e-06,0,0.0009526,-0.00017161,9.6529e+07,3.9742e+05,0,1.0783e+08,-4.8881e+05,12259,15904,1,15904,1,0.0020542,0.00010633,0,0.0020542,4.5333e-05,1.6491e+08,1.9878e+07,0,1.6491e+08,32227,15903,12262,1,12262,1,0.00090924,1.6864e-12,0,0.00090924,-0.00016722,1.2178e+08,0.17202,0,1.2178e+08,-5.6878,12261,8553,1,8553,1,-0.0002341,-5.8209e-05,0,2.8636e-06,-0.00038096,-9.5106e+07,-1.0766e+07,0,1.3014e+05,-1.8626e+07,8552,10465,1,10465,1,0.0003376,-7.8647e-10,0,0.0003376,-0.00027378,6.9151e+07,-111.61,0,8.5239e+07,-20.37,10464,14059,1,14059,1,0.0014809,2.3613e-09,0,0.0014809,-6.103e-05,1.4136e+08,320,0,1.4136e+08,197.53,14058,2091.4,0,2091.4,0,0.0006796,1.623e-05,0,0.00064078,0.00012579,6.5413e+07,2.4583e+06,0,4.4454e+07,1.8159e+06,2091.4,1
5396,5.62,12260,1,12260,1,0.00092681,2.7959e-06,0,0.0009543,-0.00017192,9.6701e+07,3.9812e+05,0,1.0802e+08,-4.8968e+05,12259,15904,1,15904,1,0.0020578,0.00010652,0,0.0020578,4.5414e-05,1.6521e+08,1.9914e+07,0,1.6521e+08,32287,15903,12262,1,12262,1,0.00091086,8.9326e-11,0,0.00091086,-0.00016752,1.22e+08,8.0698,0,1.22e+08,-4.0014,12261,8553,1,8553,1,-0.00023452,-5.8312e-05,0,2.8689e-06,-0.00038164,-9.5276e+07,-1.0785e+07,0,1.3044e+05,-1.866e+07,8552,10465,1,10465,1,0.0003382,-8.1179e-10,0,0.0003382,-0.00027426,6.9274e+07,-114.92,0,8.5391e+07,-19.235,10464,14059,1,14059,1,0.0014835,2.2685e-09,0,0.0014835,-6.1138e-05,1.4161e+08,309.62,0,1.4161e+08,201.99,14058,2091.4,0,2091.4,0,0.00068081,1.6259e-05,0,0.00064192,0.00012601,6.5529e+07,2.4627e+06,0,4.4533e+07,1.8192e+06,2091.4,1
5396,5.63,12260,1,12260,1,0.00092846,2.8008e-06,0,0.000956,-0.00017222,9.6873e+07,3.9882e+05,0,1.0821e+08,-4.9055e+05,12259,15904,1,15904,1,0.0020615,0.00010671,0,0.0020615,4.5494e-05,1.655e+08,1.9949e+07,0,1.655e+08,32345,15903,12262,1,12262,1,0.00091248,-1.5654e-11,0,0.00091248,-0.00016782,1.2222e+08,-1.2222,0,1.2222e+08,-5.4093,12261,8553,1,8553,1,-0.00023493,-5.8416e-05,0,2.8738e-06,-0.00038232,-9.5445e+07,-1.0804e+07,0,1.3058e+05,-1.8693e+07,8552,10465,1,10465,1,0.0003388,-9.9475e-10,0,0.0003388,-0.00027475,6.9397e+07,-141.54,0,8.5543e+07,-22.223,10464,14059,1,14059,1,0.0014862,2.177e-09,0,0.0014862,-6.1247e-05,1.4186e+08,299.88,0,1.4186e+08,198.17,14058,2091.4,0,2091.4,0,0.00068202,1.6288e-05,0,0.00064306,0.00012624,6.5646e+07,2.4671e+06,0,4.4612e+07,1.8224e+06,2091.4,1
5396,5.64,12260,1,12260,1,0.00093011,2.806e-06,0,0.0009577,-0.00017253,9.7045e+07,3.9955e+05,0,1.084e+08,-4.9142e+05,12259,15904,1,15904,1,0.0020652,0.0001069,0,0.0020652,4.5575e-05,1.6579e+08,1.9984e+07,0,1.6579e+08,32399,15903,12262,1,12262,1,0.0009141,1.9003e-10,0,0.0009141,-0.00016812,1.2243e+08,21.25,0,1.2243e+08,-5.747,12261,8553,1,8553,1,-0.00023535,-5.852e-05,0,2.8789e-06,-0.00038299,-9.5615e+07,-1.0824e+07,0,1.3078e+05,-1.8726e+07,8552,10465,1,10465,1,0.0003394,-7.4945e-10,0,0.0003394,-0.00027524,6.9521e+07,-104.37,0,8.5695e+07,-26.641,10464,14059,1,14059,1,0.0014888,2.3539e-09,0,0.0014888,-6.1356e-05,1.4212e+08,325.41,0,1.4212e+08,195.94,14058,2091.4,0,2091.4,0,0.00068323,1.6317e-05,0,0.0006442,0.00012646,6.5762e+07,2.4714e+06,0,4.4691e+07,1.8256e+06,2091.4,1
5396,5.65,12260,1,12260,1,0.00093176,2.8108e-06,0,0.0009594,-0.00017284,9.7217e+07,4.0024e+05,0,1.0859e+08,-4.923e+05,12259,15904,1,15904,1,0.0020688,0.00010709,0,0.0020688,4.5656e-05,1.6609e+08,2.002e+07,0,1.6609e+08,32449,15903,12262,1,12262,1,0.00091572,-1.7842e-11,0,0.00091572,-0.00016842,1.2265e+08,-1.3289,0,1.2265e+08,-5.8562,12261,8553,1,8553,1,-0.00023577,-5.8624e-05,0,2.8835e-06,-0.00038367,-9.5784e+07,-1.0843e+07,0,1.3089e+05,-1.8759e+07,8552,10465,1,10465,1,0.00034001,-1.2753e-09,0,0.00034001,-0.00027573,6.9644e+07,-179.5,0,8.5847e+07,-27.091,10464,14059,1,14059,1,0.0014915,2.0822e-09,0,0.0014915,-6.1465e-05,1.4237e+08,292.92,0,1.4237e+08,198.96,14058,2091.4,0,2091.4,0,0.00068445,1.6346e-05,0,0.00064535,0.00012669,6.5879e+07,2.4759e+06,0,4.4771e+07,1.8289e+06,2091.4,1
5396,5.66,12260,1,12260,1,0.00093341,2.8159e-06,0,0.00096109,-0.00017314,9.7389e+07,4.0097e+05,0,1.0879e+08,-4.9317e+05,12259,15904,1,15904,1,0.0020725,0.00010728,0,0.0020725,4.5737e-05,1.6638e+08,2.0055e+07,0,1.6638e+08,32522,15903,12262,1,12262,1,0.00091734,1.0759e-10,0,0.00091734,-0.00016871,1.2287e+08,10.682,0,1.2287e+08,-4.5173,12261,8553,1,8553,1,-0.00023618,-5.8727e-05,0,2.8895e-06,-0.00038435,-9.5953e+07,-1.0862e+07,0,1.3134e+05,-1.8792e+07,8552,10465,1,10465,1,0.00034061,-5.7691e-10,0,0.00034061,-0.00027622,6.9767e+07,-81.04,0,8.5999e+07,-17.742,10464,14059,1,14059,1,0.0014941,2.4839e-09,0,0.0014941,-6.1574e-05,1.4262e+08,337.49,0,1.4262e+08,203.43,14058,2091.4,0,2091.4,0,0.00068566,1.6374e-05,0,0.00064649,0.00012691,6.5995e+07,2.4802e+06,0,4.485e+07,1.8321e+06,2091.4,1
5396,5.67,12260,1,12260,1,0.00093506,2.8208e-06,0,0.00096279,-0.00017345,9.7561e+07,4.0167e+05,0,1.0898e+08,-4.9403e+05,12259,15904,1,15904,1,0.0020762,0.00010747,0,0.0020762,4.5817e-05,1.6668e+08,2.0091e+07,0,1.6668e+08,32586,15903,12262,1,12262,1,0.00091896,4.6769e-11,0,0.00091896,-0.00016901,1.2308e+08,4.4412,0,1.2308e+08,-3.9809,12261,8553,1,8553,1,-0.0002366,-5.883e-05,0,2.8946e-06,-0.00038503,-9.6123e+07,-1.0881e+07,0,1.3156e+05,-1.8825e+07,8552,10465,1,10465,1,0.00034121,-7.9411e-10,0,0.00034121,-0.0002767,6.989e+07,-113.02,0,8.6151e+07,-19.174,10464,14059,1,14059,1,0.0014967,2.3127e-09,0,0.0014967,-6.1683e-05,1.4287e+08,316.7,0,1.4287e+08,206.62,14058,2091.4,0,2091.4,0,0.00068687,1.6403e-05,0,0.00064763,0.00012714,6.6112e+07,2.4846e+06,0,4.4929e+07,1.8353e+06,2091.4,1
5396,5.68,12260,1,12260,1,0.00093671,2.8258e-06,0,0.00096449,-0.00017375,9.7733e+07,4.0237e+05,0,1.0917e+08,-4.9491e+05,12259,15904,1,15904,1,0.0020798,0.00010766,0,0.0020798,4.5898e-05,1.6697e+08,2.0126e+07,0,1.6697e+08,32628,15903,12262,1,12262,1,0.00092059,-9.4308e-12,0,0.00092059,-0.00016931,1.233e+08,-0.90673,0,1.233e+08,-4.7822,12261,8553,1,8553,1,-0.00023702,-5.8935e-05,0,2.8994e-06,-0.00038571,-9.6292e+07,-1.09e+07,0,1.3168e+05,-1.8859e+07,8552,10465,1,10465,1,0.00034181,-8.8705e-10,0,0.00034181,-0.00027719,7.0014e+07,-125.78,0,8.6303e+07,-20.419,10464,14059,1,14059,1,0.0014994,2.2699e-09,0,0.0014994,-6.1792e-05,1.4312e+08,305.37,0,1.4312e+08,201.36,14058,2091.4,0,2091.4,0,0.00068808,1.6433e-05,0,0.00064877,0.00012736,6.6228e+07,2.489e+06,0,4.5008e+07,1.8386e+06,2091.4,1
5396,5.69,12260,1,12260,1,0.00093836,2.8308e-06,0,0.00096619,-0.00017406,9.7905e+07,4.0309e+05,0,1.0936e+08,-4.9578e+05,12259,15904,1,15904,1,0.0020835,0.00010785,0,0.0020835,4.5979e-05,1.6726e+08,2.0162e+07,0,1.6726e+08,32684,15903,12262,1,12262,1,0.00092221,6.7812e-11,0,0.00092221,-0.00016961,1.2352e+08,6.6184,0,1.2352e+08,-3.9594,12261,8553,1,8553,1,-0.00023743,-5.9038e-05,0,2.9045e-06,-0.00038639,-9.6461e+07,-1.092e+07,0,1.3189e+05,-1.8892e+07,8552,10465,1,10465,1,0.00034241,-8.0007e-10,0,0.00034241,-0.00027768,7.0137e+07,-112.68,0,8.6455e+07,-21.118,10464,14059,1,14059,1,0.001502,2.315e-09,0,0.001502,-6.19e-05,1.4338e+08,308.7,0,1.4338e+08,202.04,14058,2091.4,0,2091.4,0,0.00068929,1.6462e-05,0,0.00064992,0.00012758,6.6345e+07,2.4934e+06,0,4.5087e+07,1.8418e+06,2091.4,1
5396,5.7,12260,1,12260,1,0.00094001,2.8356e-06,0,0.00096789,-0.00017437,9.8077e+07,4.0377e+05,0,1.0955e+08,-4.9665e+05,12259,15904,1,15904,1,0.0020871,0.00010804,0,0.0020871,4.606e-05,1.6756e+08,2.0197e+07,0,1.6756e+08,32752,15903,12262,1,12262,1,0.00092383,-5.773e-11,0,0.00092383,-0.00016991,1.2374e+08,-5.9065,0,1.2374e+08,-3.7983,12261,8553,1,8553,1,-0.00023785,-5.9141e-05,0,2.9099e-06,-0.00038707,-9.6631e+07,-1.0939e+07,0,1.3223e+05,-1.8925e+07,8552,10465,1,10465,1,0.00034301,-8.35e-10,0,0.00034301,-0.00027817,7.026e+07,-120.53,0,8.6607e+07,-15.916,10464,14059,1,14059,1,0.0015047,2.2144e-09,0,0.0015047,-6.2009e-05,1.4363e+08,297.99,0,1.4363e+08,205.34,14058,2091.4,0,2091.4,0,0.0006905,1.649e-05,0,0.00065106,0.00012781,6.6461e+07,2.4977e+06,0,4.5167e+07,1.845e+06,2091.4,1
5396,5.71,12260,1,12260,1,0.00094166,2.8409e-06,0,0.00096959,-0.00017467,9.8249e+07,4.0453e+05,0,1.0975e+08,-4.9752e+05,12259,15904,1,15904,1,0.0020908,0.00010823,0,0.0020908,4.614e-05,1.6785e+08,2.0232e+07,0,1.6785e+08,32808,15903,12262,1,12262,1,0.00092545,2.4741e-10,0,0.00092545,-0.0001702,1.2395e+08,27.902,0,1.2395e+08,-4.9758,12261,8553,1,8553,1,-0.00023827,-5.9246e-05,0,2.9147e-06,-0.00038775,-9.68e+07,-1.0958e+07,0,1.3232e+05,-1.8958e+07,8552,10465,1,10465,1,0.00034362,-7.2604e-10,0,0.00034362,-0.00027866,7.0384e+07,-101.97,0,8.6759e+07,-23.572,10464,14059,1,14059,1,0.0015073,2.5391e-09,0,0.0015073,-6.2118e-05,1.4388e+08,349.67,0,1.4388e+08,207.9,14058,2091.4,0,2091.4,0,0.00069171,1.6519e-05,0,0.0006522,0.00012803,6.6578e+07,2.5021e+06,0,4.5246e+07,1.8483e+06,2091.4,1
5396,5.72,12260,1,12260,1,0.00094331,2.8457e-06,0,0.00097128,-0.00017498,9.8421e+07,4.0521e+05,0,1.0994e+08,-4.9839e+05,12259,15904,1,15904,1,0.0020945,0.00010841,0,0.0020945,4.6221e-05,1.6815e+08,2.0268e+07,0,1.6815e+08,32866,15903,12262,1,12262,1,0.00092707,6.3108e-11,0,0.00092707,-0.0001705,1.2417e+08,6.6384,0,1.2417e+08,-3.6553,12261,8553,1,8553,1,-0.00023868,-5.9348e-05,0,2.9202e-06,-0.00038843,-9.6969e+07,-1.0977e+07,0,1.3267e+05,-1.8991e+07,8552,10465,1,10465,1,0.00034422,-7.1612e-10,0,0.00034422,-0.00027915,7.0507e+07,-101.46,0,8.6911e+07,-19.281,10464,14059,1,14059,1,0.0015099,2.3764e-09,0,0.0015099,-6.2227e-05,1.4413e+08,321.14,0,1.4413e+08,207.87,14058,2091.4,0,2091.4,0,0.00069292,1.6548e-05,0,0.00065334,0.00012826,6.6694e+07,2.5065e+06,0,4.5325e+07,1.8515e+06,2091.4,1
5396,5.73,12260,1,12260,1,0.00094496,2.8507e-06,0,0.00097298,-0.00017528,9.8593e+07,4.0591e+05,0,1.1013e+08,-4.9926e+05,12259,15904,1,15904,1,0.0020981,0.0001086,0,0.0020981,4.6302e-05,1.6844e+08,2.0303e+07,0,1.6844e+08,32922,15903,12262,1,12262,1,0.00092869,2.5936e-11,0,0.00092869,-0.0001708,1.2439e+08,2.4085,0,1.2439e+08,-4.1715,12261,8553,1,8553,1,-0.0002391,-5.9452e-05,0,2.9252e-06,-0.00038911,-9.7139e+07,-1.0996e+07,0,1.3286e+05,-1.9025e+07,8552,10465,1,10465,1,0.00034482,-7.568e-10,0,0.00034482,-0.00027963,7.063e+07,-108.03,0,8.7063e+07,-19.311,10464,14059,1,14059,1,0.0015126,2.3524e-09,0,0.0015126,-6.2336e-05,1.4438e+08,320.17,0,1.4438e+08,206.37,14058,2091.4,0,2091.4,0,0.00069414,1.6577e-05,0,0.00065448,0.00012848,6.6811e+07,2.5108e+06,0,4.5404e+07,1.8547e+06,2091.4,1
5396,5.74,12260,1,12260,1,0.00094661,2.8559e-06,0,0.00097468,-0.00017559,9.8765e+07,4.0665e+05,0,1.1032e+08,-5.0014e+05,12259,15904,1,15904,1,0.0021018,0.00010879,0,0.0021018,4.6383e-05,1.6873e+08,2.0339e+07,0,1.6873e+08,32973,15903,12262,1,12262,1,0.00093031,3.0942e-10,0,0.00093031,-0.0001711,1.246e+08,33.665,0,1.246e+08,-7.6597,12261,8553,1,8553,1,-0.00023952,-5.9557e-05,0,2.9301e-06,-0.00038979,-9.7308e+07,-1.1016e+07,0,1.3297e+05,-1.9058e+07,8552,10465,1,10465,1,0.00034542,-8.7949e-10,0,0.00034542,-0.00028012,7.0754e+07,-121.8,0,8.7215e+07,-32.543,10464,14059,1,14059,1,0.0015152,2.5042e-09,0,0.0015152,-6.2445e-05,1.4464e+08,336.01,0,1.4464e+08,201.48,14058,2091.4,0,2091.4,0,0.00069535,1.6606e-05,0,0.00065563,0.00012871,6.6928e+07,2.5152e+06,0,4.5484e+07,1.858e+06,2091.4,1
5396,5.75,12260,1,12260,1,0.00094826,2.8607e-06,0,0.00097638,-0.0001759,9.8937e+07,4.0734e+05,0,1.1051e+08,-5.01e+05,12259,15904,1,15904,1,0.0021054,0.00010898,0,0.0021054,4.6463e-05,1.6903e+08,2.0374e+07,0,1.6903e+08,33035,15903,12262,1,12262,1,0.00093193,1.4295e-10,0,0.00093193,-0.0001714,1.2482e+08,14.225,0,1.2482e+08,-4.4678,12261,8553,1,8553,1,-0.00023994,-5.966e-05,0,2.9353e-06,-0.00039046,-9.7478e+07,-1.1035e+07,0,1.3325e+05,-1.9091e+07,8552,10465,1,10465,1,0.00034603,-7.1912e-10,0,0.00034603,-0.00028061,7.0877e+07,-102.01,0,8.7367e+07,-20.885,10464,14059,1,14059,1,0.0015179,2.4132e-09,0,0.0015179,-6.2554e-05,1.4489e+08,333.43,0,1.4489e+08,208.41,14058,2091.4,0,2091.4,0,0.00069656,1.6635e-05,0,0.00065677,0.00012893,6.7044e+07,2.5196e+06,0,4.5563e+07,1.8612e+06,2091.4,1
5396,5.76,12260,1,12260,1,0.00094991,2.8658e-06,0,0.00097808,-0.0001762,9.9109e+07,4.0806e+05,0,1.1071e+08,-5.0188e+05,12259,15904,1,15904,1,0.0021091,0.00010917,0,0.0021091,4.6544e-05,1.6932e+08,2.0409e+07,0,1.6932e+08,33091,15903,12262,1,12262,1,0.00093355,2.2292e-10,0,0.00093355,-0.0001717,1.2504e+08,26.122,0,1.2504e+08,-4.6688,12261,8553,1,8553,1,-0.00024035,-5.9763e-05,0,2.9404e-06,-0.00039114,-9.7647e+07,-1.1054e+07,0,1.335e+05,-1.9124e+07,8552,10465,1,10465,1,0.00034663,-4.8285e-10,0,0.00034663,-0.0002811,7.1e+07,-67.633,0,8.7519e+07,-21.537,10464,14059,1,14059,1,0.0015205,2.5389e-09,0,0.0015205,-6.2662e-05,1.4514e+08,345.6,0,1.4514e+08,200.98,14058,2091.4,0,2091.4,0,0.00069777,1.6664e-05,0,0.00065791,0.00012915,6.716e+07,2.524e+06,0,4.5642e+07,1.8644e+06,2091.4,1
5396,5.77,12260,1,12260,1,0.00095156,2.8707e-06,0,0.00097978,-0.00017651,9.9281e+07,4.0876e+05,0,1.109e+08,-5.0275e+05,12259,15904,1,15904,1,0.0021128,0.00010936,0,0.0021128,4.6625e-05,1.6962e+08,2.0445e+07,0,1.6962e+08,33140,15903,12262,1,12262,1,0.00093518,1.1712e-10,0,0.00093518,-0.00017199,1.2526e+08,12.926,0,1.2526e+08,-3.5223,12261,8553,1,8553,1,-0.00024077,-5.9867e-05,0,2.9455e-06,-0.00039182,-9.7817e+07,-1.1073e+07,0,1.3373e+05,-1.9158e+07,8552,10465,1,10465,1,0.00034723,-5.4829e-10,0,0.00034723,-0.00028159,7.1123e+07,-77.07,0,8.7671e+07,-18.962,10464,14059,1,14059,1,0.0015231,2.5155e-09,0,0.0015231,-6.2771e-05,1.4539e+08,341.3,0,1.4539e+08,202.15,14058,2091.4,0,2091.4,0,0.00069898,1.6693e-05,0,0.00065905,0.00012938,6.7277e+07,2.5284e+06,0,4.5721e+07,1.8677e+06,2091.4,1
5396,5.78,12260,1,12260,1,0.00095321,2.8756e-06,0,0.00098147,-0.00017681,9.9453e+07,4.0945e+05,0,1.1109e+08,-5.0362e+05,12259,15904,1,15904,1,0.0021164,0.00010955,0,0.0021164,4.6705e-05,1.6991e+08,2.048e+07,0,1.6991e+08,33205,15903,12262,1,12262,1,0.0009368,-4.116e-12,0,0.0009368,-0.00017229,1.2547e+08,-0.33797,0,1.2547e+08,-4.6815,12261,8553,1,8553,1,-0.00024119,-5.997e-05,0,2.9507e-06,-0.0003925,-9.7986e+07,-1.1092e+07,0,1.3398e+05,-1.919e+07,8552,10465,1,10465,1,0.00034783,-7.2753e-10,0,0.00034783,-0.00028207,7.1247e+07,-103.61,0,8.7823e+07,-18.537,10464,14059,1,14059,1,0.0015258,2.4752e-09,0,0.0015258,-6.288e-05,1.4564e+08,335.49,0,1.4564e+08,206.53,14058,2091.4,0,2091.4,0,0.00070019,1.6722e-05,0,0.0006602,0.0001296,6.7393e+07,2.5327e+06,0,4.58e+07,1.8709e+06,2091.4,1
5396,5.79,12260,1,12260,1,0.00095486,2.8805e-06,0,0.00098317,-0.00017712,9.9625e+07,4.1016e+05,0,1.1128e+08,-5.0449e+05,12259,15904,1,15904,1,0.0021201,0.00010974,0,0.0021201,4.6786e-05,1.702e+08,2.0516e+07,0,1.702e+08,33254,15903,12262,1,12262,1,0.00093842,-2.578e-11,0,0.00093842,-0.00017259,1.2569e+08,-2.4041,0,1.2569e+08,-3.7459,12261,8553,1,8553,1,-0.0002416,-6.0074e-05,0,2.9556e-06,-0.00039318,-9.8155e+07,-1.1111e+07,0,1.3415e+05,-1.9224e+07,8552,10465,1,10465,1,0.00034843,-7.3236e-10,0,0.00034843,-0.00028256,7.137e+07,-104.43,0,8.7975e+07,-16.833,10464,14059,1,14059,1,0.0015284,2.3489e-09,0,0.0015284,-6.2989e-05,1.459e+08,312.89,0,1.459e+08,206.88,14058,2091.4,0,2091.4,0,0.00070141,1.6751e-05,0,0.00066134,0.00012983,6.751e+07,2.5371e+06,0,4.588e+07,1.8742e+06,2091.4,1
5396,5.8,12260,1,12260,1,0.0009565,2.8855e-06,0,0.00098487,-0.00017742,9.9797e+07,4.1086e+05,0,1.1148e+08,-5.0536e+05,12259,15904,1,15904,1,0.0021238,0.00010993,0,0.0021238,4.6867e-05,1.705e+08,2.0551e+07,0,1.705e+08,33330,15903,12262,1,12262,1,0.00094004,1.3383e-11,0,0.00094004,-0.00017289,1.2591e+08,1.0802,0,1.2591e+08,-3.5995,12261,8553,1,8553,1,-0.00024202,-6.0177e-05,0,2.9612e-06,-0.00039386,-9.8324e+07,-1.1131e+07,0,1.3449e+05,-1.9257e+07,8552,10465,1,10465,1,0.00034904,-7.9659e-10,0,0.00034904,-0.00028305,7.1493e+07,-114.94,0,8.8127e+07,-17.612,10464,14059,1,14059,1,0.0015311,2.3085e-09,0,0.0015311,-6.3098e-05,1.4615e+08,312.06,0,1.4615e+08,209.56,14058,2091.4,0,2091.4,0,0.00070262,1.678e-05,0,0.00066248,0.00013005,6.7626e+07,2.5415e+06,0,4.5959e+07,1.8774e+06,2091.4,1
5396,5.81,12260,1,12260,1,0.00095816,2.8905e-06,0,0.00098657,-0.00017773,9.9969e+07,4.1158e+05,0,1.1167e+08,-5.0623e+05,12259,15904,1,15904,1,0.0021274,0.00011012,0,0.0021274,4.6948e-05,1.7079e+08,2.0587e+07,0,1.7079e+08,33378,15903,12262,1,12262,1,0.00094166,2.5991e-11,0,0.00094166,-0.00017319,1.2612e+08,2.5266,0,1.2612e+08,-6.1127,12261,8553,1,8553,1,-0.00024244,-6.0281e-05,0,2.966e-06,-0.00039454,-9.8494e+07,-1.115e+07,0,1.3463e+05,-1.929e+07,8552,10465,1,10465,1,0.00034964,-7.9006e-10,0,0.00034964,-0.00028354,7.1617e+07,-112.02,0,8.8279e+07,-21.649,10464,14059,1,14059,1,0.0015337,2.4668e-09,0,0.0015337,-6.3207e-05,1.464e+08,332.36,0,1.464e+08,206.24,14058,2091.4,0,2091.4,0,0.00070383,1.6809e-05,0,0.00066362,0.00013027,6.7743e+07,2.5459e+06,0,4.6038e+07,1.8806e+06,2091.4,1
5396,5.82,12260,1,12260,1,0.00095981,2.8955e-06,0,0.00098827,-0.00017804,1.0014e+08,4.1229e+05,0,1.1186e+08,-5.0711e+05,12259,15904,1,15904,1,0.0021311,0.00011031,0,0.0021311,4.7028e-05,1.7108e+08,2.0622e+07,0,1.7108e+08,33463,15903,12262,1,12262,1,0.00094329,2.1592e-10,0,0.00094329,-0.00017348,1.2634e+08,20.002,0,1.2634e+08,-7.2309,12261,8553,1,8553,1,-0.00024285,-6.0386e-05,0,2.9706e-06,-0.00039522,-9.8663e+07,-1.1169e+07,0,1.3466e+05,-1.9323e+07,8552,10465,1,10465,1,0.00035024,-1.3857e-09,0,0.00035024,-0.00028403,7.174e+07,-195.21,0,8.8431e+07,-34.038,10464,14059,1,14059,1,0.0015363,2.1172e-09,0,0.0015364,-6.3316e-05,1.4665e+08,301.49,0,1.4665e+08,200.77,14058,2091.4,0,2091.4,0,0.00070504,1.6838e-05,0,0.00066477,0.0001305,6.786e+07,2.5503e+06,0,4.6117e+07,1.8839e+06,2091.4,1
5396,5.83,12260,1,12260,1,0.00096146,2.9006e-06,0,0.00098997,-0.00017834,1.0031e+08,4.1301e+05,0,1.1205e+08,-5.0797e+05,12259,15904,1,15904,1,0.0021348,0.0001105,0,0.0021348,4.7109e-05,1.7137e+08,2.0658e+07,0,1.7137e+08,33544,15903,12262,1,12262,1,0.00094491,2.805e-10,0,0.00094491,-0.00017378,1.2656e+08,26.333,0,1.2656e+08,-7.7405,12261,8553,1,8553,1,-0.00024327,-6.0488e-05,0,2.9752e-06,-0.0003959,-9.8832e+07,-1.1188e+07,0,1.3475e+05,-1.9356e+07,8552,10465,1,10465,1,0.00035085,-1.3643e-09,0,0.00035085,-0.00028452,7.1864e+07,-191.63,0,8.8584e+07,-37.925,10464,14059,1,14059,1,0.001539,2.171e-09,0,0.001539,-6.3425e-05,1.4691e+08,310.54,0,1.4691e+08,205.83,14058,2091.4,0,2091.4,0,0.00070625,1.6867e-05,0,0.00066591,0.00013072,6.7976e+07,2.5547e+06,0,4.6196e+07,1.8871e+06,2091.4,1
5396,5.84,12260,1,12260,1,0.00096311,2.9053e-06,0,0.00099167,-0.00017865,1.0048e+08,4.1369e+05,0,1.1224e+08,-5.0885e+05,12259,15904,1,15904,1,0.0021384,0.00011069,0,0.0021384,4.719e-05,1.7166e+08,2.0693e+07,0,1.7166e+08,33589,15903,12262,1,12262,1,0.00094653,4.39e-11,0,0.00094653,-0.00017408,1.2678e+08,3.5455,0,1.2678e+08,-7.7956,12261,8553,1,8553,1,-0.00024369,-6.0591e-05,0,2.9797e-06,-0.00039658,-9.9001e+07,-1.1208e+07,0,1.3479e+05,-1.939e+07,8552,10465,1,10465,1,0.00035145,-1.7365e-09,0,0.00035145,-0.000285,7.1987e+07,-249.85,0,8.8736e+07,-40.794,10464,14059,1,14059,1,0.0015416,2.0183e-09,0,0.0015416,-6.3534e-05,1.4716e+08,279.23,0,1.4716e+08,203.67,14058,2091.4,0,2091.4,0,0.00070746,1.6895e-05,0,0.00066705,0.00013095,6.8092e+07,2.5591e+06,0,4.6275e+07,1.8904e+06,2091.4,1
5396,5.85,12260,1,12260,1,0.00096476,2.9104e-06,0,0.00099337,-0.00017896,1.0066e+08,4.1441e+05,0,1.1244e+08,-5.097e+05,12259,15904,1,15904,1,0.0021421,0.00011087,0,0.0021421,4.727e-05,1.7195e+08,2.0728e+07,0,1.7195e+08,33649,15903,12262,1,12262,1,0.00094815,2.2715e-10,0,0.00094815,-0.00017438,1.2699e+08,23.865,0,1.2699e+08,-6.956,12261,8553,1,8553,1,-0.0002441,-6.0695e-05,0,2.9839e-06,-0.00039726,-9.917e+07,-1.1227e+07,0,1.3476e+05,-1.9423e+07,8552,10465,1,10465,1,0.00035205,-1.062e-09,0,0.00035205,-0.00028549,7.2111e+07,-144.71,0,8.8888e+07,-28.739,10464,14059,1,14059,1,0.0015443,2.4092e-09,0,0.0015443,-6.3643e-05,1.4741e+08,343.26,0,1.4741e+08,194.2,14058,2091.4,0,2091.4,0,0.00070868,1.6924e-05,0,0.0006682,0.00013117,6.8208e+07,2.5634e+06,0,4.6354e+07,1.8936e+06,2091.4,1
5396,5.86,12260,1,12260,1,0.00096641,2.9156e-06,0,0.00099507,-0.00017926,1.0083e+08,4.1515e+05,0,1.1263e+08,-5.1057e+05,12259,15904,1,15904,1,0.0021458,0.00011106,0,0.0021458,4.7351e-05,1.7224e+08,2.0764e+07,0,1.7224e+08,33730,15903,12262,1,12262,1,0.00094978,4.4584e-10,0,0.00094978,-0.00017468,1.2721e+08,47.498,0,1.2721e+08,-4.8968,12261,8553,1,8553,1,-0.00024452,-6.0798e-05,0,2.9891e-06,-0.00039794,-9.934e+07,-1.1246e+07,0,1.3495e+05,-1.9456e+07,8552,10465,1,10465,1,0.00035266,-9.991e-10,0,0.00035266,-0.00028598,7.2234e+07,-140.26,0,8.904e+07,-30.171,10464,14059,1,14059,1,0.0015469,2.5401e-09,0,0.0015469,-6.3752e-05,1.4766e+08,362.72,0,1.4766e+08,205.94,14058,2091.4,0,2091.4,0,0.00070989,1.6953e-05,0,0.00066934,0.0001314,6.8324e+07,2.5677e+06,0,4.6433e+07,1.8968e+06,2091.4,1
5396,5.87,12260,1,12260,1,0.00096806,2.9202e-06,0,0.00099677,-0.00017957,1.01e+08,4.1582e+05,0,1.1282e+08,-5.1144e+05,12259,15904,1,15904,1,0.0021494,0.00011125,0,0.0021494,4.7431e-05,1.7252e+08,2.0799e+07,0,1.7252e+08,33779,15903,12262,1,12262,1,0.0009514,4.5596e-11,0,0.0009514,-0.00017498,1.2743e+08,5.1516,0,1.2743e+08,-5.3967,12261,8553,1,8553,1,-0.00024493,-6.0901e-05,0,2.994e-06,-0.00039862,-9.9509e+07,-1.1265e+07,0,1.3504e+05,-1.949e+07,8552,10465,1,10465,1,0.00035326,-1.2967e-09,0,0.00035326,-0.00028647,7.2358e+07,-187.09,0,8.9193e+07,-26.405,10464,14059,1,14059,1,0.0015496,2.2159e-09,0,0.0015496,-6.3861e-05,1.4791e+08,302.54,0,1.4791e+08,207.94,14058,2091.4,0,2091.4,0,0.0007111,1.6982e-05,0,0.00067048,0.00013162,6.8441e+07,2.5722e+06,0,4.6512e+07,1.9001e+06,2091.4,1
5396,5.88,12260,1,12260,1,0.00096971,2.9253e-06,0,0.00099847,-0.00017987,1.0117e+08,4.1654e+05,0,1.1301e+08,-5.1231e+05,12259,15904,1,15904,1,0.0021531,0.00011144,0,0.0021531,4.7512e-05,1.7281e+08,2.0835e+07,0,1.7281e+08,33844,15903,12262,1,12262,1,0.00095302,1.6847e-10,0,0.00095302,-0.00017528,1.2765e+08,15.917,0,1.2765e+08,-5.3314,12261,8553,1,8553,1,-0.00024535,-6.1004e-05,0,2.9988e-06,-0.0003993,-9.9678e+07,-1.1285e+07,0,1.3513e+05,-1.9523e+07,8552,10465,1,10465,1,0.00035386,-9.8578e-10,0,0.00035386,-0.00028696,7.2481e+07,-140.79,0,8.9345e+07,-25.905,10464,14059,1,14059,1,0.0015522,2.3103e-09,0,0.0015522,-6.397e-05,1.4817e+08,310.57,0,1.4817e+08,204.46,14058,2091.4,0,2091.4,0,0.00071231,1.701e-05,0,0.00067162,0.00013184,6.8557e+07,2.5765e+06,0,4.6591e+07,1.9033e+06,2091.4,1
5396,5.89,12260,1,12260,1,0.00097136,2.9301e-06,0,0.0010002,-0.00018018,1.0134e+08,4.1723e+05,0,1.132e+08,-5.1317e+05,12259,15904,1,15904,1,0.0021567,0.00011163,0,0.0021567,4.7592e-05,1.731e+08,2.087e+07,0,1.731e+08,33913,15903,12262,1,12262,1,0.00095464,2.5119e-10,0,0.00095464,-0.00017557,1.2786e+08,25.402,0,1.2786e+08,-4.8006,12261,8553,1,8553,1,-0.00024577,-6.1107e-05,0,3.0035e-06,-0.00039998,-9.9847e+07,-1.1304e+07,0,1.352e+05,-1.9556e+07,8552,10465,1,10465,1,0.00035446,-1.248e-09,0,0.00035446,-0.00028745,7.2605e+07,-173.9,0,8.9497e+07,-28.767,10464,14059,1,14059,1,0.0015548,2.1601e-09,0,0.0015548,-6.4079e-05,1.4842e+08,306.16,0,1.4842e+08,201.55,14058,2091.4,0,2091.4,0,0.00071352,1.7039e-05,0,0.00067277,0.00013207,6.8673e+07,2.5809e+06,0,4.667e+07,1.9066e+06,2091.4,1
5396,5.9,12260,1,12260,1,0.00097301,2.9351e-06,0,0.0010019,-0.00018049,1.0152e+08,4.1793e+05,0,1.134e+08,-5.1403e+05,12259,15904,1,15904,1,0.0021604,0.00011182,0,0.0021604,4.7673e-05,1.7339e+08,2.0906e+07,0,1.7339e+08,33981,15903,12262,1,12262,1,0.00095627,1.4771e-10,0,0.00095627,-0.00017587,1.2808e+08,13.828,0,1.2808e+08,-6.1094,12261,8553,1,8553,1,-0.00024618,-6.1212e-05,0,3.0085e-06,-0.00040066,-1.0002e+08,-1.1323e+07,0,1.3528e+05,-1.9589e+07,8552,10465,1,10465,1,0.00035507,-1.2799e-09,0,0.00035507,-0.00028793,7.2728e+07,-180.72,0,8.9649e+07,-29.01,10464,14059,1,14059,1,0.0015575,2.1474e-09,0,0.0015575,-6.4189e-05,1.4867e+08,305.2,0,1.4867e+08,201.17,14058,2091.4,0,2091.4,0,0.00071474,1.7068e-05,0,0.00067391,0.00013229,6.8789e+07,2.5853e+06,0,4.6749e+07,1.9098e+06,2091.4,1
5396,5.91,12260,1,12260,1,0.00097467,2.9401e-06,0,0.0010036,-0.00018079,1.0169e+08,4.1864e+05,0,1.1359e+08,-5.1489e+05,12259,15904,1,15904,1,0.0021641,0.00011201,0,0.0021641,4.7754e-05,1.7368e+08,2.0941e+07,0,1.7368e+08,34035,15903,12262,1,12262,1,0.00095789,1.1028e-10,0,0.00095789,-0.00017617,1.283e+08,11.494,0,1.283e+08,-6.1697,12261,8553,1,8553,1,-0.0002466,-6.1315e-05,0,3.0133e-06,-0.00040134,-1.0018e+08,-1.1342e+07,0,1.3537e+05,-1.9622e+07,8552,10465,1,10465,1,0.00035567,-1.6252e-09,0,0.00035567,-0.00028842,7.2852e+07,-236.91,0,8.9802e+07,-35.142,10464,14059,1,14059,1,0.0015601,2.1762e-09,0,0.0015601,-6.4298e-05,1.4892e+08,307.34,0,1.4892e+08,209.75,14058,2091.4,0,2091.4,0,0.00071595,1.7097e-05,0,0.00067505,0.00013252,6.8905e+07,2.5897e+06,0,4.6828e+07,1.913e+06,2091.4,1
5396,5.92,12260,1,12260,1,0.00097632,2.945e-06,0,0.0010053,-0.0001811,1.0186e+08,4.1935e+05,0,1.1378e+08,-5.1576e+05,12259,15904,1,15904,1,0.0021677,0.0001122,0,0.0021677,4.7834e-05,1.7397e+08,2.0976e+07,0,1.7397e+08,34105,15903,12262,1,12262,1,0.00095951,1.8299e-10,0,0.00095951,-0.00017647,1.2852e+08,17.089,0,1.2852e+08,-6.4111,12261,8553,1,8553,1,-0.00024701,-6.1419e-05,0,3.0182e-06,-0.00040202,-1.0035e+08,-1.1362e+07,0,1.3546e+05,-1.9655e+07,8552,10465,1,10465,1,0.00035628,-1.5309e-09,0,0.00035628,-0.00028891,7.2976e+07,-218.73,0,8.9954e+07,-32.745,10464,14059,1,14059,1,0.0015628,2.2976e-09,0,0.0015628,-6.4407e-05,1.4917e+08,314.86,0,1.4917e+08,207.45,14058,2091.4,0,2091.4,0,0.00071716,1.7126e-05,0,0.0006762,0.00013274,6.9021e+07,2.594e+06,0,4.6907e+07,1.9163e+06,2091.4,1
5396,5.93,12260,1,12260,1,0.00097797,2.95e-06,0,0.001007,-0.00018141,1.0203e+08,4.2006e+05,0,1.1397e+08,-5.1662e+05,12259,15904,1,15904,1,0.0021714,0.00011238,0,0.0021714,4.7915e-05,1.7425e+08,2.1012e+07,0,1.7425e+08,34151,15903,12262,1,12262,1,0.00096113,1.8179e-11,0,0.00096113,-0.00017677,1.2873e+08,1.3593,0,1.2873e+08,-4.2203,12261,8553,1,8553,1,-0.00024743,-6.1523e-05,0,3.0231e-06,-0.0004027,-1.0052e+08,-1.1381e+07,0,1.3557e+05,-1.9688e+07,8552,10465,1,10465,1,0.00035688,-8.2076e-10,0,0.00035688,-0.0002894,7.3099e+07,-116.87,0,9.0106e+07,-20.165,10464,14059,1,14059,1,0.0015654,2.5783e-09,0,0.0015654,-6.4516e-05,1.4943e+08,351.56,0,1.4943e+08,207.23,14058,2091.4,0,2091.4,0,0.00071837,1.7154e-05,0,0.00067734,0.00013297,6.9138e+07,2.5984e+06,0,4.6985e+07,1.9195e+06,2091.4,1
5396,5.94,12260,1,12260,1,0.00097962,2.9551e-06,0,0.0010087,-0.00018171,1.022e+08,4.2079e+05,0,1.1416e+08,-5.1749e+05,12259,15904,1,15904,1,0.0021751,0.00011257,0,0.0021751,4.7996e-05,1.7454e+08,2.1048e+07,0,1.7454e+08,34195,15903,12262,1,12262,1,0.00096276,2.2145e-10,0,0.00096276,-0.00017707,1.2895e+08,22.715,0,1.2895e+08,-7.4913,12261,8553,1,8553,1,-0.00024785,-6.163e-05,0,3.0269e-06,-0.00040338,-1.0069e+08,-1.1401e+07,0,1.3536e+05,-1.9722e+07,8552,10465,1,10465,1,0.00035748,-1.1393e-09,0,0.00035748,-0.00028989,7.3223e+07,-156.72,0,9.0259e+07,-30.248,10464,14059,1,14059,1,0.0015681,2.461e-09,0,0.0015681,-6.4625e-05,1.4968e+08,365.72,0,1.4968e+08,195.35,14058,2091.4,0,2091.4,0,0.00071959,1.7184e-05,0,0.00067849,0.00013319,6.9254e+07,2.6028e+06,0,4.7065e+07,1.9227e+06,2091.4,1
5396,5.95,12260,1,12260,1,0.00098127,2.96e-06,0,0.0010104,-0.00018202,1.0238e+08,4.2149e+05,0,1.1436e+08,-5.1835e+05,12259,15904,1,15904,1,0.0021787,0.00011276,0,0.0021787,4.8076e-05,1.7483e+08,2.1083e+07,0,1.7483e+08,34269,15903,12262,1,12262,1,0.00096438,2.6096e-10,0,0.00096438,-0.00017736,1.2917e+08,28.486,0,1.2917e+08,-4.3398,12261,8553,1,8553,1,-0.00024826,-6.1731e-05,0,3.0329e-06,-0.00040406,-1.0086e+08,-1.142e+07,0,1.358e+05,-1.9755e+07,8552,10465,1,10465,1,0.00035809,-7.8703e-10,0,0.00035809,-0.00029038,7.3346e+07,-112.68,0,9.0411e+07,-20.731,10464,14059,1,14059,1,0.0015707,2.5842e-09,0,0.0015707,-6.4734e-05,1.4993e+08,355.5,0,1.4993e+08,208.71,14058,2091.4,0,2091.4,0,0.0007208,1.7212e-05,0,0.00067963,0.00013342,6.937e+07,2.6072e+06,0,4.7143e+07,1.926e+06,2091.4,1
5396,5.96,12260,1,12260,1,0.00098292,2.965e-06,0,0.0010121,-0.00018232,1.0255e+08,4.222e+05,0,1.1455e+08,-5.1921e+05,12259,15904,1,15904,1,0.0021824,0.00011295,0,0.0021824,4.8157e-05,1.7512e+08,2.1118e+07,0,1.7512e+08,34345,15903,12262,1,12262,1,0.00096601,4.085e-10,0,0.00096601,-0.00017766,1.2939e+08,39.517,0,1.2939e+08,-8.6296,12261,8553,1,8553,1,-0.00024868,-6.1836e-05,0,3.0375e-06,-0.00040474,-1.0103e+08,-1.1439e+07,0,1.3575e+05,-1.9788e+07,8552,10465,1,10465,1,0.00035869,-1.7014e-09,0,0.00035869,-0.00029087,7.347e+07,-241.05,0,9.0563e+07,-44.423,10464,14059,1,14059,1,0.0015733,2.6116e-09,0,0.0015733,-6.4843e-05,1.5018e+08,392.78,0,1.5018e+08,205.18,14058,2091.4,0,2091.4,0,0.00072201,1.7241e-05,0,0.00068077,0.00013364,6.9486e+07,2.6116e+06,0,4.7222e+07,1.9292e+06,2091.4,1
5396,5.97,12260,1,12260,1,0.00098457,2.9698e-06,0,0.0010138,-0.00018263,1.0272e+08,4.2288e+05,0,1.1474e+08,-5.2007e+05,12259,15904,1,15904,1,0.0021861,0.00011314,0,0.0021861,4.8237e-05,1.7541e+08,2.1154e+07,0,1.7541e+08,34378,15903,12262,1,12262,1,0.00096763,1.2623e-10,0,0.00096763,-0.00017796,1.296e+08,13.449,0,1.296e+08,-5.0257,12261,8553,1,8553,1,-0.0002491,-6.1939e-05,0,3.0419e-06,-0.00040541,-1.012e+08,-1.1459e+07,0,1.3579e+05,-1.9821e+07,8552,10465,1,10465,1,0.00035929,-1.3281e-09,0,0.00035929,-0.00029135,7.3593e+07,-185.48,0,9.0715e+07,-26.18,10464,14059,1,14059,1,0.001576,2.2887e-09,0,0.001576,-6.4952e-05,1.5044e+08,324.26,0,1.5044e+08,202.92,14058,2091.4,0,2091.4,0,0.00072322,1.727e-05,0,0.00068191,0.00013386,6.9602e+07,2.616e+06,0,4.7301e+07,1.9324e+06,2091.4,1
5396,5.98,12260,1,12260,1,0.00098622,2.9748e-06,0,0.0010155,-0.00018294,1.0289e+08,4.236e+05,0,1.1493e+08,-5.2093e+05,12259,15904,1,15904,1,0.0021897,0.00011333,0,0.0021897,4.8318e-05,1.757e+08,2.1189e+07,0,1.757e+08,34448,15903,12262,1,12262,1,0.00096925,3.1342e-10,0,0.00096925,-0.00017826,1.2982e+08,30.463,0,1.2982e+08,-4.8819,12261,8553,1,8553,1,-0.00024951,-6.2044e-05,0,3.047e-06,-0.00040609,-1.0137e+08,-1.1478e+07,0,1.3591e+05,-1.9854e+07,8552,10465,1,10465,1,0.0003599,-1.3127e-09,0,0.0003599,-0.00029184,7.3717e+07,-183.63,0,9.0868e+07,-29.158,10464,14059,1,14059,1,0.0015786,2.4176e-09,0,0.0015786,-6.5061e-05,1.5069e+08,339.1,0,1.5069e+08,210.03,14058,2091.4,0,2091.4,0,0.00072443,1.7298e-05,0,0.00068306,0.00013409,6.9719e+07,2.6203e+06,0,4.738e+07,1.9356e+06,2091.4,1
5396,5.99,12260,1,12260,1,0.00098787,2.9796e-06,0,0.0010172,-0.00018324,1.0306e+08,4.2429e+05,0,1.1512e+08,-5.2179e+05,12259,15904,1,15904,1,0.0021934,0.00011352,0,0.0021934,4.8398e-05,1.7598e+08,2.1225e+07,0,1.7598e+08,34512,15903,12262,1,12262,1,0.00097087,1.5685e-10,0,0.00097087,-0.00017856,1.3004e+08,14.387,0,1.3004e+08,-3.2476,12261,8553,1,8553,1,-0.00024993,-6.2146e-05,0,3.0527e-06,-0.00040677,-1.0154e+08,-1.1497e+07,0,1.363e+05,-1.9887e+07,8552,10465,1,10465,1,0.0003605,-9.633e-10,0,0.0003605,-0.00029233,7.384e+07,-138.59,0,9.102e+07,-21.68,10464,14059,1,14059,1,0.0015813,2.3491e-09,0,0.0015813,-6.517e-05,1.5094e+08,321.53,0,1.5094e+08,212.47,14058,2091.4,0,2091.4,0,0.00072564,1.7327e-05,0,0.0006842,0.00013431,6.9835e+07,2.6247e+06,0,4.7459e+07,1.9388e+06,2091.4,1
5396,6,12260,1,12260,1,0.00098953,2.9846e-06,0,0.0010189,-0.00018355,1.0324e+08,4.2501e+05,0,1.1532e+08,-5.2266e+05,12259,15904,1,15904,1,0.0021971,0.00011371,0,0.0021971,4.8479e-05,1.7627e+08,2.126e+07,0,1.7627e+08,34561,15903,12262,1,12262,1,0.0009725,1.8974e-10,0,0.0009725,-0.00017886,1.3025e+08,19.338,0,1.3025e+08,-6.0156,12261,8553,1,8553,1,-0.00025034,-6.2251e-05,0,3.0569e-06,-0.00040745,-1.0171e+08,-1.1517e+07,0,1.362e+05,-1.9921e+07,8552,10465,1,10465,1,0.0003611,-1.3381e-09,0,0.0003611,-0.00029282,7.3964e+07,-186.32,0,9.1172e+07,-30.049,10464,14059,1,14059,1,0.0015839,2.3405e-09,0,0.0015839,-6.528e-05,1.5119e+08,334.77,0,1.5119e+08,202.08,14058,2091.4,0,2091.4,0,0.00072686,1.7356e-05,0,0.00068534,0.00013454,6.9951e+07,2.6291e+06,0,4.7538e+07,1.9421e+06,2091.4,1
5396,6.01,12260,1,12260,1,0.00099118,2.9895e-06,0,0.0010206,-0.00018386,1.0341e+08,4.257e+05,0,1.1551e+08,-5.2352e+05,12259,15904,1,15904,1,0.0022007,0.00011389,0,0.0022007,4.856e-05,1.7656e+08,2.1296e+07,0,1.7656e+08,34636,15903,12262,1,12262,1,0.00097412,8.3594e-11,0,0.00097412,-0.00017916,1.3047e+08,8.7978,0,1.3047e+08,-4.4916,12261,8553,1,8553,1,-0.00025076,-6.2354e-05,0,3.0624e-06,-0.00040813,-1.0188e+08,-1.1536e+07,0,1.3649e+05,-1.9954e+07,8552,10465,1,10465,1,0.00036171,-1.2476e-09,0,0.00036171,-0.00029331,7.4087e+07,-180.48,0,9.1324e+07,-24.531,10464,14059,1,14059,1,0.0015866,2.2973e-09,0,0.0015866,-6.5388e-05,1.5144e+08,322.35,0,1.5144e+08,211.32,14058,2091.4,0,2091.4,0,0.00072807,1.7385e-05,0,0.00068649,0.00013476,7.0067e+07,2.6335e+06,0,4.7617e+07,1.9453e+06,2091.4,1
5396,6.02,12260,1,12260,1,0.00099282,2.9944e-06,0,0.0010223,-0.00018416,1.0358e+08,4.2641e+05,0,1.157e+08,-5.2438e+05,12259,15904,1,15904,1,0.0022044,0.00011408,0,0.0022044,4.864e-05,1.7685e+08,2.1331e+07,0,1.7685e+08,34696,15903,12262,1,12262,1,0.00097574,1.0358e-10,0,0.00097574,-0.00017945,1.3069e+08,10.968,0,1.3069e+08,-4.4547,12261,8553,1,8553,1,-0.00025118,-6.2457e-05,0,3.0675e-06,-0.00040881,-1.0204e+08,-1.1555e+07,0,1.367e+05,-1.9987e+07,8552,10465,1,10465,1,0.00036231,-1.0205e-09,0,0.00036231,-0.0002938,7.4211e+07,-147.76,0,9.1477e+07,-22.435,10464,14059,1,14059,1,0.0015892,2.4403e-09,0,0.0015892,-6.5497e-05,1.517e+08,329.05,0,1.517e+08,214.3,14058,2091.4,0,2091.4,0,0.00072928,1.7413e-05,0,0.00068763,0.00013499,7.0183e+07,2.6378e+06,0,4.7696e+07,1.9485e+06,2091.4,1
5396,6.03,12260,1,12260,1,0.00099448,2.9995e-06,0,0.001024,-0.00018447,1.0375e+08,4.2713e+05,0,1.1589e+08,-5.2524e+05,12259,15904,1,15904,1,0.0022081,0.00011427,0,0.0022081,4.8721e-05,1.7714e+08,2.1367e+07,0,1.7714e+08,34748,15903,12262,1,12262,1,0.00097736,2.8805e-10,0,0.00097736,-0.00017975,1.3091e+08,30.319,0,1.3091e+08,-4.1427,12261,8553,1,8553,1,-0.00025159,-6.2561e-05,0,3.0721e-06,-0.00040949,-1.0221e+08,-1.1574e+07,0,1.3671e+05,-2.002e+07,8552,10465,1,10465,1,0.00036291,-1.1169e-09,0,0.00036291,-0.00029428,7.4335e+07,-158.58,0,9.1629e+07,-25.272,10464,14059,1,14059,1,0.0015918,2.4306e-09,0,0.0015918,-6.5607e-05,1.5195e+08,348.98,0,1.5195e+08,211,14058,2091.4,0,2091.4,0,0.00073049,1.7442e-05,0,0.00068877,0.00013521,7.0299e+07,2.6422e+06,0,4.7775e+07,1.9517e+06,2091.4,1
5396,6.04,12260,1,12260,1,0.00099613,3.0043e-06,0,0.0010257,-0.00018477,1.0392e+08,4.2782e+05,0,1.1608e+08,-5.2611e+05,12259,15904,1,15904,1,0.0022117,0.00011446,0,0.0022117,4.8801e-05,1.7742e+08,2.1402e+07,0,1.7742e+08,34807,15903,12262,1,12262,1,0.00097898,6.2747e-11,0,0.00097898,-0.00018005,1.3112e+08,6.7379,0,1.3112e+08,-3.7137,12261,8553,1,8553,1,-0.00025201,-6.2665e-05,0,3.0773e-06,-0.00041017,-1.0238e+08,-1.1594e+07,0,1.3696e+05,-2.0053e+07,8552,10465,1,10465,1,0.00036352,-9.9523e-10,0,0.00036352,-0.00029477,7.4458e+07,-142.18,0,9.1781e+07,-19.783,10464,14059,1,14059,1,0.0015945,2.3549e-09,0,0.0015945,-6.5716e-05,1.522e+08,322.51,0,1.522e+08,208.54,14058,2091.4,0,2091.4,0,0.0007317,1.7471e-05,0,0.00068991,0.00013543,7.0415e+07,2.6466e+06,0,4.7854e+07,1.9549e+06,2091.4,1
5396,6.05,12260,1,12260,1,0.00099778,3.0092e-06,0,0.0010274,-0.00018508,1.041e+08,4.2853e+05,0,1.1627e+08,-5.2697e+05,12259,15904,1,15904,1,0.0022154,0.00011465,0,0.0022154,4.8882e-05,1.7771e+08,2.1438e+07,0,1.7771e+08,34867,15903,12262,1,12262,1,0.00098061,1.4878e-10,0,0.00098061,-0.00018035,1.3134e+08,15.056,0,1.3134e+08,-4.3396,12261,8553,1,8553,1,-0.00025242,-6.2768e-05,0,3.082e-06,-0.00041085,-1.0255e+08,-1.1613e+07,0,1.3699e+05,-2.0086e+07,8552,10465,1,10465,1,0.00036412,-1.0981e-09,0,0.00036412,-0.00029526,7.4582e+07,-155.72,0,9.1933e+07,-22.058,10464,14059,1,14059,1,0.0015971,2.4669e-09,0,0.0015971,-6.5825e-05,1.5245e+08,339.36,0,1.5245e+08,211.6,14058,2091.4,0,2091.4,0,0.00073291,1.75e-05,0,0.00069106,0.00013566,7.0532e+07,2.651e+06,0,4.7933e+07,1.9581e+06,2091.4,1
5396,6.06,12260,1,12260,1,0.00099943,3.0142e-06,0,0.0010291,-0.00018539,1.0427e+08,4.2924e+05,0,1.1647e+08,-5.2783e+05,12259,15904,1,15904,1,0.0022191,0.00011484,0,0.0022191,4.8963e-05,1.78e+08,2.1473e+07,0,1.78e+08,34922,15903,12262,1,12262,1,0.00098223,2.3529e-10,0,0.00098223,-0.00018065,1.3156e+08,21.706,0,1.3156e+08,-5.5337,12261,8553,1,8553,1,-0.00025284,-6.2873e-05,0,3.0867e-06,-0.00041153,-1.0272e+08,-1.1632e+07,0,1.3705e+05,-2.0119e+07,8552,10465,1,10465,1,0.00036472,-1.4214e-09,0,0.00036472,-0.00029575,7.4705e+07,-200.36,0,9.2086e+07,-29.772,10464,14059,1,14059,1,0.0015998,2.4305e-09,0,0.0015998,-6.5934e-05,1.5271e+08,344.29,0,1.5271e+08,211.38,14058,2091.4,0,2091.4,0,0.00073413,1.7529e-05,0,0.0006922,0.00013588,7.0648e+07,2.6554e+06,0,4.8012e+07,1.9613e+06,2091.4,1
5396,6.07,12260,1,12260,1,0.0010011,3.0191e-06,0,0.0010308,-0.00018569,1.0444e+08,4.2994e+05,0,1.1666e+08,-5.2869e+05,12259,15904,1,15904,1,0.0022227,0.00011502,0,0.0022227,4.9043e-05,1.7829e+08,2.1509e+07,0,1.7829e+08,34990,15903,12262,1,12262,1,0.00098385,1.8119e-10,0,0.00098385,-0.00018095,1.3178e+08,17.077,0,1.3178e+08,-3.1671,12261,8553,1,8553,1,-0.00025326,-6.2975e-05,0,3.0924e-06,-0.00041221,-1.0289e+08,-1.1652e+07,0,1.3741e+05,-2.0152e+07,8552,10465,1,10465,1,0.00036533,-8.4325e-10,0,0.00036533,-0.00029624,7.4829e+07,-119.83,0,9.2238e+07,-19.014,10464,14059,1,14059,1,0.0016024,2.4727e-09,0,0.0016024,-6.6043e-05,1.5296e+08,342.82,0,1.5296e+08,215.07,14058,2091.4,0,2091.4,0,0.00073534,1.7557e-05,0,0.00069334,0.00013611,7.0764e+07,2.6597e+06,0,4.809e+07,1.9646e+06,2091.4,1
5396,6.08,12260,1,12260,1,0.0010027,3.0241e-06,0,0.0010325,-0.000186,1.0461e+08,4.3065e+05,0,1.1685e+08,-5.2955e+05,12259,15904,1,15904,1,0.0022264,0.00011521,0,0.0022264,4.9124e-05,1.7858e+08,2.1544e+07,0,1.7858e+08,35049,15903,12262,1,12262,1,0.00098548,2.0495e-10,0,0.00098548,-0.00018124,1.3199e+08,19.036,0,1.3199e+08,-4.3779,12261,8553,1,8553,1,-0.00025367,-6.3079e-05,0,3.0972e-06,-0.00041289,-1.0306e+08,-1.1671e+07,0,1.3751e+05,-2.0185e+07,8552,10465,1,10465,1,0.00036593,-1.174e-09,0,0.00036593,-0.00029673,7.4952e+07,-168.21,0,9.239e+07,-23.985,10464,14059,1,14059,1,0.001605,2.4733e-09,0,0.0016051,-6.6152e-05,1.5321e+08,344.2,0,1.5321e+08,212.77,14058,2091.4,0,2091.4,0,0.00073655,1.7586e-05,0,0.00069449,0.00013633,7.088e+07,2.6641e+06,0,4.8169e+07,1.9678e+06,2091.4,1
5396,6.09,12260,1,12260,1,0.0010044,3.029e-06,0,0.0010342,-0.00018631,1.0478e+08,4.3136e+05,0,1.1704e+08,-5.3041e+05,12259,15904,1,15904,1,0.0022301,0.0001154,0,0.0022301,4.9204e-05,1.7886e+08,2.158e+07,0,1.7886e+08,35110,15903,12262,1,12262,1,0.0009871,2.222e-10,0,0.0009871,-0.00018154,1.3221e+08,22.97,0,1.3221e+08,-5.1735,12261,8553,1,8553,1,-0.00025409,-6.3183e-05,0,3.1021e-06,-0.00041357,-1.0323e+08,-1.169e+07,0,1.376e+05,-2.0218e+07,8552,10465,1,10465,1,0.00036653,-9.1723e-10,0,0.00036653,-0.00029722,7.5076e+07,-129.17,0,9.2543e+07,-26.083,10464,14059,1,14059,1,0.0016077,2.5325e-09,0,0.0016077,-6.6261e-05,1.5346e+08,347.34,0,1.5346e+08,209.38,14058,2091.4,0,2091.4,0,0.00073776,1.7615e-05,0,0.00069563,0.00013656,7.0996e+07,2.6685e+06,0,4.8248e+07,1.971e+06,2091.4,1
5396,6.1,12260,1,12260,1,0.001006,3.0339e-06,0,0.0010359,-0.00018661,1.0496e+08,4.3205e+05,0,1.1723e+08,-5.3128e+05,12259,15904,1,15904,1,0.0022337,0.00011559,0,0.0022337,4.9285e-05,1.7915e+08,2.1615e+07,0,1.7915e+08,35152,15903,12262,1,12262,1,0.00098872,1.4965e-11,0,0.00098872,-0.00018184,1.3243e+08,1.1197,0,1.3243e+08,-5.694,12261,8553,1,8553,1,-0.0002545,-6.3286e-05,0,3.1066e-06,-0.00041425,-1.034e+08,-1.171e+07,0,1.3766e+05,-2.0251e+07,8552,10465,1,10465,1,0.00036714,-1.1658e-09,0,0.00036714,-0.0002977,7.52e+07,-166.57,0,9.2695e+07,-26.764,10464,14059,1,14059,1,0.0016103,2.5094e-09,0,0.0016103,-6.637e-05,1.5371e+08,345.65,0,1.5371e+08,205.38,14058,2091.4,0,2091.4,0,0.00073897,1.7644e-05,0,0.00069677,0.00013678,7.1112e+07,2.6729e+06,0,4.8327e+07,1.9742e+06,2091.4,1
5396,6.11,12260,1,12260,1,0.0010077,3.0388e-06,0,0.0010376,-0.00018692,1.0513e+08,4.3275e+05,0,1.1743e+08,-5.3214e+05,12259,15904,1,15904,1,0.0022374,0.00011578,0,0.0022374,4.9365e-05,1.7944e+08,2.1651e+07,0,1.7944e+08,35228,15903,12262,1,12262,1,0.00099034,7.9413e-11,0,0.00099034,-0.00018214,1.3264e+08,8.0991,0,1.3264e+08,-4.8699,12261,8553,1,8553,1,-0.00025492,-6.3388e-05,0,3.1123e-06,-0.00041493,-1.0357e+08,-1.1729e+07,0,1.3804e+05,-2.0285e+07,8552,10465,1,10465,1,0.00036774,-1.2173e-09,0,0.00036774,-0.00029819,7.5323e+07,-175.87,0,9.2847e+07,-23.092,10464,14059,1,14059,1,0.001613,2.3983e-09,0,0.001613,-6.6479e-05,1.5397e+08,322.87,0,1.5397e+08,213.58,14058,2091.4,0,2091.4,0,0.00074019,1.7672e-05,0,0.00069792,0.000137,7.1228e+07,2.6772e+06,0,4.8406e+07,1.9774e+06,2091.4,1
5396,6.12,12260,1,12260,1,0.0010093,3.0439e-06,0,0.0010393,-0.00018722,1.053e+08,4.3348e+05,0,1.1762e+08,-5.3301e+05,12259,15904,1,15904,1,0.0022411,0.00011597,0,0.0022411,4.9446e-05,1.7973e+08,2.1687e+07,0,1.7973e+08,35278,15903,12262,1,12262,1,0.00099197,2.9123e-10,0,0.00099197,-0.00018244,1.3286e+08,27.099,0,1.3286e+08,-6.3324,12261,8553,1,8553,1,-0.00025534,-6.3494e-05,0,3.1169e-06,-0.00041561,-1.0373e+08,-1.1749e+07,0,1.3803e+05,-2.0318e+07,8552,10465,1,10465,1,0.00036835,-1.5651e-09,0,0.00036835,-0.00029868,7.5447e+07,-225.29,0,9.3e+07,-36.194,10464,14059,1,14059,1,0.0016156,2.434e-09,0,0.0016156,-6.6589e-05,1.5422e+08,344.79,0,1.5422e+08,214.68,14058,2091.4,0,2091.4,0,0.0007414,1.7701e-05,0,0.00069906,0.00013723,7.1345e+07,2.6817e+06,0,4.8485e+07,1.9807e+06,2091.4,1
5396,6.13,12260,1,12260,1,0.001011,3.0488e-06,0,0.001041,-0.00018753,1.0547e+08,4.3419e+05,0,1.1781e+08,-5.3387e+05,12259,15904,1,15904,1,0.0022447,0.00011616,0,0.0022447,4.9527e-05,1.8002e+08,2.1722e+07,0,1.8002e+08,35362,15903,12262,1,12262,1,0.00099359,1.4597e-10,0,0.00099359,-0.00018274,1.3308e+08,15.863,0,1.3308e+08,-4.6022,12261,8553,1,8553,1,-0.00025575,-6.3596e-05,0,3.122e-06,-0.00041629,-1.039e+08,-1.1768e+07,0,1.3828e+05,-2.0351e+07,8552,10465,1,10465,1,0.00036895,-5.0594e-10,0,0.00036895,-0.00029917,7.557e+07,-70.007,0,9.3152e+07,-18.61,10464,14059,1,14059,1,0.0016183,2.6069e-09,0,0.0016183,-6.6698e-05,1.5447e+08,354.54,0,1.5447e+08,212.38,14058,2091.4,0,2091.4,0,0.00074261,1.773e-05,0,0.0007002,0.00013745,7.1461e+07,2.686e+06,0,4.8564e+07,1.9839e+06,2091.4,1
5396,6.14,12260,1,12260,1,0.0010126,3.0538e-06,0,0.0010427,-0.00018784,1.0564e+08,4.349e+05,0,1.18e+08,-5.3473e+05,12259,15904,1,15904,1,0.0022484,0.00011635,0,0.0022484,4.9607e-05,1.803e+08,2.1758e+07,0,1.803e+08,35489,15903,12262,1,12262,1,0.00099522,3.4701e-10,0,0.00099522,-0.00018304,1.333e+08,34.857,0,1.333e+08,-6.281,12261,8553,1,8553,1,-0.00025617,-6.37e-05,0,3.1263e-06,-0.00041697,-1.0407e+08,-1.1787e+07,0,1.3823e+05,-2.0384e+07,8552,10465,1,10465,1,0.00036955,-1.0537e-09,0,0.00036955,-0.00029966,7.5694e+07,-142.93,0,9.3305e+07,-28.771,10464,14059,1,14059,1,0.0016209,2.2417e-09,0,0.0016209,-6.6807e-05,1.5472e+08,343.13,0,1.5472e+08,217.94,14058,2091.4,0,2091.4,0,0.00074382,1.7759e-05,0,0.00070135,0.00013768,7.1577e+07,2.6904e+06,0,4.8643e+07,1.9871e+06,2091.4,1
5396,6.15,12260,1,12260,1,0.0010143,3.0585e-06,0,0.0010444,-0.00018814,1.0582e+08,4.3558e+05,0,1.1819e+08,-5.3559e+05,12259,15904,1,15904,1,0.0022521,0.00011654,0,0.0022521,4.9687e-05,1.8059e+08,2.1793e+07,0,1.8059e+08,35527,15903,12262,1,12262,1,0.00099685,-5.2221e-12,0,0.00099685,-0.00018334,1.3352e+08,-0.37374,0,1.3352e+08,-6.8286,12261,8553,1,8553,1,-0.00025658,-6.3802e-05,0,3.1299e-06,-0.00041765,-1.0424e+08,-1.1806e+07,0,1.3808e+05,-2.0417e+07,8552,10465,1,10465,1,0.00037016,-9.7774e-10,0,0.00037016,-0.00030015,7.5819e+07,-134,0,9.3458e+07,-25.917,10464,14059,1,14059,1,0.0016236,2.1907e-09,0,0.0016236,-6.6917e-05,1.5498e+08,307.78,0,1.5498e+08,209.66,14058,2091.4,0,2091.4,0,0.00074504,1.7788e-05,0,0.00070249,0.0001379,7.1692e+07,2.6948e+06,0,4.8721e+07,1.9903e+06,2091.4,1
5396,6.16,12260,1,12260,1,0.0010159,3.0635e-06,0,0.0010461,-0.00018845,1.0599e+08,4.3629e+05,0,1.1839e+08,-5.3644e+05,12259,15904,1,15904,1,0.0022557,0.00011672,0,0.0022557,4.9768e-05,1.8088e+08,2.1828e+07,0,1.8088e+08,35649,15903,12262,1,12262,1,0.00099847,2.0293e-10,0,0.00099847,-0.00018363,1.3373e+08,19.369,0,1.3373e+08,-5.8336,12261,8553,1,8553,1,-0.000257,-6.3904e-05,0,3.1354e-06,-0.00041833,-1.0441e+08,-1.1826e+07,0,1.3834e+05,-2.045e+07,8552,10465,1,10465,1,0.00037076,-8.7803e-10,0,0.00037076,-0.00030064,7.5942e+07,-119.54,0,9.361e+07,-23.169,10464,14059,1,14059,1,0.0016262,2.3459e-09,0,0.0016262,-6.7026e-05,1.5523e+08,334.53,0,1.5523e+08,220.91,14058,2091.4,0,2091.4,0,0.00074625,1.7816e-05,0,0.00070364,0.00013813,7.1808e+07,2.6991e+06,0,4.88e+07,1.9936e+06,2091.4,1
5396,6.17,12260,1,12260,1,0.0010176,3.0684e-06,0,0.0010478,-0.00018876,1.0616e+08,4.3699e+05,0,1.1858e+08,-5.373e+05,12259,15904,1,15904,1,0.0022594,0.00011691,0,0.0022594,4.9848e-05,1.8117e+08,2.1864e+07,0,1.8117e+08,35707,15903,12262,1,12262,1,0.0010001,1.7421e-10,0,0.0010001,-0.00018393,1.3395e+08,17.901,0,1.3395e+08,-5.9509,12261,8553,1,8553,1,-0.00025741,-6.4007e-05,0,3.1393e-06,-0.00041901,-1.0458e+08,-1.1845e+07,0,1.3822e+05,-2.0483e+07,8552,10465,1,10465,1,0.00037137,-1.0428e-09,0,0.00037137,-0.00030113,7.6066e+07,-140.38,0,9.3763e+07,-25.528,10464,14059,1,14059,1,0.0016288,2.3274e-09,0,0.0016288,-6.7136e-05,1.5548e+08,360.91,0,1.5548e+08,217.85,14058,2091.4,0,2091.4,0,0.00074746,1.7844e-05,0,0.00070478,0.00013835,7.1924e+07,2.7035e+06,0,4.8878e+07,1.9968e+06,2091.4,1
5396,6.18,12260,1,12260,1,0.0010193,3.0732e-06,0,0.0010495,-0.00018906,1.0633e+08,4.3768e+05,0,1.1877e+08,-5.3815e+05,12259,15904,1,15904,1,0.0022631,0.0001171,0,0.0022631,4.9928e-05,1.8146e+08,2.19e+07,0,1.8146e+08,35794,15903,12262,1,12262,1,0.0010017,1.818e-10,0,0.0010017,-0.00018423,1.3417e+08,16.658,0,1.3417e+08,-5.2228,12261,8553,1,8553,1,-0.00025783,-6.4109e-05,0,3.1437e-06,-0.00041969,-1.0475e+08,-1.1864e+07,0,1.3822e+05,-2.0516e+07,8552,10465,1,10465,1,0.00037198,-1.1105e-09,0,0.00037198,-0.00030162,7.619e+07,-152.54,0,9.3915e+07,-22.826,10464,14059,1,14059,1,0.0016315,2.1235e-09,0,0.0016315,-6.7245e-05,1.5573e+08,306.86,0,1.5573e+08,220.34,14058,2091.4,0,2091.4,0,0.00074867,1.7873e-05,0,0.00070593,0.00013858,7.2039e+07,2.7079e+06,0,4.8957e+07,2e+06,2091.4,1
5396,6.19,12260,1,12260,1,0.0010209,3.0781e-06,0,0.0010512,-0.00018937,1.065e+08,4.3838e+05,0,1.1896e+08,-5.3901e+05,12259,15904,1,15904,1,0.0022667,0.00011729,0,0.0022667,5.0009e-05,1.8174e+08,2.1935e+07,0,1.8174e+08,35854,15903,12262,1,12262,1,0.0010033,4.2043e-11,0,0.0010033,-0.00018453,1.3439e+08,4.3304,0,1.3439e+08,-4.9713,12261,8553,1,8553,1,-0.00025824,-6.4212e-05,0,3.1478e-06,-0.00042037,-1.0491e+08,-1.1884e+07,0,1.381e+05,-2.0549e+07,8552,10465,1,10465,1,0.00037258,-1.0995e-09,0,0.00037258,-0.00030211,7.6314e+07,-149.32,0,9.4068e+07,-22.101,10464,14059,1,14059,1,0.0016341,2.214e-09,0,0.0016341,-6.7355e-05,1.5599e+08,323.43,0,1.5599e+08,218.3,14058,2091.4,0,2091.4,0,0.00074989,1.7902e-05,0,0.00070707,0.0001388,7.2155e+07,2.7122e+06,0,4.9035e+07,2.0032e+06,2091.4,1
5396,6.2,12260,1,12260,1,0.0010226,3.0831e-06,0,0.0010529,-0.00018968,1.0667e+08,4.391e+05,0,1.1915e+08,-5.3986e+05,12259,15904,1,15904,1,0.0022704,0.00011748,0,0.0022704,5.0089e-05,1.8203e+08,2.1971e+07,0,1.8203e+08,35928,15903,12262,1,12262,1,0.001005,6.6438e-11,0,0.001005,-0.00018483,1.346e+08,6.9695,0,1.346e+08,-4.8712,12261,8553,1,8553,1,-0.00025866,-6.4314e-05,0,3.1531e-06,-0.00042105,-1.0508e+08,-1.1903e+07,0,1.3831e+05,-2.0582e+07,8552,10465,1,10465,1,0.00037319,-7.296e-10,0,0.00037319,-0.00030259,7.6438e+07,-101.38,0,9.4221e+07,-19.772,10464,14059,1,14059,1,0.0016368,2.6066e-09,0,0.0016368,-6.7464e-05,1.5624e+08,354.18,0,1.5624e+08,218.99,14058,2091.4,0,2091.4,0,0.0007511,1.793e-05,0,0.00070821,0.00013902,7.2271e+07,2.7166e+06,0,4.9114e+07,2.0065e+06,2091.4,1
5396,6.21,12260,1,12260,1,0.0010242,3.0881e-06,0,0.0010546,-0.00018998,1.0685e+08,4.3981e+05,0,1.1934e+08,-5.4072e+05,12259,15904,1,15904,1,0.0022741,0.00011767,0,0.0022741,5.017e-05,1.8232e+08,2.2006e+07,0,1.8232e+08,35983,15903,12262,1,12262,1,0.0010066,6.9931e-12,0,0.0010066,-0.00018513,1.3482e+08,0.5128,0,1.3482e+08,-6.0721,12261,8553,1,8553,1,-0.00025907,-6.4419e-05,0,3.1561e-06,-0.00042174,-1.0525e+08,-1.1923e+07,0,1.3785e+05,-2.0615e+07,8552,10465,1,10465,1,0.00037379,-1.3714e-09,0,0.00037379,-0.00030308,7.6563e+07,-190.33,0,9.4374e+07,-31.022,10464,14059,1,14059,1,0.0016394,2.6453e-09,0,0.0016394,-6.7574e-05,1.5649e+08,420.2,0,1.5649e+08,213.62,14058,2091.4,0,2091.4,0,0.00075231,1.7959e-05,0,0.00070936,0.00013925,7.2387e+07,2.721e+06,0,4.9193e+07,2.0096e+06,2091.4,1
5396,6.22,12260,1,12260,1,0.0010259,3.0929e-06,0,0.0010563,-0.00019029,1.0702e+08,4.4051e+05,0,1.1954e+08,-5.4157e+05,12259,15904,1,15904,1,0.0022778,0.00011785,0,0.0022778,5.025e-05,1.8261e+08,2.2042e+07,0,1.8261e+08,36093,15903,12262,1,12262,1,0.0010082,2.354e-10,0,0.0010082,-0.00018543,1.3504e+08,21.544,0,1.3504e+08,-6.2315,12261,8553,1,8553,1,-0.00025949,-6.4519e-05,0,3.1629e-06,-0.00042242,-1.0542e+08,-1.1942e+07,0,1.3847e+05,-2.0648e+07,8552,10465,1,10465,1,0.0003744,-1.0296e-09,0,0.0003744,-0.00030357,7.6686e+07,-144.04,0,9.4526e+07,-26.778,10464,14059,1,14059,1,0.0016421,2.4478e-09,0,0.0016421,-6.7683e-05,1.5674e+08,337.55,0,1.5674e+08,221.59,14058,2091.4,0,2091.4,0,0.00075352,1.7987e-05,0,0.0007105,0.00013947,7.2502e+07,2.7253e+06,0,4.9271e+07,2.0129e+06,2091.4,1
5396,6.23,12260,1,12260,1,0.0010275,3.0978e-06,0,0.001058,-0.0001906,1.0719e+08,4.4121e+05,0,1.1973e+08,-5.4242e+05,12259,15904,1,15904,1,0.0022814,0.00011804,0,0.0022814,5.033e-05,1.829e+08,2.2077e+07,0,1.829e+08,36165,15903,12262,1,12262,1,0.0010098,1.882e-10,0,0.0010098,-0.00018573,1.3526e+08,16.522,0,1.3526e+08,-5.0304,12261,8553,1,8553,1,-0.0002599,-6.4621e-05,0,3.1675e-06,-0.0004231,-1.0559e+08,-1.1961e+07,0,1.3855e+05,-2.0681e+07,8552,10465,1,10465,1,0.000375,-9.8373e-10,0,0.000375,-0.00030406,7.681e+07,-138.63,0,9.4679e+07,-23.241,10464,14059,1,14059,1,0.0016447,2.4189e-09,0,0.0016447,-6.7792e-05,1.57e+08,329.77,0,1.57e+08,224.45,14058,2091.4,0,2091.4,0,0.00075473,1.8015e-05,0,0.00071165,0.0001397,7.2617e+07,2.7297e+06,0,4.9349e+07,2.0161e+06,2091.4,1
5396,6.24,12260,1,12260,1,0.0010292,3.1027e-06,0,0.0010597,-0.0001909,1.0736e+08,4.4191e+05,0,1.1992e+08,-5.4328e+05,12259,15904,1,15904,1,0.0022851,0.00011823,0,0.0022851,5.041e-05,1.8318e+08,2.2113e+07,0,1.8318e+08,36206,15903,12262,1,12262,1,0.0010115,5.7539e-11,0,0.0010115,-0.00018603,1.3548e+08,6.109,0,1.3548e+08,-4.2053,12261,8553,1,8553,1,-0.00026031,-6.4724e-05,0,3.1717e-06,-0.00042378,-1.0576e+08,-1.1981e+07,0,1.3848e+05,-2.0715e+07,8552,10465,1,10465,1,0.00037561,-9.0391e-10,0,0.00037561,-0.00030455,7.6934e+07,-127.79,0,9.4831e+07,-19.641,10464,14059,1,14059,1,0.0016474,2.4691e-09,0,0.0016474,-6.7902e-05,1.5725e+08,336.53,0,1.5725e+08,223.94,14058,2091.4,0,2091.4,0,0.00075595,1.8044e-05,0,0.00071279,0.00013992,7.2733e+07,2.7341e+06,0,4.9428e+07,2.0193e+06,2091.4,1
5396,6.25,12260,1,12260,1,0.0010308,3.1076e-06,0,0.0010614,-0.00019121,1.0753e+08,4.4261e+05,0,1.2011e+08,-5.4414e+05,12259,15904,1,15904,1,0.0022888,0.00011841,0,0.0022888,5.0491e-05,1.8347e+08,2.2148e+07,0,1.8347e+08,36272,15903,12262,1,12262,1,0.0010131,1.0825e-11,0,0.0010131,-0.00018632,1.3569e+08,0.87189,0,1.3569e+08,-1.1682,12261,8553,1,8553,1,-0.00026073,-6.4828e-05,0,3.1762e-06,-0.00042446,-1.0593e+08,-1.2e+07,0,1.3848e+05,-2.0748e+07,8552,10465,1,10465,1,0.00037621,-3.9792e-10,0,0.00037621,-0.00030504,7.7058e+07,-54.569,0,9.4984e+07,-26.98,10464,14059,1,14059,1,0.00165,2.7342e-09,0,0.00165,-6.8011e-05,1.575e+08,383.11,0,1.575e+08,217.45,14058,2091.4,0,2091.4,0,0.00075716,1.8072e-05,0,0.00071393,0.00014015,7.2849e+07,2.7384e+06,0,4.9506e+07,2.0225e+06,2091.4,1
5396,6.26,12260,1,12260,1,0.0010325,3.1123e-06,0,0.0010631,-0.00019152,1.077e+08,4.4329e+05,0,1.203e+08,-5.4498e+05,12259,15904,1,15904,1,0.0022924,0.0001186,0,0.0022924,5.0571e-05,1.8376e+08,2.2184e+07,0,1.8376e+08,36350,15903,12262,1,12262,1,0.0010147,3.0683e-11,0,0.0010147,-0.00018662,1.3591e+08,2.707,0,1.3591e+08,-5.4845,12261,8553,1,8553,1,-0.00026114,-6.493e-05,0,3.1811e-06,-0.00042514,-1.0609e+08,-1.202e+07,0,1.3857e+05,-2.0781e+07,8552,10465,1,10465,1,0.00037682,-1.0516e-09,0,0.00037682,-0.00030553,7.7182e+07,-147.26,0,9.5137e+07,-21.622,10464,14059,1,14059,1,0.0016527,2.3133e-09,0,0.0016527,-6.8121e-05,1.5775e+08,326.99,0,1.5775e+08,223.43,14058,2091.4,0,2091.4,0,0.00075837,1.8101e-05,0,0.00071508,0.00014037,7.2964e+07,2.7428e+06,0,4.9585e+07,2.0257e+06,2091.4,1
5396,6.27,12260,1,12260,1,0.0010341,3.1173e-06,0,0.0010648,-0.00019182,1.0788e+08,4.44e+05,0,1.2049e+08,-5.4584e+05,12259,15904,1,15904,1,0.0022961,0.00011879,0,0.0022961,5.0651e-05,1.8405e+08,2.2219e+07,0,1.8405e+08,36412,15903,12262,1,12262,1,0.0010164,1.2905e-10,0,0.0010164,-0.00018692,1.3613e+08,12.491,0,1.3613e+08,-5.6836,12261,8553,1,8553,1,-0.00026156,-6.5033e-05,0,3.1857e-06,-0.00042582,-1.0626e+08,-1.2039e+07,0,1.3864e+05,-2.0814e+07,8552,10465,1,10465,1,0.00037743,-1.1435e-09,0,0.00037743,-0.00030602,7.7306e+07,-161.92,0,9.529e+07,-23.829,10464,14059,1,14059,1,0.0016553,2.2902e-09,0,0.0016553,-6.8231e-05,1.5801e+08,325.69,0,1.5801e+08,223.27,14058,2091.4,0,2091.4,0,0.00075959,1.813e-05,0,0.00071622,0.0001406,7.308e+07,2.7472e+06,0,4.9664e+07,2.0289e+06,2091.4,1
5396,6.28,12260,1,12260,1,0.0010358,3.1222e-06,0,0.0010665,-0.00019213,1.0805e+08,4.4471e+05,0,1.2069e+08,-5.4669e+05,12259,15904,1,15904,1,0.0022998,0.00011898,0,0.0022998,5.0732e-05,1.8433e+08,2.2255e+07,0,1.8433e+08,36477,15903,12262,1,12262,1,0.001018,2.3552e-10,0,0.001018,-0.00018722,1.3635e+08,22.915,0,1.3635e+08,-4.9393,12261,8553,1,8553,1,-0.00026197,-6.5136e-05,0,3.1905e-06,-0.0004265,-1.0643e+08,-1.2059e+07,0,1.387e+05,-2.0847e+07,8552,10465,1,10465,1,0.00037803,-9.1621e-10,0,0.00037803,-0.00030651,7.743e+07,-126.99,0,9.5442e+07,-21.701,10464,14059,1,14059,1,0.0016579,2.2493e-09,0,0.0016579,-6.834e-05,1.5826e+08,324.62,0,1.5826e+08,227.13,14058,2091.4,0,2091.4,0,0.0007608,1.8158e-05,0,0.00071737,0.00014082,7.3196e+07,2.7516e+06,0,4.9742e+07,2.0321e+06,2091.4,1
5396,6.29,12260,1,12260,1,0.0010374,3.1271e-06,0,0.0010682,-0.00019244,1.0822e+08,4.4542e+05,0,1.2088e+08,-5.4754e+05,12259,15904,1,15904,1,0.0023034,0.00011917,0,0.0023034,5.0812e-05,1.8462e+08,2.2291e+07,0,1.8462e+08,36538,15903,12262,1,12262,1,0.0010196,2.2443e-10,0,0.0010196,-0.00018752,1.3656e+08,23.46,0,1.3656e+08,-3.8625,12261,8553,1,8553,1,-0.00026239,-6.5239e-05,0,3.1953e-06,-0.00042718,-1.066e+08,-1.2078e+07,0,1.3884e+05,-2.088e+07,8552,10465,1,10465,1,0.00037864,-6.9385e-10,0,0.00037864,-0.000307,7.7554e+07,-94.058,0,9.5595e+07,-17.094,10464,14059,1,14059,1,0.0016606,2.4938e-09,0,0.0016606,-6.845e-05,1.5851e+08,342.8,0,1.5851e+08,227.61,14058,2091.4,0,2091.4,0,0.00076201,1.8187e-05,0,0.00071851,0.00014104,7.3311e+07,2.7559e+06,0,4.9821e+07,2.0353e+06,2091.4,1
5396,6.3,12260,1,12260,1,0.0010391,3.1319e-06,0,0.0010699,-0.00019274,1.0839e+08,4.4611e+05,0,1.2107e+08,-5.484e+05,12259,15904,1,15904,1,0.0023071,0.00011936,0,0.0023071,5.0892e-05,1.8491e+08,2.2326e+07,0,1.8491e+08,36606,15903,12262,1,12262,1,0.0010212,2.3683e-10,0,0.0010212,-0.00018782,1.3678e+08,19.532,0,1.3678e+08,-6.8201,12261,8553,1,8553,1,-0.0002628,-6.5341e-05,0,3.2002e-06,-0.00042786,-1.0677e+08,-1.2097e+07,0,1.39e+05,-2.0913e+07,8552,10465,1,10465,1,0.00037924,-1.3439e-09,0,0.00037924,-0.00030748,7.7678e+07,-187.11,0,9.5748e+07,-33.745,10464,14059,1,14059,1,0.0016632,2.0724e-09,0,0.0016632,-6.8559e-05,1.5877e+08,296.03,0,1.5877e+08,227.96,14058,2091.4,0,2091.4,0,0.00076322,1.8215e-05,0,0.00071966,0.00014127,7.3427e+07,2.7603e+06,0,4.9899e+07,2.0385e+06,2091.4,1
5396,6.31,12260,1,12260,1,0.0010408,3.1368e-06,0,0.0010716,-0.00019305,1.0856e+08,4.4681e+05,0,1.2126e+08,-5.4925e+05,12259,15904,1,15904,1,0.0023108,0.00011955,0,0.0023108,5.0973e-05,1.852e+08,2.2362e+07,0,1.852e+08,36644,15903,12262,1,12262,1,0.0010229,8.7405e-12,0,0.0010229,-0.00018812,1.37e+08,0.91581,0,1.37e+08,-5.1293,12261,8553,1,8553,1,-0.00026322,-6.5445e-05,0,3.2043e-06,-0.00042854,-1.0694e+08,-1.2117e+07,0,1.389e+05,-2.0946e+07,8552,10465,1,10465,1,0.00037985,-1.0904e-09,0,0.00037985,-0.00030797,7.7802e+07,-150.59,0,9.5901e+07,-21.745,10464,14059,1,14059,1,0.0016659,2.1799e-09,0,0.0016659,-6.8669e-05,1.5902e+08,317.68,0,1.5902e+08,224.49,14058,2091.4,0,2091.4,0,0.00076444,1.8244e-05,0,0.0007208,0.00014149,7.3542e+07,2.7647e+06,0,4.9978e+07,2.0417e+06,2091.4,1
5396,6.32,12260,1,12260,1,0.0010424,3.1418e-06,0,0.0010733,-0.00019336,1.0874e+08,4.4753e+05,0,1.2145e+08,-5.501e+05,12259,15904,1,15904,1,0.0023145,0.00011974,0,0.0023145,5.1053e-05,1.8548e+08,2.2398e+07,0,1.8548e+08,36703,15903,12262,1,12262,1,0.0010245,4.5415e-11,0,0.0010245,-0.00018842,1.3722e+08,4.6047,0,1.3722e+08,-4.0006,12261,8553,1,8553,1,-0.00026363,-6.5549e-05,0,3.2088e-06,-0.00042922,-1.071e+08,-1.2136e+07,0,1.3896e+05,-2.0979e+07,8552,10465,1,10465,1,0.00038046,-1.3715e-09,0,0.00038046,-0.00030846,7.7927e+07,-187.86,0,9.6053e+07,-26.395,10464,14059,1,14059,1,0.0016685,2.1732e-09,0,0.0016685,-6.8779e-05,1.5927e+08,363.35,0,1.5927e+08,222.82,14058,2091.4,0,2091.4,0,0.00076565,1.8273e-05,0,0.00072195,0.00014172,7.3658e+07,2.7691e+06,0,5.0056e+07,2.0449e+06,2091.4,1
5396,6.33,12260,1,12260,1,0.0010441,3.1467e-06,0,0.001075,-0.00019366,1.0891e+08,4.4824e+05,0,1.2164e+08,-5.5095e+05,12259,15904,1,15904,1,0.0023181,0.00011992,0,0.0023181,5.1133e-05,1.8577e+08,2.2433e+07,0,1.8577e+08,36808,15903,12262,1,12262,1,0.0010261,1.9925e-10,0,0.0010261,-0.00018872,1.3744e+08,18.949,0,1.3744e+08,-5.8135,12261,8553,1,8553,1,-0.00026405,-6.5651e-05,0,3.2147e-06,-0.0004299,-1.0727e+08,-1.2156e+07,0,1.3936e+05,-2.1012e+07,8552,10465,1,10465,1,0.00038106,-1.1081e-09,0,0.00038106,-0.00030895,7.805e+07,-152.99,0,9.6206e+07,-25.565,10464,14059,1,14059,1,0.0016712,2.2907e-09,0,0.0016712,-6.8888e-05,1.5952e+08,335.93,0,1.5952e+08,229.68,14058,2091.4,0,2091.4,0,0.00076686,1.8301e-05,0,0.00072309,0.00014194,7.3774e+07,2.7734e+06,0,5.0135e+07,2.0481e+06,2091.4,1
5396,6.34,12260,1,12260,1,0.0010457,3.1515e-06,0,0.0010767,-0.00019397,1.0908e+08,4.4892e+05,0,1.2183e+08,-5.518e+05,12259,15904,1,15904,1,0.0023218,0.00012011,0,0.0023218,5.1213e-05,1.8606e+08,2.2469e+07,0,1.8606e+08,36867,15903,12262,1,12262,1,0.0010277,-2.6407e-11,0,0.0010277,-0.00018902,1.3765e+08,-2.029,0,1.3765e+08,-6.1155,12261,8553,1,8553,1,-0.00026446,-6.5752e-05,0,3.2197e-06,-0.00043058,-1.0744e+08,-1.2175e+07,0,1.396e+05,-2.1045e+07,8552,10465,1,10465,1,0.00038166,-1.1964e-09,0,0.00038167,-0.00030944,7.8174e+07,-175.9,0,9.6358e+07,-29.062,10464,14059,1,14059,1,0.0016738,2.4365e-09,0,0.0016738,-6.8997e-05,1.5978e+08,347.16,0,1.5978e+08,231.11,14058,2091.4,0,2091.4,0,0.00076808,1.8329e-05,0,0.00072424,0.00014217,7.3889e+07,2.7778e+06,0,5.0213e+07,2.0513e+06,2091.4,1
5396,6.35,12260,1,12260,1,0.0010474,3.1564e-06,0,0.0010784,-0.00019428,1.0925e+08,4.4963e+05,0,1.2203e+08,-5.5265e+05,12259,15904,1,15904,1,0.0023255,0.0001203,0,0.0023255,5.1294e-05,1.8635e+08,2.2504e+07,0,1.8635e+08,36916,15903,12262,1,12262,1,0.0010294,2.344e-11,0,0.0010294,-0.00018931,1.3787e+08,2.0693,0,1.3787e+08,-3.6887,12261,8553,1,8553,1,-0.00026487,-6.5855e-05,0,3.2247e-06,-0.00043126,-1.0761e+08,-1.2194e+07,0,1.3977e+05,-2.1078e+07,8552,10465,1,10465,1,0.00038227,-6.4388e-10,0,0.00038227,-0.00030993,7.8298e+07,-90.5,0,9.6511e+07,-15.474,10464,14059,1,14059,1,0.0016765,2.5252e-09,0,0.0016765,-6.9107e-05,1.6003e+08,342.42,0,1.6003e+08,228.4,14058,2091.4,0,2091.4,0,0.00076929,1.8358e-05,0,0.00072538,0.00014239,7.4005e+07,2.7821e+06,0,5.0291e+07,2.0545e+06,2091.4,1
5396,6.36,12260,1,12260,1,0.001049,3.1613e-06,0,0.0010801,-0.00019458,1.0942e+08,4.5032e+05,0,1.2222e+08,-5.535e+05,12259,15904,1,15904,1,0.0023291,0.00012049,0,0.0023291,5.1374e-05,1.8663e+08,2.254e+07,0,1.8663e+08,36961,15903,12262,1,12262,1,0.001031,-4.9825e-11,0,0.001031,-0.00018961,1.3809e+08,-5.0443,0,1.3809e+08,-4.3455,12261,8553,1,8553,1,-0.00026529,-6.5959e-05,0,3.2287e-06,-0.00043194,-1.0778e+08,-1.2214e+07,0,1.3972e+05,-2.1111e+07,8552,10465,1,10465,1,0.00038288,-9.1635e-10,0,0.00038288,-0.00031042,7.8422e+07,-125.09,0,9.6664e+07,-23.993,10464,14059,1,14059,1,0.0016791,2.4249e-09,0,0.0016791,-6.9216e-05,1.6028e+08,343.42,0,1.6028e+08,223.14,14058,2091.4,0,2091.4,0,0.0007705,1.8386e-05,0,0.00072653,0.00014262,7.412e+07,2.7865e+06,0,5.037e+07,2.0577e+06,2091.4,1
5396,6.37,12260,1,12260,1,0.0010507,3.1662e-06,0,0.0010818,-0.00019489,1.0959e+08,4.5104e+05,0,1.2241e+08,-5.5435e+05,12259,15904,1,15904,1,0.0023328,0.00012068,0,0.0023328,5.1454e-05,1.8692e+08,2.2576e+07,0,1.8692e+08,37031,15903,12262,1,12262,1,0.0010326,4.6886e-11,0,0.0010326,-0.00018991,1.3831e+08,5.0646,0,1.3831e+08,-4.4545,12261,8553,1,8553,1,-0.0002657,-6.6062e-05,0,3.2338e-06,-0.00043262,-1.0795e+08,-1.2233e+07,0,1.3993e+05,-2.1143e+07,8552,10465,1,10465,1,0.00038348,-8.3782e-10,0,0.00038348,-0.00031091,7.8546e+07,-115.28,0,9.6817e+07,-19.286,10464,14059,1,14059,1,0.0016818,2.4342e-09,0,0.0016818,-6.9326e-05,1.6053e+08,347.98,0,1.6053e+08,225.47,14058,2091.4,0,2091.4,0,0.00077172,1.8415e-05,0,0.00072767,0.00014284,7.4236e+07,2.7909e+06,0,5.0448e+07,2.0609e+06,2091.4,1
5396,6.38,12260,1,12260,1,0.0010523,3.1711e-06,0,0.0010835,-0.0001952,1.0977e+08,4.5174e+05,0,1.226e+08,-5.552e+05,12259,15904,1,15904,1,0.0023365,0.00012086,0,0.0023365,5.1535e-05,1.8721e+08,2.2611e+07,0,1.8721e+08,37100,15903,12262,1,12262,1,0.0010342,1.5666e-10,0,0.0010342,-0.00019021,1.3852e+08,15.781,0,1.3852e+08,-5.4518,12261,8553,1,8553,1,-0.00026612,-6.6164e-05,0,3.239e-06,-0.0004333,-1.0811e+08,-1.2253e+07,0,1.402e+05,-2.1176e+07,8552,10465,1,10465,1,0.00038409,-7.5663e-10,0,0.00038409,-0.0003114,7.867e+07,-106.81,0,9.697e+07,-19.588,10464,14059,1,14059,1,0.0016844,2.5355e-09,0,0.0016844,-6.9435e-05,1.6079e+08,345.39,0,1.6079e+08,227.85,14058,2091.4,0,2091.4,0,0.00077293,1.8443e-05,0,0.00072881,0.00014306,7.4351e+07,2.7953e+06,0,5.0527e+07,2.0641e+06,2091.4,1
5396,6.39,12260,1,12260,1,0.001054,3.1759e-06,0,0.0010852,-0.0001955,1.0994e+08,4.5242e+05,0,1.2279e+08,-5.5606e+05,12259,15904,1,15904,1,0.0023401,0.00012105,0,0.0023401,5.1615e-05,1.875e+08,2.2647e+07,0,1.875e+08,37169,15903,12262,1,12262,1,0.0010359,-1.9564e-11,0,0.0010359,-0.00019051,1.3874e+08,-1.5502,0,1.3874e+08,-6.3929,12261,8553,1,8553,1,-0.00026653,-6.6267e-05,0,3.2436e-06,-0.00043398,-1.0828e+08,-1.2272e+07,0,1.4029e+05,-2.121e+07,8552,10465,1,10465,1,0.00038469,-1.4254e-09,0,0.00038469,-0.00031189,7.8794e+07,-209.53,0,9.7122e+07,-31.529,10464,14059,1,14059,1,0.0016871,2.2595e-09,0,0.0016871,-6.9545e-05,1.6104e+08,318.57,0,1.6104e+08,234.92,14058,2091.4,0,2091.4,0,0.00077414,1.8472e-05,0,0.00072996,0.00014329,7.4467e+07,2.7997e+06,0,5.0605e+07,2.0673e+06,2091.4,1
5396,6.4,12260,1,12260,1,0.0010556,3.1808e-06,0,0.0010869,-0.00019581,1.1011e+08,4.5313e+05,0,1.2299e+08,-5.5691e+05,12259,15904,1,15904,1,0.0023438,0.00012124,0,0.0023438,5.1695e-05,1.8778e+08,2.2683e+07,0,1.8778e+08,37208,15903,12262,1,12262,1,0.0010375,3.0572e-12,0,0.0010375,-0.00019081,1.3896e+08,0.34242,0,1.3896e+08,-5.3768,12261,8553,1,8553,1,-0.00026695,-6.637e-05,0,3.2481e-06,-0.00043466,-1.0845e+08,-1.2292e+07,0,1.4041e+05,-2.1243e+07,8552,10465,1,10465,1,0.0003853,-1.1553e-09,0,0.0003853,-0.00031238,7.8918e+07,-162.43,0,9.7275e+07,-22.796,10464,14059,1,14059,1,0.0016897,2.2501e-09,0,0.0016897,-6.9655e-05,1.6129e+08,327.86,0,1.6129e+08,228,14058,2091.4,0,2091.4,0,0.00077535,1.8501e-05,0,0.00073111,0.00014351,7.4583e+07,2.8041e+06,0,5.0684e+07,2.0705e+06,2091.4,1
5396,6.41,12260,1,12260,1,0.0010573,3.1857e-06,0,0.0010886,-0.00019612,1.1028e+08,4.5384e+05,0,1.2318e+08,-5.5775e+05,12259,15904,1,15904,1,0.0023475,0.00012143,0,0.0023475,5.1775e-05,1.8807e+08,2.2718e+07,0,1.8807e+08,37301,15903,12262,1,12262,1,0.0010391,8.8938e-11,0,0.0010391,-0.00019111,1.3918e+08,8.7691,0,1.3918e+08,-5.4057,12261,8553,1,8553,1,-0.00026736,-6.6471e-05,0,3.254e-06,-0.00043534,-1.0862e+08,-1.2311e+07,0,1.4088e+05,-2.1275e+07,8552,10465,1,10465,1,0.00038591,-9.1598e-10,0,0.00038591,-0.00031287,7.9042e+07,-128.79,0,9.7428e+07,-23.627,10464,14059,1,14059,1,0.0016923,2.4969e-09,0,0.0016923,-6.9764e-05,1.6154e+08,358.05,0,1.6154e+08,231.71,14058,2091.4,0,2091.4,0,0.00077657,1.8529e-05,0,0.00073225,0.00014374,7.4698e+07,2.8084e+06,0,5.0762e+07,2.0737e+06,2091.4,1
5396,6.42,12260,1,12260,1,0.0010589,3.1906e-06,0,0.0010903,-0.00019642,1.1045e+08,4.5454e+05,0,1.2337e+08,-5.586e+05,12259,15904,1,15904,1,0.0023511,0.00012162,0,0.0023511,5.1856e-05,1.8836e+08,2.2754e+07,0,1.8836e+08,37356,15903,12262,1,12262,1,0.0010407,1.1737e-10,0,0.0010407,-0.00019141,1.394e+08,11.295,0,1.394e+08,-6.3177,12261,8553,1,8553,1,-0.00026778,-6.6575e-05,0,3.2585e-06,-0.00043602,-1.0879e+08,-1.233e+07,0,1.4097e+05,-2.1308e+07,8552,10465,1,10465,1,0.00038651,-1.2219e-09,0,0.00038651,-0.00031336,7.9166e+07,-177.43,0,9.758e+07,-35.312,10464,14059,1,14059,1,0.001695,2.4592e-09,0,0.001695,-6.9874e-05,1.618e+08,361.99,0,1.618e+08,236.99,14058,2091.4,0,2091.4,0,0.00077778,1.8557e-05,0,0.00073339,0.00014396,7.4814e+07,2.8127e+06,0,5.0841e+07,2.0769e+06,2091.4,1
5396,6.43,12260,1,12260,1,0.0010606,3.1955e-06,0,0.001092,-0.00019673,1.1062e+08,4.5524e+05,0,1.2356e+08,-5.5945e+05,12259,15904,1,15904,1,0.0023548,0.00012181,0,0.0023548,5.1936e-05,1.8865e+08,2.2789e+07,0,1.8865e+08,37440,15903,12262,1,12262,1,0.0010424,7.7349e-11,0,0.0010424,-0.00019171,1.3961e+08,6.3597,0,1.3961e+08,-7.0894,12261,8553,1,8553,1,-0.00026819,-6.6678e-05,0,3.2633e-06,-0.0004367,-1.0896e+08,-1.235e+07,0,1.4113e+05,-2.1341e+07,8552,10465,1,10465,1,0.00038712,-1.1986e-09,0,0.00038712,-0.00031384,7.929e+07,-166.58,0,9.7733e+07,-29.451,10464,14059,1,14059,1,0.0016976,2.3621e-09,0,0.0016976,-6.9983e-05,1.6205e+08,353.29,0,1.6205e+08,232.47,14058,2091.4,0,2091.4,0,0.00077899,1.8586e-05,0,0.00073454,0.00014419,7.4929e+07,2.8171e+06,0,5.0919e+07,2.08e+06,2091.4,1
5396,6.44,12260,1,12260,1,0.0010623,3.2003e-06,0,0.0010937,-0.00019704,1.108e+08,4.5593e+05,0,1.2375e+08,-5.603e+05,12259,15904,1,15904,1,0.0023585,0.00012199,0,0.0023585,5.2016e-05,1.8893e+08,2.2825e+07,0,1.8893e+08,37447,15903,12262,1,12262,1,0.001044,-4.1716e-11,0,0.001044,-0.00019201,1.3983e+08,-4.4328,0,1.3983e+08,-6.3575,12261,8553,1,8553,1,-0.00026861,-6.6781e-05,0,3.2672e-06,-0.00043739,-1.0913e+08,-1.2369e+07,0,1.4117e+05,-2.1374e+07,8552,10465,1,10465,1,0.00038772,-1.0943e-09,0,0.00038772,-0.00031433,7.9415e+07,-151.17,0,9.7886e+07,-28.366,10464,14059,1,14059,1,0.0017003,2.1791e-09,0,0.0017003,-7.0093e-05,1.623e+08,316.38,0,1.623e+08,222,14058,2091.4,0,2091.4,0,0.00078021,1.8615e-05,0,0.00073568,0.00014441,7.5045e+07,2.8215e+06,0,5.0998e+07,2.0832e+06,2091.4,1
5396,6.45,12260,1,12260,1,0.0010639,3.2053e-06,0,0.0010954,-0.00019735,1.1097e+08,4.5665e+05,0,1.2394e+08,-5.6115e+05,12259,15904,1,15904,1,0.0023622,0.00012218,0,0.0023622,5.2097e-05,1.8922e+08,2.286e+07,0,1.8922e+08,37535,15903,12262,1,12262,1,0.0010456,1.7102e-10,0,0.0010456,-0.00019231,1.4005e+08,16.579,0,1.4005e+08,-5.8049,12261,8553,1,8553,1,-0.00026902,-6.6882e-05,0,3.2734e-06,-0.00043807,-1.0929e+08,-1.2389e+07,0,1.4172e+05,-2.1407e+07,8552,10465,1,10465,1,0.00038833,-7.6497e-10,0,0.00038833,-0.00031482,7.9538e+07,-107.23,0,9.8039e+07,-23.853,10464,14059,1,14059,1,0.0017029,2.6348e-09,0,0.0017029,-7.0202e-05,1.6255e+08,367.87,0,1.6255e+08,233.51,14058,2091.4,0,2091.4,0,0.00078142,1.8643e-05,0,0.00073683,0.00014464,7.516e+07,2.8258e+06,0,5.1076e+07,2.0864e+06,2091.4,1
5396,6.46,12260,1,12260,1,0.0010656,3.2101e-06,0,0.0010971,-0.00019765,1.1114e+08,4.5734e+05,0,1.2413e+08,-5.62e+05,12259,15904,1,15904,1,0.0023658,0.00012237,0,0.0023658,5.2177e-05,1.8951e+08,2.2896e+07,0,1.8951e+08,37604,15903,12262,1,12262,1,0.0010472,3.5789e-11,0,0.0010472,-0.0001926,1.4027e+08,2.632,0,1.4027e+08,-3.8986,12261,8553,1,8553,1,-0.00026943,-6.6984e-05,0,3.2785e-06,-0.00043875,-1.0946e+08,-1.2408e+07,0,1.4204e+05,-2.144e+07,8552,10465,1,10465,1,0.00038893,-7.3695e-10,0,0.00038893,-0.00031531,7.9662e+07,-104.71,0,9.8191e+07,-19.325,10464,14059,1,14059,1,0.0017056,2.5057e-09,0,0.0017056,-7.0311e-05,1.6281e+08,344.42,0,1.6281e+08,236.82,14058,2091.4,0,2091.4,0,0.00078263,1.8671e-05,0,0.00073797,0.00014486,7.5275e+07,2.8302e+06,0,5.1154e+07,2.0896e+06,2091.4,1
5396,6.47,12260,1,12260,1,0.0010672,3.215e-06,0,0.0010988,-0.00019796,1.1131e+08,4.5805e+05,0,1.2433e+08,-5.6286e+05,12259,15904,1,15904,1,0.0023695,0.00012256,0,0.0023695,5.2257e-05,1.8979e+08,2.2932e+07,0,1.8979e+08,37650,15903,12262,1,12262,1,0.0010489,3.3562e-12,0,0.0010489,-0.0001929,1.4048e+08,0.23945,0,1.4048e+08,-4.6614,12261,8553,1,8553,1,-0.00026985,-6.7088e-05,0,3.2829e-06,-0.00043943,-1.0963e+08,-1.2428e+07,0,1.4216e+05,-2.1473e+07,8552,10465,1,10465,1,0.00038954,-7.4914e-10,0,0.00038954,-0.0003158,7.9787e+07,-103.26,0,9.8344e+07,-22.677,10464,14059,1,14059,1,0.0017082,2.5659e-09,0,0.0017082,-7.0421e-05,1.6306e+08,361.82,0,1.6306e+08,228.08,14058,2091.4,0,2091.4,0,0.00078384,1.87e-05,0,0.00073912,0.00014508,7.5391e+07,2.8346e+06,0,5.1233e+07,2.0928e+06,2091.4,1
5396,6.48,12260,1,12260,1,0.0010689,3.2198e-06,0,0.0011005,-0.00019826,1.1148e+08,4.5874e+05,0,1.2452e+08,-5.637e+05,12259,15904,1,15904,1,0.0023732,0.00012274,0,0.0023732,5.2337e-05,1.9008e+08,2.2967e+07,0,1.9008e+08,37731,15903,12262,1,12262,1,0.0010505,1.7984e-10,0,0.0010505,-0.0001932,1.407e+08,17.603,0,1.407e+08,-4.6824,12261,8553,1,8553,1,-0.00027026,-6.7189e-05,0,3.2882e-06,-0.00044011,-1.098e+08,-1.2447e+07,0,1.425e+05,-2.1506e+07,8552,10465,1,10465,1,0.00039015,-7.9143e-10,0,0.00039015,-0.00031629,7.991e+07,-110.87,0,9.8497e+07,-21.745,10464,14059,1,14059,1,0.0017109,2.5365e-09,0,0.0017109,-7.0531e-05,1.6331e+08,349.57,0,1.6331e+08,237.2,14058,2091.4,0,2091.4,0,0.00078505,1.8728e-05,0,0.00074026,0.00014531,7.5506e+07,2.8389e+06,0,5.1311e+07,2.096e+06,2091.4,1
5396,6.49,12260,1,12260,1,0.0010705,3.2247e-06,0,0.0011022,-0.00019857,1.1166e+08,4.5944e+05,0,1.2471e+08,-5.6454e+05,12259,15904,1,15904,1,0.0023768,0.00012293,0,0.0023768,5.2418e-05,1.9037e+08,2.3003e+07,0,1.9037e+08,37782,15903,12262,1,12262,1,0.0010521,1.4113e-10,0,0.0010521,-0.0001935,1.4092e+08,14.936,0,1.4092e+08,-4.4289,12261,8553,1,8553,1,-0.00027068,-6.7292e-05,0,3.2928e-06,-0.00044079,-1.0997e+08,-1.2466e+07,0,1.4266e+05,-2.1538e+07,8552,10465,1,10465,1,0.00039075,-7.5557e-10,0,0.00039075,-0.00031678,8.0035e+07,-103.93,0,9.865e+07,-19.439,10464,14059,1,14059,1,0.0017135,2.4802e-09,0,0.0017135,-7.064e-05,1.6356e+08,356.69,0,1.6356e+08,233.93,14058,2091.4,0,2091.4,0,0.00078627,1.8757e-05,0,0.0007414,0.00014553,7.5622e+07,2.8433e+06,0,5.139e+07,2.0992e+06,2091.4,1
5396,6.5,12260,1,12260,1,0.0010722,3.2297e-06,0,0.0011039,-0.00019888,1.1183e+08,4.6015e+05,0,1.249e+08,-5.6539e+05,12259,15904,1,15904,1,0.0023805,0.00012312,0,0.0023805,5.2498e-05,1.9065e+08,2.3038e+07,0,1.9065e+08,37853,15903,12262,1,12262,1,0.0010537,2.5442e-10,0,0.0010537,-0.0001938,1.4114e+08,25.902,0,1.4114e+08,-5.2089,12261,8553,1,8553,1,-0.00027109,-6.7394e-05,0,3.298e-06,-0.00044147,-1.1013e+08,-1.2486e+07,0,1.4302e+05,-2.1571e+07,8552,10465,1,10465,1,0.00039136,-7.6938e-10,0,0.00039136,-0.00031727,8.0159e+07,-106.81,0,9.8802e+07,-22.84,10464,14059,1,14059,1,0.0017162,2.5579e-09,0,0.0017162,-7.075e-05,1.6382e+08,357.93,0,1.6382e+08,237.28,14058,2091.4,0,2091.4,0,0.00078748,1.8785e-05,0,0.00074255,0.00014576,7.5737e+07,2.8477e+06,0,5.1468e+07,2.1024e+06,2091.4,1
5396,6.51,12260,1,12260,1,0.0010738,3.2345e-06,0,0.0011056,-0.00019919,1.12e+08,4.6085e+05,0,1.2509e+08,-5.6624e+05,12259,15904,1,15904,1,0.0023842,0.00012331,0,0.0023842,5.2578e-05,1.9094e+08,2.3074e+07,0,1.9094e+08,37903,15903,12262,1,12262,1,0.0010554,2.5496e-10,0,0.0010554,-0.0001941,1.4135e+08,25.633,0,1.4135e+08,-4.8888,12261,8553,1,8553,1,-0.0002715,-6.7497e-05,0,3.3025e-06,-0.00044215,-1.103e+08,-1.2505e+07,0,1.4318e+05,-2.1604e+07,8552,10465,1,10465,1,0.00039196,-8.6805e-10,0,0.00039196,-0.00031776,8.0283e+07,-118.72,0,9.8955e+07,-23.121,10464,14059,1,14059,1,0.0017188,2.4955e-09,0,0.0017188,-7.0859e-05,1.6407e+08,351.43,0,1.6407e+08,236.21,14058,2091.4,0,2091.4,0,0.00078869,1.8814e-05,0,0.00074369,0.00014598,7.5853e+07,2.852e+06,0,5.1547e+07,2.1055e+06,2091.4,1
5396,6.52,12260,1,12260,1,0.0010755,3.2393e-06,0,0.0011073,-0.00019949,1.1217e+08,4.6154e+05,0,1.2528e+08,-5.671e+05,12259,15904,1,15904,1,0.0023878,0.0001235,0,0.0023878,5.2658e-05,1.9123e+08,2.311e+07,0,1.9123e+08,37982,15903,12262,1,12262,1,0.001057,8.0196e-11,0,0.001057,-0.0001944,1.4157e+08,6.7122,0,1.4157e+08,-5.0842,12261,8553,1,8553,1,-0.00027192,-6.7598e-05,0,3.308e-06,-0.00044283,-1.1047e+08,-1.2524e+07,0,1.4364e+05,-2.1637e+07,8552,10465,1,10465,1,0.00039257,-1.1229e-09,0,0.00039257,-0.00031825,8.0407e+07,-159.22,0,9.9108e+07,-22.647,10464,14059,1,14059,1,0.0017215,2.2991e-09,0,0.0017215,-7.0969e-05,1.6432e+08,323.78,0,1.6432e+08,238.88,14058,2091.4,0,2091.4,0,0.00078991,1.8842e-05,0,0.00074484,0.00014621,7.5968e+07,2.8564e+06,0,5.1625e+07,2.1088e+06,2091.4,1
5396,6.53,12260,1,12260,1,0.0010771,3.2442e-06,0,0.001109,-0.0001998,1.1234e+08,4.6224e+05,0,1.2548e+08,-5.6794e+05,12259,15904,1,15904,1,0.0023915,0.00012369,0,0.0023915,5.2738e-05,1.9152e+08,2.3145e+07,0,1.9152e+08,38035,15903,12262,1,12262,1,0.0010586,7.1721e-11,0,0.0010586,-0.0001947,1.4179e+08,6.8457,0,1.4179e+08,-5.2181,12261,8553,1,8553,1,-0.00027233,-6.7701e-05,0,3.3128e-06,-0.00044351,-1.1064e+08,-1.2544e+07,0,1.4389e+05,-2.167e+07,8552,10465,1,10465,1,0.00039318,-1.074e-09,0,0.00039318,-0.00031874,8.0531e+07,-152.6,0,9.9261e+07,-22.39,10464,14059,1,14059,1,0.0017241,2.3172e-09,0,0.0017241,-7.1079e-05,1.6457e+08,331.48,0,1.6457e+08,238.74,14058,2091.4,0,2091.4,0,0.00079112,1.8871e-05,0,0.00074598,0.00014643,7.6084e+07,2.8608e+06,0,5.1703e+07,2.1119e+06,2091.4,1
5396,6.54,12260,1,12260,1,0.0010788,3.2491e-06,0,0.0011107,-0.00020011,1.1251e+08,4.6294e+05,0,1.2567e+08,-5.6879e+05,12259,15904,1,15904,1,0.0023952,0.00012388,0,0.0023952,5.2819e-05,1.918e+08,2.3181e+07,0,1.918e+08,38098,15903,12262,1,12262,1,0.0010603,9.826e-12,0,0.0010603,-0.000195,1.4201e+08,0.91542,0,1.4201e+08,-7.3439,12261,8553,1,8553,1,-0.00027275,-6.7805e-05,0,3.3173e-06,-0.00044419,-1.1081e+08,-1.2563e+07,0,1.4406e+05,-2.1703e+07,8552,10465,1,10465,1,0.00039378,-1.4455e-09,0,0.00039378,-0.00031923,8.0655e+07,-204.05,0,9.9414e+07,-34.576,10464,14059,1,14059,1,0.0017268,2.2942e-09,0,0.0017268,-7.1188e-05,1.6483e+08,342.75,0,1.6483e+08,239.06,14058,2091.4,0,2091.4,0,0.00079233,1.89e-05,0,0.00074713,0.00014666,7.62e+07,2.8652e+06,0,5.1782e+07,2.1151e+06,2091.4,1
5396,6.55,12260,1,12260,1,0.0010805,3.254e-06,0,0.0011124,-0.00020041,1.1269e+08,4.6364e+05,0,1.2586e+08,-5.6964e+05,12259,15904,1,15904,1,0.0023989,0.00012406,0,0.0023989,5.2899e-05,1.9209e+08,2.3217e+07,0,1.9209e+08,38160,15903,12262,1,12262,1,0.0010619,1.1729e-11,0,0.0010619,-0.0001953,1.4223e+08,0.89764,0,1.4223e+08,-6.0804,12261,8553,1,8553,1,-0.00027316,-6.7906e-05,0,3.3228e-06,-0.00044487,-1.1098e+08,-1.2582e+07,0,1.4455e+05,-2.1736e+07,8552,10465,1,10465,1,0.00039439,-1.1671e-09,0,0.00039439,-0.00031971,8.0779e+07,-170.13,0,9.9566e+07,-27.723,10464,14059,1,14059,1,0.0017294,2.4311e-09,0,0.0017294,-7.1298e-05,1.6508e+08,341.5,0,1.6508e+08,242.17,14058,2091.4,0,2091.4,0,0.00079355,1.8928e-05,0,0.00074827,0.00014688,7.6315e+07,2.8695e+06,0,5.186e+07,2.1183e+06,2091.4,1
5396,6.56,12260,1,12260,1,0.0010821,3.2589e-06,0,0.0011141,-0.00020072,1.1286e+08,4.6435e+05,0,1.2605e+08,-5.7049e+05,12259,15904,1,15904,1,0.0024025,0.00012425,0,0.0024025,5.2979e-05,1.9238e+08,2.3252e+07,0,1.9238e+08,38232,15903,12262,1,12262,1,0.0010635,1.2033e-10,0,0.0010635,-0.0001956,1.4244e+08,11.465,0,1.4244e+08,-5.4869,12261,8553,1,8553,1,-0.00027358,-6.8009e-05,0,3.328e-06,-0.00044555,-1.1114e+08,-1.2602e+07,0,1.4492e+05,-2.1769e+07,8552,10465,1,10465,1,0.00039499,-9.7787e-10,0,0.00039499,-0.0003202,8.0903e+07,-137.12,0,9.9719e+07,-25.931,10464,14059,1,14059,1,0.001732,2.487e-09,0,0.001732,-7.1407e-05,1.6533e+08,348.86,0,1.6533e+08,242.3,14058,2091.4,0,2091.4,0,0.00079476,1.8956e-05,0,0.00074942,0.0001471,7.643e+07,2.8739e+06,0,5.1939e+07,2.1215e+06,2091.4,1
5396,6.57,12260,1,12260,1,0.0010838,3.2639e-06,0,0.0011159,-0.00020103,1.1303e+08,4.6507e+05,0,1.2624e+08,-5.7134e+05,12259,15904,1,15904,1,0.0024062,0.00012444,0,0.0024062,5.306e-05,1.9266e+08,2.3288e+07,0,1.9266e+08,38279,15903,12262,1,12262,1,0.0010651,2.8402e-10,0,0.0010651,-0.00019589,1.4266e+08,28.279,0,1.4266e+08,-4.9758,12261,8553,1,8553,1,-0.00027399,-6.8112e-05,0,3.3327e-06,-0.00044623,-1.1131e+08,-1.2621e+07,0,1.452e+05,-2.1802e+07,8552,10465,1,10465,1,0.0003956,-8.6312e-10,0,0.0003956,-0.00032069,8.1027e+07,-117.98,0,9.9872e+07,-24.307,10464,14059,1,14059,1,0.0017347,2.6046e-09,0,0.0017347,-7.1517e-05,1.6559e+08,365.71,0,1.6559e+08,240.31,14058,2091.4,0,2091.4,0,0.00079597,1.8985e-05,0,0.00075056,0.00014733,7.6546e+07,2.8783e+06,0,5.2017e+07,2.1247e+06,2091.4,1
5396,6.58,12260,1,12260,1,0.0010854,3.2687e-06,0,0.0011176,-0.00020133,1.132e+08,4.6575e+05,0,1.2643e+08,-5.7218e+05,12259,15904,1,15904,1,0.0024099,0.00012463,0,0.0024099,5.314e-05,1.9295e+08,2.3323e+07,0,1.9295e+08,38339,15903,12262,1,12262,1,0.0010668,1.3337e-10,0,0.0010668,-0.00019619,1.4288e+08,13.192,0,1.4288e+08,-3.9261,12261,8553,1,8553,1,-0.0002744,-6.8213e-05,0,3.338e-06,-0.00044691,-1.1148e+08,-1.264e+07,0,1.4565e+05,-2.1835e+07,8552,10465,1,10465,1,0.00039621,-6.3407e-10,0,0.00039621,-0.00032118,8.1151e+07,-88.832,0,1.0002e+08,-17.14,10464,14059,1,14059,1,0.0017373,2.6215e-09,0,0.0017373,-7.1626e-05,1.6584e+08,352.09,0,1.6584e+08,241.88,14058,2091.4,0,2091.4,0,0.00079718,1.9013e-05,0,0.00075171,0.00014755,7.6661e+07,2.8826e+06,0,5.2095e+07,2.1278e+06,2091.4,1
5396,6.59,12260,1,12260,1,0.0010871,3.2737e-06,0,0.0011193,-0.00020164,1.1337e+08,4.6647e+05,0,1.2662e+08,-5.7304e+05,12259,15904,1,15904,1,0.0024135,0.00012481,0,0.0024135,5.322e-05,1.9324e+08,2.3359e+07,0,1.9324e+08,38409,15903,12262,1,12262,1,0.0010684,2.6164e-10,0,0.0010684,-0.00019649,1.431e+08,29.322,0,1.431e+08,-3.8259,12261,8553,1,8553,1,-0.00027482,-6.8315e-05,0,3.3432e-06,-0.00044759,-1.1165e+08,-1.266e+07,0,1.4604e+05,-2.1868e+07,8552,10465,1,10465,1,0.00039681,-4.5389e-10,0,0.00039681,-0.00032167,8.1275e+07,-62.384,0,1.0018e+08,-15.844,10464,14059,1,14059,1,0.00174,2.7548e-09,0,0.00174,-7.1736e-05,1.6609e+08,370.68,0,1.6609e+08,238.99,14058,2091.4,0,2091.4,0,0.0007984,1.9041e-05,0,0.00075285,0.00014778,7.6777e+07,2.887e+06,0,5.2174e+07,2.1311e+06,2091.4,1
5396,6.6,12260,1,12260,1,0.0010887,3.2785e-06,0,0.001121,-0.00020195,1.1354e+08,4.6716e+05,0,1.2682e+08,-5.7388e+05,12259,15904,1,15904,1,0.0024172,0.000125,0,0.0024172,5.33e-05,1.9352e+08,2.3394e+07,0,1.9352e+08,38466,15903,12262,1,12262,1,0.00107,2.5749e-10,0,0.00107,-0.00019679,1.4332e+08,24.931,0,1.4332e+08,-6.0438,12261,8553,1,8553,1,-0.00027523,-6.8419e-05,0,3.3477e-06,-0.00044827,-1.1182e+08,-1.2679e+07,0,1.4626e+05,-2.19e+07,8552,10465,1,10465,1,0.00039742,-9.1217e-10,0,0.00039742,-0.00032216,8.1399e+07,-124.37,0,1.0033e+08,-26.524,10464,14059,1,14059,1,0.0017426,2.6047e-09,0,0.0017426,-7.1846e-05,1.6634e+08,368.64,0,1.6634e+08,239.52,14058,2091.4,0,2091.4,0,0.00079961,1.907e-05,0,0.000754,0.000148,7.6892e+07,2.8913e+06,0,5.2252e+07,2.1342e+06,2091.4,1
5396,6.61,12260,1,12260,1,0.0010904,3.2834e-06,0,0.0011227,-0.00020225,1.1372e+08,4.6786e+05,0,1.2701e+08,-5.7475e+05,12259,15904,1,15904,1,0.0024209,0.00012519,0,0.0024209,5.338e-05,1.9381e+08,2.3431e+07,0,1.9381e+08,38518,15903,12262,1,12262,1,0.0010716,4.0635e-11,0,0.0010716,-0.00019709,1.4353e+08,3.2189,0,1.4353e+08,-5.4003,12261,8553,1,8553,1,-0.00027565,-6.8522e-05,0,3.3525e-06,-0.00044895,-1.1199e+08,-1.2699e+07,0,1.4657e+05,-2.1934e+07,8552,10465,1,10465,1,0.00039803,-9.8684e-10,0,0.00039803,-0.00032265,8.1524e+07,-135.26,0,1.0048e+08,-21.657,10464,14059,1,14059,1,0.0017453,2.501e-09,0,0.0017453,-7.1955e-05,1.666e+08,342.84,0,1.666e+08,236.11,14058,2091.4,0,2091.4,0,0.00080082,1.9099e-05,0,0.00075514,0.00014823,7.7008e+07,2.8958e+06,0,5.2331e+07,2.1374e+06,2091.4,1
5396,6.62,12260,1,12260,1,0.001092,3.2883e-06,0,0.0011244,-0.00020256,1.1389e+08,4.6856e+05,0,1.272e+08,-5.7559e+05,12259,15904,1,15904,1,0.0024245,0.00012538,0,0.0024245,5.3461e-05,1.941e+08,2.3466e+07,0,1.941e+08,38564,15903,12262,1,12262,1,0.0010733,1.0333e-10,0,0.0010733,-0.00019739,1.4375e+08,10.986,0,1.4375e+08,-5.9478,12261,8553,1,8553,1,-0.00027606,-6.8624e-05,0,3.3569e-06,-0.00044963,-1.1215e+08,-1.2718e+07,0,1.468e+05,-2.1966e+07,8552,10465,1,10465,1,0.00039863,-9.2667e-10,0,0.00039863,-0.00032314,8.1648e+07,-125.52,0,1.0064e+08,-26.386,10464,14059,1,14059,1,0.0017479,2.4685e-09,0,0.0017479,-7.2065e-05,1.6685e+08,381.85,0,1.6685e+08,231.4,14058,2091.4,0,2091.4,0,0.00080204,1.9127e-05,0,0.00075629,0.00014845,7.7123e+07,2.9001e+06,0,5.2409e+07,2.1406e+06,2091.4,1
5396,6.63,12260,1,12260,1,0.0010937,3.2932e-06,0,0.0011261,-0.00020287,1.1406e+08,4.6927e+05,0,1.2739e+08,-5.7643e+05,12259,15904,1,15904,1,0.0024282,0.00012557,0,0.0024282,5.3541e-05,1.9438e+08,2.3501e+07,0,1.9438e+08,38658,15903,12262,1,12262,1,0.0010749,1.7562e-10,0,0.0010749,-0.00019769,1.4397e+08,17.183,0,1.4397e+08,-6.3476,12261,8553,1,8553,1,-0.00027647,-6.8725e-05,0,3.3628e-06,-0.00045031,-1.1232e+08,-1.2737e+07,0,1.4741e+05,-2.1999e+07,8552,10465,1,10465,1,0.00039924,-1.1627e-09,0,0.00039924,-0.00032363,8.1772e+07,-162.98,0,1.0079e+08,-30.573,10464,14059,1,14059,1,0.0017506,2.5491e-09,0,0.0017506,-7.2175e-05,1.671e+08,363,0,1.671e+08,242.85,14058,2091.4,0,2091.4,0,0.00080325,1.9156e-05,0,0.00075743,0.00014868,7.7238e+07,2.9045e+06,0,5.2487e+07,2.1438e+06,2091.4,1
5396,6.64,12260,1,12260,1,0.0010953,3.2982e-06,0,0.0011278,-0.00020317,1.1423e+08,4.6998e+05,0,1.2758e+08,-5.7728e+05,12259,15904,1,15904,1,0.0024319,0.00012575,0,0.0024319,5.3621e-05,1.9467e+08,2.3537e+07,0,1.9467e+08,38717,15903,12262,1,12262,1,0.0010765,2.5544e-10,0,0.0010765,-0.00019799,1.4419e+08,26.236,0,1.4419e+08,-5.1768,12261,8553,1,8553,1,-0.00027689,-6.8828e-05,0,3.3681e-06,-0.00045099,-1.1249e+08,-1.2757e+07,0,1.4791e+05,-2.2032e+07,8552,10465,1,10465,1,0.00039984,-6.8129e-10,0,0.00039984,-0.00032412,8.1896e+07,-92.572,0,1.0094e+08,-20.99,10464,14059,1,14059,1,0.0017532,2.7438e-09,0,0.0017532,-7.2284e-05,1.6735e+08,377.53,0,1.6735e+08,240.37,14058,2091.4,0,2091.4,0,0.00080446,1.9184e-05,0,0.00075858,0.0001489,7.7354e+07,2.9088e+06,0,5.2566e+07,2.147e+06,2091.4,1
5396,6.65,12260,1,12260,1,0.001097,3.303e-06,0,0.0011295,-0.00020348,1.144e+08,4.7067e+05,0,1.2777e+08,-5.7814e+05,12259,15904,1,15904,1,0.0024356,0.00012594,0,0.0024356,5.3701e-05,1.9496e+08,2.3573e+07,0,1.9496e+08,38760,15903,12262,1,12262,1,0.0010781,2.0758e-10,0,0.0010781,-0.00019829,1.444e+08,22.381,0,1.444e+08,-6.3111,12261,8553,1,8553,1,-0.0002773,-6.8932e-05,0,3.3721e-06,-0.00045167,-1.1266e+08,-1.2776e+07,0,1.4803e+05,-2.2065e+07,8552,10465,1,10465,1,0.00040045,-9.7833e-10,0,0.00040045,-0.00032461,8.202e+07,-128.91,0,1.0109e+08,-28.251,10464,14059,1,14059,1,0.0017559,2.4612e-09,0,0.0017559,-7.2394e-05,1.6761e+08,396.72,0,1.6761e+08,231.31,14058,2091.4,0,2091.4,0,0.00080567,1.9213e-05,0,0.00075972,0.00014913,7.7469e+07,2.9132e+06,0,5.2644e+07,2.1502e+06,2091.4,1
5396,6.66,12260,1,12260,1,0.0010987,3.3078e-06,0,0.0011312,-0.00020379,1.1457e+08,4.7136e+05,0,1.2797e+08,-5.7898e+05,12259,15904,1,15904,1,0.0024392,0.00012613,0,0.0024392,5.3781e-05,1.9524e+08,2.3608e+07,0,1.9524e+08,38838,15903,12262,1,12262,1,0.0010798,4.7406e-11,0,0.0010798,-0.00019859,1.4462e+08,3.8291,0,1.4462e+08,-5.7579,12261,8553,1,8553,1,-0.00027772,-6.9032e-05,0,3.3782e-06,-0.00045235,-1.1283e+08,-1.2795e+07,0,1.4874e+05,-2.2098e+07,8552,10465,1,10465,1,0.00040105,-8.5674e-10,0,0.00040106,-0.0003251,8.2144e+07,-121.37,0,1.0125e+08,-22.435,10464,14059,1,14059,1,0.0017585,2.6486e-09,0,0.0017585,-7.2503e-05,1.6786e+08,351.12,0,1.6786e+08,242.52,14058,2091.4,0,2091.4,0,0.00080689,1.9241e-05,0,0.00076086,0.00014935,7.7584e+07,2.9175e+06,0,5.2722e+07,2.1534e+06,2091.4,1
5396,6.67,12260,1,12260,1,0.0011003,3.3127e-06,0,0.0011329,-0.00020409,1.1475e+08,4.7206e+05,0,1.2816e+08,-5.7983e+05,12259,15904,1,15904,1,0.0024429,0.00012632,0,0.0024429,5.3862e-05,1.9553e+08,2.3644e+07,0,1.9553e+08,38901,15903,12262,1,12262,1,0.0010814,4.134e-11,0,0.0010814,-0.00019889,1.4484e+08,3.1828,0,1.4484e+08,-5.0473,12261,8553,1,8553,1,-0.00027813,-6.9134e-05,0,3.3833e-06,-0.00045304,-1.1299e+08,-1.2814e+07,0,1.4918e+05,-2.2131e+07,8552,10465,1,10465,1,0.00040166,-8.9533e-10,0,0.00040166,-0.00032559,8.2268e+07,-126.34,0,1.014e+08,-21.138,10464,14059,1,14059,1,0.0017611,2.5789e-09,0,0.0017611,-7.2613e-05,1.6811e+08,349.6,0,1.6811e+08,244.7,14058,2091.4,0,2091.4,0,0.0008081,1.927e-05,0,0.00076201,0.00014957,7.77e+07,2.9219e+06,0,5.2801e+07,2.1565e+06,2091.4,1
5396,6.68,12260,1,12260,1,0.001102,3.3176e-06,0,0.0011346,-0.0002044,1.1492e+08,4.7277e+05,0,1.2835e+08,-5.8068e+05,12259,15904,1,15904,1,0.0024466,0.00012651,0,0.0024466,5.3942e-05,1.9581e+08,2.3679e+07,0,1.9581e+08,38957,15903,12262,1,12262,1,0.001083,1.0609e-10,0,0.001083,-0.00019918,1.4506e+08,9.9926,0,1.4506e+08,-4.7905,12261,8553,1,8553,1,-0.00027854,-6.9236e-05,0,3.3884e-06,-0.00045372,-1.1316e+08,-1.2834e+07,0,1.4962e+05,-2.2163e+07,8552,10465,1,10465,1,0.00040227,-7.1104e-10,0,0.00040227,-0.00032608,8.2392e+07,-98.905,0,1.0155e+08,-18.752,10464,14059,1,14059,1,0.0017638,2.6469e-09,0,0.0017638,-7.2722e-05,1.6836e+08,360.76,0,1.6836e+08,244.29,14058,2091.4,0,2091.4,0,0.00080931,1.9298e-05,0,0.00076315,0.0001498,7.7815e+07,2.9262e+06,0,5.2879e+07,2.1597e+06,2091.4,1
5396,6.69,12260,1,12260,1,0.0011036,3.3224e-06,0,0.0011363,-0.00020471,1.1509e+08,4.7346e+05,0,1.2854e+08,-5.8153e+05,12259,15904,1,15904,1,0.0024502,0.00012669,0,0.0024502,5.4022e-05,1.961e+08,2.3715e+07,0,1.961e+08,39014,15903,12262,1,12262,1,0.0010846,4.334e-11,0,0.0010846,-0.00019948,1.4527e+08,3.6882,0,1.4527e+08,-4.2582,12261,8553,1,8553,1,-0.00027896,-6.9338e-05,0,3.3936e-06,-0.0004544,-1.1333e+08,-1.2853e+07,0,1.5012e+05,-2.2196e+07,8552,10465,1,10465,1,0.00040287,-6.1671e-10,0,0.00040287,-0.00032656,8.2516e+07,-87.007,0,1.0171e+08,-18.632,10464,14059,1,14059,1,0.0017664,2.6973e-09,0,0.0017664,-7.2832e-05,1.6862e+08,366.52,0,1.6862e+08,245.69,14058,2091.4,0,2091.4,0,0.00081052,1.9326e-05,0,0.0007643,0.00015002,7.793e+07,2.9306e+06,0,5.2957e+07,2.1629e+06,2091.4,1
5396,6.7,12260,1,12260,1,0.0011053,3.3273e-06,0,0.001138,-0.00020502,1.1526e+08,4.7416e+05,0,1.2873e+08,-5.8238e+05,12259,15904,1,15904,1,0.0024539,0.00012688,0,0.0024539,5.4102e-05,1.9639e+08,2.3751e+07,0,1.9639e+08,39080,15903,12262,1,12262,1,0.0010863,9.2358e-11,0,0.0010863,-0.00019978,1.4549e+08,8.5244,0,1.4549e+08,-5.6181,12261,8553,1,8553,1,-0.00027937,-6.9441e-05,0,3.3985e-06,-0.00045508,-1.135e+08,-1.2872e+07,0,1.5052e+05,-2.2229e+07,8552,10465,1,10465,1,0.00040348,-9.4108e-10,0,0.00040348,-0.00032705,8.264e+07,-132.68,0,1.0186e+08,-25.094,10464,14059,1,14059,1,0.0017691,2.5094e-09,0,0.0017691,-7.2942e-05,1.6887e+08,342.34,0,1.6887e+08,246.33,14058,2091.4,0,2091.4,0,0.00081174,1.9355e-05,0,0.00076544,0.00015025,7.8046e+07,2.935e+06,0,5.3036e+07,2.1661e+06,2091.4,1
5396,6.71,12260,1,12260,1,0.0011069,3.3323e-06,0,0.0011397,-0.00020532,1.1543e+08,4.7487e+05,0,1.2892e+08,-5.8323e+05,12259,15904,1,15904,1,0.0024576,0.00012707,0,0.0024576,5.4182e-05,1.9667e+08,2.3786e+07,0,1.9667e+08,39118,15903,12262,1,12262,1,0.0010879,7.8482e-11,0,0.0010879,-0.00020008,1.4571e+08,8.1565,0,1.4571e+08,-7.3817,12261,8553,1,8553,1,-0.00027979,-6.9545e-05,0,3.4025e-06,-0.00045576,-1.1367e+08,-1.2892e+07,0,1.5068e+05,-2.2262e+07,8552,10465,1,10465,1,0.00040409,-9.1036e-10,0,0.00040409,-0.00032754,8.2765e+07,-124.88,0,1.0201e+08,-25.545,10464,14059,1,14059,1,0.0017717,2.5675e-09,0,0.0017717,-7.3052e-05,1.6912e+08,355.78,0,1.6912e+08,235.1,14058,2091.4,0,2091.4,0,0.00081295,1.9384e-05,0,0.00076659,0.00015047,7.8162e+07,2.9394e+06,0,5.3114e+07,2.1693e+06,2091.4,1
5396,6.72,12260,1,12260,1,0.0011086,3.3371e-06,0,0.0011414,-0.00020563,1.156e+08,4.7556e+05,0,1.2911e+08,-5.8408e+05,12259,15904,1,15904,1,0.0024612,0.00012726,0,0.0024612,5.4262e-05,1.9696e+08,2.3822e+07,0,1.9696e+08,39191,15903,12262,1,12262,1,0.0010895,1.7706e-10,0,0.0010895,-0.00020038,1.4593e+08,20.762,0,1.4593e+08,-3.5688,12261,8553,1,8553,1,-0.0002802,-6.9647e-05,0,3.4083e-06,-0.00045644,-1.1384e+08,-1.2911e+07,0,1.5138e+05,-2.2295e+07,8552,10465,1,10465,1,0.00040469,-4.4005e-10,0,0.00040469,-0.00032803,8.2888e+07,-62.388,0,1.0216e+08,-14.493,10464,14059,1,14059,1,0.0017744,2.6919e-09,0,0.0017744,-7.3161e-05,1.6937e+08,365.69,0,1.6937e+08,242.26,14058,2091.4,0,2091.4,0,0.00081416,1.9412e-05,0,0.00076773,0.0001507,7.8277e+07,2.9437e+06,0,5.3192e+07,2.1725e+06,2091.4,1
5396,6.73,12260,1,12260,1,0.0011102,3.342e-06,0,0.0011431,-0.00020594,1.1578e+08,4.7627e+05,0,1.2931e+08,-5.8493e+05,12259,15904,1,15904,1,0.0024649,0.00012745,0,0.0024649,5.4343e-05,1.9725e+08,2.3857e+07,0,1.9725e+08,39242,15903,12262,1,12262,1,0.0010912,1.9699e-10,0,0.0010912,-0.00020068,1.4615e+08,19.937,0,1.4615e+08,-6.409,12261,8553,1,8553,1,-0.00028061,-6.975e-05,0,3.4128e-06,-0.00045712,-1.14e+08,-1.2931e+07,0,1.517e+05,-2.2328e+07,8552,10465,1,10465,1,0.0004053,-7.4325e-10,0,0.0004053,-0.00032852,8.3013e+07,-100.66,0,1.0232e+08,-22.389,10464,14059,1,14059,1,0.001777,2.5989e-09,0,0.001777,-7.3271e-05,1.6963e+08,365.65,0,1.6963e+08,238.3,14058,2091.4,0,2091.4,0,0.00081538,1.9441e-05,0,0.00076888,0.00015092,7.8392e+07,2.9481e+06,0,5.3271e+07,2.1757e+06,2091.4,1
5396,6.74,12260,1,12260,1,0.0011119,3.347e-06,0,0.0011448,-0.00020624,1.1595e+08,4.7699e+05,0,1.295e+08,-5.8578e+05,12259,15904,1,15904,1,0.0024686,0.00012764,0,0.0024686,5.4423e-05,1.9753e+08,2.3893e+07,0,1.9753e+08,39315,15903,12262,1,12262,1,0.0010928,3.9397e-10,0,0.0010928,-0.00020098,1.4636e+08,43.533,0,1.4636e+08,-7.3514,12261,8553,1,8553,1,-0.00028103,-6.9853e-05,0,3.4181e-06,-0.0004578,-1.1417e+08,-1.295e+07,0,1.5224e+05,-2.2361e+07,8552,10465,1,10465,1,0.00040591,-7.6145e-10,0,0.00040591,-0.00032901,8.3137e+07,-103.93,0,1.0247e+08,-25.34,10464,14059,1,14059,1,0.0017797,2.5871e-09,0,0.0017797,-7.338e-05,1.6988e+08,358.63,0,1.6988e+08,239.09,14058,2091.4,0,2091.4,0,0.00081659,1.9469e-05,0,0.00077002,0.00015115,7.8508e+07,2.9525e+06,0,5.3349e+07,2.1788e+06,2091.4,1
5396,6.75,12260,1,12260,1,0.0011135,3.3517e-06,0,0.0011465,-0.00020655,1.1612e+08,4.7766e+05,0,1.2969e+08,-5.8663e+05,12259,15904,1,15904,1,0.0024722,0.00012782,0,0.0024722,5.4503e-05,1.9782e+08,2.3928e+07,0,1.9782e+08,39373,15903,12262,1,12262,1,0.0010944,1.1515e-10,0,0.0010944,-0.00020128,1.4658e+08,11.336,0,1.4658e+08,-4.9442,12261,8553,1,8553,1,-0.00028144,-6.9953e-05,0,3.4235e-06,-0.00045848,-1.1434e+08,-1.2969e+07,0,1.5283e+05,-2.2394e+07,8552,10465,1,10465,1,0.00040651,-6.9278e-10,0,0.00040651,-0.0003295,8.3261e+07,-96.153,0,1.0262e+08,-17.784,10464,14059,1,14059,1,0.0017823,2.5761e-09,0,0.0017823,-7.349e-05,1.7013e+08,346.45,0,1.7013e+08,242.69,14058,2091.4,0,2091.4,0,0.0008178,1.9498e-05,0,0.00077117,0.00015137,7.8623e+07,2.9568e+06,0,5.3427e+07,2.182e+06,2091.4,1
5396,6.76,12260,1,12260,1,0.0011152,3.3566e-06,0,0.0011482,-0.00020686,1.1629e+08,4.7836e+05,0,1.2988e+08,-5.8748e+05,12259,15904,1,15904,1,0.0024759,0.00012801,0,0.0024759,5.4583e-05,1.981e+08,2.3964e+07,0,1.981e+08,39438,15903,12262,1,12262,1,0.001096,1.3882e-10,0,0.001096,-0.00020158,1.468e+08,13.113,0,1.468e+08,-4.3805,12261,8553,1,8553,1,-0.00028186,-7.0056e-05,0,3.429e-06,-0.00045916,-1.1451e+08,-1.2988e+07,0,1.5345e+05,-2.2427e+07,8552,10465,1,10465,1,0.00040712,-5.8798e-10,0,0.00040712,-0.00032999,8.3385e+07,-82.575,0,1.0278e+08,-16.054,10464,14059,1,14059,1,0.001785,2.6375e-09,0,0.001785,-7.3599e-05,1.7038e+08,353.66,0,1.7038e+08,245.26,14058,2091.4,0,2091.4,0,0.00081901,1.9526e-05,0,0.00077231,0.00015159,7.8738e+07,2.9611e+06,0,5.3506e+07,2.1852e+06,2091.4,1
5396,6.77,12260,1,12260,1,0.0011169,3.3616e-06,0,0.0011499,-0.00020716,1.1646e+08,4.7908e+05,0,1.3007e+08,-5.8833e+05,12259,15904,1,15904,1,0.0024796,0.0001282,0,0.0024796,5.4663e-05,1.9839e+08,2.3999e+07,0,1.9839e+08,39497,15903,12262,1,12262,1,0.0010977,3.0392e-10,0,0.0010977,-0.00020188,1.4702e+08,32.696,0,1.4702e+08,-4.9791,12261,8553,1,8553,1,-0.00028227,-7.0159e-05,0,3.4337e-06,-0.00045984,-1.1468e+08,-1.3008e+07,0,1.5384e+05,-2.2459e+07,8552,10465,1,10465,1,0.00040772,-6.7155e-10,0,0.00040772,-0.00033048,8.3509e+07,-90.928,0,1.0293e+08,-21.472,10464,14059,1,14059,1,0.0017876,2.7347e-09,0,0.0017876,-7.3709e-05,1.7064e+08,372.79,0,1.7064e+08,247.05,14058,2091.4,0,2091.4,0,0.00082023,1.9555e-05,0,0.00077346,0.00015182,7.8853e+07,2.9655e+06,0,5.3584e+07,2.1884e+06,2091.4,1
5396,6.78,12260,1,12260,1,0.0011185,3.3664e-06,0,0.0011516,-0.00020747,1.1663e+08,4.7977e+05,0,1.3026e+08,-5.8918e+05,12259,15904,1,15904,1,0.0024833,0.00012839,0,0.0024833,5.4744e-05,1.9868e+08,2.4035e+07,0,1.9868e+08,39569,15903,12262,1,12262,1,0.0010993,1.0167e-10,0,0.0010993,-0.00020218,1.4724e+08,9.8657,0,1.4724e+08,-3.9186,12261,8553,1,8553,1,-0.00028268,-7.026e-05,0,3.4394e-06,-0.00046052,-1.1484e+08,-1.3027e+07,0,1.5453e+05,-2.2492e+07,8552,10465,1,10465,1,0.00040833,-4.7992e-10,0,0.00040833,-0.00033097,8.3633e+07,-67.979,0,1.0308e+08,-14.787,10464,14059,1,14059,1,0.0017903,2.7213e-09,0,0.0017903,-7.3818e-05,1.7089e+08,364.5,0,1.7089e+08,249.42,14058,2091.4,0,2091.4,0,0.00082144,1.9583e-05,0,0.0007746,0.00015204,7.8969e+07,2.9699e+06,0,5.3662e+07,2.1916e+06,2091.4,1
5396,6.79,12260,1,12260,1,0.0011202,3.3714e-06,0,0.0011533,-0.00020778,1.1681e+08,4.8047e+05,0,1.3045e+08,-5.9003e+05,12259,15904,1,15904,1,0.0024869,0.00012857,0,0.0024869,5.4824e-05,1.9896e+08,2.407e+07,0,1.9896e+08,39621,15903,12262,1,12262,1,0.0011009,3.9671e-11,0,0.0011009,-0.00020247,1.4745e+08,3.3979,0,1.4745e+08,-4.4957,12261,8553,1,8553,1,-0.0002831,-7.0363e-05,0,3.4442e-06,-0.0004612,-1.1501e+08,-1.3046e+07,0,1.5497e+05,-2.2525e+07,8552,10465,1,10465,1,0.00040894,-7.9276e-10,0,0.00040894,-0.00033146,8.3757e+07,-111.77,0,1.0323e+08,-22.149,10464,14059,1,14059,1,0.0017929,2.717e-09,0,0.0017929,-7.3928e-05,1.7114e+08,376.07,0,1.7114e+08,250.51,14058,2091.4,0,2091.4,0,0.00082265,1.9612e-05,0,0.00077575,0.00015227,7.9084e+07,2.9742e+06,0,5.3741e+07,2.1948e+06,2091.4,1
5396,6.8,12260,1,12260,1,0.0011218,3.3762e-06,0,0.001155,-0.00020808,1.1698e+08,4.8117e+05,0,1.3065e+08,-5.9088e+05,12259,15904,1,15904,1,0.0024906,0.00012876,0,0.0024906,5.4904e-05,1.9925e+08,2.4106e+07,0,1.9925e+08,39684,15903,12262,1,12262,1,0.0011025,2.9727e-11,0,0.0011025,-0.00020277,1.4767e+08,2.1788,0,1.4767e+08,-5.8166,12261,8553,1,8553,1,-0.00028351,-7.0466e-05,0,3.449e-06,-0.00046188,-1.1518e+08,-1.3066e+07,0,1.5541e+05,-2.2558e+07,8552,10465,1,10465,1,0.00040954,-1.2317e-09,0,0.00040954,-0.00033195,8.3882e+07,-175.37,0,1.0339e+08,-27.352,10464,14059,1,14059,1,0.0017956,2.4356e-09,0,0.0017956,-7.4038e-05,1.714e+08,346.87,0,1.714e+08,249.38,14058,2091.4,0,2091.4,0,0.00082387,1.964e-05,0,0.00077689,0.00015249,7.92e+07,2.9786e+06,0,5.3819e+07,2.198e+06,2091.4,1
5396,6.81,12260,1,12260,1,0.0011235,3.3812e-06,0,0.0011567,-0.00020839,1.1715e+08,4.8188e+05,0,1.3084e+08,-5.9173e+05,12259,15904,1,15904,1,0.0024943,0.00012895,0,0.0024943,5.4984e-05,1.9953e+08,2.4142e+07,0,1.9953e+08,39726,15903,12262,1,12262,1,0.0011042,3.8121e-11,0,0.0011042,-0.00020307,1.4789e+08,4.3544,0,1.4789e+08,-3.4277,12261,8553,1,8553,1,-0.00028393,-7.0569e-05,0,3.4539e-06,-0.00046256,-1.1535e+08,-1.3085e+07,0,1.5593e+05,-2.2591e+07,8552,10465,1,10465,1,0.00041015,-7.2047e-10,0,0.00041015,-0.00033244,8.4006e+07,-99.518,0,1.0354e+08,-19.149,10464,14059,1,14059,1,0.0017982,2.6267e-09,0,0.0017982,-7.4148e-05,1.7165e+08,357.62,0,1.7165e+08,241.52,14058,2091.4,0,2091.4,0,0.00082508,1.9669e-05,0,0.00077804,0.00015272,7.9315e+07,2.983e+06,0,5.3897e+07,2.2012e+06,2091.4,1
5396,6.82,12260,1,12260,1,0.0011251,3.3859e-06,0,0.0011584,-0.0002087,1.1732e+08,4.8256e+05,0,1.3103e+08,-5.9258e+05,12259,15904,1,15904,1,0.0024979,0.00012914,0,0.0024979,5.5064e-05,1.9982e+08,2.4177e+07,0,1.9982e+08,39799,15903,12262,1,12262,1,0.0011058,4.2651e-11,0,0.0011058,-0.00020337,1.4811e+08,3.8885,0,1.4811e+08,-4.9191,12261,8553,1,8553,1,-0.00028434,-7.067e-05,0,3.4593e-06,-0.00046324,-1.1552e+08,-1.3104e+07,0,1.5657e+05,-2.2624e+07,8552,10465,1,10465,1,0.00041076,-8.7307e-10,0,0.00041076,-0.00033293,8.413e+07,-122.79,0,1.0369e+08,-18.929,10464,14059,1,14059,1,0.0018008,2.5102e-09,0,0.0018008,-7.4257e-05,1.719e+08,334.47,0,1.719e+08,246.17,14058,2091.4,0,2091.4,0,0.00082629,1.9697e-05,0,0.00077918,0.00015294,7.943e+07,2.9873e+06,0,5.3975e+07,2.2043e+06,2091.4,1
5396,6.83,12260,1,12260,1,0.0011268,3.391e-06,0,0.0011601,-0.000209,1.1749e+08,4.8328e+05,0,1.3122e+08,-5.9343e+05,12259,15904,1,15904,1,0.0025016,0.00012933,0,0.0025016,5.5144e-05,2.0011e+08,2.4213e+07,0,2.0011e+08,39859,15903,12262,1,12262,1,0.0011074,4.2565e-11,0,0.0011074,-0.00020367,1.4833e+08,3.8255,0,1.4833e+08,-4.5198,12261,8553,1,8553,1,-0.00028475,-7.0774e-05,0,3.4644e-06,-0.00046392,-1.1569e+08,-1.3124e+07,0,1.5713e+05,-2.2657e+07,8552,10465,1,10465,1,0.00041136,-8.647e-10,0,0.00041136,-0.00033341,8.4254e+07,-120.48,0,1.0385e+08,-19.169,10464,14059,1,14059,1,0.0018035,2.6394e-09,0,0.0018035,-7.4367e-05,1.7215e+08,367.55,0,1.7215e+08,246.42,14058,2091.4,0,2091.4,0,0.00082751,1.9726e-05,0,0.00078033,0.00015317,7.9545e+07,2.9917e+06,0,5.4054e+07,2.2075e+06,2091.4,1
5396,6.84,12260,1,12260,1,0.0011284,3.3958e-06,0,0.0011618,-0.00020931,1.1766e+08,4.8397e+05,0,1.3141e+08,-5.9428e+05,12259,15904,1,15904,1,0.0025053,0.00012951,0,0.0025053,5.5225e-05,2.0039e+08,2.4248e+07,0,2.0039e+08,39929,15903,12262,1,12262,1,0.001109,1.2531e-10,0,0.001109,-0.00020397,1.4854e+08,11.202,0,1.4854e+08,-5.4252,12261,8553,1,8553,1,-0.00028517,-7.0875e-05,0,3.47e-06,-0.0004646,-1.1585e+08,-1.3143e+07,0,1.5783e+05,-2.269e+07,8552,10465,1,10465,1,0.00041197,-8.7848e-10,0,0.00041197,-0.0003339,8.4378e+07,-124.03,0,1.04e+08,-21.926,10464,14059,1,14059,1,0.0018061,2.5403e-09,0,0.0018061,-7.4477e-05,1.7241e+08,340.97,0,1.7241e+08,249.59,14058,2091.4,0,2091.4,0,0.00082872,1.9754e-05,0,0.00078147,0.00015339,7.9661e+07,2.9961e+06,0,5.4132e+07,2.2107e+06,2091.4,1
5396,6.85,12260,1,12260,1,0.0011301,3.4007e-06,0,0.0011635,-0.00020962,1.1784e+08,4.8467e+05,0,1.316e+08,-5.9513e+05,12259,15904,1,15904,1,0.002509,0.0001297,0,0.002509,5.5305e-05,2.0068e+08,2.4284e+07,0,2.0068e+08,39986,15903,12262,1,12262,1,0.0011107,9.4404e-11,0,0.0011107,-0.00020427,1.4876e+08,8.7635,0,1.4876e+08,-6.3893,12261,8553,1,8553,1,-0.00028558,-7.0978e-05,0,3.475e-06,-0.00046528,-1.1602e+08,-1.3162e+07,0,1.5836e+05,-2.2723e+07,8552,10465,1,10465,1,0.00041258,-1.0457e-09,0,0.00041258,-0.00033439,8.4502e+07,-150,0,1.0415e+08,-28.928,10464,14059,1,14059,1,0.0018088,2.5444e-09,0,0.0018088,-7.4586e-05,1.7266e+08,347.75,0,1.7266e+08,252.2,14058,2091.4,0,2091.4,0,0.00082993,1.9783e-05,0,0.00078262,0.00015361,7.9776e+07,3.0004e+06,0,5.421e+07,2.2139e+06,2091.4,1
5396,6.86,12260,1,12260,1,0.0011317,3.4055e-06,0,0.0011652,-0.00020993,1.1801e+08,4.8537e+05,0,1.318e+08,-5.9598e+05,12259,15904,1,15904,1,0.0025126,0.00012989,0,0.0025126,5.5385e-05,2.0096e+08,2.432e+07,0,2.0096e+08,40063,15903,12262,1,12262,1,0.0011123,6.2916e-11,0,0.0011123,-0.00020457,1.4898e+08,5.1007,0,1.4898e+08,-6.0346,12261,8553,1,8553,1,-0.00028599,-7.108e-05,0,3.4802e-06,-0.00046597,-1.1619e+08,-1.3181e+07,0,1.5896e+05,-2.2756e+07,8552,10465,1,10465,1,0.00041318,-1.0666e-09,0,0.00041318,-0.00033488,8.4627e+07,-150.84,0,1.043e+08,-24.79,10464,14059,1,14059,1,0.0018114,2.4656e-09,0,0.0018114,-7.4696e-05,1.7291e+08,331.56,0,1.7291e+08,251.84,14058,2091.4,0,2091.4,0,0.00083114,1.9812e-05,0,0.00078376,0.00015384,7.9891e+07,3.0048e+06,0,5.4289e+07,2.2171e+06,2091.4,1
5396,6.87,12260,1,12260,1,0.0011334,3.4106e-06,0,0.0011669,-0.00021023,1.1818e+08,4.861e+05,0,1.3199e+08,-5.9683e+05,12259,15904,1,15904,1,0.0025163,0.00013008,0,0.0025163,5.5465e-05,2.0125e+08,2.4355e+07,0,2.0125e+08,40086,15903,12262,1,12262,1,0.0011139,1.2983e-10,0,0.0011139,-0.00020487,1.492e+08,16.545,0,1.492e+08,-3.4508,12261,8553,1,8553,1,-0.00028641,-7.1184e-05,0,3.4848e-06,-0.00046665,-1.1636e+08,-1.3201e+07,0,1.5943e+05,-2.2788e+07,8552,10465,1,10465,1,0.00041379,-3.6226e-10,0,0.00041379,-0.00033537,8.4751e+07,-49.506,0,1.0446e+08,-21.477,10464,14059,1,14059,1,0.0018141,2.8898e-09,0,0.0018141,-7.4806e-05,1.7316e+08,391.97,0,1.7316e+08,244.98,14058,2091.4,0,2091.4,0,0.00083236,1.984e-05,0,0.00078491,0.00015406,8.0007e+07,3.0092e+06,0,5.4367e+07,2.2203e+06,2091.4,1
5396,6.88,12260,1,12260,1,0.0011351,3.4154e-06,0,0.0011686,-0.00021054,1.1835e+08,4.8678e+05,0,1.3218e+08,-5.9768e+05,12259,15904,1,15904,1,0.00252,0.00013026,0,0.00252,5.5545e-05,2.0154e+08,2.439e+07,0,2.0154e+08,40170,15903,12262,1,12262,1,0.0011155,1.1406e-10,0,0.0011155,-0.00020517,1.4941e+08,11.034,0,1.4941e+08,-4.9546,12261,8553,1,8553,1,-0.00028682,-7.1285e-05,0,3.4906e-06,-0.00046733,-1.1653e+08,-1.322e+07,0,1.6021e+05,-2.2821e+07,8552,10465,1,10465,1,0.00041439,-6.0668e-10,0,0.00041439,-0.00033586,8.4875e+07,-84.581,0,1.0461e+08,-18.167,10464,14059,1,14059,1,0.0018167,2.7181e-09,0,0.0018167,-7.4915e-05,1.7342e+08,372.93,0,1.7342e+08,250.49,14058,2091.4,0,2091.4,0,0.00083357,1.9868e-05,0,0.00078605,0.00015429,8.0122e+07,3.0135e+06,0,5.4445e+07,2.2235e+06,2091.4,1
5396,6.89,12260,1,12260,1,0.0011367,3.4202e-06,0,0.0011703,-0.00021085,1.1852e+08,4.8747e+05,0,1.3237e+08,-5.9852e+05,12259,15904,1,15904,1,0.0025236,0.00013045,0,0.0025236,5.5625e-05,2.0182e+08,2.4426e+07,0,2.0182e+08,40226,15903,12262,1,12262,1,0.0011172,7.4765e-11,0,0.0011172,-0.00020547,1.4963e+08,6.7262,0,1.4963e+08,-5.6032,12261,8553,1,8553,1,-0.00028723,-7.1387e-05,0,3.4954e-06,-0.00046801,-1.1669e+08,-1.3239e+07,0,1.6073e+05,-2.2854e+07,8552,10465,1,10465,1,0.000415,-9.3141e-10,0,0.000415,-0.00033635,8.4999e+07,-131.02,0,1.0476e+08,-19.578,10464,14059,1,14059,1,0.0018194,2.4836e-09,0,0.0018194,-7.5025e-05,1.7367e+08,328.44,0,1.7367e+08,249.92,14058,2091.4,0,2091.4,0,0.00083478,1.9897e-05,0,0.0007872,0.00015451,8.0237e+07,3.0179e+06,0,5.4523e+07,2.2266e+06,2091.4,1
5396,6.9,12260,1,12260,1,0.0011384,3.4252e-06,0,0.001172,-0.00021115,1.1869e+08,4.8818e+05,0,1.3256e+08,-5.9937e+05,12259,15904,1,15904,1,0.0025273,0.00013064,0,0.0025273,5.5705e-05,2.0211e+08,2.4461e+07,0,2.0211e+08,40279,15903,12262,1,12262,1,0.0011188,2.4332e-10,0,0.0011188,-0.00020577,1.4985e+08,26.771,0,1.4985e+08,-4.8084,12261,8553,1,8553,1,-0.00028765,-7.149e-05,0,3.5005e-06,-0.00046869,-1.1686e+08,-1.3258e+07,0,1.6135e+05,-2.2887e+07,8552,10465,1,10465,1,0.00041561,-5.3154e-10,0,0.00041561,-0.00033684,8.5123e+07,-73.153,0,1.0492e+08,-17.798,10464,14059,1,14059,1,0.001822,2.7615e-09,0,0.001822,-7.5135e-05,1.7392e+08,370.64,0,1.7392e+08,248.58,14058,2091.4,0,2091.4,0,0.00083599,1.9925e-05,0,0.00078834,0.00015474,8.0352e+07,3.0222e+06,0,5.4602e+07,2.2298e+06,2091.4,1
5396,6.91,12260,1,12260,1,0.00114,3.4301e-06,0,0.0011737,-0.00021146,1.1887e+08,4.8889e+05,0,1.3275e+08,-6.0023e+05,12259,15904,1,15904,1,0.002531,0.00013083,0,0.002531,5.5786e-05,2.0239e+08,2.4497e+07,0,2.0239e+08,40330,15903,12262,1,12262,1,0.0011204,1.8553e-10,0,0.0011204,-0.00020607,1.5007e+08,19.768,0,1.5007e+08,-5.7717,12261,8553,1,8553,1,-0.00028806,-7.1594e-05,0,3.5052e-06,-0.00046937,-1.1703e+08,-1.3278e+07,0,1.6187e+05,-2.292e+07,8552,10465,1,10465,1,0.00041622,-6.7901e-10,0,0.00041622,-0.00033733,8.5248e+07,-91.64,0,1.0507e+08,-21.716,10464,14059,1,14059,1,0.0018247,2.6735e-09,0,0.0018247,-7.5244e-05,1.7417e+08,366.24,0,1.7417e+08,244.13,14058,2091.4,0,2091.4,0,0.00083721,1.9954e-05,0,0.00078949,0.00015496,8.0468e+07,3.0266e+06,0,5.468e+07,2.233e+06,2091.4,1
5396,6.92,12260,1,12260,1,0.0011417,3.435e-06,0,0.0011754,-0.00021177,1.1904e+08,4.8958e+05,0,1.3294e+08,-6.0107e+05,12259,15904,1,15904,1,0.0025346,0.00013102,0,0.0025346,5.5866e-05,2.0268e+08,2.4533e+07,0,2.0268e+08,40399,15903,12262,1,12262,1,0.0011221,3.8074e-11,0,0.0011221,-0.00020636,1.5029e+08,3.4148,0,1.5029e+08,-5.6542,12261,8553,1,8553,1,-0.00028848,-7.1696e-05,0,3.5105e-06,-0.00047005,-1.172e+08,-1.3297e+07,0,1.6249e+05,-2.2953e+07,8552,10465,1,10465,1,0.00041682,-9.0004e-10,0,0.00041682,-0.00033782,8.5372e+07,-124.21,0,1.0522e+08,-23.001,10464,14059,1,14059,1,0.0018273,2.4527e-09,0,0.0018273,-7.5354e-05,1.7443e+08,349.6,0,1.7443e+08,245.08,14058,2091.4,0,2091.4,0,0.00083842,1.9983e-05,0,0.00079063,0.00015519,8.0583e+07,3.031e+06,0,5.4758e+07,2.2362e+06,2091.4,1
5396,6.93,12260,1,12260,1,0.0011433,3.4398e-06,0,0.0011771,-0.00021207,1.1921e+08,4.9027e+05,0,1.3313e+08,-6.0192e+05,12259,15904,1,15904,1,0.0025383,0.0001312,0,0.0025383,5.5946e-05,2.0296e+08,2.4568e+07,0,2.0296e+08,40482,15903,12262,1,12262,1,0.0011237,6.7403e-11,0,0.0011237,-0.00020666,1.505e+08,5.6225,0,1.505e+08,-5.8131,12261,8553,1,8553,1,-0.00028889,-7.1796e-05,0,3.5165e-06,-0.00047073,-1.1737e+08,-1.3316e+07,0,1.6341e+05,-2.2985e+07,8552,10465,1,10465,1,0.00041743,-9.4516e-10,0,0.00041743,-0.00033831,8.5496e+07,-137.63,0,1.0537e+08,-29.067,10464,14059,1,14059,1,0.00183,2.5396e-09,0,0.00183,-7.5464e-05,1.7468e+08,353.84,0,1.7468e+08,258.98,14058,2091.4,0,2091.4,0,0.00083963,2.0011e-05,0,0.00079177,0.00015541,8.0698e+07,3.0353e+06,0,5.4836e+07,2.2394e+06,2091.4,1
5396,6.94,12260,1,12260,1,0.001145,3.4448e-06,0,0.0011789,-0.00021238,1.1938e+08,4.9098e+05,0,1.3333e+08,-6.0278e+05,12259,15904,1,15904,1,0.002542,0.00013139,0,0.002542,5.6026e-05,2.0325e+08,2.4604e+07,0,2.0325e+08,40510,15903,12262,1,12262,1,0.0011253,-2.6705e-11,0,0.0011253,-0.00020696,1.5072e+08,-2.4612,0,1.5072e+08,-5.4008,12261,8553,1,8553,1,-0.0002893,-7.19e-05,0,3.5208e-06,-0.00047141,-1.1753e+08,-1.3336e+07,0,1.6385e+05,-2.3019e+07,8552,10465,1,10465,1,0.00041804,-8.5869e-10,0,0.00041804,-0.0003388,8.562e+07,-120.83,0,1.0553e+08,-20.032,10464,14059,1,14059,1,0.0018326,2.5607e-09,0,0.0018326,-7.5574e-05,1.7493e+08,345.35,0,1.7493e+08,250.26,14058,2091.4,0,2091.4,0,0.00084085,2.004e-05,0,0.00079292,0.00015564,8.0814e+07,3.0397e+06,0,5.4915e+07,2.2426e+06,2091.4,1
5396,6.95,12260,1,12260,1,0.0011466,3.4497e-06,0,0.0011806,-0.00021269,1.1955e+08,4.9169e+05,0,1.3352e+08,-6.0362e+05,12259,15904,1,15904,1,0.0025457,0.00013158,0,0.0025457,5.6106e-05,2.0354e+08,2.4639e+07,0,2.0354e+08,40576,15903,12262,1,12262,1,0.0011269,8.4484e-11,0,0.0011269,-0.00020726,1.5094e+08,9.0944,0,1.5094e+08,-4.6568,12261,8553,1,8553,1,-0.00028972,-7.2003e-05,0,3.526e-06,-0.00047209,-1.177e+08,-1.3355e+07,0,1.645e+05,-2.3051e+07,8552,10465,1,10465,1,0.00041864,-6.8643e-10,0,0.00041864,-0.00033929,8.5744e+07,-93.7,0,1.0568e+08,-20.676,10464,14059,1,14059,1,0.0018353,2.6384e-09,0,0.0018353,-7.5683e-05,1.7518e+08,360.13,0,1.7518e+08,246.78,14058,2091.4,0,2091.4,0,0.00084206,2.0068e-05,0,0.00079407,0.00015586,8.0929e+07,3.0441e+06,0,5.4993e+07,2.2458e+06,2091.4,1
5396,6.96,12260,1,12260,1,0.0011483,3.4546e-06,0,0.0011823,-0.00021299,1.1972e+08,4.9238e+05,0,1.3371e+08,-6.0447e+05,12259,15904,1,15904,1,0.0025493,0.00013177,0,0.0025493,5.6186e-05,2.0382e+08,2.4675e+07,0,2.0382e+08,40668,15903,12262,1,12262,1,0.0011286,7.3467e-11,0,0.0011286,-0.00020756,1.5116e+08,6.5245,0,1.5116e+08,-5.6466,12261,8553,1,8553,1,-0.00029013,-7.2104e-05,0,3.5319e-06,-0.00047277,-1.1787e+08,-1.3374e+07,0,1.6537e+05,-2.3084e+07,8552,10465,1,10465,1,0.00041925,-8.3087e-10,0,0.00041925,-0.00033978,8.5868e+07,-118.1,0,1.0583e+08,-23.7,10464,14059,1,14059,1,0.0018379,2.6417e-09,0,0.0018379,-7.5793e-05,1.7544e+08,361.5,0,1.7544e+08,257.21,14058,2091.4,0,2091.4,0,0.00084327,2.0097e-05,0,0.00079521,0.00015608,8.1044e+07,3.0484e+06,0,5.5071e+07,2.249e+06,2091.4,1
5396,6.97,12260,1,12260,1,0.00115,3.4594e-06,0,0.001184,-0.00021331,1.199e+08,4.9308e+05,0,1.339e+08,-6.0531e+05,12259,15904,1,15904,1,0.0025533,0.00013196,0,0.0025533,5.6264e-05,2.0404e+08,2.4711e+07,0,2.0404e+08,41571,15903,12262,1,12262,1,0.0011302,4.0587e-11,0,0.0011302,-0.00020787,1.5138e+08,2.5931,0,1.5138e+08,-27.005,12261,8553,1,8553,1,-0.00029053,-7.2207e-05,0,3.5234e-06,-0.0004735,-1.1803e+08,-1.3395e+07,0,1.6424e+05,-2.3119e+07,8552,10465,1,10465,1,0.00041988,-5.2487e-09,0,0.00041988,-0.00034027,8.5998e+07,-742.28,0,1.0599e+08,-125.82,10464,14059,1,14059,1,0.0018406,8.1027e-09,0,0.0018406,-7.5908e-05,1.757e+08,1202,0,1.757e+08,193.18,14058,2091.4,0,2091.4,0,0.0008445,2.0125e-05,0,0.00079638,0.00015631,8.1156e+07,3.0528e+06,0,5.5146e+07,2.2526e+06,2091.4,1
5396,6.98,12260,1,12260,1,0.0011517,3.4639e-06,0,0.0011857,-0.00021362,1.2007e+08,4.9374e+05,0,1.3409e+08,-6.0605e+05,12259,15904,1,15904,1,0.0025571,0.00013213,0,0.0025571,5.634e-05,2.0424e+08,2.4745e+07,0,2.0424e+08,42405,15903,12262,1,12262,1,0.0011319,5.2041e-10,0,0.0011319,-0.00020818,1.5161e+08,39.953,0,1.5161e+08,-16.293,12261,8553,1,8553,1,-0.00029092,-7.2287e-05,0,3.5187e-06,-0.00047422,-1.1819e+08,-1.3415e+07,0,1.6451e+05,-2.3152e+07,8552,10465,1,10465,1,0.00042053,-4.7567e-09,0,0.00042053,-0.00034077,8.613e+07,-691.29,0,1.0615e+08,-132.88,10464,14059,1,14059,1,0.0018433,7.2487e-09,0,0.0018433,-7.6025e-05,1.7596e+08,1101.9,0,1.7596e+08,237.98,14058,2091.4,0,2091.4,0,0.00084572,2.0148e-05,0,0.00079754,0.00015654,8.126e+07,3.0567e+06,0,5.5216e+07,2.2562e+06,2091.4,1
5396,6.99,12260,1,12260,1,0.0011534,3.4683e-06,0,0.0011875,-0.00021394,1.2023e+08,4.944e+05,0,1.3427e+08,-6.0681e+05,12259,15904,1,15904,1,0.002561,0.00013231,0,0.002561,5.6416e-05,2.0444e+08,2.478e+07,0,2.0444e+08,42915,15903,12262,1,12262,1,0.0011336,-1.1043e-10,0,0.0011336,-0.00020849,1.5183e+08,-16.139,0,1.5183e+08,7.5903,12261,8553,1,8553,1,-0.00029131,-7.2377e-05,0,3.5096e-06,-0.00047493,-1.1835e+08,-1.3436e+07,0,1.638e+05,-2.3185e+07,8552,10465,1,10465,1,0.00042117,-9.0216e-10,0,0.00042117,-0.00034128,8.6262e+07,-89.371,0,1.0631e+08,-51.631,10464,14059,1,14059,1,0.001846,2.3361e-09,0,0.001846,-7.6141e-05,1.7621e+08,365.34,0,1.7621e+08,187.88,14058,2091.4,0,2091.4,0,0.00084695,2.0173e-05,0,0.0007987,0.00015676,8.1365e+07,3.061e+06,0,5.5287e+07,2.2598e+06,2091.4,1
5396,7,12260,1,12260,1,0.0011551,3.4728e-06,0,0.0011892,-0.00021425,1.204e+08,4.9506e+05,0,1.3446e+08,-6.0754e+05,12259,15904,1,15904,1,0.0025648,0.00013248,0,0.0025648,5.6491e-05,2.0463e+08,2.4815e+07,0,2.0463e+08,43611,15903,12262,1,12262,1,0.0011353,1.3615e-10,0,0.0011353,-0.0002088,1.5206e+08,10.755,0,1.5206e+08,-22.512,12261,8553,1,8553,1,-0.0002917,-7.2463e-05,0,3.5024e-06,-0.00047564,-1.1851e+08,-1.3457e+07,0,1.6355e+05,-2.3219e+07,8552,10465,1,10465,1,0.00042182,-5.1563e-09,0,0.00042182,-0.00034178,8.6396e+07,-733.83,0,1.0647e+08,-156.39,10464,14059,1,14059,1,0.0018488,8.1104e-09,0,0.0018488,-7.626e-05,1.7648e+08,1218.3,0,1.7648e+08,242.99,14058,2091.4,0,2091.4,0,0.00084818,2.0196e-05,0,0.00079987,0.00015699,8.1471e+07,3.0651e+06,0,5.5357e+07,2.2634e+06,2091.4,1
5396,7.01,12260,1,12260,1,0.0011568,3.477e-06,0,0.001191,-0.00021457,1.2057e+08,4.9569e+05,0,1.3465e+08,-6.0825e+05,12259,15904,1,15904,1,0.0025687,0.00013266,0,0.0025687,5.6567e-05,2.0482e+08,2.4851e+07,0,2.0482e+08,44032,15903,12262,1,12262,1,0.001137,2.1588e-10,0,0.001137,-0.00020911,1.5228e+08,17.686,0,1.5228e+08,-14.296,12261,8553,1,8553,1,-0.00029208,-7.2553e-05,0,3.495e-06,-0.00047634,-1.1866e+08,-1.3479e+07,0,1.6342e+05,-2.3253e+07,8552,10465,1,10465,1,0.00042247,-3.9785e-09,0,0.00042247,-0.00034228,8.6528e+07,-580.89,0,1.0663e+08,-99.649,10464,14059,1,14059,1,0.0018515,6.0993e-09,0,0.0018515,-7.6378e-05,1.7674e+08,939.65,0,1.7674e+08,232.52,14058,2091.4,0,2091.4,0,0.0008494,2.022e-05,0,0.00080104,0.00015722,8.1576e+07,3.0693e+06,0,5.5427e+07,2.2669e+06,2091.4,1
5396,7.02,12260,1,12260,1,0.0011585,3.4813e-06,0,0.0011927,-0.00021488,1.2074e+08,4.9635e+05,0,1.3483e+08,-6.0895e+05,12259,15904,1,15904,1,0.0025725,0.00013283,0,0.0025725,5.6642e-05,2.0501e+08,2.4887e+07,0,2.0501e+08,44475,15903,12262,1,12262,1,0.0011386,1.998e-11,0,0.0011386,-0.00020942,1.5251e+08,1.5909,0,1.5251e+08,-4.1045,12261,8553,1,8553,1,-0.00029247,-7.2639e-05,0,3.491e-06,-0.00047705,-1.1882e+08,-1.35e+07,0,1.6439e+05,-2.3286e+07,8552,10465,1,10465,1,0.00042312,-1.5506e-09,0,0.00042312,-0.00034279,8.666e+07,-237.77,0,1.068e+08,-26.472,10464,14059,1,14059,1,0.0018542,2.169e-09,0,0.0018542,-7.6494e-05,1.7699e+08,359.61,0,1.7699e+08,230.95,14058,2091.4,0,2091.4,0,0.00085063,2.0244e-05,0,0.00080221,0.00015745,8.1681e+07,3.0734e+06,0,5.5497e+07,2.2703e+06,2091.4,1
5396,7.03,12260,1,12260,1,0.0011602,3.4856e-06,0,0.0011944,-0.0002152,1.2091e+08,4.97e+05,0,1.3502e+08,-6.0964e+05,12259,15904,1,15904,1,0.0025763,0.000133,0,0.0025763,5.6718e-05,2.0519e+08,2.4922e+07,0,2.0519e+08,44864,15903,12262,1,12262,1,0.0011403,8.8216e-11,0,0.0011403,-0.00020973,1.5273e+08,7.5505,0,1.5273e+08,-4.2758,12261,8553,1,8553,1,-0.00029286,-7.273e-05,0,3.4861e-06,-0.00047775,-1.1898e+08,-1.3523e+07,0,1.6542e+05,-2.332e+07,8552,10465,1,10465,1,0.00042377,-1.3707e-09,0,0.00042377,-0.00034329,8.6793e+07,-188.16,0,1.0696e+08,-25.346,10464,14059,1,14059,1,0.0018569,2.0613e-09,0,0.0018569,-7.6611e-05,1.7725e+08,352.09,0,1.7725e+08,219.32,14058,2091.4,0,2091.4,0,0.00085186,2.0267e-05,0,0.00080338,0.00015767,8.1785e+07,3.0776e+06,0,5.5567e+07,2.2737e+06,2091.4,1
5396,7.04,12260,1,12260,1,0.0011619,3.4895e-06,0,0.0011962,-0.00021551,1.2108e+08,4.9759e+05,0,1.352e+08,-6.1034e+05,12259,15904,1,15904,1,0.0025801,0.00013318,0,0.0025801,5.6793e-05,2.0538e+08,2.4959e+07,0,2.0538e+08,45254,15903,12262,1,12262,1,0.001142,6.5299e-10,0,0.001142,-0.00021004,1.5296e+08,58.857,0,1.5296e+08,-12.776,12261,8553,1,8553,1,-0.00029325,-7.2824e-05,0,3.4808e-06,-0.00047846,-1.1914e+08,-1.3545e+07,0,1.6669e+05,-2.3355e+07,8552,10465,1,10465,1,0.00042442,-4.0972e-09,0,0.00042442,-0.00034379,8.6927e+07,-552.97,0,1.0712e+08,-87.136,10464,14059,1,14059,1,0.0018596,4.7272e-09,0,0.0018596,-7.673e-05,1.7751e+08,684.26,0,1.7751e+08,243.01,14058,2091.4,0,2091.4,0,0.00085309,2.0292e-05,0,0.00080455,0.0001579,8.1891e+07,3.0819e+06,0,5.5638e+07,2.2771e+06,2091.4,1
5396,7.05,12260,1,12260,1,0.0011636,3.494e-06,0,0.0011979,-0.00021583,1.2125e+08,4.9829e+05,0,1.3539e+08,-6.11e+05,12259,15904,1,15904,1,0.0025839,0.00013335,0,0.0025839,5.6868e-05,2.0557e+08,2.4994e+07,0,2.0557e+08,45596,15903,12262,1,12262,1,0.0011437,5.7647e-11,0,0.0011437,-0.00021035,1.5318e+08,5.6764,0,1.5318e+08,0.28115,12261,8553,1,8553,1,-0.00029363,-7.2916e-05,0,3.4799e-06,-0.00047916,-1.1929e+08,-1.3568e+07,0,1.6924e+05,-2.3387e+07,8552,10465,1,10465,1,0.00042506,-8.2214e-10,0,0.00042506,-0.00034429,8.7059e+07,-121.44,0,1.0728e+08,-24.385,10464,14059,1,14059,1,0.0018624,2.0633e-09,0,0.0018624,-7.6846e-05,1.7777e+08,318.44,0,1.7777e+08,227.31,14058,2091.4,0,2091.4,0,0.00085431,2.0314e-05,0,0.00080572,0.00015813,8.1995e+07,3.086e+06,0,5.5707e+07,2.2804e+06,2091.4,1
5396,7.06,12260,1,12260,1,0.0011653,3.4984e-06,0,0.0011997,-0.00021614,1.2142e+08,4.9897e+05,0,1.3558e+08,-6.1167e+05,12259,15904,1,15904,1,0.0025877,0.00013352,0,0.0025877,5.6944e-05,2.0575e+08,2.5031e+07,0,2.0575e+08,46016,15903,12262,1,12262,1,0.0011454,-4.8081e-11,0,0.0011454,-0.00021066,1.5341e+08,-5.094,0,1.5341e+08,-14.584,12261,8553,1,8553,1,-0.00029402,-7.3015e-05,0,3.4772e-06,-0.00047986,-1.1945e+08,-1.3591e+07,0,1.7201e+05,-2.3421e+07,8552,10465,1,10465,1,0.00042572,-4.0237e-09,0,0.00042572,-0.00034479,8.7193e+07,-579.15,0,1.0744e+08,-139.07,10464,14059,1,14059,1,0.0018651,7.4886e-09,0,0.0018651,-7.6965e-05,1.7804e+08,1124,0,1.7804e+08,243.44,14058,2091.4,0,2091.4,0,0.00085555,2.0337e-05,0,0.00080689,0.00015836,8.21e+07,3.0903e+06,0,5.5777e+07,2.2837e+06,2091.4,1
5396,7.07,12260,1,12260,1,0.001167,3.5022e-06,0,0.0012014,-0.00021646,1.2159e+08,4.9957e+05,0,1.3576e+08,-6.1231e+05,12259,15904,1,15904,1,0.0025915,0.00013369,0,0.0025915,5.7019e-05,2.0594e+08,2.5067e+07,0,2.0594e+08,46228,15903,12262,1,12262,1,0.0011471,5.6221e-11,0,0.0011471,-0.00021097,1.5364e+08,5.3842,0,1.5364e+08,-0.99827,12261,8553,1,8553,1,-0.00029441,-7.3107e-05,0,3.4772e-06,-0.00048056,-1.1961e+08,-1.3613e+07,0,1.7543e+05,-2.3454e+07,8552,10465,1,10465,1,0.00042636,-8.0808e-10,0,0.00042636,-0.00034529,8.7324e+07,-120.64,0,1.076e+08,-18.575,10464,14059,1,14059,1,0.0018678,2.1362e-09,0,0.0018678,-7.7081e-05,1.7829e+08,311.01,0,1.7829e+08,231.5,14058,2091.4,0,2091.4,0,0.00085677,2.036e-05,0,0.00080806,0.00015858,8.2204e+07,3.0945e+06,0,5.5847e+07,2.2869e+06,2091.4,1
5396,7.08,12260,1,12260,1,0.0011687,3.5063e-06,0,0.0012032,-0.00021677,1.2176e+08,5.0022e+05,0,1.3595e+08,-6.1296e+05,12259,15904,1,15904,1,0.0025952,0.00013387,0,0.0025952,5.7094e-05,2.0612e+08,2.5104e+07,0,2.0612e+08,46579,15903,12262,1,12262,1,0.0011488,8.8561e-11,0,0.0011488,-0.00021128,1.5386e+08,7.4235,0,1.5386e+08,-14.988,12261,8553,1,8553,1,-0.00029479,-7.3208e-05,0,3.4759e-06,-0.00048126,-1.1976e+08,-1.3637e+07,0,1.7914e+05,-2.3487e+07,8552,10465,1,10465,1,0.00042701,-3.9395e-09,0,0.00042701,-0.00034579,8.7458e+07,-570.71,0,1.0776e+08,-113.23,10464,14059,1,14059,1,0.0018705,6.1193e-09,0,0.0018705,-7.72e-05,1.7855e+08,912.65,0,1.7855e+08,255.07,14058,2091.4,0,2091.4,0,0.000858,2.0383e-05,0,0.00080923,0.00015881,8.2309e+07,3.0987e+06,0,5.5917e+07,2.2901e+06,2091.4,1
5396,7.09,12260,1,12260,1,0.0011704,3.5102e-06,0,0.0012049,-0.00021709,1.2193e+08,5.0083e+05,0,1.3613e+08,-6.1358e+05,12259,15904,1,15904,1,0.002599,0.00013404,0,0.002599,5.7169e-05,2.0631e+08,2.514e+07,0,2.0631e+08,46782,15903,12262,1,12262,1,0.0011504,8.9615e-11,0,0.0011504,-0.00021159,1.5409e+08,7.5322,0,1.5409e+08,-1.6665,12261,8553,1,8553,1,-0.00029518,-7.3306e-05,0,3.4765e-06,-0.00048196,-1.1992e+08,-1.366e+07,0,1.8343e+05,-2.352e+07,8552,10465,1,10465,1,0.00042766,-1.2525e-09,0,0.00042766,-0.00034629,8.759e+07,-184.07,0,1.0793e+08,-22.249,10464,14059,1,14059,1,0.0018733,1.8799e-09,0,0.0018733,-7.7317e-05,1.7881e+08,287.99,0,1.7881e+08,235.34,14058,2091.4,0,2091.4,0,0.00085923,2.0406e-05,0,0.0008104,0.00015904,8.2413e+07,3.103e+06,0,5.5986e+07,2.2931e+06,2091.4,1
5396,7.1,12260,1,12260,1,0.0011721,3.5142e-06,0,0.0012067,-0.0002174,1.221e+08,5.0147e+05,0,1.3632e+08,-6.142e+05,12259,15904,1,15904,1,0.0026028,0.0001342,0,0.0026028,5.7244e-05,2.0649e+08,2.5176e+07,0,2.0649e+08,47056,15903,12262,1,12262,1,0.0011521,6.6654e-12,0,0.0011521,-0.0002119,1.5431e+08,0.44924,0,1.5431e+08,-2.9557,12261,8553,1,8553,1,-0.00029557,-7.3405e-05,0,3.4777e-06,-0.00048266,-1.2008e+08,-1.3683e+07,0,1.8825e+05,-2.3552e+07,8552,10465,1,10465,1,0.00042831,-1.0605e-09,0,0.00042831,-0.0003468,8.7723e+07,-146.32,0,1.0809e+08,-20.651,10464,14059,1,14059,1,0.001876,1.8526e-09,0,0.001876,-7.7434e-05,1.7907e+08,290.4,0,1.7907e+08,235.4,14058,2091.4,0,2091.4,0,0.00086046,2.0429e-05,0,0.00081157,0.00015926,8.2517e+07,3.1072e+06,0,5.6056e+07,2.2962e+06,2091.4,1
5396,7.11,12260,1,12260,1,0.0011738,3.5181e-06,0,0.0012084,-0.00021772,1.2226e+08,5.021e+05,0,1.3651e+08,-6.1482e+05,12259,15904,1,15904,1,0.0026066,0.00013437,0,0.0026066,5.7319e-05,2.0667e+08,2.5213e+07,0,2.0667e+08,47275,15903,12262,1,12262,1,0.0011538,-1.8191e-11,0,0.0011538,-0.00021221,1.5454e+08,-1.4117,0,1.5454e+08,-3.5864,12261,8553,1,8553,1,-0.00029595,-7.3507e-05,0,3.4794e-06,-0.00048336,-1.2024e+08,-1.3706e+07,0,1.9357e+05,-2.3585e+07,8552,10465,1,10465,1,0.00042896,-1.1471e-09,0,0.00042896,-0.0003473,8.7856e+07,-157.07,0,1.0825e+08,-24.185,10464,14059,1,14059,1,0.0018787,1.8495e-09,0,0.0018787,-7.7552e-05,1.7933e+08,283.93,0,1.7933e+08,234.95,14058,2091.4,0,2091.4,0,0.00086169,2.0452e-05,0,0.00081274,0.00015949,8.2622e+07,3.1114e+06,0,5.6126e+07,2.2992e+06,2091.4,1
5396,7.12,12260,1,12260,1,0.0011755,3.522e-06,0,0.0012102,-0.00021804,1.2243e+08,5.0274e+05,0,1.3669e+08,-6.1544e+05,12259,15904,1,15904,1,0.0026104,0.00013455,0,0.0026104,5.7395e-05,2.0686e+08,2.5251e+07,0,2.0686e+08,47503,15903,12262,1,12262,1,0.0011555,-5.9481e-11,0,0.0011555,-0.00021252,1.5477e+08,-4.952,0,1.5477e+08,-5.625,12261,8553,1,8553,1,-0.00029634,-7.3611e-05,0,3.4682e-06,-0.00048406,-1.2039e+08,-1.373e+07,0,1.992e+05,-2.3617e+07,8552,10465,1,10465,1,0.00042961,-1.6323e-09,0,0.00042961,-0.0003478,8.7989e+07,-227.44,0,1.0841e+08,-28.388,10464,14059,1,14059,1,0.0018814,1.8736e-09,0,0.0018814,-7.767e-05,1.7959e+08,317.43,0,1.7959e+08,234.63,14058,2091.4,0,2091.4,0,0.00086292,2.0476e-05,0,0.00081391,0.00015972,8.2726e+07,3.1158e+06,0,5.6195e+07,2.3023e+06,2091.4,1
5396,7.13,12260,1,12260,1,0.0011772,3.5261e-06,0,0.0012119,-0.00021835,1.226e+08,5.034e+05,0,1.3688e+08,-6.1605e+05,12259,15904,1,15904,1,0.0026141,0.00013472,0,0.0026141,5.747e-05,2.0704e+08,2.5288e+07,0,2.0704e+08,47781,15903,12262,1,12262,1,0.0011572,4.6447e-11,0,0.0011572,-0.00021283,1.5499e+08,5.0597,0,1.5499e+08,-10.293,12261,8553,1,8553,1,-0.00029673,-7.3714e-05,0,3.4561e-06,-0.00048476,-1.2055e+08,-1.3753e+07,0,2.0541e+05,-2.365e+07,8552,10465,1,10465,1,0.00043026,-2.8582e-09,0,0.00043026,-0.00034831,8.8122e+07,-412.97,0,1.0857e+08,-88.393,10464,14059,1,14059,1,0.0018841,4.2682e-09,0,0.0018841,-7.7788e-05,1.7985e+08,635.01,0,1.7985e+08,257.08,14058,2091.4,0,2091.4,0,0.00086415,2.0498e-05,0,0.00081509,0.00015995,8.2831e+07,3.12e+06,0,5.6265e+07,2.3053e+06,2091.4,1
5396,7.14,12260,1,12260,1,0.0011789,3.5297e-06,0,0.0012136,-0.00021867,1.2277e+08,5.04e+05,0,1.3706e+08,-6.1664e+05,12259,15904,1,15904,1,0.0026179,0.00013488,0,0.0026179,5.7545e-05,2.0722e+08,2.5325e+07,0,2.0722e+08,47965,15903,12262,1,12262,1,0.0011589,-1.1234e-10,0,0.0011589,-0.00021314,1.5522e+08,-10.701,0,1.5522e+08,-0.42493,12261,8553,1,8553,1,-0.00029711,-7.3815e-05,0,3.4437e-06,-0.00048546,-1.2071e+08,-1.3777e+07,0,2.1189e+05,-2.3681e+07,8552,10465,1,10465,1,0.00043091,-8.8841e-10,0,0.00043091,-0.00034881,8.8255e+07,-128.77,0,1.0873e+08,-24.628,10464,14059,1,14059,1,0.0018869,1.8573e-09,0,0.0018869,-7.7905e-05,1.8011e+08,267.83,0,1.8011e+08,235.27,14058,2091.4,0,2091.4,0,0.00086538,2.0521e-05,0,0.00081625,0.00016017,8.2934e+07,3.1243e+06,0,5.6334e+07,2.3081e+06,2091.4,1
5396,7.15,12260,1,12260,1,0.0011807,3.5336e-06,0,0.0012154,-0.00021898,1.2294e+08,5.0464e+05,0,1.3725e+08,-6.1723e+05,12259,15904,1,15904,1,0.0026217,0.00013505,0,0.0026217,5.7619e-05,2.074e+08,2.5362e+07,0,2.074e+08,48186,15903,12262,1,12262,1,0.0011605,-1.6906e-11,0,0.0011605,-0.00021345,1.5544e+08,-1.3464,0,1.5544e+08,-6.2486,12261,8553,1,8553,1,-0.0002975,-7.3919e-05,0,3.4313e-06,-0.00048616,-1.2086e+08,-1.38e+07,0,2.1872e+05,-2.3713e+07,8552,10465,1,10465,1,0.00043156,-1.467e-09,0,0.00043156,-0.00034931,8.8388e+07,-213.49,0,1.089e+08,-31.307,10464,14059,1,14059,1,0.0018896,1.8604e-09,0,0.0018896,-7.8023e-05,1.8037e+08,305.94,0,1.8037e+08,246.29,14058,2091.4,0,2091.4,0,0.00086661,2.0544e-05,0,0.00081743,0.0001604,8.3039e+07,3.1286e+06,0,5.6404e+07,2.311e+06,2091.4,1
5396,7.16,12260,1,12260,1,0.0011824,3.5373e-06,0,0.0012171,-0.0002193,1.2311e+08,5.0525e+05,0,1.3744e+08,-6.1782e+05,12259,15904,1,15904,1,0.0026255,0.00013522,0,0.0026255,5.7694e-05,2.0758e+08,2.5399e+07,0,2.0758e+08,48377,15903,12262,1,12262,1,0.0011622,-1.208e-10,0,0.0011622,-0.00021376,1.5567e+08,-10.678,0,1.5567e+08,-2.4776,12261,8553,1,8553,1,-0.00029788,-7.4022e-05,0,3.419e-06,-0.00048686,-1.2102e+08,-1.3824e+07,0,2.2562e+05,-2.3745e+07,8552,10465,1,10465,1,0.00043221,-9.0577e-10,0,0.00043221,-0.00034982,8.8521e+07,-125.94,0,1.0906e+08,-22.09,10464,14059,1,14059,1,0.0018923,1.8129e-09,0,0.0018923,-7.814e-05,1.8063e+08,250.16,0,1.8063e+08,236.74,14058,2091.4,0,2091.4,0,0.00086783,2.0567e-05,0,0.0008186,0.00016063,8.3143e+07,3.1328e+06,0,5.6473e+07,2.3139e+06,2091.4,1
5396,7.17,12260,1,12260,1,0.0011841,3.5412e-06,0,0.0012189,-0.00021961,1.2328e+08,5.0589e+05,0,1.3762e+08,-6.1841e+05,12259,15904,1,15904,1,0.0026293,0.00013539,0,0.0026293,5.7769e-05,2.0776e+08,2.5437e+07,0,2.0776e+08,48557,15903,12262,1,12262,1,0.0011639,7.6992e-11,0,0.0011639,-0.00021407,1.5589e+08,6.9368,0,1.5589e+08,-4.2584,12261,8553,1,8553,1,-0.00029827,-7.4125e-05,0,3.4072e-06,-0.00048755,-1.2118e+08,-1.3847e+07,0,2.3313e+05,-2.3776e+07,8552,10465,1,10465,1,0.00043286,-7.6743e-10,0,0.00043286,-0.00035032,8.8654e+07,-102.91,0,1.0922e+08,-19.94,10464,14059,1,14059,1,0.001895,1.8824e-09,0,0.001895,-7.8258e-05,1.8089e+08,270.13,0,1.8089e+08,243.13,14058,2091.4,0,2091.4,0,0.00086906,2.0589e-05,0,0.00081977,0.00016086,8.3247e+07,3.1371e+06,0,5.6542e+07,2.3167e+06,2091.4,1
5396,7.18,12260,1,12260,1,0.0011858,3.5449e-06,0,0.0012206,-0.00021993,1.2345e+08,5.0651e+05,0,1.3781e+08,-6.1898e+05,12259,15904,1,15904,1,0.002633,0.00013555,0,0.002633,5.7844e-05,2.0794e+08,2.5474e+07,0,2.0794e+08,48750,15903,12262,1,12262,1,0.0011656,4.4234e-11,0,0.0011656,-0.00021438,1.5612e+08,3.8369,0,1.5612e+08,-2.903,12261,8553,1,8553,1,-0.00029865,-7.4227e-05,0,3.3957e-06,-0.00048825,-1.2133e+08,-1.3871e+07,0,2.4087e+05,-2.3807e+07,8552,10465,1,10465,1,0.00043351,-6.9167e-10,0,0.00043351,-0.00035082,8.8787e+07,-92.428,0,1.0938e+08,-19.908,10464,14059,1,14059,1,0.0018977,1.9416e-09,0,0.0018977,-7.8376e-05,1.8115e+08,269.29,0,1.8115e+08,242.39,14058,2091.4,0,2091.4,0,0.00087029,2.0612e-05,0,0.00082094,0.00016108,8.335e+07,3.1414e+06,0,5.6612e+07,2.3195e+06,2091.4,1
5396,7.19,12260,1,12260,1,0.0011875,3.5486e-06,0,0.0012224,-0.00022025,1.2362e+08,5.0713e+05,0,1.3799e+08,-6.1957e+05,12259,15904,1,15904,1,0.0026368,0.00013572,0,0.0026368,5.7919e-05,2.0812e+08,2.5512e+07,0,2.0812e+08,48955,15903,12262,1,12262,1,0.0011673,-2.5048e-12,0,0.0011673,-0.00021469,1.5634e+08,-0.24574,0,1.5634e+08,-4.5612,12261,8553,1,8553,1,-0.00029904,-7.433e-05,0,3.3844e-06,-0.00048895,-1.2149e+08,-1.3894e+07,0,2.4877e+05,-2.3839e+07,8552,10465,1,10465,1,0.00043416,-9.0486e-10,0,0.00043416,-0.00035132,8.892e+07,-121.8,0,1.0954e+08,-20.932,10464,14059,1,14059,1,0.0019005,1.7717e-09,0,0.0019005,-7.8494e-05,1.8141e+08,268.28,0,1.8141e+08,244.58,14058,2091.4,0,2091.4,0,0.00087152,2.0635e-05,0,0.00082211,0.00016131,8.3454e+07,3.1457e+06,0,5.6681e+07,2.3223e+06,2091.4,1
5396,7.2,12260,1,12260,1,0.0011892,3.5523e-06,0,0.0012241,-0.00022056,1.2379e+08,5.0775e+05,0,1.3818e+08,-6.2015e+05,12259,15904,1,15904,1,0.0026406,0.00013589,0,0.0026406,5.7994e-05,2.083e+08,2.555e+07,0,2.083e+08,49216,15903,12262,1,12262,1,0.001169,-2.981e-10,0,0.001169,-0.000215,1.5657e+08,-24.832,0,1.5657e+08,-23.637,12261,8553,1,8553,1,-0.00029942,-7.443e-05,0,3.3731e-06,-0.00048965,-1.2164e+08,-1.3917e+07,0,2.568e+05,-2.387e+07,8552,10465,1,10465,1,0.00043481,-5.6606e-09,0,0.00043481,-0.00035182,8.9054e+07,-813.5,0,1.097e+08,-146.59,10464,14059,1,14059,1,0.0019032,6.226e-09,0,0.0019032,-7.8613e-05,1.8167e+08,917.54,0,1.8167e+08,281.83,14058,2091.4,0,2091.4,0,0.00087276,2.0658e-05,0,0.00082329,0.00016154,8.3559e+07,3.15e+06,0,5.6751e+07,2.3251e+06,2091.4,1
5396,7.21,12260,1,12260,1,0.0011909,3.556e-06,0,0.0012259,-0.00022088,1.2395e+08,5.0839e+05,0,1.3837e+08,-6.2073e+05,12259,15904,1,15904,1,0.0026444,0.00013606,0,0.0026444,5.8069e-05,2.0848e+08,2.5587e+07,0,2.0848e+08,49280,15903,12262,1,12262,1,0.0011707,3.0527e-10,0,0.0011707,-0.00021531,1.568e+08,34.349,0,1.568e+08,2.5617,12261,8553,1,8553,1,-0.00029981,-7.4534e-05,0,3.3624e-06,-0.00049035,-1.218e+08,-1.3941e+07,0,2.6527e+05,-2.39e+07,8552,10465,1,10465,1,0.00043546,-5.8296e-10,0,0.00043546,-0.00035233,8.9187e+07,-80.383,0,1.0987e+08,-21.513,10464,14059,1,14059,1,0.0019059,2.0715e-09,0,0.0019059,-7.873e-05,1.8193e+08,290.74,0,1.8193e+08,240.06,14058,2091.4,0,2091.4,0,0.00087399,2.068e-05,0,0.00082446,0.00016177,8.3662e+07,3.1543e+06,0,5.682e+07,2.3278e+06,2091.4,1
5396,7.22,12260,1,12260,1,0.0011926,3.5596e-06,0,0.0012276,-0.00022119,1.2412e+08,5.09e+05,0,1.3855e+08,-6.213e+05,12259,15904,1,15904,1,0.0026481,0.00013622,0,0.0026481,5.8143e-05,2.0865e+08,2.5625e+07,0,2.0865e+08,49471,15903,12262,1,12262,1,0.0011723,1.4621e-11,0,0.0011723,-0.00021562,1.5702e+08,1.1085,0,1.5702e+08,-7.4933,12261,8553,1,8553,1,-0.00030019,-7.4635e-05,0,3.3515e-06,-0.00049104,-1.2196e+08,-1.3965e+07,0,2.7392e+05,-2.3931e+07,8552,10465,1,10465,1,0.00043611,-1.3926e-09,0,0.00043611,-0.00035283,8.932e+07,-197.78,0,1.1003e+08,-30.868,10464,14059,1,14059,1,0.0019086,1.9358e-09,0,0.0019086,-7.8848e-05,1.8219e+08,296.81,0,1.8219e+08,248.36,14058,2091.4,0,2091.4,0,0.00087522,2.0703e-05,0,0.00082563,0.00016199,8.3766e+07,3.1586e+06,0,5.6889e+07,2.3306e+06,2091.4,1
5396,7.23,12260,1,12260,1,0.0011943,3.5633e-06,0,0.0012294,-0.00022151,1.2429e+08,5.0964e+05,0,1.3874e+08,-6.2188e+05,12259,15904,1,15904,1,0.0026519,0.00013639,0,0.0026519,5.8218e-05,2.0883e+08,2.5663e+07,0,2.0883e+08,49640,15903,12262,1,12262,1,0.001174,8.1594e-11,0,0.001174,-0.00021593,1.5725e+08,7.1094,0,1.5725e+08,-5.5969,12261,8553,1,8553,1,-0.00030058,-7.4736e-05,0,3.3412e-06,-0.00049174,-1.2211e+08,-1.3989e+07,0,2.8264e+05,-2.3962e+07,8552,10465,1,10465,1,0.00043676,-1.1982e-09,0,0.00043676,-0.00035334,8.9453e+07,-176.28,0,1.1019e+08,-32.423,10464,14059,1,14059,1,0.0019113,2.1207e-09,0,0.0019113,-7.8966e-05,1.8245e+08,336.69,0,1.8245e+08,247.05,14058,2091.4,0,2091.4,0,0.00087645,2.0726e-05,0,0.0008268,0.00016222,8.387e+07,3.1629e+06,0,5.6958e+07,2.3333e+06,2091.4,1
5396,7.24,12260,1,12260,1,0.0011961,3.5673e-06,0,0.0012312,-0.00022183,1.2446e+08,5.1031e+05,0,1.3892e+08,-6.2245e+05,12259,15904,1,15904,1,0.0026558,0.00013656,0,0.0026558,5.8291e-05,2.0899e+08,2.5701e+07,0,2.0899e+08,50728,15903,12262,1,12262,1,0.0011757,4.3813e-10,0,0.0011757,-0.00021624,1.5748e+08,38.448,0,1.5748e+08,-28.969,12261,8553,1,8553,1,-0.00030095,-7.4834e-05,0,3.3211e-06,-0.00049247,-1.2227e+08,-1.4013e+07,0,2.9262e+05,-2.3994e+07,8552,10465,1,10465,1,0.00043742,-4.8181e-09,0,0.00043742,-0.00035385,8.9588e+07,-717.25,0,1.1035e+08,-151.18,10464,14059,1,14059,1,0.0019141,6.9636e-09,0,0.0019141,-7.9086e-05,1.8271e+08,1022.5,0,1.8271e+08,173.12,14058,2091.4,0,2091.4,0,0.00087769,2.0748e-05,0,0.00082799,0.00016245,8.3972e+07,3.1672e+06,0,5.7026e+07,2.3363e+06,2091.4,1
5396,7.25,12260,1,12260,1,0.0011978,3.5703e-06,0,0.0012329,-0.00022215,1.2463e+08,5.1085e+05,0,1.391e+08,-6.2293e+05,12259,15904,1,15904,1,0.0026598,0.00013671,0,0.0026598,5.8361e-05,2.0913e+08,2.5739e+07,0,2.0913e+08,52244,15903,12262,1,12262,1,0.0011775,1.3159e-11,0,0.0011775,-0.00021657,1.5771e+08,1.0243,0,1.5771e+08,-26.782,12261,8553,1,8553,1,-0.00030131,-7.4911e-05,0,3.2886e-06,-0.00049321,-1.2241e+08,-1.4037e+07,0,3.0509e+05,-2.4024e+07,8552,10465,1,10465,1,0.00043812,-4.8911e-09,0,0.00043812,-0.00035436,8.9732e+07,-741.67,0,1.1053e+08,-111.66,10464,14059,1,14059,1,0.0019169,4.7883e-09,0,0.0019169,-7.9214e-05,1.8298e+08,748.97,0,1.8298e+08,167.36,14058,2091.4,0,2091.4,0,0.00087893,2.0766e-05,0,0.00082919,0.00016268,8.4064e+07,3.1712e+06,0,5.7087e+07,2.3394e+06,2091.4,1
5396,7.26,12260,1,12260,1,0.0011996,3.5731e-06,0,0.0012347,-0.00022248,1.2479e+08,5.1139e+05,0,1.3928e+08,-6.2341e+05,12259,15904,1,15904,1,0.0026639,0.00013687,0,0.0026639,5.843e-05,2.0925e+08,2.5776e+07,0,2.0925e+08,53396,15903,12262,1,12262,1,0.0011792,3.5221e-10,0,0.0011792,-0.00021689,1.5795e+08,51.966,0,1.5795e+08,10.493,12261,8553,1,8553,1,-0.00030166,-7.4997e-05,0,3.2551e-06,-0.00049396,-1.2255e+08,-1.4063e+07,0,3.1844e+05,-2.4055e+07,8552,10465,1,10465,1,0.00043883,-7.9923e-10,0,0.00043883,-0.00035488,8.9876e+07,-72.981,0,1.107e+08,-46.348,10464,14059,1,14059,1,0.0019197,2.226e-09,0,0.0019197,-7.9341e-05,1.8324e+08,229.08,0,1.8324e+08,134.77,14058,2091.4,0,2091.4,0,0.00088018,2.0785e-05,0,0.00083039,0.00016291,8.4155e+07,3.1753e+06,0,5.7147e+07,2.3426e+06,2091.4,1
5396,7.27,12260,1,12260,1,0.0012014,3.5762e-06,0,0.0012365,-0.00022281,1.2496e+08,5.1195e+05,0,1.3946e+08,-6.2386e+05,12259,15904,1,15904,1,0.0026679,0.00013702,0,0.0026679,5.8499e-05,2.0938e+08,2.5814e+07,0,2.0938e+08,54718,15903,12262,1,12262,1,0.001181,1.7584e-10,0,0.001181,-0.00021722,1.5818e+08,14.669,0,1.5818e+08,-24.58,12261,8553,1,8553,1,-0.00030201,-7.5071e-05,0,3.2242e-06,-0.00049471,-1.2269e+08,-1.4087e+07,0,3.3274e+05,-2.4087e+07,8552,10465,1,10465,1,0.00043953,-4.4336e-09,0,0.00043953,-0.0003554,9.0021e+07,-628.54,0,1.1087e+08,-118.02,10464,14059,1,14059,1,0.0019225,4.7196e-09,0,0.0019225,-7.947e-05,1.8352e+08,692.62,0,1.8352e+08,192.95,14058,2091.4,0,2091.4,0,0.00088143,2.0803e-05,0,0.00083159,0.00016314,8.4247e+07,3.1793e+06,0,5.7207e+07,2.3458e+06,2091.4,1
5396,7.28,12260,1,12260,1,0.0012031,3.5791e-06,0,0.0012383,-0.00022313,1.2512e+08,5.125e+05,0,1.3964e+08,-6.2429e+05,12259,15904,1,15904,1,0.0026719,0.00013717,0,0.0026719,5.8567e-05,2.095e+08,2.5851e+07,0,2.095e+08,55698,15903,12262,1,12262,1,0.0011828,9.5254e-11,0,0.0011828,-0.00021754,1.5842e+08,8.798,0,1.5842e+08,-1.0337,12261,8553,1,8553,1,-0.00030236,-7.5146e-05,0,3.1938e-06,-0.00049545,-1.2284e+08,-1.4113e+07,0,3.4747e+05,-2.4118e+07,8552,10465,1,10465,1,0.00044024,-1.175e-09,0,0.00044024,-0.00035593,9.0165e+07,-187.29,0,1.1104e+08,-24.17,10464,14059,1,14059,1,0.0019254,1.2913e-09,0,0.0019254,-7.9597e-05,1.8378e+08,227.99,0,1.8378e+08,177.48,14058,2091.4,0,2091.4,0,0.00088267,2.0819e-05,0,0.00083279,0.00016337,8.4337e+07,3.1832e+06,0,5.7267e+07,2.3489e+06,2091.4,1
5396,7.29,12260,1,12260,1,0.0012049,3.5821e-06,0,0.0012402,-0.00022346,1.2529e+08,5.1307e+05,0,1.3982e+08,-6.2472e+05,12259,15904,1,15904,1,0.0026759,0.00013733,0,0.0026759,5.8636e-05,2.0961e+08,2.589e+07,0,2.0961e+08,56630,15903,12262,1,12262,1,0.0011845,2.1126e-10,0,0.0011845,-0.00021786,1.5866e+08,15.178,0,1.5866e+08,-20.522,12261,8553,1,8553,1,-0.00030271,-7.5222e-05,0,3.1632e-06,-0.00049618,-1.2298e+08,-1.4139e+07,0,3.6321e+05,-2.4149e+07,8552,10465,1,10465,1,0.00044095,-5.2562e-09,0,0.00044095,-0.00035645,9.031e+07,-761.31,0,1.1122e+08,-123.96,10464,14059,1,14059,1,0.0019282,5.2608e-09,0,0.0019282,-7.9727e-05,1.8405e+08,777.72,0,1.8405e+08,207.95,14058,2091.4,0,2091.4,0,0.00088392,2.0837e-05,0,0.000834,0.0001636,8.4429e+07,3.1874e+06,0,5.7327e+07,2.352e+06,2091.4,1
5396,7.3,12260,1,12260,1,0.0012067,3.5848e-06,0,0.0012419,-0.00022379,1.2545e+08,5.1361e+05,0,1.4e+08,-6.2512e+05,12259,15904,1,15904,1,0.0026799,0.00013747,0,0.0026799,5.8704e-05,2.0973e+08,2.5928e+07,0,2.0973e+08,57411,15903,12262,1,12262,1,0.0011863,-1.0307e-10,0,0.0011863,-0.00021819,1.5889e+08,-8.9835,0,1.5889e+08,-10.756,12261,8553,1,8553,1,-0.00030306,-7.5295e-05,0,3.1357e-06,-0.00049692,-1.2312e+08,-1.4164e+07,0,3.7933e+05,-2.418e+07,8552,10465,1,10465,1,0.00044165,-2.7233e-09,0,0.00044165,-0.00035697,9.0454e+07,-427.27,0,1.1139e+08,-48.228,10464,14059,1,14059,1,0.001931,2.1807e-09,0,0.001931,-7.9854e-05,1.8432e+08,357.81,0,1.8432e+08,200.33,14058,2091.4,0,2091.4,0,0.00088517,2.0853e-05,0,0.0008352,0.00016383,8.4519e+07,3.1913e+06,0,5.7386e+07,2.355e+06,2091.4,1
5396,7.31,12260,1,12260,1,0.0012084,3.5878e-06,0,0.0012438,-0.00022412,1.2562e+08,5.1418e+05,0,1.4017e+08,-6.2552e+05,12259,15904,1,15904,1,0.0026839,0.00013762,0,0.0026839,5.8772e-05,2.0984e+08,2.5966e+07,0,2.0984e+08,58081,15903,12262,1,12262,1,0.0011881,1.55e-10,0,0.0011881,-0.00021851,1.5913e+08,13.549,0,1.5913e+08,-6.3703,12261,8553,1,8553,1,-0.0003034,-7.5374e-05,0,3.1083e-06,-0.00049766,-1.2326e+08,-1.4191e+07,0,3.9619e+05,-2.4211e+07,8552,10465,1,10465,1,0.00044236,-1.4699e-09,0,0.00044236,-0.00035749,9.0599e+07,-229.8,0,1.1156e+08,-32.689,10464,14059,1,14059,1,0.0019338,1.6351e-09,0,0.0019338,-7.9982e-05,1.8459e+08,265.64,0,1.8459e+08,194.29,14058,2091.4,0,2091.4,0,0.00088642,2.087e-05,0,0.0008364,0.00016407,8.461e+07,3.1954e+06,0,5.7446e+07,2.3579e+06,2091.4,1
5396,7.32,12260,1,12260,1,0.0012102,3.5901e-06,0,0.0012456,-0.00022444,1.2579e+08,5.1467e+05,0,1.4035e+08,-6.259e+05,12259,15904,1,15904,1,0.0026878,0.00013778,0,0.0026878,5.884e-05,2.0995e+08,2.6005e+07,0,2.0995e+08,58810,15903,12262,1,12262,1,0.0011898,1.4403e-09,0,0.0011898,-0.00021884,1.5936e+08,151.57,0,1.5936e+08,-21.532,12261,8553,1,8553,1,-0.00030375,-7.5452e-05,0,3.0811e-06,-0.00049839,-1.234e+08,-1.4218e+07,0,4.133e+05,-2.4242e+07,8552,10465,1,10465,1,0.00044307,-6.7661e-09,0,0.00044307,-0.00035801,9.0745e+07,-916.31,0,1.1173e+08,-165.77,10464,14059,1,14059,1,0.0019366,6.5132e-09,0,0.0019366,-8.0112e-05,1.8486e+08,941.29,0,1.8486e+08,218.44,14058,2091.4,0,2091.4,0,0.00088767,2.0887e-05,0,0.00083761,0.0001643,8.4701e+07,3.1995e+06,0,5.7506e+07,2.3608e+06,2091.4,1
5396,7.33,12260,1,12260,1,0.001212,3.5931e-06,0,0.0012474,-0.00022477,1.2595e+08,5.1525e+05,0,1.4053e+08,-6.2627e+05,12259,15904,1,15904,1,0.0026918,0.00013792,0,0.0026918,5.8908e-05,2.1007e+08,2.6043e+07,0,2.1007e+08,59440,15903,12262,1,12262,1,0.0011916,-1.3658e-10,0,0.0011916,-0.00021916,1.596e+08,-13.93,0,1.596e+08,1.0674,12261,8553,1,8553,1,-0.0003041,-7.5528e-05,0,3.0589e-06,-0.00049912,-1.2354e+08,-1.4244e+07,0,4.3094e+05,-2.4272e+07,8552,10465,1,10465,1,0.00044377,-1.3428e-09,0,0.00044377,-0.00035853,9.0889e+07,-191.38,0,1.1191e+08,-28.473,10464,14059,1,14059,1,0.0019394,1.6465e-09,0,0.0019394,-8.0239e-05,1.8513e+08,211.22,0,1.8513e+08,188.69,14058,2091.4,0,2091.4,0,0.00088892,2.0903e-05,0,0.00083881,0.00016453,8.479e+07,3.2035e+06,0,5.7565e+07,2.3636e+06,2091.4,1
5396,7.34,12260,1,12260,1,0.0012138,3.5956e-06,0,0.0012492,-0.0002251,1.2612e+08,5.1578e+05,0,1.4071e+08,-6.2663e+05,12259,15904,1,15904,1,0.0026958,0.00013807,0,0.0026958,5.8977e-05,2.1017e+08,2.6083e+07,0,2.1017e+08,60084,15903,12262,1,12262,1,0.0011933,-1.2662e-10,0,0.0011933,-0.00021948,1.5983e+08,-9.6061,0,1.5983e+08,-19.467,12261,8553,1,8553,1,-0.00030445,-7.5604e-05,0,3.0369e-06,-0.00049985,-1.2369e+08,-1.4271e+07,0,4.4914e+05,-2.4302e+07,8552,10465,1,10465,1,0.00044448,-2.9716e-09,0,0.00044448,-0.00035905,9.1033e+07,-425.86,0,1.1208e+08,-64.423,10464,14059,1,14059,1,0.0019423,2.8045e-09,0,0.0019423,-8.0368e-05,1.854e+08,407.23,0,1.854e+08,200.93,14058,2091.4,0,2091.4,0,0.00089017,2.0919e-05,0,0.00084002,0.00016476,8.4881e+07,3.2076e+06,0,5.7624e+07,2.3664e+06,2091.4,1
5396,7.35,12260,1,12260,1,0.0012155,3.5984e-06,0,0.001251,-0.00022543,1.2628e+08,5.1635e+05,0,1.4089e+08,-6.2699e+05,12259,15904,1,15904,1,0.0026997,0.00013822,0,0.0026997,5.9045e-05,2.1028e+08,2.6122e+07,0,2.1028e+08,60584,15903,12262,1,12262,1,0.0011951,2.0693e-10,0,0.0011951,-0.00021981,1.6007e+08,19.254,0,1.6007e+08,-4.753,12261,8553,1,8553,1,-0.0003048,-7.5687e-05,0,3.0152e-06,-0.00050058,-1.2383e+08,-1.4299e+07,0,4.6783e+05,-2.4332e+07,8552,10465,1,10465,1,0.00044519,-1.2894e-09,0,0.00044519,-0.00035957,9.1178e+07,-189.99,0,1.1225e+08,-37.342,10464,14059,1,14059,1,0.0019451,1.4203e-09,0,0.0019451,-8.0496e-05,1.8567e+08,214.29,0,1.8567e+08,192.51,14058,2091.4,0,2091.4,0,0.00089142,2.0936e-05,0,0.00084122,0.00016499,8.4971e+07,3.2118e+06,0,5.7684e+07,2.3691e+06,2091.4,1
5396,7.36,12260,1,12260,1,0.0012173,3.6012e-06,0,0.0012528,-0.00022575,1.2645e+08,5.1691e+05,0,1.4107e+08,-6.2731e+05,12259,15904,1,15904,1,0.0027036,0.00013837,0,0.0027036,5.9112e-05,2.1039e+08,2.6161e+07,0,2.1039e+08,61240,15903,12262,1,12262,1,0.0011969,9.4552e-11,0,0.0011969,-0.00022013,1.6031e+08,8.6411,0,1.6031e+08,-25.038,12261,8553,1,8553,1,-0.00030514,-7.5762e-05,0,2.9944e-06,-0.00050131,-1.2397e+08,-1.4326e+07,0,4.8667e+05,-2.4361e+07,8552,10465,1,10465,1,0.0004459,-4.3727e-09,0,0.0004459,-0.00036009,9.1324e+07,-606.61,0,1.1243e+08,-85.605,10464,14059,1,14059,1,0.0019479,4.7301e-09,0,0.0019479,-8.0626e-05,1.8594e+08,659.15,0,1.8594e+08,192.17,14058,2091.4,0,2091.4,0,0.00089267,2.0952e-05,0,0.00084243,0.00016522,8.5061e+07,3.2158e+06,0,5.7743e+07,2.3717e+06,2091.4,1
5396,7.37,12260,1,12260,1,0.0012191,3.6035e-06,0,0.0012546,-0.00022608,1.2661e+08,5.1743e+05,0,1.4124e+08,-6.2765e+05,12259,15904,1,15904,1,0.0027076,0.00013851,0,0.0027076,5.918e-05,2.105e+08,2.6201e+07,0,2.105e+08,61662,15903,12262,1,12262,1,0.0011986,2.444e-10,0,0.0011986,-0.00022046,1.6054e+08,22.276,0,1.6054e+08,-0.68094,12261,8553,1,8553,1,-0.00030549,-7.5845e-05,0,2.9798e-06,-0.00050204,-1.2411e+08,-1.4354e+07,0,5.0598e+05,-2.4391e+07,8552,10465,1,10465,1,0.0004466,-9.6586e-10,0,0.0004466,-0.00036061,9.1468e+07,-158.55,0,1.126e+08,-20.829,10464,14059,1,14059,1,0.0019507,1.3087e-09,0,0.0019507,-8.0753e-05,1.862e+08,227.12,0,1.862e+08,198.71,14058,2091.4,0,2091.4,0,0.00089392,2.0968e-05,0,0.00084363,0.00016545,8.5151e+07,3.22e+06,0,5.7802e+07,2.3743e+06,2091.4,1
5396,7.38,12260,1,12260,1,0.0012209,3.6058e-06,0,0.0012564,-0.00022641,1.2678e+08,5.1795e+05,0,1.4142e+08,-6.28e+05,12259,15904,1,15904,1,0.0027117,0.00013867,0,0.0027117,5.9246e-05,2.106e+08,2.6242e+07,0,2.106e+08,63356,15903,12262,1,12262,1,0.0012004,2.3688e-10,0,0.0012004,-0.00022078,1.6078e+08,26.374,0,1.6078e+08,-7.0425,12261,8553,1,8553,1,-0.00030583,-7.593e-05,0,2.9543e-06,-0.0005028,-1.2425e+08,-1.4383e+07,0,5.2752e+05,-2.4421e+07,8552,10465,1,10465,1,0.00044731,-1.3229e-09,0,0.00044731,-0.00036114,9.1613e+07,-177.34,0,1.1278e+08,-41.683,10464,14059,1,14059,1,0.0019535,2.1705e-09,0,0.0019535,-8.0882e-05,1.8647e+08,316.73,0,1.8647e+08,97.911,14058,2091.4,0,2091.4,0,0.00089518,2.0985e-05,0,0.00084485,0.00016569,8.5241e+07,3.2243e+06,0,5.7861e+07,2.3772e+06,2091.4,1
5396,7.39,12260,1,12260,1,0.0012227,3.6077e-06,0,0.0012583,-0.00022675,1.2694e+08,5.1843e+05,0,1.4159e+08,-6.2817e+05,12259,15904,1,15904,1,0.0027159,0.00013879,0,0.0027159,5.9306e-05,2.1066e+08,2.628e+07,0,2.1066e+08,66667,15903,12262,1,12262,1,0.0012023,1.4783e-10,0,0.0012023,-0.00022112,1.6103e+08,12.695,0,1.6103e+08,-27.728,12261,8553,1,8553,1,-0.00030613,-7.5981e-05,0,2.9209e-06,-0.00050356,-1.2437e+08,-1.4411e+07,0,5.529e+05,-2.445e+07,8552,10465,1,10465,1,0.00044808,-4.4385e-09,0,0.00044808,-0.00036169,9.1772e+07,-631.2,0,1.1296e+08,-94.182,10464,14059,1,14059,1,0.0019565,5.1129e-09,0,0.0019565,-8.1023e-05,1.8675e+08,705.86,0,1.8675e+08,26.621,14058,2091.4,0,2091.4,0,0.00089645,2.0994e-05,0,0.00084609,0.00016592,8.5316e+07,3.2279e+06,0,5.791e+07,2.3802e+06,2091.4,1
5396,7.4,12260,1,12260,1,0.0012246,3.6093e-06,0,0.0012601,-0.00022709,1.271e+08,5.1886e+05,0,1.4176e+08,-6.2834e+05,12259,15904,1,15904,1,0.0027201,0.00013892,0,0.0027201,5.9366e-05,2.1073e+08,2.6318e+07,0,2.1073e+08,69504,15903,12262,1,12262,1,0.0012041,9.6786e-10,0,0.0012041,-0.00022147,1.6128e+08,79.925,0,1.6128e+08,-18.781,12261,8553,1,8553,1,-0.00030643,-7.6036e-05,0,2.8845e-06,-0.00050435,-1.2449e+08,-1.444e+07,0,5.7936e+05,-2.4479e+07,8552,10465,1,10465,1,0.00044887,-3.8801e-09,0,0.00044887,-0.00036223,9.1932e+07,-526.69,0,1.1315e+08,-96.867,10464,14059,1,14059,1,0.0019594,4.8973e-09,0,0.0019594,-8.1167e-05,1.8704e+08,725.76,0,1.8704e+08,31.714,14058,2091.4,0,2091.4,0,0.00089772,2.1004e-05,0,0.00084733,0.00016616,8.5389e+07,3.2315e+06,0,5.7957e+07,2.3834e+06,2091.4,1
5396,7.41,12260,1,12260,1,0.0012265,3.6115e-06,0,0.001262,-0.00022744,1.2726e+08,5.1938e+05,0,1.4193e+08,-6.2852e+05,12259,15904,1,15904,1,0.0027244,0.00013905,0,0.0027244,5.9426e-05,2.1079e+08,2.6357e+07,0,2.1079e+08,71963,15903,12262,1,12262,1,0.001206,-2.5159e-10,0,0.001206,-0.00022181,1.6153e+08,-23.991,0,1.6153e+08,-22.12,12261,8553,1,8553,1,-0.00030673,-7.609e-05,0,2.8505e-06,-0.00050514,-1.2461e+08,-1.4469e+07,0,6.0703e+05,-2.4509e+07,8552,10465,1,10465,1,0.00044966,-3.7241e-09,0,0.00044966,-0.00036278,9.2094e+07,-571.1,0,1.1334e+08,-100.33,10464,14059,1,14059,1,0.0019624,4.5859e-09,0,0.0019624,-8.131e-05,1.8732e+08,694.25,0,1.8732e+08,45.366,14058,2091.4,0,2091.4,0,0.000899,2.1015e-05,0,0.00084858,0.00016639,8.5462e+07,3.2353e+06,0,5.8004e+07,2.3866e+06,2091.4,1
5396,7.42,12260,1,12260,1,0.0012283,3.6128e-06,0,0.0012639,-0.00022778,1.2742e+08,5.1979e+05,0,1.421e+08,-6.2867e+05,12259,15904,1,15904,1,0.0027287,0.00013918,0,0.0027287,5.9485e-05,2.1085e+08,2.6397e+07,0,2.1085e+08,74019,15903,12262,1,12262,1,0.0012079,2.9012e-10,0,0.0012079,-0.00022216,1.6178e+08,45.746,0,1.6178e+08,1.9292,12261,8553,1,8553,1,-0.00030703,-7.6146e-05,0,2.8206e-06,-0.00050593,-1.2473e+08,-1.45e+07,0,6.3594e+05,-2.4538e+07,8552,10465,1,10465,1,0.00045045,-1.5918e-09,0,0.00045045,-0.00036333,9.2255e+07,-171.93,0,1.1353e+08,-128.47,10464,14059,1,14059,1,0.0019653,2.0299e-09,0,0.0019653,-8.1453e-05,1.876e+08,162.38,0,1.876e+08,54.913,14058,2091.4,0,2091.4,0,0.00090028,2.1025e-05,0,0.00084983,0.00016663,8.5534e+07,3.2392e+06,0,5.8051e+07,2.3897e+06,2091.4,1
5396,7.43,12260,1,12260,1,0.0012302,3.6144e-06,0,0.0012658,-0.00022812,1.2758e+08,5.2025e+05,0,1.4227e+08,-6.2876e+05,12259,15904,1,15904,1,0.0027329,0.0001393,0,0.0027329,5.9543e-05,2.1091e+08,2.6436e+07,0,2.1091e+08,76074,15903,12262,1,12262,1,0.0012097,8.5746e-11,0,0.0012097,-0.0002225,1.6203e+08,9.1748,0,1.6203e+08,-2.7699,12261,8553,1,8553,1,-0.00030732,-7.6193e-05,0,2.7991e-06,-0.00050671,-1.2485e+08,-1.453e+07,0,6.6577e+05,-2.4568e+07,8552,10465,1,10465,1,0.00045123,-6.3838e-10,0,0.00045123,-0.00036388,9.2416e+07,-101.01,0,1.1372e+08,-102.62,10464,14059,1,14059,1,0.0019683,1.3533e-09,0,0.0019683,-8.1596e-05,1.8788e+08,160.07,0,1.8788e+08,8.0108,14058,2091.4,0,2091.4,0,0.00090155,2.1033e-05,0,0.00085108,0.00016686,8.5606e+07,3.2428e+06,0,5.8098e+07,2.3927e+06,2091.4,1
5396,7.44,12260,1,12260,1,0.001232,3.616e-06,0,0.0012677,-0.00022847,1.2774e+08,5.2072e+05,0,1.4243e+08,-6.2886e+05,12259,15904,1,15904,1,0.0027372,0.00013943,0,0.0027372,5.9602e-05,2.1096e+08,2.6476e+07,0,2.1096e+08,77947,15903,12262,1,12262,1,0.0012116,1.3428e-10,0,0.0012116,-0.00022285,1.6228e+08,12.185,0,1.6228e+08,-18.188,12261,8553,1,8553,1,-0.00030762,-7.6247e-05,0,2.7394e-06,-0.0005075,-1.2497e+08,-1.4562e+07,0,6.9642e+05,-2.4597e+07,8552,10465,1,10465,1,0.00045202,-1.907e-09,0,0.00045202,-0.00036442,9.2578e+07,-279.38,0,1.1391e+08,-106.44,10464,14059,1,14059,1,0.0019712,3.1722e-09,0,0.0019712,-8.174e-05,1.8816e+08,437.52,0,1.8816e+08,9.8666,14058,2091.4,0,2091.4,0,0.00090283,2.1042e-05,0,0.00085234,0.0001671,8.5679e+07,3.2466e+06,0,5.8145e+07,2.3957e+06,2091.4,1
5396,7.45,12260,1,12260,1,0.0012339,3.6172e-06,0,0.0012696,-0.00022881,1.279e+08,5.2113e+05,0,1.426e+08,-6.2893e+05,12259,15904,1,15904,1,0.0027414,0.00013955,0,0.0027414,5.966e-05,2.1101e+08,2.6516e+07,0,2.1101e+08,79863,15903,12262,1,12262,1,0.0012135,2.4938e-11,0,0.0012135,-0.00022319,1.6253e+08,2.0413,0,1.6253e+08,-18.642,12261,8553,1,8553,1,-0.00030791,-7.6296e-05,0,2.6684e-06,-0.00050828,-1.2509e+08,-1.4593e+07,0,7.2748e+05,-2.4626e+07,8552,10465,1,10465,1,0.00045281,-2.8028e-09,0,0.00045281,-0.00036496,9.2739e+07,-422.72,0,1.141e+08,-107.27,10464,14059,1,14059,1,0.0019742,3.5997e-09,0,0.0019742,-8.1884e-05,1.8845e+08,529.86,0,1.8845e+08,10.198,14058,2091.4,0,2091.4,0,0.00090411,2.105e-05,0,0.00085359,0.00016734,8.5751e+07,3.2503e+06,0,5.8192e+07,2.3985e+06,2091.4,1
5396,7.46,12260,1,12260,1,0.0012358,3.6185e-06,0,0.0012714,-0.00022915,1.2806e+08,5.2157e+05,0,1.4277e+08,-6.2898e+05,12259,15904,1,15904,1,0.0027456,0.00013967,0,0.0027456,5.9718e-05,2.1106e+08,2.6556e+07,0,2.1106e+08,81290,15903,12262,1,12262,1,0.0012153,3.8675e-10,0,0.0012153,-0.00022353,1.6278e+08,42.462,0,1.6278e+08,0.40568,12261,8553,1,8553,1,-0.00030821,-7.6348e-05,0,2.6002e-06,-0.00050906,-1.2521e+08,-1.4625e+07,0,7.5969e+05,-2.4655e+07,8552,10465,1,10465,1,0.0004536,-1.0225e-09,0,0.0004536,-0.00036551,9.29e+07,-159.27,0,1.1429e+08,-118.03,10464,14059,1,14059,1,0.0019772,1.4831e-09,0,0.0019772,-8.2027e-05,1.8873e+08,221.92,0,1.8873e+08,21.649,14058,2091.4,0,2091.4,0,0.00090538,2.1059e-05,0,0.00085484,0.00016757,8.5822e+07,3.2541e+06,0,5.8239e+07,2.4013e+06,2091.4,1
5396,7.47,12260,1,12260,1,0.0012377,3.6196e-06,0,0.0012733,-0.0002295,1.2822e+08,5.2198e+05,0,1.4294e+08,-6.2904e+05,12259,15904,1,15904,1,0.0027499,0.0001398,0,0.0027499,5.9777e-05,2.1111e+08,2.6598e+07,0,2.1111e+08,82949,15903,12262,1,12262,1,0.0012172,-1.7832e-10,0,0.0012172,-0.00022388,1.6303e+08,-14.356,0,1.6303e+08,-28.031,12261,8553,1,8553,1,-0.0003085,-7.6402e-05,0,2.5355e-06,-0.00050984,-1.2533e+08,-1.4658e+07,0,7.9065e+05,-2.4684e+07,8552,10465,1,10465,1,0.00045439,-4.7655e-09,0,0.00045439,-0.00036606,9.3063e+07,-701.09,0,1.1448e+08,-112.4,10464,14059,1,14059,1,0.0019801,4.9892e-09,0,0.0019801,-8.2172e-05,1.8901e+08,686.62,0,1.8901e+08,16.586,14058,2091.4,0,2091.4,0,0.00090667,2.1068e-05,0,0.0008561,0.00016781,8.5895e+07,3.2581e+06,0,5.8286e+07,2.404e+06,2091.4,1
5396,7.48,12260,1,12260,1,0.0012395,3.621e-06,0,0.0012752,-0.00022984,1.2838e+08,5.2244e+05,0,1.4311e+08,-6.2904e+05,12259,15904,1,15904,1,0.0027541,0.00013992,0,0.0027541,5.9834e-05,2.1116e+08,2.6639e+07,0,2.1116e+08,84358,15903,12262,1,12262,1,0.0012191,6.5344e-10,0,0.0012191,-0.00022423,1.6328e+08,59.813,0,1.6328e+08,-6.5728,12261,8553,1,8553,1,-0.00030879,-7.6456e-05,0,2.4747e-06,-0.00051062,-1.2545e+08,-1.4691e+07,0,7.5917e+05,-2.4711e+07,8552,10465,1,10465,1,0.00045518,-2.0791e-09,0,0.00045518,-0.0003666,9.3224e+07,-339.64,0,1.1467e+08,-115.97,10464,14059,1,14059,1,0.0019831,2.9311e-09,0,0.0019831,-8.2316e-05,1.8929e+08,455.91,0,1.8929e+08,24.455,14058,2091.4,0,2091.4,0,0.00090795,2.1076e-05,0,0.00085735,0.00016805,8.5966e+07,3.2619e+06,0,5.8332e+07,2.4065e+06,2091.4,1
5396,7.49,12260,1,12260,1,0.0012414,3.622e-06,0,0.0012771,-0.00023019,1.2854e+08,5.2285e+05,0,1.4327e+08,-6.2906e+05,12259,15904,1,15904,1,0.0027583,0.00014004,0,0.0027583,5.9892e-05,2.112e+08,2.668e+07,0,2.112e+08,85620,15903,12262,1,12262,1,0.001221,3.5329e-10,0,0.001221,-0.00022457,1.6353e+08,28.305,0,1.6353e+08,-24.964,12261,8553,1,8553,1,-0.00030908,-7.6508e-05,0,2.4187e-06,-0.0005114,-1.2557e+08,-1.4724e+07,0,7.278e+05,-2.474e+07,8552,10465,1,10465,1,0.00045597,-3.9826e-09,0,0.00045597,-0.00036715,9.3386e+07,-576.11,0,1.1486e+08,-111.9,10464,14059,1,14059,1,0.001986,4.8643e-09,0,0.001986,-8.246e-05,1.8958e+08,692.13,0,1.8958e+08,10.072,14058,2091.4,0,2091.4,0,0.00090923,2.1084e-05,0,0.00085861,0.00016828,8.6038e+07,3.2658e+06,0,5.8379e+07,2.4091e+06,2091.4,1
5396,7.5,12260,1,12260,1,0.0012433,3.6228e-06,0,0.001279,-0.00023053,1.287e+08,5.2325e+05,0,1.4344e+08,-6.2902e+05,12259,15904,1,15904,1,0.0027626,0.00014015,0,0.0027626,5.9949e-05,2.1124e+08,2.6721e+07,0,2.1124e+08,86842,15903,12262,1,12262,1,0.0012228,4.804e-11,0,0.0012228,-0.00022491,1.6378e+08,5.4216,0,1.6378e+08,-0.019196,12261,8553,1,8553,1,-0.00030938,-7.6568e-05,0,2.3688e-06,-0.00051218,-1.2569e+08,-1.4756e+07,0,6.9647e+05,-2.4766e+07,8552,10465,1,10465,1,0.00045676,-1.376e-09,0,0.00045676,-0.00036769,9.3547e+07,-222.07,0,1.1504e+08,-116.78,10464,14059,1,14059,1,0.001989,1.9199e-09,0,0.001989,-8.2603e-05,1.8986e+08,296.78,0,1.8986e+08,26.673,14058,2091.4,0,2091.4,0,0.0009105,2.1091e-05,0,0.00085986,0.00016852,8.6108e+07,3.2695e+06,0,5.8425e+07,2.4114e+06,2091.4,1
5396,7.51,12260,1,12260,1,0.0012452,3.6237e-06,0,0.0012809,-0.00023088,1.2886e+08,5.2367e+05,0,1.4361e+08,-6.29e+05,12259,15904,1,15904,1,0.0027668,0.00014027,0,0.0027668,6.0007e-05,2.1128e+08,2.6763e+07,0,2.1128e+08,88016,15903,12262,1,12262,1,0.0012247,9.9193e-11,0,0.0012247,-0.00022526,1.6403e+08,9.3925,0,1.6403e+08,-3.9831,12261,8553,1,8553,1,-0.00030967,-7.6649e-05,0,2.323e-06,-0.00051296,-1.258e+08,-1.479e+07,0,6.6488e+05,-2.4793e+07,8552,10465,1,10465,1,0.00045754,-1.1253e-09,0,0.00045754,-0.00036824,9.3708e+07,-191.89,0,1.1523e+08,-123.39,10464,14059,1,14059,1,0.0019919,1.8431e-09,0,0.0019919,-8.2746e-05,1.9014e+08,267.03,0,1.9014e+08,12.246,14058,2091.4,0,2091.4,0,0.00091179,2.1099e-05,0,0.00086111,0.00016876,8.618e+07,3.2734e+06,0,5.8472e+07,2.4137e+06,2091.4,1
5396,7.52,12260,1,12260,1,0.001247,3.6246e-06,0,0.0012828,-0.00023122,1.2902e+08,5.2409e+05,0,1.4377e+08,-6.2896e+05,12259,15904,1,15904,1,0.002771,0.00014039,0,0.002771,6.0065e-05,2.1132e+08,2.6805e+07,0,2.1132e+08,89092,15903,12262,1,12262,1,0.0012266,-1.3518e-10,0,0.0012266,-0.00022561,1.6429e+08,-11.008,0,1.6429e+08,-27.025,12261,8553,1,8553,1,-0.00030996,-7.6731e-05,0,2.2821e-06,-0.00051373,-1.2592e+08,-1.4824e+07,0,6.3332e+05,-2.482e+07,8552,10465,1,10465,1,0.00045834,-3.6784e-09,0,0.00045834,-0.00036878,9.3871e+07,-556.94,0,1.1542e+08,-133.56,10464,14059,1,14059,1,0.0019949,5.0416e-09,0,0.0019949,-8.2891e-05,1.9042e+08,691.21,0,1.9042e+08,14.797,14058,2091.4,0,2091.4,0,0.00091307,2.1107e-05,0,0.00086237,0.00016899,8.6251e+07,3.2773e+06,0,5.8519e+07,2.4159e+06,2091.4,1
5396,7.53,12260,1,12260,1,0.0012489,3.6254e-06,0,0.0012847,-0.00023157,1.2918e+08,5.2449e+05,0,1.4394e+08,-6.2889e+05,12259,15904,1,15904,1,0.0027752,0.0001405,0,0.0027752,6.012e-05,2.1136e+08,2.6848e+07,0,2.1136e+08,90777,15903,12262,1,12262,1,0.0012284,5.303e-10,0,0.0012284,-0.00022595,1.6454e+08,42.159,0,1.6454e+08,-14.471,12261,8553,1,8553,1,-0.00031025,-7.6812e-05,0,2.2462e-06,-0.00051452,-1.2604e+08,-1.4858e+07,0,6.0106e+05,-2.4847e+07,8552,10465,1,10465,1,0.00045913,-2.4007e-09,0,0.00045913,-0.00036933,9.4032e+07,-380.13,0,1.1561e+08,-130.78,10464,14059,1,14059,1,0.0019978,3.7303e-09,0,0.0019978,-8.3034e-05,1.907e+08,536.48,0,1.907e+08,13.916,14058,2091.4,0,2091.4,0,0.00091435,2.1114e-05,0,0.00086363,0.00016923,8.6322e+07,3.2812e+06,0,5.8565e+07,2.4183e+06,2091.4,1
5396,7.54,12260,1,12260,1,0.0012509,3.6261e-06,0,0.0012866,-0.00023192,1.2934e+08,5.2492e+05,0,1.441e+08,-6.2875e+05,12259,15904,1,15904,1,0.0027796,0.00014061,0,0.0027796,6.0171e-05,2.1138e+08,2.689e+07,0,2.1138e+08,95559,15903,12262,1,12262,1,0.0012304,2.0411e-09,0,0.0012304,-0.00022631,1.648e+08,249.96,0,1.648e+08,-31.746,12261,8553,1,8553,1,-0.00031051,-7.6888e-05,0,2.1777e-06,-0.00051533,-1.2615e+08,-1.4895e+07,0,5.616e+05,-2.4875e+07,8552,10465,1,10465,1,0.00045997,-4.0193e-09,0,0.00045997,-0.00036989,9.4205e+07,-645.86,0,1.1582e+08,-464.78,10464,14059,1,14059,1,0.0020009,5.4544e-09,0,0.0020009,-8.3189e-05,1.9097e+08,826.22,0,1.9097e+08,32.561,14058,2091.4,0,2091.4,0,0.00091566,2.1119e-05,0,0.00086492,0.00016947,8.6383e+07,3.285e+06,0,5.8605e+07,2.421e+06,2091.4,1
5396,7.55,12260,1,12260,1,0.0012528,3.6253e-06,0,0.0012886,-0.00023229,1.2949e+08,5.2512e+05,0,1.4426e+08,-6.2854e+05,12259,15904,1,15904,1,0.0027841,0.00014071,0,0.0027841,6.0217e-05,2.1138e+08,2.6931e+07,0,2.1138e+08,1.0123e+05,15903,12262,1,12262,1,0.0012324,1.0157e-09,0,0.0012324,-0.00022668,1.6507e+08,167.15,0,1.6507e+08,9.3111,12261,8553,1,8553,1,-0.00031074,-7.6947e-05,0,2.0475e-06,-0.00051616,-1.2624e+08,-1.4931e+07,0,5.1986e+05,-2.4901e+07,8552,10465,1,10465,1,0.00046085,-2.0786e-09,0,0.00046085,-0.00037047,9.4385e+07,-209.51,0,1.1603e+08,-654.12,10464,14059,1,14059,1,0.002004,3.875e-09,0,0.002004,-8.335e-05,1.9122e+08,509.68,0,1.9122e+08,66.389,14058,2091.4,0,2091.4,0,0.00091696,2.1121e-05,0,0.00086622,0.00016971,8.6433e+07,3.2885e+06,0,5.8637e+07,2.424e+06,2091.4,1
5396,7.56,12260,1,12260,1,0.0012548,3.6256e-06,0,0.0012906,-0.00023265,1.2964e+08,5.2548e+05,0,1.4441e+08,-6.283e+05,12259,15904,1,15904,1,0.0027886,0.00014081,0,0.0027886,6.0263e-05,2.1138e+08,2.6972e+07,0,2.1138e+08,1.0662e+05,15903,12262,1,12262,1,0.0012344,-3.7712e-10,0,0.0012344,-0.00022705,1.6533e+08,-28.789,0,1.6533e+08,-39.27,12261,8553,1,8553,1,-0.00031096,-7.699e-05,0,1.845e-06,-0.00051699,-1.2633e+08,-1.4964e+07,0,4.8023e+05,-2.4928e+07,8552,10465,1,10465,1,0.00046174,-4.8932e-09,0,0.00046174,-0.00037104,9.4568e+07,-712.33,0,1.1624e+08,-629.86,10464,14059,1,14059,1,0.0020071,5.8416e-09,0,0.0020071,-8.3513e-05,1.9147e+08,853.27,0,1.9147e+08,33.616,14058,2091.4,0,2091.4,0,0.00091827,2.112e-05,0,0.00086753,0.00016996,8.6482e+07,3.2917e+06,0,5.867e+07,2.427e+06,2091.4,1
5396,7.57,12260,1,12260,1,0.0012568,3.6256e-06,0,0.0012926,-0.00023302,1.298e+08,5.258e+05,0,1.4457e+08,-6.2806e+05,12259,15904,1,15904,1,0.0027931,0.00014092,0,0.0027931,6.0309e-05,2.1139e+08,2.7013e+07,0,2.1139e+08,1.1138e+05,15903,12262,1,12262,1,0.0012364,4.0909e-10,0,0.0012364,-0.00022742,1.6561e+08,32.418,0,1.6561e+08,-52.033,12261,8553,1,8553,1,-0.00031118,-7.7046e-05,0,1.6245e-06,-0.00051783,-1.2642e+08,-1.5001e+07,0,4.3928e+05,-2.4955e+07,8552,10465,1,10465,1,0.00046264,-7.6524e-09,0,0.00046264,-0.00037162,9.4752e+07,-1184.3,0,1.1645e+08,-720.43,10464,14059,1,14059,1,0.0020103,8.8878e-09,0,0.0020103,-8.3678e-05,1.9172e+08,1402.7,0,1.9172e+08,43.935,14058,2091.4,0,2091.4,0,0.00091959,2.1122e-05,0,0.00086885,0.0001702,8.6533e+07,3.2952e+06,0,5.8703e+07,2.43e+06,2091.4,1
5396,7.58,12260,1,12260,1,0.0012588,3.6256e-06,0,0.0012946,-0.00023338,1.2995e+08,5.2614e+05,0,1.4472e+08,-6.2778e+05,12259,15904,1,15904,1,0.0027977,0.00014103,0,0.0027977,6.0355e-05,2.114e+08,2.7053e+07,0,2.114e+08,1.1604e+05,15903,12262,1,12262,1,0.0012384,4.8671e-10,0,0.0012384,-0.00022779,1.6587e+08,54.992,0,1.6587e+08,10.694,12261,8553,1,8553,1,-0.00031141,-7.7097e-05,0,1.399e-06,-0.00051868,-1.2651e+08,-1.5037e+07,0,3.9999e+05,-2.4982e+07,8552,10465,1,10465,1,0.00046353,-2.3626e-09,0,0.00046353,-0.0003722,9.4934e+07,-315.68,0,1.1665e+08,-817.64,10464,14059,1,14059,1,0.0020134,5.1624e-09,0,0.0020134,-8.384e-05,1.9197e+08,729.71,0,1.9197e+08,72.35,14058,2091.4,0,2091.4,0,0.0009209,2.1122e-05,0,0.00087015,0.00017044,8.6581e+07,3.2985e+06,0,5.8734e+07,2.4329e+06,2091.4,1
5396,7.59,12260,1,12260,1,0.0012608,3.6253e-06,0,0.0012966,-0.00023375,1.301e+08,5.2645e+05,0,1.4487e+08,-6.275e+05,12259,15904,1,15904,1,0.0028023,0.00014114,0,0.0028023,6.04e-05,2.114e+08,2.7096e+07,0,2.114e+08,1.2041e+05,15903,12262,1,12262,1,0.0012405,-2.8094e-11,0,0.0012405,-0.00022816,1.6614e+08,-2.9008,0,1.6614e+08,-15.104,12261,8553,1,8553,1,-0.00031163,-7.7154e-05,0,1.1766e-06,-0.00051953,-1.266e+08,-1.5075e+07,0,3.6093e+05,-2.5009e+07,8552,10465,1,10465,1,0.00046443,-3.4746e-09,0,0.00046443,-0.00037278,9.5118e+07,-584.43,0,1.1687e+08,-847.1,10464,14059,1,14059,1,0.0020165,5.7225e-09,0,0.0020165,-8.4004e-05,1.9222e+08,925.94,0,1.9222e+08,26.808,14058,2091.4,0,2091.4,0,0.00092222,2.1123e-05,0,0.00087147,0.00017069,8.6631e+07,3.3021e+06,0,5.8767e+07,2.4358e+06,2091.4,1
5396,7.6,12260,1,12260,1,0.0012628,3.6245e-06,0,0.0012986,-0.00023411,1.3026e+08,5.267e+05,0,1.4503e+08,-6.2717e+05,12259,15904,1,15904,1,0.0028069,0.00014125,0,0.0028069,6.0445e-05,2.114e+08,2.7139e+07,0,2.114e+08,1.2452e+05,15903,12262,1,12262,1,0.0012425,4.0878e-11,0,0.0012425,-0.00022854,1.6642e+08,3.2369,0,1.6642e+08,-29.1,12261,8553,1,8553,1,-0.00031185,-7.7204e-05,0,9.5098e-07,-0.00052037,-1.2669e+08,-1.5112e+07,0,3.2531e+05,-2.5036e+07,8552,10465,1,10465,1,0.00046533,-6.0826e-09,0,0.00046533,-0.00037335,9.5301e+07,-964.58,0,1.1708e+08,-854.84,10464,14059,1,14059,1,0.0020197,6.6709e-09,0,0.0020197,-8.4168e-05,1.9247e+08,1087.1,0,1.9247e+08,46.065,14058,2091.4,0,2091.4,0,0.00092354,2.1123e-05,0,0.00087279,0.00017093,8.6679e+07,3.3056e+06,0,5.8799e+07,2.4385e+06,2091.4,1
5396,7.61,12260,1,12260,1,0.0012648,3.6242e-06,0,0.0013005,-0.00023447,1.3041e+08,5.27e+05,0,1.4518e+08,-6.2682e+05,12259,15904,1,15904,1,0.0028115,0.00014135,0,0.0028115,6.0489e-05,2.114e+08,2.7181e+07,0,2.114e+08,1.2819e+05,15903,12262,1,12262,1,0.0012445,2.3841e-10,0,0.0012445,-0.0002289,1.6668e+08,29.449,0,1.6668e+08,24.684,12261,8553,1,8553,1,-0.00031207,-7.7253e-05,0,7.2538e-07,-0.00052122,-1.2678e+08,-1.515e+07,0,2.9437e+05,-2.5062e+07,8552,10465,1,10465,1,0.00046622,-2.3448e-09,0,0.00046622,-0.00037393,9.5484e+07,-305.66,0,1.1729e+08,-922.7,10464,14059,1,14059,1,0.0020228,4.4956e-09,0,0.0020228,-8.433e-05,1.9271e+08,442.57,0,1.9271e+08,59.16,14058,2091.4,0,2091.4,0,0.00092484,2.1122e-05,0,0.00087409,0.00017117,8.6727e+07,3.3089e+06,0,5.8831e+07,2.4411e+06,2091.4,1
5396,7.62,12260,1,12260,1,0.0012668,3.6236e-06,0,0.0013025,-0.00023484,1.3056e+08,5.273e+05,0,1.4533e+08,-6.2647e+05,12259,15904,1,15904,1,0.0028161,0.00014146,0,0.0028161,6.0534e-05,2.1139e+08,2.7224e+07,0,2.1139e+08,1.3174e+05,15903,12262,1,12262,1,0.0012465,4.9079e-10,0,0.0012465,-0.00022928,1.6695e+08,37.872,0,1.6695e+08,-15.225,12261,8553,1,8553,1,-0.0003123,-7.7309e-05,0,5.0052e-07,-0.00052206,-1.2687e+08,-1.5189e+07,0,2.6889e+05,-2.5088e+07,8552,10465,1,10465,1,0.00046712,-3.3462e-09,0,0.00046712,-0.00037451,9.5668e+07,-600.72,0,1.175e+08,-976.17,10464,14059,1,14059,1,0.0020259,4.9897e-09,0,0.0020259,-8.4494e-05,1.9297e+08,800.86,0,1.9297e+08,21.031,14058,2091.4,0,2091.4,0,0.00092617,2.1123e-05,0,0.00087541,0.00017142,8.6776e+07,3.3126e+06,0,5.8864e+07,2.4436e+06,2091.4,1
5396,7.63,12260,1,12260,1,0.0012688,3.6228e-06,0,0.0013045,-0.00023521,1.3071e+08,5.2756e+05,0,1.4549e+08,-6.2607e+05,12259,15904,1,15904,1,0.0028207,0.00014156,0,0.0028207,6.0578e-05,2.1139e+08,2.7268e+07,0,2.1139e+08,1.3496e+05,15903,12262,1,12262,1,0.0012485,9.0709e-12,0,0.0012485,-0.00022964,1.6722e+08,1.018,0,1.6722e+08,9.8282,12261,8553,1,8553,1,-0.00031252,-7.736e-05,0,2.7365e-07,-0.0005229,-1.2696e+08,-1.5228e+07,0,2.5274e+05,-2.5113e+07,8552,10465,1,10465,1,0.00046801,-2.0112e-09,0,0.00046801,-0.00037509,9.5851e+07,-304.58,0,1.1771e+08,-995.69,10464,14059,1,14059,1,0.002029,3.4134e-09,0,0.002029,-8.4657e-05,1.9321e+08,426.05,0,1.9321e+08,35.832,14058,2091.4,0,2091.4,0,0.00092748,2.1122e-05,0,0.00087673,0.00017166,8.6824e+07,3.3161e+06,0,5.8896e+07,2.446e+06,2091.4,1
5396,7.64,12260,1,12260,1,0.0012708,3.6219e-06,0,0.0013065,-0.00023557,1.3087e+08,5.2781e+05,0,1.4564e+08,-6.2566e+05,12259,15904,1,15904,1,0.0028253,0.00014167,0,0.0028253,6.0622e-05,2.1138e+08,2.7312e+07,0,2.1138e+08,1.3848e+05,15903,12262,1,12262,1,0.0012505,9.4595e-11,0,0.0012505,-0.00023002,1.6749e+08,8.0743,0,1.6749e+08,-27.983,12261,8553,1,8553,1,-0.00031274,-7.7414e-05,0,4.7153e-08,-0.00052375,-1.2705e+08,-1.5267e+07,0,2.4693e+05,-2.5138e+07,8552,10465,1,10465,1,0.00046891,-5.4717e-09,0,0.00046891,-0.00037566,9.6035e+07,-919.8,0,1.1792e+08,-1009.4,10464,14059,1,14059,1,0.0020322,5.216e-09,0,0.0020322,-8.4822e-05,1.9347e+08,827.34,0,1.9347e+08,22.053,14058,2091.4,0,2091.4,0,0.0009288,2.1122e-05,0,0.00087805,0.00017191,8.6873e+07,3.3197e+06,0,5.8929e+07,2.4483e+06,2091.4,1
5396,7.65,12260,1,12260,1,0.0012728,3.621e-06,0,0.0013085,-0.00023594,1.3102e+08,5.2808e+05,0,1.4579e+08,-6.2522e+05,12259,15904,1,15904,1,0.0028299,0.00014177,0,0.0028299,6.0666e-05,2.1138e+08,2.7356e+07,0,2.1138e+08,1.4184e+05,15903,12262,1,12262,1,0.0012525,-3.0478e-10,0,0.0012525,-0.00023039,1.6776e+08,-33.916,0,1.6776e+08,14.472,12261,8553,1,8553,1,-0.00031295,-7.7467e-05,0,2.0325e-08,-0.00052459,-1.2714e+08,-1.5307e+07,0,2.5381e+05,-2.5163e+07,8552,10465,1,10465,1,0.0004698,-2.4181e-09,0,0.00046981,-0.00037624,9.6218e+07,-381.28,0,1.1813e+08,-1054.4,10464,14059,1,14059,1,0.0020353,3.9233e-09,0,0.0020353,-8.4985e-05,1.9371e+08,406.7,0,1.9371e+08,48.644,14058,2091.4,0,2091.4,0,0.00093012,2.1121e-05,0,0.00087935,0.00017215,8.692e+07,3.3232e+06,0,5.8961e+07,2.4505e+06,2091.4,1
5396,7.66,12260,1,12260,1,0.0012748,3.6204e-06,0,0.0013105,-0.00023631,1.3117e+08,5.284e+05,0,1.4594e+08,-6.2477e+05,12259,15904,1,15904,1,0.0028344,0.00014187,0,0.0028344,6.0709e-05,2.1136e+08,2.7399e+07,0,2.1136e+08,1.4527e+05,15903,12262,1,12262,1,0.0012545,6.2196e-10,0,0.0012545,-0.00023076,1.6803e+08,57.042,0,1.6803e+08,-25.515,12261,8553,1,8553,1,-0.00031317,-7.7522e-05,0,6.756e-08,-0.00052544,-1.2723e+08,-1.5347e+07,0,2.7184e+05,-2.5188e+07,8552,10465,1,10465,1,0.0004707,-4.351e-09,0,0.0004707,-0.00037682,9.6402e+07,-750.72,0,1.1834e+08,-1050.4,10464,14059,1,14059,1,0.0020384,7.2473e-09,0,0.0020384,-8.515e-05,1.9396e+08,1152.5,0,1.9396e+08,26.52,14058,2091.4,0,2091.4,0,0.00093144,2.112e-05,0,0.00088064,0.00017239,8.6969e+07,3.3267e+06,0,5.8993e+07,2.4527e+06,2091.4,1
5396,7.67,12260,1,12260,1,0.0012768,3.6187e-06,0,0.0013126,-0.00023667,1.3132e+08,5.2857e+05,0,1.461e+08,-6.2431e+05,12259,15904,1,15904,1,0.002839,0.00014198,0,0.002839,6.0753e-05,2.1135e+08,2.7445e+07,0,2.1135e+08,1.4832e+05,15903,12262,1,12262,1,0.0012566,-1.0845e-10,0,0.0012566,-0.00023113,1.683e+08,-9.4873,0,1.683e+08,-2.4288,12261,8553,1,8553,1,-0.00031339,-7.7575e-05,0,1.1446e-07,-0.00052628,-1.2732e+08,-1.5387e+07,0,2.9977e+05,-2.5211e+07,8552,10465,1,10465,1,0.0004716,-4.372e-09,0,0.0004716,-0.0003774,9.6586e+07,-765.66,0,1.1855e+08,-1071.5,10464,14059,1,14059,1,0.0020415,4.3846e-09,0,0.0020415,-8.5313e-05,1.9421e+08,785.78,0,1.9421e+08,41.127,14058,2091.4,0,2091.4,0,0.00093276,2.112e-05,0,0.00088194,0.00017264,8.7016e+07,3.3304e+06,0,5.9026e+07,2.4547e+06,2091.4,1
5396,7.68,12260,1,12260,1,0.0012788,3.6179e-06,0,0.0013146,-0.00023704,1.3148e+08,5.2887e+05,0,1.4625e+08,-6.2383e+05,12259,15904,1,15904,1,0.0028435,0.00014208,0,0.0028435,6.0796e-05,2.1134e+08,2.749e+07,0,2.1134e+08,1.5117e+05,15903,12262,1,12262,1,0.0012586,1.6698e-10,0,0.0012586,-0.0002315,1.6857e+08,18.371,0,1.6857e+08,11.625,12261,8553,1,8553,1,-0.00031361,-7.7633e-05,0,1.3645e-07,-0.00052712,-1.274e+08,-1.5428e+07,0,3.3557e+05,-2.5234e+07,8552,10465,1,10465,1,0.0004725,-2.0242e-09,0,0.0004725,-0.00037798,9.6769e+07,-341.42,0,1.1877e+08,-1103,10464,14059,1,14059,1,0.0020447,4.2287e-09,0,0.0020447,-8.5476e-05,1.9446e+08,531.76,0,1.9446e+08,44.872,14058,2091.4,0,2091.4,0,0.00093408,2.1119e-05,0,0.00088323,0.00017288,8.7064e+07,3.334e+06,0,5.9058e+07,2.4565e+06,2091.4,1
5396,7.69,12260,1,12260,1,0.0012808,3.6164e-06,0,0.0013166,-0.00023741,1.3163e+08,5.2909e+05,0,1.464e+08,-6.2332e+05,12259,15904,1,15904,1,0.0028482,0.00014218,0,0.0028482,6.0837e-05,2.1132e+08,2.7536e+07,0,2.1132e+08,1.5528e+05,15903,12262,1,12262,1,0.0012606,2.3456e-11,0,0.0012606,-0.00023187,1.6884e+08,1.7141,0,1.6884e+08,-15.484,12261,8553,1,8553,1,-0.00031382,-7.7683e-05,0,1.3595e-07,-0.00052797,-1.2749e+08,-1.5469e+07,0,3.7759e+05,-2.5258e+07,8552,10465,1,10465,1,0.00047339,-4.4762e-09,0,0.00047339,-0.00037855,9.6953e+07,-779.66,0,1.1898e+08,-1244.6,10464,14059,1,14059,1,0.0020478,4.9769e-09,0,0.0020478,-8.5641e-05,1.9471e+08,815.23,0,1.9471e+08,16.934,14058,2091.4,0,2091.4,0,0.0009354,2.1118e-05,0,0.00088453,0.00017313,8.7112e+07,3.3377e+06,0,5.909e+07,2.4585e+06,2091.4,1
5396,7.7,12260,1,12260,1,0.0012829,3.6151e-06,0,0.0013187,-0.00023778,1.3178e+08,5.2934e+05,0,1.4655e+08,-6.2277e+05,12259,15904,1,15904,1,0.002853,0.00014228,0,0.002853,6.0874e-05,2.1129e+08,2.7584e+07,0,2.1129e+08,1.6512e+05,15903,12262,1,12262,1,0.0012626,-1.0928e-09,0,0.0012626,-0.00023225,1.6911e+08,-89.58,0,1.6911e+08,-34.554,12261,8553,1,8553,1,-0.00031402,-7.773e-05,0,3.4695e-08,-0.00052887,-1.2757e+08,-1.5512e+07,0,4.283e+05,-2.5283e+07,8552,10465,1,10465,1,0.00047432,-6.6714e-09,0,0.00047432,-0.00037914,9.7142e+07,-1141.6,0,1.1921e+08,-1990.7,10464,14059,1,14059,1,0.002051,8.5072e-09,0,0.002051,-8.581e-05,1.9494e+08,1319,0,1.9494e+08,40.432,14058,2091.4,0,2091.4,0,0.00093674,2.1116e-05,0,0.00088585,0.00017337,8.7154e+07,3.3415e+06,0,5.9119e+07,2.461e+06,2091.4,1
5396,7.71,12260,1,12260,1,0.001285,3.6129e-06,0,0.0013208,-0.00023817,1.3192e+08,5.2948e+05,0,1.4669e+08,-6.2206e+05,12259,15904,1,15904,1,0.0028579,0.00014235,0,0.0028579,6.0902e-05,2.1125e+08,2.7626e+07,0,2.1125e+08,1.7557e+05,15903,12262,1,12262,1,0.0012648,1.0024e-09,0,0.0012648,-0.00023264,1.694e+08,97.373,0,1.694e+08,2.0352,12261,8553,1,8553,1,-0.00031416,-7.7756e-05,0,2.7332e-07,-0.00052976,-1.2763e+08,-1.5555e+07,0,4.8586e+05,-2.5306e+07,8552,10465,1,10465,1,0.00047531,-4.6836e-09,0,0.00047531,-0.00037975,9.7346e+07,-846.07,0,1.1944e+08,-2601.5,10464,14059,1,14059,1,0.0020542,7.133e-09,0,0.0020542,-8.5992e-05,1.9511e+08,1145.6,0,1.9511e+08,68.5,14058,2091.4,0,2091.4,0,0.00093808,2.1107e-05,0,0.00088718,0.00017362,8.7179e+07,3.3444e+06,0,5.9138e+07,2.4637e+06,2091.4,1
5396,7.72,12260,1,12260,1,0.0012871,3.611e-06,0,0.0013229,-0.00023856,1.3207e+08,5.2965e+05,0,1.4683e+08,-6.2138e+05,12259,15904,1,15904,1,0.0028627,0.00014242,0,0.0028627,6.0932e-05,2.1121e+08,2.7669e+07,0,2.1121e+08,1.864e+05,15903,12262,1,12262,1,0.0012669,-2.0602e-10,0,0.0012669,-0.00023305,1.6969e+08,-19.46,0,1.6969e+08,-9.0765,12261,8553,1,8553,1,-0.0003143,-7.7776e-05,0,5.5658e-07,-0.00053066,-1.2768e+08,-1.5597e+07,0,5.4551e+05,-2.5331e+07,8552,10465,1,10465,1,0.00047633,-5.2772e-09,0,0.00047633,-0.00038036,9.7554e+07,-978.97,0,1.1967e+08,-2981.1,10464,14059,1,14059,1,0.0020576,8.938e-09,0,0.0020576,-8.6179e-05,1.9527e+08,1429.4,0,1.9527e+08,89.502,14058,2091.4,0,2091.4,0,0.00093944,2.1101e-05,0,0.00088852,0.00017387,8.7202e+07,3.3475e+06,0,5.9156e+07,2.4667e+06,2091.4,1
5396,7.73,12260,1,12260,1,0.0012892,3.6089e-06,0,0.0013251,-0.00023895,1.3221e+08,5.298e+05,0,1.4696e+08,-6.2072e+05,12259,15904,1,15904,1,0.0028676,0.0001425,0,0.0028676,6.0961e-05,2.1117e+08,2.7712e+07,0,2.1117e+08,1.9786e+05,15903,12262,1,12262,1,0.0012691,6.9318e-10,0,0.0012691,-0.00023345,1.6999e+08,69.369,0,1.6999e+08,3.1585,12261,8553,1,8553,1,-0.00031443,-7.7799e-05,0,8.4575e-07,-0.00053157,-1.2774e+08,-1.5641e+07,0,6.0815e+05,-2.5355e+07,8552,10465,1,10465,1,0.00047736,-4.7778e-09,0,0.00047736,-0.00038098,9.7764e+07,-838.8,0,1.1991e+08,-3348,10464,14059,1,14059,1,0.0020609,8.9921e-09,0,0.0020609,-8.6367e-05,1.9544e+08,1357.4,0,1.9544e+08,100.23,14058,2091.4,0,2091.4,0,0.0009408,2.1095e-05,0,0.00088987,0.00017413,8.7225e+07,3.3507e+06,0,5.9173e+07,2.4697e+06,2091.4,1
5396,7.74,12260,1,12260,1,0.0012914,3.6068e-06,0,0.0013272,-0.00023934,1.3236e+08,5.2994e+05,0,1.471e+08,-6.2002e+05,12259,15904,1,15904,1,0.0028726,0.00014258,0,0.0028726,6.0989e-05,2.1114e+08,2.7756e+07,0,2.1114e+08,2.0903e+05,15903,12262,1,12262,1,0.0012713,-3.9854e-11,0,0.0012713,-0.00023386,1.7028e+08,-3.4734,0,1.7028e+08,-17.509,12261,8553,1,8553,1,-0.00031456,-7.7815e-05,0,1.1384e-06,-0.00053248,-1.2779e+08,-1.5684e+07,0,6.1009e+05,-2.538e+07,8552,10465,1,10465,1,0.00047839,-6.1213e-09,0,0.00047839,-0.0003816,9.7975e+07,-1113.9,0,1.2015e+08,-3475.7,10464,14059,1,14059,1,0.0020643,1.034e-08,0,0.0020643,-8.6556e-05,1.9561e+08,1641.8,0,1.9561e+08,150.51,14058,2091.4,0,2091.4,0,0.00094216,2.1089e-05,0,0.00089122,0.00017438,8.7247e+07,3.3538e+06,0,5.919e+07,2.4726e+06,2091.4,1
5396,7.75,12260,1,12260,1,0.0012935,3.6043e-06,0,0.0013294,-0.00023973,1.325e+08,5.3005e+05,0,1.4723e+08,-6.193e+05,12259,15904,1,15904,1,0.0028776,0.00014265,0,0.0028776,6.1017e-05,2.1111e+08,2.7799e+07,0,2.1111e+08,2.2007e+05,15903,12262,1,12262,1,0.0012735,4.2546e-10,0,0.0012735,-0.00023425,1.7057e+08,52.679,0,1.7057e+08,40.511,12261,8553,1,8553,1,-0.0003147,-7.7832e-05,0,1.4331e-06,-0.00053341,-1.2784e+08,-1.5727e+07,0,5.4168e+05,-2.5403e+07,8552,10465,1,10465,1,0.00047941,-4.4769e-09,0,0.00047941,-0.00038222,9.8184e+07,-573.98,0,1.2039e+08,-3644.5,10464,14059,1,14059,1,0.0020676,1.0608e-08,0,0.0020676,-8.6742e-05,1.9577e+08,1030.4,0,1.9577e+08,158.81,14058,2091.4,0,2091.4,0,0.00094351,2.1082e-05,0,0.00089257,0.00017463,8.7269e+07,3.3569e+06,0,5.9207e+07,2.4755e+06,2091.4,1
5396,7.76,12260,1,12260,1,0.0012957,3.6022e-06,0,0.0013315,-0.00024012,1.3265e+08,5.302e+05,0,1.4737e+08,-6.1855e+05,12259,15904,1,15904,1,0.0028826,0.00014272,0,0.0028826,6.1045e-05,2.1107e+08,2.7843e+07,0,2.1107e+08,2.3214e+05,15903,12262,1,12262,1,0.0012757,8.4345e-11,0,0.0012757,-0.00023466,1.7086e+08,8.0768,0,1.7086e+08,-12.218,12261,8553,1,8553,1,-0.00031483,-7.7847e-05,0,1.7312e-06,-0.00053432,-1.279e+08,-1.5772e+07,0,4.7353e+05,-2.5427e+07,8552,10465,1,10465,1,0.00048044,-4.5941e-09,0,0.00048044,-0.00038284,9.8395e+07,-830.87,0,1.2062e+08,-3760.6,10464,14059,1,14059,1,0.002071,1.0091e-08,0,0.002071,-8.6931e-05,1.9593e+08,1448.6,0,1.9593e+08,146.13,14058,2091.4,0,2091.4,0,0.00094488,2.1076e-05,0,0.00089392,0.00017488,8.7291e+07,3.3601e+06,0,5.9225e+07,2.4783e+06,2091.4,1
5396,7.77,12260,1,12260,1,0.0012978,3.5995e-06,0,0.0013337,-0.00024052,1.3279e+08,5.3029e+05,0,1.475e+08,-6.1779e+05,12259,15904,1,15904,1,0.0028876,0.00014279,0,0.0028876,6.1072e-05,2.1103e+08,2.7887e+07,0,2.1103e+08,2.4366e+05,15903,12262,1,12262,1,0.0012779,3.0798e-10,0,0.0012779,-0.00023506,1.7116e+08,32.788,0,1.7116e+08,20.773,12261,8553,1,8553,1,-0.00031496,-7.7863e-05,0,2.0298e-06,-0.00053525,-1.2795e+08,-1.5816e+07,0,4.0808e+05,-2.5451e+07,8552,10465,1,10465,1,0.00048146,-4.0847e-09,0,0.00048146,-0.00038346,9.8605e+07,-616.95,0,1.2086e+08,-3966.3,10464,14059,1,14059,1,0.0020743,1.0254e-08,0,0.0020743,-8.7119e-05,1.961e+08,1090.1,0,1.961e+08,181.2,14058,2091.4,0,2091.4,0,0.00094624,2.1069e-05,0,0.00089527,0.00017513,8.7313e+07,3.3634e+06,0,5.9243e+07,2.481e+06,2091.4,1
5396,7.78,12260,1,12260,1,0.0013,3.5971e-06,0,0.0013358,-0.00024091,1.3293e+08,5.3042e+05,0,1.4764e+08,-6.17e+05,12259,15904,1,15904,1,0.0028926,0.00014286,0,0.0028926,6.11e-05,2.1099e+08,2.7932e+07,0,2.1099e+08,2.5539e+05,15903,12262,1,12262,1,0.0012801,8.7189e-10,0,0.0012801,-0.00023547,1.7145e+08,91.46,0,1.7145e+08,0.31835,12261,8553,1,8553,1,-0.00031509,-7.788e-05,0,2.3288e-06,-0.00053617,-1.2801e+08,-1.5862e+07,0,3.4617e+05,-2.5475e+07,8552,10465,1,10465,1,0.00048249,-4.2091e-09,0,0.00048249,-0.00038407,9.8816e+07,-665.46,0,1.211e+08,-4125.4,10464,14059,1,14059,1,0.0020777,1.0162e-08,0,0.0020777,-8.7307e-05,1.9626e+08,1320.6,0,1.9626e+08,164.95,14058,2091.4,0,2091.4,0,0.0009476,2.1063e-05,0,0.00089663,0.00017539,8.7334e+07,3.3666e+06,0,5.9261e+07,2.4837e+06,2091.4,1
5396,7.79,12260,1,12260,1,0.0013021,3.5944e-06,0,0.001338,-0.0002413,1.3308e+08,5.3054e+05,0,1.4778e+08,-6.1618e+05,12259,15904,1,15904,1,0.0028976,0.00014293,0,0.0028976,6.1127e-05,2.1096e+08,2.7977e+07,0,2.1096e+08,2.6667e+05,15903,12262,1,12262,1,0.0012823,8.954e-10,0,0.0012823,-0.00023587,1.7175e+08,81.996,0,1.7175e+08,-12.568,12261,8553,1,8553,1,-0.00031522,-7.7903e-05,0,2.6266e-06,-0.0005371,-1.2806e+08,-1.591e+07,0,2.9105e+05,-2.5498e+07,8552,10465,1,10465,1,0.00048353,-3.8307e-09,0,0.00048353,-0.00038469,9.9028e+07,-633.1,0,1.2134e+08,-4199.3,10464,14059,1,14059,1,0.002081,1.2097e-08,0,0.002081,-8.7497e-05,1.9643e+08,1741.1,0,1.9643e+08,183.98,14058,2091.4,0,2091.4,0,0.00094897,2.1056e-05,0,0.00089798,0.00017564,8.7356e+07,3.3699e+06,0,5.9279e+07,2.4862e+06,2091.4,1
5396,7.8,12260,1,12260,1,0.0013043,3.5913e-06,0,0.0013401,-0.0002417,1.3322e+08,5.306e+05,0,1.4791e+08,-6.1534e+05,12259,15904,1,15904,1,0.0029026,0.00014299,0,0.0029026,6.1152e-05,2.1092e+08,2.8024e+07,0,2.1092e+08,2.7792e+05,15903,12262,1,12262,1,0.0012845,-4.762e-10,0,0.0012845,-0.00023628,1.7204e+08,-47.817,0,1.7204e+08,5.0033,12261,8553,1,8553,1,-0.00031534,-7.7943e-05,0,2.9272e-06,-0.00053802,-1.2811e+08,-1.5955e+07,0,2.5117e+05,-2.5521e+07,8552,10465,1,10465,1,0.00048456,-4.8596e-09,0,0.00048456,-0.00038531,9.9238e+07,-767.32,0,1.2157e+08,-4284.6,10464,14059,1,14059,1,0.0020844,1.1462e-08,0,0.0020844,-8.7686e-05,1.9659e+08,1478.5,0,1.9659e+08,223.02,14058,2091.4,0,2091.4,0,0.00095033,2.105e-05,0,0.00089934,0.00017589,8.7377e+07,3.3732e+06,0,5.9297e+07,2.4886e+06,2091.4,1
5396,7.81,12260,1,12260,1,0.0013064,3.5886e-06,0,0.0013423,-0.00024209,1.3336e+08,5.3071e+05,0,1.4804e+08,-6.1449e+05,12259,15904,1,15904,1,0.0029077,0.00014306,0,0.0029077,6.1179e-05,2.1088e+08,2.807e+07,0,2.1088e+08,2.8907e+05,15903,12262,1,12262,1,0.0012866,6.1182e-10,0,0.0012866,-0.00023668,1.7233e+08,71.951,0,1.7233e+08,23.657,12261,8553,1,8553,1,-0.00031547,-7.8009e-05,0,3.2316e-06,-0.00053895,-1.2816e+08,-1.6002e+07,0,2.318e+05,-2.5543e+07,8552,10465,1,10465,1,0.00048558,-4.5685e-09,0,0.00048558,-0.00038593,9.9448e+07,-618.66,0,1.2181e+08,-4363.6,10464,14059,1,14059,1,0.0020877,1.1484e-08,0,0.0020877,-8.7873e-05,1.9675e+08,1162.7,0,1.9675e+08,245.67,14058,2091.4,0,2091.4,0,0.0009517,2.1044e-05,0,0.00090069,0.00017614,8.7399e+07,3.3766e+06,0,5.9315e+07,2.491e+06,2091.4,1
5396,7.82,12260,1,12260,1,0.0013086,3.5854e-06,0,0.0013444,-0.00024248,1.3351e+08,5.3078e+05,0,1.4818e+08,-6.1358e+05,12259,15904,1,15904,1,0.0029127,0.00014312,0,0.0029127,6.1204e-05,2.1083e+08,2.8116e+07,0,2.1083e+08,3.0058e+05,15903,12262,1,12262,1,0.0012888,9.2484e-11,0,0.0012888,-0.00023708,1.7262e+08,11.462,0,1.7262e+08,18.496,12261,8553,1,8553,1,-0.0003156,-7.8069e-05,0,3.5376e-06,-0.00053988,-1.2821e+08,-1.6048e+07,0,2.3998e+05,-2.5565e+07,8552,10465,1,10465,1,0.00048661,-3.8095e-09,0,0.00048661,-0.00038654,9.9658e+07,-510.85,0,1.2204e+08,-4434.5,10464,14059,1,14059,1,0.002091,1.1599e-08,0,0.002091,-8.8061e-05,1.9691e+08,1159.6,0,1.9691e+08,251.72,14058,2091.4,0,2091.4,0,0.00095306,2.1036e-05,0,0.00090204,0.0001764,8.742e+07,3.3799e+06,0,5.9333e+07,2.4932e+06,2091.4,1
5396,7.83,12260,1,12260,1,0.0013108,3.5825e-06,0,0.0013466,-0.00024288,1.3365e+08,5.3088e+05,0,1.4831e+08,-6.1269e+05,12259,15904,1,15904,1,0.0029178,0.0001432,0,0.0029178,6.123e-05,2.1078e+08,2.8164e+07,0,2.1078e+08,3.1185e+05,15903,12262,1,12262,1,0.001291,-9.4523e-10,0,0.001291,-0.00023749,1.7292e+08,-89.759,0,1.7292e+08,-4.8474,12261,8553,1,8553,1,-0.00031573,-7.8137e-05,0,3.8454e-06,-0.00054081,-1.2827e+08,-1.6097e+07,0,2.7384e+05,-2.5587e+07,8552,10465,1,10465,1,0.00048764,-4.0336e-09,0,0.00048764,-0.00038716,9.987e+07,-628.46,0,1.2228e+08,-4516.6,10464,14059,1,14059,1,0.0020944,1.1407e-08,0,0.0020944,-8.825e-05,1.9707e+08,1159.3,0,1.9707e+08,262.79,14058,2091.4,0,2091.4,0,0.00095443,2.1031e-05,0,0.00090341,0.00017665,8.7442e+07,3.3835e+06,0,5.9352e+07,2.4953e+06,2091.4,1
5396,7.84,12260,1,12260,1,0.0013129,3.5793e-06,0,0.0013488,-0.00024327,1.3379e+08,5.3095e+05,0,1.4845e+08,-6.1174e+05,12259,15904,1,15904,1,0.0029229,0.00014325,0,0.0029229,6.1255e-05,2.1073e+08,2.8211e+07,0,2.1073e+08,3.2283e+05,15903,12262,1,12262,1,0.0012932,2.1717e-10,0,0.0012932,-0.00023789,1.7321e+08,22.252,0,1.7321e+08,2.0221,12261,8553,1,8553,1,-0.00031585,-7.8198e-05,0,4.1538e-06,-0.00054174,-1.2832e+08,-1.6144e+07,0,3.2731e+05,-2.5607e+07,8552,10465,1,10465,1,0.00048867,-3.1948e-09,0,0.00048867,-0.00038778,1.0008e+08,-492.77,0,1.2252e+08,-4712.3,10464,14059,1,14059,1,0.0020977,1.1999e-08,0,0.0020977,-8.8438e-05,1.9723e+08,1251.8,0,1.9723e+08,270.4,14058,2091.4,0,2091.4,0,0.00095579,2.1023e-05,0,0.00090476,0.0001769,8.7462e+07,3.3867e+06,0,5.937e+07,2.4973e+06,2091.4,1
5396,7.85,12260,1,12260,1,0.0013151,3.5762e-06,0,0.0013509,-0.00024366,1.3394e+08,5.3104e+05,0,1.4858e+08,-6.1081e+05,12259,15904,1,15904,1,0.0029279,0.00014331,0,0.0029279,6.128e-05,2.1069e+08,2.8258e+07,0,2.1069e+08,3.3396e+05,15903,12262,1,12262,1,0.0012954,1.0448e-09,0,0.0012954,-0.00023829,1.735e+08,92.801,0,1.735e+08,-23.838,12261,8553,1,8553,1,-0.00031598,-7.8269e-05,0,4.4641e-06,-0.00054267,-1.2837e+08,-1.6193e+07,0,3.9125e+05,-2.5628e+07,8552,10465,1,10465,1,0.0004897,-4.6044e-09,0,0.0004897,-0.00038839,1.0029e+08,-793.96,0,1.2275e+08,-4837.6,10464,14059,1,14059,1,0.0021011,1.233e-08,0,0.0021011,-8.8628e-05,1.973e+08,1652.4,0,1.973e+08,290.67,14058,2091.4,0,2091.4,0,0.00095716,2.1018e-05,0,0.00090612,0.00017716,8.7484e+07,3.3902e+06,0,5.9389e+07,2.4993e+06,2091.4,1
5396,7.86,12260,1,12260,1,0.0013173,3.573e-06,0,0.0013531,-0.00024406,1.3408e+08,5.3115e+05,0,1.4871e+08,-6.0983e+05,12259,15904,1,15904,1,0.0029332,0.00014338,0,0.0029332,6.13e-05,2.1065e+08,2.8308e+07,0,2.1065e+08,3.519e+05,15903,12262,1,12262,1,0.0012976,-1.2531e-10,0,0.0012976,-0.0002387,1.738e+08,-9.7948,0,1.738e+08,-8.8133,12261,8553,1,8553,1,-0.0003161,-7.8338e-05,0,4.8002e-06,-0.00054365,-1.2842e+08,-1.6245e+07,0,4.6618e+05,-2.565e+07,8552,10465,1,10465,1,0.00049074,-6.332e-09,0,0.00049074,-0.00038901,1.005e+08,-1011.5,0,1.23e+08,-5377.7,10464,14059,1,14059,1,0.0021044,1.4073e-08,0,0.0021044,-8.8818e-05,1.9729e+08,1758.3,0,1.9729e+08,334.11,14058,2091.4,0,2091.4,0,0.00095854,2.1012e-05,0,0.0009075,0.00017741,8.7504e+07,3.3939e+06,0,5.9408e+07,2.5016e+06,2091.4,1
5396,7.87,12260,1,12260,1,0.0013195,3.5688e-06,0,0.0013553,-0.00024446,1.3422e+08,5.3112e+05,0,1.4884e+08,-6.0878e+05,12259,15904,1,15904,1,0.0029388,0.00014343,0,0.0029388,6.1314e-05,2.1059e+08,2.8357e+07,0,2.1059e+08,3.7432e+05,15903,12262,1,12262,1,0.0012998,8.7516e-10,0,0.0012998,-0.0002391,1.7409e+08,114.85,0,1.7409e+08,25.48,12261,8553,1,8553,1,-0.00031621,-7.8387e-05,0,5.1711e-06,-0.00054467,-1.2846e+08,-1.6296e+07,0,3.9486e+05,-2.5674e+07,8552,10465,1,10465,1,0.00049177,-5.7797e-09,0,0.00049177,-0.00038962,1.0071e+08,-718.58,0,1.2325e+08,-6670.2,10464,14059,1,14059,1,0.0021077,1.4753e-08,0,0.0021077,-8.9006e-05,1.9726e+08,1522.3,0,1.9726e+08,240.08,14058,2091.4,0,2091.4,0,0.00095992,2.1003e-05,0,0.00090887,0.00017767,8.7519e+07,3.3972e+06,0,5.9423e+07,2.5045e+06,2091.4,1
5396,7.88,12260,1,12260,1,0.0013218,3.5636e-06,0,0.0013576,-0.00024488,1.3435e+08,5.3097e+05,0,1.4896e+08,-6.0756e+05,12259,15904,1,15904,1,0.0029443,0.00014346,0,0.0029443,6.1321e-05,2.1052e+08,2.8403e+07,0,2.1052e+08,3.9958e+05,15903,12262,1,12262,1,0.0013021,-5.6697e-10,0,0.0013021,-0.00023952,1.7439e+08,-64.766,0,1.7439e+08,30.043,12261,8553,1,8553,1,-0.00031626,-7.8418e-05,0,5.5731e-06,-0.0005457,-1.2848e+08,-1.6346e+07,0,2.9594e+05,-2.5695e+07,8552,10465,1,10465,1,0.00049289,-6.7329e-09,0,0.00049289,-0.00039027,1.0095e+08,-905.33,0,1.2351e+08,-7750.4,10464,14059,1,14059,1,0.0021112,1.6154e-08,0,0.0021112,-8.9213e-05,1.9719e+08,1597.9,0,1.9719e+08,362.15,14058,2091.4,0,2091.4,0,0.00096131,2.0992e-05,0,0.00091027,0.00017793,8.7516e+07,3.4002e+06,0,5.9428e+07,2.5074e+06,2091.4,1
5396,7.89,12260,1,12260,1,0.0013241,3.5598e-06,0,0.0013599,-0.0002453,1.3449e+08,5.3099e+05,0,1.4908e+08,-6.0642e+05,12259,15904,1,15904,1,0.0029498,0.00014349,0,0.0029498,6.1328e-05,2.1045e+08,2.8448e+07,0,2.1045e+08,4.2498e+05,15903,12262,1,12262,1,0.0013044,-3.3451e-11,0,0.0013044,-0.00023996,1.7471e+08,-3.4047,0,1.7471e+08,3.1591,12261,8553,1,8553,1,-0.0003163,-7.8447e-05,0,5.9761e-06,-0.00054672,-1.285e+08,-1.6397e+07,0,2.0498e+05,-2.5718e+07,8552,10465,1,10465,1,0.00049406,-6.8203e-09,0,0.00049406,-0.00039092,1.0118e+08,-962.58,0,1.2377e+08,-8883.6,10464,14059,1,14059,1,0.0021148,1.9163e-08,0,0.0021148,-8.9426e-05,1.9725e+08,1957.2,0,1.9725e+08,452.41,14058,2091.4,0,2091.4,0,0.00096272,2.0982e-05,0,0.00091168,0.00017819,8.7511e+07,3.4031e+06,0,5.9433e+07,2.5108e+06,2091.4,1
5396,7.9,12260,1,12260,1,0.0013264,3.5555e-06,0,0.0013622,-0.00024572,1.3462e+08,5.3093e+05,0,1.4919e+08,-6.0528e+05,12259,15904,1,15904,1,0.0029556,0.00014352,0,0.0029556,6.133e-05,2.1038e+08,2.8494e+07,0,2.1038e+08,4.5686e+05,15903,12262,1,12262,1,0.0013068,7.3893e-10,0,0.0013068,-0.0002404,1.7503e+08,96.075,0,1.7503e+08,24.278,12261,8553,1,8553,1,-0.00031633,-7.8479e-05,0,6.4034e-06,-0.00054779,-1.2851e+08,-1.6449e+07,0,1.342e+05,-2.5742e+07,8552,10465,1,10465,1,0.00049523,-7.9502e-09,0,0.00049523,-0.00039158,1.0142e+08,-1119.3,0,1.2404e+08,-9551.3,10464,14059,1,14059,1,0.0021183,2.2071e-08,0,0.0021183,-8.9641e-05,1.9742e+08,2186.3,0,1.9742e+08,546.91,14058,2091.4,0,2091.4,0,0.00096413,2.0973e-05,0,0.00091311,0.00017845,8.7503e+07,3.4062e+06,0,5.9436e+07,2.5147e+06,2091.4,1
5396,7.91,12260,1,12260,1,0.0013288,3.5506e-06,0,0.0013645,-0.00024615,1.3475e+08,5.3082e+05,0,1.493e+08,-6.0407e+05,12259,15904,1,15904,1,0.002962,0.00014355,0,0.002962,6.1318e-05,2.1032e+08,2.8542e+07,0,2.1032e+08,4.9764e+05,15903,12262,1,12262,1,0.0013092,-1.5722e-09,0,0.0013092,-0.00024084,1.7535e+08,-138.34,0,1.7535e+08,-19.581,12261,8553,1,8553,1,-0.00031635,-7.8484e-05,0,6.9058e-06,-0.00054897,-1.2852e+08,-1.6503e+07,0,1.4239e+05,-2.5771e+07,8552,10465,1,10465,1,0.0004964,-9.4523e-09,0,0.0004964,-0.00039225,1.0166e+08,-1430.5,0,1.243e+08,-11453,10464,14059,1,14059,1,0.0021219,2.6111e-08,0,0.0021219,-8.9857e-05,1.9731e+08,2716.2,0,1.9731e+08,564.24,14058,2091.4,0,2091.4,0,0.00096557,2.0962e-05,0,0.00091456,0.00017872,8.749e+07,3.4092e+06,0,5.9436e+07,2.5197e+06,2091.4,1
5396,7.92,12260,1,12260,1,0.0013313,3.5462e-06,0,0.001367,-0.0002466,1.3487e+08,5.3077e+05,0,1.494e+08,-6.0263e+05,12259,15904,1,15904,1,0.0029687,0.00014353,0,0.0029687,6.1296e-05,2.1024e+08,2.8581e+07,0,2.1024e+08,5.4796e+05,15903,12262,1,12262,1,0.0013116,1.3806e-09,0,0.0013116,-0.00024129,1.7568e+08,134.47,0,1.7568e+08,27.438,12261,8553,1,8553,1,-0.00031628,-7.8463e-05,0,7.4859e-06,-0.00055021,-1.2849e+08,-1.6559e+07,0,2.4701e+05,-2.5798e+07,8552,10465,1,10465,1,0.00049768,-1.0557e-08,0,0.00049768,-0.00039294,1.0193e+08,-1520.4,0,1.2459e+08,-15102,10464,14059,1,14059,1,0.0021256,3.3769e-08,0,0.0021256,-9.0093e-05,1.9711e+08,3405.9,0,1.9711e+08,750.94,14058,2091.4,0,2091.4,0,0.00096702,2.0945e-05,0,0.00091605,0.00017898,8.745e+07,3.4112e+06,0,5.9421e+07,2.5256e+06,2091.4,1
5396,7.93,12260,1,12260,1,0.0013339,3.5402e-06,0,0.0013696,-0.00024708,1.3499e+08,5.3051e+05,0,1.4948e+08,-6.0121e+05,12259,15904,1,15904,1,0.0029757,0.00014352,0,0.0029757,6.1273e-05,2.1014e+08,2.8622e+07,0,2.1014e+08,6.0455e+05,15903,12262,1,12262,1,0.0013143,7.0974e-10,0,0.0013143,-0.00024179,1.7604e+08,90.698,0,1.7604e+08,88.02,12261,8553,1,8553,1,-0.00031614,-7.8432e-05,0,8.1036e-06,-0.00055151,-1.2843e+08,-1.6616e+07,0,2.1782e+05,-2.5829e+07,8552,10465,1,10465,1,0.0004991,-1.4286e-08,0,0.0004991,-0.00039369,1.0222e+08,-2028.5,0,1.249e+08,-18235,10464,14059,1,14059,1,0.0021296,4.4177e-08,0,0.0021296,-9.0354e-05,1.9688e+08,4318.7,0,1.9688e+08,970.68,14058,2091.4,0,2091.4,0,0.00096852,2.0934e-05,0,0.0009176,0.00017926,8.7389e+07,3.4136e+06,0,5.9395e+07,2.5329e+06,2091.4,1
5396,7.94,12260,1,12260,1,0.0013366,3.5345e-06,0,0.0013722,-0.00024756,1.351e+08,5.3024e+05,0,1.4955e+08,-5.9978e+05,12259,15904,1,15904,1,0.0029828,0.00014348,0,0.0029828,6.1243e-05,2.1006e+08,2.8657e+07,0,2.1006e+08,6.6372e+05,15903,12262,1,12262,1,0.0013171,7.9554e-10,0,0.0013171,-0.00024231,1.7641e+08,81.171,0,1.7641e+08,43.967,12261,8553,1,8553,1,-0.00031595,-7.8364e-05,0,8.7363e-06,-0.00055282,-1.2836e+08,-1.6668e+07,0,76050,-2.5864e+07,8552,10465,1,10465,1,0.00050058,-1.7988e-08,0,0.00050058,-0.00039444,1.0252e+08,-2582.5,0,1.2523e+08,-20802,10464,14059,1,14059,1,0.0021336,5.3942e-08,0,0.0021336,-9.0627e-05,1.966e+08,5288.6,0,1.966e+08,1331.1,14058,2091.4,0,2091.4,0,0.00097002,2.0921e-05,0,0.00091916,0.00017954,8.7317e+07,3.4153e+06,0,5.9363e+07,2.5411e+06,2091.4,1
5396,7.95,12260,1,12260,1,0.0013392,3.5288e-06,0,0.0013748,-0.00024805,1.3521e+08,5.2993e+05,0,1.4962e+08,-5.9846e+05,12259,15904,1,15904,1,0.0029901,0.00014346,0,0.0029901,6.1212e-05,2.0999e+08,2.8691e+07,0,2.0999e+08,7.2437e+05,15903,12262,1,12262,1,0.0013199,-5.5561e-10,0,0.0013199,-0.00024283,1.7679e+08,-68.278,0,1.7679e+08,74.401,12261,8553,1,8553,1,-0.00031576,-7.8296e-05,0,9.3713e-06,-0.00055417,-1.2828e+08,-1.672e+07,0,10473,-2.5901e+07,8552,10465,1,10465,1,0.00050209,-2.3426e-08,0,0.00050209,-0.00039523,1.0283e+08,-3334.5,0,1.2556e+08,-23816,10464,14059,1,14059,1,0.0021378,6.797e-08,0,0.0021378,-9.0904e-05,1.9633e+08,6511.2,0,1.9633e+08,1763,14058,2091.4,0,2091.4,0,0.00097154,2.0914e-05,0,0.00092073,0.00017982,8.7244e+07,3.4174e+06,0,5.9329e+07,2.5499e+06,2091.4,1
5396,7.96,12260,1,12260,1,0.0013419,3.5245e-06,0,0.0013775,-0.00024854,1.3532e+08,5.2979e+05,0,1.497e+08,-5.9714e+05,12259,15904,1,15904,1,0.0029975,0.00014343,0,0.0029975,6.1179e-05,2.0993e+08,2.8722e+07,0,2.0993e+08,7.8585e+05,15903,12262,1,12262,1,0.0013228,3.3758e-10,0,0.0013228,-0.00024335,1.7717e+08,41.224,0,1.7717e+08,59.947,12261,8553,1,8553,1,-0.00031556,-7.8221e-05,0,1.0009e-05,-0.00055553,-1.282e+08,-1.6771e+07,0,1.2893e+05,-2.5937e+07,8552,10465,1,10465,1,0.00050361,-2.66e-08,0,0.00050361,-0.00039599,1.0314e+08,-3785.4,0,1.2589e+08,-26085,10464,14059,1,14059,1,0.0021419,8.1422e-08,0,0.0021419,-9.1184e-05,1.9621e+08,7865.7,0,1.9621e+08,2258.8,14058,2091.4,0,2091.4,0,0.00097305,2.0908e-05,0,0.00092231,0.00018011,8.7168e+07,3.4192e+06,0,5.9265e+07,2.5591e+06,2091.4,1
5396,7.97,12260,1,12260,1,0.0013447,3.5195e-06,0,0.0013801,-0.00024903,1.3543e+08,5.2955e+05,0,1.4978e+08,-5.9587e+05,12259,15904,1,15904,1,0.0030049,0.0001434,0,0.0030049,6.1146e-05,2.0987e+08,2.8755e+07,0,2.0987e+08,8.4725e+05,15903,12262,1,12262,1,0.0013256,1.0059e-09,0,0.0013256,-0.00024388,1.7755e+08,112.1,0,1.7755e+08,12.131,12261,8553,1,8553,1,-0.00031535,-7.8148e-05,0,1.0653e-05,-0.00055689,-1.2811e+08,-1.6823e+07,0,2.4081e+05,-2.5975e+07,8552,10465,1,10465,1,0.00050515,-3.2295e-08,0,0.00050515,-0.00039678,1.0345e+08,-4688.9,0,1.2619e+08,-28317,10464,14059,1,14059,1,0.0021462,9.3646e-08,0,0.0021462,-9.1468e-05,1.9631e+08,9065.8,0,1.9631e+08,2848.6,14058,2091.4,0,2091.4,0,0.00097458,2.0908e-05,0,0.0009239,0.00018039,8.7092e+07,3.4215e+06,0,5.9187e+07,2.5685e+06,2091.4,1
5396,7.98,12260,1,12260,1,0.0013474,3.5149e-06,0,0.0013828,-0.00024953,1.3554e+08,5.2935e+05,0,1.4987e+08,-5.9458e+05,12259,15904,1,15904,1,0.0030124,0.00014336,0,0.0030124,6.1112e-05,2.0983e+08,2.8785e+07,0,2.0983e+08,9.0881e+05,15903,12262,1,12262,1,0.0013285,1.318e-09,0,0.0013285,-0.00024441,1.7794e+08,166.26,0,1.7794e+08,3.228,12261,8553,1,8553,1,-0.00031514,-7.8068e-05,0,1.1299e-05,-0.00055827,-1.2803e+08,-1.6874e+07,0,3.4648e+05,-2.6013e+07,8552,10465,1,10465,1,0.00050669,-3.7132e-08,0,0.00050669,-0.00039756,1.0377e+08,-5250.9,0,1.2638e+08,-31248,10464,14059,1,14059,1,0.0021504,1.1048e-07,0,0.0021504,-9.1753e-05,1.9644e+08,10737,0,1.9644e+08,3489.9,14058,2091.4,0,2091.4,0,0.00097611,2.0908e-05,0,0.00092549,0.00018067,8.7015e+07,3.4235e+06,0,5.9107e+07,2.578e+06,2091.4,1
5396,7.99,12260,1,12260,1,0.0013501,3.5097e-06,0,0.0013855,-0.00025002,1.3565e+08,5.2907e+05,0,1.4996e+08,-5.9331e+05,12259,15904,1,15904,1,0.0030199,0.00014333,0,0.0030199,6.1078e-05,2.0978e+08,2.8816e+07,0,2.0978e+08,9.7016e+05,15903,12262,1,12262,1,0.0013314,1.2669e-09,0,0.0013314,-0.00024495,1.7833e+08,131.07,0,1.7833e+08,-32.805,12261,8553,1,8553,1,-0.00031493,-7.7986e-05,0,1.1927e-05,-0.00055966,-1.2794e+08,-1.6924e+07,0,4.36e+05,-2.6051e+07,8552,10465,1,10465,1,0.00050825,-4.4774e-08,0,0.00050825,-0.00039832,1.0409e+08,-6258.1,0,1.2659e+08,-33471,10464,14059,1,14059,1,0.0021546,1.2553e-07,0,0.0021546,-9.2041e-05,1.9642e+08,12663,0,1.9642e+08,4202.7,14058,2091.4,0,2091.4,0,0.00097764,2.0912e-05,0,0.00092708,0.00018096,8.6938e+07,3.4258e+06,0,5.9027e+07,2.5877e+06,2091.4,1
5396,8,12260,1,12260,1,0.0013529,3.5047e-06,0,0.0013882,-0.00025052,1.3576e+08,5.288e+05,0,1.5004e+08,-5.9204e+05,12259,15904,1,15904,1,0.0030275,0.0001433,0,0.0030275,6.1043e-05,2.0974e+08,2.8847e+07,0,2.0974e+08,1.0313e+06,15903,12262,1,12262,1,0.0013343,3.3219e-10,0,0.0013343,-0.00024548,1.7871e+08,44.05,0,1.7871e+08,1.622,12261,8553,1,8553,1,-0.00031471,-7.7903e-05,0,1.2556e-05,-0.00056106,-1.2785e+08,-1.6975e+07,0,5.5568e+05,-2.609e+07,8552,10465,1,10465,1,0.0005098,-5.2101e-08,0,0.0005098,-0.00039911,1.0441e+08,-7467.9,0,1.2677e+08,-36241,10464,14059,1,14059,1,0.0021589,1.4226e-07,0,0.0021589,-9.2327e-05,1.9626e+08,14346,0,1.9626e+08,5024.3,14058,2091.4,0,2091.4,0,0.00097917,2.0919e-05,0,0.00092867,0.00018124,8.6861e+07,3.4282e+06,0,5.8947e+07,2.5975e+06,2091.4,1
5396,8.01,12260,1,12260,1,0.0013556,3.5e-06,0,0.0013908,-0.00025101,1.3587e+08,5.2858e+05,0,1.5013e+08,-5.9075e+05,12259,15904,1,15904,1,0.003035,0.00014327,0,0.003035,6.1009e-05,2.097e+08,2.8877e+07,0,2.097e+08,1.0928e+06,15903,12262,1,12262,1,0.0013372,1.0049e-09,0,0.0013372,-0.00024602,1.791e+08,115.15,0,1.791e+08,-29.118,12261,8553,1,8553,1,-0.0003145,-7.7891e-05,0,1.3191e-05,-0.00056245,-1.2776e+08,-1.7026e+07,0,6.8019e+05,-2.6128e+07,8552,10465,1,10465,1,0.00051136,-5.9449e-08,0,0.00051136,-0.00039985,1.0473e+08,-8451.7,0,1.2703e+08,-38696,10464,14059,1,14059,1,0.0021631,1.5527e-07,0,0.0021631,-9.2615e-05,1.961e+08,16182,0,1.961e+08,5892.7,14058,2091.4,0,2091.4,0,0.0009807,2.0928e-05,0,0.00093027,0.00018152,8.6784e+07,3.4307e+06,0,5.8867e+07,2.6074e+06,2091.4,1
5396,8.02,12260,1,12260,1,0.0013583,3.4947e-06,0,0.0013935,-0.00025151,1.3598e+08,5.2829e+05,0,1.5021e+08,-5.8949e+05,12259,15904,1,15904,1,0.0030428,0.00014325,0,0.0030428,6.0975e-05,2.0965e+08,2.891e+07,0,2.0965e+08,1.1544e+06,15903,12262,1,12262,1,0.0013401,-2.9418e-10,0,0.0013401,-0.00024655,1.7949e+08,-37.66,0,1.7949e+08,-3.7871,12261,8553,1,8553,1,-0.00031428,-7.7881e-05,0,1.3831e-05,-0.00056388,-1.2768e+08,-1.7078e+07,0,8.2955e+05,-2.6167e+07,8552,10465,1,10465,1,0.00051292,-6.8972e-08,0,0.00051292,-0.00040064,1.0504e+08,-9906.3,0,1.2733e+08,-41573,10464,14059,1,14059,1,0.0021674,1.771e-07,0,0.0021674,-9.2902e-05,1.9593e+08,18287,0,1.9593e+08,6911.9,14058,2091.4,0,2091.4,0,0.00098224,2.0943e-05,0,0.00093187,0.00018181,8.6708e+07,3.4337e+06,0,5.8788e+07,2.6174e+06,2091.4,1
5396,8.03,12260,1,12260,1,0.0013611,3.4905e-06,0,0.0013962,-0.000252,1.3609e+08,5.2814e+05,0,1.503e+08,-5.8814e+05,12259,15904,1,15904,1,0.0030506,0.0001432,0,0.0030506,6.094e-05,2.0961e+08,2.894e+07,0,2.0961e+08,1.2166e+06,15903,12262,1,12262,1,0.001343,1.0858e-09,0,0.001343,-0.00024709,1.7988e+08,142.99,0,1.7988e+08,-30.904,12261,8553,1,8553,1,-0.00031406,-7.7862e-05,0,1.4476e-05,-0.00056532,-1.2759e+08,-1.713e+07,0,9.9288e+05,-2.6206e+07,8552,10465,1,10465,1,0.00051448,-7.5098e-08,0,0.00051448,-0.00040139,1.0536e+08,-10807,0,1.274e+08,-44541,10464,14059,1,14059,1,0.0021716,1.9825e-07,0,0.0021716,-9.3189e-05,1.9577e+08,20337,0,1.9577e+08,7907.6,14058,2091.4,0,2091.4,0,0.00098377,2.0956e-05,0,0.00093347,0.00018209,8.6631e+07,3.4362e+06,0,5.8709e+07,2.6274e+06,2091.4,1
5396,8.04,12260,1,12260,1,0.0013638,3.485e-06,0,0.0013989,-0.0002525,1.362e+08,5.2784e+05,0,1.5038e+08,-5.8683e+05,12259,15904,1,15904,1,0.0030585,0.00014316,0,0.0030585,6.0906e-05,2.0956e+08,2.8972e+07,0,2.0956e+08,1.2788e+06,15903,12262,1,12262,1,0.0013459,8.3479e-10,0,0.0013459,-0.00024762,1.8026e+08,118.7,0,1.8026e+08,-21.522,12261,8553,1,8553,1,-0.00031384,-7.785e-05,0,1.5129e-05,-0.00056677,-1.275e+08,-1.7183e+07,0,1.1664e+06,-2.6244e+07,8552,10465,1,10465,1,0.00051603,-8.368e-08,0,0.00051603,-0.00040215,1.0568e+08,-12039,0,1.2739e+08,-47360,10464,14059,1,14059,1,0.0021759,2.1363e-07,0,0.0021759,-9.3476e-05,1.9546e+08,22383,0,1.9546e+08,8841,14058,2091.4,0,2091.4,0,0.00098531,2.0974e-05,0,0.00093507,0.00018238,8.6555e+07,3.4393e+06,0,5.8631e+07,2.6375e+06,2091.4,1
5396,8.05,12260,1,12260,1,0.0013666,3.4797e-06,0,0.0014016,-0.000253,1.363e+08,5.2756e+05,0,1.5047e+08,-5.8547e+05,12259,15904,1,15904,1,0.0030664,0.00014312,0,0.0030664,6.0872e-05,2.0951e+08,2.9004e+07,0,2.0951e+08,1.3405e+06,15903,12262,1,12262,1,0.0013487,7.8663e-10,0,0.0013487,-0.00024816,1.8065e+08,107.05,0,1.8065e+08,-45.303,12261,8553,1,8553,1,-0.00031362,-7.7833e-05,0,1.5786e-05,-0.00056823,-1.2741e+08,-1.7236e+07,0,1.346e+06,-2.6283e+07,8552,10465,1,10465,1,0.00051759,-9.3797e-08,0,0.00051759,-0.00040293,1.06e+08,-13518,0,1.2734e+08,-50056,10464,14059,1,14059,1,0.0021801,2.2927e-07,0,0.0021801,-9.3764e-05,1.9513e+08,24887,0,1.9513e+08,9974.4,14058,2091.4,0,2091.4,0,0.00098685,2.0995e-05,0,0.00093668,0.00018266,8.6479e+07,3.4424e+06,0,5.8553e+07,2.6478e+06,2091.4,1
5396,8.06,12260,1,12260,1,0.0013693,3.4746e-06,0,0.0014043,-0.00025349,1.3641e+08,5.2732e+05,0,1.5055e+08,-5.841e+05,12259,15904,1,15904,1,0.0030744,0.00014308,0,0.0030744,6.0838e-05,2.0946e+08,2.9036e+07,0,2.0946e+08,1.3988e+06,15903,12262,1,12262,1,0.0013516,8.8198e-10,0,0.0013516,-0.00024869,1.8103e+08,120.2,0,1.8103e+08,-61.771,12261,8553,1,8553,1,-0.0003134,-7.7815e-05,0,1.644e-05,-0.0005697,-1.2732e+08,-1.729e+07,0,1.5292e+06,-2.6322e+07,8552,10465,1,10465,1,0.00051914,-1.0408e-07,0,0.00051914,-0.00040369,1.0632e+08,-14717,0,1.2726e+08,-53087,10464,14059,1,14059,1,0.0021844,2.5481e-07,0,0.0021844,-9.405e-05,1.9489e+08,27329,0,1.9489e+08,11318,14058,2091.4,0,2091.4,0,0.00098838,2.1019e-05,0,0.00093828,0.00018295,8.6404e+07,3.4456e+06,0,5.8477e+07,2.6581e+06,2091.4,1
5396,8.07,12260,1,12260,1,0.001372,3.4686e-06,0,0.0014069,-0.00025399,1.3652e+08,5.2695e+05,0,1.5063e+08,-5.8272e+05,12259,15904,1,15904,1,0.0030825,0.00014304,0,0.0030825,6.0804e-05,2.0943e+08,2.9069e+07,0,2.0943e+08,1.4538e+06,15903,12262,1,12262,1,0.0013545,-6.5045e-10,0,0.0013545,-0.00024922,1.8142e+08,-95.732,0,1.8142e+08,-67.452,12261,8553,1,8553,1,-0.00031318,-7.7796e-05,0,1.7084e-05,-0.0005712,-1.2723e+08,-1.7344e+07,0,1.7164e+06,-2.6363e+07,8552,10465,1,10465,1,0.00052068,-1.1186e-07,0,0.00052068,-0.00040443,1.0663e+08,-16195,0,1.2718e+08,-56833,10464,14059,1,14059,1,0.0021886,2.8348e-07,0,0.0021886,-9.4335e-05,1.9476e+08,29747,0,1.9476e+08,12638,14058,2091.4,0,2091.4,0,0.00098992,2.1047e-05,0,0.00093988,0.00018323,8.6328e+07,3.4491e+06,0,5.8401e+07,2.6687e+06,2091.4,1
5396,8.08,12260,1,12260,1,0.0013748,3.4643e-06,0,0.0014096,-0.00025448,1.3663e+08,5.2682e+05,0,1.5072e+08,-5.8131e+05,12259,15904,1,15904,1,0.0030907,0.00014299,0,0.0030907,6.0771e-05,2.0938e+08,2.9101e+07,0,2.0938e+08,1.5112e+06,15903,12262,1,12262,1,0.0013574,7.4701e-10,0,0.0013574,-0.00024976,1.818e+08,98.382,0,1.818e+08,-144.64,12261,8553,1,8553,1,-0.00031296,-7.7781e-05,0,1.7734e-05,-0.00057271,-1.2714e+08,-1.7399e+07,0,1.9071e+06,-2.6401e+07,8552,10465,1,10465,1,0.00052224,-1.2162e-07,0,0.00052224,-0.00040521,1.0695e+08,-17171,0,1.2708e+08,-59674,10464,14059,1,14059,1,0.0021928,3.0529e-07,0,0.0021928,-9.4622e-05,1.9491e+08,32322,0,1.9491e+08,13877,14058,2091.4,0,2091.4,0,0.00099147,2.1076e-05,0,0.0009415,0.00018352,8.6255e+07,3.4525e+06,0,5.8326e+07,2.6793e+06,2091.4,1
5396,8.09,12260,1,12260,1,0.0013775,3.4587e-06,0,0.0014123,-0.00025498,1.3673e+08,5.2652e+05,0,1.508e+08,-5.7989e+05,12259,15904,1,15904,1,0.0030991,0.00014295,0,0.0030991,6.0737e-05,2.0934e+08,2.9134e+07,0,2.0934e+08,1.566e+06,15903,12262,1,12262,1,0.0013603,9.3247e-10,0,0.0013603,-0.00025029,1.8219e+08,127.83,0,1.8219e+08,-142.61,12261,8553,1,8553,1,-0.00031274,-7.7764e-05,0,1.8394e-05,-0.00057426,-1.2705e+08,-1.7456e+07,0,2.1012e+06,-2.6441e+07,8552,10465,1,10465,1,0.00052379,-1.3127e-07,0,0.00052379,-0.00040599,1.0727e+08,-18825,0,1.27e+08,-62877,10464,14059,1,14059,1,0.0021971,3.2986e-07,0,0.0021971,-9.4909e-05,1.9483e+08,34883,0,1.9483e+08,15286,14058,2091.4,0,2091.4,0,0.00099301,2.111e-05,0,0.00094311,0.00018381,8.6179e+07,3.4562e+06,0,5.8251e+07,2.69e+06,2091.4,1
5396,8.1,12260,1,12260,1,0.0013803,3.4529e-06,0,0.001415,-0.00025548,1.3684e+08,5.2621e+05,0,1.5089e+08,-5.7842e+05,12259,15904,1,15904,1,0.0031076,0.0001429,0,0.0031076,6.0703e-05,2.093e+08,2.9167e+07,0,2.093e+08,1.625e+06,15903,12262,1,12262,1,0.0013632,9.6096e-10,0,0.0013632,-0.00025082,1.8258e+08,122.1,0,1.8258e+08,-212.13,12261,8553,1,8553,1,-0.00031251,-7.7747e-05,0,1.9059e-05,-0.00057582,-1.2696e+08,-1.7513e+07,0,2.2981e+06,-2.6481e+07,8552,10465,1,10465,1,0.00052535,-1.4275e-07,0,0.00052535,-0.00040677,1.0759e+08,-20632,0,1.2691e+08,-66560,10464,14059,1,14059,1,0.0022013,3.4944e-07,0,0.0022013,-9.5197e-05,1.9467e+08,37496,0,1.9467e+08,16648,14058,2091.4,0,2091.4,0,0.00099456,2.1147e-05,0,0.00094473,0.00018409,8.6105e+07,3.4601e+06,0,5.8178e+07,2.7009e+06,2091.4,1
5396,8.11,12260,1,12260,1,0.0013831,3.4469e-06,0,0.0014177,-0.00025597,1.3695e+08,5.2587e+05,0,1.5097e+08,-5.7697e+05,12259,15904,1,15904,1,0.0031162,0.00014285,0,0.0031162,6.067e-05,2.0926e+08,2.92e+07,0,2.0926e+08,1.6861e+06,15903,12262,1,12262,1,0.001366,9.76e-10,0,0.001366,-0.00025136,1.8296e+08,124.59,0,1.8296e+08,-184.34,12261,8553,1,8553,1,-0.00031229,-7.7726e-05,0,1.9728e-05,-0.00057741,-1.2687e+08,-1.757e+07,0,2.4964e+06,-2.6522e+07,8552,10465,1,10465,1,0.0005269,-1.5409e-07,0,0.0005269,-0.00040754,1.0791e+08,-22435,0,1.2682e+08,-69612,10464,14059,1,14059,1,0.0022056,3.8255e-07,0,0.0022056,-9.5484e-05,1.9451e+08,40684,0,1.9451e+08,18208,14058,2091.4,0,2091.4,0,0.00099611,2.1188e-05,0,0.00094634,0.00018438,8.603e+07,3.4642e+06,0,5.8105e+07,2.712e+06,2091.4,1
5396,8.12,12260,1,12260,1,0.0013858,3.4412e-06,0,0.0014204,-0.00025646,1.3706e+08,5.2557e+05,0,1.5105e+08,-5.7547e+05,12259,15904,1,15904,1,0.003125,0.0001428,0,0.003125,6.0637e-05,2.0922e+08,2.9234e+07,0,2.0922e+08,1.7466e+06,15903,12262,1,12262,1,0.0013689,2.1572e-09,0,0.0013689,-0.00025189,1.8334e+08,308.05,0,1.8334e+08,-209.4,12261,8553,1,8553,1,-0.00031207,-7.7707e-05,0,2.0404e-05,-0.00057902,-1.2678e+08,-1.7627e+07,0,2.6918e+06,-2.6563e+07,8552,10465,1,10465,1,0.00052844,-1.6817e-07,0,0.00052844,-0.00040831,1.0822e+08,-24281,0,1.2673e+08,-74248,10464,14059,1,14059,1,0.0022098,4.1549e-07,0,0.0022098,-9.5768e-05,1.9435e+08,43784,0,1.9435e+08,19879,14058,2091.4,0,2091.4,0,0.00099765,2.1233e-05,0,0.00094796,0.00018467,8.5957e+07,3.4683e+06,0,5.8033e+07,2.7232e+06,2091.4,1
5396,8.13,12260,1,12260,1,0.0013886,3.4343e-06,0,0.0014231,-0.00025695,1.3716e+08,5.2513e+05,0,1.5113e+08,-5.7396e+05,12259,15904,1,15904,1,0.0031339,0.00014275,0,0.0031339,6.0603e-05,2.0918e+08,2.9269e+07,0,2.0918e+08,1.8096e+06,15903,12262,1,12262,1,0.0013717,-2.4623e-09,0,0.0013717,-0.00025241,1.8371e+08,-386.48,0,1.8371e+08,-235.09,12261,8553,1,8553,1,-0.00031184,-7.7679e-05,0,2.1088e-05,-0.00058067,-1.2669e+08,-1.7685e+07,0,2.8881e+06,-2.6604e+07,8552,10465,1,10465,1,0.00052995,-1.7937e-07,0,0.00052996,-0.00040907,1.0853e+08,-25675,0,1.2663e+08,-79005,10464,14059,1,14059,1,0.002214,4.4678e-07,0,0.002214,-9.605e-05,1.9419e+08,47813,0,1.9419e+08,21707,14058,2091.4,0,2091.4,0,0.00099919,2.1282e-05,0,0.00094957,0.00018495,8.5883e+07,3.4728e+06,0,5.7961e+07,2.7347e+06,2091.4,1
5396,8.14,12260,1,12260,1,0.0013913,3.4294e-06,0,0.0014258,-0.00025745,1.3727e+08,5.2494e+05,0,1.5122e+08,-5.7242e+05,12259,15904,1,15904,1,0.003143,0.00014269,0,0.003143,6.0573e-05,2.0912e+08,2.9304e+07,0,2.0912e+08,1.8757e+06,15903,12262,1,12262,1,0.0013746,1.069e-09,0,0.0013746,-0.00025294,1.841e+08,132.57,0,1.841e+08,-368.47,12261,8553,1,8553,1,-0.00031162,-7.7664e-05,0,2.1785e-05,-0.00058233,-1.266e+08,-1.7746e+07,0,3.0886e+06,-2.6645e+07,8552,10465,1,10465,1,0.00053149,-1.9129e-07,0,0.00053149,-0.00040985,1.0885e+08,-27451,0,1.2654e+08,-83521,10464,14059,1,14059,1,0.0022182,4.7481e-07,0,0.0022182,-9.6335e-05,1.9403e+08,51642,0,1.9403e+08,23520,14058,2091.4,0,2091.4,0,0.0010008,2.1335e-05,0,0.0009512,0.00018524,8.5813e+07,3.4775e+06,0,5.7893e+07,2.7464e+06,2091.4,1
5396,8.15,12260,1,12260,1,0.0013941,3.4234e-06,0,0.0014285,-0.00025794,1.3738e+08,5.2463e+05,0,1.513e+08,-5.7088e+05,12259,15904,1,15904,1,0.0031522,0.00014264,0,0.0031522,6.0541e-05,2.0907e+08,2.9339e+07,0,2.0907e+08,1.9433e+06,15903,12262,1,12262,1,0.0013775,9.7323e-10,0,0.0013775,-0.00025347,1.8448e+08,137.42,0,1.8448e+08,-462,12261,8553,1,8553,1,-0.0003114,-7.7645e-05,0,2.2487e-05,-0.00058402,-1.2651e+08,-1.7806e+07,0,3.2908e+06,-2.6687e+07,8552,10465,1,10465,1,0.00053305,-2.0876e-07,0,0.00053305,-0.00041063,1.0916e+08,-29439,0,1.2644e+08,-88072,10464,14059,1,14059,1,0.0022225,5.0356e-07,0,0.0022225,-9.6623e-05,1.9388e+08,55184,0,1.9388e+08,25508,14058,2091.4,0,2091.4,0,0.0010023,2.1394e-05,0,0.00095284,0.00018553,8.5741e+07,3.4825e+06,0,5.7823e+07,2.7583e+06,2091.4,1
5396,8.16,12260,1,12260,1,0.0013969,3.4172e-06,0,0.0014312,-0.00025844,1.3748e+08,5.2429e+05,0,1.5138e+08,-5.6934e+05,12259,15904,1,15904,1,0.0031614,0.00014258,0,0.0031614,6.0509e-05,2.0903e+08,2.9373e+07,0,2.0903e+08,2.0122e+06,15903,12262,1,12262,1,0.0013803,1.5384e-09,0,0.0013803,-0.000254,1.8487e+08,219.21,0,1.8487e+08,-447.43,12261,8553,1,8553,1,-0.00031117,-7.7623e-05,0,2.3192e-05,-0.00058573,-1.2642e+08,-1.7867e+07,0,3.4943e+06,-2.6729e+07,8552,10465,1,10465,1,0.00053459,-2.2651e-07,0,0.00053459,-0.00041141,1.0948e+08,-31658,0,1.2635e+08,-92809,10464,14059,1,14059,1,0.0022268,5.3855e-07,0,0.0022268,-9.6909e-05,1.9372e+08,59745,0,1.9373e+08,27927,14058,2091.4,0,2091.4,0,0.0010039,2.1456e-05,0,0.00095446,0.00018582,8.5667e+07,3.4875e+06,0,5.7754e+07,2.7705e+06,2091.4,1
5396,8.17,12260,1,12260,1,0.0013997,3.4114e-06,0,0.001434,-0.00025893,1.3759e+08,5.2399e+05,0,1.5146e+08,-5.6776e+05,12259,15904,1,15904,1,0.0031709,0.00014253,0,0.0031709,6.0478e-05,2.0898e+08,2.9408e+07,0,2.0898e+08,2.083e+06,15903,12262,1,12262,1,0.0013832,2.2384e-09,0,0.0013832,-0.00025454,1.8525e+08,290.7,0,1.8525e+08,-492.32,12261,8553,1,8553,1,-0.00031095,-7.7606e-05,0,2.3886e-05,-0.00058747,-1.2633e+08,-1.7929e+07,0,3.7003e+06,-2.6772e+07,8552,10465,1,10465,1,0.00053614,-2.4246e-07,0,0.00053614,-0.00041218,1.098e+08,-34308,0,1.2625e+08,-97240,10464,14059,1,14059,1,0.0022311,5.7021e-07,0,0.0022311,-9.7196e-05,1.9368e+08,64147,0,1.9368e+08,29917,14058,2091.4,0,2091.4,0,0.0010054,2.1524e-05,0,0.0009561,0.00018611,8.5596e+07,3.4928e+06,0,5.7686e+07,2.783e+06,2091.4,1
5396,8.18,12260,1,12260,1,0.0014024,3.4045e-06,0,0.0014367,-0.00025942,1.3769e+08,5.2357e+05,0,1.5154e+08,-5.6615e+05,12259,15904,1,15904,1,0.0031805,0.00014246,0,0.0031805,6.0446e-05,2.0894e+08,2.9443e+07,0,2.0894e+08,2.1563e+06,15903,12262,1,12262,1,0.001386,1.4072e-09,0,0.001386,-0.00025506,1.8563e+08,186.49,0,1.8563e+08,-488.85,12261,8553,1,8553,1,-0.00031072,-7.758e-05,0,2.4585e-05,-0.00058923,-1.2623e+08,-1.7989e+07,0,3.9072e+06,-2.6816e+07,8552,10465,1,10465,1,0.00053768,-2.6013e-07,0,0.00053768,-0.00041295,1.1011e+08,-36752,0,1.2615e+08,-1.0278e+05,10464,14059,1,14059,1,0.0022352,5.9316e-07,0,0.0022352,-9.7481e-05,1.9364e+08,67785,0,1.9365e+08,32321,14058,2091.4,0,2091.4,0,0.001007,2.1597e-05,0,0.00095773,0.00018639,8.5523e+07,3.4982e+06,0,5.7618e+07,2.7957e+06,2091.4,1
5396,8.19,12260,1,12260,1,0.0014052,3.398e-06,0,0.0014394,-0.00025991,1.378e+08,5.232e+05,0,1.5163e+08,-5.6454e+05,12259,15904,1,15904,1,0.0031903,0.0001424,0,0.0031903,6.0417e-05,2.089e+08,2.9479e+07,0,2.089e+08,2.232e+06,15903,12262,1,12262,1,0.0013889,1.9044e-09,0,0.0013889,-0.00025559,1.86e+08,247.88,0,1.86e+08,-535.29,12261,8553,1,8553,1,-0.0003105,-7.7633e-05,0,2.5294e-05,-0.00059103,-1.2614e+08,-1.805e+07,0,4.1173e+06,-2.6862e+07,8552,10465,1,10465,1,0.0005392,-2.8045e-07,0,0.0005392,-0.00041372,1.1043e+08,-39520,0,1.2605e+08,-1.0789e+05,10464,14059,1,14059,1,0.0022394,6.2565e-07,0,0.0022394,-9.7765e-05,1.9358e+08,71502,0,1.9359e+08,34998,14058,2091.4,0,2091.4,0,0.0010086,2.1675e-05,0,0.00095936,0.00018668,8.5453e+07,3.504e+06,0,5.7553e+07,2.8088e+06,2091.4,1
5396,8.2,12260,1,12260,1,0.001408,3.3917e-06,0,0.0014421,-0.0002604,1.3791e+08,5.2287e+05,0,1.5171e+08,-5.6291e+05,12259,15904,1,15904,1,0.0032003,0.00014234,0,0.0032003,6.0389e-05,2.0886e+08,2.9516e+07,0,2.0886e+08,2.3099e+06,15903,12262,1,12262,1,0.0013917,1.3012e-09,0,0.0013918,-0.00025612,1.8635e+08,175.99,0,1.8635e+08,-613.64,12261,8553,1,8553,1,-0.00031028,-7.769e-05,0,2.6016e-05,-0.00059287,-1.2606e+08,-1.8113e+07,0,4.3311e+06,-2.6907e+07,8552,10465,1,10465,1,0.00054075,-3.0272e-07,0,0.00054075,-0.0004145,1.1074e+08,-43116,0,1.2596e+08,-1.1367e+05,10464,14059,1,14059,1,0.0022437,6.6239e-07,0,0.0022437,-9.8051e-05,1.9355e+08,76127,0,1.9355e+08,38014,14058,2091.4,0,2091.4,0,0.0010101,2.1759e-05,0,0.00096101,0.00018697,8.5384e+07,3.5101e+06,0,5.7489e+07,2.8221e+06,2091.4,1
5396,8.21,12260,1,12260,1,0.0014107,3.3852e-06,0,0.0014448,-0.00026089,1.3801e+08,5.225e+05,0,1.5179e+08,-5.6126e+05,12259,15904,1,15904,1,0.0032104,0.00014228,0,0.0032104,6.0359e-05,2.0882e+08,2.9552e+07,0,2.0882e+08,2.3902e+06,15903,12262,1,12262,1,0.0013946,2.0448e-09,0,0.0013946,-0.00025665,1.8648e+08,288.5,0,1.8648e+08,-611.63,12261,8553,1,8553,1,-0.00031005,-7.7741e-05,0,2.6744e-05,-0.00059473,-1.2596e+08,-1.8175e+07,0,4.5462e+06,-2.6954e+07,8552,10465,1,10465,1,0.00054228,-3.2472e-07,0,0.00054228,-0.00041526,1.1106e+08,-45104,0,1.2586e+08,-1.1952e+05,10464,14059,1,14059,1,0.002248,6.9236e-07,0,0.002248,-9.8337e-05,1.9352e+08,81243,0,1.9353e+08,41669,14058,2091.4,0,2091.4,0,0.0010117,2.185e-05,0,0.00096264,0.00018726,8.5313e+07,3.5163e+06,0,5.7424e+07,2.8359e+06,2091.4,1
5396,8.22,12260,1,12260,1,0.0014135,3.3787e-06,0,0.0014475,-0.00026138,1.3812e+08,5.2214e+05,0,1.5187e+08,-5.5963e+05,12259,15904,1,15904,1,0.0032208,0.00014223,0,0.0032208,6.0331e-05,2.0878e+08,2.9589e+07,0,2.0878e+08,2.4733e+06,15903,12262,1,12262,1,0.0013974,2.3326e-09,0,0.0013974,-0.00025717,1.8666e+08,311.35,0,1.8666e+08,-661.59,12261,8553,1,8553,1,-0.00030983,-7.7796e-05,0,2.7482e-05,-0.00059664,-1.2587e+08,-1.8239e+07,0,4.7642e+06,-2.7002e+07,8552,10465,1,10465,1,0.00054381,-3.4703e-07,0,0.00054381,-0.00041604,1.1137e+08,-48278,0,1.2576e+08,-1.2584e+05,10464,14059,1,14059,1,0.0022522,7.5484e-07,0,0.0022522,-9.8621e-05,1.9383e+08,86961,0,1.9383e+08,44651,14058,2091.4,0,2091.4,0,0.0010133,2.1947e-05,0,0.00096429,0.00018755,8.5244e+07,3.523e+06,0,5.7361e+07,2.8501e+06,2091.4,1
5396,8.23,12260,1,12260,1,0.0014163,3.372e-06,0,0.0014503,-0.00026187,1.3822e+08,5.2177e+05,0,1.5195e+08,-5.5796e+05,12259,15904,1,15904,1,0.0032313,0.0001422,0,0.0032313,6.0304e-05,2.0874e+08,2.9626e+07,0,2.0874e+08,2.5595e+06,15903,12262,1,12262,1,0.0014003,2.7482e-09,0,0.0014003,-0.0002577,1.8647e+08,353.76,0,1.8647e+08,-745.41,12261,8553,1,8553,1,-0.00030961,-7.785e-05,0,2.8231e-05,-0.00059858,-1.2578e+08,-1.8303e+07,0,4.9853e+06,-2.705e+07,8552,10465,1,10465,1,0.00054535,-3.7546e-07,0,0.00054535,-0.00041681,1.1168e+08,-51285,0,1.2567e+08,-1.323e+05,10464,14059,1,14059,1,0.0022564,7.9781e-07,0,0.0022564,-9.8907e-05,1.9375e+08,93133,0,1.9375e+08,48131,14058,2091.4,0,2091.4,0,0.0010148,2.2051e-05,0,0.00096594,0.00018784,8.5175e+07,3.53e+06,0,5.7299e+07,2.8646e+06,2091.4,1
5396,8.24,12260,1,12260,1,0.0014191,3.3652e-06,0,0.001453,-0.00026236,1.3833e+08,5.2137e+05,0,1.5203e+08,-5.5626e+05,12259,15904,1,15904,1,0.0032421,0.00014215,0,0.0032421,6.0277e-05,2.087e+08,2.9663e+07,0,2.087e+08,2.6487e+06,15903,12262,1,12262,1,0.0014031,2.8059e-09,0,0.0014031,-0.00025823,1.8626e+08,387.3,0,1.8628e+08,-812.35,12261,8553,1,8553,1,-0.00030938,-7.7897e-05,0,2.8987e-05,-0.00060057,-1.2569e+08,-1.8367e+07,0,5.2006e+06,-2.7099e+07,8552,10465,1,10465,1,0.00054687,-4.0122e-07,0,0.00054687,-0.00041758,1.1199e+08,-54420,0,1.2557e+08,-1.403e+05,10464,14059,1,14059,1,0.0022605,8.3794e-07,0,0.0022605,-9.9188e-05,1.9376e+08,97426,0,1.9376e+08,51879,14058,2091.4,0,2091.4,0,0.0010164,2.2162e-05,0,0.00096759,0.00018813,8.5105e+07,3.5371e+06,0,5.7237e+07,2.8798e+06,2091.4,1
5396,8.25,12260,1,12260,1,0.0014219,3.3589e-06,0,0.0014557,-0.00026285,1.3843e+08,5.2105e+05,0,1.5211e+08,-5.5456e+05,12259,15904,1,15904,1,0.0032531,0.00014212,0,0.0032531,6.0253e-05,2.0866e+08,2.97e+07,0,2.0866e+08,2.741e+06,15903,12262,1,12262,1,0.0014059,4.3081e-09,0,0.0014059,-0.00025875,1.8595e+08,543.41,0,1.8595e+08,-928.92,12261,8553,1,8553,1,-0.00030917,-7.7953e-05,0,2.9756e-05,-0.0006026,-1.2561e+08,-1.8433e+07,0,5.4176e+06,-2.7148e+07,8552,10465,1,10465,1,0.0005484,-4.2493e-07,0,0.0005484,-0.00041835,1.1231e+08,-57775,0,1.2547e+08,-1.461e+05,10464,14059,1,14059,1,0.0022648,8.7734e-07,0,0.0022648,-9.9474e-05,1.9355e+08,1.0331e+05,0,1.9355e+08,55887,14058,2091.4,0,2091.4,0,0.001018,2.2282e-05,0,0.00096925,0.00018842,8.5038e+07,3.5446e+06,0,5.7178e+07,2.8953e+06,2091.4,1
5396,8.26,12260,1,12260,1,0.0014247,3.3518e-06,0,0.0014585,-0.00026334,1.3854e+08,5.2063e+05,0,1.5219e+08,-5.5284e+05,12259,15904,1,15904,1,0.0032645,0.00014208,0,0.0032645,6.0228e-05,2.0862e+08,2.9737e+07,0,2.0862e+08,2.8362e+06,15903,12262,1,12262,1,0.0014088,4.0153e-09,0,0.0014088,-0.00025928,1.8574e+08,534.36,0,1.8574e+08,-980.44,12261,8553,1,8553,1,-0.00030894,-7.8007e-05,0,3.0537e-05,-0.00060469,-1.2552e+08,-1.8499e+07,0,5.6379e+06,-2.7198e+07,8552,10465,1,10465,1,0.00054993,-4.5466e-07,0,0.00054993,-0.00041911,1.1262e+08,-61254,0,1.2537e+08,-1.5223e+05,10464,14059,1,14059,1,0.0022691,9.1297e-07,0,0.0022691,-9.9758e-05,1.9326e+08,1.1033e+05,0,1.9326e+08,59492,14058,2091.4,0,2091.4,0,0.0010196,2.2409e-05,0,0.0009709,0.00018871,8.497e+07,3.5525e+06,0,5.7118e+07,2.9113e+06,2091.4,1
5396,8.27,12260,1,12260,1,0.0014275,3.3447e-06,0,0.0014612,-0.00026382,1.3864e+08,5.2022e+05,0,1.5227e+08,-5.5111e+05,12259,15904,1,15904,1,0.0032761,0.00014203,0,0.0032761,6.0205e-05,2.0858e+08,2.9775e+07,0,2.0858e+08,2.935e+06,15903,12262,1,12262,1,0.0014116,5.9863e-09,0,0.0014116,-0.0002598,1.8552e+08,731.64,0,1.8559e+08,-1080.6,12261,8553,1,8553,1,-0.00030872,-7.806e-05,0,3.133e-05,-0.00060683,-1.2543e+08,-1.8566e+07,0,5.8611e+06,-2.7248e+07,8552,10465,1,10465,1,0.00055146,-4.8883e-07,0,0.00055146,-0.00041989,1.1293e+08,-64897,0,1.2527e+08,-1.5968e+05,10464,14059,1,14059,1,0.0022734,9.7659e-07,0,0.0022734,-0.00010004,1.9295e+08,1.1716e+05,0,1.9296e+08,64185,14058,2091.4,0,2091.4,0,0.0010212,2.2545e-05,0,0.00097257,0.000189,8.4902e+07,3.5607e+06,0,5.706e+07,2.9279e+06,2091.4,1
5396,8.28,12260,1,12260,1,0.0014303,3.3377e-06,0,0.0014639,-0.00026431,1.3875e+08,5.1982e+05,0,1.5235e+08,-5.4936e+05,12259,15904,1,15904,1,0.003288,0.00014199,0,0.003288,6.0182e-05,2.0853e+08,2.9813e+07,0,2.0853e+08,3.0377e+06,15903,12262,1,12262,1,0.0014144,5.367e-09,0,0.0014144,-0.00026032,1.8527e+08,677.47,0,1.8528e+08,-1155,12261,8553,1,8553,1,-0.0003085,-7.8111e-05,0,3.2122e-05,-0.00060903,-1.2534e+08,-1.8634e+07,0,6.0876e+06,-2.73e+07,8552,10465,1,10465,1,0.00055297,-5.2796e-07,0,0.00055297,-0.00042066,1.1324e+08,-68406,0,1.2517e+08,-1.6698e+05,10464,14059,1,14059,1,0.0022776,1.0215e-06,0,0.0022776,-0.00010033,1.9307e+08,1.2427e+05,0,1.9307e+08,69138,14058,2091.4,0,2091.4,0,0.0010228,2.269e-05,0,0.00097423,0.00018929,8.4835e+07,3.5694e+06,0,5.7002e+07,2.945e+06,2091.4,1
5396,8.29,12260,1,12260,1,0.0014331,3.3308e-06,0,0.0014667,-0.0002648,1.3885e+08,5.1944e+05,0,1.5243e+08,-5.476e+05,12259,15904,1,15904,1,0.0033004,0.00014195,0,0.0033004,6.0163e-05,2.0848e+08,2.9851e+07,0,2.0848e+08,3.1455e+06,15903,12262,1,12262,1,0.0014173,1.0364e-08,0,0.0014173,-0.00026085,1.8495e+08,1316.8,0,1.8498e+08,-1270.2,12261,8553,1,8553,1,-0.00030829,-7.8176e-05,0,3.2925e-05,-0.0006113,-1.2526e+08,-1.8706e+07,0,6.3196e+06,-2.7353e+07,8552,10465,1,10465,1,0.0005545,-5.6789e-07,0,0.0005545,-0.00042144,1.1356e+08,-73623,0,1.2507e+08,-1.7273e+05,10464,14059,1,14059,1,0.0022818,1.0843e-06,0,0.0022818,-0.00010061,1.932e+08,1.3497e+05,0,1.9321e+08,74368,14058,2091.4,0,2091.4,0,0.0010244,2.2845e-05,0,0.00097591,0.00018959,8.4769e+07,3.5785e+06,0,5.6946e+07,2.963e+06,2091.4,1
5396,8.3,12260,1,12260,1,0.0014359,3.3215e-06,0,0.0014695,-0.00026528,1.3895e+08,5.1875e+05,0,1.5251e+08,-5.4579e+05,12259,15904,1,15904,1,0.0033135,0.00014191,0,0.0033135,6.0142e-05,2.0844e+08,2.9892e+07,0,2.0844e+08,3.2655e+06,15903,12262,1,12262,1,0.0014201,2.7024e-09,0,0.0014201,-0.00026137,1.8496e+08,364.6,0,1.8499e+08,-1386.7,12261,8553,1,8553,1,-0.00030806,-7.8206e-05,0,3.3764e-05,-0.00061371,-1.2517e+08,-1.8773e+07,0,6.5605e+06,-2.7409e+07,8552,10465,1,10465,1,0.000556,-6.106e-07,0,0.000556,-0.0004222,1.1386e+08,-78595,0,1.2496e+08,-1.8429e+05,10464,14059,1,14059,1,0.002286,1.1313e-06,0,0.002286,-0.0001009,1.9336e+08,1.3868e+05,0,1.9337e+08,79883,14058,2091.4,0,2091.4,0,0.001026,2.3016e-05,0,0.00097759,0.00018988,8.4699e+07,3.5884e+06,0,5.6888e+07,2.9823e+06,2091.4,1
5396,8.31,12260,1,12260,1,0.0014387,3.3154e-06,0,0.0014722,-0.00026577,1.3906e+08,5.1849e+05,0,1.5258e+08,-5.4392e+05,12259,15904,1,15904,1,0.0033276,0.00014185,0,0.0033276,6.0123e-05,2.0838e+08,2.993e+07,0,2.0838e+08,3.3985e+06,15903,12262,1,12262,1,0.0014228,7.9656e-09,0,0.0014228,-0.00026188,1.8472e+08,1025.9,0,1.8472e+08,-1491.9,12261,8553,1,8553,1,-0.00030784,-7.8255e-05,0,3.4655e-05,-0.00061631,-1.2508e+08,-1.8846e+07,0,6.8154e+06,-2.7464e+07,8552,10465,1,10465,1,0.00055748,-6.6176e-07,0,0.00055748,-0.00042295,1.1417e+08,-84355,0,1.2486e+08,-1.9132e+05,10464,14059,1,14059,1,0.0022901,1.1632e-06,0,0.0022901,-0.00010117,1.934e+08,1.4811e+05,0,1.9343e+08,86104,14058,2091.4,0,2091.4,0,0.0010276,2.3201e-05,0,0.00097928,0.00019018,8.463e+07,3.5987e+06,0,5.683e+07,3.003e+06,2091.4,1
5396,8.32,12260,1,12260,1,0.0014415,3.307e-06,0,0.001475,-0.00026624,1.3915e+08,5.1795e+05,0,1.5266e+08,-5.4198e+05,12259,15904,1,15904,1,0.003343,0.00014178,0,0.003343,6.0104e-05,2.0835e+08,2.9968e+07,0,2.0835e+08,3.5455e+06,15903,12262,1,12262,1,0.0014254,6.8478e-09,0,0.0014254,-0.00026237,1.8436e+08,936.22,0,1.8436e+08,-1574,12261,8553,1,8553,1,-0.00030761,-7.8281e-05,0,3.5595e-05,-0.00061914,-1.2499e+08,-1.8918e+07,0,7.0833e+06,-2.7524e+07,8552,10465,1,10465,1,0.00055891,-7.113e-07,0,0.00055891,-0.00042365,1.1446e+08,-89159,0,1.2476e+08,-1.9916e+05,10464,14059,1,14059,1,0.002294,1.2594e-06,0,0.002294,-0.00010143,1.935e+08,1.5728e+05,0,1.9352e+08,92452,14058,2091.4,0,2091.4,0,0.0010292,2.3411e-05,0,0.00098097,0.00019047,8.4558e+07,3.61e+06,0,5.6771e+07,3.0261e+06,2091.4,1
5396,8.33,12260,1,12260,1,0.0014444,3.2992e-06,0,0.0014778,-0.00026673,1.3926e+08,5.1751e+05,0,1.5273e+08,-5.4005e+05,12259,15904,1,15904,1,0.0033597,0.00014173,0,0.0033597,6.0093e-05,2.0829e+08,3.001e+07,0,2.0829e+08,3.7111e+06,15903,12262,1,12262,1,0.0014281,9.2092e-09,0,0.0014281,-0.00026287,1.8417e+08,1234.1,0,1.8418e+08,-1753.2,12261,8553,1,8553,1,-0.00030741,-7.8326e-05,0,3.6604e-05,-0.00062221,-1.2491e+08,-1.8997e+07,0,7.3698e+06,-2.7588e+07,8552,10465,1,10465,1,0.00056034,-7.6063e-07,0,0.00056034,-0.00042437,1.1475e+08,-94886,0,1.2466e+08,-2.0991e+05,10464,14059,1,14059,1,0.0022978,1.3143e-06,0,0.0022979,-0.0001017,1.9347e+08,1.6599e+05,0,1.9351e+08,98700,14058,2091.4,0,2091.4,0,0.0010308,2.3652e-05,0,0.0009827,0.00019077,8.4491e+07,3.6231e+06,0,5.6716e+07,3.0517e+06,2091.4,1
5396,8.34,12260,1,12260,1,0.0014473,3.2899e-06,0,0.0014806,-0.0002672,1.3936e+08,5.1687e+05,0,1.528e+08,-5.3801e+05,12259,15904,1,15904,1,0.0033779,0.00014166,0,0.0033779,6.008e-05,2.0825e+08,3.0052e+07,0,2.0825e+08,3.894e+06,15903,12262,1,12262,1,0.0014307,6.6958e-09,0,0.0014307,-0.00026334,1.8387e+08,919.09,0,1.8387e+08,-1845.1,12261,8553,1,8553,1,-0.0003072,-7.8349e-05,0,3.768e-05,-0.00062557,-1.2482e+08,-1.9077e+07,0,7.6742e+06,-2.7656e+07,8552,10465,1,10465,1,0.00056172,-8.2084e-07,0,0.00056172,-0.00042507,1.1503e+08,-1.0099e+05,0,1.2456e+08,-2.2452e+05,10464,14059,1,14059,1,0.0023017,1.418e-06,0,0.0023017,-0.00010196,1.9338e+08,1.7652e+05,0,1.9339e+08,1.0599e+05,14058,2091.4,0,2091.4,0,0.0010325,2.3927e-05,0,0.00098443,0.00019107,8.4417e+07,3.6376e+06,0,5.6657e+07,3.0802e+06,2091.4,1
5396,8.35,12260,1,12260,1,0.0014502,3.2816e-06,0,0.0014834,-0.00026768,1.3946e+08,5.1638e+05,0,1.5288e+08,-5.3594e+05,12259,15904,1,15904,1,0.0033978,0.00014159,0,0.0033978,6.0073e-05,2.0819e+08,3.0096e+07,0,2.0819e+08,4.097e+06,15903,12262,1,12262,1,0.0014333,1.1268e-08,0,0.0014333,-0.00026381,1.8356e+08,1424.6,0,1.836e+08,-2083.7,12261,8553,1,8553,1,-0.000307,-7.8452e-05,0,3.8838e-05,-0.00062923,-1.2474e+08,-1.9163e+07,0,7.9837e+06,-2.7729e+07,8552,10465,1,10465,1,0.00056306,-8.8519e-07,0,0.00056306,-0.00042577,1.1531e+08,-1.0613e+05,0,1.2446e+08,-2.3603e+05,10464,14059,1,14059,1,0.0023056,1.5185e-06,0,0.0023056,-0.00010221,1.932e+08,1.9071e+05,0,1.932e+08,1.1442e+05,14058,2091.4,0,2091.4,0,0.0010342,2.4242e-05,0,0.0009862,0.00019137,8.4346e+07,3.6539e+06,0,5.66e+07,3.1121e+06,2091.4,1
5396,8.36,12260,1,12260,1,0.0014531,3.2723e-06,0,0.0014862,-0.00026815,1.3955e+08,5.1581e+05,0,1.5295e+08,-5.3374e+05,12259,15904,1,15904,1,0.0034195,0.00014151,0,0.0034195,6.0067e-05,2.0813e+08,3.0139e+07,0,2.0813e+08,4.322e+06,15903,12262,1,12262,1,0.0014357,1.154e-08,0,0.0014357,-0.00026426,1.8372e+08,1496.8,0,1.8372e+08,-2339,12261,8553,1,8553,1,-0.00030679,-8.0999e-05,0,4.007e-05,-0.00063323,-1.2466e+08,-1.925e+07,0,8.3126e+06,-2.7807e+07,8552,10465,1,10465,1,0.00056436,-9.591e-07,0,0.00056436,-0.00042643,1.1557e+08,-1.1369e+05,0,1.2436e+08,-2.449e+05,10464,14059,1,14059,1,0.0023093,1.612e-06,0,0.0023093,-0.00010246,1.9304e+08,2.0284e+05,0,1.9304e+08,1.2192e+05,14058,2091.4,0,2091.4,0,0.0010359,2.4604e-05,0,0.00098798,0.00019167,8.4272e+07,3.6722e+06,0,5.6541e+07,3.1477e+06,2091.4,1
5396,8.37,12260,1,12260,1,0.001456,3.2618e-06,0,0.0014891,-0.00026862,1.3965e+08,5.1509e+05,0,1.5302e+08,-5.3147e+05,12259,15904,1,15904,1,0.0034434,0.00014142,0,0.0034434,6.0067e-05,2.0806e+08,3.0184e+07,0,2.0806e+08,4.5716e+06,15903,12262,1,12262,1,0.001438,1.3626e-08,0,0.001438,-0.00026469,1.8366e+08,1691.2,0,1.8366e+08,-2651.6,12261,8553,1,8553,1,-0.0003066,-8.4326e-05,0,4.1094e-05,-0.00063761,-1.2459e+08,-1.9343e+07,0,8.665e+06,-2.7891e+07,8552,10465,1,10465,1,0.00056561,-1.0351e-06,0,0.00056561,-0.00042707,1.1583e+08,-1.2229e+05,0,1.2427e+08,-2.5892e+05,10464,14059,1,14059,1,0.0023126,1.7282e-06,0,0.0023126,-0.00010269,1.9295e+08,2.1938e+05,0,1.9296e+08,1.3123e+05,14058,2091.4,0,2091.4,0,0.0010376,2.5022e-05,0,0.00098978,0.00019198,8.4198e+07,3.6931e+06,0,5.6483e+07,3.1877e+06,2091.4,1
5396,8.38,12260,1,12260,1,0.0014589,3.2519e-06,0,0.0014919,-0.00026908,1.3974e+08,5.1448e+05,0,1.5308e+08,-5.2909e+05,12259,15904,1,15904,1,0.0034695,0.00014132,0,0.0034695,6.0071e-05,2.08e+08,3.0231e+07,0,2.08e+08,4.8485e+06,15903,12262,1,12262,1,0.0014401,1.6787e-08,0,0.0014401,-0.0002651,1.8341e+08,2160.9,0,1.8341e+08,-2901.6,12261,8553,1,8553,1,-0.00030642,-8.7957e-05,0,4.1593e-05,-0.00064242,-1.2452e+08,-1.9442e+07,0,9.0438e+06,-2.7983e+07,8552,10465,1,10465,1,0.00056678,-1.1155e-06,0,0.00056678,-0.00042769,1.1607e+08,-1.3014e+05,0,1.2417e+08,-2.8166e+05,10464,14059,1,14059,1,0.0023157,1.8828e-06,0,0.002316,-0.00010293,1.9305e+08,2.3655e+05,0,1.9305e+08,1.415e+05,14058,2091.4,0,2091.4,0,0.0010393,2.5504e-05,0,0.00099161,0.00019228,8.4123e+07,3.7169e+06,0,5.6426e+07,3.2326e+06,2091.4,1
5396,8.39,12260,1,12260,1,0.0014618,3.2395e-06,0,0.0014948,-0.00026953,1.3983e+08,5.1359e+05,0,1.5315e+08,-5.2652e+05,12259,15904,1,15904,1,0.0034984,0.00014122,0,0.0034984,6.0079e-05,2.0792e+08,3.0281e+07,0,2.0792e+08,5.1573e+06,15903,12262,1,12262,1,0.0014422,1.5902e-08,0,0.0014422,-0.00026549,1.8317e+08,2085.3,0,1.8317e+08,-3172.5,12261,8553,1,8553,1,-0.00030625,-9.1913e-05,0,4.2055e-05,-0.00064775,-1.2445e+08,-1.9545e+07,0,9.2551e+06,-2.8079e+07,8552,10465,1,10465,1,0.00056787,-1.2202e-06,0,0.00056787,-0.00042822,1.1629e+08,-1.415e+05,0,1.2408e+08,-3.0423e+05,10464,14059,1,14059,1,0.0023193,1.9278e-06,0,0.0023194,-0.00010315,1.932e+08,2.5008e+05,0,1.9321e+08,1.5208e+05,14058,2091.4,0,2091.4,0,0.0010411,2.6062e-05,0,0.00099349,0.00019259,8.4047e+07,3.7444e+06,0,5.6367e+07,3.283e+06,2091.4,1
5396,8.4,12260,1,12260,1,0.0014648,3.227e-06,0,0.0014977,-0.00026999,1.3993e+08,5.1274e+05,0,1.5321e+08,-5.2385e+05,12259,15904,1,15904,1,0.003531,0.00014112,0,0.003531,6.0091e-05,2.0782e+08,3.0344e+07,0,2.0782e+08,5.5108e+06,15903,12262,1,12262,1,0.0014441,1.4167e-08,0,0.0014441,-0.00026584,1.8295e+08,1958.2,0,1.8295e+08,-3421.1,12261,8553,1,8553,1,-0.00030608,-9.6239e-05,0,4.2493e-05,-0.00065374,-1.2439e+08,-1.9658e+07,0,9.3781e+06,-2.8186e+07,8552,10465,1,10465,1,0.00056888,-1.3107e-06,0,0.00056888,-0.00042875,1.165e+08,-1.5255e+05,0,1.2399e+08,-3.3386e+05,10464,14059,1,14059,1,0.002322,2.0704e-06,0,0.002322,-0.00010336,1.9339e+08,2.6779e+05,0,1.9339e+08,1.6302e+05,14058,2091.4,0,2091.4,0,0.0010429,2.6709e-05,0,0.00099544,0.00019292,8.3968e+07,3.7766e+06,0,5.6307e+07,3.3406e+06,2091.4,1
5396,8.41,12260,1,12260,1,0.0014679,3.2132e-06,0,0.0015007,-0.00027044,1.4001e+08,5.1177e+05,0,1.5326e+08,-5.2085e+05,12259,15904,1,15904,1,0.0035684,0.00014098,0,0.0035685,6.01e-05,2.077e+08,3.0406e+07,0,2.077e+08,5.9136e+06,15903,12262,1,12262,1,0.0014457,1.9568e-08,0,0.0014457,-0.00026615,1.8272e+08,2465.2,0,1.8272e+08,-3882.1,12261,8553,1,8553,1,-0.0003059,-0.00010109,0,4.2907e-05,-0.00066065,-1.2431e+08,-1.978e+07,0,9.4926e+06,-2.8302e+07,8552,10465,1,10465,1,0.00056981,-1.4067e-06,0,0.00056981,-0.00042922,1.1668e+08,-1.6276e+05,0,1.239e+08,-3.6528e+05,10464,14059,1,14059,1,0.0023259,2.2354e-06,0,0.0023261,-0.00010353,1.9352e+08,2.8237e+05,0,1.9352e+08,1.7563e+05,14058,2091.4,0,2091.4,0,0.0010449,2.7471e-05,0,0.00099747,0.00019324,8.3879e+07,3.8141e+06,0,5.6241e+07,3.4069e+06,2091.4,1
5396,8.42,12260,1,12260,1,0.001471,3.198e-06,0,0.0015038,-0.00027088,1.4009e+08,5.107e+05,0,1.5331e+08,-5.1758e+05,12259,15904,1,15904,1,0.0036124,0.00014083,0,0.0036124,6.0109e-05,2.079e+08,3.0475e+07,0,2.079e+08,6.3761e+06,15903,12262,1,12262,1,0.0014472,2.0808e-08,0,0.0014473,-0.00026642,1.8252e+08,2701.5,0,1.8252e+08,-4361.9,12261,8553,1,8553,1,-0.00030572,-0.00010656,0,4.3276e-05,-0.00066874,-1.2424e+08,-1.9913e+07,0,9.5942e+06,-2.8433e+07,8552,10465,1,10465,1,0.00057055,-1.5107e-06,0,0.00057055,-0.00042962,1.1683e+08,-1.7776e+05,0,1.2384e+08,-4.0374e+05,10464,14059,1,14059,1,0.0023295,2.3834e-06,0,0.0023295,-0.0001037,1.9368e+08,3.0022e+05,0,1.9368e+08,1.8284e+05,14058,2091.4,0,2091.4,0,0.0010469,2.8382e-05,0,0.0009996,0.00019358,8.3785e+07,3.8589e+06,0,5.6173e+07,3.4844e+06,2091.4,1
5396,8.43,12260,1,12260,1,0.0014742,3.1809e-06,0,0.0015069,-0.00027132,1.4017e+08,5.0947e+05,0,1.5335e+08,-5.1393e+05,12259,15904,1,15904,1,0.0036634,0.00014065,0,0.0036634,6.0115e-05,2.0882e+08,3.055e+07,0,2.0882e+08,6.9093e+06,15903,12262,1,12262,1,0.0014482,2.0804e-08,0,0.0014483,-0.00026662,1.8236e+08,2630.9,0,1.8236e+08,-5909.2,12261,8553,1,8553,1,-0.00030555,-0.00011298,0,4.3593e-05,-0.00067814,-1.2417e+08,-2.0063e+07,0,9.6843e+06,-2.858e+07,8552,10465,1,10465,1,0.00057117,-1.6226e-06,0,0.00057118,-0.0004299,1.1693e+08,-1.8516e+05,0,1.2378e+08,-4.5818e+05,10464,14059,1,14059,1,0.0023321,2.521e-06,0,0.0023321,-0.00010381,1.9372e+08,3.1668e+05,0,1.9372e+08,1.8942e+05,14058,2091.4,0,2091.4,0,0.001049,2.9479e-05,0,0.0010019,0.00019392,8.3686e+07,3.9132e+06,0,5.6102e+07,3.5752e+06,2091.4,1
5396,8.44,12260,1,12260,1,0.0014775,3.1609e-06,0,0.0015101,-0.00027173,1.4023e+08,5.0798e+05,0,1.5338e+08,-5.0976e+05,12259,15904,1,15904,1,0.0037233,0.00014042,0,0.0037233,6.0114e-05,2.0985e+08,3.063e+07,0,2.0985e+08,7.5332e+06,15903,12262,1,12262,1,0.0014489,2.4391e-08,0,0.001449,-0.00026672,1.8218e+08,2756,0,1.8218e+08,-7454.7,12261,8553,1,8553,1,-0.00030536,-0.00012055,0,4.3863e-05,-0.00068915,-1.241e+08,-2.0227e+07,0,9.7623e+06,-2.8745e+07,8552,10465,1,10465,1,0.0005715,-1.6932e-06,0,0.0005715,-0.00043008,1.17e+08,-1.9062e+05,0,1.2372e+08,-5.122e+05,10464,14059,1,14059,1,0.0023338,2.6419e-06,0,0.0023338,-0.00010387,1.9364e+08,3.4048e+05,0,1.9364e+08,1.9359e+05,14058,2091.4,0,2091.4,0,0.0010513,3.0809e-05,0,0.0010043,0.00019428,8.3577e+07,3.9789e+06,0,5.6026e+07,3.6824e+06,2091.4,1
5396,8.45,12260,1,12260,1,0.0014809,3.1387e-06,0,0.0015135,-0.00027214,1.4029e+08,5.0633e+05,0,1.534e+08,-5.0508e+05,12259,15904,1,15904,1,0.0037943,0.00014017,0,0.0037943,6.0102e-05,2.11e+08,3.072e+07,0,2.11e+08,8.2767e+06,15903,12262,1,12262,1,0.001449,2.7303e-08,0,0.0014491,-0.00026671,1.8205e+08,3235.9,0,1.8205e+08,-9030.7,12261,8553,1,8553,1,-0.00030517,-0.00012934,0,4.4066e-05,-0.00070222,-1.2402e+08,-2.0413e+07,0,9.8228e+06,-2.8936e+07,8552,10465,1,10465,1,0.00057156,-1.7865e-06,0,0.00057162,-0.00043011,1.17e+08,-2.0515e+05,0,1.2368e+08,-5.6694e+05,10464,14059,1,14059,1,0.0023346,2.8278e-06,0,0.0023346,-0.0001039,1.9354e+08,3.5854e+05,0,1.9354e+08,1.9682e+05,14058,2091.4,0,2091.4,0,0.0010538,3.2432e-05,0,0.001007,0.00019466,8.346e+07,4.0598e+06,0,5.5948e+07,3.8099e+06,2091.4,1
5396,8.46,12260,1,12260,1,0.0014845,3.1128e-06,0,0.001517,-0.00027254,1.4033e+08,5.0438e+05,0,1.534e+08,-4.9963e+05,12259,15904,1,15904,1,0.0038804,0.00013986,0,0.0038804,6.0058e-05,2.1222e+08,3.0819e+07,0,2.1223e+08,9.1684e+06,15903,12262,1,12262,1,0.0014484,2.5915e-08,0,0.0014484,-0.00026658,1.8191e+08,3093.6,0,1.8191e+08,-10134,12261,8553,1,8553,1,-0.00030495,-0.00013961,0,4.4213e-05,-0.00071808,-1.2393e+08,-2.0625e+07,0,9.871e+06,-2.9156e+07,8552,10465,1,10465,1,0.00057144,-1.8145e-06,0,0.00057144,-0.00042989,1.1696e+08,-2.088e+05,0,1.2361e+08,-6.2631e+05,10464,14059,1,14059,1,0.0023339,3.0865e-06,0,0.0023341,-0.00010389,1.9343e+08,3.6415e+05,0,1.9343e+08,1.9155e+05,14058,2091.4,0,2091.4,0,0.0010567,3.443e-05,0,0.0010101,0.00019507,8.3319e+07,4.1602e+06,0,5.5858e+07,3.9643e+06,2091.4,1
5396,8.47,12260,1,12260,1,0.0014886,3.0812e-06,0,0.001521,-0.00027294,1.4035e+08,5.019e+05,0,1.5336e+08,-4.9319e+05,12259,15904,1,15904,1,0.0039866,0.00015189,0,0.0039866,5.9985e-05,2.1357e+08,3.0927e+07,0,2.1357e+08,1.0245e+07,15903,12262,1,12262,1,0.0014472,2.6321e-08,0,0.0014472,-0.00026635,1.8166e+08,3114.1,0,1.8167e+08,-12078,12261,8553,1,8553,1,-0.00030462,-0.0001519,0,4.4332e-05,-0.00073765,-1.2379e+08,-2.087e+07,0,9.9164e+06,-2.9412e+07,8552,10465,1,10465,1,0.00057102,-1.8056e-06,0,0.00057102,-0.0004295,1.1689e+08,-2.1117e+05,0,1.235e+08,-7.008e+05,10464,14059,1,14059,1,0.0023332,3.2339e-06,0,0.0023376,-0.00010382,1.9328e+08,3.6886e+05,0,1.9328e+08,1.8459e+05,14058,2091.4,0,2091.4,0,0.0010601,3.6951e-05,0,0.0010137,0.00019554,8.3137e+07,4.2878e+06,0,5.5748e+07,4.1552e+06,2091.4,1
5396,8.48,12260,1,12260,1,0.0014931,3.0426e-06,0,0.0015253,-0.00027333,1.4033e+08,4.9875e+05,0,1.5327e+08,-4.855e+05,12259,15904,1,15904,1,0.0041199,0.00016782,0,0.0041199,5.9886e-05,2.1508e+08,3.1046e+07,0,2.1508e+08,1.1558e+07,15903,12262,1,12262,1,0.0014464,2.6531e-08,0,0.0014464,-0.00026599,1.8142e+08,3009,0,1.8142e+08,-13197,12261,8553,1,8553,1,-0.00030416,-0.00016782,0,4.4438e-05,-0.00076219,-1.236e+08,-2.1154e+07,0,9.9571e+06,-2.9713e+07,8552,10465,1,10465,1,0.00057036,-1.8494e-06,0,0.00057036,-0.00042896,1.1675e+08,-2.1753e+05,0,1.2334e+08,-7.7453e+05,10464,14059,1,14059,1,0.0023573,3.3935e-06,0,0.0023594,-0.00010362,1.9302e+08,3.6941e+05,0,1.9302e+08,1.767e+05,14058,2091.4,0,2091.4,0,0.0010642,4.0174e-05,0,0.0010182,0.00019607,8.2907e+07,4.4523e+06,0,5.5616e+07,4.3941e+06,2091.4,1
5396,8.49,12260,1,12260,1,0.0014983,2.9971e-06,0,0.0015304,-0.00027371,1.4028e+08,4.9504e+05,0,1.5313e+08,-4.7625e+05,12259,15904,1,15904,1,0.0042914,0.00018736,0,0.0042914,5.9752e-05,2.1741e+08,3.1181e+07,0,2.1741e+08,1.3178e+07,15903,12262,1,12262,1,0.0014475,2.7047e-08,0,0.0014478,-0.00026549,1.8106e+08,3270.6,0,1.8107e+08,-15039,12261,8553,1,8553,1,-0.00030354,-0.00018736,0,4.4529e-05,-0.00079376,-1.2334e+08,-2.1492e+07,0,9.9959e+06,-3.0069e+07,8552,10465,1,10465,1,0.00056935,-1.8766e-06,0,0.00056941,-0.00042821,1.1656e+08,-2.1377e+05,0,1.2311e+08,-8.5625e+05,10464,14059,1,14059,1,0.0023837,3.5518e-06,0,0.0023862,-0.00010341,1.9266e+08,3.7007e+05,0,1.9266e+08,1.6831e+05,14058,2091.4,0,2091.4,0,0.0010694,4.4333e-05,0,0.0010239,0.00019671,8.2616e+07,4.6663e+06,0,5.546e+07,4.6965e+06,2091.4,1
5396,8.5,12260,1,12260,1,0.0015042,2.9377e-06,0,0.0015362,-0.00027404,1.4015e+08,4.8993e+05,0,1.5288e+08,-4.649e+05,12259,15904,1,15904,1,0.0045194,0.00021294,0,0.0045194,5.9559e-05,2.2036e+08,3.1331e+07,0,2.2036e+08,1.5235e+07,15903,12262,1,12262,1,0.0014549,2.9159e-08,0,0.001455,-0.00026485,1.8055e+08,3246.5,0,1.8055e+08,-17431,12261,8553,1,8553,1,-0.00030264,-0.00021292,0,4.4583e-05,-0.00083563,-1.2297e+08,-2.189e+07,0,1.0028e+07,-3.051e+07,8552,10465,1,10465,1,0.00056785,-1.9546e-06,0,0.00056789,-0.0004272,1.1626e+08,-2.1589e+05,0,1.2276e+08,-9.8436e+05,10464,14059,1,14059,1,0.0023964,3.6073e-06,0,0.0024006,-0.0001031,1.9211e+08,3.6367e+05,0,1.9211e+08,1.5903e+05,14058,2091.4,0,2091.4,0,0.0010763,4.9837e-05,0,0.0010315,0.00019749,8.2237e+07,4.95e+06,0,5.5273e+07,5.0887e+06,2091.4,1
5396,8.51,12260,1,12260,1,0.0015116,2.8646e-06,0,0.0015432,-0.0002743,1.3994e+08,4.836e+05,0,1.5252e+08,-4.5057e+05,12259,15904,1,15904,1,0.0048351,0.00024759,0,0.0048351,5.9297e-05,2.2384e+08,3.1506e+07,0,2.2384e+08,1.7873e+07,15903,12262,1,12262,1,0.0014684,2.2039e-08,0,0.0014687,-0.00026479,1.7964e+08,2620.5,0,1.7966e+08,-19353,12261,8553,1,8553,1,-0.00030141,-0.00024755,0,4.4598e-05,-0.00089323,-1.2246e+08,-2.2385e+07,0,1.0053e+07,-3.1102e+07,8552,10465,1,10465,1,0.00056577,-1.9946e-06,0,0.00056577,-0.00042558,1.1591e+08,-2.2009e+05,0,1.2228e+08,-1.1715e+06,10464,14059,1,14059,1,0.0023897,3.82e-06,0,0.0023921,-0.00010273,1.9136e+08,3.6722e+05,0,1.9136e+08,1.4951e+05,14058,2091.4,0,2091.4,0,0.0010863,5.7344e-05,0,0.0010423,0.0001985,8.1754e+07,5.3359e+06,0,5.5064e+07,5.6076e+06,2091.4,1
5396,8.52,12260,1,12260,1,0.001521,2.767e-06,0,0.0015524,-0.00027442,1.3957e+08,4.7488e+05,0,1.5194e+08,-4.3213e+05,12259,15904,1,15904,1,0.0053012,0.00029685,0,0.0053012,6.5456e-05,2.2782e+08,3.1708e+07,0,2.2782e+08,2.1305e+07,15903,12262,1,12262,1,0.00148,2.4337e-08,0,0.0014813,-0.00026672,1.7861e+08,2844.4,0,1.7862e+08,-22693,12261,8553,1,8553,1,-0.00029961,-0.00029679,0,4.4529e-05,-0.00097817,-1.2173e+08,-2.3006e+07,0,1.0059e+07,-3.1882e+07,8552,10465,1,10465,1,0.00056254,-2.1385e-06,0,0.00056258,-0.00042425,1.1625e+08,-2.2486e+05,0,1.2158e+08,-1.3623e+06,10464,14059,1,14059,1,0.0023938,4.1212e-06,0,0.0023978,-0.00010225,1.9025e+08,3.8623e+05,0,1.9025e+08,1.3284e+05,14058,2091.4,0,2091.4,0,0.0011018,6.7894e-05,0,0.0010593,0.00019994,8.1102e+07,5.8642e+06,0,5.4817e+07,6.3106e+06,2091.4,1
5396,8.53,12260,1,12260,1,0.001534,2.6376e-06,0,0.0015651,-0.0002742,1.3896e+08,4.6327e+05,0,1.5104e+08,-4.0741e+05,12259,15904,1,15904,1,0.0060466,0.00037363,0,0.0060466,7.4194e-05,2.3431e+08,3.1951e+07,0,2.3431e+08,2.6125e+07,15903,12262,1,12262,1,0.0015189,3.5264e-08,0,0.0015221,-0.0002697,1.7702e+08,4367.9,0,1.7703e+08,-26506,12261,8553,1,8553,1,-0.00029699,-0.00037354,0,3.303e-05,-0.0011135,-1.2066e+08,-2.3842e+07,0,1.0041e+07,-3.2958e+07,8552,10465,1,10465,1,0.00057148,-2.2207e-06,0,0.00057222,-0.00042016,1.1624e+08,-2.2448e+05,0,1.2054e+08,-1.6115e+06,10464,14059,1,14059,1,0.0023952,4.0966e-06,0,0.0023997,-0.00010176,1.8864e+08,3.9709e+05,0,1.8864e+08,1.1663e+05,14058,2091.4,0,2091.4,0,0.0011288,8.3894e-05,0,0.0010885,0.00020217,8.0244e+07,6.6326e+06,0,5.4562e+07,7.3121e+06,2091.4,1
5396,8.54,12260,1,12260,1,0.0015532,2.4388e-06,0,0.001584,-0.00027303,1.3783e+08,4.4423e+05,0,1.4952e+08,-3.7187e+05,12259,15904,1,15904,1,0.0073845,0.00050811,0,0.0073846,8.7426e-05,2.4295e+08,3.2234e+07,0,2.4295e+08,3.289e+07,15903,12262,1,12262,1,0.0015507,2.0081e-08,0,0.0015508,-0.00026853,1.7455e+08,2423.8,0,1.7457e+08,-32165,12261,8553,1,8553,1,-0.00029264,-0.00050774,0,9.9261e-06,-0.0013516,-1.1889e+08,-2.5066e+07,0,3.6886e+06,-3.4488e+07,8552,10465,1,10465,1,0.00059248,-2.3513e-06,0,0.00059458,-0.00041348,1.126e+08,-2.0386e+05,0,1.1878e+08,-1.994e+06,10464,14059,1,14059,1,0.0023887,4.4717e-06,0,0.002394,-0.00010175,1.8607e+08,4.3624e+05,0,1.8608e+08,90931,14058,2091.4,0,2091.4,0,0.0011822,0.00010991,0,0.0011459,0.00020604,7.9032e+07,7.757e+06,0,5.428e+07,8.7704e+06,2091.4,1
5396,8.55,12260,1,12260,1,0.0015846,2.1435e-06,0,0.0016161,-0.00026906,1.3575e+08,4.1534e+05,0,1.47e+08,-3.1961e+05,12259,15904,1,15904,1,0.010238,0.00079472,0,0.010238,0.00010776,2.5627e+08,3.2665e+07,0,2.5627e+08,4.316e+07,15903,12262,1,12262,1,0.0015194,1.5975e-08,0,0.0015195,-0.0002694,1.7012e+08,1837.3,0,1.7015e+08,-37000,12261,8553,1,8553,1,-0.00028542,-0.00079395,0,4.283e-05,-0.001845,-1.1595e+08,-3.1707e+07,0,9.7527e+06,-3.6831e+07,8552,10465,1,10465,1,0.00061996,-2.3212e-06,0,0.00062205,-0.00040268,1.0982e+08,-1.9567e+05,0,1.1585e+08,-2.4769e+06,10464,14059,1,14059,1,0.002339,4.23e-06,0,0.0023398,-0.00010029,1.8158e+08,4.9477e+05,0,1.818e+08,66350,14058,2091.4,0,2091.4,0,0.0013078,0.00015767,0,0.0012785,0.00021378,7.7436e+07,9.4853e+06,0,5.3891e+07,1.0989e+07,2091.4,1
5396,8.56,12260,1,12260,1,0.0016398,1.6795e-06,0,0.0016745,-0.00025527,1.3172e+08,3.6778e+05,0,1.4241e+08,-2.3999e+05,12259,15904,1,15904,1,0.017993,0.0015018,0,0.017994,0.00014198,2.774e+08,4.1501e+07,0,2.774e+08,5.8227e+07,15903,12262,1,12262,1,0.0014567,1.668e-09,0,0.0014573,-0.00026645,1.6262e+08,230.68,0,1.6263e+08,-42396,12261,8553,1,8553,1,-0.00027269,-0.0014998,0,4.0922e-05,-0.0030917,-1.1078e+08,-4.1483e+07,0,9.3179e+06,-4.0599e+07,8552,10465,1,10465,1,0.00066813,-2.4101e-06,0,0.00066814,-0.00037232,1.0488e+08,-2.497e+05,0,1.1068e+08,-3.0173e+06,10464,14059,1,14059,1,0.0022365,5.9448e-06,0,0.0022378,-9.4935e-05,1.7393e+08,7.351e+05,0,1.74e+08,38998,14058,2091.4,0,2091.4,0,0.0016599,0.00025819,0,0.0016452,0.00023146,7.5702e+07,1.2145e+07,0,5.4286e+07,1.4321e+07,2091.4,1
5396,8.57,12260,1,12260,1,0.001741,9.5313e-07,0,0.0017876,-0.00020652,1.2377e+08,2.9142e+05,0,1.3369e+08,-1.2157e+05,12259,15904,1,15904,1,0.046974,0.0038232,0,0.046998,0.00054935,3.107e+08,5.3614e+07,0,3.107e+08,7.6995e+07,15903,12262,1,12262,1,0.0014705,-1.1295e-08,0,0.0014731,-0.00021906,1.491e+08,-1518.6,0,1.4913e+08,-41532,12261,8553,1,8553,1,-0.00025018,-0.0038145,0,3.7553e-05,-0.006543,-1.0162e+08,-5.3598e+07,0,8.551e+06,-4.6896e+07,8552,10465,1,10465,1,0.00061826,-4.3647e-06,0,0.00062036,-0.00032106,9.6085e+07,-5.2599e+05,0,1.0125e+08,-3.4689e+06,10464,14059,1,14059,1,0.0020501,8.0578e-06,0,0.0020526,-7.5403e-05,1.6119e+08,9.0569e+05,0,1.625e+08,30717,14058,2091.4,0,2091.4,0,0.0028281,0.00048757,0,0.0028411,0.00028659,7.4537e+07,1.5654e+07,0,5.6975e+07,1.8483e+07,2091.4,1
