"N","Time","avg(GlobalElementId)","avg(ObjectId)","avg(PedigreeElementId)","avg(alpha)","avg(strain_x (0))","avg(strain_x (1))","avg(strain_x (2))","avg(strain_x (Magnitude))","avg(strain_yy)","avg(stress_x (0))","avg(stress_x (1))","avg(stress_x (2))","avg(stress_x (Magnitude))","avg(stress_yy)","avg(vtkOriginalCellIds)","max(GlobalElementId)","max(ObjectId)","max(PedigreeElementId)","max(alpha)","max(strain_x (0))","max(strain_x (1))","max(strain_x (2))","max(strain_x (Magnitude))","max(strain_yy)","max(stress_x (0))","max(stress_x (1))","max(stress_x (2))","max(stress_x (Magnitude))","max(stress_yy)","max(vtkOriginalCellIds)","med(GlobalElementId)","med(ObjectId)","med(PedigreeElementId)","med(alpha)","med(strain_x (0))","med(strain_x (1))","med(strain_x (2))","med(strain_x (Magnitude))","med(strain_yy)","med(stress_x (0))","med(stress_x (1))","med(stress_x (2))","med(stress_x (Magnitude))","med(stress_yy)","med(vtkOriginalCellIds)","min(GlobalElementId)","min(ObjectId)","min(PedigreeElementId)","min(alpha)","min(strain_x (0))","min(strain_x (1))","min(strain_x (2))","min(strain_x (Magnitude))","min(strain_yy)","min(stress_x (0))","min(stress_x (1))","min(stress_x (2))","min(stress_x (Magnitude))","min(stress_yy)","min(vtkOriginalCellIds)","q1(GlobalElementId)","q1(ObjectId)","q1(PedigreeElementId)","q1(alpha)","q1(strain_x (0))","q1(strain_x (1))","q1(strain_x (2))","q1(strain_x (Magnitude))","q1(strain_yy)","q1(stress_x (0))","q1(stress_x (1))","q1(stress_x (2))","q1(stress_x (Magnitude))","q1(stress_yy)","q1(vtkOriginalCellIds)","q3(GlobalElementId)","q3(ObjectId)","q3(PedigreeElementId)","q3(alpha)","q3(strain_x (0))","q3(strain_x (1))","q3(strain_x (2))","q3(strain_x (Magnitude))","q3(strain_yy)","q3(stress_x (0))","q3(stress_x (1))","q3(stress_x (2))","q3(stress_x (Magnitude))","q3(stress_yy)","q3(vtkOriginalCellIds)","std(GlobalElementId)","std(ObjectId)","std(PedigreeElementId)","std(alpha)","std(strain_x (0))","std(strain_x (1))","std(strain_x (2))","std(strain_x (Magnitude))","std(strain_yy)","std(stress_x (0))","std(stress_x (1))","std(stress_x (2))","std(stress_x (Magnitude))","std(stress_yy)","std(vtkOriginalCellIds)","vtkValidPointMask"
1560,0,12156,1,12156,1,0,0,0,0,0,0,0,0,0,0,12155,12992,1,12992,1,0,0,0,0,0,0,0,0,0,0,12991,12156,1,12156,1,0,0,0,0,0,0,0,0,0,0,12155,11317,1,11317,1,0,0,0,0,0,0,0,0,0,0,11316,11734,1,11734,1,0,0,0,0,0,0,0,0,0,0,11733,12578,1,12578,1,0,0,0,0,0,0,0,0,0,0,12577,485.01,0,485.01,0,0,0,0,0,0,0,0,0,0,0,485.01,1
1560,0.01,12156,1,12156,1,2.0576e-07,-4.7857e-09,0,1.2254e-06,-3.9551e-08,40421,-1511.8,0,4.5528e+05,-694.43,12155,12992,1,12992,1,2.8514e-06,1.1769e-07,0,2.8519e-06,4.1205e-07,9.7176e+05,33939,0,9.7188e+05,17083,12991,12156,1,12156,1,2.1744e-07,-2.7219e-09,0,1.1983e-06,-4.2745e-08,79476,-893.11,0,4.7244e+05,-263.9,12155,11317,1,11317,1,-2.1933e-06,-4.4211e-08,0,7.744e-09,-5.7522e-07,-8.9203e+05,-12797,0,2998.8,-17164,11316,11734,1,11734,1,-1.0086e-06,-1.3264e-08,0,6.1937e-07,-2.6285e-07,-4.1093e+05,-4239.3,0,2.308e+05,-2828.8,11733,12578,1,12578,1,1.3924e-06,1.5065e-09,0,1.7907e-06,1.9019e-07,4.8639e+05,460.98,0,6.7148e+05,666.67,12577,485.01,0,485.01,0,1.4061e-06,1.3773e-08,0,7.1903e-07,2.63e-07,5.2299e+05,4212.2,0,2.603e+05,4259.8,485.01,1
1560,0.02,12156,1,12156,1,6.3112e-07,-2.5073e-09,0,2.6666e-06,-1.1897e-07,1.5752e+05,-789.71,0,9.8549e+05,-752.37,12155,12992,1,12992,1,5.712e-06,4.7324e-09,0,5.712e-06,8.3387e-07,1.9522e+06,1466.2,0,1.9522e+06,42.423,12991,12156,1,12156,1,6.2941e-07,-2.2198e-09,0,2.6316e-06,-1.1951e-07,2.282e+05,-705.95,0,9.8981e+05,-341.95,12155,11317,1,11317,1,-4.4453e-06,-1.3686e-08,0,2.1161e-08,-1.0692e-06,-1.8081e+06,-4187.7,0,5736.6,-3920.8,11316,11734,1,11734,1,-2.0004e-06,-3.2089e-09,0,1.2384e-06,-6.1222e-07,-8.1364e+05,-1038,0,4.8444e+05,-1188.7,11733,12578,1,12578,1,3.2631e-06,-1.0202e-09,0,4.0239e-06,3.7463e-07,1.1355e+06,-321.96,0,1.4721e+06,-73.424,12577,485.01,0,485.01,0,3.0377e-06,2.5071e-09,0,1.5846e-06,5.6928e-07,1.1252e+06,771.58,0,5.6479e+05,880.54,485.01,1
1560,0.03,12156,1,12156,1,9.4956e-07,-2.1946e-09,0,4.0115e-06,-1.7748e-07,2.3713e+05,-697.37,0,1.4826e+06,-531.82,12155,12992,1,12992,1,8.5816e-06,4.4579e-09,0,8.5816e-06,1.2528e-06,2.9329e+06,1381.1,0,2.9329e+06,38.919,12991,12156,1,12156,1,9.4831e-07,-2.2321e-09,0,3.9581e-06,-1.7984e-07,3.4404e+05,-699.09,0,1.4884e+06,-152.06,12155,11317,1,11317,1,-6.6787e-06,-9.6253e-09,0,3.459e-08,-1.6064e-06,-2.7165e+06,-2982.2,0,9706,-3640.8,11316,11734,1,11734,1,-3.0098e-06,-3.2273e-09,0,1.8628e-06,-9.1821e-07,-1.2241e+06,-1047.7,0,7.2872e+05,-730.6,11733,12578,1,12578,1,4.9088e-06,-1.062e-09,0,6.0547e-06,5.6494e-07,1.7083e+06,-338.51,0,2.2149e+06,-40.508,12577,485.01,0,485.01,0,4.5698e-06,1.7174e-09,0,2.3838e-06,8.5604e-07,1.6926e+06,542.85,0,8.4963e+05,767.01,485.01,1
1560,0.04,12156,1,12156,1,1.2597e-06,-4.7264e-09,0,5.3217e-06,-2.3448e-07,3.1465e+05,-1506.1,0,1.9668e+06,-323.72,12155,12992,1,12992,1,1.1409e-05,2.1576e-09,0,1.1409e-05,1.6655e-06,3.8992e+06,621.05,0,3.8992e+06,370.63,12991,12156,1,12156,1,1.2588e-06,-3.808e-09,0,5.2566e-06,-2.3807e-07,4.5677e+05,-1204.4,0,1.976e+06,-86.737,12155,11317,1,11317,1,-8.8782e-06,-2.3042e-08,0,4.522e-08,-2.1357e-06,-3.6111e+06,-7138.9,0,12582,-3826,11316,11734,1,11734,1,-3.9907e-06,-6.5882e-09,0,2.4706e-06,-1.2171e-06,-1.623e+06,-2109.9,0,9.6605e+05,-382.27,11733,12578,1,12578,1,6.509e-06,-1.9762e-09,0,8.0275e-06,7.506e-07,2.2652e+06,-618.77,0,2.9366e+06,31.719,12577,485.01,0,485.01,0,6.0621e-06,4.0016e-09,0,3.162e-06,1.1358e-06,2.2454e+06,1264.2,0,1.127e+06,656.43,485.01,1
1560,0.05,12156,1,12156,1,1.583e-06,-1.171e-09,0,6.6895e-06,-2.9389e-07,3.954e+05,-372.16,0,2.4723e+06,-101.62,12155,12992,1,12992,1,1.4289e-05,5.574e-10,0,1.4289e-05,2.0862e-06,4.8834e+06,160.88,0,4.8834e+06,54.675,12991,12156,1,12156,1,1.5823e-06,-1.0911e-09,0,6.6013e-06,-2.9563e-07,5.7466e+05,-349.89,0,2.4817e+06,-29.909,12155,11317,1,11317,1,-1.112e-05,-3.8794e-09,0,5.8561e-08,-2.6745e-06,-4.523e+06,-1201.7,0,16785,-2078.5,11316,11734,1,11734,1,-5.0195e-06,-1.7356e-09,0,3.1066e-06,-1.5304e-06,-2.0415e+06,-549.43,0,1.2152e+06,-100.97,11733,12578,1,12578,1,8.1856e-06,-5.6062e-10,0,1.0098e-05,9.4299e-07,2.8487e+06,-176,0,3.6942e+06,2.1657,12577,485.01,0,485.01,0,7.6205e-06,8.6305e-10,0,3.975e-06,1.4276e-06,2.8226e+06,273.46,0,1.4168e+06,254.39,485.01,1
1560,0.06,12156,1,12156,1,1.8995e-06,-9.8605e-10,0,8.0276e-06,-3.5304e-07,4.7442e+05,-312.93,0,2.9669e+06,-276.08,12155,12992,1,12992,1,1.7145e-05,1.9445e-09,0,1.7145e-05,2.5033e-06,5.8595e+06,661.85,0,5.8595e+06,86.886,12991,12156,1,12156,1,1.8991e-06,-8.2423e-10,0,7.9224e-06,-3.555e-07,6.8952e+05,-259.98,0,2.9783e+06,-59.669,12155,11317,1,11317,1,-1.3343e-05,-7.2291e-09,0,6.987e-08,-3.209e-06,-5.4272e+06,-2239.2,0,19573,-3663.9,11316,11734,1,11734,1,-6.0235e-06,-1.3654e-09,0,3.7276e-06,-1.8365e-06,-2.4498e+06,-434.64,0,1.4583e+06,-256.02,11733,12578,1,12578,1,9.8225e-06,-3.9768e-10,0,1.2118e-05,1.1316e-06,3.4184e+06,-127.23,0,4.4329e+06,11.09,12577,485.01,0,485.01,0,9.1447e-06,9.3784e-10,0,4.77e-06,1.7131e-06,3.3872e+06,294.89,0,1.7002e+06,591.47,485.01,1
1560,0.07,12156,1,12156,1,2.2121e-06,-5.7738e-10,0,9.3482e-06,-4.106e-07,5.5254e+05,-183.48,0,3.455e+06,-104.38,12155,12992,1,12992,1,1.9965e-05,4.1365e-09,0,1.9965e-05,2.9152e-06,6.8235e+06,1282.3,0,6.8235e+06,116.88,12991,12156,1,12156,1,2.2119e-06,-4.1962e-10,0,9.2277e-06,-4.1266e-07,8.0345e+05,-130.27,0,3.469e+06,-40.641,12155,11317,1,11317,1,-1.5539e-05,-6.9079e-09,0,8.246e-08,-3.7369e-06,-6.3201e+06,-2139.1,0,23920,-2449.7,11316,11734,1,11734,1,-7.0138e-06,-1.7403e-09,0,4.3409e-06,-2.1387e-06,-2.8526e+06,-556.94,0,1.698e+06,-114.2,11733,12578,1,12578,1,1.1438e-05,4.7351e-10,0,1.411e-05,1.3178e-06,3.9805e+06,151.49,0,5.1617e+06,27.195,12577,485.01,0,485.01,0,1.0649e-05,1.7239e-09,0,5.5546e-06,1.9951e-06,3.9444e+06,545.76,0,1.9798e+06,292.52,485.01,1
1560,0.08,12156,1,12156,1,2.5305e-06,-1.5913e-09,0,1.0694e-05,-4.6951e-07,6.321e+05,-506.2,0,3.9523e+06,-41.385,12155,12992,1,12992,1,2.2845e-05,8.6434e-10,0,2.2845e-05,3.3356e-06,7.8076e+06,277.64,0,7.8076e+06,136.1,12991,12156,1,12156,1,2.5302e-06,-1.3724e-09,0,1.0555e-05,-4.6948e-07,9.1911e+05,-437.99,0,3.9682e+06,-8.5722,12155,11317,1,11317,1,-1.778e-05,-4.587e-09,0,9.4617e-08,-4.276e-06,-7.2316e+06,-1481.5,0,27454,-1278.9,11316,11734,1,11734,1,-8.0231e-06,-2.6457e-09,0,4.9658e-06,-2.4463e-06,-3.2631e+06,-845.44,0,1.9423e+06,-64.918,11733,12578,1,12578,1,1.3084e-05,-5.0263e-10,0,1.6141e-05,1.5076e-06,4.5534e+06,-160.15,0,5.9046e+06,31.089,12577,485.01,0,485.01,0,1.2182e-05,1.2861e-09,0,6.3542e-06,2.2822e-06,4.5122e+06,406.32,0,2.2648e+06,138.07,485.01,1
1560,0.09,12156,1,12156,1,2.8425e-06,-1.4679e-10,0,1.2011e-05,-5.2732e-07,7.1005e+05,-46.463,0,4.4391e+06,-18.32,12155,12992,1,12992,1,2.5653e-05,5.7639e-09,0,2.5653e-05,3.7455e-06,8.7673e+06,1861.5,0,8.7673e+06,176.27,12991,12156,1,12156,1,2.8426e-06,1.1886e-10,0,1.1856e-05,-5.2712e-07,1.0326e+06,35.483,0,4.4571e+06,-17.146,12155,11317,1,11317,1,-1.9964e-05,-6.2426e-09,0,1.0652e-07,-4.8015e-06,-8.1201e+06,-2016.6,0,30951,-676.83,11316,11734,1,11734,1,-9.0116e-06,-1.9286e-09,0,5.5778e-06,-2.748e-06,-3.6651e+06,-619.72,0,2.1816e+06,-85.082,11733,12578,1,12578,1,1.4696e-05,1.6927e-09,0,1.8129e-05,1.6932e-06,5.1145e+06,539.83,0,6.632e+06,70.521,12577,485.01,0,485.01,0,1.3682e-05,2.5853e-09,0,7.1368e-06,2.5634e-06,5.068e+06,819.49,0,2.5437e+06,115.05,485.01,1
1560,0.1,12156,1,12156,1,3.1621e-06,-1.382e-09,0,1.3363e-05,-5.8669e-07,7.8986e+05,-439.81,0,4.9387e+06,-50.083,12155,12992,1,12992,1,2.8544e-05,1.4578e-09,0,2.8544e-05,4.1678e-06,9.7555e+06,468.21,0,9.7555e+06,156.78,12991,12156,1,12156,1,3.1622e-06,-8.0284e-10,0,1.3191e-05,-5.8671e-07,1.1487e+06,-255.52,0,4.9589e+06,-5.3958,12155,11317,1,11317,1,-2.2215e-05,-6.153e-09,0,1.183e-07,-5.3427e-06,-9.0358e+06,-1946.4,0,34346,-913.35,11316,11734,1,11734,1,-1.0025e-05,-2.5206e-09,0,6.2051e-06,-3.0569e-06,-4.0775e+06,-808.65,0,2.427e+06,-89.524,11733,12578,1,12578,1,1.6349e-05,3.7533e-11,0,2.0169e-05,1.8838e-06,5.6897e+06,11.691,0,7.3781e+06,35.315,12577,485.01,0,485.01,0,1.5222e-05,1.7604e-09,0,7.9401e-06,2.8518e-06,5.6384e+06,558.06,0,2.8301e+06,144.58,485.01,1
1560,0.11,12156,1,12156,1,3.4741e-06,-1.8849e-09,0,1.4681e-05,-6.4454e-07,8.6782e+05,-600.76,0,5.4257e+06,-40.031,12155,12992,1,12992,1,3.1368e-05,5.0795e-09,0,3.1368e-05,4.58e-06,1.072e+07,1638.3,0,1.072e+07,265.3,12991,12156,1,12156,1,3.4743e-06,-1.2905e-09,0,1.4493e-05,-6.4471e-07,1.2621e+06,-402.86,0,5.4483e+06,-27.254,12155,11317,1,11317,1,-2.4413e-05,-9.123e-09,0,1.3003e-07,-5.8713e-06,-9.9294e+06,-2854.6,0,37769,-1082.7,11316,11734,1,11734,1,-1.1013e-05,-4.1627e-09,0,6.8167e-06,-3.3582e-06,-4.4792e+06,-1339.4,0,2.6661e+06,-122.68,11733,12578,1,12578,1,1.796e-05,4.8896e-10,0,2.2156e-05,2.0697e-06,6.2505e+06,147.38,0,8.105e+06,84.952,12577,485.01,0,485.01,0,1.6723e-05,3.1242e-09,0,8.7231e-06,3.1331e-06,6.1944e+06,992.11,0,3.1091e+06,178.51,485.01,1
1560,0.12,12156,1,12156,1,3.7986e-06,-1.1449e-09,0,1.6053e-05,-7.0469e-07,9.4884e+05,-363.63,0,5.9331e+06,-23.454,12155,12992,1,12992,1,3.4274e-05,2.2009e-10,0,3.4274e-05,5.0046e-06,1.1714e+07,63.349,0,1.1714e+07,91.587,12991,12156,1,12156,1,3.7981e-06,-1.1081e-09,0,1.5843e-05,-7.0386e-07,1.3798e+06,-356.22,0,5.9559e+06,-5.6479,12155,11317,1,11317,1,-2.6675e-05,-2.6725e-09,0,1.4213e-07,-6.4151e-06,-1.085e+07,-821.58,0,41258,-453.37,11316,11734,1,11734,1,-1.2046e-05,-1.5754e-09,0,7.4551e-06,-3.6726e-06,-4.8992e+06,-500.81,0,2.9161e+06,-25.078,11733,12578,1,12578,1,1.9643e-05,-6.8587e-10,0,2.4234e-05,2.2629e-06,6.8362e+06,-220.41,0,8.8652e+06,6.8161,12577,485.01,0,485.01,0,1.8287e-05,6.2949e-10,0,9.539e-06,3.426e-06,6.7737e+06,199.27,0,3.4e+06,79.968,485.01,1
1560,0.13,12156,1,12156,1,4.1052e-06,-5.7659e-09,0,1.7351e-05,-7.6151e-07,1.0254e+06,-1833.8,0,6.4125e+06,-2.5229,12155,12992,1,12992,1,3.7093e-05,2.2458e-09,0,3.7093e-05,5.4162e-06,1.2677e+07,646.5,0,1.2677e+07,466.29,12991,12156,1,12156,1,4.105e-06,-5.0562e-09,0,1.7128e-05,-7.6113e-07,1.4912e+06,-1612,0,6.4393e+06,16.833,12155,11317,1,11317,1,-2.887e-05,-1.4933e-08,0,1.5263e-07,-6.943e-06,-1.1742e+07,-4789.6,0,44289,-856.67,11316,11734,1,11734,1,-1.3017e-05,-8.9748e-09,0,8.0558e-06,-3.9689e-06,-5.2941e+06,-2874,0,3.1513e+06,-82.591,11733,12578,1,12578,1,2.1226e-05,-2.415e-09,0,2.6186e-05,2.4464e-06,7.3871e+06,-762.97,0,9.5793e+06,120.66,12577,485.01,0,485.01,0,1.9765e-05,4.1323e-09,0,1.0309e-05,3.7029e-06,7.321e+06,1310,0,3.6746e+06,201.05,485.01,1
1560,0.14,12156,1,12156,1,4.4363e-06,-3.4774e-09,0,1.8748e-05,-8.23e-07,1.1081e+06,-1106.9,0,6.9289e+06,-32.976,12155,12992,1,12992,1,4.0042e-05,7.2836e-10,0,4.0042e-05,5.8468e-06,1.3685e+07,209.67,0,1.3685e+07,246.98,12991,12156,1,12156,1,4.4349e-06,-3.5952e-09,0,1.8501e-05,-8.2199e-07,1.6111e+06,-1158.2,0,6.9551e+06,-1.3701,12155,11317,1,11317,1,-3.1165e-05,-7.5064e-09,0,1.6606e-07,-7.495e-06,-1.2676e+07,-2295.8,0,48201,-653.56,11316,11734,1,11734,1,-1.4068e-05,-4.9723e-09,0,8.7065e-06,-4.289e-06,-5.7215e+06,-1591.6,0,3.4056e+06,-87.953,11733,12578,1,12578,1,2.294e-05,-2.0144e-09,0,2.8301e-05,2.6431e-06,7.9837e+06,-638.23,0,1.0353e+07,40.286,12577,485.01,0,485.01,0,2.1357e-05,1.9615e-09,0,1.114e-05,4.0009e-06,7.9106e+06,623.84,0,3.9706e+06,118.18,485.01,1
1560,0.15,12156,1,12156,1,4.7424e-06,-1.354e-09,0,2.0042e-05,-8.7969e-07,1.1846e+06,-431.67,0,7.4072e+06,4.2079,12155,12992,1,12992,1,4.2798e-05,1.2679e-09,0,4.2798e-05,6.2494e-06,1.4627e+07,407.47,0,1.4627e+07,601.96,12991,12156,1,12156,1,4.7423e-06,-1.1148e-09,0,1.9782e-05,-8.7836e-07,1.7228e+06,-353.73,0,7.4367e+06,5.8262,12155,11317,1,11317,1,-3.331e-05,-5.7956e-09,0,1.7743e-07,-8.0106e-06,-1.3548e+07,-1869.2,0,51562,-538.93,11316,11734,1,11734,1,-1.5037e-05,-2.1927e-09,0,9.3069e-06,-4.5849e-06,-6.1159e+06,-696.7,0,3.6404e+06,-27.767,11733,12578,1,12578,1,2.4522e-05,-2.711e-10,0,3.0252e-05,2.8252e-06,8.5341e+06,-85.081,0,1.1067e+07,42.438,12577,485.01,0,485.01,0,2.2831e-05,1.3531e-09,0,1.1909e-05,4.2772e-06,8.4567e+06,429.77,0,4.2447e+06,86.771,485.01,1
1560,0.16,12156,1,12156,1,5.0663e-06,2.2827e-10,0,2.1411e-05,-9.3979e-07,1.2655e+06,72.574,0,7.9131e+06,0.1613,12155,12992,1,12992,1,4.5706e-05,4.48e-10,0,4.5706e-05,6.6739e-06,1.5621e+07,138.42,0,1.5621e+07,9.576,12991,12156,1,12156,1,5.0663e-06,2.4357e-10,0,2.1132e-05,-9.3815e-07,1.8405e+06,77.635,0,7.9439e+06,0.39462,12155,11317,1,11317,1,-3.5573e-05,-5.1065e-11,0,1.8977e-07,-8.5549e-06,-1.4469e+07,-14.699,0,55210,-35.096,11316,11734,1,11734,1,-1.6065e-05,1.3393e-10,0,9.9428e-06,-4.8982e-06,-6.534e+06,42.94,0,3.8892e+06,-1.9799,11733,12578,1,12578,1,2.6198e-05,3.3041e-10,0,3.232e-05,3.0181e-06,9.1173e+06,105.7,0,1.1823e+07,3.5573,12577,485.01,0,485.01,0,2.439e-05,1.2237e-10,0,1.2722e-05,4.5693e-06,9.0343e+06,38.726,0,4.5346e+06,5.3711,485.01,1
1560,0.17,12156,1,12156,1,5.3824e-06,1.6987e-10,0,2.2746e-05,-9.9842e-07,1.3445e+06,53.992,0,8.4067e+06,-0.56542,12155,12992,1,12992,1,4.8557e-05,6.5031e-10,0,4.8557e-05,7.0901e-06,1.6595e+07,208.98,0,1.6595e+07,14.175,12991,12156,1,12156,1,5.3824e-06,1.3119e-10,0,2.245e-05,-9.9671e-07,1.9554e+06,41.454,0,8.4394e+06,-0.70169,12155,11317,1,11317,1,-3.7791e-05,-2.3389e-10,0,2.0169e-07,-9.0885e-06,-1.5371e+07,-75.134,0,58686,-20.276,11316,11734,1,11734,1,-1.7067e-05,1.0073e-11,0,1.0563e-05,-5.2037e-06,-6.9414e+06,3.2145,0,4.1317e+06,-5.2104,11733,12578,1,12578,1,2.7832e-05,3.1815e-10,0,3.4336e-05,3.2063e-06,9.6859e+06,101.49,0,1.2561e+07,3.6068,12577,485.01,0,485.01,0,2.5912e-05,1.962e-10,0,1.3516e-05,4.8543e-06,9.5977e+06,62.143,0,4.8174e+06,5.4731,485.01,1
1560,0.18,12156,1,12156,1,5.6992e-06,-7.0261e-11,0,2.4085e-05,-1.0574e-06,1.4236e+06,-22.331,0,8.9016e+06,-80.263,12155,12992,1,12992,1,5.1414e-05,2.7808e-10,0,5.1414e-05,7.5073e-06,1.7572e+07,86.012,0,1.7572e+07,251.48,12991,12156,1,12156,1,5.6993e-06,-7.1367e-11,0,2.3771e-05,-1.0557e-06,2.0704e+06,-22.629,0,8.9362e+06,-52.793,12155,11317,1,11317,1,-4.0015e-05,-3.4229e-10,0,2.1343e-07,-9.6245e-06,-1.6276e+07,-109.03,0,62064,-466.5,11316,11734,1,11734,1,-1.8072e-05,-1.2686e-10,0,1.1185e-05,-5.5102e-06,-7.3502e+06,-39.884,0,4.375e+06,-153.93,11733,12578,1,12578,1,2.9471e-05,-1.9846e-11,0,3.6358e-05,3.395e-06,1.0256e+07,-6.1587,0,1.33e+07,-13.677,12577,485.01,0,485.01,0,2.7437e-05,8.8979e-11,0,1.4312e-05,5.1402e-06,1.0163e+07,27.855,0,5.1011e+06,100.19,485.01,1
1560,0.19,12156,1,12156,1,6.0151e-06,3.7835e-10,0,2.5421e-05,-1.116e-06,1.5025e+06,120.16,0,9.3951e+06,-81.463,12155,12992,1,12992,1,5.4267e-05,1.958e-09,0,5.4267e-05,7.924e-06,1.8547e+07,606.25,0,1.8547e+07,109.03,12991,12156,1,12156,1,6.0151e-06,2.6225e-10,0,2.509e-05,-1.1142e-06,2.1852e+06,81.403,0,9.4318e+06,-65.438,12155,11317,1,11317,1,-4.2236e-05,-5.798e-10,0,2.2515e-07,-1.0158e-05,-1.7179e+07,-179.59,0,65464,-428.06,11316,11734,1,11734,1,-1.9074e-05,2.6232e-11,0,1.1805e-05,-5.8157e-06,-7.7576e+06,8.3945,0,4.6176e+06,-147.3,11733,12578,1,12578,1,3.1104e-05,6.6046e-10,0,3.8373e-05,3.5832e-06,1.0825e+07,210.41,0,1.4037e+07,-13.134,12577,485.01,0,485.01,0,2.8958e-05,4.5646e-10,0,1.5105e-05,5.4251e-06,1.0726e+07,144.01,0,5.3838e+06,81.199,485.01,1
1560,0.2,12156,1,12156,1,6.3315e-06,1.5035e-10,0,2.6759e-05,-1.1748e-06,1.5815e+06,47.75,0,9.8898e+06,-117.82,12155,12992,1,12992,1,5.7122e-05,1.127e-09,0,5.7122e-05,8.3409e-06,1.9523e+07,348.95,0,1.9523e+07,54.354,12991,12156,1,12156,1,6.3315e-06,1.4789e-10,0,2.641e-05,-1.1729e-06,2.3001e+06,48.006,0,9.9282e+06,-103.07,12155,11317,1,11317,1,-4.4458e-05,-7.465e-10,0,2.3663e-07,-1.0693e-05,-1.8083e+07,-231.15,0,68755,-471.35,11316,11734,1,11734,1,-2.0078e-05,-5.8642e-12,0,1.2426e-05,-6.122e-06,-8.1662e+06,-1.7,0,4.8608e+06,-185.84,11733,12578,1,12578,1,3.2742e-05,2.8411e-10,0,4.0394e-05,3.772e-06,1.1395e+07,92.034,0,1.4777e+07,-32.164,12577,485.01,0,485.01,0,3.0483e-05,2.8898e-10,0,1.59e-05,5.7108e-06,1.1291e+07,88.303,0,5.6673e+06,91.665,485.01,1
1560,0.21,12156,1,12156,1,6.6488e-06,-9.2388e-11,0,2.81e-05,-1.2335e-06,1.6607e+06,-27.812,0,1.0385e+07,-82.933,12155,12992,1,12992,1,5.9984e-05,4.3372e-10,0,5.9984e-05,8.7587e-06,2.0501e+07,125.38,0,2.0501e+07,116.48,12991,12156,1,12156,1,6.6487e-06,-4.3294e-11,0,2.7734e-05,-1.2315e-06,2.4153e+06,-14.454,0,1.0426e+07,-62.807,12155,11317,1,11317,1,-4.6685e-05,-6.877e-10,0,2.4835e-07,-1.1228e-05,-1.8989e+07,-210.2,0,72158,-452.51,11316,11734,1,11734,1,-2.1085e-05,-1.8954e-10,0,1.3049e-05,-6.4286e-06,-8.5755e+06,-56.498,0,5.1045e+06,-134.4,11733,12578,1,12578,1,3.4382e-05,3.1448e-11,0,4.2418e-05,3.9611e-06,1.1966e+07,10.217,0,1.5517e+07,-17.267,12577,485.01,0,485.01,0,3.201e-05,2.0917e-10,0,1.6697e-05,5.997e-06,1.1857e+07,63.257,0,5.9513e+06,89.328,485.01,1
1560,0.22,12156,1,12156,1,6.9654e-06,-1.3328e-10,0,2.9438e-05,-1.2923e-06,1.7398e+06,-41.791,0,1.088e+07,-81.638,12155,12992,1,12992,1,6.2839e-05,7.6319e-10,0,6.2839e-05,9.1757e-06,2.1477e+07,236.22,0,2.1477e+07,75.503,12991,12156,1,12156,1,6.9654e-06,-1.248e-10,0,2.9054e-05,-1.2902e-06,2.5304e+06,-40.392,0,1.0922e+07,-59.247,12155,11317,1,11317,1,-4.8908e-05,-9.7909e-10,0,2.6046e-07,-1.1763e-05,-1.9893e+07,-303.12,0,75699,-691.32,11316,11734,1,11734,1,-2.2088e-05,-2.136e-10,0,1.367e-05,-6.7348e-06,-8.9836e+06,-68.28,0,5.3473e+06,-146.26,11733,12578,1,12578,1,3.6019e-05,-1.8078e-11,0,4.4437e-05,4.1496e-06,1.2535e+07,-5.8128,0,1.6256e+07,0.13258,12577,485.01,0,485.01,0,3.3534e-05,2.1722e-10,0,1.7492e-05,6.2825e-06,1.2421e+07,65.741,0,6.2346e+06,98.89,485.01,1
1560,0.23,12156,1,12156,1,7.2817e-06,-4.6442e-11,0,3.0774e-05,-1.3509e-06,1.8188e+06,-14.693,0,1.1374e+07,-61.843,12155,12992,1,12992,1,6.5692e-05,1.6445e-09,0,6.5692e-05,9.5923e-06,2.2451e+07,509.18,0,2.2451e+07,52.69,12991,12156,1,12156,1,7.2816e-06,-6.8524e-11,0,3.0373e-05,-1.3486e-06,2.6453e+06,-21.365,0,1.1418e+07,-56.161,12155,11317,1,11317,1,-5.1128e-05,-1.3501e-09,0,2.7248e-07,-1.2296e-05,-2.0796e+07,-418.02,0,79225,-227,11316,11734,1,11734,1,-2.3091e-05,-3.8641e-10,0,1.4291e-05,-7.0404e-06,-9.3913e+06,-122.41,0,5.59e+06,-115.3,11733,12578,1,12578,1,3.7654e-05,2.4701e-10,0,4.6454e-05,4.3379e-06,1.3104e+07,77.44,0,1.6994e+07,-1.5232,12577,485.01,0,485.01,0,3.5056e-05,5.0928e-10,0,1.8286e-05,6.5676e-06,1.2985e+07,158.95,0,6.5176e+06,64.006,485.01,1
1560,0.24,12156,1,12156,1,7.5987e-06,8.6485e-11,0,3.2113e-05,-1.4097e-06,1.898e+06,27.769,0,1.1869e+07,-75.553,12155,12992,1,12992,1,6.8551e-05,7.3289e-10,0,6.8551e-05,1.001e-05,2.3428e+07,226.95,0,2.3428e+07,71.133,12991,12156,1,12156,1,7.5987e-06,5.9966e-11,0,3.1695e-05,-1.4074e-06,2.7605e+06,19.339,0,1.1915e+07,-71.505,12155,11317,1,11317,1,-5.3353e-05,-3.2941e-10,0,2.8444e-07,-1.2831e-05,-2.17e+07,-102,0,82721,-259.2,11316,11734,1,11734,1,-2.4096e-05,-7.3245e-13,0,1.4913e-05,-7.347e-06,-9.8001e+06,-0.25082,0,5.8333e+06,-136.03,11733,12578,1,12578,1,3.9293e-05,1.6005e-10,0,4.8476e-05,4.5268e-06,1.3675e+07,52.107,0,1.7733e+07,-3.667,12577,485.01,0,485.01,0,3.6582e-05,1.5023e-10,0,1.9082e-05,6.8535e-06,1.355e+07,46.354,0,6.8013e+06,71.687,485.01,1
1560,0.25,12156,1,12156,1,7.9151e-06,1.0758e-10,0,3.3451e-05,-1.4685e-06,1.9771e+06,35.168,0,1.2363e+07,-117.43,12155,12992,1,12992,1,7.1407e-05,8.7039e-10,0,7.1407e-05,1.0427e-05,2.4405e+07,269.46,0,2.4405e+07,54.65,12991,12156,1,12156,1,7.9151e-06,9.5746e-11,0,3.3015e-05,-1.466e-06,2.8754e+06,32.044,0,1.2411e+07,-117.81,12155,11317,1,11317,1,-5.5576e-05,-6.0683e-10,0,2.9613e-07,-1.3366e-05,-2.2605e+07,-187.88,0,86084,-426.43,11316,11734,1,11734,1,-2.51e-05,-2.2199e-11,0,1.5534e-05,-7.6533e-06,-1.0208e+07,-6.6135,0,6.0764e+06,-202.22,11733,12578,1,12578,1,4.093e-05,2.3684e-10,0,5.0496e-05,4.7154e-06,1.4244e+07,78.704,0,1.8472e+07,-3.4181,12577,485.01,0,485.01,0,3.8106e-05,2.187e-10,0,1.9877e-05,7.1391e-06,1.4115e+07,67.559,0,7.0846e+06,110.27,485.01,1
1560,0.26,12156,1,12156,1,8.2323e-06,4.4824e-11,0,3.4791e-05,-1.5273e-06,2.0563e+06,14.909,0,1.2858e+07,-95.753,12155,12992,1,12992,1,7.4266e-05,2.8759e-10,0,7.4266e-05,1.0844e-05,2.5382e+07,89.147,0,2.5382e+07,38.73,12991,12156,1,12156,1,8.2323e-06,6.7478e-11,0,3.4337e-05,-1.5249e-06,2.9906e+06,22.085,0,1.2908e+07,-94.957,12155,11317,1,11317,1,-5.7801e-05,-5.219e-10,0,3.0822e-07,-1.3901e-05,-2.3509e+07,-161.59,0,89629,-340.62,11316,11734,1,11734,1,-2.6105e-05,1.3554e-11,0,1.6156e-05,-7.9596e-06,-1.0617e+07,4.1285,0,6.3197e+06,-151.58,11733,12578,1,12578,1,4.2569e-05,1.1792e-10,0,5.2518e-05,4.9042e-06,1.4815e+07,38.407,0,1.9212e+07,-3.6196,12577,485.01,0,485.01,0,3.9632e-05,1.2248e-10,0,2.0673e-05,7.4249e-06,1.468e+07,37.973,0,7.3684e+06,93.076,485.01,1
1560,0.27,12156,1,12156,1,8.549e-06,9.7039e-11,0,3.6129e-05,-1.586e-06,2.1354e+06,30.676,0,1.3353e+07,-71.666,12155,12992,1,12992,1,7.7123e-05,8.7886e-10,0,7.7123e-05,1.1261e-05,2.6358e+07,272.12,0,2.6358e+07,44.444,12991,12156,1,12156,1,8.549e-06,3.7731e-11,0,3.5658e-05,-1.5833e-06,3.1057e+06,12.845,0,1.3405e+07,-56.842,12155,11317,1,11317,1,-6.0025e-05,-5.3841e-10,0,3.2023e-07,-1.4435e-05,-2.4414e+07,-166.74,0,93141,-326.94,11316,11734,1,11734,1,-2.7108e-05,-8.2416e-11,0,1.6778e-05,-8.2657e-06,-1.1025e+07,-25.559,0,6.5626e+06,-145.64,11733,12578,1,12578,1,4.4206e-05,2.7206e-10,0,5.4537e-05,5.0928e-06,1.5385e+07,87,0,1.9951e+07,11.181,12577,485.01,0,485.01,0,4.1157e-05,2.6228e-10,0,2.1468e-05,7.7104e-06,1.5244e+07,82.165,0,7.6517e+06,85.178,485.01,1
1560,0.28,12156,1,12156,1,8.8653e-06,3.1715e-10,0,3.7465e-05,-1.6447e-06,2.2144e+06,101.06,0,1.3847e+07,-81.608,12155,12992,1,12992,1,7.9978e-05,1.3257e-09,0,7.9978e-05,1.1678e-05,2.7334e+07,410.48,0,2.7334e+07,57.365,12991,12156,1,12156,1,8.8653e-06,2.4513e-10,0,3.6977e-05,-1.6419e-06,3.2206e+06,78,0,1.3901e+07,-52.851,12155,11317,1,11317,1,-6.2246e-05,-5.5174e-10,0,3.321e-07,-1.497e-05,-2.5318e+07,-170.85,0,96601,-393.55,11316,11734,1,11734,1,-2.8111e-05,2.5126e-11,0,1.7398e-05,-8.5716e-06,-1.1433e+07,7.5239,0,6.8053e+06,-155.65,11733,12578,1,12578,1,4.5842e-05,5.6973e-10,0,5.6554e-05,5.2811e-06,1.5954e+07,184.22,0,2.0689e+07,5.8908,12577,485.01,0,485.01,0,4.2679e-05,3.6259e-10,0,2.2262e-05,7.9957e-06,1.5808e+07,114.39,0,7.9348e+06,97.033,485.01,1
1560,0.29,12156,1,12156,1,9.182e-06,1.1347e-11,0,3.8805e-05,-1.7033e-06,2.2935e+06,3.7838,0,1.4342e+07,-36.999,12155,12992,1,12992,1,8.2833e-05,7.4449e-10,0,8.2833e-05,1.2095e-05,2.831e+07,230.53,0,2.831e+07,92.977,12991,12156,1,12156,1,9.182e-06,5.5662e-12,0,3.8298e-05,-1.7005e-06,3.3357e+06,1.8073,0,1.4397e+07,-21.221,12155,11317,1,11317,1,-6.4469e-05,-4.5691e-10,0,3.4382e-07,-1.5505e-05,-2.6222e+07,-141.46,0,1e+05,-266.14,11316,11734,1,11734,1,-2.9116e-05,-3.5273e-11,0,1.802e-05,-8.8774e-06,-1.1842e+07,-11.393,0,7.0487e+06,-74.404,11733,12578,1,12578,1,4.748e-05,5.5662e-11,0,5.8577e-05,5.4699e-06,1.6524e+07,18.507,0,2.1428e+07,2.19,12577,485.01,0,485.01,0,4.4205e-05,1.2889e-10,0,2.3058e-05,8.2814e-06,1.6373e+07,39.613,0,8.2184e+06,57.195,485.01,1
1560,0.3,12156,1,12156,1,9.4981e-06,1.2011e-10,0,4.0142e-05,-1.7621e-06,2.3725e+06,38.562,0,1.4836e+07,-81.302,12155,12992,1,12992,1,8.5689e-05,9.2882e-10,0,8.5689e-05,1.2512e-05,2.9286e+07,287.61,0,2.9286e+07,65.368,12991,12156,1,12156,1,9.4981e-06,1.2061e-10,0,3.9619e-05,-1.7592e-06,3.4505e+06,39.632,0,1.4894e+07,-69.563,12155,11317,1,11317,1,-6.6692e-05,-5.364e-10,0,3.551e-07,-1.6039e-05,-2.7126e+07,-164.03,0,1.032e+05,-284.23,11316,11734,1,11734,1,-3.012e-05,-7.5373e-12,0,1.8641e-05,-9.1836e-06,-1.225e+07,-2.498,0,7.2918e+06,-135.84,11733,12578,1,12578,1,4.9117e-05,2.2175e-10,0,6.0596e-05,5.6585e-06,1.7093e+07,72.887,0,2.2167e+07,-12.555,12577,485.01,0,485.01,0,4.5728e-05,2.3355e-10,0,2.3852e-05,8.5669e-06,1.6938e+07,71.515,0,8.5017e+06,74.423,485.01,1
1560,0.31,12156,1,12156,1,9.8156e-06,2.0372e-10,0,4.1482e-05,-1.8209e-06,2.4518e+06,65.213,0,1.5331e+07,-55.329,12155,12992,1,12992,1,8.8549e-05,5.4701e-10,0,8.8549e-05,1.293e-05,3.0263e+07,186.15,0,3.0263e+07,110.96,12991,12156,1,12156,1,9.8156e-06,2.0426e-10,0,4.0941e-05,-1.818e-06,3.5658e+06,65.675,0,1.5391e+07,-36.603,12155,11317,1,11317,1,-6.8918e-05,-2.3892e-10,0,3.677e-07,-1.6575e-05,-2.8031e+07,-74.026,0,1.0695e+05,-394.8,11316,11734,1,11734,1,-3.1125e-05,1.0828e-10,0,1.9263e-05,-9.49e-06,-1.2659e+07,34.264,0,7.535e+06,-99.855,11733,12578,1,12578,1,5.0756e-05,3.0486e-10,0,6.2618e-05,5.8473e-06,1.7664e+07,96.491,0,2.2907e+07,-6.67,12577,485.01,0,485.01,0,4.7254e-05,1.3824e-10,0,2.4648e-05,8.8527e-06,1.7503e+07,44.631,0,8.7854e+06,66.853,485.01,1
1560,0.32,12156,1,12156,1,1.0132e-05,3.4434e-11,0,4.2819e-05,-1.8795e-06,2.5308e+06,11.064,0,1.5825e+07,-14.319,12155,12992,1,12992,1,9.1403e-05,1.1401e-09,0,9.1403e-05,1.3347e-05,3.1239e+07,353.06,0,3.1239e+07,58.186,12991,12156,1,12156,1,1.0132e-05,5.5561e-13,0,4.2261e-05,-1.8763e-06,3.6807e+06,0.15953,0,1.5887e+07,2.1902,12155,11317,1,11317,1,-7.1139e-05,-8.7924e-10,0,3.7941e-07,-1.7109e-05,-2.8935e+07,-272.27,0,1.1037e+05,-178.7,11316,11734,1,11734,1,-3.2128e-05,-2.0077e-10,0,1.9884e-05,-9.7958e-06,-1.3067e+07,-63.209,0,7.7779e+06,-33.905,11733,12578,1,12578,1,5.2392e-05,2.5299e-10,0,6.4636e-05,6.0359e-06,1.8233e+07,82.101,0,2.3645e+07,14.039,12577,485.01,0,485.01,0,4.8778e-05,3.5565e-10,0,2.5443e-05,9.1381e-06,1.8067e+07,112.49,0,9.0686e+06,38.867,485.01,1
1560,0.33,12156,1,12156,1,1.0448e-05,1.7563e-10,0,4.4155e-05,-1.9384e-06,2.6098e+06,55.84,0,1.6319e+07,-112.53,12155,12992,1,12992,1,9.4256e-05,1.8237e-09,0,9.4256e-05,1.3763e-05,3.2214e+07,564.65,0,3.2214e+07,71.409,12991,12156,1,12156,1,1.0448e-05,9.6987e-11,0,4.3579e-05,-1.935e-06,3.7956e+06,29.664,0,1.6383e+07,-81.704,12155,11317,1,11317,1,-7.336e-05,-1.1683e-09,0,3.9132e-07,-1.7644e-05,-2.9838e+07,-361.75,0,1.1381e+05,-828.97,11316,11734,1,11734,1,-3.3131e-05,-1.976e-10,0,2.0505e-05,-1.0102e-05,-1.3475e+07,-61.625,0,8.0205e+06,-185.9,11733,12578,1,12578,1,5.4027e-05,5.4044e-10,0,6.6653e-05,6.2242e-06,1.8802e+07,175.36,0,2.4383e+07,5.6247,12577,485.01,0,485.01,0,5.0299e-05,5.5893e-10,0,2.6237e-05,9.4234e-06,1.8631e+07,176.25,0,9.3515e+06,144.29,485.01,1
1560,0.34,12156,1,12156,1,1.0766e-05,-1.0356e-10,0,4.5497e-05,-1.9972e-06,2.6891e+06,-32.289,0,1.6815e+07,-88.978,12155,12992,1,12992,1,9.7119e-05,2.6907e-10,0,9.7119e-05,1.4181e-05,3.3192e+07,91.601,0,3.3192e+07,116.33,12991,12156,1,12156,1,1.0766e-05,-7.9827e-11,0,4.4904e-05,-1.9939e-06,3.911e+06,-26.028,0,1.688e+07,-79.083,12155,11317,1,11317,1,-7.5588e-05,-7.645e-10,0,4.0313e-07,-1.8179e-05,-3.0744e+07,-236.63,0,1.1725e+05,-340.07,11316,11734,1,11734,1,-3.4138e-05,-1.349e-10,0,2.1128e-05,-1.0409e-05,-1.3884e+07,-42.189,0,8.2644e+06,-156.98,11733,12578,1,12578,1,5.5669e-05,-2.4643e-11,0,6.8679e-05,6.4132e-06,1.9374e+07,-7.7272,0,2.5124e+07,-9.1852,12577,485.01,0,485.01,0,5.1828e-05,1.4717e-10,0,2.7034e-05,9.7097e-06,1.9197e+07,45.197,0,9.6358e+06,88.195,485.01,1
1560,0.35,12156,1,12156,1,1.1081e-05,3.1371e-10,0,4.6831e-05,-2.0556e-06,2.768e+06,99.731,0,1.7308e+07,-38.414,12155,12992,1,12992,1,9.9969e-05,1.6629e-09,0,9.9969e-05,1.4597e-05,3.4166e+07,514.91,0,3.4166e+07,42.38,12991,12156,1,12156,1,1.1081e-05,2.1868e-10,0,4.622e-05,-2.0522e-06,4.0256e+06,69.087,0,1.7375e+07,-32.591,12155,11317,1,11317,1,-7.7806e-05,-7.2511e-10,0,4.1507e-07,-1.8712e-05,-3.1646e+07,-224.52,0,1.2073e+05,-172.71,11316,11734,1,11734,1,-3.5138e-05,-5.0217e-11,0,2.1747e-05,-1.0714e-05,-1.4291e+07,-15.674,0,8.5066e+06,-79.115,11733,12578,1,12578,1,5.7301e-05,6.4545e-10,0,7.0692e-05,6.6013e-06,1.9942e+07,208.52,0,2.586e+07,6.5254,12577,485.01,0,485.01,0,5.3348e-05,4.7399e-10,0,2.7827e-05,9.9942e-06,1.976e+07,149.66,0,9.9183e+06,50.132,485.01,1
1560,0.36,12156,1,12156,1,1.1399e-05,2.0689e-10,0,4.8174e-05,-2.1146e-06,2.8474e+06,66.282,0,1.7804e+07,-43.818,12155,12992,1,12992,1,0.00010283,7.7205e-10,0,0.00010283,1.5016e-05,3.5146e+07,239.16,0,3.5146e+07,145.66,12991,12156,1,12156,1,1.1399e-05,2.0411e-10,0,4.7546e-05,-2.1113e-06,4.1411e+06,62.898,0,1.7874e+07,-18.68,12155,11317,1,11317,1,-8.0036e-05,-5.7503e-10,0,4.2692e-07,-1.9248e-05,-3.2553e+07,-178.07,0,1.2418e+05,-323.37,11316,11734,1,11734,1,-3.6146e-05,8.4894e-11,0,2.2371e-05,-1.1021e-05,-1.4701e+07,26.784,0,8.7506e+06,-89.496,11733,12578,1,12578,1,5.8944e-05,3.3485e-10,0,7.272e-05,6.7906e-06,2.0514e+07,108.9,0,2.6602e+07,7.7925,12577,485.01,0,485.01,0,5.4878e-05,1.6989e-10,0,2.8625e-05,1.0281e-05,2.0327e+07,54.222,0,1.0203e+07,86.179,485.01,1
1560,0.37,12156,1,12156,1,1.1715e-05,-8.3586e-12,0,4.951e-05,-2.1733e-06,2.9263e+06,-2.5607,0,1.8298e+07,-64.42,12155,12992,1,12992,1,0.00010568,6.7365e-10,0,0.00010568,1.5432e-05,3.612e+07,208.58,0,3.612e+07,51.947,12991,12156,1,12156,1,1.1715e-05,-1.3502e-11,0,4.8864e-05,-2.1697e-06,4.2559e+06,-4.4004,0,1.8369e+07,-45.167,12155,11317,1,11317,1,-8.2254e-05,-5.986e-10,0,4.388e-07,-1.9782e-05,-3.3455e+07,-185.37,0,1.2764e+05,-299.27,11316,11734,1,11734,1,-3.7149e-05,-9.0656e-11,0,2.2991e-05,-1.1327e-05,-1.5109e+07,-28.776,0,8.9932e+06,-113.59,11733,12578,1,12578,1,6.0579e-05,7.7785e-11,0,7.4736e-05,6.9789e-06,2.1082e+07,24.827,0,2.734e+07,-0.10126,12577,485.01,0,485.01,0,5.6399e-05,1.6897e-10,0,2.9419e-05,1.0566e-05,2.089e+07,52.293,0,1.0486e+07,73.076,485.01,1
1560,0.38,12156,1,12156,1,1.2032e-05,1.7168e-10,0,5.0849e-05,-2.2319e-06,3.0055e+06,54.625,0,1.8793e+07,-6.0601,12155,12992,1,12992,1,0.00010854,3.8994e-10,0,0.00010854,1.585e-05,3.7097e+07,120.71,0,3.7097e+07,51.81,12991,12156,1,12156,1,1.2032e-05,1.8084e-10,0,5.0186e-05,-2.2281e-06,4.3711e+06,56.875,0,1.8866e+07,-2.9559,12155,11317,1,11317,1,-8.448e-05,-5.3159e-11,0,4.5074e-07,-2.0317e-05,-3.4361e+07,-15.303,0,1.3113e+05,-67.173,11316,11734,1,11734,1,-3.8154e-05,9.9157e-11,0,2.3613e-05,-1.1633e-05,-1.5518e+07,32.271,0,9.2366e+06,-16.895,11733,12578,1,12578,1,6.2218e-05,2.4855e-10,0,7.6758e-05,7.1677e-06,2.1653e+07,80.172,0,2.808e+07,4.2537,12577,485.01,0,485.01,0,5.7925e-05,9.8488e-11,0,3.0215e-05,1.0852e-05,2.1456e+07,31.139,0,1.0769e+07,18.228,485.01,1
1560,0.39,12156,1,12156,1,1.2349e-05,-4.9389e-10,0,5.2189e-05,-2.2908e-06,3.0847e+06,-157.28,0,1.9288e+07,-21.409,12155,12992,1,12992,1,0.00011141,1.6832e-10,0,0.00011141,1.6268e-05,3.8076e+07,48.454,0,3.8076e+07,55.213,12991,12156,1,12156,1,1.2349e-05,-5.3349e-10,0,5.1509e-05,-2.2869e-06,4.4862e+06,-168.59,0,1.9363e+07,-10.137,12155,11317,1,11317,1,-8.6709e-05,-9.5583e-10,0,4.6245e-07,-2.0853e-05,-3.5268e+07,-295.95,0,1.3453e+05,-125.3,11316,11734,1,11734,1,-3.9159e-05,-7.1813e-10,0,2.4236e-05,-1.194e-05,-1.5927e+07,-232.14,0,9.48e+06,-44.065,11733,12578,1,12578,1,6.3858e-05,-2.9722e-10,0,7.8781e-05,7.3567e-06,2.2224e+07,-93.887,0,2.882e+07,6.1523,12577,485.01,0,485.01,0,5.9452e-05,2.7438e-10,0,3.1011e-05,1.1138e-05,2.2021e+07,86.802,0,1.1053e+07,36.245,485.01,1
1560,0.4,12156,1,12156,1,1.2665e-05,-6.2906e-11,0,5.3524e-05,-2.3493e-06,3.1636e+06,-19.884,0,1.9782e+07,0.59076,12155,12992,1,12992,1,0.00011426,6.5457e-10,0,0.00011426,1.6683e-05,3.9049e+07,203.46,0,3.9049e+07,50.703,12991,12156,1,12156,1,1.2665e-05,-5.2148e-11,0,5.2826e-05,-2.3454e-06,4.601e+06,-16.11,0,1.9859e+07,9.6404,12155,11317,1,11317,1,-8.8924e-05,-6.7741e-10,0,4.744e-07,-2.1386e-05,-3.6169e+07,-209.77,0,1.3801e+05,-133.2,11316,11734,1,11734,1,-4.0161e-05,-2.4413e-10,0,2.4856e-05,-1.2245e-05,-1.6334e+07,-76.507,0,9.7225e+06,-5.6846,11733,12578,1,12578,1,6.5491e-05,9.0304e-11,0,8.0796e-05,7.5449e-06,2.2792e+07,27.84,0,2.9557e+07,18.451,12577,485.01,0,485.01,0,6.0973e-05,2.5548e-10,0,3.1804e-05,1.1423e-05,2.2584e+07,81.227,0,1.1336e+07,29.291,485.01,1
1560,0.41,12156,1,12156,1,1.2982e-05,1.5241e-10,0,5.4863e-05,-2.4082e-06,3.2427e+06,48.534,0,2.0276e+07,-29.653,12155,12992,1,12992,1,0.00011711,6.6713e-10,0,0.00011711,1.7101e-05,4.0025e+07,206.57,0,4.0025e+07,65.308,12991,12156,1,12156,1,1.2982e-05,1.2608e-10,0,5.4147e-05,-2.4041e-06,4.7161e+06,39.519,0,2.0355e+07,-15.009,12155,11317,1,11317,1,-9.1148e-05,-4.4896e-10,0,4.8636e-07,-2.1921e-05,-3.7073e+07,-139.02,0,1.415e+05,-183.11,11316,11734,1,11734,1,-4.1165e-05,1.7583e-11,0,2.5477e-05,-1.2551e-05,-1.6742e+07,5.5859,0,9.9655e+06,-56.991,11733,12578,1,12578,1,6.7129e-05,2.7076e-10,0,8.2816e-05,7.7334e-06,2.3362e+07,86.165,0,3.0296e+07,3.755,12577,485.01,0,485.01,0,6.2497e-05,1.7254e-10,0,3.2599e-05,1.1708e-05,2.3149e+07,54.263,0,1.1619e+07,45.026,485.01,1
1560,0.42,12156,1,12156,1,1.33e-05,1.7251e-11,0,5.6208e-05,-2.4671e-06,3.3222e+06,5.4894,0,2.0774e+07,0.94062,12155,12992,1,12992,1,0.00011998,2.5521e-10,0,0.00011998,1.752e-05,4.1006e+07,83.841,0,4.1006e+07,48.014,12991,12156,1,12156,1,1.33e-05,-6.32e-12,0,5.5475e-05,-2.4629e-06,4.8317e+06,-2.0652,0,2.0854e+07,3.2551,12155,11317,1,11317,1,-9.3382e-05,-8.001e-11,0,4.9824e-07,-2.2457e-05,-3.7982e+07,-27.218,0,1.4494e+05,-150.08,11316,11734,1,11734,1,-4.2175e-05,-3.4489e-11,0,2.6102e-05,-1.2859e-05,-1.7153e+07,-10.681,0,1.021e+07,-4.8719,11733,12578,1,12578,1,6.8775e-05,4.7828e-11,0,8.4847e-05,7.9231e-06,2.3935e+07,15.272,0,3.1039e+07,13.888,12577,485.01,0,485.01,0,6.403e-05,6.9916e-11,0,3.3399e-05,1.1995e-05,2.3717e+07,22.324,0,1.1904e+07,24.19,485.01,1
1560,0.43,12156,1,12156,1,1.3615e-05,1.8946e-10,0,5.7539e-05,-2.5256e-06,3.4009e+06,60.262,0,2.1265e+07,2.2393,12155,12992,1,12992,1,0.00012283,7.4054e-10,0,0.00012283,1.7935e-05,4.1978e+07,237.97,0,4.1978e+07,74.816,12991,12156,1,12156,1,1.3615e-05,1.4687e-10,0,5.6788e-05,-2.5213e-06,4.9462e+06,46.736,0,2.1348e+07,8.403,12155,11317,1,11317,1,-9.5595e-05,-3.0527e-10,0,5.1013e-07,-2.299e-05,-3.8882e+07,-97.984,0,1.484e+05,-198.02,11316,11734,1,11734,1,-4.3173e-05,5.5693e-12,0,2.672e-05,-1.3163e-05,-1.7559e+07,1.7323,0,1.0452e+07,-5.2622,11733,12578,1,12578,1,7.0403e-05,3.5668e-10,0,8.6856e-05,8.1107e-06,2.4502e+07,113.73,0,3.1774e+07,17.856,12577,485.01,0,485.01,0,6.5546e-05,2.2233e-10,0,3.4189e-05,1.2279e-05,2.4278e+07,70.552,0,1.2186e+07,32.899,485.01,1
1560,0.44,12156,1,12156,1,1.3932e-05,8.1847e-11,0,5.888e-05,-2.5845e-06,3.4802e+06,26.041,0,2.1761e+07,-33.372,12155,12992,1,12992,1,0.00012569,3.8974e-10,0,0.00012569,1.8353e-05,4.2956e+07,132.68,0,4.2956e+07,86.901,12991,12156,1,12156,1,1.3932e-05,8.4298e-11,0,5.8112e-05,-2.5801e-06,5.0614e+06,26.532,0,2.1846e+07,-27.403,12155,11317,1,11317,1,-9.7822e-05,-3.2484e-10,0,5.219e-07,-2.3526e-05,-3.9788e+07,-110.61,0,1.5182e+05,-198.29,11316,11734,1,11734,1,-4.418e-05,9.7205e-12,0,2.7343e-05,-1.347e-05,-1.7969e+07,3.0066,0,1.0695e+07,-61.157,11733,12578,1,12578,1,7.2045e-05,1.6369e-10,0,8.8882e-05,8.2998e-06,2.5073e+07,50.964,0,3.2515e+07,-8.6165,12577,485.01,0,485.01,0,6.7074e-05,1.0676e-10,0,3.4987e-05,1.2566e-05,2.4844e+07,34.691,0,1.247e+07,45.312,485.01,1
1560,0.45,12156,1,12156,1,1.4248e-05,6.428e-12,0,6.0215e-05,-2.643e-06,3.5591e+06,1.9946,0,2.2254e+07,4.6539,12155,12992,1,12992,1,0.00012854,5.6281e-10,0,0.00012854,1.8769e-05,4.393e+07,174.27,0,4.393e+07,84.629,12991,12156,1,12156,1,1.4248e-05,-6.0411e-12,0,5.9429e-05,-2.6385e-06,5.1762e+06,-2.055,0,2.2341e+07,11.31,12155,11317,1,11317,1,-0.00010004,-7.3494e-10,0,5.3381e-07,-2.4059e-05,-4.069e+07,-236.17,0,1.5529e+05,-292.62,11316,11734,1,11734,1,-4.5181e-05,-1.6391e-10,0,2.7963e-05,-1.3775e-05,-1.8376e+07,-51.607,0,1.0938e+07,0.46354,11733,12578,1,12578,1,7.3677e-05,1.9712e-10,0,9.0896e-05,8.4879e-06,2.5641e+07,63.317,0,3.3251e+07,20.3,12577,485.01,0,485.01,0,6.8594e-05,2.667e-10,0,3.5779e-05,1.285e-05,2.5407e+07,84.463,0,1.2753e+07,37.989,485.01,1
1560,0.46,12156,1,12156,1,1.4566e-05,6.9026e-12,0,6.1557e-05,-2.702e-06,3.6384e+06,2.2496,0,2.275e+07,-36.02,12155,12992,1,12992,1,0.0001314,3.8877e-10,0,0.0001314,1.9187e-05,4.4909e+07,132.33,0,4.4909e+07,66.718,12991,12156,1,12156,1,1.4566e-05,9.3185e-12,0,6.0754e-05,-2.6975e-06,5.2915e+06,2.8579,0,2.2839e+07,-11.227,12155,11317,1,11317,1,-0.00010227,-4.0593e-10,0,5.4558e-07,-2.4595e-05,-4.1596e+07,-138.21,0,1.5872e+05,-245.89,11316,11734,1,11734,1,-4.6188e-05,-7.8961e-11,0,2.8586e-05,-1.4083e-05,-1.8785e+07,-24.899,0,1.1182e+07,-74.163,11733,12578,1,12578,1,7.532e-05,9.0449e-11,0,9.2922e-05,8.6771e-06,2.6213e+07,29.094,0,3.3993e+07,7.523,12577,485.01,0,485.01,0,7.0123e-05,1.3061e-10,0,3.6577e-05,1.3137e-05,2.5974e+07,41.977,0,1.3037e+07,62.262,485.01,1
1560,0.47,12156,1,12156,1,1.4883e-05,-1.1061e-10,0,6.2896e-05,-2.7608e-06,3.7175e+06,-35.24,0,2.3245e+07,-56.19,12155,12992,1,12992,1,0.00013426,2.7529e-10,0,0.00013426,1.9604e-05,4.5885e+07,93.724,0,4.5885e+07,99.689,12991,12156,1,12156,1,1.4883e-05,-1.0556e-10,0,6.2075e-05,-2.7561e-06,5.4066e+06,-34.144,0,2.3335e+07,-50.285,12155,11317,1,11317,1,-0.00010449,-5.4426e-10,0,5.5734e-07,-2.513e-05,-4.2501e+07,-185.29,0,1.6212e+05,-280.17,11316,11734,1,11734,1,-4.7193e-05,-1.8745e-10,0,2.9208e-05,-1.4389e-05,-1.9194e+07,-59.242,0,1.1425e+07,-106.19,11733,12578,1,12578,1,7.6958e-05,-2.9356e-11,0,9.4943e-05,8.8659e-06,2.6783e+07,-9.1917,0,3.4732e+07,1.7183,12577,485.01,0,485.01,0,7.1648e-05,1.1609e-10,0,3.7372e-05,1.3423e-05,2.6539e+07,37.567,0,1.3321e+07,69.514,485.01,1
1560,0.48,12156,1,12156,1,1.5199e-05,1.8452e-10,0,6.423e-05,-2.8193e-06,3.7964e+06,58.913,0,2.3739e+07,-16.198,12155,12992,1,12992,1,0.00013711,8.0677e-10,0,0.00013711,2.002e-05,4.686e+07,249.8,0,4.686e+07,60.356,12991,12156,1,12156,1,1.5199e-05,1.2914e-10,0,6.3393e-05,-2.8146e-06,5.5214e+06,41.704,0,2.3831e+07,-2.2321,12155,11317,1,11317,1,-0.00010671,-3.0088e-10,0,5.6945e-07,-2.5663e-05,-4.3403e+07,-93.18,0,1.6566e+05,-216.16,11316,11734,1,11734,1,-4.8194e-05,-9.857e-12,0,2.9828e-05,-1.4694e-05,-1.9601e+07,-3.202,0,1.1667e+07,-42.01,11733,12578,1,12578,1,7.8591e-05,3.4975e-10,0,9.6957e-05,9.054e-06,2.7351e+07,110.5,0,3.5469e+07,15.121,12577,485.01,0,485.01,0,7.3169e-05,2.2909e-10,0,3.8166e-05,1.3707e-05,2.7102e+07,72.597,0,1.3603e+07,44.962,485.01,1
1560,0.49,12156,1,12156,1,1.5515e-05,1.1514e-10,0,6.5567e-05,-2.8779e-06,3.8754e+06,36.72,0,2.4232e+07,0.16043,12155,12992,1,12992,1,0.00013996,9.8429e-10,0,0.00013996,2.0437e-05,4.7835e+07,304.8,0,4.7835e+07,45.489,12991,12156,1,12156,1,1.5515e-05,7.2564e-11,0,6.4712e-05,-2.873e-06,5.6363e+06,23.184,0,2.4327e+07,2.2701,12155,11317,1,11317,1,-0.00010893,-6.9769e-10,0,5.8128e-07,-2.6197e-05,-4.4306e+07,-216.05,0,1.6912e+05,-44.473,11316,11734,1,11734,1,-4.9197e-05,-9.63e-11,0,3.0448e-05,-1.5e-05,-2.0009e+07,-31.078,0,1.191e+07,-10.144,11733,12578,1,12578,1,8.0226e-05,3.3429e-10,0,9.8975e-05,9.2423e-06,2.792e+07,106.44,0,3.6207e+07,10.921,12577,485.01,0,485.01,0,7.4691e-05,3.1466e-10,0,3.896e-05,1.3993e-05,2.7666e+07,99.914,0,1.3886e+07,15.01,485.01,1
1560,0.5,12156,1,12156,1,1.5831e-05,-9.3017e-11,0,6.6905e-05,-2.9367e-06,3.9545e+06,-29.532,0,2.4727e+07,-5.6547,12155,12992,1,12992,1,0.00014282,9.3105e-10,0,0.00014282,2.0854e-05,4.8811e+07,288.31,0,4.8811e+07,38.35,12991,12156,1,12156,1,1.5831e-05,-5.5668e-11,0,6.6032e-05,-2.9317e-06,5.7513e+06,-16.713,0,2.4823e+07,1.2708,12155,11317,1,11317,1,-0.00011115,-1.0117e-09,0,5.9311e-07,-2.6732e-05,-4.521e+07,-317.45,0,1.7255e+05,-139.2,11316,11734,1,11734,1,-5.0201e-05,-3.7575e-10,0,3.107e-05,-1.5306e-05,-2.0417e+07,-121.07,0,1.2153e+07,-15,11733,12578,1,12578,1,8.1863e-05,1.486e-10,0,0.00010099,9.431e-06,2.849e+07,47.198,0,3.6946e+07,11.511,12577,485.01,0,485.01,0,7.6215e-05,3.9765e-10,0,3.9755e-05,1.4278e-05,2.823e+07,126.35,0,1.417e+07,27.712,485.01,1
1560,0.51,12156,1,12156,1,1.6149e-05,-5.3388e-11,0,6.8247e-05,-2.9957e-06,4.0338e+06,-16.911,0,2.5223e+07,-28.459,12155,12992,1,12992,1,0.00014568,1.8565e-10,0,0.00014568,2.1272e-05,4.979e+07,63.163,0,4.979e+07,121.48,12991,12156,1,12156,1,1.6149e-05,-4.6905e-11,0,6.7357e-05,-2.9907e-06,5.8666e+06,-14.642,0,2.5321e+07,-4.0809,12155,11317,1,11317,1,-0.00011338,-2.7334e-10,0,6.049e-07,-2.7268e-05,-4.6117e+07,-84.677,0,1.7597e+05,-280.82,11316,11734,1,11734,1,-5.1208e-05,-8.8101e-11,0,3.1693e-05,-1.5613e-05,-2.0827e+07,-28.199,0,1.2397e+07,-57.899,11733,12578,1,12578,1,8.3506e-05,-9.8393e-12,0,0.00010302,9.6202e-06,2.9062e+07,-3.0666,0,3.7687e+07,16.85,12577,485.01,0,485.01,0,7.7745e-05,6.2974e-11,0,4.0552e-05,1.4565e-05,2.8797e+07,19.914,0,1.4454e+07,73.733,485.01,1
1560,0.52,12156,1,12156,1,1.6467e-05,-6.6768e-11,0,6.9592e-05,-3.0547e-06,4.1134e+06,-21.301,0,2.572e+07,-7.4667,12155,12992,1,12992,1,0.00014855,5.3938e-10,0,0.00014855,2.1691e-05,5.0771e+07,166.26,0,5.0771e+07,28.834,12991,12156,1,12156,1,1.6467e-05,-1.448e-11,0,6.8683e-05,-3.0494e-06,5.9823e+06,-4.2405,0,2.582e+07,-8.7947,12155,11317,1,11317,1,-0.00011562,-8.1059e-10,0,6.1722e-07,-2.7805e-05,-4.7025e+07,-275.93,0,1.796e+05,-58.083,11316,11734,1,11734,1,-5.2216e-05,-2.499e-10,0,3.2317e-05,-1.5921e-05,-2.1237e+07,-78.002,0,1.2641e+07,-15.837,11733,12578,1,12578,1,8.5151e-05,1.2879e-10,0,0.00010505,9.8096e-06,2.9634e+07,40.879,0,3.8429e+07,2.974,12577,485.01,0,485.01,0,7.9276e-05,2.8972e-10,0,4.1351e-05,1.4852e-05,2.9364e+07,92.321,0,1.4739e+07,15.024,485.01,1
1560,0.53,12156,1,12156,1,1.6781e-05,7.3427e-11,0,7.092e-05,-3.1129e-06,4.1918e+06,23.457,0,2.6211e+07,2.5751,12155,12992,1,12992,1,0.00015139,1.19e-09,0,0.00015139,2.2106e-05,5.174e+07,368.46,0,5.174e+07,38.462,12991,12156,1,12156,1,1.6781e-05,3.6462e-11,0,6.9995e-05,-3.1076e-06,6.0964e+06,10.873,0,2.6313e+07,6.5599,12155,11317,1,11317,1,-0.00011783,-9.8072e-10,0,6.2861e-07,-2.8336e-05,-4.7924e+07,-303.68,0,1.8288e+05,-98.077,11316,11734,1,11734,1,-5.3214e-05,-2.2256e-10,0,3.2934e-05,-1.6225e-05,-2.1643e+07,-70.889,0,1.2882e+07,-7.4439,11733,12578,1,12578,1,8.6776e-05,3.7842e-10,0,0.00010706,9.997e-06,3.02e+07,117.5,0,3.9163e+07,17.079,12577,485.01,0,485.01,0,8.0789e-05,4.4637e-10,0,4.2141e-05,1.5135e-05,2.9925e+07,142.02,0,1.502e+07,20.899,485.01,1
1560,0.54,12156,1,12156,1,1.7097e-05,1.8577e-10,0,7.2256e-05,-3.1715e-06,4.2707e+06,59.2,0,2.6705e+07,5.0296,12155,12992,1,12992,1,0.00015424,1.5217e-09,0,0.00015424,2.2522e-05,5.2715e+07,471.2,0,5.2715e+07,39.111,12991,12156,1,12156,1,1.7097e-05,1.158e-10,0,7.1314e-05,-3.166e-06,6.2112e+06,36.22,0,2.6809e+07,5.9089,12155,11317,1,11317,1,-0.00012005,-9.6608e-10,0,6.4038e-07,-2.887e-05,-4.8827e+07,-305.76,0,1.863e+05,-63.12,11316,11734,1,11734,1,-5.4216e-05,-1.8352e-10,0,3.3554e-05,-1.653e-05,-2.205e+07,-58.375,0,1.3125e+07,-8.2856,11733,12578,1,12578,1,8.841e-05,5.6269e-10,0,0.00010907,1.0185e-05,3.0768e+07,179.45,0,3.99e+07,18.645,12577,485.01,0,485.01,0,8.2311e-05,5.3938e-10,0,4.2934e-05,1.542e-05,3.0488e+07,171.65,0,1.5303e+07,16.231,485.01,1
1560,0.55,12156,1,12156,1,1.7415e-05,2.6457e-10,0,7.3599e-05,-3.2305e-06,4.3502e+06,84.146,0,2.7201e+07,-5.5233,12155,12992,1,12992,1,0.00015711,7.3635e-10,0,0.00015711,2.294e-05,5.3695e+07,224.31,0,5.3695e+07,40.341,12991,12156,1,12156,1,1.7415e-05,2.2789e-10,0,7.2639e-05,-3.225e-06,6.3267e+06,73.114,0,2.7307e+07,0.43316,12155,11317,1,11317,1,-0.00012228,-1.298e-10,0,6.5253e-07,-2.9406e-05,-4.9734e+07,-41.673,0,1.8985e+05,-150.17,11316,11734,1,11734,1,-5.5223e-05,7.9129e-11,0,3.4178e-05,-1.6837e-05,-2.246e+07,25.359,0,1.3369e+07,-13.034,11733,12578,1,12578,1,9.0054e-05,4.4281e-10,0,0.0001111,1.0374e-05,3.134e+07,141.58,0,4.0642e+07,8.7094,12577,485.01,0,485.01,0,8.3841e-05,2.1366e-10,0,4.3732e-05,1.5707e-05,3.1055e+07,67.733,0,1.5587e+07,22.92,485.01,1
1560,0.56,12156,1,12156,1,1.7732e-05,1.6757e-10,0,7.4936e-05,-3.2892e-06,4.4292e+06,53.361,0,2.7695e+07,-0.082634,12155,12992,1,12992,1,0.00015996,4.999e-10,0,0.00015996,2.3357e-05,5.467e+07,156.75,0,5.467e+07,11.912,12991,12156,1,12156,1,1.7732e-05,1.6432e-10,0,7.3959e-05,-3.2835e-06,6.4417e+06,52.122,0,2.7803e+07,-0.38872,12155,11317,1,11317,1,-0.0001245,-8.8203e-11,0,6.6434e-07,-2.9941e-05,-5.0638e+07,-28.324,0,1.9328e+05,-24.904,11316,11734,1,11734,1,-5.6227e-05,4.7397e-11,0,3.4799e-05,-1.7143e-05,-2.2868e+07,15.033,0,1.3612e+07,-3.1763,11733,12578,1,12578,1,9.1691e-05,2.8165e-10,0,0.00011312,1.0563e-05,3.191e+07,90.253,0,4.1381e+07,3.3554,12577,485.01,0,485.01,0,8.5365e-05,1.3697e-10,0,4.4527e-05,1.5992e-05,3.1619e+07,43.16,0,1.5871e+07,4.6657,485.01,1
1560,0.57,12156,1,12156,1,1.8048e-05,8.1088e-11,0,7.6273e-05,-3.3479e-06,4.5082e+06,25.955,0,2.8189e+07,3.0702,12155,12992,1,12992,1,0.00016282,9.6907e-10,0,0.00016282,2.3774e-05,5.5645e+07,307.83,0,5.5645e+07,72.037,12991,12156,1,12156,1,1.8048e-05,1.5423e-11,0,7.5278e-05,-3.3421e-06,6.5566e+06,4.7752,0,2.8299e+07,3.7432,12155,11317,1,11317,1,-0.00012672,-5.786e-10,0,6.7613e-07,-3.0475e-05,-5.1541e+07,-185.92,0,1.9672e+05,-181.72,11316,11734,1,11734,1,-5.723e-05,-1.335e-10,0,3.542e-05,-1.7449e-05,-2.3276e+07,-41.548,0,1.3855e+07,-4.8692,11733,12578,1,12578,1,9.3326e-05,2.6984e-10,0,0.00011514,1.0752e-05,3.2479e+07,87.726,0,4.2119e+07,12.028,12577,485.01,0,485.01,0,8.6887e-05,3.2721e-10,0,4.5321e-05,1.6278e-05,3.2183e+07,104.07,0,1.6154e+07,27.995,485.01,1
1560,0.58,12156,1,12156,1,1.8365e-05,1.8818e-10,0,7.7613e-05,-3.4067e-06,4.5874e+06,59.863,0,2.8685e+07,-7.793,12155,12992,1,12992,1,0.00016568,7.3262e-10,0,0.00016568,2.4192e-05,5.6623e+07,224.64,0,5.6623e+07,8.2638,12991,12156,1,12156,1,1.8365e-05,1.2062e-10,0,7.6601e-05,-3.4008e-06,6.6718e+06,38.019,0,2.8796e+07,-5.9897,12155,11317,1,11317,1,-0.00012895,-1.6371e-10,0,6.8807e-07,-3.101e-05,-5.2447e+07,-52.607,0,2.0018e+05,-65.293,11316,11734,1,11734,1,-5.8235e-05,1.6979e-12,0,3.6042e-05,-1.7756e-05,-2.3685e+07,0.53847,0,1.4098e+07,-12.425,11733,12578,1,12578,1,9.4966e-05,3.4825e-10,0,0.00011716,1.094e-05,3.305e+07,110.97,0,4.2859e+07,-0.11999,12577,485.01,0,485.01,0,8.8414e-05,2.2234e-10,0,4.6118e-05,1.6564e-05,3.2749e+07,70.367,0,1.6438e+07,10.367,485.01,1
1560,0.59,12156,1,12156,1,1.8682e-05,1.6366e-10,0,7.8953e-05,-3.4655e-06,4.6666e+06,52.071,0,2.918e+07,-0.70021,12155,12992,1,12992,1,0.00016853,3.8401e-10,0,0.00016853,2.4609e-05,5.76e+07,118.9,0,5.76e+07,32.427,12991,12156,1,12156,1,1.8682e-05,1.5078e-10,0,7.7923e-05,-3.4595e-06,6.7869e+06,48.69,0,2.9293e+07,0.14496,12155,11317,1,11317,1,-0.00013117,-3.5625e-11,0,6.9988e-07,-3.1545e-05,-5.3351e+07,-10.254,0,2.0361e+05,-81.714,11316,11734,1,11734,1,-5.9241e-05,9.5387e-11,0,3.6664e-05,-1.8062e-05,-2.4094e+07,30.378,0,1.4341e+07,-4.0227,11733,12578,1,12578,1,9.6605e-05,2.3724e-10,0,0.00011918,1.1129e-05,3.362e+07,75.807,0,4.3599e+07,5.1266,12577,485.01,0,485.01,0,8.994e-05,9.3805e-11,0,4.6914e-05,1.6849e-05,3.3314e+07,29.804,0,1.6721e+07,12.091,485.01,1
1560,0.6,12156,1,12156,1,1.8998e-05,1.7877e-10,0,8.0287e-05,-3.524e-06,4.7454e+06,57.08,0,2.9673e+07,0.7514,12155,12992,1,12992,1,0.00017138,9.8896e-10,0,0.00017138,2.5025e-05,5.8574e+07,310.26,0,5.8574e+07,22.026,12991,12156,1,12156,1,1.8998e-05,1.3196e-10,0,7.924e-05,-3.518e-06,6.9016e+06,41.779,0,2.9788e+07,2.0322,12155,11317,1,11317,1,-0.00013339,-5.9325e-10,0,7.117e-07,-3.2078e-05,-5.4253e+07,-190.63,0,2.0706e+05,-24.225,11316,11734,1,11734,1,-6.0241e-05,-6.312e-11,0,3.7284e-05,-1.8367e-05,-2.4501e+07,-19.953,0,1.4584e+07,-7.4798,11733,12578,1,12578,1,9.8237e-05,4.1991e-10,0,0.00012119,1.1317e-05,3.4188e+07,134.51,0,4.4335e+07,8.7062,12577,485.01,0,485.01,0,9.1459e-05,3.3714e-10,0,4.7706e-05,1.7134e-05,3.3877e+07,107.63,0,1.7004e+07,10.016,485.01,1
1560,0.61,12156,1,12156,1,1.9315e-05,-2.3958e-11,0,8.1628e-05,-3.5829e-06,4.8247e+06,-7.6905,0,3.0169e+07,3.3146,12155,12992,1,12992,1,0.00017425,4.4398e-10,0,0.00017425,2.5443e-05,5.9552e+07,137.99,0,5.9552e+07,65.636,12991,12156,1,12156,1,1.9315e-05,-2.9068e-11,0,8.0564e-05,-3.5767e-06,7.0169e+06,-9.0406,0,3.0286e+07,5.5851,12155,11317,1,11317,1,-0.00013562,-4.4453e-10,0,7.2348e-07,-3.2614e-05,-5.5159e+07,-142.87,0,2.1046e+05,-128.28,11316,11734,1,11734,1,-6.1248e-05,-1.4767e-10,0,3.7907e-05,-1.8674e-05,-2.4911e+07,-47.531,0,1.4828e+07,-0.73479,11733,12578,1,12578,1,9.9879e-05,6.9022e-11,0,0.00012322,1.1506e-05,3.476e+07,22.127,0,4.5076e+07,14.898,12577,485.01,0,485.01,0,9.2988e-05,1.7004e-10,0,4.8503e-05,1.742e-05,3.4443e+07,53.833,0,1.7288e+07,23.847,485.01,1
1560,0.62,12156,1,12156,1,1.9631e-05,6.7815e-11,0,8.2963e-05,-3.6416e-06,4.9037e+06,21.487,0,3.0662e+07,-0.022551,12155,12992,1,12992,1,0.0001771,1.0339e-09,0,0.0001771,2.5859e-05,6.0526e+07,332.28,0,6.0526e+07,30.377,12991,12156,1,12156,1,1.9631e-05,1.9309e-11,0,8.1881e-05,-3.6353e-06,7.1317e+06,5.855,0,3.0781e+07,0.23635,12155,11317,1,11317,1,-0.00013783,-7.6569e-10,0,7.3561e-07,-3.3148e-05,-5.6062e+07,-243.89,0,2.1403e+05,-28.402,11316,11734,1,11734,1,-6.225e-05,-1.9725e-10,0,3.8527e-05,-1.898e-05,-2.5318e+07,-64.04,0,1.507e+07,-9.9065,11733,12578,1,12578,1,0.00010151,3.1296e-10,0,0.00012524,1.1695e-05,3.5328e+07,100.44,0,4.5813e+07,9.5484,12577,485.01,0,485.01,0,9.4509e-05,3.8537e-10,0,4.9297e-05,1.7705e-05,3.5006e+07,122.58,0,1.7571e+07,11.972,485.01,1
1560,0.63,12156,1,12156,1,1.9948e-05,2.0083e-10,0,8.4303e-05,-3.7003e-06,4.9828e+06,63.768,0,3.1157e+07,5.3581,12155,12992,1,12992,1,0.00017996,9.8139e-10,0,0.00017996,2.6277e-05,6.1504e+07,303.86,0,6.1504e+07,39.198,12991,12156,1,12156,1,1.9948e-05,1.2498e-10,0,8.3204e-05,-3.6939e-06,7.2469e+06,40.124,0,3.1278e+07,4.3904,12155,11317,1,11317,1,-0.00014006,-3.8818e-10,0,7.4727e-07,-3.3683e-05,-5.6968e+07,-124.75,0,2.1741e+05,-31.466,11316,11734,1,11734,1,-6.3255e-05,-3.0593e-11,0,3.9149e-05,-1.9286e-05,-2.5727e+07,-9.4518,0,1.5313e+07,-3.3399,11733,12578,1,12578,1,0.00010315,4.0394e-10,0,0.00012726,1.1883e-05,3.5899e+07,127.4,0,4.6553e+07,11.87,12577,485.01,0,485.01,0,9.6035e-05,2.984e-10,0,5.0093e-05,1.7991e-05,3.5572e+07,94.554,0,1.7855e+07,11.862,485.01,1
1560,0.64,12156,1,12156,1,2.0265e-05,3.4077e-10,0,8.5644e-05,-3.7592e-06,5.0621e+06,108.17,0,3.1653e+07,-1.6617,12155,12992,1,12992,1,0.00018282,6.4592e-10,0,0.00018282,2.6695e-05,6.2482e+07,199.98,0,6.2482e+07,8.3214,12991,12156,1,12156,1,2.0265e-05,3.693e-10,0,8.4527e-05,-3.7527e-06,7.3621e+06,116.59,0,3.1776e+07,-1.5775,12155,11317,1,11317,1,-0.00014229,-7.5471e-11,0,7.5922e-07,-3.4219e-05,-5.7873e+07,-21.725,0,2.2089e+05,-20.311,11316,11734,1,11734,1,-6.4261e-05,2.093e-10,0,3.9772e-05,-1.9593e-05,-2.6136e+07,64.99,0,1.5557e+07,-3.8009,11733,12578,1,12578,1,0.00010479,4.9183e-10,0,0.00012928,1.2072e-05,3.647e+07,156.8,0,4.7294e+07,1.644,12577,485.01,0,485.01,0,9.7562e-05,1.8266e-10,0,5.089e-05,1.8277e-05,3.6137e+07,57.489,0,1.8139e+07,4.781,485.01,1
1560,0.65,12156,1,12156,1,2.0582e-05,2.0041e-10,0,8.6982e-05,-3.8179e-06,5.1412e+06,63.689,0,3.2147e+07,-3.8757,12155,12992,1,12992,1,0.00018568,4.7113e-10,0,0.00018568,2.7112e-05,6.3458e+07,145.87,0,6.3458e+07,12.366,12991,12156,1,12156,1,2.0582e-05,2.0109e-10,0,8.5848e-05,-3.8113e-06,7.4771e+06,63.296,0,3.2272e+07,-2.633,12155,11317,1,11317,1,-0.00014451,-5.8493e-11,0,7.7109e-07,-3.4753e-05,-5.8777e+07,-16.838,0,2.2434e+05,-30.298,11316,11734,1,11734,1,-6.5266e-05,9.6695e-11,0,4.0393e-05,-1.9899e-05,-2.6544e+07,31.086,0,1.58e+07,-5.7589,11733,12578,1,12578,1,0.00010643,2.9601e-10,0,0.0001313,1.2261e-05,3.7039e+07,94.293,0,4.8033e+07,-1.1303,12577,485.01,0,485.01,0,9.9087e-05,1.2334e-10,0,5.1685e-05,1.8563e-05,3.6702e+07,39.024,0,1.8422e+07,5.1656,485.01,1
1560,0.66,12156,1,12156,1,2.0898e-05,2.0422e-10,0,8.8318e-05,-3.8766e-06,5.2201e+06,65.176,0,3.2641e+07,-3.4519,12155,12992,1,12992,1,0.00018853,6.6088e-10,0,0.00018853,2.7529e-05,6.4433e+07,200.57,0,6.4433e+07,13.387,12991,12156,1,12156,1,2.0898e-05,1.596e-10,0,8.7167e-05,-3.8699e-06,7.592e+06,49.805,0,3.2768e+07,-1.7519,12155,11317,1,11317,1,-0.00014673,-1.7941e-10,0,7.8295e-07,-3.5288e-05,-5.9681e+07,-57.634,0,2.2779e+05,-49.651,11316,11734,1,11734,1,-6.6268e-05,3.833e-11,0,4.1014e-05,-2.0205e-05,-2.6952e+07,11.928,0,1.6043e+07,-7.3533,11733,12578,1,12578,1,0.00010806,3.5302e-10,0,0.00013332,1.2449e-05,3.7608e+07,111.99,0,4.8771e+07,3.0813,12577,485.01,0,485.01,0,0.00010061,1.9977e-10,0,5.2479e-05,1.8848e-05,3.7266e+07,63.655,0,1.8705e+07,9.4888,485.01,1
1560,0.67,12156,1,12156,1,2.1215e-05,1.4597e-10,0,8.9658e-05,-3.9354e-06,5.2993e+06,46.491,0,3.3136e+07,2.6813,12155,12992,1,12992,1,0.00019139,4.6653e-10,0,0.00019139,2.7946e-05,6.541e+07,143.93,0,6.541e+07,34.752,12991,12156,1,12156,1,2.1215e-05,1.1405e-10,0,8.8489e-05,-3.9286e-06,7.7072e+06,36.247,0,3.3265e+07,0.76882,12155,11317,1,11317,1,-0.00014896,-8.5891e-11,0,7.948e-07,-3.5823e-05,-6.0585e+07,-27.604,0,2.3124e+05,-17.999,11316,11734,1,11734,1,-6.7273e-05,3.5691e-11,0,4.1636e-05,-2.0511e-05,-2.7361e+07,11.122,0,1.6286e+07,-2.5189,11733,12578,1,12578,1,0.0001097,2.4283e-10,0,0.00013534,1.2638e-05,3.8179e+07,76.663,0,4.951e+07,5.2924,12577,485.01,0,485.01,0,0.00010213,1.329e-10,0,5.3275e-05,1.9134e-05,3.7831e+07,42.172,0,1.8989e+07,9.0951,485.01,1
1560,0.68,12156,1,12156,1,2.1532e-05,1.0207e-10,0,9.0995e-05,-3.9941e-06,5.3783e+06,32.352,0,3.363e+07,0.78798,12155,12992,1,12992,1,0.00019424,5.4233e-10,0,0.00019424,2.8363e-05,6.6386e+07,167.38,0,6.6386e+07,30.621,12991,12156,1,12156,1,2.1532e-05,5.389e-11,0,8.9808e-05,-3.9872e-06,7.8221e+06,16.79,0,3.3761e+07,1.2593,12155,11317,1,11317,1,-0.00015118,-2.9154e-10,0,8.0668e-07,-3.6357e-05,-6.1489e+07,-93.686,0,2.3469e+05,-29.01,11316,11734,1,11734,1,-6.8276e-05,-3.6722e-11,0,4.2257e-05,-2.0817e-05,-2.7769e+07,-11.509,0,1.6529e+07,-3.752,11733,12578,1,12578,1,0.00011134,2.3111e-10,0,0.00013736,1.2827e-05,3.8748e+07,73.916,0,5.0249e+07,5.7073,12577,485.01,0,485.01,0,0.00010366,1.9026e-10,0,5.4069e-05,1.9419e-05,3.8395e+07,60.216,0,1.9272e+07,8.4489,485.01,1
1560,0.69,12156,1,12156,1,2.1849e-05,1.4834e-10,0,9.2335e-05,-4.0529e-06,5.4575e+06,47.19,0,3.4126e+07,-3.8049,12155,12992,1,12992,1,0.0001971,3.7167e-10,0,0.0001971,2.878e-05,6.7363e+07,116.96,0,6.7363e+07,10.636,12991,12156,1,12156,1,2.1849e-05,1.4406e-10,0,9.113e-05,-4.0459e-06,7.9372e+06,45.433,0,3.4258e+07,-3.2854,12155,11317,1,11317,1,-0.0001534,-6.1041e-11,0,8.1849e-07,-3.6892e-05,-6.2394e+07,-17.573,0,2.3813e+05,-25.693,11316,11734,1,11734,1,-6.9282e-05,5.6628e-11,0,4.2879e-05,-2.1124e-05,-2.8178e+07,17.171,0,1.6772e+07,-6.6852,11733,12578,1,12578,1,0.00011298,2.3449e-10,0,0.00013938,1.3016e-05,3.9319e+07,74.685,0,5.0989e+07,-0.44252,12577,485.01,0,485.01,0,0.00010518,1.0524e-10,0,5.4865e-05,1.9705e-05,3.8961e+07,33.457,0,1.9556e+07,5.3058,485.01,1
1560,0.7,12156,1,12156,1,2.2164e-05,6.0676e-11,0,9.3669e-05,-4.1114e-06,5.5364e+06,19.182,0,3.4619e+07,1.7601,12155,12992,1,12992,1,0.00019995,8.6902e-10,0,0.00019995,2.9196e-05,6.8336e+07,264.09,0,6.8336e+07,27.86,12991,12156,1,12156,1,2.2164e-05,2.1102e-11,0,9.2447e-05,-4.1043e-06,8.052e+06,6.7431,0,3.4753e+07,2.8363,12155,11317,1,11317,1,-0.00015562,-6.9677e-10,0,8.3037e-07,-3.7425e-05,-6.3296e+07,-223.91,0,2.4159e+05,-48.851,11316,11734,1,11734,1,-7.0283e-05,-1.6544e-10,0,4.3498e-05,-2.1429e-05,-2.8585e+07,-52.096,0,1.7015e+07,-7.336,11733,12578,1,12578,1,0.00011461,2.8369e-10,0,0.0001414,1.3204e-05,3.9887e+07,90.55,0,5.1725e+07,10.281,12577,485.01,0,485.01,0,0.0001067,3.3885e-10,0,5.5658e-05,1.999e-05,3.9523e+07,107.52,0,1.9838e+07,12.22,485.01,1
1560,0.71,12156,1,12156,1,2.2482e-05,2.3501e-10,0,9.5012e-05,-4.1704e-06,5.6157e+06,74.793,0,3.5115e+07,-3.2622,12155,12992,1,12992,1,0.00020282,4.4925e-10,0,0.00020282,2.9615e-05,6.9316e+07,139.1,0,6.9316e+07,42.787,12991,12156,1,12156,1,2.2482e-05,2.6205e-10,0,9.3772e-05,-4.1632e-06,8.1674e+06,82.958,0,3.5251e+07,-2.5846,12155,11317,1,11317,1,-0.00015785,-8.6617e-11,0,8.4222e-07,-3.7962e-05,-6.4203e+07,-24.934,0,2.4504e+05,-102.48,11316,11734,1,11734,1,-7.1291e-05,1.3338e-10,0,4.4122e-05,-2.1736e-05,-2.8995e+07,40.706,0,1.7259e+07,-5.1217,11733,12578,1,12578,1,0.00011625,3.4771e-10,0,0.00014342,1.3393e-05,4.0459e+07,112.48,0,5.2467e+07,-0.85443,12577,485.01,0,485.01,0,0.00010823,1.3521e-10,0,5.6456e-05,2.0277e-05,4.009e+07,42.729,0,2.0123e+07,9.2269,485.01,1
1560,0.72,12156,1,12156,1,2.2799e-05,2.0881e-10,0,9.6349e-05,-4.2291e-06,5.6948e+06,66.508,0,3.5609e+07,-2.5529,12155,12992,1,12992,1,0.00020567,6.2431e-10,0,0.00020567,3.0032e-05,7.0292e+07,192.35,0,7.0292e+07,15.408,12991,12156,1,12156,1,2.2799e-05,1.647e-10,0,9.5092e-05,-4.2218e-06,8.2823e+06,52.451,0,3.5747e+07,-1.9586,12155,11317,1,11317,1,-0.00016007,-8.9142e-11,0,8.5413e-07,-3.8496e-05,-6.5107e+07,-25.659,0,2.485e+05,-32.565,11316,11734,1,11734,1,-7.2294e-05,7.258e-11,0,4.4743e-05,-2.2042e-05,-2.9403e+07,23.299,0,1.7501e+07,-5.9281,11733,12578,1,12578,1,0.00011789,3.4199e-10,0,0.00014544,1.3581e-05,4.1028e+07,109.14,0,5.3205e+07,2.7584,12577,485.01,0,485.01,0,0.00010976,1.7491e-10,0,5.725e-05,2.0562e-05,4.0654e+07,55.443,0,2.0406e+07,7.2287,485.01,1
1560,0.73,12156,1,12156,1,2.3115e-05,-4.5506e-11,0,9.7686e-05,-4.2877e-06,5.7738e+06,-14.579,0,3.6103e+07,-1.9187,12155,12992,1,12992,1,0.00020852,8.7596e-10,0,0.00020852,3.0448e-05,7.1267e+07,275.98,0,7.1267e+07,39.122,12991,12156,1,12156,1,2.3115e-05,-6.872e-11,0,9.6411e-05,-4.2804e-06,8.3972e+06,-21.03,0,3.6243e+07,-4.2495,12155,11317,1,11317,1,-0.00016229,-6.8607e-10,0,8.6593e-07,-3.903e-05,-6.601e+07,-220.52,0,2.5193e+05,-59.076,11316,11734,1,11734,1,-7.3297e-05,-3.1005e-10,0,4.5364e-05,-2.2348e-05,-2.9811e+07,-97.257,0,1.7744e+07,-12.923,11733,12578,1,12578,1,0.00011953,1.4268e-10,0,0.00014746,1.377e-05,4.1597e+07,46.737,0,5.3943e+07,8.7996,12577,485.01,0,485.01,0,0.00011128,3.3678e-10,0,5.8045e-05,2.0847e-05,4.1218e+07,107.32,0,2.0689e+07,15.649,485.01,1
1560,0.74,12156,1,12156,1,2.3432e-05,1.3794e-10,0,9.9024e-05,-4.3465e-06,5.8529e+06,43.861,0,3.6598e+07,1.4591,12155,12992,1,12992,1,0.00021138,7.2326e-10,0,0.00021138,3.0866e-05,7.2244e+07,226.92,0,7.2244e+07,22.391,12991,12156,1,12156,1,2.3432e-05,7.2714e-11,0,9.7733e-05,-4.339e-06,8.5123e+06,23.249,0,3.674e+07,0.61351,12155,11317,1,11317,1,-0.00016452,-2.5557e-10,0,8.7782e-07,-3.9565e-05,-6.6915e+07,-82.149,0,2.554e+05,-16.186,11316,11734,1,11734,1,-7.4301e-05,-3.7218e-11,0,4.5985e-05,-2.2654e-05,-3.0219e+07,-11.526,0,1.7987e+07,-4.7018,11733,12578,1,12578,1,0.00012116,3.0455e-10,0,0.00014948,1.3959e-05,4.2167e+07,96.928,0,5.4683e+07,7.5525,12577,485.01,0,485.01,0,0.0001128,2.3134e-10,0,5.884e-05,2.1133e-05,4.1783e+07,73.311,0,2.0972e+07,7.7302,485.01,1
1560,0.75,12156,1,12156,1,2.3748e-05,2.4417e-10,0,0.00010036,-4.4052e-06,5.932e+06,77.624,0,3.7092e+07,-1.8205,12155,12992,1,12992,1,0.00021424,1.0335e-09,0,0.00021424,3.1283e-05,7.322e+07,322.67,0,7.322e+07,22.875,12991,12156,1,12156,1,2.3748e-05,1.5158e-10,0,9.9053e-05,-4.3976e-06,8.6273e+06,48.204,0,3.7236e+07,-0.62449,12155,11317,1,11317,1,-0.00016674,-2.3814e-10,0,8.897e-07,-4.0099e-05,-6.7819e+07,-76.532,0,2.5885e+05,-37.302,11316,11734,1,11734,1,-7.5305e-05,6.842e-13,0,4.6606e-05,-2.296e-05,-3.0627e+07,0.20093,0,1.823e+07,-8.4874,11733,12578,1,12578,1,0.0001228,4.4042e-10,0,0.0001515,1.4147e-05,4.2737e+07,140.38,0,5.5421e+07,5.8913,12577,485.01,0,485.01,0,0.00011433,3.0224e-10,0,5.9635e-05,2.1418e-05,4.2348e+07,95.817,0,2.1256e+07,11.262,485.01,1
1560,0.76,12156,1,12156,1,2.4065e-05,2.7519e-10,0,0.0001017,-4.4639e-06,6.011e+06,87.461,0,3.7587e+07,4.8442,12155,12992,1,12992,1,0.00021709,8.9305e-10,0,0.00021709,3.17e-05,7.4196e+07,274.03,0,7.4196e+07,35.817,12991,12156,1,12156,1,2.4065e-05,2.2798e-10,0,0.00010037,-4.4562e-06,8.7423e+06,73.425,0,3.7733e+07,4.322,12155,11317,1,11317,1,-0.00016896,-2.5361e-10,0,9.0154e-07,-4.0634e-05,-6.8723e+07,-81.491,0,2.623e+05,-17.921,11316,11734,1,11734,1,-7.6308e-05,4.4927e-11,0,4.7228e-05,-2.3266e-05,-3.1036e+07,14.243,0,1.8473e+07,-4.7934,11733,12578,1,12578,1,0.00012444,4.8559e-10,0,0.00015352,1.4336e-05,4.3306e+07,154.4,0,5.616e+07,12.801,12577,485.01,0,485.01,0,0.00011585,2.7404e-10,0,6.043e-05,2.1704e-05,4.2912e+07,86.849,0,2.1539e+07,11.246,485.01,1
1560,0.77,12156,1,12156,1,2.4381e-05,1.5494e-10,0,0.00010304,-4.5226e-06,6.0901e+06,49.307,0,3.8081e+07,0.89624,12155,12992,1,12992,1,0.00021995,1.0116e-09,0,0.00021995,3.2116e-05,7.5171e+07,319.93,0,7.5171e+07,29.867,12991,12156,1,12156,1,2.4381e-05,7.7836e-11,0,0.00010169,-4.5148e-06,8.8573e+06,24.829,0,3.8229e+07,1.8254,12155,11317,1,11317,1,-0.00017118,-4.2509e-10,0,9.1337e-07,-4.1168e-05,-6.9627e+07,-136.6,0,2.6573e+05,-27.451,11316,11734,1,11734,1,-7.7312e-05,-5.3348e-11,0,4.7849e-05,-2.3572e-05,-3.1444e+07,-16.724,0,1.8716e+07,-6.4912,11733,12578,1,12578,1,0.00012607,3.3577e-10,0,0.00015554,1.4524e-05,4.3876e+07,106.45,0,5.6899e+07,7.6657,12577,485.01,0,485.01,0,0.00011738,3.0309e-10,0,6.1225e-05,2.1989e-05,4.3476e+07,96.331,0,2.1822e+07,9.9705,485.01,1
1560,0.78,12156,1,12156,1,2.4698e-05,7.201e-11,0,0.00010438,-4.5814e-06,6.1692e+06,22.906,0,3.8576e+07,-4.4755,12155,12992,1,12992,1,0.0002228,6.8281e-10,0,0.0002228,3.2534e-05,7.6148e+07,219.48,0,7.6148e+07,26.343,12991,12156,1,12156,1,2.4698e-05,2.2127e-11,0,0.00010301,-4.5735e-06,8.9724e+06,6.8352,0,3.8726e+07,-2.92,12155,11317,1,11317,1,-0.00017341,-4.1971e-10,0,9.2525e-07,-4.1703e-05,-7.0531e+07,-134.86,0,2.6919e+05,-140.47,11316,11734,1,11734,1,-7.8317e-05,-9.9166e-11,0,4.8471e-05,-2.3878e-05,-3.1853e+07,-31.642,0,1.896e+07,-11.028,11733,12578,1,12578,1,0.00012771,2.3589e-10,0,0.00015756,1.4713e-05,4.4446e+07,75.849,0,5.7638e+07,5.5414,12577,485.01,0,485.01,0,0.0001189,2.4067e-10,0,6.202e-05,2.2275e-05,4.4041e+07,76.472,0,2.2106e+07,15.903,485.01,1
1560,0.79,12156,1,12156,1,2.5014e-05,2.4954e-11,0,0.00010571,-4.64e-06,6.2482e+06,7.8889,0,3.907e+07,2.6144,12155,12992,1,12992,1,0.00022566,1.0369e-09,0,0.00022566,3.295e-05,7.7122e+07,320.65,0,7.7122e+07,27.497,12991,12156,1,12156,1,2.5014e-05,1.8973e-11,0,0.00010433,-4.632e-06,9.0872e+06,5.7231,0,3.9221e+07,3.3653,12155,11317,1,11317,1,-0.00017563,-9.333e-10,0,9.3705e-07,-4.2237e-05,-7.1434e+07,-296.11,0,2.7261e+05,-61.374,11316,11734,1,11734,1,-7.9319e-05,-2.5598e-10,0,4.9091e-05,-2.4184e-05,-3.226e+07,-82.092,0,1.9202e+07,-7.5522,11733,12578,1,12578,1,0.00012935,2.9259e-10,0,0.00015958,1.4901e-05,4.5015e+07,93.257,0,5.8376e+07,13.82,12577,485.01,0,485.01,0,0.00012042,4.1553e-10,0,6.2814e-05,2.256e-05,4.4605e+07,132.22,0,2.2389e+07,13.979,485.01,1
1560,0.8,12156,1,12156,1,2.5332e-05,2.8075e-10,0,0.00010705,-4.6989e-06,6.3275e+06,89.39,0,3.9565e+07,-5.1383,12155,12992,1,12992,1,0.00022852,9.7745e-10,0,0.00022852,3.3368e-05,7.8102e+07,302.63,0,7.8102e+07,14.252,12991,12156,1,12156,1,2.5332e-05,2.0547e-10,0,0.00010566,-4.6908e-06,9.2025e+06,65.539,0,3.9719e+07,-3.9712,12155,11317,1,11317,1,-0.00017786,-1.7664e-10,0,9.4906e-07,-4.2773e-05,-7.2341e+07,-56.773,0,2.7613e+05,-38.453,11316,11734,1,11734,1,-8.0325e-05,3.3938e-11,0,4.9714e-05,-2.4491e-05,-3.2669e+07,10.985,0,1.9446e+07,-10.598,11733,12578,1,12578,1,0.00013099,4.9186e-10,0,0.0001616,1.509e-05,4.5586e+07,154.96,0,5.9116e+07,2.8496,12577,485.01,0,485.01,0,0.00012195,2.9162e-10,0,6.3611e-05,2.2846e-05,4.5171e+07,92.801,0,2.2673e+07,10.334,485.01,1
1560,0.81,12156,1,12156,1,2.5648e-05,1.0011e-10,0,0.00010839,-4.7576e-06,6.4065e+06,31.751,0,4.0059e+07,6.5713,12155,12992,1,12992,1,0.00023137,1.1873e-09,0,0.00023137,3.3785e-05,7.9076e+07,372.37,0,7.9076e+07,55.565,12991,12156,1,12156,1,2.5648e-05,7.0445e-12,0,0.00010698,-4.7493e-06,9.3174e+06,2.2149,0,4.0215e+07,4.0041,12155,11317,1,11317,1,-0.00018008,-4.835e-10,0,9.6076e-07,-4.3307e-05,-7.3244e+07,-155.4,0,2.7952e+05,-20.735,11316,11734,1,11734,1,-8.1329e-05,-1.2926e-10,0,5.0335e-05,-2.4797e-05,-3.3078e+07,-40.145,0,1.9689e+07,-3.4543,11733,12578,1,12578,1,0.00013262,2.6609e-10,0,0.00016362,1.5279e-05,4.6155e+07,85.815,0,5.9855e+07,12.074,12577,485.01,0,485.01,0,0.00012347,3.4133e-10,0,6.4405e-05,2.3132e-05,4.5735e+07,108.36,0,2.2956e+07,14.714,485.01,1
1560,0.82,12156,1,12156,1,2.5965e-05,1.1601e-10,0,0.00010973,-4.8164e-06,6.4856e+06,36.708,0,4.0554e+07,2.038,12155,12992,1,12992,1,0.00023423,1.0172e-09,0,0.00023423,3.4202e-05,8.0053e+07,311.02,0,8.0053e+07,43.766,12991,12156,1,12156,1,2.5965e-05,2.7145e-11,0,0.0001083,-4.808e-06,9.4325e+06,8.5941,0,4.0712e+07,2.0248,12155,11317,1,11317,1,-0.0001823,-4.7726e-10,0,9.7272e-07,-4.3842e-05,-7.4149e+07,-153.4,0,2.83e+05,-33.23,11316,11734,1,11734,1,-8.2333e-05,-1.2626e-10,0,5.0956e-05,-2.5103e-05,-3.3486e+07,-40.401,0,1.9932e+07,-7.1489,11733,12578,1,12578,1,0.00013426,3.3166e-10,0,0.00016564,1.5468e-05,4.6726e+07,104.54,0,6.0594e+07,9.1759,12577,485.01,0,485.01,0,0.000125,3.4405e-10,0,6.5201e-05,2.3418e-05,4.63e+07,108.75,0,2.324e+07,13.393,485.01,1
1560,0.83,12156,1,12156,1,2.6282e-05,-2.932e-11,0,0.00011107,-4.8752e-06,6.5649e+06,-9.33,0,4.105e+07,0.77138,12155,12992,1,12992,1,0.00023709,1.696e-10,0,0.00023709,3.462e-05,8.1031e+07,54.522,0,8.1031e+07,28.031,12991,12156,1,12156,1,2.6282e-05,-2.5765e-11,0,0.00010962,-4.8668e-06,9.5478e+06,-7.9275,0,4.1209e+07,1.8812,12155,11317,1,11317,1,-0.00018453,-2.2584e-10,0,9.8458e-07,-4.4378e-05,-7.5055e+07,-72.597,0,2.8645e+05,-28.907,11316,11734,1,11734,1,-8.334e-05,-9.2728e-11,0,5.1579e-05,-2.541e-05,-3.3895e+07,-29.437,0,2.0176e+07,-2.5234,11733,12578,1,12578,1,0.0001359,2.5456e-11,0,0.00016766,1.5657e-05,4.7297e+07,8.0089,0,6.1335e+07,4.977,12577,485.01,0,485.01,0,0.00012653,8.4038e-11,0,6.5998e-05,2.3704e-05,4.6866e+07,26.655,0,2.3524e+07,6.3991,485.01,1
1560,0.84,12156,1,12156,1,2.6598e-05,1.4505e-10,0,0.00011241,-4.9339e-06,6.6439e+06,46.077,0,4.1544e+07,1.5123,12155,12992,1,12992,1,0.00023995,8.3016e-10,0,0.00023995,3.5037e-05,8.2006e+07,256.89,0,8.2006e+07,22.701,12991,12156,1,12156,1,2.6598e-05,8.6548e-11,0,0.00011094,-4.9253e-06,9.6626e+06,27.439,0,4.1705e+07,1.6956,12155,11317,1,11317,1,-0.00018675,-3.185e-10,0,9.9641e-07,-4.4912e-05,-7.5958e+07,-102.35,0,2.8989e+05,-16.257,11316,11734,1,11734,1,-8.4342e-05,-2.2345e-11,0,5.22e-05,-2.5716e-05,-3.4303e+07,-6.8196,0,2.0418e+07,-5.0536,11733,12578,1,12578,1,0.00013754,2.8615e-10,0,0.00016968,1.5845e-05,4.7866e+07,91.846,0,6.2072e+07,7.0461,12577,485.01,0,485.01,0,0.00012805,2.3755e-10,0,6.6792e-05,2.3989e-05,4.743e+07,75.403,0,2.3807e+07,7.9203,485.01,1
1560,0.85,12156,1,12156,1,2.6914e-05,-2.3241e-10,0,0.00011374,-4.9925e-06,6.7228e+06,-73.939,0,4.2038e+07,3.1769,12155,12992,1,12992,1,0.0002428,3.8999e-10,0,0.0002428,3.5453e-05,8.2981e+07,120.38,0,8.2981e+07,20.281,12991,12156,1,12156,1,2.6914e-05,-1.8235e-10,0,0.00011226,-4.9839e-06,9.7775e+06,-56.283,0,4.2201e+07,3.2885,12155,11317,1,11317,1,-0.00018897,-8.8682e-10,0,1.0082e-06,-4.5446e-05,-7.6861e+07,-280.33,0,2.9332e+05,-30.179,11316,11734,1,11734,1,-8.5345e-05,-4.3981e-10,0,5.282e-05,-2.6021e-05,-3.4711e+07,-142.64,0,2.0661e+07,-3.2227,11733,12578,1,12578,1,0.00013917,-2.2657e-11,0,0.0001717,1.6033e-05,4.8435e+07,-6.7751,0,6.281e+07,9.3648,12577,485.01,0,485.01,0,0.00012957,2.8394e-10,0,6.7586e-05,2.4274e-05,4.7994e+07,90.266,0,2.409e+07,8.7351,485.01,1
1560,0.86,12156,1,12156,1,2.7232e-05,1.6834e-10,0,0.00011508,-5.0514e-06,6.8021e+06,53.657,0,4.2533e+07,2.3586,12155,12992,1,12992,1,0.00024566,4.901e-10,0,0.00024566,3.5871e-05,8.396e+07,152.28,0,8.396e+07,34.03,12991,12156,1,12156,1,2.7232e-05,1.5164e-10,0,0.00011358,-5.0427e-06,9.8928e+06,48.244,0,4.2699e+07,-0.24022,12155,11317,1,11317,1,-0.0001912,-8.9599e-11,0,1.0201e-06,-4.5981e-05,-7.7767e+07,-25.792,0,2.968e+05,-26.988,11316,11734,1,11734,1,-8.6351e-05,7.6513e-11,0,5.3443e-05,-2.6328e-05,-3.512e+07,24.671,0,2.0905e+07,-3.3137,11733,12578,1,12578,1,0.00014081,2.4454e-10,0,0.00017372,1.6222e-05,4.9006e+07,77.829,0,6.3551e+07,4.6262,12577,485.01,0,485.01,0,0.0001311,1.2822e-10,0,6.8383e-05,2.456e-05,4.856e+07,40.559,0,2.4374e+07,9.9462,485.01,1
1560,0.87,12156,1,12156,1,2.7548e-05,2.6603e-10,0,0.00011642,-5.1101e-06,6.8812e+06,84.644,0,4.3028e+07,3.4475,12155,12992,1,12992,1,0.00024852,6.0616e-10,0,0.00024852,3.6288e-05,8.4936e+07,185.34,0,8.4936e+07,24.605,12991,12156,1,12156,1,2.7548e-05,2.8103e-10,0,0.0001149,-5.1013e-06,1.0008e+07,89.477,0,4.3195e+07,1.9626,12155,11317,1,11317,1,-0.00019342,-8.5443e-11,0,1.032e-06,-4.6516e-05,-7.8672e+07,-24.595,0,3.0025e+05,-13.012,11316,11734,1,11734,1,-8.7356e-05,1.5423e-10,0,5.4065e-05,-2.6634e-05,-3.5529e+07,49.562,0,2.1148e+07,-0.37416,11733,12578,1,12578,1,0.00014245,3.6918e-10,0,0.00017574,1.6411e-05,4.9576e+07,115.79,0,6.429e+07,6.0521,12577,485.01,0,485.01,0,0.00013262,1.5591e-10,0,6.9178e-05,2.4846e-05,4.9124e+07,49.223,0,2.4657e+07,6.3751,485.01,1
1560,0.88,12156,1,12156,1,2.7865e-05,7.0035e-11,0,0.00011776,-5.1688e-06,6.9602e+06,22.268,0,4.3522e+07,8.643,12155,12992,1,12992,1,0.00025137,1.1058e-09,0,0.00025137,3.6705e-05,8.5912e+07,342.3,0,8.5912e+07,65.428,12991,12156,1,12156,1,2.7865e-05,1.6071e-12,0,0.00011622,-5.1599e-06,1.0123e+07,0.55023,0,4.3691e+07,6.4039,12155,11317,1,11317,1,-0.00019564,-6.4793e-10,0,1.0438e-06,-4.705e-05,-7.9575e+07,-208.28,0,3.0368e+05,-35.489,11316,11734,1,11734,1,-8.8359e-05,-2.0484e-10,0,5.4685e-05,-2.694e-05,-3.5937e+07,-65.492,0,2.1391e+07,-3.2479,11733,12578,1,12578,1,0.00014409,2.9629e-10,0,0.00017776,1.66e-05,5.0145e+07,94.037,0,6.5028e+07,17.769,12577,485.01,0,485.01,0,0.00013415,3.9434e-10,0,6.9972e-05,2.5131e-05,4.9688e+07,124.94,0,2.494e+07,17.992,485.01,1
1560,0.89,12156,1,12156,1,2.8181e-05,8.2078e-11,0,0.0001191,-5.2275e-06,7.0393e+06,25.989,0,4.4017e+07,0.47298,12155,12992,1,12992,1,0.00025423,6.3501e-10,0,0.00025423,3.7122e-05,8.6887e+07,204.06,0,8.6887e+07,12.605,12991,12156,1,12156,1,2.8181e-05,4.7952e-11,0,0.00011754,-5.2185e-06,1.0238e+07,14.919,0,4.4188e+07,1.0068,12155,11317,1,11317,1,-0.00019787,-3.054e-10,0,1.0557e-06,-4.7585e-05,-8.0478e+07,-95.37,0,3.0715e+05,-21.135,11316,11734,1,11734,1,-8.9362e-05,-4.9716e-11,0,5.5307e-05,-2.7246e-05,-3.6345e+07,-15.563,0,2.1634e+07,-4.0447,11733,12578,1,12578,1,0.00014572,2.0632e-10,0,0.00017978,1.6788e-05,5.0715e+07,65.741,0,6.5767e+07,5.2235,12577,485.01,0,485.01,0,0.00013567,1.9238e-10,0,7.0767e-05,2.5417e-05,5.0253e+07,61.095,0,2.5224e+07,6.0243,485.01,1
1560,0.9,12156,1,12156,1,2.8498e-05,1.5516e-10,0,0.00012044,-5.2863e-06,7.1184e+06,49.273,0,4.4511e+07,1.1014,12155,12992,1,12992,1,0.00025709,7.3149e-10,0,0.00025709,3.7539e-05,8.7864e+07,225.69,0,8.7864e+07,22.845,12991,12156,1,12156,1,2.8498e-05,9.9394e-11,0,0.00011886,-5.2772e-06,1.0353e+07,32.157,0,4.4684e+07,2.027,12155,11317,1,11317,1,-0.00020009,-3.2717e-10,0,1.0676e-06,-4.8119e-05,-8.1383e+07,-105.16,0,3.106e+05,-32.64,11316,11734,1,11734,1,-9.0366e-05,-4.2241e-11,0,5.5928e-05,-2.7552e-05,-3.6753e+07,-13.039,0,2.1877e+07,-5.1878,11733,12578,1,12578,1,0.00014736,3.534e-10,0,0.0001818,1.6977e-05,5.1284e+07,114.24,0,6.6506e+07,7.7261,12577,485.01,0,485.01,0,0.0001372,2.5714e-10,0,7.1562e-05,2.5702e-05,5.0817e+07,81.278,0,2.5507e+07,8.5804,485.01,1
1560,0.91,12156,1,12156,1,2.8815e-05,3.6627e-11,0,0.00012177,-5.3451e-06,7.1976e+06,11.598,0,4.5006e+07,2.1439,12155,12992,1,12992,1,0.00025994,6.0188e-10,0,0.00025994,3.7957e-05,8.8841e+07,186.56,0,8.8841e+07,29.725,12991,12156,1,12156,1,2.8815e-05,-1.2565e-11,0,0.00012019,-5.3358e-06,1.0468e+07,-3.8347,0,4.5181e+07,0.6235,12155,11317,1,11317,1,-0.00020231,-3.0561e-10,0,1.0795e-06,-4.8655e-05,-8.2288e+07,-98.255,0,3.1407e+05,-22.165,11316,11734,1,11734,1,-9.1372e-05,-1.1489e-10,0,5.655e-05,-2.7859e-05,-3.7162e+07,-36.707,0,2.212e+07,-3.2828,11733,12578,1,12578,1,0.000149,1.4703e-10,0,0.00018382,1.7166e-05,5.1855e+07,47.273,0,6.7246e+07,7.4847,12577,485.01,0,485.01,0,0.00013872,2.0548e-10,0,7.2359e-05,2.5988e-05,5.1383e+07,65.17,0,2.5791e+07,9.7197,485.01,1
1560,0.92,12156,1,12156,1,2.9131e-05,1.1106e-10,0,0.00012311,-5.4037e-06,7.2765e+06,35.471,0,4.55e+07,0.11342,12155,12992,1,12992,1,0.00026279,9.2603e-10,0,0.00026279,3.8373e-05,8.9815e+07,290.64,0,8.9815e+07,18.059,12991,12156,1,12156,1,2.9131e-05,5.3643e-11,0,0.0001215,-5.3944e-06,1.0583e+07,15.883,0,4.5677e+07,0.58685,12155,11317,1,11317,1,-0.00020453,-6.3641e-10,0,1.0913e-06,-4.9188e-05,-8.3191e+07,-204.55,0,3.175e+05,-22.966,11316,11734,1,11734,1,-9.2373e-05,-1.4605e-10,0,5.717e-05,-2.8164e-05,-3.757e+07,-47.455,0,2.2362e+07,-8.8595,11733,12578,1,12578,1,0.00015064,3.7356e-10,0,0.00018584,1.7354e-05,5.2424e+07,121.12,0,6.7983e+07,8.5896,12577,485.01,0,485.01,0,0.00014024,3.6596e-10,0,7.3152e-05,2.6273e-05,5.1946e+07,116.74,0,2.6073e+07,10.015,485.01,1
1560,0.93,12156,1,12156,1,2.9448e-05,9.3114e-11,0,0.00012445,-5.4626e-06,7.3558e+06,29.579,0,4.5996e+07,-0.78592,12155,12992,1,12992,1,0.00026566,3.4279e-10,0,0.00026566,3.8791e-05,9.0794e+07,104.04,0,9.0794e+07,10.859,12991,12156,1,12156,1,2.9448e-05,6.1583e-11,0,0.00012283,-5.4532e-06,1.0698e+07,19.308,0,4.6174e+07,-0.86209,12155,11317,1,11317,1,-0.00020676,-6.9393e-11,0,1.1032e-06,-4.9724e-05,-8.4097e+07,-19.976,0,3.2097e+05,-15.445,11316,11734,1,11734,1,-9.338e-05,4.9177e-12,0,5.7793e-05,-2.8471e-05,-3.7979e+07,1.6092,0,2.2606e+07,-3.4419,11733,12578,1,12578,1,0.00015228,1.7239e-10,0,0.00018786,1.7543e-05,5.2995e+07,55.566,0,6.8724e+07,2.0508,12577,485.01,0,485.01,0,0.00014177,1.0209e-10,0,7.3949e-05,2.6559e-05,5.2512e+07,32.09,0,2.6358e+07,3.8032,485.01,1
1560,0.94,12156,1,12156,1,2.9765e-05,8.6519e-11,0,0.00012579,-5.5212e-06,7.4348e+06,27.598,0,4.6489e+07,0.75636,12155,12992,1,12992,1,0.00026851,7.4384e-10,0,0.00026851,3.9208e-05,9.1769e+07,230.31,0,9.1769e+07,25.816,12991,12156,1,12156,1,2.9765e-05,3.4429e-11,0,0.00012415,-5.5117e-06,1.0813e+07,10.199,0,4.667e+07,0.91658,12155,11317,1,11317,1,-0.00020898,-4.527e-10,0,1.1151e-06,-5.0258e-05,-8.5e+07,-145.5,0,3.2442e+05,-17.992,11316,11734,1,11734,1,-9.4383e-05,-8.7543e-11,0,5.8414e-05,-2.8777e-05,-3.8387e+07,-26.959,0,2.2849e+07,-6.7726,11733,12578,1,12578,1,0.00015391,2.5968e-10,0,0.00018988,1.7731e-05,5.3564e+07,81.408,0,6.9462e+07,6.15,12577,485.01,0,485.01,0,0.00014329,2.6232e-10,0,7.4743e-05,2.6845e-05,5.3076e+07,83.46,0,2.6641e+07,8.7189,485.01,1
1560,0.95,12156,1,12156,1,3.0082e-05,1.1171e-11,0,0.00012713,-5.5802e-06,7.5142e+06,3.5549,0,4.6986e+07,-0.62685,12155,12992,1,12992,1,0.00027138,2.3898e-10,0,0.00027138,3.9626e-05,9.2748e+07,76.756,0,9.2748e+07,14.238,12991,12156,1,12156,1,3.0082e-05,2.1617e-11,0,0.00012547,-5.5705e-06,1.0928e+07,6.4943,0,4.7168e+07,-1.0175,12155,11317,1,11317,1,-0.00021121,-2.3902e-10,0,1.127e-06,-5.0794e-05,-8.5907e+07,-74.008,0,3.2789e+05,-11.794,11316,11734,1,11734,1,-9.5391e-05,-5.7059e-11,0,5.9038e-05,-2.9084e-05,-3.8797e+07,-18.758,0,2.3093e+07,-3.2413,11733,12578,1,12578,1,0.00015556,8.7959e-11,0,0.00019191,1.7921e-05,5.4136e+07,27.856,0,7.0204e+07,2.709,12577,485.01,0,485.01,0,0.00014482,1.0769e-10,0,7.5541e-05,2.7131e-05,5.3643e+07,34.258,0,2.6925e+07,4.4865,485.01,1
1560,0.96,12156,1,12156,1,3.0398e-05,-1.4341e-10,0,0.00012846,-5.6387e-06,7.593e+06,-45.694,0,4.7479e+07,-0.23379,12155,12992,1,12992,1,0.00027422,5.7342e-10,0,0.00027422,4.0042e-05,9.3721e+07,184.27,0,9.3721e+07,19.815,12991,12156,1,12156,1,3.0398e-05,-1.3594e-10,0,0.00012679,-5.629e-06,1.1043e+07,-42.806,0,4.7663e+07,-0.54773,12155,11317,1,11317,1,-0.00021343,-7.0643e-10,0,1.1388e-06,-5.1327e-05,-8.6808e+07,-227.08,0,3.3133e+05,-26.64,11316,11734,1,11734,1,-9.6391e-05,-3.7452e-10,0,5.9657e-05,-2.9389e-05,-3.9204e+07,-117.81,0,2.3335e+07,-6.3195,11733,12578,1,12578,1,0.00015719,4.4643e-11,0,0.00019392,1.8109e-05,5.4704e+07,13.613,0,7.094e+07,7.3944,12577,485.01,0,485.01,0,0.00014634,2.9743e-10,0,7.6333e-05,2.7416e-05,5.4205e+07,94.728,0,2.7207e+07,9.8424,485.01,1
1560,0.97,12156,1,12156,1,3.0715e-05,2.2479e-10,0,0.0001298,-5.6975e-06,7.6722e+06,71.569,0,4.7974e+07,0.99074,12155,12992,1,12992,1,0.00027708,4.9902e-10,0,0.00027708,4.0459e-05,9.4699e+07,152.53,0,9.4699e+07,48.65,12991,12156,1,12156,1,3.0715e-05,2.4432e-10,0,0.00012811,-5.6876e-06,1.1158e+07,77.486,0,4.816e+07,0.68645,12155,11317,1,11317,1,-0.00021565,-9.8073e-11,0,1.1506e-06,-5.1863e-05,-8.7714e+07,-28.231,0,3.3477e+05,-15.93,11316,11734,1,11734,1,-9.7396e-05,1.3038e-10,0,6.0279e-05,-2.9696e-05,-3.9612e+07,41.4,0,2.3578e+07,-3.1442,11733,12578,1,12578,1,0.00015883,3.2688e-10,0,0.00019594,1.8297e-05,5.5274e+07,102.79,0,7.168e+07,2.9109,12577,485.01,0,485.01,0,0.00014787,1.3436e-10,0,7.713e-05,2.7702e-05,5.4771e+07,42.4,0,2.7491e+07,7.6508,485.01,1
1560,0.98,12156,1,12156,1,3.1031e-05,8.8821e-11,0,0.00013114,-5.7562e-06,7.7512e+06,28.128,0,4.8468e+07,2.4185,12155,12992,1,12992,1,0.00027994,8.0907e-10,0,0.00027994,4.0876e-05,9.5674e+07,250.52,0,9.5674e+07,40.639,12991,12156,1,12156,1,3.1031e-05,9.0349e-12,0,0.00012943,-5.7463e-06,1.1273e+07,2.7122,0,4.8656e+07,2.0861,12155,11317,1,11317,1,-0.00021788,-3.3613e-10,0,1.1626e-06,-5.2397e-05,-8.8617e+07,-108.04,0,3.3824e+05,-32.545,11316,11734,1,11734,1,-9.8399e-05,-9.8552e-11,0,6.09e-05,-3.0001e-05,-4.002e+07,-31.026,0,2.3821e+07,-3.3199,11733,12578,1,12578,1,0.00016046,2.3399e-10,0,0.00019796,1.8486e-05,5.5843e+07,74.068,0,7.2418e+07,7.9877,12577,485.01,0,485.01,0,0.00014939,2.643e-10,0,7.7924e-05,2.7987e-05,5.5335e+07,83.732,0,2.7774e+07,11.577,485.01,1
1560,0.99,12156,1,12156,1,3.1348e-05,2.5513e-10,0,0.00013248,-5.815e-06,7.8304e+06,81.061,0,4.8963e+07,0.25333,12155,12992,1,12992,1,0.0002828,6.2104e-10,0,0.0002828,4.1294e-05,9.6651e+07,188.15,0,9.6651e+07,21.983,12991,12156,1,12156,1,3.1348e-05,2.5746e-10,0,0.00013075,-5.8049e-06,1.1388e+07,82.857,0,4.9153e+07,-1.5117,12155,11317,1,11317,1,-0.0002201,-9.8525e-11,0,1.1745e-06,-5.2932e-05,-8.9522e+07,-28.363,0,3.4172e+05,-19.365,11316,11734,1,11734,1,-9.9404e-05,1.2285e-10,0,6.1522e-05,-3.0308e-05,-4.0429e+07,39.255,0,2.4064e+07,-5.3331,11733,12578,1,12578,1,0.0001621,3.8353e-10,0,0.00019998,1.8674e-05,5.6414e+07,122.93,0,7.3157e+07,5.0139,12577,485.01,0,485.01,0,0.00015092,1.7343e-10,0,7.872e-05,2.8273e-05,5.59e+07,54.528,0,2.8058e+07,7.1607,485.01,1
1560,1,12156,1,12156,1,3.1664e-05,1.2341e-10,0,0.00013382,-5.8736e-06,7.9093e+06,39.19,0,4.9457e+07,0.35704,12155,12992,1,12992,1,0.00028565,9.8583e-10,0,0.00028565,4.171e-05,9.7626e+07,305.35,0,9.7626e+07,32.961,12991,12156,1,12156,1,3.1664e-05,4.6229e-11,0,0.00013207,-5.8635e-06,1.1503e+07,13.789,0,4.9649e+07,1.2501,12155,11317,1,11317,1,-0.00022232,-5.3468e-10,0,1.1862e-06,-5.3466e-05,-9.0425e+07,-171.85,0,3.4513e+05,-31.668,11316,11734,1,11734,1,-0.00010041,-1.1054e-10,0,6.2142e-05,-3.0614e-05,-4.0837e+07,-35.607,0,2.4307e+07,-8.987,11733,12578,1,12578,1,0.00016374,3.3935e-10,0,0.000202,1.8863e-05,5.6983e+07,108.14,0,7.3895e+07,8.2264,12577,485.01,0,485.01,0,0.00015244,3.4491e-10,0,7.9514e-05,2.8558e-05,5.6464e+07,109.72,0,2.8341e+07,12.176,485.01,1
1560,1.01,12156,1,12156,1,3.1981e-05,2.4661e-10,0,0.00013516,-5.9324e-06,7.9885e+06,78.388,0,4.9951e+07,1.3887,12155,12992,1,12992,1,0.00028851,9.4522e-10,0,0.00028851,4.2128e-05,9.8603e+07,289.01,0,9.8603e+07,34.589,12991,12156,1,12156,1,3.1981e-05,1.6789e-10,0,0.00013339,-5.9221e-06,1.1618e+07,53.568,0,5.0146e+07,2.6888,12155,11317,1,11317,1,-0.00022455,-2.2651e-10,0,1.1981e-06,-5.4001e-05,-9.133e+07,-72.793,0,3.4856e+05,-37.215,11316,11734,1,11734,1,-0.00010141,1.1826e-11,0,6.2764e-05,-3.092e-05,-4.1245e+07,3.625,0,2.455e+07,-7.3601,11733,12578,1,12578,1,0.00016537,4.4906e-10,0,0.00020402,1.9052e-05,5.7553e+07,142.57,0,7.4635e+07,8.4585,12577,485.01,0,485.01,0,0.00015396,2.8348e-10,0,8.0309e-05,2.8844e-05,5.7029e+07,89.677,0,2.8625e+07,11.777,485.01,1
1560,1.02,12156,1,12156,1,3.2298e-05,-1.2177e-10,0,0.00013649,-5.9912e-06,8.0677e+06,-38.773,0,5.0446e+07,-1.267,12155,12992,1,12992,1,0.00029137,3.1587e-10,0,0.00029137,4.2545e-05,9.958e+07,97.817,0,9.958e+07,17.059,12991,12156,1,12156,1,3.2298e-05,-1.2401e-10,0,0.00013471,-5.9809e-06,1.1733e+07,-39.401,0,5.0642e+07,-0.81976,12155,11317,1,11317,1,-0.00022677,-4.6467e-10,0,1.2101e-06,-5.4536e-05,-9.2235e+07,-149.37,0,3.5207e+05,-28.982,11316,11734,1,11734,1,-0.00010242,-2.6579e-10,0,6.3386e-05,-3.1226e-05,-4.1654e+07,-84.594,0,2.4794e+07,-6.5283,11733,12578,1,12578,1,0.00016701,4.3934e-13,0,0.00020604,1.924e-05,5.8123e+07,0.12558,0,7.5374e+07,4.0268,12577,485.01,0,485.01,0,0.00015549,1.7133e-10,0,8.1105e-05,2.913e-05,5.7594e+07,54.399,0,2.8908e+07,7.6202,485.01,1
1560,1.03,12156,1,12156,1,3.2615e-05,1.4035e-10,0,0.00013783,-6.0499e-06,8.1468e+06,44.597,0,5.0941e+07,3.3041,12155,12992,1,12992,1,0.00029422,6.4636e-10,0,0.00029422,4.2962e-05,1.0056e+08,201.66,0,1.0056e+08,36.152,12991,12156,1,12156,1,3.2615e-05,7.0342e-11,0,0.00013604,-6.0395e-06,1.1848e+07,22.454,0,5.1139e+07,1.6486,12155,11317,1,11317,1,-0.00022899,-1.9036e-10,0,1.2219e-06,-5.5071e-05,-9.3139e+07,-61.196,0,3.555e+05,-15.061,11316,11734,1,11734,1,-0.00010342,-2.9108e-11,0,6.4007e-05,-3.1532e-05,-4.2063e+07,-9.2088,0,2.5037e+07,-3.8553,11733,12578,1,12578,1,0.00016865,2.9536e-10,0,0.00020806,1.9429e-05,5.8693e+07,94.546,0,7.6113e+07,6.8551,12577,485.01,0,485.01,0,0.00015701,2.1391e-10,0,8.1901e-05,2.9415e-05,5.8159e+07,67.704,0,2.9192e+07,9.89,485.01,1
1560,1.04,12156,1,12156,1,3.2931e-05,2.7924e-11,0,0.00013917,-6.1086e-06,8.2258e+06,8.9366,0,5.1436e+07,2.4754,12155,12992,1,12992,1,0.00029708,9.1655e-10,0,0.00029708,4.3379e-05,1.0153e+08,287.95,0,1.0153e+08,43.147,12991,12156,1,12156,1,3.2931e-05,-3.0617e-11,0,0.00013736,-6.0981e-06,1.1963e+07,-9.1656,0,5.1635e+07,-0.12445,12155,11317,1,11317,1,-0.00023122,-4.5876e-10,0,1.2337e-06,-5.5605e-05,-9.4043e+07,-147.48,0,3.5894e+05,-33.989,11316,11734,1,11734,1,-0.00010442,-2.0621e-10,0,6.4629e-05,-3.1839e-05,-4.2471e+07,-65.688,0,2.528e+07,-5.3289,11733,12578,1,12578,1,0.00017029,1.9559e-10,0,0.00021008,1.9618e-05,5.9263e+07,62.363,0,7.6852e+07,11.102,12577,485.01,0,485.01,0,0.00015854,3.1562e-10,0,8.2695e-05,2.9701e-05,5.8723e+07,100.36,0,2.9475e+07,13.914,485.01,1
1560,1.05,12156,1,12156,1,3.3248e-05,-1.1618e-10,0,0.00014051,-6.1674e-06,8.3049e+06,-37.08,0,5.193e+07,-0.4581,12155,12992,1,12992,1,0.00029993,7.8488e-10,0,0.00029993,4.3796e-05,1.0251e+08,243.03,0,1.0251e+08,25.96,12991,12156,1,12156,1,3.3248e-05,-1.2167e-10,0,0.00013868,-6.1567e-06,1.2078e+07,-38.225,0,5.2132e+07,-0.25448,12155,11317,1,11317,1,-0.00023344,-7.4583e-10,0,1.2455e-06,-5.614e-05,-9.4947e+07,-239.74,0,3.6237e+05,-37.027,11316,11734,1,11734,1,-0.00010543,-3.9595e-10,0,6.525e-05,-3.2145e-05,-4.2879e+07,-125.84,0,2.5523e+07,-8.2956,11733,12578,1,12578,1,0.00017192,9.5236e-11,0,0.0002121,1.9806e-05,5.9832e+07,29.531,0,7.7591e+07,9.075,12577,485.01,0,485.01,0,0.00016006,3.5138e-10,0,8.349e-05,2.9986e-05,5.9287e+07,111.68,0,2.9758e+07,12.726,485.01,1
1560,1.06,12156,1,12156,1,3.3565e-05,-1.8794e-10,0,0.00014185,-6.2263e-06,8.3842e+06,-59.835,0,5.2426e+07,0.11562,12155,12992,1,12992,1,0.0003028,7.062e-11,0,0.0003028,4.4214e-05,1.0349e+08,20.329,0,1.0349e+08,10.558,12991,12156,1,12156,1,3.3565e-05,-2.0044e-10,0,0.00014,-6.2155e-06,1.2194e+07,-63.144,0,5.263e+07,0.74911,12155,11317,1,11317,1,-0.00023567,-3.8585e-10,0,1.2575e-06,-5.6676e-05,-9.5854e+07,-119.33,0,3.6585e+05,-17.097,11316,11734,1,11734,1,-0.00010644,-2.8459e-10,0,6.5873e-05,-3.2452e-05,-4.3289e+07,-91.185,0,2.5767e+07,-2.7511,11733,12578,1,12578,1,0.00017357,-1.0332e-10,0,0.00021413,1.9996e-05,6.0404e+07,-33.597,0,7.8332e+07,3.2325,12577,485.01,0,485.01,0,0.00016159,1.1359e-10,0,8.4288e-05,3.0273e-05,5.9854e+07,35.861,0,3.0043e+07,4.3503,485.01,1
1560,1.07,12156,1,12156,1,3.3881e-05,1.2788e-10,0,0.00014318,-6.2848e-06,8.463e+06,40.659,0,5.2919e+07,4.5173,12155,12992,1,12992,1,0.00030565,1.1576e-09,0,0.00030565,4.463e-05,1.0446e+08,359.26,0,1.0446e+08,35.818,12991,12156,1,12156,1,3.3881e-05,3.1284e-11,0,0.00014132,-6.274e-06,1.2308e+07,9.9039,0,5.3124e+07,3.4029,12155,11317,1,11317,1,-0.00023788,-5.6018e-10,0,1.2693e-06,-5.7209e-05,-9.6755e+07,-180.05,0,3.6929e+05,-35.794,11316,11734,1,11734,1,-0.00010744,-1.5958e-10,0,6.6492e-05,-3.2757e-05,-4.3696e+07,-51.732,0,2.6009e+07,-6.0242,11733,12578,1,12578,1,0.0001752,3.8915e-10,0,0.00021614,2.0183e-05,6.0972e+07,122.78,0,7.9068e+07,14.699,12577,485.01,0,485.01,0,0.00016311,3.9839e-10,0,8.508e-05,3.0557e-05,6.0416e+07,126.54,0,3.0325e+07,13.833,485.01,1
1560,1.08,12156,1,12156,1,3.4198e-05,-8.9681e-11,0,0.00014452,-6.3436e-06,8.5422e+06,-28.472,0,5.3414e+07,-0.95438,12155,12992,1,12992,1,0.0003085,2.0755e-10,0,0.0003085,4.5047e-05,1.0544e+08,66.706,0,1.0544e+08,11.278,12991,12156,1,12156,1,3.4198e-05,-7.2249e-11,0,0.00014264,-6.3327e-06,1.2424e+07,-22.429,0,5.3621e+07,-1.4963,12155,11317,1,11317,1,-0.00024011,-3.6622e-10,0,1.2812e-06,-5.7744e-05,-9.766e+07,-117.75,0,3.7275e+05,-20.941,11316,11734,1,11734,1,-0.00010844,-2.0379e-10,0,6.7114e-05,-3.3063e-05,-4.4104e+07,-64.911,0,2.6252e+07,-4.8946,11733,12578,1,12578,1,0.00017684,1.1455e-11,0,0.00021816,2.0372e-05,6.1542e+07,3.7087,0,7.9808e+07,3.2415,12577,485.01,0,485.01,0,0.00016464,1.3788e-10,0,8.5876e-05,3.0843e-05,6.0982e+07,43.878,0,3.0609e+07,5.6939,485.01,1
1560,1.09,12156,1,12156,1,3.4514e-05,5.8769e-11,0,0.00014586,-6.4023e-06,8.6213e+06,18.625,0,5.3908e+07,3.6129,12155,12992,1,12992,1,0.00031136,6.5053e-10,0,0.00031136,4.5464e-05,1.0641e+08,208.23,0,1.0641e+08,36.28,12991,12156,1,12156,1,3.4514e-05,-5.3137e-12,0,0.00014396,-6.3912e-06,1.2539e+07,-1.6699,0,5.4118e+07,3.864,12155,11317,1,11317,1,-0.00024233,-3.9458e-10,0,1.293e-06,-5.8278e-05,-9.8564e+07,-126.83,0,3.7619e+05,-22.165,11316,11734,1,11734,1,-0.00010944,-1.1073e-10,0,6.7736e-05,-3.3369e-05,-4.4513e+07,-35.093,0,2.6495e+07,-2.076,11733,12578,1,12578,1,0.00017847,2.064e-10,0,0.00022018,2.0561e-05,6.2112e+07,65.862,0,8.0547e+07,8.4504,12577,485.01,0,485.01,0,0.00016616,2.3698e-10,0,8.6671e-05,3.1129e-05,6.1546e+07,74.981,0,3.0892e+07,9.2565,485.01,1
1560,1.1,12156,1,12156,1,3.4831e-05,1.0309e-11,0,0.0001472,-6.4611e-06,8.7004e+06,3.3052,0,5.4403e+07,-0.74477,12155,12992,1,12992,1,0.00031422,2.1318e-10,0,0.00031422,4.5882e-05,1.0739e+08,64.585,0,1.0739e+08,13.739,12991,12156,1,12156,1,3.4831e-05,-8.5977e-12,0,0.00014528,-6.45e-06,1.2654e+07,-2.7907,0,5.4615e+07,-0.54825,12155,11317,1,11317,1,-0.00024456,-2.0441e-10,0,1.3049e-06,-5.8813e-05,-9.9469e+07,-65.717,0,3.7967e+05,-18.756,11316,11734,1,11734,1,-0.00011045,-5.5159e-11,0,6.8358e-05,-3.3676e-05,-4.4921e+07,-17.299,0,2.6738e+07,-3.6063,11733,12578,1,12578,1,0.00018011,7.9851e-11,0,0.0002222,2.075e-05,6.2682e+07,25.533,0,8.1286e+07,2.233,12577,485.01,0,485.01,0,0.00016769,9.0766e-11,0,8.7467e-05,3.1414e-05,6.2111e+07,28.714,0,3.1176e+07,4.8733,485.01,1
1560,1.11,12156,1,12156,1,3.5148e-05,3.89e-11,0,0.00014854,-6.5198e-06,8.7794e+06,12.448,0,5.4897e+07,3.4408,12155,12992,1,12992,1,0.00031707,9.9279e-10,0,0.00031707,4.6299e-05,1.0837e+08,307.41,0,1.0837e+08,33.124,12991,12156,1,12156,1,3.5148e-05,-1.1605e-11,0,0.0001466,-6.5085e-06,1.2769e+07,-3.3438,0,5.5111e+07,1.8805,12155,11317,1,11317,1,-0.00024678,-6.481e-10,0,1.3167e-06,-5.9348e-05,-1.0037e+08,-208.34,0,3.8309e+05,-24.294,11316,11734,1,11734,1,-0.00011145,-2.582e-10,0,6.8978e-05,-3.3981e-05,-4.5329e+07,-79.401,0,2.6981e+07,-5.319,11733,12578,1,12578,1,0.00018175,2.8197e-10,0,0.00022422,2.0938e-05,6.3251e+07,90.559,0,8.2025e+07,12.014,12577,485.01,0,485.01,0,0.00016921,3.891e-10,0,8.8261e-05,3.17e-05,6.2675e+07,123.75,0,3.1459e+07,12.346,485.01,1
1560,1.12,12156,1,12156,1,3.5464e-05,1.4223e-10,0,0.00014988,-6.5785e-06,8.8585e+06,45.198,0,5.5392e+07,2.1677,12155,12992,1,12992,1,0.00031993,1.2318e-09,0,0.00031993,4.6716e-05,1.0934e+08,381.39,0,1.0934e+08,40.28,12991,12156,1,12156,1,3.5464e-05,2.6245e-11,0,0.00014792,-6.5671e-06,1.2884e+07,7.9314,0,5.5607e+07,-0.24342,12155,11317,1,11317,1,-0.000249,-4.6807e-10,0,1.3286e-06,-5.9882e-05,-1.0128e+08,-150.45,0,3.8653e+05,-43.232,11316,11734,1,11734,1,-0.00011246,-1.5704e-10,0,6.96e-05,-3.4287e-05,-4.5738e+07,-48.674,0,2.7224e+07,-7.358,11733,12578,1,12578,1,0.00018339,3.8602e-10,0,0.00022624,2.1127e-05,6.3821e+07,122.01,0,8.2764e+07,12.205,12577,485.01,0,485.01,0,0.00017073,4.0742e-10,0,8.9056e-05,3.1985e-05,6.324e+07,129.4,0,3.1742e+07,16.044,485.01,1
1560,1.13,12156,1,12156,1,3.5781e-05,2.0013e-10,0,0.00015122,-6.6373e-06,8.9377e+06,63.676,0,5.5887e+07,-0.019631,12155,12992,1,12992,1,0.00032279,6.9097e-10,0,0.00032279,4.7133e-05,1.1032e+08,212.77,0,1.1032e+08,14.917,12991,12156,1,12156,1,3.5781e-05,1.3294e-10,0,0.00014924,-6.6258e-06,1.2999e+07,42.4,0,5.6104e+07,0.97196,12155,11317,1,11317,1,-0.00025123,-7.6892e-11,0,1.3405e-06,-6.0418e-05,-1.0218e+08,-22.132,0,3.8999e+05,-23.52,11316,11734,1,11734,1,-0.00011346,4.8331e-11,0,7.0222e-05,-3.4594e-05,-4.6146e+07,14.874,0,2.7468e+07,-3.3617,11733,12578,1,12578,1,0.00018502,3.2455e-10,0,0.00022826,2.1316e-05,6.4392e+07,102.46,0,8.3503e+07,4.9389,12577,485.01,0,485.01,0,0.00017226,1.9571e-10,0,8.9852e-05,3.2271e-05,6.3805e+07,61.994,0,3.2026e+07,6.9144,485.01,1
1560,1.14,12156,1,12156,1,3.6098e-05,1.205e-10,0,0.00015255,-6.696e-06,9.0167e+06,38.31,0,5.6381e+07,7.7386,12155,12992,1,12992,1,0.00032564,1.0822e-09,0,0.00032564,4.755e-05,1.113e+08,337.31,0,1.113e+08,57.805,12991,12156,1,12156,1,3.6098e-05,2.7774e-11,0,0.00015056,-6.6844e-06,1.3114e+07,8.7971,0,5.66e+07,5.2751,12155,11317,1,11317,1,-0.00025345,-4.4627e-10,0,1.3523e-06,-6.0952e-05,-1.0309e+08,-143.46,0,3.9343e+05,-30.242,11316,11734,1,11734,1,-0.00011447,-1.1801e-10,0,7.0843e-05,-3.49e-05,-4.6555e+07,-36.62,0,2.7711e+07,-3.7915,11733,12578,1,12578,1,0.00018666,3.0509e-10,0,0.00023028,2.1504e-05,6.4961e+07,96.239,0,8.4242e+07,14.589,12577,485.01,0,485.01,0,0.00017378,3.4564e-10,0,9.0647e-05,3.2557e-05,6.4369e+07,109.73,0,3.2309e+07,17.118,485.01,1
1560,1.15,12156,1,12156,1,3.6415e-05,1.7609e-10,0,0.00015389,-6.7548e-06,9.0959e+06,55.931,0,5.6876e+07,1.106,12155,12992,1,12992,1,0.0003285,6.0331e-10,0,0.0003285,4.7968e-05,1.1227e+08,183.41,0,1.1227e+08,25.124,12991,12156,1,12156,1,3.6415e-05,1.2664e-10,0,0.00015189,-6.7431e-06,1.3229e+07,40.192,0,5.7097e+07,0.42448,12155,11317,1,11317,1,-0.00025567,-1.049e-10,0,1.3642e-06,-6.1487e-05,-1.0399e+08,-30.196,0,3.969e+05,-17.512,11316,11734,1,11734,1,-0.00011547,3.4394e-11,0,7.1465e-05,-3.5206e-05,-4.6963e+07,10.99,0,2.7954e+07,-3.8274,11733,12578,1,12578,1,0.0001883,3.1132e-10,0,0.00023231,2.1693e-05,6.5532e+07,99.839,0,8.4982e+07,5.1187,12577,485.01,0,485.01,0,0.00017531,1.7479e-10,0,9.1443e-05,3.2842e-05,6.4935e+07,55.139,0,3.2593e+07,7.3203,485.01,1
1560,1.16,12156,1,12156,1,3.6731e-05,1.3944e-10,0,0.00015523,-6.8135e-06,9.1749e+06,44.208,0,5.737e+07,3.8131,12155,12992,1,12992,1,0.00033136,6.4121e-10,0,0.00033136,4.8384e-05,1.1325e+08,196.05,0,1.1325e+08,33.876,12991,12156,1,12156,1,3.6731e-05,7.4867e-11,0,0.0001532,-6.8017e-06,1.3344e+07,24.102,0,5.7593e+07,2.6011,12155,11317,1,11317,1,-0.00025789,-1.6609e-10,0,1.3761e-06,-6.2021e-05,-1.0489e+08,-53.423,0,4.0036e+05,-18.89,11316,11734,1,11734,1,-0.00011647,-1.5604e-11,0,7.2086e-05,-3.5512e-05,-4.7371e+07,-5.0268,0,2.8197e+07,-2.8925,11733,12578,1,12578,1,0.00018994,2.7346e-10,0,0.00023432,2.1881e-05,6.6101e+07,87.188,0,8.572e+07,8.0184,12577,485.01,0,485.01,0,0.00017683,1.9909e-10,0,9.2237e-05,3.3128e-05,6.5499e+07,62.743,0,3.2876e+07,9.7644,485.01,1
1560,1.17,12156,1,12156,1,3.7048e-05,3.6286e-10,0,0.00015657,-6.8723e-06,9.2542e+06,115.33,0,5.7866e+07,-0.29045,12155,12992,1,12992,1,0.00033422,7.4192e-10,0,0.00033422,4.8802e-05,1.1423e+08,229.71,0,1.1423e+08,12.211,12991,12156,1,12156,1,3.7048e-05,3.6931e-10,0,0.00015453,-6.8604e-06,1.3459e+07,117.08,0,5.809e+07,-0.19836,12155,11317,1,11317,1,-0.00026012,-8.6442e-11,0,1.3879e-06,-6.2557e-05,-1.058e+08,-24.883,0,4.0381e+05,-11.203,11316,11734,1,11734,1,-0.00011748,2.2365e-10,0,7.2708e-05,-3.5819e-05,-4.778e+07,70.32,0,2.844e+07,-3.9406,11733,12578,1,12578,1,0.00019158,5.1374e-10,0,0.00023635,2.207e-05,6.6672e+07,164.33,0,8.646e+07,2.9354,12577,485.01,0,485.01,0,0.00017836,1.9327e-10,0,9.3034e-05,3.3414e-05,6.6064e+07,61.349,0,3.316e+07,4.7873,485.01,1
1560,1.18,12156,1,12156,1,3.7364e-05,1.9793e-10,0,0.00015791,-6.9309e-06,9.3331e+06,62.961,0,5.8359e+07,-0.45493,12155,12992,1,12992,1,0.00033707,9.2206e-10,0,0.00033707,4.9218e-05,1.152e+08,285.5,0,1.152e+08,26.079,12991,12156,1,12156,1,3.7364e-05,1.1058e-10,0,0.00015585,-6.919e-06,1.3574e+07,34.811,0,5.8586e+07,0.92827,12155,11317,1,11317,1,-0.00026234,-2.495e-10,0,1.3998e-06,-6.309e-05,-1.067e+08,-80.198,0,4.0726e+05,-32.555,11316,11734,1,11734,1,-0.00011848,-3.2703e-11,0,7.3328e-05,-3.6124e-05,-4.8188e+07,-9.9578,0,2.8683e+07,-7.2111,11733,12578,1,12578,1,0.00019321,4.0018e-10,0,0.00023836,2.2258e-05,6.724e+07,127.22,0,8.7197e+07,6.9269,12577,485.01,0,485.01,0,0.00017988,2.9172e-10,0,9.3827e-05,3.3699e-05,6.6628e+07,92.509,0,3.3443e+07,10.464,485.01,1
1560,1.19,12156,1,12156,1,3.7681e-05,1.3801e-11,0,0.00015924,-6.9897e-06,9.4122e+06,4.3949,0,5.8854e+07,1.754,12155,12992,1,12992,1,0.00033992,5.1647e-10,0,0.00033992,4.9635e-05,1.1618e+08,161.06,0,1.1618e+08,13.166,12991,12156,1,12156,1,3.7681e-05,8.2554e-12,0,0.00015717,-6.9776e-06,1.3689e+07,2.4895,0,5.9083e+07,1.9554,12155,11317,1,11317,1,-0.00026456,-4.3622e-10,0,1.4116e-06,-6.3625e-05,-1.0761e+08,-137.35,0,4.107e+05,-13.311,11316,11734,1,11734,1,-0.00011949,-1.1491e-10,0,7.395e-05,-3.6431e-05,-4.8596e+07,-35.664,0,2.8926e+07,-3.4599,11733,12578,1,12578,1,0.00019485,1.3896e-10,0,0.00024038,2.2447e-05,6.781e+07,43.926,0,8.7936e+07,6.7809,12577,485.01,0,485.01,0,0.0001814,1.9347e-10,0,9.4622e-05,3.3984e-05,6.7192e+07,61.47,0,3.3726e+07,5.6849,485.01,1
1560,1.2,12156,1,12156,1,3.7998e-05,-1.2729e-10,0,0.00016058,-7.0485e-06,9.4914e+06,-40.381,0,5.9349e+07,0.91781,12155,12992,1,12992,1,0.00034278,4.6672e-10,0,0.00034278,5.0053e-05,1.1715e+08,146.4,0,1.1715e+08,28.77,12991,12156,1,12156,1,3.7998e-05,-1.2135e-10,0,0.00015849,-7.0363e-06,1.3804e+07,-37.732,0,5.958e+07,-0.57288,12155,11317,1,11317,1,-0.00026679,-5.9096e-10,0,1.4235e-06,-6.416e-05,-1.0851e+08,-189.98,0,4.1417e+05,-25.176,11316,11734,1,11734,1,-0.00012049,-3.3257e-10,0,7.4572e-05,-3.6737e-05,-4.9005e+07,-106.16,0,2.9169e+07,-6.1486,11733,12578,1,12578,1,0.00019649,3.8496e-11,0,0.0002424,2.2636e-05,6.838e+07,12.54,0,8.8676e+07,8.991,12577,485.01,0,485.01,0,0.00018293,2.468e-10,0,9.5418e-05,3.427e-05,6.7758e+07,78.591,0,3.401e+07,11.159,485.01,1
1560,1.21,12156,1,12156,1,3.8314e-05,1.9064e-10,0,0.00016192,-7.1072e-06,9.5704e+06,60.599,0,5.9843e+07,0.67445,12155,12992,1,12992,1,0.00034564,4.7705e-10,0,0.00034564,5.047e-05,1.1813e+08,149.12,0,1.1813e+08,9.7303,12991,12156,1,12156,1,3.8314e-05,1.8966e-10,0,0.00015981,-7.0949e-06,1.3919e+07,60.565,0,6.0076e+07,-0.064974,12155,11317,1,11317,1,-0.00026901,-3.4255e-11,0,1.4354e-06,-6.4694e-05,-1.0942e+08,-9.8607,0,4.1762e+05,-12.2,11316,11734,1,11734,1,-0.00012149,1.0437e-10,0,7.5193e-05,-3.7043e-05,-4.9413e+07,33.174,0,2.9412e+07,-1.3459,11733,12578,1,12578,1,0.00019812,2.6903e-10,0,0.00024442,2.2824e-05,6.895e+07,85.644,0,8.9415e+07,2.8084,12577,485.01,0,485.01,0,0.00018445,1.1269e-10,0,9.6213e-05,3.4556e-05,6.8322e+07,35.776,0,3.4293e+07,3.3748,485.01,1
1560,1.22,12156,1,12156,1,3.8631e-05,1.7693e-10,0,0.00016326,-7.166e-06,9.6496e+06,56.162,0,6.0338e+07,-0.037966,12155,12992,1,12992,1,0.0003485,5.3227e-10,0,0.0003485,5.0887e-05,1.1911e+08,162.7,0,1.1911e+08,12.496,12991,12156,1,12156,1,3.8631e-05,1.4582e-10,0,0.00016113,-7.1536e-06,1.4034e+07,46.201,0,6.0573e+07,0.53559,12155,11317,1,11317,1,-0.00027124,-8.3263e-11,0,1.4472e-06,-6.523e-05,-1.1032e+08,-23.968,0,4.2104e+05,-26.796,11316,11734,1,11734,1,-0.0001225,4.626e-11,0,7.5815e-05,-3.7349e-05,-4.9822e+07,14.727,0,2.9656e+07,-2.6957,11733,12578,1,12578,1,0.00019976,2.9412e-10,0,0.00024645,2.3013e-05,6.952e+07,94.077,0,9.0154e+07,4.2121,12577,485.01,0,485.01,0,0.00018598,1.5137e-10,0,9.7009e-05,3.4841e-05,6.8887e+07,47.732,0,3.4577e+07,6.6873,485.01,1
1560,1.23,12156,1,12156,1,3.8948e-05,7.9449e-11,0,0.0001646,-7.2247e-06,9.7287e+06,25.339,0,6.0833e+07,-0.88611,12155,12992,1,12992,1,0.00035136,2.3599e-10,0,0.00035136,5.1304e-05,1.2008e+08,71.681,0,1.2008e+08,6.9684,12991,12156,1,12156,1,3.8948e-05,8.3655e-11,0,0.00016245,-7.2122e-06,1.4149e+07,27.183,0,6.1069e+07,-0.012202,12155,11317,1,11317,1,-0.00027346,-6.4325e-11,0,1.4591e-06,-6.5764e-05,-1.1123e+08,-18.516,0,4.2452e+05,-14.668,11316,11734,1,11734,1,-0.0001235,3.764e-11,0,7.6437e-05,-3.7656e-05,-5.0231e+07,11.701,0,2.9899e+07,-2.4759,11733,12578,1,12578,1,0.0002014,1.1878e-10,0,0.00024847,2.3202e-05,7.009e+07,37.87,0,9.0894e+07,1.3623,12577,485.01,0,485.01,0,0.0001875,6.1039e-11,0,9.7804e-05,3.5127e-05,6.9452e+07,19.123,0,3.486e+07,3.8073,485.01,1
1560,1.24,12156,1,12156,1,3.9264e-05,9.4052e-11,0,0.00016594,-7.2834e-06,9.8077e+06,29.86,0,6.1327e+07,2.9793,12155,12992,1,12992,1,0.00035421,7.6169e-10,0,0.00035421,5.1721e-05,1.2106e+08,235.85,0,1.2106e+08,30.739,12991,12156,1,12156,1,3.9264e-05,3.8196e-11,0,0.00016377,-7.2708e-06,1.4264e+07,11.329,0,6.1566e+07,2.8343,12155,11317,1,11317,1,-0.00027568,-4.7015e-10,0,1.4709e-06,-6.6299e-05,-1.1213e+08,-151.14,0,4.2795e+05,-20.327,11316,11734,1,11734,1,-0.00012451,-1.2977e-10,0,7.7058e-05,-3.7961e-05,-5.0639e+07,-41.012,0,3.0142e+07,-5.7838,11733,12578,1,12578,1,0.00020304,3.1743e-10,0,0.00025048,2.339e-05,7.066e+07,101.18,0,9.1632e+07,10.457,12577,485.01,0,485.01,0,0.00018903,3.0546e-10,0,9.8599e-05,3.5412e-05,7.0016e+07,96.786,0,3.5143e+07,10.619,485.01,1
1560,1.25,12156,1,12156,1,3.9581e-05,2.0768e-10,0,0.00016727,-7.3421e-06,9.8868e+06,66.193,0,6.1822e+07,3.7972,12155,12992,1,12992,1,0.00035707,8.0318e-10,0,0.00035707,5.2138e-05,1.2203e+08,251.86,0,1.2203e+08,32.523,12991,12156,1,12156,1,3.9581e-05,1.4657e-10,0,0.00016509,-7.3294e-06,1.4379e+07,45.711,0,6.2062e+07,3.1261,12155,11317,1,11317,1,-0.0002779,-2.0122e-10,0,1.4828e-06,-6.6833e-05,-1.1303e+08,-64.691,0,4.3142e+05,-18.126,11316,11734,1,11734,1,-0.00012551,-7.8259e-12,0,7.7679e-05,-3.8268e-05,-5.1047e+07,-2.4684,0,3.0385e+07,-3.0653,11733,12578,1,12578,1,0.00020467,3.9488e-10,0,0.0002525,2.3579e-05,7.123e+07,124.92,0,9.2371e+07,8.493,12577,485.01,0,485.01,0,0.00019055,2.5283e-10,0,9.9394e-05,3.5698e-05,7.0581e+07,80.58,0,3.5427e+07,9.561,485.01,1
1560,1.26,12156,1,12156,1,3.9898e-05,-9.4264e-12,0,0.00016861,-7.4009e-06,9.9659e+06,-3.0296,0,6.2316e+07,-3.1392,12155,12992,1,12992,1,0.00035992,9.4527e-10,0,0.00035992,5.2555e-05,1.2301e+08,291.79,0,1.2301e+08,22.212,12991,12156,1,12156,1,3.9898e-05,-7.0246e-11,0,0.00016641,-7.3881e-06,1.4494e+07,-22.301,0,6.2558e+07,-0.79927,12155,11317,1,11317,1,-0.00028013,-5.5925e-10,0,1.4947e-06,-6.7368e-05,-1.1394e+08,-179.78,0,4.3487e+05,-49.907,11316,11734,1,11734,1,-0.00012651,-2.8472e-10,0,7.8301e-05,-3.8574e-05,-5.1455e+07,-90.684,0,3.0628e+07,-10.728,11733,12578,1,12578,1,0.00020631,1.7889e-10,0,0.00025452,2.3768e-05,7.18e+07,54.901,0,9.311e+07,7.2004,12577,485.01,0,485.01,0,0.00019208,3.5679e-10,0,0.00010019,3.5984e-05,7.1145e+07,113.36,0,3.571e+07,14.456,485.01,1
1560,1.27,12156,1,12156,1,4.0214e-05,-1.9272e-10,0,0.00016995,-7.4596e-06,1.0045e+07,-61.203,0,6.2811e+07,3.8905,12155,12992,1,12992,1,0.00036278,9.7912e-11,0,0.00036278,5.2972e-05,1.2399e+08,28.186,0,1.2399e+08,17.536,12991,12156,1,12156,1,4.0214e-05,-1.7936e-10,0,0.00016773,-7.4467e-06,1.4609e+07,-58.049,0,6.3055e+07,3.2479,12155,11317,1,11317,1,-0.00028235,-6.0038e-10,0,1.5065e-06,-6.7902e-05,-1.1484e+08,-184.92,0,4.383e+05,-14.241,11316,11734,1,11734,1,-0.00012752,-3.1296e-10,0,7.8921e-05,-3.888e-05,-5.1863e+07,-99.8,0,3.0871e+07,-0.078142,11733,12578,1,12578,1,0.00020795,-5.699e-11,0,0.00025654,2.3956e-05,7.2369e+07,-18.189,0,9.3848e+07,8.96,12577,485.01,0,485.01,0,0.0001936,1.6194e-10,0,0.00010098,3.6269e-05,7.171e+07,50.908,0,3.5993e+07,6.56,485.01,1
1560,1.28,12156,1,12156,1,4.0531e-05,1.7365e-10,0,0.00017129,-7.5183e-06,1.0124e+07,55.184,0,6.3305e+07,1.562,12155,12992,1,12992,1,0.00036564,7.9839e-10,0,0.00036564,5.3389e-05,1.2496e+08,246.79,0,1.2496e+08,32.326,12991,12156,1,12156,1,4.0531e-05,1.0112e-10,0,0.00016905,-7.5053e-06,1.4724e+07,31.994,0,6.3551e+07,1.6678,12155,11317,1,11317,1,-0.00028457,-1.7463e-10,0,1.5184e-06,-6.8437e-05,-1.1575e+08,-56.143,0,4.4176e+05,-24.957,11316,11734,1,11734,1,-0.00012852,-1.6258e-11,0,7.9543e-05,-3.9186e-05,-5.2272e+07,-5.1452,0,3.1114e+07,-4.0728,11733,12578,1,12578,1,0.00020958,3.2548e-10,0,0.00025856,2.4145e-05,7.2939e+07,102.65,0,9.4587e+07,5.8925,12577,485.01,0,485.01,0,0.00019512,2.3456e-10,0,0.00010178,3.6555e-05,7.2274e+07,74.17,0,3.6277e+07,9.6027,485.01,1
1560,1.29,12156,1,12156,1,4.0848e-05,2.5602e-11,0,0.00017263,-7.5772e-06,1.0203e+07,8.1151,0,6.3801e+07,0.0051711,12155,12992,1,12992,1,0.00036849,2.8254e-10,0,0.00036849,5.3807e-05,1.2594e+08,88.586,0,1.2594e+08,20.103,12991,12156,1,12156,1,4.0848e-05,-1.2802e-11,0,0.00017038,-7.5641e-06,1.4839e+07,-3.8203,0,6.4048e+07,0.35451,12155,11317,1,11317,1,-0.0002868,-1.1229e-10,0,1.5304e-06,-6.8972e-05,-1.1665e+08,-36.086,0,4.4525e+05,-15.782,11316,11734,1,11734,1,-0.00012953,-3.5022e-11,0,8.0165e-05,-3.9492e-05,-5.2681e+07,-11.243,0,3.1357e+07,-2.4565,11733,12578,1,12578,1,0.00021122,6.1321e-11,0,0.00026059,2.4334e-05,7.3509e+07,19.739,0,9.5327e+07,2.3598,12577,485.01,0,485.01,0,0.00019665,8.8276e-11,0,0.00010258,3.6841e-05,7.284e+07,27.889,0,3.6561e+07,5.3524,485.01,1
1560,1.3,12156,1,12156,1,4.1164e-05,-3.503e-11,0,0.00017396,-7.6358e-06,1.0282e+07,-11.023,0,6.4294e+07,1.4071,12155,12992,1,12992,1,0.00037135,5.802e-10,0,0.00037135,5.4223e-05,1.2691e+08,183.62,0,1.2691e+08,26.383,12991,12156,1,12156,1,4.1164e-05,-5.3602e-11,0,0.00017169,-7.6226e-06,1.4954e+07,-15.82,0,6.4544e+07,1.0455,12155,11317,1,11317,1,-0.00028902,-5.0024e-10,0,1.5421e-06,-6.9506e-05,-1.1755e+08,-158.49,0,4.4867e+05,-32.704,11316,11734,1,11734,1,-0.00013053,-2.1593e-10,0,8.0786e-05,-3.9798e-05,-5.3089e+07,-69.27,0,3.16e+07,-4.5735,11733,12578,1,12578,1,0.00021286,1.2633e-10,0,0.0002626,2.4522e-05,7.4078e+07,39.761,0,9.6065e+07,6.6519,12577,485.01,0,485.01,0,0.00019817,2.4267e-10,0,0.00010337,3.7126e-05,7.3404e+07,77.395,0,3.6844e+07,9.1818,485.01,1
1560,1.31,12156,1,12156,1,4.1481e-05,2.5266e-10,0,0.0001753,-7.6946e-06,1.0361e+07,80.304,0,6.4789e+07,-0.15851,12155,12992,1,12992,1,0.00037421,1.0092e-09,0,0.00037421,5.4641e-05,1.2789e+08,309.19,0,1.2789e+08,25.211,12991,12156,1,12156,1,4.1481e-05,1.5995e-10,0,0.00017302,-7.6813e-06,1.5069e+07,50.693,0,6.5041e+07,0.96976,12155,11317,1,11317,1,-0.00029124,-1.9844e-10,0,1.5539e-06,-7.0041e-05,-1.1846e+08,-63.788,0,4.5209e+05,-34.307,11316,11734,1,11734,1,-0.00013153,9.1646e-12,0,8.1407e-05,-4.0104e-05,-5.3497e+07,2.8007,0,3.1843e+07,-5.9145,11733,12578,1,12578,1,0.0002145,4.4744e-10,0,0.00026462,2.4711e-05,7.4648e+07,141.42,0,9.6804e+07,6.5852,12577,485.01,0,485.01,0,0.0001997,2.9931e-10,0,0.00010416,3.7412e-05,7.3968e+07,94.669,0,3.7127e+07,10.006,485.01,1
1560,1.32,12156,1,12156,1,4.1798e-05,1.4754e-10,0,0.00017664,-7.7533e-06,1.0441e+07,46.96,0,6.5284e+07,0.066034,12155,12992,1,12992,1,0.00037706,4.9781e-10,0,0.00037706,5.5058e-05,1.2887e+08,152.21,0,1.2887e+08,14.988,12991,12156,1,12156,1,4.1798e-05,1.0739e-10,0,0.00017434,-7.7399e-06,1.5184e+07,34.677,0,6.5538e+07,-0.10984,12155,11317,1,11317,1,-0.00029347,-9.8884e-11,0,1.5659e-06,-7.0576e-05,-1.1936e+08,-31.805,0,4.5558e+05,-13.145,11316,11734,1,11734,1,-0.00013254,1.6004e-11,0,8.2029e-05,-4.0411e-05,-5.3906e+07,4.9538,0,3.2086e+07,-4.0957,11733,12578,1,12578,1,0.00021613,2.7183e-10,0,0.00026664,2.49e-05,7.5219e+07,86.612,0,9.7544e+07,3.7862,12577,485.01,0,485.01,0,0.00020122,1.546e-10,0,0.00010496,3.7697e-05,7.4533e+07,48.962,0,3.7411e+07,5.555,485.01,1
1560,1.33,12156,1,12156,1,4.2114e-05,5.3998e-11,0,0.00017798,-7.8121e-06,1.052e+07,17.109,0,6.5779e+07,4.1073,12155,12992,1,12992,1,0.00037992,7.2933e-10,0,0.00037992,5.5475e-05,1.2984e+08,229.01,0,1.2984e+08,41.274,12991,12156,1,12156,1,4.2114e-05,-3.6563e-12,0,0.00017566,-7.7986e-06,1.5299e+07,-1.0533,0,6.6034e+07,2.6651,12155,11317,1,11317,1,-0.00029569,-3.5798e-10,0,1.5778e-06,-7.1111e-05,-1.2027e+08,-115.08,0,4.5904e+05,-25.93,11316,11734,1,11734,1,-0.00013354,-1.4174e-10,0,8.2651e-05,-4.0717e-05,-5.4314e+07,-44.841,0,3.2329e+07,-3.4801,11733,12578,1,12578,1,0.00021777,2.0686e-10,0,0.00026867,2.5088e-05,7.5789e+07,65.206,0,9.8283e+07,11.222,12577,485.01,0,485.01,0,0.00020275,2.6088e-10,0,0.00010576,3.7983e-05,7.5098e+07,82.861,0,3.7694e+07,12.365,485.01,1
1560,1.34,12156,1,12156,1,4.243e-05,1.6959e-10,0,0.00017932,-7.8707e-06,1.0599e+07,53.893,0,6.6273e+07,-1.1159,12155,12992,1,12992,1,0.00038277,9.2836e-10,0,0.00038277,5.5892e-05,1.3082e+08,289.81,0,1.3082e+08,26.094,12991,12156,1,12156,1,4.2431e-05,8.0809e-11,0,0.00017698,-7.8571e-06,1.5414e+07,24.699,0,6.653e+07,-0.21907,12155,11317,1,11317,1,-0.00029791,-3.4217e-10,0,1.5896e-06,-7.1645e-05,-1.2117e+08,-109.98,0,4.6247e+05,-34.626,11316,11734,1,11734,1,-0.00013455,-5.1113e-11,0,8.3271e-05,-4.1023e-05,-5.4722e+07,-16.472,0,3.2572e+07,-7.3198,11733,12578,1,12578,1,0.00021941,3.5389e-10,0,0.00027068,2.5277e-05,7.6358e+07,115.79,0,9.9021e+07,5.3891,12577,485.01,0,485.01,0,0.00020427,2.9726e-10,0,0.00010655,3.8268e-05,7.5662e+07,94.266,0,3.7977e+07,10.369,485.01,1
1560,1.35,12156,1,12156,1,4.2747e-05,1.1097e-10,0,0.00018066,-7.9295e-06,1.0678e+07,35.447,0,6.6768e+07,-0.33656,12155,12992,1,12992,1,0.00038563,5.9286e-10,0,0.00038563,5.6309e-05,1.318e+08,190.54,0,1.318e+08,14.596,12991,12156,1,12156,1,4.2747e-05,6.1218e-11,0,0.0001783,-7.9158e-06,1.5529e+07,19.617,0,6.7027e+07,-0.14365,12155,11317,1,11317,1,-0.00030014,-2.8339e-10,0,1.6015e-06,-7.218e-05,-1.2208e+08,-91.109,0,4.6593e+05,-18.814,11316,11734,1,11734,1,-0.00013555,-4.804e-11,0,8.3893e-05,-4.1329e-05,-5.5131e+07,-14.416,0,3.2815e+07,-4.8981,11733,12578,1,12578,1,0.00022105,2.6208e-10,0,0.0002727,2.5465e-05,7.6928e+07,83.498,0,9.9761e+07,3.8192,12577,485.01,0,485.01,0,0.0002058,2.0522e-10,0,0.00010735,3.8554e-05,7.6227e+07,65.372,0,3.8261e+07,5.9512,485.01,1
1560,1.36,12156,1,12156,1,4.3064e-05,-7.898e-11,0,0.000182,-7.9883e-06,1.0757e+07,-25.215,0,6.7263e+07,1.3237,12155,12992,1,12992,1,0.00038849,1.7753e-10,0,0.00038849,5.6727e-05,1.3277e+08,54.975,0,1.3277e+08,20.813,12991,12156,1,12156,1,4.3064e-05,-7.5943e-11,0,0.00017962,-7.9745e-06,1.5645e+07,-23.934,0,6.7524e+07,0.87927,12155,11317,1,11317,1,-0.00030236,-3.0918e-10,0,1.6133e-06,-7.2715e-05,-1.2298e+08,-99.398,0,4.6939e+05,-24.721,11316,11734,1,11734,1,-0.00013656,-1.6673e-10,0,8.4515e-05,-4.1635e-05,-5.554e+07,-53.54,0,3.3059e+07,-2.0126,11733,12578,1,12578,1,0.00022269,-7.7908e-12,0,0.00027473,2.5654e-05,7.7498e+07,-2.3693,0,1.005e+08,4.9472,12577,485.01,0,485.01,0,0.00020732,1.069e-10,0,0.00010814,3.884e-05,7.6792e+07,33.886,0,3.8545e+07,6.6212,485.01,1
1560,1.37,12156,1,12156,1,4.3381e-05,1.9859e-10,0,0.00018333,-8.047e-06,1.0836e+07,63.111,0,6.7757e+07,-0.94942,12155,12992,1,12992,1,0.00039135,6.8802e-10,0,0.00039135,5.7144e-05,1.3375e+08,214.39,0,1.3375e+08,15.452,12991,12156,1,12156,1,4.3381e-05,1.4208e-10,0,0.00018094,-8.0331e-06,1.576e+07,45.374,0,6.802e+07,0.24084,12155,11317,1,11317,1,-0.00030458,-8.123e-11,0,1.6252e-06,-7.325e-05,-1.2388e+08,-23.383,0,4.7285e+05,-25.098,11316,11734,1,11734,1,-0.00013756,4.6348e-11,0,8.5137e-05,-4.1941e-05,-5.5948e+07,14.59,0,3.3302e+07,-4.0948,11733,12578,1,12578,1,0.00022432,3.1672e-10,0,0.00027675,2.5843e-05,7.8068e+07,101.12,0,1.0124e+08,3.2536,12577,485.01,0,485.01,0,0.00020885,1.9172e-10,0,0.00010894,3.9125e-05,7.7357e+07,60.582,0,3.8828e+07,6.9805,485.01,1
1560,1.38,12156,1,12156,1,4.3697e-05,-4.7662e-11,0,0.00018467,-8.1057e-06,1.0915e+07,-15.056,0,6.8251e+07,-2.2584,12155,12992,1,12992,1,0.0003942,5.4417e-10,0,0.0003942,5.756e-05,1.3473e+08,171.44,0,1.3473e+08,15.179,12991,12156,1,12156,1,4.3697e-05,-5.7642e-11,0,0.00018226,-8.0917e-06,1.5875e+07,-17.403,0,6.8516e+07,-1.8841,12155,11317,1,11317,1,-0.00030681,-4.7051e-10,0,1.6371e-06,-7.3784e-05,-1.2479e+08,-151.25,0,4.7629e+05,-32.204,11316,11734,1,11734,1,-0.00013856,-2.1538e-10,0,8.5757e-05,-4.2247e-05,-5.6356e+07,-67.826,0,3.3545e+07,-7.3424,11733,12578,1,12578,1,0.00022596,8.633e-11,0,0.00027876,2.6031e-05,7.8637e+07,27.817,0,1.0198e+08,4.5835,12577,485.01,0,485.01,0,0.00021037,2.2179e-10,0,0.00010973,3.9411e-05,7.7921e+07,70.653,0,3.9111e+07,9.1129,485.01,1
1560,1.39,12156,1,12156,1,4.4014e-05,8.3024e-11,0,0.00018601,-8.1645e-06,1.0994e+07,26.456,0,6.8746e+07,3.6262,12155,12992,1,12992,1,0.00039706,4.5129e-10,0,0.00039706,5.7978e-05,1.357e+08,143.83,0,1.357e+08,16.394,12991,12156,1,12156,1,4.4014e-05,5.421e-11,0,0.00018358,-8.1503e-06,1.599e+07,18.002,0,6.9013e+07,4.3799,12155,11317,1,11317,1,-0.00030903,-3.0604e-10,0,1.6489e-06,-7.4319e-05,-1.2569e+08,-98.378,0,4.7973e+05,-15.12,11316,11734,1,11734,1,-0.00013957,-4.2591e-11,0,8.6379e-05,-4.2554e-05,-5.6764e+07,-12.605,0,3.3788e+07,-0.71956,11733,12578,1,12578,1,0.0002276,2.2632e-10,0,0.00028078,2.622e-05,7.9207e+07,72.607,0,1.0272e+08,8.3563,12577,485.01,0,485.01,0,0.00021189,1.6818e-10,0,0.00011053,3.9696e-05,7.8486e+07,53.221,0,3.9395e+07,6.1061,485.01,1
1560,1.4,12156,1,12156,1,4.433e-05,2.0261e-10,0,0.00018735,-8.2232e-06,1.1073e+07,64.317,0,6.924e+07,-0.75354,12155,12992,1,12992,1,0.00039991,8.3649e-10,0,0.00039991,5.8395e-05,1.3668e+08,259,0,1.3668e+08,16.497,12991,12156,1,12156,1,4.433e-05,1.3202e-10,0,0.0001849,-8.209e-06,1.6105e+07,42.71,0,6.9509e+07,0.046797,12155,11317,1,11317,1,-0.00031125,-2.1359e-10,0,1.6608e-06,-7.4853e-05,-1.266e+08,-68.665,0,4.8318e+05,-28.794,11316,11734,1,11734,1,-0.00014057,-5.8831e-12,0,8.7e-05,-4.2859e-05,-5.7172e+07,-1.8986,0,3.4031e+07,-6.1035,11733,12578,1,12578,1,0.00022923,3.8212e-10,0,0.0002828,2.6408e-05,7.9777e+07,121.36,0,1.0345e+08,5.1894,12577,485.01,0,485.01,0,0.00021342,2.554e-10,0,0.00011132,3.9982e-05,7.905e+07,80.765,0,3.9678e+07,8.2128,485.01,1
1560,1.41,12156,1,12156,1,4.4647e-05,1.8925e-10,0,0.00018868,-8.2819e-06,1.1152e+07,60.258,0,6.9735e+07,0.31722,12155,12992,1,12992,1,0.00040277,9.5951e-10,0,0.00040277,5.8812e-05,1.3765e+08,293.22,0,1.3765e+08,34.512,12991,12156,1,12156,1,4.4647e-05,8.3447e-11,0,0.00018622,-8.2676e-06,1.622e+07,26.623,0,7.0006e+07,1.5498,12155,11317,1,11317,1,-0.00031348,-3.108e-10,0,1.6726e-06,-7.5388e-05,-1.275e+08,-99.927,0,4.8664e+05,-37.543,11316,11734,1,11734,1,-0.00014158,-5.9636e-11,0,8.7622e-05,-4.3166e-05,-5.7581e+07,-18.97,0,3.4274e+07,-6.5278,11733,12578,1,12578,1,0.00023087,4.0423e-10,0,0.00028482,2.6597e-05,8.0347e+07,131.5,0,1.0419e+08,7.9068,12577,485.01,0,485.01,0,0.00021494,3.2667e-10,0,0.00011212,4.0267e-05,7.9615e+07,103.7,0,3.9961e+07,12.664,485.01,1
1560,1.42,12156,1,12156,1,4.4964e-05,3.6302e-10,0,0.00019002,-8.3407e-06,1.1231e+07,115.43,0,7.023e+07,-1.4448,12155,12992,1,12992,1,0.00040563,9.1271e-10,0,0.00040563,5.9229e-05,1.3863e+08,278.24,0,1.3863e+08,14.793,12991,12156,1,12156,1,4.4964e-05,3.2482e-10,0,0.00018754,-8.3263e-06,1.6335e+07,103.73,0,7.0503e+07,-0.36061,12155,11317,1,11317,1,-0.0003157,-8.8738e-11,0,1.6845e-06,-7.5923e-05,-1.2841e+08,-25.543,0,4.9009e+05,-24.418,11316,11734,1,11734,1,-0.00014258,1.6084e-10,0,8.8244e-05,-4.3472e-05,-5.7989e+07,50.944,0,3.4517e+07,-6.1941,11733,12578,1,12578,1,0.00023251,5.5429e-10,0,0.00028685,2.6786e-05,8.0917e+07,176.39,0,1.0493e+08,4.2227,12577,485.01,0,485.01,0,0.00021647,2.5022e-10,0,0.00011291,4.0553e-05,8.018e+07,79.29,0,4.0245e+07,7.5282,485.01,1
1560,1.43,12156,1,12156,1,4.528e-05,1.8513e-10,0,0.00019136,-8.3994e-06,1.131e+07,58.778,0,7.0724e+07,0.84467,12155,12992,1,12992,1,0.00040848,1.0661e-09,0,0.00040848,5.9646e-05,1.3961e+08,333.24,0,1.3961e+08,24.774,12991,12156,1,12156,1,4.528e-05,7.9373e-11,0,0.00018886,-8.3849e-06,1.645e+07,25.646,0,7.0999e+07,2.9799,12155,11317,1,11317,1,-0.00031792,-4.3886e-10,0,1.6963e-06,-7.6457e-05,-1.2931e+08,-141.07,0,4.9353e+05,-40.678,11316,11734,1,11734,1,-0.00014358,-8.0961e-11,0,8.8864e-05,-4.3778e-05,-5.8397e+07,-26.003,0,3.476e+07,-5.9493,11733,12578,1,12578,1,0.00023414,4.1517e-10,0,0.00028886,2.6974e-05,8.1486e+07,134.05,0,1.0567e+08,9.6817,12577,485.01,0,485.01,0,0.00021799,3.6329e-10,0,0.00011371,4.0838e-05,8.0744e+07,115.01,0,4.0528e+07,12.509,485.01,1
1560,1.44,12156,1,12156,1,4.5597e-05,-1.2648e-10,0,0.0001927,-8.4581e-06,1.139e+07,-40.12,0,7.1218e+07,0.85014,12155,12992,1,12992,1,0.00041134,3.3542e-10,0,0.00041134,6.0063e-05,1.4058e+08,107.79,0,1.4058e+08,14.024,12991,12156,1,12156,1,4.5597e-05,-1.0724e-10,0,0.00019018,-8.4435e-06,1.6565e+07,-33.769,0,7.1495e+07,1.5754,12155,11317,1,11317,1,-0.00032014,-5.8141e-10,0,1.7082e-06,-7.6991e-05,-1.3021e+08,-180.02,0,4.9699e+05,-16.452,11316,11734,1,11734,1,-0.00014459,-2.6081e-10,0,8.9486e-05,-4.4084e-05,-5.8806e+07,-85.147,0,3.5003e+07,-3.5949,11733,12578,1,12578,1,0.00023578,5.4709e-12,0,0.00029088,2.7163e-05,8.2056e+07,1.6411,0,1.0641e+08,5.8019,12577,485.01,0,485.01,0,0.00021951,1.9319e-10,0,0.0001145,4.1124e-05,8.1308e+07,61.387,0,4.0811e+07,6.1122,485.01,1
1560,1.45,12156,1,12156,1,4.5914e-05,6.056e-11,0,0.00019404,-8.5169e-06,1.1469e+07,19.169,0,7.1713e+07,-0.39873,12155,12992,1,12992,1,0.0004142,9.9619e-10,0,0.0004142,6.048e-05,1.4156e+08,313.92,0,1.4156e+08,37.722,12991,12156,1,12156,1,4.5914e-05,-1.8904e-11,0,0.00019151,-8.5022e-06,1.668e+07,-5.9117,0,7.1992e+07,-0.086908,12155,11317,1,11317,1,-0.00032237,-4.2568e-10,0,1.7201e-06,-7.7526e-05,-1.3112e+08,-136.85,0,5.0044e+05,-32.54,11316,11734,1,11734,1,-0.00014559,-1.5911e-10,0,9.0107e-05,-4.439e-05,-5.9214e+07,-51,0,3.5246e+07,-6.2816,11733,12578,1,12578,1,0.00023742,2.0934e-10,0,0.0002929,2.7352e-05,8.2626e+07,65.71,0,1.0715e+08,6.1617,12577,485.01,0,485.01,0,0.00022104,3.0837e-10,0,0.0001153,4.141e-05,8.1873e+07,97.92,0,4.1095e+07,11.875,485.01,1
1560,1.46,12156,1,12156,1,4.6231e-05,2.8203e-10,0,0.00019538,-8.5756e-06,1.1548e+07,89.661,0,7.2208e+07,-0.34531,12155,12992,1,12992,1,0.00041705,6.2858e-10,0,0.00041705,6.0898e-05,1.4254e+08,192,0,1.4254e+08,11.721,12991,12156,1,12156,1,4.623e-05,2.8057e-10,0,0.00019283,-8.5608e-06,1.6795e+07,90.437,0,7.2488e+07,-0.16817,12155,11317,1,11317,1,-0.00032459,-7.5879e-11,0,1.7319e-06,-7.8061e-05,-1.3202e+08,-21.843,0,5.0389e+05,-16.307,11316,11734,1,11734,1,-0.0001466,1.4467e-10,0,9.0729e-05,-4.4697e-05,-5.9623e+07,45.643,0,3.5489e+07,-3.8466,11733,12578,1,12578,1,0.00023906,4.2768e-10,0,0.00029493,2.754e-05,8.3196e+07,136.03,0,1.0789e+08,2.775,12577,485.01,0,485.01,0,0.00022256,1.758e-10,0,0.00011609,4.1695e-05,8.2438e+07,55.513,0,4.1379e+07,4.6903,485.01,1
1560,1.47,12156,1,12156,1,4.6547e-05,1.031e-10,0,0.00019671,-8.6343e-06,1.1627e+07,32.763,0,7.2702e+07,0.93801,12155,12992,1,12992,1,0.00041991,4.6439e-10,0,0.00041991,6.1314e-05,1.4351e+08,143.8,0,1.4351e+08,10.676,12991,12156,1,12156,1,4.6547e-05,8.5571e-11,0,0.00019415,-8.6194e-06,1.691e+07,27.378,0,7.2984e+07,1.3702,12155,11317,1,11317,1,-0.00032681,-2.4052e-10,0,1.7438e-06,-7.8595e-05,-1.3293e+08,-77.316,0,5.0734e+05,-17.397,11316,11734,1,11734,1,-0.0001476,5.1349e-12,0,9.135e-05,-4.5002e-05,-6.0031e+07,1.5471,0,3.5732e+07,-2.2331,11733,12578,1,12578,1,0.00024069,2.0982e-10,0,0.00029694,2.7729e-05,8.3765e+07,66.416,0,1.0863e+08,4.2219,12577,485.01,0,485.01,0,0.00022409,1.456e-10,0,0.00011689,4.1981e-05,8.3002e+07,46.256,0,4.1662e+07,4.5274,485.01,1
1560,1.48,12156,1,12156,1,4.6864e-05,1.8892e-10,0,0.00019805,-8.6931e-06,1.1706e+07,60.036,0,7.3197e+07,-0.80471,12155,12992,1,12992,1,0.00042277,6.2679e-10,0,0.00042277,6.1732e-05,1.4449e+08,193.05,0,1.4449e+08,16.699,12991,12156,1,12156,1,4.6864e-05,1.3205e-10,0,0.00019547,-8.6781e-06,1.7025e+07,41.669,0,7.3482e+07,0.098472,12155,11317,1,11317,1,-0.00032904,-6.4865e-11,0,1.7557e-06,-7.9131e-05,-1.3383e+08,-18.672,0,5.108e+05,-21.618,11316,11734,1,11734,1,-0.00014861,5.0452e-11,0,9.1972e-05,-4.5309e-05,-6.044e+07,16.075,0,3.5975e+07,-3.3841,11733,12578,1,12578,1,0.00024233,3.0701e-10,0,0.00029897,2.7918e-05,8.4336e+07,96.651,0,1.0937e+08,3.1964,12577,485.01,0,485.01,0,0.00022561,1.7532e-10,0,0.00011768,4.2267e-05,8.3568e+07,55.442,0,4.1946e+07,6.0203,485.01,1
1560,1.49,12156,1,12156,1,4.718e-05,2.627e-10,0,0.00019939,-8.7518e-06,1.1785e+07,83.464,0,7.3692e+07,-0.69209,12155,12992,1,12992,1,0.00042562,8.7007e-10,0,0.00042562,6.2149e-05,1.4546e+08,269.4,0,1.4546e+08,15.55,12991,12156,1,12156,1,4.718e-05,2.0125e-10,0,0.00019679,-8.7367e-06,1.714e+07,63.87,0,7.3978e+07,-0.082738,12155,11317,1,11317,1,-0.00033126,-7.3174e-11,0,1.7675e-06,-7.9665e-05,-1.3474e+08,-21.064,0,5.1424e+05,-25.9,11316,11734,1,11734,1,-0.00014961,8.4996e-11,0,9.2593e-05,-4.5615e-05,-6.0848e+07,26.873,0,3.6218e+07,-3.9605,11733,12578,1,12578,1,0.00024397,4.0345e-10,0,0.00030098,2.8106e-05,8.4906e+07,127.42,0,1.1011e+08,3.9881,12577,485.01,0,485.01,0,0.00022714,2.2322e-10,0,0.00011848,4.2552e-05,8.4132e+07,70.651,0,4.2229e+07,6.994,485.01,1
1560,1.5,12156,1,12156,1,4.7497e-05,1.8507e-10,0,0.00020073,-8.8106e-06,1.1864e+07,58.629,0,7.4186e+07,5.2373,12155,12992,1,12992,1,0.00042848,8.4787e-10,0,0.00042848,6.2566e-05,1.4644e+08,257.71,0,1.4644e+08,41.448,12991,12156,1,12156,1,4.7497e-05,1.0089e-10,0,0.00019811,-8.7954e-06,1.7255e+07,32.834,0,7.4474e+07,4.4978,12155,11317,1,11317,1,-0.00033349,-2.4566e-10,0,1.7794e-06,-8.02e-05,-1.3564e+08,-78.985,0,5.1769e+05,-25.62,11316,11734,1,11734,1,-0.00015061,-2.5458e-11,0,9.3215e-05,-4.5921e-05,-6.1256e+07,-7.8553,0,3.6462e+07,-3.1109,11733,12578,1,12578,1,0.00024561,3.7256e-10,0,0.000303,2.8295e-05,8.5476e+07,118.73,0,1.1084e+08,11.189,12577,485.01,0,485.01,0,0.00022866,2.6947e-10,0,0.00011927,4.2838e-05,8.4697e+07,84.787,0,4.2512e+07,12.213,485.01,1
1560,1.51,12156,1,12156,1,4.7814e-05,2.2265e-11,0,0.00020207,-8.8693e-06,1.1943e+07,7.0137,0,7.4681e+07,-0.36378,12155,12992,1,12992,1,0.00043134,5.628e-10,0,0.00043134,6.2983e-05,1.4742e+08,173.03,0,1.4742e+08,15.85,12991,12156,1,12156,1,4.7814e-05,-7.6613e-12,0,0.00019943,-8.854e-06,1.737e+07,-2.5075,0,7.4971e+07,0.14559,12155,11317,1,11317,1,-0.00033571,-3.6454e-10,0,1.7913e-06,-8.0734e-05,-1.3654e+08,-117.2,0,5.2117e+05,-25.434,11316,11734,1,11734,1,-0.00015162,-1.3359e-10,0,9.3836e-05,-4.6227e-05,-6.1665e+07,-42.036,0,3.6705e+07,-4.934,11733,12578,1,12578,1,0.00024724,1.4948e-10,0,0.00030503,2.8484e-05,8.6045e+07,47.186,0,1.1158e+08,6.3317,12577,485.01,0,485.01,0,0.00023019,2.142e-10,0,0.00012007,4.3123e-05,8.5262e+07,67.939,0,4.2796e+07,8.2328,485.01,1
1560,1.52,12156,1,12156,1,4.8131e-05,1.2253e-10,0,0.00020341,-8.9281e-06,1.2022e+07,38.956,0,7.5176e+07,1.9251,12155,12992,1,12992,1,0.0004342,7.0357e-10,0,0.0004342,6.34e-05,1.4839e+08,219.76,0,1.4839e+08,24.191,12991,12156,1,12156,1,4.8131e-05,5.0239e-11,0,0.00020075,-8.9127e-06,1.7485e+07,15.286,0,7.5468e+07,2.3967,12155,11317,1,11317,1,-0.00033793,-2.5464e-10,0,1.8031e-06,-8.127e-05,-1.3745e+08,-81.881,0,5.246e+05,-24.594,11316,11734,1,11734,1,-0.00015262,-4.938e-11,0,9.4458e-05,-4.6534e-05,-6.2073e+07,-15.782,0,3.6948e+07,-3.7149,11733,12578,1,12578,1,0.00024888,2.7371e-10,0,0.00030705,2.8672e-05,8.6616e+07,88.814,0,1.1232e+08,7.8785,12577,485.01,0,485.01,0,0.00023171,2.3366e-10,0,0.00012086,4.3409e-05,8.5827e+07,74.012,0,4.3079e+07,8.5894,485.01,1
1560,1.53,12156,1,12156,1,4.8447e-05,4.6238e-11,0,0.00020474,-8.9868e-06,1.2102e+07,14.724,0,7.567e+07,0.55593,12155,12992,1,12992,1,0.00043705,2.7163e-10,0,0.00043705,6.3817e-05,1.4937e+08,82.468,0,1.4937e+08,13.581,12991,12156,1,12156,1,4.8447e-05,2.3657e-11,0,0.00020207,-8.9713e-06,1.76e+07,7.5517,0,7.5964e+07,0.70508,12155,11317,1,11317,1,-0.00034016,-1.5601e-10,0,1.815e-06,-8.1804e-05,-1.3835e+08,-50.17,0,5.2806e+05,-13.556,11316,11734,1,11734,1,-0.00015363,-2.7929e-11,0,9.508e-05,-4.684e-05,-6.2482e+07,-9.0312,0,3.7191e+07,-2.5108,11733,12578,1,12578,1,0.00025052,1.2044e-10,0,0.00030907,2.8861e-05,8.7186e+07,38.56,0,1.1306e+08,4.0181,12577,485.01,0,485.01,0,0.00023324,9.5191e-11,0,0.00012166,4.3695e-05,8.6391e+07,30.072,0,4.3363e+07,5.0984,485.01,1
1560,1.54,12156,1,12156,1,4.8764e-05,2.3796e-10,0,0.00020608,-9.0456e-06,1.2181e+07,75.678,0,7.6165e+07,-2.0842,12155,12992,1,12992,1,0.00043991,5.4449e-10,0,0.00043991,6.4234e-05,1.5035e+08,166.42,0,1.5035e+08,11.099,12991,12156,1,12156,1,4.8764e-05,2.4726e-10,0,0.00020339,-9.0299e-06,1.7715e+07,78.898,0,7.646e+07,-2.2086,12155,11317,1,11317,1,-0.00034238,-7.86e-11,0,1.8269e-06,-8.2339e-05,-1.3926e+08,-22.627,0,5.3151e+05,-17.708,11316,11734,1,11734,1,-0.00015463,1.3419e-10,0,9.5701e-05,-4.7146e-05,-6.289e+07,41.032,0,3.7434e+07,-5.0342,11733,12578,1,12578,1,0.00025216,3.4676e-10,0,0.00031109,2.9049e-05,8.7755e+07,109.92,0,1.138e+08,1.5571,12577,485.01,0,485.01,0,0.00023476,1.4689e-10,0,0.00012245,4.398e-05,8.6956e+07,46.249,0,4.3646e+07,4.8907,485.01,1
1560,1.55,12156,1,12156,1,4.908e-05,-2.6293e-11,0,0.00020742,-9.1043e-06,1.226e+07,-8.3494,0,7.6659e+07,0.29143,12155,12992,1,12992,1,0.00044276,2.0909e-10,0,0.00044276,6.4651e-05,1.5132e+08,67.197,0,1.5132e+08,11.07,12991,12156,1,12156,1,4.908e-05,-9.1749e-12,0,0.00020471,-9.0885e-06,1.783e+07,-2.7258,0,7.6957e+07,0.67653,12155,11317,1,11317,1,-0.0003446,-3.9264e-10,0,1.8387e-06,-8.2873e-05,-1.4016e+08,-126.22,0,5.3496e+05,-16.467,11316,11734,1,11734,1,-0.00015563,-9.2819e-11,0,9.6322e-05,-4.7452e-05,-6.3298e+07,-29.458,0,3.7677e+07,-2.1348,11733,12578,1,12578,1,0.00025379,5.7816e-11,0,0.00031311,2.9238e-05,8.8325e+07,18.634,0,1.1454e+08,2.8217,12577,485.01,0,485.01,0,0.00023628,1.1955e-10,0,0.00012325,4.4266e-05,8.752e+07,37.99,0,4.3929e+07,4.1862,485.01,1
1560,1.56,12156,1,12156,1,4.9397e-05,-2.5606e-11,0,0.00020876,-9.1629e-06,1.2339e+07,-8.1585,0,7.7153e+07,0.84086,12155,12992,1,12992,1,0.00044561,9.8036e-10,0,0.00044561,6.5068e-05,1.523e+08,301.79,0,1.523e+08,22.646,12991,12156,1,12156,1,4.9397e-05,-5.2276e-11,0,0.00020603,-9.1471e-06,1.7945e+07,-15.856,0,7.7453e+07,1.6891,12155,11317,1,11317,1,-0.00034682,-7.6204e-10,0,1.8505e-06,-8.3407e-05,-1.4106e+08,-243.19,0,5.384e+05,-23.882,11316,11734,1,11734,1,-0.00015664,-2.793e-10,0,9.6943e-05,-4.7758e-05,-6.3706e+07,-88.389,0,3.792e+07,-7.3025,11733,12578,1,12578,1,0.00025543,1.8831e-10,0,0.00031512,2.9426e-05,8.8894e+07,61.438,0,1.1528e+08,9.17,12577,485.01,0,485.01,0,0.00023781,3.6505e-10,0,0.00012404,4.4551e-05,8.8084e+07,116.01,0,4.4212e+07,10.135,485.01,1
1560,1.57,12156,1,12156,1,4.9713e-05,3.0502e-10,0,0.00021009,-9.2217e-06,1.2418e+07,97.109,0,7.7648e+07,-0.5452,12155,12992,1,12992,1,0.00044847,8.27e-10,0,0.00044847,6.5486e-05,1.5327e+08,254.16,0,1.5327e+08,21.708,12991,12156,1,12156,1,4.9713e-05,2.7984e-10,0,0.00020735,-9.2058e-06,1.806e+07,88.69,0,7.795e+07,-1.0755,12155,11317,1,11317,1,-0.00034905,-1.5607e-10,0,1.8624e-06,-8.3942e-05,-1.4197e+08,-50.15,0,5.4186e+05,-20.49,11316,11734,1,11734,1,-0.00015764,8.6382e-11,0,9.7564e-05,-4.8064e-05,-6.4115e+07,27.669,0,3.8163e+07,-6.7895,11733,12578,1,12578,1,0.00025707,5.2068e-10,0,0.00031714,2.9615e-05,8.9464e+07,165.71,0,1.1602e+08,4.8506,12577,485.01,0,485.01,0,0.00023933,2.5781e-10,0,0.00012484,4.4837e-05,8.8649e+07,81.98,0,4.4496e+07,8.0403,485.01,1
1560,1.58,12156,1,12156,1,5.003e-05,1.1212e-10,0,0.00021143,-9.2805e-06,1.2497e+07,35.723,0,7.8143e+07,3.2435,12155,12992,1,12992,1,0.00045133,6.6447e-10,0,0.00045133,6.5903e-05,1.5425e+08,208.8,0,1.5425e+08,36.385,12991,12156,1,12156,1,5.003e-05,4.5379e-11,0,0.00020868,-9.2645e-06,1.8175e+07,14.661,0,7.8447e+07,2.1409,12155,11317,1,11317,1,-0.00035127,-2.5539e-10,0,1.8743e-06,-8.4477e-05,-1.4287e+08,-82.117,0,5.4531e+05,-21.823,11316,11734,1,11734,1,-0.00015865,-4.79e-11,0,9.8187e-05,-4.837e-05,-6.4523e+07,-15.324,0,3.8406e+07,-4.1861,11733,12578,1,12578,1,0.00025871,2.4848e-10,0,0.00031917,2.9804e-05,9.0034e+07,80.518,0,1.1676e+08,7.4791,12577,485.01,0,485.01,0,0.00024086,2.193e-10,0,0.00012563,4.5122e-05,8.9214e+07,69.645,0,4.478e+07,11.026,485.01,1
1560,1.59,12156,1,12156,1,5.0347e-05,1.7733e-10,0,0.00021277,-9.3392e-06,1.2576e+07,56.46,0,7.8637e+07,-0.4131,12155,12992,1,12992,1,0.00045419,7.1884e-10,0,0.00045419,6.632e-05,1.5523e+08,223.16,0,1.5523e+08,15.879,12991,12156,1,12156,1,5.0347e-05,1.2072e-10,0,0.00021,-9.3231e-06,1.829e+07,38.488,0,7.8943e+07,0.65018,12155,11317,1,11317,1,-0.00035349,-2.0495e-10,0,1.8861e-06,-8.5012e-05,-1.4378e+08,-65.891,0,5.4874e+05,-17.916,11316,11734,1,11734,1,-0.00015965,-4.538e-12,0,9.8808e-05,-4.8676e-05,-6.4932e+07,-1.4374,0,3.8649e+07,-5.4795,11733,12578,1,12578,1,0.00026034,3.4726e-10,0,0.00032119,2.9993e-05,9.0604e+07,108.53,0,1.175e+08,4.5484,12577,485.01,0,485.01,0,0.00024238,2.2005e-10,0,0.00012643,4.5408e-05,8.9779e+07,69.895,0,4.5063e+07,6.3151,485.01,1
1560,1.6,12156,1,12156,1,5.0663e-05,-9.0971e-11,0,0.00021411,-9.3979e-06,1.2655e+07,-28.895,0,7.9132e+07,-0.80752,12155,12992,1,12992,1,0.00045704,9.8433e-12,0,0.00045704,6.6737e-05,1.562e+08,2.8332,0,1.562e+08,7.6963,12991,12156,1,12156,1,5.0663e-05,-7.599e-11,0,0.00021132,-9.3817e-06,1.8405e+07,-24.464,0,7.9439e+07,-1.0039,12155,11317,1,11317,1,-0.00035572,-3.2408e-10,0,1.898e-06,-8.5546e-05,-1.4468e+08,-104.18,0,5.5221e+05,-15.246,11316,11734,1,11734,1,-0.00016065,-1.0753e-10,0,9.9429e-05,-4.8982e-05,-6.534e+07,-34.211,0,3.8892e+07,-2.3212,11733,12578,1,12578,1,0.00026198,-5.7558e-11,0,0.0003232,3.0181e-05,9.1174e+07,-18.114,0,1.1823e+08,0.68261,12577,485.01,0,485.01,0,0.00024391,5.6849e-11,0,0.00012722,4.5693e-05,9.0343e+07,18.218,0,4.5346e+07,2.9401,485.01,1
1560,1.61,12156,1,12156,1,5.098e-05,3.7087e-10,0,0.00021545,-9.4567e-06,1.2734e+07,117.92,0,7.9626e+07,2.9072,12155,12992,1,12992,1,0.0004599,9.9745e-10,0,0.0004599,6.7154e-05,1.5718e+08,302.18,0,1.5718e+08,29.11,12991,12156,1,12156,1,5.098e-05,3.3496e-10,0,0.00021264,-9.4403e-06,1.852e+07,106.81,0,7.9936e+07,2.1137,12155,11317,1,11317,1,-0.00035794,-1.1475e-10,0,1.9099e-06,-8.6081e-05,-1.4559e+08,-33.03,0,5.5566e+05,-21.507,11316,11734,1,11734,1,-0.00016166,1.3307e-10,0,0.00010005,-4.9289e-05,-6.5748e+07,41.717,0,3.9135e+07,-4.3491,11733,12578,1,12578,1,0.00026362,5.8628e-10,0,0.00032522,3.037e-05,9.1744e+07,187.43,0,1.1897e+08,9.5725,12577,485.01,0,485.01,0,0.00024543,2.8165e-10,0,0.00012802,4.5979e-05,9.0908e+07,89.022,0,4.563e+07,9.4799,485.01,1
1560,1.62,12156,1,12156,1,5.1297e-05,9.2315e-10,0,0.00021679,-9.5153e-06,1.2813e+07,293.65,0,8.0121e+07,13.861,12155,12992,1,12992,1,0.00046276,2.0759e-09,0,0.00046276,6.7571e-05,1.5816e+08,647.03,0,1.5816e+08,1247.5,12991,12156,1,12156,1,5.1296e-05,9.6014e-10,0,0.00021396,-9.4988e-06,1.8635e+07,304.39,0,8.0431e+07,-5.0703,12155,11317,1,11317,1,-0.00036017,-4.9108e-10,0,1.9215e-06,-8.6616e-05,-1.4649e+08,-141.37,0,5.5913e+05,-73.288,11316,11734,1,11734,1,-0.00016266,5.3509e-10,0,0.00010067,-4.9595e-05,-6.6157e+07,166.01,0,3.9378e+07,-18.699,11733,12578,1,12578,1,0.00026525,1.3387e-09,0,0.00032724,3.0558e-05,9.2313e+07,429.3,0,1.1971e+08,6.0947,12577,485.01,0,485.01,0,0.00024695,5.6012e-10,0,0.00012881,4.6264e-05,9.1472e+07,177.17,0,4.5913e+07,114.16,485.01,1
1560,1.63,12156,1,12156,1,5.1614e-05,2.406e-10,0,0.00021812,-9.5742e-06,1.2892e+07,76.385,0,8.0616e+07,3.5182,12155,12992,1,12992,1,0.00046562,7.5335e-10,0,0.00046562,6.7988e-05,1.5913e+08,228.23,0,1.5913e+08,32.274,12991,12156,1,12156,1,5.1614e-05,2.0064e-10,0,0.00021528,-9.5576e-06,1.875e+07,64.003,0,8.0929e+07,3.2189,12155,11317,1,11317,1,-0.00036239,-1.1189e-10,0,1.9336e-06,-8.7151e-05,-1.474e+08,-34.433,0,5.6256e+05,-17.249,11316,11734,1,11734,1,-0.00016367,4.1468e-11,0,0.00010129,-4.9901e-05,-6.6565e+07,13.116,0,3.9622e+07,-4.3926,11733,12578,1,12578,1,0.00026689,4.3324e-10,0,0.00032927,3.0747e-05,9.2883e+07,138.44,0,1.2045e+08,7.762,12577,485.01,0,485.01,0,0.00024848,2.2927e-10,0,0.00012961,4.655e-05,9.2037e+07,72.082,0,4.6197e+07,9.976,485.01,1
1560,1.64,12156,1,12156,1,5.193e-05,2.7745e-10,0,0.00021946,-9.6329e-06,1.2972e+07,88.293,0,8.111e+07,-4.252,12155,12992,1,12992,1,0.00046847,1.0971e-09,0,0.00046847,6.8406e-05,1.6011e+08,339.68,0,1.6011e+08,13.41,12991,12156,1,12156,1,5.193e-05,1.8384e-10,0,0.0002166,-9.6163e-06,1.8865e+07,58.297,0,8.1425e+07,-3.9668,12155,11317,1,11317,1,-0.00036461,-1.7939e-10,0,1.9455e-06,-8.7685e-05,-1.483e+08,-57.677,0,5.66e+05,-38.571,11316,11734,1,11734,1,-0.00016467,7.769e-13,0,0.00010191,-5.0207e-05,-6.6974e+07,0.2447,0,3.9865e+07,-10.558,11733,12578,1,12578,1,0.00026853,5.0089e-10,0,0.00033129,3.0936e-05,9.3453e+07,158.88,0,1.2119e+08,4.5134,12577,485.01,0,485.01,0,0.00025,3.2715e-10,0,0.0001304,4.6836e-05,9.2602e+07,103.88,0,4.648e+07,10.686,485.01,1
1560,1.65,12156,1,12156,1,5.2247e-05,1.564e-10,0,0.0002208,-9.6917e-06,1.3051e+07,49.751,0,8.1605e+07,-4.0944,12155,12992,1,12992,1,0.00047133,8.4226e-10,0,0.00047133,6.8823e-05,1.6109e+08,266.96,0,1.6109e+08,9.6938,12991,12156,1,12156,1,5.2247e-05,4.5457e-11,0,0.00021792,-9.6749e-06,1.898e+07,14.129,0,8.1922e+07,-1.3422,12155,11317,1,11317,1,-0.00036684,-2.1185e-10,0,1.9573e-06,-8.822e-05,-1.492e+08,-68.123,0,5.6946e+05,-43.25,11316,11734,1,11734,1,-0.00016567,-4.1497e-11,0,0.00010254,-5.0513e-05,-6.7382e+07,-12.782,0,4.0108e+07,-8.819,11733,12578,1,12578,1,0.00027017,3.1114e-10,0,0.00033331,3.1124e-05,9.4023e+07,98.025,0,1.2193e+08,3.7363,12577,485.01,0,485.01,0,0.00025153,2.6952e-10,0,0.0001312,4.7122e-05,9.3167e+07,85.559,0,4.6764e+07,10.651,485.01,1
1560,1.66,12156,1,12156,1,5.2557e-05,-2.1446e-09,0,0.00022211,-9.7491e-06,1.3128e+07,-681.86,0,8.209e+07,62.537,12155,12992,1,12992,1,0.00047415,9.087e-10,0,0.00047415,6.9234e-05,1.6205e+08,261.59,0,1.6205e+08,1133.9,12991,12156,1,12156,1,5.2557e-05,-2.0931e-09,0,0.00021922,-9.7321e-06,1.9093e+07,-672.49,0,8.2409e+07,36.104,12155,11317,1,11317,1,-0.00036903,-6.213e-09,0,1.9683e-06,-8.8748e-05,-1.501e+08,-1997,0,5.727e+05,-122.75,11316,11734,1,11734,1,-0.00016666,-2.9423e-09,0,0.00010315,-5.0813e-05,-6.7783e+07,-930.69,0,4.0346e+07,4.2428,11733,12578,1,12578,1,0.00027177,-1.187e-09,0,0.00033529,3.131e-05,9.4582e+07,-377.28,0,1.2265e+08,75.708,12577,485.01,0,485.01,0,0.00025302,1.3941e-09,0,0.00013198,4.7402e-05,9.3721e+07,441.95,0,4.7042e+07,145.3,485.01,1
1560,1.67,12156,1,12156,1,5.288e-05,-2.0329e-10,0,0.00022348,-9.8091e-06,1.3209e+07,-64.682,0,8.2594e+07,-0.35448,12155,12992,1,12992,1,0.00047704,6.3459e-11,0,0.00047704,6.9657e-05,1.6304e+08,18.267,0,1.6304e+08,11.123,12991,12156,1,12156,1,5.288e-05,-1.9784e-10,0,0.00022056,-9.7922e-06,1.921e+07,-62.519,0,8.2915e+07,-0.26205,12155,11317,1,11317,1,-0.00037128,-4.9869e-10,0,1.9811e-06,-8.9289e-05,-1.5101e+08,-154.4,0,5.7638e+05,-17.472,11316,11734,1,11734,1,-0.00016768,-3.3482e-10,0,0.00010378,-5.1125e-05,-6.8199e+07,-107.7,0,4.0594e+07,-3.4332,11733,12578,1,12578,1,0.00027344,-7.4205e-11,0,0.00033735,3.1502e-05,9.5163e+07,-22.905,0,1.2341e+08,3.8014,12577,485.01,0,485.01,0,0.00025458,1.5182e-10,0,0.00013279,4.7693e-05,9.4296e+07,48.154,0,4.733e+07,5.6385,485.01,1
1560,1.68,12156,1,12156,1,5.3197e-05,1.8202e-11,0,0.00022482,-9.8679e-06,1.3288e+07,5.7037,0,8.3089e+07,-0.36815,12155,12992,1,12992,1,0.0004799,5.5621e-10,0,0.0004799,7.0074e-05,1.6401e+08,173.83,0,1.6401e+08,13.035,12991,12156,1,12156,1,5.3197e-05,-9.6586e-12,0,0.00022188,-9.8508e-06,1.9326e+07,-2.9422,0,8.3411e+07,0.78267,12155,11317,1,11317,1,-0.0003735,-3.6131e-10,0,1.9929e-06,-8.9824e-05,-1.5192e+08,-116.16,0,5.7982e+05,-19.153,11316,11734,1,11734,1,-0.00016869,-1.0761e-10,0,0.0001044,-5.1432e-05,-6.8607e+07,-34.221,0,4.0837e+07,-4.1216,11733,12578,1,12578,1,0.00027508,1.193e-10,0,0.00033937,3.169e-05,9.5733e+07,38.393,0,1.2415e+08,4.3302,12577,485.01,0,485.01,0,0.0002561,1.8353e-10,0,0.00013359,4.7978e-05,9.486e+07,58.264,0,4.7614e+07,6.4941,485.01,1
1560,1.69,12156,1,12156,1,5.3513e-05,-4.1909e-11,0,0.00022615,-9.9266e-06,1.3367e+07,-13.324,0,8.3583e+07,0.015185,12155,12992,1,12992,1,0.00048275,4.7481e-10,0,0.00048275,7.0491e-05,1.6499e+08,151.54,0,1.6499e+08,17.518,12991,12156,1,12156,1,5.3513e-05,-4.6765e-11,0,0.0002232,-9.9095e-06,1.9441e+07,-14.141,0,8.3908e+07,0.22862,12155,11317,1,11317,1,-0.00037573,-4.4354e-10,0,2.0048e-06,-9.0358e-05,-1.5282e+08,-142.6,0,5.8328e+05,-21.05,11316,11734,1,11734,1,-0.00016969,-1.8701e-10,0,0.00010502,-5.1738e-05,-6.9015e+07,-59.117,0,4.108e+07,-4.71,11733,12578,1,12578,1,0.00027672,7.6364e-11,0,0.00034139,3.1879e-05,9.6302e+07,24.296,0,1.2489e+08,4.9882,12577,485.01,0,485.01,0,0.00025763,1.9907e-10,0,0.00013438,4.8264e-05,9.5425e+07,63.187,0,4.7897e+07,6.8379,485.01,1
1560,1.7,12156,1,12156,1,5.383e-05,-1.6244e-11,0,0.00022749,-9.9854e-06,1.3446e+07,-5.194,0,8.4078e+07,0.015871,12155,12992,1,12992,1,0.00048561,1.1067e-10,0,0.00048561,7.0908e-05,1.6597e+08,35.581,0,1.6597e+08,10.44,12991,12156,1,12156,1,5.383e-05,-1.4747e-11,0,0.00022453,-9.9682e-06,1.9556e+07,-4.7284,0,8.4405e+07,0.79126,12155,11317,1,11317,1,-0.00037795,-1.0997e-10,0,2.0167e-06,-9.0894e-05,-1.5373e+08,-35.354,0,5.8673e+05,-22.662,11316,11734,1,11734,1,-0.0001707,-4.515e-11,0,0.00010564,-5.2044e-05,-6.9424e+07,-14.33,0,4.1323e+07,-1.1021,11733,12578,1,12578,1,0.00027836,4.8236e-12,0,0.00034341,3.2068e-05,9.6873e+07,1.489,0,1.2563e+08,2.5959,12577,485.01,0,485.01,0,0.00025915,3.7983e-11,0,0.00013518,4.855e-05,9.599e+07,12.025,0,4.8181e+07,4.5334,485.01,1
1560,1.71,12156,1,12156,1,5.4147e-05,2.3984e-10,0,0.00022883,-1.0044e-05,1.3525e+07,76.25,0,8.4572e+07,-0.27177,12155,12992,1,12992,1,0.00048847,9.1107e-10,0,0.00048847,7.1325e-05,1.6694e+08,289.5,0,1.6694e+08,16.145,12991,12156,1,12156,1,5.4147e-05,1.5773e-10,0,0.00022585,-1.0027e-05,1.9671e+07,50.008,0,8.4901e+07,0.75845,12155,11317,1,11317,1,-0.00038017,-2.0861e-10,0,2.0285e-06,-9.1428e-05,-1.5463e+08,-67.057,0,5.9018e+05,-28.363,11316,11734,1,11734,1,-0.0001717,8.2334e-12,0,0.00010626,-5.235e-05,-6.9832e+07,2.6315,0,4.1566e+07,-6.6256,11733,12578,1,12578,1,0.00027999,4.3299e-10,0,0.00034543,3.2256e-05,9.7442e+07,138.02,0,1.2636e+08,7.126,12577,485.01,0,485.01,0,0.00026067,2.8343e-10,0,0.00013597,4.8835e-05,9.6554e+07,89.878,0,4.8464e+07,9.1043,485.01,1
1560,1.72,12156,1,12156,1,5.4456e-05,-1.4386e-09,0,0.00023014,-1.0101e-05,1.3602e+07,-457.99,0,8.5055e+07,55.973,12155,12992,1,12992,1,0.00049127,2.3068e-09,0,0.00049127,7.1735e-05,1.679e+08,740.85,0,1.679e+08,1208.1,12991,12156,1,12156,1,5.4456e-05,-9.0209e-10,0,0.00022714,-1.0084e-05,1.9783e+07,-287.2,0,8.5387e+07,35.871,12155,11317,1,11317,1,-0.00038236,-6.8134e-09,0,2.0398e-06,-9.1953e-05,-1.5552e+08,-2189.6,0,5.935e+05,-130.72,11316,11734,1,11734,1,-0.00017268,-2.7389e-09,0,0.00010687,-5.2649e-05,-7.0231e+07,-862.82,0,4.1803e+07,-11.03,11733,12578,1,12578,1,0.00028159,9.9069e-11,0,0.0003474,3.2441e-05,9.7998e+07,31.987,0,1.2708e+08,86.849,12577,485.01,0,485.01,0,0.00026216,1.9537e-09,0,0.00013675,4.9114e-05,9.7106e+07,621.76,0,4.8741e+07,139.72,485.01,1
1560,1.73,12156,1,12156,1,5.478e-05,-1.098e-10,0,0.00023151,-1.0162e-05,1.3683e+07,-34.958,0,8.5561e+07,0.55346,12155,12992,1,12992,1,0.00049418,5.5371e-10,0,0.00049418,7.2159e-05,1.689e+08,171.03,0,1.689e+08,26.786,12991,12156,1,12156,1,5.478e-05,-1.1581e-10,0,0.00022849,-1.0144e-05,1.9901e+07,-36.705,0,8.5894e+07,0.26047,12155,11317,1,11317,1,-0.00038462,-5.1815e-10,0,2.0522e-06,-9.2497e-05,-1.5644e+08,-166.56,0,5.9708e+05,-25.566,11316,11734,1,11734,1,-0.00017371,-2.9195e-10,0,0.00010751,-5.2962e-05,-7.0649e+07,-92.883,0,4.2052e+07,-4.9213,11733,12578,1,12578,1,0.00028327,2.9357e-11,0,0.00034947,3.2633e-05,9.8582e+07,8.9866,0,1.2784e+08,6.9743,12577,485.01,0,485.01,0,0.00026372,2.3296e-10,0,0.00013756,4.9406e-05,9.7684e+07,74.096,0,4.9031e+07,9.7842,485.01,1
1560,1.74,12156,1,12156,1,5.5097e-05,2.2293e-10,0,0.00023285,-1.022e-05,1.3763e+07,71.056,0,8.6056e+07,-0.011316,12155,12992,1,12992,1,0.00049704,7.38e-10,0,0.00049704,7.2577e-05,1.6987e+08,223.58,0,1.6987e+08,20.798,12991,12156,1,12156,1,5.5097e-05,1.6971e-10,0,0.00022981,-1.0203e-05,2.0016e+07,53.025,0,8.6391e+07,0.66658,12155,11317,1,11317,1,-0.00038684,-1.2302e-10,0,2.0641e-06,-9.3032e-05,-1.5734e+08,-35.41,0,6.0054e+05,-22.569,11316,11734,1,11734,1,-0.00017471,4.5988e-11,0,0.00010813,-5.3269e-05,-7.1058e+07,14.164,0,4.2295e+07,-5.8107,11733,12578,1,12578,1,0.00028491,3.8504e-10,0,0.00035149,3.2822e-05,9.9152e+07,123.92,0,1.2858e+08,5.1882,12577,485.01,0,485.01,0,0.00026525,2.1377e-10,0,0.00013836,4.9692e-05,9.8249e+07,67.824,0,4.9314e+07,8.0481,485.01,1
1560,1.75,12156,1,12156,1,5.5413e-05,7.5962e-11,0,0.00023418,-1.0279e-05,1.3842e+07,24.115,0,8.6551e+07,2.945,12155,12992,1,12992,1,0.00049989,8.7305e-10,0,0.00049989,7.2994e-05,1.7085e+08,270.33,0,1.7085e+08,30.432,12991,12156,1,12156,1,5.5413e-05,7.6427e-12,0,0.00023113,-1.0261e-05,2.0131e+07,2.2978,0,8.6887e+07,2.6236,12155,11317,1,11317,1,-0.00038907,-4.2466e-10,0,2.0759e-06,-9.3566e-05,-1.5825e+08,-136.53,0,6.0397e+05,-28.778,11316,11734,1,11734,1,-0.00017572,-1.3329e-10,0,0.00010875,-5.3575e-05,-7.1466e+07,-43.211,0,4.2538e+07,-3.7564,11733,12578,1,12578,1,0.00028654,2.5288e-10,0,0.00035351,3.3011e-05,9.9721e+07,78.809,0,1.2932e+08,10.49,12577,485.01,0,485.01,0,0.00026677,2.9943e-10,0,0.00013915,4.9977e-05,9.8813e+07,94.948,0,4.9598e+07,11.265,485.01,1
1560,1.76,12156,1,12156,1,5.573e-05,2.0438e-10,0,0.00023552,-1.0338e-05,1.3921e+07,64.859,0,8.7045e+07,1.522,12155,12992,1,12992,1,0.00050275,7.8001e-10,0,0.00050275,7.3411e-05,1.7182e+08,244.4,0,1.7182e+08,24.764,12991,12156,1,12156,1,5.573e-05,1.4024e-10,0,0.00023245,-1.032e-05,2.0246e+07,44.328,0,8.7383e+07,2.5315,12155,11317,1,11317,1,-0.00039129,-1.9001e-10,0,2.0878e-06,-9.4101e-05,-1.5915e+08,-61.095,0,6.0742e+05,-21.068,11316,11734,1,11734,1,-0.00017672,-1.6928e-12,0,0.00010937,-5.3881e-05,-7.1874e+07,-0.50138,0,4.2782e+07,-4.8572,11733,12578,1,12578,1,0.00028818,3.8129e-10,0,0.00035553,3.3199e-05,1.0029e+08,122.02,0,1.3006e+08,7.0071,12577,485.01,0,485.01,0,0.0002683,2.4611e-10,0,0.00013995,5.0263e-05,9.9378e+07,77.662,0,4.9881e+07,8.2014,485.01,1
1560,1.77,12156,1,12156,1,5.6047e-05,1.7725e-10,0,0.00023686,-1.0397e-05,1.4e+07,56.517,0,8.754e+07,1.5817,12155,12992,1,12992,1,0.00050561,5.1628e-10,0,0.00050561,7.3828e-05,1.728e+08,156.41,0,1.728e+08,18.788,12991,12156,1,12156,1,5.6047e-05,1.638e-10,0,0.00023377,-1.0379e-05,2.0361e+07,51.719,0,8.788e+07,0.78631,12155,11317,1,11317,1,-0.00039351,-1.0821e-10,0,2.0997e-06,-9.4636e-05,-1.6006e+08,-34.796,0,6.1089e+05,-15.234,11316,11734,1,11734,1,-0.00017772,3.9652e-11,0,0.00010999,-5.4187e-05,-7.2283e+07,12.734,0,4.3025e+07,-2.9143,11733,12578,1,12578,1,0.00028982,3.1319e-10,0,0.00035755,3.3388e-05,1.0086e+08,100.68,0,1.308e+08,6.0263,12577,485.01,0,485.01,0,0.00026982,1.6203e-10,0,0.00014074,5.0549e-05,9.9943e+07,51.403,0,5.0165e+07,5.8929,485.01,1
1560,1.78,12156,1,12156,1,5.6364e-05,-2.2354e-11,0,0.0002382,-1.0455e-05,1.4079e+07,-7.129,0,8.8035e+07,0.50317,12155,12992,1,12992,1,0.00050846,2.4074e-10,0,0.00050846,7.4245e-05,1.7378e+08,77.41,0,1.7378e+08,15.688,12991,12156,1,12156,1,5.6364e-05,-2.8576e-11,0,0.00023509,-1.0437e-05,2.0476e+07,-9.0254,0,8.8377e+07,0.67596,12155,11317,1,11317,1,-0.00039574,-2.1457e-10,0,2.1116e-06,-9.5171e-05,-1.6096e+08,-68.982,0,6.1434e+05,-23.298,11316,11734,1,11734,1,-0.00017873,-1.1322e-10,0,0.00011062,-5.4493e-05,-7.2691e+07,-35.818,0,4.3268e+07,-2.6565,11733,12578,1,12578,1,0.00029146,4.5533e-11,0,0.00035957,3.3577e-05,1.0143e+08,14.001,0,1.3154e+08,4.9077,12577,485.01,0,485.01,0,0.00027135,1.1299e-10,0,0.00014154,5.0834e-05,1.0051e+08,35.848,0,5.0448e+07,6.1817,485.01,1
1560,1.79,12156,1,12156,1,5.668e-05,1.2075e-10,0,0.00023953,-1.0514e-05,1.4158e+07,38.412,0,8.8528e+07,1.6172,12155,12992,1,12992,1,0.00051132,8.9024e-10,0,0.00051132,7.4662e-05,1.7475e+08,280.3,0,1.7475e+08,30.172,12991,12156,1,12156,1,5.668e-05,3.9768e-11,0,0.00023641,-1.0496e-05,2.0591e+07,12.347,0,8.8872e+07,2.794,12155,11317,1,11317,1,-0.00039796,-4.687e-10,0,2.1234e-06,-9.5705e-05,-1.6186e+08,-150.67,0,6.1779e+05,-30.463,11316,11734,1,11734,1,-0.00017973,-1.0554e-10,0,0.00011124,-5.4799e-05,-7.3099e+07,-33.632,0,4.3511e+07,-7.2249,11733,12578,1,12578,1,0.00029309,3.2772e-10,0,0.00036158,3.3765e-05,1.02e+08,103.44,0,1.3227e+08,9.5841,12577,485.01,0,485.01,0,0.00027287,3.2006e-10,0,0.00014233,5.1119e-05,1.0107e+08,101.68,0,5.0731e+07,11.836,485.01,1
1560,1.8,12156,1,12156,1,5.6996e-05,3.8337e-11,0,0.00024087,-1.0573e-05,1.4237e+07,12.114,0,8.9023e+07,5.9385,12155,12992,1,12992,1,0.00051417,6.3064e-10,0,0.00051417,7.5079e-05,1.7573e+08,195.64,0,1.7573e+08,57.077,12991,12156,1,12156,1,5.6996e-05,-9.6728e-12,0,0.00023773,-1.0554e-05,2.0706e+07,-3.0478,0,8.9369e+07,2.7408,12155,11317,1,11317,1,-0.00040018,-3.4073e-10,0,2.1352e-06,-9.624e-05,-1.6277e+08,-109.55,0,6.2122e+05,-18.437,11316,11734,1,11734,1,-0.00018074,-1.0993e-10,0,0.00011186,-5.5105e-05,-7.3508e+07,-34.64,0,4.3754e+07,-2.7493,11733,12578,1,12578,1,0.00029473,1.5704e-10,0,0.00036361,3.3954e-05,1.0257e+08,49.766,0,1.3301e+08,9.2391,12577,485.01,0,485.01,0,0.00027439,2.1636e-10,0,0.00014313,5.1405e-05,1.0164e+08,68.451,0,5.1015e+07,14.318,485.01,1
1560,1.81,12156,1,12156,1,5.7314e-05,-5.469e-11,0,0.00024221,-1.0632e-05,1.4316e+07,-17.376,0,8.9519e+07,0.17557,12155,12992,1,12992,1,0.00051703,1.916e-10,0,0.00051703,7.5496e-05,1.7671e+08,60.142,0,1.7671e+08,12.951,12991,12156,1,12156,1,5.7314e-05,-5.3509e-11,0,0.00023905,-1.0613e-05,2.0821e+07,-16.58,0,8.9866e+07,0.52975,12155,11317,1,11317,1,-0.00040241,-2.5632e-10,0,2.1472e-06,-9.6775e-05,-1.6367e+08,-82.408,0,6.247e+05,-27.311,11316,11734,1,11734,1,-0.00018174,-1.4447e-10,0,0.00011248,-5.5412e-05,-7.3916e+07,-46.17,0,4.3997e+07,-2.9979,11733,12578,1,12578,1,0.00029637,1.7996e-11,0,0.00036563,3.4143e-05,1.0314e+08,5.7505,0,1.3375e+08,4.6164,12577,485.01,0,485.01,0,0.00027592,1.0811e-10,0,0.00014392,5.1691e-05,1.022e+08,34.317,0,5.1298e+07,6.2798,485.01,1
1560,1.82,12156,1,12156,1,5.763e-05,1.6957e-10,0,0.00024355,-1.069e-05,1.4395e+07,53.823,0,9.0013e+07,7.4705,12155,12992,1,12992,1,0.00051989,8.1683e-10,0,0.00051989,7.5913e-05,1.7768e+08,254.34,0,1.7768e+08,47.277,12991,12156,1,12156,1,5.763e-05,1.1723e-10,0,0.00024037,-1.0672e-05,2.0936e+07,37.148,0,9.0362e+07,7.2649,12155,11317,1,11317,1,-0.00040463,-4.1493e-10,0,2.159e-06,-9.7309e-05,-1.6458e+08,-133.38,0,6.2813e+05,-20.785,11316,11734,1,11734,1,-0.00018274,-5.2757e-11,0,0.0001131,-5.5718e-05,-7.4324e+07,-16.61,0,4.424e+07,-3.5597,11733,12578,1,12578,1,0.000298,3.9585e-10,0,0.00036765,3.4331e-05,1.0371e+08,125.45,0,1.3449e+08,14.93,12577,485.01,0,485.01,0,0.00027744,2.9673e-10,0,0.00014472,5.1976e-05,1.0277e+08,93.919,0,5.1581e+07,13.346,485.01,1
1560,1.83,12156,1,12156,1,5.7946e-05,2.2237e-10,0,0.00024489,-1.0749e-05,1.4474e+07,70.76,0,9.0507e+07,7.9951,12155,12992,1,12992,1,0.00052274,1.1883e-09,0,0.00052274,7.633e-05,1.7866e+08,367.56,0,1.7866e+08,63.376,12991,12156,1,12156,1,5.7946e-05,1.164e-10,0,0.00024169,-1.073e-05,2.1051e+07,36.455,0,9.0858e+07,6.6169,12155,11317,1,11317,1,-0.00040685,-4.9989e-10,0,2.1708e-06,-9.7844e-05,-1.6548e+08,-160.69,0,6.3158e+05,-31.692,11316,11734,1,11734,1,-0.00018375,-7.6008e-11,0,0.00011372,-5.6024e-05,-7.4732e+07,-24.479,0,4.4483e+07,-6.3806,11733,12578,1,12578,1,0.00029964,4.965e-10,0,0.00036966,3.452e-05,1.0428e+08,157.25,0,1.3523e+08,17.213,12577,485.01,0,485.01,0,0.00027897,4.1026e-10,0,0.00014551,5.2262e-05,1.0333e+08,130.2,0,5.1865e+07,18.873,485.01,1
1560,1.84,12156,1,12156,1,5.8263e-05,1.6117e-10,0,0.00024623,-1.0808e-05,1.4553e+07,51.146,0,9.1001e+07,7.1738,12155,12992,1,12992,1,0.0005256,1.0378e-09,0,0.0005256,7.6747e-05,1.7963e+08,322.52,0,1.7963e+08,46.597,12991,12156,1,12156,1,5.8263e-05,7.2396e-11,0,0.00024301,-1.0789e-05,2.1166e+07,23.51,0,9.1355e+07,6.8967,12155,11317,1,11317,1,-0.00040907,-5.0024e-10,0,2.1826e-06,-9.8378e-05,-1.6638e+08,-160.8,0,6.3502e+05,-19.447,11316,11734,1,11734,1,-0.00018475,-1.0055e-10,0,0.00011434,-5.633e-05,-7.5141e+07,-31.47,0,4.4726e+07,-3.6869,11733,12578,1,12578,1,0.00030128,4.1121e-10,0,0.00037168,3.4708e-05,1.0485e+08,129.98,0,1.3597e+08,14.888,12577,485.01,0,485.01,0,0.00028049,3.5825e-10,0,0.00014631,5.2547e-05,1.0389e+08,113.6,0,5.2148e+07,12.96,485.01,1
1560,1.85,12156,1,12156,1,5.858e-05,1.2619e-11,0,0.00024757,-1.0866e-05,1.4633e+07,3.9541,0,9.1496e+07,4.1408,12155,12992,1,12992,1,0.00052846,7.8044e-10,0,0.00052846,7.7165e-05,1.8061e+08,245.16,0,1.8061e+08,37.227,12991,12156,1,12156,1,5.858e-05,-2.0651e-11,0,0.00024434,-1.0848e-05,2.1281e+07,-6.28,0,9.1852e+07,4.1099,12155,11317,1,11317,1,-0.0004113,-5.0772e-10,0,2.1946e-06,-9.8913e-05,-1.6729e+08,-163.2,0,6.3851e+05,-28.056,11316,11734,1,11734,1,-0.00018576,-2.0134e-10,0,0.00011497,-5.6636e-05,-7.555e+07,-62.291,0,4.4969e+07,-3.84,11733,12578,1,12578,1,0.00030292,1.7436e-10,0,0.00037371,3.4897e-05,1.0542e+08,56.214,0,1.3671e+08,12.458,12577,485.01,0,485.01,0,0.00028202,2.9762e-10,0,0.0001471,5.2833e-05,1.0446e+08,94.505,0,5.2432e+07,12.373,485.01,1
1560,1.86,12156,1,12156,1,5.8896e-05,1.0077e-10,0,0.0002489,-1.0925e-05,1.4712e+07,31.955,0,9.1991e+07,8.194,12155,12992,1,12992,1,0.00053131,8.2414e-10,0,0.00053131,7.7582e-05,1.8159e+08,256.16,0,1.8159e+08,44.991,12991,12156,1,12156,1,5.8896e-05,3.7635e-11,0,0.00024566,-1.0906e-05,2.1396e+07,11.486,0,9.2348e+07,7.0511,12155,11317,1,11317,1,-0.00041352,-4.9704e-10,0,2.2064e-06,-9.9448e-05,-1.6819e+08,-159.78,0,6.4195e+05,-17.164,11316,11734,1,11734,1,-0.00018676,-1.1281e-10,0,0.00011559,-5.6942e-05,-7.5958e+07,-35.54,0,4.5212e+07,-1.9216,11733,12578,1,12578,1,0.00030455,3.1284e-10,0,0.00037573,3.5086e-05,1.0599e+08,99.442,0,1.3745e+08,15.074,12577,485.01,0,485.01,0,0.00028354,3.096e-10,0,0.0001479,5.3119e-05,1.0502e+08,98.27,0,5.2715e+07,12.867,485.01,1
1560,1.87,12156,1,12156,1,5.9213e-05,1.509e-10,0,0.00025024,-1.0984e-05,1.4791e+07,47.724,0,9.2486e+07,1.2609,12155,12992,1,12992,1,0.00053417,8.1285e-10,0,0.00053417,7.7999e-05,1.8256e+08,249.41,0,1.8256e+08,16.101,12991,12156,1,12156,1,5.9213e-05,7.3816e-11,0,0.00024698,-1.0965e-05,2.1511e+07,23.838,0,9.2845e+07,3.1315,12155,11317,1,11317,1,-0.00041575,-3.5412e-10,0,2.2184e-06,-9.9983e-05,-1.691e+08,-113.85,0,6.4543e+05,-28.449,11316,11734,1,11734,1,-0.00018776,-4.7979e-11,0,0.00011621,-5.7248e-05,-7.6366e+07,-14.592,0,4.5455e+07,-5.4365,11733,12578,1,12578,1,0.00030619,3.3635e-10,0,0.00037775,3.5274e-05,1.0656e+08,106.46,0,1.3819e+08,8.7545,12577,485.01,0,485.01,0,0.00028507,2.7801e-10,0,0.00014869,5.3404e-05,1.0559e+08,87.792,0,5.2999e+07,9.152,485.01,1
1560,1.88,12156,1,12156,1,5.953e-05,1.6391e-10,0,0.00025158,-1.1043e-05,1.487e+07,52.144,0,9.298e+07,2.7937,12155,12992,1,12992,1,0.00053703,9.2914e-10,0,0.00053703,7.8416e-05,1.8354e+08,292.75,0,1.8354e+08,19.727,12991,12156,1,12156,1,5.953e-05,9.2077e-11,0,0.0002483,-1.1024e-05,2.1626e+07,28.437,0,9.3341e+07,3.0899,12155,11317,1,11317,1,-0.00041797,-3.992e-10,0,2.2302e-06,-0.00010052,-1.7e+08,-128.33,0,6.4886e+05,-26.831,11316,11734,1,11734,1,-0.00018877,-6.9416e-11,0,0.00011683,-5.7554e-05,-7.6774e+07,-21.693,0,4.5698e+07,-4.3402,11733,12578,1,12578,1,0.00030783,3.8212e-10,0,0.00037977,3.5463e-05,1.0713e+08,120.56,0,1.3893e+08,10.526,12577,485.01,0,485.01,0,0.00028659,3.0498e-10,0,0.00014949,5.369e-05,1.0615e+08,96.807,0,5.3282e+07,9.3402,485.01,1
1560,1.89,12156,1,12156,1,5.9846e-05,1.1505e-10,0,0.00025292,-1.1101e-05,1.4949e+07,36.492,0,9.3474e+07,6.0688,12155,12992,1,12992,1,0.00053988,9.1711e-10,0,0.00053988,7.8833e-05,1.8452e+08,283.99,0,1.8452e+08,38.47,12991,12156,1,12156,1,5.9846e-05,4.1397e-11,0,0.00024962,-1.1082e-05,2.1741e+07,12.325,0,9.3837e+07,5.1056,12155,11317,1,11317,1,-0.00042019,-3.7168e-10,0,2.2421e-06,-0.00010105,-1.7091e+08,-119.49,0,6.5233e+05,-18.961,11316,11734,1,11734,1,-0.00018977,-7.9236e-11,0,0.00011745,-5.786e-05,-7.7183e+07,-24.918,0,4.5941e+07,-1.7909,11733,12578,1,12578,1,0.00030946,2.7837e-10,0,0.00038178,3.5651e-05,1.077e+08,87.224,0,1.3966e+08,12.052,12577,485.01,0,485.01,0,0.00028811,2.763e-10,0,0.00015028,5.3975e-05,1.0672e+08,87.681,0,5.3565e+07,10.527,485.01,1
1560,1.9,12156,1,12156,1,6.0163e-05,3.1699e-10,0,0.00025425,-1.116e-05,1.5028e+07,100.79,0,9.3969e+07,2.6204,12155,12992,1,12992,1,0.00054274,1.0177e-09,0,0.00054274,7.925e-05,1.8549e+08,312.58,0,1.8549e+08,21.719,12991,12156,1,12156,1,6.0163e-05,2.4853e-10,0,0.00025094,-1.1141e-05,2.1856e+07,80.59,0,9.4334e+07,2.56,12155,11317,1,11317,1,-0.00042241,-2.4988e-10,0,2.254e-06,-0.00010159,-1.7181e+08,-80.323,0,6.5577e+05,-21.997,11316,11734,1,11734,1,-0.00019078,2.3167e-11,0,0.00011807,-5.8167e-05,-7.7591e+07,7.0376,0,4.6184e+07,-5.2901,11733,12578,1,12578,1,0.0003111,5.994e-10,0,0.0003838,3.584e-05,1.0827e+08,193.41,0,1.404e+08,11.605,12577,485.01,0,485.01,0,0.00028964,3.3773e-10,0,0.00015108,5.4261e-05,1.0728e+08,107.09,0,5.3849e+07,10.246,485.01,1
1560,1.91,12156,1,12156,1,6.048e-05,3.2288e-10,0,0.00025559,-1.1219e-05,1.5107e+07,102.62,0,9.4464e+07,3.0309,12155,12992,1,12992,1,0.0005456,1.0109e-09,0,0.0005456,7.9667e-05,1.8647e+08,309.09,0,1.8647e+08,29.44,12991,12156,1,12156,1,6.048e-05,2.685e-10,0,0.00025226,-1.1199e-05,2.1971e+07,86.143,0,9.4831e+07,3.7033,12155,11317,1,11317,1,-0.00042464,-1.6642e-10,0,2.2658e-06,-0.00010212,-1.7271e+08,-53.507,0,6.5924e+05,-24.471,11316,11734,1,11734,1,-0.00019178,6.6697e-11,0,0.00011869,-5.8473e-05,-7.8e+07,20.822,0,4.6428e+07,-6.5436,11733,12578,1,12578,1,0.00031274,5.5706e-10,0,0.00038583,3.6029e-05,1.0884e+08,177.79,0,1.4114e+08,10.989,12577,485.01,0,485.01,0,0.00029116,3.005e-10,0,0.00015187,5.4547e-05,1.0785e+08,94.938,0,5.4132e+07,11.28,485.01,1
1560,1.92,12156,1,12156,1,6.0797e-05,3.0746e-11,0,0.00025693,-1.1278e-05,1.5186e+07,9.7719,0,9.4958e+07,5.437,12155,12992,1,12992,1,0.00054845,6.5557e-10,0,0.00054845,8.0084e-05,1.8744e+08,205.68,0,1.8744e+08,37.483,12991,12156,1,12156,1,6.0797e-05,-2.1825e-11,0,0.00025358,-1.1258e-05,2.2086e+07,-6.5537,0,9.5327e+07,2.7721,12155,11317,1,11317,1,-0.00042686,-2.9216e-10,0,2.2778e-06,-0.00010266,-1.7362e+08,-93.924,0,6.6271e+05,-24.02,11316,11734,1,11734,1,-0.00019278,-1.2829e-10,0,0.00011932,-5.8779e-05,-7.8408e+07,-41.123,0,4.6671e+07,-2.1286,11733,12578,1,12578,1,0.00031438,1.3364e-10,0,0.00038785,3.6218e-05,1.0941e+08,43.657,0,1.4188e+08,11.486,12577,485.01,0,485.01,0,0.00029269,2.1223e-10,0,0.00015267,5.4832e-05,1.0841e+08,67.51,0,5.4416e+07,11.498,485.01,1
1560,1.93,12156,1,12156,1,6.1113e-05,1.4306e-10,0,0.00025827,-1.1336e-05,1.5265e+07,45.476,0,9.5453e+07,0.70949,12155,12992,1,12992,1,0.00055131,5.7329e-10,0,0.00055131,8.0501e-05,1.8842e+08,178.64,0,1.8842e+08,13.44,12991,12156,1,12156,1,6.1113e-05,1.1555e-10,0,0.0002549,-1.1317e-05,2.2201e+07,35.385,0,9.5824e+07,0.50231,12155,11317,1,11317,1,-0.00042908,-2.8031e-10,0,2.2897e-06,-0.00010319,-1.7452e+08,-90.122,0,6.6617e+05,-20.739,11316,11734,1,11734,1,-0.00019379,-2.7815e-11,0,0.00011994,-5.9085e-05,-7.8816e+07,-8.1943,0,4.6914e+07,-4.2223,11733,12578,1,12578,1,0.00031601,3.2403e-10,0,0.00038987,3.6406e-05,1.0998e+08,101.04,0,1.4262e+08,6.2918,12577,485.01,0,485.01,0,0.00029421,2.1148e-10,0,0.00015346,5.5118e-05,1.0898e+08,67.183,0,5.4699e+07,7.1001,485.01,1
1560,1.94,12156,1,12156,1,6.1429e-05,1.9598e-10,0,0.00025961,-1.1395e-05,1.5344e+07,62.198,0,9.5947e+07,11.039,12155,12992,1,12992,1,0.00055417,1.2227e-09,0,0.00055417,8.0918e-05,1.894e+08,378.6,0,1.894e+08,56.814,12991,12156,1,12156,1,6.143e-05,9.6753e-11,0,0.00025622,-1.1375e-05,2.2316e+07,30.836,0,9.632e+07,10.022,12155,11317,1,11317,1,-0.00043131,-5.8657e-10,0,2.3014e-06,-0.00010372,-1.7543e+08,-188.55,0,6.6959e+05,-19.938,11316,11734,1,11734,1,-0.00019479,-9.6867e-11,0,0.00012056,-5.9391e-05,-7.9224e+07,-29.772,0,4.7157e+07,-2.151,11733,12578,1,12578,1,0.00031765,4.7432e-10,0,0.00039188,3.6595e-05,1.1055e+08,152.93,0,1.4336e+08,19.472,12577,485.01,0,485.01,0,0.00029573,4.15e-10,0,0.00015426,5.5403e-05,1.0954e+08,131.72,0,5.4982e+07,16.42,485.01,1
1560,1.95,12156,1,12156,1,6.1746e-05,1.6208e-10,0,0.00026095,-1.1454e-05,1.5423e+07,51.586,0,9.6442e+07,1.6766,12155,12992,1,12992,1,0.00055702,7.2365e-10,0,0.00055702,8.1335e-05,1.9037e+08,225.88,0,1.9037e+08,21.543,12991,12156,1,12156,1,6.1746e-05,1.2741e-10,0,0.00025754,-1.1434e-05,2.2431e+07,40.864,0,9.6816e+07,1.0109,12155,11317,1,11317,1,-0.00043353,-2.3893e-10,0,2.3134e-06,-0.00010426,-1.7633e+08,-76.809,0,6.7308e+05,-20.907,11316,11734,1,11734,1,-0.0001958,-8.9652e-12,0,0.00012118,-5.9697e-05,-7.9633e+07,-2.6268,0,4.74e+07,-3.9,11733,12578,1,12578,1,0.00031929,3.0751e-10,0,0.0003939,3.6783e-05,1.1112e+08,97.321,0,1.441e+08,5.4208,12577,485.01,0,485.01,0,0.00029726,2.1064e-10,0,0.00015505,5.5689e-05,1.1011e+08,67.01,0,5.5266e+07,7.5907,485.01,1
1560,1.96,12156,1,12156,1,6.2063e-05,5.7634e-11,0,0.00026228,-1.1512e-05,1.5502e+07,18.209,0,9.6936e+07,8.3149,12155,12992,1,12992,1,0.00055988,1.1069e-09,0,0.00055988,8.1752e-05,1.9135e+08,342.76,0,1.9135e+08,45.302,12991,12156,1,12156,1,6.2063e-05,1.1703e-12,0,0.00025886,-1.1493e-05,2.2546e+07,0.36778,0,9.7313e+07,7.8956,12155,11317,1,11317,1,-0.00043575,-7.333e-10,0,2.3252e-06,-0.00010479,-1.7723e+08,-235.72,0,6.7651e+05,-24.949,11316,11734,1,11734,1,-0.0001968,-2.2271e-10,0,0.0001218,-6.0003e-05,-8.0041e+07,-69.582,0,4.7643e+07,-3.2518,11733,12578,1,12578,1,0.00032092,3.1114e-10,0,0.00039592,3.6972e-05,1.1169e+08,97.228,0,1.4484e+08,17.685,12577,485.01,0,485.01,0,0.00029878,4.0504e-10,0,0.00015585,5.5974e-05,1.1067e+08,128.59,0,5.5549e+07,14.242,485.01,1
1560,1.97,12156,1,12156,1,6.238e-05,1.3765e-10,0,0.00026362,-1.1571e-05,1.5582e+07,43.845,0,9.7431e+07,3.2586,12155,12992,1,12992,1,0.00056274,8.488e-10,0,0.00056274,8.217e-05,1.9233e+08,267.84,0,1.9233e+08,38.735,12991,12156,1,12156,1,6.238e-05,6.0837e-11,0,0.00026019,-1.1551e-05,2.2662e+07,19.077,0,9.781e+07,3.8102,12155,11317,1,11317,1,-0.00043798,-4.2947e-10,0,2.3371e-06,-0.00010533,-1.7814e+08,-138.06,0,6.7997e+05,-28.422,11316,11734,1,11734,1,-0.0001978,-6.5974e-11,0,0.00012242,-6.031e-05,-8.045e+07,-20.991,0,4.7886e+07,-5.0642,11733,12578,1,12578,1,0.00032256,3.2381e-10,0,0.00039795,3.7161e-05,1.1226e+08,104.81,0,1.4558e+08,10.135,12577,485.01,0,485.01,0,0.00030031,2.9042e-10,0,0.00015664,5.626e-05,1.1124e+08,92.336,0,5.5833e+07,11.689,485.01,1
1560,1.98,12156,1,12156,1,6.2696e-05,1.3621e-10,0,0.00026496,-1.163e-05,1.5661e+07,43.398,0,9.7926e+07,5.0968,12155,12992,1,12992,1,0.00056559,9.5548e-10,0,0.00056559,8.2587e-05,1.933e+08,298.33,0,1.933e+08,42.207,12991,12156,1,12156,1,6.2696e-05,4.5727e-11,0,0.00026151,-1.161e-05,2.2777e+07,13.956,0,9.8306e+07,5.1159,12155,11317,1,11317,1,-0.0004402,-4.8231e-10,0,2.349e-06,-0.00010586,-1.7904e+08,-155.05,0,6.8345e+05,-31.652,11316,11734,1,11734,1,-0.00019881,-1.1154e-10,0,0.00012304,-6.0616e-05,-8.0858e+07,-35.502,0,4.8129e+07,-4.8601,11733,12578,1,12578,1,0.0003242,3.6561e-10,0,0.00039997,3.7349e-05,1.1283e+08,117.06,0,1.4632e+08,13.799,12577,485.01,0,485.01,0,0.00030183,3.4944e-10,0,0.00015744,5.6546e-05,1.118e+08,111.01,0,5.6116e+07,14.16,485.01,1
1560,1.99,12156,1,12156,1,6.3013e-05,1.1954e-10,0,0.0002663,-1.1689e-05,1.574e+07,37.963,0,9.842e+07,1.2716,12155,12992,1,12992,1,0.00056845,3.9627e-10,0,0.00056845,8.3004e-05,1.9428e+08,122.84,0,1.9428e+08,12.058,12991,12156,1,12156,1,6.3013e-05,1.0903e-10,0,0.00026283,-1.1669e-05,2.2892e+07,35.009,0,9.8803e+07,0.81864,12155,11317,1,11317,1,-0.00044242,-5.6476e-11,0,2.3609e-06,-0.0001064,-1.7995e+08,-18.178,0,6.8692e+05,-19.688,11316,11734,1,11734,1,-0.00019981,4.4972e-11,0,0.00012367,-6.0922e-05,-8.1267e+07,14.219,0,4.8372e+07,-0.49363,11733,12578,1,12578,1,0.00032584,1.8018e-10,0,0.00040199,3.7538e-05,1.134e+08,57.516,0,1.4705e+08,3.5337,12577,485.01,0,485.01,0,0.00030336,9.1879e-11,0,0.00015824,5.6831e-05,1.1236e+08,29.16,0,5.64e+07,4.3231,485.01,1
1560,2,12156,1,12156,1,6.333e-05,1.4691e-10,0,0.00026764,-1.1747e-05,1.5819e+07,46.768,0,9.8915e+07,-0.45083,12155,12992,1,12992,1,0.00057131,9.24e-10,0,0.00057131,8.3421e-05,1.9525e+08,289.34,0,1.9525e+08,15.493,12991,12156,1,12156,1,6.333e-05,6.4854e-11,0,0.00026415,-1.1727e-05,2.3007e+07,20.841,0,9.9299e+07,0.72759,12155,11317,1,11317,1,-0.00044465,-4.047e-10,0,2.3727e-06,-0.00010693,-1.8085e+08,-130.09,0,6.9034e+05,-29.799,11316,11734,1,11734,1,-0.00020082,-6.5219e-11,0,0.00012429,-6.1228e-05,-8.1675e+07,-20.246,0,4.8615e+07,-6.6692,11733,12578,1,12578,1,0.00032748,3.35e-10,0,0.00040401,3.7726e-05,1.1397e+08,108.68,0,1.4779e+08,7.6343,12577,485.01,0,485.01,0,0.00030488,2.9875e-10,0,0.00015903,5.7117e-05,1.1293e+08,94.886,0,5.6683e+07,9.6985,485.01,1
1560,2.01,12156,1,12156,1,6.3645e-05,-6.5416e-10,0,0.00026897,-1.1806e-05,1.5898e+07,-208.59,0,9.9406e+07,34.432,12155,12992,1,12992,1,0.00057415,1.3788e-09,0,0.00057415,8.3836e-05,1.9623e+08,441.97,0,1.9623e+08,1070.5,12991,12156,1,12156,1,6.3645e-05,-4.0545e-10,0,0.00026546,-1.1786e-05,2.3121e+07,-130.62,0,9.9793e+07,15.438,12155,11317,1,11317,1,-0.00044686,-3.1955e-09,0,2.3847e-06,-0.00010747,-1.8175e+08,-1027.6,0,6.9394e+05,-88.965,11316,11734,1,11734,1,-0.00020181,-1.1472e-09,0,0.0001249,-6.1532e-05,-8.208e+07,-370.57,0,4.8857e+07,-4.489,11733,12578,1,12578,1,0.0003291,-9.3797e-12,0,0.00040601,3.7914e-05,1.1453e+08,-2.9949,0,1.4853e+08,38.552,12577,485.01,0,485.01,0,0.0003064,8.3246e-10,0,0.00015982,5.7401e-05,1.1349e+08,264.05,0,5.6965e+07,118.52,485.01,1
1560,2.02,12156,1,12156,1,6.3957e-05,-2.8041e-09,0,0.00027029,-1.1864e-05,1.5976e+07,-894.15,0,9.9894e+07,18.412,12155,12992,1,12992,1,0.00057699,1.0819e-09,0,0.00057699,8.4251e-05,1.972e+08,311.44,0,1.972e+08,1178.6,12991,12156,1,12156,1,6.3957e-05,-2.8754e-09,0,0.00026676,-1.1843e-05,2.3235e+07,-913.55,0,1.0028e+08,11.076,12155,11317,1,11317,1,-0.00044907,-6.4075e-09,0,2.3965e-06,-0.000108,-1.8265e+08,-2015.9,0,6.973e+05,-272.28,11316,11734,1,11734,1,-0.0002028,-4.4012e-09,0,0.00012552,-6.1834e-05,-8.2483e+07,-1403.7,0,4.9096e+07,-50.58,11733,12578,1,12578,1,0.00033072,-1.1837e-09,0,0.00040801,3.81e-05,1.151e+08,-385.43,0,1.4926e+08,64.535,12577,485.01,0,485.01,0,0.0003079,1.914e-09,0,0.0001606,5.7683e-05,1.1405e+08,606.89,0,5.7244e+07,131.76,485.01,1
1560,2.03,12156,1,12156,1,6.4275e-05,-2.2668e-09,0,0.00027163,-1.1923e-05,1.6055e+07,-722.55,0,1.0039e+08,23.72,12155,12992,1,12992,1,0.00057986,1.1026e-09,0,0.00057986,8.4669e-05,1.9817e+08,317.4,0,1.9817e+08,972.92,12991,12156,1,12156,1,6.4275e-05,-2.0847e-09,0,0.00026809,-1.1902e-05,2.335e+07,-667.05,0,1.0078e+08,5.4707,12155,11317,1,11317,1,-0.0004513,-6.2609e-09,0,2.4085e-06,-0.00010853,-1.8356e+08,-2012.3,0,7.0084e+05,-147.19,11316,11734,1,11734,1,-0.00020381,-3.6378e-09,0,0.00012614,-6.2142e-05,-8.2894e+07,-1156.8,0,4.934e+07,-43.641,11733,12578,1,12578,1,0.00033236,-7.7504e-10,0,0.00041003,3.829e-05,1.1567e+08,-239.16,0,1.5e+08,53.31,12577,485.01,0,485.01,0,0.00030943,1.7858e-09,0,0.0001614,5.7969e-05,1.1461e+08,566.52,0,5.7529e+07,141.2,485.01,1
1560,2.04,12156,1,12156,1,6.459e-05,-1.3115e-09,0,0.00027296,-1.1981e-05,1.6134e+07,-417.86,0,1.0088e+08,32.696,12155,12992,1,12992,1,0.00058269,3.3578e-09,0,0.00058269,8.5083e-05,1.9914e+08,1078.1,0,1.9914e+08,1570.4,12991,12156,1,12156,1,6.4591e-05,-9.0139e-10,0,0.0002694,-1.1961e-05,2.3465e+07,-282.36,0,1.0128e+08,8.8843,12155,11317,1,11317,1,-0.0004535,-6.3113e-09,0,2.4206e-06,-0.00010906,-1.8446e+08,-2023.1,0,7.0438e+05,-121.08,11316,11734,1,11734,1,-0.00020481,-2.856e-09,0,0.00012676,-6.2446e-05,-8.3299e+07,-907.3,0,4.9582e+07,-51.002,11733,12578,1,12578,1,0.00033399,3.099e-10,0,0.00041204,3.8477e-05,1.1623e+08,97.952,0,1.5073e+08,66.661,12577,485.01,0,485.01,0,0.00031095,2.1458e-09,0,0.00016219,5.8253e-05,1.1518e+08,682.09,0,5.781e+07,174.55,485.01,1
1560,2.05,12156,1,12156,1,6.491e-05,-2.6029e-09,0,0.00027431,-1.2041e-05,1.6214e+07,-830.14,0,1.0138e+08,12.006,12155,12992,1,12992,1,0.00058558,1.0608e-09,0,0.00058558,8.5505e-05,2.0013e+08,305.36,0,2.0013e+08,1543.6,12991,12156,1,12156,1,6.491e-05,-2.783e-09,0,0.00027074,-1.202e-05,2.3581e+07,-890.51,0,1.0178e+08,2.562,12155,11317,1,11317,1,-0.00045575,-5.5044e-09,0,2.4327e-06,-0.0001096,-1.8537e+08,-1704.3,0,7.079e+05,-195.38,11316,11734,1,11734,1,-0.00020582,-3.9402e-09,0,0.00012739,-6.2755e-05,-8.3712e+07,-1261.3,0,4.9827e+07,-50.399,11733,12578,1,12578,1,0.00033564,-1.382e-09,0,0.00041408,3.8668e-05,1.1681e+08,-425.84,0,1.5148e+08,47.54,12577,485.01,0,485.01,0,0.00031249,1.6097e-09,0,0.000163,5.8541e-05,1.1575e+08,510.31,0,5.8096e+07,140.6,485.01,1
1560,2.06,12156,1,12156,1,6.5226e-05,-2.1076e-09,0,0.00027565,-1.2099e-05,1.6293e+07,-671.93,0,1.0187e+08,7.13,12155,12992,1,12992,1,0.00058843,1.3278e-09,0,0.00058843,8.5921e-05,2.011e+08,420.78,0,2.011e+08,1224.7,12991,12156,1,12156,1,6.5227e-05,-1.6429e-09,0,0.00027205,-1.2079e-05,2.3696e+07,-519.38,0,1.0227e+08,-4.0904,12155,11317,1,11317,1,-0.00045797,-6.9135e-09,0,2.4449e-06,-0.00011014,-1.8627e+08,-2191.4,0,7.1148e+05,-202,11316,11734,1,11734,1,-0.00020682,-3.6076e-09,0,0.00012801,-6.3061e-05,-8.4118e+07,-1152.2,0,5.0069e+07,-52.612,11733,12578,1,12578,1,0.00033728,-3.7357e-10,0,0.00041609,3.8856e-05,1.1738e+08,-118.9,0,1.5221e+08,45.245,12577,485.01,0,485.01,0,0.00031401,2.0782e-09,0,0.00016379,5.8826e-05,1.1631e+08,659.58,0,5.8379e+07,129.53,485.01,1
1560,2.07,12156,1,12156,1,6.5541e-05,-3.7733e-09,0,0.00027698,-1.2158e-05,1.6371e+07,-1202.3,0,1.0237e+08,20.06,12155,12992,1,12992,1,0.00059129,1.9633e-09,0,0.00059129,8.6338e-05,2.0207e+08,565.16,0,2.0207e+08,1117.7,12991,12156,1,12156,1,6.5542e-05,-3.1141e-09,0,0.00027337,-1.2137e-05,2.381e+07,-978.4,0,1.0277e+08,-0.89208,12155,11317,1,11317,1,-0.00046019,-1.1404e-08,0,2.4568e-06,-0.00011067,-1.8718e+08,-3555.7,0,7.15e+05,-262.42,11316,11734,1,11734,1,-0.00020782,-6.4187e-09,0,0.00012862,-6.3365e-05,-8.4524e+07,-2048.4,0,5.0311e+07,-91.903,11733,12578,1,12578,1,0.0003389,-8.4843e-10,0,0.0004181,3.9043e-05,1.1794e+08,-272,0,1.5295e+08,97.089,12577,485.01,0,485.01,0,0.00031552,3.4311e-09,0,0.00016458,5.911e-05,1.1687e+08,1089.7,0,5.8661e+07,175.05,485.01,1
1560,2.08,12156,1,12156,1,6.5861e-05,-1.5184e-09,0,0.00027833,-1.2217e-05,1.6451e+07,-483.6,0,1.0287e+08,-0.81971,12155,12992,1,12992,1,0.00059414,7.8583e-10,0,0.00059414,8.6755e-05,2.0305e+08,252.08,0,2.0305e+08,277.86,12991,12156,1,12156,1,6.5861e-05,-1.1882e-09,0,0.0002747,-1.2196e-05,2.3926e+07,-376.25,0,1.0327e+08,-1.2823,12155,11317,1,11317,1,-0.00046242,-4.896e-09,0,2.4687e-06,-0.00011121,-1.8808e+08,-1573.6,0,7.1838e+05,-121.21,11316,11734,1,11734,1,-0.00020884,-2.4749e-09,0,0.00012925,-6.3674e-05,-8.4937e+07,-779.51,0,5.0556e+07,-32.719,11733,12578,1,12578,1,0.00034056,-4.0011e-10,0,0.00042014,3.9233e-05,1.1852e+08,-127.91,0,1.537e+08,27.329,12577,485.01,0,485.01,0,0.00031706,1.3806e-09,0,0.00016538,5.9398e-05,1.1744e+08,438.7,0,5.8946e+07,50.516,485.01,1
1560,2.09,12156,1,12156,1,6.618e-05,-1.9539e-09,0,0.00027968,-1.2276e-05,1.653e+07,-622.3,0,1.0336e+08,6.8221,12155,12992,1,12992,1,0.00059702,4.7147e-10,0,0.00059702,8.7175e-05,2.0403e+08,135.71,0,2.0403e+08,741.93,12991,12156,1,12156,1,6.6179e-05,-2.1965e-09,0,0.00027603,-1.2255e-05,2.4042e+07,-705.45,0,1.0377e+08,3.7221,12155,11317,1,11317,1,-0.00046465,-3.6025e-09,0,2.4806e-06,-0.00011175,-1.8899e+08,-1158.1,0,7.2192e+05,-121.68,11316,11734,1,11734,1,-0.00020985,-2.7568e-09,0,0.00012988,-6.3982e-05,-8.5348e+07,-894.19,0,5.0801e+07,-21.66,11733,12578,1,12578,1,0.00034221,-1.2744e-09,0,0.00042218,3.9423e-05,1.1909e+08,-396.46,0,1.5444e+08,22.281,12577,485.01,0,485.01,0,0.0003186,9.9102e-10,0,0.00016618,5.9686e-05,1.1801e+08,315.47,0,5.9232e+07,69.236,485.01,1
1560,2.1,12156,1,12156,1,6.65e-05,-1.6894e-09,0,0.00028103,-1.2336e-05,1.661e+07,-538.3,0,1.0386e+08,0.54999,12155,12992,1,12992,1,0.0005999,3.2471e-10,0,0.0005999,8.7596e-05,2.0501e+08,93.462,0,2.0501e+08,583.16,12991,12156,1,12156,1,6.6499e-05,-1.6887e-09,0,0.00027736,-1.2314e-05,2.4158e+07,-534.84,0,1.0427e+08,0.017476,12155,11317,1,11317,1,-0.0004669,-3.7113e-09,0,2.4929e-06,-0.00011229,-1.899e+08,-1149.2,0,7.2547e+05,-179.93,11316,11734,1,11734,1,-0.00021086,-2.4761e-09,0,0.00013051,-6.4292e-05,-8.5761e+07,-795.33,0,5.1047e+07,-28.407,11733,12578,1,12578,1,0.00034386,-9.5315e-10,0,0.00042422,3.9614e-05,1.1967e+08,-304.89,0,1.5519e+08,21.109,12577,485.01,0,485.01,0,0.00032014,9.9447e-10,0,0.00016699,5.9975e-05,1.1858e+08,317.26,0,5.9518e+07,58.759,485.01,1
1560,2.11,12156,1,12156,1,6.6814e-05,-2.5077e-09,0,0.00028235,-1.2394e-05,1.6689e+07,-800.47,0,1.0435e+08,-17.17,12155,12992,1,12992,1,0.00060274,1.1383e-09,0,0.00060274,8.801e-05,2.0598e+08,327.67,0,2.0598e+08,1019.1,12991,12156,1,12156,1,6.6813e-05,-2.7027e-09,0,0.00027867,-1.2373e-05,2.4272e+07,-854.15,0,1.0476e+08,-14.522,12155,11317,1,11317,1,-0.00046911,-5.4842e-09,0,2.5053e-06,-0.00011282,-1.908e+08,-1762.2,0,7.2912e+05,-473.79,11316,11734,1,11734,1,-0.00021186,-3.7346e-09,0,0.00013112,-6.4595e-05,-8.6165e+07,-1205.7,0,5.1287e+07,-93.795,11733,12578,1,12578,1,0.00034548,-1.4362e-09,0,0.00042622,3.98e-05,1.2023e+08,-432.49,0,1.5592e+08,53.494,12577,485.01,0,485.01,0,0.00032164,1.5632e-09,0,0.00016777,6.0257e-05,1.1914e+08,495.59,0,5.9798e+07,135.52,485.01,1
1560,2.12,12156,1,12156,1,6.7126e-05,-1.0867e-09,0,0.00028368,-1.2452e-05,1.6767e+07,-346.47,0,1.0484e+08,15.382,12155,12992,1,12992,1,0.00060555,2.2818e-09,0,0.00060555,8.8421e-05,2.0694e+08,732.92,0,2.0694e+08,903.8,12991,12156,1,12156,1,6.7127e-05,-8.3984e-10,0,0.00027998,-1.243e-05,2.4386e+07,-265.07,0,1.0525e+08,5.7256,12155,11317,1,11317,1,-0.0004713,-4.4754e-09,0,2.5167e-06,-0.00011334,-1.9169e+08,-1430,0,7.324e+05,-228.87,11316,11734,1,11734,1,-0.00021285,-2.1581e-09,0,0.00013174,-6.4897e-05,-8.6568e+07,-677.02,0,5.1527e+07,-31.371,11733,12578,1,12578,1,0.0003471,7.933e-11,0,0.00042821,3.9987e-05,1.208e+08,23.55,0,1.5665e+08,47.955,12577,485.01,0,485.01,0,0.00032315,1.4725e-09,0,0.00016856,6.0539e-05,1.1969e+08,467.43,0,6.0078e+07,105.72,485.01,1
1560,2.13,12156,1,12156,1,6.7447e-05,-2.3956e-09,0,0.00028503,-1.2511e-05,1.6847e+07,-763.27,0,1.0534e+08,8.402,12155,12992,1,12992,1,0.00060845,6.9563e-10,0,0.00060845,8.8844e-05,2.0793e+08,200.23,0,2.0793e+08,875.83,12991,12156,1,12156,1,6.7447e-05,-2.5636e-09,0,0.00028131,-1.249e-05,2.4502e+07,-821.11,0,1.0575e+08,0.067054,12155,11317,1,11317,1,-0.00047355,-4.5418e-09,0,2.5289e-06,-0.00011389,-1.9261e+08,-1406.3,0,7.36e+05,-149.42,11316,11734,1,11734,1,-0.00021386,-3.5097e-09,0,0.00013236,-6.5207e-05,-8.6981e+07,-1119.8,0,5.1773e+07,-44.449,11733,12578,1,12578,1,0.00034876,-1.3869e-09,0,0.00043026,4.0178e-05,1.2137e+08,-439.87,0,1.574e+08,38.041,12577,485.01,0,485.01,0,0.00032469,1.3133e-09,0,0.00016936,6.0828e-05,1.2027e+08,417.35,0,6.0365e+07,108.59,485.01,1
1560,2.14,12156,1,12156,1,6.7762e-05,-6.4755e-10,0,0.00028636,-1.257e-05,1.6926e+07,-206.31,0,1.0583e+08,18.833,12155,12992,1,12992,1,0.00061128,1.5836e-09,0,0.00061128,8.9258e-05,2.089e+08,508.39,0,2.089e+08,930.75,12991,12156,1,12156,1,6.7762e-05,-4.5283e-10,0,0.00028263,-1.2548e-05,2.4617e+07,-144.12,0,1.0625e+08,5.7152,12155,11317,1,11317,1,-0.00047576,-3.0515e-09,0,2.5409e-06,-0.00011442,-1.9351e+08,-981.06,0,7.3951e+05,-74.984,11316,11734,1,11734,1,-0.00021486,-1.1626e-09,0,0.00013298,-6.5512e-05,-8.7388e+07,-372.58,0,5.2015e+07,-15.092,11733,12578,1,12578,1,0.00035039,-1.3369e-11,0,0.00043227,4.0365e-05,1.2194e+08,-4.3426,0,1.5813e+08,25.698,12577,485.01,0,485.01,0,0.00032621,8.172e-10,0,0.00017016,6.1113e-05,1.2083e+08,259.72,0,6.0647e+07,102.51,485.01,1
1560,2.15,12156,1,12156,1,6.8082e-05,-2.3219e-09,0,0.00028771,-1.2629e-05,1.7005e+07,-740.23,0,1.0633e+08,-12.25,12155,12992,1,12992,1,0.00061418,7.5046e-10,0,0.00061418,8.968e-05,2.0989e+08,216.02,0,2.0989e+08,165.58,12991,12156,1,12156,1,6.8082e-05,-2.5185e-09,0,0.00028396,-1.2607e-05,2.4733e+07,-806.48,0,1.0675e+08,-7.0208,12155,11317,1,11317,1,-0.00047801,-4.5386e-09,0,2.553e-06,-0.00011496,-1.9442e+08,-1459.1,0,7.4301e+05,-356.73,11316,11734,1,11734,1,-0.00021588,-3.3681e-09,0,0.00013361,-6.5821e-05,-8.78e+07,-1079.6,0,5.2261e+07,-46.137,11733,12578,1,12578,1,0.00035204,-1.3851e-09,0,0.00043431,4.0556e-05,1.2252e+08,-431.47,0,1.5888e+08,28.648,12577,485.01,0,485.01,0,0.00032775,1.2889e-09,0,0.00017096,6.1401e-05,1.214e+08,409.71,0,6.0933e+07,64.497,485.01,1
1560,2.16,12156,1,12156,1,6.8395e-05,-1.4609e-09,0,0.00028903,-1.2687e-05,1.7083e+07,-465.57,0,1.0682e+08,-1.0102,12155,12992,1,12992,1,0.00061699,2.1456e-09,0,0.00061699,9.0091e-05,2.1085e+08,689.03,0,2.1085e+08,454.95,12991,12156,1,12156,1,6.8395e-05,-1.1102e-09,0,0.00028526,-1.2665e-05,2.4847e+07,-353.32,0,1.0724e+08,-5.6641,12155,11317,1,11317,1,-0.0004802,-5.3467e-09,0,2.5651e-06,-0.00011548,-1.9531e+08,-1655.5,0,7.4655e+05,-130.2,11316,11734,1,11734,1,-0.00021686,-2.723e-09,0,0.00013422,-6.6123e-05,-8.8202e+07,-856.7,0,5.25e+07,-46.269,11733,12578,1,12578,1,0.00035365,-4.4109e-11,0,0.00043629,4.0742e-05,1.2308e+08,-13.159,0,1.596e+08,40.163,12577,485.01,0,485.01,0,0.00032925,1.7104e-09,0,0.00017174,6.1682e-05,1.2195e+08,543.54,0,6.1212e+07,69.977,485.01,1
1560,2.17,12156,1,12156,1,6.8715e-05,-1.3254e-09,0,0.00029038,-1.2746e-05,1.7163e+07,-422.24,0,1.0732e+08,3.3858,12155,12992,1,12992,1,0.00061987,4.2021e-10,0,0.00061987,9.0512e-05,2.1183e+08,120.95,0,2.1183e+08,588.89,12991,12156,1,12156,1,6.8715e-05,-1.3238e-09,0,0.0002866,-1.2724e-05,2.4963e+07,-425.29,0,1.0774e+08,0.50794,12155,11317,1,11317,1,-0.00048244,-3.136e-09,0,2.577e-06,-0.00011602,-1.9622e+08,-1007.8,0,7.5007e+05,-83.184,11316,11734,1,11734,1,-0.00021788,-1.9183e-09,0,0.00013485,-6.6432e-05,-8.8615e+07,-615.08,0,5.2746e+07,-20.866,11733,12578,1,12578,1,0.00035531,-7.2121e-10,0,0.00043834,4.0932e-05,1.2365e+08,-228.17,0,1.6035e+08,17.537,12577,485.01,0,485.01,0,0.00033079,8.0861e-10,0,0.00017255,6.1971e-05,1.2253e+08,257.18,0,6.1499e+07,51.36,485.01,1
1560,2.18,12156,1,12156,1,6.9028e-05,-1.5562e-09,0,0.00029171,-1.2804e-05,1.7242e+07,-495.81,0,1.0781e+08,10.632,12155,12992,1,12992,1,0.0006227,2.228e-09,0,0.0006227,9.0925e-05,2.1279e+08,689.92,0,2.1279e+08,895.86,12991,12156,1,12156,1,6.9028e-05,-1.2403e-09,0,0.0002879,-1.2783e-05,2.5077e+07,-388.48,0,1.0823e+08,-1.3458,12155,11317,1,11317,1,-0.00048464,-5.5865e-09,0,2.5891e-06,-0.00011655,-1.9712e+08,-1729.8,0,7.5355e+05,-387.27,11316,11734,1,11734,1,-0.00021887,-3.0036e-09,0,0.00013547,-6.6735e-05,-8.9018e+07,-959.49,0,5.2986e+07,-52.005,11733,12578,1,12578,1,0.00035693,8.5193e-12,0,0.00044033,4.1119e-05,1.2422e+08,2.595,0,1.6108e+08,62.504,12577,485.01,0,485.01,0,0.0003323,1.8928e-09,0,0.00017333,6.2253e-05,1.2308e+08,601.78,0,6.1779e+07,107.75,485.01,1
1560,2.19,12156,1,12156,1,6.9346e-05,-2.2957e-09,0,0.00029305,-1.2863e-05,1.7321e+07,-731.35,0,1.0831e+08,33.27,12155,12992,1,12992,1,0.00062557,8.1053e-10,0,0.00062557,9.1344e-05,2.1377e+08,233.29,0,2.1377e+08,1818.3,12991,12156,1,12156,1,6.9346e-05,-2.1704e-09,0,0.00028923,-1.2841e-05,2.5192e+07,-688.48,0,1.0873e+08,4.51,12155,11317,1,11317,1,-0.00048687,-5.8681e-09,0,2.601e-06,-0.00011709,-1.9803e+08,-1886.3,0,7.5716e+05,-124.27,11316,11734,1,11734,1,-0.00021988,-3.4297e-09,0,0.00013609,-6.7042e-05,-8.9428e+07,-1091.3,0,5.323e+07,-30.243,11733,12578,1,12578,1,0.00035857,-1.0751e-09,0,0.00044236,4.1308e-05,1.2479e+08,-347.21,0,1.6182e+08,43.303,12577,485.01,0,485.01,0,0.00033383,1.568e-09,0,0.00017413,6.254e-05,1.2365e+08,497.88,0,6.2063e+07,175.29,485.01,1
1560,2.2,12156,1,12156,1,6.9659e-05,-1.768e-09,0,0.00029437,-1.2922e-05,1.7399e+07,-562.81,0,1.0879e+08,40.641,12155,12992,1,12992,1,0.0006284,4.7782e-09,0,0.0006284,9.1757e-05,2.1474e+08,1535.2,0,2.1474e+08,1474.7,12991,12156,1,12156,1,6.966e-05,-1.2059e-09,0,0.00029054,-1.2899e-05,2.5306e+07,-389.42,0,1.0922e+08,9.8939,12155,11317,1,11317,1,-0.00048908,-8.954e-09,0,2.613e-06,-0.00011762,-1.9892e+08,-2877.9,0,7.6066e+05,-141.04,11316,11734,1,11734,1,-0.00022087,-3.9938e-09,0,0.0001367,-6.7345e-05,-8.9832e+07,-1273.8,0,5.347e+07,-66.21,11733,12578,1,12578,1,0.00036019,5.5049e-10,0,0.00044436,4.1495e-05,1.2535e+08,165.69,0,1.6255e+08,100.66,12577,485.01,0,485.01,0,0.00033534,3.1165e-09,0,0.00017492,6.2823e-05,1.2421e+08,990.76,0,6.2343e+07,177.07,485.01,1
1560,2.21,12156,1,12156,1,6.9976e-05,-1.8824e-09,0,0.00029571,-1.298e-05,1.7478e+07,-598.86,0,1.0929e+08,30.831,12155,12992,1,12992,1,0.00063126,4.1178e-09,0,0.00063126,9.2174e-05,2.1571e+08,1322.7,0,2.1571e+08,920.72,12991,12156,1,12156,1,6.9977e-05,-1.3735e-09,0,0.00029186,-1.2958e-05,2.5421e+07,-431.72,0,1.0972e+08,14.791,12155,11317,1,11317,1,-0.0004913,-8.4154e-09,0,2.6251e-06,-0.00011815,-1.9983e+08,-2605.5,0,7.6416e+05,-154.41,11316,11734,1,11734,1,-0.00022188,-4.1606e-09,0,0.00013733,-6.7651e-05,-9.024e+07,-1350.8,0,5.3713e+07,-55.053,11733,12578,1,12578,1,0.00036183,4.1778e-10,0,0.00044638,4.1683e-05,1.2592e+08,125.81,0,1.6329e+08,107.19,12577,485.01,0,485.01,0,0.00033686,3.0402e-09,0,0.00017571,6.3108e-05,1.2477e+08,966.55,0,6.2626e+07,118.89,485.01,1
1560,2.22,12156,1,12156,1,7.0298e-05,-7.1986e-10,0,0.00029707,-1.304e-05,1.7558e+07,-228.87,0,1.0979e+08,7.5108,12155,12992,1,12992,1,0.00063414,1.2876e-09,0,0.00063414,9.2594e-05,2.1669e+08,414.04,0,2.1669e+08,678.92,12991,12156,1,12156,1,7.0298e-05,-4.8317e-10,0,0.00029319,-1.3018e-05,2.5538e+07,-157.3,0,1.1022e+08,0.15095,12155,11317,1,11317,1,-0.00049354,-3.3806e-09,0,2.6378e-06,-0.00011869,-2.0074e+08,-1046.8,0,7.6787e+05,-259.37,11316,11734,1,11734,1,-0.00022289,-1.4931e-09,0,0.00013796,-6.7961e-05,-9.0654e+07,-473.43,0,5.3959e+07,-26.872,11733,12578,1,12578,1,0.00036349,1.1607e-10,0,0.00044842,4.1874e-05,1.265e+08,36.236,0,1.6404e+08,23.994,12577,485.01,0,485.01,0,0.00033841,1.0726e-09,0,0.00017652,6.3397e-05,1.2534e+08,341.23,0,6.2913e+07,67.363,485.01,1
1560,2.23,12156,1,12156,1,7.061e-05,-3.0138e-09,0,0.00029839,-1.3098e-05,1.7636e+07,-959.51,0,1.1028e+08,41.131,12155,12992,1,12992,1,0.00063698,4.3692e-09,0,0.00063698,9.3009e-05,2.1766e+08,1403,0,2.1766e+08,1469.9,12991,12156,1,12156,1,7.0611e-05,-2.5686e-09,0,0.0002945,-1.3076e-05,2.5652e+07,-808.21,0,1.1071e+08,6.4291,12155,11317,1,11317,1,-0.00049575,-1.0414e-08,0,2.65e-06,-0.00011923,-2.0164e+08,-3338.6,0,7.7155e+05,-240.19,11316,11734,1,11734,1,-0.00022388,-5.897e-09,0,0.00013857,-6.8263e-05,-9.1056e+07,-1857.3,0,5.4198e+07,-60.778,11733,12578,1,12578,1,0.0003651,-4.8628e-11,0,0.00045041,4.206e-05,1.2706e+08,-15.314,0,1.6477e+08,122.28,12577,485.01,0,485.01,0,0.00033991,3.6101e-09,0,0.0001773,6.3679e-05,1.259e+08,1147.6,0,6.3192e+07,165.84,485.01,1
1560,2.24,12156,1,12156,1,7.0928e-05,-2.3474e-09,0,0.00029973,-1.3157e-05,1.7715e+07,-747.27,0,1.1077e+08,43.994,12155,12992,1,12992,1,0.00063983,4.1492e-09,0,0.00063983,9.3426e-05,2.1864e+08,1332.7,0,2.1864e+08,1881.1,12991,12156,1,12156,1,7.0928e-05,-1.6316e-09,0,0.00029582,-1.3134e-05,2.5767e+07,-511.63,0,1.1121e+08,14.472,12155,11317,1,11317,1,-0.00049797,-1.0218e-08,0,2.6621e-06,-0.00011976,-2.0254e+08,-3232.4,0,7.7513e+05,-163.78,11316,11734,1,11734,1,-0.00022489,-4.8499e-09,0,0.00013919,-6.857e-05,-9.1464e+07,-1548.4,0,5.4441e+07,-71.153,11733,12578,1,12578,1,0.00036674,3.1685e-10,0,0.00045243,4.2249e-05,1.2763e+08,104.61,0,1.6551e+08,113.2,12577,485.01,0,485.01,0,0.00034143,3.4447e-09,0,0.0001781,6.3965e-05,1.2646e+08,1094.4,0,6.3476e+07,197.09,485.01,1
1560,2.25,12156,1,12156,1,7.125e-05,-1.8375e-10,0,0.00030109,-1.3217e-05,1.7796e+07,-58.541,0,1.1128e+08,11.492,12155,12992,1,12992,1,0.00064271,1.6619e-09,0,0.00064271,9.3846e-05,2.1962e+08,533.75,0,2.1962e+08,725,12991,12156,1,12156,1,7.125e-05,-1.4685e-10,0,0.00029716,-1.3194e-05,2.5884e+07,-46.916,0,1.1171e+08,1.8788,12155,11317,1,11317,1,-0.00050021,-1.8043e-09,0,2.6748e-06,-0.0001203,-2.0345e+08,-580.08,0,7.7878e+05,-51.596,11316,11734,1,11734,1,-0.00022591,-6.1338e-10,0,0.00013983,-6.8882e-05,-9.188e+07,-193.53,0,5.4689e+07,-11.779,11733,12578,1,12578,1,0.00036841,1.8968e-10,0,0.00045449,4.2441e-05,1.2821e+08,60.06,0,1.6626e+08,21.035,12577,485.01,0,485.01,0,0.00034299,6.1755e-10,0,0.00017891,6.4255e-05,1.2704e+08,196.62,0,6.3764e+07,62.269,485.01,1
1560,2.26,12156,1,12156,1,7.1563e-05,-2.4596e-09,0,0.00030241,-1.3275e-05,1.7874e+07,-783.42,0,1.1176e+08,50.718,12155,12992,1,12992,1,0.00064556,3.4786e-09,0,0.00064556,9.4262e-05,2.2059e+08,1116.7,0,2.2059e+08,1781.1,12991,12156,1,12156,1,7.1563e-05,-1.8343e-09,0,0.00029847,-1.3252e-05,2.5998e+07,-579.01,0,1.122e+08,16.964,12155,11317,1,11317,1,-0.00050243,-9.2759e-09,0,2.6867e-06,-0.00012083,-2.0435e+08,-2915.8,0,7.8227e+05,-164.69,11316,11734,1,11734,1,-0.0002269,-4.8563e-09,0,0.00014044,-6.9183e-05,-9.2282e+07,-1527,0,5.4928e+07,-58.121,11733,12578,1,12578,1,0.00037002,9.6142e-11,0,0.00045648,4.2627e-05,1.2877e+08,28.579,0,1.6699e+08,114.82,12577,485.01,0,485.01,0,0.00034449,3.1253e-09,0,0.00017969,6.4537e-05,1.276e+08,992.39,0,6.4043e+07,180.2,485.01,1
1560,2.27,12156,1,12156,1,7.1877e-05,-4.4417e-09,0,0.00030373,-1.3333e-05,1.7952e+07,-1414.1,0,1.1225e+08,61.438,12155,12992,1,12992,1,0.00064841,4.7585e-09,0,0.00064841,9.4678e-05,2.2156e+08,1527.7,0,2.2156e+08,1530.1,12991,12156,1,12156,1,7.1877e-05,-3.8291e-09,0,0.00029978,-1.331e-05,2.6112e+07,-1213.9,0,1.1269e+08,26.322,12155,11317,1,11317,1,-0.00050465,-1.3675e-08,0,2.6985e-06,-0.00012136,-2.0526e+08,-4362.1,0,7.8579e+05,-241.01,11316,11734,1,11734,1,-0.00022789,-8.0666e-09,0,0.00014105,-6.9487e-05,-9.2687e+07,-2572.5,0,5.5169e+07,-71.815,11733,12578,1,12578,1,0.00037164,-5.6618e-10,0,0.00045848,4.2814e-05,1.2934e+08,-178.93,0,1.6772e+08,164.8,12577,485.01,0,485.01,0,0.000346,4.4589e-09,0,0.00018048,6.482e-05,1.2816e+08,1416.8,0,6.4324e+07,194.3,485.01,1
1560,2.28,12156,1,12156,1,7.2193e-05,-1.7279e-09,0,0.00030507,-1.3391e-05,1.8031e+07,-549.97,0,1.1274e+08,45.084,12155,12992,1,12992,1,0.00065123,7.3013e-09,0,0.00065123,9.5089e-05,2.2253e+08,2310.1,0,2.2253e+08,1772.5,12991,12156,1,12156,1,7.2193e-05,-1.1937e-09,0,0.00030109,-1.3369e-05,2.6227e+07,-370.63,0,1.1319e+08,25.343,12155,11317,1,11317,1,-0.00050684,-1.118e-08,0,2.7111e-06,-0.00012189,-2.0615e+08,-3507.5,0,7.8948e+05,-219.39,11316,11734,1,11734,1,-0.00022889,-4.7166e-09,0,0.00014167,-6.9792e-05,-9.3093e+07,-1486.4,0,5.5411e+07,-90.882,11733,12578,1,12578,1,0.00037328,1.0649e-09,0,0.00046049,4.3001e-05,1.2991e+08,332.63,0,1.6846e+08,140.27,12577,485.01,0,485.01,0,0.00034752,4.1737e-09,0,0.00018127,6.5104e-05,1.2872e+08,1327.7,0,6.4606e+07,207.7,485.01,1
1560,2.29,12156,1,12156,1,7.2515e-05,-3.6964e-09,0,0.00030643,-1.3451e-05,1.8111e+07,-1176.9,0,1.1325e+08,24.424,12155,12992,1,12992,1,0.00065415,2.4373e-09,0,0.00065415,9.5515e-05,2.2352e+08,782.63,0,2.2352e+08,405.77,12991,12156,1,12156,1,7.2515e-05,-3.0327e-09,0,0.00030243,-1.3428e-05,2.6344e+07,-969.44,0,1.1369e+08,3.6202,12155,11317,1,11317,1,-0.00050911,-1.1609e-08,0,2.7237e-06,-0.00012244,-2.0707e+08,-3594.4,0,7.9317e+05,-232.97,11316,11734,1,11734,1,-0.00022991,-6.5672e-09,0,0.0001423,-7.0102e-05,-9.3507e+07,-2108.4,0,5.5657e+07,-76.173,11733,12578,1,12578,1,0.00037494,-5.901e-10,0,0.00046254,4.3193e-05,1.3049e+08,-179.87,0,1.6921e+08,111.09,12577,485.01,0,485.01,0,0.00034907,3.6532e-09,0,0.00018208,6.5394e-05,1.2929e+08,1160,0,6.4893e+07,129.76,485.01,1
1560,2.3,12156,1,12156,1,7.2836e-05,-8.2285e-10,0,0.00030778,-1.3511e-05,1.8191e+07,-262.3,0,1.1375e+08,1.4062,12155,12992,1,12992,1,0.00065701,4.0821e-10,0,0.00065701,9.5933e-05,2.245e+08,117.48,0,2.245e+08,533.86,12991,12156,1,12156,1,7.2836e-05,-9.2938e-10,0,0.00030377,-1.3488e-05,2.646e+07,-301.18,0,1.1419e+08,-2.8634,12155,11317,1,11317,1,-0.00051133,-2.2192e-09,0,2.7363e-06,-0.00012297,-2.0798e+08,-712.83,0,7.9684e+05,-350.51,11316,11734,1,11734,1,-0.00023093,-1.1971e-09,0,0.00014294,-7.0413e-05,-9.3922e+07,-388.81,0,5.5904e+07,-16.332,11733,12578,1,12578,1,0.0003766,-4.6976e-10,0,0.0004646,4.3384e-05,1.3106e+08,-151.5,0,1.6996e+08,11.518,12577,485.01,0,485.01,0,0.00035061,4.9753e-10,0,0.00018288,6.5684e-05,1.2986e+08,157.42,0,6.518e+07,54.71,485.01,1
1560,2.31,12156,1,12156,1,7.3151e-05,-2.0357e-09,0,0.00030911,-1.3569e-05,1.827e+07,-648.14,0,1.1424e+08,19.602,12155,12992,1,12992,1,0.00065986,9.2908e-10,0,0.00065986,9.635e-05,2.2547e+08,267.39,0,2.2547e+08,745.72,12991,12156,1,12156,1,7.3151e-05,-1.6329e-09,0,0.00030508,-1.3546e-05,2.6575e+07,-515.05,0,1.1469e+08,4.4571,12155,11317,1,11317,1,-0.00051356,-5.9209e-09,0,2.7484e-06,-0.00012351,-2.0888e+08,-1897.2,0,8.0043e+05,-141.3,11316,11734,1,11734,1,-0.00023193,-3.3252e-09,0,0.00014355,-7.0718e-05,-9.4328e+07,-1075.2,0,5.6145e+07,-36.111,11733,12578,1,12578,1,0.00037823,-5.9227e-10,0,0.0004666,4.3571e-05,1.3163e+08,-191.38,0,1.7069e+08,51.48,12577,485.01,0,485.01,0,0.00035213,1.7414e-09,0,0.00018367,6.5968e-05,1.3042e+08,552.59,0,6.5462e+07,92.609,485.01,1
1560,2.32,12156,1,12156,1,7.3467e-05,-3.8097e-10,0,0.00031044,-1.3628e-05,1.8349e+07,-121.17,0,1.1473e+08,28.743,12155,12992,1,12992,1,0.00066269,4.3896e-09,0,0.00066269,9.6763e-05,2.2644e+08,1410.5,0,2.2644e+08,1249.9,12991,12156,1,12156,1,7.3467e-05,-1.7467e-10,0,0.00030639,-1.3604e-05,2.6689e+07,-54.724,0,1.1518e+08,15.061,12155,11317,1,11317,1,-0.00051576,-4.9733e-09,0,2.7608e-06,-0.00012404,-2.0978e+08,-1598.6,0,8.0409e+05,-201.38,11316,11734,1,11734,1,-0.00023293,-1.7633e-09,0,0.00014417,-7.1022e-05,-9.4734e+07,-557.44,0,5.6387e+07,-34.636,11733,12578,1,12578,1,0.00037986,8.6905e-10,0,0.00046861,4.3759e-05,1.322e+08,276.43,0,1.7143e+08,73.465,12577,485.01,0,485.01,0,0.00035364,1.9628e-09,0,0.00018447,6.6252e-05,1.3098e+08,624.56,0,6.5743e+07,121.41,485.01,1
1560,2.33,12156,1,12156,1,7.378e-05,-1.5563e-09,0,0.00031176,-1.3686e-05,1.8427e+07,-495.12,0,1.1522e+08,33.757,12155,12992,1,12992,1,0.00066553,5.0619e-09,0,0.00066553,9.7176e-05,2.274e+08,1567.4,0,2.274e+08,1171.1,12991,12156,1,12156,1,7.378e-05,-1.0455e-09,0,0.0003077,-1.3662e-05,2.6803e+07,-338.75,0,1.1567e+08,17.662,12155,11317,1,11317,1,-0.00051796,-9.1902e-09,0,2.7723e-06,-0.00012457,-2.1067e+08,-2857.2,0,8.0754e+05,-155.64,11316,11734,1,11734,1,-0.00023392,-3.9295e-09,0,0.00014479,-7.1324e-05,-9.5136e+07,-1224.4,0,5.6626e+07,-59.235,11733,12578,1,12578,1,0.00038147,7.8707e-10,0,0.0004706,4.3945e-05,1.3276e+08,243.07,0,1.7215e+08,104.94,12577,485.01,0,485.01,0,0.00035515,3.2541e-09,0,0.00018525,6.6534e-05,1.3154e+08,1034.7,0,6.6023e+07,136.31,485.01,1
1560,2.34,12156,1,12156,1,7.4097e-05,-2.7537e-09,0,0.0003131,-1.3745e-05,1.8506e+07,-876.53,0,1.1571e+08,31.987,12155,12992,1,12992,1,0.0006684,2.9231e-09,0,0.0006684,9.7595e-05,2.2838e+08,905.2,0,2.2838e+08,1019,12991,12156,1,12156,1,7.4097e-05,-2.1902e-09,0,0.00030902,-1.3721e-05,2.6918e+07,-692.08,0,1.1617e+08,11.124,12155,11317,1,11317,1,-0.00052019,-9.6058e-09,0,2.7849e-06,-0.00012511,-2.1158e+08,-2974.2,0,8.1117e+05,-189.01,11316,11734,1,11734,1,-0.00023492,-5.3054e-09,0,0.00014541,-7.1631e-05,-9.5545e+07,-1660.1,0,5.6869e+07,-58.326,11733,12578,1,12578,1,0.00038311,-5.4524e-11,0,0.00047262,4.4134e-05,1.3333e+08,-15.732,0,1.7289e+08,109.28,12577,485.01,0,485.01,0,0.00035667,3.1968e-09,0,0.00018605,6.682e-05,1.3211e+08,1015.4,0,6.6306e+07,124.48,485.01,1
1560,2.35,12156,1,12156,1,7.4417e-05,-2.422e-09,0,0.00031445,-1.3804e-05,1.8585e+07,-771.48,0,1.1621e+08,22.079,12155,12992,1,12992,1,0.00067127,2.0106e-09,0,0.00067127,9.8014e-05,2.2936e+08,646.06,0,2.2936e+08,1289.9,12991,12156,1,12156,1,7.4417e-05,-1.9076e-09,0,0.00031035,-1.378e-05,2.7034e+07,-610.98,0,1.1667e+08,1.4072,12155,11317,1,11317,1,-0.00052243,-8.5713e-09,0,2.7975e-06,-0.00012564,-2.1249e+08,-2653.9,0,8.1487e+05,-204.46,11316,11734,1,11734,1,-0.00023593,-3.9833e-09,0,0.00014604,-7.1939e-05,-9.5956e+07,-1287.6,0,5.7114e+07,-48.916,11733,12578,1,12578,1,0.00038476,-5.2553e-10,0,0.00047466,4.4324e-05,1.339e+08,-160.98,0,1.7364e+08,78.091,12577,485.01,0,485.01,0,0.00035821,2.4179e-09,0,0.00018685,6.7107e-05,1.3268e+08,767.15,0,6.6592e+07,133.2,485.01,1
1560,2.36,12156,1,12156,1,7.4734e-05,-6.1457e-10,0,0.00031579,-1.3863e-05,1.8665e+07,-195.83,0,1.1671e+08,33.71,12155,12992,1,12992,1,0.00067411,5.0529e-09,0,0.00067411,9.8429e-05,2.3033e+08,1623.5,0,2.3033e+08,1500.2,12991,12156,1,12156,1,7.4734e-05,-3.3942e-10,0,0.00031167,-1.3839e-05,2.715e+07,-108.84,0,1.1716e+08,26.446,12155,11317,1,11317,1,-0.00052464,-5.8915e-09,0,2.8099e-06,-0.00012618,-2.1339e+08,-1893.6,0,8.1859e+05,-151.09,11316,11734,1,11734,1,-0.00023694,-2.0036e-09,0,0.00014666,-7.2246e-05,-9.6365e+07,-653.3,0,5.7357e+07,-34.807,11733,12578,1,12578,1,0.0003864,7.1219e-10,0,0.00047668,4.4512e-05,1.3448e+08,225.78,0,1.7438e+08,79.926,12577,485.01,0,485.01,0,0.00035973,2.1454e-09,0,0.00018764,6.7393e-05,1.3324e+08,682.14,0,6.6875e+07,133.98,485.01,1
1560,2.37,12156,1,12156,1,7.5051e-05,-4.3936e-09,0,0.00031713,-1.3922e-05,1.8744e+07,-1399.1,0,1.172e+08,32.231,12155,12992,1,12992,1,0.000677,1.8985e-09,0,0.000677,9.8851e-05,2.3132e+08,546.38,0,2.3132e+08,773.73,12991,12156,1,12156,1,7.5052e-05,-3.7349e-09,0,0.000313,-1.3898e-05,2.7265e+07,-1166.3,0,1.1766e+08,10.558,12155,11317,1,11317,1,-0.00052689,-1.2672e-08,0,2.8224e-06,-0.00012672,-2.143e+08,-4073.3,0,8.2227e+05,-251.53,11316,11734,1,11734,1,-0.00023794,-7.3074e-09,0,0.00014728,-7.2552e-05,-9.6772e+07,-2340.4,0,5.76e+07,-72.049,11733,12578,1,12578,1,0.00038804,-1.2173e-09,0,0.0004787,4.4701e-05,1.3504e+08,-386.82,0,1.7512e+08,115.47,12577,485.01,0,485.01,0,0.00036126,3.7767e-09,0,0.00018844,6.7679e-05,1.338e+08,1198.8,0,6.7158e+07,141.7,485.01,1
1560,2.38,12156,1,12156,1,7.5371e-05,-3.8509e-09,0,0.00031848,-1.3981e-05,1.8824e+07,-1226.6,0,1.177e+08,-0.083226,12155,12992,1,12992,1,0.00067987,1.2639e-09,0,0.00067987,9.927e-05,2.3229e+08,363.75,0,2.3229e+08,1166.6,12991,12156,1,12156,1,7.537e-05,-4.2045e-09,0,0.00031432,-1.3957e-05,2.7381e+07,-1354.8,0,1.1816e+08,-6.9175,12155,11317,1,11317,1,-0.00052912,-7.0281e-09,0,2.8347e-06,-0.00012725,-2.1521e+08,-2258.5,0,8.2593e+05,-302.94,11316,11734,1,11734,1,-0.00023895,-5.589e-09,0,0.00014791,-7.2861e-05,-9.7186e+07,-1784.9,0,5.7846e+07,-50.42,11733,12578,1,12578,1,0.0003897,-2.3416e-09,0,0.00048074,4.4891e-05,1.3562e+08,-739.86,0,1.7586e+08,53.679,12577,485.01,0,485.01,0,0.0003628,2.057e-09,0,0.00018924,6.7967e-05,1.3437e+08,653.1,0,6.7444e+07,115.38,485.01,1
1560,2.39,12156,1,12156,1,7.5693e-05,1.8837e-10,0,0.00031984,-1.4041e-05,1.8904e+07,59.435,0,1.182e+08,-0.74784,12155,12992,1,12992,1,0.00068274,1.2611e-09,0,0.00068274,9.9688e-05,2.3327e+08,405.35,0,2.3327e+08,663.63,12991,12156,1,12156,1,7.5693e-05,1.8651e-10,0,0.00031566,-1.4017e-05,2.7498e+07,58.2,0,1.1866e+08,-3.0468,12155,11317,1,11317,1,-0.00053135,-5.5855e-10,0,2.8476e-06,-0.00012779,-2.1612e+08,-179.66,0,8.2963e+05,-267.52,11316,11734,1,11734,1,-0.00023997,8.6763e-11,0,0.00014854,-7.3171e-05,-9.7599e+07,26.649,0,5.8092e+07,-10.576,11733,12578,1,12578,1,0.00039135,2.9468e-10,0,0.00048279,4.5082e-05,1.362e+08,94.075,0,1.7661e+08,6.5236,12577,485.01,0,485.01,0,0.00036434,1.8302e-10,0,0.00019005,6.8256e-05,1.3495e+08,58.543,0,6.7731e+07,64.088,485.01,1
1560,2.4,12156,1,12156,1,7.6004e-05,-1.4705e-09,0,0.00032115,-1.4098e-05,1.8981e+07,-468.31,0,1.1869e+08,17.764,12155,12992,1,12992,1,0.00068556,8.0119e-10,0,0.00068556,0.0001001,2.3423e+08,230.56,0,2.3423e+08,602.89,12991,12156,1,12156,1,7.6004e-05,-9.3288e-10,0,0.00031696,-1.4074e-05,2.7611e+07,-293.57,0,1.1915e+08,-3.8857,12155,11317,1,11317,1,-0.00053355,-5.5645e-09,0,2.8596e-06,-0.00012832,-2.1701e+08,-1789,0,8.3327e+05,-100.48,11316,11734,1,11734,1,-0.00024095,-2.3599e-09,0,0.00014915,-7.3472e-05,-9.7999e+07,-754.89,0,5.833e+07,-33.622,11733,12578,1,12578,1,0.00039296,-3.6264e-10,0,0.00048477,4.5267e-05,1.3676e+08,-118.26,0,1.7734e+08,41.187,12577,485.01,0,485.01,0,0.00036584,1.4814e-09,0,0.00019083,6.8537e-05,1.355e+08,470.39,0,6.8009e+07,95.529,485.01,1
1560,2.41,12156,1,12156,1,7.6324e-05,-1.1814e-09,0,0.0003225,-1.4158e-05,1.9061e+07,-376.22,0,1.1919e+08,22.911,12155,12992,1,12992,1,0.00068844,7.6801e-10,0,0.00068844,0.00010052,2.3521e+08,247.42,0,2.3521e+08,1007.4,12991,12156,1,12156,1,7.6324e-05,-8.2832e-10,0,0.00031829,-1.4134e-05,2.7727e+07,-263.78,0,1.1965e+08,6.1001,12155,11317,1,11317,1,-0.00053579,-4.4363e-09,0,2.872e-06,-0.00012886,-2.1792e+08,-1425.6,0,8.3688e+05,-263.83,11316,11734,1,11734,1,-0.00024197,-2.1233e-09,0,0.00014978,-7.3781e-05,-9.8411e+07,-666.94,0,5.8575e+07,-21.856,11733,12578,1,12578,1,0.00039461,-7.2961e-11,0,0.0004868,4.5457e-05,1.3733e+08,-24.055,0,1.7808e+08,45.36,12577,485.01,0,485.01,0,0.00036738,1.3228e-09,0,0.00019163,6.8825e-05,1.3607e+08,420.28,0,6.8294e+07,103.26,485.01,1
1560,2.42,12156,1,12156,1,7.6642e-05,4.1881e-10,0,0.00032384,-1.4217e-05,1.914e+07,133.34,0,1.1968e+08,5.7326,12155,12992,1,12992,1,0.00069129,2.033e-09,0,0.00069129,0.00010094,2.3619e+08,653.12,0,2.3619e+08,267.06,12991,12156,1,12156,1,7.6641e-05,4.9256e-10,0,0.00031961,-1.4192e-05,2.7843e+07,155.22,0,1.2015e+08,1.8264,12155,11317,1,11317,1,-0.000538,-1.8322e-09,0,2.8843e-06,-0.00012939,-2.1882e+08,-589.1,0,8.4048e+05,-213.67,11316,11734,1,11734,1,-0.00024297,-5.1466e-11,0,0.0001504,-7.4088e-05,-9.882e+07,-16.26,0,5.8818e+07,-22.031,11733,12578,1,12578,1,0.00039626,1.0399e-09,0,0.00048883,4.5646e-05,1.379e+08,334.23,0,1.7882e+08,27.182,12577,485.01,0,485.01,0,0.0003689,7.57e-10,0,0.00019243,6.9111e-05,1.3663e+08,241.38,0,6.8578e+07,41.227,485.01,1
1560,2.43,12156,1,12156,1,7.6954e-05,-8.3119e-10,0,0.00032516,-1.4275e-05,1.9218e+07,-264.34,0,1.2017e+08,14.05,12155,12992,1,12992,1,0.00069411,5.9096e-09,0,0.00069411,0.00010135,2.3715e+08,1899,0,2.3715e+08,190.73,12991,12156,1,12156,1,7.6954e-05,-5.3673e-10,0,0.00032092,-1.425e-05,2.7956e+07,-172.45,0,1.2064e+08,12.193,12155,11317,1,11317,1,-0.0005402,-7.297e-09,0,2.8965e-06,-0.00012992,-2.1972e+08,-2345.2,0,8.4404e+05,-401.18,11316,11734,1,11734,1,-0.00024396,-2.8644e-09,0,0.00015101,-7.4389e-05,-9.9221e+07,-898.93,0,5.9057e+07,-54.534,11733,12578,1,12578,1,0.00039787,1.0581e-09,0,0.00049081,4.5832e-05,1.3846e+08,328.45,0,1.7955e+08,100.12,12577,485.01,0,485.01,0,0.0003704,2.8436e-09,0,0.00019321,6.9392e-05,1.3719e+08,904.66,0,6.8856e+07,99.187,485.01,1
1560,2.44,12156,1,12156,1,7.7278e-05,-9.7741e-10,0,0.00032652,-1.4335e-05,1.9298e+07,-311.17,0,1.2067e+08,-15.662,12155,12992,1,12992,1,0.00069701,4.5832e-10,0,0.00069701,0.00010177,2.3813e+08,131.92,0,2.3813e+08,75.414,12991,12156,1,12156,1,7.7278e-05,-9.8525e-10,0,0.00032226,-1.431e-05,2.8074e+07,-307.8,0,1.2114e+08,1.6777,12155,11317,1,11317,1,-0.00054245,-2.7367e-09,0,2.911e-06,-0.00013046,-2.2063e+08,-879.77,0,8.4846e+05,-451.89,11316,11734,1,11734,1,-0.00024498,-1.5471e-09,0,0.00015164,-7.4701e-05,-9.9636e+07,-494.87,0,5.9304e+07,-29.12,11733,12578,1,12578,1,0.00039953,-3.7696e-10,0,0.00049287,4.6023e-05,1.3904e+08,-125.87,0,1.803e+08,21.141,12577,485.01,0,485.01,0,0.00037195,7.1533e-10,0,0.00019402,6.9682e-05,1.3776e+08,226.62,0,6.9143e+07,74.441,485.01,1
1560,2.45,12156,1,12156,1,7.7597e-05,-2.3574e-09,0,0.00032784,-1.4394e-05,1.9377e+07,-750,0,1.2116e+08,-3.7883,12155,12992,1,12992,1,0.00069986,7.6355e-10,0,0.00069986,0.00010218,2.3907e+08,219.7,0,2.3907e+08,157.68,12991,12156,1,12156,1,7.7597e-05,-2.3257e-09,0,0.00032357,-1.4369e-05,2.819e+07,-735.51,0,1.2164e+08,7.257,12155,11317,1,11317,1,-0.00054466,-5.6337e-09,0,2.9285e-06,-0.00013099,-2.2153e+08,-1810.9,0,8.5409e+05,-503.33,11316,11734,1,11734,1,-0.00024597,-3.4979e-09,0,0.00015227,-7.5005e-05,-1.0004e+08,-1123.3,0,5.9542e+07,-26.184,11733,12578,1,12578,1,0.00040116,-1.2685e-09,0,0.00049486,4.6209e-05,1.3961e+08,-388.18,0,1.8103e+08,39.054,12577,485.01,0,485.01,0,0.00037346,1.4741e-09,0,0.00019481,6.9965e-05,1.3832e+08,467.81,0,6.942e+07,70.622,485.01,1
1560,2.46,12156,1,12156,1,7.7922e-05,-1.0809e-09,0,0.00032919,-1.4454e-05,1.9456e+07,-344.72,0,1.2165e+08,0.049091,12155,12992,1,12992,1,0.00070274,1.1486e-09,0,0.00070274,0.0001026,2.4003e+08,368.97,0,2.4003e+08,104.25,12991,12156,1,12156,1,7.7922e-05,-8.4478e-10,0,0.0003249,-1.4429e-05,2.8308e+07,-265.14,0,1.2214e+08,12.492,12155,11317,1,11317,1,-0.00054689,-4.0334e-09,0,2.9454e-06,-0.00013153,-2.2244e+08,-1296.5,0,8.5948e+05,-476.01,11316,11734,1,11734,1,-0.00024697,-1.9579e-09,0,0.0001529,-7.5315e-05,-1.0045e+08,-621.42,0,5.9785e+07,-14.681,11733,12578,1,12578,1,0.00040282,-1.2339e-10,0,0.00049689,4.6398e-05,1.4019e+08,-37.711,0,1.8177e+08,40.666,12577,485.01,0,485.01,0,0.000375,1.1527e-09,0,0.00019561,7.0253e-05,1.3888e+08,365.94,0,6.9703e+07,78.305,485.01,1
1560,2.47,12156,1,12156,1,7.8244e-05,-8.3166e-10,0,0.00033053,-1.4514e-05,1.9535e+07,-265.22,0,1.2215e+08,-6.15,12155,12992,1,12992,1,0.00070559,1.1697e-09,0,0.00070559,0.00010302,2.4097e+08,375.76,0,2.4097e+08,77.698,12991,12156,1,12156,1,7.8244e-05,-5.1675e-10,0,0.00032622,-1.4489e-05,2.8425e+07,-163.81,0,1.2263e+08,0.16113,12155,11317,1,11317,1,-0.0005491,-3.8509e-09,0,2.9632e-06,-0.00013207,-2.2334e+08,-1237.7,0,8.6525e+05,-457.62,11316,11734,1,11734,1,-0.00024797,-1.5427e-09,0,0.00015352,-7.5622e-05,-1.0085e+08,-495.51,0,6.0025e+07,-24.622,11733,12578,1,12578,1,0.00040446,2.8814e-11,0,0.00049891,4.6585e-05,1.4076e+08,9.0113,0,1.8251e+08,31.428,12577,485.01,0,485.01,0,0.00037652,1.0517e-09,0,0.0001964,7.0538e-05,1.3944e+08,334.54,0,6.9982e+07,71.552,485.01,1
1560,2.48,12156,1,12156,1,7.8564e-05,-3.0895e-09,0,0.00033186,-1.4573e-05,1.9613e+07,-983.76,0,1.2264e+08,20.921,12155,12992,1,12992,1,0.00070846,1.4521e-09,0,0.00070846,0.00010344,2.4192e+08,417.66,0,2.4192e+08,453.12,12991,12156,1,12156,1,7.8564e-05,-2.7351e-09,0,0.00032753,-1.4549e-05,2.8541e+07,-870.81,0,1.2313e+08,29.745,12155,11317,1,11317,1,-0.00055133,-8.8241e-09,0,2.98e-06,-0.0001326,-2.2424e+08,-2837,0,8.7076e+05,-538.95,11316,11734,1,11734,1,-0.00024896,-5.0933e-09,0,0.00015415,-7.5927e-05,-1.0126e+08,-1629.3,0,6.0265e+07,-37.1,11733,12578,1,12578,1,0.00040609,-9.5007e-10,0,0.00050091,4.6772e-05,1.4133e+08,-293.76,0,1.8324e+08,97.821,12577,485.01,0,485.01,0,0.00037804,2.5293e-09,0,0.00019719,7.0822e-05,1.4e+08,803.65,0,7.0261e+07,103.81,485.01,1
1560,2.49,12156,1,12156,1,7.8889e-05,-1.965e-09,0,0.00033321,-1.4634e-05,1.9693e+07,-626.2,0,1.2313e+08,2.9737,12155,12992,1,12992,1,0.00071133,1.2968e-09,0,0.00071133,0.00010385,2.4287e+08,372.99,0,2.4287e+08,161.28,12991,12156,1,12156,1,7.8889e-05,-1.5706e-09,0,0.00032886,-1.4609e-05,2.8659e+07,-490.49,0,1.2363e+08,15.434,12155,11317,1,11317,1,-0.00055355,-6.544e-09,0,2.9979e-06,-0.00013314,-2.2515e+08,-2103.4,0,8.7642e+05,-553.14,11316,11734,1,11734,1,-0.00024997,-3.3546e-09,0,0.00015478,-7.6236e-05,-1.0167e+08,-1070.4,0,6.0507e+07,-26.077,11733,12578,1,12578,1,0.00040775,-3.9477e-10,0,0.00050293,4.6961e-05,1.419e+08,-124.32,0,1.8398e+08,54.03,12577,485.01,0,485.01,0,0.00037957,1.8888e-09,0,0.000198,7.1109e-05,1.4057e+08,599.74,0,7.0542e+07,94.594,485.01,1
1560,2.5,12156,1,12156,1,7.9211e-05,-1.1676e-09,0,0.00033455,-1.4693e-05,1.9772e+07,-372.48,0,1.2362e+08,7.4529,12155,12992,1,12992,1,0.00071418,3.0137e-09,0,0.00071418,0.00010427,2.4381e+08,968.35,0,2.4381e+08,469.8,12991,12156,1,12156,1,7.9211e-05,-8.5597e-10,0,0.00033018,-1.4668e-05,2.8776e+07,-269.7,0,1.2412e+08,9.8512,12155,11317,1,11317,1,-0.00055576,-5.3343e-09,0,3.0159e-06,-0.00013367,-2.2604e+08,-1714.4,0,8.8222e+05,-510.83,11316,11734,1,11734,1,-0.00025096,-2.4668e-09,0,0.0001554,-7.6543e-05,-1.0207e+08,-777.84,0,6.0747e+07,-40.005,11733,12578,1,12578,1,0.00040939,1.2423e-10,0,0.00050494,4.7148e-05,1.4247e+08,36.617,0,1.8472e+08,66.391,12577,485.01,0,485.01,0,0.00038109,1.7601e-09,0,0.00019879,7.1394e-05,1.4113e+08,559.83,0,7.0821e+07,81.914,485.01,1
1560,2.51,12156,1,12156,1,7.9534e-05,-2.1013e-09,0,0.00033589,-1.4753e-05,1.9851e+07,-669.38,0,1.2412e+08,1.1941,12155,12992,1,12992,1,0.00071707,1.8128e-09,0,0.00071707,0.00010469,2.4477e+08,582.38,0,2.4477e+08,170.59,12991,12156,1,12156,1,7.9535e-05,-1.6983e-09,0,0.00033151,-1.4728e-05,2.8894e+07,-533.37,0,1.2462e+08,4.9619,12155,11317,1,11317,1,-0.00055799,-7.0885e-09,0,3.0335e-06,-0.00013421,-2.2695e+08,-2278.3,0,8.8791e+05,-578.03,11316,11734,1,11734,1,-0.00025197,-3.8143e-09,0,0.00015603,-7.6851e-05,-1.0248e+08,-1207.9,0,6.0989e+07,-44.28,11733,12578,1,12578,1,0.00041103,-2.3072e-10,0,0.00050697,4.7336e-05,1.4305e+08,-72.86,0,1.8546e+08,69.896,12577,485.01,0,485.01,0,0.00038263,2.1475e-09,0,0.00019959,7.1681e-05,1.4169e+08,682.62,0,7.1102e+07,100.01,485.01,1
1560,2.52,12156,1,12156,1,7.9858e-05,-2.556e-09,0,0.00033723,-1.4813e-05,1.993e+07,-814.01,0,1.2461e+08,-8.6301,12155,12992,1,12992,1,0.00071993,1.1781e-09,0,0.00071993,0.0001051,2.4572e+08,338.7,0,2.4572e+08,193.16,12991,12156,1,12156,1,7.9857e-05,-2.7266e-09,0,0.00033283,-1.4788e-05,2.9011e+07,-855.84,0,1.2512e+08,11.448,12155,11317,1,11317,1,-0.00056021,-6.1664e-09,0,3.0515e-06,-0.00013475,-2.2786e+08,-1981.7,0,8.9375e+05,-507.08,11316,11734,1,11734,1,-0.00025297,-3.8534e-09,0,0.00015666,-7.7159e-05,-1.0289e+08,-1211.7,0,6.123e+07,-40.354,11733,12578,1,12578,1,0.00041268,-1.3338e-09,0,0.00050899,4.7524e-05,1.4362e+08,-419.03,0,1.8619e+08,45.84,12577,485.01,0,485.01,0,0.00038415,1.6638e-09,0,0.00020039,7.1967e-05,1.4225e+08,526.15,0,7.1383e+07,84.57,485.01,1
1560,2.53,12156,1,12156,1,8.0181e-05,-1.5688e-09,0,0.00033858,-1.4873e-05,2.0009e+07,-499.96,0,1.251e+08,5.9962,12155,12992,1,12992,1,0.0007228,8.733e-10,0,0.0007228,0.00010552,2.4666e+08,266.06,0,2.4666e+08,216.99,12991,12156,1,12156,1,8.0182e-05,-1.1961e-09,0,0.00033415,-1.4848e-05,2.9129e+07,-377.27,0,1.2561e+08,5.2868,12155,11317,1,11317,1,-0.00056243,-5.0153e-09,0,3.0694e-06,-0.00013529,-2.2876e+08,-1612.1,0,8.9954e+05,-509.77,11316,11734,1,11734,1,-0.00025397,-2.5922e-09,0,0.00015729,-7.7468e-05,-1.0329e+08,-834.37,0,6.1472e+07,-22.529,11733,12578,1,12578,1,0.00041433,-3.7856e-10,0,0.00051101,4.7712e-05,1.4419e+08,-121.13,0,1.8693e+08,40.157,12577,485.01,0,485.01,0,0.00038568,1.4374e-09,0,0.00020119,7.2254e-05,1.4281e+08,457.44,0,7.1663e+07,59.647,485.01,1
1560,2.54,12156,1,12156,1,8.0505e-05,-1.5977e-09,0,0.00033992,-1.4933e-05,2.0088e+07,-508.73,0,1.256e+08,-4.5618,12155,12992,1,12992,1,0.00072566,6.3933e-10,0,0.00072566,0.00010594,2.4761e+08,183.76,0,2.4761e+08,77.609,12991,12156,1,12156,1,8.0505e-05,-1.4806e-09,0,0.00033547,-1.4908e-05,2.9246e+07,-472.33,0,1.2611e+08,12.075,12155,11317,1,11317,1,-0.00056465,-4.7244e-09,0,3.0876e-06,-0.00013582,-2.2966e+08,-1518.3,0,9.054e+05,-532.88,11316,11734,1,11734,1,-0.00025497,-2.4495e-09,0,0.00015792,-7.7775e-05,-1.037e+08,-785.16,0,6.1712e+07,-12.096,11733,12578,1,12578,1,0.00041598,-6.2111e-10,0,0.00051302,4.79e-05,1.4477e+08,-196.14,0,1.8767e+08,30.198,12577,485.01,0,485.01,0,0.00038721,1.173e-09,0,0.00020198,7.254e-05,1.4338e+08,373.11,0,7.1943e+07,75.976,485.01,1
1560,2.55,12156,1,12156,1,8.0828e-05,-1.5969e-09,0,0.00034126,-1.4993e-05,2.0167e+07,-508.59,0,1.2609e+08,-15.808,12155,12992,1,12992,1,0.00072853,6.8807e-10,0,0.00072853,0.00010635,2.4856e+08,197.75,0,2.4856e+08,481.3,12991,12156,1,12156,1,8.0828e-05,-1.515e-09,0,0.0003368,-1.4968e-05,2.9364e+07,-476.48,0,1.2661e+08,5.1064,12155,11317,1,11317,1,-0.00056687,-5.1237e-09,0,3.1055e-06,-0.00013636,-2.3057e+08,-1646.4,0,9.1107e+05,-1052.2,11316,11734,1,11734,1,-0.00025597,-2.3279e-09,0,0.00015855,-7.8083e-05,-1.0411e+08,-748.48,0,6.1954e+07,-23.976,11733,12578,1,12578,1,0.00041763,-7.5384e-10,0,0.00051504,4.8088e-05,1.4534e+08,-233.11,0,1.8841e+08,29.589,12577,485.01,0,485.01,0,0.00038874,1.138e-09,0,0.00020278,7.2826e-05,1.4394e+08,361.5,0,7.2223e+07,133.49,485.01,1
1560,2.56,12156,1,12156,1,8.1151e-05,-2.2256e-09,0,0.0003426,-1.5053e-05,2.0246e+07,-708.62,0,1.2658e+08,5.2654,12155,12992,1,12992,1,0.0007314,1.0401e-09,0,0.0007314,0.00010677,2.495e+08,298.88,0,2.495e+08,157.38,12991,12156,1,12156,1,8.1151e-05,-1.9997e-09,0,0.00033812,-1.5028e-05,2.9481e+07,-633.48,0,1.271e+08,17.695,12155,11317,1,11317,1,-0.00056909,-6.3485e-09,0,3.1235e-06,-0.0001369,-2.3147e+08,-2040.6,0,9.1702e+05,-626.53,11316,11734,1,11734,1,-0.00025696,-3.6593e-09,0,0.00015918,-7.839e-05,-1.0451e+08,-1167.3,0,6.2194e+07,-24.533,11733,12578,1,12578,1,0.00041927,-7.0695e-10,0,0.00051705,4.8275e-05,1.4591e+08,-221.69,0,1.8914e+08,63.644,12577,485.01,0,485.01,0,0.00039026,1.7525e-09,0,0.00020358,7.3111e-05,1.445e+08,556.69,0,7.2502e+07,98.473,485.01,1
1560,2.57,12156,1,12156,1,8.1479e-05,-1.9188e-09,0,0.00034395,-1.5114e-05,2.0326e+07,-610.5,0,1.2708e+08,6.1204,12155,12992,1,12992,1,0.00073428,6.7527e-10,0,0.00073428,0.00010719,2.5045e+08,216.78,0,2.5045e+08,126.17,12991,12156,1,12156,1,8.1479e-05,-1.6972e-09,0,0.00033945,-1.5088e-05,2.96e+07,-544.16,0,1.276e+08,10.78,12155,11317,1,11317,1,-0.00057132,-5.607e-09,0,3.1442e-06,-0.00013743,-2.3238e+08,-1802.2,0,9.2386e+05,-566.33,11316,11734,1,11734,1,-0.00025797,-3.0365e-09,0,0.00015981,-7.8701e-05,-1.0492e+08,-966.55,0,6.2435e+07,-15.144,11733,12578,1,12578,1,0.00042093,-6.8388e-10,0,0.00051908,4.8464e-05,1.4649e+08,-220.46,0,1.8989e+08,47.635,12577,485.01,0,485.01,0,0.0003918,1.4632e-09,0,0.00020438,7.3399e-05,1.4506e+08,464.72,0,7.2783e+07,78.724,485.01,1
1560,2.58,12156,1,12156,1,8.1813e-05,-2.3746e-09,0,0.00034531,-1.5176e-05,2.0405e+07,-755.01,0,1.2757e+08,4.3655,12155,12992,1,12992,1,0.00073719,6.1363e-10,0,0.00073719,0.00010761,2.5138e+08,176.28,0,2.5138e+08,111.74,12991,12156,1,12156,1,8.1812e-05,-2.5684e-09,0,0.00034079,-1.515e-05,2.9721e+07,-821.7,0,1.2811e+08,9.816,12155,11317,1,11317,1,-0.00057356,-5.4978e-09,0,3.1694e-06,-0.00013798,-2.3329e+08,-1767.1,0,9.3245e+05,-610.3,11316,11734,1,11734,1,-0.00025897,-3.2826e-09,0,0.00016046,-7.9013e-05,-1.0533e+08,-1036.6,0,6.2677e+07,-11.958,11733,12578,1,12578,1,0.0004226,-1.4247e-09,0,0.00052112,4.8652e-05,1.4707e+08,-442.84,0,1.9063e+08,48.189,12577,485.01,0,485.01,0,0.00039334,1.3073e-09,0,0.00020519,7.3689e-05,1.4563e+08,413.91,0,7.3062e+07,88.713,485.01,1
1560,2.59,12156,1,12156,1,8.2142e-05,3.0397e-10,0,0.00034665,-1.5237e-05,2.0484e+07,95.971,0,1.2806e+08,-11.87,12155,12992,1,12992,1,0.00074004,1.3606e-09,0,0.00074004,0.00010802,2.523e+08,437.29,0,2.523e+08,31.561,12991,12156,1,12156,1,8.2142e-05,3.2178e-10,0,0.00034211,-1.5211e-05,2.9841e+07,101.7,0,1.286e+08,-3.1482,12155,11317,1,11317,1,-0.00057576,-6.6822e-10,0,3.1947e-06,-0.00013851,-2.3418e+08,-214.74,0,9.4108e+05,-548.03,11316,11734,1,11734,1,-0.00025996,1.7008e-10,0,0.00016109,-7.9322e-05,-1.0573e+08,52.109,0,6.2914e+07,-6.6678,11733,12578,1,12578,1,0.00042425,4.4982e-10,0,0.00052312,4.8838e-05,1.4765e+08,142.7,0,1.9136e+08,0.091461,12577,485.01,0,485.01,0,0.00039486,1.9708e-10,0,0.00020598,7.3974e-05,1.4618e+08,62.215,0,7.3337e+07,68.752,485.01,1
1560,2.6,12156,1,12156,1,8.2474e-05,1.6163e-09,0,0.000348,-1.5299e-05,2.0563e+07,513.7,0,1.2856e+08,-18.812,12155,12992,1,12992,1,0.00074294,3.3235e-09,0,0.00074294,0.00010844,2.5323e+08,1067.9,0,2.5323e+08,81.11,12991,12156,1,12156,1,8.2474e-05,1.7878e-09,0,0.00034344,-1.5273e-05,2.9962e+07,573.44,0,1.291e+08,-9.5998,12155,11317,1,11317,1,-0.00057799,-3.3439e-10,0,3.2199e-06,-0.00013905,-2.3509e+08,-96.001,0,9.497e+05,-588.64,11316,11734,1,11734,1,-0.00026096,1.0452e-09,0,0.00016173,-7.9632e-05,-1.0614e+08,338.52,0,6.3153e+07,-26.526,11733,12578,1,12578,1,0.00042591,2.2566e-09,0,0.00052514,4.9025e-05,1.4822e+08,727.75,0,1.921e+08,6.853,12577,485.01,0,485.01,0,0.0003964,8.0826e-10,0,0.00020679,7.4261e-05,1.4674e+08,256.03,0,7.3615e+07,79.68,485.01,1
1560,2.61,12156,1,12156,1,8.2802e-05,-2.1191e-09,0,0.00034932,-1.5359e-05,2.0641e+07,-673.27,0,1.2904e+08,15.694,12155,12992,1,12992,1,0.00074579,1.2114e-09,0,0.00074579,0.00010885,2.5415e+08,388.99,0,2.5415e+08,172.18,12991,12156,1,12156,1,8.2802e-05,-1.757e-09,0,0.00034475,-1.5333e-05,3.0081e+07,-551.55,0,1.2959e+08,14.629,12155,11317,1,11317,1,-0.00058018,-6.6891e-09,0,3.245e-06,-0.00013959,-2.3598e+08,-2149.7,0,9.5837e+05,-650.49,11316,11734,1,11734,1,-0.00026194,-3.4656e-09,0,0.00016236,-7.9938e-05,-1.0654e+08,-1101.2,0,6.3388e+07,-14.034,11733,12578,1,12578,1,0.00042754,-5.8762e-10,0,0.00052713,4.921e-05,1.4879e+08,-190.37,0,1.9283e+08,57.19,12577,485.01,0,485.01,0,0.00039791,1.826e-09,0,0.00020757,7.4544e-05,1.4729e+08,578.93,0,7.3887e+07,91.234,485.01,1
1560,2.62,12156,1,12156,1,8.3132e-05,1.118e-09,0,0.00035066,-1.5421e-05,2.072e+07,354.62,0,1.2953e+08,-7.1645,12155,12992,1,12992,1,0.00074866,5.3389e-09,0,0.00074866,0.00010926,2.5507e+08,1715.8,0,2.5507e+08,175.58,12991,12156,1,12156,1,8.3132e-05,7.1838e-10,0,0.00034607,-1.5395e-05,3.0201e+07,230.11,0,1.3009e+08,3.8375,12155,11317,1,11317,1,-0.00058239,-1.9643e-09,0,3.2706e-06,-0.00014012,-2.3688e+08,-631.11,0,9.6705e+05,-577.42,11316,11734,1,11734,1,-0.00026293,-1.978e-11,0,0.00016299,-8.0247e-05,-1.0694e+08,-6.4806,0,6.3626e+07,-37.185,11733,12578,1,12578,1,0.0004292,2.0499e-09,0,0.00052913,4.9396e-05,1.4937e+08,654.13,0,1.9356e+08,33.233,12577,485.01,0,485.01,0,0.00039943,1.4357e-09,0,0.00020837,7.483e-05,1.4785e+08,454.64,0,7.4163e+07,90.064,485.01,1
1560,2.63,12156,1,12156,1,8.3466e-05,-1.5134e-09,0,0.00035202,-1.5482e-05,2.0799e+07,-480.75,0,1.3002e+08,-2.0186,12155,12992,1,12992,1,0.00075155,3.9025e-10,0,0.00075155,0.00010968,2.56e+08,126.44,0,2.56e+08,78.345,12991,12156,1,12156,1,8.3466e-05,-1.333e-09,0,0.0003474,-1.5456e-05,3.0322e+07,-424.33,0,1.3059e+08,2.7877,12155,11317,1,11317,1,-0.00058462,-4.491e-09,0,3.2964e-06,-0.00014067,-2.3778e+08,-1443.3,0,9.7587e+05,-653.88,11316,11734,1,11734,1,-0.00026393,-2.2419e-09,0,0.00016363,-8.0559e-05,-1.0735e+08,-724.46,0,6.3866e+07,-13.871,11733,12578,1,12578,1,0.00043086,-6.6206e-10,0,0.00053116,4.9584e-05,1.4995e+08,-211.51,0,1.943e+08,28.825,12577,485.01,0,485.01,0,0.00040097,1.0441e-09,0,0.00020918,7.5118e-05,1.4841e+08,331.85,0,7.4441e+07,75.84,485.01,1
1560,2.64,12156,1,12156,1,8.3797e-05,1.8055e-10,0,0.00035336,-1.5544e-05,2.0878e+07,57.069,0,1.3052e+08,2.0514,12155,12992,1,12992,1,0.00075442,2.9206e-09,0,0.00075442,0.0001101,2.5692e+08,938.51,0,2.5692e+08,77.739,12991,12156,1,12156,1,8.3797e-05,1.5891e-10,0,0.00034872,-1.5518e-05,3.0442e+07,49.782,0,1.3109e+08,8.6832,12155,11317,1,11317,1,-0.00058683,-2.4236e-09,0,3.3223e-06,-0.0001412,-2.3868e+08,-778.82,0,9.8475e+05,-672.89,11316,11734,1,11734,1,-0.00026493,-4.3268e-10,0,0.00016427,-8.0869e-05,-1.0775e+08,-134.17,0,6.4104e+07,-9.071,11733,12578,1,12578,1,0.00043252,7.9865e-10,0,0.00053318,4.9771e-05,1.5052e+08,254.77,0,1.9504e+08,33.954,12577,485.01,0,485.01,0,0.0004025,9.125e-10,0,0.00020998,7.5404e-05,1.4897e+08,290.4,0,7.4717e+07,80.407,485.01,1
1560,2.65,12156,1,12156,1,8.4125e-05,-2.0179e-09,0,0.00035468,-1.5605e-05,2.0955e+07,-641.91,0,1.3099e+08,21.732,12155,12992,1,12992,1,0.00075727,5.9281e-09,0,0.00075727,0.00011051,2.5783e+08,1904.5,0,2.5783e+08,292.85,12991,12156,1,12156,1,8.4125e-05,-1.4215e-09,0,0.00035002,-1.5579e-05,3.0562e+07,-437.12,0,1.3158e+08,9.1302,12155,11317,1,11317,1,-0.00058901,-9.9567e-09,0,3.3506e-06,-0.00014173,-2.3957e+08,-3199.4,0,9.9475e+05,-792.34,11316,11734,1,11734,1,-0.00026589,-4.6307e-09,0,0.0001649,-8.1172e-05,-1.0814e+08,-1463.7,0,6.4335e+07,-65.742,11733,12578,1,12578,1,0.00043414,5.6476e-10,0,0.00053514,4.9953e-05,1.5109e+08,177.68,0,1.9575e+08,124.46,12577,485.01,0,485.01,0,0.000404,3.5031e-09,0,0.00021076,7.5685e-05,1.4951e+08,1115,0,7.4985e+07,136.59,485.01,1
1560,2.66,12156,1,12156,1,8.4472e-05,-9.1953e-10,0,0.00035605,-1.5669e-05,2.1035e+07,-293.51,0,1.3149e+08,-0.54834,12155,12992,1,12992,1,0.0007602,4.1825e-09,0,0.0007602,0.00011093,2.5874e+08,1343.7,0,2.5874e+08,182.3,12991,12156,1,12156,1,8.4472e-05,-6.9116e-10,0,0.00035137,-1.5643e-05,3.0687e+07,-219.11,0,1.3208e+08,0.63726,12155,11317,1,11317,1,-0.00059125,-5.4559e-09,0,3.3863e-06,-0.00014228,-2.4048e+08,-1753.2,0,1.0073e+06,-798.52,11316,11734,1,11734,1,-0.0002669,-2.3616e-09,0,0.00016556,-8.1489e-05,-1.0855e+08,-749,0,6.4574e+07,-41.462,11733,12578,1,12578,1,0.00043584,3.8588e-10,0,0.00053718,5.0141e-05,1.5168e+08,118.51,0,1.965e+08,65.341,12577,485.01,0,485.01,0,0.00040556,1.8707e-09,0,0.00021157,7.5976e-05,1.5007e+08,596.7,0,7.5261e+07,123.1,485.01,1
1560,2.67,12156,1,12156,1,8.4814e-05,-1.4184e-09,0,0.00035739,-1.5733e-05,2.1114e+07,-451.51,0,1.3198e+08,-22.113,12155,12992,1,12992,1,0.00076309,1.0702e-09,0,0.00076309,0.00011134,2.5964e+08,343.72,0,2.5964e+08,86.456,12991,12156,1,12156,1,8.4814e-05,-1.1066e-09,0,0.0003527,-1.5707e-05,3.0812e+07,-350.38,0,1.3258e+08,-11.543,12155,11317,1,11317,1,-0.00059346,-5.451e-09,0,3.4231e-06,-0.00014282,-2.4138e+08,-1751.4,0,1.0204e+06,-788.32,11316,11734,1,11734,1,-0.00026788,-2.2351e-09,0,0.0001662,-8.1801e-05,-1.0895e+08,-715.69,0,6.4808e+07,-34.277,11733,12578,1,12578,1,0.00043751,-4.0329e-10,0,0.00053918,5.0325e-05,1.5226e+08,-129.66,0,1.9723e+08,19.935,12577,485.01,0,485.01,0,0.00040709,1.2729e-09,0,0.00021238,7.6263e-05,1.5063e+08,405.52,0,7.5531e+07,112.07,485.01,1
1560,2.68,12156,1,12156,1,8.5156e-05,-3.9994e-09,0,0.00035874,-1.5796e-05,2.1192e+07,-1272.4,0,1.3246e+08,-12.951,12155,12992,1,12992,1,0.000766,1.864e-09,0,0.000766,0.00011176,2.6055e+08,534.08,0,2.6055e+08,306.61,12991,12156,1,12156,1,8.5156e-05,-3.6706e-09,0,0.00035402,-1.577e-05,3.0936e+07,-1180.5,0,1.3308e+08,-4.6666,12155,11317,1,11317,1,-0.00059568,-1.1088e-08,0,3.459e-06,-0.00014337,-2.4228e+08,-3563.2,0,1.0331e+06,-1030.8,11316,11734,1,11734,1,-0.00026886,-6.1263e-09,0,0.00016685,-8.2112e-05,-1.0935e+08,-1963.5,0,6.5041e+07,-66.486,11733,12578,1,12578,1,0.00043917,-1.7405e-09,0,0.00054118,5.051e-05,1.5284e+08,-570.78,0,1.9796e+08,65.202,12577,485.01,0,485.01,0,0.00040861,2.8608e-09,0,0.00021318,7.6548e-05,1.5118e+08,906.35,0,7.5801e+07,155.84,485.01,1
1560,2.69,12156,1,12156,1,8.5501e-05,-2.245e-09,0,0.0003601,-1.586e-05,2.1271e+07,-715.87,0,1.3295e+08,-13.835,12155,12992,1,12992,1,0.0007689,1.1962e-09,0,0.0007689,0.00011217,2.6145e+08,342.73,0,2.6145e+08,190.55,12991,12156,1,12156,1,8.5501e-05,-2.0323e-09,0,0.00035536,-1.5834e-05,3.1061e+07,-653.79,0,1.3358e+08,-6.272,12155,11317,1,11317,1,-0.00059789,-6.899e-09,0,3.4959e-06,-0.00014391,-2.4318e+08,-2216.6,0,1.0462e+06,-950.78,11316,11734,1,11734,1,-0.00026985,-3.6542e-09,0,0.0001675,-8.2426e-05,-1.0975e+08,-1169.4,0,6.5278e+07,-52.149,11733,12578,1,12578,1,0.00044085,-7.4327e-10,0,0.0005432,5.0696e-05,1.5342e+08,-230.95,0,1.987e+08,42.066,12577,485.01,0,485.01,0,0.00041015,1.8109e-09,0,0.00021398,7.6837e-05,1.5173e+08,574.77,0,7.6074e+07,120.81,485.01,1
1560,2.7,12156,1,12156,1,8.5841e-05,-3.4763e-09,0,0.00036143,-1.5923e-05,2.1349e+07,-1106.6,0,1.3344e+08,-2.2299,12155,12992,1,12992,1,0.00077178,1.7138e-09,0,0.00077178,0.00011258,2.6235e+08,490.78,0,2.6235e+08,289.76,12991,12156,1,12156,1,8.5841e-05,-3.1058e-09,0,0.00035667,-1.5897e-05,3.1185e+07,-990.37,0,1.3407e+08,2.121,12155,11317,1,11317,1,-0.00060009,-9.686e-09,0,3.5326e-06,-0.00014445,-2.4408e+08,-3112,0,1.0594e+06,-1030.4,11316,11734,1,11734,1,-0.00027083,-5.5713e-09,0,0.00016815,-8.2735e-05,-1.1015e+08,-1779,0,6.5509e+07,-62.35,11733,12578,1,12578,1,0.00044251,-1.1896e-09,0,0.00054518,5.0879e-05,1.54e+08,-370.67,0,1.9942e+08,71.537,12577,485.01,0,485.01,0,0.00041167,2.7133e-09,0,0.00021478,7.7121e-05,1.5228e+08,860.25,0,7.6341e+07,132.1,485.01,1
1560,2.71,12156,1,12156,1,8.6187e-05,-1.63e-09,0,0.00036279,-1.5987e-05,2.1429e+07,-520.29,0,1.3393e+08,25.507,12155,12992,1,12992,1,0.00077468,3.323e-09,0,0.00077468,0.000113,2.6325e+08,1066.3,0,2.6325e+08,902.39,12991,12156,1,12156,1,8.6187e-05,-1.3298e-09,0,0.00035801,-1.5961e-05,3.1311e+07,-420.21,0,1.3457e+08,7.8195,12155,11317,1,11317,1,-0.0006023,-6.5061e-09,0,3.5701e-06,-0.00014499,-2.4498e+08,-2090.7,0,1.0728e+06,-381.44,11316,11734,1,11734,1,-0.00027182,-3.2071e-09,0,0.0001688,-8.305e-05,-1.1055e+08,-1020.7,0,6.5745e+07,-36.108,11733,12578,1,12578,1,0.00044419,3.4753e-11,0,0.0005472,5.1065e-05,1.5459e+08,11.034,0,2.0016e+08,79.332,12577,485.01,0,485.01,0,0.00041321,1.998e-09,0,0.00021559,7.741e-05,1.5283e+08,636.28,0,7.6614e+07,100.04,485.01,1
1560,2.72,12156,1,12156,1,8.6532e-05,-2.8391e-09,0,0.00036415,-1.6051e-05,2.1508e+07,-903.52,0,1.3442e+08,-9.1168,12155,12992,1,12992,1,0.00077759,1.1882e-09,0,0.00077759,0.00011342,2.6415e+08,340.06,0,2.6415e+08,186.61,12991,12156,1,12156,1,8.6532e-05,-3.1115e-09,0,0.00035934,-1.6025e-05,3.1436e+07,-991.23,0,1.3507e+08,4.5691,12155,11317,1,11317,1,-0.00060452,-6.8585e-09,0,3.6076e-06,-0.00014554,-2.4588e+08,-2204.9,0,1.086e+06,-1069.3,11316,11734,1,11734,1,-0.00027281,-4.1009e-09,0,0.00016946,-8.3364e-05,-1.1095e+08,-1295.9,0,6.598e+07,-59.985,11733,12578,1,12578,1,0.00044587,-1.6425e-09,0,0.00054922,5.1251e-05,1.5517e+08,-535.31,0,2.009e+08,39.744,12577,485.01,0,485.01,0,0.00041475,1.6399e-09,0,0.00021639,7.7699e-05,1.5339e+08,518.68,0,7.6885e+07,111.76,485.01,1
1560,2.73,12156,1,12156,1,8.6875e-05,-1.0669e-09,0,0.00036549,-1.6115e-05,2.1586e+07,-340.92,0,1.349e+08,14.105,12155,12992,1,12992,1,0.00078047,5.3219e-09,0,0.00078047,0.00011383,2.6504e+08,1709.4,0,2.6504e+08,229.48,12991,12156,1,12156,1,8.6876e-05,-7.5056e-10,0,0.00036066,-1.6089e-05,3.1561e+07,-238.32,0,1.3557e+08,8.4249,12155,11317,1,11317,1,-0.00060672,-6.8916e-09,0,3.6454e-06,-0.00014607,-2.4677e+08,-2213.9,0,1.0996e+06,-1098.7,11316,11734,1,11734,1,-0.00027378,-2.8092e-09,0,0.0001701,-8.3676e-05,-1.1135e+08,-901.62,0,6.6213e+07,-42.641,11733,12578,1,12578,1,0.00044753,5.2816e-10,0,0.00055121,5.1435e-05,1.5575e+08,172.55,0,2.0163e+08,96.515,12577,485.01,0,485.01,0,0.00041628,2.3288e-09,0,0.00021719,7.7985e-05,1.5394e+08,741.41,0,7.7154e+07,136.54,485.01,1
1560,2.74,12156,1,12156,1,8.7228e-05,-3.027e-09,0,0.00036685,-1.618e-05,2.1666e+07,-965.06,0,1.3539e+08,-19.757,12155,12992,1,12992,1,0.00078341,2.4325e-09,0,0.00078341,0.00011425,2.6595e+08,780.9,0,2.6595e+08,191.23,12991,12156,1,12156,1,8.7228e-05,-2.8965e-09,0,0.000362,-1.6154e-05,3.1689e+07,-906.46,0,1.3607e+08,7.442,12155,11317,1,11317,1,-0.00060895,-9.1838e-09,0,3.6889e-06,-0.00014662,-2.4768e+08,-2950.8,0,1.1152e+06,-1179.7,11316,11734,1,11734,1,-0.00027477,-5.1296e-09,0,0.00017076,-8.3992e-05,-1.1175e+08,-1642.3,0,6.6446e+07,-67.943,11733,12578,1,12578,1,0.00044922,-8.4395e-10,0,0.00055323,5.162e-05,1.5634e+08,-260.26,0,2.0236e+08,73.978,12577,485.01,0,485.01,0,0.00041783,2.4891e-09,0,0.000218,7.8274e-05,1.5449e+08,792.48,0,7.7425e+07,166.89,485.01,1
1560,2.75,12156,1,12156,1,8.7584e-05,-1.2952e-09,0,0.0003682,-1.6246e-05,2.1744e+07,-414.59,0,1.3588e+08,-4.4871,12155,12992,1,12992,1,0.00078631,3.1509e-09,0,0.00078631,0.00011466,2.6681e+08,1014.7,0,2.6681e+08,116.55,12991,12156,1,12156,1,8.7585e-05,-1.0442e-09,0,0.00036333,-1.622e-05,3.1818e+07,-319.22,0,1.3657e+08,-1.0607,12155,11317,1,11317,1,-0.00061113,-6.0111e-09,0,3.7393e-06,-0.00014716,-2.4857e+08,-1930.9,0,1.1336e+06,-1128.2,11316,11734,1,11734,1,-0.00027574,-2.5617e-09,0,0.00017143,-8.4307e-05,-1.1215e+08,-808.61,0,6.6675e+07,-36.214,11733,12578,1,12578,1,0.00045091,6.7536e-11,0,0.00055522,5.1803e-05,1.5692e+08,19.535,0,2.0309e+08,42.846,12577,485.01,0,485.01,0,0.00041936,1.6457e-09,0,0.00021881,7.8561e-05,1.5504e+08,525.69,0,7.7689e+07,95.464,485.01,1
1560,2.76,12156,1,12156,1,8.7943e-05,-1.4461e-09,0,0.00036956,-1.6313e-05,2.1822e+07,-461.6,0,1.3636e+08,-7.9638,12155,12992,1,12992,1,0.00078923,2.5436e-09,0,0.00078923,0.00011507,2.6769e+08,796.14,0,2.6769e+08,125.53,12991,12156,1,12156,1,8.7943e-05,-1.1696e-09,0,0.00036466,-1.6287e-05,3.1949e+07,-369.32,0,1.3707e+08,4.8595,12155,11317,1,11317,1,-0.00061334,-6.7634e-09,0,3.7909e-06,-0.00014771,-2.4947e+08,-2172.4,0,1.1524e+06,-1204.4,11316,11734,1,11734,1,-0.00027671,-2.8521e-09,0,0.00017209,-8.4623e-05,-1.1254e+08,-914.88,0,6.6904e+07,-38.323,11733,12578,1,12578,1,0.0004526,4.7586e-11,0,0.00055722,5.1985e-05,1.5751e+08,14.414,0,2.0382e+08,47.55,12577,485.01,0,485.01,0,0.0004209,1.8846e-09,0,0.00021962,7.8849e-05,1.5558e+08,600.88,0,7.7953e+07,124,485.01,1
1560,2.77,12156,1,12156,1,8.8304e-05,-4.0698e-10,0,0.00037092,-1.638e-05,2.1901e+07,-130.56,0,1.3685e+08,-7.4427,12155,12992,1,12992,1,0.00079215,2.0398e-09,0,0.00079215,0.00011548,2.6856e+08,659.24,0,2.6856e+08,65.654,12991,12156,1,12156,1,8.8304e-05,-2.4497e-10,0,0.000366,-1.6354e-05,3.208e+07,-77.686,0,1.3757e+08,-1.8599,12155,11317,1,11317,1,-0.00061554,-3.8362e-09,0,3.8426e-06,-0.00014826,-2.5036e+08,-1232.1,0,1.1712e+06,-1189.1,11316,11734,1,11734,1,-0.00027769,-8.4947e-10,0,0.00017276,-8.4941e-05,-1.1294e+08,-269.26,0,6.7135e+07,-20.781,11733,12578,1,12578,1,0.0004543,6.8465e-11,0,0.00055923,5.2169e-05,1.581e+08,22.446,0,2.0455e+08,15.601,12577,485.01,0,485.01,0,0.00042244,7.0076e-10,0,0.00022043,7.9138e-05,1.5613e+08,224.95,0,7.8219e+07,71.26,485.01,1
1560,2.78,12156,1,12156,1,8.8663e-05,-9.4256e-10,0,0.00037227,-1.6446e-05,2.198e+07,-300.85,0,1.3733e+08,0.87844,12155,12992,1,12992,1,0.00079508,1.7876e-09,0,0.00079508,0.0001159,2.6944e+08,575.25,0,2.6944e+08,129.56,12991,12156,1,12156,1,8.8664e-05,-7.0902e-10,0,0.00036733,-1.642e-05,3.221e+07,-224.84,0,1.3807e+08,0.76996,12155,11317,1,11317,1,-0.00061775,-3.7648e-09,0,3.8952e-06,-0.0001488,-2.5126e+08,-1165.6,0,1.1905e+06,-237.39,11316,11734,1,11734,1,-0.00027866,-1.9239e-09,0,0.00017343,-8.5257e-05,-1.1334e+08,-619.15,0,6.7363e+07,-32.698,11733,12578,1,12578,1,0.00045599,9.1564e-11,0,0.00056122,5.2352e-05,1.5869e+08,30.338,0,2.0528e+08,38.374,12577,485.01,0,485.01,0,0.00042398,1.2729e-09,0,0.00022123,7.9426e-05,1.5668e+08,404.64,0,7.8482e+07,56.849,485.01,1
1560,2.79,12156,1,12156,1,8.9023e-05,-2.1899e-09,0,0.00037363,-1.6513e-05,2.2058e+07,-697.95,0,1.3781e+08,-9.8982,12155,12992,1,12992,1,0.000798,8.6763e-10,0,0.000798,0.00011631,2.7031e+08,247.61,0,2.7031e+08,82.481,12991,12156,1,12156,1,8.9023e-05,-2.2555e-09,0,0.00036866,-1.6487e-05,3.2341e+07,-714.43,0,1.3857e+08,4.7321,12155,11317,1,11317,1,-0.00061995,-5.8775e-09,0,3.9476e-06,-0.00014935,-2.5215e+08,-1887.8,0,1.2097e+06,-1340.8,11316,11734,1,11734,1,-0.00027963,-3.3489e-09,0,0.0001741,-8.5573e-05,-1.1373e+08,-1072,0,6.7591e+07,-33.243,11733,12578,1,12578,1,0.00045768,-1.0694e-09,0,0.00056322,5.2534e-05,1.5928e+08,-334.12,0,2.0601e+08,27.09,12577,485.01,0,485.01,0,0.00042551,1.4004e-09,0,0.00022204,7.9713e-05,1.5722e+08,445.14,0,7.8746e+07,72.077,485.01,1
1560,2.8,12156,1,12156,1,8.9385e-05,-1.9427e-09,0,0.00037499,-1.658e-05,2.2137e+07,-619.86,0,1.383e+08,-9.829,12155,12992,1,12992,1,0.00080093,8.2579e-10,0,0.00080093,0.00011672,2.7118e+08,235.58,0,2.7118e+08,100.82,12991,12156,1,12156,1,8.9384e-05,-2.188e-09,0,0.00037,-1.6554e-05,3.2472e+07,-691.72,0,1.3907e+08,8.105,12155,11317,1,11317,1,-0.00062216,-4.4127e-09,0,4.0007e-06,-0.0001499,-2.5305e+08,-1422.3,0,1.2289e+06,-1193.5,11316,11734,1,11734,1,-0.00028061,-2.9585e-09,0,0.00017477,-8.589e-05,-1.1413e+08,-948.62,0,6.7821e+07,-29.626,11733,12578,1,12578,1,0.00045938,-1.0691e-09,0,0.00056522,5.2717e-05,1.5987e+08,-335.34,0,2.0674e+08,29.5,12577,485.01,0,485.01,0,0.00042705,1.2008e-09,0,0.00022285,8.0002e-05,1.5777e+08,380.12,0,7.9011e+07,71.223,485.01,1
1560,2.81,12156,1,12156,1,8.9746e-05,-1.7988e-09,0,0.00037635,-1.6647e-05,2.2215e+07,-573.85,0,1.3878e+08,6.815,12155,12992,1,12992,1,0.00080386,6.6656e-10,0,0.00080386,0.00011714,2.7205e+08,190.07,0,2.7205e+08,81.992,12991,12156,1,12156,1,8.9746e-05,-1.7823e-09,0,0.00037133,-1.6621e-05,3.2603e+07,-570.01,0,1.3957e+08,11.943,12155,11317,1,11317,1,-0.00062436,-4.1941e-09,0,4.0541e-06,-0.00015044,-2.5395e+08,-1301,0,1.2486e+06,-126.89,11316,11734,1,11734,1,-0.00028158,-2.6676e-09,0,0.00017544,-8.6207e-05,-1.1452e+08,-861.08,0,6.8049e+07,-10.263,11733,12578,1,12578,1,0.00046107,-9.3067e-10,0,0.00056722,5.29e-05,1.6046e+08,-300.56,0,2.0747e+08,31.602,12577,485.01,0,485.01,0,0.00042859,1.1454e-09,0,0.00022366,8.029e-05,1.5831e+08,364.81,0,7.9274e+07,37.746,485.01,1
1560,2.82,12156,1,12156,1,9.0113e-05,-6.8003e-10,0,0.00037773,-1.6715e-05,2.2295e+07,-217.33,0,1.3927e+08,-5.646,12155,12992,1,12992,1,0.00080682,2.9601e-10,0,0.00080682,0.00011756,2.7294e+08,86.332,0,2.7294e+08,108.67,12991,12156,1,12156,1,9.0113e-05,-5.5975e-10,0,0.00037269,-1.6689e-05,3.2737e+07,-178.89,0,1.4008e+08,-2.9389,12155,11317,1,11317,1,-0.00062659,-2.4707e-09,0,4.1085e-06,-0.000151,-2.5486e+08,-764.88,0,1.2685e+06,-247.5,11316,11734,1,11734,1,-0.00028257,-1.0424e-09,0,0.00017612,-8.653e-05,-1.1493e+08,-333.88,0,6.8282e+07,-14.294,11733,12578,1,12578,1,0.0004628,-1.8337e-10,0,0.00056925,5.3086e-05,1.6106e+08,-57.968,0,2.0821e+08,6.6118,12577,485.01,0,485.01,0,0.00043016,6.2527e-10,0,0.00022448,8.0583e-05,1.5887e+08,198.62,0,7.9543e+07,30.993,485.01,1
1560,2.83,12156,1,12156,1,9.0468e-05,-1.9965e-09,0,0.00037905,-1.6781e-05,2.2372e+07,-636.03,0,1.3974e+08,14.119,12155,12992,1,12992,1,0.00080969,1.1042e-09,0,0.00080969,0.00011796,2.7378e+08,340.28,0,2.7378e+08,124.99,12991,12156,1,12156,1,9.0468e-05,-1.8273e-09,0,0.00037399,-1.6755e-05,3.2866e+07,-585.92,0,1.4057e+08,13.324,12155,11317,1,11317,1,-0.00062875,-5.5936e-09,0,4.1632e-06,-0.00015154,-2.5573e+08,-1731.7,0,1.2886e+06,-136.33,11316,11734,1,11734,1,-0.00028352,-3.4294e-09,0,0.00017677,-8.6839e-05,-1.1531e+08,-1097.2,0,6.8503e+07,-22.858,11733,12578,1,12578,1,0.00046445,-5.3386e-10,0,0.0005712,5.3263e-05,1.6164e+08,-171.12,0,2.0892e+08,57.279,12577,485.01,0,485.01,0,0.00043166,1.7392e-09,0,0.00022527,8.0864e-05,1.594e+08,552.18,0,7.9799e+07,54.768,485.01,1
1560,2.84,12156,1,12156,1,9.0835e-05,-3.019e-09,0,0.00038041,-1.6849e-05,2.245e+07,-961.66,0,1.4022e+08,24.809,12155,12992,1,12992,1,0.00081263,1.2187e-09,0,0.00081263,0.00011837,2.7464e+08,380.8,0,2.7464e+08,224.99,12991,12156,1,12156,1,9.0836e-05,-2.5768e-09,0,0.00037532,-1.6823e-05,3.2999e+07,-801.96,0,1.4107e+08,18.887,12155,11317,1,11317,1,-0.00063095,-8.9952e-09,0,4.2239e-06,-0.00015208,-2.5663e+08,-2816.6,0,1.3109e+06,-241.87,11316,11734,1,11734,1,-0.00028448,-4.8949e-09,0,0.00017745,-8.7156e-05,-1.157e+08,-1568.2,0,6.8728e+07,-29.176,11733,12578,1,12578,1,0.00046615,-8.3032e-10,0,0.00057318,5.3444e-05,1.6222e+08,-267.91,0,2.0964e+08,86.225,12577,485.01,0,485.01,0,0.00043319,2.6561e-09,0,0.00022608,8.1151e-05,1.5994e+08,844.57,0,8.0058e+07,85.243,485.01,1
1560,2.85,12156,1,12156,1,9.1214e-05,-2.5311e-09,0,0.00038177,-1.6919e-05,2.2528e+07,-807.56,0,1.407e+08,22.242,12155,12992,1,12992,1,0.00081558,2.394e-09,0,0.00081558,0.00011879,2.7549e+08,748.71,0,2.7549e+08,252.51,12991,12156,1,12156,1,9.1214e-05,-1.9347e-09,0,0.00037666,-1.6894e-05,3.3137e+07,-614.07,0,1.4157e+08,8.8697,12155,11317,1,11317,1,-0.00063314,-8.9041e-09,0,4.2937e-06,-0.00015264,-2.5752e+08,-2770.5,0,1.3367e+06,-227.33,11316,11734,1,11734,1,-0.00028544,-4.5695e-09,0,0.00017813,-8.7477e-05,-1.1609e+08,-1480,0,6.8951e+07,-49.245,11733,12578,1,12578,1,0.00046786,-1.4289e-10,0,0.00057517,5.3625e-05,1.6281e+08,-42.23,0,2.1037e+08,87.27,12577,485.01,0,485.01,0,0.00043474,2.8497e-09,0,0.00022689,8.1441e-05,1.6048e+08,907.29,0,8.0316e+07,94.541,485.01,1
1560,2.86,12156,1,12156,1,9.1597e-05,-7.6083e-10,0,0.00038315,-1.699e-05,2.2607e+07,-244.34,0,1.4119e+08,0.55717,12155,12992,1,12992,1,0.00081854,7.4676e-10,0,0.00081854,0.0001192,2.7634e+08,239.57,0,2.7634e+08,97.387,12991,12156,1,12156,1,9.1598e-05,-5.4995e-10,0,0.00037801,-1.6965e-05,3.3276e+07,-176.63,0,1.4207e+08,5.8006,12155,11317,1,11317,1,-0.00063534,-5.3059e-09,0,4.3649e-06,-0.00015319,-2.5842e+08,-1704.7,0,1.3631e+06,-1650.4,11316,11734,1,11734,1,-0.00028641,-1.3043e-09,0,0.00017883,-8.7801e-05,-1.1649e+08,-417.68,0,6.9176e+07,-14.4,11733,12578,1,12578,1,0.0004696,-6.6674e-11,0,0.00057718,5.3806e-05,1.634e+08,-21.355,0,2.111e+08,27.818,12577,485.01,0,485.01,0,0.0004363,8.8295e-10,0,0.00022772,8.1733e-05,1.6102e+08,283.32,0,8.0576e+07,64.202,485.01,1
1560,2.87,12156,1,12156,1,9.1975e-05,-2.2289e-09,0,0.0003845,-1.706e-05,2.2685e+07,-709.49,0,1.4166e+08,21.503,12155,12992,1,12992,1,0.00082148,1.1353e-09,0,0.00082148,0.00011961,2.7717e+08,355.95,0,2.7717e+08,181,12991,12156,1,12156,1,9.1975e-05,-1.9024e-09,0,0.00037933,-1.7035e-05,3.3414e+07,-606.71,0,1.4257e+08,20.718,12155,11317,1,11317,1,-0.00063752,-6.6503e-09,0,4.4373e-06,-0.00015374,-2.593e+08,-2061,0,1.39e+06,-121.23,11316,11734,1,11734,1,-0.00028735,-3.8003e-09,0,0.00017951,-8.8119e-05,-1.1687e+08,-1206.6,0,6.9395e+07,-28.547,11733,12578,1,12578,1,0.0004713,-5.5097e-10,0,0.00057914,5.3984e-05,1.6398e+08,-175,0,2.1182e+08,70.368,12577,485.01,0,485.01,0,0.00043783,2.0306e-09,0,0.00022852,8.2019e-05,1.6155e+08,644.06,0,8.0829e+07,66.514,485.01,1
1560,2.88,12156,1,12156,1,9.2359e-05,7.1292e-11,0,0.00038588,-1.7131e-05,2.2764e+07,20.227,0,1.4214e+08,0.41661,12155,12992,1,12992,1,0.00082444,2.3583e-09,0,0.00082444,0.00012002,2.7802e+08,730.1,0,2.7802e+08,64.586,12991,12156,1,12156,1,9.2359e-05,1.0646e-10,0,0.00038068,-1.7106e-05,3.3553e+07,32.708,0,1.4308e+08,1.8113,12155,11317,1,11317,1,-0.00063972,-1.5403e-09,0,4.509e-06,-0.00015429,-2.602e+08,-477.64,0,1.4166e+06,-74.126,11316,11734,1,11734,1,-0.00028832,-5.3124e-10,0,0.00018021,-8.8444e-05,-1.1726e+08,-173.57,0,6.9619e+07,-23.232,11733,12578,1,12578,1,0.00047304,5.5688e-10,0,0.00058115,5.4166e-05,1.6458e+08,168.65,0,2.1255e+08,26.665,12577,485.01,0,485.01,0,0.00043939,8.515e-10,0,0.00022934,8.2311e-05,1.6209e+08,271.51,0,8.1088e+07,32.638,485.01,1
1560,2.89,12156,1,12156,1,9.274e-05,6.4292e-10,0,0.00038724,-1.7202e-05,2.2842e+07,203.68,0,1.4262e+08,3.1611,12155,12992,1,12992,1,0.0008274,4.8648e-09,0,0.0008274,0.00012043,2.7886e+08,1503.8,0,2.7886e+08,182.28,12991,12156,1,12156,1,9.274e-05,1.6544e-10,0,0.00038202,-1.7177e-05,3.3692e+07,52.829,0,1.4358e+08,7.7263,12155,11317,1,11317,1,-0.00064191,-2.4464e-09,0,4.5821e-06,-0.00015484,-2.6109e+08,-764.91,0,1.4437e+06,-187.65,11316,11734,1,11734,1,-0.00028927,-5.1002e-10,0,0.0001809,-8.8765e-05,-1.1765e+08,-156.56,0,6.984e+07,-39.948,11733,12578,1,12578,1,0.00047475,1.6909e-09,0,0.00058313,5.4345e-05,1.6516e+08,538.59,0,2.1327e+08,46.885,12577,485.01,0,485.01,0,0.00044093,1.6923e-09,0,0.00023016,8.2599e-05,1.6263e+08,536.14,0,8.1344e+07,63.989,485.01,1
1560,2.9,12156,1,12156,1,9.312e-05,-1.8313e-09,0,0.0003886,-1.7272e-05,2.2919e+07,-581.55,0,1.431e+08,16.255,12155,12992,1,12992,1,0.00083034,1.3689e-09,0,0.00083034,0.00012084,2.797e+08,430.6,0,2.797e+08,134.9,12991,12156,1,12156,1,9.312e-05,-1.5999e-09,0,0.00038335,-1.7247e-05,3.383e+07,-496.75,0,1.4407e+08,13.621,12155,11317,1,11317,1,-0.0006441,-5.5273e-09,0,4.6557e-06,-0.00015539,-2.6198e+08,-1712.5,0,1.471e+06,-101.91,11316,11734,1,11734,1,-0.00029022,-3.1669e-09,0,0.00018158,-8.9084e-05,-1.1804e+08,-1009.9,0,7.006e+07,-27.217,11733,12578,1,12578,1,0.00047646,-3.8273e-10,0,0.0005851,5.4524e-05,1.6575e+08,-121.04,0,2.1399e+08,59.769,12577,485.01,0,485.01,0,0.00044246,1.7383e-09,0,0.00023096,8.2886e-05,1.6316e+08,551.76,0,8.1597e+07,55.329,485.01,1
1560,2.91,12156,1,12156,1,9.3503e-05,-2.4016e-09,0,0.00038997,-1.7343e-05,2.2998e+07,-764.84,0,1.4358e+08,13.714,12155,12992,1,12992,1,0.00083331,7.5031e-10,0,0.00083331,0.00012125,2.8054e+08,212.85,0,2.8054e+08,153.1,12991,12156,1,12156,1,9.3504e-05,-2.148e-09,0,0.00038469,-1.7318e-05,3.3969e+07,-683.37,0,1.4458e+08,8.0469,12155,11317,1,11317,1,-0.0006463,-6.4579e-09,0,4.7292e-06,-0.00015595,-2.6287e+08,-2006.9,0,1.4983e+06,-139.73,11316,11734,1,11734,1,-0.00029118,-3.8284e-09,0,0.00018228,-8.9406e-05,-1.1843e+08,-1213.7,0,7.0282e+07,-23.899,11733,12578,1,12578,1,0.00047819,-8.4503e-10,0,0.00058709,5.4704e-05,1.6634e+08,-265.16,0,2.1472e+08,61.146,12577,485.01,0,485.01,0,0.00044401,1.8709e-09,0,0.00023178,8.3177e-05,1.637e+08,595.58,0,8.1854e+07,60.545,485.01,1
1560,2.92,12156,1,12156,1,9.3887e-05,1.6908e-10,0,0.00039133,-1.7414e-05,2.3076e+07,51.697,0,1.4405e+08,-3.4743,12155,12992,1,12992,1,0.00083625,1.6383e-09,0,0.00083625,0.00012166,2.8137e+08,501.24,0,2.8137e+08,49.682,12991,12156,1,12156,1,9.3888e-05,1.0952e-10,0,0.00038603,-1.739e-05,3.4109e+07,31.921,0,1.4508e+08,-1.5525,12155,11317,1,11317,1,-0.00064847,-1.1481e-09,0,4.804e-06,-0.0001565,-2.6376e+08,-368.43,0,1.5261e+06,-86.163,11316,11734,1,11734,1,-0.00029214,-3.1972e-10,0,0.00018297,-8.9729e-05,-1.1882e+08,-105.5,0,7.0503e+07,-22.346,11733,12578,1,12578,1,0.00047991,6.6393e-10,0,0.00058908,5.4883e-05,1.6693e+08,206.91,0,2.1544e+08,16.409,12577,485.01,0,485.01,0,0.00044556,6.9916e-10,0,0.0002326,8.3466e-05,1.6424e+08,222.56,0,8.211e+07,26.389,485.01,1
1560,2.93,12156,1,12156,1,9.4269e-05,-1.3561e-09,0,0.00039269,-1.7485e-05,2.3154e+07,-431.19,0,1.4453e+08,11.663,12155,12992,1,12992,1,0.0008392,2.3406e-09,0,0.0008392,0.00012207,2.822e+08,728.79,0,2.822e+08,131.39,12991,12156,1,12156,1,9.4269e-05,-1.1065e-09,0,0.00038736,-1.746e-05,3.4247e+07,-343.38,0,1.4558e+08,7.9539,12155,11317,1,11317,1,-0.00065066,-5.1295e-09,0,4.8794e-06,-0.00015705,-2.6464e+08,-1588.7,0,1.5541e+06,-113.9,11316,11734,1,11734,1,-0.00029308,-2.7325e-09,0,0.00018366,-9.0048e-05,-1.192e+08,-858.4,0,7.0722e+07,-29.845,11733,12578,1,12578,1,0.00048162,1.0423e-11,0,0.00059105,5.5061e-05,1.6751e+08,3.2628,0,2.1616e+08,57.19,12577,485.01,0,485.01,0,0.00044709,1.7804e-09,0,0.00023341,8.3753e-05,1.6477e+08,565.53,0,8.2362e+07,55.189,485.01,1
1560,2.94,12156,1,12156,1,9.4657e-05,-1.3788e-09,0,0.00039407,-1.7557e-05,2.3233e+07,-439.15,0,1.4501e+08,2.5413,12155,12992,1,12992,1,0.00084219,3.3596e-10,0,0.00084219,0.00012249,2.8305e+08,95.181,0,2.8305e+08,49.107,12991,12156,1,12156,1,9.4657e-05,-1.5089e-09,0,0.00038871,-1.7533e-05,3.4388e+07,-484.73,0,1.4608e+08,3.521,12155,11317,1,11317,1,-0.00065287,-2.6833e-09,0,4.9549e-06,-0.00015761,-2.6554e+08,-838.27,0,1.5822e+06,-65.554,11316,11734,1,11734,1,-0.00029405,-1.9606e-09,0,0.00018436,-9.0374e-05,-1.196e+08,-622.18,0,7.0946e+07,-12.294,11733,12578,1,12578,1,0.00048337,-8.6407e-10,0,0.00059306,5.5243e-05,1.681e+08,-265.13,0,2.1689e+08,21.849,12577,485.01,0,485.01,0,0.00044866,7.3306e-10,0,0.00023423,8.4046e-05,1.6531e+08,233.19,0,8.2621e+07,25.385,485.01,1
1560,2.95,12156,1,12156,1,9.5053e-05,-1.4452e-09,0,0.00039543,-1.763e-05,2.331e+07,-461.25,0,1.4548e+08,-3.8679,12155,12992,1,12992,1,0.00084514,6.1351e-10,0,0.00084514,0.00012289,2.8386e+08,173.63,0,2.8386e+08,103.21,12991,12156,1,12156,1,9.5053e-05,-1.3356e-09,0,0.00039004,-1.7606e-05,3.4532e+07,-425.32,0,1.4658e+08,-2.3472,12155,11317,1,11317,1,-0.00065503,-3.953e-09,0,5.0441e-06,-0.00015816,-2.6642e+08,-1225.2,0,1.6155e+06,-114.05,11316,11734,1,11734,1,-0.00029498,-2.3904e-09,0,0.00018506,-9.0696e-05,-1.1997e+08,-757.84,0,7.1158e+07,-38.468,11733,12578,1,12578,1,0.00048509,-4.5591e-10,0,0.00059501,5.5418e-05,1.6868e+08,-146.91,0,2.176e+08,32.906,12577,485.01,0,485.01,0,0.00045019,1.1861e-09,0,0.00023504,8.4333e-05,1.6583e+08,377.17,0,8.2868e+07,47.777,485.01,1
1560,2.96,12156,1,12156,1,9.5453e-05,-2.2381e-09,0,0.00039679,-1.7705e-05,2.3387e+07,-714.49,0,1.4595e+08,4.7521,12155,12992,1,12992,1,0.00084812,1.8469e-09,0,0.00084812,0.0001233,2.8467e+08,562.19,0,2.8467e+08,194.19,12991,12156,1,12156,1,9.5454e-05,-1.9183e-09,0,0.00039137,-1.7681e-05,3.4678e+07,-600,0,1.4707e+08,6.7272,12155,11317,1,11317,1,-0.0006572,-7.1906e-09,0,5.1371e-06,-0.00015871,-2.6731e+08,-2225.8,0,1.6504e+06,-213.88,11316,11734,1,11734,1,-0.00029591,-3.9608e-09,0,0.00018577,-9.1019e-05,-1.2035e+08,-1272.6,0,7.137e+07,-47.645,11733,12578,1,12578,1,0.00048682,-3.6103e-10,0,0.00059696,5.5593e-05,1.6924e+08,-108.49,0,2.1831e+08,70.054,12577,485.01,0,485.01,0,0.00045172,2.2813e-09,0,0.00023586,8.462e-05,1.6636e+08,724.69,0,8.3114e+07,87.817,485.01,1
1560,2.97,12156,1,12156,1,9.5862e-05,1.4459e-10,0,0.00039818,-1.778e-05,2.3466e+07,42.476,0,1.4642e+08,1.3968,12155,12992,1,12992,1,0.00085111,2.8295e-09,0,0.00085111,0.00012371,2.8548e+08,880.31,0,2.8548e+08,86.022,12991,12156,1,12156,1,9.5862e-05,2.3845e-10,0,0.00039273,-1.7756e-05,3.4826e+07,70.978,0,1.4757e+08,0.10458,12155,11317,1,11317,1,-0.00065939,-2.2391e-09,0,5.2316e-06,-0.00015927,-2.682e+08,-702.71,0,1.6858e+06,-72.844,11316,11734,1,11734,1,-0.00029687,-5.7556e-10,0,0.00018649,-9.1349e-05,-1.2074e+08,-185.35,0,7.1587e+07,-33.524,11733,12578,1,12578,1,0.00048859,8.2619e-10,0,0.00059896,5.5771e-05,1.6983e+08,257.43,0,2.1904e+08,35.51,12577,485.01,0,485.01,0,0.00045329,1.0955e-09,0,0.00023669,8.4913e-05,1.6689e+08,349.89,0,8.3366e+07,39.204,485.01,1
1560,2.98,12156,1,12156,1,9.627e-05,-1.0695e-09,0,0.00039956,-1.7856e-05,2.3544e+07,-340.42,0,1.469e+08,-5.6336,12155,12992,1,12992,1,0.00085412,4.0176e-10,0,0.00085412,0.00012412,2.863e+08,113.5,0,2.863e+08,47.579,12991,12156,1,12156,1,9.627e-05,-1.0197e-09,0,0.00039408,-1.7832e-05,3.4974e+07,-325.46,0,1.4807e+08,-1.9597,12155,11317,1,11317,1,-0.00066158,-2.5609e-09,0,5.3288e-06,-0.00015984,-2.6909e+08,-794.07,0,1.7222e+06,-76.805,11316,11734,1,11734,1,-0.00029781,-1.5856e-09,0,0.00018721,-9.1678e-05,-1.2112e+08,-505.86,0,7.1801e+07,-19.168,11733,12578,1,12578,1,0.00049035,-5.5553e-10,0,0.00060094,5.5948e-05,1.704e+08,-174.82,0,2.1976e+08,9.8782,12577,485.01,0,485.01,0,0.00045485,6.9098e-10,0,0.00023751,8.5205e-05,1.6742e+08,220.35,0,8.3614e+07,23.844,485.01,1
1560,2.99,12156,1,12156,1,9.6669e-05,-2.4206e-09,0,0.0004009,-1.793e-05,2.362e+07,-771.49,0,1.4736e+08,5.2637,12155,12992,1,12992,1,0.00085707,3.2317e-09,0,0.00085707,0.00012452,2.8709e+08,998.83,0,2.8709e+08,277.81,12991,12156,1,12156,1,9.667e-05,-1.7482e-09,0,0.00039539,-1.7906e-05,3.512e+07,-553.35,0,1.4856e+08,-2.2818,12155,11317,1,11317,1,-0.00066372,-9.4524e-09,0,5.4253e-06,-0.00016039,-2.6996e+08,-2925.7,0,1.7584e+06,-224.91,11316,11734,1,11734,1,-0.00029872,-4.801e-09,0,0.00018791,-9.1997e-05,-1.2149e+08,-1506.4,0,7.2007e+07,-74.782,11733,12578,1,12578,1,0.00049205,1.8409e-10,0,0.00060286,5.612e-05,1.7096e+08,55.73,0,2.2046e+08,91.366,12577,485.01,0,485.01,0,0.00045636,3.1775e-09,0,0.00023831,8.5488e-05,1.6793e+08,1009.3,0,8.3854e+07,111.71,485.01,1
1560,3,12156,1,12156,1,9.7078e-05,-1.9087e-09,0,0.00040229,-1.8005e-05,2.3699e+07,-610.9,0,1.4783e+08,2.1316,12155,12992,1,12992,1,0.00086008,2.0683e-09,0,0.00086008,0.00012493,2.879e+08,657.93,0,2.879e+08,244.25,12991,12156,1,12156,1,9.7079e-05,-1.08e-09,0,0.00039675,-1.7982e-05,3.5268e+07,-346.95,0,1.4906e+08,0.71965,12155,11317,1,11317,1,-0.00066591,-7.9781e-09,0,5.5209e-06,-0.00016095,-2.7085e+08,-2469.5,0,1.7942e+06,-209.18,11316,11734,1,11734,1,-0.00029966,-3.7457e-09,0,0.00018863,-9.2326e-05,-1.2188e+08,-1184.7,0,7.2223e+07,-68.72,11733,12578,1,12578,1,0.00049382,2.1519e-10,0,0.00060485,5.6298e-05,1.7154e+08,65.577,0,2.2119e+08,66.435,12577,485.01,0,485.01,0,0.00045793,2.5869e-09,0,0.00023914,8.5781e-05,1.6846e+08,824.97,0,8.4105e+07,97.666,485.01,1
1560,3.01,12156,1,12156,1,9.7487e-05,-3.1328e-09,0,0.00040366,-1.8081e-05,2.3776e+07,-999.45,0,1.483e+08,0.91557,12155,12992,1,12992,1,0.00086308,1.5851e-09,0,0.00086308,0.00012534,2.8871e+08,446.84,0,2.8871e+08,258.77,12991,12156,1,12156,1,9.7487e-05,-2.3195e-09,0,0.00039809,-1.8058e-05,3.5417e+07,-738.77,0,1.4956e+08,-4.7134,12155,11317,1,11317,1,-0.00066809,-1.0067e-08,0,5.6197e-06,-0.00016151,-2.7174e+08,-3116,0,1.8313e+06,-226.05,11316,11734,1,11734,1,-0.0003006,-5.1968e-09,0,0.00018935,-9.2654e-05,-1.2226e+08,-1675.8,0,7.2435e+07,-74.248,11733,12578,1,12578,1,0.00049557,-7.0431e-10,0,0.00060682,5.6473e-05,1.7212e+08,-217.98,0,2.219e+08,75.151,12577,485.01,0,485.01,0,0.00045948,2.9658e-09,0,0.00023996,8.6071e-05,1.6899e+08,945.04,0,8.4351e+07,106.89,485.01,1
1560,3.02,12156,1,12156,1,9.7896e-05,-2.4708e-09,0,0.00040504,-1.8157e-05,2.3854e+07,-790.48,0,1.4877e+08,-1.9591,12155,12992,1,12992,1,0.00086607,1.5136e-09,0,0.00086607,0.00012575,2.8951e+08,426.46,0,2.8951e+08,220.58,12991,12156,1,12156,1,9.7897e-05,-1.8062e-09,0,0.00039944,-1.8134e-05,3.5565e+07,-566.56,0,1.5006e+08,-4.0749,12155,11317,1,11317,1,-0.00067027,-8.3007e-09,0,5.7185e-06,-0.00016207,-2.7262e+08,-2578,0,1.8683e+06,-181.6,11316,11734,1,11734,1,-0.00030154,-4.3512e-09,0,0.00019007,-9.2981e-05,-1.2264e+08,-1370,0,7.2647e+07,-64.251,11733,12578,1,12578,1,0.00049733,-3.6231e-10,0,0.00060879,5.6649e-05,1.7269e+08,-117.34,0,2.2262e+08,57.177,12577,485.01,0,485.01,0,0.00046103,2.512e-09,0,0.00024079,8.6362e-05,1.6952e+08,802.14,0,8.4598e+07,88.445,485.01,1
1560,3.03,12156,1,12156,1,9.8305e-05,-1.8717e-09,0,0.00040641,-1.8233e-05,2.3932e+07,-599.19,0,1.4924e+08,9.6111,12155,12992,1,12992,1,0.00086905,2.7071e-09,0,0.00086905,0.00012616,2.9031e+08,843.74,0,2.9031e+08,226.19,12991,12156,1,12156,1,9.8306e-05,-1.183e-09,0,0.00040077,-1.821e-05,3.5714e+07,-377.04,0,1.5055e+08,2.1366,12155,11317,1,11317,1,-0.00067243,-7.7919e-09,0,5.8186e-06,-0.00016262,-2.735e+08,-2411.8,0,1.9059e+06,-173.64,11316,11734,1,11734,1,-0.00030246,-3.7595e-09,0,0.00019079,-9.3308e-05,-1.2302e+08,-1207.6,0,7.2857e+07,-58.106,11733,12578,1,12578,1,0.00049907,2.4521e-10,0,0.00061075,5.6824e-05,1.7326e+08,73.5,0,2.2333e+08,81.744,12577,485.01,0,485.01,0,0.00046258,2.6242e-09,0,0.0002416,8.6651e-05,1.7004e+08,837.09,0,8.4842e+07,91.198,485.01,1
1560,3.04,12156,1,12156,1,9.8721e-05,-2.4592e-09,0,0.00040778,-1.831e-05,2.4009e+07,-786.94,0,1.4971e+08,-12.38,12155,12992,1,12992,1,0.00087204,3.9417e-09,0,0.00087204,0.00012656,2.911e+08,1223.5,0,2.911e+08,298.25,12991,12156,1,12156,1,9.8721e-05,-1.7014e-09,0,0.00040211,-1.8288e-05,3.5865e+07,-553.31,0,1.5104e+08,-31.207,12155,11317,1,11317,1,-0.00067459,-9.8629e-09,0,5.9252e-06,-0.00016318,-2.7438e+08,-3077,0,1.9459e+06,-255.67,11316,11734,1,11734,1,-0.00030339,-5.2575e-09,0,0.00019151,-9.3635e-05,-1.2339e+08,-1667.1,0,7.3065e+07,-109.81,11733,12578,1,12578,1,0.00050083,3.6787e-10,0,0.0006127,5.6997e-05,1.7383e+08,110.89,0,2.2404e+08,85.072,12577,485.01,0,485.01,0,0.00046412,3.5104e-09,0,0.00024242,8.694e-05,1.7056e+08,1122.2,0,8.5085e+07,121.66,485.01,1
1560,3.05,12156,1,12156,1,9.9164e-05,-1.8538e-09,0,0.00040915,-1.8392e-05,2.4085e+07,-595.43,0,1.5016e+08,-14.274,12155,12992,1,12992,1,0.00087506,6.8946e-09,0,0.00087506,0.00012696,2.9186e+08,2140.2,0,2.9186e+08,347.84,12991,12156,1,12156,1,9.9165e-05,-1.0046e-09,0,0.00040345,-1.837e-05,3.6026e+07,-315.84,0,1.5152e+08,-28.056,12155,11317,1,11317,1,-0.00067672,-1.1409e-08,0,6.0595e-06,-0.00016375,-2.7525e+08,-3564,0,1.9967e+06,-317.58,11316,11734,1,11734,1,-0.00030428,-5.231e-09,0,0.00019227,-9.3968e-05,-1.2376e+08,-1660.1,0,7.3262e+07,-141.52,11733,12578,1,12578,1,0.00050261,1.4396e-09,0,0.00061462,5.7165e-05,1.7438e+08,432.61,0,2.2474e+08,108.59,12577,485.01,0,485.01,0,0.00046567,4.4783e-09,0,0.00024325,8.7229e-05,1.7106e+08,1430.8,0,8.5318e+07,152.88,485.01,1
1560,3.06,12156,1,12156,1,9.9621e-05,-6.9392e-10,0,0.00041058,-1.8476e-05,2.4164e+07,-225.25,0,1.5064e+08,-25.758,12155,12992,1,12992,1,0.00087816,2.2811e-09,0,0.00087816,0.00012737,2.9264e+08,720.83,0,2.9264e+08,96.958,12991,12156,1,12156,1,9.9622e-05,-3.8405e-10,0,0.00040483,-1.8455e-05,3.6192e+07,-114.58,0,1.5201e+08,-29.296,12155,11317,1,11317,1,-0.00067891,-3.8307e-09,0,6.198e-06,-0.00016433,-2.7614e+08,-1224.8,0,2.0491e+06,-152.42,11316,11734,1,11734,1,-0.00030521,-1.8418e-09,0,0.00019304,-9.4311e-05,-1.2413e+08,-581.22,0,7.3466e+07,-71.85,11733,12578,1,12578,1,0.00050445,3.7639e-10,0,0.00061662,5.7339e-05,1.7494e+08,118.9,0,2.2547e+08,23.557,12577,485.01,0,485.01,0,0.00046726,1.4899e-09,0,0.0002441,8.7527e-05,1.7159e+08,481.88,0,8.556e+07,54.756,485.01,1
1560,3.07,12156,1,12156,1,0.00010007,-2.3296e-09,0,0.00041196,-1.856e-05,2.424e+07,-744.07,0,1.5109e+08,-13.984,12155,12992,1,12992,1,0.00088121,4.7418e-09,0,0.00088121,0.00012777,2.9339e+08,1475.6,0,2.9339e+08,316.27,12991,12156,1,12156,1,0.00010007,-1.5882e-09,0,0.00040618,-1.8539e-05,3.6356e+07,-506.08,0,1.5249e+08,-29.015,12155,11317,1,11317,1,-0.00068106,-1.0094e-08,0,6.3396e-06,-0.0001649,-2.7701e+08,-3138.5,0,2.1027e+06,-341.45,11316,11734,1,11734,1,-0.0003061,-5.252e-09,0,0.0001938,-9.4646e-05,-1.2449e+08,-1684.4,0,7.3659e+07,-117.89,11733,12578,1,12578,1,0.00050624,5.936e-10,0,0.00061854,5.7507e-05,1.7549e+08,186.28,0,2.2616e+08,100.13,12577,485.01,0,485.01,0,0.00046881,3.6933e-09,0,0.00024493,8.7817e-05,1.7209e+08,1177.2,0,8.579e+07,141.51,485.01,1
1560,3.08,12156,1,12156,1,0.00010053,-1.1729e-09,0,0.00041336,-1.8645e-05,2.4318e+07,-377.8,0,1.5155e+08,-22.182,12155,12992,1,12992,1,0.00088429,1.5894e-09,0,0.00088429,0.00012818,2.9416e+08,505.54,0,2.9416e+08,116.91,12991,12156,1,12156,1,0.00010053,-8.1763e-10,0,0.00040755,-1.8624e-05,3.6522e+07,-261.6,0,1.5297e+08,-26.758,12155,11317,1,11317,1,-0.00068322,-4.5359e-09,0,6.4803e-06,-0.00016547,-2.7789e+08,-1434.3,0,2.1559e+06,-152.49,11316,11734,1,11734,1,-0.00030701,-2.4132e-09,0,0.00019458,-9.4986e-05,-1.2487e+08,-771.89,0,7.386e+07,-67.1,11733,12578,1,12578,1,0.00050807,1.4191e-10,0,0.00062051,5.7678e-05,1.7604e+08,43.892,0,2.2688e+08,27.945,12577,485.01,0,485.01,0,0.00047039,1.5688e-09,0,0.00024577,8.8113e-05,1.726e+08,506.18,0,8.6028e+07,58.069,485.01,1
1560,3.09,12156,1,12156,1,0.00010098,-2.1767e-09,0,0.00041473,-1.8728e-05,2.4394e+07,-695.69,0,1.52e+08,-16.019,12155,12992,1,12992,1,0.00088731,5.2405e-09,0,0.00088731,0.00012858,2.949e+08,1633.1,0,2.949e+08,248.94,12991,12156,1,12156,1,0.00010098,-1.6607e-09,0,0.00040888,-1.8708e-05,3.6686e+07,-549.56,0,1.5345e+08,-32.447,12155,11317,1,11317,1,-0.00068534,-9.1706e-09,0,6.6235e-06,-0.00016603,-2.7875e+08,-2858.3,0,2.2101e+06,-250.71,11316,11734,1,11734,1,-0.00030789,-4.9068e-09,0,0.00019533,-9.5319e-05,-1.2522e+08,-1565.8,0,7.4051e+07,-113.26,11733,12578,1,12578,1,0.00050985,4.8283e-10,0,0.00062241,5.7844e-05,1.7658e+08,149.49,0,2.2757e+08,84.185,12577,485.01,0,485.01,0,0.00047193,3.4663e-09,0,0.00024659,8.84e-05,1.731e+08,1106.4,0,8.6256e+07,119.22,485.01,1
1560,3.1,12156,1,12156,1,0.00010144,-4.1916e-09,0,0.00041613,-1.8812e-05,2.4471e+07,-1337.5,0,1.5246e+08,-41.025,12155,12992,1,12992,1,0.00089039,2.464e-09,0,0.00089039,0.00012899,2.9567e+08,789.37,0,2.9567e+08,223.37,12991,12156,1,12156,1,0.00010144,-3.729e-09,0,0.00041024,-1.8793e-05,3.6852e+07,-1183.1,0,1.5393e+08,-51.781,12155,11317,1,11317,1,-0.00068751,-1.203e-08,0,6.765e-06,-0.00016661,-2.7963e+08,-3756.3,0,2.2636e+06,-359.87,11316,11734,1,11734,1,-0.0003088,-7.3907e-09,0,0.0001961,-9.5657e-05,-1.2559e+08,-2376.7,0,7.4248e+07,-142.98,11733,12578,1,12578,1,0.00051166,-9.1618e-10,0,0.00062436,5.8014e-05,1.7714e+08,-294.08,0,2.2828e+08,74.437,12577,485.01,0,485.01,0,0.0004735,3.8153e-09,0,0.00024743,8.8693e-05,1.7361e+08,1220.6,0,8.6491e+07,135.96,485.01,1
1560,3.11,12156,1,12156,1,0.0001019,-1.4688e-09,0,0.00041754,-1.8898e-05,2.455e+07,-473.82,0,1.5293e+08,-43.054,12155,12992,1,12992,1,0.00089348,5.2512e-10,0,0.00089348,0.00012939,2.9643e+08,147.15,0,2.9643e+08,41.795,12991,12156,1,12156,1,0.0001019,-1.4061e-09,0,0.00041161,-1.8879e-05,3.702e+07,-446.73,0,1.5441e+08,-47.116,12155,11317,1,11317,1,-0.00068967,-3.7031e-09,0,6.9106e-06,-0.00016718,-2.8051e+08,-1201,0,2.3187e+06,-142.32,11316,11734,1,11734,1,-0.00030971,-2.2669e-09,0,0.00019688,-9.6001e-05,-1.2596e+08,-723.54,0,7.4448e+07,-70.009,11733,12578,1,12578,1,0.00051351,-6.7549e-10,0,0.00062633,5.8185e-05,1.777e+08,-208.3,0,2.2899e+08,-14.119,12577,485.01,0,485.01,0,0.00047509,1.061e-09,0,0.00024828,8.8991e-05,1.7413e+08,347.5,0,8.6728e+07,39.357,485.01,1
1560,3.12,12156,1,12156,1,0.00010236,-1.6476e-09,0,0.00041892,-1.8983e-05,2.4626e+07,-527.33,0,1.5338e+08,-15.244,12155,12992,1,12992,1,0.00089651,2.9545e-09,0,0.00089651,0.00012979,2.9717e+08,919.64,0,2.9717e+08,160.17,12991,12156,1,12156,1,0.00010236,-1.3287e-09,0,0.00041295,-1.8964e-05,3.7186e+07,-425.54,0,1.5489e+08,-23.949,12155,11317,1,11317,1,-0.0006918,-6.2165e-09,0,7.0585e-06,-0.00016775,-2.8138e+08,-1940.6,0,2.3747e+06,-182.11,11316,11734,1,11734,1,-0.00031059,-3.4501e-09,0,0.00019765,-9.6336e-05,-1.2632e+08,-1092.3,0,7.4639e+07,-75.841,11733,12578,1,12578,1,0.0005153,1.5155e-10,0,0.00062825,5.8351e-05,1.7824e+08,44.583,0,2.2969e+08,46.665,12577,485.01,0,485.01,0,0.00047663,2.2542e-09,0,0.00024911,8.928e-05,1.7463e+08,720.21,0,8.6956e+07,75.921,485.01,1
1560,3.13,12156,1,12156,1,0.00010281,-2.9267e-09,0,0.0004203,-1.9067e-05,2.4702e+07,-934.54,0,1.5383e+08,-29.359,12155,12992,1,12992,1,0.00089956,4.5565e-09,0,0.00089956,0.00013019,2.9791e+08,1425.4,0,2.9791e+08,243.94,12991,12156,1,12156,1,0.00010281,-2.4195e-09,0,0.00041429,-1.9048e-05,3.7351e+07,-767.25,0,1.5536e+08,-44.721,12155,11317,1,11317,1,-0.00069393,-1.05e-08,0,7.2041e-06,-0.00016832,-2.8224e+08,-3270.8,0,2.4298e+06,-284.72,11316,11734,1,11734,1,-0.00031148,-5.8947e-09,0,0.00019841,-9.667e-05,-1.2668e+08,-1876.2,0,7.4831e+07,-130.93,11733,12578,1,12578,1,0.00051709,7.1416e-11,0,0.00063016,5.8517e-05,1.7878e+08,23.556,0,2.3038e+08,78.277,12577,485.01,0,485.01,0,0.00047818,3.7128e-09,0,0.00024993,8.9569e-05,1.7513e+08,1185.7,0,8.7185e+07,124.99,485.01,1
1560,3.14,12156,1,12156,1,0.00010328,-2.6148e-09,0,0.00042172,-1.9153e-05,2.478e+07,-836.51,0,1.543e+08,-35.426,12155,12992,1,12992,1,0.00090267,1.0274e-09,0,0.00090267,0.0001306,2.9868e+08,286.72,0,2.9868e+08,92.264,12991,12156,1,12156,1,0.00010328,-2.4219e-09,0,0.00041567,-1.9135e-05,3.752e+07,-771.45,0,1.5585e+08,-31.59,12155,11317,1,11317,1,-0.00069611,-6.5851e-09,0,7.3511e-06,-0.0001689,-2.8313e+08,-2072.2,0,2.4854e+06,-220.13,11316,11734,1,11734,1,-0.00031239,-4.2618e-09,0,0.0001992,-9.7014e-05,-1.2705e+08,-1373.6,0,7.503e+07,-83.637,11733,12578,1,12578,1,0.00051894,-9.5229e-10,0,0.00063213,5.8689e-05,1.7934e+08,-309.5,0,2.311e+08,21.519,12577,485.01,0,485.01,0,0.00047977,1.9527e-09,0,0.00025078,8.9867e-05,1.7564e+08,629.9,0,8.7422e+07,68.743,485.01,1
1560,3.15,12156,1,12156,1,0.00010374,-2.8104e-09,0,0.00042311,-1.9239e-05,2.4856e+07,-898.57,0,1.5475e+08,-24.626,12155,12992,1,12992,1,0.00090573,1.5979e-09,0,0.00090573,0.000131,2.9942e+08,502.36,0,2.9942e+08,159.29,12991,12156,1,12156,1,0.00010374,-2.4759e-09,0,0.00041702,-1.9221e-05,3.7689e+07,-791.85,0,1.5633e+08,-29.796,12155,11317,1,11317,1,-0.00069824,-8.219e-09,0,7.5023e-06,-0.00016947,-2.84e+08,-2570.2,0,2.5427e+06,-251.23,11316,11734,1,11734,1,-0.00031328,-5.041e-09,0,0.00019997,-9.7353e-05,-1.2741e+08,-1620.9,0,7.5222e+07,-95.789,11733,12578,1,12578,1,0.00052075,-4.9476e-10,0,0.00063406,5.8856e-05,1.7989e+08,-151.13,0,2.318e+08,53.011,12577,485.01,0,485.01,0,0.00048133,2.6471e-09,0,0.00025162,9.0158e-05,1.7615e+08,847.58,0,8.7651e+07,92.98,485.01,1
1560,3.16,12156,1,12156,1,0.0001042,-2.5019e-09,0,0.0004245,-1.9324e-05,2.4933e+07,-801.15,0,1.5521e+08,-29.544,12155,12992,1,12992,1,0.00090881,1.6985e-09,0,0.00090881,0.0001314,3.0016e+08,537.48,0,3.0016e+08,150.08,12991,12156,1,12156,1,0.0001042,-2.1962e-09,0,0.00041838,-1.9307e-05,3.7857e+07,-692.12,0,1.5681e+08,-30.498,12155,11317,1,11317,1,-0.00070039,-7.5891e-09,0,7.653e-06,-0.00017004,-2.8487e+08,-2377.2,0,2.5998e+06,-247.35,11316,11734,1,11734,1,-0.00031417,-4.5848e-09,0,0.00020075,-9.7692e-05,-1.2778e+08,-1469,0,7.5416e+07,-96.893,11733,12578,1,12578,1,0.00052258,-3.8478e-10,0,0.000636,5.9024e-05,1.8044e+08,-115.74,0,2.325e+08,44.763,12577,485.01,0,485.01,0,0.0004829,2.4695e-09,0,0.00025246,9.0451e-05,1.7665e+08,791.4,0,8.7882e+07,88.956,485.01,1
1560,3.17,12156,1,12156,1,0.00010467,-2.71e-09,0,0.00042589,-1.941e-05,2.501e+07,-867.79,0,1.5566e+08,-36.315,12155,12992,1,12992,1,0.00091186,1.8243e-09,0,0.00091186,0.0001318,3.009e+08,582.09,0,3.009e+08,156.69,12991,12156,1,12156,1,0.00010467,-2.3632e-09,0,0.00041973,-1.9393e-05,3.8026e+07,-748.06,0,1.5728e+08,-37.148,12155,11317,1,11317,1,-0.00070252,-8.3248e-09,0,7.8051e-06,-0.00017062,-2.8574e+08,-2604.1,0,2.6574e+06,-281.99,11316,11734,1,11734,1,-0.00031506,-4.9308e-09,0,0.00020152,-9.803e-05,-1.2814e+08,-1590.2,0,7.5607e+07,-105.01,11733,12578,1,12578,1,0.00052439,-4.5999e-10,0,0.00063792,5.919e-05,1.8098e+08,-144.36,0,2.332e+08,45.812,12577,485.01,0,485.01,0,0.00048445,2.701e-09,0,0.00025329,9.0742e-05,1.7715e+08,864.23,0,8.811e+07,97.581,485.01,1
1560,3.18,12156,1,12156,1,0.00010513,-3.1089e-10,0,0.00042729,-1.9496e-05,2.5087e+07,-104.81,0,1.5612e+08,-13.104,12155,12992,1,12992,1,0.00091492,2.5231e-09,0,0.00091492,0.0001322,3.0164e+08,787.71,0,3.0164e+08,93.905,12991,12156,1,12156,1,0.00010513,-1.4173e-10,0,0.00042109,-1.948e-05,3.8195e+07,-46.416,0,1.5776e+08,-16.746,12155,11317,1,11317,1,-0.00070465,-2.8292e-09,0,7.9579e-06,-0.00017119,-2.8661e+08,-924.44,0,2.7152e+06,-105.19,11316,11734,1,11734,1,-0.00031595,-1.2012e-09,0,0.00020231,-9.8371e-05,-1.285e+08,-382.06,0,7.5801e+07,-47.511,11733,12578,1,12578,1,0.00052622,4.5463e-10,0,0.00063986,5.9358e-05,1.8154e+08,142.41,0,2.339e+08,18.045,12577,485.01,0,485.01,0,0.00048602,1.2029e-09,0,0.00025413,9.1036e-05,1.7766e+08,387.27,0,8.8341e+07,40.63,485.01,1
1560,3.19,12156,1,12156,1,0.0001056,-1.1372e-09,0,0.00042868,-1.9583e-05,2.5163e+07,-364.04,0,1.5657e+08,-23.873,12155,12992,1,12992,1,0.00091799,3.2418e-09,0,0.00091799,0.0001326,3.0237e+08,1016,0,3.0237e+08,124.52,12991,12156,1,12156,1,0.0001056,-8.8521e-10,0,0.00042244,-1.9567e-05,3.8365e+07,-282.67,0,1.5824e+08,-28.908,12155,11317,1,11317,1,-0.00070679,-5.1578e-09,0,8.1134e-06,-0.00017176,-2.8748e+08,-1606.6,0,2.7741e+06,-203.43,11316,11734,1,11734,1,-0.00031683,-2.7224e-09,0,0.00020308,-9.871e-05,-1.2886e+08,-864.74,0,7.5991e+07,-79.025,11733,12578,1,12578,1,0.00052803,3.6383e-10,0,0.00064178,5.9524e-05,1.8208e+08,115.11,0,2.346e+08,38.359,12577,485.01,0,485.01,0,0.00048758,2e-09,0,0.00025496,9.1327e-05,1.7816e+08,638.11,0,8.8568e+07,74.092,485.01,1
1560,3.2,12156,1,12156,1,0.00010606,-3.9296e-09,0,0.00043006,-1.9669e-05,2.5239e+07,-1251.9,0,1.5702e+08,-46.571,12155,12992,1,12992,1,0.00092107,2.5883e-09,0,0.00092107,0.000133,3.0311e+08,834.62,0,3.0311e+08,212.21,12991,12156,1,12156,1,0.00010606,-3.4269e-09,0,0.00042378,-1.9654e-05,3.8534e+07,-1071.5,0,1.5871e+08,-50.003,12155,11317,1,11317,1,-0.00070893,-1.1854e-08,0,8.268e-06,-0.00017233,-2.8834e+08,-3693.4,0,2.8326e+06,-366.16,11316,11734,1,11734,1,-0.00031771,-6.9983e-09,0,0.00020386,-9.9047e-05,-1.2922e+08,-2235,0,7.6179e+07,-138.96,11733,12578,1,12578,1,0.00052984,-6.8203e-10,0,0.00064369,5.9689e-05,1.8262e+08,-218.75,0,2.3529e+08,59.001,12577,485.01,0,485.01,0,0.00048913,3.7895e-09,0,0.00025579,9.1617e-05,1.7865e+08,1209.2,0,8.8794e+07,131.55,485.01,1
1560,3.21,12156,1,12156,1,0.00010653,-2.1737e-09,0,0.00043147,-1.9756e-05,2.5316e+07,-699.05,0,1.5747e+08,-43.394,12155,12992,1,12992,1,0.00092416,2.312e-09,0,0.00092416,0.00013341,3.0385e+08,736.3,0,3.0385e+08,170.34,12991,12156,1,12156,1,0.00010654,-1.8941e-09,0,0.00042515,-1.9741e-05,3.8705e+07,-592.1,0,1.5919e+08,-45.652,12155,11317,1,11317,1,-0.00071107,-7.0712e-09,0,8.4232e-06,-0.00017291,-2.8922e+08,-2228,0,2.8914e+06,-268.99,11316,11734,1,11734,1,-0.00031861,-4.1801e-09,0,0.00020464,-9.939e-05,-1.2958e+08,-1335.5,0,7.6373e+07,-106.19,11733,12578,1,12578,1,0.00053168,-2.1305e-10,0,0.00064564,5.9857e-05,1.8317e+08,-61.215,0,2.36e+08,33.611,12577,485.01,0,485.01,0,0.00049071,2.3825e-09,0,0.00025664,9.1912e-05,1.7916e+08,765.32,0,8.9025e+07,96.059,485.01,1
1560,3.22,12156,1,12156,1,0.00010701,-2.0633e-09,0,0.00043287,-1.9843e-05,2.5393e+07,-662.37,0,1.5793e+08,-23.838,12155,12992,1,12992,1,0.00092723,2.8516e-09,0,0.00092723,0.00013381,3.0457e+08,895.53,0,3.0457e+08,166.14,12991,12156,1,12156,1,0.00010701,-1.8327e-09,0,0.0004265,-1.9829e-05,3.8876e+07,-578.7,0,1.5967e+08,-23.74,12155,11317,1,11317,1,-0.00071321,-6.9091e-09,0,8.5824e-06,-0.00017348,-2.9008e+08,-2169.2,0,2.9517e+06,-237.24,11316,11734,1,11734,1,-0.00031949,-4.1445e-09,0,0.00020543,-9.973e-05,-1.2994e+08,-1331.5,0,7.6562e+07,-90.74,11733,12578,1,12578,1,0.0005335,5.1239e-12,0,0.00064756,6.0023e-05,1.8372e+08,1.6538,0,2.367e+08,51.248,12577,485.01,0,485.01,0,0.00049227,2.4388e-09,0,0.00025748,9.2204e-05,1.7966e+08,780.28,0,8.9252e+07,93.344,485.01,1
1560,3.23,12156,1,12156,1,0.00010748,-2.3943e-09,0,0.00043428,-1.9931e-05,2.547e+07,-766.2,0,1.5838e+08,-36.636,12155,12992,1,12992,1,0.00093033,9.053e-10,0,0.00093033,0.00013421,3.0531e+08,250.49,0,3.0531e+08,116.39,12991,12156,1,12156,1,0.00010748,-2.5285e-09,0,0.00042787,-1.9917e-05,3.9049e+07,-790.19,0,1.6015e+08,-21.677,12155,11317,1,11317,1,-0.00071536,-5.1094e-09,0,8.7421e-06,-0.00017406,-2.9096e+08,-1608.8,0,3.0122e+06,-246.89,11316,11734,1,11734,1,-0.00032039,-3.7589e-09,0,0.00020622,-0.00010007,-1.3031e+08,-1217.8,0,7.6755e+07,-70.734,11733,12578,1,12578,1,0.00053535,-1.0274e-09,0,0.00064951,6.0191e-05,1.8427e+08,-315.76,0,2.374e+08,3.6903,12577,485.01,0,485.01,0,0.00049385,1.6157e-09,0,0.00025833,9.25e-05,1.8016e+08,519.61,0,8.9481e+07,64.729,485.01,1
1560,3.24,12156,1,12156,1,0.00010796,-7.1118e-10,0,0.00043567,-2.0019e-05,2.5546e+07,-231.41,0,1.5883e+08,-7.452,12155,12992,1,12992,1,0.00093339,1.9031e-09,0,0.00093339,0.00013461,3.0602e+08,587.94,0,3.0602e+08,75.799,12991,12156,1,12156,1,0.00010796,-5.5078e-10,0,0.00042922,-2.0005e-05,3.9221e+07,-176.78,0,1.6062e+08,-10.743,12155,11317,1,11317,1,-0.00071747,-3.2327e-09,0,8.9043e-06,-0.00017463,-2.9182e+08,-1017.1,0,3.0736e+06,-101.07,11316,11734,1,11734,1,-0.00032126,-1.6699e-09,0,0.000207,-0.00010041,-1.3066e+08,-544.77,0,7.6942e+07,-40.994,11733,12578,1,12578,1,0.00053717,2.5033e-10,0,0.00065143,6.0356e-05,1.8481e+08,72.917,0,2.381e+08,27.92,12577,485.01,0,485.01,0,0.00049541,1.2432e-09,0,0.00025916,9.2791e-05,1.8066e+08,398.21,0,8.9706e+07,40.819,485.01,1
1560,3.25,12156,1,12156,1,0.00010843,-1.9588e-09,0,0.00043706,-2.0107e-05,2.5623e+07,-624.02,0,1.5928e+08,-24.594,12155,12992,1,12992,1,0.00093648,5.7782e-10,0,0.00093648,0.00013501,3.0675e+08,159.57,0,3.0675e+08,63.737,12991,12156,1,12156,1,0.00010843,-1.8777e-09,0,0.00043058,-2.0093e-05,3.9394e+07,-593.87,0,1.611e+08,-22.77,12155,11317,1,11317,1,-0.00071961,-4.6032e-09,0,9.066e-06,-0.00017521,-2.9269e+08,-1438.6,0,3.1348e+06,-149.38,11316,11734,1,11734,1,-0.00032214,-3.0433e-09,0,0.00020779,-0.00010076,-1.3102e+08,-972.33,0,7.7131e+07,-51.629,11733,12578,1,12578,1,0.000539,-8.8133e-10,0,0.00065335,6.0522e-05,1.8536e+08,-280.55,0,2.388e+08,8.4582,12577,485.01,0,485.01,0,0.00049697,1.3103e-09,0,0.00026,9.3084e-05,1.8116e+08,420.81,0,8.9932e+07,41.67,485.01,1
1560,3.26,12156,1,12156,1,0.0001089,-2.7971e-09,0,0.00043845,-2.0194e-05,2.5699e+07,-892.57,0,1.5973e+08,-27.642,12155,12992,1,12992,1,0.00093954,2.552e-09,0,0.00093954,0.00013541,3.0747e+08,794.54,0,3.0747e+08,227.23,12991,12156,1,12156,1,0.0001089,-2.6056e-09,0,0.00043192,-2.0182e-05,3.9565e+07,-825.82,0,1.6157e+08,-31.737,12155,11317,1,11317,1,-0.00072173,-8.0854e-09,0,9.2285e-06,-0.00017578,-2.9355e+08,-2523.3,0,3.1964e+06,-256.01,11316,11734,1,11734,1,-0.00032301,-5.135e-09,0,0.00020857,-0.00010109,-1.3137e+08,-1634.5,0,7.7316e+07,-95.282,11733,12578,1,12578,1,0.00054082,-5.0215e-10,0,0.00065525,6.0685e-05,1.859e+08,-158.66,0,2.3948e+08,47.241,12577,485.01,0,485.01,0,0.00049852,2.7157e-09,0,0.00026083,9.3373e-05,1.8165e+08,866.23,0,9.0155e+07,100.78,485.01,1
1560,3.27,12156,1,12156,1,0.00010938,2.3933e-10,0,0.00043986,-2.0283e-05,2.5776e+07,70.103,0,1.6019e+08,-9.9923,12155,12992,1,12992,1,0.00094264,1.5719e-09,0,0.00094264,0.00013581,3.082e+08,492.83,0,3.082e+08,33.337,12991,12156,1,12156,1,0.00010938,2.7122e-10,0,0.00043329,-2.0271e-05,3.974e+07,77.889,0,1.6205e+08,-10.097,12155,11317,1,11317,1,-0.00072387,-1.2758e-09,0,9.3925e-06,-0.00017636,-2.9442e+08,-436.53,0,3.2585e+06,-77.714,11316,11734,1,11734,1,-0.00032391,-2.5367e-10,0,0.00020937,-0.00010144,-1.3174e+08,-81.857,0,7.7508e+07,-28.82,11733,12578,1,12578,1,0.00054267,7.7561e-10,0,0.0006572,6.0853e-05,1.8645e+08,241.56,0,2.4019e+08,8.7402,12577,485.01,0,485.01,0,0.00050011,7.0102e-10,0,0.00026168,9.367e-05,1.8216e+08,224.45,0,9.0384e+07,22.521,485.01,1
1560,3.28,12156,1,12156,1,0.00010986,-1.4865e-09,0,0.00044126,-2.0372e-05,2.5852e+07,-472.32,0,1.6064e+08,-13.4,12155,12992,1,12992,1,0.00094573,5.4278e-10,0,0.00094573,0.00013621,3.0891e+08,169.87,0,3.0891e+08,72.51,12991,12156,1,12156,1,0.00010986,-1.2948e-09,0,0.00043464,-2.036e-05,3.9914e+07,-412.48,0,1.6253e+08,-15.938,12155,11317,1,11317,1,-0.000726,-4.1218e-09,0,9.5602e-06,-0.00017693,-2.9529e+08,-1284.7,0,3.322e+06,-129.19,11316,11734,1,11734,1,-0.00032478,-2.5558e-09,0,0.00021016,-0.00010178,-1.3209e+08,-813,0,7.7693e+07,-46.876,11733,12578,1,12578,1,0.0005445,-3.6791e-10,0,0.00065912,6.1017e-05,1.8699e+08,-114.87,0,2.4089e+08,23.395,12577,485.01,0,485.01,0,0.00050167,1.269e-09,0,0.00026252,9.3961e-05,1.8265e+08,405.53,0,9.0607e+07,42.901,485.01,1
1560,3.29,12156,1,12156,1,0.00011034,-1.1938e-09,0,0.00044264,-2.046e-05,2.5928e+07,-381.91,0,1.6108e+08,-6.8656,12155,12992,1,12992,1,0.00094879,3.3646e-09,0,0.00094879,0.0001366,3.0962e+08,1048.7,0,3.0962e+08,151.24,12991,12156,1,12156,1,0.00011034,-9.5363e-10,0,0.00043599,-2.0449e-05,4.0087e+07,-305.12,0,1.63e+08,-17.066,12155,11317,1,11317,1,-0.0007281,-5.2888e-09,0,9.7262e-06,-0.0001775,-2.9614e+08,-1651.1,0,3.3849e+06,-153.67,11316,11734,1,11734,1,-0.00032564,-2.8314e-09,0,0.00021095,-0.00010212,-1.3244e+08,-903.91,0,7.7878e+07,-63.403,11733,12578,1,12578,1,0.00054632,3.3301e-10,0,0.00066101,6.1179e-05,1.8753e+08,98.211,0,2.4157e+08,49.888,12577,485.01,0,485.01,0,0.00050322,2.0649e-09,0,0.00026336,9.4251e-05,1.8314e+08,658.99,0,9.0828e+07,68.983,485.01,1
1560,3.3,12156,1,12156,1,0.00011082,-1.4789e-09,0,0.00044404,-2.0549e-05,2.6004e+07,-472.86,0,1.6153e+08,-25.63,12155,12992,1,12992,1,0.00095188,2.3505e-09,0,0.00095188,0.000137,3.1034e+08,751.07,0,3.1034e+08,121.51,12991,12156,1,12156,1,0.00011082,-1.2833e-09,0,0.00043734,-2.0538e-05,4.0262e+07,-401.79,0,1.6347e+08,-29.311,12155,11317,1,11317,1,-0.00073024,-5.1177e-09,0,9.8931e-06,-0.00017808,-2.9701e+08,-1602.3,0,3.4481e+06,-180.69,11316,11734,1,11734,1,-0.00032652,-2.9986e-09,0,0.00021174,-0.00010246,-1.328e+08,-958.45,0,7.8065e+07,-76.033,11733,12578,1,12578,1,0.00054816,6.6951e-11,0,0.00066294,6.1344e-05,1.8808e+08,19.024,0,2.4227e+08,29.056,12577,485.01,0,485.01,0,0.00050479,1.8301e-09,0,0.0002642,9.4544e-05,1.8364e+08,585.6,0,9.1052e+07,66.643,485.01,1
1560,3.31,12156,1,12156,1,0.0001113,-2.2274e-09,0,0.00044544,-2.0638e-05,2.6081e+07,-710.53,0,1.6198e+08,-29.896,12155,12992,1,12992,1,0.00095497,1.8152e-09,0,0.00095497,0.0001374,3.1105e+08,573.3,0,3.1105e+08,129.43,12991,12156,1,12156,1,0.0001113,-1.9091e-09,0,0.0004387,-2.0628e-05,4.0437e+07,-595.42,0,1.6395e+08,-36.712,12155,11317,1,11317,1,-0.00073236,-6.848e-09,0,1.0063e-05,-0.00017866,-2.9788e+08,-2144,0,3.5124e+06,-203.74,11316,11734,1,11734,1,-0.00032739,-4.0601e-09,0,0.00021254,-0.00010281,-1.3316e+08,-1304.9,0,7.825e+07,-89.126,11733,12578,1,12578,1,0.00054999,-2.3094e-10,0,0.00066485,6.1508e-05,1.8862e+08,-70.524,0,2.4296e+08,35.182,12577,485.01,0,485.01,0,0.00050635,2.2429e-09,0,0.00026504,9.4836e-05,1.8413e+08,718.41,0,9.1275e+07,75.068,485.01,1
1560,3.32,12156,1,12156,1,0.00011178,-2.3251e-09,0,0.00044683,-2.0727e-05,2.6157e+07,-742.6,0,1.6243e+08,-24.673,12155,12992,1,12992,1,0.00095806,2.8006e-09,0,0.00095806,0.0001378,3.1175e+08,876.26,0,3.1175e+08,167.64,12991,12156,1,12156,1,0.00011178,-1.9828e-09,0,0.00044005,-2.0718e-05,4.0613e+07,-597.48,0,1.6442e+08,-34.96,12155,11317,1,11317,1,-0.00073448,-7.7388e-09,0,1.0233e-05,-0.00017923,-2.9874e+08,-2423.9,0,3.5769e+06,-211.17,11316,11734,1,11734,1,-0.00032826,-4.4791e-09,0,0.00021333,-0.00010315,-1.3351e+08,-1434.7,0,7.8434e+07,-95.147,11733,12578,1,12578,1,0.00055183,-7.4951e-11,0,0.00066676,6.1672e-05,1.8916e+08,-20.473,0,2.4366e+08,48.167,12577,485.01,0,485.01,0,0.00050791,2.649e-09,0,0.00026588,9.5128e-05,1.8462e+08,848.24,0,9.1496e+07,87.744,485.01,1
1560,3.33,12156,1,12156,1,0.00011227,-8.4194e-10,0,0.00044823,-2.0818e-05,2.6233e+07,-271.42,0,1.6287e+08,7.7855,12155,12992,1,12992,1,0.00096115,3.3134e-09,0,0.00096115,0.0001382,3.1245e+08,1040.5,0,3.1245e+08,163.7,12991,12156,1,12156,1,0.00011227,-5.1078e-10,0,0.00044141,-2.0809e-05,4.0791e+07,-161.36,0,1.6489e+08,4.3113,12155,11317,1,11317,1,-0.0007366,-5.4033e-09,0,1.041e-05,-0.00017981,-2.996e+08,-1695.4,0,3.644e+06,-137.14,11316,11734,1,11734,1,-0.00032913,-2.1844e-09,0,0.00021413,-0.00010349,-1.3386e+08,-687.68,0,7.8617e+07,-32.268,11733,12578,1,12578,1,0.00055367,4.8462e-10,0,0.00066867,6.1835e-05,1.897e+08,138.22,0,2.4435e+08,50.65,12577,485.01,0,485.01,0,0.00050948,1.8876e-09,0,0.00026672,9.5421e-05,1.8512e+08,602.58,0,9.1718e+07,62.329,485.01,1
1560,3.34,12156,1,12156,1,0.00011278,-2.2569e-09,0,0.00044965,-2.0912e-05,2.631e+07,-717.26,0,1.6332e+08,-16.964,12155,12992,1,12992,1,0.00096431,9.3874e-10,0,0.00096431,0.0001386,3.1316e+08,256.98,0,3.1316e+08,66.333,12991,12156,1,12156,1,0.00011278,-2.4122e-09,0,0.00044278,-2.0903e-05,4.0976e+07,-762.16,0,1.6536e+08,-4.9435,12155,11317,1,11317,1,-0.00073873,-4.4838e-09,0,1.0602e-05,-0.0001804,-3.0047e+08,-1382.4,0,3.7168e+06,-181.01,11316,11734,1,11734,1,-0.00033,-3.4513e-09,0,0.00021496,-0.00010384,-1.3421e+08,-1104.4,0,7.8797e+07,-35.632,11733,12578,1,12578,1,0.00055556,-1.2241e-09,0,0.0006706,6.1997e-05,1.9024e+08,-376.34,0,2.4505e+08,11.944,12577,485.01,0,485.01,0,0.00051106,1.383e-09,0,0.00026758,9.5717e-05,1.8561e+08,438.59,0,9.1938e+07,45.941,485.01,1
1560,3.35,12156,1,12156,1,0.00011329,-1.6815e-09,0,0.00045106,-2.1006e-05,2.6385e+07,-537.84,0,1.6376e+08,35.338,12155,12992,1,12992,1,0.00096744,1.7098e-09,0,0.00096744,0.00013899,3.1384e+08,527.52,0,3.1384e+08,194.25,12991,12156,1,12156,1,0.00011329,-1.3793e-09,0,0.00044414,-2.0998e-05,4.1161e+07,-442.93,0,1.6583e+08,29.39,12155,11317,1,11317,1,-0.00074084,-5.9632e-09,0,1.0797e-05,-0.00018098,-3.0133e+08,-1856.2,0,3.7907e+06,-158.03,11316,11734,1,11734,1,-0.00033085,-3.1925e-09,0,0.00021579,-0.00010419,-1.3456e+08,-1033,0,7.8973e+07,-10.279,11733,12578,1,12578,1,0.00055743,-4.7354e-11,0,0.00067249,6.2157e-05,1.9077e+08,-14.637,0,2.4573e+08,82.515,12577,485.01,0,485.01,0,0.00051263,1.9721e-09,0,0.00026843,9.6011e-05,1.8609e+08,625.13,0,9.2154e+07,70.864,485.01,1
1560,3.36,12156,1,12156,1,0.0001138,-2.1066e-09,0,0.00045245,-2.11e-05,2.646e+07,-671.7,0,1.642e+08,34.441,12155,12992,1,12992,1,0.00097054,2.6267e-09,0,0.00097054,0.00013938,3.1452e+08,815.47,0,3.1452e+08,192.34,12991,12156,1,12156,1,0.0001138,-1.6715e-09,0,0.00044549,-2.1093e-05,4.1345e+07,-525.2,0,1.6629e+08,28.514,12155,11317,1,11317,1,-0.00074293,-7.768e-09,0,1.0994e-05,-0.00018156,-3.0217e+08,-2425.5,0,3.8655e+06,-151.79,11316,11734,1,11734,1,-0.00033169,-4.0424e-09,0,0.0002166,-0.00010454,-1.349e+08,-1270.9,0,7.9145e+07,-21.625,11733,12578,1,12578,1,0.00055928,-4.3141e-11,0,0.00067436,6.2315e-05,1.9129e+08,-11.966,0,2.4641e+08,102.66,12577,485.01,0,485.01,0,0.00051419,2.5159e-09,0,0.00026927,9.6301e-05,1.8657e+08,800.65,0,9.2367e+07,80.125,485.01,1
1560,3.37,12156,1,12156,1,0.00011431,-6.9166e-10,0,0.00045386,-2.1195e-05,2.6536e+07,-224.6,0,1.6464e+08,12.139,12155,12992,1,12992,1,0.00097367,3.5329e-09,0,0.00097367,0.00013978,3.152e+08,1109.6,0,3.152e+08,165.62,12991,12156,1,12156,1,0.00011431,-3.0093e-10,0,0.00044686,-2.1188e-05,4.1532e+07,-96.652,0,1.6675e+08,8.6315,12155,11317,1,11317,1,-0.00074504,-5.619e-09,0,1.1191e-05,-0.00018214,-3.0303e+08,-1767.5,0,3.94e+06,-139.83,11316,11734,1,11734,1,-0.00033254,-2.0011e-09,0,0.00021743,-0.00010489,-1.3525e+08,-632.24,0,7.9322e+07,-34.301,11733,12578,1,12578,1,0.00056116,6.5764e-10,0,0.00067627,6.2476e-05,1.9183e+08,189.4,0,2.471e+08,59.552,12577,485.01,0,485.01,0,0.00051577,1.9562e-09,0,0.00027012,9.6596e-05,1.8706e+08,624.26,0,9.2585e+07,64.067,485.01,1
1560,3.38,12156,1,12156,1,0.00011483,4.6734e-10,0,0.0004553,-2.1291e-05,2.6613e+07,143.64,0,1.6509e+08,-20.365,12155,12992,1,12992,1,0.00097684,1.1939e-09,0,0.00097684,0.00014018,3.159e+08,347.92,0,3.159e+08,12.108,12991,12156,1,12156,1,0.00011483,4.5542e-10,0,0.00044824,-2.1285e-05,4.1721e+07,148.36,0,1.6723e+08,-20.203,12155,11317,1,11317,1,-0.00074718,-6.7865e-11,0,1.1391e-05,-0.00018274,-3.039e+08,-23.243,0,4.016e+06,-54.816,11316,11734,1,11734,1,-0.00033341,2.3745e-10,0,0.00021827,-0.00010524,-1.356e+08,75.642,0,7.9502e+07,-32.712,11733,12578,1,12578,1,0.00056308,6.44e-10,0,0.00067821,6.2639e-05,1.9237e+08,194.53,0,2.478e+08,-7.6958,12577,485.01,0,485.01,0,0.00051737,2.973e-10,0,0.00027099,9.6896e-05,1.8755e+08,86.678,0,9.2805e+07,14.228,485.01,1
1560,3.39,12156,1,12156,1,0.00011535,-6.6146e-10,0,0.00045669,-2.1386e-05,2.6688e+07,-209.02,0,1.6552e+08,36.137,12155,12992,1,12992,1,0.00097994,3.204e-09,0,0.00097994,0.00014057,3.1656e+08,998.67,0,3.1656e+08,170.14,12991,12156,1,12156,1,0.00011535,-3.648e-10,0,0.00044959,-2.138e-05,4.1907e+07,-111.88,0,1.6768e+08,30.645,12155,11317,1,11317,1,-0.00074925,-4.9283e-09,0,1.1595e-05,-0.00018331,-3.0475e+08,-1524.6,0,4.0934e+06,-92.791,11316,11734,1,11734,1,-0.00033424,-1.9139e-09,0,0.00021909,-0.00010559,-1.3594e+08,-622.31,0,7.967e+07,-12.638,11733,12578,1,12578,1,0.00056493,5.703e-10,0,0.00068007,6.2795e-05,1.9289e+08,176.36,0,2.4847e+08,83.507,12577,485.01,0,485.01,0,0.00051892,1.8033e-09,0,0.00027183,9.7185e-05,1.8802e+08,569.82,0,9.3014e+07,61.697,485.01,1
1560,3.4,12156,1,12156,1,0.00011586,-8.9279e-10,0,0.0004581,-2.1481e-05,2.6764e+07,-284.59,0,1.6596e+08,2.9471,12155,12992,1,12992,1,0.00098309,1.26e-09,0,0.00098309,0.00014097,3.1724e+08,406.03,0,3.1724e+08,78.026,12991,12156,1,12156,1,0.00011586,-7.2477e-10,0,0.00045095,-2.1476e-05,4.2095e+07,-226.2,0,1.6815e+08,2.424,12155,11317,1,11317,1,-0.00075136,-3.5217e-09,0,1.1795e-05,-0.0001839,-3.056e+08,-1109.7,0,4.1692e+06,-86.522,11316,11734,1,11734,1,-0.00033509,-1.6713e-09,0,0.00021993,-0.00010594,-1.3629e+08,-544.35,0,7.9846e+07,-21.424,11733,12578,1,12578,1,0.00056681,-2.7105e-11,0,0.00068197,6.2955e-05,1.9342e+08,-8.9213,0,2.4916e+08,29.831,12577,485.01,0,485.01,0,0.0005205,1.0917e-09,0,0.00027268,9.748e-05,1.8851e+08,349.39,0,9.323e+07,34.432,485.01,1
1560,3.41,12156,1,12156,1,0.00011638,-1.4637e-09,0,0.0004595,-2.1577e-05,2.6839e+07,-465.35,0,1.6639e+08,11.837,12155,12992,1,12992,1,0.00098622,2.5385e-09,0,0.00098622,0.00014136,3.1791e+08,795.87,0,3.1791e+08,164.33,12991,12156,1,12156,1,0.00011638,-1.3018e-09,0,0.00045231,-2.1573e-05,4.2282e+07,-410.07,0,1.6861e+08,13.041,12155,11317,1,11317,1,-0.00075345,-5.4966e-09,0,1.1999e-05,-0.00018448,-3.0646e+08,-1714.3,0,4.2467e+06,-186.3,11316,11734,1,11734,1,-0.00033593,-2.8501e-09,0,0.00022075,-0.00010629,-1.3663e+08,-900.35,0,8.0016e+07,-23.922,11733,12578,1,12578,1,0.00056868,-5.9347e-11,0,0.00068385,6.3112e-05,1.9395e+08,-19.42,0,2.4984e+08,57.188,12577,485.01,0,485.01,0,0.00052206,1.7772e-09,0,0.00027353,9.7772e-05,1.8898e+08,564.02,0,9.3441e+07,61.33,485.01,1
1560,3.42,12156,1,12156,1,0.0001169,-1.4798e-09,0,0.00046092,-2.1673e-05,2.6915e+07,-471.92,0,1.6683e+08,-0.10644,12155,12992,1,12992,1,0.00098936,1.7188e-09,0,0.00098936,0.00014175,3.1859e+08,573.07,0,3.1859e+08,178.23,12991,12156,1,12156,1,0.0001169,-1.6331e-09,0,0.00045367,-2.1669e-05,4.2471e+07,-512.25,0,1.6907e+08,11.372,12155,11317,1,11317,1,-0.00075556,-3.9622e-09,0,1.2203e-05,-0.00018507,-3.0731e+08,-1213.6,0,4.3239e+06,-276.37,11316,11734,1,11734,1,-0.00033677,-2.8157e-09,0,0.00022159,-0.00010664,-1.3697e+08,-897.99,0,8.019e+07,-16.036,11733,12578,1,12578,1,0.00057057,-1.4846e-10,0,0.00068575,6.3271e-05,1.9448e+08,-44.966,0,2.5053e+08,33.47,12577,485.01,0,485.01,0,0.00052363,1.5122e-09,0,0.00027438,9.8067e-05,1.8947e+08,476.91,0,9.3655e+07,65.016,485.01,1
1560,3.43,12156,1,12156,1,0.00011742,-6.8854e-10,0,0.00046233,-2.177e-05,2.699e+07,-223.34,0,1.6727e+08,5.8899,12155,12992,1,12992,1,0.00099251,1.9986e-09,0,0.00099251,0.00014215,3.1925e+08,627.1,0,3.1925e+08,106.42,12991,12156,1,12156,1,0.00011742,-5.4965e-10,0,0.00045504,-2.1767e-05,4.2661e+07,-171.47,0,1.6954e+08,11.285,12155,11317,1,11317,1,-0.00075766,-3.5952e-09,0,1.2411e-05,-0.00018566,-3.0817e+08,-1134.1,0,4.4027e+06,-145.85,11316,11734,1,11734,1,-0.00033762,-1.5766e-09,0,0.00022243,-0.00010699,-1.3731e+08,-511.39,0,8.0362e+07,-12.005,11733,12578,1,12578,1,0.00057246,2.7515e-10,0,0.00068764,6.343e-05,1.9501e+08,79.441,0,2.5121e+08,35.603,12577,485.01,0,485.01,0,0.00052521,1.2192e-09,0,0.00027524,9.8362e-05,1.8995e+08,387.99,0,9.3868e+07,47.639,485.01,1
1560,3.44,12156,1,12156,1,0.00011795,-1.3769e-09,0,0.00046375,-2.1867e-05,2.7066e+07,-438.51,0,1.6771e+08,-2.0652,12155,12992,1,12992,1,0.00099567,9.795e-10,0,0.00099567,0.00014254,3.1993e+08,265.32,0,3.1993e+08,108.56,12991,12156,1,12156,1,0.00011795,-1.3246e-09,0,0.00045641,-2.1865e-05,4.2852e+07,-417.76,0,1.7e+08,-0.73921,12155,11317,1,11317,1,-0.00075977,-3.6781e-09,0,1.262e-05,-0.00018625,-3.0903e+08,-1150.7,0,4.4821e+06,-129.87,11316,11734,1,11734,1,-0.00033846,-2.2507e-09,0,0.00022327,-0.00010734,-1.3766e+08,-717.61,0,8.0534e+07,-28.244,11733,12578,1,12578,1,0.00057435,-4.8163e-10,0,0.00068954,6.3588e-05,1.9554e+08,-145.93,0,2.519e+08,26.012,12577,485.01,0,485.01,0,0.00052679,1.1182e-09,0,0.00027609,9.8657e-05,1.9043e+08,354.94,0,9.4081e+07,47.037,485.01,1
1560,3.45,12156,1,12156,1,0.00011847,-3.3606e-11,0,0.00046517,-2.1964e-05,2.7142e+07,-15.223,0,1.6815e+08,6.3234,12155,12992,1,12992,1,0.00099882,1.7218e-09,0,0.00099882,0.00014294,3.2059e+08,532.63,0,3.2059e+08,88.373,12991,12156,1,12156,1,0.00011847,3.7391e-11,0,0.00045778,-2.1963e-05,4.3044e+07,10.555,0,1.7047e+08,8.0612,12155,11317,1,11317,1,-0.00076187,-2.407e-09,0,1.2831e-05,-0.00018683,-3.0988e+08,-764.28,0,4.562e+06,-65.641,11316,11734,1,11734,1,-0.00033931,-6.5502e-10,0,0.00022411,-0.0001077,-1.38e+08,-208.79,0,8.0706e+07,-19.211,11733,12578,1,12578,1,0.00057625,6.6771e-10,0,0.00069144,6.3747e-05,1.9607e+08,208.6,0,2.5259e+08,29.984,12577,485.01,0,485.01,0,0.00052838,9.6021e-10,0,0.00027695,9.8953e-05,1.9091e+08,305.49,0,9.4294e+07,32.67,485.01,1
1560,3.46,12156,1,12156,1,0.000119,-1.5443e-09,0,0.00046658,-2.2062e-05,2.7217e+07,-488.2,0,1.6858e+08,7.656,12155,12992,1,12992,1,0.001002,9.2098e-10,0,0.001002,0.00014333,3.2125e+08,248.85,0,3.2125e+08,90.182,12991,12156,1,12156,1,0.000119,-1.4902e-09,0,0.00045914,-2.2061e-05,4.3235e+07,-479.18,0,1.7092e+08,9.0427,12155,11317,1,11317,1,-0.00076397,-3.9587e-09,0,1.3045e-05,-0.00018742,-3.1073e+08,-1228.9,0,4.6428e+06,-130.94,11316,11734,1,11734,1,-0.00034014,-2.629e-09,0,0.00022495,-0.00010805,-1.3834e+08,-828.7,0,8.0874e+07,-13.859,11733,12578,1,12578,1,0.00057813,-3.9825e-10,0,0.00069332,6.3903e-05,1.9659e+08,-119.22,0,2.5326e+08,41.697,12577,485.01,0,485.01,0,0.00052994,1.268e-09,0,0.0002778,9.9245e-05,1.9138e+08,399.86,0,9.4503e+07,43.85,485.01,1
1560,3.47,12156,1,12156,1,0.00011953,-1.0413e-09,0,0.00046799,-2.216e-05,2.7293e+07,-332.74,0,1.6902e+08,-10.649,12155,12992,1,12992,1,0.0010051,4.1434e-10,0,0.0010051,0.00014372,3.2191e+08,111.98,0,3.2191e+08,57.771,12991,12156,1,12156,1,0.00011953,-1.1587e-09,0,0.00046051,-2.2159e-05,4.3427e+07,-371.85,0,1.7139e+08,-4.389,12155,11317,1,11317,1,-0.00076607,-2.1017e-09,0,1.3257e-05,-0.00018801,-3.1159e+08,-667.45,0,4.7232e+06,-87.411,11316,11734,1,11734,1,-0.00034098,-1.5481e-09,0,0.0002258,-0.0001084,-1.3868e+08,-497.75,0,8.111e+07,-24.996,11733,12578,1,12578,1,0.00058003,-5.4992e-10,0,0.00069521,6.4061e-05,1.9712e+08,-177.35,0,2.5395e+08,5.813,12577,485.01,0,485.01,0,0.00053152,6.2295e-10,0,0.00027866,9.9541e-05,1.9186e+08,200.51,0,9.4715e+07,28.668,485.01,1
1560,3.48,12156,1,12156,1,0.00012006,-1.341e-10,0,0.0004694,-2.2259e-05,2.7368e+07,-47.414,0,1.6945e+08,-13.068,12155,12992,1,12992,1,0.0010083,1.8772e-09,0,0.0010083,0.00014411,3.2256e+08,565.21,0,3.2256e+08,113.16,12991,12156,1,12156,1,0.00012006,2.0637e-10,0,0.00046187,-2.2259e-05,4.3623e+07,63.781,0,1.7184e+08,-4.845,12155,11317,1,11317,1,-0.00076814,-3.1951e-09,0,1.348e-05,-0.0001886,-3.1243e+08,-1003.4,0,4.8078e+06,-137.22,11316,11734,1,11734,1,-0.0003418,-1.0186e-09,0,0.00022665,-0.00010876,-1.3901e+08,-326.8,0,8.1413e+07,-54.884,11733,12578,1,12578,1,0.00058193,9.0542e-10,0,0.00069708,6.4216e-05,1.9764e+08,278.75,0,2.5462e+08,22.992,12577,485.01,0,485.01,0,0.00053309,1.3332e-09,0,0.00027952,9.9834e-05,1.9233e+08,423.13,0,9.4921e+07,55.155,485.01,1
1560,3.49,12156,1,12156,1,0.00012062,-2.9178e-09,0,0.00047084,-2.2361e-05,2.7443e+07,-925.42,0,1.6988e+08,-28.789,12155,12992,1,12992,1,0.0010115,1.1837e-09,0,0.0010115,0.00014451,3.2321e+08,318.74,0,3.2321e+08,186.38,12991,12156,1,12156,1,0.00012062,-3.0682e-09,0,0.00046325,-2.2362e-05,4.3823e+07,-977.7,0,1.723e+08,-17.385,12155,11317,1,11317,1,-0.00077026,-5.9867e-09,0,1.3714e-05,-0.0001892,-3.1329e+08,-1871,0,4.8966e+06,-289.87,11316,11734,1,11734,1,-0.00034263,-4.2404e-09,0,0.00022752,-0.00010912,-1.3935e+08,-1344.3,0,8.172e+07,-76.958,11733,12578,1,12578,1,0.00058386,-1.6815e-09,0,0.00069897,6.4372e-05,1.9816e+08,-532.6,0,2.553e+08,28.896,12577,485.01,0,485.01,0,0.00053468,1.7095e-09,0,0.00028039,0.00010013,1.9281e+08,543.7,0,9.513e+07,95.108,485.01,1
1560,3.5,12156,1,12156,1,0.00012117,-2.6712e-10,0,0.00047224,-2.2462e-05,2.7517e+07,-93.654,0,1.703e+08,16.692,12155,12992,1,12992,1,0.0010146,4.9743e-09,0,0.0010146,0.00014489,3.2383e+08,1522.6,0,3.2383e+08,179.9,12991,12156,1,12156,1,0.00012117,-3.5284e-11,0,0.00046459,-2.2465e-05,4.4023e+07,-9.8394,0,1.7274e+08,12.613,12155,11317,1,11317,1,-0.00077229,-5.0794e-09,0,1.3952e-05,-0.00018978,-3.1412e+08,-1597.1,0,4.9868e+06,-137.71,11316,11734,1,11734,1,-0.00034342,-1.8018e-09,0,0.00022838,-0.00010947,-1.3967e+08,-567.35,0,8.2023e+07,-42.054,11733,12578,1,12578,1,0.00058576,1.0962e-09,0,0.0007008,6.4521e-05,1.9866e+08,339,0,2.5597e+08,72.064,12577,485.01,0,485.01,0,0.00053624,2.1868e-09,0,0.00028123,0.00010042,1.9327e+08,694.59,0,9.533e+07,72.133,485.01,1
1560,3.51,12156,1,12156,1,0.00012172,-2.5113e-09,0,0.00047368,-2.2566e-05,2.7593e+07,-798.84,0,1.7074e+08,-56.939,12155,12992,1,12992,1,0.0010179,1.1625e-09,0,0.0010179,0.00014529,3.2449e+08,312.48,0,3.2449e+08,110.28,12991,12156,1,12156,1,0.00012172,-2.9322e-09,0,0.00046598,-2.2569e-05,4.4226e+07,-921.74,0,1.732e+08,-40.224,12155,11317,1,11317,1,-0.00077441,-4.5641e-09,0,1.4191e-05,-0.00019038,-3.1498e+08,-1439.3,0,5.0772e+06,-299.29,11316,11734,1,11734,1,-0.00034425,-3.7419e-09,0,0.00022926,-0.00010983,-1.4001e+08,-1206.8,0,8.2334e+07,-114.06,11733,12578,1,12578,1,0.0005877,-1.4227e-09,0,0.0007027,6.4677e-05,1.9919e+08,-447.19,0,2.5665e+08,8.6834,12577,485.01,0,485.01,0,0.00053784,1.5012e-09,0,0.00028211,0.00010072,1.9374e+08,475.67,0,9.5539e+07,87.08,485.01,1
1560,3.52,12156,1,12156,1,0.00012228,-2.3951e-09,0,0.0004751,-2.2669e-05,2.7668e+07,-766.16,0,1.7116e+08,-22.713,12155,12992,1,12992,1,0.0010211,1.2129e-09,0,0.0010211,0.00014568,3.2512e+08,325.59,0,3.2512e+08,165.75,12991,12156,1,12156,1,0.00012228,-2.5621e-09,0,0.00046735,-2.2673e-05,4.4429e+07,-823.43,0,1.7366e+08,-15.547,12155,11317,1,11317,1,-0.00077649,-5.2166e-09,0,1.4433e-05,-0.00019098,-3.1582e+08,-1645.2,0,5.169e+06,-214.86,11316,11734,1,11734,1,-0.00034506,-3.6601e-09,0,0.00023013,-0.00011019,-1.4034e+08,-1177,0,8.2643e+07,-74.815,11733,12578,1,12578,1,0.00058963,-1.304e-09,0,0.00070456,6.483e-05,1.997e+08,-388.05,0,2.5732e+08,28.052,12577,485.01,0,485.01,0,0.00053942,1.5508e-09,0,0.00028297,0.00010102,1.9421e+08,497.33,0,9.5743e+07,80.498,485.01,1
1560,3.53,12156,1,12156,1,0.00012284,-3.4325e-09,0,0.00047652,-2.2773e-05,2.7742e+07,-1093.9,0,1.7159e+08,-31.085,12155,12992,1,12992,1,0.0010243,1.2472e-09,0,0.0010243,0.00014607,3.2575e+08,334.42,0,3.2575e+08,199.28,12991,12156,1,12156,1,0.00012284,-3.706e-09,0,0.00046872,-2.2777e-05,4.4633e+07,-1183.5,0,1.7411e+08,-21.542,12155,11317,1,11317,1,-0.00077856,-6.9042e-09,0,1.4677e-05,-0.00019158,-3.1667e+08,-2172.6,0,5.2613e+06,-255.16,11316,11734,1,11734,1,-0.00034587,-4.9713e-09,0,0.00023101,-0.00011055,-1.4067e+08,-1583.3,0,8.2951e+07,-90.245,11733,12578,1,12578,1,0.00059156,-2.04e-09,0,0.00070642,6.4982e-05,2.0021e+08,-622.38,0,2.5799e+08,24.7,12577,485.01,0,485.01,0,0.000541,1.9778e-09,0,0.00028384,0.00010131,1.9467e+08,637.24,0,9.5945e+07,93.955,485.01,1
1560,3.54,12156,1,12156,1,0.0001234,-4.1075e-09,0,0.00047793,-2.2876e-05,2.7817e+07,-1309.8,0,1.7201e+08,-14.759,12155,12992,1,12992,1,0.0010274,1.9902e-09,0,0.0010274,0.00014646,3.2637e+08,532.88,0,3.2637e+08,364.41,12991,12156,1,12156,1,0.0001234,-3.7665e-09,0,0.00047008,-2.2881e-05,4.4836e+07,-1190.5,0,1.7455e+08,-22.684,12155,11317,1,11317,1,-0.00078062,-1.0954e-08,0,1.4922e-05,-0.00019217,-3.1751e+08,-3435.6,0,5.3541e+06,-329.32,11316,11734,1,11734,1,-0.00034667,-6.7234e-09,0,0.00023188,-0.00011091,-1.4099e+08,-2139.6,0,8.3258e+07,-103.12,11733,12578,1,12578,1,0.00059347,-1.4494e-09,0,0.00070826,6.5132e-05,2.0072e+08,-460.64,0,2.5866e+08,65.409,12577,485.01,0,485.01,0,0.00054257,3.1586e-09,0,0.00028469,0.0001016,1.9513e+08,1009,0,9.6145e+07,136.88,485.01,1
1560,3.55,12156,1,12156,1,0.00012396,-4.6105e-09,0,0.00047936,-2.298e-05,2.7891e+07,-1471.5,0,1.7244e+08,-51.83,12155,12992,1,12992,1,0.0010306,1.9924e-09,0,0.0010306,0.00014685,3.27e+08,532.99,0,3.27e+08,266.85,12991,12156,1,12156,1,0.00012396,-4.9276e-09,0,0.00047145,-2.2986e-05,4.504e+07,-1535.5,0,1.75e+08,-46.8,12155,11317,1,11317,1,-0.0007827,-9.7096e-09,0,1.5166e-05,-0.00019277,-3.1835e+08,-3069.9,0,5.4465e+06,-463.35,11316,11734,1,11734,1,-0.00034748,-7.0966e-09,0,0.00023276,-0.00011127,-1.4133e+08,-2281.1,0,8.3568e+07,-151.69,11733,12578,1,12578,1,0.00059541,-2.3284e-09,0,0.00071013,6.5284e-05,2.0124e+08,-738.5,0,2.5933e+08,55.345,12577,485.01,0,485.01,0,0.00054415,2.9482e-09,0,0.00028556,0.0001019,1.956e+08,947.35,0,9.6348e+07,142.84,485.01,1
1560,3.56,12156,1,12156,1,0.00012453,-1.5009e-09,0,0.00048078,-2.3084e-05,2.7966e+07,-492.11,0,1.7286e+08,-12.434,12155,12992,1,12992,1,0.0010338,3.2737e-09,0,0.0010338,0.00014723,3.2761e+08,993.23,0,3.2761e+08,187.3,12991,12156,1,12156,1,0.00012453,-1.2154e-09,0,0.00047282,-2.3091e-05,4.5245e+07,-383.88,0,1.7545e+08,-1.8405,12155,11317,1,11317,1,-0.00078475,-6.4421e-09,0,1.5415e-05,-0.00019336,-3.1918e+08,-2034.3,0,5.5408e+06,-251.75,11316,11734,1,11734,1,-0.00034828,-3.2947e-09,0,0.00023364,-0.00011163,-1.4165e+08,-1045.3,0,8.3878e+07,-70.873,11733,12578,1,12578,1,0.00059734,4.24e-10,0,0.00071199,6.5435e-05,2.0175e+08,123.06,0,2.6e+08,45.295,12577,485.01,0,485.01,0,0.00054573,2.2762e-09,0,0.00028642,0.00010219,1.9606e+08,727.07,0,9.6549e+07,89.953,485.01,1
1560,3.57,12156,1,12156,1,0.0001251,-3.4782e-09,0,0.00048221,-2.3189e-05,2.8041e+07,-1108.4,0,1.7329e+08,-55.759,12155,12992,1,12992,1,0.001037,1.6998e-09,0,0.001037,0.00014762,3.2824e+08,453.63,0,3.2824e+08,188.47,12991,12156,1,12156,1,0.0001251,-3.6529e-09,0,0.00047419,-2.3197e-05,4.5452e+07,-1157.1,0,1.759e+08,-49.01,12155,11317,1,11317,1,-0.00078684,-7.8582e-09,0,1.5667e-05,-0.00019396,-3.2003e+08,-2477.5,0,5.6362e+06,-275.24,11316,11734,1,11734,1,-0.00034909,-5.054e-09,0,0.00023453,-0.00011199,-1.4198e+08,-1621.6,0,8.4191e+07,-129.02,11733,12578,1,12578,1,0.00059929,-1.9698e-09,0,0.00071385,6.5587e-05,2.0226e+08,-601.63,0,2.6067e+08,14.063,12577,485.01,0,485.01,0,0.00054732,2.1488e-09,0,0.00028729,0.00010249,1.9652e+08,690.62,0,9.6752e+07,103.03,485.01,1
1560,3.58,12156,1,12156,1,0.00012567,-3.4724e-09,0,0.00048365,-2.3295e-05,2.8116e+07,-1108.9,0,1.7371e+08,-26.942,12155,12992,1,12992,1,0.0010403,1.3243e-09,0,0.0010403,0.00014801,3.2886e+08,353.14,0,3.2886e+08,187.15,12991,12156,1,12156,1,0.00012567,-3.6032e-09,0,0.00047558,-2.3304e-05,4.566e+07,-1124,0,1.7636e+08,-19.504,12155,11317,1,11317,1,-0.00078892,-7.4779e-09,0,1.592e-05,-0.00019456,-3.2088e+08,-2367.4,0,5.7319e+06,-250.65,11316,11734,1,11734,1,-0.0003499,-5.1923e-09,0,0.00023542,-0.00011235,-1.4231e+08,-1666.2,0,8.4505e+07,-86.895,11733,12578,1,12578,1,0.00060124,-1.9114e-09,0,0.00071573,6.5739e-05,2.0278e+08,-577.74,0,2.6135e+08,28.557,12577,485.01,0,485.01,0,0.00054892,2.1472e-09,0,0.00028817,0.00010279,1.9699e+08,694.59,0,9.6954e+07,90.394,485.01,1
1560,3.59,12156,1,12156,1,0.00012624,-3.1123e-09,0,0.00048507,-2.34e-05,2.819e+07,-994.64,0,1.7413e+08,-13.834,12155,12992,1,12992,1,0.0010435,1.1682e-09,0,0.0010435,0.0001484,3.2947e+08,311.12,0,3.2947e+08,159.05,12991,12156,1,12156,1,0.00012624,-3.2908e-09,0,0.00047694,-2.341e-05,4.5867e+07,-1038.4,0,1.768e+08,-7.4274,12155,11317,1,11317,1,-0.00079097,-6.6054e-09,0,1.6176e-05,-0.00019515,-3.2171e+08,-2094,0,5.8286e+06,-200.99,11316,11734,1,11734,1,-0.0003507,-4.5737e-09,0,0.0002363,-0.00011271,-1.4263e+08,-1480.3,0,8.4817e+07,-62.868,11733,12578,1,12578,1,0.00060318,-1.7649e-09,0,0.00071757,6.5888e-05,2.0328e+08,-525.96,0,2.6201e+08,29.213,12577,485.01,0,485.01,0,0.00055049,1.8675e-09,0,0.00028903,0.00010308,1.9745e+08,605.97,0,9.7152e+07,70.162,485.01,1
1560,3.6,12156,1,12156,1,0.00012681,-2.9987e-09,0,0.0004865,-2.3506e-05,2.8265e+07,-958.36,0,1.7456e+08,5.3357,12155,12992,1,12992,1,0.0010467,1.5336e-09,0,0.0010467,0.00014879,3.3008e+08,407.79,0,3.3008e+08,260.12,12991,12156,1,12156,1,0.00012681,-2.7929e-09,0,0.00047831,-2.3517e-05,4.6076e+07,-873.18,0,1.7725e+08,11.791,12155,11317,1,11317,1,-0.00079304,-8.1771e-09,0,1.6431e-05,-0.00019575,-3.2256e+08,-2578.3,0,5.9252e+06,-237.23,11316,11734,1,11734,1,-0.0003515,-5.1943e-09,0,0.00023719,-0.00011307,-1.4296e+08,-1671.3,0,8.513e+07,-69.023,11733,12578,1,12578,1,0.00060512,-7.8175e-10,0,0.00071942,6.6039e-05,2.0379e+08,-245.11,0,2.6268e+08,74.742,12577,485.01,0,485.01,0,0.00055207,2.5454e-09,0,0.0002899,0.00010338,1.9791e+08,814.51,0,9.7351e+07,105.05,485.01,1
1560,3.61,12156,1,12156,1,0.00012739,-4.3002e-09,0,0.00048794,-2.3613e-05,2.834e+07,-1368,0,1.7498e+08,-45.83,12155,12992,1,12992,1,0.0010499,1.4481e-09,0,0.0010499,0.00014918,3.307e+08,384.63,0,3.307e+08,138.98,12991,12156,1,12156,1,0.00012739,-4.5501e-09,0,0.0004797,-2.3624e-05,4.6286e+07,-1442.7,0,1.777e+08,-23.758,12155,11317,1,11317,1,-0.00079513,-8.388e-09,0,1.669e-05,-0.00019636,-3.2341e+08,-2622.9,0,6.0231e+06,-367.08,11316,11734,1,11734,1,-0.00035231,-6.4847e-09,0,0.00023809,-0.00011344,-1.4329e+08,-2086.5,0,8.5447e+07,-130.26,11733,12578,1,12578,1,0.00060709,-2.3741e-09,0,0.0007213,6.6191e-05,2.0431e+08,-751.34,0,2.6336e+08,44.192,12577,485.01,0,485.01,0,0.00055367,2.559e-09,0,0.00029078,0.00010368,1.9837e+08,821.28,0,9.7553e+07,113.66,485.01,1
1560,3.62,12156,1,12156,1,0.00012797,-2.4264e-09,0,0.00048936,-2.3719e-05,2.8414e+07,-780.46,0,1.754e+08,8.5937,12155,12992,1,12992,1,0.0010531,1.2665e-09,0,0.0010531,0.00014956,3.313e+08,335.94,0,3.313e+08,210.99,12991,12156,1,12156,1,0.00012797,-2.1934e-09,0,0.00048106,-2.3731e-05,4.6495e+07,-702.78,0,1.7815e+08,6.2048,12155,11317,1,11317,1,-0.00079716,-6.7488e-09,0,1.6951e-05,-0.00019695,-3.2423e+08,-2133.1,0,6.1216e+06,-170.59,11316,11734,1,11734,1,-0.00035309,-4.1459e-09,0,0.00023898,-0.0001138,-1.436e+08,-1334.4,0,8.5759e+07,-43.561,11733,12578,1,12578,1,0.00060902,-6.9358e-10,0,0.00072313,6.6338e-05,2.0481e+08,-215.36,0,2.6402e+08,51.439,12577,485.01,0,485.01,0,0.00055524,2.0674e-09,0,0.00029164,0.00010397,1.9882e+08,663.46,0,9.7747e+07,76.262,485.01,1
1560,3.63,12156,1,12156,1,0.00012854,-3.4928e-09,0,0.00049078,-2.3826e-05,2.8487e+07,-1111.8,0,1.7581e+08,-9.4896,12155,12992,1,12992,1,0.0010563,1.306e-09,0,0.0010563,0.00014994,3.319e+08,346.02,0,3.319e+08,207.91,12991,12156,1,12156,1,0.00012854,-3.2255e-09,0,0.00048242,-2.3839e-05,4.6704e+07,-1018.9,0,1.7859e+08,-7.3123,12155,11317,1,11317,1,-0.00079921,-8.8709e-09,0,1.7212e-05,-0.00019755,-3.2507e+08,-2796.8,0,6.2201e+06,-218.95,11316,11734,1,11734,1,-0.00035388,-5.7056e-09,0,0.00023987,-0.00011416,-1.4393e+08,-1824.3,0,8.6072e+07,-71.687,11733,12578,1,12578,1,0.00061096,-1.2439e-09,0,0.00072496,6.6486e-05,2.0531e+08,-388.25,0,2.6468e+08,45.971,12577,485.01,0,485.01,0,0.00055681,2.6156e-09,0,0.00029251,0.00010426,1.9928e+08,840.93,0,9.7944e+07,84.439,485.01,1
1560,3.64,12156,1,12156,1,0.00012914,-9.2887e-10,0,0.00049223,-2.3936e-05,2.8563e+07,-305.94,0,1.7624e+08,-2.3112,12155,12992,1,12992,1,0.0010596,9.3092e-10,0,0.0010596,0.00015033,3.325e+08,246.58,0,3.325e+08,102.37,12991,12156,1,12156,1,0.00012914,-5.8385e-10,0,0.00048381,-2.395e-05,4.692e+07,-184.2,0,1.7904e+08,-4.7653,12155,11317,1,11317,1,-0.00080128,-3.6791e-09,0,1.7489e-05,-0.00019815,-3.2591e+08,-1202.4,0,6.3248e+06,-84.06,11316,11734,1,11734,1,-0.00035467,-1.8017e-09,0,0.00024079,-0.00011453,-1.4425e+08,-576.77,0,8.6388e+07,-30.096,11733,12578,1,12578,1,0.00061295,1.0139e-10,0,0.00072683,6.6635e-05,2.0582e+08,31.196,0,2.6535e+08,23.727,12577,485.01,0,485.01,0,0.00055842,1.2079e-09,0,0.00029339,0.00010456,1.9974e+08,391.8,0,9.8143e+07,38.669,485.01,1
1560,3.65,12156,1,12156,1,0.00012974,-1.6995e-09,0,0.00049366,-2.4047e-05,2.8636e+07,-542.7,0,1.7665e+08,21.667,12155,12992,1,12992,1,0.0010628,1.3973e-09,0,0.0010628,0.00015072,3.3309e+08,437.36,0,3.3309e+08,131.4,12991,12156,1,12156,1,0.00012974,-1.362e-09,0,0.00048519,-2.4062e-05,4.7137e+07,-426.36,0,1.7947e+08,14.682,12155,11317,1,11317,1,-0.00080332,-5.5839e-09,0,1.7776e-05,-0.00019876,-3.2674e+08,-1763.2,0,6.4332e+06,-74.663,11316,11734,1,11734,1,-0.00035544,-3.1274e-09,0,0.00024171,-0.0001149,-1.4456e+08,-990.51,0,8.6702e+07,-16.92,11733,12578,1,12578,1,0.00061493,-1.5599e-10,0,0.00072866,6.678e-05,2.0632e+08,-47.218,0,2.6601e+08,63.306,12577,485.01,0,485.01,0,0.00056001,1.8122e-09,0,0.00029427,0.00010486,2.0019e+08,581.47,0,9.8335e+07,51.155,485.01,1
1560,3.66,12156,1,12156,1,0.00013035,-2.1606e-09,0,0.00049509,-2.4159e-05,2.871e+07,-687.37,0,1.7706e+08,-12.504,12155,12992,1,12992,1,0.0010661,1.4099e-09,0,0.0010661,0.0001511,3.3367e+08,456.76,0,3.3367e+08,122.16,12991,12156,1,12156,1,0.00013035,-1.9471e-09,0,0.00048656,-2.4175e-05,4.7355e+07,-599,0,1.7991e+08,-13.91,12155,11317,1,11317,1,-0.00080536,-6.1016e-09,0,1.8063e-05,-0.00019936,-3.2757e+08,-1929.3,0,6.5416e+06,-143.77,11316,11734,1,11734,1,-0.00035621,-3.8452e-09,0,0.00024263,-0.00011527,-1.4488e+08,-1224.4,0,8.7016e+07,-60.309,11733,12578,1,12578,1,0.0006169,-4.8459e-10,0,0.00073048,6.6925e-05,2.0682e+08,-145.27,0,2.6666e+08,37.2,12577,485.01,0,485.01,0,0.00056159,1.963e-09,0,0.00029515,0.00010516,2.0063e+08,632.01,0,9.8526e+07,62.216,485.01,1
1560,3.67,12156,1,12156,1,0.00013095,-3.7806e-09,0,0.00049651,-2.427e-05,2.8782e+07,-1199.9,0,1.7746e+08,54.684,12155,12992,1,12992,1,0.0010693,4.7096e-09,0,0.0010693,0.00015148,3.3424e+08,1482.3,0,3.3424e+08,389.84,12991,12156,1,12156,1,0.00013095,-2.6476e-09,0,0.00048792,-2.4286e-05,4.7571e+07,-848.73,0,1.8034e+08,38.567,12155,11317,1,11317,1,-0.00080739,-1.494e-08,0,1.8349e-05,-0.00019996,-3.2839e+08,-4686.7,0,6.6496e+06,-185.98,11316,11734,1,11734,1,-0.00035696,-7.5536e-09,0,0.00024354,-0.00011563,-1.4518e+08,-2397.8,0,8.7326e+07,-53.004,11733,12578,1,12578,1,0.00061885,2.645e-10,0,0.00073227,6.7067e-05,2.073e+08,73.45,0,2.6731e+08,136.82,12577,485.01,0,485.01,0,0.00056315,4.9682e-09,0,0.00029601,0.00010545,2.0107e+08,1581.9,0,9.8714e+07,141.99,485.01,1
1560,3.68,12156,1,12156,1,0.00013156,-2.7099e-09,0,0.00049797,-2.4383e-05,2.8858e+07,-868.22,0,1.7788e+08,-15.572,12155,12992,1,12992,1,0.0010726,1.4523e-09,0,0.0010726,0.00015186,3.3483e+08,382.74,0,3.3483e+08,123.25,12991,12156,1,12156,1,0.00013156,-2.3241e-09,0,0.00048932,-2.4401e-05,4.7791e+07,-718.33,0,1.8079e+08,-11.903,12155,11317,1,11317,1,-0.00080945,-7.6514e-09,0,1.8637e-05,-0.00020058,-3.2923e+08,-2457.1,0,6.7584e+06,-209.37,11316,11734,1,11734,1,-0.00035775,-4.4945e-09,0,0.00024447,-0.000116,-1.455e+08,-1430.7,0,8.7645e+07,-60.331,11733,12578,1,12578,1,0.00062086,-8.2309e-10,0,0.00073414,6.7215e-05,2.0781e+08,-244.91,0,2.6798e+08,34.2,12577,485.01,0,485.01,0,0.00056477,2.2945e-09,0,0.0002969,0.00010575,2.0153e+08,747.01,0,9.8911e+07,69.767,485.01,1
1560,3.69,12156,1,12156,1,0.00013217,-2.3659e-09,0,0.00049942,-2.4497e-05,2.8932e+07,-757.75,0,1.783e+08,-3.0186,12155,12992,1,12992,1,0.0010759,1.2337e-09,0,0.0010759,0.00015225,3.3541e+08,324.57,0,3.3541e+08,121.83,12991,12156,1,12156,1,0.00013218,-2.1511e-09,0,0.0004907,-2.4515e-05,4.8013e+07,-678.87,0,1.8123e+08,2.0861,12155,11317,1,11317,1,-0.0008115,-6.2011e-09,0,1.8934e-05,-0.00020119,-3.3006e+08,-1974.2,0,6.8703e+06,-204.29,11316,11734,1,11734,1,-0.00035852,-3.91e-09,0,0.00024541,-0.00011638,-1.4582e+08,-1248.4,0,8.7964e+07,-29.803,11733,12578,1,12578,1,0.00062287,-7.9705e-10,0,0.00073598,6.736e-05,2.0831e+08,-243.52,0,2.6864e+08,36.732,12577,485.01,0,485.01,0,0.00056637,1.8836e-09,0,0.00029779,0.00010605,2.0198e+08,610.83,0,9.9103e+07,61.347,485.01,1
1560,3.7,12156,1,12156,1,0.00013279,-2.0575e-09,0,0.00050088,-2.4611e-05,2.9006e+07,-659.06,0,1.7871e+08,-7.0022,12155,12992,1,12992,1,0.0010792,1.1696e-09,0,0.0010792,0.00015264,3.3599e+08,307.15,0,3.3599e+08,88.164,12991,12156,1,12156,1,0.00013279,-2.2615e-09,0,0.0004921,-2.4631e-05,4.8236e+07,-698.16,0,1.8167e+08,8.2314,12155,11317,1,11317,1,-0.00081356,-4.4378e-09,0,1.9232e-05,-0.0002018,-3.309e+08,-1403,0,6.9827e+06,-238.44,11316,11734,1,11734,1,-0.0003593,-3.2421e-09,0,0.00024635,-0.00011675,-1.4613e+08,-1051.9,0,8.8285e+07,-17.225,11733,12578,1,12578,1,0.00062489,-9.9127e-10,0,0.00073783,6.7506e-05,2.0881e+08,-299.55,0,2.6931e+08,28.177,12577,485.01,0,485.01,0,0.00056798,1.4112e-09,0,0.00029868,0.00010635,2.0243e+08,453.32,0,9.9296e+07,60.515,485.01,1
1560,3.71,12156,1,12156,1,0.00013342,-1.842e-10,0,0.00050233,-2.4726e-05,2.9081e+07,-68.164,0,1.7912e+08,-10.738,12155,12992,1,12992,1,0.0010824,6.2342e-10,0,0.0010824,0.00015302,3.3656e+08,170.89,0,3.3656e+08,30.602,12991,12156,1,12156,1,0.00013342,-3.0386e-10,0,0.00049348,-2.4746e-05,4.846e+07,-95.994,0,1.821e+08,-3.1351,12155,11317,1,11317,1,-0.00081559,-8.9467e-10,0,1.9533e-05,-0.00020241,-3.3173e+08,-304.31,0,7.0962e+06,-115,11316,11734,1,11734,1,-0.00036007,-5.479e-10,0,0.0002473,-0.00011713,-1.4644e+08,-185.57,0,8.8605e+07,-18.057,11733,12578,1,12578,1,0.0006269,2.0054e-10,0,0.00073967,6.765e-05,2.0931e+08,58.188,0,2.6997e+08,10.122,12577,485.01,0,485.01,0,0.00056959,4.3881e-10,0,0.00029957,0.00010665,2.0287e+08,137.03,0,9.9486e+07,31.632,485.01,1
1560,3.72,12156,1,12156,1,0.00013403,-1.3879e-09,0,0.00050376,-2.484e-05,2.9154e+07,-439.84,0,1.7953e+08,12.728,12155,12992,1,12992,1,0.0010857,4.4132e-10,0,0.0010857,0.0001534,3.3712e+08,115.52,0,3.3712e+08,67.257,12991,12156,1,12156,1,0.00013403,-1.4221e-09,0,0.00049485,-2.4861e-05,4.8682e+07,-450.31,0,1.8254e+08,13.875,12155,11317,1,11317,1,-0.00081762,-3.1418e-09,0,1.9835e-05,-0.00020302,-3.3255e+08,-986.44,0,7.21e+06,-87.536,11316,11734,1,11734,1,-0.00036082,-1.9872e-09,0,0.00024823,-0.0001175,-1.4675e+08,-631.68,0,8.8922e+07,-3.5246,11733,12578,1,12578,1,0.00062889,-7.9593e-10,0,0.00074148,6.7791e-05,2.098e+08,-235,0,2.7062e+08,34.631,12577,485.01,0,485.01,0,0.00057117,8.4518e-10,0,0.00030045,0.00010694,2.0331e+08,271.6,0,9.9673e+07,29.353,485.01,1
1560,3.73,12156,1,12156,1,0.00013465,1.9267e-10,0,0.00050521,-2.4955e-05,2.9228e+07,53.883,0,1.7994e+08,29.386,12155,12992,1,12992,1,0.001089,3.2819e-09,0,0.001089,0.00015378,3.3768e+08,1013.8,0,3.3768e+08,171.92,12991,12156,1,12156,1,0.00013465,9.5617e-11,0,0.00049624,-2.4977e-05,4.8905e+07,26.928,0,1.8297e+08,25.936,12155,11317,1,11317,1,-0.00081966,-1.6178e-09,0,2.0136e-05,-0.00020363,-3.3338e+08,-515.1,0,7.3232e+06,-75.484,11316,11734,1,11734,1,-0.00036158,-6.5173e-10,0,0.00024917,-0.00011787,-1.4706e+08,-207.1,0,8.9242e+07,-3.6091,11733,12578,1,12578,1,0.00063089,7.5578e-10,0,0.00074331,6.7935e-05,2.1029e+08,225.96,0,2.7127e+08,56.533,12577,485.01,0,485.01,0,0.00057277,1.1111e-09,0,0.00030134,0.00010724,2.0376e+08,350.33,0,9.9863e+07,50.824,485.01,1
1560,3.74,12156,1,12156,1,0.00013527,-2.2814e-09,0,0.00050664,-2.507e-05,2.9301e+07,-719.31,0,1.8034e+08,18.359,12155,12992,1,12992,1,0.0010922,9.8773e-10,0,0.0010922,0.00015416,3.3824e+08,257.8,0,3.3824e+08,121.58,12991,12156,1,12156,1,0.00013528,-2.0562e-09,0,0.00049761,-2.5093e-05,4.9129e+07,-622.97,0,1.834e+08,16.638,12155,11317,1,11317,1,-0.00082169,-5.8902e-09,0,2.0441e-05,-0.00020424,-3.3421e+08,-1843.6,0,7.4381e+06,-116.37,11316,11734,1,11734,1,-0.00036233,-3.5088e-09,0,0.00025011,-0.00011824,-1.4737e+08,-1118,0,8.956e+07,-8.982,11733,12578,1,12578,1,0.00063288,-9.4697e-10,0,0.00074511,6.8076e-05,2.1078e+08,-295.64,0,2.7192e+08,46.701,12577,485.01,0,485.01,0,0.00057435,1.6531e-09,0,0.00030222,0.00010754,2.0419e+08,527.77,0,1.0005e+08,47.361,485.01,1
1560,3.75,12156,1,12156,1,0.0001359,-2.6472e-10,0,0.00050809,-2.5185e-05,2.9374e+07,-91.852,0,1.8075e+08,-0.30423,12155,12992,1,12992,1,0.0010955,1.7023e-09,0,0.0010955,0.00015454,3.388e+08,527.59,0,3.388e+08,129.93,12991,12156,1,12156,1,0.0001359,-2.3469e-10,0,0.000499,-2.5209e-05,4.9354e+07,-72.728,0,1.8384e+08,1.1524,12155,11317,1,11317,1,-0.00082371,-1.4966e-09,0,2.0746e-05,-0.00020485,-3.3503e+08,-506.69,0,7.5527e+06,-120.26,11316,11734,1,11734,1,-0.0003631,-8.7395e-10,0,0.00025105,-0.00011861,-1.4768e+08,-283.81,0,8.9881e+07,-28.017,11733,12578,1,12578,1,0.0006349,2.8421e-10,0,0.00074694,6.8219e-05,2.1128e+08,78.949,0,2.7258e+08,21.86,12577,485.01,0,485.01,0,0.00057595,7.1817e-10,0,0.00030311,0.00010784,2.0464e+08,230.35,0,1.0024e+08,40.333,485.01,1
1560,3.76,12156,1,12156,1,0.00013652,-1.1402e-09,0,0.00050953,-2.53e-05,2.9447e+07,-362.96,0,1.8115e+08,26.337,12155,12992,1,12992,1,0.0010988,2.4181e-09,0,0.0010988,0.00015492,3.3935e+08,762.11,0,3.3935e+08,158.23,12991,12156,1,12156,1,0.00013652,-8.3985e-10,0,0.00050037,-2.5325e-05,4.9579e+07,-261.67,0,1.8427e+08,25.129,12155,11317,1,11317,1,-0.00082573,-4.9961e-09,0,2.1055e-05,-0.00020546,-3.3585e+08,-1566.9,0,7.669e+06,-141.78,11316,11734,1,11734,1,-0.00036384,-2.4113e-09,0,0.00025199,-0.00011898,-1.4798e+08,-763.31,0,9.02e+07,-13.82,11733,12578,1,12578,1,0.00063689,1.754e-10,0,0.00074873,6.8359e-05,2.1176e+08,47.674,0,2.7322e+08,69.184,12577,485.01,0,485.01,0,0.00057753,1.713e-09,0,0.00030399,0.00010813,2.0507e+08,544.93,0,1.0042e+08,54.547,485.01,1
1560,3.77,12156,1,12156,1,0.00013716,-1.815e-09,0,0.00051098,-2.5417e-05,2.9521e+07,-575.94,0,1.8156e+08,-4.8013,12155,12992,1,12992,1,0.0011021,8.0098e-10,0,0.0011021,0.0001553,3.3992e+08,208.41,0,3.3992e+08,73.258,12991,12156,1,12156,1,0.00013716,-1.8656e-09,0,0.00050176,-2.5443e-05,4.9806e+07,-582.06,0,1.8471e+08,1.5643,12155,11317,1,11317,1,-0.00082778,-4.172e-09,0,2.1364e-05,-0.00020607,-3.3669e+08,-1325.3,0,7.7852e+06,-147.22,11316,11734,1,11734,1,-0.0003646,-2.655e-09,0,0.00025295,-0.00011936,-1.4829e+08,-838.42,0,9.0523e+07,-22.127,11733,12578,1,12578,1,0.00063891,-9.7911e-10,0,0.00075057,6.8503e-05,2.1226e+08,-295,0,2.7388e+08,23.926,12577,485.01,0,485.01,0,0.00057914,1.1618e-09,0,0.00030488,0.00010843,2.0552e+08,375.21,0,1.0061e+08,45.307,485.01,1
1560,3.78,12156,1,12156,1,0.00013779,1.6985e-10,0,0.00051244,-2.5535e-05,2.9595e+07,45.553,0,1.8197e+08,-16.574,12155,12992,1,12992,1,0.0011054,8.5881e-10,0,0.0011054,0.00015568,3.4047e+08,244.42,0,3.4047e+08,29.085,12991,12156,1,12156,1,0.00013779,1.1514e-10,0,0.00050315,-2.5561e-05,5.0035e+07,35.588,0,1.8514e+08,-17.264,12155,11317,1,11317,1,-0.00082981,-5.8104e-10,0,2.1679e-05,-0.00020669,-3.3751e+08,-198.93,0,7.9035e+06,-64.209,11316,11734,1,11734,1,-0.00036536,-1.1485e-10,0,0.0002539,-0.00011974,-1.486e+08,-38.667,0,9.0848e+07,-31.054,11733,12578,1,12578,1,0.00064094,4.5083e-10,0,0.0007524,6.8644e-05,2.1275e+08,130.86,0,2.7454e+08,-3.7288,12577,485.01,0,485.01,0,0.00058074,3.5056e-10,0,0.00030578,0.00010873,2.0596e+08,104.57,0,1.008e+08,18.483,485.01,1
1560,3.79,12156,1,12156,1,0.00013843,-1.2448e-09,0,0.00051388,-2.5652e-05,2.9668e+07,-393.18,0,1.8237e+08,14.324,12155,12992,1,12992,1,0.0011087,7.3701e-10,0,0.0011087,0.00015606,3.4101e+08,191,0,3.4101e+08,80.887,12991,12156,1,12156,1,0.00013843,-1.3168e-09,0,0.00050453,-2.568e-05,5.0263e+07,-401.53,0,1.8557e+08,20.601,12155,11317,1,11317,1,-0.00083183,-2.9195e-09,0,2.1996e-05,-0.0002073,-3.3833e+08,-910.47,0,8.0227e+06,-111,11316,11734,1,11734,1,-0.0003661,-2.0085e-09,0,0.00025486,-0.00012011,-1.489e+08,-638.76,0,9.1171e+07,-0.48635,11733,12578,1,12578,1,0.00064296,-5.1474e-10,0,0.0007542,6.8785e-05,2.1324e+08,-161.72,0,2.7519e+08,39.033,12577,485.01,0,485.01,0,0.00058234,9.063e-10,0,0.00030666,0.00010903,2.0639e+08,285.44,0,1.0098e+08,37.398,485.01,1
1560,3.8,12156,1,12156,1,0.00013907,-4.7134e-09,0,0.00051533,-2.5771e-05,2.9741e+07,-1485.9,0,1.8277e+08,-3.3709,12155,12992,1,12992,1,0.001112,1.7125e-09,0,0.001112,0.00015644,3.4155e+08,443.27,0,3.4155e+08,195.15,12991,12156,1,12156,1,0.00013907,-4.9136e-09,0,0.00050591,-2.58e-05,5.0492e+07,-1549.6,0,1.8599e+08,0.35846,12155,11317,1,11317,1,-0.00083386,-9.5439e-09,0,2.2324e-05,-0.00020792,-3.3916e+08,-2959.3,0,8.1457e+06,-289.57,11316,11734,1,11734,1,-0.00036683,-7.0776e-09,0,0.00025582,-0.00012049,-1.492e+08,-2240.5,0,9.1491e+07,-78.485,11733,12578,1,12578,1,0.00064498,-2.6526e-09,0,0.00075599,6.8922e-05,2.1372e+08,-810.98,0,2.7583e+08,74.942,12577,485.01,0,485.01,0,0.00058392,2.8172e-09,0,0.00030755,0.00010933,2.0682e+08,895.75,0,1.0116e+08,104.72,485.01,1
1560,3.81,12156,1,12156,1,0.00013972,-2.4352e-09,0,0.00051677,-2.5892e-05,2.9813e+07,-783.08,0,1.8317e+08,-1.5177,12155,12992,1,12992,1,0.0011153,1.6003e-09,0,0.0011153,0.00015682,3.4207e+08,466.76,0,3.4207e+08,154.86,12991,12156,1,12156,1,0.00013972,-2.3647e-09,0,0.00050729,-2.5921e-05,5.0722e+07,-740.47,0,1.8641e+08,11.286,12155,11317,1,11317,1,-0.00083584,-6.5834e-09,0,2.2656e-05,-0.00020853,-3.3997e+08,-2138.2,0,8.2702e+06,-195.43,11316,11734,1,11734,1,-0.00036756,-4.4169e-09,0,0.00025679,-0.00012087,-1.4949e+08,-1418.5,0,9.1811e+07,-56.11,11733,12578,1,12578,1,0.00064701,-4.2677e-10,0,0.00075777,6.9058e-05,2.1419e+08,-133.42,0,2.7647e+08,55.347,12577,485.01,0,485.01,0,0.00058551,2.2168e-09,0,0.00030844,0.00010962,2.0725e+08,714.73,0,1.0134e+08,72.922,485.01,1
1560,3.82,12156,1,12156,1,0.00014039,-1.8445e-09,0,0.00051824,-2.6014e-05,2.9887e+07,-593.49,0,1.8357e+08,-15.446,12155,12992,1,12992,1,0.0011186,9.1128e-10,0,0.0011186,0.00015719,3.4261e+08,235.61,0,3.4261e+08,92.312,12991,12156,1,12156,1,0.00014039,-1.7772e-09,0,0.00050868,-2.6044e-05,5.0955e+07,-535.72,0,1.8684e+08,-2.6185,12155,11317,1,11317,1,-0.00083786,-4.8229e-09,0,2.2996e-05,-0.00020915,-3.4079e+08,-1582.4,0,8.3978e+06,-144.95,11316,11734,1,11734,1,-0.00036829,-3.2633e-09,0,0.00025777,-0.00012125,-1.4979e+08,-1044.9,0,9.2134e+07,-58.767,11733,12578,1,12578,1,0.00064906,-4.6594e-10,0,0.00075958,6.9196e-05,2.1468e+08,-132.93,0,2.7712e+08,25.299,12577,485.01,0,485.01,0,0.00058712,1.5718e-09,0,0.00030935,0.00010992,2.0768e+08,510.4,0,1.0152e+08,54.072,485.01,1
1560,3.83,12156,1,12156,1,0.00014105,-3.6081e-10,0,0.00051971,-2.6137e-05,2.996e+07,-124.24,0,1.8397e+08,-19.17,12155,12992,1,12992,1,0.001122,5.801e-10,0,0.001122,0.00015757,3.4314e+08,156.48,0,3.4314e+08,13.568,12991,12156,1,12156,1,0.00014105,-5.0075e-10,0,0.00051009,-2.6168e-05,5.1191e+07,-156.13,0,1.8727e+08,-10.685,12155,11317,1,11317,1,-0.00083988,-9.7553e-10,0,2.3341e-05,-0.00020978,-3.4161e+08,-333.91,0,8.5272e+06,-95.002,11316,11734,1,11734,1,-0.00036903,-7.938e-10,0,0.00025877,-0.00012163,-1.5009e+08,-263.77,0,9.2461e+07,-34.119,11733,12578,1,12578,1,0.00065114,9.9569e-11,0,0.0007614,6.9335e-05,2.1516e+08,28.13,0,2.7777e+08,-0.71663,12577,485.01,0,485.01,0,0.00058875,4.7924e-10,0,0.00031026,0.00011023,2.0812e+08,152.57,0,1.0171e+08,23.832,485.01,1
1560,3.84,12156,1,12156,1,0.00014172,1.3035e-10,0,0.00052117,-2.6261e-05,3.0033e+07,36.525,0,1.8436e+08,-7.1113,12155,12992,1,12992,1,0.0011253,6.5028e-10,0,0.0011253,0.00015795,3.4366e+08,187.35,0,3.4366e+08,28.097,12991,12156,1,12156,1,0.00014172,7.8653e-11,0,0.00051147,-2.6293e-05,5.1426e+07,24.625,0,1.8769e+08,-7.2823,12155,11317,1,11317,1,-0.00084188,-2.4438e-10,0,2.369e-05,-0.0002104,-3.4242e+08,-83.509,0,8.6582e+06,-53.527,11316,11734,1,11734,1,-0.00036975,-8.2465e-11,0,0.00025976,-0.00012202,-1.5038e+08,-26.921,0,9.2787e+07,-16.426,11733,12578,1,12578,1,0.0006532,3.2957e-10,0,0.00076319,6.947e-05,2.1564e+08,95.001,0,2.7841e+08,0.49401,12577,485.01,0,485.01,0,0.00059035,2.4559e-10,0,0.00031116,0.00011052,2.0854e+08,73.576,0,1.0189e+08,13.504,485.01,1
1560,3.85,12156,1,12156,1,0.00014239,-3.1937e-09,0,0.00052262,-2.6384e-05,3.0105e+07,-1003.2,0,1.8475e+08,18.479,12155,12992,1,12992,1,0.0011287,1.3619e-09,0,0.0011287,0.00015833,3.4418e+08,349.84,0,3.4418e+08,155.47,12991,12156,1,12156,1,0.00014239,-3.2352e-09,0,0.00051286,-2.6417e-05,5.1661e+07,-1023.2,0,1.8811e+08,29.953,12155,11317,1,11317,1,-0.0008439,-6.8589e-09,0,2.4038e-05,-0.00021102,-3.4324e+08,-2131.8,0,8.7886e+06,-202.62,11316,11734,1,11734,1,-0.00037047,-4.9666e-09,0,0.00026074,-0.0001224,-1.5067e+08,-1565.2,0,9.311e+07,-29.948,11733,12578,1,12578,1,0.00065525,-1.5788e-09,0,0.00076497,6.9605e-05,2.1611e+08,-506.19,0,2.7905e+08,75.503,12577,485.01,0,485.01,0,0.00059195,2.1153e-09,0,0.00031205,0.00011082,2.0896e+08,664.29,0,1.0206e+08,77.902,485.01,1
1560,3.86,12156,1,12156,1,0.00014305,-3.2097e-09,0,0.00052405,-2.6506e-05,3.0176e+07,-1020,0,1.8514e+08,9.9406,12155,12992,1,12992,1,0.001132,4.8766e-09,0,0.001132,0.0001587,3.4467e+08,1481.6,0,3.4467e+08,293.26,12991,12156,1,12156,1,0.00014305,-2.7952e-09,0,0.00051422,-2.654e-05,5.1894e+07,-839.66,0,1.8852e+08,8.9395,12155,11317,1,11317,1,-0.00084586,-1.1237e-08,0,2.4383e-05,-0.00021163,-3.4404e+08,-3538,0,8.9179e+06,-271.12,11316,11734,1,11734,1,-0.00037116,-6.5309e-09,0,0.00026171,-0.00012277,-1.5096e+08,-2078.9,0,9.3429e+07,-86.742,11733,12578,1,12578,1,0.00065726,1.5833e-10,0,0.00076671,6.9736e-05,2.1658e+08,41.864,0,2.7967e+08,107.72,12577,485.01,0,485.01,0,0.00059351,4.0523e-09,0,0.00031294,0.00011111,2.0938e+08,1285.2,0,1.0224e+08,125.45,485.01,1
1560,3.87,12156,1,12156,1,0.00014372,-3.0296e-09,0,0.00052553,-2.663e-05,3.025e+07,-966.15,0,1.8554e+08,-25.547,12155,12992,1,12992,1,0.0011353,1.7711e-09,0,0.0011353,0.00015907,3.452e+08,454.36,0,3.452e+08,173.2,12991,12156,1,12156,1,0.00014372,-2.8841e-09,0,0.00051562,-2.6665e-05,5.2131e+07,-903.34,0,1.8895e+08,-14.169,12155,11317,1,11317,1,-0.00084788,-7.7402e-09,0,2.4732e-05,-0.00021226,-3.4486e+08,-2521,0,9.0484e+06,-206.1,11316,11734,1,11734,1,-0.00037189,-5.0591e-09,0,0.00026271,-0.00012316,-1.5125e+08,-1615.3,0,9.3756e+07,-85.9,11733,12578,1,12578,1,0.00065934,-1.0212e-09,0,0.00076852,6.9874e-05,2.1706e+08,-306.65,0,2.8032e+08,33.053,12577,485.01,0,485.01,0,0.00059513,2.3681e-09,0,0.00031385,0.00011142,2.0981e+08,765.15,0,1.0242e+08,77.626,485.01,1
1560,3.88,12156,1,12156,1,0.0001444,-5.0872e-09,0,0.00052699,-2.6755e-05,3.0322e+07,-1610.9,0,1.8593e+08,-5.3305,12155,12992,1,12992,1,0.0011387,2.0666e-09,0,0.0011387,0.00015945,3.4571e+08,529.2,0,3.4571e+08,195.53,12991,12156,1,12156,1,0.0001444,-5.1254e-09,0,0.00051702,-2.6791e-05,5.2369e+07,-1604,0,1.8937e+08,14.834,12155,11317,1,11317,1,-0.0008499,-1.1087e-08,0,2.5087e-05,-0.00021289,-3.4568e+08,-3534.2,0,9.1812e+06,-291.51,11316,11734,1,11734,1,-0.00037261,-7.741e-09,0,0.00026371,-0.00012354,-1.5155e+08,-2487.7,0,9.4084e+07,-79.225,11733,12578,1,12578,1,0.00066141,-2.6736e-09,0,0.00077031,7.0009e-05,2.1754e+08,-808.65,0,2.8096e+08,70.532,12577,485.01,0,485.01,0,0.00059674,3.1971e-09,0,0.00031476,0.00011172,2.1023e+08,1030.9,0,1.0259e+08,101.52,485.01,1
1560,3.89,12156,1,12156,1,0.00014508,-2.6006e-09,0,0.00052844,-2.688e-05,3.0394e+07,-841.1,0,1.8631e+08,-0.62809,12155,12992,1,12992,1,0.001142,3.5504e-09,0,0.001142,0.00015982,3.4621e+08,1062.3,0,3.4648e+08,220.98,12991,12156,1,12156,1,0.00014508,-2.1941e-09,0,0.0005184,-2.6917e-05,5.2607e+07,-687.72,0,1.8978e+08,13.568,12155,11317,1,11317,1,-0.00085186,-9.217e-09,0,2.5443e-05,-0.0002135,-3.4648e+08,-2999.1,0,9.3147e+06,-222,11316,11734,1,11734,1,-0.00037331,-5.3818e-09,0,0.0002647,-0.00012393,-1.5183e+08,-1702.4,0,9.4409e+07,-83.242,11733,12578,1,12578,1,0.00066346,2.506e-10,0,0.00077207,7.014e-05,2.18e+08,75.633,0,2.8159e+08,77.521,12577,485.01,0,485.01,0,0.00059833,3.2823e-09,0,0.00031565,0.00011201,2.1065e+08,1050.6,0,1.0277e+08,101.14,485.01,1
1560,3.9,12156,1,12156,1,0.00014576,-3.464e-09,0,0.00052991,-2.7006e-05,3.0467e+07,-1104.3,0,1.8671e+08,-25.875,12155,12992,1,12992,1,0.0011454,1.6674e-09,0,0.0011454,0.0001602,3.4672e+08,425.97,0,3.473e+08,159.83,12991,12156,1,12156,1,0.00014576,-3.2503e-09,0,0.00051979,-2.7043e-05,5.2846e+07,-1009.4,0,1.902e+08,-2.0399,12155,11317,1,11317,1,-0.00085386,-9.0445e-09,0,2.5803e-05,-0.00021413,-3.473e+08,-2937,0,9.4491e+06,-228.1,11316,11734,1,11734,1,-0.00037403,-5.9686e-09,0,0.00026571,-0.00012431,-1.5212e+08,-1901.4,0,9.4737e+07,-101.48,11733,12578,1,12578,1,0.00066554,-1.0084e-09,0,0.00077386,7.0275e-05,2.1848e+08,-304.94,0,2.8223e+08,43.215,12577,485.01,0,485.01,0,0.00059994,2.8295e-09,0,0.00031656,0.00011231,2.1107e+08,915.11,0,1.0294e+08,92.676,485.01,1
1560,3.91,12156,1,12156,1,0.00014644,-2.9845e-09,0,0.00053137,-2.7132e-05,3.054e+07,-954.61,0,1.871e+08,-21.889,12155,12992,1,12992,1,0.0011488,1.5178e-09,0,0.0011488,0.00016057,3.4722e+08,387.2,0,3.4811e+08,151.43,12991,12156,1,12156,1,0.00014644,-2.7593e-09,0,0.00052119,-2.7171e-05,5.3087e+07,-849.94,0,1.9062e+08,4.0127,12155,11317,1,11317,1,-0.00085586,-8.1104e-09,0,2.6166e-05,-0.00021476,-3.4811e+08,-2643,0,9.5849e+06,-230.25,11316,11734,1,11734,1,-0.00037474,-5.2738e-09,0,0.00026671,-0.0001247,-1.5241e+08,-1686.5,0,9.5067e+07,-95.857,11733,12578,1,12578,1,0.00066762,-6.5419e-10,0,0.00077564,7.0408e-05,2.1895e+08,-201.98,0,2.828e+08,47.047,12577,485.01,0,485.01,0,0.00060155,2.605e-09,0,0.00031747,0.00011261,2.1149e+08,842.71,0,1.0312e+08,90.108,485.01,1
1560,3.92,12156,1,12156,1,0.00014713,-2.9248e-09,0,0.00053285,-2.7259e-05,3.0612e+07,-933.82,0,1.8749e+08,-18.52,12155,12992,1,12992,1,0.0011521,1.4359e-09,0,0.0011521,0.00016095,3.4772e+08,365.73,0,3.4892e+08,119.09,12991,12156,1,12156,1,0.00014713,-2.802e-09,0,0.00052258,-2.7299e-05,5.3329e+07,-863.11,0,1.9104e+08,-3.1891,12155,11317,1,11317,1,-0.00085786,-7.3047e-09,0,2.6532e-05,-0.00021538,-3.4892e+08,-2379.7,0,9.7216e+06,-168.55,11316,11734,1,11734,1,-0.00037545,-4.8798e-09,0,0.00026772,-0.00012509,-1.527e+08,-1560.5,0,9.5398e+07,-78.856,11733,12578,1,12578,1,0.00066971,-1.0528e-09,0,0.00077743,7.0542e-05,2.1943e+08,-307.61,0,2.8328e+08,40.428,12577,485.01,0,485.01,0,0.00060317,2.2324e-09,0,0.00031838,0.00011292,2.1191e+08,723.91,0,1.033e+08,72.14,485.01,1
1560,3.93,12156,1,12156,1,0.00014781,-2.1717e-09,0,0.00053429,-2.7385e-05,3.0683e+07,-698.7,0,1.8787e+08,-6.0527,12155,12992,1,12992,1,0.0011555,5.5919e-09,0,0.0011555,0.00016131,3.4819e+08,1720.6,0,3.4971e+08,217.27,12991,12156,1,12156,1,0.00014782,-1.9774e-09,0,0.00052396,-2.7426e-05,5.3569e+07,-607.09,0,1.9145e+08,6.3035,12155,11317,1,11317,1,-0.00085981,-8.6261e-09,0,2.69e-05,-0.000216,-3.4971e+08,-2786.3,0,9.8589e+06,-283.94,11316,11734,1,11734,1,-0.00037613,-5.0718e-09,0,0.00026872,-0.00012547,-1.5298e+08,-1603.4,0,9.5724e+07,-84.956,11733,12578,1,12578,1,0.00067176,5.3546e-10,0,0.00077917,7.0671e-05,2.1989e+08,144.47,0,2.8374e+08,81.639,12577,485.01,0,485.01,0,0.00060475,3.4326e-09,0,0.00031928,0.00011321,2.1232e+08,1092.8,0,1.0346e+08,111.34,485.01,1
1560,3.94,12156,1,12156,1,0.00014851,-3.5744e-09,0,0.00053577,-2.7513e-05,3.0756e+07,-1133.6,0,1.8826e+08,-33.026,12155,12992,1,12992,1,0.0011589,1.6314e-09,0,0.0011589,0.00016169,3.487e+08,414.21,0,3.5053e+08,159.62,12991,12156,1,12156,1,0.00014851,-3.4841e-09,0,0.00052536,-2.7555e-05,5.3812e+07,-1078.7,0,1.9187e+08,-6.4823,12155,11317,1,11317,1,-0.00086183,-8.7384e-09,0,2.7267e-05,-0.00021663,-3.5053e+08,-2823.5,0,9.9961e+06,-254.48,11316,11734,1,11734,1,-0.00037685,-5.9906e-09,0,0.00026974,-0.00012586,-1.5327e+08,-1917.3,0,9.6056e+07,-109.95,11733,12578,1,12578,1,0.00067386,-1.2259e-09,0,0.00078097,7.0805e-05,2.2036e+08,-372.01,0,2.8423e+08,41.427,12577,485.01,0,485.01,0,0.00060637,2.7424e-09,0,0.0003202,0.00011351,2.1275e+08,884.63,0,1.0364e+08,97.677,485.01,1
1560,3.95,12156,1,12156,1,0.0001492,-2.9105e-09,0,0.00053724,-2.7642e-05,3.0829e+07,-930.02,0,1.8865e+08,-20.192,12155,12992,1,12992,1,0.0011622,1.4448e-09,0,0.0011622,0.00016206,3.4919e+08,366.36,0,3.5134e+08,153.12,12991,12156,1,12156,1,0.0001492,-2.7592e-09,0,0.00052676,-2.7684e-05,5.4057e+07,-870.36,0,1.9228e+08,4.4743,12155,11317,1,11317,1,-0.00086382,-7.5107e-09,0,2.7641e-05,-0.00021726,-3.5134e+08,-2450.4,0,1.0136e+07,-226.07,11316,11734,1,11734,1,-0.00037755,-5.0915e-09,0,0.00027076,-0.00012625,-1.5355e+08,-1618.3,0,9.6389e+07,-91.996,11733,12578,1,12578,1,0.00067595,-7.8568e-10,0,0.00078274,7.0937e-05,2.2084e+08,-232.61,0,2.847e+08,49.977,12577,485.01,0,485.01,0,0.00060799,2.4364e-09,0,0.00032111,0.00011381,2.1316e+08,788.1,0,1.0381e+08,88.338,485.01,1
1560,3.96,12156,1,12156,1,0.00014991,-1.9694e-09,0,0.00053873,-2.7773e-05,3.0902e+07,-635.87,0,1.8904e+08,-18.032,12155,12992,1,12992,1,0.0011657,1.2192e-09,0,0.0011657,0.00016244,3.4967e+08,308.8,0,3.5215e+08,92.916,12991,12156,1,12156,1,0.00014991,-2.0807e-09,0,0.00052817,-2.7816e-05,5.4304e+07,-636.42,0,1.927e+08,-6.4857,12155,11317,1,11317,1,-0.00086581,-4.2482e-09,0,2.8025e-05,-0.0002179,-3.5215e+08,-1399.8,0,1.0279e+07,-234.92,11316,11734,1,11734,1,-0.00037825,-3.3615e-09,0,0.0002718,-0.00012664,-1.5384e+08,-1070.7,0,9.6723e+07,-28.831,11733,12578,1,12578,1,0.00067808,-7.6935e-10,0,0.00078453,7.1069e-05,2.2131e+08,-240.89,0,2.8517e+08,11.102,12577,485.01,0,485.01,0,0.00060962,1.4906e-09,0,0.00032204,0.00011412,2.1358e+08,484.15,0,1.0399e+08,55.952,485.01,1
1560,3.97,12156,1,12156,1,0.00015063,-1.7282e-09,0,0.0005402,-2.7906e-05,3.0973e+07,-557.25,0,1.8942e+08,-11.765,12155,12992,1,12992,1,0.001169,9.6494e-10,0,0.001169,0.00016281,3.5014e+08,243.94,0,3.5295e+08,73.6,12991,12156,1,12156,1,0.00015063,-1.9461e-09,0,0.00052956,-2.7949e-05,5.455e+07,-605.37,0,1.9311e+08,-2.2659,12155,11317,1,11317,1,-0.00086777,-3.5782e-09,0,2.8421e-05,-0.00021853,-3.5295e+08,-1162.3,0,1.0425e+07,-222.09,11316,11734,1,11734,1,-0.00037893,-2.8935e-09,0,0.00027284,-0.00012703,-1.5412e+08,-939.62,0,9.7053e+07,-19.945,11733,12578,1,12578,1,0.00068019,-7.088e-10,0,0.00078628,7.1196e-05,2.2177e+08,-212.59,0,2.8563e+08,14.167,12577,485.01,0,485.01,0,0.00061123,1.2733e-09,0,0.00032295,0.00011442,2.1399e+08,409.38,0,1.0416e+08,47.702,485.01,1
1560,3.98,12156,1,12156,1,0.00015135,-2.0766e-09,0,0.00054167,-2.8038e-05,3.1044e+07,-664.1,0,1.8979e+08,19.712,12155,12992,1,12992,1,0.0011724,1.433e-09,0,0.0011724,0.00016317,3.5061e+08,419.21,0,3.5375e+08,175.35,12991,12156,1,12156,1,0.00015135,-1.9414e-09,0,0.00053095,-2.8082e-05,5.4796e+07,-596.91,0,1.9351e+08,18.565,12155,11317,1,11317,1,-0.00086973,-6.7194e-09,0,2.8817e-05,-0.00021916,-3.5375e+08,-2111.8,0,1.0572e+07,-158.98,11316,11734,1,11734,1,-0.0003796,-3.6947e-09,0,0.00027387,-0.00012742,-1.5439e+08,-1181.5,0,9.7382e+07,-20.407,11733,12578,1,12578,1,0.00068229,-4.1107e-10,0,0.00078802,7.1323e-05,2.2222e+08,-122.42,0,2.8608e+08,68.311,12577,485.01,0,485.01,0,0.00061283,2.0027e-09,0,0.00032387,0.00011472,2.1439e+08,637.88,0,1.0432e+08,62.012,485.01,1
1560,3.99,12156,1,12156,1,0.00015207,-3.1552e-09,0,0.00054314,-2.8171e-05,3.1116e+07,-1000.6,0,1.9017e+08,-12.289,12155,12992,1,12992,1,0.0011759,1.1396e-09,0,0.0011759,0.00016354,3.5107e+08,287.14,0,3.5455e+08,152.54,12991,12156,1,12156,1,0.00015207,-3.4113e-09,0,0.00053235,-2.8216e-05,5.5044e+07,-1056.2,0,1.9392e+08,1.0175,12155,11317,1,11317,1,-0.0008717,-6.29e-09,0,2.9215e-05,-0.00021979,-3.5455e+08,-2007.3,0,1.0719e+07,-275.23,11316,11734,1,11734,1,-0.00038028,-4.8955e-09,0,0.00027492,-0.00012782,-1.5466e+08,-1564.6,0,9.7714e+07,-31.035,11733,12578,1,12578,1,0.00068441,-1.5761e-09,0,0.00078978,7.145e-05,2.2268e+08,-462.41,0,2.8654e+08,21.825,12577,485.01,0,485.01,0,0.00061444,1.9589e-09,0,0.00032479,0.00011502,2.148e+08,635.13,0,1.0449e+08,65.61,485.01,1
1560,4,12156,1,12156,1,0.00015279,-1.2393e-09,0,0.00054462,-2.8305e-05,3.1188e+07,-406.49,0,1.9055e+08,-15.523,12155,12992,1,12992,1,0.0011793,1.0388e-09,0,0.0011793,0.00016391,3.5153e+08,261.43,0,3.5535e+08,69.556,12991,12156,1,12156,1,0.00015279,-1.0872e-09,0,0.00053375,-2.8351e-05,5.5294e+07,-339.93,0,1.9432e+08,-11.177,12155,11317,1,11317,1,-0.00087366,-4.0727e-09,0,2.9618e-05,-0.00022043,-3.5535e+08,-1331.9,0,1.0869e+07,-158.82,11316,11734,1,11734,1,-0.00038095,-2.3368e-09,0,0.00027597,-0.00012821,-1.5494e+08,-756.51,0,9.8047e+07,-41.518,11733,12578,1,12578,1,0.00068654,-5.5381e-11,0,0.00079153,7.1577e-05,2.2314e+08,-14.515,0,2.8699e+08,20.73,12577,485.01,0,485.01,0,0.00061606,1.3534e-09,0,0.00032571,0.00011532,2.152e+08,436.79,0,1.0466e+08,49.215,485.01,1
1560,4.01,12156,1,12156,1,0.00015353,-2.2982e-09,0,0.00054612,-2.844e-05,3.126e+07,-731.34,0,1.9093e+08,-8.0338,12155,12992,1,12992,1,0.0011827,1.2065e-09,0,0.0011827,0.00016429,3.52e+08,302.94,0,3.5616e+08,76.138,12991,12156,1,12156,1,0.00015353,-2.5286e-09,0,0.00053517,-2.8487e-05,5.5545e+07,-787.74,0,1.9473e+08,0.97941,12155,11317,1,11317,1,-0.00087565,-4.6733e-09,0,3.0025e-05,-0.00022107,-3.5616e+08,-1476.7,0,1.1019e+07,-175.22,11316,11734,1,11734,1,-0.00038164,-3.6001e-09,0,0.00027703,-0.00012861,-1.5522e+08,-1161,0,9.8383e+07,-22.297,11733,12578,1,12578,1,0.00068869,-1.231e-09,0,0.0007933,7.1706e-05,2.236e+08,-359.65,0,2.8745e+08,23.756,12577,485.01,0,485.01,0,0.0006177,1.4935e-09,0,0.00032665,0.00011562,2.1562e+08,480.1,0,1.0483e+08,46.074,485.01,1
1560,4.02,12156,1,12156,1,0.00015426,-1.1179e-09,0,0.00054759,-2.8575e-05,3.1331e+07,-365.92,0,1.9131e+08,17.793,12155,12992,1,12992,1,0.0011861,2.698e-09,0,0.0011861,0.00016465,3.5245e+08,824.67,0,3.5695e+08,177.11,12991,12156,1,12156,1,0.00015426,-9.5305e-10,0,0.00053656,-2.8623e-05,5.5796e+07,-283.19,0,1.9514e+08,14.433,12155,11317,1,11317,1,-0.0008776,-5.0337e-09,0,3.0436e-05,-0.00022171,-3.5695e+08,-1592.3,0,1.1171e+07,-111.25,11316,11734,1,11734,1,-0.0003823,-2.6426e-09,0,0.00027808,-0.00012901,-1.5548e+08,-837.63,0,9.8716e+07,-20.351,11733,12578,1,12578,1,0.00069081,3.6203e-10,0,0.00079503,7.183e-05,2.2405e+08,97.468,0,2.8789e+08,55.968,12577,485.01,0,485.01,0,0.0006193,1.8238e-09,0,0.00032757,0.00011592,2.1601e+08,577.91,0,1.0499e+08,55.086,485.01,1
1560,4.03,12156,1,12156,1,0.00015499,-2.5638e-09,0,0.00054907,-2.8711e-05,3.1402e+07,-813.29,0,1.9168e+08,1.6984,12155,12992,1,12992,1,0.0011896,1.4317e-09,0,0.0011896,0.00016502,3.529e+08,358.29,0,3.5775e+08,160.16,12991,12156,1,12156,1,0.00015499,-2.6014e-09,0,0.00053796,-2.8759e-05,5.6047e+07,-800.27,0,1.9554e+08,4.1398,12155,11317,1,11317,1,-0.00087956,-5.8546e-09,0,3.0846e-05,-0.00022234,-3.5775e+08,-1856.7,0,1.1323e+07,-185.66,11316,11734,1,11734,1,-0.00038296,-4.296e-09,0,0.00027913,-0.0001294,-1.5575e+08,-1364.5,0,9.9049e+07,-22.335,11733,12578,1,12578,1,0.00069294,-9.2206e-10,0,0.00079677,7.1955e-05,2.2451e+08,-289.38,0,2.8834e+08,35.082,12577,485.01,0,485.01,0,0.00062091,1.8907e-09,0,0.00032849,0.00011622,2.1641e+08,607.9,0,1.0515e+08,57.348,485.01,1
1560,4.04,12156,1,12156,1,0.00015573,-2.815e-09,0,0.00055053,-2.8847e-05,3.1472e+07,-894.18,0,1.9204e+08,41.535,12155,12992,1,12992,1,0.001193,6.0766e-09,0,0.001193,0.00016538,3.5333e+08,1882,0,3.5853e+08,397.19,12991,12156,1,12156,1,0.00015573,-2.4123e-09,0,0.00053934,-2.8897e-05,5.6298e+07,-707.46,0,1.9593e+08,28.165,12155,11317,1,11317,1,-0.00088148,-1.0666e-08,0,3.1269e-05,-0.00022298,-3.5853e+08,-3364.7,0,1.1478e+07,-305.54,11316,11734,1,11734,1,-0.0003836,-6.2476e-09,0,0.00028019,-0.0001298,-1.5601e+08,-1957.9,0,9.9378e+07,-68.066,11733,12578,1,12578,1,0.00069506,3.9103e-10,0,0.00079847,7.2076e-05,2.2495e+08,107.31,0,2.8877e+08,150.51,12577,485.01,0,485.01,0,0.00062251,4.0557e-09,0,0.00032941,0.00011652,2.168e+08,1284.2,0,1.0531e+08,146.24,485.01,1
1560,4.05,12156,1,12156,1,0.0001565,-3.5702e-09,0,0.00055205,-2.8989e-05,3.1545e+07,-1130.8,0,1.9242e+08,-18.437,12155,12992,1,12992,1,0.0011965,1.4352e-09,0,0.0011965,0.00016575,3.5379e+08,358.33,0,3.5934e+08,177.24,12991,12156,1,12156,1,0.0001565,-3.5725e-09,0,0.00054078,-2.9039e-05,5.6554e+07,-1104.4,0,1.9634e+08,-1.0852,12155,11317,1,11317,1,-0.00088348,-7.769e-09,0,3.1706e-05,-0.00022363,-3.5934e+08,-2529.1,0,1.1637e+07,-266.59,11316,11734,1,11734,1,-0.00038427,-5.475e-09,0,0.0002813,-0.00013021,-1.5629e+08,-1746,0,9.9715e+07,-93.226,11733,12578,1,12578,1,0.00069727,-1.8048e-09,0,0.00080025,7.2202e-05,2.2541e+08,-535.1,0,2.8922e+08,53.682,12577,485.01,0,485.01,0,0.00062417,2.3246e-09,0,0.00033036,0.00011683,2.1721e+08,755.94,0,1.0548e+08,93.118,485.01,1
1560,4.06,12156,1,12156,1,0.00015728,-1.4922e-10,0,0.00055356,-2.9133e-05,3.1616e+07,-71.908,0,1.9279e+08,-16.143,12155,12992,1,12992,1,0.0012,1.2009e-09,0,0.0012,0.00016612,3.5421e+08,343.02,0,3.6012e+08,78.084,12991,12156,1,12156,1,0.00015728,-2.9655e-11,0,0.0005422,-2.9183e-05,5.6812e+07,-8.4193,0,1.9673e+08,-4.3904,12155,11317,1,11317,1,-0.0008854,-2.0816e-09,0,3.2157e-05,-0.00022428,-3.6012e+08,-712.49,0,1.1802e+07,-151.47,11316,11734,1,11734,1,-0.00038491,-1.0253e-09,0,0.0002824,-0.00013061,-1.5655e+08,-340.07,0,1.0005e+08,-50.121,11733,12578,1,12578,1,0.00069947,7.9604e-10,0,0.00080198,7.2321e-05,2.2585e+08,212.86,0,2.8965e+08,23.269,12577,485.01,0,485.01,0,0.00062581,1.0015e-09,0,0.00033131,0.00011714,2.176e+08,313.04,0,1.0564e+08,49.502,485.01,1
1560,4.07,12156,1,12156,1,0.00015806,-1.0845e-09,0,0.00055506,-2.9277e-05,3.1688e+07,-348.37,0,1.9316e+08,-23.696,12155,12992,1,12992,1,0.0012035,3.3639e-10,0,0.0012035,0.00016648,3.5464e+08,83.547,0,3.6092e+08,57.09,12991,12156,1,12156,1,0.00015806,-1.195e-09,0,0.00054362,-2.9328e-05,5.7071e+07,-369.92,0,1.9712e+08,-11.787,12155,11317,1,11317,1,-0.00088736,-3.2038e-09,0,3.2611e-05,-0.00022493,-3.6092e+08,-986.35,0,1.1967e+07,-137.96,11316,11734,1,11734,1,-0.00038555,-1.5884e-09,0,0.00028351,-0.00013102,-1.5681e+08,-530.67,0,1.0039e+08,-42.997,11733,12578,1,12578,1,0.00070168,-4.7254e-10,0,0.00080372,7.2442e-05,2.263e+08,-141.42,0,2.9008e+08,3.923,12577,485.01,0,485.01,0,0.00062745,8.0539e-10,0,0.00033226,0.00011744,2.18e+08,258.59,0,1.058e+08,38.268,485.01,1
1560,4.08,12156,1,12156,1,0.00015884,-4.509e-09,0,0.00055656,-2.9421e-05,3.1758e+07,-1411.3,0,1.9352e+08,42.978,12155,12992,1,12992,1,0.001207,1.3814e-09,0,0.001207,0.00016685,3.5506e+08,342.54,0,3.6171e+08,299.42,12991,12156,1,12156,1,0.00015884,-4.8788e-09,0,0.00054502,-2.9472e-05,5.7329e+07,-1501,0,1.9751e+08,37.537,12155,11317,1,11317,1,-0.0008893,-8.52e-09,0,3.3065e-05,-0.00022559,-3.6171e+08,-2656.4,0,1.2133e+07,-210.89,11316,11734,1,11734,1,-0.00038618,-6.5138e-09,0,0.00028461,-0.00013143,-1.5706e+08,-2064.7,0,1.0072e+08,-28.314,11733,12578,1,12578,1,0.00070386,-2.6034e-09,0,0.00080542,7.256e-05,2.2674e+08,-815.61,0,2.905e+08,116.22,12577,485.01,0,485.01,0,0.00062907,2.5078e-09,0,0.0003332,0.00011774,2.1838e+08,800.57,0,1.0596e+08,107.9,485.01,1
1560,4.09,12156,1,12156,1,0.00015962,-2.3696e-09,0,0.00055806,-2.9565e-05,3.1829e+07,-761.37,0,1.9388e+08,28.656,12155,12992,1,12992,1,0.0012105,1.1052e-09,0,0.0012105,0.00016721,3.5548e+08,274.03,0,3.6249e+08,183.6,12991,12156,1,12156,1,0.00015962,-2.4499e-09,0,0.00054644,-2.9617e-05,5.7588e+07,-761.34,0,1.979e+08,28.37,12155,11317,1,11317,1,-0.00089123,-5.4374e-09,0,3.3518e-05,-0.00022623,-3.6249e+08,-1772.9,0,1.2297e+07,-135.59,11316,11734,1,11734,1,-0.00038681,-3.7935e-09,0,0.00028572,-0.00013184,-1.5732e+08,-1222.2,0,1.0106e+08,-21.849,11733,12578,1,12578,1,0.00070605,-1.03e-09,0,0.00080714,7.2679e-05,2.2718e+08,-303.03,0,2.9092e+08,73.629,12577,485.01,0,485.01,0,0.0006307,1.7475e-09,0,0.00033414,0.00011805,2.1877e+08,567.23,0,1.0612e+08,67.482,485.01,1
1560,4.1,12156,1,12156,1,0.00016041,-7.0796e-10,0,0.00055956,-2.971e-05,3.19e+07,-242.36,0,1.9424e+08,12.605,12155,12992,1,12992,1,0.001214,1.252e-09,0,0.001214,0.00016757,3.5589e+08,342.75,0,3.6328e+08,90.669,12991,12156,1,12156,1,0.00016041,-7.0219e-10,0,0.00054785,-2.9762e-05,5.7849e+07,-222.03,0,1.9829e+08,17.928,12155,11317,1,11317,1,-0.00089316,-2.5077e-09,0,3.3978e-05,-0.00022688,-3.6328e+08,-857.93,0,1.2465e+07,-115.22,11316,11734,1,11734,1,-0.00038744,-1.6033e-09,0,0.00028683,-0.00013224,-1.5758e+08,-519.04,0,1.014e+08,-14.727,11733,12578,1,12578,1,0.00070826,2.6484e-10,0,0.00080886,7.2797e-05,2.2762e+08,72.094,0,2.9134e+08,43.04,12577,485.01,0,485.01,0,0.00063234,1.0432e-09,0,0.00033509,0.00011835,2.1916e+08,331.38,0,1.0628e+08,42.65,485.01,1
1560,4.11,12156,1,12156,1,0.00016119,-2.4567e-09,0,0.00056104,-2.9854e-05,3.1969e+07,-775.75,0,1.9459e+08,41.505,12155,12992,1,12992,1,0.0012175,1.9588e-09,0,0.0012175,0.00016793,3.5629e+08,598.72,0,3.6405e+08,292.4,12991,12156,1,12156,1,0.00016119,-1.9485e-09,0,0.00054925,-2.9908e-05,5.8107e+07,-610.85,0,1.9868e+08,37.32,12155,11317,1,11317,1,-0.00089506,-7.9578e-09,0,3.4441e-05,-0.00022753,-3.6405e+08,-2492.2,0,1.2633e+07,-170.88,11316,11734,1,11734,1,-0.00038805,-4.6755e-09,0,0.00028794,-0.00013265,-1.5782e+08,-1467.2,0,1.0173e+08,-32.275,11733,12578,1,12578,1,0.00071043,-2.2833e-10,0,0.00081054,7.2912e-05,2.2804e+08,-68.805,0,2.9175e+08,102.22,12577,485.01,0,485.01,0,0.00063394,2.6168e-09,0,0.00033603,0.00011865,2.1954e+08,825.19,0,1.0643e+08,97.141,485.01,1
1560,4.12,12156,1,12156,1,0.00016198,1.3435e-09,0,0.00056255,-3e-05,3.204e+07,398.45,0,1.9496e+08,-35.474,12155,12992,1,12992,1,0.001221,2.8776e-09,0,0.001221,0.00016829,3.5671e+08,898.82,0,3.6484e+08,50.996,12991,12156,1,12156,1,0.00016198,1.4692e-09,0,0.00055066,-3.0054e-05,5.8369e+07,426.75,0,1.9907e+08,-29.687,12155,11317,1,11317,1,-0.00089699,-4.2738e-10,0,3.4902e-05,-0.00022818,-3.6484e+08,-146.35,0,1.2801e+07,-129.08,11316,11734,1,11734,1,-0.00038868,5.2941e-10,0,0.00028906,-0.00013306,-1.5808e+08,163.64,0,1.0207e+08,-66.806,11733,12578,1,12578,1,0.00071264,2.1659e-09,0,0.00081227,7.3031e-05,2.2849e+08,623.87,0,2.9217e+08,-2.4046,12577,485.01,0,485.01,0,0.00063558,9.4412e-10,0,0.00033698,0.00011896,2.1993e+08,282.61,0,1.0659e+08,39.657,485.01,1
1560,4.13,12156,1,12156,1,0.00016278,-6.3586e-10,0,0.00056407,-3.0147e-05,3.2111e+07,-198.82,0,1.9532e+08,-11.196,12155,12992,1,12992,1,0.0012245,2.9772e-10,0,0.0012245,0.00016865,3.5711e+08,73.324,0,3.6563e+08,38.377,12991,12156,1,12156,1,0.00016278,-6.9179e-10,0,0.00055209,-3.0202e-05,5.8633e+07,-211.49,0,1.9946e+08,-8.6578,12155,11317,1,11317,1,-0.00089894,-1.4307e-09,0,3.5375e-05,-0.00022884,-3.6563e+08,-465.83,0,1.2972e+07,-98.775,11316,11734,1,11734,1,-0.00038931,-9.1917e-10,0,0.00029019,-0.00013347,-1.5834e+08,-285.72,0,1.0241e+08,-28.664,11733,12578,1,12578,1,0.00071487,-3.3538e-10,0,0.00081399,7.3149e-05,2.2893e+08,-96.544,0,2.9259e+08,9.5411,12577,485.01,0,485.01,0,0.00063723,4.0107e-10,0,0.00033794,0.00011926,2.2031e+08,128.15,0,1.0675e+08,26.535,485.01,1
1560,4.14,12156,1,12156,1,0.00016358,-1.8054e-09,0,0.00056556,-3.0295e-05,3.2181e+07,-564.04,0,1.9567e+08,29.445,12155,12992,1,12992,1,0.001228,1.0015e-09,0,0.001228,0.00016901,3.5751e+08,245.77,0,3.6641e+08,210.35,12991,12156,1,12156,1,0.00016358,-1.4638e-09,0,0.0005535,-3.035e-05,5.8896e+07,-455.97,0,1.9984e+08,19.999,12155,11317,1,11317,1,-0.00090085,-5.2338e-09,0,3.5848e-05,-0.00022949,-3.6641e+08,-1627.8,0,1.3144e+07,-104.53,11316,11734,1,11734,1,-0.00038992,-3.1174e-09,0,0.00029131,-0.00013388,-1.5858e+08,-968.19,0,1.0275e+08,-20.925,11733,12578,1,12578,1,0.00071707,-4.7002e-10,0,0.00081568,7.3263e-05,2.2936e+08,-136.15,0,2.9299e+08,68.455,12577,485.01,0,485.01,0,0.00063885,1.573e-09,0,0.00033889,0.00011957,2.2069e+08,494.57,0,1.069e+08,69.742,485.01,1
1560,4.15,12156,1,12156,1,0.00016438,-2.3191e-09,0,0.00056706,-3.0442e-05,3.2251e+07,-730.42,0,1.9603e+08,24.645,12155,12992,1,12992,1,0.0012315,1.1936e-09,0,0.0012315,0.00016937,3.579e+08,292.61,0,3.6719e+08,223.55,12991,12156,1,12156,1,0.00016438,-2.0772e-09,0,0.00055491,-3.0498e-05,5.916e+07,-632.68,0,2.0022e+08,30.223,12155,11317,1,11317,1,-0.00090277,-6.432e-09,0,3.632e-05,-0.00023015,-3.6719e+08,-2027,0,1.3315e+07,-163.44,11316,11734,1,11734,1,-0.00039053,-4.0819e-09,0,0.00029243,-0.00013429,-1.5883e+08,-1277,0,1.0309e+08,-38.915,11733,12578,1,12578,1,0.00071928,-5.5812e-10,0,0.00081738,7.3379e-05,2.2979e+08,-159.84,0,2.934e+08,81.372,12577,485.01,0,485.01,0,0.00064048,2.0103e-09,0,0.00033984,0.00011987,2.2107e+08,638.63,0,1.0705e+08,82.667,485.01,1
1560,4.16,12156,1,12156,1,0.00016518,-3.8675e-09,0,0.00056856,-3.059e-05,3.2321e+07,-1215.3,0,1.9638e+08,23.572,12155,12992,1,12992,1,0.0012351,1.9055e-09,0,0.0012351,0.00016973,3.5829e+08,466.22,0,3.6797e+08,401.96,12991,12156,1,12156,1,0.00016518,-3.5207e-09,0,0.00055632,-3.0647e-05,5.9424e+07,-1065.3,0,2.0061e+08,35.921,12155,11317,1,11317,1,-0.00090469,-1.0447e-08,0,3.6796e-05,-0.0002308,-3.6797e+08,-3280.5,0,1.3487e+07,-339.12,11316,11734,1,11734,1,-0.00039113,-6.6884e-09,0,0.00029356,-0.0001347,-1.5908e+08,-2101.8,0,1.0342e+08,-100.91,11733,12578,1,12578,1,0.00072149,-1.0525e-09,0,0.00081906,7.3493e-05,2.3022e+08,-311.5,0,2.938e+08,132.13,12577,485.01,0,485.01,0,0.0006421,3.2097e-09,0,0.00034079,0.00012017,2.2145e+08,1018.9,0,1.0721e+08,163.75,485.01,1
1560,4.17,12156,1,12156,1,0.00016598,-1.3343e-09,0,0.00057006,-3.0738e-05,3.2391e+07,-440.29,0,1.9674e+08,3.4359,12155,12992,1,12992,1,0.0012386,2.0581e-09,0,0.0012386,0.00017009,3.5868e+08,626.94,0,3.6874e+08,151.69,12991,12156,1,12156,1,0.00016598,-8.9792e-10,0,0.00055773,-3.0796e-05,5.9689e+07,-283.1,0,2.0099e+08,10.852,12155,11317,1,11317,1,-0.00090659,-5.5631e-09,0,3.7273e-05,-0.00023145,-3.6874e+08,-1847,0,1.366e+07,-152.05,11316,11734,1,11734,1,-0.00039174,-2.9825e-09,0,0.00029469,-0.00013511,-1.5933e+08,-966.26,0,1.0376e+08,-37.875,11733,12578,1,12578,1,0.00072371,4.3409e-10,0,0.00082076,7.3607e-05,2.3065e+08,117.15,0,2.942e+08,47.091,12577,485.01,0,485.01,0,0.00064374,2.0453e-09,0,0.00034174,0.00012048,2.2183e+08,656.08,0,1.0736e+08,65.837,485.01,1
1560,4.18,12156,1,12156,1,0.0001668,-3.4439e-09,0,0.00057158,-3.0888e-05,3.2461e+07,-1083.5,0,1.9709e+08,-16.743,12155,12992,1,12992,1,0.0012421,1.1134e-09,0,0.0012421,0.00017045,3.5907e+08,271.69,0,3.6953e+08,161.3,12991,12156,1,12156,1,0.0001668,-3.6085e-09,0,0.00055916,-3.0946e-05,5.9956e+07,-1115,0,2.0137e+08,0.50818,12155,11317,1,11317,1,-0.00090852,-6.9139e-09,0,3.7758e-05,-0.00023211,-3.6953e+08,-2231.5,0,1.3835e+07,-283.99,11316,11734,1,11734,1,-0.00039235,-5.1191e-09,0,0.00029583,-0.00013553,-1.5957e+08,-1633.8,0,1.0411e+08,-71.727,11733,12578,1,12578,1,0.00072594,-1.9444e-09,0,0.00082247,7.3722e-05,2.3108e+08,-560.15,0,2.9461e+08,40.607,12577,485.01,0,485.01,0,0.00064538,2.0512e-09,0,0.0003427,0.00012078,2.2221e+08,665.76,0,1.0751e+08,82.979,485.01,1
1560,4.19,12156,1,12156,1,0.00016761,-4.5317e-09,0,0.00057309,-3.1038e-05,3.2531e+07,-1425.5,0,1.9744e+08,34.235,12155,12992,1,12992,1,0.0012457,1.9584e-09,0,0.0012457,0.00017081,3.5946e+08,476.71,0,3.7031e+08,374.3,12991,12156,1,12156,1,0.00016761,-4.1606e-09,0,0.00056058,-3.1097e-05,6.0224e+07,-1282.4,0,2.0175e+08,42.028,12155,11317,1,11317,1,-0.00091044,-1.138e-08,0,3.8245e-05,-0.00023277,-3.7031e+08,-3588.7,0,1.4012e+07,-244.94,11316,11734,1,11734,1,-0.00039295,-7.3827e-09,0,0.00029697,-0.00013594,-1.5982e+08,-2320.6,0,1.0445e+08,-60.35,11733,12578,1,12578,1,0.00072818,-1.7499e-09,0,0.00082416,7.3835e-05,2.3151e+08,-522.49,0,2.95e+08,112.91,12577,485.01,0,485.01,0,0.00064702,3.3522e-09,0,0.00034366,0.00012109,2.2258e+08,1071.9,0,1.0766e+08,129.1,485.01,1
1560,4.2,12156,1,12156,1,0.00016843,-3.1553e-09,0,0.0005746,-3.119e-05,3.2601e+07,-1009.8,0,1.978e+08,-9.6685,12155,12992,1,12992,1,0.0012492,1.5871e-09,0,0.0012492,0.00017117,3.5983e+08,386.05,0,3.7108e+08,221.52,12991,12156,1,12156,1,0.00016843,-3.179e-09,0,0.000562,-3.1249e-05,6.0494e+07,-974.44,0,2.0213e+08,11.89,12155,11317,1,11317,1,-0.00091234,-7.4275e-09,0,3.8737e-05,-0.00023343,-3.7108e+08,-2439.3,0,1.4189e+07,-306.85,11316,11734,1,11734,1,-0.00039356,-5.0028e-09,0,0.00029812,-0.00013636,-1.6006e+08,-1602.1,0,1.0479e+08,-85.511,11733,12578,1,12578,1,0.00073042,-1.3719e-09,0,0.00082585,7.3948e-05,2.3194e+08,-405.9,0,2.954e+08,64.376,12577,485.01,0,485.01,0,0.00064866,2.3305e-09,0,0.00034462,0.00012139,2.2296e+08,756.66,0,1.0782e+08,107.12,485.01,1
1560,4.21,12156,1,12156,1,0.00016926,-1.9757e-09,0,0.00057612,-3.1342e-05,3.2672e+07,-641.11,0,1.9815e+08,-16.684,12155,12992,1,12992,1,0.0012528,7.202e-10,0,0.0012528,0.00017153,3.602e+08,175.45,0,3.7185e+08,67.755,12991,12156,1,12156,1,0.00016926,-2.2976e-09,0,0.00056342,-3.1401e-05,6.0764e+07,-726.76,0,2.0252e+08,-1.3259,12155,11317,1,11317,1,-0.00091425,-3.8509e-09,0,3.9233e-05,-0.00023409,-3.7185e+08,-1317.4,0,1.4368e+07,-198.94,11316,11734,1,11734,1,-0.00039416,-3.2738e-09,0,0.00029927,-0.00013677,-1.6031e+08,-1074.5,0,1.0513e+08,-52.863,11733,12578,1,12578,1,0.00073267,-8.7949e-10,0,0.00082755,7.4061e-05,2.3237e+08,-243.16,0,2.9579e+08,27.599,12577,485.01,0,485.01,0,0.0006503,1.4415e-09,0,0.00034559,0.0001217,2.2333e+08,472.47,0,1.0797e+08,57.586,485.01,1
1560,4.22,12156,1,12156,1,0.00017009,4.051e-10,0,0.00057762,-3.1495e-05,3.2741e+07,101.09,0,1.9849e+08,11.78,12155,12992,1,12992,1,0.0012563,3.7195e-09,0,0.0012563,0.00017188,3.6057e+08,1098.2,0,3.7262e+08,84.519,12991,12156,1,12156,1,0.00017009,3.4203e-10,0,0.00056483,-3.1556e-05,6.1034e+07,93.458,0,2.0289e+08,14.381,12155,11317,1,11317,1,-0.00091612,-1.8467e-09,0,3.9741e-05,-0.00023475,-3.7262e+08,-632.08,0,1.4551e+07,-101.48,11316,11734,1,11734,1,-0.00039473,-6.9141e-10,0,0.00030043,-0.00013719,-1.6054e+08,-220.78,0,1.0548e+08,-15.212,11733,12578,1,12578,1,0.00073491,1.3413e-09,0,0.00082921,7.417e-05,2.3278e+08,384.37,0,2.9617e+08,44.683,12577,485.01,0,485.01,0,0.00065193,1.3894e-09,0,0.00034655,0.000122,2.237e+08,423.4,0,1.0811e+08,39.261,485.01,1
1560,4.23,12156,1,12156,1,0.00017096,-2.6579e-09,0,0.00057915,-3.1655e-05,3.281e+07,-828.88,0,1.9883e+08,37.032,12155,12992,1,12992,1,0.0012599,1.3128e-09,0,0.0012599,0.00017224,3.6092e+08,317.14,0,3.7339e+08,182.96,12991,12156,1,12156,1,0.00017096,-2.4331e-09,0,0.00056626,-3.1716e-05,6.1305e+07,-738.68,0,2.0325e+08,29.167,12155,11317,1,11317,1,-0.00091802,-7.3331e-09,0,4.0284e-05,-0.00023542,-3.7339e+08,-2278.8,0,1.4742e+07,-100.02,11316,11734,1,11734,1,-0.00039529,-4.3769e-09,0,0.00030163,-0.00013762,-1.6077e+08,-1367.7,0,1.0581e+08,-6.2191,11733,12578,1,12578,1,0.00073721,-8.2319e-10,0,0.00083087,7.4276e-05,2.3319e+08,-252.5,0,2.9655e+08,78.97,12577,485.01,0,485.01,0,0.00065358,2.1183e-09,0,0.00034753,0.00012231,2.2406e+08,664.98,0,1.0826e+08,61.239,485.01,1
1560,4.24,12156,1,12156,1,0.00017184,-2.0836e-09,0,0.00058069,-3.1818e-05,3.2879e+07,-662.96,0,1.9916e+08,2.4707,12155,12992,1,12992,1,0.0012636,2.8728e-09,0,0.0012636,0.00017259,3.6126e+08,859.32,0,3.7415e+08,225.18,12991,12156,1,12156,1,0.00017184,-1.6895e-09,0,0.0005677,-3.188e-05,6.158e+07,-511.15,0,2.0361e+08,14.353,12155,11317,1,11317,1,-0.00091989,-7.3857e-09,0,4.0834e-05,-0.0002361,-3.7415e+08,-2327.3,0,1.4937e+07,-213.43,11316,11734,1,11734,1,-0.00039584,-4.2746e-09,0,0.00030285,-0.00013805,-1.6099e+08,-1349.7,0,1.0615e+08,-65.917,11733,12578,1,12578,1,0.00073953,1.7271e-10,0,0.00083252,7.438e-05,2.336e+08,44.941,0,2.9691e+08,61.293,12577,485.01,0,485.01,0,0.00065523,2.5829e-09,0,0.00034852,0.00012262,2.2441e+08,816.02,0,1.084e+08,93.213,485.01,1
1560,4.25,12156,1,12156,1,0.00017274,-1.0605e-09,0,0.00058224,-3.1983e-05,3.2948e+07,-352.96,0,1.995e+08,11.511,12155,12992,1,12992,1,0.0012673,4.4324e-09,0,0.0012673,0.00017294,3.6159e+08,1357.6,0,3.7491e+08,231.23,12991,12156,1,12156,1,0.00017274,-7.4369e-10,0,0.00056914,-3.2045e-05,6.1858e+07,-226.03,0,2.0398e+08,12.966,12155,11317,1,11317,1,-0.00092177,-6.0496e-09,0,4.14e-05,-0.00023678,-3.7491e+08,-1915,0,1.5135e+07,-245.42,11316,11734,1,11734,1,-0.00039639,-3.0555e-09,0,0.00030408,-0.00013848,-1.6122e+08,-970.03,0,1.0649e+08,-49.63,11733,12578,1,12578,1,0.00074187,8.3465e-10,0,0.00083418,7.4485e-05,2.3401e+08,216.78,0,2.9728e+08,76.007,12577,485.01,0,485.01,0,0.0006569,2.4561e-09,0,0.00034952,0.00012293,2.2477e+08,775.33,0,1.0855e+08,95.373,485.01,1
1560,4.26,12156,1,12156,1,0.00017365,-1.1519e-09,0,0.0005838,-3.215e-05,3.3018e+07,-375.01,0,1.9983e+08,-54.847,12155,12992,1,12992,1,0.001271,9.7621e-10,0,0.001271,0.0001733,3.6193e+08,234.95,0,3.7568e+08,80.864,12991,12156,1,12156,1,0.00017365,-1.2432e-09,0,0.0005706,-3.2212e-05,6.2138e+07,-372.14,0,2.0434e+08,-37.736,12155,11317,1,11317,1,-0.00092366,-3.1161e-09,0,4.1967e-05,-0.00023747,-3.7568e+08,-1033.3,0,1.5335e+07,-261.51,11316,11734,1,11734,1,-0.00039694,-2.0106e-09,0,0.00030532,-0.00013892,-1.6144e+08,-654.81,0,1.0684e+08,-102.11,11733,12578,1,12578,1,0.00074423,-4.3424e-10,0,0.00083586,7.4589e-05,2.3442e+08,-122.31,0,2.9764e+08,-6.098,12577,485.01,0,485.01,0,0.00065858,1.0464e-09,0,0.00035052,0.00012324,2.2513e+08,337.36,0,1.0869e+08,65.561,485.01,1
1560,4.27,12156,1,12156,1,0.00017455,-3.5134e-09,0,0.00058533,-3.2316e-05,3.3086e+07,-1098.9,0,2.0016e+08,26.552,12155,12992,1,12992,1,0.0012746,1.11e-09,0,0.0012746,0.00017364,3.6224e+08,269.99,0,3.7644e+08,264.35,12991,12156,1,12156,1,0.00017455,-2.9993e-09,0,0.00057203,-3.238e-05,6.2417e+07,-932.43,0,2.0469e+08,23.166,12155,11317,1,11317,1,-0.00092551,-9.8975e-09,0,4.2545e-05,-0.00023815,-3.7644e+08,-3091,0,1.5537e+07,-211.74,11316,11734,1,11734,1,-0.00039746,-5.9744e-09,0,0.00030656,-0.00013935,-1.6165e+08,-1876.6,0,1.0718e+08,-34.852,11733,12578,1,12578,1,0.00074657,-8.6116e-10,0,0.00083748,7.4689e-05,2.3481e+08,-239.91,0,2.9798e+08,95.027,12577,485.01,0,485.01,0,0.00066023,3.0251e-09,0,0.00035151,0.00012355,2.2547e+08,959.16,0,1.0883e+08,105.39,485.01,1
1560,4.28,12156,1,12156,1,0.00017546,-2.1105e-09,0,0.00058689,-3.2483e-05,3.3155e+07,-678.36,0,2.0049e+08,-17.508,12155,12992,1,12992,1,0.0012783,9.7761e-10,0,0.0012783,0.000174,3.6256e+08,234.35,0,3.772e+08,102.12,12991,12156,1,12156,1,0.00017546,-2.1728e-09,0,0.00057347,-3.2547e-05,6.2697e+07,-682.38,0,2.0505e+08,-3.1483,12155,11317,1,11317,1,-0.00092738,-4.69e-09,0,4.3118e-05,-0.00023883,-3.772e+08,-1588.4,0,1.5738e+07,-241.42,11316,11734,1,11734,1,-0.00039801,-3.4471e-09,0,0.0003078,-0.00013979,-1.6187e+08,-1114,0,1.0752e+08,-56.381,11733,12578,1,12578,1,0.00074893,-8.3843e-10,0,0.00083913,7.4791e-05,2.3521e+08,-238.16,0,2.9834e+08,34.871,12577,485.01,0,485.01,0,0.00066191,1.5868e-09,0,0.00035251,0.00012386,2.2582e+08,519.55,0,1.0897e+08,71.611,485.01,1
1560,4.29,12156,1,12156,1,0.00017637,-3.5416e-09,0,0.00058842,-3.265e-05,3.3223e+07,-1112.9,0,2.0081e+08,40.904,12155,12992,1,12992,1,0.001282,2.6079e-09,0,0.001282,0.00017434,3.6287e+08,754.33,0,3.7795e+08,363.44,12991,12156,1,12156,1,0.00017637,-2.9114e-09,0,0.0005749,-3.2715e-05,6.2977e+07,-891.1,0,2.054e+08,32.197,12155,11317,1,11317,1,-0.00092923,-1.1419e-08,0,4.37e-05,-0.00023952,-3.7795e+08,-3560.2,0,1.5942e+07,-258.6,11316,11734,1,11734,1,-0.00039852,-6.5886e-09,0,0.00030904,-0.00014022,-1.6208e+08,-2054.1,0,1.0786e+08,-37.422,11733,12578,1,12578,1,0.00075126,-2.9763e-10,0,0.00084074,7.4889e-05,2.356e+08,-86.495,0,2.9868e+08,117.25,12577,485.01,0,485.01,0,0.00066355,3.7186e-09,0,0.00035351,0.00012417,2.2617e+08,1164.9,0,1.0911e+08,129.42,485.01,1
1560,4.3,12156,1,12156,1,0.00017728,-3.8e-09,0,0.00058998,-3.2818e-05,3.3292e+07,-1203.8,0,2.0114e+08,-81.911,12155,12992,1,12992,1,0.0012857,2.0015e-09,0,0.0012857,0.00017469,3.6319e+08,476.8,0,3.7871e+08,230.63,12991,12156,1,12156,1,0.00017728,-4.057e-09,0,0.00057635,-3.2884e-05,6.3258e+07,-1234.1,0,2.0576e+08,-41.587,12155,11317,1,11317,1,-0.0009311,-9.4086e-09,0,4.4279e-05,-0.0002402,-3.7871e+08,-2957.3,0,1.6145e+07,-507.46,11316,11734,1,11734,1,-0.00039906,-6.0147e-09,0,0.00031029,-0.00014066,-1.623e+08,-1932.2,0,1.0821e+08,-182.2,11733,12578,1,12578,1,0.00075363,-1.6188e-09,0,0.0008424,7.4991e-05,2.3601e+08,-469.27,0,2.9904e+08,31.956,12577,485.01,0,485.01,0,0.00066522,2.786e-09,0,0.00035451,0.00012448,2.2652e+08,886.21,0,1.0925e+08,160.4,485.01,1
1560,4.31,12156,1,12156,1,0.00017821,-1.3589e-09,0,0.00059154,-3.2989e-05,3.3361e+07,-452.99,0,2.0147e+08,10.101,12155,12992,1,12992,1,0.0012894,1.1029e-09,0,0.0012894,0.00017504,3.635e+08,262.78,0,3.7947e+08,196.5,12991,12156,1,12156,1,0.00017821,-1.2084e-09,0,0.0005778,-3.3055e-05,6.3542e+07,-384.06,0,2.0612e+08,7.079,12155,11317,1,11317,1,-0.00093297,-4.7858e-09,0,4.4014e-05,-0.00024089,-3.7947e+08,-1550.3,0,1.635e+07,-156.51,11316,11734,1,11734,1,-0.00039959,-2.6308e-09,0,0.0003107,-0.0001411,-1.6252e+08,-851.25,0,1.0855e+08,-34.826,11733,12578,1,12578,1,0.00075601,1.1577e-10,0,0.00084491,7.5092e-05,2.3641e+08,29.57,0,2.9939e+08,46.84,12577,485.01,0,485.01,0,0.00066691,1.6364e-09,0,0.00035553,0.00012479,2.2687e+08,520.84,0,1.0939e+08,76.911,485.01,1
1560,4.32,12156,1,12156,1,0.00017914,-4.7509e-09,0,0.0005931,-3.316e-05,3.343e+07,-1482.6,0,2.0179e+08,-35.86,12155,12992,1,12992,1,0.0012931,1.4476e-09,0,0.0012931,0.00017539,3.638e+08,343.69,0,3.8022e+08,170.76,12991,12156,1,12156,1,0.00017914,-5.1679e-09,0,0.00057924,-3.3226e-05,6.3827e+07,-1586.3,0,2.0646e+08,-23.366,12155,11317,1,11317,1,-0.00093482,-9.0452e-09,0,4.3641e-05,-0.00024158,-3.8022e+08,-2875.4,0,1.6559e+07,-324.89,11316,11734,1,11734,1,-0.0004001,-7.0436e-09,0,0.00031099,-0.00014154,-1.6273e+08,-2233.4,0,1.089e+08,-112.97,11733,12578,1,12578,1,0.00075839,-2.8145e-09,0,0.0008475,7.5189e-05,2.368e+08,-793.21,0,2.9972e+08,45.917,12577,485.01,0,485.01,0,0.00066857,2.6978e-09,0,0.00035653,0.0001251,2.2721e+08,871.27,0,1.0952e+08,105.95,485.01,1
1560,4.33,12156,1,12156,1,0.00018007,2.2676e-09,0,0.00059465,-3.3331e-05,3.3498e+07,656.36,0,2.0211e+08,16.487,12155,12992,1,12992,1,0.0012968,5.6165e-09,0,0.0012968,0.00017574,3.641e+08,1617.5,0,3.8097e+08,207.69,12991,12156,1,12156,1,0.00018007,2.2246e-09,0,0.00058069,-3.3397e-05,6.4112e+07,673.62,0,2.0682e+08,4.7791,12155,11317,1,11317,1,-0.00093665,-1.0661e-09,0,4.3262e-05,-0.00024226,-3.8097e+08,-365.11,0,1.6767e+07,-162.96,11316,11734,1,11734,1,-0.00040062,7.2108e-10,0,0.00031128,-0.00014198,-1.6293e+08,212.51,0,1.0924e+08,-42.414,11733,12578,1,12578,1,0.00076076,3.8818e-09,0,0.0008501,7.5287e-05,2.3719e+08,1115.1,0,3.0006e+08,69.956,12577,485.01,0,485.01,0,0.00067024,1.8419e-09,0,0.00035754,0.00012541,2.2755e+08,528.46,0,1.0966e+08,78,485.01,1
1560,4.34,12156,1,12156,1,0.00018098,-5.0157e-09,0,0.00059613,-3.3498e-05,3.3561e+07,-1534.2,0,2.0241e+08,70.519,12155,12992,1,12992,1,0.0013004,6.2594e-09,0,0.0013004,0.00017607,3.6436e+08,1902,0,3.8168e+08,424.13,12991,12156,1,12156,1,0.00018098,-4.2328e-09,0,0.00058207,-3.3566e-05,6.4389e+07,-1297.1,0,2.0714e+08,50.888,12155,11317,1,11317,1,-0.00093841,-1.634e-08,0,4.2886e-05,-0.00024293,-3.8168e+08,-4981.4,0,1.6975e+07,-274.86,11316,11734,1,11734,1,-0.00040108,-9.6731e-09,0,0.00031153,-0.0001424,-1.6312e+08,-2954,0,1.0957e+08,-31.295,11733,12578,1,12578,1,0.00076304,-2.7229e-10,0,0.00085259,7.5375e-05,2.3755e+08,-81.586,0,3.0035e+08,193.53,12577,485.01,0,485.01,0,0.00067183,5.6442e-09,0,0.00035851,0.00012571,2.2786e+08,1740.5,0,1.0978e+08,153.01,485.01,1
1560,4.35,12156,1,12156,1,0.00018192,-4.617e-09,0,0.00059774,-3.3671e-05,3.3634e+07,-1442,0,2.0276e+08,-76.007,12155,12992,1,12992,1,0.0013042,1.8191e-09,0,0.0013042,0.00017644,3.647e+08,429.61,0,3.8248e+08,133.82,12991,12156,1,12156,1,0.00018192,-4.7599e-09,0,0.00058357,-3.3739e-05,6.4676e+07,-1435.9,0,2.0751e+08,-53.74,12155,11317,1,11317,1,-0.00094037,-1.0101e-08,0,4.2524e-05,-0.00024364,-3.8248e+08,-3162.8,0,1.7179e+07,-392.66,11316,11734,1,11734,1,-0.00040165,-6.8901e-09,0,0.00031187,-0.00014286,-1.6335e+08,-2168.8,0,1.0993e+08,-168.47,11733,12578,1,12578,1,0.00076548,-2.431e-09,0,0.00085526,7.5483e-05,2.3797e+08,-715.5,0,3.0074e+08,24.433,12577,485.01,0,485.01,0,0.00067356,2.942e-09,0,0.00035955,0.00012603,2.2823e+08,946.99,0,1.0994e+08,120.41,485.01,1
1560,4.36,12156,1,12156,1,0.00018287,-2.271e-09,0,0.00059929,-3.3845e-05,3.37e+07,-737.01,0,2.0307e+08,18.576,12155,12992,1,12992,1,0.0013079,3.9738e-09,0,0.0013079,0.00017677,3.6496e+08,1164.6,0,3.8321e+08,215.78,12991,12156,1,12156,1,0.00018287,-1.77e-09,0,0.000585,-3.3914e-05,6.4966e+07,-533.16,0,2.0785e+08,37.494,12155,11317,1,11317,1,-0.00094217,-8.8731e-09,0,4.2124e-05,-0.00024433,-3.8321e+08,-2812,0,1.7131e+07,-205.64,11316,11734,1,11734,1,-0.00040213,-5.062e-09,0,0.00031213,-0.0001433,-1.6355e+08,-1583.3,0,1.1027e+08,-62.295,11733,12578,1,12578,1,0.00076787,5.6637e-10,0,0.00085787,7.5575e-05,2.3835e+08,152.21,0,3.0105e+08,94.584,12577,485.01,0,485.01,0,0.00067522,3.2786e-09,0,0.00036056,0.00012634,2.2856e+08,1037.2,0,1.1006e+08,103.3,485.01,1
1560,4.37,12156,1,12156,1,0.00018382,9.1138e-10,0,0.00060085,-3.4019e-05,3.3768e+07,244.78,0,2.0338e+08,22.925,12155,12992,1,12992,1,0.0013116,5.8285e-09,0,0.0013116,0.00017712,3.6525e+08,1767.3,0,3.8395e+08,269.57,12991,12156,1,12156,1,0.00018382,9.4317e-10,0,0.00058645,-3.4089e-05,6.5254e+07,263.7,0,2.082e+08,16.602,12155,11317,1,11317,1,-0.00094399,-4.0779e-09,0,4.1734e-05,-0.00024502,-3.8395e+08,-1395.7,0,1.6973e+07,-239.88,11316,11734,1,11734,1,-0.00040263,-7.4064e-10,0,0.00031241,-0.00014374,-1.6375e+08,-232.57,0,1.1062e+08,-42.718,11733,12578,1,12578,1,0.00077027,2.7228e-09,0,0.00086049,7.5671e-05,2.3874e+08,782.28,0,3.0138e+08,86.421,12577,485.01,0,485.01,0,0.00067689,2.3705e-09,0,0.00036158,0.00012665,2.289e+08,737.85,0,1.102e+08,99.93,485.01,1
1560,4.38,12156,1,12156,1,0.00018477,-2.6544e-09,0,0.00060241,-3.4194e-05,3.3836e+07,-819.85,0,2.037e+08,-8.5323,12155,12992,1,12992,1,0.0013154,1.7695e-09,0,0.0013154,0.00017746,3.6553e+08,605.58,0,3.847e+08,223.64,12991,12156,1,12156,1,0.00018477,-2.3249e-09,0,0.00058791,-3.4265e-05,6.5543e+07,-690.05,0,2.0854e+08,-1.4418,12155,11317,1,11317,1,-0.00094584,-7.8765e-09,0,4.1344e-05,-0.00024572,-3.847e+08,-2458,0,1.6816e+07,-210.8,11316,11734,1,11734,1,-0.00040313,-4.7401e-09,0,0.00031268,-0.00014419,-1.6396e+08,-1461.4,0,1.1097e+08,-76.627,11733,12578,1,12578,1,0.00077267,-5.3329e-10,0,0.00086311,7.5765e-05,2.3912e+08,-153.81,0,3.017e+08,49.839,12577,485.01,0,485.01,0,0.00067857,2.4812e-09,0,0.0003626,0.00012696,2.2923e+08,780.27,0,1.1033e+08,87.213,485.01,1
1560,4.39,12156,1,12156,1,0.00018573,1.9599e-09,0,0.00060398,-3.437e-05,3.3905e+07,575.46,0,2.0401e+08,-22.553,12155,12992,1,12992,1,0.0013191,5.5748e-09,0,0.0013191,0.00017781,3.6581e+08,1655.2,0,3.8545e+08,187.6,12991,12156,1,12156,1,0.00018573,1.9777e-09,0,0.00058936,-3.4441e-05,6.5833e+07,559.55,0,2.0889e+08,-23.653,12155,11317,1,11317,1,-0.00094766,-2.358e-09,0,4.094e-05,-0.00024641,-3.8545e+08,-807.25,0,1.6653e+07,-254.15,11316,11734,1,11734,1,-0.00040363,4.5373e-10,0,0.00031296,-0.00014463,-1.6416e+08,135.25,0,1.1132e+08,-83.615,11733,12578,1,12578,1,0.00077508,3.6196e-09,0,0.00086575,7.5859e-05,2.3951e+08,1075.5,0,3.0202e+08,37.1,12577,485.01,0,485.01,0,0.00068024,1.9789e-09,0,0.00036362,0.00012728,2.2957e+08,608.28,0,1.1046e+08,88.599,485.01,1
1560,4.4,12156,1,12156,1,0.00018669,-1.9071e-10,0,0.00060554,-3.4547e-05,3.3972e+07,-54.521,0,2.0433e+08,-29.064,12155,12992,1,12992,1,0.0013229,2.4408e-09,0,0.0013229,0.00017815,3.6607e+08,834.89,0,3.8618e+08,210.35,12991,12156,1,12156,1,0.00018669,-8.4984e-11,0,0.00059081,-3.4619e-05,6.6124e+07,-23.072,0,2.0923e+08,-32.251,12155,11317,1,11317,1,-0.00094948,-3.6718e-09,0,4.054e-05,-0.0002471,-3.8618e+08,-1142.6,0,1.6491e+07,-242.67,11316,11734,1,11734,1,-0.00040411,-1.1321e-09,0,0.00031322,-0.00014508,-1.6436e+08,-347.9,0,1.1167e+08,-83.83,11733,12578,1,12578,1,0.0007775,9.757e-10,0,0.00086839,7.5952e-05,2.3989e+08,304.36,0,3.0234e+08,19.356,12577,485.01,0,485.01,0,0.00068192,1.505e-09,0,0.00036465,0.00012759,2.299e+08,476.74,0,1.106e+08,79.931,485.01,1
1560,4.41,12156,1,12156,1,0.00018766,-5.6542e-09,0,0.00060711,-3.4725e-05,3.404e+07,-1722.1,0,2.0464e+08,-23.469,12155,12992,1,12992,1,0.0013267,1.6747e-09,0,0.0013267,0.0001785,3.6635e+08,389.97,0,3.8694e+08,206.29,12991,12156,1,12156,1,0.00018766,-5.8021e-09,0,0.00059227,-3.4797e-05,6.6416e+07,-1773.5,0,2.0957e+08,-9.459,12155,11317,1,11317,1,-0.00095135,-1.1371e-08,0,4.0132e-05,-0.00024781,-3.8694e+08,-3481,0,1.6326e+07,-284.19,11316,11734,1,11734,1,-0.0004046,-8.2497e-09,0,0.00031349,-0.00014553,-1.6455e+08,-2536.4,0,1.1202e+08,-98.408,11733,12578,1,12578,1,0.00077992,-3.2442e-09,0,0.00087103,7.6046e-05,2.4027e+08,-967.71,0,3.0265e+08,51.903,12577,485.01,0,485.01,0,0.0006836,3.2368e-09,0,0.00036568,0.0001279,2.3023e+08,1001.7,0,1.1073e+08,101.69,485.01,1
1560,4.42,12156,1,12156,1,0.00018863,-1.8948e-09,0,0.00060869,-3.4904e-05,3.4108e+07,-612.96,0,2.0495e+08,-12.023,12155,12992,1,12992,1,0.0013305,1.342e-09,0,0.0013305,0.00017884,3.666e+08,312.46,0,3.8768e+08,160.61,12991,12156,1,12156,1,0.00018863,-1.6532e-09,0,0.00059372,-3.4976e-05,6.671e+07,-512.16,0,2.0991e+08,-13.194,12155,11317,1,11317,1,-0.00095316,-5.8752e-09,0,3.9718e-05,-0.00024851,-3.8768e+08,-1839.1,0,1.6159e+07,-213.57,11316,11734,1,11734,1,-0.00040509,-3.3686e-09,0,0.00031375,-0.00014598,-1.6475e+08,-1066.4,0,1.1237e+08,-87.273,11733,12578,1,12578,1,0.00078235,-4.2816e-10,0,0.00087369,7.6138e-05,2.4065e+08,-121,0,3.0297e+08,59.278,12577,485.01,0,485.01,0,0.00068528,1.8271e-09,0,0.00036671,0.00012821,2.3056e+08,583.75,0,1.1086e+08,89.969,485.01,1
1560,4.43,12156,1,12156,1,0.00018961,-1.2875e-09,0,0.00061026,-3.5083e-05,3.4175e+07,-423.25,0,2.0526e+08,2.3243,12155,12992,1,12992,1,0.0013342,6.0708e-10,0,0.0013342,0.00017918,3.6686e+08,157.44,0,3.8842e+08,144.11,12991,12156,1,12156,1,0.00018961,-1.0023e-09,0,0.00059517,-3.5157e-05,6.7005e+07,-317.6,0,2.1025e+08,-0.73646,12155,11317,1,11317,1,-0.00095497,-4.1809e-09,0,3.9301e-05,-0.00024921,-3.8842e+08,-1400.2,0,1.5991e+07,-147.75,11316,11734,1,11734,1,-0.00040557,-2.4469e-09,0,0.000314,-0.00014643,-1.6495e+08,-791.51,0,1.1272e+08,-37.07,11733,12578,1,12578,1,0.00078478,5.106e-11,0,0.00087635,7.6229e-05,2.4103e+08,13.552,0,3.0328e+08,42.997,12577,485.01,0,485.01,0,0.00068696,1.4298e-09,0,0.00036774,0.00012853,2.3089e+08,461.56,0,1.1099e+08,56.812,485.01,1
1560,4.44,12156,1,12156,1,0.00019059,-1.16e-10,0,0.00061183,-3.5264e-05,3.4243e+07,-59.244,0,2.0557e+08,-7.4338,12155,12992,1,12992,1,0.001338,1.0028e-09,0,0.001338,0.00017952,3.6711e+08,272.19,0,3.8916e+08,113.16,12991,12156,1,12156,1,0.00019059,-3.619e-11,0,0.00059663,-3.5338e-05,6.73e+07,-11.279,0,2.1059e+08,-7.0931,12155,11317,1,11317,1,-0.00095679,-1.578e-09,0,3.8881e-05,-0.00024991,-3.8916e+08,-540.21,0,1.5822e+07,-105.34,11316,11734,1,11734,1,-0.00040604,-7.5781e-10,0,0.00031425,-0.00014688,-1.6514e+08,-250.12,0,1.1307e+08,-25.5,11733,12578,1,12578,1,0.00078722,5.9688e-10,0,0.00087901,7.632e-05,2.4141e+08,152.65,0,3.0359e+08,12.679,12577,485.01,0,485.01,0,0.00068865,7.446e-10,0,0.00036878,0.00012884,2.3121e+08,229.18,0,1.1112e+08,35.757,485.01,1
1560,4.45,12156,1,12156,1,0.00019157,-1.9494e-09,0,0.0006134,-3.5444e-05,3.431e+07,-604.35,0,2.0587e+08,26.121,12155,12992,1,12992,1,0.0013418,9.1975e-10,0,0.0013418,0.00017986,3.6736e+08,244.33,0,3.899e+08,144.7,12991,12156,1,12156,1,0.00019157,-1.8017e-09,0,0.00059808,-3.5519e-05,6.7595e+07,-541.73,0,2.1092e+08,32.465,12155,11317,1,11317,1,-0.00095861,-5.2504e-09,0,3.8458e-05,-0.00025061,-3.899e+08,-1627.4,0,1.5652e+07,-162.93,11316,11734,1,11734,1,-0.00040651,-3.3683e-09,0,0.0003145,-0.00014733,-1.6533e+08,-1044.4,0,1.1342e+08,-13.762,11733,12578,1,12578,1,0.00078966,-4.768e-10,0,0.00088167,7.6409e-05,2.4178e+08,-148.95,0,3.0388e+08,70.889,12577,485.01,0,485.01,0,0.00069032,1.6601e-09,0,0.00036981,0.00012915,2.3154e+08,517.23,0,1.1124e+08,61.766,485.01,1
1560,4.46,12156,1,12156,1,0.00019256,-9.1495e-10,0,0.00061498,-3.5626e-05,3.4377e+07,-298.64,0,2.0618e+08,-11.146,12155,12992,1,12992,1,0.0013456,6.6613e-10,0,0.0013456,0.00018021,3.6761e+08,153.84,0,3.9063e+08,116.87,12991,12156,1,12156,1,0.00019256,-1.0172e-09,0,0.00059955,-3.5702e-05,6.7893e+07,-314.07,0,2.1126e+08,-7.712,12155,11317,1,11317,1,-0.00096042,-2.2861e-09,0,3.8029e-05,-0.00025131,-3.9063e+08,-771.14,0,1.5479e+07,-112.62,11316,11734,1,11734,1,-0.00040698,-1.5924e-09,0,0.00031475,-0.00014779,-1.6552e+08,-517.68,0,1.1378e+08,-38.015,11733,12578,1,12578,1,0.00079211,-2.6512e-10,0,0.00088435,7.6499e-05,2.4216e+08,-72.803,0,3.0419e+08,16.072,12577,485.01,0,485.01,0,0.00069201,8.3232e-10,0,0.00037085,0.00012947,2.3186e+08,265.36,0,1.1137e+08,41.024,485.01,1
1560,4.47,12156,1,12156,1,0.00019356,-6.1978e-10,0,0.00061654,-3.5809e-05,3.4444e+07,-205.49,0,2.0648e+08,20.882,12155,12992,1,12992,1,0.0013493,1.9423e-09,0,0.0013493,0.00018054,3.6784e+08,545.82,0,3.9136e+08,135.29,12991,12156,1,12156,1,0.00019356,-5.362e-10,0,0.00060099,-3.5884e-05,6.8189e+07,-163.65,0,2.1158e+08,22.623,12155,11317,1,11317,1,-0.00096221,-2.8213e-09,0,3.7593e-05,-0.00025201,-3.9136e+08,-874.09,0,1.5304e+07,-90.112,11316,11734,1,11734,1,-0.00040744,-1.5535e-09,0,0.00031498,-0.00014824,-1.6571e+08,-491.62,0,1.1413e+08,-6.8533,11733,12578,1,12578,1,0.00079454,2.9567e-10,0,0.000887,7.6585e-05,2.4252e+08,78.072,0,3.0448e+08,53.836,12577,485.01,0,485.01,0,0.00069367,1.1165e-09,0,0.00037189,0.00012978,2.3218e+08,343.6,0,1.115e+08,42.063,485.01,1
1560,4.48,12156,1,12156,1,0.00019455,3.904e-09,0,0.00061811,-3.5991e-05,3.451e+07,1172.3,0,2.0678e+08,3.3633,12155,12992,1,12992,1,0.0013531,8.8642e-09,0,0.0013531,0.00018088,3.6808e+08,2617.4,0,3.921e+08,273.53,12991,12156,1,12156,1,0.00019455,3.9224e-09,0,0.00060244,-3.6068e-05,6.8486e+07,1168.2,0,2.1191e+08,-14.754,12155,11317,1,11317,1,-0.00096402,-1.2551e-09,0,3.7157e-05,-0.00025271,-3.921e+08,-287.41,0,1.5128e+07,-182.96,11316,11734,1,11734,1,-0.00040789,1.9035e-09,0,0.00031521,-0.00014869,-1.6589e+08,567.11,0,1.1448e+08,-69.369,11733,12578,1,12578,1,0.00079698,5.8473e-09,0,0.00088966,7.6672e-05,2.4289e+08,1767.9,0,3.0477e+08,66.729,12577,485.01,0,485.01,0,0.00069534,2.4564e-09,0,0.00037292,0.00013009,2.3249e+08,742.74,0,1.1162e+08,93.7,485.01,1
1560,4.49,12156,1,12156,1,0.00019555,-2.5139e-10,0,0.00061969,-3.6175e-05,3.4578e+07,-54.242,0,2.0709e+08,-6.2107,12155,12992,1,12992,1,0.0013569,1.8437e-09,0,0.0013569,0.00018122,3.6832e+08,630.95,0,3.9282e+08,101.96,12991,12156,1,12156,1,0.00019555,-3.3105e-10,0,0.0006039,-3.6252e-05,6.8785e+07,-92.4,0,2.1225e+08,-8.3931,12155,11317,1,11317,1,-0.00096581,-1.6577e-09,0,3.672e-05,-0.00025342,-3.9282e+08,-477.01,0,1.4953e+07,-82.803,11316,11734,1,11734,1,-0.00040836,-9.818e-10,0,0.00031545,-0.00014914,-1.6608e+08,-267.89,0,1.1483e+08,-24.224,11733,12578,1,12578,1,0.00079945,3.4254e-10,0,0.00089236,7.6761e-05,2.4326e+08,114.92,0,3.0507e+08,11.916,12577,485.01,0,485.01,0,0.00069703,8.9172e-10,0,0.00037397,0.0001304,2.3282e+08,269.88,0,1.1175e+08,29.38,485.01,1
1560,4.5,12156,1,12156,1,0.00019655,-1.3383e-10,0,0.00062127,-3.6359e-05,3.4644e+07,-32.414,0,2.0738e+08,4.1586,12155,12992,1,12992,1,0.0013607,1.2259e-09,0,0.0013607,0.00018155,3.6854e+08,419.67,0,3.9355e+08,144.52,12991,12156,1,12156,1,0.00019655,-7.5633e-11,0,0.00060536,-3.6438e-05,6.9085e+07,-20.382,0,2.1257e+08,1.2959,12155,11317,1,11317,1,-0.00096759,-1.8625e-09,0,3.6274e-05,-0.00025412,-3.9355e+08,-562.6,0,1.4774e+07,-121.44,11316,11734,1,11734,1,-0.0004088,-6.1768e-10,0,0.00031567,-0.0001496,-1.6626e+08,-179.47,0,1.1518e+08,-25.701,11733,12578,1,12578,1,0.00080191,4.258e-10,0,0.00089504,7.6846e-05,2.4363e+08,129.92,0,3.0535e+08,31.465,12577,485.01,0,485.01,0,0.00069871,7.4707e-10,0,0.00037501,0.00013071,2.3313e+08,232.15,0,1.1187e+08,42.756,485.01,1
1560,4.51,12156,1,12156,1,0.00019756,-1.395e-09,0,0.00062285,-3.6545e-05,3.4711e+07,-419.11,0,2.0768e+08,12.556,12155,12992,1,12992,1,0.0013645,1.9471e-09,0,0.0013645,0.00018189,3.6877e+08,592.33,0,3.9429e+08,221.07,12991,12156,1,12156,1,0.00019756,-1.2583e-09,0,0.00060682,-3.6624e-05,6.9385e+07,-387.03,0,2.129e+08,12.645,12155,11317,1,11317,1,-0.0009694,-4.2646e-09,0,3.5827e-05,-0.00025483,-3.9429e+08,-1293.7,0,1.4594e+07,-140.54,11316,11734,1,11734,1,-0.00040925,-2.6382e-09,0,0.0003159,-0.00015006,-1.6644e+08,-798.39,0,1.1554e+08,-22.04,11733,12578,1,12578,1,0.00080438,-1.1239e-10,0,0.00089773,7.6932e-05,2.4399e+08,-32.554,0,3.0564e+08,47.656,12577,485.01,0,485.01,0,0.0007004,1.4655e-09,0,0.00037606,0.00013103,2.3345e+08,444.68,0,1.12e+08,57.603,485.01,1
1560,4.52,12156,1,12156,1,0.00019858,-1.0306e-09,0,0.00062443,-3.6732e-05,3.4777e+07,-321.92,0,2.0798e+08,28.126,12155,12992,1,12992,1,0.0013684,2.1642e-09,0,0.0013684,0.00018223,3.6898e+08,649.27,0,3.9502e+08,131.82,12991,12156,1,12156,1,0.00019858,-8.2326e-10,0,0.00060828,-3.6811e-05,6.9688e+07,-240.82,0,2.1323e+08,35.867,12155,11317,1,11317,1,-0.0009712,-4.1455e-09,0,3.5372e-05,-0.00025554,-3.9502e+08,-1277.7,0,1.4412e+07,-99.18,11316,11734,1,11734,1,-0.0004097,-2.2904e-09,0,0.00031612,-0.00015052,-1.6663e+08,-706.2,0,1.1589e+08,-10.52,11733,12578,1,12578,1,0.00080686,2.2558e-10,0,0.00090044,7.7017e-05,2.4436e+08,56.943,0,3.0592e+08,70.537,12577,485.01,0,485.01,0,0.00070208,1.5282e-09,0,0.00037712,0.00013134,2.3376e+08,470.99,0,1.1212e+08,54.5,485.01,1
1560,4.53,12156,1,12156,1,0.0001996,2.6885e-09,0,0.00062599,-3.6918e-05,3.4843e+07,800.08,0,2.0827e+08,45.115,12155,12992,1,12992,1,0.0013722,7.2959e-09,0,0.0013722,0.00018256,3.6919e+08,2195.6,0,3.9573e+08,242.71,12991,12156,1,12156,1,0.0001996,2.4636e-09,0,0.00060972,-3.6998e-05,6.9988e+07,730.85,0,2.1354e+08,34.939,12155,11317,1,11317,1,-0.00097296,-1.0335e-09,0,3.4908e-05,-0.00025624,-3.9573e+08,-318.36,0,1.4226e+07,-132.77,11316,11734,1,11734,1,-0.00041012,7.8076e-10,0,0.00031632,-0.00015097,-1.668e+08,233.31,0,1.1624e+08,-13.25,11733,12578,1,12578,1,0.00080931,4.4229e-09,0,0.00090311,7.7097e-05,2.4471e+08,1328.2,0,3.0619e+08,102.85,12577,485.01,0,485.01,0,0.00070374,2.1764e-09,0,0.00037816,0.00013165,2.3406e+08,660.6,0,1.1224e+08,82.222,485.01,1
1560,4.54,12156,1,12156,1,0.00020062,-3.3122e-10,0,0.00062759,-3.7107e-05,3.491e+07,-86.302,0,2.0857e+08,-12.025,12155,12992,1,12992,1,0.001376,2.4636e-09,0,0.001376,0.0001829,3.6941e+08,843.08,0,3.9646e+08,74.812,12991,12156,1,12156,1,0.00020062,-3.5842e-10,0,0.00061119,-3.7188e-05,7.0292e+07,-88.697,0,2.1387e+08,-8.888,12155,11317,1,11317,1,-0.00097475,-2.8427e-09,0,3.4452e-05,-0.00025695,-3.9646e+08,-851.14,0,1.4044e+07,-105.76,11316,11734,1,11734,1,-0.00041057,-1.1907e-09,0,0.00031654,-0.00015143,-1.6698e+08,-349.72,0,1.166e+08,-39.288,11733,12578,1,12578,1,0.00081181,4.5125e-10,0,0.00090584,7.7183e-05,2.4508e+08,126.99,0,3.0647e+08,17.836,12577,485.01,0,485.01,0,0.00070545,1.214e-09,0,0.00037922,0.00013197,2.3438e+08,377.97,0,1.1236e+08,36.986,485.01,1
1560,4.55,12156,1,12156,1,0.00020165,-3.4073e-09,0,0.00062917,-3.7296e-05,3.4976e+07,-1025.3,0,2.0886e+08,15.7,12155,12992,1,12992,1,0.0013799,2.3866e-09,0,0.0013799,0.00018324,3.6962e+08,796.12,0,3.9719e+08,241.76,12991,12156,1,12156,1,0.00020165,-3.0521e-09,0,0.00061265,-3.7378e-05,7.0597e+07,-907.74,0,2.1419e+08,18.943,12155,11317,1,11317,1,-0.00097655,-9.8884e-09,0,3.3981e-05,-0.00025767,-3.9719e+08,-2996.8,0,1.3855e+07,-238.34,11316,11734,1,11734,1,-0.00041099,-6.1646e-09,0,0.00031674,-0.00015189,-1.6715e+08,-1864.5,0,1.1695e+08,-64.416,11733,12578,1,12578,1,0.00081429,-6.1158e-10,0,0.00090855,7.7265e-05,2.4543e+08,-189.67,0,3.0674e+08,82.519,12577,485.01,0,485.01,0,0.00070713,3.1967e-09,0,0.00038028,0.00013228,2.3469e+08,973.96,0,1.1248e+08,100.99,485.01,1
1560,4.56,12156,1,12156,1,0.00020269,2.6976e-09,0,0.00063077,-3.7487e-05,3.5043e+07,787.29,0,2.0915e+08,-19.59,12155,12992,1,12992,1,0.0013837,5.1275e-09,0,0.0013837,0.00018357,3.6983e+08,1445.6,0,3.9792e+08,202.71,12991,12156,1,12156,1,0.00020269,2.9157e-09,0,0.00061413,-3.7569e-05,7.0905e+07,847.97,0,2.1452e+08,-20.97,12155,11317,1,11317,1,-0.00097833,-4.4768e-10,0,3.3507e-05,-0.00025839,-3.9792e+08,-149.75,0,1.3666e+07,-163.71,11316,11734,1,11734,1,-0.00041144,1.4105e-09,0,0.00031695,-0.00015236,-1.6733e+08,428.63,0,1.1731e+08,-65.432,11733,12578,1,12578,1,0.00081681,4.0416e-09,0,0.0009113,7.7348e-05,2.4579e+08,1192.5,0,3.0702e+08,15.563,12577,485.01,0,485.01,0,0.00070883,1.5621e-09,0,0.00038135,0.0001326,2.35e+08,448.53,0,1.1261e+08,70.016,485.01,1
1560,4.57,12156,1,12156,1,0.00020374,1.0736e-09,0,0.00063237,-3.768e-05,3.5109e+07,329.46,0,2.0944e+08,-15.474,12155,12992,1,12992,1,0.0013876,2.2082e-09,0,0.0013876,0.00018391,3.7002e+08,754.03,0,3.9864e+08,83.301,12991,12156,1,12156,1,0.00020374,1.0855e-09,0,0.0006156,-3.7762e-05,7.1213e+07,318.46,0,2.1484e+08,-10.131,12155,11317,1,11317,1,-0.00098011,-2.7264e-10,0,3.3029e-05,-0.0002591,-3.9864e+08,-62.103,0,1.3476e+07,-132.86,11316,11734,1,11734,1,-0.00041186,6.0927e-10,0,0.00031715,-0.00015282,-1.675e+08,173.4,0,1.1767e+08,-37.995,11733,12578,1,12578,1,0.00081933,1.5812e-09,0,0.00091404,7.7429e-05,2.4615e+08,490.85,0,3.0729e+08,7.6744,12577,485.01,0,485.01,0,0.00071053,6.3579e-10,0,0.00038241,0.00013291,2.3531e+08,206.14,0,1.1273e+08,35.677,485.01,1
1560,4.58,12156,1,12156,1,0.00020478,3.4102e-09,0,0.00063395,-3.7871e-05,3.5174e+07,1040.9,0,2.0973e+08,59.37,12155,12992,1,12992,1,0.0013915,9.1382e-09,0,0.0013915,0.00018424,3.7021e+08,2783.3,0,3.9936e+08,427.29,12991,12156,1,12156,1,0.00020478,3.2792e-09,0,0.00061705,-3.7955e-05,7.152e+07,972.89,0,2.1515e+08,36.641,12155,11317,1,11317,1,-0.00098188,-1.6358e-09,0,3.2545e-05,-0.00025982,-3.9936e+08,-474.72,0,1.3283e+07,-171.1,11316,11734,1,11734,1,-0.00041227,8.0909e-10,0,0.00031734,-0.00015329,-1.6767e+08,225.92,0,1.1803e+08,-31.788,11733,12578,1,12578,1,0.00082182,5.9999e-09,0,0.00091675,7.7507e-05,2.4649e+08,1848.2,0,3.0754e+08,149.48,12577,485.01,0,485.01,0,0.00071221,2.9714e-09,0,0.00038347,0.00013323,2.356e+08,915.9,0,1.1284e+08,127.04,485.01,1
1560,4.59,12156,1,12156,1,0.00020583,-1.7048e-09,0,0.00063556,-3.8065e-05,3.5241e+07,-476.54,0,2.1002e+08,-55.344,12155,12992,1,12992,1,0.0013953,4.0584e-10,0,0.0013953,0.00018457,3.7041e+08,138.99,0,4.0008e+08,155.63,12991,12156,1,12156,1,0.00020583,-1.6885e-09,0,0.00061853,-3.8149e-05,7.1829e+07,-493.33,0,2.1547e+08,-58.446,12155,11317,1,11317,1,-0.00098365,-4.0665e-09,0,3.2058e-05,-0.00026054,-4.0008e+08,-1080.9,0,1.3089e+07,-146.02,11316,11734,1,11734,1,-0.0004127,-2.6717e-09,0,0.00031754,-0.00015376,-1.6785e+08,-731.61,0,1.1839e+08,-89.784,11733,12578,1,12578,1,0.00082436,-6.3911e-10,0,0.00091952,7.759e-05,2.4686e+08,-200.32,0,3.0781e+08,-25.439,12577,485.01,0,485.01,0,0.00071392,1.2096e-09,0,0.00038455,0.00013354,2.3591e+08,320.14,0,1.1296e+08,45.684,485.01,1
1560,4.6,12156,1,12156,1,0.00020689,-2.9849e-09,0,0.00063716,-3.826e-05,3.5307e+07,-890.36,0,2.1031e+08,-6.7998,12155,12992,1,12992,1,0.0013992,9.9837e-10,0,0.0013992,0.00018491,3.7059e+08,222.66,0,4.0081e+08,196.89,12991,12156,1,12156,1,0.00020689,-3.1444e-09,0,0.00062,-3.8344e-05,7.214e+07,-934.38,0,2.1579e+08,3.7786,12155,11317,1,11317,1,-0.00098544,-6.0873e-09,0,3.1566e-05,-0.00026126,-4.0081e+08,-1809.9,0,1.2894e+07,-177.28,11316,11734,1,11734,1,-0.00041311,-4.3909e-09,0,0.00031772,-0.00015422,-1.6801e+08,-1309,0,1.1875e+08,-65.236,11733,12578,1,12578,1,0.00082689,-1.6339e-09,0,0.00092228,7.7668e-05,2.472e+08,-481.96,0,3.0807e+08,48.079,12577,485.01,0,485.01,0,0.00071561,1.7897e-09,0,0.00038563,0.00013386,2.3621e+08,533.3,0,1.1308e+08,69.649,485.01,1
1560,4.61,12156,1,12156,1,0.00020795,-4.4145e-09,0,0.00063873,-3.8454e-05,3.5372e+07,-1344.6,0,2.1058e+08,32.13,12155,12992,1,12992,1,0.0014031,1.8224e-09,0,0.0014031,0.00018524,3.7076e+08,406.15,0,4.0151e+08,314.58,12991,12156,1,12156,1,0.00020795,-4.4281e-09,0,0.00062145,-3.8539e-05,7.2449e+07,-1314.3,0,2.1609e+08,31.83,12155,11317,1,11317,1,-0.00098717,-1.0255e-08,0,3.1066e-05,-0.00026198,-4.0151e+08,-3121.8,0,1.2695e+07,-238.65,11316,11734,1,11734,1,-0.0004135,-6.7436e-09,0,0.00031789,-0.00015469,-1.6817e+08,-2067,0,1.191e+08,-71.979,11733,12578,1,12578,1,0.0008294,-2.2891e-09,0,0.000925,7.7743e-05,2.4754e+08,-631.97,0,3.0831e+08,123.81,12577,485.01,0,485.01,0,0.00071728,2.8838e-09,0,0.00038669,0.00013417,2.365e+08,889.05,0,1.1319e+08,123.33,485.01,1
1560,4.62,12156,1,12156,1,0.00020901,1.8081e-09,0,0.00064033,-3.8648e-05,3.5438e+07,489.24,0,2.1087e+08,-13.823,12155,12992,1,12992,1,0.001407,5.7961e-09,0,0.001407,0.00018556,3.7095e+08,1667.1,0,4.0223e+08,305.71,12991,12156,1,12156,1,0.00020901,1.7326e-09,0,0.00062291,-3.8734e-05,7.276e+07,474.22,0,2.1641e+08,0.20533,12155,11317,1,11317,1,-0.00098892,-1.374e-09,0,3.0567e-05,-0.00026269,-4.0223e+08,-470.4,0,1.2498e+07,-338.18,11316,11734,1,11734,1,-0.00041391,-5.448e-11,0,0.00031808,-0.00015516,-1.6834e+08,-14.67,0,1.1946e+08,-88.497,11733,12578,1,12578,1,0.00083193,3.5538e-09,0,0.00092776,7.7822e-05,2.479e+08,955.35,0,3.0857e+08,61.613,12577,485.01,0,485.01,0,0.00071898,2.0094e-09,0,0.00038777,0.00013449,2.3681e+08,570,0,1.1331e+08,122.02,485.01,1
1560,4.63,12156,1,12156,1,0.00021009,4.4596e-10,0,0.00064195,-3.8846e-05,3.5504e+07,113.43,0,2.1115e+08,-9.3476,12155,12992,1,12992,1,0.0014109,1.7279e-09,0,0.0014109,0.0001859,3.7112e+08,446.73,0,4.0295e+08,178.67,12991,12156,1,12156,1,0.00021009,2.6301e-10,0,0.00062441,-3.8933e-05,7.3074e+07,76.94,0,2.1672e+08,-4.4589,12155,11317,1,11317,1,-0.0009907,-5.3422e-10,0,3.0068e-05,-0.00026342,-4.0295e+08,-168.13,0,1.23e+07,-233.01,11316,11734,1,11734,1,-0.00041432,-8.3297e-11,0,0.00031826,-0.00015563,-1.6851e+08,-27.021,0,1.1983e+08,-70.3,11733,12578,1,12578,1,0.00083449,9.6206e-10,0,0.00093056,7.7901e-05,2.4825e+08,255.12,0,3.0882e+08,49.605,12577,485.01,0,485.01,0,0.0007207,6.1957e-10,0,0.00038886,0.00013481,2.3711e+08,165.84,0,1.1343e+08,83.56,485.01,1
1560,4.64,12156,1,12156,1,0.00021116,-4.517e-09,0,0.00064354,-3.9043e-05,3.5569e+07,-1359.8,0,2.1143e+08,56.726,12155,12992,1,12992,1,0.0014148,1.4013e-09,0,0.0014148,0.00018623,3.7129e+08,309.94,0,4.0367e+08,288.04,12991,12156,1,12156,1,0.00021116,-4.4418e-09,0,0.00062586,-3.913e-05,7.3388e+07,-1314,0,2.1703e+08,46.007,12155,11317,1,11317,1,-0.00099246,-1.0221e-08,0,2.9554e-05,-0.00026415,-4.0367e+08,-3077.2,0,1.2097e+07,-151.51,11316,11734,1,11734,1,-0.0004147,-6.8826e-09,0,0.00031842,-0.0001561,-1.6866e+08,-2119.4,0,1.2019e+08,-14.95,11733,12578,1,12578,1,0.00083703,-2.1912e-09,0,0.00093332,7.7975e-05,2.4858e+08,-633.94,0,3.0906e+08,114.29,12577,485.01,0,485.01,0,0.00072238,2.8821e-09,0,0.00038993,0.00013512,2.374e+08,880.32,0,1.1354e+08,96.353,485.01,1
1560,4.65,12156,1,12156,1,0.00021224,-3.5951e-09,0,0.00064516,-3.9243e-05,3.5635e+07,-1133.3,0,2.1171e+08,-23.692,12155,12992,1,12992,1,0.0014188,1.8635e-09,0,0.0014188,0.00018656,3.7146e+08,412.13,0,4.0439e+08,299.54,12991,12156,1,12156,1,0.00021224,-3.815e-09,0,0.00062734,-3.9331e-05,7.3702e+07,-1160,0,2.1734e+08,12.446,12155,11317,1,11317,1,-0.00099423,-7.9708e-09,0,2.9038e-05,-0.00026488,-4.0439e+08,-2621.7,0,1.1894e+07,-511.86,11316,11734,1,11734,1,-0.00041511,-5.8582e-09,0,0.00031859,-0.00015657,-1.6882e+08,-1862.6,0,1.2055e+08,-134.28,11733,12578,1,12578,1,0.0008396,-1.5789e-09,0,0.00093611,7.8051e-05,2.4893e+08,-454.53,0,3.0931e+08,116.61,12577,485.01,0,485.01,0,0.0007241,2.6384e-09,0,0.00039103,0.00013544,2.3769e+08,844.51,0,1.1366e+08,189.36,485.01,1
1560,4.66,12156,1,12156,1,0.00021334,5.9593e-10,0,0.00064677,-3.9444e-05,3.5701e+07,115.16,0,2.1199e+08,-12.694,12155,12992,1,12992,1,0.0014227,3.6839e-09,0,0.0014227,0.00018689,3.7161e+08,920.21,0,4.0508e+08,338.51,12991,12156,1,12156,1,0.00021334,4.055e-10,0,0.00062882,-3.9532e-05,7.4019e+07,106.38,0,2.1765e+08,-14.134,12155,11317,1,11317,1,-0.00099595,-1.4039e-09,0,2.8511e-05,-0.0002656,-4.0508e+08,-480.65,0,1.1686e+07,-293.97,11316,11734,1,11734,1,-0.00041549,-9.7874e-10,0,0.00031875,-0.00015705,-1.6898e+08,-335.13,0,1.2091e+08,-90.917,11733,12578,1,12578,1,0.00084217,1.9605e-09,0,0.00093891,7.8125e-05,2.4927e+08,498.78,0,3.0955e+08,53.446,12577,485.01,0,485.01,0,0.0007258,1.5742e-09,0,0.00039212,0.00013576,2.3798e+08,436.3,0,1.1377e+08,120.84,485.01,1
1560,4.67,12156,1,12156,1,0.00021443,-3.4875e-09,0,0.00064837,-3.9644e-05,3.5766e+07,-1072.7,0,2.1226e+08,31.292,12155,12992,1,12992,1,0.0014266,1.4984e-09,0,0.0014266,0.00018722,3.7177e+08,329.37,0,4.058e+08,254.86,12991,12156,1,12156,1,0.00021443,-3.5316e-09,0,0.0006303,-3.9733e-05,7.4336e+07,-1059.8,0,2.1795e+08,27.877,12155,11317,1,11317,1,-0.00099772,-8.2684e-09,0,2.7991e-05,-0.00026634,-4.058e+08,-2520.4,0,1.1481e+07,-235.46,11316,11734,1,11734,1,-0.00041587,-5.4843e-09,0,0.0003189,-0.00015752,-1.6914e+08,-1699.3,0,1.2127e+08,-57.319,11733,12578,1,12578,1,0.00084473,-1.6426e-09,0,0.0009417,7.8198e-05,2.4961e+08,-461.63,0,3.0978e+08,120.35,12577,485.01,0,485.01,0,0.00072751,2.4258e-09,0,0.00039321,0.00013607,2.3827e+08,756.59,0,1.1388e+08,113.71,485.01,1
1560,4.68,12156,1,12156,1,0.00021553,-1.4043e-09,0,0.00064999,-3.9847e-05,3.5831e+07,-468.61,0,2.1254e+08,14.653,12155,12992,1,12992,1,0.0014305,2.1374e-09,0,0.0014305,0.00018755,3.7191e+08,531.96,0,4.0651e+08,284.45,12991,12156,1,12156,1,0.00021553,-1.3388e-09,0,0.00063178,-3.9936e-05,7.4655e+07,-427.17,0,2.1826e+08,10.835,12155,11317,1,11317,1,-0.00099946,-4.8398e-09,0,2.7457e-05,-0.00026707,-4.0651e+08,-1529.2,0,1.1272e+07,-195.7,11316,11734,1,11734,1,-0.00041625,-2.9739e-09,0,0.00031905,-0.000158,-1.6929e+08,-934.74,0,1.2164e+08,-45.26,11733,12578,1,12578,1,0.00084731,2.402e-10,0,0.00094451,7.8271e-05,2.4995e+08,60.364,0,3.1001e+08,75.365,12577,485.01,0,485.01,0,0.00072921,1.8253e-09,0,0.00039431,0.00013639,2.3856e+08,565.6,0,1.14e+08,87.198,485.01,1
1560,4.69,12156,1,12156,1,0.00021664,-4.9212e-10,0,0.00065161,-4.005e-05,3.5896e+07,-188.89,0,2.1281e+08,13.636,12155,12992,1,12992,1,0.0014345,1.464e-09,0,0.0014345,0.00018787,3.7206e+08,363.8,0,4.0722e+08,291.54,12991,12156,1,12156,1,0.00021664,-6.0616e-10,0,0.00063326,-4.014e-05,7.4974e+07,-187.91,0,2.1856e+08,4.7659,12155,11317,1,11317,1,-0.0010012,-2.3265e-09,0,2.6924e-05,-0.0002678,-4.0722e+08,-796.35,0,1.1063e+07,-109.12,11316,11734,1,11734,1,-0.00041663,-1.473e-09,0,0.0003192,-0.00015848,-1.6944e+08,-477.46,0,1.22e+08,-33.403,11733,12578,1,12578,1,0.0008499,6.273e-10,0,0.00094733,7.8343e-05,2.5028e+08,145.24,0,3.1024e+08,39.326,12577,485.01,0,485.01,0,0.00073093,1.1122e-09,0,0.00039541,0.00013671,2.3885e+08,339.27,0,1.1411e+08,69.801,485.01,1
1560,4.7,12156,1,12156,1,0.00021774,7.1609e-10,0,0.00065321,-4.0253e-05,3.5961e+07,185.68,0,2.1308e+08,33.401,12155,12992,1,12992,1,0.0014384,2.1244e-09,0,0.0014384,0.0001882,3.722e+08,569.19,0,4.0791e+08,297.32,12991,12156,1,12156,1,0.00021774,6.2105e-10,0,0.00063474,-4.0344e-05,7.5293e+07,165.32,0,2.1886e+08,14.981,12155,11317,1,11317,1,-0.0010029,-4.1414e-10,0,2.6383e-05,-0.00026852,-4.0791e+08,-141.81,0,1.0851e+07,-54.925,11316,11734,1,11734,1,-0.00041699,-6.9173e-12,0,0.00031934,-0.00015896,-1.6959e+08,-2.3686,0,1.2237e+08,-11.801,11733,12578,1,12578,1,0.00085248,1.4717e-09,0,0.00095013,7.8413e-05,2.5061e+08,377.94,0,3.1046e+08,52.724,12577,485.01,0,485.01,0,0.00073262,7.9068e-10,0,0.00039651,0.00013702,2.3913e+08,211.42,0,1.1422e+08,66.365,485.01,1
1560,4.71,12156,1,12156,1,0.00021885,1.9866e-09,0,0.00065481,-4.0457e-05,3.6026e+07,587.11,0,2.1335e+08,86.942,12155,12992,1,12992,1,0.0014423,8.2441e-09,0,0.0014423,0.00018852,3.7233e+08,2437.5,0,4.0862e+08,459.03,12991,12156,1,12156,1,0.00021885,1.6006e-09,0,0.00063621,-4.0549e-05,7.5613e+07,483.16,0,2.1915e+08,55.998,12155,11317,1,11317,1,-0.0010046,-2.9501e-09,0,2.5838e-05,-0.00026925,-4.0862e+08,-866.08,0,1.0639e+07,-191.7,11316,11734,1,11734,1,-0.00041735,-1.4299e-10,0,0.00031947,-0.00015943,-1.6974e+08,-36.549,0,1.2273e+08,-13.403,11733,12578,1,12578,1,0.00085505,3.8254e-09,0,0.00095293,7.8482e-05,2.5094e+08,1137.1,0,3.1068e+08,182.61,12577,485.01,0,485.01,0,0.00073432,2.5808e-09,0,0.0003976,0.00013734,2.3941e+08,761.59,0,1.1433e+08,125.25,485.01,1
1560,4.72,12156,1,12156,1,0.00021997,2.9533e-09,0,0.00065644,-4.0662e-05,3.609e+07,902.62,0,2.1362e+08,23.973,12155,12992,1,12992,1,0.0014463,6.5669e-09,0,0.0014463,0.00018885,3.7247e+08,2141.5,0,4.0933e+08,347.75,12991,12156,1,12156,1,0.00021997,3.0621e-09,0,0.00063769,-4.0755e-05,7.5934e+07,886.22,0,2.1946e+08,9.6279,12155,11317,1,11317,1,-0.0010064,-1.4793e-09,0,2.5295e-05,-0.00026999,-4.0933e+08,-321.53,0,1.0427e+07,-184.76,11316,11734,1,11734,1,-0.00041772,1.5152e-09,0,0.00031962,-0.00015991,-1.6989e+08,425.97,0,1.2309e+08,-59.859,11733,12578,1,12578,1,0.00085766,4.5444e-09,0,0.00095576,7.8553e-05,2.5127e+08,1411.1,0,3.1091e+08,107.98,12577,485.01,0,485.01,0,0.00073603,1.9459e-09,0,0.00039871,0.00013766,2.397e+08,611.62,0,1.1444e+08,108.58,485.01,1
1560,4.73,12156,1,12156,1,0.0002211,-7.3488e-11,0,0.00065807,-4.087e-05,3.6156e+07,19.967,0,2.1389e+08,-16.913,12155,12992,1,12992,1,0.0014503,2.5975e-09,0,0.0014503,0.00018917,3.726e+08,888.05,0,4.1003e+08,281.37,12991,12156,1,12156,1,0.0002211,-1.4565e-10,0,0.00063918,-4.0963e-05,7.6259e+07,-43.794,0,2.1976e+08,-21.771,12155,11317,1,11317,1,-0.0010081,-1.9766e-09,0,2.4735e-05,-0.00027073,-4.1003e+08,-495.52,0,1.0209e+07,-199.88,11316,11734,1,11734,1,-0.00041808,-1.1833e-09,0,0.00031975,-0.0001604,-1.7003e+08,-298.15,0,1.2346e+08,-56.615,11733,12578,1,12578,1,0.00086028,7.7166e-10,0,0.00095861,7.8623e-05,2.516e+08,256.89,0,3.1113e+08,9.1691,12577,485.01,0,485.01,0,0.00073776,1.2352e-09,0,0.00039983,0.00013798,2.3998e+08,367.49,0,1.1455e+08,69.949,485.01,1
1560,4.74,12156,1,12156,1,0.00022223,-6.9617e-10,0,0.0006597,-4.1078e-05,3.622e+07,-183.07,0,2.1415e+08,18.282,12155,12992,1,12992,1,0.0014543,2.6106e-09,0,0.0014543,0.0001895,3.7272e+08,853.68,0,4.1073e+08,200.7,12991,12156,1,12156,1,0.00022223,-6.4111e-10,0,0.00064067,-4.1172e-05,7.6583e+07,-177.19,0,2.2005e+08,20.797,12155,11317,1,11317,1,-0.0010098,-3.4065e-09,0,2.4174e-05,-0.00027147,-4.1073e+08,-986.52,0,9.9914e+06,-99.446,11316,11734,1,11734,1,-0.00041844,-1.8514e-09,0,0.00031987,-0.00016088,-1.7018e+08,-528.25,0,1.2383e+08,-18.293,11733,12578,1,12578,1,0.0008629,3.4554e-10,0,0.00096147,7.8691e-05,2.5193e+08,105.39,0,3.1134e+08,52.737,12577,485.01,0,485.01,0,0.00073947,1.4492e-09,0,0.00040095,0.0001383,2.4026e+08,428.07,0,1.1466e+08,51.218,485.01,1
1560,4.75,12156,1,12156,1,0.00022337,-1.6503e-10,0,0.00066132,-4.1288e-05,3.6285e+07,-41.57,0,2.1442e+08,6.8339,12155,12992,1,12992,1,0.0014583,5.4162e-10,0,0.0014583,0.00018982,3.7284e+08,185.45,0,4.1143e+08,301.06,12991,12156,1,12156,1,0.00022337,-9.2974e-11,0,0.00064216,-4.1382e-05,7.6909e+07,-25.923,0,2.2034e+08,-4.5734,12155,11317,1,11317,1,-0.0010115,-1.8918e-09,0,2.3611e-05,-0.00027221,-4.1143e+08,-515.62,0,9.7729e+06,-104.36,11316,11734,1,11734,1,-0.00041879,-4.0688e-10,0,0.00031999,-0.00016137,-1.7032e+08,-113.54,0,1.242e+08,-39.502,11733,12578,1,12578,1,0.00086553,1.2822e-10,0,0.00096432,7.8758e-05,2.5226e+08,33.508,0,3.1155e+08,32.804,12577,485.01,0,485.01,0,0.00074119,4.5836e-10,0,0.00040207,0.00013862,2.4054e+08,135.12,0,1.1476e+08,70.618,485.01,1
1560,4.76,12156,1,12156,1,0.00022451,3.5318e-09,0,0.00066294,-4.1497e-05,3.6349e+07,1052.2,0,2.1468e+08,51.337,12155,12992,1,12992,1,0.0014623,7.4119e-09,0,0.0014623,0.00019015,3.7295e+08,2143.4,0,4.1213e+08,372.25,12991,12156,1,12156,1,0.00022451,3.663e-09,0,0.00064364,-4.1592e-05,7.7234e+07,1071.1,0,2.2063e+08,22.914,12155,11317,1,11317,1,-0.0010133,-1.1519e-09,0,2.3038e-05,-0.00027295,-4.1213e+08,-247.59,0,9.5515e+06,-136.33,11316,11734,1,11734,1,-0.00041912,2.0006e-09,0,0.0003201,-0.00016185,-1.7046e+08,557.03,0,1.2456e+08,-37.131,11733,12578,1,12578,1,0.00086814,5.2077e-09,0,0.00096716,7.8822e-05,2.5257e+08,1574.8,0,3.1175e+08,140.28,12577,485.01,0,485.01,0,0.00074289,2.0483e-09,0,0.00040318,0.00013893,2.4081e+08,621.08,0,1.1487e+08,115.65,485.01,1
1560,4.77,12156,1,12156,1,0.00022566,6.3539e-10,0,0.00066457,-4.1708e-05,3.6413e+07,226.64,0,2.1494e+08,31.84,12155,12992,1,12992,1,0.0014663,3.3057e-09,0,0.0014663,0.00019047,3.7306e+08,1005.5,0,4.1282e+08,306.61,12991,12156,1,12156,1,0.00022566,6.776e-10,0,0.00064512,-4.1803e-05,7.756e+07,201.53,0,2.2092e+08,7.6641,12155,11317,1,11317,1,-0.001015,-2.0377e-09,0,2.2463e-05,-0.00027369,-4.1282e+08,-514.26,0,9.3294e+06,-177.37,11316,11734,1,11734,1,-0.00041946,-4.9963e-10,0,0.00032021,-0.00016234,-1.7059e+08,-124.06,0,1.2493e+08,-51.371,11733,12578,1,12578,1,0.00087077,1.6912e-09,0,0.00097002,7.8889e-05,2.529e+08,539.17,0,3.1196e+08,118.79,12577,485.01,0,485.01,0,0.00074461,1.2142e-09,0,0.0004043,0.00013925,2.4108e+08,365.52,0,1.1497e+08,113.39,485.01,1
1560,4.78,12156,1,12156,1,0.0002268,-9.6449e-10,0,0.00066617,-4.1917e-05,3.6476e+07,-240.84,0,2.1519e+08,204.4,12155,12992,1,12992,1,0.0014703,1.2057e-08,0,0.0014703,0.00019078,3.7316e+08,3599.1,0,4.135e+08,842.16,12991,12156,1,12156,1,0.0002268,-1.2081e-09,0,0.00064658,-4.2013e-05,7.7885e+07,-308.89,0,2.212e+08,195.67,12155,11317,1,11317,1,-0.0010167,-1.3325e-08,0,2.1884e-05,-0.00027442,-4.135e+08,-3806.4,0,9.1063e+06,-228.86,11316,11734,1,11734,1,-0.00041978,-4.5104e-09,0,0.00032031,-0.00016282,-1.7072e+08,-1314.9,0,1.2529e+08,27.834,11733,12578,1,12578,1,0.00087337,2.5151e-09,0,0.00097285,7.8951e-05,2.532e+08,743.4,0,3.1214e+08,316.56,12577,485.01,0,485.01,0,0.00074629,5.5037e-09,0,0.00040541,0.00013957,2.4134e+08,1625,0,1.1507e+08,206.87,485.01,1
1560,4.79,12156,1,12156,1,0.00022796,2.5546e-09,0,0.00066783,-4.2131e-05,3.6541e+07,786.49,0,2.1546e+08,-26.633,12155,12992,1,12992,1,0.0014744,6.4422e-09,0,0.0014744,0.00019111,3.7328e+08,2202.4,0,4.1422e+08,290.21,12991,12156,1,12156,1,0.00022796,2.7244e-09,0,0.0006481,-4.2227e-05,7.8215e+07,775.25,0,2.215e+08,-13.414,12155,11317,1,11317,1,-0.0010184,-1.9932e-09,0,2.1306e-05,-0.00027518,-4.1422e+08,-431.17,0,8.8839e+06,-363.69,11316,11734,1,11734,1,-0.00042014,1.0121e-09,0,0.00032043,-0.00016331,-1.7087e+08,288.72,0,1.2566e+08,-133.89,11733,12578,1,12578,1,0.00087605,4.1837e-09,0,0.00097575,7.9018e-05,2.5353e+08,1269.5,0,3.1236e+08,87.395,12577,485.01,0,485.01,0,0.00074804,2.0541e-09,0,0.00040655,0.00013989,2.4163e+08,641.4,0,1.1519e+08,147.52,485.01,1
1560,4.8,12156,1,12156,1,0.00022913,1.376e-09,0,0.00066946,-4.2346e-05,3.6605e+07,455.77,0,2.1571e+08,-21.218,12155,12992,1,12992,1,0.0014784,5.497e-09,0,0.0014784,0.00019143,3.7336e+08,1825.7,0,4.149e+08,271.6,12991,12156,1,12156,1,0.00022913,9.0386e-10,0,0.00064958,-4.2443e-05,7.8546e+07,271.65,0,2.2179e+08,-20.664,12155,11317,1,11317,1,-0.0010201,-1.2193e-09,0,2.0706e-05,-0.00027593,-4.149e+08,-330.04,0,8.6536e+06,-240.52,11316,11734,1,11734,1,-0.00042046,-2.0132e-10,0,0.00032052,-0.00016381,-1.71e+08,-46.848,0,1.2603e+08,-87.233,11733,12578,1,12578,1,0.00087871,2.8058e-09,0,0.00097864,7.908e-05,2.5385e+08,904.19,0,3.1255e+08,46.97,12577,485.01,0,485.01,0,0.00074976,1.7981e-09,0,0.00040769,0.00014021,2.4189e+08,579.08,0,1.1529e+08,95.044,485.01,1
1560,4.81,12156,1,12156,1,0.0002303,2.1319e-09,0,0.0006711,-4.2561e-05,3.667e+07,676.97,0,2.1597e+08,2.7682,12155,12992,1,12992,1,0.0014824,7.5041e-09,0,0.0014824,0.00019175,3.7346e+08,2505.6,0,4.156e+08,280.02,12991,12156,1,12156,1,0.0002303,1.6858e-09,0,0.00065108,-4.2659e-05,7.8878e+07,495.35,0,2.2207e+08,4.308,12155,11317,1,11317,1,-0.0010218,-2.232e-09,0,2.011e-05,-0.00027668,-4.156e+08,-604.73,0,8.4252e+06,-299.12,11316,11734,1,11734,1,-0.00042078,-6.7377e-11,0,0.00032061,-0.0001643,-1.7113e+08,-19.006,0,1.264e+08,-77.265,11733,12578,1,12578,1,0.00088137,4.2095e-09,0,0.00098154,7.9142e-05,2.5416e+08,1290.8,0,3.1274e+08,85.832,12577,485.01,0,485.01,0,0.00075149,2.5325e-09,0,0.00040883,0.00014053,2.4216e+08,789.36,0,1.1539e+08,118.02,485.01,1
1560,4.82,12156,1,12156,1,0.00023147,-3.4143e-09,0,0.00067274,-4.2777e-05,3.6733e+07,-952.55,0,2.1622e+08,46.623,12155,12992,1,12992,1,0.0014864,2.4091e-09,0,0.0014864,0.00019207,3.7355e+08,824.73,0,4.1628e+08,328.25,12991,12156,1,12156,1,0.00023148,-3.2195e-09,0,0.00065258,-4.2876e-05,7.9209e+07,-900,0,2.2235e+08,37.18,12155,11317,1,11317,1,-0.0010235,-9.5042e-09,0,1.9506e-05,-0.00027742,-4.1628e+08,-2761.7,0,8.194e+06,-127.23,11316,11734,1,11734,1,-0.00042109,-5.937e-09,0,0.0003207,-0.00016479,-1.7126e+08,-1676.7,0,1.2677e+08,-21.554,11733,12578,1,12578,1,0.00088404,-8.7017e-10,0,0.00098444,7.9204e-05,2.5447e+08,-232.48,0,3.1292e+08,111.7,12577,485.01,0,485.01,0,0.00075321,3.1363e-09,0,0.00040996,0.00014085,2.4242e+08,898.48,0,1.1549e+08,81.301,485.01,1
1560,4.83,12156,1,12156,1,0.00023266,1.1854e-09,0,0.0006744,-4.2996e-05,3.6798e+07,348.48,0,2.1648e+08,-11.649,12155,12992,1,12992,1,0.0014905,3.9312e-09,0,0.0014905,0.00019239,3.7364e+08,1182.1,0,4.1698e+08,311.11,12991,12156,1,12156,1,0.00023266,1.1564e-09,0,0.00065409,-4.3094e-05,7.9544e+07,311.1,0,2.2264e+08,-3.104,12155,11317,1,11317,1,-0.0010252,-6.1557e-10,0,1.8908e-05,-0.00027818,-4.1698e+08,-158.77,0,7.9656e+06,-227.03,11316,11734,1,11734,1,-0.00042142,3.1008e-10,0,0.0003208,-0.00016529,-1.7139e+08,78.288,0,1.2715e+08,-63.249,11733,12578,1,12578,1,0.00088675,1.8496e-09,0,0.00098738,7.9267e-05,2.5479e+08,549.03,0,3.1312e+08,36.868,12577,485.01,0,485.01,0,0.00075496,1.0832e-09,0,0.00041112,0.00014118,2.427e+08,341.09,0,1.156e+08,89.705,485.01,1
1560,4.84,12156,1,12156,1,0.00023385,-8.0179e-10,0,0.00067603,-4.3214e-05,3.6861e+07,-221.77,0,2.1672e+08,27.077,12155,12992,1,12992,1,0.0014946,2.6559e-09,0,0.0014946,0.0001927,3.737e+08,803.96,0,4.1766e+08,319.82,12991,12156,1,12156,1,0.00023385,-5.2789e-10,0,0.00065557,-4.3314e-05,7.9878e+07,-137.35,0,2.2292e+08,26.512,12155,11317,1,11317,1,-0.0010269,-4.8936e-09,0,1.8288e-05,-0.00027893,-4.1766e+08,-1400.4,0,7.7292e+06,-147.34,11316,11734,1,11734,1,-0.00042172,-1.8777e-09,0,0.00032086,-0.00016579,-1.7151e+08,-542.46,0,1.2752e+08,-27.104,11733,12578,1,12578,1,0.00088942,4.273e-10,0,0.00099028,7.9324e-05,2.5509e+08,125.22,0,3.1329e+08,69.815,12577,485.01,0,485.01,0,0.00075667,1.7149e-09,0,0.00041226,0.00014149,2.4295e+08,515.24,0,1.157e+08,78.427,485.01,1
1560,4.85,12156,1,12156,1,0.00023505,-1.3905e-09,0,0.00067769,-4.3434e-05,3.6925e+07,-409.49,0,2.1697e+08,31.671,12155,12992,1,12992,1,0.0014987,1.9983e-09,0,0.0014987,0.00019303,3.7379e+08,599.88,0,4.1835e+08,361.12,12991,12156,1,12156,1,0.00023505,-8.6002e-10,0,0.00065708,-4.3534e-05,8.0214e+07,-239.21,0,2.232e+08,30.101,12155,11317,1,11317,1,-0.0010286,-6.2514e-09,0,1.7675e-05,-0.00027969,-4.1835e+08,-1853.2,0,7.4959e+06,-142.6,11316,11734,1,11734,1,-0.00042203,-2.8241e-09,0,0.00032094,-0.00016628,-1.7164e+08,-835.94,0,1.2789e+08,-28.365,11733,12578,1,12578,1,0.00089212,1.9291e-10,0,0.00099321,7.9384e-05,2.554e+08,52.876,0,3.1347e+08,81.094,12577,485.01,0,485.01,0,0.00075841,2.0667e-09,0,0.00041342,0.00014182,2.4322e+08,622.78,0,1.158e+08,81.48,485.01,1
1560,4.86,12156,1,12156,1,0.00023625,-7.754e-10,0,0.00067935,-4.3656e-05,3.6989e+07,-244.95,0,2.1722e+08,-4.7476,12155,12992,1,12992,1,0.0015028,6.8776e-10,0,0.0015028,0.00019334,3.7385e+08,146.18,0,4.1904e+08,429.74,12991,12156,1,12156,1,0.00023626,-5.7688e-10,0,0.00065859,-4.3756e-05,8.0553e+07,-165.95,0,2.2348e+08,-18.875,12155,11317,1,11317,1,-0.0010303,-2.9078e-09,0,1.7047e-05,-0.00028045,-4.1904e+08,-874.25,0,7.2573e+06,-143.68,11316,11734,1,11734,1,-0.00042233,-1.3231e-09,0,0.00032101,-0.00016679,-1.7176e+08,-409.51,0,1.2827e+08,-61.02,11733,12578,1,12578,1,0.00089484,-1.9777e-10,0,0.00099616,7.9443e-05,2.5571e+08,-52.26,0,3.1365e+08,22.546,12577,485.01,0,485.01,0,0.00076015,8.6448e-10,0,0.00041458,0.00014214,2.4348e+08,270.34,0,1.159e+08,93.845,485.01,1
1560,4.87,12156,1,12156,1,0.00023746,1.1823e-09,0,0.000681,-4.3878e-05,3.7052e+07,330.75,0,2.1747e+08,48.558,12155,12992,1,12992,1,0.0015069,4.638e-09,0,0.0015069,0.00019366,3.7391e+08,1343.8,0,4.1972e+08,381.54,12991,12156,1,12156,1,0.00023746,9.6868e-10,0,0.00066009,-4.3979e-05,8.089e+07,259.06,0,2.2375e+08,35.461,12155,11317,1,11317,1,-0.0010319,-7.4234e-10,0,1.6414e-05,-0.0002812,-4.1972e+08,-225.14,0,7.0173e+06,-141.69,11316,11734,1,11734,1,-0.00042262,7.8637e-11,0,0.00032107,-0.00016729,-1.7188e+08,19.729,0,1.2864e+08,-2.9435,11733,12578,1,12578,1,0.00089755,2.0584e-09,0,0.0009991,7.9499e-05,2.5601e+08,583.76,0,3.1381e+08,98.652,12577,485.01,0,485.01,0,0.00076188,1.3324e-09,0,0.00041574,0.00014246,2.4373e+08,389.22,0,1.16e+08,83.765,485.01,1
1560,4.88,12156,1,12156,1,0.00023868,1.1158e-09,0,0.00068266,-4.4102e-05,3.7116e+07,332.66,0,2.1772e+08,12.838,12155,12992,1,12992,1,0.001511,2.3696e-09,0,0.001511,0.00019398,3.7398e+08,747.65,0,4.2041e+08,387.3,12991,12156,1,12156,1,0.00023868,1.2133e-09,0,0.0006616,-4.4203e-05,8.123e+07,356.18,0,2.2403e+08,8.3149,12155,11317,1,11317,1,-0.0010336,-7.2722e-10,0,1.5782e-05,-0.00028197,-4.2041e+08,-151.82,0,6.7777e+06,-166.26,11316,11734,1,11734,1,-0.00042292,5.5411e-10,0,0.00032114,-0.00016779,-1.72e+08,153.13,0,1.2902e+08,-54.377,11733,12578,1,12578,1,0.00090028,1.7847e-09,0,0.0010021,7.9557e-05,2.5632e+08,527.57,0,3.1398e+08,58.325,12577,485.01,0,485.01,0,0.00076363,7.5552e-10,0,0.00041691,0.00014279,2.4399e+08,223.36,0,1.161e+08,97.715,485.01,1
1560,4.89,12156,1,12156,1,0.0002399,2.3756e-09,0,0.00068432,-4.4327e-05,3.7179e+07,717.24,0,2.1796e+08,63.973,12155,12992,1,12992,1,0.0015151,5.5748e-09,0,0.0015151,0.00019429,3.7403e+08,1683.6,0,4.211e+08,363.34,12991,12156,1,12156,1,0.0002399,2.3258e-09,0,0.0006631,-4.4428e-05,8.1571e+07,719.47,0,2.243e+08,53.481,12155,11317,1,11317,1,-0.0010353,-9.4307e-10,0,1.5137e-05,-0.00028273,-4.211e+08,-196.39,0,6.5338e+06,-117.13,11316,11734,1,11734,1,-0.0004232,1.312e-09,0,0.00032119,-0.0001683,-1.7211e+08,346.5,0,1.2939e+08,15.478,11733,12578,1,12578,1,0.00090301,3.4876e-09,0,0.001005,7.9612e-05,2.5661e+08,1060.4,0,3.1414e+08,109.92,12577,485.01,0,485.01,0,0.00076537,1.51e-09,0,0.00041807,0.00014311,2.4424e+08,469.09,0,1.162e+08,78.943,485.01,1
1560,4.9,12156,1,12156,1,0.00024113,1.3858e-09,0,0.00068597,-4.4552e-05,3.7242e+07,449.01,0,2.182e+08,81.705,12155,12992,1,12992,1,0.0015193,5.8898e-09,0,0.0015193,0.00019461,3.7408e+08,1893.9,0,4.2177e+08,395.17,12991,12156,1,12156,1,0.00024113,9.6055e-10,0,0.00066461,-4.4654e-05,8.1911e+07,294.3,0,2.2457e+08,68.686,12155,11317,1,11317,1,-0.001037,-2.8312e-09,0,1.4487e-05,-0.0002835,-4.2177e+08,-696.39,0,6.2883e+06,-157.53,11316,11734,1,11734,1,-0.00042348,-2.6038e-10,0,0.00032123,-0.0001688,-1.7223e+08,-64.054,0,1.2977e+08,19.792,11733,12578,1,12578,1,0.00090573,2.97e-09,0,0.001008,7.9666e-05,2.5691e+08,915.91,0,3.143e+08,139.51,12577,485.01,0,485.01,0,0.0007671,2.0652e-09,0,0.00041924,0.00014343,2.4449e+08,618.69,0,1.163e+08,99.643,485.01,1
1560,4.91,12156,1,12156,1,0.00024236,-2.1497e-09,0,0.00068764,-4.4779e-05,3.7306e+07,-579.98,0,2.1844e+08,44.02,12155,12992,1,12992,1,0.0015234,9.4221e-10,0,0.0015234,0.00019492,3.7413e+08,322.67,0,4.2245e+08,395.42,12991,12156,1,12156,1,0.00024236,-1.986e-09,0,0.00066613,-4.4881e-05,8.2254e+07,-558.17,0,2.2484e+08,19.593,12155,11317,1,11317,1,-0.0010387,-6.3059e-09,0,1.3836e-05,-0.00028426,-4.2245e+08,-1684.1,0,6.0425e+06,-81.444,11316,11734,1,11734,1,-0.00042376,-3.6305e-09,0,0.00032128,-0.00016931,-1.7234e+08,-967.58,0,1.3014e+08,-16.06,11733,12578,1,12578,1,0.00090848,-4.9163e-10,0,0.001011,7.9721e-05,2.5721e+08,-135.63,0,3.1446e+08,78.068,12577,485.01,0,485.01,0,0.00076885,1.9475e-09,0,0.00042042,0.00014376,2.4475e+08,527.24,0,1.164e+08,88.954,485.01,1
1560,4.92,12156,1,12156,1,0.0002436,1.0385e-09,0,0.00068931,-4.5007e-05,3.7368e+07,310.68,0,2.1867e+08,43.332,12155,12992,1,12992,1,0.0015275,3.3109e-09,0,0.0015275,0.00019523,3.7416e+08,961.84,0,4.2313e+08,405.39,12991,12156,1,12156,1,0.0002436,8.09e-10,0,0.00066763,-4.5109e-05,8.2597e+07,231.41,0,2.2511e+08,29.001,12155,11317,1,11317,1,-0.0010403,-6.8352e-10,0,1.318e-05,-0.00028502,-4.2313e+08,-168.13,0,5.7957e+06,-124.8,11316,11734,1,11734,1,-0.00042403,4.075e-10,0,0.00032132,-0.00016981,-1.7245e+08,112.74,0,1.3052e+08,-19.803,11733,12578,1,12578,1,0.00091123,1.6196e-09,0,0.0010139,7.9773e-05,2.575e+08,488.2,0,3.1461e+08,92.035,12577,485.01,0,485.01,0,0.00077059,8.8365e-10,0,0.00042159,0.00014408,2.4499e+08,268.84,0,1.1649e+08,88.655,485.01,1
1560,4.93,12156,1,12156,1,0.00024484,-4.1795e-09,0,0.00069095,-4.5234e-05,3.743e+07,-1201.2,0,2.189e+08,67.682,12155,12992,1,12992,1,0.0015317,1.7869e-09,0,0.0015317,0.00019555,3.742e+08,367.68,0,4.238e+08,473.08,12991,12156,1,12156,1,0.00024484,-3.3656e-09,0,0.00066913,-4.5338e-05,8.2939e+07,-944.02,0,2.2537e+08,62.186,12155,11317,1,11317,1,-0.001042,-1.2932e-08,0,1.2515e-05,-0.00028579,-4.238e+08,-3729.4,0,5.5454e+06,-147.87,11316,11734,1,11734,1,-0.00042428,-6.9157e-09,0,0.00032134,-0.00017032,-1.7255e+08,-2006.7,0,1.3068e+08,-21.445,11733,12578,1,12578,1,0.00091395,-9.2188e-10,0,0.0010169,7.9822e-05,2.5778e+08,-253.07,0,3.1475e+08,146.23,12577,485.01,0,485.01,0,0.00077231,3.8548e-09,0,0.00042276,0.0001444,2.4523e+08,1103.3,0,1.1659e+08,107.26,485.01,1
1560,4.94,12156,1,12156,1,0.00024608,-4.1807e-09,0,0.00069263,-4.5464e-05,3.7494e+07,-1257.2,0,2.1914e+08,-36.232,12155,12992,1,12992,1,0.0015359,2.3965e-09,0,0.0015359,0.00019586,3.7424e+08,492.71,0,4.2448e+08,442.02,12991,12156,1,12156,1,0.00024609,-3.6431e-09,0,0.00067064,-4.5568e-05,8.3284e+07,-1082.5,0,2.2564e+08,-47.7,12155,11317,1,11317,1,-0.0010437,-1.1991e-08,0,1.185e-05,-0.00028657,-4.2448e+08,-3572.3,0,5.2956e+06,-288.37,11316,11734,1,11734,1,-0.00042456,-6.5611e-09,0,0.00032138,-0.00017083,-1.7266e+08,-1991,0,1.307e+08,-123.58,11733,12578,1,12578,1,0.00091672,-1.7637e-09,0,0.0010199,7.9876e-05,2.5808e+08,-487.77,0,3.1491e+08,38.261,12577,485.01,0,485.01,0,0.00077407,3.2705e-09,0,0.00042395,0.00014473,2.4549e+08,996.55,0,1.1668e+08,114.45,485.01,1
1560,4.95,12156,1,12156,1,0.00024734,-2.8943e-09,0,0.00069431,-4.5695e-05,3.7557e+07,-917.27,0,2.1938e+08,13.882,12155,12992,1,12992,1,0.00154,2.0986e-09,0,0.00154,0.00019617,3.7426e+08,430.95,0,4.2516e+08,651.1,12991,12156,1,12156,1,0.00024734,-2.5416e-09,0,0.00067216,-4.5799e-05,8.3632e+07,-757.21,0,2.259e+08,-1.8084,12155,11317,1,11317,1,-0.0010453,-9.4688e-09,0,1.1171e-05,-0.00028734,-4.2516e+08,-2842.1,0,5.0406e+06,-200.7,11316,11734,1,11734,1,-0.00042482,-5.256e-09,0,0.00032141,-0.00017134,-1.7277e+08,-1617.4,0,1.3071e+08,-80.545,11733,12578,1,12578,1,0.0009195,-5.7918e-10,0,0.0010229,7.9926e-05,2.5837e+08,-157.6,0,3.1505e+08,67.726,12577,485.01,0,485.01,0,0.00077582,2.9709e-09,0,0.00042514,0.00014505,2.4573e+08,913.94,0,1.1678e+08,132.74,485.01,1
1560,4.96,12156,1,12156,1,0.00024861,-2.3186e-09,0,0.00069597,-4.5927e-05,3.7619e+07,-759.09,0,2.1961e+08,69.517,12155,12992,1,12992,1,0.0015442,3.039e-09,0,0.0015442,0.00019648,3.7428e+08,721.93,0,4.2583e+08,837.94,12991,12156,1,12156,1,0.00024861,-1.5842e-09,0,0.00067367,-4.6031e-05,8.3978e+07,-497.98,0,2.2616e+08,21.209,12155,11317,1,11317,1,-0.001047,-1.03e-08,0,1.049e-05,-0.00028811,-4.2583e+08,-3083.4,0,4.7853e+06,-197.99,11316,11734,1,11734,1,-0.00042506,-4.8382e-09,0,0.00032142,-0.00017185,-1.7287e+08,-1499.1,0,1.3071e+08,-49.196,11733,12578,1,12578,1,0.00092227,6.3285e-10,0,0.0010259,7.9975e-05,2.5865e+08,151.09,0,3.1519e+08,153.66,12577,485.01,0,485.01,0,0.00077756,3.4573e-09,0,0.00042633,0.00014538,2.4597e+08,1041.2,0,1.1687e+08,175.09,485.01,1
1560,4.97,12156,1,12156,1,0.00024988,2.2227e-10,0,0.00069767,-4.6161e-05,3.7682e+07,-22.791,0,2.1984e+08,14.791,12155,12992,1,12992,1,0.0015484,3.6177e-09,0,0.0015484,0.0001968,3.7431e+08,824.36,0,4.265e+08,672.59,12991,12156,1,12156,1,0.00024988,1.7673e-10,0,0.0006752,-4.6267e-05,8.4328e+07,50.625,0,2.2642e+08,-11.183,12155,11317,1,11317,1,-0.0010486,-3.902e-09,0,9.8056e-06,-0.00028889,-4.265e+08,-1335.4,0,4.529e+06,-199.4,11316,11734,1,11734,1,-0.00042533,-1.361e-09,0,0.00032145,-0.00017237,-1.7298e+08,-451.62,0,1.3072e+08,-85.986,11733,12578,1,12578,1,0.00092508,2.1007e-09,0,0.001029,8.0026e-05,2.5894e+08,491.06,0,3.1534e+08,59.673,12577,485.01,0,485.01,0,0.00077934,2.0238e-09,0,0.00042754,0.0001457,2.4622e+08,573.39,0,1.1697e+08,150.66,485.01,1
1560,4.98,12156,1,12156,1,0.00025116,9.8541e-10,0,0.00069935,-4.6397e-05,3.7745e+07,229.32,0,2.2007e+08,12.769,12155,12992,1,12992,1,0.0015526,4.0263e-09,0,0.0015526,0.0001971,3.7431e+08,1032.4,0,4.2716e+08,623.7,12991,12156,1,12156,1,0.00025117,9.5176e-10,0,0.00067672,-4.6503e-05,8.468e+07,248.15,0,2.2668e+08,-3.6331,12155,11317,1,11317,1,-0.0010502,-1.7673e-09,0,9.1083e-06,-0.00028966,-4.2716e+08,-604.85,0,4.2684e+06,-1035.1,11316,11734,1,11734,1,-0.00042556,-2.7246e-10,0,0.00032145,-0.00017289,-1.7307e+08,-87.633,0,1.3072e+08,-48.404,11733,12578,1,12578,1,0.00092789,2.3482e-09,0,0.001032,8.0072e-05,2.5922e+08,580.79,0,3.1546e+08,50.964,12577,485.01,0,485.01,0,0.00078109,1.4968e-09,0,0.00042874,0.00014603,2.4645e+08,405.59,0,1.1706e+08,159.5,485.01,1
1560,4.99,12156,1,12156,1,0.00025245,-3.0237e-09,0,0.00070104,-4.6633e-05,3.7807e+07,-907.6,0,2.203e+08,62.139,12155,12992,1,12992,1,0.0015568,1.3674e-09,0,0.0015568,0.00019742,3.7432e+08,277.59,0,4.2784e+08,654.72,12991,12156,1,12156,1,0.00025245,-2.9232e-09,0,0.00067825,-4.674e-05,8.5031e+07,-848.36,0,2.2694e+08,35.785,12155,11317,1,11317,1,-0.0010519,-7.5837e-09,0,8.4143e-06,-0.00029045,-4.2784e+08,-2398,0,4.009e+06,-473.01,11316,11734,1,11734,1,-0.0004258,-4.7132e-09,0,0.00032146,-0.00017341,-1.7317e+08,-1417.2,0,1.3073e+08,-25.291,11733,12578,1,12578,1,0.0009307,-1.3992e-09,0,0.001035,8.0119e-05,2.595e+08,-386.33,0,3.1559e+08,123.02,12577,485.01,0,485.01,0,0.00078285,2.1355e-09,0,0.00042995,0.00014636,2.4669e+08,652.45,0,1.1715e+08,137.56,485.01,1
1560,5,12156,1,12156,1,0.00025374,-5.4007e-10,0,0.00070273,-4.6871e-05,3.787e+07,-210.7,0,2.2052e+08,39.529,12155,12992,1,12992,1,0.001561,1.7933e-09,0,0.001561,0.00019772,3.7432e+08,394.83,0,4.285e+08,680,12991,12156,1,12156,1,0.00025374,-8.5175e-10,0,0.00067977,-4.6978e-05,8.5383e+07,-249.18,0,2.2719e+08,-9.6341,12155,11317,1,11317,1,-0.0010535,-2.3838e-09,0,7.7062e-06,-0.00029123,-4.285e+08,-815.84,0,3.7448e+06,-117.06,11316,11734,1,11734,1,-0.00042604,-1.6575e-09,0,0.00032146,-0.00017393,-1.7327e+08,-536.14,0,1.3072e+08,-47.837,11733,12578,1,12578,1,0.00093352,6.6084e-10,0,0.0010381,8.0165e-05,2.5978e+08,143.51,0,3.1572e+08,71.464,12577,485.01,0,485.01,0,0.00078461,1.2107e-09,0,0.00043116,0.00014668,2.4693e+08,356.86,0,1.1725e+08,143.73,485.01,1
1560,5.01,12156,1,12156,1,0.00025504,7.8076e-10,0,0.00070442,-4.7109e-05,3.7932e+07,184.6,0,2.2074e+08,83.859,12155,12992,1,12992,1,0.0015653,5.4296e-09,0,0.0015653,0.00019803,3.7432e+08,1385.6,0,4.2917e+08,642.78,12991,12156,1,12156,1,0.00025504,4.6111e-10,0,0.0006813,-4.7217e-05,8.5736e+07,110.63,0,2.2745e+08,57.081,12155,11317,1,11317,1,-0.0010552,-2.2845e-09,0,6.9972e-06,-0.00029201,-4.2917e+08,-681.38,0,3.4805e+06,-156.38,11316,11734,1,11734,1,-0.00042626,-6.3775e-10,0,0.00032145,-0.00017445,-1.7336e+08,-204.54,0,1.3072e+08,-1.3904,11733,12578,1,12578,1,0.00093634,2.05e-09,0,0.0010412,8.021e-05,2.6005e+08,538.44,0,3.1584e+08,132.53,12577,485.01,0,485.01,0,0.00078637,1.8643e-09,0,0.00043238,0.00014701,2.4716e+08,511.5,0,1.1734e+08,135.36,485.01,1
1560,5.02,12156,1,12156,1,0.00025634,-1.3831e-09,0,0.0007061,-4.7348e-05,3.7994e+07,-417.76,0,2.2096e+08,87.43,12155,12992,1,12992,1,0.0015695,2.2905e-09,0,0.0015695,0.00019834,3.7431e+08,558.94,0,4.2983e+08,638.06,12991,12156,1,12156,1,0.00025634,-8.8112e-10,0,0.00068283,-4.7457e-05,8.609e+07,-266.23,0,2.277e+08,40.99,12155,11317,1,11317,1,-0.0010568,-5.809e-09,0,6.281e-06,-0.00029279,-4.2983e+08,-1699.3,0,3.2137e+06,-94.953,11316,11734,1,11734,1,-0.00042648,-2.5783e-09,0,0.00032143,-0.00017497,-1.7345e+08,-775.25,0,1.3072e+08,-15.155,11733,12578,1,12578,1,0.00093917,-6.2614e-11,0,0.0010442,8.0253e-05,2.6033e+08,-17.524,0,3.1595e+08,156.73,12577,485.01,0,485.01,0,0.00078813,1.8185e-09,0,0.00043359,0.00014734,2.4739e+08,520.66,0,1.1743e+08,140.24,485.01,1
1560,5.03,12156,1,12156,1,0.00025765,-8.2464e-10,0,0.0007078,-4.7588e-05,3.8056e+07,-269.1,0,2.2119e+08,96.24,12155,12992,1,12992,1,0.0015738,3.057e-09,0,0.0015738,0.00019865,3.743e+08,763.28,0,4.305e+08,706.55,12991,12156,1,12156,1,0.00025765,-4.0459e-10,0,0.00068436,-4.7698e-05,8.6446e+07,-128.58,0,2.2804e+08,53.136,12155,11317,1,11317,1,-0.0010584,-5.1828e-09,0,5.5601e-06,-0.00029358,-4.305e+08,-1488.4,0,2.9454e+06,-104.28,11316,11734,1,11734,1,-0.00042671,-2.116e-09,0,0.00032142,-0.0001755,-1.7354e+08,-637.67,0,1.3071e+08,1.2069,11733,12578,1,12578,1,0.00094201,5.9715e-10,0,0.0010473,8.0297e-05,2.606e+08,138.01,0,3.1607e+08,153.14,12577,485.01,0,485.01,0,0.0007899,1.8582e-09,0,0.00043482,0.00014767,2.4762e+08,535.27,0,1.1752e+08,143.7,485.01,1
1560,5.04,12156,1,12156,1,0.00025897,-4.4834e-10,0,0.0007095,-4.7831e-05,3.8118e+07,-160.15,0,2.214e+08,52.888,12155,12992,1,12992,1,0.001578,1.9901e-09,0,0.001578,0.00019895,3.7428e+08,479.64,0,4.3116e+08,670.59,12991,12156,1,12156,1,0.00025897,-4.6255e-10,0,0.00068589,-4.7942e-05,8.6803e+07,-143.66,0,2.2836e+08,6.7641,12155,11317,1,11317,1,-0.0010601,-2.5036e-09,0,4.8279e-06,-0.00029437,-4.3116e+08,-768.42,0,2.673e+06,-106.67,11316,11734,1,11734,1,-0.00042692,-1.1914e-09,0,0.0003214,-0.00017603,-1.7362e+08,-371.25,0,1.307e+08,-24.831,11733,12578,1,12578,1,0.00094487,4.2236e-10,0,0.0010504,8.0338e-05,2.6087e+08,94.95,0,3.1618e+08,93.179,12577,485.01,0,485.01,0,0.00079167,9.6364e-10,0,0.00043605,0.00014799,2.4785e+08,281.6,0,1.1761e+08,132.4,485.01,1
1560,5.05,12156,1,12156,1,0.0002603,1.0898e-09,0,0.00071121,-4.8075e-05,3.818e+07,289.86,0,2.2162e+08,62.552,12155,12992,1,12992,1,0.0015823,4.2289e-09,0,0.0015823,0.00019926,3.7427e+08,1089.5,0,4.3182e+08,687.25,12991,12156,1,12156,1,0.0002603,8.9265e-10,0,0.00068744,-4.8187e-05,8.7162e+07,243,0,2.287e+08,28.386,12155,11317,1,11317,1,-0.0010617,-8.4387e-10,0,4.0937e-06,-0.00029516,-4.3182e+08,-198.18,0,2.4e+06,-117.99,11316,11734,1,11734,1,-0.00042713,2.0201e-10,0,0.00032137,-0.00017656,-1.7371e+08,65.4,0,1.3069e+08,-23.455,11733,12578,1,12578,1,0.00094773,1.8432e-09,0,0.0010535,8.0381e-05,2.6114e+08,476.92,0,3.1629e+08,106.57,12577,485.01,0,485.01,0,0.00079345,1.0697e-09,0,0.00043728,0.00014833,2.4808e+08,280.42,0,1.177e+08,133.05,485.01,1
1560,5.06,12156,1,12156,1,0.00026163,-2.2889e-09,0,0.0007129,-4.8318e-05,3.8241e+07,-660.2,0,2.2183e+08,139.45,12155,12992,1,12992,1,0.0015866,1.4663e-09,0,0.0015866,0.00019956,3.7423e+08,414.83,0,4.3248e+08,692.71,12991,12156,1,12156,1,0.00026163,-1.952e-09,0,0.00068896,-4.8431e-05,8.7519e+07,-563.92,0,2.2902e+08,85.031,12155,11317,1,11317,1,-0.0010633,-7.2806e-09,0,3.353e-06,-0.00029595,-4.3248e+08,-2064.4,0,2.1248e+06,-109.13,11316,11734,1,11734,1,-0.00042733,-3.6178e-09,0,0.00032133,-0.00017708,-1.7379e+08,-1063.1,0,1.3067e+08,34.48,11733,12578,1,12578,1,0.00095059,-7.1343e-10,0,0.0010566,8.0419e-05,2.614e+08,-210.38,0,3.1639e+08,207.11,12577,485.01,0,485.01,0,0.00079521,2.0835e-09,0,0.00043851,0.00014865,2.483e+08,580.98,0,1.1779e+08,147.95,485.01,1
1560,5.07,12156,1,12156,1,0.00026297,-3.0031e-09,0,0.00071461,-4.8564e-05,3.8303e+07,-895.94,0,2.2205e+08,129.32,12155,12992,1,12992,1,0.0015909,1.9013e-09,0,0.0015909,0.00019987,3.7421e+08,377.36,0,4.3314e+08,690.38,12991,12156,1,12156,1,0.00026297,-2.7146e-09,0,0.0006905,-4.8677e-05,8.7879e+07,-802.91,0,2.2935e+08,86.721,12155,11317,1,11317,1,-0.0010649,-9.5466e-09,0,2.6066e-06,-0.00029675,-4.3314e+08,-2794.8,0,1.8477e+06,-145.58,11316,11734,1,11734,1,-0.00042753,-4.7826e-09,0,0.0003213,-0.00017761,-1.7387e+08,-1429.3,0,1.3066e+08,28.23,11733,12578,1,12578,1,0.00095346,-1.0739e-09,0,0.0010597,8.046e-05,2.6167e+08,-287.62,0,3.1649e+08,204.98,12577,485.01,0,485.01,0,0.00079699,2.631e-09,0,0.00043975,0.00014898,2.4853e+08,762.79,0,1.1788e+08,145.21,485.01,1
1560,5.08,12156,1,12156,1,0.00026432,-1.0547e-10,0,0.00071633,-4.8812e-05,3.8365e+07,-94.022,0,2.2226e+08,45.149,12155,12992,1,12992,1,0.0015952,2.7635e-09,0,0.0015952,0.00020017,3.7417e+08,623.69,0,4.3379e+08,843.92,12991,12156,1,12156,1,0.00026432,-2.5472e-10,0,0.00069204,-4.8926e-05,8.8242e+07,-70.546,0,2.2968e+08,-5.9451,12155,11317,1,11317,1,-0.0010665,-3.2585e-09,0,1.8474e-06,-0.00029755,-4.3379e+08,-1115.2,0,1.566e+06,-164.42,11316,11734,1,11734,1,-0.00042773,-1.304e-09,0,0.00032126,-0.00017815,-1.7395e+08,-439.39,0,1.3064e+08,-60.791,11733,12578,1,12578,1,0.00095636,1.0853e-09,0,0.0010628,8.0499e-05,2.6193e+08,240.77,0,3.166e+08,92.436,12577,485.01,0,485.01,0,0.00079877,1.41e-09,0,0.000441,0.00014931,2.4875e+08,401.11,0,1.1797e+08,175.03,485.01,1
1560,5.09,12156,1,12156,1,0.00026567,-1.4449e-09,0,0.00071804,-4.906e-05,3.8427e+07,-457.2,0,2.2247e+08,140.9,12155,12992,1,12992,1,0.0015995,5.0192e-09,0,0.0015995,0.00020048,3.7413e+08,1193.5,0,4.3445e+08,669.38,12991,12156,1,12156,1,0.00026567,-1.2417e-09,0,0.00069358,-4.9175e-05,8.8604e+07,-369.03,0,2.3e+08,134.36,12155,11317,1,11317,1,-0.0010682,-6.1881e-09,0,1.0867e-06,-0.00029834,-4.3445e+08,-1811,0,1.2839e+06,-105.38,11316,11734,1,11734,1,-0.00042791,-3.3403e-09,0,0.0003212,-0.00017868,-1.7402e+08,-994.24,0,1.3062e+08,48.066,11733,12578,1,12578,1,0.00095925,3.02e-10,0,0.001066,8.0535e-05,2.6219e+08,75.18,0,3.1668e+08,214.12,12577,485.01,0,485.01,0,0.00080054,2.4161e-09,0,0.00044225,0.00014964,2.4896e+08,676.39,0,1.1805e+08,125.99,485.01,1
1560,5.1,12156,1,12156,1,0.00026702,-1.5084e-09,0,0.00071973,-4.9308e-05,3.8487e+07,-484.19,0,2.2267e+08,148.61,12155,12992,1,12992,1,0.0016038,5.4723e-09,0,0.0016038,0.00020078,3.7407e+08,1338.2,0,4.3509e+08,852.5,12991,12156,1,12156,1,0.00026702,-1.1967e-09,0,0.0006951,-4.9424e-05,8.8964e+07,-355.62,0,2.3032e+08,108.61,12155,11317,1,11317,1,-0.0010697,-7.883e-09,0,3.2178e-07,-0.00029914,-4.3509e+08,-2135.3,0,1.0004e+06,-82.846,11316,11734,1,11734,1,-0.00042808,-3.6559e-09,0,0.00032114,-0.00017921,-1.741e+08,-1103,0,1.306e+08,36.926,11733,12578,1,12578,1,0.00096213,6.5009e-10,0,0.0010691,8.057e-05,2.6244e+08,142.99,0,3.1676e+08,230.61,12577,485.01,0,485.01,0,0.0008023,2.7904e-09,0,0.00044349,0.00014997,2.4918e+08,792.62,0,1.1814e+08,156.49,485.01,1
1560,5.11,12156,1,12156,1,0.00026838,-3.8412e-09,0,0.00072148,-4.9557e-05,3.8548e+07,-1156.7,0,2.2288e+08,157.7,12155,12992,1,12992,1,0.0016082,2.6911e-09,0,0.0016082,0.00020108,3.7403e+08,618.26,0,4.3575e+08,800.47,12991,12156,1,12156,1,0.00026838,-3.6272e-09,0,0.00069665,-4.9674e-05,8.9326e+07,-1034.1,0,2.3064e+08,130.74,12155,11317,1,11317,1,-0.0010714,-1.0201e-08,0,4.3263e-07,-0.00029994,-4.3575e+08,-2993.3,0,7.1657e+05,-176.3,11316,11734,1,11734,1,-0.00042826,-6.6762e-09,0,0.00032197,-0.00017975,-1.7417e+08,-1995.8,0,1.3057e+08,51.313,11733,12578,1,12578,1,0.00096502,-1.3067e-09,0,0.0010713,8.0606e-05,2.627e+08,-356.81,0,3.1685e+08,240.92,12577,485.01,0,485.01,0,0.00080408,3.3011e-09,0,0.00044469,0.0001503,2.4939e+08,978.46,0,1.1822e+08,150.95,485.01,1
1560,5.12,12156,1,12156,1,0.00026976,2.1524e-09,0,0.00072327,-4.9809e-05,3.861e+07,520.19,0,2.2309e+08,55.831,12155,12992,1,12992,1,0.0016125,6.9245e-09,0,0.0016125,0.00020138,3.7398e+08,1736.3,0,4.364e+08,896.43,12991,12156,1,12156,1,0.00026975,1.8499e-09,0,0.00069821,-4.9927e-05,8.9693e+07,466.48,0,2.3096e+08,10.7,12155,11317,1,11317,1,-0.0010729,-1.3142e-09,0,1.2042e-06,-0.00030074,-4.364e+08,-450,0,4.2739e+05,-212.04,11316,11734,1,11734,1,-0.00042845,4.8595e-11,0,0.00032346,-0.00018029,-1.7424e+08,15.403,0,1.3055e+08,-67.14,11733,12578,1,12578,1,0.00096795,4.36e-09,0,0.0010729,8.0642e-05,2.6296e+08,1057.8,0,3.1694e+08,111.89,12577,485.01,0,485.01,0,0.00080588,2.3322e-09,0,0.00044586,0.00015063,2.4961e+08,587.94,0,1.1831e+08,193.14,485.01,1
1560,5.13,12156,1,12156,1,0.00027114,-9.3449e-10,0,0.00072506,-5.0064e-05,3.8671e+07,-309.86,0,2.2329e+08,108.58,12155,12992,1,12992,1,0.0016169,2.7269e-09,0,0.0016169,0.00020168,3.7391e+08,632.13,0,4.3705e+08,900.38,12991,12156,1,12156,1,0.00027114,-9.9607e-10,0,0.00069976,-5.0182e-05,9.0061e+07,-306.89,0,2.3128e+08,46.061,12155,11317,1,11317,1,-0.0010746,-3.976e-09,0,1.9985e-06,-0.00030155,-4.3705e+08,-1043,0,1.3815e+05,-91.314,11316,11734,1,11734,1,-0.00042861,-2.0991e-09,0,0.00032497,-0.00018083,-1.7431e+08,-644.1,0,1.3052e+08,-7.8771,11733,12578,1,12578,1,0.00097089,3.6321e-10,0,0.0010745,8.0676e-05,2.6321e+08,82.325,0,3.1702e+08,167.65,12577,485.01,0,485.01,0,0.00080767,1.4013e-09,0,0.00044704,0.00015097,2.4983e+08,406.13,0,1.184e+08,178.92,485.01,1
1560,5.14,12156,1,12156,1,0.00027253,-2.8297e-09,0,0.00072685,-5.0319e-05,3.8732e+07,-852.24,0,2.235e+08,178.94,12155,12992,1,12992,1,0.0016213,1.7875e-09,0,0.0016213,0.00020198,3.7385e+08,562.23,0,4.377e+08,941.01,12991,12156,1,12156,1,0.00027253,-2.832e-09,0,0.00070131,-5.0438e-05,9.0428e+07,-866.6,0,2.316e+08,129,12155,11317,1,11317,1,-0.0010762,-7.684e-09,0,2.7914e-06,-0.00030236,-4.377e+08,-2248.7,0,1.5115e+05,-85.977,11316,11734,1,11734,1,-0.00042877,-4.7285e-09,0,0.00032648,-0.00018137,-1.7438e+08,-1410.2,0,1.3049e+08,58.052,11733,12578,1,12578,1,0.00097384,-1.0541e-09,0,0.0010761,8.0708e-05,2.6345e+08,-285.65,0,3.1709e+08,249.08,12577,485.01,0,485.01,0,0.00080946,2.3514e-09,0,0.00044821,0.0001513,2.5004e+08,694.61,0,1.1846e+08,175.18,485.01,1
1560,5.15,12156,1,12156,1,0.00027393,1.8017e-09,0,0.00072865,-5.0575e-05,3.8793e+07,441.19,0,2.2373e+08,137.32,12155,12992,1,12992,1,0.0016256,7.542e-09,0,0.0016256,0.00020228,3.7378e+08,1865.3,0,4.3834e+08,968.23,12991,12156,1,12156,1,0.00027393,1.2933e-09,0,0.00070287,-5.0696e-05,9.0799e+07,326.56,0,2.3192e+08,84.36,12155,11317,1,11317,1,-0.0010777,-1.2322e-09,0,3.5871e-06,-0.00030317,-4.3834e+08,-345.58,0,4.4495e+05,-104.61,11316,11734,1,11734,1,-0.00042893,-1.1785e-10,0,0.00032799,-0.00018192,-1.7444e+08,-36.63,0,1.3046e+08,9.1504,11733,12578,1,12578,1,0.00097679,3.5576e-09,0,0.0010777,8.074e-05,2.637e+08,878.75,0,3.1716e+08,209.2,12577,485.01,0,485.01,0,0.00081125,2.1954e-09,0,0.00044939,0.00015163,2.5025e+08,557.26,0,1.185e+08,186.17,485.01,1
1560,5.16,12156,1,12156,1,0.00027534,-2.2953e-09,0,0.00073045,-5.0833e-05,3.8854e+07,-684.35,0,2.2395e+08,132.64,12155,12992,1,12992,1,0.00163,1.5883e-09,0,0.00163,0.00020258,3.737e+08,454.51,0,4.39e+08,1005.6,12991,12156,1,12156,1,0.00027533,-2.4606e-09,0,0.00070442,-5.0955e-05,9.1169e+07,-730.54,0,2.3224e+08,76.88,12155,11317,1,11317,1,-0.0010793,-5.6367e-09,0,4.3999e-06,-0.00030398,-4.39e+08,-1627.5,0,7.4471e+05,-900.61,11316,11734,1,11734,1,-0.00042908,-3.6078e-09,0,0.00032952,-0.00018246,-1.745e+08,-1101,0,1.3042e+08,26.42,11733,12578,1,12578,1,0.00097975,-9.7879e-10,0,0.0010793,8.0771e-05,2.6395e+08,-275.01,0,3.1723e+08,198.35,12577,485.01,0,485.01,0,0.00081305,1.7187e-09,0,0.00045058,0.00015196,2.5045e+08,508.56,0,1.1854e+08,209.03,485.01,1
1560,5.17,12156,1,12156,1,0.00027675,-1.8235e-09,0,0.00073224,-5.1092e-05,3.8914e+07,-572.84,0,2.2416e+08,180.35,12155,12992,1,12992,1,0.0016344,4.9224e-09,0,0.0016344,0.00020288,3.7361e+08,1138.5,0,4.3964e+08,1121.2,12991,12156,1,12156,1,0.00027674,-1.7145e-09,0,0.00070598,-5.1214e-05,9.154e+07,-510.97,0,2.3255e+08,106.34,12155,11317,1,11317,1,-0.0010809,-7.2808e-09,0,5.2104e-06,-0.0003048,-4.3964e+08,-2221.3,0,1.0437e+06,-314.07,11316,11734,1,11734,1,-0.00042922,-3.7474e-09,0,0.00033105,-0.00018301,-1.7456e+08,-1137.4,0,1.3038e+08,44.548,11733,12578,1,12578,1,0.00098271,1.4562e-10,0,0.0010809,8.08e-05,2.6419e+08,38.713,0,3.1729e+08,257.95,12577,485.01,0,485.01,0,0.00081484,2.5713e-09,0,0.00045176,0.0001523,2.5065e+08,724.17,0,1.1858e+08,212.76,485.01,1
1560,5.18,12156,1,12156,1,0.00027817,5.6684e-10,0,0.00073405,-5.1352e-05,3.8975e+07,96.925,0,2.2439e+08,146.83,12155,12992,1,12992,1,0.0016389,5.5119e-09,0,0.0016389,0.00020318,3.7354e+08,1337.2,0,4.4028e+08,1057.5,12991,12156,1,12156,1,0.00027816,2.4629e-10,0,0.00070755,-5.1476e-05,9.1914e+07,61.167,0,2.3286e+08,85.783,12155,11317,1,11317,1,-0.0010825,-2.8152e-09,0,6.0256e-06,-0.00030562,-4.4028e+08,-717.65,0,1.344e+06,-90.932,11316,11734,1,11734,1,-0.00042938,-9.9852e-10,0,0.00033259,-0.00018356,-1.7462e+08,-325.4,0,1.3034e+08,20.944,11733,12578,1,12578,1,0.00098571,2.0296e-09,0,0.0010825,8.083e-05,2.6443e+08,479.75,0,3.1736e+08,206.11,12577,485.01,0,485.01,0,0.00081666,1.8574e-09,0,0.00045296,0.00015263,2.5086e+08,490.29,0,1.1862e+08,196.23,485.01,1
1560,5.19,12156,1,12156,1,0.0002796,-2.9849e-09,0,0.00073587,-5.1615e-05,3.9037e+07,-886.88,0,2.246e+08,153.65,12155,12992,1,12992,1,0.0016433,1.5713e-09,0,0.0016433,0.00020348,3.7344e+08,385.95,0,4.4093e+08,1049.9,12991,12156,1,12156,1,0.0002796,-3.2234e-09,0,0.00070911,-5.174e-05,9.2289e+07,-955.29,0,2.3318e+08,99.989,12155,11317,1,11317,1,-0.0010841,-7.3015e-09,0,6.8595e-06,-0.00030644,-4.4093e+08,-1933,0,1.651e+06,-114.4,11316,11734,1,11734,1,-0.00042951,-4.6057e-09,0,0.00033415,-0.00018412,-1.7467e+08,-1408.1,0,1.303e+08,35.539,11733,12578,1,12578,1,0.00098871,-1.3346e-09,0,0.0010841,8.0858e-05,2.6467e+08,-370.82,0,3.1741e+08,217.39,12577,485.01,0,485.01,0,0.00081846,2.1184e-09,0,0.00045416,0.00015297,2.5106e+08,627.93,0,1.1866e+08,177.75,485.01,1
1560,5.2,12156,1,12156,1,0.00028103,-1.4107e-09,0,0.00073767,-5.1878e-05,3.9097e+07,-469.13,0,2.2481e+08,171.76,12155,12992,1,12992,1,0.0016478,4.7888e-09,0,0.0016478,0.00020377,3.7334e+08,1092.3,0,4.4156e+08,1181.3,12991,12156,1,12156,1,0.00028103,-1.5746e-09,0,0.00071067,-5.2004e-05,9.2664e+07,-476.01,0,2.3348e+08,96.268,12155,11317,1,11317,1,-0.0010856,-6.5795e-09,0,7.692e-06,-0.00030726,-4.4156e+08,-1742.1,0,1.9571e+06,-83.803,11316,11734,1,11734,1,-0.00042963,-3.2502e-09,0,0.0003357,-0.00018467,-1.7472e+08,-1009,0,1.3025e+08,34.622,11733,12578,1,12578,1,0.0009917,6.7905e-10,0,0.0010856,8.0883e-05,2.649e+08,147.9,0,3.1746e+08,228.62,12577,485.01,0,485.01,0,0.00082026,2.4009e-09,0,0.00045536,0.0001533,2.5126e+08,674.4,0,1.1869e+08,210.95,485.01,1
1560,5.21,12156,1,12156,1,0.00028248,-2.1242e-09,0,0.0007395,-5.2142e-05,3.9158e+07,-677.49,0,2.2503e+08,179.58,12155,12992,1,12992,1,0.0016522,2.9974e-09,0,0.0016522,0.00020407,3.7324e+08,656.65,0,4.4221e+08,1208.5,12991,12156,1,12156,1,0.00028247,-2.3793e-09,0,0.00071225,-5.2269e-05,9.3041e+07,-725.4,0,2.338e+08,106.53,12155,11317,1,11317,1,-0.0010872,-6.6334e-09,0,8.5291e-06,-0.00030809,-4.4221e+08,-1945.9,0,2.2645e+06,-72.643,11316,11734,1,11734,1,-0.00042976,-3.9082e-09,0,0.00033727,-0.00018523,-1.7478e+08,-1219,0,1.302e+08,44.866,11733,12578,1,12578,1,0.00099472,-6.9893e-11,0,0.0010872,8.091e-05,2.6514e+08,-18.989,0,3.1751e+08,235.06,12577,485.01,0,485.01,0,0.00082208,2.3663e-09,0,0.00045657,0.00015364,2.5146e+08,692.02,0,1.1873e+08,208.39,485.01,1
1560,5.22,12156,1,12156,1,0.00028393,8.0839e-10,0,0.00074132,-5.2408e-05,3.9218e+07,140.56,0,2.2524e+08,175.69,12155,12992,1,12992,1,0.0016567,7.4526e-09,0,0.0016567,0.00020436,3.7313e+08,1758.1,0,4.4284e+08,1283.8,12991,12156,1,12156,1,0.00028393,4.2809e-10,0,0.00071382,-5.2537e-05,9.3419e+07,109.2,0,2.341e+08,82.541,12155,11317,1,11317,1,-0.0010888,-2.5763e-09,0,9.3772e-06,-0.00030891,-4.4284e+08,-739.72,0,2.5756e+06,-42.852,11316,11734,1,11734,1,-0.00042988,-1.0338e-09,0,0.00033884,-0.00018578,-1.7482e+08,-336.54,0,1.3015e+08,32.319,11733,12578,1,12578,1,0.00099774,2.5625e-09,0,0.0010888,8.0934e-05,2.6537e+08,576.53,0,3.1755e+08,230.13,12577,485.01,0,485.01,0,0.00082389,2.1846e-09,0,0.00045778,0.00015398,2.5166e+08,560.03,0,1.1877e+08,232.73,485.01,1
1560,5.23,12156,1,12156,1,0.00028539,-5.9876e-10,0,0.00074314,-5.2675e-05,3.9277e+07,-227.27,0,2.2545e+08,243.45,12155,12992,1,12992,1,0.0016612,6.5279e-09,0,0.0016612,0.00020466,3.7302e+08,1551.6,0,4.4348e+08,1289.8,12991,12156,1,12156,1,0.00028539,-7.9434e-10,0,0.00071539,-5.2805e-05,9.3797e+07,-250.69,0,2.3441e+08,164.66,12155,11317,1,11317,1,-0.0010904,-5.4671e-09,0,1.0232e-05,-0.00030974,-4.4348e+08,-1350.1,0,2.889e+06,-58.468,11316,11734,1,11734,1,-0.00042999,-2.4005e-09,0,0.00034042,-0.00018634,-1.7487e+08,-734.44,0,1.301e+08,88.85,11733,12578,1,12578,1,0.0010008,1.0546e-09,0,0.0010903,8.0958e-05,2.656e+08,231.38,0,3.1759e+08,325.7,12577,485.01,0,485.01,0,0.00082571,2.2886e-09,0,0.00045899,0.00015431,2.5185e+08,619.66,0,1.188e+08,234.42,485.01,1
1560,5.24,12156,1,12156,1,0.00028686,-2.1537e-09,0,0.00074498,-5.2944e-05,3.9338e+07,-663.83,0,2.2565e+08,228.79,12155,12992,1,12992,1,0.0016657,3.1823e-09,0,0.0016657,0.00020495,3.729e+08,711.48,0,4.4412e+08,1440.1,12991,12156,1,12156,1,0.00028685,-2.2807e-09,0,0.00071696,-5.3076e-05,9.4178e+07,-685.75,0,2.3471e+08,132.01,12155,11317,1,11317,1,-0.0010919,-7.8265e-09,0,1.1097e-05,-0.00031057,-4.4412e+08,-1976.2,0,3.2053e+06,-48.395,11316,11734,1,11734,1,-0.0004301,-3.8851e-09,0,0.00034201,-0.0001869,-1.7491e+08,-1180.3,0,1.3005e+08,53.166,11733,12578,1,12578,1,0.0010038,-3.3954e-10,0,0.0010919,8.098e-05,2.6583e+08,-74.667,0,3.1763e+08,301.07,12577,485.01,0,485.01,0,0.00082753,2.2565e-09,0,0.00046021,0.00015465,2.5205e+08,645.9,0,1.1884e+08,262.93,485.01,1
1560,5.25,12156,1,12156,1,0.00028833,-2.4293e-09,0,0.0007468,-5.3214e-05,3.9398e+07,-759.62,0,2.2586e+08,258.31,12155,12992,1,12992,1,0.0016702,4.2424e-09,0,0.0016702,0.00020525,3.7278e+08,944.32,0,4.4475e+08,1371.8,12991,12156,1,12156,1,0.00028833,-2.5741e-09,0,0.00071853,-5.3346e-05,9.4558e+07,-773.35,0,2.3502e+08,167.25,12155,11317,1,11317,1,-0.0010935,-7.8693e-09,0,1.1963e-05,-0.00031141,-4.4475e+08,-2278.9,0,3.5219e+06,-120.4,11316,11734,1,11734,1,-0.0004302,-4.6312e-09,0,0.0003436,-0.00018746,-1.7495e+08,-1392.1,0,1.2999e+08,74.379,11733,12578,1,12578,1,0.0010069,-2.5808e-10,0,0.0010934,8.1001e-05,2.6605e+08,-65.016,0,3.1766e+08,361.58,12577,485.01,0,485.01,0,0.00082934,2.7911e-09,0,0.00046143,0.00015499,2.5223e+08,797.44,0,1.1887e+08,260.25,485.01,1
1560,5.26,12156,1,12156,1,0.00028982,-1.5786e-09,0,0.00074866,-5.3487e-05,3.946e+07,-543.31,0,2.2607e+08,192.76,12155,12992,1,12992,1,0.0016747,3.554e-09,0,0.0016747,0.00020554,3.7266e+08,759.35,0,4.4539e+08,1436.9,12991,12156,1,12156,1,0.00028982,-2.0973e-09,0,0.00072013,-5.3621e-05,9.4944e+07,-596.94,0,2.3532e+08,85.308,12155,11317,1,11317,1,-0.0010951,-4.7944e-09,0,1.2839e-05,-0.00031225,-4.4539e+08,-1640.6,0,3.8416e+06,-91.338,11316,11734,1,11734,1,-0.0004303,-3.7425e-09,0,0.00034522,-0.00018803,-1.75e+08,-1161.5,0,1.2993e+08,6.7891,11733,12578,1,12578,1,0.0010099,7.026e-10,0,0.001095,8.1023e-05,2.6628e+08,165.06,0,3.177e+08,276.15,12577,485.01,0,485.01,0,0.00083118,2.3335e-09,0,0.00046267,0.00015533,2.5243e+08,684.9,0,1.1891e+08,278.35,485.01,1
1560,5.27,12156,1,12156,1,0.00029131,1.9769e-09,0,0.00075048,-5.376e-05,3.9518e+07,461.27,0,2.2626e+08,214.05,12155,12992,1,12992,1,0.0016792,1.2035e-08,0,0.0016792,0.00020583,3.7251e+08,2906.3,0,4.4599e+08,1569.2,12991,12156,1,12156,1,0.00029131,8.9428e-10,0,0.00072169,-5.3896e-05,9.5326e+07,258.64,0,2.3562e+08,124.11,12155,11317,1,11317,1,-0.0010965,-5.1832e-09,0,1.3726e-05,-0.00031307,-4.4599e+08,-1241.1,0,4.165e+06,-236.89,11316,11734,1,11734,1,-0.00043037,-8.5671e-10,0,0.00034683,-0.0001886,-1.7502e+08,-273.19,0,1.2986e+08,14.205,11733,12578,1,12578,1,0.001013,4.1823e-09,0,0.0010965,8.1039e-05,2.6649e+08,1037.5,0,3.1771e+08,329.19,12577,485.01,0,485.01,0,0.00083298,3.5247e-09,0,0.00046389,0.00015566,2.526e+08,884.93,0,1.1893e+08,309.74,485.01,1
1560,5.28,12156,1,12156,1,0.00029281,-4.7913e-09,0,0.00075234,-5.4034e-05,3.9579e+07,-1394.1,0,2.2647e+08,291.61,12155,12992,1,12992,1,0.0016838,1.9067e-09,0,0.0016838,0.00020613,3.7239e+08,628.83,0,4.4665e+08,1448.3,12991,12156,1,12156,1,0.00029281,-5.1474e-09,0,0.00072329,-5.4171e-05,9.5711e+07,-1504,0,2.3592e+08,193.3,12155,11317,1,11317,1,-0.0010982,-1.1323e-08,0,1.4616e-05,-0.00031392,-4.4665e+08,-2994.8,0,4.4888e+06,-145.72,11316,11734,1,11734,1,-0.00043047,-7.1092e-09,0,0.00034845,-0.00018917,-1.7506e+08,-2123.6,0,1.298e+08,64.61,11733,12578,1,12578,1,0.0010161,-2.4398e-09,0,0.0010981,8.1061e-05,2.6672e+08,-619.84,0,3.1774e+08,452.12,12577,485.01,0,485.01,0,0.00083483,3.1933e-09,0,0.00046514,0.00015601,2.528e+08,931.56,0,1.1897e+08,289.87,485.01,1
1560,5.29,12156,1,12156,1,0.00029433,-1.0649e-09,0,0.0007542,-5.4312e-05,3.9639e+07,-404.21,0,2.2667e+08,266.49,12155,12992,1,12992,1,0.0016884,6.836e-09,0,0.0016884,0.00020642,3.7224e+08,1512.8,0,4.4727e+08,1595.4,12991,12156,1,12156,1,0.00029432,-1.6337e-09,0,0.00072489,-5.445e-05,9.61e+07,-480.98,0,2.3622e+08,148.9,12155,11317,1,11317,1,-0.0010997,-6.5559e-09,0,1.5512e-05,-0.00031477,-4.4727e+08,-1653.4,0,4.8145e+06,-95.253,11316,11734,1,11734,1,-0.00043055,-3.3055e-09,0,0.00035009,-0.00018974,-1.751e+08,-1044.1,0,1.2973e+08,55.446,11733,12578,1,12578,1,0.0010192,1.5062e-09,0,0.0010997,8.1078e-05,2.6693e+08,322.77,0,3.1776e+08,378.85,12577,485.01,0,485.01,0,0.00083667,2.8693e-09,0,0.00046639,0.00015635,2.5298e+08,782.05,0,1.19e+08,305.32,485.01,1
1560,5.3,12156,1,12156,1,0.00029585,-5.8318e-10,0,0.00075607,-5.4591e-05,3.9699e+07,-264.69,0,2.2687e+08,220.56,12155,12992,1,12992,1,0.001693,5.3943e-09,0,0.001693,0.00020671,3.7209e+08,1190.3,0,4.4791e+08,1638.3,12991,12156,1,12156,1,0.00029585,-1.0669e-09,0,0.00072649,-5.4731e-05,9.649e+07,-304.05,0,2.3652e+08,91.03,12155,11317,1,11317,1,-0.0011012,-4.63e-09,0,1.642e-05,-0.00031562,-4.4791e+08,-1584.8,0,5.1438e+06,-45.439,11316,11734,1,11734,1,-0.00043063,-2.6242e-09,0,0.00035174,-0.00019032,-1.7513e+08,-848.31,0,1.2966e+08,27.254,11733,12578,1,12578,1,0.0010223,1.4957e-09,0,0.0011012,8.1095e-05,2.6715e+08,332.69,0,3.1777e+08,300.59,12577,485.01,0,485.01,0,0.00083852,2.2973e-09,0,0.00046765,0.00015669,2.5317e+08,646.79,0,1.1903e+08,305.3,485.01,1
1560,5.31,12156,1,12156,1,0.00029738,-2.354e-09,0,0.00075791,-5.487e-05,3.9757e+07,-750.8,0,2.2705e+08,354.1,12155,12992,1,12992,1,0.0016976,1.0259e-08,0,0.0016976,0.000207,3.7192e+08,2347.4,0,4.4852e+08,1682.6,12991,12156,1,12156,1,0.00029737,-2.3037e-09,0,0.00072806,-5.5011e-05,9.6877e+07,-708.1,0,2.3681e+08,283.25,12155,11317,1,11317,1,-0.0011028,-1.1705e-08,0,1.734e-05,-0.00031646,-4.4852e+08,-2929,0,5.4768e+06,-88.621,11316,11734,1,11734,1,-0.00043068,-5.6353e-09,0,0.00035338,-0.00019089,-1.7515e+08,-1701.2,0,1.2958e+08,109.72,11733,12578,1,12578,1,0.0010254,8.6461e-10,0,0.0011027,8.1107e-05,2.6735e+08,190.34,0,3.1777e+08,485.45,12577,485.01,0,485.01,0,0.00084033,4.3318e-09,0,0.00046889,0.00015703,2.5333e+08,1165.7,0,1.1905e+08,321.26,485.01,1
1560,5.32,12156,1,12156,1,0.00029891,4.3357e-09,0,0.00075978,-5.5151e-05,3.9818e+07,1113.1,0,2.2725e+08,187.93,12155,12992,1,12992,1,0.0017021,1.1699e-08,0,0.0017021,0.00020729,3.7179e+08,2845.7,0,4.4915e+08,1939.9,12991,12156,1,12156,1,0.00029891,3.9919e-09,0,0.00072966,-5.5295e-05,9.7268e+07,1168,0,2.3711e+08,66.772,12155,11317,1,11317,1,-0.0011043,-2.2568e-09,0,1.8256e-05,-0.0003173,-4.4915e+08,-772.75,0,5.8076e+06,-238.89,11316,11734,1,11734,1,-0.00043075,1.5084e-09,0,0.00035504,-0.00019147,-1.7518e+08,391.44,0,1.2951e+08,-21.481,11733,12578,1,12578,1,0.0010286,7.4882e-09,0,0.0011043,8.1123e-05,2.6757e+08,1852,0,3.1778e+08,257.35,12577,485.01,0,485.01,0,0.00084219,3.566e-09,0,0.00047015,0.00015737,2.5352e+08,883.8,0,1.1908e+08,367.91,485.01,1
1560,5.33,12156,1,12156,1,0.00030046,-3.3004e-09,0,0.00076166,-5.5435e-05,3.9878e+07,-930.21,0,2.2745e+08,259.56,12155,12992,1,12992,1,0.0017068,3.2369e-09,0,0.0017068,0.00020758,3.7161e+08,1108.3,0,4.4978e+08,1567.4,12991,12156,1,12156,1,0.00030046,-3.3117e-09,0,0.00073127,-5.558e-05,9.7661e+07,-971.88,0,2.374e+08,163.46,12155,11317,1,11317,1,-0.0011058,-1.0507e-08,0,1.9196e-05,-0.00031817,-4.4978e+08,-2467.6,0,6.1467e+06,-77.594,11316,11734,1,11734,1,-0.00043081,-5.2738e-09,0,0.00035671,-0.00019205,-1.752e+08,-1526.3,0,1.2944e+08,74.093,11733,12578,1,12578,1,0.0010317,-1.336e-09,0,0.0011058,8.1136e-05,2.6777e+08,-348.51,0,3.1778e+08,343.76,12577,485.01,0,485.01,0,0.00084404,2.7241e-09,0,0.00047142,0.00015772,2.537e+08,737.89,0,1.1911e+08,283.65,485.01,1
1560,5.34,12156,1,12156,1,0.00030202,-3.5556e-09,0,0.00076355,-5.572e-05,3.9937e+07,-1054.2,0,2.2764e+08,303.13,12155,12992,1,12992,1,0.0017115,5.3942e-09,0,0.0017115,0.00020787,3.7144e+08,1160.9,0,4.504e+08,1685.6,12991,12156,1,12156,1,0.00030201,-3.9477e-09,0,0.00073288,-5.5866e-05,9.8056e+07,-1162.8,0,2.3769e+08,210.56,12155,11317,1,11317,1,-0.0011074,-9.8773e-09,0,2.0129e-05,-0.00031903,-4.504e+08,-2702.6,0,6.4827e+06,-119.98,11316,11734,1,11734,1,-0.00043086,-6.261e-09,0,0.0003584,-0.00019263,-1.7522e+08,-1833.7,0,1.2936e+08,92.546,11733,12578,1,12578,1,0.0010349,-1.2257e-09,0,0.0011074,8.1148e-05,2.6798e+08,-305.18,0,3.1778e+08,413.96,12577,485.01,0,485.01,0,0.0008459,3.335e-09,0,0.0004727,0.00015806,2.5387e+08,940.64,0,1.1914e+08,319.27,485.01,1
1560,5.35,12156,1,12156,1,0.00030358,-4.0774e-09,0,0.00076542,-5.6006e-05,3.9996e+07,-1245.1,0,2.2782e+08,391.4,12155,12992,1,12992,1,0.0017161,9.3804e-09,0,0.0017161,0.00020816,3.7126e+08,2045.8,0,4.5102e+08,1915,12991,12156,1,12156,1,0.00030357,-4.06e-09,0,0.00073448,-5.6153e-05,9.8449e+07,-1256.9,0,2.3798e+08,315.5,12155,11317,1,11317,1,-0.0011089,-1.3293e-08,0,2.1073e-05,-0.00031989,-4.5102e+08,-3812.5,0,6.8213e+06,-194.9,11316,11734,1,11734,1,-0.00043089,-8.3735e-09,0,0.00036008,-0.00019322,-1.7523e+08,-2402.8,0,1.2927e+08,117.88,11733,12578,1,12578,1,0.0010381,-2.5982e-10,0,0.0011089,8.1157e-05,2.6817e+08,-59.769,0,3.1776e+08,542,12577,485.01,0,485.01,0,0.00084774,5.0723e-09,0,0.00047397,0.0001584,2.5404e+08,1414.8,0,1.1916e+08,373.92,485.01,1
1560,5.36,12156,1,12156,1,0.00030516,-1.1302e-09,0,0.00076731,-5.6294e-05,4.0056e+07,-465.36,0,2.2801e+08,287.25,12155,12992,1,12992,1,0.0017208,9.3055e-09,0,0.0017208,0.00020844,3.7108e+08,2033.6,0,4.5164e+08,2035.1,12991,12156,1,12156,1,0.00030515,-1.9526e-09,0,0.00073611,-5.6443e-05,9.8847e+07,-584.26,0,2.3827e+08,153.26,12155,11317,1,11317,1,-0.0011104,-7.18e-09,0,2.2022e-05,-0.00032076,-4.5164e+08,-2456.7,0,7.161e+06,-126.32,11316,11734,1,11734,1,-0.00043094,-4.1049e-09,0,0.00036178,-0.0001938,-1.7525e+08,-1281.6,0,1.2919e+08,45.005,11733,12578,1,12578,1,0.0010413,1.8104e-09,0,0.0011104,8.1168e-05,2.6838e+08,401.15,0,3.1776e+08,393.28,12577,485.01,0,485.01,0,0.00084961,3.6928e-09,0,0.00047526,0.00015875,2.5421e+08,1021.6,0,1.1919e+08,381.87,485.01,1
1560,5.37,12156,1,12156,1,0.00030674,2.8372e-09,0,0.0007692,-5.6583e-05,4.0114e+07,657.78,0,2.282e+08,337.97,12155,12992,1,12992,1,0.0017254,1.3767e-08,0,0.0017254,0.00020872,3.7089e+08,3169.5,0,4.5224e+08,2175.1,12991,12156,1,12156,1,0.00030673,1.7553e-09,0,0.00073771,-5.6734e-05,9.9243e+07,501.66,0,2.3855e+08,182.64,12155,11317,1,11317,1,-0.0011119,-4.9646e-09,0,2.2987e-05,-0.00032161,-4.5224e+08,-1108.2,0,7.5054e+06,-67.02,11316,11734,1,11734,1,-0.00043096,-2.9594e-10,0,0.00036348,-0.00019439,-1.7526e+08,-87.22,0,1.2909e+08,75.679,11733,12578,1,12578,1,0.0010444,5.6317e-09,0,0.0011119,8.1175e-05,2.6857e+08,1340.6,0,3.1774e+08,457.03,12577,485.01,0,485.01,0,0.00085146,3.7082e-09,0,0.00047654,0.00015909,2.5438e+08,882.77,0,1.1921e+08,405.44,485.01,1
1560,5.38,12156,1,12156,1,0.00030833,-3.9623e-09,0,0.0007711,-5.6875e-05,4.0174e+07,-1169,0,2.2838e+08,343.73,12155,12992,1,12992,1,0.0017302,6.4471e-09,0,0.0017302,0.00020902,3.707e+08,1396.6,0,4.5288e+08,2085.4,12991,12156,1,12156,1,0.00030832,-4.0407e-09,0,0.00073933,-5.7027e-05,9.9642e+07,-1223.5,0,2.3884e+08,251.01,12155,11317,1,11317,1,-0.0011135,-1.2145e-08,0,2.3959e-05,-0.00032249,-4.5288e+08,-3265.9,0,7.8518e+06,-181.39,11316,11734,1,11734,1,-0.00043099,-7.3239e-09,0,0.0003652,-0.00019498,-1.7527e+08,-2080.3,0,1.2901e+08,77.985,11733,12578,1,12578,1,0.0010476,-9.2844e-10,0,0.0011134,8.1183e-05,2.6877e+08,-227.51,0,3.1772e+08,461.76,12577,485.01,0,485.01,0,0.00085334,4.0011e-09,0,0.00047784,0.00015944,2.5455e+08,1124.2,0,1.1924e+08,388.44,485.01,1
1560,5.39,12156,1,12156,1,0.00030994,-1.4638e-09,0,0.00077301,-5.7169e-05,4.0233e+07,-522.22,0,2.2857e+08,347.89,12155,12992,1,12992,1,0.0017349,8.7368e-09,0,0.0017349,0.0002093,3.705e+08,1887.9,0,4.5349e+08,2268.7,12991,12156,1,12156,1,0.00030993,-2.2473e-09,0,0.00074096,-5.7323e-05,1.0004e+08,-642.87,0,2.3913e+08,184.63,12155,11317,1,11317,1,-0.001115,-9.2632e-09,0,2.4938e-05,-0.00032336,-4.5349e+08,-2167.9,0,8.199e+06,-78.164,11316,11734,1,11734,1,-0.00043101,-4.2517e-09,0,0.00036693,-0.00019558,-1.7528e+08,-1324.1,0,1.2891e+08,70.085,11733,12578,1,12578,1,0.0010509,1.3234e-09,0,0.001115,8.119e-05,2.6896e+08,263.17,0,3.177e+08,481.19,12577,485.01,0,485.01,0,0.00085522,3.3934e-09,0,0.00047915,0.00015979,2.5471e+08,930.88,0,1.1926e+08,422.69,485.01,1
1560,5.4,12156,1,12156,1,0.00031155,-4.2738e-09,0,0.00077492,-5.7465e-05,4.0292e+07,-1299.4,0,2.2874e+08,389.32,12155,12992,1,12992,1,0.0017397,8.6881e-09,0,0.0017397,0.00020959,3.7029e+08,1860.2,0,4.5411e+08,2214.7,12991,12156,1,12156,1,0.00031154,-4.8914e-09,0,0.00074258,-5.762e-05,1.0045e+08,-1399.8,0,2.3941e+08,297.8,12155,11317,1,11317,1,-0.0011165,-1.265e-08,0,2.5929e-05,-0.00032424,-4.5411e+08,-4088.5,0,8.5498e+06,-169.61,11316,11734,1,11734,1,-0.00043102,-8.1384e-09,0,0.00036867,-0.00019618,-1.7528e+08,-2285.9,0,1.2881e+08,96.597,11733,12578,1,12578,1,0.0010541,-7.0439e-10,0,0.0011165,8.1194e-05,2.6915e+08,-171.45,0,3.1767e+08,519.72,12577,485.01,0,485.01,0,0.00085709,4.7077e-09,0,0.00048045,0.00016014,2.5487e+08,1354.6,0,1.1928e+08,411.02,485.01,1
1560,5.41,12156,1,12156,1,0.00031318,1.3979e-09,0,0.00077685,-5.7762e-05,4.0351e+07,232.64,0,2.2892e+08,371.11,12155,12992,1,12992,1,0.0017444,1.1676e-08,0,0.0017444,0.00020987,3.7009e+08,2540.8,0,4.5472e+08,2544.6,12991,12156,1,12156,1,0.00031317,9.506e-10,0,0.00074422,-5.7919e-05,1.0085e+08,225.09,0,2.3969e+08,170.92,12155,11317,1,11317,1,-0.001118,-6.7995e-09,0,2.692e-05,-0.00032511,-4.5472e+08,-1964.7,0,8.8996e+06,-39.101,11316,11734,1,11734,1,-0.00043103,-1.9566e-09,0,0.00037043,-0.00019678,-1.7529e+08,-639.72,0,1.2871e+08,43.086,11733,12578,1,12578,1,0.0010574,4.4576e-09,0,0.001118,8.1199e-05,2.6934e+08,1023,0,3.1764e+08,520.27,12577,485.01,0,485.01,0,0.00085898,3.7849e-09,0,0.00048177,0.00016049,2.5504e+08,959.84,0,1.1931e+08,485.91,485.01,1
1560,5.42,12156,1,12156,1,0.00031481,-2.2955e-09,0,0.00077875,-5.806e-05,4.0409e+07,-735.65,0,2.2909e+08,483.29,12155,12992,1,12992,1,0.0017491,1.2008e-08,0,0.0017491,0.00021015,3.6986e+08,2628.7,0,4.5532e+08,2496.7,12991,12156,1,12156,1,0.0003148,-3.0197e-09,0,0.00074583,-5.8219e-05,1.0125e+08,-915.16,0,2.3997e+08,390.45,12155,11317,1,11317,1,-0.0011195,-1.3356e-08,0,2.7932e-05,-0.00032599,-4.5532e+08,-3032.9,0,9.2555e+06,-86.837,11316,11734,1,11734,1,-0.00043101,-5.9034e-09,0,0.00037218,-0.00019738,-1.7528e+08,-1731.3,0,1.2861e+08,159.96,11733,12578,1,12578,1,0.0010606,1.1404e-09,0,0.0011195,8.1199e-05,2.6952e+08,224.25,0,3.1759e+08,639.42,12577,485.01,0,485.01,0,0.00086084,4.6861e-09,0,0.00048308,0.00016083,2.5519e+08,1237.4,0,1.1932e+08,456.34,485.01,1
1560,5.43,12156,1,12156,1,0.00031645,-6.1556e-10,0,0.00078068,-5.8361e-05,4.0468e+07,-285.02,0,2.2927e+08,454.62,12155,12992,1,12992,1,0.0017539,1.2638e-08,0,0.0017539,0.00021044,3.6965e+08,2771.4,0,4.5594e+08,2587.6,12991,12156,1,12156,1,0.00031644,-1.563e-09,0,0.00074747,-5.852e-05,1.0166e+08,-467.76,0,2.4025e+08,282.57,12155,11317,1,11317,1,-0.001121,-1.1258e-08,0,2.8939e-05,-0.00032687,-4.5594e+08,-2519.3,0,9.6084e+06,-78.778,11316,11734,1,11734,1,-0.00043101,-3.6864e-09,0,0.00037395,-0.00019798,-1.7528e+08,-1139.6,0,1.2851e+08,118.28,11733,12578,1,12578,1,0.0010639,2.2421e-09,0,0.001121,8.1202e-05,2.6971e+08,477.77,0,3.1756e+08,627.27,12577,485.01,0,485.01,0,0.00086273,4.0666e-09,0,0.00048441,0.00016118,2.5535e+08,1046,0,1.1935e+08,485.25,485.01,1
1560,5.44,12156,1,12156,1,0.0003181,-7.8052e-10,0,0.00078261,-5.8663e-05,4.0527e+07,-318.8,0,2.2944e+08,437.39,12155,12992,1,12992,1,0.0017587,1.0236e-08,0,0.0017587,0.00021072,3.6942e+08,2185.6,0,4.5654e+08,2837,12991,12156,1,12156,1,0.00031809,-1.5799e-09,0,0.0007491,-5.8825e-05,1.0207e+08,-448.09,0,2.4052e+08,220.25,12155,11317,1,11317,1,-0.0011225,-1.2412e-08,0,2.9964e-05,-0.00032776,-4.5654e+08,-2766,0,9.9663e+06,-61.191,11316,11734,1,11734,1,-0.000431,-3.5568e-09,0,0.00037573,-0.00019859,-1.7527e+08,-1104.5,0,1.284e+08,83.392,11733,12578,1,12578,1,0.0010672,2.0041e-09,0,0.0011225,8.1201e-05,2.6988e+08,429.85,0,3.1751e+08,603.11,12577,485.01,0,485.01,0,0.00086462,3.6612e-09,0,0.00048574,0.00016153,2.555e+08,948.9,0,1.1936e+08,532.9,485.01,1
1560,5.45,12156,1,12156,1,0.00031975,6.0461e-09,0,0.00078453,-5.8966e-05,4.0585e+07,1570.8,0,2.2961e+08,529.73,12155,12992,1,12992,1,0.0017635,2.2136e-08,0,0.0017635,0.000211,3.6919e+08,5161.1,0,4.5715e+08,3024.7,12991,12156,1,12156,1,0.00031975,4.6285e-09,0,0.00075071,-5.9129e-05,1.0248e+08,1337.9,0,2.4079e+08,362.17,12155,11317,1,11317,1,-0.001124,-1.1414e-08,0,3.0996e-05,-0.00032863,-4.5715e+08,-2467.3,0,1.0325e+07,-133.17,11316,11734,1,11734,1,-0.00043096,1.6294e-09,0,0.0003775,-0.00019919,-1.7526e+08,502.78,0,1.2828e+08,152.48,11733,12578,1,12578,1,0.0010705,1.1146e-08,0,0.0011239,8.1199e-05,2.7005e+08,2699.5,0,3.1745e+08,704.39,12577,485.01,0,485.01,0,0.00086649,6.2556e-09,0,0.00048707,0.00016188,2.5565e+08,1496.1,0,1.1938e+08,545.16,485.01,1
1560,5.46,12156,1,12156,1,0.00032143,-5.2299e-10,0,0.00078649,-5.9273e-05,4.0644e+07,-103.85,0,2.2978e+08,398.74,12155,12992,1,12992,1,0.0017683,8.1687e-09,0,0.0017683,0.00021128,3.6895e+08,2796.4,0,4.5775e+08,2647.7,12991,12156,1,12156,1,0.00032142,-2.5304e-10,0,0.00075238,-5.9437e-05,1.0289e+08,-68.298,0,2.4107e+08,188.82,12155,11317,1,11317,1,-0.0011255,-1.3902e-08,0,3.2034e-05,-0.00032953,-4.5775e+08,-3011.4,0,1.0686e+07,-70.745,11316,11734,1,11734,1,-0.00043095,-1.1827e-09,0,0.0003793,-0.0001998,-1.7526e+08,-316.02,0,1.2817e+08,59.985,11733,12578,1,12578,1,0.0010738,4.9101e-10,0,0.0011255,8.1199e-05,2.7024e+08,136.91,0,3.1741e+08,561.64,12577,485.01,0,485.01,0,0.00086841,2.8009e-09,0,0.00048842,0.00016224,2.5581e+08,727.46,0,1.194e+08,505.38,485.01,1
1560,5.47,12156,1,12156,1,0.00032312,-1.24e-10,0,0.00078844,-5.9582e-05,4.0702e+07,-10.833,0,2.2995e+08,525.36,12155,12992,1,12992,1,0.0017732,1.2679e-08,0,0.0017732,0.00021156,3.6871e+08,2950.8,0,4.5836e+08,2687.9,12991,12156,1,12156,1,0.00032311,-1.3984e-10,0,0.00075403,-5.9747e-05,1.033e+08,-44.182,0,2.4135e+08,346.19,12155,11317,1,11317,1,-0.001127,-1.5444e-08,0,3.3086e-05,-0.00033043,-4.5836e+08,-3356.6,0,1.1049e+07,-26.593,11316,11734,1,11734,1,-0.00043092,-1.5644e-09,0,0.00038112,-0.00020042,-1.7524e+08,-416.75,0,1.2805e+08,156.4,11733,12578,1,12578,1,0.0010772,1.4998e-09,0,0.0011269,8.1195e-05,2.7041e+08,412.19,0,3.1735e+08,726.31,12577,485.01,0,485.01,0,0.00087032,3.8778e-09,0,0.00048978,0.00016259,2.5596e+08,939.9,0,1.1942e+08,512.23,485.01,1
1560,5.48,12156,1,12156,1,0.0003248,-2.3863e-09,0,0.00079037,-5.989e-05,4.0759e+07,-638.44,0,2.301e+08,559.88,12155,12992,1,12992,1,0.001778,1.4001e-08,0,0.001778,0.00021183,3.6844e+08,3103.1,0,4.5895e+08,2872,12991,12156,1,12156,1,0.00032479,-1.7209e-09,0,0.00075565,-6.0057e-05,1.0371e+08,-502.46,0,2.4161e+08,405.65,12155,11317,1,11317,1,-0.0011284,-2.1193e-08,0,3.4147e-05,-0.00033132,-4.5895e+08,-4761,0,1.1414e+07,-90.72,11316,11734,1,11734,1,-0.00043085,-5.2892e-09,0,0.00038293,-0.00020103,-1.7522e+08,-1489.4,0,1.2793e+08,175.12,11733,12578,1,12578,1,0.0010805,8.4794e-10,0,0.0011284,8.1187e-05,2.7057e+08,195.89,0,3.1727e+08,774.74,12577,485.01,0,485.01,0,0.00087219,5.5256e-09,0,0.00049112,0.00016294,2.5609e+08,1333.5,0,1.1943e+08,533.92,485.01,1
1560,5.49,12156,1,12156,1,0.0003265,-8.5562e-10,0,0.00079235,-6.0202e-05,4.0819e+07,-264.16,0,2.3028e+08,475.32,12155,12992,1,12992,1,0.0017829,9.6835e-09,0,0.0017829,0.00021212,3.682e+08,2627.3,0,4.5956e+08,3020.3,12991,12156,1,12156,1,0.00032649,-1.059e-09,0,0.00075734,-6.0371e-05,1.0413e+08,-294.19,0,2.4188e+08,248.8,12155,11317,1,11317,1,-0.0011299,-1.4672e-08,0,3.5205e-05,-0.00033223,-4.5956e+08,-3176.6,0,1.1776e+07,-24.674,11316,11734,1,11734,1,-0.00043083,-2.2301e-09,0,0.00038476,-0.00020165,-1.7521e+08,-700.65,0,1.2781e+08,96.06,11733,12578,1,12578,1,0.0010838,8.7535e-10,0,0.0011299,8.1185e-05,2.7075e+08,189.94,0,3.1739e+08,658.27,12577,485.01,0,485.01,0,0.00087413,3.2549e-09,0,0.00049249,0.0001633,2.5625e+08,835.77,0,1.1946e+08,559.38,485.01,1
1560,5.5,12156,1,12156,1,0.00032823,9.8283e-10,0,0.00079432,-6.0518e-05,4.0877e+07,249.11,0,2.3044e+08,535.73,12155,12992,1,12992,1,0.0017879,1.3421e-08,0,0.0017879,0.0002124,3.6794e+08,3537.4,0,4.6016e+08,3117.4,12991,12156,1,12156,1,0.00032822,7.7916e-10,0,0.000759,-6.0687e-05,1.0455e+08,211.44,0,2.4215e+08,316.39,12155,11317,1,11317,1,-0.0011314,-1.4287e-08,0,3.6287e-05,-0.00033313,-4.6016e+08,-3025.1,0,1.2146e+07,-10.866,11316,11734,1,11734,1,-0.00043077,-6.1907e-10,0,0.00038661,-0.00020228,-1.7518e+08,-183.42,0,1.2768e+08,142.84,11733,12578,1,12578,1,0.0010872,2.7729e-09,0,0.0011314,8.1177e-05,2.7091e+08,681.47,0,3.1767e+08,727.88,12577,485.01,0,485.01,0,0.00087605,3.7577e-09,0,0.00049387,0.00016365,2.5639e+08,944.16,0,1.1947e+08,575.79,485.01,1
1560,5.51,12156,1,12156,1,0.00032996,-6.9329e-10,0,0.0007963,-6.0835e-05,4.0935e+07,-187.43,0,2.3059e+08,629.17,12155,12992,1,12992,1,0.0017928,1.4035e-08,0,0.0017928,0.00021267,3.6767e+08,3500,0,4.6076e+08,3255.5,12991,12156,1,12156,1,0.00032995,-9.5057e-10,0,0.00076067,-6.1006e-05,1.0497e+08,-275.03,0,2.4242e+08,408.8,12155,11317,1,11317,1,-0.0011329,-1.871e-08,0,3.7376e-05,-0.00033405,-4.6076e+08,-4015,0,1.2517e+07,-20.696,11316,11734,1,11734,1,-0.00043071,-2.4125e-09,0,0.00038847,-0.0002029,-1.7516e+08,-668.47,0,1.2755e+08,187.56,11733,12578,1,12578,1,0.0010906,1.3434e-09,0,0.0011329,8.1168e-05,2.7107e+08,336.27,0,3.1796e+08,868.53,12577,485.01,0,485.01,0,0.00087798,4.5268e-09,0,0.00049526,0.00016401,2.5653e+08,1108.6,0,1.1949e+08,618.18,485.01,1
1560,5.52,12156,1,12156,1,0.0003317,-1.5578e-09,0,0.00079829,-6.1154e-05,4.0994e+07,-431,0,2.3075e+08,649.3,12155,12992,1,12992,1,0.0017978,1.3657e-08,0,0.0017978,0.00021295,3.674e+08,3430.8,0,4.6137e+08,3447.1,12991,12156,1,12156,1,0.00033169,-1.8197e-09,0,0.00076234,-6.1326e-05,1.0539e+08,-521.49,0,2.4268e+08,427.49,12155,11317,1,11317,1,-0.0011343,-2.0958e-08,0,3.8476e-05,-0.00033496,-4.6137e+08,-4518.5,0,1.2889e+07,-12.721,11316,11734,1,11734,1,-0.00043064,-3.5378e-09,0,0.00039034,-0.00020353,-1.7513e+08,-1027.7,0,1.2742e+08,191.44,11733,12578,1,12578,1,0.001094,9.2883e-10,0,0.0011343,8.1158e-05,2.7123e+08,201.94,0,3.1825e+08,892.77,12577,485.01,0,485.01,0,0.00087991,4.8654e-09,0,0.00049665,0.00016437,2.5667e+08,1196,0,1.195e+08,644.1,485.01,1
1560,5.53,12156,1,12156,1,0.00033346,-2.9504e-09,0,0.00080028,-6.1476e-05,4.1052e+07,-833.99,0,2.3091e+08,676.39,12155,12992,1,12992,1,0.0018028,1.4747e-08,0,0.0018028,0.00021323,3.6712e+08,3319.5,0,4.6197e+08,3530.6,12991,12156,1,12156,1,0.00033344,-3.4157e-09,0,0.00076402,-6.165e-05,1.0581e+08,-994.91,0,2.4294e+08,475.61,12155,11317,1,11317,1,-0.0011358,-2.2908e-08,0,3.9583e-05,-0.00033589,-4.6197e+08,-4988.4,0,1.3263e+07,-86.338,11316,11734,1,11734,1,-0.00043056,-6.2291e-09,0,0.00039223,-0.00020416,-1.7509e+08,-1811.6,0,1.2728e+08,200.98,11733,12578,1,12578,1,0.0010975,5.4954e-10,0,0.0011358,8.1146e-05,2.7139e+08,137.17,0,3.1853e+08,931.23,12577,485.01,0,485.01,0,0.00088184,5.7266e-09,0,0.00049805,0.00016473,2.5681e+08,1408.4,0,1.1951e+08,666.34,485.01,1
1560,5.54,12156,1,12156,1,0.00033523,-2.4312e-09,0,0.00080229,-6.1799e-05,4.111e+07,-742.06,0,2.3106e+08,695.89,12155,12992,1,12992,1,0.0018078,1.5628e-08,0,0.0018078,0.00021351,3.6683e+08,3420.8,0,4.6257e+08,3708.8,12991,12156,1,12156,1,0.00033521,-3.2718e-09,0,0.00076571,-6.1974e-05,1.0623e+08,-928.35,0,2.4321e+08,452.03,12155,11317,1,11317,1,-0.0011373,-2.1127e-08,0,4.0697e-05,-0.00033681,-4.6257e+08,-4548,0,1.3638e+07,-73.503,11316,11734,1,11734,1,-0.00043048,-5.8357e-09,0,0.00039413,-0.0002048,-1.7506e+08,-1774.7,0,1.2714e+08,200.79,11733,12578,1,12578,1,0.0011009,1.1012e-09,0,0.0011373,8.1134e-05,2.7154e+08,224.55,0,3.1881e+08,962.46,12577,485.01,0,485.01,0,0.00088379,5.5145e-09,0,0.00049945,0.00016509,2.5694e+08,1396.3,0,1.1953e+08,702.26,485.01,1
1560,5.55,12156,1,12156,1,0.00033701,-2.0632e-09,0,0.0008043,-6.2126e-05,4.1168e+07,-669.33,0,2.3121e+08,733.6,12155,12992,1,12992,1,0.0018128,1.8633e-08,0,0.0018128,0.00021379,3.6653e+08,3870.5,0,4.6317e+08,4033.7,12991,12156,1,12156,1,0.00033699,-3.1489e-09,0,0.0007674,-6.2302e-05,1.0666e+08,-911.18,0,2.4347e+08,457.93,12155,11317,1,11317,1,-0.0011388,-2.157e-08,0,4.1824e-05,-0.00033774,-4.6317e+08,-4616.1,0,1.4016e+07,-38.323,11316,11734,1,11734,1,-0.00043039,-6.0254e-09,0,0.00039604,-0.00020544,-1.7502e+08,-1836.4,0,1.27e+08,206.2,11733,12578,1,12578,1,0.0011044,1.4949e-09,0,0.0011388,8.1121e-05,2.7169e+08,289.5,0,3.1909e+08,1016.8,12577,485.01,0,485.01,0,0.00088574,6.0326e-09,0,0.00050087,0.00016545,2.5708e+08,1531.3,0,1.1954e+08,754.14,485.01,1
1560,5.56,12156,1,12156,1,0.0003388,-1.7894e-09,0,0.00080631,-6.2454e-05,4.1226e+07,-605.73,0,2.3136e+08,748.38,12155,12992,1,12992,1,0.0018179,2.1385e-08,0,0.0018179,0.00021406,3.6623e+08,4464.5,0,4.6375e+08,4250.9,12991,12156,1,12156,1,0.00033878,-3.011e-09,0,0.00076908,-6.263e-05,1.0709e+08,-864.81,0,2.4372e+08,442.42,12155,11317,1,11317,1,-0.0011402,-2.2841e-08,0,4.2963e-05,-0.00033867,-4.6375e+08,-4869.2,0,1.4396e+07,-65.322,11316,11734,1,11734,1,-0.00043028,-6.0775e-09,0,0.00039796,-0.00020608,-1.7498e+08,-1829.2,0,1.2685e+08,180.65,11733,12578,1,12578,1,0.0011079,1.907e-09,0,0.0011402,8.1103e-05,2.7184e+08,369.35,0,3.1937e+08,1060.6,12577,485.01,0,485.01,0,0.00088768,6.5201e-09,0,0.00050229,0.00016581,2.572e+08,1629.1,0,1.1955e+08,806.17,485.01,1
1560,5.57,12156,1,12156,1,0.0003406,-1.4426e-09,0,0.00080834,-6.2784e-05,4.1284e+07,-516.67,0,2.3151e+08,793.53,12155,12992,1,12992,1,0.0018229,1.8651e-08,0,0.0018229,0.00021434,3.6593e+08,4394.8,0,4.6435e+08,4480.6,12991,12156,1,12156,1,0.00034058,-2.3637e-09,0,0.00077079,-6.2962e-05,1.0752e+08,-631.45,0,2.4398e+08,488.39,12155,11317,1,11317,1,-0.0011417,-2.2717e-08,0,4.4108e-05,-0.00033961,-4.6435e+08,-4778.9,0,1.4777e+07,-21.843,11316,11734,1,11734,1,-0.00043019,-5.3153e-09,0,0.00039989,-0.00020672,-1.7494e+08,-1648.5,0,1.267e+08,221.7,11733,12578,1,12578,1,0.0011114,2.3982e-09,0,0.0011417,8.1089e-05,2.7199e+08,517.35,0,3.1965e+08,1082.9,12577,485.01,0,485.01,0,0.00088965,6.2421e-09,0,0.00050372,0.00016617,2.5734e+08,1618.8,0,1.1957e+08,833.21,485.01,1
1560,5.58,12156,1,12156,1,0.00034241,-1.8466e-09,0,0.00081035,-6.3115e-05,4.1341e+07,-620.75,0,2.3165e+08,892.07,12155,12992,1,12992,1,0.001828,2.4396e-08,0,0.001828,0.00021461,3.6561e+08,5076.7,0,4.6493e+08,4652.9,12991,12156,1,12156,1,0.00034239,-3.3172e-09,0,0.00077247,-6.3294e-05,1.0795e+08,-967,0,2.4423e+08,626.24,12155,11317,1,11317,1,-0.0011431,-2.6731e-08,0,4.5269e-05,-0.00034054,-4.6493e+08,-5677,0,1.5163e+07,-26.679,11316,11734,1,11734,1,-0.00043006,-6.6007e-09,0,0.00040183,-0.00020737,-1.7489e+08,-2037.2,0,1.2655e+08,272.95,11733,12578,1,12578,1,0.0011149,2.3274e-09,0,0.0011431,8.1068e-05,2.7212e+08,495.27,0,3.1991e+08,1208.2,12577,485.01,0,485.01,0,0.0008916,7.7267e-09,0,0.00050515,0.00016653,2.5745e+08,1893.8,0,1.1957e+08,870.19,485.01,1
1560,5.59,12156,1,12156,1,0.00034424,-2.1744e-09,0,0.0008124,-6.345e-05,4.14e+07,-724.77,0,2.318e+08,849.13,12155,12992,1,12992,1,0.0018331,2.2664e-08,0,0.0018331,0.00021489,3.653e+08,5087.7,0,4.6554e+08,4769,12991,12156,1,12156,1,0.00034422,-3.6203e-09,0,0.00077419,-6.3631e-05,1.0838e+08,-1027.4,0,2.4449e+08,541.63,12155,11317,1,11317,1,-0.0011446,-2.5428e-08,0,4.6435e-05,-0.00034149,-4.6554e+08,-5353.4,0,1.5548e+07,-83.04,11316,11734,1,11734,1,-0.00042995,-7.2682e-09,0,0.00040379,-0.00020802,-1.7484e+08,-2179.1,0,1.264e+08,220.57,11733,12578,1,12578,1,0.0011184,2.2575e-09,0,0.0011446,8.1051e-05,2.7227e+08,450.94,0,3.2019e+08,1163.8,12577,485.01,0,485.01,0,0.00089358,7.4605e-09,0,0.0005066,0.0001669,2.5759e+08,1896.6,0,1.1959e+08,900.84,485.01,1
1560,5.6,12156,1,12156,1,0.00034608,-3.2155e-09,0,0.00081444,-6.3788e-05,4.1457e+07,-1019.7,0,2.3194e+08,908.92,12155,12992,1,12992,1,0.0018383,2.3353e-08,0,0.0018383,0.00021516,3.6497e+08,5270.8,0,4.6613e+08,5071.4,12991,12156,1,12156,1,0.00034606,-4.8737e-09,0,0.0007759,-6.3969e-05,1.0881e+08,-1349.8,0,2.4474e+08,546.98,12155,11317,1,11317,1,-0.0011461,-2.8052e-08,0,4.7616e-05,-0.00034244,-4.6613e+08,-5918.1,0,1.5937e+07,-93.68,11316,11734,1,11734,1,-0.00042981,-8.8732e-09,0,0.00040577,-0.00020867,-1.7479e+08,-2711.9,0,1.2623e+08,224.31,11733,12578,1,12578,1,0.001122,2.0985e-09,0,0.001146,8.1029e-05,2.724e+08,393.16,0,3.2045e+08,1270.4,12577,485.01,0,485.01,0,0.00089555,8.1527e-09,0,0.00050806,0.00016726,2.5771e+08,2086,0,1.196e+08,977.02,485.01,1
1560,5.61,12156,1,12156,1,0.00034794,-2.2702e-09,0,0.0008165,-6.4128e-05,4.1515e+07,-805.05,0,2.3208e+08,970.71,12155,12992,1,12992,1,0.0018434,2.5953e-08,0,0.0018434,0.00021544,3.6465e+08,5446.6,0,4.6672e+08,5402.1,12991,12156,1,12156,1,0.00034791,-4.1144e-09,0,0.00077763,-6.4309e-05,1.0925e+08,-1130.1,0,2.4499e+08,599.96,12155,11317,1,11317,1,-0.0011475,-2.8204e-08,0,4.8805e-05,-0.00034339,-4.6672e+08,-5909.8,0,1.6328e+07,-64.817,11316,11734,1,11734,1,-0.00042968,-8.1665e-09,0,0.00040776,-0.00020933,-1.7473e+08,-2449,0,1.264e+08,251.93,11733,12578,1,12578,1,0.0011256,3.0249e-09,0,0.0011475,8.1007e-05,2.7254e+08,619.62,0,3.2072e+08,1336.5,12577,485.01,0,485.01,0,0.00089754,8.4686e-09,0,0.00050953,0.00016763,2.5783e+08,2158,0,1.1961e+08,1024.9,485.01,1
1560,5.62,12156,1,12156,1,0.00034981,7.9105e-11,0,0.00081856,-6.447e-05,4.1573e+07,-180.05,0,2.3221e+08,1029.3,12155,12992,1,12992,1,0.0018486,2.8942e-08,0,0.0018486,0.00021571,3.6431e+08,6106.2,0,4.673e+08,5670.2,12991,12156,1,12156,1,0.00034978,-1.3705e-09,0,0.00077935,-6.4653e-05,1.0969e+08,-353.56,0,2.4524e+08,659.37,12155,11317,1,11317,1,-0.0011489,-2.8099e-08,0,5.0008e-05,-0.00034434,-4.673e+08,-5817.7,0,1.6722e+07,-28.872,11316,11734,1,11734,1,-0.00042953,-5.6205e-09,0,0.00040976,-0.00020999,-1.7467e+08,-1709.8,0,1.2684e+08,279.42,11733,12578,1,12578,1,0.0011292,5.3992e-09,0,0.0011489,8.0983e-05,2.7267e+08,1198.7,0,3.2099e+08,1399.6,12577,485.01,0,485.01,0,0.00089953,8.8077e-09,0,0.000511,0.000168,2.5795e+08,2189.9,0,1.1962e+08,1069.4,485.01,1
1560,5.63,12156,1,12156,1,0.00035169,1.0297e-09,0,0.00082064,-6.4815e-05,4.1631e+07,103.42,0,2.3235e+08,1152.3,12155,12992,1,12992,1,0.0018538,3.1619e-08,0,0.0018538,0.00021598,3.6397e+08,6507.5,0,4.6789e+08,5892.9,12991,12156,1,12156,1,0.00035166,-2.162e-10,0,0.00078109,-6.4999e-05,1.1013e+08,-51.737,0,2.4549e+08,815.11,12155,11317,1,11317,1,-0.0011504,-3.0639e-08,0,5.1226e-05,-0.0003453,-4.6789e+08,-6304.2,0,1.7119e+07,-8.2309,11316,11734,1,11734,1,-0.00042938,-4.3616e-09,0,0.00041177,-0.00021066,-1.7461e+08,-1328.8,0,1.2728e+08,363.05,11733,12578,1,12578,1,0.0011328,6.461e-09,0,0.0011504,8.0959e-05,2.728e+08,1503.9,0,3.2125e+08,1555.8,12577,485.01,0,485.01,0,0.00090153,9.3338e-09,0,0.00051249,0.00016837,2.5806e+08,2267.3,0,1.1963e+08,1103.1,485.01,1
1560,5.64,12156,1,12156,1,0.00035359,-1.7152e-10,0,0.00082272,-6.5163e-05,4.1688e+07,-169.64,0,2.3248e+08,1190.1,12155,12992,1,12992,1,0.0018591,3.0237e-08,0,0.0018591,0.00021626,3.6362e+08,6997.4,0,4.6848e+08,6074.9,12991,12156,1,12156,1,0.00035356,-1.0982e-09,0,0.00078282,-6.5349e-05,1.1058e+08,-291.87,0,2.4573e+08,848.12,12155,11317,1,11317,1,-0.0011518,-3.3441e-08,0,5.246e-05,-0.00034627,-4.6848e+08,-6847.5,0,1.7521e+07,-16.206,11316,11734,1,11734,1,-0.00042923,-5.1087e-09,0,0.00041381,-0.00021133,-1.7455e+08,-1544.9,0,1.2773e+08,373.87,11733,12578,1,12578,1,0.0011364,4.7888e-09,0,0.0011518,8.0932e-05,2.7293e+08,1143,0,3.2151e+08,1625.8,12577,485.01,0,485.01,0,0.00090354,9.3125e-09,0,0.00051398,0.00016874,2.5818e+08,2302.9,0,1.1964e+08,1139.5,485.01,1
1560,5.65,12156,1,12156,1,0.0003555,-4.0798e-09,0,0.00082482,-6.5514e-05,4.1746e+07,-1200.2,0,2.3261e+08,1226.2,12155,12992,1,12992,1,0.0018643,2.7298e-08,0,0.0018643,0.00021653,3.6326e+08,6765.4,0,4.6907e+08,6295.6,12991,12156,1,12156,1,0.00035547,-5.0814e-09,0,0.00078456,-6.57e-05,1.1102e+08,-1402,0,2.4597e+08,830.32,12155,11317,1,11317,1,-0.0011533,-3.9752e-08,0,5.3702e-05,-0.00034725,-4.6907e+08,-8227.6,0,1.7924e+07,-69.334,11316,11734,1,11734,1,-0.00042905,-9.2984e-09,0,0.00041586,-0.000212,-1.7448e+08,-2826.3,0,1.2817e+08,350.33,11733,12578,1,12578,1,0.0011401,2.2301e-09,0,0.0011533,8.0903e-05,2.7305e+08,438.77,0,3.2177e+08,1693.1,12577,485.01,0,485.01,0,0.00090555,1.0102e-08,0,0.00051549,0.00016912,2.5829e+08,2552.3,0,1.1964e+08,1220.4,485.01,1
1560,5.66,12156,1,12156,1,0.00035743,2.3286e-10,0,0.00082692,-6.5866e-05,4.1803e+07,-103.37,0,2.3274e+08,1358.8,12155,12992,1,12992,1,0.0018696,3.5903e-08,0,0.0018696,0.0002168,3.629e+08,7781.1,0,4.6965e+08,6662.6,12991,12156,1,12156,1,0.0003574,-7.6026e-10,0,0.00078632,-6.6053e-05,1.1147e+08,-192.44,0,2.4622e+08,1000.4,12155,11317,1,11317,1,-0.0011547,-3.6952e-08,0,5.4948e-05,-0.00034822,-4.6965e+08,-7509.7,0,1.8327e+07,-28.43,11316,11734,1,11734,1,-0.00042888,-5.6452e-09,0,0.00041792,-0.00021268,-1.7441e+08,-1672.2,0,1.2862e+08,424.58,11733,12578,1,12578,1,0.0011438,6.0585e-09,0,0.0011547,8.0874e-05,2.7317e+08,1413.7,0,3.2203e+08,1881.6,12577,485.01,0,485.01,0,0.00090757,1.0824e-08,0,0.000517,0.00016949,2.584e+08,2670.3,0,1.1965e+08,1266,485.01,1
1560,5.67,12156,1,12156,1,0.00035937,4.5125e-09,0,0.00082902,-6.6221e-05,4.1861e+07,1089.4,0,2.3286e+08,1518,12155,12992,1,12992,1,0.0018749,4.2536e-08,0,0.0018749,0.00021707,3.6253e+08,9052.9,0,4.7022e+08,6982.7,12991,12156,1,12156,1,0.00035934,4.1431e-09,0,0.00078806,-6.6409e-05,1.1192e+08,1120.7,0,2.4645e+08,1235.8,12155,11317,1,11317,1,-0.0011561,-3.7875e-08,0,5.6215e-05,-0.00034919,-4.7022e+08,-7583.6,0,1.8737e+07,-118.56,11316,11734,1,11734,1,-0.00042869,-1.7923e-09,0,0.00041999,-0.00021336,-1.7433e+08,-477.62,0,1.2906e+08,528.32,11733,12578,1,12578,1,0.0011474,1.1194e-08,0,0.0011561,8.0842e-05,2.7328e+08,2765.8,0,3.2228e+08,2087.3,12577,485.01,0,485.01,0,0.00090959,1.1911e-08,0,0.00051852,0.00016986,2.585e+08,2856.8,0,1.1966e+08,1308.2,485.01,1
1560,5.68,12156,1,12156,1,0.00036132,2.0271e-09,0,0.00083113,-6.6578e-05,4.1918e+07,549.34,0,2.3299e+08,1549.4,12155,12992,1,12992,1,0.0018802,3.8418e-08,0,0.0018802,0.00021734,3.6214e+08,9746.6,0,4.708e+08,7131.6,12991,12156,1,12156,1,0.00036129,2.2907e-09,0,0.00078982,-6.6766e-05,1.1237e+08,608.87,0,2.4669e+08,1220.9,12155,11317,1,11317,1,-0.0011576,-4.3448e-08,0,5.7495e-05,-0.00035018,-4.708e+08,-8680.1,0,1.9149e+07,-79.727,11316,11734,1,11734,1,-0.00042849,-3.476e-09,0,0.00042207,-0.00021404,-1.7425e+08,-912.94,0,1.2951e+08,521.82,11733,12578,1,12578,1,0.0011511,7.9391e-09,0,0.0011575,8.081e-05,2.734e+08,2011.9,0,3.2253e+08,2147.5,12577,485.01,0,485.01,0,0.00091162,1.1757e-08,0,0.00052005,0.00017024,2.5861e+08,2874.1,0,1.1966e+08,1360.4,485.01,1
1560,5.69,12156,1,12156,1,0.00036329,-1.8046e-09,0,0.00083326,-6.6939e-05,4.1976e+07,-411.88,0,2.3311e+08,1589.4,12155,12992,1,12992,1,0.0018856,3.5828e-08,0,0.0018856,0.00021761,3.6176e+08,9955.6,0,4.7139e+08,7271.5,12991,12156,1,12156,1,0.00036326,-2.0039e-09,0,0.00079159,-6.7127e-05,1.1282e+08,-531.38,0,2.4693e+08,1259.2,12155,11317,1,11317,1,-0.001159,-5.0655e-08,0,5.8774e-05,-0.00035117,-4.7139e+08,-10205,0,1.9559e+07,-22.069,11316,11734,1,11734,1,-0.0004283,-7.1866e-09,0,0.00042418,-0.00021473,-1.7417e+08,-1963.8,0,1.2996e+08,531.96,11733,12578,1,12578,1,0.0011549,4.4933e-09,0,0.001159,8.0776e-05,2.7351e+08,1104.5,0,3.2278e+08,2193.8,12577,485.01,0,485.01,0,0.00091366,1.2634e-08,0,0.0005216,0.00017062,2.5871e+08,3082.4,0,1.1967e+08,1404.4,485.01,1
1560,5.7,12156,1,12156,1,0.00036526,4.0531e-09,0,0.00083537,-6.73e-05,4.2031e+07,1139.1,0,2.3322e+08,1852.9,12155,12992,1,12992,1,0.0018909,4.8509e-08,0,0.0018909,0.00021787,3.6136e+08,10261,0,4.7196e+08,7920.3,12991,12156,1,12156,1,0.00036523,5.0433e-09,0,0.00079333,-6.7488e-05,1.1327e+08,1378.3,0,2.4715e+08,1554.3,12155,11317,1,11317,1,-0.0011604,-5.3058e-08,0,6.0072e-05,-0.00035215,-4.7196e+08,-10625,0,1.9975e+07,-118.25,11316,11734,1,11734,1,-0.00042807,-2.6917e-09,0,0.00042629,-0.00021541,-1.7408e+08,-632.99,0,1.3041e+08,682.26,11733,12578,1,12578,1,0.0011586,1.1618e-08,0,0.0011604,8.0738e-05,2.7361e+08,3021,0,3.2302e+08,2565.8,12577,485.01,0,485.01,0,0.00091568,1.4727e-08,0,0.00052313,0.00017099,2.5881e+08,3432.1,0,1.1967e+08,1501.8,485.01,1
1560,5.71,12156,1,12156,1,0.00036726,5.7686e-10,0,0.00083753,-6.7666e-05,4.209e+07,343.06,0,2.3335e+08,1791.7,12155,12992,1,12992,1,0.0018964,4.0659e-08,0,0.0018964,0.00021815,3.6098e+08,10974,0,4.7255e+08,7907.6,12991,12156,1,12156,1,0.00036722,1.9737e-09,0,0.00079507,-6.7855e-05,1.1373e+08,520.2,0,2.4739e+08,1442.7,12155,11317,1,11317,1,-0.0011618,-5.7194e-08,0,6.0877e-05,-0.00035316,-4.7255e+08,-11461,0,2.0389e+07,-91.327,11316,11734,1,11734,1,-0.00042787,-4.9804e-09,0,0.00042787,-0.00021611,-1.7399e+08,-1252.3,0,1.3087e+08,619.69,11733,12578,1,12578,1,0.0011624,7.4109e-09,0,0.0011624,8.0704e-05,2.7372e+08,1984,0,3.2327e+08,2487.5,12577,485.01,0,485.01,0,0.00091775,1.425e-08,0,0.00052471,0.00017137,2.5891e+08,3378.3,0,1.1968e+08,1534.3,485.01,1
1560,5.72,12156,1,12156,1,0.00036928,1.806e-09,0,0.00083971,-6.8037e-05,4.2148e+07,703.46,0,2.3346e+08,1814.9,12155,12992,1,12992,1,0.0019019,4.0504e-08,0,0.0019019,0.00021842,3.6057e+08,12558,0,4.7313e+08,8206.7,12991,12156,1,12156,1,0.00036924,3.1667e-09,0,0.00079686,-6.8226e-05,1.1419e+08,820.3,0,2.4763e+08,1427.7,12155,11317,1,11317,1,-0.0011633,-5.5567e-08,0,5.982e-05,-0.00035417,-4.7313e+08,-10955,0,2.0811e+07,-69.796,11316,11734,1,11734,1,-0.00042764,-4.4073e-09,0,0.00042764,-0.00021681,-1.739e+08,-1053.5,0,1.3133e+08,610.45,11733,12578,1,12578,1,0.0011662,8.8301e-09,0,0.0011662,8.0665e-05,2.7383e+08,2421.1,0,3.2352e+08,2527.8,12577,485.01,0,485.01,0,0.00091983,1.4153e-08,0,0.00052629,0.00017176,2.5901e+08,3520.3,0,1.1969e+08,1594,485.01,1
1560,5.73,12156,1,12156,1,0.00037132,3.0201e-10,0,0.00084187,-6.841e-05,4.2205e+07,358.54,0,2.3357e+08,1964.2,12155,12992,1,12992,1,0.0019074,4.3256e-08,0,0.0019074,0.00021868,3.6015e+08,12752,0,4.737e+08,8477.7,12991,12156,1,12156,1,0.00037127,1.9759e-09,0,0.00079865,-6.8599e-05,1.1465e+08,516.81,0,2.4785e+08,1620.9,12155,11317,1,11317,1,-0.0011647,-6.3754e-08,0,5.8744e-05,-0.00035518,-4.737e+08,-12600,0,2.1237e+07,-129.88,11316,11734,1,11734,1,-0.0004274,-6.3928e-09,0,0.0004274,-0.00021752,-1.738e+08,-1560.8,0,1.3179e+08,677.88,11733,12578,1,12578,1,0.0011701,8.3202e-09,0,0.0011701,8.0623e-05,2.7392e+08,2293,0,3.2375e+08,2720.6,12577,485.01,0,485.01,0,0.0009219,1.5911e-08,0,0.00052788,0.00017214,2.591e+08,3843.4,0,1.1969e+08,1675.3,485.01,1
1560,5.74,12156,1,12156,1,0.00037338,1.3589e-09,0,0.00084407,-6.8787e-05,4.2264e+07,676.5,0,2.3369e+08,2087.4,12155,12992,1,12992,1,0.001913,4.7775e-08,0,0.001913,0.00021896,3.5974e+08,14007,0,4.7429e+08,8834.9,12991,12156,1,12156,1,0.00037332,3.1851e-09,0,0.00080046,-6.8976e-05,1.1511e+08,838.31,0,2.4808e+08,1739.5,12155,11317,1,11317,1,-0.0011661,-6.646e-08,0,5.7665e-05,-0.00035621,-4.7429e+08,-13064,0,2.1665e+07,-105.24,11316,11734,1,11734,1,-0.00042716,-6.0755e-09,0,0.00042716,-0.00021823,-1.737e+08,-1457.2,0,1.3225e+08,734.79,11733,12578,1,12578,1,0.0011739,1.0171e-08,0,0.0011739,8.0582e-05,2.7402e+08,2840.7,0,3.24e+08,2903.2,12577,485.01,0,485.01,0,0.00092399,1.7142e-08,0,0.00052949,0.00017253,2.592e+08,4156.1,0,1.1969e+08,1746.7,485.01,1
1560,5.75,12156,1,12156,1,0.00037545,9.1659e-10,0,0.00084627,-6.9167e-05,4.2321e+07,608.55,0,2.338e+08,2203,12155,12992,1,12992,1,0.0019185,5.0318e-08,0,0.0019185,0.00021923,3.5931e+08,14960,0,4.7487e+08,9327.6,12991,12156,1,12156,1,0.00037539,2.6313e-09,0,0.00080227,-6.9356e-05,1.1558e+08,701.12,0,2.4831e+08,1846.1,12155,11317,1,11317,1,-0.0011675,-7.1108e-08,0,5.6567e-05,-0.00035724,-4.7487e+08,-13938,0,2.2097e+07,-70.786,11316,11734,1,11734,1,-0.0004269,-6.9984e-09,0,0.0004269,-0.00021895,-1.736e+08,-1691.1,0,1.3272e+08,788.07,11733,12578,1,12578,1,0.0011778,1.042e-08,0,0.0011778,8.0538e-05,2.7411e+08,2900.7,0,3.2423e+08,3052,12577,485.01,0,485.01,0,0.00092609,1.8327e-08,0,0.00053111,0.00017292,2.5929e+08,4422.7,0,1.197e+08,1834.6,485.01,1
1560,5.76,12156,1,12156,1,0.00037755,-1.91e-09,0,0.00084847,-6.955e-05,4.2378e+07,-106.25,0,2.339e+08,2304,12155,12992,1,12992,1,0.0019241,5.0445e-08,0,0.0019241,0.00021949,3.5887e+08,15279,0,4.7544e+08,9783.7,12991,12156,1,12156,1,0.00037748,1.2677e-10,0,0.00080408,-6.9739e-05,1.1605e+08,36.131,0,2.4853e+08,1894.1,12155,11317,1,11317,1,-0.001169,-7.9792e-08,0,5.5454e-05,-0.00035827,-4.7544e+08,-15747,0,2.2534e+07,3.7229,11316,11734,1,11734,1,-0.00042663,-1.0319e-08,0,0.00042663,-0.00021967,-1.7349e+08,-2515,0,1.3318e+08,804.52,11733,12578,1,12578,1,0.0011817,8.2841e-09,0,0.0011817,8.0491e-05,2.742e+08,2314,0,3.2446e+08,3194,12577,485.01,0,485.01,0,0.00092819,1.983e-08,0,0.00053273,0.00017331,2.5937e+08,4729,0,1.197e+08,1948.3,485.01,1
1560,5.77,12156,1,12156,1,0.00037965,3.924e-09,0,0.0008507,-6.9935e-05,4.2436e+07,1414.2,0,2.3401e+08,2523.7,12155,12992,1,12992,1,0.0019298,5.9472e-08,0,0.0019298,0.00021976,3.5842e+08,16855,0,4.7602e+08,10451,12991,12156,1,12156,1,0.00037958,6.5113e-09,0,0.00080591,-7.0125e-05,1.1652e+08,1739.1,0,2.4875e+08,2119.8,12155,11317,1,11317,1,-0.0011704,-7.8066e-08,0,5.4334e-05,-0.00035931,-4.7602e+08,-15155,0,2.2106e+07,-126.9,11316,11734,1,11734,1,-0.00042636,-5.4263e-09,0,0.00042636,-0.00022039,-1.7338e+08,-1289.3,0,1.3365e+08,910.5,11733,12578,1,12578,1,0.0011857,1.4763e-08,0,0.0011857,8.0444e-05,2.7428e+08,4139.1,0,3.247e+08,3516.4,12577,485.01,0,485.01,0,0.00093031,2.061e-08,0,0.00053437,0.0001737,2.5946e+08,4998.4,0,1.197e+08,2070.8,485.01,1
1560,5.78,12156,1,12156,1,0.00038178,-4.9382e-09,0,0.00085293,-7.0325e-05,4.2493e+07,-809.54,0,2.3411e+08,2543.9,12155,12992,1,12992,1,0.0019354,5.4533e-08,0,0.0019354,0.00022003,3.5799e+08,16808,0,4.7659e+08,10524,12991,12156,1,12156,1,0.00038171,-3.1669e-09,0,0.00080775,-7.0516e-05,1.17e+08,-834.33,0,2.4897e+08,2084.5,12155,11317,1,11317,1,-0.0011718,-9.055e-08,0,5.3196e-05,-0.00036035,-4.7659e+08,-17783,0,2.1649e+07,-23.552,11316,11734,1,11734,1,-0.00042607,-1.5007e-08,0,0.00042607,-0.00022112,-1.7326e+08,-3676,0,1.3412e+08,878.18,11733,12578,1,12578,1,0.0011897,6.9609e-09,0,0.0011897,8.0394e-05,2.7437e+08,1896.4,0,3.2493e+08,3540.3,12577,485.01,0,485.01,0,0.00093244,2.2525e-08,0,0.00053603,0.00017409,2.5954e+08,5324.8,0,1.197e+08,2151.5,485.01,1
1560,5.79,12156,1,12156,1,0.00038392,-4.2246e-09,0,0.00085517,-7.0717e-05,4.255e+07,-715.97,0,2.3421e+08,2712.2,12155,12992,1,12992,1,0.0019411,5.9476e-08,0,0.0019411,0.00022029,3.5752e+08,17088,0,4.7716e+08,11353,12991,12156,1,12156,1,0.00038386,-1.6731e-09,0,0.0008096,-7.0909e-05,1.1747e+08,-452.88,0,2.4919e+08,2275.8,12155,11317,1,11317,1,-0.0011732,-9.5292e-08,0,5.2051e-05,-0.0003614,-4.7716e+08,-18710,0,2.119e+07,-39.84,11316,11734,1,11734,1,-0.00042577,-1.4346e-08,0,0.00042577,-0.00022185,-1.7314e+08,-3585.2,0,1.346e+08,943.68,11733,12578,1,12578,1,0.0011936,7.5082e-09,0,0.0011936,8.0343e-05,2.7444e+08,2008.9,0,3.2515e+08,3730.5,12577,485.01,0,485.01,0,0.00093457,2.3401e-08,0,0.00053769,0.00017449,2.5962e+08,5498.8,0,1.197e+08,2260.3,485.01,1
1560,5.8,12156,1,12156,1,0.00038609,4.8403e-09,0,0.00085744,-7.1113e-05,4.2608e+07,1574.1,0,2.3431e+08,2917.4,12155,12992,1,12992,1,0.0019469,7.0251e-08,0,0.0019469,0.00022057,3.5704e+08,19968,0,4.7775e+08,12231,12991,12156,1,12156,1,0.00038602,7.223e-09,0,0.00081146,-7.1304e-05,1.1795e+08,1870.5,0,2.4941e+08,2506.9,12155,11317,1,11317,1,-0.0011746,-8.7856e-08,0,5.0889e-05,-0.00036247,-4.7775e+08,-16830,0,2.0725e+07,-144.85,11316,11734,1,11734,1,-0.00042548,-6.5279e-09,0,0.00042548,-0.0002226,-1.7302e+08,-1533.8,0,1.3507e+08,1049.7,11733,12578,1,12578,1,0.0011977,1.7211e-08,0,0.0011977,8.0292e-05,2.7452e+08,4570.7,0,3.2513e+08,4023.3,12577,485.01,0,485.01,0,0.00093672,2.3554e-08,0,0.00053938,0.00017489,2.5971e+08,5763.4,0,1.1971e+08,2382.9,485.01,1
1560,5.81,12156,1,12156,1,0.00038828,-9.5066e-10,0,0.00085972,-7.1514e-05,4.2666e+07,198.86,0,2.344e+08,3130.7,12155,12992,1,12992,1,0.0019527,7.2866e-08,0,0.0019527,0.00022083,3.5658e+08,19922,0,4.7832e+08,12560,12991,12156,1,12156,1,0.0003882,1.6327e-09,0,0.00081332,-7.1706e-05,1.1844e+08,409.98,0,2.4962e+08,2692.8,12155,11317,1,11317,1,-0.001176,-1.0542e-07,0,4.9704e-05,-0.00036353,-4.7832e+08,-20464,0,2.0252e+07,-36.739,11316,11734,1,11734,1,-0.00042516,-1.2402e-08,0,0.00042516,-0.00022335,-1.7289e+08,-3088.3,0,1.3555e+08,1133.9,11733,12578,1,12578,1,0.0012018,1.2909e-08,0,0.0012018,8.0237e-05,2.746e+08,3463.3,0,3.248e+08,4322.5,12577,485.01,0,485.01,0,0.00093889,2.6923e-08,0,0.00054108,0.00017529,2.5978e+08,6305.5,0,1.1971e+08,2533.9,485.01,1
1560,5.82,12156,1,12156,1,0.0003905,-8.0428e-10,0,0.00086202,-7.192e-05,4.2724e+07,227.92,0,2.3449e+08,3290.4,12155,12992,1,12992,1,0.0019586,7.536e-08,0,0.0019586,0.0002211,3.5609e+08,20885,0,4.789e+08,13305,12991,12156,1,12156,1,0.00039041,1.7343e-09,0,0.0008152,-7.2111e-05,1.1892e+08,437.96,0,2.4984e+08,2854.7,12155,11317,1,11317,1,-0.0011775,-1.094e-07,0,4.8504e-05,-0.00036461,-4.789e+08,-21106,0,1.9773e+07,-149.36,11316,11734,1,11734,1,-0.00042483,-1.3017e-08,0,0.00042483,-0.0002241,-1.7276e+08,-3164.3,0,1.3603e+08,1185,11733,12578,1,12578,1,0.0012059,1.3623e-08,0,0.0012059,8.018e-05,2.7466e+08,3657.2,0,3.2446e+08,4553.3,12577,485.01,0,485.01,0,0.00094107,2.7794e-08,0,0.0005428,0.00017569,2.5986e+08,6571.5,0,1.1971e+08,2658,485.01,1
1560,5.83,12156,1,12156,1,0.00039273,-4.6554e-10,0,0.00086435,-7.233e-05,4.2783e+07,356.33,0,2.3459e+08,3488.3,12155,12992,1,12992,1,0.0019645,8.3059e-08,0,0.0019645,0.00022137,3.5561e+08,22575,0,4.7948e+08,13792,12991,12156,1,12156,1,0.00039265,2.1694e-09,0,0.00081711,-7.2521e-05,1.1942e+08,530.46,0,2.5005e+08,3042.8,12155,11317,1,11317,1,-0.0011789,-1.1501e-07,0,4.7291e-05,-0.0003657,-4.7948e+08,-22096,0,1.9291e+07,-34.645,11316,11734,1,11734,1,-0.0004245,-1.3543e-08,0,0.0004245,-0.00022486,-1.7262e+08,-3359.8,0,1.3652e+08,1242.5,11733,12578,1,12578,1,0.00121,1.5113e-08,0,0.00121,8.0123e-05,2.7473e+08,4069.9,0,3.2412e+08,4805.2,12577,485.01,0,485.01,0,0.00094327,3.0072e-08,0,0.00054454,0.0001761,2.5993e+08,7045.4,0,1.1971e+08,2801.3,485.01,1
1560,5.84,12156,1,12156,1,0.000395,1.5013e-09,0,0.00086666,-7.2743e-05,4.284e+07,855.37,0,2.3467e+08,3785.7,12155,12992,1,12992,1,0.0019704,9.4595e-08,0,0.0019704,0.00022163,3.5509e+08,24178,0,4.8005e+08,14774,12991,12156,1,12156,1,0.0003949,4.1203e-09,0,0.000819,-7.2934e-05,1.1991e+08,1054.4,0,2.5026e+08,3273.2,12155,11317,1,11317,1,-0.0011803,-1.2113e-07,0,4.6052e-05,-0.0003668,-4.8005e+08,-23101,0,1.8799e+07,-79.558,11316,11734,1,11734,1,-0.00042414,-1.3034e-08,0,0.00042414,-0.00022563,-1.7247e+08,-3082.2,0,1.3701e+08,1390.9,11733,12578,1,12578,1,0.0012142,1.8037e-08,0,0.0012142,8.006e-05,2.7479e+08,4831.4,0,3.2376e+08,5282.3,12577,485.01,0,485.01,0,0.00094546,3.2151e-08,0,0.00054629,0.0001765,2.6e+08,7542.2,0,1.1971e+08,3028.3,485.01,1
1560,5.85,12156,1,12156,1,0.00039728,-2.5955e-09,0,0.00086903,-7.3161e-05,4.2898e+07,-135.57,0,2.3476e+08,4010.8,12155,12992,1,12992,1,0.0019764,9.2459e-08,0,0.0019764,0.00022191,3.5459e+08,25189,0,4.8063e+08,15573,12991,12156,1,12156,1,0.00039718,4.9279e-10,0,0.00082093,-7.3351e-05,1.2041e+08,128.53,0,2.5047e+08,3501.8,12155,11317,1,11317,1,-0.0011817,-1.3294e-07,0,4.4812e-05,-0.0003679,-4.8063e+08,-25424,0,1.8308e+07,-61.313,11316,11734,1,11734,1,-0.0004238,-1.7786e-08,0,0.0004238,-0.0002264,-1.7233e+08,-4368.9,0,1.375e+08,1461.3,11733,12578,1,12578,1,0.0012184,1.4896e-08,0,0.0012184,8e-05,2.7485e+08,3968.8,0,3.2341e+08,5549.6,12577,485.01,0,485.01,0,0.0009477,3.4177e-08,0,0.00054806,0.00017692,2.6007e+08,7998.8,0,1.1971e+08,3186.3,485.01,1
1560,5.86,12156,1,12156,1,0.00039959,-6.0481e-10,0,0.00087139,-7.3584e-05,4.2956e+07,371.1,0,2.3484e+08,4244.4,12155,12992,1,12992,1,0.0019825,1.0139e-07,0,0.0019825,0.00022217,3.5406e+08,26924,0,4.812e+08,16641,12991,12156,1,12156,1,0.00039948,2.0312e-09,0,0.00082285,-7.3773e-05,1.2091e+08,519.14,0,2.5067e+08,3703,12155,11317,1,11317,1,-0.0011831,-1.3984e-07,0,4.3538e-05,-0.00036902,-4.812e+08,-26573,0,1.7805e+07,-152.24,11316,11734,1,11734,1,-0.00042342,-1.6377e-08,0,0.00042342,-0.00022718,-1.7218e+08,-3988.6,0,1.38e+08,1530.1,11733,12578,1,12578,1,0.0012227,1.8096e-08,0,0.0012227,7.9934e-05,2.749e+08,4847.3,0,3.2304e+08,5904.2,12577,485.01,0,485.01,0,0.00094993,3.6509e-08,0,0.00054985,0.00017733,2.6013e+08,8510.7,0,1.1971e+08,3373.7,485.01,1
1560,5.87,12156,1,12156,1,0.00040192,-2.6309e-09,0,0.00087377,-7.4011e-05,4.3015e+07,-99.861,0,2.3492e+08,4487.7,12155,12992,1,12992,1,0.0019886,1.072e-07,0,0.0019886,0.00022244,3.5354e+08,28835,0,4.8178e+08,17492,12991,12156,1,12156,1,0.00040181,2.2807e-10,0,0.00082479,-7.42e-05,1.2141e+08,56.85,0,2.5088e+08,3901.2,12155,11317,1,11317,1,-0.0011845,-1.4986e-07,0,4.2252e-05,-0.00037014,-4.8178e+08,-28413,0,1.7299e+07,38.484,11316,11734,1,11734,1,-0.00042303,-2.0002e-08,0,0.00042303,-0.00022797,-1.7202e+08,-4887.8,0,1.3849e+08,1624.6,11733,12578,1,12578,1,0.0012269,1.7032e-08,0,0.0012269,7.9866e-05,2.7495e+08,4525,0,3.2267e+08,6217.8,12577,485.01,0,485.01,0,0.00095218,3.8721e-08,0,0.00055165,0.00017774,2.6019e+08,9063.8,0,1.1971e+08,3575,485.01,1
1560,5.88,12156,1,12156,1,0.00040428,2.3467e-09,0,0.00087617,-7.4442e-05,4.3073e+07,1159.6,0,2.35e+08,4800.8,12155,12992,1,12992,1,0.0019947,1.187e-07,0,0.0019947,0.00022271,3.5299e+08,30958,0,4.8235e+08,18868,12991,12156,1,12156,1,0.00040416,5.4612e-09,0,0.00082674,-7.4629e-05,1.2192e+08,1376,0,2.5108e+08,4205.1,12155,11317,1,11317,1,-0.001186,-1.5789e-07,0,4.0948e-05,-0.00037127,-4.8235e+08,-29665,0,1.6788e+07,-184.31,11316,11734,1,11734,1,-0.00042263,-1.5905e-08,0,0.00042263,-0.00022876,-1.7186e+08,-3916.2,0,1.3899e+08,1732.5,11733,12578,1,12578,1,0.0012313,2.4212e-08,0,0.0012313,7.9797e-05,2.75e+08,6412.4,0,3.2229e+08,6644.5,12577,485.01,0,485.01,0,0.00095444,4.1837e-08,0,0.00055348,0.00017816,2.6025e+08,9706.1,0,1.197e+08,3785.4,485.01,1
1560,5.89,12156,1,12156,1,0.00040667,-2.7969e-09,0,0.00087862,-7.488e-05,4.3133e+07,-42.876,0,2.3508e+08,5047.1,12155,12992,1,12992,1,0.0020009,1.187e-07,0,0.0020009,0.00022298,3.5246e+08,33444,0,4.8294e+08,19441,12991,12156,1,12156,1,0.00040655,3.0975e-10,0,0.00082872,-7.5067e-05,1.2243e+08,75.533,0,2.5128e+08,4412.3,12155,11317,1,11317,1,-0.0011874,-1.6982e-07,0,3.9626e-05,-0.00037242,-4.8294e+08,-31802,0,1.6272e+07,-77.114,11316,11734,1,11734,1,-0.00042224,-2.2717e-08,0,0.00042224,-0.00022957,-1.717e+08,-5545.5,0,1.395e+08,1833,11733,12578,1,12578,1,0.0012356,2.0358e-08,0,0.0012356,7.9728e-05,2.7505e+08,5310.6,0,3.2191e+08,7026.7,12577,485.01,0,485.01,0,0.00095675,4.4039e-08,0,0.00055533,0.00017859,2.6032e+08,10375,0,1.1971e+08,4006,485.01,1
1560,5.9,12156,1,12156,1,0.00040911,-5.1374e-09,0,0.00088109,-7.5326e-05,4.3193e+07,-657.42,0,2.3515e+08,5424.4,12155,12992,1,12992,1,0.0020073,1.2657e-07,0,0.0020073,0.00022326,3.519e+08,35941,0,4.8353e+08,20923,12991,12156,1,12156,1,0.00040897,-3.2717e-09,0,0.00083073,-7.5511e-05,1.2295e+08,-811.83,0,2.5149e+08,4768,12155,11317,1,11317,1,-0.0011889,-1.8238e-07,0,3.8273e-05,-0.00037359,-4.8353e+08,-33991,0,1.5746e+07,-43.283,11316,11734,1,11734,1,-0.00042182,-2.6743e-08,0,0.00042182,-0.00023039,-1.7153e+08,-6667.5,0,1.4001e+08,1988.1,11733,12578,1,12578,1,0.0012401,1.9799e-08,0,0.0012401,7.9655e-05,2.7509e+08,5117.2,0,3.2151e+08,7554.3,12577,485.01,0,485.01,0,0.00095908,4.7146e-08,0,0.00055722,0.00017902,2.6038e+08,11204,0,1.1971e+08,4285.8,485.01,1
1560,5.91,12156,1,12156,1,0.00041158,-4.5532e-10,0,0.00088357,-7.5777e-05,4.3252e+07,531.07,0,2.3522e+08,5955.6,12155,12992,1,12992,1,0.0020137,1.4506e-07,0,0.0020137,0.00022353,3.5132e+08,38679,0,4.8411e+08,22423,12991,12156,1,12156,1,0.00041143,2.9331e-09,0,0.00083274,-7.5959e-05,1.2348e+08,735.54,0,2.5168e+08,5345.5,12155,11317,1,11317,1,-0.0011903,-1.968e-07,0,3.6894e-05,-0.00037477,-4.8411e+08,-36502,0,1.5212e+07,-132.48,11316,11734,1,11734,1,-0.00042138,-2.4283e-08,0,0.00042138,-0.00023122,-1.7135e+08,-6039.3,0,1.4053e+08,2189.1,11733,12578,1,12578,1,0.0012446,2.6976e-08,0,0.0012446,7.9579e-05,2.7513e+08,7055.9,0,3.2109e+08,8330,12577,485.01,0,485.01,0,0.00096142,5.2131e-08,0,0.00055912,0.00017945,2.6043e+08,12202,0,1.197e+08,4590.6,485.01,1
1560,5.92,12156,1,12156,1,0.00041406,1.5604e-09,0,0.00088607,-7.6231e-05,4.331e+07,1097.8,0,2.3529e+08,6462.3,12155,12992,1,12992,1,0.0020201,1.6368e-07,0,0.0020201,0.0002238,3.5073e+08,41668,0,4.8469e+08,23774,12991,12156,1,12156,1,0.0004139,5.1102e-09,0,0.00083474,-7.6411e-05,1.24e+08,1347.3,0,2.5187e+08,5808.4,12155,11317,1,11317,1,-0.0011917,-2.1155e-07,0,3.5497e-05,-0.00037595,-4.8469e+08,-39060,0,1.4673e+07,-128.06,11316,11734,1,11734,1,-0.00042092,-2.4908e-08,0,0.00042092,-0.00023204,-1.7116e+08,-6092.2,0,1.4105e+08,2404.5,11733,12578,1,12578,1,0.0012491,3.1775e-08,0,0.0012491,7.95e-05,2.7515e+08,8330.7,0,3.2067e+08,9056.4,12577,485.01,0,485.01,0,0.00096376,5.7247e-08,0,0.00056104,0.00017988,2.6047e+08,13274,0,1.197e+08,4919.7,485.01,1
1560,5.93,12156,1,12156,1,0.00041659,-4.498e-09,0,0.00088862,-7.6694e-05,4.3372e+07,-324.7,0,2.3536e+08,6866.5,12155,12992,1,12992,1,0.0020266,1.6754e-07,0,0.0020266,0.00022408,3.5016e+08,44745,0,4.8529e+08,24942,12991,12156,1,12156,1,0.00041642,-1.1494e-09,0,0.0008368,-7.6871e-05,1.2454e+08,-301.05,0,2.5208e+08,6228.4,12155,11317,1,11317,1,-0.0011932,-2.2983e-07,0,3.4082e-05,-0.00037716,-4.8529e+08,-42304,0,1.4131e+07,-14.85,11316,11734,1,11734,1,-0.00042047,-3.2921e-08,0,0.00042047,-0.00023289,-1.7098e+08,-8063.1,0,1.4157e+08,2548.4,11733,12578,1,12578,1,0.0012537,2.8303e-08,0,0.0012537,7.9421e-05,2.7519e+08,7357,0,3.2025e+08,9603,12577,485.01,0,485.01,0,0.00096616,6.0969e-08,0,0.000563,0.00018033,2.6053e+08,14286,0,1.197e+08,5227.9,485.01,1
1560,5.94,12156,1,12156,1,0.00041916,-3.2581e-09,0,0.00089119,-7.7164e-05,4.3431e+07,2.4187,0,2.3542e+08,7428.3,12155,12992,1,12992,1,0.0020332,1.846e-07,0,0.0020332,0.00022435,3.4955e+08,48221,0,4.8588e+08,26595,12991,12156,1,12156,1,0.00041898,6.9905e-10,0,0.00083887,-7.7338e-05,1.2508e+08,184.68,0,2.5227e+08,6837.2,12155,11317,1,11317,1,-0.0011946,-2.4737e-07,0,3.263e-05,-0.00037837,-4.8588e+08,-45351,0,1.3577e+07,18.403,11316,11734,1,11734,1,-0.00041999,-3.445e-08,0,0.00041999,-0.00023375,-1.7078e+08,-8410.9,0,1.421e+08,2806.2,11733,12578,1,12578,1,0.0012584,3.2681e-08,0,0.0012584,7.9336e-05,2.7521e+08,8360.3,0,3.1981e+08,10399,12577,485.01,0,485.01,0,0.00096857,6.634e-08,0,0.00056498,0.00018077,2.6057e+08,15466,0,1.1969e+08,5567.9,485.01,1
1560,5.95,12156,1,12156,1,0.00042176,-4.6253e-09,0,0.00089378,-7.764e-05,4.3491e+07,-318.37,0,2.3548e+08,8063,12155,12992,1,12992,1,0.0020399,2.0122e-07,0,0.0020399,0.00022462,3.4893e+08,50831,0,4.8646e+08,28397,12991,12156,1,12156,1,0.00042157,-1.0094e-09,0,0.00084096,-7.7811e-05,1.2562e+08,-299.78,0,2.5246e+08,7518.2,12155,11317,1,11317,1,-0.0011961,-2.7091e-07,0,3.1157e-05,-0.0003796,-4.8646e+08,-49661,0,1.3017e+07,28.924,11316,11734,1,11734,1,-0.00041949,-3.8643e-08,0,0.00041949,-0.00023461,-1.7058e+08,-9534.7,0,1.4264e+08,3043.3,11733,12578,1,12578,1,0.0012631,3.4045e-08,0,0.0012631,7.925e-05,2.7523e+08,8893,0,3.1936e+08,11339,12577,485.01,0,485.01,0,0.000971,7.264e-08,0,0.00056699,0.00018122,2.6061e+08,16734,0,1.1969e+08,5963.8,485.01,1
1560,5.96,12156,1,12156,1,0.0004244,-7.4504e-09,0,0.0008964,-7.8122e-05,4.3552e+07,-1051.4,0,2.3554e+08,8702,12155,12992,1,12992,1,0.0020467,2.1965e-07,0,0.0020467,0.0002249,3.4831e+08,54532,0,4.8705e+08,30112,12991,12156,1,12156,1,0.0004242,-5.0676e-09,0,0.00084307,-7.8291e-05,1.2617e+08,-1332.9,0,2.5265e+08,8136.4,12155,11317,1,11317,1,-0.0011975,-2.8975e-07,0,2.966e-05,-0.00038085,-4.8705e+08,-52899,0,1.2452e+07,53.941,11316,11734,1,11734,1,-0.00041898,-4.4963e-08,0,0.00041898,-0.00023549,-1.7037e+08,-11090,0,1.4318e+08,3301.7,11733,12578,1,12578,1,0.0012679,3.4644e-08,0,0.0012679,7.9161e-05,2.7524e+08,8753.4,0,3.189e+08,12256,12577,485.01,0,485.01,0,0.00097345,7.8079e-08,0,0.00056902,0.00018167,2.6065e+08,18056,0,1.1969e+08,6407.7,485.01,1
1560,5.97,12156,1,12156,1,0.00042706,-9.9483e-09,0,0.00089903,-7.8609e-05,4.3612e+07,-1756,0,2.3558e+08,9376.7,12155,12992,1,12992,1,0.0020535,2.3767e-07,0,0.0020535,0.00022517,3.4766e+08,58137,0,4.8763e+08,32336,12991,12156,1,12156,1,0.00042685,-9.2508e-09,0,0.00084518,-7.8775e-05,1.2672e+08,-2289.7,0,2.5283e+08,8764.7,12155,11317,1,11317,1,-0.0011989,-3.1356e-07,0,2.8133e-05,-0.00038209,-4.8763e+08,-57241,0,1.1878e+07,-79.993,11316,11734,1,11734,1,-0.00041844,-5.0888e-08,0,0.00041844,-0.00023637,-1.7015e+08,-12667,0,1.4372e+08,3622.8,11733,12578,1,12578,1,0.0012727,3.6219e-08,0,0.0012727,7.9066e-05,2.7524e+08,8960.4,0,3.1842e+08,13222,12577,485.01,0,485.01,0,0.0009759,8.4409e-08,0,0.00057107,0.00018213,2.6068e+08,19543,0,1.1968e+08,6864.4,485.01,1
1560,5.98,12156,1,12156,1,0.00042978,-4.9687e-09,0,0.00090173,-7.9105e-05,4.3674e+07,-606.68,0,2.3565e+08,10039,12155,12992,1,12992,1,0.0020604,2.6304e-07,0,0.0020604,0.00022546,3.4701e+08,62825,0,4.8825e+08,34643,12991,12156,1,12156,1,0.00042956,-3.3012e-09,0,0.00084735,-7.9267e-05,1.2728e+08,-855.42,0,2.5302e+08,9396.7,12155,11317,1,11317,1,-0.0012005,-3.3064e-07,0,2.6596e-05,-0.00038338,-4.8825e+08,-59827,0,1.1304e+07,64.39,11316,11734,1,11734,1,-0.00041792,-4.9249e-08,0,0.00041792,-0.00023727,-1.6994e+08,-12385,0,1.4427e+08,3873.8,11733,12578,1,12578,1,0.0012776,4.4732e-08,0,0.0012776,7.8976e-05,2.7526e+08,11123,0,3.1796e+08,14112,12577,485.01,0,485.01,0,0.00097843,9.1159e-08,0,0.00057317,0.00018259,2.6073e+08,20999,0,1.1968e+08,7299.1,485.01,1
1560,5.99,12156,1,12156,1,0.00043254,-4.1135e-09,0,0.00090446,-7.9611e-05,4.3736e+07,-399.53,0,2.3569e+08,10916,12155,12992,1,12992,1,0.0020675,2.9099e-07,0,0.0020675,0.00022574,3.4634e+08,67494,0,4.8885e+08,37014,12991,12156,1,12156,1,0.00043231,-1.9123e-09,0,0.00084954,-7.9769e-05,1.2785e+08,-487.76,0,2.5321e+08,10301,12155,11317,1,11317,1,-0.0012019,-3.5708e-07,0,2.5009e-05,-0.00038468,-4.8885e+08,-64277,0,1.0714e+07,32.461,11316,11734,1,11734,1,-0.00041736,-5.2776e-08,0,0.00041736,-0.00023818,-1.6971e+08,-13231,0,1.4483e+08,4267.6,11733,12578,1,12578,1,0.0012826,4.9943e-08,0,0.0012826,7.8879e-05,2.7526e+08,12234,0,3.1747e+08,15396,12577,485.01,0,485.01,0,0.00098098,9.9424e-08,0,0.0005753,0.00018307,2.6076e+08,22769,0,1.1968e+08,7863.9,485.01,1
1560,6,12156,1,12156,1,0.00043536,-2.17e-09,0,0.00090722,-8.0126e-05,4.3799e+07,122.12,0,2.3574e+08,11754,12155,12992,1,12992,1,0.0020746,3.1869e-07,0,0.0020746,0.00022602,3.4565e+08,72471,0,4.8945e+08,39786,12991,12156,1,12156,1,0.00043511,6.0061e-10,0,0.00085173,-8.0277e-05,1.2843e+08,152.03,0,2.5339e+08,11148,12155,11317,1,11317,1,-0.0012034,-3.8815e-07,0,2.3383e-05,-0.00038599,-4.8945e+08,-69608,0,1.0112e+07,-39.667,11316,11734,1,11734,1,-0.00041677,-5.5251e-08,0,0.00041677,-0.00023911,-1.6947e+08,-14044,0,1.454e+08,4646.6,11733,12578,1,12578,1,0.0012876,5.6071e-08,0,0.0012876,7.8776e-05,2.7526e+08,13906,0,3.1696e+08,16629,12577,485.01,0,485.01,0,0.00098356,1.0859e-07,0,0.00057747,0.00018354,2.6079e+08,24632,0,1.1967e+08,8415.3,485.01,1
1560,6.01,12156,1,12156,1,0.00043823,-6.7947e-09,0,0.00091002,-8.0649e-05,4.3862e+07,-917.07,0,2.3578e+08,12685,12155,12992,1,12992,1,0.0020819,3.3885e-07,0,0.0020819,0.0002263,3.4496e+08,78567,0,4.9005e+08,42342,12991,12156,1,12156,1,0.00043795,-5.2152e-09,0,0.00085396,-8.0795e-05,1.2901e+08,-1358.5,0,2.5357e+08,12044,12155,11317,1,11317,1,-0.0012049,-4.2263e-07,0,2.1729e-05,-0.00038733,-4.9005e+08,-75642,0,9.5024e+06,96.281,11316,11734,1,11734,1,-0.00041616,-6.4414e-08,0,0.00041616,-0.00024005,-1.6922e+08,-16187,0,1.4597e+08,4986,11733,12578,1,12578,1,0.0012928,5.7239e-08,0,0.0012928,7.8671e-05,2.7524e+08,14103,0,3.1644e+08,17923,12577,485.01,0,485.01,0,0.00098616,1.1719e-07,0,0.00057967,0.00018402,2.6081e+08,26704,0,1.1967e+08,9063.9,485.01,1
1560,6.02,12156,1,12156,1,0.00044114,-2.7687e-09,0,0.00091287,-8.1182e-05,4.3925e+07,93.985,0,2.3582e+08,13669,12155,12992,1,12992,1,0.0020893,3.7239e-07,0,0.0020893,0.00022659,3.4425e+08,85408,0,4.9067e+08,45254,12991,12156,1,12156,1,0.00044084,2.418e-10,0,0.00085622,-8.1321e-05,1.296e+08,74.633,0,2.5375e+08,13022,12155,11317,1,11317,1,-0.0012064,-4.509e-07,0,2.0045e-05,-0.00038869,-4.9067e+08,-80005,0,8.8847e+06,122.88,11316,11734,1,11734,1,-0.00041555,-6.5934e-08,0,0.00041555,-0.00024101,-1.6897e+08,-16515,0,1.4655e+08,5387.7,11733,12578,1,12578,1,0.001298,6.6747e-08,0,0.001298,7.8565e-05,2.7523e+08,16451,0,3.1591e+08,19321,12577,485.01,0,485.01,0,0.00098883,1.2691e-07,0,0.00058193,0.00018451,2.6084e+08,28850,0,1.1967e+08,9715.3,485.01,1
1560,6.03,12156,1,12156,1,0.00044411,-8.8534e-09,0,0.00091576,-8.1724e-05,4.3988e+07,-1338.8,0,2.3586e+08,14903,12155,12992,1,12992,1,0.0020968,4.0247e-07,0,0.0020968,0.00022687,3.4353e+08,91769,0,4.9128e+08,48415,12991,12156,1,12156,1,0.00044379,-7.7762e-09,0,0.00085852,-8.1856e-05,1.302e+08,-1946.3,0,2.5393e+08,14283,12155,11317,1,11317,1,-0.0012079,-4.975e-07,0,1.8315e-05,-0.00039008,-4.9128e+08,-88178,0,8.2524e+06,75.188,11316,11734,1,11734,1,-0.00041491,-7.7767e-08,0,0.00041491,-0.00024198,-1.6871e+08,-19381,0,1.4713e+08,5916.9,11733,12578,1,12578,1,0.0013033,6.6687e-08,0,0.0013033,7.8454e-05,2.7521e+08,16658,0,3.1536e+08,21187,12577,485.01,0,485.01,0,0.00099151,1.3912e-07,0,0.00058421,0.00018501,2.6086e+08,31463,0,1.1966e+08,10463,485.01,1
1560,6.04,12156,1,12156,1,0.00044716,-9.9179e-09,0,0.00091873,-8.228e-05,4.4055e+07,-1624.5,0,2.359e+08,16010,12155,12992,1,12992,1,0.0021045,4.3334e-07,0,0.0021045,0.00022717,3.4279e+08,99773,0,4.9192e+08,51843,12991,12156,1,12156,1,0.00044681,-8.5697e-09,0,0.00086087,-8.2404e-05,1.3081e+08,-2137.9,0,2.5411e+08,15396,12155,11317,1,11317,1,-0.0012095,-5.3658e-07,0,1.6547e-05,-0.0003915,-4.9192e+08,-94504,0,7.6085e+06,72.074,11316,11734,1,11734,1,-0.00041425,-8.5818e-08,0,0.00041425,-0.00024298,-1.6844e+08,-21391,0,1.4773e+08,6284.1,11733,12578,1,12578,1,0.0013087,7.3021e-08,0,0.0013087,7.834e-05,2.7519e+08,17993,0,3.1481e+08,22808,12577,485.01,0,485.01,0,0.00099427,1.5035e-07,0,0.00058656,0.00018552,2.6088e+08,34195,0,1.1966e+08,11254,485.01,1
1560,6.05,12156,1,12156,1,0.00045026,-5.5427e-09,0,0.00092172,-8.2845e-05,4.4119e+07,-529.43,0,2.3592e+08,17515,12155,12992,1,12992,1,0.0021123,4.8422e-07,0,0.0021123,0.00022746,3.4201e+08,1.0825e+05,0,4.9254e+08,55914,12991,12156,1,12156,1,0.00044988,-3.3576e-09,0,0.00086322,-8.296e-05,1.3143e+08,-853.36,0,2.5428e+08,16899,12155,11317,1,11317,1,-0.001211,-5.8532e-07,0,1.4727e-05,-0.00039294,-4.9254e+08,-1.0263e+05,0,6.9479e+06,102.3,11316,11734,1,11734,1,-0.00041356,-8.9429e-08,0,0.00041356,-0.00024399,-1.6816e+08,-22255,0,1.4834e+08,6937.8,11733,12578,1,12578,1,0.0013143,8.6242e-08,0,0.0013143,7.8221e-05,2.7516e+08,21303,0,3.1423e+08,24956,12577,485.01,0,485.01,0,0.00099705,1.6612e-07,0,0.00058895,0.00018603,2.6089e+08,37383,0,1.1966e+08,12199,485.01,1
1560,6.06,12156,1,12156,1,0.00045342,-7.9231e-09,0,0.00092477,-8.3422e-05,4.4185e+07,-1052.8,0,2.3595e+08,19097,12155,12992,1,12992,1,0.0021203,5.3053e-07,0,0.0021203,0.00022776,3.4124e+08,1.1744e+05,0,4.9318e+08,59888,12991,12156,1,12156,1,0.00045302,-6.3007e-09,0,0.00086562,-8.3528e-05,1.3206e+08,-1617.6,0,2.5446e+08,18516,12155,11317,1,11317,1,-0.0012126,-6.4016e-07,0,1.2869e-05,-0.0003944,-4.9318e+08,-1.1182e+05,0,6.2754e+06,151.62,11316,11734,1,11734,1,-0.00041285,-9.9648e-08,0,0.00041285,-0.00024502,-1.6787e+08,-24926,0,1.4895e+08,7541,11733,12578,1,12578,1,0.0013199,9.307e-08,0,0.0013199,7.8099e-05,2.7512e+08,22780,0,3.1364e+08,27361,12577,485.01,0,485.01,0,0.00099989,1.822e-07,0,0.00059139,0.00018656,2.6091e+08,40851,0,1.1966e+08,13177,485.01,1
1560,6.07,12156,1,12156,1,0.00045668,-8.0172e-09,0,0.00092793,-8.4014e-05,4.4253e+07,-1042.8,0,2.3598e+08,20750,12155,12992,1,12992,1,0.0021286,5.7879e-07,0,0.0021286,0.00022807,3.4045e+08,1.2735e+05,0,4.9384e+08,64328,12991,12156,1,12156,1,0.00045624,-6.0437e-09,0,0.0008681,-8.4109e-05,1.327e+08,-1539,0,2.5464e+08,20200,12155,11317,1,11317,1,-0.0012142,-6.9753e-07,0,1.0963e-05,-0.00039592,-4.9384e+08,-1.2118e+05,0,5.5884e+06,94.348,11316,11734,1,11734,1,-0.00041213,-1.0995e-07,0,0.00041213,-0.00024608,-1.6758e+08,-27130,0,1.4958e+08,8177,11733,12578,1,12578,1,0.0013257,1.0313e-07,0,0.0013257,7.7975e-05,2.7509e+08,25200,0,3.1304e+08,29744,12577,485.01,0,485.01,0,0.0010028,1.9944e-07,0,0.00059391,0.0001871,2.6092e+08,44599,0,1.1966e+08,14236,485.01,1
1560,6.08,12156,1,12156,1,0.00046002,-7.035e-09,0,0.00093113,-8.4621e-05,4.4322e+07,-764.84,0,2.36e+08,22688,12155,12992,1,12992,1,0.002137,6.4646e-07,0,0.002137,0.00022838,3.3962e+08,1.3932e+05,0,4.945e+08,69352,12991,12156,1,12156,1,0.00045954,-3.9729e-09,0,0.0008706,-8.4705e-05,1.3336e+08,-952.19,0,2.5481e+08,22237,12155,11317,1,11317,1,-0.0012158,-7.6198e-07,0,8.9875e-06,-0.00039747,-4.945e+08,-1.3165e+05,0,4.8775e+06,273.81,11316,11734,1,11734,1,-0.00041136,-1.2094e-07,0,0.00041136,-0.00024717,-1.6726e+08,-29600,0,1.5023e+08,8993.8,11733,12578,1,12578,1,0.0013317,1.1541e-07,0,0.0013317,7.7843e-05,2.7504e+08,28167,0,3.1241e+08,32590,12577,485.01,0,485.01,0,0.0010058,2.1996e-07,0,0.00059649,0.00018764,2.6093e+08,48987,0,1.1966e+08,15471,485.01,1
1560,6.09,12156,1,12156,1,0.00046346,-1.4863e-09,0,0.00093442,-8.5245e-05,4.4392e+07,667.27,0,2.3602e+08,24658,12155,12992,1,12992,1,0.0021456,7.085e-07,0,0.0021456,0.00022869,3.3877e+08,1.5376e+05,0,4.9517e+08,74856,12991,12156,1,12156,1,0.00046292,3.4762e-09,0,0.00087315,-8.5315e-05,1.3403e+08,854.61,0,2.5498e+08,24365,12155,11317,1,11317,1,-0.0012175,-8.2848e-07,0,6.9537e-06,-0.00039906,-4.9517e+08,-1.4209e+05,0,4.1469e+06,109.31,11316,11734,1,11734,1,-0.00041057,-1.2702e-07,0,0.00041057,-0.00024829,-1.6694e+08,-31167,0,1.5089e+08,9736.1,11733,12578,1,12578,1,0.0013378,1.3449e-07,0,0.0013378,7.7707e-05,2.7499e+08,32346,0,3.1177e+08,35599,12577,485.01,0,485.01,0,0.0010088,2.4111e-07,0,0.00059914,0.00018821,2.6094e+08,53703,0,1.1966e+08,16762,485.01,1
1560,6.1,12156,1,12156,1,0.00046698,-4.477e-09,0,0.00093778,-8.5883e-05,4.4462e+07,231.17,0,2.3603e+08,27180,12155,12992,1,12992,1,0.0021544,7.8136e-07,0,0.0021544,0.00022901,3.3791e+08,1.6741e+05,0,4.9584e+08,80530,12991,12156,1,12156,1,0.00046638,1.2314e-09,0,0.00087573,-8.5938e-05,1.3471e+08,337.31,0,2.5515e+08,27056,12155,11317,1,11317,1,-0.0012191,-9.2434e-07,0,4.8512e-06,-0.00040069,-4.9584e+08,-1.5795e+05,0,3.3925e+06,213.09,11316,11734,1,11734,1,-0.00040973,-1.4177e-07,0,0.00040973,-0.00024942,-1.666e+08,-35002,0,1.5155e+08,10824,11733,12578,1,12578,1,0.001344,1.4636e-07,0,0.001344,7.7565e-05,2.7492e+08,35207,0,3.1109e+08,39262,12577,485.01,0,485.01,0,0.0010119,2.6839e-07,0,0.00060186,0.00018878,2.6093e+08,59190,0,1.1966e+08,18279,485.01,1
1560,6.11,12156,1,12156,1,0.00047058,-1.0511e-08,0,0.00094122,-8.6536e-05,4.4535e+07,-960.12,0,2.3604e+08,29772,12155,12992,1,12992,1,0.0021635,8.5619e-07,0,0.0021635,0.00022933,3.3704e+08,1.8388e+05,0,4.9654e+08,86635,12991,12156,1,12156,1,0.00046994,-3.7532e-09,0,0.0008784,-8.6577e-05,1.3541e+08,-922.84,0,2.5533e+08,29813,12155,11317,1,11317,1,-0.0012209,-1.0194e-06,0,2.6992e-06,-0.00040236,-4.9654e+08,-1.7341e+05,0,2.6213e+06,302.29,11316,11734,1,11734,1,-0.00040888,-1.6185e-07,0,0.00040888,-0.00025059,-1.6625e+08,-40086,0,1.5224e+08,11981,11733,12578,1,12578,1,0.0013504,1.5508e-07,0,0.0013504,7.7421e-05,2.7486e+08,37403,0,3.104e+08,43218,12577,485.01,0,485.01,0,0.0010151,2.9547e-07,0,0.00060465,0.00018937,2.6093e+08,65107,0,1.1966e+08,19864,485.01,1
1560,6.12,12156,1,12156,1,0.00047433,-4.7322e-09,0,0.00094477,-8.7214e-05,4.4609e+07,467.31,0,2.3605e+08,32513,12155,12992,1,12992,1,0.0021729,9.4156e-07,0,0.0021729,0.00022966,3.3611e+08,2.0283e+05,0,4.9725e+08,93678,12991,12156,1,12156,1,0.0004736,2.5437e-09,0,0.00088111,-8.7234e-05,1.3612e+08,663.38,0,2.5549e+08,32705,12155,11317,1,11317,1,-0.0012226,-1.1168e-06,0,4.6002e-07,-0.00040409,-4.9725e+08,-1.8867e+05,0,1.8203e+06,278.11,11316,11734,1,11734,1,-0.00040798,-1.7444e-07,0,0.00040798,-0.0002518,-1.6588e+08,-43059,0,1.5294e+08,12977,11733,12578,1,12578,1,0.001357,1.8303e-07,0,0.001357,7.7268e-05,2.7478e+08,43256,0,3.0969e+08,47330,12577,485.01,0,485.01,0,0.0010184,3.2647e-07,0,0.00060755,0.00018998,2.6093e+08,71732,0,1.1967e+08,21578,485.01,1
1560,6.13,12156,1,12156,1,0.00047819,-9.6876e-09,0,0.00094855,-8.7913e-05,4.4685e+07,-396.02,0,2.3605e+08,35801,12155,12992,1,12992,1,0.0021827,1.0345e-06,0,0.0021827,0.00023001,3.3518e+08,2.2324e+05,0,4.9798e+08,1.0127e+05,12991,12156,1,12156,1,0.00047738,-1.7097e-09,0,0.0008854,-8.7912e-05,1.3685e+08,-394.77,0,2.5567e+08,36212,12155,11317,1,11317,1,-0.0012244,-1.2388e-06,0,3.5994e-07,-0.00040588,-4.9798e+08,-2.0816e+05,0,9.9135e+05,332.87,11316,11734,1,11734,1,-0.00040705,-1.9765e-07,0,0.00041012,-0.00025305,-1.655e+08,-48607,0,1.5366e+08,14394,11733,12578,1,12578,1,0.0013639,1.9567e-07,0,0.0013639,7.7112e-05,2.747e+08,47516,0,3.0895e+08,52438,12577,485.01,0,485.01,0,0.0010218,3.6164e-07,0,0.00061038,0.00019061,2.6092e+08,79342,0,1.1967e+08,23603,485.01,1
1560,6.14,12156,1,12156,1,0.0004822,-1.2286e-08,0,0.00095252,-8.8636e-05,4.4762e+07,-731.59,0,2.3605e+08,39497,12155,12992,1,12992,1,0.0021927,1.1525e-06,0,0.0021927,0.00023036,3.342e+08,2.4651e+05,0,4.9872e+08,1.094e+05,12991,12156,1,12156,1,0.00048129,-5.5884e-09,0,0.00088844,-8.8611e-05,1.3761e+08,-1330.5,0,2.5584e+08,40106,12155,11317,1,11317,1,-0.0012262,-1.3761e-06,0,2.4528e-06,-0.00040773,-4.9872e+08,-2.2995e+05,0,1.2823e+05,411.51,11316,11734,1,11734,1,-0.00040606,-2.2281e-07,0,0.0004139,-0.00025434,-1.651e+08,-54349,0,1.5441e+08,15911,11733,12578,1,12578,1,0.0013709,2.1868e-07,0,0.0013709,7.6947e-05,2.7461e+08,52576,0,3.0817e+08,58223,12577,485.01,0,485.01,0,0.0010253,4.0343e-07,0,0.00061321,0.00019125,2.6091e+08,88103,0,1.1968e+08,25809,485.01,1
1560,6.15,12156,1,12156,1,0.00048635,-9.4097e-09,0,0.0009566,-8.9381e-05,4.4841e+07,301.05,0,2.3608e+08,43818,12155,12992,1,12992,1,0.0022031,1.2927e-06,0,0.0022031,0.00023071,3.3319e+08,2.7222e+05,0,4.9948e+08,1.1852e+05,12991,12156,1,12156,1,0.00048533,2.1752e-09,0,0.00089157,-8.933e-05,1.3838e+08,541.89,0,2.56e+08,44309,12155,11317,1,11317,1,-0.0012281,-1.5288e-06,0,4.7449e-06,-0.00040965,-4.9948e+08,-2.54e+05,0,1.1819e+05,511.19,11316,11734,1,11734,1,-0.00040503,-2.4792e-07,0,0.0004178,-0.00025567,-1.6468e+08,-59764,0,1.5517e+08,17812,11733,12578,1,12578,1,0.0013783,2.4819e-07,0,0.0013783,7.6776e-05,2.745e+08,59867,0,3.0736e+08,64847,12577,485.01,0,485.01,0,0.0010289,4.5159e-07,0,0.00061613,0.00019192,2.6088e+08,97875,0,1.196e+08,28423,485.01,1
1560,6.16,12156,1,12156,1,0.00049064,-1.2288e-08,0,0.00096083,-9.0152e-05,4.4922e+07,101.37,0,2.3613e+08,48536,12155,12992,1,12992,1,0.0022139,1.4361e-06,0,0.0022139,0.00023108,3.3216e+08,3.003e+05,0,5.0026e+08,1.2851e+05,12991,12156,1,12156,1,0.00048949,1.5597e-09,0,0.00089481,-9.0071e-05,1.3917e+08,377.02,0,2.5617e+08,49130,12155,11317,1,11317,1,-0.00123,-1.7059e-06,0,7.1044e-06,-0.00041163,-5.0026e+08,-2.8197e+05,0,8.9241e+05,600.66,11316,11734,1,11734,1,-0.00040395,-2.7702e-07,0,0.00042185,-0.00025705,-1.6424e+08,-67713,0,1.5595e+08,19885,11733,12578,1,12578,1,0.0013858,2.756e-07,0,0.0013858,7.6598e-05,2.7439e+08,66401,0,3.0652e+08,72251,12577,485.01,0,485.01,0,0.0010326,5.0438e-07,0,0.00061916,0.0001926,2.6086e+08,1.0876e+05,0,1.1948e+08,31267,485.01,1
1560,6.17,12156,1,12156,1,0.00049508,-1.134e-08,0,0.0009652,-9.0949e-05,4.5005e+07,854.54,0,2.3618e+08,53887,12155,12992,1,12992,1,0.0022251,1.6081e-06,0,0.0022251,0.00023146,3.3108e+08,3.3368e+05,0,5.0106e+08,1.3947e+05,12991,12156,1,12156,1,0.00049381,6.1417e-09,0,0.00089817,-9.0837e-05,1.3999e+08,1432.4,0,2.5633e+08,54465,12155,11317,1,11317,1,-0.001232,-1.8964e-06,0,9.5483e-06,-0.0004137,-5.0106e+08,-3.1138e+05,0,1.7579e+06,637.49,11316,11734,1,11734,1,-0.00040283,-3.0894e-07,0,0.00042604,-0.00025847,-1.6378e+08,-74691,0,1.5677e+08,22595,11733,12578,1,12578,1,0.0013937,3.12e-07,0,0.0013937,7.6414e-05,2.7426e+08,75569,0,3.0565e+08,80668,12577,485.01,0,485.01,0,0.0010364,5.6398e-07,0,0.0006223,0.00019332,2.6084e+08,1.2115e+05,0,1.1935e+08,34448,485.01,1
1560,6.18,12156,1,12156,1,0.00049976,-1.8709e-08,0,0.0009698,-9.1787e-05,4.5094e+07,-368.2,0,2.3624e+08,59494,12155,12992,1,12992,1,0.002237,1.7776e-06,0,0.002237,0.00023186,3.2999e+08,3.7164e+05,0,5.0191e+08,1.5058e+05,12991,12156,1,12156,1,0.00049832,-1.3454e-09,0,0.0009017,-9.1635e-05,1.4085e+08,-314.33,0,2.5651e+08,60367,12155,11317,1,11317,1,-0.0012341,-2.1165e-06,0,1.2081e-05,-0.00041588,-5.0191e+08,-3.4526e+05,0,2.654e+06,664.02,11316,11734,1,11734,1,-0.00040165,-3.5115e-07,0,0.00043046,-0.00025997,-1.633e+08,-86027,0,1.5761e+08,24973,11733,12578,1,12578,1,0.0014019,3.4841e-07,0,0.0014019,7.622e-05,2.7414e+08,83652,0,3.0475e+08,90191,12577,485.01,0,485.01,0,0.0010405,6.3101e-07,0,0.00062562,0.00019406,2.6082e+08,1.3526e+05,0,1.1923e+08,37855,485.01,1
1560,6.19,12156,1,12156,1,0.00050465,-1.8356e-08,0,0.00097458,-9.266e-05,4.5183e+07,309.76,0,2.3628e+08,66509,12155,12992,1,12992,1,0.0022494,2.0093e-06,0,0.0022494,0.00023226,3.2883e+08,4.1454e+05,0,5.0277e+08,1.6386e+05,12991,12156,1,12156,1,0.00050303,4.2336e-09,0,0.00090536,-9.2465e-05,1.4173e+08,1103.6,0,2.5667e+08,67801,12155,11317,1,11317,1,-0.0012362,-2.3716e-06,0,1.4728e-05,-0.00041815,-5.0277e+08,-3.8427e+05,0,3.5884e+06,786.38,11316,11734,1,11734,1,-0.00040038,-3.9618e-07,0,0.00043507,-0.00026154,-1.6278e+08,-96102,0,1.5849e+08,27966,11733,12578,1,12578,1,0.0014105,3.9635e-07,0,0.0014105,7.6016e-05,2.7398e+08,94712,0,3.0378e+08,1.0152e+05,12577,485.01,0,485.01,0,0.0010447,7.1205e-07,0,0.00062909,0.00019484,2.6078e+08,1.5183e+05,0,1.1909e+08,42015,485.01,1
1560,6.2,12156,1,12156,1,0.00050978,-2.8773e-08,0,0.0009796,-9.3576e-05,4.5277e+07,-1366.4,0,2.3633e+08,74263,12155,12992,1,12992,1,0.0022624,2.2562e-06,0,0.0022624,0.00023269,3.2765e+08,4.6252e+05,0,5.0368e+08,1.7792e+05,12991,12156,1,12156,1,0.00050796,-6.7431e-09,0,0.00090924,-9.3331e-05,1.4265e+08,-1676.7,0,2.5685e+08,75987,12155,11317,1,11317,1,-0.0012384,-2.672e-06,0,1.7472e-05,-0.00042055,-5.0368e+08,-4.3028e+05,0,4.5528e+06,925.21,11316,11734,1,11734,1,-0.00039905,-4.5454e-07,0,0.00043993,-0.00026318,-1.6223e+08,-1.1054e+05,0,1.594e+08,31064,11733,12578,1,12578,1,0.0014196,4.4483e-07,0,0.0014196,7.5803e-05,2.7383e+08,1.0516e+05,0,3.0278e+08,1.1463e+05,12577,485.01,0,485.01,0,0.0010491,8.0476e-07,0,0.00063275,0.00019566,2.6074e+08,1.7067e+05,0,1.1896e+08,46628,485.01,1
1560,6.21,12156,1,12156,1,0.00051518,-2.9031e-08,0,0.00098485,-9.4536e-05,4.5373e+07,-677.38,0,2.3636e+08,83382,12155,12992,1,12992,1,0.0022761,2.5601e-06,0,0.0022761,0.00023313,3.2638e+08,5.1731e+05,0,5.0462e+08,1.9479e+05,12991,12156,1,12156,1,0.00051311,-1.5526e-09,0,0.00091327,-9.4233e-05,1.436e+08,-439.41,0,2.5701e+08,85734,12155,11317,1,11317,1,-0.0012407,-3.0114e-06,0,2.0349e-05,-0.00042308,-5.0462e+08,-4.8168e+05,0,5.5595e+06,1017.1,11316,11734,1,11734,1,-0.00039762,-5.1323e-07,0,0.00044502,-0.0002649,-1.6165e+08,-1.2401e+05,0,1.6035e+08,34720,11733,12578,1,12578,1,0.0014291,5.1083e-07,0,0.0014291,7.5577e-05,2.7364e+08,1.1957e+05,0,3.0171e+08,1.2958e+05,12577,485.01,0,485.01,0,0.0010537,9.1302e-07,0,0.00063659,0.00019651,2.6069e+08,1.924e+05,0,1.1881e+08,52039,485.01,1
1560,6.22,12156,1,12156,1,0.00052084,-2.7152e-08,0,0.00099035,-9.554e-05,4.5475e+07,759.69,0,2.364e+08,93481,12155,12992,1,12992,1,0.0022907,2.9098e-06,0,0.0022907,0.0002336,3.2507e+08,5.8225e+05,0,5.0561e+08,2.1107e+05,12991,12156,1,12156,1,0.00051852,1.0768e-08,0,0.00091751,-9.5177e-05,1.446e+08,2523.9,0,2.5718e+08,96815,12155,11317,1,11317,1,-0.0012432,-3.3883e-06,0,2.3342e-05,-0.00042575,-5.0561e+08,-5.3753e+05,0,6.5999e+06,1062.4,11316,11734,1,11734,1,-0.00039613,-5.835e-07,0,0.00045036,-0.0002667,-1.6104e+08,-1.3825e+05,0,1.6091e+08,38941,11733,12578,1,12578,1,0.001439,5.8554e-07,0,0.001439,7.5343e-05,2.7345e+08,1.3716e+05,0,3.0059e+08,1.4602e+05,12577,485.01,0,485.01,0,0.0010585,1.0356e-06,0,0.00064063,0.0001974,2.6064e+08,2.1741e+05,0,1.1867e+08,58033,485.01,1
1560,6.23,12156,1,12156,1,0.00052687,-4.1849e-08,0,0.0009962,-9.6608e-05,4.5581e+07,-1739.3,0,2.3642e+08,1.0526e+05,12155,12992,1,12992,1,0.0023061,3.2838e-06,0,0.0023061,0.00023409,3.2373e+08,6.5411e+05,0,5.0664e+08,2.3032e+05,12991,12156,1,12156,1,0.00052422,-7.6301e-09,0,0.00092203,-9.6164e-05,1.4564e+08,-1872.8,0,2.5735e+08,1.1003e+05,12155,11317,1,11317,1,-0.0012457,-3.8534e-06,0,2.6461e-05,-0.0004286,-5.0664e+08,-6.0719e+05,0,7.6768e+06,1353.7,11316,11734,1,11734,1,-0.0003945,-6.7327e-07,0,0.00045607,-0.00026862,-1.6037e+08,-1.6196e+05,0,1.6037e+08,43834,11733,12578,1,12578,1,0.0014497,6.645e-07,0,0.0014497,7.5092e-05,2.7323e+08,1.5466e+05,0,2.9941e+08,1.6618e+05,12577,485.01,0,485.01,0,0.0010636,1.1827e-06,0,0.00064495,0.00019835,2.6058e+08,2.4672e+05,0,1.1853e+08,64962,485.01,1
1560,6.24,12156,1,12156,1,0.00053327,-4.272e-08,0,0.0010024,-9.7737e-05,4.5691e+07,-757.9,0,2.3644e+08,1.1911e+05,12155,12992,1,12992,1,0.0023226,3.7676e-06,0,0.0023226,0.0002346,3.2229e+08,7.3838e+05,0,5.0772e+08,2.512e+05,12991,12156,1,12156,1,0.00053024,-2.6468e-09,0,0.0009268,-9.7204e-05,1.4673e+08,-806.38,0,2.5751e+08,1.2486e+05,12155,11317,1,11317,1,-0.0012484,-4.3778e-06,0,2.9745e-05,-0.00043164,-5.0772e+08,-6.844e+05,0,8.8003e+06,1590.2,11316,11734,1,11734,1,-0.00039277,-7.6753e-07,0,0.00046212,-0.00027064,-1.5966e+08,-1.8433e+05,0,1.5966e+08,49913,11733,12578,1,12578,1,0.0014609,7.6588e-07,0,0.0014609,7.4828e-05,2.7299e+08,1.7882e+05,0,2.9814e+08,1.8899e+05,12577,485.01,0,485.01,0,0.001069,1.3562e-06,0,0.00064954,0.00019935,2.6051e+08,2.8077e+05,0,1.1838e+08,73153,485.01,1
1560,6.25,12156,1,12156,1,0.00054007,-5.1207e-08,0,0.0010089,-9.8933e-05,4.5806e+07,-1211.8,0,2.3645e+08,1.3502e+05,12155,12992,1,12992,1,0.0023403,4.3206e-06,0,0.0023403,0.00023514,3.2079e+08,8.3539e+05,0,5.0885e+08,2.7382e+05,12991,12156,1,12156,1,0.0005366,-5.546e-09,0,0.00093186,-9.8296e-05,1.4787e+08,-1661.3,0,2.5767e+08,1.4322e+05,12155,11317,1,11317,1,-0.0012511,-4.9952e-06,0,3.3176e-05,-0.00043488,-5.0885e+08,-7.7474e+05,0,9.9621e+06,1761.1,11316,11734,1,11734,1,-0.00039089,-8.9379e-07,0,0.00046856,-0.0002728,-1.5889e+08,-2.1124e+05,0,1.5889e+08,56837,11733,12578,1,12578,1,0.0014729,8.84e-07,0,0.0014729,7.4546e-05,2.7271e+08,2.0461e+05,0,2.9679e+08,2.1424e+05,12577,485.01,0,485.01,0,0.0010747,1.5593e-06,0,0.00065442,0.00020041,2.6043e+08,3.2054e+05,0,1.1823e+08,82595,485.01,1
1560,6.26,12156,1,12156,1,0.00054735,-5.5737e-08,0,0.0010159,-0.00010021,4.593e+07,-539.33,0,2.3646e+08,1.5353e+05,12155,12992,1,12992,1,0.0023594,4.9742e-06,0,0.0023594,0.00023573,3.1924e+08,9.4946e+05,0,5.1008e+08,2.9855e+05,12991,12156,1,12156,1,0.00054336,7.1652e-10,0,0.00093731,-9.9451e-05,1.4908e+08,223.33,0,2.5784e+08,1.6483e+05,12155,11317,1,11317,1,-0.0012542,-5.7096e-06,0,3.6768e-05,-0.0004384,-5.1008e+08,-8.7778e+05,0,1.1163e+07,1947.2,11316,11734,1,11734,1,-0.00038889,-1.0332e-06,0,0.00047545,-0.0002751,-1.5808e+08,-2.4249e+05,0,1.5808e+08,64935,11733,12578,1,12578,1,0.0014857,1.0293e-06,0,0.0014857,7.4252e-05,2.7243e+08,2.3682e+05,0,2.9536e+08,2.4365e+05,12577,485.01,0,485.01,0,0.0010808,1.7989e-06,0,0.00065969,0.00020154,2.6035e+08,3.6729e+05,0,1.1808e+08,93660,485.01,1
1560,6.27,12156,1,12156,1,0.00055518,-6.9723e-08,0,0.0010234,-0.00010158,4.6061e+07,-1617.9,0,2.3646e+08,1.7522e+05,12155,12992,1,12992,1,0.0023801,5.7448e-06,0,0.0023801,0.00023635,3.176e+08,1.0821e+06,0,5.1139e+08,3.2756e+05,12991,12156,1,12156,1,0.00055058,-4.93e-09,0,0.00094318,-0.00010068,1.5036e+08,-1108.4,0,2.58e+08,1.8582e+05,12155,11317,1,11317,1,-0.0012574,-6.5622e-06,0,4.0552e-05,-0.00044221,-5.1139e+08,-9.9998e+05,0,1.2411e+07,2311.7,11316,11734,1,11734,1,-0.00038671,-1.2111e-06,0,0.00048286,-0.00027758,-1.5718e+08,-2.8378e+05,0,1.5718e+08,74404,11733,12578,1,12578,1,0.0014995,1.191e-06,0,0.0014995,7.3936e-05,2.721e+08,2.7511e+05,0,2.9381e+08,2.809e+05,12577,485.01,0,485.01,0,0.0010874,2.0861e-06,0,0.00066536,0.00020276,2.6025e+08,4.2283e+05,0,1.1792e+08,1.0671e+05,485.01,1
1560,6.28,12156,1,12156,1,0.00056363,-7.8988e-08,0,0.0010315,-0.00010305,4.6199e+07,-1348.3,0,2.3644e+08,2.0075e+05,12155,12992,1,12992,1,0.0024027,6.6755e-06,0,0.0024027,0.00023702,3.1586e+08,1.2384e+06,0,5.1278e+08,3.7243e+05,12991,12156,1,12156,1,0.00055831,-5.1854e-09,0,0.00094951,-0.00010198,1.5172e+08,-1096.7,0,2.5816e+08,2.0716e+05,12155,11317,1,11317,1,-0.0012608,-7.5675e-06,0,4.4542e-05,-0.00044636,-5.1278e+08,-1.1424e+06,0,1.3707e+07,2767.8,11316,11734,1,11734,1,-0.00038432,-1.4198e-06,0,0.00049088,-0.00028024,-1.562e+08,-3.3026e+05,0,1.562e+08,85726,11733,12578,1,12578,1,0.0015145,1.4016e-06,0,0.0015145,7.3597e-05,2.7173e+08,3.2311e+05,0,2.9214e+08,3.2281e+05,12577,485.01,0,485.01,0,0.0010944,2.4323e-06,0,0.0006715,0.00020406,2.6014e+08,4.8898e+05,0,1.1777e+08,1.2223e+05,485.01,1
1560,6.29,12156,1,12156,1,0.00057278,-9.1359e-08,0,0.0010402,-0.00010464,4.6345e+07,-1208.2,0,2.364e+08,2.3107e+05,12155,12992,1,12992,1,0.0024274,7.7924e-06,0,0.0024274,0.00023774,3.1404e+08,1.4217e+06,0,5.1428e+08,4.3559e+05,12991,12156,1,12156,1,0.00056659,-5.7751e-09,0,0.00095638,-0.00010336,1.5316e+08,-1099.1,0,2.5832e+08,2.3438e+05,12155,11317,1,11317,1,-0.0012645,-8.7666e-06,0,4.8736e-05,-0.00045091,-5.1428e+08,-1.3107e+06,0,1.5047e+07,3101.7,11316,11734,1,11734,1,-0.00038171,-1.6826e-06,0,0.00049955,-0.00028312,-1.5512e+08,-3.8402e+05,0,1.5513e+08,99448,11733,12578,1,12578,1,0.0015306,1.6528e-06,0,0.0015307,7.3238e-05,2.7132e+08,3.7777e+05,0,2.9033e+08,3.6564e+05,12577,485.01,0,485.01,0,0.001102,2.8518e-06,0,0.00067819,0.00020547,2.6001e+08,5.6816e+05,0,1.1761e+08,1.4091e+05,485.01,1
1560,6.3,12156,1,12156,1,0.00058275,-9.8776e-08,0,0.0010497,-0.00010636,4.6502e+07,623.64,0,2.3634e+08,2.6693e+05,12155,12992,1,12992,1,0.0024547,9.1524e-06,0,0.0024547,0.00023852,3.121e+08,1.6379e+06,0,5.1589e+08,5.1672e+05,12991,12156,1,12156,1,0.0005755,2.7299e-09,0,0.00096387,-0.00010484,1.5469e+08,553.36,0,2.5846e+08,2.7526e+05,12155,11317,1,11317,1,-0.0012685,-1.0198e-05,0,5.3151e-05,-0.00045594,-5.1589e+08,-1.5093e+06,0,1.6436e+07,3474.8,11316,11734,1,11734,1,-0.00037881,-1.979e-06,0,0.00050901,-0.00028625,-1.5394e+08,-4.5157e+05,0,1.5394e+08,1.154e+05,11733,12578,1,12578,1,0.0015483,1.9624e-06,0,0.0015483,7.2849e-05,2.7085e+08,4.4853e+05,0,2.8836e+08,4.2125e+05,12577,485.01,0,485.01,0,0.0011102,3.3643e-06,0,0.00068549,0.000207,2.5986e+08,6.6334e+05,0,1.1746e+08,1.6347e+05,485.01,1
1560,6.31,12156,1,12156,1,0.00059364,-1.2485e-07,0,0.00106,-0.00010823,4.6671e+07,-667.19,0,2.3627e+08,3.0919e+05,12155,12992,1,12992,1,0.0024852,1.0762e-05,0,0.0024852,0.00023937,3.1009e+08,1.8939e+06,0,5.1766e+08,6.1678e+05,12991,12156,1,12156,1,0.00058514,-1.1622e-08,0,0.00097092,-0.00010642,1.5634e+08,-2273.8,0,2.586e+08,3.1855e+05,12155,11317,1,11317,1,-0.0012728,-1.1907e-05,0,5.7781e-05,-0.00046154,-5.1766e+08,-1.7438e+06,0,1.787e+07,3687,11316,11734,1,11734,1,-0.00037563,-2.3652e-06,0,0.00051936,-0.00028967,-1.5263e+08,-5.3721e+05,0,1.5263e+08,1.3133e+05,11733,12578,1,12578,1,0.0015676,2.3363e-06,0,0.0015676,7.2434e-05,2.7032e+08,5.2849e+05,0,2.8621e+08,4.8215e+05,12577,485.01,0,485.01,0,0.0011192,3.9864e-06,0,0.00069353,0.00020867,2.5969e+08,7.7813e+05,0,1.1731e+08,1.9088e+05,485.01,1
1560,6.32,12156,1,12156,1,0.00060566,-1.5691e-07,0,0.0010713,-0.00011028,4.6853e+07,-2569.1,0,2.3617e+08,3.5963e+05,12155,12992,1,12992,1,0.0025194,1.2725e-05,0,0.0025194,0.00024032,3.0797e+08,2.1974e+06,0,5.196e+08,7.4272e+05,12991,12156,1,12156,1,0.00059564,-3.0716e-08,0,0.00097416,-0.00010814,1.581e+08,-5647.3,0,2.5873e+08,3.7305e+05,12155,11317,1,11317,1,-0.0012776,-1.3956e-05,0,6.267e-05,-0.00046784,-5.196e+08,-2.0217e+06,0,1.9363e+07,3727,11316,11734,1,11734,1,-0.00037209,-2.8608e-06,0,0.00052142,-0.00029343,-1.5117e+08,-6.4351e+05,0,1.5117e+08,1.4902e+05,11733,12578,1,12578,1,0.001589,2.7954e-06,0,0.001589,7.1986e-05,2.6972e+08,6.2863e+05,0,2.8385e+08,5.5091e+05,12577,485.01,0,485.01,0,0.0011291,4.7544e-06,0,0.00070246,0.0002105,2.595e+08,9.1799e+05,0,1.1717e+08,2.2488e+05,485.01,1
1560,6.33,12156,1,12156,1,0.00061899,-1.8098e-07,0,0.0010838,-0.00011254,4.705e+07,-1688.7,0,2.3603e+08,4.2001e+05,12155,12992,1,12992,1,0.0025583,1.5156e-05,0,0.0025583,0.00024138,3.0572e+08,2.5583e+06,0,5.2175e+08,9.0159e+05,12991,12156,1,12156,1,0.00060712,-3.3674e-08,0,0.0009767,-0.00010999,1.6001e+08,-6077.9,0,2.5884e+08,4.2777e+05,12155,11317,1,11317,1,-0.0012829,-1.6419e-05,0,5.9375e-05,-0.000475,-5.2175e+08,-2.3513e+06,0,2.0915e+07,4065.6,11316,11734,1,11734,1,-0.00036811,-3.4415e-06,0,0.00051943,-0.0002976,-1.4953e+08,-7.727e+05,0,1.4954e+08,1.6906e+05,11733,12578,1,12578,1,0.0016127,3.3704e-06,0,0.0016127,7.15e-05,2.6902e+08,7.5187e+05,0,2.8147e+08,6.4847e+05,12577,485.01,0,485.01,0,0.00114,5.7122e-06,0,0.00071242,0.00021253,2.5928e+08,1.0892e+06,0,1.1703e+08,2.6758e+05,485.01,1
1560,6.34,12156,1,12156,1,0.0006339,-2.2258e-07,0,0.0010978,-0.00011505,4.7267e+07,-3214.9,0,2.3586e+08,4.917e+05,12155,12992,1,12992,1,0.002603,1.8099e-05,0,0.002603,0.00024257,3.0335e+08,2.9857e+06,0,5.2416e+08,1.1041e+06,12991,12156,1,12156,1,0.0006198,-5.7494e-08,0,0.00097913,-0.00011203,1.6209e+08,-9850.5,0,2.5893e+08,4.7431e+05,12155,11317,1,11317,1,-0.0012889,-1.9367e-05,0,5.0503e-05,-0.00048323,-5.2416e+08,-2.7615e+06,0,2.0539e+07,3934.2,11316,11734,1,11734,1,-0.0003636,-4.1969e-06,0,0.00051685,-0.00030225,-1.4767e+08,-9.3295e+05,0,1.4998e+08,2.0101e+05,11733,12578,1,12578,1,0.0016393,4.0963e-06,0,0.0016393,7.0969e-05,2.6822e+08,9.0968e+05,0,2.7894e+08,7.5889e+05,12577,485.01,0,485.01,0,0.0011522,6.9064e-06,0,0.00072366,0.0002148,2.5903e+08,1.2993e+06,0,1.1691e+08,3.2211e+05,485.01,1
1560,6.35,12156,1,12156,1,0.00065072,-2.5819e-07,0,0.0011135,-0.00011787,4.7503e+07,-1813.8,0,2.3562e+08,5.7758e+05,12155,12992,1,12992,1,0.0026551,2.1746e-05,0,0.0026551,0.00024391,3.0082e+08,3.4924e+06,0,5.2687e+08,1.3651e+06,12991,12156,1,12156,1,0.00063387,-6.0803e-08,0,0.0009816,-0.00011428,1.6436e+08,-10914,0,2.5897e+08,5.429e+05,12155,11317,1,11317,1,-0.0012955,-2.2907e-05,0,4.0235e-05,-0.00049281,-5.2687e+08,-3.2703e+06,0,1.6573e+07,3830.3,11316,11734,1,11734,1,-0.00035844,-5.1686e-06,0,0.00051344,-0.00030748,-1.4554e+08,-1.1311e+06,0,1.5151e+08,2.2882e+05,11733,12578,1,12578,1,0.0016693,5.0181e-06,0,0.0016694,7.0378e-05,2.6727e+08,1.1067e+06,0,2.7636e+08,8.877e+05,12577,485.01,0,485.01,0,0.0011658,8.4167e-06,0,0.00073644,0.00021733,2.5872e+08,1.5596e+06,0,1.168e+08,3.9325e+05,485.01,1
1560,6.36,12156,1,12156,1,0.00066989,-3.2067e-07,0,0.0011313,-0.00012108,4.7766e+07,-4047.5,0,2.3533e+08,6.7992e+05,12155,12992,1,12992,1,0.0027168,2.6226e-05,0,0.0027168,0.00024547,2.9818e+08,4.091e+06,0,5.2998e+08,1.7039e+06,12991,12156,1,12156,1,0.00064972,-9.8984e-08,0,0.0009865,-0.00011681,1.6687e+08,-18274,0,2.5899e+08,6.0501e+05,12155,11317,1,11317,1,-0.0013032,-2.7135e-05,0,2.821e-05,-0.00050417,-5.2998e+08,-3.8916e+06,0,1.21e+07,3001.5,11316,11734,1,11734,1,-0.00035248,-6.4139e-06,0,0.00050948,-0.00031342,-1.4309e+08,-1.3854e+06,0,1.5462e+08,2.499e+05,11733,12578,1,12578,1,0.0017037,6.1966e-06,0,0.0017037,6.972e-05,2.6616e+08,1.3601e+06,0,2.7295e+08,1.063e+06,12577,485.01,0,485.01,0,0.0011814,1.034e-05,0,0.00075119,0.00022022,2.5837e+08,1.8835e+06,0,1.1673e+08,4.8815e+05,485.01,1
1560,6.37,12156,1,12156,1,0.00069204,-3.7973e-07,0,0.0011517,-0.00012475,4.8061e+07,-3394.5,0,2.3495e+08,8.0184e+05,12155,12992,1,12992,1,0.0027913,3.177e-05,0,0.0027913,0.00024729,2.9534e+08,4.7977e+06,0,5.3358e+08,2.1508e+06,12991,12156,1,12156,1,0.0006678,-1.1684e-07,0,0.00099335,-0.00011968,1.6967e+08,-23064,0,2.5894e+08,6.6464e+05,12155,11317,1,11317,1,-0.0013121,-3.2195e-05,0,1.3883e-05,-0.00051788,-5.3358e+08,-4.641e+06,0,6.9958e+06,1755.7,11316,11734,1,11734,1,-0.00034548,-7.9654e-06,0,0.00050477,-0.00032024,-1.4019e+08,-1.7006e+06,0,1.5815e+08,2.5636e+05,11733,12578,1,12578,1,0.0017432,7.7757e-06,0,0.0017434,6.8972e-05,2.6337e+08,1.6816e+06,0,2.7011e+08,1.2836e+06,12577,485.01,0,485.01,0,0.0011994,1.2821e-05,0,0.00076843,0.00022355,2.5795e+08,2.2898e+06,0,1.1669e+08,6.1763e+05,485.01,1
1560,6.38,12156,1,12156,1,0.00071802,-4.583e-07,0,0.0011757,-0.00012902,4.8394e+07,-3997.4,0,2.3445e+08,9.4631e+05,12155,12992,1,12992,1,0.0028834,3.857e-05,0,0.0028834,0.00024946,2.9231e+08,5.6354e+06,0,5.3782e+08,2.7434e+06,12991,12156,1,12156,1,0.00068879,-1.7463e-07,0,0.0010093,-0.00012289,1.7283e+08,-31708,0,2.5745e+08,7.4499e+05,12155,11317,1,11317,1,-0.0013225,-3.8782e-05,0,3.1204e-06,-0.00053484,-5.3782e+08,-5.5526e+06,0,8.8153e+05,-95671,11316,11734,1,11734,1,-0.00033709,-9.9793e-06,0,0.00050162,-0.00032752,-1.3673e+08,-2.1345e+06,0,1.6217e+08,2.4932e+05,11733,12578,1,12578,1,0.0017809,9.7792e-06,0,0.0017812,6.8062e-05,2.6059e+08,2.0862e+06,0,2.6826e+08,1.5417e+06,12577,485.01,0,485.01,0,0.0012204,1.6064e-05,0,0.00078888,0.00022744,2.5744e+08,2.805e+06,0,1.1672e+08,7.9906e+05,485.01,1
1560,6.39,12156,1,12156,1,0.00074904,-5.5299e-07,0,0.0012047,-0.00013401,4.8783e+07,-4669.8,0,2.3396e+08,1.1192e+06,12155,12992,1,12992,1,0.0030006,4.7613e-05,0,0.0030006,0.00025212,2.8902e+08,6.713e+06,0,5.4294e+08,3.5598e+06,12991,12156,1,12156,1,0.0007137,-2.593e-07,0,0.0010576,-0.00012642,1.7647e+08,-41429,0,2.5326e+08,8.0329e+05,12155,11317,1,11317,1,-0.0013352,-4.7793e-05,0,9.871e-06,-0.00055643,-5.4294e+08,-6.675e+06,0,2.5166e+06,-4.9744e+05,11316,11734,1,11734,1,-0.00032691,-1.2567e-05,0,0.00050508,-0.00033462,-1.3252e+08,-2.6265e+06,0,1.6685e+08,2.1014e+05,11733,12578,1,12578,1,0.0018215,1.229e-05,0,0.001822,6.6992e-05,2.5707e+08,2.6199e+06,0,2.6468e+08,1.8726e+06,12577,485.01,0,485.01,0,0.0012456,2.0392e-05,0,0.00081299,0.00023206,2.5683e+08,3.4678e+06,0,1.1655e+08,1.0586e+06,485.01,1
1560,6.4,12156,1,12156,1,0.0007869,-6.7427e-07,0,0.0012403,-0.00013995,4.924e+07,-6393.9,0,2.3343e+08,1.3264e+06,12155,12992,1,12992,1,0.0031549,6.0363e-05,0,0.0031549,0.00025546,2.8542e+08,8.1687e+06,0,5.4929e+08,4.7093e+06,12991,12156,1,12156,1,0.00076119,-3.8742e-07,0,0.0011113,-0.00013048,1.8156e+08,-57297,0,2.4874e+08,8.8854e+05,12155,11317,1,11317,1,-0.0013509,-6.0601e-05,0,1.4389e-05,-0.00058484,-5.4929e+08,-8.1245e+06,0,4.035e+06,-1.1082e+06,11316,11734,1,11734,1,-0.00031427,-1.6092e-05,0,0.00053307,-0.00034203,-1.273e+08,-3.4119e+06,0,1.7236e+08,1.3138e+05,11733,12578,1,12578,1,0.0018623,1.5642e-05,0,0.0018628,6.5651e-05,2.5294e+08,3.3961e+06,0,2.6084e+08,2.3816e+06,12577,485.01,0,485.01,0,0.0012765,2.6308e-05,0,0.00084285,0.00023766,2.5608e+08,4.3342e+06,0,1.1618e+08,1.4367e+06,485.01,1
1560,6.41,12156,1,12156,1,0.00083469,-8.0891e-07,0,0.0012852,-0.0001473,4.9792e+07,-8769.4,0,2.3269e+08,1.5761e+06,12155,12992,1,12992,1,0.0033671,7.9312e-05,0,0.0033671,0.00025978,2.8132e+08,1.0163e+07,0,5.5735e+08,6.3663e+06,12991,12156,1,12156,1,0.00081743,-6.1929e-07,0,0.0011369,-0.00013524,1.8994e+08,-80092,0,2.4329e+08,9.5157e+05,12155,11317,1,11317,1,-0.0013708,-7.9428e-05,0,1.7968e-05,-0.00062395,-5.5735e+08,-1.013e+07,0,5.3287e+06,-1.9904e+06,11316,11734,1,11734,1,-0.00029796,-2.1471e-05,0,0.00057341,-0.00034919,-1.2057e+08,-4.5446e+06,0,1.7895e+08,39851,11733,12578,1,12578,1,0.001959,2.0584e-05,0,0.0019599,6.3917e-05,2.4854e+08,4.4915e+06,0,2.5786e+08,2.9471e+06,12577,485.01,0,485.01,0,0.0013161,3.47e-05,0,0.00088189,0.00024468,2.5513e+08,5.4924e+06,0,1.1586e+08,1.9989e+06,485.01,1
1560,6.42,12156,1,12156,1,0.00089735,-9.7997e-07,0,0.0013437,-0.00015667,5.0477e+07,-10180,0,2.3155e+08,1.8728e+06,12155,12992,1,12992,1,0.0036763,0.00010844,0,0.0036763,0.00026558,2.7638e+08,1.2967e+07,0,5.6793e+08,8.8149e+06,12991,12156,1,12156,1,0.00088505,-9.2663e-07,0,0.0011561,-0.00014133,1.9861e+08,-1.2287e+05,0,2.3872e+08,1.0013e+06,12155,11317,1,11317,1,-0.001397,-0.0001086,0,2.0671e-05,-0.00068097,-5.6793e+08,-1.2925e+07,0,6.4167e+06,-3.2466e+06,11316,11734,1,11734,1,-0.00027585,-2.9247e-05,0,0.00061258,-0.00036687,-1.1147e+08,-6.0017e+06,0,1.7777e+08,-85787,11733,12578,1,12578,1,0.0020413,2.7376e-05,0,0.0020436,6.1349e-05,2.4423e+08,5.9595e+06,0,2.5519e+08,3.7144e+06,12577,485.01,0,485.01,0,0.0013692,4.7066e-05,0,0.00093603,0.00025383,2.5388e+08,7.0685e+06,0,1.1577e+08,2.8548e+06,485.01,1
1560,6.43,12156,1,12156,1,0.00098377,-1.182e-06,0,0.001424,-0.00016902,5.1368e+07,-12423,0,2.2979e+08,2.2376e+06,12155,12992,1,12992,1,0.0041631,0.00015701,0,0.0041631,0.00027376,2.7017e+08,1.7096e+07,0,5.8248e+08,1.2586e+07,12991,12156,1,12156,1,0.0009532,-1.4171e-06,0,0.0012055,-0.00014981,1.9611e+08,-1.7228e+05,0,2.3251e+08,9.8976e+05,12155,11317,1,11317,1,-0.001433,-0.00015717,0,7.1063e-06,-0.00077082,-5.8248e+08,-1.7063e+07,0,8.7406e+05,-5.0918e+06,11316,11734,1,11734,1,-0.00024469,-4.0031e-05,0,0.0006161,-0.00038211,-9.8674e+07,-7.877e+06,0,1.7852e+08,-5.3653e+05,11733,12578,1,12578,1,0.0021558,3.748e-05,0,0.0021593,5.7505e-05,2.3968e+08,7.9314e+06,0,2.5232e+08,4.8989e+06,12577,485.01,0,485.01,0,0.0014461,6.6649e-05,0,0.0010173,0.00026644,2.5221e+08,9.3065e+06,0,1.1621e+08,4.192e+06,485.01,1
1560,6.44,12156,1,12156,1,0.0011115,-1.4121e-06,0,0.0015443,-0.00018575,5.2594e+07,-12381,0,2.2751e+08,2.6901e+06,12155,12992,1,12992,1,0.005019,0.00024993,0,0.005019,0.00028618,2.7046e+08,2.3702e+07,0,6.0379e+08,1.8749e+07,12991,12156,1,12156,1,0.0010426,-1.9908e-06,0,0.0012562,-0.00016664,1.8269e+08,-2.5756e+05,0,2.2681e+08,9.2734e+05,12155,11317,1,11317,1,-0.0014859,-0.0002502,0,2.4687e-05,-0.00092906,-6.0379e+08,-2.3643e+07,0,7.8619e+06,-7.7223e+06,11316,11734,1,11734,1,-0.000197,-5.6916e-05,0,0.00060843,-0.00039296,-7.924e+07,-1.0684e+07,0,1.7077e+08,-1.5415e+06,11733,12578,1,12578,1,0.0022866,5.2569e-05,0,0.0022919,5.1196e-05,2.3427e+08,1.0731e+07,0,2.5011e+08,6.4861e+06,12577,485.01,0,485.01,0,0.0015702,0.00010081,0,0.0011513,0.00028523,2.4998e+08,1.2644e+07,0,1.1672e+08,6.3763e+06,485.01,1
1560,6.45,12156,1,12156,1,0.0013186,-1.7241e-06,0,0.0017406,-0.00020856,5.438e+07,-18961,0,2.2366e+08,3.2716e+06,12155,12992,1,12992,1,0.0067905,0.00045797,0,0.0067905,0.00030629,2.8616e+08,3.4829e+07,0,6.3676e+08,2.9146e+07,12991,12156,1,12156,1,0.0011859,-2.0929e-06,0,0.0013369,-0.00019372,1.7239e+08,-2.1378e+05,0,2.1743e+08,6.1955e+05,12155,11317,1,11317,1,-0.0015679,-0.00045898,0,1.4623e-05,-0.0012564,-6.3676e+08,-3.478e+07,0,4.4937e+06,-1.2272e+07,11316,11734,1,11734,1,-0.00012535,-8.5311e-05,0,0.00069777,-0.00040571,-5.1735e+07,-1.5216e+07,0,1.5678e+08,-3.5147e+06,11733,12578,1,12578,1,0.0024215,7.9914e-05,0,0.0024396,4.6978e-05,2.2658e+08,1.5277e+07,0,2.5107e+08,9.184e+06,12577,485.01,0,485.01,0,0.0018062,0.0001693,0,0.001414,0.00031644,2.4692e+08,1.7855e+07,0,1.1911e+08,1.0045e+07,485.01,1
1560,6.46,12156,1,12156,1,0.0016926,-2.0599e-06,0,0.0021014,-0.00023383,5.7006e+07,-19943,0,2.1684e+08,4.0117e+06,12155,12992,1,12992,1,0.011456,0.0010454,0,0.011456,0.00034124,3.2004e+08,5.4184e+07,0,6.8783e+08,4.6293e+07,12991,12156,1,12156,1,0.0013675,-1.8525e-06,0,0.001477,-0.00021406,1.5718e+08,-2.7085e+05,0,2.0397e+08,1.8921e+05,12155,11317,1,11317,1,-0.0016956,-0.0010464,0,2.7171e-05,-0.0021087,-6.8783e+08,-5.409e+07,0,8.1757e+06,-2.0395e+07,11316,11734,1,11734,1,-2.9691e-05,-0.00013697,0,0.00072316,-0.00038059,-1.2252e+07,-2.0877e+07,0,1.395e+08,-7.1713e+06,11733,12578,1,12578,1,0.002591,0.00013277,0,0.0026259,3.0198e-05,2.1544e+08,2.1927e+07,0,2.6037e+08,1.2914e+07,12577,485.01,0,485.01,0,0.0023675,0.00033482,0,0.0020409,0.00037445,2.4198e+08,2.606e+07,0,1.2425e+08,1.6142e+07,485.01,1
1560,6.47,12156,1,12156,1,0.0024322,-2.2226e-06,0,0.0028379,-0.00021408,6.0362e+07,-23240,0,2.0221e+08,4.8322e+06,12155,12992,1,12992,1,0.028673,0.0033033,0,0.028673,0.00039825,3.7715e+08,8.519e+07,0,7.5156e+08,6.9143e+07,12991,12156,1,12156,1,0.0015132,-8.8444e-06,0,0.001589,-0.0002022,1.3403e+08,-6.1003e+05,0,1.8002e+08,41193,12155,11317,1,11317,1,-0.0018574,-0.0033324,0,6.2886e-05,-0.0050871,-7.5156e+08,-8.5212e+07,0,1.7019e+07,-3.3321e+07,11316,11734,1,11734,1,0.00020819,-0.00022033,0,0.00084792,-0.00027281,2.3689e+07,-2.8434e+07,0,1.1298e+08,-1.2436e+07,11733,12578,1,12578,1,0.0027882,0.00021833,0,0.0029035,-4.6177e-06,1.9368e+08,2.9387e+07,0,2.5693e+08,1.8968e+07,12577,485.01,0,485.01,0,0.0041082,0.00081621,0,0.0039248,0.00050217,2.3154e+08,3.7316e+07,0,1.3316e+08,2.4391e+07,485.01,1
