"N","Time","avg(GlobalElementId)","avg(ObjectId)","avg(PedigreeElementId)","avg(alpha)","avg(strain_x (0))","avg(strain_x (1))","avg(strain_x (2))","avg(strain_x (Magnitude))","avg(strain_yy)","avg(stress_x (0))","avg(stress_x (1))","avg(stress_x (2))","avg(stress_x (Magnitude))","avg(stress_yy)","avg(vtkOriginalCellIds)","max(GlobalElementId)","max(ObjectId)","max(PedigreeElementId)","max(alpha)","max(strain_x (0))","max(strain_x (1))","max(strain_x (2))","max(strain_x (Magnitude))","max(strain_yy)","max(stress_x (0))","max(stress_x (1))","max(stress_x (2))","max(stress_x (Magnitude))","max(stress_yy)","max(vtkOriginalCellIds)","med(GlobalElementId)","med(ObjectId)","med(PedigreeElementId)","med(alpha)","med(strain_x (0))","med(strain_x (1))","med(strain_x (2))","med(strain_x (Magnitude))","med(strain_yy)","med(stress_x (0))","med(stress_x (1))","med(stress_x (2))","med(stress_x (Magnitude))","med(stress_yy)","med(vtkOriginalCellIds)","min(GlobalElementId)","min(ObjectId)","min(PedigreeElementId)","min(alpha)","min(strain_x (0))","min(strain_x (1))","min(strain_x (2))","min(strain_x (Magnitude))","min(strain_yy)","min(stress_x (0))","min(stress_x (1))","min(stress_x (2))","min(stress_x (Magnitude))","min(stress_yy)","min(vtkOriginalCellIds)","q1(GlobalElementId)","q1(ObjectId)","q1(PedigreeElementId)","q1(alpha)","q1(strain_x (0))","q1(strain_x (1))","q1(strain_x (2))","q1(strain_x (Magnitude))","q1(strain_yy)","q1(stress_x (0))","q1(stress_x (1))","q1(stress_x (2))","q1(stress_x (Magnitude))","q1(stress_yy)","q1(vtkOriginalCellIds)","q3(GlobalElementId)","q3(ObjectId)","q3(PedigreeElementId)","q3(alpha)","q3(strain_x (0))","q3(strain_x (1))","q3(strain_x (2))","q3(strain_x (Magnitude))","q3(strain_yy)","q3(stress_x (0))","q3(stress_x (1))","q3(stress_x (2))","q3(stress_x (Magnitude))","q3(stress_yy)","q3(vtkOriginalCellIds)","std(GlobalElementId)","std(ObjectId)","std(PedigreeElementId)","std(alpha)","std(strain_x (0))","std(strain_x (1))","std(strain_x (2))","std(strain_x (Magnitude))","std(strain_yy)","std(stress_x (0))","std(stress_x (1))","std(stress_x (2))","std(stress_x (Magnitude))","std(stress_yy)","std(vtkOriginalCellIds)","vtkValidPointMask"
1736,0,12124,1,12124,1,0,0,0,0,0,0,0,0,0,0,12123,12992,1,12992,1,0,0,0,0,0,0,0,0,0,0,12991,12124,1,12124,1,0,0,0,0,0,0,0,0,0,0,12123,11209,1,11209,1,0,0,0,0,0,0,0,0,0,0,11208,11690,1,11690,1,0,0,0,0,0,0,0,0,0,0,11689,12558,1,12558,1,0,0,0,0,0,0,0,0,0,0,12557,502.62,0,502.62,0,0,0,0,0,0,0,0,0,0,0,502.62,1
1736,0.01,12124,1,12124,1,2.2014e-09,-1.072e-09,0,1.4108e-06,-5.1231e-10,-4804.5,-363.18,0,5.6813e+05,-73.801,12123,12992,1,12992,1,2.7659e-06,1.6798e-08,0,2.7659e-06,5.1268e-07,1.1011e+06,5632,0,1.112e+06,1407.7,12991,12124,1,12124,1,3.1186e-09,-8.1817e-10,0,1.4198e-06,-7.9805e-10,1084.2,-279.77,0,5.6641e+05,-13.831,12123,11209,1,11209,1,-2.7339e-06,-6.2852e-09,0,8.9272e-08,-5.2025e-07,-1.112e+06,-2108.4,0,36191,-1745.2,11208,11690,1,11690,1,-1.4077e-06,-2.2001e-09,0,7.0357e-07,-2.6597e-07,-5.7259e+05,-746.13,0,2.8533e+05,-249.19,11689,12558,1,12558,1,1.4198e-06,7.5578e-11,0,2.1112e-06,2.6405e-07,5.6641e+05,25.643,0,8.5702e+05,126.67,12557,502.62,0,502.62,0,1.6285e-06,1.7285e-09,0,8.1271e-07,3.053e-07,6.5563e+05,583.61,0,3.2699e+05,562.43,502.62,1
1736,0.02,12124,1,12124,1,2.8126e-08,-8.0002e-10,0,2.8346e-06,-5.5206e-09,-105.01,-271.5,0,1.1414e+06,-168.05,12123,12992,1,12992,1,5.5073e-06,3.5728e-09,0,5.5073e-06,1.0221e-06,2.1927e+06,1204.9,0,2.2169e+06,132.17,12991,12124,1,12124,1,2.7607e-08,-6.4572e-10,0,2.8357e-06,-5.3533e-09,10558,-218.9,0,1.1425e+06,-123.79,12123,11209,1,11209,1,-5.4504e-06,-4.6902e-09,0,1.7447e-07,-1.0325e-06,-2.2169e+06,-1583.7,0,70974,-901.2,11208,11690,1,11690,1,-2.8075e-06,-1.8044e-09,0,1.4179e-06,-5.3755e-07,-1.1419e+06,-615.44,0,5.7183e+05,-277.85,11689,12558,1,12558,1,2.8639e-06,1.8466e-10,0,4.254e-06,5.2624e-07,1.1425e+06,62.864,0,1.7123e+06,-2.9433,12557,502.62,0,502.62,0,3.2719e-06,1.3586e-09,0,1.633e-06,6.1359e-07,1.3172e+06,459.96,0,6.5684e+05,201.56,502.62,1
1736,0.03,12124,1,12124,1,4.2451e-08,-6.6615e-10,0,4.2621e-06,-7.8484e-09,-55.392,-226.1,0,1.7162e+06,-51.493,12123,12992,1,12992,1,8.2676e-06,1.6166e-10,0,8.2676e-06,1.5344e-06,3.2917e+06,55.369,0,3.3282e+06,33.571,12991,12124,1,12124,1,4.2269e-08,-6.6729e-10,0,4.2622e-06,-7.938e-09,16189,-226.21,0,1.7173e+06,-10.049,12123,11209,1,11209,1,-8.1826e-06,-2.1276e-09,0,2.6198e-07,-1.5499e-06,-3.3282e+06,-720.24,0,1.0656e+05,-469.3,11208,11690,1,11690,1,-4.2197e-06,-9.7065e-10,0,2.1312e-06,-8.0697e-07,-1.7163e+06,-330.32,0,8.5953e+05,-72.916,11689,12558,1,12558,1,4.3047e-06,-3.2625e-10,0,6.3936e-06,7.9131e-07,1.7173e+06,-111.07,0,2.5735e+06,4.2629,12557,502.62,0,502.62,0,4.9197e-06,4.4782e-10,0,2.4555e-06,9.2243e-07,1.9806e+06,151.87,0,9.8767e+05,93.33,502.62,1
1736,0.04,12124,1,12124,1,5.6753e-08,-1.2717e-10,0,5.6793e-06,-1.0385e-08,10.041,-43.214,0,2.2869e+06,-24.785,12123,12992,1,12992,1,1.1015e-05,2.4277e-09,0,1.1015e-05,2.0443e-06,4.3857e+06,821.87,0,4.4341e+06,101.21,12991,12124,1,12124,1,5.6648e-08,-2.5192e-11,0,5.68e-06,-1.0579e-08,21722,-8.4681,0,2.2886e+06,-14.539,12123,11209,1,11209,1,-1.0901e-05,-2.0191e-09,0,3.4891e-07,-2.0651e-06,-4.4341e+06,-683.51,0,1.4192e+05,-453.97,11208,11690,1,11690,1,-5.6233e-06,-7.509e-10,0,2.84e-06,-1.0753e-06,-2.2872e+06,-255.54,0,1.1454e+06,-40.128,11689,12558,1,12558,1,5.7367e-06,3.6089e-10,0,8.5201e-06,1.0546e-06,2.2886e+06,122.73,0,3.4295e+06,16.1,12557,502.62,0,502.62,0,6.5555e-06,7.9583e-10,0,3.2719e-06,1.2291e-06,2.6391e+06,270.19,0,1.3161e+06,75.206,502.62,1
1736,0.05,12124,1,12124,1,7.1093e-08,3.2447e-10,0,7.1016e-06,-1.2993e-08,64.753,110.13,0,2.8597e+06,-24.226,12123,12992,1,12992,1,1.3771e-05,1.0225e-09,0,1.3771e-05,2.5556e-06,5.4827e+06,346.08,0,5.5431e+06,71.621,12991,12124,1,12124,1,7.0998e-08,3.2163e-10,0,7.102e-06,-1.3086e-08,27215,110.12,0,2.8616e+06,-18.141,12123,11209,1,11209,1,-1.3628e-05,-9.6862e-10,0,4.3605e-07,-2.5817e-06,-5.5431e+06,-327.91,0,1.774e+05,-296.5,11208,11690,1,11690,1,-7.0308e-06,1.0833e-11,0,3.5508e-06,-1.3445e-06,-2.8597e+06,3.6752,0,1.4321e+06,-36.512,11689,12558,1,12558,1,7.173e-06,6.7613e-10,0,1.0653e-05,1.3186e-06,2.8616e+06,229.06,0,4.288e+06,0.064818,12557,502.62,0,502.62,0,8.1973e-06,4.0768e-10,0,4.0914e-06,1.537e-06,3.3001e+06,138.35,0,1.6457e+06,52.452,502.62,1
1736,0.06,12124,1,12124,1,8.5106e-08,2.3632e-09,0,8.5171e-06,-1.5517e-08,17.126,802.31,0,3.4296e+06,-14.062,12123,12992,1,12992,1,1.6535e-05,6.7523e-09,0,1.6535e-05,3.0688e-06,6.5831e+06,2285.9,0,6.6561e+06,200.76,12991,12124,1,12124,1,8.5018e-08,2.1876e-09,0,8.5192e-06,-1.5621e-08,32587,738.04,0,3.4326e+06,-20.975,12123,11209,1,11209,1,-1.6364e-05,-9.5425e-10,0,5.2279e-07,-3.0998e-06,-6.6561e+06,-326.84,0,2.127e+05,-294.52,11208,11690,1,11690,1,-8.4339e-06,6.292e-10,0,4.26e-06,-1.613e-06,-3.4304e+06,214.9,0,1.7181e+06,-81.449,11689,12558,1,12558,1,8.6044e-06,4.1243e-09,0,1.278e-05,1.5819e-06,3.4326e+06,1397.4,0,5.1438e+06,60.201,12557,502.62,0,502.62,0,9.8312e-06,1.9751e-09,0,4.9068e-06,1.8434e-06,3.9578e+06,670.54,0,1.9736e+06,92.786,502.62,1
1736,0.07,12124,1,12124,1,9.9295e-08,2.0698e-10,0,9.9455e-06,-1.8065e-08,-11.282,70.253,0,4.0048e+06,-0.51493,12123,12992,1,12992,1,1.9284e-05,2.3295e-09,0,1.9284e-05,3.579e-06,7.6778e+06,788.6,0,7.7628e+06,88.256,12991,12124,1,12124,1,9.9268e-08,6.9387e-11,0,9.946e-06,-1.8031e-08,38090,23.528,0,4.0075e+06,2.9716,12123,11209,1,11209,1,-1.9085e-05,-1.3825e-09,0,6.1101e-07,-3.6152e-06,-7.7628e+06,-468.03,0,2.4853e+05,-270.51,11208,11690,1,11690,1,-9.8467e-06,-3.3893e-10,0,4.9732e-06,-1.883e-06,-4.005e+06,-114.56,0,2.0057e+06,-29.185,11689,12558,1,12558,1,1.0045e-05,7.5856e-10,0,1.4919e-05,1.8468e-06,4.0075e+06,258.98,0,6.0051e+06,32.518,12557,502.62,0,502.62,0,1.148e-05,8.3306e-10,0,5.7298e-06,2.1525e-06,4.6216e+06,282.8,0,2.3047e+06,51.307,502.62,1
1736,0.08,12124,1,12124,1,1.1354e-07,2.343e-09,0,1.1367e-05,-2.0669e-08,5.9804,795.38,0,4.5774e+06,-5.6802,12123,12992,1,12992,1,2.2059e-05,5.5394e-09,0,2.2059e-05,4.094e-06,8.7826e+06,1877.6,0,8.8797e+06,239.57,12991,12124,1,12124,1,1.1324e-07,2.4271e-09,0,1.1368e-05,-2.0585e-08,43413,826.76,0,4.5804e+06,-20.035,12123,11209,1,11209,1,-2.1831e-05,-7.732e-10,0,6.9806e-07,-4.1354e-06,-8.8797e+06,-259.24,0,2.8397e+05,-264.26,11208,11690,1,11690,1,-1.1254e-05,7.7961e-10,0,5.684e-06,-2.1521e-06,-4.5775e+06,262.91,0,2.2924e+06,-55.945,11689,12558,1,12558,1,1.1481e-05,3.846e-09,0,1.7053e-05,2.1108e-06,4.5804e+06,1302.5,0,6.8639e+06,35.619,12557,502.62,0,502.62,0,1.3121e-05,1.7634e-09,0,6.549e-06,2.4602e-06,5.2824e+06,598.9,0,2.6342e+06,77.261,502.62,1
1736,0.09,12124,1,12124,1,1.2735e-07,-2.5096e-09,0,1.2773e-05,-2.313e-08,-82.552,-851.91,0,5.1435e+06,15.699,12123,12992,1,12992,1,2.4793e-05,1.6765e-09,0,2.4793e-05,4.6017e-06,9.8712e+06,567.58,0,9.9807e+06,303.47,12991,12124,1,12124,1,1.2729e-07,-2.0527e-09,0,1.2776e-05,-2.3052e-08,48840,-697.92,0,5.1477e+06,0.78239,12123,11209,1,11209,1,-2.4538e-05,-8.2455e-09,0,7.8443e-07,-4.6481e-06,-9.9807e+06,-2791.3,0,3.1906e+05,-381.26,11208,11690,1,11690,1,-1.2649e-05,-4.8766e-09,0,6.3886e-06,-2.4185e-06,-5.1447e+06,-1655.4,0,2.5766e+06,-52.732,11689,12558,1,12558,1,1.2903e-05,-5.152e-11,0,1.9165e-05,2.3722e-06,5.1477e+06,-17.344,0,7.7141e+06,91.615,12557,502.62,0,502.62,0,1.4744e-05,2.682e-09,0,7.3589e-06,2.7645e-06,5.9357e+06,910.71,0,2.96e+06,114.89,502.62,1
1736,0.1,12124,1,12124,1,1.4185e-07,-1.2992e-09,0,1.4205e-05,-2.5826e-08,-7.9178,-441.2,0,5.7201e+06,-8.6674,12123,12992,1,12992,1,2.7555e-05,1.6822e-09,0,2.7555e-05,5.1139e-06,1.0971e+07,569.55,0,1.1092e+07,160.35,12991,12124,1,12124,1,1.4174e-07,-9.8653e-10,0,1.4207e-05,-2.5763e-08,54372,-333.84,0,5.7244e+06,-13.52,12123,11209,1,11209,1,-2.727e-05,-4.7106e-09,0,8.7261e-07,-5.1657e-06,-1.1092e+07,-1594.6,0,3.5494e+05,-328.57,11208,11690,1,11690,1,-1.4065e-05,-2.6521e-09,0,7.1037e-06,-2.6895e-06,-5.7208e+06,-903.83,0,2.865e+06,-44.488,11689,12558,1,12558,1,1.4349e-05,1.0906e-11,0,2.1311e-05,2.6379e-06,5.7244e+06,3.6842,0,8.578e+06,32.955,12557,502.62,0,502.62,0,1.6397e-05,1.5395e-09,0,8.184e-06,3.0744e-06,6.6011e+06,522.95,0,3.2918e+06,71.426,502.62,1
1736,0.11,12124,1,12124,1,1.5596e-07,9.4256e-10,0,1.5637e-05,-2.8396e-08,-82.869,319.98,0,6.2968e+06,-9.9492,12123,12992,1,12992,1,3.0321e-05,1.9204e-09,0,3.0321e-05,5.6275e-06,1.2072e+07,650.11,0,1.2206e+07,69.235,12991,12124,1,12124,1,1.559e-07,1.0046e-09,0,1.5638e-05,-2.8277e-08,59778,340.66,0,6.3007e+06,-8.6993,12123,11209,1,11209,1,-3.0009e-05,-2.4143e-10,0,9.6082e-07,-5.6843e-06,-1.2206e+07,-80.948,0,3.9085e+05,-280.93,11208,11690,1,11690,1,-1.5482e-05,4.7909e-10,0,7.8189e-06,-2.9603e-06,-6.297e+06,161.01,0,3.1534e+06,-27.363,11689,12558,1,12558,1,1.5793e-05,1.4672e-09,0,2.3457e-05,2.9035e-06,6.3007e+06,498.32,0,9.4416e+06,10.63,12557,502.62,0,502.62,0,1.805e-05,5.8654e-10,0,9.0091e-06,3.3843e-06,7.2666e+06,199.22,0,3.6237e+06,38.182,502.62,1
1736,0.12,12124,1,12124,1,1.7033e-07,-6.4543e-10,0,1.7055e-05,-3.1012e-08,0.70862,-219.03,0,6.8678e+06,-9.9342,12123,12992,1,12992,1,3.3072e-05,5.4935e-10,0,3.3072e-05,6.1379e-06,1.3167e+07,188.15,0,1.3313e+07,123.07,12991,12124,1,12124,1,1.7031e-07,-5.8339e-10,0,1.7056e-05,-3.082e-08,65324,-197.05,0,6.8722e+06,-8.1522,12123,11209,1,11209,1,-3.2731e-05,-2.1964e-09,0,1.0476e-06,-6.2e-06,-1.3313e+07,-741.64,0,4.2618e+05,-313.7,11208,11690,1,11690,1,-1.6885e-05,-1.2792e-09,0,8.5281e-06,-3.2289e-06,-6.868e+06,-432.3,0,3.4394e+06,-36.725,11689,12558,1,12558,1,1.7226e-05,6.7329e-11,0,2.5584e-05,3.1667e-06,6.8722e+06,22.962,0,1.0298e+07,20.552,12557,502.62,0,502.62,0,1.9687e-05,7.7718e-10,0,9.8261e-06,3.6912e-06,7.9256e+06,263.76,0,3.9523e+06,53.584,502.62,1
1736,0.13,12124,1,12124,1,1.8449e-07,-6.9139e-10,0,1.8471e-05,-3.363e-08,4.3122,-234.7,0,7.438e+06,-27.835,12123,12992,1,12992,1,3.5821e-05,2.6055e-09,0,3.5821e-05,6.6481e-06,1.4262e+07,891.03,0,1.442e+07,108.91,12991,12124,1,12124,1,1.8448e-07,-4.3685e-10,0,1.8473e-05,-3.3486e-08,70784,-149.03,0,7.4433e+06,-29.732,12123,11209,1,11209,1,-3.5452e-05,-4.0072e-09,0,1.1346e-06,-6.7154e-06,-1.442e+07,-1356.5,0,4.6153e+05,-367.43,11208,11690,1,11690,1,-1.8289e-05,-1.9066e-09,0,9.2367e-06,-3.4972e-06,-7.4387e+06,-647.88,0,3.7252e+06,-65.019,11689,12558,1,12558,1,1.8658e-05,3.5269e-10,0,2.771e-05,3.43e-06,7.4433e+06,119.89,0,1.1154e+07,19.333,12557,502.62,0,502.62,0,2.1321e-05,1.485e-09,0,1.0642e-05,3.9976e-06,8.5836e+06,504.21,0,4.2804e+06,67.67,502.62,1
1736,0.14,12124,1,12124,1,1.9877e-07,4.6464e-10,0,1.9895e-05,-3.6165e-08,32.227,157.73,0,8.0113e+06,-1.523,12123,12992,1,12992,1,3.8573e-05,2.8371e-09,0,3.8573e-05,7.1588e-06,1.5358e+07,968.89,0,1.5528e+07,214.34,12991,12124,1,12124,1,1.9875e-07,3.3781e-10,0,1.9896e-05,-3.5833e-08,76259,115.7,0,8.0166e+06,2.2221,12123,11209,1,11209,1,-3.8176e-05,-1.7787e-09,0,1.2222e-06,-7.2313e-06,-1.5528e+07,-602.18,0,4.9715e+05,-294.64,11208,11690,1,11690,1,-1.9697e-05,-1.0096e-10,0,9.948e-06,-3.7665e-06,-8.0115e+06,-34.35,0,4.0121e+06,-31.004,11689,12558,1,12558,1,2.0095e-05,1.1754e-09,0,2.9844e-05,3.6941e-06,8.0166e+06,399.33,0,1.2012e+07,32.881,12557,502.62,0,502.62,0,2.2965e-05,1.0252e-09,0,1.1462e-05,4.3058e-06,9.2452e+06,348.02,0,4.6104e+06,46.064,502.62,1
1736,0.15,12124,1,12124,1,2.1296e-07,4.9174e-10,0,2.1327e-05,-3.8693e-08,-6.6692,166.93,0,8.5878e+06,20.635,12123,12992,1,12992,1,4.1346e-05,1.2601e-09,0,4.1346e-05,7.6735e-06,1.6462e+07,426.58,0,1.6644e+07,409.26,12991,12124,1,12124,1,2.1288e-07,4.6779e-10,0,2.1326e-05,-3.8665e-08,81680,158.88,0,8.593e+06,7.3114,12123,11209,1,11209,1,-4.092e-05,-1.7629e-10,0,1.3103e-06,-7.7512e-06,-1.6644e+07,-60.383,0,5.3298e+05,-458.21,11208,11690,1,11690,1,-2.1113e-05,2.2585e-10,0,1.0663e-05,-4.0371e-06,-8.5877e+06,75.91,0,4.3005e+06,-10.797,11689,12558,1,12558,1,2.1539e-05,7.5882e-10,0,3.199e-05,3.9597e-06,8.593e+06,256.62,0,1.2876e+07,29.986,12557,502.62,0,502.62,0,2.4618e-05,3.4099e-10,0,1.2287e-05,4.6156e-06,9.9105e+06,115.79,0,4.9422e+06,74.496,502.62,1
1736,0.16,12124,1,12124,1,2.2717e-07,1.8278e-09,0,2.2745e-05,-4.1333e-08,4.9319,620.46,0,9.159e+06,-2.6826,12123,12992,1,12992,1,4.411e-05,4.1255e-09,0,4.411e-05,8.1865e-06,1.7562e+07,1397.9,0,1.7757e+07,520.29,12991,12124,1,12124,1,2.2707e-07,1.863e-09,0,2.2746e-05,-4.122e-08,87121,636.08,0,9.1648e+06,-10.101,12123,11209,1,11209,1,-4.3656e-05,-5.4673e-10,0,1.3971e-06,-8.2694e-06,-1.7757e+07,-186.35,0,5.683e+05,-537.82,11208,11690,1,11690,1,-2.2518e-05,8.2139e-10,0,1.1373e-05,-4.3051e-06,-9.1591e+06,276.51,0,4.5868e+06,-48.243,11689,12558,1,12558,1,2.2973e-05,2.8645e-09,0,3.4119e-05,4.223e-06,9.1648e+06,972.12,0,1.3733e+07,40.813,12557,502.62,0,502.62,0,2.6255e-05,1.2787e-09,0,1.3104e-05,4.9226e-06,1.057e+07,434.16,0,5.2709e+06,79.537,502.62,1
1736,0.17,12124,1,12124,1,2.4111e-07,5.1533e-10,0,2.4156e-05,-4.3894e-08,-53.895,174.89,0,9.727e+06,-12.674,12123,12992,1,12992,1,4.6835e-05,4.3945e-09,0,4.6835e-05,8.6923e-06,1.8647e+07,1484.1,0,1.8854e+07,181.67,12991,12124,1,12124,1,2.411e-07,3.3858e-10,0,2.4157e-05,-4.3445e-08,92512,114.75,0,9.7333e+06,5.4614,12123,11209,1,11209,1,-4.6353e-05,-3.0989e-09,0,1.4841e-06,-8.7805e-06,-1.8854e+07,-1049,0,6.037e+05,-321.47,11208,11690,1,11690,1,-2.3916e-05,-6.6855e-10,0,1.2079e-05,-4.573e-06,-9.7274e+06,-226.51,0,4.8713e+06,-69.006,11689,12558,1,12558,1,2.4398e-05,1.8283e-09,0,3.6235e-05,4.4853e-06,9.7333e+06,620.26,0,1.4585e+07,57.63,12557,502.62,0,502.62,0,2.7883e-05,1.8461e-09,0,1.3917e-05,5.2279e-06,1.1225e+07,626.96,0,5.5977e+06,90.832,502.62,1
1736,0.18,12124,1,12124,1,2.556e-07,-1.3177e-09,0,2.5584e-05,-4.6387e-08,48.571,-447.34,0,1.0302e+07,47.299,12123,12992,1,12992,1,4.9614e-05,1.1947e-09,0,4.9614e-05,9.208e-06,1.9754e+07,409.2,0,1.9972e+07,390.72,12991,12124,1,12124,1,2.555e-07,-9.7252e-10,0,2.5586e-05,-4.5977e-08,98043,-328.1,0,1.0309e+07,31.19,12123,11209,1,11209,1,-4.9103e-05,-4.8172e-09,0,1.5715e-06,-9.3011e-06,-1.9972e+07,-1630.7,0,6.3923e+05,-313.79,11208,11690,1,11690,1,-2.533e-05,-2.6182e-09,0,1.2793e-05,-4.8432e-06,-1.0303e+07,-887.19,0,5.1595e+06,-14.449,11689,12558,1,12558,1,2.5841e-05,4.7991e-11,0,3.838e-05,4.7505e-06,1.0309e+07,16.263,0,1.5448e+07,107.34,12557,502.62,0,502.62,0,2.9532e-05,1.5154e-09,0,1.474e-05,5.5369e-06,1.1889e+07,514.59,0,5.9287e+06,87.444,502.62,1
1736,0.19,12124,1,12124,1,2.6943e-07,-2.7258e-09,0,2.6999e-05,-4.8918e-08,-74.834,-925.49,0,1.0872e+07,40.049,12123,12992,1,12992,1,5.2369e-05,1.4676e-09,0,5.2369e-05,9.7194e-06,2.085e+07,502.69,0,2.1081e+07,883.8,12991,12124,1,12124,1,2.6968e-07,-2.689e-09,0,2.7e-05,-4.8135e-08,1.035e+05,-914.89,0,1.0879e+07,33.402,12123,11209,1,11209,1,-5.183e-05,-6.9868e-09,0,1.6578e-06,-9.8175e-06,-2.1081e+07,-2365.2,0,6.7425e+05,-563.37,11208,11690,1,11690,1,-2.673e-05,-4.5417e-09,0,1.3501e-05,-5.1109e-06,-1.0872e+07,-1545.1,0,5.4449e+06,-56.596,11689,12558,1,12558,1,2.7269e-05,-1.0067e-09,0,4.0501e-05,5.0129e-06,1.0879e+07,-341.74,0,1.6302e+07,121.8,12557,502.62,0,502.62,0,3.1165e-05,2.171e-09,0,1.5555e-05,5.8431e-06,1.2546e+07,737.26,0,6.2566e+06,182.89,502.62,1
1736,0.2,12124,1,12124,1,2.8373e-07,-2.3486e-09,0,2.8427e-05,-5.1365e-08,-45.817,-797.45,0,1.1447e+07,105.11,12123,12992,1,12992,1,5.5132e-05,1.1047e-09,0,5.5132e-05,1.0232e-05,2.1951e+07,378.39,0,2.2194e+07,684.63,12991,12124,1,12124,1,2.8379e-07,-2.1883e-09,0,2.8428e-05,-5.0809e-08,1.089e+05,-742.99,0,1.1454e+07,83.234,12123,11209,1,11209,1,-5.4565e-05,-6.2995e-09,0,1.7461e-06,-1.0335e-05,-2.2194e+07,-2132.5,0,7.1021e+05,-261.43,11208,11690,1,11690,1,-2.8144e-05,-4.0381e-09,0,1.4215e-05,-5.3811e-06,-1.1447e+07,-1373.8,0,5.7328e+06,-2.7097,11689,12558,1,12558,1,2.8712e-05,-5.6458e-10,0,4.2643e-05,5.2782e-06,1.1454e+07,-190.56,0,1.7165e+07,203.1,12557,502.62,0,502.62,0,3.2813e-05,2.0178e-09,0,1.6377e-05,6.1521e-06,1.321e+07,685.32,0,6.5875e+06,154.77,502.62,1
1736,0.21,12124,1,12124,1,2.9802e-07,2.2958e-10,0,2.9859e-05,-5.3752e-08,-34.516,78,0,1.2023e+07,193.78,12123,12992,1,12992,1,5.7884e-05,1.0011e-09,0,5.7884e-05,1.0743e-05,2.3046e+07,341.8,0,2.3301e+07,1044.5,12991,12124,1,12124,1,2.9798e-07,2.2219e-10,0,2.9858e-05,-5.3783e-08,1.1429e+05,75.637,0,1.2031e+07,167.51,12123,11209,1,11209,1,-5.7288e-05,-4.4082e-10,0,1.8345e-06,-1.0853e-05,-2.3301e+07,-147.8,0,7.4621e+05,-604.57,11208,11690,1,11690,1,-2.956e-05,6.1618e-11,0,1.4929e-05,-5.6515e-06,-1.2023e+07,20.847,0,6.0211e+06,42.526,11689,12558,1,12558,1,3.0157e-05,3.8151e-10,0,4.4788e-05,5.5441e-06,1.2031e+07,130.02,0,1.8028e+07,283.49,12557,502.62,0,502.62,0,3.4466e-05,2.2373e-10,0,1.7202e-05,6.4619e-06,1.3875e+07,76.059,0,6.9193e+06,233.22,502.62,1
1736,0.22,12124,1,12124,1,3.1237e-07,8.3321e-10,0,3.1279e-05,-5.6872e-08,-6.8775,282.9,0,1.2595e+07,-18.94,12123,12992,1,12992,1,6.0641e-05,1.9074e-09,0,6.0641e-05,1.1254e-05,2.4144e+07,651.36,0,2.4411e+07,766.38,12991,12124,1,12124,1,3.1234e-07,9.0741e-10,0,3.1278e-05,-5.6503e-08,1.1978e+05,307.66,0,1.2603e+07,-26.603,12123,11209,1,11209,1,-6.0016e-05,-3.6662e-10,0,1.9216e-06,-1.1368e-05,-2.4411e+07,-122.92,0,7.817e+05,-511,11208,11690,1,11690,1,-3.0966e-05,4.6751e-10,0,1.5639e-05,-5.9209e-06,-1.2595e+07,157.73,0,6.3075e+06,-102.87,11689,12558,1,12558,1,3.1591e-05,1.1814e-09,0,4.6918e-05,5.8075e-06,1.2603e+07,401.93,0,1.8885e+07,40.299,12557,502.62,0,502.62,0,3.6105e-05,4.8471e-10,0,1.8021e-05,6.7694e-06,1.4535e+07,164.82,0,7.2484e+06,153.07,502.62,1
1736,0.23,12124,1,12124,1,3.2643e-07,8.5957e-10,0,3.2699e-05,-5.927e-08,-43.262,291.84,0,1.3167e+07,47.79,12123,12992,1,12992,1,6.3395e-05,2.0908e-09,0,6.3395e-05,1.1766e-05,2.524e+07,713.97,0,2.552e+07,797.02,12991,12124,1,12124,1,3.2635e-07,7.8863e-10,0,3.2699e-05,-5.8488e-08,1.2522e+05,268.32,0,1.3175e+07,21.256,12123,11209,1,11209,1,-6.2742e-05,-1.284e-10,0,2.009e-06,-1.1884e-05,-2.552e+07,-43.05,0,8.1721e+05,-394.81,11208,11690,1,11690,1,-3.2373e-05,4.4325e-10,0,1.635e-05,-6.1898e-06,-1.3167e+07,150.29,0,6.5939e+06,-24.964,11689,12558,1,12558,1,3.3026e-05,1.3008e-09,0,4.905e-05,6.0713e-06,1.3175e+07,442.81,0,1.9743e+07,74.335,12557,502.62,0,502.62,0,3.7744e-05,5.2856e-10,0,1.8839e-05,7.0767e-06,1.5195e+07,179.61,0,7.5775e+06,146.86,502.62,1
1736,0.24,12124,1,12124,1,3.4021e-07,-2.0097e-09,0,3.4113e-05,-6.1576e-08,-164.24,-682.1,0,1.3737e+07,131.73,12123,12992,1,12992,1,6.6153e-05,1.2872e-09,0,6.6153e-05,1.2277e-05,2.6338e+07,431.59,0,2.663e+07,1313.4,12991,12124,1,12124,1,3.4008e-07,-1.7467e-09,0,3.4114e-05,-6.1057e-08,1.3052e+05,-590.99,0,1.3745e+07,98.083,12123,11209,1,11209,1,-6.5472e-05,-5.8121e-09,0,2.096e-06,-1.2403e-05,-2.663e+07,-1967.5,0,8.5252e+05,-632.93,11208,11690,1,11690,1,-3.3774e-05,-3.4497e-09,0,1.7058e-05,-6.4567e-06,-1.3737e+07,-1166.5,0,6.8796e+06,8.7646,11689,12558,1,12558,1,3.4455e-05,-5.7351e-10,0,5.1173e-05,6.3345e-06,1.3745e+07,-192.57,0,2.0598e+07,200.16,12557,502.62,0,502.62,0,3.9377e-05,1.7391e-09,0,1.9654e-05,7.3828e-06,1.5852e+07,590.16,0,7.9052e+06,235.52,502.62,1
1736,0.25,12124,1,12124,1,3.5482e-07,1.471e-09,0,3.5544e-05,-6.4316e-08,-41.717,499.45,0,1.4313e+07,97.335,12123,12992,1,12992,1,6.8917e-05,3.3791e-09,0,6.8917e-05,1.2791e-05,2.7439e+07,1153.8,0,2.7743e+07,852.21,12991,12124,1,12124,1,3.548e-07,1.5339e-09,0,3.5544e-05,-6.3893e-08,1.3611e+05,521.46,0,1.4321e+07,60.992,12123,11209,1,11209,1,-6.8207e-05,-6.217e-10,0,2.1836e-06,-1.292e-05,-2.7743e+07,-208.44,0,8.8822e+05,-673.41,11208,11690,1,11690,1,-3.5189e-05,6.59e-10,0,1.7772e-05,-6.7281e-06,-1.4313e+07,222.6,0,7.1676e+06,-44.542,11689,12558,1,12558,1,3.5898e-05,2.2768e-09,0,5.3317e-05,6.5994e-06,1.4321e+07,770.55,0,2.1461e+07,190.98,12557,502.62,0,502.62,0,4.1028e-05,1.037e-09,0,2.0478e-05,7.6922e-06,1.6517e+07,352.27,0,8.2367e+06,224.98,502.62,1
1736,0.26,12124,1,12124,1,3.6909e-07,2.8808e-09,0,3.6954e-05,-6.6977e-08,28.843,977.68,0,1.488e+07,70.899,12123,12992,1,12992,1,7.1665e-05,6.905e-09,0,7.1665e-05,1.3301e-05,2.8533e+07,2356.9,0,2.8849e+07,866.59,12991,12124,1,12124,1,3.6888e-07,2.9307e-09,0,3.6955e-05,-6.688e-08,1.4154e+05,990.29,0,1.489e+07,54.928,12123,11209,1,11209,1,-7.0926e-05,-1.0015e-09,0,2.2699e-06,-1.3435e-05,-2.8849e+07,-335.78,0,9.2332e+05,-840.56,11208,11690,1,11690,1,-3.6586e-05,8.3923e-10,0,1.8478e-05,-6.9952e-06,-1.4881e+07,284.73,0,7.4522e+06,-38.441,11689,12558,1,12558,1,3.7324e-05,4.829e-09,0,5.5433e-05,6.8616e-06,1.489e+07,1635.5,0,2.2313e+07,153.96,12557,502.62,0,502.62,0,4.2655e-05,2.2792e-09,0,2.129e-05,7.9976e-06,1.7172e+07,773.44,0,8.5634e+06,183.5,502.62,1
1736,0.27,12124,1,12124,1,3.8329e-07,-4.4515e-10,0,3.8387e-05,-6.9705e-08,-26.458,-151.02,0,1.5457e+07,10.219,12123,12992,1,12992,1,7.4424e-05,1.6525e-09,0,7.4424e-05,1.3812e-05,2.9631e+07,557.96,0,2.9959e+07,429.44,12991,12124,1,12124,1,3.8322e-07,-3.068e-10,0,3.8387e-05,-6.9015e-08,1.4702e+05,-103.97,0,1.5467e+07,13.196,12123,11209,1,11209,1,-7.3656e-05,-2.8588e-09,0,2.3584e-06,-1.3953e-05,-2.9959e+07,-967.77,0,9.5933e+05,-546.15,11208,11690,1,11690,1,-3.8004e-05,-1.1295e-09,0,1.9194e-05,-7.267e-06,-1.5458e+07,-383.83,0,7.741e+06,-70.801,11689,12558,1,12558,1,3.8771e-05,1.9063e-10,0,5.7582e-05,7.1274e-06,1.5467e+07,65.015,0,2.3177e+07,98.96,12557,502.62,0,502.62,0,4.431e-05,8.5647e-10,0,2.2116e-05,8.3077e-06,1.7838e+07,290.48,0,8.8955e+06,120.03,502.62,1
1736,0.28,12124,1,12124,1,3.9778e-07,-9.2635e-10,0,3.9803e-05,-7.2431e-08,102.24,-314.39,0,1.6028e+07,-26.677,12123,12992,1,12992,1,7.7176e-05,9.3068e-10,0,7.7176e-05,1.4323e-05,3.0727e+07,312.21,0,3.1066e+07,577.27,12991,12124,1,12124,1,3.9762e-07,-8.2971e-10,0,3.9804e-05,-7.2164e-08,1.5253e+05,-282.59,0,1.6038e+07,-30.892,12123,11209,1,11209,1,-7.6379e-05,-3.1809e-09,0,2.445e-06,-1.4469e-05,-3.1066e+07,-1076.8,0,9.9455e+05,-705.31,11208,11690,1,11690,1,-3.9406e-05,-1.8431e-09,0,1.9902e-05,-7.5346e-06,-1.6028e+07,-624.33,0,8.0266e+06,-95.625,11689,12558,1,12558,1,4.0202e-05,1.1888e-10,0,5.9707e-05,7.3904e-06,1.6038e+07,39.884,0,2.4033e+07,48.651,12557,502.62,0,502.62,0,4.5945e-05,1.1233e-09,0,2.2932e-05,8.6144e-06,1.8497e+07,381.26,0,9.2238e+06,124.86,502.62,1
1736,0.29,12124,1,12124,1,4.116e-07,-2.0532e-09,0,4.1231e-05,-7.478e-08,-64.209,-697.03,0,1.6603e+07,40.713,12123,12992,1,12992,1,7.995e-05,9.0178e-10,0,7.995e-05,1.4838e-05,3.1832e+07,307.3,0,3.2184e+07,997.59,12991,12124,1,12124,1,4.1148e-07,-2.1093e-09,0,4.1231e-05,-7.3965e-08,1.5788e+05,-713.56,0,1.6613e+07,25.686,12123,11209,1,11209,1,-7.9126e-05,-4.9858e-09,0,2.5326e-06,-1.4988e-05,-3.2184e+07,-1683.5,0,1.0302e+06,-472.28,11208,11690,1,11690,1,-4.0819e-05,-3.3386e-09,0,2.0616e-05,-7.8055e-06,-1.6603e+07,-1130.7,0,8.3144e+06,-56.746,11689,12558,1,12558,1,4.1643e-05,-9.2189e-10,0,6.1847e-05,7.655e-06,1.6613e+07,-312.93,0,2.4894e+07,125.73,12557,502.62,0,502.62,0,4.7593e-05,1.5159e-09,0,2.3755e-05,8.9233e-06,1.916e+07,514.66,0,9.5547e+06,166.01,502.62,1
1736,0.3,12124,1,12124,1,4.2573e-07,-1.3267e-09,0,4.2639e-05,-7.7237e-08,-26.473,-450.34,0,1.717e+07,88.764,12123,12992,1,12992,1,8.2676e-05,1.0055e-09,0,8.2676e-05,1.5344e-05,3.2917e+07,344.41,0,3.3281e+07,951.52,12991,12124,1,12124,1,4.255e-07,-1.1406e-09,0,4.2641e-05,-7.6306e-08,1.6326e+05,-389.72,0,1.7181e+07,74.571,12123,11209,1,11209,1,-8.1824e-05,-5.0927e-09,0,2.6197e-06,-1.55e-05,-3.3281e+07,-1724,0,1.0656e+06,-600,11208,11690,1,11690,1,-4.2215e-05,-2.5845e-09,0,2.132e-05,-8.0714e-06,-1.717e+07,-871.74,0,8.5986e+06,-1.6246,11689,12558,1,12558,1,4.3066e-05,9.0088e-12,0,6.3961e-05,7.9172e-06,1.7181e+07,3.0863,0,2.5746e+07,149.45,12557,502.62,0,502.62,0,4.9218e-05,1.4513e-09,0,2.4566e-05,9.228e-06,1.9814e+07,492.49,0,9.881e+06,145.23,502.62,1
1736,0.31,12124,1,12124,1,4.4003e-07,2.3986e-09,0,4.4066e-05,-7.9991e-08,-13.617,814.46,0,1.7744e+07,25.385,12123,12992,1,12992,1,8.5447e-05,5.766e-09,0,8.5447e-05,1.5859e-05,3.402e+07,1952,0,3.4396e+07,872.96,12991,12124,1,12124,1,4.3998e-07,2.2842e-09,0,4.4067e-05,-8.0266e-08,1.6877e+05,776.68,0,1.7756e+07,32.84,12123,11209,1,11209,1,-8.4566e-05,-8.8792e-10,0,2.707e-06,-1.602e-05,-3.4396e+07,-297.71,0,1.1012e+06,-1258.5,11208,11690,1,11690,1,-4.3627e-05,7.8756e-10,0,2.2034e-05,-8.3412e-06,-1.7745e+07,265.25,0,8.8864e+06,-56.762,11689,12558,1,12558,1,4.4507e-05,4.1343e-09,0,6.6102e-05,8.1825e-06,1.7756e+07,1403.8,0,2.6607e+07,134.37,12557,502.62,0,502.62,0,5.0865e-05,1.8356e-09,0,2.5387e-05,9.5367e-06,2.0477e+07,623.68,0,1.0211e+07,201.64,502.62,1
1736,0.32,12124,1,12124,1,4.5429e-07,1.3972e-09,0,4.549e-05,-8.2513e-08,6.0558,474.35,0,1.8318e+07,55.529,12123,12992,1,12992,1,8.8197e-05,3.9765e-09,0,8.8197e-05,1.6368e-05,3.5115e+07,1358.2,0,3.5504e+07,880.14,12991,12124,1,12124,1,4.5432e-07,1.2947e-09,0,4.549e-05,-8.1617e-08,1.7431e+05,438.76,0,1.8329e+07,36.652,12123,11209,1,11209,1,-8.7288e-05,-4.3964e-10,0,2.7946e-06,-1.6534e-05,-3.5504e+07,-147.4,0,1.1368e+06,-445.73,11208,11690,1,11690,1,-4.5036e-05,5.3183e-10,0,2.2746e-05,-8.6112e-06,-1.8318e+07,179.1,0,9.1734e+06,-16.958,11689,12558,1,12558,1,4.5945e-05,2.2744e-09,0,6.8237e-05,8.4464e-06,1.8329e+07,771.28,0,2.7466e+07,105.85,12557,502.62,0,502.62,0,5.2508e-05,1.0321e-09,0,2.6208e-05,9.8449e-06,2.1139e+07,350.59,0,1.0541e+07,132.81,502.62,1
1736,0.33,12124,1,12124,1,4.6845e-07,-8.7523e-10,0,4.6912e-05,-8.5073e-08,-9.3369,-297.05,0,1.889e+07,62.481,12123,12992,1,12992,1,9.0952e-05,5.4093e-10,0,9.0952e-05,1.688e-05,3.6212e+07,185.27,0,3.6612e+07,511.33,12991,12124,1,12124,1,4.6839e-07,-7.0956e-10,0,4.6913e-05,-8.427e-08,1.797e+05,-240.39,0,1.8902e+07,31.764,12123,11209,1,11209,1,-9.0014e-05,-2.7453e-09,0,2.8822e-06,-1.7051e-05,-3.6612e+07,-926.96,0,1.1724e+06,-286.89,11208,11690,1,11690,1,-4.6444e-05,-1.5592e-09,0,2.3456e-05,-8.8805e-06,-1.8891e+07,-529.13,0,9.4601e+06,-7.6144,11689,12558,1,12558,1,4.7381e-05,-1.7739e-10,0,7.0369e-05,8.7103e-06,1.8902e+07,-60.22,0,2.8325e+07,95.09,12557,502.62,0,502.62,0,5.415e-05,8.2216e-10,0,2.7027e-05,1.0153e-05,2.18e+07,278.88,0,1.0871e+07,116.12,502.62,1
1736,0.34,12124,1,12124,1,4.8236e-07,1.6613e-10,0,4.8327e-05,-8.7666e-08,-108.46,56.573,0,1.946e+07,35.289,12123,12992,1,12992,1,9.3693e-05,4.4469e-09,0,9.3693e-05,1.7388e-05,3.7303e+07,1505.3,0,3.7716e+07,681.52,12991,12124,1,12124,1,4.8223e-07,1.6457e-10,0,4.8328e-05,-8.6945e-08,1.8498e+05,55.771,0,1.9473e+07,22.199,12123,11209,1,11209,1,-9.2727e-05,-2.4682e-09,0,2.9695e-06,-1.7565e-05,-3.7716e+07,-833.39,0,1.2079e+06,-768.18,11208,11690,1,11690,1,-4.7846e-05,-8.0793e-10,0,2.4164e-05,-9.1484e-06,-1.9461e+07,-274.55,0,9.7456e+06,-42.172,11689,12558,1,12558,1,4.8811e-05,8.7177e-10,0,7.2492e-05,8.9732e-06,1.9473e+07,294.83,0,2.9179e+07,111.91,12557,502.62,0,502.62,0,5.5784e-05,1.3592e-09,0,2.7842e-05,1.0459e-05,2.2457e+07,461.39,0,1.1199e+07,173.13,502.62,1
1736,0.35,12124,1,12124,1,4.9689e-07,2.2412e-10,0,4.9762e-05,-9.0341e-08,-30.299,76.13,0,2.0038e+07,22.868,12123,12992,1,12992,1,9.6468e-05,6.6724e-10,0,9.6468e-05,1.7904e-05,3.8408e+07,227.86,0,3.8833e+07,317.93,12991,12124,1,12124,1,4.9684e-07,2.1718e-10,0,4.9762e-05,-8.9269e-08,1.9063e+05,73.37,0,2.005e+07,21.876,12123,11209,1,11209,1,-9.5474e-05,-1.4992e-10,0,3.0575e-06,-1.8085e-05,-3.8833e+07,-51.171,0,1.2437e+06,-275.6,11208,11690,1,11690,1,-4.9265e-05,1.1944e-10,0,2.4881e-05,-9.4201e-06,-2.0038e+07,40.388,0,1.0035e+07,-35.631,11689,12558,1,12558,1,5.0259e-05,3.2651e-10,0,7.4643e-05,9.2393e-06,2.005e+07,111.09,0,3.0045e+07,71.46,12557,502.62,0,502.62,0,5.744e-05,1.3498e-10,0,2.8669e-05,1.077e-05,2.3124e+07,45.993,0,1.1532e+07,82.965,502.62,1
1736,0.36,12124,1,12124,1,5.1099e-07,-5.6116e-10,0,5.1186e-05,-9.2865e-08,-72.502,-190.46,0,2.0611e+07,39.944,12123,12992,1,12992,1,9.9234e-05,8.8689e-10,0,9.9234e-05,1.8417e-05,3.9509e+07,299.46,0,3.9947e+07,736.18,12991,12124,1,12124,1,5.109e-07,-4.3423e-10,0,5.1186e-05,-9.1736e-08,1.9603e+05,-146.59,0,2.0624e+07,25.322,12123,11209,1,11209,1,-9.8212e-05,-1.9858e-09,0,3.145e-06,-1.8604e-05,-3.9947e+07,-672.24,0,1.2793e+06,-266.62,11208,11690,1,11690,1,-5.0675e-05,-1.1597e-09,0,2.5593e-05,-9.6895e-06,-2.0612e+07,-394.2,0,1.0322e+07,-13.913,11689,12558,1,12558,1,5.1697e-05,3.8332e-11,0,7.678e-05,9.5037e-06,2.0624e+07,13.078,0,3.0905e+07,68.228,12557,502.62,0,502.62,0,5.9084e-05,7.3282e-10,0,2.949e-05,1.1078e-05,2.3786e+07,248.81,0,1.1861e+07,97.956,502.62,1
1736,0.37,12124,1,12124,1,5.2487e-07,1.0045e-09,0,5.2606e-05,-9.5298e-08,-189.88,341.15,0,2.1183e+07,77.185,12123,12992,1,12992,1,0.00010199,3.0194e-09,0,0.00010199,1.8928e-05,4.0605e+07,1022.7,0,4.1055e+07,1279.4,12991,12124,1,12124,1,5.2469e-07,9.6876e-10,0,5.2606e-05,-9.5564e-08,2.0125e+05,328.13,0,2.1196e+07,48.071,12123,11209,1,11209,1,-0.00010094,-5.4126e-10,0,3.2325e-06,-1.912e-05,-4.1055e+07,-181.48,0,1.3148e+06,-1422.5,11208,11690,1,11690,1,-5.2081e-05,6.0173e-10,0,2.6303e-05,-9.957e-06,-2.1184e+07,203.62,0,1.0608e+07,-57.701,11689,12558,1,12558,1,5.3131e-05,1.4397e-09,0,7.891e-05,9.7673e-06,2.1196e+07,489.12,0,3.1762e+07,191.68,12557,502.62,0,502.62,0,6.0723e-05,5.6808e-10,0,3.0308e-05,1.1385e-05,2.4446e+07,193.42,0,1.2191e+07,268.84,502.62,1
1736,0.38,12124,1,12124,1,5.3941e-07,4.4218e-10,0,5.4025e-05,-9.788e-08,-33.845,150.18,0,2.1755e+07,105.08,12123,12992,1,12992,1,0.00010473,2.3779e-09,0,0.00010473,1.9438e-05,4.1699e+07,805.07,0,4.216e+07,789.53,12991,12124,1,12124,1,5.3941e-07,2.4211e-10,0,5.4025e-05,-9.7137e-08,2.0692e+05,82.202,0,2.1768e+07,91.248,12123,11209,1,11209,1,-0.00010365,-2.4822e-10,0,3.3193e-06,-1.9634e-05,-4.216e+07,-83.228,0,1.3502e+06,-510.87,11208,11690,1,11690,1,-5.3486e-05,1.0729e-10,0,2.7013e-05,-1.0227e-05,-2.1755e+07,36.521,0,1.0894e+07,-14.792,11689,12558,1,12558,1,5.4565e-05,7.1272e-10,0,8.1038e-05,1.0031e-05,2.1768e+07,243.58,0,3.2619e+07,202.18,12557,502.62,0,502.62,0,6.236e-05,4.7531e-10,0,3.1125e-05,1.1692e-05,2.5105e+07,161.58,0,1.2519e+07,184.45,502.62,1
1736,0.39,12124,1,12124,1,5.5361e-07,1.5648e-09,0,5.5428e-05,-1.0065e-07,26.135,531.3,0,2.2319e+07,27.316,12123,12992,1,12992,1,0.00010746,6.2921e-09,0,0.00010746,1.9944e-05,4.2785e+07,2130.2,0,4.3259e+07,799.66,12991,12124,1,12124,1,5.5352e-07,1.1153e-09,0,5.543e-05,-9.9058e-08,2.124e+05,378.69,0,2.2334e+07,24.873,12123,11209,1,11209,1,-0.00010636,-1.0004e-09,0,3.4053e-06,-2.0145e-05,-4.3259e+07,-338.77,0,1.3852e+06,-847.22,11208,11690,1,11690,1,-5.4876e-05,2.969e-10,0,2.7715e-05,-1.0494e-05,-2.232e+07,100.64,0,1.1178e+07,-38.398,11689,12558,1,12558,1,5.5983e-05,2.5498e-09,0,8.3145e-05,1.0291e-05,2.2334e+07,872.36,0,3.3467e+07,101.47,12557,502.62,0,502.62,0,6.398e-05,1.5543e-09,0,3.1933e-05,1.1996e-05,2.5757e+07,527.8,0,1.2844e+07,174.06,502.62,1
1736,0.4,12124,1,12124,1,5.6781e-07,-1.9049e-09,0,5.6853e-05,-1.0339e-07,-0.35403,-646.61,0,2.2893e+07,-39.835,12123,12992,1,12992,1,0.00011024,5.1589e-09,0,0.00011024,2.046e-05,4.3892e+07,1746.4,0,4.4377e+07,751.31,12991,12124,1,12124,1,5.6771e-07,-1.4864e-09,0,5.6856e-05,-1.021e-07,2.1783e+05,-500.31,0,2.2909e+07,12.18,12123,11209,1,11209,1,-0.0001091,-8.2033e-09,0,3.4927e-06,-2.0667e-05,-4.4377e+07,-2777,0,1.4207e+06,-1157.5,11208,11690,1,11690,1,-5.6288e-05,-4.5946e-09,0,2.8428e-05,-1.0763e-05,-2.2895e+07,-1558.1,0,1.1465e+07,-149.79,11689,12558,1,12558,1,5.7423e-05,5.973e-10,0,8.5285e-05,1.0556e-05,2.2909e+07,202.9,0,3.4328e+07,145.48,12557,502.62,0,502.62,0,6.5625e-05,3.1973e-09,0,3.2754e-05,1.2304e-05,2.6419e+07,1085.4,0,1.3175e+07,316.61,502.62,1
1736,0.41,12124,1,12124,1,5.8177e-07,-8.7326e-10,0,5.8292e-05,-1.0578e-07,-156.58,-296.46,0,2.3473e+07,22.501,12123,12992,1,12992,1,0.00011301,4.962e-10,0,0.00011301,2.0974e-05,4.4995e+07,169.96,0,4.5493e+07,483.68,12991,12124,1,12124,1,5.8158e-07,-8.4258e-10,0,5.8292e-05,-1.0497e-07,2.2312e+05,-287.21,0,2.3487e+07,19.883,12123,11209,1,11209,1,-0.00011185,-2.4244e-09,0,3.5817e-06,-2.1187e-05,-4.5493e+07,-827.94,0,1.4569e+06,-658.11,11208,11690,1,11690,1,-5.7711e-05,-1.5138e-09,0,2.9146e-05,-1.1035e-05,-2.3473e+07,-514.58,0,1.1755e+07,-36.104,11689,12558,1,12558,1,5.8874e-05,-2.1569e-10,0,8.7439e-05,1.0823e-05,2.3487e+07,-73.734,0,3.5196e+07,92.874,12557,502.62,0,502.62,0,6.7287e-05,7.6586e-10,0,3.3584e-05,1.2616e-05,2.7088e+07,260.02,0,1.3508e+07,134.66,502.62,1
1736,0.42,12124,1,12124,1,5.9656e-07,1.3685e-09,0,5.9714e-05,-1.0873e-07,58.791,464.65,0,2.4046e+07,-84.339,12123,12992,1,12992,1,0.00011577,3.4666e-09,0,0.00011577,2.1486e-05,4.6093e+07,1173.6,0,4.6604e+07,1697.6,12991,12124,1,12124,1,5.9634e-07,1.3786e-09,0,5.9715e-05,-1.0864e-07,2.2872e+05,464.6,0,2.4061e+07,-50.937,12123,11209,1,11209,1,-0.00011458,-8.001e-10,0,3.6685e-06,-2.1704e-05,-4.6604e+07,-268.27,0,1.4923e+06,-1435,11208,11690,1,11690,1,-5.9118e-05,4.9734e-10,0,2.9857e-05,-1.1305e-05,-2.4046e+07,168.74,0,1.2042e+07,-208.11,11689,12558,1,12558,1,6.0311e-05,2.257e-09,0,8.9573e-05,1.1088e-05,2.4061e+07,767.55,0,3.6054e+07,73.955,12557,502.62,0,502.62,0,6.8928e-05,9.8842e-10,0,3.4403e-05,1.2923e-05,2.7749e+07,335.63,0,1.3838e+07,332.31,502.62,1
1736,0.43,12124,1,12124,1,6.104e-07,-1.5283e-09,0,6.1114e-05,-1.1106e-07,17.359,-518.82,0,2.4609e+07,-5.4201,12123,12992,1,12992,1,0.00011849,3.5169e-09,0,0.00011849,2.1991e-05,4.7177e+07,1190.6,0,4.7699e+07,279.36,12991,12124,1,12124,1,6.1027e-07,-1.2649e-09,0,6.1116e-05,-1.0958e-07,2.3415e+05,-430.99,0,2.4625e+07,-18.494,12123,11209,1,11209,1,-0.00011727,-6.1031e-09,0,3.7546e-06,-2.2215e-05,-4.7699e+07,-2066,0,1.5273e+06,-410.63,11208,11690,1,11690,1,-6.0506e-05,-3.4598e-09,0,3.0558e-05,-1.157e-05,-2.461e+07,-1167.4,0,1.2324e+07,-70.898,11689,12558,1,12558,1,6.1726e-05,2.7923e-10,0,9.1674e-05,1.1347e-05,2.4625e+07,95.332,0,3.69e+07,58.8,12557,502.62,0,502.62,0,7.0543e-05,2.1907e-09,0,3.5209e-05,1.3226e-05,2.8399e+07,743.69,0,1.4162e+07,87.213,502.62,1
1736,0.44,12124,1,12124,1,6.242e-07,-1.3083e-09,0,6.2553e-05,-1.1356e-07,-212.17,-443.99,0,2.5189e+07,-2.0681,12123,12992,1,12992,1,0.00012128,1.8875e-09,0,0.00012128,2.2509e-05,4.8288e+07,637.29,0,4.8822e+07,1370.1,12991,12124,1,12124,1,6.2417e-07,-9.6576e-10,0,6.2555e-05,-1.1321e-07,2.3941e+05,-328.58,0,2.5205e+07,15.098,12123,11209,1,11209,1,-0.00012003,-4.9759e-09,0,3.8434e-06,-2.2737e-05,-4.8822e+07,-1691.7,0,1.5634e+06,-1387.2,11208,11690,1,11690,1,-6.1931e-05,-2.7834e-09,0,3.1278e-05,-1.1842e-05,-2.519e+07,-943.51,0,1.2614e+07,-161.84,11689,12558,1,12558,1,6.3179e-05,1.3441e-10,0,9.3834e-05,1.1615e-05,2.5205e+07,45.42,0,3.7769e+07,137.27,12557,502.62,0,502.62,0,7.2205e-05,1.7162e-09,0,3.6039e-05,1.3538e-05,2.9068e+07,582.58,0,1.4496e+07,307.02,502.62,1
1736,0.45,12124,1,12124,1,6.3859e-07,-6.095e-10,0,6.3981e-05,-1.1624e-07,-162.99,-206.9,0,2.5764e+07,-28.126,12123,12992,1,12992,1,0.00012404,4.0897e-10,0,0.00012404,2.302e-05,4.9385e+07,137.12,0,4.9931e+07,420.02,12991,12124,1,12124,1,6.3854e-07,-5.8882e-10,0,6.3981e-05,-1.1458e-07,2.45e+05,-199.91,0,2.5779e+07,-11.423,12123,11209,1,11209,1,-0.00012276,-1.7213e-09,0,3.9313e-06,-2.3253e-05,-4.9931e+07,-581.22,0,1.5991e+06,-543.17,11208,11690,1,11690,1,-6.3342e-05,-1.1241e-09,0,3.1991e-05,-1.2112e-05,-2.5764e+07,-379.81,0,1.2902e+07,-57.058,11689,12558,1,12558,1,6.4619e-05,-8.5658e-11,0,9.5972e-05,1.1879e-05,2.5779e+07,-28.779,0,3.863e+07,20.508,12557,502.62,0,502.62,0,7.3853e-05,5.9014e-10,0,3.6861e-05,1.3847e-05,2.9732e+07,200.29,0,1.4827e+07,98.57,502.62,1
1736,0.46,12124,1,12124,1,6.5285e-07,2.8628e-09,0,6.5397e-05,-1.1888e-07,-124.18,971.88,0,2.6334e+07,-48.952,12123,12992,1,12992,1,0.0001268,6.3007e-09,0,0.0001268,2.3533e-05,5.0484e+07,2151.7,0,5.1043e+07,804.75,12991,12124,1,12124,1,6.5264e-07,3.0505e-09,0,6.5397e-05,-1.1784e-07,2.504e+05,1030.8,0,2.635e+07,-67.851,12123,11209,1,11209,1,-0.00012549,-6.0423e-10,0,4.0178e-06,-2.3771e-05,-5.1043e+07,-202.6,0,1.6343e+06,-1373.3,11208,11690,1,11690,1,-6.4744e-05,1.5212e-09,0,3.2699e-05,-1.238e-05,-2.6334e+07,515.81,0,1.3188e+07,-203.21,11689,12558,1,12558,1,6.605e-05,4.3071e-09,0,9.8097e-05,1.2142e-05,2.635e+07,1459.6,0,3.9485e+07,93.697,12557,502.62,0,502.62,0,7.5488e-05,1.7556e-09,0,3.7677e-05,1.4153e-05,3.039e+07,596.33,0,1.5155e+07,258.26,502.62,1
1736,0.47,12124,1,12124,1,6.6719e-07,2.1346e-10,0,6.6824e-05,-1.2141e-07,-80.037,72.515,0,2.6908e+07,-12.286,12123,12992,1,12992,1,0.00012954,1.0844e-09,0,0.00012954,2.4042e-05,5.1576e+07,367.11,0,5.2148e+07,515.66,12991,12124,1,12124,1,6.6722e-07,1.1933e-10,0,6.6824e-05,-1.1973e-07,2.5601e+05,40.143,0,2.6925e+07,-6.3253,12123,11209,1,11209,1,-0.00012821,-3.9113e-10,0,4.1057e-06,-2.4286e-05,-5.2148e+07,-132.42,0,1.6701e+06,-470.93,11208,11690,1,11690,1,-6.6157e-05,2.8212e-11,0,3.3412e-05,-1.265e-05,-2.6909e+07,9.5864,0,1.3475e+07,-59.894,11689,12558,1,12558,1,6.7491e-05,3.6353e-10,0,0.00010024,1.2407e-05,2.6925e+07,123.59,0,4.0346e+07,39.407,12557,502.62,0,502.62,0,7.7134e-05,2.7048e-10,0,3.8499e-05,1.4462e-05,3.1053e+07,91.786,0,1.5485e+07,97.061,502.62,1
1736,0.48,12124,1,12124,1,6.8168e-07,8.6235e-10,0,6.8249e-05,-1.2413e-07,17.393,292.77,0,2.7482e+07,-48.214,12123,12992,1,12992,1,0.00013231,1.9434e-09,0,0.00013231,2.4555e-05,5.2678e+07,657.89,0,5.3261e+07,360.3,12991,12124,1,12124,1,6.8164e-07,9.5334e-10,0,6.8248e-05,-1.2255e-07,2.6154e+05,322.46,0,2.7499e+07,-27.528,12123,11209,1,11209,1,-0.00013095,-3.0297e-10,0,4.193e-06,-2.4804e-05,-5.3261e+07,-102.6,0,1.7056e+06,-362.47,11208,11690,1,11690,1,-6.7566e-05,4.3059e-10,0,3.4124e-05,-1.292e-05,-2.7482e+07,146.46,0,1.3762e+07,-102.47,11689,12558,1,12558,1,6.893e-05,1.2697e-09,0,0.00010237,1.2672e-05,2.7499e+07,431.2,0,4.1206e+07,7.4867,12557,502.62,0,502.62,0,7.8779e-05,5.5363e-10,0,3.932e-05,1.477e-05,3.1715e+07,188,0,1.5816e+07,94.372,502.62,1
1736,0.49,12124,1,12124,1,6.9529e-07,3.8473e-10,0,6.9653e-05,-1.2653e-07,-148.25,130.7,0,2.8048e+07,-17.757,12123,12992,1,12992,1,0.00013503,3.6649e-09,0,0.00013503,2.5061e-05,5.3762e+07,1237.5,0,5.4357e+07,493.64,12991,12124,1,12124,1,6.9524e-07,2.52e-10,0,6.9654e-05,-1.2479e-07,2.6675e+05,85.104,0,2.8065e+07,-17.252,12123,11209,1,11209,1,-0.00013364,-1.8056e-09,0,4.2799e-06,-2.5315e-05,-5.4357e+07,-609.65,0,1.7409e+06,-508.83,11208,11690,1,11690,1,-6.8959e-05,-3.6991e-10,0,3.4827e-05,-1.3186e-05,-2.8048e+07,-125.79,0,1.4046e+07,-66.337,11689,12558,1,12558,1,7.0349e-05,1.0611e-09,0,0.00010448,1.2933e-05,2.8065e+07,359.06,0,4.2055e+07,32.342,12557,502.62,0,502.62,0,8.0401e-05,1.1968e-09,0,4.0129e-05,1.5075e-05,3.2368e+07,406.26,0,1.6141e+07,98.298,502.62,1
1736,0.5,12124,1,12124,1,7.0999e-07,1.8449e-09,0,7.1083e-05,-1.2941e-07,4.3589,626.39,0,2.8624e+07,-102.22,12123,12992,1,12992,1,0.00013782,5.9054e-09,0,0.00013782,2.5578e-05,5.4871e+07,2021.8,0,5.5478e+07,385.8,12991,12124,1,12124,1,7.0987e-07,1.5781e-09,0,7.1085e-05,-1.2768e-07,2.7236e+05,535.81,0,2.8642e+07,-69.339,12123,11209,1,11209,1,-0.0001364,-6.5444e-10,0,4.367e-06,-2.5837e-05,-5.5478e+07,-224.15,0,1.7764e+06,-1132.8,11208,11690,1,11690,1,-7.0375e-05,6.8712e-10,0,3.5543e-05,-1.3458e-05,-2.8624e+07,231.46,0,1.4334e+07,-196.09,11689,12558,1,12558,1,7.1795e-05,2.9502e-09,0,0.00010663,1.3198e-05,2.8642e+07,1001.2,0,4.2919e+07,6.778,12557,502.62,0,502.62,0,8.2051e-05,1.4801e-09,0,4.0953e-05,1.5384e-05,3.3032e+07,502.85,0,1.6472e+07,173.16,502.62,1
1736,0.51,12124,1,12124,1,7.2426e-07,3.0793e-10,0,7.2514e-05,-1.3187e-07,9.0743,104.58,0,2.92e+07,-44.796,12123,12992,1,12992,1,0.00014058,1.2796e-09,0,0.00014058,2.609e-05,5.5969e+07,433.11,0,5.6589e+07,443.86,12991,12124,1,12124,1,7.2418e-07,2.6319e-10,0,7.2514e-05,-1.3022e-07,2.7788e+05,89.19,0,2.9218e+07,-24.003,12123,11209,1,11209,1,-0.00013913,-2.8234e-10,0,4.4552e-06,-2.6355e-05,-5.6589e+07,-94.657,0,1.8121e+06,-481.88,11208,11690,1,11690,1,-7.179e-05,7.4938e-11,0,3.6257e-05,-1.3727e-05,-2.92e+07,25.402,0,1.4623e+07,-85.916,11689,12558,1,12558,1,7.3238e-05,5.2925e-10,0,0.00010877,1.3463e-05,2.9218e+07,179.72,0,4.3782e+07,17.316,12557,502.62,0,502.62,0,8.3702e-05,2.9904e-10,0,4.1777e-05,1.5694e-05,3.3697e+07,101.58,0,1.6804e+07,115.7,502.62,1
1736,0.52,12124,1,12124,1,7.3835e-07,1.2216e-09,0,7.3933e-05,-1.3449e-07,-30.174,414.73,0,2.9771e+07,-70.617,12123,12992,1,12992,1,0.00014333,2.5434e-09,0,0.00014333,2.6601e-05,5.7067e+07,858.78,0,5.7699e+07,441.81,12991,12124,1,12124,1,7.3841e-07,1.2654e-09,0,7.3933e-05,-1.3277e-07,2.833e+05,428.28,0,2.979e+07,-41.329,12123,11209,1,11209,1,-0.00014186,-3.1783e-10,0,4.5422e-06,-2.6872e-05,-5.7699e+07,-106.56,0,1.8476e+06,-1012.8,11208,11690,1,11690,1,-7.3195e-05,6.7167e-10,0,3.6967e-05,-1.3997e-05,-2.9771e+07,226.56,0,1.4909e+07,-140.08,11689,12558,1,12558,1,7.4672e-05,1.8543e-09,0,0.0001109,1.3727e-05,2.979e+07,628.32,0,4.4639e+07,26.806,12557,502.62,0,502.62,0,8.534e-05,7.2463e-10,0,4.2595e-05,1.6001e-05,3.4356e+07,246.18,0,1.7133e+07,165.66,502.62,1
1736,0.53,12124,1,12124,1,7.5295e-07,4.1693e-09,0,7.5338e-05,-1.3721e-07,192.8,1415.2,0,3.0337e+07,-93.595,12123,12992,1,12992,1,0.00014609,1.0958e-08,0,0.00014609,2.7113e-05,5.8165e+07,3742.3,0,5.8808e+07,826.05,12991,12124,1,12124,1,7.526e-07,4.0446e-09,0,7.534e-05,-1.3561e-07,2.8878e+05,1369.5,0,3.0357e+07,-82.403,12123,11209,1,11209,1,-0.00014458,-1.5813e-09,0,4.6276e-06,-2.7387e-05,-5.8808e+07,-530.18,0,1.8823e+06,-2337.1,11208,11690,1,11690,1,-7.4588e-05,9.3287e-10,0,3.7671e-05,-1.4263e-05,-3.0338e+07,315.41,0,1.5193e+07,-236.23,11689,12558,1,12558,1,7.6093e-05,7.2028e-09,0,0.00011301,1.3988e-05,3.0357e+07,2438.8,0,4.5489e+07,86.101,12557,502.62,0,502.62,0,8.6962e-05,3.4321e-09,0,4.3404e-05,1.6305e-05,3.5009e+07,1165.1,0,1.7458e+07,279.54,502.62,1
1736,0.54,12124,1,12124,1,7.6669e-07,-6.4765e-10,0,7.6774e-05,-1.3953e-07,-38.664,-219.75,0,3.0915e+07,-23.096,12123,12992,1,12992,1,0.00014884,1.0339e-09,0,0.00014884,2.7623e-05,5.926e+07,349.05,0,5.9916e+07,1159.8,12991,12124,1,12124,1,7.6662e-07,-5.5564e-10,0,7.6775e-05,-1.3806e-07,2.9412e+05,-189.79,0,3.0934e+07,-24.427,12123,11209,1,11209,1,-0.00014731,-2.5653e-09,0,4.7168e-06,-2.7905e-05,-5.9916e+07,-868.41,0,1.9186e+06,-1202,11208,11690,1,11690,1,-7.6008e-05,-1.384e-09,0,3.8387e-05,-1.4533e-05,-3.0915e+07,-469.57,0,1.5482e+07,-110.53,11689,12558,1,12558,1,7.7541e-05,1.3463e-10,0,0.00011516,1.4255e-05,3.0934e+07,45.255,0,4.6354e+07,47.053,12557,502.62,0,502.62,0,8.862e-05,8.8325e-10,0,4.4231e-05,1.6616e-05,3.5677e+07,299.81,0,1.7791e+07,220.36,502.62,1
1736,0.55,12124,1,12124,1,7.8117e-07,2.3346e-09,0,7.8188e-05,-1.4226e-07,96.156,792.55,0,3.1485e+07,-60.422,12123,12992,1,12992,1,0.00015159,5.7544e-09,0,0.00015159,2.8134e-05,6.0356e+07,1965.1,0,6.1024e+07,1259.5,12991,12124,1,12124,1,7.8114e-07,2.0994e-09,0,7.819e-05,-1.4115e-07,2.9969e+05,710.77,0,3.1505e+07,-55.096,12123,11209,1,11209,1,-0.00015003,-8.1166e-10,0,4.8032e-06,-2.8418e-05,-6.1024e+07,-272.13,0,1.9538e+06,-1699.6,11208,11690,1,11690,1,-7.7409e-05,9.9871e-10,0,3.9095e-05,-1.4801e-05,-3.1485e+07,339.07,0,1.5767e+07,-258.4,11689,12558,1,12558,1,7.8971e-05,3.7227e-09,0,0.00011729,1.4518e-05,3.1505e+07,1262.7,0,4.7209e+07,144.95,12557,502.62,0,502.62,0,9.0253e-05,1.6199e-09,0,4.5046e-05,1.6922e-05,3.6334e+07,550.18,0,1.8119e+07,354.4,502.62,1
1736,0.56,12124,1,12124,1,7.9497e-07,1.1786e-09,0,7.9611e-05,-1.447e-07,-62.501,400.18,0,3.2057e+07,-31.116,12123,12992,1,12992,1,0.00015434,4.0196e-09,0,0.00015434,2.8644e-05,6.1449e+07,1360.7,0,6.2129e+07,466.37,12991,12124,1,12124,1,7.9488e-07,8.4953e-10,0,7.9612e-05,-1.4239e-07,3.05e+05,287.31,0,3.2078e+07,2.9844,12123,11209,1,11209,1,-0.00015275,-4.7488e-10,0,4.8914e-06,-2.8934e-05,-6.2129e+07,-160.36,0,1.9896e+06,-610.51,11208,11690,1,11690,1,-7.8817e-05,3.3407e-10,0,3.9806e-05,-1.5071e-05,-3.2058e+07,112.94,0,1.6054e+07,-85.792,11689,12558,1,12558,1,8.0407e-05,1.9241e-09,0,0.00011942,1.4782e-05,3.2078e+07,653.85,0,4.8068e+07,53.683,12557,502.62,0,502.62,0,9.1894e-05,1.054e-09,0,4.5866e-05,1.723e-05,3.6995e+07,357.98,0,1.8449e+07,130.27,502.62,1
1736,0.57,12124,1,12124,1,8.0898e-07,3.8157e-10,0,8.1018e-05,-1.4713e-07,-71.847,129.55,0,3.2624e+07,16.751,12123,12992,1,12992,1,0.00015706,4.2662e-09,0,0.00015706,2.9149e-05,6.2533e+07,1456.9,0,6.3226e+07,453.99,12991,12124,1,12124,1,8.0883e-07,2.5086e-10,0,8.1018e-05,-1.4516e-07,3.1033e+05,84.145,0,3.2644e+07,7.2411,12123,11209,1,11209,1,-0.00015544,-3.4627e-09,0,4.978e-06,-2.9446e-05,-6.3226e+07,-1172.2,0,2.0249e+06,-759.28,11208,11690,1,11690,1,-8.0209e-05,-5.3068e-10,0,4.0509e-05,-1.5337e-05,-3.2624e+07,-180.24,0,1.6338e+07,-47.544,11689,12558,1,12558,1,8.1827e-05,1.3833e-09,0,0.00012153,1.5043e-05,3.2644e+07,468.81,0,4.8917e+07,75.92,12557,502.62,0,502.62,0,9.3518e-05,1.5548e-09,0,4.6676e-05,1.7534e-05,3.7649e+07,527.59,0,1.8775e+07,123.64,502.62,1
1736,0.58,12124,1,12124,1,8.2363e-07,-1.7966e-09,0,8.2454e-05,-1.4981e-07,46.914,-609.94,0,3.3203e+07,10.523,12123,12992,1,12992,1,0.00015986,8.6396e-10,0,0.00015986,2.9669e-05,6.3648e+07,294.42,0,6.4352e+07,1239.6,12991,12124,1,12124,1,8.2346e-07,-1.5325e-09,0,8.2456e-05,-1.4846e-07,3.1596e+05,-520,0,3.3224e+07,-34.342,12123,11209,1,11209,1,-0.00015821,-5.0536e-09,0,5.0657e-06,-2.9969e-05,-6.4352e+07,-1722.3,0,2.0605e+06,-1215.4,11208,11690,1,11690,1,-8.1632e-05,-2.9328e-09,0,4.1228e-05,-1.5609e-05,-3.3203e+07,-995.52,0,1.6627e+07,-134.71,11689,12558,1,12558,1,8.328e-05,-6.2308e-10,0,0.00012368,1.5309e-05,3.3224e+07,-211.12,0,4.9785e+07,97.179,12557,502.62,0,502.62,0,9.5177e-05,1.4642e-09,0,4.7504e-05,1.7845e-05,3.8316e+07,497.49,0,1.9108e+07,280.12,502.62,1
1736,0.59,12124,1,12124,1,8.3815e-07,-1.4138e-09,0,8.3875e-05,-1.5263e-07,161.78,-479.82,0,3.3775e+07,-60.248,12123,12992,1,12992,1,0.00016262,1.8459e-09,0,0.00016262,3.018e-05,6.4745e+07,625.12,0,6.5461e+07,771.14,12991,12124,1,12124,1,8.3787e-07,-1.1735e-09,0,8.3877e-05,-1.5092e-07,3.2154e+05,-396.4,0,3.3796e+07,-34.898,12123,11209,1,11209,1,-0.00016094,-5.9812e-09,0,5.1527e-06,-3.0486e-05,-6.5461e+07,-2024.8,0,2.0959e+06,-986.92,11208,11690,1,11690,1,-8.3039e-05,-2.7988e-09,0,4.1939e-05,-1.5878e-05,-3.3775e+07,-953.87,0,1.6914e+07,-191.06,11689,12558,1,12558,1,8.4715e-05,9.422e-11,0,0.00012582,1.5573e-05,3.3796e+07,32.047,0,5.0643e+07,94.036,12557,502.62,0,502.62,0,9.6817e-05,1.7209e-09,0,4.8323e-05,1.8152e-05,3.8977e+07,584.18,0,1.9437e+07,251.62,502.62,1
1736,0.6,12124,1,12124,1,8.5192e-07,-7.1294e-10,0,8.5295e-05,-1.5496e-07,4.366,-242.01,0,3.4347e+07,9.1765,12123,12992,1,12992,1,0.00016536,3.0993e-09,0,0.00016536,3.069e-05,6.5838e+07,1049.2,0,6.6567e+07,953,12991,12124,1,12124,1,8.5174e-07,-5.4346e-10,0,8.5297e-05,-1.5319e-07,3.2683e+05,-184.29,0,3.4368e+07,3.2925,12123,11209,1,11209,1,-0.00016366,-4.1389e-09,0,5.2405e-06,-3.1002e-05,-6.6567e+07,-1401.1,0,2.1316e+06,-822.31,11208,11690,1,11690,1,-8.4445e-05,-1.8981e-09,0,4.2648e-05,-1.6147e-05,-3.4347e+07,-646.23,0,1.72e+07,-94.005,11689,12558,1,12558,1,8.6149e-05,2.8436e-10,0,0.00012795,1.5837e-05,3.4368e+07,95.971,0,5.15e+07,128.32,12557,502.62,0,502.62,0,9.8456e-05,1.4424e-09,0,4.9141e-05,1.846e-05,3.9636e+07,489.49,0,1.9766e+07,199,502.62,1
1736,0.61,12124,1,12124,1,8.6623e-07,-1.2712e-09,0,8.6724e-05,-1.5759e-07,17.915,-431.47,0,3.4922e+07,-2.3495,12123,12992,1,12992,1,0.00016814,1.5409e-09,0,0.00016814,3.1204e-05,6.6942e+07,521.61,0,6.7683e+07,828.33,12991,12124,1,12124,1,8.6585e-07,-1.1009e-09,0,8.6725e-05,-1.5586e-07,3.3222e+05,-375.19,0,3.4944e+07,9.0359,12123,11209,1,11209,1,-0.0001664,-4.8081e-09,0,5.3281e-06,-3.1521e-05,-6.7683e+07,-1627.7,0,2.1673e+06,-928.13,11208,11690,1,11690,1,-8.5859e-05,-2.3497e-09,0,4.3362e-05,-1.6417e-05,-3.4922e+07,-794.5,0,1.7488e+07,-155.35,11689,12558,1,12558,1,8.7591e-05,-3.0675e-11,0,0.00013009,1.6102e-05,3.4944e+07,-10.405,0,5.2362e+07,141.76,12557,502.62,0,502.62,0,0.0001001,1.3673e-09,0,4.9964e-05,1.8769e-05,4.03e+07,463.98,0,2.0097e+07,237.85,502.62,1
1736,0.62,12124,1,12124,1,8.8058e-07,-1.7852e-09,0,8.8149e-05,-1.6029e-07,50.433,-606.09,0,3.5496e+07,-38.962,12123,12992,1,12992,1,0.0001709,6.3906e-10,0,0.0001709,3.1717e-05,6.8042e+07,218.89,0,6.8796e+07,797.57,12991,12124,1,12124,1,8.8044e-07,-1.7272e-09,0,8.815e-05,-1.5828e-07,3.3781e+05,-585.38,0,3.5518e+07,-47.472,12123,11209,1,11209,1,-0.00016914,-4.3892e-09,0,5.4154e-06,-3.2039e-05,-6.8796e+07,-1490.5,0,2.2028e+06,-996.85,11208,11690,1,11690,1,-8.7269e-05,-2.8561e-09,0,4.4075e-05,-1.6687e-05,-3.5496e+07,-970.25,0,1.7776e+07,-128.01,11689,12558,1,12558,1,8.903e-05,-7.23e-10,0,0.00013223,1.6367e-05,3.5518e+07,-247.63,0,5.3223e+07,42.575,12557,502.62,0,502.62,0,0.00010175,1.309e-09,0,5.0785e-05,1.9077e-05,4.0963e+07,444.68,0,2.0427e+07,184.42,502.62,1
1736,0.63,12124,1,12124,1,8.9461e-07,-1.2156e-09,0,8.9562e-05,-1.6284e-07,12.786,-412.72,0,3.6065e+07,-38.77,12123,12992,1,12992,1,0.00017364,1.9139e-09,0,0.00017364,3.2226e-05,6.9133e+07,647.73,0,6.9899e+07,755.37,12991,12124,1,12124,1,8.9452e-07,-9.8673e-10,0,8.9564e-05,-1.6113e-07,3.4319e+05,-336.82,0,3.6087e+07,-16.844,12123,11209,1,11209,1,-0.00017185,-5.1396e-09,0,5.5023e-06,-3.2553e-05,-6.9899e+07,-1739.9,0,2.2382e+06,-2026.9,11208,11690,1,11690,1,-8.8669e-05,-2.5643e-09,0,4.4782e-05,-1.6955e-05,-3.6065e+07,-867.98,0,1.8061e+07,-184.21,11689,12558,1,12558,1,9.0458e-05,2.661e-10,0,0.00013435,1.6629e-05,3.6087e+07,89.377,0,5.4076e+07,137.49,12557,502.62,0,502.62,0,0.00010338,1.605e-09,0,5.1599e-05,1.9383e-05,4.1619e+07,545.06,0,2.0755e+07,298.95,502.62,1
1736,0.64,12124,1,12124,1,9.0912e-07,-1.5972e-09,0,9.0991e-05,-1.6567e-07,93.214,-542.2,0,3.664e+07,-115.41,12123,12992,1,12992,1,0.00017641,8.8539e-10,0,0.00017641,3.274e-05,7.0236e+07,303.26,0,7.1013e+07,220.44,12991,12124,1,12124,1,9.091e-07,-1.6383e-09,0,9.0991e-05,-1.6337e-07,3.4883e+05,-558.36,0,3.6663e+07,-67.448,12123,11209,1,11209,1,-0.00017459,-4.3516e-09,0,5.5896e-06,-3.3071e-05,-7.1013e+07,-1469.3,0,2.2737e+06,-902.41,11208,11690,1,11690,1,-9.0082e-05,-2.8192e-09,0,4.5496e-05,-1.7226e-05,-3.664e+07,-959.71,0,1.8349e+07,-191.47,11689,12558,1,12558,1,9.19e-05,-3.0353e-10,0,0.00013649,1.6894e-05,3.6663e+07,-102.63,0,5.4938e+07,-5.5253,12557,502.62,0,502.62,0,0.00010503,1.4248e-09,0,5.2422e-05,1.9693e-05,4.2283e+07,483.81,0,2.1086e+07,172.82,502.62,1
1736,0.65,12124,1,12124,1,9.2314e-07,-2.1354e-10,0,9.241e-05,-1.6805e-07,37.844,-72.528,0,3.7211e+07,-46.296,12123,12992,1,12992,1,0.00017915,1.2806e-09,0,0.00017915,3.3248e-05,7.1327e+07,433.42,0,7.2116e+07,328.84,12991,12124,1,12124,1,9.2314e-07,-3.3812e-11,0,9.2411e-05,-1.6586e-07,3.542e+05,-11.336,0,3.7235e+07,-24.586,12123,11209,1,11209,1,-0.0001773,-2.037e-09,0,5.6775e-06,-3.3585e-05,-7.2116e+07,-687.78,0,2.3094e+06,-605.32,11208,11690,1,11690,1,-9.1488e-05,-7.4779e-10,0,4.6206e-05,-1.7494e-05,-3.7212e+07,-252.06,0,1.8635e+07,-115.66,11689,12558,1,12558,1,9.3334e-05,3.5141e-10,0,0.00013862,1.7158e-05,3.7235e+07,119.33,0,5.5795e+07,23.515,12557,502.62,0,502.62,0,0.00010667,7.9795e-10,0,5.324e-05,2e-05,4.2943e+07,271,0,2.1415e+07,111.12,502.62,1
1736,0.66,12124,1,12124,1,9.3711e-07,-1.6112e-09,0,9.3828e-05,-1.7042e-07,-29.095,-546.85,0,3.7782e+07,24.517,12123,12992,1,12992,1,0.00018191,1.6898e-09,0,0.00018191,3.3761e-05,7.2426e+07,572.18,0,7.3228e+07,973.38,12991,12124,1,12124,1,9.3682e-07,-1.4475e-09,0,9.383e-05,-1.6834e-07,3.5947e+05,-491.21,0,3.7806e+07,13.473,12123,11209,1,11209,1,-0.00018003,-5.395e-09,0,5.7647e-06,-3.4104e-05,-7.3228e+07,-1826.4,0,2.3448e+06,-569.92,11208,11690,1,11690,1,-9.2892e-05,-3.0774e-09,0,4.6915e-05,-1.7762e-05,-3.7783e+07,-1049,0,1.8921e+07,-95.703,11689,12558,1,12558,1,9.4767e-05,-9.2017e-11,0,0.00014074,1.7421e-05,3.7806e+07,-30.854,0,5.6652e+07,147.81,12557,502.62,0,502.62,0,0.00010831,1.6817e-09,0,5.4057e-05,2.0306e-05,4.3601e+07,570.8,0,2.1743e+07,195.96,502.62,1
1736,0.67,12124,1,12124,1,9.5145e-07,9.13e-10,0,9.5259e-05,-1.7331e-07,-36.997,309.95,0,3.8359e+07,-90.833,12123,12992,1,12992,1,0.00018467,3.1273e-09,0,0.00018467,3.4274e-05,7.3526e+07,1055.9,0,7.434e+07,368.27,12991,12124,1,12124,1,9.5138e-07,7.0731e-10,0,9.526e-05,-1.706e-07,3.6506e+05,240.57,0,3.8382e+07,-36.154,12123,11209,1,11209,1,-0.00018277,-3.3406e-10,0,5.8526e-06,-3.4621e-05,-7.434e+07,-114.42,0,2.3806e+06,-1001.6,11208,11690,1,11690,1,-9.4308e-05,2.0665e-10,0,4.763e-05,-1.8033e-05,-3.8359e+07,70.735,0,1.9209e+07,-135.01,11689,12558,1,12558,1,9.6211e-05,1.5364e-09,0,0.00014289,1.7686e-05,3.8382e+07,522.79,0,5.7515e+07,15.024,12557,502.62,0,502.62,0,0.00010996,8.0497e-10,0,5.4881e-05,2.0616e-05,4.4266e+07,273.24,0,2.2075e+07,203.52,502.62,1
1736,0.68,12124,1,12124,1,9.6588e-07,2.6495e-10,0,9.668e-05,-1.7569e-07,74.266,90.021,0,3.8931e+07,12.209,12123,12992,1,12992,1,0.00018742,7.4809e-10,0,0.00018742,3.4784e-05,7.4621e+07,256.18,0,7.5447e+07,438.07,12991,12124,1,12124,1,9.6586e-07,2.6597e-10,0,9.668e-05,-1.7326e-07,3.7062e+05,90.577,0,3.8955e+07,-2.273,12123,11209,1,11209,1,-0.00018549,-2.7576e-10,0,5.9397e-06,-3.5137e-05,-7.5447e+07,-94.45,0,2.416e+06,-439.97,11208,11690,1,11690,1,-9.5714e-05,7.9849e-11,0,4.834e-05,-1.8302e-05,-3.8931e+07,27.106,0,1.9496e+07,-31.059,11689,12558,1,12558,1,9.7646e-05,4.6597e-10,0,0.00014502,1.795e-05,3.8955e+07,158.56,0,5.8373e+07,40.408,12557,502.62,0,502.62,0,0.0001116,2.4338e-10,0,5.57e-05,2.0924e-05,4.4927e+07,82.665,0,2.2404e+07,102.18,502.62,1
1736,0.69,12124,1,12124,1,9.8072e-07,-2.4493e-09,0,9.8085e-05,-1.7852e-07,382.82,-831.49,0,3.9497e+07,-42.976,12123,12992,1,12992,1,0.00019018,2.1967e-09,0,0.00019018,3.5295e-05,7.5717e+07,743.78,0,7.6554e+07,1256,12991,12124,1,12124,1,9.807e-07,-2.0056e-09,0,9.8088e-05,-1.7672e-07,3.7636e+05,-677.26,0,3.9522e+07,-74.6,12123,11209,1,11209,1,-0.00018821,-8.4969e-09,0,6.0245e-06,-3.5652e-05,-7.6554e+07,-2876.4,0,2.4505e+06,-957.89,11208,11690,1,11690,1,-9.7107e-05,-4.8657e-09,0,4.9045e-05,-1.8568e-05,-3.9497e+07,-1650.1,0,1.978e+07,-254.93,11689,12558,1,12558,1,9.9069e-05,-1.7127e-11,0,0.00014713,1.8212e-05,3.9522e+07,-5.8656,0,5.9223e+07,148.66,12557,502.62,0,502.62,0,0.00011322,2.7063e-09,0,5.6509e-05,2.1228e-05,4.558e+07,918.89,0,2.273e+07,321.35,502.62,1
1736,0.7,12124,1,12124,1,9.9402e-07,2.2315e-09,0,9.9521e-05,-1.8088e-07,-39.21,757.57,0,4.0075e+07,-20.03,12123,12992,1,12992,1,0.00019294,4.7517e-09,0,0.00019294,3.5809e-05,7.682e+07,1608.6,0,7.767e+07,317.19,12991,12124,1,12124,1,9.9407e-07,2.379e-09,0,9.9521e-05,-1.7827e-07,3.8143e+05,804.73,0,4.0099e+07,-22.986,12123,11209,1,11209,1,-0.00019096,-5.377e-10,0,6.114e-06,-3.6172e-05,-7.767e+07,-184.17,0,2.4869e+06,-318.22,11208,11690,1,11690,1,-9.8527e-05,1.1394e-09,0,4.9761e-05,-1.884e-05,-4.0075e+07,387.44,0,2.0069e+07,-57.696,11689,12558,1,12558,1,0.00010051,3.4162e-09,0,0.00014928,1.8478e-05,4.0099e+07,1160.3,0,6.0088e+07,13.832,12557,502.62,0,502.62,0,0.00011488,1.4233e-09,0,5.7337e-05,2.1539e-05,4.6247e+07,483.46,0,2.3062e+07,72.102,502.62,1
1736,0.71,12124,1,12124,1,1.0084e-06,-7.9269e-11,0,0.00010094,-1.8371e-07,4.7754,-26.965,0,4.0648e+07,-105.77,12123,12992,1,12992,1,0.00019569,1.5135e-09,0,0.00019569,3.6319e-05,7.7913e+07,512.5,0,7.8776e+07,535.3,12991,12124,1,12124,1,1.0083e-06,5.7715e-11,0,0.00010095,-1.811e-07,3.869e+05,19.388,0,4.0673e+07,-48.492,12123,11209,1,11209,1,-0.00019368,-2.2005e-09,0,6.2019e-06,-3.6688e-05,-7.8776e+07,-744.85,0,2.5227e+06,-1186.3,11208,11690,1,11690,1,-9.9937e-05,-5.9087e-10,0,5.0473e-05,-1.9111e-05,-4.0648e+07,-201.34,0,2.0356e+07,-183.28,11689,12558,1,12558,1,0.00010195,5.5814e-10,0,0.00015142,1.8742e-05,4.0673e+07,190.29,0,6.0948e+07,42.465,12557,502.62,0,502.62,0,0.00011652,8.5554e-10,0,5.8157e-05,2.1847e-05,4.6909e+07,290.49,0,2.3392e+07,239.83,502.62,1
1736,0.72,12124,1,12124,1,1.0224e-06,-4.4639e-10,0,0.00010235,-1.8598e-07,20.933,-151.54,0,4.1214e+07,10.945,12123,12992,1,12992,1,0.00019843,3.6881e-09,0,0.00019843,3.6826e-05,7.9002e+07,1262.7,0,7.9876e+07,953.02,12991,12124,1,12124,1,1.0223e-06,-1.219e-10,0,0.00010235,-1.8348e-07,3.9226e+05,-40.877,0,4.124e+07,15.237,12123,11209,1,11209,1,-0.00019638,-5.2497e-09,0,6.2881e-06,-3.7199e-05,-7.9876e+07,-1777.2,0,2.5578e+06,-1040.9,11208,11690,1,11690,1,-0.00010133,-1.8218e-09,0,5.1176e-05,-1.9375e-05,-4.1215e+07,-616.63,0,2.064e+07,-116.23,11689,12558,1,12558,1,0.00010338,9.2367e-10,0,0.00015353,1.9004e-05,4.124e+07,313,0,6.1798e+07,168.14,12557,502.62,0,502.62,0,0.00011814,2.0171e-09,0,5.8967e-05,2.2151e-05,4.7562e+07,684.77,0,2.3718e+07,259.3,502.62,1
1736,0.73,12124,1,12124,1,1.0369e-06,2.1773e-09,0,0.00010379,-1.8841e-07,78.095,739.19,0,4.1793e+07,95.271,12123,12992,1,12992,1,0.00020122,4.7667e-09,0,0.00020122,3.7344e-05,8.0113e+07,1613.7,0,8.1e+07,662.2,12991,12124,1,12124,1,1.0367e-06,2.2582e-09,0,0.00010379,-1.8594e-07,3.978e+05,765.99,0,4.1819e+07,52.319,12123,11209,1,11209,1,-0.00019914,-8.7767e-10,0,6.3759e-06,-3.7723e-05,-8.1e+07,-294.27,0,2.5935e+06,-789.16,11208,11690,1,11690,1,-0.00010275,9.2823e-10,0,5.1894e-05,-1.9647e-05,-4.1793e+07,314.03,0,2.0929e+07,-23.997,11689,12558,1,12558,1,0.00010482,3.5802e-09,0,0.00015568,1.927e-05,4.1819e+07,1218,0,6.2664e+07,223.26,12557,502.62,0,502.62,0,0.0001198,1.5624e-09,0,5.9794e-05,2.2462e-05,4.8229e+07,530.57,0,2.4051e+07,186.27,502.62,1
1736,0.74,12124,1,12124,1,1.0511e-06,1.5359e-09,0,0.00010521,-1.9124e-07,57.113,521.34,0,4.2364e+07,-4.6903,12123,12992,1,12992,1,0.00020396,4.3906e-09,0,0.00020396,3.7854e-05,8.1207e+07,1486.4,0,8.2106e+07,180.75,12991,12124,1,12124,1,1.051e-06,1.243e-09,0,0.00010521,-1.8851e-07,4.033e+05,421.94,0,4.2391e+07,-1.6455,12123,11209,1,11209,1,-0.00020186,-6.4483e-10,0,6.4635e-06,-3.8238e-05,-8.2106e+07,-216.19,0,2.6291e+06,-375.07,11208,11690,1,11690,1,-0.00010416,5.1513e-10,0,5.2604e-05,-1.9917e-05,-4.2365e+07,174.07,0,2.1216e+07,-25.989,11689,12558,1,12558,1,0.00010626,2.5302e-09,0,0.00015781,1.9534e-05,4.2391e+07,859.04,0,6.3522e+07,19.269,12557,502.62,0,502.62,0,0.00012144,1.2345e-09,0,6.0613e-05,2.2769e-05,4.8889e+07,419.06,0,2.438e+07,41.38,502.62,1
1736,0.75,12124,1,12124,1,1.0654e-06,7.2221e-11,0,0.00010663,-1.9392e-07,46.339,24.5,0,4.2938e+07,-43.058,12123,12992,1,12992,1,0.00020671,1.0455e-09,0,0.00020671,3.8364e-05,8.2301e+07,353.01,0,8.3212e+07,431.56,12991,12124,1,12124,1,1.0654e-06,2.4623e-11,0,0.00010663,-1.9121e-07,4.088e+05,8.4223,0,4.2965e+07,-31.992,12123,11209,1,11209,1,-0.00020458,-4.0415e-10,0,6.551e-06,-3.8754e-05,-8.3212e+07,-138.37,0,2.6647e+06,-522.01,11208,11690,1,11690,1,-0.00010557,-1.896e-10,0,5.3316e-05,-2.0187e-05,-4.2938e+07,-64.386,0,2.1502e+07,-77.966,11689,12558,1,12558,1,0.0001077,2.3772e-10,0,0.00015995,1.9798e-05,4.2965e+07,80.618,0,6.4381e+07,3.2026,12557,502.62,0,502.62,0,0.00012308,3.1912e-10,0,6.1433e-05,2.3077e-05,4.9551e+07,108.35,0,2.471e+07,92.694,502.62,1
1736,0.76,12124,1,12124,1,1.0794e-06,1.2473e-09,0,0.00010805,-1.9631e-07,-16.226,423.49,0,4.3511e+07,26.806,12123,12992,1,12992,1,0.00020948,4.1013e-09,0,0.00020948,3.8878e-05,8.3402e+07,1388.4,0,8.4326e+07,407.27,12991,12124,1,12124,1,1.0794e-06,9.7713e-10,0,0.00010805,-1.9356e-07,4.1418e+05,331.61,0,4.3538e+07,23.703,12123,11209,1,11209,1,-0.00020732,-4.6316e-10,0,6.6384e-06,-3.9271e-05,-8.4326e+07,-155.29,0,2.7003e+06,-485.62,11208,11690,1,11690,1,-0.00010698,2.3179e-10,0,5.4028e-05,-2.0455e-05,-4.3511e+07,79.229,0,2.179e+07,-14.601,11689,12558,1,12558,1,0.00010913,2.1012e-09,0,0.00016208,2.0062e-05,4.3538e+07,714.68,0,6.5241e+07,69.237,12557,502.62,0,502.62,0,0.00012473,1.1323e-09,0,6.2253e-05,2.3385e-05,5.0212e+07,384.64,0,2.504e+07,85.768,502.62,1
1736,0.77,12124,1,12124,1,1.0934e-06,-1.5038e-09,0,0.00010946,-1.9884e-07,-97.726,-510.37,0,4.4079e+07,31.699,12123,12992,1,12992,1,0.00021222,2.1907e-09,0,0.00021222,3.9387e-05,8.4494e+07,748.09,0,8.543e+07,560.18,12991,12124,1,12124,1,1.0934e-06,-1.1821e-09,0,0.00010947,-1.962e-07,4.1957e+05,-398.85,0,4.4107e+07,5.6956,12123,11209,1,11209,1,-0.00021004,-5.5251e-09,0,6.7251e-06,-3.9786e-05,-8.543e+07,-1870.4,0,2.7355e+06,-302.63,11208,11690,1,11690,1,-0.00010837,-3.1831e-09,0,5.4734e-05,-2.0722e-05,-4.408e+07,-1079.9,0,2.2074e+07,-42.229,11689,12558,1,12558,1,0.00011056,1.1116e-10,0,0.0001642,2.0325e-05,4.4107e+07,37.944,0,6.6093e+07,85.006,12557,502.62,0,502.62,0,0.00012635,1.9382e-09,0,6.3065e-05,2.369e-05,5.0867e+07,657.74,0,2.5366e+07,119.42,502.62,1
1736,0.78,12124,1,12124,1,1.1078e-06,-1.8953e-09,0,0.00011089,-2.0149e-07,-49.617,-643.54,0,4.4654e+07,21.432,12123,12992,1,12992,1,0.000215,2.3361e-09,0,0.000215,3.9902e-05,8.5599e+07,790.76,0,8.6547e+07,421.15,12991,12124,1,12124,1,1.1077e-06,-1.3236e-09,0,0.0001109,-1.9884e-07,4.2503e+05,-446.99,0,4.4683e+07,36.089,12123,11209,1,11209,1,-0.00021278,-6.9354e-09,0,6.8127e-06,-4.0305e-05,-8.6547e+07,-2347.8,0,2.7712e+06,-458.69,11208,11690,1,11690,1,-0.00010979,-3.8966e-09,0,5.5448e-05,-2.0993e-05,-4.4655e+07,-1330.1,0,2.2362e+07,-85.174,11689,12558,1,12558,1,0.000112,1.3336e-10,0,0.00016634,2.059e-05,4.4683e+07,44.716,0,6.6956e+07,130.6,12557,502.62,0,502.62,0,0.000128,2.3185e-09,0,6.3888e-05,2.4e-05,5.1531e+07,787.35,0,2.5698e+07,147.09,502.62,1
1736,0.79,12124,1,12124,1,1.1221e-06,-4.78e-11,0,0.00011231,-2.0418e-07,-36.547,-16.219,0,4.5226e+07,-14.639,12123,12992,1,12992,1,0.00021773,2.7939e-09,0,0.00021773,4.0409e-05,8.6688e+07,954.1,0,8.7648e+07,215.73,12991,12124,1,12124,1,1.1221e-06,-1.0712e-11,0,0.00011231,-2.0139e-07,4.3056e+05,-3.6303,0,4.5254e+07,-18.942,12123,11209,1,11209,1,-0.00021549,-2.4888e-09,0,6.9001e-06,-4.0818e-05,-8.7648e+07,-840.36,0,2.8067e+06,-258.54,11208,11690,1,11690,1,-0.00011119,-9.9765e-10,0,5.6157e-05,-2.1262e-05,-4.5226e+07,-339.9,0,2.2648e+07,-56.827,11689,12558,1,12558,1,0.00011344,8.0289e-10,0,0.00016847,2.0853e-05,4.5254e+07,272.07,0,6.7812e+07,27.576,12557,502.62,0,502.62,0,0.00012964,1.2636e-09,0,6.4707e-05,2.4307e-05,5.2191e+07,428.91,0,2.6027e+07,68.171,502.62,1
1736,0.8,12124,1,12124,1,1.1366e-06,-1.854e-10,0,0.00011374,-2.0677e-07,18.45,-62.915,0,4.5801e+07,3.4075,12123,12992,1,12992,1,0.0002205,4.0685e-10,0,0.0002205,4.0922e-05,8.7788e+07,139.35,0,8.8761e+07,211.69,12991,12124,1,12124,1,1.1366e-06,-1.864e-10,0,0.00011374,-2.038e-07,4.3613e+05,-63.131,0,4.5829e+07,1.82,12123,11209,1,11209,1,-0.00021823,-7.5634e-10,0,6.9877e-06,-4.1337e-05,-8.8761e+07,-258.3,0,2.8423e+06,-43.974,11208,11690,1,11690,1,-0.00011261,-4.5023e-10,0,5.6871e-05,-2.1532e-05,-4.5801e+07,-153.08,0,2.2936e+07,-7.4151,11689,12558,1,12558,1,0.00011488,9.2289e-11,0,0.00017061,2.1118e-05,4.5829e+07,31.404,0,6.8674e+07,12.97,12557,502.62,0,502.62,0,0.00013129,3.0648e-10,0,6.553e-05,2.4616e-05,5.2855e+07,104.05,0,2.6358e+07,19.753,502.62,1
1736,0.81,12124,1,12124,1,1.1507e-06,-8.4311e-10,0,0.00011516,-2.0935e-07,-8.5161,-286.19,0,4.6371e+07,0.13138,12123,12992,1,12992,1,0.00022325,2.5464e-09,0,0.00022325,4.1433e-05,8.8884e+07,862.06,0,8.9869e+07,147.06,12991,12124,1,12124,1,1.1507e-06,-6.539e-10,0,0.00011516,-2.0641e-07,4.4156e+05,-222.59,0,4.64e+07,-7.2193,12123,11209,1,11209,1,-0.00022095,-3.5774e-09,0,7.0745e-06,-4.1853e-05,-8.9869e+07,-1211,0,2.8776e+06,-120.73,11208,11690,1,11690,1,-0.00011401,-2.0854e-09,0,5.7579e-05,-2.18e-05,-4.6371e+07,-708.01,0,2.3222e+07,-44.46,11689,12558,1,12558,1,0.00011631,2.093e-10,0,0.00017274,2.1381e-05,4.64e+07,71.367,0,6.9529e+07,42.16,12557,502.62,0,502.62,0,0.00013292,1.4398e-09,0,6.6345e-05,2.4922e-05,5.3513e+07,488.81,0,2.6686e+07,59.068,502.62,1
1736,0.82,12124,1,12124,1,1.1652e-06,1.4694e-09,0,0.00011658,-2.1198e-07,-25.949,498.89,0,4.6945e+07,-2.2786,12123,12992,1,12992,1,0.00022602,3.6967e-09,0,0.00022602,4.1947e-05,8.9984e+07,1255.1,0,9.0983e+07,94.978,12991,12124,1,12124,1,1.1651e-06,1.339e-09,0,0.00011658,-2.0896e-07,4.4708e+05,452.12,0,4.6975e+07,-2.4152,12123,11209,1,11209,1,-0.00022369,-3.6318e-10,0,7.162e-06,-4.2372e-05,-9.0983e+07,-121.76,0,2.9132e+06,-94.092,11208,11690,1,11690,1,-0.00011542,4.6928e-10,0,5.8293e-05,-2.2071e-05,-4.6946e+07,159.36,0,2.351e+07,-25.007,11689,12558,1,12558,1,0.00011775,2.4736e-09,0,0.00017488,2.1646e-05,4.6975e+07,838.54,0,7.039e+07,17.171,12557,502.62,0,502.62,0,0.00013457,1.1232e-09,0,6.7167e-05,2.5231e-05,5.4176e+07,381.58,0,2.7016e+07,34.572,502.62,1
1736,0.83,12124,1,12124,1,1.1797e-06,3.4997e-10,0,0.00011801,-2.1461e-07,-2.2089,118.82,0,4.7518e+07,2.489,12123,12992,1,12992,1,0.00022877,1.3046e-09,0,0.00022877,4.2457e-05,9.1077e+07,441.64,0,9.2089e+07,51.55,12991,12124,1,12124,1,1.1797e-06,3.0772e-10,0,0.00011801,-2.1156e-07,4.5269e+05,104.98,0,4.7548e+07,-1.0036,12123,11209,1,11209,1,-0.00022641,-3.273e-10,0,7.2493e-06,-4.2887e-05,-9.2089e+07,-111.77,0,2.9487e+06,-37.206,11208,11690,1,11690,1,-0.00011683,6.69e-11,0,5.9004e-05,-2.234e-05,-4.7518e+07,22.882,0,2.3796e+07,-8.1333,11689,12558,1,12558,1,0.00011919,5.8373e-10,0,0.00017701,2.191e-05,4.7548e+07,197.07,0,7.1249e+07,10.417,12557,502.62,0,502.62,0,0.00013622,3.3189e-10,0,6.7987e-05,2.5539e-05,5.4837e+07,112.72,0,2.7346e+07,13.848,502.62,1
1736,0.84,12124,1,12124,1,1.1784e-06,-4.7118e-08,0,0.00011789,-2.1293e-07,-47.416,-15992,0,4.7472e+07,615.99,12123,12992,1,12992,1,0.00022923,3.2126e-07,0,0.00022923,4.2534e-05,9.126e+07,1.0876e+05,0,9.2269e+07,12838,12991,12124,1,12124,1,1.1737e-06,-3.0636e-08,0,0.00011801,-2.0988e-07,4.5028e+05,-10431,0,4.7547e+07,423.96,12123,11209,1,11209,1,-0.00022685,-3.7777e-07,0,7.2356e-06,-4.2966e-05,-9.2269e+07,-1.2788e+05,0,2.9432e+06,-9689.4,11208,11690,1,11690,1,-0.00011683,-1.3499e-07,0,5.9019e-05,-2.235e-05,-4.7517e+07,-45797,0,2.3802e+07,-3312.7,11689,12558,1,12558,1,0.00011918,2.7525e-08,0,0.000177,2.1926e-05,4.7546e+07,9352.7,0,7.1249e+07,4413.2,12557,502.62,0,502.62,0,0.00013608,1.3688e-07,0,6.7907e-05,2.552e-05,5.4781e+07,46469,0,2.7313e+07,4742.8,502.62,1
1736,0.85,12124,1,12124,1,1.2084e-06,1.03e-09,0,0.00012086,-2.1984e-07,-1.635,349.63,0,4.8665e+07,1.051,12123,12992,1,12992,1,0.0002343,2.3539e-09,0,0.0002343,4.3483e-05,9.3277e+07,796.86,0,9.4315e+07,106.8,12991,12124,1,12124,1,1.2085e-06,1.0894e-09,0,0.00012086,-2.1673e-07,4.6376e+05,369.09,0,4.8696e+07,0.11283,12123,11209,1,11209,1,-0.00023188,-4.6088e-10,0,7.4237e-06,-4.3923e-05,-9.4315e+07,-155.31,0,3.0197e+06,-118.23,11208,11690,1,11690,1,-0.00011965,4.5354e-10,0,6.0428e-05,-2.2879e-05,-4.8665e+07,153.8,0,2.4371e+07,-30.03,11689,12558,1,12558,1,0.00012206,1.6469e-09,0,0.00018128,2.2439e-05,4.8696e+07,558.99,0,7.2969e+07,34.515,12557,502.62,0,502.62,0,0.0001395,7.405e-10,0,6.9629e-05,2.6156e-05,5.6161e+07,251.39,0,2.8006e+07,43.062,502.62,1
1736,0.86,12124,1,12124,1,1.2234e-06,1.3295e-09,0,0.00012227,-2.2261e-07,114.85,451.29,0,4.9235e+07,-19.411,12123,12992,1,12992,1,0.00023705,4.0559e-09,0,0.00023705,4.3993e-05,9.4368e+07,1373,0,9.5421e+07,96.907,12991,12124,1,12124,1,1.2232e-06,1.1132e-09,0,0.00012227,-2.1958e-07,4.694e+05,375.31,0,4.9267e+07,-14.85,12123,11209,1,11209,1,-0.0002346,-4.7203e-10,0,7.5102e-06,-4.4439e-05,-9.5421e+07,-161.68,0,3.0549e+06,-431.87,11208,11690,1,11690,1,-0.00012105,2.3761e-10,0,6.1136e-05,-2.3148e-05,-4.9235e+07,79.882,0,2.4656e+07,-49.824,11689,12558,1,12558,1,0.0001235,2.3068e-09,0,0.00018341,2.2702e-05,4.9267e+07,784.66,0,7.3824e+07,18.387,12557,502.62,0,502.62,0,0.00014114,1.1702e-09,0,7.0444e-05,2.6462e-05,5.6818e+07,397.33,0,2.8333e+07,60.867,502.62,1
1736,0.87,12124,1,12124,1,1.2375e-06,-1.0661e-09,0,0.00012369,-2.2516e-07,0.11196,-361.91,0,4.9807e+07,-9.0161,12123,12992,1,12992,1,0.0002398,4.5046e-10,0,0.0002398,4.4503e-05,9.5461e+07,151.91,0,9.6528e+07,104.67,12991,12124,1,12124,1,1.2375e-06,-9.5134e-10,0,0.00012369,-2.22e-07,4.7487e+05,-321.02,0,4.9839e+07,-10.014,12123,11209,1,11209,1,-0.00023732,-3.0486e-09,0,7.5974e-06,-4.4955e-05,-9.6528e+07,-1034.2,0,3.0903e+06,-95.971,11208,11690,1,11690,1,-0.00012245,-1.9562e-09,0,6.1846e-05,-2.3416e-05,-4.9807e+07,-664.07,0,2.4943e+07,-41.367,11689,12558,1,12558,1,0.00012493,-1.2338e-10,0,0.00018554,2.2965e-05,4.9839e+07,-42.258,0,7.4681e+07,20.291,12557,502.62,0,502.62,0,0.00014278,1.0196e-09,0,7.1262e-05,2.677e-05,5.7478e+07,346.18,0,2.8663e+07,40.656,502.62,1
1736,0.88,12124,1,12124,1,1.252e-06,-1.0172e-09,0,0.00012512,-2.2778e-07,-22.291,-345.32,0,5.0381e+07,-2.0245,12123,12992,1,12992,1,0.00024256,9.263e-10,0,0.00024256,4.5016e-05,9.656e+07,312.76,0,9.7641e+07,152.62,12991,12124,1,12124,1,1.2519e-06,-9.4886e-10,0,0.00012512,-2.2456e-07,4.8043e+05,-319.3,0,5.0414e+07,-8.4082,12123,11209,1,11209,1,-0.00024006,-3.2544e-09,0,7.6846e-06,-4.5473e-05,-9.7641e+07,-1101.7,0,3.1258e+06,-147.19,11208,11690,1,11690,1,-0.00012387,-1.9439e-09,0,6.2559e-05,-2.3686e-05,-5.0381e+07,-655.97,0,2.523e+07,-39.53,11689,12558,1,12558,1,0.00012637,3.562e-11,0,0.00018768,2.323e-05,5.0414e+07,12.145,0,7.5542e+07,35.341,12557,502.62,0,502.62,0,0.00014442,1.1346e-09,0,7.2083e-05,2.7078e-05,5.814e+07,385.12,0,2.8993e+07,57.574,502.62,1
1736,0.89,12124,1,12124,1,1.2672e-06,-1.5311e-09,0,0.00012653,-2.3062e-07,162.07,-519.81,0,5.095e+07,-32.878,12123,12992,1,12992,1,0.00024531,1.341e-09,0,0.00024531,4.5527e-05,9.7652e+07,452.79,0,9.8748e+07,105.87,12991,12124,1,12124,1,1.2671e-06,-1.1882e-09,0,0.00012653,-2.2739e-07,4.8625e+05,-405.94,0,5.0984e+07,-32.813,12123,11209,1,11209,1,-0.00024278,-5.4816e-09,0,7.7704e-06,-4.5989e-05,-9.8748e+07,-1858.6,0,3.1607e+06,-220.21,11208,11690,1,11690,1,-0.00012527,-3.0675e-09,0,6.3267e-05,-2.3954e-05,-5.0951e+07,-1043.2,0,2.5516e+07,-82.682,11689,12558,1,12558,1,0.0001278,1.1133e-10,0,0.0001898,2.3492e-05,5.0984e+07,37.732,0,7.6396e+07,25.721,12557,502.62,0,502.62,0,0.00014605,1.8214e-09,0,7.2898e-05,2.7384e-05,5.8797e+07,618.49,0,2.932e+07,69.122,502.62,1
1736,0.9,12124,1,12124,1,1.2638e-06,-2.8037e-08,0,0.00012579,-2.2807e-07,1363.2,-9517.9,0,5.0651e+07,796.16,12123,12992,1,12992,1,0.00024455,3.9754e-07,0,0.00024455,4.5377e-05,9.7344e+07,1.3458e+05,0,9.8438e+07,16672,12991,12124,1,12124,1,1.2605e-06,-1.37e-08,0,0.0001259,-2.2346e-07,4.8373e+05,-4592.7,0,5.0732e+07,446.04,12123,11209,1,11209,1,-0.00024202,-4.0281e-07,0,7.7119e-06,-4.5839e-05,-9.8438e+07,-1.3636e+05,0,3.1371e+06,-14241,11208,11690,1,11690,1,-0.00012464,-1.3344e-07,0,6.2963e-05,-2.3848e-05,-5.0693e+07,-45282,0,2.5392e+07,-3441,11689,12558,1,12558,1,0.00012717,5.9988e-08,0,0.00018885,2.3391e-05,5.0732e+07,20260,0,7.6013e+07,4825.8,12557,502.62,0,502.62,0,0.00014519,1.6123e-07,0,7.2455e-05,2.723e-05,5.8448e+07,54746,0,2.9141e+07,5879.1,502.62,1
1736,0.91,12124,1,12124,1,1.2807e-06,-9.3532e-08,0,0.00012763,-2.3548e-07,423.41,-31759,0,5.1391e+07,-1024.5,12123,12992,1,12992,1,0.00024878,4.0338e-07,0,0.00024878,4.6165e-05,9.9025e+07,1.3657e+05,0,1.0014e+08,13214,12991,12124,1,12124,1,1.2789e-06,-6.8122e-08,0,0.00012782,-2.343e-07,4.9044e+05,-23168,0,5.1501e+07,-922.38,12123,11209,1,11209,1,-0.00024619,-4.7916e-07,0,7.8199e-06,-4.6632e-05,-1.0014e+08,-1.6221e+05,0,3.1806e+06,-19766,11208,11690,1,11690,1,-0.00012654,-2.4832e-07,0,6.3926e-05,-2.4207e-05,-5.1468e+07,-83896,0,2.5782e+07,-5415.9,11689,12558,1,12558,1,0.0001291,3.0189e-08,0,0.00019175,2.3741e-05,5.1501e+07,10189,0,7.7176e+07,3568,12557,502.62,0,502.62,0,0.00014731,1.9928e-07,0,7.3512e-05,2.7627e-05,5.9302e+07,67682,0,2.9567e+07,6423.6,502.62,1
1736,0.92,12124,1,12124,1,1.2969e-06,-1.4728e-08,0,0.00012889,-2.3542e-07,1643.7,-5001.4,0,5.1896e+07,246.88,12123,12992,1,12992,1,0.00025059,4.5914e-07,0,0.00025059,4.6498e-05,9.9739e+07,1.5543e+05,0,1.0087e+08,18479,12991,12124,1,12124,1,1.2946e-06,-4.8116e-09,0,0.00012899,-2.3096e-07,4.9653e+05,-1630.3,0,5.1978e+07,-62.319,12123,11209,1,11209,1,-0.00024799,-4.1519e-07,0,7.8973e-06,-4.6971e-05,-1.0087e+08,-1.4055e+05,0,3.2126e+06,-15827,11208,11690,1,11690,1,-0.00012769,-1.2983e-07,0,6.4511e-05,-2.444e-05,-5.1936e+07,-43902,0,2.6017e+07,-4304.4,11689,12558,1,12558,1,0.00013029,8.4977e-08,0,0.00019349,2.3963e-05,5.1978e+07,28844,0,7.7878e+07,4141.2,12557,502.62,0,502.62,0,0.00014876,1.7804e-07,0,7.4235e-05,2.79e-05,5.9885e+07,60453,0,2.9857e+07,6485.6,502.62,1
1736,0.93,12124,1,12124,1,1.3207e-06,-3.7245e-08,0,0.0001303,-2.4245e-07,4735.5,-12654,0,5.2465e+07,-863.18,12123,12992,1,12992,1,0.00025358,4.725e-07,0,0.00025358,4.7043e-05,1.0092e+08,1.5995e+05,0,1.0205e+08,19616,12991,12124,1,12124,1,1.3141e-06,-1.9276e-08,0,0.00013045,-2.4006e-07,5.0387e+05,-6602.1,0,5.2567e+07,-1072.4,12123,11209,1,11209,1,-0.0002509,-4.5127e-07,0,7.9753e-06,-4.7533e-05,-1.0205e+08,-1.5319e+05,0,3.2444e+06,-17576,11208,11690,1,11690,1,-0.00012912,-1.6893e-07,0,6.5229e-05,-2.4713e-05,-5.2515e+07,-57220,0,2.6306e+07,-6488.3,11689,12558,1,12558,1,0.00013177,6.772e-08,0,0.00019566,2.423e-05,5.2567e+07,23194,0,7.8761e+07,3729,12557,502.62,0,502.62,0,0.0001504,1.9467e-07,0,7.5049e-05,2.8207e-05,6.0541e+07,66116,0,3.0183e+07,7185.2,502.62,1
1736,0.94,12124,1,12124,1,1.3261e-06,-4.826e-08,0,0.00013149,-2.4149e-07,1599.4,-16385,0,5.2945e+07,-67.169,12123,12992,1,12992,1,0.00025588,4.0494e-07,0,0.00025588,4.7479e-05,1.0183e+08,1.3708e+05,0,1.0299e+08,18517,12991,12124,1,12124,1,1.3213e-06,-2.2927e-08,0,0.00013165,-2.3701e-07,5.0704e+05,-7768.3,0,5.3047e+07,-346.82,12123,11209,1,11209,1,-0.00025322,-4.2379e-07,0,8.0555e-06,-4.7962e-05,-1.0299e+08,-1.4346e+05,0,3.277e+06,-16539,11208,11690,1,11690,1,-0.00013032,-1.6614e-07,0,6.5836e-05,-2.4936e-05,-5.3007e+07,-56227,0,2.6551e+07,-4727.8,11689,12558,1,12558,1,0.00013297,4.9551e-08,0,0.00019748,2.4455e-05,5.3047e+07,16827,0,7.9485e+07,3554.6,12557,502.62,0,502.62,0,0.00015177,1.7212e-07,0,7.5739e-05,2.8463e-05,6.1095e+07,58442,0,3.046e+07,6391.7,502.62,1
1736,0.95,12124,1,12124,1,1.3601e-06,4.4569e-09,0,0.00013507,-2.4757e-07,229.11,1512.6,0,5.4384e+07,-46.191,12123,12992,1,12992,1,0.00026189,9.6348e-09,0,0.00026189,4.86e-05,1.0422e+08,3254.3,0,1.0541e+08,317.61,12991,12124,1,12124,1,1.3602e-06,4.5145e-09,0,0.00013507,-2.4413e-07,5.2217e+05,1530.2,0,5.4426e+07,-63.846,12123,11209,1,11209,1,-0.00025917,-1.1786e-09,0,8.286e-06,-4.9096e-05,-1.0541e+08,-403.7,0,3.3705e+06,-287.31,11208,11690,1,11690,1,-0.00013371,1.7856e-09,0,6.7534e-05,-2.5572e-05,-5.4384e+07,604.22,0,2.7237e+07,-122.28,11689,12558,1,12558,1,0.00013643,7.2353e-09,0,0.0002026,2.5076e-05,5.4426e+07,2457.1,0,8.1547e+07,24.705,12557,502.62,0,502.62,0,0.00015591,3.0998e-09,0,7.7815e-05,2.9231e-05,6.2758e+07,1052.3,0,3.1294e+07,116.71,502.62,1
1736,0.96,12124,1,12124,1,1.3738e-06,-4.5663e-09,0,0.00013485,-2.5174e-07,4820.8,-1551.4,0,5.4295e+07,-702.74,12123,12992,1,12992,1,0.00026193,3.6433e-07,0,0.00026193,4.8597e-05,1.0422e+08,1.2334e+05,0,1.0542e+08,10014,12991,12124,1,12124,1,1.3706e-06,-2.2041e-10,0,0.00013492,-2.5086e-07,5.26e+05,-75.358,0,5.4374e+07,-524.84,12123,11209,1,11209,1,-0.00025918,-3.1991e-07,0,8.2527e-06,-4.9097e-05,-1.0542e+08,-1.083e+05,0,3.3572e+06,-12108,11208,11690,1,11690,1,-0.00013355,-8.8892e-08,0,6.7474e-05,-2.5564e-05,-5.432e+07,-29955,0,2.7212e+07,-4029.5,11689,12558,1,12558,1,0.0001363,7.2552e-08,0,0.00020238,2.5059e-05,5.4374e+07,24470,0,8.1455e+07,2712.8,12557,502.62,0,502.62,0,0.00015565,1.3454e-07,0,7.7678e-05,2.9189e-05,6.2653e+07,45684,0,3.1236e+07,4345.8,502.62,1
1736,0.97,12124,1,12124,1,1.3718e-06,-7.735e-08,0,0.00013581,-2.4945e-07,242.36,-26266,0,5.4681e+07,79.097,12123,12992,1,12992,1,0.00026456,5.3179e-07,0,0.00026456,4.9091e-05,1.0526e+08,1.816e+05,0,1.0649e+08,20454,12991,12124,1,12124,1,1.3621e-06,-5.1673e-08,0,0.000136,-2.4798e-07,5.2268e+05,-17478,0,5.4802e+07,-70.546,12123,11209,1,11209,1,-0.00026181,-5.7305e-07,0,8.3187e-06,-4.9591e-05,-1.0649e+08,-1.9399e+05,0,3.3833e+06,-18166,11208,11690,1,11690,1,-0.00013463,-2.4868e-07,0,6.8019e-05,-2.5763e-05,-5.4757e+07,-84097,0,2.7432e+07,-6201.8,11689,12558,1,12558,1,0.00013737,5.6397e-08,0,0.00020402,2.5268e-05,5.4801e+07,19316,0,8.2113e+07,5715.3,12557,502.62,0,502.62,0,0.00015676,2.4327e-07,0,7.8222e-05,2.9402e-05,6.3096e+07,82595,0,3.1455e+07,8127.1,502.62,1
1736,0.98,12124,1,12124,1,1.3889e-06,-7.084e-08,0,0.00013725,-2.5129e-07,911.51,-24064,0,5.5261e+07,614.17,12123,12992,1,12992,1,0.0002673,4.9265e-07,0,0.0002673,4.9595e-05,1.0634e+08,1.6678e+05,0,1.0758e+08,24185,12991,12124,1,12124,1,1.3805e-06,-4.3707e-08,0,0.00013744,-2.368e-07,5.2993e+05,-14790,0,5.5384e+07,-575.1,12123,11209,1,11209,1,-0.0002645,-4.967e-07,0,8.4022e-06,-5.0104e-05,-1.0758e+08,-1.6814e+05,0,3.4176e+06,-14610,11208,11690,1,11690,1,-0.00013604,-2.2686e-07,0,6.8722e-05,-2.6037e-05,-5.533e+07,-77270,0,2.7716e+07,-4558.5,11689,12558,1,12558,1,0.00013883,5.1826e-08,0,0.00020616,2.5528e-05,5.5384e+07,17555,0,8.2975e+07,4558.3,12557,502.62,0,502.62,0,0.00015842,2.126e-07,0,7.9053e-05,2.9711e-05,6.3765e+07,72182,0,3.1789e+07,7653.2,502.62,1
1736,0.99,12124,1,12124,1,1.4026e-06,-2.9716e-08,0,0.00013882,-2.5668e-07,-2346.3,-10095,0,5.5889e+07,-608.57,12123,12992,1,12992,1,0.00027003,4.797e-07,0,0.00027003,5.0106e-05,1.0741e+08,1.6239e+05,0,1.0869e+08,23097,12991,12124,1,12124,1,1.3981e-06,-1.7893e-08,0,0.00013894,-2.5381e-07,5.3665e+05,-6061.6,0,5.5987e+07,-820.18,12123,11209,1,11209,1,-0.00026723,-3.9812e-07,0,8.4976e-06,-5.0615e-05,-1.0869e+08,-1.3477e+05,0,3.4559e+06,-20047,11208,11690,1,11690,1,-0.00013754,-1.5893e-07,0,6.9493e-05,-2.6322e-05,-5.5941e+07,-53674,0,2.8026e+07,-5241.7,11689,12558,1,12558,1,0.00014034,7.2052e-08,0,0.00020842,2.5813e-05,5.5987e+07,24416,0,8.3876e+07,3630.1,12557,502.62,0,502.62,0,0.00016023,1.8897e-07,0,7.9958e-05,3.0048e-05,6.4491e+07,64160,0,3.215e+07,6603.5,502.62,1
1736,1,12124,1,12124,1,1.4326e-06,-7.7908e-08,0,0.00014027,-2.6344e-07,1148.2,-26445,0,5.647e+07,-1124,12123,12992,1,12992,1,0.00027294,3.8861e-07,0,0.00027294,5.0639e-05,1.0855e+08,1.327e+05,0,1.0985e+08,22087,12991,12124,1,12124,1,1.4336e-06,-5.9534e-08,0,0.00014042,-2.6673e-07,5.5029e+05,-20242,0,5.6587e+07,-1341.2,12123,11209,1,11209,1,-0.00027007,-3.9941e-07,0,8.5716e-06,-5.1161e-05,-1.0985e+08,-1.3564e+05,0,3.4863e+06,-16302,11208,11690,1,11690,1,-0.00013898,-2.0064e-07,0,7.0218e-05,-2.6602e-05,-5.6527e+07,-67867,0,2.8319e+07,-4958.3,11689,12558,1,12558,1,0.00014185,1.4229e-08,0,0.00021062,2.6069e-05,5.6587e+07,4819.3,0,8.4764e+07,2249.5,12557,502.62,0,502.62,0,0.0001619,1.6624e-07,0,8.0794e-05,3.0361e-05,6.516e+07,56473,0,3.2483e+07,6433.7,502.62,1
1736,1.01,12124,1,12124,1,1.4409e-06,-3.865e-08,0,0.0001419,-2.6036e-07,-4749.5,-13135,0,5.7123e+07,768.96,12123,12992,1,12992,1,0.00027596,4.0637e-07,0,0.00027596,5.12e-05,1.0973e+08,1.3721e+05,0,1.1107e+08,18455,12991,12124,1,12124,1,1.4283e-06,-2.3228e-08,0,0.00014203,-2.5646e-07,5.4848e+05,-7890.9,0,5.7232e+07,164.54,12123,11209,1,11209,1,-0.00027306,-3.5543e-07,0,8.6881e-06,-5.1726e-05,-1.1107e+08,-1.211e+05,0,3.5339e+06,-9686.6,11208,11690,1,11690,1,-0.00014059,-1.4355e-07,0,7.102e-05,-2.6899e-05,-5.7181e+07,-48796,0,2.8643e+07,-3601.1,11689,12558,1,12558,1,0.00014347,4.3629e-08,0,0.00021304,2.6378e-05,5.7232e+07,14758,0,8.5732e+07,3909.3,12557,502.62,0,502.62,0,0.00016378,1.5712e-07,0,8.1733e-05,3.0713e-05,6.5913e+07,53352,0,3.2857e+07,5482.4,502.62,1
1736,1.02,12124,1,12124,1,1.4679e-06,-3.6159e-08,0,0.00014324,-2.666e-07,-2522.6,-12290,0,5.7659e+07,237.53,12123,12992,1,12992,1,0.00027852,3.4435e-07,0,0.00027852,5.1666e-05,1.1072e+08,1.1627e+05,0,1.1208e+08,14167,12991,12124,1,12124,1,1.4565e-06,-1.7028e-08,0,0.00014337,-2.6084e-07,5.5928e+05,-5747.5,0,5.7775e+07,83.677,12123,11209,1,11209,1,-0.00027555,-3.7037e-07,0,8.7557e-06,-5.2205e-05,-1.1208e+08,-1.2612e+05,0,3.5615e+06,-12365,11208,11690,1,11690,1,-0.00014189,-1.3393e-07,0,7.1684e-05,-2.7156e-05,-5.771e+07,-45473,0,2.891e+07,-3753.4,11689,12558,1,12558,1,0.00014483,4.9668e-08,0,0.00021503,2.6621e-05,5.7774e+07,16830,0,8.6528e+07,3683.8,12557,502.62,0,502.62,0,0.00016533,1.5066e-07,0,8.2507e-05,3.1003e-05,6.6531e+07,51157,0,3.3165e+07,4916.9,502.62,1
1736,1.03,12124,1,12124,1,1.4871e-06,1.2739e-08,0,0.00014437,-2.7275e-07,-2240.5,4319.9,0,5.8112e+07,-865.53,12123,12992,1,12992,1,0.00028051,4.7204e-07,0,0.00028051,5.205e-05,1.115e+08,1.6105e+05,0,1.1289e+08,18779,12991,12124,1,12124,1,1.4935e-06,5.0453e-09,0,0.00014444,-2.7284e-07,5.7308e+05,1728.1,0,5.8218e+07,-935.65,12123,11209,1,11209,1,-0.00027755,-3.5864e-07,0,8.8047e-06,-5.2578e-05,-1.1289e+08,-1.2228e+05,0,3.5819e+06,-13707,11208,11690,1,11690,1,-0.00014297,-9.012e-08,0,7.2261e-05,-2.7374e-05,-5.8148e+07,-30448,0,2.9141e+07,-5355.2,11689,12558,1,12558,1,0.00014594,1.1083e-07,0,0.0002167,2.6838e-05,5.8218e+07,37675,0,8.7168e+07,3625.8,12557,502.62,0,502.62,0,0.00016663,1.7355e-07,0,8.3155e-05,3.1249e-05,6.7052e+07,58953,0,3.3423e+07,6237,502.62,1
1736,1.04,12124,1,12124,1,1.5171e-06,-8.7632e-09,0,0.00014603,-2.7891e-07,672.7,-2977.8,0,5.8778e+07,-1135.7,12123,12992,1,12992,1,0.00028382,4.3994e-07,0,0.00028382,5.2645e-05,1.128e+08,1.5023e+05,0,1.142e+08,17505,12991,12124,1,12124,1,1.5228e-06,-5.6881e-09,0,0.00014611,-2.8136e-07,5.846e+05,-1926.7,0,5.8895e+07,-1282.6,12123,11209,1,11209,1,-0.00028077,-3.6864e-07,0,8.8945e-06,-5.3198e-05,-1.142e+08,-1.2561e+05,0,3.6185e+06,-13301,11208,11690,1,11690,1,-0.00014459,-1.0934e-07,0,7.308e-05,-2.7688e-05,-5.881e+07,-37235,0,2.9472e+07,-5630,11689,12558,1,12558,1,0.00014764,8.0843e-08,0,0.00021918,2.7136e-05,5.8895e+07,27277,0,8.8177e+07,3167.9,12557,502.62,0,502.62,0,0.00016855,1.677e-07,0,8.4113e-05,3.1608e-05,6.782e+07,56968,0,3.3805e+07,5859.2,502.62,1
1736,1.05,12124,1,12124,1,1.5392e-06,-8.7232e-08,0,0.00014704,-2.8247e-07,2135.8,-29616,0,5.9183e+07,-922.01,12123,12992,1,12992,1,0.00028626,3.0839e-07,0,0.00028626,5.3092e-05,1.1374e+08,1.0531e+05,0,1.1517e+08,16523,12991,12124,1,12124,1,1.5378e-06,-5.6408e-08,0,0.00014723,-2.7975e-07,5.9075e+05,-19075,0,5.9337e+07,-1130.6,12123,11209,1,11209,1,-0.00028316,-4.5127e-07,0,8.9482e-06,-5.3656e-05,-1.1517e+08,-1.5363e+05,0,3.6401e+06,-10649,11208,11690,1,11690,1,-0.00014568,-1.9656e-07,0,7.3625e-05,-2.7895e-05,-5.9253e+07,-67179,0,2.9692e+07,-5077.6,11689,12558,1,12558,1,0.00014875,1.3184e-08,0,0.00022083,2.733e-05,5.9337e+07,4456.7,0,8.8847e+07,2602.3,12557,502.62,0,502.62,0,0.00016972,1.6271e-07,0,8.4699e-05,3.1827e-05,6.8287e+07,55276,0,3.4037e+07,5199.4,502.62,1
1736,1.06,12124,1,12124,1,1.5483e-06,-1.2865e-07,0,0.00014845,-2.8391e-07,-2183,-43677,0,5.975e+07,-852.65,12123,12992,1,12992,1,0.00028932,2.2659e-07,0,0.00028932,5.3663e-05,1.1494e+08,77375,0,1.1641e+08,17440,12991,12124,1,12124,1,1.5389e-06,-9.1166e-08,0,0.00014868,-2.7706e-07,5.9191e+05,-30793,0,5.9914e+07,-1109.3,12123,11209,1,11209,1,-0.00028619,-4.8747e-07,0,9.041e-06,-5.4231e-05,-1.1641e+08,-1.6603e+05,0,3.6776e+06,-11213,11208,11690,1,11690,1,-0.00014712,-2.5386e-07,0,7.4345e-05,-2.8164e-05,-5.9839e+07,-86209,0,2.9983e+07,-4781.3,11689,12558,1,12558,1,0.0001502,-1.0238e-08,0,0.000223,2.7599e-05,5.9914e+07,-3504,0,8.9721e+07,2042.1,12557,502.62,0,502.62,0,0.00017135,1.6741e-07,0,8.5513e-05,3.2131e-05,6.8941e+07,56877,0,3.4362e+07,5263.2,502.62,1
1736,1.07,12124,1,12124,1,1.5753e-06,-8.1448e-08,0,0.00014971,-2.9019e-07,430.32,-27653,0,6.0252e+07,-1397.9,12123,12992,1,12992,1,0.00029149,4.1386e-07,0,0.00029149,5.4059e-05,1.1578e+08,1.4126e+05,0,1.1727e+08,19310,12991,12124,1,12124,1,1.5739e-06,-5.7515e-08,0,0.0001499,-2.9036e-07,6.0458e+05,-19649,0,6.0419e+07,-1514.9,12123,11209,1,11209,1,-0.00028831,-4.7627e-07,0,9.1004e-06,-5.4637e-05,-1.1727e+08,-1.6215e+05,0,3.7022e+06,-13786,11208,11690,1,11690,1,-0.00014832,-2.0997e-07,0,7.4964e-05,-2.8407e-05,-6.0326e+07,-71591,0,3.0232e+07,-6140,11689,12558,1,12558,1,0.00015147,2.4925e-08,0,0.00022484,2.7826e-05,6.0419e+07,8388,0,9.0448e+07,2681.6,12557,502.62,0,502.62,0,0.0001728,1.8855e-07,0,8.6233e-05,3.2405e-05,6.9518e+07,64048,0,3.4648e+07,6337.5,502.62,1
1736,1.08,12124,1,12124,1,1.5911e-06,-4.0449e-08,0,0.00015117,-2.919e-07,-1941.4,-13736,0,6.0838e+07,-916.07,12123,12992,1,12992,1,0.00029411,4.1721e-07,0,0.00029411,5.4546e-05,1.168e+08,1.4247e+05,0,1.1833e+08,19475,12991,12124,1,12124,1,1.5936e-06,-2.0786e-08,0,0.00015132,-2.8984e-07,6.1224e+05,-7044.9,0,6.0999e+07,-1016.6,12123,11209,1,11209,1,-0.00029091,-4.334e-07,0,9.1875e-06,-5.5128e-05,-1.1833e+08,-1.4771e+05,0,3.7376e+06,-12866,11208,11690,1,11690,1,-0.00014973,-1.5607e-07,0,7.5684e-05,-2.8677e-05,-6.0899e+07,-53040,0,3.0522e+07,-5674.5,11689,12558,1,12558,1,0.00015292,5.8911e-08,0,0.00022699,2.8092e-05,6.0999e+07,20109,0,9.13e+07,3279.1,12557,502.62,0,502.62,0,0.00017449,1.7876e-07,0,8.7076e-05,3.2721e-05,7.0194e+07,60722,0,3.4983e+07,6119,502.62,1
1736,1.09,12124,1,12124,1,1.6135e-06,-4.9907e-08,0,0.00015242,-2.979e-07,-1466.3,-16946,0,6.1337e+07,-1706.1,12123,12992,1,12992,1,0.0002968,6.1722e-07,0,0.0002968,5.5039e-05,1.1785e+08,2.1039e+05,0,1.1939e+08,22261,12991,12124,1,12124,1,1.6129e-06,-3.6395e-08,0,0.00015261,-3.013e-07,6.1952e+05,-12218,0,6.1518e+07,-1537.1,12123,11209,1,11209,1,-0.00029354,-5.3564e-07,0,9.2528e-06,-5.5632e-05,-1.1939e+08,-1.8237e+05,0,3.7643e+06,-18426,11208,11690,1,11690,1,-0.00015098,-2.1875e-07,0,7.6321e-05,-2.8926e-05,-6.141e+07,-74047,0,3.0779e+07,-7780,11689,12558,1,12558,1,0.00015423,7.5048e-08,0,0.00022891,2.833e-05,6.1518e+07,25500,0,9.2071e+07,3911.8,12557,502.62,0,502.62,0,0.00017593,2.4574e-07,0,8.7791e-05,3.2995e-05,7.0769e+07,83468,0,3.5267e+07,7982.7,502.62,1
1736,1.1,12124,1,12124,1,1.6519e-06,-6.5476e-08,0,0.00015433,-3.0564e-07,3076.2,-22229,0,6.2103e+07,-1991.5,12123,12992,1,12992,1,0.00030049,4.1322e-07,0,0.00030049,5.5719e-05,1.1929e+08,1.4111e+05,0,1.2087e+08,16993,12991,12124,1,12124,1,1.6503e-06,-4.4184e-08,0,0.00015452,-3.0811e-07,6.3441e+05,-14981,0,6.2289e+07,-1866.5,12123,11209,1,11209,1,-0.00029717,-4.3388e-07,0,9.3569e-06,-5.6324e-05,-1.2087e+08,-1.4784e+05,0,3.8065e+06,-13816,11208,11690,1,11690,1,-0.00015286,-1.975e-07,0,7.7275e-05,-2.9285e-05,-6.2174e+07,-66868,0,3.1164e+07,-6748.6,11689,12558,1,12558,1,0.00015617,4.0792e-08,0,0.00023178,2.8676e-05,6.2292e+07,13871,0,9.3219e+07,1794.9,12557,502.62,0,502.62,0,0.00017813,1.8749e-07,0,8.8897e-05,3.3404e-05,7.1653e+07,63693,0,3.5708e+07,5931,502.62,1
1736,1.11,12124,1,12124,1,1.6584e-06,-3.0743e-08,0,0.00015524,-3.0098e-07,-1936.9,-10450,0,6.2464e+07,452.88,12123,12992,1,12992,1,0.00030205,5.8586e-07,0,0.00030205,5.6006e-05,1.1988e+08,1.9854e+05,0,1.2149e+08,25209,12991,12124,1,12124,1,1.6496e-06,-2.2116e-08,0,0.00015539,-2.9721e-07,6.3492e+05,-7529.8,0,6.2639e+07,-16.749,12123,11209,1,11209,1,-0.0002987,-5.032e-07,0,9.4182e-06,-5.6615e-05,-1.2149e+08,-1.7058e+05,0,3.8311e+06,-17090,11208,11690,1,11690,1,-0.00015371,-1.9112e-07,0,7.7699e-05,-2.9451e-05,-6.252e+07,-64882,0,3.1335e+07,-5286.1,11689,12558,1,12558,1,0.00015705,9.4566e-08,0,0.00023307,2.8851e-05,6.2641e+07,31868,0,9.3727e+07,5315,12557,502.62,0,502.62,0,0.00017918,2.3312e-07,0,8.9417e-05,3.3605e-05,7.2067e+07,79157,0,3.5912e+07,7525.7,502.62,1
1736,1.12,12124,1,12124,1,1.7042e-06,-7.1122e-08,0,0.00015639,-3.1167e-07,7083.8,-24153,0,6.2922e+07,-473.39,12123,12992,1,12992,1,0.00030442,4.5598e-07,0,0.00030442,5.6435e-05,1.208e+08,1.5436e+05,0,1.2243e+08,15316,12991,12124,1,12124,1,1.6953e-06,-3.1889e-08,0,0.00015658,-3.0704e-07,6.532e+05,-10804,0,6.3115e+07,-592.37,12123,11209,1,11209,1,-0.000301,-5.7892e-07,0,9.4576e-06,-5.7058e-05,-1.2243e+08,-1.9597e+05,0,3.8474e+06,-14963,11208,11690,1,11690,1,-0.00015486,-2.0948e-07,0,7.83e-05,-2.9686e-05,-6.2987e+07,-71432,0,3.1577e+07,-6150.3,11689,12558,1,12558,1,0.00015828,5.2576e-08,0,0.00023486,2.9064e-05,6.3127e+07,17815,0,9.4436e+07,5115.8,12557,502.62,0,502.62,0,0.00018051,2.0994e-07,0,9.0078e-05,3.3852e-05,7.2594e+07,71271,0,3.6173e+07,6741.1,502.62,1
1736,1.13,12124,1,12124,1,1.7429e-06,3.6856e-09,0,0.00016068,-3.1786e-07,-92.355,1250.1,0,6.4647e+07,-157.45,12123,12992,1,12992,1,0.00031166,9.1409e-09,0,0.00031166,5.779e-05,1.2365e+08,3074.2,0,1.2535e+08,232.81,12991,12124,1,12124,1,1.7456e-06,3.8136e-09,0,0.00016068,-3.1466e-07,6.726e+05,1303.7,0,6.4772e+07,-155.74,12123,11209,1,11209,1,-0.00030818,-2.4693e-09,0,9.7278e-06,-5.8425e-05,-1.2535e+08,-828.63,0,3.957e+06,-468.22,11208,11690,1,11690,1,-0.00015894,1.1893e-09,0,8.0343e-05,-3.0446e-05,-6.4646e+07,402.65,0,3.2402e+07,-289.93,11689,12558,1,12558,1,0.00016243,6.0859e-09,0,0.00024103,2.9807e-05,6.4777e+07,2062.7,0,9.691e+07,-33.092,12557,502.62,0,502.62,0,0.00018548,3.0517e-09,0,9.2577e-05,3.4775e-05,7.4588e+07,1032.7,0,3.7172e+07,151.48,502.62,1
1736,1.14,12124,1,12124,1,1.7911e-06,-2.8288e-08,0,0.00016065,-3.2622e-07,4060.9,-9608.1,0,6.4617e+07,90.12,12123,12992,1,12992,1,0.0003121,2.5416e-07,0,0.0003121,5.7851e-05,1.2373e+08,86039,0,1.2549e+08,10008,12991,12124,1,12124,1,1.7894e-06,-1.3836e-08,0,0.00016074,-3.2122e-07,6.906e+05,-4693.5,0,6.4786e+07,-139.13,12123,11209,1,11209,1,-0.00030853,-2.8752e-07,0,9.6787e-06,-5.85e-05,-1.2549e+08,-97327,0,3.9364e+06,-6692.2,11208,11690,1,11690,1,-0.00015895,-9.2154e-08,0,8.0379e-05,-3.0473e-05,-6.4648e+07,-31497,0,3.2416e+07,-2888.5,11689,12558,1,12558,1,0.00016253,2.7683e-08,0,0.00024111,2.982e-05,6.48e+07,9290.7,0,9.691e+07,2339,12557,502.62,0,502.62,0,0.00018543,1.0296e-07,0,9.2545e-05,3.477e-05,7.4548e+07,34950,0,3.7143e+07,3469.2,502.62,1
1736,1.15,12124,1,12124,1,1.7926e-06,1.3921e-08,0,0.00016152,-3.258e-07,702.61,4709.1,0,6.4966e+07,370.47,12123,12992,1,12992,1,0.0003141,5.6862e-07,0,0.0003141,5.8228e-05,1.2452e+08,1.9249e+05,0,1.263e+08,13601,12991,12124,1,12124,1,1.7818e-06,5.3229e-09,0,0.00016166,-3.1558e-07,6.8795e+05,1788,0,6.5154e+07,581.31,12123,11209,1,11209,1,-0.00031052,-4.7324e-07,0,9.7323e-06,-5.8879e-05,-1.263e+08,-1.602e+05,0,3.9576e+06,-24565,11208,11690,1,11690,1,-0.00015985,-1.0805e-07,0,8.0839e-05,-3.0672e-05,-6.5016e+07,-36347,0,3.2602e+07,-5154.7,11689,12558,1,12558,1,0.00016345,1.3478e-07,0,0.00024246,3e-05,6.5165e+07,46005,0,9.7451e+07,6405.3,12557,502.62,0,502.62,0,0.00018643,2.0555e-07,0,9.3035e-05,3.4962e-05,7.4949e+07,69749,0,3.734e+07,7570.8,502.62,1
1736,1.16,12124,1,12124,1,1.8234e-06,-6.5536e-08,0,0.00016286,-3.3482e-07,3760.1,-22247,0,6.5502e+07,-1027.8,12123,12992,1,12992,1,0.00031709,5.0759e-07,0,0.00031709,5.8766e-05,1.2568e+08,1.7183e+05,0,1.2748e+08,16198,12991,12124,1,12124,1,1.8185e-06,-3.4678e-08,0,0.00016305,-3.3518e-07,7.0124e+05,-11827,0,6.5715e+07,-677.16,12123,11209,1,11209,1,-0.00031341,-5.276e-07,0,9.7947e-06,-5.9436e-05,-1.2748e+08,-1.786e+05,0,3.9843e+06,-23012,11208,11690,1,11690,1,-0.00016122,-2.179e-07,0,8.1532e-05,-3.0915e-05,-6.5571e+07,-73732,0,3.288e+07,-5921.7,11689,12558,1,12558,1,0.00016486,6.0478e-08,0,0.00024456,3.0254e-05,6.5727e+07,20349,0,9.83e+07,4093.2,12557,502.62,0,502.62,0,0.00018797,2.1804e-07,0,9.3807e-05,3.5252e-05,7.5566e+07,74036,0,3.7647e+07,7135.8,502.62,1
1736,1.17,12124,1,12124,1,1.8625e-06,-1.2839e-08,0,0.00016452,-3.3914e-07,7157.3,-4372.4,0,6.6166e+07,173.88,12123,12992,1,12992,1,0.00031977,4.3712e-07,0,0.00031977,5.9256e-05,1.2671e+08,1.4797e+05,0,1.2855e+08,17336,12991,12124,1,12124,1,1.8559e-06,-7.6257e-09,0,0.00016461,-3.3465e-07,7.171e+05,-2565.2,0,6.6343e+07,-146.69,12123,11209,1,11209,1,-0.00031604,-3.4203e-07,0,9.8851e-06,-5.9937e-05,-1.2855e+08,-1.1578e+05,0,4.0194e+06,-13293,11208,11690,1,11690,1,-0.00016274,-1.0647e-07,0,8.2315e-05,-3.1222e-05,-6.6194e+07,-36016,0,3.3196e+07,-4339.9,11689,12558,1,12558,1,0.00016647,6.4756e-08,0,0.00024691,3.054e-05,6.6363e+07,21813,0,9.9222e+07,3734.7,12557,502.62,0,502.62,0,0.0001899,1.4955e-07,0,9.477e-05,3.5609e-05,7.6332e+07,50753,0,3.8028e+07,5680.3,502.62,1
1736,1.18,12124,1,12124,1,1.8735e-06,-2.926e-08,0,0.00016579,-3.4223e-07,-657.28,-9941.8,0,6.6668e+07,-305.39,12123,12992,1,12992,1,0.00032244,4.5919e-07,0,0.00032244,5.9752e-05,1.2773e+08,1.5544e+05,0,1.2961e+08,15253,12991,12124,1,12124,1,1.8647e-06,-9.9295e-09,0,0.00016592,-3.3807e-07,7.1972e+05,-3326.1,0,6.6868e+07,-499.9,12123,11209,1,11209,1,-0.00031866,-4.4962e-07,0,9.961e-06,-6.0436e-05,-1.2961e+08,-1.522e+05,0,4.0521e+06,-14012,11208,11690,1,11690,1,-0.00016403,-1.4762e-07,0,8.2966e-05,-3.1466e-05,-6.6718e+07,-50326,0,3.3459e+07,-5370.7,11689,12558,1,12558,1,0.00016779,7.5089e-08,0,0.00024886,3.0782e-05,6.6882e+07,25328,0,1e+08,4370.5,12557,502.62,0,502.62,0,0.00019135,1.8176e-07,0,9.5497e-05,3.5885e-05,7.6909e+07,61690,0,3.8313e+07,6227.6,502.62,1
1736,1.19,12124,1,12124,1,1.9067e-06,-2.5043e-08,0,0.0001673,-3.5161e-07,633.02,-8500.7,0,6.7271e+07,-1673.4,12123,12992,1,12992,1,0.0003254,4.6012e-07,0,0.0003254,6.0289e-05,1.2887e+08,1.5576e+05,0,1.3078e+08,10935,12991,12124,1,12124,1,1.898e-06,-1.0187e-08,0,0.00016743,-3.517e-07,7.3283e+05,-3454.6,0,6.7473e+07,-1065.2,12123,11209,1,11209,1,-0.00032154,-4.5345e-07,0,1.0036e-05,-6.0991e-05,-1.3078e+08,-1.535e+05,0,4.0818e+06,-23099,11208,11690,1,11690,1,-0.0001655,-1.5532e-07,0,8.3711e-05,-3.1761e-05,-6.7312e+07,-52374,0,3.3759e+07,-6632.9,11689,12558,1,12558,1,0.00016933,8.8466e-08,0,0.00025111,3.1059e-05,6.7492e+07,30245,0,1.009e+08,4086.9,12557,502.62,0,502.62,0,0.0001931,1.9324e-07,0,9.6369e-05,3.6213e-05,7.7604e+07,65607,0,3.8657e+07,6787.5,502.62,1
1736,1.2,12124,1,12124,1,1.9287e-06,-8.4613e-08,0,0.00016808,-3.5456e-07,-18.011,-28714,0,6.7578e+07,-1214.9,12123,12992,1,12992,1,0.00032745,5.4119e-07,0,0.00032745,6.0666e-05,1.2965e+08,1.832e+05,0,1.316e+08,19884,12991,12124,1,12124,1,1.9214e-06,-4.7365e-08,0,0.0001683,-3.5103e-07,7.416e+05,-15898,0,6.7824e+07,-1182.1,12123,11209,1,11209,1,-0.00032354,-5.9183e-07,0,1.0057e-05,-6.1378e-05,-1.316e+08,-2.0033e+05,0,4.0915e+06,-17674,11208,11690,1,11690,1,-0.00016635,-2.5637e-07,0,8.4148e-05,-3.1925e-05,-6.7659e+07,-86541,0,3.3935e+07,-7624.5,11689,12558,1,12558,1,0.00017022,5.5328e-08,0,0.00025243,3.1216e-05,6.7839e+07,18656,0,1.0142e+08,4297.4,12557,502.62,0,502.62,0,0.000194,2.4012e-07,0,9.6812e-05,3.6382e-05,7.7955e+07,81522,0,3.8829e+07,7778.9,502.62,1
1736,1.21,12124,1,12124,1,1.9627e-06,-2.9994e-08,0,0.00016997,-3.584e-07,1890.8,-10182,0,6.8337e+07,-219.22,12123,12992,1,12992,1,0.00033067,4.2364e-07,0,0.00033067,6.1259e-05,1.3089e+08,1.434e+05,0,1.3288e+08,24883,12991,12124,1,12124,1,1.9596e-06,-1.3257e-08,0,0.0001701,-3.518e-07,7.5683e+05,-4495.7,0,6.8546e+07,-948.32,12123,11209,1,11209,1,-0.0003267,-4.2161e-07,0,1.0165e-05,-6.1978e-05,-1.3288e+08,-1.4271e+05,0,4.135e+06,-14031,11208,11690,1,11690,1,-0.00016812,-1.5039e-07,0,8.5054e-05,-3.2265e-05,-6.8379e+07,-51005,0,3.4301e+07,-5427.7,11689,12558,1,12558,1,0.00017207,7.846e-08,0,0.00025513,3.1551e-05,6.857e+07,26679,0,1.0249e+08,3563.5,12557,502.62,0,502.62,0,0.00019619,1.8293e-07,0,9.791e-05,3.679e-05,7.8832e+07,62108,0,3.9266e+07,6951,502.62,1
1736,1.22,12124,1,12124,1,1.9901e-06,-1.0106e-07,0,0.00017131,-3.6109e-07,-1186.2,-34279,0,6.8865e+07,749.11,12123,12992,1,12992,1,0.00033387,3.3466e-07,0,0.00033387,6.1832e-05,1.3211e+08,1.1428e+05,0,1.3412e+08,20948,12991,12124,1,12124,1,1.9825e-06,-6.0045e-08,0,0.00017155,-3.5548e-07,7.6612e+05,-20340,0,6.9125e+07,704.17,12123,11209,1,11209,1,-0.00032975,-5.0709e-07,0,1.0233e-05,-6.2579e-05,-1.3412e+08,-1.7165e+05,0,4.1624e+06,-17190,11208,11690,1,11690,1,-0.00016953,-2.3179e-07,0,8.5782e-05,-3.2532e-05,-6.8955e+07,-78278,0,3.4594e+07,-4292.8,11689,12558,1,12558,1,0.00017352,1.6469e-08,0,0.00025728,3.1812e-05,6.914e+07,5612.5,0,1.0336e+08,4949.9,12557,502.62,0,502.62,0,0.00019773,1.8394e-07,0,9.868e-05,3.7079e-05,7.944e+07,62441,0,3.9566e+07,6416.8,502.62,1
1736,1.23,12124,1,12124,1,2.0236e-06,-8.814e-08,0,0.00017212,-3.6991e-07,-541.58,-29921,0,6.9184e+07,-354.89,12123,12992,1,12992,1,0.00033537,5.2841e-07,0,0.00033537,6.2115e-05,1.3265e+08,1.7887e+05,0,1.3474e+08,15368,12991,12124,1,12124,1,2.012e-06,-5.6117e-08,0,0.00017236,-3.6998e-07,7.7764e+05,-19005,0,6.9445e+07,-27.209,12123,11209,1,11209,1,-0.00033127,-6.2476e-07,0,1.0263e-05,-6.2859e-05,-1.3474e+08,-2.1198e+05,0,4.1745e+06,-21378,11208,11690,1,11690,1,-0.00017031,-2.5903e-07,0,8.6176e-05,-3.27e-05,-6.927e+07,-88014,0,3.4752e+07,-5590.3,11689,12558,1,12558,1,0.00017437,5.2784e-08,0,0.00025851,3.1964e-05,6.9464e+07,17975,0,1.0382e+08,5725.2,12557,502.62,0,502.62,0,0.00019867,2.4561e-07,0,9.9145e-05,3.7258e-05,7.9805e+07,83392,0,3.9745e+07,7731.6,502.62,1
1736,1.24,12124,1,12124,1,2.0691e-06,-6.0266e-08,0,0.00017409,-3.7716e-07,3941.4,-20462,0,6.9969e+07,115.24,12123,12992,1,12992,1,0.00033889,4.7819e-07,0,0.00033889,6.2761e-05,1.3402e+08,1.6187e+05,0,1.3614e+08,21371,12991,12124,1,12124,1,2.0548e-06,-4.2082e-08,0,0.00017426,-3.7284e-07,7.9468e+05,-14250,0,7.0211e+07,-438.14,12123,11209,1,11209,1,-0.00033472,-4.7567e-07,0,1.036e-05,-6.3519e-05,-1.3614e+08,-1.615e+05,0,4.2141e+06,-20524,11208,11690,1,11690,1,-0.00017218,-1.8765e-07,0,8.7127e-05,-3.3061e-05,-7.003e+07,-63619,0,3.5136e+07,-4752.1,11689,12558,1,12558,1,0.00017632,4.1775e-08,0,0.00026137,3.2306e-05,7.0234e+07,14105,0,1.0496e+08,3974.3,12557,502.62,0,502.62,0,0.00020094,1.9022e-07,0,0.00010028,3.768e-05,8.071e+07,64589,0,4.0196e+07,6808.5,502.62,1
1736,1.25,12124,1,12124,1,2.1191e-06,-4.5465e-08,0,0.00017549,-3.8997e-07,5959.8,-15434,0,7.0523e+07,-1395.3,12123,12992,1,12992,1,0.00034151,4.6622e-07,0,0.00034151,6.3235e-05,1.35e+08,1.5919e+05,0,1.3718e+08,14079,12991,12124,1,12124,1,2.1114e-06,-3.1388e-08,0,0.00017564,-3.953e-07,8.1684e+05,-10533,0,7.076e+07,-1122.1,12123,11209,1,11209,1,-0.00033725,-4.5125e-07,0,1.0406e-05,-6.401e-05,-1.3718e+08,-1.5312e+05,0,4.2333e+06,-19999,11208,11690,1,11690,1,-0.00017351,-1.6606e-07,0,8.7827e-05,-3.3331e-05,-7.0573e+07,-56506,0,3.5417e+07,-5350.1,11689,12558,1,12558,1,0.00017776,5.1448e-08,0,0.00026345,3.2558e-05,7.0791e+07,17534,0,1.0577e+08,3568.3,12557,502.62,0,502.62,0,0.00020256,1.8388e-07,0,0.00010109,3.7984e-05,8.1347e+07,62434,0,4.051e+07,6311.7,502.62,1
1736,1.26,12124,1,12124,1,2.147e-06,-4.5242e-08,0,0.00017693,-3.9298e-07,2282.4,-15352,0,7.1091e+07,-521.78,12123,12992,1,12992,1,0.00034449,5.2049e-07,0,0.00034449,6.3781e-05,1.3613e+08,1.7648e+05,0,1.3836e+08,16259,12991,12124,1,12124,1,2.1408e-06,-2.5961e-08,0,0.0001771,-3.9195e-07,8.2863e+05,-8681.9,0,7.1344e+07,-563.85,12123,11209,1,11209,1,-0.00034016,-4.9507e-07,0,1.048e-05,-6.4568e-05,-1.3836e+08,-1.6801e+05,0,4.2633e+06,-18972,11208,11690,1,11690,1,-0.00017494,-1.9483e-07,0,8.8558e-05,-3.361e-05,-7.1154e+07,-65910,0,3.5711e+07,-5442.8,11689,12558,1,12558,1,0.00017925,7.0867e-08,0,0.00026564,3.2828e-05,7.1372e+07,24004,0,1.0664e+08,4540.4,12557,502.62,0,502.62,0,0.00020421,2.1577e-07,0,0.00010192,3.8296e-05,8.2002e+07,73265,0,4.0834e+07,6970.3,502.62,1
1736,1.27,12124,1,12124,1,2.1851e-06,-1.0578e-07,0,0.00017836,-3.9979e-07,2233,-35901,0,7.1658e+07,-448.27,12123,12992,1,12992,1,0.00034741,3.4375e-07,0,0.00034741,6.4314e-05,1.3723e+08,1.1737e+05,0,1.3951e+08,28011,12991,12124,1,12124,1,2.1781e-06,-7.5183e-08,0,0.00017856,-3.9943e-07,8.4357e+05,-25463,0,7.1925e+07,-594.57,12123,11209,1,11209,1,-0.00034299,-4.7203e-07,0,1.0534e-05,-6.5116e-05,-1.3951e+08,-1.6023e+05,0,4.2848e+06,-18025,11208,11690,1,11690,1,-0.00017635,-2.3031e-07,0,8.9275e-05,-3.3886e-05,-7.1728e+07,-77805,0,3.6e+07,-4513.8,11689,12558,1,12558,1,0.00018073,-2.3887e-09,0,0.00026781,3.3086e-05,7.195e+07,-805.7,0,1.075e+08,2757.1,12557,502.62,0,502.62,0,0.00020587,1.6912e-07,0,0.00010275,3.8604e-05,8.2655e+07,57429,0,4.1158e+07,6569,502.62,1
1736,1.28,12124,1,12124,1,2.2121e-06,-4.0306e-08,0,0.00017981,-4.0313e-07,-2450,-13686,0,7.2232e+07,207.64,12123,12992,1,12992,1,0.00034993,3.8615e-07,0,0.00034993,6.4775e-05,1.3818e+08,1.3071e+05,0,1.4051e+08,12826,12991,12124,1,12124,1,2.2013e-06,-1.9619e-08,0,0.00017997,-3.9964e-07,8.529e+05,-6630.9,0,7.249e+07,138.04,12123,11209,1,11209,1,-0.00034546,-4.3969e-07,0,1.0628e-05,-6.5587e-05,-1.4051e+08,-1.4924e+05,0,4.3226e+06,-14345,11208,11690,1,11690,1,-0.00017774,-1.5087e-07,0,8.9978e-05,-3.4157e-05,-7.2291e+07,-50942,0,3.6283e+07,-4173.4,11689,12558,1,12558,1,0.00018217,6.0423e-08,0,0.00026992,3.3352e-05,7.2513e+07,20466,0,1.0833e+08,4467.7,12557,502.62,0,502.62,0,0.00020754,1.7139e-07,0,0.00010358,3.8917e-05,8.3316e+07,58183,0,4.1485e+07,5463.2,502.62,1
1736,1.29,12124,1,12124,1,2.2609e-06,-1.1319e-09,0,0.00018102,-4.1391e-07,2292.1,-389.54,0,7.2711e+07,-527.46,12123,12992,1,12992,1,0.00035206,4.8546e-07,0,0.00035206,6.5158e-05,1.3898e+08,1.6556e+05,0,1.4135e+08,14720,12991,12124,1,12124,1,2.2569e-06,-4.2631e-09,0,0.00018112,-4.1003e-07,8.7466e+05,-1433.6,0,7.2948e+07,-514.48,12123,11209,1,11209,1,-0.00034751,-4.0013e-07,0,1.0661e-05,-6.5986e-05,-1.4135e+08,-1.3585e+05,0,4.337e+06,-14210,11208,11690,1,11690,1,-0.00017885,-1.1504e-07,0,9.0572e-05,-3.4395e-05,-7.2746e+07,-39174,0,3.6523e+07,-4962.4,11689,12558,1,12558,1,0.00018338,9.9893e-08,0,0.00027165,3.356e-05,7.2981e+07,33851,0,1.09e+08,4315.4,12557,502.62,0,502.62,0,0.00020894,1.8288e-07,0,0.00010428,3.9181e-05,8.3867e+07,62094,0,4.1757e+07,6056.1,502.62,1
1736,1.3,12124,1,12124,1,2.302e-06,-2.9459e-08,0,0.00018268,-4.2144e-07,3021.2,-9999.4,0,7.3367e+07,-515.01,12123,12992,1,12992,1,0.00035548,5.1976e-07,0,0.00035548,6.5788e-05,1.4029e+08,1.7594e+05,0,1.4271e+08,16350,12991,12124,1,12124,1,2.2993e-06,-1.7302e-08,0,0.0001828,-4.2099e-07,8.915e+05,-5897.1,0,7.3621e+07,-663.29,12123,11209,1,11209,1,-0.00035086,-4.5273e-07,0,1.073e-05,-6.6627e-05,-1.4271e+08,-1.5366e+05,0,4.3646e+06,-16561,11208,11690,1,11690,1,-0.00018049,-1.5751e-07,0,9.1409e-05,-3.4706e-05,-7.3413e+07,-52922,0,3.6859e+07,-5143.6,11689,12558,1,12558,1,0.0001851,7.6552e-08,0,0.00027419,3.3868e-05,7.3656e+07,26065,0,1.1001e+08,4167.2,12557,502.62,0,502.62,0,0.00021085,1.9428e-07,0,0.00010523,3.9539e-05,8.4622e+07,65947,0,4.213e+07,6315.9,502.62,1
1736,1.31,12124,1,12124,1,2.3497e-06,-5.6841e-08,0,0.00018393,-4.2998e-07,5539.7,-19290,0,7.3862e+07,-412.86,12123,12992,1,12992,1,0.0003582,4.9114e-07,0,0.0003582,6.6279e-05,1.413e+08,1.6672e+05,0,1.4377e+08,14337,12991,12124,1,12124,1,2.3462e-06,-3.4295e-08,0,0.00018412,-4.3457e-07,9.1037e+05,-11627,0,7.4142e+07,-311.71,12123,11209,1,11209,1,-0.00035348,-5.031e-07,0,1.077e-05,-6.7137e-05,-1.4377e+08,-1.7078e+05,0,4.3809e+06,-22992,11208,11690,1,11690,1,-0.00018175,-1.9855e-07,0,9.2061e-05,-3.496e-05,-7.3925e+07,-67450,0,3.7122e+07,-4876.3,11689,12558,1,12558,1,0.00018646,5.6957e-08,0,0.00027616,3.4107e-05,7.418e+07,19347,0,1.1078e+08,4482.2,12557,502.62,0,502.62,0,0.0002123,2.0764e-07,0,0.00010596,3.9812e-05,8.519e+07,70493,0,4.2411e+07,6870.4,502.62,1
1736,1.32,12124,1,12124,1,2.3794e-06,-8.2553e-08,0,0.00018546,-4.3464e-07,1697.2,-28006,0,7.4468e+07,-97.184,12123,12992,1,12992,1,0.0003613,4.4761e-07,0,0.0003613,6.6844e-05,1.4247e+08,1.5151e+05,0,1.45e+08,23838,12991,12124,1,12124,1,2.3677e-06,-5.8874e-08,0,0.00018568,-4.2782e-07,9.1852e+05,-19682,0,7.4765e+07,-625.18,12123,11209,1,11209,1,-0.00035649,-5.1246e-07,0,1.0857e-05,-6.7718e-05,-1.45e+08,-1.7392e+05,0,4.4169e+06,-13163,11208,11690,1,11690,1,-0.00018327,-2.259e-07,0,9.2831e-05,-3.526e-05,-7.4542e+07,-76328,0,3.7432e+07,-4934.6,11689,12558,1,12558,1,0.00018804,2.8982e-08,0,0.00027848,3.4388e-05,7.4798e+07,9765,0,1.117e+08,3750.2,12557,502.62,0,502.62,0,0.00021407,2.001e-07,0,0.00010684,4.0142e-05,8.5888e+07,67930,0,4.2756e+07,7084,502.62,1
1736,1.33,12124,1,12124,1,2.4345e-06,-3.9276e-09,0,0.00018744,-4.4524e-07,3796.3,-1345.5,0,7.5253e+07,-290.77,12123,12992,1,12992,1,0.00036464,5.1281e-07,0,0.00036464,6.7454e-05,1.4374e+08,1.7358e+05,0,1.4632e+08,13584,12991,12124,1,12124,1,2.4272e-06,-6.8635e-09,0,0.00018755,-4.4816e-07,9.4234e+05,-2335.1,0,7.5515e+07,-256.46,12123,11209,1,11209,1,-0.00035975,-4.0849e-07,0,1.0949e-05,-6.8344e-05,-1.4632e+08,-1.3866e+05,0,4.4536e+06,-18425,11208,11690,1,11690,1,-0.0001851,-1.2593e-07,0,9.3773e-05,-3.5637e-05,-7.5287e+07,-42558,0,3.7812e+07,-4944.8,11689,12558,1,12558,1,0.00018998,1.0372e-07,0,0.0002813,3.4733e-05,7.5555e+07,35079,0,1.128e+08,4550.3,12557,502.62,0,502.62,0,0.00021636,1.9156e-07,0,0.00010798,4.0571e-05,8.6793e+07,65017,0,4.3204e+07,6184.3,502.62,1
1736,1.34,12124,1,12124,1,2.4783e-06,-2.5645e-08,0,0.00018865,-4.5549e-07,1864.1,-8711.8,0,7.5724e+07,-1217.3,12123,12992,1,12992,1,0.00036702,4.2026e-07,0,0.00036702,6.7885e-05,1.4461e+08,1.4225e+05,0,1.4726e+08,10478,12991,12124,1,12124,1,2.4688e-06,-1.3777e-08,0,0.00018876,-4.5832e-07,9.5868e+05,-4616.1,0,7.5994e+07,-969.83,12123,11209,1,11209,1,-0.00036205,-3.8159e-07,0,1.0991e-05,-6.879e-05,-1.4726e+08,-1.2974e+05,0,4.4711e+06,-18412,11208,11690,1,11690,1,-0.00018627,-1.2923e-07,0,9.4385e-05,-3.5863e-05,-7.5763e+07,-43614,0,3.8057e+07,-4936.8,11689,12558,1,12558,1,0.00019123,5.7273e-08,0,0.00028312,3.4948e-05,7.6034e+07,19537,0,1.1351e+08,3254.9,12557,502.62,0,502.62,0,0.00021775,1.5972e-07,0,0.00010868,4.083e-05,8.7333e+07,54205,0,4.3471e+07,5460.8,502.62,1
1736,1.35,12124,1,12124,1,2.5227e-06,2.981e-09,0,0.0001901,-4.6231e-07,1204.8,1014.3,0,7.6296e+07,-660.79,12123,12992,1,12992,1,0.00036979,4.7981e-07,0,0.00036979,6.8384e-05,1.4564e+08,1.6241e+05,0,1.4834e+08,12275,12991,12124,1,12124,1,2.5156e-06,-3.278e-10,0,0.00019019,-4.6122e-07,9.7798e+05,-112.3,0,7.6561e+07,-374.61,12123,11209,1,11209,1,-0.0003647,-3.5313e-07,0,1.1045e-05,-6.9309e-05,-1.4834e+08,-1.1961e+05,0,4.4925e+06,-23319,11208,11690,1,11690,1,-0.00018765,-9.7903e-08,0,9.5111e-05,-3.6157e-05,-7.6323e+07,-33193,0,3.8348e+07,-4645.2,11689,12558,1,12558,1,0.00019272,1.0033e-07,0,0.00028526,3.5203e-05,7.6607e+07,33684,0,1.1435e+08,4058.5,12557,502.62,0,502.62,0,0.00021942,1.6952e-07,0,0.00010952,4.1145e-05,8.7992e+07,57542,0,4.3796e+07,6225.7,502.62,1
1736,1.36,12124,1,12124,1,2.5713e-06,-2.1456e-08,0,0.00019145,-4.7475e-07,494.51,-7258.4,0,7.6823e+07,-2127.6,12123,12992,1,12992,1,0.00037257,4.9889e-07,0,0.00037257,6.8881e-05,1.4668e+08,1.7063e+05,0,1.4942e+08,13211,12991,12124,1,12124,1,2.5723e-06,-1.6518e-08,0,0.00019155,-4.7777e-07,9.9918e+05,-5554.7,0,7.7102e+07,-1330.8,12123,11209,1,11209,1,-0.00036735,-4.2822e-07,0,1.1091e-05,-6.983e-05,-1.4942e+08,-1.4494e+05,0,4.5119e+06,-23119,11208,11690,1,11690,1,-0.00018897,-1.4431e-07,0,9.5791e-05,-3.6412e-05,-7.6859e+07,-48558,0,3.8618e+07,-6000.9,11689,12558,1,12558,1,0.00019413,7.8998e-08,0,0.00028731,3.5454e-05,7.7148e+07,26700,0,1.1515e+08,3530.5,12557,502.62,0,502.62,0,0.00022098,1.8907e-07,0,0.00011029,4.1437e-05,8.8599e+07,64166,0,4.4096e+07,6922.4,502.62,1
1736,1.37,12124,1,12124,1,2.6177e-06,-5.2905e-08,0,0.00019289,-4.7799e-07,167.88,-17929,0,7.739e+07,79.814,12123,12992,1,12992,1,0.0003756,4.2692e-07,0,0.0003756,6.9434e-05,1.4781e+08,1.445e+05,0,1.5061e+08,16933,12991,12124,1,12124,1,2.6109e-06,-3.498e-08,0,0.00019304,-4.7738e-07,1.0153e+06,-11719,0,7.7692e+07,275.43,12123,11209,1,11209,1,-0.00037029,-4.295e-07,0,1.1151e-05,-7.0398e-05,-1.5061e+08,-1.4537e+05,0,4.5362e+06,-18781,11208,11690,1,11690,1,-0.00019042,-1.6539e-07,0,9.6533e-05,-3.668e-05,-7.7448e+07,-56253,0,3.8915e+07,-4419.3,11689,12558,1,12558,1,0.00019565,3.6641e-08,0,0.00028955,3.5726e-05,7.7735e+07,12355,0,1.1603e+08,4702.8,12557,502.62,0,502.62,0,0.00022264,1.6914e-07,0,0.00011112,4.1748e-05,8.9251e+07,57389,0,4.4419e+07,6117.5,502.62,1
1736,1.38,12124,1,12124,1,2.6503e-06,-4.2318e-08,0,0.00019399,-4.8011e-07,-4913.5,-14344,0,7.7818e+07,1676.4,12123,12992,1,12992,1,0.00037775,5.0046e-07,0,0.00037775,6.9823e-05,1.4859e+08,1.6939e+05,0,1.5146e+08,18000,12991,12124,1,12124,1,2.6403e-06,-2.9442e-08,0,0.00019414,-4.7776e-07,1.0278e+06,-10001,0,7.8124e+07,1461.9,12123,11209,1,11209,1,-0.00037237,-4.5555e-07,0,1.1198e-05,-7.0799e-05,-1.5146e+08,-1.5418e+05,0,4.5548e+06,-20744,11208,11690,1,11690,1,-0.00019148,-1.7267e-07,0,9.7083e-05,-3.6892e-05,-7.788e+07,-58383,0,3.9134e+07,-3458.3,11689,12558,1,12558,1,0.00019679,5.8671e-08,0,0.00029118,3.5933e-05,7.8163e+07,19655,0,1.1666e+08,6451.1,12557,502.62,0,502.62,0,0.00022391,1.9242e-07,0,0.00011175,4.1986e-05,8.9742e+07,65274,0,4.4661e+07,6687.8,502.62,1
1736,1.39,12124,1,12124,1,2.7391e-06,4.5435e-09,0,0.00019776,-5.0106e-07,-178.1,1538.8,0,7.9321e+07,-274.76,12123,12992,1,12992,1,0.00038417,1.2427e-08,0,0.00038417,7.1012e-05,1.5108e+08,4169.8,0,1.5403e+08,245.2,12991,12124,1,12124,1,2.7439e-06,4.9565e-09,0,0.00019776,-4.9928e-07,1.0679e+06,1679.7,0,7.9578e+07,-252.19,12123,11209,1,11209,1,-0.00037868,-4.4776e-09,0,1.1373e-05,-7.201e-05,-1.5403e+08,-1493.5,0,4.6267e+06,-822.09,11208,11690,1,11690,1,-0.00019501,1.434e-09,0,9.8878e-05,-3.7578e-05,-7.932e+07,488.56,0,3.9856e+07,-479.22,11689,12558,1,12558,1,0.0002005,7.2878e-09,0,0.00029664,3.6573e-05,7.9623e+07,2470.7,0,1.1883e+08,-41.723,12557,502.62,0,502.62,0,0.00022827,3.8708e-09,0,0.00011395,4.2796e-05,9.1478e+07,1305.2,0,4.5529e+07,258.68,502.62,1
1736,1.4,12124,1,12124,1,2.844e-06,-2.1398e-09,0,0.00019923,-5.1969e-07,137.21,-725.04,0,7.9877e+07,6.4942,12123,12992,1,12992,1,0.00038709,1.2953e-09,0,0.00038709,7.1522e-05,1.5206e+08,443.62,0,1.5513e+08,241.11,12991,12124,1,12124,1,2.8442e-06,-1.9019e-09,0,0.00019923,-5.1695e-07,1.1079e+06,-639.63,0,8.0147e+07,8.4052,12123,11209,1,11209,1,-0.0003814,-6.3681e-09,0,1.1386e-05,-7.2557e-05,-1.5513e+08,-2155.1,0,4.6316e+06,-283.96,11208,11690,1,11690,1,-0.00019638,-3.9748e-09,0,9.9615e-05,-3.7871e-05,-7.9877e+07,-1342.6,0,4.0146e+07,-58.76,11689,12558,1,12558,1,0.00020207,-1.2462e-10,0,0.00029884,3.683e-05,8.0196e+07,-42.549,0,1.1966e+08,76.717,12557,502.62,0,502.62,0,0.00022997,2.1413e-09,0,0.0001148,4.3114e-05,9.2116e+07,726.42,0,4.584e+07,97.589,502.62,1
1736,1.41,12124,1,12124,1,2.8746e-06,-2.5168e-08,0,0.00019909,-5.243e-07,-516.84,-8527.1,0,7.9806e+07,447.46,12123,12992,1,12992,1,0.0003873,2.3239e-07,0,0.0003873,7.1537e-05,1.5207e+08,78647,0,1.5518e+08,8118.1,12991,12124,1,12124,1,2.8696e-06,-1.4271e-08,0,0.00019917,-5.2081e-07,1.1181e+06,-4794.2,0,8.0114e+07,412.87,12123,11209,1,11209,1,-0.00038151,-2.7821e-07,0,1.1342e-05,-7.2589e-05,-1.5518e+08,-94154,0,4.6138e+06,-8088.4,11208,11690,1,11690,1,-0.00019629,-8.7104e-08,0,9.9592e-05,-3.7872e-05,-7.9838e+07,-29607,0,4.0133e+07,-1712.3,11689,12558,1,12558,1,0.00020205,2.6478e-08,0,0.00029874,3.6825e-05,8.0162e+07,8974.1,0,1.1959e+08,2979.8,12557,502.62,0,502.62,0,0.0002298,9.9581e-08,0,0.00011471,4.3086e-05,9.203e+07,33766,0,4.5792e+07,3147.5,502.62,1
1736,1.42,12124,1,12124,1,2.8976e-06,-5.5944e-08,0,0.00020056,-5.3282e-07,-270.95,-18948,0,8.0397e+07,-1350,12123,12992,1,12992,1,0.0003907,3.8365e-07,0,0.0003907,7.2157e-05,1.534e+08,1.3099e+05,0,1.5652e+08,20013,12991,12124,1,12124,1,2.8924e-06,-3.5879e-08,0,0.00020073,-5.324e-07,1.1262e+06,-12183,0,8.0738e+07,-855.27,12123,11209,1,11209,1,-0.00038481,-3.9258e-07,0,1.1417e-05,-7.3227e-05,-1.5652e+08,-1.3286e+05,0,4.6446e+06,-13998,11208,11690,1,11690,1,-0.00019781,-1.6602e-07,0,0.00010036,-3.8173e-05,-8.0456e+07,-56498,0,4.0444e+07,-5459.7,11689,12558,1,12558,1,0.00020362,3.3044e-08,0,0.00030106,3.7112e-05,8.0784e+07,11189,0,1.2053e+08,2430.3,12557,502.62,0,502.62,0,0.0002315,1.5806e-07,0,0.00011555,4.3407e-05,9.2711e+07,53605,0,4.6129e+07,5684.9,502.62,1
1736,1.43,12124,1,12124,1,2.9536e-06,-1.7207e-08,0,0.00020236,-5.4202e-07,-934.54,-5828.2,0,8.1104e+07,-904.38,12123,12992,1,12992,1,0.00039389,3.4422e-07,0,0.00039389,7.2734e-05,1.5457e+08,1.1649e+05,0,1.5777e+08,10210,12991,12124,1,12124,1,2.9452e-06,-1.0455e-08,0,0.00020246,-5.4224e-07,1.1471e+06,-3497.1,0,8.1423e+07,-566.88,12123,11209,1,11209,1,-0.00038789,-3.0244e-07,0,1.1496e-05,-7.3824e-05,-1.5777e+08,-1.0235e+05,0,4.6766e+06,-11211,11208,11690,1,11690,1,-0.00019948,-9.8468e-08,0,0.00010123,-3.8505e-05,-8.1137e+07,-33390,0,4.079e+07,-4405.1,11689,12558,1,12558,1,0.00020541,5.3356e-08,0,0.00030365,3.7424e-05,8.1473e+07,18058,0,1.2154e+08,3032.6,12557,502.62,0,502.62,0,0.00023357,1.2937e-07,0,0.00011659,4.3795e-05,9.3525e+07,43877,0,4.6532e+07,4735.1,502.62,1
1736,1.44,12124,1,12124,1,3.0048e-06,-1.838e-08,0,0.00020359,-5.4748e-07,-4338.3,-6224.2,0,8.1581e+07,738.24,12123,12992,1,12992,1,0.00039626,3.2254e-07,0,0.00039626,7.3162e-05,1.5542e+08,1.0915e+05,0,1.587e+08,12794,12991,12124,1,12124,1,2.9961e-06,-1.1097e-08,0,0.00020368,-5.4184e-07,1.1684e+06,-3686,0,8.1904e+07,763.44,12123,11209,1,11209,1,-0.00039018,-3.1705e-07,0,1.1531e-05,-7.4267e-05,-1.587e+08,-1.0729e+05,0,4.6908e+06,-9662.5,11208,11690,1,11690,1,-0.00020066,-1.0113e-07,0,0.00010185,-3.8746e-05,-8.1616e+07,-34167,0,4.1036e+07,-2691.1,11689,12558,1,12558,1,0.00020669,5.2684e-08,0,0.00030549,3.7648e-05,8.1953e+07,17903,0,1.2224e+08,4058.3,12557,502.62,0,502.62,0,0.000235,1.2903e-07,0,0.0001173,4.4061e-05,9.4073e+07,43757,0,4.6802e+07,4392.8,502.62,1
1736,1.45,12124,1,12124,1,3.0554e-06,-3.4749e-08,0,0.00020461,-5.5753e-07,-2111.8,-11769,0,8.1979e+07,442.7,12123,12992,1,12992,1,0.00039858,4.5504e-07,0,0.00039858,7.3579e-05,1.5627e+08,1.5399e+05,0,1.596e+08,13822,12991,12124,1,12124,1,3.0442e-06,-2.2578e-08,0,0.00020476,-5.5749e-07,1.1872e+06,-7500.3,0,8.2327e+07,370.18,12123,11209,1,11209,1,-0.00039239,-4.2918e-07,0,1.1555e-05,-7.4704e-05,-1.596e+08,-1.4523e+05,0,4.7001e+06,-14376,11208,11690,1,11690,1,-0.00020169,-1.615e-07,0,0.00010239,-3.8955e-05,-8.2033e+07,-54394,0,4.125e+07,-4076.8,11689,12558,1,12558,1,0.00020781,6.4475e-08,0,0.00030711,3.7844e-05,8.2378e+07,21759,0,1.2287e+08,5480.8,12557,502.62,0,502.62,0,0.00023618,1.8686e-07,0,0.00011789,4.4285e-05,9.453e+07,63351,0,4.7026e+07,5917.5,502.62,1
1736,1.46,12124,1,12124,1,3.0988e-06,-5.952e-08,0,0.00020579,-5.6643e-07,-1965.3,-20151,0,8.2438e+07,56.116,12123,12992,1,12992,1,0.00040111,4.6292e-07,0,0.00040111,7.4032e-05,1.572e+08,1.5849e+05,0,1.6059e+08,18429,12991,12124,1,12124,1,3.0976e-06,-3.7747e-08,0,0.00020597,-5.6717e-07,1.2081e+06,-12664,0,8.2806e+07,-138.9,12123,11209,1,11209,1,-0.00039481,-4.9474e-07,0,1.1586e-05,-7.5175e-05,-1.6059e+08,-1.6741e+05,0,4.7132e+06,-16628,11208,11690,1,11690,1,-0.00020285,-1.9394e-07,0,0.00010299,-3.9192e-05,-8.2507e+07,-65672,0,4.1493e+07,-4924.5,11689,12558,1,12558,1,0.00020906,4.8659e-08,0,0.00030893,3.8059e-05,8.286e+07,16144,0,1.2358e+08,4949,12557,502.62,0,502.62,0,0.00023753,1.9812e-07,0,0.00011856,4.4539e-05,9.5058e+07,67173,0,4.7287e+07,6446.1,502.62,1
1736,1.47,12124,1,12124,1,3.1517e-06,-4.4218e-08,0,0.00020751,-5.7707e-07,-2895.3,-14977,0,8.3117e+07,-335.82,12123,12992,1,12992,1,0.00040436,4.4188e-07,0,0.00040436,7.4623e-05,1.5841e+08,1.4953e+05,0,1.6187e+08,12468,12991,12124,1,12124,1,3.1389e-06,-2.9165e-08,0,0.00020767,-5.8146e-07,1.2241e+06,-9753.8,0,8.3483e+07,23.727,12123,11209,1,11209,1,-0.00039796,-4.2268e-07,0,1.1666e-05,-7.5785e-05,-1.6187e+08,-1.4303e+05,0,4.746e+06,-17570,11208,11690,1,11690,1,-0.0002045,-1.6948e-07,0,0.00010384,-3.9519e-05,-8.3177e+07,-57320,0,4.183e+07,-4529.6,11689,12558,1,12558,1,0.00021081,5.1293e-08,0,0.00031147,3.8369e-05,8.3535e+07,17465,0,1.2458e+08,4534.6,12557,502.62,0,502.62,0,0.00023952,1.8258e-07,0,0.00011956,4.4911e-05,9.584e+07,61902,0,4.7674e+07,6003.3,502.62,1
1736,1.48,12124,1,12124,1,3.2207e-06,-6.8095e-08,0,0.00020867,-5.8803e-07,659.05,-23054,0,8.3564e+07,400.82,12123,12992,1,12992,1,0.00040678,4.586e-07,0,0.00040678,7.5051e-05,1.5928e+08,1.5525e+05,0,1.6279e+08,23777,12991,12124,1,12124,1,3.2182e-06,-5.0596e-08,0,0.00020886,-5.8191e-07,1.2558e+06,-16907,0,8.3946e+07,115.97,12123,11209,1,11209,1,-0.00040024,-4.4887e-07,0,1.1673e-05,-7.624e-05,-1.6279e+08,-1.5189e+05,0,4.749e+06,-19859,11208,11690,1,11690,1,-0.00020561,-1.9483e-07,0,0.00010443,-3.9753e-05,-8.3629e+07,-66393,0,4.2065e+07,-4465.1,11689,12558,1,12558,1,0.00021206,3.0244e-08,0,0.00031324,3.8575e-05,8.4002e+07,10056,0,1.2526e+08,4241.7,12557,502.62,0,502.62,0,0.00024086,1.8183e-07,0,0.00012023,4.5163e-05,9.6353e+07,61651,0,4.7926e+07,7121.5,502.62,1
1736,1.49,12124,1,12124,1,3.2503e-06,-1.3991e-08,0,0.00020992,-5.9398e-07,-7199.7,-4740.7,0,8.4052e+07,163.38,12123,12992,1,12992,1,0.00040889,5.349e-07,0,0.00040889,7.5434e-05,1.6004e+08,1.8257e+05,0,1.6363e+08,17913,12991,12124,1,12124,1,3.2383e-06,-1.0857e-08,0,0.00021004,-5.9463e-07,1.2637e+06,-3642.4,0,8.4415e+07,-48.963,12123,11209,1,11209,1,-0.00040229,-4.4922e-07,0,1.1736e-05,-7.6634e-05,-1.6363e+08,-1.52e+05,0,4.7741e+06,-14494,11208,11690,1,11690,1,-0.00020677,-1.3457e-07,0,0.00010502,-3.9986e-05,-8.4098e+07,-45603,0,4.23e+07,-4853.3,11689,12558,1,12558,1,0.00021329,8.6378e-08,0,0.00031501,3.8796e-05,8.4467e+07,28751,0,1.2594e+08,5306.4,12557,502.62,0,502.62,0,0.0002423,1.9343e-07,0,0.00012094,4.5434e-05,9.6914e+07,65558,0,4.8202e+07,6748.3,502.62,1
1736,1.5,12124,1,12124,1,3.3558e-06,2.4291e-09,0,0.00021348,-6.1449e-07,-107.36,822.06,0,8.5464e+07,-316.39,12123,12992,1,12992,1,0.0004151,9.5561e-09,0,0.0004151,7.658e-05,1.6242e+08,3192.4,0,1.661e+08,205.81,12991,12124,1,12124,1,3.3597e-06,2.6256e-09,0,0.00021348,-6.1364e-07,1.3124e+06,897.42,0,8.5792e+07,-311.27,12123,11209,1,11209,1,-0.00040837,-6.6853e-09,0,1.1881e-05,-7.7804e-05,-1.661e+08,-2220.4,0,4.8333e+06,-856.89,11208,11690,1,11690,1,-0.00021012,-1.8495e-10,0,0.00010674,-4.0638e-05,-8.5463e+07,-63.291,0,4.299e+07,-524.62,11689,12558,1,12558,1,0.00021684,4.7734e-09,0,0.00032022,3.9406e-05,8.5854e+07,1618.5,0,1.2799e+08,-67.985,12557,502.62,0,502.62,0,0.00024641,3.4117e-09,0,0.00012302,4.6196e-05,9.8544e+07,1146.4,0,4.9018e+07,259.04,502.62,1
1736,1.51,12124,1,12124,1,3.4446e-06,-1.109e-08,0,0.00021344,-6.2923e-07,-937.05,-3752.2,0,8.5414e+07,369.95,12123,12992,1,12992,1,0.00041539,2.3974e-07,0,0.00041539,7.6591e-05,1.6236e+08,81115,0,1.6614e+08,7525.2,12991,12124,1,12124,1,3.4406e-06,-8.7931e-09,0,0.0002135,-6.2569e-07,1.3448e+06,-2998.2,0,8.5773e+07,286.76,12123,11209,1,11209,1,-0.00040847,-2.3755e-07,0,1.1798e-05,-7.7849e-05,-1.6614e+08,-80373,0,4.7995e+06,-7280.5,11208,11690,1,11690,1,-0.00021005,-6.3075e-08,0,0.00010675,-4.0664e-05,-8.5433e+07,-21108,0,4.2989e+07,-1904.8,11689,12558,1,12558,1,0.00021694,3.3449e-08,0,0.00032022,3.9403e-05,8.5837e+07,11374,0,1.2794e+08,2404.6,12557,502.62,0,502.62,0,0.00024637,8.8735e-08,0,0.00012299,4.6192e-05,9.848e+07,30063,0,4.8976e+07,2816.1,502.62,1
1736,1.52,12124,1,12124,1,3.4626e-06,-1.9715e-08,0,0.00021427,-6.344e-07,328.17,-6669.9,0,8.5742e+07,-391.71,12123,12992,1,12992,1,0.00041751,5.3365e-07,0,0.00041751,7.698e-05,1.6318e+08,1.8056e+05,0,1.6699e+08,16258,12991,12124,1,12124,1,3.4598e-06,-1.5237e-08,0,0.00021437,-6.3527e-07,1.3522e+06,-5180.8,0,8.6122e+07,-476.66,12123,11209,1,11209,1,-0.00041055,-4.9654e-07,0,1.1821e-05,-7.8248e-05,-1.6699e+08,-1.68e+05,0,4.8087e+06,-16238,11208,11690,1,11690,1,-0.0002109,-1.5134e-07,0,0.0001072,-4.0847e-05,-8.5779e+07,-51135,0,4.3169e+07,-5850.8,11689,12558,1,12558,1,0.00021785,9.8523e-08,0,0.00032156,3.9572e-05,8.6194e+07,33186,0,1.2846e+08,5008.9,12557,502.62,0,502.62,0,0.00024732,2.1245e-07,0,0.00012345,4.6375e-05,9.8857e+07,72020,0,4.916e+07,6644.2,502.62,1
1736,1.53,12124,1,12124,1,3.514e-06,-6.6146e-08,0,0.00021591,-6.4327e-07,1419.7,-22395,0,8.639e+07,-152.91,12123,12992,1,12992,1,0.00042114,4.9205e-07,0,0.00042114,7.7638e-05,1.6454e+08,1.6747e+05,0,1.6841e+08,16639,12991,12124,1,12124,1,3.5063e-06,-4.2095e-08,0,0.0002161,-6.4124e-07,1.3709e+06,-13984,0,8.6806e+07,56.335,12123,11209,1,11209,1,-0.00041404,-4.8416e-07,0,1.1898e-05,-7.8928e-05,-1.6841e+08,-1.638e+05,0,4.8394e+06,-14287,11208,11690,1,11690,1,-0.00021258,-2.0644e-07,0,0.00010807,-4.1164e-05,-8.6464e+07,-69205,0,4.3516e+07,-4893.6,11689,12558,1,12558,1,0.0002196,4.029e-08,0,0.00032414,3.9882e-05,8.6873e+07,13762,0,1.2948e+08,4603,12557,502.62,0,502.62,0,0.00024921,2.015e-07,0,0.0001244,4.6728e-05,9.9603e+07,68257,0,4.953e+07,6352.5,502.62,1
1736,1.54,12124,1,12124,1,3.5899e-06,-5.0824e-08,0,0.00021753,-6.5681e-07,3545.2,-17204,0,8.702e+07,21.623,12123,12992,1,12992,1,0.00042413,3.6228e-07,0,0.00042413,7.8165e-05,1.6561e+08,1.2257e+05,0,1.6955e+08,11495,12991,12124,1,12124,1,3.5756e-06,-3.0193e-08,0,0.0002177,-6.6019e-07,1.3984e+06,-10096,0,8.7435e+07,179.59,12123,11209,1,11209,1,-0.00041686,-4.0929e-07,0,1.1942e-05,-7.9488e-05,-1.6955e+08,-1.3847e+05,0,4.8577e+06,-13754,11208,11690,1,11690,1,-0.00021408,-1.6714e-07,0,0.00010884,-4.1476e-05,-8.7075e+07,-56242,0,4.3826e+07,-4270.1,11689,12558,1,12558,1,0.00022127,4.5522e-08,0,0.00032651,4.0166e-05,8.7505e+07,15253,0,1.304e+08,4400.2,12557,502.62,0,502.62,0,0.00025108,1.6804e-07,0,0.00012534,4.7077e-05,1.0033e+08,56945,0,4.9888e+07,5255.5,502.62,1
1736,1.55,12124,1,12124,1,3.6503e-06,-4.2664e-08,0,0.00021864,-6.6587e-07,2520.9,-14459,0,8.7446e+07,871.66,12123,12992,1,12992,1,0.00042607,3.3063e-07,0,0.00042607,7.8512e-05,1.6627e+08,1.1186e+05,0,1.7031e+08,15511,12991,12124,1,12124,1,3.6378e-06,-2.1504e-08,0,0.00021877,-6.5772e-07,1.4231e+06,-7219.4,0,8.7854e+07,594.74,12123,11209,1,11209,1,-0.00041872,-3.9294e-07,0,1.1962e-05,-7.985e-05,-1.7031e+08,-1.3293e+05,0,4.8663e+06,-8419.1,11208,11690,1,11690,1,-0.0002151,-1.3293e-07,0,0.00010938,-4.169e-05,-8.7489e+07,-45241,0,4.4037e+07,-3151.5,11689,12558,1,12558,1,0.00022241,3.8689e-08,0,0.00032812,4.0355e-05,8.7926e+07,13236,0,1.3101e+08,4325.3,12557,502.62,0,502.62,0,0.00025237,1.4591e-07,0,0.00012598,4.7317e-05,1.0082e+08,49422,0,5.0129e+07,4960.6,502.62,1
1736,1.56,12124,1,12124,1,3.6918e-06,-1.7784e-08,0,0.00021993,-6.759e-07,-3873.1,-6020.6,0,8.7946e+07,-151.1,12123,12992,1,12992,1,0.00042868,4.9345e-07,0,0.00042868,7.8992e-05,1.6723e+08,1.6846e+05,0,1.7135e+08,24062,12991,12124,1,12124,1,3.6866e-06,-4.519e-09,0,0.00022006,-6.7777e-07,1.4415e+06,-1487,0,8.836e+07,-761.16,12123,11209,1,11209,1,-0.00042127,-4.6495e-07,0,1.2006e-05,-8.034e-05,-1.7135e+08,-1.579e+05,0,4.8847e+06,-12731,11208,11690,1,11690,1,-0.00021635,-1.3498e-07,0,0.00011004,-4.1945e-05,-8.7998e+07,-45257,0,4.4298e+07,-5494.6,11689,12558,1,12558,1,0.00022375,8.8447e-08,0,0.00033006,4.0596e-05,8.8429e+07,30007,0,1.3176e+08,4615.8,12557,502.62,0,502.62,0,0.00025385,1.9608e-07,0,0.00012672,4.7597e-05,1.0139e+08,66452,0,5.0412e+07,6677.2,502.62,1
1736,1.57,12124,1,12124,1,3.7712e-06,-2.0003e-08,0,0.00022135,-6.8857e-07,3053.2,-6749.1,0,8.85e+07,681.7,12123,12992,1,12992,1,0.00043154,4.8742e-07,0,0.00043154,7.948e-05,1.6827e+08,1.664e+05,0,1.7241e+08,23328,12991,12124,1,12124,1,3.7631e-06,-1.1689e-08,0,0.00022148,-6.8395e-07,1.472e+06,-3969.8,0,8.892e+07,266.56,12123,11209,1,11209,1,-0.00042387,-4.4123e-07,0,1.2031e-05,-8.0873e-05,-1.7241e+08,-1.4924e+05,0,4.8947e+06,-15232,11208,11690,1,11690,1,-0.00021769,-1.3392e-07,0,0.00011075,-4.2226e-05,-8.854e+07,-45340,0,4.4579e+07,-4867.3,11689,12558,1,12558,1,0.00022525,8.2516e-08,0,0.00033217,4.0849e-05,8.8998e+07,27755,0,1.3258e+08,5413.9,12557,502.62,0,502.62,0,0.00025549,1.8405e-07,0,0.00012754,4.7906e-05,1.0203e+08,62353,0,5.0726e+07,6859.4,502.62,1
1736,1.58,12124,1,12124,1,3.8252e-06,-5.9102e-08,0,0.00022228,-6.9781e-07,630.53,-20012,0,8.8854e+07,956.75,12123,12992,1,12992,1,0.00043363,5.6732e-07,0,0.00043363,7.9867e-05,1.6899e+08,1.9189e+05,0,1.7325e+08,16437,12991,12124,1,12124,1,3.8205e-06,-3.3023e-08,0,0.00022245,-6.9704e-07,1.4955e+06,-10923,0,8.9297e+07,706.75,12123,11209,1,11209,1,-0.00042594,-5.7356e-07,0,1.2026e-05,-8.1265e-05,-1.7325e+08,-1.944e+05,0,4.8914e+06,-20982,11208,11690,1,11690,1,-0.00021862,-2.2318e-07,0,0.00011123,-4.2413e-05,-8.8919e+07,-75512,0,4.477e+07,-4451.7,11689,12558,1,12558,1,0.00022627,7.1466e-08,0,0.00033366,4.1021e-05,8.937e+07,23880,0,1.3313e+08,7101.4,12557,502.62,0,502.62,0,0.00025657,2.3993e-07,0,0.00012808,4.8109e-05,1.0244e+08,81257,0,5.0924e+07,7282.2,502.62,1
1736,1.59,12124,1,12124,1,3.9e-06,-6.8929e-08,0,0.00022415,-7.1686e-07,5591.2,-23317,0,8.959e+07,-1254.4,12123,12992,1,12992,1,0.00043737,3.7892e-07,0,0.00043737,8.0539e-05,1.7039e+08,1.2935e+05,0,1.747e+08,12356,12991,12124,1,12124,1,3.8972e-06,-4.4948e-08,0,0.00022435,-7.1514e-07,1.5251e+06,-15204,0,9.0051e+07,-1060.8,12123,11209,1,11209,1,-0.00042951,-4.88e-07,0,1.2096e-05,-8.1968e-05,-1.747e+08,-1.6504e+05,0,4.9204e+06,-13494,11208,11690,1,11690,1,-0.00022043,-2.0146e-07,0,0.00011217,-4.2788e-05,-8.9656e+07,-68149,0,4.5145e+07,-6026.7,11689,12558,1,12558,1,0.00022824,4.4681e-08,0,0.00033649,4.1354e-05,9.013e+07,14973,0,1.3425e+08,3597.6,12557,502.62,0,502.62,0,0.00025873,1.9109e-07,0,0.00012916,4.8511e-05,1.0328e+08,64757,0,5.1345e+07,5864.3,502.62,1
1736,1.6,12124,1,12124,1,3.9583e-06,-2.7908e-08,0,0.00022546,-7.2418e-07,-3207.7,-9466.4,0,9.0088e+07,133.47,12123,12992,1,12992,1,0.00043961,5.0613e-07,0,0.00043961,8.0948e-05,1.7114e+08,1.7117e+05,0,1.7559e+08,14433,12991,12124,1,12124,1,3.9552e-06,-2.0511e-08,0,0.00022557,-7.2645e-07,1.5485e+06,-6877.9,0,9.0523e+07,-80.77,12123,11209,1,11209,1,-0.0004317,-4.1518e-07,0,1.2118e-05,-8.2384e-05,-1.7559e+08,-1.4147e+05,0,4.9291e+06,-20984,11208,11690,1,11690,1,-0.00022162,-1.5377e-07,0,0.00011279,-4.3036e-05,-9.0139e+07,-51797,0,4.539e+07,-4410.4,11689,12558,1,12558,1,0.00022952,6.7604e-08,0,0.00033836,4.1573e-05,9.0596e+07,22863,0,1.3494e+08,4862.9,12557,502.62,0,502.62,0,0.00026023,1.9117e-07,0,0.00012991,4.8793e-05,1.0385e+08,64727,0,5.1626e+07,6065.7,502.62,1
1736,1.61,12124,1,12124,1,4.0175e-06,-1.1613e-07,0,0.00022649,-7.3565e-07,-3407.8,-39260,0,9.0482e+07,-94.93,12123,12992,1,12992,1,0.00044248,5.7237e-07,0,0.00044248,8.1449e-05,1.7218e+08,1.9538e+05,0,1.7667e+08,28215,12991,12124,1,12124,1,4.011e-06,-8.6404e-08,0,0.00022676,-7.4064e-07,1.5696e+06,-28749,0,9.0986e+07,-295.56,12123,11209,1,11209,1,-0.00043436,-6.7338e-07,0,1.2147e-05,-8.2924e-05,-1.7667e+08,-2.277e+05,0,4.9418e+06,-17252,11208,11690,1,11690,1,-0.00022271,-3.1863e-07,0,0.00011337,-4.3264e-05,-9.0582e+07,-1.0754e+05,0,4.5618e+07,-6351.9,11689,12558,1,12558,1,0.00023076,4.3271e-08,0,0.00034009,4.1788e-05,9.1055e+07,14651,0,1.3562e+08,5715.5,12557,502.62,0,502.62,0,0.00026142,2.724e-07,0,0.0001305,4.9021e-05,1.0431e+08,92294,0,5.1847e+07,8902.9,502.62,1
1736,1.62,12124,1,12124,1,4.1045e-06,-5.0116e-08,0,0.00022838,-7.4931e-07,4408.9,-16980,0,9.1227e+07,892.32,12123,12992,1,12992,1,0.0004457,6.0132e-07,0,0.0004457,8.2031e-05,1.7335e+08,2.0333e+05,0,1.7794e+08,27764,12991,12124,1,12124,1,4.1034e-06,-4.25e-08,0,0.00022855,-7.4625e-07,1.6067e+06,-14020,0,9.1692e+07,-737.73,12123,11209,1,11209,1,-0.00043748,-4.5904e-07,0,1.2181e-05,-8.3525e-05,-1.7794e+08,-1.5638e+05,0,4.9532e+06,-25812,11208,11690,1,11690,1,-0.00022443,-2.0691e-07,0,0.00011428,-4.3615e-05,-9.1285e+07,-69478,0,4.598e+07,-5112.3,11689,12558,1,12558,1,0.00023264,5.9398e-08,0,0.00034282,4.2104e-05,9.1777e+07,20308,0,1.3666e+08,5165,12557,502.62,0,502.62,0,0.00026361,2.2342e-07,0,0.0001316,4.9429e-05,1.0516e+08,75656,0,5.2272e+07,8969.2,502.62,1
1736,1.63,12124,1,12124,1,4.206e-06,-1.0623e-08,0,0.0002303,-7.6732e-07,6756.5,-3608.4,0,9.1967e+07,1166.6,12123,12992,1,12992,1,0.00044903,4.6977e-07,0,0.00044903,8.2624e-05,1.7453e+08,1.5938e+05,0,1.792e+08,20580,12991,12124,1,12124,1,4.1986e-06,-8.1043e-09,0,0.0002304,-7.6643e-07,1.6447e+06,-2775.8,0,9.2421e+07,878.63,12123,11209,1,11209,1,-0.00044058,-3.9657e-07,0,1.2236e-05,-8.4149e-05,-1.792e+08,-1.3408e+05,0,4.9771e+06,-14423,11208,11690,1,11690,1,-0.00022619,-1.1145e-07,0,0.00011521,-4.3981e-05,-9.1999e+07,-38071,0,4.6348e+07,-4062.2,11689,12558,1,12558,1,0.0002346,7.6495e-08,0,0.0003456,4.2448e-05,9.2513e+07,25890,0,1.3772e+08,5489.8,12557,502.62,0,502.62,0,0.00026582,1.7306e-07,0,0.00013271,4.9841e-05,1.0601e+08,58591,0,5.2692e+07,6291.2,502.62,1
1736,1.64,12124,1,12124,1,4.2771e-06,-1.1011e-08,0,0.00023153,-7.8377e-07,365.68,-3700.9,0,9.2432e+07,-273.41,12123,12992,1,12992,1,0.00045165,5.5564e-07,0,0.00045165,8.3068e-05,1.7544e+08,1.8966e+05,0,1.8018e+08,14472,12991,12124,1,12124,1,4.2695e-06,-1.2221e-08,0,0.00023164,-7.7917e-07,1.6716e+06,-4053.4,0,9.2902e+07,-231.01,12123,11209,1,11209,1,-0.000443,-4.3797e-07,0,1.225e-05,-8.4642e-05,-1.8018e+08,-1.4806e+05,0,4.9841e+06,-13102,11208,11690,1,11690,1,-0.00022734,-1.4441e-07,0,0.00011583,-4.4226e-05,-9.2468e+07,-49294,0,4.6591e+07,-5401.1,11689,12558,1,12558,1,0.00023592,1.0387e-07,0,0.00034742,4.2656e-05,9.299e+07,35190,0,1.3844e+08,5035.8,12557,502.62,0,502.62,0,0.00026724,2.0385e-07,0,0.00013342,5.0107e-05,1.0655e+08,68992,0,5.2953e+07,6355.4,502.62,1
1736,1.65,12124,1,12124,1,4.3536e-06,-4.3024e-08,0,0.00023255,-8.0284e-07,6242.9,-14543,0,9.282e+07,-2333.9,12123,12992,1,12992,1,0.0004539,5.7984e-07,0,0.0004539,8.3469e-05,1.7623e+08,1.9624e+05,0,1.8106e+08,19692,12991,12124,1,12124,1,4.35e-06,-3.2111e-08,0,0.00023271,-8.104e-07,1.7031e+06,-10731,0,9.3316e+07,-1656.6,12123,11209,1,11209,1,-0.00044515,-5.131e-07,0,1.2244e-05,-8.5063e-05,-1.8106e+08,-1.7369e+05,0,4.9822e+06,-22063,11208,11690,1,11690,1,-0.00022834,-2.0784e-07,0,0.00011636,-4.4438e-05,-9.2873e+07,-70160,0,4.68e+07,-7497.4,11689,12558,1,12558,1,0.00023706,8.3108e-08,0,0.00034903,4.2839e-05,9.3408e+07,28305,0,1.3904e+08,3342.2,12557,502.62,0,502.62,0,0.00026841,2.3343e-07,0,0.000134,5.0328e-05,1.0699e+08,79028,0,5.3172e+07,7398,502.62,1
1736,1.66,12124,1,12124,1,4.3445e-06,4.2546e-09,0,0.00023412,-7.9007e-07,-22839,1435.7,0,9.3437e+07,2169.4,12123,12992,1,12992,1,0.00045665,5.687e-07,0,0.00045665,8.3997e-05,1.7722e+08,1.9416e+05,0,1.8218e+08,24242,12991,12124,1,12124,1,4.339e-06,-1.3303e-09,0,0.00023422,-7.8862e-07,1.6992e+06,-436.62,0,9.3912e+07,1422.2,12123,11209,1,11209,1,-0.0004479,-4.2309e-07,0,1.2364e-05,-8.5575e-05,-1.8218e+08,-1.4359e+05,0,5.0301e+06,-11077,11208,11690,1,11690,1,-0.00022989,-1.2709e-07,0,0.00011714,-4.4718e-05,-9.3502e+07,-43477,0,4.7111e+07,-3252.2,11689,12558,1,12558,1,0.00023857,1.2448e-07,0,0.00035134,4.3149e-05,9.3982e+07,42225,0,1.3992e+08,6415,12557,502.62,0,502.62,0,0.00027024,2.0638e-07,0,0.00013491,5.0669e-05,1.077e+08,69883,0,5.3523e+07,6879.8,502.62,1
1736,1.67,12124,1,12124,1,4.497e-06,-3.2636e-08,0,0.00023582,-8.2849e-07,3416.3,-11040,0,9.4092e+07,-2071.1,12123,12992,1,12992,1,0.00046025,4.671e-07,0,0.00046025,8.4605e-05,1.7852e+08,1.587e+05,0,1.8352e+08,9400.9,12991,12124,1,12124,1,4.4888e-06,-1.7544e-08,0,0.00023597,-8.373e-07,1.7571e+06,-5937.6,0,9.4595e+07,-1491.2,12123,11209,1,11209,1,-0.0004512,-4.5033e-07,0,1.2344e-05,-8.6252e-05,-1.8352e+08,-1.534e+05,0,5.0223e+06,-22862,11208,11690,1,11690,1,-0.00023145,-1.5781e-07,0,0.00011798,-4.5076e-05,-9.4139e+07,-53238,0,4.7443e+07,-6391.1,11689,12558,1,12558,1,0.00024046,7.3793e-08,0,0.00035392,4.342e-05,9.469e+07,24853,0,1.4093e+08,3377.7,12557,502.62,0,502.62,0,0.0002722,1.9303e-07,0,0.0001359,5.1035e-05,1.0846e+08,65344,0,5.3895e+07,6271.4,502.62,1
1736,1.68,12124,1,12124,1,4.5624e-06,-7.223e-08,0,0.00023665,-8.3693e-07,-1132.4,-24386,0,9.4399e+07,-580.58,12123,12992,1,12992,1,0.00046229,6.2362e-07,0,0.00046229,8.4965e-05,1.7918e+08,2.1284e+05,0,1.843e+08,25927,12991,12124,1,12124,1,4.5575e-06,-4.2735e-08,0,0.00023687,-8.4053e-07,1.7846e+06,-14367,0,9.4936e+07,31.956,12123,11209,1,11209,1,-0.00045311,-5.8071e-07,0,1.233e-05,-8.6634e-05,-1.843e+08,-1.9624e+05,0,5.0176e+06,-24338,11208,11690,1,11690,1,-0.00023228,-2.499e-07,0,0.00011843,-4.5253e-05,-9.4476e+07,-83931,0,4.7617e+07,-6031.9,11689,12558,1,12558,1,0.00024142,6.3714e-08,0,0.00035527,4.3575e-05,9.5025e+07,21495,0,1.4142e+08,5379.5,12557,502.62,0,502.62,0,0.00027316,2.5209e-07,0,0.00013637,5.1219e-05,1.0881e+08,85346,0,5.4064e+07,9053.6,502.62,1
1736,1.69,12124,1,12124,1,4.6444e-06,-4.0438e-08,0,0.00023847,-8.5685e-07,4345.3,-13652,0,9.5112e+07,-2617.7,12123,12992,1,12992,1,0.00046555,4.4183e-07,0,0.00046555,8.5541e-05,1.8037e+08,1.4931e+05,0,1.8555e+08,10765,12991,12124,1,12124,1,4.6353e-06,-2.554e-08,0,0.00023863,-8.6117e-07,1.8147e+06,-8523.6,0,9.5633e+07,-1717.3,12123,11209,1,11209,1,-0.0004562,-4.1869e-07,0,1.2383e-05,-8.7242e-05,-1.8555e+08,-1.4166e+05,0,5.0394e+06,-21094,11208,11690,1,11690,1,-0.00023396,-1.6622e-07,0,0.0001193,-4.5598e-05,-9.5159e+07,-55915,0,4.7964e+07,-6594.9,11689,12558,1,12558,1,0.00024327,6.2687e-08,0,0.00035791,4.3887e-05,9.573e+07,21179,0,1.4244e+08,2233.9,12557,502.62,0,502.62,0,0.00027526,1.8597e-07,0,0.00013743,5.1608e-05,1.0963e+08,62950,0,5.4472e+07,6593.3,502.62,1
1736,1.7,12124,1,12124,1,4.7279e-06,-1.13e-07,0,0.00023981,-8.6176e-07,1790.7,-38157,0,9.5616e+07,1730.5,12123,12992,1,12992,1,0.00046873,4.1986e-07,0,0.00046873,8.6097e-05,1.8148e+08,1.4329e+05,0,1.8675e+08,22420,12991,12124,1,12124,1,4.7128e-06,-7.6e-08,0,0.00024006,-8.5294e-07,1.8475e+06,-25451,0,9.6184e+07,968.43,12123,11209,1,11209,1,-0.00045915,-5.6125e-07,0,1.2388e-05,-8.784e-05,-1.8675e+08,-1.8997e+05,0,5.0389e+06,-10870,11208,11690,1,11690,1,-0.00023529,-2.6456e-07,0,0.00012002,-4.587e-05,-9.5701e+07,-90259,0,4.8245e+07,-3728,11689,12558,1,12558,1,0.00024476,2.3195e-08,0,0.00036003,4.4145e-05,9.6276e+07,7776.6,0,1.4326e+08,5337,12557,502.62,0,502.62,0,0.0002768,2.1216e-07,0,0.0001382,5.1897e-05,1.1021e+08,71796,0,5.4756e+07,6920.9,502.62,1
1736,1.71,12124,1,12124,1,4.7961e-06,-4.7528e-08,0,0.00024136,-8.7875e-07,-3873.5,-16074,0,9.6215e+07,-166.48,12123,12992,1,12992,1,0.00047125,3.703e-07,0,0.00047125,8.6549e-05,1.8234e+08,1.2464e+05,0,1.8774e+08,10747,12991,12124,1,12124,1,4.7755e-06,-2.4932e-08,0,0.00024154,-8.7549e-07,1.8708e+06,-8226.4,0,9.676e+07,42.486,12123,11209,1,11209,1,-0.00046157,-4.2581e-07,0,1.2441e-05,-8.831e-05,-1.8774e+08,-1.44e+05,0,5.0612e+06,-18976,11208,11690,1,11690,1,-0.0002367,-1.5969e-07,0,0.00012074,-4.6164e-05,-9.6274e+07,-53721,0,4.8531e+07,-4194,11689,12558,1,12558,1,0.00024631,4.8719e-08,0,0.00036224,4.4406e-05,9.685e+07,16148,0,1.4409e+08,4307.4,12557,502.62,0,502.62,0,0.00027859,1.6802e-07,0,0.0001391,5.2232e-05,1.109e+08,56822,0,5.5097e+07,5300.8,502.62,1
1736,1.72,12124,1,12124,1,4.9142e-06,-6.2988e-08,0,0.00024332,-9.0146e-07,4125.1,-21283,0,9.6972e+07,-562.47,12123,12992,1,12992,1,0.00047525,3.4574e-07,0,0.00047525,8.7258e-05,1.8379e+08,1.184e+05,0,1.8928e+08,22105,12991,12124,1,12124,1,4.9071e-06,-3.9549e-08,0,0.0002435,-8.9789e-07,1.922e+06,-13019,0,9.7532e+07,-1070,12123,11209,1,11209,1,-0.00046535,-4.034e-07,0,1.2456e-05,-8.906e-05,-1.8928e+08,-1.3762e+05,0,5.0684e+06,-11304,11208,11690,1,11690,1,-0.00023856,-1.6812e-07,0,0.00012174,-4.6557e-05,-9.703e+07,-56694,0,4.8924e+07,-4994.3,11689,12558,1,12558,1,0.0002484,2.8581e-08,0,0.00036521,4.4744e-05,9.7633e+07,9697.9,0,1.4524e+08,2273.2,12557,502.62,0,502.62,0,0.00028085,1.591e-07,0,0.00014023,5.2655e-05,1.1177e+08,53861,0,5.5526e+07,6171.8,502.62,1
1736,1.73,12124,1,12124,1,5.0135e-06,-5.1368e-08,0,0.00024473,-9.2117e-07,2280.8,-17368,0,9.7505e+07,-1190.1,12123,12992,1,12992,1,0.00047812,4.1115e-07,0,0.00047812,8.7757e-05,1.8476e+08,1.3834e+05,0,1.9036e+08,11350,12991,12124,1,12124,1,4.9972e-06,-3.1545e-08,0,0.00024493,-9.2386e-07,1.9574e+06,-10641,0,9.8079e+07,-1190.8,12123,11209,1,11209,1,-0.000468,-4.181e-07,0,1.2461e-05,-8.9599e-05,-1.9036e+08,-1.4252e+05,0,5.07e+06,-18501,11208,11690,1,11690,1,-0.00023987,-1.7884e-07,0,0.00012243,-4.6841e-05,-9.7565e+07,-60113,0,4.9196e+07,-5441.4,11689,12558,1,12558,1,0.00024992,5.3096e-08,0,0.00036733,4.4998e-05,9.8178e+07,17958,0,1.4603e+08,3516.6,12557,502.62,0,502.62,0,0.00028248,1.8293e-07,0,0.00014105,5.2961e-05,1.1238e+08,61859,0,5.5825e+07,5891.8,502.62,1
1736,1.74,12124,1,12124,1,5.0841e-06,-3.491e-08,0,0.00024623,-9.3111e-07,-4523.7,-11803,0,9.8079e+07,36.509,12123,12992,1,12992,1,0.00048089,3.8792e-07,0,0.00048089,8.8252e-05,1.8571e+08,1.328e+05,0,1.9143e+08,19632,12991,12124,1,12124,1,5.0799e-06,-2.1817e-08,0,0.00024638,-9.3049e-07,1.9897e+06,-7275,0,9.8645e+07,-446.66,12123,11209,1,11209,1,-0.00047065,-3.4994e-07,0,1.2494e-05,-9.0116e-05,-1.9143e+08,-1.1934e+05,0,5.0836e+06,-11708,11208,11690,1,11690,1,-0.00024127,-1.4924e-07,0,0.00012318,-4.7128e-05,-9.8132e+07,-50560,0,4.9489e+07,-3724.3,11689,12558,1,12558,1,0.00025145,5.4063e-08,0,0.00036953,4.5258e-05,9.8743e+07,18407,0,1.4686e+08,3127.5,12557,502.62,0,502.62,0,0.00028421,1.6045e-07,0,0.00014191,5.3284e-05,1.1304e+08,54308,0,5.6151e+07,5700.1,502.62,1
1736,1.75,12124,1,12124,1,5.1948e-06,-6.2655e-08,0,0.00024756,-9.5746e-07,4487.9,-21155,0,9.8585e+07,-2435.8,12123,12992,1,12992,1,0.00048377,4.8288e-07,0,0.00048377,8.8754e-05,1.8672e+08,1.6345e+05,0,1.9252e+08,12397,12991,12124,1,12124,1,5.1939e-06,-5.1314e-08,0,0.00024774,-9.6708e-07,2.0337e+06,-17032,0,9.9174e+07,-1337.4,12123,11209,1,11209,1,-0.00047332,-4.1643e-07,0,1.2467e-05,-9.0656e-05,-1.9252e+08,-1.4114e+05,0,5.0738e+06,-22507,11208,11690,1,11690,1,-0.00024252,-2.035e-07,0,0.00012386,-4.7405e-05,-9.8642e+07,-68621,0,4.9754e+07,-6093.6,11689,12558,1,12558,1,0.00025292,3.6237e-08,0,0.00037158,4.5493e-05,9.9281e+07,12022,0,1.4763e+08,2621.1,12557,502.62,0,502.62,0,0.00028575,1.9275e-07,0,0.00014268,5.3575e-05,1.1362e+08,65201,0,5.6436e+07,7145.8,502.62,1
1736,1.76,12124,1,12124,1,5.2557e-06,-2.4393e-08,0,0.00024858,-9.6365e-07,-1910.5,-8243.6,0,9.8967e+07,-380.32,12123,12992,1,12992,1,0.00048559,5.3122e-07,0,0.00048559,8.9071e-05,1.8731e+08,1.8186e+05,0,1.9321e+08,22577,12991,12124,1,12124,1,5.2508e-06,-1.8656e-08,0,0.00024872,-9.6839e-07,2.056e+06,-6373.7,0,9.9548e+07,-433.54,12123,11209,1,11209,1,-0.00047502,-4.4368e-07,0,1.2492e-05,-9.0995e-05,-1.9321e+08,-1.5056e+05,0,5.0836e+06,-16394,11208,11690,1,11690,1,-0.00024345,-1.6247e-07,0,0.00012436,-4.7602e-05,-9.9018e+07,-53715,0,4.9949e+07,-4894.8,11689,12558,1,12558,1,0.00025397,8.0967e-08,0,0.00037305,4.567e-05,9.9653e+07,27176,0,1.4818e+08,3975,12557,502.62,0,502.62,0,0.00028693,2.0447e-07,0,0.00014327,5.3795e-05,1.1406e+08,69152,0,5.665e+07,7089.3,502.62,1
1736,1.77,12124,1,12124,1,5.3502e-06,-3.8047e-08,0,0.0002505,-9.8658e-07,1829.2,-12835,0,9.9714e+07,-2716,12123,12992,1,12992,1,0.00048943,4.499e-07,0,0.00048943,8.9758e-05,1.8871e+08,1.5167e+05,0,1.947e+08,9521,12991,12124,1,12124,1,5.3379e-06,-2.3986e-08,0,0.00025066,-9.8864e-07,2.0905e+06,-7977.6,0,1.0031e+08,-2476.8,12123,11209,1,11209,1,-0.00047867,-3.8716e-07,0,1.2539e-05,-9.1715e-05,-1.947e+08,-1.3175e+05,0,5.1022e+06,-20492,11208,11690,1,11690,1,-0.00024527,-1.5527e-07,0,0.00012531,-4.7978e-05,-9.9761e+07,-52723,0,5.0323e+07,-6654.7,11689,12558,1,12558,1,0.00025599,5.7195e-08,0,0.00037594,4.6007e-05,1.0042e+08,18945,0,1.493e+08,1762.4,12557,502.62,0,502.62,0,0.00028914,1.7473e-07,0,0.00014438,5.4208e-05,1.1492e+08,59096,0,5.7076e+07,5849.5,502.62,1
1736,1.78,12124,1,12124,1,5.4696e-06,-5.3651e-08,0,0.00025203,-1.0023e-06,5488.2,-18095,0,1.0029e+08,-133.4,12123,12992,1,12992,1,0.00049249,3.1825e-07,0,0.00049249,9.0288e-05,1.8974e+08,1.0895e+05,0,1.9585e+08,12341,12991,12124,1,12124,1,5.4615e-06,-3.008e-08,0,0.00025219,-9.9802e-07,2.1406e+06,-10170,0,1.009e+08,-588.83,12123,11209,1,11209,1,-0.0004815,-3.8259e-07,0,1.2521e-05,-9.2288e-05,-1.9585e+08,-1.2956e+05,0,5.0944e+06,-12501,11208,11690,1,11690,1,-0.0002467,-1.6294e-07,0,0.00012608,-4.8285e-05,-1.0034e+08,-54783,0,5.0627e+07,-3604.9,11689,12558,1,12558,1,0.00025765,4.3776e-08,0,0.00037825,4.6273e-05,1.0101e+08,14611,0,1.5017e+08,3641.2,12557,502.62,0,502.62,0,0.00029091,1.5832e-07,0,0.00014527,5.4539e-05,1.1558e+08,53529,0,5.7403e+07,4839.8,502.62,1
1736,1.79,12124,1,12124,1,5.57e-06,-2.1199e-08,0,0.00025336,-1.0243e-06,7730.3,-7138.4,0,1.0079e+08,-1611.8,12123,12992,1,12992,1,0.00049502,4.2807e-07,0,0.00049502,9.0717e-05,1.9059e+08,1.4401e+05,0,1.9678e+08,10060,12991,12124,1,12124,1,5.5581e-06,-1.5073e-08,0,0.00025349,-1.0246e-06,2.1772e+06,-5061.8,0,1.014e+08,-723.97,12123,11209,1,11209,1,-0.00048379,-3.5075e-07,0,1.2522e-05,-9.2761e-05,-1.9678e+08,-1.1852e+05,0,5.0956e+06,-19100,11208,11690,1,11690,1,-0.00024789,-1.2505e-07,0,0.00012674,-4.8552e-05,-1.0082e+08,-41962,0,5.0881e+07,-5464.2,11689,12558,1,12558,1,0.00025905,6.227e-08,0,0.00038018,4.6506e-05,1.0152e+08,20875,0,1.5089e+08,2987.7,12557,502.62,0,502.62,0,0.00029244,1.5849e-07,0,0.00014603,5.4825e-05,1.1616e+08,53559,0,5.7684e+07,5532.9,502.62,1
1736,1.8,12124,1,12124,1,5.6279e-06,-1.6658e-08,0,0.00025459,-1.0332e-06,-3289.7,-5608.8,0,1.0126e+08,-916.29,12123,12992,1,12992,1,0.00049744,4.9158e-07,0,0.00049744,9.1156e-05,1.9141e+08,1.6798e+05,0,1.9773e+08,14994,12991,12124,1,12124,1,5.6254e-06,-9.3574e-09,0,0.00025471,-1.0385e-06,2.2026e+06,-3099,0,1.0187e+08,-1051,12123,11209,1,11209,1,-0.00048613,-4.319e-07,0,1.2545e-05,-9.3214e-05,-1.9773e+08,-1.4642e+05,0,5.1054e+06,-13028,11208,11690,1,11690,1,-0.00024905,-1.5007e-07,0,0.00012735,-4.8793e-05,-1.013e+08,-50310,0,5.1121e+07,-5108.3,11689,12558,1,12558,1,0.00026033,9.8152e-08,0,0.00038203,4.6725e-05,1.0198e+08,32565,0,1.5158e+08,3197.2,12557,502.62,0,502.62,0,0.00029387,1.9557e-07,0,0.00014674,5.5093e-05,1.1669e+08,66116,0,5.7947e+07,5597.5,502.62,1
1736,1.81,12124,1,12124,1,5.7212e-06,-2.4907e-09,0,0.00025587,-1.0561e-06,574.45,-837.19,0,1.0175e+08,-3322.7,12123,12992,1,12992,1,0.00049999,5.8036e-07,0,0.00049999,9.1605e-05,1.9229e+08,1.958e+05,0,1.9869e+08,10294,12991,12124,1,12124,1,5.7135e-06,-7.0329e-09,0,0.00025599,-1.0723e-06,2.2365e+06,-2369.8,0,1.0237e+08,-1583.8,12123,11209,1,11209,1,-0.0004885,-4.3479e-07,0,1.2542e-05,-9.369e-05,-1.9869e+08,-1.4757e+05,0,5.1053e+06,-34590,11208,11690,1,11690,1,-0.00025027,-1.412e-07,0,0.00012799,-4.9082e-05,-1.0179e+08,-48040,0,5.1373e+07,-7302.2,11689,12558,1,12558,1,0.0002617,1.1365e-07,0,0.00038397,4.6947e-05,1.0248e+08,37889,0,1.523e+08,3427.5,12557,502.62,0,502.62,0,0.00029534,2.1325e-07,0,0.00014748,5.5372e-05,1.1725e+08,72074,0,5.8221e+07,8780.4,502.62,1
1736,1.82,12124,1,12124,1,5.8205e-06,6.0185e-09,0,0.00025749,-1.0688e-06,3023.2,2041.7,0,1.0237e+08,-1030.3,12123,12992,1,12992,1,0.00050316,4.8968e-07,0,0.00050316,9.2157e-05,1.934e+08,1.6769e+05,0,1.9989e+08,13003,12991,12124,1,12124,1,5.8129e-06,-5.1128e-09,0,0.00025762,-1.0745e-06,2.2765e+06,-1708.4,0,1.03e+08,-1175.1,12123,11209,1,11209,1,-0.00049143,-3.2494e-07,0,1.2567e-05,-9.4286e-05,-1.9989e+08,-1.1066e+05,0,5.1142e+06,-12334,11208,11690,1,11690,1,-0.00025176,-1.1759e-07,0,0.00012879,-4.9377e-05,-1.024e+08,-39018,0,5.1686e+07,-5065.4,11689,12558,1,12558,1,0.00026343,1.0843e-07,0,0.00038636,4.7235e-05,1.0312e+08,36271,0,1.5322e+08,2811.8,12557,502.62,0,502.62,0,0.00029721,1.7772e-07,0,0.00014842,5.5719e-05,1.1796e+08,60091,0,5.8574e+07,5234.7,502.62,1
1736,1.83,12124,1,12124,1,5.9033e-06,-6.1587e-08,0,0.00025823,-1.085e-06,852.42,-20767,0,1.0263e+08,-1433,12123,12992,1,12992,1,0.00050523,5.768e-07,0,0.00050523,9.251e-05,1.9407e+08,1.9676e+05,0,2.0067e+08,19369,12991,12124,1,12124,1,5.883e-06,-3.7611e-08,0,0.00025844,-1.0833e-06,2.3039e+06,-12570,0,1.0331e+08,-1068.5,12123,11209,1,11209,1,-0.00049335,-5.3104e-07,0,1.2537e-05,-9.4674e-05,-2.0067e+08,-1.7908e+05,0,5.1023e+06,-21405,11208,11690,1,11690,1,-0.0002525,-2.3906e-07,0,0.0001292,-4.9539e-05,-1.027e+08,-80206,0,5.1843e+07,-6899.2,11689,12558,1,12558,1,0.00026433,7.4027e-08,0,0.00038761,4.7365e-05,1.0342e+08,24681,0,1.5368e+08,3734.7,12557,502.62,0,502.62,0,0.00029806,2.4445e-07,0,0.00014884,5.5882e-05,1.1827e+08,82527,0,5.8718e+07,7631.5,502.62,1
1736,1.84,12124,1,12124,1,5.9899e-06,-6.0708e-08,0,0.00026019,-1.1032e-06,2285.6,-20481,0,1.0339e+08,-2391,12123,12992,1,12992,1,0.000509,5.4932e-07,0,0.000509,9.3184e-05,1.9541e+08,1.8523e+05,0,2.0213e+08,11524,12991,12124,1,12124,1,5.9759e-06,-4.6127e-08,0,0.00026038,-1.1107e-06,2.3392e+06,-15423,0,1.0407e+08,-1191.7,12123,11209,1,11209,1,-0.00049695,-4.8918e-07,0,1.2589e-05,-9.5376e-05,-2.0213e+08,-1.6561e+05,0,5.124e+06,-19692,11208,11690,1,11690,1,-0.00025435,-2.2822e-07,0,0.00013017,-4.9917e-05,-1.0345e+08,-77142,0,5.2225e+07,-7004.6,11689,12558,1,12558,1,0.00026635,6.1098e-08,0,0.00039052,4.7716e-05,1.0419e+08,20408,0,1.548e+08,3167.5,12557,502.62,0,502.62,0,0.00030032,2.2808e-07,0,0.00014998,5.6304e-05,1.1915e+08,77042,0,5.9154e+07,6901.5,502.62,1
1736,1.85,12124,1,12124,1,6.0884e-06,-5.7922e-08,0,0.0002617,-1.12e-06,-6704.8,-19528,0,1.0396e+08,-1935.9,12123,12992,1,12992,1,0.00051207,4.7781e-07,0,0.00051207,9.3718e-05,1.9643e+08,1.611e+05,0,2.0328e+08,9949.2,12991,12124,1,12124,1,6.071e-06,-2.5608e-08,0,0.0002619,-1.1197e-06,2.3772e+06,-8426.5,0,1.0465e+08,-1091.4,12123,11209,1,11209,1,-0.00049979,-5.1244e-07,0,1.2591e-05,-9.5952e-05,-2.0328e+08,-1.7319e+05,0,5.1247e+06,-23536,11208,11690,1,11690,1,-0.00025576,-2.1373e-07,0,0.00013093,-5.0224e-05,-1.0403e+08,-71999,0,5.252e+07,-6366.9,11689,12558,1,12558,1,0.00026798,7.5155e-08,0,0.00039279,4.7978e-05,1.0476e+08,25091,0,1.5564e+08,3380.6,12557,502.62,0,502.62,0,0.00030207,2.2182e-07,0,0.00015085,5.6631e-05,1.198e+08,74933,0,5.9472e+07,6492.9,502.62,1
1736,1.86,12124,1,12124,1,6.2096e-06,-6.9067e-09,0,0.00026314,-1.1373e-06,518.24,-2319.3,0,1.045e+08,166.59,12123,12992,1,12992,1,0.00051441,4.4808e-07,0,0.00051441,9.4122e-05,1.9721e+08,1.5104e+05,0,2.0416e+08,17066,12991,12124,1,12124,1,6.2043e-06,-4.2581e-09,0,0.00026325,-1.1306e-06,2.4291e+06,-1429.2,0,1.0517e+08,-63.995,12123,11209,1,11209,1,-0.00050194,-4.0042e-07,0,1.2578e-05,-9.6388e-05,-2.0416e+08,-1.358e+05,0,5.1191e+06,-14804,11208,11690,1,11690,1,-0.00025701,-1.1297e-07,0,0.00013162,-5.0513e-05,-1.0453e+08,-38167,0,5.2787e+07,-4902.2,11689,12558,1,12558,1,0.00026946,9.8828e-08,0,0.00039482,4.8225e-05,1.053e+08,33849,0,1.564e+08,4659.4,12557,502.62,0,502.62,0,0.00030373,1.7899e-07,0,0.00015169,5.6941e-05,1.2042e+08,60452,0,5.9779e+07,6457.8,502.62,1
1736,1.87,12124,1,12124,1,6.3167e-06,1.9933e-09,0,0.00026449,-1.1628e-06,2891.5,672.53,0,1.0501e+08,-2245.7,12123,12992,1,12992,1,0.00051716,4.997e-07,0,0.00051716,9.4605e-05,1.9814e+08,1.6842e+05,0,2.0521e+08,10124,12991,12124,1,12124,1,6.3116e-06,4.2998e-10,0,0.00026463,-1.1702e-06,2.4705e+06,142.17,0,1.057e+08,-1763.9,12123,11209,1,11209,1,-0.00050451,-4.3936e-07,0,1.2567e-05,-9.6908e-05,-2.0521e+08,-1.4836e+05,0,5.1149e+06,-18017,11208,11690,1,11690,1,-0.00025827,-1.287e-07,0,0.00013229,-5.079e-05,-1.0505e+08,-43774,0,5.3048e+07,-6869.6,11689,12558,1,12558,1,0.00027093,1.3201e-07,0,0.00039687,4.8447e-05,1.0583e+08,44533,0,1.5716e+08,2912.6,12557,502.62,0,502.62,0,0.00030528,2.0442e-07,0,0.00015246,5.7233e-05,1.21e+08,69014,0,6.0064e+07,6061.8,502.62,1
1736,1.88,12124,1,12124,1,6.4167e-06,-5.6502e-08,0,0.00026594,-1.1806e-06,2864.2,-19020,0,1.0556e+08,-2048.5,12123,12992,1,12992,1,0.0005203,4.5137e-07,0,0.0005203,9.5146e-05,1.9922e+08,1.539e+05,0,2.0638e+08,9289.7,12991,12124,1,12124,1,6.4174e-06,-3.789e-08,0,0.0002661,-1.1918e-06,2.5116e+06,-12577,0,1.0627e+08,-1683.3,12123,11209,1,11209,1,-0.00050741,-4.3865e-07,0,1.2543e-05,-9.7492e-05,-2.0638e+08,-1.4815e+05,0,5.107e+06,-25183,11208,11690,1,11690,1,-0.00025965,-1.7721e-07,0,0.00013303,-5.1071e-05,-1.0561e+08,-59875,0,5.3338e+07,-5536.5,11689,12558,1,12558,1,0.0002725,4.4573e-08,0,0.00039911,4.8705e-05,1.064e+08,15197,0,1.58e+08,2852.2,12557,502.62,0,502.62,0,0.00030696,1.8291e-07,0,0.00015331,5.7546e-05,1.2163e+08,61761,0,6.0376e+07,6361.4,502.62,1
1736,1.89,12124,1,12124,1,6.5003e-06,1.3488e-08,0,0.00026717,-1.1893e-06,-3011.4,4499.5,0,1.0602e+08,699.52,12123,12992,1,12992,1,0.00052256,6.454e-07,0,0.00052256,9.5565e-05,1.9996e+08,2.1746e+05,0,2.0727e+08,18030,12991,12124,1,12124,1,6.4821e-06,-2.5577e-09,0,0.00026733,-1.1855e-06,2.5381e+06,-821.04,0,1.0674e+08,652.58,12123,11209,1,11209,1,-0.0005096,-4.1192e-07,0,1.2574e-05,-9.7921e-05,-2.0727e+08,-1.3894e+05,0,5.1175e+06,-23283,11208,11690,1,11690,1,-0.00026081,-1.2204e-07,0,0.00013366,-5.1335e-05,-1.0608e+08,-41007,0,5.3583e+07,-4089.7,11689,12558,1,12558,1,0.00027382,1.2273e-07,0,0.00040096,4.8935e-05,1.0686e+08,41281,0,1.5868e+08,5330.3,12557,502.62,0,502.62,0,0.00030838,2.1474e-07,0,0.00015402,5.7815e-05,1.2216e+08,72432,0,6.0634e+07,6731,502.62,1
1736,1.9,12124,1,12124,1,6.5921e-06,-2.7294e-08,0,0.00026862,-1.2103e-06,-5450.6,-9172.7,0,1.0657e+08,-1038.7,12123,12992,1,12992,1,0.00052561,4.6704e-07,0,0.00052561,9.6074e-05,2.01e+08,1.5983e+05,0,2.084e+08,15156,12991,12124,1,12124,1,6.5872e-06,-1.1651e-08,0,0.00026877,-1.2146e-06,2.5782e+06,-3954.3,0,1.0729e+08,-675.29,12123,11209,1,11209,1,-0.00051236,-4.1867e-07,0,1.2587e-05,-9.8485e-05,-2.084e+08,-1.4113e+05,0,5.1226e+06,-17411,11208,11690,1,11690,1,-0.00026214,-1.5829e-07,0,0.00013437,-5.1599e-05,-1.0662e+08,-52679,0,5.3858e+07,-5445.4,11689,12558,1,12558,1,0.00027536,8.222e-08,0,0.00040311,4.9178e-05,1.0742e+08,27959,0,1.595e+08,3770.3,12557,502.62,0,502.62,0,0.00031006,1.926e-07,0,0.00015486,5.8128e-05,1.228e+08,65026,0,6.0947e+07,6076.5,502.62,1
1736,1.91,12124,1,12124,1,6.6937e-06,-5.1015e-08,0,0.00026976,-1.2246e-06,-3950.9,-17169,0,1.07e+08,757.34,12123,12992,1,12992,1,0.00052804,4.1609e-07,0,0.00052804,9.6483e-05,2.0179e+08,1.4189e+05,0,2.0929e+08,18193,12991,12124,1,12124,1,6.68e-06,-2.6235e-08,0,0.00026995,-1.2268e-06,2.6147e+06,-8778.1,0,1.0774e+08,533.42,12123,11209,1,11209,1,-0.00051454,-4.9747e-07,0,1.2568e-05,-9.8939e-05,-2.0929e+08,-1.6813e+05,0,5.1155e+06,-11521,11208,11690,1,11690,1,-0.00026322,-1.7228e-07,0,0.00013496,-5.1836e-05,-1.0706e+08,-57467,0,5.4088e+07,-4324.9,11689,12558,1,12558,1,0.00027663,6.0567e-08,0,0.00040486,4.9385e-05,1.0787e+08,20397,0,1.6015e+08,5595,12557,502.62,0,502.62,0,0.00031138,1.8868e-07,0,0.00015552,5.8374e-05,1.2328e+08,63650,0,6.1184e+07,6178.2,502.62,1
1736,1.92,12124,1,12124,1,6.8059e-06,5.4404e-09,0,0.00027119,-1.2447e-06,3118,1820.5,0,1.0754e+08,1000.7,12123,12992,1,12992,1,0.00053068,5.6161e-07,0,0.00053068,9.6939e-05,2.0268e+08,1.8912e+05,0,2.1028e+08,17446,12991,12124,1,12124,1,6.8009e-06,9.962e-10,0,0.00027131,-1.2402e-06,2.6615e+06,326.97,0,1.0826e+08,654.49,12123,11209,1,11209,1,-0.00051699,-4.7873e-07,0,1.2548e-05,-9.9434e-05,-2.1028e+08,-1.6176e+05,0,5.1069e+06,-13763,11208,11690,1,11690,1,-0.00026447,-1.3618e-07,0,0.00013565,-5.2119e-05,-1.0757e+08,-45630,0,5.4354e+07,-4218.5,11689,12558,1,12558,1,0.00027811,1.4469e-07,0,0.0004069,4.9633e-05,1.0841e+08,49145,0,1.6091e+08,5927,12557,502.62,0,502.62,0,0.00031302,2.2616e-07,0,0.00015634,5.8682e-05,1.239e+08,76279,0,6.1489e+07,6755.1,502.62,1
1736,1.93,12124,1,12124,1,6.9144e-06,-2.5633e-08,0,0.00027351,-1.2645e-06,-5644.1,-8608.5,0,1.0843e+08,962.03,12123,12992,1,12992,1,0.00053517,3.3366e-07,0,0.00053517,9.7741e-05,2.0426e+08,1.1239e+05,0,2.1201e+08,12279,12991,12124,1,12124,1,6.906e-06,-1.0796e-08,0,0.00027363,-1.2627e-06,2.7028e+06,-3550.4,0,1.0917e+08,1057.2,12123,11209,1,11209,1,-0.00052124,-3.644e-07,0,1.2618e-05,-0.00010027,-2.1201e+08,-1.2267e+05,0,5.1359e+06,-11714,11208,11690,1,11690,1,-0.00026669,-1.129e-07,0,0.00013681,-5.2563e-05,-1.0847e+08,-37695,0,5.4814e+07,-3198.4,11689,12558,1,12558,1,0.00028054,5.4217e-08,0,0.0004104,5.0039e-05,1.093e+08,18335,0,1.6224e+08,4815.9,12557,502.62,0,502.62,0,0.0003157,1.4067e-07,0,0.00015769,5.9182e-05,1.2493e+08,47440,0,6.1997e+07,4859.2,502.62,1
1736,1.94,12124,1,12124,1,7.089e-06,1.7481e-08,0,0.00027466,-1.3011e-06,7176.9,5886.2,0,1.0884e+08,-874.71,12123,12992,1,12992,1,0.00053751,4.5681e-07,0,0.00053751,9.813e-05,2.0496e+08,1.5377e+05,0,2.1284e+08,12634,12991,12124,1,12124,1,7.0821e-06,8.5327e-09,0,0.00027479,-1.3034e-06,2.7711e+06,2888.6,0,1.096e+08,-1017,12123,11209,1,11209,1,-0.00052328,-3.7473e-07,0,1.2523e-05,-0.00010072,-2.1284e+08,-1.2663e+05,0,5.0981e+06,-10961,11208,11690,1,11690,1,-0.00026767,-8.3197e-08,0,0.00013738,-5.2826e-05,-1.0887e+08,-27922,0,5.503e+07,-5404,11689,12558,1,12558,1,0.00028188,1.1676e-07,0,0.00041215,5.0218e-05,1.0975e+08,39236,0,1.6286e+08,3385,12557,502.62,0,502.62,0,0.00031703,1.691e-07,0,0.00015836,5.9434e-05,1.254e+08,57041,0,6.2225e+07,5344.5,502.62,1
1736,1.95,12124,1,12124,1,7.1649e-06,5.8035e-09,0,0.00027593,-1.3079e-06,-527.42,1925.3,0,1.0932e+08,2075.5,12123,12992,1,12992,1,0.00054008,5.2725e-07,0,0.00054008,9.8575e-05,2.0581e+08,1.7746e+05,0,2.138e+08,22170,12991,12124,1,12124,1,7.1521e-06,-2.1181e-09,0,0.00027606,-1.2965e-06,2.8e+06,-706.79,0,1.1009e+08,1257.6,12123,11209,1,11209,1,-0.00052564,-3.6881e-07,0,1.2536e-05,-0.00010119,-2.138e+08,-1.2414e+05,0,5.1038e+06,-12955,11208,11690,1,11690,1,-0.00026887,-1.1751e-07,0,0.00013802,-5.3076e-05,-1.0936e+08,-39385,0,5.5275e+07,-2803.6,11689,12558,1,12558,1,0.00028322,1.0924e-07,0,0.00041404,5.0459e-05,1.1023e+08,36529,0,1.6356e+08,5206.2,12557,502.62,0,502.62,0,0.0003185,1.8691e-07,0,0.00015909,5.9708e-05,1.2595e+08,62972,0,6.2493e+07,7237.4,502.62,1
1736,1.96,12124,1,12124,1,7.2712e-06,-4.8772e-08,0,0.00027724,-1.3311e-06,1011.4,-16412,0,1.0981e+08,517.16,12123,12992,1,12992,1,0.00054303,5.141e-07,0,0.00054303,9.9083e-05,2.0681e+08,1.7235e+05,0,2.1492e+08,19148,12991,12124,1,12124,1,7.2493e-06,-3.732e-08,0,0.0002774,-1.3219e-06,2.8376e+06,-12470,0,1.106e+08,225.33,12123,11209,1,11209,1,-0.0005284,-4.447e-07,0,1.2521e-05,-0.00010175,-2.1492e+08,-1.4964e+05,0,5.0971e+06,-19040,11208,11690,1,11690,1,-0.00027009,-1.9394e-07,0,0.00013868,-5.3338e-05,-1.0986e+08,-64632,0,5.5533e+07,-4205.7,11689,12558,1,12558,1,0.00028467,5.9933e-08,0,0.00041606,5.0671e-05,1.1075e+08,20154,0,1.6432e+08,4612.2,12557,502.62,0,502.62,0,0.00032001,2.0848e-07,0,0.00015985,5.9991e-05,1.2651e+08,70244,0,6.277e+07,6656.6,502.62,1
1736,1.97,12124,1,12124,1,7.3827e-06,-5.2453e-08,0,0.00027888,-1.3547e-06,49.637,-17643,0,1.1043e+08,-777.58,12123,12992,1,12992,1,0.00054634,5.6693e-07,0,0.00054634,9.9655e-05,2.0792e+08,1.9181e+05,0,2.1616e+08,20154,12991,12124,1,12124,1,7.3676e-06,-4.9516e-08,0,0.00027906,-1.3548e-06,2.8821e+06,-16540,0,1.1124e+08,-46.807,12123,11209,1,11209,1,-0.00053145,-4.479e-07,0,1.2526e-05,-0.00010237,-2.1616e+08,-1.5067e+05,0,5.0996e+06,-20987,11208,11690,1,11690,1,-0.00027164,-1.9697e-07,0,0.00013951,-5.3669e-05,-1.1049e+08,-66189,0,5.5858e+07,-5355.9,11689,12558,1,12558,1,0.00028643,4.6087e-08,0,0.00041853,5.0964e-05,1.1138e+08,15370,0,1.6525e+08,3877.4,12557,502.62,0,502.62,0,0.0003219,2.0732e-07,0,0.00016079,6.0346e-05,1.2722e+08,69851,0,6.3119e+07,7417.3,502.62,1
1736,1.98,12124,1,12124,1,7.4879e-06,-2.4593e-08,0,0.00027993,-1.3699e-06,-3188.6,-8286.2,0,1.1081e+08,908.2,12123,12992,1,12992,1,0.00054829,4.8017e-07,0,0.00054829,9.9988e-05,2.0849e+08,1.6152e+05,0,2.1689e+08,15925,12991,12124,1,12124,1,7.4752e-06,-1.5245e-08,0,0.00028008,-1.3608e-06,2.9254e+06,-5037,0,1.1162e+08,726.78,12123,11209,1,11209,1,-0.00053324,-4.5376e-07,0,1.2495e-05,-0.00010273,-2.1689e+08,-1.5392e+05,0,5.0866e+06,-16832,11208,11690,1,11690,1,-0.00027256,-1.5188e-07,0,0.00014003,-5.3883e-05,-1.1086e+08,-51671,0,5.6053e+07,-3966.3,11689,12558,1,12558,1,0.00028757,8.7069e-08,0,0.00042007,5.1135e-05,1.1177e+08,29186,0,1.6579e+08,5371.3,12557,502.62,0,502.62,0,0.00032311,1.9713e-07,0,0.0001614,6.0573e-05,1.2766e+08,66454,0,6.3332e+07,6119.1,502.62,1
1736,1.99,12124,1,12124,1,7.6276e-06,-2.9998e-08,0,0.00028192,-1.3986e-06,7268.6,-10085,0,1.1157e+08,-360.6,12123,12992,1,12992,1,0.0005522,3.9797e-07,0,0.0005522,0.00010067,2.0988e+08,1.344e+05,0,2.1837e+08,16944,12991,12124,1,12124,1,7.6167e-06,-1.5893e-08,0,0.00028204,-1.4027e-06,2.9795e+06,-5336.9,0,1.1238e+08,-590.58,12123,11209,1,11209,1,-0.00053687,-4.0333e-07,0,1.2499e-05,-0.00010346,-2.1837e+08,-1.3647e+05,0,5.0884e+06,-19179,11208,11690,1,11690,1,-0.00027438,-1.4688e-07,0,0.00014101,-5.4284e-05,-1.116e+08,-48878,0,5.644e+07,-4422.2,11689,12558,1,12558,1,0.00028967,7.6382e-08,0,0.00042303,5.1477e-05,1.1254e+08,25736,0,1.6692e+08,4075,12557,502.62,0,502.62,0,0.00032541,1.7488e-07,0,0.00016256,6.1003e-05,1.2854e+08,58952,0,6.3768e+07,5914.4,502.62,1
1736,2,12124,1,12124,1,7.7751e-06,-2.9202e-08,0,0.00028351,-1.4234e-06,6928.1,-9831.9,0,1.1216e+08,599.93,12123,12992,1,12992,1,0.00055539,4.2622e-07,0,0.00055539,0.00010122,2.1089e+08,1.4352e+05,0,2.1955e+08,16353,12991,12124,1,12124,1,7.7628e-06,-2.1871e-08,0,0.00028364,-1.4225e-06,3.0366e+06,-7245.5,0,1.1299e+08,475.02,12123,11209,1,11209,1,-0.00053978,-3.3891e-07,0,1.247e-05,-0.00010406,-2.1955e+08,-1.1453e+05,0,5.0771e+06,-14662,11208,11690,1,11690,1,-0.00027584,-1.3037e-07,0,0.00014181,-5.4595e-05,-1.1219e+08,-43581,0,5.6746e+07,-3104.3,11689,12558,1,12558,1,0.00029141,5e-08,0,0.00042543,5.1745e-05,1.1315e+08,16634,0,1.678e+08,3841.3,12557,502.62,0,502.62,0,0.00032724,1.552e-07,0,0.00016348,6.1345e-05,1.2921e+08,52305,0,6.4095e+07,5385.7,502.62,1
1736,2.01,12124,1,12124,1,7.865e-06,-1.7676e-08,0,0.00028464,-1.4419e-06,-4644.2,-5943.1,0,1.1257e+08,-271.43,12123,12992,1,12992,1,0.00055774,5.1693e-07,0,0.00055774,0.00010162,2.1162e+08,1.7426e+05,0,2.2042e+08,21179,12991,12124,1,12124,1,7.8534e-06,-1.141e-08,0,0.00028478,-1.4431e-06,3.0713e+06,-3774.1,0,1.1341e+08,-215.44,12123,11209,1,11209,1,-0.00054192,-4.1946e-07,0,1.2453e-05,-0.0001045,-2.2042e+08,-1.4178e+05,0,5.0707e+06,-19758,11208,11690,1,11690,1,-0.00027687,-1.5056e-07,0,0.00014237,-5.4839e-05,-1.1261e+08,-50077,0,5.696e+07,-4606.6,11689,12558,1,12558,1,0.00029264,9.3071e-08,0,0.00042712,5.1951e-05,1.1357e+08,31155,0,1.6841e+08,4163.2,12557,502.62,0,502.62,0,0.00032855,1.9855e-07,0,0.00016413,6.1591e-05,1.2968e+08,66888,0,6.4325e+07,6686.5,502.62,1
1736,2.02,12124,1,12124,1,7.9639e-06,2.9044e-08,0,0.00028532,-1.4616e-06,1080.1,9771.7,0,1.1281e+08,-923.88,12123,12992,1,12992,1,0.00055899,5.9516e-07,0,0.00055899,0.00010185,2.1199e+08,2.0286e+05,0,2.2089e+08,20352,12991,12124,1,12124,1,7.9651e-06,1.137e-08,0,0.00028545,-1.4683e-06,3.1141e+06,3800.4,0,1.1366e+08,-790.73,12123,11209,1,11209,1,-0.00054308,-3.9384e-07,0,1.2404e-05,-0.00010473,-2.2089e+08,-1.3351e+05,0,5.0503e+06,-14690,11208,11690,1,11690,1,-0.00027749,-9.7117e-08,0,0.00014275,-5.4994e-05,-1.1286e+08,-32295,0,5.71e+07,-5623,11689,12558,1,12558,1,0.00029342,1.4525e-07,0,0.00042817,5.2074e-05,1.1383e+08,48926,0,1.6876e+08,3858.9,12557,502.62,0,502.62,0,0.00032933,1.9949e-07,0,0.00016453,6.1738e-05,1.2996e+08,67246,0,6.4458e+07,6516.5,502.62,1
1736,2.03,12124,1,12124,1,8.0888e-06,-5.3716e-08,0,0.00028759,-1.4821e-06,8208.8,-18044,0,1.1369e+08,100.8,12123,12992,1,12992,1,0.00056385,4.9581e-07,0,0.00056385,0.00010269,2.1375e+08,1.6772e+05,0,2.2274e+08,31427,12991,12124,1,12124,1,8.0885e-06,-3.3189e-08,0,0.00028775,-1.4857e-06,3.163e+06,-10994,0,1.1456e+08,-846.09,12123,11209,1,11209,1,-0.00054763,-4.4033e-07,0,1.2425e-05,-0.00010564,-2.2274e+08,-1.4872e+05,0,5.0583e+06,-17469,11208,11690,1,11690,1,-0.00027965,-1.9688e-07,0,0.00014388,-5.5427e-05,-1.1374e+08,-65874,0,5.7549e+07,-5784,11689,12558,1,12558,1,0.00029582,6.2725e-08,0,0.00043161,5.2461e-05,1.1473e+08,20572,0,1.701e+08,3988.9,12557,502.62,0,502.62,0,0.00033195,2.0133e-07,0,0.00016584,6.223e-05,1.3097e+08,67820,0,6.496e+07,7980.7,502.62,1
1736,2.04,12124,1,12124,1,8.3058e-06,-8.4559e-08,0,0.00028896,-1.5208e-06,-4269.2,-28354,0,1.1415e+08,205.26,12123,12992,1,12992,1,0.00056681,3.4428e-07,0,0.00056681,0.00010315,2.1454e+08,1.1604e+05,0,2.2375e+08,12991,12991,12124,1,12124,1,8.3072e-06,-5.0198e-08,0,0.00028917,-1.5228e-06,3.2405e+06,-16836,0,1.1506e+08,876.19,12123,11209,1,11209,1,-0.00055009,-4.5705e-07,0,1.2305e-05,-0.0001062,-2.2375e+08,-1.5344e+05,0,5.0118e+06,-20449,11208,11690,1,11690,1,-0.00028084,-2.1272e-07,0,0.00014458,-5.5723e-05,-1.1423e+08,-71091,0,5.7781e+07,-4265.5,11689,12558,1,12558,1,0.00029745,2.5094e-08,0,0.0004337,5.2692e-05,1.1521e+08,8143.7,0,1.7081e+08,4310.1,12557,502.62,0,502.62,0,0.00033354,1.7487e-07,0,0.00016664,6.2524e-05,1.315e+08,58848,0,6.5223e+07,5781.4,502.62,1
1736,2.05,12124,1,12124,1,8.4414e-06,-4.0676e-08,0,0.00029058,-1.5446e-06,1240.1,-13670,0,1.1476e+08,683.42,12123,12992,1,12992,1,0.00056986,5.4575e-07,0,0.00056986,0.00010368,2.1554e+08,1.8368e+05,0,2.2488e+08,29310,12991,12124,1,12124,1,8.4332e-06,-3.463e-08,0,0.00029073,-1.5442e-06,3.2911e+06,-11357,0,1.1566e+08,241.93,12123,11209,1,11209,1,-0.00055289,-3.9619e-07,0,1.2294e-05,-0.00010677,-2.2488e+08,-1.3299e+05,0,5.0075e+06,-15402,11208,11690,1,11690,1,-0.00028227,-1.6674e-07,0,0.00014536,-5.6045e-05,-1.1481e+08,-55705,0,5.8091e+07,-4369.9,11689,12558,1,12558,1,0.00029916,4.7765e-08,0,0.00043606,5.2961e-05,1.1582e+08,15762,0,1.7168e+08,4259.4,12557,502.62,0,502.62,0,0.0003354,1.8574e-07,0,0.00016758,6.2876e-05,1.322e+08,62430,0,6.5565e+07,7717.6,502.62,1
1736,2.06,12124,1,12124,1,8.5741e-06,-4.3133e-08,0,0.00029203,-1.5736e-06,-2205.5,-14457,0,1.1529e+08,-1286.1,12123,12992,1,12992,1,0.00057272,3.9889e-07,0,0.00057272,0.00010416,2.1644e+08,1.3379e+05,0,2.2594e+08,11826,12991,12124,1,12124,1,8.5649e-06,-2.6934e-08,0,0.00029218,-1.5755e-06,3.3395e+06,-8798,0,1.162e+08,-676.57,12123,11209,1,11209,1,-0.00055549,-3.7399e-07,0,1.2281e-05,-0.0001073,-2.2594e+08,-1.2619e+05,0,5.0018e+06,-14949,11208,11690,1,11690,1,-0.00028357,-1.6165e-07,0,0.00014607,-5.6343e-05,-1.1534e+08,-54331,0,5.8359e+07,-5266.3,11689,12558,1,12558,1,0.00030074,5.1964e-08,0,0.00043822,5.3195e-05,1.1637e+08,17466,0,1.7247e+08,2527.8,12557,502.62,0,502.62,0,0.00033708,1.6686e-07,0,0.00016842,6.3187e-05,1.3281e+08,56158,0,6.5866e+07,5113.7,502.62,1
1736,2.07,12124,1,12124,1,8.6958e-06,1.0731e-08,0,0.00029364,-1.5981e-06,-4427.4,3605.2,0,1.1589e+08,-2178.2,12123,12992,1,12992,1,0.00057577,5.0418e-07,0,0.00057577,0.0001047,2.1742e+08,1.6908e+05,0,2.271e+08,10121,12991,12124,1,12124,1,8.6886e-06,2.4341e-09,0,0.0002938,-1.5989e-06,3.3893e+06,833.68,0,1.1681e+08,-1502.1,12123,11209,1,11209,1,-0.00055835,-3.2533e-07,0,1.2263e-05,-0.00010788,-2.271e+08,-1.095e+05,0,4.9961e+06,-20265,11208,11690,1,11690,1,-0.00028506,-8.7428e-08,0,0.00014688,-5.6691e-05,-1.1594e+08,-29532,0,5.8679e+07,-5840,11689,12558,1,12558,1,0.00030248,9.8279e-08,0,0.00044061,5.3485e-05,1.1697e+08,32527,0,1.7335e+08,2411.4,12557,502.62,0,502.62,0,0.00033894,1.6286e-07,0,0.00016935,6.3536e-05,1.335e+08,54786,0,6.6205e+07,6104.2,502.62,1
1736,2.08,12124,1,12124,1,8.8527e-06,2.9844e-08,0,0.00029505,-1.6206e-06,2590,10034,0,1.1641e+08,398.34,12123,12992,1,12992,1,0.00057877,4.8706e-07,0,0.00057877,0.0001052,2.1835e+08,1.6458e+05,0,2.2817e+08,16206,12991,12124,1,12124,1,8.8544e-06,7.7027e-09,0,0.00029523,-1.624e-06,3.4539e+06,2545.1,0,1.1734e+08,331.92,12123,11209,1,11209,1,-0.00056097,-2.8788e-07,0,1.2199e-05,-0.00010844,-2.2817e+08,-96564,0,4.9703e+06,-16015,11208,11690,1,11690,1,-0.00028632,-7.0884e-08,0,0.00014758,-5.6983e-05,-1.1646e+08,-23533,0,5.8947e+07,-3956.8,11689,12558,1,12558,1,0.00030407,1.2107e-07,0,0.00044276,5.3713e-05,1.1752e+08,40482,0,1.7412e+08,4028.6,12557,502.62,0,502.62,0,0.00034057,1.6089e-07,0,0.00017018,6.3841e-05,1.3409e+08,54152,0,6.6496e+07,5592.1,502.62,1
1736,2.09,12124,1,12124,1,8.9703e-06,-4.5271e-09,0,0.00029628,-1.6413e-06,2678.2,-1519.8,0,1.1686e+08,782.63,12123,12992,1,12992,1,0.00058102,4.2054e-07,0,0.00058102,0.00010557,2.1907e+08,1.4099e+05,0,2.2898e+08,17069,12991,12124,1,12124,1,8.9679e-06,-3.4552e-09,0,0.00029641,-1.6383e-06,3.5e+06,-1161.8,0,1.1779e+08,633.47,12123,11209,1,11209,1,-0.00056297,-3.3537e-07,0,1.2163e-05,-0.00010885,-2.2898e+08,-1.1248e+05,0,4.9536e+06,-12099,11208,11690,1,11690,1,-0.00028738,-9.9536e-08,0,0.00014817,-5.7221e-05,-1.1689e+08,-33387,0,5.9172e+07,-3649.6,11689,12558,1,12558,1,0.00030537,7.8506e-08,0,0.00044451,5.3919e-05,1.1797e+08,26291,0,1.7476e+08,4313.4,12557,502.62,0,502.62,0,0.00034199,1.5217e-07,0,0.00017089,6.4106e-05,1.3461e+08,51152,0,6.6748e+07,5585.3,502.62,1
1736,2.1,12124,1,12124,1,9.0766e-06,1.0296e-08,0,0.00029738,-1.664e-06,-298.86,3460.2,0,1.1726e+08,-568.11,12123,12992,1,12992,1,0.00058343,4.9369e-07,0,0.00058343,0.00010598,2.1982e+08,1.6687e+05,0,2.2988e+08,16214,12991,12124,1,12124,1,9.0889e-06,3.2941e-09,0,0.00029754,-1.6696e-06,3.545e+06,1059,0,1.1821e+08,-561.7,12123,11209,1,11209,1,-0.00056518,-3.9965e-07,0,1.2121e-05,-0.0001093,-2.2988e+08,-1.3412e+05,0,4.9379e+06,-15234,11208,11690,1,11690,1,-0.00028841,-1.0464e-07,0,0.00014873,-5.7457e-05,-1.173e+08,-34857,0,5.9386e+07,-4619.7,11689,12558,1,12558,1,0.00030661,1.2517e-07,0,0.00044622,5.412e-05,1.1839e+08,41532,0,1.7537e+08,4005.9,12557,502.62,0,502.62,0,0.00034326,1.8565e-07,0,0.00017153,6.4345e-05,1.3507e+08,62429,0,6.6974e+07,5819.1,502.62,1
1736,2.11,12124,1,12124,1,9.2049e-06,-2.5314e-08,0,0.00029918,-1.687e-06,3148.5,-8491.2,0,1.1795e+08,-338.78,12123,12992,1,12992,1,0.00058699,4.3118e-07,0,0.00058699,0.00010661,2.2107e+08,1.4452e+05,0,2.3125e+08,13697,12991,12124,1,12124,1,9.2014e-06,-1.1777e-08,0,0.00029931,-1.6912e-06,3.5881e+06,-3792.2,0,1.1891e+08,-763.75,12123,11209,1,11209,1,-0.00056854,-3.8246e-07,0,1.2138e-05,-0.00010997,-2.3125e+08,-1.2856e+05,0,4.9462e+06,-25722,11208,11690,1,11690,1,-0.00029007,-1.3499e-07,0,0.00014962,-5.7817e-05,-1.1798e+08,-44318,0,5.9734e+07,-4042.9,11689,12558,1,12558,1,0.00030848,6.6675e-08,0,0.0004489,5.4415e-05,1.1909e+08,22194,0,1.764e+08,3979.9,12557,502.62,0,502.62,0,0.00034533,1.6766e-07,0,0.00017256,6.4732e-05,1.3585e+08,56348,0,6.7358e+07,5630.7,502.62,1
1736,2.12,12124,1,12124,1,9.3383e-06,-5.9072e-09,0,0.00030051,-1.7101e-06,-3845.3,-2005.6,0,1.1843e+08,191.51,12123,12992,1,12992,1,0.00058955,3.9182e-07,0,0.00058955,0.00010704,2.2182e+08,1.3059e+05,0,2.3219e+08,11525,12991,12124,1,12124,1,9.3385e-06,-6.6913e-09,0,0.00030063,-1.704e-06,3.6407e+06,-2265.7,0,1.1939e+08,395.84,12123,11209,1,11209,1,-0.00057086,-3.4e-07,0,1.2101e-05,-0.00011045,-2.3219e+08,-1.1395e+05,0,4.9305e+06,-14461,11208,11690,1,11690,1,-0.00029125,-1.0753e-07,0,0.0001503,-5.8082e-05,-1.1846e+08,-35629,0,5.9989e+07,-3993.4,11689,12558,1,12558,1,0.00030996,8.4764e-08,0,0.00045087,5.4642e-05,1.1957e+08,28258,0,1.7708e+08,4309.1,12557,502.62,0,502.62,0,0.00034687,1.5545e-07,0,0.00017334,6.502e-05,1.3641e+08,52223,0,6.7629e+07,5171.2,502.62,1
1736,2.13,12124,1,12124,1,9.4519e-06,-1.678e-08,0,0.00030152,-1.7359e-06,-3145.7,-5599.6,0,1.1879e+08,-1834.1,12123,12992,1,12992,1,0.00059184,5.7333e-07,0,0.00059184,0.00010743,2.2254e+08,1.9207e+05,0,2.3302e+08,18906,12991,12124,1,12124,1,9.4509e-06,-1.3952e-08,0,0.00030166,-1.7418e-06,3.6854e+06,-4647.5,0,1.1978e+08,-1258.1,12123,11209,1,11209,1,-0.0005729,-4.7122e-07,0,1.2062e-05,-0.00011088,-2.3302e+08,-1.5791e+05,0,4.9152e+06,-20973,11208,11690,1,11690,1,-0.00029218,-1.6704e-07,0,0.00015082,-5.8302e-05,-1.1884e+08,-55429,0,6.0186e+07,-7010,11689,12558,1,12558,1,0.00031109,1.0528e-07,0,0.00045242,5.4824e-05,1.1996e+08,34762,0,1.7765e+08,3928.9,12557,502.62,0,502.62,0,0.00034803,2.211e-07,0,0.00017392,6.524e-05,1.3682e+08,74299,0,6.7828e+07,7276.3,502.62,1
1736,2.14,12124,1,12124,1,9.5952e-06,-1.8716e-08,0,0.00030349,-1.7611e-06,1854.1,-6242,0,1.1954e+08,-1406.2,12123,12992,1,12992,1,0.0005956,4.2027e-07,0,0.0005956,0.00010807,2.238e+08,1.4261e+05,0,2.3442e+08,13833,12991,12124,1,12124,1,9.5909e-06,-1.4782e-08,0,0.0003036,-1.7651e-06,3.7392e+06,-4848.6,0,1.2053e+08,-1390.7,12123,11209,1,11209,1,-0.00057634,-3.2938e-07,0,1.207e-05,-0.00011158,-2.3442e+08,-1.1102e+05,0,4.9185e+06,-12630,11208,11690,1,11690,1,-0.00029397,-1.1656e-07,0,0.00015177,-5.868e-05,-1.1957e+08,-38708,0,6.056e+07,-5426.5,11689,12558,1,12558,1,0.00031318,6.027e-08,0,0.00045534,5.5152e-05,1.2072e+08,19718,0,1.7875e+08,2429.1,12557,502.62,0,502.62,0,0.00035031,1.5143e-07,0,0.00017507,6.5665e-05,1.3769e+08,50956,0,6.8256e+07,5217.6,502.62,1
1736,2.15,12124,1,12124,1,9.76e-06,-6.4926e-10,0,0.00030484,-1.7954e-06,4205.9,-180.52,0,1.2002e+08,-3067.3,12123,12992,1,12992,1,0.00059829,4.6478e-07,0,0.00059829,0.00010852,2.246e+08,1.5828e+05,0,2.3539e+08,7911.3,12991,12124,1,12124,1,9.7546e-06,-5.9007e-09,0,0.00030494,-1.8044e-06,3.8025e+06,-1904.9,0,1.2102e+08,-2138.6,12123,11209,1,11209,1,-0.00057873,-3.3182e-07,0,1.2002e-05,-0.00011209,-2.3539e+08,-1.1156e+05,0,4.8927e+06,-17961,11208,11690,1,11690,1,-0.00029516,-1.0549e-07,0,0.00015247,-5.8968e-05,-1.2005e+08,-34774,0,6.0823e+07,-6956.7,11689,12558,1,12558,1,0.00031469,8.1895e-08,0,0.00045737,5.5367e-05,1.2122e+08,27561,0,1.7945e+08,1359.1,12557,502.62,0,502.62,0,0.00035186,1.6313e-07,0,0.00017585,6.5955e-05,1.3824e+08,54869,0,6.8523e+07,5756.4,502.62,1
1736,2.16,12124,1,12124,1,9.8689e-06,-5.8849e-08,0,0.00030622,-1.8065e-06,-5414,-19754,0,1.2053e+08,570.66,12123,12992,1,12992,1,0.0006016,4.2643e-07,0,0.0006016,0.00010909,2.2568e+08,1.4281e+05,0,2.3662e+08,18318,12991,12124,1,12124,1,9.8557e-06,-3.0171e-08,0,0.00030642,-1.8064e-06,3.841e+06,-10172,0,1.2159e+08,-39.464,12123,11209,1,11209,1,-0.00058175,-4.5187e-07,0,1.1993e-05,-0.0001127,-2.3662e+08,-1.53e+05,0,4.8879e+06,-12327,11208,11690,1,11690,1,-0.0002965,-1.8603e-07,0,0.00015317,-5.9246e-05,-1.206e+08,-61929,0,6.1093e+07,-4105.8,11689,12558,1,12558,1,0.00031627,4.7986e-08,0,0.00045955,5.562e-05,1.2177e+08,15908,0,1.8027e+08,4587.8,12557,502.62,0,502.62,0,0.00035346,1.8856e-07,0,0.00017665,6.6255e-05,1.3882e+08,63323,0,6.881e+07,6205.7,502.62,1
1736,2.17,12124,1,12124,1,1.0016e-05,-1.975e-08,0,0.00030775,-1.8343e-06,-981.83,-6621.4,0,1.211e+08,237.94,12123,12992,1,12992,1,0.00060456,5.3548e-07,0,0.00060456,0.00010959,2.266e+08,1.7913e+05,0,2.3771e+08,19630,12991,12124,1,12124,1,1.0006e-05,-1.5427e-08,0,0.00030792,-1.8307e-06,3.8998e+06,-4998.5,0,1.2215e+08,-90.159,12123,11209,1,11209,1,-0.00058442,-4.4923e-07,0,1.1958e-05,-0.00011326,-2.3771e+08,-1.5088e+05,0,4.8735e+06,-13581,11208,11690,1,11690,1,-0.00029785,-1.6288e-07,0,0.00015393,-5.9556e-05,-1.2114e+08,-54242,0,6.1382e+07,-5016.5,11689,12558,1,12558,1,0.00031791,9.2619e-08,0,0.00046179,5.5879e-05,1.2234e+08,31011,0,1.8108e+08,4345.6,12557,502.62,0,502.62,0,0.00035523,2.1178e-07,0,0.00017754,6.6588e-05,1.3947e+08,71111,0,6.9127e+07,6893.1,502.62,1
1736,2.18,12124,1,12124,1,1.0158e-05,-3.7735e-08,0,0.00030883,-1.8598e-06,946.94,-12614,0,1.2148e+08,511.78,12123,12992,1,12992,1,0.00060688,6.2462e-07,0,0.00060688,0.00010997,2.2728e+08,2.0965e+05,0,2.3853e+08,19831,12991,12124,1,12124,1,1.0141e-05,-3.5276e-08,0,0.00030902,-1.8576e-06,3.9519e+06,-11435,0,1.2256e+08,153.42,12123,11209,1,11209,1,-0.00058645,-4.6574e-07,0,1.1907e-05,-0.00011369,-2.3853e+08,-1.563e+05,0,4.8527e+06,-17228,11208,11690,1,11690,1,-0.00029881,-1.9326e-07,0,0.00015448,-5.9788e-05,-1.2154e+08,-64459,0,6.159e+07,-4283,11689,12558,1,12558,1,0.00031916,6.9983e-08,0,0.00046344,5.606e-05,1.2275e+08,23156,0,1.8166e+08,5097.5,12557,502.62,0,502.62,0,0.00035647,2.2596e-07,0,0.00017817,6.6823e-05,1.3991e+08,75824,0,6.934e+07,7319.8,502.62,1
1736,2.19,12124,1,12124,1,1.0253e-05,-4.3409e-08,0,0.00031,-1.8796e-06,-5259.1,-14535,0,1.2191e+08,-515.24,12123,12992,1,12992,1,0.00060937,6.2421e-07,0,0.00060937,0.0001104,2.2807e+08,2.1035e+05,0,2.3946e+08,18365,12991,12124,1,12124,1,1.024e-05,-3.0746e-08,0,0.00031021,-1.877e-06,3.9898e+06,-10101,0,1.23e+08,-378.74,12123,11209,1,11209,1,-0.00058873,-5.8398e-07,0,1.1892e-05,-0.00011416,-2.3946e+08,-1.9575e+05,0,4.8458e+06,-17794,11208,11690,1,11690,1,-0.0002999,-2.2995e-07,0,0.00015507,-6.0034e-05,-1.2198e+08,-75452,0,6.1816e+07,-6173.1,11689,12558,1,12558,1,0.00032044,1.018e-07,0,0.00046522,5.627e-05,1.2319e+08,33939,0,1.8231e+08,5371.5,12557,502.62,0,502.62,0,0.00035782,2.6346e-07,0,0.00017884,6.7075e-05,1.404e+08,88431,0,6.958e+07,7723.1,502.62,1
1736,2.2,12124,1,12124,1,1.0404e-05,-4.4752e-08,0,0.00031147,-1.9096e-06,2925.4,-15004,0,1.2246e+08,-1483.5,12123,12992,1,12992,1,0.00061229,5.2653e-07,0,0.00061229,0.00011089,2.29e+08,1.762e+05,0,2.4052e+08,13775,12991,12124,1,12124,1,1.0397e-05,-3.0281e-08,0,0.00031168,-1.9135e-06,4.0497e+06,-9912.1,0,1.2356e+08,-894.13,12123,11209,1,11209,1,-0.00059134,-5.0006e-07,0,1.1823e-05,-0.0001147,-2.4052e+08,-1.6774e+05,0,4.8214e+06,-16993,11208,11690,1,11690,1,-0.00030122,-1.902e-07,0,0.00015581,-6.0332e-05,-1.2252e+08,-64073,0,6.2101e+07,-6488.7,11689,12558,1,12558,1,0.00032206,7.0183e-08,0,0.00046742,5.6511e-05,1.2376e+08,23384,0,1.8312e+08,3857.8,12557,502.62,0,502.62,0,0.00035952,2.1449e-07,0,0.0001797,6.7392e-05,1.4103e+08,71961,0,6.9889e+07,6768.1,502.62,1
1736,2.21,12124,1,12124,1,1.0542e-05,-6.8528e-08,0,0.00031315,-1.9333e-06,-2095.4,-22966,0,1.2308e+08,-825.18,12123,12992,1,12992,1,0.00061565,3.8663e-07,0,0.00061565,0.00011147,2.3008e+08,1.2937e+05,0,2.4178e+08,10830,12991,12124,1,12124,1,1.053e-05,-3.99e-08,0,0.00031337,-1.9337e-06,4.1022e+06,-13260,0,1.242e+08,-940.69,12123,11209,1,11209,1,-0.00059444,-4.5399e-07,0,1.1814e-05,-0.00011533,-2.4178e+08,-1.5232e+05,0,4.8161e+06,-16604,11208,11690,1,11690,1,-0.00030277,-1.886e-07,0,0.00015664,-6.0672e-05,-1.2315e+08,-63082,0,6.2419e+07,-4641.6,11689,12558,1,12558,1,0.00032388,3.1824e-08,0,0.00046996,5.6804e-05,1.244e+08,10522,0,1.8405e+08,3278.4,12557,502.62,0,502.62,0,0.00036146,1.7203e-07,0,0.00018068,6.7752e-05,1.4174e+08,57757,0,7.0239e+07,5286.7,502.62,1
1736,2.22,12124,1,12124,1,1.0726e-05,-7.06e-08,0,0.00031479,-1.9645e-06,3767.3,-23623,0,1.2368e+08,258.78,12123,12992,1,12992,1,0.00061917,4.3002e-07,0,0.00061917,0.00011206,2.3118e+08,1.4385e+05,0,2.4306e+08,21819,12991,12124,1,12124,1,1.0703e-05,-4.6279e-08,0,0.00031503,-1.9602e-06,4.1698e+06,-14909,0,1.2482e+08,616.86,12123,11209,1,11209,1,-0.00059757,-4.6679e-07,0,1.1753e-05,-0.00011599,-2.4306e+08,-1.5661e+05,0,4.792e+06,-12750,11208,11690,1,11690,1,-0.00030424,-2.0503e-07,0,0.00015748,-6.1018e-05,-1.2374e+08,-68888,0,6.2739e+07,-4085.4,11689,12558,1,12558,1,0.00032574,4.0992e-08,0,0.00047245,5.7074e-05,1.2503e+08,13684,0,1.8495e+08,4255.7,12557,502.62,0,502.62,0,0.00036335,1.9028e-07,0,0.00018163,6.8107e-05,1.4243e+08,63825,0,7.0575e+07,5865.4,502.62,1
1736,2.23,12124,1,12124,1,1.0869e-05,-7.7019e-08,0,0.0003161,-1.9952e-06,-632.86,-25730,0,1.2415e+08,-1598.3,12123,12992,1,12992,1,0.00062177,3.9792e-07,0,0.00062177,0.00011249,2.3194e+08,1.35e+05,0,2.4399e+08,10639,12991,12124,1,12124,1,1.0865e-05,-4.357e-08,0,0.00031634,-2.009e-06,4.2317e+06,-14474,0,1.2531e+08,-777.17,12123,11209,1,11209,1,-0.00059986,-4.9077e-07,0,1.169e-05,-0.00011648,-2.4399e+08,-1.6455e+05,0,4.7666e+06,-24300,11208,11690,1,11690,1,-0.0003054,-1.9271e-07,0,0.00015812,-6.1292e-05,-1.2422e+08,-64741,0,6.2983e+07,-5203.5,11689,12558,1,12558,1,0.00032719,2.6224e-08,0,0.0004744,5.7295e-05,1.2551e+08,8687,0,1.8564e+08,3553.8,12557,502.62,0,502.62,0,0.00036486,1.7699e-07,0,0.00018239,6.8391e-05,1.4297e+08,59452,0,7.0836e+07,6441.5,502.62,1
1736,2.24,12124,1,12124,1,1.1023e-05,-4.8135e-08,0,0.00031757,-2.0195e-06,2467.6,-16107,0,1.2469e+08,-1.1388,12123,12992,1,12992,1,0.00062454,4.1292e-07,0,0.00062454,0.00011296,2.328e+08,1.3808e+05,0,2.4501e+08,23044,12991,12124,1,12124,1,1.1009e-05,-3.237e-08,0,0.00031776,-2.0211e-06,4.2876e+06,-10654,0,1.2584e+08,-205.85,12123,11209,1,11209,1,-0.00060237,-4.0717e-07,0,1.1652e-05,-0.00011699,-2.4501e+08,-1.3656e+05,0,4.7521e+06,-13088,11208,11690,1,11690,1,-0.00030668,-1.5564e-07,0,0.00015885,-6.1582e-05,-1.2474e+08,-52357,0,6.326e+07,-4392,11689,12558,1,12558,1,0.00032876,4.3817e-08,0,0.00047655,5.7534e-05,1.2605e+08,14329,0,1.8641e+08,3557.1,12557,502.62,0,502.62,0,0.00036657,1.624e-07,0,0.00018325,6.8709e-05,1.4359e+08,54464,0,7.1141e+07,6060.3,502.62,1
1736,2.25,12124,1,12124,1,1.1161e-05,-1.2992e-07,0,0.00031897,-2.0498e-06,-1758.2,-43387,0,1.252e+08,-2031.1,12123,12992,1,12992,1,0.00062779,3.1157e-07,0,0.00062779,0.00011351,2.3383e+08,1.0606e+05,0,2.4621e+08,8070.2,12991,12124,1,12124,1,1.1152e-05,-9.4998e-08,0,0.00031923,-2.0639e-06,4.3427e+06,-31433,0,1.2639e+08,-1063.2,12123,11209,1,11209,1,-0.00060532,-4.9699e-07,0,1.1602e-05,-0.0001176,-2.4621e+08,-1.6714e+05,0,4.7321e+06,-24151,11208,11690,1,11690,1,-0.00030799,-2.585e-07,0,0.00015956,-6.1884e-05,-1.2527e+08,-85998,0,6.3531e+07,-4845,11689,12558,1,12558,1,0.00033036,-1.6896e-08,0,0.00047873,5.7778e-05,1.2659e+08,-5672.1,0,1.8721e+08,2284.6,12557,502.62,0,502.62,0,0.00036817,1.716e-07,0,0.00018406,6.901e-05,1.4417e+08,57668,0,7.1424e+07,5912.2,502.62,1
1736,2.26,12124,1,12124,1,1.1563e-05,2.3807e-09,0,0.00032254,-2.1188e-06,-911.32,760.13,0,1.2649e+08,-845.11,12123,12992,1,12992,1,0.00063375,2.1373e-08,0,0.00063375,0.00011449,2.357e+08,6838,0,2.4832e+08,78.031,12991,12124,1,12124,1,1.1581e-05,2.3651e-09,0,0.00032259,-2.1228e-06,4.495e+06,780.19,0,1.2762e+08,-745.46,12123,11209,1,11209,1,-0.00061052,-1.5344e-08,0,1.1423e-05,-0.00011872,-2.4832e+08,-5255,0,4.6631e+06,-2501.4,11208,11690,1,11690,1,-0.00031098,-2.6255e-09,0,0.00016126,-6.2575e-05,-1.2649e+08,-879.34,0,6.414e+07,-1315.1,11689,12558,1,12558,1,0.00033413,7.3983e-09,0,0.00048379,5.8328e-05,1.2782e+08,2443.3,0,1.8903e+08,-230.72,12557,502.62,0,502.62,0,0.00037231,7.7555e-09,0,0.00018616,6.9779e-05,1.4566e+08,2557.4,0,7.2181e+07,677.18,502.62,1
1736,2.27,12124,1,12124,1,1.184e-05,-2.213e-08,0,0.00032274,-2.1695e-06,3458.4,-7364.4,0,1.2646e+08,-767.54,12123,12992,1,12992,1,0.00063484,2.6941e-07,0,0.00063484,0.0001146,2.3565e+08,89796,0,2.4856e+08,7367.5,12991,12124,1,12124,1,1.1832e-05,-1.4266e-08,0,0.00032284,-2.1726e-06,4.5911e+06,-4705,0,1.2764e+08,-581.51,12123,11209,1,11209,1,-0.0006111,-2.7595e-07,0,1.1208e-05,-0.00011892,-2.4856e+08,-91964,0,4.5769e+06,-11793,11208,11690,1,11690,1,-0.00031098,-9.0943e-08,0,0.00016142,-6.2682e-05,-1.2649e+08,-30687,0,6.4168e+07,-3266.8,11689,12558,1,12558,1,0.00033467,3.8192e-08,0,0.00048423,5.8342e-05,1.2786e+08,12677,0,1.8902e+08,2276,12557,502.62,0,502.62,0,0.00037254,1.0969e-07,0,0.00018628,6.9824e-05,1.4563e+08,36683,0,7.2149e+07,3715.4,502.62,1
1736,2.28,12124,1,12124,1,1.1966e-05,2.8669e-10,0,0.00032549,-2.1919e-06,407.02,88.112,0,1.2752e+08,-551.6,12123,12992,1,12992,1,0.00063976,1.2541e-08,0,0.00063976,0.00011548,2.3742e+08,4010.7,0,2.5046e+08,94.477,12991,12124,1,12124,1,1.1974e-05,-2.5491e-10,0,0.00032551,-2.194e-06,4.6452e+06,-85.515,0,1.2869e+08,-548.4,12123,11209,1,11209,1,-0.00061578,-9.9897e-09,0,1.126e-05,-0.00011985,-2.5046e+08,-3192.7,0,4.5983e+06,-1465.4,11208,11690,1,11690,1,-0.00031352,-2.7417e-09,0,0.00016274,-6.3197e-05,-1.2752e+08,-926.85,0,6.4688e+07,-838.61,11689,12558,1,12558,1,0.00033746,2.8656e-09,0,0.00048822,5.8806e-05,1.289e+08,945.79,0,1.9056e+08,-187.03,12557,502.62,0,502.62,0,0.00037571,4.3376e-09,0,0.00018787,7.0415e-05,1.4685e+08,1428.4,0,7.2758e+07,396.27,502.62,1
1736,2.29,12124,1,12124,1,1.2221e-05,-1.4792e-10,0,0.00032704,-2.2375e-06,-44.728,-50.753,0,1.2805e+08,-58.66,12123,12992,1,12992,1,0.00064295,1.3815e-09,0,0.00064295,0.00011599,2.3825e+08,440.86,0,2.5157e+08,35.873,12991,12124,1,12124,1,1.2222e-05,-1.9457e-10,0,0.00032704,-2.2378e-06,4.7399e+06,-64.154,0,1.2924e+08,-51.014,12123,11209,1,11209,1,-0.0006185,-1.4285e-09,0,1.1135e-05,-0.00012044,-2.5157e+08,-455.85,0,4.5485e+06,-206.68,11208,11690,1,11690,1,-0.00031482,-5.6331e-10,0,0.00016352,-6.3531e-05,-1.2805e+08,-190.27,0,6.497e+07,-80.906,11689,12558,1,12558,1,0.00033926,2.0534e-10,0,0.00049056,5.9051e-05,1.2946e+08,67.269,0,1.9134e+08,-21.227,12557,502.62,0,502.62,0,0.0003775,5.3038e-10,0,0.00018878,7.075e-05,1.4745e+08,175.62,0,7.305e+07,49.825,502.62,1
1736,2.3,12124,1,12124,1,1.2399e-05,-1.2855e-09,0,0.00032848,-2.2699e-06,135.36,-428.95,0,1.2856e+08,-11.755,12123,12992,1,12992,1,0.00064592,3.5811e-09,0,0.00064592,0.00011648,2.3913e+08,1226,0,2.5263e+08,183.91,12991,12124,1,12124,1,1.2398e-05,-1.0557e-09,0,0.00032848,-2.2701e-06,4.8073e+06,-358.44,0,1.2977e+08,-19.335,12123,11209,1,11209,1,-0.00062112,-5.2725e-09,0,1.1063e-05,-0.000121,-2.5263e+08,-1755.6,0,4.5198e+06,-232.25,11208,11690,1,11690,1,-0.00031608,-2.988e-09,0,0.00016424,-6.3833e-05,-1.2856e+08,-993.93,0,6.524e+07,-69.924,11689,12558,1,12558,1,0.00034088,3.5807e-10,0,0.00049272,5.9288e-05,1.2999e+08,120.19,0,1.921e+08,53.81,12557,502.62,0,502.62,0,0.00037916,2.0725e-09,0,0.00018962,7.1062e-05,1.4804e+08,692.88,0,7.3337e+07,79.983,502.62,1
1736,2.31,12124,1,12124,1,1.2499e-05,-3.4751e-09,0,0.00032847,-2.2883e-06,329.35,-1155,0,1.2852e+08,32.047,12123,12992,1,12992,1,0.00064636,3.014e-07,0,0.00064636,0.00011652,2.391e+08,1.0036e+05,0,2.5272e+08,7400.4,12991,12124,1,12124,1,1.2496e-05,-5.126e-09,0,0.00032855,-2.2931e-06,4.8448e+06,-1660.9,0,1.2976e+08,73.799,12123,11209,1,11209,1,-0.00062134,-2.5675e-07,0,1.0953e-05,-0.00012107,-2.5272e+08,-85481,0,4.4759e+06,-10813,11208,11690,1,11690,1,-0.00031603,-7.2456e-08,0,0.00016426,-6.3879e-05,-1.2854e+08,-23588,0,6.5238e+07,-2466.6,11689,12558,1,12558,1,0.00034104,5.8815e-08,0,0.00049279,5.9288e-05,1.2998e+08,19281,0,1.9205e+08,2667.4,12557,502.62,0,502.62,0,0.00037915,1.0986e-07,0,0.00018962,7.1063e-05,1.4799e+08,36676,0,7.3302e+07,3402.1,502.62,1
1736,2.32,12124,1,12124,1,1.2623e-05,-8.7376e-10,0,0.00033126,-2.3122e-06,-80.804,-289.5,0,1.296e+08,-536.8,12123,12992,1,12992,1,0.00065153,1.1871e-08,0,0.00065153,0.00011744,2.4098e+08,3804.4,0,2.5472e+08,148.94,12991,12124,1,12124,1,1.263e-05,-1.2955e-09,0,0.00033127,-2.3153e-06,4.896e+06,-440.14,0,1.3083e+08,-531.34,12123,11209,1,11209,1,-0.00062625,-1.4347e-08,0,1.1016e-05,-0.00012205,-2.5472e+08,-4597.6,0,4.502e+06,-1594.4,11208,11690,1,11690,1,-0.00031863,-3.7151e-09,0,0.00016562,-6.4397e-05,-1.296e+08,-1255,0,6.5775e+07,-832.81,11689,12558,1,12558,1,0.00034389,2.4043e-09,0,0.00049687,5.9766e-05,1.3105e+08,805.58,0,1.9365e+08,-159.83,12557,502.62,0,502.62,0,0.00038237,4.9405e-09,0,0.00019123,7.1662e-05,1.4923e+08,1609.7,0,7.3925e+07,406.81,502.62,1
1736,2.33,12124,1,12124,1,1.2891e-05,-1.7555e-09,0,0.00033279,-2.3602e-06,111.7,-585.67,0,1.3012e+08,-57.919,12123,12992,1,12992,1,0.00065474,5.3177e-09,0,0.00065474,0.00011795,2.4179e+08,1821,0,2.5582e+08,226.69,12991,12124,1,12124,1,1.2892e-05,-1.2899e-09,0,0.0003328,-2.361e-06,4.9958e+06,-422.72,0,1.3137e+08,-58.9,12123,11209,1,11209,1,-0.00062895,-7.6379e-09,0,1.0877e-05,-0.00012265,-2.5582e+08,-2596.9,0,4.4462e+06,-347.21,11208,11690,1,11690,1,-0.0003199,-4.2893e-09,0,0.0001664,-6.4732e-05,-1.3012e+08,-1438.6,0,6.6053e+07,-136.55,11689,12558,1,12558,1,0.00034569,3.9254e-10,0,0.00049919,6.0006e-05,1.316e+08,133.35,0,1.944e+08,15.933,12557,502.62,0,502.62,0,0.00038414,2.9609e-09,0,0.00019213,7.1994e-05,1.4982e+08,995.16,0,7.4209e+07,115.37,502.62,1
1736,2.34,12124,1,12124,1,1.3075e-05,-1.5051e-09,0,0.00033425,-2.3938e-06,166.76,-503.05,0,1.3064e+08,-9.2979,12123,12992,1,12992,1,0.00065773,2.8945e-09,0,0.00065773,0.00011844,2.4266e+08,975.64,0,2.5689e+08,191.83,12991,12124,1,12124,1,1.3075e-05,-1.0533e-09,0,0.00033426,-2.3945e-06,5.0658e+06,-351.6,0,1.319e+08,-0.10602,12123,11209,1,11209,1,-0.00063157,-6.1149e-09,0,1.0798e-05,-0.0001232,-2.5689e+08,-2055.4,0,4.415e+06,-189.44,11208,11690,1,11690,1,-0.00032118,-3.4317e-09,0,0.00016712,-6.5038e-05,-1.3063e+08,-1143.3,0,6.6325e+07,-76.38,11689,12558,1,12558,1,0.00034733,2.0873e-10,0,0.00050138,6.0245e-05,1.3214e+08,70.197,0,1.9517e+08,53.74,12557,502.62,0,502.62,0,0.00038582,2.2014e-09,0,0.00019299,7.2309e-05,1.5042e+08,737.97,0,7.4499e+07,83.259,502.62,1
1736,2.35,12124,1,12124,1,1.3251e-05,8.7473e-10,0,0.00033572,-2.4259e-06,-30.977,289.78,0,1.3116e+08,-4.0297,12123,12992,1,12992,1,0.00066071,1.9699e-09,0,0.00066071,0.00011894,2.4355e+08,651.29,0,2.5796e+08,67.574,12991,12124,1,12124,1,1.3251e-05,8.8389e-10,0,0.00033572,-2.4268e-06,5.133e+06,292.06,0,1.3244e+08,-8.5536,12123,11209,1,11209,1,-0.00063421,-2.8548e-10,0,1.0727e-05,-0.00012376,-2.5796e+08,-97.767,0,4.387e+06,-76.848,11208,11690,1,11690,1,-0.00032247,3.7141e-10,0,0.00016786,-6.5344e-05,-1.3116e+08,123.25,0,6.66e+07,-23.632,11689,12558,1,12558,1,0.00034897,1.3871e-09,0,0.00050358,6.0487e-05,1.3268e+08,461.54,0,1.9595e+08,12.896,12557,502.62,0,502.62,0,0.00038752,6.1817e-10,0,0.00019384,7.2626e-05,1.5102e+08,205,0,7.4793e+07,27.422,502.62,1
1736,2.36,12124,1,12124,1,1.3428e-05,-1.0174e-09,0,0.00033716,-2.4584e-06,94.717,-338.97,0,1.3167e+08,-13.05,12123,12992,1,12992,1,0.00066367,2.5156e-09,0,0.00066367,0.00011943,2.4442e+08,836.44,0,2.5902e+08,183.21,12991,12124,1,12124,1,1.3428e-05,-8.4885e-10,0,0.00033716,-2.4594e-06,5.2004e+06,-281,0,1.3298e+08,-16.876,12123,11209,1,11209,1,-0.00063682,-3.9774e-09,0,1.0654e-05,-0.00012432,-2.5902e+08,-1322.2,0,4.3581e+06,-188.05,11208,11690,1,11690,1,-0.00032373,-2.2514e-09,0,0.00016858,-6.5646e-05,-1.3167e+08,-743.62,0,6.687e+07,-71.081,11689,12558,1,12558,1,0.00035058,2.166e-10,0,0.00050574,6.0724e-05,1.3321e+08,69.222,0,1.9671e+08,43.863,12557,502.62,0,502.62,0,0.00038918,1.503e-09,0,0.00019468,7.2937e-05,1.5161e+08,501.58,0,7.5081e+07,76.661,502.62,1
1736,2.37,12124,1,12124,1,1.3604e-05,-1.6366e-09,0,0.00033859,-2.4905e-06,-2.3277,-545.34,0,1.3219e+08,6.0962,12123,12992,1,12992,1,0.00066663,8.8816e-10,0,0.00066663,0.00011991,2.4529e+08,304.2,0,2.6008e+08,143.51,12991,12124,1,12124,1,1.3603e-05,-1.6612e-09,0,0.00033859,-2.4916e-06,5.2673e+06,-542.2,0,1.335e+08,2.2392,12123,11209,1,11209,1,-0.00063941,-4.1386e-09,0,1.0581e-05,-0.00012487,-2.6008e+08,-1387.7,0,4.3291e+06,-100.01,11208,11690,1,11690,1,-0.00032499,-2.8142e-09,0,0.0001693,-6.5947e-05,-1.3218e+08,-941.55,0,6.7139e+07,-37.64,11689,12558,1,12558,1,0.0003522,-4.4762e-10,0,0.00050789,6.0961e-05,1.3374e+08,-145.7,0,1.9747e+08,44.568,12557,502.62,0,502.62,0,0.00039084,1.3944e-09,0,0.00019552,7.3247e-05,1.522e+08,466.27,0,7.5368e+07,53.372,502.62,1
1736,2.38,12124,1,12124,1,1.3782e-05,-3.1987e-09,0,0.00034004,-2.5231e-06,174.71,-1064.9,0,1.327e+08,-6.3462,12123,12992,1,12992,1,0.00066961,1.6631e-09,0,0.00066961,0.00012041,2.4617e+08,569.62,0,2.6114e+08,346.26,12991,12124,1,12124,1,1.3781e-05,-2.6473e-09,0,0.00034004,-2.5244e-06,5.335e+06,-871.57,0,1.3404e+08,-20.457,12123,11209,1,11209,1,-0.00064204,-9.7693e-09,0,1.0506e-05,-0.00012542,-2.6114e+08,-3245.7,0,4.2996e+06,-343.82,11208,11690,1,11690,1,-0.00032626,-5.8249e-09,0,0.00017002,-6.625e-05,-1.327e+08,-1916.8,0,6.7409e+07,-88.028,11689,12558,1,12558,1,0.00035382,-3.1454e-10,0,0.00051006,6.1199e-05,1.3428e+08,-104.37,0,1.9823e+08,84.732,12557,502.62,0,502.62,0,0.0003925,3.1375e-09,0,0.00019636,7.3559e-05,1.5279e+08,1048.2,0,7.5657e+07,120.87,502.62,1
1736,2.39,12124,1,12124,1,1.3882e-05,-9.7718e-09,0,0.00033992,-2.5431e-06,-1474.7,-3251.9,0,1.3261e+08,-633,12123,12992,1,12992,1,0.00066993,3.2463e-07,0,0.00066993,0.00012042,2.4608e+08,1.1052e+05,0,2.6118e+08,6284,12991,12124,1,12124,1,1.3874e-05,-9.7449e-09,0,0.00034,-2.55e-06,5.3708e+06,-3199.2,0,1.3398e+08,-349.3,12123,11209,1,11209,1,-0.00064214,-2.8172e-07,0,1.0397e-05,-0.00012548,-2.6118e+08,-93577,0,4.2555e+06,-13839,11208,11690,1,11690,1,-0.0003261,-9.0633e-08,0,0.00016999,-6.6277e-05,-1.3264e+08,-30009,0,6.7388e+07,-3006.8,11689,12558,1,12558,1,0.00035388,5.9323e-08,0,0.00050998,6.1181e-05,1.3423e+08,20000,0,1.9812e+08,2383.8,12557,502.62,0,502.62,0,0.00039237,1.251e-07,0,0.00019629,7.3538e-05,1.5268e+08,41712,0,7.5596e+07,3623.1,502.62,1
1736,2.4,12124,1,12124,1,1.4021e-05,-2.5166e-09,0,0.00034281,-2.5684e-06,70.66,-839.02,0,1.3373e+08,-590.16,12123,12992,1,12992,1,0.00067523,1.0011e-08,0,0.00067523,0.00012137,2.4799e+08,3173.1,0,2.6322e+08,73.618,12991,12124,1,12124,1,1.4027e-05,-3.0311e-09,0,0.00034283,-2.5722e-06,5.4293e+06,-1005.9,0,1.3509e+08,-480.55,12123,11209,1,11209,1,-0.00064716,-1.324e-08,0,1.0448e-05,-0.00012648,-2.6322e+08,-4195.4,0,4.2773e+06,-1890.2,11208,11690,1,11690,1,-0.00032879,-5.5466e-09,0,0.0001714,-6.6817e-05,-1.3373e+08,-1841.2,0,6.7941e+07,-924.15,11689,12558,1,12558,1,0.00035685,4.3963e-10,0,0.00051422,6.1673e-05,1.3534e+08,145.97,0,1.9976e+08,-171.35,12557,502.62,0,502.62,0,0.00039571,4.1881e-09,0,0.00019797,7.4159e-05,1.5397e+08,1387.4,0,7.624e+07,486.5,502.62,1
1736,2.41,12124,1,12124,1,1.4311e-05,-9.8856e-10,0,0.00034437,-2.6202e-06,266.5,-330.61,0,1.3425e+08,-93.67,12123,12992,1,12992,1,0.00067848,1.6035e-09,0,0.00067848,0.00012187,2.4879e+08,504.43,0,2.6432e+08,55.905,12991,12124,1,12124,1,1.4312e-05,-1.1241e-09,0,0.00034438,-2.6223e-06,5.5373e+06,-377.17,0,1.3563e+08,-80.184,12123,11209,1,11209,1,-0.00064985,-2.6774e-09,0,1.0284e-05,-0.00012708,-2.6432e+08,-916.61,0,4.2119e+06,-311.7,11208,11690,1,11690,1,-0.00033006,-1.8894e-09,0,0.00017219,-6.7159e-05,-1.3425e+08,-626.98,0,6.8221e+07,-138.49,11689,12558,1,12558,1,0.00035869,-1.2107e-10,0,0.00051656,6.1913e-05,1.3588e+08,-41.466,0,2.0052e+08,-37.476,12557,502.62,0,502.62,0,0.00039751,1.0106e-09,0,0.00019889,7.4496e-05,1.5456e+08,335.71,0,7.6525e+07,74.682,502.62,1
1736,2.42,12124,1,12124,1,1.4509e-05,4.7015e-10,0,0.00034582,-2.6562e-06,-73.161,155.18,0,1.3476e+08,8.3391,12123,12992,1,12992,1,0.00068145,4.9595e-09,0,0.00068145,0.00012235,2.4963e+08,1645.6,0,2.6537e+08,174.36,12991,12124,1,12124,1,1.4509e-05,3.291e-10,0,0.00034582,-2.6583e-06,5.6123e+06,107.34,0,1.3616e+08,6.889,12123,11209,1,11209,1,-0.00065243,-3.0259e-09,0,1.0191e-05,-0.00012764,-2.6537e+08,-1004.1,0,4.1753e+06,-135.81,11208,11690,1,11690,1,-0.00033131,-5.7345e-10,0,0.00017291,-6.7465e-05,-1.3476e+08,-192.62,0,6.8489e+07,-44.927,11689,12558,1,12558,1,0.00036033,1.5933e-09,0,0.00051873,6.2147e-05,1.3641e+08,521,0,2.0127e+08,51.216,12557,502.62,0,502.62,0,0.00039917,1.7431e-09,0,0.00019973,7.4808e-05,1.5514e+08,580.65,0,7.6807e+07,63.901,502.62,1
1736,2.43,12124,1,12124,1,1.4697e-05,-5.5045e-11,0,0.00034728,-2.6908e-06,36.441,-18.49,0,1.3528e+08,-3.2282,12123,12992,1,12992,1,0.00068446,3.8541e-10,0,0.00068446,0.00012285,2.505e+08,127.79,0,2.6644e+08,86.395,12991,12124,1,12124,1,1.4697e-05,-1.5983e-11,0,0.00034728,-2.693e-06,5.684e+06,-5.2085,0,1.367e+08,-5.134,12123,11209,1,11209,1,-0.00065506,-5.1338e-10,0,1.0108e-05,-0.0001282,-2.6644e+08,-173.2,0,4.1425e+06,-92.884,11208,11690,1,11690,1,-0.00033259,-1.595e-10,0,0.00017364,-6.7774e-05,-1.3527e+08,-53.838,0,6.8761e+07,-17.732,11689,12558,1,12558,1,0.00036198,6.6926e-11,0,0.00052092,6.2387e-05,1.3695e+08,21.951,0,2.0204e+08,10.733,12557,502.62,0,502.62,0,0.00040087,1.8384e-10,0,0.00020059,7.5125e-05,1.5574e+08,61.789,0,7.7099e+07,24.35,502.62,1
1736,2.44,12124,1,12124,1,1.4887e-05,-2.7106e-10,0,0.00034872,-2.7254e-06,87.36,-90.263,0,1.3578e+08,-1.2791,12123,12992,1,12992,1,0.00068743,3.1994e-09,0,0.00068743,0.00012333,2.5135e+08,1056.7,0,2.6749e+08,147.29,12991,12124,1,12124,1,1.4887e-05,-1.5794e-10,0,0.00034872,-2.7279e-06,5.7559e+06,-49.125,0,1.3722e+08,1.7299,12123,11209,1,11209,1,-0.00065765,-3.2431e-09,0,1.0022e-05,-0.00012876,-2.6749e+08,-1075.6,0,4.1084e+06,-137.39,11208,11690,1,11690,1,-0.00033383,-1.4055e-09,0,0.00017436,-6.8077e-05,-1.3578e+08,-464.63,0,6.9029e+07,-32.596,11689,12558,1,12558,1,0.00036361,6.4058e-10,0,0.00052308,6.2621e-05,1.3748e+08,212.13,0,2.0279e+08,32.933,12557,502.62,0,502.62,0,0.00040253,1.4534e-09,0,0.00020143,7.5436e-05,1.5632e+08,483.38,0,7.7383e+07,54.544,502.62,1
1736,2.45,12124,1,12124,1,1.5076e-05,-1.1747e-09,0,0.00035017,-2.76e-06,75.241,-390.53,0,1.363e+08,0.8272,12123,12992,1,12992,1,0.00069041,1.3437e-09,0,0.00069041,0.00012382,2.5221e+08,445.57,0,2.6855e+08,169.83,12991,12124,1,12124,1,1.5076e-05,-1.0272e-09,0,0.00035017,-2.7627e-06,5.8278e+06,-334.6,0,1.3775e+08,-1.7765,12123,11209,1,11209,1,-0.00066026,-4.039e-09,0,9.9358e-06,-0.00012931,-2.6855e+08,-1339.1,0,4.0745e+06,-127.24,11208,11690,1,11690,1,-0.00033509,-2.223e-09,0,0.00017508,-6.8383e-05,-1.3629e+08,-740.91,0,6.9298e+07,-28.845,11689,12558,1,12558,1,0.00036524,8.7381e-12,0,0.00052525,6.2857e-05,1.3801e+08,2.9934,0,2.0355e+08,30.843,12557,502.62,0,502.62,0,0.00040419,1.3126e-09,0,0.00020227,7.5748e-05,1.5691e+08,437.52,0,7.7669e+07,48.583,502.62,1
1736,2.46,12124,1,12124,1,1.5267e-05,-1.8587e-10,0,0.00035162,-2.7951e-06,-19.162,-62.485,0,1.3681e+08,-7.7358,12123,12992,1,12992,1,0.0006934,1.5375e-10,0,0.0006934,0.00012431,2.5307e+08,47.316,0,2.6961e+08,26.316,12991,12124,1,12124,1,1.5267e-05,-1.8897e-10,0,0.00035162,-2.798e-06,5.9006e+06,-62.818,0,1.3828e+08,-6.7253,12123,11209,1,11209,1,-0.00066287,-6.4445e-10,0,9.8486e-06,-0.00012987,-2.6961e+08,-213.84,0,4.0401e+06,-61.862,11208,11690,1,11690,1,-0.00033636,-3.004e-10,0,0.00017581,-6.869e-05,-1.3681e+08,-101.42,0,6.9569e+07,-17.367,11689,12558,1,12558,1,0.00036689,-3.6743e-11,0,0.00052743,6.3095e-05,1.3854e+08,-11.765,0,2.0431e+08,3.5681,12557,502.62,0,502.62,0,0.00040588,1.856e-10,0,0.00020312,7.6063e-05,1.575e+08,62.302,0,7.7957e+07,14.478,502.62,1
1736,2.47,12124,1,12124,1,1.546e-05,-1.5923e-09,0,0.00035306,-2.8305e-06,3.717,-528.56,0,1.3732e+08,5.2616,12123,12992,1,12992,1,0.00069638,8.7158e-10,0,0.00069638,0.0001248,2.5392e+08,298.52,0,2.7067e+08,109.33,12991,12124,1,12124,1,1.546e-05,-1.3727e-09,0,0.00035306,-2.8336e-06,5.9739e+06,-446.23,0,1.3881e+08,2.9276,12123,11209,1,11209,1,-0.00066546,-5.0883e-09,0,9.7578e-06,-0.00013043,-2.7067e+08,-1686,0,4.0043e+06,-113.6,11208,11690,1,11690,1,-0.0003376,-2.7531e-09,0,0.00017653,-6.8995e-05,-1.3731e+08,-911.08,0,6.9835e+07,-24.794,11689,12558,1,12558,1,0.00036852,-2.2263e-10,0,0.00052959,6.3328e-05,1.3907e+08,-72.376,0,2.0506e+08,39.712,12557,502.62,0,502.62,0,0.00040753,1.5351e-09,0,0.00020396,7.6373e-05,1.5808e+08,510.83,0,7.8239e+07,45.198,502.62,1
1736,2.48,12124,1,12124,1,1.5654e-05,1.1565e-09,0,0.00035451,-2.866e-06,-29.313,382.93,0,1.3783e+08,3.6633,12123,12992,1,12992,1,0.00069937,5.0777e-09,0,0.00069937,0.00012529,2.5478e+08,1682.2,0,2.7173e+08,124.01,12991,12124,1,12124,1,1.5654e-05,7.7338e-10,0,0.00035451,-2.8693e-06,6.0477e+06,254.04,0,1.3933e+08,-0.1534,12123,11209,1,11209,1,-0.00066806,-5.2165e-10,0,9.6676e-06,-0.00013099,-2.7173e+08,-178.67,0,3.9688e+06,-167.18,11208,11690,1,11690,1,-0.00033886,3.8566e-10,0,0.00017726,-6.9302e-05,-1.3783e+08,127.97,0,7.0105e+07,-21.587,11689,12558,1,12558,1,0.00037017,1.7041e-09,0,0.00053177,6.3564e-05,1.396e+08,567.27,0,2.0582e+08,26.419,12557,502.62,0,502.62,0,0.00040921,1.1589e-09,0,0.00020481,7.6687e-05,1.5866e+08,385.35,0,7.8526e+07,42.43,502.62,1
1736,2.49,12124,1,12124,1,1.5852e-05,-1.7428e-10,0,0.00035597,-2.9022e-06,-26.85,-57.068,0,1.3834e+08,-2.3662,12123,12992,1,12992,1,0.00070236,1.2153e-10,0,0.00070236,0.00012577,2.5563e+08,41.626,0,2.7278e+08,34.502,12991,12124,1,12124,1,1.5852e-05,-1.3403e-10,0,0.00035597,-2.9058e-06,6.1227e+06,-43.691,0,1.3986e+08,-2.1503,12123,11209,1,11209,1,-0.00067066,-5.9853e-10,0,9.5739e-06,-0.00013155,-2.7278e+08,-192.16,0,3.9319e+06,-38.003,11208,11690,1,11690,1,-0.00034012,-2.4843e-10,0,0.00017798,-6.961e-05,-1.3834e+08,-81.702,0,7.0375e+07,-9.547,11689,12558,1,12558,1,0.00037182,-6.6069e-11,0,0.00053395,6.3801e-05,1.4014e+08,-22.237,0,2.0657e+08,5.677,12557,502.62,0,502.62,0,0.00041089,1.461e-10,0,0.00020566,7.7001e-05,1.5925e+08,47.575,0,7.8812e+07,11.627,502.62,1
1736,2.5,12124,1,12124,1,1.6051e-05,-1.2788e-10,0,0.00035741,-2.9386e-06,37.032,-42.473,0,1.3885e+08,1.4785,12123,12992,1,12992,1,0.00070534,2.0781e-09,0,0.00070534,0.00012626,2.5647e+08,688.04,0,2.7383e+08,70.389,12991,12124,1,12124,1,1.6051e-05,-8.2287e-11,0,0.00035741,-2.9424e-06,6.1981e+06,-27.068,0,1.4039e+08,-3.2865,12123,11209,1,11209,1,-0.00067324,-1.5116e-09,0,9.4785e-06,-0.0001321,-2.7383e+08,-500.45,0,3.8943e+06,-80.383,11208,11690,1,11690,1,-0.00034136,-6.4119e-10,0,0.0001787,-6.9917e-05,-1.3884e+08,-214.1,0,7.0641e+07,-16.989,11689,12558,1,12558,1,0.00037346,2.6135e-10,0,0.00053611,6.4034e-05,1.4066e+08,83.829,0,2.0732e+08,23.666,12557,502.62,0,502.62,0,0.00041256,7.2229e-10,0,0.00020651,7.7313e-05,1.5983e+08,239.72,0,7.9095e+07,27.759,502.62,1
1736,2.51,12124,1,12124,1,1.625e-05,1.2798e-09,0,0.00035886,-2.9751e-06,-18.276,424.2,0,1.3935e+08,-0.9746,12123,12992,1,12992,1,0.00070835,3.3663e-09,0,0.00070835,0.00012675,2.5732e+08,1106.5,0,2.749e+08,90.328,12991,12124,1,12124,1,1.625e-05,1.2525e-09,0,0.00035886,-2.9792e-06,6.2737e+06,407.21,0,1.4092e+08,-5.896,12123,11209,1,11209,1,-0.00067585,-5.2385e-10,0,9.3825e-06,-0.00013267,-2.749e+08,-177.27,0,3.8565e+06,-98.145,11208,11690,1,11690,1,-0.00034261,3.6863e-10,0,0.00017943,-7.0225e-05,-1.3935e+08,124.37,0,7.091e+07,-28.405,11689,12558,1,12558,1,0.00037511,2.1919e-09,0,0.00053829,6.4269e-05,1.4119e+08,728.01,0,2.0807e+08,26.62,12557,502.62,0,502.62,0,0.00041423,1.053e-09,0,0.00020736,7.7626e-05,1.6041e+08,350.28,0,7.938e+07,38.494,502.62,1
1736,2.52,12124,1,12124,1,1.6452e-05,-9.8043e-10,0,0.00036031,-3.0122e-06,65.349,-324.3,0,1.3986e+08,-8.4025,12123,12992,1,12992,1,0.00071135,5.7243e-10,0,0.00071135,0.00012723,2.5816e+08,196.06,0,2.7595e+08,88.78,12991,12124,1,12124,1,1.6453e-05,-1.0616e-09,0,0.00036031,-3.0166e-06,6.3505e+06,-352.38,0,1.4144e+08,-4.9385,12123,11209,1,11209,1,-0.00067844,-2.3117e-09,0,9.2836e-06,-0.00013323,-2.7595e+08,-764.86,0,3.8176e+06,-95.785,11208,11690,1,11690,1,-0.00034386,-1.6726e-09,0,0.00018016,-7.0533e-05,-1.3986e+08,-555.6,0,7.1178e+07,-27.606,11689,12558,1,12558,1,0.00037676,-3.4528e-10,0,0.00054047,6.4504e-05,1.4172e+08,-112.97,0,2.0883e+08,8.4867,12557,502.62,0,502.62,0,0.00041591,7.7772e-10,0,0.00020821,7.794e-05,1.6099e+08,257.71,0,7.9664e+07,32.067,502.62,1
1736,2.53,12124,1,12124,1,1.6655e-05,-6.464e-10,0,0.00036175,-3.0492e-06,-14.722,-214.9,0,1.4036e+08,20.44,12123,12992,1,12992,1,0.00071433,3.3561e-09,0,0.00071433,0.00012772,2.5899e+08,1112.8,0,2.77e+08,139.58,12991,12124,1,12124,1,1.6655e-05,-2.5833e-10,0,0.00036175,-3.0539e-06,6.4272e+06,-82.778,0,1.4196e+08,14.359,12123,11209,1,11209,1,-0.00068102,-4.6616e-09,0,9.1839e-06,-0.00013378,-2.77e+08,-1541.9,0,3.7783e+06,-139.05,11208,11690,1,11690,1,-0.0003451,-1.7307e-09,0,0.00018088,-7.084e-05,-1.4036e+08,-575.1,0,7.1444e+07,-26.524,11689,12558,1,12558,1,0.00037841,4.2315e-10,0,0.00054263,6.4736e-05,1.4225e+08,138.14,0,2.0957e+08,70.983,12557,502.62,0,502.62,0,0.00041756,1.7357e-09,0,0.00020905,7.825e-05,1.6157e+08,576.15,0,7.9944e+07,60.558,502.62,1
1736,2.54,12124,1,12124,1,1.6859e-05,-1.1692e-09,0,0.0003632,-3.0867e-06,13.921,-387.92,0,1.4087e+08,1.5022,12123,12992,1,12992,1,0.00071733,6.6293e-10,0,0.00071733,0.0001282,2.5983e+08,227.01,0,2.7805e+08,115.2,12991,12124,1,12124,1,1.6859e-05,-1.135e-09,0,0.0003632,-3.0916e-06,6.5047e+06,-368.31,0,1.4249e+08,3.9783,12123,11209,1,11209,1,-0.00068361,-3.3826e-09,0,9.083e-06,-0.00013434,-2.7805e+08,-1123.2,0,3.7387e+06,-172.81,11208,11690,1,11690,1,-0.00034634,-2.0475e-09,0,0.0001816,-7.1149e-05,-1.4087e+08,-680.14,0,7.1711e+07,-13.923,11689,12558,1,12558,1,0.00038006,-2.4176e-10,0,0.0005448,6.497e-05,1.4278e+08,-80.55,0,2.1032e+08,26.54,12557,502.62,0,502.62,0,0.00041924,1.0676e-09,0,0.0002099,7.8564e-05,1.6215e+08,356.15,0,8.0228e+07,43.363,502.62,1
1736,2.55,12124,1,12124,1,1.7067e-05,-8.6115e-10,0,0.00036465,-3.1247e-06,48.504,-286.23,0,1.4138e+08,2.6266,12123,12992,1,12992,1,0.00072034,1.6326e-09,0,0.00072034,0.00012869,2.6067e+08,540.7,0,2.7911e+08,99.182,12991,12124,1,12124,1,1.7066e-05,-5.2684e-10,0,0.00036465,-3.1299e-06,6.5831e+06,-173.2,0,1.4301e+08,-2.9545,12123,11209,1,11209,1,-0.0006862,-3.9673e-09,0,8.9795e-06,-0.0001349,-2.7911e+08,-1311.4,0,3.6979e+06,-108.15,11208,11690,1,11690,1,-0.00034759,-1.8133e-09,0,0.00018233,-7.1458e-05,-1.4138e+08,-601.29,0,7.1979e+07,-31.78,11689,12558,1,12558,1,0.00038172,1.6234e-10,0,0.00054698,6.5203e-05,1.433e+08,53.733,0,2.1107e+08,39.589,12557,502.62,0,502.62,0,0.00042092,1.3331e-09,0,0.00021075,7.8877e-05,1.6273e+08,443.14,0,8.0511e+07,46.471,502.62,1
1736,2.56,12124,1,12124,1,1.7275e-05,-1.3472e-09,0,0.00036609,-3.1628e-06,-27.407,-446.86,0,1.4188e+08,3.4286,12123,12992,1,12992,1,0.00072333,1.9872e-09,0,0.00072333,0.00012917,2.615e+08,661.96,0,2.8015e+08,126.58,12991,12124,1,12124,1,1.7275e-05,-9.8758e-10,0,0.0003661,-3.1683e-06,6.6619e+06,-327.32,0,1.4354e+08,-3.094,12123,11209,1,11209,1,-0.00068878,-5.3985e-09,0,8.8743e-06,-0.00013546,-2.8015e+08,-1783.9,0,3.6566e+06,-141.15,11208,11690,1,11690,1,-0.00034882,-2.6858e-09,0,0.00018305,-7.1767e-05,-1.4188e+08,-885.45,0,7.2244e+07,-33.981,11689,12558,1,12558,1,0.00038337,1.4078e-10,0,0.00054914,6.5435e-05,1.4383e+08,44.711,0,2.1181e+08,46.465,12557,502.62,0,502.62,0,0.00042258,1.7933e-09,0,0.00021159,7.9189e-05,1.6331e+08,596.11,0,8.0791e+07,55.981,502.62,1
1736,2.57,12124,1,12124,1,1.7485e-05,-6.9087e-10,0,0.00036756,-3.2014e-06,47.84,-229.82,0,1.4239e+08,-2.5685,12123,12992,1,12992,1,0.00072636,1.3306e-09,0,0.00072636,0.00012966,2.6234e+08,450.79,0,2.8121e+08,96.512,12991,12124,1,12124,1,1.7485e-05,-4.0975e-10,0,0.00036756,-3.2072e-06,6.7417e+06,-135.1,0,1.4406e+08,-2.985,12123,11209,1,11209,1,-0.00069138,-3.132e-09,0,8.7678e-06,-0.00013603,-2.8121e+08,-1041.3,0,3.6147e+06,-93.6,11208,11690,1,11690,1,-0.00035007,-1.5846e-09,0,0.00018378,-7.2079e-05,-1.4239e+08,-521.29,0,7.2513e+07,-28.852,11689,12558,1,12558,1,0.00038504,1.5015e-10,0,0.00055134,6.567e-05,1.4436e+08,47.069,0,2.1256e+08,24.16,12557,502.62,0,502.62,0,0.00042427,1.1116e-09,0,0.00021245,7.9505e-05,1.6389e+08,370.43,0,8.1076e+07,40.281,502.62,1
1736,2.58,12124,1,12124,1,1.7699e-05,-3.3743e-10,0,0.00036901,-3.2405e-06,161.17,-112.52,0,1.4289e+08,-6.5577,12123,12992,1,12992,1,0.00072936,1.5523e-09,0,0.00072936,0.00013015,2.6316e+08,518.21,0,2.8226e+08,81.916,12991,12124,1,12124,1,1.7699e-05,-2.0822e-10,0,0.00036901,-3.2467e-06,6.8225e+06,-66.235,0,1.4459e+08,-7.4733,12123,11209,1,11209,1,-0.00069396,-2.0309e-09,0,8.6579e-06,-0.00013659,-2.8226e+08,-670.68,0,3.5716e+06,-94.741,11208,11690,1,11690,1,-0.00035131,-8.9128e-10,0,0.0001845,-7.2389e-05,-1.4289e+08,-293.73,0,7.278e+07,-25.387,11689,12558,1,12558,1,0.00038671,1.7581e-10,0,0.00055351,6.5902e-05,1.4488e+08,57.862,0,2.133e+08,18.546,12557,502.62,0,502.62,0,0.00042594,7.6395e-10,0,0.0002133,7.9818e-05,1.6447e+08,253.96,0,8.1357e+07,34.293,502.62,1
1736,2.59,12124,1,12124,1,1.7912e-05,-1.2868e-09,0,0.00037044,-3.2795e-06,85.79,-425.98,0,1.4339e+08,5.9316,12123,12992,1,12992,1,0.00073235,3.0787e-09,0,0.00073235,0.00013063,2.6398e+08,1023.8,0,2.833e+08,170.22,12991,12124,1,12124,1,1.7912e-05,-7.0112e-10,0,0.00037044,-3.2859e-06,6.9029e+06,-232.08,0,1.451e+08,-3.1175,12123,11209,1,11209,1,-0.00069653,-6.4883e-09,0,8.5476e-06,-0.00013715,-2.833e+08,-2142,0,3.5282e+06,-141.63,11208,11690,1,11690,1,-0.00035253,-2.7468e-09,0,0.00018522,-7.2697e-05,-1.4339e+08,-889.46,0,7.3043e+07,-47.503,11689,12558,1,12558,1,0.00038835,3.0535e-10,0,0.00055566,6.6132e-05,1.454e+08,101.91,0,2.1404e+08,58.313,12557,502.62,0,502.62,0,0.0004276,2.2148e-09,0,0.00021414,8.0128e-05,1.6503e+08,734.46,0,8.1634e+07,71.256,502.62,1
1736,2.6,12124,1,12124,1,1.8126e-05,-1.3192e-09,0,0.0003719,-3.3187e-06,-17.36,-437.25,0,1.439e+08,-10.184,12123,12992,1,12992,1,0.00073539,6.3107e-10,0,0.00073539,0.00013112,2.6482e+08,213.65,0,2.8436e+08,125.99,12991,12124,1,12124,1,1.8126e-05,-1.2927e-09,0,0.00037191,-3.3254e-06,6.9839e+06,-426.89,0,1.4563e+08,-9.4226,12123,11209,1,11209,1,-0.00069913,-3.4381e-09,0,8.4377e-06,-0.00013772,-2.8436e+08,-1176.9,0,3.485e+06,-131.57,11208,11690,1,11690,1,-0.00035378,-2.3798e-09,0,0.00018595,-7.301e-05,-1.4389e+08,-778.61,0,7.3312e+07,-33.246,11689,12558,1,12558,1,0.00039003,-2.5872e-10,0,0.00055786,6.6366e-05,1.4593e+08,-82.432,0,2.1479e+08,11.3,12557,502.62,0,502.62,0,0.00042929,1.1735e-09,0,0.000215,8.0444e-05,1.6562e+08,391.28,0,8.1918e+07,42.392,502.62,1
1736,2.61,12124,1,12124,1,1.8346e-05,-1.5161e-09,0,0.00037336,-3.3589e-06,21.564,-502.62,0,1.444e+08,-8.1169,12123,12992,1,12992,1,0.00073842,7.7414e-10,0,0.00073842,0.0001316,2.6564e+08,263.45,0,2.8542e+08,128.99,12991,12124,1,12124,1,1.8345e-05,-1.5249e-09,0,0.00037336,-3.3659e-06,7.0667e+06,-494.38,0,1.4615e+08,-10.894,12123,11209,1,11209,1,-0.00070172,-4.2367e-09,0,8.3223e-06,-0.00013828,-2.8542e+08,-1398.3,0,3.4397e+06,-138.35,11208,11690,1,11690,1,-0.00035501,-2.4949e-09,0,0.00018668,-7.3322e-05,-1.444e+08,-829.09,0,7.3578e+07,-32.207,11689,12558,1,12558,1,0.00039171,-4.9049e-10,0,0.00056004,6.6598e-05,1.4646e+08,-159.37,0,2.1553e+08,20.66,12557,502.62,0,502.62,0,0.00043097,1.2598e-09,0,0.00021585,8.0758e-05,1.6619e+08,419.43,0,8.2199e+07,44.577,502.62,1
1736,2.62,12124,1,12124,1,1.8566e-05,-4.0718e-11,0,0.00037481,-3.3992e-06,-8.1141,-14.99,0,1.449e+08,-6.7081,12123,12992,1,12992,1,0.00074142,1.9472e-10,0,0.00074142,0.00013208,2.6646e+08,60.258,0,2.8646e+08,12.579,12991,12124,1,12124,1,1.8566e-05,-3.5761e-12,0,0.00037481,-3.4067e-06,7.15e+06,-1.1657,0,1.4667e+08,-4.7262,12123,11209,1,11209,1,-0.00070429,-4.2267e-10,0,8.2057e-06,-0.00013884,-2.8646e+08,-144.73,0,3.394e+06,-46.335,11208,11690,1,11690,1,-0.00035625,-1.6019e-10,0,0.00018741,-7.3634e-05,-1.449e+08,-54.57,0,7.3844e+07,-9.7957,11689,12558,1,12558,1,0.00039338,9.5942e-11,0,0.00056222,6.683e-05,1.4698e+08,30.242,0,2.1627e+08,-0.19846,12557,502.62,0,502.62,0,0.00043265,1.63e-10,0,0.00021671,8.1073e-05,1.6677e+08,54.236,0,8.248e+07,9.7482,502.62,1
1736,2.63,12124,1,12124,1,1.8788e-05,-6.7426e-10,0,0.00037627,-3.4399e-06,142.73,-223.31,0,1.454e+08,-8.618,12123,12992,1,12992,1,0.00074445,5.8387e-10,0,0.00074445,0.00013257,2.6728e+08,187.07,0,2.8751e+08,78.831,12991,12124,1,12124,1,1.8788e-05,-5.3751e-10,0,0.00037627,-3.4477e-06,7.2337e+06,-175.28,0,1.472e+08,-7.9692,12123,11209,1,11209,1,-0.00070688,-2.5544e-09,0,8.088e-06,-0.00013941,-2.8751e+08,-842.23,0,3.3478e+06,-110.98,11208,11690,1,11690,1,-0.00035748,-1.3171e-09,0,0.00018813,-7.3947e-05,-1.454e+08,-435.93,0,7.411e+07,-31.916,11689,12558,1,12558,1,0.00039505,4.2214e-11,0,0.0005644,6.7061e-05,1.4751e+08,14.456,0,2.1701e+08,13.715,12557,502.62,0,502.62,0,0.00043432,8.0189e-10,0,0.00021756,8.1386e-05,1.6734e+08,265.67,0,8.2759e+07,33.683,502.62,1
1736,2.64,12124,1,12124,1,1.9011e-05,-5.8575e-10,0,0.00037771,-3.4807e-06,66.042,-194.16,0,1.459e+08,1.4452,12123,12992,1,12992,1,0.00074747,8.8653e-10,0,0.00074747,0.00013305,2.6809e+08,292.22,0,2.8856e+08,113.95,12991,12124,1,12124,1,1.9011e-05,-2.3926e-10,0,0.00037771,-3.4888e-06,7.3178e+06,-80.095,0,1.4771e+08,-5.2742,12123,11209,1,11209,1,-0.00070944,-3e-09,0,7.9685e-06,-0.00013997,-2.8856e+08,-988.8,0,3.3009e+06,-72.165,11208,11690,1,11690,1,-0.0003587,-1.1523e-09,0,0.00018886,-7.4258e-05,-1.459e+08,-373.03,0,7.4374e+07,-30.917,11689,12558,1,12558,1,0.00039672,1.1679e-10,0,0.00056657,6.7291e-05,1.4803e+08,37.931,0,2.1775e+08,25.036,12557,502.62,0,502.62,0,0.00043599,9.5233e-10,0,0.00021841,8.1699e-05,1.6791e+08,315.65,0,8.3037e+07,41.774,502.62,1
1736,2.65,12124,1,12124,1,1.9235e-05,-1.4997e-09,0,0.00037915,-3.5218e-06,222.59,-495.63,0,1.4639e+08,-8.5039,12123,12992,1,12992,1,0.00075047,3.5667e-09,0,0.00075047,0.00013353,2.689e+08,1183.9,0,2.896e+08,221.63,12991,12124,1,12124,1,1.9234e-05,-1.2381e-09,0,0.00037915,-3.5303e-06,7.4022e+06,-409.3,0,1.4823e+08,-13.381,12123,11209,1,11209,1,-0.000712,-6.1049e-09,0,7.8471e-06,-0.00014053,-2.896e+08,-2011.5,0,3.2533e+06,-255.18,11208,11690,1,11690,1,-0.00035991,-3.1464e-09,0,0.00018957,-7.4568e-05,-1.4639e+08,-1030.6,0,7.4636e+07,-45.588,11689,12558,1,12558,1,0.00039839,1.7978e-10,0,0.00056872,6.7519e-05,1.4854e+08,58.884,0,2.1847e+08,42.291,12557,502.62,0,502.62,0,0.00043765,2.1575e-09,0,0.00021925,8.2009e-05,1.6848e+08,714.76,0,8.3312e+07,79.176,502.62,1
1736,2.66,12124,1,12124,1,1.946e-05,-1.331e-09,0,0.00038061,-3.563e-06,38.412,-440.86,0,1.469e+08,1.569,12123,12992,1,12992,1,0.00075351,1.6317e-09,0,0.00075351,0.00013402,2.6971e+08,545.92,0,2.9065e+08,111.55,12991,12124,1,12124,1,1.946e-05,-1.0841e-09,0,0.00038061,-3.5719e-06,7.4871e+06,-354.35,0,1.4875e+08,3.7334,12123,11209,1,11209,1,-0.00071459,-4.7774e-09,0,7.7257e-06,-0.0001411,-2.9065e+08,-1575.4,0,3.2057e+06,-175.08,11208,11690,1,11690,1,-0.00036115,-2.5031e-09,0,0.0001903,-7.4883e-05,-1.4689e+08,-828.48,0,7.4902e+07,-28.77,11689,12558,1,12558,1,0.00040007,1.2705e-11,0,0.00057092,6.7751e-05,1.4907e+08,4.2029,0,2.1922e+08,42.95,12557,502.62,0,502.62,0,0.00043934,1.5512e-09,0,0.00022011,8.2324e-05,1.6905e+08,515.72,0,8.3593e+07,53.511,502.62,1
1736,2.67,12124,1,12124,1,1.969e-05,6.1897e-10,0,0.00038207,-3.6051e-06,17.896,202.94,0,1.474e+08,6.9647,12123,12992,1,12992,1,0.00075655,2.1655e-09,0,0.00075655,0.0001345,2.7053e+08,715.41,0,2.917e+08,111.6,12991,12124,1,12124,1,1.969e-05,5.0577e-10,0,0.00038207,-3.6143e-06,7.5739e+06,166.02,0,1.4927e+08,7.1092,12123,11209,1,11209,1,-0.00071717,-3.9587e-10,0,7.6e-06,-0.00014167,-2.917e+08,-135.57,0,3.1564e+06,-74.664,11208,11690,1,11690,1,-0.00036238,5.8739e-11,0,0.00019104,-7.5198e-05,-1.4739e+08,18.842,0,7.5169e+07,-16.251,11689,12558,1,12558,1,0.00040176,1.1383e-09,0,0.00057311,6.7982e-05,1.496e+08,371.92,0,2.1996e+08,29.325,12557,502.62,0,502.62,0,0.00044102,6.5833e-10,0,0.00022097,8.264e-05,1.6963e+08,217.69,0,8.3873e+07,31.787,502.62,1
1736,2.68,12124,1,12124,1,1.9921e-05,-1.9694e-09,0,0.00038351,-3.6474e-06,160.47,-649.53,0,1.4789e+08,-3.7414,12123,12992,1,12992,1,0.00075956,3.0415e-09,0,0.00075956,0.00013498,2.7132e+08,1009.4,0,2.9274e+08,172.14,12991,12124,1,12124,1,1.9921e-05,-1.4919e-09,0,0.00038351,-3.6571e-06,7.6607e+06,-498.01,0,1.4978e+08,-15.956,12123,11209,1,11209,1,-0.00071972,-7.6294e-09,0,7.4719e-06,-0.00014223,-2.9274e+08,-2511.4,0,3.1062e+06,-200,11208,11690,1,11690,1,-0.00036359,-3.8552e-09,0,0.00019175,-7.5509e-05,-1.4788e+08,-1269.2,0,7.543e+07,-64.071,11689,12558,1,12558,1,0.00040343,1.2163e-10,0,0.00057526,6.8208e-05,1.5011e+08,39.607,0,2.2068e+08,59.72,12557,502.62,0,502.62,0,0.00044268,2.5362e-09,0,0.00022181,8.295e-05,1.7019e+08,838.87,0,8.4146e+07,80.315,502.62,1
1736,2.69,12124,1,12124,1,2.0152e-05,-1.3758e-09,0,0.00038497,-3.6898e-06,178.2,-455.6,0,1.4839e+08,-19.547,12123,12992,1,12992,1,0.00076262,1.3554e-09,0,0.00076262,0.00013546,2.7213e+08,458.89,0,2.9379e+08,109.83,12991,12124,1,12124,1,2.0152e-05,-1.262e-09,0,0.00038497,-3.7e-06,7.7478e+06,-418.22,0,1.503e+08,-15.569,12123,11209,1,11209,1,-0.00072231,-4.37e-09,0,7.3449e-06,-0.0001428,-2.9379e+08,-1451.4,0,3.0565e+06,-177.75,11208,11690,1,11690,1,-0.00036482,-2.633e-09,0,0.00019248,-7.5825e-05,-1.4838e+08,-874.95,0,7.5696e+07,-50.665,11689,12558,1,12558,1,0.00040512,-2.0977e-11,0,0.00057746,6.8439e-05,1.5063e+08,-6.7617,0,2.2142e+08,18.526,12557,502.62,0,502.62,0,0.00044437,1.4548e-09,0,0.00022267,8.3266e-05,1.7076e+08,483.89,0,8.4426e+07,53.755,502.62,1
1736,2.7,12124,1,12124,1,2.0387e-05,-1.3614e-09,0,0.00038641,-3.7328e-06,166,-450.14,0,1.4888e+08,-2.181,12123,12992,1,12992,1,0.00076563,3.3465e-09,0,0.00076563,0.00013594,2.7292e+08,1100.9,0,2.9483e+08,125.44,12991,12124,1,12124,1,2.0387e-05,-8.6615e-10,0,0.00038642,-3.7432e-06,7.836e+06,-285.84,0,1.5082e+08,-10.52,12123,11209,1,11209,1,-0.00072486,-6.4283e-09,0,7.2135e-06,-0.00014337,-2.9483e+08,-2114.5,0,3.0051e+06,-137.94,11208,11690,1,11690,1,-0.00036603,-2.9235e-09,0,0.00019321,-7.6138e-05,-1.4888e+08,-975.74,0,7.5957e+07,-52.707,11689,12558,1,12558,1,0.0004068,2.3435e-10,0,0.00057962,6.8667e-05,1.5115e+08,74.567,0,2.2214e+08,55.165,12557,502.62,0,502.62,0,0.00044603,2.2502e-09,0,0.00022352,8.3578e-05,1.7132e+08,745.34,0,8.47e+07,64.223,502.62,1
1736,2.71,12124,1,12124,1,2.062e-05,-1.5025e-09,0,0.00038786,-3.7755e-06,-281.24,-496.69,0,1.4938e+08,2.5202,12123,12992,1,12992,1,0.00076867,3.5278e-09,0,0.00076867,0.00013642,2.7373e+08,1170.9,0,2.9587e+08,157.67,12991,12124,1,12124,1,2.062e-05,-9.3995e-10,0,0.00038787,-3.7865e-06,7.9239e+06,-307.86,0,1.5133e+08,-7.8688,12123,11209,1,11209,1,-0.00072743,-7.0918e-09,0,7.0835e-06,-0.00014393,-2.9587e+08,-2334.1,0,2.9541e+06,-158.54,11208,11690,1,11690,1,-0.00036725,-3.2201e-09,0,0.00019393,-7.6453e-05,-1.4937e+08,-1048.2,0,7.6221e+07,-59.469,11689,12558,1,12558,1,0.00040849,2.2843e-10,0,0.0005818,6.8895e-05,1.5167e+08,74.957,0,2.2287e+08,69.493,12557,502.62,0,502.62,0,0.00044771,2.446e-09,0,0.00022438,8.3891e-05,1.7189e+08,811.44,0,8.4976e+07,74.502,502.62,1
1736,2.72,12124,1,12124,1,2.086e-05,-8.9819e-10,0,0.00038933,-3.8195e-06,-2.1942,-297.41,0,1.4988e+08,-5.6186,12123,12992,1,12992,1,0.00077173,1.9764e-09,0,0.00077173,0.00013691,2.7453e+08,668.79,0,2.9692e+08,136.96,12991,12124,1,12124,1,2.086e-05,-4.6624e-10,0,0.00038933,-3.8307e-06,8.014e+06,-154.02,0,1.5185e+08,-7.1173,12123,11209,1,11209,1,-0.00073001,-5.1201e-09,0,6.9484e-06,-0.0001445,-2.9692e+08,-1687,0,2.9013e+06,-139.49,11208,11690,1,11690,1,-0.00036847,-1.7445e-09,0,0.00019467,-7.6771e-05,-1.4987e+08,-571.07,0,7.6487e+07,-50.579,11689,12558,1,12558,1,0.00041019,2.2577e-10,0,0.000584,6.9126e-05,1.5219e+08,75.119,0,2.2361e+08,36.283,12557,502.62,0,502.62,0,0.0004494,1.576e-09,0,0.00022524,8.4208e-05,1.7246e+08,522.73,0,8.5255e+07,59.746,502.62,1
1736,2.73,12124,1,12124,1,2.1101e-05,-1.1818e-09,0,0.00039078,-3.8635e-06,2.4722,-390.79,0,1.5037e+08,6.348,12123,12992,1,12992,1,0.00077476,4.0004e-09,0,0.00077476,0.00013739,2.7532e+08,1317.4,0,2.9796e+08,190.26,12991,12124,1,12124,1,2.1101e-05,-6.8067e-10,0,0.00039078,-3.8753e-06,8.1045e+06,-222.79,0,1.5237e+08,3.2676,12123,11209,1,11209,1,-0.00073256,-6.5729e-09,0,6.8107e-06,-0.00014507,-2.9796e+08,-2159.9,0,2.8474e+06,-227.67,11208,11690,1,11690,1,-0.00036968,-2.6493e-09,0,0.00019539,-7.7085e-05,-1.5036e+08,-859.32,0,7.6748e+07,-52.652,11689,12558,1,12558,1,0.00041188,3.5211e-10,0,0.00058617,6.9352e-05,1.5271e+08,111.44,0,2.2433e+08,71.066,12557,502.62,0,502.62,0,0.00045107,2.3177e-09,0,0.00022609,8.452e-05,1.7303e+08,766.91,0,8.5528e+07,78.359,502.62,1
1736,2.74,12124,1,12124,1,2.1342e-05,-4.1888e-10,0,0.00039223,-3.9076e-06,27.671,-139.44,0,1.5086e+08,13.095,12123,12992,1,12992,1,0.0007778,6.5819e-09,0,0.0007778,0.00013787,2.761e+08,2172.4,0,2.99e+08,186.65,12991,12124,1,12124,1,2.1342e-05,1.0383e-11,0,0.00039223,-3.9198e-06,8.195e+06,3.5325,0,1.5288e+08,0.017947,12123,11209,1,11209,1,-0.00073511,-6.5728e-09,0,6.6734e-06,-0.00014564,-2.99e+08,-2159.1,0,2.7937e+06,-214.17,11208,11690,1,11690,1,-0.00037089,-2.2018e-09,0,0.00019611,-7.7401e-05,-1.5085e+08,-728.22,0,7.701e+07,-57.211,11689,12558,1,12558,1,0.00041357,1.1044e-09,0,0.00058834,6.9579e-05,1.5322e+08,361.81,0,2.2506e+08,93.63,12557,502.62,0,502.62,0,0.00045275,2.8281e-09,0,0.00022694,8.4833e-05,1.7359e+08,935.2,0,8.5803e+07,87.693,502.62,1
1736,2.75,12124,1,12124,1,2.1586e-05,-3.462e-10,0,0.0003937,-3.9524e-06,32.44,-115.05,0,1.5136e+08,-19.25,12123,12992,1,12992,1,0.00078088,1.3757e-09,0,0.00078088,0.00013835,2.769e+08,471.05,0,3.0005e+08,49.685,12991,12124,1,12124,1,2.1586e-05,-1.5726e-10,0,0.0003937,-3.9652e-06,8.2868e+06,-49.635,0,1.534e+08,-17.552,12123,11209,1,11209,1,-0.0007377,-2.1399e-09,0,6.5339e-06,-0.00014621,-3.0005e+08,-718.56,0,2.7392e+06,-117.94,11208,11690,1,11690,1,-0.00037211,-7.678e-10,0,0.00019685,-7.7721e-05,-1.5135e+08,-256.48,0,7.7276e+07,-39.929,11689,12558,1,12558,1,0.00041529,1.5185e-10,0,0.00059055,6.981e-05,1.5375e+08,49.077,0,2.2579e+08,5.6998,12557,502.62,0,502.62,0,0.00045444,7.445e-10,0,0.00022781,8.5151e-05,1.7416e+08,248.61,0,8.6082e+07,34.544,502.62,1
1736,2.76,12124,1,12124,1,2.1834e-05,-9.1413e-10,0,0.00039515,-3.9978e-06,59.032,-301.49,0,1.5185e+08,5.2771,12123,12992,1,12992,1,0.00078392,2.3902e-09,0,0.00078392,0.00013883,2.7769e+08,795.31,0,3.0109e+08,104.96,12991,12124,1,12124,1,2.1834e-05,-5.9863e-10,0,0.00039515,-4.0109e-06,8.3797e+06,-198.47,0,1.5391e+08,-2.1683,12123,11209,1,11209,1,-0.00074025,-4.3386e-09,0,6.3905e-06,-0.00014678,-3.0109e+08,-1424.3,0,2.6831e+06,-89.424,11208,11690,1,11690,1,-0.00037332,-1.9842e-09,0,0.00019757,-7.8038e-05,-1.5184e+08,-654.92,0,7.7537e+07,-29.692,11689,12558,1,12558,1,0.00041699,1.5104e-10,0,0.00059273,7.0036e-05,1.5426e+08,50.398,0,2.2652e+08,44.797,12557,502.62,0,502.62,0,0.00045612,1.5225e-09,0,0.00022867,8.5465e-05,1.7472e+08,503.6,0,8.6355e+07,45.17,502.62,1
1736,2.77,12124,1,12124,1,2.2081e-05,-5.7114e-10,0,0.00039661,-4.0432e-06,-56.849,-189.14,0,1.5234e+08,-5.4943,12123,12992,1,12992,1,0.00078699,1.9057e-09,0,0.00078699,0.00013931,2.7847e+08,626.79,0,3.0213e+08,118.6,12991,12124,1,12124,1,2.2081e-05,-5.0284e-10,0,0.00039661,-4.0568e-06,8.4725e+06,-162.13,0,1.5443e+08,-5.7731,12123,11209,1,11209,1,-0.00074282,-2.5099e-09,0,6.247e-06,-0.00014735,-3.0213e+08,-824.07,0,2.6271e+06,-133.6,11208,11690,1,11690,1,-0.00037453,-1.3471e-09,0,0.0001983,-7.8356e-05,-1.5233e+08,-445.73,0,7.78e+07,-27.215,11689,12558,1,12558,1,0.00041869,1.3587e-10,0,0.00059492,7.0263e-05,1.5478e+08,42.813,0,2.2724e+08,19.414,12557,502.62,0,502.62,0,0.00045781,9.4629e-10,0,0.00022953,8.578e-05,1.7529e+08,313.63,0,8.663e+07,41.129,502.62,1
1736,2.78,12124,1,12124,1,2.2332e-05,-8.1465e-10,0,0.00039807,-4.0891e-06,2.156,-268.82,0,1.5283e+08,0.97325,12123,12992,1,12992,1,0.00079005,4.5909e-10,0,0.00079005,0.00013979,2.7926e+08,157.24,0,3.0318e+08,69.705,12991,12124,1,12124,1,2.2332e-05,-5.97e-10,0,0.00039807,-4.1032e-06,8.5666e+06,-195.86,0,1.5494e+08,-1.3899,12123,11209,1,11209,1,-0.00074538,-2.874e-09,0,6.1006e-06,-0.00014792,-3.0318e+08,-942.77,0,2.5699e+06,-65.21,11208,11690,1,11690,1,-0.00037574,-1.3534e-09,0,0.00019903,-7.8675e-05,-1.5283e+08,-444.06,0,7.8063e+07,-19.746,11689,12558,1,12558,1,0.0004204,-1.0875e-10,0,0.00059711,7.049e-05,1.553e+08,-34.596,0,2.2797e+08,19.665,12557,502.62,0,502.62,0,0.00045949,8.3581e-10,0,0.00023039,8.6095e-05,1.7585e+08,277.1,0,8.6904e+07,29.116,502.62,1
1736,2.79,12124,1,12124,1,2.2584e-05,-1.5005e-09,0,0.00039951,-4.1351e-06,-113.86,-494.07,0,1.5332e+08,1.8798,12123,12992,1,12992,1,0.0007931,2.4196e-09,0,0.0007931,0.00014027,2.8003e+08,793.53,0,3.0421e+08,127.67,12991,12124,1,12124,1,2.2583e-05,-1.0505e-09,0,0.00039952,-4.1497e-06,8.6606e+06,-331.32,0,1.5545e+08,-2.199,12123,11209,1,11209,1,-0.00074792,-6.2579e-09,0,5.9525e-06,-0.00014849,-3.0421e+08,-2052.1,0,2.512e+06,-117.98,11208,11690,1,11690,1,-0.00037693,-3.0013e-09,0,0.00019976,-7.8991e-05,-1.5331e+08,-986.54,0,7.8322e+07,-46.782,11689,12558,1,12558,1,0.0004221,1.701e-10,0,0.00059927,7.0714e-05,1.5581e+08,54.787,0,2.2868e+08,44.555,12557,502.62,0,502.62,0,0.00046116,2.0868e-09,0,0.00023124,8.6407e-05,1.7641e+08,688.94,0,8.7175e+07,58.4,502.62,1
1736,2.8,12124,1,12124,1,2.2836e-05,-4.7915e-10,0,0.00040097,-4.1813e-06,12.478,-159.39,0,1.5381e+08,-9.5916,12123,12992,1,12992,1,0.00079615,3.9242e-09,0,0.00079615,0.00014075,2.8081e+08,1297,0,3.0525e+08,130.12,12991,12124,1,12124,1,2.2835e-05,-4.4988e-11,0,0.00040097,-4.1964e-06,8.7551e+06,-14.1,0,1.5596e+08,-14.582,12123,11209,1,11209,1,-0.00075048,-4.8265e-09,0,5.805e-06,-0.00014906,-3.0525e+08,-1583,0,2.4544e+06,-144.99,11208,11690,1,11690,1,-0.00037814,-1.7345e-09,0,0.00020049,-7.931e-05,-1.538e+08,-570.03,0,7.8585e+07,-65.583,11689,12558,1,12558,1,0.00042381,6.9136e-10,0,0.00060146,7.0941e-05,1.5633e+08,219.66,0,2.294e+08,41.049,12557,502.62,0,502.62,0,0.00046284,1.9281e-09,0,0.0002321,8.6722e-05,1.7697e+08,637.65,0,8.7448e+07,63.427,502.62,1
1736,2.81,12124,1,12124,1,2.3093e-05,-4.8359e-10,0,0.00040244,-4.2285e-06,23.449,-159.7,0,1.543e+08,-15.339,12123,12992,1,12992,1,0.00079924,9.8326e-10,0,0.00079924,0.00014123,2.8159e+08,332.24,0,3.0629e+08,74.165,12991,12124,1,12124,1,2.3093e-05,-2.1714e-10,0,0.00040244,-4.2441e-06,8.8515e+06,-71.648,0,1.5648e+08,-16.202,12123,11209,1,11209,1,-0.00075305,-2.5319e-09,0,5.6517e-06,-0.00014964,-3.0629e+08,-830.22,0,2.3946e+06,-109.6,11208,11690,1,11690,1,-0.00037935,-1.0758e-09,0,0.00020122,-7.9631e-05,-1.5429e+08,-350.9,0,7.8847e+07,-37.631,11689,12558,1,12558,1,0.00042553,1.591e-10,0,0.00060366,7.1168e-05,1.5684e+08,51.061,0,2.3013e+08,9.0085,12557,502.62,0,502.62,0,0.00046453,8.5547e-10,0,0.00023297,8.7039e-05,1.7753e+08,283.3,0,8.7723e+07,35.843,502.62,1
1736,2.82,12124,1,12124,1,2.3351e-05,-3.9653e-10,0,0.00040389,-4.2758e-06,-85.106,-130.18,0,1.5479e+08,7.5944,12123,12992,1,12992,1,0.0008023,7.0011e-10,0,0.0008023,0.00014171,2.8236e+08,229.91,0,3.0733e+08,123.74,12991,12124,1,12124,1,2.3351e-05,1.6037e-11,0,0.00040389,-4.2918e-06,8.9482e+06,5.1865,0,1.5699e+08,3.8787,12123,11209,1,11209,1,-0.00075559,-3.2879e-09,0,5.4978e-06,-0.00015021,-3.0733e+08,-1084.2,0,2.3346e+06,-81.032,11208,11690,1,11690,1,-0.00038054,-7.5917e-10,0,0.00020195,-7.9951e-05,-1.5478e+08,-251.87,0,7.9108e+07,-15.897,11689,12558,1,12558,1,0.00042725,2.6573e-10,0,0.00060584,7.1393e-05,1.5736e+08,85.978,0,2.3085e+08,27.835,12557,502.62,0,502.62,0,0.00046621,9.6725e-10,0,0.00023383,8.7353e-05,1.7809e+08,319.27,0,8.7995e+07,35.535,502.62,1
1736,2.83,12124,1,12124,1,2.3612e-05,-6.5591e-11,0,0.00040536,-4.3236e-06,-22.248,-21.936,0,1.5528e+08,-11.131,12123,12992,1,12992,1,0.00080538,6.1931e-10,0,0.00080538,0.00014219,2.8313e+08,211.42,0,3.0837e+08,35.694,12991,12124,1,12124,1,2.3612e-05,-5.8985e-11,0,0.00040536,-4.3404e-06,9.0457e+06,-18.998,0,1.575e+08,-10.518,12123,11209,1,11209,1,-0.00075815,-5.9912e-10,0,5.3413e-06,-0.00015079,-3.0837e+08,-196.16,0,2.2735e+06,-276.74,11208,11690,1,11690,1,-0.00038175,-2.3535e-10,0,0.00020268,-8.0272e-05,-1.5527e+08,-78.251,0,7.937e+07,-20.852,11689,12558,1,12558,1,0.00042897,1.2761e-10,0,0.00060804,7.1619e-05,1.5787e+08,39.636,0,2.3157e+08,1.9393,12557,502.62,0,502.62,0,0.0004679,2.1796e-10,0,0.00023469,8.7669e-05,1.7865e+08,71.889,0,8.8268e+07,19.289,502.62,1
1736,2.84,12124,1,12124,1,2.3874e-05,-1.1114e-09,0,0.0004068,-4.3715e-06,-71.892,-365.27,0,1.5576e+08,19.426,12123,12992,1,12992,1,0.00080844,2.9426e-09,0,0.00080844,0.00014266,2.8389e+08,963.42,0,3.094e+08,169.93,12991,12124,1,12124,1,2.3874e-05,-8.061e-10,0,0.0004068,-4.3886e-06,9.1435e+06,-260.77,0,1.58e+08,11.951,12123,11209,1,11209,1,-0.00076069,-5.2875e-09,0,5.183e-06,-0.00015136,-3.094e+08,-1730.9,0,2.2118e+06,-176.04,11208,11690,1,11690,1,-0.00038293,-2.3797e-09,0,0.0002034,-8.0591e-05,-1.5575e+08,-785.53,0,7.9628e+07,-27.574,11689,12558,1,12558,1,0.00043068,2.5912e-10,0,0.00061021,7.1841e-05,1.5838e+08,83.038,0,2.3228e+08,77.688,12557,502.62,0,502.62,0,0.00046957,1.8661e-09,0,0.00023555,8.7981e-05,1.792e+08,613.76,0,8.8536e+07,68.979,502.62,1
1736,2.85,12124,1,12124,1,2.4136e-05,-1.3823e-09,0,0.00040826,-4.4196e-06,-14.66,-454.62,0,1.5624e+08,-17.599,12123,12992,1,12992,1,0.00081151,3.9107e-09,0,0.00081151,0.00014314,2.8466e+08,1279.6,0,3.1044e+08,173.04,12991,12124,1,12124,1,2.4136e-05,-6.9338e-10,0,0.00040826,-4.438e-06,9.2415e+06,-226.02,0,1.5851e+08,-27.289,12123,11209,1,11209,1,-0.00076324,-7.6053e-09,0,5.0234e-06,-0.00015193,-3.1044e+08,-2488.6,0,2.1497e+06,-696.24,11208,11690,1,11690,1,-0.00038412,-3.1531e-09,0,0.00020413,-8.0911e-05,-1.5624e+08,-1014.1,0,7.9887e+07,-86.743,11689,12558,1,12558,1,0.0004324,4.5929e-10,0,0.00061239,7.2065e-05,1.5889e+08,149.49,0,2.3299e+08,60.048,12557,502.62,0,502.62,0,0.00047125,2.6596e-09,0,0.00023641,8.8295e-05,1.7976e+08,876.35,0,8.8806e+07,100.08,502.62,1
1736,2.86,12124,1,12124,1,2.4403e-05,-5.5978e-10,0,0.00040972,-4.4684e-06,82.322,-185.74,0,1.5673e+08,-8.546,12123,12992,1,12992,1,0.00081459,2.4379e-09,0,0.00081459,0.00014362,2.8542e+08,797.49,0,3.1147e+08,107.66,12991,12124,1,12124,1,2.4403e-05,-1.7284e-10,0,0.00040972,-4.487e-06,9.3411e+06,-55.531,0,1.5902e+08,-14.032,12123,11209,1,11209,1,-0.00076578,-3.9996e-09,0,4.8616e-06,-0.00015251,-3.1147e+08,-1317.1,0,2.0865e+06,-526.91,11208,11690,1,11690,1,-0.00038532,-1.4491e-09,0,0.00020486,-8.1233e-05,-1.5672e+08,-480.12,0,8.0148e+07,-45.25,11689,12558,1,12558,1,0.00043412,4.0068e-10,0,0.00061458,7.229e-05,1.5941e+08,126.57,0,2.3371e+08,28.395,12557,502.62,0,502.62,0,0.00047294,1.4455e-09,0,0.00023727,8.8611e-05,1.8031e+08,478.06,0,8.9078e+07,53.678,502.62,1
1736,2.87,12124,1,12124,1,2.4672e-05,1.1719e-09,0,0.00041119,-4.5176e-06,-3.9867,383,0,1.5722e+08,-6.7069,12123,12992,1,12992,1,0.00081769,3.0986e-09,0,0.00081769,0.0001441,2.8618e+08,1013.3,0,3.1251e+08,98.232,12991,12124,1,12124,1,2.4672e-05,1.1134e-09,0,0.00041119,-4.5368e-06,9.4416e+06,359.42,0,1.5953e+08,-0.94515,12123,11209,1,11209,1,-0.00076834,-3.4274e-10,0,4.6975e-06,-0.00015308,-3.1251e+08,-117.39,0,2.0227e+06,-376.17,11208,11690,1,11690,1,-0.00038652,5.2174e-10,0,0.00020559,-8.1557e-05,-1.5721e+08,170.36,0,8.041e+07,-22.239,11689,12558,1,12558,1,0.00043586,1.7783e-09,0,0.00061678,7.2515e-05,1.5992e+08,578.63,0,2.3443e+08,18.686,12557,502.62,0,502.62,0,0.00047463,8.5591e-10,0,0.00023814,8.8928e-05,1.8087e+08,282.1,0,8.935e+07,54.413,502.62,1
1736,2.88,12124,1,12124,1,2.4943e-05,-1.2536e-09,0,0.00041263,-4.5674e-06,272.32,-410.16,0,1.577e+08,-9.9724,12123,12992,1,12992,1,0.00082076,3.4117e-09,0,0.00082076,0.00014457,2.8693e+08,1115.3,0,3.1354e+08,249.68,12991,12124,1,12124,1,2.4943e-05,-1.1057e-09,0,0.00041264,-4.5868e-06,9.5427e+06,-361.66,0,1.6004e+08,-19.641,12123,11209,1,11209,1,-0.00077087,-5.1069e-09,0,4.5302e-06,-0.00015366,-3.1354e+08,-1669.3,0,1.9575e+06,-301.6,11208,11690,1,11690,1,-0.00038769,-2.7998e-09,0,0.00020632,-8.1877e-05,-1.5769e+08,-906.54,0,8.0667e+07,-55.105,11689,12558,1,12558,1,0.00043758,2.6304e-10,0,0.00061895,7.2736e-05,1.6043e+08,85.036,0,2.3513e+08,42.389,12557,502.62,0,502.62,0,0.0004763,1.8649e-09,0,0.000239,8.924e-05,1.8142e+08,612.27,0,8.9617e+07,81.495,502.62,1
1736,2.89,12124,1,12124,1,2.5213e-05,-1.1619e-09,0,0.00041409,-4.6167e-06,-21.961,-382.09,0,1.5818e+08,13.915,12123,12992,1,12992,1,0.00082383,4.1792e-09,0,0.00082383,0.00014505,2.8769e+08,1365.6,0,3.1457e+08,193.36,12991,12124,1,12124,1,2.5213e-05,-5.72e-10,0,0.00041409,-4.6366e-06,9.6433e+06,-189.64,0,1.6054e+08,5.2042,12123,11209,1,11209,1,-0.0007734,-7.1883e-09,0,4.3639e-06,-0.00015423,-3.1457e+08,-2348.8,0,1.8927e+06,-147.32,11208,11690,1,11690,1,-0.00038888,-2.7661e-09,0,0.00020704,-8.2199e-05,-1.5817e+08,-880.39,0,8.0925e+07,-49.518,11689,12558,1,12558,1,0.0004393,4.602e-10,0,0.00062113,7.2959e-05,1.6093e+08,149.75,0,2.3584e+08,70.832,12557,502.62,0,502.62,0,0.00047798,2.514e-09,0,0.00023986,8.9554e-05,1.8197e+08,827.06,0,8.9885e+07,80.026,502.62,1
1736,2.9,12124,1,12124,1,2.5487e-05,2.0383e-10,0,0.00041556,-4.667e-06,-17.164,64.684,0,1.5866e+08,-5.4337,12123,12992,1,12992,1,0.00082693,2.7619e-09,0,0.00082693,0.00014553,2.8844e+08,924.09,0,3.1561e+08,59.045,12991,12124,1,12124,1,2.5487e-05,1.6549e-10,0,0.00041556,-4.6874e-06,9.7457e+06,50.453,0,1.6105e+08,-7.3189,12123,11209,1,11209,1,-0.00077595,-1.8747e-09,0,4.1939e-06,-0.00015481,-3.1561e+08,-627.36,0,1.8266e+06,-104.47,11208,11690,1,11690,1,-0.00039007,-3.2522e-10,0,0.00020778,-8.2523e-05,-1.5865e+08,-107.73,0,8.1186e+07,-25.548,11689,12558,1,12558,1,0.00044105,7.3682e-10,0,0.00062334,7.3183e-05,1.6145e+08,234.64,0,2.3655e+08,17.701,12557,502.62,0,502.62,0,0.00047968,9.4454e-10,0,0.00024073,8.9871e-05,1.8253e+08,312.27,0,9.0157e+07,29.395,502.62,1
1736,2.91,12124,1,12124,1,2.5766e-05,3.7192e-10,0,0.00041703,-4.718e-06,-0.54259,121.39,0,1.5915e+08,-6.4626,12123,12992,1,12992,1,0.00083003,3.2206e-09,0,0.00083003,0.00014601,2.8919e+08,1077.6,0,3.1665e+08,88.567,12991,12124,1,12124,1,2.5766e-05,1.9285e-10,0,0.00041703,-4.7388e-06,9.8493e+06,60.208,0,1.6156e+08,-6.838,12123,11209,1,11209,1,-0.0007785,-1.204e-09,0,4.0215e-06,-0.00015539,-3.1665e+08,-402.86,0,1.7595e+06,-240.28,11208,11690,1,11690,1,-0.00039126,-1.5572e-10,0,0.00020851,-8.2849e-05,-1.5914e+08,-51.24,0,8.1446e+07,-23.926,11689,12558,1,12558,1,0.00044279,7.5829e-10,0,0.00062554,7.3407e-05,1.6196e+08,243.7,0,2.3727e+08,22.251,12557,502.62,0,502.62,0,0.00048137,8.3097e-10,0,0.0002416,9.0188e-05,1.8308e+08,274.29,0,9.0427e+07,42.917,502.62,1
1736,2.92,12124,1,12124,1,2.6045e-05,2.4722e-10,0,0.00041848,-4.7691e-06,11.578,81.036,0,1.5963e+08,-7.4865,12123,12992,1,12992,1,0.00083312,3.4651e-09,0,0.00083312,0.00014648,2.8993e+08,1159.2,0,3.1767e+08,95.25,12991,12124,1,12124,1,2.6045e-05,1.9286e-10,0,0.00041848,-4.7903e-06,9.9532e+06,61.504,0,1.6206e+08,-3.1864,12123,11209,1,11209,1,-0.00078102,-1.9857e-09,0,3.8462e-06,-0.00015596,-3.1767e+08,-664.29,0,1.6914e+06,-339.87,11208,11690,1,11690,1,-0.00039243,-3.0767e-10,0,0.00020924,-8.3172e-05,-1.5962e+08,-99.992,0,8.1703e+07,-23.469,11689,12558,1,12558,1,0.00044452,6.9117e-10,0,0.00062772,7.3627e-05,1.6246e+08,223.25,0,2.3797e+08,20.897,12557,502.62,0,502.62,0,0.00048305,9.1882e-10,0,0.00024246,9.0502e-05,1.8363e+08,302.78,0,9.0693e+07,57.574,502.62,1
1736,2.93,12124,1,12124,1,2.6325e-05,1.5027e-09,0,0.00041994,-4.8203e-06,-131.22,491.56,0,1.601e+08,11.372,12123,12992,1,12992,1,0.00083622,5.0981e-09,0,0.00083622,0.00014696,2.9068e+08,1705.2,0,3.1871e+08,109.79,12991,12124,1,12124,1,2.6324e-05,1.3326e-09,0,0.00041994,-4.8418e-06,1.0057e+07,435.02,0,1.6257e+08,14.175,12123,11209,1,11209,1,-0.00078357,-8.3359e-10,0,3.6707e-06,-0.00015654,-3.1871e+08,-278.75,0,1.6232e+06,-458.44,11208,11690,1,11690,1,-0.00039361,3.9732e-10,0,0.00020997,-8.3496e-05,-1.601e+08,126.75,0,8.1961e+07,-9.3798,11689,12558,1,12558,1,0.00044626,2.4833e-09,0,0.00062991,7.3849e-05,1.6297e+08,811.71,0,2.3867e+08,35.691,12557,502.62,0,502.62,0,0.00048473,1.2815e-09,0,0.00024333,9.0817e-05,1.8418e+08,422.21,0,9.096e+07,54.894,502.62,1
1736,2.94,12124,1,12124,1,2.6608e-05,-4.6061e-10,0,0.0004214,-4.8722e-06,10.26,-148.82,0,1.6059e+08,-1.2585,12123,12992,1,12992,1,0.00083932,2.0651e-09,0,0.00083932,0.00014743,2.9142e+08,691.69,0,3.1974e+08,56.177,12991,12124,1,12124,1,2.6608e-05,-3.2289e-10,0,0.00042141,-4.8942e-06,1.0163e+07,-101.38,0,1.6307e+08,-3.0333,12123,11209,1,11209,1,-0.00078611,-2.9619e-09,0,3.4916e-06,-0.00015712,-3.1974e+08,-990.59,0,1.5535e+06,-660.94,11208,11690,1,11690,1,-0.0003948,-1.0244e-09,0,0.0002107,-8.3822e-05,-1.6058e+08,-332.99,0,8.222e+07,-18.006,11689,12558,1,12558,1,0.00044801,8.5528e-11,0,0.00063211,7.4071e-05,1.6348e+08,28.365,0,2.3938e+08,22.265,12557,502.62,0,502.62,0,0.00048643,8.0686e-10,0,0.0002442,9.1133e-05,1.8473e+08,265,0,9.1229e+07,43.987,502.62,1
1736,2.95,12124,1,12124,1,2.6894e-05,1.5952e-09,0,0.00042287,-4.9245e-06,-26.18,521.16,0,1.6107e+08,6.931,12123,12992,1,12992,1,0.00084245,3.7047e-09,0,0.00084245,0.00014791,2.9217e+08,1207.8,0,3.2078e+08,112.52,12991,12124,1,12124,1,2.6894e-05,1.6177e-09,0,0.00042287,-4.9461e-06,1.0269e+07,532.78,0,1.6358e+08,1.3338,12123,11209,1,11209,1,-0.00078866,-4.6302e-10,0,3.3107e-06,-0.0001577,-3.2078e+08,-158.59,0,1.4832e+06,-107.38,11208,11690,1,11690,1,-0.00039598,8.1967e-10,0,0.00021144,-8.4149e-05,-1.6106e+08,256.52,0,8.2478e+07,-14.314,11689,12558,1,12558,1,0.00044977,2.4116e-09,0,0.00063431,7.4293e-05,1.6399e+08,793.11,0,2.4009e+08,23.619,12557,502.62,0,502.62,0,0.00048812,1.0521e-09,0,0.00024507,9.145e-05,1.8528e+08,346.7,0,9.1497e+07,32.948,502.62,1
1736,2.96,12124,1,12124,1,2.7182e-05,-3.9793e-10,0,0.00042434,-4.9773e-06,-22.991,-128.18,0,1.6155e+08,-6.0547,12123,12992,1,12992,1,0.00084555,2.606e-10,0,0.00084555,0.00014839,2.929e+08,89.255,0,3.2181e+08,50.185,12991,12124,1,12124,1,2.7182e-05,-4.5956e-10,0,0.00042434,-4.9993e-06,1.0376e+07,-148.17,0,1.6408e+08,-3.2019,12123,11209,1,11209,1,-0.00079118,-9.3754e-10,0,3.1267e-06,-0.00015828,-3.2181e+08,-302.84,0,1.4117e+06,-79.346,11208,11690,1,11690,1,-0.00039715,-6.7278e-10,0,0.00021217,-8.4475e-05,-1.6154e+08,-213.73,0,8.2736e+07,-17.676,11689,12558,1,12558,1,0.00045152,-1.3335e-10,0,0.00063651,7.4514e-05,1.645e+08,-44.711,0,2.4079e+08,6.1346,12557,502.62,0,502.62,0,0.00048981,3.2041e-10,0,0.00024594,9.1766e-05,1.8583e+08,102.82,0,9.1764e+07,17.697,502.62,1
1736,2.97,12124,1,12124,1,2.7471e-05,-1.1358e-09,0,0.00042578,-5.0301e-06,-28.038,-371.06,0,1.6202e+08,24.864,12123,12992,1,12992,1,0.00084865,3.872e-09,0,0.00084865,0.00014886,2.9363e+08,1261.5,0,3.2283e+08,201.47,12991,12124,1,12124,1,2.7471e-05,-8.619e-10,0,0.00042579,-5.0523e-06,1.0483e+07,-265.39,0,1.6458e+08,16.998,12123,11209,1,11209,1,-0.0007937,-5.4431e-09,0,2.9421e-06,-0.00015886,-3.2283e+08,-1773.2,0,1.34e+06,-125.18,11208,11690,1,11690,1,-0.00039831,-2.8003e-09,0,0.00021289,-8.4799e-05,-1.6201e+08,-906.65,0,8.2991e+07,-28.914,11689,12558,1,12558,1,0.00045326,3.3528e-10,0,0.00063868,7.4732e-05,1.65e+08,110.58,0,2.4149e+08,84.431,12557,502.62,0,502.62,0,0.00049148,2.0704e-09,0,0.0002468,9.2079e-05,1.8637e+08,677.43,0,9.2026e+07,70.202,502.62,1
1736,2.98,12124,1,12124,1,2.7762e-05,9.098e-11,0,0.00042726,-5.0834e-06,30.76,27.819,0,1.625e+08,-4.302,12123,12992,1,12992,1,0.00085176,1.8649e-09,0,0.00085176,0.00014933,2.9437e+08,615.85,0,3.2386e+08,86.52,12991,12124,1,12124,1,2.7762e-05,3.2199e-11,0,0.00042726,-5.1059e-06,1.0591e+07,9.8773,0,1.6508e+08,-3.0525,12123,11209,1,11209,1,-0.00079623,-9.9892e-10,0,2.7555e-06,-0.00015944,-3.2386e+08,-338.98,0,1.2675e+06,-91.65,11208,11690,1,11690,1,-0.00039949,-2.7824e-10,0,0.00021363,-8.5127e-05,-1.6249e+08,-92.643,0,8.3249e+07,-21.026,11689,12558,1,12558,1,0.00045502,3.5912e-10,0,0.00064088,7.4954e-05,1.6551e+08,114.17,0,2.4219e+08,13.583,12557,502.62,0,502.62,0,0.00049318,5.9537e-10,0,0.00024768,9.2396e-05,1.8692e+08,196.59,0,9.2295e+07,32.811,502.62,1
1736,2.99,12124,1,12124,1,2.8056e-05,-1.8462e-09,0,0.0004287,-5.1373e-06,178.58,-602.69,0,1.6297e+08,6.6599,12123,12992,1,12992,1,0.00085486,2.849e-09,0,0.00085486,0.00014981,2.9509e+08,937.49,0,3.2488e+08,217.48,12991,12124,1,12124,1,2.8055e-05,-1.3704e-09,0,0.00042871,-5.16e-06,1.07e+07,-442,0,1.6558e+08,-5.2597,12123,11209,1,11209,1,-0.00079875,-7.2576e-09,0,2.5656e-06,-0.00016002,-3.2488e+08,-2362.5,0,1.1938e+06,-143.11,11208,11690,1,11690,1,-0.00040065,-3.6063e-09,0,0.00021435,-8.5452e-05,-1.6296e+08,-1177.3,0,8.3503e+07,-46.88,11689,12558,1,12558,1,0.00045676,1.235e-10,0,0.00064306,7.517e-05,1.6601e+08,39.427,0,2.4288e+08,61.467,12557,502.62,0,502.62,0,0.00049485,2.4111e-09,0,0.00024854,9.2709e-05,1.8746e+08,790.2,0,9.2556e+07,75.761,502.62,1
1736,3,12124,1,12124,1,2.835e-05,5.841e-10,0,0.00043018,-5.1912e-06,6.521,187.96,0,1.6345e+08,-3.2564,12123,12992,1,12992,1,0.00085798,2.2812e-09,0,0.00085798,0.00015028,2.9582e+08,742.68,0,3.2591e+08,74.219,12991,12124,1,12124,1,2.8351e-05,4.6917e-10,0,0.00043018,-5.2142e-06,1.081e+07,148.1,0,1.6608e+08,-3.3849,12123,11209,1,11209,1,-0.00080128,-6.9719e-10,0,2.3751e-06,-0.0001606,-3.2591e+08,-238.7,0,1.1199e+06,-80.299,11208,11690,1,11690,1,-0.00040183,3.0277e-11,0,0.00021509,-8.5781e-05,-1.6344e+08,10.369,0,8.3761e+07,-19.225,11689,12558,1,12558,1,0.00045853,1.0856e-09,0,0.00064526,7.5392e-05,1.6651e+08,347.16,0,2.4359e+08,12.004,12557,502.62,0,502.62,0,0.00049655,6.7421e-10,0,0.00024942,9.3027e-05,1.8801e+08,221.05,0,9.2824e+07,23.365,502.62,1
1736,3.01,12124,1,12124,1,2.865e-05,2.8806e-10,0,0.00043165,-5.246e-06,-53.436,93.91,0,1.6392e+08,-13.546,12123,12992,1,12992,1,0.00086112,8.6771e-10,0,0.00086112,0.00015076,2.9654e+08,289.7,0,3.2694e+08,68.869,12991,12124,1,12124,1,2.865e-05,2.7845e-10,0,0.00043165,-5.2694e-06,1.0921e+07,90.444,0,1.6659e+08,-9.2045,12123,11209,1,11209,1,-0.00080382,-2.4009e-10,0,2.1818e-06,-0.00016119,-3.2694e+08,-82.23,0,1.0449e+06,-120.78,11208,11690,1,11690,1,-0.000403,9.9923e-11,0,0.00021582,-8.6111e-05,-1.6391e+08,31.733,0,8.4018e+07,-33.073,11689,12558,1,12558,1,0.0004603,4.15e-10,0,0.00064747,7.5612e-05,1.6702e+08,133.16,0,2.4429e+08,6.7695,12557,502.62,0,502.62,0,0.00049825,2.5115e-10,0,0.00025029,9.3344e-05,1.8855e+08,82.846,0,9.309e+07,34.724,502.62,1
1736,3.02,12124,1,12124,1,2.8951e-05,8.2634e-10,0,0.0004331,-5.3011e-06,-58.369,269.79,0,1.6439e+08,10.379,12123,12992,1,12992,1,0.00086423,2.9969e-09,0,0.00086423,0.00015123,2.9726e+08,974.47,0,3.2797e+08,79.232,12991,12124,1,12124,1,2.8951e-05,6.4146e-10,0,0.00043311,-5.3247e-06,1.1032e+07,208.36,0,1.6708e+08,10.43,12123,11209,1,11209,1,-0.00080633,-2.0093e-10,0,1.9848e-06,-0.00016177,-3.2797e+08,-68.82,0,9.685e+05,-74.499,11208,11690,1,11690,1,-0.00040415,1.9221e-10,0,0.00021655,-8.6439e-05,-1.6438e+08,62.223,0,8.4273e+07,-7.142,11689,12558,1,12558,1,0.00046206,1.3153e-09,0,0.00064966,7.5829e-05,1.6752e+08,434.48,0,2.4498e+08,26.615,12557,502.62,0,502.62,0,0.00049993,7.4541e-10,0,0.00025116,9.3659e-05,1.8909e+08,244.86,0,9.3352e+07,23.94,502.62,1
1736,3.03,12124,1,12124,1,2.9253e-05,3.5992e-10,0,0.00043457,-5.3564e-06,-38.746,118.53,0,1.6487e+08,10.578,12123,12992,1,12992,1,0.00086735,3.0867e-09,0,0.00086735,0.0001517,2.9798e+08,1015.6,0,3.2899e+08,98.21,12991,12124,1,12124,1,2.9253e-05,2.2225e-10,0,0.00043457,-5.3803e-06,1.1144e+07,71.125,0,1.6758e+08,8.7056,12123,11209,1,11209,1,-0.00080885,-1.731e-09,0,1.7869e-06,-0.00016235,-3.2899e+08,-562.64,0,8.9178e+05,-88.825,11208,11690,1,11690,1,-0.00040531,-2.7745e-10,0,0.00021728,-8.6767e-05,-1.6485e+08,-86.525,0,8.4528e+07,-20.693,11689,12558,1,12558,1,0.00046382,1.0299e-09,0,0.00065185,7.6047e-05,1.6802e+08,332.74,0,2.4567e+08,39.939,12557,502.62,0,502.62,0,0.00050162,1.0381e-09,0,0.00025203,9.3974e-05,1.8963e+08,340.19,0,9.3615e+07,37.428,502.62,1
1736,3.04,12124,1,12124,1,2.9558e-05,-9.5144e-10,0,0.00043603,-5.4122e-06,-10.36,-309.32,0,1.6534e+08,1.8002,12123,12992,1,12992,1,0.00087049,1.4946e-09,0,0.00087049,0.00015217,2.9869e+08,496.26,0,3.3002e+08,85.894,12991,12124,1,12124,1,2.9558e-05,-6.8707e-10,0,0.00043603,-5.4364e-06,1.1257e+07,-223.35,0,1.6808e+08,-1.7758,12123,11209,1,11209,1,-0.00081137,-3.8571e-09,0,1.5869e-06,-0.00016294,-3.3002e+08,-1253.1,0,8.1426e+05,-96.447,11208,11690,1,11690,1,-0.00040648,-1.8906e-09,0,0.00021802,-8.7097e-05,-1.6533e+08,-610.28,0,8.4783e+07,-29.337,11689,12558,1,12558,1,0.00046559,7.9476e-11,0,0.00065405,7.6265e-05,1.6852e+08,25.689,0,2.4636e+08,37.731,12557,502.62,0,502.62,0,0.00050331,1.277e-09,0,0.00025291,9.4291e-05,1.9017e+08,418.06,0,9.3879e+07,43.087,502.62,1
1736,3.05,12124,1,12124,1,2.9865e-05,3.9886e-10,0,0.0004375,-5.4685e-06,-94.059,128.71,0,1.6581e+08,-0.037823,12123,12992,1,12992,1,0.00087363,1.4999e-09,0,0.00087363,0.00015265,2.9941e+08,488.42,0,3.3104e+08,53.876,12991,12124,1,12124,1,2.9866e-05,2.8333e-10,0,0.0004375,-5.4931e-06,1.1371e+07,88.943,0,1.6858e+08,2.6404,12123,11209,1,11209,1,-0.0008139,-3.9819e-10,0,1.3841e-06,-0.00016352,-3.3104e+08,-136.33,0,7.3566e+05,-63.519,11208,11690,1,11690,1,-0.00040764,2.2739e-11,0,0.00021875,-8.7429e-05,-1.658e+08,7.6185,0,8.5039e+07,-14.166,11689,12558,1,12558,1,0.00046737,7.5546e-10,0,0.00065626,7.6484e-05,1.6903e+08,246.53,0,2.4706e+08,13.968,12557,502.62,0,502.62,0,0.00050501,4.7673e-10,0,0.00025378,9.4608e-05,1.9072e+08,156.38,0,9.4143e+07,20.376,502.62,1
1736,3.06,12124,1,12124,1,3.0175e-05,3.2137e-09,0,0.00043895,-5.525e-06,-43.053,1046.3,0,1.6628e+08,45.66,12123,12992,1,12992,1,0.00087676,1.0004e-08,0,0.00087676,0.00015312,3.0011e+08,3247.6,0,3.3206e+08,333.2,12991,12124,1,12124,1,3.0174e-05,2.9861e-09,0,0.00043895,-5.5496e-06,1.1485e+07,969.1,0,1.6907e+08,30.187,12123,11209,1,11209,1,-0.00081641,-1.4071e-09,0,1.1789e-06,-0.00016411,-3.3206e+08,-481.94,0,6.5612e+05,-215.15,11208,11690,1,11690,1,-0.00040878,1.1424e-09,0,0.00021948,-8.7756e-05,-1.6626e+08,358.83,0,8.529e+07,-14.355,11689,12558,1,12558,1,0.00046913,5.0899e-09,0,0.00065843,7.6698e-05,1.6952e+08,1661,0,2.4774e+08,90.587,12557,502.62,0,502.62,0,0.00050668,2.5964e-09,0,0.00025465,9.4921e-05,1.9125e+08,850.01,0,9.4401e+07,84.678,502.62,1
1736,3.07,12124,1,12124,1,3.0484e-05,1.0089e-09,0,0.00044043,-5.5818e-06,42.294,332.67,0,1.6675e+08,-4.6875,12123,12992,1,12992,1,0.0008799,3.4567e-09,0,0.0008799,0.00015359,3.0082e+08,1183.4,0,3.3309e+08,70.867,12991,12124,1,12124,1,3.0485e-05,7.5943e-10,0,0.00044043,-5.6071e-06,1.16e+07,245.58,0,1.6957e+08,-5.3961,12123,11209,1,11209,1,-0.00081892,-3.2783e-10,0,9.7264e-07,-0.00016469,-3.3309e+08,-95.036,0,5.7627e+05,-98.081,11208,11690,1,11690,1,-0.00040994,2.9197e-10,0,0.00022021,-8.8089e-05,-1.6674e+08,91.49,0,8.5547e+07,-23.023,11689,12558,1,12558,1,0.00047092,1.6195e-09,0,0.00066064,7.6917e-05,1.7002e+08,528.91,0,2.4844e+08,15.499,12557,502.62,0,502.62,0,0.00050838,8.9258e-10,0,0.00025553,9.524e-05,1.9179e+08,298.58,0,9.4667e+07,28.177,502.62,1
1736,3.08,12124,1,12124,1,3.0801e-05,-8.9264e-10,0,0.0004419,-5.6399e-06,179.1,-288.2,0,1.6722e+08,-17.155,12123,12992,1,12992,1,0.00088304,3.7564e-10,0,0.00088304,0.00015406,3.0153e+08,128.66,0,3.3411e+08,59.426,12991,12124,1,12124,1,3.0802e-05,-8.9623e-10,0,0.0004419,-5.6654e-06,1.1717e+07,-286.83,0,1.7007e+08,-13.735,12123,11209,1,11209,1,-0.00082144,-2.4169e-09,0,7.6195e-07,-0.00016528,-3.3411e+08,-783.98,0,4.9471e+05,-101.17,11208,11690,1,11690,1,-0.0004111,-1.3873e-09,0,0.00022095,-8.8422e-05,-1.6721e+08,-448.52,0,8.5802e+07,-33.473,11689,12558,1,12558,1,0.0004727,-3.3408e-10,0,0.00066285,7.7134e-05,1.7052e+08,-107.72,0,2.4913e+08,1.6849,12557,502.62,0,502.62,0,0.00051008,6.9553e-10,0,0.00025641,9.5557e-05,1.9233e+08,225.99,0,9.4929e+07,28.045,502.62,1
1736,3.09,12124,1,12124,1,3.1117e-05,5.9592e-10,0,0.00044336,-5.6978e-06,-28.237,192.73,0,1.6769e+08,-6.4012,12123,12992,1,12992,1,0.00088618,1.2881e-09,0,0.00088618,0.00015453,3.0223e+08,414.99,0,3.3513e+08,52.008,12991,12124,1,12124,1,3.1118e-05,6.3099e-10,0,0.00044336,-5.7235e-06,1.1834e+07,200.45,0,1.7056e+08,-6.3808,12123,11209,1,11209,1,-0.00082395,-1.6291e-10,0,5.5073e-07,-0.00016586,-3.3513e+08,-55.798,0,4.1295e+05,-69.092,11208,11690,1,11690,1,-0.00041225,3.0788e-10,0,0.00022168,-8.8753e-05,-1.6767e+08,97.135,0,8.6055e+07,-17.979,11689,12558,1,12558,1,0.00047448,8.9442e-10,0,0.00066505,7.735e-05,1.7102e+08,287.67,0,2.4981e+08,5.6133,12557,502.62,0,502.62,0,0.00051177,3.7454e-10,0,0.00025729,9.5873e-05,1.9286e+08,121.97,0,9.519e+07,18.934,502.62,1
1736,3.1,12124,1,12124,1,3.1436e-05,1.5487e-09,0,0.00044483,-5.756e-06,-39.047,503.87,0,1.6815e+08,14.567,12123,12992,1,12992,1,0.00088933,4.0081e-09,0,0.00088933,0.00015501,3.0293e+08,1299.1,0,3.3615e+08,118.01,12991,12124,1,12124,1,3.1436e-05,1.4676e-09,0,0.00044483,-5.782e-06,1.1951e+07,471.22,0,1.7105e+08,11.94,12123,11209,1,11209,1,-0.00082646,-3.6266e-10,0,3.3718e-07,-0.00016645,-3.3615e+08,-124.21,0,3.3031e+05,-44.276,11208,11690,1,11690,1,-0.00041339,6.3685e-10,0,0.00022241,-8.9085e-05,-1.6814e+08,200.57,0,8.6307e+07,-8.7408,11689,12558,1,12558,1,0.00047626,2.4453e-09,0,0.00066724,7.7565e-05,1.7152e+08,793.44,0,2.505e+08,32.523,12557,502.62,0,502.62,0,0.00051346,1.1317e-09,0,0.00025816,9.6189e-05,1.934e+08,371.12,0,9.5449e+07,29.546,502.62,1
1736,3.11,12124,1,12124,1,3.1755e-05,-7.9156e-10,0,0.00044628,-5.8144e-06,-228.03,-254.83,0,1.6861e+08,34.187,12123,12992,1,12992,1,0.00089246,4.8376e-09,0,0.00089246,0.00015547,3.0362e+08,1583.6,0,3.3716e+08,187.66,12991,12124,1,12124,1,3.1755e-05,-2.9786e-10,0,0.00044628,-5.8406e-06,1.2069e+07,-91.453,0,1.7154e+08,21.903,12123,11209,1,11209,1,-0.00082894,-5.968e-09,0,1.2165e-07,-0.00016703,-3.3716e+08,-1933.5,0,2.469e+05,-129.89,11208,11690,1,11690,1,-0.00041453,-2.4917e-09,0,0.00022314,-8.9416e-05,-1.686e+08,-792.1,0,8.6558e+07,-28.673,11689,12558,1,12558,1,0.00047804,7.4319e-10,0,0.00066942,7.7779e-05,1.7201e+08,237.75,0,2.5117e+08,102.89,12557,502.62,0,502.62,0,0.00051514,2.3909e-09,0,0.00025903,9.6502e-05,1.9393e+08,778.65,0,9.5707e+07,77.09,502.62,1
1736,3.12,12124,1,12124,1,3.2077e-05,1.3529e-09,0,0.00044775,-5.8733e-06,-73.394,438.13,0,1.6908e+08,10.424,12123,12992,1,12992,1,0.00089561,7.5731e-09,0,0.00089561,0.00015594,3.0431e+08,2469.9,0,3.3818e+08,252.09,12991,12124,1,12124,1,3.2077e-05,6.6591e-10,0,0.00044775,-5.9001e-06,1.2187e+07,210.05,0,1.7204e+08,-0.17034,12123,11209,1,11209,1,-0.00083145,-2.2938e-09,0,9.399e-08,-0.00016762,-3.3818e+08,-754.13,0,1.6285e+05,-221.25,11208,11690,1,11690,1,-0.00041567,-2.5835e-10,0,0.00022388,-8.9749e-05,-1.6907e+08,-81.945,0,8.6811e+07,-41.644,11689,12558,1,12558,1,0.00047983,2.761e-09,0,0.00067163,7.7994e-05,1.7251e+08,886.96,0,2.5186e+08,65.504,12557,502.62,0,502.62,0,0.00051683,2.2599e-09,0,0.0002599,9.6819e-05,1.9446e+08,739.36,0,9.5967e+07,90.434,502.62,1
1736,3.13,12124,1,12124,1,3.2403e-05,8.9278e-10,0,0.00044925,-5.9332e-06,-71.039,291.69,0,1.6955e+08,-3.3132,12123,12992,1,12992,1,0.00089878,3.4133e-09,0,0.00089878,0.00015642,3.0501e+08,1134.1,0,3.3921e+08,87.491,12991,12124,1,12124,1,3.2404e-05,6.6577e-10,0,0.00044923,-5.9602e-06,1.2308e+07,211.93,0,1.7253e+08,-5.4474,12123,11209,1,11209,1,-0.00083397,-5.2776e-10,0,3.1519e-07,-0.00016821,-3.3921e+08,-175.58,0,77429,-60.984,11208,11690,1,11690,1,-0.00041683,1.1554e-10,0,0.00022462,-9.0085e-05,-1.6954e+08,34.421,0,8.7065e+07,-25.739,11689,12558,1,12558,1,0.00048163,1.5435e-09,0,0.00067384,7.8211e-05,1.7301e+08,505.35,0,2.5255e+08,16.125,12557,502.62,0,502.62,0,0.00051854,9.1585e-10,0,0.00026076,9.7138e-05,1.95e+08,303.54,0,9.6229e+07,28.244,502.62,1
1736,3.14,12124,1,12124,1,3.2732e-05,1.4704e-10,0,0.00045072,-5.9934e-06,-12.581,49.57,0,1.7001e+08,10.286,12123,12992,1,12992,1,0.00090192,6.6608e-09,0,0.00090192,0.00015688,3.0569e+08,2167.7,0,3.4022e+08,205.16,12991,12124,1,12124,1,3.2732e-05,2.0644e-10,0,0.00045069,-6.0206e-06,1.2429e+07,64.83,0,1.7302e+08,-1.8298,12123,11209,1,11209,1,-0.00083646,-4.4392e-09,0,5.3979e-07,-0.0001688,-3.4022e+08,-1436.4,0,8853.3,-164.04,11208,11690,1,11690,1,-0.00041796,-1.378e-09,0,0.00022534,-9.0418e-05,-1.7e+08,-444.73,0,8.7316e+07,-51.017,11689,12558,1,12558,1,0.00048342,1.374e-09,0,0.00067603,7.8423e-05,1.735e+08,448.31,0,2.5322e+08,72.621,12557,502.62,0,502.62,0,0.00052023,2.3431e-09,0,0.0002616,9.7453e-05,1.9552e+08,764.42,0,9.6485e+07,75.629,502.62,1
1736,3.15,12124,1,12124,1,3.3061e-05,-2.47e-10,0,0.00045221,-6.0536e-06,-15.781,-80.566,0,1.7048e+08,-1.795,12123,12992,1,12992,1,0.0009051,3.262e-09,0,0.0009051,0.00015735,3.0638e+08,1101.9,0,3.4124e+08,142.72,12991,12124,1,12124,1,3.3061e-05,-1.9203e-10,0,0.00045216,-6.0813e-06,1.255e+07,-58.815,0,1.7352e+08,-3.4312,12123,11209,1,11209,1,-0.00083897,-2.57e-09,0,7.6303e-07,-0.00016939,-3.4124e+08,-836.16,0,95100,-117.18,11208,11690,1,11690,1,-0.0004191,-1.1477e-09,0,0.00022608,-9.0754e-05,-1.7046e+08,-372.27,0,8.7569e+07,-33.433,11689,12558,1,12558,1,0.00048522,4.2815e-10,0,0.00067824,7.8638e-05,1.74e+08,132.21,0,2.539e+08,30.189,12557,502.62,0,502.62,0,0.00052193,1.2222e-09,0,0.00026246,9.7771e-05,1.9606e+08,401.84,0,9.6734e+07,49.796,502.62,1
1736,3.16,12124,1,12124,1,3.3395e-05,-2.4619e-10,0,0.0004537,-6.1147e-06,-50.889,-80.937,0,1.7095e+08,11.577,12123,12992,1,12992,1,0.00090827,3.5921e-09,0,0.00090827,0.00015782,3.0706e+08,1180.7,0,3.4226e+08,143.56,12991,12124,1,12124,1,3.3395e-05,2.1495e-12,0,0.00045363,-6.1428e-06,1.2673e+07,0.59756,0,1.7401e+08,5.2225,12123,11209,1,11209,1,-0.00084147,-3.6713e-09,0,9.9257e-07,-0.00016998,-3.4226e+08,-1186.9,0,1.8371e+05,-99.301,11208,11690,1,11690,1,-0.00042024,-1.295e-09,0,0.00022682,-9.1089e-05,-1.7092e+08,-418.71,0,8.782e+07,-34.804,11689,12558,1,12558,1,0.00048703,6.8843e-10,0,0.00068045,7.8851e-05,1.7449e+08,217.92,0,2.5458e+08,53.592,12557,502.62,0,502.62,0,0.00052362,1.5766e-09,0,0.00026331,9.8088e-05,1.9659e+08,515.24,0,9.6981e+07,55.561,502.62,1
1736,3.17,12124,1,12124,1,3.3729e-05,-7.5783e-10,0,0.00045517,-6.176e-06,-52.438,-246.59,0,1.7141e+08,4.7945,12123,12992,1,12992,1,0.00091142,5.2658e-09,0,0.00091142,0.00015829,3.0773e+08,1730.8,0,3.4327e+08,198.49,12991,12124,1,12124,1,3.3729e-05,-1.2689e-10,0,0.00045509,-6.2044e-06,1.2796e+07,-41.349,0,1.7449e+08,-6.4652,12123,11209,1,11209,1,-0.00084395,-6.9409e-09,0,1.2227e-06,-0.00017057,-3.4327e+08,-2243,0,2.7259e+05,-155.01,11208,11690,1,11690,1,-0.00042136,-2.6134e-09,0,0.00022754,-9.1423e-05,-1.7138e+08,-851.13,0,8.8069e+07,-63.891,11689,12558,1,12558,1,0.00048882,9.6893e-10,0,0.00068263,7.9062e-05,1.7498e+08,317.46,0,2.5525e+08,76.305,12557,502.62,0,502.62,0,0.0005253,2.7745e-09,0,0.00026416,9.8402e-05,1.9711e+08,904.76,0,9.7225e+07,85.318,502.62,1
1736,3.18,12124,1,12124,1,3.4067e-05,-1.6338e-09,0,0.00045668,-6.2378e-06,150.12,-531.62,0,1.7189e+08,-34.78,12123,12992,1,12992,1,0.00091463,8.4804e-10,0,0.00091463,0.00015876,3.0842e+08,286.52,0,3.443e+08,104.64,12991,12124,1,12124,1,3.4067e-05,-1.4657e-09,0,0.00045658,-6.2666e-06,1.292e+07,-472.65,0,1.7499e+08,-25.946,12123,11209,1,11209,1,-0.00084649,-5.1486e-09,0,1.4536e-06,-0.00017117,-3.443e+08,-1687.1,0,3.6169e+05,-201.16,11208,11690,1,11690,1,-0.00042251,-2.8572e-09,0,0.00022829,-9.1763e-05,-1.7185e+08,-936.41,0,8.8324e+07,-76.493,11689,12558,1,12558,1,0.00049064,-3.1236e-10,0,0.00068487,7.9279e-05,1.7548e+08,-93.638,0,2.5594e+08,7.2886,12557,502.62,0,502.62,0,0.00052702,1.5497e-09,0,0.00026503,9.8724e-05,1.9765e+08,509.82,0,9.7476e+07,60.141,502.62,1
1736,3.19,12124,1,12124,1,3.4409e-05,7.4176e-10,0,0.00045816,-6.3004e-06,-83.337,236.84,0,1.7235e+08,7.7885,12123,12992,1,12992,1,0.00091778,4.7624e-09,0,0.00091778,0.00015923,3.0909e+08,1537.9,0,3.4531e+08,98.63,12991,12124,1,12124,1,3.4409e-05,3.2048e-10,0,0.00045804,-6.3294e-06,1.3046e+07,99.073,0,1.7548e+08,8.1282,12123,11209,1,11209,1,-0.00084897,-1.2784e-09,0,1.6909e-06,-0.00017176,-3.4531e+08,-426.07,0,4.5328e+05,-112.26,11208,11690,1,11690,1,-0.00042363,-1.5807e-10,0,0.00022902,-9.21e-05,-1.7231e+08,-51.274,0,8.8573e+07,-18.909,11689,12558,1,12558,1,0.00049245,1.4847e-09,0,0.00068706,7.9491e-05,1.7597e+08,482.11,0,2.5661e+08,37.332,12557,502.62,0,502.62,0,0.00052872,1.3167e-09,0,0.00026588,9.9041e-05,1.9817e+08,428.8,0,9.772e+07,37.896,502.62,1
1736,3.2,12124,1,12124,1,3.4753e-05,-2.0442e-09,0,0.00045966,-6.3633e-06,257.12,-661.79,0,1.7282e+08,-27.044,12123,12992,1,12992,1,0.00092099,9.57e-10,0,0.00092099,0.0001597,3.0977e+08,318.68,0,3.4633e+08,91.158,12991,12124,1,12124,1,3.4753e-05,-2.1028e-09,0,0.00045952,-6.3927e-06,1.3171e+07,-672.41,0,1.7596e+08,-22.045,12123,11209,1,11209,1,-0.00085148,-5.1358e-09,0,1.9296e-06,-0.00017235,-3.4633e+08,-1657.6,0,5.454e+05,-185.9,11208,11690,1,11690,1,-0.00042477,-3.3423e-09,0,0.00022976,-9.2438e-05,-1.7277e+08,-1083,0,8.8824e+07,-52.275,11689,12558,1,12558,1,0.00049427,-7.5955e-10,0,0.00068928,7.9703e-05,1.7646e+08,-243.91,0,2.5728e+08,4.3649,12557,502.62,0,502.62,0,0.00053042,1.5631e-09,0,0.00026674,9.9359e-05,1.987e+08,509.58,0,9.7966e+07,47.369,502.62,1
1736,3.21,12124,1,12124,1,3.5097e-05,1.5081e-09,0,0.00046114,-6.4263e-06,204.42,484.69,0,1.7328e+08,23.681,12123,12992,1,12992,1,0.00092415,7.6302e-09,0,0.00092415,0.00016017,3.1043e+08,2461.9,0,3.4734e+08,233.73,12991,12124,1,12124,1,3.5098e-05,7.0187e-10,0,0.00046099,-6.4559e-06,1.3298e+07,228.35,0,1.7645e+08,13.907,12123,11209,1,11209,1,-0.00085396,-1.183e-09,0,2.169e-06,-0.00017294,-3.4734e+08,-405.17,0,6.3775e+05,-195.38,11208,11690,1,11690,1,-0.00042589,-1.0804e-10,0,0.00023049,-9.2775e-05,-1.7322e+08,-33.208,0,8.9073e+07,-30.541,11689,12558,1,12558,1,0.00049608,2.808e-09,0,0.00069147,7.9914e-05,1.7695e+08,900.74,0,2.5795e+08,71.155,12557,502.62,0,502.62,0,0.00053211,2.0838e-09,0,0.00026759,9.9675e-05,1.9922e+08,675.96,0,9.8208e+07,74.274,502.62,1
1736,3.22,12124,1,12124,1,3.5443e-05,-2.0197e-09,0,0.00046262,-6.4895e-06,-106.87,-650.74,0,1.7375e+08,13.741,12123,12992,1,12992,1,0.00092733,1.3125e-09,0,0.00092733,0.00016063,3.1109e+08,449.41,0,3.4835e+08,192.41,12991,12124,1,12124,1,3.5443e-05,-1.6282e-09,0,0.00046245,-6.5195e-06,1.3425e+07,-529.96,0,1.7693e+08,9.0378,12123,11209,1,11209,1,-0.00085644,-6.8845e-09,0,2.4098e-06,-0.00017354,-3.4835e+08,-2220.1,0,7.3057e+05,-127.06,11208,11690,1,11690,1,-0.00042701,-3.6536e-09,0,0.00023122,-9.3113e-05,-1.7368e+08,-1167.8,0,8.9322e+07,-34.106,11689,12558,1,12558,1,0.00049789,-1.8705e-10,0,0.00069367,8.0124e-05,1.7744e+08,-55.885,0,2.5862e+08,59.795,12557,502.62,0,502.62,0,0.0005338,2.1233e-09,0,0.00026844,9.9991e-05,1.9974e+08,690.31,0,9.8452e+07,68.761,502.62,1
1736,3.23,12124,1,12124,1,3.579e-05,-2.6393e-09,0,0.00046409,-6.5532e-06,-10.115,-855.94,0,1.742e+08,15.466,12123,12992,1,12992,1,0.0009305,4.1258e-09,0,0.0009305,0.0001611,3.1175e+08,1353,0,3.4935e+08,235.43,12991,12124,1,12124,1,3.579e-05,-1.8659e-09,0,0.00046391,-6.5836e-06,1.3552e+07,-601.9,0,1.7742e+08,5.3889,12123,11209,1,11209,1,-0.00085891,-1.0625e-08,0,2.6536e-06,-0.00017413,-3.4935e+08,-3430.5,0,8.2452e+05,-193.79,11208,11690,1,11690,1,-0.00042812,-5.2815e-09,0,0.00023195,-9.3449e-05,-1.7413e+08,-1702.7,0,8.9568e+07,-56.792,11689,12558,1,12558,1,0.0004997,1.8158e-10,0,0.00069586,8.0333e-05,1.7792e+08,55.896,0,2.5928e+08,85.279,12557,502.62,0,502.62,0,0.00053548,3.5432e-09,0,0.00026929,0.0001003,2.0026e+08,1154.7,0,9.8692e+07,95.27,502.62,1
1736,3.24,12124,1,12124,1,3.6142e-05,1.0081e-09,0,0.00046561,-6.6178e-06,10.269,319.87,0,1.7468e+08,-29.456,12123,12992,1,12992,1,0.00093371,2.1678e-09,0,0.00093371,0.00016157,3.1242e+08,689.98,0,3.5038e+08,75.197,12991,12124,1,12124,1,3.6143e-05,1.1172e-09,0,0.00046541,-6.6496e-06,1.3681e+07,363.78,0,1.7791e+08,-21.767,12123,11209,1,11209,1,-0.00086143,-4.1402e-10,0,2.8978e-06,-0.00017473,-3.5038e+08,-141.8,0,9.1859e+05,-784.73,11208,11690,1,11690,1,-0.00042926,3.6591e-10,0,0.0002327,-9.3793e-05,-1.7459e+08,116.58,0,8.9823e+07,-50.398,11689,12558,1,12558,1,0.00050155,1.7165e-09,0,0.00069811,8.0549e-05,1.7842e+08,541.26,0,2.5996e+08,-3.5646,12557,502.62,0,502.62,0,0.00053721,7.5057e-10,0,0.00027016,0.00010063,2.008e+08,237.21,0,9.8942e+07,50.675,502.62,1
1736,3.25,12124,1,12124,1,3.6502e-05,-1.3175e-09,0,0.0004671,-6.6836e-06,255.28,-425.4,0,1.7514e+08,-32.189,12123,12992,1,12992,1,0.00093692,6.9843e-10,0,0.00093692,0.00016203,3.1307e+08,239.21,0,3.5139e+08,124.73,12991,12124,1,12124,1,3.6502e-05,-1.177e-09,0,0.00046688,-6.7154e-06,1.3813e+07,-367.61,0,1.7839e+08,-24.375,12123,11209,1,11209,1,-0.00086392,-4.1534e-09,0,3.1534e-06,-0.00017532,-3.5139e+08,-1337.6,0,1.017e+06,-747.43,11208,11690,1,11690,1,-0.00043037,-2.2916e-09,0,0.00023344,-9.4134e-05,-1.7505e+08,-741.07,0,9.007e+07,-51.699,11689,12558,1,12558,1,0.00050338,-3.4067e-10,0,0.00070031,8.0757e-05,1.7891e+08,-106.25,0,2.6063e+08,6.3563,12557,502.62,0,502.62,0,0.00053891,1.2065e-09,0,0.00027102,0.00010095,2.0132e+08,392.1,0,9.9182e+07,80.137,502.62,1
1736,3.26,12124,1,12124,1,3.6858e-05,1.777e-09,0,0.00046859,-6.7486e-06,-173.27,571.52,0,1.756e+08,38.493,12123,12992,1,12992,1,0.00094011,6.5024e-09,0,0.00094011,0.0001625,3.1372e+08,2093.4,0,3.524e+08,223.81,12991,12124,1,12124,1,3.6858e-05,1.199e-09,0,0.00046835,-6.7805e-06,1.3943e+07,379.03,0,1.7888e+08,34.338,12123,11209,1,11209,1,-0.00086639,-1.4911e-09,0,3.4041e-06,-0.00017592,-3.524e+08,-480.03,0,1.1136e+06,-446.54,11208,11690,1,11690,1,-0.00043149,6.6129e-11,0,0.00023417,-9.4473e-05,-1.755e+08,21.578,0,9.0318e+07,-25.21,11689,12558,1,12558,1,0.0005052,3.4974e-09,0,0.00070252,8.0967e-05,1.7939e+08,1103.2,0,2.6129e+08,104.57,12557,502.62,0,502.62,0,0.00054061,2.0906e-09,0,0.00027187,0.00010126,2.0183e+08,677.44,0,9.9423e+07,90.809,502.62,1
1736,3.27,12124,1,12124,1,3.7218e-05,-7.2306e-10,0,0.00047008,-6.8146e-06,20.559,-231.03,0,1.7606e+08,-17.251,12123,12992,1,12992,1,0.00094331,8.4772e-10,0,0.00094331,0.00016297,3.1438e+08,290.25,0,3.5341e+08,375.52,12991,12124,1,12124,1,3.7218e-05,-6.1727e-10,0,0.00046982,-6.8467e-06,1.4075e+07,-193.69,0,1.7936e+08,-8.9328,12123,11209,1,11209,1,-0.00086888,-2.6868e-09,0,3.6586e-06,-0.00017652,-3.5341e+08,-864.55,0,1.2115e+06,-256.89,11208,11690,1,11690,1,-0.0004326,-1.4147e-09,0,0.00023491,-9.4815e-05,-1.7595e+08,-453.27,0,9.0567e+07,-41.009,11689,12558,1,12558,1,0.00050704,1.5001e-11,0,0.00070473,8.1177e-05,1.7988e+08,4.7792,0,2.6195e+08,15.091,12557,502.62,0,502.62,0,0.00054231,8.5809e-10,0,0.00027274,0.00010158,2.0236e+08,278.4,0,9.9666e+07,52.509,502.62,1
1736,3.28,12124,1,12124,1,3.758e-05,-3.4589e-09,0,0.00047157,-6.8809e-06,-7.4075,-1117.5,0,1.7652e+08,0.19642,12123,12992,1,12992,1,0.00094653,1.6814e-09,0,0.00094653,0.00016343,3.1503e+08,575.39,0,3.5442e+08,263.77,12991,12124,1,12124,1,3.7579e-05,-3.2701e-09,0,0.00047129,-6.913e-06,1.4206e+07,-1019.6,0,1.7984e+08,-0.30287,12123,11209,1,11209,1,-0.00087137,-1.0083e-08,0,3.9161e-06,-0.00017712,-3.5442e+08,-3243.2,0,1.3107e+06,-260.31,11208,11690,1,11690,1,-0.00043371,-6.122e-09,0,0.00023564,-9.5156e-05,-1.764e+08,-1968.6,0,9.0813e+07,-75.482,11689,12558,1,12558,1,0.00050887,-6.9005e-10,0,0.00070693,8.1385e-05,1.8036e+08,-211.99,0,2.6261e+08,66.898,12557,502.62,0,502.62,0,0.000544,3.1222e-09,0,0.00027359,0.0001019,2.0287e+08,1014.8,0,9.9904e+07,99.785,502.62,1
1736,3.29,12124,1,12124,1,3.7944e-05,3.1988e-09,0,0.00047306,-6.9475e-06,30.054,1023.7,0,1.7698e+08,-6.6167,12123,12992,1,12992,1,0.00094973,8.2832e-09,0,0.00094973,0.0001639,3.1567e+08,2727.8,0,3.5543e+08,253.83,12991,12124,1,12124,1,3.7945e-05,3.2498e-09,0,0.00047277,-6.9798e-06,1.434e+07,1021.1,0,1.8033e+08,-13.544,12123,11209,1,11209,1,-0.00087384,-1.0062e-09,0,4.1728e-06,-0.00017771,-3.5543e+08,-344.63,0,1.4094e+06,-299.5,11208,11690,1,11690,1,-0.00043482,1.4048e-09,0,0.00023638,-9.5499e-05,-1.7686e+08,427.3,0,9.1062e+07,-50.419,11689,12558,1,12558,1,0.00051071,4.8001e-09,0,0.00070915,8.1594e-05,1.8085e+08,1528,0,2.6328e+08,38.376,12557,502.62,0,502.62,0,0.00054571,2.3355e-09,0,0.00027445,0.00010222,2.0339e+08,751.15,0,1.0015e+08,93.365,502.62,1
1736,3.3,12124,1,12124,1,3.8312e-05,-1.6398e-09,0,0.00047455,-7.0147e-06,9.5722,-524.24,0,1.7743e+08,0.031617,12123,12992,1,12992,1,0.00095293,2.5584e-09,0,0.00095293,0.00016436,3.1631e+08,842.14,0,3.5643e+08,143.59,12991,12124,1,12124,1,3.8312e-05,-1.2014e-09,0,0.00047424,-7.0471e-06,1.4474e+07,-383.87,0,1.8081e+08,2.955,12123,11209,1,11209,1,-0.00087631,-6.7227e-09,0,4.4367e-06,-0.00017831,-3.5643e+08,-2213.2,0,1.5108e+06,-502.03,11208,11690,1,11690,1,-0.00043593,-3.2297e-09,0,0.00023712,-9.5841e-05,-1.773e+08,-1031.5,0,9.1307e+07,-45.605,11689,12558,1,12558,1,0.00051255,6.5109e-11,0,0.00071136,8.1802e-05,1.8134e+08,19.878,0,2.6393e+08,58.288,12557,502.62,0,502.62,0,0.00054741,2.0969e-09,0,0.00027531,0.00010253,2.0391e+08,678.64,0,1.0038e+08,81.998,502.62,1
1736,3.31,12124,1,12124,1,3.8682e-05,8.6077e-10,0,0.00047606,-7.0825e-06,-50.739,274.6,0,1.7789e+08,-30.137,12123,12992,1,12992,1,0.00095615,2.2989e-09,0,0.00095615,0.00016483,3.1695e+08,738.95,0,3.5744e+08,103.81,12991,12124,1,12124,1,3.8682e-05,8.8612e-10,0,0.00047572,-7.1151e-06,1.4609e+07,290.96,0,1.8129e+08,-26.115,12123,11209,1,11209,1,-0.00087879,-5.9586e-10,0,4.7004e-06,-0.00017891,-3.5744e+08,-204.08,0,1.6122e+06,-702.53,11208,11690,1,11690,1,-0.00043704,3.3953e-10,0,0.00023786,-9.6186e-05,-1.7776e+08,111.36,0,9.1556e+07,-59.523,11689,12558,1,12558,1,0.0005144,1.3857e-09,0,0.00071358,8.2011e-05,1.8182e+08,439.74,0,2.646e+08,11.134,12557,502.62,0,502.62,0,0.00054912,6.6357e-10,0,0.00027618,0.00010285,2.0443e+08,210.21,0,1.0063e+08,81.763,502.62,1
1736,3.32,12124,1,12124,1,3.9056e-05,1.9165e-09,0,0.00047755,-7.1509e-06,120.73,618.09,0,1.7835e+08,16.125,12123,12992,1,12992,1,0.00095938,6.3091e-09,0,0.00095938,0.00016529,3.1758e+08,2077.5,0,3.5845e+08,201.2,12991,12124,1,12124,1,3.9056e-05,1.628e-09,0,0.0004772,-7.1835e-06,1.4745e+07,521.61,0,1.8177e+08,12.598,12123,11209,1,11209,1,-0.00088127,-5.9098e-10,0,4.9705e-06,-0.00017951,-3.5845e+08,-202.41,0,1.7159e+06,-930.57,11208,11690,1,11690,1,-0.00043814,8.077e-10,0,0.0002386,-9.653e-05,-1.7821e+08,248.8,0,9.1802e+07,-19.92,11689,12558,1,12558,1,0.00051625,2.948e-09,0,0.0007158,8.2218e-05,1.8231e+08,948.25,0,2.6525e+08,52.14,12557,502.62,0,502.62,0,0.00055083,1.4758e-09,0,0.00027704,0.00010317,2.0494e+08,480.59,0,1.0086e+08,91.092,502.62,1
1736,3.33,12124,1,12124,1,3.9432e-05,3.2503e-10,0,0.00047905,-7.2197e-06,226.57,108.75,0,1.7881e+08,-9.8312,12123,12992,1,12992,1,0.0009626,1.1089e-09,0,0.0009626,0.00016575,3.1821e+08,379.6,0,3.5945e+08,61.004,12991,12124,1,12124,1,3.9432e-05,2.5029e-10,0,0.00047867,-7.2511e-06,1.4883e+07,81.224,0,1.8225e+08,-8.7546,12123,11209,1,11209,1,-0.00088373,-4.0692e-10,0,5.2402e-06,-0.00018011,-3.5945e+08,-127.91,0,1.8195e+06,-79.753,11208,11690,1,11690,1,-0.00043924,1.3749e-11,0,0.00023934,-9.6875e-05,-1.7865e+08,4.042,0,9.2048e+07,-28.972,11689,12558,1,12558,1,0.00051811,6.2686e-10,0,0.00071801,8.2425e-05,1.8279e+08,208.1,0,2.6591e+08,8.7429,12557,502.62,0,502.62,0,0.00055253,3.7444e-10,0,0.0002779,0.00010349,2.0545e+08,124.57,0,1.011e+08,25.886,502.62,1
1736,3.34,12124,1,12124,1,3.981e-05,-1.2944e-09,0,0.00048054,-7.2888e-06,5.5575,-415.24,0,1.7926e+08,-14.266,12123,12992,1,12992,1,0.00096583,7.6327e-10,0,0.00096583,0.00016622,3.1885e+08,261.42,0,3.6045e+08,66.089,12991,12124,1,12124,1,3.9809e-05,-1.3147e-09,0,0.00048015,-7.32e-06,1.502e+07,-422.73,0,1.8273e+08,-16.186,12123,11209,1,11209,1,-0.00088621,-3.4993e-09,0,5.5126e-06,-0.00018071,-3.6045e+08,-1122.5,0,1.9241e+06,-106.92,11208,11690,1,11690,1,-0.00044034,-2.1044e-09,0,0.00024008,-9.722e-05,-1.791e+08,-674.54,0,9.2293e+07,-40.05,11689,12558,1,12558,1,0.00051996,-4.8861e-10,0,0.00072023,8.2632e-05,1.8327e+08,-154.28,0,2.6656e+08,10.321,12557,502.62,0,502.62,0,0.00055424,1.0415e-09,0,0.00027876,0.00010381,2.0597e+08,335.44,0,1.0134e+08,36.198,502.62,1
1736,3.35,12124,1,12124,1,4.019e-05,1.7325e-09,0,0.00048204,-7.3583e-06,-67.501,555.06,0,1.7972e+08,-5.2963,12123,12992,1,12992,1,0.00096906,3.3235e-09,0,0.00096906,0.00016668,3.1948e+08,1064.8,0,3.6146e+08,110.34,12991,12124,1,12124,1,4.019e-05,1.9654e-09,0,0.00048163,-7.3893e-06,1.5159e+07,633.93,0,1.832e+08,-8.9213,12123,11209,1,11209,1,-0.00088868,-6.408e-10,0,5.7868e-06,-0.00018131,-3.6146e+08,-219.48,0,2.0293e+06,-85.639,11208,11690,1,11690,1,-0.00044144,9.093e-10,0,0.00024081,-9.7565e-05,-1.7955e+08,288.34,0,9.2539e+07,-32.731,11689,12558,1,12558,1,0.00052182,2.599e-09,0,0.00072244,8.2838e-05,1.8375e+08,848.64,0,2.6713e+08,19.542,12557,502.62,0,502.62,0,0.00055594,1.0339e-09,0,0.00027962,0.00010413,2.0648e+08,333.34,0,1.0158e+08,34.92,502.62,1
1736,3.36,12124,1,12124,1,4.0572e-05,-3.3255e-10,0,0.00048354,-7.4283e-06,-163.52,-104.15,0,1.8017e+08,8.0377,12123,12992,1,12992,1,0.00097228,3.9347e-10,0,0.00097228,0.00016714,3.2009e+08,134.76,0,3.6246e+08,123.06,12991,12124,1,12124,1,4.0572e-05,-2.6833e-10,0,0.0004831,-7.459e-06,1.5298e+07,-86.943,0,1.8368e+08,9.564,12123,11209,1,11209,1,-0.00089113,-1.3944e-09,0,6.0644e-06,-0.00018191,-3.6246e+08,-441.88,0,2.1358e+06,-101.6,11208,11690,1,11690,1,-0.00044253,-6.1392e-10,0,0.00024155,-9.7911e-05,-1.7999e+08,-194.52,0,9.2783e+07,-13.003,11689,12558,1,12558,1,0.00052368,1.501e-12,0,0.00072466,8.3043e-05,1.8423e+08,0.47964,0,2.6769e+08,32.631,12557,502.62,0,502.62,0,0.00055764,4.2448e-10,0,0.00028049,0.00010445,2.0699e+08,134.45,0,1.0181e+08,33.907,502.62,1
1736,3.37,12124,1,12124,1,4.0958e-05,3.937e-10,0,0.00048503,-7.4988e-06,20.281,126.27,0,1.8062e+08,-7.8156,12123,12992,1,12992,1,0.00097551,1.0637e-09,0,0.00097551,0.0001676,3.2071e+08,348.12,0,3.6346e+08,61.932,12991,12124,1,12124,1,4.0958e-05,3.6346e-10,0,0.00048458,-7.5293e-06,1.5438e+07,115.87,0,1.8416e+08,-9.0394,12123,11209,1,11209,1,-0.00089359,-1.5573e-10,0,6.3449e-06,-0.00018251,-3.6346e+08,-49.931,0,2.2433e+06,-52.145,11208,11690,1,11690,1,-0.00044362,1.6866e-10,0,0.00024229,-9.8257e-05,-1.8043e+08,54.025,0,9.3027e+07,-20.967,11689,12558,1,12558,1,0.00052554,6.1938e-10,0,0.00072687,8.3249e-05,1.8471e+08,199.35,0,2.6825e+08,4.4349,12557,502.62,0,502.62,0,0.00055935,2.7796e-10,0,0.00028135,0.00010477,2.075e+08,90.09,0,1.0205e+08,18.431,502.62,1
1736,3.38,12124,1,12124,1,4.1343e-05,-1.1612e-09,0,0.00048651,-7.5692e-06,-126.12,-372.7,0,1.8106e+08,30.856,12123,12992,1,12992,1,0.00097872,6.1398e-09,0,0.00097872,0.00016806,3.2132e+08,1982.8,0,3.6445e+08,263.46,12991,12124,1,12124,1,4.1343e-05,-5.2048e-10,0,0.00048604,-7.5995e-06,1.5577e+07,-147.94,0,1.8462e+08,8.15,12123,11209,1,11209,1,-0.00089603,-8.2072e-09,0,6.626e-06,-0.00018311,-3.6445e+08,-2628,0,2.3511e+06,-183.23,11208,11690,1,11690,1,-0.00044469,-3.4025e-09,0,0.00024302,-9.86e-05,-1.8087e+08,-1099.1,0,9.3267e+07,-48.771,11689,12558,1,12558,1,0.00052738,8.6123e-10,0,0.00072906,8.345e-05,1.8518e+08,262.71,0,2.688e+08,117.37,12557,502.62,0,502.62,0,0.00056103,3.2469e-09,0,0.0002822,0.00010508,2.08e+08,1045.2,0,1.0228e+08,102.6,502.62,1
1736,3.39,12124,1,12124,1,4.1731e-05,-2.1786e-09,0,0.00048801,-7.6404e-06,62.577,-702.55,0,1.8151e+08,-30.928,12123,12992,1,12992,1,0.00098198,2.4125e-09,0,0.00098198,0.00016853,3.2195e+08,811.07,0,3.6546e+08,197.96,12991,12124,1,12124,1,4.1731e-05,-1.7108e-09,0,0.00048752,-7.6704e-06,1.5718e+07,-536.04,0,1.851e+08,-33.311,12123,11209,1,11209,1,-0.00089851,-8.3217e-09,0,6.9077e-06,-0.00018372,-3.6546e+08,-2673.8,0,2.459e+06,-239.88,11208,11690,1,11690,1,-0.00044579,-4.1812e-09,0,0.00024376,-9.8948e-05,-1.8132e+08,-1363.5,0,9.3512e+07,-85.598,11689,12558,1,12558,1,0.00052925,1.918e-10,0,0.00073128,8.3656e-05,1.8566e+08,61.137,0,2.6937e+08,30.632,12557,502.62,0,502.62,0,0.00056274,2.6887e-09,0,0.00028307,0.0001054,2.0851e+08,872.38,0,1.0251e+08,81.663,502.62,1
1736,3.4,12124,1,12124,1,4.2126e-05,-1.298e-09,0,0.00048953,-7.7125e-06,-40.97,-423.15,0,1.8197e+08,-40.068,12123,12992,1,12992,1,0.00098524,6.4762e-10,0,0.00098524,0.00016899,3.2256e+08,178.86,0,3.6647e+08,88.255,12991,12124,1,12124,1,4.2126e-05,-1.197e-09,0,0.00048901,-7.7423e-06,1.5862e+07,-384.23,0,1.8558e+08,-31.577,12123,11209,1,11209,1,-0.00090099,-3.5787e-09,0,7.1954e-06,-0.00018433,-3.6647e+08,-1173.3,0,2.5691e+06,-174.95,11208,11690,1,11690,1,-0.00044689,-2.1689e-09,0,0.00024451,-9.93e-05,-1.8176e+08,-710.71,0,9.3758e+07,-72.927,11689,12558,1,12558,1,0.00053114,-4.3695e-10,0,0.00073352,8.3863e-05,1.8614e+08,-137.72,0,2.6993e+08,-6.6464,12557,502.62,0,502.62,0,0.00056447,1.0782e-09,0,0.00028394,0.00010572,2.0902e+08,356.7,0,1.0275e+08,45.031,502.62,1
1736,3.41,12124,1,12124,1,4.2526e-05,6.0398e-10,0,0.00049104,-7.7857e-06,23.702,189.2,0,1.8242e+08,-12.568,12123,12992,1,12992,1,0.0009885,1.4469e-09,0,0.0009885,0.00016945,3.2317e+08,450.38,0,3.6747e+08,61.261,12991,12124,1,12124,1,4.2526e-05,6.0147e-10,0,0.0004905,-7.8151e-06,1.6007e+07,191.73,0,1.8606e+08,-11.841,12123,11209,1,11209,1,-0.00090345,-2.2788e-10,0,7.4888e-06,-0.00018494,-3.6747e+08,-78.047,0,2.6814e+06,-89.9,11208,11690,1,11690,1,-0.00044798,2.4414e-10,0,0.00024525,-9.9651e-05,-1.8221e+08,77.181,0,9.4003e+07,-26.069,11689,12558,1,12558,1,0.00053303,9.5825e-10,0,0.00073575,8.4068e-05,1.8662e+08,300.14,0,2.7049e+08,-0.35555,12557,502.62,0,502.62,0,0.00056619,4.4605e-10,0,0.00028481,0.00010604,2.0953e+08,138.35,0,1.0299e+08,21.374,502.62,1
1736,3.42,12124,1,12124,1,4.2926e-05,1.0496e-10,0,0.00049252,-7.8587e-06,-16.466,33.924,0,1.8286e+08,21.792,12123,12992,1,12992,1,0.00099173,5.6714e-09,0,0.00099173,0.00016991,3.2377e+08,1825.2,0,3.6845e+08,244.41,12991,12124,1,12124,1,4.2926e-05,1.2611e-10,0,0.00049197,-7.8876e-06,1.6152e+07,39.479,0,1.8652e+08,8.6821,12123,11209,1,11209,1,-0.00090587,-3.9451e-09,0,7.7848e-06,-0.00018554,-3.6845e+08,-1260.9,0,2.7947e+06,-129.82,11208,11690,1,11690,1,-0.00044904,-1.3124e-09,0,0.00024598,-9.9997e-05,-1.8264e+08,-427.7,0,9.4242e+07,-32.531,11689,12558,1,12558,1,0.00053489,1.2715e-09,0,0.00073795,8.4268e-05,1.8709e+08,402.62,0,2.7103e+08,74.246,12557,502.62,0,502.62,0,0.00056787,2.1097e-09,0,0.00028567,0.00010636,2.1003e+08,679.23,0,1.0322e+08,74.271,502.62,1
1736,3.43,12124,1,12124,1,4.3326e-05,-1.4919e-09,0,0.00049403,-7.932e-06,20.171,-478.49,0,1.8332e+08,-15.286,12123,12992,1,12992,1,0.00099501,1.2292e-09,0,0.00099501,0.00017038,3.2438e+08,421.01,0,3.6946e+08,86.49,12991,12124,1,12124,1,4.3326e-05,-1.1912e-09,0,0.00049346,-7.9607e-06,1.6296e+07,-368.04,0,1.87e+08,-14.836,12123,11209,1,11209,1,-0.00090836,-5.3959e-09,0,8.0785e-06,-0.00018615,-3.6946e+08,-1727.7,0,2.9069e+06,-148.17,11208,11690,1,11690,1,-0.00045013,-2.6327e-09,0,0.00024673,-0.00010035,-1.8308e+08,-846.63,0,9.4487e+07,-51.766,11689,12558,1,12558,1,0.00053678,-1.7858e-10,0,0.00074019,8.4473e-05,1.8757e+08,-55.791,0,2.7159e+08,21.564,12557,502.62,0,502.62,0,0.00056959,1.608e-09,0,0.00028654,0.00010668,2.1054e+08,520.39,0,1.0345e+08,51.23,502.62,1
1736,3.44,12124,1,12124,1,4.3729e-05,4.5083e-09,0,0.00049552,-8.0057e-06,-33.645,1441,0,1.8375e+08,11.984,12123,12992,1,12992,1,0.00099826,1.1798e-08,0,0.00099826,0.00017083,3.2498e+08,3724.3,0,3.7045e+08,365.88,12991,12124,1,12124,1,4.373e-05,4.2524e-09,0,0.00049492,-8.0339e-06,1.6443e+07,1362,0,1.8746e+08,9.2978,12123,11209,1,11209,1,-0.0009108,-1.2789e-09,0,8.3767e-06,-0.00018675,-3.7045e+08,-438.03,0,3.0209e+06,-301.16,11208,11690,1,11690,1,-0.00045119,1.4958e-09,0,0.00024746,-0.0001007,-1.8351e+08,473.92,0,9.4726e+07,-84.307,11689,12558,1,12558,1,0.00053865,7.4756e-09,0,0.00074238,8.4673e-05,1.8804e+08,2382.1,0,2.7213e+08,97.339,12557,502.62,0,502.62,0,0.00057128,3.5448e-09,0,0.0002874,0.00010699,2.1103e+08,1143.8,0,1.0368e+08,140.67,502.62,1
1736,3.45,12124,1,12124,1,4.4134e-05,3.2443e-09,0,0.00049703,-8.0797e-06,-28.944,1049.2,0,1.842e+08,52.714,12123,12992,1,12992,1,0.0010015,1.054e-08,0,0.0010015,0.0001713,3.2558e+08,3419.9,0,3.7146e+08,407.91,12991,12124,1,12124,1,4.4135e-05,2.51e-09,0,0.00049641,-8.1077e-06,1.6589e+07,805.37,0,1.8794e+08,37.377,12123,11209,1,11209,1,-0.00091326,-1.2826e-09,0,8.6749e-06,-0.00018736,-3.7146e+08,-421.9,0,3.1348e+06,-129.67,11208,11690,1,11690,1,-0.00045228,6.7753e-10,0,0.00024821,-0.00010105,-1.8395e+08,210.81,0,9.4968e+07,-35.711,11689,12558,1,12558,1,0.00054055,5.4917e-09,0,0.00074462,8.4876e-05,1.8852e+08,1780,0,2.7268e+08,110.51,12557,502.62,0,502.62,0,0.000573,3.0125e-09,0,0.00028827,0.00010732,2.1154e+08,984.38,0,1.0391e+08,111.14,502.62,1
1736,3.46,12124,1,12124,1,4.4547e-05,4.3797e-10,0,0.00049854,-8.1553e-06,90.189,151.29,0,1.8465e+08,-21.705,12123,12992,1,12992,1,0.0010048,3.8842e-09,0,0.0010048,0.00017175,3.2617e+08,1326,0,3.7245e+08,118.44,12991,12124,1,12124,1,4.4547e-05,2.1753e-10,0,0.0004979,-8.1829e-06,1.6738e+07,67.679,0,1.8841e+08,-13.481,12123,11209,1,11209,1,-0.00091569,-1.9134e-09,0,8.9804e-06,-0.00018797,-3.7245e+08,-603.4,0,3.2514e+06,-164.67,11208,11690,1,11690,1,-0.00045335,-5.1049e-10,0,0.00024895,-0.0001014,-1.8439e+08,-159.29,0,9.5211e+07,-58.818,11689,12558,1,12558,1,0.00054245,1.2907e-09,0,0.00074685,8.5079e-05,1.8899e+08,423.53,0,2.7323e+08,14.822,12557,502.62,0,502.62,0,0.00057472,1.369e-09,0,0.00028915,0.00010764,2.1204e+08,448.4,0,1.0415e+08,51.392,502.62,1
1736,3.47,12124,1,12124,1,4.496e-05,-3.2881e-10,0,0.00050003,-8.2307e-06,95.594,-101.79,0,1.8509e+08,2.98,12123,12992,1,12992,1,0.001008,5.5972e-09,0,0.001008,0.00017221,3.2675e+08,1827.6,0,3.7343e+08,287.22,12991,12124,1,12124,1,4.496e-05,-1.1261e-10,0,0.00049937,-8.2579e-06,1.6887e+07,-35.165,0,1.8887e+08,-11.801,12123,11209,1,11209,1,-0.00091812,-4.603e-09,0,9.2897e-06,-0.00018858,-3.7343e+08,-1467.7,0,3.3694e+06,-188.1,11208,11690,1,11690,1,-0.00045441,-1.8794e-09,0,0.00024968,-0.00010175,-1.8482e+08,-591.56,0,9.545e+07,-62.378,11689,12558,1,12558,1,0.00054433,8.1513e-10,0,0.00074905,8.5278e-05,1.8946e+08,271.2,0,2.7376e+08,60.914,12557,502.62,0,502.62,0,0.00057642,2.136e-09,0,0.00029001,0.00010795,2.1254e+08,688.65,0,1.0437e+08,92.175,502.62,1
1736,3.48,12124,1,12124,1,4.5373e-05,-1.4714e-09,0,0.00050154,-8.3064e-06,15.423,-471.02,0,1.8554e+08,-1.4529,12123,12992,1,12992,1,0.0010113,3.6303e-09,0,0.0010113,0.00017267,3.2734e+08,1184.9,0,3.7443e+08,175.5,12991,12124,1,12124,1,4.5373e-05,-1.0849e-09,0,0.00050085,-8.3331e-06,1.7036e+07,-343.8,0,1.8934e+08,2.3358,12123,11209,1,11209,1,-0.00092058,-6.287e-09,0,9.5974e-06,-0.00018919,-3.7443e+08,-2015.2,0,3.4867e+06,-178.33,11208,11690,1,11690,1,-0.00045548,-3.2252e-09,0,0.00025043,-0.00010211,-1.8526e+08,-1034.2,0,9.569e+07,-54.239,11689,12558,1,12558,1,0.00054623,2.1662e-10,0,0.00075128,8.5479e-05,1.8993e+08,72.175,0,2.743e+08,58.701,12557,502.62,0,502.62,0,0.00057813,2.2477e-09,0,0.00029088,0.00010827,2.1304e+08,727,0,1.046e+08,78.258,502.62,1
1736,3.49,12124,1,12124,1,4.5793e-05,-1.3193e-09,0,0.00050306,-8.3832e-06,-36.827,-425.8,0,1.8598e+08,-13.833,12123,12992,1,12992,1,0.0010146,1.0891e-09,0,0.0010146,0.00017313,3.2793e+08,372.8,0,3.7544e+08,104.27,12991,12124,1,12124,1,4.5793e-05,-1.1397e-09,0,0.00050235,-8.4095e-06,1.7188e+07,-352.99,0,1.8982e+08,-3.5148,12123,11209,1,11209,1,-0.00092305,-4.4215e-09,0,9.9095e-06,-0.0001898,-3.7544e+08,-1442.8,0,3.6057e+06,-166.27,11208,11690,1,11690,1,-0.00045656,-2.5188e-09,0,0.00025118,-0.00010246,-1.857e+08,-812.52,0,9.5933e+07,-57.838,11689,12558,1,12558,1,0.00054815,-7.7874e-11,0,0.00075353,8.5682e-05,1.9041e+08,-23.215,0,2.7485e+08,31.485,12557,502.62,0,502.62,0,0.00057986,1.4249e-09,0,0.00029176,0.0001086,2.1354e+08,464.5,0,1.0484e+08,57.853,502.62,1
1736,3.5,12124,1,12124,1,4.6216e-05,3.7057e-09,0,0.00050457,-8.4605e-06,-65.91,1180.3,0,1.8642e+08,38.726,12123,12992,1,12992,1,0.0010179,8.2708e-09,0,0.0010179,0.00017359,3.2852e+08,2602.5,0,3.7644e+08,333,12991,12124,1,12124,1,4.6217e-05,3.9717e-09,0,0.00050384,-8.4861e-06,1.7341e+07,1262.6,0,1.9028e+08,13.149,12123,11209,1,11209,1,-0.0009255,-1.4413e-09,0,1.0227e-05,-0.00019042,-3.7644e+08,-493.64,0,3.7266e+06,-127.8,11208,11690,1,11690,1,-0.00045762,1.6667e-09,0,0.00025192,-0.00010282,-1.8613e+08,537.78,0,9.6173e+07,-22.402,11689,12558,1,12558,1,0.00055005,5.8595e-09,0,0.00075575,8.5882e-05,1.9088e+08,1859.2,0,2.7538e+08,88.705,12557,502.62,0,502.62,0,0.00058157,2.5896e-09,0,0.00029263,0.00010892,2.1404e+08,830.73,0,1.0506e+08,86.459,502.62,1
1736,3.51,12124,1,12124,1,4.664e-05,-3.0457e-09,0,0.00050607,-8.5381e-06,23.999,-963.84,0,1.8686e+08,-10.854,12123,12992,1,12992,1,0.0010212,1.191e-09,0,0.0010212,0.00017405,3.2909e+08,407.93,0,3.7742e+08,175.48,12991,12124,1,12124,1,4.6641e-05,-2.4708e-09,0,0.00050532,-8.5635e-06,1.7494e+07,-777.57,0,1.9075e+08,-14.637,12123,11209,1,11209,1,-0.00092792,-8.9363e-09,0,1.0545e-05,-0.00019103,-3.7742e+08,-2843.9,0,3.8476e+06,-244.33,11208,11690,1,11690,1,-0.00045868,-5.1656e-09,0,0.00025266,-0.00010317,-1.8656e+08,-1638.1,0,9.6412e+07,-64.256,11689,12558,1,12558,1,0.00055196,-7.4192e-10,0,0.00075797,8.608e-05,1.9135e+08,-237.27,0,2.7591e+08,51.19,12557,502.62,0,502.62,0,0.00058328,2.6719e-09,0,0.0002935,0.00010924,2.1453e+08,853.69,0,1.0529e+08,82.067,502.62,1
1736,3.52,12124,1,12124,1,4.7066e-05,3.2666e-10,0,0.00050757,-8.616e-06,-25.457,100.97,0,1.873e+08,-16.55,12123,12992,1,12992,1,0.0010245,2.2198e-09,0,0.0010245,0.0001745,3.2965e+08,689.73,0,3.784e+08,157.48,12991,12124,1,12124,1,4.7066e-05,3.1102e-10,0,0.0005068,-8.6409e-06,1.7647e+07,96.821,0,1.9121e+08,-17.557,12123,11209,1,11209,1,-0.00093033,-2.0611e-09,0,1.0865e-05,-0.00019163,-3.784e+08,-705.63,0,3.9695e+06,-133.28,11208,11690,1,11690,1,-0.00045973,-3.7743e-10,0,0.0002534,-0.00010352,-1.8699e+08,-114.77,0,9.6711e+07,-52.427,11689,12558,1,12558,1,0.00055386,1.072e-09,0,0.00076019,8.6279e-05,1.9181e+08,339.82,0,2.7644e+08,10.127,12557,502.62,0,502.62,0,0.00058499,9.2256e-10,0,0.00029437,0.00010956,2.1502e+08,298.55,0,1.0552e+08,51.33,502.62,1
1736,3.53,12124,1,12124,1,4.7494e-05,-1.8262e-09,0,0.00050908,-8.6943e-06,41.673,-582.61,0,1.8774e+08,-21.254,12123,12992,1,12992,1,0.0010278,1.1184e-09,0,0.0010278,0.00017496,3.3023e+08,383.03,0,3.794e+08,177.99,12991,12124,1,12124,1,4.7494e-05,-1.7635e-09,0,0.00050829,-8.7188e-06,1.78e+07,-551.66,0,1.9168e+08,-14.882,12123,11209,1,11209,1,-0.00093279,-5.3265e-09,0,1.1187e-05,-0.00019225,-3.794e+08,-1701.8,0,4.0919e+06,-236.18,11208,11690,1,11690,1,-0.00046079,-3.172e-09,0,0.00025414,-0.00010388,-1.8742e+08,-1011.6,0,9.7037e+07,-56.359,11689,12558,1,12558,1,0.00055578,-4.5343e-10,0,0.00076243,8.6478e-05,1.9228e+08,-140.69,0,2.7697e+08,26.137,12557,502.62,0,502.62,0,0.00058671,1.6235e-09,0,0.00029525,0.00010988,2.1552e+08,521.42,0,1.0575e+08,69.417,502.62,1
1736,3.54,12124,1,12124,1,4.7929e-05,1.5628e-09,0,0.0005106,-8.7737e-06,-42.801,493.75,0,1.8818e+08,12.449,12123,12992,1,12992,1,0.0010311,4.2552e-09,0,0.0010311,0.00017542,3.3081e+08,1353.3,0,3.8039e+08,103.84,12991,12124,1,12124,1,4.7929e-05,1.4296e-09,0,0.00050978,-8.7975e-06,1.7957e+07,441.75,0,1.9214e+08,12.671,12123,11209,1,11209,1,-0.00093524,-4.353e-10,0,1.1515e-05,-0.00019287,-3.8039e+08,-149.09,0,4.2163e+06,-64.343,11208,11690,1,11690,1,-0.00046185,6.0744e-10,0,0.00025489,-0.00010424,-1.8785e+08,199.55,0,9.7365e+07,-11.201,11689,12558,1,12558,1,0.00055771,2.4348e-09,0,0.00076467,8.6678e-05,1.9275e+08,780.47,0,2.775e+08,34.724,12557,502.62,0,502.62,0,0.00058844,1.1959e-09,0,0.00029613,0.0001102,2.1602e+08,381.87,0,1.0597e+08,32.189,502.62,1
1736,3.55,12124,1,12124,1,4.8364e-05,-1.9498e-09,0,0.00051209,-8.8535e-06,125.77,-618.49,0,1.8861e+08,-26.847,12123,12992,1,12992,1,0.0010344,2.3633e-09,0,0.0010344,0.00017587,3.3135e+08,781.91,0,3.8137e+08,149.67,12991,12124,1,12124,1,4.8364e-05,-1.6882e-09,0,0.00051125,-8.8769e-06,1.8113e+07,-527.28,0,1.926e+08,-26.657,12123,11209,1,11209,1,-0.00093762,-6.3965e-09,0,1.1846e-05,-0.00019348,-3.8137e+08,-2031.7,0,4.3423e+06,-177.28,11208,11690,1,11690,1,-0.00046288,-3.6857e-09,0,0.00025562,-0.00010459,-1.8827e+08,-1169.1,0,9.7687e+07,-72.02,11689,12558,1,12558,1,0.00055961,-1.1009e-10,0,0.00076687,8.6872e-05,1.9321e+08,-34.392,0,2.7801e+08,19.11,12557,502.62,0,502.62,0,0.00059013,2.1568e-09,0,0.00029699,0.00011051,2.165e+08,690.59,0,1.0619e+08,62.274,502.62,1
1736,3.56,12124,1,12124,1,4.88e-05,-8.345e-10,0,0.00051362,-8.9331e-06,-12.518,-270.49,0,1.8906e+08,-12.49,12123,12992,1,12992,1,0.0010377,5.0527e-10,0,0.0010377,0.00017633,3.3193e+08,137.66,0,3.8237e+08,50.472,12991,12124,1,12124,1,4.88e-05,-8.4091e-10,0,0.00051275,-8.956e-06,1.8269e+07,-262.64,0,1.9307e+08,-8.7147,12123,11209,1,11209,1,-0.00094009,-2.2857e-09,0,1.2174e-05,-0.0001941,-3.8237e+08,-743.32,0,4.4665e+06,-105.23,11208,11690,1,11690,1,-0.00046395,-1.3967e-09,0,0.00025638,-0.00010495,-1.887e+08,-456.04,0,9.8017e+07,-25.432,11689,12558,1,12558,1,0.00056155,-2.4635e-10,0,0.00076913,8.7073e-05,1.9368e+08,-75.205,0,2.7855e+08,6.0248,12557,502.62,0,502.62,0,0.00059187,7.0994e-10,0,0.00029788,0.00011084,2.17e+08,233.28,0,1.0643e+08,29.584,502.62,1
1736,3.57,12124,1,12124,1,4.9244e-05,-2.7647e-09,0,0.00051512,-9.0143e-06,102.35,-883.92,0,1.8949e+08,-31.074,12123,12992,1,12992,1,0.001041,1.6768e-09,0,0.001041,0.00017679,3.3249e+08,574.29,0,3.8336e+08,197.11,12991,12124,1,12124,1,4.9243e-05,-2.3854e-09,0,0.00051423,-9.0366e-06,1.8428e+07,-743.84,0,1.9352e+08,-39.394,12123,11209,1,11209,1,-0.00094252,-8.364e-09,0,1.2512e-05,-0.00019472,-3.8336e+08,-2670,0,4.5948e+06,-243.53,11208,11690,1,11690,1,-0.00046499,-4.8958e-09,0,0.00025712,-0.00010531,-1.8912e+08,-1561.8,0,9.8343e+07,-88.309,11689,12558,1,12558,1,0.00056348,-4.5479e-10,0,0.00077135,8.7268e-05,1.9414e+08,-139.23,0,2.7906e+08,26.845,12557,502.62,0,502.62,0,0.00059357,2.5794e-09,0,0.00029875,0.00011116,2.1748e+08,829.37,0,1.0665e+08,86.445,502.62,1
1736,3.58,12124,1,12124,1,4.9683e-05,-1.9474e-09,0,0.00051662,-9.0945e-06,-186.12,-627.29,0,1.8992e+08,15.598,12123,12992,1,12992,1,0.0010443,4.221e-09,0,0.0010443,0.00017724,3.3303e+08,1352.5,0,3.8433e+08,228.73,12991,12124,1,12124,1,4.9682e-05,-1.4398e-09,0,0.00051571,-9.1162e-06,1.8585e+07,-462.21,0,1.9398e+08,21.632,12123,11209,1,11209,1,-0.00094492,-8.7436e-09,0,1.2846e-05,-0.00019533,-3.8433e+08,-2786.3,0,4.7213e+06,-237.21,11208,11690,1,11690,1,-0.00046602,-4.3004e-09,0,0.00025785,-0.00010567,-1.8954e+08,-1373.6,0,9.8668e+07,-66.05,11689,12558,1,12558,1,0.00056539,3.2297e-10,0,0.00077356,8.7463e-05,1.946e+08,97.405,0,2.7957e+08,90.451,12557,502.62,0,502.62,0,0.00059527,2.9788e-09,0,0.00029962,0.00011148,2.1797e+08,957.55,0,1.0687e+08,100.9,502.62,1
1736,3.59,12124,1,12124,1,5.0131e-05,-7.999e-10,0,0.00051815,-9.1765e-06,-4.0984,-261.07,0,1.9036e+08,-26.713,12123,12992,1,12992,1,0.0010476,4.8557e-10,0,0.0010476,0.0001777,3.3359e+08,157.75,0,3.8533e+08,76.891,12991,12124,1,12124,1,5.0132e-05,-5.2925e-10,0,0.00051721,-9.1977e-06,1.8746e+07,-168.8,0,1.9445e+08,-30.058,12123,11209,1,11209,1,-0.00094736,-2.8526e-09,0,1.3186e-05,-0.00019595,-3.8533e+08,-941.45,0,4.8499e+06,-125.08,11208,11690,1,11690,1,-0.00046708,-1.4021e-09,0,0.00025861,-0.00010603,-1.8998e+08,-459.17,0,9.8998e+07,-52.936,11689,12558,1,12558,1,0.00056735,-1.0294e-10,0,0.00077582,8.7662e-05,1.9507e+08,-32.178,0,2.8009e+08,-4.8927,12557,502.62,0,502.62,0,0.00059702,8.3864e-10,0,0.00030051,0.0001118,2.1846e+08,279.39,0,1.071e+08,35.828,502.62,1
1736,3.6,12124,1,12124,1,5.0585e-05,-1.5312e-09,0,0.00051968,-9.2595e-06,60.89,-490.73,0,1.9079e+08,-6.1882,12123,12992,1,12992,1,0.001051,7.5443e-10,0,0.001051,0.00017815,3.3415e+08,258.39,0,3.8632e+08,97.065,12991,12124,1,12124,1,5.0585e-05,-1.6519e-09,0,0.00051871,-9.2801e-06,1.8909e+07,-514.52,0,1.9491e+08,-5.4916,12123,11209,1,11209,1,-0.0009498,-3.5998e-09,0,1.3533e-05,-0.00019657,-3.8632e+08,-1163,0,4.9815e+06,-105.09,11208,11690,1,11690,1,-0.00046812,-2.4181e-09,0,0.00025936,-0.00010639,-1.904e+08,-775.96,0,9.9328e+07,-29.723,11689,12558,1,12558,1,0.00056929,-6.8601e-10,0,0.00077807,8.7858e-05,1.9554e+08,-207.79,0,2.8061e+08,20.629,12557,502.62,0,502.62,0,0.00059874,1.0931e-09,0,0.00030139,0.00011212,2.1895e+08,355.44,0,1.0732e+08,39.602,502.62,1
1736,3.61,12124,1,12124,1,5.1037e-05,-2.3043e-09,0,0.00052116,-9.3421e-06,-76.662,-737.85,0,1.9121e+08,-2.9219,12123,12992,1,12992,1,0.0010543,4.9022e-09,0,0.0010543,0.0001786,3.3468e+08,1561.3,0,3.8729e+08,299.6,12991,12124,1,12124,1,5.1037e-05,-1.9512e-09,0,0.00052017,-9.3621e-06,1.907e+07,-623.1,0,1.9536e+08,-20.548,12123,11209,1,11209,1,-0.00095218,-8.7813e-09,0,1.388e-05,-0.00019718,-3.8729e+08,-2798,0,5.1125e+06,-262.65,11208,11690,1,11690,1,-0.00046914,-5.043e-09,0,0.00026009,-0.00010675,-1.9081e+08,-1597.4,0,9.9652e+07,-74.94,11689,12558,1,12558,1,0.00057121,2.7165e-10,0,0.00078026,8.8049e-05,1.9599e+08,90.028,0,2.811e+08,72.614,12557,502.62,0,502.62,0,0.00060043,3.2273e-09,0,0.00030225,0.00011244,2.1943e+08,1033.2,0,1.0754e+08,107.84,502.62,1
1736,3.62,12124,1,12124,1,5.1491e-05,3.4952e-10,0,0.0005227,-9.4252e-06,312.48,100.94,0,1.9166e+08,-38.735,12123,12992,1,12992,1,0.0010576,1.4068e-09,0,0.0010576,0.00017906,3.3524e+08,403.73,0,3.8828e+08,59.467,12991,12124,1,12124,1,5.1492e-05,3.1161e-10,0,0.00052168,-9.4448e-06,1.9233e+07,99.013,0,1.9582e+08,-34.239,12123,11209,1,11209,1,-0.00095462,-4.6229e-10,0,1.4225e-05,-0.00019781,-3.8828e+08,-158.3,0,5.2429e+06,-148.7,11208,11690,1,11690,1,-0.0004702,-6.2838e-11,0,0.00026085,-0.00010712,-1.9124e+08,-21.507,0,9.9985e+07,-59.217,11689,12558,1,12558,1,0.00057318,7.1052e-10,0,0.00078253,8.8248e-05,1.9646e+08,214.97,0,2.8162e+08,-13.562,12557,502.62,0,502.62,0,0.00060218,4.9586e-10,0,0.00030315,0.00011277,2.1992e+08,149.22,0,1.0777e+08,35.881,502.62,1
1736,3.63,12124,1,12124,1,5.1953e-05,-9.9503e-10,0,0.00052422,-9.5096e-06,-53.44,-319.25,0,1.9208e+08,6.0133,12123,12992,1,12992,1,0.001061,8.396e-10,0,0.001061,0.00017951,3.3577e+08,284.37,0,3.8926e+08,120.86,12991,12124,1,12124,1,5.1953e-05,-8.8578e-10,0,0.00052317,-9.5285e-06,1.9397e+07,-276.99,0,1.9628e+08,5.4447,12123,11209,1,11209,1,-0.00095704,-3.2976e-09,0,1.4582e-05,-0.00019843,-3.8926e+08,-1059.7,0,5.3777e+06,-105,11208,11690,1,11690,1,-0.00047122,-1.8712e-09,0,0.00026159,-0.00010748,-1.9166e+08,-600.25,0,1.0031e+08,-32.305,11689,12558,1,12558,1,0.00057513,-6.4995e-11,0,0.00078477,8.8441e-05,1.9691e+08,-19.831,0,2.8212e+08,39.399,12557,502.62,0,502.62,0,0.0006039,1.0603e-09,0,0.00030403,0.00011309,2.204e+08,342.22,0,1.0799e+08,47.92,502.62,1
1736,3.64,12124,1,12124,1,5.2416e-05,3.4997e-10,0,0.00052574,-9.5944e-06,34.185,106.32,0,1.9251e+08,-19.537,12123,12992,1,12992,1,0.0010643,9.6807e-10,0,0.0010643,0.00017997,3.3631e+08,284.89,0,3.9025e+08,35.797,12991,12124,1,12124,1,5.2417e-05,2.711e-10,0,0.00052467,-9.6126e-06,1.9562e+07,87.288,0,1.9674e+08,-14.662,12123,11209,1,11209,1,-0.00095946,-1.7713e-10,0,1.4939e-05,-0.00019905,-3.9025e+08,-60.668,0,5.5121e+06,-110.29,11208,11690,1,11690,1,-0.00047226,1.0544e-10,0,0.00026234,-0.00010784,-1.9208e+08,34.793,0,1.0064e+08,-34.431,11689,12558,1,12558,1,0.00057709,6.1017e-10,0,0.00078701,8.8636e-05,1.9738e+08,181.61,0,2.8263e+08,-0.52275,12557,502.62,0,502.62,0,0.00060563,3.0254e-10,0,0.00030491,0.00011341,2.2089e+08,89.504,0,1.0821e+08,27.437,502.62,1
1736,3.65,12124,1,12124,1,5.2882e-05,-2.3592e-10,0,0.00052725,-9.6794e-06,8.9664,-75.283,0,1.9294e+08,-1.2463,12123,12992,1,12992,1,0.0010676,1.5316e-09,0,0.0010676,0.00018042,3.3683e+08,489.87,0,3.9122e+08,114.54,12991,12124,1,12124,1,5.2882e-05,-2.6865e-10,0,0.00052616,-9.697e-06,1.9728e+07,-85.875,0,1.9719e+08,-1.1917,12123,11209,1,11209,1,-0.00096185,-1.7208e-09,0,1.5299e-05,-0.00019967,-3.9122e+08,-543.53,0,5.6478e+06,-118.84,11208,11690,1,11690,1,-0.00047327,-5.9748e-10,0,0.00026308,-0.0001082,-1.9249e+08,-188.87,0,1.0097e+08,-19.534,11689,12558,1,12558,1,0.00057904,7.0594e-11,0,0.00078923,8.8828e-05,1.9783e+08,22.01,0,2.8312e+08,16.216,12557,502.62,0,502.62,0,0.00060734,5.6624e-10,0,0.00030579,0.00011373,2.2137e+08,180.35,0,1.0843e+08,30.431,502.62,1
1736,3.66,12124,1,12124,1,5.3348e-05,-1.8321e-09,0,0.00052876,-9.7647e-06,52.778,-580.51,0,1.9336e+08,-26.984,12123,12992,1,12992,1,0.001071,1.1088e-09,0,0.001071,0.00018087,3.3737e+08,379.77,0,3.9221e+08,139.87,12991,12124,1,12124,1,5.3348e-05,-1.6787e-09,0,0.00052765,-9.7818e-06,1.9894e+07,-530.75,0,1.9764e+08,-27.504,12123,11209,1,11209,1,-0.00096427,-5.1788e-09,0,1.5659e-05,-0.00020029,-3.9221e+08,-1640.7,0,5.7832e+06,-202.05,11208,11690,1,11690,1,-0.0004743,-3.1935e-09,0,0.00026382,-0.00010857,-1.9291e+08,-1007.2,0,1.013e+08,-78.063,11689,12558,1,12558,1,0.00058099,-5.3415e-10,0,0.00079147,8.902e-05,1.9829e+08,-173.88,0,2.8362e+08,19.21,12557,502.62,0,502.62,0,0.00060906,1.6125e-09,0,0.00030667,0.00011405,2.2184e+08,514.2,0,1.0865e+08,65.273,502.62,1
1736,3.67,12124,1,12124,1,5.3818e-05,-3.5884e-10,0,0.00053028,-9.8505e-06,51.147,-120.18,0,1.9379e+08,-9.4556,12123,12992,1,12992,1,0.0010743,1.942e-09,0,0.0010743,0.00018132,3.3789e+08,619.31,0,3.9318e+08,86.327,12991,12124,1,12124,1,5.3818e-05,-2.8042e-10,0,0.00052914,-9.867e-06,2.0061e+07,-85.808,0,1.9809e+08,-3.4889,12123,11209,1,11209,1,-0.00096667,-2.0848e-09,0,1.602e-05,-0.00020091,-3.9318e+08,-677.76,0,5.9193e+06,-124.77,11208,11690,1,11690,1,-0.00047532,-1.0422e-09,0,0.00026457,-0.00010893,-1.9333e+08,-335.8,0,1.0163e+08,-33.218,11689,12558,1,12558,1,0.00058296,2.3432e-10,0,0.00079371,8.9213e-05,1.9874e+08,67.689,0,2.8411e+08,20.331,12557,502.62,0,502.62,0,0.00061078,8.6835e-10,0,0.00030756,0.00011437,2.2232e+08,279.63,0,1.0887e+08,38.744,502.62,1
1736,3.68,12124,1,12124,1,5.4293e-05,9.3044e-11,0,0.00053181,-9.9373e-06,-2.9656,26.308,0,1.9422e+08,13.17,12123,12992,1,12992,1,0.0010777,4.1229e-09,0,0.0010777,0.00018178,3.3842e+08,1313.7,0,3.9416e+08,208.91,12991,12124,1,12124,1,5.4293e-05,-2.0093e-10,0,0.00053064,-9.9531e-06,2.023e+07,-59.372,0,1.9855e+08,-1.9623,12123,11209,1,11209,1,-0.00096909,-1.3505e-09,0,1.6389e-05,-0.00020154,-3.9416e+08,-436.78,0,6.0577e+06,-175.08,11208,11690,1,11690,1,-0.00047635,-6.5619e-10,0,0.00026532,-0.0001093,-1.9374e+08,-213.76,0,1.0197e+08,-20.66,11689,12558,1,12558,1,0.00058493,4.8788e-10,0,0.00079596,8.9406e-05,1.992e+08,143.35,0,2.8461e+08,42.01,12557,502.62,0,502.62,0,0.00061252,1.1254e-09,0,0.00030845,0.0001147,2.2281e+08,361.05,0,1.0909e+08,56.144,502.62,1
1736,3.69,12124,1,12124,1,5.4771e-05,1.6508e-09,0,0.00053331,-1.0025e-05,419.69,523.89,0,1.9464e+08,57.678,12123,12992,1,12992,1,0.001081,1.1573e-08,0,0.001081,0.00018222,3.3893e+08,3688.4,0,3.9513e+08,514.32,12991,12124,1,12124,1,5.4771e-05,4.844e-10,0,0.00053212,-1.004e-05,2.04e+07,145.46,0,1.9899e+08,27.241,12123,11209,1,11209,1,-0.00097147,-2.6232e-09,0,1.6762e-05,-0.00020216,-3.9513e+08,-827.29,0,6.1978e+06,-283.02,11208,11690,1,11690,1,-0.00047735,-4.5269e-10,0,0.00026606,-0.00010966,-1.9415e+08,-137.88,0,1.023e+08,-31.654,11689,12558,1,12558,1,0.00058689,3.2343e-09,0,0.00079818,8.9594e-05,1.9965e+08,1020.9,0,2.8509e+08,111.9,12557,502.62,0,502.62,0,0.00061422,3.0279e-09,0,0.00030932,0.00011501,2.2327e+08,967.13,0,1.093e+08,127.37,502.62,1
1736,3.7,12124,1,12124,1,5.5249e-05,2.5383e-09,0,0.00053484,-1.0112e-05,218.17,810.52,0,1.9507e+08,24.88,12123,12992,1,12992,1,0.0010844,8.1989e-09,0,0.0010844,0.00018268,3.3946e+08,2649.7,0,3.9612e+08,300.12,12991,12124,1,12124,1,5.5249e-05,2.234e-09,0,0.00053362,-1.0127e-05,2.0569e+07,709.94,0,1.9945e+08,11.02,12123,11209,1,11209,1,-0.00097391,-1.1919e-09,0,1.7132e-05,-0.00020279,-3.9612e+08,-371.79,0,6.3364e+06,-204.69,11208,11690,1,11690,1,-0.00047837,8.8194e-10,0,0.00026681,-0.00011003,-1.9457e+08,275.48,0,1.0263e+08,-30.618,11689,12558,1,12558,1,0.00058887,4.0322e-09,0,0.00080044,8.9788e-05,2.0011e+08,1294.3,0,2.8559e+08,62.599,12557,502.62,0,502.62,0,0.00061596,2.1276e-09,0,0.00031021,0.00011534,2.2376e+08,691.68,0,1.0952e+08,82.442,502.62,1
1736,3.71,12124,1,12124,1,5.5734e-05,-1.7243e-09,0,0.00053638,-1.0201e-05,-60.436,-534.66,0,1.9549e+08,-42.774,12123,12992,1,12992,1,0.0010878,8.2779e-10,0,0.0010878,0.00018313,3.3997e+08,283.51,0,3.971e+08,93.468,12991,12124,1,12124,1,5.5735e-05,-1.9011e-09,0,0.00053513,-1.0215e-05,2.0742e+07,-593.01,0,1.999e+08,-33.284,12123,11209,1,11209,1,-0.00097632,-3.9053e-09,0,1.7509e-05,-0.00020342,-3.971e+08,-1189,0,6.4778e+06,-187.51,11208,11690,1,11690,1,-0.0004794,-2.8494e-09,0,0.00026756,-0.0001104,-1.9498e+08,-886.07,0,1.0296e+08,-77.873,11689,12558,1,12558,1,0.00059087,-5.8366e-10,0,0.00080269,8.998e-05,2.0056e+08,-187.19,0,2.8608e+08,-9.6606,12557,502.62,0,502.62,0,0.0006177,1.3348e-09,0,0.00031111,0.00011566,2.2424e+08,412.33,0,1.0974e+08,52.512,502.62,1
1736,3.72,12124,1,12124,1,5.6222e-05,1.4699e-09,0,0.00053789,-1.029e-05,-26.545,462.84,0,1.9591e+08,47.607,12123,12992,1,12992,1,0.0010911,6.6315e-09,0,0.0010911,0.00018358,3.4047e+08,2097.6,0,3.9807e+08,277.5,12991,12124,1,12124,1,5.6223e-05,9.5845e-10,0,0.00053662,-1.0303e-05,2.0914e+07,293.06,0,2.0035e+08,41.2,12123,11209,1,11209,1,-0.00097869,-9.5227e-10,0,1.7892e-05,-0.00020405,-3.9807e+08,-326.15,0,6.6212e+06,-164.16,11208,11690,1,11690,1,-0.00048039,-3.1857e-11,0,0.00026831,-0.00011077,-1.9539e+08,-9.1733,0,1.0329e+08,-2.5391,11689,12558,1,12558,1,0.00059284,2.6827e-09,0,0.00080492,9.0168e-05,2.0101e+08,839.61,0,2.8655e+08,78.145,12557,502.62,0,502.62,0,0.00061941,1.7755e-09,0,0.00031199,0.00011598,2.247e+08,564.9,0,1.0995e+08,69.938,502.62,1
1736,3.73,12124,1,12124,1,5.6709e-05,4.8894e-10,0,0.00053941,-1.0379e-05,-97.76,159.61,0,1.9633e+08,18.64,12123,12992,1,12992,1,0.0010945,4.5104e-09,0,0.0010945,0.00018402,3.4097e+08,1456,0,3.9904e+08,148.77,12991,12124,1,12124,1,5.6709e-05,6.5488e-11,0,0.0005381,-1.0392e-05,2.1086e+07,19.337,0,2.0079e+08,10.511,12123,11209,1,11209,1,-0.00098107,-1.6079e-09,0,1.8273e-05,-0.00020467,-3.9904e+08,-506.06,0,6.7634e+06,-104.86,11208,11690,1,11690,1,-0.00048139,-3.3309e-10,0,0.00026905,-0.00011114,-1.958e+08,-99.935,0,1.0363e+08,-12.652,11689,12558,1,12558,1,0.00059481,1.1405e-09,0,0.00080716,9.0356e-05,2.0146e+08,369.47,0,2.8703e+08,41.887,12557,502.62,0,502.62,0,0.00062113,1.2445e-09,0,0.00031288,0.0001163,2.2517e+08,401.64,0,1.1017e+08,44.063,502.62,1
1736,3.74,12124,1,12124,1,5.72e-05,3.0881e-09,0,0.00054093,-1.0469e-05,45.047,979.93,0,1.9674e+08,56.656,12123,12992,1,12992,1,0.0010979,1.1385e-08,0,0.0010979,0.00018448,3.4148e+08,3636.1,0,4.0002e+08,374.22,12991,12124,1,12124,1,5.72e-05,2.5552e-09,0,0.0005396,-1.0481e-05,2.1259e+07,786.5,0,2.0124e+08,45.205,12123,11209,1,11209,1,-0.00098348,-1.3063e-09,0,1.8656e-05,-0.0002053,-4.0002e+08,-447.42,0,6.9068e+06,-178.33,11208,11690,1,11690,1,-0.0004824,3.4378e-10,0,0.0002698,-0.0001115,-1.962e+08,100.96,0,1.0396e+08,-20.005,11689,12558,1,12558,1,0.0005968,5.3907e-09,0,0.0008094,9.0545e-05,2.0191e+08,1703.8,0,2.8751e+08,115,12557,502.62,0,502.62,0,0.00062285,3.1301e-09,0,0.00031376,0.00011662,2.2564e+08,1003,0,1.1038e+08,98.362,502.62,1
1736,3.75,12124,1,12124,1,5.7696e-05,1.9926e-09,0,0.00054246,-1.056e-05,88.116,642.57,0,1.9717e+08,14.805,12123,12992,1,12992,1,0.0011013,8.0094e-09,0,0.0011013,0.00018493,3.4198e+08,2583.7,0,4.0099e+08,299.87,12991,12124,1,12124,1,5.7696e-05,1.5202e-09,0,0.0005411,-1.0572e-05,2.1435e+07,472.97,0,2.0169e+08,2.5959,12123,11209,1,11209,1,-0.00098588,-1.3824e-09,0,1.9043e-05,-0.00020593,-4.0099e+08,-390.81,0,7.0512e+06,-159.05,11208,11690,1,11690,1,-0.00048341,5.3755e-11,0,0.00027055,-0.00011188,-1.9661e+08,15.147,0,1.0429e+08,-46.037,11689,12558,1,12558,1,0.0005988,3.5718e-09,0,0.00081166,9.0735e-05,2.0236e+08,1132.9,0,2.8799e+08,53.54,12557,502.62,0,502.62,0,0.00062459,2.2449e-09,0,0.00031466,0.00011695,2.2612e+08,728.11,0,1.106e+08,83.549,502.62,1
1736,3.76,12124,1,12124,1,5.8198e-05,6.0383e-10,0,0.00054401,-1.0651e-05,-137.25,203.61,0,1.9759e+08,-18.521,12123,12992,1,12992,1,0.0011047,1.9216e-09,0,0.0011047,0.00018538,3.4248e+08,657.63,0,4.0197e+08,72.797,12991,12124,1,12124,1,5.8198e-05,6.6307e-10,0,0.00054262,-1.0663e-05,2.1612e+07,213.75,0,2.0214e+08,-18.292,12123,11209,1,11209,1,-0.00098829,-1.5915e-09,0,1.9437e-05,-0.00020657,-4.0197e+08,-449.53,0,7.198e+06,-89.534,11208,11690,1,11690,1,-0.00048442,-4.0656e-11,0,0.00027131,-0.00011225,-1.9703e+08,-11.783,0,1.0463e+08,-48.05,11689,12558,1,12558,1,0.00060082,1.2922e-09,0,0.00081393,9.0926e-05,2.0282e+08,420.12,0,2.8847e+08,6.2692,12557,502.62,0,502.62,0,0.00062634,8.3079e-10,0,0.00031556,0.00011728,2.266e+08,265.03,0,1.1082e+08,36.208,502.62,1
1736,3.77,12124,1,12124,1,5.8704e-05,1.539e-09,0,0.00054553,-1.0744e-05,79.03,493.86,0,1.98e+08,42.498,12123,12992,1,12992,1,0.0011081,5.5164e-09,0,0.0011081,0.00018583,3.4297e+08,1753.1,0,4.0294e+08,323.44,12991,12124,1,12124,1,5.8704e-05,1.3714e-09,0,0.00054411,-1.0755e-05,2.179e+07,426.81,0,2.0258e+08,25.09,12123,11209,1,11209,1,-0.00099067,-1.033e-09,0,1.9838e-05,-0.0002072,-4.0294e+08,-332.54,0,7.3471e+06,-110.64,11208,11690,1,11690,1,-0.00048541,1.4028e-10,0,0.00027206,-0.00011262,-1.9743e+08,41.82,0,1.0497e+08,-9.7436,11689,12558,1,12558,1,0.00060282,2.7612e-09,0,0.00081617,9.1112e-05,2.0326e+08,885.18,0,2.8893e+08,74.262,12557,502.62,0,502.62,0,0.00062806,1.6064e-09,0,0.00031645,0.0001176,2.2706e+08,515.84,0,1.1103e+08,74.664,502.62,1
1736,3.78,12124,1,12124,1,5.9209e-05,-2.1752e-09,0,0.00054706,-1.0836e-05,-159.44,-677.28,0,1.9842e+08,-21.772,12123,12992,1,12992,1,0.0011115,1.0627e-09,0,0.0011115,0.00018628,3.4347e+08,363.97,0,4.0392e+08,148.87,12991,12124,1,12124,1,5.921e-05,-2.3627e-09,0,0.00054562,-1.0847e-05,2.1968e+07,-741.75,0,2.0303e+08,-13.882,12123,11209,1,11209,1,-0.00099307,-4.8273e-09,0,2.0235e-05,-0.00020783,-4.0392e+08,-1505.5,0,7.4947e+06,-175.88,11208,11690,1,11690,1,-0.00048641,-3.522e-09,0,0.00027281,-0.00011299,-1.9783e+08,-1099.4,0,1.053e+08,-60.299,11689,12558,1,12558,1,0.00060483,-9.1341e-10,0,0.00081842,9.13e-05,2.0371e+08,-277.13,0,2.894e+08,11.78,12557,502.62,0,502.62,0,0.0006298,1.6078e-09,0,0.00031735,0.00011792,2.2753e+08,500.92,0,1.1124e+08,56.16,502.62,1
1736,3.79,12124,1,12124,1,5.9721e-05,-1.0975e-10,0,0.0005486,-1.093e-05,-8.5771,-39.998,0,1.9884e+08,3.1624,12123,12992,1,12992,1,0.0011149,9.9428e-10,0,0.0011149,0.00018672,3.4395e+08,306.76,0,4.0489e+08,77.65,12991,12124,1,12124,1,5.972e-05,-2.8777e-11,0,0.00054712,-1.094e-05,2.2147e+07,-8.4332,0,2.0347e+08,1.6825,12123,11209,1,11209,1,-0.00099545,-1.0522e-09,0,2.0639e-05,-0.00020846,-4.0489e+08,-342.67,0,7.6449e+06,-68.571,11208,11690,1,11690,1,-0.0004874,-4.6407e-10,0,0.00027356,-0.00011337,-1.9824e+08,-152.67,0,1.0556e+08,-15.83,11689,12558,1,12558,1,0.00060684,2.1582e-10,0,0.00082069,9.1488e-05,2.0416e+08,60.734,0,2.8987e+08,22.348,12557,502.62,0,502.62,0,0.00063154,4.5529e-10,0,0.00031825,0.00011825,2.28e+08,145.36,0,1.1146e+08,28.288,502.62,1
1736,3.8,12124,1,12124,1,6.0234e-05,2.4724e-10,0,0.00055012,-1.1024e-05,481,75.468,0,1.9925e+08,-8.1699,12123,12992,1,12992,1,0.0011183,2.9692e-09,0,0.0011183,0.00018717,3.4442e+08,940.34,0,4.0584e+08,132.07,12991,12124,1,12124,1,6.0234e-05,1.2379e-10,0,0.00054861,-1.1033e-05,2.2328e+07,37.785,0,2.0391e+08,-11.552,12123,11209,1,11209,1,-0.00099781,-9.8573e-10,0,2.1047e-05,-0.00020909,-4.0584e+08,-309.03,0,7.7963e+06,-102.19,11208,11690,1,11690,1,-0.00048838,-2.3869e-10,0,0.00027431,-0.00011374,-1.9864e+08,-75.132,0,1.058e+08,-32.768,11689,12558,1,12558,1,0.00060885,5.6333e-10,0,0.00082292,9.1672e-05,2.046e+08,172.94,0,2.9033e+08,14.82,12557,502.62,0,502.62,0,0.00063326,7.2821e-10,0,0.00031914,0.00011857,2.2846e+08,230.34,0,1.1167e+08,37.616,502.62,1
1736,3.81,12124,1,12124,1,6.0747e-05,2.0939e-09,0,0.00055165,-1.1117e-05,30.359,659.87,0,1.9966e+08,8.3053,12123,12992,1,12992,1,0.0011217,5.1885e-09,0,0.0011217,0.00018762,3.4491e+08,1644.3,0,4.0682e+08,117.03,12991,12124,1,12124,1,6.0747e-05,2.0807e-09,0,0.00055012,-1.1127e-05,2.2507e+07,646.6,0,2.0435e+08,4.5264,12123,11209,1,11209,1,-0.0010002,-6.0355e-10,0,2.1453e-05,-0.00020973,-4.0682e+08,-206.71,0,7.9465e+06,-88.478,11208,11690,1,11690,1,-0.00048937,9.4532e-10,0,0.00027506,-0.00011412,-1.9904e+08,288.38,0,1.0605e+08,-19.521,11689,12558,1,12558,1,0.00061086,3.2365e-09,0,0.00082517,9.1858e-05,2.0504e+08,1020,0,2.9079e+08,36.137,12557,502.62,0,502.62,0,0.00063499,1.4567e-09,0,0.00032003,0.00011889,2.2892e+08,466.48,0,1.1188e+08,40.74,502.62,1
1736,3.82,12124,1,12124,1,6.1265e-05,9.1031e-10,0,0.00055317,-1.1212e-05,283.16,295.61,0,2.0007e+08,-8.7063,12123,12992,1,12992,1,0.0011251,5.0251e-09,0,0.0011251,0.00018806,3.4538e+08,1612.4,0,4.0778e+08,167.18,12991,12124,1,12124,1,6.1265e-05,4.1487e-10,0,0.00055161,-1.1221e-05,2.2689e+07,129.36,0,2.0479e+08,-8.5754,12123,11209,1,11209,1,-0.0010026,-1.544e-09,0,2.1863e-05,-0.00021036,-4.0778e+08,-476.08,0,8.0983e+06,-189.41,11208,11690,1,11690,1,-0.00049034,-3.3776e-10,0,0.00027581,-0.00011449,-1.9944e+08,-98.031,0,1.063e+08,-50.951,11689,12558,1,12558,1,0.00061287,1.9886e-09,0,0.00082742,9.2042e-05,2.0548e+08,636.28,0,2.9124e+08,37.233,12557,502.62,0,502.62,0,0.00063672,1.5441e-09,0,0.00032093,0.00011921,2.2938e+08,494.39,0,1.1209e+08,63.187,502.62,1
1736,3.83,12124,1,12124,1,6.1784e-05,2.0478e-10,0,0.00055471,-1.1307e-05,-241.96,73.001,0,2.0048e+08,12.355,12123,12992,1,12992,1,0.0011285,2.5526e-09,0,0.0011285,0.00018851,3.4585e+08,824.32,0,4.0875e+08,116.58,12991,12124,1,12124,1,6.1785e-05,4.7958e-11,0,0.00055311,-1.1316e-05,2.2871e+07,15.618,0,2.0523e+08,16.657,12123,11209,1,11209,1,-0.0010049,-1.5693e-09,0,2.2275e-05,-0.000211,-4.0875e+08,-490.22,0,8.2506e+06,-108.26,11208,11690,1,11690,1,-0.00049133,-4.0918e-10,0,0.00027656,-0.00011487,-1.9984e+08,-124.62,0,1.0655e+08,-8.0178,11689,12558,1,12558,1,0.0006149,8.37e-10,0,0.00082968,9.2228e-05,2.0592e+08,267.66,0,2.917e+08,38.104,12557,502.62,0,502.62,0,0.00063846,9.3611e-10,0,0.00032183,0.00011954,2.2984e+08,301.53,0,1.123e+08,36.213,502.62,1
1736,3.84,12124,1,12124,1,6.2311e-05,-6.5698e-10,0,0.00055624,-1.1404e-05,19.358,-203.18,0,2.0089e+08,10.29,12123,12992,1,12992,1,0.0011319,2.5841e-09,0,0.0011319,0.00018895,3.4632e+08,830.91,0,4.0971e+08,152.49,12991,12124,1,12124,1,6.2311e-05,-4.2789e-10,0,0.00055462,-1.1412e-05,2.3055e+07,-130.68,0,2.0567e+08,4.809,12123,11209,1,11209,1,-0.0010073,-3.3925e-09,0,2.2695e-05,-0.00021164,-4.0971e+08,-1061.3,0,8.4057e+06,-95.742,11208,11690,1,11690,1,-0.00049231,-1.6603e-09,0,0.00027731,-0.00011524,-2.0023e+08,-514.14,0,1.068e+08,-25.82,11689,12558,1,12558,1,0.00061693,2.877e-10,0,0.00083193,9.2412e-05,2.0637e+08,92.762,0,2.9216e+08,41.607,12557,502.62,0,502.62,0,0.00064019,1.2945e-09,0,0.00032273,0.00011986,2.303e+08,409.66,0,1.1251e+08,49.148,502.62,1
1736,3.85,12124,1,12124,1,6.2841e-05,1.4345e-09,0,0.00055778,-1.1501e-05,135.98,449.45,0,2.0131e+08,-17.169,12123,12992,1,12992,1,0.0011354,3.4514e-09,0,0.0011354,0.0001894,3.4679e+08,1064,0,4.1068e+08,97.865,12991,12124,1,12124,1,6.2841e-05,1.4243e-09,0,0.00055613,-1.1508e-05,2.324e+07,434.71,0,2.0611e+08,-14.964,12123,11209,1,11209,1,-0.0010097,-3.5002e-10,0,2.3117e-05,-0.00021228,-4.1068e+08,-119.88,0,8.5615e+06,-137.72,11208,11690,1,11690,1,-0.00049329,6.8461e-10,0,0.00027807,-0.00011562,-2.0063e+08,213.2,0,1.0704e+08,-41.241,11689,12558,1,12558,1,0.00061897,2.165e-09,0,0.0008342,9.2597e-05,2.0681e+08,681.42,0,2.9261e+08,8.498,12557,502.62,0,502.62,0,0.00064194,9.7215e-10,0,0.00032363,0.00012019,2.3077e+08,311.05,0,1.1272e+08,41.405,502.62,1
1736,3.86,12124,1,12124,1,6.3373e-05,3.4383e-09,0,0.0005593,-1.1598e-05,23.697,1086.6,0,2.0171e+08,1.3969,12123,12992,1,12992,1,0.0011388,9.8981e-09,0,0.0011388,0.00018985,3.4725e+08,3130.1,0,4.1165e+08,340.04,12991,12124,1,12124,1,6.3373e-05,3.0897e-09,0,0.00055762,-1.1605e-05,2.3426e+07,954.41,0,2.0654e+08,2.6745,12123,11209,1,11209,1,-0.0010121,-1.6586e-09,0,2.3542e-05,-0.00021292,-4.1165e+08,-568.07,0,8.7178e+06,-300.39,11208,11690,1,11690,1,-0.00049425,9.1578e-10,0,0.00027881,-0.000116,-2.0102e+08,263.23,0,1.0729e+08,-78.644,11689,12558,1,12558,1,0.000621,5.839e-09,0,0.00083644,9.2778e-05,2.0724e+08,1840,0,2.9305e+08,82.637,12557,502.62,0,502.62,0,0.00064366,3.0368e-09,0,0.00032452,0.00012051,2.3122e+08,970.14,0,1.1292e+08,115.09,502.62,1
1736,3.87,12124,1,12124,1,6.3907e-05,3.414e-09,0,0.00056085,-1.1696e-05,220.91,1090.5,0,2.0212e+08,-28.885,12123,12992,1,12992,1,0.0011423,9.5532e-09,0,0.0011423,0.00019029,3.4771e+08,3153.8,0,4.1262e+08,337.69,12991,12124,1,12124,1,6.3907e-05,3.1221e-09,0,0.00055913,-1.1703e-05,2.3612e+07,963.38,0,2.0698e+08,-22.725,12123,11209,1,11209,1,-0.0010145,-1.6568e-09,0,2.3966e-05,-0.00021356,-4.1262e+08,-529.67,0,8.8738e+06,-341.92,11208,11690,1,11690,1,-0.00049523,9.8821e-10,0,0.00027957,-0.00011638,-2.0142e+08,301.74,0,1.0754e+08,-109.57,11689,12558,1,12558,1,0.00062305,5.7445e-09,0,0.00083871,9.2962e-05,2.0769e+08,1837,0,2.935e+08,54.555,12557,502.62,0,502.62,0,0.00064541,2.965e-09,0,0.00032543,0.00012083,2.3168e+08,960.44,0,1.1314e+08,120.54,502.62,1
1736,3.88,12124,1,12124,1,6.4447e-05,1.642e-09,0,0.00056238,-1.1794e-05,-65.32,537.72,0,2.0252e+08,-13.313,12123,12992,1,12992,1,0.0011457,5.2772e-09,0,0.0011457,0.00019073,3.4816e+08,1713.8,0,4.1357e+08,208.32,12991,12124,1,12124,1,6.4447e-05,1.4224e-09,0,0.00056064,-1.1801e-05,2.38e+07,448.13,0,2.0741e+08,-14.474,12123,11209,1,11209,1,-0.0010168,-9.3489e-10,0,2.4397e-05,-0.0002142,-4.1357e+08,-240.09,0,9.0322e+06,-211.03,11208,11690,1,11690,1,-0.00049619,2.3261e-10,0,0.00028033,-0.00011676,-2.0181e+08,70.482,0,1.0779e+08,-72.087,11689,12558,1,12558,1,0.00062509,2.933e-09,0,0.00084097,9.3144e-05,2.0812e+08,948.64,0,2.9394e+08,43.835,12557,502.62,0,502.62,0,0.00064714,1.6325e-09,0,0.00032634,0.00012116,2.3213e+08,536.77,0,1.1334e+08,83.581,502.62,1
1736,3.89,12124,1,12124,1,6.499e-05,-2.5811e-10,0,0.00056393,-1.1893e-05,-157.52,-64.826,0,2.0293e+08,6.3951,12123,12992,1,12992,1,0.0011492,1.6331e-09,0,0.0011492,0.00019118,3.4862e+08,559.05,0,4.1454e+08,130.06,12991,12124,1,12124,1,6.4991e-05,-2.6313e-10,0,0.00056216,-1.1901e-05,2.3989e+07,-82.375,0,2.0785e+08,-1.2159,12123,11209,1,11209,1,-0.0010192,-1.5258e-09,0,2.4833e-05,-0.00021484,-4.1454e+08,-447.38,0,9.1922e+06,-90.302,11208,11690,1,11690,1,-0.00049717,-9.3925e-10,0,0.00028108,-0.00011714,-2.0221e+08,-268.55,0,1.0803e+08,-18.727,11689,12558,1,12558,1,0.00062715,2.8364e-10,0,0.00084324,9.3327e-05,2.0856e+08,94.876,0,2.9439e+08,27.388,12557,502.62,0,502.62,0,0.0006489,7.9139e-10,0,0.00032725,0.00012149,2.3259e+08,244.78,0,1.1355e+08,36.625,502.62,1
1736,3.9,12124,1,12124,1,6.5538e-05,-8.1449e-10,0,0.00056546,-1.1994e-05,79.588,-249.81,0,2.0333e+08,17.642,12123,12992,1,12992,1,0.0011526,1.7957e-09,0,0.0011526,0.00019162,3.4906e+08,576.16,0,4.1549e+08,133.58,12991,12124,1,12124,1,6.5539e-05,-4.8612e-10,0,0.00056366,-1.2001e-05,2.418e+07,-145.6,0,2.0828e+08,15.183,12123,11209,1,11209,1,-0.0010215,-3.7493e-09,0,2.5276e-05,-0.00021548,-4.1549e+08,-1168.9,0,9.3546e+06,-84.594,11208,11690,1,11690,1,-0.00049812,-1.8222e-09,0,0.00028183,-0.00011752,-2.026e+08,-563.78,0,1.0828e+08,-12.937,11689,12558,1,12558,1,0.0006292,2.2053e-10,0,0.00084549,9.3506e-05,2.0899e+08,71.277,0,2.9486e+08,46.017,12557,502.62,0,502.62,0,0.00065063,1.3285e-09,0,0.00032815,0.00012181,2.3304e+08,416.83,0,1.1376e+08,45.306,502.62,1
1736,3.91,12124,1,12124,1,6.6086e-05,1.732e-09,0,0.000567,-1.2094e-05,16.146,541.02,0,2.0374e+08,-14.495,12123,12992,1,12992,1,0.0011561,3.99e-09,0,0.0011561,0.00019206,3.495e+08,1247.8,0,4.1645e+08,167.45,12991,12124,1,12124,1,6.6086e-05,1.7852e-09,0,0.00056517,-1.2101e-05,2.437e+07,546.34,0,2.0871e+08,-15.314,12123,11209,1,11209,1,-0.0010239,-4.9045e-10,0,2.5716e-05,-0.00021612,-4.1645e+08,-167.98,0,9.5157e+06,-151.06,11208,11690,1,11690,1,-0.00049908,8.1147e-10,0,0.00028258,-0.0001179,-2.0299e+08,249.03,0,1.0852e+08,-47.815,11689,12558,1,12558,1,0.00063125,2.6279e-09,0,0.00084775,9.3687e-05,2.0943e+08,826.63,0,2.9538e+08,16.566,12557,502.62,0,502.62,0,0.00065237,1.1722e-09,0,0.00032905,0.00012213,2.3349e+08,374.45,0,1.1396e+08,56.677,502.62,1
1736,3.92,12124,1,12124,1,6.6639e-05,2.4314e-09,0,0.00056855,-1.2195e-05,265.74,768.5,0,2.0414e+08,-20.081,12123,12992,1,12992,1,0.0011596,5.1884e-09,0,0.0011596,0.00019251,3.4995e+08,1696,0,4.1742e+08,216.53,12991,12124,1,12124,1,6.6639e-05,2.6728e-09,0,0.00056668,-1.2202e-05,2.4561e+07,847.72,0,2.0915e+08,-17.823,12123,11209,1,11209,1,-0.0010263,-8.1279e-10,0,2.6161e-05,-0.00021677,-4.1742e+08,-264.08,0,9.6782e+06,-176.11,11208,11690,1,11690,1,-0.00050004,1.1543e-09,0,0.00028334,-0.00011828,-2.0338e+08,329.98,0,1.0877e+08,-64.925,11689,12558,1,12558,1,0.00063332,3.7802e-09,0,0.00085002,9.3868e-05,2.0986e+08,1212.9,0,2.959e+08,28.074,12557,502.62,0,502.62,0,0.00065412,1.6264e-09,0,0.00032997,0.00012246,2.3395e+08,525.68,0,1.1417e+08,68.37,502.62,1
1736,3.93,12124,1,12124,1,6.7194e-05,-1.8123e-09,0,0.00057008,-1.2296e-05,-281.24,-553.55,0,2.0454e+08,53.616,12123,12992,1,12992,1,0.001163,3.7325e-09,0,0.001163,0.00019295,3.5038e+08,1221.8,0,4.1837e+08,309.55,12991,12124,1,12124,1,6.7195e-05,-1.3848e-09,0,0.00056818,-1.2303e-05,2.4754e+07,-425.41,0,2.0957e+08,38.857,12123,11209,1,11209,1,-0.0010286,-7.3424e-09,0,2.6607e-05,-0.00021741,-4.1837e+08,-2273.6,0,9.8412e+06,-168.85,11208,11690,1,11690,1,-0.00050099,-4.0098e-09,0,0.00028409,-0.00011867,-2.0376e+08,-1238.7,0,1.0901e+08,-26.192,11689,12558,1,12558,1,0.00063537,3.7537e-10,0,0.00085227,9.4047e-05,2.1029e+08,118.96,0,2.9641e+08,130.16,12557,502.62,0,502.62,0,0.00065585,2.6684e-09,0,0.00033087,0.00012278,2.3439e+08,829.69,0,1.1437e+08,104.06,502.62,1
1736,3.94,12124,1,12124,1,6.7753e-05,-1.5952e-10,0,0.00057163,-1.2399e-05,-287.59,-52.47,0,2.0494e+08,-4.5888,12123,12992,1,12992,1,0.0011665,7.9395e-10,0,0.0011665,0.00019339,3.5081e+08,271.77,0,4.1932e+08,188.45,12991,12124,1,12124,1,6.7753e-05,-1.0457e-10,0,0.0005697,-1.2405e-05,2.4947e+07,-30.121,0,2.1e+08,-7.6981,12123,11209,1,11209,1,-0.0010309,-1.1409e-09,0,2.7059e-05,-0.00021805,-4.1932e+08,-390.53,0,1.0006e+07,-122.31,11208,11690,1,11690,1,-0.00050194,-3.4923e-10,0,0.00028485,-0.00011905,-2.0415e+08,-110.68,0,1.0926e+08,-41.569,11689,12558,1,12558,1,0.00063745,6.1603e-11,0,0.00085455,9.4227e-05,2.1073e+08,17.545,0,2.9693e+08,24.374,12557,502.62,0,502.62,0,0.0006576,3.3614e-10,0,0.00033178,0.00012311,2.3485e+08,111.92,0,1.1458e+08,56.126,502.62,1
1736,3.95,12124,1,12124,1,6.8317e-05,-2.3097e-09,0,0.00057317,-1.2502e-05,-61.657,-723.1,0,2.0533e+08,38.196,12123,12992,1,12992,1,0.00117,1.4845e-09,0,0.00117,0.00019383,3.5124e+08,508.45,0,4.2029e+08,315.97,12991,12124,1,12124,1,6.8317e-05,-1.9638e-09,0,0.0005712,-1.2509e-05,2.5142e+07,-600.01,0,2.1043e+08,29.407,12123,11209,1,11209,1,-0.0010333,-7.5298e-09,0,2.7516e-05,-0.0002187,-4.2029e+08,-2352,0,1.0172e+07,-190.82,11208,11690,1,11690,1,-0.00050289,-4.3176e-09,0,0.0002856,-0.00011944,-2.0454e+08,-1347.1,0,1.095e+08,-36.716,11689,12558,1,12558,1,0.00063952,-9.6887e-11,0,0.00085681,9.4404e-05,2.1116e+08,-26.344,0,2.9744e+08,96.5,12557,502.62,0,502.62,0,0.00065933,2.3899e-09,0,0.00033269,0.00012343,2.3529e+08,752.53,0,1.1478e+08,101.8,502.62,1
1736,3.96,12124,1,12124,1,6.8879e-05,-2.439e-09,0,0.00057469,-1.2605e-05,-104.28,-773.2,0,2.0572e+08,58.524,12123,12992,1,12992,1,0.0011734,4.7246e-09,0,0.0011734,0.00019427,3.5166e+08,1485,0,4.2123e+08,359.86,12991,12124,1,12124,1,6.8879e-05,-1.6932e-09,0,0.00057269,-1.2611e-05,2.5336e+07,-510.8,0,2.1085e+08,51.236,12123,11209,1,11209,1,-0.0010356,-1.0603e-08,0,2.797e-05,-0.00021934,-4.2123e+08,-3310.8,0,1.0337e+07,-192.57,11208,11690,1,11690,1,-0.00050381,-5.2423e-09,0,0.00028635,-0.00011982,-2.0491e+08,-1639.1,0,1.0974e+08,-24.144,11689,12558,1,12558,1,0.00064157,4.3459e-10,0,0.00085904,9.4579e-05,2.1158e+08,125.86,0,2.9794e+08,143.36,12557,502.62,0,502.62,0,0.00066105,3.6639e-09,0,0.00033359,0.00012375,2.3573e+08,1157.6,0,1.1498e+08,114.5,502.62,1
1736,3.97,12124,1,12124,1,6.9448e-05,-1.8268e-09,0,0.00057626,-1.2709e-05,104.92,-587.96,0,2.0613e+08,-14.959,12123,12992,1,12992,1,0.0011769,1.0662e-09,0,0.0011769,0.00019472,3.521e+08,310.77,0,4.222e+08,113.13,12991,12124,1,12124,1,6.9449e-05,-1.8125e-09,0,0.00057423,-1.2716e-05,2.5532e+07,-558.93,0,2.1129e+08,-9.6412,12123,11209,1,11209,1,-0.001038,-4.9752e-09,0,2.8429e-05,-0.00022,-4.222e+08,-1609.5,0,1.0504e+07,-220.78,11208,11690,1,11690,1,-0.00050478,-2.989e-09,0,0.00028712,-0.00012021,-2.0531e+08,-963.67,0,1.0999e+08,-59.208,11689,12558,1,12558,1,0.00064368,-5.9461e-10,0,0.00086135,9.4761e-05,2.1202e+08,-167.75,0,2.9847e+08,40.325,12557,502.62,0,502.62,0,0.00066283,1.5219e-09,0,0.00033452,0.00012408,2.3619e+08,498.52,0,1.1519e+08,70.457,502.62,1
1736,3.98,12124,1,12124,1,7.0027e-05,-1.5802e-09,0,0.0005778,-1.2815e-05,435.48,-508.44,0,2.0652e+08,24.224,12123,12992,1,12992,1,0.0011804,2.4381e-09,0,0.0011804,0.00019515,3.5251e+08,763.92,0,4.2315e+08,259.26,12991,12124,1,12124,1,7.0027e-05,-1.2258e-09,0,0.00057573,-1.2822e-05,2.5732e+07,-375.82,0,2.1171e+08,26.973,12123,11209,1,11209,1,-0.0010403,-6.2935e-09,0,2.89e-05,-0.00022065,-4.2315e+08,-2013.3,0,1.0675e+07,-175.29,11208,11690,1,11690,1,-0.00050571,-3.3735e-09,0,0.00028787,-0.00012059,-2.0568e+08,-1068.5,0,1.1023e+08,-44.488,11689,12558,1,12558,1,0.00064577,2.3702e-10,0,0.00086361,9.4937e-05,2.1244e+08,75.979,0,2.9897e+08,82.663,12557,502.62,0,502.62,0,0.00066457,2.1667e-09,0,0.00033543,0.00012441,2.3662e+08,690.63,0,1.1539e+08,91.667,502.62,1
1736,3.99,12124,1,12124,1,7.0601e-05,-1.7705e-09,0,0.00057935,-1.292e-05,-26.667,-567.4,0,2.0692e+08,-0.79656,12123,12992,1,12992,1,0.0011839,1.3636e-09,0,0.0011839,0.0001956,3.5293e+08,466.85,0,4.241e+08,177.32,12991,12124,1,12124,1,7.06e-05,-1.4589e-09,0,0.00057725,-1.2927e-05,2.5929e+07,-438.87,0,2.1214e+08,8.716,12123,11209,1,11209,1,-0.0010427,-6.6776e-09,0,2.9366e-05,-0.0002213,-4.241e+08,-2128.9,0,1.0844e+07,-221.55,11208,11690,1,11690,1,-0.00050666,-3.344e-09,0,0.00028863,-0.00012098,-2.0607e+08,-1070.1,0,1.1048e+08,-52.974,11689,12558,1,12558,1,0.00064786,5.4295e-11,0,0.00086589,9.5115e-05,2.1287e+08,15.686,0,2.9948e+08,52.963,12557,502.62,0,502.62,0,0.00066632,2.0489e-09,0,0.00033635,0.00012474,2.3707e+08,659.19,0,1.1559e+08,73.428,502.62,1
1736,4,12124,1,12124,1,7.1187e-05,-1.2756e-09,0,0.00058091,-1.3027e-05,2.3812,-412.11,0,2.0732e+08,-14.226,12123,12992,1,12992,1,0.0011874,8.9273e-10,0,0.0011874,0.00019604,3.5334e+08,233.92,0,4.2506e+08,104.81,12991,12124,1,12124,1,7.1187e-05,-1.3458e-09,0,0.00057878,-1.3034e-05,2.613e+07,-423.32,0,2.1256e+08,-5.517,12123,11209,1,11209,1,-0.0010451,-3.1784e-09,0,2.9843e-05,-0.00022195,-4.2506e+08,-1067.5,0,1.1016e+07,-212.74,11208,11690,1,11690,1,-0.00050759,-2.2532e-09,0,0.00028939,-0.00012137,-2.0645e+08,-721.48,0,1.1072e+08,-53.823,11689,12558,1,12558,1,0.00064997,-3.3491e-10,0,0.00086818,9.5292e-05,2.133e+08,-97.529,0,2.9999e+08,31.301,12557,502.62,0,502.62,0,0.00066809,1.1162e-09,0,0.00033727,0.00012507,2.3752e+08,361.86,0,1.1579e+08,61.316,502.62,1
1736,4.01,12124,1,12124,1,7.1774e-05,-1.6794e-09,0,0.00058246,-1.3134e-05,-135.02,-535.2,0,2.0771e+08,22.165,12123,12992,1,12992,1,0.0011909,9.4268e-10,0,0.0011909,0.00019647,3.5375e+08,236.28,0,4.2601e+08,196.92,12991,12124,1,12124,1,7.1774e-05,-1.5938e-09,0,0.00058029,-1.3142e-05,2.6332e+07,-505.92,0,2.1298e+08,24.527,12123,11209,1,11209,1,-0.0010474,-4.1121e-09,0,3.0322e-05,-0.0002226,-4.2601e+08,-1312.6,0,1.1189e+07,-146.96,11208,11690,1,11690,1,-0.00050852,-2.7905e-09,0,0.00029015,-0.00012176,-2.0683e+08,-890.12,0,1.1096e+08,-28.355,11689,12558,1,12558,1,0.00065207,-5.9685e-10,0,0.00087044,9.5466e-05,2.1372e+08,-172.73,0,3.0049e+08,70.392,12557,502.62,0,502.62,0,0.00066983,1.3199e-09,0,0.00033819,0.00012539,2.3795e+08,427.86,0,1.1599e+08,68.633,502.62,1
1736,4.02,12124,1,12124,1,7.2362e-05,8.6277e-10,0,0.00058401,-1.3242e-05,-80.102,255.87,0,2.081e+08,5.519,12123,12992,1,12992,1,0.0011944,2.3766e-09,0,0.0011944,0.00019691,3.5415e+08,706.84,0,4.2695e+08,142.64,12991,12124,1,12124,1,7.2363e-05,7.9006e-10,0,0.00058181,-1.325e-05,2.6534e+07,233.96,0,2.1341e+08,3.2754,12123,11209,1,11209,1,-0.0010497,-3.8207e-10,0,3.0802e-05,-0.00022325,-4.2695e+08,-130.85,0,1.1363e+07,-135.17,11208,11690,1,11690,1,-0.00050945,1.5106e-10,0,0.00029091,-0.00012215,-2.0721e+08,43.999,0,1.112e+08,-35.286,11689,12558,1,12558,1,0.00065418,1.5031e-09,0,0.00087272,9.5642e-05,2.1415e+08,451.67,0,3.0099e+08,43.808,12557,502.62,0,502.62,0,0.00067158,7.6779e-10,0,0.00033911,0.00012572,2.3839e+08,227.87,0,1.1619e+08,52.56,502.62,1
1736,4.03,12124,1,12124,1,7.2954e-05,4.0446e-09,0,0.00058555,-1.335e-05,76.62,1258.8,0,2.0849e+08,31.649,12123,12992,1,12992,1,0.001198,1.2691e-08,0,0.001198,0.00019735,3.5455e+08,3926.8,0,4.2791e+08,394.27,12991,12124,1,12124,1,7.2954e-05,3.0829e-09,0,0.00058332,-1.3358e-05,2.6736e+07,938.55,0,2.1382e+08,24.857,12123,11209,1,11209,1,-0.0010521,-1.2483e-09,0,3.1288e-05,-0.00022391,-4.2791e+08,-427.52,0,1.1538e+07,-371.32,11208,11690,1,11690,1,-0.00051037,7.2969e-10,0,0.00029166,-0.00012254,-2.0758e+08,224.32,0,1.1144e+08,-62.291,11689,12558,1,12558,1,0.00065628,7.0327e-09,0,0.00087498,9.5815e-05,2.1457e+08,2171.1,0,3.0148e+08,138.44,12557,502.62,0,502.62,0,0.00067332,3.7718e-09,0,0.00034003,0.00012604,2.3883e+08,1188.5,0,1.1639e+08,144.43,502.62,1
1736,4.04,12124,1,12124,1,7.3548e-05,2.1141e-09,0,0.0005871,-1.3459e-05,106.24,676.8,0,2.0888e+08,-24.393,12123,12992,1,12992,1,0.0012015,6.8796e-09,0,0.0012015,0.00019779,3.5495e+08,2222.5,0,4.2885e+08,231.31,12991,12124,1,12124,1,7.3548e-05,1.8005e-09,0,0.00058483,-1.3467e-05,2.6939e+07,546.76,0,2.1424e+08,-21.904,12123,11209,1,11209,1,-0.0010544,-1.2217e-09,0,3.1771e-05,-0.00022456,-4.2885e+08,-317.83,0,1.1712e+07,-301.71,11208,11690,1,11690,1,-0.00051129,3.529e-10,0,0.00029242,-0.00012294,-2.0795e+08,105.17,0,1.1168e+08,-90.649,11689,12558,1,12558,1,0.00065839,3.6672e-09,0,0.00087726,9.5989e-05,2.1499e+08,1155.5,0,3.0198e+08,50.368,12557,502.62,0,502.62,0,0.00067507,2.077e-09,0,0.00034095,0.00012637,2.3926e+08,674.46,0,1.1659e+08,108,502.62,1
1736,4.05,12124,1,12124,1,7.4145e-05,8.905e-10,0,0.00058865,-1.3568e-05,45.697,297.63,0,2.0926e+08,9.7773,12123,12992,1,12992,1,0.001205,8.077e-09,0,0.001205,0.00019822,3.5533e+08,2567.2,0,4.2979e+08,303.1,12991,12124,1,12124,1,7.4146e-05,1.8091e-10,0,0.00058634,-1.3577e-05,2.7143e+07,57.629,0,2.1466e+08,-5.3945,12123,11209,1,11209,1,-0.0010567,-3.2306e-09,0,3.226e-05,-0.00022521,-4.2979e+08,-983.06,0,1.1887e+07,-251.72,11208,11690,1,11690,1,-0.0005122,-1.0361e-09,0,0.00029318,-0.00012333,-2.0832e+08,-290.55,0,1.1192e+08,-62.968,11689,12558,1,12558,1,0.0006605,2.6517e-09,0,0.00087953,9.6161e-05,2.1541e+08,824.69,0,3.0246e+08,78.611,12557,502.62,0,502.62,0,0.00067681,2.7114e-09,0,0.00034187,0.00012669,2.397e+08,861.59,0,1.1679e+08,104.15,502.62,1
1736,4.06,12124,1,12124,1,7.4747e-05,3.1217e-09,0,0.00059021,-1.3678e-05,-15.547,984.04,0,2.0965e+08,-24.153,12123,12992,1,12992,1,0.0012086,8.1754e-09,0,0.0012086,0.00019866,3.5574e+08,2585.2,0,4.3075e+08,260.95,12991,12124,1,12124,1,7.4748e-05,3.0893e-09,0,0.00058787,-1.3687e-05,2.7349e+07,951.87,0,2.1508e+08,-16.11,12123,11209,1,11209,1,-0.001059,-1.2342e-09,0,3.2754e-05,-0.00022588,-4.3075e+08,-313.36,0,1.2065e+07,-350.69,11208,11690,1,11690,1,-0.00051313,1.3379e-09,0,0.00029394,-0.00012372,-2.087e+08,393.17,0,1.1217e+08,-98.098,11689,12558,1,12558,1,0.00066263,4.796e-09,0,0.00088182,9.6335e-05,2.1583e+08,1512.8,0,3.0296e+08,52.241,12557,502.62,0,502.62,0,0.00067858,2.3053e-09,0,0.0003428,0.00012702,2.4014e+08,748.43,0,1.1699e+08,120.54,502.62,1
1736,4.07,12124,1,12124,1,7.5354e-05,-1.576e-09,0,0.00059175,-1.3789e-05,-13.711,-467.17,0,2.1003e+08,45.365,12123,12992,1,12992,1,0.001212,5.8101e-09,0,0.001212,0.00019909,3.5611e+08,1890.7,0,4.3168e+08,306.57,12991,12124,1,12124,1,7.5355e-05,-1.1471e-09,0,0.00058938,-1.3798e-05,2.7556e+07,-348.63,0,2.1549e+08,17.751,12123,11209,1,11209,1,-0.0010613,-7.815e-09,0,3.3252e-05,-0.00022652,-4.3168e+08,-2395,0,1.2243e+07,-199.89,11208,11690,1,11690,1,-0.00051402,-4.0582e-09,0,0.00029469,-0.00012411,-2.0907e+08,-1229,0,1.124e+08,-33.291,11689,12558,1,12558,1,0.00066473,6.8382e-10,0,0.00088406,9.6504e-05,2.1624e+08,218.45,0,3.0344e+08,131.95,12557,502.62,0,502.62,0,0.00068031,3.1199e-09,0,0.00034371,0.00012735,2.4056e+08,968.45,0,1.1718e+08,108.48,502.62,1
1736,4.08,12124,1,12124,1,7.5963e-05,-1.7321e-09,0,0.00059333,-1.3901e-05,-71.066,-536.91,0,2.1042e+08,-7.9445,12123,12992,1,12992,1,0.0012156,8.5033e-10,0,0.0012156,0.00019954,3.5651e+08,291.23,0,4.3264e+08,139.88,12991,12124,1,12124,1,7.5963e-05,-1.5808e-09,0,0.00059092,-1.391e-05,2.7763e+07,-479.61,0,2.1591e+08,-4.5981,12123,11209,1,11209,1,-0.0010637,-5.0386e-09,0,3.3754e-05,-0.00022719,-4.3264e+08,-1590.1,0,1.2423e+07,-154.46,11208,11690,1,11690,1,-0.00051496,-2.8937e-09,0,0.00029546,-0.00012451,-2.0944e+08,-899.86,0,1.1265e+08,-44.095,11689,12558,1,12558,1,0.00066688,-4.7899e-10,0,0.00088638,9.668e-05,2.1667e+08,-149.58,0,3.0394e+08,23.383,12557,502.62,0,502.62,0,0.00068209,1.4998e-09,0,0.00034465,0.00012768,2.41e+08,477.61,0,1.1738e+08,57.015,502.62,1
1736,4.09,12124,1,12124,1,7.6581e-05,1.9839e-09,0,0.00059488,-1.4014e-05,-99.981,607.74,0,2.1081e+08,-17.24,12123,12992,1,12992,1,0.0012192,5.2023e-09,0,0.0012192,0.00019997,3.5688e+08,1603.8,0,4.3358e+08,138.96,12991,12124,1,12124,1,7.6582e-05,2.0113e-09,0,0.00059244,-1.4024e-05,2.7973e+07,601.28,0,2.1633e+08,-8.5182,12123,11209,1,11209,1,-0.001066,-7.8061e-10,0,3.4263e-05,-0.00022785,-4.3358e+08,-267.35,0,1.2605e+07,-206.75,11208,11690,1,11690,1,-0.00051586,7.2239e-10,0,0.00029622,-0.00012491,-2.0981e+08,222.84,0,1.1288e+08,-62.934,11689,12558,1,12558,1,0.00066902,3.1902e-09,0,0.00088866,9.685e-05,2.1708e+08,982.86,0,3.0442e+08,33.045,12557,502.62,0,502.62,0,0.00068385,1.5817e-09,0,0.00034558,0.00012801,2.4143e+08,494.58,0,1.1758e+08,74.337,502.62,1
1736,4.1,12124,1,12124,1,7.7202e-05,4.974e-10,0,0.00059646,-1.4127e-05,-32.611,161.99,0,2.1119e+08,-19.505,12123,12992,1,12992,1,0.0012227,1.4691e-09,0,0.0012227,0.00020041,3.5726e+08,479.95,0,4.3453e+08,78.712,12991,12124,1,12124,1,7.7202e-05,5.4735e-10,0,0.00059397,-1.4138e-05,2.8184e+07,170.39,0,2.1674e+08,-13.697,12123,11209,1,11209,1,-0.0010683,-1.0428e-09,0,3.4774e-05,-0.00022851,-4.3453e+08,-282.23,0,1.2788e+07,-130.2,11208,11690,1,11690,1,-0.00051677,2.4853e-11,0,0.00029699,-0.00012531,-2.1018e+08,8.4162,0,1.1312e+08,-47.578,11689,12558,1,12558,1,0.00067118,9.9803e-10,0,0.00089096,9.7023e-05,2.175e+08,319.98,0,3.0491e+08,9.8498,12557,502.62,0,502.62,0,0.00068562,5.9833e-10,0,0.00034652,0.00012834,2.4187e+08,186.65,0,1.1778e+08,47.137,502.62,1
1736,4.11,12124,1,12124,1,7.7827e-05,-7.7831e-10,0,0.00059802,-1.4241e-05,-45.701,-234.51,0,2.1157e+08,39.001,12123,12992,1,12992,1,0.0012263,2.8497e-09,0,0.0012263,0.00020084,3.5762e+08,877.52,0,4.3547e+08,216.32,12991,12124,1,12124,1,7.7827e-05,-5.0034e-10,0,0.0005955,-1.4253e-05,2.8396e+07,-158.62,0,2.1716e+08,32.7,12123,11209,1,11209,1,-0.0010706,-3.841e-09,0,3.529e-05,-0.00022917,-4.3547e+08,-1181.2,0,1.2972e+07,-116.8,11208,11690,1,11690,1,-0.00051767,-1.9718e-09,0,0.00029775,-0.00012571,-2.1055e+08,-592.09,0,1.1336e+08,-4.8037,11689,12558,1,12558,1,0.00067332,2.4835e-10,0,0.00089324,9.7192e-05,2.1792e+08,72.793,0,3.0539e+08,86.209,12557,502.62,0,502.62,0,0.00068738,1.5314e-09,0,0.00034745,0.00012866,2.4229e+08,471.82,0,1.1797e+08,61.826,502.62,1
1736,4.12,12124,1,12124,1,7.8451e-05,-1.3596e-09,0,0.00059956,-1.4356e-05,8.4329,-420.87,0,2.1195e+08,27.928,12123,12992,1,12992,1,0.0012298,2.7026e-09,0,0.0012298,0.00020127,3.5799e+08,849.97,0,4.364e+08,201.8,12991,12124,1,12124,1,7.8451e-05,-9.5572e-10,0,0.00059701,-1.4367e-05,2.8607e+07,-275.46,0,2.1756e+08,20.332,12123,11209,1,11209,1,-0.0010729,-5.7159e-09,0,3.5807e-05,-0.00022983,-4.364e+08,-1770.8,0,1.3156e+07,-116.77,11208,11690,1,11690,1,-0.00051856,-2.9854e-09,0,0.00029851,-0.0001261,-2.1091e+08,-924.04,0,1.136e+08,-20.812,11689,12558,1,12558,1,0.00067546,2.3404e-10,0,0.00089552,9.7359e-05,2.1832e+08,69.847,0,3.0587e+08,76.036,12557,502.62,0,502.62,0,0.00068912,2.0122e-09,0,0.00034837,0.00012899,2.4271e+08,628.83,0,1.1816e+08,65.301,502.62,1
1736,4.13,12124,1,12124,1,7.908e-05,1.7788e-09,0,0.00060114,-1.4471e-05,251.74,542.6,0,2.1233e+08,-18.62,12123,12992,1,12992,1,0.0012334,4.0505e-09,0,0.0012334,0.00020171,3.5836e+08,1259.5,0,4.3735e+08,94.154,12991,12124,1,12124,1,7.9081e-05,1.8341e-09,0,0.00059854,-1.4483e-05,2.882e+07,538.82,0,2.1798e+08,-6.951,12123,11209,1,11209,1,-0.0010753,-3.7266e-10,0,3.6326e-05,-0.0002305,-4.3735e+08,-127.63,0,1.3341e+07,-173.38,11208,11690,1,11690,1,-0.00051946,8.2628e-10,0,0.00029927,-0.0001265,-2.1128e+08,260.99,0,1.1384e+08,-54.694,11689,12558,1,12558,1,0.00067762,2.6489e-09,0,0.00089781,9.753e-05,2.1874e+08,807.49,0,3.0635e+08,22.326,12557,502.62,0,502.62,0,0.00069089,1.152e-09,0,0.00034931,0.00012932,2.4315e+08,357.72,0,1.1836e+08,54.484,502.62,1
1736,4.14,12124,1,12124,1,7.9714e-05,-2.4287e-09,0,0.00060269,-1.4587e-05,-24.961,-746.21,0,2.1271e+08,-14.372,12123,12992,1,12992,1,0.001237,6.7534e-10,0,0.001237,0.00020214,3.5871e+08,231.3,0,4.3828e+08,88.213,12991,12124,1,12124,1,7.9714e-05,-2.6003e-09,0,0.00060006,-1.46e-05,2.9034e+07,-790.58,0,2.1838e+08,-8.1316,12123,11209,1,11209,1,-0.0010776,-5.4774e-09,0,3.6852e-05,-0.00023116,-4.3828e+08,-1692.1,0,1.3528e+07,-160.85,11208,11690,1,11690,1,-0.00052035,-3.6508e-09,0,0.00030003,-0.0001269,-2.1164e+08,-1127.1,0,1.1407e+08,-46.538,11689,12558,1,12558,1,0.00067978,-1.1987e-09,0,0.00090009,9.7697e-05,2.1915e+08,-352.87,0,3.0682e+08,20.48,12557,502.62,0,502.62,0,0.00069265,1.5984e-09,0,0.00035024,0.00012965,2.4357e+08,497.14,0,1.1855e+08,48.372,502.62,1
1736,4.15,12124,1,12124,1,8.0351e-05,-4.0871e-10,0,0.00060427,-1.4703e-05,-189.18,-137.82,0,2.1309e+08,-7.8401,12123,12992,1,12992,1,0.0012406,8.6048e-10,0,0.0012406,0.00020258,3.5907e+08,238.86,0,4.3922e+08,99.85,12991,12124,1,12124,1,8.035e-05,-3.7825e-10,0,0.00060159,-1.4717e-05,2.9249e+07,-119.33,0,2.1879e+08,4.6498,12123,11209,1,11209,1,-0.0010799,-1.8708e-09,0,3.7377e-05,-0.00023183,-4.3922e+08,-635.76,0,1.3714e+07,-167.82,11208,11690,1,11690,1,-0.00052125,-9.154e-10,0,0.0003008,-0.0001273,-2.12e+08,-289.55,0,1.1431e+08,-46.78,11689,12558,1,12558,1,0.00068195,1.5947e-10,0,0.0009024,9.7866e-05,2.1956e+08,43.684,0,3.073e+08,37.248,12557,502.62,0,502.62,0,0.00069442,6.7242e-10,0,0.00035119,0.00012998,2.4399e+08,210.55,0,1.1875e+08,57.141,502.62,1
1736,4.16,12124,1,12124,1,8.0993e-05,-1.6487e-09,0,0.00060583,-1.4821e-05,-250.9,-518.29,0,2.1346e+08,49.45,12123,12992,1,12992,1,0.0012442,2.5228e-09,0,0.0012442,0.00020301,3.5942e+08,727,0,4.4017e+08,284.62,12991,12124,1,12124,1,8.0992e-05,-1.4892e-09,0,0.00060312,-1.4835e-05,2.9466e+07,-455.53,0,2.192e+08,54.235,12123,11209,1,11209,1,-0.0010822,-5.8405e-09,0,3.7911e-05,-0.0002325,-4.4017e+08,-1816.8,0,1.3903e+07,-210.33,11208,11690,1,11690,1,-0.00052213,-3.3599e-09,0,0.00030156,-0.00012771,-2.1236e+08,-1040.2,0,1.1455e+08,-16.499,11689,12558,1,12558,1,0.00068412,1.3119e-10,0,0.00090469,9.8033e-05,2.1997e+08,42.926,0,3.0777e+08,109.75,12557,502.62,0,502.62,0,0.00069618,2.0344e-09,0,0.00035212,0.0001303,2.4441e+08,633.79,0,1.1894e+08,92.366,502.62,1
1736,4.17,12124,1,12124,1,8.1637e-05,-3.0319e-11,0,0.00060738,-1.4938e-05,-47.276,-22.521,0,2.1383e+08,20.203,12123,12992,1,12992,1,0.0012477,3.2512e-09,0,0.0012477,0.00020344,3.5976e+08,997.7,0,4.4109e+08,203.55,12991,12124,1,12124,1,8.1637e-05,9.5305e-14,0,0.00060464,-1.4953e-05,2.9683e+07,0.050155,0,2.196e+08,16.19,12123,11209,1,11209,1,-0.0010845,-2.4666e-09,0,3.8446e-05,-0.00023316,-4.4109e+08,-791.04,0,1.4093e+07,-116.61,11208,11690,1,11690,1,-0.000523,-1.0391e-09,0,0.00030232,-0.00012811,-2.1272e+08,-335.52,0,1.1478e+08,-28.561,11689,12558,1,12558,1,0.00068628,8.4692e-10,0,0.00090696,9.8198e-05,2.2037e+08,247.52,0,3.0823e+08,59.01,12557,502.62,0,502.62,0,0.00069793,1.3112e-09,0,0.00035306,0.00013063,2.4483e+08,408.52,0,1.1913e+08,66.159,502.62,1
1736,4.18,12124,1,12124,1,8.2282e-05,-1.4262e-09,0,0.00060894,-1.5056e-05,176.33,-445.57,0,2.142e+08,33.375,12123,12992,1,12992,1,0.0012513,4.0192e-09,0,0.0012513,0.00020387,3.601e+08,1255,0,4.4202e+08,221.74,12991,12124,1,12124,1,8.2282e-05,-9.7128e-10,0,0.00060615,-1.5072e-05,2.99e+07,-296.48,0,2.2e+08,33.408,12123,11209,1,11209,1,-0.0010867,-6.5128e-09,0,3.8984e-05,-0.00023382,-4.4202e+08,-2011.6,0,1.4283e+07,-163.23,11208,11690,1,11690,1,-0.00052387,-3.3584e-09,0,0.00030308,-0.00012851,-2.1307e+08,-1039.8,0,1.1501e+08,-32.594,11689,12558,1,12558,1,0.00068844,3.3084e-10,0,0.00090923,9.8362e-05,2.2078e+08,103.19,0,3.0869e+08,101.65,12557,502.62,0,502.62,0,0.00069968,2.4342e-09,0,0.00035399,0.00013096,2.4525e+08,758.97,0,1.1932e+08,83.765,502.62,1
1736,4.19,12124,1,12124,1,8.293e-05,-1.1115e-09,0,0.00061052,-1.5175e-05,20.031,-352.39,0,2.1458e+08,-11.496,12123,12992,1,12992,1,0.0012549,8.7491e-10,0,0.0012549,0.0002043,3.6046e+08,288.26,0,4.4297e+08,160.77,12991,12124,1,12124,1,8.293e-05,-6.181e-10,0,0.0006077,-1.5191e-05,3.0119e+07,-187.61,0,2.2042e+08,-13.166,12123,11209,1,11209,1,-0.0010891,-5.2229e-09,0,3.9522e-05,-0.00023449,-4.4297e+08,-1652.9,0,1.4474e+07,-240.63,11208,11690,1,11690,1,-0.00052477,-2.0376e-09,0,0.00030385,-0.00012891,-2.1344e+08,-631.06,0,1.1525e+08,-52.901,11689,12558,1,12558,1,0.00069063,3.2422e-11,0,0.00091155,9.8531e-05,2.2119e+08,8.7109,0,3.0917e+08,25.196,12557,502.62,0,502.62,0,0.00070146,1.4517e-09,0,0.00035494,0.00013129,2.4567e+08,463.24,0,1.1951e+08,70.229,502.62,1
1736,4.2,12124,1,12124,1,8.3594e-05,2.8356e-09,0,0.0006121,-1.5297e-05,21.636,867,0,2.1496e+08,-15.679,12123,12992,1,12992,1,0.0012586,5.6724e-09,0,0.0012586,0.00020474,3.608e+08,1708,0,4.4391e+08,180.36,12991,12124,1,12124,1,8.3595e-05,3.2063e-09,0,0.00060924,-1.5313e-05,3.0341e+07,963.98,0,2.2082e+08,-22.622,12123,11209,1,11209,1,-0.0010914,-8.2541e-10,0,4.0077e-05,-0.00023517,-4.4391e+08,-282.7,0,1.4669e+07,-142.92,11208,11690,1,11690,1,-0.00052564,1.4111e-09,0,0.00030462,-0.00012932,-2.1379e+08,432.93,0,1.1549e+08,-62.276,11689,12558,1,12558,1,0.00069283,4.3578e-09,0,0.00091386,9.8696e-05,2.216e+08,1349.2,0,3.0963e+08,24.932,12557,502.62,0,502.62,0,0.00070324,1.7774e-09,0,0.00035589,0.00013162,2.4609e+08,550.91,0,1.197e+08,64.132,502.62,1
1736,4.21,12124,1,12124,1,8.4259e-05,3.0963e-10,0,0.00061368,-1.5418e-05,-92.453,106.79,0,2.1533e+08,5.3159,12123,12992,1,12992,1,0.0012622,2.0951e-09,0,0.0012622,0.00020517,3.6112e+08,705.26,0,4.4483e+08,82.314,12991,12124,1,12124,1,8.4259e-05,2.429e-10,0,0.00061077,-1.5436e-05,3.0564e+07,74.495,0,2.2122e+08,6.742,12123,11209,1,11209,1,-0.0010937,-8.4914e-10,0,4.063e-05,-0.00023584,-4.4483e+08,-243.08,0,1.4864e+07,-70.865,11208,11690,1,11690,1,-0.00052652,-1.9048e-10,0,0.00030539,-0.00012973,-2.1415e+08,-53.359,0,1.1572e+08,-15.848,11689,12558,1,12558,1,0.00069504,7.7383e-10,0,0.00091617,9.8861e-05,2.22e+08,252.93,0,3.1009e+08,26.393,12557,502.62,0,502.62,0,0.00070501,6.7968e-10,0,0.00035684,0.00013195,2.4651e+08,216.39,0,1.1989e+08,28.451,502.62,1
1736,4.22,12124,1,12124,1,8.4923e-05,6.8112e-10,0,0.00061522,-1.554e-05,357.73,218.56,0,2.1568e+08,10.64,12123,12992,1,12992,1,0.0012658,7.2756e-09,0,0.0012658,0.00020559,3.6144e+08,2230.9,0,4.4575e+08,339.08,12991,12124,1,12124,1,8.4923e-05,1.3637e-10,0,0.00061228,-1.5558e-05,3.0786e+07,42.227,0,2.2161e+08,-2.4798,12123,11209,1,11209,1,-0.0010959,-4.8392e-09,0,4.1187e-05,-0.0002365,-4.4575e+08,-1476.5,0,1.506e+07,-239.8,11208,11690,1,11690,1,-0.00052736,-1.0549e-09,0,0.00030614,-0.00013013,-2.1449e+08,-298.71,0,1.1595e+08,-86.976,11689,12558,1,12558,1,0.0006972,2.4401e-09,0,0.00091842,9.902e-05,2.2239e+08,762.39,0,3.1054e+08,106.05,12557,502.62,0,502.62,0,0.00070675,2.4576e-09,0,0.00035777,0.00013227,2.4691e+08,764.98,0,1.2007e+08,123.69,502.62,1
1736,4.23,12124,1,12124,1,8.5587e-05,-2.2825e-11,0,0.00061681,-1.5661e-05,248.79,5.9549,0,2.1606e+08,-28.377,12123,12992,1,12992,1,0.0012694,2.547e-09,0,0.0012694,0.00020602,3.6178e+08,871.33,0,4.4669e+08,114.3,12991,12124,1,12124,1,8.5588e-05,-1.1925e-10,0,0.00061383,-1.568e-05,3.1009e+07,-32.774,0,2.2202e+08,-24.732,12123,11209,1,11209,1,-0.0010982,-1.9206e-09,0,4.1741e-05,-0.00023718,-4.4669e+08,-587.57,0,1.5255e+07,-150.25,11208,11690,1,11690,1,-0.00052824,-8.1636e-10,0,0.00030692,-0.00013054,-2.1485e+08,-236.75,0,1.1619e+08,-56.589,11689,12558,1,12558,1,0.00069942,5.8571e-10,0,0.00092074,9.9186e-05,2.228e+08,192.63,0,3.11e+08,3.1767,12557,502.62,0,502.62,0,0.00070854,1.0252e-09,0,0.00035873,0.00013261,2.4733e+08,326.37,0,1.2027e+08,43.478,502.62,1
1736,4.24,12124,1,12124,1,8.6263e-05,-1.2617e-09,0,0.00061839,-1.5785e-05,-250.89,-382.67,0,2.1643e+08,45.955,12123,12992,1,12992,1,0.0012731,3.2197e-09,0,0.0012731,0.00020646,3.621e+08,1025.3,0,4.4763e+08,227.25,12991,12124,1,12124,1,8.6263e-05,-7.9884e-10,0,0.00061537,-1.5804e-05,3.1234e+07,-229.36,0,2.2242e+08,34.079,12123,11209,1,11209,1,-0.0011005,-6.1917e-09,0,4.2307e-05,-0.00023786,-4.4763e+08,-1896.2,0,1.5454e+07,-132.86,11208,11690,1,11690,1,-0.00052911,-2.9842e-09,0,0.00030768,-0.00013095,-2.152e+08,-901.92,0,1.1642e+08,-15.427,11689,12558,1,12558,1,0.00070163,4.6393e-10,0,0.00092306,9.935e-05,2.232e+08,138.71,0,3.1146e+08,102.97,12557,502.62,0,502.62,0,0.00071032,2.2082e-09,0,0.00035968,0.00013294,2.4775e+08,684.41,0,1.2046e+08,79.825,502.62,1
1736,4.25,12124,1,12124,1,8.6943e-05,-2.6635e-11,0,0.00061997,-1.5909e-05,-121,-15.051,0,2.1679e+08,5.9555,12123,12992,1,12992,1,0.0012767,3.2827e-09,0,0.0012767,0.00020689,3.6242e+08,1021.5,0,4.4855e+08,159.46,12991,12124,1,12124,1,8.6944e-05,1.1428e-10,0,0.00061691,-1.593e-05,3.1462e+07,31.425,0,2.2282e+08,7.2082,12123,11209,1,11209,1,-0.0011028,-2.5182e-09,0,4.2877e-05,-0.00023854,-4.4855e+08,-792.13,0,1.5654e+07,-112.29,11208,11690,1,11690,1,-0.00052997,-9.34e-10,0,0.00030846,-0.00013136,-2.1555e+08,-282.48,0,1.1665e+08,-27.343,11689,12558,1,12558,1,0.00070386,6.3806e-10,0,0.00092537,9.9512e-05,2.236e+08,190.8,0,3.1191e+08,37.234,12557,502.62,0,502.62,0,0.0007121,1.2245e-09,0,0.00036063,0.00013327,2.4816e+08,389.03,0,1.2065e+08,48.381,502.62,1
1736,4.26,12124,1,12124,1,8.7627e-05,5.2762e-10,0,0.00062156,-1.6034e-05,-281.88,157.98,0,2.1716e+08,10.143,12123,12992,1,12992,1,0.0012804,2.3966e-09,0,0.0012804,0.00020732,3.6273e+08,744.45,0,4.4949e+08,165.84,12991,12124,1,12124,1,8.7628e-05,4.7183e-10,0,0.00061845,-1.6056e-05,3.169e+07,133.98,0,2.2322e+08,6.7095,12123,11209,1,11209,1,-0.0011051,-4.0965e-10,0,4.3452e-05,-0.00023921,-4.4949e+08,-124.96,0,1.5855e+07,-104.4,11208,11690,1,11690,1,-0.00053083,-1.1399e-12,0,0.00030923,-0.00013178,-2.159e+08,-0.092651,0,1.1688e+08,-20.825,11689,12558,1,12558,1,0.00070608,8.9801e-10,0,0.00092768,9.9675e-05,2.24e+08,266.25,0,3.1237e+08,41.793,12557,502.62,0,502.62,0,0.00071388,6.2027e-10,0,0.00036159,0.0001336,2.4857e+08,195.94,0,1.2083e+08,49.706,502.62,1
1736,4.27,12124,1,12124,1,8.8316e-05,3.6658e-10,0,0.00062313,-1.616e-05,234.41,114.1,0,2.1752e+08,-14.218,12123,12992,1,12992,1,0.001284,1.2821e-09,0,0.001284,0.00020774,3.6304e+08,402.65,0,4.5041e+08,70.865,12991,12124,1,12124,1,8.8317e-05,2.9998e-10,0,0.00061999,-1.6183e-05,3.1919e+07,88.109,0,2.2361e+08,-17.708,12123,11209,1,11209,1,-0.0011074,-1.1445e-10,0,4.4031e-05,-0.00023989,-4.5041e+08,-34.884,0,1.6058e+07,-93.96,11208,11690,1,11690,1,-0.00053167,1.5596e-10,0,0.00030999,-0.00013219,-2.1624e+08,45.517,0,1.1712e+08,-31.769,11689,12558,1,12558,1,0.00070831,5.7696e-10,0,0.00092998,9.9834e-05,2.244e+08,180.39,0,3.1281e+08,3.4506,12557,502.62,0,502.62,0,0.00071565,2.6737e-10,0,0.00036255,0.00013393,2.4898e+08,88.94,0,1.2102e+08,27.071,502.62,1
1736,4.28,12124,1,12124,1,8.9006e-05,-7.7593e-10,0,0.00062472,-1.6286e-05,-43.621,-236.35,0,2.1789e+08,20.586,12123,12992,1,12992,1,0.0012877,8.9401e-10,0,0.0012877,0.00020817,3.6335e+08,280.45,0,4.5134e+08,132.08,12991,12124,1,12124,1,8.9006e-05,-7.5274e-10,0,0.00062153,-1.6309e-05,3.2148e+07,-223.65,0,2.2401e+08,19.51,12123,11209,1,11209,1,-0.0011097,-2.634e-09,0,4.4178e-05,-0.00024057,-4.5134e+08,-805.62,0,1.6261e+07,-110.54,11208,11690,1,11690,1,-0.00053252,-1.5263e-09,0,0.00031077,-0.0001326,-2.1659e+08,-464.75,0,1.1735e+08,-8.2543,11689,12558,1,12558,1,0.00071054,4.7258e-11,0,0.0009323,9.9995e-05,2.2479e+08,13.177,0,3.1326e+08,46.943,12557,502.62,0,502.62,0,0.00071743,8.9932e-10,0,0.00036351,0.00013427,2.4938e+08,275.12,0,1.2121e+08,41.518,502.62,1
1736,4.29,12124,1,12124,1,8.9697e-05,2.8689e-09,0,0.00062626,-1.6413e-05,330.79,876.62,0,2.1823e+08,58.305,12123,12992,1,12992,1,0.0012913,1.1557e-08,0,0.0012913,0.00020859,3.6364e+08,3517.6,0,4.5225e+08,503.95,12991,12124,1,12124,1,8.9697e-05,2.192e-09,0,0.00062304,-1.6436e-05,3.2378e+07,668.1,0,2.2439e+08,25.187,12123,11209,1,11209,1,-0.0011119,-1.7518e-09,0,4.3809e-05,-0.00024124,-4.5225e+08,-599.99,0,1.6464e+07,-312.15,11208,11690,1,11690,1,-0.00053334,1.3128e-10,0,0.00031152,-0.00013301,-2.1692e+08,36.361,0,1.1757e+08,-42.502,11689,12558,1,12558,1,0.00071274,5.1524e-09,0,0.00093456,0.00010015,2.2518e+08,1563.9,0,3.1369e+08,145.56,12557,502.62,0,502.62,0,0.00071917,3.1592e-09,0,0.00036445,0.00013459,2.4978e+08,975.78,0,1.2139e+08,142.57,502.62,1
1736,4.3,12124,1,12124,1,9.0388e-05,-2.5086e-09,0,0.00062785,-1.6539e-05,-65.245,-747.83,0,2.186e+08,-19.089,12123,12992,1,12992,1,0.001295,1.7007e-09,0,0.001295,0.00020902,3.6395e+08,582.29,0,4.5318e+08,151.27,12991,12124,1,12124,1,9.0389e-05,-2.2721e-09,0,0.00062458,-1.6564e-05,3.2607e+07,-671.11,0,2.2479e+08,-21.219,12123,11209,1,11209,1,-0.0011142,-7.5451e-09,0,4.3447e-05,-0.00024192,-4.5318e+08,-2294.7,0,1.6666e+07,-201.01,11208,11690,1,11690,1,-0.0005342,-4.4632e-09,0,0.0003123,-0.00013342,-2.1727e+08,-1339.2,0,1.178e+08,-66.486,11689,12558,1,12558,1,0.00071497,-4.9483e-10,0,0.00093688,0.00010031,2.2558e+08,-127.16,0,3.1414e+08,33.183,12557,502.62,0,502.62,0,0.00072095,2.433e-09,0,0.00036541,0.00013492,2.5019e+08,742.32,0,1.2157e+08,73.871,502.62,1
1736,4.31,12124,1,12124,1,9.1094e-05,1.099e-09,0,0.00062946,-1.6669e-05,-31.682,328.75,0,2.1896e+08,-32.335,12123,12992,1,12992,1,0.0012987,2.8005e-09,0,0.0012987,0.00020945,3.6425e+08,788.02,0,4.5411e+08,108.88,12991,12124,1,12124,1,9.1095e-05,1.07e-09,0,0.00062615,-1.6694e-05,3.2841e+07,337.11,0,2.2518e+08,-29.858,12123,11209,1,11209,1,-0.0011165,-4.7806e-10,0,4.3078e-05,-0.00024261,-4.5411e+08,-163.73,0,1.6874e+07,-125.07,11208,11690,1,11690,1,-0.00053505,4.4572e-10,0,0.00031307,-0.00013384,-2.1762e+08,128.58,0,1.1804e+08,-59.952,11689,12558,1,12558,1,0.00071724,1.6785e-09,0,0.00093922,0.00010047,2.2597e+08,518.73,0,3.1458e+08,-6.0217,12557,502.62,0,502.62,0,0.00072276,8.3888e-10,0,0.00036638,0.00013526,2.506e+08,243.46,0,1.2176e+08,45.704,502.62,1
1736,4.32,12124,1,12124,1,9.1806e-05,-1.0858e-09,0,0.00063104,-1.6799e-05,-69.488,-327.91,0,2.1932e+08,6.4179,12123,12992,1,12992,1,0.0013024,5.8337e-10,0,0.0013024,0.00020988,3.6453e+08,199.8,0,4.5503e+08,128.24,12991,12124,1,12124,1,9.1806e-05,-1.0157e-09,0,0.00062769,-1.6825e-05,3.3076e+07,-294.8,0,2.2557e+08,4.3515,12123,11209,1,11209,1,-0.0011187,-3.1862e-09,0,4.2697e-05,-0.00024329,-4.5503e+08,-972.66,0,1.7083e+07,-84.761,11208,11690,1,11690,1,-0.00053588,-1.9184e-09,0,0.00031384,-0.00013426,-2.1795e+08,-581.28,0,1.1826e+08,-20.281,11689,12558,1,12558,1,0.00071949,-1.8214e-10,0,0.00094153,0.00010063,2.2636e+08,-53.945,0,3.1502e+08,30.586,12557,502.62,0,502.62,0,0.00072453,1.0164e-09,0,0.00036734,0.00013559,2.51e+08,310.04,0,1.2195e+08,36.907,502.62,1
1736,4.33,12124,1,12124,1,9.2515e-05,-2.7353e-09,0,0.00063261,-1.6928e-05,37.196,-840.77,0,2.1967e+08,8.5121,12123,12992,1,12992,1,0.001306,1.3795e-09,0,0.001306,0.0002103,3.6481e+08,472.47,0,4.5595e+08,207.26,12991,12124,1,12124,1,9.2515e-05,-2.4447e-09,0,0.00062922,-1.6956e-05,3.3311e+07,-744.61,0,2.2596e+08,9.3223,12123,11209,1,11209,1,-0.001121,-8.0276e-09,0,4.2316e-05,-0.00024398,-4.5595e+08,-2469.4,0,1.7209e+07,-221.72,11208,11690,1,11690,1,-0.0005367,-4.9402e-09,0,0.00031461,-0.00013468,-2.1829e+08,-1518.7,0,1.1849e+08,-46.95,11689,12558,1,12558,1,0.00072173,-3.3561e-10,0,0.00094383,0.00010078,2.2675e+08,-92.329,0,3.1545e+08,62.973,12557,502.62,0,502.62,0,0.0007263,2.5812e-09,0,0.0003683,0.00013592,2.5139e+08,799.21,0,1.2213e+08,77.254,502.62,1
1736,4.34,12124,1,12124,1,9.3228e-05,-2.0077e-09,0,0.0006342,-1.7059e-05,568.33,-633.78,0,2.2003e+08,-10.087,12123,12992,1,12992,1,0.0013097,2.1801e-09,0,0.0013097,0.00021073,3.651e+08,667.67,0,4.5687e+08,199.92,12991,12124,1,12124,1,9.3227e-05,-1.2786e-09,0,0.00063076,-1.7087e-05,3.3546e+07,-403.12,0,2.2634e+08,-21.343,12123,11209,1,11209,1,-0.0011233,-8.3439e-09,0,4.1933e-05,-0.00024466,-4.5687e+08,-2605.2,0,1.7054e+07,-210.7,11208,11690,1,11690,1,-0.00053753,-4.1538e-09,0,0.00031538,-0.00013509,-2.1862e+08,-1276,0,1.1872e+08,-69.743,11689,12558,1,12558,1,0.00072399,2.9273e-10,0,0.00094614,0.00010094,2.2714e+08,79.594,0,3.1588e+08,47.284,12557,502.62,0,502.62,0,0.00072808,2.6826e-09,0,0.00036927,0.00013625,2.5179e+08,841.41,0,1.2231e+08,83.02,502.62,1
1736,4.35,12124,1,12124,1,9.3948e-05,-3.0446e-09,0,0.0006358,-1.7191e-05,182.87,-952.34,0,2.2038e+08,-48.69,12123,12992,1,12992,1,0.0013135,1.2611e-09,0,0.0013135,0.00021116,3.6538e+08,336.11,0,4.578e+08,145.19,12991,12124,1,12124,1,9.3947e-05,-3.4635e-09,0,0.00063232,-1.7219e-05,3.3784e+07,-1069.8,0,2.2673e+08,-28.373,12123,11209,1,11209,1,-0.0011255,-6.1847e-09,0,4.1545e-05,-0.00024536,-4.578e+08,-1985.9,0,1.6897e+07,-346.17,11208,11690,1,11690,1,-0.00053836,-4.8969e-09,0,0.00031615,-0.00013552,-2.1896e+08,-1547.4,0,1.1895e+08,-103.26,11689,12558,1,12558,1,0.00072626,-1.3562e-09,0,0.00094847,0.0001011,2.2753e+08,-383.27,0,3.1632e+08,30.318,12557,502.62,0,502.62,0,0.00072988,2.1029e-09,0,0.00037024,0.00013658,2.5219e+08,675.86,0,1.225e+08,103.32,502.62,1
1736,4.36,12124,1,12124,1,9.4674e-05,3.407e-09,0,0.00063737,-1.7323e-05,372.14,1008.5,0,2.2073e+08,16.639,12123,12992,1,12992,1,0.0013171,8.6474e-09,0,0.0013171,0.00021157,3.6565e+08,2525.6,0,4.587e+08,316.75,12991,12124,1,12124,1,9.4675e-05,3.3e-09,0,0.00063384,-1.7353e-05,3.4023e+07,988.52,0,2.2711e+08,-6.0567,12123,11209,1,11209,1,-0.0011278,-1.3063e-09,0,4.1145e-05,-0.00024603,-4.587e+08,-447.4,0,1.6735e+07,-248.22,11208,11690,1,11690,1,-0.00053917,1.1317e-09,0,0.00031693,-0.00013593,-2.1929e+08,318.69,0,1.1917e+08,-60.18,11689,12558,1,12558,1,0.00072852,5.6933e-09,0,0.00095078,0.00010125,2.2791e+08,1708.2,0,3.1673e+08,75.471,12557,502.62,0,502.62,0,0.00073165,2.7176e-09,0,0.00037121,0.00013691,2.5258e+08,806.09,0,1.2267e+08,104.36,502.62,1
1736,4.37,12124,1,12124,1,9.5399e-05,-9.4908e-10,0,0.00063897,-1.7456e-05,-82.138,-280.39,0,2.2108e+08,23.546,12123,12992,1,12992,1,0.0013208,3.9159e-09,0,0.0013208,0.000212,3.6592e+08,1208.3,0,4.5962e+08,284.73,12991,12124,1,12124,1,9.5399e-05,-6.0106e-10,0,0.0006354,-1.7487e-05,3.4262e+07,-183.8,0,2.275e+08,11.961,12123,11209,1,11209,1,-0.00113,-5.0342e-09,0,4.0757e-05,-0.00024672,-4.5962e+08,-1523.8,0,1.6579e+07,-163.59,11208,11690,1,11690,1,-0.00054001,-2.5901e-09,0,0.0003177,-0.00013636,-2.1963e+08,-765.9,0,1.194e+08,-34.47,11689,12558,1,12558,1,0.0007308,4.5392e-10,0,0.00095311,0.00010141,2.283e+08,136.41,0,3.1717e+08,81.407,12557,502.62,0,502.62,0,0.00073344,2.0225e-09,0,0.00037218,0.00013725,2.5298e+08,619.6,0,1.2286e+08,81.89,502.62,1
1736,4.38,12124,1,12124,1,9.6136e-05,1.5676e-09,0,0.00064058,-1.7591e-05,194.44,474.47,0,2.2144e+08,-32.707,12123,12992,1,12992,1,0.0013246,3.5785e-09,0,0.0013246,0.00021243,3.6619e+08,1055.5,0,4.6055e+08,155.81,12991,12124,1,12124,1,9.6136e-05,1.6352e-09,0,0.00063696,-1.7623e-05,3.4504e+07,502.48,0,2.2789e+08,-30.586,12123,11209,1,11209,1,-0.0011323,-8.1312e-10,0,4.0354e-05,-0.00024742,-4.6055e+08,-278.48,0,1.6416e+07,-182.93,11208,11690,1,11690,1,-0.00054082,6.4519e-10,0,0.00031848,-0.00013678,-2.1996e+08,192.89,0,1.1963e+08,-72.905,11689,12558,1,12558,1,0.0007331,2.5029e-09,0,0.00095544,0.00010156,2.2868e+08,769.94,0,3.1759e+08,4.8017,12557,502.62,0,502.62,0,0.00073524,1.1785e-09,0,0.00037316,0.00013758,2.5338e+08,355.01,0,1.2304e+08,68.605,502.62,1
1736,4.39,12124,1,12124,1,9.6877e-05,-7.6601e-10,0,0.00064218,-1.7726e-05,85.83,-223.1,0,2.2179e+08,-19.462,12123,12992,1,12992,1,0.0013283,6.2442e-10,0,0.0013283,0.00021285,3.6645e+08,213.85,0,4.6146e+08,132.36,12991,12124,1,12124,1,9.6878e-05,-8.2507e-10,0,0.00063852,-1.7759e-05,3.4747e+07,-246.37,0,2.2827e+08,-19.446,12123,11209,1,11209,1,-0.0011346,-1.9369e-09,0,3.9946e-05,-0.00024811,-4.6146e+08,-567.19,0,1.6251e+07,-121.11,11208,11690,1,11690,1,-0.00054164,-1.363e-09,0,0.00031926,-0.00013721,-2.203e+08,-398.17,0,1.1986e+08,-46.878,11689,12558,1,12558,1,0.0007354,-1.434e-10,0,0.00095778,0.00010172,2.2907e+08,-45.423,0,3.1802e+08,3.4477,12557,502.62,0,502.62,0,0.00073704,7.1276e-10,0,0.00037414,0.00013792,2.5377e+08,208.36,0,1.2322e+08,38.589,502.62,1
1736,4.4,12124,1,12124,1,9.762e-05,2.5213e-09,0,0.00064377,-1.7862e-05,-27.379,765.4,0,2.2213e+08,36.258,12123,12992,1,12992,1,0.001332,5.3637e-09,0,0.001332,0.00021327,3.667e+08,1608.4,0,4.6238e+08,258.37,12991,12124,1,12124,1,9.7619e-05,2.6797e-09,0,0.00064006,-1.7896e-05,3.499e+07,805.9,0,2.2865e+08,16.985,12123,11209,1,11209,1,-0.0011368,-7.0064e-10,0,3.9535e-05,-0.0002488,-4.6238e+08,-239.96,0,1.6085e+07,-109.14,11208,11690,1,11690,1,-0.00054244,1.2443e-09,0,0.00032003,-0.00013763,-2.2062e+08,376.65,0,1.2008e+08,-19.754,11689,12558,1,12558,1,0.00073768,3.8858e-09,0,0.00096009,0.00010187,2.2945e+08,1196.4,0,3.1843e+08,85.573,12557,502.62,0,502.62,0,0.00073882,1.6317e-09,0,0.00037512,0.00013825,2.5416e+08,502.92,0,1.234e+08,73.914,502.62,1
1736,4.41,12124,1,12124,1,9.8361e-05,2.6979e-09,0,0.00064534,-1.7998e-05,-228.07,838.74,0,2.2247e+08,110.3,12123,12992,1,12992,1,0.0013358,1.3201e-08,0,0.0013358,0.00021369,3.6695e+08,3984.9,0,4.6328e+08,690.99,12991,12124,1,12124,1,9.8361e-05,1.5398e-09,0,0.0006416,-1.8032e-05,3.5233e+07,455.22,0,2.2902e+08,69.408,12123,11209,1,11209,1,-0.001139,-2.4958e-09,0,3.9122e-05,-0.00024949,-4.6328e+08,-702.6,0,1.5919e+07,-324.64,11208,11690,1,11690,1,-0.00054324,-2.0102e-10,0,0.0003208,-0.00013805,-2.2094e+08,-56.041,0,1.203e+08,-5.7014,11689,12558,1,12558,1,0.00073996,5.1683e-09,0,0.0009624,0.00010202,2.2982e+08,1579.2,0,3.1884e+08,163.32,12557,502.62,0,502.62,0,0.00074059,3.6516e-09,0,0.00037609,0.00013858,2.5454e+08,1127.6,0,1.2358e+08,180.59,502.62,1
1736,4.42,12124,1,12124,1,9.911e-05,-3.4829e-09,0,0.00064696,-1.8135e-05,18.05,-1026.3,0,2.2282e+08,-54.11,12123,12992,1,12992,1,0.0013395,1.118e-09,0,0.0013395,0.00021411,3.6722e+08,382.89,0,4.642e+08,126.05,12991,12124,1,12124,1,9.9112e-05,-3.8328e-09,0,0.00064316,-1.8171e-05,3.5478e+07,-1160.9,0,2.2941e+08,-39.757,12123,11209,1,11209,1,-0.0011413,-6.8327e-09,0,3.8703e-05,-0.00025019,-4.642e+08,-1960.8,0,1.575e+07,-305.63,11208,11690,1,11690,1,-0.00054405,-5.4738e-09,0,0.00032158,-0.00013848,-2.2128e+08,-1604.4,0,1.2053e+08,-89.491,11689,12558,1,12558,1,0.00074227,-1.5458e-09,0,0.00096475,0.00010217,2.302e+08,-493.76,0,3.1926e+08,-6.1462,12557,502.62,0,502.62,0,0.0007424,2.303e-09,0,0.00037708,0.00013892,2.5494e+08,668.97,0,1.2376e+08,74.091,502.62,1
1736,4.43,12124,1,12124,1,9.9869e-05,2.5753e-09,0,0.00064856,-1.8274e-05,422.81,774.81,0,2.2317e+08,9.6127,12123,12992,1,12992,1,0.0013433,6.5841e-09,0,0.0013433,0.00021454,3.6746e+08,1948.1,0,4.6512e+08,320.92,12991,12124,1,12124,1,9.9869e-05,2.5052e-09,0,0.00064472,-1.831e-05,3.5726e+07,749.23,0,2.2978e+08,-5.3874,12123,11209,1,11209,1,-0.0011435,-1.3119e-09,0,3.8282e-05,-0.00025089,-4.6512e+08,-449.32,0,1.5581e+07,-207.16,11208,11690,1,11690,1,-0.00054485,9.6617e-10,0,0.00032236,-0.00013891,-2.216e+08,284.01,0,1.2075e+08,-54.728,11689,12558,1,12558,1,0.00074459,4.2294e-09,0,0.00096708,0.00010232,2.3058e+08,1290.9,0,3.1968e+08,64.246,12557,502.62,0,502.62,0,0.00074419,2.0067e-09,0,0.00037806,0.00013925,2.5533e+08,612.47,0,1.2394e+08,87.971,502.62,1
1736,4.44,12124,1,12124,1,0.00010062,2.8574e-09,0,0.00065011,-1.8411e-05,16.74,888.39,0,2.2349e+08,97.104,12123,12992,1,12992,1,0.001347,1.6029e-08,0,0.001347,0.00021495,3.6768e+08,4896.9,0,4.66e+08,698.16,12991,12124,1,12124,1,0.00010062,1.3841e-09,0,0.00064624,-1.8449e-05,3.5971e+07,391.24,0,2.3014e+08,95.346,12123,11209,1,11209,1,-0.0011457,-7.4657e-09,0,3.7853e-05,-0.00025157,-4.66e+08,-2229.4,0,1.5408e+07,-433.36,11208,11690,1,11690,1,-0.00054561,-1.0856e-09,0,0.00032311,-0.00013933,-2.2191e+08,-313.16,0,1.2097e+08,-61.109,11689,12558,1,12558,1,0.00074686,6.7972e-09,0,0.00096935,0.00010247,2.3094e+08,2101.1,0,3.2007e+08,212.15,12557,502.62,0,502.62,0,0.00074593,5.4753e-09,0,0.00037902,0.00013958,2.5569e+08,1685.1,0,1.2411e+08,195.8,502.62,1
1736,4.45,12124,1,12124,1,0.00010138,2.5775e-09,0,0.00065174,-1.855e-05,245.89,817.05,0,2.2384e+08,-58.213,12123,12992,1,12992,1,0.0013508,7.3743e-09,0,0.0013508,0.00021537,3.6793e+08,2522.2,0,4.6693e+08,215.84,12991,12124,1,12124,1,0.00010138,2.3719e-09,0,0.00064781,-1.8589e-05,3.6218e+07,702.21,0,2.3053e+08,-48.738,12123,11209,1,11209,1,-0.001148,-1.6237e-09,0,3.7429e-05,-0.00025228,-4.6693e+08,-376.9,0,1.5238e+07,-305.45,11208,11690,1,11690,1,-0.00054642,6.0015e-10,0,0.0003239,-0.00013976,-2.2224e+08,169.9,0,1.212e+08,-128.51,11689,12558,1,12558,1,0.00074919,4.5127e-09,0,0.00097171,0.00010262,2.3133e+08,1421.1,0,3.2049e+08,14.586,12557,502.62,0,502.62,0,0.00074776,2.3479e-09,0,0.00038002,0.00013992,2.5609e+08,761.1,0,1.2429e+08,101.68,502.62,1
1736,4.46,12124,1,12124,1,0.00010215,-9.213e-10,0,0.00065337,-1.8692e-05,-51.32,-239.89,0,2.2419e+08,-51.287,12123,12992,1,12992,1,0.0013546,1.1591e-09,0,0.0013546,0.00021579,3.6818e+08,396.94,0,4.6784e+08,170.28,12991,12124,1,12124,1,0.00010215,-8.5104e-10,0,0.00064939,-1.8731e-05,3.6471e+07,-256.11,0,2.3091e+08,-40.027,12123,11209,1,11209,1,-0.0011502,-3.5104e-09,0,3.6992e-05,-0.00025298,-4.6784e+08,-905.04,0,1.5062e+07,-239.99,11208,11690,1,11690,1,-0.00054723,-2.0543e-09,0,0.00032469,-0.0001402,-2.2257e+08,-572.43,0,1.2142e+08,-100.97,11689,12558,1,12558,1,0.00075154,2.804e-10,0,0.00097407,0.00010277,2.3171e+08,96.027,0,3.209e+08,-9.1975,12557,502.62,0,502.62,0,0.00074958,1.3269e-09,0,0.00038102,0.00014026,2.5648e+08,374.04,0,1.2447e+08,71.602,502.62,1
1736,4.47,12124,1,12124,1,0.00010294,3.3279e-09,0,0.00065497,-1.8835e-05,34.512,1022.7,0,2.2453e+08,-1.5847,12123,12992,1,12992,1,0.0013584,7.1627e-09,0,0.0013584,0.00021622,3.684e+08,2264.9,0,4.6876e+08,243.25,12991,12124,1,12124,1,0.00010293,3.5902e-09,0,0.00065095,-1.8875e-05,3.6724e+07,1060.8,0,2.3128e+08,-8.7726,12123,11209,1,11209,1,-0.0011525,-1.1316e-09,0,3.6551e-05,-0.00025369,-4.6876e+08,-343.17,0,1.4885e+07,-157.12,11208,11690,1,11690,1,-0.00054801,1.5849e-09,0,0.00032547,-0.00014063,-2.2288e+08,439.35,0,1.2164e+08,-62.805,11689,12558,1,12558,1,0.00075388,5.2778e-09,0,0.00097641,0.00010292,2.3208e+08,1648.6,0,3.213e+08,55.803,12557,502.62,0,502.62,0,0.00075138,2.2496e-09,0,0.00038202,0.00014059,2.5686e+08,713.55,0,1.2465e+08,85.336,502.62,1
1736,4.48,12124,1,12124,1,0.00010371,4.8882e-10,0,0.00065658,-1.8977e-05,-389.64,182.08,0,2.2486e+08,33.356,12123,12992,1,12992,1,0.0013621,4.2356e-09,0,0.0013621,0.00021663,3.6862e+08,1308.5,0,4.6966e+08,306.55,12991,12124,1,12124,1,0.00010371,3.3715e-10,0,0.00065251,-1.9018e-05,3.6977e+07,111.86,0,2.3165e+08,14.199,12123,11209,1,11209,1,-0.0011547,-1.7352e-09,0,3.6103e-05,-0.00025439,-4.6966e+08,-458.16,0,1.4705e+07,-97.238,11208,11690,1,11690,1,-0.00054879,-6.1409e-10,0,0.00032625,-0.00014106,-2.232e+08,-166.08,0,1.2186e+08,-13.615,11689,12558,1,12558,1,0.00075622,1.4307e-09,0,0.00097876,0.00010307,2.3245e+08,463.39,0,3.217e+08,57.673,12557,502.62,0,502.62,0,0.00075318,1.4582e-09,0,0.00038301,0.00014093,2.5724e+08,450.5,0,1.2482e+08,71.697,502.62,1
1736,4.49,12124,1,12124,1,0.0001045,3.098e-09,0,0.00065819,-1.9121e-05,61.614,956.9,0,2.252e+08,5.0138,12123,12992,1,12992,1,0.001366,6.8518e-09,0,0.001366,0.00021705,3.6884e+08,2142.9,0,4.7057e+08,299.06,12991,12124,1,12124,1,0.0001045,3.3587e-09,0,0.00065407,-1.9163e-05,3.7231e+07,1009.5,0,2.3202e+08,-5.1881,12123,11209,1,11209,1,-0.0011569,-1.1253e-09,0,3.5655e-05,-0.00025509,-4.7057e+08,-378.18,0,1.4525e+07,-172.72,11208,11690,1,11690,1,-0.00054956,1.3438e-09,0,0.00032703,-0.0001415,-2.2352e+08,392.78,0,1.2208e+08,-59.127,11689,12558,1,12558,1,0.00075856,4.9862e-09,0,0.00098109,0.00010322,2.3282e+08,1553.4,0,3.221e+08,71.74,12557,502.62,0,502.62,0,0.00075498,2.1844e-09,0,0.00038401,0.00014126,2.5762e+08,693.14,0,1.25e+08,93.906,502.62,1
1736,4.5,12124,1,12124,1,0.00010529,9.5374e-10,0,0.0006598,-1.9265e-05,-49.607,322.89,0,2.2553e+08,17.593,12123,12992,1,12992,1,0.0013697,2.7954e-09,0,0.0013697,0.00021747,3.6905e+08,945.11,0,4.7147e+08,194.21,12991,12124,1,12124,1,0.00010529,1.0614e-09,0,0.00065563,-1.9308e-05,3.7486e+07,333.11,0,2.3239e+08,-1.268,12123,11209,1,11209,1,-0.0011592,-8.2016e-10,0,3.52e-05,-0.00025579,-4.7147e+08,-194.9,0,1.4343e+07,-57.958,11208,11690,1,11690,1,-0.00055034,-9.5695e-11,0,0.00032781,-0.00014193,-2.2383e+08,-25.258,0,1.2231e+08,-20.65,11689,12558,1,12558,1,0.00076091,1.9169e-09,0,0.00098344,0.00010336,2.3319e+08,628.91,0,3.225e+08,37.711,12557,502.62,0,502.62,0,0.00075679,1.09e-09,0,0.00038501,0.0001416,2.58e+08,349.64,0,1.2517e+08,52.776,502.62,1
1736,4.51,12124,1,12124,1,0.00010608,3.7905e-09,0,0.0006614,-1.9409e-05,-40.459,1170.9,0,2.2586e+08,54.758,12123,12992,1,12992,1,0.0013735,8.7324e-09,0,0.0013735,0.00021789,3.6927e+08,2751.3,0,4.7237e+08,467.32,12991,12124,1,12124,1,0.00010608,3.8595e-09,0,0.00065718,-1.9453e-05,3.7741e+07,1158.4,0,2.3275e+08,34.219,12123,11209,1,11209,1,-0.0011614,-1.5091e-09,0,3.4743e-05,-0.0002565,-4.7237e+08,-447.1,0,1.416e+07,-134.97,11208,11690,1,11690,1,-0.0005511,1.3914e-09,0,0.00032858,-0.00014236,-2.2414e+08,389.43,0,1.2252e+08,-35.777,11689,12558,1,12558,1,0.00076325,6.3243e-09,0,0.00098576,0.00010351,2.3355e+08,1968,0,3.2289e+08,126.42,12557,502.62,0,502.62,0,0.00075858,2.9001e-09,0,0.000386,0.00014193,2.5837e+08,915.32,0,1.2535e+08,115.81,502.62,1
1736,4.52,12124,1,12124,1,0.00010687,1.5686e-09,0,0.00066303,-1.9555e-05,78.239,516.68,0,2.262e+08,1.6392,12123,12992,1,12992,1,0.0013774,4.3763e-09,0,0.0013774,0.00021831,3.6948e+08,1497.6,0,4.7328e+08,246.84,12991,12124,1,12124,1,0.00010687,1.6701e-09,0,0.00065876,-1.96e-05,3.7998e+07,517.85,0,2.3312e+08,-7.9201,12123,11209,1,11209,1,-0.0011636,-1.0806e-09,0,3.4282e-05,-0.00025721,-4.7328e+08,-255.7,0,1.3976e+07,-130.02,11208,11690,1,11690,1,-0.00055188,8.7098e-11,0,0.00032937,-0.0001428,-2.2446e+08,21.618,0,1.2274e+08,-52.99,11689,12558,1,12558,1,0.00076563,2.9259e-09,0,0.00098813,0.00010365,2.3392e+08,949.12,0,3.2329e+08,50.603,12557,502.62,0,502.62,0,0.0007604,1.5796e-09,0,0.00038701,0.00014227,2.5875e+08,509.67,0,1.2552e+08,78.225,502.62,1
1736,4.53,12124,1,12124,1,0.00010768,1.5154e-09,0,0.00066464,-1.9703e-05,180.84,492.22,0,2.2653e+08,13.018,12123,12992,1,12992,1,0.0013812,3.8279e-09,0,0.0013812,0.00021872,3.6968e+08,1309.9,0,4.7418e+08,222.72,12991,12124,1,12124,1,0.00010768,1.6259e-09,0,0.00066032,-1.9749e-05,3.8258e+07,500.06,0,2.3349e+08,-3.9516,12123,11209,1,11209,1,-0.0011658,-6.6623e-10,0,3.3812e-05,-0.00025792,-4.7418e+08,-157.38,0,1.3788e+07,-105.15,11208,11690,1,11690,1,-0.00055264,3.119e-10,0,0.00033015,-0.00014324,-2.2477e+08,78.573,0,1.2296e+08,-29.767,11689,12558,1,12558,1,0.000768,2.6662e-09,0,0.00099047,0.0001038,2.3429e+08,857.75,0,3.2367e+08,43.77,12557,502.62,0,502.62,0,0.0007622,1.3284e-09,0,0.00038801,0.00014261,2.5912e+08,434.21,0,1.257e+08,59.622,502.62,1
1736,4.54,12124,1,12124,1,0.00010849,1.1569e-09,0,0.00066626,-1.985e-05,-19.388,378.82,0,2.2686e+08,31.916,12123,12992,1,12992,1,0.001385,3.3145e-09,0,0.001385,0.00021914,3.6988e+08,1134.3,0,4.7508e+08,269.17,12991,12124,1,12124,1,0.00010849,1.1934e-09,0,0.00066189,-1.9897e-05,3.8518e+07,367.72,0,2.3385e+08,12.174,12123,11209,1,11209,1,-0.001168,-1.1186e-09,0,3.3342e-05,-0.00025863,-4.7508e+08,-269.55,0,1.3601e+07,-65.637,11208,11690,1,11690,1,-0.0005534,4.6565e-11,0,0.00033094,-0.00014368,-2.2508e+08,13.253,0,1.2318e+08,-23.731,11689,12558,1,12558,1,0.00077037,2.2761e-09,0,0.00099283,0.00010394,2.3465e+08,717.05,0,3.2406e+08,82.061,12557,502.62,0,502.62,0,0.00076401,1.2503e-09,0,0.00038902,0.00014294,2.595e+08,397.87,0,1.2587e+08,72.375,502.62,1
1736,4.55,12124,1,12124,1,0.0001093,9.2465e-10,0,0.00066787,-1.9999e-05,-2.7897,306.1,0,2.2719e+08,20.242,12123,12992,1,12992,1,0.0013888,2.6364e-09,0,0.0013888,0.00021955,3.7007e+08,809.83,0,4.7597e+08,231.66,12991,12124,1,12124,1,0.0001093,1.001e-09,0,0.00066345,-2.0047e-05,3.8779e+07,316.37,0,2.3421e+08,2.1848,12123,11209,1,11209,1,-0.0011702,-8.2752e-10,0,3.2866e-05,-0.00025933,-4.7597e+08,-204.32,0,1.3411e+07,-48.83,11208,11690,1,11690,1,-0.00055415,2.9297e-11,0,0.00033172,-0.00014412,-2.2538e+08,8.0662,0,1.234e+08,-16.813,11689,12558,1,12558,1,0.00077275,1.7798e-09,0,0.00099517,0.00010408,2.3501e+08,578.69,0,3.2444e+08,44.214,12557,502.62,0,502.62,0,0.00076582,9.2947e-10,0,0.00039003,0.00014328,2.5987e+08,298.5,0,1.2604e+08,51.536,502.62,1
1736,4.56,12124,1,12124,1,0.00011011,1.8167e-09,0,0.00066948,-2.0148e-05,-91.176,568.55,0,2.2751e+08,47.633,12123,12992,1,12992,1,0.0013927,5.5423e-09,0,0.0013927,0.00021997,3.7026e+08,1681.4,0,4.7687e+08,270.95,12991,12124,1,12124,1,0.00011011,1.6052e-09,0,0.00066502,-2.0197e-05,3.904e+07,476.6,0,2.3457e+08,34.09,12123,11209,1,11209,1,-0.0011724,-1.0433e-09,0,3.2388e-05,-0.00026005,-4.7687e+08,-263.97,0,1.3221e+07,-70.979,11208,11690,1,11690,1,-0.0005549,4.3836e-10,0,0.0003325,-0.00014456,-2.2569e+08,127.08,0,1.2361e+08,-6.9314,11689,12558,1,12558,1,0.00077513,3.1494e-09,0,0.00099752,0.00010423,2.3537e+08,986.19,0,3.2482e+08,82.892,12557,502.62,0,502.62,0,0.00076762,1.65e-09,0,0.00039103,0.00014361,2.6023e+08,517.31,0,1.2621e+08,71.285,502.62,1
1736,4.57,12124,1,12124,1,0.00011093,1.0743e-09,0,0.0006711,-2.0297e-05,-96.001,349.51,0,2.2783e+08,49.976,12123,12992,1,12992,1,0.0013965,5.6468e-09,0,0.0013965,0.00022038,3.7045e+08,1731.9,0,4.7776e+08,253.22,12991,12124,1,12124,1,0.00011093,6.3729e-10,0,0.00066658,-2.0348e-05,3.9303e+07,197.52,0,2.3493e+08,39.517,12123,11209,1,11209,1,-0.0011746,-2.2615e-09,0,3.1904e-05,-0.00026076,-4.7776e+08,-604,0,1.3028e+07,-134.53,11208,11690,1,11690,1,-0.00055565,-3.1885e-10,0,0.00033329,-0.000145,-2.2599e+08,-83.903,0,1.2383e+08,-9.2399,11689,12558,1,12558,1,0.00077751,2.3432e-09,0,0.00099986,0.00010437,2.3573e+08,732.92,0,3.252e+08,97.783,12557,502.62,0,502.62,0,0.00076943,1.767e-09,0,0.00039204,0.00014395,2.606e+08,546.46,0,1.2638e+08,73.641,502.62,1
1736,4.58,12124,1,12124,1,0.00011176,4.2782e-10,0,0.00067273,-2.0448e-05,-223.72,153.81,0,2.2816e+08,45.169,12123,12992,1,12992,1,0.0014004,4.674e-09,0,0.0014004,0.00022079,3.7064e+08,1432.3,0,4.7866e+08,250.55,12991,12124,1,12124,1,0.00011176,1.6847e-10,0,0.00066816,-2.05e-05,3.9567e+07,50.822,0,2.3529e+08,35.108,12123,11209,1,11209,1,-0.0011768,-2.391e-09,0,3.1416e-05,-0.00026147,-4.7866e+08,-657.66,0,1.2834e+07,-69.316,11208,11690,1,11690,1,-0.0005564,-5.8938e-10,0,0.00033407,-0.00014545,-2.263e+08,-153.24,0,1.2404e+08,-1.8861,11689,12558,1,12558,1,0.00077991,1.358e-09,0,0.0010022,0.00010451,2.3609e+08,426.15,0,3.2558e+08,69.133,12557,502.62,0,502.62,0,0.00077125,1.5161e-09,0,0.00039306,0.00014429,2.6097e+08,466.75,0,1.2656e+08,64.538,502.62,1
1736,4.59,12124,1,12124,1,0.00011259,1.1568e-11,0,0.00067436,-2.0601e-05,-83.937,21.415,0,2.2849e+08,24.118,12123,12992,1,12992,1,0.0014042,2.5017e-09,0,0.0014042,0.00022121,3.7082e+08,835.75,0,4.7956e+08,155.17,12991,12124,1,12124,1,0.00011259,-1.2794e-10,0,0.00066974,-2.0653e-05,3.9834e+07,-38.905,0,2.3565e+08,24.759,12123,11209,1,11209,1,-0.001179,-2.7214e-09,0,3.0921e-05,-0.00026219,-4.7956e+08,-776.94,0,1.2638e+07,-103.9,11208,11690,1,11690,1,-0.00055714,-6.5054e-10,0,0.00033487,-0.00014589,-2.266e+08,-181.57,0,1.2426e+08,-14.309,11689,12558,1,12558,1,0.00078233,7.8615e-10,0,0.0010046,0.00010465,2.3645e+08,248.44,0,3.2596e+08,60.571,12557,502.62,0,502.62,0,0.00077307,1.1616e-09,0,0.00039408,0.00014463,2.6134e+08,357.43,0,1.2673e+08,51.219,502.62,1
1736,4.6,12124,1,12124,1,0.00011343,5.1291e-09,0,0.00067596,-2.0754e-05,216.08,1547.7,0,2.288e+08,32.644,12123,12992,1,12992,1,0.0014081,1.0107e-08,0,0.0014081,0.00022162,3.7099e+08,3068.7,0,4.8045e+08,413.57,12991,12124,1,12124,1,0.00011343,5.5245e-09,0,0.00067129,-2.0807e-05,4.0101e+07,1636,0,2.36e+08,11.688,12123,11209,1,11209,1,-0.0011812,-1.3449e-09,0,3.042e-05,-0.00026291,-4.8045e+08,-460.59,0,1.2439e+07,-212.42,11208,11690,1,11690,1,-0.00055786,2.7184e-09,0,0.00033564,-0.00014633,-2.2689e+08,759.76,0,1.2447e+08,-69.653,11689,12558,1,12558,1,0.00078471,7.9395e-09,0,0.0010069,0.00010479,2.3679e+08,2457,0,3.2632e+08,120.86,12557,502.62,0,502.62,0,0.00077486,3.2105e-09,0,0.00039509,0.00014496,2.6169e+08,1000.4,0,1.269e+08,130.67,502.62,1
1736,4.61,12124,1,12124,1,0.00011426,3.2307e-09,0,0.00067759,-2.0907e-05,425.46,1016.4,0,2.2912e+08,5.1758,12123,12992,1,12992,1,0.001412,1.1792e-08,0,0.001412,0.00022204,3.7116e+08,3605,0,4.8135e+08,357.55,12991,12124,1,12124,1,0.00011426,2.7199e-09,0,0.00067287,-2.0962e-05,4.0368e+07,822.6,0,2.3635e+08,-18.27,12123,11209,1,11209,1,-0.0011835,-2.2494e-09,0,2.9917e-05,-0.00026363,-4.8135e+08,-596.85,0,1.224e+07,-237.03,11208,11690,1,11690,1,-0.0005586,4.9001e-11,0,0.00033643,-0.00014678,-2.2719e+08,14.843,0,1.2469e+08,-80.765,11689,12558,1,12558,1,0.00078713,6.0153e-09,0,0.0010093,0.00010493,2.3715e+08,1855.5,0,3.267e+08,75.51,12557,502.62,0,502.62,0,0.00077668,3.6289e-09,0,0.00039611,0.0001453,2.6206e+08,1131.4,0,1.2707e+08,114.38,502.62,1
1736,4.62,12124,1,12124,1,0.0001151,9.004e-10,0,0.00067919,-2.1061e-05,580.56,328.52,0,2.2943e+08,15.622,12123,12992,1,12992,1,0.0014158,1.525e-08,0,0.0014158,0.00022244,3.7131e+08,4658.6,0,4.8222e+08,543.89,12991,12124,1,12124,1,0.0001151,-5.1575e-10,0,0.00067442,-2.1116e-05,4.0637e+07,-156.55,0,2.367e+08,13.798,12123,11209,1,11209,1,-0.0011856,-7.8778e-09,0,2.941e-05,-0.00026434,-4.8222e+08,-2260.9,0,1.204e+07,-643.17,11208,11690,1,11690,1,-0.00055931,-2.6011e-09,0,0.0003372,-0.00014722,-2.2748e+08,-704.37,0,1.249e+08,-95.821,11689,12558,1,12558,1,0.00078952,3.7235e-09,0,0.0010116,0.00010506,2.375e+08,1149,0,3.2705e+08,118.39,12557,502.62,0,502.62,0,0.00077847,5.1906e-09,0,0.00039712,0.00014563,2.6241e+08,1576.7,0,1.2723e+08,208.17,502.62,1
1736,4.63,12124,1,12124,1,0.00011595,3.0061e-09,0,0.00068083,-2.1216e-05,144.42,943.35,0,2.2975e+08,-18.846,12123,12992,1,12992,1,0.0014197,1.0515e-08,0,0.0014197,0.00022285,3.7148e+08,3299.8,0,4.8312e+08,201.81,12991,12124,1,12124,1,0.00011595,2.198e-09,0,0.00067601,-2.1273e-05,4.0906e+07,654.87,0,2.3706e+08,-16.814,12123,11209,1,11209,1,-0.0011878,-1.0882e-09,0,2.89e-05,-0.00026506,-4.8312e+08,-241.35,0,1.1839e+07,-209.93,11208,11690,1,11690,1,-0.00056005,5.6144e-10,0,0.000338,-0.00014767,-2.2778e+08,143.72,0,1.2511e+08,-86.97,11689,12558,1,12558,1,0.00079196,5.0153e-09,0,0.001014,0.0001052,2.3785e+08,1584.8,0,3.2742e+08,49.876,12557,502.62,0,502.62,0,0.0007803,2.8814e-09,0,0.00039815,0.00014597,2.6277e+08,936.95,0,1.274e+08,90.226,502.62,1
1736,4.64,12124,1,12124,1,0.00011681,2.0341e-09,0,0.00068248,-2.1373e-05,42.188,656.06,0,2.3008e+08,-13.532,12123,12992,1,12992,1,0.0014237,6.4916e-09,0,0.0014237,0.00022327,3.7165e+08,2177.5,0,4.8402e+08,205.94,12991,12124,1,12124,1,0.00011681,1.7291e-09,0,0.00067761,-2.1431e-05,4.1179e+07,527.63,0,2.3741e+08,-17.266,12123,11209,1,11209,1,-0.00119,-1.2145e-09,0,2.8381e-05,-0.00026579,-4.8402e+08,-272.21,0,1.1635e+07,-197.32,11208,11690,1,11690,1,-0.00056079,4.329e-10,0,0.00033879,-0.00014813,-2.2808e+08,113.41,0,1.2533e+08,-76.114,11689,12558,1,12558,1,0.00079441,3.5371e-09,0,0.0010164,0.00010534,2.3821e+08,1114.4,0,3.2779e+08,56.029,12557,502.62,0,502.62,0,0.00078214,1.9803e-09,0,0.00039919,0.00014632,2.6314e+08,645.46,0,1.2757e+08,85.189,502.62,1
1736,4.65,12124,1,12124,1,0.00011768,2.621e-09,0,0.00068412,-2.1532e-05,341.39,828.93,0,2.3039e+08,24.972,12123,12992,1,12992,1,0.0014276,7.2689e-09,0,0.0014276,0.00022368,3.718e+08,2475.8,0,4.8491e+08,424.11,12991,12124,1,12124,1,0.00011768,2.5022e-09,0,0.00067918,-2.1591e-05,4.1454e+07,760.18,0,2.3776e+08,-0.91924,12123,11209,1,11209,1,-0.0011922,-1.7168e-09,0,2.7854e-05,-0.00026652,-4.8491e+08,-377.76,0,1.1428e+07,-172.84,11208,11690,1,11690,1,-0.0005615,5.4783e-10,0,0.00033958,-0.00014858,-2.2837e+08,157.23,0,1.2554e+08,-72.532,11689,12558,1,12558,1,0.00079686,4.5914e-09,0,0.0010188,0.00010547,2.3855e+08,1441.5,0,3.2815e+08,115.27,12557,502.62,0,502.62,0,0.00078397,2.3777e-09,0,0.00040023,0.00014666,2.6349e+08,761.14,0,1.2774e+08,129.19,502.62,1
1736,4.66,12124,1,12124,1,0.00011855,3.0522e-09,0,0.00068576,-2.1691e-05,239.77,963.83,0,2.307e+08,-26.837,12123,12992,1,12992,1,0.0014315,7.6544e-09,0,0.0014315,0.00022409,3.7194e+08,2378,0,4.858e+08,208.85,12991,12124,1,12124,1,0.00011855,3.3516e-09,0,0.00068077,-2.1751e-05,4.1729e+07,1016.4,0,2.3811e+08,-29.448,12123,11209,1,11209,1,-0.0011944,-1.4498e-09,0,2.7324e-05,-0.00026724,-4.858e+08,-370.93,0,1.122e+07,-200.84,11208,11690,1,11690,1,-0.00056221,8.8605e-10,0,0.00034037,-0.00014903,-2.2866e+08,231.28,0,1.2575e+08,-88.247,11689,12558,1,12558,1,0.00079931,5.236e-09,0,0.0010211,0.00010561,2.389e+08,1679.4,0,3.2851e+08,30.175,12557,502.62,0,502.62,0,0.0007858,2.4183e-09,0,0.00040126,0.000147,2.6385e+08,780.83,0,1.2791e+08,83.122,502.62,1
1736,4.67,12124,1,12124,1,0.00011942,1.9084e-09,0,0.00068739,-2.1851e-05,369.29,630.13,0,2.3101e+08,30.121,12123,12992,1,12992,1,0.0014354,6.804e-09,0,0.0014354,0.0002245,3.7208e+08,2326.5,0,4.8668e+08,373.49,12991,12124,1,12124,1,0.00011942,1.6829e-09,0,0.00068235,-2.1911e-05,4.2005e+07,510.75,0,2.3845e+08,2.3246,12123,11209,1,11209,1,-0.0011966,-2.5694e-09,0,2.6789e-05,-0.00026797,-4.8668e+08,-644.06,0,1.101e+07,-163.31,11208,11690,1,11690,1,-0.00056292,-2.6345e-10,0,0.00034116,-0.00014949,-2.2895e+08,-72.977,0,1.2596e+08,-64.671,11689,12558,1,12558,1,0.00080176,3.9566e-09,0,0.0010235,0.00010574,2.3924e+08,1273.7,0,3.2886e+08,123.92,12557,502.62,0,502.62,0,0.00078762,2.4395e-09,0,0.0004023,0.00014734,2.642e+08,766.38,0,1.2808e+08,113.69,502.62,1
1736,4.68,12124,1,12124,1,0.00012029,3.9217e-09,0,0.00068901,-2.201e-05,314.89,1225.6,0,2.3132e+08,122.46,12123,12992,1,12992,1,0.0014393,1.5108e-08,0,0.0014393,0.00022491,3.7222e+08,4592,0,4.8756e+08,767.25,12991,12124,1,12124,1,0.00012029,3.2083e-09,0,0.00068392,-2.2072e-05,4.2281e+07,985.41,0,2.3879e+08,63.709,12123,11209,1,11209,1,-0.0011987,-2.7402e-09,0,2.6252e-05,-0.0002687,-4.8756e+08,-896.51,0,1.08e+07,-274.58,11208,11690,1,11690,1,-0.00056362,4.1229e-10,0,0.00034195,-0.00014994,-2.2923e+08,116.66,0,1.2617e+08,-22.289,11689,12558,1,12558,1,0.00080421,7.0467e-09,0,0.0010259,0.00010588,2.3958e+08,2177,0,3.2921e+08,236.04,12557,502.62,0,502.62,0,0.00078943,4.1567e-09,0,0.00040332,0.00014767,2.6454e+08,1294.7,0,1.2824e+08,201.47,502.62,1
1736,4.69,12124,1,12124,1,0.00012117,2.7843e-09,0,0.00069066,-2.2171e-05,-273.53,908.31,0,2.3163e+08,35.646,12123,12992,1,12992,1,0.0014433,1.0682e-08,0,0.0014433,0.00022532,3.7237e+08,3377.1,0,4.8846e+08,483.21,12991,12124,1,12124,1,0.00012117,2.2669e-09,0,0.00068552,-2.2233e-05,4.2559e+07,678.68,0,2.3914e+08,6.7856,12123,11209,1,11209,1,-0.0012009,-2.5621e-09,0,2.5713e-05,-0.00026943,-4.8846e+08,-574.08,0,1.059e+07,-229.69,11208,11690,1,11690,1,-0.00056434,-5.8257e-11,0,0.00034274,-0.0001504,-2.2952e+08,-15.115,0,1.2638e+08,-74.426,11689,12558,1,12558,1,0.00080668,5.4028e-09,0,0.0010283,0.00010601,2.3993e+08,1718.8,0,3.2957e+08,123.77,12557,502.62,0,502.62,0,0.00079127,3.3616e-09,0,0.00040437,0.00014802,2.649e+08,1066.9,0,1.2841e+08,154.69,502.62,1
1736,4.7,12124,1,12124,1,0.00012206,1.1807e-09,0,0.00069229,-2.2334e-05,-183.23,433.26,0,2.3193e+08,37.851,12123,12992,1,12992,1,0.0014472,9.5182e-09,0,0.0014472,0.00022572,3.7249e+08,2910.8,0,4.8932e+08,459.3,12991,12124,1,12124,1,0.00012206,4.3278e-10,0,0.0006871,-2.2397e-05,4.2839e+07,137.04,0,2.3948e+08,12.758,12123,11209,1,11209,1,-0.0012031,-3.5657e-09,0,2.5161e-05,-0.00027015,-4.8932e+08,-970.09,0,1.0375e+07,-215.98,11208,11690,1,11690,1,-0.00056502,-1.4862e-09,0,0.00034353,-0.00015085,-2.298e+08,-367.14,0,1.2658e+08,-71.977,11689,12558,1,12558,1,0.00080915,3.4328e-09,0,0.0010306,0.00010614,2.4027e+08,1103.4,0,3.2991e+08,121.56,12557,502.62,0,502.62,0,0.00079309,3.0802e-09,0,0.00040541,0.00014835,2.6525e+08,953.5,0,1.2857e+08,147.41,502.62,1
1736,4.71,12124,1,12124,1,0.00012295,6.0624e-10,0,0.00069394,-2.2498e-05,-128.34,244.58,0,2.3224e+08,-0.12093,12123,12992,1,12992,1,0.0014512,6.7411e-09,0,0.0014512,0.00022613,3.7262e+08,2167.9,0,4.9021e+08,479.23,12991,12124,1,12124,1,0.00012295,2.3488e-10,0,0.00068869,-2.2562e-05,4.312e+07,76.821,0,2.3982e+08,-25.393,12123,11209,1,11209,1,-0.0012052,-2.4727e-09,0,2.4612e-05,-0.00027089,-4.9021e+08,-592.91,0,1.0161e+07,-192.05,11208,11690,1,11690,1,-0.00056572,-1.131e-09,0,0.00034433,-0.00015131,-2.3009e+08,-289.08,0,1.2679e+08,-94.068,11689,12558,1,12558,1,0.00081163,1.9131e-09,0,0.001033,0.00010628,2.4061e+08,619.15,0,3.3026e+08,51.588,12557,502.62,0,502.62,0,0.00079493,2.1146e-09,0,0.00040646,0.0001487,2.656e+08,652.87,0,1.2874e+08,127.13,502.62,1
1736,4.72,12124,1,12124,1,0.00012386,1.314e-09,0,0.00069562,-2.2663e-05,-38.409,436.13,0,2.3256e+08,-22.789,12123,12992,1,12992,1,0.0014552,3.5461e-09,0,0.0014552,0.00022654,3.7275e+08,1213.4,0,4.9111e+08,189.14,12991,12124,1,12124,1,0.00012386,1.5683e-09,0,0.0006903,-2.2728e-05,4.3404e+07,463.69,0,2.4017e+08,-12.207,12123,11209,1,11209,1,-0.0012074,-1.8248e-09,0,2.4056e-05,-0.00027163,-4.9111e+08,-424.9,0,9.9456e+06,-183.44,11208,11690,1,11690,1,-0.00056643,1.3922e-10,0,0.00034514,-0.00015178,-2.3038e+08,31.661,0,1.27e+08,-70.062,11689,12558,1,12558,1,0.00081415,2.5852e-09,0,0.0010354,0.00010641,2.4095e+08,833.31,0,3.3061e+08,25.785,12557,502.62,0,502.62,0,0.0007968,1.4116e-09,0,0.00040753,0.00014904,2.6595e+08,444.82,0,1.2891e+08,73.09,502.62,1
1736,4.73,12124,1,12124,1,0.00012477,1.5652e-09,0,0.00069727,-2.2831e-05,-49.365,505.37,0,2.3286e+08,14.412,12123,12992,1,12992,1,0.0014592,4.0753e-09,0,0.0014592,0.00022695,3.7286e+08,1366.2,0,4.9199e+08,267.28,12991,12124,1,12124,1,0.00012477,1.7529e-09,0,0.00069189,-2.2896e-05,4.369e+07,538.15,0,2.4051e+08,5.7719,12123,11209,1,11209,1,-0.0012096,-1.1824e-09,0,2.3487e-05,-0.00027237,-4.9199e+08,-293.68,0,9.725e+06,-150.3,11208,11690,1,11690,1,-0.00056712,1.4964e-10,0,0.00034594,-0.00015224,-2.3065e+08,40.407,0,1.2721e+08,-39.762,11689,12558,1,12558,1,0.00081666,2.9368e-09,0,0.0010378,0.00010654,2.4129e+08,928.79,0,3.3094e+08,70.889,12557,502.62,0,502.62,0,0.00079864,1.5481e-09,0,0.00040859,0.00014939,2.663e+08,489.44,0,1.2907e+08,80.961,502.62,1
1736,4.74,12124,1,12124,1,0.00012568,2.4129e-09,0,0.00069892,-2.2998e-05,-105.48,758.94,0,2.3316e+08,37.522,12123,12992,1,12992,1,0.0014632,5.0854e-09,0,0.0014632,0.00022736,3.7297e+08,1706.1,0,4.9287e+08,291.48,12991,12124,1,12124,1,0.00012568,2.736e-09,0,0.00069349,-2.3064e-05,4.3976e+07,805.71,0,2.4084e+08,18.426,12123,11209,1,11209,1,-0.0012118,-8.8638e-10,0,2.2916e-05,-0.00027311,-4.9287e+08,-200.98,0,9.5041e+06,-120.59,11208,11690,1,11690,1,-0.0005678,7.3819e-10,0,0.00034674,-0.00015271,-2.3093e+08,194.69,0,1.2742e+08,-27.675,11689,12558,1,12558,1,0.00081917,4.0712e-09,0,0.0010402,0.00010667,2.4162e+08,1283.3,0,3.3128e+08,98.454,12557,502.62,0,502.62,0,0.00080049,1.7989e-09,0,0.00040964,0.00014973,2.6664e+08,583.28,0,1.2924e+08,84.212,502.62,1
1736,4.75,12124,1,12124,1,0.0001266,-7.01e-10,0,0.00070058,-2.3166e-05,-6.294,-157.87,0,2.3346e+08,52.677,12123,12992,1,12992,1,0.0014671,2.073e-09,0,0.0014671,0.00022776,3.7309e+08,626.3,0,4.9374e+08,331.75,12991,12124,1,12124,1,0.0001266,-3.2442e-10,0,0.00069509,-2.3234e-05,4.4264e+07,-84.188,0,2.4118e+08,44.379,12123,11209,1,11209,1,-0.0012139,-4.191e-09,0,2.234e-05,-0.00027385,-4.9374e+08,-1078.2,0,9.2818e+06,-66.726,11208,11690,1,11690,1,-0.00056848,-1.9449e-09,0,0.00034754,-0.00015317,-2.3121e+08,-508.76,0,1.2762e+08,6.7904,11689,12558,1,12558,1,0.00082169,6.0439e-10,0,0.0010426,0.0001068,2.4196e+08,202.61,0,3.3162e+08,80.452,12557,502.62,0,502.62,0,0.00080233,1.6385e-09,0,0.00041071,0.00015007,2.6698e+08,454.21,0,1.294e+08,64.35,502.62,1
1736,4.76,12124,1,12124,1,0.00012752,-1.5405e-09,0,0.00070224,-2.3335e-05,-80.488,-432.6,0,2.3376e+08,51.673,12123,12992,1,12992,1,0.0014711,1.6645e-09,0,0.0014711,0.00022817,3.7319e+08,496.21,0,4.9462e+08,375.31,12991,12124,1,12124,1,0.00012752,-1.2092e-09,0,0.00069668,-2.3404e-05,4.4552e+07,-330.71,0,2.4151e+08,49.563,12123,11209,1,11209,1,-0.0012161,-5.3903e-09,0,2.1762e-05,-0.00027459,-4.9462e+08,-1560.5,0,9.0593e+06,-121.21,11208,11690,1,11690,1,-0.00056916,-3.0458e-09,0,0.00034834,-0.00015364,-2.3149e+08,-887.61,0,1.2782e+08,-8.3469,11689,12558,1,12558,1,0.00082421,1.1131e-10,0,0.001045,0.00010693,2.4229e+08,34.411,0,3.3195e+08,98.703,12557,502.62,0,502.62,0,0.00080418,1.8774e-09,0,0.00041177,0.00015042,2.6732e+08,538.61,0,1.2956e+08,85.028,502.62,1
1736,4.77,12124,1,12124,1,0.00012845,2.9648e-09,0,0.00070386,-2.3504e-05,313.21,877.62,0,2.3405e+08,129.53,12123,12992,1,12992,1,0.0014751,1.3886e-08,0,0.0014751,0.00022857,3.7328e+08,4095.3,0,4.9548e+08,686.47,12991,12124,1,12124,1,0.00012845,2.0129e-09,0,0.00069825,-2.3573e-05,4.484e+07,594.42,0,2.4184e+08,78.332,12123,11209,1,11209,1,-0.0012182,-2.41e-09,0,2.1176e-05,-0.00027532,-4.9548e+08,-825.37,0,8.8339e+06,-224.7,11208,11690,1,11690,1,-0.0005698,1.0578e-10,0,0.00034913,-0.0001541,-2.3175e+08,27.497,0,1.2802e+08,-4.4102,11689,12558,1,12558,1,0.0008267,5.1631e-09,0,0.0010474,0.00010705,2.4261e+08,1520.5,0,3.3227e+08,246.5,12557,502.62,0,502.62,0,0.00080598,3.5196e-09,0,0.00041281,0.00015075,2.6765e+08,1050.2,0,1.2972e+08,178.42,502.62,1
1736,4.78,12124,1,12124,1,0.00012937,1.7048e-09,0,0.00070553,-2.3674e-05,148.63,539.65,0,2.3435e+08,-18.174,12123,12992,1,12992,1,0.0014792,4.7278e-09,0,0.0014792,0.00022898,3.7338e+08,1617.6,0,4.9637e+08,309.87,12991,12124,1,12124,1,0.00012937,1.5537e-09,0,0.00069987,-2.3744e-05,4.5129e+07,463.55,0,2.4218e+08,-19.545,12123,11209,1,11209,1,-0.0012204,-1.2177e-09,0,2.0594e-05,-0.00027607,-4.9637e+08,-266.8,0,8.6105e+06,-261.44,11208,11690,1,11690,1,-0.00057049,4.1019e-10,0,0.00034993,-0.00015457,-2.3203e+08,111.36,0,1.2823e+08,-81.568,11689,12558,1,12558,1,0.00082924,3.0426e-09,0,0.0010498,0.00010718,2.4295e+08,959.03,0,3.3261e+08,47.576,12557,502.62,0,502.62,0,0.00080785,1.5729e-09,0,0.00041389,0.0001511,2.68e+08,503.84,0,1.2989e+08,101.84,502.62,1
1736,4.79,12124,1,12124,1,0.00013031,2.1551e-09,0,0.00070718,-2.3845e-05,-7.825,677.59,0,2.3464e+08,61.006,12123,12992,1,12992,1,0.0014832,9.2397e-09,0,0.0014832,0.00022938,3.7347e+08,2782.6,0,4.9724e+08,508.83,12991,12124,1,12124,1,0.00013031,1.4629e-09,0,0.00070146,-2.3916e-05,4.542e+07,426.69,0,2.425e+08,36.761,12123,11209,1,11209,1,-0.0012225,-3.1706e-09,0,1.9997e-05,-0.00027681,-4.9724e+08,-838.29,0,8.3816e+06,-301.15,11208,11690,1,11690,1,-0.00057114,-1.4172e-10,0,0.00035072,-0.00015503,-2.3229e+08,-35.046,0,1.2843e+08,-50.045,11689,12558,1,12558,1,0.00083176,4.3683e-09,0,0.0010522,0.0001073,2.4327e+08,1351.7,0,3.3292e+08,179.23,12557,502.62,0,502.62,0,0.00080968,2.8683e-09,0,0.00041495,0.00015144,2.6833e+08,883.75,0,1.3005e+08,156.21,502.62,1
1736,4.8,12124,1,12124,1,0.00013125,2.0735e-09,0,0.00070885,-2.4018e-05,1.7334,661.89,0,2.3494e+08,-18.058,12123,12992,1,12992,1,0.0014872,5.7149e-09,0,0.0014872,0.00022979,3.7356e+08,1955.3,0,4.9812e+08,384,12991,12124,1,12124,1,0.00013125,2.0102e-09,0,0.00070307,-2.409e-05,4.5713e+07,597.37,0,2.4283e+08,-18.008,12123,11209,1,11209,1,-0.0012247,-1.4084e-09,0,1.9398e-05,-0.00027756,-4.9812e+08,-307.11,0,8.1527e+06,-322.48,11208,11690,1,11690,1,-0.00057181,4.2817e-10,0,0.00035153,-0.00015551,-2.3256e+08,117.83,0,1.2864e+08,-104.44,11689,12558,1,12558,1,0.00083432,3.7095e-09,0,0.0010546,0.00010743,2.436e+08,1182.3,0,3.3325e+08,66.012,12557,502.62,0,502.62,0,0.00081154,1.9165e-09,0,0.00041603,0.00015179,2.6867e+08,615.07,0,1.3021e+08,128.57,502.62,1
1736,4.81,12124,1,12124,1,0.0001322,1.7015e-09,0,0.0007105,-2.4192e-05,498.58,558.09,0,2.3522e+08,23.872,12123,12992,1,12992,1,0.0014912,9.8628e-09,0,0.0014912,0.00023018,3.7363e+08,2965.2,0,4.9898e+08,374.25,12991,12124,1,12124,1,0.0001322,8.113e-10,0,0.00070466,-2.4265e-05,4.6008e+07,257.73,0,2.4315e+08,13.579,12123,11209,1,11209,1,-0.0012268,-3.3061e-09,0,1.8789e-05,-0.00027831,-4.9898e+08,-861.06,0,7.92e+06,-260.59,11208,11690,1,11690,1,-0.00057245,-6.03e-10,0,0.00035232,-0.00015598,-2.3282e+08,-154.09,0,1.2884e+08,-62.65,11689,12558,1,12558,1,0.00083686,3.7453e-09,0,0.001057,0.00010755,2.4392e+08,1171.7,0,3.3356e+08,93.468,12557,502.62,0,502.62,0,0.00081338,2.9234e-09,0,0.0004171,0.00015213,2.6899e+08,898.24,0,1.3037e+08,118.12,502.62,1
1736,4.82,12124,1,12124,1,0.00013315,6.7289e-10,0,0.00071216,-2.4366e-05,502.55,252.55,0,2.3552e+08,-0.4746,12123,12992,1,12992,1,0.0014953,7.0635e-09,0,0.0014953,0.00023059,3.7371e+08,2121.6,0,4.9985e+08,356.58,12991,12124,1,12124,1,0.00013315,9.1417e-11,0,0.00070627,-2.444e-05,4.6302e+07,28.708,0,2.4348e+08,-11.039,12123,11209,1,11209,1,-0.0012289,-3.71e-09,0,1.8181e-05,-0.00027905,-4.9985e+08,-996.38,0,7.6886e+06,-285.86,11208,11690,1,11690,1,-0.00057311,-1.136e-09,0,0.00035312,-0.00015645,-2.3309e+08,-274.44,0,1.2904e+08,-79.157,11689,12558,1,12558,1,0.00083942,2.2457e-09,0,0.0010594,0.00010768,2.4425e+08,709.08,0,3.3388e+08,79.752,12557,502.62,0,502.62,0,0.00081523,2.3484e-09,0,0.00041817,0.00015247,2.6933e+08,719.29,0,1.3053e+08,112.83,502.62,1
1736,4.83,12124,1,12124,1,0.00013411,-4.2183e-10,0,0.00071385,-2.4543e-05,-70.223,-80.645,0,2.3581e+08,0.4822,12123,12992,1,12992,1,0.0014994,2.4836e-09,0,0.0014994,0.00023099,3.738e+08,849.69,0,5.0073e+08,338.28,12991,12124,1,12124,1,0.00013412,-4.399e-10,0,0.00070789,-2.4618e-05,4.66e+07,-137.64,0,2.4381e+08,-6.3479,12123,11209,1,11209,1,-0.0012311,-2.4572e-09,0,1.7568e-05,-0.00027981,-5.0073e+08,-674.16,0,7.4553e+06,-175.03,11208,11690,1,11690,1,-0.00057377,-1.6765e-09,0,0.00035394,-0.00015693,-2.3336e+08,-426.44,0,1.2924e+08,-48.852,11689,12558,1,12558,1,0.00084201,5.5582e-10,0,0.0010618,0.0001078,2.4457e+08,187.67,0,3.3421e+08,36.594,12557,502.62,0,502.62,0,0.00081711,1.3607e-09,0,0.00041927,0.00015282,2.6967e+08,397.24,0,1.3069e+08,83.141,502.62,1
1736,4.84,12124,1,12124,1,0.00013508,2.0684e-09,0,0.0007155,-2.472e-05,195.27,634.18,0,2.3609e+08,80.664,12123,12992,1,12992,1,0.0015034,1.1447e-08,0,0.0015034,0.00023139,3.7385e+08,3411.9,0,5.0159e+08,479.44,12991,12124,1,12124,1,0.00013509,9.2048e-10,0,0.00070948,-2.4796e-05,4.6899e+07,262.37,0,2.4413e+08,74.064,12123,11209,1,11209,1,-0.0012332,-4.9696e-09,0,1.6943e-05,-0.00028056,-5.0159e+08,-1368.5,0,7.2178e+06,-261.71,11208,11690,1,11690,1,-0.00057439,-6.4514e-10,0,0.00035474,-0.0001574,-2.3361e+08,-177.08,0,1.2944e+08,-21.056,11689,12558,1,12558,1,0.00084457,4.8041e-09,0,0.0010642,0.00010792,2.4489e+08,1444.4,0,3.3451e+08,177.46,12557,502.62,0,502.62,0,0.00081894,3.7182e-09,0,0.00042034,0.00015316,2.6998e+08,1120,0,1.3085e+08,142.27,502.62,1
1736,4.85,12124,1,12124,1,0.00013605,1.7795e-09,0,0.00071717,-2.4898e-05,940.77,569.92,0,2.3638e+08,-22.936,12123,12992,1,12992,1,0.0015075,9.8745e-09,0,0.0015075,0.00023179,3.7392e+08,2958.6,0,5.0246e+08,326.4,12991,12124,1,12124,1,0.00013606,6.6062e-10,0,0.0007111,-2.4975e-05,4.7199e+07,201.63,0,2.4445e+08,-20.466,12123,11209,1,11209,1,-0.0012354,-2.4761e-09,0,1.6315e-05,-0.00028132,-5.0246e+08,-688.17,0,6.9796e+06,-347.05,11208,11690,1,11690,1,-0.00057503,-4.0292e-10,0,0.00035554,-0.00015788,-2.3387e+08,-98.931,0,1.2963e+08,-111.17,11689,12558,1,12558,1,0.00084715,3.7721e-09,0,0.0010666,0.00010804,2.4521e+08,1160.1,0,3.3482e+08,60.25,12557,502.62,0,502.62,0,0.0008208,2.8553e-09,0,0.00042143,0.00015351,2.7031e+08,891.08,0,1.3101e+08,124.52,502.62,1
1736,4.86,12124,1,12124,1,0.00013703,3.6284e-10,0,0.00071886,-2.5077e-05,65.072,160.02,0,2.3666e+08,-17.693,12123,12992,1,12992,1,0.0015116,4.4091e-09,0,0.0015116,0.00023219,3.7398e+08,1485.3,0,5.0333e+08,333.62,12991,12124,1,12124,1,0.00013703,5.6277e-11,0,0.00071272,-2.5155e-05,4.7499e+07,14.286,0,2.4477e+08,-14.632,12123,11209,1,11209,1,-0.0012375,-2.0359e-09,0,1.5684e-05,-0.00028207,-5.0333e+08,-544.97,0,6.7407e+06,-242.47,11208,11690,1,11690,1,-0.00057568,-1.0998e-09,0,0.00035635,-0.00015836,-2.3413e+08,-267.21,0,1.2983e+08,-79.746,11689,12558,1,12558,1,0.00084975,1.4887e-09,0,0.0010691,0.00010816,2.4553e+08,478.51,0,3.3513e+08,36.587,12557,502.62,0,502.62,0,0.00082268,1.7098e-09,0,0.00042252,0.00015386,2.7064e+08,529.12,0,1.3117e+08,99.119,502.62,1
1736,4.87,12124,1,12124,1,0.00013802,1.4295e-09,0,0.00072055,-2.5258e-05,359.55,458.39,0,2.3695e+08,-7.8034,12123,12992,1,12992,1,0.0015157,4.66e-09,0,0.0015157,0.0002326,3.7404e+08,1594.3,0,5.0421e+08,349.94,12991,12124,1,12124,1,0.00013802,1.142e-09,0,0.00071434,-2.5337e-05,4.7804e+07,359.19,0,2.4509e+08,-18.015,12123,11209,1,11209,1,-0.0012397,-1.0582e-09,0,1.5046e-05,-0.00028284,-5.0421e+08,-232.56,0,6.4992e+06,-238.54,11208,11690,1,11690,1,-0.00057631,2.3862e-10,0,0.00035717,-0.00015884,-2.3439e+08,59.297,0,1.3003e+08,-72.794,11689,12558,1,12558,1,0.00085236,2.5983e-09,0,0.0010715,0.00010829,2.4585e+08,806.31,0,3.3544e+08,58.469,12557,502.62,0,502.62,0,0.00082456,1.491e-09,0,0.00042363,0.00015421,2.7097e+08,477.42,0,1.3133e+08,100.71,502.62,1
1736,4.88,12124,1,12124,1,0.00013902,-3.674e-10,0,0.00072223,-2.5441e-05,325.64,-66.993,0,2.3723e+08,7.9464,12123,12992,1,12992,1,0.0015198,2.3486e-09,0,0.0015198,0.00023299,3.7408e+08,740.36,0,5.0506e+08,380.94,12991,12124,1,12124,1,0.00013902,-3.1533e-10,0,0.00071596,-2.552e-05,4.8109e+07,-97.103,0,2.4541e+08,-5.8931,12123,11209,1,11209,1,-0.0012418,-2.9649e-09,0,1.4396e-05,-0.00028359,-5.0506e+08,-768.85,0,6.2538e+06,-184.65,11208,11690,1,11690,1,-0.00057693,-1.4586e-09,0,0.00035797,-0.00015932,-2.3464e+08,-356.28,0,1.3023e+08,-46.158,11689,12558,1,12558,1,0.00085497,5.2065e-10,0,0.0010739,0.0001084,2.4616e+08,169.5,0,3.3574e+08,52.411,12557,502.62,0,502.62,0,0.00082642,1.2569e-09,0,0.00042472,0.00015455,2.7129e+08,360.18,0,1.3149e+08,87.548,502.62,1
1736,4.89,12124,1,12124,1,0.00014001,-1.0005e-10,0,0.0007239,-2.5623e-05,302.09,-1.3928,0,2.3751e+08,12.397,12123,12992,1,12992,1,0.0015239,2.377e-09,0,0.0015239,0.00023339,3.7412e+08,709.69,0,5.0592e+08,496.96,12991,12124,1,12124,1,0.00014001,1.6941e-11,0,0.00071757,-2.5703e-05,4.8414e+07,3.676,0,2.4572e+08,-13.878,12123,11209,1,11209,1,-0.0012439,-3.7481e-09,0,1.3749e-05,-0.00028435,-5.0592e+08,-989.05,0,6.0098e+06,-160.25,11208,11690,1,11690,1,-0.00057755,-8.7515e-10,0,0.00035878,-0.0001598,-2.349e+08,-225.6,0,1.3042e+08,-61.792,11689,12558,1,12558,1,0.00085758,7.6083e-10,0,0.0010763,0.00010852,2.4647e+08,254.69,0,3.3604e+08,57.244,12557,502.62,0,502.62,0,0.00082828,1.2695e-09,0,0.00042582,0.0001549,2.7161e+08,371.29,0,1.3164e+08,112.26,502.62,1
1736,4.9,12124,1,12124,1,0.00014101,1.3364e-09,0,0.00072558,-2.5807e-05,556.59,404.82,0,2.3779e+08,33.64,12123,12992,1,12992,1,0.001528,5.4769e-09,0,0.001528,0.00023379,3.7417e+08,1595.9,0,5.0679e+08,411.88,12991,12124,1,12124,1,0.00014101,9.7495e-10,0,0.00071918,-2.5888e-05,4.872e+07,289.02,0,2.4603e+08,7.6979,12123,11209,1,11209,1,-0.001246,-1.6259e-09,0,1.3096e-05,-0.00028512,-5.0679e+08,-401.58,0,5.764e+06,-177.19,11208,11690,1,11690,1,-0.00057817,1.6646e-10,0,0.00035959,-0.00016029,-2.3515e+08,42.842,0,1.3062e+08,-38.106,11689,12558,1,12558,1,0.0008602,2.4417e-09,0,0.0010788,0.00010864,2.4678e+08,732.04,0,3.3633e+08,99.707,12557,502.62,0,502.62,0,0.00083015,1.5516e-09,0,0.00042693,0.00015525,2.7193e+08,466.11,0,1.318e+08,102.55,502.62,1
1736,4.91,12124,1,12124,1,0.00014202,-1.6845e-09,0,0.00072726,-2.5991e-05,134.13,-460.4,0,2.3806e+08,48.23,12123,12992,1,12992,1,0.0015321,3.7632e-09,0,0.0015321,0.00023419,3.742e+08,1121.6,0,5.0764e+08,403.71,12991,12124,1,12124,1,0.00014202,-1.314e-09,0,0.00072079,-2.6073e-05,4.9028e+07,-352.81,0,2.4634e+08,31.533,12123,11209,1,11209,1,-0.0012481,-7.2063e-09,0,1.2434e-05,-0.00028588,-5.0764e+08,-2004.9,0,5.5149e+06,-150.36,11208,11690,1,11690,1,-0.00057878,-3.5506e-09,0,0.0003604,-0.00016077,-2.354e+08,-998.18,0,1.3081e+08,-29.831,11689,12558,1,12558,1,0.00086281,3.9475e-10,0,0.0010812,0.00010875,2.4708e+08,122.64,0,3.3662e+08,101.52,12557,502.62,0,502.62,0,0.00083201,2.5463e-09,0,0.00042803,0.00015559,2.7225e+08,726.64,0,1.3196e+08,104.89,502.62,1
1736,4.92,12124,1,12124,1,0.00014303,9.9209e-10,0,0.00072895,-2.6176e-05,158.21,290.67,0,2.3834e+08,62.215,12123,12992,1,12992,1,0.0015363,9.5167e-09,0,0.0015363,0.00023459,3.7423e+08,2801.2,0,5.085e+08,479.75,12991,12124,1,12124,1,0.00014303,4.8873e-10,0,0.00072242,-2.6259e-05,4.9336e+07,121.61,0,2.4665e+08,64.925,12123,11209,1,11209,1,-0.0012502,-3.6891e-09,0,1.1773e-05,-0.00028664,-5.085e+08,-1024.8,0,5.2665e+06,-195.83,11208,11690,1,11690,1,-0.00057939,-7.9099e-10,0,0.00036121,-0.00016126,-2.3564e+08,-237.4,0,1.31e+08,-30.674,11689,12558,1,12558,1,0.00086545,2.4729e-09,0,0.0010836,0.00010887,2.4739e+08,717.75,0,3.3691e+08,135.79,12557,502.62,0,502.62,0,0.00083388,2.7526e-09,0,0.00042914,0.00015594,2.7256e+08,819.05,0,1.3211e+08,120.42,502.62,1
1736,4.93,12124,1,12124,1,0.00014405,3.5881e-09,0,0.00073065,-2.6363e-05,21.449,1056.3,0,2.3861e+08,55.813,12123,12992,1,12992,1,0.0015405,1.1824e-08,0,0.0015405,0.00023499,3.7427e+08,3518.9,0,5.0938e+08,491.57,12991,12124,1,12124,1,0.00014405,2.9584e-09,0,0.00072406,-2.6447e-05,4.9648e+07,829.65,0,2.4697e+08,35.251,12123,11209,1,11209,1,-0.0012524,-1.4088e-09,0,1.1101e-05,-0.00028743,-5.0938e+08,-454.73,0,5.0145e+06,-312.54,11208,11690,1,11690,1,-0.00058001,1.3124e-09,0,0.00036203,-0.00016175,-2.3589e+08,370.55,0,1.312e+08,-50.419,11689,12558,1,12558,1,0.00086812,5.5946e-09,0,0.0010861,0.00010899,2.477e+08,1642,0,3.3721e+08,176.25,12557,502.62,0,502.62,0,0.00083577,3.1057e-09,0,0.00043026,0.00015629,2.7288e+08,945.95,0,1.3227e+08,152.92,502.62,1
1736,4.94,12124,1,12124,1,0.00014508,3.2813e-09,0,0.00073233,-2.6552e-05,361.6,1007.1,0,2.3888e+08,46.649,12123,12992,1,12992,1,0.0015447,1.3913e-08,0,0.0015447,0.00023539,3.7428e+08,4136.6,0,5.1023e+08,470.53,12991,12124,1,12124,1,0.00014508,2.1267e-09,0,0.00072569,-2.6637e-05,4.9961e+07,636.01,0,2.4727e+08,19.845,12123,11209,1,11209,1,-0.0012545,-1.6674e-09,0,1.0412e-05,-0.0002882,-5.1023e+08,-390.98,0,4.7562e+06,-357.67,11208,11690,1,11690,1,-0.00058059,5.1862e-10,0,0.00036283,-0.00016224,-2.3613e+08,128.19,0,1.3139e+08,-57.577,11689,12558,1,12558,1,0.00087076,5.5331e-09,0,0.0010885,0.0001091,2.48e+08,1655.4,0,3.3749e+08,160.24,12557,502.62,0,502.62,0,0.00083764,3.6838e-09,0,0.00043137,0.00015664,2.7319e+08,1138.8,0,1.3243e+08,169.08,502.62,1
1736,4.95,12124,1,12124,1,0.00014611,1.5134e-09,0,0.00073402,-2.6741e-05,531.19,519.09,0,2.3915e+08,36.067,12123,12992,1,12992,1,0.0015488,1.0086e-08,0,0.0015488,0.00023578,3.7429e+08,3005.3,0,5.1108e+08,509.98,12991,12124,1,12124,1,0.00014611,6.7355e-10,0,0.00072731,-2.6826e-05,5.0274e+07,220,0,2.4757e+08,12.911,12123,11209,1,11209,1,-0.0012566,-4.1836e-09,0,9.7259e-06,-0.00028897,-5.1108e+08,-1034.3,0,4.4992e+06,-370.21,11208,11690,1,11690,1,-0.00058118,-8.8987e-10,0,0.00036364,-0.00016273,-2.3637e+08,-225.9,0,1.3158e+08,-74.587,11689,12558,1,12558,1,0.00087341,3.6019e-09,0,0.0010909,0.00010921,2.483e+08,1118.3,0,3.3777e+08,146.73,12557,502.62,0,502.62,0,0.00083951,3.0738e-09,0,0.00043249,0.00015699,2.735e+08,943.27,0,1.3258e+08,171.84,502.62,1
1736,4.96,12124,1,12124,1,0.00014715,1.6999e-09,0,0.00073573,-2.6931e-05,-95.665,569.02,0,2.3942e+08,49.071,12123,12992,1,12992,1,0.001553,8.7172e-09,0,0.001553,0.00023618,3.7431e+08,2718.2,0,5.1195e+08,533.49,12991,12124,1,12124,1,0.00014715,1.0529e-09,0,0.00072895,-2.7017e-05,5.0588e+07,321.13,0,2.4788e+08,36.072,12123,11209,1,11209,1,-0.0012587,-3.4829e-09,0,9.0408e-06,-0.00028974,-5.1195e+08,-856.99,0,4.2432e+06,-788.01,11208,11690,1,11690,1,-0.00058179,-6.5729e-10,0,0.00036446,-0.00016322,-2.3662e+08,-155.93,0,1.3177e+08,-59.438,11689,12558,1,12558,1,0.00087609,3.6764e-09,0,0.0010934,0.00010933,2.4861e+08,1132.8,0,3.3805e+08,169.28,12557,502.62,0,502.62,0,0.00084141,2.7733e-09,0,0.00043362,0.00015734,2.7382e+08,855.97,0,1.3274e+08,191.23,502.62,1
1736,4.97,12124,1,12124,1,0.0001482,1.1984e-09,0,0.00073743,-2.7123e-05,-168.53,426.36,0,2.3969e+08,4.8631,12123,12992,1,12992,1,0.0015572,6.5089e-09,0,0.0015572,0.00023657,3.7432e+08,2081.1,0,5.128e+08,474.24,12991,12124,1,12124,1,0.0001482,1.0308e-09,0,0.00073058,-2.721e-05,5.0906e+07,322.99,0,2.4819e+08,-11.885,12123,11209,1,11209,1,-0.0012608,-3.0559e-09,0,8.3415e-06,-0.00029052,-5.128e+08,-743.57,0,3.9819e+06,-665.8,11208,11690,1,11690,1,-0.00058237,-7.0738e-10,0,0.00036528,-0.00016372,-2.3686e+08,-163.36,0,1.3196e+08,-73.93,11689,12558,1,12558,1,0.00087877,2.7913e-09,0,0.0010958,0.00010944,2.4891e+08,883.39,0,3.3833e+08,74.684,12557,502.62,0,502.62,0,0.00084329,2.1437e-09,0,0.00043475,0.00015769,2.7413e+08,663.28,0,1.3289e+08,154.26,502.62,1
1736,4.98,12124,1,12124,1,0.00014925,-6.1875e-10,0,0.00073914,-2.7316e-05,-104.32,-114.54,0,2.3996e+08,28.684,12123,12992,1,12992,1,0.0015614,2.5041e-09,0,0.0015614,0.00023697,3.7432e+08,800.57,0,5.1365e+08,503.19,12991,12124,1,12124,1,0.00014925,-3.6516e-10,0,0.00073222,-2.7405e-05,5.1225e+07,-105.68,0,2.4849e+08,0.97579,12123,11209,1,11209,1,-0.0012629,-3.5101e-09,0,7.6408e-06,-0.0002913,-5.1365e+08,-859,0,3.7204e+06,-160.46,11208,11690,1,11690,1,-0.00058296,-2.1266e-09,0,0.0003661,-0.00016422,-2.371e+08,-514.53,0,1.3215e+08,-44.391,11689,12558,1,12558,1,0.00088147,6.3383e-10,0,0.0010983,0.00010955,2.4921e+08,214.46,0,3.3861e+08,69.144,12557,502.62,0,502.62,0,0.00084519,1.5697e-09,0,0.00043589,0.00015804,2.7444e+08,426.39,0,1.3305e+08,119.8,502.62,1
1736,4.99,12124,1,12124,1,0.00015032,2.5631e-09,0,0.00074084,-2.7511e-05,593.77,782.98,0,2.4022e+08,29.503,12123,12992,1,12992,1,0.0015657,1.238e-08,0,0.0015657,0.00023737,3.7432e+08,3600.1,0,5.1451e+08,599.15,12991,12124,1,12124,1,0.00015032,1.4998e-09,0,0.00073385,-2.76e-05,5.1545e+07,449.41,0,2.4879e+08,13.072,12123,11209,1,11209,1,-0.001265,-3.5985e-09,0,6.9314e-06,-0.00029208,-5.1451e+08,-882.61,0,3.456e+06,-353.22,11208,11690,1,11690,1,-0.00058353,-4.8586e-11,0,0.00036692,-0.00016471,-2.3733e+08,-13.483,0,1.3234e+08,-63.612,11689,12558,1,12558,1,0.00088417,4.629e-09,0,0.0011008,0.00010966,2.495e+08,1379.3,0,3.3888e+08,131.53,12557,502.62,0,502.62,0,0.00084707,3.4834e-09,0,0.00043702,0.00015839,2.7474e+08,1035.2,0,1.332e+08,153.64,502.62,1
1736,5,12124,1,12124,1,0.00015138,-2.5722e-10,0,0.00074255,-2.7706e-05,254.32,-7.2778,0,2.4049e+08,17.963,12123,12992,1,12992,1,0.0015699,2.8321e-09,0,0.0015699,0.00023776,3.7432e+08,921.92,0,5.1536e+08,567.76,12991,12124,1,12124,1,0.00015138,-1.545e-11,0,0.0007355,-2.7796e-05,5.1866e+07,-4.3999,0,2.4909e+08,-14.893,12123,11209,1,11209,1,-0.0012671,-3.8005e-09,0,6.2153e-06,-0.00029286,-5.1536e+08,-931.83,0,3.1892e+06,-213.18,11208,11690,1,11690,1,-0.00058411,-1.8407e-09,0,0.00036774,-0.00016521,-2.3756e+08,-433.01,0,1.3253e+08,-65.373,11689,12558,1,12558,1,0.00088688,1.019e-09,0,0.0011032,0.00010977,2.498e+08,343.25,0,3.3915e+08,72.051,12557,502.62,0,502.62,0,0.00084898,1.6433e-09,0,0.00043817,0.00015875,2.7505e+08,463.26,0,1.3336e+08,136.68,502.62,1
1736,5.01,12124,1,12124,1,0.00015246,1.4668e-09,0,0.00074426,-2.7902e-05,213.38,464.99,0,2.4074e+08,57.723,12123,12992,1,12992,1,0.0015741,8.7728e-09,0,0.0015741,0.00023815,3.7429e+08,2546.9,0,5.1622e+08,658.34,12991,12124,1,12124,1,0.00015246,5.9031e-10,0,0.00073714,-2.7994e-05,5.2189e+07,184.95,0,2.4938e+08,44.123,12123,11209,1,11209,1,-0.0012692,-4.7952e-09,0,5.4952e-06,-0.00029364,-5.1622e+08,-1210.6,0,2.9212e+06,-308.05,11208,11690,1,11690,1,-0.00058467,-5.963e-10,0,0.00036856,-0.00016572,-2.3779e+08,-141.27,0,1.3272e+08,-37.154,11689,12558,1,12558,1,0.00088959,3.4078e-09,0,0.0011057,0.00010988,2.5009e+08,1018,0,3.3941e+08,147.18,12557,502.62,0,502.62,0,0.00085086,2.9133e-09,0,0.0004393,0.0001591,2.7535e+08,860.96,0,1.3351e+08,154.19,502.62,1
1736,5.02,12124,1,12124,1,0.00015354,-1.0946e-09,0,0.00074597,-2.81e-05,607.47,-260.01,0,2.41e+08,41.532,12123,12992,1,12992,1,0.0015783,4.1854e-09,0,0.0015783,0.00023854,3.7428e+08,1235.5,0,5.1706e+08,583.88,12991,12124,1,12124,1,0.00015354,-7.4763e-10,0,0.00073878,-2.8193e-05,5.2514e+07,-180.89,0,2.4968e+08,21.558,12123,11209,1,11209,1,-0.0012713,-7.513e-09,0,4.7664e-06,-0.00029443,-5.1706e+08,-2085.5,0,2.65e+06,-288.07,11208,11690,1,11690,1,-0.00058524,-2.8942e-09,0,0.00036939,-0.00016622,-2.3802e+08,-783.42,0,1.329e+08,-66.611,11689,12558,1,12558,1,0.00089231,9.5271e-10,0,0.0011082,0.00010998,2.5038e+08,308.83,0,3.3968e+08,114.67,12557,502.62,0,502.62,0,0.00085276,2.8324e-09,0,0.00044045,0.00015945,2.7565e+08,811.38,0,1.3366e+08,158.45,502.62,1
1736,5.03,12124,1,12124,1,0.00015462,8.399e-10,0,0.00074769,-2.8298e-05,-264.14,261.62,0,2.4126e+08,34.523,12123,12992,1,12992,1,0.0015826,2.2271e-09,0,0.0015826,0.00023894,3.7426e+08,732.22,0,5.1791e+08,732.18,12991,12124,1,12124,1,0.00015462,1.0223e-09,0,0.00074043,-2.8392e-05,5.2838e+07,296.73,0,2.4997e+08,2.0033,12123,11209,1,11209,1,-0.0012734,-9.6495e-10,0,4.0395e-06,-0.00029522,-5.1791e+08,-204.03,0,2.3799e+06,-252.05,11208,11690,1,11690,1,-0.00058581,2.7191e-10,0,0.00037021,-0.00016672,-2.3825e+08,72.18,0,1.3309e+08,-64.483,11689,12558,1,12558,1,0.00089505,1.4171e-09,0,0.0011106,0.00011009,2.5067e+08,415.12,0,3.3994e+08,95.114,12557,502.62,0,502.62,0,0.00085467,7.407e-10,0,0.00044161,0.0001598,2.7595e+08,226.24,0,1.3382e+08,172.93,502.62,1
1736,5.04,12124,1,12124,1,0.00015572,1.6075e-10,0,0.00074941,-2.8498e-05,-100.75,72.974,0,2.4152e+08,84.326,12123,12992,1,12992,1,0.0015869,4.7438e-09,0,0.0015869,0.00023933,3.7423e+08,1357,0,5.1876e+08,727.91,12991,12124,1,12124,1,0.00015571,3.4614e-11,0,0.00074208,-2.8594e-05,5.3165e+07,8.8599,0,2.5026e+08,41.775,12123,11209,1,11209,1,-0.0012754,-4.6854e-09,0,3.298e-06,-0.000296,-5.1876e+08,-1156.3,0,2.1044e+06,-173.57,11208,11690,1,11690,1,-0.00058636,-6.7906e-10,0,0.00037103,-0.00016723,-2.3848e+08,-180.39,0,1.3327e+08,-11.116,11689,12558,1,12558,1,0.00089779,1.125e-09,0,0.0011131,0.0001102,2.5095e+08,341.09,0,3.402e+08,144.59,12557,502.62,0,502.62,0,0.00085657,1.6795e-09,0,0.00044276,0.00016016,2.7625e+08,474.02,0,1.3397e+08,155.11,502.62,1
1736,5.05,12124,1,12124,1,0.00015682,2.8956e-10,0,0.00075114,-2.87e-05,693.44,107.69,0,2.4177e+08,38.182,12123,12992,1,12992,1,0.0015912,2.7883e-09,0,0.0015912,0.00023972,3.742e+08,954.63,0,5.1961e+08,718.79,12991,12124,1,12124,1,0.00015682,3.6723e-10,0,0.00074373,-2.8797e-05,5.3495e+07,113.48,0,2.5055e+08,-12.252,12123,11209,1,11209,1,-0.0012775,-2.1154e-09,0,2.5507e-06,-0.0002968,-5.1961e+08,-490.12,0,1.827e+06,-187.5,11208,11690,1,11690,1,-0.00058691,-1.5553e-10,0,0.00037186,-0.00016774,-2.387e+08,-36.305,0,1.3346e+08,-64.661,11689,12558,1,12558,1,0.00090055,7.1751e-10,0,0.0011156,0.0001103,2.5124e+08,237.53,0,3.4046e+08,92.375,12557,502.62,0,502.62,0,0.00085848,6.5453e-10,0,0.00044393,0.00016051,2.7655e+08,195.86,0,1.3412e+08,154.53,502.62,1
1736,5.06,12124,1,12124,1,0.00015792,1.5852e-09,0,0.00075285,-2.8902e-05,153.92,476.05,0,2.4202e+08,100.58,12123,12992,1,12992,1,0.0015955,6.454e-09,0,0.0015955,0.00024012,3.7416e+08,1780.3,0,5.2046e+08,851.1,12991,12124,1,12124,1,0.00015792,1.271e-09,0,0.00074538,-2.9e-05,5.3824e+07,377.78,0,2.5084e+08,51.087,12123,11209,1,11209,1,-0.0012796,-4.3419e-09,0,1.7996e-06,-0.00029759,-5.2046e+08,-1031,0,1.5483e+06,-210.07,11208,11690,1,11690,1,-0.00058745,8.5664e-11,0,0.00037269,-0.00016825,-2.3892e+08,22.91,0,1.3364e+08,-25.503,11689,12558,1,12558,1,0.0009033,3.0925e-09,0,0.0011181,0.00011041,2.5152e+08,909.61,0,3.407e+08,198.46,12557,502.62,0,502.62,0,0.00086038,2.1177e-09,0,0.00044509,0.00016086,2.7684e+08,599.64,0,1.3427e+08,178.52,502.62,1
1736,5.07,12124,1,12124,1,0.00015903,-1.9752e-09,0,0.00075456,-2.9105e-05,214.26,-524.9,0,2.4227e+08,146.32,12123,12992,1,12992,1,0.0015997,5.9226e-09,0,0.0015997,0.0002405,3.7412e+08,1651.8,0,5.2129e+08,671.06,12991,12124,1,12124,1,0.00015903,-1.2035e-09,0,0.00074701,-2.9204e-05,5.4154e+07,-326.82,0,2.5112e+08,124.18,12123,11209,1,11209,1,-0.0012817,-1.0463e-08,0,1.0404e-06,-0.00029838,-5.2129e+08,-2696.8,0,1.2667e+06,-158.51,11208,11690,1,11690,1,-0.00058799,-4.6569e-09,0,0.00037351,-0.00016875,-2.3914e+08,-1312.9,0,1.3382e+08,19.774,11689,12558,1,12558,1,0.00090605,8.7585e-10,0,0.0011205,0.00011051,2.518e+08,249.18,0,3.4095e+08,248.62,12557,502.62,0,502.62,0,0.00086227,3.683e-09,0,0.00044624,0.00016122,2.7713e+08,1018.8,0,1.3442e+08,152.88,502.62,1
1736,5.08,12124,1,12124,1,0.00016015,1.499e-09,0,0.0007563,-2.9309e-05,104.7,425.96,0,2.4253e+08,22.952,12123,12992,1,12992,1,0.0016041,3.733e-09,0,0.0016041,0.00024089,3.7408e+08,991.46,0,5.2214e+08,867.65,12991,12124,1,12124,1,0.00016015,1.6242e-09,0,0.00074868,-2.941e-05,5.4486e+07,469.52,0,2.5141e+08,-6.9813,12123,11209,1,11209,1,-0.0012838,-9.8499e-10,0,2.8405e-07,-0.00029918,-5.2214e+08,-337.33,0,9.8655e+05,-318.03,11208,11690,1,11690,1,-0.00058854,5.1799e-10,0,0.00037434,-0.00016927,-2.3936e+08,150.02,0,1.34e+08,-97.912,11689,12558,1,12558,1,0.00090883,2.3139e-09,0,0.001123,0.00011061,2.5208e+08,679.39,0,3.412e+08,96.394,12557,502.62,0,502.62,0,0.0008642,1.1844e-09,0,0.00044742,0.00016157,2.7742e+08,333.33,0,1.3458e+08,208.57,502.62,1
1736,5.09,12124,1,12124,1,0.00016128,7.4245e-10,0,0.00075807,-2.9516e-05,151.2,236.56,0,2.4277e+08,90.228,12123,12992,1,12992,1,0.0016084,4.0484e-09,0,0.0016084,0.00024128,3.7402e+08,1131.4,0,5.2298e+08,671.69,12991,12124,1,12124,1,0.00016127,7.2845e-10,0,0.00075034,-2.9617e-05,5.4821e+07,222.99,0,2.5169e+08,33.569,12123,11209,1,11209,1,-0.0012858,-2.5625e-09,0,4.8448e-07,-0.00029998,-5.2298e+08,-576.83,0,6.9986e+05,-78.316,11208,11690,1,11690,1,-0.00058907,7.8686e-11,0,0.00037517,-0.00016978,-2.3958e+08,18.099,0,1.3418e+08,3.8588,11689,12558,1,12558,1,0.00091162,1.2605e-09,0,0.0011255,0.00011072,2.5236e+08,401,0,3.4145e+08,129.04,12557,502.62,0,502.62,0,0.00086612,9.5333e-10,0,0.00044854,0.00016193,2.7771e+08,274.81,0,1.3473e+08,138.2,502.62,1
1736,5.1,12124,1,12124,1,0.00016241,2.5376e-10,0,0.00075986,-2.9723e-05,173.39,97.48,0,2.4302e+08,107.6,12123,12992,1,12992,1,0.0016127,3.0698e-09,0,0.0016127,0.00024167,3.7396e+08,1051,0,5.2382e+08,836.83,12991,12124,1,12124,1,0.00016241,3.6885e-10,0,0.000752,-2.9826e-05,5.5157e+07,112.73,0,2.5197e+08,36.405,12123,11209,1,11209,1,-0.0012879,-4.1271e-09,0,1.2623e-06,-0.00030078,-5.2382e+08,-953.01,0,4.1145e+05,-80.273,11208,11690,1,11690,1,-0.00058959,-1.5419e-10,0,0.000376,-0.0001703,-2.3979e+08,-34.434,0,1.3436e+08,-16.668,11689,12558,1,12558,1,0.00091441,7.1635e-10,0,0.001128,0.00011082,2.5264e+08,238.17,0,3.4168e+08,172.01,12557,502.62,0,502.62,0,0.00086803,9.7074e-10,0,0.00044962,0.00016229,2.78e+08,263.29,0,1.3488e+08,178.11,502.62,1
1736,5.11,12124,1,12124,1,0.00016355,1.5358e-09,0,0.00076165,-2.9932e-05,-153.03,460.57,0,2.4326e+08,138.99,12123,12992,1,12992,1,0.0016171,6.6659e-09,0,0.0016171,0.00024206,3.7391e+08,1747.2,0,5.2467e+08,967.51,12991,12124,1,12124,1,0.00016355,1.6679e-09,0,0.00075367,-3.0035e-05,5.5494e+07,495.9,0,2.5226e+08,70.947,12123,11209,1,11209,1,-0.00129,-4.759e-09,0,2.0438e-06,-0.00030159,-5.2467e+08,-1098.7,0,1.2245e+05,-76.499,11208,11690,1,11690,1,-0.00059012,2.1779e-10,0,0.00037684,-0.00017081,-2.4001e+08,54.314,0,1.3454e+08,10.092,11689,12558,1,12558,1,0.00091722,2.7494e-09,0,0.0011305,0.00011092,2.5291e+08,827.33,0,3.4193e+08,224.76,12557,502.62,0,502.62,0,0.00086996,1.8788e-09,0,0.00045071,0.00016264,2.7829e+08,518.81,0,1.3503e+08,182.34,502.62,1
1736,5.12,12124,1,12124,1,0.0001647,1.6628e-09,0,0.00076344,-3.0141e-05,-320.77,520.56,0,2.4351e+08,201.42,12123,12992,1,12992,1,0.0016214,1.0757e-08,0,0.0016214,0.00024245,3.7384e+08,3017.9,0,5.2551e+08,918.32,12991,12124,1,12124,1,0.00016469,1.0486e-09,0,0.00075532,-3.0246e-05,5.5832e+07,316.82,0,2.5253e+08,154.67,12123,11209,1,11209,1,-0.001292,-7.0831e-09,0,2.8324e-06,-0.0003024,-5.2551e+08,-1700.3,0,1.6634e+05,-138.19,11208,11690,1,11690,1,-0.00059063,-5.8023e-10,0,0.00037767,-0.00017133,-2.4021e+08,-130.99,0,1.3472e+08,52.606,11689,12558,1,12558,1,0.00092003,3.8066e-09,0,0.001133,0.00011101,2.5318e+08,1137.6,0,3.4216e+08,340.97,12557,502.62,0,502.62,0,0.00087187,3.5051e-09,0,0.0004518,0.000163,2.7857e+08,980.65,0,1.3516e+08,203.43,502.62,1
1736,5.13,12124,1,12124,1,0.00016585,-2.3989e-09,0,0.00076524,-3.0352e-05,123.83,-627.32,0,2.4378e+08,152.27,12123,12992,1,12992,1,0.0016258,2.7097e-09,0,0.0016258,0.00024284,3.7377e+08,766.65,0,5.2634e+08,862.99,12991,12124,1,12124,1,0.00016585,-1.9979e-09,0,0.000757,-3.0459e-05,5.6172e+07,-528.43,0,2.5281e+08,112.17,12123,11209,1,11209,1,-0.0012941,-8.4517e-09,0,3.6273e-06,-0.0003032,-5.2634e+08,-2242,0,4.5984e+05,-170.88,11208,11690,1,11690,1,-0.00059114,-4.7096e-09,0,0.00037849,-0.00017185,-2.4042e+08,-1283.6,0,1.349e+08,25.815,11689,12558,1,12558,1,0.00092284,3.0904e-10,0,0.0011355,0.00011111,2.5345e+08,97.856,0,3.4239e+08,213.38,12557,502.62,0,502.62,0,0.00087379,2.9701e-09,0,0.00045289,0.00016336,2.7886e+08,803,0,1.3527e+08,179.61,502.62,1
1736,5.14,12124,1,12124,1,0.00016701,2.538e-09,0,0.00076703,-3.0564e-05,56.972,729.68,0,2.4403e+08,117.83,12123,12992,1,12992,1,0.0016302,1.2052e-08,0,0.0016302,0.00024322,3.7369e+08,3380.6,0,5.2718e+08,1146.4,12991,12124,1,12124,1,0.000167,1.8077e-09,0,0.00075866,-3.0672e-05,5.6512e+07,505.7,0,2.5308e+08,63.385,12123,11209,1,11209,1,-0.0012961,-5.247e-09,0,4.4362e-06,-0.00030401,-5.2718e+08,-1281.9,0,7.5826e+05,-854.63,11208,11690,1,11690,1,-0.00059165,8.971e-13,0,0.00037933,-0.00017237,-2.4063e+08,0.42686,0,1.3507e+08,-52.935,11689,12558,1,12558,1,0.00092566,4.6926e-09,0,0.001138,0.00011121,2.5372e+08,1341.3,0,3.4262e+08,274.15,12557,502.62,0,502.62,0,0.00087571,3.3937e-09,0,0.00045399,0.00016371,2.7913e+08,962.11,0,1.3538e+08,264.99,502.62,1
1736,5.15,12124,1,12124,1,0.00016817,1.2021e-10,0,0.00076884,-3.0777e-05,-23.379,85.992,0,2.443e+08,76.317,12123,12992,1,12992,1,0.0016346,3.2751e-09,0,0.0016346,0.00024361,3.7361e+08,1017.7,0,5.2801e+08,949.26,12991,12124,1,12124,1,0.00016817,2.2586e-10,0,0.00076033,-3.0886e-05,5.6855e+07,71.316,0,2.5335e+08,32.562,12123,11209,1,11209,1,-0.0012982,-4.93e-09,0,5.2375e-06,-0.00030482,-5.2801e+08,-1184.3,0,1.0537e+06,-626.31,11208,11690,1,11690,1,-0.00059216,-9.2116e-10,0,0.00038017,-0.0001729,-2.4083e+08,-204.11,0,1.3525e+08,-46.903,11689,12558,1,12558,1,0.00092851,1.2379e-09,0,0.0011405,0.00011131,2.5399e+08,395.06,0,3.4285e+08,156.41,12557,502.62,0,502.62,0,0.00087765,1.4716e-09,0,0.00045509,0.00016407,2.7942e+08,417.82,0,1.355e+08,220.41,502.62,1
1736,5.16,12124,1,12124,1,0.00016935,1.8416e-10,0,0.00077066,-3.0993e-05,388.41,89.82,0,2.4456e+08,59.081,12123,12992,1,12992,1,0.001639,3.1929e-09,0,0.001639,0.000244,3.7353e+08,1093.1,0,5.2885e+08,954.11,12991,12124,1,12124,1,0.00016935,2.2292e-10,0,0.00076201,-3.1104e-05,5.7201e+07,65.81,0,2.5363e+08,5.1822,12123,11209,1,11209,1,-0.0013003,-3.1672e-09,0,6.0581e-06,-0.00030564,-5.2885e+08,-718.06,0,1.3557e+06,-1460.5,11208,11690,1,11690,1,-0.00059266,-3.6465e-10,0,0.00038101,-0.00017342,-2.4104e+08,-81.928,0,1.3542e+08,-55.204,11689,12558,1,12558,1,0.00093137,8.6155e-10,0,0.001143,0.0001114,2.5426e+08,289.05,0,3.4307e+08,117.47,12557,502.62,0,502.62,0,0.00087959,8.8951e-10,0,0.00045621,0.00016443,2.797e+08,259.46,0,1.3561e+08,209.89,502.62,1
1736,5.17,12124,1,12124,1,0.00017054,6.2331e-10,0,0.00077247,-3.1209e-05,-89.649,209.24,0,2.4481e+08,132.86,12123,12992,1,12992,1,0.0016434,4.9434e-09,0,0.0016434,0.00024439,3.7343e+08,1244.2,0,5.2969e+08,982.87,12991,12124,1,12124,1,0.00017054,6.972e-10,0,0.00076369,-3.1322e-05,5.7548e+07,213.57,0,2.539e+08,60.62,12123,11209,1,11209,1,-0.0013023,-4.8464e-09,0,6.8848e-06,-0.00030646,-5.2969e+08,-1106.4,0,1.6604e+06,-104.36,11208,11690,1,11690,1,-0.00059315,-3.0471e-10,0,0.00038185,-0.00017395,-2.4124e+08,-71.885,0,1.356e+08,-13.611,11689,12558,1,12558,1,0.00093423,1.4408e-09,0,0.0011455,0.0001115,2.5452e+08,464.88,0,3.4329e+08,207.34,12557,502.62,0,502.62,0,0.00088153,1.4529e-09,0,0.00045732,0.00016479,2.7998e+08,389.69,0,1.3572e+08,207.75,502.62,1
1736,5.18,12124,1,12124,1,0.00017173,-2.4727e-10,0,0.00077428,-3.1427e-05,829.52,-32.107,0,2.4506e+08,134.83,12123,12992,1,12992,1,0.0016478,3.5052e-09,0,0.0016478,0.00024476,3.7333e+08,1106.2,0,5.3051e+08,1134.2,12991,12124,1,12124,1,0.00017173,3.1275e-10,0,0.00076536,-3.1541e-05,5.7896e+07,78.148,0,2.5416e+08,48.421,12123,11209,1,11209,1,-0.0013043,-7.6881e-09,0,7.7176e-06,-0.00030727,-5.3051e+08,-1844.1,0,1.9666e+06,-143.14,11208,11690,1,11690,1,-0.00059363,-7.8387e-10,0,0.00038268,-0.00017448,-2.4143e+08,-195.89,0,1.3577e+08,-3.9498,11689,12558,1,12558,1,0.0009371,8.0013e-10,0,0.001148,0.00011159,2.5478e+08,259.15,0,3.4349e+08,195.61,12557,502.62,0,502.62,0,0.00088346,1.773e-09,0,0.00045843,0.00016515,2.8025e+08,461.72,0,1.3583e+08,223.24,502.62,1
1736,5.19,12124,1,12124,1,0.00017293,-7.1118e-10,0,0.00077611,-3.1645e-05,-64.814,-184.34,0,2.4532e+08,168.86,12123,12992,1,12992,1,0.0016523,3.1611e-09,0,0.0016523,0.00024516,3.7324e+08,862.22,0,5.3136e+08,1105.8,12991,12124,1,12124,1,0.00017293,-4.1493e-10,0,0.00076706,-3.1761e-05,5.8245e+07,-116.85,0,2.5443e+08,86.939,12123,11209,1,11209,1,-0.0013064,-6.6775e-09,0,8.5521e-06,-0.00030809,-5.3136e+08,-1596.3,0,2.273e+06,-62.726,11208,11690,1,11690,1,-0.00059413,-1.2464e-09,0,0.00038353,-0.00017501,-2.4164e+08,-341.22,0,1.3594e+08,31.434,11689,12558,1,12558,1,0.00093999,8.3984e-11,0,0.0011506,0.00011169,2.5504e+08,21.698,0,3.4346e+08,221.72,12557,502.62,0,502.62,0,0.00088542,1.4338e-09,0,0.00045955,0.00016551,2.8053e+08,368.02,0,1.3594e+08,209.42,502.62,1
1736,5.2,12124,1,12124,1,0.00017414,4.3616e-10,0,0.00077794,-3.1867e-05,218.54,125.51,0,2.4557e+08,131.99,12123,12992,1,12992,1,0.0016567,4.0645e-09,0,0.0016567,0.00024554,3.7313e+08,1264.1,0,5.3219e+08,1076.8,12991,12124,1,12124,1,0.00017414,4.6621e-10,0,0.00076875,-3.1985e-05,5.8598e+07,120.96,0,2.547e+08,34.578,12123,11209,1,11209,1,-0.0013085,-3.6191e-09,0,9.4036e-06,-0.00030892,-5.3219e+08,-848.34,0,2.5854e+06,-83.577,11208,11690,1,11690,1,-0.00059461,1.9518e-11,0,0.00038438,-0.00017555,-2.4183e+08,4.9155,0,1.3611e+08,-14.185,11689,12558,1,12558,1,0.00094289,8.5922e-10,0,0.0011531,0.00011178,2.553e+08,247.43,0,3.4341e+08,198.13,12557,502.62,0,502.62,0,0.00088737,9.9229e-10,0,0.00046068,0.00016588,2.808e+08,284.43,0,1.3605e+08,222.87,502.62,1
1736,5.21,12124,1,12124,1,0.00017536,-2.2204e-09,0,0.00077976,-3.2088e-05,-153.45,-617.61,0,2.4582e+08,265.62,12123,12992,1,12992,1,0.0016612,3.985e-09,0,0.0016612,0.00024593,3.7302e+08,952.85,0,5.3302e+08,1218.6,12991,12124,1,12124,1,0.00017535,-2.2149e-09,0,0.00077043,-3.2207e-05,5.895e+07,-647.79,0,2.5496e+08,212.04,12123,11209,1,11209,1,-0.0013105,-9.4769e-09,0,1.0255e-05,-0.00030975,-5.3302e+08,-2302.8,0,2.8972e+06,-127.47,11208,11690,1,11690,1,-0.00059508,-3.703e-09,0,0.00038522,-0.00017608,-2.4202e+08,-1064.4,0,1.3628e+08,84.363,11689,12558,1,12558,1,0.00094579,-3.0057e-10,0,0.0011556,0.00011187,2.5556e+08,-81.948,0,3.4336e+08,353.61,12557,502.62,0,502.62,0,0.00088931,2.5496e-09,0,0.0004618,0.00016624,2.8107e+08,675.5,0,1.3616e+08,245.09,502.62,1
1736,5.22,12124,1,12124,1,0.00017658,-7.0071e-10,0,0.0007816,-3.2312e-05,677.53,-229.38,0,2.4607e+08,145.74,12123,12992,1,12992,1,0.0016657,3.6322e-09,0,0.0016657,0.00024631,3.729e+08,1195.9,0,5.3385e+08,1175.2,12991,12124,1,12124,1,0.00017657,-6.5617e-10,0,0.00077212,-3.2433e-05,5.9305e+07,-190.2,0,2.5522e+08,55.092,12123,11209,1,11209,1,-0.0013125,-4.8429e-09,0,1.1114e-05,-0.00031058,-5.3385e+08,-1657.7,0,3.2117e+06,-141.02,11208,11690,1,11690,1,-0.00059555,-1.6786e-09,0,0.00038607,-0.00017662,-2.4221e+08,-496.27,0,1.3645e+08,-7.527,11689,12558,1,12558,1,0.0009487,3.1535e-10,0,0.0011582,0.00011196,2.5581e+08,79.388,0,3.4331e+08,216.38,12557,502.62,0,502.62,0,0.00089127,1.4665e-09,0,0.00046293,0.0001666,2.8134e+08,447.57,0,1.3626e+08,241.54,502.62,1
1736,5.23,12124,1,12124,1,0.00017781,-1.7249e-09,0,0.00078343,-3.2536e-05,228.33,-518.34,0,2.4631e+08,293.14,12123,12992,1,12992,1,0.0016702,6.7958e-09,0,0.0016702,0.00024669,3.7277e+08,1515.8,0,5.3468e+08,1456.8,12991,12124,1,12124,1,0.0001778,-1.9354e-09,0,0.00077381,-3.2658e-05,5.966e+07,-569.54,0,2.5548e+08,220.83,12123,11209,1,11209,1,-0.0013146,-9.7262e-09,0,1.1979e-05,-0.00031141,-5.3468e+08,-2372,0,3.5279e+06,-134.81,11208,11690,1,11690,1,-0.00059601,-3.3436e-09,0,0.00038691,-0.00017716,-2.424e+08,-1059.2,0,1.3662e+08,84.788,11689,12558,1,12558,1,0.00095162,3.0119e-10,0,0.0011607,0.00011205,2.5606e+08,79.903,0,3.4325e+08,412.28,12557,502.62,0,502.62,0,0.00089322,2.7744e-09,0,0.00046407,0.00016696,2.816e+08,739.9,0,1.3637e+08,283.65,502.62,1
1736,5.24,12124,1,12124,1,0.00017904,-2.8137e-10,0,0.00078527,-3.2761e-05,-209.27,-136.29,0,2.4656e+08,253.71,12123,12992,1,12992,1,0.0016747,8.2211e-09,0,0.0016747,0.00024708,3.7265e+08,1859.8,0,5.3551e+08,1420.4,12991,12124,1,12124,1,0.00017904,-6.416e-10,0,0.00077551,-3.2886e-05,6.0017e+07,-200.63,0,2.5573e+08,182.8,12123,11209,1,11209,1,-0.0013166,-5.9591e-09,0,1.2847e-05,-0.00031224,-5.3551e+08,-1410.7,0,3.8448e+06,-103.99,11208,11690,1,11690,1,-0.00059647,-1.9626e-09,0,0.00038776,-0.0001777,-2.4259e+08,-631.97,0,1.3679e+08,75.613,11689,12558,1,12558,1,0.00095455,1.1157e-09,0,0.0011633,0.00011213,2.5631e+08,261.56,0,3.4319e+08,330.96,12557,502.62,0,502.62,0,0.00089518,2.2832e-09,0,0.0004652,0.00016733,2.8187e+08,594.06,0,1.3648e+08,257.42,502.62,1
1736,5.25,12124,1,12124,1,0.00018029,-3.1191e-09,0,0.00078711,-3.2989e-05,-336.07,-933.72,0,2.468e+08,295.76,12123,12992,1,12992,1,0.0016793,4.4363e-09,0,0.0016793,0.00024746,3.7252e+08,956.05,0,5.3634e+08,1510.5,12991,12124,1,12124,1,0.00018028,-3.5085e-09,0,0.00077721,-3.3114e-05,6.0376e+07,-1005.2,0,2.5599e+08,200.64,12123,11209,1,11209,1,-0.0013187,-9.5901e-09,0,1.3728e-05,-0.00031308,-5.3634e+08,-2467.5,0,4.1658e+06,-127.49,11208,11690,1,11690,1,-0.00059693,-5.3992e-09,0,0.00038861,-0.00017824,-2.4277e+08,-1698.5,0,1.3695e+08,93.033,11689,12558,1,12558,1,0.0009575,-4.7147e-10,0,0.0011658,0.00011222,2.5656e+08,-115.1,0,3.4313e+08,409.9,12557,502.62,0,502.62,0,0.00089714,3.0813e-09,0,0.00046635,0.00016769,2.8214e+08,887.38,0,1.3659e+08,289.58,502.62,1
1736,5.26,12124,1,12124,1,0.00018154,-1.7829e-09,0,0.00078896,-3.3218e-05,177.98,-592.91,0,2.4704e+08,282.38,12123,12992,1,12992,1,0.0016838,8.0152e-09,0,0.0016838,0.00024785,3.7238e+08,1776,0,5.3717e+08,1562.4,12991,12124,1,12124,1,0.00018154,-2.1573e-09,0,0.00077891,-3.3345e-05,6.0738e+07,-623.18,0,2.5624e+08,174.83,12123,11209,1,11209,1,-0.0013207,-7.9494e-09,0,1.4615e-05,-0.00031392,-5.3717e+08,-2020.3,0,4.4888e+06,-138.51,11208,11690,1,11690,1,-0.00059738,-4.2525e-09,0,0.00038947,-0.00017879,-2.4296e+08,-1343.3,0,1.3712e+08,65.253,11689,12558,1,12558,1,0.00096046,7.8072e-10,0,0.0011684,0.00011231,2.5681e+08,199.07,0,3.4306e+08,426.26,12557,502.62,0,502.62,0,0.00089911,3.1213e-09,0,0.0004675,0.00016806,2.824e+08,874.36,0,1.3669e+08,301.83,502.62,1
1736,5.27,12124,1,12124,1,0.00018281,4.5998e-10,0,0.00079081,-3.3448e-05,-55.4,30.951,0,2.4728e+08,246.81,12123,12992,1,12992,1,0.0016883,8.5734e-09,0,0.0016883,0.00024822,3.7223e+08,1909.4,0,5.3798e+08,1720.6,12991,12124,1,12124,1,0.0001828,-7.4577e-11,0,0.00078061,-3.3578e-05,6.11e+07,-24.141,0,2.5649e+08,106.09,12123,11209,1,11209,1,-0.0013227,-5.0586e-09,0,1.5511e-05,-0.00031476,-5.3798e+08,-1318,0,4.814e+06,-90.44,11208,11690,1,11690,1,-0.00059782,-1.6448e-09,0,0.00039032,-0.00017934,-2.4314e+08,-532.56,0,1.3728e+08,27.474,11689,12558,1,12558,1,0.00096342,2.3523e-09,0,0.0011709,0.00011239,2.5705e+08,556.58,0,3.4298e+08,355.41,12557,502.62,0,502.62,0,0.00090107,2.5337e-09,0,0.00046865,0.00016842,2.8266e+08,649.37,0,1.368e+08,327.37,502.62,1
1736,5.28,12124,1,12124,1,0.00018408,2.6295e-09,0,0.00079267,-3.368e-05,-19.253,666.45,0,2.4752e+08,229.34,12123,12992,1,12992,1,0.0016929,1.1525e-08,0,0.0016929,0.0002486,3.7209e+08,2694.5,0,5.3881e+08,1797.7,12991,12124,1,12124,1,0.00018407,2.2792e-09,0,0.00078234,-3.3812e-05,6.1465e+07,682.66,0,2.5674e+08,106.98,12123,11209,1,11209,1,-0.0013247,-4.4378e-09,0,1.6416e-05,-0.0003156,-5.3881e+08,-978.93,0,5.1424e+06,-93.112,11208,11690,1,11690,1,-0.00059827,1.3899e-10,0,0.00039117,-0.00017989,-2.4332e+08,45.415,0,1.3745e+08,21.431,11689,12558,1,12558,1,0.00096641,4.9157e-09,0,0.0011735,0.00011248,2.5729e+08,1230.9,0,3.4291e+08,330.14,12557,502.62,0,502.62,0,0.00090305,3.006e-09,0,0.00046981,0.00016879,2.8292e+08,748.79,0,1.369e+08,318.08,502.62,1
1736,5.29,12124,1,12124,1,0.00018536,-1.6448e-09,0,0.00079454,-3.3914e-05,81.849,-468.24,0,2.4776e+08,265.91,12123,12992,1,12992,1,0.0016975,5.7732e-09,0,0.0016975,0.00024899,3.7194e+08,1270.7,0,5.3964e+08,1548.5,12991,12124,1,12124,1,0.00018535,-1.7679e-09,0,0.00078406,-3.4048e-05,6.1832e+07,-512.03,0,2.5699e+08,161.37,12123,11209,1,11209,1,-0.0013268,-9.455e-09,0,1.7336e-05,-0.00031645,-5.3964e+08,-2187.3,0,5.4756e+06,-98.603,11208,11690,1,11690,1,-0.0005987,-3.0268e-09,0,0.00039203,-0.00018044,-2.4349e+08,-908.05,0,1.3761e+08,49.927,11689,12558,1,12558,1,0.00096941,2.6773e-11,0,0.0011761,0.00011256,2.5754e+08,9.0262,0,3.4283e+08,364.74,12557,502.62,0,502.62,0,0.00090504,2.3652e-09,0,0.00047097,0.00016916,2.8318e+08,619.78,0,1.3701e+08,302.62,502.62,1
1736,5.3,12124,1,12124,1,0.00018665,1.4724e-09,0,0.00079641,-3.415e-05,-57.751,379.89,0,2.4799e+08,258.7,12123,12992,1,12992,1,0.0017021,7.912e-09,0,0.0017021,0.00024937,3.7177e+08,1855,0,5.4046e+08,1774.2,12991,12124,1,12124,1,0.00018664,1.5462e-09,0,0.00078577,-3.4285e-05,6.2201e+07,437.41,0,2.5724e+08,131.06,12123,11209,1,11209,1,-0.0013288,-6.1503e-09,0,1.8257e-05,-0.0003173,-5.4046e+08,-1350.7,0,5.8081e+06,-47.317,11208,11690,1,11690,1,-0.00059913,4.7506e-11,0,0.00039289,-0.000181,-2.4367e+08,10.178,0,1.3778e+08,46.432,11689,12558,1,12558,1,0.00097242,2.9776e-09,0,0.0011787,0.00011265,2.5777e+08,780.66,0,3.4274e+08,343.67,12557,502.62,0,502.62,0,0.00090702,2.125e-09,0,0.00047214,0.00016953,2.8344e+08,549.06,0,1.3711e+08,319.93,502.62,1
1736,5.31,12124,1,12124,1,0.00018795,-3.2607e-10,0,0.00079828,-3.4387e-05,-69.415,-91.836,0,2.4823e+08,303.71,12123,12992,1,12992,1,0.0017067,7.8548e-09,0,0.0017067,0.00024975,3.7161e+08,1736.9,0,5.4128e+08,1633.8,12991,12124,1,12124,1,0.00018794,-2.7942e-10,0,0.0007875,-3.4524e-05,6.2571e+07,-88.572,0,2.5748e+08,197.31,12123,11209,1,11209,1,-0.0013308,-9.4772e-09,0,1.9188e-05,-0.00031815,-5.4128e+08,-2139.6,0,6.1441e+06,-61.868,11208,11690,1,11690,1,-0.00059956,-1.2452e-09,0,0.00039375,-0.00018155,-2.4384e+08,-358.24,0,1.3794e+08,71.418,11689,12558,1,12558,1,0.00097544,7.591e-10,0,0.0011813,0.00011273,2.5801e+08,198.08,0,3.4264e+08,427.76,12557,502.62,0,502.62,0,0.00090901,2.3994e-09,0,0.00047331,0.00016989,2.8369e+08,599.14,0,1.3722e+08,318.52,502.62,1
1736,5.32,12124,1,12124,1,0.00018925,2.6766e-09,0,0.00080016,-3.4625e-05,-11.422,743.87,0,2.4846e+08,274.09,12123,12992,1,12992,1,0.0017114,9.0494e-09,0,0.0017114,0.00025013,3.7144e+08,2403,0,5.421e+08,1903,12991,12124,1,12124,1,0.00018925,3.2183e-09,0,0.00078922,-3.4764e-05,6.2942e+07,851.21,0,2.5773e+08,141.59,12123,11209,1,11209,1,-0.0013328,-6.6263e-09,0,2.0125e-05,-0.00031901,-5.421e+08,-1414.9,0,6.481e+06,-134.55,11208,11690,1,11690,1,-0.00059997,4.3415e-10,0,0.00039461,-0.00018211,-2.4401e+08,111.58,0,1.381e+08,32.762,11689,12558,1,12558,1,0.00097847,5.0007e-09,0,0.0011838,0.00011281,2.5824e+08,1373.1,0,3.4255e+08,388.5,12557,502.62,0,502.62,0,0.000911,2.7953e-09,0,0.00047449,0.00017026,2.8394e+08,785.97,0,1.3732e+08,358.99,502.62,1
1736,5.33,12124,1,12124,1,0.00019057,7.5105e-10,0,0.00080203,-3.4865e-05,-324.59,253.7,0,2.4869e+08,348.07,12123,12992,1,12992,1,0.001716,9.7872e-09,0,0.001716,0.00025051,3.7126e+08,2391.8,0,5.4292e+08,1762.6,12991,12124,1,12124,1,0.00019056,1.0585e-09,0,0.00079094,-3.5005e-05,6.3315e+07,308.2,0,2.5797e+08,248.59,12123,11209,1,11209,1,-0.0013348,-1.0461e-08,0,2.1062e-05,-0.00031987,-5.4292e+08,-2289.4,0,6.8175e+06,-48.929,11208,11690,1,11690,1,-0.00060039,-5.4175e-10,0,0.00039548,-0.00018267,-2.4418e+08,-132.56,0,1.3825e+08,90.606,11689,12558,1,12558,1,0.00098151,2.172e-09,0,0.0011864,0.00011289,2.5848e+08,679.53,0,3.4244e+08,481.52,12557,502.62,0,502.62,0,0.00091299,2.8121e-09,0,0.00047567,0.00017063,2.8419e+08,720.11,0,1.3742e+08,347.04,502.62,1
1736,5.34,12124,1,12124,1,0.00019189,-3.4726e-09,0,0.0008039,-3.5106e-05,1187.7,-920.48,0,2.4891e+08,300.18,12123,12992,1,12992,1,0.0017206,8.4992e-09,0,0.0017206,0.00025088,3.7108e+08,2176.7,0,5.4373e+08,1663.9,12991,12124,1,12124,1,0.00019188,-2.9793e-09,0,0.00079266,-3.5249e-05,6.3691e+07,-904.46,0,2.582e+08,229.71,12123,11209,1,11209,1,-0.0013368,-1.3413e-08,0,2.2018e-05,-0.00032072,-5.4373e+08,-3035.9,0,7.1598e+06,-241.25,11208,11690,1,11690,1,-0.00060077,-6.9876e-09,0,0.00039633,-0.00018323,-2.4434e+08,-1871.9,0,1.3841e+08,34.99,11689,12558,1,12558,1,0.00098455,-7.2404e-11,0,0.001189,0.00011296,2.587e+08,-18.816,0,3.4233e+08,427.22,12557,502.62,0,502.62,0,0.00091497,4.4453e-09,0,0.00047685,0.000171,2.8444e+08,1144.8,0,1.3752e+08,361.87,502.62,1
1736,5.35,12124,1,12124,1,0.00019321,-3.0026e-09,0,0.00080578,-3.5347e-05,357.57,-854.32,0,2.4914e+08,378.62,12123,12992,1,12992,1,0.0017253,8.689e-09,0,0.0017253,0.00025126,3.7089e+08,1886.4,0,5.4455e+08,1860.3,12991,12124,1,12124,1,0.0001932,-2.4561e-09,0,0.00079438,-3.5492e-05,6.4064e+07,-771.79,0,2.5844e+08,315.98,12123,11209,1,11209,1,-0.0013389,-1.4596e-08,0,2.2972e-05,-0.00032159,-5.4455e+08,-3389.4,0,7.5002e+06,-191.76,11208,11690,1,11690,1,-0.00060118,-6.2228e-09,0,0.0003972,-0.00018379,-2.445e+08,-1772.3,0,1.3856e+08,97.688,11689,12558,1,12558,1,0.0009876,2.4098e-10,0,0.0011916,0.00011304,2.5893e+08,69.131,0,3.4222e+08,531.28,12557,502.62,0,502.62,0,0.00091696,4.4845e-09,0,0.00047803,0.00017137,2.8469e+08,1174.1,0,1.3763e+08,372.42,502.62,1
1736,5.36,12124,1,12124,1,0.00019455,-2.2084e-09,0,0.00080768,-3.5591e-05,-616.76,-683.73,0,2.4936e+08,372.99,12123,12992,1,12992,1,0.00173,1.0161e-08,0,0.00173,0.00025165,3.707e+08,2200.7,0,5.4538e+08,2059.8,12991,12124,1,12124,1,0.00019454,-2.5967e-09,0,0.00079612,-3.5737e-05,6.444e+07,-726.77,0,2.5867e+08,259.79,12123,11209,1,11209,1,-0.0013409,-9.3145e-09,0,2.3928e-05,-0.00032245,-5.4538e+08,-2853.8,0,7.8407e+06,-164.59,11208,11690,1,11690,1,-0.00060159,-5.0862e-09,0,0.00039807,-0.00018436,-2.4467e+08,-1452.6,0,1.3872e+08,83.852,11689,12558,1,12558,1,0.00099067,4.9397e-10,0,0.0011942,0.00011312,2.5916e+08,127.62,0,3.4211e+08,520.9,12557,502.62,0,502.62,0,0.00091897,3.6945e-09,0,0.00047923,0.00017174,2.8494e+08,1029.2,0,1.3773e+08,405.56,502.62,1
1736,5.37,12124,1,12124,1,0.0001959,4.5983e-09,0,0.00080957,-3.5838e-05,179.74,1184.2,0,2.4959e+08,348.11,12123,12992,1,12992,1,0.0017346,1.5869e-08,0,0.0017346,0.00025202,3.7051e+08,3646.3,0,5.4618e+08,2451.8,12991,12124,1,12124,1,0.00019589,4.1193e-09,0,0.00079787,-3.5986e-05,6.4822e+07,1248.9,0,2.589e+08,152.54,12123,11209,1,11209,1,-0.0013429,-8.238e-09,0,2.4906e-05,-0.00032331,-5.4618e+08,-1784.4,0,8.1878e+06,-279.78,11208,11690,1,11690,1,-0.00060197,5.6438e-10,0,0.00039893,-0.00018493,-2.4482e+08,175.18,0,1.3888e+08,23.789,11689,12558,1,12558,1,0.00099376,8.8024e-09,0,0.0011968,0.00011319,2.5938e+08,2195.5,0,3.4198e+08,527.56,12557,502.62,0,502.62,0,0.00092098,4.8659e-09,0,0.00048043,0.00017212,2.8518e+08,1214.5,0,1.3783e+08,487.56,502.62,1
1736,5.38,12124,1,12124,1,0.00019726,3.03e-09,0,0.00081149,-3.6086e-05,-131.84,853.05,0,2.4981e+08,380.53,12123,12992,1,12992,1,0.0017394,1.3577e-08,0,0.0017394,0.0002524,3.7031e+08,3159.5,0,5.4701e+08,2259.8,12991,12124,1,12124,1,0.00019725,3.4739e-09,0,0.00079962,-3.6235e-05,6.5204e+07,975.12,0,2.5914e+08,216.21,12123,11209,1,11209,1,-0.0013449,-9.0571e-09,0,2.5895e-05,-0.00032419,-5.4701e+08,-1940.9,0,8.5383e+06,-113.86,11208,11690,1,11690,1,-0.00060237,6.5943e-10,0,0.00039981,-0.0001855,-2.4498e+08,175.21,0,1.3903e+08,76.325,11689,12558,1,12558,1,0.00099687,5.2086e-09,0,0.0011994,0.00011327,2.5961e+08,1551.2,0,3.4186e+08,532.73,12557,502.62,0,502.62,0,0.00092301,3.2995e-09,0,0.00048164,0.00017249,2.8543e+08,871.43,0,1.3794e+08,438.59,502.62,1
1736,5.39,12124,1,12124,1,0.00019863,-1.4758e-09,0,0.00081339,-3.6336e-05,316.92,-346.61,0,2.5003e+08,366.59,12123,12992,1,12992,1,0.0017441,8.2065e-09,0,0.0017441,0.00025277,3.7009e+08,2644.8,0,5.4781e+08,2064.2,12991,12124,1,12124,1,0.00019862,-8.6628e-10,0,0.00080136,-3.6488e-05,6.5589e+07,-245.11,0,2.5937e+08,257.65,12123,11209,1,11209,1,-0.0013469,-1.3651e-08,0,2.6889e-05,-0.00032506,-5.4781e+08,-3010.9,0,8.889e+06,-103.65,11208,11690,1,11690,1,-0.00060274,-3.4798e-09,0,0.00040068,-0.00018608,-2.4513e+08,-899.56,0,1.3918e+08,81.06,11689,12558,1,12558,1,0.00099999,3.938e-10,0,0.0012021,0.00011334,2.5982e+08,99.068,0,3.4172e+08,493.84,12557,502.62,0,502.62,0,0.00092502,3.4368e-09,0,0.00048285,0.00017286,2.8566e+08,855.67,0,1.3803e+08,408.4,502.62,1
1736,5.4,12124,1,12124,1,0.0002,-1.1122e-09,0,0.00081529,-3.6587e-05,151.54,-280.57,0,2.5024e+08,404.55,12123,12992,1,12992,1,0.0017489,9.8806e-09,0,0.0017489,0.00025314,3.6987e+08,2467,0,5.4861e+08,2304.3,12991,12124,1,12124,1,0.00019999,-8.4921e-10,0,0.0008031,-3.674e-05,6.5974e+07,-260.88,0,2.5959e+08,275.19,12123,11209,1,11209,1,-0.0013488,-1.4468e-08,0,2.7893e-05,-0.00032594,-5.4861e+08,-3204.7,0,9.242e+06,-81.626,11208,11690,1,11690,1,-0.0006031,-2.6493e-09,0,0.00040155,-0.00018665,-2.4528e+08,-708.2,0,1.3933e+08,89.658,11689,12558,1,12558,1,0.0010031,3.8826e-10,0,0.0012047,0.00011341,2.6003e+08,102.81,0,3.4158e+08,547.57,12557,502.62,0,502.62,0,0.00092702,3.3588e-09,0,0.00048406,0.00017324,2.859e+08,828.69,0,1.3813e+08,442.06,502.62,1
1736,5.41,12124,1,12124,1,0.00020139,-1.2438e-09,0,0.00081722,-3.6839e-05,-171.72,-340.75,0,2.5046e+08,443.09,12123,12992,1,12992,1,0.0017537,1.1815e-08,0,0.0017537,0.00025353,3.6966e+08,2570.2,0,5.4944e+08,2310.8,12991,12124,1,12124,1,0.00020138,-1.4471e-09,0,0.00080487,-3.6995e-05,6.636e+07,-410.62,0,2.5982e+08,295.08,12123,11209,1,11209,1,-0.0013509,-1.3638e-08,0,2.8899e-05,-0.00032682,-5.4944e+08,-3013.7,0,9.5946e+06,-89.835,11208,11690,1,11690,1,-0.00060349,-3.3572e-09,0,0.00040244,-0.00018723,-2.4544e+08,-955.85,0,1.3949e+08,106.41,11689,12558,1,12558,1,0.0010063,7.3914e-10,0,0.0012073,0.00011349,2.6026e+08,166.29,0,3.4145e+08,616.51,12557,502.62,0,502.62,0,0.00092906,3.5604e-09,0,0.00048529,0.00017362,2.8614e+08,896.08,0,1.3824e+08,470.76,502.62,1
1736,5.42,12124,1,12124,1,0.00020279,-6.711e-10,0,0.00081915,-3.7095e-05,174.99,-206.45,0,2.5068e+08,447.12,12123,12992,1,12992,1,0.0017585,1.1497e-08,0,0.0017585,0.0002539,3.6943e+08,2565.5,0,5.5026e+08,2537.3,12991,12124,1,12124,1,0.00020278,-8.3729e-10,0,0.00080663,-3.7253e-05,6.6751e+07,-233.84,0,2.6004e+08,262.36,12123,11209,1,11209,1,-0.0013529,-1.3838e-08,0,2.9921e-05,-0.00032771,-5.5026e+08,-3048.6,0,9.9515e+06,-89.836,11208,11690,1,11690,1,-0.00060385,-2.2637e-09,0,0.00040332,-0.00018781,-2.4559e+08,-691.03,0,1.3964e+08,96.177,11689,12558,1,12558,1,0.0010094,9.5389e-10,0,0.00121,0.00011356,2.6047e+08,236.74,0,3.413e+08,631.4,12557,502.62,0,502.62,0,0.0009311,3.3897e-09,0,0.00048653,0.00017399,2.8638e+08,856.73,0,1.3834e+08,496.02,502.62,1
1736,5.43,12124,1,12124,1,0.0002042,-2.8363e-10,0,0.00082108,-3.7353e-05,-83.719,-111.67,0,2.5089e+08,480.91,12123,12992,1,12992,1,0.0017633,1.2722e-08,0,0.0017633,0.00025428,3.6919e+08,2728.1,0,5.5106e+08,2700.3,12991,12124,1,12124,1,0.00020419,-4.792e-10,0,0.00080839,-3.7512e-05,6.7143e+07,-135.17,0,2.6026e+08,312.12,12123,11209,1,11209,1,-0.0013549,-1.4247e-08,0,3.095e-05,-0.0003286,-5.5106e+08,-3122.8,0,1.031e+07,-51.376,11208,11690,1,11690,1,-0.00060421,-1.7065e-09,0,0.0004042,-0.0001884,-2.4573e+08,-555.23,0,1.3978e+08,115.11,11689,12558,1,12558,1,0.0010126,1.3296e-09,0,0.0012126,0.00011363,2.6068e+08,331.16,0,3.4114e+08,655.92,12557,502.62,0,502.62,0,0.00093314,3.587e-09,0,0.00048776,0.00017437,2.8661e+08,898.3,0,1.3844e+08,512.06,502.62,1
1736,5.44,12124,1,12124,1,0.00020561,1.1109e-09,0,0.00082301,-3.7612e-05,-56.434,273.03,0,2.511e+08,476.63,12123,12992,1,12992,1,0.0017681,1.3924e-08,0,0.0017681,0.00025465,3.6896e+08,3044.8,0,5.5187e+08,2843.4,12991,12124,1,12124,1,0.00020561,1.2079e-09,0,0.00081016,-3.7773e-05,6.7537e+07,327.17,0,2.6048e+08,280.51,12123,11209,1,11209,1,-0.0013569,-1.3403e-08,0,3.1988e-05,-0.00032949,-5.5187e+08,-2882.6,0,1.067e+07,-78.153,11208,11690,1,11690,1,-0.00060456,-5.6556e-10,0,0.00040509,-0.00018898,-2.4587e+08,-163.15,0,1.3993e+08,94.846,11689,12558,1,12558,1,0.0010158,3.0471e-09,0,0.0012153,0.0001137,2.6089e+08,775.43,0,3.4099e+08,659.59,12557,502.62,0,502.62,0,0.00093518,3.6721e-09,0,0.000489,0.00017475,2.8684e+08,931.54,0,1.3854e+08,539.76,502.62,1
1736,5.45,12124,1,12124,1,0.00020704,1.0085e-09,0,0.00082496,-3.7873e-05,85.163,270.58,0,2.5131e+08,521.39,12123,12992,1,12992,1,0.001773,1.5342e-08,0,0.001773,0.00025503,3.6872e+08,3419.8,0,5.5269e+08,2795.6,12991,12124,1,12124,1,0.00020704,1.103e-09,0,0.00081194,-3.8035e-05,6.7934e+07,305.1,0,2.607e+08,349.57,12123,11209,1,11209,1,-0.0013589,-1.4678e-08,0,3.3037e-05,-0.00033039,-5.5269e+08,-3144.5,0,1.1032e+07,-46.601,11208,11690,1,11690,1,-0.00060491,-5.6105e-10,0,0.00040598,-0.00018958,-2.4602e+08,-163.12,0,1.4008e+08,115.76,11689,12558,1,12558,1,0.001019,2.7444e-09,0,0.0012179,0.00011376,2.611e+08,738.94,0,3.4083e+08,720.46,12557,502.62,0,502.62,0,0.00093724,3.9806e-09,0,0.00049025,0.00017513,2.8708e+08,1002,0,1.3864e+08,549.93,502.62,1
1736,5.46,12124,1,12124,1,0.00020849,4.5794e-10,0,0.0008269,-3.8136e-05,-36.294,130.21,0,2.5151e+08,560.74,12123,12992,1,12992,1,0.0017778,1.5577e-08,0,0.0017778,0.0002554,3.6846e+08,3431.1,0,5.535e+08,2892.1,12991,12124,1,12124,1,0.00020848,6.772e-10,0,0.00081371,-3.83e-05,6.8332e+07,188.52,0,2.6091e+08,400.85,12123,11209,1,11209,1,-0.0013608,-1.6423e-08,0,3.4097e-05,-0.00033128,-5.535e+08,-3515.7,0,1.1397e+07,-60.12,11208,11690,1,11690,1,-0.00060524,-1.1931e-09,0,0.00040687,-0.00019017,-2.4615e+08,-331.49,0,1.4022e+08,147.37,11689,12558,1,12558,1,0.0010222,2.2384e-09,0,0.0012206,0.00011383,2.613e+08,604.74,0,3.4066e+08,765.24,12557,502.62,0,502.62,0,0.00093928,4.2472e-09,0,0.00049151,0.00017551,2.873e+08,1063.8,0,1.3874e+08,562.42,502.62,1
1736,5.47,12124,1,12124,1,0.00020993,9.1432e-10,0,0.00082886,-3.84e-05,320.8,265.78,0,2.5172e+08,563.5,12123,12992,1,12992,1,0.0017827,1.7955e-08,0,0.0017827,0.00025578,3.6821e+08,3886.3,0,5.5431e+08,2980,12991,12124,1,12124,1,0.00020992,9.6067e-10,0,0.0008155,-3.8566e-05,6.8732e+07,273.58,0,2.6113e+08,394.24,12123,11209,1,11209,1,-0.0013628,-1.682e-08,0,3.5161e-05,-0.00033219,-5.5431e+08,-3580.1,0,1.1762e+07,-70.757,11208,11690,1,11690,1,-0.00060558,-9.8002e-10,0,0.00040776,-0.00019076,-2.4629e+08,-268.66,0,1.4037e+08,122.24,11689,12558,1,12558,1,0.0010254,2.8008e-09,0,0.0012233,0.0001139,2.615e+08,771.49,0,3.4049e+08,785.64,12557,502.62,0,502.62,0,0.00094135,4.6133e-09,0,0.00049277,0.00017589,2.8753e+08,1142.3,0,1.3884e+08,588.3,502.62,1
1736,5.48,12124,1,12124,1,0.00021139,2.9827e-09,0,0.00083081,-3.8667e-05,178.21,842.7,0,2.5192e+08,637.85,12123,12992,1,12992,1,0.0017876,2.1787e-08,0,0.0017876,0.00025616,3.6795e+08,4851.7,0,5.5512e+08,3208.9,12991,12124,1,12124,1,0.00021138,3.4709e-09,0,0.00081728,-3.8833e-05,6.9133e+07,940.45,0,2.6133e+08,440.28,12123,11209,1,11209,1,-0.0013648,-1.6784e-08,0,3.6236e-05,-0.00033309,-5.5512e+08,-3520.8,0,1.2129e+07,-148.33,11208,11690,1,11690,1,-0.0006059,-5.9287e-10,0,0.00040865,-0.00019136,-2.4642e+08,-139.44,0,1.4051e+08,148.27,11689,12558,1,12558,1,0.0010287,6.2077e-09,0,0.0012259,0.00011396,2.617e+08,1785.8,0,3.403e+08,903.49,12557,502.62,0,502.62,0,0.0009434,5.3529e-09,0,0.00049403,0.00017627,2.8776e+08,1362.1,0,1.3893e+08,649.03,502.62,1
1736,5.49,12124,1,12124,1,0.00021286,2.8794e-10,0,0.00083279,-3.8935e-05,-22.846,175.24,0,2.5213e+08,606.4,12123,12992,1,12992,1,0.0017926,1.5114e-08,0,0.0017926,0.00025653,3.6769e+08,4490.8,0,5.5593e+08,3206.1,12991,12124,1,12124,1,0.00021285,6.7121e-10,0,0.00081907,-3.9103e-05,6.9536e+07,185.52,0,2.6155e+08,400.84,12123,11209,1,11209,1,-0.0013668,-2.0171e-08,0,3.7312e-05,-0.00033401,-5.5593e+08,-4245.2,0,1.2495e+07,-43.081,11208,11690,1,11690,1,-0.00060623,-1.7272e-09,0,0.00040955,-0.00019196,-2.4655e+08,-422.24,0,1.4065e+08,130.43,11689,12558,1,12558,1,0.0010319,2.7429e-09,0,0.0012286,0.00011402,2.619e+08,813.14,0,3.4013e+08,837.89,12557,502.62,0,502.62,0,0.00094548,4.8936e-09,0,0.00049531,0.00017666,2.8798e+08,1254.4,0,1.3904e+08,646.88,502.62,1
1736,5.5,12124,1,12124,1,0.00021435,1.4941e-10,0,0.00083476,-3.9206e-05,-8.3185,134.03,0,2.5232e+08,671.35,12123,12992,1,12992,1,0.0017975,1.8046e-08,0,0.0017975,0.0002569,3.6741e+08,4581.7,0,5.5673e+08,3315.3,12991,12124,1,12124,1,0.00021433,6.8149e-10,0,0.00082086,-3.9376e-05,6.9943e+07,193.85,0,2.6175e+08,492.38,12123,11209,1,11209,1,-0.0013688,-2.2372e-08,0,3.841e-05,-0.00033492,-5.5673e+08,-4731.4,0,1.2867e+07,-62.199,11208,11690,1,11690,1,-0.00060654,-2.094e-09,0,0.00041045,-0.00019256,-2.4668e+08,-510.65,0,1.4079e+08,165.62,11689,12558,1,12558,1,0.0010352,2.6463e-09,0,0.0012313,0.00011408,2.6209e+08,792.92,0,3.3993e+08,924.33,12557,502.62,0,502.62,0,0.00094755,5.5794e-09,0,0.00049659,0.00017704,2.882e+08,1372.2,0,1.3913e+08,665.43,502.62,1
1736,5.51,12124,1,12124,1,0.00021583,1.0876e-09,0,0.00083673,-3.9478e-05,-290.99,375.34,0,2.5252e+08,704.79,12123,12992,1,12992,1,0.0018025,2.0729e-08,0,0.0018025,0.00025728,3.6712e+08,4548.8,0,5.5754e+08,3579.8,12991,12124,1,12124,1,0.00021582,1.4831e-09,0,0.00082267,-3.9649e-05,7.035e+07,430.16,0,2.6195e+08,535.96,12123,11209,1,11209,1,-0.0013708,-2.3168e-08,0,3.9513e-05,-0.00033583,-5.5754e+08,-4880.8,0,1.324e+07,-72.7,11208,11690,1,11690,1,-0.00060686,-1.3976e-09,0,0.00041135,-0.00019317,-2.4681e+08,-363.34,0,1.4093e+08,186.88,11689,12558,1,12558,1,0.0010385,4.1324e-09,0,0.001234,0.00011414,2.6229e+08,1221.8,0,3.3974e+08,949.86,12557,502.62,0,502.62,0,0.00094962,5.9843e-09,0,0.00049787,0.00017743,2.8842e+08,1455.2,0,1.3923e+08,681.18,502.62,1
1736,5.52,12124,1,12124,1,0.00021734,-2.1778e-09,0,0.00083872,-3.9753e-05,166.25,-495.89,0,2.5272e+08,691.89,12123,12992,1,12992,1,0.0018075,1.5089e-08,0,0.0018075,0.00025765,3.6685e+08,4521.4,0,5.5834e+08,3628.4,12991,12124,1,12124,1,0.00021732,-1.6482e-09,0,0.00082448,-3.9926e-05,7.0761e+07,-472.99,0,2.6216e+08,489.39,12123,11209,1,11209,1,-0.0013728,-2.6328e-08,0,4.0628e-05,-0.00033675,-5.5834e+08,-5605.5,0,1.3615e+07,-109.17,11208,11690,1,11690,1,-0.00060716,-4.9622e-09,0,0.00041225,-0.00019378,-2.4693e+08,-1275.7,0,1.4107e+08,154.08,11689,12558,1,12558,1,0.0010418,9.1288e-10,0,0.0012367,0.00011421,2.6248e+08,248.45,0,3.3954e+08,954.37,12557,502.62,0,502.62,0,0.00095172,5.9805e-09,0,0.00049917,0.00017782,2.8865e+08,1459.9,0,1.3933e+08,720.8,502.62,1
1736,5.53,12124,1,12124,1,0.00021886,-1.5527e-09,0,0.00084072,-4.003e-05,17.983,-377.54,0,2.5291e+08,701.4,12123,12992,1,12992,1,0.0018125,1.7371e-08,0,0.0018125,0.00025802,3.6655e+08,4754.4,0,5.5915e+08,3959.3,12991,12124,1,12124,1,0.00021884,-1.6157e-09,0,0.0008263,-4.0205e-05,7.1175e+07,-449.08,0,2.6236e+08,442.36,12123,11209,1,11209,1,-0.0013748,-2.5353e-08,0,4.176e-05,-0.00033768,-5.5915e+08,-5364.5,0,1.3995e+07,-52.626,11208,11690,1,11690,1,-0.00060746,-3.8979e-09,0,0.00041316,-0.00019439,-2.4705e+08,-1041.1,0,1.4121e+08,138.2,11689,12558,1,12558,1,0.0010452,1.1764e-09,0,0.0012395,0.00011426,2.6267e+08,297.78,0,3.3934e+08,964.69,12557,502.62,0,502.62,0,0.00095381,5.8223e-09,0,0.00050047,0.00017821,2.8886e+08,1443.8,0,1.3943e+08,775.92,502.62,1
1736,5.54,12124,1,12124,1,0.00022039,-1.5571e-09,0,0.00084272,-4.0309e-05,156.4,-409.38,0,2.531e+08,768.03,12123,12992,1,12992,1,0.0018175,2.081e-08,0,0.0018175,0.0002584,3.6625e+08,4812,0,5.5996e+08,4102.2,12991,12124,1,12124,1,0.00022037,-1.7695e-09,0,0.00082811,-4.0486e-05,7.1591e+07,-497.46,0,2.6255e+08,522.85,12123,11209,1,11209,1,-0.0013767,-2.6545e-08,0,4.2901e-05,-0.00033861,-5.5996e+08,-5614.8,0,1.4376e+07,-84.408,11208,11690,1,11690,1,-0.00060775,-4.2146e-09,0,0.00041407,-0.00019501,-2.4717e+08,-1173.5,0,1.4134e+08,165.99,11689,12558,1,12558,1,0.0010485,1.3421e-09,0,0.0012422,0.00011432,2.6286e+08,343.37,0,3.3913e+08,1075.4,12557,502.62,0,502.62,0,0.00095591,6.4034e-09,0,0.00050178,0.00017859,2.8908e+08,1569.4,0,1.3953e+08,807.65,502.62,1
1736,5.55,12124,1,12124,1,0.00022192,-2.3064e-09,0,0.0008447,-4.059e-05,23.901,-635.48,0,2.5329e+08,808.64,12123,12992,1,12992,1,0.0018225,2.4561e-08,0,0.0018225,0.00025877,3.6594e+08,5167.7,0,5.6075e+08,4351,12991,12124,1,12124,1,0.0002219,-2.7209e-09,0,0.00082992,-4.0768e-05,7.2006e+07,-798.16,0,2.6274e+08,555.71,12123,11209,1,11209,1,-0.0013787,-2.913e-08,0,4.4046e-05,-0.00033954,-5.6075e+08,-6209.7,0,1.4757e+07,-121.08,11208,11690,1,11690,1,-0.00060802,-5.8206e-09,0,0.00041497,-0.00019562,-2.4728e+08,-1730.2,0,1.4147e+08,163.14,11689,12558,1,12558,1,0.0010518,1.2198e-09,0,0.0012449,0.00011437,2.6303e+08,316.21,0,3.389e+08,1127,12557,502.62,0,502.62,0,0.00095799,7.5246e-09,0,0.00050309,0.00017898,2.8928e+08,1808,0,1.3962e+08,856.64,502.62,1
1736,5.56,12124,1,12124,1,0.00022346,-1.9721e-09,0,0.00084671,-4.0871e-05,-66.98,-583.35,0,2.5348e+08,829.83,12123,12992,1,12992,1,0.0018276,2.1804e-08,0,0.0018276,0.00025914,3.6564e+08,4800.2,0,5.6156e+08,4708.1,12991,12124,1,12124,1,0.00022344,-2.3974e-09,0,0.00083174,-4.1051e-05,7.2422e+07,-666.84,0,2.6294e+08,531.24,12123,11209,1,11209,1,-0.0013807,-2.8097e-08,0,4.5192e-05,-0.00034047,-5.6156e+08,-5951.2,0,1.5137e+07,-64.866,11208,11690,1,11690,1,-0.00060831,-4.9761e-09,0,0.00041589,-0.00019624,-2.474e+08,-1542.9,0,1.4161e+08,178.96,11689,12558,1,12558,1,0.0010552,1.2523e-09,0,0.0012476,0.00011443,2.6322e+08,302.81,0,3.3869e+08,1132.3,12557,502.62,0,502.62,0,0.0009601,6.7939e-09,0,0.00050441,0.00017937,2.895e+08,1684.3,0,1.3972e+08,898.75,502.62,1
1736,5.57,12124,1,12124,1,0.00022502,2.1693e-09,0,0.00084874,-4.1156e-05,-121.62,521.99,0,2.5367e+08,909.82,12123,12992,1,12992,1,0.0018327,2.7149e-08,0,0.0018327,0.00025951,3.6533e+08,5689.5,0,5.6236e+08,4887.2,12991,12124,1,12124,1,0.000225,2.1768e-09,0,0.00083358,-4.1338e-05,7.2844e+07,596.3,0,2.6313e+08,618.23,12123,11209,1,11209,1,-0.0013827,-2.5091e-08,0,4.6356e-05,-0.00034141,-5.6236e+08,-5187.1,0,1.5522e+07,-39.616,11208,11690,1,11690,1,-0.00060859,-1.1742e-09,0,0.00041681,-0.00019687,-2.4751e+08,-350,0,1.4174e+08,221.02,11689,12558,1,12558,1,0.0010586,5.9192e-09,0,0.0012504,0.00011449,2.634e+08,1476.7,0,3.3846e+08,1258.9,12557,502.62,0,502.62,0,0.00096223,7.0673e-09,0,0.00050574,0.00017977,2.8971e+08,1739,0,1.3982e+08,935.24,502.62,1
1736,5.58,12124,1,12124,1,0.0002266,-1.5264e-09,0,0.00085077,-4.1445e-05,125.99,-424.85,0,2.5385e+08,914.22,12123,12992,1,12992,1,0.0018379,2.5352e-08,0,0.0018379,0.00025989,3.65e+08,5853.2,0,5.6317e+08,4851.3,12991,12124,1,12124,1,0.00022658,-1.998e-09,0,0.00083543,-4.1628e-05,7.3269e+07,-550.43,0,2.6332e+08,621.12,12123,11209,1,11209,1,-0.0013846,-2.9959e-08,0,4.7542e-05,-0.00034236,-5.6317e+08,-6240.3,0,1.5913e+07,-81.468,11208,11690,1,11690,1,-0.00060885,-4.6984e-09,0,0.00041773,-0.0001975,-2.4762e+08,-1319.6,0,1.4187e+08,191.67,11689,12558,1,12558,1,0.001062,1.7575e-09,0,0.0012532,0.00011454,2.6358e+08,464.21,0,3.3823e+08,1268.2,12557,502.62,0,502.62,0,0.00096436,7.5053e-09,0,0.00050708,0.00018016,2.8992e+08,1858.4,0,1.3992e+08,959.23,502.62,1
1736,5.59,12124,1,12124,1,0.00022819,8.8692e-10,0,0.00085281,-4.1736e-05,-35.466,208.11,0,2.5404e+08,1006.3,12123,12992,1,12992,1,0.001843,2.9277e-08,0,0.001843,0.00026026,3.6467e+08,6454.4,0,5.6397e+08,5203.6,12991,12124,1,12124,1,0.00022817,7.4481e-10,0,0.00083728,-4.192e-05,7.3697e+07,200.16,0,2.6351e+08,708.89,12123,11209,1,11209,1,-0.0013866,-2.9756e-08,0,4.8732e-05,-0.00034331,-5.6397e+08,-6125.7,0,1.6304e+07,-62.999,11208,11690,1,11690,1,-0.00060912,-2.3636e-09,0,0.00041866,-0.00019813,-2.4772e+08,-671.33,0,1.4214e+08,239.48,11689,12558,1,12558,1,0.0010655,4.3294e-09,0,0.001256,0.00011459,2.6375e+08,1108.8,0,3.3799e+08,1402.4,12557,502.62,0,502.62,0,0.0009665,7.8894e-09,0,0.00050843,0.00018056,2.9013e+08,1946.7,0,1.4001e+08,1020.6,502.62,1
1736,5.6,12124,1,12124,1,0.00022979,-6.5366e-10,0,0.00085486,-4.2028e-05,-247.8,-180.66,0,2.5422e+08,1051.9,12123,12992,1,12992,1,0.0018482,2.8321e-08,0,0.0018482,0.00026063,3.6433e+08,6831.3,0,5.6478e+08,5359,12991,12124,1,12124,1,0.00022977,-7.5331e-10,0,0.00083913,-4.2214e-05,7.4126e+07,-209.09,0,2.6369e+08,755.16,12123,11209,1,11209,1,-0.0013886,-3.3123e-08,0,4.9936e-05,-0.00034427,-5.6478e+08,-6822.3,0,1.6698e+07,-34.721,11208,11690,1,11690,1,-0.00060937,-4.0971e-09,0,0.00041958,-0.00019877,-2.4783e+08,-1121.8,0,1.4257e+08,258.05,11689,12558,1,12558,1,0.0010689,2.9651e-09,0,0.0012587,0.00011464,2.6392e+08,756.5,0,3.3774e+08,1458.6,12557,502.62,0,502.62,0,0.00096863,8.3414e-09,0,0.00050979,0.00018095,2.9033e+08,2075.2,0,1.4011e+08,1058.2,502.62,1
1736,5.61,12124,1,12124,1,0.0002314,2.9612e-09,0,0.00085689,-4.2322e-05,171.49,785.72,0,2.5439e+08,1197.8,12123,12992,1,12992,1,0.0018534,3.7522e-08,0,0.0018534,0.000261,3.6399e+08,7933.7,0,5.6557e+08,5733.5,12991,12124,1,12124,1,0.00023138,3.3226e-09,0,0.00084097,-4.2508e-05,7.4556e+07,933.4,0,2.6387e+08,956.94,12123,11209,1,11209,1,-0.0013905,-3.503e-08,0,5.1148e-05,-0.00034522,-5.6557e+08,-7175.5,0,1.7094e+07,-123.23,11208,11690,1,11690,1,-0.0006096,-1.8968e-09,0,0.0004205,-0.0001994,-2.4792e+08,-510.53,0,1.43e+08,315.6,11689,12558,1,12558,1,0.0010724,7.8356e-09,0,0.0012615,0.00011469,2.6409e+08,2062.5,0,3.3749e+08,1695.4,12557,502.62,0,502.62,0,0.00097076,9.8509e-09,0,0.00051114,0.00018135,2.9053e+08,2358.7,0,1.4021e+08,1115.2,502.62,1
1736,5.62,12124,1,12124,1,0.00023302,1.0589e-09,0,0.00085896,-4.2619e-05,151.08,349.24,0,2.5457e+08,1155,12123,12992,1,12992,1,0.0018586,3.1917e-08,0,0.0018586,0.00026137,3.6364e+08,7944.1,0,5.6638e+08,5750.6,12991,12124,1,12124,1,0.000233,1.582e-09,0,0.00084284,-4.2806e-05,7.4988e+07,414.28,0,2.6406e+08,854.82,12123,11209,1,11209,1,-0.0013925,-3.6142e-08,0,5.236e-05,-0.00034619,-5.6638e+08,-7344.1,0,1.7489e+07,-60.938,11208,11690,1,11690,1,-0.00060986,-2.6745e-09,0,0.00042144,-0.00020005,-2.4802e+08,-708.43,0,1.4344e+08,278.77,11689,12558,1,12558,1,0.0010759,5.0733e-09,0,0.0012643,0.00011474,2.6426e+08,1418.3,0,3.3724e+08,1607,12557,502.62,0,502.62,0,0.00097293,9.209e-09,0,0.00051252,0.00018175,2.9074e+08,2295.6,0,1.4031e+08,1147.6,502.62,1
1736,5.63,12124,1,12124,1,0.00023466,-1.3215e-09,0,0.00086102,-4.2918e-05,-575.57,-265.68,0,2.5474e+08,1279.8,12123,12992,1,12992,1,0.0018638,3.5247e-08,0,0.0018638,0.00026174,3.6328e+08,7729.6,0,5.6717e+08,6033.8,12991,12124,1,12124,1,0.00023463,-8.6961e-10,0,0.0008447,-4.3106e-05,7.5423e+07,-249.29,0,2.6423e+08,949.47,12123,11209,1,11209,1,-0.0013945,-4.3545e-08,0,5.3594e-05,-0.00034715,-5.6717e+08,-8962.2,0,1.7889e+07,-82.004,11208,11690,1,11690,1,-0.00061008,-5.6024e-09,0,0.00042237,-0.00020069,-2.4811e+08,-1468.9,0,1.4387e+08,330.98,11689,12558,1,12558,1,0.0010794,3.3711e-09,0,0.0012671,0.00011478,2.6442e+08,926.06,0,3.3697e+08,1794.2,12557,502.62,0,502.62,0,0.00097507,1.0806e-08,0,0.0005139,0.00018215,2.9093e+08,2559.8,0,1.404e+08,1234.2,502.62,1
1736,5.64,12124,1,12124,1,0.00023631,1.3575e-09,0,0.00086311,-4.322e-05,26.52,418.67,0,2.5492e+08,1289.8,12123,12992,1,12992,1,0.0018691,3.5425e-08,0,0.0018691,0.00026212,3.6293e+08,9081.2,0,5.6798e+08,6342.1,12991,12124,1,12124,1,0.00023628,1.6462e-09,0,0.00084658,-4.3409e-05,7.5862e+07,430.6,0,2.6441e+08,936.69,12123,11209,1,11209,1,-0.0013965,-3.8547e-08,0,5.4841e-05,-0.00034813,-5.6798e+08,-7740.4,0,1.8293e+07,-81.822,11208,11690,1,11690,1,-0.00061032,-2.8689e-09,0,0.00042332,-0.00020134,-2.4821e+08,-753,0,1.4431e+08,314.52,11689,12558,1,12558,1,0.0010829,5.8232e-09,0,0.0012699,0.00011483,2.6458e+08,1572,0,3.3671e+08,1811.3,12557,502.62,0,502.62,0,0.00097726,1.0038e-08,0,0.00051529,0.00018255,2.9114e+08,2539.4,0,1.405e+08,1272.2,502.62,1
1736,5.65,12124,1,12124,1,0.00023798,1.407e-09,0,0.00086518,-4.3524e-05,273.81,476.2,0,2.5508e+08,1401.3,12123,12992,1,12992,1,0.0018744,4.03e-08,0,0.0018744,0.00026248,3.6254e+08,9791.7,0,5.6877e+08,6506,12991,12124,1,12124,1,0.00023795,1.7156e-09,0,0.00084845,-4.3715e-05,7.6302e+07,469.35,0,2.6457e+08,1060.7,12123,11209,1,11209,1,-0.0013984,-4.3562e-08,0,5.6099e-05,-0.0003491,-5.6877e+08,-8730.9,0,1.8699e+07,-126.1,11208,11690,1,11690,1,-0.00061052,-3.3816e-09,0,0.00042425,-0.00020199,-2.4829e+08,-885.47,0,1.4474e+08,352.97,11689,12558,1,12558,1,0.0010864,6.5308e-09,0,0.0012727,0.00011487,2.6474e+08,1789.6,0,3.3643e+08,1992.7,12557,502.62,0,502.62,0,0.00097942,1.1437e-08,0,0.00051668,0.00018295,2.9133e+08,2811.3,0,1.4059e+08,1342.8,502.62,1
1736,5.66,12124,1,12124,1,0.00023965,-4.6627e-10,0,0.00086728,-4.383e-05,-451.03,9.3679,0,2.5526e+08,1479.5,12123,12992,1,12992,1,0.0018798,3.78e-08,0,0.0018798,0.00026286,3.6219e+08,10134,0,5.6959e+08,6969.4,12991,12124,1,12124,1,0.00023962,2.6162e-10,0,0.00085035,-4.4021e-05,7.6745e+07,68.984,0,2.6475e+08,1149,12123,11209,1,11209,1,-0.0014004,-4.9218e-08,0,5.736e-05,-0.00035009,-5.6959e+08,-9904.7,0,1.9105e+07,-42.415,11208,11690,1,11690,1,-0.00061076,-5.4244e-09,0,0.00042521,-0.00020265,-2.4839e+08,-1389.2,0,1.4518e+08,372.01,11689,12558,1,12558,1,0.00109,4.8043e-09,0,0.0012756,0.00011492,2.649e+08,1315.3,0,3.3616e+08,2068.9,12557,502.62,0,502.62,0,0.00098162,1.2081e-08,0,0.0005181,0.00018336,2.9153e+08,2959.9,0,1.407e+08,1402,502.62,1
1736,5.67,12124,1,12124,1,0.00024135,-5.3631e-10,0,0.00086938,-4.414e-05,-380.47,-35.218,0,2.5542e+08,1558.7,12123,12992,1,12992,1,0.0018851,4.2014e-08,0,0.0018851,0.00026323,3.618e+08,10484,0,5.7038e+08,7304.9,12991,12124,1,12124,1,0.00024132,-3.8123e-10,0,0.00085225,-4.4333e-05,7.7192e+07,-104.61,0,2.6492e+08,1228.6,12123,11209,1,11209,1,-0.0014024,-5.2723e-08,0,5.865e-05,-0.00035108,-5.7038e+08,-10614,0,1.952e+07,-147.04,11208,11690,1,11690,1,-0.00061095,-5.7691e-09,0,0.00042616,-0.00020331,-2.4847e+08,-1499.4,0,1.4562e+08,426.58,11689,12558,1,12558,1,0.0010936,5.3686e-09,0,0.0012784,0.00011496,2.6505e+08,1447.1,0,3.3587e+08,2189.2,12557,502.62,0,502.62,0,0.00098381,1.3179e-08,0,0.00051952,0.00018376,2.9172e+08,3155.5,0,1.4079e+08,1456.8,502.62,1
1736,5.68,12124,1,12124,1,0.00024306,7.0378e-11,0,0.00087151,-4.4453e-05,-132.03,114.93,0,2.5559e+08,1604.8,12123,12992,1,12992,1,0.0018906,4.0634e-08,0,0.0018906,0.00026361,3.6141e+08,11338,0,5.712e+08,7768.1,12991,12124,1,12124,1,0.00024303,6.6947e-10,0,0.00085417,-4.4647e-05,7.7643e+07,169.91,0,2.6509e+08,1238.5,12123,11209,1,11209,1,-0.0014044,-5.301e-08,0,5.995e-05,-0.00035208,-5.712e+08,-10545,0,1.9936e+07,-51.467,11208,11690,1,11690,1,-0.00061116,-5.2546e-09,0,0.00042712,-0.00020398,-2.4855e+08,-1364.8,0,1.4607e+08,394.72,11689,12558,1,12558,1,0.0010972,6.0235e-09,0,0.0012813,0.000115,2.6521e+08,1611.9,0,3.3558e+08,2244.4,12557,502.62,0,502.62,0,0.00098603,1.3029e-08,0,0.00052095,0.00018417,2.9191e+08,3245.5,0,1.4089e+08,1544.1,502.62,1
1736,5.69,12124,1,12124,1,0.0002448,1.9892e-09,0,0.00087363,-4.4769e-05,133.83,641.97,0,2.5575e+08,1782.3,12123,12992,1,12992,1,0.001896,4.892e-08,0,0.001896,0.00026398,3.61e+08,12158,0,5.7199e+08,8205.8,12991,12124,1,12124,1,0.00024476,2.7708e-09,0,0.00085613,-4.4964e-05,7.8095e+07,749.08,0,2.6525e+08,1424,12123,11209,1,11209,1,-0.0014063,-5.7612e-08,0,6.0956e-05,-0.00035308,-5.7199e+08,-11441,0,2.0356e+07,-98.487,11208,11690,1,11690,1,-0.00061134,-4.241e-09,0,0.00042803,-0.00020465,-2.4863e+08,-1108.1,0,1.4651e+08,476.26,11689,12558,1,12558,1,0.0011009,9.0892e-09,0,0.0012841,0.00011504,2.6535e+08,2457.4,0,3.3527e+08,2533.4,12557,502.62,0,502.62,0,0.00098823,1.484e-08,0,0.00052239,0.00018458,2.921e+08,3600.6,0,1.4099e+08,1642.4,502.62,1
1736,5.7,12124,1,12124,1,0.00024653,5.7808e-10,0,0.00087576,-4.5087e-05,170.35,316.2,0,2.5591e+08,1863.5,12123,12992,1,12992,1,0.0019014,5.0413e-08,0,0.0019014,0.00026434,3.6059e+08,12293,0,5.7279e+08,8496.8,12991,12124,1,12124,1,0.00024649,1.5457e-09,0,0.00085805,-4.5282e-05,7.8548e+07,403.12,0,2.654e+08,1493.5,12123,11209,1,11209,1,-0.0014083,-6.3327e-08,0,5.9901e-05,-0.00035408,-5.7279e+08,-12603,0,2.0776e+07,-86.354,11208,11690,1,11690,1,-0.00061152,-5.7648e-09,0,0.00042898,-0.00020532,-2.487e+08,-1480.6,0,1.4696e+08,500.3,11689,12558,1,12558,1,0.0011045,7.9225e-09,0,0.001287,0.00011508,2.655e+08,2148.5,0,3.3496e+08,2623.4,12557,502.62,0,502.62,0,0.00099044,1.5751e-08,0,0.00052383,0.00018499,2.9228e+08,3791.2,0,1.4108e+08,1711.5,502.62,1
1736,5.71,12124,1,12124,1,0.00024829,-8.2884e-10,0,0.00087792,-4.5408e-05,121.2,-16.539,0,2.5607e+08,1892.5,12123,12992,1,12992,1,0.0019069,4.8925e-08,0,0.0019069,0.00026472,3.602e+08,13431,0,5.7361e+08,8620,12991,12124,1,12124,1,0.00024824,8.2168e-11,0,0.00086,-4.5604e-05,7.9007e+07,21.897,0,2.6557e+08,1492.1,12123,11209,1,11209,1,-0.0014103,-6.4782e-08,0,5.8841e-05,-0.0003551,-5.7361e+08,-12788,0,2.1199e+07,-42.501,11208,11690,1,11690,1,-0.00061172,-7.5296e-09,0,0.00042995,-0.000206,-2.4878e+08,-1885.2,0,1.474e+08,482.24,11689,12558,1,12558,1,0.0011082,6.7419e-09,0,0.0012899,0.00011512,2.6565e+08,1830.3,0,3.3466e+08,2658.1,12557,502.62,0,502.62,0,0.0009927,1.6101e-08,0,0.0005253,0.00018541,2.9248e+08,3957.6,0,1.4118e+08,1770.8,502.62,1
1736,5.72,12124,1,12124,1,0.00025006,-1.035e-09,0,0.00088007,-4.5732e-05,-59.992,-78.814,0,2.5623e+08,2043.7,12123,12992,1,12992,1,0.0019125,5.4988e-08,0,0.0019125,0.00026509,3.5978e+08,14113,0,5.7441e+08,9066.8,12991,12124,1,12124,1,0.00025002,-2.202e-10,0,0.00086195,-4.593e-05,7.9469e+07,-55.578,0,2.6572e+08,1631.2,12123,11209,1,11209,1,-0.0014123,-6.9301e-08,0,5.7759e-05,-0.00035612,-5.7441e+08,-13654,0,2.1629e+07,-101.56,11208,11690,1,11690,1,-0.00061189,-8.495e-09,0,0.00043093,-0.00020668,-2.4885e+08,-2170,0,1.4786e+08,543.75,11689,12558,1,12558,1,0.001112,6.8653e-09,0,0.0012928,0.00011515,2.6579e+08,1887,0,3.3434e+08,2881.6,12557,502.62,0,502.62,0,0.00099494,1.7486e-08,0,0.00052678,0.00018583,2.9266e+08,4233.8,0,1.4128e+08,1891.8,502.62,1
1736,5.73,12124,1,12124,1,0.00025185,1.3887e-09,0,0.00088221,-4.6057e-05,-98.961,526.8,0,2.5637e+08,2242.3,12123,12992,1,12992,1,0.001918,6.2545e-08,0,0.001918,0.00026546,3.5933e+08,14277,0,5.7519e+08,9840.4,12991,12124,1,12124,1,0.0002518,2.3815e-09,0,0.00086386,-4.6255e-05,7.993e+07,653.32,0,2.6587e+08,1857.4,12123,11209,1,11209,1,-0.0014142,-7.5481e-08,0,5.6662e-05,-0.00035713,-5.7519e+08,-14900,0,2.2061e+07,-87.131,11208,11690,1,11690,1,-0.00061202,-6.4224e-09,0,0.00043188,-0.00020736,-2.489e+08,-1706.6,0,1.483e+08,651.77,11689,12558,1,12558,1,0.0011156,1.033e-08,0,0.0012957,0.00011518,2.6591e+08,2804.8,0,3.34e+08,3178.6,12557,502.62,0,502.62,0,0.00099715,1.9215e-08,0,0.00052824,0.00018624,2.9283e+08,4535.7,0,1.4137e+08,1994.2,502.62,1
1736,5.74,12124,1,12124,1,0.00025365,-5.5046e-10,0,0.00088442,-4.6387e-05,76.966,88.875,0,2.5654e+08,2194.6,12123,12992,1,12992,1,0.0019236,5.6781e-08,0,0.0019236,0.00026584,3.5892e+08,16174,0,5.7602e+08,9992.3,12991,12124,1,12124,1,0.00025359,2.0548e-10,0,0.00086585,-4.6586e-05,8.0396e+07,53.556,0,2.6603e+08,1722.6,12123,11209,1,11209,1,-0.0014162,-7.5177e-08,0,5.557e-05,-0.00035817,-5.7602e+08,-14654,0,2.2492e+07,-80.362,11208,11690,1,11690,1,-0.00061221,-8.4299e-09,0,0.00043287,-0.00020806,-2.4898e+08,-2111.7,0,1.4876e+08,542.62,11689,12558,1,12558,1,0.0011194,8.3023e-09,0,0.0012987,0.00011522,2.6606e+08,2221,0,3.3369e+08,3102.3,12557,502.62,0,502.62,0,0.00099945,1.8795e-08,0,0.00052975,0.00018666,2.9303e+08,4642.6,0,1.4148e+08,2066,502.62,1
1736,5.75,12124,1,12124,1,0.00025548,4.1029e-09,0,0.0008866,-4.6721e-05,235.67,1319.3,0,2.5668e+08,2422.9,12123,12992,1,12992,1,0.0019292,6.7556e-08,0,0.0019292,0.00026621,3.5846e+08,17547,0,5.7682e+08,10832,12991,12124,1,12124,1,0.00025541,5.6821e-09,0,0.00086781,-4.6919e-05,8.0866e+07,1495.7,0,2.6617e+08,1962.7,12123,11209,1,11209,1,-0.0014182,-8.0248e-08,0,5.4441e-05,-0.00035921,-5.7682e+08,-15554,0,2.2149e+07,-163.93,11208,11690,1,11690,1,-0.00061234,-5.1419e-09,0,0.00043384,-0.00020875,-2.4903e+08,-1271.9,0,1.4921e+08,638.78,11689,12558,1,12558,1,0.0011232,1.4609e-08,0,0.0013016,0.00011525,2.6619e+08,3986.7,0,3.3334e+08,3435.3,12557,502.62,0,502.62,0,0.0010017,2.0889e-08,0,0.00053125,0.00018708,2.932e+08,5115.7,0,1.4157e+08,2203.9,502.62,1
1736,5.76,12124,1,12124,1,0.00025731,-3.0641e-09,0,0.00088878,-4.7055e-05,-195.6,-466.53,0,2.5682e+08,2596.5,12123,12992,1,12992,1,0.0019348,7.0765e-08,0,0.0019348,0.00026658,3.5802e+08,16907,0,5.776e+08,10859,12991,12124,1,12124,1,0.00025724,-1.1808e-09,0,0.00086979,-4.7255e-05,8.1337e+07,-321.03,0,2.6631e+08,2164.9,12123,11209,1,11209,1,-0.0014201,-9.544e-08,0,5.3308e-05,-0.00036024,-5.776e+08,-18790,0,2.1694e+07,-182.27,11208,11690,1,11690,1,-0.00061248,-1.2824e-08,0,0.00043483,-0.00020945,-2.4909e+08,-3249,0,1.4966e+08,721.18,11689,12558,1,12558,1,0.001127,8.2704e-09,0,0.0013046,0.00011528,2.6631e+08,2278.4,0,3.3299e+08,3669.5,12557,502.62,0,502.62,0,0.001004,2.3807e-08,0,0.00053276,0.0001875,2.9337e+08,5542.8,0,1.4167e+08,2306.1,502.62,1
1736,5.77,12124,1,12124,1,0.00025916,-3.4738e-09,0,0.00089102,-4.7394e-05,232.85,-665.1,0,2.5698e+08,2584.7,12123,12992,1,12992,1,0.0019406,6.6327e-08,0,0.0019406,0.00026696,3.5758e+08,18204,0,5.7843e+08,11477,12991,12124,1,12124,1,0.0002591,-2.8515e-09,0,0.0008718,-4.7596e-05,8.1815e+07,-741.91,0,2.6645e+08,2078.1,12123,11209,1,11209,1,-0.0014222,-9.2366e-08,0,5.2171e-05,-0.0003613,-5.7843e+08,-17976,0,2.1238e+07,-98.361,11208,11690,1,11690,1,-0.00061264,-1.3322e-08,0,0.00043584,-0.00021016,-2.4915e+08,-3428.3,0,1.5013e+08,641.91,11689,12558,1,12558,1,0.0011309,7.5216e-09,0,0.0013076,0.00011531,2.6645e+08,2014.3,0,3.3266e+08,3670.7,12557,502.62,0,502.62,0,0.0010063,2.2844e-08,0,0.0005343,0.00018793,2.9356e+08,5567.4,0,1.4177e+08,2397.2,502.62,1
1736,5.78,12124,1,12124,1,0.00026105,6.3575e-10,0,0.00089327,-4.7739e-05,95.697,353.5,0,2.5712e+08,2907.7,12123,12992,1,12992,1,0.0019464,8.1032e-08,0,0.0019464,0.00026734,3.571e+08,19675,0,5.7925e+08,12388,12991,12124,1,12124,1,0.00026099,1.614e-09,0,0.00087381,-4.7941e-05,8.2299e+07,418.64,0,2.6658e+08,2437.8,12123,11209,1,11209,1,-0.0014242,-9.6282e-08,0,5.1e-05,-0.00036237,-5.7925e+08,-18565,0,2.077e+07,-85.476,11208,11690,1,11690,1,-0.00061276,-1.0292e-08,0,0.00043684,-0.00021088,-2.492e+08,-2632.2,0,1.5059e+08,810.38,11689,12558,1,12558,1,0.0011348,1.2613e-08,0,0.0013106,0.00011534,2.6658e+08,3362.3,0,3.3238e+08,4133.9,12557,502.62,0,502.62,0,0.0010086,2.5062e-08,0,0.00053586,0.00018836,2.9373e+08,6013,0,1.4187e+08,2564.7,502.62,1
1736,5.79,12124,1,12124,1,0.00026296,1.9028e-09,0,0.00089551,-4.8087e-05,327.39,735.01,0,2.5726e+08,3075.9,12123,12992,1,12992,1,0.0019522,8.7643e-08,0,0.0019522,0.00026771,3.5661e+08,21105,0,5.8005e+08,13092,12991,12124,1,12124,1,0.00026289,3.2525e-09,0,0.00087582,-4.8289e-05,8.2783e+07,853.53,0,2.6669e+08,2613.1,12123,11209,1,11209,1,-0.0014262,-1.0303e-07,0,4.9812e-05,-0.00036344,-5.8005e+08,-19777,0,2.0295e+07,-99.798,11208,11690,1,11690,1,-0.00061287,-9.8769e-09,0,0.00043783,-0.0002116,-2.4924e+08,-2470.6,0,1.5105e+08,856.27,11689,12558,1,12558,1,0.0011387,1.49e-08,0,0.0013136,0.00011536,2.6669e+08,3996.6,0,3.3228e+08,4357.8,12557,502.62,0,502.62,0,0.001011,2.6926e-08,0,0.00053742,0.00018879,2.939e+08,6450.6,0,1.4197e+08,2695.1,502.62,1
1736,5.8,12124,1,12124,1,0.00026488,-9.3574e-10,0,0.00089778,-4.8437e-05,-150.72,76.8,0,2.5741e+08,3255.8,12123,12992,1,12992,1,0.001958,8.8812e-08,0,0.001958,0.00026809,3.5614e+08,22005,0,5.8087e+08,13561,12991,12124,1,12124,1,0.0002648,7.7589e-10,0,0.00087787,-4.864e-05,8.3272e+07,208.53,0,2.6681e+08,2747.4,12123,11209,1,11209,1,-0.0014282,-1.1308e-07,0,4.8619e-05,-0.00036452,-5.8087e+08,-21759,0,1.9819e+07,-68.969,11208,11690,1,11690,1,-0.00061299,-1.3202e-08,0,0.00043885,-0.00021232,-2.4929e+08,-3300.8,0,1.5152e+08,899.78,11689,12558,1,12558,1,0.0011426,1.2798e-08,0,0.0013167,0.00011539,2.6681e+08,3436.9,0,3.3218e+08,4643.3,12557,502.62,0,502.62,0,0.0010133,2.8838e-08,0,0.000539,0.00018923,2.9408e+08,6855.8,0,1.4207e+08,2865.2,502.62,1
1736,5.81,12124,1,12124,1,0.00026683,3.1922e-09,0,0.00090007,-4.8793e-05,-87.128,1137.5,0,2.5754e+08,3410.8,12123,12992,1,12992,1,0.001964,9.591e-08,0,0.001964,0.00026847,3.5564e+08,25139,0,5.8169e+08,14401,12991,12124,1,12124,1,0.00026674,4.5329e-09,0,0.00087991,-4.8995e-05,8.3765e+07,1156.5,0,2.6693e+08,2859.5,12123,11209,1,11209,1,-0.0014302,-1.1194e-07,0,4.7401e-05,-0.00036561,-5.8169e+08,-21220,0,1.9335e+07,-74.498,11208,11690,1,11690,1,-0.00061309,-1.0274e-08,0,0.00043986,-0.00021305,-2.4933e+08,-2547.8,0,1.5199e+08,918.16,11689,12558,1,12558,1,0.0011466,1.8234e-08,0,0.0013197,0.00011541,2.6693e+08,4800.4,0,3.3208e+08,4832.5,12557,502.62,0,502.62,0,0.0010157,2.9829e-08,0,0.0005406,0.00018966,2.9425e+08,7324.3,0,1.4217e+08,3011.3,502.62,1
1736,5.82,12124,1,12124,1,0.00026879,-1.6359e-09,0,0.00090235,-4.9152e-05,467.48,-27.136,0,2.5767e+08,3692.9,12123,12992,1,12992,1,0.0019699,1.0344e-07,0,0.0019699,0.00026884,3.5515e+08,25199,0,5.8249e+08,14935,12991,12124,1,12124,1,0.0002687,1.837e-10,0,0.00088197,-4.9354e-05,8.4261e+07,35.572,0,2.6704e+08,3178,12123,11209,1,11209,1,-0.0014322,-1.3145e-07,0,4.6164e-05,-0.0003667,-5.8249e+08,-25144,0,1.8843e+07,-93.324,11208,11690,1,11690,1,-0.00061318,-1.63e-08,0,0.00044089,-0.00021379,-2.4937e+08,-4088.5,0,1.5246e+08,1019.3,11689,12558,1,12558,1,0.0011506,1.4899e-08,0,0.0013228,0.00011543,2.6704e+08,3991.3,0,3.3196e+08,5240.9,12557,502.62,0,502.62,0,0.001018,3.3954e-08,0,0.0005422,0.0001901,2.9441e+08,7975.1,0,1.4227e+08,3179.2,502.62,1
1736,5.83,12124,1,12124,1,0.00027078,-6.0439e-10,0,0.00090467,-4.9514e-05,1360.3,212.46,0,2.5781e+08,3919.1,12123,12992,1,12992,1,0.0019759,1.0981e-07,0,0.0019759,0.00026923,3.5464e+08,26615,0,5.8332e+08,15969,12991,12124,1,12124,1,0.00027068,1.3807e-09,0,0.00088404,-4.9717e-05,8.4762e+07,347.5,0,2.6715e+08,3369.2,12123,11209,1,11209,1,-0.0014342,-1.3771e-07,0,4.4918e-05,-0.0003678,-5.8332e+08,-26197,0,1.835e+07,-184.57,11208,11690,1,11690,1,-0.00061326,-1.6286e-08,0,0.00044192,-0.00021454,-2.494e+08,-4057.4,0,1.5293e+08,1095.4,11689,12558,1,12558,1,0.0011547,1.6597e-08,0,0.0013259,0.00011545,2.6715e+08,4495.7,0,3.3185e+08,5578.7,12557,502.62,0,502.62,0,0.0010204,3.5622e-08,0,0.00054383,0.00019055,2.9458e+08,8420.2,0,1.4237e+08,3425,502.62,1
1736,5.84,12124,1,12124,1,0.00027279,-4.9876e-10,0,0.000907,-4.9881e-05,478.82,268.87,0,2.5794e+08,4162.3,12123,12992,1,12992,1,0.0019819,1.1754e-07,0,0.0019819,0.00026961,3.5412e+08,28777,0,5.8414e+08,16801,12991,12124,1,12124,1,0.00027268,1.1489e-09,0,0.00088613,-5.0084e-05,8.5267e+07,287.2,0,2.6726e+08,3598.2,12123,11209,1,11209,1,-0.0014362,-1.4423e-07,0,4.3653e-05,-0.00036892,-5.8414e+08,-27257,0,1.785e+07,-112.94,11208,11690,1,11690,1,-0.00061335,-1.695e-08,0,0.00044296,-0.00021529,-2.4944e+08,-4227.9,0,1.5341e+08,1168.3,11689,12558,1,12558,1,0.0011588,1.7918e-08,0,0.001329,0.00011547,2.6726e+08,4791.5,0,3.3173e+08,5920.1,12557,502.62,0,502.62,0,0.0010228,3.7711e-08,0,0.00054547,0.00019099,2.9474e+08,8919.6,0,1.4248e+08,3592.9,502.62,1
1736,5.85,12124,1,12124,1,0.00027481,-4.8323e-10,0,0.00090935,-5.0251e-05,-218.04,293.18,0,2.5807e+08,4446,12123,12992,1,12992,1,0.001988,1.2626e-07,0,0.001988,0.00026999,3.5359e+08,30353,0,5.8496e+08,17942,12991,12124,1,12124,1,0.00027471,1.757e-09,0,0.00088823,-5.0454e-05,8.5776e+07,444.43,0,2.6736e+08,3816.6,12123,11209,1,11209,1,-0.0014382,-1.5594e-07,0,4.2372e-05,-0.00037004,-5.8496e+08,-29441,0,1.7346e+07,-75.92,11208,11690,1,11690,1,-0.00061342,-1.8281e-08,0,0.000444,-0.00021604,-2.4947e+08,-4547,0,1.5389e+08,1240.4,11689,12558,1,12558,1,0.0011629,1.8987e-08,0,0.0013321,0.00011549,2.6736e+08,5176.4,0,3.3161e+08,6363.7,12557,502.62,0,502.62,0,0.0010253,4.0649e-08,0,0.00054713,0.00019144,2.949e+08,9540.2,0,1.4258e+08,3824.2,502.62,1
1736,5.86,12124,1,12124,1,0.00027687,2.262e-09,0,0.00091171,-5.0628e-05,715.86,998.63,0,2.582e+08,4684.4,12123,12992,1,12992,1,0.0019942,1.3486e-07,0,0.0019942,0.00027037,3.5304e+08,32783,0,5.8578e+08,19068,12991,12124,1,12124,1,0.00027676,4.3293e-09,0,0.00089034,-5.0829e-05,8.6289e+07,1119.4,0,2.6746e+08,4063,12123,11209,1,11209,1,-0.0014402,-1.6369e-07,0,4.1064e-05,-0.00037117,-5.8578e+08,-30682,0,1.6834e+07,-150.53,11208,11690,1,11690,1,-0.00061347,-1.6394e-08,0,0.00044504,-0.00021681,-2.4949e+08,-4065.1,0,1.5437e+08,1283,11689,12558,1,12558,1,0.0011671,2.3427e-08,0,0.0013353,0.0001155,2.6746e+08,6264.8,0,3.3147e+08,6711.7,12557,502.62,0,502.62,0,0.0010277,4.3202e-08,0,0.00054881,0.00019189,2.9506e+08,10140,0,1.4268e+08,4028.5,502.62,1
1736,5.87,12124,1,12124,1,0.00027894,7.2253e-10,0,0.00091407,-5.1004e-05,284.55,682.94,0,2.5832e+08,5039.1,12123,12992,1,12992,1,0.0020003,1.4278e-07,0,0.0020003,0.00027074,3.5249e+08,33403,0,5.8659e+08,20242,12991,12124,1,12124,1,0.00027882,4.2728e-09,0,0.00089245,-5.1205e-05,8.6803e+07,1089.7,0,2.6755e+08,4331.6,12123,11209,1,11209,1,-0.0014422,-1.8238e-07,0,3.9747e-05,-0.0003723,-5.8659e+08,-34348,0,1.6319e+07,-460.01,11208,11690,1,11690,1,-0.00061351,-1.8913e-08,0,0.00044609,-0.00021757,-2.495e+08,-4756.8,0,1.5485e+08,1393.2,11689,12558,1,12558,1,0.0011712,2.4149e-08,0,0.0013384,0.00011552,2.6755e+08,6453.6,0,3.3133e+08,7252.9,12557,502.62,0,502.62,0,0.0010301,4.7201e-08,0,0.00055048,0.00019234,2.9522e+08,10884,0,1.4278e+08,4323.1,502.62,1
1736,5.88,12124,1,12124,1,0.00028104,8.0685e-10,0,0.00091648,-5.1388e-05,275.01,741.93,0,2.5844e+08,5262.2,12123,12992,1,12992,1,0.0020066,1.4712e-07,0,0.0020066,0.00027113,3.5195e+08,36772,0,5.8743e+08,21174,12991,12124,1,12124,1,0.00028091,3.4271e-09,0,0.0008946,-5.1587e-05,8.7323e+07,885.7,0,2.6765e+08,4553.8,12123,11209,1,11209,1,-0.0014443,-1.8725e-07,0,3.8414e-05,-0.00037346,-5.8743e+08,-34864,0,1.5801e+07,-64.648,11208,11690,1,11690,1,-0.00061356,-2.0194e-08,0,0.00044716,-0.00021835,-2.4952e+08,-4917,0,1.5533e+08,1454,11689,12558,1,12558,1,0.0011755,2.4851e-08,0,0.0013416,0.00011553,2.6765e+08,6656.1,0,3.312e+08,7499.7,12557,502.62,0,502.62,0,0.0010326,4.8583e-08,0,0.0005522,0.0001928,2.9538e+08,11393,0,1.4289e+08,4500.7,502.62,1
1736,5.89,12124,1,12124,1,0.00028318,1.6101e-09,0,0.00091891,-5.1778e-05,245.63,1023.2,0,2.5857e+08,5650.3,12123,12992,1,12992,1,0.0020129,1.5871e-07,0,0.0020129,0.00027152,3.5138e+08,39475,0,5.8827e+08,22461,12991,12124,1,12124,1,0.00028303,5.1034e-09,0,0.00089677,-5.1975e-05,8.785e+07,1291.5,0,2.6775e+08,4901.2,12123,11209,1,11209,1,-0.0014464,-2.0143e-07,0,3.7051e-05,-0.00037463,-5.8827e+08,-37342,0,1.5272e+07,-180.32,11208,11690,1,11690,1,-0.0006136,-2.1005e-08,0,0.00044823,-0.00021914,-2.4954e+08,-5099.5,0,1.5583e+08,1588.5,11689,12558,1,12558,1,0.0011797,2.7795e-08,0,0.0013449,0.00011554,2.6775e+08,7510.1,0,3.3105e+08,8114,12557,502.62,0,502.62,0,0.0010351,5.236e-08,0,0.00055394,0.00019326,2.9554e+08,12279,0,1.4299e+08,4819.9,502.62,1
1736,5.9,12124,1,12124,1,0.00028535,-1.9212e-09,0,0.00092138,-5.2174e-05,-1109.3,223.3,0,2.5869e+08,6091.4,12123,12992,1,12992,1,0.0020194,1.7013e-07,0,0.0020194,0.00027192,3.5082e+08,42160,0,5.8911e+08,23517,12991,12124,1,12124,1,0.00028519,1.143e-09,0,0.00089899,-5.237e-05,8.8385e+07,305.67,0,2.6784e+08,5292.3,12123,11209,1,11209,1,-0.0014484,-2.1878e-07,0,3.5663e-05,-0.00037582,-5.8911e+08,-40487,0,1.4737e+07,-4.1445,11208,11690,1,11690,1,-0.00061364,-2.6668e-08,0,0.00044932,-0.00021994,-2.4956e+08,-6549.2,0,1.5609e+08,1756.7,11689,12558,1,12558,1,0.0011841,2.6233e-08,0,0.0013482,0.00011556,2.6784e+08,7003.6,0,3.309e+08,8740.1,12557,502.62,0,502.62,0,0.0010377,5.6769e-08,0,0.00055571,0.00019374,2.957e+08,13251,0,1.431e+08,5113.1,502.62,1
1736,5.91,12124,1,12124,1,0.00028756,2.0972e-09,0,0.00092387,-5.2578e-05,18.251,1273.8,0,2.5881e+08,6445.4,12123,12992,1,12992,1,0.0020259,1.8555e-07,0,0.0020259,0.00027231,3.5022e+08,46093,0,5.8996e+08,25072,12991,12124,1,12124,1,0.00028739,5.7699e-09,0,0.0009012,-5.2771e-05,8.8927e+07,1520.8,0,2.6792e+08,5623.2,12123,11209,1,11209,1,-0.0014505,-2.3013e-07,0,3.4241e-05,-0.00037702,-5.8996e+08,-42270,0,1.4191e+07,-203.84,11208,11690,1,11690,1,-0.00061364,-2.4648e-08,0,0.00045041,-0.00022074,-2.4955e+08,-5985,0,1.5626e+08,1819.4,11689,12558,1,12558,1,0.0011885,3.2991e-08,0,0.0013515,0.00011556,2.6792e+08,8762.9,0,3.3074e+08,9323.8,12557,502.62,0,502.62,0,0.0010402,6.0778e-08,0,0.0005575,0.00019421,2.9585e+08,14282,0,1.4321e+08,5450.5,502.62,1
1736,5.92,12124,1,12124,1,0.00028979,-4.4756e-09,0,0.0009264,-5.2986e-05,-161.8,-287.9,0,2.5893e+08,6978.8,12123,12992,1,12992,1,0.0020325,1.9765e-07,0,0.0020325,0.00027271,3.4964e+08,49392,0,5.9082e+08,26401,12991,12124,1,12124,1,0.00028961,-7.7481e-11,0,0.00090347,-5.3178e-05,8.9477e+07,-21.925,0,2.6801e+08,6106.7,12123,11209,1,11209,1,-0.0014526,-2.5233e-07,0,3.2802e-05,-0.00037824,-5.9082e+08,-46222,0,1.3642e+07,0.033544,11208,11690,1,11690,1,-0.00061367,-3.4161e-08,0,0.00045153,-0.00022157,-2.4957e+08,-8587.3,0,1.5643e+08,1960.9,11689,12558,1,12558,1,0.001193,2.8303e-08,0,0.0013548,0.00011557,2.6801e+08,7553.8,0,3.3058e+08,10036,12557,502.62,0,502.62,0,0.0010428,6.5772e-08,0,0.00055932,0.00019469,2.9601e+08,15517,0,1.4332e+08,5844.8,502.62,1
1736,5.93,12124,1,12124,1,0.00029208,-4.988e-09,0,0.00092895,-5.3403e-05,-294.67,-504.62,0,2.5904e+08,7529.6,12123,12992,1,12992,1,0.0020392,2.1265e-07,0,0.0020392,0.00027311,3.4902e+08,52718,0,5.9168e+08,28201,12991,12124,1,12124,1,0.00029189,-2.6042e-09,0,0.00090575,-5.3592e-05,9.0034e+07,-631.84,0,2.6809e+08,6762.2,12123,11209,1,11209,1,-0.0014547,-2.7321e-07,0,3.1325e-05,-0.00037947,-5.9168e+08,-49886,0,1.3081e+07,-13.096,11208,11690,1,11690,1,-0.00061367,-3.7414e-08,0,0.00045266,-0.0002224,-2.4956e+08,-9341.4,0,1.566e+08,2146,11689,12558,1,12558,1,0.0011976,3.1834e-08,0,0.0013582,0.00011558,2.6809e+08,8224.7,0,3.304e+08,10799,12557,502.62,0,502.62,0,0.0010455,7.1703e-08,0,0.00056117,0.00019518,2.9616e+08,16805,0,1.4343e+08,6185.9,502.62,1
1736,5.94,12124,1,12124,1,0.00029439,2.9261e-09,0,0.00093152,-5.3825e-05,25.228,1504.4,0,2.5914e+08,8163.8,12123,12992,1,12992,1,0.002046,2.4159e-07,0,0.002046,0.0002735,3.4837e+08,57623,0,5.9253e+08,30415,12991,12124,1,12124,1,0.00029418,7.0836e-09,0,0.00090801,-5.401e-05,9.0594e+07,1837.6,0,2.6816e+08,7352.6,12123,11209,1,11209,1,-0.0014568,-2.909e-07,0,2.982e-05,-0.00038071,-5.9253e+08,-52800,0,1.2512e+07,-222.04,11208,11690,1,11690,1,-0.00061362,-3.2401e-08,0,0.00045377,-0.00022324,-2.4954e+08,-8078,0,1.5676e+08,2380.1,11689,12558,1,12558,1,0.0012021,4.2984e-08,0,0.0013616,0.00011558,2.6816e+08,11315,0,3.3021e+08,11859,12557,502.62,0,502.62,0,0.0010481,7.8568e-08,0,0.00056303,0.00019566,2.963e+08,18272,0,1.4354e+08,6664.3,502.62,1
1736,5.95,12124,1,12124,1,0.00029674,-7.9735e-09,0,0.00093412,-5.4253e-05,-191.71,-1095.5,0,2.5925e+08,8834.7,12123,12992,1,12992,1,0.0020528,2.5157e-07,0,0.0020528,0.0002739,3.4776e+08,60825,0,5.9339e+08,31813,12991,12124,1,12124,1,0.00029651,-4.6338e-09,0,0.00091036,-5.4435e-05,9.1162e+07,-1223.5,0,2.6823e+08,8039.1,12123,11209,1,11209,1,-0.001459,-3.2342e-07,0,2.8298e-05,-0.00038198,-5.9339e+08,-58734,0,1.194e+07,-113.14,11208,11690,1,11690,1,-0.00061361,-4.7009e-08,0,0.00045493,-0.00022409,-2.4954e+08,-11772,0,1.5693e+08,2544.4,11689,12558,1,12558,1,0.0012068,3.5942e-08,0,0.0013651,0.00011558,2.6823e+08,9282.3,0,3.3002e+08,12775,12557,502.62,0,502.62,0,0.0010508,8.5219e-08,0,0.00056493,0.00019616,2.9645e+08,19866,0,1.4365e+08,7155.7,502.62,1
1736,5.96,12124,1,12124,1,0.00029912,-8.0705e-09,0,0.00093674,-5.4687e-05,161.42,-1260.3,0,2.5935e+08,9609.4,12123,12992,1,12992,1,0.0020597,2.8396e-07,0,0.0020597,0.0002743,3.4709e+08,64288,0,5.9426e+08,34185,12991,12124,1,12124,1,0.00029888,-6.4128e-09,0,0.0009127,-5.4866e-05,9.1739e+07,-1624.3,0,2.6829e+08,8781.3,12123,11209,1,11209,1,-0.0014611,-3.4866e-07,0,2.6743e-05,-0.00038325,-5.9426e+08,-63213,0,1.1359e+07,-30.512,11208,11690,1,11690,1,-0.00061357,-5.101e-08,0,0.00045609,-0.00022495,-2.4952e+08,-12912,0,1.5709e+08,2817.7,11689,12558,1,12558,1,0.0012115,3.9329e-08,0,0.0013686,0.00011558,2.6829e+08,10023,0,3.2982e+08,14039,12557,502.62,0,502.62,0,0.0010535,9.3159e-08,0,0.00056685,0.00019665,2.966e+08,21511,0,1.4376e+08,7706.3,502.62,1
1736,5.97,12124,1,12124,1,0.00030153,-5.4278e-09,0,0.00093939,-5.5127e-05,431.46,-675.51,0,2.5945e+08,10362,12123,12992,1,12992,1,0.0020667,3.1703e-07,0,0.0020667,0.00027471,3.4642e+08,69004,0,5.9512e+08,36512,12991,12124,1,12124,1,0.00030129,-3.9185e-09,0,0.00091506,-5.5303e-05,9.232e+07,-1003.4,0,2.6835e+08,9567,12123,11209,1,11209,1,-0.0014632,-3.7201e-07,0,2.5165e-05,-0.00038454,-5.9512e+08,-67177,0,1.0771e+07,-121.47,11208,11690,1,11690,1,-0.00061351,-5.2815e-08,0,0.00045725,-0.00022583,-2.495e+08,-13222,0,1.5725e+08,3050.5,11689,12558,1,12558,1,0.0012162,4.5569e-08,0,0.0013721,0.00011557,2.6835e+08,11669,0,3.2961e+08,15141,12557,502.62,0,502.62,0,0.0010562,1.0127e-07,0,0.00056879,0.00019716,2.9674e+08,23196,0,1.4387e+08,8240.1,502.62,1
1736,5.98,12124,1,12124,1,0.00030399,-5.3218e-09,0,0.00094211,-5.5575e-05,-402.56,-709.47,0,2.5956e+08,11141,12123,12992,1,12992,1,0.0020739,3.3992e-07,0,0.0020739,0.00027512,3.4575e+08,74200,0,5.9602e+08,39028,12991,12124,1,12124,1,0.00030373,-4.4308e-09,0,0.00091747,-5.5747e-05,9.291e+07,-1154.5,0,2.6842e+08,10303,12123,11209,1,11209,1,-0.0014654,-3.9658e-07,0,2.3562e-05,-0.00038585,-5.9602e+08,-71195,0,1.0178e+07,-7.5848,11208,11690,1,11690,1,-0.00061347,-5.6639e-08,0,0.00045844,-0.00022672,-2.4948e+08,-14346,0,1.5742e+08,3297.2,11689,12558,1,12558,1,0.0012211,4.9463e-08,0,0.0013757,0.00011557,2.6842e+08,12552,0,3.2942e+08,16323,12557,502.62,0,502.62,0,0.001059,1.0855e-07,0,0.00057078,0.00019767,2.9689e+08,24911,0,1.4399e+08,8800.1,502.62,1
1736,5.99,12124,1,12124,1,0.0003065,-5.1866e-09,0,0.00094484,-5.6034e-05,271.2,-727.19,0,2.5966e+08,12016,12123,12992,1,12992,1,0.0020811,3.7224e-07,0,0.0020811,0.00027553,3.4505e+08,79487,0,5.969e+08,41906,12991,12124,1,12124,1,0.00030623,-4.0365e-09,0,0.00091991,-5.6201e-05,9.351e+07,-1030.9,0,2.6847e+08,11154,12123,11209,1,11209,1,-0.0014676,-4.2849e-07,0,2.1909e-05,-0.00038719,-5.969e+08,-76648,0,9.5687e+06,-41.533,11208,11690,1,11690,1,-0.00061339,-6.1167e-08,0,0.00045964,-0.00022762,-2.4945e+08,-15385,0,1.5758e+08,3581.6,11689,12558,1,12558,1,0.001226,5.4751e-08,0,0.0013793,0.00011557,2.6847e+08,13719,0,3.2927e+08,17683,12557,502.62,0,502.62,0,0.0010618,1.18e-07,0,0.00057281,0.00019819,2.9703e+08,26944,0,1.441e+08,9464.6,502.62,1
1736,6,12124,1,12124,1,0.00030905,-1.3271e-09,0,0.00094763,-5.6498e-05,48.524,210.65,0,2.5976e+08,12961,12123,12992,1,12992,1,0.0020885,4.1208e-07,0,0.0020885,0.00027596,3.4434e+08,86127,0,5.9781e+08,44859,12991,12124,1,12124,1,0.00030877,1.1494e-09,0,0.00092239,-5.6661e-05,9.4119e+07,304.35,0,2.6853e+08,12145,12123,11209,1,11209,1,-0.0014698,-4.5814e-07,0,2.0231e-05,-0.00038855,-5.9781e+08,-81331,0,8.9525e+06,3.3742,11208,11690,1,11690,1,-0.00061331,-6.2238e-08,0,0.00046086,-0.00022854,-2.4942e+08,-15848,0,1.5775e+08,3877.6,11689,12558,1,12558,1,0.001231,6.2397e-08,0,0.001383,0.00011556,2.6853e+08,15855,0,3.2904e+08,19056,12557,502.62,0,502.62,0,0.0010646,1.2787e-07,0,0.00057487,0.00019872,2.9718e+08,29094,0,1.4422e+08,10172,502.62,1
1736,6.01,12124,1,12124,1,0.00031166,-5.1042e-09,0,0.00095046,-5.6975e-05,-35.889,-740.31,0,2.5985e+08,13993,12123,12992,1,12992,1,0.002096,4.3636e-07,0,0.002096,0.00027638,3.4362e+08,92912,0,5.9872e+08,48090,12991,12124,1,12124,1,0.00031136,-4.6485e-09,0,0.00092491,-5.7131e-05,9.4737e+07,-1196.3,0,2.6858e+08,13093,12123,11209,1,11209,1,-0.0014721,-5.0108e-07,0,1.8503e-05,-0.00038993,-5.9872e+08,-88745,0,8.3207e+06,-104.31,11208,11690,1,11690,1,-0.00061321,-7.1381e-08,0,0.00046209,-0.00022947,-2.4937e+08,-18231,0,1.5792e+08,4182,11689,12558,1,12558,1,0.0012361,6.5568e-08,0,0.0013867,0.00011555,2.6858e+08,16418,0,3.2881e+08,20604,12557,502.62,0,502.62,0,0.0010675,1.3896e-07,0,0.00057697,0.00019925,2.9732e+08,31575,0,1.4435e+08,10908,502.62,1
1736,6.02,12124,1,12124,1,0.00031434,-2.8827e-09,0,0.00095336,-5.7462e-05,192.74,-236.09,0,2.5995e+08,15128,12123,12992,1,12992,1,0.0021037,4.7934e-07,0,0.0021037,0.00027681,3.4287e+08,1.0059e+05,0,5.9966e+08,51778,12991,12124,1,12124,1,0.00031401,-6.1055e-10,0,0.00092749,-5.761e-05,9.5368e+07,-174.2,0,2.6863e+08,14219,12123,11209,1,11209,1,-0.0014744,-5.4147e-07,0,1.6737e-05,-0.00039135,-5.9966e+08,-95301,0,7.6773e+06,37.649,11208,11690,1,11690,1,-0.00061312,-7.4894e-08,0,0.00046335,-0.00023042,-2.4933e+08,-19169,0,1.5808e+08,4534.6,11689,12558,1,12558,1,0.0012414,7.4306e-08,0,0.0013905,0.00011554,2.6863e+08,18664,0,3.2858e+08,22280,12557,502.62,0,502.62,0,0.0010705,1.5137e-07,0,0.00057913,0.0001998,2.9746e+08,34342,0,1.4447e+08,11746,502.62,1
1736,6.03,12124,1,12124,1,0.00031707,-5.6001e-09,0,0.0009563,-5.7959e-05,-142.75,-884.82,0,2.6003e+08,16485,12123,12992,1,12992,1,0.0021116,5.225e-07,0,0.0021116,0.00027725,3.4211e+08,1.0931e+05,0,6.0059e+08,55374,12991,12124,1,12124,1,0.00031671,-5.7615e-09,0,0.0009301,-5.81e-05,9.6009e+07,-1522.8,0,2.6867e+08,15565,12123,11209,1,11209,1,-0.0014767,-5.9136e-07,0,1.4916e-05,-0.00039279,-6.0059e+08,-1.0371e+05,0,7.0163e+06,18.773,11208,11690,1,11690,1,-0.00061298,-8.599e-08,0,0.00046462,-0.00023139,-2.4928e+08,-21771,0,1.5825e+08,4901.4,11689,12558,1,12558,1,0.0012467,7.9143e-08,0,0.0013943,0.00011552,2.6867e+08,19830,0,3.2832e+08,24396,12557,502.62,0,502.62,0,0.0010735,1.6568e-07,0,0.00058133,0.00020035,2.976e+08,37509,0,1.446e+08,12695,502.62,1
1736,6.04,12124,1,12124,1,0.00031985,-4.0085e-09,0,0.00095929,-5.8466e-05,39.787,-517.11,0,2.6013e+08,17908,12123,12992,1,12992,1,0.0021196,5.7866e-07,0,0.0021196,0.00027769,3.4134e+08,1.186e+05,0,6.0155e+08,59573,12991,12124,1,12124,1,0.00031948,-2.1657e-09,0,0.00093277,-5.8599e-05,9.6662e+07,-531.01,0,2.6871e+08,16911,12123,11209,1,11209,1,-0.001479,-6.4345e-07,0,1.306e-05,-0.00039427,-6.0155e+08,-1.1224e+05,0,6.3443e+06,72.957,11208,11690,1,11690,1,-0.00061286,-9.1714e-08,0,0.00046591,-0.00023238,-2.4923e+08,-23210,0,1.5841e+08,5312.7,11689,12558,1,12558,1,0.0012521,8.8186e-08,0,0.0013983,0.00011551,2.6871e+08,22301,0,3.2807e+08,26544,12557,502.62,0,502.62,0,0.0010766,1.8166e-07,0,0.00058358,0.00020092,2.9774e+08,40937,0,1.4473e+08,13726,502.62,1
1736,6.05,12124,1,12124,1,0.00032273,-4.32e-09,0,0.00096236,-5.8987e-05,-185.85,-662.71,0,2.6021e+08,19449,12123,12992,1,12992,1,0.0021278,6.2495e-07,0,0.0021278,0.00027814,3.4054e+08,1.2927e+05,0,6.0252e+08,63957,12991,12124,1,12124,1,0.00032231,-3.7652e-09,0,0.00093549,-5.911e-05,9.7328e+07,-933.02,0,2.6874e+08,18481,12123,11209,1,11209,1,-0.0014814,-7.0025e-07,0,1.1144e-05,-0.00039578,-6.0252e+08,-1.2144e+05,0,5.6536e+06,131.33,11208,11690,1,11690,1,-0.00061271,-1.0252e-07,0,0.00046723,-0.00023339,-2.4916e+08,-25987,0,1.5858e+08,5790.9,11689,12558,1,12558,1,0.0012576,9.8581e-08,0,0.0014023,0.00011549,2.6874e+08,24542,0,3.278e+08,29016,12557,502.62,0,502.62,0,0.0010797,1.9844e-07,0,0.00058589,0.0002015,2.9788e+08,44734,0,1.4486e+08,14798,502.62,1
1736,6.06,12124,1,12124,1,0.00032567,-1.7817e-09,0,0.0009655,-5.952e-05,-47.506,-7.7488,0,2.6029e+08,21271,12123,12992,1,12992,1,0.0021362,6.9411e-07,0,0.0021362,0.0002786,3.3971e+08,1.4104e+05,0,6.035e+08,69059,12991,12124,1,12124,1,0.00032521,-7.0487e-10,0,0.00093828,-5.9632e-05,9.8008e+07,-175.85,0,2.6877e+08,20239,12123,11209,1,11209,1,-0.0014838,-7.6898e-07,0,9.1713e-06,-0.00039733,-6.035e+08,-1.3274e+05,0,4.9436e+06,147.87,11208,11690,1,11690,1,-0.00061254,-1.0943e-07,0,0.00046857,-0.00023443,-2.491e+08,-27607,0,1.5875e+08,6394.6,11689,12558,1,12558,1,0.0012633,1.1176e-07,0,0.0014063,0.00011547,2.6877e+08,27945,0,3.2752e+08,31855,12557,502.62,0,502.62,0,0.0010829,2.197e-07,0,0.00058826,0.00020209,2.9802e+08,49140,0,1.4499e+08,16072,502.62,1
1736,6.07,12124,1,12124,1,0.00032869,-2.8133e-09,0,0.0009687,-6.0067e-05,-80.56,-157.46,0,2.6037e+08,23263,12123,12992,1,12992,1,0.0021448,7.6267e-07,0,0.0021448,0.00027907,3.3887e+08,1.5468e+05,0,6.045e+08,74263,12991,12124,1,12124,1,0.00032818,-1.5883e-09,0,0.00094112,-6.0167e-05,9.8702e+07,-415.89,0,2.6879e+08,22148,12123,11209,1,11209,1,-0.0014863,-8.4218e-07,0,7.1391e-06,-0.00039891,-6.045e+08,-1.446e+05,0,4.2134e+06,215.32,11208,11690,1,11690,1,-0.00061236,-1.2199e-07,0,0.00046993,-0.00023548,-2.4902e+08,-30503,0,1.5891e+08,6968.5,11689,12558,1,12558,1,0.0012691,1.22e-07,0,0.0014105,0.00011545,2.6879e+08,30456,0,3.2723e+08,34947,12557,502.62,0,502.62,0,0.0010862,2.4122e-07,0,0.00059069,0.00020269,2.9816e+08,53935,0,1.4513e+08,17505,502.62,1
1736,6.08,12124,1,12124,1,0.00033179,-4.7783e-10,0,0.00097197,-6.0628e-05,-99.778,506.97,0,2.6045e+08,25514,12123,12992,1,12992,1,0.0021537,8.4589e-07,0,0.0021537,0.00027954,3.3801e+08,1.6902e+05,0,6.0552e+08,80067,12991,12124,1,12124,1,0.00033123,2.8031e-09,0,0.00094403,-6.0713e-05,9.941e+07,699.81,0,2.6881e+08,24410,12123,11209,1,11209,1,-0.0014888,-9.2846e-07,0,5.0466e-06,-0.00040054,-6.0552e+08,-1.5862e+05,0,3.4625e+06,157.66,11208,11690,1,11690,1,-0.00061216,-1.321e-07,0,0.00047131,-0.00023656,-2.4894e+08,-32924,0,1.5908e+08,7705.2,11689,12558,1,12558,1,0.001275,1.3701e-07,0,0.0014147,0.00011542,2.6881e+08,34184,0,3.2692e+08,38411,12557,502.62,0,502.62,0,0.0010895,2.6759e-07,0,0.00059319,0.00020331,2.9829e+08,59347,0,1.4528e+08,19053,502.62,1
1736,6.09,12124,1,12124,1,0.00033498,8.2693e-10,0,0.00097533,-6.1204e-05,-123.32,1036.1,0,2.6053e+08,27962,12123,12992,1,12992,1,0.0021627,9.3297e-07,0,0.0021627,0.00028002,3.3712e+08,1.86e+05,0,6.0656e+08,86068,12991,12124,1,12124,1,0.00033435,6.1637e-09,0,0.000947,-6.1273e-05,1.0013e+08,1584.8,0,2.6882e+08,26881,12123,11209,1,11209,1,-0.0014913,-1.0207e-06,0,2.888e-06,-0.00040221,-6.0656e+08,-1.7342e+05,0,2.689e+06,198.59,11208,11690,1,11690,1,-0.00061193,-1.453e-07,0,0.00047271,-0.00023767,-2.4885e+08,-36130,0,1.5925e+08,8456.1,11689,12558,1,12558,1,0.0012811,1.5308e-07,0,0.001419,0.00011539,2.6882e+08,38148,0,3.266e+08,42326,12557,502.62,0,502.62,0,0.0010929,2.9526e-07,0,0.00059576,0.00020394,2.9843e+08,65301,0,1.4542e+08,20765,502.62,1
1736,6.1,12124,1,12124,1,0.00033827,-3.9113e-09,0,0.00097879,-6.1798e-05,249.99,130.53,0,2.606e+08,30653,12123,12992,1,12992,1,0.0021721,1.0213e-06,0,0.0021721,0.00028052,3.3622e+08,2.0445e+05,0,6.0764e+08,92615,12991,12124,1,12124,1,0.00033757,4.495e-10,0,0.00095009,-6.185e-05,1.0088e+08,77.446,0,2.6883e+08,29515,12123,11209,1,11209,1,-0.001494,-1.1294e-06,0,6.5705e-07,-0.00040394,-6.0764e+08,-1.9092e+05,0,1.8908e+06,291.7,11208,11690,1,11690,1,-0.00061172,-1.6416e-07,0,0.00047417,-0.00023881,-2.4876e+08,-40823,0,1.5942e+08,9244.8,11689,12558,1,12558,1,0.0012873,1.6507e-07,0,0.0014235,0.00011537,2.6883e+08,41138,0,3.2629e+08,46674,12557,502.62,0,502.62,0,0.0010964,3.2616e-07,0,0.00059841,0.00020459,2.9857e+08,72047,0,1.4558e+08,22630,502.62,1
1736,6.11,12124,1,12124,1,0.00034168,-6.711e-09,0,0.00098243,-6.2412e-05,266.87,-393.56,0,2.6067e+08,33724,12123,12992,1,12992,1,0.0021818,1.129e-06,0,0.0021818,0.00028103,3.3529e+08,2.249e+05,0,6.0873e+08,99761,12991,12124,1,12124,1,0.0003409,-3.2869e-09,0,0.00095181,-6.2444e-05,1.0164e+08,-746.5,0,2.6883e+08,32671,12123,11209,1,11209,1,-0.0014967,-1.2489e-06,0,2.9364e-07,-0.00040572,-6.0873e+08,-2.0996e+05,0,1.0619e+06,309.55,11208,11690,1,11690,1,-0.00061147,-1.872e-07,0,0.00047677,-0.00023999,-2.4866e+08,-46260,0,1.5959e+08,10138,11689,12558,1,12558,1,0.0012938,1.835e-07,0,0.0014295,0.00011533,2.6883e+08,44991,0,3.2595e+08,51754,12557,502.62,0,502.62,0,0.0011001,3.6185e-07,0,0.00060103,0.00020526,2.9871e+08,79704,0,1.4574e+08,24730,502.62,1
1736,6.12,12124,1,12124,1,0.00034519,-1.0862e-08,0,0.00098627,-6.3045e-05,-374.36,-1275.6,0,2.6074e+08,37251,12123,12992,1,12992,1,0.0021918,1.2516e-06,0,0.0021918,0.00028155,3.3433e+08,2.4717e+05,0,6.0986e+08,1.0804e+05,12991,12124,1,12124,1,0.00034434,-8.5673e-09,0,0.00095477,-6.3056e-05,1.0243e+08,-2111.9,0,2.6883e+08,36410,12123,11209,1,11209,1,-0.0014995,-1.3884e-06,0,2.1853e-06,-0.00040757,-6.0986e+08,-2.3232e+05,0,2.0458e+05,343.26,11208,11690,1,11690,1,-0.00061121,-2.1439e-07,0,0.00047842,-0.0002412,-2.4855e+08,-52432,0,1.5977e+08,11285,11689,12558,1,12558,1,0.0013004,2.0257e-07,0,0.0014343,0.0001153,2.6883e+08,49660,0,3.2561e+08,57497,12557,502.62,0,502.62,0,0.0011038,4.0326e-07,0,0.0006036,0.00020595,2.9885e+08,88433,0,1.459e+08,27099,502.62,1
1736,6.13,12124,1,12124,1,0.00034884,-4.2633e-09,0,0.00099023,-6.37e-05,-123.87,362.32,0,2.6084e+08,41163,12123,12992,1,12992,1,0.0022022,1.4032e-06,0,0.0022022,0.00028209,3.3331e+08,2.7334e+05,0,6.1101e+08,1.172e+05,12991,12124,1,12124,1,0.00034789,1.8976e-09,0,0.00095793,-6.3687e-05,1.0324e+08,489.01,0,2.6882e+08,40606,12123,11209,1,11209,1,-0.0015023,-1.5336e-06,0,4.4719e-06,-0.00040948,-6.1101e+08,-2.5493e+05,0,1.029e+05,423.54,11208,11690,1,11690,1,-0.00061091,-2.3075e-07,0,0.00048013,-0.00024244,-2.4843e+08,-56631,0,1.5994e+08,12612,11689,12558,1,12558,1,0.0013073,2.3053e-07,0,0.0014393,0.00011526,2.6882e+08,57488,0,3.2523e+08,63945,12557,502.62,0,502.62,0,0.0011077,4.5016e-07,0,0.00060626,0.00020667,2.9899e+08,98114,0,1.4602e+08,29751,502.62,1
1736,6.14,12124,1,12124,1,0.00035263,-9.8494e-09,0,0.00099434,-6.4379e-05,-548.09,-724.05,0,2.6097e+08,45530,12123,12992,1,12992,1,0.002213,1.5559e-06,0,0.002213,0.00028265,3.3229e+08,3.0244e+05,0,6.1221e+08,1.267e+05,12991,12124,1,12124,1,0.00035158,-6.2843e-09,0,0.0009612,-6.4339e-05,1.0407e+08,-1592.8,0,2.688e+08,45075,12123,11209,1,11209,1,-0.0015052,-1.7075e-06,0,6.8264e-06,-0.00041147,-6.1221e+08,-2.8225e+05,0,7.9433e+05,136.53,11208,11690,1,11690,1,-0.0006106,-2.6709e-07,0,0.0004819,-0.00024374,-2.483e+08,-64734,0,1.6012e+08,14019,11689,12558,1,12558,1,0.0013144,2.5604e-07,0,0.0014445,0.00011522,2.688e+08,62894,0,3.2453e+08,71254,12557,502.62,0,502.62,0,0.0011117,5.0236e-07,0,0.00060904,0.00020741,2.9914e+08,1.0913e+05,0,1.4608e+08,32712,502.62,1
1736,6.15,12124,1,12124,1,0.00035658,-2.4581e-09,0,0.0009986,-6.5085e-05,-207.34,1194.7,0,2.6109e+08,50491,12123,12992,1,12992,1,0.0022243,1.7448e-06,0,0.0022243,0.00028322,3.312e+08,3.3508e+05,0,6.1345e+08,1.3782e+05,12991,12124,1,12124,1,0.0003554,7.9775e-09,0,0.00096455,-6.5013e-05,1.0493e+08,1894.7,0,2.6877e+08,50029,12123,11209,1,11209,1,-0.0015083,-1.9e-06,0,9.2785e-06,-0.00041354,-6.1345e+08,-3.1206e+05,0,1.6623e+06,455.76,11208,11690,1,11690,1,-0.00061025,-2.8778e-07,0,0.00048374,-0.00024507,-2.4815e+08,-70690,0,1.603e+08,15694,11689,12558,1,12558,1,0.0013218,2.9656e-07,0,0.0014499,0.00011518,2.6877e+08,72983,0,3.2346e+08,79853,12557,502.62,0,502.62,0,0.0011158,5.6324e-07,0,0.00061192,0.00020817,2.9928e+08,1.2161e+05,0,1.4615e+08,36053,502.62,1
1736,6.16,12124,1,12124,1,0.0003607,-5.2662e-09,0,0.001003,-6.582e-05,-203,928.76,0,2.6122e+08,56068,12123,12992,1,12992,1,0.0022361,1.9492e-06,0,0.0022361,0.00028382,3.3011e+08,3.7281e+05,0,6.1473e+08,1.4921e+05,12991,12124,1,12124,1,0.00035937,6.7234e-09,0,0.00096801,-6.5712e-05,1.0583e+08,1702,0,2.6874e+08,55874,12123,11209,1,11209,1,-0.0015114,-2.1225e-06,0,1.1801e-05,-0.00041571,-6.1473e+08,-3.4641e+05,0,2.5553e+06,578.19,11208,11690,1,11690,1,-0.00060989,-3.285e-07,0,0.00048566,-0.00024646,-2.4801e+08,-80233,0,1.6048e+08,17423,11689,12558,1,12558,1,0.0013294,3.2922e-07,0,0.0014555,0.00011514,2.6874e+08,81192,0,3.2236e+08,89496,12557,502.62,0,502.62,0,0.0011201,6.3143e-07,0,0.00061494,0.00020897,2.9943e+08,1.3582e+05,0,1.4623e+08,39776,502.62,1
1736,6.17,12124,1,12124,1,0.00036501,-1.0475e-08,0,0.0010077,-6.6589e-05,-158.48,125.64,0,2.6135e+08,62388,12123,12992,1,12992,1,0.0022484,2.1793e-06,0,0.0022484,0.00028444,3.2896e+08,4.1519e+05,0,6.1606e+08,1.6184e+05,12991,12124,1,12124,1,0.00036351,4.5022e-10,0,0.00097159,-6.644e-05,1.0675e+08,123.14,0,2.687e+08,62670,12123,11209,1,11209,1,-0.0015147,-2.3793e-06,0,1.4428e-05,-0.00041798,-6.1606e+08,-3.8583e+05,0,3.4824e+06,769.84,11208,11690,1,11690,1,-0.0006095,-3.7442e-07,0,0.00048766,-0.00024791,-2.4784e+08,-91873,0,1.6067e+08,19540,11689,12558,1,12558,1,0.0013374,3.7003e-07,0,0.0014613,0.00011509,2.687e+08,90977,0,3.2121e+08,1.0062e+05,12557,502.62,0,502.62,0,0.0011246,7.1006e-07,0,0.00061811,0.0002098,2.9958e+08,1.5211e+05,0,1.463e+08,44026,502.62,1
1736,6.18,12124,1,12124,1,0.00036954,-1.351e-08,0,0.0010125,-6.7393e-05,355.81,-199.27,0,2.6148e+08,69546,12123,12992,1,12992,1,0.0022614,2.4442e-06,0,0.0022614,0.00028509,3.2777e+08,4.6424e+05,0,6.1747e+08,1.7583e+05,12991,12124,1,12124,1,0.00036785,-1.3151e-09,0,0.00097532,-6.7199e-05,1.0772e+08,-332.42,0,2.6866e+08,70520,12123,11209,1,11209,1,-0.0015182,-2.6688e-06,0,1.7165e-05,-0.00042038,-6.1747e+08,-4.2978e+05,0,4.445e+06,603.29,11208,11690,1,11690,1,-0.00060908,-4.257e-07,0,0.00048978,-0.00024942,-2.4767e+08,-1.0429e+05,0,1.6086e+08,21825,11689,12558,1,12558,1,0.0013458,4.1984e-07,0,0.0014674,0.00011504,2.6866e+08,1.0272e+05,0,3.2e+08,1.129e+05,12557,502.62,0,502.62,0,0.0011293,8.0056e-07,0,0.00062144,0.00021066,2.9973e+08,1.7092e+05,0,1.4639e+08,48845,502.62,1
1736,6.19,12124,1,12124,1,0.00037431,-1.1082e-08,0,0.0010176,-6.8238e-05,481.01,767.41,0,2.616e+08,78010,12123,12992,1,12992,1,0.0022751,2.7723e-06,0,0.0022751,0.00028577,3.2652e+08,5.1977e+05,0,6.1892e+08,1.9122e+05,12991,12124,1,12124,1,0.0003724,5.1742e-09,0,0.00097916,-6.7989e-05,1.0873e+08,1222,0,2.6859e+08,78679,12123,11209,1,11209,1,-0.0015217,-3.009e-06,0,2.0022e-05,-0.0004229,-6.1892e+08,-4.8126e+05,0,5.4451e+06,884.75,11208,11690,1,11690,1,-0.0006086,-4.8258e-07,0,0.00049199,-0.000251,-2.4748e+08,-1.1712e+05,0,1.6105e+08,24704,11689,12558,1,12558,1,0.0013545,4.794e-07,0,0.0014738,0.00011498,2.6859e+08,1.1759e+05,0,3.1873e+08,1.2752e+05,12557,502.62,0,502.62,0,0.0011342,9.096e-07,0,0.00062495,0.00021157,2.9989e+08,1.9281e+05,0,1.4648e+08,54434,502.62,1
1736,6.2,12124,1,12124,1,0.00037933,-1.299e-08,0,0.0010229,-6.9127e-05,540.29,896.05,0,2.6172e+08,87466,12123,12992,1,12992,1,0.0022897,3.1335e-06,0,0.0022897,0.00028648,3.2522e+08,5.8307e+05,0,6.2044e+08,2.0825e+05,12991,12124,1,12124,1,0.00037717,6.5919e-09,0,0.00098315,-6.8815e-05,1.0977e+08,1564.6,0,2.6852e+08,87896,12123,11209,1,11209,1,-0.0015255,-3.398e-06,0,2.2993e-05,-0.00042557,-6.2044e+08,-5.3952e+05,0,6.4789e+06,959.64,11208,11690,1,11690,1,-0.00060809,-5.5071e-07,0,0.00049433,-0.00025265,-2.4727e+08,-1.319e+05,0,1.6115e+08,27856,11689,12558,1,12558,1,0.0013637,5.4868e-07,0,0.0014806,0.00011492,2.6852e+08,1.3452e+05,0,3.1739e+08,1.4419e+05,12557,502.62,0,502.62,0,0.0011394,1.0323e-06,0,0.00062866,0.00021253,3.0004e+08,2.1782e+05,0,1.4658e+08,60753,502.62,1
1736,6.21,12124,1,12124,1,0.00038464,-1.9867e-08,0,0.0010285,-7.0062e-05,861.87,3.0637,0,2.6184e+08,98573,12123,12992,1,12992,1,0.002305,3.5616e-06,0,0.002305,0.00028722,3.2388e+08,6.5427e+05,0,6.2203e+08,2.2716e+05,12991,12124,1,12124,1,0.00038218,-1.7738e-09,0,0.00098729,-6.9678e-05,1.1087e+08,-595.22,0,2.6842e+08,98778,12123,11209,1,11209,1,-0.0015294,-3.8617e-06,0,2.609e-05,-0.0004284,-6.2203e+08,-6.0913e+05,0,7.5489e+06,1087.4,11208,11690,1,11690,1,-0.00060754,-6.2951e-07,0,0.00049679,-0.00025438,-2.4704e+08,-1.5422e+05,0,1.6111e+08,31800,11689,12558,1,12558,1,0.0013733,6.2248e-07,0,0.0014876,0.00011485,2.6842e+08,1.5126e+05,0,3.1598e+08,1.6393e+05,12557,502.62,0,502.62,0,0.0011448,1.1799e-06,0,0.00063258,0.00021353,3.002e+08,2.4683e+05,0,1.4668e+08,68088,502.62,1
1736,6.22,12124,1,12124,1,0.00039026,-2.6393e-08,0,0.0010345,-7.1053e-05,-411.93,-845.97,0,2.6197e+08,1.1117e+05,12123,12992,1,12992,1,0.0023215,4.0479e-06,0,0.0023215,0.00028801,3.2247e+08,7.3763e+05,0,6.2374e+08,2.4693e+05,12991,12124,1,12124,1,0.00038748,-5.6675e-09,0,0.00099164,-7.0586e-05,1.1203e+08,-1561.6,0,2.6832e+08,1.1145e+05,12123,11209,1,11209,1,-0.0015336,-4.3828e-06,0,2.9332e-05,-0.00043142,-6.2374e+08,-6.86e+05,0,8.6596e+06,1349.4,11208,11690,1,11690,1,-0.00060696,-7.2521e-07,0,0.00049943,-0.00025621,-2.468e+08,-1.7751e+05,0,1.6125e+08,36402,11689,12558,1,12558,1,0.0013834,7.1255e-07,0,0.0014952,0.00011478,2.6832e+08,1.7259e+05,0,3.1451e+08,1.8458e+05,12557,502.62,0,502.62,0,0.0011506,1.3477e-06,0,0.00063676,0.00021459,3.0036e+08,2.8043e+05,0,1.468e+08,76469,502.62,1
1736,6.23,12124,1,12124,1,0.00039628,-3.3452e-08,0,0.0010408,-7.2108e-05,617.06,-1813.1,0,2.6209e+08,1.2574e+05,12123,12992,1,12992,1,0.0023392,4.6227e-06,0,0.0023392,0.00028886,3.21e+08,8.3432e+05,0,6.2555e+08,2.6896e+05,12991,12124,1,12124,1,0.00039311,-1.0875e-08,0,0.00099619,-7.1546e-05,1.1324e+08,-2868.3,0,2.6821e+08,1.265e+05,12123,11209,1,11209,1,-0.001538,-4.9925e-06,0,3.275e-05,-0.00043467,-6.2555e+08,-7.7822e+05,0,9.8181e+06,1440.2,11208,11690,1,11690,1,-0.00060631,-8.3853e-07,0,0.00050225,-0.00025815,-2.4653e+08,-2.0354e+05,0,1.6141e+08,41732,11689,12558,1,12558,1,0.0013943,8.1878e-07,0,0.0015032,0.00011471,2.6821e+08,1.9792e+05,0,3.1294e+08,2.1006e+05,12557,502.62,0,502.62,0,0.0011567,1.547e-06,0,0.00064124,0.00021572,3.0054e+08,3.1998e+05,0,1.4694e+08,86237,502.62,1
1736,6.24,12124,1,12124,1,0.00040271,-2.7744e-08,0,0.0010475,-7.3232e-05,-278.77,185.57,0,2.6221e+08,1.4299e+05,12123,12992,1,12992,1,0.0023582,5.3305e-06,0,0.0023582,0.00028975,3.1942e+08,9.4754e+05,0,6.2746e+08,2.9359e+05,12991,12124,1,12124,1,0.00039909,-9.4264e-10,0,0.0010009,-7.2556e-05,1.1453e+08,-300.21,0,2.6806e+08,1.4437e+05,12123,11209,1,11209,1,-0.0015427,-5.7017e-06,0,3.6344e-05,-0.00043817,-6.2746e+08,-8.8411e+05,0,1.1022e+07,2013.4,11208,11690,1,11690,1,-0.00060558,-9.59e-07,0,0.00050526,-0.00026019,-2.4623e+08,-2.3238e+05,0,1.6156e+08,47177,11689,12558,1,12558,1,0.0014057,9.5647e-07,0,0.0015117,0.00011463,2.6806e+08,2.3121e+05,0,3.1125e+08,2.411e+05,12557,502.62,0,502.62,0,0.0011632,1.7864e-06,0,0.00064604,0.00021692,3.0071e+08,3.665e+05,0,1.4708e+08,97761,502.62,1
1736,6.25,12124,1,12124,1,0.00040962,-3.7796e-08,0,0.0010547,-7.4436e-05,376.49,-1044.6,0,2.6232e+08,1.6293e+05,12123,12992,1,12992,1,0.0023788,6.1313e-06,0,0.0023788,0.0002907,3.1779e+08,1.0781e+06,0,6.2951e+08,3.2184e+05,12991,12124,1,12124,1,0.00040545,-1.0223e-08,0,0.0010059,-7.3626e-05,1.1589e+08,-2509.6,0,2.679e+08,1.645e+05,12123,11209,1,11209,1,-0.0015478,-6.5528e-06,0,4.0105e-05,-0.00044196,-6.2951e+08,-1.0116e+06,0,1.2264e+07,2081.4,11208,11690,1,11690,1,-0.00060479,-1.1192e-06,0,0.00050851,-0.00026237,-2.459e+08,-2.7057e+05,0,1.6171e+08,53384,11689,12558,1,12558,1,0.0014179,1.1124e-06,0,0.0015209,0.00011454,2.679e+08,2.6611e+05,0,3.0947e+08,2.7444e+05,12557,502.62,0,502.62,0,0.0011701,2.0692e-06,0,0.00065121,0.00021821,3.0089e+08,4.2137e+05,0,1.4724e+08,1.1124e+05,502.62,1
1736,6.26,12124,1,12124,1,0.00041707,-3.8599e-08,0,0.0010624,-7.5728e-05,-46.167,-148.49,0,2.6243e+08,1.8628e+05,12123,12992,1,12992,1,0.0024012,7.1026e-06,0,0.0024012,0.00029173,3.1606e+08,1.2333e+06,0,6.3171e+08,3.6676e+05,12991,12124,1,12124,1,0.00041226,-6.2652e-09,0,0.001011,-7.476e-05,1.1733e+08,-1559.2,0,2.6771e+08,1.8857e+05,12123,11209,1,11209,1,-0.0015532,-7.5426e-06,0,4.4067e-05,-0.00044609,-6.3171e+08,-1.1595e+06,0,1.3553e+07,2599.2,11208,11690,1,11690,1,-0.0006039,-1.308e-06,0,0.00051203,-0.00026469,-2.4554e+08,-3.1379e+05,0,1.6185e+08,58794,11689,12558,1,12558,1,0.0014309,1.3081e-06,0,0.0015307,0.00011444,2.6771e+08,3.1085e+05,0,3.0755e+08,3.0686e+05,12557,502.62,0,502.62,0,0.0011776,2.4086e-06,0,0.0006568,0.00021958,3.0107e+08,4.8656e+05,0,1.4742e+08,1.2719e+05,502.62,1
1736,6.27,12124,1,12124,1,0.00042512,-4.5168e-08,0,0.0010707,-7.712e-05,716.57,-198.71,0,2.6253e+08,2.1378e+05,12123,12992,1,12992,1,0.0024258,8.2504e-06,0,0.0024258,0.00029284,3.1426e+08,1.4149e+06,0,6.341e+08,4.3175e+05,12991,12124,1,12124,1,0.00041956,-6.5091e-09,0,0.0010164,-7.5966e-05,1.1887e+08,-1629.4,0,2.6748e+08,2.1866e+05,12123,11209,1,11209,1,-0.0015591,-8.7293e-06,0,4.8225e-05,-0.00045062,-6.341e+08,-1.335e+06,0,1.4885e+07,2863.3,11208,11690,1,11690,1,-0.00060294,-1.5453e-06,0,0.00051587,-0.00026717,-2.4514e+08,-3.6789e+05,0,1.6199e+08,65940,11689,12558,1,12558,1,0.0014449,1.549e-06,0,0.0015413,0.00011431,2.6748e+08,3.6456e+05,0,3.055e+08,3.5565e+05,12557,502.62,0,502.62,0,0.0011856,2.8184e-06,0,0.00066289,0.00022106,3.0126e+08,5.6449e+05,0,1.4763e+08,1.4623e+05,502.62,1
1736,6.28,12124,1,12124,1,0.00043389,-4.6008e-08,0,0.0010798,-7.8627e-05,-2045.4,1238.3,0,2.6262e+08,2.4646e+05,12123,12992,1,12992,1,0.002453,9.6384e-06,0,0.002453,0.00029405,3.1234e+08,1.6287e+06,0,6.3669e+08,5.1281e+05,12991,12124,1,12124,1,0.00042741,5.328e-09,0,0.0010221,-7.7251e-05,1.205e+08,1243.2,0,2.6722e+08,2.5425e+05,12123,11209,1,11209,1,-0.0015655,-1.0143e-05,0,5.2595e-05,-0.00045562,-6.3669e+08,-1.5413e+06,0,1.6262e+07,3113.5,11208,11690,1,11690,1,-0.00060185,-1.8297e-06,0,0.00052008,-0.00026983,-2.4469e+08,-4.2958e+05,0,1.6211e+08,76267,11689,12558,1,12558,1,0.0014599,1.8262e-06,0,0.0015553,0.00011417,2.6722e+08,4.3181e+05,0,3.0327e+08,4.1043e+05,12557,502.62,0,502.62,0,0.0011943,3.3177e-06,0,0.00066954,0.00022267,3.0145e+08,6.5802e+05,0,1.4786e+08,1.6922e+05,502.62,1
1736,6.29,12124,1,12124,1,0.0004435,-5.7921e-08,0,0.0010896,-8.0271e-05,-126.82,788.8,0,2.6271e+08,2.8474e+05,12123,12992,1,12992,1,0.0024832,1.1288e-05,0,0.0024832,0.00029538,3.1034e+08,1.8827e+06,0,6.3954e+08,6.1242e+05,12991,12124,1,12124,1,0.00043591,-2.48e-09,0,0.0010299,-7.8633e-05,1.2226e+08,-660.12,0,2.6691e+08,2.9017e+05,12123,11209,1,11209,1,-0.0015724,-1.1828e-05,0,5.7196e-05,-0.00046118,-6.3954e+08,-1.7885e+06,0,1.769e+07,3171.2,11208,11690,1,11690,1,-0.00060064,-2.1867e-06,0,0.000524,-0.00027269,-2.4419e+08,-5.0855e+05,0,1.6222e+08,90355,11689,12558,1,12558,1,0.0014762,2.1697e-06,0,0.0015668,0.000114,2.6691e+08,5.1064e+05,0,3.0088e+08,4.6322e+05,12557,502.62,0,502.62,0,0.0012038,3.9247e-06,0,0.00067687,0.00022441,3.0165e+08,7.7083e+05,0,1.4812e+08,1.9705e+05,502.62,1
1736,6.3,12124,1,12124,1,0.00045408,-7.5258e-08,0,0.0011003,-8.2069e-05,1083.6,-435.68,0,2.6278e+08,3.3042e+05,12123,12992,1,12992,1,0.0025172,1.3283e-05,0,0.0025172,0.00029684,3.0824e+08,2.1821e+06,0,6.4267e+08,7.3743e+05,12991,12124,1,12124,1,0.00044517,-1.6409e-08,0,0.0010439,-8.0123e-05,1.2416e+08,-3508.6,0,2.6654e+08,3.2705e+05,12123,11209,1,11209,1,-0.0015802,-1.3861e-05,0,6.2043e-05,-0.00046744,-6.4267e+08,-2.0839e+06,0,1.9172e+07,3360.1,11208,11690,1,11690,1,-0.00059929,-2.6052e-06,0,0.00052339,-0.0002758,-2.4363e+08,-6.1002e+05,0,1.6231e+08,1.0673e+05,11689,12558,1,12558,1,0.0014939,2.5883e-06,0,0.0015766,0.00011379,2.6654e+08,6.0447e+05,0,2.9828e+08,5.3495e+05,12557,502.62,0,502.62,0,0.0012142,4.6742e-06,0,0.00068499,0.00022633,3.0186e+08,9.079e+05,0,1.4842e+08,2.3142e+05,502.62,1
1736,6.31,12124,1,12124,1,0.0004658,-8.1858e-08,0,0.0011122,-8.4051e-05,698.45,1012.8,0,2.6284e+08,3.8464e+05,12123,12992,1,12992,1,0.0025559,1.5706e-05,0,0.0025559,0.00029848,3.06e+08,2.5396e+06,0,6.4618e+08,8.9443e+05,12991,12124,1,12124,1,0.00045529,-1.0731e-08,0,0.0010592,-8.1738e-05,1.2621e+08,-2643.7,0,2.6611e+08,3.7687e+05,12123,11209,1,11209,1,-0.0015888,-1.6277e-05,0,5.9887e-05,-0.00047455,-6.4618e+08,-2.4365e+06,0,2.0712e+07,3362,11208,11690,1,11690,1,-0.00059775,-3.1622e-06,0,0.00052262,-0.00027919,-2.4299e+08,-7.3254e+05,0,1.6236e+08,1.2458e+05,11689,12558,1,12558,1,0.0015132,3.0918e-06,0,0.0015867,0.00011354,2.6611e+08,7.2684e+05,0,2.9542e+08,6.1864e+05,12557,502.62,0,502.62,0,0.0012257,5.5998e-06,0,0.00069406,0.00022844,3.0208e+08,1.0751e+06,0,1.4877e+08,2.7423e+05,502.62,1
1736,6.32,12124,1,12124,1,0.00047889,-1.0372e-07,0,0.0011254,-8.6252e-05,300.06,52.15,0,2.6287e+08,4.492e+05,12123,12992,1,12992,1,0.0026002,1.8636e-05,0,0.0026002,0.00030032,3.0366e+08,2.9628e+06,0,6.5011e+08,1.0947e+06,12991,12124,1,12124,1,0.00046645,-2.3903e-08,0,0.001076,-8.3505e-05,1.2845e+08,-5012.6,0,2.6559e+08,4.3033e+05,12123,11209,1,11209,1,-0.0015985,-1.9204e-05,0,5.1091e-05,-0.00048271,-6.5011e+08,-2.8587e+06,0,2.0769e+07,3344.8,11208,11690,1,11690,1,-0.00059601,-3.8248e-06,0,0.00052173,-0.0002829,-2.4227e+08,-8.8646e+05,0,1.6239e+08,1.4113e+05,11689,12558,1,12558,1,0.0015345,3.7547e-06,0,0.001597,0.00011324,2.6559e+08,8.7972e+05,0,2.9228e+08,7.135e+05,12557,502.62,0,502.62,0,0.0012385,6.759e-06,0,0.00070427,0.00023079,3.0231e+08,1.2806e+06,0,1.4918e+08,3.2865e+05,502.62,1
1736,6.33,12124,1,12124,1,0.00049364,-1.2232e-07,0,0.0011402,-8.8719e-05,-714.17,213.35,0,2.6287e+08,5.2566e+05,12123,12992,1,12992,1,0.0026518,2.2194e-05,0,0.0026518,0.0003024,3.0116e+08,3.4618e+06,0,6.5457e+08,1.3525e+06,12991,12124,1,12124,1,0.00047886,-3.1268e-08,0,0.0010904,-8.546e-05,1.3091e+08,-6356.8,0,2.6496e+08,4.7419e+05,12123,11209,1,11209,1,-0.0016094,-2.2691e-05,0,4.0916e-05,-0.0004922,-6.5457e+08,-3.3641e+06,0,1.6832e+07,2947.4,11208,11690,1,11690,1,-0.00059397,-4.6462e-06,0,0.0005234,-0.000287,-2.4143e+08,-1.0797e+06,0,1.6416e+08,1.5553e+05,11689,12558,1,12558,1,0.0015581,4.6248e-06,0,0.0016082,0.0001129,2.6496e+08,1.0718e+06,0,2.8791e+08,8.449e+05,12557,502.62,0,502.62,0,0.0012527,8.2158e-06,0,0.00071588,0.00023341,3.0254e+08,1.5339e+06,0,1.4965e+08,3.9907e+05,502.62,1
1736,6.34,12124,1,12124,1,0.00051041,-1.421e-07,0,0.0011569,-9.1509e-05,0.58283,895.96,0,2.6284e+08,6.1657e+05,12123,12992,1,12992,1,0.0027129,2.6563e-05,0,0.0027129,0.00030481,2.9853e+08,4.054e+06,0,6.5972e+08,1.687e+06,12991,12124,1,12124,1,0.00049276,-3.8016e-08,0,0.0011062,-8.7639e-05,1.3364e+08,-7748.3,0,2.642e+08,5.1407e+05,12123,11209,1,11209,1,-0.0016221,-2.6845e-05,0,2.9016e-05,-0.00050345,-6.5972e+08,-3.9752e+06,0,1.2392e+07,2084.4,11208,11690,1,11690,1,-0.00059163,-5.8284e-06,0,0.00052622,-0.00029157,-2.4046e+08,-1.3181e+06,0,1.6665e+08,1.7288e+05,11689,12558,1,12558,1,0.0015845,5.7096e-06,0,0.0016211,0.00011256,2.642e+08,1.3158e+06,0,2.8299e+08,1.0079e+06,12557,502.62,0,502.62,0,0.0012689,1.0067e-05,0,0.00072925,0.00023638,3.028e+08,1.8492e+06,0,1.5021e+08,4.923e+05,502.62,1
1736,6.35,12124,1,12124,1,0.00052978,-1.689e-07,0,0.001176,-9.4717e-05,-462.87,1689.1,0,2.6275e+08,7.2332e+05,12123,12992,1,12992,1,0.0027865,3.1784e-05,0,0.0027865,0.00030761,2.9575e+08,4.7494e+06,0,6.6572e+08,2.128e+06,12991,12124,1,12124,1,0.0005087,-4.8334e-08,0,0.0011268,-9.0139e-05,1.3667e+08,-9618.2,0,2.6244e+08,5.6433e+05,12123,11209,1,11209,1,-0.0016368,-3.1824e-05,0,1.4835e-05,-0.000517,-6.6572e+08,-4.6984e+06,0,7.3314e+06,500.33,11208,11690,1,11690,1,-0.00058878,-7.3213e-06,0,0.00052902,-0.00029731,-2.3929e+08,-1.6246e+06,0,1.6941e+08,1.7079e+05,11689,12558,1,12558,1,0.001627,7.1063e-06,0,0.0016361,0.00011215,2.6244e+08,1.6373e+06,0,2.7784e+08,1.1757e+06,12557,502.62,0,502.62,0,0.0012875,1.2444e-05,0,0.00074489,0.00023978,3.0305e+08,2.2428e+06,0,1.5089e+08,6.1892e+05,502.62,1
1736,6.36,12124,1,12124,1,0.00055241,-2.1192e-07,0,0.0011982,-9.8433e-05,-24.523,171.05,0,2.6259e+08,8.4908e+05,12123,12992,1,12992,1,0.0028774,3.8289e-05,0,0.0028774,0.00031094,2.9277e+08,5.5705e+06,0,6.7283e+08,2.7121e+06,12991,12124,1,12124,1,0.00052716,-7.4659e-08,0,0.001141,-9.3008e-05,1.4013e+08,-15473,0,2.6018e+08,5.979e+05,12123,11209,1,11209,1,-0.0016543,-3.8322e-05,0,2.2954e-06,-0.00053372,-6.7283e+08,-5.5623e+06,0,1.2905e+06,-1.0221e+05,11208,11690,1,11690,1,-0.00058537,-9.2576e-06,0,0.00053167,-0.00030617,-2.3788e+08,-2.0228e+06,0,1.7254e+08,1.4116e+05,11689,12558,1,12558,1,0.0016778,9.0851e-06,0,0.001678,0.00011165,2.6014e+08,2.0149e+06,0,2.7274e+08,1.415e+06,12557,502.62,0,502.62,0,0.0013091,1.554e-05,0,0.00076342,0.00024373,3.0332e+08,2.74e+06,0,1.5172e+08,7.9511e+05,502.62,1
1736,6.37,12124,1,12124,1,0.00057937,-2.4552e-07,0,0.001225,-0.00010277,1071.8,1450.4,0,2.6246e+08,9.9723e+05,12123,12992,1,12992,1,0.0029928,4.7147e-05,0,0.0029928,0.000315,2.8954e+08,6.6316e+06,0,6.8149e+08,3.5136e+06,12991,12124,1,12124,1,0.00054904,-1.0246e-07,0,0.0011528,-9.6083e-05,1.4412e+08,-20770,0,2.5606e+08,6.4009e+05,12123,11209,1,11209,1,-0.0016756,-4.7156e-05,0,9.6153e-06,-0.00055498,-6.8149e+08,-6.6275e+06,0,2.4288e+06,-4.9735e+05,11208,11690,1,11690,1,-0.00058116,-1.1648e-05,0,0.00054906,-0.00031567,-2.3615e+08,-2.5084e+06,0,1.7613e+08,1.0182e+05,11689,12558,1,12558,1,0.0017333,1.1481e-05,0,0.0017336,0.00011103,2.5603e+08,2.5095e+06,0,2.6816e+08,1.7468e+06,12557,502.62,0,502.62,0,0.0013349,1.9641e-05,0,0.00078523,0.00024839,3.0362e+08,3.3765e+06,0,1.5255e+08,1.0452e+06,502.62,1
1736,6.38,12124,1,12124,1,0.00061218,-2.9611e-07,0,0.0012578,-0.00010793,1580.6,1123.2,0,2.6236e+08,1.1717e+06,12123,12992,1,12992,1,0.0031442,5.9651e-05,0,0.0031442,0.00032007,2.8598e+08,8.0601e+06,0,6.923e+08,4.64e+06,12991,12124,1,12124,1,0.00058098,-1.533e-07,0,0.0011643,-9.9615e-05,1.4887e+08,-30777,0,2.5204e+08,6.6107e+05,12123,11209,1,11209,1,-0.0017022,-5.9666e-05,0,1.4179e-05,-0.00058288,-6.923e+08,-8.0511e+06,0,3.9762e+06,-1.0977e+06,11208,11690,1,11690,1,-0.00057588,-1.4936e-05,0,0.00058098,-0.00032615,-2.3397e+08,-3.1847e+06,0,1.8103e+08,39761,11689,12558,1,12558,1,0.0017946,1.4786e-05,0,0.0017955,0.00011031,2.5202e+08,3.1924e+06,0,2.657e+08,2.1113e+06,12557,502.62,0,502.62,0,0.0013664,2.5208e-05,0,0.00081223,0.00025401,3.0396e+08,4.204e+06,0,1.5342e+08,1.4081e+06,502.62,1
1736,6.39,12124,1,12124,1,0.00065336,-3.5332e-07,0,0.0012986,-0.00011427,-184.69,1644.3,0,2.6215e+08,1.3772e+06,12123,12992,1,12992,1,0.0033518,7.7958e-05,0,0.0033518,0.00032659,2.8194e+08,1.0011e+07,0,7.0618e+08,6.2579e+06,12991,12124,1,12124,1,0.00063147,-2.0447e-07,0,0.0011848,-0.00010384,1.5747e+08,-41150,0,2.4758e+08,6.7103e+05,12123,11209,1,11209,1,-0.0017364,-7.7992e-05,0,1.7758e-05,-0.00062113,-7.0618e+08,-9.9998e+06,0,5.2816e+06,-1.9704e+06,11208,11690,1,11690,1,-0.00056884,-1.9478e-05,0,0.00063147,-0.00033724,-2.3106e+08,-4.1563e+06,0,1.8689e+08,7532.5,11689,12558,1,12558,1,0.0018466,1.9049e-05,0,0.0018477,0.00010959,2.4758e+08,4.1318e+06,0,2.6237e+08,2.6051e+06,12557,502.62,0,502.62,0,0.0014062,3.3022e-05,0,0.00084743,0.00026097,3.0434e+08,5.3008e+06,0,1.5456e+08,1.945e+06,502.62,1
1736,6.4,12124,1,12124,1,0.00070711,-4.2639e-07,0,0.0013516,-0.00012233,-1212.7,1445.5,0,2.6172e+08,1.62e+06,12123,12992,1,12992,1,0.0036529,0.00010628,0,0.0036529,0.00033532,2.7715e+08,1.2754e+07,0,7.2474e+08,8.648e+06,12991,12124,1,12124,1,0.00069005,-2.7431e-07,0,0.0012238,-0.0001098,1.6743e+08,-53341,0,2.4288e+08,6.2391e+05,12123,11209,1,11209,1,-0.001782,-0.00010633,0,2.0531e-05,-0.00067665,-7.2474e+08,-1.2743e+07,0,6.3763e+06,-3.1955e+06,11208,11690,1,11690,1,-0.0005591,-2.6323e-05,0,0.00063388,-0.00034675,-2.2701e+08,-5.4975e+06,0,1.8464e+08,-1.0443e+05,11689,12558,1,12558,1,0.0019371,2.5464e-05,0,0.0019373,0.00010882,2.4282e+08,5.4879e+06,0,2.5908e+08,3.3223e+06,12557,502.62,0,502.62,0,0.0014591,4.4502e-05,0,0.00089631,0.00026997,3.0481e+08,6.7944e+06,0,1.5626e+08,2.7567e+06,502.62,1
1736,6.41,12124,1,12124,1,0.00078105,-5.1015e-07,0,0.0014238,-0.00013291,-3324.9,859.99,0,2.6086e+08,1.9129e+06,12123,12992,1,12992,1,0.0041242,0.0001532,0,0.0041242,0.00034758,2.7113e+08,1.6783e+07,0,7.5073e+08,1.2319e+07,12991,12124,1,12124,1,0.00076068,-3.8401e-07,0,0.0012729,-0.00011809,1.7893e+08,-70586,0,2.3876e+08,5.4715e+05,12123,11209,1,11209,1,-0.001846,-0.00015323,0,2.617e-06,-0.00076364,-7.5073e+08,-1.6775e+07,0,9.1649e+05,-4.97e+06,11208,11690,1,11690,1,-0.0005446,-3.5596e-05,0,0.0006256,-0.00035767,-2.2095e+08,-7.3426e+06,0,1.8596e+08,-4.9682e+05,11689,12558,1,12558,1,0.002035,3.4687e-05,0,0.0020381,0.00010803,2.3861e+08,7.3108e+06,0,2.5773e+08,4.2053e+06,12557,502.62,0,502.62,0,0.0015345,6.2539e-05,0,0.00096989,0.00028225,3.054e+08,8.9044e+06,0,1.5894e+08,4.0153e+06,502.62,1
1736,6.42,12124,1,12124,1,0.00088965,-5.7846e-07,0,0.0015308,-0.00014716,-1288.3,5904.6,0,2.5977e+08,2.2682e+06,12123,12992,1,12992,1,0.0049452,0.00024211,0,0.0049452,0.00036597,2.6987e+08,2.3164e+07,0,7.8965e+08,1.8286e+07,12991,12124,1,12124,1,0.00082764,-5.9014e-07,0,0.0013368,-0.00013034,1.73e+08,-99219,0,2.3279e+08,4.2921e+05,12123,11209,1,11209,1,-0.0019418,-0.00024215,0,2.3798e-05,-0.00091539,-7.8965e+08,-2.3136e+07,0,7.7485e+06,-7.5172e+06,11208,11690,1,11690,1,-0.00052153,-5.0294e-05,0,0.00064945,-0.00037368,-2.1124e+08,-9.9859e+06,0,1.7671e+08,-1.4318e+06,11689,12558,1,12558,1,0.0021517,4.8558e-05,0,0.0021569,0.00010613,2.3255e+08,1.0035e+07,0,2.5951e+08,5.4634e+06,12557,502.62,0,502.62,0,0.0016536,9.3684e-05,0,0.001091,0.00030019,3.063e+08,1.2032e+07,0,1.6262e+08,6.0533e+06,502.62,1
1736,6.43,12124,1,12124,1,0.0010647,-7.8618e-07,0,0.0017034,-0.00016655,-2913.3,-7205.8,0,2.5774e+08,2.7119e+06,12123,12992,1,12992,1,0.0066212,0.00043859,0,0.0066212,0.0003959,2.8494e+08,3.3885e+07,0,8.5273e+08,2.8326e+07,12991,12124,1,12124,1,0.00096723,-5.8602e-07,0,0.0014228,-0.00015515,1.5978e+08,-92059,0,2.2427e+08,1.8982e+05,12123,11209,1,11209,1,-0.002097,-0.00043899,0,4.4804e-06,-0.0012248,-8.5273e+08,-3.3894e+07,0,1.0544e+06,-1.19e+07,11208,11690,1,11690,1,-0.00047969,-7.6411e-05,0,0.00075355,-0.00038103,-1.9353e+08,-1.4081e+07,0,1.6381e+08,-3.2765e+06,11689,12558,1,12558,1,0.002286,7.3197e-05,0,0.0022963,9.7231e-05,2.2569e+08,1.4159e+07,0,2.6972e+08,7.4975e+06,12557,502.62,0,502.62,0,0.0018728,0.00015526,0,0.0013277,0.00032921,3.0798e+08,1.6887e+07,0,1.6933e+08,9.452e+06,502.62,1
1736,6.44,12124,1,12124,1,0.0013795,-8.619e-07,0,0.0020167,-0.00018837,-26.732,3069.7,0,2.538e+08,3.2755e+06,12123,12992,1,12992,1,0.010947,0.00098343,0,0.010947,0.00044793,3.1695e+08,5.2538e+07,0,9.6167e+08,4.4938e+07,12991,12124,1,12124,1,0.0011442,-1.3289e-06,0,0.0015161,-0.00017943,1.4347e+08,-2.0436e+05,0,2.1137e+08,-41231,12123,11209,1,11209,1,-0.0023652,-0.00098329,0,4.9871e-05,-0.0020164,-9.6167e+08,-5.2503e+07,0,1.3092e+07,-1.9731e+07,11208,11690,1,11690,1,-0.00038237,-0.0001196,0,0.00073557,-0.00037216,-1.5213e+08,-1.9123e+07,0,1.4594e+08,-6.6683e+06,11689,12558,1,12558,1,0.0024087,0.00011767,0,0.0024306,9.0815e-05,2.1334e+08,1.9698e+07,0,2.8597e+08,1.056e+07,12557,502.62,0,502.62,0,0.0023741,0.00030207,0,0.0018873,0.00038117,3.1085e+08,2.4582e+07,0,1.8105e+08,1.5101e+07,502.62,1
1736,6.45,12124,1,12124,1,0.0020032,-8.2604e-07,0,0.002649,-0.00017521,5257.9,20601,0,2.4358e+08,3.8939e+06,12123,12992,1,12992,1,0.026483,0.0030608,0,0.026484,0.00053856,3.7243e+08,8.2784e+07,0,1.1488e+09,6.7762e+07,12991,12124,1,12124,1,0.0013091,-2.0102e-06,0,0.0015937,-0.00020026,1.2171e+08,-2.1403e+05,0,1.8795e+08,-1.1713e+05,12123,11209,1,11209,1,-0.002826,-0.003062,0,2.5774e-05,-0.0047236,-1.1488e+09,-8.2761e+07,0,7.6756e+06,-3.2396e+07,11208,11690,1,11690,1,-0.0001854,-0.00018984,0,0.00088367,-0.00027427,-7.979e+07,-2.6633e+07,0,1.2132e+08,-1.1429e+07,11689,12558,1,12558,1,0.0025076,0.00019019,0,0.0026679,7.4441e-05,1.9009e+08,2.7276e+07,0,2.9171e+08,1.5256e+07,12557,502.62,0,502.62,0,0.0038802,0.00072535,0,0.0035463,0.00048772,3.1384e+08,3.5447e+07,0,2.0096e+08,2.294e+07,502.62,1
1736,6.45,12124,1,12124,1,0.0021109,-9.849e-07,0,0.0027641,-0.00015712,-3.4812,5122.2,0,2.4202e+08,3.9933e+06,12123,12992,1,12992,1,0.032301,0.0037992,0,0.032303,0.00055301,3.8409e+08,8.763e+07,0,1.1784e+09,7.0947e+07,12991,12124,1,12124,1,0.001326,-1.0121e-06,0,0.001589,-0.00016585,1.1853e+08,-1.0612e+05,0,1.8409e+08,-1.1455e+05,12123,11209,1,11209,1,-0.002899,-0.0037811,0,6.2754e-05,-0.0056484,-1.1784e+09,-8.763e+07,0,1.2931e+07,-3.4404e+07,11208,11690,1,11690,1,-0.000167,-0.00020226,0,0.00088561,-0.0002581,-7.1633e+07,-2.8131e+07,0,1.1852e+08,-1.1927e+07,11689,12558,1,12558,1,0.0025154,0.00020173,0,0.0026879,6.8957e-05,1.8601e+08,2.8195e+07,0,2.9702e+08,1.6137e+07,12557,502.62,0,502.62,0,0.0042758,0.00084852,0,0.0039769,0.00050287,3.1461e+08,3.7091e+07,0,2.0432e+08,2.4074e+07,502.62,1
