"N","Time","avg(GlobalElementId)","avg(ObjectId)","avg(PedigreeElementId)","avg(alpha)","avg(strain_x (0))","avg(strain_x (1))","avg(strain_x (2))","avg(strain_x (Magnitude))","avg(strain_yy)","avg(stress_x (0))","avg(stress_x (1))","avg(stress_x (2))","avg(stress_x (Magnitude))","avg(stress_yy)","avg(vtkOriginalCellIds)","max(GlobalElementId)","max(ObjectId)","max(PedigreeElementId)","max(alpha)","max(strain_x (0))","max(strain_x (1))","max(strain_x (2))","max(strain_x (Magnitude))","max(strain_yy)","max(stress_x (0))","max(stress_x (1))","max(stress_x (2))","max(stress_x (Magnitude))","max(stress_yy)","max(vtkOriginalCellIds)","med(GlobalElementId)","med(ObjectId)","med(PedigreeElementId)","med(alpha)","med(strain_x (0))","med(strain_x (1))","med(strain_x (2))","med(strain_x (Magnitude))","med(strain_yy)","med(stress_x (0))","med(stress_x (1))","med(stress_x (2))","med(stress_x (Magnitude))","med(stress_yy)","med(vtkOriginalCellIds)","min(GlobalElementId)","min(ObjectId)","min(PedigreeElementId)","min(alpha)","min(strain_x (0))","min(strain_x (1))","min(strain_x (2))","min(strain_x (Magnitude))","min(strain_yy)","min(stress_x (0))","min(stress_x (1))","min(stress_x (2))","min(stress_x (Magnitude))","min(stress_yy)","min(vtkOriginalCellIds)","q1(GlobalElementId)","q1(ObjectId)","q1(PedigreeElementId)","q1(alpha)","q1(strain_x (0))","q1(strain_x (1))","q1(strain_x (2))","q1(strain_x (Magnitude))","q1(strain_yy)","q1(stress_x (0))","q1(stress_x (1))","q1(stress_x (2))","q1(stress_x (Magnitude))","q1(stress_yy)","q1(vtkOriginalCellIds)","q3(GlobalElementId)","q3(ObjectId)","q3(PedigreeElementId)","q3(alpha)","q3(strain_x (0))","q3(strain_x (1))","q3(strain_x (2))","q3(strain_x (Magnitude))","q3(strain_yy)","q3(stress_x (0))","q3(stress_x (1))","q3(stress_x (2))","q3(stress_x (Magnitude))","q3(stress_yy)","q3(vtkOriginalCellIds)","std(GlobalElementId)","std(ObjectId)","std(PedigreeElementId)","std(alpha)","std(strain_x (0))","std(strain_x (1))","std(strain_x (2))","std(strain_x (Magnitude))","std(strain_yy)","std(stress_x (0))","std(stress_x (1))","std(stress_x (2))","std(stress_x (Magnitude))","std(stress_yy)","std(vtkOriginalCellIds)","vtkValidPointMask"
644,0,12109,1,12109,1,0,0,0,0,0,0,0,0,0,0,12108,12432,1,12432,1,0,0,0,0,0,0,0,0,0,0,12431,12110,1,12110,1,0,0,0,0,0,0,0,0,0,0,12109,11763,1,11763,1,0,0,0,0,0,0,0,0,0,0,11762,11949,1,11949,1,0,0,0,0,0,0,0,0,0,0,11948,12271,1,12271,1,0,0,0,0,0,0,0,0,0,0,12270,188.7,0,188.7,0,0,0,0,0,0,0,0,0,0,0,188.7,1
644,0.01,12109,1,12109,1,6.323e-09,-6.9792e-08,0,2.1509e-07,-1.8341e-09,2466.1,-23872,0,84822,-306.11,12108,12432,1,12432,1,4.9582e-07,7.8239e-09,0,4.9592e-07,9.6839e-08,2.0131e+05,2679.2,0,2.0134e+05,6110.5,12431,12110,1,12110,1,9.1e-09,-5.8813e-08,0,1.8462e-07,-4.2408e-09,3298.5,-20128,0,69291,-277.32,12109,11763,1,11763,1,-4.8926e-07,-2.0264e-07,0,1.1302e-08,-9.7717e-08,-1.986e+05,-69269,0,4717.8,-7187.2,11762,11949,1,11949,1,-1.517e-07,-1.1039e-07,0,1.524e-07,-1.9967e-08,-62379,-37773,0,56333,-3604.2,11948,12271,1,12271,1,1.614e-07,-2.1842e-08,0,2.7295e-07,1.7111e-08,66216,-7475.7,0,1.1124e+05,2756.7,12270,188.7,0,188.7,0,2.2164e-07,5.5133e-08,0,1.0366e-07,3.7517e-08,90499,18848,0,43774,3588.9,188.7,1
644,0.02,12109,1,12109,1,-6.3044e-10,-2.9516e-09,0,9.6283e-07,-5.8919e-09,-1888.4,-1003.8,0,3.8917e+05,-2546.6,12108,12432,1,12432,1,1.8708e-06,1.382e-07,0,1.9151e-06,3.4787e-07,7.5697e+05,47282,0,7.7983e+05,8288,12431,12110,1,12110,1,2.0815e-09,-3.8876e-09,0,9.7959e-07,-1.3462e-08,-246.94,-1327.2,0,3.9753e+05,-2329.6,12109,11763,1,11763,1,-1.915e-06,-1.5266e-07,0,6.6288e-08,-3.3943e-07,-7.7978e+05,-52152,0,27312,-15043,11762,11949,1,11949,1,-9.7631e-07,-3.9612e-08,0,4.976e-07,-2.098e-07,-3.9659e+05,-13530,0,2.0063e+05,-6884,11948,12271,1,12271,1,9.8215e-07,3.3622e-08,0,1.4263e-06,1.9713e-07,3.958e+05,11492,0,5.7651e+05,1897.7,12270,188.7,0,188.7,0,1.0971e-06,6.1502e-08,0,5.2811e-07,2.1193e-07,4.4441e+05,21017,0,2.1508e+05,5918.8,188.7,1
644,0.03,12109,1,12109,1,9.1571e-09,-1.1965e-08,0,2.6266e-06,-4.059e-09,350,-4085.7,0,1.0642e+06,-1003.6,12108,12432,1,12432,1,5.1412e-06,1.2955e-07,0,5.1413e-06,9.5068e-07,2.0787e+06,44234,0,2.0875e+06,7789.5,12431,12110,1,12110,1,1.1404e-08,-5.5658e-09,0,2.6511e-06,-5.6109e-09,4035,-1906.4,0,1.0747e+06,-1050.3,12109,11763,1,11763,1,-5.1301e-06,-1.576e-07,0,1.7526e-07,-9.534e-07,-2.0875e+06,-53810,0,71418,-10698,11762,11949,1,11949,1,-2.644e-06,-5.1753e-08,0,1.3307e-06,-5.1594e-07,-1.0743e+06,-17678,0,5.3817e+05,-5334.2,11948,12271,1,12271,1,2.667e-06,2.321e-08,0,3.9188e-06,5.0989e-07,1.0772e+06,7926.6,0,1.5891e+06,3824.9,12270,188.7,0,188.7,0,3.0219e-06,6.0996e-08,0,1.492e-06,5.7271e-07,1.2249e+06,20840,0,6.0545e+05,4967.2,188.7,1
644,0.04,12109,1,12109,1,1.9211e-08,-1.1321e-07,0,3.6545e-06,-5.6553e-09,3211.7,-38672,0,1.4799e+06,-897.59,12108,12432,1,12432,1,7.3191e-06,2.9093e-08,0,7.3192e-06,1.355e-06,2.9588e+06,9916.1,0,2.9673e+06,11440,12431,12110,1,12110,1,1.3327e-08,-8.9656e-08,0,3.7169e-06,-3.7437e-09,5067.4,-30616,0,1.5054e+06,-602.15,12109,11763,1,11763,1,-7.2927e-06,-3.5324e-07,0,2.4962e-07,-1.3624e-06,-2.9672e+06,-1.2064e+05,0,1.0132e+05,-14316,11762,11949,1,11949,1,-3.6934e-06,-1.8644e-07,0,1.8356e-06,-7.2168e-07,-1.5009e+06,-63772,0,7.4169e+05,-6991.3,11948,12271,1,12271,1,3.7288e-06,-2.9359e-08,0,5.399e-06,7.0962e-07,1.5061e+06,-10024,0,2.1878e+06,4764.8,12270,188.7,0,188.7,0,4.1989e-06,9.8454e-08,0,2.0682e-06,7.9715e-07,1.7019e+06,33638,0,8.3995e+05,6890.2,188.7,1
644,0.05,12109,1,12109,1,2.0696e-08,-1.0344e-07,0,4.8595e-06,-5.7364e-09,2365.2,-35336,0,1.9689e+06,-817.78,12108,12432,1,12432,1,9.6657e-06,3.1667e-08,0,9.6658e-06,1.7947e-06,3.9073e+06,10801,0,3.9189e+06,10533,12431,12110,1,12110,1,1.6416e-08,-8.0536e-08,0,4.9238e-06,-6.7212e-09,6161.8,-27519,0,1.9946e+06,-443,12109,11763,1,11763,1,-9.6327e-06,-3.3134e-07,0,3.3177e-07,-1.8019e-06,-3.9189e+06,-1.1314e+05,0,1.3507e+05,-13922,11762,11949,1,11949,1,-4.9015e-06,-1.7396e-07,0,2.435e-06,-9.461e-07,-1.9923e+06,-59583,0,9.8548e+05,-6472.9,11948,12271,1,12271,1,4.9341e-06,-2.1868e-08,0,7.2123e-06,9.3608e-07,1.9937e+06,-7458.3,0,2.923e+06,5003.1,12270,188.7,0,188.7,0,5.5942e-06,9.4186e-08,0,2.7684e-06,1.058e-06,2.2677e+06,32178,0,1.1234e+06,6483.7,188.7,1
644,0.06,12109,1,12109,1,1.9706e-08,-5.1713e-08,0,6.5205e-06,-5.0242e-09,-13.703,-17663,0,2.643e+06,-602.11,12108,12432,1,12432,1,1.2757e-05,1.0973e-07,0,1.2757e-05,2.3697e-06,5.1568e+06,37426,0,5.1677e+06,11001,12431,12110,1,12110,1,1.3433e-08,-3.4791e-08,0,6.5742e-06,-5.9573e-09,4808.3,-11884,0,2.6649e+06,-610.07,12109,11763,1,11763,1,-1.2703e-05,-2.5381e-07,0,4.5577e-07,-2.381e-06,-5.1676e+06,-86646,0,1.8458e+05,-13062,11762,11949,1,11949,1,-6.5469e-06,-1.0848e-07,0,3.2748e-06,-1.2552e-06,-2.6613e+06,-37003,0,1.3261e+06,-6260.7,11948,12271,1,12271,1,6.5929e-06,3.2575e-09,0,9.7384e-06,1.2471e-06,2.6645e+06,1112.3,0,3.9473e+06,5486.6,12270,188.7,0,188.7,0,7.5166e-06,8.1265e-08,0,3.7317e-06,1.4184e-06,3.0472e+06,27762,0,1.5134e+06,6649.6,188.7,1
644,0.07,12109,1,12109,1,2.9328e-08,-9.8953e-09,0,7.6849e-06,-8.5065e-09,2343.6,-3378.1,0,3.1154e+06,-1315,12108,12432,1,12432,1,1.487e-05,1.6442e-07,0,1.487e-05,2.7743e-06,6.0104e+06,56079,0,6.0378e+06,8878.2,12431,12110,1,12110,1,3.2267e-08,-9.8466e-09,0,7.7022e-06,-1.0659e-08,12163,-3362.6,0,3.1228e+06,-1117,12109,11763,1,11763,1,-1.4843e-05,-1.8637e-07,0,5.1425e-07,-2.7771e-06,-6.0378e+06,-63618,0,2.0944e+05,-13101,11762,11949,1,11949,1,-7.6769e-06,-5.6608e-08,0,3.8723e-06,-1.4735e-06,-3.1212e+06,-19338,0,1.5696e+06,-6894.4,11948,12271,1,12271,1,7.742e-06,3.4616e-08,0,1.1514e-05,1.4568e-06,3.1292e+06,11856,0,4.6675e+06,4302.3,12270,188.7,0,188.7,0,8.8634e-06,7.4425e-08,0,4.4065e-06,1.67e-06,3.5934e+06,25428,0,1.7868e+06,5951.2,188.7,1
644,0.08,12109,1,12109,1,2.7063e-08,-6.5126e-08,0,8.823e-06,-1.0929e-08,-178.69,-22243,0,3.5767e+06,-2521.2,12108,12432,1,12432,1,1.7207e-05,8.4397e-08,0,1.7207e-05,3.2039e-06,6.9552e+06,28906,0,6.98e+06,9663.2,12431,12110,1,12110,1,3.3802e-08,-4.4597e-08,0,8.8803e-06,-1.5747e-08,11682,-15227,0,3.599e+06,-2275.1,12109,11763,1,11763,1,-1.7158e-05,-2.7284e-07,0,5.9482e-07,-3.2149e-06,-6.98e+06,-93138,0,2.4314e+05,-16339,11762,11949,1,11949,1,-8.8522e-06,-1.1873e-07,0,4.4418e-06,-1.6932e-06,-3.5993e+06,-40532,0,1.796e+06,-8674.5,11948,12271,1,12271,1,8.9035e-06,-1.0158e-08,0,1.3187e-05,1.6751e-06,3.5987e+06,-3479.3,0,5.3463e+06,4207.6,12270,188.7,0,188.7,0,1.0176e-05,7.9011e-08,0,5.059e-06,1.9169e-06,4.1256e+06,26994,0,2.0515e+06,7060.2,188.7,1
644,0.09,12109,1,12109,1,3.0279e-08,-1.1548e-07,0,1.0483e-05,-8.1046e-09,-616.13,-39450,0,4.2497e+06,-1092.6,12108,12432,1,12432,1,2.0532e-05,2.1653e-08,0,2.0532e-05,3.8283e-06,8.2988e+06,7369.2,0,8.3299e+06,12160,12431,12110,1,12110,1,2.6305e-08,-9.2026e-08,0,1.0555e-05,-6.5714e-09,9871.2,-31451,0,4.2736e+06,-731.81,12109,11763,1,11763,1,-2.0477e-05,-3.5627e-07,0,7.2585e-07,-3.8406e-06,-8.3299e+06,-1.2162e+05,0,2.9481e+05,-14574,11762,11949,1,11949,1,-1.052e-05,-1.8981e-07,0,5.2492e-06,-2.0023e-06,-4.2776e+06,-64796,0,2.1259e+06,-7030.6,11948,12271,1,12271,1,1.0571e-05,-3.0316e-08,0,1.5651e-05,1.9878e-06,4.2731e+06,-10376,0,6.3468e+06,4331.3,12270,188.7,0,188.7,0,1.2092e-05,9.8618e-08,0,6.0142e-06,2.2765e-06,4.9024e+06,33694,0,2.4389e+06,6593.7,188.7,1
644,0.1,12109,1,12109,1,5.4039e-08,-1.3134e-07,0,1.1851e-05,-1.1585e-08,7438.2,-44868,0,4.8045e+06,-692.66,12108,12432,1,12432,1,2.3225e-05,2.4889e-08,0,2.3225e-05,4.3239e-06,9.3871e+06,8470.6,0,9.4046e+06,10238,12431,12110,1,12110,1,4.7062e-08,-1.1145e-07,0,1.1914e-05,-1.3604e-08,18024,-38062,0,4.8314e+06,-594.97,12109,11763,1,11763,1,-2.312e-05,-3.6143e-07,0,8.0064e-07,-4.3445e-06,-9.4046e+06,-1.2338e+05,0,3.2574e+05,-12484,11762,11949,1,11949,1,-1.1858e-05,-2.0641e-07,0,5.947e-06,-2.2624e-06,-4.822e+06,-70511,0,2.407e+06,-5711.5,11948,12271,1,12271,1,1.1958e-05,-4.4348e-08,0,1.7715e-05,2.2376e-06,4.8342e+06,-15189,0,7.1789e+06,4497.9,12270,188.7,0,188.7,0,1.3672e-05,9.8082e-08,0,6.804e-06,2.5715e-06,5.5433e+06,33514,0,2.7591e+06,5889.3,188.7,1
644,0.11,12109,1,12109,1,5.1523e-08,-6.777e-08,0,1.3701e-05,-1.5401e-08,3832.6,-23151,0,5.5553e+06,-2507.4,12108,12432,1,12432,1,2.665e-05,4.0024e-08,0,2.665e-05,4.9653e-06,1.0771e+07,13687,0,1.0799e+07,6025.6,12431,12110,1,12110,1,5.4258e-08,-4.9318e-08,0,1.3751e-05,-1.8246e-08,20394,-16827,0,5.5773e+06,-2222.4,12109,11763,1,11763,1,-2.6547e-05,-2.439e-07,0,9.2477e-07,-4.9866e-06,-1.0799e+07,-83252,0,3.7698e+05,-12635,11762,11949,1,11949,1,-1.37e-05,-1.1884e-07,0,6.888e-06,-2.6059e-06,-5.5719e+06,-40653,0,2.7902e+06,-6596.8,11948,12271,1,12271,1,1.38e-05,-1.294e-08,0,2.0528e-05,2.577e-06,5.5792e+06,-4404.2,0,8.3166e+06,2080.4,12270,188.7,0,188.7,0,1.5813e-05,7.0128e-08,0,7.8773e-06,2.9704e-06,6.4116e+06,23961,0,3.1938e+06,4869.1,188.7,1
644,0.12,12109,1,12109,1,4.8273e-08,-1.7225e-08,0,1.5086e-05,-1.0324e-08,1186.8,-5882.4,0,6.1169e+06,-635.98,12108,12432,1,12432,1,2.9196e-05,1.4032e-07,0,2.9196e-05,5.4438e-06,1.1801e+07,47896,0,1.1834e+07,9308.8,12431,12110,1,12110,1,4.8018e-08,-1.0373e-08,0,1.5111e-05,-1.1133e-08,18376,-3541.4,0,6.1287e+06,-619.93,12109,11763,1,11763,1,-2.9092e-05,-1.8441e-07,0,1.0294e-06,-5.4635e-06,-1.1834e+07,-62947,0,4.1861e+05,-11308,11762,11949,1,11949,1,-1.5062e-05,-5.8186e-08,0,7.5702e-06,-2.8616e-06,-6.1248e+06,-19838,0,3.0701e+06,-5529.3,11948,12271,1,12271,1,1.5167e-05,1.9898e-08,0,2.2623e-05,2.8424e-06,6.1321e+06,6812.9,0,9.1674e+06,4578.3,12270,188.7,0,188.7,0,1.7412e-05,6.7382e-08,0,8.6734e-06,3.2719e-06,7.0597e+06,23020,0,3.5164e+06,5646.9,188.7,1
644,0.13,12109,1,12109,1,4.7688e-08,-7.8323e-09,0,1.6161e-05,-1.2408e-08,-526.71,-2673.7,0,6.5527e+06,-1565.7,12108,12432,1,12432,1,3.1237e-05,1.8345e-07,0,3.1237e-05,5.8321e-06,1.2626e+07,62620,0,1.2672e+07,10821,12431,12110,1,12110,1,4.951e-08,-9.2161e-09,0,1.6189e-05,-1.4325e-08,18324,-3146.6,0,6.565e+06,-1190.7,12109,11763,1,11763,1,-3.1152e-05,-1.8331e-07,0,1.1035e-06,-5.8477e-06,-1.2672e+07,-62571,0,4.4921e+05,-14590,11762,11949,1,11949,1,-1.6143e-05,-5.4646e-08,0,8.1134e-06,-3.0729e-06,-6.5647e+06,-18677,0,3.291e+06,-7409,11948,12271,1,12271,1,1.624e-05,3.5407e-08,0,2.423e-05,3.0447e-06,6.5651e+06,12095,0,9.8224e+06,4476.1,12270,188.7,0,188.7,0,1.8652e-05,7.5757e-08,0,9.2908e-06,3.5063e-06,7.5625e+06,25883,0,3.7667e+06,6752.7,188.7,1
644,0.14,12109,1,12109,1,6.9805e-08,-6.4229e-08,0,1.7777e-05,-1.8167e-08,6357,-21940,0,7.208e+06,-2255.9,12108,12432,1,12432,1,3.4514e-05,8.602e-08,0,3.4514e-05,6.4331e-06,1.395e+07,29361,0,1.3985e+07,8292.6,12431,12110,1,12110,1,7.3249e-08,-4.6834e-08,0,1.7826e-05,-1.9747e-08,28148,-15958,0,7.23e+06,-2049.4,12109,11763,1,11763,1,-3.4379e-05,-2.5299e-07,0,1.1937e-06,-6.4593e-06,-1.3985e+07,-86356,0,4.8631e+05,-13885,11762,11949,1,11949,1,-1.7762e-05,-1.1802e-07,0,8.9337e-06,-3.3758e-06,-7.2234e+06,-40223,0,3.6232e+06,-7301.3,11948,12271,1,12271,1,1.7895e-05,-1.2659e-08,0,2.6663e-05,3.3425e-06,7.2351e+06,-4326,0,1.0793e+07,3418.3,12270,188.7,0,188.7,0,2.0518e-05,7.5407e-08,0,1.0223e-05,3.8544e-06,8.3194e+06,25763,0,4.1446e+06,5938.1,188.7,1
644,0.15,12109,1,12109,1,6.6825e-08,-3.2137e-08,0,1.948e-05,-1.6243e-08,3189.6,-10976,0,7.8988e+06,-1692.9,12108,12432,1,12432,1,3.7729e-05,1.1968e-07,0,3.7729e-05,7.0405e-06,1.5249e+07,40850,0,1.5296e+07,7580.4,12431,12110,1,12110,1,6.7773e-08,-1.7308e-08,0,1.9515e-05,-1.7409e-08,25981,-5928.2,0,7.9151e+06,-1475.4,12109,11763,1,11763,1,-3.7604e-05,-2.0688e-07,0,1.3199e-06,-7.0651e-06,-1.5296e+07,-70616,0,5.3714e+05,-13476,11762,11949,1,11949,1,-1.9449e-05,-8.1753e-08,0,9.7722e-06,-3.6919e-06,-7.9094e+06,-27917,0,3.9637e+06,-6553.3,11948,12271,1,12271,1,1.9587e-05,1.1958e-08,0,2.9227e-05,3.66e-06,7.9194e+06,4085.9,0,1.1838e+07,3675,12270,188.7,0,188.7,0,2.2486e-05,7.1102e-08,0,1.1207e-05,4.2238e-06,9.1175e+06,24291,0,4.5434e+06,5556.9,188.7,1
644,0.16,12109,1,12109,1,6.743e-08,-9.399e-08,0,2.0354e-05,-1.337e-08,2611.1,-32108,0,8.2531e+06,-442.33,12108,12432,1,12432,1,3.9533e-05,4.2601e-08,0,3.9533e-05,7.3776e-06,1.5978e+07,14530,0,1.6026e+07,11283,12431,12110,1,12110,1,6.5872e-08,-7.5372e-08,0,2.0409e-05,-1.4177e-08,25221,-25749,0,8.2777e+06,-537.35,12109,11763,1,11763,1,-3.9398e-05,-2.9801e-07,0,1.3861e-06,-7.4029e-06,-1.6026e+07,-1.0172e+05,0,5.6388e+05,-12466,11762,11949,1,11949,1,-2.0342e-05,-1.5344e-07,0,1.0219e-05,-3.8577e-06,-8.2726e+06,-52278,0,4.1409e+06,-5842.5,11948,12271,1,12271,1,2.0474e-05,-2.8074e-08,0,3.0507e-05,3.8313e-06,8.2781e+06,-9554.9,0,1.236e+07,5145.7,12270,188.7,0,188.7,0,2.3495e-05,8.1494e-08,0,1.1708e-05,4.4141e-06,9.5262e+06,27845,0,4.7467e+06,6252.9,188.7,1
644,0.17,12109,1,12109,1,7.5764e-08,-5.6014e-08,0,2.1524e-05,-1.704e-08,4406.7,-19134,0,8.7274e+06,-1336,12108,12432,1,12432,1,4.1749e-05,1.4226e-07,0,4.1749e-05,7.7914e-06,1.6874e+07,48637,0,1.6927e+07,11625,12431,12110,1,12110,1,7.8894e-08,-3.8097e-08,0,2.1579e-05,-1.9219e-08,30163,-13009,0,8.7522e+06,-943.51,12109,11763,1,11763,1,-4.1614e-05,-2.8376e-07,0,1.4574e-06,-7.8183e-06,-1.6927e+07,-96858,0,5.9326e+05,-15908,11762,11949,1,11949,1,-2.1509e-05,-1.2157e-07,0,1.081e-05,-4.0827e-06,-8.7469e+06,-41423,0,4.3843e+06,-7972.7,11948,12271,1,12271,1,2.1654e-05,3.3581e-09,0,3.2281e-05,4.0522e-06,8.7549e+06,1150.2,0,1.3073e+07,5645.8,12270,188.7,0,188.7,0,2.4844e-05,9.4044e-08,0,1.2379e-05,4.6693e-06,1.0073e+07,32130,0,5.0186e+06,7548.7,188.7,1
644,0.18,12109,1,12109,1,6.6307e-08,-1.8152e-08,0,2.3243e-05,-1.5006e-08,-1495.4,-6200.9,0,9.4248e+06,-1239.6,12108,12432,1,12432,1,4.4963e-05,1.4555e-07,0,4.4963e-05,8.3935e-06,1.8173e+07,49682,0,1.8235e+07,8811,12431,12110,1,12110,1,6.0578e-08,-6.5922e-09,0,2.3275e-05,-1.5205e-08,22745,-2257.9,0,9.4402e+06,-1220.3,12109,11763,1,11763,1,-4.4829e-05,-2.0461e-07,0,1.5918e-06,-8.4188e-06,-1.8235e+07,-69842,0,6.4757e+05,-12817,11762,11949,1,11949,1,-2.3208e-05,-6.383e-08,0,1.1653e-05,-4.397e-06,-9.4383e+06,-21733,0,4.7264e+06,-6464.9,11948,12271,1,12271,1,2.335e-05,2.3866e-08,0,3.4871e-05,4.3696e-06,9.4411e+06,8123.6,0,1.4129e+07,4535.7,12270,188.7,0,188.7,0,2.6831e-05,7.3265e-08,0,1.3374e-05,5.0383e-06,1.0879e+07,25030,0,5.4218e+06,5901,188.7,1
644,0.19,12109,1,12109,1,7.3174e-08,-5.6331e-09,0,2.4541e-05,-1.3787e-08,-86.54,-1923.4,0,9.9512e+06,-193.56,12108,12432,1,12432,1,4.7419e-05,1.827e-07,0,4.7419e-05,8.8625e-06,1.9165e+07,62361,0,1.9243e+07,12665,12431,12110,1,12110,1,6.9969e-08,-6.3773e-09,0,2.4561e-05,-8.6936e-09,27201,-2177.4,0,9.9622e+06,-216.84,12109,11763,1,11763,1,-4.7309e-05,-1.8182e-07,0,1.6721e-06,-8.8813e-06,-1.9243e+07,-62062,0,6.8025e+05,-11896,11762,11949,1,11949,1,-2.4497e-05,-5.0715e-08,0,1.2309e-05,-4.6392e-06,-9.9621e+06,-17349,0,4.9924e+06,-5767,11948,12271,1,12271,1,2.4644e-05,3.8296e-08,0,3.6816e-05,4.6183e-06,9.9643e+06,13110,0,1.4919e+07,5374.6,12270,188.7,0,188.7,0,2.833e-05,7.4777e-08,0,1.4122e-05,5.3199e-06,1.1487e+07,25547,0,5.7251e+06,6119.6,188.7,1
644,0.2,12109,1,12109,1,8.9667e-08,-3.9325e-08,0,2.6205e-05,-1.8971e-08,4419.4,-13431,0,1.0626e+07,-1085.5,12108,12432,1,12432,1,5.0741e-05,1.0283e-07,0,5.0741e-05,9.4688e-06,2.0508e+07,35112,0,2.0567e+07,9199,12431,12110,1,12110,1,9.238e-08,-2.3461e-08,0,2.6245e-05,-2.0735e-08,35390,-8035.8,0,1.0645e+07,-1298.3,12109,11763,1,11763,1,-5.0564e-05,-2.2109e-07,0,1.7774e-06,-9.5026e-06,-2.0567e+07,-75469,0,7.2283e+05,-12130,11762,11949,1,11949,1,-2.6158e-05,-8.6234e-08,0,1.314e-05,-4.957e-06,-1.0638e+07,-29448,0,5.3298e+06,-6156.2,11948,12271,1,12271,1,2.6341e-05,4.2158e-09,0,3.9331e-05,4.922e-06,1.065e+07,1444,0,1.593e+07,4480.2,12270,188.7,0,188.7,0,3.0253e-05,7.0575e-08,0,1.5082e-05,5.6797e-06,1.2267e+07,24113,0,6.1146e+06,5801.3,188.7,1
644,0.21,12109,1,12109,1,9.5119e-08,-2.1308e-08,0,2.7747e-05,-2.1579e-08,4635.6,-7277.5,0,1.1251e+07,-1763.2,12108,12432,1,12432,1,5.3678e-05,1.3693e-07,0,5.3678e-05,1.0021e-05,2.1695e+07,46700,0,2.1762e+07,8412.8,12431,12110,1,12110,1,9.5585e-08,-1.0689e-08,0,2.7779e-05,-2.2914e-08,36508,-3653.2,0,1.1267e+07,-1706,12109,11763,1,11763,1,-5.3501e-05,-2.133e-07,0,1.8843e-06,-1.0055e-05,-2.1762e+07,-72809,0,7.6677e+05,-13725,11762,11949,1,11949,1,-2.7687e-05,-7.2109e-08,0,1.3906e-05,-5.2467e-06,-1.126e+07,-24611,0,5.6408e+06,-6845.6,11948,12271,1,12271,1,2.788e-05,2.912e-08,0,4.1644e-05,5.2071e-06,1.1273e+07,9974.1,0,1.6869e+07,3690.3,12270,188.7,0,188.7,0,3.2034e-05,7.782e-08,0,1.5972e-05,6.014e-06,1.2989e+07,26586,0,6.475e+06,5632.9,188.7,1
644,0.22,12109,1,12109,1,8.3323e-08,-1.8358e-08,0,2.8551e-05,-1.7227e-08,-955.35,-6271.8,0,1.1577e+07,-866.94,12108,12432,1,12432,1,5.5204e-05,1.8422e-07,0,5.5204e-05,1.0312e-05,2.2311e+07,62883,0,2.2389e+07,12761,12431,12110,1,12110,1,8.0591e-08,-1.1717e-08,0,2.8586e-05,-1.8038e-08,30387,-3987.7,0,1.1593e+07,-448.4,12109,11763,1,11763,1,-5.5043e-05,-2.1871e-07,0,1.9576e-06,-1.0341e-05,-2.2389e+07,-74744,0,7.9628e+05,-16622,11762,11949,1,11949,1,-2.8505e-05,-7.3185e-08,0,1.4309e-05,-5.4039e-06,-1.1592e+07,-24993,0,5.804e+06,-7208.8,11948,12271,1,12271,1,2.8672e-05,2.9685e-08,0,4.2846e-05,5.3666e-06,1.1593e+07,10138,0,1.7359e+07,6007.9,12270,188.7,0,188.7,0,3.2961e-05,8.4498e-08,0,1.6431e-05,6.1912e-06,1.3365e+07,28868,0,6.6611e+06,7450.2,188.7,1
644,0.23,12109,1,12109,1,9.5414e-08,-1.0575e-07,0,3.0207e-05,-2.026e-08,1881,-36125,0,1.2249e+07,-1201.6,12108,12432,1,12432,1,5.8621e-05,5.1124e-08,0,5.8621e-05,1.0941e-05,2.3693e+07,17429,0,2.3762e+07,10826,12431,12110,1,12110,1,8.6387e-08,-8.0939e-08,0,3.0284e-05,-1.9222e-08,33011,-27705,0,1.2279e+07,-737.41,12109,11763,1,11763,1,-5.8418e-05,-3.51e-07,0,2.0671e-06,-1.0981e-05,-2.3762e+07,-1.1981e+05,0,8.3993e+05,-14858,11762,11949,1,11949,1,-3.0183e-05,-1.8008e-07,0,1.5144e-05,-5.7174e-06,-1.2275e+07,-61361,0,6.1401e+06,-7498.8,11948,12271,1,12271,1,3.0368e-05,-2.5962e-08,0,4.5291e-05,5.6762e-06,1.2279e+07,-8864.3,0,1.8354e+07,4845.7,12270,188.7,0,188.7,0,3.4872e-05,9.9303e-08,0,1.7384e-05,6.5482e-06,1.414e+07,33928,0,7.0476e+06,6813.2,188.7,1
644,0.24,12109,1,12109,1,9.3848e-08,-6.9125e-08,0,3.1369e-05,-1.9675e-08,-139.82,-23612,0,1.272e+07,-1086.3,12108,12432,1,12432,1,6.076e-05,1.1655e-07,0,6.076e-05,1.1347e-05,2.4557e+07,39781,0,2.464e+07,11515,12431,12110,1,12110,1,9.6673e-08,-4.789e-08,0,3.1423e-05,-2.1937e-08,36936,-16313,0,1.2744e+07,-836.19,12109,11763,1,11763,1,-6.0576e-05,-3.0688e-07,0,2.1428e-06,-1.1381e-05,-2.464e+07,-1.0475e+05,0,8.7175e+05,-15548,11762,11949,1,11949,1,-3.1334e-05,-1.361e-07,0,1.5733e-05,-5.9338e-06,-1.2743e+07,-46475,0,6.3814e+06,-8042.9,11948,12271,1,12271,1,3.1519e-05,-4.0688e-09,0,4.7062e-05,5.8967e-06,1.2744e+07,-1384.9,0,1.9073e+07,6098.6,12270,188.7,0,188.7,0,3.6214e-05,9.5236e-08,0,1.8054e-05,6.8015e-06,1.4684e+07,32538,0,7.3192e+06,7658,188.7,1
644,0.25,12109,1,12109,1,1.1408e-07,-1.5718e-07,0,3.3199e-05,-2.8315e-08,5462.6,-53695,0,1.3462e+07,-3140.9,12108,12432,1,12432,1,6.4518e-05,2.9542e-08,0,6.4518e-05,1.2042e-05,2.6076e+07,10119,0,2.6147e+07,7913.1,12431,12110,1,12110,1,1.0943e-07,-1.3604e-07,0,3.3265e-05,-3.2055e-08,41304,-46468,0,1.3493e+07,-2663,12109,11763,1,11763,1,-6.4282e-05,-4.1947e-07,0,2.258e-06,-1.2087e-05,-2.6147e+07,-1.4318e+05,0,9.1936e+05,-16109,11762,11949,1,11949,1,-3.3154e-05,-2.4597e-07,0,1.665e-05,-6.2822e-06,-1.3484e+07,-84010,0,6.7474e+06,-8292.1,11948,12271,1,12271,1,3.3377e-05,-5.8007e-08,0,4.9756e-05,6.229e-06,1.3495e+07,-19810,0,2.0167e+07,2686.6,12270,188.7,0,188.7,0,3.8327e-05,1.1488e-07,0,1.9108e-05,7.1944e-06,1.5541e+07,39252,0,7.7467e+06,6383.8,188.7,1
644,0.26,12109,1,12109,1,1.0273e-07,-4.2457e-08,0,3.427e-05,-2.0789e-08,-13.764,-14505,0,1.3896e+07,-875.13,12108,12432,1,12432,1,6.6302e-05,1.3784e-07,0,6.6302e-05,1.2382e-05,2.6797e+07,47011,0,2.6882e+07,10321,12431,12110,1,12110,1,9.8908e-08,-2.3366e-08,0,3.4313e-05,-1.8714e-08,37635,-7984.4,0,1.3916e+07,-718.81,12109,11763,1,11763,1,-6.6088e-05,-2.5102e-07,0,2.3498e-06,-1.2421e-05,-2.6882e+07,-85684,0,9.5576e+05,-13658,11762,11949,1,11949,1,-3.4213e-05,-9.715e-08,0,1.7172e-05,-6.4738e-06,-1.3914e+07,-33217,0,6.9654e+06,-6470.7,11948,12271,1,12271,1,3.4417e-05,8.8815e-09,0,5.1435e-05,6.4345e-06,1.3916e+07,3026.7,0,2.084e+07,5046.7,12270,188.7,0,188.7,0,3.9565e-05,8.3074e-08,0,1.9727e-05,7.4277e-06,1.6043e+07,28380,0,7.9976e+06,6527.2,188.7,1
644,0.27,12109,1,12109,1,1.303e-07,-7.195e-08,0,3.5805e-05,-2.7219e-08,9207.4,-24580,0,1.4518e+07,-1414.6,12108,12432,1,12432,1,6.9387e-05,1.3833e-07,0,6.9387e-05,1.2952e-05,2.8044e+07,47178,0,2.8121e+07,12884,12431,12110,1,12110,1,1.239e-07,-5.2207e-08,0,3.5872e-05,-2.5951e-08,47897,-17843,0,1.455e+07,-1127.7,12109,11763,1,11763,1,-6.9136e-05,-3.2483e-07,0,2.4312e-06,-1.3001e-05,-2.8121e+07,-1.1088e+05,0,9.8883e+05,-18152,11762,11949,1,11949,1,-3.5743e-05,-1.4747e-07,0,1.7949e-05,-6.7783e-06,-1.4536e+07,-50262,0,7.2809e+06,-9453.8,11948,12271,1,12271,1,3.6e-05,1.8362e-09,0,5.3742e-05,6.7238e-06,1.4556e+07,625.1,0,2.1759e+07,6279.9,12270,188.7,0,188.7,0,4.1335e-05,1.0431e-07,0,2.0608e-05,7.764e-06,1.676e+07,35639,0,8.3544e+06,8753.4,188.7,1
644,0.28,12109,1,12109,1,1.2201e-07,-2.793e-08,0,3.7305e-05,-2.2521e-08,4273.6,-9538.4,0,1.5127e+07,-103.41,12108,12432,1,12432,1,7.2162e-05,1.6873e-07,0,7.2162e-05,1.3477e-05,2.9165e+07,57749,0,2.9259e+07,11833,12431,12110,1,12110,1,1.2334e-07,-1.2417e-08,0,3.7342e-05,-2.2425e-08,47597,-4228.3,0,1.5147e+07,-221.15,12109,11763,1,11763,1,-7.1934e-05,-2.3835e-07,0,2.5415e-06,-1.3519e-05,-2.9259e+07,-81361,0,1.0336e+06,-13237,11762,11949,1,11949,1,-3.7228e-05,-8.8245e-08,0,1.8692e-05,-7.0462e-06,-1.514e+07,-30151,0,7.5822e+06,-6454.7,11948,12271,1,12271,1,3.7469e-05,2.3432e-08,0,5.599e-05,7.0047e-06,1.5151e+07,8005.4,0,2.2684e+07,6585.5,12270,188.7,0,188.7,0,4.307e-05,8.7736e-08,0,2.1476e-05,8.0862e-06,1.7464e+07,29975,0,8.7066e+06,7095.9,188.7,1
644,0.29,12109,1,12109,1,1.2396e-07,1.0845e-09,0,3.8932e-05,-2.5289e-08,2901.9,372.26,0,1.5787e+07,-1125,12108,12432,1,12432,1,7.5268e-05,2.3303e-07,0,7.5268e-05,1.4054e-05,3.042e+07,79541,0,3.0514e+07,12402,12431,12110,1,12110,1,1.2408e-07,-4.377e-10,0,3.8961e-05,-2.4294e-08,47923,-149.59,0,1.5803e+07,-843.93,12109,11763,1,11763,1,-7.5018e-05,-2.0591e-07,0,2.6493e-06,-1.4102e-05,-3.0514e+07,-70286,0,1.0778e+06,-16657,11762,11949,1,11949,1,-3.8837e-05,-5.8961e-08,0,1.9503e-05,-7.3564e-06,-1.5795e+07,-20136,0,7.9107e+06,-8132.2,11948,12271,1,12271,1,3.9096e-05,5.3556e-08,0,5.841e-05,7.309e-06,1.5808e+07,18299,0,2.3671e+07,6145.2,12270,188.7,0,188.7,0,4.4947e-05,9.2219e-08,0,2.2412e-05,8.4392e-06,1.8225e+07,31504,0,9.0857e+06,7837,188.7,1
644,0.3,12109,1,12109,1,1.3965e-07,-9.205e-08,0,4.033e-05,-2.7813e-08,7601.1,-31444,0,1.6354e+07,-960.58,12108,12432,1,12432,1,7.8154e-05,5.108e-08,0,7.8154e-05,1.459e-05,3.1587e+07,17435,0,3.1676e+07,9602,12431,12110,1,12110,1,1.3789e-07,-7.0034e-08,0,4.039e-05,-2.9726e-08,52837,-23976,0,1.6384e+07,-1098,12109,11763,1,11763,1,-7.7875e-05,-3.1194e-07,0,2.7411e-06,-1.4643e-05,-3.1676e+07,-1.0648e+05,0,1.1156e+06,-13901,11762,11949,1,11949,1,-4.0253e-05,-1.5776e-07,0,2.0211e-05,-7.6177e-06,-1.6371e+07,-53783,0,8.1984e+06,-5908.1,11948,12271,1,12271,1,4.0529e-05,-2.1569e-08,0,6.0538e-05,7.5652e-06,1.6388e+07,-7386,0,2.4513e+07,4732.3,12270,188.7,0,188.7,0,4.6564e-05,8.7978e-08,0,2.3221e-05,8.7389e-06,1.8881e+07,30058,0,9.4138e+06,6253,188.7,1
644,0.31,12109,1,12109,1,1.1484e-07,-3.5721e-08,0,4.2099e-05,-2.3042e-08,-4597.9,-12202,0,1.7072e+07,-922.37,12108,12432,1,12432,1,8.1411e-05,1.2745e-07,0,8.1411e-05,1.5206e-05,3.2903e+07,43468,0,3.3013e+07,10791,12431,12110,1,12110,1,1.0901e-07,-2.0579e-08,0,4.2138e-05,-1.9294e-08,41794,-7036.2,0,1.7087e+07,-939.27,12109,11763,1,11763,1,-8.1162e-05,-2.1232e-07,0,2.8887e-06,-1.5252e-05,-3.3013e+07,-72474,0,1.1747e+06,-12873,11762,11949,1,11949,1,-4.2015e-05,-8.2707e-08,0,2.1076e-05,-7.9426e-06,-1.7088e+07,-28193,0,8.5499e+06,-6306.3,11948,12271,1,12271,1,4.2259e-05,7.2662e-09,0,6.3169e-05,7.897e-06,1.7087e+07,2474.9,0,2.5611e+07,4780.8,12270,188.7,0,188.7,0,4.8609e-05,7.1403e-08,0,2.4243e-05,9.1222e-06,1.971e+07,24393,0,9.8282e+06,6091.4,188.7,1
644,0.32,12109,1,12109,1,1.3864e-07,-4.7994e-08,0,4.3498e-05,-2.8431e-08,3284.9,-16393,0,1.7639e+07,-1322.5,12108,12432,1,12432,1,8.4167e-05,9.1898e-08,0,8.4167e-05,1.5719e-05,3.4017e+07,31368,0,3.4121e+07,8513.6,12431,12110,1,12110,1,1.3574e-07,-3.2737e-08,0,4.3544e-05,-3.0759e-08,51717,-11180,0,1.7663e+07,-1044.5,12109,11763,1,11763,1,-8.3885e-05,-2.2306e-07,0,2.9684e-06,-1.5772e-05,-3.4121e+07,-76142,0,1.2075e+06,-14349,11762,11949,1,11949,1,-4.3405e-05,-9.5343e-08,0,2.1781e-05,-8.2076e-06,-1.7653e+07,-32492,0,8.8358e+06,-5920.7,11948,12271,1,12271,1,4.3682e-05,-1.1616e-09,0,6.5287e-05,8.1546e-06,1.7663e+07,-395.51,0,2.6459e+07,3994.9,12270,188.7,0,188.7,0,5.0224e-05,6.9194e-08,0,2.505e-05,9.4249e-06,2.0365e+07,23640,0,1.0155e+07,5852.6,188.7,1
644,0.33,12109,1,12109,1,1.3908e-07,-5.3519e-08,0,4.4717e-05,-2.7046e-08,2099.5,-18283,0,1.8133e+07,-713.46,12108,12432,1,12432,1,8.6545e-05,1.2203e-07,0,8.6545e-05,1.6163e-05,3.4978e+07,41765,0,3.5085e+07,10020,12431,12110,1,12110,1,1.3972e-07,-3.2889e-08,0,4.4769e-05,-2.8833e-08,53362,-11229,0,1.8159e+07,-611.61,12109,11763,1,11763,1,-8.6256e-05,-2.7095e-07,0,3.0557e-06,-1.6217e-05,-3.5085e+07,-92488,0,1.2428e+06,-13808,11762,11949,1,11949,1,-4.4635e-05,-1.1621e-07,0,2.2402e-05,-8.4372e-06,-1.8153e+07,-39614,0,9.0877e+06,-6111.1,11948,12271,1,12271,1,4.4908e-05,6.2291e-09,0,6.7121e-05,8.3899e-06,1.8159e+07,2127.9,0,2.7198e+07,5233.9,12270,188.7,0,188.7,0,5.163e-05,8.8991e-08,0,2.5749e-05,9.69e-06,2.0935e+07,30405,0,1.0439e+07,6541.7,188.7,1
644,0.34,12109,1,12109,1,1.074e-07,-7.8294e-08,0,4.6081e-05,-1.8676e-08,-12214,-26746,0,1.8686e+07,299.42,12108,12432,1,12432,1,8.9199e-05,6.8156e-08,0,8.9199e-05,1.6671e-05,3.6051e+07,23264,0,3.6187e+07,12075,12431,12110,1,12110,1,1.0621e-07,-5.8217e-08,0,4.614e-05,-1.8095e-08,40145,-19893,0,1.8704e+07,232.52,12109,11763,1,11763,1,-8.8966e-05,-2.7712e-07,0,3.1831e-06,-1.6713e-05,-3.6187e+07,-94594,0,1.2947e+06,-12856,11762,11949,1,11949,1,-4.603e-05,-1.3646e-07,0,2.3082e-05,-8.6878e-06,-1.8721e+07,-46619,0,9.3635e+06,-4961.6,11948,12271,1,12271,1,4.6244e-05,-1.7312e-08,0,6.9134e-05,8.6512e-06,1.87e+07,-5917.6,0,2.8035e+07,6198.8,12270,188.7,0,188.7,0,5.3206e-05,7.9714e-08,0,2.6536e-05,9.9854e-06,2.1574e+07,27235,0,1.0758e+07,6588.8,188.7,1
644,0.35,12109,1,12109,1,1.4384e-07,-1.0094e-07,0,4.7204e-05,-2.6498e-08,1124.5,-34480,0,1.9141e+07,-125.01,12108,12432,1,12432,1,9.1458e-05,4.6692e-08,0,9.1458e-05,1.7085e-05,3.6964e+07,15981,0,3.7082e+07,11363,12431,12110,1,12110,1,1.4369e-07,-7.5862e-08,0,4.7277e-05,-2.6237e-08,55347,-25983,0,1.9172e+07,-88.889,12109,11763,1,11763,1,-9.1167e-05,-3.4273e-07,0,3.2269e-06,-1.7139e-05,-3.7082e+07,-1.1699e+05,0,1.3124e+06,-12313,11762,11949,1,11949,1,-4.7132e-05,-1.7676e-07,0,2.3648e-05,-8.9091e-06,-1.9169e+07,-60199,0,9.5938e+06,-6179.2,11948,12271,1,12271,1,4.7414e-05,-1.713e-08,0,7.083e-05,8.8566e-06,1.9172e+07,-5830.9,0,2.8702e+07,5359.5,12270,188.7,0,188.7,0,5.4502e-05,9.8691e-08,0,2.7182e-05,1.0229e-05,2.21e+07,33719,0,1.102e+07,6438.8,188.7,1
644,0.36,12109,1,12109,1,1.5166e-07,-3.4522e-08,0,4.8814e-05,-2.9057e-08,2257.3,-11791,0,1.9795e+07,-596.1,12108,12432,1,12432,1,9.4372e-05,1.0997e-07,0,9.4372e-05,1.7628e-05,3.8142e+07,37538,0,3.8267e+07,9563.6,12431,12110,1,12110,1,1.5457e-07,-2.2536e-08,0,4.8851e-05,-2.9193e-08,59627,-7701.5,0,1.9816e+07,-806.35,12109,11763,1,11763,1,-9.4078e-05,-2.0168e-07,0,3.3307e-06,-1.7682e-05,-3.8267e+07,-68843,0,1.3549e+06,-11805,11762,11949,1,11949,1,-4.8704e-05,-7.422e-08,0,2.4443e-05,-9.2065e-06,-1.9809e+07,-25345,0,9.9158e+06,-5733.4,11948,12271,1,12271,1,4.9004e-05,2.9471e-09,0,7.3249e-05,9.1491e-06,1.9816e+07,1006.4,0,2.9696e+07,5057.7,12270,188.7,0,188.7,0,5.6364e-05,6.4272e-08,0,2.8113e-05,1.0576e-05,2.2855e+07,21959,0,1.1397e+07,5927.3,188.7,1
644,0.37,12109,1,12109,1,1.4285e-07,-2.8106e-08,0,5.0558e-05,-2.7863e-08,-3471.1,-9599.1,0,2.0502e+07,-802.76,12108,12432,1,12432,1,9.7725e-05,8.1341e-08,0,9.7725e-05,1.826e-05,3.9497e+07,27765,0,3.9633e+07,5541.3,12431,12110,1,12110,1,1.4088e-07,-1.774e-08,0,5.0588e-05,-2.6875e-08,54012,-6043.4,0,2.0515e+07,-801.21,12109,11763,1,11763,1,-9.7439e-05,-1.6355e-07,0,3.4688e-06,-1.8313e-05,-3.9633e+07,-55827,0,1.4111e+06,-8512.6,11762,11949,1,11949,1,-5.0446e-05,-6.1223e-08,0,2.5305e-05,-9.5255e-06,-2.0518e+07,-20914,0,1.0266e+07,-4560.4,11948,12271,1,12271,1,5.0734e-05,3.0531e-09,0,7.5861e-05,9.4701e-06,2.0515e+07,1040.2,0,3.0758e+07,2947.2,12270,188.7,0,188.7,0,5.838e-05,5.1391e-08,0,2.9123e-05,1.095e-05,2.3673e+07,17556,0,1.1807e+07,3857.7,188.7,1
644,0.38,12109,1,12109,1,1.6878e-07,-5.9257e-08,0,5.1852e-05,-2.9826e-08,5705.9,-20244,0,2.1026e+07,410.15,12108,12432,1,12432,1,0.00010035,1.1759e-07,0,0.00010035,1.8736e-05,4.0559e+07,40106,0,4.0673e+07,12958,12431,12110,1,12110,1,1.6006e-07,-3.6591e-08,0,5.1913e-05,-2.4754e-08,62073,-12509,0,2.1058e+07,332.52,12109,11763,1,11763,1,-9.9995e-05,-2.8822e-07,0,3.5395e-06,-1.8804e-05,-4.0673e+07,-98384,0,1.4392e+06,-12420,11762,11949,1,11949,1,-5.1743e-05,-1.1909e-07,0,2.5968e-05,-9.785e-06,-2.1044e+07,-40672,0,1.0535e+07,-5958.6,11948,12271,1,12271,1,5.2079e-05,1.0717e-09,0,7.7825e-05,9.7222e-06,2.1059e+07,366.25,0,3.1537e+07,6389.4,12270,188.7,0,188.7,0,5.987e-05,8.9459e-08,0,2.9859e-05,1.1235e-05,2.4276e+07,30560,0,1.2105e+07,6777.8,188.7,1
644,0.39,12109,1,12109,1,1.6416e-07,-4.625e-08,0,5.3193e-05,-3.2589e-08,1917.2,-15800,0,2.1571e+07,-1126.9,12108,12432,1,12432,1,0.00010288,9.6021e-08,0,0.00010288,1.922e-05,4.1578e+07,32749,0,4.1715e+07,7897.1,12431,12110,1,12110,1,1.6288e-07,-2.6527e-08,0,5.324e-05,-3.2066e-08,62608,-9081.7,0,2.1595e+07,-977.36,12109,11763,1,11763,1,-0.00010256,-2.4362e-07,0,3.6342e-06,-1.928e-05,-4.1715e+07,-83160,0,1.4783e+06,-11040,11762,11949,1,11949,1,-5.3079e-05,-9.7615e-08,0,2.6634e-05,-1.0032e-05,-2.1588e+07,-33434,0,1.0805e+07,-6271.6,11948,12271,1,12271,1,5.3406e-05,5.363e-09,0,7.9834e-05,9.9682e-06,2.1595e+07,1826.6,0,3.2361e+07,4054.7,12270,188.7,0,188.7,0,6.1421e-05,7.5852e-08,0,3.0637e-05,1.1524e-05,2.4905e+07,25915,0,1.242e+07,5385.6,188.7,1
644,0.4,12109,1,12109,1,1.6898e-07,-3.2334e-08,0,5.4782e-05,-3.4617e-08,1852.9,-11044,0,2.2215e+07,-1611.7,12108,12432,1,12432,1,0.00010592,1.0929e-07,0,0.00010592,1.9784e-05,4.2807e+07,37306,0,4.2941e+07,7929.5,12431,12110,1,12110,1,1.7224e-07,-1.9568e-08,0,5.4818e-05,-3.6703e-08,65865,-6683.6,0,2.2236e+07,-1372.8,12109,11763,1,11763,1,-0.00010557,-2.0237e-07,0,3.7405e-06,-1.9848e-05,-4.2941e+07,-69079,0,1.5218e+06,-13056,11762,11949,1,11949,1,-5.4648e-05,-7.7162e-08,0,2.7423e-05,-1.0331e-05,-2.2226e+07,-26303,0,1.1125e+07,-6337,11948,12271,1,12271,1,5.4992e-05,8.7412e-09,0,8.2198e-05,1.0263e-05,2.2237e+07,2978.6,0,3.3328e+07,3979.8,12270,188.7,0,188.7,0,6.3256e-05,6.7248e-08,0,3.1554e-05,1.1868e-05,2.5649e+07,22977,0,1.2792e+07,5920.8,188.7,1
644,0.41,12109,1,12109,1,1.7101e-07,-7.6385e-08,0,5.5661e-05,-3.6277e-08,1510.8,-26095,0,2.2571e+07,-2155,12108,12432,1,12432,1,0.00010772,9.5149e-08,0,0.00010772,2.0125e-05,4.3538e+07,32443,0,4.3678e+07,9458.9,12431,12110,1,12110,1,1.6952e-07,-5.2465e-08,0,5.5727e-05,-3.9192e-08,64633,-17923,0,2.2601e+07,-1958,12109,11763,1,11763,1,-0.00010738,-3.2822e-07,0,3.8057e-06,-2.0189e-05,-4.3678e+07,-1.1204e+05,0,1.5488e+06,-15357,11762,11949,1,11949,1,-5.5561e-05,-1.4644e-07,0,2.7879e-05,-1.0503e-05,-2.2597e+07,-50015,0,1.131e+07,-8012.5,11948,12271,1,12271,1,5.5893e-05,-4.6657e-10,0,8.3554e-05,1.0433e-05,2.2601e+07,-159.81,0,3.3859e+07,3874.2,12270,188.7,0,188.7,0,6.4269e-05,9.9529e-08,0,3.2056e-05,1.206e-05,2.606e+07,34006,0,1.2995e+07,6501.7,188.7,1
644,0.42,12109,1,12109,1,1.7642e-07,-4.8663e-08,0,5.7274e-05,-3.8392e-08,1659.3,-16623,0,2.3225e+07,-2629.9,12108,12432,1,12432,1,0.00011076,1.2865e-07,0,0.00011076,2.0693e-05,4.4767e+07,43911,0,4.4914e+07,8567.4,12431,12110,1,12110,1,1.7356e-07,-3.203e-08,0,5.7326e-05,-4.1727e-08,66130,-10971,0,2.3252e+07,-2236.8,12109,11763,1,11763,1,-0.00011042,-2.5922e-07,0,3.9134e-06,-2.0758e-05,-4.4914e+07,-88486,0,1.5925e+06,-15345,11762,11949,1,11949,1,-5.7149e-05,-1.0519e-07,0,2.8676e-05,-1.0804e-05,-2.3244e+07,-35883,0,1.1633e+07,-8244,11948,12271,1,12271,1,5.7502e-05,4.3628e-09,0,8.5953e-05,1.0728e-05,2.3252e+07,1485.8,0,3.4844e+07,3584.1,12270,188.7,0,188.7,0,6.6131e-05,8.3797e-08,0,3.2985e-05,1.2408e-05,2.6815e+07,28629,0,1.3372e+07,6301.7,188.7,1
644,0.43,12109,1,12109,1,1.8896e-07,-3.2055e-08,0,5.8915e-05,-3.2634e-08,5389.9,-10951,0,2.3891e+07,770.07,12108,12432,1,12432,1,0.00011389,1.1496e-07,0,0.00011389,2.1274e-05,4.6031e+07,39207,0,4.6174e+07,10974,12431,12110,1,12110,1,1.8531e-07,-1.6771e-08,0,5.8946e-05,-2.6127e-08,72264,-5743.9,0,2.3911e+07,1026.4,12109,11763,1,11763,1,-0.00011352,-2.1097e-07,0,4.0143e-06,-2.1344e-05,-4.6174e+07,-72015,0,1.6325e+06,-9826.5,11762,11949,1,11949,1,-5.876e-05,-7.6353e-08,0,2.9489e-05,-1.1104e-05,-2.3899e+07,-26110,0,1.1963e+07,-4459.7,11948,12271,1,12271,1,5.9143e-05,1.1548e-08,0,8.8398e-05,1.1037e-05,2.3916e+07,3938.6,0,3.5839e+07,5596.3,12270,188.7,0,188.7,0,6.8029e-05,6.957e-08,0,3.3935e-05,1.2762e-05,2.7585e+07,23766,0,1.3757e+07,5370.1,188.7,1
644,0.44,12109,1,12109,1,1.9177e-07,-3.7991e-08,0,6.0023e-05,-3.689e-08,4886.8,-12979,0,2.434e+07,-806.14,12108,12432,1,12432,1,0.00011604,1.5234e-07,0,0.00011604,2.1679e-05,4.6897e+07,52004,0,4.7051e+07,12719,12431,12110,1,12110,1,1.9083e-07,-1.9972e-08,0,6.0065e-05,-3.9448e-08,73630,-6819.1,0,2.4364e+07,-805.39,12109,11763,1,11763,1,-0.00011568,-2.5997e-07,0,4.0957e-06,-2.1746e-05,-4.7051e+07,-88778,0,1.6659e+06,-13920,11762,11949,1,11949,1,-5.988e-05,-9.3727e-08,0,3.0052e-05,-1.132e-05,-2.4354e+07,-32012,0,1.2191e+07,-7721.7,11948,12271,1,12271,1,6.0256e-05,1.4823e-08,0,9.0066e-05,1.1248e-05,2.4365e+07,5077.1,0,3.6511e+07,5716.2,12270,188.7,0,188.7,0,6.9306e-05,8.8289e-08,0,3.4568e-05,1.3005e-05,2.8102e+07,30166,0,1.4014e+07,7138.9,188.7,1
644,0.45,12109,1,12109,1,2.0651e-07,-2.4395e-08,0,6.1794e-05,-4.216e-08,8509,-8334.2,0,2.5058e+07,-1874.8,12108,12432,1,12432,1,0.00011945,1.3807e-07,0,0.00011945,2.2307e-05,4.8276e+07,47128,0,4.8416e+07,8447.1,12431,12110,1,12110,1,2.071e-07,-1.617e-08,0,6.1826e-05,-4.2971e-08,79867,-5538.4,0,2.5079e+07,-1670.1,12109,11763,1,11763,1,-0.00011903,-1.9171e-07,0,4.2035e-06,-2.2384e-05,-4.8416e+07,-65439,0,1.7106e+06,-16432,11762,11949,1,11949,1,-6.1624e-05,-6.568e-08,0,3.0929e-05,-1.1659e-05,-2.5064e+07,-22463,0,1.2547e+07,-6714.7,11948,12271,1,12271,1,6.2031e-05,1.2116e-08,0,9.2707e-05,1.157e-05,2.5083e+07,4124.2,0,3.7589e+07,4099.1,12270,188.7,0,188.7,0,7.1354e-05,6.8076e-08,0,3.5594e-05,1.3387e-05,2.8933e+07,23259,0,1.443e+07,6354.4,188.7,1
644,0.46,12109,1,12109,1,1.9304e-07,-6.7402e-08,0,6.3095e-05,-3.5497e-08,1784.7,-23023,0,2.5586e+07,-143.91,12108,12432,1,12432,1,0.00012205,5.3423e-08,0,0.00012205,2.2804e-05,4.9328e+07,18298,0,4.9492e+07,8673.3,12431,12110,1,12110,1,1.9248e-07,-4.5878e-08,0,6.3151e-05,-3.2874e-08,74427,-15645,0,2.5614e+07,-238.25,12109,11763,1,11763,1,-0.00012168,-2.6619e-07,0,4.3099e-06,-2.2874e-05,-4.9492e+07,-90863,0,1.7527e+06,-9672.7,11762,11949,1,11949,1,-6.2961e-05,-1.2158e-07,0,3.1585e-05,-1.1893e-05,-2.5608e+07,-41537,0,1.2814e+07,-4878.4,11948,12271,1,12271,1,6.3342e-05,-8.4441e-09,0,9.4702e-05,1.1821e-05,2.5614e+07,-2883.3,0,3.839e+07,4589.2,12270,188.7,0,188.7,0,7.2857e-05,7.6496e-08,0,3.6345e-05,1.3667e-05,2.9543e+07,26135,0,1.4734e+07,5065.8,188.7,1
644,0.47,12109,1,12109,1,2.0337e-07,-2.013e-08,0,6.4552e-05,-4.2355e-08,3802,-6875.4,0,2.6176e+07,-2223.1,12108,12432,1,12432,1,0.00012475,1.6213e-07,0,0.00012475,2.3303e-05,5.0419e+07,55342,0,5.0578e+07,9877.5,12431,12110,1,12110,1,2.0715e-07,-1.2147e-08,0,6.4581e-05,-4.5689e-08,79353,-4147.6,0,2.6196e+07,-1684.4,12109,11763,1,11763,1,-0.00012435,-2.3312e-07,0,4.4023e-06,-2.3379e-05,-5.0578e+07,-79574,0,1.7911e+06,-15595,11762,11949,1,11949,1,-6.4382e-05,-7.2755e-08,0,3.2312e-05,-1.2175e-05,-2.6185e+07,-24812,0,1.3108e+07,-8635.3,11948,12271,1,12271,1,6.4794e-05,2.9645e-08,0,9.6844e-05,1.2092e-05,2.62e+07,10121,0,3.9263e+07,4444,12270,188.7,0,188.7,0,7.4537e-05,8.4437e-08,0,3.718e-05,1.3985e-05,3.0223e+07,28850,0,1.5073e+07,6951.9,188.7,1
644,0.48,12109,1,12109,1,1.801e-07,-1.0008e-07,0,6.5819e-05,-3.5067e-08,-6972.7,-34187,0,2.669e+07,-1001,12108,12432,1,12432,1,0.00012737,8.1274e-08,0,0.00012737,2.3805e-05,5.1478e+07,27741,0,5.1659e+07,13495,12431,12110,1,12110,1,1.7759e-07,-7.725e-08,0,6.5892e-05,-3.6714e-08,67671,-26381,0,2.6715e+07,-919.08,12109,11763,1,11763,1,-0.000127,-3.4155e-07,0,4.5254e-06,-2.3872e-05,-5.1659e+07,-1.1667e+05,0,1.8404e+06,-17912,11762,11949,1,11949,1,-6.5709e-05,-1.7623e-07,0,3.2955e-05,-1.2411e-05,-2.6725e+07,-60044,0,1.3369e+07,-7798.2,11948,12271,1,12271,1,6.6067e-05,-1.9869e-08,0,9.8794e-05,1.2343e-05,2.6715e+07,-6784.1,0,4.0043e+07,6397.3,12270,188.7,0,188.7,0,7.5999e-05,1.0064e-07,0,3.7908e-05,1.4263e-05,3.0816e+07,34386,0,1.5368e+07,8204,188.7,1
644,0.49,12109,1,12109,1,2.0871e-07,-9.8137e-08,0,6.7467e-05,-4.0733e-08,2579.3,-33525,0,2.7359e+07,-1141.8,12108,12432,1,12432,1,0.00013055,1.8057e-08,0,0.00013055,2.4391e-05,5.276e+07,6184.6,0,5.2933e+07,8167.4,12431,12110,1,12110,1,2.099e-07,-7.5178e-08,0,6.7528e-05,-4.2454e-08,80751,-25625,0,2.7388e+07,-1243.2,12109,11763,1,11763,1,-0.00013014,-3.0889e-07,0,4.6081e-06,-2.4467e-05,-5.2933e+07,-1.0551e+05,0,1.8742e+06,-11875,11762,11949,1,11949,1,-6.7321e-05,-1.6003e-07,0,3.3772e-05,-1.2717e-05,-2.7381e+07,-54651,0,1.3701e+07,-5910.1,11948,12271,1,12271,1,6.773e-05,-2.6269e-08,0,0.00010126,1.2637e-05,2.7388e+07,-8940.4,0,4.1044e+07,3910,12270,188.7,0,188.7,0,7.7905e-05,8.4429e-08,0,3.8864e-05,1.4615e-05,3.1589e+07,28850,0,1.5755e+07,5289.7,188.7,1
644,0.5,12109,1,12109,1,2.0448e-07,-6.1146e-08,0,6.8872e-05,-3.8352e-08,-753.75,-20888,0,2.7928e+07,-482.85,12108,12432,1,12432,1,0.00013318,1.0318e-07,0,0.00013318,2.4888e-05,5.3824e+07,35192,0,5.4009e+07,12523,12431,12110,1,12110,1,2.0048e-07,-4.5433e-08,0,6.892e-05,-3.3729e-08,77419,-15477,0,2.7953e+07,-359.74,12109,11763,1,11763,1,-0.00013278,-2.6288e-07,0,4.7114e-06,-2.4962e-05,-5.4009e+07,-89733,0,1.9163e+06,-12533,11762,11949,1,11949,1,-6.8722e-05,-1.1657e-07,0,3.4477e-05,-1.2981e-05,-2.7951e+07,-39812,0,1.3987e+07,-6254.4,11948,12271,1,12271,1,6.9128e-05,-4.8201e-09,0,0.00010336,1.2903e-05,2.7953e+07,-1650.9,0,4.1906e+07,5323,12270,188.7,0,188.7,0,7.9526e-05,8.1091e-08,0,3.9671e-05,1.4921e-05,3.2247e+07,27704,0,1.6083e+07,6419.8,188.7,1
644,0.51,12109,1,12109,1,2.1768e-07,2.5957e-08,0,6.9853e-05,-3.9143e-08,3510.2,8866,0,2.8326e+07,218.82,12108,12432,1,12432,1,0.00013501,2.3111e-07,0,0.00013501,2.5222e-05,5.4561e+07,78888,0,5.473e+07,12004,12431,12110,1,12110,1,2.1562e-07,1.0392e-08,0,6.9893e-05,-3.6079e-08,83319,3540.9,0,2.8351e+07,65.46,12109,11763,1,11763,1,-0.00013456,-1.3976e-07,0,4.7738e-06,-2.5307e-05,-5.473e+07,-47709,0,1.9413e+06,-11914,11762,11949,1,11949,1,-6.9674e-05,-2.0659e-08,0,3.4961e-05,-1.3168e-05,-2.8337e+07,-7031.9,0,1.4183e+07,-5749.2,11948,12271,1,12271,1,7.0114e-05,7.4017e-08,0,0.00010479,1.3087e-05,2.8352e+07,25280,0,4.2492e+07,6247.9,12270,188.7,0,188.7,0,8.0659e-05,7.7928e-08,0,4.0236e-05,1.5134e-05,3.2706e+07,26621,0,1.6311e+07,6601.8,188.7,1
644,0.52,12109,1,12109,1,2.1752e-07,-6.4385e-08,0,7.1588e-05,-3.7834e-08,1250.7,-21996,0,2.9029e+07,743.63,12108,12432,1,12432,1,0.00013846,1.0951e-07,0,0.00013846,2.5872e-05,5.5953e+07,37350,0,5.6149e+07,14114,12431,12110,1,12110,1,2.0931e-07,-4.4757e-08,0,7.1645e-05,-3.2246e-08,81124,-15330,0,2.906e+07,511.89,12109,11763,1,11763,1,-0.00013804,-2.8641e-07,0,4.8992e-06,-2.5949e-05,-5.6149e+07,-97765,0,1.9923e+06,-10999,11762,11949,1,11949,1,-7.1432e-05,-1.2491e-07,0,3.5837e-05,-1.3494e-05,-2.9053e+07,-42644,0,1.4539e+07,-5536.4,11948,12271,1,12271,1,7.1864e-05,-4.2274e-09,0,0.00010744,1.3414e-05,2.906e+07,-1444,0,4.3553e+07,6761.2,12270,188.7,0,188.7,0,8.2662e-05,8.7622e-08,0,4.1234e-05,1.5509e-05,3.3517e+07,29936,0,1.6716e+07,6982.2,188.7,1
644,0.53,12109,1,12109,1,2.3511e-07,-4.7659e-08,0,7.3367e-05,-4.6176e-08,5581.8,-16282,0,2.9751e+07,-1392.7,12108,12432,1,12432,1,0.00014186,8.3203e-08,0,0.00014186,2.6497e-05,5.7325e+07,28400,0,5.7503e+07,7391.5,12431,12110,1,12110,1,2.3522e-07,-3.0251e-08,0,7.3409e-05,-4.7879e-08,90618,-10339,0,2.9778e+07,-1414.1,12109,11763,1,11763,1,-0.00014137,-2.2477e-07,0,5.0034e-06,-2.6587e-05,-5.7503e+07,-76754,0,2.0351e+06,-11422,11762,11949,1,11949,1,-7.317e-05,-9.3652e-08,0,3.6714e-05,-1.3826e-05,-2.976e+07,-31994,0,1.4894e+07,-5989.2,11948,12271,1,12271,1,7.3647e-05,-1.9982e-09,0,0.00011008,1.3734e-05,2.9781e+07,-681.31,0,4.4636e+07,3814.1,12270,188.7,0,188.7,0,8.4719e-05,6.8684e-08,0,4.2265e-05,1.5892e-05,3.4352e+07,23468,0,1.7133e+07,5350.4,188.7,1
644,0.54,12109,1,12109,1,2.3293e-07,3.1971e-09,0,7.4334e-05,-4.1124e-08,3626.6,1090.6,0,3.0142e+07,555.02,12108,12432,1,12432,1,0.00014362,2.1189e-07,0,0.00014362,2.6837e-05,5.8033e+07,72325,0,5.823e+07,13787,12431,12110,1,12110,1,2.3095e-07,-5.4813e-09,0,7.4367e-05,-3.8616e-08,89484,-1872.1,0,3.0166e+07,239.92,12109,11763,1,11763,1,-0.00014316,-1.7917e-07,0,5.0762e-06,-2.6921e-05,-5.823e+07,-61158,0,2.0645e+06,-11904,11762,11949,1,11949,1,-7.414e-05,-4.168e-08,0,3.7207e-05,-1.401e-05,-3.0153e+07,-14219,0,1.5094e+07,-5798.6,11948,12271,1,12271,1,7.4605e-05,5.0112e-08,0,0.00011151,1.3931e-05,3.0168e+07,17114,0,4.5212e+07,7241.8,12270,188.7,0,188.7,0,8.5834e-05,8.0547e-08,0,4.2818e-05,1.6104e-05,3.4803e+07,27515,0,1.7357e+07,7028.3,188.7,1
644,0.55,12109,1,12109,1,2.2777e-07,-7.3902e-08,0,7.5694e-05,-4.6091e-08,-744.55,-25246,0,3.0694e+07,-1952.5,12108,12432,1,12432,1,0.00014642,1.1735e-07,0,0.00014642,2.7359e-05,5.9163e+07,40056,0,5.9368e+07,10868,12431,12110,1,12110,1,2.2712e-07,-5.481e-08,0,7.5759e-05,-4.8528e-08,86726,-18722,0,3.0725e+07,-1663.7,12109,11763,1,11763,1,-0.00014596,-3.1266e-07,0,5.1794e-06,-2.7443e-05,-5.9368e+07,-1.0686e+05,0,2.1069e+06,-16837,11762,11949,1,11949,1,-7.553e-05,-1.428e-07,0,3.7893e-05,-1.427e-05,-3.072e+07,-48793,0,1.5372e+07,-7827.2,11948,12271,1,12271,1,7.5984e-05,-3.912e-09,0,0.0001136,1.418e-05,3.0725e+07,-1331.4,0,4.6055e+07,4730,12270,188.7,0,188.7,0,8.7403e-05,9.712e-08,0,4.3599e-05,1.6399e-05,3.5439e+07,33184,0,1.7673e+07,7387.1,188.7,1
644,0.56,12109,1,12109,1,2.1509e-07,-1.1121e-07,0,7.7421e-05,-4.0333e-08,-8326.8,-37994,0,3.1394e+07,-545.51,12108,12432,1,12432,1,0.00014981,2.9398e-08,0,0.00014981,2.8001e-05,6.0529e+07,10069,0,6.0762e+07,8253,12431,12110,1,12110,1,2.0486e-07,-9.4165e-08,0,7.7486e-05,-3.6784e-08,78497,-32164,0,3.1415e+07,-565.9,12109,11763,1,11763,1,-0.00014939,-3.2194e-07,0,5.3142e-06,-2.8079e-05,-6.0762e+07,-1.0989e+05,0,2.1611e+06,-10700,11762,11949,1,11949,1,-7.7266e-05,-1.7947e-07,0,3.874e-05,-1.4583e-05,-3.1426e+07,-61295,0,1.5717e+07,-5067.4,11948,12271,1,12271,1,7.7687e-05,-3.3653e-08,0,0.00011619,1.4502e-05,3.1415e+07,-11465,0,4.7095e+07,3947.2,12270,188.7,0,188.7,0,8.9401e-05,8.8068e-08,0,4.4601e-05,1.6769e-05,3.6248e+07,30093,0,1.8079e+07,4997.9,188.7,1
644,0.57,12109,1,12109,1,2.5692e-07,-6.616e-08,0,7.8979e-05,-5.5176e-08,5130.7,-22597,0,3.2024e+07,-3503.7,12108,12432,1,12432,1,0.00015271,5.1127e-08,0,0.00015271,2.8526e-05,6.1694e+07,17451,0,6.1904e+07,5988.1,12431,12110,1,12110,1,2.5945e-07,-4.8006e-08,0,7.9026e-05,-6.1202e-08,99172,-16344,0,3.2057e+07,-2963.6,12109,11763,1,11763,1,-0.00015219,-2.4585e-07,0,5.38e-06,-2.8622e-05,-6.1904e+07,-83921,0,2.1889e+06,-15113,11762,11949,1,11949,1,-7.8769e-05,-1.0862e-07,0,3.9525e-05,-1.4886e-05,-3.2037e+07,-37204,0,1.6034e+07,-8155.9,11948,12271,1,12271,1,7.9283e-05,-1.9238e-08,0,0.00011851,1.478e-05,3.2059e+07,-6585.8,0,4.8049e+07,1157.7,12270,188.7,0,188.7,0,9.12e-05,6.6923e-08,0,4.5499e-05,1.7106e-05,3.6977e+07,22865,0,1.8442e+07,5734,188.7,1
644,0.58,12109,1,12109,1,2.4213e-07,-7.1114e-08,0,8.0154e-05,-4.6078e-08,-2755.3,-24292,0,3.25e+07,-854.14,12108,12432,1,12432,1,0.00015503,6.1652e-08,0,0.00015503,2.8966e-05,6.2622e+07,21019,0,6.2858e+07,9210.2,12431,12110,1,12110,1,2.3295e-07,-4.7851e-08,0,8.0217e-05,-4.323e-08,89683,-16360,0,3.2533e+07,-691.67,12109,11763,1,11763,1,-0.00015454,-2.8334e-07,0,5.4826e-06,-2.9057e-05,-6.2858e+07,-96718,0,2.2296e+06,-12788,11762,11949,1,11949,1,-7.9969e-05,-1.3028e-07,0,4.0108e-05,-1.5106e-05,-3.2526e+07,-44494,0,1.6272e+07,-6146.3,11948,12271,1,12271,1,8.0455e-05,-8.9208e-09,0,0.00012029,1.5011e-05,3.2533e+07,-3046.1,0,4.877e+07,4475,12270,188.7,0,188.7,0,9.2556e-05,8.2109e-08,0,4.6175e-05,1.7362e-05,3.7525e+07,28052,0,1.8715e+07,5890.6,188.7,1
644,0.59,12109,1,12109,1,2.6539e-07,-1.0211e-07,0,8.1302e-05,-5.2487e-08,4375.2,-34881,0,3.2965e+07,-1724.8,12108,12432,1,12432,1,0.00015731,2.775e-08,0,0.00015731,2.9391e-05,6.354e+07,9464.5,0,6.3776e+07,12122,12431,12110,1,12110,1,2.6573e-07,-8.1571e-08,0,8.1368e-05,-5.3892e-08,1.0246e+05,-27862,0,3.3006e+07,-1600,12109,11763,1,11763,1,-0.00015679,-3.295e-07,0,5.5394e-06,-2.9486e-05,-6.3776e+07,-1.126e+05,0,2.2533e+06,-13974,11762,11949,1,11949,1,-8.1104e-05,-1.6919e-07,0,4.0694e-05,-1.5327e-05,-3.2987e+07,-57883,0,1.6509e+07,-7384.8,11948,12271,1,12271,1,8.163e-05,-2.3252e-08,0,0.00012203,1.5224e-05,3.3008e+07,-7936.7,0,4.9453e+07,3861.4,12270,188.7,0,188.7,0,9.3882e-05,9.1758e-08,0,4.6836e-05,1.7612e-05,3.8061e+07,31353,0,1.8982e+07,6342.3,188.7,1
644,0.6,12109,1,12109,1,2.7213e-07,-3.6961e-08,0,8.2771e-05,-5.2546e-08,4625.8,-12626,0,3.3559e+07,-1228.7,12108,12432,1,12432,1,0.00016003,1.7757e-07,0,0.00016003,2.9892e-05,6.4635e+07,60611,0,6.4869e+07,12363,12431,12110,1,12110,1,2.6783e-07,-1.904e-08,0,8.2819e-05,-5.2668e-08,1.0319e+05,-6499.3,0,3.3595e+07,-904.22,12109,11763,1,11763,1,-0.00015948,-2.6259e-07,0,5.6353e-06,-2.9994e-05,-6.4869e+07,-89672,0,2.2922e+06,-16946,11762,11949,1,11949,1,-8.2542e-05,-9.9556e-08,0,4.1423e-05,-1.5605e-05,-3.3572e+07,-34032,0,1.6805e+07,-8477.1,11948,12271,1,12271,1,8.3099e-05,1.8055e-08,0,0.00012419,1.5501e-05,3.3601e+07,6162.4,0,5.0346e+07,6284.8,12270,188.7,0,188.7,0,9.5576e-05,9.3888e-08,0,4.7678e-05,1.7933e-05,3.8747e+07,32077,0,1.9322e+07,8306.2,188.7,1
644,0.61,12109,1,12109,1,2.6941e-07,-2.6592e-08,0,8.4659e-05,-5.3741e-08,30.131,-9083.2,0,3.4324e+07,-1964.7,12108,12432,1,12432,1,0.00016364,1.0659e-07,0,0.00016364,3.057e-05,6.6083e+07,36384,0,6.6337e+07,7983.3,12431,12110,1,12110,1,2.6717e-07,-1.216e-08,0,8.4696e-05,-5.9675e-08,1.0246e+05,-4165.1,0,3.4357e+07,-1876.4,12109,11763,1,11763,1,-0.00016309,-1.9271e-07,0,5.7747e-06,-3.0671e-05,-6.6337e+07,-65814,0,2.3488e+06,-14323,11762,11949,1,11949,1,-8.4421e-05,-6.7644e-08,0,4.2356e-05,-1.595e-05,-3.4336e+07,-23115,0,1.7183e+07,-6767,11948,12271,1,12271,1,8.4971e-05,1.3769e-08,0,0.00012701,1.5844e-05,3.4359e+07,4701.6,0,5.1489e+07,3122,12270,188.7,0,188.7,0,9.776e-05,6.4092e-08,0,4.8773e-05,1.8337e-05,3.9631e+07,21899,0,1.9765e+07,5532.9,188.7,1
644,0.62,12109,1,12109,1,2.8239e-07,-2.3887e-08,0,8.5797e-05,-5.3816e-08,2764.3,-8161.9,0,3.4785e+07,-982.95,12108,12432,1,12432,1,0.00016584,1.3957e-07,0,0.00016584,3.0981e-05,6.6964e+07,47600,0,6.7229e+07,8928.9,12431,12110,1,12110,1,2.7767e-07,-1.0875e-08,0,8.584e-05,-5.2917e-08,1.0728e+05,-3712.2,0,3.482e+07,-1018.4,12109,11763,1,11763,1,-0.00016528,-2.092e-07,0,5.8463e-06,-3.1084e-05,-6.7229e+07,-71411,0,2.3781e+06,-11938,11762,11949,1,11949,1,-8.5558e-05,-7.1775e-08,0,4.2932e-05,-1.6167e-05,-3.4799e+07,-24563,0,1.7418e+07,-6023.7,11948,12271,1,12271,1,8.6124e-05,2.0992e-08,0,0.00012873,1.6059e-05,3.4825e+07,7142.6,0,5.2178e+07,4368.5,12270,188.7,0,188.7,0,9.9074e-05,7.3692e-08,0,4.9427e-05,1.8584e-05,4.0162e+07,25174,0,2.0028e+07,5580.6,188.7,1
644,0.63,12109,1,12109,1,2.8696e-07,-6.477e-08,0,8.729e-05,-5.8743e-08,917.23,-22123,0,3.5388e+07,-2710.7,12108,12432,1,12432,1,0.00016879,8.4837e-08,0,0.00016879,3.1531e-05,6.8146e+07,28935,0,6.8423e+07,8069.5,12431,12110,1,12110,1,2.8548e-07,-4.1965e-08,0,8.7348e-05,-6.1732e-08,1.0972e+05,-14312,0,3.5431e+07,-2419.3,12109,11763,1,11763,1,-0.00016822,-3.0092e-07,0,5.9454e-06,-3.1638e-05,-6.8423e+07,-1.0272e+05,0,2.4186e+06,-13938,11762,11949,1,11949,1,-8.7061e-05,-1.2266e-07,0,4.3687e-05,-1.6456e-05,-3.541e+07,-41801,0,1.7723e+07,-8633.1,11948,12271,1,12271,1,8.7636e-05,-2.444e-09,0,0.00013099,1.6337e-05,3.5434e+07,-837.11,0,5.3093e+07,3292.5,12270,188.7,0,188.7,0,0.0001008,8.7111e-08,0,5.0285e-05,1.8908e-05,4.0858e+07,29763,0,2.0375e+07,6027.7,188.7,1
644,0.64,12109,1,12109,1,3.0907e-07,-6.9014e-08,0,8.8598e-05,-5.7428e-08,6955.7,-23575,0,3.5917e+07,-427.5,12108,12432,1,12432,1,0.00017136,6.661e-08,0,0.00017136,3.2007e-05,6.9172e+07,22718,0,6.9454e+07,9720.8,12431,12110,1,12110,1,3.0036e-07,-4.7351e-08,0,8.8652e-05,-5.3859e-08,1.1663e+05,-16101,0,3.596e+07,-389.12,12109,11763,1,11763,1,-0.00017076,-2.773e-07,0,6.023e-06,-3.2119e-05,-6.9454e+07,-94657,0,2.4497e+06,-10462,11762,11949,1,11949,1,-8.8347e-05,-1.2359e-07,0,4.4339e-05,-1.67e-05,-3.5933e+07,-42198,0,1.7989e+07,-5558,11948,12271,1,12271,1,8.8963e-05,-1.0507e-08,0,0.00013296,1.6581e-05,3.5969e+07,-3598.7,0,5.3885e+07,4497.7,12270,188.7,0,188.7,0,0.00010231,7.911e-08,0,5.1041e-05,1.919e-05,4.1469e+07,27027,0,2.0679e+07,5612.9,188.7,1
644,0.65,12109,1,12109,1,3.0576e-07,-4.9022e-08,0,9.0313e-05,-5.7477e-08,1773.2,-16747,0,3.6611e+07,-724.63,12108,12432,1,12432,1,0.00017464,1.0927e-07,0,0.00017464,3.2621e-05,7.0487e+07,37268,0,7.0787e+07,12221,12431,12110,1,12110,1,2.9894e-07,-2.8422e-08,0,9.037e-05,-5.3872e-08,1.1594e+05,-9705.1,0,3.6656e+07,-686.98,12109,11763,1,11763,1,-0.00017403,-2.549e-07,0,6.1445e-06,-3.2734e-05,-7.0787e+07,-87010,0,2.4993e+06,-12270,11762,11949,1,11949,1,-9.0061e-05,-1.0167e-07,0,4.5191e-05,-1.7023e-05,-3.663e+07,-34689,0,1.8334e+07,-6811.4,11948,12271,1,12271,1,9.0674e-05,3.0618e-09,0,0.00013552,1.6904e-05,3.6659e+07,1045.4,0,5.4925e+07,4747.4,12270,188.7,0,188.7,0,0.00010429,7.937e-08,0,5.2028e-05,1.9563e-05,4.2269e+07,27115,0,2.1078e+07,6500.7,188.7,1
644,0.66,12109,1,12109,1,3.1256e-07,-2.8398e-08,0,9.1421e-05,-5.8787e-08,1033.2,-9700.8,0,3.7058e+07,-752.74,12108,12432,1,12432,1,0.00017673,1.5719e-07,0,0.00017673,3.3014e-05,7.1319e+07,53612,0,7.1635e+07,10710,12431,12110,1,12110,1,3.0738e-07,-1.0055e-08,0,9.1468e-05,-5.5013e-08,1.1927e+05,-3430.6,0,3.71e+07,-457.4,12109,11763,1,11763,1,-0.00017612,-2.4644e-07,0,6.2183e-06,-3.3127e-05,-7.1635e+07,-84122,0,2.5296e+06,-14025,11762,11949,1,11949,1,-9.1158e-05,-8.5047e-08,0,4.5749e-05,-1.723e-05,-3.7076e+07,-29065,0,1.856e+07,-6855.4,11948,12271,1,12271,1,9.1781e-05,2.5197e-08,0,0.00013717,1.7112e-05,3.7105e+07,8629,0,5.5587e+07,5392.6,12270,188.7,0,188.7,0,0.00010557,8.6948e-08,0,5.2666e-05,1.9804e-05,4.2785e+07,29700,0,2.1334e+07,6544.8,188.7,1
644,0.67,12109,1,12109,1,3.2715e-07,-7.2824e-08,0,9.3054e-05,-5.9574e-08,3509.8,-24875,0,3.7719e+07,49.384,12108,12432,1,12432,1,0.00017998,6.3974e-08,0,0.00017998,3.3615e-05,7.2621e+07,21819,0,7.2943e+07,10599,12431,12110,1,12110,1,3.1751e-07,-5.0101e-08,0,9.311e-05,-5.5165e-08,1.2351e+05,-17159,0,3.7766e+07,70.812,12109,11763,1,11763,1,-0.00017933,-2.7669e-07,0,6.3224e-06,-3.3735e-05,-7.2943e+07,-94449,0,2.5713e+06,-10031,11762,11949,1,11949,1,-9.2784e-05,-1.2912e-07,0,4.6564e-05,-1.7536e-05,-3.7738e+07,-44095,0,1.8892e+07,-5131.9,11948,12271,1,12271,1,9.3437e-05,-1.331e-08,0,0.00013964,1.7414e-05,3.7773e+07,-4523.5,0,5.6586e+07,4639.3,12270,188.7,0,188.7,0,0.00010745,7.9219e-08,0,5.361e-05,2.0155e-05,4.3548e+07,27064,0,2.1715e+07,5653.9,188.7,1
644,0.68,12109,1,12109,1,3.2433e-07,-8.6944e-08,0,9.4192e-05,-6.5371e-08,-1745.6,-29695,0,3.8178e+07,-2624.9,12108,12432,1,12432,1,0.00018222,6.5826e-08,0,0.00018222,3.4033e-05,7.3511e+07,22451,0,7.3846e+07,7876.4,12431,12110,1,12110,1,3.2104e-07,-6.4671e-08,0,9.4262e-05,-6.9136e-08,1.2367e+05,-22061,0,3.8232e+07,-2242.4,12109,11763,1,11763,1,-0.00018155,-3.1578e-07,0,6.4039e-06,-3.4154e-05,-7.3846e+07,-1.0779e+05,0,2.6051e+06,-17244,11762,11949,1,11949,1,-9.3934e-05,-1.5402e-07,0,4.7135e-05,-1.7756e-05,-3.8206e+07,-52740,0,1.9122e+07,-7954.4,11948,12271,1,12271,1,9.4579e-05,-1.4951e-08,0,0.00014135,1.7629e-05,3.8232e+07,-5120.8,0,5.7282e+07,3887.5,12270,188.7,0,188.7,0,0.00010877,9.1757e-08,0,5.4265e-05,2.0404e-05,4.4078e+07,31349,0,2.1978e+07,6696.8,188.7,1
644,0.69,12109,1,12109,1,3.3463e-07,-5.3098e-09,0,9.5869e-05,-5.9686e-08,-1475.7,-1815.5,0,3.8855e+07,560.61,12108,12432,1,12432,1,0.00018526,1.961e-07,0,0.00018526,3.4605e-05,7.4728e+07,66937,0,7.5085e+07,12149,12431,12110,1,12110,1,3.3142e-07,-5.4544e-09,0,9.5902e-05,-5.841e-08,1.2886e+05,-1861.8,0,3.8896e+07,326.6,12109,11763,1,11763,1,-0.0001846,-1.9321e-07,0,6.516e-06,-3.4726e-05,-7.5085e+07,-66118,0,2.6501e+06,-11550,11762,11949,1,11949,1,-9.5564e-05,-5.6145e-08,0,4.7965e-05,-1.8064e-05,-3.8868e+07,-19230,0,1.9459e+07,-5645.1,11948,12271,1,12271,1,9.6236e-05,4.1284e-08,0,0.00014381,1.7946e-05,3.8899e+07,14103,0,5.8269e+07,6674,12270,188.7,0,188.7,0,0.0001107,8.1001e-08,0,5.523e-05,2.0767e-05,4.4859e+07,27670,0,2.2367e+07,6638.1,188.7,1
644,0.7,12109,1,12109,1,3.7146e-07,-1.1347e-08,0,9.7287e-05,-7.2116e-08,8089.7,-3873.6,0,3.9427e+07,-1783.1,12108,12432,1,12432,1,0.00018805,1.6268e-07,0,0.00018805,3.5114e-05,7.5837e+07,55678,0,7.6196e+07,8760.5,12431,12110,1,12110,1,3.7587e-07,-5.484e-09,0,9.7316e-05,-7.7946e-08,1.4587e+05,-1878.3,0,3.9468e+07,-1734.7,12109,11763,1,11763,1,-0.00018733,-1.9793e-07,0,6.5699e-06,-3.5247e-05,-7.6196e+07,-67562,0,2.6733e+06,-13404,11762,11949,1,11949,1,-9.6952e-05,-5.9278e-08,0,4.868e-05,-1.834e-05,-3.9433e+07,-20246,0,1.9749e+07,-7468.4,11948,12271,1,12271,1,9.7693e-05,3.2946e-08,0,0.00014595,1.8197e-05,3.9483e+07,11271,0,5.9128e+07,4030.8,12270,188.7,0,188.7,0,0.00011234,7.5966e-08,0,5.6049e-05,2.1072e-05,4.5519e+07,25955,0,2.2696e+07,6099.2,188.7,1
644,0.71,12109,1,12109,1,3.6517e-07,-4.0154e-08,0,9.8978e-05,-7.0754e-08,507.77,-13712,0,4.011e+07,-1729,12108,12432,1,12432,1,0.00019136,6.7754e-08,0,0.00019136,3.5735e-05,7.7157e+07,23204,0,7.7539e+07,5717.2,12431,12110,1,12110,1,3.6481e-07,-2.6511e-08,0,9.9019e-05,-7.204e-08,1.4164e+05,-9038.8,0,4.0158e+07,-1759.3,12109,11763,1,11763,1,-0.00019063,-1.9102e-07,0,6.6993e-06,-3.5868e-05,-7.7539e+07,-65205,0,2.725e+06,-10131,11762,11949,1,11949,1,-9.865e-05,-7.7886e-08,0,4.9515e-05,-1.8651e-05,-4.0124e+07,-26613,0,2.0088e+07,-5715.5,11948,12271,1,12271,1,9.9386e-05,-2.203e-09,0,0.0001485,1.8508e-05,4.0164e+07,-754.57,0,6.0161e+07,2215.6,12270,188.7,0,188.7,0,0.0001143,5.7589e-08,0,5.7029e-05,2.1436e-05,4.6309e+07,19675,0,2.309e+07,4266.6,188.7,1
644,0.72,12109,1,12109,1,3.8199e-07,-2.4387e-08,0,0.00010061,-6.9337e-08,2176,-8330.9,0,4.0767e+07,173.1,12108,12432,1,12432,1,0.00019449,1.0994e-07,0,0.00019449,3.6319e-05,7.84e+07,37496,0,7.8805e+07,9208.7,12431,12110,1,12110,1,3.7971e-07,-1.206e-08,0,0.00010064,-6.6386e-08,1.4819e+05,-4112.9,0,4.0815e+07,369.93,12109,11763,1,11763,1,-0.00019375,-1.809e-07,0,6.806e-06,-3.6454e-05,-7.8805e+07,-61828,0,2.7681e+06,-8931.2,11762,11949,1,11949,1,-0.00010027,-6.3095e-08,0,5.0335e-05,-1.8956e-05,-4.0781e+07,-21547,0,2.0421e+07,-4568.8,11948,12271,1,12271,1,0.00010102,1.2557e-08,0,0.00015094,1.8816e-05,4.0822e+07,4300.9,0,6.114e+07,4536,12270,188.7,0,188.7,0,0.00011618,6.082e-08,0,5.7965e-05,2.1789e-05,4.7066e+07,20776,0,2.3466e+07,4963.9,188.7,1
644,0.73,12109,1,12109,1,3.9265e-07,-3.2409e-08,0,0.00010186,-7.2892e-08,1358.6,-11070,0,4.1272e+07,-500.52,12108,12432,1,12432,1,0.00019693,8.8671e-08,0,0.00019693,3.6768e-05,7.9367e+07,30242,0,7.9778e+07,8199.5,12431,12110,1,12110,1,3.8768e-07,-1.9099e-08,0,0.0001019,-7.2328e-08,1.51e+05,-6483.9,0,4.1323e+07,-526.97,12109,11763,1,11763,1,-0.00019614,-1.8111e-07,0,6.8841e-06,-3.6913e-05,-7.9778e+07,-61984,0,2.7999e+06,-8856.2,11762,11949,1,11949,1,-0.0001015,-6.8126e-08,0,5.0956e-05,-1.9192e-05,-4.1285e+07,-23276,0,2.0672e+07,-4613.8,11948,12271,1,12271,1,0.00010229,1.8318e-09,0,0.00015282,1.9047e-05,4.133e+07,624.65,0,6.1899e+07,3787.5,12270,188.7,0,188.7,0,0.00011763,5.6585e-08,0,5.869e-05,2.2061e-05,4.7649e+07,19331,0,2.3757e+07,4596.6,188.7,1
644,0.74,12109,1,12109,1,4.0455e-07,-7.2187e-08,0,0.00010313,-7.8318e-08,1507.1,-24654,0,4.1785e+07,-1861.7,12108,12432,1,12432,1,0.00019953,5.9353e-08,0,0.00019953,3.725e-05,8.0402e+07,20252,0,8.083e+07,7700.3,12431,12110,1,12110,1,3.993e-07,-5.3075e-08,0,0.0001032,-7.9043e-08,1.5535e+05,-18093,0,4.1848e+07,-1928.6,12109,11763,1,11763,1,-0.00019872,-2.6261e-07,0,6.9625e-06,-3.7399e-05,-8.083e+07,-89639,0,2.8322e+06,-12728,11762,11949,1,11949,1,-0.00010279,-1.2879e-07,0,5.1604e-05,-1.9445e-05,-4.1807e+07,-44085,0,2.0935e+07,-6806.1,11948,12271,1,12271,1,0.0001036,-1.1855e-08,0,0.00015476,1.9285e-05,4.1854e+07,-4044.3,0,6.2683e+07,3213.3,12270,188.7,0,188.7,0,0.0001191,7.63e-08,0,5.9419e-05,2.2337e-05,4.824e+07,26068,0,2.405e+07,5605.7,188.7,1
644,0.75,12109,1,12109,1,4.1988e-07,-4.36e-08,0,0.00010467,-8.1139e-08,2737.7,-14888,0,4.2406e+07,-1859.1,12108,12432,1,12432,1,0.00020241,9.0841e-08,0,0.00020241,3.7787e-05,8.1549e+07,31090,0,8.1992e+07,6903.6,12431,12110,1,12110,1,4.2494e-07,-2.7286e-08,0,0.00010472,-8.5182e-08,1.6543e+05,-9303.8,0,4.2462e+07,-1824.7,12109,11763,1,11763,1,-0.00020158,-2.1641e-07,0,7.0518e-06,-3.7941e-05,-8.1992e+07,-73871,0,2.8686e+06,-11534,11762,11949,1,11949,1,-0.0001043,-8.7324e-08,0,5.2372e-05,-1.973e-05,-4.2421e+07,-29797,0,2.1246e+07,-6491.5,11948,12271,1,12271,1,0.00010514,-2.2374e-10,0,0.00015704,1.957e-05,4.2472e+07,-76.717,0,6.3602e+07,3303.1,12270,188.7,0,188.7,0,0.00012087,6.7039e-08,0,6.0307e-05,2.267e-05,4.8956e+07,22904,0,2.4407e+07,5287.6,188.7,1
644,0.76,12109,1,12109,1,4.2895e-07,-3.0974e-08,0,0.00010619,-8.0739e-08,60.549,-10580,0,4.3017e+07,-1000.8,12108,12432,1,12432,1,0.00020533,1.0605e-07,0,0.00020533,3.8328e-05,8.2703e+07,36167,0,8.3162e+07,7478.5,12431,12110,1,12110,1,4.1884e-07,-1.5596e-08,0,0.00010623,-7.9734e-08,1.6327e+05,-5315.9,0,4.3073e+07,-941.45,12109,11763,1,11763,1,-0.00020446,-1.9981e-07,0,7.1558e-06,-3.8488e-05,-8.3162e+07,-68280,0,2.9106e+06,-10673,11762,11949,1,11949,1,-0.0001058,-7.252e-08,0,5.3119e-05,-2.0014e-05,-4.3031e+07,-24736,0,2.1549e+07,-5502.7,11948,12271,1,12271,1,0.00010666,8.9821e-09,0,0.00015931,1.9852e-05,4.3081e+07,3052.3,0,6.4513e+07,3817.5,12270,188.7,0,188.7,0,0.00012262,6.4672e-08,0,6.1182e-05,2.2999e-05,4.9661e+07,22089,0,2.4758e+07,5018.2,188.7,1
644,0.77,12109,1,12109,1,4.2784e-07,-2.1465e-08,0,0.00010677,-7.9183e-08,-5440.2,-7329,0,4.3246e+07,-450.28,12108,12432,1,12432,1,0.00020643,1.7323e-07,0,0.00020643,3.8536e-05,8.3128e+07,59128,0,8.3613e+07,11641,12431,12110,1,12110,1,4.2919e-07,-1.1198e-08,0,0.00010681,-7.8447e-08,1.6738e+05,-3818,0,4.3303e+07,-396.4,12109,11763,1,11763,1,-0.00020557,-2.294e-07,0,7.1953e-06,-3.8695e-05,-8.3613e+07,-78304,0,2.9267e+06,-14666,11762,11949,1,11949,1,-0.00010638,-7.6196e-08,0,5.3419e-05,-2.0125e-05,-4.3265e+07,-25970,0,2.1669e+07,-6825.4,11948,12271,1,12271,1,0.00010724,2.8321e-08,0,0.00016017,1.9971e-05,4.3307e+07,9700.4,0,6.4854e+07,6137.6,12270,188.7,0,188.7,0,0.00012329,8.5796e-08,0,6.151e-05,2.3127e-05,4.9924e+07,29303,0,2.4887e+07,7127,188.7,1
644,0.78,12109,1,12109,1,4.571e-07,1.6525e-09,0,0.00010864,-8.4169e-08,1752.7,563.78,0,4.4003e+07,-262.95,12108,12432,1,12432,1,0.00021001,1.6352e-07,0,0.00021001,3.9195e-05,8.4559e+07,55814,0,8.5046e+07,9943,12431,12110,1,12110,1,4.534e-07,4.6783e-10,0,0.00010867,-8.244e-08,1.7734e+05,160.24,0,4.4056e+07,-66.766,12109,11763,1,11763,1,-0.00020909,-1.574e-07,0,7.3027e-06,-3.9363e-05,-8.5046e+07,-53728,0,2.97e+06,-10397,11762,11949,1,11949,1,-0.00010821,-3.6774e-08,0,5.4348e-05,-2.0479e-05,-4.401e+07,-12545,0,2.2046e+07,-5281.6,11948,12271,1,12271,1,0.00010913,3.9145e-08,0,0.00016296,2.0308e-05,4.4067e+07,13297,0,6.5979e+07,4839.1,12270,188.7,0,188.7,0,0.00012545,6.5315e-08,0,6.2592e-05,2.3529e-05,5.0799e+07,22306,0,2.5323e+07,5527.9,188.7,1
644,0.79,12109,1,12109,1,4.7993e-07,-3.4043e-08,0,0.00011029,-8.6475e-08,3180,-11625,0,4.4667e+07,537.46,12108,12432,1,12432,1,0.00021326,1.4034e-07,0,0.00021326,3.9799e-05,8.5844e+07,47859,0,8.6357e+07,13169,12431,12110,1,12110,1,4.6812e-07,-1.8414e-08,0,0.00011033,-7.9166e-08,1.8383e+05,-6307,0,4.4726e+07,468.21,12109,11763,1,11763,1,-0.00021231,-2.2333e-07,0,7.3978e-06,-3.9974e-05,-8.6357e+07,-76230,0,3.0087e+06,-10560,11762,11949,1,11949,1,-0.00010985,-8.2881e-08,0,5.5176e-05,-2.0792e-05,-4.4678e+07,-28202,0,2.238e+07,-5235.5,11948,12271,1,12271,1,0.00011081,1.1683e-08,0,0.00016546,2.0622e-05,4.4739e+07,3986.5,0,6.698e+07,5526,12270,188.7,0,188.7,0,0.00012736,7.6315e-08,0,6.3543e-05,2.3888e-05,5.1565e+07,26060,0,2.5704e+07,6089,188.7,1
644,0.8,12109,1,12109,1,4.8749e-07,-5.9569e-08,0,0.00011165,-9.5224e-08,-1426.9,-20336,0,4.5211e+07,-2572.4,12108,12432,1,12432,1,0.00021598,1.0531e-07,0,0.00021598,4.0302e-05,8.6912e+07,35942,0,8.7446e+07,7747.2,12431,12110,1,12110,1,4.8753e-07,-4.3496e-08,0,0.0001117,-9.7925e-08,1.8984e+05,-14767,0,4.528e+07,-1897.4,12109,11763,1,11763,1,-0.00021499,-2.7018e-07,0,7.4844e-06,-4.0483e-05,-8.7446e+07,-92219,0,3.0447e+06,-16265,11762,11949,1,11949,1,-0.00011121,-1.2035e-07,0,5.5865e-05,-2.1054e-05,-4.5234e+07,-41203,0,2.2658e+07,-7823.8,11948,12271,1,12271,1,0.00011219,1.804e-09,0,0.00016752,2.0871e-05,4.5288e+07,614.55,0,6.7809e+07,3841.3,12270,188.7,0,188.7,0,0.00012893,8.5549e-08,0,6.4324e-05,2.4182e-05,5.2192e+07,29218,0,2.6016e+07,6642.7,188.7,1
644,0.81,12109,1,12109,1,5.0603e-07,-8.161e-08,0,0.00011321,-9.2204e-08,-127.45,-27861,0,4.584e+07,134.46,12108,12432,1,12432,1,0.00021906,6.9118e-08,0,0.00021906,4.0877e-05,8.813e+07,23590,0,8.8692e+07,14449,12431,12110,1,12110,1,5.0497e-07,-6.3114e-08,0,0.00011327,-9.1062e-08,1.9792e+05,-21564,0,4.5912e+07,18.373,12109,11763,1,11763,1,-0.00021805,-2.8382e-07,0,7.5817e-06,-4.106e-05,-8.8692e+07,-96873,0,3.0836e+06,-12250,11762,11949,1,11949,1,-0.00011276,-1.429e-07,0,5.665e-05,-2.1348e-05,-4.5864e+07,-48810,0,2.2977e+07,-5407.5,11948,12271,1,12271,1,0.00011377,-1.6851e-08,0,0.00016988,2.1164e-05,4.5921e+07,-5771.2,0,6.8753e+07,5600.5,12270,188.7,0,188.7,0,0.00013073,8.2671e-08,0,6.5226e-05,2.4521e-05,5.2919e+07,28236,0,2.6377e+07,6683.3,188.7,1
644,0.82,12109,1,12109,1,4.9506e-07,-4.5523e-08,0,0.00011434,-9.4932e-08,-11695,-15538,0,4.6294e+07,-1904.8,12108,12432,1,12432,1,0.00022115,1.131e-07,0,0.00022115,4.127e-05,8.8949e+07,38603,0,8.9544e+07,7639.3,12431,12110,1,12110,1,4.9502e-07,-2.7433e-08,0,0.00011439,-9.7334e-08,1.9316e+05,-9396.1,0,4.6363e+07,-1529.1,12109,11763,1,11763,1,-0.00022015,-2.4398e-07,0,7.6703e-06,-4.1453e-05,-8.9544e+07,-83275,0,3.1203e+06,-13743,11762,11949,1,11949,1,-0.00011389,-9.9212e-08,0,5.7208e-05,-2.1559e-05,-4.6324e+07,-33877,0,2.3202e+07,-7011.3,11948,12271,1,12271,1,0.00011489,5.2559e-09,0,0.00017155,2.1372e-05,4.6363e+07,1790.4,0,6.9427e+07,3949.5,12270,188.7,0,188.7,0,0.00013204,7.8745e-08,0,6.5878e-05,2.4765e-05,5.3441e+07,26891,0,2.6637e+07,5828.2,188.7,1
644,0.83,12109,1,12109,1,5.441e-07,-7.6846e-08,0,0.00011599,-1.0406e-07,1706.1,-26230,0,4.6958e+07,-1900.5,12108,12432,1,12432,1,0.00022444,4.7182e-08,0,0.00022444,4.187e-05,9.0256e+07,16160,0,9.0846e+07,6816.3,12431,12110,1,12110,1,5.4488e-07,-5.7103e-08,0,0.00011605,-1.0795e-07,2.1299e+05,-19558,0,4.7034e+07,-1467.9,12109,11763,1,11763,1,-0.00022335,-2.6966e-07,0,7.7373e-06,-4.207e-05,-9.0846e+07,-92039,0,3.1474e+06,-12938,11762,11949,1,11949,1,-0.0001155,-1.348e-07,0,5.8031e-05,-2.1876e-05,-4.6979e+07,-45864,0,2.3535e+07,-6162.6,11948,12271,1,12271,1,0.00011659,-1.4722e-08,0,0.00017404,2.1671e-05,4.7043e+07,-5015.6,0,7.0429e+07,3436.7,12270,188.7,0,188.7,0,0.00013394,7.7406e-08,0,6.6831e-05,2.5121e-05,5.4208e+07,26438,0,2.7019e+07,5349.8,188.7,1
644,0.84,12109,1,12109,1,5.5782e-07,1.9682e-09,0,0.00011749,-1.0676e-07,-837.21,675.01,0,4.7561e+07,-1989.1,12108,12432,1,12432,1,0.00022717,1.2781e-07,0,0.00022717,4.2385e-05,9.1326e+07,43715,0,9.1964e+07,6001,12431,12110,1,12110,1,5.6115e-07,-2.175e-10,0,0.00011751,-1.0824e-07,2.197e+05,-74.059,0,4.7621e+07,-1940.9,12109,11763,1,11763,1,-0.0002261,-1.3441e-07,0,7.8282e-06,-4.2582e-05,-9.1964e+07,-45876,0,3.1845e+06,-10311,11762,11949,1,11949,1,-0.00011695,-3.003e-08,0,5.877e-05,-2.2157e-05,-4.7569e+07,-10238,0,2.3835e+07,-5579,11948,12271,1,12271,1,0.00011807,3.6668e-08,0,0.00017625,2.1942e-05,4.7636e+07,12496,0,7.1306e+07,1817.5,12270,188.7,0,188.7,0,0.00013568,5.5016e-08,0,6.77e-05,2.5444e-05,5.4904e+07,18787,0,2.7366e+07,4461,188.7,1
644,0.85,12109,1,12109,1,5.6407e-07,6.0489e-08,0,0.00011851,-1.0395e-07,-4784.1,20646,0,4.797e+07,-334.97,12108,12432,1,12432,1,0.00022928,2.7483e-07,0,0.00022928,4.2771e-05,9.2147e+07,93801,0,9.2796e+07,10768,12431,12110,1,12110,1,5.6283e-07,3.8712e-08,0,0.00011857,-1.0135e-07,2.2127e+05,13198,0,4.8047e+07,-393.2,12109,11763,1,11763,1,-0.00022814,-7.5463e-08,0,7.9014e-06,-4.2979e-05,-9.2796e+07,-25757,0,3.2135e+06,-12987,11762,11949,1,11949,1,-0.000118,3.9006e-09,0,5.9302e-05,-2.236e-05,-4.7995e+07,1336,0,2.4049e+07,-5971.9,11948,12271,1,12271,1,0.00011914,1.1298e-07,0,0.00017781,2.2149e-05,4.8056e+07,38558,0,7.1934e+07,5444.1,12270,188.7,0,188.7,0,0.00013686,7.8862e-08,0,6.8284e-05,2.5669e-05,5.5374e+07,26927,0,2.7598e+07,6279.2,188.7,1
644,0.86,12109,1,12109,1,6.0227e-07,4.9824e-09,0,0.00011972,-1.0954e-07,5058.8,1700.4,0,4.8455e+07,306.65,12108,12432,1,12432,1,0.00023153,2.2908e-07,0,0.00023153,4.3179e-05,9.3036e+07,78186,0,9.368e+07,14118,12431,12110,1,12110,1,6.0012e-07,2.7663e-09,0,0.00011976,-1.0795e-07,2.362e+05,943.38,0,4.8527e+07,158.43,12109,11763,1,11763,1,-0.00023032,-1.9927e-07,0,7.9497e-06,-4.3402e-05,-9.368e+07,-68011,0,3.233e+06,-13643,11762,11949,1,11949,1,-0.00011916,-5.3233e-08,0,5.9898e-05,-2.259e-05,-4.8463e+07,-18134,0,2.4289e+07,-6710.7,11948,12271,1,12271,1,0.00012036,5.8274e-08,0,0.00017959,2.2371e-05,4.8546e+07,19895,0,7.2647e+07,7265,12270,188.7,0,188.7,0,0.00013825,8.9994e-08,0,6.8976e-05,2.5933e-05,5.5934e+07,30724,0,2.7875e+07,7558.1,188.7,1
644,0.87,12109,1,12109,1,6.1508e-07,-7.3615e-08,0,0.0001209,-1.1473e-07,3523,-25125,0,4.8929e+07,-894.55,12108,12432,1,12432,1,0.00023398,1.0336e-07,0,0.00023398,4.3633e-05,9.4001e+07,35276,0,9.467e+07,11103,12431,12110,1,12110,1,6.1146e-07,-5.6258e-08,0,0.00012096,-1.137e-07,2.4014e+05,-19058,0,4.9013e+07,-874.98,12109,11763,1,11763,1,-0.00023275,-2.8822e-07,0,8.0205e-06,-4.3858e-05,-9.467e+07,-98369,0,3.2623e+06,-16254,11762,11949,1,11949,1,-0.00012035,-1.3704e-07,0,6.0495e-05,-2.2812e-05,-4.8949e+07,-46787,0,2.4531e+07,-6270.4,11948,12271,1,12271,1,0.00012158,-1.0644e-08,0,0.00018141,2.2586e-05,4.9028e+07,-3623.2,0,7.3378e+07,5540.5,12270,188.7,0,188.7,0,0.00013961,8.7533e-08,0,6.9658e-05,2.6187e-05,5.648e+07,29890,0,2.8148e+07,6920.9,188.7,1
644,0.88,12109,1,12109,1,6.5124e-07,-6.3163e-08,0,0.00012297,-1.2203e-07,9323.4,-21553,0,4.976e+07,-1146.6,12108,12432,1,12432,1,0.00023797,1.1035e-07,0,0.00023797,4.4369e-05,9.5579e+07,37660,0,9.6272e+07,11428,12431,12110,1,12110,1,6.4741e-07,-4.2233e-08,0,0.00012302,-1.2229e-07,2.5458e+05,-14350,0,4.9844e+07,-1180.8,12109,11763,1,11763,1,-0.00023669,-2.7817e-07,0,8.1364e-06,-4.4605e-05,-9.6272e+07,-94966,0,3.3094e+06,-14167,11762,11949,1,11949,1,-0.00012238,-1.1916e-07,0,6.1529e-05,-2.3208e-05,-4.9775e+07,-40815,0,2.4949e+07,-7169.2,11948,12271,1,12271,1,0.00012367,-5.8875e-09,0,0.00018451,2.2964e-05,4.9867e+07,-2003.8,0,7.4619e+07,4978.1,12270,188.7,0,188.7,0,0.000142,8.5151e-08,0,7.0848e-05,2.6634e-05,5.7439e+07,29074,0,2.8625e+07,6635.3,188.7,1
644,0.89,12109,1,12109,1,6.5566e-07,-2.084e-08,0,0.0001245,-1.2467e-07,-39.63,-7109.6,0,5.0372e+07,-1950.5,12108,12432,1,12432,1,0.00024084,1.5381e-07,0,0.00024084,4.4904e-05,9.6693e+07,52506,0,9.7427e+07,8447.2,12431,12110,1,12110,1,6.5929e-07,-1.2031e-08,0,0.00012453,-1.2795e-07,2.5868e+05,-4120.8,0,5.045e+07,-1518.4,12109,11763,1,11763,1,-0.00023953,-2.1041e-07,0,8.2341e-06,-4.5143e-05,-9.7427e+07,-71806,0,3.3495e+06,-13598,11762,11949,1,11949,1,-0.00012388,-7.1599e-08,0,6.2284e-05,-2.3494e-05,-5.0385e+07,-24432,0,2.5253e+07,-6934.8,11948,12271,1,12271,1,0.00012519,2.4837e-08,0,0.00018677,2.3246e-05,5.0467e+07,8460.7,0,7.5522e+07,3836.9,12270,188.7,0,188.7,0,0.00014377,7.7959e-08,0,7.1735e-05,2.6965e-05,5.8146e+07,26616,0,2.8977e+07,6157,188.7,1
644,0.9,12109,1,12109,1,6.8326e-07,-6.2847e-08,0,0.00012567,-1.2845e-07,2896.3,-21442,0,5.0841e+07,-1396,12108,12432,1,12432,1,0.0002432,7.339e-08,0,0.0002432,4.5337e-05,9.7612e+07,25116,0,9.8366e+07,8427.7,12431,12110,1,12110,1,6.8531e-07,-4.3539e-08,0,0.00012573,-1.315e-07,2.6932e+05,-14908,0,5.093e+07,-1183.3,12109,11763,1,11763,1,-0.00024184,-2.6805e-07,0,8.2911e-06,-4.5586e-05,-9.8366e+07,-91474,0,3.3728e+06,-12380,11762,11949,1,11949,1,-0.00012504,-1.1625e-07,0,6.2874e-05,-2.372e-05,-5.0859e+07,-39644,0,2.5491e+07,-6993.7,11948,12271,1,12271,1,0.00012641,-5.0795e-09,0,0.00018856,2.3463e-05,5.0947e+07,-1730.6,0,7.6237e+07,4143.2,12270,188.7,0,188.7,0,0.00014512,7.8769e-08,0,7.2412e-05,2.7219e-05,5.8686e+07,26894,0,2.9245e+07,5722.8,188.7,1
644,0.91,12109,1,12109,1,7.0696e-07,-4.888e-08,0,0.00012697,-1.3504e-07,4755.2,-16676,0,5.1359e+07,-2326.2,12108,12432,1,12432,1,0.00024569,1.3453e-07,0,0.00024569,4.5795e-05,9.8588e+07,45856,0,9.9362e+07,9406.9,12431,12110,1,12110,1,7.0273e-07,-3.023e-08,0,0.00012701,-1.3681e-07,2.7601e+05,-10252,0,5.1448e+07,-1813.2,12109,11763,1,11763,1,-0.00024428,-2.5824e-07,0,8.3645e-06,-4.6053e-05,-9.9362e+07,-88124,0,3.4027e+06,-14495,11762,11949,1,11949,1,-0.00012631,-1.052e-07,0,6.3522e-05,-2.3967e-05,-5.1374e+07,-35874,0,2.5753e+07,-7951.2,11948,12271,1,12271,1,0.00012772,3.9725e-09,0,0.00019049,2.3699e-05,5.1468e+07,1359.6,0,7.7007e+07,3853.3,12270,188.7,0,188.7,0,0.00014662,8.4036e-08,0,7.3153e-05,2.7499e-05,5.9283e+07,28685,0,2.9541e+07,6359.3,188.7,1
644,0.92,12109,1,12109,1,7.1192e-07,-1.5304e-08,0,0.00012866,-1.3078e-07,-1871.2,-5221.9,0,5.2037e+07,-181.24,12108,12432,1,12432,1,0.00024889,1.7593e-07,0,0.00024889,4.6392e-05,9.9846e+07,59960,0,1.0066e+08,11326,12431,12110,1,12110,1,7.0619e-07,-9.4135e-09,0,0.00012869,-1.251e-07,2.7841e+05,-3202.3,0,5.2122e+07,-83.606,12109,11763,1,11763,1,-0.00024746,-2.1356e-07,0,8.4763e-06,-4.6653e-05,-1.0066e+08,-72873,0,3.4477e+06,-13069,11762,11949,1,11949,1,-0.00012797,-6.8109e-08,0,6.4357e-05,-2.4281e-05,-5.2051e+07,-23203,0,2.609e+07,-6008.2,11948,12271,1,12271,1,0.00012941,3.0271e-08,0,0.000193,2.4019e-05,5.2138e+07,10301,0,7.8012e+07,5895.7,12270,188.7,0,188.7,0,0.00014857,8.1714e-08,0,7.413e-05,2.7865e-05,6.0066e+07,27885,0,2.9931e+07,6356,188.7,1
644,0.93,12109,1,12109,1,7.5563e-07,-7.8694e-08,0,0.00013011,-1.4175e-07,5176.6,-26844,0,5.2617e+07,-1389.6,12108,12432,1,12432,1,0.00025189,3.8025e-08,0,0.00025189,4.6937e-05,1.0101e+08,13015,0,1.0184e+08,7330,12431,12110,1,12110,1,7.5259e-07,-5.861e-08,0,0.00013017,-1.4428e-07,2.9605e+05,-20074,0,5.2717e+07,-1118.8,12109,11763,1,11763,1,-0.00025037,-2.8109e-07,0,8.5377e-06,-4.7216e-05,-1.0184e+08,-95912,0,3.4727e+06,-11824,11762,11949,1,11949,1,-0.00012941,-1.3655e-07,0,6.5094e-05,-2.4562e-05,-5.2637e+07,-46688,0,2.6387e+07,-6043.9,11948,12271,1,12271,1,0.00013092,-1.1358e-08,0,0.00019522,2.4282e-05,5.2735e+07,-3852.1,0,7.8902e+07,3780,12270,188.7,0,188.7,0,0.00015024,7.9352e-08,0,7.4968e-05,2.8177e-05,6.0735e+07,27087,0,3.0264e+07,5223.1,188.7,1
644,0.94,12109,1,12109,1,7.6761e-07,-4.5651e-08,0,0.00013163,-1.4486e-07,207.57,-15569,0,5.3228e+07,-1794.8,12108,12432,1,12432,1,0.00025476,8.3727e-08,0,0.00025476,4.7468e-05,1.0213e+08,28653,0,1.0299e+08,6657.7,12431,12110,1,12110,1,7.7234e-07,-2.6932e-08,0,0.00013168,-1.4808e-07,3.0384e+05,-9162.7,0,5.3325e+07,-1927.6,12109,11763,1,11763,1,-0.00025321,-2.3438e-07,0,8.6283e-06,-4.7753e-05,-1.0299e+08,-79969,0,3.51e+06,-12259,11762,11949,1,11949,1,-0.00013091,-9.0607e-08,0,6.5853e-05,-2.485e-05,-5.3245e+07,-30950,0,2.6693e+07,-6514.9,11948,12271,1,12271,1,0.00013245,2.1768e-09,0,0.00019748,2.4562e-05,5.3342e+07,741.5,0,7.9807e+07,3214,12270,188.7,0,188.7,0,0.00015201,7.0327e-08,0,7.5848e-05,2.8507e-05,6.144e+07,24004,0,3.0614e+07,5159.9,188.7,1
644,0.95,12109,1,12109,1,7.9855e-07,-9.9229e-08,0,0.00013285,-1.4996e-07,3082.2,-33844,0,5.3715e+07,-1531.5,12108,12432,1,12432,1,0.00025726,4.3564e-08,0,0.00025726,4.7934e-05,1.031e+08,14861,0,1.04e+08,11082,12431,12110,1,12110,1,8.0079e-07,-8.0464e-08,0,0.00013291,-1.5198e-07,3.153e+05,-27560,0,5.3818e+07,-1646.1,12109,11763,1,11763,1,-0.00025568,-3.1648e-07,0,8.6858e-06,-4.8224e-05,-1.04e+08,-1.081e+05,0,3.5332e+06,-13534,11762,11949,1,11949,1,-0.00013211,-1.6619e-07,0,6.647e-05,-2.5091e-05,-5.3735e+07,-56596,0,2.6942e+07,-7533.9,11948,12271,1,12271,1,0.00013371,-2.4322e-08,0,0.00019934,2.4788e-05,5.3838e+07,-8218.8,0,8.0543e+07,3952.4,12270,188.7,0,188.7,0,0.00015342,8.9255e-08,0,7.6549e-05,2.8775e-05,6.2e+07,30472,0,3.0892e+07,6465.8,188.7,1
644,0.96,12109,1,12109,1,8.286e-07,-6.9433e-08,0,0.00013485,-1.5609e-07,4853.1,-23681,0,5.4515e+07,-1783.3,12108,12432,1,12432,1,0.00026109,7.8011e-08,0,0.00026109,4.8632e-05,1.0461e+08,26612,0,1.0551e+08,10751,12431,12110,1,12110,1,8.2825e-07,-5.0104e-08,0,0.00013491,-1.5806e-07,3.2612e+05,-17009,0,5.4622e+07,-1656.8,12109,11763,1,11763,1,-0.00025941,-2.6469e-07,0,8.7989e-06,-4.894e-05,-1.0551e+08,-90326,0,3.5789e+06,-16259,11762,11949,1,11949,1,-0.00013407,-1.2812e-07,0,6.7456e-05,-2.5464e-05,-5.453e+07,-43623,0,2.734e+07,-6415.7,11948,12271,1,12271,1,0.00013573,-1.0349e-08,0,0.00020231,2.5152e-05,5.4643e+07,-3525.2,0,8.1742e+07,3335.4,12270,188.7,0,188.7,0,0.00015572,7.9698e-08,0,7.77e-05,2.9205e-05,6.2924e+07,27206,0,3.1352e+07,6051.8,188.7,1
644,0.97,12109,1,12109,1,8.5048e-07,-6.3687e-08,0,0.00013562,-1.597e-07,2494.2,-21721,0,5.4817e+07,-1623.7,12108,12432,1,12432,1,0.00026257,5.6257e-08,0,0.00026257,4.891e-05,1.0516e+08,19190,0,1.0611e+08,6655.2,12431,12110,1,12110,1,8.5055e-07,-4.318e-08,0,0.00013567,-1.621e-07,3.3485e+05,-14780,0,5.4925e+07,-1373.7,12109,11763,1,11763,1,-0.00026088,-2.54e-07,0,8.8349e-06,-4.9219e-05,-1.0611e+08,-86650,0,3.5941e+06,-11339,11762,11949,1,11949,1,-0.00013482,-1.1763e-07,0,6.7847e-05,-2.5611e-05,-5.4838e+07,-39999,0,2.7496e+07,-6034,11948,12271,1,12271,1,0.00013652,-3.786e-09,0,0.00020348,2.5294e-05,5.4944e+07,-1286.6,0,8.219e+07,3218.9,12270,188.7,0,188.7,0,0.00015661,7.483e-08,0,7.8146e-05,2.937e-05,6.3272e+07,25539,0,3.1524e+07,4911.6,188.7,1
644,0.98,12109,1,12109,1,8.7242e-07,-7.7623e-08,0,0.00013721,-1.6496e-07,3528.5,-26468,0,5.5458e+07,-2137.9,12108,12432,1,12432,1,0.00026573,6.3428e-08,0,0.00026573,4.9486e-05,1.064e+08,21706,0,1.0737e+08,7732.5,12431,12110,1,12110,1,8.7239e-07,-5.4015e-08,0,0.00013728,-1.6944e-07,3.4336e+05,-18443,0,5.5574e+07,-1778.2,12109,11763,1,11763,1,-0.00026397,-2.8695e-07,0,8.9251e-06,-4.9808e-05,-1.0737e+08,-97886,0,3.6305e+06,-13741,11762,11949,1,11949,1,-0.00013641,-1.4075e-07,0,6.8647e-05,-2.5918e-05,-5.548e+07,-47947,0,2.7819e+07,-6723,11948,12271,1,12271,1,0.00013814,-1.2836e-08,0,0.00020588,2.5591e-05,5.5593e+07,-4365,0,8.3159e+07,3498.9,12270,188.7,0,188.7,0,0.00015845,8.4377e-08,0,7.9062e-05,2.9716e-05,6.4011e+07,28797,0,3.1891e+07,5891.8,188.7,1
644,0.99,12109,1,12109,1,9.0212e-07,-3.9279e-08,0,0.00013871,-1.6698e-07,4024.2,-13393,0,5.6054e+07,-696.43,12108,12432,1,12432,1,0.00026851,1.0778e-07,0,0.00026851,5.0004e-05,1.0748e+08,36763,0,1.0849e+08,8901.4,12431,12110,1,12110,1,9.006e-07,-2.4333e-08,0,0.00013875,-1.681e-07,3.5504e+05,-8253.2,0,5.6161e+07,-713.69,12109,11763,1,11763,1,-0.00026672,-2.1307e-07,0,9.0068e-06,-5.0331e-05,-1.0849e+08,-72731,0,3.6635e+06,-10968,11762,11949,1,11949,1,-0.00013785,-8.5521e-08,0,6.9388e-05,-2.6196e-05,-5.6068e+07,-28991,0,2.8118e+07,-5449.6,11948,12271,1,12271,1,0.00013965,3.1154e-09,0,0.0002081,2.5863e-05,5.6185e+07,1067.1,0,8.4031e+07,4102.3,12270,188.7,0,188.7,0,0.00016018,6.8974e-08,0,7.9925e-05,3.0039e-05,6.4698e+07,23534,0,3.2233e+07,5160.6,188.7,1
644,1,12109,1,12109,1,9.1997e-07,-8.1903e-08,0,0.00014018,-1.7375e-07,-186.25,-27925,0,5.664e+07,-2177.4,12108,12432,1,12432,1,0.00027148,3.6562e-08,0,0.00027148,5.055e-05,1.0863e+08,12454,0,1.0967e+08,7465.9,12431,12110,1,12110,1,9.1515e-07,-6.3086e-08,0,0.00014024,-1.7862e-07,3.603e+05,-21371,0,5.6761e+07,-1776.1,12109,11763,1,11763,1,-0.00026964,-2.7696e-07,0,9.0934e-06,-5.0887e-05,-1.0967e+08,-94465,0,3.6986e+06,-14160,11762,11949,1,11949,1,-0.00013932,-1.3915e-07,0,7.0122e-05,-2.6483e-05,-5.6664e+07,-47375,0,2.8413e+07,-6680.6,11948,12271,1,12271,1,0.00014115,-1.7353e-08,0,0.00021032,2.6134e-05,5.6778e+07,-5879.1,0,8.4925e+07,3151.4,12270,188.7,0,188.7,0,0.00016187,7.7698e-08,0,8.0773e-05,3.0357e-05,6.5374e+07,26517,0,3.2569e+07,5617.1,188.7,1
644,1.01,12109,1,12109,1,9.5712e-07,-3.6728e-08,0,0.00014157,-1.8158e-07,3367.3,-12521,0,5.7196e+07,-2589.1,12108,12432,1,12432,1,0.00027409,9.7978e-08,0,0.00027409,5.1027e-05,1.0964e+08,33527,0,1.1071e+08,6495.4,12431,12110,1,12110,1,9.5961e-07,-2.105e-08,0,0.00014161,-1.8811e-07,3.7777e+05,-7185,0,5.7309e+07,-2324.3,12109,11763,1,11763,1,-0.00027219,-2.1103e-07,0,9.1512e-06,-5.1376e-05,-1.1071e+08,-72072,0,3.7228e+06,-12808,11762,11949,1,11949,1,-0.00014065,-8.0429e-08,0,7.0817e-05,-2.6747e-05,-5.7208e+07,-27355,0,2.8693e+07,-7492.9,11948,12271,1,12271,1,0.00014257,6.8755e-09,0,0.00021239,2.6388e-05,5.7335e+07,2340,0,8.5741e+07,2759.6,12270,188.7,0,188.7,0,0.00016348,6.7307e-08,0,8.1577e-05,3.0659e-05,6.6015e+07,22966,0,3.2887e+07,5483.5,188.7,1
644,1.02,12109,1,12109,1,9.9548e-07,-4.6255e-08,0,0.00014331,-1.8595e-07,7189.6,-15765,0,5.7891e+07,-1446.3,12108,12432,1,12432,1,0.00027753,9.9108e-08,0,0.00027753,5.1656e-05,1.1098e+08,33834,0,1.1207e+08,8288.1,12431,12110,1,12110,1,9.9597e-07,-3.0372e-08,0,0.00014336,-1.8886e-07,3.9267e+05,-10290,0,5.8012e+07,-1423.9,12109,11763,1,11763,1,-0.00027554,-2.3735e-07,0,9.2369e-06,-5.202e-05,-1.1207e+08,-80943,0,3.7572e+06,-12164,11762,11949,1,11949,1,-0.00014236,-9.9927e-08,0,7.169e-05,-2.7081e-05,-5.7904e+07,-34023,0,2.9044e+07,-6323.2,11948,12271,1,12271,1,0.00014435,5.7628e-09,0,0.00021501,2.671e-05,5.804e+07,1973.9,0,8.6788e+07,3930.3,12270,188.7,0,188.7,0,0.00016549,7.6609e-08,0,8.2578e-05,3.1036e-05,6.6816e+07,26133,0,3.3285e+07,5476.5,188.7,1
644,1.03,12109,1,12109,1,1.0097e-06,-8.1881e-08,0,0.00014477,-1.8675e-07,-562,-27909,0,5.8472e+07,-723.69,12108,12432,1,12432,1,0.00028044,2.1516e-08,0,0.00028044,5.2196e-05,1.1209e+08,7243.4,0,1.1324e+08,7855.4,12431,12110,1,12110,1,1.0049e-06,-6.6349e-08,0,0.00014482,-1.8868e-07,3.9619e+05,-22602,0,5.8598e+07,-613.98,12109,11763,1,11763,1,-0.00027841,-2.5133e-07,0,9.3298e-06,-5.2567e-05,-1.1324e+08,-85705,0,3.7946e+06,-9591.3,11762,11949,1,11949,1,-0.00014381,-1.3633e-07,0,7.241e-05,-2.7353e-05,-5.8493e+07,-46534,0,2.9334e+07,-4364.4,11948,12271,1,12271,1,0.00014583,-1.914e-08,0,0.0002172,2.6977e-05,5.8617e+07,-6488.4,0,8.7663e+07,3481.1,12270,188.7,0,188.7,0,0.00016718,7.1704e-08,0,8.3424e-05,3.1351e-05,6.7487e+07,24467,0,3.3618e+07,4598.9,188.7,1
644,1.04,12109,1,12109,1,1.049e-06,-6.4349e-08,0,0.00014592,-1.9378e-07,4351.3,-21934,0,5.893e+07,-627.35,12108,12432,1,12432,1,0.00028266,6.1997e-08,0,0.00028266,5.2601e-05,1.1294e+08,21234,0,1.1412e+08,9141.3,12431,12110,1,12110,1,1.0469e-06,-4.3948e-08,0,0.00014599,-1.9437e-07,4.132e+05,-15013,0,5.9062e+07,-619.94,12109,11763,1,11763,1,-0.00028058,-2.6867e-07,0,9.371e-06,-5.2983e-05,-1.1412e+08,-91680,0,3.8115e+06,-10458,11762,11949,1,11949,1,-0.00014493,-1.2186e-07,0,7.2995e-05,-2.7581e-05,-5.8949e+07,-41384,0,2.9569e+07,-5769.9,11948,12271,1,12271,1,0.00014703,-2.7963e-09,0,0.00021894,2.7191e-05,5.9088e+07,-949.57,0,8.8348e+07,4235.4,12270,188.7,0,188.7,0,0.00016851,7.9581e-08,0,8.4088e-05,3.1602e-05,6.8014e+07,27147,0,3.3879e+07,5362.1,188.7,1
644,1.05,12109,1,12109,1,1.0701e-06,-2.0278e-08,0,0.00014767,-1.9841e-07,731.93,-6915.7,0,5.9629e+07,-956.05,12108,12432,1,12432,1,0.00028597,1.1074e-07,0,0.00028597,5.3209e-05,1.1423e+08,37759,0,1.1544e+08,6834.2,12431,12110,1,12110,1,1.0638e-06,-8.5979e-09,0,0.00014771,-1.9848e-07,4.1944e+05,-2921.1,0,5.9756e+07,-1098.9,12109,11763,1,11763,1,-0.00028381,-1.7157e-07,0,9.4808e-06,-5.3603e-05,-1.1544e+08,-58499,0,3.8563e+06,-9364.9,11762,11949,1,11949,1,-0.00014664,-5.8308e-08,0,7.3861e-05,-2.7907e-05,-5.9643e+07,-19911,0,2.9918e+07,-4951.8,11948,12271,1,12271,1,0.00014878,1.4485e-08,0,0.00022154,2.7509e-05,5.9781e+07,4961.2,0,8.9384e+07,3501.1,12270,188.7,0,188.7,0,0.00017053,5.9375e-08,0,8.5097e-05,3.1979e-05,6.8821e+07,20245,0,3.4281e+07,4474.8,188.7,1
644,1.06,12109,1,12109,1,1.1047e-06,-8.5596e-08,0,0.00014854,-2.0522e-07,2543.1,-29171,0,5.9971e+07,-1138.3,12108,12432,1,12432,1,0.00028783,4.8935e-08,0,0.00028783,5.3546e-05,1.1493e+08,16641,0,1.1617e+08,9082,12431,12110,1,12110,1,1.0985e-06,-6.1771e-08,0,0.00014861,-2.0745e-07,4.3302e+05,-21026,0,6.0113e+07,-713.85,12109,11763,1,11763,1,-0.00028561,-3.1568e-07,0,9.5057e-06,-5.3952e-05,-1.1617e+08,-1.0763e+05,0,3.8664e+06,-11696,11762,11949,1,11949,1,-0.0001475,-1.519e-07,0,7.4311e-05,-2.8086e-05,-5.9995e+07,-51898,0,3.0097e+07,-6454.9,11948,12271,1,12271,1,0.00014971,-1.0539e-08,0,0.00022287,2.7676e-05,6.0136e+07,-3577.3,0,8.9911e+07,4268.1,12270,188.7,0,188.7,0,0.00017154,9.0417e-08,0,8.5595e-05,3.217e-05,6.9213e+07,30840,0,3.4473e+07,5760.4,188.7,1
644,1.07,12109,1,12109,1,1.1238e-06,-2.8144e-08,0,0.00015002,-2.1074e-07,-44.371,-9592.3,0,6.0561e+07,-1995.6,12108,12432,1,12432,1,0.00029056,1.7719e-07,0,0.00029056,5.4052e-05,1.1599e+08,60406,0,1.1727e+08,10446,12431,12110,1,12110,1,1.1202e-06,-1.1881e-08,0,0.00015007,-2.1304e-07,4.4138e+05,-4000.2,0,6.0695e+07,-1807.7,12109,11763,1,11763,1,-0.00028831,-2.6616e-07,0,9.5913e-06,-5.4464e-05,-1.1727e+08,-90737,0,3.9014e+06,-15650,11762,11949,1,11949,1,-0.00014894,-9.1664e-08,0,7.5045e-05,-2.8367e-05,-6.0578e+07,-31299,0,3.0393e+07,-9046.8,11948,12271,1,12271,1,0.00015119,3.2138e-08,0,0.00022506,2.7948e-05,6.0723e+07,10920,0,9.0776e+07,4758.9,12270,188.7,0,188.7,0,0.00017324,9.6349e-08,0,8.6441e-05,3.2492e-05,6.9893e+07,32848,0,3.481e+07,7332.9,188.7,1
644,1.08,12109,1,12109,1,1.1668e-06,-1.4883e-08,0,0.00015195,-2.1894e-07,2859.7,-5068.6,0,6.1333e+07,-2117.7,12108,12432,1,12432,1,0.00029426,1.3175e-07,0,0.00029426,5.4737e-05,1.1743e+08,44843,0,1.1875e+08,6227,12431,12110,1,12110,1,1.1719e-06,-9.0061e-09,0,0.00015197,-2.2171e-07,4.6208e+05,-3037.2,0,6.1461e+07,-2214.3,12109,11763,1,11763,1,-0.00029196,-1.8569e-07,0,9.6802e-06,-5.5158e-05,-1.1875e+08,-63300,0,3.938e+06,-11361,11762,11949,1,11949,1,-0.0001508,-5.7664e-08,0,7.6e-05,-2.873e-05,-6.1338e+07,-19643,0,3.0777e+07,-6293.6,11948,12271,1,12271,1,0.00015315,2.7255e-08,0,0.00022794,2.8291e-05,6.1494e+07,9215.7,0,9.1923e+07,2430.1,12270,188.7,0,188.7,0,0.00017548,6.8998e-08,0,8.7565e-05,3.2906e-05,7.0785e+07,23523,0,3.5256e+07,4848,188.7,1
644,1.09,12109,1,12109,1,1.2084e-06,-2.7101e-08,0,0.00015381,-2.2474e-07,2102.1,-9233.7,0,6.2072e+07,-1350.2,12108,12432,1,12432,1,0.00029794,9.8786e-08,0,0.00029794,5.5407e-05,1.1884e+08,33620,0,1.2021e+08,6734.8,12431,12110,1,12110,1,1.2052e-06,-1.6502e-08,0,0.00015385,-2.2707e-07,4.7532e+05,-5576.3,0,6.2211e+07,-1338.1,12109,11763,1,11763,1,-0.00029554,-1.7143e-07,0,9.7755e-06,-5.5847e-05,-1.2021e+08,-58434,0,3.9762e+06,-10388,11762,11949,1,11949,1,-0.00015264,-6.6841e-08,0,7.6931e-05,-2.9083e-05,-6.2084e+07,-22830,0,3.1151e+07,-5396.3,11948,12271,1,12271,1,0.00015506,8.8668e-09,0,0.00023075,2.8635e-05,6.2242e+07,3037,0,9.3036e+07,3247.6,12270,188.7,0,188.7,0,0.00017762,5.8557e-08,0,8.8638e-05,3.3309e-05,7.1637e+07,19963,0,3.5678e+07,4677.4,188.7,1
644,1.1,12109,1,12109,1,1.2455e-06,-2.963e-08,0,0.00015467,-2.3186e-07,3148.3,-10089,0,6.2407e+07,-1475.2,12108,12432,1,12432,1,0.00029961,1.0342e-07,0,0.00029961,5.5704e-05,1.1945e+08,35384,0,1.2085e+08,7176.4,12431,12110,1,12110,1,1.2493e-06,-1.7558e-08,0,0.0001547,-2.3857e-07,4.9226e+05,-6013.9,0,6.2547e+07,-1358.1,12109,11763,1,11763,1,-0.00029712,-1.8205e-07,0,9.7936e-06,-5.6159e-05,-1.2085e+08,-62045,0,3.9849e+06,-13489,11762,11949,1,11949,1,-0.00015346,-6.746e-08,0,7.7363e-05,-2.9253e-05,-6.2416e+07,-23030,0,3.1323e+07,-5233.1,11948,12271,1,12271,1,0.00015595,5.9976e-09,0,0.00023203,2.879e-05,6.258e+07,2014.5,0,9.3532e+07,3186.1,12270,188.7,0,188.7,0,0.00017861,6.0074e-08,0,8.9132e-05,3.3494e-05,7.2022e+07,20482,0,3.5868e+07,5060.2,188.7,1
644,1.11,12109,1,12109,1,1.2751e-06,1.0336e-08,0,0.00015602,-2.3757e-07,4606.2,3515,0,6.2944e+07,-1585.3,12108,12432,1,12432,1,0.00030219,1.7391e-07,0,0.00030219,5.6179e-05,1.2045e+08,59174,0,1.2188e+08,8084.2,12431,12110,1,12110,1,1.2714e-06,5.2186e-09,0,0.00015603,-2.3997e-07,5.0133e+05,1754,0,6.3083e+07,-1478.3,12109,11763,1,11763,1,-0.00029966,-1.4653e-07,0,9.8674e-06,-5.6643e-05,-1.2188e+08,-49966,0,4.0135e+06,-13167,11762,11949,1,11949,1,-0.00015477,-3.0498e-08,0,7.8039e-05,-2.9516e-05,-6.2949e+07,-10330,0,3.1595e+07,-6366.7,11948,12271,1,12271,1,0.00015732,5.0177e-08,0,0.00023404,2.9037e-05,6.312e+07,17152,0,9.4329e+07,4023.4,12270,188.7,0,188.7,0,0.00018017,6.7013e-08,0,8.9907e-05,3.3787e-05,7.2642e+07,22837,0,3.6175e+07,5756.3,188.7,1
644,1.12,12109,1,12109,1,1.2991e-06,-3.274e-08,0,0.00015732,-2.4046e-07,1429,-11150,0,6.346e+07,-971.63,12108,12432,1,12432,1,0.00030479,1.0876e-07,0,0.00030479,5.6658e-05,1.2144e+08,37001,0,1.2292e+08,7137.2,12431,12110,1,12110,1,1.2958e-06,-1.6051e-08,0,0.00015735,-2.3955e-07,5.1134e+05,-5439.5,0,6.361e+07,-867.3,12109,11763,1,11763,1,-0.0003022,-2.0546e-07,0,9.9353e-06,-5.7131e-05,-1.2292e+08,-70013,0,4.0413e+06,-11401,11762,11949,1,11949,1,-0.00015606,-7.9056e-08,0,7.8688e-05,-2.9758e-05,-6.3473e+07,-26874,0,3.1855e+07,-5434,11948,12271,1,12271,1,0.00015866,1.0658e-08,0,0.00023601,2.9278e-05,6.3642e+07,3622.9,0,9.5112e+07,3790.6,12270,188.7,0,188.7,0,0.00018167,6.8762e-08,0,9.0656e-05,3.4068e-05,7.3236e+07,23432,0,3.647e+07,4935,188.7,1
644,1.13,12109,1,12109,1,1.3379e-06,-4.227e-08,0,0.00015848,-2.4949e-07,4493.7,-14396,0,6.3918e+07,-1755.5,12108,12432,1,12432,1,0.0003071,9.219e-08,0,0.0003071,5.7073e-05,1.2232e+08,31362,0,1.2382e+08,7391.3,12431,12110,1,12110,1,1.3345e-06,-2.5169e-08,0,0.00015852,-2.5351e-07,5.2615e+05,-8577.9,0,6.4075e+07,-1330.1,12109,11763,1,11763,1,-0.00030442,-2.2367e-07,0,9.9819e-06,-5.7564e-05,-1.2382e+08,-76213,0,4.0603e+06,-12179,11762,11949,1,11949,1,-0.00015719,-9.012e-08,0,7.9272e-05,-2.9986e-05,-6.3932e+07,-30725,0,3.2089e+07,-6932.7,11948,12271,1,12271,1,0.00015986,4.3667e-09,0,0.00023776,2.9489e-05,6.411e+07,1494.2,0,9.5802e+07,3486,12270,188.7,0,188.7,0,0.00018301,7.0129e-08,0,9.1324e-05,3.4319e-05,7.3764e+07,23903,0,3.6732e+07,5337.4,188.7,1
644,1.14,12109,1,12109,1,1.3756e-06,-1.0671e-08,0,0.00015978,-2.5516e-07,7458.2,-3625.5,0,6.4438e+07,-1222.8,12108,12432,1,12432,1,0.00030957,1.6543e-07,0,0.00030957,5.752e-05,1.2327e+08,56267,0,1.2479e+08,9264.3,12431,12110,1,12110,1,1.3762e-06,-9.9111e-09,0,0.00015981,-2.5723e-07,5.4289e+05,-3353.2,0,6.4589e+07,-1122.9,12109,11763,1,11763,1,-0.00030681,-1.8996e-07,0,1.0037e-05,-5.8024e-05,-1.2479e+08,-64723,0,4.0827e+06,-13425,11762,11949,1,11949,1,-0.00015843,-5.5123e-08,0,7.9921e-05,-3.024e-05,-6.444e+07,-18811,0,3.235e+07,-6615.1,11948,12271,1,12271,1,0.00016119,3.1659e-08,0,0.00023968,2.9729e-05,6.4631e+07,10843,0,9.6564e+07,4566.6,12270,188.7,0,188.7,0,0.00018452,7.3451e-08,0,9.2076e-05,3.4603e-05,7.4363e+07,25029,0,3.7029e+07,6058.8,188.7,1
644,1.15,12109,1,12109,1,1.3846e-06,-4.1785e-08,0,0.00016204,-2.527e-07,-5525.6,-14230,0,6.5337e+07,445.97,12108,12432,1,12432,1,0.00031403,9.2059e-08,0,0.00031403,5.8356e-05,1.25e+08,31366,0,1.2661e+08,10652,12431,12110,1,12110,1,1.3777e-06,-2.5245e-08,0,0.00016209,-2.5173e-07,5.4383e+05,-8634.6,0,6.5503e+07,202.09,12109,11763,1,11763,1,-0.00031127,-2.0787e-07,0,1.0189e-05,-5.886e-05,-1.2661e+08,-70819,0,4.1441e+06,-8139.3,11762,11949,1,11949,1,-0.0001607,-8.612e-08,0,8.1048e-05,-3.0659e-05,-6.5362e+07,-29078,0,3.2804e+07,-4629.4,11948,12271,1,12271,1,0.00016347,1.0357e-09,0,0.0002431,3.0149e-05,6.5528e+07,353.27,0,9.7927e+07,4923,12270,188.7,0,188.7,0,0.00018712,6.5123e-08,0,9.3377e-05,3.509e-05,7.54e+07,22194,0,3.7545e+07,5306,188.7,1
644,1.16,12109,1,12109,1,1.4423e-06,7.0996e-09,0,0.00016337,-2.6626e-07,-2041.2,2413.6,0,6.586e+07,-782.14,12108,12432,1,12432,1,0.00031653,1.5664e-07,0,0.00031653,5.8808e-05,1.2593e+08,53265,0,1.2758e+08,7403.1,12431,12110,1,12110,1,1.4386e-06,1.671e-09,0,0.00016339,-2.6691e-07,5.6748e+05,572.35,0,6.6018e+07,-1061.3,12109,11763,1,11763,1,-0.00031367,-1.3316e-07,0,1.0225e-05,-5.9331e-05,-1.2758e+08,-45374,0,4.159e+06,-9646.4,11762,11949,1,11949,1,-0.00016195,-2.8825e-08,0,8.1709e-05,-3.0917e-05,-6.5871e+07,-9818.4,0,3.3068e+07,-5150.3,11948,12271,1,12271,1,0.00016484,4.1972e-08,0,0.00024506,3.0384e-05,6.6052e+07,14277,0,9.869e+07,3798.4,12270,188.7,0,188.7,0,0.00018866,6.0005e-08,0,9.4148e-05,3.5378e-05,7.6002e+07,20440,0,3.7843e+07,4750,188.7,1
644,1.17,12109,1,12109,1,1.4825e-06,3.494e-08,0,0.00016441,-2.7188e-07,633.96,11888,0,6.6268e+07,-36.917,12108,12432,1,12432,1,0.00031865,2.3025e-07,0,0.00031865,5.9182e-05,1.2672e+08,78431,0,1.284e+08,10465,12431,12110,1,12110,1,1.4787e-06,1.749e-08,0,0.00016445,-2.6999e-07,5.8372e+05,5969.9,0,6.6438e+07,81.826,12109,11763,1,11763,1,-0.00031567,-1.169e-07,0,1.026e-05,-5.9728e-05,-1.284e+08,-39898,0,4.1732e+06,-10944,11762,11949,1,11949,1,-0.00016297,-1.2208e-08,0,8.2245e-05,-3.1123e-05,-6.6284e+07,-4135.2,0,3.3281e+07,-5432.2,11948,12271,1,12271,1,0.00016593,8.3002e-08,0,0.00024663,3.0582e-05,6.6474e+07,28247,0,9.931e+07,5340.2,12270,188.7,0,188.7,0,0.00018986,7.4683e-08,0,9.4742e-05,3.5603e-05,7.6471e+07,25433,0,3.8074e+07,5748.6,188.7,1
644,1.18,12109,1,12109,1,1.5216e-06,-3.5627e-08,0,0.00016583,-2.8306e-07,3088.5,-12129,0,6.6834e+07,-1711.8,12108,12432,1,12432,1,0.00032145,1.0934e-07,0,0.00032145,5.9694e-05,1.2779e+08,37173,0,1.2951e+08,7036.9,12431,12110,1,12110,1,1.5213e-06,-2.0938e-08,0,0.00016587,-2.8487e-07,6.0006e+05,-7053.8,0,6.7008e+07,-1474.1,12109,11763,1,11763,1,-0.0003184,-2.1426e-07,0,1.032e-05,-6.0251e-05,-1.2951e+08,-73066,0,4.198e+06,-12401,11762,11949,1,11949,1,-0.00016435,-8.4108e-08,0,8.2947e-05,-3.1397e-05,-6.6847e+07,-28808,0,3.3563e+07,-6099.3,11948,12271,1,12271,1,0.0001674,9.873e-09,0,0.00024878,3.0832e-05,6.7046e+07,3371.3,0,1.0016e+08,3342.5,12270,188.7,0,188.7,0,0.0001915,7.1451e-08,0,9.5566e-05,3.5911e-05,7.7124e+07,24341,0,3.8399e+07,5095.3,188.7,1
644,1.19,12109,1,12109,1,1.5321e-06,-1.9789e-08,0,0.00016708,-2.8541e-07,-8069.1,-6739.5,0,6.7325e+07,-1938.8,12108,12432,1,12432,1,0.00032383,1.1665e-07,0,0.00032383,6.0139e-05,1.2869e+08,39652,0,1.3047e+08,5995,12431,12110,1,12110,1,1.5303e-06,-7.5022e-09,0,0.00016711,-2.8821e-07,6.0311e+05,-2569.6,0,6.75e+07,-1764.9,12109,11763,1,11763,1,-0.00032077,-1.8035e-07,0,1.0402e-05,-6.0696e-05,-1.3047e+08,-61482,0,4.2313e+06,-10602,11762,11949,1,11949,1,-0.00016558,-6.185e-08,0,8.3565e-05,-3.1628e-05,-6.7346e+07,-21160,0,3.381e+07,-5793.4,11948,12271,1,12271,1,0.00016865,1.9802e-08,0,0.00025064,3.1059e-05,6.7529e+07,6774.5,0,1.0089e+08,2221.9,12270,188.7,0,188.7,0,0.00019294,6.3584e-08,0,9.6285e-05,3.6179e-05,7.7691e+07,21659,0,3.868e+07,4340.8,188.7,1
644,1.2,12109,1,12109,1,1.5814e-06,-2.1788e-08,0,0.00016813,-2.9036e-07,-1044.8,-7415,0,6.7741e+07,-189.87,12108,12432,1,12432,1,0.00032596,1.5775e-07,0,0.00032596,6.0514e-05,1.2949e+08,53616,0,1.3129e+08,11312,12431,12110,1,12110,1,1.5789e-06,-9.8339e-09,0,0.00016818,-2.925e-07,6.2285e+05,-3331,0,6.7923e+07,-550.55,12109,11763,1,11763,1,-0.00032278,-2.0803e-07,0,1.043e-05,-6.1093e-05,-1.3129e+08,-70839,0,4.2423e+06,-13982,11762,11949,1,11949,1,-0.0001666,-7.7088e-08,0,8.4104e-05,-3.1841e-05,-6.776e+07,-26229,0,3.4025e+07,-5613.1,11948,12271,1,12271,1,0.00016976,2.5576e-08,0,0.00025223,3.1263e-05,6.796e+07,8709,0,1.0151e+08,5681.9,12270,188.7,0,188.7,0,0.00019416,7.8939e-08,0,9.6891e-05,3.6411e-05,7.8169e+07,26883,0,3.8916e+07,6555.8,188.7,1
644,1.21,12109,1,12109,1,1.6343e-06,-8.615e-09,0,0.00016981,-3.045e-07,4987.4,-2934.1,0,6.8408e+07,-2029.9,12108,12432,1,12432,1,0.00032916,1.5053e-07,0,0.00032916,6.11e-05,1.3072e+08,51159,0,1.3256e+08,7193.6,12431,12110,1,12110,1,1.635e-06,-4.0018e-09,0,0.00016983,-3.0599e-07,6.4489e+05,-1338.6,0,6.8586e+07,-2033.7,12109,11763,1,11763,1,-0.0003259,-1.8628e-07,0,1.0489e-05,-6.1696e-05,-1.3256e+08,-63437,0,4.2668e+06,-13185,11762,11949,1,11949,1,-0.0001682,-5.3049e-08,0,8.4929e-05,-3.2164e-05,-6.8411e+07,-18097,0,3.4357e+07,-7312.6,11948,12271,1,12271,1,0.00017148,3.5405e-08,0,0.00025472,3.1556e-05,6.8632e+07,12022,0,1.025e+08,3464.1,12270,188.7,0,188.7,0,0.0001961,7.1678e-08,0,9.786e-05,3.6772e-05,7.8939e+07,24410,0,3.9298e+07,5551.3,188.7,1
644,1.22,12109,1,12109,1,1.679e-06,-9.6266e-08,0,0.00017125,-3.1097e-07,4773.9,-32752,0,6.8976e+07,-1296.6,12108,12432,1,12432,1,0.00033223,5.6002e-08,0,0.00033223,6.1657e-05,1.3188e+08,19031,0,1.3376e+08,11149,12431,12110,1,12110,1,1.6783e-06,-7.2781e-08,0,0.00017132,-3.1474e-07,6.6156e+05,-24849,0,6.9178e+07,-1161.1,12109,11763,1,11763,1,-0.00032887,-3.3645e-07,0,1.0551e-05,-6.2271e-05,-1.3376e+08,-1.1455e+05,0,4.2923e+06,-14144,11762,11949,1,11949,1,-0.00016964,-1.7451e-07,0,8.5674e-05,-3.2451e-05,-6.9e+07,-58910,0,3.4654e+07,-7067.2,11948,12271,1,12271,1,0.000173,-1.2589e-08,0,0.00025695,3.1827e-05,6.9219e+07,-4311.8,0,1.0338e+08,4585.8,12270,188.7,0,188.7,0,0.00019776,9.9505e-08,0,9.8688e-05,3.7087e-05,7.9592e+07,33898,0,3.9621e+07,6664.9,188.7,1
644,1.23,12109,1,12109,1,1.7135e-06,-5.1737e-08,0,0.00017291,-3.1739e-07,205.24,-17600,0,6.9633e+07,-1358.9,12108,12432,1,12432,1,0.00033534,8.4641e-08,0,0.00033534,6.2226e-05,1.3305e+08,28760,0,1.35e+08,7245.9,12431,12110,1,12110,1,1.7146e-06,-3.5377e-08,0,0.00017297,-3.2087e-07,6.7593e+05,-12017,0,6.9833e+07,-1289,12109,11763,1,11763,1,-0.00033191,-2.4059e-07,0,1.0635e-05,-6.2854e-05,-1.35e+08,-81937,0,4.3258e+06,-12233,11762,11949,1,11949,1,-0.00017125,-1.0252e-07,0,8.6489e-05,-3.2759e-05,-6.9651e+07,-34927,0,3.498e+07,-5609.6,11948,12271,1,12271,1,0.00017468,-8.4413e-11,0,0.00025941,3.2126e-05,6.9871e+07,-28.504,0,1.0435e+08,3661.7,12270,188.7,0,188.7,0,0.00019968,7.3483e-08,0,9.9649e-05,3.7443e-05,8.0349e+07,25030,0,3.9997e+07,5094.7,188.7,1
644,1.24,12109,1,12109,1,1.7729e-06,-2.1881e-08,0,0.00017474,-3.2889e-07,3838.6,-7439.8,0,7.0355e+07,-1600.1,12108,12432,1,12432,1,0.00033884,1.1554e-07,0,0.00033884,6.2865e-05,1.3438e+08,39252,0,1.3639e+08,6569.1,12431,12110,1,12110,1,1.7735e-06,-1.1206e-08,0,0.00017476,-3.321e-07,6.9914e+05,-3838.2,0,7.0549e+07,-1560.3,12109,11763,1,11763,1,-0.00033531,-1.791e-07,0,1.0703e-05,-6.3509e-05,-1.3639e+08,-60964,0,4.3544e+06,-11632,11762,11949,1,11949,1,-0.000173,-6.3739e-08,0,8.7402e-05,-3.3111e-05,-7.0366e+07,-21690,0,3.5346e+07,-5556.5,11948,12271,1,12271,1,0.00017654,1.7412e-08,0,0.00026213,3.2454e-05,7.0595e+07,5963.8,0,1.0542e+08,2866.1,12270,188.7,0,188.7,0,0.00020179,6.4008e-08,0,0.00010071,3.7838e-05,8.1183e+07,21790,0,4.0411e+07,4696.4,188.7,1
644,1.25,12109,1,12109,1,1.8202e-06,3.3059e-09,0,0.00017587,-3.3709e-07,3126.5,1121.6,0,7.0796e+07,-1397.3,12108,12432,1,12432,1,0.00034105,1.5631e-07,0,0.00034105,6.326e-05,1.3518e+08,53094,0,1.3724e+08,6772.9,12431,12110,1,12110,1,1.8151e-06,-6.198e-10,0,0.00017589,-3.3777e-07,7.1586e+05,-207.03,0,7.0994e+07,-1425.1,12109,11763,1,11763,1,-0.00033741,-1.429e-07,0,1.0745e-05,-6.3925e-05,-1.3724e+08,-48637,0,4.3704e+06,-10263,11762,11949,1,11949,1,-0.00017407,-3.4558e-08,0,8.7959e-05,-3.3331e-05,-7.08e+07,-11762,0,3.5567e+07,-5628.9,11948,12271,1,12271,1,0.00017772,3.927e-08,0,0.00026382,3.2655e-05,7.1041e+07,13326,0,1.0607e+08,2829.2,12270,188.7,0,188.7,0,0.0002031,6.2085e-08,0,0.00010136,3.8084e-05,8.169e+07,21128,0,4.0661e+07,4633,188.7,1
644,1.26,12109,1,12109,1,1.8412e-06,-3.2893e-08,0,0.00017724,-3.4193e-07,-3855.7,-11186,0,7.1337e+07,-1847.1,12108,12432,1,12432,1,0.00034375,1.2523e-07,0,0.00034375,6.3757e-05,1.3621e+08,42530,0,1.3832e+08,7493.8,12431,12110,1,12110,1,1.8363e-06,-1.7195e-08,0,0.00017727,-3.4452e-07,7.2379e+05,-5800,0,7.1544e+07,-1393.4,12109,11763,1,11763,1,-0.00034007,-2.1873e-07,0,1.0821e-05,-6.4429e-05,-1.3832e+08,-74439,0,4.4015e+06,-13128,11762,11949,1,11949,1,-0.00017543,-8.1014e-08,0,8.8648e-05,-3.3596e-05,-7.1355e+07,-27727,0,3.5843e+07,-7014.6,11948,12271,1,12271,1,0.00017912,1.2681e-08,0,0.00026588,3.2912e-05,7.1584e+07,4343.6,0,1.0689e+08,3826.6,12270,188.7,0,188.7,0,0.00020468,7.3817e-08,0,0.00010214,3.8381e-05,8.2313e+07,25125,0,4.0969e+07,5603.9,188.7,1
644,1.27,12109,1,12109,1,1.9073e-06,-7.8946e-08,0,0.00017838,-3.5432e-07,6165.7,-26835,0,7.1786e+07,-1916.5,12108,12432,1,12432,1,0.00034612,3.1859e-08,0,0.00034612,6.4177e-05,1.3709e+08,10843,0,1.3923e+08,6827.1,12431,12110,1,12110,1,1.9055e-06,-6.0165e-08,0,0.00017844,-3.5879e-07,7.5113e+05,-20461,0,7.2007e+07,-1772.8,12109,11763,1,11763,1,-0.00034231,-2.6625e-07,0,1.0833e-05,-6.4874e-05,-1.3923e+08,-90719,0,4.4065e+06,-12048,11762,11949,1,11949,1,-0.00017653,-1.2985e-07,0,8.9222e-05,-3.3823e-05,-7.1801e+07,-44278,0,3.6072e+07,-6490.1,11948,12271,1,12271,1,0.00018034,-2.1619e-08,0,0.00026762,3.3112e-05,7.2053e+07,-7243.9,0,1.0757e+08,2798.7,12270,188.7,0,188.7,0,0.000206,7.2541e-08,0,0.00010281,3.8628e-05,8.283e+07,24711,0,4.1226e+07,4898.2,188.7,1
644,1.28,12109,1,12109,1,1.9398e-06,-5.7858e-08,0,0.00017939,-3.6083e-07,4782.2,-19670,0,7.2181e+07,-2141.1,12108,12432,1,12432,1,0.00034807,1.3152e-07,0,0.00034807,6.4531e-05,1.3781e+08,44657,0,1.4e+08,10125,12431,12110,1,12110,1,1.9375e-06,-2.7973e-08,0,0.00017945,-3.613e-07,7.6393e+05,-9489.1,0,7.2406e+07,-1338.6,12109,11763,1,11763,1,-0.0003442,-3.1903e-07,0,1.0867e-05,-6.524e-05,-1.4e+08,-1.0855e+05,0,4.4208e+06,-18289,11762,11949,1,11949,1,-0.00017752,-1.2792e-07,0,8.9745e-05,-3.4028e-05,-7.2201e+07,-43364,0,3.6279e+07,-8996.5,11948,12271,1,12271,1,0.0001814,1.0874e-08,0,0.00026914,3.3308e-05,7.2455e+07,3724.6,0,1.0816e+08,4593.6,12270,188.7,0,188.7,0,0.00020716,1.0157e-07,0,0.00010338,3.885e-05,8.3283e+07,34564,0,4.1448e+07,7361.6,188.7,1
644,1.29,12109,1,12109,1,1.9732e-06,-3.1572e-09,0,0.00018095,-3.662e-07,2248.7,-1063.4,0,7.2801e+07,-1849.9,12108,12432,1,12432,1,0.00035099,1.6277e-07,0,0.00035099,6.507e-05,1.3892e+08,55382,0,1.4117e+08,8196.2,12431,12110,1,12110,1,1.9747e-06,-3.5336e-09,0,0.00018098,-3.7102e-07,7.7839e+05,-1187,0,7.3015e+07,-1791.1,12109,11763,1,11763,1,-0.00034707,-1.7101e-07,0,1.095e-05,-6.5786e-05,-1.4117e+08,-58193,0,4.4539e+06,-12339,11762,11949,1,11949,1,-0.000179,-4.4412e-08,0,9.0501e-05,-3.4316e-05,-7.2806e+07,-15211,0,3.6583e+07,-6943.2,11948,12271,1,12271,1,0.00018296,3.6072e-08,0,0.00027144,3.3582e-05,7.3065e+07,12238,0,1.0906e+08,3545.9,12270,188.7,0,188.7,0,0.00020897,6.9023e-08,0,0.00010429,3.9185e-05,8.3999e+07,23494,0,4.1804e+07,5635.9,188.7,1
644,1.3,12109,1,12109,1,2.0169e-06,-8.1719e-08,0,0.00018258,-3.7539e-07,-946.18,-27773,0,7.3441e+07,-2339.9,12108,12432,1,12432,1,0.00035438,1.0908e-07,0,0.00035438,6.5682e-05,1.402e+08,37353,0,1.425e+08,11031,12431,12110,1,12110,1,2.0178e-06,-5.9361e-08,0,0.00018266,-3.7943e-07,7.951e+05,-19895,0,7.3682e+07,-2617.8,12109,11763,1,11763,1,-0.00035034,-3.4085e-07,0,1.1021e-05,-6.642e-05,-1.425e+08,-1.1595e+05,0,4.4836e+06,-18671,11762,11949,1,11949,1,-0.00018063,-1.5961e-07,0,9.1335e-05,-3.4642e-05,-7.347e+07,-54199,0,3.6916e+07,-9846.2,11948,12271,1,12271,1,0.00018467,-4.9631e-11,0,0.00027393,3.3891e-05,7.3724e+07,-17.012,0,1.1005e+08,4742.8,12270,188.7,0,188.7,0,0.00021084,1.0574e-07,0,0.00010522,3.9541e-05,8.4735e+07,35990,0,4.2167e+07,7914.2,188.7,1
644,1.31,12109,1,12109,1,2.0732e-06,3.7014e-08,0,0.00018436,-3.8098e-07,-406.34,12580,0,7.4143e+07,-362.48,12108,12432,1,12432,1,0.00035771,2.369e-07,0,0.00035772,6.6299e-05,1.4146e+08,80402,0,1.4383e+08,11190,12431,12110,1,12110,1,2.0769e-06,1.7089e-08,0,0.0001844,-3.799e-07,8.1904e+05,5785.3,0,7.4374e+07,-449.77,12109,11763,1,11763,1,-0.00035361,-1.1334e-07,0,1.1091e-05,-6.7047e-05,-1.4383e+08,-38587,0,4.5113e+06,-10717,11762,11949,1,11949,1,-0.00018233,-1.0567e-08,0,9.2218e-05,-3.4972e-05,-7.4158e+07,-3619.4,0,3.7269e+07,-5697.2,11948,12271,1,12271,1,0.00018648,8.2668e-08,0,0.00027658,3.4213e-05,7.4425e+07,28252,0,1.1108e+08,5047.6,12270,188.7,0,188.7,0,0.0002129,7.4565e-08,0,0.00010625,3.9923e-05,8.5545e+07,25366,0,4.257e+07,5684.9,188.7,1
644,1.32,12109,1,12109,1,2.1236e-06,-7.8612e-09,0,0.00018573,-3.9458e-07,-2760,-2664.1,0,7.4677e+07,-2201.6,12108,12432,1,12432,1,0.00036036,1.1722e-07,0,0.00036036,6.6768e-05,1.4242e+08,40146,0,1.4485e+08,6197.5,12431,12110,1,12110,1,2.1275e-06,-4.5392e-09,0,0.00018575,-3.98e-07,8.3831e+05,-1540.7,0,7.4907e+07,-2174.1,12109,11763,1,11763,1,-0.00035612,-1.5616e-07,0,1.1133e-05,-6.7541e-05,-1.4485e+08,-53109,0,4.5293e+06,-11041,11762,11949,1,11949,1,-0.00018363,-4.4485e-08,0,9.2891e-05,-3.5232e-05,-7.4689e+07,-15127,0,3.7537e+07,-5904.4,11948,12271,1,12271,1,0.00018788,2.8191e-08,0,0.0002786,3.4444e-05,7.4954e+07,9655.3,0,1.1187e+08,1424.7,12270,188.7,0,188.7,0,0.00021448,5.9168e-08,0,0.00010705,4.0216e-05,8.6161e+07,20128,0,4.2876e+07,4126.4,188.7,1
644,1.33,12109,1,12109,1,2.1789e-06,3.6701e-09,0,0.00018744,-3.9695e-07,-820.85,1238.3,0,7.535e+07,1064.7,12108,12432,1,12432,1,0.00036371,1.6331e-07,0,0.00036371,6.7373e-05,1.4368e+08,55410,0,1.4616e+08,12686,12431,12110,1,12110,1,2.1731e-06,1.1451e-09,0,0.00018747,-3.9047e-07,8.5743e+05,386.95,0,7.559e+07,1099.6,12109,11763,1,11763,1,-0.00035934,-1.5299e-07,0,1.1208e-05,-6.817e-05,-1.4616e+08,-52046,0,4.5584e+06,-7679.7,11762,11949,1,11949,1,-0.00018529,-3.2386e-08,0,9.3751e-05,-3.5558e-05,-7.5362e+07,-10900,0,3.788e+07,-3961.2,11948,12271,1,12271,1,0.00018965,3.9602e-08,0,0.00028116,3.477e-05,7.5639e+07,13380,0,1.1288e+08,5741.9,12270,188.7,0,188.7,0,0.00021645,6.2849e-08,0,0.00010803,4.0587e-05,8.6936e+07,21362,0,4.3259e+07,5078.4,188.7,1
644,1.34,12109,1,12109,1,2.2144e-06,-6.845e-08,0,0.0001887,-4.0408e-07,-8539.7,-23254,0,7.5841e+07,777.21,12108,12432,1,12432,1,0.00036634,7.685e-08,0,0.00036634,6.7855e-05,1.4464e+08,26128,0,1.472e+08,12327,12431,12110,1,12110,1,2.2093e-06,-4.7695e-08,0,0.00018876,-4.0443e-07,8.7113e+05,-16035,0,7.61e+07,477.05,12109,11763,1,11763,1,-0.00036191,-2.8558e-07,0,1.1268e-05,-6.8661e-05,-1.472e+08,-97104,0,4.5824e+06,-10374,11762,11949,1,11949,1,-0.00018655,-1.2675e-07,0,9.4387e-05,-3.5812e-05,-7.5875e+07,-43153,0,3.8133e+07,-4839.4,11948,12271,1,12271,1,0.00019097,-6.049e-09,0,0.00028311,3.5003e-05,7.614e+07,-2049,0,1.1363e+08,6540.8,12270,188.7,0,188.7,0,0.00021791,8.3616e-08,0,0.00010875,4.0862e-05,8.7499e+07,28449,0,4.3536e+07,6238,188.7,1
644,1.35,12109,1,12109,1,2.2813e-06,-4.1363e-08,0,0.00019036,-4.1761e-07,-2111.8,-14057,0,7.6497e+07,269.9,12108,12432,1,12432,1,0.00036952,8.4e-08,0,0.00036952,6.8425e-05,1.4583e+08,28494,0,1.4845e+08,7350.8,12431,12110,1,12110,1,2.2756e-06,-2.4672e-08,0,0.00019041,-4.1526e-07,8.974e+05,-8339.3,0,7.6753e+07,644.07,12109,11763,1,11763,1,-0.00036496,-2.1498e-07,0,1.1316e-05,-6.9257e-05,-1.4845e+08,-73091,0,4.6026e+06,-8495.3,11762,11949,1,11949,1,-0.00018812,-8.5782e-08,0,9.521e-05,-3.6129e-05,-7.6515e+07,-28896,0,3.8461e+07,-4183.7,11948,12271,1,12271,1,0.00019269,2.2883e-09,0,0.00028558,3.5293e-05,7.6803e+07,774,0,1.146e+08,4757.4,12270,188.7,0,188.7,0,0.00021983,6.5278e-08,0,0.00010972,4.122e-05,8.8257e+07,22201,0,4.3913e+07,4506.9,188.7,1
644,1.36,12109,1,12109,1,2.3309e-06,-4.4312e-08,0,0.00019177,-4.2737e-07,-5184.2,-15054,0,7.7047e+07,-18.316,12108,12432,1,12432,1,0.00037232,8.5458e-08,0,0.00037232,6.8928e-05,1.4686e+08,28983,0,1.4953e+08,8201.9,12431,12110,1,12110,1,2.3301e-06,-2.855e-08,0,0.00019182,-4.2836e-07,9.1854e+05,-9654.6,0,7.731e+07,-30.954,12109,11763,1,11763,1,-0.00036764,-2.2528e-07,0,1.1366e-05,-6.9781e-05,-1.4953e+08,-76592,0,4.6231e+06,-9862.7,11762,11949,1,11949,1,-0.00018948,-9.3475e-08,0,9.5914e-05,-3.6401e-05,-7.7069e+07,-31834,0,3.8741e+07,-4046.7,11948,12271,1,12271,1,0.00019415,3.8247e-09,0,0.00028769,3.5548e-05,7.7357e+07,1289.2,0,1.1543e+08,4330.2,12270,188.7,0,188.7,0,0.00022146,7.1117e-08,0,0.00011053,4.1525e-05,8.889e+07,24188,0,4.4226e+07,4645.1,188.7,1
644,1.37,12109,1,12109,1,2.3921e-06,-6.9232e-08,0,0.00019312,-4.4198e-07,-1699.8,-23508,0,7.7575e+07,-1419.6,12108,12432,1,12432,1,0.00037502,4.9774e-08,0,0.00037502,6.9414e-05,1.4786e+08,16920,0,1.5059e+08,6293.6,12431,12110,1,12110,1,2.3936e-06,-5.1721e-08,0,0.00019318,-4.4537e-07,9.4323e+05,-17664,0,7.7847e+07,-1157.3,12109,11763,1,11763,1,-0.00037023,-2.4828e-07,0,1.14e-05,-7.0287e-05,-1.5059e+08,-84391,0,4.6375e+06,-11197,11762,11949,1,11949,1,-0.00019078,-1.2e-07,0,9.6594e-05,-3.667e-05,-7.7597e+07,-40718,0,3.9012e+07,-5323.5,11948,12271,1,12271,1,0.00019556,-1.417e-08,0,0.00028973,3.5788e-05,7.7897e+07,-4740,0,1.1622e+08,3322.4,12270,188.7,0,188.7,0,0.00022302,7.0072e-08,0,0.00011131,4.1817e-05,8.9497e+07,23840,0,4.4526e+07,4837.6,188.7,1
644,1.38,12109,1,12109,1,2.4525e-06,-5.7269e-08,0,0.00019461,-4.5612e-07,1117.1,-19444,0,7.8157e+07,-2695.5,12108,12432,1,12432,1,0.00037793,7.5491e-08,0,0.00037793,6.9935e-05,1.4894e+08,25851,0,1.5172e+08,6744,12431,12110,1,12110,1,2.4559e-06,-3.9138e-08,0,0.00019466,-4.6361e-07,9.6721e+05,-13127,0,7.8435e+07,-2362.6,12109,11763,1,11763,1,-0.00037302,-2.42e-07,0,1.1442e-05,-7.0831e-05,-1.5172e+08,-82372,0,4.6555e+06,-13981,11762,11949,1,11949,1,-0.0001922,-1.0768e-07,0,9.7335e-05,-3.6962e-05,-7.8175e+07,-36359,0,3.9307e+07,-6905.3,11948,12271,1,12271,1,0.00019711,-7.1266e-09,0,0.00029195,3.6051e-05,7.8489e+07,-2412.1,0,1.1709e+08,2273.1,12270,188.7,0,188.7,0,0.00022473,7.2166e-08,0,0.00011216,4.2138e-05,9.0168e+07,24553,0,4.4857e+07,5432.9,188.7,1
644,1.39,12109,1,12109,1,2.496e-06,-6.7854e-08,0,0.00019607,-4.6006e-07,-3961.5,-23044,0,7.8731e+07,-1015.8,12108,12432,1,12432,1,0.00038087,8.914e-08,0,0.00038087,7.0475e-05,1.5002e+08,30322,0,1.5289e+08,10506,12431,12110,1,12110,1,2.4927e-06,-4.9112e-08,0,0.00019615,-4.644e-07,9.8193e+05,-16715,0,7.902e+07,-1069.8,12109,11763,1,11763,1,-0.00037589,-2.7461e-07,0,1.151e-05,-7.1385e-05,-1.5289e+08,-93608,0,4.6818e+06,-12316,11762,11949,1,11949,1,-0.00019364,-1.3033e-07,0,9.8072e-05,-3.7251e-05,-7.8759e+07,-44285,0,3.96e+07,-6968.3,11948,12271,1,12271,1,0.00019864,-4.4692e-09,0,0.00029417,3.6327e-05,7.907e+07,-1510.3,0,1.1795e+08,4554.8,12270,188.7,0,188.7,0,0.00022643,8.4514e-08,0,0.00011301,4.2459e-05,9.0828e+07,28751,0,4.5183e+07,6365.4,188.7,1
644,1.4,12109,1,12109,1,2.5616e-06,-3.1081e-08,0,0.0001973,-4.754e-07,583.98,-10550,0,7.9207e+07,-2390,12108,12432,1,12432,1,0.00038317,1.1818e-07,0,0.00038317,7.0877e-05,1.5086e+08,40467,0,1.5377e+08,7399.6,12431,12110,1,12110,1,2.5652e-06,-1.5421e-08,0,0.00019734,-4.8164e-07,1.0103e+06,-5216,0,7.9492e+07,-2146.9,12109,11763,1,11763,1,-0.00037804,-2.1214e-07,0,1.1525e-05,-7.1814e-05,-1.5377e+08,-72201,0,4.6893e+06,-14283,11762,11949,1,11949,1,-0.00019478,-7.7458e-08,0,9.8678e-05,-3.7487e-05,-7.9222e+07,-26530,0,3.984e+07,-6791.1,11948,12271,1,12271,1,0.0001999,1.297e-08,0,0.00029597,3.6537e-05,7.9549e+07,4354.8,0,1.1865e+08,2652,12270,188.7,0,188.7,0,0.00022784,7.0714e-08,0,0.00011372,4.2721e-05,9.1376e+07,24047,0,4.5454e+07,5635.5,188.7,1
644,1.41,12109,1,12109,1,2.6249e-06,-6.9338e-08,0,0.00019902,-4.8663e-07,3602.9,-23532,0,7.9884e+07,-2219.8,12108,12432,1,12432,1,0.00038662,5.1991e-08,0,0.00038662,7.1504e-05,1.5215e+08,17614,0,1.5513e+08,6387.1,12431,12110,1,12110,1,2.624e-06,-4.9783e-08,0,0.00019908,-4.9134e-07,1.0336e+06,-17005,0,8.0179e+07,-2057.9,12109,11763,1,11763,1,-0.00038138,-2.6073e-07,0,1.1591e-05,-7.246e-05,-1.5513e+08,-88669,0,4.7151e+06,-12615,11762,11949,1,11949,1,-0.00019645,-1.2279e-07,0,9.9544e-05,-3.7821e-05,-7.9902e+07,-42057,0,4.0186e+07,-6273.2,11948,12271,1,12271,1,0.0002017,-1.1845e-08,0,0.00029858,3.6847e-05,8.024e+07,-3950,0,1.1967e+08,2201.9,12270,188.7,0,188.7,0,0.00022983,7.4565e-08,0,0.00011471,4.3093e-05,9.2157e+07,25362,0,4.5842e+07,4718.5,188.7,1
644,1.42,12109,1,12109,1,2.6876e-06,-5.5739e-08,0,0.00020027,-4.9685e-07,4094.3,-18923,0,8.0367e+07,-1675.3,12108,12432,1,12432,1,0.00038907,9.0572e-08,0,0.00038907,7.1937e-05,1.5303e+08,30635,0,1.5606e+08,8258,12431,12110,1,12110,1,2.6853e-06,-3.5457e-08,0,0.00020032,-4.9742e-07,1.0581e+06,-12088,0,8.0666e+07,-1585,12109,11763,1,11763,1,-0.00038369,-2.5679e-07,0,1.1612e-05,-7.292e-05,-1.5606e+08,-87230,0,4.7237e+06,-13224,11762,11949,1,11949,1,-0.00019763,-1.115e-07,0,0.00010017,-3.8067e-05,-8.0382e+07,-38178,0,4.0433e+07,-6578.3,11948,12271,1,12271,1,0.00020301,-4.7632e-10,0,0.00030044,3.7074e-05,8.073e+07,-159.47,0,1.2038e+08,3710.8,12270,188.7,0,188.7,0,0.00023127,7.9289e-08,0,0.00011543,4.3365e-05,9.2712e+07,26950,0,4.6115e+07,5475.1,188.7,1
644,1.43,12109,1,12109,1,2.7374e-06,-6.2072e-08,0,0.00020149,-5.0718e-07,3269.8,-21067,0,8.0846e+07,-2183.6,12108,12432,1,12432,1,0.00039149,7.9994e-08,0,0.00039149,7.2374e-05,1.5391e+08,27103,0,1.5701e+08,6814.5,12431,12110,1,12110,1,2.741e-06,-4.4912e-08,0,0.00020155,-5.1313e-07,1.0793e+06,-15167,0,8.115e+07,-1976.3,12109,11763,1,11763,1,-0.00038601,-2.5656e-07,0,1.165e-05,-7.3372e-05,-1.5701e+08,-87621,0,4.7401e+06,-13922,11762,11949,1,11949,1,-0.00019881,-1.1484e-07,0,0.00010078,-3.8305e-05,-8.0862e+07,-38793,0,4.0676e+07,-6759.7,11948,12271,1,12271,1,0.00020428,-7.8088e-09,0,0.00030229,3.7294e-05,8.1214e+07,-2628.4,0,1.211e+08,3131,12270,188.7,0,188.7,0,0.00023269,7.6221e-08,0,0.00011614,4.363e-05,9.3263e+07,25925,0,4.6388e+07,5330.3,188.7,1
644,1.44,12109,1,12109,1,2.7953e-06,-5.2885e-08,0,0.0002033,-5.1561e-07,2944.2,-17947,0,8.1558e+07,-1274.2,12108,12432,1,12432,1,0.00039505,6.4659e-08,0,0.00039505,7.3018e-05,1.5525e+08,22112,0,1.5841e+08,6924.4,12431,12110,1,12110,1,2.7926e-06,-3.4953e-08,0,0.00020336,-5.176e-07,1.1001e+06,-11972,0,8.1869e+07,-1369.7,12109,11763,1,11763,1,-0.00038946,-2.2892e-07,0,1.1724e-05,-7.4039e-05,-1.5841e+08,-77865,0,4.7691e+06,-10330,11762,11949,1,11949,1,-0.00020056,-1.0226e-07,0,0.00010168,-3.8653e-05,-8.1574e+07,-34422,0,4.1035e+07,-5298,11948,12271,1,12271,1,0.00020615,-2.887e-09,0,0.000305,3.762e-05,8.1933e+07,-972.75,0,1.2216e+08,2487.3,12270,188.7,0,188.7,0,0.00023478,6.8592e-08,0,0.00011719,4.4021e-05,9.4084e+07,23316,0,4.6795e+07,4435.3,188.7,1
644,1.45,12109,1,12109,1,2.8773e-06,-1.7249e-08,0,0.00020475,-5.2995e-07,8073.4,-5853.4,0,8.2117e+07,-956.55,12108,12432,1,12432,1,0.00039782,1.3664e-07,0,0.00039782,7.351e-05,1.5623e+08,46278,0,1.5948e+08,9176.1,12431,12110,1,12110,1,2.8794e-06,-1.0061e-08,0,0.00020478,-5.2843e-07,1.1346e+06,-3384.1,0,8.2426e+07,-1034.9,12109,11763,1,11763,1,-0.00039208,-1.8269e-07,0,1.1746e-05,-7.4557e-05,-1.5948e+08,-62118,0,4.778e+06,-9909.7,11762,11949,1,11949,1,-0.0002019,-5.7658e-08,0,0.0001024,-3.8936e-05,-8.2122e+07,-19376,0,4.1322e+07,-5447.1,11948,12271,1,12271,1,0.00020766,1.9208e-08,0,0.00030715,3.7877e-05,8.25e+07,6490.5,0,1.2298e+08,3771,12270,188.7,0,188.7,0,0.00023645,6.6227e-08,0,0.00011802,4.4334e-05,9.4727e+07,22493,0,4.7111e+07,4887.8,188.7,1
644,1.46,12109,1,12109,1,2.8984e-06,-8.8675e-08,0,0.00020589,-5.3448e-07,-6632.8,-30077,0,8.256e+07,-1296.1,12108,12432,1,12432,1,0.00040021,1.5748e-08,0,0.00040021,7.3948e-05,1.571e+08,5282.4,0,1.6042e+08,6018,12431,12110,1,12110,1,2.8944e-06,-7.1575e-08,0,0.00020595,-5.3674e-07,1.1398e+06,-24336,0,8.2886e+07,-1139.4,12109,11763,1,11763,1,-0.0003944,-2.6512e-07,0,1.1807e-05,-7.5006e-05,-1.6042e+08,-90068,0,4.8033e+06,-10497,11762,11949,1,11949,1,-0.00020305,-1.3982e-07,0,0.00010298,-3.9157e-05,-8.2587e+07,-47690,0,4.1547e+07,-5296.7,11948,12271,1,12271,1,0.00020884,-2.6241e-08,0,0.00030889,3.8088e-05,8.294e+07,-8987.5,0,1.2366e+08,3111.2,12270,188.7,0,188.7,0,0.00023777,7.0182e-08,0,0.00011868,4.4582e-05,9.5236e+07,23869,0,4.7363e+07,4490.4,188.7,1
644,1.47,12109,1,12109,1,2.9831e-06,-3.256e-08,0,0.00020734,-5.5354e-07,5363.5,-11041,0,8.3125e+07,-2726.4,12108,12432,1,12432,1,0.00040295,1.0706e-07,0,0.00040295,7.4431e-05,1.5811e+08,36350,0,1.6148e+08,6435.5,12431,12110,1,12110,1,2.9833e-06,-1.9428e-08,0,0.00020738,-5.5694e-07,1.1747e+06,-6619.2,0,8.3448e+07,-2610.5,12109,11763,1,11763,1,-0.000397,-2.0134e-07,0,1.1824e-05,-7.5518e-05,-1.6148e+08,-68578,0,4.8104e+06,-13022,11762,11949,1,11949,1,-0.00020439,-7.4326e-08,0,0.0001037,-3.9445e-05,-8.3134e+07,-25391,0,4.1834e+07,-7280.7,11948,12271,1,12271,1,0.00021037,7.2072e-09,0,0.00031104,3.8336e-05,8.3521e+07,2428,0,1.2449e+08,1603.8,12270,188.7,0,188.7,0,0.00023944,6.5202e-08,0,0.00011951,4.4893e-05,9.5887e+07,22155,0,4.7685e+07,4828.8,188.7,1
644,1.48,12109,1,12109,1,3.0343e-06,-8.0663e-08,0,0.0002087,-5.5931e-07,1202.1,-27357,0,8.3651e+07,-1218.6,12108,12432,1,12432,1,0.00040573,6.2738e-08,0,0.00040573,7.4929e-05,1.5912e+08,21239,0,1.6255e+08,10127,12431,12110,1,12110,1,3.0261e-06,-5.487e-08,0,0.00020876,-5.6085e-07,1.1917e+06,-18555,0,8.3992e+07,-986.18,12109,11763,1,11763,1,-0.00039964,-2.9799e-07,0,1.1876e-05,-7.6039e-05,-1.6255e+08,-1.0133e+05,0,4.8308e+06,-12977,11762,11949,1,11949,1,-0.00020572,-1.3921e-07,0,0.00010438,-3.9713e-05,-8.3673e+07,-47057,0,4.2105e+07,-6555.9,11948,12271,1,12271,1,0.00021179,-1.7758e-08,0,0.0003131,3.8592e-05,8.4059e+07,-6039.4,0,1.2529e+08,4480.8,12270,188.7,0,188.7,0,0.000241,8.4008e-08,0,0.00012029,4.519e-05,9.6492e+07,28553,0,4.7983e+07,6278.2,188.7,1
644,1.49,12109,1,12109,1,3.0915e-06,-2.6558e-08,0,0.00020975,-5.7301e-07,1457.7,-9011.8,0,8.4059e+07,-2559.8,12108,12432,1,12432,1,0.00040776,1.7013e-07,0,0.00040776,7.5292e-05,1.5983e+08,57705,0,1.6333e+08,9731,12431,12110,1,12110,1,3.0954e-06,-8.9803e-09,0,0.00020981,-5.7759e-07,1.2184e+06,-3076.3,0,8.4402e+07,-2347,12109,11763,1,11763,1,-0.00040157,-2.4301e-07,0,1.1887e-05,-7.6422e-05,-1.6333e+08,-82738,0,4.8362e+06,-15980,11762,11949,1,11949,1,-0.00020671,-8.8674e-08,0,0.00010491,-3.9925e-05,-8.4077e+07,-30168,0,4.2315e+07,-8873.3,11948,12271,1,12271,1,0.0002129,2.8507e-08,0,0.00031467,3.8781e-05,8.4471e+07,9763.8,0,1.2589e+08,3776.5,12270,188.7,0,188.7,0,0.00024223,8.9886e-08,0,0.0001209,4.5421e-05,9.6961e+07,30521,0,4.8214e+07,6882,188.7,1
644,1.5,12109,1,12109,1,3.1464e-06,5.0132e-09,0,0.00021148,-5.7967e-07,112.35,1702.3,0,8.4738e+07,-1140.8,12108,12432,1,12432,1,0.00041103,1.9994e-07,0,0.00041103,7.5887e-05,1.6106e+08,67892,0,1.6463e+08,11167,12431,12110,1,12110,1,3.1464e-06,-7.0487e-10,0,0.00021152,-5.8474e-07,1.2392e+06,-236.9,0,8.508e+07,-934.3,12109,11763,1,11763,1,-0.00040475,-1.7411e-07,0,1.1957e-05,-7.7035e-05,-1.6463e+08,-59351,0,4.8647e+06,-14508,11762,11949,1,11949,1,-0.00020837,-4.2908e-08,0,0.00010576,-4.0258e-05,-8.475e+07,-14470,0,4.2654e+07,-6957.1,11948,12271,1,12271,1,0.00021467,4.9598e-08,0,0.00031723,3.9094e-05,8.515e+07,16759,0,1.269e+08,4952.3,12270,188.7,0,188.7,0,0.00024422,7.8334e-08,0,0.0001219,4.5794e-05,9.7744e+07,26601,0,4.8601e+07,6699.4,188.7,1
644,1.51,12109,1,12109,1,3.2198e-06,-2.4796e-08,0,0.0002129,-5.9578e-07,-48.896,-8409,0,8.5286e+07,-2261.1,12108,12432,1,12432,1,0.00041391,1.2574e-07,0,0.00041391,7.6395e-05,1.6208e+08,42627,0,1.6573e+08,6845,12431,12110,1,12110,1,3.2194e-06,-1.0451e-08,0,0.00021294,-6.0067e-07,1.2671e+06,-3506,0,8.5635e+07,-2082.1,12109,11763,1,11763,1,-0.00040746,-2.0652e-07,0,1.1984e-05,-7.7573e-05,-1.6573e+08,-70159,0,4.8753e+06,-13322,11762,11949,1,11949,1,-0.00020971,-7.1124e-08,0,0.00010648,-4.053e-05,-8.5298e+07,-24218,0,4.2935e+07,-6959.4,11948,12271,1,12271,1,0.00021617,1.8897e-08,0,0.00031938,3.9341e-05,8.5709e+07,6467.5,0,1.2772e+08,2854,12270,188.7,0,188.7,0,0.00024586,7.1293e-08,0,0.00012272,4.6099e-05,9.8375e+07,24205,0,4.8914e+07,5384,188.7,1
644,1.52,12109,1,12109,1,3.2912e-06,-7.2558e-09,0,0.00021415,-6.0594e-07,3691.1,-2469.5,0,8.5766e+07,-1002.5,12108,12432,1,12432,1,0.00041637,2.1681e-07,0,0.00041637,7.6829e-05,1.6296e+08,73341,0,1.6668e+08,11922,12431,12110,1,12110,1,3.2927e-06,-2.5613e-09,0,0.00021419,-6.0813e-07,1.2963e+06,-877.27,0,8.6121e+07,-617.24,12109,11763,1,11763,1,-0.00040978,-2.3265e-07,0,1.2002e-05,-7.803e-05,-1.6668e+08,-79415,0,4.8827e+06,-16295,11762,11949,1,11949,1,-0.00021089,-7.0624e-08,0,0.00010711,-4.0783e-05,-8.5777e+07,-24146,0,4.3184e+07,-8060,11948,12271,1,12271,1,0.00021748,4.8341e-08,0,0.00032124,3.9573e-05,8.62e+07,16382,0,1.2843e+08,6318.1,12270,188.7,0,188.7,0,0.0002473,9.5658e-08,0,0.00012344,4.6373e-05,9.8926e+07,32459,0,4.9183e+07,7743.5,188.7,1
644,1.53,12109,1,12109,1,3.3599e-06,-1.4982e-08,0,0.00021614,-6.1791e-07,2563.7,-5081.8,0,8.6547e+07,-755.39,12108,12432,1,12432,1,0.00042028,1.7054e-07,0,0.00042028,7.7536e-05,1.6441e+08,57858,0,1.6821e+08,12202,12431,12110,1,12110,1,3.3543e-06,-5.4598e-09,0,0.00021618,-6.1873e-07,1.3207e+06,-1833.9,0,8.6911e+07,-650.93,12109,11763,1,11763,1,-0.00041355,-2.133e-07,0,1.2082e-05,-7.8766e-05,-1.6821e+08,-72555,0,4.915e+06,-13593,11762,11949,1,11949,1,-0.00021281,-6.6206e-08,0,0.0001081,-4.1165e-05,-8.6558e+07,-22571,0,4.3577e+07,-7017.4,11948,12271,1,12271,1,0.00021954,3.17e-08,0,0.00032422,3.9929e-05,8.6987e+07,10707,0,1.296e+08,5443.6,12270,188.7,0,188.7,0,0.0002496,8.1041e-08,0,0.00012459,4.6802e-05,9.9825e+07,27496,0,4.9629e+07,6802.9,188.7,1
644,1.54,12109,1,12109,1,3.43e-06,-5.81e-09,0,0.00021751,-6.3144e-07,-2246.2,-1969.6,0,8.7073e+07,-1066.9,12108,12432,1,12432,1,0.00042296,1.3126e-07,0,0.00042296,7.8015e-05,1.6534e+08,44518,0,1.6924e+08,7225.8,12431,12110,1,12110,1,3.4307e-06,-4.0291e-09,0,0.00021754,-6.3396e-07,1.3505e+06,-1347.1,0,8.7438e+07,-1342.3,12109,11763,1,11763,1,-0.00041609,-1.4817e-07,0,1.2103e-05,-7.9265e-05,-1.6924e+08,-50625,0,4.9235e+06,-10212,11762,11949,1,11949,1,-0.0002141,-4.1691e-08,0,0.00010878,-4.1428e-05,-8.7082e+07,-13998,0,4.3846e+07,-5449.8,11948,12271,1,12271,1,0.00022097,2.8998e-08,0,0.00032627,4.0164e-05,8.7515e+07,9649.3,0,1.3037e+08,3469.9,12270,188.7,0,188.7,0,0.00025119,5.8494e-08,0,0.00012539,4.7096e-05,1.0043e+08,19854,0,4.9929e+07,4738.9,188.7,1
644,1.55,12109,1,12109,1,3.5012e-06,1.2493e-08,0,0.00021855,-6.4551e-07,1764.5,4238.1,0,8.7471e+07,-1461.8,12108,12432,1,12432,1,0.00042506,1.9677e-07,0,0.00042506,7.8387e-05,1.6609e+08,66735,0,1.7005e+08,11128,12431,12110,1,12110,1,3.5042e-06,1.3063e-09,0,0.00021859,-6.4571e-07,1.3793e+06,439.48,0,8.7849e+07,-1339,12109,11763,1,11763,1,-0.00041807,-1.5311e-07,0,1.2105e-05,-7.9663e-05,-1.7005e+08,-52058,0,4.9247e+06,-12809,11762,11949,1,11949,1,-0.00021508,-2.9276e-08,0,0.00010931,-4.1641e-05,-8.7482e+07,-9834.1,0,4.4054e+07,-7161.4,11948,12271,1,12271,1,0.00022209,5.7865e-08,0,0.00032784,4.0356e-05,8.793e+07,19546,0,1.3098e+08,4216.4,12270,188.7,0,188.7,0,0.00025239,7.2803e-08,0,0.00012599,4.7323e-05,1.0089e+08,24695,0,5.0153e+07,6036.1,188.7,1
644,1.56,12109,1,12109,1,3.5682e-06,9.7293e-09,0,0.00021992,-6.5814e-07,5244,3307.4,0,8.8003e+07,-1601.1,12108,12432,1,12432,1,0.00042775,1.7411e-07,0,0.00042775,7.8868e-05,1.6707e+08,59138,0,1.711e+08,8951.9,12431,12110,1,12110,1,3.5706e-06,4.4055e-09,0,0.00021995,-6.6399e-07,1.4057e+06,1494.7,0,8.8384e+07,-1830.4,12109,11763,1,11763,1,-0.00042065,-1.578e-07,0,1.2138e-05,-8.0165e-05,-1.711e+08,-53909,0,4.938e+06,-11684,11762,11949,1,11949,1,-0.00021637,-2.9151e-08,0,0.00010998,-4.1911e-05,-8.8007e+07,-9905,0,4.4321e+07,-6804.7,11948,12271,1,12271,1,0.00022352,5.4505e-08,0,0.00032989,4.0592e-05,8.847e+07,18450,0,1.3177e+08,3091.1,12270,188.7,0,188.7,0,0.00025397,7.0088e-08,0,0.00012678,4.7617e-05,1.015e+08,23790,0,5.0457e+07,5609,188.7,1
644,1.57,12109,1,12109,1,3.646e-06,-4.0798e-08,0,0.00022164,-6.7061e-07,6863.9,-13807,0,8.8673e+07,-840.43,12108,12432,1,12432,1,0.00043122,1.2082e-07,0,0.00043122,7.9481e-05,1.6833e+08,40842,0,1.7243e+08,9540,12431,12110,1,12110,1,3.6386e-06,-2.7259e-08,0,0.00022169,-6.7175e-07,1.4321e+06,-9190.8,0,8.9066e+07,-918.09,12109,11763,1,11763,1,-0.00042392,-2.2867e-07,0,1.2191e-05,-8.0815e-05,-1.7243e+08,-77522,0,4.9592e+06,-13418,11762,11949,1,11949,1,-0.00021804,-9.0886e-08,0,0.00011085,-4.2245e-05,-8.8683e+07,-30600,0,4.4666e+07,-5787.6,11948,12271,1,12271,1,0.00022533,4.8298e-09,0,0.00033249,4.0905e-05,8.9154e+07,1609.5,0,1.3277e+08,4368.7,12270,188.7,0,188.7,0,0.00025595,7.4129e-08,0,0.00012777,4.799e-05,1.0227e+08,25145,0,5.0837e+07,5696.1,188.7,1
644,1.58,12109,1,12109,1,3.713e-06,2.2591e-08,0,0.00022286,-6.828e-07,3132.7,7663.9,0,8.9139e+07,-813.57,12108,12432,1,12432,1,0.00043357,2.1168e-07,0,0.00043357,7.9908e-05,1.6915e+08,72247,0,1.7335e+08,9816.5,12431,12110,1,12110,1,3.7149e-06,8.6747e-09,0,0.00022289,-6.8823e-07,1.4625e+06,2928.2,0,8.9536e+07,-721.64,12109,11763,1,11763,1,-0.00042618,-1.393e-07,0,1.2203e-05,-8.1254e-05,-1.7335e+08,-47513,0,4.9646e+06,-11352,11762,11949,1,11949,1,-0.00021918,-2.2815e-08,0,0.00011146,-4.2489e-05,-8.9147e+07,-7639.6,0,4.4904e+07,-6366,11948,12271,1,12271,1,0.00022661,7.0444e-08,0,0.00033431,4.1121e-05,8.9624e+07,23826,0,1.3346e+08,4657.4,12270,188.7,0,188.7,0,0.00025736,7.499e-08,0,0.00012847,4.8255e-05,1.0281e+08,25449,0,5.11e+07,5891.3,188.7,1
644,1.59,12109,1,12109,1,3.7707e-06,-1.9854e-08,0,0.00022429,-6.9574e-07,-913.69,-6710.4,0,8.9691e+07,-1817.7,12108,12432,1,12432,1,0.00043643,2.1623e-07,0,0.00043643,8.0412e-05,1.7017e+08,73290,0,1.7444e+08,10738,12431,12110,1,12110,1,3.7704e-06,-1.3666e-08,0,0.00022433,-6.9942e-07,1.4832e+06,-4626.4,0,9.0099e+07,-1654.1,12109,11763,1,11763,1,-0.00042888,-2.4373e-07,0,1.2246e-05,-8.1789e-05,-1.7444e+08,-82602,0,4.982e+06,-18427,11762,11949,1,11949,1,-0.00022055,-8.3911e-08,0,0.00011217,-4.2775e-05,-8.9707e+07,-28416,0,4.5186e+07,-8641.9,11948,12271,1,12271,1,0.00022811,3.2063e-08,0,0.00033645,4.1381e-05,9.0183e+07,10780,0,1.3429e+08,5073.3,12270,188.7,0,188.7,0,0.00025901,9.662e-08,0,0.00012929,4.8567e-05,1.0344e+08,32765,0,5.1412e+07,7703.7,188.7,1
644,1.6,12109,1,12109,1,3.8558e-06,1.0909e-08,0,0.00022592,-7.1128e-07,2619.7,3677.7,0,9.0326e+07,-1784.5,12108,12432,1,12432,1,0.00043959,1.8726e-07,0,0.00043959,8.0977e-05,1.7132e+08,63257,0,1.7567e+08,7596.7,12431,12110,1,12110,1,3.8544e-06,8.212e-09,0,0.00022595,-7.1486e-07,1.5166e+06,2697.2,0,9.0736e+07,-1503,12109,11763,1,11763,1,-0.00043189,-1.6125e-07,0,1.2281e-05,-8.2384e-05,-1.7567e+08,-55079,0,4.9964e+06,-13795,11762,11949,1,11949,1,-0.00022209,-3.5196e-08,0,0.00011298,-4.3091e-05,-9.0331e+07,-11802,0,4.5507e+07,-6753.3,11948,12271,1,12271,1,0.00022981,5.5165e-08,0,0.00033889,4.1664e-05,9.0825e+07,18793,0,1.3523e+08,3664.8,12270,188.7,0,188.7,0,0.0002609,7.3051e-08,0,0.00013024,4.8917e-05,1.0417e+08,24770,0,5.1775e+07,5524.1,188.7,1
644,1.61,12109,1,12109,1,3.9321e-06,5.0113e-09,0,0.00022753,-7.2502e-07,-796.19,1695.8,0,9.0947e+07,-1694.1,12108,12432,1,12432,1,0.00044278,1.84e-07,0,0.00044278,8.1548e-05,1.7245e+08,62350,0,1.769e+08,7669,12431,12110,1,12110,1,3.9329e-06,7.2201e-11,0,0.00022756,-7.2743e-07,1.5472e+06,24.87,0,9.1364e+07,-1698.4,12109,11763,1,11763,1,-0.00043493,-1.5751e-07,0,1.2313e-05,-8.2978e-05,-1.769e+08,-53486,0,5.0095e+06,-12019,11762,11949,1,11949,1,-0.00022363,-3.7618e-08,0,0.0001138,-4.3405e-05,-9.0959e+07,-12647,0,4.5829e+07,-6865,11948,12271,1,12271,1,0.0002315,4.4468e-08,0,0.00034131,4.1954e-05,9.1452e+07,14999,0,1.3615e+08,3760.3,12270,188.7,0,188.7,0,0.00026276,7.0334e-08,0,0.00013117,4.9266e-05,1.0489e+08,23846,0,5.2128e+07,5507,188.7,1
644,1.62,12109,1,12109,1,4.0061e-06,-7.5859e-09,0,0.00022912,-7.3718e-07,-4459.7,-2558.2,0,9.1558e+07,-1123.8,12108,12432,1,12432,1,0.00044596,1.4172e-07,0,0.00044596,8.2112e-05,1.7358e+08,47909,0,1.7813e+08,7071.3,12431,12110,1,12110,1,4.0056e-06,-2.1234e-09,0,0.00022915,-7.39e-07,1.5755e+06,-712.76,0,9.1986e+07,-1053,12109,11763,1,11763,1,-0.00043794,-1.6495e-07,0,1.2355e-05,-8.3574e-05,-1.7813e+08,-55875,0,5.0265e+06,-11290,11762,11949,1,11949,1,-0.00022514,-4.8677e-08,0,0.00011458,-4.371e-05,-9.1572e+07,-16388,0,4.6137e+07,-5361.4,11948,12271,1,12271,1,0.00023316,2.9608e-08,0,0.0003437,4.2233e-05,9.2071e+07,10003,0,1.3707e+08,3288.4,12270,188.7,0,188.7,0,0.00026459,6.5102e-08,0,0.00013209,4.9608e-05,1.0559e+08,22066,0,5.2475e+07,4758.9,188.7,1
644,1.63,12109,1,12109,1,4.0993e-06,-8.8735e-09,0,0.00023036,-7.5608e-07,1073,-3005.8,0,9.2029e+07,-1856.6,12108,12432,1,12432,1,0.00044843,1.5258e-07,0,0.00044843,8.2537e-05,1.7443e+08,51612,0,1.7905e+08,7215.7,12431,12110,1,12110,1,4.1e-06,-3.746e-09,0,0.00023039,-7.5933e-07,1.6127e+06,-1254.4,0,9.2464e+07,-1643,12109,11763,1,11763,1,-0.00044021,-1.8317e-07,0,1.2348e-05,-8.4035e-05,-1.7905e+08,-62307,0,5.0237e+06,-12601,11762,11949,1,11949,1,-0.00022628,-5.7003e-08,0,0.0001152,-4.3963e-05,-9.2035e+07,-19015,0,4.638e+07,-6932.7,11948,12271,1,12271,1,0.0002345,3.4694e-08,0,0.00034554,4.2448e-05,9.2558e+07,11666,0,1.3777e+08,3535.2,12270,188.7,0,188.7,0,0.00026602,7.3097e-08,0,0.00013281,4.9877e-05,1.0613e+08,24775,0,5.2741e+07,5337.6,188.7,1
644,1.64,12109,1,12109,1,4.1706e-06,-2.7091e-08,0,0.00023161,-7.6868e-07,2232,-9156.3,0,9.2512e+07,-1655.6,12108,12432,1,12432,1,0.00045097,1.1604e-07,0,0.00045097,8.2991e-05,1.7533e+08,39730,0,1.8004e+08,7056.4,12431,12110,1,12110,1,4.1737e-06,-1.0774e-08,0,0.00023166,-7.7292e-07,1.6415e+06,-3641.1,0,9.296e+07,-1480.8,12109,11763,1,11763,1,-0.00044263,-2.1142e-07,0,1.2368e-05,-8.4512e-05,-1.8004e+08,-71594,0,5.0318e+06,-11128,11762,11949,1,11949,1,-0.00022748,-7.2115e-08,0,0.00011584,-4.4212e-05,-9.2526e+07,-24458,0,4.663e+07,-6548.5,11948,12271,1,12271,1,0.00023583,1.7783e-08,0,0.00034745,4.2674e-05,9.3054e+07,6055,0,1.385e+08,3595.3,12270,188.7,0,188.7,0,0.00026747,7.0295e-08,0,0.00013353,5.0148e-05,1.0669e+08,23832,0,5.3015e+07,5235.7,188.7,1
644,1.65,12109,1,12109,1,4.2531e-06,8.4802e-09,0,0.0002331,-7.7907e-07,5592.8,2857.5,0,9.3088e+07,341.39,12108,12432,1,12432,1,0.00045384,2.0537e-07,0,0.00045384,8.3501e-05,1.7636e+08,69525,0,1.8114e+08,12250,12431,12110,1,12110,1,4.2532e-06,1.3872e-09,0,0.00023314,-7.7671e-07,1.6734e+06,475.01,0,9.3542e+07,227.34,12109,11763,1,11763,1,-0.00044534,-1.6538e-07,0,1.2395e-05,-8.5049e-05,-1.8114e+08,-56221,0,5.0427e+06,-10575,11762,11949,1,11949,1,-0.00022889,-3.7278e-08,0,0.00011659,-4.4504e-05,-9.3095e+07,-12516,0,4.6925e+07,-5213,11948,12271,1,12271,1,0.00023739,5.2746e-08,0,0.00034966,4.2949e-05,9.364e+07,17780,0,1.3935e+08,5881.2,12270,188.7,0,188.7,0,0.00026919,7.6301e-08,0,0.00013439,5.0472e-05,1.0735e+08,25845,0,5.3341e+07,6123.8,188.7,1
644,1.66,12109,1,12109,1,4.3116e-06,-6.9161e-08,0,0.00023441,-7.9005e-07,-2621.3,-23391,0,9.3588e+07,193.73,12108,12432,1,12432,1,0.00045659,6.6137e-08,0,0.00045659,8.3994e-05,1.7732e+08,22389,0,1.8221e+08,11251,12431,12110,1,12110,1,4.3113e-06,-4.8502e-08,0,0.00023448,-7.9197e-07,1.6955e+06,-15917,0,9.4058e+07,121.13,12109,11763,1,11763,1,-0.00044797,-2.7151e-07,0,1.2429e-05,-8.5564e-05,-1.8221e+08,-92499,0,5.0569e+06,-10883,11762,11949,1,11949,1,-0.00023016,-1.2744e-07,0,0.00011724,-4.4762e-05,-9.3614e+07,-43094,0,4.7184e+07,-4878.9,11948,12271,1,12271,1,0.00023878,-7.2001e-09,0,0.00035168,4.3179e-05,9.4148e+07,-2466.2,0,1.4011e+08,5331.2,12270,188.7,0,188.7,0,0.00027071,7.986e-08,0,0.00013515,5.0755e-05,1.0793e+08,27090,0,5.3625e+07,5811.9,188.7,1
644,1.67,12109,1,12109,1,4.388e-06,-4.1712e-08,0,0.00023543,-8.1225e-07,-460.93,-14115,0,9.3974e+07,-3224.5,12108,12432,1,12432,1,0.00045859,1.2165e-07,0,0.00045859,8.4333e-05,1.7799e+08,41043,0,1.8295e+08,6879.4,12431,12110,1,12110,1,4.3872e-06,-1.9134e-08,0,0.00023549,-8.1693e-07,1.7243e+06,-6529.7,0,9.4447e+07,-3372.3,12109,11763,1,11763,1,-0.00044979,-2.5495e-07,0,1.2425e-05,-8.5937e-05,-1.8295e+08,-86630,0,5.0554e+06,-15296,11762,11949,1,11949,1,-0.00023109,-1.0222e-07,0,0.00011775,-4.4974e-05,-9.3991e+07,-34124,0,4.7379e+07,-8992.1,11948,12271,1,12271,1,0.00023988,1.3641e-08,0,0.00035318,4.335e-05,9.4543e+07,4567.1,0,1.4068e+08,2758.1,12270,188.7,0,188.7,0,0.00027188,8.5146e-08,0,0.00013574,5.0976e-05,1.0837e+08,28853,0,5.3843e+07,6068.3,188.7,1
644,1.68,12109,1,12109,1,4.4677e-06,-2.5751e-08,0,0.00023692,-8.2412e-07,4319,-8722.6,0,9.455e+07,-2058,12108,12432,1,12432,1,0.0004615,1.5619e-07,0,0.0004615,8.485e-05,1.7905e+08,52682,0,1.8407e+08,9424.8,12431,12110,1,12110,1,4.4643e-06,-1.0753e-08,0,0.00023697,-8.2627e-07,1.7548e+06,-3535.4,0,9.5027e+07,-1641.1,12109,11763,1,11763,1,-0.00045255,-2.4063e-07,0,1.2455e-05,-8.6483e-05,-1.8407e+08,-81900,0,5.0672e+06,-13974,11762,11949,1,11949,1,-0.00023249,-8.3406e-08,0,0.00011849,-4.5265e-05,-9.4561e+07,-28459,0,4.7673e+07,-8290.8,11948,12271,1,12271,1,0.00024144,2.7198e-08,0,0.0003554,4.3615e-05,9.513e+07,9315.1,0,1.4153e+08,4182.8,12270,188.7,0,188.7,0,0.00027359,8.6754e-08,0,0.00013659,5.1297e-05,1.0903e+08,29389,0,5.417e+07,6375.4,188.7,1
644,1.69,12109,1,12109,1,4.5379e-06,-7.4306e-08,0,0.00023793,-8.3972e-07,1393,-25126,0,9.493e+07,-3212,12108,12432,1,12432,1,0.0004636,7.9162e-08,0,0.0004636,8.5219e-05,1.7975e+08,26701,0,1.8487e+08,6732.8,12431,12110,1,12110,1,4.541e-06,-5.3135e-08,0,0.000238,-8.4777e-07,1.7841e+06,-17682,0,9.5422e+07,-3202.2,12109,11763,1,11763,1,-0.00045452,-3.0405e-07,0,1.2452e-05,-8.6875e-05,-1.8487e+08,-1.0328e+05,0,5.0675e+06,-13882,11762,11949,1,11949,1,-0.00023345,-1.3756e-07,0,0.00011901,-4.5471e-05,-9.4953e+07,-46651,0,4.7874e+07,-8657.9,11948,12271,1,12271,1,0.00024253,-7.3922e-09,0,0.00035695,4.3792e-05,9.5521e+07,-2457.2,0,1.4211e+08,2515.5,12270,188.7,0,188.7,0,0.00027476,8.9353e-08,0,0.00013718,5.1515e-05,1.0947e+08,30299,0,5.4384e+07,5736.6,188.7,1
644,1.7,12109,1,12109,1,4.6029e-06,-4.0112e-08,0,0.00023963,-8.5178e-07,-1968.4,-13559,0,9.5593e+07,-3282.6,12108,12432,1,12432,1,0.00046689,1.5649e-07,0,0.00046689,8.5809e-05,1.8095e+08,52874,0,1.8616e+08,8459.2,12431,12110,1,12110,1,4.6016e-06,-1.8994e-08,0,0.00023969,-8.5607e-07,1.8079e+06,-6336.6,0,9.6088e+07,-2857.9,12109,11763,1,11763,1,-0.00045767,-2.8243e-07,0,1.2509e-05,-8.7489e-05,-1.8616e+08,-95594,0,5.0899e+06,-16795,11762,11949,1,11949,1,-0.00023507,-1.0384e-07,0,0.00011985,-4.5804e-05,-9.5612e+07,-34852,0,4.8207e+07,-10119,11948,12271,1,12271,1,0.00024429,1.977e-08,0,0.00035948,4.4098e-05,9.6187e+07,6603.8,0,1.4309e+08,3613.6,12270,188.7,0,188.7,0,0.00027673,9.5056e-08,0,0.00013816,5.1885e-05,1.1023e+08,32194,0,5.476e+07,7053.6,188.7,1
644,1.71,12109,1,12109,1,4.7732e-06,-3.5404e-08,0,0.00024074,-8.7618e-07,7399.9,-11951,0,9.5985e+07,-599.41,12108,12432,1,12432,1,0.00046916,1.0227e-07,0,0.00046916,8.6176e-05,1.8164e+08,35023,0,1.8694e+08,8235.1,12431,12110,1,12110,1,4.7758e-06,-1.8008e-08,0,0.00024079,-8.7855e-07,1.8756e+06,-6051,0,9.6489e+07,-890.8,12109,11763,1,11763,1,-0.00045961,-2.125e-07,0,1.2408e-05,-8.7917e-05,-1.8694e+08,-72183,0,5.0485e+06,-9449.7,11762,11949,1,11949,1,-0.00023601,-7.9449e-08,0,0.00012039,-4.6027e-05,-9.5994e+07,-26525,0,4.8401e+07,-5037.5,11948,12271,1,12271,1,0.00024556,7.2616e-09,0,0.00036114,4.4275e-05,9.6592e+07,2434.8,0,1.4368e+08,4023.9,12270,188.7,0,188.7,0,0.00027802,6.749e-08,0,0.00013881,5.2123e-05,1.1069e+08,22846,0,5.4989e+07,4787,188.7,1
644,1.72,12109,1,12109,1,4.8439e-06,-8.5756e-08,0,0.00024273,-8.8772e-07,2015.2,-28965,0,9.6758e+07,-29.381,12108,12432,1,12432,1,0.00047316,4.1958e-08,0,0.00047316,8.6899e-05,1.8311e+08,14062,0,1.8851e+08,12789,12431,12110,1,12110,1,4.839e-06,-6.7376e-08,0,0.00024279,-8.849e-07,1.8978e+06,-23012,0,9.7276e+07,-321.68,12109,11763,1,11763,1,-0.00046347,-2.838e-07,0,1.2495e-05,-8.8666e-05,-1.8851e+08,-96180,0,5.0835e+06,-10222,11762,11949,1,11949,1,-0.00023794,-1.4469e-07,0,0.0001214,-4.6416e-05,-9.678e+07,-48516,0,4.8796e+07,-5199.9,11948,12271,1,12271,1,0.00024763,-1.857e-08,0,0.00036415,4.4637e-05,9.7374e+07,-6228.4,0,1.4485e+08,4496.1,12270,188.7,0,188.7,0,0.00028031,7.91e-08,0,0.00013995,5.2553e-05,1.1157e+08,26785,0,5.5428e+07,5447.7,188.7,1
644,1.73,12109,1,12109,1,4.9619e-06,-6.2282e-08,0,0.00024373,-9.1464e-07,5294,-21016,0,9.7123e+07,-2261.2,12108,12432,1,12432,1,0.00047521,1.1158e-07,0,0.00047521,8.7239e-05,1.8374e+08,38197,0,1.8925e+08,9599.5,12431,12110,1,12110,1,4.9647e-06,-3.8055e-08,0,0.0002438,-9.1779e-07,1.9457e+06,-12801,0,9.7652e+07,-1932.3,12109,11763,1,11763,1,-0.00046528,-3.1041e-07,0,1.2442e-05,-8.9048e-05,-1.8925e+08,-1.0487e+05,0,5.063e+06,-16662,11762,11949,1,11949,1,-0.00023884,-1.2894e-07,0,0.00012191,-4.6638e-05,-9.7144e+07,-43291,0,4.8991e+07,-8981,11948,12271,1,12271,1,0.00024876,4.5851e-09,0,0.00036566,4.481e-05,9.7757e+07,1570.4,0,1.4539e+08,4480.6,12270,188.7,0,188.7,0,0.00028147,9.6242e-08,0,0.00014053,5.2774e-05,1.1199e+08,32555,0,5.5632e+07,7153.1,188.7,1
644,1.74,12109,1,12109,1,5.0338e-06,-4.2074e-08,0,0.00024533,-9.1866e-07,5238.6,-14222,0,9.7741e+07,1563.1,12108,12432,1,12432,1,0.0004783,1.2414e-07,0,0.0004783,8.7795e-05,1.8485e+08,41898,0,1.9046e+08,13716,12431,12110,1,12110,1,5.0279e-06,-2.1823e-08,0,0.00024538,-9.1422e-07,1.9722e+06,-7204.9,0,9.8271e+07,1147.8,12109,11763,1,11763,1,-0.00046825,-2.4447e-07,0,1.2494e-05,-8.9627e-05,-1.9046e+08,-82655,0,5.0828e+06,-10928,11762,11949,1,11949,1,-0.00024035,-9.8353e-08,0,0.0001227,-4.6935e-05,-9.7757e+07,-33471,0,4.9305e+07,-4524.1,11948,12271,1,12271,1,0.00025041,9.7183e-09,0,0.00036803,4.5097e-05,9.8378e+07,3243.9,0,1.463e+08,7405.2,12270,188.7,0,188.7,0,0.00028331,8.0719e-08,0,0.00014146,5.3118e-05,1.127e+08,27305,0,5.5984e+07,6544.9,188.7,1
644,1.75,12109,1,12109,1,5.1195e-06,-6.9254e-08,0,0.00024666,-9.4623e-07,195.76,-23376,0,9.8245e+07,-3428.8,12108,12432,1,12432,1,0.00048099,7.7647e-08,0,0.00048099,8.8263e-05,1.8576e+08,26300,0,1.9148e+08,6683.2,12431,12110,1,12110,1,5.1201e-06,-4.8559e-08,0,0.00024672,-9.488e-07,2.0054e+06,-16632,0,9.8786e+07,-3030,12109,11763,1,11763,1,-0.00047075,-2.7671e-07,0,1.2497e-05,-9.013e-05,-1.9148e+08,-93450,0,5.0861e+06,-15200,11762,11949,1,11949,1,-0.0002416,-1.2683e-07,0,0.00012337,-4.7211e-05,-9.8267e+07,-43076,0,4.9564e+07,-8812.3,11948,12271,1,12271,1,0.00025184,-1.0417e-08,0,0.00037004,4.532e-05,9.889e+07,-3481.2,0,1.4706e+08,2296.7,12270,188.7,0,188.7,0,0.00028485,8.1424e-08,0,0.00014223,5.3405e-05,1.1328e+08,27553,0,5.6269e+07,6029.1,188.7,1
644,1.76,12109,1,12109,1,5.2094e-06,-6.8407e-08,0,0.00024803,-9.583e-07,3827,-23074,0,9.8767e+07,-1564.6,12108,12432,1,12432,1,0.00048371,1.1095e-07,0,0.00048371,8.8743e-05,1.8671e+08,37303,0,1.9251e+08,11466,12431,12110,1,12110,1,5.2104e-06,-4.492e-08,0,0.00024809,-9.6077e-07,2.0419e+06,-15177,0,9.9319e+07,-1176.1,12109,11763,1,11763,1,-0.0004733,-3.158e-07,0,1.2504e-05,-9.0641e-05,-1.9251e+08,-1.0665e+05,0,5.0883e+06,-14160,11762,11949,1,11949,1,-0.00024288,-1.3488e-07,0,0.00012405,-4.7481e-05,-9.8786e+07,-45041,0,4.9833e+07,-7371.6,11948,12271,1,12271,1,0.0002533,-2.8146e-09,0,0.00037209,4.5566e-05,9.9428e+07,-964.12,0,1.4783e+08,4719.5,12270,188.7,0,188.7,0,0.00028642,9.6475e-08,0,0.00014302,5.3702e-05,1.1388e+08,32628,0,5.6563e+07,6606,188.7,1
644,1.77,12109,1,12109,1,5.3077e-06,-4.5933e-08,0,0.00024992,-9.77e-07,2331.5,-15494,0,9.9495e+07,-1869.6,12108,12432,1,12432,1,0.00048743,1.3538e-07,0,0.00048743,8.9397e-05,1.8803e+08,45687,0,1.9394e+08,9985.5,12431,12110,1,12110,1,5.3068e-06,-2.5045e-08,0,0.00024997,-9.7802e-07,2.0797e+06,-8578.1,0,1.0005e+08,-1491.5,12109,11763,1,11763,1,-0.0004768,-2.7218e-07,0,1.2542e-05,-9.1334e-05,-1.9394e+08,-91891,0,5.1043e+06,-15366,11762,11949,1,11949,1,-0.00024466,-1.0675e-07,0,0.000125,-4.7856e-05,-9.9512e+07,-35539,0,5.0205e+07,-7912.3,11948,12271,1,12271,1,0.00025528,1.0705e-08,0,0.00037491,4.5904e-05,1.0016e+08,3586.2,0,1.4891e+08,4774.7,12270,188.7,0,188.7,0,0.00028861,8.9113e-08,0,0.00014411,5.4112e-05,1.1472e+08,30129,0,5.6977e+07,7021.7,188.7,1
644,1.78,12109,1,12109,1,5.4263e-06,-2.1726e-08,0,0.00025166,-9.9529e-07,4866.6,-7329.1,0,1.0016e+08,-422,12108,12432,1,12432,1,0.00049083,1.1321e-07,0,0.00049083,8.9997e-05,1.892e+08,38194,0,1.9523e+08,8042,12431,12110,1,12110,1,5.4245e-06,-1.4578e-08,0,0.00025169,-9.9646e-07,2.1259e+06,-4818.5,0,1.0072e+08,-610.54,12109,11763,1,11763,1,-0.00047999,-1.6746e-07,0,1.2552e-05,-9.1972e-05,-1.9523e+08,-56766,0,5.1074e+06,-8760.9,11762,11949,1,11949,1,-0.00024627,-5.5803e-08,0,0.00012585,-4.8191e-05,-1.0017e+08,-18993,0,5.054e+07,-4576.3,11948,12271,1,12271,1,0.00025712,1.0725e-08,0,0.00037751,4.6198e-05,1.0084e+08,3589.3,0,1.4989e+08,3792.7,12270,188.7,0,188.7,0,0.00029063,5.7342e-08,0,0.00014512,5.4485e-05,1.1548e+08,19395,0,5.7354e+07,4452.3,188.7,1
644,1.79,12109,1,12109,1,5.5375e-06,-7.3122e-08,0,0.00025324,-1.0133e-06,4878,-24674,0,1.0075e+08,549.84,12108,12432,1,12432,1,0.00049412,6.6364e-08,0,0.00049412,9.0568e-05,1.9032e+08,22236,0,1.9647e+08,11220,12431,12110,1,12110,1,5.5316e-06,-5.0527e-08,0,0.0002533,-1.008e-06,2.1672e+06,-17127,0,1.0134e+08,647.26,12109,11763,1,11763,1,-0.00048304,-2.8136e-07,0,1.2556e-05,-9.2589e-05,-1.9647e+08,-95100,0,5.1089e+06,-10914,11762,11949,1,11949,1,-0.00024776,-1.3024e-07,0,0.00012666,-4.8514e-05,-1.0077e+08,-43627,0,5.0852e+07,-5094.4,11948,12271,1,12271,1,0.00025884,-1.3284e-08,0,0.00037992,4.6483e-05,1.0146e+08,-4409.8,0,1.508e+08,5969.4,12270,188.7,0,188.7,0,0.00029245,8.0427e-08,0,0.00014603,5.4829e-05,1.1617e+08,27199,0,5.769e+07,5974.4,188.7,1
644,1.8,12109,1,12109,1,5.6015e-06,-7.1094e-08,0,0.00025438,-1.028e-06,-6515.2,-23969,0,1.0118e+08,-699.89,12108,12432,1,12432,1,0.0004964,5.2586e-08,0,0.0004964,9.097e-05,1.9106e+08,17668,0,1.9734e+08,8745.1,12431,12110,1,12110,1,5.5967e-06,-4.8744e-08,0,0.00025444,-1.0285e-06,2.1919e+06,-16473,0,1.0178e+08,-665.45,12109,11763,1,11763,1,-0.00048517,-2.7859e-07,0,1.2567e-05,-9.3016e-05,-1.9734e+08,-94014,0,5.1138e+06,-11870,11762,11949,1,11949,1,-0.00024883,-1.2947e-07,0,0.00012722,-4.874e-05,-1.0121e+08,-43317,0,5.1069e+07,-5601.1,11948,12271,1,12271,1,0.00026004,-9.3128e-09,0,0.00038162,4.6683e-05,1.0188e+08,-3094.6,0,1.5143e+08,4466,12270,188.7,0,188.7,0,0.00029376,7.9892e-08,0,0.00014669,5.5074e-05,1.1666e+08,27007,0,5.7929e+07,5510.3,188.7,1
644,1.81,12109,1,12109,1,5.7146e-06,-6.6784e-08,0,0.00025592,-1.052e-06,3066.3,-22502,0,1.0177e+08,-2038.4,12108,12432,1,12432,1,0.00049945,6.7749e-08,0,0.00049945,9.1502e-05,1.9214e+08,23190,0,1.985e+08,7640,12431,12110,1,12110,1,5.7146e-06,-4.5094e-08,0,0.00025597,-1.056e-06,2.2374e+06,-15254,0,1.0237e+08,-1816.9,12109,11763,1,11763,1,-0.00048802,-2.7141e-07,0,1.2564e-05,-9.3584e-05,-1.985e+08,-91566,0,5.1133e+06,-14168,11762,11949,1,11949,1,-0.00025026,-1.2274e-07,0,0.000128,-4.9052e-05,-1.0179e+08,-41379,0,5.1375e+07,-7112,11948,12271,1,12271,1,0.00026169,-6.824e-09,0,0.00038393,4.6948e-05,1.0249e+08,-2305.3,0,1.523e+08,3522.7,12270,188.7,0,188.7,0,0.00029554,7.8515e-08,0,0.00014758,5.5406e-05,1.1734e+08,26545,0,5.8264e+07,5742.2,188.7,1
644,1.82,12109,1,12109,1,5.8001e-06,-1.6696e-08,0,0.00025703,-1.0653e-06,946.48,-5632,0,1.0219e+08,-1034.6,12108,12432,1,12432,1,0.00050158,1.3403e-07,0,0.00050158,9.1871e-05,1.9283e+08,45024,0,1.993e+08,8517.2,12431,12110,1,12110,1,5.798e-06,-5.6029e-09,0,0.00025707,-1.0652e-06,2.2707e+06,-1867.1,0,1.0279e+08,-859.45,12109,11763,1,11763,1,-0.00048998,-2.0276e-07,0,1.2558e-05,-9.3985e-05,-1.993e+08,-68401,0,5.1105e+06,-11366,11762,11949,1,11949,1,-0.00025126,-6.1824e-08,0,0.00012854,-4.927e-05,-1.022e+08,-20789,0,5.1587e+07,-6031.7,11948,12271,1,12271,1,0.00026287,2.8883e-08,0,0.00038557,4.7139e-05,1.0291e+08,9892.5,0,1.5291e+08,4146.7,12270,188.7,0,188.7,0,0.00029683,7.2056e-08,0,0.00014823,5.5649e-05,1.1782e+08,24338,0,5.8499e+07,5391.1,188.7,1
644,1.83,12109,1,12109,1,5.8817e-06,-4.6358e-09,0,0.00025852,-1.0793e-06,-1911.9,-1563.2,0,1.0276e+08,-660.52,12108,12432,1,12432,1,0.00050449,2.1971e-07,0,0.00050449,9.2392e-05,1.9385e+08,74091,0,2.0042e+08,12321,12431,12110,1,12110,1,5.8795e-06,-3.7045e-09,0,0.00025855,-1.0751e-06,2.3027e+06,-1236.5,0,1.0336e+08,-392.72,12109,11763,1,11763,1,-0.00049274,-2.2796e-07,0,1.2584e-05,-9.4532e-05,-2.0042e+08,-76881,0,5.1214e+06,-16221,11762,11949,1,11949,1,-0.00025267,-6.3218e-08,0,0.0001293,-4.9572e-05,-1.0277e+08,-21118,0,5.188e+07,-8043.9,11948,12271,1,12271,1,0.00026444,5.0802e-08,0,0.00038779,4.7414e-05,1.0348e+08,17019,0,1.5375e+08,6707.7,12270,188.7,0,188.7,0,0.00029854,9.2632e-08,0,0.00014908,5.5975e-05,1.1847e+08,31262,0,5.882e+07,7841.4,188.7,1
644,1.84,12109,1,12109,1,5.9955e-06,-2.2168e-08,0,0.00026003,-1.1025e-06,3635.5,-7468.3,0,1.0333e+08,-1606.3,12108,12432,1,12432,1,0.00050756,1.2883e-07,0,0.00050756,9.2921e-05,1.949e+08,43263,0,2.0157e+08,7670.6,12431,12110,1,12110,1,5.9919e-06,-8.2818e-09,0,0.00026007,-1.1031e-06,2.3463e+06,-2701.5,0,1.0395e+08,-1429.8,12109,11763,1,11763,1,-0.00049558,-2.0243e-07,0,1.2577e-05,-9.5105e-05,-2.0157e+08,-68268,0,5.1187e+06,-12403,11762,11949,1,11949,1,-0.00025407,-6.5981e-08,0,0.00013005,-4.987e-05,-1.0334e+08,-22169,0,5.2175e+07,-6869.1,11948,12271,1,12271,1,0.00026607,2.0122e-08,0,0.00039007,4.7665e-05,1.0408e+08,6700.1,0,1.5461e+08,3855.1,12270,188.7,0,188.7,0,0.00030029,6.9142e-08,0,0.00014996,5.6297e-05,1.1913e+08,23348,0,5.9145e+07,5616.6,188.7,1
644,1.85,12109,1,12109,1,6.0851e-06,-9.2674e-08,0,0.00026148,-1.1161e-06,-2666.9,-31220,0,1.0388e+08,-488.89,12108,12432,1,12432,1,0.00051063,4.9185e-08,0,0.00051063,9.3457e-05,1.9595e+08,16688,0,2.0274e+08,11077,12431,12110,1,12110,1,6.079e-06,-7.1791e-08,0,0.00026155,-1.1163e-06,2.3802e+06,-24134,0,1.0452e+08,-125.45,12109,11763,1,11763,1,-0.00049844,-3.2102e-07,0,1.2595e-05,-9.5679e-05,-2.0274e+08,-1.0833e+05,0,5.1259e+06,-13170,11762,11949,1,11949,1,-0.00025546,-1.604e-07,0,0.00013078,-5.0163e-05,-1.039e+08,-53925,0,5.2458e+07,-6318,11948,12271,1,12271,1,0.00026763,-1.7249e-08,0,0.00039228,4.7928e-05,1.0464e+08,-5846,0,1.5545e+08,5170.9,12270,188.7,0,188.7,0,0.00030196,9.1195e-08,0,0.0001508,5.6612e-05,1.1976e+08,30826,0,5.9453e+07,6475.2,188.7,1
644,1.86,12109,1,12109,1,6.202e-06,1.2882e-08,0,0.00026294,-1.1418e-06,4046,4331.5,0,1.0443e+08,-2233.3,12108,12432,1,12432,1,0.00051335,2.1742e-07,0,0.00051335,9.3935e-05,1.9687e+08,73289,0,2.0377e+08,7937.6,12431,12110,1,12110,1,6.2035e-06,6.21e-09,0,0.00026297,-1.1448e-06,2.4283e+06,2008.9,0,1.0507e+08,-2172.5,12109,11763,1,11763,1,-0.00050098,-1.856e-07,0,1.2576e-05,-9.6192e-05,-2.0377e+08,-62586,0,5.1187e+06,-13804,11762,11949,1,11949,1,-0.00025678,-4.3127e-08,0,0.0001315,-5.0456e-05,-1.0444e+08,-14599,0,5.2743e+07,-7617.4,11948,12271,1,12271,1,0.00026918,6.9466e-08,0,0.00039444,4.8171e-05,1.052e+08,23676,0,1.5625e+08,3515,12270,188.7,0,188.7,0,0.00030365,8.7267e-08,0,0.00015165,5.6928e-05,1.2039e+08,29453,0,5.9767e+07,5813.5,188.7,1
644,1.87,12109,1,12109,1,6.2971e-06,-6.1452e-08,0,0.00026428,-1.1558e-06,522.93,-20695,0,1.0493e+08,-794.08,12108,12432,1,12432,1,0.00051615,1.296e-07,0,0.00051615,9.4419e-05,1.978e+08,43688,0,2.0482e+08,12888,12431,12110,1,12110,1,6.2961e-06,-3.9447e-08,0,0.00026434,-1.1563e-06,2.4652e+06,-12975,0,1.0559e+08,-476.33,12109,11763,1,11763,1,-0.00050357,-3.0857e-07,0,1.2579e-05,-9.6711e-05,-2.0482e+08,-1.0399e+05,0,5.1194e+06,-14801,11762,11949,1,11949,1,-0.00025805,-1.2617e-07,0,0.00013219,-5.0728e-05,-1.0496e+08,-42404,0,5.3007e+07,-7714,11948,12271,1,12271,1,0.00027064,3.8052e-09,0,0.00039648,4.8416e-05,1.0572e+08,1274.5,0,1.5701e+08,6259.9,12270,188.7,0,188.7,0,0.00030519,9.6006e-08,0,0.00015241,5.722e-05,1.2097e+08,32420,0,6.0048e+07,7681.1,188.7,1
644,1.88,12109,1,12109,1,6.4206e-06,-3.4448e-08,0,0.00026625,-1.1821e-06,5964.4,-11603,0,1.0569e+08,-2321.9,12108,12432,1,12432,1,0.00052,7.8328e-08,0,0.00052,9.5094e-05,1.9915e+08,26290,0,2.0629e+08,6133.7,12431,12110,1,12110,1,6.4196e-06,-1.8361e-08,0,0.00026629,-1.1847e-06,2.5128e+06,-6140.8,0,1.0635e+08,-2109.3,12109,11763,1,11763,1,-0.00050717,-2.0004e-07,0,1.2596e-05,-9.7434e-05,-2.0629e+08,-67410,0,5.127e+06,-11131,11762,11949,1,11949,1,-0.00025987,-7.3626e-08,0,0.00013316,-5.1112e-05,-1.057e+08,-24691,0,5.3388e+07,-6574.5,11948,12271,1,12271,1,0.00027271,6.542e-09,0,0.00039941,4.8747e-05,1.0649e+08,2239.5,0,1.5813e+08,2107.8,12270,188.7,0,188.7,0,0.00030747,6.1e-08,0,0.00015356,5.7641e-05,1.2184e+08,20604,0,6.048e+07,4714.7,188.7,1
644,1.89,12109,1,12109,1,6.5236e-06,-4.7024e-08,0,0.00026728,-1.1959e-06,-630.25,-15839,0,1.0606e+08,-228.26,12108,12432,1,12432,1,0.00052215,1.0069e-07,0,0.00052215,9.5457e-05,1.9979e+08,33936,0,2.0707e+08,10218,12431,12110,1,12110,1,6.5207e-06,-2.9003e-08,0,0.00026734,-1.195e-06,2.5525e+06,-9441.3,0,1.0674e+08,-307.53,12109,11763,1,11763,1,-0.0005091,-2.4034e-07,0,1.257e-05,-9.7834e-05,-2.0707e+08,-80997,0,5.116e+06,-10133,11762,11949,1,11949,1,-0.00026081,-9.8393e-08,0,0.00013368,-5.1324e-05,-1.0608e+08,-32528,0,5.3586e+07,-5303.2,11948,12271,1,12271,1,0.00027386,4.3773e-09,0,0.00040097,4.8928e-05,1.0687e+08,1484.6,0,1.5868e+08,4445.6,12270,188.7,0,188.7,0,0.00030866,7.4731e-08,0,0.00015416,5.7866e-05,1.2226e+08,25232,0,6.0685e+07,5547.2,188.7,1
644,1.9,12109,1,12109,1,6.6268e-06,-1.5538e-08,0,0.00026882,-1.2175e-06,4915.4,-5217.2,0,1.0665e+08,-1300,12108,12432,1,12432,1,0.00052512,1.605e-07,0,0.00052512,9.5977e-05,2.0083e+08,54076,0,2.082e+08,9591,12431,12110,1,12110,1,6.6281e-06,-9.4541e-09,0,0.00026885,-1.2206e-06,2.594e+06,-3047.3,0,1.0733e+08,-1325.5,12109,11763,1,11763,1,-0.00051188,-2.0598e-07,0,1.2573e-05,-9.839e-05,-2.082e+08,-69405,0,5.1178e+06,-12142,11762,11949,1,11949,1,-0.00026222,-6.4689e-08,0,0.00013444,-5.1632e-05,-1.0665e+08,-21819,0,5.3885e+07,-6869.4,11948,12271,1,12271,1,0.00027548,2.9126e-08,0,0.00040325,4.9194e-05,1.0747e+08,9761.7,0,1.5955e+08,4415,12270,188.7,0,188.7,0,0.00031044,7.7986e-08,0,0.00015505,5.8199e-05,1.2294e+08,26326,0,6.1019e+07,5878.4,188.7,1
644,1.91,12109,1,12109,1,6.7298e-06,-1.5079e-08,0,0.00027007,-1.2381e-06,2005.1,-5079.2,0,1.0711e+08,-2063.3,12108,12432,1,12432,1,0.00052765,1.4299e-07,0,0.00052765,9.6414e-05,2.0166e+08,48177,0,2.0915e+08,6744.6,12431,12110,1,12110,1,6.7307e-06,-4.758e-09,0,0.0002701,-1.2414e-06,2.6342e+06,-1602.6,0,1.078e+08,-1902.1,12109,11763,1,11763,1,-0.0005142,-1.9912e-07,0,1.2556e-05,-9.8864e-05,-2.0915e+08,-67090,0,5.1112e+06,-12688,11762,11949,1,11949,1,-0.00026337,-6.207e-08,0,0.00013507,-5.1885e-05,-1.0712e+08,-20986,0,5.4126e+07,-7193.8,11948,12271,1,12271,1,0.00027684,2.9576e-08,0,0.00040513,4.9407e-05,1.0794e+08,10119,0,1.6024e+08,3251.7,12270,188.7,0,188.7,0,0.00031188,7.3644e-08,0,0.00015577,5.8468e-05,1.2347e+08,24852,0,6.128e+07,5252.1,188.7,1
644,1.92,12109,1,12109,1,6.8054e-06,-2.8773e-08,0,0.00027131,-1.2501e-06,-4251.4,-9674.7,0,1.0758e+08,-1268.9,12108,12432,1,12432,1,0.00053014,1.685e-07,0,0.00053014,9.6847e-05,2.0249e+08,56752,0,2.1009e+08,10544,12431,12110,1,12110,1,6.8017e-06,-1.7241e-08,0,0.00027135,-1.2515e-06,2.6618e+06,-5599,0,1.0828e+08,-1041.8,12109,11763,1,11763,1,-0.00051652,-2.4103e-07,0,1.2573e-05,-9.9328e-05,-2.1009e+08,-81165,0,5.1176e+06,-14482,11762,11949,1,11949,1,-0.00026453,-8.514e-08,0,0.00013568,-5.2134e-05,-1.0759e+08,-28352,0,5.4366e+07,-7149.7,11948,12271,1,12271,1,0.00027816,2.0962e-08,0,0.00040698,4.963e-05,1.0842e+08,6881.5,0,1.6093e+08,4960.8,12270,188.7,0,188.7,0,0.00031331,8.693e-08,0,0.00015648,5.8738e-05,1.2401e+08,29327,0,6.1542e+07,6705.2,188.7,1
644,1.93,12109,1,12109,1,6.9317e-06,-8.7684e-08,0,0.00027327,-1.272e-06,-306.65,-29507,0,1.0833e+08,-760.05,12108,12432,1,12432,1,0.00053419,4.1933e-08,0,0.00053419,9.7564e-05,2.0391e+08,14136,0,2.1164e+08,9012.4,12431,12110,1,12110,1,6.9304e-06,-6.8745e-08,0,0.00027333,-1.2748e-06,2.7116e+06,-22932,0,1.0905e+08,-881.95,12109,11763,1,11763,1,-0.00052034,-2.9912e-07,0,1.2586e-05,-0.00010009,-2.1164e+08,-1.0079e+05,0,5.1235e+06,-10872,11762,11949,1,11949,1,-0.00026639,-1.4998e-07,0,0.00013668,-5.2522e-05,-1.0835e+08,-50059,0,5.4756e+07,-5303.7,11948,12271,1,12271,1,0.00028026,-1.7086e-08,0,0.00040997,4.9973e-05,1.0919e+08,-5652.5,0,1.6207e+08,3972.4,12270,188.7,0,188.7,0,0.00031557,8.3815e-08,0,0.00015762,5.9159e-05,1.2487e+08,28317,0,6.1969e+07,5204.4,188.7,1
644,1.94,12109,1,12109,1,7.072e-06,-6.7484e-08,0,0.00027466,-1.3015e-06,3618.4,-22698,0,1.0884e+08,-2307.7,12108,12432,1,12432,1,0.00053697,7.0094e-08,0,0.00053697,9.8029e-05,2.0479e+08,23605,0,2.1265e+08,6656.1,12431,12110,1,12110,1,7.0678e-06,-4.8774e-08,0,0.00027473,-1.3043e-06,2.7655e+06,-15977,0,1.0958e+08,-2029.8,12109,11763,1,11763,1,-0.00052282,-2.6226e-07,0,1.2545e-05,-0.00010061,-2.1265e+08,-88381,0,5.107e+06,-12462,11762,11949,1,11949,1,-0.00026764,-1.1927e-07,0,0.00013736,-5.2811e-05,-1.0886e+08,-40386,0,5.502e+07,-6878.5,11948,12271,1,12271,1,0.00028179,-1.2446e-08,0,0.00041204,5.0205e-05,1.0972e+08,-4219.1,0,1.6283e+08,2526,12270,188.7,0,188.7,0,0.00031719,7.5891e-08,0,0.00015843,5.9462e-05,1.2547e+08,25631,0,6.2258e+07,5082.5,188.7,1
644,1.95,12109,1,12109,1,7.1855e-06,-4.8659e-08,0,0.00027574,-1.3173e-06,7048.7,-16386,0,1.0924e+08,-201.28,12108,12432,1,12432,1,0.00053918,1.308e-07,0,0.00053918,9.84e-05,2.0548e+08,43838,0,2.1345e+08,11384,12431,12110,1,12110,1,7.1804e-06,-2.3685e-08,0,0.00027582,-1.3165e-06,2.8102e+06,-7991.2,0,1.0999e+08,-143.74,12109,11763,1,11763,1,-0.00052479,-2.9483e-07,0,1.2509e-05,-0.00010102,-2.1345e+08,-99544,0,5.0923e+06,-11242,11762,11949,1,11949,1,-0.00026862,-1.159e-07,0,0.00013791,-5.3035e-05,-1.0926e+08,-39089,0,5.523e+07,-5957.3,11948,12271,1,12271,1,0.000283,1.5943e-08,0,0.00041367,5.0398e-05,1.1014e+08,5426.7,0,1.6342e+08,5415.2,12270,188.7,0,188.7,0,0.00031843,9.5882e-08,0,0.00015906,5.9697e-05,1.2592e+08,32345,0,6.2479e+07,6127.1,188.7,1
644,1.96,12109,1,12109,1,7.2548e-06,-1.2838e-08,0,0.00027677,-1.3345e-06,893.48,-4308.9,0,1.0962e+08,-2116,12108,12432,1,12432,1,0.00054113,2.2355e-07,0,0.00054113,9.8741e-05,2.0612e+08,75488,0,2.1419e+08,11670,12431,12110,1,12110,1,7.2561e-06,-5.6815e-09,0,0.00027682,-1.3408e-06,2.8377e+06,-1850.5,0,1.1037e+08,-2104.5,12109,11763,1,11763,1,-0.00052661,-2.5513e-07,0,1.2512e-05,-0.00010139,-2.1419e+08,-85934,0,5.094e+06,-15965,11762,11949,1,11949,1,-0.00026955,-8.1124e-08,0,0.00013842,-5.3243e-05,-1.0964e+08,-27060,0,5.5425e+07,-8526.1,11948,12271,1,12271,1,0.00028408,4.7241e-08,0,0.00041518,5.0575e-05,1.1052e+08,15694,0,1.6397e+08,4771.3,12270,188.7,0,188.7,0,0.00031962,1.0242e-07,0,0.00015965,5.9921e-05,1.2636e+08,34533,0,6.2694e+07,7416.7,188.7,1
644,1.97,12109,1,12109,1,7.3666e-06,-6.7594e-08,0,0.00027843,-1.3534e-06,4374.9,-22725,0,1.1025e+08,-1457.6,12108,12432,1,12432,1,0.00054453,1.0833e-07,0,0.00054453,9.9335e-05,2.0731e+08,36296,0,2.1549e+08,10639,12431,12110,1,12110,1,7.3581e-06,-4.4655e-08,0,0.0002785,-1.352e-06,2.8787e+06,-14704,0,1.1102e+08,-1160.8,12109,11763,1,11763,1,-0.00052979,-3.0526e-07,0,1.2516e-05,-0.00010202,-2.1549e+08,-1.0282e+05,0,5.0958e+06,-15053,11762,11949,1,11949,1,-0.00027112,-1.2999e-07,0,0.00013925,-5.358e-05,-1.1027e+08,-44124,0,5.575e+07,-8333.3,11948,12271,1,12271,1,0.00028586,-4.3888e-09,0,0.00041769,5.0865e-05,1.1117e+08,-1431.5,0,1.6493e+08,5088.4,12270,188.7,0,188.7,0,0.00032153,9.2064e-08,0,0.00016061,6.0279e-05,1.2708e+08,31057,0,6.3053e+07,7132.3,188.7,1
644,1.98,12109,1,12109,1,7.4661e-06,4.5657e-08,0,0.00027927,-1.3688e-06,2246.8,15350,0,1.1056e+08,-228.79,12108,12432,1,12432,1,0.00054614,3.1224e-07,0,0.00054614,9.961e-05,2.0778e+08,1.0541e+05,0,2.1608e+08,14438,12431,12110,1,12110,1,7.469e-06,2.8427e-08,0,0.0002793,-1.37e-06,2.9209e+06,9338.3,0,1.1132e+08,-412.7,12109,11763,1,11763,1,-0.00053124,-2.0449e-07,0,1.2476e-05,-0.00010232,-2.1608e+08,-68782,0,5.0792e+06,-15765,11762,11949,1,11949,1,-0.00027185,-2.3521e-08,0,0.00013968,-5.3748e-05,-1.1057e+08,-7817.7,0,5.5913e+07,-7542.7,11948,12271,1,12271,1,0.00028678,1.2031e-07,0,0.00041894,5.101e-05,1.1148e+08,40901,0,1.6536e+08,7166.2,12270,188.7,0,188.7,0,0.00032251,1.1195e-07,0,0.0001611,6.0464e-05,1.2743e+08,37737,0,6.3218e+07,7990.2,188.7,1
644,1.99,12109,1,12109,1,7.5508e-06,-5.0776e-08,0,0.00028104,-1.3856e-06,-4538.3,-17009,0,1.1123e+08,-843.51,12108,12432,1,12432,1,0.00054971,1.7968e-07,0,0.00054971,0.00010024,2.0902e+08,60454,0,2.1744e+08,13106,12431,12110,1,12110,1,7.5483e-06,-2.9015e-08,0,0.0002811,-1.3879e-06,2.9518e+06,-9643.3,0,1.1202e+08,-569.83,12109,11763,1,11763,1,-0.0005346,-2.9992e-07,0,1.252e-05,-0.00010299,-2.1744e+08,-1.0085e+05,0,5.0975e+06,-17297,11762,11949,1,11949,1,-0.00027354,-1.2048e-07,0,0.00014056,-5.4098e-05,-1.1126e+08,-40274,0,5.6258e+07,-8037.3,11948,12271,1,12271,1,0.00028865,9.3833e-09,0,0.0004216,5.1325e-05,1.1216e+08,3151.9,0,1.6638e+08,6688.8,12270,188.7,0,188.7,0,0.00032455,1.0252e-07,0,0.00016212,6.0847e-05,1.2821e+08,34551,0,6.3605e+07,8210.3,188.7,1
644,2,12109,1,12109,1,7.7035e-06,2.6527e-08,0,0.00028271,-1.416e-06,2514.4,8936,0,1.1186e+08,-1785.2,12108,12432,1,12432,1,0.00055295,2.581e-07,0,0.00055295,0.0001008,2.101e+08,86812,0,2.1867e+08,11325,12431,12110,1,12110,1,7.7067e-06,1.5021e-08,0,0.00028273,-1.4198e-06,3.0133e+06,4978.6,0,1.1265e+08,-1375.7,12109,11763,1,11763,1,-0.00053761,-1.9352e-07,0,1.2484e-05,-0.0001036,-2.1867e+08,-65069,0,5.0832e+06,-17362,11762,11949,1,11949,1,-0.00027504,-2.7359e-08,0,0.00014139,-5.4442e-05,-1.1187e+08,-9231.1,0,5.6581e+07,-8566.2,11948,12271,1,12271,1,0.00029045,8.7314e-08,0,0.00042409,5.1604e-05,1.1281e+08,29417,0,1.6729e+08,5179.4,12270,188.7,0,188.7,0,0.00032647,9.4507e-08,0,0.00016309,6.1205e-05,1.2893e+08,31866,0,6.3955e+07,7676.3,188.7,1
644,2.01,12109,1,12109,1,7.8459e-06,-3.8598e-08,0,0.00028442,-1.4417e-06,2625.2,-12926,0,1.1249e+08,-1647.2,12108,12432,1,12432,1,0.00055648,1.2682e-07,0,0.00055648,0.0001014,2.1125e+08,42666,0,2.1996e+08,9689.1,12431,12110,1,12110,1,7.8461e-06,-2.0791e-08,0,0.00028446,-1.4473e-06,3.0675e+06,-6899.9,0,1.133e+08,-1750.8,12109,11763,1,11763,1,-0.00054079,-2.3722e-07,0,1.2468e-05,-0.00010426,-2.1996e+08,-79727,0,5.0769e+06,-13545,11762,11949,1,11949,1,-0.00027661,-9.0786e-08,0,0.00014224,-5.4779e-05,-1.1251e+08,-30327,0,5.6909e+07,-7377.8,11948,12271,1,12271,1,0.00029231,1.1211e-08,0,0.00042666,5.1895e-05,1.1346e+08,3704.1,0,1.6825e+08,4515.8,12270,188.7,0,188.7,0,0.00032845,7.8283e-08,0,0.00016408,6.1573e-05,1.2966e+08,26381,0,6.4317e+07,6391.9,188.7,1
644,2.02,12109,1,12109,1,7.9793e-06,-1.3375e-08,0,0.00028554,-1.4673e-06,7143.6,-4491.3,0,1.129e+08,-2091.8,12108,12432,1,12432,1,0.00055874,1.9321e-07,0,0.00055874,0.00010177,2.1193e+08,64962,0,2.2077e+08,9121.2,12431,12110,1,12110,1,7.9771e-06,-5.6598e-09,0,0.00028558,-1.4708e-06,3.1188e+06,-1924,0,1.1372e+08,-1656.8,12109,11763,1,11763,1,-0.00054277,-2.3565e-07,0,1.2412e-05,-0.00010468,-2.2077e+08,-79196,0,5.0545e+06,-14518,11762,11949,1,11949,1,-0.00027759,-7.064e-08,0,0.0001428,-5.5015e-05,-1.1291e+08,-23380,0,5.7121e+07,-8339.2,11948,12271,1,12271,1,0.00029357,3.794e-08,0,0.00042833,5.2082e-05,1.1389e+08,12689,0,1.6884e+08,4315.3,12270,188.7,0,188.7,0,0.00032975,8.9546e-08,0,0.00016473,6.1816e-05,1.3012e+08,30160,0,6.4542e+07,6653.9,188.7,1
644,2.03,12109,1,12109,1,8.0897e-06,-6.4939e-08,0,0.00028718,-1.486e-06,4555.5,-21783,0,1.1352e+08,-1439.9,12108,12432,1,12432,1,0.00056213,1.124e-07,0,0.00056213,0.00010236,2.1308e+08,37801,0,2.2206e+08,10896,12431,12110,1,12110,1,8.0816e-06,-4.3188e-08,0,0.00028725,-1.4866e-06,3.1596e+06,-14533,0,1.1436e+08,-1086.9,12109,11763,1,11763,1,-0.00054594,-2.9579e-07,0,1.2418e-05,-0.00010532,-2.2206e+08,-99368,0,5.0567e+06,-15107,11762,11949,1,11949,1,-0.00027914,-1.2695e-07,0,0.00014362,-5.5349e-05,-1.1354e+08,-42939,0,5.744e+07,-8120.8,11948,12271,1,12271,1,0.00029534,-2.7078e-09,0,0.00043082,5.237e-05,1.1452e+08,-868.1,0,1.6978e+08,5013.5,12270,188.7,0,188.7,0,0.00033164,9.1225e-08,0,0.00016568,6.2171e-05,1.3083e+08,30727,0,6.4893e+07,7124.6,188.7,1
644,2.04,12109,1,12109,1,8.1936e-06,-4.9952e-08,0,0.00028863,-1.5046e-06,-5410.4,-16775,0,1.1406e+08,-1329.2,12108,12432,1,12432,1,0.00056501,1.1228e-07,0,0.00056501,0.00010287,2.14e+08,37744,0,2.2314e+08,8643.7,12431,12110,1,12110,1,8.1892e-06,-3.2847e-08,0,0.00028869,-1.5083e-06,3.2012e+06,-10804,0,1.1491e+08,-1069.3,12109,11763,1,11763,1,-0.00054861,-2.5025e-07,0,1.2423e-05,-0.00010585,-2.2314e+08,-84321,0,5.0591e+06,-12761,11762,11949,1,11949,1,-0.00028049,-1.0207e-07,0,0.00014435,-5.5632e-05,-1.1408e+08,-34195,0,5.772e+07,-6564.8,11948,12271,1,12271,1,0.00029688,1.538e-09,0,0.00043298,5.262e-05,1.1506e+08,503.24,0,1.7058e+08,4370.8,12270,188.7,0,188.7,0,0.00033331,7.7892e-08,0,0.00016652,6.2483e-05,1.3145e+08,26251,0,6.5195e+07,5837.6,188.7,1
644,2.05,12109,1,12109,1,8.3534e-06,-3.8452e-08,0,0.00029018,-1.5363e-06,5339.1,-12882,0,1.1464e+08,-2270.5,12108,12432,1,12432,1,0.00056813,1.1814e-07,0,0.00056813,0.00010339,2.1502e+08,40457,0,2.2428e+08,7514.2,12431,12110,1,12110,1,8.353e-06,-1.9026e-08,0,0.00029024,-1.5411e-06,3.2637e+06,-6243.4,0,1.1549e+08,-2018.8,12109,11763,1,11763,1,-0.00055141,-2.4197e-07,0,1.2371e-05,-0.00010644,-2.2428e+08,-81252,0,5.0386e+06,-13701,11762,11949,1,11949,1,-0.00028187,-9.3468e-08,0,0.00014513,-5.5953e-05,-1.1465e+08,-30874,0,5.8018e+07,-7468.2,11948,12271,1,12271,1,0.00029859,1.1925e-08,0,0.00043531,5.288e-05,1.1566e+08,4076.7,0,1.7143e+08,3611.1,12270,188.7,0,188.7,0,0.00033511,7.9981e-08,0,0.00016743,6.282e-05,1.3212e+08,26927,0,6.5524e+07,5812.1,188.7,1
644,2.06,12109,1,12109,1,8.4721e-06,1.2572e-08,0,0.00029179,-1.5577e-06,-835.65,4226.8,0,1.1523e+08,-2146.1,12108,12432,1,12432,1,0.00057123,2.0178e-07,0,0.00057123,0.00010393,2.1604e+08,67794,0,2.2545e+08,9580.4,12431,12110,1,12110,1,8.4709e-06,3.6295e-09,0,0.00029182,-1.5622e-06,3.3102e+06,1222.9,0,1.161e+08,-2104.2,12109,11763,1,11763,1,-0.00055429,-1.635e-07,0,1.2368e-05,-0.00010702,-2.2545e+08,-55088,0,5.0374e+06,-14387,11762,11949,1,11949,1,-0.00028335,-2.9688e-08,0,0.00014592,-5.6276e-05,-1.1525e+08,-9803.9,0,5.8327e+07,-7872.7,11948,12271,1,12271,1,0.0003003,5.7456e-08,0,0.00043768,5.3157e-05,1.1627e+08,19582,0,1.7231e+08,3834.3,12270,188.7,0,188.7,0,0.00033696,7.4435e-08,0,0.00016835,6.3167e-05,1.328e+08,25066,0,6.5858e+07,6436.2,188.7,1
644,2.07,12109,1,12109,1,8.6234e-06,-4.9745e-08,0,0.00029331,-1.5833e-06,2951.8,-16682,0,1.158e+08,-1256,12108,12432,1,12432,1,0.00057442,8.3443e-08,0,0.00057442,0.00010447,2.1706e+08,27905,0,2.2662e+08,7408.6,12431,12110,1,12110,1,8.6146e-06,-3.0888e-08,0,0.00029336,-1.5841e-06,3.3664e+06,-10188,0,1.1668e+08,-1413.1,12109,11763,1,11763,1,-0.00055716,-2.3255e-07,0,1.2325e-05,-0.00010761,-2.2662e+08,-78051,0,5.02e+06,-10977,11762,11949,1,11949,1,-0.00028473,-9.2669e-08,0,0.00014668,-5.6585e-05,-1.1581e+08,-31426,0,5.8619e+07,-6034.4,11948,12271,1,12271,1,0.00030199,-6.3925e-09,0,0.00044,5.3415e-05,1.1685e+08,-2168.7,0,1.7315e+08,3854.1,12270,188.7,0,188.7,0,0.00033873,6.7933e-08,0,0.00016924,6.3495e-05,1.3345e+08,22877,0,6.6176e+07,5061.1,188.7,1
644,2.08,12109,1,12109,1,8.7512e-06,1.045e-07,0,0.00029455,-1.6104e-06,4026.1,35076,0,1.1625e+08,-2784.3,12108,12432,1,12432,1,0.00057702,3.0874e-07,0,0.00057702,0.00010493,2.179e+08,1.0359e+05,0,2.2761e+08,8272.6,12431,12110,1,12110,1,8.7564e-06,8.8061e-08,0,0.00029459,-1.6165e-06,3.42e+06,29391,0,1.1715e+08,-2680.7,12109,11763,1,11763,1,-0.0005596,-2.789e-08,0,1.2279e-05,-0.00010811,-2.2761e+08,-8866.5,0,5.0017e+06,-16373,11762,11949,1,11949,1,-0.00028585,2.861e-08,0,0.00014732,-5.6851e-05,-1.1627e+08,9564.9,0,5.8861e+07,-7936.4,11948,12271,1,12271,1,0.00030336,1.6875e-07,0,0.0004419,5.362e-05,1.1733e+08,56300,0,1.7383e+08,1935.4,12270,188.7,0,188.7,0,0.00034015,8.3997e-08,0,0.00016996,6.3763e-05,1.3397e+08,28345,0,6.6429e+07,6027,188.7,1
644,2.09,12109,1,12109,1,8.8744e-06,-3.3527e-08,0,0.00029588,-1.6273e-06,5284.2,-11201,0,1.1674e+08,-384.09,12108,12432,1,12432,1,0.00057962,1.798e-07,0,0.00057962,0.00010535,2.1872e+08,60383,0,2.2854e+08,12710,12431,12110,1,12110,1,8.8728e-06,-1.7488e-08,0,0.00029593,-1.6282e-06,3.4662e+06,-5720.2,0,1.1765e+08,-214.23,12109,11763,1,11763,1,-0.00056187,-2.6887e-07,0,1.2257e-05,-0.00010859,-2.2854e+08,-90208,0,4.9929e+06,-12813,11762,11949,1,11949,1,-0.00028705,-9.6882e-08,0,0.00014798,-5.7116e-05,-1.1675e+08,-32239,0,5.9114e+07,-6973.8,11948,12271,1,12271,1,0.00030481,2.4215e-08,0,0.00044386,5.3858e-05,1.1783e+08,8027.3,0,1.7456e+08,5829.5,12270,188.7,0,188.7,0,0.00034169,9.644e-08,0,0.00017073,6.4055e-05,1.3453e+08,32446,0,6.6705e+07,6933.5,188.7,1
644,2.1,12109,1,12109,1,8.9683e-06,5.8091e-08,0,0.00029685,-1.6462e-06,-529.4,19468,0,1.1709e+08,-1130.4,12108,12432,1,12432,1,0.00058156,2.589e-07,0,0.00058156,0.00010569,2.1931e+08,86787,0,2.2926e+08,8883.9,12431,12110,1,12110,1,8.9683e-06,3.7797e-08,0,0.00029688,-1.6472e-06,3.5022e+06,12580,0,1.1801e+08,-822.55,12109,11763,1,11763,1,-0.00056366,-9.9387e-08,0,1.2231e-05,-0.00010895,-2.2926e+08,-33397,0,4.9826e+06,-12214,11762,11949,1,11949,1,-0.00028792,4.5648e-09,0,0.00014846,-5.7314e-05,-1.1711e+08,1552.1,0,5.9298e+07,-7061.3,11948,12271,1,12271,1,0.00030586,1.1176e-07,0,0.00044531,5.4018e-05,1.1819e+08,36795,0,1.7507e+08,4449.6,12270,188.7,0,188.7,0,0.00034281,7.817e-08,0,0.00017129,6.4262e-05,1.3493e+08,26294,0,6.6901e+07,6070.5,188.7,1
644,2.11,12109,1,12109,1,9.0825e-06,-6.1471e-09,0,0.00029848,-1.6696e-06,-627.75,-2089.2,0,1.1771e+08,-2170.6,12108,12432,1,12432,1,0.00058483,2.1509e-07,0,0.00058483,0.00010625,2.2041e+08,72202,0,2.3047e+08,10807,12431,12110,1,12110,1,9.0802e-06,-1.4332e-09,0,0.00029853,-1.6751e-06,3.5456e+06,-462.3,0,1.1864e+08,-1859.5,12109,11763,1,11763,1,-0.00056663,-2.2733e-07,0,1.2233e-05,-0.00010956,-2.3047e+08,-76551,0,4.9836e+06,-16600,11762,11949,1,11949,1,-0.00028943,-6.9536e-08,0,0.00014927,-5.7643e-05,-1.1772e+08,-23134,0,5.9612e+07,-8280.6,11948,12271,1,12271,1,0.00030762,5.2762e-08,0,0.00044774,5.4305e-05,1.1882e+08,17465,0,1.7599e+08,4577,12270,188.7,0,188.7,0,0.00034469,9.5061e-08,0,0.00017224,6.4616e-05,1.3564e+08,31970,0,6.725e+07,7378.1,188.7,1
644,2.12,12109,1,12109,1,9.2183e-06,2.9824e-08,0,0.00030007,-1.6946e-06,-3985.4,10027,0,1.183e+08,-2226.9,12108,12432,1,12432,1,0.00058796,1.9547e-07,0,0.00058796,0.00010681,2.2142e+08,65597,0,2.3169e+08,7173.1,12431,12110,1,12110,1,9.2177e-06,1.4838e-08,0,0.00030008,-1.6993e-06,3.5995e+06,4763.4,0,1.1923e+08,-2084,12109,11763,1,11763,1,-0.00056962,-1.1893e-07,0,1.2202e-05,-0.00011015,-2.3169e+08,-39895,0,4.9715e+06,-12904,11762,11949,1,11949,1,-0.00029089,-1.0302e-08,0,0.00015007,-5.7962e-05,-1.1832e+08,-3477.5,0,5.9921e+07,-7153.2,11948,12271,1,12271,1,0.00030932,7.3227e-08,0,0.00045015,5.4568e-05,1.1941e+08,24838,0,1.7686e+08,2622.3,12270,188.7,0,188.7,0,0.00034653,6.6538e-08,0,0.00017316,6.4957e-05,1.3632e+08,22405,0,6.7583e+07,5467.4,188.7,1
644,2.13,12109,1,12109,1,9.3753e-06,-1.5257e-08,0,0.0003015,-1.7205e-06,1100,-5137.2,0,1.1882e+08,-983.87,12108,12432,1,12432,1,0.00059094,1.6371e-07,0,0.00059094,0.00010729,2.2234e+08,54942,0,2.3273e+08,9733.4,12431,12110,1,12110,1,9.3647e-06,-5.548e-09,0,0.00030154,-1.7217e-06,3.6568e+06,-1868.5,0,1.1978e+08,-562.15,12109,11763,1,11763,1,-0.00057219,-2.0554e-07,0,1.216e-05,-0.00011071,-2.3273e+08,-68934,0,4.9545e+06,-13016,11762,11949,1,11949,1,-0.00029216,-6.6602e-08,0,0.00015078,-5.8257e-05,-1.1883e+08,-22557,0,6.019e+07,-6265.3,11948,12271,1,12271,1,0.00031092,3.0087e-08,0,0.00045228,5.4812e-05,1.1996e+08,9818.7,0,1.7764e+08,4347.4,12270,188.7,0,188.7,0,0.00034818,7.8683e-08,0,0.00017399,6.5268e-05,1.3692e+08,26427,0,6.7875e+07,5833.8,188.7,1
644,2.14,12109,1,12109,1,9.5332e-06,-5.8974e-08,0,0.00030355,-1.7501e-06,3098.6,-19744,0,1.1959e+08,-1262.1,12108,12432,1,12432,1,0.00059514,7.7596e-08,0,0.00059514,0.00010801,2.2375e+08,25908,0,2.343e+08,8545.9,12431,12110,1,12110,1,9.5231e-06,-3.7847e-08,0,0.00030361,-1.7525e-06,3.7183e+06,-12518,0,1.2057e+08,-1195.4,12109,11763,1,11763,1,-0.00057604,-2.622e-07,0,1.2143e-05,-0.00011149,-2.343e+08,-87910,0,4.9481e+06,-10889,11762,11949,1,11949,1,-0.00029406,-1.1484e-07,0,0.00015179,-5.867e-05,-1.196e+08,-38193,0,6.0588e+07,-5512.9,11948,12271,1,12271,1,0.00031314,-1.015e-09,0,0.00045536,5.5163e-05,1.2076e+08,-347.9,0,1.788e+08,3111.5,12270,188.7,0,188.7,0,0.00035054,7.806e-08,0,0.00017518,6.5708e-05,1.3781e+08,26269,0,6.831e+07,5001.6,188.7,1
644,2.15,12109,1,12109,1,9.6916e-06,2.7497e-08,0,0.00030488,-1.7804e-06,-2068.3,9186.7,0,1.2006e+08,-1822.3,12108,12432,1,12432,1,0.00059774,2.1362e-07,0,0.00059774,0.00010845,2.2451e+08,71652,0,2.3525e+08,8307.5,12431,12110,1,12110,1,9.6876e-06,1.1855e-08,0,0.0003049,-1.7832e-06,3.7819e+06,4060.4,0,1.2105e+08,-1955.9,12109,11763,1,11763,1,-0.00057839,-1.3e-07,0,1.2081e-05,-0.00011198,-2.3525e+08,-43884,0,4.9238e+06,-13684,11762,11949,1,11949,1,-0.00029523,-1.7138e-08,0,0.00015248,-5.8946e-05,-1.2008e+08,-5811.9,0,6.084e+07,-6925.8,11948,12271,1,12271,1,0.0003146,7.4702e-08,0,0.00045734,5.5386e-05,1.2124e+08,25330,0,1.7948e+08,3666.7,12270,188.7,0,188.7,0,0.00035208,7.3089e-08,0,0.00017595,6.5997e-05,1.3834e+08,24548,0,6.8572e+07,5623.4,188.7,1
644,2.16,12109,1,12109,1,9.8458e-06,-3.8218e-08,0,0.00030644,-1.8074e-06,5351.6,-12787,0,1.2064e+08,-1280.6,12108,12432,1,12432,1,0.00060094,8.762e-08,0,0.00060094,0.00010899,2.2553e+08,29391,0,2.3642e+08,6854.3,12431,12110,1,12110,1,9.844e-06,-2.5159e-08,0,0.00030648,-1.8104e-06,3.842e+06,-8206.6,0,1.2164e+08,-1375.2,12109,11763,1,11763,1,-0.00058126,-1.9422e-07,0,1.2041e-05,-0.00011258,-2.3642e+08,-65151,0,4.9073e+06,-9769.7,11762,11949,1,11949,1,-0.00029663,-7.451e-08,0,0.00015325,-5.9265e-05,-1.2065e+08,-24801,0,6.1139e+07,-5506.5,11948,12271,1,12271,1,0.00031633,-3.0938e-09,0,0.0004597,5.5646e-05,1.2184e+08,-1039,0,1.8035e+08,3033.3,12270,188.7,0,188.7,0,0.00035389,5.8121e-08,0,0.00017687,6.6335e-05,1.3901e+08,19559,0,6.8902e+07,4656.3,188.7,1
644,2.17,12109,1,12109,1,9.9827e-06,1.75e-08,0,0.00030761,-1.8291e-06,3240.7,5832.2,0,1.2106e+08,133.44,12108,12432,1,12432,1,0.00060325,2.1037e-07,0,0.00060325,0.00010938,2.2622e+08,70136,0,2.3726e+08,12837,12431,12110,1,12110,1,9.9765e-06,4.0049e-09,0,0.00030763,-1.8245e-06,3.8945e+06,1361.8,0,1.2207e+08,207.21,12109,11763,1,11763,1,-0.00058332,-1.392e-07,0,1.1985e-05,-0.00011301,-2.3726e+08,-46702,0,4.8851e+06,-11289,11762,11949,1,11949,1,-0.00029766,-2.5951e-08,0,0.00015384,-5.9508e-05,-1.2107e+08,-8576.1,0,6.136e+07,-5205.5,11948,12271,1,12271,1,0.00031763,6.11e-08,0,0.00046143,5.5852e-05,1.2227e+08,20375,0,1.8096e+08,5452.4,12270,188.7,0,188.7,0,0.00035524,7.2335e-08,0,0.00017754,6.6589e-05,1.3949e+08,24261,0,6.9133e+07,5934.7,188.7,1
644,2.18,12109,1,12109,1,1.0082e-05,-6.8495e-09,0,0.00030862,-1.8514e-06,-1540.1,-2276.5,0,1.2143e+08,-1583.8,12108,12432,1,12432,1,0.00060533,1.9145e-07,0,0.00060533,0.00010972,2.2684e+08,64164,0,2.3801e+08,8658.9,12431,12110,1,12110,1,1.0082e-05,-7.0371e-09,0,0.00030865,-1.8542e-06,3.9333e+06,-2230.9,0,1.2245e+08,-1599.2,12109,11763,1,11763,1,-0.00058516,-2.0119e-07,0,1.1959e-05,-0.00011339,-2.3801e+08,-67403,0,4.8751e+06,-14255,11762,11949,1,11949,1,-0.00029857,-5.7789e-08,0,0.00015434,-5.972e-05,-1.2144e+08,-19468,0,6.155e+07,-6928.4,11948,12271,1,12271,1,0.00031874,4.235e-08,0,0.00046294,5.6015e-05,1.2264e+08,14344,0,1.8149e+08,4306.1,12270,188.7,0,188.7,0,0.00035641,8.1494e-08,0,0.00017813,6.6807e-05,1.3991e+08,27361,0,6.9337e+07,6010.7,188.7,1
644,2.19,12109,1,12109,1,1.0206e-05,-7.9327e-08,0,0.0003098,-1.8703e-06,3520,-26527,0,1.2186e+08,6.6446,12108,12432,1,12432,1,0.00060789,4.6976e-08,0,0.00060789,0.00011015,2.2766e+08,15772,0,2.3895e+08,9402.9,12431,12110,1,12110,1,1.0195e-05,-5.8116e-08,0,0.00030986,-1.871e-06,3.9781e+06,-19385,0,1.229e+08,-106.01,12109,11763,1,11763,1,-0.00058746,-2.7607e-07,0,1.192e-05,-0.00011387,-2.3895e+08,-92472,0,4.8585e+06,-9965.3,11762,11949,1,11949,1,-0.00029965,-1.316e-07,0,0.00015492,-5.9961e-05,-1.2188e+08,-44487,0,6.1777e+07,-4626,11948,12271,1,12271,1,0.00032005,-2.0665e-08,0,0.00046474,5.6216e-05,1.231e+08,-6900.7,0,1.8216e+08,4662.3,12270,188.7,0,188.7,0,0.00035776,7.4939e-08,0,0.00017882,6.7061e-05,1.4041e+08,25216,0,6.9582e+07,5203.2,188.7,1
644,2.2,12109,1,12109,1,1.0317e-05,2.8126e-09,0,0.00031103,-1.8935e-06,799.17,932.58,0,1.2231e+08,-1130,12108,12432,1,12432,1,0.00061023,2.3464e-07,0,0.00061023,0.00011055,2.2838e+08,78316,0,2.3981e+08,11427,12431,12110,1,12110,1,1.0312e-05,-1.5495e-09,0,0.00031107,-1.8942e-06,4.0228e+06,-507.72,0,1.2336e+08,-1065.1,12109,11763,1,11763,1,-0.00058959,-2.1121e-07,0,1.1892e-05,-0.00011431,-2.3981e+08,-70733,0,4.8484e+06,-15677,11762,11949,1,11949,1,-0.00030075,-5.3831e-08,0,0.00015556,-6.0221e-05,-1.2232e+08,-17861,0,6.2015e+07,-7956.5,11948,12271,1,12271,1,0.0003214,5.6592e-08,0,0.00046656,5.6431e-05,1.2356e+08,19086,0,1.8281e+08,5739.5,12270,188.7,0,188.7,0,0.00035919,9.1538e-08,0,0.00017953,6.7331e-05,1.4093e+08,30722,0,6.9835e+07,7251.2,188.7,1
644,2.21,12109,1,12109,1,1.0476e-05,-3.2221e-08,0,0.00031319,-1.9242e-06,494.42,-10793,0,1.2313e+08,-1779,12108,12432,1,12432,1,0.0006146,1.5415e-07,0,0.0006146,0.00011131,2.2986e+08,51648,0,2.4146e+08,9883.6,12431,12110,1,12110,1,1.0473e-05,-1.8716e-08,0,0.00031324,-1.9307e-06,4.084e+06,-6089.7,0,1.2419e+08,-1558.9,12109,11763,1,11763,1,-0.00059365,-2.2848e-07,0,1.189e-05,-0.00011513,-2.4146e+08,-76714,0,4.8479e+06,-13212,11762,11949,1,11949,1,-0.00030276,-8.2834e-08,0,0.00015663,-6.065e-05,-1.2314e+08,-27623,0,6.243e+07,-7360.6,11948,12271,1,12271,1,0.00032372,1.3274e-08,0,0.00046982,5.6798e-05,1.2439e+08,4406.8,0,1.8403e+08,4211.7,12270,188.7,0,188.7,0,0.00036168,7.8768e-08,0,0.00018078,6.7796e-05,1.4186e+08,26478,0,7.0296e+07,6188.5,188.7,1
644,2.22,12109,1,12109,1,1.0672e-05,6.8405e-10,0,0.00031471,-1.9575e-06,3872.2,240.43,0,1.2367e+08,-677.41,12108,12432,1,12432,1,0.00061766,1.5683e-07,0,0.00061766,0.00011182,2.3075e+08,52504,0,2.4255e+08,8713.5,12431,12110,1,12110,1,1.0668e-05,1.3304e-09,0,0.00031474,-1.9603e-06,4.161e+06,440.7,0,1.2474e+08,-971.35,12109,11763,1,11763,1,-0.00059632,-1.6553e-07,0,1.1801e-05,-0.0001157,-2.4255e+08,-55413,0,4.8119e+06,-10597,11762,11949,1,11949,1,-0.00030406,-4.0152e-08,0,0.00015738,-6.0962e-05,-1.2367e+08,-13393,0,6.2716e+07,-5283.2,11948,12271,1,12271,1,0.00032542,4.1629e-08,0,0.00047208,5.7045e-05,1.2496e+08,14053,0,1.8482e+08,3992.7,12270,188.7,0,188.7,0,0.00036344,6.7125e-08,0,0.00018167,6.8123e-05,1.4248e+08,22533,0,7.0599e+07,5106.3,188.7,1
644,2.23,12109,1,12109,1,1.0824e-05,-2.4107e-08,0,0.00031609,-1.9914e-06,2138.5,-8016.9,0,1.2417e+08,-3190.5,12108,12432,1,12432,1,0.00062052,1.3121e-07,0,0.00062052,0.00011229,2.3162e+08,44387,0,2.4358e+08,6435.1,12431,12110,1,12110,1,1.0827e-05,-1.4054e-08,0,0.00031613,-2.0001e-06,4.221e+06,-4599.5,0,1.2526e+08,-2623.6,12109,11763,1,11763,1,-0.00059885,-1.9816e-07,0,1.1744e-05,-0.00011624,-2.4358e+08,-66423,0,4.7898e+06,-16423,11762,11949,1,11949,1,-0.00030529,-6.5764e-08,0,0.00015807,-6.1258e-05,-1.2417e+08,-22089,0,6.2977e+07,-7967.4,11948,12271,1,12271,1,0.00032696,1.4719e-08,0,0.00047416,5.7272e-05,1.2547e+08,4899.8,0,1.8557e+08,2529.9,12270,188.7,0,188.7,0,0.00036503,6.8689e-08,0,0.00018247,6.8423e-05,1.4306e+08,23091,0,7.0879e+07,6064.5,188.7,1
644,2.24,12109,1,12109,1,1.0952e-05,4.2977e-08,0,0.00031713,-2.0088e-06,1476.6,14382,0,1.2454e+08,-696.99,12108,12432,1,12432,1,0.00062265,2.5485e-07,0,0.00062265,0.00011266,2.3226e+08,85284,0,2.4437e+08,9523.7,12431,12110,1,12110,1,1.0952e-05,2.0332e-08,0,0.00031717,-2.0106e-06,4.2694e+06,6761.6,0,1.2565e+08,-521.86,12109,11763,1,11763,1,-0.00060079,-1.0489e-07,0,1.1697e-05,-0.00011664,-2.4437e+08,-35103,0,4.7702e+06,-11988,11762,11949,1,11949,1,-0.00030623,-8.9942e-09,0,0.00015861,-6.1476e-05,-1.2455e+08,-2970.9,0,6.3179e+07,-5843.4,11948,12271,1,12271,1,0.00032813,9.1172e-08,0,0.00047574,5.7453e-05,1.2587e+08,30200,0,1.8612e+08,4791.6,12270,188.7,0,188.7,0,0.00036624,7.674e-08,0,0.00018308,6.8649e-05,1.4348e+08,25753,0,7.1084e+07,5987.2,188.7,1
644,2.25,12109,1,12109,1,1.1073e-05,-6.2277e-08,0,0.00031842,-2.0329e-06,473.67,-20804,0,1.2501e+08,-1445.7,12108,12432,1,12432,1,0.00062534,1.7065e-07,0,0.00062534,0.0001131,2.331e+08,57104,0,2.4534e+08,13330,12431,12110,1,12110,1,1.1072e-05,-3.8478e-08,0,0.00031848,-2.0369e-06,4.3152e+06,-12708,0,1.2614e+08,-910.51,12109,11763,1,11763,1,-0.00060318,-3.1027e-07,0,1.1669e-05,-0.00011714,-2.4534e+08,-1.0408e+05,0,4.76e+06,-17619,11762,11949,1,11949,1,-0.0003074,-1.3233e-07,0,0.00015926,-6.1744e-05,-1.2503e+08,-44571,0,6.3424e+07,-8653.3,11948,12271,1,12271,1,0.00032955,7.0696e-10,0,0.00047767,5.7678e-05,1.2635e+08,232.22,0,1.8683e+08,6452.1,12270,188.7,0,188.7,0,0.00036771,1.0244e-07,0,0.00018382,6.893e-05,1.4402e+08,34388,0,7.1347e+07,8595,188.7,1
644,2.26,12109,1,12109,1,1.1222e-05,-5.2969e-08,0,0.0003202,-2.0594e-06,-769.5,-17694,0,1.2567e+08,-1131,12108,12432,1,12432,1,0.00062896,1.2519e-07,0,0.00062896,0.00011372,2.3427e+08,41793,0,2.4668e+08,10906,12431,12110,1,12110,1,1.1214e-05,-3.3102e-08,0,0.00032027,-2.0644e-06,4.3712e+06,-11187,0,1.2682e+08,-626.75,12109,11763,1,11763,1,-0.00060648,-2.7431e-07,0,1.1644e-05,-0.00011782,-2.4668e+08,-91804,0,4.7495e+06,-16605,11762,11949,1,11949,1,-0.00030903,-1.1275e-07,0,0.00016013,-6.2102e-05,-1.2569e+08,-37221,0,6.3765e+07,-6907.3,11948,12271,1,12271,1,0.00033149,4.1991e-09,0,0.00048035,5.7981e-05,1.2703e+08,1421.7,0,1.8781e+08,5366.1,12270,188.7,0,188.7,0,0.00036978,8.7404e-08,0,0.00018486,6.9314e-05,1.4479e+08,29338,0,7.1723e+07,7065.9,188.7,1
644,2.27,12109,1,12109,1,1.1417e-05,-8.1398e-08,0,0.00032211,-2.0931e-06,117.27,-27210,0,1.2637e+08,-318.8,12108,12432,1,12432,1,0.00063288,6.5233e-08,0,0.00063288,0.00011438,2.3549e+08,21702,0,2.4811e+08,10784,12431,12110,1,12110,1,1.1406e-05,-5.8072e-08,0,0.00032219,-2.096e-06,4.4455e+06,-19536,0,1.2754e+08,-500.16,12109,11763,1,11763,1,-0.00060999,-2.9845e-07,0,1.1585e-05,-0.00011855,-2.4811e+08,-1.0037e+05,0,4.7262e+06,-11498,11762,11949,1,11949,1,-0.00031075,-1.4075e-07,0,0.00016107,-6.2492e-05,-1.2639e+08,-46647,0,6.4127e+07,-5354.6,11948,12271,1,12271,1,0.00033358,-1.8223e-08,0,0.0004832,5.8298e-05,1.2775e+08,-6008.4,0,1.8885e+08,4858.1,12270,188.7,0,188.7,0,0.00037198,8.3588e-08,0,0.00018597,6.9724e-05,1.4558e+08,28122,0,7.2115e+07,5819,188.7,1
644,2.28,12109,1,12109,1,1.1598e-05,-1.0348e-07,0,0.00032329,-2.1299e-06,2842.4,-34572,0,1.2678e+08,-1740.2,12108,12432,1,12432,1,0.00063541,5.2614e-08,0,0.00063541,0.00011479,2.3618e+08,17505,0,2.49e+08,10958,12431,12110,1,12110,1,1.1585e-05,-7.7281e-08,0,0.00032338,-2.1319e-06,4.5149e+06,-25714,0,1.2797e+08,-1435.4,12109,11763,1,11763,1,-0.00061217,-3.5764e-07,0,1.1486e-05,-0.00011902,-2.49e+08,-1.1979e+05,0,4.687e+06,-15786,11762,11949,1,11949,1,-0.00031176,-1.7865e-07,0,0.00016166,-6.2752e-05,-1.268e+08,-59331,0,6.4348e+07,-7888.5,11948,12271,1,12271,1,0.00033495,-1.8096e-08,0,0.00048498,5.8487e-05,1.2819e+08,-5704,0,1.8946e+08,4280.2,12270,188.7,0,188.7,0,0.00037334,1.0153e-07,0,0.00018665,6.9981e-05,1.4605e+08,34112,0,7.234e+07,6984.2,188.7,1
644,2.29,12109,1,12109,1,1.1751e-05,-8.375e-08,0,0.00032463,-2.1525e-06,7521.3,-28001,0,1.2727e+08,516.99,12108,12432,1,12432,1,0.00063811,7.8635e-08,0,0.00063811,0.00011524,2.37e+08,26142,0,2.4997e+08,12692,12431,12110,1,12110,1,1.1737e-05,-6.0619e-08,0,0.00032471,-2.1533e-06,4.574e+06,-20497,0,1.2846e+08,303.58,12109,11763,1,11763,1,-0.00061457,-3.1326e-07,0,1.1436e-05,-0.00011953,-2.4997e+08,-1.0517e+05,0,4.6663e+06,-11363,11762,11949,1,11949,1,-0.00031295,-1.513e-07,0,0.00016234,-6.3026e-05,-1.2729e+08,-49885,0,6.4605e+07,-4983.3,11948,12271,1,12271,1,0.00033645,-1.377e-08,0,0.00048699,5.8712e-05,1.2869e+08,-4584.6,0,1.9018e+08,6058.7,12270,188.7,0,188.7,0,0.00037489,9.0914e-08,0,0.00018744,7.0269e-05,1.4661e+08,30561,0,7.2614e+07,6285,188.7,1
644,2.3,12109,1,12109,1,1.1867e-05,-1.0611e-07,0,0.00032623,-2.1737e-06,-8166.8,-35426,0,1.2785e+08,513.54,12108,12432,1,12432,1,0.00064137,3.6448e-08,0,0.00064137,0.0001158,2.3804e+08,12127,0,2.5119e+08,12776,12431,12110,1,12110,1,1.1857e-05,-8.2296e-08,0,0.00032632,-2.1774e-06,4.6194e+06,-27480,0,1.2907e+08,541.27,12109,11763,1,11763,1,-0.00061757,-3.5462e-07,0,1.1428e-05,-0.00012014,-2.5119e+08,-1.1887e+05,0,4.663e+06,-11910,11762,11949,1,11949,1,-0.00031443,-1.7927e-07,0,0.00016313,-6.3346e-05,-1.2789e+08,-59908,0,6.4907e+07,-5159.6,11948,12271,1,12271,1,0.00033816,-2.1569e-08,0,0.00048939,5.8993e-05,1.2929e+08,-6904,0,1.9106e+08,6629.4,12270,188.7,0,188.7,0,0.00037674,9.936e-08,0,0.00018836,7.0616e-05,1.4729e+08,33392,0,7.2945e+07,6554.8,188.7,1
644,2.31,12109,1,12109,1,1.2055e-05,-3.2857e-09,0,0.00032786,-2.2122e-06,-4891.3,-1144.9,0,1.2844e+08,-1208.7,12108,12432,1,12432,1,0.00064446,2.022e-07,0,0.00064446,0.00011632,2.3896e+08,67152,0,2.523e+08,9800.2,12431,12110,1,12110,1,1.205e-05,-2.147e-09,0,0.0003279,-2.2163e-06,4.6937e+06,-702.47,0,1.2966e+08,-1021,12109,11763,1,11763,1,-0.0006203,-2.0405e-07,0,1.1353e-05,-0.00012071,-2.523e+08,-68743,0,4.6343e+06,-13737,11762,11949,1,11949,1,-0.00031583,-5.9718e-08,0,0.00016396,-6.3684e-05,-1.2846e+08,-19806,0,6.5214e+07,-6622.4,11948,12271,1,12271,1,0.00033996,5.0123e-08,0,0.0004918,5.9255e-05,1.2988e+08,16530,0,1.919e+08,4606.3,12270,188.7,0,188.7,0,0.00037862,8.6344e-08,0,0.00018931,7.0969e-05,1.4796e+08,28935,0,7.3276e+07,6414.8,188.7,1
644,2.32,12109,1,12109,1,1.2252e-05,-6.8724e-08,0,0.00032954,-2.2481e-06,1066.6,-22924,0,1.2906e+08,-1127.9,12108,12432,1,12432,1,0.00064802,5.8965e-08,0,0.00064802,0.00011691,2.4007e+08,19592,0,2.536e+08,8088.2,12431,12110,1,12110,1,1.2241e-05,-4.7652e-08,0,0.00032961,-2.2516e-06,4.7678e+06,-16154,0,1.303e+08,-1115.8,12109,11763,1,11763,1,-0.0006235,-2.6346e-07,0,1.1282e-05,-0.00012138,-2.536e+08,-88136,0,4.606e+06,-10247,11762,11949,1,11949,1,-0.00031735,-1.2177e-07,0,0.00016479,-6.4035e-05,-1.2908e+08,-40545,0,6.5537e+07,-5302.5,11948,12271,1,12271,1,0.00034185,-1.2356e-08,0,0.00049436,5.9531e-05,1.3053e+08,-4059,0,1.9283e+08,3363.6,12270,188.7,0,188.7,0,0.00038057,7.424e-08,0,0.0001903,7.133e-05,1.4867e+08,24920,0,7.362e+07,4774.8,188.7,1
644,2.33,12109,1,12109,1,1.2421e-05,-3.3591e-08,0,0.00033088,-2.2772e-06,-2568.4,-11240,0,1.2953e+08,-296.06,12108,12432,1,12432,1,0.00065071,1.0465e-07,0,0.00065071,0.00011735,2.4082e+08,34742,0,2.5454e+08,8081.5,12431,12110,1,12110,1,1.2411e-05,-1.8654e-08,0,0.00033093,-2.2785e-06,4.8335e+06,-6312.6,0,1.3078e+08,-222.54,12109,11763,1,11763,1,-0.00062581,-1.9943e-07,0,1.1201e-05,-0.00012188,-2.5454e+08,-66820,0,4.5736e+06,-9500.4,11762,11949,1,11949,1,-0.00031849,-7.434e-08,0,0.00016545,-6.4312e-05,-1.2954e+08,-24870,0,6.578e+07,-4520.1,11948,12271,1,12271,1,0.00034335,5.8766e-09,0,0.00049634,5.9751e-05,1.3101e+08,1920.6,0,1.9351e+08,4233.6,12270,188.7,0,188.7,0,0.00038211,6.3522e-08,0,0.00019108,7.1619e-05,1.492e+08,21303,0,7.3882e+07,4834.3,188.7,1
644,2.34,12109,1,12109,1,1.2575e-05,-1.0018e-07,0,0.00033194,-2.3069e-06,1848.4,-33406,0,1.299e+08,-889.8,12108,12432,1,12432,1,0.00065303,4.5514e-08,0,0.00065303,0.00011773,2.4149e+08,15119,0,2.5537e+08,9090.3,12431,12110,1,12110,1,1.2559e-05,-7.7755e-08,0,0.00033202,-2.3099e-06,4.8901e+06,-25778,0,1.3118e+08,-890.43,12109,11763,1,11763,1,-0.00062785,-3.3093e-07,0,1.1131e-05,-0.00012232,-2.5537e+08,-1.1071e+05,0,4.5455e+06,-12265,11762,11949,1,11949,1,-0.00031943,-1.6638e-07,0,0.00016599,-6.4545e-05,-1.2992e+08,-54922,0,6.5986e+07,-5522.6,11948,12271,1,12271,1,0.00034457,-2.673e-08,0,0.00049795,5.9924e-05,1.3142e+08,-8472,0,1.9408e+08,4126.8,12270,188.7,0,188.7,0,0.00038333,9.0012e-08,0,0.00019169,7.1848e-05,1.4963e+08,30226,0,7.4088e+07,5414.6,188.7,1
644,2.35,12109,1,12109,1,1.2718e-05,-3.8151e-08,0,0.00033351,-2.3317e-06,-1042.8,-12751,0,1.3048e+08,-366.29,12108,12432,1,12432,1,0.00065607,1.2756e-07,0,0.00065607,0.00011824,2.4245e+08,42322,0,2.5649e+08,9498.6,12431,12110,1,12110,1,1.2708e-05,-2.2931e-08,0,0.00033356,-2.336e-06,4.947e+06,-7585.5,0,1.3176e+08,-434.25,12109,11763,1,11763,1,-0.00063059,-2.2399e-07,0,1.1096e-05,-0.00012288,-2.5649e+08,-75316,0,4.5318e+06,-12260,11762,11949,1,11949,1,-0.00032083,-8.7678e-08,0,0.00016677,-6.486e-05,-1.3049e+08,-28742,0,6.6279e+07,-4984.2,11948,12271,1,12271,1,0.00034628,6.769e-09,0,0.00050029,6.0192e-05,1.32e+08,2283.2,0,1.9492e+08,4900.6,12270,188.7,0,188.7,0,0.00038515,7.3884e-08,0,0.00019261,7.2188e-05,1.5029e+08,24780,0,7.4415e+07,5632.2,188.7,1
644,2.36,12109,1,12109,1,1.2901e-05,-7.0284e-08,0,0.00033505,-2.3684e-06,1607.3,-23421,0,1.3103e+08,-1572.7,12108,12432,1,12432,1,0.00065929,8.9993e-08,0,0.00065929,0.00011878,2.4342e+08,30035,0,2.5765e+08,10612,12431,12110,1,12110,1,1.2893e-05,-4.8907e-08,0,0.00033512,-2.3773e-06,5.0182e+06,-16010,0,1.3234e+08,-1492.3,12109,11763,1,11763,1,-0.00063345,-2.9831e-07,0,1.1025e-05,-0.00012349,-2.5765e+08,-99992,0,4.5037e+06,-14048,11762,11949,1,11949,1,-0.0003222,-1.3125e-07,0,0.00016755,-6.5189e-05,-1.3105e+08,-43838,0,6.6574e+07,-7354.3,11948,12271,1,12271,1,0.00034801,-5.8761e-09,0,0.00050262,6.0448e-05,1.3258e+08,-1874,0,1.9575e+08,4472.4,12270,188.7,0,188.7,0,0.00038692,8.8896e-08,0,0.0001935,7.2522e-05,1.5093e+08,29821,0,7.4724e+07,6459.1,188.7,1
644,2.37,12109,1,12109,1,1.3079e-05,-2.5926e-08,0,0.00033653,-2.4018e-06,-73.064,-8658.8,0,1.3156e+08,-1930,12108,12432,1,12432,1,0.00066225,1.2945e-07,0,0.00066225,0.00011926,2.4429e+08,42922,0,2.587e+08,7910.2,12431,12110,1,12110,1,1.3071e-05,-1.3619e-08,0,0.00033659,-2.4111e-06,5.0863e+06,-4542.1,0,1.3288e+08,-1610.1,12109,11763,1,11763,1,-0.00063603,-2.1472e-07,0,1.0944e-05,-0.00012404,-2.587e+08,-71796,0,4.4719e+06,-16307,11762,11949,1,11949,1,-0.00032348,-7.0416e-08,0,0.00016828,-6.5494e-05,-1.3157e+08,-23597,0,6.6847e+07,-6283.8,11948,12271,1,12271,1,0.00034967,1.7912e-08,0,0.00050481,6.0687e-05,1.3312e+08,5771.7,0,1.9652e+08,2790.9,12270,188.7,0,188.7,0,0.00038864,7.2423e-08,0,0.00019437,7.284e-05,1.5154e+08,24282,0,7.5021e+07,5633,188.7,1
644,2.38,12109,1,12109,1,1.3256e-05,-4.9272e-08,0,0.0003376,-2.433e-06,7697.1,-16419,0,1.3193e+08,-1378,12108,12432,1,12432,1,0.00066452,1.1477e-07,0,0.00066452,0.00011963,2.4491e+08,38169,0,2.5949e+08,10058,12431,12110,1,12110,1,1.3248e-05,-2.8357e-08,0,0.00033766,-2.4407e-06,5.155e+06,-9350.4,0,1.3326e+08,-1243.8,12109,11763,1,11763,1,-0.00063798,-2.5959e-07,0,1.085e-05,-0.00012446,-2.5949e+08,-87127,0,4.4345e+06,-12736,11762,11949,1,11949,1,-0.00032439,-1.0446e-07,0,0.00016882,-6.573e-05,-1.3194e+08,-35148,0,6.7048e+07,-6932.6,11948,12271,1,12271,1,0.00035091,3.7179e-09,0,0.00050644,6.086e-05,1.3352e+08,1228.4,0,1.9708e+08,4177.2,12270,188.7,0,188.7,0,0.00038987,8.2597e-08,0,0.000195,7.3074e-05,1.5196e+08,27681,0,7.5227e+07,6093.2,188.7,1
644,2.39,12109,1,12109,1,1.339e-05,-2.877e-09,0,0.00033897,-2.4585e-06,1541.3,-986.04,0,1.3243e+08,-1816,12108,12432,1,12432,1,0.00066722,1.5501e-07,0,0.00066722,0.00012008,2.4573e+08,51364,0,2.6048e+08,8449.3,12431,12110,1,12110,1,1.3385e-05,1.1396e-09,0,0.00033901,-2.4667e-06,5.2065e+06,375.63,0,1.3377e+08,-1574.1,12109,11763,1,11763,1,-0.0006404,-1.725e-07,0,1.0806e-05,-0.00012497,-2.6048e+08,-57796,0,4.4174e+06,-14925,11762,11949,1,11949,1,-0.0003256,-4.6675e-08,0,0.0001695,-6.6006e-05,-1.3243e+08,-15612,0,6.7303e+07,-6295.2,11948,12271,1,12271,1,0.0003524,3.7389e-08,0,0.00050847,6.1085e-05,1.3402e+08,12261,0,1.978e+08,3013,12270,188.7,0,188.7,0,0.00039145,6.8516e-08,0,0.00019579,7.3368e-05,1.5253e+08,22955,0,7.5506e+07,5511.1,188.7,1
644,2.4,12109,1,12109,1,1.3551e-05,-5.7073e-08,0,0.00034049,-2.4865e-06,-763.91,-19016,0,1.3298e+08,-1210.1,12108,12432,1,12432,1,0.00067041,1.1481e-07,0,0.00067041,0.00012062,2.4671e+08,38276,0,2.6164e+08,10590,12431,12110,1,12110,1,1.3539e-05,-3.7899e-08,0,0.00034056,-2.4922e-06,5.2663e+06,-12432,0,1.3435e+08,-1378.5,12109,11763,1,11763,1,-0.00064326,-2.7168e-07,0,1.0766e-05,-0.00012556,-2.6164e+08,-90890,0,4.4011e+06,-14415,11762,11949,1,11949,1,-0.00032699,-1.1385e-07,0,0.00017027,-6.6325e-05,-1.33e+08,-37626,0,6.7596e+07,-6833.1,11948,12271,1,12271,1,0.0003541,-2.1388e-09,0,0.00051077,6.1348e-05,1.346e+08,-694.46,0,1.9863e+08,4760.1,12270,188.7,0,188.7,0,0.00039321,8.3425e-08,0,0.00019668,7.3698e-05,1.5316e+08,27937,0,7.5813e+07,6378.6,188.7,1
644,2.41,12109,1,12109,1,1.3761e-05,1.7241e-08,0,0.00034242,-2.5289e-06,1387.7,5732.1,0,1.3368e+08,-2826,12108,12432,1,12432,1,0.00067417,2.0207e-07,0,0.00067417,0.00012127,2.4791e+08,67356,0,2.6305e+08,7627.4,12431,12110,1,12110,1,1.3761e-05,4.842e-09,0,0.00034244,-2.5393e-06,5.3497e+06,1587.6,0,1.3506e+08,-2459.3,12109,11763,1,11763,1,-0.00064672,-1.4468e-07,0,1.0688e-05,-0.00012627,-2.6305e+08,-48798,0,4.371e+06,-15912,11762,11949,1,11949,1,-0.00032869,-2.7453e-08,0,0.00017125,-6.6729e-05,-1.3369e+08,-8990,0,6.7963e+07,-8388.1,11948,12271,1,12271,1,0.00035621,6.4418e-08,0,0.00051366,6.1663e-05,1.3532e+08,21371,0,1.9967e+08,2998.8,12270,188.7,0,188.7,0,0.00039544,7.3337e-08,0,0.0001978,7.4116e-05,1.5397e+08,24541,0,7.621e+07,6136,188.7,1
644,2.42,12109,1,12109,1,1.3948e-05,-5.0073e-08,0,0.00034363,-2.5601e-06,-3762.8,-16648,0,1.3409e+08,-1607.8,12108,12432,1,12432,1,0.00067684,7.7707e-08,0,0.00067684,0.00012167,2.4857e+08,25736,0,2.6393e+08,6639.5,12431,12110,1,12110,1,1.3937e-05,-3.2352e-08,0,0.00034369,-2.5631e-06,5.4189e+06,-10705,0,1.355e+08,-1692.5,12109,11763,1,11763,1,-0.00064889,-2.3156e-07,0,1.0583e-05,-0.00012677,-2.6393e+08,-77165,0,4.3291e+06,-11930,11762,11949,1,11949,1,-0.00032972,-9.5398e-08,0,0.00017183,-6.6982e-05,-1.3411e+08,-31596,0,6.8181e+07,-5918.6,11948,12271,1,12271,1,0.00035763,-3.6744e-09,0,0.00051548,6.1856e-05,1.3575e+08,-1219.1,0,2.0028e+08,2955,12270,188.7,0,188.7,0,0.00039684,6.8083e-08,0,0.00019852,7.4376e-05,1.5444e+08,22783,0,7.6437e+07,4829.8,188.7,1
644,2.43,12109,1,12109,1,1.4117e-05,-5.8784e-08,0,0.00034499,-2.5904e-06,-1578.8,-19583,0,1.3458e+08,-1239,12108,12432,1,12432,1,0.00067968,1.1909e-07,0,0.00067968,0.00012215,2.4941e+08,39680,0,2.6495e+08,9919.6,12431,12110,1,12110,1,1.4109e-05,-4.1281e-08,0,0.00034506,-2.5979e-06,5.4848e+06,-13601,0,1.36e+08,-969.56,12109,11763,1,11763,1,-0.00065141,-2.7337e-07,0,1.0518e-05,-0.0001273,-2.6495e+08,-91531,0,4.3032e+06,-13637,11762,11949,1,11949,1,-0.00033093,-1.1773e-07,0,0.00017251,-6.7272e-05,-1.346e+08,-39298,0,6.8438e+07,-6618.1,11948,12271,1,12271,1,0.00035917,-1.9885e-10,0,0.00051752,6.2086e-05,1.3626e+08,-55.536,0,2.01e+08,4411.1,12270,188.7,0,188.7,0,0.0003984,8.5665e-08,0,0.0001993,7.4671e-05,1.5499e+08,28689,0,7.6707e+07,6361.6,188.7,1
644,2.44,12109,1,12109,1,1.4284e-05,-7.871e-08,0,0.00034619,-2.6186e-06,562.78,-26206,0,1.35e+08,-256.04,12108,12432,1,12432,1,0.0006822,4.9742e-08,0,0.0006822,0.00012256,2.5012e+08,16375,0,2.6584e+08,9081.5,12431,12110,1,12110,1,1.4269e-05,-5.6137e-08,0,0.00034628,-2.6225e-06,5.5464e+06,-18755,0,1.3644e+08,-349.99,12109,11763,1,11763,1,-0.00065358,-2.8941e-07,0,1.0427e-05,-0.00012777,-2.6584e+08,-96815,0,4.267e+06,-9669.1,11762,11949,1,11949,1,-0.00033196,-1.3489e-07,0,0.0001731,-6.7524e-05,-1.3502e+08,-44605,0,6.8659e+07,-5080.1,11948,12271,1,12271,1,0.00036053,-1.7773e-08,0,0.00051932,6.2279e-05,1.367e+08,-5585.4,0,2.0163e+08,4508.8,12270,188.7,0,188.7,0,0.00039979,7.9174e-08,0,0.00020001,7.4929e-05,1.5548e+08,26551,0,7.6945e+07,5147.8,188.7,1
644,2.45,12109,1,12109,1,1.447e-05,-3.7734e-08,0,0.00034806,-2.6566e-06,189.9,-12577,0,1.3569e+08,-1906.9,12108,12432,1,12432,1,0.00068589,1.0751e-07,0,0.00068589,0.00012318,2.5127e+08,35806,0,2.672e+08,7485.7,12431,12110,1,12110,1,1.4469e-05,-2.1615e-08,0,0.00034812,-2.6653e-06,5.6225e+06,-7131.5,0,1.3713e+08,-1713.2,12109,11763,1,11763,1,-0.00065692,-2.1403e-07,0,1.0376e-05,-0.00012846,-2.672e+08,-71816,0,4.2472e+06,-12537,11762,11949,1,11949,1,-0.00033363,-8.0759e-08,0,0.00017405,-6.7909e-05,-1.357e+08,-26610,0,6.9016e+07,-6886.5,11948,12271,1,12271,1,0.00036258,2.6583e-09,0,0.00052212,6.259e-05,1.374e+08,910.5,0,2.0263e+08,3382.6,12270,188.7,0,188.7,0,0.00040195,6.7035e-08,0,0.0002011,7.5334e-05,1.5627e+08,22478,0,7.7331e+07,5462.3,188.7,1
644,2.46,12109,1,12109,1,1.468e-05,-3.5316e-08,0,0.00034961,-2.6905e-06,-1141.8,-11764,0,1.3623e+08,63.04,12108,12432,1,12432,1,0.0006891,1.257e-07,0,0.0006891,0.0001237,2.5218e+08,41570,0,2.6832e+08,10526,12431,12110,1,12110,1,1.4666e-05,-1.7617e-08,0,0.00034967,-2.6943e-06,5.6988e+06,-5782.9,0,1.377e+08,13.196,12109,11763,1,11763,1,-0.00065969,-2.3802e-07,0,1.0276e-05,-0.00012906,-2.6832e+08,-79428,0,4.2073e+06,-10166,11762,11949,1,11949,1,-0.00033496,-8.6672e-08,0,0.00017481,-6.8236e-05,-1.3624e+08,-28893,0,6.9302e+07,-5393.3,11948,12271,1,12271,1,0.00036434,1.4051e-08,0,0.00052444,6.2846e-05,1.3797e+08,4745.1,0,2.0343e+08,5071.4,12270,188.7,0,188.7,0,0.00040373,7.7055e-08,0,0.000202,7.5668e-05,1.5689e+08,25755,0,7.7631e+07,5623.7,188.7,1
644,2.47,12109,1,12109,1,1.4884e-05,-3.9567e-08,0,0.00035103,-2.7347e-06,284.06,-13169,0,1.3673e+08,-2796,12108,12432,1,12432,1,0.00069203,1.0573e-07,0,0.00069203,0.00012417,2.5299e+08,35073,0,2.6935e+08,5765.4,12431,12110,1,12110,1,1.4876e-05,-2.2509e-08,0,0.00035109,-2.7451e-06,5.7784e+06,-7572,0,1.3821e+08,-2489.8,12109,11763,1,11763,1,-0.0006622,-2.1712e-07,0,1.0176e-05,-0.00012961,-2.6935e+08,-72501,0,4.1681e+06,-13514,11762,11949,1,11949,1,-0.00033618,-8.6312e-08,0,0.00017552,-6.8541e-05,-1.3674e+08,-28207,0,6.9565e+07,-7635.2,11948,12271,1,12271,1,0.00036596,2.8581e-09,0,0.00052656,6.3067e-05,1.3849e+08,925.85,0,2.0417e+08,2596.7,12270,188.7,0,188.7,0,0.00040538,6.879e-08,0,0.00020284,7.5976e-05,1.5746e+08,23019,0,7.791e+07,5520,188.7,1
644,2.48,12109,1,12109,1,1.5053e-05,-1.02e-07,0,0.0003522,-2.759e-06,-626.35,-33910,0,1.3713e+08,-48.49,12108,12432,1,12432,1,0.00069462,2.728e-08,0,0.00069462,0.0001246,2.5372e+08,8397.1,0,2.7027e+08,8673.5,12431,12110,1,12110,1,1.5037e-05,-8.4562e-08,0,0.00035229,-2.7642e-06,5.8405e+06,-27639,0,1.3864e+08,-150.61,12109,11763,1,11763,1,-0.00066447,-3.078e-07,0,1.009e-05,-0.00013009,-2.7027e+08,-1.0269e+05,0,4.1333e+06,-8588.4,11762,11949,1,11949,1,-0.00033721,-1.615e-07,0,0.0001761,-6.8786e-05,-1.3715e+08,-53930,0,6.9784e+07,-4425.4,11948,12271,1,12271,1,0.0003673,-3.0929e-08,0,0.00052833,6.326e-05,1.3892e+08,-10214,0,2.0478e+08,4158.3,12270,188.7,0,188.7,0,0.00040673,8.1155e-08,0,0.00020352,7.6227e-05,1.5792e+08,27215,0,7.8136e+07,4628.2,188.7,1
644,2.49,12109,1,12109,1,1.5223e-05,-5.2473e-08,0,0.00035379,-2.7882e-06,-3835,-17515,0,1.377e+08,747.75,12108,12432,1,12432,1,0.00069776,1.1407e-07,0,0.00069776,0.00012512,2.5465e+08,37686,0,2.714e+08,12005,12431,12110,1,12110,1,1.5213e-05,-2.855e-08,0,0.00035387,-2.7921e-06,5.9078e+06,-9000.6,0,1.3923e+08,1055.9,12109,11763,1,11763,1,-0.00066725,-2.84e-07,0,1.0038e-05,-0.00013068,-2.714e+08,-95120,0,4.1123e+06,-11429,11762,11949,1,11949,1,-0.00033862,-1.0688e-07,0,0.00017691,-6.9119e-05,-1.3773e+08,-35176,0,7.0085e+07,-5272.4,11948,12271,1,12271,1,0.00036908,3.0094e-09,0,0.00053072,6.3538e-05,1.3951e+08,941.24,0,2.0562e+08,6665.6,12270,188.7,0,188.7,0,0.00040857,8.5504e-08,0,0.00020444,7.6573e-05,1.5858e+08,28621,0,7.8457e+07,6505.3,188.7,1
644,2.5,12109,1,12109,1,1.5443e-05,-3.1824e-08,0,0.00035542,-2.8294e-06,1875.5,-10616,0,1.3828e+08,481.84,12108,12432,1,12432,1,0.00070107,1.1079e-07,0,0.00070107,0.00012566,2.5561e+08,36596,0,2.7257e+08,9964.3,12431,12110,1,12110,1,1.543e-05,-1.5577e-08,0,0.00035548,-2.8312e-06,5.9915e+06,-5152.3,0,1.3982e+08,809.28,12109,11763,1,11763,1,-0.00067012,-2.1774e-07,0,9.9277e-06,-0.0001313,-2.7257e+08,-72732,0,4.0691e+06,-9729.4,11762,11949,1,11949,1,-0.00034001,-7.0925e-08,0,0.00017772,-6.9461e-05,-1.3829e+08,-23375,0,7.0387e+07,-4867.7,11948,12271,1,12271,1,0.00037091,7.9376e-09,0,0.00053315,6.3796e-05,1.4011e+08,2718.7,0,2.0647e+08,5568.4,12270,188.7,0,188.7,0,0.00041045,6.6402e-08,0,0.0002054,7.6924e-05,1.5924e+08,22192,0,7.8781e+07,5562.1,188.7,1
644,2.51,12109,1,12109,1,1.5647e-05,1.9973e-08,0,0.00035684,-2.8663e-06,-911.7,6590.7,0,1.3878e+08,619.54,12108,12432,1,12432,1,0.00070389,2.06e-07,0,0.00070389,0.00012613,2.5642e+08,68200,0,2.7358e+08,11719,12431,12110,1,12110,1,1.564e-05,1.1452e-08,0,0.00035688,-2.8708e-06,6.0714e+06,3807.7,0,1.4033e+08,519.73,12109,11763,1,11763,1,-0.00067262,-1.769e-07,0,9.8333e-06,-0.00013182,-2.7358e+08,-59056,0,4.0318e+06,-11898,11762,11949,1,11949,1,-0.00034123,-2.6129e-08,0,0.00017845,-6.9765e-05,-1.3879e+08,-8816.3,0,7.0653e+07,-5009.9,11948,12271,1,12271,1,0.00037253,7.4948e-08,0,0.00053528,6.4025e-05,1.4062e+08,24927,0,2.072e+08,6248.6,12270,188.7,0,188.7,0,0.00041209,8.1644e-08,0,0.00020623,7.7234e-05,1.5981e+08,27226,0,7.9056e+07,6215.7,188.7,1
644,2.52,12109,1,12109,1,1.5842e-05,-6.7843e-08,0,0.00035826,-2.9025e-06,1222.8,-22531,0,1.3928e+08,444.91,12108,12432,1,12432,1,0.00070701,3.059e-08,0,0.00070701,0.00012663,2.5729e+08,9379.5,0,2.7466e+08,9118,12431,12110,1,12110,1,1.583e-05,-5.0973e-08,0,0.00035833,-2.906e-06,6.144e+06,-16868,0,1.4086e+08,555.53,12109,11763,1,11763,1,-0.00067528,-2.5052e-07,0,9.7352e-06,-0.00013241,-2.7466e+08,-83286,0,3.9929e+06,-7362.3,11762,11949,1,11949,1,-0.00034247,-1.0904e-07,0,0.00017914,-7.0063e-05,-1.3929e+08,-35879,0,7.0915e+07,-4146,11948,12271,1,12271,1,0.00037414,-1.6056e-08,0,0.00053741,6.4253e-05,1.4115e+08,-5157.7,0,2.0795e+08,4659.8,12270,188.7,0,188.7,0,0.00041373,6.3955e-08,0,0.00020706,7.7537e-05,1.6038e+08,21392,0,7.9336e+07,4746.2,188.7,1
644,2.53,12109,1,12109,1,1.6017e-05,-2.4705e-08,0,0.00035932,-2.934e-06,-871.48,-8231.3,0,1.3964e+08,703.39,12108,12432,1,12432,1,0.00070915,1.8597e-07,0,0.00070915,0.00012696,2.5781e+08,61790,0,2.7539e+08,13309,12431,12110,1,12110,1,1.6011e-05,-1.2822e-08,0,0.00035939,-2.938e-06,6.2133e+06,-4204.7,0,1.4123e+08,588.78,12109,11763,1,11763,1,-0.00067707,-2.4993e-07,0,9.6348e-06,-0.0001328,-2.7539e+08,-83640,0,3.9532e+06,-13449,11762,11949,1,11949,1,-0.00034334,-8.1507e-08,0,0.00017968,-7.0303e-05,-1.3965e+08,-26797,0,7.1109e+07,-5879.8,11948,12271,1,12271,1,0.0003754,2.6953e-08,0,0.00053901,6.4426e-05,1.4152e+08,8890.2,0,2.0846e+08,7550.4,12270,188.7,0,188.7,0,0.00041496,9.0682e-08,0,0.00020768,7.7771e-05,1.6079e+08,30281,0,7.9533e+07,7173,188.7,1
644,2.54,12109,1,12109,1,1.6203e-05,-5.1486e-08,0,0.00036105,-2.9706e-06,1779.5,-17113,0,1.4027e+08,-346.79,12108,12432,1,12432,1,0.00071271,1.0687e-07,0,0.00071271,0.00012756,2.5893e+08,35498,0,2.7668e+08,11265,12431,12110,1,12110,1,1.6194e-05,-3.2645e-08,0,0.00036112,-2.9787e-06,6.2826e+06,-10837,0,1.4188e+08,-390.4,12109,11763,1,11763,1,-0.00068025,-2.5347e-07,0,9.5778e-06,-0.00013347,-2.7668e+08,-84817,0,3.9307e+06,-13677,11762,11949,1,11949,1,-0.0003449,-9.8678e-08,0,0.00018054,-7.0659e-05,-1.4028e+08,-31837,0,7.1436e+07,-6268.2,11948,12271,1,12271,1,0.00037731,-6.2513e-09,0,0.00054161,6.4713e-05,1.4218e+08,-2034.5,0,2.0941e+08,5550.9,12270,188.7,0,188.7,0,0.00041695,7.4386e-08,0,0.00020869,7.8144e-05,1.6152e+08,24883,0,7.9888e+07,6638.9,188.7,1
644,2.55,12109,1,12109,1,1.642e-05,1.8048e-08,0,0.00036222,-3.013e-06,3800,5960.1,0,1.4066e+08,-1432.8,12108,12432,1,12432,1,0.00071502,1.8264e-07,0,0.00071502,0.00012793,2.5952e+08,60653,0,2.7749e+08,9680.2,12431,12110,1,12110,1,1.6415e-05,9.2264e-09,0,0.00036225,-3.0234e-06,6.3664e+06,2987.8,0,1.4228e+08,-1529.9,12109,11763,1,11763,1,-0.00068223,-1.5528e-07,0,9.4414e-06,-0.0001339,-2.7749e+08,-52044,0,3.8771e+06,-11512,11762,11949,1,11949,1,-0.00034583,-2.1938e-08,0,0.00018114,-7.0914e-05,-1.4066e+08,-7139.1,0,7.1647e+07,-6779.6,11948,12271,1,12271,1,0.00037868,6.4994e-08,0,0.00054335,6.4884e-05,1.4259e+08,21479,0,2.0997e+08,3413.6,12270,188.7,0,188.7,0,0.0004183,7.024e-08,0,0.00020938,7.8395e-05,1.6196e+08,23432,0,8.0105e+07,5777.1,188.7,1
644,2.56,12109,1,12109,1,1.6603e-05,-4.5261e-08,0,0.00036365,-3.0444e-06,6168.1,-15013,0,1.4117e+08,-534.78,12108,12432,1,12432,1,0.00071811,1.0322e-07,0,0.00071811,0.00012842,2.604e+08,34035,0,2.7856e+08,9481.3,12431,12110,1,12110,1,1.6592e-05,-2.6626e-08,0,0.00036372,-3.0526e-06,6.4338e+06,-8491.2,0,1.4281e+08,-460.91,12109,11763,1,11763,1,-0.00068486,-2.4231e-07,0,9.3698e-06,-0.00013448,-2.7856e+08,-80531,0,3.8485e+06,-16720,11762,11949,1,11949,1,-0.0003471,-9.0782e-08,0,0.00018185,-7.1215e-05,-1.4118e+08,-29363,0,7.1914e+07,-5321.9,11948,12271,1,12271,1,0.00038031,-1.9731e-10,0,0.00054551,6.5124e-05,1.4312e+08,-67.671,0,2.1073e+08,4792.3,12270,188.7,0,188.7,0,0.00041996,7.1473e-08,0,0.00021022,7.8705e-05,1.6255e+08,23856,0,8.039e+07,6112.7,188.7,1
644,2.57,12109,1,12109,1,1.6774e-05,6.5521e-09,0,0.00036515,-3.0713e-06,-7157.4,2112.6,0,1.4169e+08,1264.4,12108,12432,1,12432,1,0.00072106,1.7742e-07,0,0.00072106,0.00012892,2.6123e+08,58458,0,2.7963e+08,11195,12431,12110,1,12110,1,1.6768e-05,9.302e-10,0,0.00036519,-3.0748e-06,6.5019e+06,305.31,0,1.4335e+08,1368,12109,11763,1,11763,1,-0.00068748,-1.5399e-07,0,9.2832e-06,-0.00013503,-2.7963e+08,-51816,0,3.8147e+06,-9140.6,11762,11949,1,11949,1,-0.0003484,-3.1169e-08,0,0.0001826,-7.1521e-05,-1.4171e+08,-10450,0,7.2195e+07,-3743.5,11948,12271,1,12271,1,0.00038197,4.6755e-08,0,0.00054773,6.5374e-05,1.4365e+08,15195,0,2.1149e+08,6255.9,12270,188.7,0,188.7,0,0.00042168,6.7181e-08,0,0.00021109,7.9027e-05,1.6315e+08,22405,0,8.0684e+07,5369.4,188.7,1
644,2.58,12109,1,12109,1,1.7004e-05,-2.0814e-08,0,0.00036668,-3.1193e-06,1164.5,-6881.4,0,1.4223e+08,-1143.8,12108,12432,1,12432,1,0.0007243,1.4407e-07,0,0.0007243,0.00012943,2.6215e+08,47465,0,2.8075e+08,9245.8,12431,12110,1,12110,1,1.6996e-05,-1.1234e-08,0,0.00036673,-3.1303e-06,6.5877e+06,-3760.1,0,1.4391e+08,-956.88,12109,11763,1,11763,1,-0.00069024,-2.0412e-07,0,9.1784e-06,-0.00013564,-2.8075e+08,-67744,0,3.7731e+06,-18737,11762,11949,1,11949,1,-0.00034971,-5.9392e-08,0,0.00018336,-7.186e-05,-1.4224e+08,-20043,0,7.2475e+07,-5710.6,11948,12271,1,12271,1,0.00038374,1.6978e-08,0,0.00055004,6.5615e-05,1.4422e+08,5420.5,0,2.123e+08,4389.7,12270,188.7,0,188.7,0,0.00042346,6.9124e-08,0,0.00021199,7.936e-05,1.6377e+08,23055,0,8.0985e+07,6396.1,188.7,1
644,2.59,12109,1,12109,1,1.7224e-05,-8.6094e-08,0,0.00036826,-3.1533e-06,-274.11,-28560,0,1.4278e+08,1441.3,12108,12432,1,12432,1,0.00072772,2.5323e-08,0,0.00072772,0.00012999,2.631e+08,7716,0,2.8196e+08,9358.5,12431,12110,1,12110,1,1.721e-05,-6.9509e-08,0,0.00036834,-3.1572e-06,6.6702e+06,-22827,0,1.4449e+08,1526.8,12109,11763,1,11763,1,-0.00069321,-2.7684e-07,0,9.067e-06,-0.00013628,-2.8196e+08,-92307,0,3.729e+06,-6366.8,11762,11949,1,11949,1,-0.00035109,-1.356e-07,0,0.00018413,-7.2183e-05,-1.428e+08,-45091,0,7.2767e+07,-3195.8,11948,12271,1,12271,1,0.00038552,-2.5342e-08,0,0.00055241,6.5873e-05,1.448e+08,-8583.2,0,2.1313e+08,5773.3,12270,188.7,0,188.7,0,0.00042528,7.135e-08,0,0.00021292,7.9698e-05,1.644e+08,23900,0,8.1294e+07,4580.4,188.7,1
644,2.6,12109,1,12109,1,1.744e-05,-2.6302e-08,0,0.00036955,-3.2016e-06,2318.8,-8738.7,0,1.4322e+08,-2102.1,12108,12432,1,12432,1,0.00073032,1.505e-07,0,0.00073032,0.00013039,2.6376e+08,49549,0,2.8283e+08,10205,12431,12110,1,12110,1,1.743e-05,-1.0664e-08,0,0.00036962,-3.2127e-06,6.7536e+06,-3375,0,1.4495e+08,-1736.9,12109,11763,1,11763,1,-0.00069536,-2.3925e-07,0,8.9447e-06,-0.00013676,-2.8283e+08,-79612,0,3.6806e+06,-19212,11762,11949,1,11949,1,-0.00035215,-7.5097e-08,0,0.00018479,-7.2479e-05,-1.4323e+08,-25133,0,7.3002e+07,-7628.8,11948,12271,1,12271,1,0.00038705,1.9442e-08,0,0.00055434,6.6073e-05,1.4526e+08,6376.5,0,2.1376e+08,3758.7,12270,188.7,0,188.7,0,0.00042677,7.9939e-08,0,0.00021367,7.9981e-05,1.649e+08,26643,0,8.1536e+07,7330.2,188.7,1
644,2.61,12109,1,12109,1,1.76e-05,7.9468e-09,0,0.00037058,-3.226e-06,-6291.6,2573.8,0,1.4357e+08,-77.591,12108,12432,1,12432,1,0.00073237,2.1643e-07,0,0.00073237,0.00013073,2.6428e+08,71646,0,2.8356e+08,11563,12431,12110,1,12110,1,1.7595e-05,2.8789e-09,0,0.00037063,-3.2317e-06,6.8163e+06,975.69,0,1.453e+08,233.83,12109,11763,1,11763,1,-0.00069715,-1.9504e-07,0,8.8449e-06,-0.00013714,-2.8356e+08,-65463,0,3.6418e+06,-13722,11762,11949,1,11949,1,-0.00035302,-4.2129e-08,0,0.00018532,-7.2699e-05,-1.4358e+08,-14250,0,7.3194e+07,-6249.6,11948,12271,1,12271,1,0.00038823,6.1757e-08,0,0.00055588,6.6241e-05,1.4561e+08,20318,0,2.1426e+08,6146,12270,188.7,0,188.7,0,0.00042796,8.55e-08,0,0.00021427,8.0204e-05,1.6529e+08,28485,0,8.1727e+07,6757.4,188.7,1
644,2.62,12109,1,12109,1,1.7803e-05,-2.0819e-08,0,0.00037214,-3.2629e-06,3753.6,-6897.7,0,1.4413e+08,143.22,12108,12432,1,12432,1,0.00073565,2.5606e-07,0,0.00073565,0.00013126,2.6527e+08,84849,0,2.8471e+08,18430,12431,12110,1,12110,1,1.7791e-05,-1.0593e-08,0,0.00037221,-3.2693e-06,6.8901e+06,-3532.2,0,1.4589e+08,690.06,12109,11763,1,11763,1,-0.00069999,-2.9884e-07,0,8.7766e-06,-0.00013776,-2.8471e+08,-99230,0,3.6143e+06,-23064,11762,11949,1,11949,1,-0.00035438,-9.46e-08,0,0.00018611,-7.3041e-05,-1.4414e+08,-31316,0,7.3486e+07,-8548.4,11948,12271,1,12271,1,0.00039001,4.5323e-08,0,0.00055823,6.6507e-05,1.4621e+08,14983,0,2.151e+08,10123,12270,188.7,0,188.7,0,0.00042975,1.1494e-07,0,0.00021518,8.0547e-05,1.6594e+08,38224,0,8.2039e+07,10470,188.7,1
644,2.63,12109,1,12109,1,1.7992e-05,-1.0031e-08,0,0.00037377,-3.2965e-06,-14374,-3344.2,0,1.4469e+08,416.44,12108,12432,1,12432,1,0.00073893,1.3709e-07,0,0.00073893,0.00013181,2.6617e+08,45086,0,2.8589e+08,9313.2,12431,12110,1,12110,1,1.7985e-05,-4.2444e-09,0,0.00037382,-3.3025e-06,6.9645e+06,-1411.2,0,1.4647e+08,445.36,12109,11763,1,11763,1,-0.00070288,-1.8831e-07,0,8.6831e-06,-0.00013837,-2.8589e+08,-62903,0,3.5781e+06,-9786,11762,11949,1,11949,1,-0.0003558,-4.7532e-08,0,0.0001869,-7.3359e-05,-1.4471e+08,-15339,0,7.3782e+07,-4203.2,11948,12271,1,12271,1,0.00039181,2.9177e-08,0,0.00056065,6.6758e-05,1.4678e+08,9426.4,0,2.1593e+08,5089.7,12270,188.7,0,188.7,0,0.00043164,6.6463e-08,0,0.00021614,8.0889e-05,1.6659e+08,22157,0,8.2361e+07,5150.8,188.7,1
644,2.64,12109,1,12109,1,1.8269e-05,-2.3876e-08,0,0.00037535,-3.3521e-06,4072.3,-7903.6,0,1.4524e+08,-1447.1,12108,12432,1,12432,1,0.00074229,1.8064e-07,0,0.00074229,0.00013233,2.671e+08,59726,0,2.8703e+08,11819,12431,12110,1,12110,1,1.8258e-05,-1.481e-08,0,0.0003754,-3.3616e-06,7.0679e+06,-4838.2,0,1.4704e+08,-1142.7,12109,11763,1,11763,1,-0.00070569,-2.2622e-07,0,8.5373e-06,-0.00013899,-2.8703e+08,-75059,0,3.5204e+06,-21580,11762,11949,1,11949,1,-0.00035712,-6.8883e-08,0,0.0001877,-7.372e-05,-1.4525e+08,-23303,0,7.4076e+07,-6826.8,11948,12271,1,12271,1,0.00039367,1.7247e-08,0,0.00056304,6.7007e-05,1.4737e+08,5509.3,0,2.1675e+08,4754.3,12270,188.7,0,188.7,0,0.00043346,7.9494e-08,0,0.00021707,8.1234e-05,1.6722e+08,26444,0,8.2664e+07,7863.7,188.7,1
644,2.65,12109,1,12109,1,1.8489e-05,-1.1929e-08,0,0.0003768,-3.3888e-06,-1933,-3988.9,0,1.4574e+08,12.258,12108,12432,1,12432,1,0.00074528,1.3028e-07,0,0.00074528,0.00013281,2.6788e+08,43105,0,2.8807e+08,7826,12431,12110,1,12110,1,1.8484e-05,-7.2396e-09,0,0.00037685,-3.3969e-06,7.1546e+06,-2257.3,0,1.4756e+08,-43.077,12109,11763,1,11763,1,-0.00070824,-1.7012e-07,0,8.4011e-06,-0.00013956,-2.8807e+08,-57048,0,3.467e+06,-9394.9,11762,11949,1,11949,1,-0.00035833,-4.6443e-08,0,0.00018841,-7.4016e-05,-1.4574e+08,-15193,0,7.4339e+07,-4174.6,11948,12271,1,12271,1,0.00039533,2.2536e-08,0,0.0005652,6.723e-05,1.4789e+08,7631.4,0,2.1747e+08,4366.1,12270,188.7,0,188.7,0,0.00043514,6.0748e-08,0,0.00021793,8.1544e-05,1.6779e+08,20267,0,8.2943e+07,4733.9,188.7,1
644,2.66,12109,1,12109,1,1.9179e-05,5.1464e-11,0,0.00038038,-3.5146e-06,34.06,-4.9604,0,1.4692e+08,-1231.1,12108,12432,1,12432,1,0.0007528,1.1025e-08,0,0.0007528,0.00013399,2.6993e+08,3429,0,2.9059e+08,63.075,12431,12110,1,12110,1,1.9187e-05,-1.15e-10,0,0.0003804,-3.5267e-06,7.3852e+06,-36.908,0,1.4875e+08,-1258.4,12109,11763,1,11763,1,-0.00071444,-9.1961e-09,0,7.9771e-06,-0.00014097,-2.9059e+08,-3149.4,0,3.3057e+06,-2774.8,11762,11949,1,11949,1,-0.00036121,-2.4275e-09,0,0.00019019,-7.4794e-05,-1.4692e+08,-796.51,0,7.4895e+07,-2037.8,11948,12271,1,12271,1,0.00039957,2.2084e-09,0,0.00057058,6.7758e-05,1.4907e+08,718.89,0,2.1926e+08,-409.64,12270,188.7,0,188.7,0,0.00043929,3.8553e-09,0,0.00022006,8.2317e-05,1.6917e+08,1258.6,0,8.3656e+07,828.12,188.7,1
644,2.67,12109,1,12109,1,1.965e-05,-1.0231e-09,0,0.00038208,-3.5984e-06,-64.191,-342.11,0,1.4742e+08,-230.49,12108,12432,1,12432,1,0.00075653,1.3595e-09,0,0.00075653,0.00013451,2.7058e+08,416.81,0,2.9172e+08,25.002,12431,12110,1,12110,1,1.9652e-05,-1.2078e-09,0,0.00038208,-3.6084e-06,7.5596e+06,-400.75,0,1.4929e+08,-228.55,12109,11763,1,11763,1,-0.00071723,-2.8563e-09,0,7.6385e-06,-0.00014167,-2.9172e+08,-978.13,0,3.1718e+06,-505.64,11762,11949,1,11949,1,-0.00036243,-1.9353e-09,0,0.00019104,-7.5194e-05,-1.4741e+08,-639.69,0,7.5176e+07,-377.93,11948,12271,1,12271,1,0.00040173,-1.5548e-10,0,0.00057312,6.7991e-05,1.4961e+08,-51.361,0,2.1999e+08,-80.069,12270,188.7,0,188.7,0,0.00044125,1.0382e-09,0,0.00022108,8.2683e-05,1.6973e+08,343.26,0,8.3926e+07,156.67,188.7,1
644,2.68,12109,1,12109,1,1.9921e-05,-1.0799e-09,0,0.00038357,-3.6475e-06,20.163,-359.71,0,1.4791e+08,-4.9999,12108,12432,1,12432,1,0.00075967,8.3897e-10,0,0.00075967,0.000135,2.7136e+08,252.76,0,2.9278e+08,116.08,12431,12110,1,12110,1,1.9921e-05,-1.1158e-09,0,0.00038357,-3.6571e-06,7.661e+06,-375.2,0,1.4981e+08,-12.601,12109,11763,1,11763,1,-0.00071982,-2.9473e-09,0,7.4757e-06,-0.00014225,-2.9278e+08,-1004,0,3.1078e+06,-101.4,11762,11949,1,11949,1,-0.00036365,-1.7401e-09,0,0.00019178,-7.552e-05,-1.4791e+08,-573.94,0,7.5442e+07,-60.236,11948,12271,1,12271,1,0.00040349,-4.2552e-10,0,0.00057535,6.8219e-05,1.5013e+08,-135.25,0,2.2071e+08,48.594,12270,188.7,0,188.7,0,0.00044297,8.7151e-10,0,0.00022196,8.3004e-05,1.703e+08,292.45,0,8.4201e+07,62.029,188.7,1
644,2.69,12109,1,12109,1,2.016e-05,4.1783e-10,0,0.00038503,-3.6913e-06,23.617,135.24,0,1.4841e+08,-16.903,12108,12432,1,12432,1,0.00076272,1.3066e-09,0,0.00076272,0.00013548,2.7216e+08,427.52,0,2.9383e+08,62.224,12431,12110,1,12110,1,2.016e-05,4.1857e-10,0,0.00038503,-3.7015e-06,7.751e+06,136.18,0,1.5033e+08,-10.495,12109,11763,1,11763,1,-0.0007224,-1.2228e-10,0,7.341e-06,-0.00014282,-2.9383e+08,-41.881,0,3.055e+06,-106.3,11762,11949,1,11949,1,-0.00036487,1.0073e-10,0,0.00019252,-7.5838e-05,-1.4841e+08,34.502,0,7.5707e+07,-33.575,11948,12271,1,12271,1,0.00040519,6.6838e-10,0,0.00057755,6.8449e-05,1.5066e+08,214.08,0,2.2145e+08,1.9322,12270,188.7,0,188.7,0,0.00044466,3.4697e-10,0,0.00022282,8.332e-05,1.7087e+08,112.73,0,8.4479e+07,28.219,188.7,1
644,2.7,12109,1,12109,1,2.0397e-05,-2.4024e-10,0,0.00038648,-3.7346e-06,32.765,-79.985,0,1.489e+08,3.5524,12108,12432,1,12432,1,0.00076576,3.0876e-10,0,0.00076576,0.00013596,2.7296e+08,99.921,0,2.9487e+08,45.945,12431,12110,1,12110,1,2.0397e-05,-2.0271e-10,0,0.00038648,-3.7451e-06,7.8398e+06,-68.373,0,1.5084e+08,2.1563,12109,11763,1,11763,1,-0.00072496,-1.0417e-09,0,7.209e-06,-0.00014339,-2.9487e+08,-342.68,0,3.0033e+06,-43.923,11762,11949,1,11949,1,-0.00036609,-4.7178e-10,0,0.00019324,-7.6153e-05,-1.489e+08,-155.89,0,7.597e+07,-12.023,11948,12271,1,12271,1,0.00040688,8.5401e-12,0,0.00057972,6.8677e-05,1.5117e+08,2.7945,0,2.2218e+08,21.563,12270,188.7,0,188.7,0,0.00044633,3.0947e-10,0,0.00022367,8.3634e-05,1.7144e+08,102.36,0,8.4755e+07,21.04,188.7,1
644,2.71,12109,1,12109,1,2.0633e-05,-1.224e-09,0,0.00038793,-3.7778e-06,81.814,-404.55,0,1.494e+08,5.243,12108,12432,1,12432,1,0.0007688,8.5092e-10,0,0.0007688,0.00013644,2.7376e+08,291.44,0,2.9591e+08,77.082,12431,12110,1,12110,1,2.0633e-05,-1.4584e-09,0,0.00038793,-3.7888e-06,7.9286e+06,-469,0,1.5136e+08,4.6827,12109,11763,1,11763,1,-0.00072753,-2.8326e-09,0,7.0765e-06,-0.00014396,-2.9591e+08,-931.49,0,2.9514e+06,-83.71,11762,11949,1,11949,1,-0.0003673,-2.0946e-09,0,0.00019397,-7.6467e-05,-1.4939e+08,-699.2,0,7.6233e+07,-14.193,11948,12271,1,12271,1,0.00040857,-4.2312e-10,0,0.0005819,6.8906e-05,1.5169e+08,-136.25,0,2.2291e+08,26.589,12270,188.7,0,188.7,0,0.00044801,1.0268e-09,0,0.00022453,8.3947e-05,1.72e+08,339.5,0,8.5031e+07,27.705,188.7,1
644,2.72,12109,1,12109,1,2.0871e-05,7.5448e-10,0,0.00038939,-3.8215e-06,-18.127,246.92,0,1.499e+08,-4.6595,12108,12432,1,12432,1,0.00077184,1.6784e-09,0,0.00077184,0.00013693,2.7456e+08,547.47,0,2.9696e+08,43.515,12431,12110,1,12110,1,2.0871e-05,7.6632e-10,0,0.00038939,-3.8328e-06,8.0182e+06,247.93,0,1.5187e+08,-4.8931,12109,11763,1,11763,1,-0.0007301,-1.3347e-10,0,6.9423e-06,-0.00014452,-2.9696e+08,-45.715,0,2.8989e+06,-62.862,11762,11949,1,11949,1,-0.00036852,4.1064e-10,0,0.0001947,-7.6784e-05,-1.4989e+08,136.84,0,7.6497e+07,-21.568,11948,12271,1,12271,1,0.00041026,1.1106e-09,0,0.00058409,6.9135e-05,1.5221e+08,362.57,0,2.2364e+08,12.505,12270,188.7,0,188.7,0,0.00044969,4.6048e-10,0,0.00022539,8.4262e-05,1.7257e+08,150.96,0,8.5308e+07,21.095,188.7,1
644,2.73,12109,1,12109,1,2.1111e-05,-1.0884e-09,0,0.00039085,-3.8655e-06,43.634,-358.68,0,1.5039e+08,3.6672,12108,12432,1,12432,1,0.00077489,4.1514e-10,0,0.00077489,0.00013741,2.7535e+08,141.31,0,2.98e+08,60.645,12431,12110,1,12110,1,2.1111e-05,-1.2936e-09,0,0.00039085,-3.8772e-06,8.1084e+06,-420,0,1.5239e+08,1.6472,12109,11763,1,11763,1,-0.00073267,-2.2455e-09,0,6.806e-06,-0.00014509,-2.98e+08,-737.83,0,2.8455e+06,-52.266,11762,11949,1,11949,1,-0.00036973,-1.6346e-09,0,0.00019542,-7.71e-05,-1.5038e+08,-541.33,0,7.676e+07,-15.207,11948,12271,1,12271,1,0.00041196,-5.9134e-10,0,0.00058627,6.9363e-05,1.5273e+08,-188.5,0,2.2437e+08,19.389,12270,188.7,0,188.7,0,0.00045137,6.8766e-10,0,0.00022624,8.4577e-05,1.7314e+08,227.81,0,8.5584e+07,24.382,188.7,1
644,2.74,12109,1,12109,1,2.1353e-05,-1.8512e-10,0,0.00039229,-3.9097e-06,-46.434,-62.422,0,1.5088e+08,-6.5576,12108,12432,1,12432,1,0.00077792,5.9227e-10,0,0.00077792,0.00013788,2.7613e+08,192.4,0,2.9904e+08,89.277,12431,12110,1,12110,1,2.1353e-05,-6.1106e-11,0,0.00039229,-3.9219e-06,8.1992e+06,-20.036,0,1.529e+08,-7.9388,12109,11763,1,11763,1,-0.00073521,-1.5907e-09,0,6.6676e-06,-0.00014566,-2.9904e+08,-522.52,0,2.7914e+06,-108.78,11762,11949,1,11949,1,-0.00037094,-4.6804e-10,0,0.00019614,-7.7414e-05,-1.5087e+08,-152.69,0,7.7021e+07,-42.7,11948,12271,1,12271,1,0.00041364,1.5952e-10,0,0.00058844,6.9589e-05,1.5325e+08,51.351,0,2.2509e+08,32.45,12270,188.7,0,188.7,0,0.00045304,4.6613e-10,0,0.00022709,8.4889e-05,1.737e+08,153.88,0,8.5857e+07,45.903,188.7,1
644,2.75,12109,1,12109,1,2.1596e-05,1.424e-10,0,0.00039375,-3.9543e-06,-28.651,45.875,0,1.5138e+08,3.1937,12108,12432,1,12432,1,0.00078098,7.8578e-10,0,0.00078098,0.00013837,2.7693e+08,258.43,0,3.0009e+08,49.975,12431,12110,1,12110,1,2.1596e-05,1.6991e-10,0,0.00039376,-3.967e-06,8.2906e+06,54.709,0,1.5342e+08,7.8479,12109,11763,1,11763,1,-0.00073779,-5.0249e-10,0,6.5285e-06,-0.00014623,-3.0009e+08,-165.67,0,2.7371e+06,-74.683,11762,11949,1,11949,1,-0.00037216,-2.0338e-12,0,0.00019688,-7.7733e-05,-1.5137e+08,-0.58314,0,7.7286e+07,-19.368,11948,12271,1,12271,1,0.00041535,2.8273e-10,0,0.00059063,6.9818e-05,1.5377e+08,89.319,0,2.2582e+08,29.474,12270,188.7,0,188.7,0,0.00045473,2.3874e-10,0,0.00022796,8.5205e-05,1.7427e+08,78.395,0,8.6134e+07,29.269,188.7,1
644,2.76,12109,1,12109,1,2.1843e-05,-1.3125e-09,0,0.0003952,-3.9994e-06,2.714,-433.06,0,1.5186e+08,21.637,12108,12432,1,12432,1,0.00078403,9.2667e-10,0,0.00078403,0.00013885,2.7771e+08,317.39,0,3.0112e+08,122.45,12431,12110,1,12110,1,2.1843e-05,-1.3803e-09,0,0.0003952,-4.0125e-06,8.3831e+06,-449.22,0,1.5393e+08,15.699,12109,11763,1,11763,1,-0.00074034,-3.7163e-09,0,6.3855e-06,-0.0001468,-3.0112e+08,-1220,0,2.6812e+06,-63.496,11762,11949,1,11949,1,-0.00037336,-2.174e-09,0,0.0001976,-7.8049e-05,-1.5186e+08,-711.69,0,7.7547e+07,-26.443,11948,12271,1,12271,1,0.00041705,-4.9799e-10,0,0.0005928,7.0044e-05,1.5428e+08,-167.85,0,2.2654e+08,66.96,12270,188.7,0,188.7,0,0.0004564,1.1175e-09,0,0.00022881,8.5518e-05,1.7483e+08,369.55,0,8.6407e+07,49.835,188.7,1
644,2.77,12109,1,12109,1,2.2091e-05,-1.2207e-09,0,0.00039666,-4.0449e-06,32.582,-403.62,0,1.5236e+08,-5.0201,12108,12432,1,12432,1,0.00078708,4.8901e-10,0,0.00078708,0.00013933,2.785e+08,145.88,0,3.0217e+08,57.594,12431,12110,1,12110,1,2.2091e-05,-1.3171e-09,0,0.00039666,-4.0585e-06,8.476e+06,-431.59,0,1.5444e+08,-7.0828,12109,11763,1,11763,1,-0.0007429,-2.9986e-09,0,6.2418e-06,-0.00014737,-3.0217e+08,-991.79,0,2.625e+06,-79.39,11762,11949,1,11949,1,-0.00037457,-1.8911e-09,0,0.00019833,-7.8367e-05,-1.5235e+08,-626.9,0,7.7809e+07,-34.083,11948,12271,1,12271,1,0.00041875,-5.3238e-10,0,0.00059499,7.0271e-05,1.548e+08,-161,0,2.2727e+08,26.392,12270,188.7,0,188.7,0,0.00045809,8.6217e-10,0,0.00022967,8.5833e-05,1.7539e+08,287.31,0,8.6682e+07,35.583,188.7,1
644,2.78,12109,1,12109,1,2.234e-05,-8.7424e-10,0,0.00039811,-4.0905e-06,-27.562,-289.23,0,1.5284e+08,40.289,12108,12432,1,12432,1,0.00079012,5.4401e-10,0,0.00079012,0.0001398,2.7927e+08,186.33,0,3.032e+08,147.09,12431,12110,1,12110,1,2.234e-05,-7.2791e-10,0,0.00039811,-4.1044e-06,8.5695e+06,-239.13,0,1.5495e+08,42.675,12109,11763,1,11763,1,-0.00074544,-3.0692e-09,0,6.0958e-06,-0.00014794,-3.032e+08,-1006.9,0,2.568e+06,-87.819,11762,11949,1,11949,1,-0.00037577,-1.5023e-09,0,0.00019905,-7.8683e-05,-1.5284e+08,-496.98,0,7.807e+07,-8.0723,11948,12271,1,12271,1,0.00042045,-1.5967e-10,0,0.00059716,7.0496e-05,1.5531e+08,-50.056,0,2.2798e+08,91.257,12270,188.7,0,188.7,0,0.00045976,8.4909e-10,0,0.00023053,8.6146e-05,1.7595e+08,281.55,0,8.6954e+07,57.059,188.7,1
644,2.79,12109,1,12109,1,2.259e-05,-9.3354e-10,0,0.00039956,-4.1363e-06,17.643,-307.76,0,1.5333e+08,-1.8215,12108,12432,1,12432,1,0.00079318,5.9794e-10,0,0.00079318,0.00014028,2.8005e+08,204.8,0,3.0424e+08,99.3,12431,12110,1,12110,1,2.259e-05,-7.9126e-10,0,0.00039956,-4.1509e-06,8.6634e+06,-257.59,0,1.5547e+08,-0.85457,12109,11763,1,11763,1,-0.000748,-3.2536e-09,0,5.9496e-06,-0.00014851,-3.0424e+08,-1067.2,0,2.5109e+06,-88.334,11762,11949,1,11949,1,-0.00037697,-1.538e-09,0,0.00019978,-7.9001e-05,-1.5333e+08,-506.45,0,7.8332e+07,-38.43,11948,12271,1,12271,1,0.00042215,-2.61e-10,0,0.00059935,7.0722e-05,1.5583e+08,-81.135,0,2.2871e+08,36.338,12270,188.7,0,188.7,0,0.00046144,8.8321e-10,0,0.00023138,8.646e-05,1.7651e+08,292.8,0,8.7227e+07,45.713,188.7,1
644,2.8,12109,1,12109,1,2.2845e-05,-1.454e-09,0,0.00040102,-4.1831e-06,-9.9538,-479.25,0,1.5382e+08,6.4824,12108,12432,1,12432,1,0.00079625,6.9277e-10,0,0.00079625,0.00014076,2.8083e+08,212.68,0,3.0528e+08,92.457,12431,12110,1,12110,1,2.2845e-05,-1.6067e-09,0,0.00040102,-4.1981e-06,8.7587e+06,-533.55,0,1.5598e+08,2.5675,12109,11763,1,11763,1,-0.00075056,-3.4728e-09,0,5.799e-06,-0.00014908,-3.0528e+08,-1139.7,0,2.4521e+06,-72.18,11762,11949,1,11949,1,-0.00037818,-2.2725e-09,0,0.00020051,-7.9321e-05,-1.5382e+08,-753.74,0,7.8594e+07,-27.81,11948,12271,1,12271,1,0.00042387,-6.9986e-10,0,0.00060154,7.0949e-05,1.5634e+08,-219.38,0,2.2943e+08,37.826,12270,188.7,0,188.7,0,0.00046313,1.0362e-09,0,0.00023225,8.6776e-05,1.7707e+08,343.5,0,8.7501e+07,40.794,188.7,1
644,2.81,12109,1,12109,1,2.3102e-05,-1.3926e-10,0,0.00040248,-4.23e-06,-6.6048,-47.713,0,1.5431e+08,7.3538,12108,12432,1,12432,1,0.00079932,6.5999e-10,0,0.00079932,0.00014124,2.8161e+08,216.57,0,3.0632e+08,71.233,12431,12110,1,12110,1,2.3101e-05,-5.4722e-11,0,0.00040248,-4.2455e-06,8.8547e+06,-17.949,0,1.5649e+08,13.3,12109,11763,1,11763,1,-0.00075311,-1.3758e-09,0,5.6465e-06,-0.00014965,-3.0632e+08,-453.47,0,2.3926e+06,-69.988,11762,11949,1,11949,1,-0.00037938,-4.443e-10,0,0.00020124,-7.9641e-05,-1.5431e+08,-147.82,0,7.8855e+07,-27.607,11948,12271,1,12271,1,0.00042558,2.2522e-10,0,0.00060372,7.1174e-05,1.5686e+08,73.136,0,2.3015e+08,39.503,12270,188.7,0,188.7,0,0.00046481,4.5057e-10,0,0.00023311,8.709e-05,1.7763e+08,148.26,0,8.7774e+07,38.146,188.7,1
644,2.82,12109,1,12109,1,2.336e-05,-1.3312e-09,0,0.00040394,-4.2774e-06,160.29,-438.64,0,1.548e+08,2.5703,12108,12432,1,12432,1,0.00080239,8.1751e-10,0,0.00080239,0.00014172,2.8238e+08,257.86,0,3.0736e+08,108.26,12431,12110,1,12110,1,2.336e-05,-1.3946e-09,0,0.00040394,-4.2935e-06,8.9514e+06,-456.79,0,1.57e+08,-0.7286,12109,11763,1,11763,1,-0.00075567,-3.6796e-09,0,5.4924e-06,-0.00015023,-3.0736e+08,-1205.4,0,2.3324e+06,-90.779,11762,11949,1,11949,1,-0.00038058,-2.1415e-09,0,0.00020197,-7.9961e-05,-1.5479e+08,-703.65,0,7.9116e+07,-45.809,11948,12271,1,12271,1,0.0004273,-5.6914e-10,0,0.00060591,7.14e-05,1.5737e+08,-182.17,0,2.3087e+08,42.078,12270,188.7,0,188.7,0,0.00046649,1.0663e-09,0,0.00023397,8.7405e-05,1.7819e+08,352.48,0,8.8046e+07,53.357,188.7,1
644,2.83,12109,1,12109,1,2.3621e-05,-1.7112e-11,0,0.0004054,-4.3251e-06,-0.1249,-7.3652,0,1.5529e+08,-17.763,12108,12432,1,12432,1,0.00080547,2.5062e-10,0,0.00080547,0.0001422,2.8315e+08,76.117,0,3.084e+08,29.548,12431,12110,1,12110,1,2.3621e-05,-4.3065e-11,0,0.00040541,-4.3417e-06,9.0489e+06,-14.721,0,1.5752e+08,-18.977,12109,11763,1,11763,1,-0.00075823,-2.3163e-10,0,5.3363e-06,-0.0001508,-3.084e+08,-79.281,0,2.2716e+06,-53.692,11762,11949,1,11949,1,-0.00038178,-1.2162e-10,0,0.0002027,-8.0283e-05,-1.5528e+08,-41.546,0,7.9378e+07,-28.785,11948,12271,1,12271,1,0.00042903,9.3442e-11,0,0.00060811,7.1626e-05,1.5789e+08,29.074,0,2.3159e+08,-9.7326,12270,188.7,0,188.7,0,0.00046819,1.2728e-10,0,0.00023484,8.7722e-05,1.7876e+08,41.225,0,8.832e+07,14.765,188.7,1
644,2.84,12109,1,12109,1,2.3883e-05,-4.8977e-10,0,0.00040685,-4.3732e-06,40.056,-161.67,0,1.5577e+08,7.4228,12108,12432,1,12432,1,0.00080853,4.3054e-10,0,0.00080853,0.00014268,2.8391e+08,127.37,0,3.0943e+08,67.461,12431,12110,1,12110,1,2.3883e-05,-4.4538e-10,0,0.00040685,-4.3902e-06,9.1469e+06,-144.65,0,1.5802e+08,8.0169,12109,11763,1,11763,1,-0.00076076,-1.7397e-09,0,5.1777e-06,-0.00015137,-3.0943e+08,-569.49,0,2.2097e+06,-53.58,11762,11949,1,11949,1,-0.00038297,-8.7097e-10,0,0.00020343,-8.0602e-05,-1.5577e+08,-283.92,0,7.9637e+07,-22.889,11948,12271,1,12271,1,0.00043074,-9.3287e-11,0,0.00061028,7.1849e-05,1.584e+08,-28.271,0,2.323e+08,32.934,12270,188.7,0,188.7,0,0.00046986,5.0681e-10,0,0.00023569,8.8035e-05,1.7931e+08,166.96,0,8.8589e+07,31.151,188.7,1
644,2.85,12109,1,12109,1,2.4146e-05,-4.6722e-10,0,0.0004083,-4.4211e-06,39.194,-154.79,0,1.5626e+08,55.778,12108,12432,1,12432,1,0.00081158,1.2656e-09,0,0.00081158,0.00014315,2.8467e+08,415,0,3.1046e+08,280.64,12431,12110,1,12110,1,2.4145e-05,-2.0279e-10,0,0.0004083,-4.4386e-06,9.245e+06,-64.865,0,1.5853e+08,54.445,12109,11763,1,11763,1,-0.00076329,-3.4127e-09,0,5.0186e-06,-0.00015194,-3.1046e+08,-1116.8,0,2.1477e+06,-129.6,11762,11949,1,11949,1,-0.00038415,-1.1229e-09,0,0.00020415,-8.092e-05,-1.5625e+08,-367.97,0,7.9895e+07,-24.88,11948,12271,1,12271,1,0.00043245,3.1441e-10,0,0.00061245,7.2072e-05,1.5891e+08,100.61,0,2.3301e+08,116.61,12270,188.7,0,188.7,0,0.00047153,1.0355e-09,0,0.00023655,8.8347e-05,1.7986e+08,339.74,0,8.8858e+07,100.96,188.7,1
644,2.86,12109,1,12109,1,2.4411e-05,2.04e-09,0,0.00040977,-4.47e-06,-34.552,668.33,0,1.5675e+08,-39.9,12108,12432,1,12432,1,0.00081469,4.0518e-09,0,0.00081469,0.00014364,2.8545e+08,1323.5,0,3.1151e+08,38.469,12431,12110,1,12110,1,2.4411e-05,2.3607e-09,0,0.00040977,-4.4882e-06,9.3443e+06,788.44,0,1.5904e+08,-34.429,12109,11763,1,11763,1,-0.00076587,-7.4344e-10,0,4.8578e-06,-0.00015252,-3.1151e+08,-254.63,0,2.0851e+06,-139.47,11762,11949,1,11949,1,-0.00038536,1.0195e-09,0,0.00020489,-8.1244e-05,-1.5674e+08,343.42,0,8.0158e+07,-63.06,11948,12271,1,12271,1,0.00043418,3.1117e-09,0,0.00061466,7.2298e-05,1.5942e+08,1032.3,0,2.3373e+08,-11.504,12270,188.7,0,188.7,0,0.00047323,1.3521e-09,0,0.00023742,8.8666e-05,1.8042e+08,445.39,0,8.9132e+07,38.672,188.7,1
644,2.87,12109,1,12109,1,2.4681e-05,-2.0359e-09,0,0.00041122,-4.5192e-06,101.26,-666.21,0,1.5723e+08,28.199,12108,12432,1,12432,1,0.00081775,1.148e-09,0,0.00081775,0.00014411,2.862e+08,371.48,0,3.1253e+08,174.17,12431,12110,1,12110,1,2.4681e-05,-2.0601e-09,0,0.00041122,-4.5381e-06,9.4447e+06,-671.19,0,1.5954e+08,36.841,12109,11763,1,11763,1,-0.00076839,-5.2479e-09,0,4.6921e-06,-0.0001531,-3.1253e+08,-1716.1,0,2.0205e+06,-261.09,11762,11949,1,11949,1,-0.00038654,-3.3569e-09,0,0.00020561,-8.1564e-05,-1.5722e+08,-1093.6,0,8.0415e+07,-41.112,11948,12271,1,12271,1,0.0004359,-8.1546e-10,0,0.00061683,7.252e-05,1.5993e+08,-272.25,0,2.3444e+08,93.734,12270,188.7,0,188.7,0,0.0004749,1.5876e-09,0,0.00023828,8.8978e-05,1.8097e+08,520.17,0,8.9399e+07,79.534,188.7,1
644,2.88,12109,1,12109,1,2.4949e-05,-7.7415e-10,0,0.00041268,-4.5685e-06,172.56,-256.57,0,1.5771e+08,-8.4207,12108,12432,1,12432,1,0.00082084,5.4569e-10,0,0.00082084,0.00014459,2.8696e+08,165.61,0,3.1357e+08,87.706,12431,12110,1,12110,1,2.4949e-05,-7.3309e-10,0,0.00041268,-4.588e-06,9.5451e+06,-241.41,0,1.6005e+08,-6.1891,12109,11763,1,11763,1,-0.00077094,-2.5037e-09,0,4.5277e-06,-0.00015367,-3.1357e+08,-818.81,0,1.9565e+06,-204.13,11762,11949,1,11949,1,-0.00038773,-1.2647e-09,0,0.00020634,-8.1887e-05,-1.577e+08,-423.69,0,8.0676e+07,-49.137,11948,12271,1,12271,1,0.00043763,-2.6937e-10,0,0.00061902,7.2744e-05,1.6044e+08,-90.46,0,2.3515e+08,34.41,12270,188.7,0,188.7,0,0.00047659,6.7937e-10,0,0.00023915,8.9294e-05,1.8153e+08,225.93,0,8.967e+07,50.314,188.7,1
644,2.89,12109,1,12109,1,2.5223e-05,-9.4727e-10,0,0.00041415,-4.6186e-06,38.601,-311.88,0,1.582e+08,-9.5528,12108,12432,1,12432,1,0.00082395,6.0191e-10,0,0.00082395,0.00014507,2.8772e+08,179.95,0,3.1461e+08,55.262,12431,12110,1,12110,1,2.5223e-05,-1.0954e-09,0,0.00041415,-4.6385e-06,9.6471e+06,-358.15,0,1.6056e+08,-5.5534,12109,11763,1,11763,1,-0.0007735,-2.2833e-09,0,4.3588e-06,-0.00015425,-3.1461e+08,-746.24,0,1.8908e+06,-96.278,11762,11949,1,11949,1,-0.00038893,-1.4919e-09,0,0.00020708,-8.2212e-05,-1.5819e+08,-492.72,0,8.0937e+07,-37.376,11948,12271,1,12271,1,0.00043938,-4.2828e-10,0,0.00062123,7.2969e-05,1.6096e+08,-134.53,0,2.3587e+08,16.043,12270,188.7,0,188.7,0,0.00047829,7.0364e-10,0,0.00024002,8.9612e-05,1.8209e+08,232.8,0,8.9942e+07,32.687,188.7,1
644,2.9,12109,1,12109,1,2.5499e-05,-7.9117e-10,0,0.00041561,-4.6691e-06,109.32,-261.04,0,1.5868e+08,6.7789,12108,12432,1,12432,1,0.00082703,6.6475e-10,0,0.00082703,0.00014554,2.8846e+08,195.42,0,3.1564e+08,97.936,12431,12110,1,12110,1,2.5499e-05,-7.5694e-10,0,0.00041561,-4.6894e-06,9.7498e+06,-243.47,0,1.6107e+08,2.2886,12109,11763,1,11763,1,-0.00077603,-2.5117e-09,0,4.1872e-06,-0.00015483,-3.1564e+08,-840.48,0,1.8239e+06,-70.616,11762,11949,1,11949,1,-0.00039011,-1.3364e-09,0,0.0002078,-8.2535e-05,-1.5867e+08,-440.8,0,8.1194e+07,-38.741,11948,12271,1,12271,1,0.00044111,-2.441e-10,0,0.00062341,7.319e-05,1.6146e+08,-77.603,0,2.3658e+08,48.283,12270,188.7,0,188.7,0,0.00047997,7.281e-10,0,0.00024088,8.9926e-05,1.8264e+08,240.31,0,9.0209e+07,48.097,188.7,1
644,2.91,12109,1,12109,1,2.5773e-05,-1.2934e-09,0,0.00041704,-4.7193e-06,-20.343,-424.9,0,1.5915e+08,32.711,12108,12432,1,12432,1,0.00083008,9.9731e-10,0,0.00083008,0.00014601,2.892e+08,329.04,0,3.1666e+08,226.53,12431,12110,1,12110,1,2.5773e-05,-9.5362e-10,0,0.00041705,-4.7399e-06,9.8519e+06,-303.08,0,1.6156e+08,25.504,12109,11763,1,11763,1,-0.00077853,-5.49e-09,0,4.0156e-06,-0.0001554,-3.1666e+08,-1836.7,0,1.7572e+06,-131.6,11762,11949,1,11949,1,-0.00039127,-2.3124e-09,0,0.00020852,-8.2854e-05,-1.5914e+08,-756.07,0,8.1449e+07,-71.284,11948,12271,1,12271,1,0.00044282,-2.9009e-11,0,0.00062557,7.3409e-05,1.6196e+08,-9.9354,0,2.3727e+08,123.95,12270,188.7,0,188.7,0,0.00048163,1.499e-09,0,0.00024173,9.0236e-05,1.8318e+08,493.32,0,9.0473e+07,105.99,188.7,1
644,2.92,12109,1,12109,1,2.6051e-05,1.0304e-09,0,0.00041854,-4.7703e-06,25.906,334.79,0,1.5965e+08,-30.447,12108,12432,1,12432,1,0.00083323,2.1931e-09,0,0.00083323,0.0001465,2.8997e+08,698.42,0,3.1771e+08,29.456,12431,12110,1,12110,1,2.6051e-05,1.1482e-09,0,0.00041853,-4.7915e-06,9.9557e+06,390.17,0,1.6208e+08,-27.761,12109,11763,1,11763,1,-0.00078113,-4.659e-10,0,3.8435e-06,-0.00015598,-3.1771e+08,-159.57,0,1.6903e+06,-364.34,11762,11949,1,11949,1,-0.00039248,4.906e-10,0,0.00020927,-8.3183e-05,-1.5964e+08,149.93,0,8.1713e+07,-49.799,11948,12271,1,12271,1,0.00044459,1.6395e-09,0,0.0006278,7.3636e-05,1.6249e+08,533.64,0,2.38e+08,-10.679,12270,188.7,0,188.7,0,0.00048335,7.1058e-10,0,0.00024262,9.0558e-05,1.8374e+08,230.36,0,9.0749e+07,33.66,188.7,1
644,2.93,12109,1,12109,1,2.6335e-05,2.2596e-09,0,0.00041999,-4.8221e-06,-128,740.09,0,1.6012e+08,12.515,12108,12432,1,12432,1,0.00083633,4.2536e-09,0,0.00083633,0.00014697,2.9071e+08,1379.7,0,3.1874e+08,123.82,12431,12110,1,12110,1,2.6335e-05,2.7014e-09,0,0.00041999,-4.8432e-06,1.0061e+07,860.57,0,1.6258e+08,2.7348,12109,11763,1,11763,1,-0.00078365,-6.9071e-10,0,3.6645e-06,-0.00015656,-3.1874e+08,-222.65,0,1.6207e+06,-56.585,11762,11949,1,11949,1,-0.00039366,1.1613e-09,0,0.00021,-8.3507e-05,-1.6011e+08,380.95,0,8.197e+07,-17.836,11948,12271,1,12271,1,0.00044633,3.452e-09,0,0.00062999,7.3857e-05,1.6299e+08,1143.1,0,2.387e+08,40.278,12270,188.7,0,188.7,0,0.00048503,1.4354e-09,0,0.00024348,9.0873e-05,1.8429e+08,473.18,0,9.1015e+07,37.483,188.7,1
644,2.94,12109,1,12109,1,2.6618e-05,-6.5639e-10,0,0.00042146,-4.8741e-06,29.2,-211.69,0,1.606e+08,-5.4901,12108,12432,1,12432,1,0.00083943,3.8794e-10,0,0.00083943,0.00014745,2.9145e+08,132.87,0,3.1978e+08,33.626,12431,12110,1,12110,1,2.6618e-05,-7.5313e-10,0,0.00042146,-4.8955e-06,1.0167e+07,-243.94,0,1.6309e+08,-5.3874,12109,11763,1,11763,1,-0.0007862,-1.4416e-09,0,3.4853e-06,-0.00015714,-3.1978e+08,-462.43,0,1.551e+06,-44.147,11762,11949,1,11949,1,-0.00039484,-1.1091e-09,0,0.00021073,-8.3834e-05,-1.6059e+08,-355.82,0,8.2229e+07,-20.073,11948,12271,1,12271,1,0.00044808,-2.4119e-10,0,0.00063219,7.4079e-05,1.635e+08,-82.606,0,2.3941e+08,7.2532,12270,188.7,0,188.7,0,0.00048673,5.2628e-10,0,0.00024435,9.119e-05,1.8484e+08,168.89,0,9.1283e+07,18.315,188.7,1
644,2.95,12109,1,12109,1,2.6904e-05,7.711e-10,0,0.00042292,-4.9264e-06,-36.918,251.85,0,1.6108e+08,0.24653,12108,12432,1,12432,1,0.00084253,1.4427e-09,0,0.00084253,0.00014792,2.9219e+08,470.35,0,3.208e+08,26.141,12431,12110,1,12110,1,2.6904e-05,9.257e-10,0,0.00042292,-4.948e-06,1.0273e+07,300.66,0,1.6359e+08,0.92617,12109,11763,1,11763,1,-0.00078872,-3.3891e-10,0,3.3043e-06,-0.00015772,-3.208e+08,-116.08,0,1.4807e+06,-26.305,11762,11949,1,11949,1,-0.00039601,3.612e-10,0,0.00021146,-8.4159e-05,-1.6107e+08,114.89,0,8.2486e+07,-7.6098,11948,12271,1,12271,1,0.00044982,1.2269e-09,0,0.00063438,7.4299e-05,1.6401e+08,405.21,0,2.4011e+08,8.2741,12270,188.7,0,188.7,0,0.00048841,5.2565e-10,0,0.00024522,9.1505e-05,1.8539e+08,172.3,0,9.155e+07,10.517,188.7,1
644,2.96,12109,1,12109,1,2.7191e-05,-5.2221e-10,0,0.00042437,-4.979e-06,211.27,-169.92,0,1.6156e+08,-3.5948,12108,12432,1,12432,1,0.00084563,3.974e-10,0,0.00084563,0.0001484,2.9292e+08,122.44,0,3.2183e+08,62.814,12431,12110,1,12110,1,2.7191e-05,-4.8073e-10,0,0.00042437,-5.0008e-06,1.038e+07,-154.46,0,1.6409e+08,-1.8866,12109,11763,1,11763,1,-0.00079125,-1.6838e-09,0,3.121e-06,-0.0001583,-3.2183e+08,-544.24,0,1.4095e+06,-74.206,11762,11949,1,11949,1,-0.00039718,-8.9581e-10,0,0.00021219,-8.4484e-05,-1.6155e+08,-290.81,0,8.2743e+07,-18.619,11948,12271,1,12271,1,0.00045157,-1.7051e-10,0,0.00063656,7.4519e-05,1.6451e+08,-52.921,0,2.4081e+08,12.169,12270,188.7,0,188.7,0,0.00049009,4.9318e-10,0,0.00024609,9.1819e-05,1.8593e+08,160.4,0,9.1815e+07,26.752,188.7,1
644,2.97,12109,1,12109,1,2.7479e-05,-1.1636e-09,0,0.00042582,-5.0317e-06,157.1,-381.13,0,1.6203e+08,15.211,12108,12432,1,12432,1,0.00084871,7.1956e-10,0,0.00084871,0.00014887,2.9365e+08,226.68,0,3.2285e+08,120.19,12431,12110,1,12110,1,2.7479e-05,-1.0168e-09,0,0.00042582,-5.0538e-06,1.0486e+07,-328.24,0,1.6459e+08,18.4,12109,11763,1,11763,1,-0.00079375,-3.7877e-09,0,2.9366e-06,-0.00015887,-3.2285e+08,-1233.9,0,1.3378e+06,-108.39,11762,11949,1,11949,1,-0.00039834,-1.9719e-09,0,0.00021291,-8.4808e-05,-1.6202e+08,-645.24,0,8.2997e+07,-36.787,11948,12271,1,12271,1,0.0004533,-3.0858e-10,0,0.00063873,7.4738e-05,1.6501e+08,-99.294,0,2.415e+08,72.107,12270,188.7,0,188.7,0,0.00049177,1.0652e-09,0,0.00024695,9.2132e-05,1.8648e+08,349.93,0,9.2079e+07,63.745,188.7,1
644,2.98,12109,1,12109,1,2.777e-05,-5.6101e-10,0,0.0004273,-5.085e-06,87.23,-185.43,0,1.6251e+08,-22.37,12108,12432,1,12432,1,0.00085186,4.9455e-10,0,0.00085186,0.00014935,2.9439e+08,144.12,0,3.2389e+08,36.676,12431,12110,1,12110,1,2.777e-05,-6.6772e-10,0,0.0004273,-5.1075e-06,1.0595e+07,-219.22,0,1.651e+08,-17.533,12109,11763,1,11763,1,-0.00079632,-1.4257e-09,0,2.7511e-06,-0.00015946,-3.2389e+08,-479.92,0,1.2658e+06,-77.05,11762,11949,1,11949,1,-0.00039953,-9.6137e-10,0,0.00021365,-8.5138e-05,-1.625e+08,-319.69,0,8.3257e+07,-49.048,11948,12271,1,12271,1,0.00045507,-1.5683e-10,0,0.00064095,7.4961e-05,1.6552e+08,-46.359,0,2.4221e+08,0.67214,12270,188.7,0,188.7,0,0.00049347,4.9613e-10,0,0.00024783,9.2452e-05,1.8703e+08,163.59,0,9.2349e+07,29.355,188.7,1
644,2.99,12109,1,12109,1,2.8064e-05,-1.6052e-09,0,0.00042874,-5.1388e-06,-41.079,-525.47,0,1.6298e+08,17.376,12108,12432,1,12432,1,0.00085494,9.3505e-10,0,0.00085494,0.00014982,2.951e+08,309.43,0,3.2491e+08,178.03,12431,12110,1,12110,1,2.8064e-05,-1.3814e-09,0,0.00042875,-5.1615e-06,1.0704e+07,-443.21,0,1.6559e+08,17.211,12109,11763,1,11763,1,-0.00079881,-5.2095e-09,0,2.5602e-06,-0.00016003,-3.2491e+08,-1695.8,0,1.1917e+06,-141.33,11762,11949,1,11949,1,-0.00040068,-2.6873e-09,0,0.00021437,-8.5461e-05,-1.6297e+08,-875.49,0,8.351e+07,-54.577,11948,12271,1,12271,1,0.00045681,-4.5729e-10,0,0.00064312,7.5177e-05,1.6602e+08,-146.57,0,2.429e+08,82.81,12270,188.7,0,188.7,0,0.00049514,1.4474e-09,0,0.00024869,9.2763e-05,1.8756e+08,475.65,0,9.2609e+07,86.325,188.7,1
644,3,12109,1,12109,1,2.8359e-05,-9.8871e-10,0,0.00043022,-5.1927e-06,-25.64,-325.87,0,1.6346e+08,-1.5781,12108,12432,1,12432,1,0.00085807,7.4114e-10,0,0.00085807,0.00015029,2.9584e+08,225.03,0,3.2594e+08,96.035,12431,12110,1,12110,1,2.8359e-05,-9.8479e-10,0,0.00043022,-5.2158e-06,1.0813e+07,-327.15,0,1.661e+08,-3.1202,12109,11763,1,11763,1,-0.00080135,-2.8456e-09,0,2.3706e-06,-0.00016062,-3.2594e+08,-940.14,0,1.1182e+06,-95.984,11762,11949,1,11949,1,-0.00040186,-1.6721e-09,0,0.00021511,-8.579e-05,-1.6345e+08,-553.04,0,8.3768e+07,-38.612,11948,12271,1,12271,1,0.00045857,-3.1546e-10,0,0.00064532,7.5398e-05,1.6653e+08,-93.304,0,2.436e+08,38.347,12270,188.7,0,188.7,0,0.00049684,8.7768e-10,0,0.00024956,9.3081e-05,1.8811e+08,289.8,0,9.2876e+07,50.526,188.7,1
644,3.01,12109,1,12109,1,2.8659e-05,-1.1526e-09,0,0.00043169,-5.2477e-06,71.535,-378.41,0,1.6394e+08,-13.384,12108,12432,1,12432,1,0.00086121,6.0388e-10,0,0.00086121,0.00015077,2.9656e+08,189.54,0,3.2697e+08,43.474,12431,12110,1,12110,1,2.8659e-05,-1.3392e-09,0,0.00043169,-5.271e-06,1.0924e+07,-442.98,0,1.666e+08,-14.194,12109,11763,1,11763,1,-0.00080389,-2.5552e-09,0,2.1759e-06,-0.0001612,-3.2697e+08,-840.97,0,1.0426e+06,-71.996,11762,11949,1,11949,1,-0.00040303,-1.8413e-09,0,0.00021584,-8.6121e-05,-1.6393e+08,-606.1,0,8.4026e+07,-36.411,11948,12271,1,12271,1,0.00046035,-5.0125e-10,0,0.00064753,7.5618e-05,1.6703e+08,-153.83,0,2.4431e+08,10.804,12270,188.7,0,188.7,0,0.00049854,8.4613e-10,0,0.00025044,9.3399e-05,1.8866e+08,279.47,0,9.3143e+07,30.573,188.7,1
644,3.02,12109,1,12109,1,2.896e-05,-1.1107e-09,0,0.00043314,-5.3027e-06,14.269,-364.54,0,1.6441e+08,9.6463,12108,12432,1,12432,1,0.00086431,7.167e-10,0,0.00086431,0.00015124,2.9728e+08,237.29,0,3.2799e+08,111.55,12431,12110,1,12110,1,2.8959e-05,-1.0271e-09,0,0.00043314,-5.3263e-06,1.1036e+07,-336.68,0,1.6709e+08,14.084,12109,11763,1,11763,1,-0.00080639,-3.3968e-09,0,1.9788e-06,-0.00016178,-3.2799e+08,-1108,0,9.6617e+05,-89.134,11762,11949,1,11949,1,-0.00040418,-1.8431e-09,0,0.00021657,-8.6447e-05,-1.6439e+08,-606.86,0,8.4279e+07,-39.859,11948,12271,1,12271,1,0.0004621,-3.4996e-10,0,0.00064971,7.5835e-05,1.6753e+08,-106.94,0,2.4499e+08,53.429,12270,188.7,0,188.7,0,0.00050022,9.7958e-10,0,0.00025131,9.3713e-05,1.892e+08,322.57,0,9.3404e+07,54.273,188.7,1
644,3.03,12109,1,12109,1,2.9262e-05,6.2009e-10,0,0.00043462,-5.3581e-06,-45.839,199.87,0,1.6488e+08,-14.895,12108,12432,1,12432,1,0.00086745,1.2405e-09,0,0.00086745,0.00015172,2.98e+08,399.43,0,3.2902e+08,24.567,12431,12110,1,12110,1,2.9262e-05,7.1167e-10,0,0.00043462,-5.382e-06,1.1148e+07,227.39,0,1.676e+08,-15.705,12109,11763,1,11763,1,-0.00080893,-2.3851e-10,0,1.7819e-06,-0.00016237,-3.2902e+08,-81.69,0,8.8985e+05,-45.013,11762,11949,1,11949,1,-0.00040536,3.163e-10,0,0.00021731,-8.6778e-05,-1.6487e+08,97.068,0,8.4537e+07,-24.462,11948,12271,1,12271,1,0.00046388,9.6226e-10,0,0.00065193,7.6055e-05,1.6804e+08,308.44,0,2.457e+08,-5.8666,12270,188.7,0,188.7,0,0.00050192,4.1594e-10,0,0.00025219,9.4031e-05,1.8974e+08,133.47,0,9.3671e+07,12.933,188.7,1
644,3.04,12109,1,12109,1,2.9568e-05,-1.8093e-10,0,0.00043608,-5.4141e-06,19.436,-58.902,0,1.6535e+08,6.315,12108,12432,1,12432,1,0.00087059,2.7535e-10,0,0.00087059,0.00015219,2.9872e+08,88.682,0,3.3005e+08,36.963,12431,12110,1,12110,1,2.9568e-05,-1.8413e-10,0,0.00043608,-5.4383e-06,1.1261e+07,-58.95,0,1.681e+08,7.4854,12109,11763,1,11763,1,-0.00081145,-6.4925e-10,0,1.5805e-06,-0.00016295,-3.3005e+08,-210.93,0,8.1178e+05,-37.869,11762,11949,1,11949,1,-0.00040651,-3.6125e-10,0,0.00021804,-8.7108e-05,-1.6534e+08,-117.5,0,8.4792e+07,-3.6745,11948,12271,1,12271,1,0.00046565,-1.0033e-11,0,0.00065412,7.6273e-05,1.6854e+08,-3.4362,0,2.4639e+08,17.299,12270,188.7,0,188.7,0,0.00050362,2.2783e-10,0,0.00025306,9.4348e-05,1.9029e+08,73.725,0,9.3934e+07,15.348,188.7,1
644,3.05,12109,1,12109,1,2.9875e-05,-1.4226e-09,0,0.00043754,-5.4704e-06,79.977,-463.94,0,1.6582e+08,0.12005,12108,12432,1,12432,1,0.00087371,8.0165e-10,0,0.00087371,0.00015266,2.9942e+08,274.57,0,3.3107e+08,111.5,12431,12110,1,12110,1,2.9875e-05,-1.5293e-09,0,0.00043754,-5.4949e-06,1.1374e+07,-492.51,0,1.6859e+08,-2.7394,12109,11763,1,11763,1,-0.00081396,-3.7892e-09,0,1.3774e-06,-0.00016354,-3.3107e+08,-1230.6,0,7.3304e+05,-100.92,11762,11949,1,11949,1,-0.00040766,-2.2801e-09,0,0.00021877,-8.7437e-05,-1.6581e+08,-744.01,0,8.5045e+07,-40.078,11948,12271,1,12271,1,0.00046741,-5.7776e-10,0,0.00065631,7.6489e-05,1.6904e+08,-196.15,0,2.4707e+08,39.836,12270,188.7,0,188.7,0,0.0005053,1.1215e-09,0,0.00025393,9.4662e-05,1.9082e+08,366.7,0,9.4195e+07,54.509,188.7,1
644,3.06,12109,1,12109,1,3.0184e-05,-1.7292e-09,0,0.00043901,-5.527e-06,185.57,-565.7,0,1.6629e+08,-16.526,12108,12432,1,12432,1,0.00087685,9.4099e-10,0,0.00087685,0.00015313,3.0014e+08,271.46,0,3.3209e+08,78.982,12431,12110,1,12110,1,3.0184e-05,-2.0373e-09,0,0.00043901,-5.5518e-06,1.1489e+07,-646.99,0,1.6909e+08,-16.943,12109,11763,1,11763,1,-0.00081648,-3.8728e-09,0,1.173e-06,-0.00016412,-3.3209e+08,-1262.3,0,6.5385e+05,-144.94,11762,11949,1,11949,1,-0.00040882,-2.7692e-09,0,0.0002195,-8.7768e-05,-1.6628e+08,-915.48,0,8.53e+07,-43.739,11948,12271,1,12271,1,0.00046919,-8.0677e-10,0,0.00065851,7.6706e-05,1.6954e+08,-246.44,0,2.4777e+08,12.338,12270,188.7,0,188.7,0,0.00050699,1.2833e-09,0,0.00025481,9.4979e-05,1.9136e+08,421.52,0,9.4458e+07,46.387,188.7,1
644,3.07,12109,1,12109,1,3.0496e-05,-1.4766e-09,0,0.00044047,-5.584e-06,112.11,-484.68,0,1.6676e+08,-2.3758,12108,12432,1,12432,1,0.00087997,9.7396e-10,0,0.00087997,0.0001536,3.0084e+08,300.66,0,3.3311e+08,139.57,12431,12110,1,12110,1,3.0495e-05,-1.4788e-09,0,0.00044047,-5.6091e-06,1.1604e+07,-482.63,0,1.6958e+08,-9.8616,12109,11763,1,11763,1,-0.00081898,-4.296e-09,0,9.6583e-07,-0.00016471,-3.3311e+08,-1404.6,0,5.7362e+05,-115.27,11762,11949,1,11949,1,-0.00040997,-2.4053e-09,0,0.00022023,-8.8098e-05,-1.6675e+08,-789.92,0,8.5553e+07,-56.37,11948,12271,1,12271,1,0.00047096,-5.6912e-10,0,0.0006607,7.6922e-05,1.7004e+08,-168.46,0,2.4845e+08,51.768,12270,188.7,0,188.7,0,0.00050868,1.2437e-09,0,0.00025568,9.5294e-05,1.919e+08,409.39,0,9.4719e+07,68.746,188.7,1
644,3.08,12109,1,12109,1,3.0809e-05,2.5725e-10,0,0.00044193,-5.6414e-06,202.48,79.788,0,1.6723e+08,-6.0239,12108,12432,1,12432,1,0.00088311,1.3135e-09,0,0.00088311,0.00015407,3.0154e+08,415.66,0,3.3413e+08,70.189,12431,12110,1,12110,1,3.0809e-05,2.6528e-10,0,0.00044193,-5.6667e-06,1.172e+07,89.156,0,1.7008e+08,-2.6661,12109,11763,1,11763,1,-0.00082149,-8.706e-10,0,7.5684e-07,-0.00016529,-3.3413e+08,-295.5,0,4.9271e+05,-76.673,11762,11949,1,11949,1,-0.00041112,-8.6881e-12,0,0.00022097,-8.8429e-05,-1.6722e+08,-2.9746,0,8.5807e+07,-43.035,11948,12271,1,12271,1,0.00047274,5.1341e-10,0,0.0006629,7.7139e-05,1.7053e+08,160.11,0,2.4914e+08,29.422,12270,188.7,0,188.7,0,0.00051037,4.4925e-10,0,0.00025656,9.5611e-05,1.9243e+08,144.76,0,9.4981e+07,39.102,188.7,1
644,3.09,12109,1,12109,1,3.1126e-05,-1.9012e-10,0,0.00044341,-5.6994e-06,-88.456,-62.822,0,1.677e+08,-20.064,12108,12432,1,12432,1,0.00088628,1.9741e-10,0,0.00088628,0.00015455,3.0225e+08,65.446,0,3.3516e+08,25.865,12431,12110,1,12110,1,3.1126e-05,-2.3152e-10,0,0.00044341,-5.7251e-06,1.1837e+07,-76.35,0,1.7058e+08,-19.452,12109,11763,1,11763,1,-0.00082402,-4.7732e-10,0,5.4612e-07,-0.00016588,-3.3516e+08,-151.95,0,4.1117e+05,-58.055,11762,11949,1,11949,1,-0.00041228,-3.7695e-10,0,0.00022171,-8.8764e-05,-1.6769e+08,-123.08,0,8.6063e+07,-31.731,11948,12271,1,12271,1,0.00047454,-9.7839e-12,0,0.00066512,7.7357e-05,1.7104e+08,-2.8511,0,2.4983e+08,-7.9906,12270,188.7,0,188.7,0,0.00051208,1.942e-10,0,0.00025744,9.593e-05,1.9298e+08,63.437,0,9.5245e+07,16.615,188.7,1
644,3.1,12109,1,12109,1,3.1446e-05,-6.2633e-10,0,0.00044488,-5.758e-06,23.024,-204.6,0,1.6817e+08,-2.9086,12108,12432,1,12432,1,0.00088943,3.9668e-10,0,0.00088943,0.00015502,3.0295e+08,117.16,0,3.3618e+08,24.482,12431,12110,1,12110,1,3.1446e-05,-7.5985e-10,0,0.00044488,-5.7841e-06,1.1955e+07,-240.41,0,1.7107e+08,1.6211,12109,11763,1,11763,1,-0.00082654,-1.2622e-09,0,3.305e-07,-0.00016647,-3.3618e+08,-409.1,0,3.2773e+05,-43.121,11762,11949,1,11949,1,-0.00041343,-1.0705e-09,0,0.00022244,-8.9097e-05,-1.6816e+08,-350.91,0,8.6316e+07,-12.944,11948,12271,1,12271,1,0.00047632,-2.3945e-10,0,0.00066732,7.7573e-05,1.7154e+08,-75.819,0,2.5052e+08,8.7025,12270,188.7,0,188.7,0,0.00051377,4.9249e-10,0,0.00025832,9.6247e-05,1.9351e+08,161.03,0,9.5506e+07,15.254,188.7,1
644,3.11,12109,1,12109,1,3.1768e-05,-7.9165e-11,0,0.00044635,-5.8169e-06,59.467,-27.346,0,1.6864e+08,-6.0045,12108,12432,1,12432,1,0.00089258,2.0074e-10,0,0.00089258,0.00015549,3.0364e+08,57.594,0,3.372e+08,18.753,12431,12110,1,12110,1,3.1768e-05,-1.0761e-10,0,0.00044635,-5.8433e-06,1.2074e+07,-33.366,0,1.7157e+08,-5.3327,12109,11763,1,11763,1,-0.00082904,-3.4151e-10,0,1.1373e-07,-0.00016706,-3.372e+08,-113.86,0,2.4387e+05,-34.467,11762,11949,1,11949,1,-0.00041458,-2.148e-10,0,0.00022317,-8.943e-05,-1.6862e+08,-70.688,0,8.6569e+07,-14.519,11948,12271,1,12271,1,0.00047811,5.5425e-11,0,0.00066952,7.7788e-05,1.7203e+08,16.579,0,2.512e+08,1.8865,12270,188.7,0,188.7,0,0.00051547,1.4454e-10,0,0.0002592,9.6564e-05,1.9405e+08,46.882,0,9.5766e+07,11.591,188.7,1
644,3.12,12109,1,12109,1,3.209e-05,-1.4008e-09,0,0.00044781,-5.8758e-06,-313.8,-455.82,0,1.691e+08,14.358,12108,12432,1,12432,1,0.00089572,6.5973e-10,0,0.00089572,0.00015596,3.0433e+08,210.31,0,3.3822e+08,87.457,12431,12110,1,12110,1,3.209e-05,-1.4685e-09,0,0.00044781,-5.9024e-06,1.2192e+07,-475.24,0,1.7206e+08,19.543,12109,11763,1,11763,1,-0.00083154,-3.4077e-09,0,1.036e-07,-0.00016764,-3.3822e+08,-1103.5,0,1.597e+05,-81.592,11762,11949,1,11949,1,-0.00041572,-2.1848e-09,0,0.0002239,-8.9762e-05,-1.6909e+08,-712.96,0,8.6821e+07,-19.038,11948,12271,1,12271,1,0.0004799,-6.8873e-10,0,0.00067171,7.8002e-05,1.7253e+08,-223.53,0,2.5188e+08,47.666,12270,188.7,0,188.7,0,0.00051716,1.0012e-09,0,0.00026006,9.6879e-05,1.9458e+08,327.61,0,9.6025e+07,42.853,188.7,1
644,3.13,12109,1,12109,1,3.2415e-05,-6.2865e-10,0,0.00044929,-5.9353e-06,-74.691,-206.79,0,1.6956e+08,8.4217,12108,12432,1,12432,1,0.00089887,4.7963e-10,0,0.00089887,0.00015643,3.0502e+08,137.24,0,3.3923e+08,104.44,12431,12110,1,12110,1,3.2415e-05,-4.931e-10,0,0.00044927,-5.9623e-06,1.2312e+07,-158.25,0,1.7255e+08,8.5077,12109,11763,1,11763,1,-0.00083403,-2.4921e-09,0,3.2412e-07,-0.00016823,-3.3923e+08,-815.1,0,74331,-78.496,11762,11949,1,11949,1,-0.00041685,-1.1005e-09,0,0.00022463,-9.0095e-05,-1.6955e+08,-358.8,0,8.7072e+07,-33.68,11948,12271,1,12271,1,0.00048168,-5.2501e-11,0,0.0006739,7.8216e-05,1.7302e+08,-16.633,0,2.5256e+08,47.457,12270,188.7,0,188.7,0,0.00051884,6.9346e-10,0,0.00026091,9.7195e-05,1.9511e+08,227.92,0,9.6283e+07,49.687,188.7,1
644,3.14,12109,1,12109,1,3.2742e-05,7.8782e-10,0,0.00045078,-5.9952e-06,-63.611,253.83,0,1.7003e+08,-0.42108,12108,12432,1,12432,1,0.00090202,2.1517e-09,0,0.00090202,0.0001569,3.0571e+08,694.5,0,3.4025e+08,68.727,12431,12110,1,12110,1,3.2742e-05,6.938e-10,0,0.00045074,-6.0226e-06,1.2433e+07,222.34,0,1.7304e+08,1.0886,12109,11763,1,11763,1,-0.00083654,-5.8261e-11,0,5.4654e-07,-0.00016882,-3.4025e+08,-19.956,0,11412,-78.408,11762,11949,1,11949,1,-0.00041799,3.3894e-10,0,0.00022537,-9.0429e-05,-1.7001e+08,113.37,0,8.7324e+07,-33.242,11948,12271,1,12271,1,0.00048348,1.159e-09,0,0.00067611,7.843e-05,1.7352e+08,374.93,0,2.5324e+08,35.208,12270,188.7,0,188.7,0,0.00052054,5.3219e-10,0,0.00026176,9.7512e-05,1.9564e+08,173.01,0,9.6541e+07,37.006,188.7,1
644,3.15,12109,1,12109,1,3.3073e-05,-2.4031e-10,0,0.00045227,-6.0559e-06,9.8908,-77.861,0,1.705e+08,-16.998,12108,12432,1,12432,1,0.00090519,5.5681e-10,0,0.00090519,0.00015737,3.064e+08,190.71,0,3.4127e+08,38.437,12431,12110,1,12110,1,3.3073e-05,-3.0504e-10,0,0.00045221,-6.0835e-06,1.2554e+07,-101.05,0,1.7353e+08,-17.419,12109,11763,1,11763,1,-0.00083905,-8.4722e-10,0,7.7248e-07,-0.00016941,-3.4127e+08,-274.02,0,98696,-71.525,11762,11949,1,11949,1,-0.00041914,-5.5439e-10,0,0.0002261,-9.0765e-05,-1.7048e+08,-179.79,0,8.7577e+07,-37.844,11948,12271,1,12271,1,0.00048528,5.9343e-11,0,0.00067832,7.8645e-05,1.7401e+08,19.692,0,2.5392e+08,3.5445,12270,188.7,0,188.7,0,0.00052224,3.7485e-10,0,0.00026262,9.783e-05,1.9617e+08,120.28,0,9.679e+07,24.882,188.7,1
644,3.16,12109,1,12109,1,3.3405e-05,-1.291e-09,0,0.00045374,-6.1164e-06,-390.31,-419.49,0,1.7096e+08,39.216,12108,12432,1,12432,1,0.00090834,1.1459e-09,0,0.00090834,0.00015783,3.0707e+08,392.48,0,3.4228e+08,187.08,12431,12110,1,12110,1,3.3404e-05,-1.1083e-09,0,0.00045366,-6.1443e-06,1.2676e+07,-357.97,0,1.7402e+08,44.8,12109,11763,1,11763,1,-0.00084152,-4.7059e-09,0,9.9954e-07,-0.00016999,-3.4228e+08,-1521.5,0,1.864e+05,-125.21,11762,11949,1,11949,1,-0.00042026,-2.3527e-09,0,0.00022683,-9.1098e-05,-1.7093e+08,-759.26,0,8.7826e+07,-28.618,11948,12271,1,12271,1,0.00048707,-1.7149e-10,0,0.0006805,7.8857e-05,1.745e+08,-54.857,0,2.5459e+08,111.63,12270,188.7,0,188.7,0,0.00052392,1.3844e-09,0,0.00026346,9.8144e-05,1.9669e+08,449.98,0,9.7034e+07,84.27,188.7,1
644,3.17,12109,1,12109,1,3.3739e-05,-6.8211e-10,0,0.00045522,-6.1777e-06,-63.885,-224.47,0,1.7143e+08,-0.41333,12108,12432,1,12432,1,0.0009115,4.5174e-10,0,0.0009115,0.0001583,3.0775e+08,128.71,0,3.433e+08,88.012,12431,12110,1,12110,1,3.3739e-05,-5.185e-10,0,0.00045513,-6.2059e-06,1.2799e+07,-167.64,0,1.7451e+08,1.3395,12109,11763,1,11763,1,-0.00084402,-2.6688e-09,0,1.2287e-06,-0.00017059,-3.433e+08,-879.1,0,2.7487e+05,-99.819,11762,11949,1,11949,1,-0.0004214,-1.1803e-09,0,0.00022757,-9.1433e-05,-1.714e+08,-390.72,0,8.8077e+07,-42.385,11948,12271,1,12271,1,0.00048887,-4.5578e-11,0,0.0006827,7.907e-05,1.7499e+08,-14.801,0,2.5527e+08,43.744,12270,188.7,0,188.7,0,0.00052562,7.4444e-10,0,0.00026432,9.8461e-05,1.9723e+08,245.47,0,9.7281e+07,50.763,188.7,1
644,3.18,12109,1,12109,1,3.4077e-05,-5.6682e-10,0,0.00045672,-6.2397e-06,-81.143,-185.95,0,1.719e+08,-10.81,12108,12432,1,12432,1,0.00091471,5.2781e-10,0,0.00091471,0.00015878,3.0844e+08,150.06,0,3.4432e+08,31.061,12431,12110,1,12110,1,3.4077e-05,-6.4809e-10,0,0.00045662,-6.2684e-06,1.2924e+07,-208.58,0,1.75e+08,-3.9655,12109,11763,1,11763,1,-0.00084655,-1.4437e-09,0,1.4616e-06,-0.00017118,-3.4432e+08,-473.89,0,3.6477e+05,-69.949,11762,11949,1,11949,1,-0.00042254,-9.9499e-10,0,0.00022831,-9.1773e-05,-1.7186e+08,-322.21,0,8.8331e+07,-29.473,11948,12271,1,12271,1,0.0004907,-1.8149e-10,0,0.00068493,7.9285e-05,1.7549e+08,-55.805,0,2.5596e+08,9.6869,12270,188.7,0,188.7,0,0.00052733,5.1761e-10,0,0.00026518,9.8782e-05,1.9776e+08,169.48,0,9.7531e+07,24.975,188.7,1
644,3.19,12109,1,12109,1,3.442e-05,-1.2268e-09,0,0.00045821,-6.3023e-06,35.478,-399.44,0,1.7237e+08,-4.9747,12108,12432,1,12432,1,0.00091787,6.0487e-10,0,0.00091787,0.00015924,3.091e+08,175.14,0,3.4533e+08,72.64,12431,12110,1,12110,1,3.4419e-05,-1.2916e-09,0,0.00045808,-6.3313e-06,1.3049e+07,-419.85,0,1.7549e+08,-3.6179,12109,11763,1,11763,1,-0.00084903,-3.1535e-09,0,1.6991e-06,-0.00017177,-3.4533e+08,-1018.2,0,4.5644e+05,-85.982,11762,11949,1,11949,1,-0.00042367,-1.9208e-09,0,0.00022904,-9.2109e-05,-1.7232e+08,-626.73,0,8.858e+07,-33.325,11948,12271,1,12271,1,0.0004925,-5.8411e-10,0,0.00068713,7.9496e-05,1.7598e+08,-175.89,0,2.5663e+08,24.193,12270,188.7,0,188.7,0,0.00052902,9.0404e-10,0,0.00026603,9.9098e-05,1.9828e+08,296.34,0,9.7775e+07,37.699,188.7,1
644,3.2,12109,1,12109,1,3.4761e-05,-2.1345e-09,0,0.00045969,-6.3649e-06,18.189,-693.89,0,1.7283e+08,-15.405,12108,12432,1,12432,1,0.00092105,8.9278e-10,0,0.00092105,0.00015971,3.0978e+08,286.92,0,3.4635e+08,102.44,12431,12110,1,12110,1,3.4761e-05,-2.3444e-09,0,0.00045955,-6.3943e-06,1.3175e+07,-761.7,0,1.7598e+08,-6.2881,12109,11763,1,11763,1,-0.00085153,-5.0811e-09,0,1.9355e-06,-0.00017237,-3.4635e+08,-1639.9,0,5.4766e+05,-135.47,11762,11949,1,11949,1,-0.00042479,-3.3021e-09,0,0.00022978,-9.2447e-05,-1.7278e+08,-1076.1,0,8.8831e+07,-59.437,11948,12271,1,12271,1,0.00049432,-1.0787e-09,0,0.00068933,7.9709e-05,1.7647e+08,-322.44,0,2.573e+08,23.386,12270,188.7,0,188.7,0,0.00053072,1.5009e-09,0,0.00026689,9.9415e-05,1.9881e+08,491.24,0,9.802e+07,57.709,188.7,1
644,3.21,12109,1,12109,1,3.5105e-05,-1.1449e-09,0,0.00046116,-6.4278e-06,98.295,-375.94,0,1.7329e+08,2.9394,12108,12432,1,12432,1,0.0009242,8.3942e-10,0,0.0009242,0.00016017,3.1043e+08,237.77,0,3.4735e+08,160.93,12431,12110,1,12110,1,3.5105e-05,-9.8796e-10,0,0.00046101,-6.4574e-06,1.3301e+07,-321.8,0,1.7646e+08,1.6122,12109,11763,1,11763,1,-0.00085399,-3.9183e-09,0,2.1755e-06,-0.00017295,-3.4735e+08,-1279.4,0,6.4021e+05,-143.62,11762,11949,1,11949,1,-0.0004259,-1.9746e-09,0,0.0002305,-9.2781e-05,-1.7323e+08,-642.96,0,8.9077e+07,-64.774,11948,12271,1,12271,1,0.00049611,-2.3223e-10,0,0.00069151,7.9917e-05,1.7696e+08,-76.927,0,2.5796e+08,67.574,12270,188.7,0,188.7,0,0.0005324,1.1173e-09,0,0.00026773,9.9729e-05,1.9933e+08,367.3,0,9.826e+07,82.277,188.7,1
644,3.22,12109,1,12109,1,3.545e-05,1.663e-09,0,0.00046266,-6.4909e-06,228.3,532.75,0,1.7376e+08,-1.64,12108,12432,1,12432,1,0.00092739,4.3236e-09,0,0.00092739,0.00016064,3.1111e+08,1394.4,0,3.4837e+08,78.638,12431,12110,1,12110,1,3.545e-05,1.7321e-09,0,0.00046249,-6.5209e-06,1.3427e+07,548.98,0,1.7695e+08,2.6282,12109,11763,1,11763,1,-0.00085649,-5.1206e-10,0,2.4131e-06,-0.00017355,-3.4837e+08,-175.37,0,7.3192e+05,-102.37,11762,11949,1,11949,1,-0.00042704,7.5864e-10,0,0.00023124,-9.3121e-05,-1.7369e+08,232.27,0,8.9329e+07,-37.394,11948,12271,1,12271,1,0.00049794,2.4902e-09,0,0.00069373,8.013e-05,1.7745e+08,801.47,0,2.5864e+08,38.447,12270,188.7,0,188.7,0,0.00053411,1.1681e-09,0,0.00026859,0.00010005,1.9986e+08,375.4,0,9.8507e+07,47.6,188.7,1
644,3.23,12109,1,12109,1,3.5802e-05,-1.2401e-09,0,0.00046416,-6.5555e-06,89.414,-400.01,0,1.7423e+08,-23.149,12108,12432,1,12432,1,0.00093061,6.0321e-10,0,0.00093061,0.00016111,3.1177e+08,206.6,0,3.4939e+08,37.799,12431,12110,1,12110,1,3.5802e-05,-1.4433e-09,0,0.00046397,-6.5858e-06,1.3556e+07,-471.66,0,1.7744e+08,-20.556,12109,11763,1,11763,1,-0.000859,-2.5281e-09,0,2.6609e-06,-0.00017415,-3.4939e+08,-812.81,0,8.2735e+05,-140.62,11762,11949,1,11949,1,-0.00042817,-2.0274e-09,0,0.00023199,-9.3463e-05,-1.7415e+08,-657.38,0,8.958e+07,-42.679,11948,12271,1,12271,1,0.00049977,-4.8018e-10,0,0.00069596,8.0343e-05,1.7795e+08,-164.46,0,2.5931e+08,3.6229,12270,188.7,0,188.7,0,0.00053582,9.2008e-10,0,0.00026946,0.00010037,2.0039e+08,296.55,0,9.8753e+07,35.377,188.7,1
644,3.24,12109,1,12109,1,3.6156e-05,1.2436e-09,0,0.00046566,-6.6203e-06,-62.342,399.45,0,1.7469e+08,-4.5264,12108,12432,1,12432,1,0.00093381,2.2427e-09,0,0.00093381,0.00016158,3.1243e+08,715.3,0,3.504e+08,25.43,12431,12110,1,12110,1,3.6156e-05,1.4349e-09,0,0.00046545,-6.651e-06,1.3686e+07,458.57,0,1.7792e+08,-5.9076,12109,11763,1,11763,1,-0.0008615,-3.7612e-10,0,2.9095e-06,-0.00017474,-3.504e+08,-128.82,0,9.2314e+05,-29.102,11762,11949,1,11949,1,-0.00042929,6.5343e-10,0,0.00023272,-9.3803e-05,-1.7461e+08,208.69,0,8.983e+07,-12.573,11948,12271,1,12271,1,0.0005016,1.9155e-09,0,0.00069817,8.0554e-05,1.7843e+08,620.57,0,2.5998e+08,3.3697,12270,188.7,0,188.7,0,0.00053753,7.6962e-10,0,0.00027032,0.00010069,2.0091e+08,247.68,0,9.8996e+07,11.579,188.7,1
644,3.25,12109,1,12109,1,3.6512e-05,1.5286e-09,0,0.00046714,-6.6853e-06,-37.239,495.59,0,1.7515e+08,22.024,12108,12432,1,12432,1,0.000937,3.3461e-09,0,0.000937,0.00016205,3.1309e+08,1070.2,0,3.5141e+08,102.76,12431,12110,1,12110,1,3.6512e-05,1.7915e-09,0,0.00046692,-6.7163e-06,1.3816e+07,585.01,0,1.7841e+08,13.966,12109,11763,1,11763,1,-0.00086398,-7.3103e-10,0,3.1606e-06,-0.00017534,-3.5141e+08,-250.38,0,1.0198e+06,-39.816,11762,11949,1,11949,1,-0.00043041,6.5489e-10,0,0.00023346,-9.4143e-05,-1.7506e+08,222.6,0,9.0077e+07,3.069,11948,12271,1,12271,1,0.00050343,2.4322e-09,0,0.00070038,8.0764e-05,1.7892e+08,794.19,0,2.6064e+08,35.403,12270,188.7,0,188.7,0,0.00053922,1.1321e-09,0,0.00027118,0.000101,2.0143e+08,368.81,0,9.9238e+07,29.032,188.7,1
644,3.26,12109,1,12109,1,3.6867e-05,3.7502e-10,0,0.00046861,-6.7502e-06,-150.62,124.79,0,1.756e+08,55.988,12108,12432,1,12432,1,0.00094015,2.7944e-09,0,0.00094015,0.0001625,3.1372e+08,909.52,0,3.524e+08,235.97,12431,12110,1,12110,1,3.6867e-05,3.4848e-10,0,0.00046837,-6.7814e-06,1.3946e+07,115.15,0,1.7888e+08,57.75,12109,11763,1,11763,1,-0.00086641,-1.7803e-09,0,3.4114e-06,-0.00017593,-3.524e+08,-561.71,0,1.1164e+06,-78.763,11762,11949,1,11949,1,-0.0004315,-1.5483e-10,0,0.00023418,-9.4479e-05,-1.7551e+08,-47.751,0,9.0321e+07,-12.16,11948,12271,1,12271,1,0.00050524,8.7608e-10,0,0.00070255,8.097e-05,1.794e+08,283.24,0,2.613e+08,121.92,12270,188.7,0,188.7,0,0.0005409,9.0912e-10,0,0.00027202,0.00010132,2.0194e+08,295.01,0,9.9475e+07,75.054,188.7,1
644,3.27,12109,1,12109,1,3.7224e-05,-1.739e-09,0,0.00047011,-6.8158e-06,-153.03,-560.48,0,1.7607e+08,4.8273,12108,12432,1,12432,1,0.00094338,9.6864e-10,0,0.00094338,0.00016297,3.1439e+08,331.76,0,3.5343e+08,136.66,12431,12110,1,12110,1,3.7224e-05,-1.7141e-09,0,0.00046985,-6.8477e-06,1.4077e+07,-546.45,0,1.7937e+08,5.1588,12109,11763,1,11763,1,-0.00086893,-4.7218e-09,0,3.6633e-06,-0.00017653,-3.5343e+08,-1519.4,0,1.2133e+06,-136.86,11762,11949,1,11949,1,-0.00043263,-2.8141e-09,0,0.00023493,-9.4822e-05,-1.7596e+08,-901.7,0,9.0572e+07,-48.767,11948,12271,1,12271,1,0.00050708,-6.9524e-10,0,0.00070478,8.1182e-05,1.7989e+08,-231.75,0,2.6197e+08,60.651,12270,188.7,0,188.7,0,0.00054262,1.3561e-09,0,0.00027289,0.00010164,2.0247e+08,439.3,0,9.972e+07,69.762,188.7,1
644,3.28,12109,1,12109,1,3.7589e-05,-1.2669e-09,0,0.00047162,-6.8826e-06,35.629,-412.39,0,1.7653e+08,-20.589,12108,12432,1,12432,1,0.00094661,6.0258e-10,0,0.00094661,0.00016344,3.1504e+08,169.19,0,3.5444e+08,109.78,12431,12110,1,12110,1,3.7589e-05,-1.4748e-09,0,0.00047134,-6.9149e-06,1.421e+07,-470.09,0,1.7986e+08,-24.055,12109,11763,1,11763,1,-0.00087143,-2.9699e-09,0,3.9219e-06,-0.00017713,-3.5444e+08,-967.36,0,1.3129e+06,-93.725,11762,11949,1,11949,1,-0.00043375,-1.9236e-09,0,0.00023567,-9.5167e-05,-1.7642e+08,-631.61,0,9.0822e+07,-64.843,11948,12271,1,12271,1,0.00050893,-5.3203e-10,0,0.00070701,8.1392e-05,1.8038e+08,-165.04,0,2.6264e+08,8.8058,12270,188.7,0,188.7,0,0.00054433,8.7494e-10,0,0.00027375,0.00010196,2.0299e+08,287.35,0,9.9963e+07,48.024,188.7,1
644,3.29,12109,1,12109,1,3.7956e-05,3.4994e-09,0,0.00047311,-6.9496e-06,-142.7,1124.7,0,1.7699e+08,4.8909,12108,12432,1,12432,1,0.00094981,6.8981e-09,0,0.00094981,0.00016391,3.1568e+08,2251.1,0,3.5545e+08,216.32,12431,12110,1,12110,1,3.7956e-05,4.0894e-09,0,0.00047281,-6.9818e-06,1.4344e+07,1304,0,1.8034e+08,-11.083,12109,11763,1,11763,1,-0.0008739,-1.0904e-09,0,4.1828e-06,-0.00017773,-3.5545e+08,-373.47,0,1.4132e+06,-204.56,11762,11949,1,11949,1,-0.00043485,1.671e-09,0,0.0002364,-9.5508e-05,-1.7687e+08,545.81,0,9.1068e+07,-29.708,11948,12271,1,12271,1,0.00051076,5.295e-09,0,0.00070921,8.16e-05,1.8087e+08,1706.9,0,2.6329e+08,26.461,12270,188.7,0,188.7,0,0.00054603,2.2273e-09,0,0.00027461,0.00010228,2.0351e+08,718.13,0,1.002e+08,57.662,188.7,1
644,3.3,12109,1,12109,1,3.8322e-05,2.1059e-09,0,0.0004746,-7.0166e-06,-140.12,684.18,0,1.7745e+08,-13.479,12108,12432,1,12432,1,0.00095301,4.6597e-09,0,0.00095301,0.00016437,3.1632e+08,1504.5,0,3.5645e+08,77.79,12431,12110,1,12110,1,3.8322e-05,2.3362e-09,0,0.00047428,-7.0485e-06,1.4478e+07,753.62,0,1.8082e+08,-10.206,12109,11763,1,11763,1,-0.00087637,-5.1006e-10,0,4.4444e-06,-0.00017832,-3.5645e+08,-144.52,0,1.5138e+06,-150.36,11762,11949,1,11949,1,-0.00043596,1.0104e-09,0,0.00023714,-9.585e-05,-1.7732e+08,300.7,0,9.1314e+07,-28.672,11948,12271,1,12271,1,0.0005126,3.1376e-09,0,0.00071142,8.1808e-05,1.8135e+08,1030.9,0,2.6395e+08,8.5716,12270,188.7,0,188.7,0,0.00054773,1.3383e-09,0,0.00027547,0.00010259,2.0402e+08,442.11,0,1.0044e+08,34.383,188.7,1
644,3.31,12109,1,12109,1,3.8693e-05,-1.2228e-09,0,0.0004761,-7.0844e-06,136.39,-389.79,0,1.7791e+08,11.702,12108,12432,1,12432,1,0.00095624,6.0282e-10,0,0.00095624,0.00016484,3.1696e+08,206.47,0,3.5746e+08,75.766,12431,12110,1,12110,1,3.8693e-05,-1.3959e-09,0,0.00047576,-7.1162e-06,1.4613e+07,-448.01,0,1.813e+08,11.951,12109,11763,1,11763,1,-0.00087885,-2.9342e-09,0,4.7093e-06,-0.00017892,-3.5746e+08,-932.42,0,1.6156e+06,-47.625,11762,11949,1,11949,1,-0.00043707,-1.9543e-09,0,0.00023788,-9.6195e-05,-1.7777e+08,-621.25,0,9.1562e+07,-15.922,11948,12271,1,12271,1,0.00051445,-5.2396e-10,0,0.00071364,8.2016e-05,1.8184e+08,-151.56,0,2.6461e+08,36.924,12270,188.7,0,188.7,0,0.00054944,9.2249e-10,0,0.00027633,0.00010291,2.0454e+08,293.11,0,1.0068e+08,30.979,188.7,1
644,3.32,12109,1,12109,1,3.9066e-05,3.6002e-10,0,0.00047759,-7.1527e-06,68.641,114.39,0,1.7836e+08,0.67987,12108,12432,1,12432,1,0.00095944,1.6702e-09,0,0.00095944,0.0001653,3.1759e+08,530.52,0,3.5846e+08,93.238,12431,12110,1,12110,1,3.9066e-05,2.2453e-10,0,0.00047723,-7.1842e-06,1.4749e+07,71.278,0,1.8178e+08,8.1755,12109,11763,1,11763,1,-0.00088131,-5.2872e-10,0,4.9778e-06,-0.00017952,-3.5846e+08,-173.76,0,1.7188e+06,-98.237,11762,11949,1,11949,1,-0.00043817,7.8067e-12,0,0.00023862,-9.6538e-05,-1.7822e+08,2.4995,0,9.1807e+07,-35.057,11948,12271,1,12271,1,0.0005163,6.6718e-10,0,0.00071585,8.2223e-05,1.8232e+08,212.51,0,2.6527e+08,31.733,12270,188.7,0,188.7,0,0.00055114,4.7638e-10,0,0.00027719,0.00010323,2.0505e+08,153.19,0,1.0092e+08,39.487,188.7,1
644,3.33,12109,1,12109,1,3.9441e-05,-1.6407e-09,0,0.00047909,-7.2213e-06,43.632,-528.6,0,1.7882e+08,-9.2489,12108,12432,1,12432,1,0.00096268,9.1619e-10,0,0.00096268,0.00016576,3.1823e+08,313.8,0,3.5947e+08,83.756,12431,12110,1,12110,1,3.944e-05,-1.8287e-09,0,0.00047871,-7.2527e-06,1.4886e+07,-572.64,0,1.8226e+08,-10.7,12109,11763,1,11763,1,-0.00088379,-3.9858e-09,0,5.2469e-06,-0.00018012,-3.5947e+08,-1279.2,0,1.8221e+06,-105.52,11762,11949,1,11949,1,-0.00043927,-2.6243e-09,0,0.00023936,-9.6883e-05,-1.7866e+08,-847.41,0,9.2054e+07,-47.12,11948,12271,1,12271,1,0.00051815,-7.0424e-10,0,0.00071807,8.243e-05,1.828e+08,-237.01,0,2.6592e+08,29.717,12270,188.7,0,188.7,0,0.00055284,1.2333e-09,0,0.00027806,0.00010355,2.0557e+08,398.97,0,1.0116e+08,50.356,188.7,1
644,3.34,12109,1,12109,1,3.9818e-05,-1.2788e-09,0,0.00048057,-7.2903e-06,110.11,-415.33,0,1.7927e+08,-11.731,12108,12432,1,12432,1,0.00096588,8.2668e-10,0,0.00096588,0.00016623,3.1885e+08,269.6,0,3.6047e+08,82.8,12431,12110,1,12110,1,3.9818e-05,-1.2717e-09,0,0.00048018,-7.3214e-06,1.5023e+07,-411.98,0,1.8273e+08,-10.725,12109,11763,1,11763,1,-0.00088625,-3.7804e-09,0,5.5187e-06,-0.00018072,-3.6047e+08,-1222.9,0,1.9265e+06,-150.2,11762,11949,1,11949,1,-0.00044036,-2.1024e-09,0,0.00024009,-9.7227e-05,-1.7911e+08,-683.03,0,9.2298e+07,-47.725,11948,12271,1,12271,1,0.00052,-4.3813e-10,0,0.00072027,8.2636e-05,1.8328e+08,-132.33,0,2.6657e+08,28.645,12270,188.7,0,188.7,0,0.00055454,1.1045e-09,0,0.00027891,0.00010387,2.0608e+08,359.32,0,1.0139e+08,52.955,188.7,1
644,3.35,12109,1,12109,1,4.0198e-05,-2.6067e-10,0,0.00048208,-7.3599e-06,121.24,-89.049,0,1.7973e+08,-19.939,12108,12432,1,12432,1,0.00096913,7.1722e-10,0,0.00096913,0.00016669,3.1949e+08,199.43,0,3.6148e+08,82.378,12431,12110,1,12110,1,4.0198e-05,-1.9039e-10,0,0.00048167,-7.3909e-06,1.5161e+07,-61.404,0,1.8322e+08,-27.084,12109,11763,1,11763,1,-0.00088873,-1.6386e-09,0,5.7932e-06,-0.00018133,-3.6148e+08,-540.61,0,2.0318e+06,-100.66,11762,11949,1,11949,1,-0.00044147,-6.3858e-10,0,0.00024083,-9.7574e-05,-1.7956e+08,-209.23,0,9.2545e+07,-58.798,11948,12271,1,12271,1,0.00052186,1.9093e-10,0,0.0007225,8.2844e-05,1.8376e+08,60.909,0,2.6714e+08,14.509,12270,188.7,0,188.7,0,0.00055626,5.3391e-10,0,0.00027978,0.00010419,2.0659e+08,172.87,0,1.0163e+08,46.01,188.7,1
644,3.36,12109,1,12109,1,4.0582e-05,1.7055e-09,0,0.00048358,-7.4301e-06,-96.669,546.39,0,1.8018e+08,16.888,12108,12432,1,12432,1,0.00097236,4.2038e-09,0,0.00097236,0.00016715,3.2011e+08,1334.9,0,3.6248e+08,174.94,12431,12110,1,12110,1,4.0582e-05,1.7806e-09,0,0.00048314,-7.4608e-06,1.5301e+07,571.62,0,1.8369e+08,18.137,12109,11763,1,11763,1,-0.0008912,-6.6965e-10,0,6.0717e-06,-0.00018193,-3.6248e+08,-229.35,0,2.1386e+06,-61.635,11762,11949,1,11949,1,-0.00044256,7.8975e-10,0,0.00024157,-9.792e-05,-1.8e+08,240.53,0,9.279e+07,-19.615,11948,12271,1,12271,1,0.00052373,2.6066e-09,0,0.00072472,8.3049e-05,1.8424e+08,841.52,0,2.6771e+08,43.398,12270,188.7,0,188.7,0,0.00055796,1.1976e-09,0,0.00028065,0.00010451,2.071e+08,385.77,0,1.0187e+08,43.385,188.7,1
644,3.37,12109,1,12109,1,4.0968e-05,8.5319e-10,0,0.00048507,-7.5008e-06,-12.604,277.14,0,1.8063e+08,-13.281,12108,12432,1,12432,1,0.0009756,1.7317e-09,0,0.0009756,0.00016762,3.2073e+08,582.59,0,3.6348e+08,53.415,12431,12110,1,12110,1,4.0968e-05,8.9209e-10,0,0.00048462,-7.5313e-06,1.5441e+07,292.61,0,1.8417e+08,-16.032,12109,11763,1,11763,1,-0.00089366,9.6276e-11,0,6.3523e-06,-0.00018253,-3.6348e+08,26.479,0,2.2462e+06,-55.517,11762,11949,1,11949,1,-0.00044365,5.2754e-10,0,0.00024231,-9.8267e-05,-1.8045e+08,161.72,0,9.3034e+07,-26.5,11948,12271,1,12271,1,0.00052559,1.1315e-09,0,0.00072693,8.3254e-05,1.8472e+08,379.11,0,2.6827e+08,-2.3391,12270,188.7,0,188.7,0,0.00055967,3.8978e-10,0,0.00028151,0.00010483,2.0761e+08,134.75,0,1.021e+08,17.554,188.7,1
644,3.38,12109,1,12109,1,4.1356e-05,-1.6434e-09,0,0.00048656,-7.5717e-06,96.566,-526.36,0,1.8108e+08,-5.3694,12108,12432,1,12432,1,0.00097882,1.0667e-09,0,0.00097882,0.00016808,3.2134e+08,365.36,0,3.6448e+08,103.08,12431,12110,1,12110,1,4.1356e-05,-1.74e-09,0,0.00048609,-7.6019e-06,1.5582e+07,-563.17,0,1.8464e+08,-5.4698,12109,11763,1,11763,1,-0.00089611,-4.208e-09,0,6.6351e-06,-0.00018313,-3.6448e+08,-1347.5,0,2.3546e+06,-124.61,11762,11949,1,11949,1,-0.00044473,-2.7216e-09,0,0.00024305,-9.8612e-05,-1.8089e+08,-869.08,0,9.3276e+07,-51.679,11948,12271,1,12271,1,0.00052745,-5.7566e-10,0,0.00072914,8.3458e-05,1.852e+08,-185.91,0,2.6883e+08,48.372,12270,188.7,0,188.7,0,0.00056137,1.3336e-09,0,0.00028237,0.00010514,2.0812e+08,427.78,0,1.0234e+08,60.052,188.7,1
644,3.39,12109,1,12109,1,4.1746e-05,-2.3054e-09,0,0.00048807,-7.643e-06,-24.746,-744.55,0,1.8153e+08,-28.513,12108,12432,1,12432,1,0.00098207,1.0916e-09,0,0.00098207,0.00016854,3.2196e+08,344.81,0,3.6549e+08,97.642,12431,12110,1,12110,1,4.1745e-05,-2.688e-09,0,0.00048757,-7.6729e-06,1.5724e+07,-844.16,0,1.8512e+08,-16.431,12109,11763,1,11763,1,-0.00089858,-4.9351e-09,0,6.9186e-06,-0.00018374,-3.6549e+08,-1590.2,0,2.4631e+06,-147.99,11762,11949,1,11949,1,-0.00044583,-3.6701e-09,0,0.00024379,-9.8961e-05,-1.8133e+08,-1194.4,0,9.3521e+07,-62.142,11948,12271,1,12271,1,0.00052932,-1.0819e-09,0,0.00073136,8.3663e-05,1.8568e+08,-332.57,0,2.6939e+08,9.9602,12270,188.7,0,188.7,0,0.00056308,1.6542e-09,0,0.00028324,0.00010546,2.0863e+08,538.22,0,1.0257e+08,49.474,188.7,1
644,3.4,12109,1,12109,1,4.214e-05,-1.6825e-09,0,0.00048957,-7.7151e-06,-48.366,-547.68,0,1.8198e+08,-13.424,12108,12432,1,12432,1,0.00098533,9.8423e-10,0,0.00098533,0.000169,3.2257e+08,299.87,0,3.6649e+08,60.07,12431,12110,1,12110,1,4.214e-05,-1.9121e-09,0,0.00048905,-7.7447e-06,1.5867e+07,-632.95,0,1.8559e+08,-5.3347,12109,11763,1,11763,1,-0.00090104,-3.8128e-09,0,7.2066e-06,-0.00018434,-3.6649e+08,-1244.3,0,2.5734e+06,-112.44,11762,11949,1,11949,1,-0.00044691,-2.7746e-09,0,0.00024453,-9.931e-05,-1.8177e+08,-907.48,0,9.3765e+07,-45.532,11948,12271,1,12271,1,0.00053119,-5.9672e-10,0,0.00073358,8.3868e-05,1.8616e+08,-173.39,0,2.6995e+08,19.383,12270,188.7,0,188.7,0,0.00056479,1.3109e-09,0,0.0002841,0.00010578,2.0914e+08,429.36,0,1.0281e+08,42.157,188.7,1
644,3.41,12109,1,12109,1,4.2536e-05,2.1545e-09,0,0.00049106,-7.7875e-06,-79.808,685.65,0,1.8243e+08,22.879,12108,12432,1,12432,1,0.00098856,5.5085e-09,0,0.00098856,0.00016946,3.2318e+08,1741.6,0,3.6748e+08,206.92,12431,12110,1,12110,1,4.2536e-05,2.1905e-09,0,0.00049053,-7.8167e-06,1.6011e+07,697.49,0,1.8606e+08,24.443,12109,11763,1,11763,1,-0.00090349,-9.781e-10,0,7.4977e-06,-0.00018495,-3.6748e+08,-335,0,2.6849e+06,-93.273,11762,11949,1,11949,1,-0.00044799,9.4744e-10,0,0.00024526,-9.9658e-05,-1.8221e+08,296.29,0,9.4007e+07,-38.322,11948,12271,1,12271,1,0.00053307,3.403e-09,0,0.00073579,8.4071e-05,1.8663e+08,1083.8,0,2.705e+08,74.941,12270,188.7,0,188.7,0,0.00056649,1.6218e-09,0,0.00028497,0.0001061,2.0964e+08,517.09,0,1.0304e+08,63.31,188.7,1
644,3.42,12109,1,12109,1,4.2935e-05,4.3845e-10,0,0.00049256,-7.8605e-06,76.967,145.13,0,1.8288e+08,-33.958,12108,12432,1,12432,1,0.00099181,1.8621e-09,0,0.00099181,0.00016992,3.2378e+08,609.65,0,3.6848e+08,108.7,12431,12110,1,12110,1,4.2935e-05,3.2619e-10,0,0.00049201,-7.8895e-06,1.6155e+07,104.52,0,1.8654e+08,-32.325,12109,11763,1,11763,1,-0.00090594,-5.3541e-10,0,7.7912e-06,-0.00018555,-3.6848e+08,-147.43,0,2.7971e+06,-123.68,11762,11949,1,11949,1,-0.00044907,-1.8153e-11,0,0.000246,-0.00010001,-1.8265e+08,-5.5761,0,9.4249e+07,-60.708,11948,12271,1,12271,1,0.00053494,8.7117e-10,0,0.00073801,8.4274e-05,1.8711e+08,284.05,0,2.7105e+08,-13.355,12270,188.7,0,188.7,0,0.0005682,5.7243e-10,0,0.00028583,0.00010642,2.1015e+08,186.91,0,1.0327e+08,38.547,188.7,1
644,3.43,12109,1,12109,1,4.3336e-05,1.3414e-09,0,0.00049407,-7.9338e-06,-58.968,432.44,0,1.8333e+08,6.6225,12108,12432,1,12432,1,0.00099508,3.3456e-09,0,0.00099508,0.00017039,3.2439e+08,1074,0,3.6948e+08,112.26,12431,12110,1,12110,1,4.3336e-05,1.4538e-09,0,0.0004935,-7.9625e-06,1.63e+07,468.86,0,1.8701e+08,5.0148,12109,11763,1,11763,1,-0.00090841,-5.6141e-10,0,8.0865e-06,-0.00018616,-3.6948e+08,-190.67,0,2.91e+06,-56.512,11762,11949,1,11949,1,-0.00045016,6.3914e-10,0,0.00024675,-0.00010036,-1.8309e+08,191.88,0,9.4493e+07,-22.385,11948,12271,1,12271,1,0.00053683,2.0758e-09,0,0.00074024,8.4478e-05,1.8759e+08,668.04,0,2.7161e+08,27.41,12270,188.7,0,188.7,0,0.00056992,9.7784e-10,0,0.00028671,0.00010674,2.1066e+08,317.9,0,1.0351e+08,35.241,188.7,1
644,3.44,12109,1,12109,1,4.3742e-05,1.6649e-11,0,0.00049557,-8.0081e-06,-20.711,9.3031,0,1.8377e+08,-14.752,12108,12432,1,12432,1,0.00099833,7.7554e-10,0,0.00099833,0.00017084,3.2499e+08,265.53,0,3.7048e+08,50.547,12431,12110,1,12110,1,4.3742e-05,5.902e-11,0,0.00049497,-8.0364e-06,1.6447e+07,17.168,0,1.8748e+08,-17.817,12109,11763,1,11763,1,-0.00091085,-9.5017e-10,0,8.3865e-06,-0.00018677,-3.7048e+08,-296.72,0,3.0246e+06,-77.831,11762,11949,1,11949,1,-0.00045123,-2.3573e-10,0,0.00024749,-0.00010071,-1.8353e+08,-72.573,0,9.4734e+07,-33.923,11948,12271,1,12271,1,0.00053871,2.9024e-10,0,0.00074246,8.468e-05,1.8806e+08,97.896,0,2.7215e+08,6.9772,12270,188.7,0,188.7,0,0.00057162,3.6776e-10,0,0.00028757,0.00010706,2.1116e+08,118.66,0,1.0374e+08,28.596,188.7,1
644,3.45,12109,1,12109,1,4.4148e-05,-1.2355e-09,0,0.00049707,-8.0823e-06,-67.527,-395.36,0,1.8422e+08,-19.492,12108,12432,1,12432,1,0.0010016,8.211e-10,0,0.0010016,0.0001713,3.2558e+08,281.23,0,3.7147e+08,103.73,12431,12110,1,12110,1,4.4148e-05,-1.2241e-09,0,0.00049645,-8.1103e-06,1.6594e+07,-391.45,0,1.8795e+08,-14.687,12109,11763,1,11763,1,-0.00091329,-3.5683e-09,0,8.6872e-06,-0.00018737,-3.7147e+08,-1138.9,0,3.1395e+06,-115.42,11762,11949,1,11949,1,-0.0004523,-2.052e-09,0,0.00024822,-0.00010106,-1.8396e+08,-653.5,0,9.4974e+07,-58.759,11948,12271,1,12271,1,0.00054059,-4.4426e-10,0,0.00074467,8.4881e-05,1.8853e+08,-145,0,2.7269e+08,26.514,12270,188.7,0,188.7,0,0.00057333,1.0481e-09,0,0.00028844,0.00010738,2.1165e+08,336.68,0,1.0397e+08,48.564,188.7,1
644,3.46,12109,1,12109,1,4.4556e-05,3.0815e-09,0,0.00049857,-8.157e-06,-1.7469,982.12,0,1.8466e+08,-4.7491,12108,12432,1,12432,1,0.0010049,6.7154e-09,0,0.0010049,0.00017176,3.2618e+08,2133.7,0,3.7247e+08,178.86,12431,12110,1,12110,1,4.4557e-05,3.451e-09,0,0.00049793,-8.1846e-06,1.6742e+07,1103,0,1.8842e+08,-8.3947,12109,11763,1,11763,1,-0.00091574,-1.1218e-09,0,8.9894e-06,-0.00018798,-3.7247e+08,-384.21,0,3.2548e+06,-115.29,11762,11949,1,11949,1,-0.00045337,1.3799e-09,0,0.00024896,-0.00010141,-1.844e+08,464.22,0,9.5216e+07,-45.003,11948,12271,1,12271,1,0.00054248,4.7129e-09,0,0.00074689,8.5083e-05,1.89e+08,1502.8,0,2.7324e+08,24.051,12270,188.7,0,188.7,0,0.00057504,2.0815e-09,0,0.00028931,0.0001077,2.1216e+08,665.73,0,1.042e+08,53.6,188.7,1
644,3.47,12109,1,12109,1,4.4969e-05,1.7456e-09,0,0.00050008,-8.2325e-06,-149.02,566.73,0,1.8511e+08,18.013,12108,12432,1,12432,1,0.0010081,4.1374e-09,0,0.0010081,0.00017222,3.2677e+08,1349.3,0,3.7347e+08,175.61,12431,12110,1,12110,1,4.4969e-05,1.9273e-09,0,0.00049942,-8.2596e-06,1.6891e+07,612.9,0,1.8889e+08,17.078,12109,11763,1,11763,1,-0.0009182,-8.6079e-10,0,9.2963e-06,-0.00018859,-3.7347e+08,-248.55,0,3.3719e+06,-64.34,11762,11949,1,11949,1,-0.00045445,6.851e-10,0,0.00024971,-0.00010176,-1.8484e+08,208.08,0,9.5457e+07,-23.236,11948,12271,1,12271,1,0.00054439,2.7879e-09,0,0.00074913,8.5285e-05,1.8948e+08,908.16,0,2.7378e+08,47.254,12270,188.7,0,188.7,0,0.00057676,1.3089e-09,0,0.00029018,0.00010802,2.1266e+08,429.63,0,1.0443e+08,47.165,188.7,1
644,3.48,12109,1,12109,1,4.5385e-05,4.2377e-10,0,0.00050157,-8.3086e-06,320.51,141.09,0,1.8554e+08,10.776,12108,12432,1,12432,1,0.0010114,2.8246e-09,0,0.0010114,0.00017267,3.2734e+08,918.75,0,3.7445e+08,141.52,12431,12110,1,12110,1,4.5385e-05,3.0108e-10,0,0.00050089,-8.3352e-06,1.7041e+07,93.09,0,1.8935e+08,19.82,12109,11763,1,11763,1,-0.00092061,-1.5233e-09,0,9.6072e-06,-0.0001892,-3.7445e+08,-470.3,0,3.4905e+06,-160.27,11762,11949,1,11949,1,-0.0004555,-7.1257e-11,0,0.00025044,-0.00010211,-1.8527e+08,-23.057,0,9.5695e+07,-48.158,11948,12271,1,12271,1,0.00054627,9.3266e-10,0,0.00075133,8.5483e-05,1.8994e+08,307.1,0,2.7431e+08,73.079,12270,188.7,0,188.7,0,0.00057845,8.7392e-10,0,0.00029104,0.00010833,2.1315e+08,283.07,0,1.0466e+08,75.294,188.7,1
644,3.49,12109,1,12109,1,4.5802e-05,-2.6073e-09,0,0.00050309,-8.3848e-06,-90.846,-832.51,0,1.8599e+08,-4.3841,12108,12432,1,12432,1,0.0010147,1.048e-09,0,0.0010147,0.00017314,3.2794e+08,358.93,0,3.7545e+08,55.445,12431,12110,1,12110,1,4.5802e-05,-3.0396e-09,0,0.00050238,-8.4111e-06,1.7191e+07,-987.98,0,1.8983e+08,2.1125,12109,11763,1,11763,1,-0.00092309,-4.8705e-09,0,9.9173e-06,-0.00018981,-3.7545e+08,-1551.4,0,3.6086e+06,-85.803,11762,11949,1,11949,1,-0.00045658,-4.1201e-09,0,0.00025119,-0.00010247,-1.857e+08,-1318.8,0,9.5938e+07,-30.038,11948,12271,1,12271,1,0.00054818,-1.2597e-09,0,0.00075357,8.5686e-05,1.9042e+08,-399.63,0,2.7486e+08,21.445,12270,188.7,0,188.7,0,0.00058018,1.7353e-09,0,0.00029192,0.00010866,2.1366e+08,556.13,0,1.0489e+08,32.552,188.7,1
644,3.5,12109,1,12109,1,4.6225e-05,-1.3561e-09,0,0.00050461,-8.4621e-06,-118.1,-441.39,0,1.8644e+08,16.914,12108,12432,1,12432,1,0.001018,7.0101e-10,0,0.001018,0.0001736,3.2853e+08,199.61,0,3.7645e+08,107.69,12431,12110,1,12110,1,4.6225e-05,-1.4629e-09,0,0.00050387,-8.4879e-06,1.7344e+07,-474.49,0,1.903e+08,14.655,12109,11763,1,11763,1,-0.00092554,-3.2102e-09,0,1.0232e-05,-0.00019043,-3.7645e+08,-1046.7,0,3.7285e+06,-77.198,11762,11949,1,11949,1,-0.00045765,-2.144e-09,0,0.00025194,-0.00010283,-1.8614e+08,-702.75,0,9.618e+07,-17.956,11948,12271,1,12271,1,0.0005501,-6.4579e-10,0,0.00075582,8.5888e-05,1.9089e+08,-199.1,0,2.754e+08,53.29,12270,188.7,0,188.7,0,0.00058191,9.8123e-10,0,0.0002928,0.00010898,2.1416e+08,324.01,0,1.0512e+08,46.44,188.7,1
644,3.51,12109,1,12109,1,4.665e-05,-1.9147e-09,0,0.0005061,-8.5399e-06,-48.915,-620.02,0,1.8687e+08,19.639,12108,12432,1,12432,1,0.0010212,1.1483e-09,0,0.0010212,0.00017405,3.2909e+08,356.78,0,3.7743e+08,138.28,12431,12110,1,12110,1,4.665e-05,-1.8969e-09,0,0.00050534,-8.5651e-06,1.7497e+07,-616.01,0,1.9075e+08,23.786,12109,11763,1,11763,1,-0.00092795,-5.2725e-09,0,1.0553e-05,-0.00019104,-3.7743e+08,-1698.7,0,3.8508e+06,-138.29,11762,11949,1,11949,1,-0.00045869,-3.176e-09,0,0.00025267,-0.00010318,-1.8656e+08,-1032.8,0,9.6415e+07,-34.068,11948,12271,1,12271,1,0.00055199,-6.6827e-10,0,0.00075801,8.6084e-05,1.9135e+08,-201.02,0,2.7592e+08,81.764,12270,188.7,0,188.7,0,0.0005836,1.5911e-09,0,0.00029366,0.0001093,2.1464e+08,518.08,0,1.0535e+08,70.372,188.7,1
644,3.52,12109,1,12109,1,4.7075e-05,-1.6217e-09,0,0.0005076,-8.6176e-06,93.333,-526.52,0,1.8731e+08,-17.501,12108,12432,1,12432,1,0.0010245,9.5397e-10,0,0.0010245,0.00017451,3.2967e+08,267.83,0,3.7842e+08,82.549,12431,12110,1,12110,1,4.7075e-05,-1.6553e-09,0,0.00050683,-8.6424e-06,1.7649e+07,-524.38,0,1.9122e+08,-13.635,12109,11763,1,11763,1,-0.00093039,-4.2595e-09,0,1.0872e-05,-0.00019165,-3.7842e+08,-1387.7,0,3.972e+06,-141.41,11762,11949,1,11949,1,-0.00045975,-2.675e-09,0,0.00025341,-0.00010353,-1.8699e+08,-867.02,0,9.6718e+07,-58.01,11948,12271,1,12271,1,0.0005539,-5.8688e-10,0,0.00076024,8.6283e-05,1.9182e+08,-184.26,0,2.7645e+08,26.664,12270,188.7,0,188.7,0,0.00058532,1.3168e-09,0,0.00029453,0.00010962,2.1514e+08,431.16,0,1.0557e+08,55.964,188.7,1
644,3.53,12109,1,12109,1,4.7503e-05,-2.0381e-09,0,0.0005091,-8.6959e-06,23.885,-657.84,0,1.8775e+08,16.48,12108,12432,1,12432,1,0.0010278,1.367e-09,0,0.0010278,0.00017496,3.3023e+08,411.77,0,3.7941e+08,225.02,12431,12110,1,12110,1,4.7503e-05,-1.8321e-09,0,0.00050831,-8.7201e-06,1.7804e+07,-574.66,0,1.9168e+08,18.805,12109,11763,1,11763,1,-0.00093281,-6.4009e-09,0,1.1195e-05,-0.00019226,-3.7941e+08,-2061.4,0,4.0948e+06,-171.03,11762,11949,1,11949,1,-0.0004608,-3.3751e-09,0,0.00025415,-0.00010389,-1.8742e+08,-1081.9,0,9.7042e+07,-76.888,11948,12271,1,12271,1,0.00055581,-6.7373e-10,0,0.00076246,8.6481e-05,1.9229e+08,-217.22,0,2.7697e+08,94.354,12270,188.7,0,188.7,0,0.00058702,1.806e-09,0,0.0002954,0.00010993,2.1563e+08,585.72,0,1.058e+08,104.61,188.7,1
644,3.54,12109,1,12109,1,4.7933e-05,-3.0685e-09,0,0.0005106,-8.7745e-06,184.29,-988.75,0,1.8818e+08,43.175,12108,12432,1,12432,1,0.0010311,1.6064e-09,0,0.0010311,0.00017542,3.308e+08,497.67,0,3.8039e+08,276.19,12431,12110,1,12110,1,4.7933e-05,-2.993e-09,0,0.00050978,-8.7983e-06,1.7958e+07,-958.74,0,1.9214e+08,39.206,12109,11763,1,11763,1,-0.00093522,-8.2607e-09,0,1.152e-05,-0.00019287,-3.8039e+08,-2668.7,0,4.2182e+06,-246.25,11762,11949,1,11949,1,-0.00046185,-4.8727e-09,0,0.00025489,-0.00010424,-1.8785e+08,-1567.5,0,9.7365e+07,-44.089,11948,12271,1,12271,1,0.00055771,-1.3187e-09,0,0.00076467,8.6677e-05,1.9275e+08,-384.33,0,2.7749e+08,146.73,12270,188.7,0,188.7,0,0.00058872,2.3675e-09,0,0.00029627,0.00011025,2.1612e+08,771.83,0,1.0602e+08,127.34,188.7,1
644,3.55,12109,1,12109,1,4.8368e-05,-1.3306e-09,0,0.00051213,-8.854e-06,-47.072,-436.17,0,1.8862e+08,-21.473,12108,12432,1,12432,1,0.0010344,9.2875e-10,0,0.0010344,0.00017588,3.3137e+08,251.18,0,3.8139e+08,71.152,12431,12110,1,12110,1,4.8368e-05,-1.179e-09,0,0.00051128,-8.8774e-06,1.8114e+07,-378.05,0,1.9261e+08,-17.988,12109,11763,1,11763,1,-0.00093768,-4.2195e-09,0,1.1847e-05,-0.00019349,-3.8139e+08,-1397.9,0,4.3423e+06,-162.74,11762,11949,1,11949,1,-0.00046291,-2.3042e-09,0,0.00025564,-0.0001046,-1.8828e+08,-754.85,0,9.7694e+07,-66.603,11948,12271,1,12271,1,0.00055965,-2.4097e-10,0,0.00076692,8.6878e-05,1.9322e+08,-71.185,0,2.7803e+08,34.368,12270,188.7,0,188.7,0,0.00059046,1.2755e-09,0,0.00029716,0.00011058,2.1662e+08,419.26,0,1.0625e+08,61.95,188.7,1
644,3.56,12109,1,12109,1,4.8809e-05,3.8044e-10,0,0.00051365,-8.9348e-06,-23.804,113.67,0,1.8906e+08,-21.135,12108,12432,1,12432,1,0.0010377,1.6315e-09,0,0.0010377,0.00017634,3.3194e+08,500.81,0,3.8238e+08,58.279,12431,12110,1,12110,1,4.8809e-05,3.7125e-10,0,0.00051278,-8.9576e-06,1.8273e+07,115.24,0,1.9308e+08,-17.803,12109,11763,1,11763,1,-0.00094012,-6.8602e-10,0,1.2182e-05,-0.00019411,-3.8238e+08,-234.87,0,4.4694e+06,-95.059,11762,11949,1,11949,1,-0.00046397,2.2792e-11,0,0.00025639,-0.00010496,-1.8871e+08,7.5656,0,9.8023e+07,-43.021,11948,12271,1,12271,1,0.00056159,7.2489e-10,0,0.00076917,8.7077e-05,1.9369e+08,212.15,0,2.7855e+08,2.869,12270,188.7,0,188.7,0,0.00059219,5.0078e-10,0,0.00029804,0.0001109,2.1711e+08,156.7,0,1.0648e+08,31.237,188.7,1
644,3.57,12109,1,12109,1,4.9253e-05,1.5969e-09,0,0.00051516,-9.016e-06,42.153,506.89,0,1.895e+08,-29.68,12108,12432,1,12432,1,0.0010411,3.9453e-09,0,0.0010411,0.00017679,3.325e+08,1237.8,0,3.8337e+08,120.66,12431,12110,1,12110,1,4.9253e-05,1.8673e-09,0,0.00051427,-9.0383e-06,1.8432e+07,592.09,0,1.9354e+08,-32.93,12109,11763,1,11763,1,-0.00094255,-1.0068e-09,0,1.252e-05,-0.00019472,-3.8337e+08,-344.81,0,4.5976e+06,-146.53,11762,11949,1,11949,1,-0.00046501,5.9664e-10,0,0.00025713,-0.00010532,-1.8913e+08,196.25,0,9.8351e+07,-57.838,11948,12271,1,12271,1,0.00056352,2.5345e-09,0,0.0007714,8.7273e-05,1.9415e+08,808.41,0,2.7907e+08,-1.3444,12270,188.7,0,188.7,0,0.00059391,1.2284e-09,0,0.00029892,0.00011122,2.176e+08,392.13,0,1.0671e+08,40.889,188.7,1
644,3.58,12109,1,12109,1,4.9696e-05,-3.728e-09,0,0.00051666,-9.0967e-06,27.619,-1183.3,0,1.8993e+08,72.702,12108,12432,1,12432,1,0.0010443,1.6294e-09,0,0.0010443,0.00017724,3.3304e+08,558.07,0,3.8435e+08,276.16,12431,12110,1,12110,1,4.9696e-05,-4.3774e-09,0,0.00051574,-9.1183e-06,1.859e+07,-1358.7,0,1.9399e+08,67.809,12109,11763,1,11763,1,-0.00094495,-7.6654e-09,0,1.2857e-05,-0.00019534,-3.8435e+08,-2431.1,0,4.7255e+06,-107.69,11762,11949,1,11949,1,-0.00046604,-5.7738e-09,0,0.00025787,-0.00010568,-1.8955e+08,-1838.2,0,9.8674e+07,16.82,11948,12271,1,12271,1,0.00056543,-1.6972e-09,0,0.00077361,8.7467e-05,1.9461e+08,-568.51,0,2.7958e+08,119.42,12270,188.7,0,188.7,0,0.00059561,2.4933e-09,0,0.00029978,0.00011154,2.1809e+08,794.53,0,1.0693e+08,85.854,188.7,1
644,3.59,12109,1,12109,1,5.0141e-05,-1.243e-09,0,0.00051818,-9.1784e-06,51.324,-405.83,0,1.9037e+08,-22.54,12108,12432,1,12432,1,0.0010477,9.181e-10,0,0.0010477,0.0001777,3.336e+08,246.68,0,3.8534e+08,84.455,12431,12110,1,12110,1,5.0141e-05,-1.205e-09,0,0.00051724,-9.1994e-06,1.875e+07,-385.72,0,1.9446e+08,-22.626,12109,11763,1,11763,1,-0.0009474,-3.5122e-09,0,1.3195e-05,-0.00019596,-3.8534e+08,-1147,0,4.8533e+06,-127.99,11762,11949,1,11949,1,-0.0004671,-2.0849e-09,0,0.00025862,-0.00010604,-1.8998e+08,-676.45,0,9.9004e+07,-65.989,11948,12271,1,12271,1,0.00056738,-3.8943e-10,0,0.00077586,8.7665e-05,1.9508e+08,-116.15,0,2.801e+08,22.43,12270,188.7,0,188.7,0,0.00059734,1.0763e-09,0,0.00030067,0.00011186,2.1858e+08,352.45,0,1.0715e+08,52.984,188.7,1
644,3.6,12109,1,12109,1,5.0594e-05,-6.3042e-10,0,0.0005197,-9.2611e-06,-13.049,-208.19,0,1.908e+08,-19.09,12108,12432,1,12432,1,0.001051,6.2588e-10,0,0.001051,0.00017816,3.3415e+08,167.94,0,3.8633e+08,52.739,12431,12110,1,12110,1,5.0594e-05,-6.0406e-10,0,0.00051873,-9.2816e-06,1.8912e+07,-201.23,0,1.9492e+08,-13.482,12109,11763,1,11763,1,-0.00094983,-1.9543e-09,0,1.354e-05,-0.00019658,-3.8633e+08,-648.78,0,4.9841e+06,-83.391,11762,11949,1,11949,1,-0.00046814,-1.157e-09,0,0.00025937,-0.0001064,-1.9041e+08,-378.08,0,9.9334e+07,-40.77,11948,12271,1,12271,1,0.00056933,-1.1031e-10,0,0.0007781,8.7862e-05,1.9554e+08,-32.583,0,2.8061e+08,-0.14984,12270,188.7,0,188.7,0,0.00059907,6.5829e-10,0,0.00030155,0.00011218,2.1907e+08,215.08,0,1.0738e+08,26.869,188.7,1
644,3.61,12109,1,12109,1,5.1049e-05,-1.1101e-09,0,0.00052123,-9.3444e-06,-14.148,-357.79,0,1.9123e+08,-31.732,12108,12432,1,12432,1,0.0010544,4.878e-10,0,0.0010544,0.00017862,3.347e+08,166.96,0,3.8732e+08,21.501,12431,12110,1,12110,1,5.1049e-05,-1.332e-09,0,0.00052023,-9.3644e-06,1.9074e+07,-412.76,0,1.9538e+08,-29.686,12109,11763,1,11763,1,-0.00095226,-2.0948e-09,0,1.3889e-05,-0.0001972,-3.8732e+08,-679.43,0,5.1159e+06,-111.96,11762,11949,1,11949,1,-0.00046919,-1.803e-09,0,0.00026012,-0.00010676,-1.9083e+08,-592.7,0,9.9664e+07,-46.478,11948,12271,1,12271,1,0.00057128,-4.6269e-10,0,0.00078035,8.8058e-05,1.9601e+08,-133.86,0,2.8113e+08,-15.293,12270,188.7,0,188.7,0,0.0006008,7.7581e-10,0,0.00030244,0.00011251,2.1956e+08,252.89,0,1.076e+08,25.343,188.7,1
644,3.62,12109,1,12109,1,5.1508e-05,-3.2573e-10,0,0.00052275,-9.4281e-06,35.202,-108.92,0,1.9167e+08,1.8148,12108,12432,1,12432,1,0.0010577,4.8474e-10,0,0.0010577,0.00017907,3.3525e+08,129.6,0,3.8831e+08,66.12,12431,12110,1,12110,1,5.1508e-05,-2.7796e-10,0,0.00052173,-9.4475e-06,1.9238e+07,-89.067,0,1.9584e+08,3.2838,12109,11763,1,11763,1,-0.00095469,-1.4339e-09,0,1.4241e-05,-0.00019782,-3.8831e+08,-464.94,0,5.2487e+06,-62.38,11762,11949,1,11949,1,-0.00047022,-6.6382e-10,0,0.00026087,-0.00010713,-1.9125e+08,-214.55,0,9.9995e+07,-27.332,11948,12271,1,12271,1,0.00057324,6.5536e-11,0,0.0007826,8.8253e-05,1.9647e+08,20.691,0,2.8164e+08,27.753,12270,188.7,0,188.7,0,0.00060253,4.61e-10,0,0.00030332,0.00011283,2.2004e+08,148.6,0,1.0782e+08,33.359,188.7,1
644,3.63,12109,1,12109,1,5.1968e-05,-1.3677e-09,0,0.00052426,-9.5123e-06,9.92,-438.05,0,1.921e+08,-25.673,12108,12432,1,12432,1,0.001061,6.4577e-10,0,0.001061,0.00017952,3.3578e+08,178.68,0,3.8929e+08,31.715,12431,12110,1,12110,1,5.1968e-05,-1.623e-09,0,0.00052322,-9.5312e-06,1.9402e+07,-516.12,0,1.9629e+08,-24.905,12109,11763,1,11763,1,-0.0009571,-2.7017e-09,0,1.4595e-05,-0.00019844,-3.8929e+08,-865.62,0,5.3823e+06,-91.144,11762,11949,1,11949,1,-0.00047125,-2.171e-09,0,0.00026161,-0.00010749,-1.9167e+08,-700.79,0,1.0032e+08,-43.352,11948,12271,1,12271,1,0.00057519,-6.4933e-10,0,0.00078483,8.8447e-05,1.9693e+08,-183.1,0,2.8214e+08,-8.9151,12270,188.7,0,188.7,0,0.00060425,9.4444e-10,0,0.0003042,0.00011315,2.2053e+08,305.4,0,1.0805e+08,22.66,188.7,1
644,3.64,12109,1,12109,1,5.2429e-05,-2.3213e-09,0,0.00052577,-9.5966e-06,118.77,-743.09,0,1.9252e+08,1.6944,12108,12432,1,12432,1,0.0010644,1.0183e-09,0,0.0010644,0.00017998,3.3632e+08,303.79,0,3.9027e+08,96.344,12431,12110,1,12110,1,5.2429e-05,-2.7379e-09,0,0.0005247,-9.6147e-06,1.9567e+07,-829.03,0,1.9674e+08,10.134,12109,11763,1,11763,1,-0.00095951,-4.7237e-09,0,1.495e-05,-0.00019906,-3.9027e+08,-1510.3,0,5.5161e+06,-112.77,11762,11949,1,11949,1,-0.00047228,-3.5889e-09,0,0.00026235,-0.00010785,-1.9209e+08,-1162,0,1.0065e+08,-32.051,11948,12271,1,12271,1,0.00057713,-1.1591e-09,0,0.00078706,8.864e-05,1.9738e+08,-327.57,0,2.8264e+08,31.023,12270,188.7,0,188.7,0,0.00060596,1.5793e-09,0,0.00030508,0.00011347,2.2101e+08,511.53,0,1.0827e+08,45.707,188.7,1
644,3.65,12109,1,12109,1,5.2892e-05,2.9248e-09,0,0.00052728,-9.6813e-06,36.612,919.88,0,1.9295e+08,-9.1067,12108,12432,1,12432,1,0.0010677,5.5806e-09,0,0.0010677,0.00018043,3.3684e+08,1737,0,3.9124e+08,165.21,12431,12110,1,12110,1,5.2892e-05,3.4474e-09,0,0.00052619,-9.6988e-06,1.9732e+07,1057.5,0,1.9719e+08,-15.633,12109,11763,1,11763,1,-0.0009619,-9.5928e-10,0,1.5306e-05,-0.00019968,-3.9124e+08,-328.55,0,5.6505e+06,-79.132,11762,11949,1,11949,1,-0.00047329,1.4721e-09,0,0.00026309,-0.00010821,-1.925e+08,436.23,0,1.0098e+08,-42.444,11948,12271,1,12271,1,0.00057908,4.5121e-09,0,0.00078928,8.8831e-05,1.9784e+08,1422.2,0,2.8313e+08,15.202,12270,188.7,0,188.7,0,0.00060767,1.8722e-09,0,0.00030596,0.00011379,2.2148e+08,588.78,0,1.0848e+08,45.099,188.7,1
644,3.66,12109,1,12109,1,5.3358e-05,-1.166e-09,0,0.0005288,-9.7664e-06,11.63,-364.04,0,1.9338e+08,14.632,12108,12432,1,12432,1,0.001071,7.2511e-10,0,0.001071,0.00018088,3.3738e+08,248.35,0,3.9222e+08,100.32,12431,12110,1,12110,1,5.3358e-05,-1.2073e-09,0,0.00052768,-9.7834e-06,1.9898e+07,-380.65,0,1.9765e+08,21.187,12109,11763,1,11763,1,-0.00096432,-3.1303e-09,0,1.5666e-05,-0.0002003,-3.9222e+08,-977.38,0,5.7859e+06,-91.068,11762,11949,1,11949,1,-0.00047433,-1.9345e-09,0,0.00026384,-0.00010858,-1.9292e+08,-601.9,0,1.0131e+08,-20.318,11948,12271,1,12271,1,0.00058104,-4.4612e-10,0,0.00079152,8.9026e-05,1.983e+08,-135.54,0,2.8363e+08,48.559,12270,188.7,0,188.7,0,0.0006094,9.6773e-10,0,0.00030685,0.00011411,2.2197e+08,302.2,0,1.0871e+08,44.784,188.7,1
644,3.67,12109,1,12109,1,5.3831e-05,5.1131e-10,0,0.00053033,-9.853e-06,48.627,159.34,0,1.9381e+08,-11.508,12108,12432,1,12432,1,0.0010744,1.5453e-09,0,0.0010744,0.00018133,3.3791e+08,484.57,0,3.9321e+08,85.465,12431,12110,1,12110,1,5.3831e-05,4.7241e-10,0,0.00052919,-9.8695e-06,2.0066e+07,143.36,0,1.9811e+08,-11.085,12109,11763,1,11763,1,-0.00096674,-3.9491e-11,0,1.6032e-05,-0.00020093,-3.9321e+08,-10.938,0,5.9235e+06,-62.028,11762,11949,1,11949,1,-0.00047535,2.2991e-10,0,0.00026459,-0.00010894,-1.9334e+08,73.566,0,1.0164e+08,-32.267,11948,12271,1,12271,1,0.00058302,6.9674e-10,0,0.00079378,8.9219e-05,1.9876e+08,216.08,0,2.8413e+08,5.6047,12270,188.7,0,188.7,0,0.00061114,3.3938e-10,0,0.00030774,0.00011444,2.2245e+08,106.95,0,1.0893e+08,27.395,188.7,1
644,3.68,12109,1,12109,1,5.4304e-05,3.4039e-09,0,0.00053182,-9.9393e-06,-4.0268,1080.8,0,1.9422e+08,55.875,12108,12432,1,12432,1,0.0010777,9.3162e-09,0,0.0010777,0.00018178,3.3841e+08,2921.2,0,3.9417e+08,463.64,12431,12110,1,12110,1,5.4303e-05,3.4755e-09,0,0.00053065,-9.955e-06,2.0234e+07,1103.5,0,1.9855e+08,48.735,12109,11763,1,11763,1,-0.0009691,-1.9587e-09,0,1.64e-05,-0.00020155,-3.9417e+08,-670.85,0,6.0619e+06,-137.11,11762,11949,1,11949,1,-0.00047635,1.377e-09,0,0.00026532,-0.0001093,-1.9374e+08,428.37,0,1.0197e+08,-34.241,11948,12271,1,12271,1,0.00058495,5.5075e-09,0,0.00079597,8.9406e-05,1.992e+08,1754.8,0,2.8461e+08,130.59,12270,188.7,0,188.7,0,0.00061282,2.7442e-09,0,0.0003086,0.00011475,2.2291e+08,874.86,0,1.0914e+08,112.81,188.7,1
644,3.69,12109,1,12109,1,5.4777e-05,-3.4348e-09,0,0.00053336,-1.0026e-05,-24.64,-1074.9,0,1.9465e+08,-8.4583,12108,12432,1,12432,1,0.0010811,1.0554e-09,0,0.0010811,0.00018224,3.3895e+08,361.48,0,3.9516e+08,65.001,12431,12110,1,12110,1,5.4778e-05,-3.9855e-09,0,0.00053216,-1.0041e-05,2.0402e+07,-1283.6,0,1.9901e+08,-9.4561,12109,11763,1,11763,1,-0.00097154,-6.1562e-09,0,1.6765e-05,-0.00020218,-3.9516e+08,-1896,0,6.1989e+06,-96.816,11762,11949,1,11949,1,-0.00047738,-5.4037e-09,0,0.00026608,-0.00010967,-1.9416e+08,-1685.1,0,1.023e+08,-34.362,11948,12271,1,12271,1,0.00058694,-1.7971e-09,0,0.00079824,8.9601e-05,1.9966e+08,-547.76,0,2.8511e+08,18.262,12270,188.7,0,188.7,0,0.00061457,2.1653e-09,0,0.0003095,0.00011508,2.234e+08,674.13,0,1.0936e+08,34.923,188.7,1
644,3.7,12109,1,12109,1,5.5258e-05,6.6386e-10,0,0.00053487,-1.0114e-05,-289.68,204.69,0,1.9507e+08,67,12108,12432,1,12432,1,0.0010844,4.5189e-09,0,0.0010844,0.00018268,3.3945e+08,1405.9,0,3.9613e+08,415.93,12431,12110,1,12110,1,5.5258e-05,2.9521e-10,0,0.00053364,-1.0128e-05,2.0572e+07,94.224,0,1.9945e+08,63.081,12109,11763,1,11763,1,-0.00097391,-1.4345e-09,0,1.714e-05,-0.0002028,-3.9613e+08,-483.41,0,6.3396e+06,-108.21,11762,11949,1,11949,1,-0.00047838,-3.4734e-10,0,0.00026682,-0.00011004,-1.9457e+08,-107.08,0,1.0263e+08,-33.692,11948,12271,1,12271,1,0.0005889,1.5314e-09,0,0.00080046,8.979e-05,2.0011e+08,476.98,0,2.8559e+08,143.39,12270,188.7,0,188.7,0,0.00061628,1.327e-09,0,0.00031038,0.0001154,2.2387e+08,418.52,0,1.0958e+08,108.74,188.7,1
644,3.71,12109,1,12109,1,5.5741e-05,-2.7051e-09,0,0.0005364,-1.0202e-05,-159.84,-854.65,0,1.955e+08,41.847,12108,12432,1,12432,1,0.0010878,1.429e-09,0,0.0010878,0.00018314,3.3997e+08,489.43,0,3.9711e+08,223.79,12431,12110,1,12110,1,5.574e-05,-3.038e-09,0,0.00053515,-1.0216e-05,2.0743e+07,-920.07,0,1.9991e+08,44.838,12109,11763,1,11763,1,-0.00097634,-6.2214e-09,0,1.7516e-05,-0.00020343,-3.9711e+08,-1966.7,0,6.4803e+06,-136.46,11762,11949,1,11949,1,-0.00047941,-4.2576e-09,0,0.00026757,-0.00011041,-1.9499e+08,-1344.4,0,1.0297e+08,-29.665,11948,12271,1,12271,1,0.00059089,-1.2184e-09,0,0.00080272,8.9982e-05,2.0057e+08,-412.61,0,2.8608e+08,112.12,12270,188.7,0,188.7,0,0.00061802,1.9381e-09,0,0.00031127,0.00011572,2.2435e+08,617.13,0,1.098e+08,94.456,188.7,1
644,3.72,12109,1,12109,1,5.6231e-05,1.6631e-09,0,0.00053794,-1.0292e-05,-12.632,516.96,0,1.9592e+08,-26.565,12108,12432,1,12432,1,0.0010912,3.1837e-09,0,0.0010912,0.00018359,3.4049e+08,963.14,0,3.981e+08,32.413,12431,12110,1,12110,1,5.6231e-05,1.9064e-09,0,0.00053666,-1.0306e-05,2.0917e+07,596.11,0,2.0036e+08,-23.345,12109,11763,1,11763,1,-0.00097876,-7.0264e-10,0,1.7898e-05,-0.00020406,-3.981e+08,-240.65,0,6.6233e+06,-84.752,11762,11949,1,11949,1,-0.00048043,7.7023e-10,0,0.00026833,-0.00011078,-1.954e+08,257.5,0,1.033e+08,-48.402,11948,12271,1,12271,1,0.00059289,2.6885e-09,0,0.00080499,9.0174e-05,2.0103e+08,822.66,0,2.8657e+08,-4.3787,12270,188.7,0,188.7,0,0.00061977,1.1296e-09,0,0.00031217,0.00011605,2.2483e+08,348.4,0,1.1001e+08,28.139,188.7,1
644,3.73,12109,1,12109,1,5.6724e-05,2.7771e-09,0,0.00053946,-1.0382e-05,-51.5,881.02,0,1.9634e+08,9.2509,12108,12432,1,12432,1,0.0010946,4.9746e-09,0,0.0010946,0.00018404,3.4099e+08,1569.7,0,3.9907e+08,168.82,12431,12110,1,12110,1,5.6723e-05,3.2776e-09,0,0.00053815,-1.0395e-05,2.1091e+07,1036.9,0,2.0081e+08,1.8319,12109,11763,1,11763,1,-0.00098115,-8.2911e-10,0,1.8284e-05,-0.00020469,-3.9907e+08,-283.97,0,6.7677e+06,-60.813,11762,11949,1,11949,1,-0.00048143,1.4735e-09,0,0.00026908,-0.00011115,-1.9581e+08,438.96,0,1.0364e+08,-27.64,11948,12271,1,12271,1,0.00059488,4.2808e-09,0,0.00080723,9.0363e-05,2.0147e+08,1378.5,0,2.8705e+08,41.8,12270,188.7,0,188.7,0,0.00062149,1.7375e-09,0,0.00031306,0.00011637,2.253e+08,558.85,0,1.1023e+08,44.078,188.7,1
644,3.74,12109,1,12109,1,5.7215e-05,-1.2457e-09,0,0.00054098,-1.0472e-05,-243.55,-383.05,0,1.9676e+08,-0.67852,12108,12432,1,12432,1,0.001098,5.5105e-10,0,0.001098,0.00018449,3.4149e+08,188.73,0,4.0004e+08,78.408,12431,12110,1,12110,1,5.7216e-05,-1.3355e-09,0,0.00053965,-1.0484e-05,2.1265e+07,-413.87,0,2.0125e+08,4.9453,12109,11763,1,11763,1,-0.00098353,-2.8552e-09,0,1.8669e-05,-0.00020531,-4.0004e+08,-874.69,0,6.9113e+06,-89.297,11762,11949,1,11949,1,-0.00048243,-2.0533e-09,0,0.00026982,-0.00011152,-1.9622e+08,-627.55,0,1.0397e+08,-30.653,11948,12271,1,12271,1,0.00059686,-3.9291e-10,0,0.00080947,9.0551e-05,2.0192e+08,-134.56,0,2.8752e+08,29.385,12270,188.7,0,188.7,0,0.00062321,9.5167e-10,0,0.00031395,0.00011669,2.2577e+08,289.2,0,1.1044e+08,37.469,188.7,1
644,3.75,12109,1,12109,1,5.7711e-05,2.5785e-10,0,0.00054251,-1.0562e-05,-73.582,79.642,0,1.9718e+08,-6.6613,12108,12432,1,12432,1,0.0011014,9.5411e-10,0,0.0011014,0.00018494,3.4199e+08,300.86,0,4.0102e+08,62.508,12431,12110,1,12110,1,5.7711e-05,2.3725e-10,0,0.00054115,-1.0574e-05,2.144e+07,71.233,0,2.017e+08,-5.4619,12109,11763,1,11763,1,-0.00098594,-5.8275e-11,0,1.9057e-05,-0.00020595,-4.0102e+08,-19.949,0,7.0563e+06,-55.561,11762,11949,1,11949,1,-0.00048344,8.1819e-11,0,0.00027058,-0.00011189,-1.9663e+08,26.229,0,1.043e+08,-21.487,11948,12271,1,12271,1,0.00059886,3.6713e-10,0,0.00081173,9.0742e-05,2.0238e+08,113.24,0,2.88e+08,10.471,12270,188.7,0,188.7,0,0.00062496,2.1852e-10,0,0.00031484,0.00011702,2.2625e+08,68.866,0,1.1066e+08,20.953,188.7,1
644,3.76,12109,1,12109,1,5.8212e-05,2.5531e-09,0,0.00054403,-1.0654e-05,-46.984,807.24,0,1.976e+08,17.558,12108,12432,1,12432,1,0.0011047,5.5783e-09,0,0.0011047,0.00018539,3.4249e+08,1751.9,0,4.0199e+08,203.54,12431,12110,1,12110,1,5.8212e-05,2.8804e-09,0,0.00054264,-1.0665e-05,2.1617e+07,915.74,0,2.0214e+08,11.029,12109,11763,1,11763,1,-0.00098832,-8.8873e-10,0,1.9452e-05,-0.00020658,-4.0199e+08,-304.39,0,7.2035e+06,-54.778,11762,11949,1,11949,1,-0.00048443,1.27e-09,0,0.00027132,-0.00011226,-1.9703e+08,421.32,0,1.0464e+08,-16.238,11948,12271,1,12271,1,0.00060086,3.8863e-09,0,0.00081396,9.0928e-05,2.0282e+08,1235.9,0,2.8847e+08,39.779,12270,188.7,0,188.7,0,0.00062668,1.7006e-09,0,0.00031573,0.00011734,2.2671e+08,543.47,0,1.1087e+08,45.458,188.7,1
644,3.77,12109,1,12109,1,5.8715e-05,8.2735e-10,0,0.00054557,-1.0746e-05,-52.107,271.04,0,1.9802e+08,-20.153,12108,12432,1,12432,1,0.0011082,1.667e-09,0,0.0011082,0.00018584,3.4299e+08,570.49,0,4.0297e+08,15.51,12431,12110,1,12110,1,5.8715e-05,9.7401e-10,0,0.00054415,-1.0757e-05,2.1794e+07,299.36,0,2.0259e+08,-19.153,12109,11763,1,11763,1,-0.00099073,-3.1914e-10,0,1.9846e-05,-0.00020721,-4.0297e+08,-87.069,0,7.3503e+06,-53.006,11762,11949,1,11949,1,-0.00048544,2.3133e-10,0,0.00027208,-0.00011263,-1.9744e+08,64.223,0,1.0497e+08,-34.834,11948,12271,1,12271,1,0.00060287,1.4585e-09,0,0.00081623,9.1118e-05,2.0327e+08,477.14,0,2.8895e+08,-5.9593,12270,188.7,0,188.7,0,0.00062842,6.4698e-10,0,0.00031663,0.00011767,2.2719e+08,214.71,0,1.1109e+08,16.697,188.7,1
644,3.78,12109,1,12109,1,5.9221e-05,-2.7947e-09,0,0.00054708,-1.0838e-05,-119.19,-876.47,0,1.9842e+08,18.014,12108,12432,1,12432,1,0.0011115,1.2223e-09,0,0.0011115,0.00018628,3.4346e+08,418.64,0,4.0392e+08,152.97,12431,12110,1,12110,1,5.9221e-05,-2.9591e-09,0,0.00054563,-1.0849e-05,2.1972e+07,-910.01,0,2.0303e+08,22.033,12109,11763,1,11763,1,-0.00099308,-6.4648e-09,0,2.0246e-05,-0.00020784,-4.0392e+08,-2021.5,0,7.499e+06,-123,11762,11949,1,11949,1,-0.00048641,-4.396e-09,0,0.00027281,-0.000113,-1.9784e+08,-1392.8,0,1.053e+08,-32.521,11948,12271,1,12271,1,0.00060485,-1.2867e-09,0,0.00081845,9.1301e-05,2.0371e+08,-398.09,0,2.894e+08,69.561,12270,188.7,0,188.7,0,0.00063013,2.0088e-09,0,0.00031751,0.00011798,2.2764e+08,631.93,0,1.113e+08,67.725,188.7,1
644,3.79,12109,1,12109,1,5.9728e-05,4.5276e-10,0,0.00054863,-1.0931e-05,-25.561,133.84,0,1.9885e+08,-24.705,12108,12432,1,12432,1,0.001115,1.0507e-09,0,0.001115,0.00018673,3.4396e+08,303.53,0,4.049e+08,20.842,12431,12110,1,12110,1,5.9728e-05,4.3342e-10,0,0.00054715,-1.0941e-05,2.215e+07,136.65,0,2.0348e+08,-24.255,12109,11763,1,11763,1,-0.00099549,-1.7634e-10,0,2.0645e-05,-0.00020848,-4.049e+08,-60.391,0,7.647e+06,-66.336,11762,11949,1,11949,1,-0.00048742,6.5815e-11,0,0.00027358,-0.00011338,-1.9825e+08,21.674,0,1.0556e+08,-43.767,11948,12271,1,12271,1,0.00060688,8.5907e-10,0,0.00082073,9.1492e-05,2.0417e+08,251.62,0,2.8988e+08,-7.4653,12270,188.7,0,188.7,0,0.00063188,3.9879e-10,0,0.00031842,0.00011831,2.2812e+08,116.86,0,1.1152e+08,21.305,188.7,1
644,3.8,12109,1,12109,1,6.0243e-05,1.1111e-09,0,0.00055015,-1.1025e-05,28.894,348.6,0,1.9926e+08,-12.026,12108,12432,1,12432,1,0.0011183,2.6255e-09,0,0.0011183,0.00018718,3.4443e+08,820.42,0,4.0586e+08,32.672,12431,12110,1,12110,1,6.0243e-05,1.1796e-09,0,0.00054864,-1.1035e-05,2.2331e+07,370.32,0,2.0392e+08,-12.078,12109,11763,1,11763,1,-0.00099786,-3.8046e-10,0,2.1054e-05,-0.00020911,-4.0586e+08,-130.31,0,7.7988e+06,-69.496,11762,11949,1,11949,1,-0.0004884,5.1327e-10,0,0.00027432,-0.00011375,-1.9864e+08,161.45,0,1.0581e+08,-31.558,11948,12271,1,12271,1,0.00060889,1.7001e-09,0,0.00082296,9.1675e-05,2.0461e+08,533.99,0,2.9034e+08,8.0982,12270,188.7,0,188.7,0,0.00063361,7.6354e-10,0,0.00031931,0.00011863,2.2858e+08,242.05,0,1.1172e+08,23.48,188.7,1
644,3.81,12109,1,12109,1,6.0757e-05,3.9006e-09,0,0.00055167,-1.1119e-05,211.71,1235,0,1.9967e+08,-25.909,12108,12432,1,12432,1,0.0011218,7.9399e-09,0,0.0011218,0.00018762,3.4491e+08,2501.9,0,4.0683e+08,79.376,12431,12110,1,12110,1,6.0756e-05,4.5117e-09,0,0.00055014,-1.1129e-05,2.2511e+07,1394.1,0,2.0436e+08,-25.79,12109,11763,1,11763,1,-0.0010002,-1.1508e-09,0,2.1461e-05,-0.00020974,-4.0683e+08,-394.15,0,7.9496e+06,-143.26,11762,11949,1,11949,1,-0.00048938,2.1198e-09,0,0.00027507,-0.00011412,-1.9904e+08,609.03,0,1.0605e+08,-62.733,11948,12271,1,12271,1,0.0006109,5.9121e-09,0,0.00082521,9.186e-05,2.0505e+08,1890.3,0,2.908e+08,12.708,12270,188.7,0,188.7,0,0.00063533,2.5138e-09,0,0.0003202,0.00011895,2.2904e+08,809.25,0,1.1194e+08,45.818,188.7,1
644,3.82,12109,1,12109,1,6.1275e-05,3.1212e-09,0,0.00055321,-1.1214e-05,132.97,999.82,0,2.0008e+08,-82.878,12108,12432,1,12432,1,0.0011252,5.7022e-09,0,0.0011252,0.00018807,3.4539e+08,1866.2,0,4.0781e+08,42.172,12431,12110,1,12110,1,6.1275e-05,3.5796e-09,0,0.00055165,-1.1223e-05,2.2693e+07,1125,0,2.048e+08,-74.432,12109,11763,1,11763,1,-0.0010026,-8.1417e-10,0,2.1871e-05,-0.00021038,-4.0781e+08,-230.24,0,8.1012e+06,-243.55,11762,11949,1,11949,1,-0.00049038,1.4656e-09,0,0.00027583,-0.0001145,-1.9945e+08,448.79,0,1.0631e+08,-138.65,11948,12271,1,12271,1,0.00061293,4.8843e-09,0,0.00082748,9.2048e-05,2.0549e+08,1591.5,0,2.9126e+08,-30.059,12270,188.7,0,188.7,0,0.00063708,1.9795e-09,0,0.00032111,0.00011928,2.2951e+08,652.3,0,1.1215e+08,63.991,188.7,1
644,3.83,12109,1,12109,1,6.1798e-05,3.3165e-09,0,0.00055473,-1.131e-05,159.27,1063.9,0,2.0049e+08,-71.924,12108,12432,1,12432,1,0.0011286,8.5535e-09,0,0.0011286,0.00018851,3.4586e+08,2726.6,0,4.0877e+08,151.63,12431,12110,1,12110,1,6.1798e-05,3.5067e-09,0,0.00055314,-1.1318e-05,2.2876e+07,1107.3,0,2.0524e+08,-69.112,12109,11763,1,11763,1,-0.001005,-1.5081e-09,0,2.2287e-05,-0.00021101,-4.0877e+08,-470.78,0,8.2551e+06,-299.91,11762,11949,1,11949,1,-0.00049134,1.2924e-09,0,0.00027657,-0.00011487,-1.9984e+08,391.89,0,1.0655e+08,-147.01,11948,12271,1,12271,1,0.00061494,5.3247e-09,0,0.00082972,9.223e-05,2.0593e+08,1708.3,0,2.9171e+08,-0.94716,12270,188.7,0,188.7,0,0.0006388,2.5578e-09,0,0.000322,0.0001196,2.2996e+08,831.1,0,1.1236e+08,95.478,188.7,1
644,3.84,12109,1,12109,1,6.2323e-05,1.7899e-09,0,0.00055628,-1.1406e-05,1.6766,584.42,0,2.009e+08,-63.589,12108,12432,1,12432,1,0.001132,3.9723e-09,0,0.001132,0.00018896,3.4633e+08,1359.4,0,4.0974e+08,45.636,12431,12110,1,12110,1,6.2323e-05,1.9753e-09,0,0.00055466,-1.1414e-05,2.3059e+07,633.34,0,2.0568e+08,-58.781,12109,11763,1,11763,1,-0.0010074,-6.1789e-10,0,2.2703e-05,-0.00021165,-4.0974e+08,-159.95,0,8.4087e+06,-190.31,11762,11949,1,11949,1,-0.00049233,5.4669e-10,0,0.00027733,-0.00011525,-2.0025e+08,167.87,0,1.068e+08,-108.2,11948,12271,1,12271,1,0.00061698,2.9498e-09,0,0.00083199,9.2416e-05,2.0638e+08,974.14,0,2.9217e+08,-20.284,12270,188.7,0,188.7,0,0.00064055,1.3554e-09,0,0.00032291,0.00011993,2.3043e+08,451.22,0,1.1257e+08,54.715,188.7,1
644,3.85,12109,1,12109,1,6.2854e-05,8.6912e-10,0,0.00055781,-1.1503e-05,98.999,288.61,0,2.0131e+08,-31.237,12108,12432,1,12432,1,0.0011355,2.3826e-09,0,0.0011355,0.00018941,3.4679e+08,815.34,0,4.107e+08,42.338,12431,12110,1,12110,1,6.2854e-05,9.2532e-10,0,0.00055616,-1.1511e-05,2.3245e+07,296.73,0,2.0612e+08,-20.859,12109,11763,1,11763,1,-0.0010097,-5.0756e-10,0,2.3127e-05,-0.00021229,-4.107e+08,-131.8,0,8.565e+06,-128.38,11762,11949,1,11949,1,-0.00049331,1.1471e-10,0,0.00027808,-0.00011563,-2.0064e+08,35.588,0,1.0705e+08,-53.791,11948,12271,1,12271,1,0.00061901,1.5708e-09,0,0.00083424,9.26e-05,2.0682e+08,518.5,0,2.9262e+08,-7.7509,12270,188.7,0,188.7,0,0.00064229,8.3615e-10,0,0.00032381,0.00012025,2.3089e+08,275.79,0,1.1278e+08,37.526,188.7,1
644,3.86,12109,1,12109,1,6.3385e-05,-3.2636e-09,0,0.00055933,-1.16e-05,348.58,-1017.6,0,2.0171e+08,37.132,12108,12432,1,12432,1,0.0011389,1.0996e-09,0,0.0011389,0.00018985,3.4725e+08,376.61,0,4.1165e+08,210.23,12431,12110,1,12110,1,6.3385e-05,-3.5871e-09,0,0.00055765,-1.1607e-05,2.343e+07,-1148.3,0,2.0655e+08,29.046,12109,11763,1,11763,1,-0.0010121,-6.7686e-09,0,2.3552e-05,-0.00021292,-4.1165e+08,-2109.4,0,8.7217e+06,-161.81,11762,11949,1,11949,1,-0.00049426,-5.002e-09,0,0.00027882,-0.000116,-2.0103e+08,-1572.9,0,1.0729e+08,-5.4707,11948,12271,1,12271,1,0.00062103,-1.5368e-09,0,0.00083647,9.278e-05,2.0725e+08,-497.44,0,2.9306e+08,80.278,12270,188.7,0,188.7,0,0.00064401,2.1737e-09,0,0.0003247,0.00012057,2.3134e+08,679.9,0,1.1298e+08,69.742,188.7,1
644,3.87,12109,1,12109,1,6.3918e-05,3.3967e-09,0,0.00056088,-1.1698e-05,25.197,1059,0,2.0213e+08,-81.535,12108,12432,1,12432,1,0.0011423,6.0426e-09,0,0.0011423,0.0001903,3.4772e+08,1865.7,0,4.1263e+08,44.009,12431,12110,1,12110,1,6.3919e-05,3.9227e-09,0,0.00055917,-1.1705e-05,2.3616e+07,1242.2,0,2.0699e+08,-75.584,12109,11763,1,11763,1,-0.0010145,-8.9761e-10,0,2.3977e-05,-0.00021357,-4.1263e+08,-307.43,0,8.878e+06,-198.59,11762,11949,1,11949,1,-0.00049525,1.7505e-09,0,0.00027958,-0.00011639,-2.0143e+08,556.38,0,1.0754e+08,-130.84,11948,12271,1,12271,1,0.00062309,5.1162e-09,0,0.00083876,9.2966e-05,2.077e+08,1607.6,0,2.9351e+08,-32.732,12270,188.7,0,188.7,0,0.00064576,2.0396e-09,0,0.00032561,0.0001209,2.318e+08,639.57,0,1.132e+08,60.477,188.7,1
644,3.88,12109,1,12109,1,6.446e-05,3.2254e-12,0,0.00056242,-1.1797e-05,189.33,10.879,0,2.0253e+08,1.0152,12108,12432,1,12432,1,0.0011458,1.0665e-09,0,0.0011458,0.00019074,3.4817e+08,365.1,0,4.1359e+08,64.328,12431,12110,1,12110,1,6.446e-05,2.4904e-11,0,0.00056067,-1.1804e-05,2.3805e+07,8.2063,0,2.0742e+08,1.118,12109,11763,1,11763,1,-0.0010168,-9.7413e-10,0,2.4411e-05,-0.0002142,-4.1359e+08,-281.6,0,9.0375e+06,-60.133,11762,11949,1,11949,1,-0.00049621,-3.7204e-10,0,0.00028034,-0.00011676,-2.0182e+08,-105.35,0,1.0779e+08,-22.095,11948,12271,1,12271,1,0.00062513,3.2371e-10,0,0.00084101,9.3147e-05,2.0813e+08,110.27,0,2.9395e+08,25.592,12270,188.7,0,188.7,0,0.0006475,4.7804e-10,0,0.00032652,0.00012123,2.3226e+08,149.73,0,1.134e+08,28.559,188.7,1
644,3.89,12109,1,12109,1,6.5003e-05,3.7338e-10,0,0.00056396,-1.1896e-05,225.68,119.88,0,2.0294e+08,-32.43,12108,12432,1,12432,1,0.0011492,8.2051e-10,0,0.0011492,0.00019118,3.4862e+08,280.88,0,4.1455e+08,42.394,12431,12110,1,12110,1,6.5003e-05,3.9943e-10,0,0.00056218,-1.1903e-05,2.3994e+07,124.4,0,2.0786e+08,-31.299,12109,11763,1,11763,1,-0.0010192,-1.3348e-10,0,2.4847e-05,-0.00021485,-4.1455e+08,-45.715,0,9.1972e+06,-90.396,11762,11949,1,11949,1,-0.00049718,1.8638e-10,0,0.00028109,-0.00011715,-2.0222e+08,53.18,0,1.0804e+08,-55.103,11948,12271,1,12271,1,0.00062719,5.3537e-10,0,0.00084328,9.333e-05,2.0857e+08,179.91,0,2.9439e+08,-10.32,12270,188.7,0,188.7,0,0.00064924,2.0441e-10,0,0.00032742,0.00012155,2.3271e+08,70.764,0,1.1361e+08,30.131,188.7,1
644,3.9,12109,1,12109,1,6.555e-05,-2.3453e-11,0,0.00056551,-1.1996e-05,216.71,-5.3527,0,2.0335e+08,-28.678,12108,12432,1,12432,1,0.0011527,2.0884e-10,0,0.0011527,0.00019163,3.4907e+08,71.327,0,4.1552e+08,23.952,12431,12110,1,12110,1,6.555e-05,-2.5309e-11,0,0.0005637,-1.2003e-05,2.4184e+07,-7.2217,0,2.0829e+08,-30.046,12109,11763,1,11763,1,-0.0010216,-2.5087e-10,0,2.5286e-05,-0.00021549,-4.1552e+08,-70.99,0,9.3582e+06,-70.816,11762,11949,1,11949,1,-0.00049815,-1.1331e-10,0,0.00028185,-0.00011753,-2.0261e+08,-33.774,0,1.0828e+08,-42.184,11948,12271,1,12271,1,0.00062925,8.227e-11,0,0.00084555,9.3512e-05,2.0901e+08,27.058,0,2.9487e+08,-16.227,12270,188.7,0,188.7,0,0.000651,1.17e-10,0,0.00032833,0.00012188,2.3317e+08,35.291,0,1.1382e+08,17.758,188.7,1
644,3.91,12109,1,12109,1,6.61e-05,1.7027e-09,0,0.00056704,-1.2096e-05,-230.68,534.78,0,2.0375e+08,-1.0731,12108,12432,1,12432,1,0.0011561,4.0242e-09,0,0.0011561,0.00019207,3.4951e+08,1260.1,0,4.1647e+08,94.028,12431,12110,1,12110,1,6.61e-05,1.6897e-09,0,0.0005652,-1.2103e-05,2.4374e+07,529.03,0,2.0872e+08,3.323,12109,11763,1,11763,1,-0.0010239,-4.195e-10,0,2.5728e-05,-0.00021613,-4.1647e+08,-143.68,0,9.52e+06,-124.33,11762,11949,1,11949,1,-0.0004991,9.0091e-10,0,0.0002826,-0.00011791,-2.03e+08,273.42,0,1.0853e+08,-35.973,11948,12271,1,12271,1,0.0006313,2.5003e-09,0,0.00084781,9.3692e-05,2.0944e+08,797.95,0,2.9539e+08,40.497,12270,188.7,0,188.7,0,0.00065273,1.073e-09,0,0.00032924,0.0001222,2.3362e+08,344.33,0,1.1402e+08,48.225,188.7,1
644,3.92,12109,1,12109,1,6.6652e-05,-1.7826e-10,0,0.00056858,-1.2197e-05,56.246,-50.105,0,2.0415e+08,20.99,12108,12432,1,12432,1,0.0011596,9.794e-10,0,0.0011596,0.00019251,3.4995e+08,335.28,0,4.1743e+08,109.57,12431,12110,1,12110,1,6.6652e-05,-1.009e-10,0,0.00056671,-1.2204e-05,2.4566e+07,-31.025,0,2.0915e+08,17.887,12109,11763,1,11763,1,-0.0010263,-1.5777e-09,0,2.6172e-05,-0.00021678,-4.1743e+08,-481.43,0,9.6824e+06,-61.995,11762,11949,1,11949,1,-0.00050006,-6.5012e-10,0,0.00028335,-0.00011829,-2.0339e+08,-195.31,0,1.0877e+08,-19.379,11948,12271,1,12271,1,0.00063336,3.258e-10,0,0.00085006,9.3872e-05,2.0987e+08,106.35,0,2.9591e+08,64.572,12270,188.7,0,188.7,0,0.00065447,6.0759e-10,0,0.00033015,0.00012253,2.3407e+08,189.84,0,1.1423e+08,46.153,188.7,1
644,3.93,12109,1,12109,1,6.7207e-05,-1.9873e-09,0,0.00057011,-1.2299e-05,357.98,-621.69,0,2.0454e+08,20.605,12108,12432,1,12432,1,0.001163,7.7015e-10,0,0.001163,0.00019295,3.5038e+08,243.48,0,4.1838e+08,145.3,12431,12110,1,12110,1,6.7207e-05,-1.9792e-09,0,0.00056821,-1.2305e-05,2.4758e+07,-605.99,0,2.0958e+08,24.107,12109,11763,1,11763,1,-0.0010286,-4.9424e-09,0,2.6621e-05,-0.00021742,-4.1838e+08,-1543.4,0,9.846e+06,-120.11,11762,11949,1,11949,1,-0.000501,-3.1034e-09,0,0.0002841,-0.00011867,-2.0377e+08,-971.54,0,1.0902e+08,-29.815,11948,12271,1,12271,1,0.00063541,-8.8318e-10,0,0.00085231,9.4049e-05,2.103e+08,-275.09,0,2.9642e+08,73.841,12270,188.7,0,188.7,0,0.0006562,1.421e-09,0,0.00033105,0.00012285,2.3451e+08,449.56,0,1.1443e+08,63.818,188.7,1
644,3.94,12109,1,12109,1,6.7765e-05,-7.3638e-11,0,0.00057167,-1.2401e-05,-45.949,-31.61,0,2.0495e+08,-28.93,12108,12432,1,12432,1,0.0011665,8.9344e-10,0,0.0011665,0.0001934,3.5083e+08,242.25,0,4.1935e+08,30.088,12431,12110,1,12110,1,6.7765e-05,-1.308e-10,0,0.00056973,-1.2408e-05,2.4951e+07,-41.43,0,2.1002e+08,-33.931,12109,11763,1,11763,1,-0.001031,-6.9165e-10,0,2.7069e-05,-0.00021807,-4.1935e+08,-236.67,0,1.001e+07,-79.303,11762,11949,1,11949,1,-0.00050197,-3.6366e-10,0,0.00028487,-0.00011906,-2.0416e+08,-120.23,0,1.0927e+08,-43.988,11948,12271,1,12271,1,0.0006375,2.1309e-10,0,0.0008546,9.4232e-05,2.1074e+08,62.597,0,2.9695e+08,-13.196,12270,188.7,0,188.7,0,0.00065797,3.7686e-10,0,0.00033197,0.00012318,2.3497e+08,114.55,0,1.1464e+08,23.057,188.7,1
644,3.95,12109,1,12109,1,6.8332e-05,1.7709e-09,0,0.0005732,-1.2505e-05,373.96,548.85,0,2.0534e+08,-52.157,12108,12432,1,12432,1,0.00117,3.9022e-09,0,0.00117,0.00019384,3.5125e+08,1195.4,0,4.203e+08,63.282,12431,12110,1,12110,1,6.8332e-05,1.8576e-09,0,0.00057124,-1.2512e-05,2.5147e+07,575.01,0,2.1044e+08,-53.844,12109,11763,1,11763,1,-0.0010333,-4.5378e-10,0,2.7529e-05,-0.00021871,-4.203e+08,-155.42,0,1.0177e+07,-187.98,11762,11949,1,11949,1,-0.00050291,9.5012e-10,0,0.00028562,-0.00011944,-2.0454e+08,277.45,0,1.0951e+08,-81.916,11948,12271,1,12271,1,0.00063957,2.6223e-09,0,0.00085686,9.4409e-05,2.1117e+08,816.77,0,2.9745e+08,-17.817,12270,188.7,0,188.7,0,0.0006597,1.1025e-09,0,0.00033288,0.0001235,2.3542e+08,344.98,0,1.1484e+08,48.711,188.7,1
644,3.96,12109,1,12109,1,6.8897e-05,-4.2865e-09,0,0.00057476,-1.2608e-05,-232.89,-1336.3,0,2.0575e+08,80.695,12108,12432,1,12432,1,0.0011735,1.1535e-09,0,0.0011735,0.00019428,3.5168e+08,395.06,0,4.2126e+08,243.14,12431,12110,1,12110,1,6.8897e-05,-4.9865e-09,0,0.00057276,-1.2615e-05,2.5342e+07,-1536.7,0,2.1087e+08,75.055,12109,11763,1,11763,1,-0.0010357,-7.5701e-09,0,2.7986e-05,-0.00021936,-4.2126e+08,-2351,0,1.0343e+07,-116.08,11762,11949,1,11949,1,-0.00050386,-6.4728e-09,0,0.00028638,-0.00011983,-2.0493e+08,-2040.7,0,1.0975e+08,26.545,11948,12271,1,12271,1,0.00064165,-2.2856e-09,0,0.00085914,9.4588e-05,2.116e+08,-711.79,0,2.9797e+08,128.92,12270,188.7,0,188.7,0,0.00066145,2.5927e-09,0,0.00033379,0.00012383,2.3587e+08,817.17,0,1.1505e+08,70.242,188.7,1
644,3.97,12109,1,12109,1,6.9467e-05,2.1921e-09,0,0.00057628,-1.2712e-05,309.17,668.54,0,2.0613e+08,-19.151,12108,12432,1,12432,1,0.0011769,6.1347e-09,0,0.0011769,0.00019472,3.5209e+08,1840.6,0,4.222e+08,172.14,12431,12110,1,12110,1,6.9468e-05,2.2181e-09,0,0.00057425,-1.2719e-05,2.5539e+07,673.66,0,2.1129e+08,-7.5165,12109,11763,1,11763,1,-0.001038,-1.5243e-09,0,2.8448e-05,-0.00022,-4.222e+08,-522.05,0,1.0511e+07,-244.37,11762,11949,1,11949,1,-0.00050478,7.8861e-10,0,0.00028712,-0.00012021,-2.0531e+08,249.81,0,1.0999e+08,-84.149,11948,12271,1,12271,1,0.00064371,3.5683e-09,0,0.00086137,9.4762e-05,2.1202e+08,1097.6,0,2.9847e+08,43.439,12270,188.7,0,188.7,0,0.00066317,1.8389e-09,0,0.00033469,0.00012415,2.363e+08,560.34,0,1.1524e+08,85.158,188.7,1
644,3.98,12109,1,12109,1,7.0036e-05,-3.248e-09,0,0.00057783,-1.2816e-05,-178.75,-1009.8,0,2.0653e+08,85.319,12108,12432,1,12432,1,0.0011805,1.2485e-09,0,0.0011805,0.00019516,3.5252e+08,427.61,0,4.2316e+08,280.04,12431,12110,1,12110,1,7.0036e-05,-3.6032e-09,0,0.00057577,-1.2823e-05,2.5735e+07,-1095.1,0,2.1172e+08,68.28,12109,11763,1,11763,1,-0.0010404,-7.0856e-09,0,2.891e-05,-0.00022065,-4.2316e+08,-2198.8,0,1.0678e+07,-86.979,11762,11949,1,11949,1,-0.00050573,-4.9941e-09,0,0.00028788,-0.0001206,-2.0569e+08,-1546.3,0,1.1024e+08,19.83,11948,12271,1,12271,1,0.0006458,-1.6634e-09,0,0.00086365,9.4941e-05,2.1245e+08,-514.9,0,2.9898e+08,150.38,12270,188.7,0,188.7,0,0.00066493,2.1671e-09,0,0.00033561,0.00012448,2.3675e+08,679.97,0,1.1545e+08,85.932,188.7,1
644,3.99,12109,1,12109,1,7.0616e-05,-1.4283e-09,0,0.00057939,-1.2922e-05,-4.6056,-460.03,0,2.0693e+08,9.748,12108,12432,1,12432,1,0.001184,7.5091e-10,0,0.001184,0.0001956,3.5293e+08,189.05,0,4.2412e+08,97.182,12431,12110,1,12110,1,7.0615e-05,-1.5948e-09,0,0.00057729,-1.2929e-05,2.5934e+07,-494.71,0,2.1214e+08,8.0799,12109,11763,1,11763,1,-0.0010427,-3.287e-09,0,2.9379e-05,-0.00022131,-4.2412e+08,-1085.1,0,1.0849e+07,-87.236,11762,11949,1,11949,1,-0.00050667,-2.2932e-09,0,0.00028865,-0.00012099,-2.0608e+08,-739.86,0,1.1048e+08,-19.398,11948,12271,1,12271,1,0.0006479,-5.7786e-10,0,0.00086593,9.5118e-05,2.1288e+08,-158.54,0,2.9949e+08,40.745,12270,188.7,0,188.7,0,0.00066669,1.0701e-09,0,0.00033653,0.0001248,2.372e+08,350.79,0,1.1565e+08,43.249,188.7,1
644,4,12109,1,12109,1,7.12e-05,6.4272e-10,0,0.00058095,-1.3029e-05,-4.2604,187.52,0,2.0733e+08,-53.638,12108,12432,1,12432,1,0.0011875,1.4914e-09,0,0.0011875,0.00019604,3.5335e+08,416.74,0,4.2507e+08,29.594,12431,12110,1,12110,1,7.12e-05,5.8669e-10,0,0.00057881,-1.3037e-05,2.6135e+07,189.09,0,2.1257e+08,-56.797,12109,11763,1,11763,1,-0.0010451,-1.6901e-10,0,2.9855e-05,-0.00022196,-4.2507e+08,-57.885,0,1.1021e+07,-123.84,11762,11949,1,11949,1,-0.00050761,1.7106e-10,0,0.00028941,-0.00012138,-2.0646e+08,54.374,0,1.1073e+08,-84.5,11948,12271,1,12271,1,0.00065001,1.1119e-09,0,0.00086822,9.5296e-05,2.1331e+08,321.99,0,3e+08,-21.904,12270,188.7,0,188.7,0,0.00066845,5.1009e-10,0,0.00033746,0.00012513,2.3764e+08,143.79,0,1.1586e+08,36.632,188.7,1
644,4.01,12109,1,12109,1,7.1787e-05,9.9019e-10,0,0.00058249,-1.3137e-05,42.244,306.53,0,2.0772e+08,-5.6801,12108,12432,1,12432,1,0.001191,3.4037e-09,0,0.001191,0.00019648,3.5375e+08,1045.3,0,4.2602e+08,141.19,12431,12110,1,12110,1,7.1788e-05,7.4237e-10,0,0.00058033,-1.3144e-05,2.6336e+07,224.36,0,2.1299e+08,1.119,12109,11763,1,11763,1,-0.0010474,-3.2846e-10,0,3.0335e-05,-0.00022261,-4.2602e+08,-112.5,0,1.1194e+07,-152.15,11762,11949,1,11949,1,-0.00050854,2.5192e-10,0,0.00029016,-0.00012177,-2.0684e+08,72.308,0,1.1097e+08,-56.197,11948,12271,1,12271,1,0.00065211,1.6079e-09,0,0.00087049,9.547e-05,2.1373e+08,497.79,0,3.0049e+08,48.049,12270,188.7,0,188.7,0,0.0006702,8.9153e-10,0,0.00033838,0.00012546,2.3808e+08,280.13,0,1.1605e+08,61.505,188.7,1
644,4.02,12109,1,12109,1,7.2375e-05,-1.8991e-09,0,0.00058404,-1.3244e-05,23.463,-589.2,0,2.0811e+08,26.52,12108,12432,1,12432,1,0.0011945,6.9672e-10,0,0.0011945,0.00019692,3.5415e+08,219.96,0,4.2697e+08,142.5,12431,12110,1,12110,1,7.2375e-05,-2.1724e-09,0,0.00058184,-1.3252e-05,2.6538e+07,-669.19,0,2.1341e+08,20.541,12109,11763,1,11763,1,-0.0010497,-3.994e-09,0,3.0815e-05,-0.00022326,-4.2697e+08,-1236.5,0,1.1367e+07,-67.681,11762,11949,1,11949,1,-0.00050946,-2.8692e-09,0,0.00029092,-0.00012216,-2.0721e+08,-889.75,0,1.1121e+08,-11.478,11948,12271,1,12271,1,0.00065421,-9.7825e-10,0,0.00087275,9.5644e-05,2.1415e+08,-317.81,0,3.0099e+08,63.716,12270,188.7,0,188.7,0,0.00067194,1.2182e-09,0,0.00033929,0.00012578,2.3852e+08,380.88,0,1.1625e+08,49.794,188.7,1
644,4.03,12109,1,12109,1,7.2966e-05,4.8899e-10,0,0.00058559,-1.3352e-05,69.431,144.29,0,2.085e+08,-28.074,12108,12432,1,12432,1,0.001198,1.7018e-09,0,0.001198,0.00019736,3.5456e+08,515.82,0,4.2792e+08,62.892,12431,12110,1,12110,1,7.2966e-05,4.9155e-10,0,0.00058336,-1.336e-05,2.674e+07,138.73,0,2.1383e+08,-20.442,12109,11763,1,11763,1,-0.0010521,-3.8566e-10,0,3.1297e-05,-0.00022392,-4.2792e+08,-132.05,0,1.1541e+07,-138.78,11762,11949,1,11949,1,-0.00051039,7.106e-11,0,0.00029168,-0.00012255,-2.0759e+08,22.516,0,1.1145e+08,-53.823,11948,12271,1,12271,1,0.00065632,8.1983e-10,0,0.00087503,9.5819e-05,2.1458e+08,243.67,0,3.0149e+08,6.2791,12270,188.7,0,188.7,0,0.00067369,4.8968e-10,0,0.00034021,0.00012611,2.3896e+08,148.98,0,1.1645e+08,43.329,188.7,1
644,4.04,12109,1,12109,1,7.3562e-05,-1.3843e-10,0,0.00058715,-1.3461e-05,-63.671,-46.348,0,2.0889e+08,-44.348,12108,12432,1,12432,1,0.0012015,1.8831e-10,0,0.0012015,0.0001978,3.5496e+08,54.55,0,4.2887e+08,88.706,12431,12110,1,12110,1,7.3562e-05,-1.372e-10,0,0.00058488,-1.347e-05,2.6944e+07,-41.243,0,2.1425e+08,-47.419,12109,11763,1,11763,1,-0.0010544,-5.2994e-10,0,3.1785e-05,-0.00022457,-4.2887e+08,-173.44,0,1.1717e+07,-136.93,11762,11949,1,11949,1,-0.00051132,-2.5314e-10,0,0.00029244,-0.00012295,-2.0796e+08,-84.735,0,1.1169e+08,-78.917,11948,12271,1,12271,1,0.00065844,4.3314e-12,0,0.00087732,9.5994e-05,2.15e+08,1.2927,0,3.0199e+08,-12.786,12270,188.7,0,188.7,0,0.00067545,1.7053e-10,0,0.00034114,0.00012644,2.394e+08,56.318,0,1.1665e+08,47.425,188.7,1
644,4.05,12109,1,12109,1,7.4163e-05,-1.9281e-09,0,0.0005887,-1.3571e-05,249.32,-602,0,2.0927e+08,47.775,12108,12432,1,12432,1,0.0012051,8.9278e-10,0,0.0012051,0.00019823,3.5535e+08,280.28,0,4.2982e+08,200.68,12431,12110,1,12110,1,7.4163e-05,-2.1509e-09,0,0.00058639,-1.358e-05,2.7149e+07,-674.31,0,2.1467e+08,34.943,12109,11763,1,11763,1,-0.0010567,-4.3895e-09,0,3.2278e-05,-0.00022523,-4.2982e+08,-1362.6,0,1.1894e+07,-98.622,11762,11949,1,11949,1,-0.00051223,-3.0193e-09,0,0.0002932,-0.00012334,-2.0834e+08,-940.79,0,1.1193e+08,-1.82,11948,12271,1,12271,1,0.00066056,-9.6366e-10,0,0.00087959,9.6166e-05,2.1542e+08,-291.87,0,3.0248e+08,90.579,12270,188.7,0,188.7,0,0.0006772,1.3651e-09,0,0.00034206,0.00012677,2.3983e+08,430.14,0,1.1685e+08,62.49,188.7,1
644,4.06,12109,1,12109,1,7.4765e-05,-1.567e-09,0,0.00059026,-1.3681e-05,-191.8,-498.66,0,2.0966e+08,43.892,12108,12432,1,12432,1,0.0012086,7.7178e-10,0,0.0012086,0.00019867,3.5574e+08,216.65,0,4.3077e+08,149.14,12431,12110,1,12110,1,7.4765e-05,-1.7899e-09,0,0.00058792,-1.369e-05,2.7355e+07,-548.77,0,2.1509e+08,34.185,12109,11763,1,11763,1,-0.0010591,-3.517e-09,0,3.277e-05,-0.00022589,-4.3077e+08,-1116.7,0,1.2071e+07,-52.629,11762,11949,1,11949,1,-0.00051315,-2.5055e-09,0,0.00029396,-0.00012373,-2.0871e+08,-801.83,0,1.1217e+08,7.8435,11948,12271,1,12271,1,0.00066268,-6.3706e-10,0,0.00088188,9.634e-05,2.1584e+08,-204.18,0,3.0298e+08,79.412,12270,188.7,0,188.7,0,0.00067896,1.1492e-09,0,0.00034299,0.00012709,2.4027e+08,371.87,0,1.1705e+08,46.639,188.7,1
644,4.07,12109,1,12109,1,7.5374e-05,-2.1064e-09,0,0.00059181,-1.3793e-05,-37.847,-667.19,0,2.1005e+08,42.729,12108,12432,1,12432,1,0.0012122,7.8126e-10,0,0.0012122,0.00019911,3.5612e+08,204.21,0,4.3171e+08,165.09,12431,12110,1,12110,1,7.5373e-05,-2.3129e-09,0,0.00058943,-1.3802e-05,2.7562e+07,-727.62,0,2.1551e+08,37.016,12109,11763,1,11763,1,-0.0010614,-4.652e-09,0,3.327e-05,-0.00022654,-4.3171e+08,-1473.4,0,1.225e+07,-62.981,11762,11949,1,11949,1,-0.00051406,-3.2682e-09,0,0.00029472,-0.00012413,-2.0908e+08,-1042.3,0,1.1241e+08,-1.8655,11948,12271,1,12271,1,0.00066481,-9.4155e-10,0,0.00088415,9.6511e-05,2.1626e+08,-296.32,0,3.0346e+08,85.623,12270,188.7,0,188.7,0,0.00068071,1.4251e-09,0,0.00034392,0.00012742,2.407e+08,462.79,0,1.1725e+08,56.052,188.7,1
644,4.08,12109,1,12109,1,7.5984e-05,2.8677e-09,0,0.00059337,-1.3905e-05,-30.351,875.54,0,2.1043e+08,-70.515,12108,12432,1,12432,1,0.0012157,5.0041e-09,0,0.0012157,0.00019954,3.5651e+08,1503.6,0,4.3265e+08,43.307,12431,12110,1,12110,1,7.5984e-05,3.2292e-09,0,0.00059096,-1.3914e-05,2.777e+07,1002.7,0,2.1592e+08,-63.468,12109,11763,1,11763,1,-0.0010637,-6.6802e-10,0,3.3771e-05,-0.0002272,-4.3265e+08,-228.79,0,1.2429e+07,-173.84,11762,11949,1,11949,1,-0.00051497,1.5934e-09,0,0.00029548,-0.00012452,-2.0945e+08,451.98,0,1.1265e+08,-117.3,11948,12271,1,12271,1,0.00066694,4.4261e-09,0,0.00088643,9.6683e-05,2.1668e+08,1331.6,0,3.0395e+08,-26.141,12270,188.7,0,188.7,0,0.00068247,1.6891e-09,0,0.00034484,0.00012775,2.4113e+08,513.05,0,1.1744e+08,54.621,188.7,1
644,4.09,12109,1,12109,1,7.6598e-05,-2.291e-09,0,0.00059492,-1.4017e-05,-87.514,-705.32,0,2.1082e+08,44.738,12108,12432,1,12432,1,0.0012192,7.267e-10,0,0.0012192,0.00019998,3.5688e+08,248.89,0,4.336e+08,130.66,12431,12110,1,12110,1,7.6598e-05,-2.6561e-09,0,0.00059248,-1.4027e-05,2.7978e+07,-805.87,0,2.1633e+08,45.251,12109,11763,1,11763,1,-0.001066,-4.4773e-09,0,3.4277e-05,-0.00022786,-4.336e+08,-1372.3,0,1.261e+07,-68.942,11762,11949,1,11949,1,-0.00051588,-3.4877e-09,0,0.00029624,-0.00012492,-2.0982e+08,-1097.4,0,1.1289e+08,10.72,11948,12271,1,12271,1,0.00066907,-1.0644e-09,0,0.00088871,9.6854e-05,2.1709e+08,-356.31,0,3.0443e+08,76.803,12270,188.7,0,188.7,0,0.00068423,1.4845e-09,0,0.00034577,0.00012808,2.4156e+08,459.04,0,1.1764e+08,42.371,188.7,1
644,4.1,12109,1,12109,1,7.7216e-05,8.0161e-10,0,0.00059648,-1.413e-05,-4.4325,240.75,0,2.112e+08,-40.622,12108,12432,1,12432,1,0.0012228,2.3017e-09,0,0.0012228,0.00020041,3.5726e+08,698.04,0,4.3454e+08,57.454,12431,12110,1,12110,1,7.7216e-05,8.46e-10,0,0.000594,-1.4141e-05,2.8188e+07,252.11,0,2.1675e+08,-39.094,12109,11763,1,11763,1,-0.0010684,-3.2661e-10,0,3.4786e-05,-0.00022852,-4.3454e+08,-111.86,0,1.2792e+07,-139.87,11762,11949,1,11949,1,-0.00051678,3.1988e-10,0,0.000297,-0.00012531,-2.1019e+08,92.823,0,1.1313e+08,-65.965,11948,12271,1,12271,1,0.00067122,1.2314e-09,0,0.000891,9.7025e-05,2.1751e+08,367.81,0,3.0492e+08,-15.435,12270,188.7,0,188.7,0,0.00068599,6.1956e-10,0,0.0003467,0.0001284,2.4199e+08,187.45,0,1.1784e+08,39.921,188.7,1
644,4.11,12109,1,12109,1,7.7839e-05,-1.7613e-10,0,0.00059805,-1.4244e-05,61.918,-53.889,0,2.1158e+08,-20.675,12108,12432,1,12432,1,0.0012264,2.6022e-10,0,0.0012264,0.00020085,3.5763e+08,72.703,0,4.3548e+08,47.494,12431,12110,1,12110,1,7.7839e-05,-2.1503e-10,0,0.00059553,-1.4255e-05,2.84e+07,-68.266,0,2.1716e+08,-17.338,12109,11763,1,11763,1,-0.0010707,-4.5817e-10,0,3.5301e-05,-0.00022918,-4.3548e+08,-129.11,0,1.2976e+07,-78.851,11762,11949,1,11949,1,-0.00051769,-3.2841e-10,0,0.00029776,-0.00012571,-2.1056e+08,-102.9,0,1.1337e+08,-41.428,11948,12271,1,12271,1,0.00067337,-2.9696e-11,0,0.00089329,9.7195e-05,2.1792e+08,-8.713,0,3.054e+08,-4.0711,12270,188.7,0,188.7,0,0.00068775,1.8649e-10,0,0.00034764,0.00012873,2.4242e+08,55.555,0,1.1803e+08,24.06,188.7,1
644,4.12,12109,1,12109,1,7.8464e-05,2.4064e-09,0,0.00059959,-1.4358e-05,139.03,746.44,0,2.1196e+08,-54.458,12108,12432,1,12432,1,0.0012299,5.1097e-09,0,0.0012299,0.00020128,3.5799e+08,1562.8,0,4.3641e+08,171.24,12431,12110,1,12110,1,7.8464e-05,2.7478e-09,0,0.00059704,-1.437e-05,2.8612e+07,850.95,0,2.1757e+08,-54.199,12109,11763,1,11763,1,-0.001073,-1.0081e-09,0,3.5819e-05,-0.00022984,-4.3641e+08,-345.28,0,1.316e+07,-193.02,11762,11949,1,11949,1,-0.00051857,1.088e-09,0,0.00029852,-0.00012611,-2.1091e+08,360.23,0,1.136e+08,-115.04,11948,12271,1,12271,1,0.0006755,3.7123e-09,0,0.00089555,9.7362e-05,2.1833e+08,1170.1,0,3.0587e+08,-1.5662,12270,188.7,0,188.7,0,0.00068949,1.6222e-09,0,0.00034856,0.00012906,2.4284e+08,511.36,0,1.1822e+08,76.517,188.7,1
644,4.13,12109,1,12109,1,7.909e-05,-2.0378e-09,0,0.00060116,-1.4472e-05,-108.47,-617.21,0,2.1234e+08,48.013,12108,12432,1,12432,1,0.0012335,9.3667e-10,0,0.0012335,0.00020172,3.5836e+08,320.8,0,4.3736e+08,213.71,12431,12110,1,12110,1,7.909e-05,-2.1326e-09,0,0.00059857,-1.4485e-05,2.8824e+07,-646.63,0,2.1798e+08,32.624,12109,11763,1,11763,1,-0.0010753,-5.1628e-09,0,3.6334e-05,-0.0002305,-4.3736e+08,-1557.6,0,1.3344e+07,-68.935,11762,11949,1,11949,1,-0.00051947,-3.2351e-09,0,0.00029928,-0.00012651,-2.1128e+08,-984.38,0,1.1384e+08,-14.153,11948,12271,1,12271,1,0.00067765,-8.3958e-10,0,0.00089784,9.7532e-05,2.1875e+08,-268.17,0,3.0635e+08,104.58,12270,188.7,0,188.7,0,0.00069126,1.5491e-09,0,0.0003495,0.00012939,2.4327e+08,468.38,0,1.1842e+08,73.604,188.7,1
644,4.14,12109,1,12109,1,7.9725e-05,1.5346e-09,0,0.00060273,-1.4589e-05,21.146,470.05,0,2.1272e+08,-52.137,12108,12432,1,12432,1,0.0012371,2.8796e-09,0,0.0012371,0.00020215,3.5872e+08,888.21,0,4.383e+08,48.805,12431,12110,1,12110,1,7.9726e-05,1.7752e-09,0,0.0006001,-1.4602e-05,2.9038e+07,546.05,0,2.1839e+08,-48.175,12109,11763,1,11763,1,-0.0010776,-4.785e-10,0,3.6861e-05,-0.00023117,-4.383e+08,-163.88,0,1.3531e+07,-135.42,11762,11949,1,11949,1,-0.00052037,7.8488e-10,0,0.00030005,-0.00012691,-2.1165e+08,226.73,0,1.1408e+08,-88.337,11948,12271,1,12271,1,0.00067982,2.3485e-09,0,0.00090015,9.7702e-05,2.1916e+08,718.47,0,3.0683e+08,-18.452,12270,188.7,0,188.7,0,0.00069303,9.6962e-10,0,0.00035044,0.00012972,2.437e+08,299,0,1.1861e+08,42.814,188.7,1
644,4.15,12109,1,12109,1,8.0363e-05,-1.4982e-09,0,0.00060428,-1.4705e-05,-128.94,-458.02,0,2.1309e+08,41.532,12108,12432,1,12432,1,0.0012406,1.0485e-09,0,0.0012406,0.00020258,3.5907e+08,295.21,0,4.3923e+08,212.13,12431,12110,1,12110,1,8.0363e-05,-1.4632e-09,0,0.00060161,-1.4719e-05,2.9254e+07,-442.13,0,2.188e+08,35.116,12109,11763,1,11763,1,-0.0010799,-4.2112e-09,0,3.739e-05,-0.00023183,-4.3923e+08,-1291.1,0,1.3719e+07,-107.38,11762,11949,1,11949,1,-0.00052125,-2.4784e-09,0,0.00030081,-0.00012731,-2.12e+08,-757.56,0,1.1431e+08,-20.475,11948,12271,1,12271,1,0.00068198,-5.8446e-10,0,0.00090242,9.7868e-05,2.1957e+08,-163.06,0,3.073e+08,97.213,12270,188.7,0,188.7,0,0.00069478,1.2669e-09,0,0.00035137,0.00013004,2.4412e+08,387.89,0,1.188e+08,76.471,188.7,1
644,4.16,12109,1,12109,1,8.1003e-05,4.6514e-10,0,0.00060586,-1.4823e-05,-141.24,136.79,0,2.1347e+08,-3.6393,12108,12432,1,12432,1,0.0012442,1.8956e-09,0,0.0012442,0.00020302,3.5943e+08,573.58,0,4.4018e+08,103.71,12431,12110,1,12110,1,8.1003e-05,4.5454e-10,0,0.00060315,-1.4837e-05,2.947e+07,130.53,0,2.1921e+08,6.9545,12109,11763,1,11763,1,-0.0010822,-5.3197e-10,0,3.7921e-05,-0.0002325,-4.4018e+08,-168.23,0,1.3907e+07,-134.11,11762,11949,1,11949,1,-0.00052215,1.0228e-10,0,0.00030158,-0.00012771,-2.1237e+08,32.781,0,1.1455e+08,-39.992,11948,12271,1,12271,1,0.00068415,7.3608e-10,0,0.00090473,9.8037e-05,2.1998e+08,214.56,0,3.0778e+08,37.14,12270,188.7,0,188.7,0,0.00069655,5.0742e-10,0,0.00035231,0.00013037,2.4454e+08,156.06,0,1.19e+08,50.724,188.7,1
644,4.17,12109,1,12109,1,8.1648e-05,1.4725e-09,0,0.00060741,-1.4941e-05,-34.32,456.96,0,2.1384e+08,-55.954,12108,12432,1,12432,1,0.0012478,4.1762e-09,0,0.0012478,0.00020344,3.5976e+08,1288.3,0,4.411e+08,196.59,12431,12110,1,12110,1,8.1648e-05,1.5826e-09,0,0.00060466,-1.4956e-05,2.9687e+07,480.16,0,2.1961e+08,-58.147,12109,11763,1,11763,1,-0.0010845,-1.2549e-09,0,3.8458e-05,-0.00023316,-4.411e+08,-429.78,0,1.4097e+07,-223.54,11762,11949,1,11949,1,-0.00052301,4.5761e-10,0,0.00030233,-0.00012811,-2.1272e+08,153.73,0,1.1478e+08,-113.5,11948,12271,1,12271,1,0.00068631,2.5363e-09,0,0.00090699,9.82e-05,2.2038e+08,784.64,0,3.0823e+08,-5.0115,12270,188.7,0,188.7,0,0.0006983,1.367e-09,0,0.00035324,0.0001307,2.4496e+08,426.09,0,1.1919e+08,79.522,188.7,1
644,4.18,12109,1,12109,1,8.2296e-05,-7.6896e-11,0,0.000609,-1.5059e-05,-70.136,-11.383,0,2.1422e+08,-33.767,12108,12432,1,12432,1,0.0012514,5.4856e-10,0,0.0012514,0.00020388,3.6013e+08,187.84,0,4.4205e+08,14.923,12431,12110,1,12110,1,8.2296e-05,-3.9098e-11,0,0.00060621,-1.5075e-05,2.9905e+07,-13.391,0,2.2002e+08,-33.718,12109,11763,1,11763,1,-0.0010868,-9.8379e-10,0,3.8995e-05,-0.00023384,-4.4205e+08,-260.47,0,1.4287e+07,-88.74,11762,11949,1,11949,1,-0.00052392,-4.0007e-10,0,0.00030311,-0.00012852,-2.1309e+08,-108.49,0,1.1502e+08,-57.503,11948,12271,1,12271,1,0.00068851,2.4307e-10,0,0.00090932,9.837e-05,2.208e+08,83.244,0,3.0872e+08,-7.7317,12270,188.7,0,188.7,0,0.00070009,3.8249e-10,0,0.0003542,0.00013103,2.4539e+08,112.84,0,1.1938e+08,27.579,188.7,1
644,4.19,12109,1,12109,1,8.2955e-05,1.9355e-09,0,0.00061057,-1.518e-05,-39.133,603.83,0,2.1459e+08,-40.92,12108,12432,1,12432,1,0.001255,4.3046e-09,0,0.001255,0.00020431,3.6046e+08,1336.9,0,4.4299e+08,135.21,12431,12110,1,12110,1,8.2954e-05,2.2307e-09,0,0.00060774,-1.5196e-05,3.0126e+07,683.15,0,2.2042e+08,-43.289,12109,11763,1,11763,1,-0.0010891,-7.4916e-10,0,3.9544e-05,-0.00023451,-4.4299e+08,-246.13,0,1.4481e+07,-167.64,11762,11949,1,11949,1,-0.00052479,9.7611e-10,0,0.00030387,-0.00012893,-2.1344e+08,256.39,0,1.1526e+08,-83.395,11948,12271,1,12271,1,0.0006907,2.9779e-09,0,0.00091161,9.8535e-05,2.212e+08,943.5,0,3.0918e+08,-4.847,12270,188.7,0,188.7,0,0.00070186,1.3388e-09,0,0.00035514,0.00013136,2.458e+08,426.38,0,1.1957e+08,58.43,188.7,1
644,4.2,12109,1,12109,1,8.3613e-05,-1.5983e-09,0,0.00061214,-1.53e-05,-68.743,-478.12,0,2.1496e+08,16.74,12108,12432,1,12432,1,0.0012586,5.1182e-10,0,0.0012586,0.00020475,3.608e+08,175.29,0,4.4392e+08,104.07,12431,12110,1,12110,1,8.3613e-05,-1.6897e-09,0,0.00060928,-1.5317e-05,3.0347e+07,-525.8,0,2.2083e+08,14.421,12109,11763,1,11763,1,-0.0010914,-3.5948e-09,0,4.0092e-05,-0.00023518,-4.4392e+08,-1074.3,0,1.4675e+07,-67.233,11762,11949,1,11949,1,-0.00052566,-2.4898e-09,0,0.00030464,-0.00012933,-2.138e+08,-740.38,0,1.1549e+08,-14.558,11948,12271,1,12271,1,0.00069289,-6.587e-10,0,0.00091391,9.87e-05,2.216e+08,-225.57,0,3.0964e+08,47.573,12270,188.7,0,188.7,0,0.00070363,1.0997e-09,0,0.00035609,0.00013169,2.4622e+08,324.79,0,1.1976e+08,39.565,188.7,1
644,4.21,12109,1,12109,1,8.4274e-05,2.1574e-09,0,0.0006137,-1.5421e-05,261.16,664.42,0,2.1533e+08,-72.085,12108,12432,1,12432,1,0.0012622,4.9866e-09,0,0.0012622,0.00020517,3.6112e+08,1521.5,0,4.4484e+08,163.02,12431,12110,1,12110,1,8.4275e-05,2.4282e-09,0,0.0006108,-1.5439e-05,3.0569e+07,727.42,0,2.2123e+08,-71.844,12109,11763,1,11763,1,-0.0010937,-1.0699e-09,0,4.0646e-05,-0.00023585,-4.4484e+08,-366.45,0,1.487e+07,-245.8,11762,11949,1,11949,1,-0.00052652,9.1785e-10,0,0.0003054,-0.00012974,-2.1415e+08,304.92,0,1.1572e+08,-133.15,11948,12271,1,12271,1,0.00069507,3.4121e-09,0,0.00091619,9.8862e-05,2.22e+08,1060.8,0,3.101e+08,-18.708,12270,188.7,0,188.7,0,0.00070538,1.5986e-09,0,0.00035703,0.00013202,2.4663e+08,497.7,0,1.1995e+08,80.754,188.7,1
644,4.22,12109,1,12109,1,8.4937e-05,6.2828e-10,0,0.00061528,-1.5542e-05,86.392,206.81,0,2.157e+08,-26.181,12108,12432,1,12432,1,0.0012659,2.2977e-09,0,0.0012659,0.0002056,3.6146e+08,780.87,0,4.4578e+08,81.112,12431,12110,1,12110,1,8.4938e-05,5.0063e-10,0,0.00061233,-1.5561e-05,3.0791e+07,164.05,0,2.2163e+08,-16.035,12109,11763,1,11763,1,-0.001096,-3.077e-10,0,4.1199e-05,-0.00023652,-4.4578e+08,-82.369,0,1.5064e+07,-135.22,11762,11949,1,11949,1,-0.0005274,6.2077e-11,0,0.00030617,-0.00013014,-2.145e+08,16.092,0,1.1596e+08,-60.769,11948,12271,1,12271,1,0.00069727,1.0971e-09,0,0.0009185,9.9027e-05,2.2241e+08,356.11,0,3.1056e+08,7.5652,12270,188.7,0,188.7,0,0.00070716,6.6596e-10,0,0.00035798,0.00013235,2.4705e+08,217.95,0,1.2014e+08,46.209,188.7,1
644,4.23,12109,1,12109,1,8.5605e-05,1.4785e-09,0,0.00061683,-1.5665e-05,161.54,467.15,0,2.1606e+08,-73.766,12108,12432,1,12432,1,0.0012695,4.7309e-09,0,0.0012695,0.00020603,3.6177e+08,1477.4,0,4.467e+08,209.65,12431,12110,1,12110,1,8.5605e-05,1.4975e-09,0,0.00061385,-1.5684e-05,3.1014e+07,444.71,0,2.2202e+08,-73.378,12109,11763,1,11763,1,-0.0010983,-1.4315e-09,0,4.1758e-05,-0.00023719,-4.467e+08,-476.44,0,1.5261e+07,-273.98,11762,11949,1,11949,1,-0.00052824,1.8983e-10,0,0.00030693,-0.00013055,-2.1485e+08,63.464,0,1.1619e+08,-146.82,11948,12271,1,12271,1,0.00069946,2.7646e-09,0,0.00092078,9.9187e-05,2.228e+08,868.47,0,3.1101e+08,-4.8853,12270,188.7,0,188.7,0,0.00070891,1.5981e-09,0,0.00035892,0.00013268,2.4746e+08,501.96,0,1.2033e+08,95.082,188.7,1
644,4.24,12109,1,12109,1,8.6278e-05,-8.9744e-10,0,0.00061843,-1.5787e-05,226.24,-257.74,0,2.1644e+08,-15.787,12108,12432,1,12432,1,0.0012731,4.266e-10,0,0.0012731,0.00020647,3.6211e+08,146.1,0,4.4764e+08,45.796,12431,12110,1,12110,1,8.6278e-05,-9.2405e-10,0,0.00061541,-1.5807e-05,3.1239e+07,-274.63,0,2.2243e+08,-12.528,12109,11763,1,11763,1,-0.0011006,-2.2448e-09,0,4.2319e-05,-0.00023787,-4.4764e+08,-659.19,0,1.5458e+07,-93.372,11762,11949,1,11949,1,-0.00052913,-1.6787e-09,0,0.0003077,-0.00013096,-2.1521e+08,-471.82,0,1.1642e+08,-43.98,11948,12271,1,12271,1,0.00070168,-1.149e-10,0,0.00092311,9.9354e-05,2.2321e+08,-39.347,0,3.1147e+08,14.537,12270,188.7,0,188.7,0,0.00071071,8.3809e-10,0,0.00035988,0.00013301,2.4788e+08,240.54,0,1.2052e+08,35.712,188.7,1
644,4.25,12109,1,12109,1,8.696e-05,1.0928e-09,0,0.00062001,-1.5912e-05,123.77,338.65,0,2.168e+08,-44.56,12108,12432,1,12432,1,0.0012768,2.2996e-09,0,0.0012768,0.00020689,3.6242e+08,724.49,0,4.4857e+08,42.424,12431,12110,1,12110,1,8.696e-05,1.1594e-09,0,0.00061694,-1.5933e-05,3.1467e+07,354.25,0,2.2283e+08,-41.063,12109,11763,1,11763,1,-0.0011029,-1.7921e-10,0,4.2893e-05,-0.00023855,-4.4857e+08,-61.379,0,1.5659e+07,-130.29,11762,11949,1,11949,1,-0.00052998,6.0555e-10,0,0.00030847,-0.00013137,-2.1556e+08,165.46,0,1.1666e+08,-69.783,11948,12271,1,12271,1,0.0007039,1.6006e-09,0,0.00092542,9.9515e-05,2.2361e+08,503.02,0,3.1192e+08,-20.028,12270,188.7,0,188.7,0,0.00071248,6.394e-10,0,0.00036083,0.00013334,2.4829e+08,207.33,0,1.2071e+08,35.322,188.7,1
644,4.26,12109,1,12109,1,8.7643e-05,6.0376e-10,0,0.00062159,-1.6037e-05,-80.458,191.87,0,2.1717e+08,-15.063,12108,12432,1,12432,1,0.0012804,1.2078e-09,0,0.0012804,0.00020732,3.6274e+08,408.32,0,4.495e+08,32.509,12431,12110,1,12110,1,8.7643e-05,6.633e-10,0,0.00061848,-1.6059e-05,3.1695e+07,201.05,0,2.2322e+08,-13.763,12109,11763,1,11763,1,-0.0011051,-6.7804e-11,0,4.3465e-05,-0.00023923,-4.495e+08,-19.298,0,1.586e+07,-72.049,11762,11949,1,11949,1,-0.00053084,2.708e-10,0,0.00030924,-0.00013179,-2.159e+08,73.057,0,1.1689e+08,-26.614,11948,12271,1,12271,1,0.00070613,9.3474e-10,0,0.00092772,9.9677e-05,2.2401e+08,307.08,0,3.1237e+08,0.10599,12270,188.7,0,188.7,0,0.00071426,3.7062e-10,0,0.00036179,0.00013368,2.487e+08,124.93,0,1.209e+08,21.478,188.7,1
644,4.27,12109,1,12109,1,8.8329e-05,1.0672e-09,0,0.00062316,-1.6163e-05,29.741,332.69,0,2.1753e+08,-35.187,12108,12432,1,12432,1,0.0012841,1.9245e-09,0,0.0012841,0.00020775,3.6304e+08,614.13,0,4.5042e+08,48.854,12431,12110,1,12110,1,8.8329e-05,1.2006e-09,0,0.00062001,-1.6185e-05,3.1923e+07,363.13,0,2.2362e+08,-37.003,12109,11763,1,11763,1,-0.0011074,-2.3411e-10,0,4.4042e-05,-0.0002399,-4.5042e+08,-80.181,0,1.6062e+07,-83.145,11762,11949,1,11949,1,-0.00053168,5.8689e-10,0,0.00031001,-0.0001322,-2.1625e+08,165.1,0,1.1712e+08,-60.826,11948,12271,1,12271,1,0.00070834,1.5743e-09,0,0.00093002,9.9836e-05,2.244e+08,513.4,0,3.1282e+08,-16.23,12270,188.7,0,188.7,0,0.00071603,5.8541e-10,0,0.00036274,0.000134,2.491e+08,194.14,0,1.2108e+08,28.012,188.7,1
644,4.28,12109,1,12109,1,8.9018e-05,1.9379e-09,0,0.00062474,-1.6289e-05,83.997,600.84,0,2.1789e+08,0.90423,12108,12432,1,12432,1,0.0012877,5.0122e-09,0,0.0012877,0.00020818,3.6335e+08,1542.1,0,4.5135e+08,100.15,12431,12110,1,12110,1,8.9017e-05,2.0335e-09,0,0.00062155,-1.6312e-05,3.2152e+07,634.43,0,2.2401e+08,11.165,12109,11763,1,11763,1,-0.0011097,-1.0409e-09,0,4.4172e-05,-0.00024058,-4.5135e+08,-356.49,0,1.6264e+07,-114.27,11762,11949,1,11949,1,-0.00053253,8.1849e-10,0,0.00031078,-0.00013261,-2.1659e+08,236.94,0,1.1735e+08,-40.992,11948,12271,1,12271,1,0.00071057,3.098e-09,0,0.00093233,9.9997e-05,2.248e+08,959.47,0,3.1326e+08,40.786,12270,188.7,0,188.7,0,0.00071781,1.5034e-09,0,0.0003637,0.00013434,2.4951e+08,472.9,0,1.2127e+08,49.49,188.7,1
644,4.29,12109,1,12109,1,8.9712e-05,1.428e-09,0,0.00062632,-1.6416e-05,-48.263,456.89,0,2.1825e+08,-29.664,12108,12432,1,12432,1,0.0012914,3.1496e-09,0,0.0012914,0.00020861,3.6365e+08,1031.7,0,4.5228e+08,123.91,12431,12110,1,12110,1,8.9712e-05,1.6093e-09,0,0.0006231,-1.644e-05,3.2383e+07,517.06,0,2.2441e+08,-28.83,12109,11763,1,11763,1,-0.001112,-7.4473e-10,0,4.3807e-05,-0.00024126,-4.5228e+08,-203.05,0,1.6468e+07,-121.12,11762,11949,1,11949,1,-0.00053338,4.3838e-10,0,0.00031155,-0.00013302,-2.1694e+08,123.66,0,1.1758e+08,-72.24,11948,12271,1,12271,1,0.00071281,2.4465e-09,0,0.00093464,0.00010016,2.252e+08,791.81,0,3.1371e+08,5.0133,12270,188.7,0,188.7,0,0.00071959,1.1423e-09,0,0.00036466,0.00013467,2.4992e+08,370.58,0,1.2146e+08,50.674,188.7,1
644,4.3,12109,1,12109,1,9.041e-05,-3.836e-09,0,0.0006279,-1.6543e-05,-390.19,-1156.3,0,2.1861e+08,50.177,12108,12432,1,12432,1,0.0012951,1.3956e-09,0,0.0012951,0.00020903,3.6395e+08,477.96,0,4.532e+08,214.01,12431,12110,1,12110,1,9.041e-05,-4.2323e-09,0,0.00062463,-1.6568e-05,3.2614e+07,-1281.8,0,2.248e+08,47.272,12109,11763,1,11763,1,-0.0011142,-8.1001e-09,0,4.3438e-05,-0.00024194,-4.532e+08,-2431.5,0,1.6673e+07,-115.15,11762,11949,1,11949,1,-0.00053422,-5.7427e-09,0,0.00031232,-0.00013344,-2.1728e+08,-1738.5,0,1.1781e+08,-17.224,11948,12271,1,12271,1,0.00071504,-2.0046e-09,0,0.00093695,0.00010032,2.2559e+08,-562.73,0,3.1415e+08,112.53,12270,188.7,0,188.7,0,0.00072136,2.4927e-09,0,0.00036562,0.000135,2.5032e+08,749.62,0,1.2164e+08,81.777,188.7,1
644,4.31,12109,1,12109,1,9.1114e-05,1.4636e-09,0,0.00062949,-1.6672e-05,14.491,432.75,0,2.1897e+08,-45.238,12108,12432,1,12432,1,0.0012987,2.8723e-09,0,0.0012987,0.00020946,3.6425e+08,836.1,0,4.5413e+08,59.151,12431,12110,1,12110,1,9.1114e-05,1.5756e-09,0,0.00062618,-1.6698e-05,3.2848e+07,483.11,0,2.2519e+08,-51.035,12109,11763,1,11763,1,-0.0011165,-5.1453e-10,0,4.3066e-05,-0.00024262,-4.5413e+08,-176.22,0,1.688e+07,-107.14,11762,11949,1,11949,1,-0.00053507,6.0561e-10,0,0.00031309,-0.00013385,-2.1762e+08,199.25,0,1.1804e+08,-67.705,11948,12271,1,12271,1,0.00071729,2.4393e-09,0,0.00093927,0.00010047,2.2598e+08,700.41,0,3.1459e+08,-27.178,12270,188.7,0,188.7,0,0.00072315,1.0042e-09,0,0.00036658,0.00013533,2.5073e+08,292.49,0,1.2183e+08,31.072,188.7,1
644,4.32,12109,1,12109,1,9.1823e-05,-1.9937e-09,0,0.00063108,-1.6802e-05,-69.416,-610.56,0,2.1933e+08,3.9149,12108,12432,1,12432,1,0.0013024,4.8858e-10,0,0.0013024,0.00020989,3.6453e+08,157.23,0,4.5505e+08,70.684,12431,12110,1,12110,1,9.1822e-05,-2.28e-09,0,0.00062772,-1.6828e-05,3.3082e+07,-690.64,0,2.2558e+08,0.13743,12109,11763,1,11763,1,-0.0011188,-3.7159e-09,0,4.2689e-05,-0.00024331,-4.5505e+08,-1139.9,0,1.7088e+07,-65.293,11762,11949,1,11949,1,-0.0005359,-2.9289e-09,0,0.00031386,-0.00013427,-2.1796e+08,-921.8,0,1.1827e+08,-20.103,11948,12271,1,12271,1,0.00071955,-1.125e-09,0,0.00094159,0.00010063,2.2637e+08,-326.38,0,3.1503e+08,28.231,12270,188.7,0,188.7,0,0.00072493,1.183e-09,0,0.00036755,0.00013566,2.5113e+08,369.61,0,1.2201e+08,31.532,188.7,1
644,4.33,12109,1,12109,1,9.2532e-05,-3.3852e-09,0,0.00063265,-1.6931e-05,-76.281,-1048,0,2.1968e+08,28.163,12108,12432,1,12432,1,0.0013061,1.3302e-09,0,0.0013061,0.00021031,3.6481e+08,408.45,0,4.5596e+08,152.2,12431,12110,1,12110,1,9.2532e-05,-3.9398e-09,0,0.00062925,-1.6959e-05,3.3316e+07,-1205.9,0,2.2596e+08,26.089,12109,11763,1,11763,1,-0.001121,-6.7786e-09,0,4.2307e-05,-0.00024399,-4.5596e+08,-2096.9,0,1.7205e+07,-112.27,11762,11949,1,11949,1,-0.00053672,-5.3108e-09,0,0.00031462,-0.00013469,-2.1829e+08,-1657.2,0,1.185e+08,-19.572,11948,12271,1,12271,1,0.00072178,-1.7372e-09,0,0.00094388,0.00010079,2.2676e+08,-454.5,0,3.1545e+08,76.37,12270,188.7,0,188.7,0,0.0007267,2.3203e-09,0,0.0003685,0.00013599,2.5152e+08,731.03,0,1.2219e+08,60.593,188.7,1
644,4.34,12109,1,12109,1,9.3244e-05,2.7722e-09,0,0.00063424,-1.7062e-05,-8.7897,820.01,0,2.2003e+08,-10.864,12108,12432,1,12432,1,0.0013098,6.1537e-09,0,0.0013098,0.00021073,3.651e+08,1809.5,0,4.5688e+08,154.63,12431,12110,1,12110,1,9.3244e-05,2.9601e-09,0,0.00063079,-1.709e-05,3.3552e+07,916.11,0,2.2635e+08,-3.8303,12109,11763,1,11763,1,-0.0011233,-9.9578e-10,0,4.1924e-05,-0.00024467,-4.5688e+08,-341.04,0,1.705e+07,-165.56,11762,11949,1,11949,1,-0.00053755,1.2029e-09,0,0.0003154,-0.0001351,-2.1863e+08,406.8,0,1.1872e+08,-57.353,11948,12271,1,12271,1,0.00072404,4.3008e-09,0,0.00094619,0.00010094,2.2715e+08,1265.4,0,3.1589e+08,33.348,12270,188.7,0,188.7,0,0.00072848,1.9207e-09,0,0.00036947,0.00013632,2.5192e+08,562.36,0,1.2237e+08,59.502,188.7,1
644,4.35,12109,1,12109,1,9.3964e-05,-1.2306e-09,0,0.00063583,-1.7194e-05,284.85,-371.98,0,2.2039e+08,-33.834,12108,12432,1,12432,1,0.0013135,9.0391e-10,0,0.0013135,0.00021116,3.6538e+08,270.81,0,4.578e+08,78.472,12431,12110,1,12110,1,9.3964e-05,-1.1198e-09,0,0.00063234,-1.7223e-05,3.3789e+07,-353.41,0,2.2674e+08,-26.087,12109,11763,1,11763,1,-0.0011256,-3.6138e-09,0,4.1537e-05,-0.00024536,-4.578e+08,-1098.8,0,1.6894e+07,-182.22,11762,11949,1,11949,1,-0.00053838,-2.0973e-09,0,0.00031617,-0.00013552,-2.1897e+08,-627.99,0,1.1895e+08,-82.436,11948,12271,1,12271,1,0.00072631,-3.9599e-10,0,0.00094851,0.0001011,2.2753e+08,-115.32,0,3.1632e+08,20.226,12270,188.7,0,188.7,0,0.00073027,1.1202e-09,0,0.00037044,0.00013666,2.5232e+08,341.34,0,1.2256e+08,66.948,188.7,1
644,4.36,12109,1,12109,1,9.469e-05,1.3061e-09,0,0.00063743,-1.7326e-05,29.779,391.84,0,2.2074e+08,-32.127,12108,12432,1,12432,1,0.0013172,2.5637e-09,0,0.0013172,0.00021159,3.6566e+08,777.41,0,4.5873e+08,51.143,12431,12110,1,12110,1,9.469e-05,1.4878e-09,0,0.0006339,-1.7356e-05,3.4028e+07,449.98,0,2.2713e+08,-30.041,12109,11763,1,11763,1,-0.0011278,-4.7382e-10,0,4.1145e-05,-0.00024605,-4.5873e+08,-162.27,0,1.6735e+07,-105.33,11762,11949,1,11949,1,-0.00053921,6.8241e-10,0,0.00031695,-0.00013595,-2.1931e+08,183.53,0,1.1918e+08,-55.324,11948,12271,1,12271,1,0.00072859,2.032e-09,0,0.00095085,0.00010126,2.2792e+08,606.75,0,3.1675e+08,-8.4593,12270,188.7,0,188.7,0,0.00073207,8.6216e-10,0,0.00037142,0.00013699,2.5272e+08,259.53,0,1.2274e+08,32.982,188.7,1
644,4.37,12109,1,12109,1,9.5421e-05,-2.6694e-09,0,0.00063901,-1.746e-05,186.79,-808.62,0,2.2109e+08,-23.818,12108,12432,1,12432,1,0.0013209,7.9602e-10,0,0.0013209,0.00021201,3.6592e+08,272.62,0,4.5964e+08,62.281,12431,12110,1,12110,1,9.5421e-05,-3.1047e-09,0,0.00063544,-1.7491e-05,3.4269e+07,-940.5,0,2.2751e+08,-17.611,12109,11763,1,11763,1,-0.0011301,-4.8398e-09,0,4.0744e-05,-0.00024674,-4.5964e+08,-1464.3,0,1.6573e+07,-156.42,11762,11949,1,11949,1,-0.00054002,-4.0685e-09,0,0.00031772,-0.00013637,-2.1964e+08,-1250.9,0,1.1941e+08,-54.857,11948,12271,1,12271,1,0.00073086,-1.2805e-09,0,0.00095316,0.00010141,2.2831e+08,-430.9,0,3.1717e+08,11.039,12270,188.7,0,188.7,0,0.00073384,1.677e-09,0,0.00037239,0.00013732,2.5312e+08,512.26,0,1.2292e+08,46.022,188.7,1
644,4.38,12109,1,12109,1,9.6151e-05,2.2141e-09,0,0.0006406,-1.7594e-05,143.52,659.89,0,2.2144e+08,0.74313,12108,12432,1,12432,1,0.0013246,5.9059e-09,0,0.0013246,0.00021243,3.6618e+08,1750.6,0,4.6055e+08,264.41,12431,12110,1,12110,1,9.6151e-05,2.0873e-09,0,0.00063698,-1.7625e-05,3.4509e+07,611.08,0,2.2789e+08,10.26,12109,11763,1,11763,1,-0.0011323,-6.7518e-10,0,4.0343e-05,-0.00024742,-4.6055e+08,-231.25,0,1.6411e+07,-228.91,11762,11949,1,11949,1,-0.00054083,9.9022e-10,0,0.00031849,-0.00013679,-2.1996e+08,309.46,0,1.1963e+08,-67.112,11948,12271,1,12271,1,0.00073313,3.3228e-09,0,0.00095547,0.00010156,2.2869e+08,991.24,0,3.1759e+08,63.91,12270,188.7,0,188.7,0,0.00073562,1.5467e-09,0,0.00037336,0.00013766,2.5351e+08,463.49,0,1.231e+08,88.124,188.7,1
644,4.39,12109,1,12109,1,9.6884e-05,-8.1399e-10,0,0.00064218,-1.7728e-05,-89.331,-240.56,0,2.2179e+08,-19.409,12108,12432,1,12432,1,0.0013283,7.8096e-10,0,0.0013283,0.00021285,3.6644e+08,267.29,0,4.6146e+08,67.361,12431,12110,1,12110,1,9.6884e-05,-6.5621e-10,0,0.00063852,-1.776e-05,3.4749e+07,-197.08,0,2.2827e+08,-13.81,12109,11763,1,11763,1,-0.0011345,-3.0559e-09,0,3.9941e-05,-0.00024811,-4.6146e+08,-926.83,0,1.6249e+07,-154.28,11762,11949,1,11949,1,-0.00054164,-1.4985e-09,0,0.00031926,-0.00013721,-2.2029e+08,-445.86,0,1.1986e+08,-62.047,11948,12271,1,12271,1,0.0007354,-5.5988e-11,0,0.00095778,0.00010172,2.2907e+08,-16.299,0,3.1801e+08,32.703,12270,188.7,0,188.7,0,0.0007374,9.2985e-10,0,0.00037433,0.00013799,2.539e+08,283.97,0,1.2328e+08,56.614,188.7,1
644,4.4,12109,1,12109,1,9.7625e-05,2.588e-09,0,0.00064379,-1.7863e-05,285.89,786.48,0,2.2214e+08,-48.865,12108,12432,1,12432,1,0.0013321,5.734e-09,0,0.0013321,0.00021327,3.6671e+08,1744.5,0,4.6238e+08,210.56,12431,12110,1,12110,1,9.7626e-05,2.9114e-09,0,0.00064008,-1.7897e-05,3.4992e+07,870.11,0,2.2865e+08,-44.256,12109,11763,1,11763,1,-0.0011368,-1.1382e-09,0,3.9533e-05,-0.00024881,-4.6238e+08,-389.82,0,1.6085e+07,-252.13,11762,11949,1,11949,1,-0.00054245,1.1742e-09,0,0.00032004,-0.00013763,-2.2063e+08,384.32,0,1.2008e+08,-107.62,11948,12271,1,12271,1,0.0007377,3.9897e-09,0,0.00096012,0.00010187,2.2945e+08,1232.8,0,3.1844e+08,11.026,12270,188.7,0,188.7,0,0.0007392,1.7802e-09,0,0.00037531,0.00013832,2.5429e+08,550.58,0,1.2346e+08,88.426,188.7,1
644,4.41,12109,1,12109,1,9.8375e-05,-6.3895e-10,0,0.0006454,-1.8e-05,-51.814,-175.47,0,2.2249e+08,-32.072,12108,12432,1,12432,1,0.0013358,4.3014e-10,0,0.0013358,0.0002137,3.6697e+08,147.31,0,4.633e+08,13.004,12431,12110,1,12110,1,9.8375e-05,-6.0335e-10,0,0.00064165,-1.8035e-05,3.5238e+07,-189.11,0,2.2904e+08,-28.454,12109,11763,1,11763,1,-0.0011391,-1.7399e-09,0,3.9119e-05,-0.00024951,-4.633e+08,-456.85,0,1.5918e+07,-83.204,11762,11949,1,11949,1,-0.00054327,-1.2887e-09,0,0.00032082,-0.00013806,-2.2096e+08,-355.57,0,1.2031e+08,-55.897,11948,12271,1,12271,1,0.00074002,4.9848e-12,0,0.00096247,0.00010202,2.2984e+08,1.3499,0,3.1886e+08,-9.4617,12270,188.7,0,188.7,0,0.00074101,6.6165e-10,0,0.0003763,0.00013866,2.5469e+08,183.51,0,1.2365e+08,25.986,188.7,1
644,4.42,12109,1,12109,1,9.9129e-05,1.8573e-10,0,0.00064699,-1.8138e-05,64.055,61.168,0,2.2283e+08,-9.1501,12108,12432,1,12432,1,0.0013396,1.2602e-09,0,0.0013396,0.00021412,3.6721e+08,398.82,0,4.6421e+08,69.458,12431,12110,1,12110,1,9.9129e-05,1.414e-10,0,0.00064319,-1.8174e-05,3.5484e+07,42.664,0,2.2941e+08,-3.9627,12109,11763,1,11763,1,-0.0011413,-7.0122e-10,0,3.8697e-05,-0.0002502,-4.6421e+08,-210.09,0,1.5748e+07,-92.023,11762,11949,1,11949,1,-0.00054406,-6.7126e-11,0,0.0003216,-0.00013849,-2.2128e+08,-19.074,0,1.2053e+08,-36.297,11948,12271,1,12271,1,0.00074232,4.1384e-10,0,0.00096479,0.00010217,2.3021e+08,133.28,0,3.1927e+08,18.523,12270,188.7,0,188.7,0,0.0007428,4.1051e-10,0,0.00037728,0.00013899,2.5507e+08,128.9,0,1.2382e+08,33.327,188.7,1
644,4.43,12109,1,12109,1,9.9885e-05,6.4398e-10,0,0.0006486,-1.8277e-05,-179.46,196.42,0,2.2317e+08,-10.25,12108,12432,1,12432,1,0.0013433,1.396e-09,0,0.0013433,0.00021454,3.6746e+08,424.91,0,4.6513e+08,60.018,12431,12110,1,12110,1,9.9885e-05,7.4195e-10,0,0.00064475,-1.8313e-05,3.5731e+07,225.42,0,2.2979e+08,-13.473,12109,11763,1,11763,1,-0.0011436,-4.9411e-10,0,3.8277e-05,-0.0002509,-4.6513e+08,-169.22,0,1.5578e+07,-71.23,11762,11949,1,11949,1,-0.00054487,2.8604e-10,0,0.00032238,-0.00013892,-2.2161e+08,86.595,0,1.2076e+08,-28.618,11948,12271,1,12271,1,0.00074464,1.0341e-09,0,0.00096713,0.00010233,2.3059e+08,322.01,0,3.1969e+08,6.5329,12270,188.7,0,188.7,0,0.0007446,4.8907e-10,0,0.00037827,0.00013933,2.5546e+08,151.77,0,1.24e+08,24.952,188.7,1
644,4.44,12109,1,12109,1,0.00010065,2.4986e-09,0,0.00065019,-1.8416e-05,154.89,764.66,0,2.2351e+08,-15.187,12108,12432,1,12432,1,0.0013471,4.7684e-09,0,0.0013471,0.00021496,3.6769e+08,1454.9,0,4.6603e+08,114.36,12431,12110,1,12110,1,0.00010065,2.8712e-09,0,0.0006463,-1.8454e-05,3.5979e+07,849.42,0,2.3016e+08,-19.583,12109,11763,1,11763,1,-0.0011458,-4.6285e-10,0,3.7846e-05,-0.00025159,-4.6603e+08,-158.52,0,1.5405e+07,-98.575,11762,11949,1,11949,1,-0.00054565,1.4494e-09,0,0.00032315,-0.00013935,-2.2193e+08,391.66,0,1.2098e+08,-43.637,11948,12271,1,12271,1,0.00074695,3.6608e-09,0,0.00096945,0.00010248,2.3096e+08,1151.8,0,3.2009e+08,9.3169,12270,188.7,0,188.7,0,0.00074639,1.4332e-09,0,0.00037925,0.00013966,2.5584e+08,455.5,0,1.2418e+08,40.174,188.7,1
644,4.45,12109,1,12109,1,0.0001014,-1.0703e-10,0,0.00065176,-1.8554e-05,378.95,-10.483,0,2.2384e+08,53.734,12108,12432,1,12432,1,0.0013508,4.2691e-09,0,0.0013508,0.00021537,3.6791e+08,1315.8,0,4.6692e+08,424.85,12431,12110,1,12110,1,0.0001014,-3.8254e-10,0,0.00064782,-1.8593e-05,3.6226e+07,-118.11,0,2.3053e+08,60.244,12109,11763,1,11763,1,-0.001148,-3.1851e-09,0,3.7414e-05,-0.00025228,-4.6692e+08,-904.81,0,1.5231e+07,-181.27,11762,11949,1,11949,1,-0.00054642,-1.1316e-09,0,0.00032391,-0.00013977,-2.2224e+08,-303.48,0,1.212e+08,-58.37,11948,12271,1,12271,1,0.00074923,8.4226e-10,0,0.00097173,0.00010262,2.3133e+08,257.78,0,3.2048e+08,140.14,12270,188.7,0,188.7,0,0.00074814,1.5533e-09,0,0.00038022,0.00013999,2.5622e+08,466.65,0,1.2435e+08,126.71,188.7,1
644,4.46,12109,1,12109,1,0.00010217,1.251e-09,0,0.00065337,-1.8694e-05,53.866,399.2,0,2.2419e+08,-46.666,12108,12432,1,12432,1,0.0013546,4.9131e-09,0,0.0013546,0.00021579,3.6816e+08,1547.1,0,4.6784e+08,256.77,12431,12110,1,12110,1,0.00010217,9.5339e-10,0,0.00064939,-1.8734e-05,3.6474e+07,296.38,0,2.3091e+08,-46.753,12109,11763,1,11763,1,-0.0011502,-1.1492e-09,0,3.6989e-05,-0.00025298,-4.6784e+08,-287.71,0,1.5061e+07,-240.41,11762,11949,1,11949,1,-0.00054723,1.6411e-10,0,0.0003247,-0.0001402,-2.2257e+08,48.44,0,1.2142e+08,-115.68,11948,12271,1,12271,1,0.00075156,2.2578e-09,0,0.00097409,0.00010277,2.3171e+08,705.42,0,3.209e+08,7.1891,12270,188.7,0,188.7,0,0.00074996,1.3857e-09,0,0.00038121,0.00014033,2.5661e+08,440.25,0,1.2453e+08,93.083,188.7,1
644,4.47,12109,1,12109,1,0.00010294,-1.9112e-10,0,0.000655,-1.8836e-05,67.962,-37.018,0,2.2454e+08,-64.241,12108,12432,1,12432,1,0.0013584,9.9786e-10,0,0.0013584,0.00021622,3.684e+08,341.68,0,4.6876e+08,25.416,12431,12110,1,12110,1,0.00010294,-1.1235e-10,0,0.00065097,-1.8877e-05,3.6727e+07,-30.386,0,2.3129e+08,-54.235,12109,11763,1,11763,1,-0.0011525,-1.5267e-09,0,3.6548e-05,-0.00025369,-4.6876e+08,-381.93,0,1.4884e+07,-165.56,11762,11949,1,11949,1,-0.00054803,-6.9734e-10,0,0.00032549,-0.00014064,-2.2289e+08,-188.19,0,1.2165e+08,-104.85,11948,12271,1,12271,1,0.00075392,3.0214e-10,0,0.00097646,0.00010292,2.3209e+08,103.35,0,3.2131e+08,-24.91,12270,188.7,0,188.7,0,0.00075178,6.3394e-10,0,0.00038222,0.00014067,2.57e+08,182.61,0,1.2471e+08,48.513,188.7,1
644,4.48,12109,1,12109,1,0.00010373,4.086e-09,0,0.0006566,-1.898e-05,-88.804,1246.7,0,2.2487e+08,-10.928,12108,12432,1,12432,1,0.0013622,8.8869e-09,0,0.0013622,0.00021664,3.6862e+08,2705.6,0,4.6967e+08,283.89,12431,12110,1,12110,1,0.00010373,4.6534e-09,0,0.00065252,-1.9021e-05,3.6981e+07,1393.5,0,2.3165e+08,-23.785,12109,11763,1,11763,1,-0.0011547,-1.2178e-09,0,3.6099e-05,-0.00025439,-4.6967e+08,-414.41,0,1.4703e+07,-180.63,11762,11949,1,11949,1,-0.0005488,2.221e-09,0,0.00032626,-0.00014107,-2.2321e+08,594.34,0,1.2187e+08,-67.199,11948,12271,1,12271,1,0.00075625,6.0671e-09,0,0.00097879,0.00010307,2.3245e+08,1893.4,0,3.2171e+08,31.824,12270,188.7,0,188.7,0,0.00075357,2.584e-09,0,0.00038321,0.000141,2.5737e+08,810.36,0,1.2489e+08,81.98,188.7,1
644,4.49,12109,1,12109,1,0.00010451,-3.6162e-09,0,0.00065822,-1.9123e-05,163.34,-1058.5,0,2.2521e+08,-49.749,12108,12432,1,12432,1,0.001366,8.8752e-10,0,0.001366,0.00021706,3.6884e+08,303.96,0,4.7057e+08,73.575,12431,12110,1,12110,1,0.00010451,-3.9248e-09,0,0.00065409,-1.9166e-05,3.7235e+07,-1205.3,0,2.3203e+08,-43.781,12109,11763,1,11763,1,-0.001157,-6.7701e-09,0,3.5648e-05,-0.0002551,-4.7057e+08,-1906.5,0,1.4523e+07,-158.59,11762,11949,1,11949,1,-0.00054958,-5.721e-09,0,0.00032705,-0.0001415,-2.2352e+08,-1639.3,0,1.2209e+08,-84.504,11948,12271,1,12271,1,0.0007586,-1.7763e-09,0,0.00098114,0.00010322,2.3283e+08,-562.9,0,3.2211e+08,-21.75,12270,188.7,0,188.7,0,0.00075538,2.2809e-09,0,0.00038421,0.00014134,2.5775e+08,651.13,0,1.2506e+08,46.915,188.7,1
644,4.5,12109,1,12109,1,0.0001053,2.9018e-09,0,0.00065983,-1.9267e-05,-92.9,872.41,0,2.2554e+08,15.003,12108,12432,1,12432,1,0.0013698,6.3949e-09,0,0.0013698,0.00021747,3.6906e+08,1906.3,0,4.7148e+08,264.05,12431,12110,1,12110,1,0.0001053,3.1292e-09,0,0.00065565,-1.9311e-05,3.749e+07,932.31,0,2.3239e+08,14.903,12109,11763,1,11763,1,-0.0011592,-9.1247e-10,0,3.5196e-05,-0.0002558,-4.7148e+08,-312.51,0,1.4342e+07,-139.89,11762,11949,1,11949,1,-0.00055035,1.4505e-09,0,0.00032783,-0.00014194,-2.2384e+08,473.52,0,1.2231e+08,-38.361,11948,12271,1,12271,1,0.00076095,4.3412e-09,0,0.00098348,0.00010336,2.3319e+08,1320.5,0,3.225e+08,55.552,12270,188.7,0,188.7,0,0.00075718,1.8478e-09,0,0.00038521,0.00014167,2.5813e+08,565.06,0,1.2524e+08,70.165,188.7,1
644,4.51,12109,1,12109,1,0.00010609,3.0764e-09,0,0.00066144,-1.9412e-05,78.651,945.43,0,2.2587e+08,-50.073,12108,12432,1,12432,1,0.0013736,5.8331e-09,0,0.0013736,0.00021789,3.6927e+08,1794.5,0,4.7238e+08,69.005,12431,12110,1,12110,1,0.00010609,3.6004e-09,0,0.00065722,-1.9457e-05,3.7746e+07,1060.9,0,2.3276e+08,-45.9,12109,11763,1,11763,1,-0.0011614,-9.518e-10,0,3.4738e-05,-0.00025651,-4.7238e+08,-325.98,0,1.4158e+07,-165.04,11762,11949,1,11949,1,-0.00055112,1.5488e-09,0,0.00032861,-0.00014238,-2.2415e+08,382.87,0,1.2253e+08,-76.717,11948,12271,1,12271,1,0.00076331,4.8098e-09,0,0.00098583,0.00010351,2.3356e+08,1525.4,0,3.229e+08,-26.025,12270,188.7,0,188.7,0,0.000759,1.9987e-09,0,0.00038621,0.00014201,2.5851e+08,635.23,0,1.2541e+08,39.416,188.7,1
644,4.52,12109,1,12109,1,0.00010689,1.772e-09,0,0.00066306,-1.9558e-05,-67.323,569.6,0,2.2621e+08,-3.7335,12108,12432,1,12432,1,0.0013774,3.8072e-09,0,0.0013774,0.00021831,3.6948e+08,1278,0,4.7328e+08,161.43,12431,12110,1,12110,1,0.00010689,2.0896e-09,0,0.00065878,-1.9604e-05,3.8004e+07,622.26,0,2.3313e+08,-11.349,12109,11763,1,11763,1,-0.0011636,-1.0157e-09,0,3.4274e-05,-0.00025722,-4.7328e+08,-244.72,0,1.3973e+07,-89.924,11762,11949,1,11949,1,-0.00055189,3.2143e-10,0,0.00032939,-0.00014281,-2.2446e+08,78.182,0,1.2275e+08,-42.876,11948,12271,1,12271,1,0.00076567,3.1618e-09,0,0.00098817,0.00010366,2.3393e+08,1023.4,0,3.2329e+08,26.427,12270,188.7,0,188.7,0,0.0007608,1.527e-09,0,0.00038721,0.00014234,2.5888e+08,491.75,0,1.2559e+08,52.302,188.7,1
644,4.53,12109,1,12109,1,0.00010769,4.3691e-09,0,0.00066465,-1.9705e-05,77.949,1353.7,0,2.2653e+08,-9.9177,12108,12432,1,12432,1,0.0013812,8.3032e-09,0,0.0013812,0.00021872,3.6967e+08,2603.8,0,4.7418e+08,245.03,12431,12110,1,12110,1,0.00010769,5.0924e-09,0,0.00066033,-1.9751e-05,3.8262e+07,1518.3,0,2.3349e+08,-19.142,12109,11763,1,11763,1,-0.0011658,-1.5297e-09,0,3.3807e-05,-0.00025792,-4.7418e+08,-473.38,0,1.3786e+07,-180.79,11762,11949,1,11949,1,-0.00055264,1.9103e-09,0,0.00033016,-0.00014325,-2.2477e+08,568.84,0,1.2296e+08,-82.517,11948,12271,1,12271,1,0.00076802,6.9356e-09,0,0.00099049,0.0001038,2.3429e+08,2200.9,0,3.2367e+08,53.401,12270,188.7,0,188.7,0,0.00076259,2.9195e-09,0,0.00038821,0.00014268,2.5925e+08,935.04,0,1.2576e+08,91.153,188.7,1
644,4.54,12109,1,12109,1,0.0001085,8.11e-10,0,0.00066629,-1.9852e-05,-52.802,297.52,0,2.2687e+08,-35.886,12108,12432,1,12432,1,0.0013851,2.8101e-09,0,0.0013851,0.00021914,3.6989e+08,961.95,0,4.7509e+08,33.969,12431,12110,1,12110,1,0.0001085,1.0561e-09,0,0.00066192,-1.99e-05,3.8521e+07,306.4,0,2.3386e+08,-27.314,12109,11763,1,11763,1,-0.0011681,-1.6185e-09,0,3.334e-05,-0.00025863,-4.7509e+08,-390.2,0,1.36e+07,-117.44,11762,11949,1,11949,1,-0.00055342,-5.8183e-10,0,0.00033095,-0.00014369,-2.2508e+08,-137.61,0,1.2318e+08,-61.891,11948,12271,1,12271,1,0.00077041,2.2096e-09,0,0.00099287,0.00010394,2.3466e+08,745.67,0,3.2407e+08,-8.3364,12270,188.7,0,188.7,0,0.00076442,1.4387e-09,0,0.00038923,0.00014302,2.5963e+08,447.94,0,1.2594e+08,35.089,188.7,1
644,4.55,12109,1,12109,1,0.00010931,-1.3293e-09,0,0.00066791,-2.0001e-05,0.10546,-365.87,0,2.2719e+08,29.919,12108,12432,1,12432,1,0.0013889,5.7976e-10,0,0.0013889,0.00021956,3.7008e+08,198.56,0,4.7599e+08,94.321,12431,12110,1,12110,1,0.00010931,-1.2567e-09,0,0.00066348,-2.005e-05,3.8784e+07,-364.19,0,2.3422e+08,28.176,12109,11763,1,11763,1,-0.0011703,-3.5542e-09,0,3.2861e-05,-0.00025935,-4.7599e+08,-964.55,0,1.3409e+07,-54.84,11762,11949,1,11949,1,-0.00055417,-2.4072e-09,0,0.00033174,-0.00014413,-2.2539e+08,-651.49,0,1.234e+08,1.0848,11948,12271,1,12271,1,0.0007728,-1.4974e-10,0,0.00099522,0.00010409,2.3502e+08,-51.272,0,3.2445e+08,59.394,12270,188.7,0,188.7,0,0.00076623,1.2322e-09,0,0.00039024,0.00014336,2.6e+08,335.69,0,1.2611e+08,34.914,188.7,1
644,4.56,12109,1,12109,1,0.00011013,2.959e-09,0,0.0006695,-2.015e-05,26.469,903.1,0,2.2751e+08,29.398,12108,12432,1,12432,1,0.0013927,7.7101e-09,0,0.0013927,0.00021996,3.7025e+08,2329.1,0,4.7687e+08,461.29,12431,12110,1,12110,1,0.00011013,3.0008e-09,0,0.00066503,-2.02e-05,3.9045e+07,895.96,0,2.3457e+08,22.685,12109,11763,1,11763,1,-0.0011724,-1.466e-09,0,3.2379e-05,-0.00026005,-4.7687e+08,-495.54,0,1.3217e+07,-192.32,11762,11949,1,11949,1,-0.0005549,1.3814e-09,0,0.00033251,-0.00014457,-2.2569e+08,367.27,0,1.2361e+08,-64.868,11948,12271,1,12271,1,0.00077515,4.7126e-09,0,0.00099754,0.00010423,2.3537e+08,1447,0,3.2482e+08,87.341,12270,188.7,0,188.7,0,0.00076801,2.237e-09,0,0.00039123,0.00014369,2.6036e+08,694.37,0,1.2627e+08,128.33,188.7,1
644,4.57,12109,1,12109,1,0.00011094,2.957e-09,0,0.00067114,-2.03e-05,-267.7,922.5,0,2.2785e+08,-37.03,12108,12432,1,12432,1,0.0013966,5.5277e-09,0,0.0013966,0.00022039,3.7046e+08,1795.2,0,4.7778e+08,88.577,12431,12110,1,12110,1,0.00011094,3.4362e-09,0,0.00066662,-2.035e-05,3.9307e+07,1037.6,0,2.3494e+08,-24.231,12109,11763,1,11763,1,-0.0011747,-8.7873e-10,0,3.1901e-05,-0.00026077,-4.7778e+08,-206.31,0,1.3027e+07,-157.25,11762,11949,1,11949,1,-0.00055567,1.4394e-09,0,0.00033331,-0.00014501,-2.26e+08,372.48,0,1.2383e+08,-81.821,11948,12271,1,12271,1,0.00077756,4.6772e-09,0,0.00099992,0.00010437,2.3574e+08,1492.4,0,3.2521e+08,8.2029,12270,188.7,0,188.7,0,0.00076985,1.9459e-09,0,0.00039226,0.00014403,2.6074e+08,633.56,0,1.2645e+08,57.723,188.7,1
644,4.58,12109,1,12109,1,0.00011177,-1.056e-09,0,0.00067276,-2.0452e-05,-42.575,-277.71,0,2.2817e+08,-50.236,12108,12432,1,12432,1,0.0014004,5.6023e-10,0,0.0014004,0.0002208,3.7064e+08,191.85,0,4.7868e+08,18.121,12431,12110,1,12110,1,0.00011178,-9.1702e-10,0,0.00066819,-2.0504e-05,3.9574e+07,-261.14,0,2.353e+08,-51.119,12109,11763,1,11763,1,-0.0011769,-2.9945e-09,0,3.1406e-05,-0.00026148,-4.7868e+08,-773.3,0,1.283e+07,-103.29,11762,11949,1,11949,1,-0.00055642,-2.185e-09,0,0.00033409,-0.00014546,-2.263e+08,-593.03,0,1.2405e+08,-79.328,11948,12271,1,12271,1,0.00077997,1.1128e-10,0,0.0010023,0.00010451,2.361e+08,38.105,0,3.2559e+08,-23.992,12270,188.7,0,188.7,0,0.00077167,1.1728e-09,0,0.00039328,0.00014437,2.6111e+08,315.17,0,1.2662e+08,31.581,188.7,1
644,4.59,12109,1,12109,1,0.00011261,2.6125e-09,0,0.00067438,-2.0604e-05,36.275,793.84,0,2.2849e+08,-6.1251,12108,12432,1,12432,1,0.0014043,5.8438e-09,0,0.0014043,0.00022121,3.7081e+08,1770.2,0,4.7957e+08,102.01,12431,12110,1,12110,1,0.00011261,2.966e-09,0,0.00066976,-2.0657e-05,3.984e+07,875.97,0,2.3565e+08,-3.2527,12109,11763,1,11763,1,-0.0011791,-8.6199e-10,0,3.0912e-05,-0.0002622,-4.7957e+08,-295.22,0,1.2634e+07,-105.35,11762,11949,1,11949,1,-0.00055715,1.3212e-09,0,0.00033488,-0.0001459,-2.266e+08,342.98,0,1.2426e+08,-40.039,11948,12271,1,12271,1,0.00078237,3.9876e-09,0,0.0010046,0.00010465,2.3645e+08,1245.9,0,3.2596e+08,21.334,12270,188.7,0,188.7,0,0.00077348,1.7545e-09,0,0.00039429,0.0001447,2.6147e+08,549.17,0,1.2679e+08,42.588,188.7,1
644,4.6,12109,1,12109,1,0.00011344,-1.8611e-09,0,0.000676,-2.0757e-05,26.602,-529.04,0,2.2881e+08,-5.9512,12108,12432,1,12432,1,0.0014081,7.9175e-10,0,0.0014081,0.00022162,3.7098e+08,271.16,0,4.8045e+08,80.5,12431,12110,1,12110,1,0.00011344,-1.9347e-09,0,0.00067132,-2.0811e-05,4.0106e+07,-552.03,0,2.36e+08,3.8908,12109,11763,1,11763,1,-0.0011813,-4.4448e-09,0,3.0411e-05,-0.00026291,-4.8045e+08,-1255.9,0,1.2436e+07,-133.46,11762,11949,1,11949,1,-0.00055788,-3.0667e-09,0,0.00033566,-0.00014634,-2.269e+08,-872.41,0,1.2447e+08,-42.136,11948,12271,1,12271,1,0.00078476,-5.5498e-10,0,0.001007,0.00010479,2.368e+08,-159.1,0,3.2633e+08,34.391,12270,188.7,0,188.7,0,0.00077528,1.5147e-09,0,0.00039531,0.00014504,2.6183e+08,424.89,0,1.2696e+08,50.357,188.7,1
644,4.61,12109,1,12109,1,0.00011428,-1.2858e-09,0,0.00067764,-2.0911e-05,145.49,-383.79,0,2.2913e+08,-38.121,12108,12432,1,12432,1,0.001412,2.3352e-10,0,0.001412,0.00022204,3.7116e+08,51.766,0,4.8136e+08,55.807,12431,12110,1,12110,1,0.00011428,-1.4471e-09,0,0.00067291,-2.0966e-05,4.0374e+07,-431.98,0,2.3636e+08,-34,12109,11763,1,11763,1,-0.0011835,-2.3102e-09,0,2.9912e-05,-0.00026364,-4.8136e+08,-700.01,0,1.2238e+07,-112.37,11762,11949,1,11949,1,-0.00055862,-1.8687e-09,0,0.00033645,-0.00014679,-2.272e+08,-551.68,0,1.2469e+08,-67.593,11948,12271,1,12271,1,0.00078719,-7.8032e-10,0,0.0010094,0.00010493,2.3716e+08,-217.56,0,3.267e+08,-12.107,12270,188.7,0,188.7,0,0.00077711,6.7526e-10,0,0.00039633,0.00014538,2.622e+08,204.68,0,1.2713e+08,36.279,188.7,1
644,4.62,12109,1,12109,1,0.00011513,-2.8964e-09,0,0.00067926,-2.1066e-05,-103.46,-875.76,0,2.2945e+08,23.266,12108,12432,1,12432,1,0.0014159,1.0498e-09,0,0.0014159,0.00022245,3.7132e+08,344.12,0,4.8225e+08,175.44,12431,12110,1,12110,1,0.00011513,-3.2892e-09,0,0.00067448,-2.1121e-05,4.0644e+07,-993.65,0,2.3671e+08,21.38,12109,11763,1,11763,1,-0.0011857,-6.0478e-09,0,2.9401e-05,-0.00026435,-4.8225e+08,-1823.6,0,1.2037e+07,-112.17,11762,11949,1,11949,1,-0.00055935,-4.3962e-09,0,0.00033724,-0.00014724,-2.275e+08,-1361.2,0,1.249e+08,-29.434,11948,12271,1,12271,1,0.00078961,-1.5773e-09,0,0.0010117,0.00010507,2.3751e+08,-401.75,0,3.2707e+08,70.886,12270,188.7,0,188.7,0,0.00077893,1.9277e-09,0,0.00039736,0.00014572,2.6255e+08,594.75,0,1.273e+08,69.431,188.7,1
644,4.63,12109,1,12109,1,0.00011598,1.2406e-09,0,0.00068088,-2.1221e-05,-184.02,339.3,0,2.2976e+08,27.37,12108,12432,1,12432,1,0.0014198,3.9242e-09,0,0.0014198,0.00022286,3.7148e+08,1093.8,0,4.8313e+08,122.65,12431,12110,1,12110,1,0.00011598,1.1488e-09,0,0.00067605,-2.1278e-05,4.0914e+07,334.84,0,2.3706e+08,25.786,12109,11763,1,11763,1,-0.0011878,-5.1521e-10,0,2.8888e-05,-0.00026507,-4.8313e+08,-176.41,0,1.1834e+07,-73.454,11762,11949,1,11949,1,-0.00056007,1.2867e-10,0,0.00033802,-0.00014769,-2.2779e+08,38.939,0,1.2511e+08,-18.597,11948,12271,1,12271,1,0.00079203,2.1492e-09,0,0.0010141,0.0001052,2.3786e+08,578.46,0,3.2743e+08,77.691,12270,188.7,0,188.7,0,0.00078074,1.1708e-09,0,0.00039838,0.00014606,2.6291e+08,323.26,0,1.2747e+08,52.728,188.7,1
644,4.64,12109,1,12109,1,0.00011684,1.1266e-10,0,0.00068254,-2.1379e-05,50.864,24.014,0,2.3009e+08,-59.184,12108,12432,1,12432,1,0.0014237,1.3249e-09,0,0.0014237,0.00022328,3.7165e+08,351.61,0,4.8404e+08,34.691,12431,12110,1,12110,1,0.00011684,-1.1425e-12,0,0.00067765,-2.1436e-05,4.1188e+07,-0.39109,0,2.3742e+08,-60.34,12109,11763,1,11763,1,-0.0011901,-7.2156e-10,0,2.8372e-05,-0.0002658,-4.8404e+08,-242.64,0,1.1631e+07,-147.19,11762,11949,1,11949,1,-0.00056081,-2.1364e-10,0,0.00033882,-0.00014814,-2.2809e+08,-69.569,0,1.2533e+08,-98.033,11948,12271,1,12271,1,0.00079449,4.0899e-10,0,0.0010165,0.00010534,2.3822e+08,111.22,0,3.278e+08,-20.643,12270,188.7,0,188.7,0,0.00078259,4.7136e-10,0,0.00039942,0.0001464,2.6328e+08,133.73,0,1.2764e+08,45.302,188.7,1
644,4.65,12109,1,12109,1,0.00011771,-1.1516e-09,0,0.00068418,-2.1538e-05,196.71,-348.97,0,2.304e+08,-19.571,12108,12432,1,12432,1,0.0014277,4.7211e-10,0,0.0014277,0.00022369,3.718e+08,149.93,0,4.8493e+08,54.282,12431,12110,1,12110,1,0.00011771,-1.3548e-09,0,0.00067923,-2.1596e-05,4.1463e+07,-395.15,0,2.3777e+08,-19.715,12109,11763,1,11763,1,-0.0011922,-2.3357e-09,0,2.7843e-05,-0.00026653,-4.8493e+08,-711.94,0,1.1423e+07,-110.07,11762,11949,1,11949,1,-0.00056153,-1.7863e-09,0,0.00033962,-0.0001486,-2.2838e+08,-550.72,0,1.2554e+08,-37.057,11948,12271,1,12271,1,0.00079694,-5.8651e-10,0,0.0010188,0.00010548,2.3856e+08,-141.14,0,3.2816e+08,1.1858,12270,188.7,0,188.7,0,0.00078442,7.677e-10,0,0.00040046,0.00014674,2.6363e+08,237.8,0,1.2781e+08,31.21,188.7,1
644,4.66,12109,1,12109,1,0.00011857,2.8839e-09,0,0.00068579,-2.1696e-05,252.16,844.03,0,2.3071e+08,17.611,12108,12432,1,12432,1,0.0014315,5.7812e-09,0,0.0014315,0.00022409,3.7194e+08,1672,0,4.858e+08,86.562,12431,12110,1,12110,1,0.00011857,3.286e-09,0,0.0006808,-2.1756e-05,4.1738e+07,968.34,0,2.3811e+08,16.166,12109,11763,1,11763,1,-0.0011944,-1.0843e-09,0,2.7311e-05,-0.00026725,-4.858e+08,-371.34,0,1.1214e+07,-89.603,11762,11949,1,11949,1,-0.00056222,1.3952e-09,0,0.0003404,-0.00014905,-2.2867e+08,414.04,0,1.2575e+08,-1.2969,11948,12271,1,12271,1,0.00079937,4.4915e-09,0,0.0010212,0.00010561,2.389e+08,1317.5,0,3.2851e+08,41.575,12270,188.7,0,188.7,0,0.00078623,1.9217e-09,0,0.00040148,0.00014708,2.6398e+08,565.54,0,1.2797e+08,33.16,188.7,1
644,4.67,12109,1,12109,1,0.00011944,1.9826e-09,0,0.00068744,-2.1855e-05,-61.851,611.97,0,2.3102e+08,-6.4036,12108,12432,1,12432,1,0.0014355,4.2589e-09,0,0.0014355,0.00022451,3.7209e+08,1295.5,0,4.867e+08,166.98,12431,12110,1,12110,1,0.00011944,2.2817e-09,0,0.00068239,-2.1916e-05,4.2012e+07,652.98,0,2.3846e+08,-17.001,12109,11763,1,11763,1,-0.0011966,-6.7062e-10,0,2.6784e-05,-0.00026798,-4.867e+08,-148.71,0,1.1008e+07,-129.07,11762,11949,1,11949,1,-0.00056295,9.1902e-10,0,0.00034119,-0.0001495,-2.2896e+08,254.88,0,1.2596e+08,-38.254,11948,12271,1,12271,1,0.00080183,3.0704e-09,0,0.0010236,0.00010575,2.3925e+08,987.51,0,3.2887e+08,19.609,12270,188.7,0,188.7,0,0.00078806,1.2895e-09,0,0.00040252,0.00014742,2.6434e+08,416.2,0,1.2814e+08,52.658,188.7,1
644,4.68,12109,1,12109,1,0.00012032,2.8113e-09,0,0.00068907,-2.2016e-05,-23.217,869.01,0,2.3133e+08,-5.3584,12108,12432,1,12432,1,0.0014394,5.6659e-09,0,0.0014394,0.00022492,3.7223e+08,1754,0,4.8758e+08,195.22,12431,12110,1,12110,1,0.00012032,3.3438e-09,0,0.00068397,-2.2077e-05,4.229e+07,989.51,0,2.3881e+08,-7.3396,12109,11763,1,11763,1,-0.0011988,-1.4878e-09,0,2.6244e-05,-0.00026871,-4.8758e+08,-442.24,0,1.0797e+07,-121.11,11762,11949,1,11949,1,-0.00056365,1.0476e-09,0,0.00034198,-0.00014995,-2.2924e+08,314.82,0,1.2617e+08,-57.154,11948,12271,1,12271,1,0.00080429,4.7232e-09,0,0.0010259,0.00010588,2.3959e+08,1504.8,0,3.2922e+08,32.188,12270,188.7,0,188.7,0,0.00078989,2.1204e-09,0,0.00040356,0.00014776,2.6469e+08,669.19,0,1.2831e+08,61.912,188.7,1
644,4.69,12109,1,12109,1,0.0001212,-3.006e-09,0,0.00069072,-2.2177e-05,-151.74,-847.87,0,2.3164e+08,18.812,12108,12432,1,12432,1,0.0014434,9.2894e-10,0,0.0014434,0.00022533,3.7237e+08,318.14,0,4.8847e+08,87.976,12431,12110,1,12110,1,0.0001212,-3.1183e-09,0,0.00068556,-2.224e-05,4.2569e+07,-937.31,0,2.3915e+08,24.878,12109,11763,1,11763,1,-0.001201,-5.989e-09,0,2.5701e-05,-0.00026944,-4.8847e+08,-1632,0,1.0585e+07,-79.85,11762,11949,1,11949,1,-0.00056436,-5.134e-09,0,0.00034278,-0.00015041,-2.2953e+08,-1409,0,1.2638e+08,-10.536,11948,12271,1,12271,1,0.00080677,-1.1129e-09,0,0.0010283,0.00010602,2.3994e+08,-328.35,0,3.2958e+08,48.08,12270,188.7,0,188.7,0,0.00079173,2.1595e-09,0,0.00040461,0.0001481,2.6504e+08,588.54,0,1.2848e+08,37.874,188.7,1
644,4.7,12109,1,12109,1,0.00012209,3.7131e-09,0,0.00069234,-2.234e-05,272.19,1109.9,0,2.3194e+08,52.109,12108,12432,1,12432,1,0.0014473,9.2341e-09,0,0.0014473,0.00022573,3.7249e+08,2702.3,0,4.8934e+08,464.55,12431,12110,1,12110,1,0.00012209,4.1068e-09,0,0.00068713,-2.2403e-05,4.2848e+07,1220.8,0,2.3949e+08,37.036,12109,11763,1,11763,1,-0.0012031,-2.2356e-09,0,2.515e-05,-0.00027017,-4.8934e+08,-765.65,0,1.037e+07,-188.4,11762,11949,1,11949,1,-0.00056504,1.6422e-09,0,0.00034356,-0.00015087,-2.2981e+08,485.18,0,1.2659e+08,-33.346,11948,12271,1,12271,1,0.00080922,5.8358e-09,0,0.0010307,0.00010615,2.4027e+08,1783.1,0,3.2991e+08,104.68,12270,188.7,0,188.7,0,0.00079354,2.7949e-09,0,0.00040564,0.00014844,2.6538e+08,845.92,0,1.2864e+08,121.19,188.7,1
644,4.71,12109,1,12109,1,0.00012298,4.0429e-09,0,0.00069399,-2.2503e-05,-193.88,1245.9,0,2.3225e+08,-64.581,12108,12432,1,12432,1,0.0014512,7.6756e-09,0,0.0014512,0.00022614,3.7262e+08,2397.3,0,4.9023e+08,145.45,12431,12110,1,12110,1,0.00012298,4.6257e-09,0,0.00068872,-2.2567e-05,4.3128e+07,1369.3,0,2.3983e+08,-59.792,12109,11763,1,11763,1,-0.0012053,-1.5402e-09,0,2.4603e-05,-0.0002709,-4.9023e+08,-416.06,0,1.0158e+07,-219.26,11762,11949,1,11949,1,-0.00056574,1.6858e-09,0,0.00034436,-0.00015133,-2.301e+08,502.55,0,1.268e+08,-140,11948,12271,1,12271,1,0.0008117,6.5482e-09,0,0.0010331,0.00010628,2.4062e+08,2080.5,0,3.3026e+08,-1.8939,12270,188.7,0,188.7,0,0.00079538,2.7433e-09,0,0.00040669,0.00014878,2.6574e+08,876.55,0,1.2881e+08,86.792,188.7,1
644,4.72,12109,1,12109,1,0.00012388,9.6285e-10,0,0.00069565,-2.2668e-05,127.53,350.11,0,2.3256e+08,-56.024,12108,12432,1,12432,1,0.0014552,3.275e-09,0,0.0014552,0.00022655,3.7275e+08,1120.6,0,4.9111e+08,55.102,12431,12110,1,12110,1,0.00012388,1.1866e-09,0,0.00069033,-2.2733e-05,4.3411e+07,381.36,0,2.4017e+08,-56.668,12109,11763,1,11763,1,-0.0012075,-1.7063e-09,0,2.4043e-05,-0.00027164,-4.9111e+08,-393.09,0,9.9403e+06,-180.65,11762,11949,1,11949,1,-0.00056644,-6.6067e-10,0,0.00034516,-0.00015179,-2.3038e+08,-160.87,0,1.2701e+08,-84.762,11948,12271,1,12271,1,0.0008142,2.5614e-09,0,0.0010355,0.00010641,2.4096e+08,853.98,0,3.3061e+08,-26.516,12270,188.7,0,188.7,0,0.00079723,1.6199e-09,0,0.00040775,0.00014912,2.6609e+08,501.71,0,1.2897e+08,45.167,188.7,1
644,4.73,12109,1,12109,1,0.00012479,1.8738e-09,0,0.0006973,-2.2834e-05,208.57,604.35,0,2.3286e+08,-17.033,12108,12432,1,12432,1,0.0014592,4.25e-09,0,0.0014592,0.00022696,3.7286e+08,1432.3,0,4.9199e+08,92.293,12431,12110,1,12110,1,0.00012479,2.0599e-09,0,0.00069192,-2.29e-05,4.3696e+07,642.23,0,2.4051e+08,-21.482,12109,11763,1,11763,1,-0.0012096,-7.4233e-10,0,2.3477e-05,-0.00027238,-4.9199e+08,-162.02,0,9.721e+06,-107.7,11762,11949,1,11949,1,-0.00056713,3.2875e-10,0,0.00034595,-0.00015225,-2.3066e+08,77.988,0,1.2721e+08,-44.126,11948,12271,1,12271,1,0.0008167,3.3341e-09,0,0.0010379,0.00010654,2.4129e+08,1081.3,0,3.3095e+08,7.8155,12270,188.7,0,188.7,0,0.00079906,1.5586e-09,0,0.0004088,0.00014947,2.6643e+08,509.68,0,1.2914e+08,40.223,188.7,1
644,4.74,12109,1,12109,1,0.00012569,5.4502e-11,0,0.00069891,-2.2999e-05,-758.89,66.719,0,2.3315e+08,102.07,12108,12432,1,12432,1,0.0014631,4.3428e-09,0,0.0014631,0.00022735,3.7295e+08,1338.4,0,4.9285e+08,502.74,12431,12110,1,12110,1,0.00012569,-1.7655e-12,0,0.00069347,-2.3066e-05,4.3978e+07,-0.64556,0,2.4083e+08,93.607,12109,11763,1,11763,1,-0.0012117,-3.0918e-09,0,2.2909e-05,-0.0002731,-4.9285e+08,-777.39,0,9.5016e+06,-94.13,11762,11949,1,11949,1,-0.00056778,-1.3925e-09,0,0.00034673,-0.0001527,-2.3092e+08,-346.57,0,1.2741e+08,24.049,11948,12271,1,12271,1,0.00081916,1.2807e-09,0,0.0010402,0.00010667,2.4161e+08,416.03,0,3.3127e+08,151.91,12270,188.7,0,188.7,0,0.00080086,1.6735e-09,0,0.00040984,0.0001498,2.6676e+08,487.92,0,1.2929e+08,108.36,188.7,1
644,4.75,12109,1,12109,1,0.0001266,2.4413e-09,0,0.00070059,-2.3166e-05,91.025,767.94,0,2.3347e+08,-102.01,12108,12432,1,12432,1,0.0014672,5.0077e-09,0,0.0014672,0.00022777,3.7309e+08,1619.1,0,4.9375e+08,67.91,12431,12110,1,12110,1,0.0001266,2.9032e-09,0,0.0006951,-2.3235e-05,4.4264e+07,866.22,0,2.4119e+08,-94.335,12109,11763,1,11763,1,-0.001214,-1.325e-09,0,2.2346e-05,-0.00027385,-4.9375e+08,-325.52,0,9.2841e+06,-262.71,11762,11949,1,11949,1,-0.00056849,8.0884e-10,0,0.00034755,-0.00015317,-2.3121e+08,187.09,0,1.2762e+08,-175.41,11948,12271,1,12271,1,0.0008217,4.2998e-09,0,0.0010426,0.0001068,2.4196e+08,1380.1,0,3.3163e+08,-31.401,12270,188.7,0,188.7,0,0.00080274,1.9388e-09,0,0.00041091,0.00015015,2.6712e+08,618.29,0,1.2947e+08,83.909,188.7,1
644,4.76,12109,1,12109,1,0.00012753,1.4378e-09,0,0.00070225,-2.3336e-05,-308.44,480.65,0,2.3376e+08,-23.335,12108,12432,1,12432,1,0.0014712,3.8017e-09,0,0.0014712,0.00022817,3.7319e+08,1300.7,0,4.9463e+08,103.98,12431,12110,1,12110,1,0.00012753,1.6922e-09,0,0.0006967,-2.3405e-05,4.4554e+07,497.39,0,2.4152e+08,-28.203,12109,11763,1,11763,1,-0.0012161,-1.2537e-09,0,2.176e-05,-0.00027459,-4.9463e+08,-271.33,0,9.0583e+06,-121.31,11762,11949,1,11949,1,-0.00056917,-2.7143e-10,0,0.00034835,-0.00015364,-2.3149e+08,-65.741,0,1.2783e+08,-58.184,11948,12271,1,12271,1,0.00082423,2.9549e-09,0,0.001045,0.00010693,2.423e+08,968.27,0,3.3196e+08,7.0387,12270,188.7,0,188.7,0,0.00080459,1.5822e-09,0,0.00041198,0.00015049,2.6746e+08,503.23,0,1.2963e+08,46.333,188.7,1
644,4.77,12109,1,12109,1,0.00012846,1.8083e-09,0,0.00070391,-2.3507e-05,-219.87,586.28,0,2.3406e+08,25.885,12108,12432,1,12432,1,0.0014752,5.1675e-09,0,0.0014752,0.00022858,3.7328e+08,1673,0,4.9551e+08,235.41,12431,12110,1,12110,1,0.00012846,1.9394e-09,0,0.0006983,-2.3577e-05,4.4844e+07,608.41,0,2.4185e+08,24.528,12109,11763,1,11763,1,-0.0012183,-1.1196e-09,0,2.1172e-05,-0.00027534,-4.9551e+08,-239.44,0,8.8324e+06,-87.336,11762,11949,1,11949,1,-0.00056984,2.7097e-10,0,0.00034915,-0.00015411,-2.3176e+08,63.846,0,1.2803e+08,-20.684,11948,12271,1,12271,1,0.00082676,3.2627e-09,0,0.0010474,0.00010706,2.4263e+08,1055.5,0,3.3228e+08,60.494,12270,188.7,0,188.7,0,0.00080644,1.7152e-09,0,0.00041305,0.00015084,2.678e+08,549.56,0,1.2979e+08,59.931,188.7,1
644,4.78,12109,1,12109,1,0.00012939,8.4688e-11,0,0.00070556,-2.3678e-05,-31.106,75.605,0,2.3435e+08,-9.5627,12108,12432,1,12432,1,0.0014792,2.5739e-09,0,0.0014792,0.00022898,3.7338e+08,880.65,0,4.9638e+08,113.74,12431,12110,1,12110,1,0.00012939,2.4879e-10,0,0.00069989,-2.3749e-05,4.5135e+07,80.554,0,2.4218e+08,-0.14182,12109,11763,1,11763,1,-0.0012204,-1.9881e-09,0,2.0581e-05,-0.00027608,-4.9638e+08,-497.42,0,8.6054e+06,-131.01,11762,11949,1,11949,1,-0.0005705,-1.1376e-09,0,0.00034994,-0.00015458,-2.3203e+08,-274.77,0,1.2823e+08,-50.066,11948,12271,1,12271,1,0.00082928,1.0824e-09,0,0.0010498,0.00010718,2.4295e+08,361.6,0,3.3261e+08,31.597,12270,188.7,0,188.7,0,0.00080828,1.2622e-09,0,0.00041411,0.00015118,2.6813e+08,370.14,0,1.2995e+08,53.602,188.7,1
644,4.79,12109,1,12109,1,0.00013033,-1.535e-09,0,0.00070722,-2.3849e-05,-277.36,-422,0,2.3465e+08,53.35,12108,12432,1,12432,1,0.0014832,9.3675e-10,0,0.0014832,0.00022938,3.7347e+08,320.81,0,4.9725e+08,226.86,12431,12110,1,12110,1,0.00013033,-1.5896e-09,0,0.00070149,-2.3921e-05,4.5426e+07,-444.06,0,2.4251e+08,40.274,12109,11763,1,11763,1,-0.0012225,-4.6714e-09,0,1.9989e-05,-0.00027682,-4.9725e+08,-1319.2,0,8.3786e+06,-147.48,11762,11949,1,11949,1,-0.00057116,-2.6909e-09,0,0.00035074,-0.00015504,-2.323e+08,-734.84,0,1.2844e+08,-17.642,11948,12271,1,12271,1,0.00083182,-2.2306e-10,0,0.0010522,0.00010731,2.4328e+08,-60.588,0,3.3293e+08,124.57,12270,188.7,0,188.7,0,0.00081012,1.4895e-09,0,0.00041518,0.00015152,2.6847e+08,415.91,0,1.3011e+08,87.73,188.7,1
644,4.8,12109,1,12109,1,0.00013127,-1.8322e-09,0,0.00070888,-2.4022e-05,-51.395,-542.91,0,2.3494e+08,32.601,12108,12432,1,12432,1,0.0014872,7.4033e-10,0,0.0014872,0.00022979,3.7356e+08,210.54,0,4.9813e+08,114.66,12431,12110,1,12110,1,0.00013127,-1.8933e-09,0,0.0007031,-2.4094e-05,4.5719e+07,-549.63,0,2.4284e+08,32.799,12109,11763,1,11763,1,-0.0012247,-4.327e-09,0,1.9391e-05,-0.00027757,-4.9813e+08,-1297.7,0,8.1502e+06,-64.6,11762,11949,1,11949,1,-0.00057182,-2.8052e-09,0,0.00035155,-0.00015552,-2.3257e+08,-831.75,0,1.2864e+08,-7.6846,11948,12271,1,12271,1,0.00083437,-9.3983e-10,0,0.0010546,0.00010743,2.4361e+08,-256.8,0,3.3326e+08,76.786,12270,188.7,0,188.7,0,0.00081198,1.2384e-09,0,0.00041625,0.00015187,2.6881e+08,375.82,0,1.3028e+08,46.256,188.7,1
644,4.81,12109,1,12109,1,0.00013222,2.2084e-09,0,0.00071055,-2.4196e-05,232,634.63,0,2.3524e+08,-52.711,12108,12432,1,12432,1,0.0014913,4.561e-09,0,0.0014913,0.00023019,3.7364e+08,1309.9,0,4.99e+08,56.611,12431,12110,1,12110,1,0.00013222,2.499e-09,0,0.0007047,-2.427e-05,4.6015e+07,722.04,0,2.4317e+08,-48.528,12109,11763,1,11763,1,-0.0012269,-8.9194e-10,0,1.8782e-05,-0.00027832,-4.99e+08,-305.47,0,7.9176e+06,-182.84,11762,11949,1,11949,1,-0.00057248,1.1229e-09,0,0.00035235,-0.00015599,-2.3283e+08,286.09,0,1.2884e+08,-90.202,11948,12271,1,12271,1,0.00083693,3.4638e-09,0,0.0010571,0.00010756,2.4393e+08,980.96,0,3.3358e+08,-13.522,12270,188.7,0,188.7,0,0.00081384,1.4865e-09,0,0.00041733,0.00015221,2.6914e+08,427.15,0,1.3044e+08,52.56,188.7,1
644,4.82,12109,1,12109,1,0.00013318,3.1009e-09,0,0.00071219,-2.4371e-05,130.04,933.68,0,2.3552e+08,40.785,12108,12432,1,12432,1,0.0014953,9.5859e-09,0,0.0014953,0.00023059,3.737e+08,2848.3,0,4.9986e+08,388.42,12431,12110,1,12110,1,0.00013318,2.8565e-09,0,0.00070629,-2.4445e-05,4.6309e+07,835.91,0,2.4348e+08,51.186,12109,11763,1,11763,1,-0.001229,-2.1729e-09,0,1.817e-05,-0.00027906,-4.9986e+08,-733.94,0,7.6845e+06,-287.59,11762,11949,1,11949,1,-0.00057311,9.6423e-10,0,0.00035314,-0.00015646,-2.3309e+08,284.49,0,1.2904e+08,-71.23,11948,12271,1,12271,1,0.00083946,5.2132e-09,0,0.0010594,0.00010768,2.4425e+08,1591.6,0,3.3388e+08,153.35,12270,188.7,0,188.7,0,0.00081566,2.7389e-09,0,0.0004184,0.00015255,2.6946e+08,834.4,0,1.3059e+08,136.36,188.7,1
644,4.83,12109,1,12109,1,0.00013413,1.0056e-09,0,0.00071389,-2.4546e-05,-115.46,343.75,0,2.3582e+08,-111.03,12108,12432,1,12432,1,0.0014994,3.1753e-09,0,0.0014994,0.000231,3.7379e+08,1086.4,0,5.0074e+08,48.367,12431,12110,1,12110,1,0.00013413,1.2128e-09,0,0.00070792,-2.4622e-05,4.6606e+07,360.02,0,2.4382e+08,-107.79,12109,11763,1,11763,1,-0.0012311,-1.5729e-09,0,1.756e-05,-0.00027982,-5.0074e+08,-348.48,0,7.4522e+06,-361.04,11762,11949,1,11949,1,-0.00057378,-2.2463e-10,0,0.00035396,-0.00015694,-2.3336e+08,-54.447,0,1.2924e+08,-172.32,11948,12271,1,12271,1,0.00084205,2.1383e-09,0,0.0010619,0.0001078,2.4458e+08,712.49,0,3.3421e+08,-49.287,12270,188.7,0,188.7,0,0.00081755,1.2847e-09,0,0.00041949,0.0001529,2.698e+08,400.26,0,1.3076e+08,83.707,188.7,1
644,4.84,12109,1,12109,1,0.00013511,1.1359e-09,0,0.00071556,-2.4725e-05,-191.61,378.3,0,2.361e+08,-41.779,12108,12432,1,12432,1,0.0015035,3.2032e-09,0,0.0015035,0.0002314,3.7386e+08,1094.9,0,5.0162e+08,98.257,12431,12110,1,12110,1,0.00013511,1.3588e-09,0,0.00070953,-2.4801e-05,4.6906e+07,394.44,0,2.4414e+08,-36.488,12109,11763,1,11763,1,-0.0012333,-1.1475e-09,0,1.6933e-05,-0.00028058,-5.0162e+08,-243.5,0,7.2141e+06,-200.73,11762,11949,1,11949,1,-0.00057442,-1.5178e-10,0,0.00035476,-0.00015741,-2.3363e+08,-35.81,0,1.2944e+08,-79.713,11948,12271,1,12271,1,0.00084464,2.2644e-09,0,0.0010643,0.00010793,2.449e+08,753.19,0,3.3453e+08,0.80921,12270,188.7,0,188.7,0,0.00081941,1.2782e-09,0,0.00042058,0.00015325,2.7013e+08,403.61,0,1.3092e+08,60.504,188.7,1
644,4.85,12109,1,12109,1,0.00013608,1.8442e-09,0,0.00071724,-2.4904e-05,256.58,586.93,0,2.3639e+08,-44.843,12108,12432,1,12432,1,0.0015076,4.0225e-09,0,0.0015076,0.0002318,3.7392e+08,1316.1,0,5.0248e+08,80.913,12431,12110,1,12110,1,0.00013608,2.1483e-09,0,0.00071115,-2.4981e-05,4.7207e+07,625.14,0,2.4446e+08,-42.743,12109,11763,1,11763,1,-0.0012354,-9.834e-10,0,1.6301e-05,-0.00028133,-5.0248e+08,-244.17,0,6.9745e+06,-162.3,11762,11949,1,11949,1,-0.00057506,3.6867e-10,0,0.00035557,-0.00015789,-2.3388e+08,117.83,0,1.2964e+08,-75.357,11948,12271,1,12271,1,0.00084723,3.3237e-09,0,0.0010667,0.00010805,2.4522e+08,1072.8,0,3.3483e+08,-13.363,12270,188.7,0,188.7,0,0.00082127,1.5563e-09,0,0.00042167,0.0001536,2.7046e+08,498.83,0,1.3108e+08,48.061,188.7,1
644,4.86,12109,1,12109,1,0.00013706,1.1547e-09,0,0.0007189,-2.5083e-05,175.35,392.33,0,2.3667e+08,-4.897,12108,12432,1,12432,1,0.0015117,4.2378e-09,0,0.0015117,0.0002322,3.7397e+08,1391.4,0,5.0334e+08,184.22,12431,12110,1,12110,1,0.00013706,1.2133e-09,0,0.00071275,-2.5161e-05,4.7508e+07,370.8,0,2.4478e+08,2.749,12109,11763,1,11763,1,-0.0012375,-1.3564e-09,0,1.5667e-05,-0.00028209,-5.0334e+08,-309.91,0,6.7344e+06,-159.99,11762,11949,1,11949,1,-0.00057569,-2.6936e-10,0,0.00035637,-0.00015837,-2.3414e+08,-72.493,0,1.2984e+08,-52.073,11948,12271,1,12271,1,0.00084981,2.3649e-09,0,0.0010691,0.00010817,2.4553e+08,775.26,0,3.3514e+08,35.281,12270,188.7,0,188.7,0,0.00082313,1.4981e-09,0,0.00042276,0.00015394,2.7078e+08,467.84,0,1.3124e+08,61.477,188.7,1
644,4.87,12109,1,12109,1,0.00013804,1.1984e-09,0,0.00072058,-2.5263e-05,162.07,402.88,0,2.3695e+08,-21.073,12108,12432,1,12432,1,0.0015158,4.3876e-09,0,0.0015158,0.0002326,3.7403e+08,1425.4,0,5.0421e+08,153.91,12431,12110,1,12110,1,0.00013804,1.3084e-09,0,0.00071436,-2.5342e-05,4.781e+07,382.76,0,2.4509e+08,-8.5294,12109,11763,1,11763,1,-0.0012397,-1.4026e-09,0,1.5031e-05,-0.00028285,-5.0421e+08,-300.05,0,6.4936e+06,-185.52,11762,11949,1,11949,1,-0.00057632,-3.0996e-10,0,0.00035718,-0.00015885,-2.3439e+08,-73.829,0,1.3003e+08,-66.302,11948,12271,1,12271,1,0.00085241,2.5082e-09,0,0.0010715,0.00010829,2.4585e+08,789.62,0,3.3544e+08,25.997,12270,188.7,0,188.7,0,0.00082499,1.561e-09,0,0.00042385,0.00015429,2.7111e+08,485.69,0,1.3139e+08,66.55,188.7,1
644,4.88,12109,1,12109,1,0.00013903,1.9488e-09,0,0.00072224,-2.5444e-05,476.04,626.37,0,2.3723e+08,-11.211,12108,12432,1,12432,1,0.0015198,6.9544e-09,0,0.0015198,0.000233,3.7407e+08,2136.6,0,5.0506e+08,231.95,12431,12110,1,12110,1,0.00013903,1.8575e-09,0,0.00071596,-2.5523e-05,4.8113e+07,564.88,0,2.454e+08,-0.39692,12109,11763,1,11763,1,-0.0012418,-1.8059e-09,0,1.4387e-05,-0.0002836,-5.0506e+08,-446.3,0,6.2504e+06,-262.97,11762,11949,1,11949,1,-0.00057693,8.8962e-11,0,0.00035798,-0.00015933,-2.3464e+08,27.976,0,1.3023e+08,-95.791,11948,12271,1,12271,1,0.00085499,3.677e-09,0,0.0010739,0.0001084,2.4616e+08,1147.7,0,3.3573e+08,74.596,12270,188.7,0,188.7,0,0.00082683,2.1589e-09,0,0.00042494,0.00015463,2.7142e+08,673.72,0,1.3155e+08,104.42,188.7,1
644,4.89,12109,1,12109,1,0.00014003,3.0425e-10,0,0.00072394,-2.5626e-05,118.67,149.68,0,2.3752e+08,-73.016,12108,12432,1,12432,1,0.001524,2.9345e-09,0,0.001524,0.0002334,3.7413e+08,1004,0,5.0594e+08,54.359,12431,12110,1,12110,1,0.00014003,4.1753e-10,0,0.0007176,-2.5707e-05,4.8418e+07,136.53,0,2.4573e+08,-57.813,12109,11763,1,11763,1,-0.0012439,-2.0422e-09,0,1.3743e-05,-0.00028437,-5.0594e+08,-458.61,0,6.0077e+06,-247.6,11762,11949,1,11949,1,-0.00057757,-1.0191e-09,0,0.0003588,-0.00015981,-2.3491e+08,-249.74,0,1.3043e+08,-122.58,11948,12271,1,12271,1,0.00085763,1.4855e-09,0,0.0010764,0.00010853,2.4648e+08,493.97,0,3.3605e+08,-18.923,12270,188.7,0,188.7,0,0.00082873,1.4003e-09,0,0.00042605,0.00015498,2.7175e+08,412.32,0,1.3171e+08,69.148,188.7,1
644,4.9,12109,1,12109,1,0.00014103,3.9245e-09,0,0.00072561,-2.5811e-05,883.57,1196.9,0,2.3779e+08,-57.676,12108,12432,1,12432,1,0.0015281,9.6972e-09,0,0.0015281,0.0002338,3.7416e+08,2895.4,0,5.068e+08,264.91,12431,12110,1,12110,1,0.00014103,4.3306e-09,0,0.00071921,-2.5892e-05,4.8726e+07,1287.5,0,2.4604e+08,-50.1,12109,11763,1,11763,1,-0.001246,-1.8117e-09,0,1.3081e-05,-0.00028513,-5.068e+08,-469.78,0,5.7582e+06,-349.54,11762,11949,1,11949,1,-0.00057817,1.6937e-09,0,0.0003596,-0.0001603,-2.3515e+08,461.31,0,1.3062e+08,-130.36,11948,12271,1,12271,1,0.00086024,6.1559e-09,0,0.0010788,0.00010864,2.4678e+08,1915.1,0,3.3633e+08,17.8,12270,188.7,0,188.7,0,0.00083058,2.8252e-09,0,0.00042715,0.00015533,2.7207e+08,892.75,0,1.3187e+08,110.69,188.7,1
644,4.91,12109,1,12109,1,0.00014204,-9.7182e-10,0,0.00072731,-2.5995e-05,-137.13,-208.87,0,2.3807e+08,-50.786,12108,12432,1,12432,1,0.0015322,2.1114e-09,0,0.0015322,0.0002342,3.742e+08,722.89,0,5.0766e+08,99.108,12431,12110,1,12110,1,0.00014204,-6.4958e-10,0,0.00072084,-2.6077e-05,4.9034e+07,-189.01,0,2.4635e+08,-48.548,12109,11763,1,11763,1,-0.0012482,-4.0195e-09,0,1.2422e-05,-0.0002859,-5.0766e+08,-974.1,0,5.5106e+06,-171.94,11762,11949,1,11949,1,-0.0005788,-2.9384e-09,0,0.00036042,-0.00016078,-2.354e+08,-720.3,0,1.3082e+08,-91.071,11948,12271,1,12271,1,0.00086288,7.9957e-10,0,0.0010813,0.00010876,2.4709e+08,273.82,0,3.3664e+08,-10.884,12270,188.7,0,188.7,0,0.00083247,1.901e-09,0,0.00042827,0.00015568,2.7239e+08,512.59,0,1.3203e+08,55.508,188.7,1
644,4.92,12109,1,12109,1,0.00014305,-1.7477e-09,0,0.00072896,-2.618e-05,125.85,-474.37,0,2.3833e+08,21.549,12108,12432,1,12432,1,0.0015363,1.9984e-09,0,0.0015363,0.00023459,3.7422e+08,684.13,0,5.085e+08,228.08,12431,12110,1,12110,1,0.00014305,-1.4067e-09,0,0.00072243,-2.6263e-05,4.9342e+07,-376.05,0,2.4665e+08,26.949,12109,11763,1,11763,1,-0.0012502,-7.805e-09,0,1.1754e-05,-0.00028665,-5.085e+08,-2212.8,0,5.2596e+06,-262.18,11762,11949,1,11949,1,-0.00057938,-3.3324e-09,0,0.00036122,-0.00016126,-2.3564e+08,-927.66,0,1.3101e+08,-92.824,11948,12271,1,12271,1,0.00086548,2.5384e-10,0,0.0010837,0.00010887,2.4739e+08,64.331,0,3.3691e+08,146.93,12270,188.7,0,188.7,0,0.00083431,2.3338e-09,0,0.00042936,0.00015602,2.7269e+08,667.91,0,1.3218e+08,129.11,188.7,1
644,4.93,12109,1,12109,1,0.00014407,5.0704e-10,0,0.00073068,-2.6367e-05,168.39,146.07,0,2.3862e+08,-150.83,12108,12432,1,12432,1,0.0015405,2.0173e-09,0,0.0015405,0.00023499,3.7427e+08,501.83,0,5.0938e+08,32.443,12431,12110,1,12110,1,0.00014407,5.9741e-10,0,0.00072409,-2.6452e-05,4.9653e+07,175.08,0,2.4697e+08,-160.5,12109,11763,1,11763,1,-0.0012524,-8.0188e-10,0,1.1091e-05,-0.00028743,-5.0938e+08,-274.62,0,5.0106e+06,-318.18,11762,11949,1,11949,1,-0.00058002,-3.3137e-11,0,0.00036204,-0.00016176,-2.359e+08,-10.92,0,1.312e+08,-236.68,11948,12271,1,12271,1,0.00086815,9.8361e-10,0,0.0010861,0.00010899,2.4771e+08,305.3,0,3.3722e+08,-61.534,12270,188.7,0,188.7,0,0.00083622,6.5636e-10,0,0.00043049,0.00015637,2.7302e+08,183.68,0,1.3234e+08,99.53,188.7,1
644,4.94,12109,1,12109,1,0.0001451,1.6814e-09,0,0.00073237,-2.6555e-05,-579.78,501.27,0,2.3889e+08,34.591,12108,12432,1,12432,1,0.0015447,5.5843e-09,0,0.0015447,0.00023539,3.7428e+08,1660.5,0,5.1024e+08,245.87,12431,12110,1,12110,1,0.0001451,1.3746e-09,0,0.00072571,-2.664e-05,4.9966e+07,399.08,0,2.4728e+08,43.865,12109,11763,1,11763,1,-0.0012545,-9.5965e-10,0,1.0409e-05,-0.0002882,-5.1024e+08,-312.28,0,4.7549e+06,-191.74,11762,11949,1,11949,1,-0.00058061,4.7112e-10,0,0.00036285,-0.00016225,-2.3614e+08,118.72,0,1.3139e+08,-48.624,11948,12271,1,12271,1,0.00087081,2.7653e-09,0,0.0010886,0.0001091,2.4801e+08,844.46,0,3.3749e+08,108.53,12270,188.7,0,188.7,0,0.00083809,1.4965e-09,0,0.00043161,0.00015672,2.7333e+08,458.07,0,1.3249e+08,100.96,188.7,1
644,4.95,12109,1,12109,1,0.00014613,7.9399e-10,0,0.00073407,-2.6745e-05,-213.93,259.15,0,2.3916e+08,-30.483,12108,12432,1,12432,1,0.0015489,3.3475e-09,0,0.0015489,0.00023579,3.743e+08,1080.5,0,5.111e+08,105.15,12431,12110,1,12110,1,0.00014614,5.2804e-10,0,0.00072735,-2.6831e-05,5.028e+07,157.26,0,2.4759e+08,-21.113,12109,11763,1,11763,1,-0.0012566,-6.8973e-10,0,9.723e-06,-0.00028898,-5.111e+08,-154.48,0,4.4982e+06,-201.31,11762,11949,1,11949,1,-0.00058121,-5.658e-11,0,0.00036367,-0.00016274,-2.3638e+08,-14.665,0,1.3159e+08,-82.472,11948,12271,1,12271,1,0.00087348,1.5199e-09,0,0.001091,0.00010922,2.4831e+08,485.46,0,3.3778e+08,25.687,12270,188.7,0,188.7,0,0.00083998,9.9726e-10,0,0.00043273,0.00015707,2.7365e+08,316.41,0,1.3265e+08,71.288,188.7,1
644,4.96,12109,1,12109,1,0.00014718,6.1586e-10,0,0.00073577,-2.6936e-05,32.105,206.34,0,2.3943e+08,-46.396,12108,12432,1,12432,1,0.0015531,3.1941e-09,0,0.0015531,0.00023618,3.743e+08,1016.3,0,5.1195e+08,99.9,12431,12110,1,12110,1,0.00014718,3.8839e-10,0,0.00072897,-2.7023e-05,5.0596e+07,117.73,0,2.4789e+08,-38.995,12109,11763,1,11763,1,-0.0012587,-1.0474e-09,0,9.0291e-06,-0.00028975,-5.1195e+08,-228.86,0,4.2387e+06,-232.14,11762,11949,1,11949,1,-0.00058179,-2.9749e-10,0,0.00036449,-0.00016323,-2.3662e+08,-73.946,0,1.3178e+08,-101.98,11948,12271,1,12271,1,0.00087615,1.4396e-09,0,0.0010935,0.00010933,2.4861e+08,453.67,0,3.3806e+08,16.735,12270,188.7,0,188.7,0,0.00084186,1.051e-09,0,0.00043386,0.00015742,2.7396e+08,324.26,0,1.3281e+08,77.168,188.7,1
644,4.97,12109,1,12109,1,0.00014823,-1.5867e-09,0,0.00073747,-2.7128e-05,90.115,-432.51,0,2.397e+08,-11.778,12108,12432,1,12432,1,0.0015573,1.1282e-09,0,0.0015573,0.00023658,3.7432e+08,360.64,0,5.1281e+08,189.64,12431,12110,1,12110,1,0.00014823,-1.4431e-09,0,0.00073061,-2.7216e-05,5.0914e+07,-383.09,0,2.4819e+08,-13.496,12109,11763,1,11763,1,-0.0012608,-5.4623e-09,0,8.3327e-06,-0.00029053,-5.1281e+08,-1746.6,0,3.9787e+06,-562.07,11762,11949,1,11949,1,-0.00058239,-2.7084e-09,0,0.00036531,-0.00016373,-2.3686e+08,-745.12,0,1.3197e+08,-95.987,11948,12271,1,12271,1,0.00087884,-1.6613e-10,0,0.0010959,0.00010944,2.4891e+08,-56.583,0,3.3834e+08,82.792,12270,188.7,0,188.7,0,0.00084375,1.6231e-09,0,0.00043499,0.00015778,2.7427e+08,461.45,0,1.3296e+08,122.56,188.7,1
644,4.98,12109,1,12109,1,0.00014928,-6.1024e-10,0,0.00073918,-2.7321e-05,-342.29,-179.68,0,2.3996e+08,-31.589,12108,12432,1,12432,1,0.0015615,3.2096e-10,0,0.0015615,0.00023698,3.7432e+08,65.082,0,5.1367e+08,62.314,12431,12110,1,12110,1,0.00014928,-6.4039e-10,0,0.00073225,-2.7411e-05,5.1232e+07,-170.03,0,2.4849e+08,-25.09,12109,11763,1,11763,1,-0.0012629,-1.6884e-09,0,7.6304e-06,-0.00029131,-5.1367e+08,-518.12,0,3.7166e+06,-123.11,11762,11949,1,11949,1,-0.00058297,-9.3523e-10,0,0.00036613,-0.00016423,-2.371e+08,-270.28,0,1.3216e+08,-61.596,11948,12271,1,12271,1,0.00088153,-2.3436e-10,0,0.0010984,0.00010955,2.4921e+08,-64.177,0,3.3861e+08,-2.1584,12270,188.7,0,188.7,0,0.00084565,4.5937e-10,0,0.00043613,0.00015813,2.7458e+08,141.75,0,1.3312e+08,40.986,188.7,1
644,4.99,12109,1,12109,1,0.00015034,1.5553e-09,0,0.00074086,-2.7515e-05,184.23,444.74,0,2.4022e+08,-54.934,12108,12432,1,12432,1,0.0015657,4.3433e-09,0,0.0015657,0.00023736,3.743e+08,1251.5,0,5.1451e+08,79.629,12431,12110,1,12110,1,0.00015034,1.6172e-09,0,0.00073387,-2.7606e-05,5.1551e+07,447.3,0,2.4879e+08,-50.237,12109,11763,1,11763,1,-0.001265,-7.0577e-10,0,6.9181e-06,-0.00029208,-5.1451e+08,-241.7,0,3.4511e+06,-203.59,11762,11949,1,11949,1,-0.00058353,6.7563e-10,0,0.00036694,-0.00016472,-2.3733e+08,183.58,0,1.3234e+08,-97.776,11948,12271,1,12271,1,0.00088421,2.3948e-09,0,0.0011008,0.00010966,2.495e+08,690.83,0,3.3888e+08,-8.7261,12270,188.7,0,188.7,0,0.00084752,1.1784e-09,0,0.00043725,0.00015847,2.7487e+08,343.43,0,1.3327e+08,63.49,188.7,1
644,5,12109,1,12109,1,0.0001514,2.8381e-09,0,0.00074258,-2.7709e-05,-10.28,829.84,0,2.4049e+08,-50.181,12108,12432,1,12432,1,0.0015699,5.9972e-09,0,0.0015699,0.00023776,3.7431e+08,1777.2,0,5.1537e+08,89.254,12431,12110,1,12110,1,0.0001514,3.1236e-09,0,0.00073552,-2.78e-05,5.1871e+07,925.31,0,2.4909e+08,-36.052,12109,11763,1,11763,1,-0.0012671,-9.4348e-10,0,6.2122e-06,-0.00029287,-5.1537e+08,-315.66,0,3.1882e+06,-228.34,11762,11949,1,11949,1,-0.00058412,1.2692e-09,0,0.00036776,-0.00016522,-2.3757e+08,354.95,0,1.3253e+08,-98.179,11948,12271,1,12271,1,0.00088692,4.4652e-09,0,0.0011033,0.00010977,2.498e+08,1339.2,0,3.3915e+08,6.4109,12270,188.7,0,188.7,0,0.00084942,1.9696e-09,0,0.0004384,0.00015883,2.7519e+08,583.61,0,1.3343e+08,75.232,188.7,1
644,5.01,12109,1,12109,1,0.00015247,1.3492e-09,0,0.00074428,-2.7905e-05,96.332,425.06,0,2.4075e+08,-49.243,12108,12432,1,12432,1,0.0015741,4.6178e-09,0,0.0015741,0.00023815,3.7429e+08,1364.7,0,5.1622e+08,204.46,12431,12110,1,12110,1,0.00015247,1.4499e-09,0,0.00073715,-2.7998e-05,5.2193e+07,415.74,0,2.4938e+08,-62.21,12109,11763,1,11763,1,-0.0012692,-1.4485e-09,0,5.4876e-06,-0.00029365,-5.1622e+08,-389.95,0,2.9185e+06,-243.8,11762,11949,1,11949,1,-0.00058468,1.3933e-12,0,0.00036857,-0.00016572,-2.3779e+08,0.031705,0,1.3272e+08,-116.46,11948,12271,1,12271,1,0.00088962,2.5929e-09,0,0.0011057,0.00010988,2.5009e+08,803.28,0,3.3941e+08,15.754,12270,188.7,0,188.7,0,0.00085131,1.5093e-09,0,0.00043954,0.00015918,2.7548e+08,457.33,0,1.3358e+08,95.474,188.7,1
644,5.02,12109,1,12109,1,0.00015355,1.5569e-10,0,0.000746,-2.8102e-05,-313.87,88.258,0,2.4101e+08,5.8614,12108,12432,1,12432,1,0.0015784,1.9259e-09,0,0.0015784,0.00023855,3.7428e+08,658.83,0,5.1707e+08,122.39,12431,12110,1,12110,1,0.00015355,2.9842e-10,0,0.0007388,-2.8196e-05,5.2517e+07,97.641,0,2.4968e+08,8.0834,12109,11763,1,11763,1,-0.0012713,-1.7691e-09,0,4.7643e-06,-0.00029443,-5.1707e+08,-426.6,0,2.6494e+06,-104.73,11762,11949,1,11949,1,-0.00058525,-8.0703e-10,0,0.0003694,-0.00016622,-2.3803e+08,-178.38,0,1.3291e+08,-36.852,11948,12271,1,12271,1,0.00089235,9.7957e-10,0,0.0011082,0.00010999,2.5038e+08,320.37,0,3.3968e+08,43.244,12270,188.7,0,188.7,0,0.00085321,9.9094e-10,0,0.00044069,0.00015953,2.7579e+08,286.05,0,1.3373e+08,50.898,188.7,1
644,5.03,12109,1,12109,1,0.00015464,1.4786e-09,0,0.00074772,-2.8302e-05,-12.888,453.13,0,2.4127e+08,-60.033,12108,12432,1,12432,1,0.0015827,3.2794e-09,0,0.0015827,0.00023894,3.7426e+08,994.79,0,5.1793e+08,50.829,12431,12110,1,12110,1,0.00015464,1.8e-09,0,0.00074045,-2.8397e-05,5.2843e+07,508.23,0,2.4997e+08,-58.397,12109,11763,1,11763,1,-0.0012734,-9.858e-10,0,4.0292e-06,-0.00029523,-5.1793e+08,-337.61,0,2.3761e+06,-162.96,11762,11949,1,11949,1,-0.00058581,4.0643e-10,0,0.00037023,-0.00016673,-2.3826e+08,118.8,0,1.3309e+08,-102.53,11948,12271,1,12271,1,0.00089509,2.5835e-09,0,0.0011107,0.00011009,2.5067e+08,830.96,0,3.3995e+08,-20.012,12270,188.7,0,188.7,0,0.00085512,1.2717e-09,0,0.00044184,0.00015989,2.7609e+08,391.11,0,1.3389e+08,50.513,188.7,1
644,5.04,12109,1,12109,1,0.00015573,2.0671e-09,0,0.00074944,-2.8502e-05,-100.49,636.12,0,2.4152e+08,16.299,12108,12432,1,12432,1,0.001587,4.422e-09,0,0.001587,0.00023934,3.7423e+08,1364.8,0,5.1878e+08,145.55,12431,12110,1,12110,1,0.00015573,2.3728e-09,0,0.00074211,-2.8598e-05,5.3171e+07,706.78,0,2.5027e+08,14.511,12109,11763,1,11763,1,-0.0012755,-8.4134e-10,0,3.2869e-06,-0.00029602,-5.1878e+08,-237.82,0,2.1003e+06,-113.13,11762,11949,1,11949,1,-0.00058637,7.4068e-10,0,0.00037105,-0.00016724,-2.3848e+08,169.73,0,1.3328e+08,-22.701,11948,12271,1,12271,1,0.00089784,3.5206e-09,0,0.0011132,0.0001102,2.5096e+08,1120,0,3.402e+08,49.922,12270,188.7,0,188.7,0,0.00085703,1.5867e-09,0,0.000443,0.00016024,2.7639e+08,502.19,0,1.3404e+08,47.826,188.7,1
644,5.05,12109,1,12109,1,0.00015684,6.2092e-10,0,0.00075117,-2.8704e-05,81.533,235.58,0,2.4178e+08,13.78,12108,12432,1,12432,1,0.0015912,2.3338e-09,0,0.0015912,0.00023973,3.742e+08,798.69,0,5.1962e+08,133.99,12431,12110,1,12110,1,0.00015684,8.377e-10,0,0.00074376,-2.8801e-05,5.3501e+07,247.59,0,2.5056e+08,8.6077,12109,11763,1,11763,1,-0.0012776,-1.6826e-09,0,2.5382e-06,-0.00029681,-5.1962e+08,-365.04,0,1.8224e+06,-45.523,11762,11949,1,11949,1,-0.00058692,-6.8283e-10,0,0.00037188,-0.00016775,-2.3871e+08,-140.98,0,1.3346e+08,-10.225,11948,12271,1,12271,1,0.0009006,1.8899e-09,0,0.0011156,0.00011031,2.5125e+08,614.32,0,3.4046e+08,29.291,12270,188.7,0,188.7,0,0.00085894,1.2594e-09,0,0.00044416,0.0001606,2.7669e+08,374.82,0,1.3419e+08,33.27,188.7,1
644,5.06,12109,1,12109,1,0.00015794,-2.3388e-10,0,0.00075288,-2.8906e-05,-165.75,-18.534,0,2.4203e+08,30.201,12108,12432,1,12432,1,0.0015955,1.1003e-09,0,0.0015955,0.00024012,3.7416e+08,376.71,0,5.2046e+08,127.26,12431,12110,1,12110,1,0.00015794,-3.9573e-11,0,0.00074541,-2.9005e-05,5.383e+07,-11.522,0,2.5084e+08,24.321,12109,11763,1,11763,1,-0.0012796,-2.2692e-09,0,1.7848e-06,-0.0002976,-5.2046e+08,-525.26,0,1.5428e+06,-55.009,11762,11949,1,11949,1,-0.00058746,-1.2255e-09,0,0.0003727,-0.00016825,-2.3893e+08,-280.06,0,1.3364e+08,5.7048,11948,12271,1,12271,1,0.00090335,7.5135e-10,0,0.0011181,0.00011041,2.5153e+08,256.99,0,3.4071e+08,47.824,12270,188.7,0,188.7,0,0.00086084,1.0386e-09,0,0.00044532,0.00016095,2.7698e+08,280.66,0,1.3434e+08,31.626,188.7,1
644,5.07,12109,1,12109,1,0.00015905,7.8134e-10,0,0.0007546,-2.9109e-05,177.83,257.06,0,2.4228e+08,15.524,12108,12432,1,12432,1,0.0015998,4.3954e-09,0,0.0015998,0.00024051,3.7411e+08,1292,0,5.2131e+08,376.09,12431,12110,1,12110,1,0.00015905,7.159e-10,0,0.00074705,-2.9209e-05,5.4161e+07,227.26,0,2.5113e+08,10.57,12109,11763,1,11763,1,-0.0012817,-1.6337e-09,0,1.0296e-06,-0.0002984,-5.2131e+08,-369.54,0,1.2628e+06,-167.07,11762,11949,1,11949,1,-0.000588,-3.458e-10,0,0.00037353,-0.00016876,-2.3914e+08,-81.046,0,1.3382e+08,-54.928,11948,12271,1,12271,1,0.00090611,1.6956e-09,0,0.0011206,0.00011051,2.5181e+08,533.31,0,3.4096e+08,62.498,12270,188.7,0,188.7,0,0.00086274,1.3129e-09,0,0.00044649,0.0001613,2.7727e+08,383,0,1.3449e+08,94.242,188.7,1
644,5.08,12109,1,12109,1,0.00016017,2.2286e-09,0,0.00075633,-2.9313e-05,-217.02,683.46,0,2.4253e+08,-56.676,12108,12432,1,12432,1,0.0016041,5.5808e-09,0,0.0016041,0.0002409,3.7407e+08,1644.9,0,5.2215e+08,144.54,12431,12110,1,12110,1,0.00016017,2.6442e-09,0,0.00074871,-2.9415e-05,5.4493e+07,748.61,0,2.5141e+08,-59.213,12109,11763,1,11763,1,-0.0012838,-1.5885e-09,0,2.6706e-07,-0.00029919,-5.2215e+08,-437.32,0,9.8028e+05,-228.36,11762,11949,1,11949,1,-0.00058854,6.8939e-10,0,0.00037435,-0.00016928,-2.3936e+08,190.46,0,1.3401e+08,-108.57,11948,12271,1,12271,1,0.00090888,3.8224e-09,0,0.0011231,0.00011061,2.5209e+08,1180.4,0,3.412e+08,-2.577,12270,188.7,0,188.7,0,0.00086465,1.8925e-09,0,0.00044766,0.00016166,2.7756e+08,584.5,0,1.3465e+08,76.823,188.7,1
644,5.09,12109,1,12109,1,0.0001613,-1.9903e-10,0,0.0007581,-2.9519e-05,-209.33,9.8164,0,2.4278e+08,-17.976,12108,12432,1,12432,1,0.0016085,2.0798e-09,0,0.0016085,0.00024129,3.7402e+08,711.72,0,5.23e+08,121.63,12431,12110,1,12110,1,0.0001613,-4.5388e-11,0,0.00075037,-2.9622e-05,5.4827e+07,-13.389,0,2.517e+08,-14.63,12109,11763,1,11763,1,-0.0012859,-2.6009e-09,0,4.989e-07,-0.0003,-5.23e+08,-600.06,0,6.9457e+05,-136.27,11762,11949,1,11949,1,-0.00058908,-1.6167e-09,0,0.00037519,-0.00016979,-2.3958e+08,-355.54,0,1.3419e+08,-51.481,11948,12271,1,12271,1,0.00091167,1.0433e-09,0,0.0011256,0.00011072,2.5237e+08,351.49,0,3.4145e+08,15.204,12270,188.7,0,188.7,0,0.00086658,1.3941e-09,0,0.00044878,0.00016202,2.7786e+08,379.86,0,1.348e+08,50.094,188.7,1
644,5.1,12109,1,12109,1,0.00016243,-1.2463e-09,0,0.00075989,-2.9727e-05,-277.08,-309.6,0,2.4302e+08,12.718,12108,12432,1,12432,1,0.0016128,4.6561e-10,0,0.0016128,0.00024168,3.7396e+08,159.45,0,5.2384e+08,121.62,12431,12110,1,12110,1,0.00016243,-1.0497e-09,0,0.00075204,-2.9831e-05,5.5164e+07,-316.11,0,2.5198e+08,5.8237,12109,11763,1,11763,1,-0.0012879,-3.3092e-09,0,1.279e-06,-0.0003008,-5.2384e+08,-823.35,0,4.0632e+05,-54.384,11762,11949,1,11949,1,-0.00058961,-2.5574e-09,0,0.00037602,-0.00017031,-2.398e+08,-627.76,0,1.3437e+08,-5.7741,11948,12271,1,12271,1,0.00091447,3.5253e-12,0,0.0011281,0.00011082,2.5264e+08,1.2104,0,3.4169e+08,28.97,12270,188.7,0,188.7,0,0.0008685,1.2569e-09,0,0.00044986,0.00016237,2.7814e+08,314.37,0,1.3495e+08,30.569,188.7,1
644,5.11,12109,1,12109,1,0.00016357,3.1467e-09,0,0.00076165,-2.9935e-05,554.96,922.36,0,2.4326e+08,-21.848,12108,12432,1,12432,1,0.0016171,8.4155e-09,0,0.0016171,0.00024206,3.7389e+08,2421.7,0,5.2466e+08,397.75,12431,12110,1,12110,1,0.00016357,3.5168e-09,0,0.00075367,-3.004e-05,5.5499e+07,1033.5,0,2.5225e+08,-42.651,12109,11763,1,11763,1,-0.0012899,-1.9089e-09,0,2.0681e-06,-0.00030159,-5.2466e+08,-653.75,0,1.1592e+05,-215.72,11762,11949,1,11949,1,-0.0005901,1.3648e-09,0,0.00037683,-0.00017082,-2.4e+08,330.19,0,1.3454e+08,-91.962,11948,12271,1,12271,1,0.00091723,5.0062e-09,0,0.0011305,0.00011091,2.5291e+08,1506.1,0,3.4191e+08,31.046,12270,188.7,0,188.7,0,0.00087038,2.4775e-09,0,0.00045093,0.00016272,2.7842e+08,734.82,0,1.3509e+08,104.79,188.7,1
644,5.12,12109,1,12109,1,0.00016471,8.8779e-10,0,0.00076347,-3.0144e-05,-44.492,325.81,0,2.4352e+08,-67.834,12108,12432,1,12432,1,0.0016215,2.9946e-09,0,0.0016215,0.00024246,3.7384e+08,1024.8,0,5.2552e+08,35.988,12431,12110,1,12110,1,0.00016471,1.0658e-09,0,0.00075535,-3.025e-05,5.5836e+07,344.35,0,2.5254e+08,-63.637,12109,11763,1,11763,1,-0.0012921,-1.9371e-09,0,2.8432e-06,-0.0003024,-5.2552e+08,-403.94,0,1.7013e+05,-166.37,11762,11949,1,11949,1,-0.00059065,-6.3183e-10,0,0.00037768,-0.00017134,-2.4022e+08,-151.26,0,1.3472e+08,-107.32,11948,12271,1,12271,1,0.00092007,2.4289e-09,0,0.001133,0.00011102,2.5319e+08,791.38,0,3.4217e+08,-27.324,12270,188.7,0,188.7,0,0.00087233,1.5547e-09,0,0.00045204,0.00016308,2.7872e+08,466.32,0,1.3523e+08,48.843,188.7,1
644,5.13,12109,1,12109,1,0.00016587,-2.4187e-09,0,0.00076527,-3.0355e-05,-334.93,-629.23,0,2.4378e+08,85.933,12108,12432,1,12432,1,0.0016258,1.3223e-09,0,0.0016258,0.00024284,3.7377e+08,452.86,0,5.2636e+08,220.06,12431,12110,1,12110,1,0.00016587,-2.3237e-09,0,0.00075703,-3.0463e-05,5.6178e+07,-695.23,0,2.5281e+08,73.854,12109,11763,1,11763,1,-0.0012941,-6.041e-09,0,3.645e-06,-0.00030321,-5.2636e+08,-1553.6,0,4.6628e+05,-80.8,11762,11949,1,11949,1,-0.00059116,-4.4652e-09,0,0.00037851,-0.00017186,-2.4043e+08,-1116.4,0,1.349e+08,43.089,11948,12271,1,12271,1,0.00092289,-5.2816e-10,0,0.0011355,0.00011111,2.5346e+08,-157.41,0,3.424e+08,120.65,12270,188.7,0,188.7,0,0.00087426,2.1951e-09,0,0.00045314,0.00016344,2.79e+08,568.1,0,1.3534e+08,59.424,188.7,1
644,5.14,12109,1,12109,1,0.00016703,2.1938e-09,0,0.00076706,-3.0568e-05,-44.33,636.04,0,2.4404e+08,-17.791,12108,12432,1,12432,1,0.0016302,5.6917e-09,0,0.0016302,0.00024323,3.7368e+08,1618.9,0,5.2719e+08,256.19,12431,12110,1,12110,1,0.00016703,2.4698e-09,0,0.00075869,-3.0678e-05,5.652e+07,701.38,0,2.5308e+08,-26.732,12109,11763,1,11763,1,-0.0012962,-1.3514e-09,0,4.454e-06,-0.00030402,-5.2719e+08,-462.82,0,7.6482e+05,-203.93,11762,11949,1,11949,1,-0.00059166,9.4507e-10,0,0.00037934,-0.00017238,-2.4063e+08,257.95,0,1.3508e+08,-62.603,11948,12271,1,12271,1,0.00092572,3.4649e-09,0,0.001138,0.00011121,2.5373e+08,1037.9,0,3.4262e+08,29.04,12270,188.7,0,188.7,0,0.00087618,1.7101e-09,0,0.00045423,0.0001638,2.7928e+08,503.56,0,1.3545e+08,77.574,188.7,1
644,5.15,12109,1,12109,1,0.0001682,-2.6274e-09,0,0.00076888,-3.0782e-05,-93.127,-706.08,0,2.443e+08,43.419,12108,12432,1,12432,1,0.0016346,1.1955e-09,0,0.0016346,0.00024362,3.7361e+08,409.42,0,5.2803e+08,193.15,12431,12110,1,12110,1,0.0001682,-2.845e-09,0,0.00076037,-3.0893e-05,5.6863e+07,-797.19,0,2.5336e+08,39.719,12109,11763,1,11763,1,-0.0012982,-6.1123e-09,0,5.2599e-06,-0.00030483,-5.2803e+08,-1717.3,0,1.0619e+06,-431.86,11762,11949,1,11949,1,-0.00059217,-4.3928e-09,0,0.00038018,-0.00017291,-2.4084e+08,-1132.9,0,1.3525e+08,12.599,11948,12271,1,12271,1,0.00092857,-8.5722e-10,0,0.0011406,0.00011131,2.54e+08,-284.43,0,3.4285e+08,73.726,12270,188.7,0,188.7,0,0.00087812,2.0277e-09,0,0.00045534,0.00016416,2.7956e+08,536.25,0,1.3557e+08,60.035,188.7,1
644,5.16,12109,1,12109,1,0.00016938,-8.3577e-10,0,0.00077069,-3.0997e-05,149.24,-248.83,0,2.4456e+08,24.803,12108,12432,1,12432,1,0.001639,6.4798e-10,0,0.001639,0.000244,3.7352e+08,163.53,0,5.2886e+08,146.26,12431,12110,1,12110,1,0.00016938,-9.7199e-10,0,0.00076204,-3.111e-05,5.7209e+07,-273.05,0,2.5363e+08,18.803,12109,11763,1,11763,1,-0.0013003,-2.2115e-09,0,6.0827e-06,-0.00030565,-5.2886e+08,-644.64,0,1.365e+06,-62.456,11762,11949,1,11949,1,-0.00059267,-1.3555e-09,0,0.00038102,-0.00017344,-2.4104e+08,-410.47,0,1.3543e+08,2.7623,11948,12271,1,12271,1,0.00093142,-2.4734e-10,0,0.0011431,0.0001114,2.5426e+08,-75.882,0,3.4307e+08,39.001,12270,188.7,0,188.7,0,0.00088005,7.0622e-10,0,0.00045645,0.00016452,2.7984e+08,210.77,0,1.3568e+08,33.588,188.7,1
644,5.17,12109,1,12109,1,0.00017056,2.2356e-09,0,0.0007725,-3.1213e-05,-257.48,615.97,0,2.4481e+08,2.3034,12108,12432,1,12432,1,0.0016435,5.703e-09,0,0.0016435,0.00024439,3.7343e+08,1551.3,0,5.297e+08,238.38,12431,12110,1,12110,1,0.00017056,2.4022e-09,0,0.00076372,-3.1327e-05,5.7555e+07,695.3,0,2.539e+08,-7.6322,12109,11763,1,11763,1,-0.0013023,-1.1995e-09,0,6.9051e-06,-0.00030647,-5.297e+08,-410.81,0,1.6677e+06,-133.01,11762,11949,1,11949,1,-0.00059316,1.0068e-09,0,0.00038186,-0.00017396,-2.4124e+08,277.13,0,1.356e+08,-41.489,11948,12271,1,12271,1,0.00093428,3.4949e-09,0,0.0011456,0.0001115,2.5452e+08,957.95,0,3.4329e+08,41.774,12270,188.7,0,188.7,0,0.00088199,1.6547e-09,0,0.00045756,0.00016488,2.8012e+08,454.8,0,1.3579e+08,64.618,188.7,1
644,5.18,12109,1,12109,1,0.00017175,-9.3333e-10,0,0.0007743,-3.143e-05,-98.585,-243.72,0,2.4506e+08,56.084,12108,12432,1,12432,1,0.0016479,9.8654e-10,0,0.0016479,0.00024477,3.7333e+08,337.85,0,5.3052e+08,190.92,12431,12110,1,12110,1,0.00017175,-8.902e-10,0,0.00076539,-3.1546e-05,5.7902e+07,-243.92,0,2.5416e+08,50.942,12109,11763,1,11763,1,-0.0013044,-3.3233e-09,0,7.7362e-06,-0.00030728,-5.3052e+08,-900.57,0,1.9732e+06,-118.58,11762,11949,1,11949,1,-0.00059364,-1.7913e-09,0,0.00038269,-0.00017449,-2.4144e+08,-476.85,0,1.3577e+08,19.442,11948,12271,1,12271,1,0.00093714,-3.3799e-12,0,0.0011481,0.00011159,2.5478e+08,-1.1547,0,3.4348e+08,85.696,12270,188.7,0,188.7,0,0.00088392,1.1083e-09,0,0.00045867,0.00016524,2.8039e+08,301.01,0,1.3589e+08,52.77,188.7,1
644,5.19,12109,1,12109,1,0.00017295,-2.0569e-09,0,0.00077613,-3.1649e-05,220.42,-593.19,0,2.4532e+08,55.321,12108,12432,1,12432,1,0.0016523,1.4275e-09,0,0.0016523,0.00024516,3.7323e+08,425.69,0,5.3136e+08,205.92,12431,12110,1,12110,1,0.00017295,-2.3342e-09,0,0.00076708,-3.1766e-05,5.8251e+07,-657.66,0,2.5443e+08,46.393,12109,11763,1,11763,1,-0.0013064,-4.9171e-09,0,8.5716e-06,-0.0003081,-5.3136e+08,-1419.6,0,2.28e+06,-104.14,11762,11949,1,11949,1,-0.00059413,-3.3177e-09,0,0.00038354,-0.00017502,-2.4164e+08,-980.01,0,1.3594e+08,9.9658,11948,12271,1,12271,1,0.00094002,-9.0931e-10,0,0.0011506,0.00011168,2.5504e+08,-213.02,0,3.4345e+08,91.571,12270,188.7,0,188.7,0,0.00088587,1.6525e-09,0,0.00045979,0.0001656,2.8067e+08,481.95,0,1.3601e+08,61.801,188.7,1
644,5.2,12109,1,12109,1,0.00017415,-9.9438e-10,0,0.00077795,-3.1869e-05,95.114,-327.6,0,2.4557e+08,68.677,12108,12432,1,12432,1,0.0016568,1.3352e-09,0,0.0016568,0.00024554,3.7312e+08,305.21,0,5.3219e+08,236.06,12431,12110,1,12110,1,0.00017415,-1.0568e-09,0,0.00076876,-3.1988e-05,5.8602e+07,-302.58,0,2.547e+08,55.696,12109,11763,1,11763,1,-0.0013085,-3.8354e-09,0,9.4163e-06,-0.00030893,-5.3219e+08,-1147.4,0,2.5899e+06,-115.33,11762,11949,1,11949,1,-0.00059461,-2.0974e-09,0,0.00038438,-0.00017555,-2.4183e+08,-651.24,0,1.3611e+08,22.367,11948,12271,1,12271,1,0.00094292,1.911e-10,0,0.0011531,0.00011178,2.553e+08,44.745,0,3.4341e+08,107.31,12270,188.7,0,188.7,0,0.00088781,1.3375e-09,0,0.00046091,0.00016596,2.8094e+08,400.86,0,1.3611e+08,69.751,188.7,1
644,5.21,12109,1,12109,1,0.00017537,-4.1457e-10,0,0.0007798,-3.2092e-05,1.6227,-171.03,0,2.4583e+08,-44.435,12108,12432,1,12432,1,0.0016613,1.4707e-09,0,0.0016613,0.00024593,3.7302e+08,314.14,0,5.3304e+08,159.54,12431,12110,1,12110,1,0.00017537,-5.6045e-10,0,0.00077047,-3.2213e-05,5.8956e+07,-172.72,0,2.5497e+08,-57.634,12109,11763,1,11763,1,-0.0013105,-2.0165e-09,0,1.0268e-05,-0.00030976,-5.3304e+08,-690.04,0,2.902e+06,-166.93,11762,11949,1,11949,1,-0.0005951,-1.3845e-09,0,0.00038524,-0.00017609,-2.4203e+08,-457.2,0,1.3629e+08,-93.643,11948,12271,1,12271,1,0.00094584,5.7313e-10,0,0.0011557,0.00011187,2.5556e+08,121.36,0,3.4337e+08,0.48167,12270,188.7,0,188.7,0,0.00088978,1.0519e-09,0,0.00046205,0.00016633,2.8122e+08,306.63,0,1.3623e+08,59.18,188.7,1
644,5.22,12109,1,12109,1,0.0001766,1.3826e-09,0,0.00078162,-3.2315e-05,-139.18,344.12,0,2.4607e+08,70.365,12108,12432,1,12432,1,0.0016657,5.0061e-09,0,0.0016657,0.00024631,3.7289e+08,1233.3,0,5.3385e+08,279.27,12431,12110,1,12110,1,0.00017659,1.0763e-09,0,0.00077215,-3.2438e-05,5.9311e+07,292.09,0,2.5522e+08,58.424,12109,11763,1,11763,1,-0.0013125,-6.1216e-10,0,1.1133e-05,-0.00031058,-5.3385e+08,-209.65,0,3.2185e+06,-52.924,11762,11949,1,11949,1,-0.00059555,1.3317e-10,0,0.00038607,-0.00017663,-2.4221e+08,39.709,0,1.3645e+08,13.7,11948,12271,1,12271,1,0.00094874,2.4676e-09,0,0.0011582,0.00011196,2.5581e+08,600.97,0,3.433e+08,115.32,12270,188.7,0,188.7,0,0.00089172,1.4136e-09,0,0.00046317,0.00016669,2.8148e+08,351.9,0,1.3633e+08,68.965,188.7,1
644,5.23,12109,1,12109,1,0.00017782,2.7536e-09,0,0.00078345,-3.2539e-05,-120.32,765.96,0,2.4632e+08,9.3994,12108,12432,1,12432,1,0.0016702,6.5211e-09,0,0.0016702,0.0002467,3.7277e+08,1756.1,0,5.3469e+08,214.15,12431,12110,1,12110,1,0.00017782,2.9455e-09,0,0.00077384,-3.2664e-05,5.9666e+07,846.11,0,2.5548e+08,1.6296,12109,11763,1,11763,1,-0.0013146,-1.1383e-09,0,1.1998e-05,-0.00031142,-5.3469e+08,-389.84,0,3.5345e+06,-142.83,11762,11949,1,11949,1,-0.00059602,1.4647e-09,0,0.00038692,-0.00017717,-2.424e+08,348.96,0,1.3662e+08,-34.049,11948,12271,1,12271,1,0.00095167,4.1542e-09,0,0.0011608,0.00011205,2.5606e+08,1181.4,0,3.4325e+08,48.36,12270,188.7,0,188.7,0,0.00089368,1.906e-09,0,0.00046431,0.00016705,2.8175e+08,530.74,0,1.3644e+08,64.952,188.7,1
644,5.24,12109,1,12109,1,0.00017906,1.1453e-09,0,0.00078531,-3.2766e-05,-429.31,358.88,0,2.4656e+08,15.264,12108,12432,1,12432,1,0.0016748,2.4864e-09,0,0.0016748,0.00024708,3.7265e+08,850.35,0,5.3552e+08,139.04,12431,12110,1,12110,1,0.00017906,1.3052e-09,0,0.00077555,-3.2892e-05,6.0024e+07,389.17,0,2.5574e+08,8.6971,12109,11763,1,11763,1,-0.0013167,-5.6099e-10,0,1.2871e-05,-0.00031225,-5.3552e+08,-130.71,0,3.8532e+06,-44.451,11762,11949,1,11949,1,-0.00059649,2.4389e-10,0,0.00038778,-0.00017771,-2.426e+08,71.818,0,1.3679e+08,-11.75,11948,12271,1,12271,1,0.00095462,2.0452e-09,0,0.0011633,0.00011214,2.5632e+08,642.19,0,3.432e+08,32.884,12270,188.7,0,188.7,0,0.00089566,9.7248e-10,0,0.00046546,0.00016742,2.8202e+08,307.52,0,1.3655e+08,36.377,188.7,1
644,5.25,12109,1,12109,1,0.00018032,-2.2757e-09,0,0.00078716,-3.2994e-05,315.18,-602.8,0,2.4681e+08,118.25,12108,12432,1,12432,1,0.0016793,1.2241e-09,0,0.0016793,0.00024747,3.7252e+08,419.19,0,5.3635e+08,305.59,12431,12110,1,12110,1,0.00018032,-2.4326e-09,0,0.00077726,-3.3122e-05,6.0386e+07,-711.99,0,2.56e+08,114.87,12109,11763,1,11763,1,-0.0013187,-5.2667e-09,0,1.3759e-05,-0.00031309,-5.3635e+08,-1332.7,0,4.1768e+06,-90.497,11762,11949,1,11949,1,-0.00059694,-3.8615e-09,0,0.00038863,-0.00017826,-2.4278e+08,-992.15,0,1.3696e+08,47.989,11948,12271,1,12271,1,0.00095758,-6.3363e-10,0,0.0011659,0.00011222,2.5657e+08,-213.94,0,3.4313e+08,186.81,12270,188.7,0,188.7,0,0.00089763,1.809e-09,0,0.00046661,0.00016778,2.8228e+08,470.39,0,1.3666e+08,88.509,188.7,1
644,5.26,12109,1,12109,1,0.00018157,-2.7947e-10,0,0.000789,-3.3224e-05,101.99,-88.782,0,2.4705e+08,124.04,12108,12432,1,12432,1,0.0016839,1.4248e-09,0,0.0016839,0.00024785,3.7237e+08,318.64,0,5.3717e+08,378.46,12431,12110,1,12110,1,0.00018157,-2.8291e-10,0,0.00077896,-3.3354e-05,6.0748e+07,-86.127,0,2.5625e+08,116.85,12109,11763,1,11763,1,-0.0013207,-2.1164e-09,0,1.4653e-05,-0.00031393,-5.3717e+08,-566.59,0,4.5023e+06,-65.523,11762,11949,1,11949,1,-0.00059738,-6.8321e-10,0,0.00038948,-0.0001788,-2.4296e+08,-205.26,0,1.3712e+08,44.58,11948,12271,1,12271,1,0.00096053,2.1804e-10,0,0.0011684,0.00011231,2.5681e+08,60.696,0,3.4306e+08,193.51,12270,188.7,0,188.7,0,0.00089959,6.9907e-10,0,0.00046775,0.00016815,2.8254e+08,183.88,0,1.3676e+08,91.96,188.7,1
644,5.27,12109,1,12109,1,0.00018283,3.4144e-09,0,0.00079085,-3.3454e-05,-318.09,948.13,0,2.4729e+08,0.48179,12108,12432,1,12432,1,0.0016884,7.2485e-09,0,0.0016884,0.00024823,3.7223e+08,1930.7,0,5.38e+08,213.23,12431,12110,1,12110,1,0.00018283,3.9165e-09,0,0.00078066,-3.3586e-05,6.1109e+07,1120.6,0,2.565e+08,-6.9771,12109,11763,1,11763,1,-0.0013227,-1.6241e-09,0,1.5547e-05,-0.00031477,-5.38e+08,-556.2,0,4.8269e+06,-136.6,11762,11949,1,11949,1,-0.00059783,1.6645e-09,0,0.00039033,-0.00017935,-2.4314e+08,436.24,0,1.3729e+08,-49.723,11948,12271,1,12271,1,0.00096349,5.3418e-09,0,0.001171,0.00011239,2.5705e+08,1512,0,3.4298e+08,40.199,12270,188.7,0,188.7,0,0.00090156,2.419e-09,0,0.0004689,0.00016851,2.828e+08,675.49,0,1.3687e+08,66.307,188.7,1
644,5.28,12109,1,12109,1,0.0001841,6.1371e-10,0,0.00079271,-3.3686e-05,2.4555,223.65,0,2.4753e+08,60.412,12108,12432,1,12432,1,0.001693,2.3261e-09,0,0.001693,0.00024861,3.7208e+08,717.2,0,5.3882e+08,260.11,12431,12110,1,12110,1,0.0001841,8.2643e-10,0,0.00078237,-3.3819e-05,6.1474e+07,243.29,0,2.5675e+08,50.617,12109,11763,1,11763,1,-0.0013248,-1.8757e-09,0,1.6449e-05,-0.00031562,-5.3882e+08,-398.11,0,5.1542e+06,-79.565,11762,11949,1,11949,1,-0.00059827,-4.7061e-10,0,0.00039119,-0.0001799,-2.4332e+08,-121.86,0,1.3745e+08,11.849,11948,12271,1,12271,1,0.00096648,1.7379e-09,0,0.0011736,0.00011248,2.573e+08,560.05,0,3.4291e+08,98.884,12270,188.7,0,188.7,0,0.00090354,1.1486e-09,0,0.00047006,0.00016888,2.8306e+08,333.63,0,1.3697e+08,67.473,188.7,1
644,5.29,12109,1,12109,1,0.00018538,-2.4124e-09,0,0.00079457,-3.3919e-05,-171.41,-626.74,0,2.4776e+08,135.37,12108,12432,1,12432,1,0.0016975,1.3353e-09,0,0.0016975,0.00024899,3.7192e+08,457.28,0,5.3964e+08,334.62,12431,12110,1,12110,1,0.00018538,-2.3887e-09,0,0.00078409,-3.4054e-05,6.184e+07,-651.65,0,2.57e+08,127.56,12109,11763,1,11763,1,-0.0013268,-6.5037e-09,0,1.7362e-05,-0.00031646,-5.3964e+08,-1629.1,0,5.4846e+06,-103.13,11762,11949,1,11949,1,-0.0005987,-4.1483e-09,0,0.00039204,-0.00018045,-2.4349e+08,-1053.5,0,1.3761e+08,46.854,11948,12271,1,12271,1,0.00096947,-7.7613e-10,0,0.0011761,0.00011256,2.5754e+08,-201.41,0,3.4282e+08,229.93,12270,188.7,0,188.7,0,0.00090551,2.0808e-09,0,0.00047122,0.00016925,2.8332e+08,530.54,0,1.3708e+08,99.012,188.7,1
644,5.3,12109,1,12109,1,0.00018667,3.3248e-09,0,0.00079643,-3.4154e-05,36.382,930.48,0,2.48e+08,39.963,12108,12432,1,12432,1,0.0017022,6.6315e-09,0,0.0017022,0.00024937,3.7176e+08,1901.9,0,5.4047e+08,276.31,12431,12110,1,12110,1,0.00018667,3.7969e-09,0,0.0007858,-3.4292e-05,6.2208e+07,1041.2,0,2.5724e+08,32.007,12109,11763,1,11763,1,-0.0013288,-1.199e-09,0,1.8283e-05,-0.00031731,-5.4047e+08,-410.62,0,5.8175e+06,-150.69,11762,11949,1,11949,1,-0.00059913,1.7594e-09,0,0.0003929,-0.000181,-2.4367e+08,433.19,0,1.3778e+08,-14.033,11948,12271,1,12271,1,0.00097247,5.0836e-09,0,0.0011787,0.00011264,2.5777e+08,1459.9,0,3.4273e+08,87.324,12270,188.7,0,188.7,0,0.00090749,2.1889e-09,0,0.00047239,0.00016961,2.8358e+08,631.88,0,1.3718e+08,79.779,188.7,1
644,5.31,12109,1,12109,1,0.00018797,2.6266e-10,0,0.00079831,-3.4391e-05,-41.518,124.99,0,2.4823e+08,84.833,12108,12432,1,12432,1,0.0017068,2.1633e-09,0,0.0017068,0.00024976,3.716e+08,740.26,0,5.4129e+08,306.34,12431,12110,1,12110,1,0.00018797,2.974e-10,0,0.00078753,-3.453e-05,6.2578e+07,94.889,0,2.5749e+08,77.735,12109,11763,1,11763,1,-0.0013308,-2.1798e-09,0,1.9209e-05,-0.00031817,-5.4129e+08,-459.26,0,6.1512e+06,-61.38,11762,11949,1,11949,1,-0.00059956,-6.6037e-10,0,0.00039377,-0.00018156,-2.4384e+08,-137.9,0,1.3794e+08,16.344,11948,12271,1,12271,1,0.0009755,1.1283e-09,0,0.0011813,0.00011273,2.5801e+08,352.23,0,3.4264e+08,143.53,12270,188.7,0,188.7,0,0.00090949,1.0652e-09,0,0.00047356,0.00016998,2.8383e+08,306.6,0,1.3729e+08,81.273,188.7,1
644,5.32,12109,1,12109,1,0.00018928,-8.3139e-10,0,0.00080018,-3.463e-05,247.56,-187.98,0,2.4846e+08,135.98,12108,12432,1,12432,1,0.0017114,8.6152e-10,0,0.0017114,0.00025013,3.7143e+08,295.01,0,5.4211e+08,374.26,12431,12110,1,12110,1,0.00018927,-4.4241e-10,0,0.00078925,-3.4771e-05,6.295e+07,-117.43,0,2.5773e+08,135.3,12109,11763,1,11763,1,-0.0013329,-4.2647e-09,0,2.0148e-05,-0.00031902,-5.4211e+08,-988.32,0,6.489e+06,-78.149,11762,11949,1,11949,1,-0.00059998,-1.6479e-09,0,0.00039463,-0.00018212,-2.4401e+08,-389.73,0,1.381e+08,39.22,11948,12271,1,12271,1,0.00097853,1.8499e-10,0,0.0011839,0.00011281,2.5825e+08,58.818,0,3.4254e+08,230.69,12270,188.7,0,188.7,0,0.00091148,1.2225e-09,0,0.00047474,0.00017035,2.8409e+08,297.71,0,1.3739e+08,105.95,188.7,1
644,5.33,12109,1,12109,1,0.00019059,1.6983e-09,0,0.00080206,-3.4869e-05,-185.42,490.3,0,2.4869e+08,131.63,12108,12432,1,12432,1,0.0017161,3.2725e-09,0,0.0017161,0.00025051,3.7125e+08,1020.9,0,5.4293e+08,433.99,12431,12110,1,12110,1,0.00019059,1.9211e-09,0,0.00079098,-3.5012e-05,6.3323e+07,532.67,0,2.5797e+08,120.24,12109,11763,1,11763,1,-0.0013349,-4.319e-10,0,2.1093e-05,-0.00031988,-5.4293e+08,-146.3,0,6.8281e+06,-64.102,11762,11949,1,11949,1,-0.00060039,7.6673e-10,0,0.00039549,-0.00018268,-2.4418e+08,190.05,0,1.3826e+08,50.957,11948,12271,1,12271,1,0.00098157,2.7387e-09,0,0.0011865,0.00011289,2.5848e+08,786.79,0,3.4244e+08,202.77,12270,188.7,0,188.7,0,0.00091347,1.1063e-09,0,0.00047592,0.00017072,2.8434e+08,337.27,0,1.3749e+08,107.53,188.7,1
644,5.34,12109,1,12109,1,0.00019191,2.5755e-09,0,0.00080394,-3.5111e-05,-340.66,757.51,0,2.4892e+08,150.87,12108,12432,1,12432,1,0.0017207,5.3656e-09,0,0.0017207,0.00025089,3.7107e+08,1687.8,0,5.4375e+08,578.46,12431,12110,1,12110,1,0.00019191,2.9494e-09,0,0.0007927,-3.5255e-05,6.3697e+07,822.7,0,2.5821e+08,128.25,12109,11763,1,11763,1,-0.0013369,-1.0932e-09,0,2.2043e-05,-0.00032074,-5.4375e+08,-301.42,0,7.1684e+06,-119.26,11762,11949,1,11949,1,-0.00060079,1.0916e-09,0,0.00039635,-0.00018324,-2.4434e+08,232.63,0,1.3841e+08,55.455,11948,12271,1,12271,1,0.00098462,4.253e-09,0,0.0011891,0.00011297,2.5871e+08,1234.1,0,3.4233e+08,232.25,12270,188.7,0,188.7,0,0.00091547,1.8271e-09,0,0.00047711,0.00017109,2.8459e+08,564.32,0,1.3759e+08,134.96,188.7,1
644,5.35,12109,1,12109,1,0.00019324,3.4561e-10,0,0.00080584,-3.5354e-05,-91.064,165.16,0,2.4915e+08,166.1,12108,12432,1,12432,1,0.0017254,2.5851e-09,0,0.0017254,0.00025127,3.7088e+08,884.96,0,5.4457e+08,408.01,12431,12110,1,12110,1,0.00019324,6.3063e-10,0,0.00079444,-3.55e-05,6.4074e+07,186.35,0,2.5845e+08,164.5,12109,11763,1,11763,1,-0.0013389,-3.3273e-09,0,2.3001e-05,-0.0003216,-5.4457e+08,-715.2,0,7.5105e+06,-56.871,11762,11949,1,11949,1,-0.0006012,-6.4775e-10,0,0.00039722,-0.00018381,-2.4451e+08,-135.5,0,1.3857e+08,56.354,11948,12271,1,12271,1,0.00098768,1.4332e-09,0,0.0011917,0.00011304,2.5894e+08,477.93,0,3.4222e+08,272.13,12270,188.7,0,188.7,0,0.00091747,1.3805e-09,0,0.0004783,0.00017147,2.8483e+08,385.44,0,1.377e+08,117.76,188.7,1
644,5.36,12109,1,12109,1,0.00019458,-2.6467e-09,0,0.00080772,-3.5598e-05,211.47,-689.05,0,2.4937e+08,212.88,12108,12432,1,12432,1,0.0017301,9.7498e-10,0,0.0017301,0.00025165,3.7069e+08,333.89,0,5.4538e+08,541.04,12431,12110,1,12110,1,0.00019458,-2.0613e-09,0,0.00079618,-3.5747e-05,6.4453e+07,-586.12,0,2.5868e+08,204.43,12109,11763,1,11763,1,-0.0013409,-8.3712e-09,0,2.3972e-05,-0.00032247,-5.4538e+08,-2045.5,0,7.8561e+06,-128.29,11762,11949,1,11949,1,-0.00060159,-4.1439e-09,0,0.00039809,-0.00018438,-2.4467e+08,-1077.5,0,1.3873e+08,70.021,11948,12271,1,12271,1,0.00099076,-9.4583e-10,0,0.0011943,0.00011312,2.5916e+08,-258.5,0,3.421e+08,372.16,12270,188.7,0,188.7,0,0.00091947,2.2443e-09,0,0.0004795,0.00017184,2.8508e+08,554.18,0,1.378e+08,167.61,188.7,1
644,5.37,12109,1,12109,1,0.00019593,3.9873e-09,0,0.00080963,-3.5845e-05,-289.19,1115.5,0,2.4959e+08,107.21,12108,12432,1,12432,1,0.0017348,7.4819e-09,0,0.0017348,0.00025203,3.7049e+08,2154,0,5.462e+08,413.76,12431,12110,1,12110,1,0.00019593,4.4974e-09,0,0.00079792,-3.5996e-05,6.4833e+07,1247.7,0,2.5891e+08,83.811,12109,11763,1,11763,1,-0.0013429,-1.0767e-09,0,2.4949e-05,-0.00032334,-5.462e+08,-368.72,0,8.2029e+06,-117.72,11762,11949,1,11949,1,-0.00060199,2.225e-09,0,0.00039896,-0.00018494,-2.4483e+08,548.74,0,1.3888e+08,27.007,11948,12271,1,12271,1,0.00099385,5.9974e-09,0,0.0011969,0.0001132,2.5939e+08,1707.8,0,3.4198e+08,176.6,12270,188.7,0,188.7,0,0.00092149,2.3982e-09,0,0.0004807,0.00017221,2.8532e+08,700.17,0,1.379e+08,112.03,188.7,1
644,5.38,12109,1,12109,1,0.00019729,-1.7598e-09,0,0.00081152,-3.6093e-05,-193.89,-427.89,0,2.4981e+08,197.56,12108,12432,1,12432,1,0.0017395,1.0022e-09,0,0.0017395,0.0002524,3.7029e+08,343.19,0,5.4701e+08,486.55,12431,12110,1,12110,1,0.00019729,-1.3157e-09,0,0.00079966,-3.6245e-05,6.5215e+07,-349.84,0,2.5914e+08,197.89,12109,11763,1,11763,1,-0.0013449,-6.0423e-09,0,2.5932e-05,-0.00032421,-5.4701e+08,-1408.6,0,8.551e+06,-45.763,11762,11949,1,11949,1,-0.00060237,-3.2382e-09,0,0.00039983,-0.00018552,-2.4498e+08,-789,0,1.3903e+08,71.252,11948,12271,1,12271,1,0.00099695,-1.7193e-10,0,0.0011995,0.00011327,2.5961e+08,-57.829,0,3.4185e+08,323.63,12270,188.7,0,188.7,0,0.00092349,1.8851e-09,0,0.0004819,0.00017258,2.8557e+08,456.83,0,1.38e+08,139.02,188.7,1
644,5.39,12109,1,12109,1,0.00019866,-1.1046e-09,0,0.00081343,-3.6342e-05,-225.48,-289.89,0,2.5003e+08,206.96,12108,12432,1,12432,1,0.0017442,8.7714e-10,0,0.0017442,0.00025278,3.7008e+08,274.25,0,5.4783e+08,504.95,12431,12110,1,12110,1,0.00019866,-7.5608e-10,0,0.00080141,-3.6496e-05,6.5599e+07,-220.41,0,2.5937e+08,207.06,12109,11763,1,11763,1,-0.0013469,-4.5685e-09,0,2.6926e-05,-0.00032508,-5.4783e+08,-1109.7,0,8.9015e+06,-58.682,11762,11949,1,11949,1,-0.00060275,-1.8932e-09,0,0.0004007,-0.00018609,-2.4514e+08,-513.61,0,1.3919e+08,76.684,11948,12271,1,12271,1,0.0010001,-1.2428e-10,0,0.0012021,0.00011334,2.5983e+08,-36.5,0,3.4172e+08,338.64,12270,188.7,0,188.7,0,0.00092551,1.2711e-09,0,0.00048312,0.00017296,2.8581e+08,318.24,0,1.381e+08,141.88,188.7,1
644,5.4,12109,1,12109,1,0.00020004,-8.3149e-09,0,0.00081534,-3.6593e-05,533.7,-2321.6,0,2.5025e+08,268.46,12108,12432,1,12432,1,0.001749,2.3816e-09,0,0.001749,0.00025316,3.6986e+08,815.63,0,5.4865e+08,652.92,12431,12110,1,12110,1,0.00020003,-8.8513e-09,0,0.00080315,-3.675e-05,6.5984e+07,-2471.7,0,2.5959e+08,277.45,12109,11763,1,11763,1,-0.0013489,-1.6743e-08,0,2.793e-05,-0.00032596,-5.4865e+08,-4738.3,0,9.2546e+06,-185.3,11762,11949,1,11949,1,-0.00060311,-1.263e-08,0,0.00040158,-0.00018667,-2.4529e+08,-3595.1,0,1.3934e+08,61.56,11948,12271,1,12271,1,0.0010032,-4.4512e-09,0,0.0012047,0.00011341,2.6004e+08,-1109.7,0,3.4158e+08,470.41,12270,188.7,0,188.7,0,0.00092753,5.3319e-09,0,0.00048433,0.00017333,2.8604e+08,1522.6,0,1.382e+08,229.84,188.7,1
644,5.41,12109,1,12109,1,0.00020142,1.5855e-09,0,0.00081726,-3.6847e-05,243.91,306.6,0,2.5047e+08,124.65,12108,12432,1,12432,1,0.0017538,6.8078e-09,0,0.0017538,0.00025353,3.6965e+08,1506.3,0,5.4946e+08,646.93,12431,12110,1,12110,1,0.00020142,9.0226e-10,0,0.00080491,-3.7005e-05,6.6372e+07,255.68,0,2.5982e+08,92.245,12109,11763,1,11763,1,-0.0013509,-1.9031e-09,0,2.8935e-05,-0.00032684,-5.4946e+08,-651.62,0,9.6067e+06,-100.67,11762,11949,1,11949,1,-0.00060349,-9.4814e-10,0,0.00040246,-0.00018725,-2.4544e+08,-324.67,0,1.3949e+08,20.187,11948,12271,1,12271,1,0.0010063,3.8739e-09,0,0.0012074,0.00011349,2.6026e+08,893.75,0,3.4144e+08,178.82,12270,188.7,0,188.7,0,0.00092956,2.6462e-09,0,0.00048556,0.00017371,2.8629e+08,642.17,0,1.3831e+08,143.53,188.7,1
644,5.42,12109,1,12109,1,0.00020282,-4.0182e-10,0,0.00081919,-3.7102e-05,221.41,-192.09,0,2.5068e+08,143.54,12108,12432,1,12432,1,0.0017586,3.8989e-09,0,0.0017586,0.00025391,3.6942e+08,838.62,0,5.5027e+08,548.89,12431,12110,1,12110,1,0.00020282,-6.6433e-10,0,0.00080667,-3.7263e-05,6.6762e+07,-189.57,0,2.6004e+08,133.97,12109,11763,1,11763,1,-0.0013529,-2.8932e-09,0,2.9958e-05,-0.00032773,-5.5027e+08,-954.75,0,9.9642e+06,-112.59,11762,11949,1,11949,1,-0.00060385,-1.9042e-09,0,0.00040334,-0.00018783,-2.4559e+08,-620.16,0,1.3964e+08,34.215,11948,12271,1,12271,1,0.0010095,1.0052e-09,0,0.00121,0.00011356,2.6047e+08,200.55,0,3.4129e+08,242.4,12270,188.7,0,188.7,0,0.0009316,1.7053e-09,0,0.00048679,0.00017409,2.8652e+08,466.17,0,1.3841e+08,133.48,188.7,1
644,5.43,12109,1,12109,1,0.00020423,-7.2209e-10,0,0.00082112,-3.736e-05,102.96,-275.53,0,2.5089e+08,162.49,12108,12432,1,12432,1,0.0017634,2.8909e-09,0,0.0017634,0.00025429,3.6918e+08,598.66,0,5.5108e+08,599.9,12431,12110,1,12110,1,0.00020423,-1.0131e-09,0,0.00080844,-3.7522e-05,6.7155e+07,-278.06,0,2.6027e+08,152.82,12109,11763,1,11763,1,-0.0013549,-2.9473e-09,0,3.0989e-05,-0.00032862,-5.5108e+08,-941.46,0,1.0323e+07,-70.125,11762,11949,1,11949,1,-0.00060421,-2.2075e-09,0,0.00040422,-0.00018841,-2.4573e+08,-699.67,0,1.3979e+08,44.786,11948,12271,1,12271,1,0.0010127,7.091e-10,0,0.0012127,0.00011363,2.6068e+08,134.66,0,3.4114e+08,244.6,12270,188.7,0,188.7,0,0.00093364,1.549e-09,0,0.00048803,0.00017447,2.8676e+08,438.71,0,1.3851e+08,136.01,188.7,1
644,5.44,12109,1,12109,1,0.00020565,3.5103e-09,0,0.00082305,-3.7619e-05,-15.966,894.63,0,2.511e+08,113.14,12108,12432,1,12432,1,0.0017682,8.1456e-09,0,0.0017682,0.00025466,3.6895e+08,2017.9,0,5.5189e+08,513.92,12431,12110,1,12110,1,0.00020565,3.9227e-09,0,0.00081021,-3.7783e-05,6.7548e+07,1060.5,0,2.6048e+08,97.947,12109,11763,1,11763,1,-0.0013569,-1.7901e-09,0,3.2029e-05,-0.00032951,-5.5189e+08,-613.04,0,1.0683e+07,-161.9,11762,11949,1,11949,1,-0.00060456,1.0792e-09,0,0.0004051,-0.000189,-2.4587e+08,272.92,0,1.3993e+08,18.329,11948,12271,1,12271,1,0.0010159,6.1233e-09,0,0.0012153,0.00011369,2.6089e+08,1529.3,0,3.4098e+08,195.47,12270,188.7,0,188.7,0,0.00093568,2.9183e-09,0,0.00048927,0.00017484,2.8699e+08,749.09,0,1.3861e+08,127.79,188.7,1
644,5.45,12109,1,12109,1,0.00020707,-2.1866e-09,0,0.00082497,-3.7878e-05,-179.65,-595.38,0,2.513e+08,275.95,12108,12432,1,12432,1,0.001773,1.8175e-09,0,0.001773,0.00025503,3.6869e+08,622.42,0,5.5269e+08,688.09,12431,12110,1,12110,1,0.00020707,-1.94e-09,0,0.00081196,-3.8044e-05,6.7942e+07,-566.3,0,2.6069e+08,280.25,12109,11763,1,11763,1,-0.0013589,-7.0215e-09,0,3.3075e-05,-0.00033039,-5.5269e+08,-1741.1,0,1.1045e+07,-99.929,11762,11949,1,11949,1,-0.00060489,-3.8162e-09,0,0.00040598,-0.00018958,-2.4601e+08,-1067.2,0,1.4008e+08,104.6,11948,12271,1,12271,1,0.001019,-4.4552e-10,0,0.0012179,0.00011376,2.6109e+08,-94.447,0,3.4081e+08,453.56,12270,188.7,0,188.7,0,0.0009377,2.2192e-09,0,0.0004905,0.00017522,2.8721e+08,581.69,0,1.387e+08,191.19,188.7,1
644,5.46,12109,1,12109,1,0.0002085,2.1191e-09,0,0.00082693,-3.814e-05,190.92,538.89,0,2.5152e+08,185.45,12108,12432,1,12432,1,0.0017779,5.3835e-09,0,0.0017779,0.00025541,3.6846e+08,1242.6,0,5.5351e+08,615.84,12431,12110,1,12110,1,0.0002085,2.2203e-09,0,0.00081375,-3.8308e-05,6.8339e+07,613.65,0,2.6091e+08,181.11,12109,11763,1,11763,1,-0.0013609,-1.0945e-09,0,3.4125e-05,-0.00033129,-5.5351e+08,-374.81,0,1.1406e+07,-91.078,11762,11949,1,11949,1,-0.00060525,7.6986e-10,0,0.00040687,-0.00019018,-2.4615e+08,204,0,1.4022e+08,56.294,11948,12271,1,12271,1,0.0010223,3.5818e-09,0,0.0012206,0.00011383,2.613e+08,893.37,0,3.4065e+08,290.24,12270,188.7,0,188.7,0,0.00093977,1.6889e-09,0,0.00049176,0.0001756,2.8745e+08,424.04,0,1.3881e+08,153.21,188.7,1
644,5.47,12109,1,12109,1,0.00020995,2.8337e-10,0,0.00082889,-3.8404e-05,-354.89,81.033,0,2.5172e+08,263.31,12108,12432,1,12432,1,0.0017828,3.0785e-09,0,0.0017828,0.00025578,3.682e+08,687.95,0,5.5432e+08,694.58,12431,12110,1,12110,1,0.00020995,2.5208e-10,0,0.00081553,-3.8574e-05,6.8739e+07,71.542,0,2.6113e+08,265.33,12109,11763,1,11763,1,-0.0013629,-2.537e-09,0,3.5193e-05,-0.0003322,-5.5432e+08,-563.43,0,1.1772e+07,-28.49,11762,11949,1,11949,1,-0.00060558,-1.4531e-10,0,0.00040777,-0.00019077,-2.4629e+08,-40.584,0,1.4037e+08,96.334,11948,12271,1,12271,1,0.0010255,7.5682e-10,0,0.0012233,0.00011389,2.615e+08,208.54,0,3.4048e+08,412.78,12270,188.7,0,188.7,0,0.00094183,9.3025e-10,0,0.00049302,0.00017598,2.8768e+08,225.34,0,1.3891e+08,175.7,188.7,1
644,5.48,12109,1,12109,1,0.00021141,4.531e-09,0,0.00083084,-3.8671e-05,-137.09,1246.2,0,2.5192e+08,286.79,12108,12432,1,12432,1,0.0017877,9.425e-09,0,0.0017877,0.00025616,3.6794e+08,2632.2,0,5.5512e+08,808.22,12431,12110,1,12110,1,0.00021141,5.1716e-09,0,0.00081731,-3.8842e-05,6.914e+07,1423.5,0,2.6133e+08,278.97,12109,11763,1,11763,1,-0.0013649,-2.3709e-09,0,3.627e-05,-0.0003331,-5.5512e+08,-811.94,0,1.214e+07,-162.75,11762,11949,1,11949,1,-0.0006059,2.0985e-09,0,0.00040866,-0.00019137,-2.4642e+08,486.56,0,1.4051e+08,97.597,11948,12271,1,12271,1,0.0010287,7.2644e-09,0,0.001226,0.00011396,2.617e+08,2041.7,0,3.403e+08,458.22,12270,188.7,0,188.7,0,0.00094389,3.2668e-09,0,0.00049429,0.00017637,2.879e+08,917.04,0,1.39e+08,221.6,188.7,1
644,5.49,12109,1,12109,1,0.00021288,9.9562e-10,0,0.00083281,-3.894e-05,-142.92,367.33,0,2.5213e+08,237.8,12108,12432,1,12432,1,0.0017926,4.2873e-09,0,0.0017926,0.00025653,3.6767e+08,1467.3,0,5.5593e+08,630.62,12431,12110,1,12110,1,0.00021288,1.2128e-09,0,0.00081911,-3.9112e-05,6.9544e+07,331.24,0,2.6155e+08,231.01,12109,11763,1,11763,1,-0.0013668,-3.8638e-09,0,3.7351e-05,-0.00033401,-5.5593e+08,-775.11,0,1.2508e+07,-22.639,11762,11949,1,11949,1,-0.00060623,-5.3769e-10,0,0.00040956,-0.00019197,-2.4655e+08,-117.04,0,1.4065e+08,73.289,11948,12271,1,12271,1,0.001032,2.5123e-09,0,0.0012287,0.00011402,2.619e+08,792.4,0,3.4012e+08,377.72,12270,188.7,0,188.7,0,0.00094596,1.9057e-09,0,0.00049557,0.00017675,2.8813e+08,552.19,0,1.391e+08,172.94,188.7,1
644,5.5,12109,1,12109,1,0.00021437,-6.5375e-10,0,0.00083478,-3.9211e-05,-111.26,-82.522,0,2.5233e+08,311.07,12108,12432,1,12432,1,0.0017976,2.7113e-09,0,0.0017976,0.00025691,3.674e+08,928.14,0,5.5674e+08,778.23,12431,12110,1,12110,1,0.00021436,-1.6189e-10,0,0.00082091,-3.9385e-05,6.9951e+07,-45.554,0,2.6175e+08,309.18,12109,11763,1,11763,1,-0.0013688,-6.8582e-09,0,3.8449e-05,-0.00033493,-5.5674e+08,-1456.7,0,1.288e+07,-58.454,11762,11949,1,11949,1,-0.00060655,-1.8558e-09,0,0.00041046,-0.00019258,-2.4668e+08,-392.52,0,1.4079e+08,114.1,11948,12271,1,12271,1,0.0010353,7.1566e-10,0,0.0012314,0.00011408,2.621e+08,244.41,0,3.3993e+08,495.46,12270,188.7,0,188.7,0,0.00094804,2.0519e-09,0,0.00049685,0.00017714,2.8835e+08,505.3,0,1.392e+08,217.82,188.7,1
644,5.51,12109,1,12109,1,0.00021586,-1.1237e-09,0,0.00083676,-3.9483e-05,-314.71,-232.45,0,2.5252e+08,348.81,12108,12432,1,12432,1,0.0018025,2.1783e-09,0,0.0018025,0.00025728,3.6711e+08,745.84,0,5.5754e+08,855.54,12431,12110,1,12110,1,0.00021585,-2.5517e-10,0,0.00082271,-3.9659e-05,7.0359e+07,-76.774,0,2.6195e+08,343.16,12109,11763,1,11763,1,-0.0013708,-7.2218e-09,0,3.9556e-05,-0.00033584,-5.5754e+08,-1595.4,0,1.3254e+07,-50.08,11762,11949,1,11949,1,-0.00060685,-2.3459e-09,0,0.00041136,-0.00019318,-2.4681e+08,-544.64,0,1.4093e+08,141.71,11948,12271,1,12271,1,0.0010386,3.4571e-10,0,0.0012341,0.00011414,2.6229e+08,103.45,0,3.3973e+08,557.73,12270,188.7,0,188.7,0,0.00095012,2.061e-09,0,0.00049813,0.00017752,2.8857e+08,488.22,0,1.393e+08,230.12,188.7,1
644,5.52,12109,1,12109,1,0.00021736,-1.249e-09,0,0.00083873,-3.9757e-05,-129.66,-303.01,0,2.5271e+08,347.84,12108,12432,1,12432,1,0.0018075,2.1657e-09,0,0.0018075,0.00025765,3.6682e+08,615,0,5.5834e+08,873.28,12431,12110,1,12110,1,0.00021735,-7.028e-10,0,0.0008245,-3.9935e-05,7.0768e+07,-217.08,0,2.6215e+08,346.54,12109,11763,1,11763,1,-0.0013728,-6.9808e-09,0,4.0672e-05,-0.00033675,-5.5834e+08,-1594.3,0,1.3629e+07,-88.68,11762,11949,1,11949,1,-0.00060715,-2.4358e-09,0,0.00041225,-0.00019379,-2.4693e+08,-582.86,0,1.4107e+08,118.85,11948,12271,1,12271,1,0.0010419,1.8505e-10,0,0.0012368,0.0001142,2.6248e+08,54.708,0,3.3953e+08,566.48,12270,188.7,0,188.7,0,0.00095219,1.9761e-09,0,0.00049942,0.0001779,2.8878e+08,471.85,0,1.394e+08,242.8,188.7,1
644,5.53,12109,1,12109,1,0.00021887,5.239e-09,0,0.00084073,-4.0033e-05,186.49,1441.1,0,2.5291e+08,370.26,12108,12432,1,12432,1,0.0018125,9.7411e-09,0,0.0018125,0.00025803,3.6654e+08,2745.6,0,5.5916e+08,970.01,12431,12110,1,12110,1,0.00021887,5.8974e-09,0,0.00082633,-4.0213e-05,7.1181e+07,1608.1,0,2.6236e+08,374.75,12109,11763,1,11763,1,-0.0013748,-1.4586e-09,0,4.1795e-05,-0.00033769,-5.5916e+08,-499.51,0,1.4006e+07,-86.169,11762,11949,1,11949,1,-0.00060746,2.8874e-09,0,0.00041316,-0.0001944,-2.4705e+08,701.89,0,1.4121e+08,129.27,11948,12271,1,12271,1,0.0010452,7.847e-09,0,0.0012395,0.00011426,2.6267e+08,2269.5,0,3.3933e+08,588.27,12270,188.7,0,188.7,0,0.0009543,3.1827e-09,0,0.00050073,0.0001783,2.8901e+08,907.66,0,1.395e+08,265.08,188.7,1
644,5.54,12109,1,12109,1,0.0002204,-4.1416e-10,0,0.00084274,-4.0313e-05,-121.2,-18.444,0,2.5311e+08,335.88,12108,12432,1,12432,1,0.0018176,3.2578e-09,0,0.0018176,0.0002584,3.6624e+08,1115.2,0,5.5996e+08,888.31,12431,12110,1,12110,1,0.0002204,9.9593e-11,0,0.00082815,-4.0495e-05,7.1597e+07,29.514,0,2.6256e+08,329.79,12109,11763,1,11763,1,-0.0013768,-6.4949e-09,0,4.2932e-05,-0.00033862,-5.5996e+08,-1353.5,0,1.4386e+07,-67.263,11762,11949,1,11949,1,-0.00060775,-1.5794e-09,0,0.00041408,-0.00019502,-2.4717e+08,-331.81,0,1.4134e+08,114.09,11948,12271,1,12271,1,0.0010486,9.3099e-10,0,0.0012422,0.00011432,2.6286e+08,301.51,0,3.3912e+08,542.95,12270,188.7,0,188.7,0,0.0009564,2.0281e-09,0,0.00050204,0.00017869,2.8922e+08,504.17,0,1.396e+08,238.11,188.7,1
644,5.55,12109,1,12109,1,0.00022194,-5.6051e-09,0,0.00084475,-4.0596e-05,-80.872,-1458.5,0,2.533e+08,272.66,12108,12432,1,12432,1,0.0018226,1.5633e-09,0,0.0018226,0.00025877,3.6594e+08,535.37,0,5.6077e+08,849.47,12431,12110,1,12110,1,0.00022194,-5.552e-09,0,0.00082998,-4.0779e-05,7.2016e+07,-1602.8,0,2.6275e+08,261.02,12109,11763,1,11763,1,-0.0013787,-1.3222e-08,0,4.4085e-05,-0.00033955,-5.6077e+08,-3059.1,0,1.4769e+07,-105.13,11762,11949,1,11949,1,-0.00060804,-8.7459e-09,0,0.00041499,-0.00019564,-2.4728e+08,-2231.4,0,1.4148e+08,64.545,11948,12271,1,12271,1,0.0010519,-2.6364e-09,0,0.001245,0.00011437,2.6304e+08,-709.3,0,3.389e+08,452.51,12270,188.7,0,188.7,0,0.00095851,3.8261e-09,0,0.00050336,0.00017908,2.8944e+08,950.9,0,1.3969e+08,224.32,188.7,1
644,5.56,12109,1,12109,1,0.00022349,-7.6077e-10,0,0.00084676,-4.0879e-05,-41.161,-233.46,0,2.5348e+08,357.02,12108,12432,1,12432,1,0.0018277,3.6061e-09,0,0.0018277,0.00025915,3.6562e+08,737.37,0,5.6157e+08,1042.5,12431,12110,1,12110,1,0.00022349,-9.1071e-10,0,0.0008318,-4.1064e-05,7.2435e+07,-252.6,0,2.6294e+08,343.21,12109,11763,1,11763,1,-0.0013807,-5.0188e-09,0,4.5242e-05,-0.00034049,-5.6157e+08,-1136.9,0,1.5153e+07,-55.321,11762,11949,1,11949,1,-0.00060831,-1.7966e-09,0,0.0004159,-0.00019626,-2.474e+08,-543.2,0,1.4161e+08,106.98,11948,12271,1,12271,1,0.0010553,3.4945e-10,0,0.0012477,0.00011443,2.6322e+08,72.774,0,3.3868e+08,588.85,12270,188.7,0,188.7,0,0.00096062,1.5771e-09,0,0.00050468,0.00017947,2.8965e+08,403.38,0,1.3979e+08,263.99,188.7,1
644,5.57,12109,1,12109,1,0.00022506,-2.2062e-09,0,0.00084878,-4.1165e-05,34.486,-666.31,0,2.5367e+08,383.78,12108,12432,1,12432,1,0.0018328,4.3272e-09,0,0.0018328,0.00025952,3.6531e+08,850.9,0,5.6238e+08,1091.4,12431,12110,1,12110,1,0.00022505,-2.6684e-09,0,0.00083364,-4.1351e-05,7.2857e+07,-751.08,0,2.6314e+08,391.67,12109,11763,1,11763,1,-0.0013827,-7.2451e-09,0,4.6413e-05,-0.00034143,-5.6238e+08,-1738.3,0,1.554e+07,-99.529,11762,11949,1,11949,1,-0.00060859,-4.1941e-09,0,0.00041682,-0.00019689,-2.4751e+08,-1284.9,0,1.4174e+08,124.72,11948,12271,1,12271,1,0.0010587,-2.4098e-10,0,0.0012505,0.00011448,2.634e+08,-47.78,0,3.3845e+08,627.43,12270,188.7,0,188.7,0,0.00096275,2.4323e-09,0,0.00050602,0.00017986,2.8986e+08,663.48,0,1.3989e+08,280.12,188.7,1
644,5.58,12109,1,12109,1,0.00022664,6.4659e-09,0,0.00085081,-4.1453e-05,61.872,1666.5,0,2.5385e+08,519.15,12108,12432,1,12432,1,0.0018379,1.3386e-08,0,0.0018379,0.00025989,3.6498e+08,3199.2,0,5.6318e+08,1535.2,12431,12110,1,12110,1,0.00022663,7.1181e-09,0,0.00083549,-4.1641e-05,7.3282e+07,1906.7,0,2.6332e+08,508.81,12109,11763,1,11763,1,-0.0013847,-2.0845e-09,0,4.7596e-05,-0.00034237,-5.6318e+08,-713.82,0,1.593e+07,-107.31,11762,11949,1,11949,1,-0.00060885,2.9839e-09,0,0.00041774,-0.00019752,-2.4762e+08,706.96,0,1.4187e+08,159.31,11948,12271,1,12271,1,0.0010621,1.0355e-08,0,0.0012532,0.00011454,2.6358e+08,2662.1,0,3.3822e+08,804.23,12270,188.7,0,188.7,0,0.00096487,4.4707e-09,0,0.00050736,0.00018026,2.9007e+08,1136.9,0,1.3999e+08,391.13,188.7,1
644,5.59,12109,1,12109,1,0.00022822,-2.8182e-10,0,0.00085285,-4.1743e-05,-93.073,-36.331,0,2.5404e+08,497.82,12108,12432,1,12432,1,0.0018431,4.512e-09,0,0.0018431,0.00026026,3.6465e+08,1149.3,0,5.6398e+08,1206.8,12431,12110,1,12110,1,0.00022822,-3.4013e-11,0,0.00083733,-4.1933e-05,7.3708e+07,-7.8722,0,2.6351e+08,496.67,12109,11763,1,11763,1,-0.0013866,-7.3137e-09,0,4.8788e-05,-0.00034332,-5.6398e+08,-1530.2,0,1.6322e+07,-49.919,11762,11949,1,11949,1,-0.00060911,-1.1308e-09,0,0.00041867,-0.00019815,-2.4772e+08,-299.87,0,1.4215e+08,171.04,11948,12271,1,12271,1,0.0010656,9.0364e-10,0,0.001256,0.00011459,2.6375e+08,257.29,0,3.3798e+08,817.2,12270,188.7,0,188.7,0,0.000967,2.0698e-09,0,0.00050871,0.00018065,2.9027e+08,491.87,0,1.4008e+08,347.96,188.7,1
644,5.6,12109,1,12109,1,0.00022982,-4.9326e-10,0,0.0008549,-4.2036e-05,-5.3547,-107.33,0,2.5422e+08,487.56,12108,12432,1,12432,1,0.0018483,3.8468e-09,0,0.0018483,0.00026064,3.6431e+08,1166.9,0,5.6479e+08,1291.8,12431,12110,1,12110,1,0.00022982,-3.4102e-10,0,0.00083919,-4.2227e-05,7.4138e+07,-97.05,0,2.637e+08,487.23,12109,11763,1,11763,1,-0.0013886,-6.7709e-09,0,4.9991e-05,-0.00034428,-5.6479e+08,-1404.2,0,1.6716e+07,-35.244,11762,11949,1,11949,1,-0.00060937,-1.4932e-09,0,0.0004196,-0.00019879,-2.4783e+08,-393.44,0,1.4259e+08,144.2,11948,12271,1,12271,1,0.001069,6.5714e-10,0,0.0012588,0.00011464,2.6392e+08,167.45,0,3.3774e+08,797.48,12270,188.7,0,188.7,0,0.00096915,1.9012e-09,0,0.00051007,0.00018105,2.9048e+08,475.39,0,1.4018e+08,352.77,188.7,1
644,5.61,12109,1,12109,1,0.00023144,3.4674e-09,0,0.00085695,-4.2331e-05,91.306,958.99,0,2.544e+08,622.32,12108,12432,1,12432,1,0.0018535,9.3485e-09,0,0.0018535,0.00026101,3.6397e+08,2435.2,0,5.6559e+08,1585.8,12431,12110,1,12110,1,0.00023144,3.9388e-09,0,0.00084105,-4.2524e-05,7.457e+07,1047.4,0,2.6388e+08,618.7,12109,11763,1,11763,1,-0.0013906,-3.3463e-09,0,5.1208e-05,-0.00034524,-5.6559e+08,-622.63,0,1.7113e+07,-37.168,11762,11949,1,11949,1,-0.00060961,1.0108e-09,0,0.00042053,-0.00019943,-2.4793e+08,244.82,0,1.4302e+08,204.88,11948,12271,1,12271,1,0.0010725,5.9873e-09,0,0.0012616,0.00011469,2.6409e+08,1673.3,0,3.3748e+08,1013.9,12270,188.7,0,188.7,0,0.0009713,2.9036e-09,0,0.00051143,0.00018145,2.9068e+08,800.33,0,1.4028e+08,440.66,188.7,1
644,5.62,12109,1,12109,1,0.00023307,-3.2064e-09,0,0.00085901,-4.2629e-05,138.27,-788.06,0,2.5457e+08,563.35,12108,12432,1,12432,1,0.0018587,3.1072e-09,0,0.0018587,0.00026138,3.6362e+08,1063.9,0,5.6639e+08,1427.3,12431,12110,1,12110,1,0.00023306,-3.0698e-09,0,0.00084292,-4.2824e-05,7.5004e+07,-842.3,0,2.6406e+08,563.43,12109,11763,1,11763,1,-0.0013926,-1.268e-08,0,5.2435e-05,-0.00034621,-5.6639e+08,-2705.6,0,1.7513e+07,-58.314,11762,11949,1,11949,1,-0.00060985,-5.0896e-09,0,0.00042146,-0.00020007,-2.4802e+08,-1328.8,0,1.4345e+08,165.21,11948,12271,1,12271,1,0.001076,-5.4322e-10,0,0.0012644,0.00011473,2.6426e+08,-132.51,0,3.3723e+08,937.7,12270,188.7,0,188.7,0,0.00097346,3.3197e-09,0,0.00051281,0.00018185,2.9088e+08,782.86,0,1.4038e+08,407.37,188.7,1
644,5.63,12109,1,12109,1,0.00023471,-8.5006e-10,0,0.00086107,-4.2928e-05,-170.22,-215.49,0,2.5474e+08,643.4,12108,12432,1,12432,1,0.0018639,6.5405e-09,0,0.0018639,0.00026175,3.6326e+08,1316.5,0,5.6719e+08,1645.9,12431,12110,1,12110,1,0.0002347,-8.0251e-10,0,0.00084478,-4.3124e-05,7.544e+07,-236.12,0,2.6423e+08,634.4,12109,11763,1,11763,1,-0.0013945,-9.4718e-09,0,5.3674e-05,-0.00034717,-5.6719e+08,-2025.3,0,1.7915e+07,-84.651,11762,11949,1,11949,1,-0.00061008,-2.3195e-09,0,0.00042239,-0.00020071,-2.4811e+08,-634.33,0,1.4389e+08,207.65,11948,12271,1,12271,1,0.0010795,8.9087e-10,0,0.0012672,0.00011478,2.6442e+08,226.14,0,3.3696e+08,1051.4,12270,188.7,0,188.7,0,0.00097561,2.7717e-09,0,0.00051418,0.00018225,2.9108e+08,657.99,0,1.4047e+08,454.22,188.7,1
644,5.64,12109,1,12109,1,0.00023636,4.5621e-09,0,0.00086316,-4.323e-05,-21.547,1218.2,0,2.5492e+08,703.08,12108,12432,1,12432,1,0.0018692,1.282e-08,0,0.0018692,0.00026212,3.629e+08,3070.2,0,5.68e+08,1778.6,12431,12110,1,12110,1,0.00023635,5.1297e-09,0,0.00084667,-4.3428e-05,7.5878e+07,1357,0,2.6441e+08,694.09,12109,11763,1,11763,1,-0.0013965,-2.4733e-09,0,5.4921e-05,-0.00034815,-5.68e+08,-747.12,0,1.8318e+07,-92.535,11762,11949,1,11949,1,-0.00061031,1.3838e-09,0,0.00042333,-0.00020136,-2.4821e+08,337.03,0,1.4432e+08,214.6,11948,12271,1,12271,1,0.001083,7.6293e-09,0,0.00127,0.00011483,2.6459e+08,2129.1,0,3.367e+08,1160.4,12270,188.7,0,188.7,0,0.00097779,3.7175e-09,0,0.00051558,0.00018265,2.9128e+08,989.54,0,1.4057e+08,495.44,188.7,1
644,5.65,12109,1,12109,1,0.00023802,3.9261e-09,0,0.00086522,-4.3533e-05,632.29,1152.4,0,2.5508e+08,790.57,12108,12432,1,12432,1,0.0018745,1.2655e-08,0,0.0018745,0.00026249,3.6252e+08,3265.4,0,5.6878e+08,1893.8,12431,12110,1,12110,1,0.00023801,4.6383e-09,0,0.00084852,-4.3733e-05,7.6318e+07,1286.5,0,2.6457e+08,780.92,12109,11763,1,11763,1,-0.0013984,-7.1586e-09,0,5.6182e-05,-0.00034912,-5.6878e+08,-1358.3,0,1.8725e+07,-112.99,11762,11949,1,11949,1,-0.00061051,5.2513e-10,0,0.00042427,-0.00020201,-2.4829e+08,122.69,0,1.4476e+08,258.16,11948,12271,1,12271,1,0.0010865,7.3868e-09,0,0.0012728,0.00011487,2.6474e+08,2197,0,3.3641e+08,1309.4,12270,188.7,0,188.7,0,0.00097993,4.185e-09,0,0.00051696,0.00018305,2.9147e+08,1139.1,0,1.4066e+08,561.34,188.7,1
644,5.66,12109,1,12109,1,0.00023969,1.6889e-09,0,0.00086733,-4.3839e-05,-25.585,626.45,0,2.5526e+08,791.92,12108,12432,1,12432,1,0.0018799,9.0917e-09,0,0.0018799,0.00026287,3.6216e+08,3111.3,0,5.696e+08,1985.5,12431,12110,1,12110,1,0.00023968,2.3764e-09,0,0.00085043,-4.404e-05,7.676e+07,662.6,0,2.6475e+08,783.28,12109,11763,1,11763,1,-0.0014005,-1.1047e-08,0,5.7442e-05,-0.00035011,-5.696e+08,-2143.5,0,1.9131e+07,-55.772,11762,11949,1,11949,1,-0.00061075,-1.071e-09,0,0.00042522,-0.00020267,-2.4839e+08,-234.37,0,1.452e+08,250.52,11948,12271,1,12271,1,0.0010901,5.258e-09,0,0.0012757,0.00011492,2.649e+08,1568.5,0,3.3615e+08,1318.5,12270,188.7,0,188.7,0,0.00098214,4.2288e-09,0,0.00051838,0.00018346,2.9167e+08,1116.1,0,1.4077e+08,559.58,188.7,1
644,5.67,12109,1,12109,1,0.0002414,1.6364e-09,0,0.00086944,-4.4151e-05,328.56,633.44,0,2.5543e+08,797.88,12108,12432,1,12432,1,0.0018853,1.0503e-08,0,0.0018853,0.00026324,3.6177e+08,3594.2,0,5.7041e+08,1989.2,12431,12110,1,12110,1,0.00024139,2.284e-09,0,0.00085234,-4.4353e-05,7.721e+07,623.49,0,2.6492e+08,784.39,12109,11763,1,11763,1,-0.0014024,-1.1621e-08,0,5.8735e-05,-0.0003511,-5.7041e+08,-2229.7,0,1.9546e+07,-86.951,11762,11949,1,11949,1,-0.00061096,-1.0071e-09,0,0.00042618,-0.00020334,-2.4847e+08,-233.59,0,1.4564e+08,226.24,11948,12271,1,12271,1,0.0010937,4.8108e-09,0,0.0012785,0.00011496,2.6506e+08,1377.9,0,3.3586e+08,1330.9,12270,188.7,0,188.7,0,0.00098435,4.3737e-09,0,0.00051981,0.00018387,2.9187e+08,1184.2,0,1.4086e+08,569.02,188.7,1
644,5.68,12109,1,12109,1,0.00024312,1.3217e-09,0,0.00087156,-4.4465e-05,68.396,586.28,0,2.5559e+08,898.83,12108,12432,1,12432,1,0.0018907,1.1073e-08,0,0.0018907,0.00026361,3.6137e+08,3789.2,0,5.7121e+08,2122.2,12431,12110,1,12110,1,0.00024311,2.149e-09,0,0.00085425,-4.4668e-05,7.7661e+07,605.88,0,2.6509e+08,898.78,12109,11763,1,11763,1,-0.0014044,-1.3996e-08,0,6.0041e-05,-0.0003521,-5.7121e+08,-2696.1,0,1.9964e+07,-94.369,11762,11949,1,11949,1,-0.00061115,-1.4423e-09,0,0.00042714,-0.000204,-2.4855e+08,-315.99,0,1.4608e+08,297.66,11948,12271,1,12271,1,0.0010974,4.9518e-09,0,0.0012814,0.000115,2.6521e+08,1449.5,0,3.3556e+08,1482.1,12270,188.7,0,188.7,0,0.00098656,5.0167e-09,0,0.00052124,0.00018427,2.9206e+08,1324.8,0,1.4096e+08,625.52,188.7,1
644,5.69,12109,1,12109,1,0.00024484,3.4958e-09,0,0.00087368,-4.478e-05,-225.41,1203.9,0,2.5575e+08,1022,12108,12432,1,12432,1,0.0018961,1.3614e-08,0,0.0018961,0.00026398,3.6097e+08,4658.9,0,5.7201e+08,2362.7,12431,12110,1,12110,1,0.00024483,4.7302e-09,0,0.00085618,-4.4985e-05,7.8113e+07,1280.9,0,2.6525e+08,1020.6,12109,11763,1,11763,1,-0.0014064,-1.3767e-08,0,6.0937e-05,-0.0003531,-5.7201e+08,-2611.2,0,2.0384e+07,-86.448,11762,11949,1,11949,1,-0.00061134,-9.7421e-10,0,0.00042808,-0.00020467,-2.4862e+08,-244.02,0,1.4653e+08,354.49,11948,12271,1,12271,1,0.001101,8.6773e-09,0,0.0012843,0.00011504,2.6535e+08,2546.4,0,3.3526e+08,1673.1,12270,188.7,0,188.7,0,0.00098877,6.0327e-09,0,0.00052268,0.00018468,2.9225e+08,1659.9,0,1.4106e+08,698.78,188.7,1
644,5.7,12109,1,12109,1,0.00024658,-1.1358e-10,0,0.00087582,-4.5099e-05,226.88,318.98,0,2.5591e+08,948.52,12108,12432,1,12432,1,0.0019016,1.2388e-08,0,0.0019016,0.00026436,3.6057e+08,4240.3,0,5.7281e+08,2349.9,12431,12110,1,12110,1,0.00024657,1.1817e-09,0,0.00085811,-4.5305e-05,7.8569e+07,349.12,0,2.6541e+08,939.61,12109,11763,1,11763,1,-0.0014083,-1.9307e-08,0,5.9882e-05,-0.00035411,-5.7281e+08,-3771.3,0,2.0806e+07,-69.258,11762,11949,1,11949,1,-0.00061152,-3.9772e-09,0,0.00042904,-0.00020535,-2.487e+08,-788.12,0,1.4697e+08,295.27,11948,12271,1,12271,1,0.0011047,4.2904e-09,0,0.0012871,0.00011507,2.655e+08,1403.8,0,3.3495e+08,1558.9,12270,188.7,0,188.7,0,0.000991,6.6301e-09,0,0.00052413,0.0001851,2.9243e+08,1681.6,0,1.4116e+08,671.95,188.7,1
644,5.71,12109,1,12109,1,0.00024834,1.531e-09,0,0.00087798,-4.542e-05,84.097,748.59,0,2.5607e+08,1023.4,12108,12432,1,12432,1,0.0019071,1.4469e-08,0,0.0019071,0.00026473,3.6016e+08,4951.2,0,5.7362e+08,2478.1,12431,12110,1,12110,1,0.00024833,2.6585e-09,0,0.00086005,-4.5629e-05,7.9028e+07,751.14,0,2.6557e+08,1024.7,12109,11763,1,11763,1,-0.0014103,-1.7592e-08,0,5.8816e-05,-0.00035512,-5.7362e+08,-3348,0,2.1233e+07,-114.13,11762,11949,1,11949,1,-0.00061171,-2.4305e-09,0,0.00043001,-0.00020603,-2.4877e+08,-455.18,0,1.4742e+08,321.01,11948,12271,1,12271,1,0.0011084,6.1256e-09,0,0.0012901,0.00011511,2.6565e+08,1931.2,0,3.3464e+08,1689.3,12270,188.7,0,188.7,0,0.00099324,6.618e-09,0,0.0005256,0.00018551,2.9262e+08,1756,0,1.4125e+08,716.47,188.7,1
644,5.72,12109,1,12109,1,0.00025012,1.0862e-09,0,0.00088013,-4.5744e-05,500.28,672.14,0,2.5623e+08,1167.1,12108,12432,1,12432,1,0.0019126,1.44e-08,0,0.0019126,0.0002651,3.5973e+08,4929.1,0,5.7442e+08,2772.4,12431,12110,1,12110,1,0.00025011,2.7346e-09,0,0.00086199,-4.5954e-05,7.949e+07,742.33,0,2.6572e+08,1150.7,12109,11763,1,11763,1,-0.0014123,-2.1442e-08,0,5.7732e-05,-0.00035614,-5.7442e+08,-4152.2,0,2.1663e+07,-107.37,11762,11949,1,11949,1,-0.00061187,-3.0529e-09,0,0.00043098,-0.00020671,-2.4884e+08,-585.78,0,1.4787e+08,394.74,11948,12271,1,12271,1,0.0011121,6.5901e-09,0,0.001293,0.00011514,2.6578e+08,1966.9,0,3.3432e+08,1936,12270,188.7,0,188.7,0,0.00099547,7.5241e-09,0,0.00052707,0.00018593,2.928e+08,1934.4,0,1.4135e+08,819.69,188.7,1
644,5.73,12109,1,12109,1,0.00025191,-5.2991e-10,0,0.00088231,-4.6072e-05,14.426,263.23,0,2.5638e+08,1188.1,12108,12432,1,12432,1,0.0019182,1.4081e-08,0,0.0019182,0.00026548,3.5931e+08,4819.5,0,5.7523e+08,2849.5,12431,12110,1,12110,1,0.0002519,1.0237e-09,0,0.00086396,-4.6283e-05,7.9954e+07,313.56,0,2.6588e+08,1172.9,12109,11763,1,11763,1,-0.0014143,-2.3493e-08,0,5.6644e-05,-0.00035717,-5.7523e+08,-4563.9,0,2.2096e+07,-54.803,11762,11949,1,11949,1,-0.00061204,-4.8477e-09,0,0.00043196,-0.0002074,-2.4891e+08,-967.39,0,1.4833e+08,407.24,11948,12271,1,12271,1,0.0011159,4.4349e-09,0,0.0012959,0.00011518,2.6593e+08,1468.7,0,3.34e+08,1946,12270,188.7,0,188.7,0,0.00099775,7.766e-09,0,0.00052856,0.00018635,2.9299e+08,1937.1,0,1.4145e+08,823.78,188.7,1
644,5.74,12109,1,12109,1,0.00025372,1.2495e-09,0,0.0008845,-4.6403e-05,-174.07,723.96,0,2.5654e+08,1244.5,12108,12432,1,12432,1,0.0019238,1.6441e-08,0,0.0019238,0.00026585,3.5887e+08,5626,0,5.7604e+08,2950.4,12431,12110,1,12110,1,0.00025371,2.6386e-09,0,0.00086593,-4.6616e-05,8.0424e+07,695.04,0,2.6603e+08,1239.2,12109,11763,1,11763,1,-0.0014163,-2.1474e-08,0,5.5534e-05,-0.0003582,-5.7604e+08,-4081.4,0,2.2534e+07,-51.086,11762,11949,1,11949,1,-0.0006122,-2.9831e-09,0,0.00043295,-0.0002081,-2.4897e+08,-563.29,0,1.4878e+08,399.3,11948,12271,1,12271,1,0.0011196,6.3943e-09,0,0.0012989,0.00011521,2.6606e+08,2024.5,0,3.3366e+08,2050.9,12270,188.7,0,188.7,0,0.001,7.6736e-09,0,0.00053006,0.00018677,2.9317e+08,2000.8,0,1.4155e+08,863.72,188.7,1
644,5.75,12109,1,12109,1,0.00025555,-1.01e-09,0,0.00088669,-4.6737e-05,61.182,164.34,0,2.5669e+08,1302.3,12108,12432,1,12432,1,0.0019294,1.5984e-08,0,0.0019294,0.00026622,3.5842e+08,5471.1,0,5.7684e+08,3165,12431,12110,1,12110,1,0.00025554,7.2593e-10,0,0.0008679,-4.6952e-05,8.0896e+07,206.15,0,2.6618e+08,1306.5,12109,11763,1,11763,1,-0.0014183,-2.636e-08,0,5.4408e-05,-0.00035924,-5.7684e+08,-5087.9,0,2.2136e+07,-46.383,11762,11949,1,11949,1,-0.00061234,-5.5428e-09,0,0.00043393,-0.0002088,-2.4903e+08,-1075.2,0,1.4924e+08,410.58,11948,12271,1,12271,1,0.0011234,4.181e-09,0,0.0013018,0.00011524,2.6619e+08,1371.1,0,3.3332e+08,2155.5,12270,188.7,0,188.7,0,0.0010023,8.5061e-09,0,0.00053157,0.00018719,2.9335e+08,2106.6,0,1.4165e+08,915.65,188.7,1
644,5.76,12109,1,12109,1,0.0002574,1.1918e-10,0,0.0008889,-4.7074e-05,225.53,434.68,0,2.5683e+08,1504.5,12108,12432,1,12432,1,0.0019351,1.6315e-08,0,0.0019351,0.0002666,3.5797e+08,5584.3,0,5.7765e+08,3527.4,12431,12110,1,12110,1,0.00025738,1.8114e-09,0,0.00086988,-4.729e-05,8.137e+07,520.29,0,2.6632e+08,1480.8,12109,11763,1,11763,1,-0.0014202,-2.6945e-08,0,5.3275e-05,-0.00036028,-5.7765e+08,-5192.3,0,2.1681e+07,-123.49,11762,11949,1,11949,1,-0.00061248,-3.8354e-09,0,0.00043492,-0.0002095,-2.4909e+08,-723.08,0,1.4969e+08,526.16,11948,12271,1,12271,1,0.0011273,5.6531e-09,0,0.0013048,0.00011527,2.6632e+08,1668.3,0,3.3297e+08,2492,12270,188.7,0,188.7,0,0.0010046,8.5721e-09,0,0.0005331,0.00018761,2.9353e+08,2125.2,0,1.4175e+08,1048.6,188.7,1
644,5.77,12109,1,12109,1,0.00025926,-2.7775e-09,0,0.00089112,-4.7414e-05,-295.95,-327.63,0,2.5698e+08,1542.9,12108,12432,1,12432,1,0.0019408,1.4718e-08,0,0.0019408,0.00026697,3.5751e+08,5037.8,0,5.7846e+08,3684.6,12431,12110,1,12110,1,0.00025924,-7.5094e-10,0,0.00087188,-4.7632e-05,8.1849e+07,-170.57,0,2.6645e+08,1525.1,12109,11763,1,11763,1,-0.0014222,-3.0601e-08,0,5.2127e-05,-0.00036134,-5.7846e+08,-5990.6,0,2.1221e+07,-60.602,11762,11949,1,11949,1,-0.00061262,-7.0673e-09,0,0.00043593,-0.00021021,-2.4915e+08,-1446.9,0,1.5015e+08,517.09,11948,12271,1,12271,1,0.0011311,2.6587e-09,0,0.0013078,0.0001153,2.6645e+08,783.05,0,3.3262e+08,2533.8,12270,188.7,0,188.7,0,0.0010069,8.9397e-09,0,0.00053463,0.00018804,2.937e+08,2110.9,0,1.4185e+08,1068.3,188.7,1
644,5.78,12109,1,12109,1,0.00026114,-6.086e-10,0,0.00089336,-4.7758e-05,-424.76,188.88,0,2.5712e+08,1702.8,12108,12432,1,12432,1,0.0019465,1.588e-08,0,0.0019465,0.00026735,3.5704e+08,5435.2,0,5.7926e+08,3903.8,12431,12110,1,12110,1,0.00026112,9.5627e-10,0,0.00087389,-4.7977e-05,8.2331e+07,272.64,0,2.6657e+08,1672.9,12109,11763,1,11763,1,-0.0014242,-2.8291e-08,0,5.0962e-05,-0.0003624,-5.7926e+08,-5459.1,0,2.0754e+07,-40.767,11762,11949,1,11949,1,-0.00061275,-3.8078e-09,0,0.00043693,-0.00021093,-2.492e+08,-882.92,0,1.5062e+08,602.98,11948,12271,1,12271,1,0.001135,4.7659e-09,0,0.0013108,0.00011533,2.6657e+08,1378.2,0,3.3237e+08,2808.4,12270,188.7,0,188.7,0,0.0010092,8.4716e-09,0,0.00053618,0.00018847,2.9388e+08,2042.9,0,1.4194e+08,1163.4,188.7,1
644,5.79,12109,1,12109,1,0.00026305,3.0075e-09,0,0.00089562,-4.8106e-05,-418.57,1126.9,0,2.5727e+08,1749.1,12108,12432,1,12432,1,0.0019524,2.1705e-08,0,0.0019524,0.00026773,3.5656e+08,7427,0,5.8009e+08,4199.8,12431,12110,1,12110,1,0.00026303,3.9094e-09,0,0.00087591,-4.8327e-05,8.2817e+07,1047.6,0,2.667e+08,1733.6,12109,11763,1,11763,1,-0.0014262,-2.2511e-08,0,4.9784e-05,-0.00036347,-5.8009e+08,-4149.7,0,2.0284e+07,-67.992,11762,11949,1,11949,1,-0.00061287,-1.9594e-09,0,0.00043794,-0.00021165,-2.4925e+08,-480.11,0,1.5108e+08,513.41,11948,12271,1,12271,1,0.0011389,8.8311e-09,0,0.0013139,0.00011536,2.667e+08,2472.5,0,3.3228e+08,2904.2,12270,188.7,0,188.7,0,0.0010116,8.3422e-09,0,0.00053776,0.0001889,2.9405e+08,2253,0,1.4205e+08,1222.2,188.7,1
644,5.8,12109,1,12109,1,0.00026497,6.1929e-10,0,0.00089788,-4.8458e-05,234.52,556.73,0,2.5741e+08,2050.3,12108,12432,1,12432,1,0.0019582,1.9794e-08,0,0.0019582,0.0002681,3.5607e+08,6775,0,5.8089e+08,4621.6,12431,12110,1,12110,1,0.00026495,2.2861e-09,0,0.00087794,-4.8679e-05,8.3307e+07,636.71,0,2.6681e+08,2014.6,12109,11763,1,11763,1,-0.0014282,-3.1994e-08,0,4.858e-05,-0.00036455,-5.8089e+08,-6064.4,0,1.9803e+07,-80.753,11762,11949,1,11949,1,-0.00061297,-3.4963e-09,0,0.00043895,-0.00021237,-2.4929e+08,-816.54,0,1.5155e+08,707.28,11948,12271,1,12271,1,0.0011429,6.9776e-09,0,0.0013169,0.00011538,2.6681e+08,1987.3,0,3.3217e+08,3405,12270,188.7,0,188.7,0,0.0010139,9.9116e-09,0,0.00053933,0.00018934,2.9422e+08,2422.7,0,1.4214e+08,1408.3,188.7,1
644,5.81,12109,1,12109,1,0.00026691,-1.2944e-09,0,0.00090016,-4.8813e-05,16.149,94.293,0,2.5754e+08,2102.4,12108,12432,1,12432,1,0.0019641,1.9666e-08,0,0.0019641,0.00026848,3.5558e+08,6730.9,0,5.817e+08,4811.8,12431,12110,1,12110,1,0.00026689,5.3252e-10,0,0.00087999,-4.9036e-05,8.38e+07,135.58,0,2.6693e+08,2085.3,12109,11763,1,11763,1,-0.0014302,-3.5938e-08,0,4.7369e-05,-0.00036563,-5.817e+08,-6842.3,0,1.9322e+07,-52.741,11762,11949,1,11949,1,-0.00061307,-5.3998e-09,0,0.00043997,-0.00021311,-2.4933e+08,-1228.9,0,1.5202e+08,711.98,11948,12271,1,12271,1,0.0011469,5.2312e-09,0,0.0013199,0.0001154,2.6693e+08,1486.2,0,3.3207e+08,3479,12270,188.7,0,188.7,0,0.0010163,1.0545e-08,0,0.00054093,0.00018977,2.9439e+08,2519.1,0,1.4225e+08,1450,188.7,1
644,5.82,12109,1,12109,1,0.00026887,2.8536e-09,0,0.00090243,-4.917e-05,-143.05,1188.7,0,2.5767e+08,2291.5,12108,12432,1,12432,1,0.00197,2.3932e-08,0,0.00197,0.00026885,3.5506e+08,8189,0,5.8251e+08,5251.2,12431,12110,1,12110,1,0.00026885,4.7067e-09,0,0.00088202,-4.9394e-05,8.4295e+07,1291,0,2.6704e+08,2260.7,12109,11763,1,11763,1,-0.0014322,-3.3059e-08,0,4.6139e-05,-0.00036672,-5.8251e+08,-6149.2,0,1.8833e+07,-99.055,11762,11949,1,11949,1,-0.00061315,-3.0382e-09,0,0.00044099,-0.00021384,-2.4936e+08,-663.19,0,1.5248e+08,790.64,11948,12271,1,12271,1,0.0011509,1.0773e-08,0,0.001323,0.00011542,2.6704e+08,3030.8,0,3.3196e+08,3787.2,12270,188.7,0,188.7,0,0.0010186,1.1095e-08,0,0.00054252,0.00019021,2.9455e+08,2792.6,0,1.4234e+08,1567.6,188.7,1
644,5.83,12109,1,12109,1,0.00027085,-8.2912e-10,0,0.00090476,-4.9533e-05,-516.67,341.32,0,2.5781e+08,2351.9,12108,12432,1,12432,1,0.001976,2.3801e-08,0,0.001976,0.00026923,3.5457e+08,8146.1,0,5.8333e+08,5384.9,12431,12110,1,12110,1,0.00027083,1.5445e-09,0,0.00088411,-4.9758e-05,8.4796e+07,442.34,0,2.6715e+08,2329.2,12109,11763,1,11763,1,-0.0014342,-4.1337e-08,0,4.4901e-05,-0.00036782,-5.8333e+08,-7807,0,1.8343e+07,-55.362,11762,11949,1,11949,1,-0.00061326,-5.7149e-09,0,0.00044203,-0.00021459,-2.494e+08,-1226.6,0,1.5296e+08,828.53,11948,12271,1,12271,1,0.0011549,6.8606e-09,0,0.0013261,0.00011544,2.6715e+08,1968.7,0,3.3185e+08,3881.3,12270,188.7,0,188.7,0,0.001021,1.2502e-08,0,0.00054416,0.00019066,2.9473e+08,3017,0,1.4245e+08,1610.6,188.7,1
644,5.84,12109,1,12109,1,0.00027287,-3.9725e-10,0,0.0009071,-4.9902e-05,182.73,441.54,0,2.5795e+08,2465.8,12108,12432,1,12432,1,0.0019821,2.5696e-08,0,0.0019821,0.00026962,3.5404e+08,8794.7,0,5.8416e+08,5660.9,12431,12110,1,12110,1,0.00027285,1.5155e-09,0,0.00088621,-5.0128e-05,8.5304e+07,417.31,0,2.6726e+08,2449.3,12109,11763,1,11763,1,-0.0014362,-4.1299e-08,0,4.3631e-05,-0.00036894,-5.8416e+08,-7713.3,0,1.7842e+07,-49.444,11762,11949,1,11949,1,-0.00061333,-5.5183e-09,0,0.00044308,-0.00021534,-2.4943e+08,-1195.1,0,1.5344e+08,775.13,11948,12271,1,12271,1,0.0011591,7.5803e-09,0,0.0013293,0.00011546,2.6726e+08,2137.8,0,3.3173e+08,4100.8,12270,188.7,0,188.7,0,0.0010234,1.2647e-08,0,0.00054581,0.0001911,2.9489e+08,3085.9,0,1.4255e+08,1715.2,188.7,1
644,5.85,12109,1,12109,1,0.00027491,2.5946e-09,0,0.00090944,-5.0273e-05,-323.83,1266.8,0,2.5807e+08,2675.5,12108,12432,1,12432,1,0.0019881,2.99e-08,0,0.0019881,0.00026999,3.535e+08,10231,0,5.8497e+08,6242.4,12431,12110,1,12110,1,0.00027488,4.7143e-09,0,0.00088829,-5.05e-05,8.5814e+07,1287.9,0,2.6736e+08,2673.3,12109,11763,1,11763,1,-0.0014382,-4.2502e-08,0,4.2343e-05,-0.00037006,-5.8497e+08,-7828.6,0,1.7335e+07,-123.86,11762,11949,1,11949,1,-0.00061339,-3.7619e-09,0,0.00044412,-0.0002161,-2.4945e+08,-876.25,0,1.5392e+08,845.68,11948,12271,1,12271,1,0.0011632,1.1949e-08,0,0.0013324,0.00011548,2.6736e+08,3390.3,0,3.316e+08,4420,12270,188.7,0,188.7,0,0.0010259,1.3907e-08,0,0.00054746,0.00019155,2.9505e+08,3474.5,0,1.4265e+08,1850.3,188.7,1
644,5.86,12109,1,12109,1,0.00027697,1.8515e-10,0,0.00091182,-5.065e-05,259.39,760.18,0,2.582e+08,2847.7,12108,12432,1,12432,1,0.0019943,3.1008e-08,0,0.0019943,0.00027038,3.5297e+08,10613,0,5.858e+08,6531.4,12431,12110,1,12110,1,0.00027693,3.0236e-09,0,0.00089043,-5.0878e-05,8.6329e+07,800.75,0,2.6746e+08,2823.4,12109,11763,1,11763,1,-0.0014403,-5.0377e-08,0,4.1042e-05,-0.0003712,-5.858e+08,-9361.3,0,1.6825e+07,-61.829,11762,11949,1,11949,1,-0.00061346,-6.1023e-09,0,0.00044518,-0.00021687,-2.4948e+08,-1261.4,0,1.544e+08,925.21,11948,12271,1,12271,1,0.0011674,9.8737e-09,0,0.0013356,0.00011549,2.6746e+08,2852.9,0,3.3148e+08,4734.1,12270,188.7,0,188.7,0,0.0010283,1.559e-08,0,0.00054915,0.00019201,2.9521e+08,3796.9,0,1.4276e+08,1983.6,188.7,1
644,5.87,12109,1,12109,1,0.00027906,-3.6036e-09,0,0.00091421,-5.1032e-05,-147.16,-187.75,0,2.5833e+08,3017,12108,12432,1,12432,1,0.0020005,3.0344e-08,0,0.0020005,0.00027076,3.5242e+08,10385,0,5.8663e+08,6927.8,12431,12110,1,12110,1,0.00027902,-3.3982e-10,0,0.00089257,-5.1261e-05,8.6851e+07,-93.148,0,2.6756e+08,3008.6,12109,11763,1,11763,1,-0.0014423,-5.6874e-08,0,3.9716e-05,-0.00037234,-5.8663e+08,-10606,0,1.6307e+07,-41.056,11762,11949,1,11949,1,-0.00061351,-9.948e-09,0,0.00044625,-0.00021765,-2.495e+08,-2251.8,0,1.5489e+08,952.3,11948,12271,1,12271,1,0.0011716,6.3667e-09,0,0.0013388,0.00011551,2.6756e+08,1813.4,0,3.3134e+08,4986.7,12270,188.7,0,188.7,0,0.0010308,1.6651e-08,0,0.00055085,0.00019246,2.9537e+08,3928.1,0,1.4286e+08,2100.1,188.7,1
644,5.88,12109,1,12109,1,0.00028119,-3.625e-09,0,0.00091666,-5.142e-05,349.89,-225.05,0,2.5846e+08,3242.3,12108,12432,1,12432,1,0.0020068,3.2539e-08,0,0.0020068,0.00027116,3.5186e+08,11137,0,5.8747e+08,7469.7,12431,12110,1,12110,1,0.00028115,-8.6547e-10,0,0.00089475,-5.165e-05,8.738e+07,-233.56,0,2.6766e+08,3249.3,12109,11763,1,11763,1,-0.0014444,-5.8253e-08,0,3.8371e-05,-0.00037351,-5.8747e+08,-10801,0,1.5784e+07,-40.203,11762,11949,1,11949,1,-0.00061357,-1.0324e-08,0,0.00044735,-0.00021844,-2.4953e+08,-2496.8,0,1.5539e+08,989.85,11948,12271,1,12271,1,0.0011759,6.4533e-09,0,0.0013421,0.00011552,2.6766e+08,1768.8,0,3.312e+08,5391.1,12270,188.7,0,188.7,0,0.0010333,1.6958e-08,0,0.00055259,0.00019293,2.9554e+08,4037.5,0,1.4297e+08,2275.8,188.7,1
644,5.89,12109,1,12109,1,0.00028334,-2.0085e-10,0,0.0009191,-5.1814e-05,-185.69,641.34,0,2.5857e+08,3692,12108,12432,1,12432,1,0.0020132,3.577e-08,0,0.0020132,0.00027154,3.5127e+08,12242,0,5.883e+08,8342.2,12431,12110,1,12110,1,0.0002833,2.522e-09,0,0.00089692,-5.2044e-05,8.7914e+07,684.07,0,2.6775e+08,3672.9,12109,11763,1,11763,1,-0.0014464,-6.0147e-08,0,3.6994e-05,-0.00037468,-5.883e+08,-11064,0,1.525e+07,-39.599,11762,11949,1,11949,1,-0.00061359,-7.5868e-09,0,0.00044843,-0.00021923,-2.4953e+08,-1618.2,0,1.5588e+08,1208.7,11948,12271,1,12271,1,0.0011802,1.0827e-08,0,0.0013453,0.00011553,2.6775e+08,3041,0,3.3105e+08,6110,12270,188.7,0,188.7,0,0.0010358,1.7963e-08,0,0.00055434,0.00019339,2.9569e+08,4291.9,0,1.4307e+08,2543.5,188.7,1
644,5.9,12109,1,12109,1,0.00028552,-3.0788e-09,0,0.00092156,-5.2212e-05,-181.85,-34.741,0,2.5869e+08,3995.6,12108,12432,1,12432,1,0.0020196,3.6501e-08,0,0.0020196,0.00027193,3.5069e+08,12493,0,5.8914e+08,8949.2,12431,12110,1,12110,1,0.00028548,3.537e-10,0,0.00089912,-5.2442e-05,8.8452e+07,100.84,0,2.6784e+08,3948.3,12109,11763,1,11763,1,-0.0014485,-6.8171e-08,0,3.56e-05,-0.00037586,-5.8914e+08,-12636,0,1.4713e+07,-34.666,11762,11949,1,11949,1,-0.00061361,-1.0595e-08,0,0.00044953,-0.00022004,-2.4954e+08,-2522.4,0,1.561e+08,1355.5,11948,12271,1,12271,1,0.0011846,8.8817e-09,0,0.0013486,0.00011554,2.6784e+08,2433.3,0,3.3089e+08,6597.6,12270,188.7,0,188.7,0,0.0010384,1.9725e-08,0,0.0005561,0.00019386,2.9585e+08,4601.6,0,1.4318e+08,2754.6,188.7,1
644,5.91,12109,1,12109,1,0.00028773,-1.9503e-09,0,0.00092405,-5.2616e-05,-357.07,223.87,0,2.5881e+08,4241.4,12108,12432,1,12432,1,0.0020261,3.9291e-08,0,0.0020261,0.00027232,3.5009e+08,13447,0,5.8999e+08,9566.6,12431,12110,1,12110,1,0.00028768,1.2687e-09,0,0.00090134,-5.2846e-05,8.8996e+07,299.73,0,2.6792e+08,4229.1,12109,11763,1,11763,1,-0.0014506,-6.9202e-08,0,3.4188e-05,-0.00037706,-5.8999e+08,-12692,0,1.4171e+07,-5.3316,11762,11949,1,11949,1,-0.00061362,-1.0224e-08,0,0.00045064,-0.00022085,-2.4955e+08,-2472.5,0,1.5626e+08,1363.2,11948,12271,1,12271,1,0.001189,1.0518e-08,0,0.001352,0.00011555,2.6792e+08,2883.8,0,3.3073e+08,7027.2,12270,188.7,0,188.7,0,0.0010409,2.0207e-08,0,0.0005579,0.00019434,2.96e+08,4760,0,1.4329e+08,2934.1,188.7,1
644,5.92,12109,1,12109,1,0.00028997,-1.3656e-09,0,0.00092658,-5.3026e-05,-694.21,399.93,0,2.5893e+08,4612.7,12108,12432,1,12432,1,0.0020327,4.2976e-08,0,0.0020327,0.00027272,3.4948e+08,14708,0,5.9084e+08,10306,12431,12110,1,12110,1,0.00028992,1.821e-09,0,0.00090359,-5.3256e-05,8.9546e+07,434.18,0,2.68e+08,4601.3,12109,11763,1,11763,1,-0.0014527,-7.3147e-08,0,3.2748e-05,-0.00037827,-5.9084e+08,-13340,0,1.3621e+07,-6.719,11762,11949,1,11949,1,-0.00061363,-1.03e-08,0,0.00045176,-0.00022167,-2.4955e+08,-2503.5,0,1.5643e+08,1501.7,11948,12271,1,12271,1,0.0011935,1.1956e-08,0,0.0013553,0.00011555,2.68e+08,3268.4,0,3.3056e+08,7635.2,12270,188.7,0,188.7,0,0.0010435,2.1572e-08,0,0.00055972,0.00019482,2.9616e+08,5104.3,0,1.4339e+08,3187.1,188.7,1
644,5.93,12109,1,12109,1,0.00029225,-5.2511e-09,0,0.00092913,-5.3442e-05,-653.78,-573.5,0,2.5904e+08,5048.6,12108,12432,1,12432,1,0.0020394,4.2832e-08,0,0.0020394,0.00027311,3.4886e+08,14659,0,5.9169e+08,11268,12431,12110,1,12110,1,0.0002922,-2.2635e-09,0,0.00090587,-5.3673e-05,9.0104e+07,-595.86,0,2.6808e+08,5010.6,12109,11763,1,11763,1,-0.0014548,-8.3456e-08,0,3.128e-05,-0.0003795,-5.9169e+08,-15346,0,1.3064e+07,-2.918,11762,11949,1,11949,1,-0.00061362,-1.5068e-08,0,0.0004529,-0.00022251,-2.4955e+08,-3664.8,0,1.566e+08,1646.8,11948,12271,1,12271,1,0.0011981,8.9492e-09,0,0.0013587,0.00011556,2.6808e+08,2315.2,0,3.3039e+08,8374.5,12270,188.7,0,188.7,0,0.0010462,2.3607e-08,0,0.00056157,0.0001953,2.9631e+08,5453,0,1.435e+08,3483.8,188.7,1
644,5.94,12109,1,12109,1,0.00029457,-7.6823e-10,0,0.0009317,-5.3865e-05,-156.2,528.74,0,2.5915e+08,5485.3,12108,12432,1,12432,1,0.0020461,4.8962e-08,0,0.0020461,0.00027351,3.4821e+08,16411,0,5.9254e+08,12298,12431,12110,1,12110,1,0.00029451,2.38e-09,0,0.00090815,-5.4095e-05,9.0669e+07,611.57,0,2.6816e+08,5458.4,12109,11763,1,11763,1,-0.0014569,-8.3755e-08,0,2.9783e-05,-0.00038074,-5.9254e+08,-15171,0,1.2498e+07,-29.974,11762,11949,1,11949,1,-0.00061359,-1.1204e-08,0,0.00045404,-0.00022335,-2.4953e+08,-2823.2,0,1.5676e+08,1802.9,11948,12271,1,12271,1,0.0012027,1.418e-08,0,0.0013622,0.00011556,2.6816e+08,3897.1,0,3.302e+08,9115.8,12270,188.7,0,188.7,0,0.0010488,2.4738e-08,0,0.00056344,0.00019579,2.9645e+08,5767.5,0,1.4361e+08,3786.4,188.7,1
644,5.95,12109,1,12109,1,0.00029693,-7.4379e-09,0,0.00093434,-5.4296e-05,-82.241,-1112.4,0,2.5926e+08,5944.3,12108,12432,1,12432,1,0.002053,4.7559e-08,0,0.002053,0.00027392,3.4758e+08,16277,0,5.9342e+08,13154,12431,12110,1,12110,1,0.00029687,-4.5731e-09,0,0.0009105,-5.4525e-05,9.1242e+07,-1117.3,0,2.6823e+08,5938.5,12109,11763,1,11763,1,-0.001459,-9.6886e-08,0,2.8264e-05,-0.00038201,-5.9342e+08,-17792,0,1.1928e+07,-32.655,11762,11949,1,11949,1,-0.00061358,-1.9386e-08,0,0.00045521,-0.00022422,-2.4953e+08,-4883.3,0,1.5693e+08,1963.4,11948,12271,1,12271,1,0.0012074,8.9383e-09,0,0.0013657,0.00011556,2.6823e+08,2424.2,0,3.3002e+08,9882.3,12270,188.7,0,188.7,0,0.0010515,2.7128e-08,0,0.00056536,0.00019629,2.9661e+08,6225.4,0,1.4373e+08,4123.6,188.7,1
644,5.96,12109,1,12109,1,0.00029933,-6.1968e-09,0,0.00093699,-5.4735e-05,594.62,-934.92,0,2.5936e+08,6530.2,12108,12432,1,12432,1,0.0020599,5.6093e-08,0,0.0020599,0.00027432,3.4691e+08,17224,0,5.9429e+08,14466,12431,12110,1,12110,1,0.00029927,-3.9507e-09,0,0.00091285,-5.4964e-05,9.1825e+07,-1017.2,0,2.683e+08,6540.1,12109,11763,1,11763,1,-0.0014612,-9.9395e-08,0,2.6702e-05,-0.00038329,-5.9429e+08,-18167,0,1.1344e+07,-23.538,11762,11949,1,11949,1,-0.00061353,-1.9647e-08,0,0.00045639,-0.00022509,-2.4951e+08,-4946.4,0,1.571e+08,2113.1,11948,12271,1,12271,1,0.0012122,1.1205e-08,0,0.0013692,0.00011556,2.683e+08,2973.9,0,3.2982e+08,10870,12270,188.7,0,188.7,0,0.0010542,2.8542e-08,0,0.0005673,0.0001968,2.9676e+08,6559.4,0,1.4384e+08,4525.5,188.7,1
644,5.97,12109,1,12109,1,0.00030178,-4.5483e-09,0,0.00093968,-5.5183e-05,2157.6,-607.86,0,2.5947e+08,7115.1,12108,12432,1,12432,1,0.002067,6.7804e-08,0,0.002067,0.00027473,3.4623e+08,18405,0,5.9517e+08,15593,12431,12110,1,12110,1,0.00030172,-3.1208e-09,0,0.00091524,-5.5411e-05,9.2417e+07,-776.36,0,2.6837e+08,7158,12109,11763,1,11763,1,-0.0014633,-1.0334e-07,0,2.511e-05,-0.00038459,-5.9517e+08,-18720,0,1.0751e+07,-29.899,11762,11949,1,11949,1,-0.00061348,-1.9172e-08,0,0.00045758,-0.00022598,-2.4949e+08,-4850.4,0,1.5726e+08,2301.2,11948,12271,1,12271,1,0.001217,1.3367e-08,0,0.0013728,0.00011555,2.6837e+08,3406.8,0,3.2961e+08,11898,12270,188.7,0,188.7,0,0.001057,3.0407e-08,0,0.00056927,0.00019731,2.969e+08,6980.9,0,1.4396e+08,4933.1,188.7,1
644,5.98,12109,1,12109,1,0.00030426,-7.272e-09,0,0.00094238,-5.5635e-05,1417,-1361.6,0,2.5956e+08,7796.8,12108,12432,1,12432,1,0.0020741,7.4626e-08,0,0.0020741,0.00027513,3.4552e+08,18748,0,5.9604e+08,17134,12431,12110,1,12110,1,0.00030419,-5.6189e-09,0,0.00091764,-5.5862e-05,9.3013e+07,-1366.5,0,2.6842e+08,7804.7,12109,11763,1,11763,1,-0.0014655,-1.1402e-07,0,2.3488e-05,-0.0003859,-5.9604e+08,-20823,0,1.015e+07,-147.36,11762,11949,1,11949,1,-0.00061339,-2.4314e-08,0,0.00045878,-0.00022687,-2.4945e+08,-6133.3,0,1.5742e+08,2533.7,11948,12271,1,12271,1,0.0012219,1.2471e-08,0,0.0013764,0.00011554,2.6842e+08,3296.9,0,3.294e+08,13008,12270,188.7,0,188.7,0,0.0010598,3.3269e-08,0,0.00057126,0.00019782,2.9704e+08,7564.9,0,1.4407e+08,5407.7,188.7,1
644,5.99,12109,1,12109,1,0.00030678,-1.7721e-09,0,0.00094514,-5.6094e-05,-195.14,-90.613,0,2.5967e+08,8496.5,12108,12432,1,12432,1,0.0020814,9.2195e-08,0,0.0020814,0.00027555,3.4482e+08,20862,0,5.9694e+08,18707,12431,12110,1,12110,1,0.0003067,-2.3749e-10,0,0.00092009,-5.6319e-05,9.3615e+07,-68.582,0,2.6848e+08,8497.1,12109,11763,1,11763,1,-0.0014677,-1.134e-07,0,2.1854e-05,-0.00038724,-5.9694e+08,-20288,0,9.5482e+06,9.6797,11762,11949,1,11949,1,-0.00061333,-1.9601e-08,0,0.00046001,-0.00022778,-2.4943e+08,-4994.6,0,1.5759e+08,2804.5,11948,12271,1,12271,1,0.0012268,1.86e-08,0,0.0013801,0.00011554,2.6848e+08,4793,0,3.2919e+08,14135,12270,188.7,0,188.7,0,0.0010626,3.5308e-08,0,0.0005733,0.00019834,2.9719e+08,8047.5,0,1.4419e+08,5851.3,188.7,1
644,6,12109,1,12109,1,0.00030936,-7.8456e-09,0,0.00094797,-5.6566e-05,484.96,-1684.3,0,2.5977e+08,9258.2,12108,12432,1,12432,1,0.0020888,9.4556e-08,0,0.0020888,0.00027597,3.441e+08,21412,0,5.9785e+08,20263,12431,12110,1,12110,1,0.00030928,-7.0314e-09,0,0.00092259,-5.6789e-05,9.4233e+07,-1788.3,0,2.6853e+08,9328.3,12109,11763,1,11763,1,-0.0014699,-1.2772e-07,0,2.0165e-05,-0.0003886,-5.9785e+08,-23056,0,8.9286e+06,-30.393,11762,11949,1,11949,1,-0.00061325,-2.8576e-08,0,0.00046126,-0.00022872,-2.4939e+08,-7242.2,0,1.5776e+08,2991.2,11948,12271,1,12271,1,0.0012319,1.4956e-08,0,0.0013838,0.00011553,2.6853e+08,3735.9,0,3.2896e+08,15511,12270,188.7,0,188.7,0,0.0010655,3.862e-08,0,0.00057539,0.00019888,2.9734e+08,8863.5,0,1.4431e+08,6409.2,188.7,1
644,6.01,12109,1,12109,1,0.000312,-3.2295e-09,0,0.00095081,-5.7046e-05,38.007,-663.17,0,2.5986e+08,10205,12108,12432,1,12432,1,0.0020963,1.1604e-07,0,0.0020963,0.00027639,3.4335e+08,23523,0,5.9876e+08,22419,12431,12110,1,12110,1,0.00031191,-3.8165e-09,0,0.00092511,-5.7267e-05,9.4859e+07,-931.29,0,2.6858e+08,10275,12109,11763,1,11763,1,-0.0014721,-1.322e-07,0,1.8434e-05,-0.00038999,-5.9876e+08,-23578,0,8.2955e+06,73.426,11762,11949,1,11949,1,-0.00061314,-2.6078e-08,0,0.00046252,-0.00022966,-2.4935e+08,-6722.6,0,1.5792e+08,3360,11948,12271,1,12271,1,0.0012371,2.1414e-08,0,0.0013876,0.00011552,2.6858e+08,5454.9,0,3.2872e+08,17054,12270,188.7,0,188.7,0,0.0010684,4.2293e-08,0,0.00057751,0.00019941,2.9748e+08,9615.1,0,1.4443e+08,7026.5,188.7,1
644,6.02,12109,1,12109,1,0.00031469,-4.4619e-09,0,0.00095373,-5.7537e-05,-94.08,-1008.1,0,2.5995e+08,11206,12108,12432,1,12432,1,0.002104,1.2873e-07,0,0.002104,0.00027683,3.4259e+08,25009,0,5.9969e+08,24468,12431,12110,1,12110,1,0.0003146,-4.7227e-09,0,0.0009277,-5.7755e-05,9.5497e+07,-1260.6,0,2.6863e+08,11269,12109,11763,1,11763,1,-0.0014744,-1.4595e-07,0,1.6669e-05,-0.0003914,-5.9969e+08,-26032,0,7.6528e+06,27.266,11762,11949,1,11949,1,-0.00061304,-2.9685e-08,0,0.00046381,-0.00023063,-2.493e+08,-7663.7,0,1.5809e+08,3746.1,11948,12271,1,12271,1,0.0012424,2.189e-08,0,0.0013915,0.0001155,2.6863e+08,5580.6,0,3.2848e+08,18765,12270,188.7,0,188.7,0,0.0010714,4.6687e-08,0,0.00057968,0.00019997,2.9762e+08,10532,0,1.4456e+08,7716.5,188.7,1
644,6.03,12109,1,12109,1,0.00031744,-6.4512e-09,0,0.00095669,-5.8039e-05,144.71,-1579.2,0,2.6004e+08,12206,12108,12432,1,12432,1,0.0021118,1.4139e-07,0,0.0021118,0.00027726,3.4181e+08,26472,0,6.0062e+08,26664,12431,12110,1,12110,1,0.00031734,-6.7903e-09,0,0.00093031,-5.8255e-05,9.6147e+07,-1807.5,0,2.6867e+08,12237,12109,11763,1,11763,1,-0.0014767,-1.6023e-07,0,1.4854e-05,-0.00039284,-6.0062e+08,-29230,0,6.9937e+06,-69.463,11762,11949,1,11949,1,-0.0006129,-3.4775e-08,0,0.00046511,-0.00023161,-2.4925e+08,-8799.3,0,1.5825e+08,4054.8,11948,12271,1,12271,1,0.0012477,2.2478e-08,0,0.0013954,0.00011549,2.6867e+08,5550.4,0,3.2822e+08,20428,12270,188.7,0,188.7,0,0.0010744,5.1342e-08,0,0.0005819,0.00020052,2.9776e+08,11554,0,1.4468e+08,8411.1,188.7,1
644,6.04,12109,1,12109,1,0.00032026,4.8025e-09,0,0.00095972,-5.8553e-05,169.78,1004.9,0,2.6013e+08,13431,12108,12432,1,12432,1,0.0021198,1.7398e-07,0,0.0021198,0.0002777,3.4101e+08,31395,0,6.0157e+08,29537,12431,12110,1,12110,1,0.00032015,5.3229e-09,0,0.00093299,-5.8765e-05,9.6808e+07,1395.6,0,2.687e+08,13593,12109,11763,1,11763,1,-0.0014791,-1.5758e-07,0,1.2993e-05,-0.00039432,-6.0157e+08,-30263,0,6.3199e+06,57.448,11762,11949,1,11949,1,-0.00061276,-2.7693e-08,0,0.00046644,-0.00023262,-2.4919e+08,-7056.5,0,1.5842e+08,4356.6,11948,12271,1,12271,1,0.0012532,3.5754e-08,0,0.0013994,0.00011547,2.687e+08,9100.1,0,3.2795e+08,22506,12270,188.7,0,188.7,0,0.0010775,5.6376e-08,0,0.00058417,0.0002011,2.979e+08,12735,0,1.4482e+08,9251,188.7,1
644,6.05,12109,1,12109,1,0.00032316,-1.4627e-09,0,0.00096282,-5.9079e-05,-65.516,-400.19,0,2.6022e+08,14803,12108,12432,1,12432,1,0.0021281,1.81e-07,0,0.0021281,0.00027816,3.4018e+08,33493,0,6.0255e+08,32154,12431,12110,1,12110,1,0.00032304,-2.4827e-09,0,0.00093574,-5.9288e-05,9.7486e+07,-696.94,0,2.6874e+08,14919,12109,11763,1,11763,1,-0.0014815,-1.8603e-07,0,1.1081e-05,-0.00039583,-6.0255e+08,-34122,0,5.6306e+06,160.34,11762,11949,1,11949,1,-0.00061261,-3.5958e-08,0,0.00046781,-0.00023365,-2.4913e+08,-9240.7,0,1.5858e+08,4899.1,11948,12271,1,12271,1,0.0012589,3.27e-08,0,0.0014035,0.00011545,2.6874e+08,8192.3,0,3.2768e+08,24822,12270,188.7,0,188.7,0,0.0010807,6.2195e-08,0,0.00058651,0.00020168,2.9805e+08,13958,0,1.4495e+08,10179,188.7,1
644,6.06,12109,1,12109,1,0.00032614,-4.4426e-10,0,0.00096598,-5.962e-05,79.903,-145.99,0,2.603e+08,16328,12108,12432,1,12432,1,0.0021365,2.0231e-07,0,0.0021365,0.00027861,3.3933e+08,37279,0,6.0353e+08,35268,12431,12110,1,12110,1,0.00032601,-1.332e-09,0,0.00093853,-5.9824e-05,9.8179e+07,-344.16,0,2.6877e+08,16488,12109,11763,1,11763,1,-0.0014839,-2.0453e-07,0,9.1064e-06,-0.00039738,-6.0353e+08,-37176,0,4.9202e+06,185.46,11762,11949,1,11949,1,-0.00061243,-3.8597e-08,0,0.0004692,-0.0002347,-2.4906e+08,-9891.8,0,1.5875e+08,5409.9,11948,12271,1,12271,1,0.0012646,3.6925e-08,0,0.0014077,0.00011543,2.6877e+08,9311.3,0,3.2738e+08,27414,12270,188.7,0,188.7,0,0.0010839,6.8859e-08,0,0.00058891,0.00020228,2.9819e+08,15390,0,1.4509e+08,11217,188.7,1
644,6.07,12109,1,12109,1,0.0003292,-8.8101e-11,0,0.00096923,-6.0174e-05,-115.07,-24.968,0,2.6039e+08,17980,12108,12432,1,12432,1,0.0021451,2.2313e-07,0,0.0021451,0.00027908,3.3846e+08,41548,0,6.0454e+08,38783,12431,12110,1,12110,1,0.00032905,-5.0491e-11,0,0.00094141,-6.0374e-05,9.8889e+07,-12.735,0,2.6879e+08,18133,12109,11763,1,11763,1,-0.0014864,-2.2648e-07,0,7.0795e-06,-0.00039896,-6.0454e+08,-40955,0,4.1919e+06,207.72,11762,11949,1,11949,1,-0.00061225,-4.1793e-08,0,0.00047063,-0.00023579,-2.4898e+08,-10719,0,1.5892e+08,5943.2,11948,12271,1,12271,1,0.0012706,4.1257e-08,0,0.001412,0.0001154,2.6879e+08,10385,0,3.2708e+08,30226,12270,188.7,0,188.7,0,0.0010872,7.6131e-08,0,0.00059138,0.00020289,2.9833e+08,16991,0,1.4523e+08,12358,188.7,1
644,6.08,12109,1,12109,1,0.00033234,4.3658e-09,0,0.00097255,-6.0744e-05,-319.14,1107,0,2.6046e+08,19870,12108,12432,1,12432,1,0.0021539,2.5392e-07,0,0.0021539,0.00027955,3.3755e+08,47495,0,6.0555e+08,42940,12431,12110,1,12110,1,0.00033218,6.2848e-09,0,0.00094433,-6.0938e-05,9.9613e+07,1526.1,0,2.688e+08,20089,12109,11763,1,11763,1,-0.0014889,-2.4756e-07,0,4.9841e-06,-0.00040059,-6.0555e+08,-43497,0,3.4401e+06,216.99,11762,11949,1,11949,1,-0.00061203,-4.2564e-08,0,0.00047208,-0.00023689,-2.4889e+08,-10665,0,1.5908e+08,6580.1,11948,12271,1,12271,1,0.0012766,5.0051e-08,0,0.0014164,0.00011537,2.688e+08,12888,0,3.2676e+08,33385,12270,188.7,0,188.7,0,0.0010906,8.4778e-08,0,0.00059391,0.00020352,2.9846e+08,18832,0,1.4538e+08,13644,188.7,1
644,6.09,12109,1,12109,1,0.00033558,-1.0963e-09,0,0.00097597,-6.1331e-05,173.47,-21.48,0,2.6054e+08,22009,12108,12432,1,12432,1,0.002163,2.6991e-07,0,0.002163,0.00028004,3.3663e+08,52110,0,6.066e+08,47144,12431,12110,1,12110,1,0.0003354,2.4436e-10,0,0.00094735,-6.1519e-05,1.0036e+08,62.565,0,2.6882e+08,22258,12109,11763,1,11763,1,-0.0014914,-2.8711e-07,0,2.8271e-06,-0.00040226,-6.066e+08,-49113,0,2.6671e+06,237.86,11762,11949,1,11949,1,-0.00061181,-5.2636e-08,0,0.00047358,-0.00023804,-2.488e+08,-13056,0,1.5925e+08,7236.8,11948,12271,1,12271,1,0.0012829,5.3119e-08,0,0.0014209,0.00011534,2.6882e+08,13327,0,3.2644e+08,37024,12270,188.7,0,188.7,0,0.0010941,9.4262e-08,0,0.00059652,0.00020416,2.9861e+08,20878,0,1.4553e+08,15136,188.7,1
644,6.1,12109,1,12109,1,0.00033894,1.5083e-09,0,0.00097949,-6.1937e-05,-159.32,651.6,0,2.6062e+08,24433,12108,12432,1,12432,1,0.0021724,3.0477e-07,0,0.0021724,0.00028053,3.3566e+08,58880,0,6.0766e+08,52229,12431,12110,1,12110,1,0.00033873,3.8097e-09,0,0.00095044,-6.2117e-05,1.0112e+08,1008.4,0,2.6883e+08,24794,12109,11763,1,11763,1,-0.0014941,-3.1671e-07,0,5.9165e-07,-0.00040399,-6.0766e+08,-53693,0,1.8673e+06,325.79,11762,11949,1,11949,1,-0.00061156,-5.5565e-08,0,0.00047511,-0.00023921,-2.487e+08,-13838,0,1.5942e+08,8040.1,11948,12271,1,12271,1,0.0012893,6.114e-08,0,0.0014255,0.00011531,2.6883e+08,15451,0,3.261e+08,41179,12270,188.7,0,188.7,0,0.0010977,1.051e-07,0,0.00059923,0.00020482,2.9875e+08,23212,0,1.4569e+08,16781,188.7,1
644,6.11,12109,1,12109,1,0.0003424,-6.3954e-09,0,0.00098324,-6.2563e-05,-57.187,-1113.6,0,2.6069e+08,27221,12108,12432,1,12432,1,0.0021821,3.2926e-07,0,0.0021821,0.00028104,3.3467e+08,63958,0,6.0876e+08,57728,12431,12110,1,12110,1,0.00034217,-6.2895e-09,0,0.00095346,-6.2735e-05,1.0191e+08,-1649.5,0,2.6883e+08,27612,12109,11763,1,11763,1,-0.0014968,-3.6682e-07,0,1.5224e-06,-0.00040577,-6.0876e+08,-61909,0,1.0404e+06,209.53,11762,11949,1,11949,1,-0.00061131,-7.093e-08,0,0.00047681,-0.00024043,-2.4859e+08,-17457,0,1.596e+08,8954.2,11948,12271,1,12271,1,0.001296,6.2568e-08,0,0.0014305,0.00011527,2.6883e+08,15568,0,3.2574e+08,45884,12270,188.7,0,188.7,0,0.0011014,1.1788e-07,0,0.00060183,0.00020551,2.9889e+08,25889,0,1.4585e+08,18697,188.7,1
644,6.12,12109,1,12109,1,0.000346,-4.2455e-09,0,0.00098717,-6.3212e-05,207.56,-670.11,0,2.6076e+08,30338,12108,12432,1,12432,1,0.0021921,3.7523e-07,0,0.0021921,0.00028157,3.3364e+08,71430,0,6.0989e+08,64111,12431,12110,1,12110,1,0.00034575,-4.5473e-09,0,0.00095675,-6.3374e-05,1.0273e+08,-1151.4,0,2.6883e+08,30823,12109,11763,1,11763,1,-0.0014995,-4.0475e-07,0,3.9085e-06,-0.00040762,-6.0989e+08,-68417,0,1.812e+05,370.61,11762,11949,1,11949,1,-0.00061102,-7.6914e-08,0,0.00047847,-0.00024169,-2.4848e+08,-18885,0,1.5977e+08,9966.6,11948,12271,1,12271,1,0.0013029,7.0809e-08,0,0.0014354,0.00011524,2.6883e+08,17978,0,3.2537e+08,51314,12270,188.7,0,188.7,0,0.0011052,1.3186e-07,0,0.00060447,0.00020622,2.9904e+08,28852,0,1.4602e+08,20831,188.7,1
644,6.13,12109,1,12109,1,0.00034975,9.7349e-10,0,0.00099124,-6.3886e-05,-163.55,633.48,0,2.6088e+08,33879,12108,12432,1,12432,1,0.0022026,4.2765e-07,0,0.0022026,0.00028211,3.3257e+08,81168,0,6.1105e+08,71267,12431,12110,1,12110,1,0.00034946,3.6377e-09,0,0.00096015,-6.4037e-05,1.0357e+08,919.5,0,2.6882e+08,34559,12109,11763,1,11763,1,-0.0015024,-4.4786e-07,0,6.3903e-06,-0.00040954,-6.1105e+08,-75392,0,6.2537e+05,459.88,11762,11949,1,11949,1,-0.00061071,-8.0148e-08,0,0.00048018,-0.00024299,-2.4835e+08,-19384,0,1.5995e+08,11020,11948,12271,1,12271,1,0.0013101,8.4896e-08,0,0.0014406,0.00011519,2.6882e+08,21307,0,3.2497e+08,57330,12270,188.7,0,188.7,0,0.0011092,1.4785e-07,0,0.00060721,0.00020695,2.9919e+08,32266,0,1.4611e+08,23258,188.7,1
644,6.14,12109,1,12109,1,0.00035364,-7.0748e-09,0,0.00099545,-6.4584e-05,-1.3314,-1135.3,0,2.6101e+08,38002,12108,12432,1,12432,1,0.0022134,4.6758e-07,0,0.0022134,0.00028267,3.3145e+08,89475,0,6.1225e+08,79394,12431,12110,1,12110,1,0.00035332,-4.6661e-09,0,0.00096367,-6.4724e-05,1.0444e+08,-1121.7,0,2.688e+08,38527,12109,11763,1,11763,1,-0.0015053,-5.1587e-07,0,8.9714e-06,-0.00041153,-6.1225e+08,-86496,0,1.5421e+06,358.28,11762,11949,1,11949,1,-0.00061038,-9.8418e-08,0,0.00048195,-0.00024434,-2.4821e+08,-23851,0,1.6013e+08,12558,11948,12271,1,12271,1,0.0013175,8.8457e-08,0,0.0014459,0.00011515,2.688e+08,22098,0,3.2414e+08,64429,12270,188.7,0,188.7,0,0.0011133,1.665e-07,0,0.00061005,0.00020771,2.9934e+08,36153,0,1.4618e+08,26051,188.7,1
644,6.15,12109,1,12109,1,0.00035771,2.4888e-09,0,0.00099985,-6.5312e-05,316.01,891.48,0,2.6114e+08,42850,12108,12432,1,12432,1,0.0022246,5.5421e-07,0,0.0022246,0.00028324,3.3028e+08,1.017e+05,0,6.1348e+08,89520,12431,12110,1,12110,1,0.00035734,5.2816e-09,0,0.00096732,-6.5436e-05,1.0534e+08,1366.7,0,2.6878e+08,43840,12109,11763,1,11763,1,-0.0015084,-5.6831e-07,0,1.1671e-05,-0.0004136,-6.1348e+08,-95824,0,2.4987e+06,491.29,11762,11949,1,11949,1,-0.00061,-9.8941e-08,0,0.00048379,-0.00024575,-2.4806e+08,-24403,0,1.603e+08,14020,11948,12271,1,12271,1,0.0013253,1.0762e-07,0,0.0014514,0.0001151,2.6878e+08,26858,0,3.2304e+08,72855,12270,188.7,0,188.7,0,0.0011175,1.8921e-07,0,0.00061303,0.00020849,2.9949e+08,40841,0,1.4625e+08,29374,188.7,1
644,6.16,12109,1,12109,1,0.00036197,-5.814e-09,0,0.0010044,-6.6073e-05,15.685,-884.52,0,2.6128e+08,48180,12108,12432,1,12432,1,0.0022364,6.1303e-07,0,0.0022364,0.00028384,3.2907e+08,1.1316e+05,0,6.1477e+08,99871,12431,12110,1,12110,1,0.00036155,-6.1319e-09,0,0.00097113,-6.618e-05,1.0628e+08,-1518.6,0,2.6874e+08,49413,12109,11763,1,11763,1,-0.0015115,-6.554e-07,0,1.4491e-05,-0.00041578,-6.1477e+08,-1.0912e+05,0,3.4941e+06,616.01,11762,11949,1,11949,1,-0.00060961,-1.2315e-07,0,0.00048572,-0.00024722,-2.479e+08,-30065,0,1.6049e+08,15764,11948,12271,1,12271,1,0.0013334,1.1447e-07,0,0.0014572,0.00011505,2.6874e+08,29055,0,3.2188e+08,82023,12270,188.7,0,188.7,0,0.001122,2.1382e-07,0,0.00061616,0.00020932,2.9964e+08,45915,0,1.4633e+08,33044,188.7,1
644,6.17,12109,1,12109,1,0.00036644,2.2891e-09,0,0.0010092,-6.687e-05,-55.077,1045.7,0,2.6141e+08,54413,12108,12432,1,12432,1,0.0022488,7.0978e-07,0,0.0022488,0.00028446,3.2779e+08,1.2976e+05,0,6.161e+08,1.1258e+05,12431,12110,1,12110,1,0.00036596,6.0291e-09,0,0.0009751,-6.6956e-05,1.0726e+08,1505.8,0,2.687e+08,55832,12109,11763,1,11763,1,-0.0015148,-7.3263e-07,0,1.7457e-05,-0.00041805,-6.161e+08,-1.21e+05,0,4.5368e+06,674.99,11762,11949,1,11949,1,-0.00060917,-1.2915e-07,0,0.00048772,-0.00024875,-2.4771e+08,-31297,0,1.6067e+08,17904,11948,12271,1,12271,1,0.0013418,1.37e-07,0,0.0014632,0.00011499,2.687e+08,33975,0,3.2066e+08,92859,12270,188.7,0,188.7,0,0.0011267,2.4277e-07,0,0.00061944,0.00021018,2.9979e+08,51848,0,1.4641e+08,37265,188.7,1
644,6.18,12109,1,12109,1,0.00037114,-4.9829e-09,0,0.0010143,-6.7709e-05,99.977,-347.31,0,2.6154e+08,61428,12108,12432,1,12432,1,0.0022618,7.9311e-07,0,0.0022618,0.00028511,3.2647e+08,1.4625e+05,0,6.175e+08,1.2625e+05,12431,12110,1,12110,1,0.0003706,-3.0866e-09,0,0.00097927,-6.7771e-05,1.0828e+08,-780.3,0,2.6865e+08,63142,12109,11763,1,11763,1,-0.0015182,-8.4793e-07,0,2.0566e-05,-0.00042044,-6.175e+08,-1.3789e+05,0,5.6239e+06,867.56,11762,11949,1,11949,1,-0.00060871,-1.5559e-07,0,0.00048983,-0.00025037,-2.4753e+08,-37315,0,1.6086e+08,20103,11948,12271,1,12271,1,0.0013507,1.5219e-07,0,0.0014696,0.00011494,2.6865e+08,37521,0,3.194e+08,1.0492e+05,12270,188.7,0,188.7,0,0.0011316,2.7622e-07,0,0.00062292,0.00021108,2.9996e+08,58703,0,1.4651e+08,42088,188.7,1
644,6.19,12109,1,12109,1,0.00037612,-2.3567e-09,0,0.0010196,-6.8592e-05,-299.64,422.9,0,2.6167e+08,69813,12108,12432,1,12432,1,0.0022755,9.1182e-07,0,0.0022755,0.00028579,3.2505e+08,1.6722e+05,0,6.1896e+08,1.4275e+05,12431,12110,1,12110,1,0.0003755,2.6639e-09,0,0.00098365,-6.8625e-05,1.0936e+08,662.5,0,2.6859e+08,71728,12109,11763,1,11763,1,-0.0015218,-9.659e-07,0,2.3862e-05,-0.00042297,-6.1896e+08,-1.5581e+05,0,6.7687e+06,903.33,11762,11949,1,11949,1,-0.0006082,-1.7312e-07,0,0.00049205,-0.00025207,-2.4731e+08,-41614,0,1.6105e+08,22874,11948,12271,1,12271,1,0.0013601,1.7648e-07,0,0.0014762,0.00011487,2.6859e+08,43225,0,3.1805e+08,1.1907e+05,12270,188.7,0,188.7,0,0.0011367,3.1579e-07,0,0.00062659,0.00021203,3.0012e+08,66735,0,1.466e+08,47812,188.7,1
644,6.2,12109,1,12109,1,0.0003814,-3.754e-09,0,0.0010252,-6.9527e-05,135.73,428.45,0,2.6181e+08,79457,12108,12432,1,12432,1,0.0022901,1.0412e-06,0,0.0022901,0.0002865,3.2357e+08,1.9174e+05,0,6.2049e+08,1.6157e+05,12431,12110,1,12110,1,0.00038068,2.5029e-09,0,0.00098826,-6.9524e-05,1.1049e+08,645.59,0,2.6851e+08,81419,12109,11763,1,11763,1,-0.0015256,-1.1123e-06,0,2.7345e-05,-0.00042564,-6.2049e+08,-1.7751e+05,0,7.9688e+06,1095.4,11762,11949,1,11949,1,-0.00060764,-2.0044e-07,0,0.00049439,-0.00025386,-2.4708e+08,-47942,0,1.6121e+08,25897,11948,12271,1,12271,1,0.0013701,2.038e-07,0,0.0014833,0.0001148,2.6851e+08,49133,0,3.1663e+08,1.3532e+05,12270,188.7,0,188.7,0,0.0011421,3.6216e-07,0,0.0006305,0.00021304,3.0029e+08,76175,0,1.4671e+08,54429,188.7,1
644,6.21,12109,1,12109,1,0.00038701,-1.1083e-08,0,0.0010311,-7.0517e-05,408.46,-986.76,0,2.6194e+08,90982,12108,12432,1,12432,1,0.0023055,1.1946e-06,0,0.0023055,0.00028724,3.2199e+08,2.1815e+05,0,6.2208e+08,1.8365e+05,12431,12110,1,12110,1,0.00038618,-8.1225e-09,0,0.00099312,-7.0472e-05,1.1168e+08,-2027.8,0,2.6842e+08,92977,12109,11763,1,11763,1,-0.0015295,-1.2942e-06,0,3.1046e-05,-0.00042848,-6.2208e+08,-2.0409e+05,0,9.2309e+06,888.01,11762,11949,1,11949,1,-0.00060702,-2.3341e-07,0,0.00049687,-0.00025576,-2.4683e+08,-56379,0,1.6141e+08,29738,11948,12271,1,12271,1,0.0013806,2.2529e-07,0,0.0014907,0.00011473,2.6842e+08,54616,0,3.1512e+08,1.5462e+05,12270,188.7,0,188.7,0,0.0011479,4.1822e-07,0,0.00063466,0.0002141,3.0046e+08,87269,0,1.4683e+08,62298,188.7,1
644,6.22,12109,1,12109,1,0.000393,-1.3149e-08,0,0.0010375,-7.1571e-05,-589.67,-1254.5,0,2.6208e+08,1.0439e+05,12108,12432,1,12432,1,0.002322,1.3829e-06,0,0.002322,0.00028804,3.2033e+08,2.501e+05,0,6.238e+08,2.0955e+05,12431,12110,1,12110,1,0.00039205,-9.7998e-09,0,0.00099832,-7.1476e-05,1.1294e+08,-2437.7,0,2.6833e+08,1.0667e+05,12109,11763,1,11763,1,-0.0015337,-1.4966e-06,0,3.4989e-05,-0.00043152,-6.238e+08,-2.3542e+05,0,1.0559e+07,1320.3,11762,11949,1,11949,1,-0.00060636,-2.6974e-07,0,0.00049951,-0.00025778,-2.4656e+08,-64556,0,1.6161e+08,34089,11948,12271,1,12271,1,0.0013919,2.5937e-07,0,0.0014987,0.00011465,2.6833e+08,62774,0,3.1353e+08,1.771e+05,12270,188.7,0,188.7,0,0.001154,4.8337e-07,0,0.00063913,0.00021524,3.0065e+08,1.0024e+05,0,1.4697e+08,71428,188.7,1
644,6.23,12109,1,12109,1,0.00039944,-4.1016e-09,0,0.0010442,-7.27e-05,-355.13,1086,0,2.6221e+08,1.2052e+05,12108,12432,1,12432,1,0.0023397,1.628e-06,0,0.0023397,0.00028888,3.1854e+08,2.8989e+05,0,6.256e+08,2.4023e+05,12431,12110,1,12110,1,0.00039834,7.0076e-09,0,0.0010038,-7.2543e-05,1.1429e+08,1723.8,0,2.682e+08,1.2299e+05,12109,11763,1,11763,1,-0.0015382,-1.7296e-06,0,3.9224e-05,-0.00043477,-6.256e+08,-2.6885e+05,0,1.1964e+07,1750.9,11762,11949,1,11949,1,-0.0006056,-3.0524e-07,0,0.00050233,-0.00025994,-2.4624e+08,-72713,0,1.6181e+08,39224,11948,12271,1,12271,1,0.0014039,3.1186e-07,0,0.0015071,0.00011457,2.682e+08,76169,0,3.1181e+08,2.0396e+05,12270,188.7,0,188.7,0,0.0011606,5.625e-07,0,0.00064394,0.00021645,3.0084e+08,1.1568e+05,0,1.4712e+08,82413,188.7,1
644,6.24,12109,1,12109,1,0.00040639,-1.5818e-08,0,0.0010515,-7.3913e-05,-39.437,-1039.9,0,2.6235e+08,1.3942e+05,12108,12432,1,12432,1,0.0023588,1.8874e-06,0,0.0023588,0.00028978,3.1664e+08,3.345e+05,0,6.2752e+08,2.7602e+05,12431,12110,1,12110,1,0.00040509,-8.9432e-09,0,0.0010097,-7.3681e-05,1.1572e+08,-2193.5,0,2.6806e+08,1.4209e+05,12109,11763,1,11763,1,-0.0015429,-2.0373e-06,0,4.3769e-05,-0.00043828,-6.2752e+08,-3.1282e+05,0,1.3447e+07,1878.9,11762,11949,1,11949,1,-0.00060478,-3.6301e-07,0,0.00050535,-0.00026226,-2.459e+08,-86556,0,1.6202e+08,45466,11948,12271,1,12271,1,0.0014169,3.5315e-07,0,0.0015162,0.00011448,2.6806e+08,84790,0,3.0998e+08,2.354e+05,12270,188.7,0,188.7,0,0.0011676,6.5711e-07,0,0.00064914,0.00021775,3.0104e+08,1.3402e+05,0,1.4728e+08,95297,188.7,1
644,6.25,12109,1,12109,1,0.00041391,-1.5427e-08,0,0.0010594,-7.5221e-05,92.207,-543.74,0,2.6248e+08,1.6206e+05,12108,12432,1,12432,1,0.0023794,2.2236e-06,0,0.0023794,0.00029074,3.1459e+08,3.8977e+05,0,6.2958e+08,3.1873e+05,12431,12110,1,12110,1,0.00041239,-6.7606e-09,0,0.0010161,-7.4897e-05,1.1725e+08,-1422.6,0,2.679e+08,1.649e+05,12109,11763,1,11763,1,-0.001548,-2.3883e-06,0,4.8679e-05,-0.00044208,-6.2958e+08,-3.6423e+05,0,1.5021e+07,2289.7,11762,11949,1,11949,1,-0.00060386,-4.254e-07,0,0.00050861,-0.00026476,-2.4552e+08,-1.0003e+05,0,1.6224e+08,52795,11948,12271,1,12271,1,0.0014309,4.1431e-07,0,0.0015261,0.00011439,2.679e+08,99636,0,3.0801e+08,2.7304e+05,12270,188.7,0,188.7,0,0.0011752,7.7133e-07,0,0.0006548,0.00021915,3.0125e+08,1.5604e+05,0,1.4747e+08,1.1076e+05,188.7,1
644,6.26,12109,1,12109,1,0.0004221,-1.8114e-08,0,0.0010679,-7.6639e-05,660.35,-601.95,0,2.6261e+08,1.8949e+05,12108,12432,1,12432,1,0.0024019,2.6348e-06,0,0.0024019,0.00029176,3.1237e+08,4.5601e+05,0,6.3179e+08,3.697e+05,12431,12110,1,12110,1,0.00042031,-8.8423e-09,0,0.0010229,-7.6203e-05,1.189e+08,-1708.6,0,2.677e+08,1.9254e+05,12109,11763,1,11763,1,-0.0015534,-2.8243e-06,0,5.4008e-05,-0.00044623,-6.3179e+08,-4.2624e+05,0,1.67e+07,2627.5,11762,11949,1,11949,1,-0.00060282,-5.0299e-07,0,0.00051215,-0.00026746,-2.4509e+08,-1.172e+05,0,1.6245e+08,61343,11948,12271,1,12271,1,0.0014461,4.8748e-07,0,0.0015367,0.00011428,2.677e+08,1.1712e+05,0,3.0587e+08,3.1814e+05,12270,188.7,0,188.7,0,0.0011835,9.1193e-07,0,0.00066099,0.00022067,3.0147e+08,1.827e+05,0,1.4768e+08,1.295e+05,188.7,1
644,6.27,12109,1,12109,1,0.00043108,-1.14e-08,0,0.0010772,-7.8182e-05,356.46,1649.7,0,2.6274e+08,2.23e+05,12108,12432,1,12432,1,0.0024266,3.1506e-06,0,0.0024266,0.00029288,3.0997e+08,5.3786e+05,0,6.3418e+08,4.3551e+05,12431,12110,1,12110,1,0.00042895,7.7834e-09,0,0.0010304,-7.7605e-05,1.2069e+08,2177.6,0,2.6748e+08,2.2648e+05,12109,11763,1,11763,1,-0.0015593,-3.3538e-06,0,5.9809e-05,-0.00045077,-6.3418e+08,-4.9912e+05,0,1.8495e+07,3200.2,11762,11949,1,11949,1,-0.00060166,-5.847e-07,0,0.00051599,-0.0002704,-2.4461e+08,-1.3668e+05,0,1.6267e+08,71979,11948,12271,1,12271,1,0.0014627,5.9265e-07,0,0.0015483,0.00011417,2.6748e+08,1.4203e+05,0,3.0355e+08,3.7264e+05,12270,188.7,0,188.7,0,0.0011925,1.085e-06,0,0.00066781,0.00022233,3.017e+08,2.1508e+05,0,1.4793e+08,1.5234e+05,188.7,1
644,6.28,12109,1,12109,1,0.00044098,-1.7168e-08,0,0.0010874,-7.9874e-05,177.13,1556.1,0,2.6287e+08,2.6354e+05,12108,12432,1,12432,1,0.0024539,3.7663e-06,0,0.0024539,0.00029409,3.0737e+08,6.3806e+05,0,6.3678e+08,5.1677e+05,12431,12110,1,12110,1,0.00043842,7.3103e-09,0,0.0010385,-7.9124e-05,1.2262e+08,2105.8,0,2.6721e+08,2.6732e+05,12109,11763,1,11763,1,-0.0015657,-4.0242e-06,0,6.6159e-05,-0.00045579,-6.3678e+08,-5.9064e+05,0,2.0431e+07,3731.9,11762,11949,1,11949,1,-0.00060036,-6.9272e-07,0,0.00052022,-0.00027361,-2.4407e+08,-1.6319e+05,0,1.6289e+08,84903,11948,12271,1,12271,1,0.0014809,7.0419e-07,0,0.001561,0.00011406,2.6721e+08,1.6697e+05,0,3.0102e+08,4.3995e+05,12270,188.7,0,188.7,0,0.0012024,1.2986e-06,0,0.00067538,0.00022416,3.0195e+08,2.5472e+05,0,1.4821e+08,1.7999e+05,188.7,1
644,6.29,12109,1,12109,1,0.00045197,-3.0049e-08,0,0.0010988,-8.1737e-05,53.313,245.37,0,2.6299e+08,3.1372e+05,12108,12432,1,12432,1,0.0024843,4.5362e-06,0,0.0024843,0.00029542,3.0453e+08,7.5905e+05,0,6.3963e+08,6.1785e+05,12431,12110,1,12110,1,0.00044889,-2.1342e-09,0,0.0010494,-8.0772e-05,1.2474e+08,-541.58,0,2.669e+08,3.181e+05,12109,11763,1,11763,1,-0.0015727,-4.8824e-06,0,7.316e-05,-0.00046137,-6.3963e+08,-7.0419e+05,0,2.2534e+07,4719.7,11762,11949,1,11949,1,-0.00059888,-8.3791e-07,0,0.000524,-0.00027716,-2.4346e+08,-1.961e+05,0,1.6311e+08,1.0095e+05,11948,12271,1,12271,1,0.0015011,8.3748e-07,0,0.0015727,0.00011394,2.669e+08,1.9705e+05,0,2.9824e+08,5.2327e+05,12270,188.7,0,188.7,0,0.0012133,1.5686e-06,0,0.00068384,0.00022617,3.0222e+08,3.0373e+05,0,1.4854e+08,2.1423e+05,188.7,1
644,6.3,12109,1,12109,1,0.00046429,-3.8899e-08,0,0.0011114,-8.3807e-05,504.58,-199.6,0,2.6311e+08,3.7583e+05,12108,12432,1,12432,1,0.0025184,5.5299e-06,0,0.0025184,0.00029689,3.0139e+08,9.0961e+05,0,6.4278e+08,7.4402e+05,12431,12110,1,12110,1,0.00046055,-8.8312e-09,0,0.0010597,-8.2574e-05,1.2707e+08,-2149.5,0,2.6653e+08,3.8133e+05,12109,11763,1,11763,1,-0.0015804,-5.9461e-06,0,6.7374e-05,-0.00046765,-6.4278e+08,-8.4578e+05,0,2.484e+07,5489,11762,11949,1,11949,1,-0.0005972,-1.0228e-06,0,0.00052794,-0.0002811,-2.4276e+08,-2.3619e+05,0,1.6334e+08,1.2064e+05,11948,12271,1,12271,1,0.0015237,1.0111e-06,0,0.0015878,0.00011381,2.6653e+08,2.3676e+05,0,2.9518e+08,6.2532e+05,12270,188.7,0,188.7,0,0.0012256,1.9092e-06,0,0.0006934,0.00022843,3.0252e+08,3.646e+05,0,1.4893e+08,2.5665e+05,188.7,1
644,6.31,12109,1,12109,1,0.00047823,-5.1825e-08,0,0.0011256,-8.6127e-05,523.3,-994.41,0,2.6323e+08,4.5341e+05,12108,12432,1,12432,1,0.0025572,6.7965e-06,0,0.0025572,0.00029853,2.9792e+08,1.0984e+06,0,6.463e+08,9.0268e+05,12431,12110,1,12110,1,0.00047365,-1.6255e-08,0,0.0010713,-8.4555e-05,1.2965e+08,-3581.2,0,2.661e+08,4.6238e+05,12109,11763,1,11763,1,-0.0015891,-7.3083e-06,0,5.9647e-05,-0.00047479,-6.463e+08,-1.0243e+06,0,2.4163e+07,6561.4,11762,11949,1,11949,1,-0.00059528,-1.2521e-06,0,0.00053332,-0.00028552,-2.4196e+08,-2.8762e+05,0,1.6357e+08,1.4494e+05,11948,12271,1,12271,1,0.0015491,1.2324e-06,0,0.0016047,0.00011367,2.661e+08,2.8635e+05,0,2.9177e+08,7.5213e+05,12270,188.7,0,188.7,0,0.0012394,2.3443e-06,0,0.0007043,0.00023097,3.0285e+08,4.4093e+05,0,1.4939e+08,3.097e+05,188.7,1
644,6.32,12109,1,12109,1,0.00049418,-5.4874e-08,0,0.0011419,-8.8753e-05,-43.832,711.22,0,2.6334e+08,5.5159e+05,12108,12432,1,12432,1,0.0026017,8.4696e-06,0,0.0026017,0.00030037,2.9404e+08,1.3384e+06,0,6.5024e+08,1.1051e+06,12431,12110,1,12110,1,0.00048851,-7.6868e-09,0,0.0010845,-8.6745e-05,1.3253e+08,-1863.5,0,2.6558e+08,5.6476e+05,12109,11763,1,11763,1,-0.0015988,-9.0596e-06,0,5.0811e-05,-0.00048299,-6.5024e+08,-1.2468e+06,0,2.0658e+07,8115.1,11762,11949,1,11949,1,-0.00059302,-1.5408e-06,0,0.00053935,-0.00029052,-2.4101e+08,-3.5017e+05,0,1.6568e+08,1.7579e+05,11948,12271,1,12271,1,0.0015781,1.5174e-06,0,0.0016239,0.00011353,2.6558e+08,3.5445e+05,0,2.8793e+08,9.1814e+05,12270,188.7,0,188.7,0,0.0012551,2.91e-06,0,0.00071689,0.00023387,3.0321e+08,5.3764e+05,0,1.4994e+08,3.7678e+05,188.7,1
644,6.33,12109,1,12109,1,0.00051264,-7.6641e-08,0,0.0011606,-9.1759e-05,-167.31,-378.08,0,2.6344e+08,6.7659e+05,12108,12432,1,12432,1,0.0026536,1.0639e-05,0,0.0026536,0.00030247,2.8967e+08,1.6424e+06,0,6.5473e+08,1.3653e+06,12431,12110,1,12110,1,0.00050555,-2.1033e-08,0,0.0010997,-8.919e-05,1.3578e+08,-4732.6,0,2.6494e+08,6.9482e+05,12109,11763,1,11763,1,-0.0016098,-1.1385e-05,0,4.0596e-05,-0.00049254,-6.5473e+08,-1.5336e+06,0,1.6709e+07,9684.8,11762,11949,1,11949,1,-0.00059037,-1.9175e-06,0,0.00054619,-0.00029623,-2.3991e+08,-4.3395e+05,0,1.6866e+08,2.1459e+05,11948,12271,1,12271,1,0.0016115,1.8678e-06,0,0.0016458,0.00011341,2.6494e+08,4.3373e+05,0,2.836e+08,1.1275e+06,12270,188.7,0,188.7,0,0.0012732,3.653e-06,0,0.00073161,0.00023721,3.0363e+08,6.6129e+05,0,1.5061e+08,4.6229e+05,188.7,1
644,6.34,12109,1,12109,1,0.0005343,-8.5139e-08,0,0.0011824,-9.5243e-05,-722.3,2464.6,0,2.6353e+08,8.3773e+05,12108,12432,1,12432,1,0.002715,1.357e-05,0,0.002715,0.00030488,2.847e+08,2.0382e+06,0,6.5988e+08,1.7035e+06,12431,12110,1,12110,1,0.00052533,-1.9004e-09,0,0.0011173,-9.1942e-05,1.3948e+08,-525.8,0,2.6417e+08,8.6423e+05,12109,11763,1,11763,1,-0.0016225,-1.4462e-05,0,2.8627e-05,-0.00050383,-6.5988e+08,-1.8999e+06,0,1.2249e+07,12026,11762,11949,1,11949,1,-0.00058719,-2.372e-06,0,0.00055403,-0.00030285,-2.3858e+08,-5.3992e+05,0,1.7205e+08,2.6455e+05,11948,12271,1,12271,1,0.0016504,2.3677e-06,0,0.001671,0.00011329,2.6417e+08,5.4174e+05,0,2.7864e+08,1.3971e+06,12270,188.7,0,188.7,0,0.0012944,4.6444e-06,0,0.00074909,0.00024111,3.0411e+08,8.2106e+05,0,1.5142e+08,5.726e+05,188.7,1
644,6.35,12109,1,12109,1,0.00056018,-1.2038e-07,0,0.0012085,-9.9338e-05,454.75,1641.4,0,2.636e+08,1.0466e+06,12108,12432,1,12432,1,0.0027891,1.7508e-05,0,0.0027891,0.00030771,2.7903e+08,2.5508e+06,0,6.6592e+08,2.1474e+06,12431,12110,1,12110,1,0.00054867,-1.5947e-08,0,0.0011383,-9.5082e-05,1.4376e+08,-3729.1,0,2.6237e+08,1.0812e+06,12109,11763,1,11763,1,-0.0016373,-1.8659e-05,0,1.4387e-05,-0.00051747,-6.6592e+08,-2.3829e+06,0,7.1716e+06,14504,11762,11949,1,11949,1,-0.00058335,-3.0783e-06,0,0.00056316,-0.00031064,-2.3697e+08,-6.8023e+05,0,1.7596e+08,3.2818e+05,11948,12271,1,12271,1,0.0016967,3.0303e-06,0,0.0017006,0.00011319,2.6237e+08,6.7573e+05,0,2.7292e+08,1.7501e+06,12270,188.7,0,188.7,0,0.0013197,5.991e-06,0,0.00077027,0.00024576,3.0468e+08,1.0296e+06,0,1.5244e+08,7.1592e+05,188.7,1
644,6.36,12109,1,12109,1,0.00059175,-1.7115e-07,0,0.0012401,-0.0001042,877.35,-73.393,0,2.6363e+08,1.324e+06,12108,12432,1,12432,1,0.0028806,2.3019e-05,0,0.0028806,0.00031107,2.7241e+08,3.2278e+06,0,6.7309e+08,2.7375e+06,12431,12110,1,12110,1,0.00057671,-4.991e-08,0,0.0011562,-9.8681e-05,1.4876e+08,-9241,0,2.5815e+08,1.3734e+06,12109,11763,1,11763,1,-0.001655,-2.4497e-05,0,2.7291e-06,-0.00053433,-6.7309e+08,-3.0252e+06,0,1.0937e+06,17947,11762,11949,1,11949,1,-0.00057863,-4.0076e-06,0,0.00057671,-0.00031999,-2.3498e+08,-8.6059e+05,0,1.805e+08,4.116e+05,11948,12271,1,12271,1,0.0017527,3.9136e-06,0,0.0017528,0.00011312,2.5815e+08,8.5058e+05,0,2.6845e+08,2.2038e+06,12270,188.7,0,188.7,0,0.0013504,7.8619e-06,0,0.0007963,0.00025141,3.0536e+08,1.307e+06,0,1.5374e+08,9.0663e+05,188.7,1
644,6.37,12109,1,12109,1,0.00063108,-2.2688e-07,0,0.0012806,-0.00010997,-1252.6,1166.9,0,2.6394e+08,1.6927e+06,12108,12432,1,12432,1,0.0029969,3.0816e-05,0,0.0029969,0.00031514,2.6458e+08,4.1401e+06,0,6.8178e+08,3.5479e+06,12431,12110,1,12110,1,0.00061103,-6.5063e-08,0,0.0011794,-0.00010248,1.5471e+08,-11375,0,2.5314e+08,1.7631e+06,12109,11763,1,11763,1,-0.0016764,-3.2689e-05,0,1.3778e-05,-0.00055574,-6.8178e+08,-3.8837e+06,0,2.8355e+06,22794,11762,11949,1,11949,1,-0.00057269,-5.2663e-06,0,0.00059682,-0.0003308,-2.3247e+08,-1.1013e+06,0,1.8544e+08,5.2261e+05,11948,12271,1,12271,1,0.0018219,5.1744e-06,0,0.001822,0.00011311,2.5313e+08,1.1038e+06,0,2.654e+08,2.7922e+06,12270,188.7,0,188.7,0,0.0013887,1.0517e-05,0,0.00082759,0.00025837,3.0621e+08,1.6795e+06,0,1.549e+08,1.1614e+06,188.7,1
644,6.38,12109,1,12109,1,0.00068158,-3.1866e-07,0,0.0013326,-0.00011702,182.58,2863,0,2.6445e+08,2.1997e+06,12108,12432,1,12432,1,0.0031497,4.2365e-05,0,0.0031497,0.00032025,2.5946e+08,5.4038e+06,0,6.9268e+08,4.6878e+06,12431,12110,1,12110,1,0.00065424,-7.5499e-08,0,0.0012132,-0.00010676,1.6194e+08,-13097,0,2.4825e+08,2.2634e+06,12109,11763,1,11763,1,-0.0017032,-4.4814e-05,0,3.5752e-05,-0.00058388,-6.9268e+08,-5.0735e+06,0,1.0001e+07,28318,11762,11949,1,11949,1,-0.00056508,-7.0321e-06,0,0.0006164,-0.00034395,-2.2926e+08,-1.4434e+06,0,1.8694e+08,6.7673e+05,11948,12271,1,12271,1,0.00191,6.9359e-06,0,0.0019103,0.00011324,2.4825e+08,1.449e+06,0,2.6163e+08,3.5913e+06,12270,188.7,0,188.7,0,0.0014378,1.4475e-05,0,0.0008685,0.0002672,3.0733e+08,2.1983e+06,0,1.5625e+08,1.5148e+06,188.7,1
644,6.39,12109,1,12109,1,0.00074905,-4.6526e-07,0,0.0014015,-0.00012603,-12.175,1343.2,0,2.6495e+08,2.9113e+06,12108,12432,1,12432,1,0.0033595,6.0262e-05,0,0.0033595,0.00032682,2.5914e+08,7.1654e+06,0,7.0667e+08,6.3266e+06,12431,12110,1,12110,1,0.00071069,-1.3591e-07,0,0.0012672,-0.0001119,1.7097e+08,-22399,0,2.4064e+08,2.9473e+06,12109,11763,1,11763,1,-0.0017376,-6.3331e-05,0,6.5259e-05,-0.00062254,-7.0667e+08,-6.759e+06,0,1.9301e+07,35117,11762,11949,1,11949,1,-0.00055477,-9.6297e-06,0,0.00064217,-0.00036008,-2.2489e+08,-1.9295e+06,0,1.8768e+08,9.0523e+05,11948,12271,1,12271,1,0.0020262,9.692e-06,0,0.0020266,0.00011365,2.4064e+08,1.9525e+06,0,2.5976e+08,4.7358e+06,12270,188.7,0,188.7,0,0.0015033,2.0616e-05,0,0.00092458,0.0002788,3.0883e+08,2.9324e+06,0,1.5837e+08,2.0157e+06,188.7,1
644,6.4,12109,1,12109,1,0.00084341,-7.1506e-07,0,0.0014973,-0.00013794,-300.36,622.01,0,2.6537e+08,3.9408e+06,12108,12432,1,12432,1,0.0036644,8.9414e-05,0,0.0036644,0.00033563,2.5958e+08,9.749e+06,0,7.2538e+08,8.7523e+06,12431,12110,1,12110,1,0.00078758,-2.1406e-07,0,0.0013496,-0.0001185,1.8255e+08,-35002,0,2.3619e+08,3.9223e+06,12109,11763,1,11763,1,-0.0017836,-9.3296e-05,0,5.5406e-05,-0.00067877,-7.2538e+08,-9.2234e+06,0,2.1155e+07,43853,11762,11949,1,11949,1,-0.00054013,-1.4434e-05,0,0.0006482,-0.00038094,-2.1865e+08,-2.6167e+06,0,1.8769e+08,1.2269e+06,11948,12271,1,12271,1,0.0021861,1.4065e-05,0,0.002187,0.00011446,2.361e+08,2.6573e+06,0,2.5856e+08,6.3615e+06,12270,188.7,0,188.7,0,0.0015947,3.0715e-05,0,0.0010055,0.00029476,3.1095e+08,4.0076e+06,0,1.6178e+08,2.7494e+06,188.7,1
644,6.41,12109,1,12109,1,0.00098379,-1.1357e-06,0,0.0016391,-0.00015448,-3382.2,2636.7,0,2.6575e+08,5.4725e+06,12108,12432,1,12432,1,0.0041432,0.00014074,0,0.0041432,0.00034804,2.6271e+08,1.3688e+07,0,7.5172e+08,1.2473e+07,12431,12110,1,12110,1,0.00089866,-3.2777e-07,0,0.0014277,-0.00012629,1.9169e+08,-51829,0,2.3184e+08,5.4107e+06,12109,11763,1,11763,1,-0.0018484,-0.0001454,0,4.5021e-06,-0.00076714,-7.5172e+08,-1.3006e+07,0,3.6957e+05,53079,11762,11949,1,11949,1,-0.00051797,-2.2144e-05,0,0.00069176,-0.00040883,-2.0921e+08,-3.7197e+06,0,1.9169e+08,1.6989e+06,11948,12271,1,12271,1,0.0024488,2.1287e-05,0,0.0024489,0.00011594,2.3171e+08,3.7548e+06,0,2.6063e+08,8.6991e+06,12270,188.7,0,188.7,0,0.0017308,4.8612e-05,0,0.0011298,0.00031798,3.1416e+08,5.63e+06,0,1.6732e+08,3.8618e+06,188.7,1
644,6.42,12109,1,12109,1,0.0012098,-1.9947e-06,0,0.0018703,-0.00017864,-1746.5,2024.9,0,2.6727e+08,7.8648e+06,12108,12432,1,12432,1,0.0049811,0.0002391,0,0.0049811,0.00036673,2.7019e+08,2.0051e+07,0,7.9126e+08,1.8542e+07,12431,12110,1,12110,1,0.0010713,-5.1527e-07,0,0.0015427,-0.00013612,1.7298e+08,-91114,0,2.2964e+08,7.7032e+06,12109,11763,1,11763,1,-0.0019457,-0.00024329,0,5.94e-05,-0.00092203,-7.9126e+08,-1.9144e+07,0,1.5554e+07,68364,11762,11949,1,11949,1,-0.0004816,-3.5045e-05,0,0.00080057,-0.00044655,-1.9369e+08,-5.5023e+06,0,1.7302e+08,2.367e+06,11948,12271,1,12271,1,0.0028687,3.4448e-05,0,0.0028743,0.00011885,2.2921e+08,5.3199e+06,0,2.6628e+08,1.2615e+07,12270,188.7,0,188.7,0,0.0019512,8.4179e-05,0,0.001333,0.00035424,3.1941e+08,8.2202e+06,0,1.7478e+08,5.6456e+06,188.7,1
644,6.43,12109,1,12109,1,0.001614,-3.7953e-06,0,0.0022821,-0.00021554,-1878.7,2338.5,0,2.6902e+08,1.1749e+07,12108,12432,1,12432,1,0.0067034,0.00044868,0,0.0067035,0.00039721,2.8557e+08,3.0892e+07,0,8.5549e+08,2.8771e+07,12431,12110,1,12110,1,0.0013901,-2.0271e-07,0,0.0018103,-0.00014858,1.4856e+08,-30122,0,2.2458e+08,1.1153e+07,12109,11763,1,11763,1,-0.0021038,-0.00044867,0,8.3382e-06,-0.0012401,-8.5549e+08,-2.9691e+07,0,2.3323e+06,86714,11762,11949,1,11949,1,-0.00041427,-6.1528e-05,0,0.00084142,-0.00049668,-1.6505e+08,-8.6054e+06,0,1.4866e+08,3.4995e+06,11948,12271,1,12271,1,0.0035064,5.8829e-05,0,0.0035162,0.00012418,2.2775e+08,8.2955e+06,0,2.7894e+08,1.8694e+07,12270,188.7,0,188.7,0,0.0023532,0.00016626,0,0.0017199,0.00041605,3.288e+08,1.2522e+07,0,1.8916e+08,8.6165e+06,188.7,1
644,6.44,12109,1,12109,1,0.0024259,-8.0529e-06,0,0.0031151,-0.0002662,-20.636,6020.6,0,2.7222e+08,1.7976e+07,12108,12432,1,12432,1,0.011189,0.0010137,0,0.01119,0.00045016,3.1843e+08,4.9856e+07,0,9.6633e+08,4.5638e+07,12431,12110,1,12110,1,0.0020454,-1.9016e-06,0,0.0022533,-0.0001537,1.2468e+08,-2.4568e+05,0,2.2311e+08,1.6778e+07,12109,11763,1,11763,1,-0.0023767,-0.0010139,0,3.9644e-05,-0.0020657,-9.6633e+08,-4.8128e+07,0,1.2261e+07,-1.4063e+05,11762,11949,1,11949,1,-0.00026744,-0.00011817,0,0.0010276,-0.00053904,-1.0377e+08,-1.3427e+07,0,1.2638e+08,5.4141e+06,11948,12271,1,12271,1,0.0045656,0.00011368,0,0.004628,0.00013931,2.458e+08,1.2981e+07,0,2.9776e+08,2.8766e+07,12270,188.7,0,188.7,0,0.0032199,0.0003941,0,0.0025881,0.00052987,3.458e+08,1.9713e+07,0,2.139e+08,1.3523e+07,188.7,1
644,6.44,12109,1,12109,1,0.0025751,-8.9289e-06,0,0.00327,-0.00026933,2.1475,6258.1,0,2.7286e+08,1.9059e+07,12108,12432,1,12432,1,0.012395,0.0011708,0,0.012395,0.00045926,3.2557e+08,5.3132e+07,0,9.8535e+08,4.8729e+07,12431,12110,1,12110,1,0.0021605,-2.1942e-06,0,0.002329,-0.00015136,1.2304e+08,-2.5663e+05,0,2.2145e+08,1.7738e+07,12109,11763,1,11763,1,-0.0024235,-0.0011704,0,7.8331e-06,-0.0022744,-9.8535e+08,-5.1319e+07,0,2.1192e+06,1.2439e+05,11762,11949,1,11949,1,-0.00024058,-0.0001293,0,0.0010548,-0.00052895,-9.2883e+07,-1.4159e+07,0,1.2468e+08,5.8318e+06,11948,12271,1,12271,1,0.0047385,0.00012785,0,0.0048091,0.00014272,2.4447e+08,1.3804e+07,0,3.0187e+08,3.0413e+07,12270,188.7,0,188.7,0,0.0034024,0.00045341,0,0.0027774,0.0005483,3.4913e+08,2.0989e+07,0,2.1854e+08,1.4395e+07,188.7,1
644,6.44,12109,1,12109,1,0.0025944,-9.0437e-06,0,0.0032902,-0.00026958,-3.8386,6276.8,0,2.7296e+08,1.9197e+07,12108,12432,1,12432,1,0.012562,0.0011938,0,0.012563,0.00046043,3.2647e+08,5.3551e+07,0,9.8779e+08,4.9121e+07,12431,12110,1,12110,1,0.0021749,-2.2339e-06,0,0.0023341,-0.0001509,1.232e+08,-2.5795e+05,0,2.2254e+08,1.7877e+07,12109,11763,1,11763,1,-0.0024295,-0.0011939,0,9.8502e-06,-0.0023038,-9.8779e+08,-5.1727e+07,0,3.3209e+06,1.2369e+05,11762,11949,1,11949,1,-0.00023708,-0.00013107,0,0.0010651,-0.00052733,-9.1477e+07,-1.4233e+07,0,1.2423e+08,5.8872e+06,11948,12271,1,12271,1,0.0047634,0.00012912,0,0.0048292,0.00014318,2.442e+08,1.3902e+07,0,3.0283e+08,3.0646e+07,12270,188.7,0,188.7,0,0.0034268,0.00046154,0,0.0028027,0.00055063,3.4956e+08,2.1151e+07,0,2.1912e+08,1.4506e+07,188.7,1
