"N","Time","avg(GlobalElementId)","avg(ObjectId)","avg(PedigreeElementId)","avg(alpha)","avg(strain_x (0))","avg(strain_x (1))","avg(strain_x (2))","avg(strain_x (Magnitude))","avg(strain_yy)","avg(stress_x (0))","avg(stress_x (1))","avg(stress_x (2))","avg(stress_x (Magnitude))","avg(stress_yy)","avg(vtkOriginalCellIds)","max(GlobalElementId)","max(ObjectId)","max(PedigreeElementId)","max(alpha)","max(strain_x (0))","max(strain_x (1))","max(strain_x (2))","max(strain_x (Magnitude))","max(strain_yy)","max(stress_x (0))","max(stress_x (1))","max(stress_x (2))","max(stress_x (Magnitude))","max(stress_yy)","max(vtkOriginalCellIds)","med(GlobalElementId)","med(ObjectId)","med(PedigreeElementId)","med(alpha)","med(strain_x (0))","med(strain_x (1))","med(strain_x (2))","med(strain_x (Magnitude))","med(strain_yy)","med(stress_x (0))","med(stress_x (1))","med(stress_x (2))","med(stress_x (Magnitude))","med(stress_yy)","med(vtkOriginalCellIds)","min(GlobalElementId)","min(ObjectId)","min(PedigreeElementId)","min(alpha)","min(strain_x (0))","min(strain_x (1))","min(strain_x (2))","min(strain_x (Magnitude))","min(strain_yy)","min(stress_x (0))","min(stress_x (1))","min(stress_x (2))","min(stress_x (Magnitude))","min(stress_yy)","min(vtkOriginalCellIds)","q1(GlobalElementId)","q1(ObjectId)","q1(PedigreeElementId)","q1(alpha)","q1(strain_x (0))","q1(strain_x (1))","q1(strain_x (2))","q1(strain_x (Magnitude))","q1(strain_yy)","q1(stress_x (0))","q1(stress_x (1))","q1(stress_x (2))","q1(stress_x (Magnitude))","q1(stress_yy)","q1(vtkOriginalCellIds)","q3(GlobalElementId)","q3(ObjectId)","q3(PedigreeElementId)","q3(alpha)","q3(strain_x (0))","q3(strain_x (1))","q3(strain_x (2))","q3(strain_x (Magnitude))","q3(strain_yy)","q3(stress_x (0))","q3(stress_x (1))","q3(stress_x (2))","q3(stress_x (Magnitude))","q3(stress_yy)","q3(vtkOriginalCellIds)","std(GlobalElementId)","std(ObjectId)","std(PedigreeElementId)","std(alpha)","std(strain_x (0))","std(strain_x (1))","std(strain_x (2))","std(strain_x (Magnitude))","std(strain_yy)","std(stress_x (0))","std(stress_x (1))","std(stress_x (2))","std(stress_x (Magnitude))","std(stress_yy)","std(vtkOriginalCellIds)","vtkValidPointMask"
2111,0,12107,1,12107,1,0,0,0,0,0,0,0,0,0,0,12106,13208,1,13208,1,0,0,0,0,0,0,0,0,0,0,13207,12107,1,12107,1,0,0,0,0,0,0,0,0,0,0,12106,10985,1,10985,1,0,0,0,0,0,0,0,0,0,0,10984,11579,1,11579,1,0,0,0,0,0,0,0,0,0,0,11578,12634,1,12634,1,0,0,0,0,0,0,0,0,0,0,12633,611.88,0,611.88,0,0,0,0,0,0,0,0,0,0,0,611.88,1
2111,0.01,12107,1,12107,1,9.1776e-10,8.6279e-10,0,1.3953e-06,-3.0829e-10,-17247,293.8,0,5.4991e+05,-156.14,12106,13208,1,13208,1,2.8199e-06,2.6553e-08,0,2.8199e-06,5.0675e-07,1.0706e+06,8492.9,0,1.0992e+06,5198.7,13207,12107,1,12107,1,-6.0778e-08,6.3946e-10,0,1.4702e-06,8.5572e-09,-24397,212.57,0,5.6206e+05,-46.799,12106,10985,1,10985,1,-2.7024e-06,-3.6423e-08,0,5.7175e-08,-5.3481e-07,-1.0992e+06,-11650,0,23171,-5038.6,10984,11579,1,11579,1,-1.4713e-06,-1.7051e-09,0,6.9059e-07,-2.5983e-07,-5.9838e+05,-569.83,0,2.7755e+05,-649.77,11578,12634,1,12634,1,1.3561e-06,3.3324e-09,0,2.0747e-06,2.7596e-07,5.1868e+05,1116.2,0,8.4156e+05,440.61,12633,611.88,0,611.88,0,1.6099e-06,4.8383e-09,0,8.0252e-07,3.0179e-07,6.3398e+05,1583.6,0,3.1572e+05,1720.3,611.88,1
2111,0.02,12107,1,12107,1,6.9055e-08,5.856e-10,0,2.8399e-06,-1.3042e-08,-8555.5,194.96,0,1.1185e+06,-240.9,12106,13208,1,13208,1,5.5628e-06,7.7144e-09,0,5.5628e-06,1.0094e-06,2.1129e+06,2524.2,0,2.1893e+06,116.35,13207,12107,1,12107,1,-1.1209e-07,3.4658e-10,0,2.9444e-06,2.045e-08,-45768,114.43,0,1.1937e+06,-65.487,12106,10985,1,10985,1,-5.3825e-06,-3.5815e-09,0,1.12e-07,-1.0427e-06,-2.1893e+06,-1171.9,0,45752,-1704.5,10984,11579,1,11579,1,-2.9444e-06,-1.435e-11,0,1.5067e-06,-5.1298e-07,-1.1976e+06,-4.9151,0,5.8096e+05,-390.58,11578,12634,1,12634,1,2.7252e-06,1.0368e-09,0,4.3392e-06,5.5231e-07,1.0427e+06,343.85,0,1.6913e+06,-10.892,12633,611.88,0,611.88,0,3.2765e-06,1.1984e-09,0,1.6345e-06,6.143e-07,1.2896e+06,394.42,0,6.4153e+05,342.93,611.88,1
2111,0.03,12107,1,12107,1,1.0384e-07,-1.585e-09,0,4.2699e-06,-1.9161e-08,-12825,-527.54,0,1.6817e+06,-179.04,12106,13208,1,13208,1,8.372e-06,2.7395e-09,0,8.372e-06,1.5192e-06,3.1799e+06,901.82,0,3.2947e+06,103.51,13207,12107,1,12107,1,-1.6845e-07,-1.5501e-09,0,4.4214e-06,3.068e-08,-68787,-515.08,0,1.7924e+06,-34.482,12106,10985,1,10985,1,-8.1004e-06,-5.2747e-09,0,1.684e-07,-1.5688e-06,-3.2947e+06,-1736.7,0,68771,-1719.5,10984,11579,1,11579,1,-4.4216e-06,-2.5182e-09,0,2.2624e-06,-7.6859e-07,-1.7984e+06,-843.2,0,8.7215e+05,-237.37,11578,12634,1,12634,1,4.1008e-06,-6.1947e-10,0,6.5152e-06,8.2944e-07,1.5694e+06,-205.35,0,2.5396e+06,6.0902,12633,611.88,0,611.88,0,4.9265e-06,1.2692e-09,0,2.4577e-06,9.2352e-07,1.939e+06,421.67,0,9.6462e+05,322.02,611.88,1
2111,0.04,12107,1,12107,1,1.3769e-07,2.6281e-09,0,5.6745e-06,-2.5161e-08,-17145,874.47,0,2.2349e+06,-140.82,12106,13208,1,13208,1,1.115e-05,1.6186e-08,0,1.115e-05,2.0235e-06,4.2349e+06,5328.8,0,4.3885e+06,257.69,13207,12107,1,12107,1,-2.2373e-07,1.4046e-09,0,5.8769e-06,4.0814e-08,-91342,462.71,0,2.3824e+06,-71.518,12106,10985,1,10985,1,-1.0789e-05,-6.0238e-09,0,2.2373e-07,-2.0893e-06,-4.3885e+06,-1983.4,0,91337,-1799.5,10984,11579,1,11579,1,-5.8771e-06,-3.4671e-10,0,3.0069e-06,-1.0231e-06,-2.3904e+06,-114.96,0,1.1595e+06,-202.19,11578,12634,1,12634,1,5.4588e-06,5.0374e-09,0,8.66e-06,1.1027e-06,2.0891e+06,1695.6,0,3.3756e+06,50.968,12633,611.88,0,611.88,0,6.5469e-06,3.9734e-09,0,3.266e-06,1.2273e-06,2.5768e+06,1321.1,0,1.2818e+06,310.41,611.88,1
2111,0.05,12107,1,12107,1,1.7298e-07,-3.4248e-10,0,7.1163e-06,-3.1286e-08,-21360,-113.93,0,2.8028e+06,-43.539,12106,13208,1,13208,1,1.393e-05,3.4796e-09,0,1.393e-05,2.5276e-06,5.291e+06,1145.6,0,5.4816e+06,82.958,13207,12107,1,12107,1,-2.806e-07,-2.4701e-10,0,7.3794e-06,5.3074e-08,-1.1456e+05,-81.197,0,2.9917e+06,-6.8981,12106,10985,1,10985,1,-1.3477e-05,-2.6624e-09,0,2.8057e-07,-2.6102e-06,-5.4816e+06,-876.57,0,1.1456e+05,-1194.3,10984,11579,1,11579,1,-7.3795e-06,-1.0806e-09,0,3.776e-06,-1.2779e-06,-3.0015e+06,-357.34,0,1.4561e+06,-38.633,11578,12634,1,12634,1,6.8241e-06,2.3516e-10,0,1.0875e-05,1.3845e-06,2.6116e+06,77.677,0,4.2388e+06,18.222,12633,611.88,0,611.88,0,8.2106e-06,8.7266e-10,0,4.0961e-06,1.5391e-06,3.2316e+06,289.97,0,1.6076e+06,145.31,611.88,1
2111,0.06,12107,1,12107,1,2.0747e-07,-4.0878e-10,0,8.5428e-06,-3.7562e-08,-25717,-136.18,0,3.3646e+06,-68.898,12106,13208,1,13208,1,1.672e-05,2.194e-09,0,1.672e-05,3.0338e-06,6.3508e+06,722.39,0,6.5794e+06,83.806,13207,12107,1,12107,1,-3.3709e-07,-1.6683e-10,0,8.86e-06,6.2831e-08,-1.3761e+05,-56.339,0,3.5916e+06,-11.177,12106,10985,1,10985,1,-1.6176e-05,-2.8119e-09,0,3.3691e-07,-3.133e-06,-6.5794e+06,-925.94,0,1.3761e+05,-1431,10984,11579,1,11579,1,-8.86e-06,-9.2502e-10,0,4.533e-06,-1.534e-06,-3.6037e+06,-305.69,0,1.748e+06,-55.853,11578,12634,1,12634,1,8.191e-06,1.1935e-10,0,1.3056e-05,1.6621e-06,3.1347e+06,39.672,0,5.0893e+06,9.9056,12633,611.88,0,611.88,0,9.8565e-06,6.9505e-10,0,4.9172e-06,1.8476e-06,3.8794e+06,231.17,0,1.9299e+06,189.93,611.88,1
2111,0.07,12107,1,12107,1,2.4232e-07,-1.3822e-10,0,9.9654e-06,-4.3797e-08,-29875,-45.888,0,3.9249e+06,-48.949,12106,13208,1,13208,1,1.9501e-05,3.2015e-09,0,1.9501e-05,3.5382e-06,7.407e+06,1054.1,0,7.6735e+06,51.869,13207,12107,1,12107,1,-3.9286e-07,-1.3048e-10,0,1.0335e-05,7.4392e-08,-1.6041e+05,-42.666,0,4.19e+06,-12.17,12106,10985,1,10985,1,-1.8866e-05,-1.6124e-09,0,3.9271e-07,-3.654e-06,-7.6735e+06,-530.92,0,1.6038e+05,-981.66,10984,11579,1,11579,1,-1.0335e-05,-6.5605e-10,0,5.2885e-06,-1.7891e-06,-4.2037e+06,-221.3,0,2.0393e+06,-50.282,11578,12634,1,12634,1,9.5536e-06,2.0091e-10,0,1.5231e-05,1.9389e-06,3.6562e+06,67.707,0,5.9368e+06,5.9923,12633,611.88,0,611.88,0,1.1498e-05,6.8881e-10,0,5.736e-06,2.1553e-06,4.5254e+06,229.1,0,2.2513e+06,132.09,611.88,1
2111,0.08,12107,1,12107,1,2.7699e-07,-9.3064e-10,0,1.1389e-05,-5.0059e-08,-34122,-309.83,0,4.4857e+06,-53.807,12106,13208,1,13208,1,2.2295e-05,2.365e-09,0,2.2295e-05,4.0453e-06,8.4683e+06,778.39,0,8.7731e+06,105.74,13207,12107,1,12107,1,-4.4894e-07,-7.5006e-10,0,1.181e-05,8.4962e-08,-1.8329e+05,-245.09,0,4.7876e+06,-14.183,12106,10985,1,10985,1,-2.1569e-05,-3.9254e-09,0,4.4882e-07,-4.1777e-06,-8.7731e+06,-1292.3,0,1.8329e+05,-1130.7,10984,11579,1,11579,1,-1.181e-05,-1.8376e-09,0,6.0429e-06,-2.0453e-06,-4.8035e+06,-612.78,0,2.3302e+06,-64.014,11578,12634,1,12634,1,1.0922e-05,2.9177e-11,0,1.7403e-05,2.2155e-06,4.18e+06,9.42,0,6.7838e+06,18.341,12633,611.88,0,611.88,0,1.3141e-05,1.1217e-09,0,6.5556e-06,2.4632e-06,5.172e+06,373.66,0,2.5729e+06,158.47,611.88,1
2111,0.09,12107,1,12107,1,3.1154e-07,5.793e-10,0,1.2814e-05,-5.626e-08,-38427,192.96,0,5.0468e+06,-42.979,12106,13208,1,13208,1,2.5074e-05,2.9708e-09,0,2.5074e-05,4.5495e-06,9.5236e+06,978.01,0,9.8667e+06,51.359,13207,12107,1,12107,1,-5.052e-07,5.3676e-10,0,1.329e-05,9.5863e-08,-2.0626e+05,177.03,0,5.3877e+06,-11.383,12106,10985,1,10985,1,-2.4258e-05,-9.6925e-10,0,5.0499e-07,-4.6982e-06,-9.8667e+06,-319.47,0,2.0624e+05,-1106,10984,11579,1,11579,1,-1.329e-05,1.1801e-10,0,6.8003e-06,-2.3003e-06,-5.4054e+06,39.12,0,2.6223e+06,-36.324,11578,12634,1,12634,1,1.2284e-05,9.8817e-10,0,1.9585e-05,2.4931e-06,4.701e+06,324.55,0,7.6339e+06,3.4713,12633,611.88,0,611.88,0,1.4784e-05,5.3406e-10,0,7.3757e-06,2.7713e-06,5.819e+06,178.15,0,2.8948e+06,132.69,611.88,1
2111,0.1,12107,1,12107,1,3.4662e-07,1.2726e-09,0,1.4248e-05,-6.2671e-08,-42641,423.43,0,5.6114e+06,-78.156,12106,13208,1,13208,1,2.7886e-05,3.9634e-09,0,2.7886e-05,5.0597e-06,1.0592e+07,1343.3,0,1.0973e+07,116.84,13207,12107,1,12107,1,-5.6123e-07,1.1844e-09,0,1.4771e-05,1.0625e-07,-2.2922e+05,393.27,0,5.9885e+06,-27.918,12106,10985,1,10985,1,-2.6979e-05,-5.5848e-10,0,5.608e-07,-5.2253e-06,-1.0973e+07,-191.28,0,2.291e+05,-1530.4,10984,11579,1,11579,1,-1.4771e-05,4.6373e-10,0,7.5589e-06,-2.5583e-06,-6.0081e+06,155.56,0,2.9148e+06,-66.863,11578,12634,1,12634,1,1.3662e-05,2.0726e-09,0,2.1768e-05,2.7711e-06,5.2284e+06,691.07,0,8.4849e+06,5.3481,12633,611.88,0,611.88,0,1.6438e-05,1.0093e-09,0,8.2008e-06,3.0814e-06,6.47e+06,336.07,0,3.2187e+06,207.18,611.88,1
2111,0.11,12107,1,12107,1,3.8083e-07,-7.8642e-10,0,1.5658e-05,-6.8694e-08,-46896,-261.65,0,6.167e+06,-19.508,12106,13208,1,13208,1,3.0648e-05,3.8505e-09,0,3.0648e-05,5.5607e-06,1.1641e+07,1267.7,0,1.206e+07,132.16,13207,12107,1,12107,1,-6.1726e-07,-6.8324e-10,0,1.6238e-05,1.1834e-07,-2.5201e+05,-227.28,0,6.5828e+06,-16.731,12106,10985,1,10985,1,-2.965e-05,-4.1922e-09,0,6.1696e-07,-5.7427e-06,-1.206e+07,-1380.2,0,2.5196e+05,-833.25,10984,11579,1,11579,1,-1.6238e-05,-2.2622e-09,0,8.3087e-06,-2.8116e-06,-6.6044e+06,-754.03,0,3.204e+06,-58.144,11578,12634,1,12634,1,1.5015e-05,3.6795e-10,0,2.3929e-05,3.0463e-06,5.7461e+06,120.01,0,9.3271e+06,31.617,12633,611.88,0,611.88,0,1.8066e-05,1.7715e-09,0,9.0128e-06,3.3865e-06,7.1106e+06,590.02,0,3.5373e+06,94.874,611.88,1
2111,0.12,12107,1,12107,1,4.1633e-07,-1.043e-09,0,1.7086e-05,-7.516e-08,-50872,-346.55,0,6.7294e+06,-44.489,12106,13208,1,13208,1,3.3444e-05,2.243e-09,0,3.3444e-05,6.068e-06,1.2703e+07,738.46,0,1.316e+07,173.03,13207,12107,1,12107,1,-6.723e-07,-6.4821e-10,0,1.7717e-05,1.2884e-07,-2.7453e+05,-215.05,0,7.1836e+06,-29.211,12106,10985,1,10985,1,-3.2355e-05,-4.6755e-09,0,6.7203e-07,-6.2667e-06,-1.316e+07,-1539.2,0,2.7448e+05,-1007.8,10984,11579,1,11579,1,-1.7717e-05,-2.3252e-09,0,9.0676e-06,-3.0682e-06,-7.2063e+06,-777.61,0,3.4966e+06,-68.142,11578,12634,1,12634,1,1.6385e-05,1.8419e-10,0,2.6112e-05,3.3237e-06,6.2705e+06,61.316,0,1.0177e+07,4.6441,12633,611.88,0,611.88,0,1.9714e-05,1.526e-09,0,9.8348e-06,3.6953e-06,7.7591e+06,507.59,0,3.8599e+06,119.78,611.88,1
2111,0.13,12107,1,12107,1,4.5034e-07,-1.0565e-09,0,1.8517e-05,-8.1297e-08,-55471,-351.64,0,7.2929e+06,-50.327,12106,13208,1,13208,1,3.6234e-05,6.6771e-10,0,3.6234e-05,6.5742e-06,1.3762e+07,219.7,0,1.4258e+07,74.893,13207,12107,1,12107,1,-7.2987e-07,-1.1218e-09,0,1.9203e-05,1.383e-07,-2.9802e+05,-370.15,0,7.7849e+06,-5.304,12106,10985,1,10985,1,-3.5054e-05,-3.1363e-09,0,7.2946e-07,-6.7893e-06,-1.4258e+07,-1062.9,0,2.9798e+05,-1498.3,10984,11579,1,11579,1,-1.9203e-05,-1.6115e-09,0,9.8262e-06,-3.3241e-06,-7.8105e+06,-536.76,0,3.7891e+06,-33.45,11578,12634,1,12634,1,1.7751e-05,-5.384e-10,0,2.8299e-05,3.6024e-06,6.7935e+06,-178.29,0,1.103e+07,8.1522,12633,611.88,0,611.88,0,2.1364e-05,6.592e-10,0,1.0658e-05,4.0047e-06,8.4088e+06,219.85,0,4.1832e+06,172.88,611.88,1
2111,0.14,12107,1,12107,1,4.8473e-07,2.8814e-09,0,1.9931e-05,-8.7556e-08,-59709,959.14,0,7.8499e+06,-73.957,12106,13208,1,13208,1,3.9026e-05,8.5356e-09,0,3.9026e-05,7.0811e-06,1.4823e+07,2809.9,0,1.5357e+07,265.09,13207,12107,1,12107,1,-7.8537e-07,2.888e-09,0,2.0662e-05,1.4959e-07,-3.2073e+05,959.59,0,8.3765e+06,-60.453,12106,10985,1,10985,1,-3.7757e-05,-9.4805e-10,0,7.8528e-07,-7.3126e-06,-1.5357e+07,-303.82,0,3.2072e+05,-1554.2,10984,11579,1,11579,1,-2.0662e-05,6.6382e-10,0,1.0573e-05,-3.5802e-06,-8.4039e+06,224.72,0,4.077e+06,-137.07,11578,12634,1,12634,1,1.9118e-05,4.9998e-09,0,3.0449e-05,3.8764e-06,7.3167e+06,1663.8,0,1.1868e+07,12.742,12633,611.88,0,611.88,0,2.2996e-05,2.3584e-09,0,1.1472e-05,4.3106e-06,9.051e+06,785.93,0,4.5026e+06,180.97,611.88,1
2111,0.15,12107,1,12107,1,5.1947e-07,-5.4902e-10,0,2.1363e-05,-9.3712e-08,-64025,-182.42,0,8.4139e+06,-30.768,12106,13208,1,13208,1,4.1809e-05,5.2855e-09,0,4.1809e-05,7.586e-06,1.588e+07,1740.2,0,1.6452e+07,217.87,13207,12107,1,12107,1,-8.421e-07,-4.0968e-10,0,2.2155e-05,1.6136e-07,-3.4379e+05,-134.24,0,8.9817e+06,-26.255,12106,10985,1,10985,1,-4.0449e-05,-4.4884e-09,0,8.4198e-07,-7.8341e-06,-1.6452e+07,-1477.7,0,3.4374e+05,-949.21,10984,11579,1,11579,1,-2.2155e-05,-2.2181e-09,0,1.1337e-05,-3.8354e-06,-9.0111e+06,-736.54,0,4.3716e+06,-82.544,11578,12634,1,12634,1,2.0482e-05,6.8391e-10,0,3.2649e-05,4.1564e-06,7.8387e+06,226.59,0,1.2726e+07,34.699,12633,611.88,0,611.88,0,2.4648e-05,2.0767e-09,0,1.2297e-05,4.6203e-06,9.7013e+06,691.69,0,4.8262e+06,130.22,611.88,1
2111,0.16,12107,1,12107,1,5.5447e-07,6.6641e-10,0,2.2796e-05,-1.0004e-07,-68255,221.95,0,8.9781e+06,-38.223,12106,13208,1,13208,1,4.4598e-05,3.23e-09,0,4.4598e-05,8.0918e-06,1.694e+07,1094.7,0,1.7549e+07,236.58,13207,12107,1,12107,1,-8.9842e-07,5.9547e-10,0,2.3643e-05,1.7206e-07,-3.6687e+05,198.27,0,9.5853e+06,-10.053,12106,10985,1,10985,1,-4.3146e-05,-9.3252e-10,0,8.984e-07,-8.3566e-06,-1.7549e+07,-314.84,0,3.6686e+05,-1140,10984,11579,1,11579,1,-2.3643e-05,3.7435e-10,0,1.2099e-05,-4.0914e-06,-9.6166e+06,122.57,0,4.6654e+06,-42.816,11578,12634,1,12634,1,2.1849e-05,8.9667e-10,0,3.4843e-05,4.4353e-06,8.3618e+06,298.8,0,1.3581e+07,13.168,12633,611.88,0,611.88,0,2.6301e-05,4.3489e-10,0,1.3121e-05,4.9301e-06,1.0352e+07,145.86,0,5.1498e+06,125.68,611.88,1
2111,0.17,12107,1,12107,1,5.8936e-07,-2.2134e-09,0,2.4229e-05,-1.063e-07,-72537,-736.75,0,9.5427e+06,-26.186,12106,13208,1,13208,1,4.7421e-05,7.2417e-10,0,4.7421e-05,8.6041e-06,1.8012e+07,248.03,0,1.866e+07,137.7,13207,12107,1,12107,1,-9.5479e-07,-2.3331e-09,0,2.512e-05,1.8332e-07,-3.8984e+05,-774,0,1.0184e+07,-9.3235,12106,10985,1,10985,1,-4.5877e-05,-5.441e-09,0,9.5461e-07,-8.8856e-06,-1.866e+07,-1844.1,0,3.8981e+05,-872.04,10984,11579,1,11579,1,-2.5121e-05,-3.529e-09,0,1.2854e-05,-4.3501e-06,-1.0217e+07,-1171.7,0,4.9567e+06,-66.136,11578,12634,1,12634,1,2.3232e-05,-9.2748e-10,0,3.7019e-05,4.7125e-06,8.8909e+06,-312.27,0,1.4429e+07,33.227,12633,611.88,0,611.88,0,2.7955e-05,1.5668e-09,0,1.3946e-05,5.24e-06,1.1003e+07,522.11,0,5.4736e+06,101.77,611.88,1
2111,0.18,12107,1,12107,1,6.2362e-07,-1.2608e-09,0,2.5641e-05,-1.1272e-07,-76816,-419.59,0,1.0099e+07,-125.41,12106,13208,1,13208,1,5.0176e-05,6.7706e-10,0,5.0176e-05,9.104e-06,1.9058e+07,231.9,0,1.9744e+07,515.58,13207,12107,1,12107,1,-1.0106e-06,-1.3629e-09,0,2.659e-05,1.9432e-07,-4.1266e+05,-457.1,0,1.078e+07,-65.914,12106,10985,1,10985,1,-4.8543e-05,-3.5018e-09,0,1.0103e-06,-9.4019e-06,-1.9744e+07,-1187.3,0,4.1256e+05,-938.71,10984,11579,1,11579,1,-2.659e-05,-1.993e-09,0,1.3606e-05,-4.6032e-06,-1.0815e+07,-660.48,0,5.2466e+06,-208.63,11578,12634,1,12634,1,2.4582e-05,-5.4938e-10,0,3.9185e-05,4.9879e-06,9.4076e+06,-183.6,0,1.5274e+07,-11.461,12633,611.88,0,611.88,0,2.9584e-05,9.2178e-10,0,1.4759e-05,5.5456e-06,1.1644e+07,306.91,0,5.7927e+06,158.58,611.88,1
2111,0.19,12107,1,12107,1,6.5821e-07,1.1143e-10,0,2.7064e-05,-1.1886e-07,-81073,37.084,0,1.0659e+07,-89.616,12106,13208,1,13208,1,5.2948e-05,1.8337e-09,0,5.2948e-05,9.6068e-06,2.0111e+07,622.51,0,2.0835e+07,1081,13207,12107,1,12107,1,-1.0668e-06,6.1187e-11,0,2.8071e-05,2.0593e-07,-4.3554e+05,20.006,0,1.138e+07,-37.636,12106,10985,1,10985,1,-5.1224e-05,-8.7584e-10,0,1.0666e-06,-9.9222e-06,-2.0835e+07,-288.35,0,4.3542e+05,-900.5,10984,11579,1,11579,1,-2.8071e-05,-2.324e-10,0,1.4364e-05,-4.8589e-06,-1.1418e+07,-76.778,0,5.539e+06,-119.54,11578,12634,1,12634,1,2.594e-05,2.93e-10,0,4.1368e-05,5.2654e-06,9.9274e+06,97.116,0,1.6125e+07,-1.3248,12633,611.88,0,611.88,0,3.1226e-05,5.2042e-10,0,1.5578e-05,5.8532e-06,1.229e+07,173.05,0,6.114e+06,176.19,611.88,1
2111,0.2,12107,1,12107,1,6.9261e-07,-1.3902e-09,0,2.8483e-05,-1.2482e-07,-85348,-462.65,0,1.1218e+07,8.5404,12106,13208,1,13208,1,5.574e-05,1.2122e-09,0,5.574e-05,1.0114e-05,2.1172e+07,396.68,0,2.1934e+07,467.48,13207,12107,1,12107,1,-1.1226e-06,-1.2029e-09,0,2.9538e-05,2.1614e-07,-4.5831e+05,-401.2,0,1.1975e+07,10.659,12106,10985,1,10985,1,-5.3926e-05,-5.6453e-09,0,1.1225e-06,-1.0444e-05,-2.1934e+07,-1858.6,0,4.5826e+05,-845.26,10984,11579,1,11579,1,-2.9538e-05,-2.6589e-09,0,1.5115e-05,-5.1129e-06,-1.2014e+07,-876.8,0,5.8284e+06,-68.315,11578,12634,1,12634,1,2.7307e-05,-3.8548e-11,0,4.353e-05,5.5408e-06,1.0451e+07,-12.678,0,1.6967e+07,90.519,12633,611.88,0,611.88,0,3.2863e-05,1.4896e-09,0,1.6395e-05,6.1599e-06,1.2934e+07,495.91,0,6.4345e+06,179.78,611.88,1
2111,0.21,12107,1,12107,1,7.283e-07,-1.029e-09,0,2.9937e-05,-1.3128e-07,-89576,-342.55,0,1.1791e+07,0.69062,12106,13208,1,13208,1,5.8572e-05,3.5964e-09,0,5.8572e-05,1.0627e-05,2.2247e+07,1218.6,0,2.3048e+07,1739.4,13207,12107,1,12107,1,-1.1798e-06,-9.6806e-10,0,3.1045e-05,2.2727e-07,-4.8168e+05,-321.05,0,1.2586e+07,-0.43135,12106,10985,1,10985,1,-5.6665e-05,-5.048e-09,0,1.1797e-06,-1.0976e-05,-2.3048e+07,-1710.8,0,4.8163e+05,-1282.6,10984,11579,1,11579,1,-3.1046e-05,-1.9894e-09,0,1.5886e-05,-5.3736e-06,-1.2628e+07,-665.57,0,6.126e+06,-51.408,11578,12634,1,12634,1,2.8696e-05,-2.664e-11,0,4.5752e-05,5.8241e-06,1.0982e+07,-9.1239,0,1.7833e+07,44.993,12633,611.88,0,611.88,0,3.4541e-05,1.1407e-09,0,1.7232e-05,6.4745e-06,1.3595e+07,379.81,0,6.7631e+06,156.73,611.88,1
2111,0.22,12107,1,12107,1,7.6235e-07,6.3481e-11,0,3.1351e-05,-1.3767e-07,-93964,20.993,0,1.2348e+07,-104.82,12106,13208,1,13208,1,6.1331e-05,2.1078e-09,0,6.1331e-05,1.1128e-05,2.3295e+07,714.28,0,2.4134e+07,187.44,13207,12107,1,12107,1,-1.2358e-06,4.4336e-11,0,3.2519e-05,2.3807e-07,-5.0457e+05,14.727,0,1.3183e+07,-29.75,12106,10985,1,10985,1,-5.9335e-05,-1.8528e-09,0,1.2357e-06,-1.1493e-05,-2.4134e+07,-627.78,0,5.0454e+05,-1129.6,10984,11579,1,11579,1,-3.2519e-05,-9.8498e-11,0,1.664e-05,-5.629e-06,-1.3227e+07,-32.462,0,6.4165e+06,-154.13,11578,12634,1,12634,1,3.0047e-05,1.4861e-10,0,4.7922e-05,6.1e-06,1.1499e+07,48.797,0,1.868e+07,12.322,12633,611.88,0,611.88,0,3.6172e-05,2.6406e-10,0,1.8046e-05,6.7804e-06,1.4237e+07,88.172,0,7.0825e+06,201.9,611.88,1
2111,0.23,12107,1,12107,1,7.9649e-07,-2.1644e-09,0,3.2768e-05,-1.4328e-07,-98290,-720.57,0,1.2906e+07,118.07,12106,13208,1,13208,1,6.4129e-05,3.8761e-09,0,6.4129e-05,1.1636e-05,2.4358e+07,1276.5,0,2.5236e+07,1416.7,13207,12107,1,12107,1,-1.2917e-06,-2.0503e-09,0,3.3977e-05,2.4981e-07,-5.2719e+05,-681.7,0,1.3775e+07,70.185,12106,10985,1,10985,1,-6.2044e-05,-6.4913e-09,0,1.2913e-06,-1.2017e-05,-2.5236e+07,-2137.1,0,5.2706e+05,-518.2,10984,11579,1,11579,1,-3.3977e-05,-3.5864e-09,0,1.7386e-05,-5.8833e-06,-1.382e+07,-1197.2,0,6.7043e+06,-97.795,11578,12634,1,12634,1,3.1418e-05,-6.2857e-10,0,5.0071e-05,6.3745e-06,1.2024e+07,-208.33,0,1.9517e+07,244.33,12633,611.88,0,611.88,0,3.7806e-05,1.8803e-09,0,1.8861e-05,7.0864e-06,1.488e+07,624.49,0,7.4025e+06,322.4,611.88,1
2111,0.24,12107,1,12107,1,8.3155e-07,-1.5749e-09,0,3.4194e-05,-1.4953e-07,-1.0242e+05,-523.88,0,1.3467e+07,146.75,12106,13208,1,13208,1,6.6917e-05,3.3147e-09,0,6.6917e-05,1.2141e-05,2.5417e+07,1092,0,2.6332e+07,2917.3,13207,12107,1,12107,1,-1.3481e-06,-1.4555e-09,0,3.546e-05,2.608e-07,-5.5034e+05,-479.96,0,1.4376e+07,94.938,12106,10985,1,10985,1,-6.4739e-05,-5.7534e-09,0,1.3479e-06,-1.2538e-05,-2.6332e+07,-1894,0,5.5031e+05,-1077.3,10984,11579,1,11579,1,-3.546e-05,-2.8688e-09,0,1.8144e-05,-6.1381e-06,-1.4423e+07,-957.7,0,6.9968e+06,-30.541,11578,12634,1,12634,1,3.2783e-05,-1.3961e-10,0,5.2255e-05,6.6525e-06,1.2546e+07,-45.124,0,2.0369e+07,261.99,12633,611.88,0,611.88,0,3.9452e-05,1.628e-09,0,1.9682e-05,7.395e-06,1.5528e+07,540.73,0,7.7248e+06,280.41,611.88,1
2111,0.25,12107,1,12107,1,8.6606e-07,-1.3157e-09,0,3.5618e-05,-1.5596e-07,-1.0674e+05,-437.74,0,1.4028e+07,63.335,12106,13208,1,13208,1,6.9695e-05,3.8528e-09,0,6.9695e-05,1.2646e-05,2.6472e+07,1268.5,0,2.7425e+07,3169,13207,12107,1,12107,1,-1.4042e-06,-1.2919e-09,0,3.6938e-05,2.714e-07,-5.7326e+05,-434.14,0,1.4975e+07,9.5557,12106,10985,1,10985,1,-6.7427e-05,-3.8515e-09,0,1.4039e-06,-1.3059e-05,-2.7425e+07,-1268,0,5.7315e+05,-862.68,10984,11579,1,11579,1,-3.6939e-05,-2.2889e-09,0,1.8901e-05,-6.3944e-06,-1.5024e+07,-762.42,0,7.2886e+06,-61.434,11578,12634,1,12634,1,3.4145e-05,-2.486e-10,0,5.4434e-05,6.9299e-06,1.3067e+07,-84.853,0,2.1218e+07,109.76,12633,611.88,0,611.88,0,4.1095e-05,1.2303e-09,0,2.0502e-05,7.7031e-06,1.6175e+07,407.84,0,8.0465e+06,313.9,611.88,1
2111,0.26,12107,1,12107,1,9.0114e-07,3.5614e-10,0,3.7057e-05,-1.6227e-07,-1.1101e+05,117.41,0,1.4595e+07,66.856,12106,13208,1,13208,1,7.2493e-05,3.8856e-09,0,7.2493e-05,1.3153e-05,2.7535e+07,1279.1,0,2.8526e+07,1126.4,13207,12107,1,12107,1,-1.4608e-06,2.7795e-10,0,3.8436e-05,2.8305e-07,-5.9636e+05,91.447,0,1.5582e+07,33.77,12106,10985,1,10985,1,-7.0133e-05,-3.1089e-09,0,1.4606e-06,-1.3586e-05,-2.8526e+07,-1053.9,0,5.9632e+05,-1210.7,10984,11579,1,11579,1,-3.8436e-05,9.2637e-11,0,1.9668e-05,-6.6512e-06,-1.5633e+07,31.195,0,7.5841e+06,-92.415,11578,12634,1,12634,1,3.5516e-05,5.2393e-10,0,5.6643e-05,7.2103e-06,1.3592e+07,171.8,0,2.2079e+07,149.99,12633,611.88,0,611.88,0,4.2755e-05,6.1438e-10,0,2.133e-05,8.0142e-06,1.6828e+07,204.44,0,8.3715e+06,275.88,611.88,1
2111,0.27,12107,1,12107,1,9.3539e-07,1.1047e-09,0,3.8471e-05,-1.6803e-07,-1.1527e+05,368.64,0,1.5152e+07,237.73,12106,13208,1,13208,1,7.5269e-05,4.5278e-09,0,7.5269e-05,1.3658e-05,2.8589e+07,1491.3,0,2.9618e+07,1798.1,13207,12107,1,12107,1,-1.5166e-06,1.0365e-09,0,3.9899e-05,2.9358e-07,-6.1915e+05,346.55,0,1.6175e+07,178.08,12106,10985,1,10985,1,-7.2818e-05,-1.8277e-09,0,1.5165e-06,-1.4105e-05,-2.9618e+07,-601.73,0,6.1906e+05,-808.75,10984,11579,1,11579,1,-3.9899e-05,4.2374e-10,0,2.0416e-05,-6.9051e-06,-1.6228e+07,142.85,0,7.8728e+06,34.438,11578,12634,1,12634,1,3.6875e-05,1.7492e-09,0,5.8798e-05,7.4854e-06,1.4112e+07,574.7,0,2.2919e+07,369.42,12633,611.88,0,611.88,0,4.4387e-05,9.0292e-10,0,2.2144e-05,8.3199e-06,1.747e+07,303.09,0,8.691e+06,298.58,611.88,1
2111,0.28,12107,1,12107,1,9.698e-07,-1.3634e-09,0,3.9897e-05,-1.7444e-07,-1.1967e+05,-452.96,0,1.5713e+07,149.66,12106,13208,1,13208,1,7.8065e-05,6.9307e-09,0,7.8065e-05,1.4164e-05,2.9651e+07,2280.6,0,3.0718e+07,3351.9,13207,12107,1,12107,1,-1.5735e-06,-1.4341e-09,0,4.1375e-05,3.0531e-07,-6.4228e+05,-483.83,0,1.6774e+07,59.087,12106,10985,1,10985,1,-7.5523e-05,-6.5608e-09,0,1.5723e-06,-1.4628e-05,-3.0718e+07,-2225.1,0,6.414e+05,-1917.5,10984,11579,1,11579,1,-4.1376e-05,-2.2993e-09,0,2.1171e-05,-7.162e-06,-1.6829e+07,-765.37,0,8.1641e+06,-82.423,11578,12634,1,12634,1,3.8246e-05,-3.4243e-10,0,6.0972e-05,7.7618e-06,1.4637e+07,-113.52,0,2.3767e+07,284.04,12633,611.88,0,611.88,0,4.6032e-05,1.4312e-09,0,2.2965e-05,8.6284e-06,1.8118e+07,475.11,0,9.0132e+06,482.29,611.88,1
2111,0.29,12107,1,12107,1,1.004e-06,-1.3883e-09,0,4.1311e-05,-1.8083e-07,-1.2398e+05,-462.74,0,1.6271e+07,61.329,12106,13208,1,13208,1,8.0838e-05,6.869e-09,0,8.0838e-05,1.4667e-05,3.0704e+07,2261,0,3.1809e+07,2685.8,13207,12107,1,12107,1,-1.6292e-06,-1.2575e-09,0,4.2844e-05,3.1576e-07,-6.6514e+05,-418.95,0,1.7369e+07,41.151,12106,10985,1,10985,1,-7.8206e-05,-7.73e-09,0,1.6283e-06,-1.5148e-05,-3.1809e+07,-2544.7,0,6.646e+05,-1207.7,10984,11579,1,11579,1,-4.2844e-05,-2.6372e-09,0,2.1922e-05,-7.4149e-06,-1.7426e+07,-888.32,0,8.4536e+06,-62.125,11578,12634,1,12634,1,3.9603e-05,-9.2011e-11,0,6.3136e-05,8.0373e-06,1.5156e+07,-30.908,0,2.461e+07,154.3,12633,611.88,0,611.88,0,4.7664e-05,1.7768e-09,0,2.3779e-05,8.9344e-06,1.876e+07,585.49,0,9.3326e+06,266.81,611.88,1
2111,0.3,12107,1,12107,1,1.039e-06,-8.6186e-10,0,4.2735e-05,-1.874e-07,-1.2816e+05,-286.9,0,1.6831e+07,-49.8,12106,13208,1,13208,1,8.3623e-05,9.3299e-09,0,8.3623e-05,1.5173e-05,3.1762e+07,3071.3,0,3.2907e+07,880.1,13207,12107,1,12107,1,-1.6851e-06,-4.9791e-10,0,4.4322e-05,3.2601e-07,-6.879e+05,-166.92,0,1.7968e+07,-33.354,12106,10985,1,10985,1,-8.0904e-05,-8.066e-09,0,1.6847e-06,-1.5671e-05,-3.2907e+07,-2655.8,0,6.878e+05,-1385.3,10984,11579,1,11579,1,-4.4322e-05,-2.5782e-09,0,2.2679e-05,-7.6733e-06,-1.8027e+07,-864.98,0,8.7454e+06,-204.59,11578,12634,1,12634,1,4.0969e-05,7.7959e-10,0,6.5316e-05,8.3146e-06,1.5679e+07,258.94,0,2.546e+07,116.96,12633,611.88,0,611.88,0,4.9307e-05,2.7415e-09,0,2.4598e-05,9.2426e-06,1.9407e+07,900.64,0,9.6543e+06,329.06,611.88,1
2111,0.31,12107,1,12107,1,1.0731e-06,-1.3058e-09,0,4.4156e-05,-1.9381e-07,-1.3262e+05,-434.78,0,1.7391e+07,-161.39,12106,13208,1,13208,1,8.6407e-05,1.1819e-08,0,8.6407e-05,1.5677e-05,3.282e+07,3890.5,0,3.4002e+07,985.06,13207,12107,1,12107,1,-1.7409e-06,-1.1881e-09,0,4.5796e-05,3.3651e-07,-7.1082e+05,-403.48,0,1.8565e+07,-107.51,12106,10985,1,10985,1,-8.3596e-05,-1.0248e-08,0,1.7408e-06,-1.6194e-05,-3.4002e+07,-3373.9,0,7.1071e+05,-1186,10984,11579,1,11579,1,-4.5796e-05,-3.5686e-09,0,2.3432e-05,-7.9285e-06,-1.8627e+07,-1179,0,9.0357e+06,-387.25,11578,12634,1,12634,1,4.2331e-05,5.2936e-10,0,6.7486e-05,8.5912e-06,1.62e+07,180.62,0,2.6306e+07,47.401,12633,611.88,0,611.88,0,5.0946e-05,3.3384e-09,0,2.5416e-05,9.55e-06,2.0052e+07,1097.9,0,9.9754e+06,319.58,611.88,1
2111,0.32,12107,1,12107,1,1.1081e-06,-2.1641e-09,0,4.5584e-05,-2.0006e-07,-1.3678e+05,-719.03,0,1.7953e+07,-133.85,12106,13208,1,13208,1,8.9207e-05,8.2078e-09,0,8.9207e-05,1.6186e-05,3.3883e+07,2685.3,0,3.5104e+07,1376.4,13207,12107,1,12107,1,-1.7976e-06,-2.0326e-09,0,4.7273e-05,3.4807e-07,-7.337e+05,-685.4,0,1.9165e+07,-78.991,12106,10985,1,10985,1,-8.6306e-05,-9.3499e-09,0,1.7974e-06,-1.6716e-05,-3.5104e+07,-3078.2,0,7.3353e+05,-1664.2,10984,11579,1,11579,1,-4.7273e-05,-4.1488e-09,0,2.4188e-05,-8.1852e-06,-1.9228e+07,-1386.5,0,9.3274e+06,-293.03,11578,12634,1,12634,1,4.3704e-05,-3.53e-11,0,6.9665e-05,8.8676e-06,1.6726e+07,-11.723,0,2.7155e+07,60.882,12633,611.88,0,611.88,0,5.2594e-05,2.9602e-09,0,2.6238e-05,9.8588e-06,2.07e+07,972.66,0,1.0298e+07,391.75,611.88,1
2111,0.33,12107,1,12107,1,1.1429e-06,-1.354e-09,0,4.701e-05,-2.0592e-07,-1.4097e+05,-451.45,0,1.8515e+07,33.556,12106,13208,1,13208,1,9.1987e-05,1.063e-08,0,9.1987e-05,1.6691e-05,3.4939e+07,3499.2,0,3.6197e+07,1714.1,13207,12107,1,12107,1,-1.8536e-06,-1.0879e-09,0,4.8755e-05,3.568e-07,-7.5681e+05,-362.05,0,1.9766e+07,24.783,12106,10985,1,10985,1,-8.8994e-05,-7.2258e-09,0,1.8533e-06,-1.7237e-05,-3.6197e+07,-2379.3,0,7.5648e+05,-1984.8,10984,11579,1,11579,1,-4.8755e-05,-3.4487e-09,0,2.4948e-05,-8.4406e-06,-1.983e+07,-1134.7,0,9.6201e+06,-276.25,11578,12634,1,12634,1,4.5066e-05,1.6776e-10,0,7.185e-05,9.1461e-06,1.7247e+07,56.727,0,2.8006e+07,265.57,12633,611.88,0,611.88,0,5.4239e-05,2.6276e-09,0,2.7059e-05,1.0167e-05,2.1348e+07,865.28,0,1.062e+07,527.87,611.88,1
2111,0.34,12107,1,12107,1,1.1782e-06,2.6144e-10,0,4.8447e-05,-2.1143e-07,-1.4505e+05,87.608,0,1.9081e+07,392.9,12106,13208,1,13208,1,9.4775e-05,6.0784e-09,0,9.4775e-05,1.7197e-05,3.5998e+07,2001.1,0,3.7294e+07,2469,13207,12107,1,12107,1,-1.9099e-06,2.1644e-10,0,5.0251e-05,3.6948e-07,-7.7951e+05,71.47,0,2.0372e+07,249.48,12106,10985,1,10985,1,-9.169e-05,-2.6058e-09,0,1.9096e-06,-1.7761e-05,-3.7294e+07,-858.1,0,7.7936e+05,-930.55,10984,11579,1,11579,1,-5.0251e-05,-3.9689e-11,0,2.5714e-05,-8.6968e-06,-2.0439e+07,-12.865,0,9.9156e+06,89.076,11578,12634,1,12634,1,4.6432e-05,4.8853e-10,0,7.4055e-05,9.427e-06,1.777e+07,165.04,0,2.8866e+07,631.92,12633,611.88,0,611.88,0,5.5897e-05,6.7353e-10,0,2.7886e-05,1.0477e-05,2.2e+07,223.63,0,1.0945e+07,533.22,611.88,1
2111,0.35,12107,1,12107,1,1.2122e-06,-4.9187e-10,0,4.9866e-05,-2.1881e-07,-1.496e+05,-163.67,0,1.964e+07,-127.63,12106,13208,1,13208,1,9.7561e-05,8.1899e-09,0,9.7561e-05,1.7702e-05,3.7056e+07,2679.4,0,3.8391e+07,1228.8,13207,12107,1,12107,1,-1.9658e-06,-4.9701e-10,0,5.1721e-05,3.7933e-07,-8.0262e+05,-169.14,0,2.0968e+07,-85.581,12106,10985,1,10985,1,-9.4387e-05,-5.7034e-09,0,1.9653e-06,-1.8282e-05,-3.8391e+07,-1877.6,0,8.0218e+05,-1354.9,10984,11579,1,11579,1,-5.1722e-05,-1.4792e-09,0,2.6464e-05,-8.9514e-06,-2.1037e+07,-501.79,0,1.0205e+07,-295.58,11578,12634,1,12634,1,4.7798e-05,3.3799e-10,0,7.6219e-05,9.7021e-06,1.8292e+07,113.23,0,2.971e+07,27.804,12633,611.88,0,611.88,0,5.7534e-05,1.8025e-09,0,2.8703e-05,1.0785e-05,2.2645e+07,590.19,0,1.1265e+07,272.51,611.88,1
2111,0.36,12107,1,12107,1,1.247e-06,-1.7662e-09,0,5.1281e-05,-2.2454e-07,-1.5363e+05,-586.86,0,2.0197e+07,97.132,12106,13208,1,13208,1,0.00010035,5.5996e-09,0,0.00010035,1.8208e-05,3.8115e+07,1843.2,0,3.9487e+07,1194.2,13207,12107,1,12107,1,-2.0215e-06,-1.4004e-09,0,5.3184e-05,3.9187e-07,-8.2529e+05,-463.67,0,2.1561e+07,32.136,12106,10985,1,10985,1,-9.7083e-05,-8.5749e-09,0,2.0214e-06,-1.8803e-05,-3.9487e+07,-2823.1,0,8.2524e+05,-553.77,10984,11579,1,11579,1,-5.3184e-05,-4.002e-09,0,2.7215e-05,-9.2036e-06,-2.1632e+07,-1326.3,0,1.0494e+07,-47.783,11578,12634,1,12634,1,4.9161e-05,3.6035e-10,0,7.8377e-05,9.9772e-06,1.8814e+07,120.85,0,3.055e+07,144.4,12633,611.88,0,611.88,0,5.9166e-05,2.7038e-09,0,2.9517e-05,1.109e-05,2.3287e+07,896.32,0,1.1585e+07,270.43,611.88,1
2111,0.37,12107,1,12107,1,1.2815e-06,3.3569e-10,0,5.2719e-05,-2.3116e-07,-1.5816e+05,115.43,0,2.0763e+07,-68.968,12106,13208,1,13208,1,0.00010313,6.8695e-09,0,0.00010313,1.8713e-05,3.9173e+07,2261.5,0,4.0583e+07,1358.3,13207,12107,1,12107,1,-2.0785e-06,3.6445e-10,0,5.4683e-05,4.0208e-07,-8.4845e+05,124.04,0,2.2168e+07,-61.448,12106,10985,1,10985,1,-9.9777e-05,-5.1701e-09,0,2.0778e-06,-1.9326e-05,-4.0583e+07,-1701.8,0,8.4807e+05,-1406.2,10984,11579,1,11579,1,-5.4683e-05,-1.6345e-10,0,2.798e-05,-9.4626e-06,-2.2241e+07,-52.546,0,1.0789e+07,-246.08,11578,12634,1,12634,1,5.0528e-05,1.0975e-09,0,8.0584e-05,1.0258e-05,1.9337e+07,368.38,0,3.1411e+07,88.717,12633,611.88,0,611.88,0,6.0826e-05,1.538e-09,0,3.0345e-05,1.1402e-05,2.394e+07,505.11,0,1.191e+07,308.72,611.88,1
2111,0.38,12107,1,12107,1,1.3163e-06,1.4796e-09,0,5.4136e-05,-2.3606e-07,-1.6217e+05,491.01,0,2.1322e+07,500.39,12106,13208,1,13208,1,0.00010593,1.0692e-08,0,0.00010593,1.9223e-05,4.0235e+07,3499.4,0,4.1682e+07,4374.8,13207,12107,1,12107,1,-2.1342e-06,1.0507e-09,0,5.6149e-05,4.1351e-07,-8.7122e+05,349.37,0,2.2763e+07,322.3,12106,10985,1,10985,1,-0.00010248,-3.1926e-09,0,2.134e-06,-1.9852e-05,-4.1682e+07,-1051.3,0,8.7094e+05,-1632.3,10984,11579,1,11579,1,-5.6149e-05,-1.179e-10,0,2.873e-05,-9.7174e-06,-2.2838e+07,-39.911,0,1.1079e+07,25.48,11578,12634,1,12634,1,5.1897e-05,2.9064e-09,0,8.2743e-05,1.0534e-05,1.9861e+07,963.91,0,3.2253e+07,802.6,12633,611.88,0,611.88,0,6.2461e-05,2.0776e-09,0,3.1161e-05,1.1708e-05,2.4584e+07,685.54,0,1.223e+07,690.75,611.88,1
2111,0.39,12107,1,12107,1,1.3515e-06,5.9247e-10,0,5.5577e-05,-2.4308e-07,-1.6649e+05,196.14,0,2.1889e+07,215.12,12106,13208,1,13208,1,0.00010873,6.2384e-09,0,0.00010873,1.9728e-05,4.1298e+07,2054.1,0,4.2783e+07,3026.5,13207,12107,1,12107,1,-2.191e-06,4.4204e-10,0,5.7646e-05,4.2424e-07,-8.9452e+05,146.19,0,2.337e+07,109.24,12106,10985,1,10985,1,-0.00010519,-2.5502e-09,0,2.1902e-06,-2.0377e-05,-4.2783e+07,-864.83,0,8.9391e+05,-1657.3,10984,11579,1,11579,1,-5.7646e-05,2.234e-10,0,2.9497e-05,-9.9751e-06,-2.3447e+07,74.039,0,1.1375e+07,-121.6,11578,12634,1,12634,1,5.3269e-05,7.359e-10,0,8.4952e-05,1.0813e-05,2.0386e+07,247.01,0,3.3114e+07,430.49,12633,611.88,0,611.88,0,6.4123e-05,7.4607e-10,0,3.199e-05,1.2019e-05,2.5238e+07,245.56,0,1.2555e+07,530.07,611.88,1
2111,0.4,12107,1,12107,1,1.3852e-06,-1.2152e-09,0,5.6982e-05,-2.4981e-07,-1.7092e+05,-407.36,0,2.2443e+07,-47.932,12106,13208,1,13208,1,0.0001115,1.0997e-08,0,0.0001115,2.0231e-05,4.235e+07,3619.7,0,4.3875e+07,1030.2,13207,12107,1,12107,1,-2.2472e-06,-1.0517e-09,0,5.9099e-05,4.3482e-07,-9.1741e+05,-352.05,0,2.3959e+07,-20.69,12106,10985,1,10985,1,-0.00010787,-8.034e-09,0,2.2469e-06,-2.0893e-05,-4.3875e+07,-2644.7,0,9.1729e+05,-1366.4,10984,11579,1,11579,1,-5.91e-05,-3.4176e-09,0,3.0241e-05,-1.0228e-05,-2.4038e+07,-1138.5,0,1.1661e+07,-209.22,11578,12634,1,12634,1,5.4624e-05,4.9589e-10,0,8.7093e-05,1.1087e-05,2.0905e+07,164.63,0,3.3948e+07,111.79,12633,611.88,0,611.88,0,6.5745e-05,3.0148e-09,0,3.2799e-05,1.2324e-05,2.5876e+07,995.71,0,1.2873e+07,316.3,611.88,1
2111,0.41,12107,1,12107,1,1.4207e-06,-1.7844e-09,0,5.8406e-05,-2.5614e-07,-1.7486e+05,-594.24,0,2.3003e+07,-20.857,12106,13208,1,13208,1,0.00011429,1.1517e-08,0,0.00011429,2.0737e-05,4.341e+07,3790.9,0,4.4973e+07,2159.6,13207,12107,1,12107,1,-2.3021e-06,-1.6598e-09,0,6.0574e-05,4.4516e-07,-9.3988e+05,-542.52,0,2.4557e+07,-72.205,12106,10985,1,10985,1,-0.00011057,-1.1188e-08,0,2.3005e-06,-2.1418e-05,-4.4973e+07,-3683.2,0,9.3912e+05,-1244.7,10984,11579,1,11579,1,-6.0574e-05,-4.3604e-09,0,3.0997e-05,-1.0485e-05,-2.4638e+07,-1451.1,0,1.1953e+07,-276.25,11578,12634,1,12634,1,5.5992e-05,3.7561e-10,0,8.9268e-05,1.1363e-05,2.1428e+07,127.07,0,3.4795e+07,155.39,12633,611.88,0,611.88,0,6.7388e-05,3.5668e-09,0,3.3619e-05,1.2632e-05,2.6523e+07,1178.6,0,1.3195e+07,469.75,611.88,1
2111,0.42,12107,1,12107,1,1.4545e-06,-7.1795e-10,0,5.9835e-05,-2.6177e-07,-1.7948e+05,-238.15,0,2.3566e+07,162.56,12106,13208,1,13208,1,0.00011707,9.5809e-09,0,0.00011707,2.1241e-05,4.4466e+07,3153.9,0,4.6067e+07,3363.2,13207,12107,1,12107,1,-2.3595e-06,-6.5274e-10,0,6.206e-05,4.5698e-07,-9.6324e+05,-217.79,0,2.5159e+07,76.807,12106,10985,1,10985,1,-0.00011326,-5.0512e-09,0,2.3594e-06,-2.1937e-05,-4.6067e+07,-1662.9,0,9.6312e+05,-696.58,10984,11579,1,11579,1,-6.206e-05,-2.1375e-09,0,3.1754e-05,-1.074e-05,-2.5242e+07,-711.31,0,1.2245e+07,-74.826,11578,12634,1,12634,1,5.7354e-05,5.1316e-10,0,9.1453e-05,1.1642e-05,2.1949e+07,168.38,0,3.5648e+07,261.09,12633,611.88,0,611.88,0,6.9036e-05,1.9366e-09,0,3.4441e-05,1.294e-05,2.7172e+07,642.58,0,1.3517e+07,463.39,611.88,1
2111,0.43,12107,1,12107,1,1.4898e-06,2.0567e-11,0,6.1263e-05,-2.6765e-07,-1.8351e+05,6.8993,0,2.4129e+07,364.35,12106,13208,1,13208,1,0.00011985,8.5097e-09,0,0.00011985,2.1746e-05,4.5523e+07,2800.5,0,4.7162e+07,2878.6,13207,12107,1,12107,1,-2.4153e-06,-3.2208e-11,0,6.3544e-05,4.675e-07,-9.8589e+05,-11.031,0,2.5761e+07,297.85,12106,10985,1,10985,1,-0.00011595,-2.8392e-09,0,2.4152e-06,-2.2458e-05,-4.7162e+07,-934.96,0,9.8575e+05,-1250.8,10984,11579,1,11579,1,-6.3544e-05,-1.0101e-09,0,3.2515e-05,-1.0996e-05,-2.5845e+07,-335.09,0,1.2538e+07,69.752,11578,12634,1,12634,1,5.8719e-05,5.8547e-10,0,9.3643e-05,1.1921e-05,2.2472e+07,191.46,0,3.6501e+07,584.61,12633,611.88,0,611.88,0,7.0684e-05,1.4697e-09,0,3.5263e-05,1.3249e-05,2.782e+07,485.5,0,1.384e+07,511.11,611.88,1
2111,0.44,12107,1,12107,1,1.5245e-06,-3.769e-10,0,6.2681e-05,-2.7474e-07,-1.8772e+05,-125.53,0,2.4687e+07,24.131,12106,13208,1,13208,1,0.00012263,6.9518e-09,0,0.00012263,2.225e-05,4.6579e+07,2288.4,0,4.8256e+07,1546.2,13207,12107,1,12107,1,-2.471e-06,-4.3499e-10,0,6.5013e-05,4.7922e-07,-1.0088e+06,-147.98,0,2.6357e+07,24.57,12106,10985,1,10985,1,-0.00011864,-3.4418e-09,0,2.4709e-06,-2.2979e-05,-4.8256e+07,-1133.2,0,1.0086e+06,-1420.6,10984,11579,1,11579,1,-6.5013e-05,-1.8807e-09,0,3.3268e-05,-1.1251e-05,-2.6443e+07,-619.06,0,1.2828e+07,-26.96,11578,12634,1,12634,1,6.008e-05,4.8385e-10,0,9.581e-05,1.2196e-05,2.2993e+07,159.67,0,3.7345e+07,103.22,12633,611.88,0,611.88,0,7.232e-05,1.8513e-09,0,3.6079e-05,1.3556e-05,2.8464e+07,614.25,0,1.416e+07,247.71,611.88,1
2111,0.45,12107,1,12107,1,1.5591e-06,-1.1015e-09,0,6.4117e-05,-2.8031e-07,-1.9211e+05,-366.89,0,2.5253e+07,293.4,12106,13208,1,13208,1,0.00012544,5.3024e-09,0,0.00012544,2.2761e-05,4.7647e+07,1744.7,0,4.9363e+07,3731.3,13207,12107,1,12107,1,-2.5277e-06,-9.9576e-10,0,6.6502e-05,4.8856e-07,-1.032e+06,-336.34,0,2.696e+07,177.26,12106,10985,1,10985,1,-0.00012136,-3.8995e-09,0,2.5273e-06,-2.3507e-05,-4.9363e+07,-1319.6,0,1.0318e+06,-2443.8,10984,11579,1,11579,1,-6.6502e-05,-2.1514e-09,0,3.4028e-05,-1.1508e-05,-2.7049e+07,-717.9,0,1.3122e+07,-41.728,11578,12634,1,12634,1,6.1458e-05,-1.2001e-10,0,9.8002e-05,1.2475e-05,2.352e+07,-40.179,0,3.82e+07,544.49,12633,611.88,0,611.88,0,7.3977e-05,1.2748e-09,0,3.6906e-05,1.3866e-05,2.9117e+07,423.14,0,1.4485e+07,575.02,611.88,1
2111,0.46,12107,1,12107,1,1.5933e-06,-1.5687e-09,0,6.553e-05,-2.8726e-07,-1.9644e+05,-521.49,0,2.5809e+07,-22.455,12106,13208,1,13208,1,0.00012822,8.142e-09,0,0.00012822,2.3265e-05,4.8702e+07,2680.5,0,5.0455e+07,996.17,13207,12107,1,12107,1,-2.5839e-06,-1.3621e-09,0,6.7964e-05,5.0096e-07,-1.0548e+06,-444.66,0,2.7553e+07,-29.557,12106,10985,1,10985,1,-0.00012405,-9.3951e-09,0,2.5837e-06,-2.403e-05,-5.0455e+07,-3093,0,1.0548e+06,-1899.1,10984,11579,1,11579,1,-6.7965e-05,-4.2034e-09,0,3.4777e-05,-1.1764e-05,-2.7644e+07,-1394.5,0,1.3411e+07,-210.86,11578,12634,1,12634,1,6.2817e-05,5.793e-10,0,0.00010016,1.275e-05,2.404e+07,194.92,0,3.904e+07,138.42,12633,611.88,0,611.88,0,7.5606e-05,3.2063e-09,0,3.7719e-05,1.4172e-05,2.9758e+07,1063,0,1.4804e+07,296.88,611.88,1
2111,0.47,12107,1,12107,1,1.6286e-06,-8.3297e-10,0,6.6971e-05,-2.9331e-07,-2.0064e+05,-276.55,0,2.6377e+07,105.7,12106,13208,1,13208,1,0.00013103,4.3514e-09,0,0.00013103,2.3774e-05,4.9768e+07,1431.8,0,5.1559e+07,2642.7,13207,12107,1,12107,1,-2.6401e-06,-7.0593e-10,0,6.9462e-05,5.114e-07,-1.0779e+06,-236.44,0,2.816e+07,38.849,12106,10985,1,10985,1,-0.00012676,-3.5557e-09,0,2.6394e-06,-2.4552e-05,-5.1559e+07,-1170.5,0,1.0774e+06,-1090.3,10984,11579,1,11579,1,-6.9462e-05,-1.5421e-09,0,3.5543e-05,-1.202e-05,-2.8253e+07,-511.92,0,1.3706e+07,-69.755,11578,12634,1,12634,1,6.4192e-05,-3.5612e-11,0,0.00010236,1.303e-05,2.4567e+07,-11.797,0,3.9901e+07,164.92,12633,611.88,0,611.88,0,7.727e-05,9.8704e-10,0,3.8549e-05,1.4484e-05,3.0413e+07,327.14,0,1.513e+07,359.1,611.88,1
2111,0.48,12107,1,12107,1,1.6633e-06,-2.7099e-09,0,6.8382e-05,-2.9996e-07,-2.0477e+05,-902.06,0,2.6932e+07,-62.215,12106,13208,1,13208,1,0.00013381,4.832e-09,0,0.00013381,2.4279e-05,5.0825e+07,1590.2,0,5.2655e+07,596.67,13207,12107,1,12107,1,-2.6952e-06,-2.3435e-09,0,7.0919e-05,5.2184e-07,-1.1003e+06,-785.46,0,2.8751e+07,-33.337,12106,10985,1,10985,1,-0.00012946,-1.006e-08,0,2.695e-06,-2.5076e-05,-5.2655e+07,-3311.9,0,1.1002e+06,-1248,10984,11579,1,11579,1,-7.0919e-05,-5.3679e-09,0,3.629e-05,-1.2277e-05,-2.8845e+07,-1787.4,0,1.3994e+07,-143.47,11578,12634,1,12634,1,6.5555e-05,8.0563e-11,0,0.00010451,1.3304e-05,2.5088e+07,26.797,0,4.0737e+07,47.212,12633,611.88,0,611.88,0,7.8897e-05,3.3594e-09,0,3.936e-05,1.4789e-05,3.1053e+07,1118,0,1.5448e+07,175.13,611.88,1
2111,0.49,12107,1,12107,1,1.6982e-06,-1.1717e-09,0,6.9816e-05,-3.0634e-07,-2.0903e+05,-390.18,0,2.7497e+07,-91.611,12106,13208,1,13208,1,0.00013659,3.2223e-09,0,0.00013659,2.4783e-05,5.1882e+07,1060.4,0,5.3749e+07,748.9,13207,12107,1,12107,1,-2.7518e-06,-1.0952e-09,0,7.2412e-05,5.3236e-07,-1.1235e+06,-359.04,0,2.9357e+07,-65.294,12106,10985,1,10985,1,-0.00013215,-4.2242e-09,0,2.7515e-06,-2.5596e-05,-5.3749e+07,-1390.7,0,1.1233e+06,-900.48,10984,11579,1,11579,1,-7.2412e-05,-2.2946e-09,0,3.7054e-05,-1.2533e-05,-2.9452e+07,-765.99,0,1.4288e+07,-221.17,11578,12634,1,12634,1,6.692e-05,1.5138e-11,0,0.00010671,1.3584e-05,2.561e+07,5.1872,0,4.1595e+07,50.386,12633,611.88,0,611.88,0,8.0551e-05,1.4062e-09,0,4.0186e-05,1.5099e-05,3.1704e+07,467.47,0,1.5772e+07,221.06,611.88,1
2111,0.5,12107,1,12107,1,1.7329e-06,-6.2259e-10,0,7.1244e-05,-3.1218e-07,-2.1331e+05,-207.31,0,2.8059e+07,74.663,12106,13208,1,13208,1,0.00013938,1.4003e-09,0,0.00013938,2.5288e-05,5.2939e+07,459.8,0,5.4844e+07,1876.6,13207,12107,1,12107,1,-2.8083e-06,-6.2039e-10,0,7.3895e-05,5.4409e-07,-1.1464e+06,-206.95,0,2.9958e+07,22.254,12106,10985,1,10985,1,-0.00013484,-2.0361e-09,0,2.8081e-06,-2.6116e-05,-5.4844e+07,-692.11,0,1.1464e+06,-850.93,10984,11579,1,11579,1,-7.3895e-05,-1.0961e-09,0,3.7813e-05,-1.2787e-05,-3.0056e+07,-364.3,0,1.4581e+07,-30.731,11578,12634,1,12634,1,6.8284e-05,-1.744e-10,0,0.0001089,1.3862e-05,2.6132e+07,-57.259,0,4.2447e+07,106.24,12633,611.88,0,611.88,0,8.2199e-05,5.3437e-10,0,4.1008e-05,1.5408e-05,3.2353e+07,177.63,0,1.6095e+07,238.96,611.88,1
2111,0.51,12107,1,12107,1,1.7673e-06,-2.1534e-09,0,7.2655e-05,-3.1842e-07,-2.1752e+05,-716.08,0,2.8615e+07,56.52,12106,13208,1,13208,1,0.00014216,2.0906e-09,0,0.00014216,2.5794e-05,5.3997e+07,687.95,0,5.5941e+07,2062.9,13207,12107,1,12107,1,-2.8638e-06,-1.929e-09,0,7.5353e-05,5.5537e-07,-1.1692e+06,-637.11,0,3.0549e+07,16.854,12106,10985,1,10985,1,-0.00013753,-6.6318e-09,0,2.8636e-06,-2.6638e-05,-5.5941e+07,-2183.2,0,1.1691e+06,-1554.4,10984,11579,1,11579,1,-7.5353e-05,-4.0206e-09,0,3.8558e-05,-1.3042e-05,-3.0649e+07,-1347.1,0,1.4869e+07,-52.175,11578,12634,1,12634,1,6.9648e-05,-1.9147e-10,0,0.00011105,1.4136e-05,2.6654e+07,-63.251,0,4.3285e+07,109.83,12633,611.88,0,611.88,0,8.3828e-05,2.1316e-09,0,4.182e-05,1.5713e-05,3.2994e+07,708.41,0,1.6414e+07,256.83,611.88,1
2111,0.52,12107,1,12107,1,1.8019e-06,-1.1956e-09,0,7.4081e-05,-3.2506e-07,-2.2181e+05,-398.54,0,2.9177e+07,-99.74,12106,13208,1,13208,1,0.00014495,1.0896e-08,0,0.00014495,2.63e-05,5.5054e+07,3585.9,0,5.7037e+07,1867.3,13207,12107,1,12107,1,-2.9203e-06,-1.1874e-09,0,7.6834e-05,5.6485e-07,-1.1923e+06,-390.02,0,3.1149e+07,-57.125,12106,10985,1,10985,1,-0.00014023,-8.0094e-09,0,2.9191e-06,-2.7166e-05,-5.7037e+07,-2636.8,0,1.1918e+06,-2813.1,10984,11579,1,11579,1,-7.6834e-05,-3.7774e-09,0,3.9317e-05,-1.3299e-05,-3.1251e+07,-1247.7,0,1.5161e+07,-335.39,11578,12634,1,12634,1,7.1013e-05,6.2018e-10,0,0.00011323,1.4414e-05,2.7177e+07,208.79,0,4.4136e+07,154.23,12633,611.88,0,611.88,0,8.5473e-05,3.1691e-09,0,4.2641e-05,1.6022e-05,3.3641e+07,1050.3,0,1.6736e+07,490.72,611.88,1
2111,0.53,12107,1,12107,1,1.8363e-06,-2.2381e-09,0,7.5505e-05,-3.3093e-07,-2.2617e+05,-744.52,0,2.9738e+07,28.107,12106,13208,1,13208,1,0.00014774,4.2234e-09,0,0.00014774,2.6806e-05,5.6115e+07,1390.2,0,5.8134e+07,1348.1,13207,12107,1,12107,1,-2.9765e-06,-1.8331e-09,0,7.8309e-05,5.7636e-07,-1.2151e+06,-614.64,0,3.1747e+07,8.3186,12106,10985,1,10985,1,-0.00014293,-8.4165e-09,0,2.9761e-06,-2.7683e-05,-5.8134e+07,-2770.8,0,1.215e+06,-656.07,10984,11579,1,11579,1,-7.8309e-05,-4.5288e-09,0,4.0071e-05,-1.3553e-05,-3.1851e+07,-1497,0,1.5452e+07,-83.948,11578,12634,1,12634,1,7.2379e-05,1.0186e-10,0,0.0001154,1.4691e-05,2.77e+07,34.83,0,4.4983e+07,115.45,12633,611.88,0,611.88,0,8.7115e-05,2.8242e-09,0,4.346e-05,1.633e-05,3.4288e+07,939.39,0,1.7057e+07,208.82,611.88,1
2111,0.54,12107,1,12107,1,1.8714e-06,-2.2629e-09,0,7.6939e-05,-3.3775e-07,-2.3043e+05,-752.49,0,3.0303e+07,-175.83,12106,13208,1,13208,1,0.00015055,5.9745e-09,0,0.00015055,2.7316e-05,5.7182e+07,1966.9,0,5.924e+07,1735.7,13207,12107,1,12107,1,-3.0326e-06,-1.9336e-09,0,7.9795e-05,5.8789e-07,-1.238e+06,-641.8,0,3.235e+07,-65.049,12106,10985,1,10985,1,-0.00014565,-8.8814e-09,0,3.0318e-06,-2.8211e-05,-5.924e+07,-2924,0,1.2377e+06,-1711.3,10984,11579,1,11579,1,-7.9795e-05,-4.5372e-09,0,4.0832e-05,-1.3815e-05,-3.2456e+07,-1498.4,0,1.5745e+07,-394.24,11578,12634,1,12634,1,7.3755e-05,2.0927e-10,0,0.00011759,1.4969e-05,2.8226e+07,71.417,0,4.5837e+07,100.17,12633,611.88,0,611.88,0,8.8771e-05,2.8842e-09,0,4.4286e-05,1.664e-05,3.4939e+07,958.64,0,1.7381e+07,451.35,611.88,1
2111,0.55,12107,1,12107,1,1.9058e-06,-6.4784e-10,0,7.8362e-05,-3.434e-07,-2.347e+05,-215.15,0,3.0863e+07,55.591,12106,13208,1,13208,1,0.00015332,5.9421e-09,0,0.00015332,2.7818e-05,5.8234e+07,1955.8,0,6.033e+07,1098.6,13207,12107,1,12107,1,-3.089e-06,-3.4551e-10,0,8.1277e-05,5.9887e-07,-1.2611e+06,-115.26,0,3.295e+07,30.07,12106,10985,1,10985,1,-0.00014833,-5.478e-09,0,3.0882e-06,-2.8728e-05,-6.033e+07,-1803.4,0,1.2608e+06,-709.74,10984,11579,1,11579,1,-8.1277e-05,-2.5896e-09,0,4.159e-05,-1.4065e-05,-3.3058e+07,-864.54,0,1.6038e+07,-49.936,11578,12634,1,12634,1,7.5112e-05,8.2384e-10,0,0.00011978,1.5247e-05,2.8746e+07,273.24,0,4.6687e+07,131.88,12633,611.88,0,611.88,0,9.0412e-05,2.3728e-09,0,4.5105e-05,1.6947e-05,3.5585e+07,789.05,0,1.7703e+07,181.13,611.88,1
2111,0.56,12107,1,12107,1,1.941e-06,-1.8851e-09,0,7.9799e-05,-3.5028e-07,-2.3897e+05,-627.2,0,3.1429e+07,-166.52,12106,13208,1,13208,1,0.00015613,1.1839e-09,0,0.00015613,2.8328e-05,5.9301e+07,390.17,0,6.1436e+07,901.84,13207,12107,1,12107,1,-3.1455e-06,-1.723e-09,0,8.2762e-05,6.0921e-07,-1.2842e+06,-568.46,0,3.3553e+07,-119.64,12106,10985,1,10985,1,-0.00015105,-5.7702e-09,0,3.1444e-06,-2.9256e-05,-6.1436e+07,-1899.6,0,1.2837e+06,-1234,10984,11579,1,11579,1,-8.2763e-05,-3.0694e-09,0,4.235e-05,-1.4325e-05,-3.3663e+07,-1022.9,0,1.6331e+07,-330.66,11578,12634,1,12634,1,7.649e-05,-7.0376e-10,0,0.00012197,1.5525e-05,2.9273e+07,-234.58,0,4.7541e+07,-16.319,12633,611.88,0,611.88,0,9.207e-05,1.5082e-09,0,4.5932e-05,1.7259e-05,3.6238e+07,501.58,0,1.8028e+07,271.27,611.88,1
2111,0.57,12107,1,12107,1,1.9756e-06,-2.6439e-10,0,8.1228e-05,-3.5618e-07,-2.4326e+05,-88.058,0,3.1992e+07,-25.662,12106,13208,1,13208,1,0.0001589,5.378e-10,0,0.0001589,2.8832e-05,6.0356e+07,172.16,0,6.2528e+07,1458.9,13207,12107,1,12107,1,-3.2021e-06,-1.7123e-10,0,8.4253e-05,6.2082e-07,-1.3073e+06,-57.586,0,3.4157e+07,-24.523,12106,10985,1,10985,1,-0.00015373,-2.3036e-09,0,3.2017e-06,-2.9778e-05,-6.2528e+07,-779.87,0,1.3071e+06,-1697.4,10984,11579,1,11579,1,-8.4253e-05,-4.4921e-10,0,4.3112e-05,-1.4579e-05,-3.4269e+07,-148.66,0,1.6625e+07,-94.766,11578,12634,1,12634,1,7.785e-05,-4.7534e-11,0,0.00012416,1.5806e-05,2.9793e+07,-15.876,0,4.8397e+07,31.28,12633,611.88,0,611.88,0,9.3719e-05,3.2021e-10,0,4.6755e-05,1.7567e-05,3.6887e+07,106.7,0,1.835e+07,205.72,611.88,1
2111,0.58,12107,1,12107,1,2.0097e-06,9.4914e-10,0,8.2633e-05,-3.619e-07,-2.4749e+05,315.55,0,3.2545e+07,143.53,12106,13208,1,13208,1,0.00016166,1.2051e-08,0,0.00016166,2.9334e-05,6.1404e+07,3966.8,0,6.3614e+07,3948.9,13207,12107,1,12107,1,-3.2575e-06,5.8764e-10,0,8.5709e-05,6.3128e-07,-1.3298e+06,196.69,0,3.4747e+07,39.315,12106,10985,1,10985,1,-0.0001564,-2.033e-09,0,3.2564e-06,-3.0297e-05,-6.3614e+07,-665.12,0,1.3291e+06,-2343,10984,11579,1,11579,1,-8.5709e-05,-1.0247e-10,0,4.3857e-05,-1.4832e-05,-3.4861e+07,-33.246,0,1.6912e+07,-49.064,11578,12634,1,12634,1,7.9202e-05,1.9303e-09,0,0.00012631,1.6079e-05,3.0311e+07,644.28,0,4.9234e+07,229.07,12633,611.88,0,611.88,0,9.5339e-05,1.5767e-09,0,4.7563e-05,1.7871e-05,3.7525e+07,522.21,0,1.8668e+07,510.67,611.88,1
2111,0.59,12107,1,12107,1,2.0449e-06,-1.1537e-09,0,8.4072e-05,-3.6881e-07,-2.5176e+05,-383.6,0,3.3112e+07,-86.943,12106,13208,1,13208,1,0.00016448,5.9223e-10,0,0.00016448,2.9843e-05,6.2474e+07,194.75,0,6.4722e+07,1296.8,13207,12107,1,12107,1,-3.3139e-06,-1.0242e-09,0,8.7198e-05,6.4209e-07,-1.353e+06,-339.24,0,3.5351e+07,-66.594,12106,10985,1,10985,1,-0.00015912,-3.6759e-09,0,3.3138e-06,-3.082e-05,-6.4722e+07,-1245.5,0,1.3529e+06,-1365.2,10984,11579,1,11579,1,-8.7198e-05,-1.8718e-09,0,4.462e-05,-1.509e-05,-3.5467e+07,-624.72,0,1.7206e+07,-177.43,11578,12634,1,12634,1,8.0582e-05,-3.8641e-10,0,0.0001285,1.6358e-05,3.0839e+07,-127.51,0,5.0089e+07,24.113,12633,611.88,0,611.88,0,9.7e-05,9.6747e-10,0,4.8391e-05,1.8183e-05,3.8178e+07,321.94,0,1.8993e+07,255.38,611.88,1
2111,0.6,12107,1,12107,1,2.0793e-06,-1.4791e-09,0,8.548e-05,-3.7503e-07,-2.559e+05,-491.66,0,3.3667e+07,-87.531,12106,13208,1,13208,1,0.00016725,7.1271e-09,0,0.00016725,3.0347e-05,6.3528e+07,2346,0,6.5814e+07,673.01,13207,12107,1,12107,1,-3.3692e-06,-1.2117e-09,0,8.8657e-05,6.527e-07,-1.3755e+06,-406.1,0,3.5942e+07,-58.299,12106,10985,1,10985,1,-0.00016181,-8.2817e-09,0,3.3689e-06,-3.134e-05,-6.5814e+07,-2726.4,0,1.3754e+06,-815.56,10984,11579,1,11579,1,-8.8657e-05,-4.0427e-09,0,4.5367e-05,-1.5345e-05,-3.606e+07,-1348.8,0,1.7494e+07,-215.14,11578,12634,1,12634,1,8.1941e-05,7.1831e-10,0,0.00013065,1.6632e-05,3.1359e+07,236.14,0,5.0927e+07,49.304,12633,611.88,0,611.88,0,9.8625e-05,3.0661e-09,0,4.9202e-05,1.8487e-05,3.8818e+07,1018.6,0,1.9311e+07,208.54,611.88,1
2111,0.61,12107,1,12107,1,2.1142e-06,-1.8647e-10,0,8.6924e-05,-3.8104e-07,-2.6029e+05,-62.115,0,3.4235e+07,25.455,12106,13208,1,13208,1,0.00017005,1.3751e-09,0,0.00017005,3.0854e-05,6.459e+07,452.6,0,6.6914e+07,911.23,13207,12107,1,12107,1,-3.4264e-06,-9.6734e-11,0,9.0161e-05,6.6471e-07,-1.3988e+06,-32.205,0,3.6552e+07,10.574,12106,10985,1,10985,1,-0.00016451,-1.1744e-09,0,3.4262e-06,-3.1863e-05,-6.6914e+07,-386.59,0,1.3987e+06,-632.59,10984,11579,1,11579,1,-9.0161e-05,-4.3619e-10,0,4.6136e-05,-1.5601e-05,-3.6672e+07,-145.1,0,1.7791e+07,-37.824,11578,12634,1,12634,1,8.3312e-05,1.1627e-10,0,0.00013287,1.6914e-05,3.1883e+07,38.783,0,5.1791e+07,67.177,12633,611.88,0,611.88,0,0.00010029,3.9126e-10,0,5.0033e-05,1.8799e-05,3.9473e+07,129.98,0,1.9637e+07,124.08,611.88,1
2111,0.62,12107,1,12107,1,2.1485e-06,-1.2555e-09,0,8.8331e-05,-3.8728e-07,-2.6449e+05,-417.25,0,3.4789e+07,-0.40088,12106,13208,1,13208,1,0.00017282,4.9341e-09,0,0.00017282,3.1357e-05,6.5643e+07,1624.3,0,6.8006e+07,573.16,13207,12107,1,12107,1,-3.4818e-06,-9.7557e-10,0,9.1615e-05,6.7502e-07,-1.4215e+06,-324.92,0,3.7142e+07,3.8719,12106,10985,1,10985,1,-0.0001672,-6.583e-09,0,3.4818e-06,-3.2383e-05,-6.8006e+07,-2167.2,0,1.4215e+06,-571.13,10984,11579,1,11579,1,-9.1615e-05,-3.4137e-09,0,4.688e-05,-1.5855e-05,-3.7263e+07,-1138.3,0,1.8078e+07,-89.414,11578,12634,1,12634,1,8.467e-05,5.3073e-10,0,0.00013501,1.7187e-05,3.2403e+07,176.51,0,5.2626e+07,84.354,12633,611.88,0,611.88,0,0.00010191,2.5853e-09,0,5.0843e-05,1.9104e-05,4.0112e+07,859.45,0,1.9955e+07,151.61,611.88,1
2111,0.63,12107,1,12107,1,2.1835e-06,-9.2184e-10,0,8.977e-05,-3.9361e-07,-2.6881e+05,-306.93,0,3.5356e+07,-8.5647,12106,13208,1,13208,1,0.00017563,1.2293e-09,0,0.00017563,3.1865e-05,6.6707e+07,393.52,0,6.9108e+07,3684.4,13207,12107,1,12107,1,-3.5384e-06,-8.1096e-10,0,9.3109e-05,6.8516e-07,-1.4446e+06,-270.41,0,3.7747e+07,-40.766,12106,10985,1,10985,1,-0.00016991,-5.576e-09,0,3.538e-06,-3.2908e-05,-6.9108e+07,-1890.3,0,1.4445e+06,-1579.5,10984,11579,1,11579,1,-9.311e-05,-1.6395e-09,0,4.7644e-05,-1.6112e-05,-3.7871e+07,-544.08,0,1.8372e+07,-125.02,11578,12634,1,12634,1,8.6043e-05,-1.1647e-10,0,0.00013721,1.7467e-05,3.2929e+07,-38.449,0,5.3485e+07,56.8,12633,611.88,0,611.88,0,0.00010357,9.652e-10,0,5.1671e-05,1.9415e-05,4.0766e+07,321.26,0,2.028e+07,295.53,611.88,1
2111,0.64,12107,1,12107,1,2.218e-06,-1.7139e-09,0,9.1186e-05,-3.9981e-07,-2.73e+05,-569.96,0,3.5914e+07,2.2814,12106,13208,1,13208,1,0.00017841,1.4219e-09,0,0.00017841,3.237e-05,6.7764e+07,467.83,0,7.0203e+07,383.76,13207,12107,1,12107,1,-3.5942e-06,-1.5203e-09,0,9.4575e-05,6.967e-07,-1.4674e+06,-498.95,0,3.8342e+07,-3.0525,12106,10985,1,10985,1,-0.0001726,-5.9596e-09,0,3.5941e-06,-3.3429e-05,-7.0203e+07,-1962,0,1.4673e+06,-802.33,10984,11579,1,11579,1,-9.4575e-05,-3.2642e-09,0,4.8395e-05,-1.6368e-05,-3.8467e+07,-1077.6,0,1.8662e+07,-61.323,11578,12634,1,12634,1,8.7405e-05,1.0045e-12,0,0.00013938,1.7742e-05,3.345e+07,0.33838,0,5.4327e+07,68.482,12633,611.88,0,611.88,0,0.00010521,1.829e-09,0,5.2486e-05,1.9721e-05,4.1409e+07,607.97,0,2.06e+07,137.68,611.88,1
2111,0.65,12107,1,12107,1,2.2525e-06,-2.3555e-10,0,9.2611e-05,-4.0568e-07,-2.7733e+05,-78.387,0,3.6475e+07,140.54,12106,13208,1,13208,1,0.00018118,8.4624e-09,0,0.00018118,3.2875e-05,6.8818e+07,2785.9,0,7.1295e+07,3893.9,13207,12107,1,12107,1,-3.6507e-06,-1.5814e-10,0,9.6058e-05,7.0503e-07,-1.4904e+06,-52.423,0,3.8943e+07,28.176,12106,10985,1,10985,1,-0.00017528,-3.6405e-09,0,3.6498e-06,-3.395e-05,-7.1295e+07,-1216.6,0,1.49e+06,-2020.9,10984,11579,1,11579,1,-9.6058e-05,-1.6695e-09,0,4.9153e-05,-1.6622e-05,-3.907e+07,-554.51,0,1.8954e+07,-30.851,11578,12634,1,12634,1,8.8766e-05,7.1951e-10,0,0.00014156,1.802e-05,3.3971e+07,233.53,0,5.5179e+07,129.68,12633,611.88,0,611.88,0,0.00010685,1.8623e-09,0,5.3307e-05,2.0029e-05,4.2056e+07,618.59,0,2.0922e+07,491.19,611.88,1
2111,0.66,12107,1,12107,1,2.2873e-06,-1.3576e-09,0,9.4026e-05,-4.1238e-07,-2.8143e+05,-451.19,0,3.7032e+07,-27.513,12106,13208,1,13208,1,0.00018397,6.1092e-09,0,0.00018397,3.3379e-05,6.9876e+07,2011.3,0,7.2391e+07,709.19,13207,12107,1,12107,1,-3.706e-06,-1.0703e-09,0,9.7522e-05,7.1897e-07,-1.513e+06,-356.7,0,3.9536e+07,-1.8779,12106,10985,1,10985,1,-0.00017798,-7.3967e-09,0,3.7058e-06,-3.4471e-05,-7.2391e+07,-2435,0,1.5129e+06,-683.3,10984,11579,1,11579,1,-9.7522e-05,-3.9703e-09,0,4.9903e-05,-1.6877e-05,-3.9666e+07,-1320.1,0,1.9243e+07,-70.792,11578,12634,1,12634,1,9.0129e-05,7.3204e-10,0,0.00014372,1.8295e-05,3.4493e+07,244.21,0,5.6019e+07,60.541,12633,611.88,0,611.88,0,0.00010848,3.0466e-09,0,5.4121e-05,2.0335e-05,4.2698e+07,1013.3,0,2.1241e+07,157.31,611.88,1
2111,0.67,12107,1,12107,1,2.3216e-06,-6.6017e-10,0,9.5446e-05,-4.1877e-07,-2.8583e+05,-219.27,0,3.7591e+07,-121.22,12106,13208,1,13208,1,0.00018674,1.2559e-08,0,0.00018674,3.3883e-05,7.0931e+07,4134.2,0,7.3484e+07,1049.6,13207,12107,1,12107,1,-3.7623e-06,-5.7681e-10,0,9.8995e-05,7.2835e-07,-1.536e+06,-186.78,0,4.0134e+07,-17.389,12106,10985,1,10985,1,-0.00018067,-7.6632e-09,0,3.7621e-06,-3.4991e-05,-7.3484e+07,-2522.9,0,1.5358e+06,-1395.7,10984,11579,1,11579,1,-9.8996e-05,-3.7553e-09,0,5.0657e-05,-1.7133e-05,-4.0265e+07,-1258.3,0,1.9534e+07,-254.09,11578,12634,1,12634,1,9.149e-05,1.301e-09,0,0.00014589,1.8571e-05,3.5013e+07,437.7,0,5.6866e+07,81.828,12633,611.88,0,611.88,0,0.00011012,3.9051e-09,0,5.4938e-05,2.0643e-05,4.3343e+07,1296.7,0,2.1562e+07,355.35,611.88,1
2111,0.68,12107,1,12107,1,2.3564e-06,-1.4913e-09,0,9.6873e-05,-4.2468e-07,-2.9001e+05,-496.06,0,3.8154e+07,36.303,12106,13208,1,13208,1,0.00018954,6.1154e-09,0,0.00018954,3.4389e-05,7.1991e+07,2000.8,0,7.4582e+07,1171.8,13207,12107,1,12107,1,-3.8184e-06,-1.373e-09,0,0.00010048,7.4085e-07,-1.5588e+06,-457.42,0,4.0734e+07,25.689,12106,10985,1,10985,1,-0.00018336,-7.1699e-09,0,3.8183e-06,-3.5515e-05,-7.4582e+07,-2360.4,0,1.5588e+06,-781.65,10984,11579,1,11579,1,-0.00010048,-4.071e-09,0,5.1414e-05,-1.7387e-05,-4.0867e+07,-1349.1,0,1.9826e+07,-70.697,11578,12634,1,12634,1,9.2857e-05,6.1526e-10,0,0.00014807,1.8849e-05,3.5537e+07,201.87,0,5.7716e+07,138.95,12633,611.88,0,611.88,0,0.00011177,2.9961e-09,0,5.576e-05,2.0951e-05,4.3991e+07,997.3,0,2.1885e+07,190.84,611.88,1
2111,0.69,12107,1,12107,1,2.3912e-06,-1.5331e-09,0,9.8304e-05,-4.3106e-07,-2.9431e+05,-509.94,0,3.8717e+07,-11.288,12106,13208,1,13208,1,0.00019233,3.0175e-09,0,0.00019233,3.4897e-05,7.3054e+07,996.64,0,7.5683e+07,230.57,13207,12107,1,12107,1,-3.8748e-06,-1.2007e-09,0,0.00010196,7.5153e-07,-1.5819e+06,-399.52,0,4.1336e+07,-7.0521,12106,10985,1,10985,1,-0.00018607,-6.4987e-09,0,3.8748e-06,-3.6039e-05,-7.5683e+07,-2139.4,0,1.5819e+06,-247.43,10984,11579,1,11579,1,-0.00010196,-3.5572e-09,0,5.2174e-05,-1.7645e-05,-4.1471e+07,-1183.5,0,2.0119e+07,-76.77,11578,12634,1,12634,1,9.4228e-05,3.6432e-10,0,0.00015026,1.9127e-05,3.6061e+07,118.87,0,5.8569e+07,48.788,12633,611.88,0,611.88,0,0.00011342,2.3139e-09,0,5.6584e-05,2.126e-05,4.4641e+07,769.93,0,2.2208e+07,94.768,611.88,1
2111,0.7,12107,1,12107,1,2.4258e-06,-1.5366e-09,0,9.9729e-05,-4.3732e-07,-2.9862e+05,-511.09,0,3.9278e+07,-24.029,12106,13208,1,13208,1,0.00019512,2.3956e-09,0,0.00019512,3.5402e-05,7.4112e+07,783.62,0,7.6779e+07,656.37,13207,12107,1,12107,1,-3.9311e-06,-1.3684e-09,0,0.00010344,7.6265e-07,-1.6049e+06,-453.72,0,4.1935e+07,-5.455,12106,10985,1,10985,1,-0.00018877,-5.7147e-09,0,3.9311e-06,-3.6561e-05,-7.6779e+07,-1881.3,0,1.6049e+06,-438.1,10984,11579,1,11579,1,-0.00010344,-3.2418e-09,0,5.293e-05,-1.7901e-05,-4.2072e+07,-1085,0,2.041e+07,-89.725,11578,12634,1,12634,1,9.5593e-05,1.5571e-10,0,0.00015244,1.9404e-05,3.6583e+07,52.352,0,5.9417e+07,53.286,12633,611.88,0,611.88,0,0.00011506,1.9466e-09,0,5.7404e-05,2.1569e-05,4.5288e+07,647.12,0,2.253e+07,163.07,611.88,1
2111,0.71,12107,1,12107,1,2.4607e-06,-1.1454e-09,0,0.00010116,-4.4355e-07,-3.0292e+05,-380.76,0,3.9844e+07,0.58457,12106,13208,1,13208,1,0.00019793,4.0296e-09,0,0.00019793,3.5912e-05,7.5178e+07,1326.1,0,7.7883e+07,1606.3,13207,12107,1,12107,1,-3.9876e-06,-7.7396e-10,0,0.00010493,7.7338e-07,-1.628e+06,-258.26,0,4.2539e+07,-10.199,12106,10985,1,10985,1,-0.00019148,-5.7262e-09,0,3.9873e-06,-3.7086e-05,-7.7883e+07,-1885.1,0,1.6278e+06,-751.77,10984,11579,1,11579,1,-0.00010493,-2.7448e-09,0,5.3692e-05,-1.8158e-05,-4.2678e+07,-918.55,0,2.0704e+07,-117.79,11578,12634,1,12634,1,9.6967e-05,3.5261e-10,0,0.00015463,1.9684e-05,3.7109e+07,117.06,0,6.0273e+07,88.742,12633,611.88,0,611.88,0,0.00011672,1.9182e-09,0,5.823e-05,2.1879e-05,4.594e+07,637.44,0,2.2854e+07,239.48,611.88,1
2111,0.72,12107,1,12107,1,2.495e-06,-3.2848e-10,0,0.00010258,-4.4934e-07,-3.0717e+05,-109.06,0,4.0401e+07,164.72,12106,13208,1,13208,1,0.00020069,3.921e-09,0,0.00020069,3.6412e-05,7.6226e+07,1290.8,0,7.8968e+07,2095.2,13207,12107,1,12107,1,-4.0437e-06,-2.0806e-10,0,0.0001064,7.8491e-07,-1.6507e+06,-70.205,0,4.3135e+07,92.771,12106,10985,1,10985,1,-0.00019415,-3.1639e-09,0,4.0433e-06,-3.7603e-05,-7.8968e+07,-1041.1,0,1.6506e+06,-136.19,10984,11579,1,11579,1,-0.0001064,-1.5229e-09,0,5.4445e-05,-1.841e-05,-4.3276e+07,-506.65,0,2.0995e+07,36.271,11578,12634,1,12634,1,9.832e-05,5.5921e-10,0,0.0001568,1.996e-05,3.7627e+07,183.87,0,6.1119e+07,180.64,12633,611.88,0,611.88,0,0.00011835,1.4671e-09,0,5.9045e-05,2.2185e-05,4.6583e+07,487.53,0,2.3174e+07,231.71,611.88,1
2111,0.73,12107,1,12107,1,2.5297e-06,1.6223e-09,0,0.00010401,-4.5524e-07,-3.115e+05,539.09,0,4.0966e+07,309.42,12106,13208,1,13208,1,0.0002035,6.2114e-09,0,0.0002035,3.6925e-05,7.7296e+07,2012.1,0,8.0077e+07,5716,13207,12107,1,12107,1,-4.1002e-06,1.5747e-09,0,0.00010788,7.9142e-07,-1.6739e+06,528.26,0,4.3736e+07,162.91,12106,10985,1,10985,1,-0.00019688,-3.8998e-09,0,4.0983e-06,-3.8132e-05,-8.0077e+07,-1325.4,0,1.6731e+06,-2249.9,10984,11579,1,11579,1,-0.00010788,1.4859e-11,0,5.5204e-05,-1.8669e-05,-4.3879e+07,4.7606,0,2.1287e+07,-51.999,11578,12634,1,12634,1,9.97e-05,3.0112e-09,0,0.00015899,2.0239e-05,3.8155e+07,1010.8,0,6.197e+07,447.02,12633,611.88,0,611.88,0,0.00012001,1.7253e-09,0,5.987e-05,2.2494e-05,4.7234e+07,572.64,0,2.3498e+07,759.18,611.88,1
2111,0.74,12107,1,12107,1,2.5644e-06,8.8936e-11,0,0.00010544,-4.6113e-07,-3.1574e+05,29.208,0,4.1527e+07,456.27,12106,13208,1,13208,1,0.00020627,5.8621e-09,0,0.00020627,3.7427e-05,7.8347e+07,1929.5,0,8.1166e+07,3069.5,13207,12107,1,12107,1,-4.1565e-06,1.106e-10,0,0.00010936,8.0631e-07,-1.6969e+06,37.833,0,4.4337e+07,250.12,12106,10985,1,10985,1,-0.00019955,-3.1629e-09,0,4.1558e-06,-3.8649e-05,-8.1166e+07,-1070.9,0,1.6963e+06,-497.5,10984,11579,1,11579,1,-0.00010936,-8.0381e-10,0,5.5962e-05,-1.8923e-05,-4.4482e+07,-270.66,0,2.158e+07,75.391,11578,12634,1,12634,1,0.00010106,9.3957e-10,0,0.00016117,2.0517e-05,3.8674e+07,313.82,0,6.2822e+07,733.66,12633,611.88,0,611.88,0,0.00012165,1.2434e-09,0,6.069e-05,2.2803e-05,4.7881e+07,412.12,0,2.382e+07,541.44,611.88,1
2111,0.75,12107,1,12107,1,2.5994e-06,-9.3195e-10,0,0.00010687,-4.6823e-07,-3.1997e+05,-310.82,0,4.209e+07,139.1,12106,13208,1,13208,1,0.00020908,3.9671e-09,0,0.00020908,3.7935e-05,7.9413e+07,1306,0,8.2271e+07,5747.8,13207,12107,1,12107,1,-4.2125e-06,-8.8327e-10,0,0.00011084,8.1521e-07,-1.7198e+06,-291.68,0,4.4937e+07,33.971,12106,10985,1,10985,1,-0.00020227,-4.3366e-09,0,4.2113e-06,-3.9175e-05,-8.2271e+07,-1470.4,0,1.7191e+06,-1342,10984,11579,1,11579,1,-0.00011084,-1.9815e-09,0,5.672e-05,-1.9181e-05,-4.5084e+07,-655.03,0,2.1872e+07,-145.92,11578,12634,1,12634,1,0.00010243,5.1227e-11,0,0.00016335,2.0794e-05,3.92e+07,17.08,0,6.3672e+07,244.9,12633,611.88,0,611.88,0,0.0001233,1.2807e-09,0,6.1513e-05,2.3112e-05,4.853e+07,425.56,0,2.4143e+07,638.77,611.88,1
2111,0.76,12107,1,12107,1,2.634e-06,-3.0842e-10,0,0.0001083,-4.7417e-07,-3.2435e+05,-102.78,0,4.2654e+07,255.68,12106,13208,1,13208,1,0.00021187,2.9995e-09,0,0.00021187,3.8442e-05,8.0474e+07,987.41,0,8.337e+07,3982.2,13207,12107,1,12107,1,-4.2694e-06,-2.957e-10,0,0.00011233,8.286e-07,-1.7429e+06,-97.597,0,4.5541e+07,77.279,12106,10985,1,10985,1,-0.00020497,-2.1104e-09,0,4.2692e-06,-3.97e-05,-8.337e+07,-715.21,0,1.7426e+06,-345.32,10984,11579,1,11579,1,-0.00011233,-8.4588e-10,0,5.7481e-05,-1.9437e-05,-4.569e+07,-281.67,0,2.2166e+07,-0.92791,11578,12634,1,12634,1,0.0001038,1.7211e-10,0,0.00016555,2.1073e-05,3.9724e+07,57.93,0,6.4528e+07,336.93,12633,611.88,0,611.88,0,0.00012495,7.5385e-10,0,6.2338e-05,2.3422e-05,4.9181e+07,249.27,0,2.4466e+07,442.38,611.88,1
2111,0.77,12107,1,12107,1,2.6686e-06,-8.7842e-10,0,0.00010972,-4.8026e-07,-3.2858e+05,-292.44,0,4.3214e+07,316.37,12106,13208,1,13208,1,0.00021466,2.2957e-09,0,0.00021466,3.8947e-05,8.1533e+07,738.57,0,8.4466e+07,5624,13207,12107,1,12107,1,-4.3252e-06,-7.4287e-10,0,0.00011381,8.3915e-07,-1.7657e+06,-244.78,0,4.6138e+07,125.14,12106,10985,1,10985,1,-0.00020767,-3.6992e-09,0,4.3238e-06,-4.0221e-05,-8.4466e+07,-1217.8,0,1.7651e+06,-578.48,10984,11579,1,11579,1,-0.00011381,-1.9569e-09,0,5.8234e-05,-1.9692e-05,-4.6289e+07,-648.08,0,2.2456e+07,3.0488,11578,12634,1,12634,1,0.00010516,1.6578e-10,0,0.00016771,2.135e-05,4.0246e+07,56.523,0,6.5373e+07,393.37,12633,611.88,0,611.88,0,0.00012659,1.2738e-09,0,6.3155e-05,2.3729e-05,4.9826e+07,422.69,0,2.4787e+07,550.75,611.88,1
2111,0.78,12107,1,12107,1,2.7034e-06,-3.5825e-10,0,0.00011115,-4.8676e-07,-3.3283e+05,-119.19,0,4.3775e+07,220.23,12106,13208,1,13208,1,0.00021744,5.4268e-09,0,0.00021744,3.9452e-05,8.2589e+07,1786.1,0,8.5561e+07,3442,13207,12107,1,12107,1,-4.3815e-06,-3.0053e-10,0,0.00011529,8.5006e-07,-1.7887e+06,-98.744,0,4.6738e+07,108.82,12106,10985,1,10985,1,-0.00021036,-2.0361e-09,0,4.3813e-06,-4.0742e-05,-8.5561e+07,-670.18,0,1.7886e+06,-836.13,10984,11579,1,11579,1,-0.00011529,-9.5384e-10,0,5.8992e-05,-1.9948e-05,-4.6891e+07,-316.19,0,2.2748e+07,1.0859,11578,12634,1,12634,1,0.00010653,1.5667e-10,0,0.0001699,2.1627e-05,4.0768e+07,52.882,0,6.6224e+07,330.22,12633,611.88,0,611.88,0,0.00012824,7.7681e-10,0,6.3976e-05,2.4038e-05,5.0473e+07,256.86,0,2.5109e+07,415.1,611.88,1
2111,0.79,12107,1,12107,1,2.7376e-06,-3.5204e-09,0,0.00011255,-4.9303e-07,-3.3702e+05,-1171.3,0,4.4329e+07,178.91,12106,13208,1,13208,1,0.00022023,7.1086e-09,0,0.00022023,3.9959e-05,8.365e+07,2340,0,8.6661e+07,1841.8,13207,12107,1,12107,1,-4.4366e-06,-3.1528e-09,0,0.00011673,8.5979e-07,-1.8112e+06,-1044.7,0,4.7324e+07,113.92,12106,10985,1,10985,1,-0.00021306,-1.2289e-08,0,4.4365e-06,-4.1265e-05,-8.6661e+07,-4045.7,0,1.8111e+06,-1193,10984,11579,1,11579,1,-0.00011673,-6.8664e-09,0,5.9732e-05,-2.0206e-05,-4.7478e+07,-2280.1,0,2.3033e+07,-75.846,11578,12634,1,12634,1,0.0001079,-1.0181e-10,0,0.00017203,2.1899e-05,4.1291e+07,-33.914,0,6.7053e+07,351.59,12633,611.88,0,611.88,0,0.00012986,4.1006e-09,0,6.4784e-05,2.4341e-05,5.1111e+07,1362.9,0,2.5427e+07,415.29,611.88,1
2111,0.8,12107,1,12107,1,2.7726e-06,-7.4046e-10,0,0.00011399,-4.9889e-07,-3.413e+05,-246.47,0,4.4895e+07,364.37,12106,13208,1,13208,1,0.00022301,4.6595e-09,0,0.00022301,4.0462e-05,8.4705e+07,1533.4,0,8.7753e+07,5128.3,13207,12107,1,12107,1,-4.4935e-06,-4.9833e-10,0,0.00011823,8.7038e-07,-1.8344e+06,-166.12,0,4.7933e+07,155.34,12106,10985,1,10985,1,-0.00021575,-3.5176e-09,0,4.4928e-06,-4.1787e-05,-8.7753e+07,-1158,0,1.8341e+06,-828.75,10984,11579,1,11579,1,-0.00011823,-1.8022e-09,0,6.0501e-05,-2.0458e-05,-4.809e+07,-605.72,0,2.333e+07,25.762,11578,12634,1,12634,1,0.00010926,2.1477e-10,0,0.00017424,2.2181e-05,4.1813e+07,72.167,0,6.7917e+07,409.95,12633,611.88,0,611.88,0,0.00013152,1.2687e-09,0,6.5613e-05,2.4652e-05,5.1765e+07,420.97,0,2.5752e+07,664.17,611.88,1
2111,0.81,12107,1,12107,1,2.8075e-06,-5.0316e-10,0,0.00011542,-5.0581e-07,-3.4563e+05,-167.36,0,4.546e+07,105.21,12106,13208,1,13208,1,0.0002258,2.7545e-10,0,0.0002258,4.0969e-05,8.5766e+07,90.073,0,8.8852e+07,1139.6,13207,12107,1,12107,1,-4.55e-06,-5.3854e-10,0,0.00011972,8.8284e-07,-1.8576e+06,-179.15,0,4.8536e+07,17.792,12106,10985,1,10985,1,-0.00021845,-1.7047e-09,0,4.55e-06,-4.231e-05,-8.8852e+07,-577.71,0,1.8575e+06,-154.44,10984,11579,1,11579,1,-0.00011972,-7.3125e-10,0,6.1262e-05,-2.0715e-05,-4.8695e+07,-243.32,0,2.3624e+07,-1.5596,11578,12634,1,12634,1,0.00011063,-2.334e-10,0,0.00017643,2.2459e-05,4.2336e+07,-77.375,0,6.8772e+07,92.345,12633,611.88,0,611.88,0,0.00013317,3.7053e-10,0,6.6438e-05,2.4963e-05,5.2415e+07,123.05,0,2.6076e+07,227.01,611.88,1
2111,0.82,12107,1,12107,1,2.8417e-06,2.8004e-10,0,0.00011684,-5.1176e-07,-3.4998e+05,93.367,0,4.6018e+07,192.45,12106,13208,1,13208,1,0.00022858,4.9458e-09,0,0.00022858,4.1474e-05,8.6819e+07,1628.7,0,8.9944e+07,2703.8,13207,12107,1,12107,1,-4.6062e-06,1.4797e-10,0,0.00012119,8.9386e-07,-1.8804e+06,47.637,0,4.9133e+07,60.989,12106,10985,1,10985,1,-0.00022113,-2.5011e-09,0,4.6061e-06,-4.283e-05,-8.9944e+07,-823.32,0,1.8803e+06,-761.1,10984,11579,1,11579,1,-0.00012119,-4.8336e-10,0,6.2015e-05,-2.097e-05,-4.9294e+07,-161.76,0,2.3914e+07,8.7274,11578,12634,1,12634,1,0.00011198,9.9698e-10,0,0.0001786,2.2735e-05,4.2856e+07,333.73,0,6.9617e+07,189.25,12633,611.88,0,611.88,0,0.00013481,1.1856e-09,0,6.7254e-05,2.5269e-05,5.3059e+07,394,0,2.6396e+07,351.87,611.88,1
2111,0.83,12107,1,12107,1,2.8766e-06,-1.4395e-09,0,0.00011826,-5.1834e-07,-3.541e+05,-478.47,0,4.6578e+07,79.121,12106,13208,1,13208,1,0.00023138,7.8862e-09,0,0.00023138,4.1982e-05,8.7886e+07,2596,0,9.1048e+07,1770.7,13207,12107,1,12107,1,-4.6618e-06,-1.1774e-09,0,0.00012266,9.0448e-07,-1.903e+06,-386.72,0,4.9728e+07,10.045,12106,10985,1,10985,1,-0.00022385,-7.9074e-09,0,4.6616e-06,-4.3355e-05,-9.1048e+07,-2603.1,0,1.903e+06,-372.49,10984,11579,1,11579,1,-0.00012266,-3.9994e-09,0,6.2767e-05,-2.1226e-05,-4.9891e+07,-1338.9,0,2.4204e+07,-67.803,11578,12634,1,12634,1,0.00011336,6.2122e-10,0,0.00018077,2.3011e-05,4.3382e+07,207.55,0,7.046e+07,164.81,12633,611.88,0,611.88,0,0.00013645,3.1896e-09,0,6.8072e-05,2.5577e-05,5.3705e+07,1060.6,0,2.6717e+07,258.27,611.88,1
2111,0.84,12107,1,12107,1,2.9114e-06,5.3524e-10,0,0.0001197,-5.2417e-07,-3.5842e+05,177.48,0,4.7142e+07,253.06,12106,13208,1,13208,1,0.00023416,4.4879e-09,0,0.00023416,4.2487e-05,8.8942e+07,1476.9,0,9.2142e+07,5835.3,13207,12107,1,12107,1,-4.7185e-06,3.375e-10,0,0.00012415,9.1472e-07,-1.9263e+06,112.77,0,5.0333e+07,60.633,12106,10985,1,10985,1,-0.00022654,-3.6987e-09,0,4.7174e-06,-4.3875e-05,-9.2142e+07,-1253.3,0,1.9257e+06,-751.59,10984,11579,1,11579,1,-0.00012415,-8.8295e-12,0,6.3531e-05,-2.1482e-05,-5.0498e+07,-2.8409,0,2.4498e+07,-14.374,11578,12634,1,12634,1,0.00011472,1.0691e-09,0,0.00018297,2.3291e-05,4.3904e+07,357.28,0,7.1318e+07,242.83,12633,611.88,0,611.88,0,0.0001381,7.8724e-10,0,6.8897e-05,2.5886e-05,5.4356e+07,259.88,0,2.7041e+07,681.36,611.88,1
2111,0.85,12107,1,12107,1,2.9455e-06,-7.2052e-10,0,0.0001211,-5.3075e-07,-3.6269e+05,-239.33,0,4.7696e+07,78.444,12106,13208,1,13208,1,0.00023692,4.4143e-09,0,0.00023692,4.2987e-05,8.9989e+07,1453.1,0,9.3227e+07,2393.7,13207,12107,1,12107,1,-4.774e-06,-4.5659e-10,0,0.00012561,9.262e-07,-1.949e+06,-154.14,0,5.0923e+07,22.965,12106,10985,1,10985,1,-0.00022921,-4.7643e-09,0,4.7738e-06,-4.4393e-05,-9.3227e+07,-1568.5,0,1.9489e+06,-205.23,10984,11579,1,11579,1,-0.00012561,-2.3428e-09,0,6.4275e-05,-2.1735e-05,-5.109e+07,-780.15,0,2.4785e+07,-19.586,11578,12634,1,12634,1,0.00011607,5.1186e-10,0,0.00018511,2.3564e-05,4.4421e+07,170.07,0,7.2154e+07,118.56,12633,611.88,0,611.88,0,0.00013972,2.0197e-09,0,6.9706e-05,2.6191e-05,5.4994e+07,671.98,0,2.7358e+07,215.71,611.88,1
2111,0.86,12107,1,12107,1,2.9806e-06,-1.4736e-09,0,0.00012255,-5.3696e-07,-3.6706e+05,-490.44,0,4.8266e+07,123.09,12106,13208,1,13208,1,0.00023975,7.5044e-10,0,0.00023975,4.35e-05,9.1064e+07,239.94,0,9.4341e+07,2686.5,13207,12107,1,12107,1,-4.8309e-06,-1.5822e-09,0,0.00012711,9.3742e-07,-1.9722e+06,-524.33,0,5.153e+07,48.399,12106,10985,1,10985,1,-0.00023194,-3.4953e-09,0,4.8304e-06,-4.4924e-05,-9.4341e+07,-1150.7,0,1.972e+06,-321.14,10984,11579,1,11579,1,-0.00012711,-2.2314e-09,0,6.5041e-05,-2.1994e-05,-5.1699e+07,-742.25,0,2.5081e+07,-0.27448,11578,12634,1,12634,1,0.00011746,-6.7989e-10,0,0.00018732,2.3845e-05,4.4951e+07,-226.01,0,7.3014e+07,162.22,12633,611.88,0,611.88,0,0.00014139,1.0297e-09,0,7.0539e-05,2.6504e-05,5.5651e+07,342.83,0,2.7685e+07,248.65,611.88,1
2111,0.87,12107,1,12107,1,3.0155e-06,-7.6783e-10,0,0.00012398,-5.4334e-07,-3.7126e+05,-255.64,0,4.8828e+07,91.478,12106,13208,1,13208,1,0.00024254,8.9834e-10,0,0.00024254,4.4006e-05,9.2122e+07,295.69,0,9.5437e+07,1892.5,13207,12107,1,12107,1,-4.8872e-06,-6.8777e-10,0,0.00012859,9.4815e-07,-1.9951e+06,-230.82,0,5.2132e+07,16.599,12106,10985,1,10985,1,-0.00023464,-2.1606e-09,0,4.8871e-06,-4.5446e-05,-9.5437e+07,-725.97,0,1.995e+06,-183.87,10984,11579,1,11579,1,-0.00012859,-1.3132e-09,0,6.58e-05,-2.2251e-05,-5.2303e+07,-436.43,0,2.5374e+07,-8.0157,11578,12634,1,12634,1,0.00011882,-2.2791e-10,0,0.0001895,2.4123e-05,4.5474e+07,-76.126,0,7.3866e+07,76.185,12633,611.88,0,611.88,0,0.00014304,6.6373e-10,0,7.136e-05,2.6812e-05,5.6299e+07,220.67,0,2.8008e+07,208.93,611.88,1
2111,0.88,12107,1,12107,1,3.0497e-06,3.9257e-10,0,0.00012539,-5.482e-07,-3.7552e+05,130.11,0,4.9386e+07,623.91,12106,13208,1,13208,1,0.00024531,1.3134e-08,0,0.00024531,4.451e-05,9.3174e+07,4323.1,0,9.6527e+07,4309.6,13207,12107,1,12107,1,-4.9433e-06,9.2074e-11,0,0.00013006,9.5973e-07,-2.0179e+06,30.011,0,5.2729e+07,385.01,12106,10985,1,10985,1,-0.00023732,-2.5489e-09,0,4.9433e-06,-4.5965e-05,-9.6527e+07,-838.77,0,2.0177e+06,-818.81,10984,11579,1,11579,1,-0.00013006,-6.2146e-10,0,6.6554e-05,-2.2504e-05,-5.2901e+07,-203.9,0,2.5664e+07,206.04,11578,12634,1,12634,1,0.00012018,8.9493e-10,0,0.00019167,2.44e-05,4.5993e+07,296.37,0,7.4712e+07,860.76,12633,611.88,0,611.88,0,0.00014468,1.5961e-09,0,7.2176e-05,2.7118e-05,5.6943e+07,526.51,0,2.8328e+07,673.5,611.88,1
2111,0.89,12107,1,12107,1,3.0846e-06,-1.5918e-09,0,0.00012681,-5.5587e-07,-3.7971e+05,-529.21,0,4.9944e+07,58.267,12106,13208,1,13208,1,0.0002481,3.0392e-09,0,0.0002481,4.5015e-05,9.4235e+07,1000.7,0,9.7626e+07,1013.8,13207,12107,1,12107,1,-4.9986e-06,-1.1829e-09,0,0.00013153,9.6975e-07,-2.0407e+06,-394.68,0,5.3323e+07,25.313,12106,10985,1,10985,1,-0.00024002,-6.6129e-09,0,4.9984e-06,-4.6488e-05,-9.7626e+07,-2177,0,2.0406e+06,-247.68,10984,11579,1,11579,1,-0.00013153,-3.6355e-09,0,6.7304e-05,-2.2761e-05,-5.3497e+07,-1201.9,0,2.5953e+07,-38.435,11578,12634,1,12634,1,0.00012155,2.4396e-10,0,0.00019383,2.4674e-05,4.6516e+07,80.374,0,7.5553e+07,87.883,12633,611.88,0,611.88,0,0.00014631,2.3144e-09,0,7.2991e-05,2.7425e-05,5.7586e+07,769.58,0,2.8648e+07,182.25,611.88,1
2111,0.9,12107,1,12107,1,3.1194e-06,5.9808e-10,0,0.00012825,-5.6106e-07,-3.8404e+05,198.08,0,5.0512e+07,505.01,12106,13208,1,13208,1,0.0002509,7.8658e-09,0,0.0002509,4.5524e-05,9.5299e+07,2588.7,0,9.8727e+07,5968.7,13207,12107,1,12107,1,-5.0556e-06,5.1956e-10,0,0.00013303,9.8141e-07,-2.0639e+06,173.39,0,5.3931e+07,289.23,12106,10985,1,10985,1,-0.00024273,-3.0102e-09,0,5.0552e-06,-4.7012e-05,-9.8727e+07,-1019.4,0,2.0632e+06,-1343.5,10984,11579,1,11579,1,-0.00013303,7.3786e-11,0,6.8071e-05,-2.302e-05,-5.4107e+07,24.861,0,2.6249e+07,92.851,11578,12634,1,12634,1,0.00012292,1.0363e-09,0,0.00019604,2.4955e-05,4.7042e+07,340.9,0,7.6415e+07,734.82,12633,611.88,0,611.88,0,0.00014797,7.4134e-10,0,7.3822e-05,2.7737e-05,5.8241e+07,244.34,0,2.8974e+07,654.54,611.88,1
2111,0.91,12107,1,12107,1,3.1536e-06,-1.0769e-09,0,0.00012965,-5.6801e-07,-3.8823e+05,-357.54,0,5.1064e+07,185.14,12106,13208,1,13208,1,0.00025366,6.0897e-09,0,0.00025366,4.6025e-05,9.6348e+07,2004.8,0,9.9816e+07,1802.9,13207,12107,1,12107,1,-5.1106e-06,-6.7442e-10,0,0.00013448,9.9159e-07,-2.0864e+06,-221.81,0,5.4518e+07,93.827,12106,10985,1,10985,1,-0.0002454,-7.4527e-09,0,5.1105e-06,-4.753e-05,-9.9816e+07,-2453.5,0,2.0863e+06,-223.29,10984,11579,1,11579,1,-0.00013448,-3.6379e-09,0,6.8813e-05,-2.3271e-05,-5.4697e+07,-1213.7,0,2.6535e+07,-20.031,11578,12634,1,12634,1,0.00012427,9.5865e-10,0,0.00019818,2.5228e-05,4.7559e+07,317.03,0,7.7247e+07,251.22,12633,611.88,0,611.88,0,0.00014959,3.0733e-09,0,7.4628e-05,2.804e-05,5.8877e+07,1021.7,0,2.929e+07,331.62,611.88,1
2111,0.92,12107,1,12107,1,3.1885e-06,3.2199e-09,0,0.00013109,-5.7376e-07,-3.9259e+05,1071.3,0,5.1631e+07,404.58,12106,13208,1,13208,1,0.00025648,8.0343e-09,0,0.00025648,4.6538e-05,9.742e+07,2644.9,0,1.0093e+08,3575.2,13207,12107,1,12107,1,-5.1673e-06,3.4022e-09,0,0.00013596,1.0031e-06,-2.1095e+06,1132.8,0,5.5121e+07,179.26,12106,10985,1,10985,1,-0.00024814,-1.2926e-09,0,5.1671e-06,-4.8058e-05,-1.0093e+08,-413.49,0,2.1094e+06,-300.01,10984,11579,1,11579,1,-0.00013596,1.1627e-09,0,6.9573e-05,-2.3529e-05,-5.5301e+07,385.47,0,2.6828e+07,78.574,11578,12634,1,12634,1,0.00012566,5.2194e-09,0,0.00020037,2.5506e-05,4.8089e+07,1735.2,0,7.8101e+07,506.63,12633,611.88,0,611.88,0,0.00015125,2.3155e-09,0,7.5457e-05,2.8351e-05,5.9531e+07,769.87,0,2.9616e+07,546.02,611.88,1
2111,0.93,12107,1,12107,1,3.2235e-06,1.5949e-09,0,0.00013253,-5.8033e-07,-3.9685e+05,530.12,0,5.2196e+07,297.43,12106,13208,1,13208,1,0.00025928,4.531e-09,0,0.00025928,4.7044e-05,9.848e+07,1519.4,0,1.0202e+08,3059.6,13207,12107,1,12107,1,-5.2238e-06,1.5979e-09,0,0.00013745,1.014e-06,-2.1325e+06,535.05,0,5.5726e+07,145.31,12106,10985,1,10985,1,-0.00025083,-2.6348e-09,0,5.2238e-06,-4.8581e-05,-1.0202e+08,-893.78,0,2.1325e+06,-162.44,10984,11579,1,11579,1,-0.00013746,3.7198e-10,0,7.0337e-05,-2.3785e-05,-5.5908e+07,121.6,0,2.7123e+07,71.348,11578,12634,1,12634,1,0.00012702,2.7494e-09,0,0.00020257,2.5786e-05,4.8612e+07,914.98,0,7.8958e+07,345.42,12633,611.88,0,611.88,0,0.00015291,1.4248e-09,0,7.6282e-05,2.8662e-05,6.0182e+07,473.39,0,2.9939e+07,416.7,611.88,1
2111,0.94,12107,1,12107,1,3.2583e-06,-7.4402e-10,0,0.00013395,-5.8642e-07,-4.0105e+05,-248.28,0,5.2757e+07,368.63,12106,13208,1,13208,1,0.00026205,2.0326e-09,0,0.00026205,4.7547e-05,9.9535e+07,650.14,0,1.0312e+08,3173.3,13207,12107,1,12107,1,-5.2798e-06,-5.8524e-10,0,0.00013894,1.0238e-06,-2.1553e+06,-192.87,0,5.6327e+07,157.83,12106,10985,1,10985,1,-0.00025352,-9.215e-09,0,5.2789e-06,-4.9101e-05,-1.0312e+08,-3122.1,0,2.1546e+06,-639.68,10984,11579,1,11579,1,-0.00013894,-1.4564e-09,0,7.1096e-05,-2.4041e-05,-5.6511e+07,-485.53,0,2.7415e+07,-39.105,11578,12634,1,12634,1,0.00012839,-9.9839e-12,0,0.00020475,2.6064e-05,4.9133e+07,-3.4145,0,7.981e+07,651.95,12633,611.88,0,611.88,0,0.00015455,1.0391e-09,0,7.7102e-05,2.8969e-05,6.0829e+07,346.16,0,3.0261e+07,599.24,611.88,1
2111,0.95,12107,1,12107,1,3.2926e-06,-5.0227e-10,0,0.00013537,-5.9219e-07,-4.0539e+05,-167.93,0,5.3317e+07,543.05,12106,13208,1,13208,1,0.00026483,6.0947e-09,0,0.00026483,4.8051e-05,1.0059e+08,2007.1,0,1.0421e+08,4466.7,13207,12107,1,12107,1,-5.3367e-06,-5.2269e-10,0,0.00014042,1.0357e-06,-2.1781e+06,-171.87,0,5.6926e+07,328.52,12106,10985,1,10985,1,-0.00025621,-3.7656e-09,0,5.3361e-06,-4.9623e-05,-1.0421e+08,-1276.1,0,2.1779e+06,-114.03,10984,11579,1,11579,1,-0.00014042,-1.1816e-09,0,7.1851e-05,-2.4296e-05,-5.7112e+07,-394.73,0,2.7707e+07,90.24,11578,12634,1,12634,1,0.00012975,-5.2407e-11,0,0.00020693,2.6342e-05,4.9654e+07,-17.916,0,8.0658e+07,739.26,12633,611.88,0,611.88,0,0.00015619,9.2852e-10,0,7.7921e-05,2.9277e-05,6.1475e+07,306.88,0,3.0582e+07,657.8,611.88,1
2111,0.96,12107,1,12107,1,3.3271e-06,-8.9308e-10,0,0.00013678,-5.9956e-07,-4.0956e+05,-296.54,0,5.3871e+07,71.877,12106,13208,1,13208,1,0.0002676,6.7773e-09,0,0.0002676,4.8554e-05,1.0164e+08,2231.1,0,1.053e+08,989.76,13207,12107,1,12107,1,-5.3915e-06,-6.0916e-10,0,0.00014187,1.0461e-06,-2.2011e+06,-199.67,0,5.7515e+07,46.317,12106,10985,1,10985,1,-0.00025889,-6.9974e-09,0,5.3915e-06,-5.0142e-05,-1.053e+08,-2303.6,0,2.2011e+06,-253.46,10984,11579,1,11579,1,-0.00014187,-3.4757e-09,0,7.2596e-05,-2.455e-05,-5.7703e+07,-1161.2,0,2.7994e+07,-43.324,11578,12634,1,12634,1,0.0001311,1.047e-09,0,0.00020907,2.6614e-05,5.0173e+07,344.16,0,8.1494e+07,127.27,12633,611.88,0,611.88,0,0.00015781,3.0882e-09,0,7.873e-05,2.9582e-05,6.2113e+07,1026.9,0,3.09e+07,186.24,611.88,1
2111,0.97,12107,1,12107,1,3.3619e-06,-2.6609e-09,0,0.00013822,-6.0578e-07,-4.1392e+05,-885.21,0,5.4437e+07,94.554,12106,13208,1,13208,1,0.00027042,1.1762e-09,0,0.00027042,4.9065e-05,1.0271e+08,402.86,0,1.0641e+08,1361.8,13207,12107,1,12107,1,-5.4483e-06,-2.4322e-09,0,0.00014335,1.0569e-06,-2.2243e+06,-805.42,0,5.8117e+07,11.482,12106,10985,1,10985,1,-0.00026162,-7.7305e-09,0,5.4482e-06,-5.067e-05,-1.0641e+08,-2545,0,2.2242e+06,-528.85,10984,11579,1,11579,1,-0.00014336,-4.5649e-09,0,7.3356e-05,-2.4806e-05,-5.8308e+07,-1513.3,0,2.8287e+07,-67.605,11578,12634,1,12634,1,0.00013248,-4.9135e-10,0,0.00021126,2.6893e-05,5.0701e+07,-165.72,0,8.2347e+07,115.97,12633,611.88,0,611.88,0,0.00015947,2.3888e-09,0,7.9558e-05,2.9892e-05,6.2766e+07,795.04,0,3.1225e+07,301.54,611.88,1
2111,0.98,12107,1,12107,1,3.3961e-06,7.3331e-10,0,0.00013962,-6.1208e-07,-4.1812e+05,244.69,0,5.4989e+07,34.945,12106,13208,1,13208,1,0.00027316,1.5294e-08,0,0.00027316,4.9562e-05,1.0375e+08,5034.7,0,1.0749e+08,716.35,13207,12107,1,12107,1,-5.5036e-06,1.3771e-10,0,0.00014481,1.0678e-06,-2.2468e+06,46.823,0,5.8709e+07,31.447,12106,10985,1,10985,1,-0.00026426,-8.0277e-09,0,5.5035e-06,-5.1183e-05,-1.0749e+08,-2642.8,0,2.2468e+06,-402.55,10984,11579,1,11579,1,-0.00014481,-3.2653e-09,0,7.4103e-05,-2.506e-05,-5.8901e+07,-1080.8,0,2.8575e+07,-75.891,11578,12634,1,12634,1,0.00013382,3.8385e-09,0,0.00021341,2.7167e-05,5.1214e+07,1298.3,0,8.3185e+07,141.95,12633,611.88,0,611.88,0,0.00016109,5.3186e-09,0,8.0365e-05,3.0196e-05,6.3403e+07,1769.9,0,3.1542e+07,167.9,611.88,1
2111,0.99,12107,1,12107,1,3.4311e-06,-8.3894e-10,0,0.00014107,-6.1764e-07,-4.2245e+05,-279.31,0,5.5559e+07,342.36,12106,13208,1,13208,1,0.00027598,4.3234e-09,0,0.00027598,5.0074e-05,1.0482e+08,1387,0,1.086e+08,4344.6,13207,12107,1,12107,1,-5.561e-06,-5.7009e-10,0,0.00014632,1.0794e-06,-2.2701e+06,-187.93,0,5.9318e+07,161.27,12106,10985,1,10985,1,-0.00026699,-5.2029e-09,0,5.5608e-06,-5.1712e-05,-1.086e+08,-1712.9,0,2.2699e+06,-559.37,10984,11579,1,11579,1,-0.00014632,-2.4851e-09,0,7.4871e-05,-2.5319e-05,-5.9512e+07,-826.04,0,2.8871e+07,14.049,11578,12634,1,12634,1,0.00013521,5.1793e-10,0,0.00021563,2.7449e-05,5.1743e+07,170.95,0,8.4049e+07,409.45,12633,611.88,0,611.88,0,0.00016276,1.9886e-09,0,8.1197e-05,3.0508e-05,6.406e+07,660.33,0,3.1868e+07,545.94,611.88,1
2111,1,12107,1,12107,1,3.4659e-06,-6.1885e-10,0,0.00014249,-6.2448e-07,-4.2671e+05,-205.56,0,5.612e+07,112.65,12106,13208,1,13208,1,0.00027877,5.2169e-09,0,0.00027877,5.0579e-05,1.0588e+08,1717,0,1.0969e+08,2089.9,13207,12107,1,12107,1,-5.6169e-06,-3.1793e-10,0,0.00014779,1.09e-06,-2.293e+06,-106.67,0,5.9917e+07,38.11,12106,10985,1,10985,1,-0.00026969,-5.0661e-09,0,5.6168e-06,-5.2234e-05,-1.0969e+08,-1667.8,0,2.293e+06,-200.43,10984,11579,1,11579,1,-0.00014779,-2.3585e-09,0,7.5628e-05,-2.5574e-05,-6.0113e+07,-781.98,0,2.9163e+07,-12.354,11578,12634,1,12634,1,0.00013657,6.8666e-10,0,0.0002178,2.7726e-05,5.2266e+07,228.3,0,8.4897e+07,151.38,12633,611.88,0,611.88,0,0.0001644,2.1488e-09,0,8.2017e-05,3.0817e-05,6.4707e+07,714.49,0,3.219e+07,244.17,611.88,1
2111,1.01,12107,1,12107,1,3.5006e-06,-3.6648e-10,0,0.00014392,-6.3066e-07,-4.3106e+05,-122.05,0,5.6683e+07,139,12106,13208,1,13208,1,0.00028155,2.5356e-09,0,0.00028155,5.1085e-05,1.0694e+08,834.68,0,1.1079e+08,1827.9,13207,12107,1,12107,1,-5.6735e-06,-1.9783e-10,0,0.00014928,1.1009e-06,-2.3161e+06,-66.228,0,6.052e+07,55.716,12106,10985,1,10985,1,-0.00027239,-2.9827e-09,0,5.6734e-06,-5.2756e-05,-1.1079e+08,-981.61,0,2.316e+06,-436.72,10984,11579,1,11579,1,-0.00014928,-1.1662e-09,0,7.6388e-05,-2.5831e-05,-6.0718e+07,-391.81,0,2.9456e+07,-24.614,11578,12634,1,12634,1,0.00013794,3.1906e-10,0,0.00022,2.8005e-05,5.2789e+07,108.2,0,8.5751e+07,216.1,12633,611.88,0,611.88,0,0.00016605,1.0435e-09,0,8.2841e-05,3.1126e-05,6.5356e+07,347.26,0,3.2513e+07,324.53,611.88,1
2111,1.02,12107,1,12107,1,3.5355e-06,-7.0442e-10,0,0.00014534,-6.3657e-07,-4.3508e+05,-234.53,0,5.7241e+07,300.33,12106,13208,1,13208,1,0.00028433,3.7408e-09,0,0.00028433,5.159e-05,1.08e+08,1232,0,1.1188e+08,2524.9,13207,12107,1,12107,1,-5.7287e-06,-4.0207e-10,0,0.00015075,1.1113e-06,-2.3387e+06,-133.09,0,6.1115e+07,163.99,12106,10985,1,10985,1,-0.00027507,-4.2827e-09,0,5.7287e-06,-5.3274e-05,-1.1188e+08,-1409.8,0,2.3385e+06,-375.86,10984,11579,1,11579,1,-0.00015075,-2.0048e-09,0,7.714e-05,-2.6084e-05,-6.1315e+07,-662.7,0,2.9746e+07,52.486,11578,12634,1,12634,1,0.0001393,3.8066e-10,0,0.00022216,2.828e-05,5.331e+07,125.19,0,8.6595e+07,377.99,12633,611.88,0,611.88,0,0.00016769,1.5184e-09,0,8.3656e-05,3.1432e-05,6.6e+07,504.85,0,3.2833e+07,418.54,611.88,1
2111,1.03,12107,1,12107,1,3.5702e-06,-4.4026e-10,0,0.00014677,-6.4352e-07,-4.3947e+05,-146.49,0,5.7805e+07,15.986,12106,13208,1,13208,1,0.00028713,2.9928e-09,0,0.00028713,5.2096e-05,1.0906e+08,979.17,0,1.1298e+08,289.7,13207,12107,1,12107,1,-5.7854e-06,-3.4253e-10,0,0.00015223,1.1225e-06,-2.3619e+06,-113.24,0,6.1717e+07,8.4516,12106,10985,1,10985,1,-0.00027778,-3.0627e-09,0,5.7853e-06,-5.3801e-05,-1.1298e+08,-1023.3,0,2.3619e+06,-94.998,10984,11579,1,11579,1,-0.00015223,-1.5663e-09,0,7.79e-05,-2.6341e-05,-6.1919e+07,-515.25,0,3.0039e+07,-21.223,11578,12634,1,12634,1,0.00014067,3.8456e-10,0,0.00022435,2.8558e-05,5.3834e+07,126.82,0,8.7448e+07,46.91,12633,611.88,0,611.88,0,0.00016934,1.3438e-09,0,8.448e-05,3.1742e-05,6.665e+07,447.76,0,3.3157e+07,52.424,611.88,1
2111,1.04,12107,1,12107,1,3.6048e-06,1.3249e-11,0,0.00014819,-6.4897e-07,-4.4375e+05,4.6312,0,5.8366e+07,333.95,12106,13208,1,13208,1,0.00028991,4.4734e-09,0,0.00028991,5.2603e-05,1.1012e+08,1472.8,0,1.1408e+08,2435.3,13207,12107,1,12107,1,-5.8414e-06,3.3972e-11,0,0.00015371,1.1337e-06,-2.3847e+06,11.551,0,6.2317e+07,208.07,12106,10985,1,10985,1,-0.00028047,-4.2386e-09,0,5.8412e-06,-5.4322e-05,-1.1408e+08,-1394.9,0,2.3846e+06,-196.87,10984,11579,1,11579,1,-0.00015371,-1.2361e-09,0,7.8656e-05,-2.6596e-05,-6.2521e+07,-410.9,0,3.0331e+07,71.688,11578,12634,1,12634,1,0.00014204,1.0024e-09,0,0.00022653,2.8836e-05,5.4356e+07,333.54,0,8.8297e+07,459.86,12633,611.88,0,611.88,0,0.00017098,1.6709e-09,0,8.53e-05,3.205e-05,6.7297e+07,556.08,0,3.3479e+07,385.02,611.88,1
2111,1.05,12107,1,12107,1,3.6397e-06,-6.8765e-10,0,0.00014963,-6.5603e-07,-4.4812e+05,-228.85,0,5.8933e+07,21.318,12106,13208,1,13208,1,0.00029273,2.9748e-10,0,0.00029273,5.3112e-05,1.1118e+08,95.135,0,1.1519e+08,580.19,13207,12107,1,12107,1,-5.8984e-06,-7.3905e-10,0,0.0001552,1.1444e-06,-2.408e+06,-245.84,0,6.2921e+07,7.7891,12106,10985,1,10985,1,-0.00028319,-1.6642e-09,0,5.8984e-06,-5.4849e-05,-1.1519e+08,-556.13,0,2.408e+06,-93.327,10984,11579,1,11579,1,-0.0001552,-1.0828e-09,0,7.9419e-05,-2.6855e-05,-6.3127e+07,-360.3,0,3.0625e+07,-2.5143,11578,12634,1,12634,1,0.00014341,-2.9666e-10,0,0.00022872,2.9115e-05,5.4883e+07,-98.941,0,8.9153e+07,27.123,12633,611.88,0,611.88,0,0.00017264,4.9295e-10,0,8.6128e-05,3.2361e-05,6.795e+07,164.17,0,3.3804e+07,54.384,611.88,1
2111,1.06,12107,1,12107,1,3.674e-06,-7.6371e-10,0,0.00015103,-6.6222e-07,-4.5228e+05,-254.37,0,5.9485e+07,14.252,12106,13208,1,13208,1,0.00029548,5.8733e-09,0,0.00029548,5.3612e-05,1.1223e+08,1929.1,0,1.1627e+08,431.46,13207,12107,1,12107,1,-5.9535e-06,-4.9259e-10,0,0.00015666,1.1551e-06,-2.4305e+06,-164.42,0,6.351e+07,12.604,12106,10985,1,10985,1,-0.00028586,-5.9721e-09,0,5.9535e-06,-5.5366e-05,-1.1627e+08,-1966,0,2.4305e+06,-171.93,10984,11579,1,11579,1,-0.00015666,-2.8642e-09,0,8.0163e-05,-2.7108e-05,-6.3718e+07,-952.55,0,3.0912e+07,-49.857,11578,12634,1,12634,1,0.00014476,8.4329e-10,0,0.00023087,2.9388e-05,5.54e+07,276.17,0,8.9988e+07,71.964,12633,611.88,0,611.88,0,0.00017426,2.641e-09,0,8.6935e-05,3.2665e-05,6.8587e+07,879.99,0,3.412e+07,78.341,611.88,1
2111,1.07,12107,1,12107,1,3.7092e-06,-2.0531e-09,0,0.00015248,-6.6854e-07,-4.5657e+05,-683.3,0,6.0053e+07,28.576,12106,13208,1,13208,1,0.00029831,9.2116e-10,0,0.00029831,5.4125e-05,1.1331e+08,315.5,0,1.1738e+08,583.11,13207,12107,1,12107,1,-6.0101e-06,-1.8417e-09,0,0.00015815,1.1659e-06,-2.4536e+06,-618.73,0,6.4115e+07,10.821,12106,10985,1,10985,1,-0.0002886,-5.9431e-09,0,6.01e-06,-5.5896e-05,-1.1738e+08,-1956.5,0,2.4536e+06,-234.55,10984,11579,1,11579,1,-0.00015815,-3.6093e-09,0,8.0926e-05,-2.7367e-05,-6.4325e+07,-1205.6,0,3.1206e+07,-29.818,11578,12634,1,12634,1,0.00014615,-3.0301e-10,0,0.00023306,2.9668e-05,5.593e+07,-100.46,0,9.0845e+07,61.374,12633,611.88,0,611.88,0,0.00017593,1.8868e-09,0,8.7766e-05,3.2977e-05,6.9242e+07,628.74,0,3.4447e+07,95.849,611.88,1
2111,1.08,12107,1,12107,1,3.7437e-06,-5.667e-10,0,0.0001539,-6.7478e-07,-4.6092e+05,-188.64,0,6.0615e+07,21.71,12106,13208,1,13208,1,0.00030108,6.5135e-10,0,0.00030108,5.4628e-05,1.1436e+08,208.36,0,1.1847e+08,875.03,13207,12107,1,12107,1,-6.0667e-06,-5.2858e-10,0,0.00015964,1.1771e-06,-2.4767e+06,-174.42,0,6.4718e+07,8.393,12106,10985,1,10985,1,-0.00029128,-1.7276e-09,0,6.0667e-06,-5.6415e-05,-1.1847e+08,-585.63,0,2.4767e+06,-83.67,10984,11579,1,11579,1,-0.00015964,-9.3452e-10,0,8.1687e-05,-2.7622e-05,-6.4929e+07,-310.4,0,3.1499e+07,-4.9722,11578,12634,1,12634,1,0.00014751,-2.0859e-10,0,0.00023525,2.9947e-05,5.645e+07,-68.667,0,9.1699e+07,27.145,12633,611.88,0,611.88,0,0.00017757,4.6067e-10,0,8.8587e-05,3.3285e-05,6.989e+07,153.32,0,3.4769e+07,69.822,611.88,1
2111,1.09,12107,1,12107,1,3.7778e-06,-4.609e-10,0,0.0001553,-6.8044e-07,-4.6507e+05,-153.78,0,6.1167e+07,222.12,12106,13208,1,13208,1,0.00030383,6.3402e-09,0,0.00030383,5.5127e-05,1.154e+08,2108.9,0,1.1956e+08,2743,13207,12107,1,12107,1,-6.1218e-06,-2.2685e-10,0,0.00016109,1.1878e-06,-2.499e+06,-73.532,0,6.5306e+07,111.48,12106,10985,1,10985,1,-0.00029394,-6.2299e-09,0,6.1215e-06,-5.693e-05,-1.1956e+08,-2050.6,0,2.4988e+06,-456.38,10984,11579,1,11579,1,-0.00016109,-2.7131e-09,0,8.2429e-05,-2.7874e-05,-6.5519e+07,-905.4,0,3.1785e+07,3.4751,11578,12634,1,12634,1,0.00014886,1.1596e-09,0,0.00023739,3.0219e-05,5.6966e+07,382.36,0,9.2532e+07,279.09,12633,611.88,0,611.88,0,0.00017919,2.7858e-09,0,8.9393e-05,3.3588e-05,7.0526e+07,926.54,0,3.5085e+07,368.55,611.88,1
2111,1.1,12107,1,12107,1,3.8129e-06,-4.2565e-10,0,0.00015675,-6.8729e-07,-4.6948e+05,-141.64,0,6.1736e+07,6.222,12106,13208,1,13208,1,0.00030665,5.094e-10,0,0.00030665,5.5638e-05,1.1647e+08,174.19,0,1.2066e+08,43.449,13207,12107,1,12107,1,-6.179e-06,-3.5296e-10,0,0.00016259,1.1989e-06,-2.5226e+06,-116.81,0,6.5915e+07,6.8953,12106,10985,1,10985,1,-0.00029666,-1.4942e-09,0,6.179e-06,-5.7458e-05,-1.2066e+08,-491.9,0,2.5226e+06,-56.35,10984,11579,1,11579,1,-0.00016259,-8.5835e-10,0,8.3198e-05,-2.8132e-05,-6.613e+07,-282.7,0,3.2082e+07,-4.2262,11578,12634,1,12634,1,0.00015023,2.4834e-11,0,0.00023961,3.0501e-05,5.7493e+07,8.1923,0,9.3395e+07,17.383,12633,611.88,0,611.88,0,0.00018085,4.9984e-10,0,9.0225e-05,3.3901e-05,7.1182e+07,166.73,0,3.5412e+07,15.89,611.88,1
2111,1.11,12107,1,12107,1,3.8479e-06,-6.5956e-10,0,0.00015818,-6.9359e-07,-4.7372e+05,-219.52,0,6.2299e+07,5.3028,12106,13208,1,13208,1,0.00030945,8.5468e-10,0,0.00030945,5.6146e-05,1.1754e+08,281.47,0,1.2177e+08,181.32,13207,12107,1,12107,1,-6.2352e-06,-6.0853e-10,0,0.00016407,1.2096e-06,-2.5455e+06,-204.35,0,6.6516e+07,2.0649,12106,10985,1,10985,1,-0.00029937,-2.3755e-09,0,6.2352e-06,-5.7983e-05,-1.2177e+08,-782.08,0,2.5455e+06,-110.24,10984,11579,1,11579,1,-0.00016407,-1.2611e-09,0,8.3957e-05,-2.8389e-05,-6.6734e+07,-419.96,0,3.2375e+07,-10.876,11578,12634,1,12634,1,0.00015161,-2.0854e-11,0,0.00024179,3.0779e-05,5.8018e+07,-7.0414,0,9.4247e+07,25.333,12633,611.88,0,611.88,0,0.0001825,7.1463e-10,0,9.1049e-05,3.421e-05,7.1832e+07,237.89,0,3.5735e+07,32.398,611.88,1
2111,1.12,12107,1,12107,1,3.8826e-06,1.0135e-09,0,0.00015961,-6.9987e-07,-4.78e+05,337.34,0,6.2861e+07,-1.8704,12106,13208,1,13208,1,0.00031224,2.8223e-09,0,0.00031224,5.6652e-05,1.186e+08,946.61,0,1.2286e+08,237.88,13207,12107,1,12107,1,-6.2913e-06,8.9511e-10,0,0.00016555,1.2206e-06,-2.5684e+06,300.11,0,6.7115e+07,-4.1136,12106,10985,1,10985,1,-0.00030207,-6.4534e-10,0,6.2912e-06,-5.8506e-05,-1.2286e+08,-218.58,0,2.5684e+06,-72.212,10984,11579,1,11579,1,-0.00016555,2.1695e-10,0,8.4713e-05,-2.8645e-05,-6.7335e+07,71.849,0,3.2666e+07,-22.195,11578,12634,1,12634,1,0.00015297,1.7241e-09,0,0.00024397,3.1056e-05,5.8542e+07,581.6,0,9.5096e+07,17.642,12633,611.88,0,611.88,0,0.00018415,8.7605e-10,0,9.187e-05,3.4519e-05,7.248e+07,292,0,3.6057e+07,29.342,611.88,1
2111,1.13,12107,1,12107,1,3.9172e-06,-1.5886e-10,0,0.00016103,-7.061e-07,-4.8229e+05,-52.832,0,6.3422e+07,1.6006,12106,13208,1,13208,1,0.00031502,7.0956e-10,0,0.00031502,5.7157e-05,1.1965e+08,235.01,0,1.2396e+08,45.274,13207,12107,1,12107,1,-6.3477e-06,-1.1085e-10,0,0.00016703,1.2315e-06,-2.5914e+06,-37.214,0,6.7716e+07,3.0492,12106,10985,1,10985,1,-0.00030476,-8.3261e-10,0,6.3476e-06,-5.9027e-05,-1.2396e+08,-274.11,0,2.5914e+06,-61.76,10984,11579,1,11579,1,-0.00016703,-4.3448e-10,0,8.547e-05,-2.89e-05,-6.7937e+07,-145.15,0,3.2958e+07,-7.4259,11578,12634,1,12634,1,0.00015434,1.0129e-10,0,0.00024615,3.1334e-05,5.9063e+07,33.562,0,9.5947e+07,14.569,12633,611.88,0,611.88,0,0.00018579,3.4716e-10,0,9.2689e-05,3.4827e-05,7.3126e+07,115.58,0,3.6379e+07,18.961,611.88,1
2111,1.14,12107,1,12107,1,3.9517e-06,7.0541e-10,0,0.00016244,-7.1243e-07,-4.8647e+05,234.71,0,6.3978e+07,-44.778,12106,13208,1,13208,1,0.00031779,4.954e-09,0,0.00031779,5.7659e-05,1.2071e+08,1631,0,1.2505e+08,211.6,13207,12107,1,12107,1,-6.4031e-06,3.5521e-10,0,0.00016849,1.242e-06,-2.6141e+06,118.38,0,6.8309e+07,-12.012,12106,10985,1,10985,1,-0.00030744,-2.1579e-09,0,6.403e-06,-5.9546e-05,-1.2505e+08,-718.96,0,2.614e+06,-560.36,10984,11579,1,11579,1,-0.00016849,-2.7049e-10,0,8.6219e-05,-2.9155e-05,-6.8532e+07,-88.78,0,3.3247e+07,-74.989,11578,12634,1,12634,1,0.00015569,1.6492e-09,0,0.00024831,3.1608e-05,5.9582e+07,550.31,0,9.6787e+07,22.707,12633,611.88,0,611.88,0,0.00018742,1.5242e-09,0,9.3502e-05,3.5132e-05,7.3767e+07,507.53,0,3.6698e+07,105.47,611.88,1
2111,1.15,12107,1,12107,1,3.9865e-06,-4.9058e-10,0,0.00016387,-7.186e-07,-4.9075e+05,-163.25,0,6.454e+07,-4.4049,12106,13208,1,13208,1,0.00032059,3.0072e-09,0,0.00032059,5.8166e-05,1.2177e+08,990.04,0,1.2615e+08,179.88,13207,12107,1,12107,1,-6.4593e-06,-4.1579e-10,0,0.00016997,1.2531e-06,-2.637e+06,-138.94,0,6.8909e+07,-8.382,12106,10985,1,10985,1,-0.00031014,-3.2132e-09,0,6.4593e-06,-6.007e-05,-1.2615e+08,-1057.8,0,2.637e+06,-137.1,10984,11579,1,11579,1,-0.00016997,-1.708e-09,0,8.6977e-05,-2.9411e-05,-6.9134e+07,-566.86,0,3.3539e+07,-36.763,11578,12634,1,12634,1,0.00015706,4.1323e-10,0,0.00025049,3.1886e-05,6.0106e+07,136,0,9.7638e+07,24.982,12633,611.88,0,611.88,0,0.00018907,1.4227e-09,0,9.4324e-05,3.5441e-05,7.4416e+07,473.89,0,3.702e+07,43.924,611.88,1
2111,1.16,12107,1,12107,1,4.0212e-06,-9.0757e-10,0,0.0001653,-7.2485e-07,-4.9502e+05,-302.09,0,6.5102e+07,1.7784,12106,13208,1,13208,1,0.00032338,2.2637e-09,0,0.00032338,5.8673e-05,1.2283e+08,745.25,0,1.2725e+08,94.465,13207,12107,1,12107,1,-6.5155e-06,-7.8647e-10,0,0.00017145,1.2641e-06,-2.66e+06,-263.45,0,6.9509e+07,0.0091761,12106,10985,1,10985,1,-0.00031285,-3.4611e-09,0,6.5154e-06,-6.0593e-05,-1.2725e+08,-1139.4,0,2.6599e+06,-84.172,10984,11579,1,11579,1,-0.00017145,-2.096e-09,0,8.7734e-05,-2.9667e-05,-6.9736e+07,-697.37,0,3.3831e+07,-22.753,11578,12634,1,12634,1,0.00015843,1.1757e-10,0,0.00025267,3.2164e-05,6.063e+07,39.141,0,9.8487e+07,25.524,12633,611.88,0,611.88,0,0.00019072,1.357e-09,0,9.5145e-05,3.5749e-05,7.5064e+07,452.16,0,3.7343e+07,37.68,611.88,1
2111,1.17,12107,1,12107,1,4.0562e-06,-1.6104e-09,0,0.00016672,-7.3114e-07,-4.9914e+05,-535.96,0,6.5662e+07,3.9918,12106,13208,1,13208,1,0.00032617,4.0041e-09,0,0.00032617,5.9179e-05,1.2389e+08,1318.1,0,1.2834e+08,199.79,13207,12107,1,12107,1,-6.5709e-06,-1.4271e-09,0,0.00017292,1.2749e-06,-2.6826e+06,-483.93,0,7.0105e+07,-2.9385,12106,10985,1,10985,1,-0.00031555,-6.1958e-09,0,6.5708e-06,-6.1116e-05,-1.2834e+08,-2047.8,0,2.6825e+06,-157.91,10984,11579,1,11579,1,-0.00017292,-3.6544e-09,0,8.8487e-05,-2.9923e-05,-7.0333e+07,-1223.4,0,3.4121e+07,-47.233,11578,12634,1,12634,1,0.0001598,2.6344e-10,0,0.00025484,3.244e-05,6.1153e+07,87.593,0,9.9331e+07,58.419,12633,611.88,0,611.88,0,0.00019236,2.4128e-09,0,9.5963e-05,3.6057e-05,7.5709e+07,803.86,0,3.7664e+07,71.443,611.88,1
2111,1.18,12107,1,12107,1,4.0906e-06,-1.4105e-09,0,0.00016814,-7.3736e-07,-5.035e+05,-469.47,0,6.6223e+07,1.1207,12106,13208,1,13208,1,0.00032895,3.7808e-09,0,0.00032895,5.9685e-05,1.2495e+08,1244.9,0,1.2944e+08,670.67,13207,12107,1,12107,1,-6.6274e-06,-1.2785e-09,0,0.0001744,1.2859e-06,-2.7056e+06,-418.14,0,7.0705e+07,10.157,12106,10985,1,10985,1,-0.00031824,-5.3461e-09,0,6.6273e-06,-6.1638e-05,-1.2944e+08,-1760,0,2.7055e+06,-451.61,10984,11579,1,11579,1,-0.0001744,-3.1172e-09,0,8.9244e-05,-3.0178e-05,-7.0936e+07,-1043.8,0,3.4413e+07,-52.233,11578,12634,1,12634,1,0.00016116,1.6351e-10,0,0.00025702,3.2717e-05,6.1675e+07,54.517,0,1.0018e+08,65.491,12633,611.88,0,611.88,0,0.000194,2.0582e-09,0,9.6784e-05,3.6365e-05,7.6356e+07,685.31,0,3.7986e+07,103.01,611.88,1
2111,1.19,12107,1,12107,1,4.1252e-06,6.8323e-11,0,0.00016957,-7.4357e-07,-5.0783e+05,22.75,0,6.6784e+07,6.4079,12106,13208,1,13208,1,0.00033173,5.2918e-09,0,0.00033173,6.0188e-05,1.26e+08,1742.1,0,1.3053e+08,150.53,13207,12107,1,12107,1,-6.6839e-06,-7.3796e-11,0,0.00017588,1.2968e-06,-2.7287e+06,-24.979,0,7.1305e+07,5.8816,12106,10985,1,10985,1,-0.00032092,-2.6618e-09,0,6.6839e-06,-6.2158e-05,-1.3053e+08,-876.28,0,2.7287e+06,-156.13,10984,11579,1,11579,1,-0.00017588,-1.2879e-09,0,9.0002e-05,-3.0433e-05,-7.1538e+07,-425.95,0,3.4705e+07,-29.71,11578,12634,1,12634,1,0.00016252,8.2423e-10,0,0.0002592,3.2995e-05,6.2195e+07,272.74,0,1.0103e+08,41.743,12633,611.88,0,611.88,0,0.00019564,1.7104e-09,0,9.7603e-05,3.6673e-05,7.7003e+07,569.74,0,3.8307e+07,55.303,611.88,1
2111,1.2,12107,1,12107,1,4.1604e-06,-6.8453e-10,0,0.00017101,-7.4994e-07,-5.1208e+05,-227.77,0,6.7351e+07,-4.7457,12106,13208,1,13208,1,0.00033454,1.0089e-09,0,0.00033454,6.0699e-05,1.2707e+08,342.04,0,1.3164e+08,77.69,13207,12107,1,12107,1,-6.7403e-06,-5.084e-10,0,0.00017737,1.3077e-06,-2.7517e+06,-168.42,0,7.191e+07,-3.7008,12106,10985,1,10985,1,-0.00032365,-2.6036e-09,0,6.7402e-06,-6.2686e-05,-1.3164e+08,-857.13,0,2.7517e+06,-106.7,10984,11579,1,11579,1,-0.00017737,-1.4209e-09,0,9.0765e-05,-3.0691e-05,-7.2144e+07,-474.61,0,3.5e+07,-27.895,11578,12634,1,12634,1,0.0001639,8.2095e-11,0,0.0002614,3.3274e-05,6.2723e+07,27.982,0,1.0189e+08,20.351,12633,611.88,0,611.88,0,0.0001973,8.9464e-10,0,9.8432e-05,3.6984e-05,7.7656e+07,297.93,0,3.8633e+07,34.749,611.88,1
2111,1.21,12107,1,12107,1,4.1948e-06,-7.2073e-10,0,0.00017242,-7.5613e-07,-5.1633e+05,-239.93,0,6.7909e+07,7.6547,12106,13208,1,13208,1,0.00033732,1.3513e-09,0,0.00033732,6.1201e-05,1.2812e+08,445.01,0,1.3273e+08,333.11,13207,12107,1,12107,1,-6.7962e-06,-6.0032e-10,0,0.00017884,1.3186e-06,-2.7745e+06,-200.42,0,7.2506e+07,1.8979,12106,10985,1,10985,1,-0.00032633,-2.6335e-09,0,6.796e-06,-6.3205e-05,-1.3273e+08,-866.94,0,2.7744e+06,-56.349,10984,11579,1,11579,1,-0.00017884,-1.5513e-09,0,9.1517e-05,-3.0946e-05,-7.2742e+07,-515.86,0,3.529e+07,-16.114,11578,12634,1,12634,1,0.00016526,7.821e-11,0,0.00026357,3.355e-05,6.3242e+07,25.785,0,1.0273e+08,21.052,12633,611.88,0,611.88,0,0.00019894,9.6271e-10,0,9.9247e-05,3.729e-05,7.83e+07,320.74,0,3.8952e+07,38.738,611.88,1
2111,1.22,12107,1,12107,1,4.2294e-06,-1.8836e-10,0,0.00017385,-7.624e-07,-5.2062e+05,-62.646,0,6.8469e+07,-9.2086,12106,13208,1,13208,1,0.00034009,3.5011e-09,0,0.00034009,6.1706e-05,1.2918e+08,1145.5,0,1.3382e+08,280.36,13207,12107,1,12107,1,-6.8523e-06,-2.2726e-10,0,0.00018032,1.3293e-06,-2.7975e+06,-74.473,0,7.3104e+07,-13.86,12106,10985,1,10985,1,-0.00032902,-2.4323e-09,0,6.8523e-06,-6.3726e-05,-1.3382e+08,-800.72,0,2.7975e+06,-122.26,10984,11579,1,11579,1,-0.00018032,-1.282e-09,0,9.2272e-05,-3.1201e-05,-7.3342e+07,-428.31,0,3.5581e+07,-41.736,11578,12634,1,12634,1,0.00016662,4.4192e-10,0,0.00026574,3.3827e-05,6.3764e+07,148.03,0,1.0358e+08,21.924,12633,611.88,0,611.88,0,0.00020058,1.3243e-09,0,0.00010007,3.7598e-05,7.8945e+07,441.24,0,3.9274e+07,48.225,611.88,1
2111,1.23,12107,1,12107,1,4.2642e-06,1.0901e-09,0,0.00017528,-7.6864e-07,-5.2493e+05,362.69,0,6.9033e+07,6.381,12106,13208,1,13208,1,0.0003429,2.9951e-09,0,0.0003429,6.2215e-05,1.3024e+08,986.01,0,1.3493e+08,188.68,13207,12107,1,12107,1,-6.9086e-06,1.0989e-09,0,0.0001818,1.3404e-06,-2.8204e+06,365.55,0,7.3705e+07,5.2084,12106,10985,1,10985,1,-0.00033173,-3.4813e-10,0,6.9085e-06,-6.4251e-05,-1.3493e+08,-119.24,0,2.8204e+06,-87.732,10984,11579,1,11579,1,-0.0001818,2.8097e-10,0,9.3031e-05,-3.1458e-05,-7.3945e+07,94.526,0,3.5873e+07,-15.869,11578,12634,1,12634,1,0.000168,1.7659e-09,0,0.00026792,3.4105e-05,6.429e+07,587.37,0,1.0443e+08,26.189,12633,611.88,0,611.88,0,0.00020223,8.9585e-10,0,0.00010089,3.7908e-05,7.9596e+07,298.15,0,3.9597e+07,35.342,611.88,1
2111,1.24,12107,1,12107,1,4.2991e-06,-5.2797e-10,0,0.0001767,-7.7493e-07,-5.2913e+05,-175.74,0,6.9594e+07,3.8622,12106,13208,1,13208,1,0.00034569,2.9686e-09,0,0.00034569,6.2721e-05,1.313e+08,975.99,0,1.3603e+08,109.32,13207,12107,1,12107,1,-6.9646e-06,-4.8874e-10,0,0.00018328,1.3513e-06,-2.8433e+06,-162.18,0,7.4305e+07,4.2374,12106,10985,1,10985,1,-0.00033443,-2.9895e-09,0,6.9645e-06,-6.4773e-05,-1.3603e+08,-984.15,0,2.8433e+06,-124.97,10984,11579,1,11579,1,-0.00018328,-1.626e-09,0,9.3789e-05,-3.1714e-05,-7.4547e+07,-546.38,0,3.6166e+07,-27.726,11578,12634,1,12634,1,0.00016936,2.9703e-10,0,0.00027011,3.4383e-05,6.4812e+07,95.308,0,1.0528e+08,35.491,12633,611.88,0,611.88,0,0.00020388,1.3424e-09,0,0.00010171,3.8216e-05,8.0243e+07,447.24,0,3.9919e+07,45.076,611.88,1
2111,1.25,12107,1,12107,1,4.3336e-06,-1.5949e-09,0,0.00017813,-7.8114e-07,-5.3347e+05,-530.79,0,7.0155e+07,4.849,12106,13208,1,13208,1,0.00034848,8.0748e-10,0,0.00034848,6.3227e-05,1.3236e+08,274.95,0,1.3712e+08,98.922,13207,12107,1,12107,1,-7.0208e-06,-1.4712e-09,0,0.00018476,1.3622e-06,-2.8663e+06,-485.75,0,7.4902e+07,0.3253,12106,10985,1,10985,1,-0.00033713,-4.5388e-09,0,7.0208e-06,-6.5297e-05,-1.3712e+08,-1494.2,0,2.8662e+06,-98.424,10984,11579,1,11579,1,-0.00018476,-2.8567e-09,0,9.4542e-05,-3.197e-05,-7.5147e+07,-948.16,0,3.6456e+07,-25.61,11578,12634,1,12634,1,0.00017073,-2.0141e-10,0,0.00027228,3.4659e-05,6.5335e+07,-65.972,0,1.0613e+08,36.31,12633,611.88,0,611.88,0,0.00020552,1.4973e-09,0,0.00010253,3.8524e-05,8.0889e+07,498.88,0,4.0241e+07,41.167,611.88,1
2111,1.26,12107,1,12107,1,4.3684e-06,-2.2022e-10,0,0.00017956,-7.874e-07,-5.3773e+05,-73.33,0,7.0718e+07,15.226,12106,13208,1,13208,1,0.00035126,8.8449e-10,0,0.00035126,6.3732e-05,1.3342e+08,283.17,0,1.3822e+08,1220.1,13207,12107,1,12107,1,-7.0772e-06,-1.8456e-10,0,0.00018624,1.3729e-06,-2.8893e+06,-61.52,0,7.5506e+07,-3.7138,12106,10985,1,10985,1,-0.00033982,-8.2675e-10,0,7.0771e-06,-6.5818e-05,-1.3822e+08,-272.45,0,2.8892e+06,-118.56,10984,11579,1,11579,1,-0.00018624,-4.2582e-10,0,9.5304e-05,-3.2225e-05,-7.5752e+07,-142.33,0,3.675e+07,-11.969,11578,12634,1,12634,1,0.00017209,5.9385e-13,0,0.00027447,3.4938e-05,6.5857e+07,0.20212,0,1.0698e+08,3.837,12633,611.88,0,611.88,0,0.00020717,2.7507e-10,0,0.00010335,3.8833e-05,8.1538e+07,91.49,0,4.0564e+07,90.567,611.88,1
2111,1.27,12107,1,12107,1,4.4031e-06,-1.5834e-09,0,0.00018098,-7.9368e-07,-5.4198e+05,-526.9,0,7.1277e+07,0.81464,12106,13208,1,13208,1,0.00035406,1.3184e-09,0,0.00035406,6.4239e-05,1.3448e+08,448.46,0,1.3932e+08,202.21,13207,12107,1,12107,1,-7.133e-06,-1.488e-09,0,0.00018771,1.3839e-06,-2.9121e+06,-491.02,0,7.6101e+07,3.1408,12106,10985,1,10985,1,-0.00034253,-4.6472e-09,0,7.1329e-06,-6.6342e-05,-1.3932e+08,-1529.9,0,2.912e+06,-126,10984,11579,1,11579,1,-0.00018771,-2.8989e-09,0,9.6055e-05,-3.2481e-05,-7.6349e+07,-964.83,0,3.7039e+07,-34.174,11578,12634,1,12634,1,0.00017346,-1.1453e-10,0,0.00027663,3.5214e-05,6.6381e+07,-37.305,0,1.0783e+08,35.399,12633,611.88,0,611.88,0,0.00020881,1.6048e-09,0,0.00010417,3.914e-05,8.2184e+07,534.73,0,4.0885e+07,47.047,611.88,1
2111,1.28,12107,1,12107,1,4.4378e-06,-4.4171e-10,0,0.0001824,-7.9995e-07,-5.4621e+05,-147.04,0,7.1837e+07,-1.5812,12106,13208,1,13208,1,0.00035683,1.3737e-09,0,0.00035683,6.4742e-05,1.3553e+08,449.45,0,1.4041e+08,142.95,13207,12107,1,12107,1,-7.189e-06,-2.8988e-10,0,0.00018919,1.3947e-06,-2.9349e+06,-96.405,0,7.6701e+07,-3.029,12106,10985,1,10985,1,-0.00034521,-2.2338e-09,0,7.189e-06,-6.6861e-05,-1.4041e+08,-744.72,0,2.9349e+06,-101.97,10984,11579,1,11579,1,-0.00018919,-1.1126e-09,0,9.6812e-05,-3.2736e-05,-7.6951e+07,-369.69,0,3.7331e+07,-18.002,11578,12634,1,12634,1,0.00017482,1.3382e-10,0,0.00027881,3.5491e-05,6.6901e+07,43.329,0,1.0868e+08,14.808,12633,611.88,0,611.88,0,0.00021045,8.2791e-10,0,0.00010499,3.9448e-05,8.2829e+07,275.74,0,4.1206e+07,22.912,611.88,1
2111,1.29,12107,1,12107,1,4.4727e-06,6.9754e-10,0,0.00018383,-8.0624e-07,-5.5051e+05,232.13,0,7.2402e+07,-1.8838,12106,13208,1,13208,1,0.00035963,1.6003e-09,0,0.00035963,6.525e-05,1.366e+08,531.6,0,1.4151e+08,60.734,13207,12107,1,12107,1,-7.2455e-06,7.1902e-10,0,0.00019068,1.4056e-06,-2.958e+06,239.27,0,7.7303e+07,-0.93454,12106,10985,1,10985,1,-0.00034791,-1.9454e-10,0,7.2454e-06,-6.7386e-05,-1.4151e+08,-66.631,0,2.958e+06,-96.368,10984,11579,1,11579,1,-0.00019068,3.4174e-10,0,9.7572e-05,-3.2993e-05,-7.7555e+07,113.88,0,3.7624e+07,-18.437,11578,12634,1,12634,1,0.00017619,1.0424e-09,0,0.000281,3.577e-05,6.7426e+07,346.58,0,1.0953e+08,15.624,12633,611.88,0,611.88,0,0.0002121,4.6146e-10,0,0.00010581,3.9758e-05,8.348e+07,153.72,0,4.153e+07,24.157,611.88,1
2111,1.3,12107,1,12107,1,4.5076e-06,-1.518e-09,0,0.00018525,-8.1253e-07,-5.547e+05,-505.31,0,7.2961e+07,-7.0473,12106,13208,1,13208,1,0.00036242,1.0342e-09,0,0.00036242,6.5757e-05,1.3766e+08,354.21,0,1.4261e+08,134.5,13207,12107,1,12107,1,-7.3011e-06,-1.3773e-09,0,0.00019214,1.4164e-06,-2.9807e+06,-457.14,0,7.7899e+07,-4.0789,12106,10985,1,10985,1,-0.00035062,-4.7354e-09,0,7.301e-06,-6.791e-05,-1.4261e+08,-1558.9,0,2.9807e+06,-180.87,10984,11579,1,11579,1,-0.00019215,-2.7372e-09,0,9.8324e-05,-3.3249e-05,-7.8152e+07,-907.44,0,3.7914e+07,-42.974,11578,12634,1,12634,1,0.00017756,-9.2577e-11,0,0.00028317,3.6045e-05,6.795e+07,-31.706,0,1.1037e+08,34.383,12633,611.88,0,611.88,0,0.00021374,1.5394e-09,0,0.00010663,4.0065e-05,8.4125e+07,512.62,0,4.185e+07,56.84,611.88,1
2111,1.31,12107,1,12107,1,4.5421e-06,4.781e-10,0,0.00018667,-8.1871e-07,-5.5899e+05,159.16,0,7.352e+07,10.05,12106,13208,1,13208,1,0.00036518,2.7623e-09,0,0.00036518,6.6257e-05,1.387e+08,911.54,0,1.437e+08,348.1,13207,12107,1,12107,1,-7.3572e-06,3.3361e-10,0,0.00019362,1.4274e-06,-3.0036e+06,109.5,0,7.8498e+07,8.9,12106,10985,1,10985,1,-0.00035329,-1.3851e-09,0,7.3569e-06,-6.8426e-05,-1.437e+08,-455.6,0,3.0035e+06,-157.38,10984,11579,1,11579,1,-0.00019362,-1.3391e-10,0,9.908e-05,-3.3502e-05,-7.8753e+07,-44.806,0,3.8206e+07,-17.634,11578,12634,1,12634,1,0.00017891,1.1747e-09,0,0.00028535,3.6323e-05,6.8467e+07,393.37,0,1.1122e+08,27.4,12633,611.88,0,611.88,0,0.00021538,9.4893e-10,0,0.00010745,4.0372e-05,8.4769e+07,316.03,0,4.2171e+07,46.986,611.88,1
2111,1.32,12107,1,12107,1,4.5769e-06,-1.5242e-09,0,0.00018811,-8.25e-07,-5.6339e+05,-507.26,0,7.4086e+07,2.7313,12106,13208,1,13208,1,0.00036801,8.0968e-10,0,0.00036801,6.677e-05,1.3978e+08,277.32,0,1.4481e+08,124.07,13207,12107,1,12107,1,-7.4138e-06,-1.2793e-09,0,0.00019511,1.4383e-06,-3.0267e+06,-428.62,0,7.9099e+07,13.045,12106,10985,1,10985,1,-0.00035602,-4.7627e-09,0,7.4137e-06,-6.8956e-05,-1.4481e+08,-1567.9,0,3.0266e+06,-186.56,10984,11579,1,11579,1,-0.00019511,-2.8103e-09,0,9.9839e-05,-3.3761e-05,-7.9356e+07,-933.66,0,3.8498e+07,-42.965,11578,12634,1,12634,1,0.0001803,-2.1822e-10,0,0.00028753,3.6601e-05,6.8996e+07,-73.449,0,1.1207e+08,50.687,12633,611.88,0,611.88,0,0.00021703,1.5008e-09,0,0.00010827,4.0682e-05,8.5421e+07,499.57,0,4.2495e+07,62.469,611.88,1
2111,1.33,12107,1,12107,1,4.6116e-06,-8.8307e-10,0,0.00018952,-8.3127e-07,-5.6749e+05,-293.95,0,7.4641e+07,-7.8509e-06,12106,13208,1,13208,1,0.00037076,3.5572e-09,0,0.00037076,6.727e-05,1.4082e+08,1171.2,0,1.4589e+08,191.33,13207,12107,1,12107,1,-7.469e-06,-6.9642e-10,0,0.00019657,1.4491e-06,-3.0492e+06,-233.95,0,7.9693e+07,-5.5327,12106,10985,1,10985,1,-0.00035869,-4.6376e-09,0,7.4689e-06,-6.9472e-05,-1.4589e+08,-1526.7,0,3.0492e+06,-120.6,10984,11579,1,11579,1,-0.00019657,-2.4957e-09,0,0.00010059,-3.4014e-05,-7.9953e+07,-840.66,0,3.8788e+07,-48.837,11578,12634,1,12634,1,0.00018165,4.0342e-10,0,0.00028969,3.6876e-05,6.9513e+07,134.08,0,1.1292e+08,40.899,12633,611.88,0,611.88,0,0.00021866,1.867e-09,0,0.00010909,4.0987e-05,8.6061e+07,621.69,0,4.2814e+07,59.758,611.88,1
2111,1.34,12107,1,12107,1,4.6465e-06,-1.0301e-09,0,0.00019096,-8.3756e-07,-5.7189e+05,-342.67,0,7.5208e+07,2.9483,12106,13208,1,13208,1,0.00037357,3.3828e-10,0,0.00037357,6.778e-05,1.4189e+08,115.86,0,1.47e+08,87.911,13207,12107,1,12107,1,-7.5258e-06,-9.3076e-10,0,0.00019807,1.4602e-06,-3.0724e+06,-307.95,0,8.0299e+07,2.0266,12106,10985,1,10985,1,-0.0003614,-2.6169e-09,0,7.5258e-06,-6.9998e-05,-1.47e+08,-861.52,0,3.0724e+06,-60.556,10984,11579,1,11579,1,-0.00019807,-1.6533e-09,0,0.00010135,-3.4272e-05,-8.056e+07,-553.09,0,3.9083e+07,-11.736,11578,12634,1,12634,1,0.00018302,-3.863e-10,0,0.00029189,3.7156e-05,7.004e+07,-128.17,0,1.1377e+08,16.322,12633,611.88,0,611.88,0,0.00022032,7.8548e-10,0,0.00010991,4.1299e-05,8.6715e+07,261.41,0,4.3139e+07,22.224,611.88,1
2111,1.35,12107,1,12107,1,4.6811e-06,-1.0021e-09,0,0.00019238,-8.4378e-07,-5.762e+05,-333.17,0,7.5767e+07,6.9367,12106,13208,1,13208,1,0.00037636,3.1333e-09,0,0.00037636,6.8285e-05,1.4295e+08,1046.2,0,1.4809e+08,181.81,13207,12107,1,12107,1,-7.5816e-06,-8.2322e-10,0,0.00019954,1.4709e-06,-3.0952e+06,-268.57,0,8.0895e+07,0.40343,12106,10985,1,10985,1,-0.0003641,-4.7152e-09,0,7.5815e-06,-7.052e-05,-1.4809e+08,-1552.3,0,3.0952e+06,-131.72,10984,11579,1,11579,1,-0.00019954,-2.503e-09,0,0.00010211,-3.4527e-05,-8.1158e+07,-828.2,0,3.9373e+07,-45.318,11578,12634,1,12634,1,0.00018439,3.7837e-10,0,0.00029406,3.7432e-05,7.0562e+07,127.48,0,1.1462e+08,58.225,12633,611.88,0,611.88,0,0.00022196,1.8823e-09,0,0.00011073,4.1606e-05,8.7359e+07,626.43,0,4.346e+07,67.358,611.88,1
2111,1.36,12107,1,12107,1,4.7162e-06,-7.1516e-10,0,0.0001938,-8.5013e-07,-5.8034e+05,-237.8,0,7.6327e+07,0.79868,12106,13208,1,13208,1,0.00037914,2.0092e-09,0,0.00037914,6.8789e-05,1.44e+08,667.67,0,1.4919e+08,90.819,13207,12107,1,12107,1,-7.6374e-06,-5.8064e-10,0,0.00020101,1.4818e-06,-3.118e+06,-193.54,0,8.1495e+07,-4.2979,12106,10985,1,10985,1,-0.00036679,-3.286e-09,0,7.6374e-06,-7.1041e-05,-1.4919e+08,-1081.8,0,3.118e+06,-75.038,10984,11579,1,11579,1,-0.00020102,-1.8425e-09,0,0.00010286,-3.4783e-05,-8.176e+07,-603.7,0,3.9665e+07,-27.012,11578,12634,1,12634,1,0.00018575,2.3083e-10,0,0.00029624,3.7709e-05,7.1083e+07,77.667,0,1.1547e+08,27.55,12633,611.88,0,611.88,0,0.0002236,1.2843e-09,0,0.00011155,4.1913e-05,8.8006e+07,427.44,0,4.3781e+07,36.359,611.88,1
2111,1.37,12107,1,12107,1,4.7508e-06,-2.2223e-09,0,0.00019522,-8.5633e-07,-5.847e+05,-739.26,0,7.6888e+07,12.276,12106,13208,1,13208,1,0.00038194,3.231e-09,0,0.00038194,6.9298e-05,1.4506e+08,1063.7,0,1.5029e+08,220.28,13207,12107,1,12107,1,-7.6933e-06,-1.8562e-09,0,0.00020248,1.4926e-06,-3.1408e+06,-620.12,0,8.2091e+07,5.7644,12106,10985,1,10985,1,-0.0003695,-7.8552e-09,0,7.6933e-06,-7.1566e-05,-1.5029e+08,-2586,0,3.1408e+06,-175.77,10984,11579,1,11579,1,-0.00020249,-4.5141e-09,0,0.00010362,-3.5039e-05,-8.2358e+07,-1483.3,0,3.9955e+07,-51.661,11578,12634,1,12634,1,0.00018712,1.459e-10,0,0.00029841,3.7985e-05,7.1608e+07,48.168,0,1.1631e+08,81.427,12633,611.88,0,611.88,0,0.00022524,2.7817e-09,0,0.00011237,4.2221e-05,8.8652e+07,925.75,0,4.4102e+07,85.817,611.88,1
2111,1.38,12107,1,12107,1,4.7858e-06,-2.9524e-10,0,0.00019665,-8.6268e-07,-5.8888e+05,-98.117,0,7.7448e+07,1.329,12106,13208,1,13208,1,0.0003847,1.267e-09,0,0.0003847,6.9798e-05,1.4611e+08,427.28,0,1.5137e+08,54.032,13207,12107,1,12107,1,-7.7494e-06,-2.2932e-10,0,0.00020397,1.5035e-06,-3.1637e+06,-77.251,0,8.2693e+07,2.668,12106,10985,1,10985,1,-0.00037217,-1.8122e-09,0,7.7493e-06,-7.2083e-05,-1.5137e+08,-604.4,0,3.1637e+06,-89.589,10984,11579,1,11579,1,-0.00020397,-8.2085e-10,0,0.00010438,-3.5293e-05,-8.2962e+07,-275.48,0,4.0248e+07,-8.8241,11578,12634,1,12634,1,0.00018847,1.5829e-10,0,0.0003006,3.8264e-05,7.2126e+07,52.888,0,1.1717e+08,13.733,12633,611.88,0,611.88,0,0.00022689,6.6487e-10,0,0.00011319,4.2529e-05,8.9299e+07,221.28,0,4.4424e+07,18.465,611.88,1
2111,1.39,12107,1,12107,1,4.8209e-06,-1.966e-09,0,0.00019809,-8.6901e-07,-5.9328e+05,-654.11,0,7.8017e+07,-1.865,12106,13208,1,13208,1,0.00038754,6.0351e-10,0,0.00038754,7.0313e-05,1.4719e+08,206.71,0,1.5249e+08,109.57,13207,12107,1,12107,1,-7.806e-06,-1.8889e-09,0,0.00020546,1.5145e-06,-3.1868e+06,-631.35,0,8.3297e+07,-1.1525,12106,10985,1,10985,1,-0.00037491,-4.9068e-09,0,7.8059e-06,-7.2615e-05,-1.5249e+08,-1615.4,0,3.1868e+06,-142.78,10984,11579,1,11579,1,-0.00020546,-3.044e-09,0,0.00010514,-3.5553e-05,-8.3568e+07,-1010.6,0,4.0542e+07,-27.198,11578,12634,1,12634,1,0.00018987,-8.8164e-10,0,0.00030279,3.8543e-05,7.2658e+07,-296.35,0,1.1802e+08,23.091,12633,611.88,0,611.88,0,0.00022855,1.4145e-09,0,0.00011402,4.2841e-05,8.9954e+07,470.79,0,4.475e+07,46.029,611.88,1
2111,1.4,12107,1,12107,1,4.8558e-06,-8.7824e-10,0,0.00019951,-8.753e-07,-5.9741e+05,-292.11,0,7.8574e+07,1.9263,12106,13208,1,13208,1,0.0003903,1.133e-09,0,0.0003903,7.0814e-05,1.4824e+08,387.01,0,1.5358e+08,103.37,13207,12107,1,12107,1,-7.8615e-06,-7.0276e-10,0,0.00020693,1.5253e-06,-3.2095e+06,-232.21,0,8.3895e+07,-2.6523,12106,10985,1,10985,1,-0.00037758,-3.1629e-09,0,7.8615e-06,-7.3133e-05,-1.5358e+08,-1041.2,0,3.2095e+06,-79.731,10984,11579,1,11579,1,-0.00020693,-1.7891e-09,0,0.00010589,-3.5807e-05,-8.4167e+07,-594.74,0,4.0833e+07,-24.251,11578,12634,1,12634,1,0.00019122,4.4982e-11,0,0.00030496,3.882e-05,7.3176e+07,14.927,0,1.1887e+08,30.605,12633,611.88,0,611.88,0,0.00023019,1.0933e-09,0,0.00011484,4.3148e-05,9.0597e+07,363.88,0,4.507e+07,34.574,611.88,1
2111,1.41,12107,1,12107,1,4.8902e-06,-1.4153e-09,0,0.00020092,-8.8148e-07,-6.0175e+05,-470.68,0,7.9132e+07,10.86,12106,13208,1,13208,1,0.00039308,2.5722e-09,0,0.00039308,7.1319e-05,1.4929e+08,853.23,0,1.5467e+08,155.9,13207,12107,1,12107,1,-7.9173e-06,-1.1379e-09,0,0.0002084,1.5361e-06,-3.2323e+06,-378.92,0,8.449e+07,3.6755,12106,10985,1,10985,1,-0.00038028,-5.5195e-09,0,7.9173e-06,-7.3654e-05,-1.5467e+08,-1817,0,3.2323e+06,-115.48,10984,11579,1,11579,1,-0.0002084,-3.0755e-09,0,0.00010664,-3.6062e-05,-8.4764e+07,-1029.7,0,4.1123e+07,-33.931,11578,12634,1,12634,1,0.00019258,1.5958e-10,0,0.00030713,3.9095e-05,7.3697e+07,53.942,0,1.1971e+08,57.229,12633,611.88,0,611.88,0,0.00023182,1.9768e-09,0,0.00011565,4.3454e-05,9.124e+07,657.81,0,4.539e+07,58.617,611.88,1
2111,1.42,12107,1,12107,1,4.9255e-06,-1.5947e-09,0,0.00020237,-8.8787e-07,-6.0609e+05,-530.58,0,7.97e+07,-2.2606,12106,13208,1,13208,1,0.0003959,4.0644e-10,0,0.0003959,7.183e-05,1.5036e+08,139.21,0,1.5578e+08,84.222,13207,12107,1,12107,1,-7.974e-06,-1.5747e-09,0,0.00020989,1.5471e-06,-3.2554e+06,-524.39,0,8.5096e+07,-0.53585,12106,10985,1,10985,1,-0.000383,-3.9375e-09,0,7.9739e-06,-7.4182e-05,-1.5578e+08,-1296.3,0,3.2554e+06,-108.32,10984,11579,1,11579,1,-0.00020989,-2.4707e-09,0,0.00010741,-3.632e-05,-8.5372e+07,-824.18,0,4.1417e+07,-24.604,11578,12634,1,12634,1,0.00019396,-7.1342e-10,0,0.00030933,3.9375e-05,7.4225e+07,-239.61,0,1.2057e+08,21.144,12633,611.88,0,611.88,0,0.00023348,1.13e-09,0,0.00011648,4.3766e-05,9.1895e+07,376.12,0,4.5716e+07,36.336,611.88,1
2111,1.43,12107,1,12107,1,4.9602e-06,-2.0173e-10,0,0.00020378,-8.941e-07,-6.1034e+05,-67.067,0,8.0258e+07,1.3502,12106,13208,1,13208,1,0.00039866,6.1995e-10,0,0.00039866,7.233e-05,1.5141e+08,212.21,0,1.5687e+08,27.067,13207,12107,1,12107,1,-8.0299e-06,-1.7786e-10,0,0.00021137,1.5579e-06,-3.2782e+06,-58.834,0,8.5694e+07,2.6608,12106,10985,1,10985,1,-0.00038567,-8.2192e-10,0,8.0298e-06,-7.4699e-05,-1.5687e+08,-270.58,0,3.2782e+06,-73.825,10984,11579,1,11579,1,-0.00021137,-4.9416e-10,0,0.00010816,-3.6574e-05,-8.5972e+07,-163.01,0,4.1709e+07,-4.4366,11578,12634,1,12634,1,0.00019531,5.9143e-11,0,0.00031151,3.9652e-05,7.4743e+07,19.688,0,1.2142e+08,9.6743,12633,611.88,0,611.88,0,0.00023512,3.3071e-10,0,0.0001173,4.4072e-05,9.2539e+07,110.07,0,4.6036e+07,13.419,611.88,1
2111,1.44,12107,1,12107,1,4.9955e-06,1.9716e-09,0,0.0002052,-9.0048e-07,-6.1448e+05,655.85,0,8.0817e+07,3.4319,12106,13208,1,13208,1,0.00040146,5.1965e-09,0,0.00040146,7.2838e-05,1.5247e+08,1710.7,0,1.5797e+08,183.83,13207,12107,1,12107,1,-8.0847e-06,1.9104e-09,0,0.00021283,1.5685e-06,-3.3006e+06,634.74,0,8.6288e+07,-2.0651,12106,10985,1,10985,1,-0.00038838,-1.1174e-09,0,8.0847e-06,-7.5223e-05,-1.5797e+08,-377.36,0,3.3006e+06,-265.11,10984,11579,1,11579,1,-0.00021283,2.4994e-10,0,0.00010892,-3.683e-05,-8.6567e+07,82.378,0,4.1998e+07,-40.952,11578,12634,1,12634,1,0.00019668,3.5962e-09,0,0.00031366,3.9927e-05,7.5267e+07,1202.9,0,1.2226e+08,50.422,12633,611.88,0,611.88,0,0.00023676,1.778e-09,0,0.00011811,4.4379e-05,9.3182e+07,591.78,0,4.6356e+07,65.486,611.88,1
2111,1.45,12107,1,12107,1,5.0303e-06,-5.6434e-10,0,0.00020662,-9.0677e-07,-6.1888e+05,-187.23,0,8.1374e+07,-2.3595,12106,13208,1,13208,1,0.00040422,6.9094e-09,0,0.00040422,7.334e-05,1.5352e+08,2274.7,0,1.5906e+08,224.92,13207,12107,1,12107,1,-8.1403e-06,-5.1798e-10,0,0.00021431,1.5793e-06,-3.3233e+06,-177.01,0,8.6885e+07,-12.978,12106,10985,1,10985,1,-0.00039105,-5.8112e-09,0,8.1403e-06,-7.5741e-05,-1.5906e+08,-1913.1,0,3.3233e+06,-184.71,10984,11579,1,11579,1,-0.00021431,-2.9351e-09,0,0.00010967,-3.7084e-05,-8.7166e+07,-976.65,0,4.2289e+07,-68.67,11578,12634,1,12634,1,0.00019804,1.001e-09,0,0.00031583,4.0203e-05,7.5786e+07,332.75,0,1.231e+08,57.932,12633,611.88,0,611.88,0,0.00023839,2.8734e-09,0,0.00011893,4.4686e-05,9.3825e+07,956.39,0,4.6676e+07,86.739,611.88,1
2111,1.46,12107,1,12107,1,5.0661e-06,-1.4552e-09,0,0.00020805,-9.1323e-07,-6.2303e+05,-483.92,0,8.1937e+07,-5.5183,12106,13208,1,13208,1,0.00040702,3.1942e-09,0,0.00040702,7.3847e-05,1.5457e+08,1051.6,0,1.6015e+08,165.49,13207,12107,1,12107,1,-8.1954e-06,-1.2258e-09,0,0.00021579,1.59e-06,-3.3458e+06,-412.38,0,8.7486e+07,-10.357,12106,10985,1,10985,1,-0.00039375,-5.6611e-09,0,8.1954e-06,-7.6265e-05,-1.6015e+08,-1863.6,0,3.3458e+06,-161.38,10984,11579,1,11579,1,-0.00021579,-3.3308e-09,0,0.00011043,-3.7341e-05,-8.7768e+07,-1105.8,0,4.2581e+07,-52.09,11578,12634,1,12634,1,0.00019941,2.2692e-10,0,0.00031802,4.048e-05,7.631e+07,73.748,0,1.2395e+08,38.725,12633,611.88,0,611.88,0,0.00024004,2.1478e-09,0,0.00011975,4.4994e-05,9.4473e+07,714.73,0,4.6998e+07,65.385,611.88,1
2111,1.47,12107,1,12107,1,5.1015e-06,-1.7718e-09,0,0.00020947,-9.1962e-07,-6.2735e+05,-589.33,0,8.2499e+07,-6.0842,12106,13208,1,13208,1,0.00040982,3.1882e-09,0,0.00040982,7.4354e-05,1.5563e+08,1049.6,0,1.6126e+08,181.45,13207,12107,1,12107,1,-8.251e-06,-1.5435e-09,0,0.00021726,1.6008e-06,-3.3685e+06,-519.78,0,8.8086e+07,-6.7931,12106,10985,1,10985,1,-0.00039646,-6.4051e-09,0,8.251e-06,-7.6789e-05,-1.6126e+08,-2108.6,0,3.3685e+06,-164.17,10984,11579,1,11579,1,-0.00021726,-3.7239e-09,0,0.00011119,-3.7597e-05,-8.8369e+07,-1232.4,0,4.2873e+07,-59.437,11578,12634,1,12634,1,0.00020078,1.8722e-10,0,0.0003202,4.0758e-05,7.6835e+07,61.344,0,1.248e+08,47.462,12633,611.88,0,611.88,0,0.00024169,2.3517e-09,0,0.00012057,4.5303e-05,9.5121e+07,782.66,0,4.732e+07,74.331,611.88,1
2111,1.48,12107,1,12107,1,5.1372e-06,-5.416e-10,0,0.0002109,-9.2605e-07,-6.3162e+05,-180.09,0,8.3062e+07,-5.4599,12106,13208,1,13208,1,0.0004126,8.4985e-10,0,0.0004126,7.4858e-05,1.5668e+08,289.53,0,1.6235e+08,47.819,13207,12107,1,12107,1,-8.3068e-06,-4.6642e-10,0,0.00021875,1.6117e-06,-3.3913e+06,-151.73,0,8.869e+07,-3.4888,12106,10985,1,10985,1,-0.00039915,-1.9921e-09,0,8.3068e-06,-7.7311e-05,-1.6235e+08,-655.79,0,3.3913e+06,-123.88,10984,11579,1,11579,1,-0.00021875,-1.159e-09,0,0.00011195,-3.7853e-05,-8.8975e+07,-387.58,0,4.3168e+07,-15.788,11578,12634,1,12634,1,0.00020215,8.1541e-11,0,0.00032239,4.1037e-05,7.7357e+07,27.139,0,1.2566e+08,6.728,12633,611.88,0,611.88,0,0.00024334,7.1768e-10,0,0.0001214,4.5613e-05,9.5771e+07,238.88,0,4.7643e+07,20.225,611.88,1
2111,1.49,12107,1,12107,1,5.1723e-06,-2.059e-09,0,0.00021232,-9.3238e-07,-6.359e+05,-684.56,0,8.3619e+07,-6.3902,12106,13208,1,13208,1,0.00041539,5.0933e-09,0,0.00041539,7.5365e-05,1.5774e+08,1676.6,0,1.6345e+08,239.47,13207,12107,1,12107,1,-8.3616e-06,-1.7847e-09,0,0.00022021,1.6222e-06,-3.4137e+06,-588.19,0,8.9283e+07,-12.365,12106,10985,1,10985,1,-0.00040185,-8.5479e-09,0,8.3615e-06,-7.7834e-05,-1.6345e+08,-2814,0,3.4137e+06,-226.8,10984,11579,1,11579,1,-0.00022021,-4.8418e-09,0,0.0001127,-3.8109e-05,-8.9568e+07,-1618.1,0,4.3456e+07,-73.992,11578,12634,1,12634,1,0.00020351,4.7876e-10,0,0.00032455,4.1311e-05,7.788e+07,159.1,0,1.265e+08,61.124,12633,611.88,0,611.88,0,0.00024497,3.2705e-09,0,0.00012221,4.5919e-05,9.6412e+07,1088.3,0,4.7962e+07,94.924,611.88,1
2111,1.5,12107,1,12107,1,5.2079e-06,-1.2936e-09,0,0.00021375,-9.388e-07,-6.4013e+05,-430.24,0,8.4181e+07,-1.3159,12106,13208,1,13208,1,0.00041817,3.7171e-09,0,0.00041817,7.5869e-05,1.5879e+08,1223.7,0,1.6454e+08,169.12,13207,12107,1,12107,1,-8.4171e-06,-1.0698e-09,0,0.0002217,1.633e-06,-3.4363e+06,-351.19,0,8.9885e+07,-4.2168,12106,10985,1,10985,1,-0.00040454,-5.7122e-09,0,8.4169e-06,-7.8355e-05,-1.6454e+08,-1880.5,0,3.4363e+06,-146.99,10984,11579,1,11579,1,-0.0002217,-3.1803e-09,0,0.00011346,-3.8364e-05,-9.0172e+07,-1057.7,0,4.3749e+07,-47.366,11578,12634,1,12634,1,0.00020488,2.6939e-10,0,0.00032674,4.1589e-05,7.8402e+07,90.697,0,1.2735e+08,45.889,12633,611.88,0,611.88,0,0.00024662,2.1974e-09,0,0.00012303,4.6227e-05,9.706e+07,731.31,0,4.8284e+07,62.969,611.88,1
2111,1.51,12107,1,12107,1,5.2435e-06,-1.4662e-09,0,0.00021518,-9.4522e-07,-6.4447e+05,-487.65,0,8.4745e+07,-4.5344,12106,13208,1,13208,1,0.00042098,1.8676e-09,0,0.00042098,7.6378e-05,1.5985e+08,619.87,0,1.6564e+08,150.45,13207,12107,1,12107,1,-8.4729e-06,-1.2707e-09,0,0.00022318,1.6439e-06,-3.4591e+06,-421.63,0,9.0487e+07,-5.9461,12106,10985,1,10985,1,-0.00040725,-5.0063e-09,0,8.4729e-06,-7.888e-05,-1.6564e+08,-1648.1,0,3.4591e+06,-121.83,10984,11579,1,11579,1,-0.00022318,-2.9276e-09,0,0.00011422,-3.8621e-05,-9.0776e+07,-972.24,0,4.4043e+07,-45.271,11578,12634,1,12634,1,0.00020625,7.3524e-11,0,0.00032893,4.1868e-05,7.8927e+07,25.182,0,1.282e+08,36.447,12633,611.88,0,611.88,0,0.00024827,1.7521e-09,0,0.00012386,4.6537e-05,9.771e+07,583.1,0,4.8607e+07,56.272,611.88,1
2111,1.52,12107,1,12107,1,5.2788e-06,-8.9438e-10,0,0.0002166,-9.5157e-07,-6.4875e+05,-297.3,0,8.5303e+07,1.5311,12106,13208,1,13208,1,0.00042375,3.8821e-09,0,0.00042375,7.6881e-05,1.609e+08,1278.1,0,1.6674e+08,146.29,13207,12107,1,12107,1,-8.5282e-06,-7.8121e-10,0,0.00022465,1.6546e-06,-3.4817e+06,-257.83,0,9.1085e+07,-3.0457,12106,10985,1,10985,1,-0.00040993,-4.6707e-09,0,8.5281e-06,-7.94e-05,-1.6674e+08,-1537.6,0,3.4817e+06,-135.35,10984,11579,1,11579,1,-0.00022465,-2.5682e-09,0,0.00011497,-3.8876e-05,-9.1375e+07,-850.6,0,4.4334e+07,-40.182,11578,12634,1,12634,1,0.00020761,4.245e-10,0,0.0003311,4.2144e-05,7.9448e+07,139.03,0,1.2905e+08,39.866,12633,611.88,0,611.88,0,0.00024991,1.9678e-09,0,0.00012467,4.6844e-05,9.8355e+07,654.8,0,4.8928e+07,57.255,611.88,1
2111,1.53,12107,1,12107,1,5.3148e-06,-1.2925e-09,0,0.00021803,-9.5807e-07,-6.5296e+05,-429.94,0,8.5868e+07,-4.2113,12106,13208,1,13208,1,0.00042655,3.6479e-10,0,0.00042655,7.7389e-05,1.6196e+08,124.94,0,1.6784e+08,73.162,13207,12107,1,12107,1,-8.5836e-06,-1.1667e-09,0,0.00022614,1.6654e-06,-3.5043e+06,-388,0,9.1688e+07,-4.8537,12106,10985,1,10985,1,-0.00041264,-3.2926e-09,0,8.5835e-06,-7.9925e-05,-1.6784e+08,-1084,0,3.5043e+06,-92.058,10984,11579,1,11579,1,-0.00022614,-2.1383e-09,0,0.00011573,-3.9133e-05,-9.1979e+07,-707.4,0,4.4627e+07,-21.638,11578,12634,1,12634,1,0.00020898,-4.4301e-10,0,0.00033329,4.2423e-05,7.9973e+07,-146.28,0,1.299e+08,11.606,12633,611.88,0,611.88,0,0.00025156,9.8827e-10,0,0.0001255,4.7154e-05,9.9005e+07,328.89,0,4.9251e+07,26.256,611.88,1
2111,1.54,12107,1,12107,1,5.3502e-06,1.4073e-09,0,0.00021945,-9.6445e-07,-6.5718e+05,468,0,8.6427e+07,4.967,12106,13208,1,13208,1,0.00042933,4.2903e-09,0,0.00042933,7.7893e-05,1.6301e+08,1411.1,0,1.6893e+08,204.89,13207,12107,1,12107,1,-8.6384e-06,1.3756e-09,0,0.00022761,1.6761e-06,-3.5267e+06,452.52,0,9.2285e+07,-6.6701,12106,10985,1,10985,1,-0.00041533,-1.3807e-09,0,8.6384e-06,-8.0447e-05,-1.6893e+08,-457.73,0,3.5267e+06,-149.42,10984,11579,1,11579,1,-0.00022761,1.528e-10,0,0.00011649,-3.9389e-05,-9.2577e+07,50.124,0,4.4918e+07,-34.929,11578,12634,1,12634,1,0.00021035,2.5168e-09,0,0.00033546,4.2699e-05,8.0495e+07,843.57,0,1.3075e+08,38.63,12633,611.88,0,611.88,0,0.0002532,1.4183e-09,0,0.00012632,4.7461e-05,9.9649e+07,471.89,0,4.9571e+07,57.975,611.88,1
2111,1.55,12107,1,12107,1,5.3857e-06,-9.5349e-10,0,0.00022088,-9.7087e-07,-6.6147e+05,-316.95,0,8.6987e+07,-2.025,12106,13208,1,13208,1,0.00043212,2.9848e-09,0,0.00043212,7.8399e-05,1.6406e+08,983,0,1.7003e+08,121.93,13207,12107,1,12107,1,-8.6939e-06,-7.9893e-10,0,0.00022909,1.6868e-06,-3.5494e+06,-264.34,0,9.2885e+07,-5.1934,12106,10985,1,10985,1,-0.00041802,-4.4121e-09,0,8.6938e-06,-8.0969e-05,-1.7003e+08,-1452.5,0,3.5494e+06,-109.03,10984,11579,1,11579,1,-0.00022909,-2.4631e-09,0,0.00011725,-3.9644e-05,-9.3178e+07,-812.04,0,4.521e+07,-34.35,11578,12634,1,12634,1,0.00021171,2.8648e-10,0,0.00033764,4.2976e-05,8.1017e+07,95.887,0,1.316e+08,31.859,12633,611.88,0,611.88,0,0.00025484,1.742e-09,0,0.00012714,4.7769e-05,1.003e+08,579.71,0,4.9893e+07,47.614,611.88,1
2111,1.56,12107,1,12107,1,5.4215e-06,-1.1089e-10,0,0.00022231,-9.7734e-07,-6.6569e+05,-36.739,0,8.7549e+07,-7.6808,12106,13208,1,13208,1,0.00043491,4.5473e-09,0,0.00043491,7.8904e-05,1.6511e+08,1496.9,0,1.7112e+08,141.32,13207,12107,1,12107,1,-8.7491e-06,-1.4894e-10,0,0.00023057,1.6975e-06,-3.5719e+06,-48.523,0,9.3487e+07,-10.245,12106,10985,1,10985,1,-0.00042072,-3.0084e-09,0,8.7488e-06,-8.1491e-05,-1.7112e+08,-990.37,0,3.5718e+06,-148.92,10984,11579,1,11579,1,-0.00023057,-1.4121e-09,0,0.00011801,-3.99e-05,-9.3781e+07,-469.81,0,4.5503e+07,-45.454,11578,12634,1,12634,1,0.00021308,7.6173e-10,0,0.00033983,4.3254e-05,8.154e+07,252.47,0,1.3245e+08,26.094,12633,611.88,0,611.88,0,0.00025649,1.6485e-09,0,0.00012796,4.8078e-05,1.0094e+08,548.75,0,5.0215e+07,54.811,611.88,1
2111,1.57,12107,1,12107,1,5.4568e-06,-1.2059e-09,0,0.00022372,-9.8369e-07,-6.7e+05,-400.92,0,8.8108e+07,-2.5945,12106,13208,1,13208,1,0.0004377,3.6596e-09,0,0.0004377,7.9409e-05,1.6616e+08,1204.8,0,1.7222e+08,166.43,13207,12107,1,12107,1,-8.8042e-06,-9.9938e-10,0,0.00023204,1.7082e-06,-3.5944e+06,-329.55,0,9.4083e+07,-5.6423,12106,10985,1,10985,1,-0.00042341,-5.457e-09,0,8.8041e-06,-8.2013e-05,-1.7222e+08,-1796.5,0,3.5944e+06,-138.41,10984,11579,1,11579,1,-0.00023204,-3.0829e-09,0,0.00011876,-4.0156e-05,-9.4379e+07,-1016.4,0,4.5794e+07,-49.842,11578,12634,1,12634,1,0.00021444,3.3511e-10,0,0.00034199,4.3529e-05,8.2063e+07,111.32,0,1.3329e+08,41.172,12633,611.88,0,611.88,0,0.00025813,2.1598e-09,0,0.00012878,4.8385e-05,1.0159e+08,718.73,0,5.0535e+07,60.451,611.88,1
2111,1.58,12107,1,12107,1,5.496e-06,-6.4871e-10,0,0.00022516,-9.908e-07,-6.7427e+05,-215.85,0,8.867e+07,-10.055,12106,13208,1,13208,1,0.0004405,4.8866e-09,0,0.0004405,7.9916e-05,1.6721e+08,1608.7,0,1.7332e+08,195.58,13207,12107,1,12107,1,-8.8564e-06,-4.9536e-10,0,0.00023352,1.7183e-06,-3.6157e+06,-164.48,0,9.4687e+07,-20.112,12106,10985,1,10985,1,-0.00042612,-4.6248e-09,0,8.8563e-06,-8.2538e-05,-1.7332e+08,-1522.5,0,3.6157e+06,-164.25,10984,11579,1,11579,1,-0.00023352,-2.3786e-09,0,0.00011952,-4.0413e-05,-9.4981e+07,-799.72,0,4.6088e+07,-61.679,11578,12634,1,12634,1,0.00021582,5.9309e-10,0,0.00034419,4.3808e-05,8.2589e+07,196.28,0,1.3414e+08,30.142,12633,611.88,0,611.88,0,0.00025978,2.0863e-09,0,0.0001296,4.8695e-05,1.0223e+08,694.96,0,5.0856e+07,68.724,611.88,1
2111,1.59,12107,1,12107,1,5.5355e-06,3.1628e-10,0,0.00022658,-9.9792e-07,-6.785e+05,105.31,0,8.9227e+07,-2.0293,12106,13208,1,13208,1,0.00044327,4.5952e-09,0,0.00044327,8.0417e-05,1.6824e+08,1512.8,0,1.7441e+08,110.03,13207,12107,1,12107,1,-8.9075e-06,1.0887e-10,0,0.00023499,1.7283e-06,-3.6366e+06,35.751,0,9.5287e+07,-4.3739,12106,10985,1,10985,1,-0.00042879,-2.39e-09,0,8.9074e-06,-8.3058e-05,-1.7441e+08,-787.3,0,3.6366e+06,-91.923,10984,11579,1,11579,1,-0.00023499,-7.0894e-10,0,0.00012028,-4.0669e-05,-9.5579e+07,-231.62,0,4.6382e+07,-29.917,11578,12634,1,12634,1,0.00021718,1.1544e-09,0,0.00034637,4.4083e-05,8.311e+07,387.87,0,1.3499e+08,24.049,12633,611.88,0,611.88,0,0.00026142,1.4773e-09,0,0.00013042,4.9002e-05,1.0288e+08,492.1,0,5.1174e+07,39.22,611.88,1
2111,1.6,12107,1,12107,1,5.5752e-06,-5.9833e-11,0,0.000228,-1.0051e-06,-6.8273e+05,-19.779,0,8.9786e+07,-7.243,12106,13208,1,13208,1,0.00044607,8.1655e-09,0,0.00044607,8.0923e-05,1.6928e+08,2688.1,0,1.755e+08,276.01,13207,12107,1,12107,1,-8.9584e-06,-1.0883e-10,0,0.00023646,1.7381e-06,-3.6575e+06,-34.858,0,9.5886e+07,-10.882,12106,10985,1,10985,1,-0.00043149,-5.1026e-09,0,8.9583e-06,-8.3582e-05,-1.755e+08,-1679.8,0,3.6574e+06,-225.45,10984,11579,1,11579,1,-0.00023646,-2.3053e-09,0,0.00012104,-4.0926e-05,-9.6177e+07,-766.29,0,4.6674e+07,-69.196,11578,12634,1,12634,1,0.00021855,1.4824e-09,0,0.00034854,4.4359e-05,8.3635e+07,484.56,0,1.3583e+08,31.092,12633,611.88,0,611.88,0,0.00026306,2.9409e-09,0,0.00013124,4.931e-05,1.0352e+08,979.52,0,5.1493e+07,89.71,611.88,1
2111,1.61,12107,1,12107,1,5.615e-06,1.7499e-09,0,0.00022943,-1.0123e-06,-6.8707e+05,582.36,0,9.0348e+07,7.8381,12106,13208,1,13208,1,0.00044889,7.058e-09,0,0.00044889,8.1432e-05,1.7033e+08,2323.4,0,1.7661e+08,180.02,13207,12107,1,12107,1,-9.0099e-06,1.253e-09,0,0.00023794,1.7483e-06,-3.6785e+06,420.82,0,9.6491e+07,1.6608,12106,10985,1,10985,1,-0.0004342,-1.2749e-09,0,9.0098e-06,-8.4109e-05,-1.7661e+08,-425.78,0,3.6785e+06,-171.87,10984,11579,1,11579,1,-0.00023794,1.1216e-10,0,0.00012181,-4.1184e-05,-9.6779e+07,37.645,0,4.6969e+07,-34.177,11578,12634,1,12634,1,0.00021994,3.1842e-09,0,0.00035074,4.4637e-05,8.4164e+07,1062.5,0,1.3669e+08,46.744,12633,611.88,0,611.88,0,0.00026471,1.9215e-09,0,0.00013206,4.962e-05,1.0417e+08,639.97,0,5.1814e+07,62.595,611.88,1
2111,1.62,12107,1,12107,1,5.655e-06,1.9953e-09,0,0.00023086,-1.0195e-06,-6.9129e+05,663.95,0,9.0908e+07,13.321,12106,13208,1,13208,1,0.00045169,6.2876e-09,0,0.00045169,8.1939e-05,1.7137e+08,2069.9,0,1.777e+08,191.82,13207,12107,1,12107,1,-9.0608e-06,1.7538e-09,0,0.00023941,1.7581e-06,-3.6993e+06,593.5,0,9.7092e+07,8.8788,12106,10985,1,10985,1,-0.0004369,-1.4702e-09,0,9.0608e-06,-8.4634e-05,-1.777e+08,-492.35,0,3.6993e+06,-176.6,10984,11579,1,11579,1,-0.00023941,1.9508e-10,0,0.00012257,-4.1442e-05,-9.7378e+07,62.833,0,4.7263e+07,-35.54,11578,12634,1,12634,1,0.00022131,3.7038e-09,0,0.00035292,4.4913e-05,8.469e+07,1236.2,0,1.3753e+08,62.501,12633,611.88,0,611.88,0,0.00026636,1.9503e-09,0,0.00013288,4.9928e-05,1.0481e+08,649.26,0,5.2134e+07,68.085,611.88,1
2111,1.63,12107,1,12107,1,5.6953e-06,9.6107e-11,0,0.0002323,-1.0268e-06,-6.9559e+05,32.111,0,9.1472e+07,-6.093,12106,13208,1,13208,1,0.00045448,2.2702e-09,0,0.00045448,8.2443e-05,1.7241e+08,747.36,0,1.788e+08,66.159,13207,12107,1,12107,1,-9.1124e-06,1.9598e-11,0,0.00024091,1.7682e-06,-3.7204e+06,6.2515,0,9.7701e+07,-8.1822,12106,10985,1,10985,1,-0.00043959,-1.1727e-09,0,9.1124e-06,-8.5157e-05,-1.788e+08,-386.03,0,3.7204e+06,-70.359,10984,11579,1,11579,1,-0.00024091,-4.6965e-10,0,0.00012334,-4.1699e-05,-9.7985e+07,-156.3,0,4.756e+07,-24.91,11578,12634,1,12634,1,0.00022268,4.9716e-10,0,0.00035513,4.5193e-05,8.5215e+07,165.36,0,1.3839e+08,9.2786,12633,611.88,0,611.88,0,0.00026802,7.5028e-10,0,0.00013371,5.0239e-05,1.0546e+08,250.03,0,5.2456e+07,25.357,611.88,1
2111,1.64,12107,1,12107,1,5.7354e-06,-1.2283e-09,0,0.00023372,-1.0341e-06,-6.9973e+05,-408.53,0,9.2029e+07,-18.31,12106,13208,1,13208,1,0.00045728,1.7775e-09,0,0.00045728,8.2949e-05,1.7345e+08,591.04,0,1.799e+08,92.656,13207,12107,1,12107,1,-9.1624e-06,-9.0774e-10,0,0.00024237,1.7778e-06,-3.7409e+06,-302.55,0,9.8298e+07,-21.486,12106,10985,1,10985,1,-0.00044229,-4.9867e-09,0,9.1623e-06,-8.5682e-05,-1.799e+08,-1641.6,0,3.7408e+06,-139.11,10984,11579,1,11579,1,-0.00024237,-2.6712e-09,0,0.0001241,-4.1956e-05,-9.858e+07,-884.15,0,4.7852e+07,-53.124,11578,12634,1,12634,1,0.00022406,1.7845e-10,0,0.0003573,4.5467e-05,8.574e+07,58.263,0,1.3923e+08,15.323,12633,611.88,0,611.88,0,0.00026966,1.6725e-09,0,0.00013453,5.0546e-05,1.061e+08,556.96,0,5.2774e+07,46.702,611.88,1
2111,1.65,12107,1,12107,1,5.7755e-06,-5.9212e-10,0,0.00023515,-1.0414e-06,-7.0406e+05,-196.95,0,9.259e+07,-10.403,12106,13208,1,13208,1,0.00046007,1.218e-09,0,0.00046007,8.3454e-05,1.7448e+08,404.02,0,1.8099e+08,52.114,13207,12107,1,12107,1,-9.2137e-06,-4.6571e-10,0,0.00024385,1.7879e-06,-3.7618e+06,-153.12,0,9.8903e+07,-9.1092,12106,10985,1,10985,1,-0.00044498,-2.4886e-09,0,9.2136e-06,-8.6205e-05,-1.8099e+08,-819.25,0,3.7618e+06,-93.434,10984,11579,1,11579,1,-0.00024385,-1.3684e-09,0,0.00012486,-4.2213e-05,-9.9182e+07,-453.7,0,4.8147e+07,-29.883,11578,12634,1,12634,1,0.00022543,1.5606e-10,0,0.0003595,4.5745e-05,8.6265e+07,52.098,0,1.4008e+08,8.511,12633,611.88,0,611.88,0,0.00027131,8.8668e-10,0,0.00013535,5.0855e-05,1.0675e+08,295.26,0,5.3094e+07,26.303,611.88,1
2111,1.66,12107,1,12107,1,5.8157e-06,-7.6787e-10,0,0.00023656,-1.0486e-06,-7.0824e+05,-255.39,0,9.3145e+07,-8.6295,12106,13208,1,13208,1,0.00046285,4.0142e-09,0,0.00046285,8.3957e-05,1.7552e+08,1321.5,0,1.8208e+08,137.35,13207,12107,1,12107,1,-9.2638e-06,-4.8623e-10,0,0.00024531,1.7976e-06,-3.7823e+06,-158.87,0,9.95e+07,-12.877,12106,10985,1,10985,1,-0.00044766,-4.7469e-09,0,9.2638e-06,-8.6726e-05,-1.8208e+08,-1562.6,0,3.7823e+06,-106.24,10984,11579,1,11579,1,-0.00024531,-2.4809e-09,0,0.00012562,-4.2469e-05,-9.9776e+07,-818.71,0,4.8439e+07,-49.626,11578,12634,1,12634,1,0.00022679,5.6843e-10,0,0.00036167,4.6019e-05,8.6788e+07,184.46,0,1.4092e+08,22.166,12633,611.88,0,611.88,0,0.00027294,2.0212e-09,0,0.00013617,5.1162e-05,1.0739e+08,673.04,0,5.3411e+07,51.623,611.88,1
2111,1.67,12107,1,12107,1,5.856e-06,1.5876e-09,0,0.000238,-1.0559e-06,-7.1268e+05,528.3,0,9.371e+07,7.3292,12106,13208,1,13208,1,0.00046568,3.6135e-09,0,0.00046568,8.4467e-05,1.7656e+08,1190.2,0,1.8319e+08,129.18,13207,12107,1,12107,1,-9.3151e-06,1.5815e-09,0,0.0002468,1.8077e-06,-3.8033e+06,534.18,0,1.0011e+08,0.74329,12106,10985,1,10985,1,-0.00045038,-3.9301e-10,0,9.3151e-06,-8.7255e-05,-1.8319e+08,-134.61,0,3.8033e+06,-109.18,10984,11579,1,11579,1,-0.0002468,5.5742e-10,0,0.00012639,-4.2728e-05,-1.0038e+08,185.14,0,4.8736e+07,-21.427,11578,12634,1,12634,1,0.00022818,2.6141e-09,0,0.00036387,4.6298e-05,8.7318e+07,868.08,0,1.4178e+08,34.506,12633,611.88,0,611.88,0,0.0002746,1.1232e-09,0,0.000137,5.1473e-05,1.0804e+08,374.09,0,5.3734e+07,43.138,611.88,1
2111,1.68,12107,1,12107,1,5.8964e-06,1.8623e-09,0,0.00023942,-1.0632e-06,-7.1689e+05,619.73,0,9.4268e+07,12.677,12106,13208,1,13208,1,0.00046848,7.1637e-09,0,0.00046848,8.4973e-05,1.776e+08,2358.3,0,1.8428e+08,269.93,13207,12107,1,12107,1,-9.3653e-06,1.399e-09,0,0.00024827,1.8174e-06,-3.8238e+06,466.09,0,1.0071e+08,5.8022,12106,10985,1,10985,1,-0.00045308,-1.1325e-09,0,9.3653e-06,-8.7779e-05,-1.8428e+08,-383.93,0,3.8238e+06,-233.38,10984,11579,1,11579,1,-0.00024827,5.4424e-11,0,0.00012715,-4.2985e-05,-1.0098e+08,18.515,0,4.9029e+07,-37.75,11578,12634,1,12634,1,0.00022955,3.4948e-09,0,0.00036605,4.6573e-05,8.7843e+07,1152.8,0,1.4262e+08,57.45,12633,611.88,0,611.88,0,0.00027624,2.0438e-09,0,0.00013782,5.178e-05,1.0868e+08,680.31,0,5.4052e+07,83.274,611.88,1
2111,1.69,12107,1,12107,1,5.937e-06,-5.9087e-10,0,0.00024085,-1.0706e-06,-7.2111e+05,-196.48,0,9.4826e+07,-11.693,12106,13208,1,13208,1,0.00047125,3.5986e-09,0,0.00047125,8.5474e-05,1.7863e+08,1184.7,0,1.8537e+08,119.51,13207,12107,1,12107,1,-9.4157e-06,-4.1065e-10,0,0.00024974,1.8271e-06,-3.8444e+06,-134.85,0,1.0131e+08,-16.15,12106,10985,1,10985,1,-0.00045575,-3.771e-09,0,9.4156e-06,-8.8299e-05,-1.8537e+08,-1241.4,0,3.8444e+06,-124.12,10984,11579,1,11579,1,-0.00024974,-1.9516e-09,0,0.00012791,-4.324e-05,-1.0158e+08,-654.25,0,4.9323e+07,-48.799,11578,12634,1,12634,1,0.00023092,4.246e-10,0,0.00036823,4.685e-05,8.8365e+07,139.96,0,1.4347e+08,17.659,12633,611.88,0,611.88,0,0.00027788,1.6327e-09,0,0.00013864,5.2088e-05,1.0932e+08,543.82,0,5.437e+07,46.824,611.88,1
2111,1.7,12107,1,12107,1,5.9775e-06,-1.2663e-09,0,0.00024227,-1.0779e-06,-7.2537e+05,-421.79,0,9.5383e+07,-10.408,12106,13208,1,13208,1,0.00047405,3.7022e-09,0,0.00047405,8.5979e-05,1.7966e+08,1218.8,0,1.8647e+08,138.44,13207,12107,1,12107,1,-9.4657e-06,-9.1525e-10,0,0.0002512,1.8368e-06,-3.8649e+06,-310.59,0,1.0191e+08,-11.453,12106,10985,1,10985,1,-0.00045844,-6.1293e-09,0,9.4656e-06,-8.8823e-05,-1.8647e+08,-2017.7,0,3.8649e+06,-134.46,10984,11579,1,11579,1,-0.0002512,-3.2081e-09,0,0.00012867,-4.3497e-05,-1.0217e+08,-1061.6,0,4.9615e+07,-61.061,11578,12634,1,12634,1,0.00023229,3.5161e-10,0,0.00037041,4.7125e-05,8.889e+07,117.49,0,1.4431e+08,31.905,12633,611.88,0,611.88,0,0.00027952,2.2909e-09,0,0.00013945,5.2395e-05,1.0997e+08,763.82,0,5.4688e+07,61.429,611.88,1
2111,1.71,12107,1,12107,1,6.0272e-06,6.4796e-11,0,0.00024372,-1.0869e-06,-7.2969e+05,21.493,0,9.5948e+07,-9.0521,12106,13208,1,13208,1,0.00047687,4.8653e-10,0,0.00047687,8.6486e-05,1.8069e+08,157.96,0,1.8757e+08,44.835,13207,12107,1,12107,1,-9.5084e-06,1.1194e-10,0,0.0002527,1.8452e-06,-3.8824e+06,36.319,0,1.0252e+08,-3.7146,12106,10985,1,10985,1,-0.00046115,-9.3143e-10,0,9.5083e-06,-8.9352e-05,-1.8757e+08,-304.74,0,3.8824e+06,-91.189,10984,11579,1,11579,1,-0.0002527,-8.2591e-12,0,0.00012946,-4.3758e-05,-1.0278e+08,-2.6448,0,4.9918e+07,-12.343,11578,12634,1,12634,1,0.00023368,2.4597e-10,0,0.00037265,4.7405e-05,8.9423e+07,81.832,0,1.4517e+08,3.3487,12633,611.88,0,611.88,0,0.00028119,2.6614e-10,0,0.00014029,5.2709e-05,1.1062e+08,88.223,0,5.5009e+07,21.61,611.88,1
2111,1.72,12107,1,12107,1,6.0771e-06,-6.7837e-10,0,0.00024513,-1.096e-06,-7.3373e+05,-226.04,0,9.6498e+07,-4.2093,12106,13208,1,13208,1,0.00047967,3.7267e-09,0,0.00047967,8.6987e-05,1.817e+08,1226.8,0,1.8865e+08,133.61,13207,12107,1,12107,1,-9.5485e-06,-3.8195e-10,0,0.00025414,1.8531e-06,-3.8989e+06,-126.35,0,1.0312e+08,-11.643,12106,10985,1,10985,1,-0.00046382,-4.5563e-09,0,9.5483e-06,-8.9875e-05,-1.8865e+08,-1499.9,0,3.8988e+06,-111.2,10984,11579,1,11579,1,-0.00025414,-2.1964e-09,0,0.00013022,-4.4016e-05,-1.0337e+08,-726.18,0,5.0213e+07,-41.596,11578,12634,1,12634,1,0.00023506,5.2987e-10,0,0.00037482,4.7676e-05,8.9949e+07,176.65,0,1.4601e+08,27.91,12633,611.88,0,611.88,0,0.00028282,1.9218e-09,0,0.0001411,5.3014e-05,1.1125e+08,640.32,0,5.5321e+07,49.666,611.88,1
2111,1.73,12107,1,12107,1,6.1301e-06,-9.536e-10,0,0.00024655,-1.1057e-06,-7.3803e+05,-317.57,0,9.7052e+07,-17.607,12106,13208,1,13208,1,0.00048248,3.5094e-09,0,0.00048248,8.7491e-05,1.8271e+08,1157.5,0,1.8975e+08,133.17,13207,12107,1,12107,1,-9.5863e-06,-4.6535e-10,0,0.0002556,1.8603e-06,-3.9144e+06,-150.85,0,1.0373e+08,-22.675,12106,10985,1,10985,1,-0.00046651,-5.5401e-09,0,9.5863e-06,-9.0402e-05,-1.8975e+08,-1823.7,0,3.9144e+06,-197.49,10984,11579,1,11579,1,-0.0002556,-2.687e-09,0,0.000131,-4.4276e-05,-1.0396e+08,-889.68,0,5.0512e+07,-56.555,11578,12634,1,12634,1,0.00023645,5.7523e-10,0,0.00037701,4.795e-05,9.048e+07,190.63,0,1.4685e+08,21.394,12633,611.88,0,611.88,0,0.00028447,2.2033e-09,0,0.00014192,5.3323e-05,1.1188e+08,734.85,0,5.5635e+07,60.338,611.88,1
2111,1.74,12107,1,12107,1,6.1863e-06,-1.3011e-09,0,0.000248,-1.1159e-06,-7.4221e+05,-433.23,0,9.7612e+07,-24.531,12106,13208,1,13208,1,0.00048533,3.0391e-09,0,0.00048533,8.8e-05,1.8373e+08,1000.4,0,1.9085e+08,153.43,13207,12107,1,12107,1,-9.6221e-06,-9.7351e-10,0,0.00025708,1.8672e-06,-3.9292e+06,-323.44,0,1.0434e+08,-26.631,12106,10985,1,10985,1,-0.00046922,-5.8997e-09,0,9.6221e-06,-9.0936e-05,-1.9085e+08,-1942.1,0,3.9292e+06,-248.92,10984,11579,1,11579,1,-0.00025708,-3.1082e-09,0,0.00013178,-4.4539e-05,-1.0456e+08,-1039.4,0,5.0815e+07,-79.439,11578,12634,1,12634,1,0.00023785,2.4505e-10,0,0.00037924,4.8227e-05,9.1018e+07,81.903,0,1.477e+08,25.355,12633,611.88,0,611.88,0,0.00028613,2.0968e-09,0,0.00014276,5.3635e-05,1.1253e+08,699.18,0,5.5952e+07,78.52,611.88,1
2111,1.75,12107,1,12107,1,6.2421e-06,-1.7011e-10,0,0.00024942,-1.126e-06,-7.4655e+05,-56.82,0,9.8165e+07,-17.352,12106,13208,1,13208,1,0.00048813,4.2892e-09,0,0.00048813,8.85e-05,1.8473e+08,1416.6,0,1.9194e+08,126.66,13207,12107,1,12107,1,-9.6573e-06,-3.1562e-11,0,0.00025854,1.8743e-06,-3.9437e+06,-10.106,0,1.0494e+08,-19.793,12106,10985,1,10985,1,-0.00047189,-3.5478e-09,0,9.6573e-06,-9.146e-05,-1.9194e+08,-1167.9,0,3.9437e+06,-162.95,10984,11579,1,11579,1,-0.00025854,-1.5727e-09,0,0.00013256,-4.4798e-05,-1.0516e+08,-525.18,0,5.1115e+07,-58.601,11578,12634,1,12634,1,0.00023923,8.4011e-10,0,0.00038144,4.8501e-05,9.1548e+07,278.82,0,1.4854e+08,19.121,12633,611.88,0,611.88,0,0.00028778,1.7399e-09,0,0.00014358,5.3943e-05,1.1316e+08,580.36,0,5.6265e+07,55.138,611.88,1
2111,1.76,12107,1,12107,1,6.2987e-06,2.165e-10,0,0.00025087,-1.1363e-06,-7.5081e+05,71.981,0,9.8724e+07,-10.683,12106,13208,1,13208,1,0.00049096,1.4432e-09,0,0.00049096,8.9006e-05,1.8575e+08,477.48,0,1.9303e+08,40.654,13207,12107,1,12107,1,-9.6927e-06,1.2022e-10,0,0.00026002,1.8814e-06,-3.9582e+06,39.242,0,1.0555e+08,-9.3096,12106,10985,1,10985,1,-0.00047458,-5.24e-10,0,9.6926e-06,-9.199e-05,-1.9303e+08,-179.36,0,3.9582e+06,-101.29,10984,11579,1,11579,1,-0.00026002,-3.1721e-11,0,0.00013335,-4.506e-05,-1.0576e+08,-10.52,0,5.1419e+07,-18.744,11578,12634,1,12634,1,0.00024063,4.1345e-10,0,0.00038367,4.8778e-05,9.2082e+07,138.34,0,1.4939e+08,-1.3568,12633,611.88,0,611.88,0,0.00028944,3.9298e-10,0,0.00014441,5.4255e-05,1.1381e+08,131.5,0,5.6581e+07,15.956,611.88,1
2111,1.77,12107,1,12107,1,6.3554e-06,-7.7085e-10,0,0.0002523,-1.1467e-06,-7.5516e+05,-256.62,0,9.9281e+07,-4.261,12106,13208,1,13208,1,0.00049379,2.7109e-10,0,0.00049379,8.9512e-05,1.8676e+08,90.474,0,1.9413e+08,58.062,13207,12107,1,12107,1,-9.7275e-06,-8.0429e-10,0,0.00026148,1.8883e-06,-3.9726e+06,-268.29,0,1.0616e+08,-2.2461,12106,10985,1,10985,1,-0.00047728,-1.6517e-09,0,9.7275e-06,-9.2521e-05,-1.9413e+08,-540.36,0,3.9726e+06,-121.44,10984,11579,1,11579,1,-0.00026148,-1.2411e-09,0,0.00013413,-4.5322e-05,-1.0635e+08,-411.12,0,5.1721e+07,-15.672,11578,12634,1,12634,1,0.00024203,-3.4005e-10,0,0.00038589,4.9053e-05,9.2618e+07,-113.41,0,1.5024e+08,9.7149,12633,611.88,0,611.88,0,0.0002911,5.2794e-10,0,0.00014524,5.4565e-05,1.1445e+08,175.92,0,5.6896e+07,22.384,611.88,1
2111,1.78,12107,1,12107,1,6.4125e-06,-8.3273e-10,0,0.00025373,-1.1571e-06,-7.5936e+05,-277.26,0,9.9833e+07,-13.437,12106,13208,1,13208,1,0.00049661,2.1005e-09,0,0.00049661,9.0015e-05,1.8776e+08,691.46,0,1.9522e+08,83.621,13207,12107,1,12107,1,-9.7612e-06,-6.113e-10,0,0.00026294,1.8948e-06,-3.9865e+06,-201.99,0,1.0676e+08,-15.531,12106,10985,1,10985,1,-0.00047997,-3.9059e-09,0,9.7612e-06,-9.3048e-05,-1.9522e+08,-1285.7,0,3.9865e+06,-148.98,10984,11579,1,11579,1,-0.00026294,-2.0386e-09,0,0.00013491,-4.5583e-05,-1.0695e+08,-684.44,0,5.2021e+07,-48.508,11578,12634,1,12634,1,0.00024342,2.4926e-10,0,0.00038808,4.9325e-05,9.315e+07,80.892,0,1.5108e+08,23.243,12633,611.88,0,611.88,0,0.00029274,1.4098e-09,0,0.00014606,5.4873e-05,1.1508e+08,469.88,0,5.7208e+07,47.615,611.88,1
2111,1.79,12107,1,12107,1,6.47e-06,-1.1717e-09,0,0.00025516,-1.1675e-06,-7.6362e+05,-390.2,0,1.0039e+08,-11.342,12106,13208,1,13208,1,0.00049945,5.5698e-10,0,0.00049945,9.0521e-05,1.8878e+08,190.77,0,1.9632e+08,66.557,13207,12107,1,12107,1,-9.7954e-06,-1.1238e-09,0,0.0002644,1.9016e-06,-4.0006e+06,-372.56,0,1.0737e+08,-6.2841,12106,10985,1,10985,1,-0.00048266,-3.0101e-09,0,9.7954e-06,-9.3579e-05,-1.9632e+08,-990.9,0,4.0006e+06,-139.38,10984,11579,1,11579,1,-0.0002644,-1.8937e-09,0,0.00013569,-4.5845e-05,-1.0754e+08,-633.91,0,5.2324e+07,-38.777,11578,12634,1,12634,1,0.00024482,-4.5119e-10,0,0.0003903,4.9601e-05,9.3686e+07,-149.55,0,1.5193e+08,19.691,12633,611.88,0,611.88,0,0.0002944,9.2391e-10,0,0.00014689,5.5184e-05,1.1572e+08,307.84,0,5.7523e+07,41.312,611.88,1
2111,1.8,12107,1,12107,1,6.5278e-06,1.804e-09,0,0.00025659,-1.178e-06,-7.6777e+05,600.42,0,1.0094e+08,3.9453,12106,13208,1,13208,1,0.00050227,5.7069e-09,0,0.00050227,9.1024e-05,1.8978e+08,1884.7,0,1.9741e+08,262.25,13207,12107,1,12107,1,-9.828e-06,1.5428e-09,0,0.00026585,1.9079e-06,-4.014e+06,503.69,0,1.0797e+08,-0.12912,12106,10985,1,10985,1,-0.00048535,-2.101e-09,0,9.8279e-06,-9.4107e-05,-1.9741e+08,-696.03,0,4.014e+06,-214.35,10984,11579,1,11579,1,-0.00026585,5.2933e-12,0,0.00013647,-4.6105e-05,-1.0813e+08,1.8112,0,5.2623e+07,-52.135,11578,12634,1,12634,1,0.00024622,3.7076e-09,0,0.0003925,4.9873e-05,9.4219e+07,1217.7,0,1.5276e+08,62.873,12633,611.88,0,611.88,0,0.00029604,2.0264e-09,0,0.00014771,5.5492e-05,1.1635e+08,675.2,0,5.7834e+07,87.387,611.88,1
2111,1.81,12107,1,12107,1,6.5856e-06,2.8478e-10,0,0.00025802,-1.1886e-06,-7.721e+05,95.122,0,1.015e+08,-5.8715,12106,13208,1,13208,1,0.00050507,3.4286e-09,0,0.00050507,9.1525e-05,1.9078e+08,1132.3,0,1.9849e+08,89.686,13207,12107,1,12107,1,-9.8617e-06,1.0309e-10,0,0.00026732,1.9148e-06,-4.0279e+06,33.009,0,1.0858e+08,-7.7756,12106,10985,1,10985,1,-0.00048801,-1.7932e-09,0,9.8617e-06,-9.4632e-05,-1.9849e+08,-602.36,0,4.0279e+06,-91.278,10984,11579,1,11579,1,-0.00026732,-6.1398e-10,0,0.00013726,-4.6365e-05,-1.0873e+08,-199.72,0,5.2926e+07,-30.468,11578,12634,1,12634,1,0.0002476,1.1013e-09,0,0.00039472,5.0148e-05,9.4749e+07,367.66,0,1.5361e+08,19.472,12633,611.88,0,611.88,0,0.0002977,1.252e-09,0,0.00014853,5.5801e-05,1.1699e+08,417.85,0,5.8147e+07,33.99,611.88,1
2111,1.82,12107,1,12107,1,6.6439e-06,-1.8526e-09,0,0.00025945,-1.1992e-06,-7.7638e+05,-616.52,0,1.0205e+08,-18.319,12106,13208,1,13208,1,0.00050791,2.087e-09,0,0.00050791,9.2031e-05,1.9178e+08,690.86,0,1.9959e+08,156.48,13207,12107,1,12107,1,-9.8944e-06,-1.5818e-09,0,0.00026877,1.921e-06,-4.0414e+06,-525.74,0,1.0919e+08,-21.737,12106,10985,1,10985,1,-0.00049071,-6.3611e-09,0,9.8944e-06,-9.5163e-05,-1.9959e+08,-2093.9,0,4.0414e+06,-252.34,10984,11579,1,11579,1,-0.00026877,-3.5676e-09,0,0.00013804,-4.6628e-05,-1.0932e+08,-1192.2,0,5.3226e+07,-76.778,11578,12634,1,12634,1,0.000249,1.9238e-11,0,0.00039692,5.0421e-05,9.5285e+07,6.5885,0,1.5445e+08,39.764,12633,611.88,0,611.88,0,0.00029934,2.1361e-09,0,0.00014936,5.611e-05,1.1763e+08,711.81,0,5.846e+07,78.064,611.88,1
2111,1.83,12107,1,12107,1,6.703e-06,9.8172e-10,0,0.00026088,-1.21e-06,-7.8054e+05,326.54,0,1.026e+08,-6.544,12106,13208,1,13208,1,0.00051072,5.1225e-09,0,0.00051072,9.2532e-05,1.9278e+08,1686.1,0,2.0068e+08,123.2,13207,12107,1,12107,1,-9.9265e-06,4.6015e-10,0,0.00027024,1.9276e-06,-4.0547e+06,155.48,0,1.0979e+08,-6.0617,12106,10985,1,10985,1,-0.00049338,-1.254e-09,0,9.9265e-06,-9.569e-05,-2.0068e+08,-425.68,0,4.0547e+06,-119.01,10984,11579,1,11579,1,-0.00027024,-1.7373e-10,0,0.00013882,-4.6888e-05,-1.0992e+08,-57.955,0,5.353e+07,-32.645,11578,12634,1,12634,1,0.00025039,1.9842e-09,0,0.00039914,5.0696e-05,9.5817e+07,659.71,0,1.5529e+08,22.686,12633,611.88,0,611.88,0,0.000301,1.5486e-09,0,0.00015018,5.642e-05,1.1826e+08,516.66,0,5.8773e+07,45.231,611.88,1
2111,1.84,12107,1,12107,1,6.7624e-06,3.4803e-10,0,0.00026232,-1.2208e-06,-7.8481e+05,115.95,0,1.0316e+08,-6.6913,12106,13208,1,13208,1,0.00051355,2.8958e-09,0,0.00051355,9.3037e-05,1.9379e+08,956.1,0,2.0177e+08,53.491,13207,12107,1,12107,1,-9.959e-06,1.3204e-10,0,0.00027171,1.934e-06,-4.0681e+06,43.997,0,1.104e+08,-7.7233,12106,10985,1,10985,1,-0.00049608,-9.9228e-10,0,9.959e-06,-9.622e-05,-2.0177e+08,-326.62,0,4.0681e+06,-80.478,10984,11579,1,11579,1,-0.00027171,-2.7782e-10,0,0.00013961,-4.715e-05,-1.1051e+08,-92.893,0,5.3834e+07,-24.744,11578,12634,1,12634,1,0.00025179,8.5785e-10,0,0.00040136,5.0971e-05,9.6353e+07,284.7,0,1.5614e+08,12.269,12633,611.88,0,611.88,0,0.00030266,8.8879e-10,0,0.00015101,5.6731e-05,1.189e+08,296.7,0,5.9087e+07,24.984,611.88,1
2111,1.85,12107,1,12107,1,6.8223e-06,1.7062e-09,0,0.00026375,-1.2317e-06,-7.8901e+05,567.91,0,1.0371e+08,0.18668,12106,13208,1,13208,1,0.0005164,4.1539e-09,0,0.0005164,9.3544e-05,1.9479e+08,1366.9,0,2.0287e+08,142.55,13207,12107,1,12107,1,-9.9903e-06,1.6971e-09,0,0.00027317,1.9401e-06,-4.081e+06,568.15,0,1.1101e+08,-0.74351,12106,10985,1,10985,1,-0.00049878,-4.7467e-10,0,9.9902e-06,-9.6753e-05,-2.0287e+08,-162.58,0,4.081e+06,-134.87,10984,11579,1,11579,1,-0.00027317,4.4774e-10,0,0.0001404,-4.7413e-05,-1.1111e+08,150.82,0,5.4136e+07,-35.119,11578,12634,1,12634,1,0.0002532,2.8654e-09,0,0.00040357,5.1245e-05,9.6891e+07,961.86,0,1.5698e+08,32.003,12633,611.88,0,611.88,0,0.00030431,1.3437e-09,0,0.00015184,5.7041e-05,1.1954e+08,447.69,0,5.94e+07,53.299,611.88,1
2111,1.86,12107,1,12107,1,6.882e-06,-1.8395e-09,0,0.00026517,-1.2426e-06,-7.9322e+05,-611.88,0,1.0426e+08,-20.352,12106,13208,1,13208,1,0.00051921,2.1611e-09,0,0.00051921,9.4044e-05,1.9579e+08,714.04,0,2.0396e+08,146.83,13207,12107,1,12107,1,-1.0021e-05,-1.5602e-09,0,0.00027461,1.946e-06,-4.0938e+06,-514.99,0,1.1161e+08,-19.176,12106,10985,1,10985,1,-0.00050145,-6.4828e-09,0,1.0021e-05,-9.7279e-05,-2.0396e+08,-2133.9,0,4.0938e+06,-282.65,10984,11579,1,11579,1,-0.00027461,-3.5809e-09,0,0.00014117,-4.7674e-05,-1.1169e+08,-1198.4,0,5.4436e+07,-75.879,11578,12634,1,12634,1,0.00025459,7.5211e-11,0,0.00040577,5.1516e-05,9.7422e+07,25.33,0,1.5782e+08,41.979,12633,611.88,0,611.88,0,0.00030595,2.1652e-09,0,0.00015266,5.7348e-05,1.2017e+08,721.16,0,5.971e+07,80.274,611.88,1
2111,1.87,12107,1,12107,1,6.9423e-06,4.4036e-12,0,0.00026659,-1.2536e-06,-7.9731e+05,1.1624,0,1.0481e+08,-21.271,12106,13208,1,13208,1,0.00052201,7.2899e-09,0,0.00052201,9.4543e-05,1.9678e+08,2399.5,0,2.0504e+08,166.42,13207,12107,1,12107,1,-1.0052e-05,7.9315e-11,0,0.00027607,1.9522e-06,-4.1064e+06,27.072,0,1.1222e+08,-26.799,12106,10985,1,10985,1,-0.00050411,-5.8169e-09,0,1.0052e-05,-9.7803e-05,-2.0504e+08,-1928.1,0,4.1064e+06,-163.47,10984,11579,1,11579,1,-0.00027607,-2.2363e-09,0,0.00014196,-4.7933e-05,-1.1229e+08,-740.44,0,5.4738e+07,-72.817,11578,12634,1,12634,1,0.00025598,1.9348e-09,0,0.00040797,5.1789e-05,9.7952e+07,629.5,0,1.5866e+08,29.992,12633,611.88,0,611.88,0,0.00030759,3.0629e-09,0,0.00015348,5.7656e-05,1.208e+08,1021.5,0,6.002e+07,69.937,611.88,1
2111,1.88,12107,1,12107,1,7.0034e-06,-1.0205e-09,0,0.00026804,-1.2648e-06,-8.0151e+05,-339.75,0,1.0537e+08,-33.602,12106,13208,1,13208,1,0.00052486,2.2517e-09,0,0.00052486,9.5051e-05,1.9778e+08,749.28,0,2.0614e+08,93.009,13207,12107,1,12107,1,-1.0083e-05,-8.1346e-10,0,0.00027754,1.9582e-06,-4.1193e+06,-269.81,0,1.1283e+08,-32.626,12106,10985,1,10985,1,-0.00050681,-4.3172e-09,0,1.0083e-05,-9.8337e-05,-2.0614e+08,-1422.5,0,4.1193e+06,-209,10984,11579,1,11579,1,-0.00027754,-2.2554e-09,0,0.00014275,-4.8197e-05,-1.1288e+08,-752.73,0,5.5043e+07,-80.586,11578,12634,1,12634,1,0.00025739,2.0611e-10,0,0.0004102,5.2065e-05,9.8492e+07,68.253,0,1.5951e+08,14.634,12633,611.88,0,611.88,0,0.00030926,1.5556e-09,0,0.00015431,5.7968e-05,1.2144e+08,518.84,0,6.0335e+07,62.209,611.88,1
2111,1.89,12107,1,12107,1,7.0641e-06,-1.5328e-09,0,0.00026947,-1.2758e-06,-8.0593e+05,-510.27,0,1.0592e+08,-20.105,12106,13208,1,13208,1,0.00052769,1.9146e-09,0,0.00052769,9.5554e-05,1.9878e+08,635.54,0,2.0723e+08,114.98,13207,12107,1,12107,1,-1.0113e-05,-1.2826e-09,0,0.00027899,1.9641e-06,-4.1318e+06,-423.68,0,1.1343e+08,-14.605,12106,10985,1,10985,1,-0.0005095,-5.6844e-09,0,1.0113e-05,-9.8867e-05,-2.0723e+08,-1871.5,0,4.1318e+06,-232.49,10984,11579,1,11579,1,-0.00027899,-3.1177e-09,0,0.00014353,-4.8459e-05,-1.1348e+08,-1044.2,0,5.5345e+07,-69.524,11578,12634,1,12634,1,0.00025879,1.4012e-10,0,0.00041241,5.2338e-05,9.9027e+07,47.427,0,1.6035e+08,34.828,12633,611.88,0,611.88,0,0.00031091,1.8825e-09,0,0.00015513,5.8277e-05,1.2208e+08,627.42,0,6.0647e+07,69.042,611.88,1
2111,1.9,12107,1,12107,1,7.125e-06,-2.1279e-09,0,0.00027088,-1.2869e-06,-8.1015e+05,-708.22,0,1.0647e+08,-16.866,12106,13208,1,13208,1,0.00053049,3.8833e-09,0,0.00053049,9.6053e-05,1.9977e+08,1278.2,0,2.0831e+08,176.74,13207,12107,1,12107,1,-1.0142e-05,-1.8131e-09,0,0.00028043,1.9699e-06,-4.1439e+06,-605.18,0,1.1403e+08,-21.114,12106,10985,1,10985,1,-0.00051216,-7.8865e-09,0,1.0142e-05,-9.9391e-05,-2.0831e+08,-2595.9,0,4.1439e+06,-268.51,10984,11579,1,11579,1,-0.00028043,-4.6263e-09,0,0.00014431,-4.8719e-05,-1.1406e+08,-1538.2,0,5.5644e+07,-77.148,11578,12634,1,12634,1,0.00026017,2.1955e-10,0,0.0004146,5.2608e-05,9.9557e+07,74.969,0,1.6118e+08,50.11,12633,611.88,0,611.88,0,0.00031254,2.8294e-09,0,0.00015595,5.8582e-05,1.227e+08,942.97,0,6.0954e+07,87.722,611.88,1
2111,1.91,12107,1,12107,1,7.1873e-06,3.5059e-10,0,0.00027234,-1.2982e-06,-8.1446e+05,116.33,0,1.0703e+08,-5.6925,12106,13208,1,13208,1,0.00053334,1.3521e-09,0,0.00053334,9.6561e-05,2.0077e+08,442.36,0,2.0942e+08,72.05,13207,12107,1,12107,1,-1.0173e-05,3.3422e-10,0,0.00028193,1.9763e-06,-4.1566e+06,110.28,0,1.1465e+08,-4.1953,12106,10985,1,10985,1,-0.00051487,-1.1482e-09,0,1.0173e-05,-9.9926e-05,-2.0942e+08,-392.39,0,4.1566e+06,-90.294,10984,11579,1,11579,1,-0.00028193,-7.6036e-11,0,0.00014511,-4.8983e-05,-1.1467e+08,-24.766,0,5.5955e+07,-24.281,11578,12634,1,12634,1,0.00026158,8.636e-10,0,0.00041687,5.2888e-05,1.001e+08,287.06,0,1.6204e+08,11.39,12633,611.88,0,611.88,0,0.00031422,5.7633e-10,0,0.00015679,5.8898e-05,1.2335e+08,192,0,6.1272e+07,30.206,611.88,1
2111,1.92,12107,1,12107,1,7.2496e-06,-1.5517e-09,0,0.00027376,-1.3096e-06,-8.1866e+05,-516.21,0,1.0758e+08,-8.4449,12106,13208,1,13208,1,0.00053616,2.5373e-09,0,0.00053616,9.7061e-05,2.0176e+08,835.19,0,2.105e+08,156.35,13207,12107,1,12107,1,-1.0201e-05,-1.3094e-09,0,0.00028336,1.9818e-06,-4.1682e+06,-444.64,0,1.1525e+08,-13.571,12106,10985,1,10985,1,-0.00051753,-5.5235e-09,0,1.0201e-05,-0.00010045,-2.105e+08,-1818.1,0,4.1682e+06,-149.14,10984,11579,1,11579,1,-0.00028336,-3.3181e-09,0,0.00014589,-4.9244e-05,-1.1525e+08,-1113.7,0,5.6255e+07,-48.688,11578,12634,1,12634,1,0.00026298,8.3062e-11,0,0.00041905,5.3157e-05,1.0063e+08,27.408,0,1.6287e+08,23.825,12633,611.88,0,611.88,0,0.00031586,1.9864e-09,0,0.00015761,5.9204e-05,1.2398e+08,662.18,0,6.158e+07,57.213,611.88,1
2111,1.93,12107,1,12107,1,7.3227e-06,-1.4537e-10,0,0.0002752,-1.323e-06,-8.2288e+05,-48.612,0,1.0813e+08,-13.459,12106,13208,1,13208,1,0.00053901,1.1696e-09,0,0.00053901,9.7564e-05,2.0275e+08,399.94,0,2.1159e+08,44.229,13207,12107,1,12107,1,-1.022e-05,-4.1637e-12,0,0.00028483,1.9856e-06,-4.1763e+06,-1.4276,0,1.1585e+08,-9.5023,12106,10985,1,10985,1,-0.00052022,-1.4426e-09,0,1.022e-05,-0.00010099,-2.1159e+08,-474.83,0,4.1762e+06,-145.81,10984,11579,1,11579,1,-0.00028483,-6.3267e-10,0,0.0001467,-4.9509e-05,-1.1585e+08,-210.13,0,5.6566e+07,-26.09,11578,12634,1,12634,1,0.00026439,2.6939e-10,0,0.00042131,5.3432e-05,1.0116e+08,89.365,0,1.6372e+08,3.5211,12633,611.88,0,611.88,0,0.00031752,6.2154e-10,0,0.00015844,5.9517e-05,1.2461e+08,207.39,0,6.1892e+07,27.671,611.88,1
2111,1.94,12107,1,12107,1,7.4002e-06,1.3706e-10,0,0.00027664,-1.3371e-06,-8.2712e+05,45.569,0,1.0869e+08,-6.8967,12106,13208,1,13208,1,0.00054187,8.5687e-10,0,0.00054187,9.8068e-05,2.0373e+08,293.31,0,2.1268e+08,29.33,13207,12107,1,12107,1,-1.0235e-05,1.0914e-10,0,0.00028628,1.9887e-06,-4.1825e+06,36.334,0,1.1644e+08,-2.5576,12106,10985,1,10985,1,-0.0005229,-2.6799e-10,0,1.0235e-05,-0.00010152,-2.1268e+08,-88.218,0,4.1825e+06,-98.506,10984,11579,1,11579,1,-0.00028628,-1.2633e-11,0,0.00014751,-4.9776e-05,-1.1644e+08,-4.0268,0,5.6878e+07,-13.018,11578,12634,1,12634,1,0.00026582,2.4514e-10,0,0.00042356,5.3705e-05,1.017e+08,81.286,0,1.6456e+08,5.4355,12633,611.88,0,611.88,0,0.00031919,2.225e-10,0,0.00015927,5.9829e-05,1.2525e+08,74.23,0,6.2201e+07,18.986,611.88,1
2111,1.95,12107,1,12107,1,7.4778e-06,2.3153e-10,0,0.00027807,-1.3513e-06,-8.3126e+05,76.896,0,1.0923e+08,-7.7272,12106,13208,1,13208,1,0.0005447,3.7957e-09,0,0.0005447,9.8566e-05,2.047e+08,1249.4,0,2.1376e+08,62.308,13207,12107,1,12107,1,-1.0248e-05,8.2665e-11,0,0.00028772,1.9915e-06,-4.1881e+06,27.197,0,1.1702e+08,-6.8305,12106,10985,1,10985,1,-0.00052556,-1.6468e-09,0,1.0248e-05,-0.00010205,-2.1376e+08,-542.02,0,4.1881e+06,-128.57,10984,11579,1,11579,1,-0.00028772,-5.8926e-10,0,0.00014831,-5.0039e-05,-1.1702e+08,-196.78,0,5.7186e+07,-28.338,11578,12634,1,12634,1,0.00026723,8.598e-10,0,0.00042578,5.3974e-05,1.0222e+08,286.65,0,1.6539e+08,17.432,12633,611.88,0,611.88,0,0.00032083,1.1704e-09,0,0.0001601,6.0137e-05,1.2587e+08,389.54,0,6.2506e+07,33.715,611.88,1
2111,1.96,12107,1,12107,1,7.5561e-06,1.164e-09,0,0.00027951,-1.3656e-06,-8.3551e+05,386.99,0,1.0978e+08,-0.42082,12106,13208,1,13208,1,0.00054758,2.8202e-09,0,0.00054758,9.9072e-05,2.0568e+08,925.54,0,2.1486e+08,90.465,13207,12107,1,12107,1,-1.0262e-05,1.1531e-09,0,0.00028917,1.9943e-06,-4.194e+06,384.52,0,1.1762e+08,-0.8822,12106,10985,1,10985,1,-0.00052826,-3.4023e-10,0,1.0261e-05,-0.00010259,-2.1486e+08,-116.53,0,4.194e+06,-117.13,10984,11579,1,11579,1,-0.00028917,4.9754e-10,0,0.00014911,-5.0307e-05,-1.1762e+08,163.8,0,5.7497e+07,-18.576,11578,12634,1,12634,1,0.00026866,1.8309e-09,0,0.00042802,5.4247e-05,1.0276e+08,610.27,0,1.6623e+08,19.129,12633,611.88,0,611.88,0,0.0003225,8.3057e-10,0,0.00016093,6.0449e-05,1.265e+08,276.16,0,6.2816e+07,34.223,611.88,1
2111,1.97,12107,1,12107,1,7.6352e-06,5.5936e-12,0,0.00028095,-1.3801e-06,-8.3971e+05,2.0441,0,1.1033e+08,-5.06,12106,13208,1,13208,1,0.00055042,5.0128e-10,0,0.00055042,9.9571e-05,2.0665e+08,170.01,0,2.1595e+08,21.724,13207,12107,1,12107,1,-1.0274e-05,1.48e-11,0,0.00029062,1.9969e-06,-4.1994e+06,4.8501,0,1.1821e+08,-1.6345,12106,10985,1,10985,1,-0.00053092,-6.4449e-10,0,1.0274e-05,-0.00010312,-2.1595e+08,-220.61,0,4.1994e+06,-90.537,10984,11579,1,11579,1,-0.00029062,-1.3742e-10,0,0.00014992,-5.0572e-05,-1.1821e+08,-45.035,0,5.7809e+07,-10.274,11578,12634,1,12634,1,0.00027007,2.0501e-10,0,0.00043027,5.4519e-05,1.0329e+08,68.198,0,1.6707e+08,3.5929,12633,611.88,0,611.88,0,0.00032416,2.5056e-10,0,0.00016176,6.0759e-05,1.2713e+08,83.441,0,6.3123e+07,15.473,611.88,1
2111,1.98,12107,1,12107,1,7.715e-06,-5.4449e-10,0,0.00028239,-1.3947e-06,-8.4387e+05,-181,0,1.1088e+08,-10.438,12106,13208,1,13208,1,0.00055328,1.7981e-10,0,0.00055328,0.00010007,2.0763e+08,61.587,0,2.1704e+08,23.477,13207,12107,1,12107,1,-1.0286e-05,-4.9158e-10,0,0.00029207,1.9995e-06,-4.2046e+06,-162.89,0,1.1879e+08,-8.1733,12106,10985,1,10985,1,-0.0005336,-1.4417e-09,0,1.0286e-05,-0.00010366,-2.1704e+08,-474.52,0,4.2045e+06,-84.633,10984,11579,1,11579,1,-0.00029207,-9.0808e-10,0,0.00015073,-5.0839e-05,-1.1879e+08,-304.24,0,5.8121e+07,-20.561,11578,12634,1,12634,1,0.0002715,-1.4715e-10,0,0.00043251,5.479e-05,1.0382e+08,-48.91,0,1.6791e+08,2.5627,12633,611.88,0,611.88,0,0.00032582,4.4732e-10,0,0.00016259,6.107e-05,1.2776e+08,148.85,0,6.343e+07,17.793,611.88,1
2111,1.99,12107,1,12107,1,7.7948e-06,-7.7059e-10,0,0.00028381,-1.4093e-06,-8.4812e+05,-256.29,0,1.1142e+08,-9.799,12106,13208,1,13208,1,0.00055613,2.0078e-09,0,0.00055613,0.00010057,2.086e+08,662.82,0,2.1812e+08,66.429,13207,12107,1,12107,1,-1.0297e-05,-6.1372e-10,0,0.0002935,2.0018e-06,-4.2094e+06,-204.76,0,1.1938e+08,-10.762,12106,10985,1,10985,1,-0.00053626,-3.3036e-09,0,1.0297e-05,-0.00010419,-2.1812e+08,-1087.3,0,4.2094e+06,-111.88,10984,11579,1,11579,1,-0.0002935,-1.7989e-09,0,0.00015153,-5.1104e-05,-1.1938e+08,-600.16,0,5.843e+07,-32.19,11578,12634,1,12634,1,0.00027291,1.157e-10,0,0.00043473,5.5059e-05,1.0435e+08,37.312,0,1.6874e+08,15.68,12633,611.88,0,611.88,0,0.00032746,1.2021e-09,0,0.00016341,6.1379e-05,1.2838e+08,400.24,0,6.3735e+07,36.006,611.88,1
2111,2,12107,1,12107,1,7.8755e-06,-6.8345e-10,0,0.00028525,-1.424e-06,-8.523e+05,-227.39,0,1.1197e+08,-11.19,12106,13208,1,13208,1,0.00055899,1.1677e-09,0,0.00055899,0.00010108,2.0957e+08,392.21,0,2.1921e+08,52.064,13207,12107,1,12107,1,-1.0308e-05,-5.495e-10,0,0.00029495,2.0041e-06,-4.2143e+06,-182.39,0,1.1997e+08,-10.924,12106,10985,1,10985,1,-0.00053894,-2.7121e-09,0,1.0308e-05,-0.00010473,-2.1921e+08,-892.62,0,4.2143e+06,-104.9,10984,11579,1,11579,1,-0.00029495,-1.4577e-09,0,0.00015234,-5.1371e-05,-1.1997e+08,-487.62,0,5.8742e+07,-29.13,11578,12634,1,12634,1,0.00027434,5.963e-11,0,0.00043698,5.5331e-05,1.0488e+08,19.865,0,1.6958e+08,10.249,12633,611.88,0,611.88,0,0.00032913,9.191e-10,0,0.00016425,6.169e-05,1.2901e+08,306.22,0,6.4042e+07,28.57,611.88,1
2111,2.01,12107,1,12107,1,7.9571e-06,-5.8699e-10,0,0.00028669,-1.439e-06,-8.5647e+05,-195.33,0,1.1251e+08,-12.087,12106,13208,1,13208,1,0.00056184,1.1757e-09,0,0.00056184,0.00010158,2.1053e+08,395.21,0,2.2029e+08,42.32,13207,12107,1,12107,1,-1.0318e-05,-4.3516e-10,0,0.00029639,2.0063e-06,-4.2186e+06,-144.37,0,1.2055e+08,-11.953,12106,10985,1,10985,1,-0.00054161,-2.455e-09,0,1.0318e-05,-0.00010526,-2.2029e+08,-807.99,0,4.2186e+06,-115.02,10984,11579,1,11579,1,-0.00029639,-1.3267e-09,0,0.00015315,-5.1637e-05,-1.2055e+08,-440.29,0,5.9054e+07,-27.397,11578,12634,1,12634,1,0.00027576,7.831e-11,0,0.00043922,5.5601e-05,1.0541e+08,26.102,0,1.7042e+08,5.2953,12633,611.88,0,611.88,0,0.00033078,8.7041e-10,0,0.00016507,6.2e-05,1.2964e+08,290.05,0,6.4348e+07,24.258,611.88,1
2111,2.02,12107,1,12107,1,8.039e-06,-1.311e-09,0,0.00028813,-1.4539e-06,-8.6071e+05,-435.87,0,1.1306e+08,-10.548,12106,13208,1,13208,1,0.00056471,7.933e-10,0,0.00056471,0.00010208,2.1151e+08,271.67,0,2.2138e+08,71.419,13207,12107,1,12107,1,-1.0328e-05,-1.1051e-09,0,0.00029783,2.0083e-06,-4.2229e+06,-364.23,0,1.2114e+08,-8.7202,12106,10985,1,10985,1,-0.00054429,-4.332e-09,0,1.0328e-05,-0.0001058,-2.2138e+08,-1425.7,0,4.2228e+06,-132.57,10984,11579,1,11579,1,-0.00029783,-2.4759e-09,0,0.00015396,-5.1904e-05,-1.2114e+08,-827.51,0,5.9365e+07,-31.879,11578,12634,1,12634,1,0.00027719,-5.4705e-11,0,0.00044146,5.5872e-05,1.0595e+08,-17.862,0,1.7126e+08,15.43,12633,611.88,0,611.88,0,0.00033244,1.3636e-09,0,0.0001659,6.2311e-05,1.3026e+08,453.9,0,6.4654e+07,35.302,611.88,1
2111,2.03,12107,1,12107,1,8.1218e-06,-1.5039e-10,0,0.00028957,-1.4691e-06,-8.6497e+05,-50.269,0,1.1361e+08,-6.454,12106,13208,1,13208,1,0.00056756,1.3795e-10,0,0.00056756,0.00010258,2.1247e+08,44.115,0,2.2247e+08,34.933,13207,12107,1,12107,1,-1.0337e-05,-1.249e-10,0,0.00029928,2.0103e-06,-4.2269e+06,-41.864,0,1.2173e+08,-3.1628,12106,10985,1,10985,1,-0.00054696,-7.6768e-10,0,1.0337e-05,-0.00010633,-2.2247e+08,-250.19,0,4.2268e+06,-96.126,10984,11579,1,11579,1,-0.00029928,-2.1528e-10,0,0.00015478,-5.217e-05,-1.2173e+08,-72.133,0,5.968e+07,-9.7008,11578,12634,1,12634,1,0.00027861,-3.4043e-11,0,0.00044372,5.6144e-05,1.0648e+08,-11.395,0,1.721e+08,1.1193,12633,611.88,0,611.88,0,0.0003341,1.6033e-10,0,0.00016674,6.2623e-05,1.3089e+08,53.155,0,6.4962e+07,14.499,611.88,1
2111,2.04,12107,1,12107,1,8.2056e-06,-7.5423e-10,0,0.000291,-1.4844e-06,-8.6898e+05,-250.89,0,1.1415e+08,-16.18,12106,13208,1,13208,1,0.00057042,2.5804e-09,0,0.00057042,0.00010308,2.1344e+08,849.29,0,2.2355e+08,102.91,13207,12107,1,12107,1,-1.0344e-05,-3.7791e-10,0,0.00030071,2.0119e-06,-4.2302e+06,-129.09,0,1.2231e+08,-19.415,12106,10985,1,10985,1,-0.00054963,-4.3991e-09,0,1.0344e-05,-0.00010687,-2.2355e+08,-1447.8,0,4.2302e+06,-141.29,10984,11579,1,11579,1,-0.00030071,-2.0986e-09,0,0.00015558,-5.2437e-05,-1.2231e+08,-699.29,0,5.9991e+07,-52.998,11578,12634,1,12634,1,0.00028004,3.8467e-10,0,0.00044595,5.6413e-05,1.0701e+08,127.34,0,1.7293e+08,19.357,12633,611.88,0,611.88,0,0.00033575,1.6338e-09,0,0.00016756,6.2932e-05,1.3151e+08,543.65,0,6.5265e+07,47.735,611.88,1
2111,2.05,12107,1,12107,1,8.2892e-06,1.639e-09,0,0.00029244,-1.4997e-06,-8.7329e+05,544.07,0,1.147e+08,0.3228,12106,13208,1,13208,1,0.00057329,4.3372e-09,0,0.00057329,0.00010358,2.1441e+08,1418.9,0,2.2465e+08,159.32,13207,12107,1,12107,1,-1.0352e-05,1.5322e-09,0,0.00030216,2.0136e-06,-4.2338e+06,505.39,0,1.229e+08,0.38192,12106,10985,1,10985,1,-0.00055231,-8.2859e-10,0,1.0352e-05,-0.0001074,-2.2465e+08,-283.8,0,4.2337e+06,-253.71,10984,11579,1,11579,1,-0.00030216,2.7498e-10,0,0.00015639,-5.2705e-05,-1.229e+08,88.57,0,6.0304e+07,-33.874,11578,12634,1,12634,1,0.00028147,2.9079e-09,0,0.0004482,5.6683e-05,1.0754e+08,969.56,0,1.7376e+08,36.43,12633,611.88,0,611.88,0,0.00033741,1.4395e-09,0,0.00016839,6.3243e-05,1.3214e+08,477.63,0,6.5572e+07,55.301,611.88,1
2111,2.06,12107,1,12107,1,8.3739e-06,-7.682e-10,0,0.00029388,-1.5152e-06,-8.7752e+05,-254.68,0,1.1525e+08,-11.374,12106,13208,1,13208,1,0.00057614,3.2756e-10,0,0.00057614,0.00010408,2.1537e+08,112.19,0,2.2573e+08,37.712,13207,12107,1,12107,1,-1.0359e-05,-7.1447e-10,0,0.0003036,2.0153e-06,-4.237e+06,-234.06,0,1.2349e+08,-4.8449,12106,10985,1,10985,1,-0.00055497,-2.0288e-09,0,1.0359e-05,-0.00010794,-2.2573e+08,-663.74,0,4.237e+06,-96.51,10984,11579,1,11579,1,-0.0003036,-1.2513e-09,0,0.00015721,-5.2971e-05,-1.2349e+08,-416.03,0,6.0618e+07,-28.744,11578,12634,1,12634,1,0.00028289,-2.6709e-10,0,0.00045045,5.6955e-05,1.0807e+08,-89.534,0,1.746e+08,9.0808,12633,611.88,0,611.88,0,0.00033908,6.2537e-10,0,0.00016923,6.3554e-05,1.3277e+08,207.27,0,6.5878e+07,27.261,611.88,1
2111,2.07,12107,1,12107,1,8.4592e-06,-1.175e-09,0,0.00029531,-1.5308e-06,-8.8166e+05,-390.51,0,1.1579e+08,-7.4344,12106,13208,1,13208,1,0.000579,1.8069e-09,0,0.000579,0.00010458,2.1633e+08,598.82,0,2.2681e+08,126.5,13207,12107,1,12107,1,-1.0365e-05,-9.3649e-10,0,0.00030503,2.0166e-06,-4.2399e+06,-303.64,0,1.2407e+08,-4.3572,12106,10985,1,10985,1,-0.00055764,-4.6957e-09,0,1.0365e-05,-0.00010847,-2.2681e+08,-1545.3,0,4.2399e+06,-165.39,10984,11579,1,11579,1,-0.00030503,-2.5559e-09,0,0.00015802,-5.3238e-05,-1.2407e+08,-845.76,0,6.093e+07,-38.442,11578,12634,1,12634,1,0.00028432,2.0504e-10,0,0.00045268,5.7223e-05,1.086e+08,65.87,0,1.7543e+08,23.762,12633,611.88,0,611.88,0,0.00034072,1.6032e-09,0,0.00017005,6.3863e-05,1.3339e+08,533.24,0,6.6181e+07,46.595,611.88,1
2111,2.08,12107,1,12107,1,8.5444e-06,-4.1323e-10,0,0.00029673,-1.5464e-06,-8.8585e+05,-137.86,0,1.1633e+08,-14.326,12106,13208,1,13208,1,0.00058184,4.8022e-09,0,0.00058184,0.00010508,2.1728e+08,1581.1,0,2.2789e+08,123.96,13207,12107,1,12107,1,-1.0371e-05,-3.1355e-10,0,0.00030646,2.0179e-06,-4.2425e+06,-104.58,0,1.2465e+08,-15.934,12106,10985,1,10985,1,-0.00056028,-3.8853e-09,0,1.0371e-05,-0.000109,-2.2789e+08,-1278.6,0,4.2425e+06,-176,10984,11579,1,11579,1,-0.00030646,-1.904e-09,0,0.00015882,-5.3503e-05,-1.2465e+08,-639.79,0,6.1241e+07,-51.638,11578,12634,1,12634,1,0.00028573,5.5382e-10,0,0.00045492,5.7491e-05,1.0913e+08,183.27,0,1.7626e+08,25.165,12633,611.88,0,611.88,0,0.00034237,1.8404e-09,0,0.00017087,6.4171e-05,1.3401e+08,612.75,0,6.6483e+07,52.697,611.88,1
2111,2.09,12107,1,12107,1,8.631e-06,-8.6393e-10,0,0.00029818,-1.5623e-06,-8.9005e+05,-287.25,0,1.1688e+08,-14.894,12106,13208,1,13208,1,0.00058472,1.9181e-09,0,0.00058472,0.00010558,2.1824e+08,638.15,0,2.2898e+08,75.535,13207,12107,1,12107,1,-1.0377e-05,-6.8629e-10,0,0.00030791,2.0192e-06,-4.2452e+06,-225.9,0,1.2524e+08,-14.801,12106,10985,1,10985,1,-0.00056296,-3.6132e-09,0,1.0377e-05,-0.00010954,-2.2898e+08,-1189.1,0,4.2451e+06,-131.34,10984,11579,1,11579,1,-0.00030791,-1.9389e-09,0,0.00015964,-5.3772e-05,-1.2524e+08,-643.53,0,6.1557e+07,-39.652,11578,12634,1,12634,1,0.00028717,8.7173e-11,0,0.00045718,5.7763e-05,1.0966e+08,27.798,0,1.771e+08,13.839,12633,611.88,0,611.88,0,0.00034404,1.2695e-09,0,0.00017171,6.4484e-05,1.3464e+08,422.9,0,6.679e+07,38.838,611.88,1
2111,2.1,12107,1,12107,1,8.7185e-06,1.0585e-09,0,0.00029962,-1.5782e-06,-8.9437e+05,351.33,0,1.1743e+08,1.5287,12106,13208,1,13208,1,0.00058759,2.9512e-09,0,0.00058759,0.00010608,2.1921e+08,965.5,0,2.3007e+08,112.45,13207,12107,1,12107,1,-1.0381e-05,9.7437e-10,0,0.00030936,2.0203e-06,-4.2473e+06,326.12,0,1.2583e+08,0.78409,12106,10985,1,10985,1,-0.00056565,-4.8916e-10,0,1.0381e-05,-0.00011008,-2.3007e+08,-167.54,0,4.2472e+06,-123.17,10984,11579,1,11579,1,-0.00030936,3.6496e-10,0,0.00016046,-5.404e-05,-1.2583e+08,118.09,0,6.1873e+07,-18.803,11578,12634,1,12634,1,0.00028861,1.7971e-09,0,0.00045944,5.8034e-05,1.102e+08,598.48,0,1.7794e+08,22.967,12633,611.88,0,611.88,0,0.00034571,8.8897e-10,0,0.00017255,6.4796e-05,1.3527e+08,294.83,0,6.7096e+07,35.586,611.88,1
2111,2.11,12107,1,12107,1,8.8111e-06,-9.1007e-10,0,0.00030106,-1.5952e-06,-8.9845e+05,-302.22,0,1.1797e+08,-10.542,12106,13208,1,13208,1,0.00059046,4.6375e-10,0,0.00059046,0.00010658,2.2016e+08,158.84,0,2.3115e+08,55.475,13207,12107,1,12107,1,-1.038e-05,-8.3857e-10,0,0.00031079,2.0204e-06,-4.2472e+06,-279.47,0,1.2641e+08,-10.807,12106,10985,1,10985,1,-0.0005683,-2.4804e-09,0,1.038e-05,-0.00011062,-2.3115e+08,-816.26,0,4.2472e+06,-82.433,10984,11579,1,11579,1,-0.00031079,-1.553e-09,0,0.00016128,-5.4308e-05,-1.2641e+08,-520.11,0,6.2188e+07,-25.776,11578,12634,1,12634,1,0.00029004,-2.1332e-10,0,0.00046169,5.8302e-05,1.1073e+08,-70.001,0,1.7878e+08,8.2406,12633,611.88,0,611.88,0,0.00034736,7.7182e-10,0,0.00017337,6.5106e-05,1.3589e+08,256.68,0,6.7398e+07,25.183,611.88,1
2111,2.12,12107,1,12107,1,8.9142e-06,-1.3741e-09,0,0.0003025,-1.6141e-06,-9.0264e+05,-457.15,0,1.1851e+08,-10.84,12106,13208,1,13208,1,0.00059335,6.3416e-10,0,0.00059335,0.00010708,2.211e+08,217.2,0,2.3223e+08,84.77,13207,12107,1,12107,1,-1.0369e-05,-1.2433e-09,0,0.00031221,2.0184e-06,-4.2432e+06,-413.86,0,1.2699e+08,-5.8482,12106,10985,1,10985,1,-0.00057097,-3.9525e-09,0,1.0369e-05,-0.00011116,-2.3223e+08,-1300.2,0,4.2432e+06,-136.77,10984,11579,1,11579,1,-0.00031221,-2.353e-09,0,0.00016211,-5.458e-05,-1.2699e+08,-789.62,0,6.2506e+07,-43.099,11578,12634,1,12634,1,0.00029149,-2.7281e-10,0,0.00046396,5.857e-05,1.1125e+08,-90.759,0,1.7961e+08,24.34,12633,611.88,0,611.88,0,0.00034902,1.2289e-09,0,0.00017421,6.5418e-05,1.365e+08,409.32,0,6.77e+07,44.686,611.88,1
2111,2.13,12107,1,12107,1,9.0182e-06,-1.3935e-09,0,0.00030391,-1.6332e-06,-9.0665e+05,-463.99,0,1.1904e+08,-13.9,12106,13208,1,13208,1,0.00059621,7.3972e-09,0,0.00059621,0.00010758,2.2203e+08,2436.9,0,2.333e+08,231.19,13207,12107,1,12107,1,-1.0355e-05,-1.3018e-09,0,0.00031361,2.0159e-06,-4.2381e+06,-430.09,0,1.2756e+08,-14.026,12106,10985,1,10985,1,-0.0005736,-7.585e-09,0,1.0355e-05,-0.00011169,-2.333e+08,-2500.9,0,4.2381e+06,-335.27,10984,11579,1,11579,1,-0.00031361,-4.4171e-09,0,0.00016293,-5.4849e-05,-1.2756e+08,-1451.2,0,6.282e+07,-74.089,11578,12634,1,12634,1,0.00029293,8.5545e-10,0,0.00046619,5.8833e-05,1.1177e+08,284.51,0,1.8042e+08,51.646,12633,611.88,0,611.88,0,0.00035066,3.4115e-09,0,0.00017503,6.5724e-05,1.3711e+08,1136.4,0,6.7995e+07,98.495,611.88,1
2111,2.14,12107,1,12107,1,9.1231e-06,-2.2742e-09,0,0.00030537,-1.6524e-06,-9.108e+05,-756.74,0,1.1958e+08,-19.792,12106,13208,1,13208,1,0.00059912,2.1177e-09,0,0.00059912,0.00010808,2.2298e+08,717.82,0,2.3439e+08,182.31,13207,12107,1,12107,1,-1.0343e-05,-1.9228e-09,0,0.00031505,2.0137e-06,-4.2335e+06,-634.48,0,1.2814e+08,-15.612,12106,10985,1,10985,1,-0.00057628,-7.9387e-09,0,1.0343e-05,-0.00011224,-2.3439e+08,-2623.4,0,4.2335e+06,-242.89,10984,11579,1,11579,1,-0.00031505,-4.5618e-09,0,0.00016377,-5.5122e-05,-1.2814e+08,-1524.2,0,6.3141e+07,-78.081,11578,12634,1,12634,1,0.00029439,1.7175e-10,0,0.00046848,5.9102e-05,1.123e+08,56.915,0,1.8126e+08,41.855,12633,611.88,0,611.88,0,0.00035233,2.6302e-09,0,0.00017587,6.6038e-05,1.3773e+08,877.26,0,6.8299e+07,78.324,611.88,1
2111,2.15,12107,1,12107,1,9.2295e-06,-1.512e-09,0,0.00030681,-1.6719e-06,-9.1507e+05,-503.76,0,1.2012e+08,-18.093,12106,13208,1,13208,1,0.00060201,3.762e-09,0,0.00060201,0.00010858,2.2392e+08,1245.9,0,2.3547e+08,170.19,13207,12107,1,12107,1,-1.0328e-05,-1.2568e-09,0,0.00031647,2.0112e-06,-4.228e+06,-414.88,0,1.2872e+08,-23.002,12106,10985,1,10985,1,-0.00057893,-6.5005e-09,0,1.0328e-05,-0.00011278,-2.3547e+08,-2149.5,0,4.228e+06,-196.89,10984,11579,1,11579,1,-0.00031647,-3.6202e-09,0,0.00016461,-5.5393e-05,-1.2872e+08,-1207.4,0,6.3462e+07,-74.179,11578,12634,1,12634,1,0.00029584,3.4127e-10,0,0.00047076,5.9369e-05,1.1282e+08,113.01,0,1.8209e+08,39.731,12633,611.88,0,611.88,0,0.000354,2.4215e-09,0,0.0001767,6.6349e-05,1.3835e+08,807.57,0,6.8599e+07,78.305,611.88,1
2111,2.16,12107,1,12107,1,9.337e-06,-1.1213e-09,0,0.00030826,-1.6916e-06,-9.193e+05,-373.35,0,1.2066e+08,-17.578,12106,13208,1,13208,1,0.00060491,1.1677e-09,0,0.00060491,0.00010908,2.2486e+08,399.89,0,2.3656e+08,102.23,13207,12107,1,12107,1,-1.0313e-05,-1.0133e-09,0,0.00031791,2.0086e-06,-4.2225e+06,-328.39,0,1.293e+08,-14.467,12106,10985,1,10985,1,-0.00058159,-3.6869e-09,0,1.0313e-05,-0.00011332,-2.3656e+08,-1213.3,0,4.2225e+06,-163.69,10984,11579,1,11579,1,-0.00031791,-2.106e-09,0,0.00016546,-5.5666e-05,-1.293e+08,-706.97,0,6.3784e+07,-49.133,11578,12634,1,12634,1,0.0002973,5.3806e-11,0,0.00047305,5.9638e-05,1.1335e+08,18.371,0,1.8292e+08,18.037,12633,611.88,0,611.88,0,0.00035567,1.2716e-09,0,0.00017754,6.6663e-05,1.3897e+08,423.99,0,6.8902e+07,46.122,611.88,1
2111,2.17,12107,1,12107,1,9.4455e-06,-1.3693e-09,0,0.0003097,-1.7115e-06,-9.2349e+05,-455.59,0,1.212e+08,-9.8157,12106,13208,1,13208,1,0.0006078,5.8601e-10,0,0.0006078,0.00010957,2.2579e+08,200.71,0,2.3764e+08,83.652,13207,12107,1,12107,1,-1.0297e-05,-1.2738e-09,0,0.00031933,2.0058e-06,-4.2163e+06,-421.17,0,1.2988e+08,-6.0844,12106,10985,1,10985,1,-0.00058425,-3.7757e-09,0,1.0297e-05,-0.00011386,-2.3764e+08,-1242.5,0,4.2163e+06,-123.8,10984,11579,1,11579,1,-0.00031933,-2.3108e-09,0,0.00016629,-5.5938e-05,-1.2988e+08,-773.58,0,6.4105e+07,-37.091,11578,12634,1,12634,1,0.00029875,-2.5815e-10,0,0.00047533,5.9905e-05,1.1387e+08,-84.568,0,1.8375e+08,20.694,12633,611.88,0,611.88,0,0.00035734,1.1979e-09,0,0.00017838,6.6975e-05,1.3959e+08,399.5,0,6.9202e+07,40.048,611.88,1
2111,2.18,12107,1,12107,1,9.5545e-06,9.7465e-10,0,0.00031114,-1.7314e-06,-9.2772e+05,323.2,0,1.2174e+08,0.47176,12106,13208,1,13208,1,0.00061069,2.706e-09,0,0.00061069,0.00011007,2.2673e+08,885.26,0,2.3872e+08,93.662,13207,12107,1,12107,1,-1.028e-05,9.7689e-10,0,0.00032076,2.0028e-06,-4.2098e+06,322.85,0,1.3046e+08,-1.8791,12106,10985,1,10985,1,-0.0005869,-6.4911e-10,0,1.0279e-05,-0.0001144,-2.3872e+08,-222.26,0,4.2098e+06,-157.29,10984,11579,1,11579,1,-0.00032076,1.4582e-10,0,0.00016714,-5.621e-05,-1.3046e+08,47.419,0,6.4427e+07,-17.106,11578,12634,1,12634,1,0.00030021,1.6977e-09,0,0.00047761,6.0173e-05,1.144e+08,566.22,0,1.8459e+08,19.731,12633,611.88,0,611.88,0,0.000359,8.8451e-10,0,0.00017921,6.7287e-05,1.4021e+08,293.52,0,6.9502e+07,33.811,611.88,1
2111,2.19,12107,1,12107,1,9.6645e-06,-1.2097e-09,0,0.00031257,-1.7516e-06,-9.317e+05,-401.96,0,1.2227e+08,-12.768,12106,13208,1,13208,1,0.00061358,3.4435e-09,0,0.00061358,0.00011057,2.2766e+08,1140.6,0,2.3979e+08,160.94,13207,12107,1,12107,1,-1.0261e-05,-9.0356e-10,0,0.00032216,1.9993e-06,-4.2028e+06,-303.46,0,1.3104e+08,-16.059,12106,10985,1,10985,1,-0.00058954,-5.8482e-09,0,1.0261e-05,-0.00011494,-2.3979e+08,-1924.4,0,4.2027e+06,-202.77,10984,11579,1,11579,1,-0.00032216,-3.0964e-09,0,0.00016797,-5.6482e-05,-1.3104e+08,-1035,0,6.4745e+07,-62.828,11578,12634,1,12634,1,0.00030166,4.1913e-10,0,0.00047987,6.0437e-05,1.1492e+08,138.94,0,1.8541e+08,34.554,12633,611.88,0,611.88,0,0.00036065,2.1898e-09,0,0.00018004,6.7596e-05,1.4082e+08,728.91,0,6.9798e+07,68.185,611.88,1
2111,2.2,12107,1,12107,1,9.7748e-06,-9.4697e-10,0,0.00031401,-1.7719e-06,-9.3588e+05,-315.46,0,1.2281e+08,-23.771,12106,13208,1,13208,1,0.00061647,5.3075e-09,0,0.00061647,0.00011106,2.2859e+08,1760.1,0,2.4087e+08,169.16,13207,12107,1,12107,1,-1.0242e-05,-7.8249e-10,0,0.00032358,1.996e-06,-4.1957e+06,-258.87,0,1.3161e+08,-25.482,12106,10985,1,10985,1,-0.00059219,-5.7478e-09,0,1.0242e-05,-0.00011548,-2.4087e+08,-1896.9,0,4.1957e+06,-214.69,10984,11579,1,11579,1,-0.00032358,-3.0594e-09,0,0.00016881,-5.6754e-05,-1.3161e+08,-1027.7,0,6.5066e+07,-80.092,11578,12634,1,12634,1,0.00030311,6.5758e-10,0,0.00048215,6.0703e-05,1.1544e+08,216.64,0,1.8623e+08,26.726,12633,611.88,0,611.88,0,0.00036231,2.4807e-09,0,0.00018087,6.7907e-05,1.4143e+08,826.67,0,7.0097e+07,78.235,611.88,1
2111,2.21,12107,1,12107,1,9.8865e-06,-1.3157e-09,0,0.00031545,-1.7923e-06,-9.4002e+05,-437.92,0,1.2335e+08,-21.516,12106,13208,1,13208,1,0.00061938,6.2747e-09,0,0.00061938,0.00011156,2.2952e+08,2078.3,0,2.4195e+08,213.26,13207,12107,1,12107,1,-1.0223e-05,-1.1889e-09,0,0.000325,1.9923e-06,-4.1882e+06,-391.62,0,1.3219e+08,-25.762,12106,10985,1,10985,1,-0.00059485,-6.8995e-09,0,1.0222e-05,-0.00011603,-2.4195e+08,-2278.7,0,4.1882e+06,-275.6,10984,11579,1,11579,1,-0.000325,-3.8045e-09,0,0.00016965,-5.7027e-05,-1.3219e+08,-1259.4,0,6.5388e+07,-96.767,11578,12634,1,12634,1,0.00030457,5.9987e-10,0,0.00048443,6.0969e-05,1.1597e+08,197.31,0,1.8706e+08,50.978,12633,611.88,0,611.88,0,0.00036398,2.9687e-09,0,0.00018171,6.8219e-05,1.4204e+08,989.17,0,7.0396e+07,104.96,611.88,1
2111,2.22,12107,1,12107,1,9.9994e-06,-9.7704e-10,0,0.0003169,-1.813e-06,-9.4421e+05,-325.34,0,1.2389e+08,-16.763,12106,13208,1,13208,1,0.00062228,1.9913e-09,0,0.00062228,0.00011206,2.3045e+08,679.24,0,2.4303e+08,98.569,13207,12107,1,12107,1,-1.0202e-05,-8.4704e-10,0,0.00032643,1.9888e-06,-4.1804e+06,-275.33,0,1.3277e+08,-18.027,12106,10985,1,10985,1,-0.0005975,-3.8722e-09,0,1.0202e-05,-0.00011657,-2.4303e+08,-1280.7,0,4.1804e+06,-135,10984,11579,1,11579,1,-0.00032643,-2.1961e-09,0,0.0001705,-5.73e-05,-1.3277e+08,-724.47,0,6.5712e+07,-51.778,11578,12634,1,12634,1,0.00030604,2.1342e-10,0,0.00048672,6.1236e-05,1.1649e+08,70.756,0,1.8789e+08,21.939,12633,611.88,0,611.88,0,0.00036565,1.4098e-09,0,0.00018255,6.8532e-05,1.4266e+08,470.52,0,7.0696e+07,50.848,611.88,1
2111,2.23,12107,1,12107,1,1.0114e-05,-1.4311e-09,0,0.00031835,-1.834e-06,-9.4843e+05,-475.77,0,1.2443e+08,-9.5001,12106,13208,1,13208,1,0.00062519,5.6948e-10,0,0.00062519,0.00011256,2.3138e+08,195.05,0,2.4411e+08,92.384,13207,12107,1,12107,1,-1.018e-05,-1.4467e-09,0,0.00032785,1.985e-06,-4.1721e+06,-483.78,0,1.3335e+08,-3.4814,12106,10985,1,10985,1,-0.00060017,-3.5001e-09,0,1.018e-05,-0.00011711,-2.4411e+08,-1151.6,0,4.1721e+06,-121.08,10984,11579,1,11579,1,-0.00032785,-2.271e-09,0,0.00017134,-5.7575e-05,-1.3335e+08,-751.01,0,6.6036e+07,-32.462,11578,12634,1,12634,1,0.00030751,-6.0875e-10,0,0.00048901,6.1503e-05,1.1702e+08,-199.51,0,1.8872e+08,14.129,12633,611.88,0,611.88,0,0.00036732,1.0524e-09,0,0.00018339,6.8845e-05,1.4328e+08,350.76,0,7.0996e+07,35.467,611.88,1
2111,2.24,12107,1,12107,1,1.0229e-05,-2.0561e-09,0,0.0003198,-1.8551e-06,-9.5252e+05,-683.39,0,1.2496e+08,-14.129,12106,13208,1,13208,1,0.0006281,7.078e-10,0,0.0006281,0.00011306,2.323e+08,242.42,0,2.4519e+08,113.81,13207,12107,1,12107,1,-1.0157e-05,-2.0169e-09,0,0.00032927,1.9807e-06,-4.1633e+06,-672.99,0,1.3392e+08,-8.4822,12106,10985,1,10985,1,-0.00060283,-5.15e-09,0,1.0157e-05,-0.00011766,-2.4519e+08,-1694.5,0,4.1633e+06,-166.71,10984,11579,1,11579,1,-0.00032927,-3.2677e-09,0,0.00017219,-5.7849e-05,-1.3392e+08,-1080.9,0,6.6358e+07,-44.692,11578,12634,1,12634,1,0.00030897,-8.7458e-10,0,0.0004913,6.1769e-05,1.1755e+08,-286.5,0,1.8955e+08,21.259,12633,611.88,0,611.88,0,0.00036899,1.5064e-09,0,0.00018422,6.9157e-05,1.4389e+08,501.9,0,7.1294e+07,48.363,611.88,1
2111,2.25,12107,1,12107,1,1.0344e-05,-2.2727e-09,0,0.00032123,-1.8762e-06,-9.5668e+05,-755.54,0,1.2549e+08,-8.998,12106,13208,1,13208,1,0.00063099,9.9323e-10,0,0.00063099,0.00011355,2.3322e+08,340.19,0,2.4626e+08,155.51,13207,12107,1,12107,1,-1.0133e-05,-2.1013e-09,0,0.00033067,1.9762e-06,-4.1541e+06,-694.89,0,1.3449e+08,2.1491,12106,10985,1,10985,1,-0.00060546,-6.5043e-09,0,1.0133e-05,-0.0001182,-2.4626e+08,-2140.1,0,4.154e+06,-216.39,10984,11579,1,11579,1,-0.00033067,-3.8666e-09,0,0.00017303,-5.8121e-05,-1.3449e+08,-1299.5,0,6.6678e+07,-55.961,11578,12634,1,12634,1,0.00031043,-4.6273e-10,0,0.00049356,6.2032e-05,1.1807e+08,-154.3,0,1.9037e+08,44.459,12633,611.88,0,611.88,0,0.00037064,2.0183e-09,0,0.00018505,6.9466e-05,1.445e+08,672.07,0,7.1589e+07,68.163,611.88,1
2111,2.26,12107,1,12107,1,1.046e-05,-1.5559e-09,0,0.00032266,-1.8974e-06,-9.608e+05,-517.96,0,1.2603e+08,-11.475,12106,13208,1,13208,1,0.00063388,2.7113e-09,0,0.00063388,0.00011405,2.3414e+08,900.29,0,2.4734e+08,126.53,13207,12107,1,12107,1,-1.0109e-05,-1.3523e-09,0,0.00033208,1.9718e-06,-4.1447e+06,-449.17,0,1.3507e+08,-9.5612,12106,10985,1,10985,1,-0.0006081,-5.8599e-09,0,1.0109e-05,-0.00011874,-2.4734e+08,-1939.1,0,4.1447e+06,-194.12,10984,11579,1,11579,1,-0.00033208,-3.4479e-09,0,0.00017387,-5.8393e-05,-1.3507e+08,-1157.9,0,6.7001e+07,-51.891,11578,12634,1,12634,1,0.00031188,3.4871e-10,0,0.00049584,6.2297e-05,1.1859e+08,111.85,0,1.9119e+08,34.415,12633,611.88,0,611.88,0,0.0003723,2.136e-09,0,0.00018588,6.9776e-05,1.4511e+08,711.77,0,7.1885e+07,62.427,611.88,1
2111,2.27,12107,1,12107,1,1.0577e-05,-1.1806e-09,0,0.00032411,-1.9189e-06,-9.6489e+05,-392.99,0,1.2656e+08,-13.764,12106,13208,1,13208,1,0.00063678,2.6686e-09,0,0.00063678,0.00011454,2.3506e+08,893.55,0,2.4841e+08,136.9,13207,12107,1,12107,1,-1.0084e-05,-1.0135e-09,0,0.0003335,1.9673e-06,-4.1351e+06,-334.48,0,1.3565e+08,-10.164,12106,10985,1,10985,1,-0.00061074,-4.8435e-09,0,1.0084e-05,-0.00011928,-2.4841e+08,-1603.3,0,4.1351e+06,-160.35,10984,11579,1,11579,1,-0.0003335,-2.7816e-09,0,0.00017472,-5.8667e-05,-1.3565e+08,-925.91,0,6.7326e+07,-57.511,11578,12634,1,12634,1,0.00031335,2.7812e-10,0,0.00049814,6.2563e-05,1.1911e+08,92.93,0,1.9202e+08,30.473,12633,611.88,0,611.88,0,0.00037396,1.8101e-09,0,0.00018672,7.0089e-05,1.4572e+08,603.4,0,7.2183e+07,58.634,611.88,1
2111,2.28,12107,1,12107,1,1.0695e-05,-2.5508e-09,0,0.00032554,-1.9406e-06,-9.6906e+05,-847.87,0,1.2709e+08,-17.626,12106,13208,1,13208,1,0.00063969,4.7931e-09,0,0.00063969,0.00011504,2.3598e+08,1587.6,0,2.4949e+08,271.66,13207,12107,1,12107,1,-1.0057e-05,-2.2437e-09,0,0.0003349,1.9622e-06,-4.1248e+06,-738.76,0,1.3621e+08,-18.867,12106,10985,1,10985,1,-0.00061339,-9.7775e-09,0,1.0057e-05,-0.00011982,-2.4949e+08,-3225,0,4.1248e+06,-325.77,10984,11579,1,11579,1,-0.0003349,-5.597e-09,0,0.00017556,-5.8941e-05,-1.3621e+08,-1859.4,0,6.7647e+07,-93.147,11578,12634,1,12634,1,0.00031481,4.0635e-10,0,0.0005004,6.2825e-05,1.1963e+08,129.5,0,1.9284e+08,64.857,12633,611.88,0,611.88,0,0.00037562,3.5318e-09,0,0.00018755,7.0398e-05,1.4633e+08,1176.1,0,7.2477e+07,109.05,611.88,1
2111,2.29,12107,1,12107,1,1.0815e-05,6.7279e-10,0,0.000327,-1.9625e-06,-9.7331e+05,221.86,0,1.2763e+08,-13.695,12106,13208,1,13208,1,0.0006426,2.106e-09,0,0.0006426,0.00011554,2.369e+08,710.09,0,2.5057e+08,43.661,13207,12107,1,12107,1,-1.003e-05,5.0532e-10,0,0.00033634,1.9577e-06,-4.1146e+06,165.04,0,1.368e+08,-9.5656,12106,10985,1,10985,1,-0.00061605,-2.4528e-10,0,1.003e-05,-0.00012037,-2.5057e+08,-84.004,0,4.1145e+06,-140.79,10984,11579,1,11579,1,-0.00033634,1.0842e-10,0,0.00017643,-5.9216e-05,-1.368e+08,36.978,0,6.7979e+07,-30.899,11578,12634,1,12634,1,0.00031628,1.211e-09,0,0.00050274,6.3096e-05,1.2016e+08,398.17,0,1.9368e+08,3.3815,12633,611.88,0,611.88,0,0.00037731,6.3685e-10,0,0.0001884,7.0715e-05,1.4695e+08,211.68,0,7.2779e+07,26.186,611.88,1
2111,2.3,12107,1,12107,1,1.0936e-05,-5.3669e-10,0,0.00032845,-1.9848e-06,-9.7743e+05,-178.19,0,1.2817e+08,-8.9136,12106,13208,1,13208,1,0.00064551,1.0795e-09,0,0.00064551,0.00011603,2.3781e+08,369.51,0,2.5165e+08,59.456,13207,12107,1,12107,1,-1.0002e-05,-4.2353e-10,0,0.00033775,1.9524e-06,-4.1035e+06,-138.95,0,1.3737e+08,-9.3623,12106,10985,1,10985,1,-0.00061869,-2.3108e-09,0,1.0002e-05,-0.00012091,-2.5165e+08,-760.25,0,4.1035e+06,-91.205,10984,11579,1,11579,1,-0.00033775,-1.1996e-09,0,0.00017728,-5.9491e-05,-1.3737e+08,-400.61,0,6.8304e+07,-30.695,11578,12634,1,12634,1,0.00031775,1.0261e-10,0,0.00050503,6.336e-05,1.2068e+08,33.791,0,1.9451e+08,14.528,12633,611.88,0,611.88,0,0.00037897,8.0404e-10,0,0.00018924,7.1026e-05,1.4756e+08,267.73,0,7.3074e+07,29.365,611.88,1
2111,2.31,12107,1,12107,1,1.1057e-05,-2.5786e-09,0,0.00032988,-2.0071e-06,-9.8142e+05,-856.33,0,1.287e+08,-19.402,12106,13208,1,13208,1,0.00064843,1.3124e-09,0,0.00064843,0.00011653,2.3873e+08,449.5,0,2.5273e+08,226.01,13207,12107,1,12107,1,-9.9717e-06,-2.2967e-09,0,0.00033914,1.9466e-06,-4.0919e+06,-749.95,0,1.3794e+08,-19.655,12106,10985,1,10985,1,-0.00062135,-7.9496e-09,0,9.9716e-06,-0.00012146,-2.5273e+08,-2616.8,0,4.0919e+06,-313.13,10984,11579,1,11579,1,-0.00033914,-4.5866e-09,0,0.00017813,-5.9767e-05,-1.3794e+08,-1521,0,6.8626e+07,-84.129,11578,12634,1,12634,1,0.00031923,-1.6751e-10,0,0.0005073,6.3622e-05,1.2121e+08,-53.553,0,1.9532e+08,49.693,12633,611.88,0,611.88,0,0.00038063,2.6074e-09,0,0.00019007,7.1336e-05,1.4816e+08,867.74,0,7.3368e+07,97.232,611.88,1
2111,2.32,12107,1,12107,1,1.118e-05,-1.3814e-09,0,0.00033132,-2.0296e-06,-9.8575e+05,-459.42,0,1.2923e+08,-15.492,12106,13208,1,13208,1,0.00065133,9.8885e-10,0,0.00065133,0.00011702,2.3963e+08,338.64,0,2.538e+08,129.43,13207,12107,1,12107,1,-9.9401e-06,-1.1911e-09,0,0.00034056,1.9409e-06,-4.0797e+06,-400.57,0,1.3852e+08,-3.7184,12106,10985,1,10985,1,-0.00062398,-4.4466e-09,0,9.9399e-06,-0.000122,-2.538e+08,-1469.3,0,4.0796e+06,-211.14,10984,11579,1,11579,1,-0.00034056,-2.5079e-09,0,0.00017898,-6.0041e-05,-1.3852e+08,-834.21,0,6.8951e+07,-58.013,11578,12634,1,12634,1,0.00032069,-9.516e-11,0,0.0005096,6.3887e-05,1.2173e+08,-30.386,0,1.9615e+08,32.763,12633,611.88,0,611.88,0,0.00038229,1.4236e-09,0,0.00019091,7.1648e-05,1.4877e+08,474.88,0,7.3664e+07,69.628,611.88,1
2111,2.33,12107,1,12107,1,1.1318e-05,-9.2727e-10,0,0.00033277,-2.0548e-06,-9.897e+05,-308.37,0,1.2976e+08,-14.468,12106,13208,1,13208,1,0.00065425,3.6226e-09,0,0.00065425,0.00011752,2.4053e+08,1238.6,0,2.5486e+08,158.55,13207,12107,1,12107,1,-9.8951e-06,-6.5579e-10,0,0.00034195,1.9326e-06,-4.0622e+06,-213.05,0,1.3908e+08,-20.098,12106,10985,1,10985,1,-0.0006266,-5.0827e-09,0,9.8951e-06,-0.00012255,-2.5486e+08,-1682.8,0,4.0622e+06,-169.55,10984,11579,1,11579,1,-0.00034195,-2.6412e-09,0,0.00017985,-6.0318e-05,-1.3908e+08,-878.13,0,6.9274e+07,-61.567,11578,12634,1,12634,1,0.00032218,4.8021e-10,0,0.00051191,6.4149e-05,1.2224e+08,155.49,0,1.9697e+08,28.683,12633,611.88,0,611.88,0,0.00038396,2.0206e-09,0,0.00019174,7.196e-05,1.4938e+08,672.82,0,7.3957e+07,67.141,611.88,1
2111,2.34,12107,1,12107,1,1.146e-05,-2.0037e-09,0,0.00033422,-2.0809e-06,-9.9403e+05,-665.12,0,1.3029e+08,7.9018,12106,13208,1,13208,1,0.00065722,7.2012e-10,0,0.00065722,0.00011802,2.4144e+08,246.65,0,2.5595e+08,135.05,13207,12107,1,12107,1,-9.8459e-06,-1.6901e-09,0,0.00034335,1.9234e-06,-4.0429e+06,-558.39,0,1.3965e+08,14.443,12106,10985,1,10985,1,-0.00062926,-5.8679e-09,0,9.8457e-06,-0.0001231,-2.5595e+08,-1933.2,0,4.0428e+06,-177.73,10984,11579,1,11579,1,-0.00034335,-3.4162e-09,0,0.00018073,-6.06e-05,-1.3965e+08,-1136.3,0,6.9597e+07,-37.53,11578,12634,1,12634,1,0.00032368,-4.9363e-10,0,0.00051424,6.4412e-05,1.2276e+08,-161.46,0,1.9779e+08,61.34,12633,611.88,0,611.88,0,0.00038564,1.7659e-09,0,0.00019259,7.2275e-05,1.4998e+08,588.1,0,7.4253e+07,66.178,611.88,1
2111,2.35,12107,1,12107,1,1.1606e-05,-1.7426e-09,0,0.00033567,-2.1077e-06,-9.9811e+05,-578.9,0,1.3081e+08,7.2622,12106,13208,1,13208,1,0.00066016,2.105e-09,0,0.00066016,0.00011851,2.4233e+08,699.63,0,2.5701e+08,190.28,13207,12107,1,12107,1,-9.7919e-06,-1.4774e-09,0,0.00034474,1.9134e-06,-4.0217e+06,-486.12,0,1.4022e+08,9.8167,12106,10985,1,10985,1,-0.00063189,-6.046e-09,0,9.7918e-06,-0.00012365,-2.5701e+08,-1994.5,0,4.0217e+06,-174.46,10984,11579,1,11579,1,-0.00034474,-3.4402e-09,0,0.00018161,-6.0879e-05,-1.4022e+08,-1134.6,0,6.992e+07,-48.095,11578,12634,1,12634,1,0.00032518,1.6165e-10,0,0.00051656,6.4673e-05,1.2328e+08,53.963,0,1.9861e+08,62.526,12633,611.88,0,611.88,0,0.00038731,2.1276e-09,0,0.00019343,7.2587e-05,1.5058e+08,708.02,0,7.4544e+07,78.931,611.88,1
2111,2.36,12107,1,12107,1,1.1753e-05,-1.295e-09,0,0.00033711,-2.1346e-06,-1.0021e+06,-430.23,0,1.3134e+08,-4.5004,12106,13208,1,13208,1,0.00066309,2.6124e-09,0,0.00066309,0.000119,2.4321e+08,875.28,0,2.5808e+08,153.01,13207,12107,1,12107,1,-9.7373e-06,-1.1025e-09,0,0.00034613,1.9031e-06,-4.0003e+06,-363.3,0,1.4078e+08,-1.623,12106,10985,1,10985,1,-0.00063451,-5.0671e-09,0,9.737e-06,-0.0001242,-2.5808e+08,-1672.1,0,4.0002e+06,-169.47,10984,11579,1,11579,1,-0.00034613,-2.8012e-09,0,0.00018249,-6.1159e-05,-1.4078e+08,-928.85,0,7.0242e+07,-53.577,11578,12634,1,12634,1,0.00032668,2.969e-10,0,0.00051888,6.4933e-05,1.2379e+08,96.858,0,1.9942e+08,42.979,12633,611.88,0,611.88,0,0.00038897,1.8617e-09,0,0.00019427,7.2899e-05,1.5118e+08,619.7,0,7.4836e+07,69.264,611.88,1
2111,2.37,12107,1,12107,1,1.1901e-05,-5.622e-10,0,0.00033856,-2.1618e-06,-1.0062e+06,-187.07,0,1.3186e+08,-2.7885,12106,13208,1,13208,1,0.00066602,2.0852e-09,0,0.00066602,0.00011949,2.441e+08,699.45,0,2.5914e+08,86.597,13207,12107,1,12107,1,-9.6817e-06,-5.2883e-10,0,0.00034752,1.8928e-06,-3.9785e+06,-171.69,0,1.4135e+08,1.6852,12106,10985,1,10985,1,-0.00063712,-2.448e-09,0,9.6815e-06,-0.00012475,-2.5914e+08,-812.59,0,3.9784e+06,-159.26,10984,11579,1,11579,1,-0.00034752,-1.4179e-09,0,0.00018337,-6.1438e-05,-1.4135e+08,-472.88,0,7.0566e+07,-20.423,11578,12634,1,12634,1,0.00032817,2.1483e-10,0,0.00052121,6.5194e-05,1.243e+08,70.339,0,2.0024e+08,21.796,12633,611.88,0,611.88,0,0.00039064,1.0129e-09,0,0.00019511,7.3212e-05,1.5178e+08,337.54,0,7.5127e+07,40.729,611.88,1
2111,2.38,12107,1,12107,1,1.205e-05,-6.5932e-10,0,0.00034001,-2.1892e-06,-1.0103e+06,-218.84,0,1.3238e+08,-3.7756,12106,13208,1,13208,1,0.00066898,3.7271e-09,0,0.00066898,0.00011998,2.4499e+08,1225.9,0,2.6021e+08,140.2,13207,12107,1,12107,1,-9.625e-06,-4.5083e-10,0,0.00034891,1.8821e-06,-3.9563e+06,-144.65,0,1.4192e+08,-6.4342,12106,10985,1,10985,1,-0.00063976,-4.5472e-09,0,9.6249e-06,-0.0001253,-2.6021e+08,-1495.6,0,3.9562e+06,-133.61,10984,11579,1,11579,1,-0.00034891,-2.2326e-09,0,0.00018425,-6.1719e-05,-1.4192e+08,-734.67,0,7.0889e+07,-52.681,11578,12634,1,12634,1,0.00032967,6.1397e-10,0,0.00052354,6.5455e-05,1.2482e+08,197.62,0,2.0106e+08,41.239,12633,611.88,0,611.88,0,0.00039231,1.8967e-09,0,0.00019595,7.3525e-05,1.5238e+08,630.27,0,7.5419e+07,63.228,611.88,1
2111,2.39,12107,1,12107,1,1.22e-05,-1.5498e-09,0,0.00034145,-2.2168e-06,-1.0144e+06,-513.79,0,1.3291e+08,0.11347,12106,13208,1,13208,1,0.00067193,3.565e-09,0,0.00067193,0.00012048,2.4588e+08,1182.2,0,2.6128e+08,188.71,13207,12107,1,12107,1,-9.5669e-06,-1.3434e-09,0,0.0003503,1.8711e-06,-3.9334e+06,-437.21,0,1.4248e+08,2.6011,12106,10985,1,10985,1,-0.00064239,-6.1376e-09,0,9.5668e-06,-0.00012585,-2.6128e+08,-2020.2,0,3.9334e+06,-195.64,10984,11579,1,11579,1,-0.0003503,-3.5225e-09,0,0.00018514,-6.2e-05,-1.4248e+08,-1167.6,0,7.1212e+07,-59.407,11578,12634,1,12634,1,0.00033118,3.5946e-10,0,0.00052586,6.5714e-05,1.2533e+08,114.13,0,2.0187e+08,54.182,12633,611.88,0,611.88,0,0.00039398,2.3359e-09,0,0.00019679,7.3837e-05,1.5298e+08,776.68,0,7.571e+07,84.76,611.88,1
2111,2.4,12107,1,12107,1,1.2353e-05,-1.477e-09,0,0.00034292,-2.2447e-06,-1.0186e+06,-490.35,0,1.3344e+08,2.3181,12106,13208,1,13208,1,0.00067491,4.5276e-10,0,0.00067491,0.00012097,2.4677e+08,150.71,0,2.6236e+08,100.17,13207,12107,1,12107,1,-9.5074e-06,-1.4997e-09,0,0.0003517,1.8601e-06,-3.9101e+06,-494.73,0,1.4305e+08,4.0819,12106,10985,1,10985,1,-0.00064503,-3.5947e-09,0,9.5071e-06,-0.00012641,-2.6236e+08,-1191.5,0,3.91e+06,-114.52,10984,11579,1,11579,1,-0.0003517,-2.3401e-09,0,0.00018603,-6.2284e-05,-1.4305e+08,-773.58,0,7.1539e+07,-25.093,11578,12634,1,12634,1,0.0003327,-6.2075e-10,0,0.00052822,6.5977e-05,1.2585e+08,-208.41,0,2.027e+08,30.756,12633,611.88,0,611.88,0,0.00039568,1.0718e-09,0,0.00019764,7.4154e-05,1.5359e+08,357.63,0,7.6005e+07,37.296,611.88,1
2111,2.41,12107,1,12107,1,1.2507e-05,-6.595e-10,0,0.00034437,-2.2731e-06,-1.0226e+06,-219.41,0,1.3396e+08,-13.157,12106,13208,1,13208,1,0.00067786,5.2886e-10,0,0.00067786,0.00012146,2.4765e+08,181.14,0,2.6343e+08,96.849,13207,12107,1,12107,1,-9.4455e-06,-6.5345e-10,0,0.00035309,1.8484e-06,-3.8858e+06,-216.1,0,1.4361e+08,-13.374,12106,10985,1,10985,1,-0.00064765,-1.9856e-09,0,9.4452e-06,-0.00012696,-2.6343e+08,-655.67,0,3.8857e+06,-130.62,10984,11579,1,11579,1,-0.00035309,-1.2729e-09,0,0.00018692,-6.2565e-05,-1.4361e+08,-426.8,0,7.1864e+07,-27.836,11578,12634,1,12634,1,0.0003342,-5.3477e-11,0,0.00053056,6.6237e-05,1.2637e+08,-17.533,0,2.0351e+08,0.84142,12633,611.88,0,611.88,0,0.00039735,6.7556e-10,0,0.00019848,7.4467e-05,1.5419e+08,224.65,0,7.6295e+07,32.486,611.88,1
2111,2.42,12107,1,12107,1,1.2662e-05,-3.4267e-10,0,0.00034581,-2.3014e-06,-1.0267e+06,-114.2,0,1.3448e+08,-6.1907,12106,13208,1,13208,1,0.00068079,3.0369e-09,0,0.00068079,0.00012195,2.4852e+08,998.67,0,2.6449e+08,88.507,13207,12107,1,12107,1,-9.3832e-06,-2.4345e-10,0,0.00035446,1.8367e-06,-3.8614e+06,-79.919,0,1.4417e+08,-8.1136,12106,10985,1,10985,1,-0.00065026,-2.8538e-09,0,9.383e-06,-0.00012751,-2.6449e+08,-938.46,0,3.8613e+06,-133.46,10984,11579,1,11579,1,-0.00035446,-1.294e-09,0,0.0001878,-6.2845e-05,-1.4417e+08,-429.09,0,7.2187e+07,-33.999,11578,12634,1,12634,1,0.0003357,3.9886e-10,0,0.00053288,6.6496e-05,1.2688e+08,129.55,0,2.0433e+08,24.571,12633,611.88,0,611.88,0,0.00039901,1.2609e-09,0,0.00019932,7.4778e-05,1.5478e+08,418.57,0,7.6583e+07,41.005,611.88,1
2111,2.43,12107,1,12107,1,1.2817e-05,1.0337e-09,0,0.00034726,-2.3299e-06,-1.0308e+06,341.92,0,1.35e+08,1.0175,12106,13208,1,13208,1,0.00068375,4.1121e-09,0,0.00068375,0.00012245,2.494e+08,1352.2,0,2.6555e+08,68.65,13207,12107,1,12107,1,-9.32e-06,7.4584e-10,0,0.00035585,1.8248e-06,-3.8366e+06,244.2,0,1.4473e+08,-0.70994,12106,10985,1,10985,1,-0.00065288,-3.1926e-10,0,9.3199e-06,-0.00012806,-2.6555e+08,-109.28,0,3.8365e+06,-107.06,10984,11579,1,11579,1,-0.00035585,1.8362e-10,0,0.00018869,-6.3127e-05,-1.4473e+08,59.314,0,7.2512e+07,-19.081,11578,12634,1,12634,1,0.00033721,1.6582e-09,0,0.00053522,6.6755e-05,1.2739e+08,548.68,0,2.0514e+08,23.049,12633,611.88,0,611.88,0,0.00040068,1.0168e-09,0,0.00020017,7.5091e-05,1.5538e+08,338.44,0,7.6873e+07,29.897,611.88,1
2111,2.44,12107,1,12107,1,1.2974e-05,1.3925e-09,0,0.0003487,-2.3587e-06,-1.0348e+06,461.76,0,1.3552e+08,10.568,12106,13208,1,13208,1,0.00068672,4.9089e-09,0,0.00068672,0.00012294,2.5028e+08,1614.1,0,2.6662e+08,194.16,13207,12107,1,12107,1,-9.2548e-06,1.0251e-09,0,0.00035722,1.8125e-06,-3.811e+06,338.75,0,1.4529e+08,9.5137,12106,10985,1,10985,1,-0.00065551,-1.2441e-09,0,9.2547e-06,-0.00012862,-2.6662e+08,-425.85,0,3.8109e+06,-269.31,10984,11579,1,11579,1,-0.00035722,-9.6915e-11,0,0.00018958,-6.341e-05,-1.4529e+08,-32.988,0,7.2836e+07,-34.647,11578,12634,1,12634,1,0.00033873,2.7711e-09,0,0.00053755,6.7013e-05,1.2791e+08,921.35,0,2.0595e+08,51.654,12633,611.88,0,611.88,0,0.00040235,1.6705e-09,0,0.00020101,7.5404e-05,1.5597e+08,554.96,0,7.7162e+07,65.689,611.88,1
2111,2.45,12107,1,12107,1,1.3133e-05,3.0438e-10,0,0.00035016,-2.3879e-06,-1.039e+06,101.8,0,1.3605e+08,-4.2936,12106,13208,1,13208,1,0.00068967,1.0079e-09,0,0.00068967,0.00012343,2.5115e+08,345.16,0,2.6769e+08,44.326,13207,12107,1,12107,1,-9.1891e-06,2.5845e-10,0,0.00035861,1.8003e-06,-3.7852e+06,85.429,0,1.4586e+08,-2.663,12106,10985,1,10985,1,-0.00065813,-2.4054e-10,0,9.1889e-06,-0.00012917,-2.6769e+08,-82.378,0,3.7851e+06,-105.86,10984,11579,1,11579,1,-0.00035861,3.7637e-11,0,0.00019048,-6.3693e-05,-1.4586e+08,12.267,0,7.3164e+07,-13.561,11578,12634,1,12634,1,0.00034024,5.4951e-10,0,0.00053991,6.7275e-05,1.2842e+08,182.93,0,2.0677e+08,5.7892,12633,611.88,0,611.88,0,0.00040403,3.1812e-10,0,0.00020186,7.5718e-05,1.5657e+08,106.81,0,7.7453e+07,20.36,611.88,1
2111,2.46,12107,1,12107,1,1.3293e-05,-1.2993e-09,0,0.0003516,-2.4173e-06,-1.043e+06,-429.68,0,1.3656e+08,-7.5893,12106,13208,1,13208,1,0.00069262,2.0561e-09,0,0.00069262,0.00012392,2.5202e+08,685.44,0,2.6875e+08,99.093,13207,12107,1,12107,1,-9.1212e-06,-1.086e-09,0,0.00035998,1.7874e-06,-3.7584e+06,-367.81,0,1.4642e+08,-6.8436,12106,10985,1,10985,1,-0.00066074,-4.7509e-09,0,9.1211e-06,-0.00012972,-2.6875e+08,-1562,0,3.7584e+06,-149.89,10984,11579,1,11579,1,-0.00035998,-2.6207e-09,0,0.00019137,-6.3974e-05,-1.4642e+08,-863.71,0,7.3487e+07,-33.525,11578,12634,1,12634,1,0.00034175,6.7614e-11,0,0.00054222,6.753e-05,1.2893e+08,21.647,0,2.0758e+08,24.713,12633,611.88,0,611.88,0,0.00040569,1.6649e-09,0,0.00020269,7.6029e-05,1.5716e+08,551.95,0,7.7739e+07,39.932,611.88,1
2111,2.47,12107,1,12107,1,1.3453e-05,2.8331e-10,0,0.00035305,-2.4467e-06,-1.0471e+06,93.005,0,1.3708e+08,-0.69646,12106,13208,1,13208,1,0.00069558,2.7846e-09,0,0.00069558,0.00012441,2.5289e+08,915.48,0,2.6981e+08,67.092,13207,12107,1,12107,1,-9.0533e-06,1.2379e-10,0,0.00036137,1.7747e-06,-3.7318e+06,39.86,0,1.4698e+08,-2.0825,12106,10985,1,10985,1,-0.00066336,-1.3842e-09,0,9.0531e-06,-0.00013027,-2.6981e+08,-473.26,0,3.7317e+06,-99.661,10984,11579,1,11579,1,-0.00036137,-2.8899e-10,0,0.00019227,-6.4257e-05,-1.4698e+08,-95.538,0,7.3815e+07,-19.228,11578,12634,1,12634,1,0.00034326,7.8471e-10,0,0.00054458,6.7791e-05,1.2944e+08,257.28,0,2.084e+08,18.941,12633,611.88,0,611.88,0,0.00040737,8.984e-10,0,0.00020354,7.6344e-05,1.5776e+08,298.73,0,7.803e+07,27.337,611.88,1
2111,2.48,12107,1,12107,1,1.3616e-05,-1.1649e-09,0,0.0003545,-2.4767e-06,-1.0511e+06,-385.31,0,1.376e+08,-5.8631,12106,13208,1,13208,1,0.00069855,3.4515e-09,0,0.00069855,0.0001249,2.5376e+08,1140.1,0,2.7088e+08,178.01,13207,12107,1,12107,1,-8.9825e-06,-1.0168e-09,0,0.00036273,1.7613e-06,-3.704e+06,-338.36,0,1.4754e+08,-6.2676,12106,10985,1,10985,1,-0.00066598,-4.9074e-09,0,8.9823e-06,-0.00013083,-2.7088e+08,-1613.3,0,3.7039e+06,-182.85,10984,11579,1,11579,1,-0.00036273,-2.6767e-09,0,0.00019316,-6.4541e-05,-1.4754e+08,-883.39,0,7.4139e+07,-34.503,11578,12634,1,12634,1,0.00034478,1.6371e-10,0,0.00054691,6.8047e-05,1.2996e+08,53.799,0,2.092e+08,23.648,12633,611.88,0,611.88,0,0.00040904,1.8985e-09,0,0.00020438,7.6655e-05,1.5835e+08,629.69,0,7.8316e+07,56.216,611.88,1
2111,2.49,12107,1,12107,1,1.378e-05,8.6602e-10,0,0.00035596,-2.5067e-06,-1.0552e+06,285.84,0,1.3812e+08,-7.9294,12106,13208,1,13208,1,0.00070153,2.2822e-09,0,0.00070153,0.00012539,2.5463e+08,745.42,0,2.7195e+08,84.861,13207,12107,1,12107,1,-8.9114e-06,8.716e-10,0,0.00036412,1.7479e-06,-3.676e+06,289.53,0,1.481e+08,-6.1991,12106,10985,1,10985,1,-0.00066861,-4.8606e-10,0,8.9112e-06,-0.00013139,-2.7195e+08,-166.48,0,3.676e+06,-177.29,10984,11579,1,11579,1,-0.00036412,2.8601e-10,0,0.00019407,-6.4826e-05,-1.481e+08,93.901,0,7.4469e+07,-23.742,11578,12634,1,12634,1,0.00034631,1.4425e-09,0,0.00054928,6.8308e-05,1.3047e+08,473.83,0,2.1002e+08,14.487,12633,611.88,0,611.88,0,0.00041073,7.2294e-10,0,0.00020523,7.6971e-05,1.5895e+08,239.15,0,7.8607e+07,35.576,611.88,1
2111,2.5,12107,1,12107,1,1.3946e-05,1.2685e-09,0,0.00035741,-2.5373e-06,-1.0593e+06,420.12,0,1.3864e+08,3.1979,12106,13208,1,13208,1,0.00070451,3.2443e-09,0,0.00070451,0.00012589,2.555e+08,1066.5,0,2.7302e+08,108.82,13207,12107,1,12107,1,-8.838e-06,1.2607e-09,0,0.0003655,1.7341e-06,-3.6472e+06,412.87,0,1.4866e+08,4.2248,12106,10985,1,10985,1,-0.00067123,-4.9103e-10,0,8.838e-06,-0.00013194,-2.7302e+08,-165.91,0,3.6472e+06,-185.66,10984,11579,1,11579,1,-0.0003655,4.7155e-10,0,0.00019497,-6.5111e-05,-1.4866e+08,154.48,0,7.4796e+07,-18.216,11578,12634,1,12634,1,0.00034783,2.0711e-09,0,0.00055162,6.8566e-05,1.3098e+08,686.53,0,2.1083e+08,26.692,12633,611.88,0,611.88,0,0.0004124,9.8974e-10,0,0.00020608,7.7285e-05,1.5954e+08,329.12,0,7.8894e+07,41.626,611.88,1
2111,2.51,12107,1,12107,1,1.4113e-05,1.2781e-09,0,0.00035886,-2.5679e-06,-1.0634e+06,423.63,0,1.3916e+08,9.7453,12106,13208,1,13208,1,0.00070748,3.7362e-09,0,0.00070748,0.00012638,2.5636e+08,1225.8,0,2.7408e+08,145.59,13207,12107,1,12107,1,-8.7634e-06,1.061e-09,0,0.00036687,1.7201e-06,-3.6179e+06,347.12,0,1.4922e+08,5.8213,12106,10985,1,10985,1,-0.00067385,-5.7155e-10,0,8.7633e-06,-0.0001325,-2.7408e+08,-195.76,0,3.6178e+06,-163.01,10984,11579,1,11579,1,-0.00036687,3.0006e-10,0,0.00019587,-6.5395e-05,-1.4922e+08,97.322,0,7.5123e+07,-20.135,11578,12634,1,12634,1,0.00034936,2.2118e-09,0,0.00055397,6.8823e-05,1.315e+08,726.72,0,2.1164e+08,37.545,12633,611.88,0,611.88,0,0.00041407,1.1563e-09,0,0.00020692,7.7598e-05,1.6014e+08,384.6,0,7.9181e+07,45.959,611.88,1
2111,2.52,12107,1,12107,1,1.4281e-05,1.369e-09,0,0.00036031,-2.5987e-06,-1.0675e+06,453.8,0,1.3968e+08,4.8296,12106,13208,1,13208,1,0.00071044,3.1378e-09,0,0.00071044,0.00012687,2.5722e+08,1031.4,0,2.7514e+08,137.03,13207,12107,1,12107,1,-8.6879e-06,1.4553e-09,0,0.00036824,1.7058e-06,-3.5882e+06,483.33,0,1.4978e+08,2.0197,12106,10985,1,10985,1,-0.00067645,-4.9605e-10,0,8.6877e-06,-0.00013305,-2.7514e+08,-163.08,0,3.5881e+06,-141.45,10984,11579,1,11579,1,-0.00036824,5.9997e-10,0,0.00019677,-6.5679e-05,-1.4978e+08,194.84,0,7.5451e+07,-19.586,11578,12634,1,12634,1,0.00035088,2.1855e-09,0,0.00055632,6.908e-05,1.3201e+08,721.88,0,2.1245e+08,23.365,12633,611.88,0,611.88,0,0.00041575,9.6097e-10,0,0.00020777,7.7911e-05,1.6073e+08,320.39,0,7.9468e+07,40.029,611.88,1
2111,2.53,12107,1,12107,1,1.445e-05,2.9516e-10,0,0.00036175,-2.6298e-06,-1.0715e+06,98.768,0,1.4019e+08,3.5282,12106,13208,1,13208,1,0.0007134,2.3519e-09,0,0.0007134,0.00012735,2.5807e+08,772.94,0,2.762e+08,100.92,13207,12107,1,12107,1,-8.6108e-06,4.1016e-11,0,0.00036961,1.6912e-06,-3.5578e+06,14.032,0,1.5033e+08,3.6018,12106,10985,1,10985,1,-0.00067905,-1.3534e-09,0,8.6107e-06,-0.0001336,-2.762e+08,-450.52,0,3.5578e+06,-132.83,10984,11579,1,11579,1,-0.00036961,-2.6634e-10,0,0.00019767,-6.5962e-05,-1.5033e+08,-87.611,0,7.5779e+07,-16.89,11578,12634,1,12634,1,0.00035239,8.6463e-10,0,0.00055867,6.9337e-05,1.3252e+08,289.95,0,2.1326e+08,25.083,12633,611.88,0,611.88,0,0.00041742,8.3511e-10,0,0.00020861,7.8223e-05,1.6132e+08,277,0,7.9753e+07,34.674,611.88,1
2111,2.54,12107,1,12107,1,1.4621e-05,-3.1717e-11,0,0.0003632,-2.6611e-06,-1.0756e+06,-10.014,0,1.4071e+08,-1.8027,12106,13208,1,13208,1,0.00071636,2.2546e-09,0,0.00071636,0.00012784,2.5892e+08,747.24,0,2.7725e+08,57.58,13207,12107,1,12107,1,-8.5332e-06,-9.5983e-12,0,0.00037098,1.6766e-06,-3.5273e+06,-3.287,0,1.5089e+08,-2.7475,12106,10985,1,10985,1,-0.00068165,-2.0614e-09,0,8.533e-06,-0.00013416,-2.7725e+08,-689.62,0,3.5272e+06,-112.35,10984,11579,1,11579,1,-0.00037098,-5.9312e-10,0,0.00019858,-6.6246e-05,-1.5089e+08,-197.47,0,7.6106e+07,-23.329,11578,12634,1,12634,1,0.00035391,4.5078e-10,0,0.00056102,6.9594e-05,1.3303e+08,149.21,0,2.1407e+08,21.211,12633,611.88,0,611.88,0,0.00041909,9.0402e-10,0,0.00020945,7.8536e-05,1.619e+08,299.97,0,8.0039e+07,28.144,611.88,1
2111,2.55,12107,1,12107,1,1.4793e-05,-1.2304e-09,0,0.00036465,-2.6926e-06,-1.0796e+06,-406.68,0,1.4122e+08,-1.7347,12106,13208,1,13208,1,0.00071935,2.9643e-09,0,0.00071935,0.00012833,2.5978e+08,974.39,0,2.7832e+08,147.3,13207,12107,1,12107,1,-8.4537e-06,-9.5573e-10,0,0.00037234,1.6615e-06,-3.496e+06,-315.85,0,1.5144e+08,-4.4182,12106,10985,1,10985,1,-0.00068427,-5.3025e-09,0,8.4535e-06,-0.00013472,-2.7832e+08,-1742.6,0,3.496e+06,-149.31,10984,11579,1,11579,1,-0.00037234,-2.7938e-09,0,0.00019948,-6.6533e-05,-1.5144e+08,-920.56,0,7.6433e+07,-35.86,11578,12634,1,12634,1,0.00035545,1.9277e-10,0,0.00056336,6.9849e-05,1.3354e+08,62.661,0,2.1487e+08,33.015,12633,611.88,0,611.88,0,0.00042076,1.9521e-09,0,0.0002103,7.8848e-05,1.6249e+08,646.78,0,8.0324e+07,51.104,611.88,1
2111,2.56,12107,1,12107,1,1.4966e-05,1.0425e-09,0,0.00036611,-2.7246e-06,-1.0837e+06,343.54,0,1.4174e+08,-1.344,12106,13208,1,13208,1,0.00072234,2.4787e-09,0,0.00072234,0.00012882,2.6064e+08,809.03,0,2.7939e+08,78.609,13207,12107,1,12107,1,-8.3724e-06,1.1089e-09,0,0.00037372,1.6462e-06,-3.4641e+06,358.29,0,1.52e+08,0.70041,12106,10985,1,10985,1,-0.00068689,-3.8748e-10,0,8.3722e-06,-0.00013528,-2.7939e+08,-132.71,0,3.464e+06,-145.47,10984,11579,1,11579,1,-0.00037372,4.4889e-10,0,0.0002004,-6.6819e-05,-1.52e+08,142.95,0,7.6765e+07,-17.629,11578,12634,1,12634,1,0.00035698,1.6613e-09,0,0.00056574,7.0108e-05,1.3405e+08,549.12,0,2.1569e+08,16.866,12633,611.88,0,611.88,0,0.00042244,7.5674e-10,0,0.00021115,7.9164e-05,1.6309e+08,250.24,0,8.0612e+07,31.544,611.88,1
2111,2.57,12107,1,12107,1,1.5141e-05,1.2224e-09,0,0.00036755,-2.7567e-06,-1.0878e+06,404.66,0,1.4225e+08,18.32,12106,13208,1,13208,1,0.0007253,4.7739e-09,0,0.0007253,0.00012931,2.6148e+08,1568.7,0,2.8044e+08,174.64,13207,12107,1,12107,1,-8.2893e-06,8.0428e-10,0,0.00037507,1.6305e-06,-3.4314e+06,265.49,0,1.5255e+08,16.969,12106,10985,1,10985,1,-0.00068948,-1.6286e-09,0,8.2892e-06,-0.00013583,-2.8044e+08,-557.43,0,3.4313e+06,-156.93,10984,11579,1,11579,1,-0.00037507,-2.0462e-10,0,0.0002013,-6.7103e-05,-1.5255e+08,-66.475,0,7.7091e+07,-31.243,11578,12634,1,12634,1,0.00035851,2.7221e-09,0,0.00056808,7.0362e-05,1.3456e+08,905.1,0,2.1649e+08,72.309,12633,611.88,0,611.88,0,0.0004241,1.715e-09,0,0.00021199,7.9475e-05,1.6367e+08,568.66,0,8.0894e+07,66.174,611.88,1
2111,2.58,12107,1,12107,1,1.5317e-05,-9.3923e-10,0,0.00036901,-2.7891e-06,-1.0918e+06,-309.3,0,1.4277e+08,-7.3066,12106,13208,1,13208,1,0.00072829,6.1682e-10,0,0.00072829,0.0001298,2.6233e+08,211.26,0,2.815e+08,68.753,13207,12107,1,12107,1,-8.2065e-06,-8.4795e-10,0,0.00037644,1.6148e-06,-3.3987e+06,-279.26,0,1.5311e+08,-4.4099,12106,10985,1,10985,1,-0.0006921,-2.8625e-09,0,8.2062e-06,-0.00013639,-2.815e+08,-940.55,0,3.3987e+06,-154.9,10984,11579,1,11579,1,-0.00037644,-1.6407e-09,0,0.00020222,-6.739e-05,-1.5311e+08,-539.37,0,7.7423e+07,-25.599,11578,12634,1,12634,1,0.00036004,-2.1487e-10,0,0.00057045,7.062e-05,1.3507e+08,-70.261,0,2.173e+08,13.254,12633,611.88,0,611.88,0,0.00042579,8.5941e-10,0,0.00021284,7.979e-05,1.6426e+08,284.24,0,8.1181e+07,30.732,611.88,1
2111,2.59,12107,1,12107,1,1.5496e-05,2.3236e-09,0,0.00037045,-2.8218e-06,-1.0957e+06,766.74,0,1.4328e+08,7.8913,12106,13208,1,13208,1,0.00073128,6.584e-09,0,0.00073128,0.00013029,2.6318e+08,2163.3,0,2.8256e+08,177.89,13207,12107,1,12107,1,-8.12e-06,1.9706e-09,0,0.0003778,1.5985e-06,-3.3647e+06,648.66,0,1.5366e+08,8.5118,12106,10985,1,10985,1,-0.00069471,-7.2308e-10,0,8.1198e-06,-0.00013695,-2.8256e+08,-247.66,0,3.3646e+06,-232.06,10984,11579,1,11579,1,-0.0003778,4.5494e-10,0,0.00020312,-6.7677e-05,-1.5366e+08,150.02,0,7.7751e+07,-40.969,11578,12634,1,12634,1,0.00036158,4.0963e-09,0,0.0005728,7.0873e-05,1.3558e+08,1351.1,0,2.181e+08,60.074,12633,611.88,0,611.88,0,0.00042746,2.0665e-09,0,0.00021368,8.0102e-05,1.6485e+08,684.93,0,8.1464e+07,71.679,611.88,1
2111,2.6,12107,1,12107,1,1.5675e-05,3.7376e-10,0,0.00037191,-2.8548e-06,-1.0999e+06,124.93,0,1.438e+08,-8.7393,12106,13208,1,13208,1,0.00073426,1.0101e-09,0,0.00073426,0.00013078,2.6402e+08,345.9,0,2.8362e+08,35.283,13207,12107,1,12107,1,-8.0337e-06,3.4901e-10,0,0.00037918,1.5822e-06,-3.3308e+06,116.2,0,1.5422e+08,-6.6225,12106,10985,1,10985,1,-0.00069731,-1.389e-10,0,8.0335e-06,-0.0001375,-2.8362e+08,-42.216,0,3.3307e+06,-123.82,10984,11579,1,11579,1,-0.00037918,1.1486e-10,0,0.00020405,-6.7964e-05,-1.5422e+08,36.301,0,7.8084e+07,-19.511,11578,12634,1,12634,1,0.00036311,6.137e-10,0,0.00057519,7.1132e-05,1.3609e+08,203.08,0,2.1892e+08,2.4548,12633,611.88,0,611.88,0,0.00042914,3.1331e-10,0,0.00021454,8.0418e-05,1.6544e+08,105.68,0,8.175e+07,21.028,611.88,1
2111,2.61,12107,1,12107,1,1.5856e-05,-7.3729e-10,0,0.00037334,-2.8879e-06,-1.1038e+06,-242.45,0,1.443e+08,10.17,12106,13208,1,13208,1,0.00073722,5.2095e-09,0,0.00073722,0.00013126,2.6485e+08,1715.8,0,2.8467e+08,209.11,13207,12107,1,12107,1,-7.9447e-06,-2.9655e-10,0,0.00038051,1.5653e-06,-3.2957e+06,-93.959,0,1.5477e+08,0.26718,12106,10985,1,10985,1,-0.00069988,-6.5534e-09,0,7.9445e-06,-0.00013806,-2.8467e+08,-2165.8,0,3.2956e+06,-152.14,10984,11579,1,11579,1,-0.00038051,-2.6228e-09,0,0.00020495,-6.8248e-05,-1.5477e+08,-862.94,0,7.841e+07,-49.024,11578,12634,1,12634,1,0.00036463,9.0462e-10,0,0.00057752,7.1383e-05,1.366e+08,293.76,0,2.1971e+08,65.43,12633,611.88,0,611.88,0,0.00043079,2.6914e-09,0,0.00021537,8.0727e-05,1.6601e+08,889.87,0,8.2028e+07,74.5,611.88,1
2111,2.62,12107,1,12107,1,1.6037e-05,-1.9975e-10,0,0.00037481,-2.9212e-06,-1.1079e+06,-66.669,0,1.4482e+08,-10.641,12106,13208,1,13208,1,0.00074022,3.0542e-09,0,0.00074022,0.00013175,2.657e+08,1011.5,0,2.8573e+08,83.141,13207,12107,1,12107,1,-7.8569e-06,-1.4663e-11,0,0.00038189,1.5487e-06,-3.2612e+06,-5.0225,0,1.5533e+08,-12.211,12106,10985,1,10985,1,-0.0007025,-3.1402e-09,0,7.8565e-06,-0.00013862,-2.8573e+08,-1043.4,0,3.261e+06,-121.11,10984,11579,1,11579,1,-0.00038189,-1.1432e-09,0,0.00020587,-6.8537e-05,-1.5533e+08,-382.93,0,7.8743e+07,-38.429,11578,12634,1,12634,1,0.00036618,5.9935e-10,0,0.0005799,7.164e-05,1.3711e+08,198.79,0,2.2053e+08,17.074,12633,611.88,0,611.88,0,0.00043248,1.4191e-09,0,0.00021622,8.1043e-05,1.6661e+08,471.44,0,8.2314e+07,37.079,611.88,1
2111,2.63,12107,1,12107,1,1.6221e-05,1.603e-09,0,0.00037626,-2.955e-06,-1.1119e+06,528.93,0,1.4533e+08,4.0746,12106,13208,1,13208,1,0.00074322,4.7959e-09,0,0.00074322,0.00013224,2.6654e+08,1573.1,0,2.868e+08,166.95,13207,12107,1,12107,1,-7.765e-06,1.5209e-09,0,0.00038324,1.5313e-06,-3.225e+06,497.36,0,1.5588e+08,5.8718,12106,10985,1,10985,1,-0.00070511,-1.266e-09,0,7.7649e-06,-0.00013918,-2.868e+08,-433.58,0,3.2249e+06,-190.73,10984,11579,1,11579,1,-0.00038324,1.8891e-10,0,0.00020679,-6.8825e-05,-1.5588e+08,61.873,0,7.9073e+07,-41.359,11578,12634,1,12634,1,0.00036773,2.9391e-09,0,0.00058227,7.1894e-05,1.3762e+08,977.79,0,2.2133e+08,51.999,12633,611.88,0,611.88,0,0.00043416,1.5902e-09,0,0.00021707,8.1357e-05,1.6719e+08,526.83,0,8.2598e+07,61.098,611.88,1
2111,2.64,12107,1,12107,1,1.6407e-05,-1.1386e-09,0,0.00037771,-2.9891e-06,-1.116e+06,-374.29,0,1.4584e+08,-3.6803,12106,13208,1,13208,1,0.00074621,2.0536e-09,0,0.00074621,0.00013273,2.6737e+08,688.99,0,2.8785e+08,122.19,13207,12107,1,12107,1,-7.6722e-06,-9.8132e-10,0,0.0003846,1.5139e-06,-3.1884e+06,-317.49,0,1.5643e+08,-7.7852,12106,10985,1,10985,1,-0.00070771,-4.2771e-09,0,7.672e-06,-0.00013974,-2.8785e+08,-1405,0,3.1883e+06,-166.11,10984,11579,1,11579,1,-0.0003846,-2.3909e-09,0,0.00020771,-6.9113e-05,-1.5643e+08,-786.63,0,7.9406e+07,-31.511,11578,12634,1,12634,1,0.00036927,6.6905e-11,0,0.00058464,7.215e-05,1.3813e+08,22.045,0,2.2214e+08,23.872,12633,611.88,0,611.88,0,0.00043584,1.5262e-09,0,0.00021792,8.167e-05,1.6777e+08,504.29,0,8.288e+07,43.992,611.88,1
2111,2.65,12107,1,12107,1,1.6593e-05,4.4295e-10,0,0.00037917,-3.0234e-06,-1.1201e+06,145.46,0,1.4636e+08,0.88787,12106,13208,1,13208,1,0.00074921,1.6749e-09,0,0.00074921,0.00013322,2.6821e+08,550.13,0,2.8891e+08,97.474,13207,12107,1,12107,1,-7.5788e-06,3.1994e-10,0,0.00038597,1.4961e-06,-3.1517e+06,102.72,0,1.5699e+08,1.0041,12106,10985,1,10985,1,-0.00071031,-6.7536e-10,0,7.5786e-06,-0.0001403,-2.8891e+08,-231.28,0,3.1516e+06,-184.02,10984,11579,1,11579,1,-0.00038597,-3.0212e-11,0,0.00020864,-6.9402e-05,-1.5699e+08,-9.861,0,7.974e+07,-15.024,11578,12634,1,12634,1,0.00037081,9.0931e-10,0,0.00058703,7.2406e-05,1.3864e+08,297.45,0,2.2295e+08,18.842,12633,611.88,0,611.88,0,0.00043752,5.7417e-10,0,0.00021878,8.1986e-05,1.6836e+08,190.32,0,8.3164e+07,33.172,611.88,1
2111,2.66,12107,1,12107,1,1.6782e-05,-1.1923e-10,0,0.00038062,-3.0581e-06,-1.1241e+06,-39.118,0,1.4687e+08,-3.2015,12106,13208,1,13208,1,0.0007522,1.7674e-09,0,0.0007522,0.0001337,2.6904e+08,597.16,0,2.8997e+08,62.2,13207,12107,1,12107,1,-7.483e-06,1.8436e-11,0,0.00038732,1.478e-06,-3.1139e+06,6.0055,0,1.5754e+08,-5.7158,12106,10985,1,10985,1,-0.0007129,-1.8721e-09,0,7.4829e-06,-0.00014085,-2.8997e+08,-614.89,0,3.1139e+06,-133.72,10984,11579,1,11579,1,-0.00038732,-7.228e-10,0,0.00020957,-6.969e-05,-1.5754e+08,-237.17,0,8.0071e+07,-23.298,11578,12634,1,12634,1,0.00037236,4.0378e-10,0,0.0005894,7.266e-05,1.3915e+08,129.72,0,2.2375e+08,18.438,12633,611.88,0,611.88,0,0.0004392,8.4527e-10,0,0.00021962,8.2299e-05,1.6894e+08,279.8,0,8.3445e+07,29.459,611.88,1
2111,2.67,12107,1,12107,1,1.6971e-05,-2.195e-10,0,0.00038206,-3.0927e-06,-1.1282e+06,-72.679,0,1.4737e+08,8.4401,12106,13208,1,13208,1,0.00075518,4.3757e-09,0,0.00075518,0.00013419,2.6986e+08,1437.1,0,2.9102e+08,143.79,13207,12107,1,12107,1,-7.3863e-06,2.1773e-11,0,0.00038866,1.4597e-06,-3.0759e+06,7.1007,0,1.5808e+08,2.7676,12106,10985,1,10985,1,-0.00071549,-4.5617e-09,0,7.3862e-06,-0.00014141,-2.9102e+08,-1499.6,0,3.0758e+06,-130.51,10984,11579,1,11579,1,-0.00038866,-1.6551e-09,0,0.00021048,-6.9977e-05,-1.5808e+08,-538.99,0,8.0401e+07,-28.228,11578,12634,1,12634,1,0.0003739,1.0554e-09,0,0.00059176,7.2911e-05,1.3965e+08,345.74,0,2.2454e+08,46.622,12633,611.88,0,611.88,0,0.00044086,2.0996e-09,0,0.00022047,8.2611e-05,1.6952e+08,694.72,0,8.3724e+07,57.34,611.88,1
2111,2.68,12107,1,12107,1,1.7163e-05,-7.8782e-10,0,0.00038352,-3.1281e-06,-1.1321e+06,-260.36,0,1.4788e+08,-11.586,12106,13208,1,13208,1,0.00075819,4.3107e-10,0,0.00075819,0.00013467,2.7069e+08,147.64,0,2.9208e+08,54.461,13207,12107,1,12107,1,-7.2868e-06,-6.4261e-10,0,0.00039002,1.4408e-06,-3.0367e+06,-207.9,0,1.5863e+08,-13.416,12106,10985,1,10985,1,-0.00071809,-2.5439e-09,0,7.2865e-06,-0.00014197,-2.9208e+08,-850.6,0,3.0366e+06,-124.55,10984,11579,1,11579,1,-0.00039002,-1.386e-09,0,0.00021142,-7.0268e-05,-1.5863e+08,-455.61,0,8.0735e+07,-30.336,11578,12634,1,12634,1,0.00037545,-1.1882e-10,0,0.00059415,7.3166e-05,1.4016e+08,-38.611,0,2.2535e+08,10.271,12633,611.88,0,611.88,0,0.00044255,7.8613e-10,0,0.00022132,8.2926e-05,1.7011e+08,262.06,0,8.4007e+07,29.907,611.88,1
2111,2.69,12107,1,12107,1,1.7366e-05,-7.623e-10,0,0.00038498,-3.1654e-06,-1.1361e+06,-252.14,0,1.4839e+08,-9.9268,12106,13208,1,13208,1,0.00076123,2.0962e-09,0,0.00076123,0.00013516,2.7152e+08,692.11,0,2.9313e+08,94.388,13207,12107,1,12107,1,-7.1766e-06,-6.536e-10,0,0.00039137,1.4201e-06,-2.9934e+06,-211.66,0,1.5918e+08,-12.275,12106,10985,1,10985,1,-0.00072069,-3.1718e-09,0,7.1764e-06,-0.00014254,-2.9313e+08,-1051.7,0,2.9933e+06,-146.2,10984,11579,1,11579,1,-0.00039137,-1.7126e-09,0,0.00021236,-7.0561e-05,-1.5918e+08,-565.14,0,8.1067e+07,-32.524,11578,12634,1,12634,1,0.00037702,5.2988e-11,0,0.00059655,7.3419e-05,1.4067e+08,17.969,0,2.2615e+08,20.163,12633,611.88,0,611.88,0,0.00044423,1.1859e-09,0,0.00022218,8.3242e-05,1.7069e+08,393.41,0,8.4288e+07,40.624,611.88,1
2111,2.7,12107,1,12107,1,1.7572e-05,-8.9672e-10,0,0.00038643,-3.2031e-06,-1.1401e+06,-296.48,0,1.4889e+08,-0.29865,12106,13208,1,13208,1,0.00076424,4.3896e-09,0,0.00076424,0.00013565,2.7233e+08,1452.2,0,2.9419e+08,188.55,13207,12107,1,12107,1,-7.0637e-06,-5.5123e-10,0,0.0003927,1.3988e-06,-2.9491e+06,-175.78,0,1.5972e+08,-7.1817,12106,10985,1,10985,1,-0.00072328,-5.7155e-09,0,7.0635e-06,-0.0001431,-2.9419e+08,-1890.4,0,2.949e+06,-233.93,10984,11579,1,11579,1,-0.0003927,-2.5653e-09,0,0.0002133,-7.0853e-05,-1.5972e+08,-843.28,0,8.1397e+07,-49.351,11578,12634,1,12634,1,0.00037859,5.6405e-10,0,0.00059893,7.3669e-05,1.4117e+08,184.56,0,2.2695e+08,59.078,12633,611.88,0,611.88,0,0.00044591,2.2918e-09,0,0.00022302,8.3555e-05,1.7126e+08,758.8,0,8.4566e+07,77.625,611.88,1
2111,2.71,12107,1,12107,1,1.7778e-05,1.5949e-09,0,0.0003879,-3.241e-06,-1.1441e+06,525.09,0,1.494e+08,0.51181,12106,13208,1,13208,1,0.00076727,3.9701e-09,0,0.00076727,0.00013613,2.7315e+08,1321.2,0,2.9524e+08,108.9,13207,12107,1,12107,1,-6.9498e-06,1.6176e-09,0,0.00039404,1.3777e-06,-2.9043e+06,524,0,1.6027e+08,-0.091351,12106,10985,1,10985,1,-0.00072587,-5.7764e-10,0,6.9496e-06,-0.00014367,-2.9524e+08,-197.84,0,2.9042e+06,-138.36,10984,11579,1,11579,1,-0.00039404,6.0936e-10,0,0.00021425,-7.1146e-05,-1.6027e+08,192.1,0,8.173e+07,-23.801,11578,12634,1,12634,1,0.00038016,2.5758e-09,0,0.00060134,7.3921e-05,1.4168e+08,844.81,0,2.2775e+08,26.354,12633,611.88,0,611.88,0,0.0004476,1.2123e-09,0,0.00022388,8.387e-05,1.7184e+08,402.49,0,8.4847e+07,36.878,611.88,1
2111,2.72,12107,1,12107,1,1.7987e-05,-7.475e-10,0,0.00038935,-3.2794e-06,-1.1481e+06,-244.9,0,1.499e+08,-5.7689,12106,13208,1,13208,1,0.00077028,1.401e-09,0,0.00077028,0.00013662,2.7395e+08,479.53,0,2.9628e+08,55.523,13207,12107,1,12107,1,-6.8341e-06,-6.0844e-10,0,0.00039538,1.3559e-06,-2.8589e+06,-199.78,0,1.6082e+08,-8.1379,12106,10985,1,10985,1,-0.00072844,-2.7748e-09,0,6.8339e-06,-0.00014423,-2.9628e+08,-910.7,0,2.8588e+06,-134.9,10984,11579,1,11579,1,-0.00039538,-1.5116e-09,0,0.00021519,-7.1437e-05,-1.6082e+08,-497.39,0,8.2062e+07,-26.023,11578,12634,1,12634,1,0.00038172,-5.3623e-12,0,0.00060374,7.4173e-05,1.4218e+08,-1.8368,0,2.2855e+08,17.253,12633,611.88,0,611.88,0,0.00044927,9.8766e-10,0,0.00022473,8.4184e-05,1.7241e+08,326.49,0,8.5125e+07,29.231,611.88,1
2111,2.73,12107,1,12107,1,1.8197e-05,-1.2447e-09,0,0.00039081,-3.318e-06,-1.1521e+06,-410.49,0,1.5041e+08,-14.982,12106,13208,1,13208,1,0.00077332,4.8726e-10,0,0.00077332,0.0001371,2.7477e+08,166.89,0,2.9734e+08,64.715,13207,12107,1,12107,1,-6.7174e-06,-1.2251e-09,0,0.00039672,1.3338e-06,-2.8131e+06,-396.18,0,1.6136e+08,-11.98,12106,10985,1,10985,1,-0.00073104,-3.1985e-09,0,6.7172e-06,-0.0001448,-2.9734e+08,-1060.5,0,2.813e+06,-142.79,10984,11579,1,11579,1,-0.00039672,-2.0566e-09,0,0.00021614,-7.1732e-05,-1.6136e+08,-683.08,0,8.2395e+07,-29.151,11578,12634,1,12634,1,0.0003833,-4.1276e-10,0,0.00060615,7.4424e-05,1.4268e+08,-133.74,0,2.2935e+08,4.3879,12633,611.88,0,611.88,0,0.00045096,9.5234e-10,0,0.00022559,8.45e-05,1.7299e+08,316.58,0,8.5405e+07,31.785,611.88,1
2111,2.74,12107,1,12107,1,1.8409e-05,-9.215e-10,0,0.00039227,-3.3569e-06,-1.1561e+06,-304.72,0,1.5091e+08,-11.159,12106,13208,1,13208,1,0.00077634,7.5029e-10,0,0.00077634,0.00013759,2.7557e+08,256.89,0,2.9839e+08,86.055,13207,12107,1,12107,1,-6.5981e-06,-8.2338e-10,0,0.00039806,1.3114e-06,-2.7662e+06,-265.46,0,1.619e+08,-8.5141,12106,10985,1,10985,1,-0.00073362,-3.0855e-09,0,6.5978e-06,-0.00014536,-2.9839e+08,-1030.5,0,2.7661e+06,-144.04,10984,11579,1,11579,1,-0.00039806,-1.7569e-09,0,0.00021709,-7.2025e-05,-1.619e+08,-576.98,0,8.2727e+07,-30.687,11578,12634,1,12634,1,0.00038487,-3.5765e-12,0,0.00060855,7.4674e-05,1.4319e+08,-1.1492,0,2.3014e+08,17.102,12633,611.88,0,611.88,0,0.00045264,9.9388e-10,0,0.00022644,8.4814e-05,1.7356e+08,329.96,0,8.5682e+07,39.441,611.88,1
2111,2.75,12107,1,12107,1,1.8623e-05,2.4873e-10,0,0.00039373,-3.3961e-06,-1.1601e+06,80.823,0,1.5141e+08,-7.9073,12106,13208,1,13208,1,0.00077937,8.2977e-10,0,0.00077937,0.00013807,2.7638e+08,269.39,0,2.9944e+08,41.383,13207,12107,1,12107,1,-6.4775e-06,2.2647e-10,0,0.0003994,1.2888e-06,-2.7188e+06,72.098,0,1.6245e+08,-5.5619,12106,10985,1,10985,1,-0.00073619,-4.0131e-10,0,6.4772e-06,-0.00014593,-2.9944e+08,-137.42,0,2.7187e+06,-126.19,10984,11579,1,11579,1,-0.0003994,4.6778e-11,0,0.00021805,-7.2319e-05,-1.6245e+08,15.685,0,8.3062e+07,-22.417,11578,12634,1,12634,1,0.00038644,4.9508e-10,0,0.00061097,7.4926e-05,1.4369e+08,161.59,0,2.3094e+08,10.199,12633,611.88,0,611.88,0,0.00045432,3.0672e-10,0,0.0002273,8.5129e-05,1.7414e+08,101.25,0,8.5961e+07,26.244,611.88,1
2111,2.76,12107,1,12107,1,1.8838e-05,-7.4547e-10,0,0.00039519,-3.4357e-06,-1.1641e+06,-245.7,0,1.5192e+08,-11.114,12106,13208,1,13208,1,0.00078241,2.5011e-10,0,0.00078241,0.00013856,2.7718e+08,85.662,0,3.0049e+08,20.456,13207,12107,1,12107,1,-6.3557e-06,-8.1886e-10,0,0.00040073,1.2658e-06,-2.671e+06,-267.4,0,1.6299e+08,-3.6817,12106,10985,1,10985,1,-0.00073878,-1.5286e-09,0,6.3556e-06,-0.0001465,-3.0049e+08,-505.75,0,2.671e+06,-123.88,10984,11579,1,11579,1,-0.00040073,-1.1704e-09,0,0.000219,-7.2614e-05,-1.6299e+08,-383.6,0,8.3395e+07,-19.262,11578,12634,1,12634,1,0.00038803,-3.7804e-10,0,0.00061338,7.5176e-05,1.4419e+08,-120.82,0,2.3174e+08,3.0665,12633,611.88,0,611.88,0,0.00045601,4.9142e-10,0,0.00022816,8.5445e-05,1.7471e+08,163.24,0,8.6239e+07,22.048,611.88,1
2111,2.77,12107,1,12107,1,1.9055e-05,-1.1306e-09,0,0.00039663,-3.4755e-06,-1.168e+06,-372.98,0,1.5241e+08,-10.882,12106,13208,1,13208,1,0.00078544,3.0543e-09,0,0.00078544,0.00013904,2.7798e+08,1005.6,0,3.0154e+08,174.16,13207,12107,1,12107,1,-6.231e-06,-1.0616e-09,0,0.00040205,1.2423e-06,-2.6221e+06,-342.74,0,1.6353e+08,-11.723,12106,10985,1,10985,1,-0.00074135,-4.5397e-09,0,6.2307e-06,-0.00014706,-3.0154e+08,-1498.6,0,2.622e+06,-182.09,10984,11579,1,11579,1,-0.00040205,-2.5887e-09,0,0.00021995,-7.2908e-05,-1.6353e+08,-851.69,0,8.3726e+07,-42.92,11578,12634,1,12634,1,0.0003896,1.4583e-10,0,0.00061577,7.5423e-05,1.4469e+08,48.511,0,2.3253e+08,28.407,12633,611.88,0,611.88,0,0.00045768,1.72e-09,0,0.000229,8.5757e-05,1.7528e+08,568.51,0,8.6513e+07,62.323,611.88,1
2111,2.78,12107,1,12107,1,1.9272e-05,-8.1665e-10,0,0.00039809,-3.5154e-06,-1.172e+06,-270.2,0,1.5291e+08,-10.44,12106,13208,1,13208,1,0.00078847,4.5484e-09,0,0.00078847,0.00013952,2.7877e+08,1505.2,0,3.0258e+08,159.91,13207,12107,1,12107,1,-6.106e-06,-7.2533e-10,0,0.00040338,1.2188e-06,-2.573e+06,-238.9,0,1.6407e+08,-12.09,12106,10985,1,10985,1,-0.00074392,-4.5239e-09,0,6.1057e-06,-0.00014763,-3.0258e+08,-1499.2,0,2.5729e+06,-183.59,10984,11579,1,11579,1,-0.00040338,-2.4049e-09,0,0.0002209,-7.3202e-05,-1.6407e+08,-791.85,0,8.4059e+07,-48.304,11578,12634,1,12634,1,0.00039118,3.4785e-10,0,0.00061817,7.5672e-05,1.4519e+08,109.15,0,2.3332e+08,34.035,12633,611.88,0,611.88,0,0.00045936,1.9562e-09,0,0.00022986,8.6071e-05,1.7585e+08,647.5,0,8.6789e+07,66.571,611.88,1
2111,2.79,12107,1,12107,1,1.9493e-05,-6.3249e-10,0,0.00039955,-3.5559e-06,-1.1761e+06,-209.44,0,1.5341e+08,-14.139,12106,13208,1,13208,1,0.00079151,3.0561e-10,0,0.00079151,0.00014,2.7957e+08,91.066,0,3.0363e+08,32.247,13207,12107,1,12107,1,-5.9793e-06,-6.0568e-10,0,0.00040472,1.195e-06,-2.5232e+06,-196.4,0,1.6461e+08,-8.7588,12106,10985,1,10985,1,-0.00074651,-1.5892e-09,0,5.979e-06,-0.0001482,-3.0363e+08,-543.2,0,2.5232e+06,-132.58,10984,11579,1,11579,1,-0.00040472,-1.0747e-09,0,0.00022187,-7.3498e-05,-1.6461e+08,-358.55,0,8.4396e+07,-21.47,11578,12634,1,12634,1,0.00039277,-2.0919e-10,0,0.00062061,7.5923e-05,1.457e+08,-67.047,0,2.3412e+08,3.5849,12633,611.88,0,611.88,0,0.00046105,5.1191e-10,0,0.00023072,8.6388e-05,1.7643e+08,171.46,0,8.7068e+07,24.953,611.88,1
2111,2.8,12107,1,12107,1,1.9715e-05,-8.8334e-10,0,0.000401,-3.5968e-06,-1.18e+06,-291.31,0,1.5391e+08,-5.1828,12106,13208,1,13208,1,0.00079454,3.6179e-09,0,0.00079454,0.00014049,2.8036e+08,1191.4,0,3.0468e+08,107.78,13207,12107,1,12107,1,-5.8496e-06,-6.0986e-10,0,0.00040603,1.1706e-06,-2.4723e+06,-196.08,0,1.6515e+08,-9.0946,12106,10985,1,10985,1,-0.00074907,-4.7363e-09,0,5.8493e-06,-0.00014876,-3.0468e+08,-1562.6,0,2.4722e+06,-150.33,10984,11579,1,11579,1,-0.00040603,-2.3209e-09,0,0.00022283,-7.3793e-05,-1.6515e+08,-762.05,0,8.4729e+07,-42.556,11578,12634,1,12634,1,0.00039435,3.38e-10,0,0.00062301,7.6171e-05,1.462e+08,110.74,0,2.3491e+08,36.107,12633,611.88,0,611.88,0,0.00046273,1.8881e-09,0,0.00023157,8.6701e-05,1.7699e+08,623.81,0,8.7341e+07,52.278,611.88,1
2111,2.81,12107,1,12107,1,1.9938e-05,-1.5276e-09,0,0.00040247,-3.6377e-06,-1.1841e+06,-503.76,0,1.5441e+08,-17.626,12106,13208,1,13208,1,0.00079761,1.5884e-09,0,0.00079761,0.00014097,2.8116e+08,543.67,0,3.0573e+08,109.42,13207,12107,1,12107,1,-5.7199e-06,-1.4595e-09,0,0.00040736,1.1461e-06,-2.4214e+06,-472.35,0,1.6569e+08,-15.194,12106,10985,1,10985,1,-0.00075167,-4.8324e-09,0,5.7196e-06,-0.00014934,-3.0573e+08,-1602.9,0,2.4213e+06,-186.95,10984,11579,1,11579,1,-0.00040736,-2.9334e-09,0,0.00022379,-7.409e-05,-1.6569e+08,-971.9,0,8.5064e+07,-49.263,11578,12634,1,12634,1,0.00039594,-3.4475e-11,0,0.00062543,7.642e-05,1.467e+08,-10.962,0,2.357e+08,23.979,12633,611.88,0,611.88,0,0.00046442,1.6241e-09,0,0.00023243,8.7017e-05,1.7757e+08,538.44,0,8.7618e+07,56.757,611.88,1
2111,2.82,12107,1,12107,1,2.0172e-05,9.361e-10,0,0.00040393,-3.6806e-06,-1.188e+06,305.62,0,1.5491e+08,7.2319,12106,13208,1,13208,1,0.00080065,3.3478e-09,0,0.00080065,0.00014145,2.8194e+08,1087.9,0,3.0677e+08,145.78,13207,12107,1,12107,1,-5.5785e-06,6.6797e-10,0,0.00040869,1.1198e-06,-2.366e+06,216.63,0,1.6623e+08,5.1574,12106,10985,1,10985,1,-0.00075423,-8.9597e-10,0,5.5783e-06,-0.0001499,-3.0677e+08,-306.77,0,2.366e+06,-163.74,10984,11579,1,11579,1,-0.00040869,-5.6209e-12,0,0.00022477,-7.4388e-05,-1.6623e+08,-1.827,0,8.54e+07,-30.925,11578,12634,1,12634,1,0.00039753,1.9073e-09,0,0.00062788,7.6669e-05,1.472e+08,628.84,0,2.365e+08,51.89,12633,611.88,0,611.88,0,0.00046611,1.1211e-09,0,0.00023329,8.7333e-05,1.7813e+08,368.86,0,8.7893e+07,52.379,611.88,1
2111,2.83,12107,1,12107,1,2.0419e-05,-7.6742e-10,0,0.00040538,-3.7258e-06,-1.1918e+06,-251.26,0,1.5539e+08,-6.3744,12106,13208,1,13208,1,0.00080372,4.71e-09,0,0.00080372,0.00014193,2.8271e+08,1552.9,0,3.0781e+08,127.99,13207,12107,1,12107,1,-5.4247e-06,-5.0884e-10,0,0.00040998,1.091e-06,-2.3061e+06,-170.37,0,1.6675e+08,-16.127,12106,10985,1,10985,1,-0.00075677,-5.1335e-09,0,5.4245e-06,-0.00015048,-3.0781e+08,-1681.4,0,2.306e+06,-167.39,10984,11579,1,11579,1,-0.00040998,-2.3853e-09,0,0.00022575,-7.4688e-05,-1.6675e+08,-779.89,0,8.5729e+07,-53.659,11578,12634,1,12634,1,0.00039914,5.5897e-10,0,0.00063031,7.6912e-05,1.4769e+08,174.82,0,2.3728e+08,47.215,12633,611.88,0,611.88,0,0.00046779,2.2322e-09,0,0.00023415,8.7647e-05,1.7869e+08,735.58,0,8.8165e+07,63.248,611.88,1
2111,2.84,12107,1,12107,1,2.0668e-05,-8.0215e-10,0,0.00040685,-3.7714e-06,-1.1958e+06,-263.76,0,1.5589e+08,-18.399,12106,13208,1,13208,1,0.00080681,1.8445e-09,0,0.00080681,0.00014241,2.8349e+08,631.67,0,3.0885e+08,111.37,13207,12107,1,12107,1,-5.2689e-06,-3.2146e-10,0,0.0004113,1.062e-06,-2.2453e+06,-104.78,0,1.6729e+08,-26.818,12106,10985,1,10985,1,-0.00075934,-4.2749e-09,0,5.2685e-06,-0.00015105,-3.0885e+08,-1399.6,0,2.2452e+06,-257.61,10984,11579,1,11579,1,-0.0004113,-1.7462e-09,0,0.00022674,-7.4991e-05,-1.6729e+08,-569.93,0,8.6062e+07,-49.015,11578,12634,1,12634,1,0.00040077,2.3441e-10,0,0.00063277,7.7158e-05,1.4818e+08,78.038,0,2.3807e+08,8.0283,12633,611.88,0,611.88,0,0.00046948,1.467e-09,0,0.00023502,8.7965e-05,1.7925e+08,485.23,0,8.8439e+07,49.739,611.88,1
2111,2.85,12107,1,12107,1,2.0922e-05,-9.1609e-11,0,0.00040833,-3.818e-06,-1.1996e+06,-31.398,0,1.5638e+08,-22.814,12106,13208,1,13208,1,0.0008099,1.7094e-09,0,0.0008099,0.00014289,2.8426e+08,585.05,0,3.099e+08,75.851,13207,12107,1,12107,1,-5.1085e-06,6.0824e-11,0,0.00041261,1.0305e-06,-2.1829e+06,20.226,0,1.6782e+08,-18.84,12106,10985,1,10985,1,-0.0007619,-2.0026e-09,0,5.1082e-06,-0.00015163,-3.099e+08,-684.24,0,2.1828e+06,-809.36,10984,11579,1,11579,1,-0.00041261,-6.1096e-10,0,0.00022774,-7.5294e-05,-1.6782e+08,-197.69,0,8.6396e+07,-41.03,11578,12634,1,12634,1,0.0004024,3.7955e-10,0,0.00063524,7.7405e-05,1.4867e+08,120.87,0,2.3886e+08,8.176,12633,611.88,0,611.88,0,0.00047118,8.1171e-10,0,0.00023588,8.8283e-05,1.7982e+08,269.01,0,8.8713e+07,77.809,611.88,1
2111,2.86,12107,1,12107,1,2.1178e-05,2.7828e-09,0,0.00040979,-3.8647e-06,-1.2036e+06,912.64,0,1.5687e+08,5.7397,12106,13208,1,13208,1,0.00081301,6.9357e-09,0,0.00081301,0.00014338,2.8503e+08,2269.2,0,3.1094e+08,242.83,13207,12107,1,12107,1,-4.9465e-06,2.7201e-09,0,0.0004139,1.0005e-06,-2.1197e+06,888.62,0,1.6835e+08,8.2152,12106,10985,1,10985,1,-0.00076448,-9.014e-10,0,4.9463e-06,-0.00015221,-3.1094e+08,-308.73,0,2.1197e+06,-791.47,10984,11579,1,11579,1,-0.0004139,1.099e-09,0,0.00022874,-7.5598e-05,-1.6835e+08,354.91,0,8.6727e+07,-28.791,11578,12634,1,12634,1,0.00040403,4.435e-09,0,0.00063769,7.7647e-05,1.4917e+08,1452.9,0,2.3963e+08,50.561,12633,611.88,0,611.88,0,0.00047287,2.0521e-09,0,0.00023675,8.8599e-05,1.8037e+08,677.44,0,8.8984e+07,102.72,611.88,1
2111,2.87,12107,1,12107,1,2.1434e-05,4.9777e-11,0,0.00041125,-3.9116e-06,-1.2075e+06,19.149,0,1.5735e+08,-12.519,12106,13208,1,13208,1,0.00081607,4.2598e-09,0,0.00081607,0.00014385,2.8578e+08,1446,0,3.1197e+08,141.82,13207,12107,1,12107,1,-4.7836e-06,1.5463e-10,0,0.0004152,9.7046e-07,-2.0562e+06,52.398,0,1.6888e+08,-16.59,12106,10985,1,10985,1,-0.000767,-4.058e-09,0,4.783e-06,-0.00015278,-3.1197e+08,-1327.2,0,2.056e+06,-600.28,10984,11579,1,11579,1,-0.0004152,-1.1927e-09,0,0.00022974,-7.5899e-05,-1.6888e+08,-393.12,0,8.706e+07,-45.888,11578,12634,1,12634,1,0.00040564,1.2518e-09,0,0.00064016,7.7892e-05,1.4966e+08,412.46,0,2.4042e+08,32.479,12633,611.88,0,611.88,0,0.00047456,1.9397e-09,0,0.00023761,8.8914e-05,1.8093e+08,638.65,0,8.9255e+07,81.339,611.88,1
2111,2.88,12107,1,12107,1,2.1693e-05,1.841e-12,0,0.00041272,-3.959e-06,-1.2116e+06,0.82869,0,1.5784e+08,-17.049,12106,13208,1,13208,1,0.00081917,1.7073e-09,0,0.00081917,0.00014433,2.8655e+08,584.63,0,3.1301e+08,89.858,13207,12107,1,12107,1,-4.619e-06,5.5195e-11,0,0.00041651,9.4008e-07,-1.9921e+06,17.9,0,1.6941e+08,-11.408,12106,10985,1,10985,1,-0.00076957,-1.9175e-09,0,4.6187e-06,-0.00015336,-3.1301e+08,-637.59,0,1.992e+06,-418.5,10984,11579,1,11579,1,-0.00041651,-5.2893e-10,0,0.00023075,-7.6203e-05,-1.6941e+08,-170.67,0,8.7395e+07,-34.664,11578,12634,1,12634,1,0.00040728,5.4151e-10,0,0.00064263,7.8138e-05,1.5015e+08,177.94,0,2.4121e+08,10.662,12633,611.88,0,611.88,0,0.00047626,8.274e-10,0,0.00023848,8.9232e-05,1.8149e+08,273.94,0,8.9528e+07,55.156,611.88,1
2111,2.89,12107,1,12107,1,2.1954e-05,-1.6363e-09,0,0.00041419,-4.0068e-06,-1.2155e+06,-536.36,0,1.5833e+08,-29.96,12106,13208,1,13208,1,0.00082229,7.8827e-10,0,0.00082229,0.00014481,2.8731e+08,269.35,0,3.1406e+08,94.904,13207,12107,1,12107,1,-4.4509e-06,-1.7718e-09,0,0.0004178,9.091e-07,-1.9266e+06,-579.8,0,1.6993e+08,-14.315,12106,10985,1,10985,1,-0.00077214,-4.1859e-09,0,4.4507e-06,-0.00015394,-3.1406e+08,-1367.9,0,1.9266e+06,-400.18,10984,11579,1,11579,1,-0.0004178,-2.6908e-09,0,0.00023174,-7.6509e-05,-1.6993e+08,-885,0,8.7728e+07,-59.7,11578,12634,1,12634,1,0.00040892,-5.7182e-10,0,0.00064509,7.838e-05,1.5064e+08,-180.02,0,2.4199e+08,17.531,12633,611.88,0,611.88,0,0.00047795,1.2491e-09,0,0.00023935,8.9549e-05,1.8205e+08,412.03,0,8.9799e+07,70.309,611.88,1
2111,2.9,12107,1,12107,1,2.2217e-05,-1.4185e-09,0,0.00041564,-4.0548e-06,-1.2193e+06,-467.24,0,1.5881e+08,-2.474,12106,13208,1,13208,1,0.00082536,3.7705e-09,0,0.00082536,0.00014529,2.8806e+08,1290.5,0,3.1509e+08,220.09,13207,12107,1,12107,1,-4.28e-06,-7.0997e-10,0,0.00041908,8.7756e-07,-1.86e+06,-226.3,0,1.7045e+08,-20.777,12106,10985,1,10985,1,-0.00077466,-8.1372e-09,0,4.2794e-06,-0.00015452,-3.1509e+08,-2682.9,0,1.8599e+06,-176.09,10984,11579,1,11579,1,-0.00041908,-3.1372e-09,0,0.00023274,-7.6812e-05,-1.7045e+08,-1018.7,0,8.8058e+07,-66.344,11578,12634,1,12634,1,0.00041054,5.1407e-10,0,0.00064753,7.862e-05,1.5113e+08,159.26,0,2.4276e+08,49.141,12633,611.88,0,611.88,0,0.00047963,2.8069e-09,0,0.0002402,8.9862e-05,1.826e+08,924.34,0,9.0066e+07,85.073,611.88,1
2111,2.91,12107,1,12107,1,2.2481e-05,-1.209e-09,0,0.00041712,-4.1032e-06,-1.2232e+06,-398.18,0,1.593e+08,-29.761,12106,13208,1,13208,1,0.00082848,2.1033e-09,0,0.00082848,0.00014577,2.8882e+08,720.3,0,3.1613e+08,195.5,13207,12107,1,12107,1,-4.1093e-06,-1.2697e-09,0,0.00042039,8.46e-07,-1.7937e+06,-411.57,0,1.7099e+08,-25.57,12106,10985,1,10985,1,-0.00077723,-4.1843e-09,0,4.1087e-06,-0.0001551,-3.1613e+08,-1400.2,0,1.7935e+06,-291.95,10984,11579,1,11579,1,-0.00042039,-2.2175e-09,0,0.00023375,-7.7119e-05,-1.7099e+08,-726.39,0,8.8394e+07,-63.179,11578,12634,1,12634,1,0.00041219,-1.4097e-11,0,0.00065003,7.8866e-05,1.5162e+08,-4.0858,0,2.4355e+08,14.621,12633,611.88,0,611.88,0,0.00048134,1.3289e-09,0,0.00024108,9.0182e-05,1.8316e+08,441.15,0,9.0339e+07,68.81,611.88,1
2111,2.92,12107,1,12107,1,2.2751e-05,-8.801e-11,0,0.00041859,-4.1526e-06,-1.2272e+06,-31.377,0,1.5978e+08,-24.069,12106,13208,1,13208,1,0.00083158,2.0672e-09,0,0.00083158,0.00014625,2.8957e+08,691.61,0,3.1716e+08,44.243,13207,12107,1,12107,1,-3.9345e-06,-3.5051e-11,0,0.00042169,8.1378e-07,-1.7257e+06,-11.96,0,1.7152e+08,-10.823,12106,10985,1,10985,1,-0.00077977,-1.7466e-09,0,3.9343e-06,-0.00015568,-3.1716e+08,-584.34,0,1.7256e+06,-387.24,10984,11579,1,11579,1,-0.00042169,-5.3564e-10,0,0.00023478,-7.7424e-05,-1.7152e+08,-179.35,0,8.8731e+07,-36.236,11578,12634,1,12634,1,0.00041382,2.9873e-10,0,0.00065253,7.911e-05,1.5211e+08,90.92,0,2.4434e+08,6.4174,12633,611.88,0,611.88,0,0.00048304,6.7572e-10,0,0.00024195,9.05e-05,1.8372e+08,224.32,0,9.061e+07,53.041,611.88,1
2111,2.93,12107,1,12107,1,2.3022e-05,1.0236e-09,0,0.00042006,-4.2021e-06,-1.2311e+06,334.25,0,1.6027e+08,-17.775,12106,13208,1,13208,1,0.00083469,3.0123e-09,0,0.00083469,0.00014672,2.9032e+08,1007.6,0,3.182e+08,78.607,13207,12107,1,12107,1,-3.7584e-06,1.1291e-09,0,0.00042298,7.8119e-07,-1.6573e+06,362.65,0,1.7204e+08,-8.896,12106,10985,1,10985,1,-0.00078232,-4.5246e-10,0,3.7582e-06,-0.00015626,-3.182e+08,-154.97,0,1.6572e+06,-501.14,10984,11579,1,11579,1,-0.00042298,4.8235e-10,0,0.00023579,-7.773e-05,-1.7204e+08,159.59,0,8.9066e+07,-31.638,11578,12634,1,12634,1,0.00041547,1.5418e-09,0,0.00065501,7.9352e-05,1.526e+08,506.05,0,2.4512e+08,12.153,12633,611.88,0,611.88,0,0.00048474,6.9894e-10,0,0.00024282,9.0818e-05,1.8427e+08,229.98,0,9.0879e+07,66.882,611.88,1
2111,2.94,12107,1,12107,1,2.3293e-05,-5.7547e-10,0,0.00042151,-4.2517e-06,-1.235e+06,-186.77,0,1.6074e+08,-6.3883,12106,13208,1,13208,1,0.00083778,5.2753e-09,0,0.00083778,0.0001472,2.9105e+08,1764.5,0,3.1923e+08,146.39,13207,12107,1,12107,1,-3.5798e-06,-7.6496e-11,0,0.00042425,7.4817e-07,-1.5878e+06,-24.574,0,1.7256e+08,-7.3699,12106,10985,1,10985,1,-0.00078484,-6.1788e-09,0,3.5794e-06,-0.00015683,-3.1923e+08,-2066.6,0,1.5877e+06,-718.81,10984,11579,1,11579,1,-0.00042425,-2.1285e-09,0,0.0002368,-7.8034e-05,-1.7256e+08,-687.1,0,8.9397e+07,-48.339,11578,12634,1,12634,1,0.0004171,8.3524e-10,0,0.00065747,7.9591e-05,1.5308e+08,277.85,0,2.4589e+08,52.347,12633,611.88,0,611.88,0,0.00048641,2.3614e-09,0,0.00024368,9.1131e-05,1.8482e+08,774.34,0,9.1145e+07,89.583,611.88,1
2111,2.95,12107,1,12107,1,2.3566e-05,8.9801e-11,0,0.00042299,-4.3016e-06,-1.2389e+06,28.833,0,1.6123e+08,-21.213,12106,13208,1,13208,1,0.0008409,1.6768e-09,0,0.0008409,0.00014768,2.918e+08,560.65,0,3.2026e+08,84.672,13207,12107,1,12107,1,-3.4016e-06,1.2306e-10,0,0.00042555,7.153e-07,-1.5186e+06,38.24,0,1.7309e+08,-12.298,12106,10985,1,10985,1,-0.0007874,-2.4891e-09,0,3.4013e-06,-0.00015742,-3.2026e+08,-832.43,0,1.5185e+06,-790.45,10984,11579,1,11579,1,-0.00042555,-1.7978e-10,0,0.00023782,-7.8342e-05,-1.7309e+08,-59.03,0,8.9735e+07,-32.228,11578,12634,1,12634,1,0.00041875,5.2149e-10,0,0.00065997,7.9836e-05,1.5357e+08,169.69,0,2.4667e+08,5.0097,12633,611.88,0,611.88,0,0.00048812,5.8352e-10,0,0.00024456,9.1451e-05,1.8537e+08,193.67,0,9.1416e+07,73.555,611.88,1
2111,2.96,12107,1,12107,1,2.3843e-05,6.0494e-10,0,0.00042447,-4.3523e-06,-1.243e+06,197.85,0,1.6171e+08,4.4463,12106,13208,1,13208,1,0.00084403,3.8108e-09,0,0.00084403,0.00014816,2.9255e+08,1242.2,0,3.213e+08,130.37,13207,12107,1,12107,1,-3.2186e-06,2.1435e-10,0,0.00042684,6.833e-07,-1.4474e+06,69.975,0,1.7361e+08,6.4053,12106,10985,1,10985,1,-0.00078995,-1.0285e-09,0,3.2183e-06,-0.000158,-3.213e+08,-344.73,0,1.4473e+06,-293.84,10984,11579,1,11579,1,-0.00042684,-2.1361e-10,0,0.00023885,-7.865e-05,-1.7361e+08,-65.202,0,9.0071e+07,-20.519,11578,12634,1,12634,1,0.00042041,1.2947e-09,0,0.00066246,8.0077e-05,1.5406e+08,419.22,0,2.4745e+08,37.189,12633,611.88,0,611.88,0,0.00048982,1.1228e-09,0,0.00024543,9.1769e-05,1.8593e+08,369.03,0,9.1685e+07,50.466,611.88,1
2111,2.97,12107,1,12107,1,2.4122e-05,-5.398e-11,0,0.00042593,-4.4032e-06,-1.2467e+06,-16.685,0,1.6219e+08,-3.679,12106,13208,1,13208,1,0.00084713,2.9451e-09,0,0.00084713,0.00014863,2.9327e+08,977.97,0,3.2233e+08,125.43,13207,12107,1,12107,1,-3.0329e-06,9.14e-11,0,0.00042811,6.4948e-07,-1.3753e+06,28.268,0,1.7413e+08,-3.0071,12106,10985,1,10985,1,-0.00079247,-2.5185e-09,0,3.0327e-06,-0.00015858,-3.2233e+08,-826.72,0,1.3752e+06,-156.68,10984,11579,1,11579,1,-0.00042811,-8.3753e-10,0,0.00023987,-7.8956e-05,-1.7413e+08,-275.77,0,9.0405e+07,-35.363,11578,12634,1,12634,1,0.00042205,5.8775e-10,0,0.00066494,8.0316e-05,1.5454e+08,193.48,0,2.4822e+08,25.001,12633,611.88,0,611.88,0,0.00049151,1.2107e-09,0,0.00024629,9.2084e-05,1.8647e+08,397.74,0,9.195e+07,42.423,611.88,1
2111,2.98,12107,1,12107,1,2.4402e-05,-7.9899e-10,0,0.0004274,-4.4545e-06,-1.2505e+06,-261.09,0,1.6267e+08,-16.101,12106,13208,1,13208,1,0.00085027,4.1404e-10,0,0.00085027,0.00014911,2.9402e+08,141.81,0,3.2337e+08,64.176,13207,12107,1,12107,1,-2.8474e-06,-9.0807e-10,0,0.00042939,6.1558e-07,-1.3032e+06,-297.06,0,1.7465e+08,-13.32,12106,10985,1,10985,1,-0.00079502,-1.9442e-09,0,2.8472e-06,-0.00015916,-3.2337e+08,-633.2,0,1.3032e+06,-123.88,10984,11579,1,11579,1,-0.00042939,-1.2206e-09,0,0.00024089,-7.9266e-05,-1.7465e+08,-399.1,0,9.0741e+07,-30.472,11578,12634,1,12634,1,0.00042371,-3.5083e-10,0,0.00066744,8.0558e-05,1.5503e+08,-110.99,0,2.49e+08,-0.62339,12633,611.88,0,611.88,0,0.00049321,5.7482e-10,0,0.00024717,9.2403e-05,1.8702e+08,188.91,0,9.2219e+07,24.786,611.88,1
2111,2.99,12107,1,12107,1,2.4684e-05,1.5523e-09,0,0.00042887,-4.5061e-06,-1.2545e+06,505.6,0,1.6315e+08,11.568,12106,13208,1,13208,1,0.00085339,4.4905e-09,0,0.00085339,0.00014958,2.9475e+08,1462,0,3.244e+08,172.09,13207,12107,1,12107,1,-2.6573e-06,1.5067e-09,0,0.00043066,5.8092e-07,-1.2294e+06,494.27,0,1.7517e+08,5.9153,12106,10985,1,10985,1,-0.00079756,-7.0591e-10,0,2.6572e-06,-0.00015975,-3.244e+08,-241.77,0,1.2294e+06,-182.96,10984,11579,1,11579,1,-0.00043066,4.9516e-10,0,0.00024192,-7.9574e-05,-1.7517e+08,157.59,0,9.1076e+07,-14.32,11578,12634,1,12634,1,0.00042536,2.4602e-09,0,0.00066992,8.0796e-05,1.5552e+08,799.62,0,2.4977e+08,36.944,12633,611.88,0,611.88,0,0.0004949,1.2627e-09,0,0.00024804,9.2719e-05,1.8757e+08,413.15,0,9.2485e+07,52.53,611.88,1
2111,3,12107,1,12107,1,2.4969e-05,-4.1068e-10,0,0.00043034,-4.5582e-06,-1.2584e+06,-132.24,0,1.6363e+08,-1.3568,12106,13208,1,13208,1,0.00085651,5.2831e-10,0,0.00085651,0.00015006,2.9548e+08,180.93,0,3.2543e+08,123.78,13207,12107,1,12107,1,-2.4672e-06,-3.8313e-10,0,0.00043195,5.4608e-07,-1.1557e+06,-122.22,0,1.7569e+08,-0.87764,12106,10985,1,10985,1,-0.0008001,-1.3208e-09,0,2.4668e-06,-0.00016033,-3.2543e+08,-418.89,0,1.1555e+06,-173.53,10984,11579,1,11579,1,-0.00043195,-8.1021e-10,0,0.00024295,-7.9883e-05,-1.7569e+08,-265.46,0,9.1415e+07,-18.766,11578,12634,1,12634,1,0.00042702,-4.255e-12,0,0.00067244,8.1039e-05,1.5601e+08,-1.3449,0,2.5056e+08,15.307,12633,611.88,0,611.88,0,0.00049661,4.7062e-10,0,0.00024891,9.3038e-05,1.8812e+08,152.38,0,9.2753e+07,43.229,611.88,1
2111,3.01,12107,1,12107,1,2.5256e-05,5.0428e-10,0,0.0004318,-4.6107e-06,-1.2622e+06,164.49,0,1.641e+08,24.621,12106,13208,1,13208,1,0.00085961,7.1107e-09,0,0.00085961,0.00015053,2.9619e+08,2338.2,0,3.2645e+08,233.43,13207,12107,1,12107,1,-2.2732e-06,9.3884e-11,0,0.00043321,5.1051e-07,-1.0804e+06,30.753,0,1.762e+08,17.36,12106,10985,1,10985,1,-0.0008026,-2.7406e-09,0,2.273e-06,-0.00016091,-3.2645e+08,-897.34,0,1.0803e+06,-189.18,10984,11579,1,11579,1,-0.00043321,-9.1773e-10,0,0.00024398,-8.019e-05,-1.762e+08,-303.98,0,9.1747e+07,-19.561,11578,12634,1,12634,1,0.00042867,1.5212e-09,0,0.00067491,8.1275e-05,1.5649e+08,488.44,0,2.5132e+08,78.856,12633,611.88,0,611.88,0,0.00049828,2.1603e-09,0,0.00024978,9.3351e-05,1.8866e+08,707.37,0,9.3015e+07,65.427,611.88,1
2111,3.02,12107,1,12107,1,2.5543e-05,-3.4167e-10,0,0.00043327,-4.6633e-06,-1.2662e+06,-111.12,0,1.6458e+08,0.97991,12106,13208,1,13208,1,0.00086275,2.3333e-09,0,0.00086275,0.00015101,2.9692e+08,799.03,0,3.2748e+08,157.83,13207,12107,1,12107,1,-2.0798e-06,-2.539e-10,0,0.00043449,4.7518e-07,-1.0054e+06,-83.312,0,1.7672e+08,-2.0454,12106,10985,1,10985,1,-0.00080514,-2.607e-09,0,2.0795e-06,-0.00016149,-3.2748e+08,-870.76,0,1.0053e+06,-129.32,10984,11579,1,11579,1,-0.00043449,-9.5201e-10,0,0.00024501,-8.0501e-05,-1.7672e+08,-308.79,0,9.2085e+07,-29.875,11578,12634,1,12634,1,0.00043034,3.3376e-10,0,0.00067742,8.1515e-05,1.5697e+08,103.55,0,2.521e+08,29.864,12633,611.88,0,611.88,0,0.00049999,9.7804e-10,0,0.00025065,9.367e-05,1.8921e+08,321.64,0,9.3282e+07,44.965,611.88,1
2111,3.03,12107,1,12107,1,2.5836e-05,-1.576e-09,0,0.00043473,-4.7168e-06,-1.2697e+06,-514.47,0,1.6505e+08,-15.76,12106,13208,1,13208,1,0.0008659,3.2572e-09,0,0.0008659,0.00015148,2.9765e+08,1097.2,0,3.2851e+08,161.38,13207,12107,1,12107,1,-1.8808e-06,-1.1401e-09,0,0.00043575,4.3853e-07,-9.2823e+05,-356.59,0,1.7723e+08,-10.734,12106,10985,1,10985,1,-0.00080768,-7.1804e-09,0,1.8805e-06,-0.00016208,-3.2851e+08,-2334.1,0,9.281e+05,-378.85,10984,11579,1,11579,1,-0.00043575,-3.4953e-09,0,0.00024604,-8.0812e-05,-1.7723e+08,-1138.1,0,9.242e+07,-76.61,11578,12634,1,12634,1,0.00043201,3.2079e-10,0,0.00067991,8.1752e-05,1.5746e+08,101.8,0,2.5286e+08,51.645,12633,611.88,0,611.88,0,0.00050168,2.4377e-09,0,0.00025152,9.3986e-05,1.8975e+08,799.27,0,9.3546e+07,91.554,611.88,1
2111,3.04,12107,1,12107,1,2.613e-05,6.2654e-10,0,0.00043622,-4.7706e-06,-1.2738e+06,201.29,0,1.6554e+08,-16.072,12106,13208,1,13208,1,0.00086904,1.7475e-09,0,0.00086904,0.00015196,2.9837e+08,551.4,0,3.2954e+08,54.632,13207,12107,1,12107,1,-1.6808e-06,5.9696e-10,0,0.00043704,4.0238e-07,-8.5066e+05,195.99,0,1.7776e+08,-15.804,12106,10985,1,10985,1,-0.00081021,-3.2088e-10,0,1.6805e-06,-0.00016267,-3.2954e+08,-109.9,0,8.5054e+05,-128.71,10984,11579,1,11579,1,-0.00043704,2.4777e-10,0,0.00024709,-8.1123e-05,-1.7776e+08,76.878,0,9.2762e+07,-31.591,11578,12634,1,12634,1,0.00043368,9.558e-10,0,0.00068245,8.1994e-05,1.5794e+08,306.37,0,2.5365e+08,0.67951,12633,611.88,0,611.88,0,0.0005034,4.8715e-10,0,0.00025241,9.4307e-05,1.903e+08,154.66,0,9.3814e+07,23.278,611.88,1
2111,3.05,12107,1,12107,1,2.6428e-05,4.9363e-10,0,0.00043769,-4.8251e-06,-1.2775e+06,161.03,0,1.6601e+08,-2.6275,12106,13208,1,13208,1,0.00087219,2.9486e-09,0,0.00087219,0.00015243,2.9908e+08,957.73,0,3.3057e+08,123.88,13207,12107,1,12107,1,-1.4779e-06,1.3858e-10,0,0.00043831,3.6503e-07,-7.7201e+05,46.06,0,1.7827e+08,-0.70424,12106,10985,1,10985,1,-0.00081274,-4.1602e-10,0,1.4777e-06,-0.00016325,-3.3057e+08,-120.21,0,7.7196e+05,-135.06,10984,11579,1,11579,1,-0.00043831,-1.6814e-11,0,0.00024814,-8.1435e-05,-1.7827e+08,-5.2475,0,9.31e+07,-22.551,11578,12634,1,12634,1,0.00043535,8.0578e-10,0,0.00068496,8.2232e-05,1.5843e+08,259.62,0,2.5442e+08,16.766,12633,611.88,0,611.88,0,0.00050509,7.283e-10,0,0.00025328,9.4625e-05,1.9084e+08,238.35,0,9.4078e+07,38.206,611.88,1
2111,3.06,12107,1,12107,1,2.6724e-05,8.4461e-10,0,0.00043913,-4.8792e-06,-1.2815e+06,276.35,0,1.6647e+08,16.504,12106,13208,1,13208,1,0.00087528,8.8795e-09,0,0.00087528,0.0001529,2.9977e+08,2907.1,0,3.3158e+08,306.28,13207,12107,1,12107,1,-1.2736e-06,2.5414e-10,0,0.00043954,3.2772e-07,-6.9283e+05,79.466,0,1.7877e+08,9.5496,12106,10985,1,10985,1,-0.00081521,-4.3154e-09,0,1.2729e-06,-0.00016383,-3.3158e+08,-1411,0,6.9257e+05,-255.41,10984,11579,1,11579,1,-0.00043954,-5.2883e-10,0,0.00024916,-8.1742e-05,-1.7877e+08,-171.94,0,9.343e+07,-39.645,11578,12634,1,12634,1,0.000437,2.0211e-09,0,0.00068742,8.2463e-05,1.589e+08,650.79,0,2.5517e+08,60.815,12633,611.88,0,611.88,0,0.00050675,2.5438e-09,0,0.00025414,9.4935e-05,1.9137e+08,832.03,0,9.4334e+07,81.49,611.88,1
2111,3.07,12107,1,12107,1,2.7021e-05,4.9684e-10,0,0.00044062,-4.9337e-06,-1.2853e+06,163.21,0,1.6695e+08,-14.331,12106,13208,1,13208,1,0.00087844,3.4658e-09,0,0.00087844,0.00015337,3.005e+08,1150.1,0,3.3262e+08,104.62,13207,12107,1,12107,1,-1.0704e-06,2.2132e-10,0,0.00044082,2.9051e-07,-6.1416e+05,70.13,0,1.793e+08,-16.812,12106,10985,1,10985,1,-0.00081776,-1.2071e-09,0,1.0698e-06,-0.00016442,-3.3262e+08,-408.82,0,6.1395e+05,-143.73,10984,11579,1,11579,1,-0.00044082,-1.0266e-10,0,0.00025021,-8.2056e-05,-1.793e+08,-34.489,0,9.3772e+07,-40.41,11578,12634,1,12634,1,0.00043869,9.8234e-10,0,0.00068996,8.2705e-05,1.5939e+08,322.96,0,2.5595e+08,10.446,12633,611.88,0,611.88,0,0.00050847,9.6986e-10,0,0.00025503,9.5257e-05,1.9192e+08,321,0,9.4603e+07,39.707,611.88,1
2111,3.08,12107,1,12107,1,2.7326e-05,1.1589e-09,0,0.0004421,-4.9894e-06,-1.2893e+06,378.11,0,1.6742e+08,5.3557,12106,13208,1,13208,1,0.00088161,4.5173e-09,0,0.00088161,0.00015385,3.0121e+08,1465.5,0,3.3365e+08,127.69,13207,12107,1,12107,1,-8.602e-07,8.9408e-10,0,0.00044208,2.5204e-07,-5.3276e+05,287.76,0,1.7981e+08,-0.072083,12106,10985,1,10985,1,-0.0008203,-5.353e-10,0,8.5964e-07,-0.00016501,-3.3365e+08,-176.96,0,5.3256e+05,-176.17,10984,11579,1,11579,1,-0.00044208,2.7153e-10,0,0.00025127,-8.2371e-05,-1.7981e+08,87.967,0,9.4111e+07,-13.955,11578,12634,1,12634,1,0.00044038,1.8576e-09,0,0.00069249,8.2942e-05,1.5987e+08,598.51,0,2.5672e+08,22.465,12633,611.88,0,611.88,0,0.00051018,1.1447e-09,0,0.00025591,9.5576e-05,1.9246e+08,376.75,0,9.4866e+07,40.042,611.88,1
2111,3.09,12107,1,12107,1,2.7631e-05,-1.0817e-09,0,0.00044356,-5.0453e-06,-1.2931e+06,-349.38,0,1.6789e+08,-1.7646,12106,13208,1,13208,1,0.00088475,1.8269e-09,0,0.00088475,0.00015432,3.0191e+08,625.15,0,3.3467e+08,120.91,13207,12107,1,12107,1,-6.4794e-07,-8.2311e-10,0,0.00044334,2.1324e-07,-4.5057e+05,-259.7,0,1.8032e+08,-0.60527,12106,10985,1,10985,1,-0.0008228,-4.2526e-09,0,6.4762e-07,-0.0001656,-3.3467e+08,-1379.1,0,4.5046e+05,-183.86,10984,11579,1,11579,1,-0.00044334,-2.2302e-09,0,0.00025232,-8.2682e-05,-1.8032e+08,-718.48,0,9.4448e+07,-34.471,11578,12634,1,12634,1,0.00044205,4.5878e-11,0,0.000695,8.3177e-05,1.6035e+08,15.401,0,2.5749e+08,34.808,12633,611.88,0,611.88,0,0.00051187,1.4911e-09,0,0.00025678,9.5892e-05,1.93e+08,486.79,0,9.5127e+07,48.36,611.88,1
2111,3.1,12107,1,12107,1,2.7938e-05,1.2704e-09,0,0.00044503,-5.1014e-06,-1.2968e+06,412.12,0,1.6836e+08,1.6317,12106,13208,1,13208,1,0.0008879,6.7103e-09,0,0.0008879,0.00015479,3.0261e+08,2182.2,0,3.3569e+08,130.65,13207,12107,1,12107,1,-4.3487e-07,6.7173e-10,0,0.00044459,1.7413e-07,-3.6812e+05,218.54,0,1.8083e+08,-3.5998,12106,10985,1,10985,1,-0.00082532,-2.4607e-09,0,4.3459e-07,-0.00016618,-3.3569e+08,-816.47,0,3.6801e+05,-222.53,10984,11579,1,11579,1,-0.00044459,-2.6194e-10,0,0.00025337,-8.2996e-05,-1.8083e+08,-83.619,0,9.4787e+07,-41.071,11578,12634,1,12634,1,0.00044373,2.8013e-09,0,0.00069752,8.3413e-05,1.6083e+08,901.23,0,2.5826e+08,44.184,12633,611.88,0,611.88,0,0.00051357,2.1396e-09,0,0.00025766,9.621e-05,1.9354e+08,700.28,0,9.5389e+07,56.439,611.88,1
2111,3.11,12107,1,12107,1,2.8249e-05,-1.9279e-09,0,0.0004465,-5.1583e-06,-1.3001e+06,-625.05,0,1.6883e+08,-35.966,12106,13208,1,13208,1,0.00089106,3.0507e-09,0,0.00089106,0.00015526,3.0331e+08,1044.4,0,3.3671e+08,239.8,13207,12107,1,12107,1,-2.1785e-07,-1.697e-09,0,0.00044584,1.3438e-07,-2.8413e+05,-544.33,0,1.8134e+08,-33.372,12106,10985,1,10985,1,-0.00082784,-7.0382e-09,0,2.1765e-07,-0.00016677,-3.3671e+08,-2280.6,0,2.8406e+05,-250.97,10984,11579,1,11579,1,-0.00044584,-4.0173e-09,0,0.00025442,-8.331e-05,-1.8134e+08,-1302.9,0,9.5124e+07,-87.904,11578,12634,1,12634,1,0.00044542,1.1798e-10,0,0.00070004,8.3647e-05,1.6131e+08,38.632,0,2.5902e+08,13.507,12633,611.88,0,611.88,0,0.00051527,2.4617e-09,0,0.00025853,9.6526e-05,1.9407e+08,805.05,0,9.565e+07,75.839,611.88,1
2111,3.12,12107,1,12107,1,2.8559e-05,-1.9204e-10,0,0.00044798,-5.2149e-06,-1.3047e+06,-64.713,0,1.693e+08,-4.1665,12106,13208,1,13208,1,0.00089421,4.4663e-09,0,0.00089421,0.00015573,3.04e+08,1470.7,0,3.3773e+08,148.36,13207,12107,1,12107,1,-1.6835e-09,-7.7492e-11,0,0.0004471,9.4896e-08,-2.0055e+05,-24.95,0,1.8185e+08,-4.5926,12106,10985,1,10985,1,-0.00083034,-4.2937e-09,0,3.7274e-09,-0.00016736,-3.3773e+08,-1413.7,0,2.0044e+05,-158.41,10984,11579,1,11579,1,-0.0004471,-1.6375e-09,0,0.00025548,-8.3624e-05,-1.8185e+08,-523.97,0,9.5464e+07,-47.81,11578,12634,1,12634,1,0.0004471,1.157e-09,0,0.00070257,8.3884e-05,1.6179e+08,364.46,0,2.5979e+08,39.084,12633,611.88,0,611.88,0,0.00051697,2.0839e-09,0,0.00025941,9.6845e-05,1.9461e+08,683.44,0,9.5912e+07,57.799,611.88,1
2111,3.13,12107,1,12107,1,2.8874e-05,-1.0377e-10,0,0.00044947,-5.2725e-06,-1.3083e+06,-34.41,0,1.6977e+08,-2.5037,12106,13208,1,13208,1,0.00089738,3.5722e-09,0,0.00089738,0.00015621,3.047e+08,1178.2,0,3.3876e+08,99.476,13207,12107,1,12107,1,2.1835e-07,3.7601e-11,0,0.00044879,5.4503e-08,-1.1547e+05,12.057,0,1.8236e+08,-5.2939,12106,10985,1,10985,1,-0.00083286,-3.0777e-09,0,2.1706e-07,-0.00016795,-3.3876e+08,-1009.9,0,1.1531e+05,-151.91,10984,11579,1,11579,1,-0.00044835,-1.0913e-09,0,0.00025611,-8.3939e-05,-1.8236e+08,-359.34,0,9.5805e+07,-36.392,11578,12634,1,12634,1,0.0004488,7.08e-10,0,0.00070468,8.412e-05,1.6227e+08,227.59,0,2.6055e+08,34.191,12633,611.88,0,611.88,0,0.00051867,1.4946e-09,0,0.00026027,9.7164e-05,1.9515e+08,490.51,0,9.6173e+07,45.082,611.88,1
2111,3.14,12107,1,12107,1,2.9191e-05,-6.0611e-10,0,0.00045096,-5.3306e-06,-1.3122e+06,-197.16,0,1.7024e+08,-5.7394,12106,13208,1,13208,1,0.00090055,2.3168e-09,0,0.00090055,0.00015668,3.0539e+08,763.62,0,3.3978e+08,74.001,13207,12107,1,12107,1,4.4128e-07,-3.4777e-10,0,0.00045048,1.3744e-08,-29296,-110.01,0,1.8287e+08,-7.2783,12106,10985,1,10985,1,-0.00083537,-3.4905e-09,0,4.4021e-07,-0.00016854,-3.3978e+08,-1141.7,0,29181,-127.76,10984,11579,1,11579,1,-0.0004496,-1.5894e-09,0,0.00025673,-8.4255e-05,-1.8287e+08,-504.05,0,9.6145e+07,-30.514,11578,12634,1,12634,1,0.00045049,2.9995e-10,0,0.00070677,8.4355e-05,1.6275e+08,95.586,0,2.6132e+08,21.515,12633,611.88,0,611.88,0,0.00052038,1.3629e-09,0,0.00026112,9.7482e-05,1.9568e+08,446.96,0,9.6434e+07,35.189,611.88,1
2111,3.15,12107,1,12107,1,2.9511e-05,-2.6828e-10,0,0.00045245,-5.3891e-06,-1.3159e+06,-88.263,0,1.7071e+08,-12.976,12106,13208,1,13208,1,0.00090373,1.6254e-09,0,0.00090373,0.00015715,3.0608e+08,556.61,0,3.408e+08,114.39,13207,12107,1,12107,1,6.6719e-07,-1.4951e-10,0,0.00045219,-2.7659e-08,58002,-47.937,0,1.8338e+08,-12.591,12106,10985,1,10985,1,-0.00083789,-1.9711e-09,0,6.6588e-07,-0.00016914,-3.408e+08,-645.38,0,57506,-203.08,10984,11579,1,11579,1,-0.00045086,-7.9478e-10,0,0.00025735,-8.4572e-05,-1.8338e+08,-263.11,0,9.6487e+07,-39.11,11578,12634,1,12634,1,0.0004522,2.4487e-10,0,0.00070887,8.459e-05,1.6323e+08,75.853,0,2.6209e+08,13.262,12633,611.88,0,611.88,0,0.00052209,7.755e-10,0,0.00026198,9.7802e-05,1.9622e+08,254.96,0,9.6688e+07,42.723,611.88,1
2111,3.16,12107,1,12107,1,2.9833e-05,-1.3721e-09,0,0.00045395,-5.4481e-06,-1.3197e+06,-445.86,0,1.7118e+08,-4.7204,12106,13208,1,13208,1,0.00090692,1.8171e-09,0,0.00090692,0.00015762,3.0677e+08,622.25,0,3.4183e+08,184.03,13207,12107,1,12107,1,8.952e-07,-9.3949e-10,0,0.00045388,-6.9516e-08,1.4608e+05,-304.27,0,1.8388e+08,-6.8792,12106,10985,1,10985,1,-0.00084041,-5.9579e-09,0,8.9398e-07,-0.00016973,-3.4183e+08,-1926.5,0,1.4564e+05,-310.14,10984,11579,1,11579,1,-0.0004521,-2.792e-09,0,0.00025796,-8.489e-05,-1.8388e+08,-903.2,0,9.6826e+07,-53.103,11578,12634,1,12634,1,0.00045391,2.7933e-10,0,0.00071095,8.4823e-05,1.6371e+08,89.719,0,2.6285e+08,41.73,12633,611.88,0,611.88,0,0.00052379,1.9132e-09,0,0.00026284,9.812e-05,1.9675e+08,623.84,0,9.6936e+07,74.74,611.88,1
2111,3.17,12107,1,12107,1,3.0157e-05,-2.2064e-11,0,0.00045544,-5.5073e-06,-1.3236e+06,-9.705,0,1.7165e+08,-12.074,12106,13208,1,13208,1,0.00091008,6.0997e-10,0,0.00091008,0.00015809,3.0745e+08,191.56,0,3.4284e+08,45.821,13207,12107,1,12107,1,1.1241e-06,2.05e-11,0,0.0004556,-1.1126e-07,2.3454e+05,6.4852,0,1.8439e+08,-9.2123,12106,10985,1,10985,1,-0.0008429,-1.204e-09,0,1.1233e-06,-0.00017032,-3.4284e+08,-412.21,0,2.3418e+05,-123.13,10984,11579,1,11579,1,-0.00045335,-1.8645e-10,0,0.00025858,-8.5205e-05,-1.8439e+08,-63.009,0,9.7169e+07,-23.929,11578,12634,1,12634,1,0.0004556,2.2715e-10,0,0.00071305,8.5059e-05,1.6418e+08,71.09,0,2.6362e+08,2.0855,12633,611.88,0,611.88,0,0.0005255,3.6235e-10,0,0.00026369,9.844e-05,1.9729e+08,118.61,0,9.7186e+07,21.206,611.88,1
2111,3.18,12107,1,12107,1,3.0484e-05,1.8769e-09,0,0.00045692,-5.567e-06,-1.3275e+06,608.56,0,1.7212e+08,14.175,12106,13208,1,13208,1,0.00091327,8.5183e-09,0,0.00091327,0.00015856,3.0813e+08,2752.3,0,3.4386e+08,209.61,13207,12107,1,12107,1,1.3572e-06,1.1061e-09,0,0.00045729,-1.5406e-07,3.2448e+05,352.57,0,1.8489e+08,12.273,12106,10985,1,10985,1,-0.00084542,-8.6656e-10,0,1.3563e-06,-0.00017091,-3.4386e+08,-296.8,0,3.2416e+05,-250.41,10984,11579,1,11579,1,-0.00045458,1.2266e-10,0,0.00025918,-8.5524e-05,-1.8489e+08,38.524,0,9.7508e+07,-27.327,11578,12634,1,12634,1,0.00045731,3.1468e-09,0,0.00071511,8.529e-05,1.6466e+08,1003,0,2.6437e+08,46.857,12633,611.88,0,611.88,0,0.00052719,2.202e-09,0,0.00026454,9.8756e-05,1.9781e+08,717.52,0,9.7431e+07,64.248,611.88,1
2111,3.19,12107,1,12107,1,3.0812e-05,-1.492e-09,0,0.00045842,-5.6272e-06,-1.3311e+06,-480.3,0,1.7259e+08,-17.925,12106,13208,1,13208,1,0.00091645,1.0051e-09,0,0.00091645,0.00015903,3.0881e+08,344.24,0,3.4488e+08,96.637,13207,12107,1,12107,1,1.5921e-06,-1.2714e-09,0,0.00045901,-1.9695e-07,4.1518e+05,-396.72,0,1.854e+08,-14.289,12106,10985,1,10985,1,-0.00084793,-5.0778e-09,0,1.5899e-06,-0.00017151,-3.4488e+08,-1639.9,0,4.143e+05,-261.21,10984,11579,1,11579,1,-0.00045582,-2.7588e-09,0,0.00025979,-8.5842e-05,-1.854e+08,-881.3,0,9.785e+07,-49.054,11578,12634,1,12634,1,0.00045902,-1.5122e-10,0,0.0007172,8.5524e-05,1.6514e+08,-45.091,0,2.6513e+08,18.814,12633,611.88,0,611.88,0,0.0005289,1.5508e-09,0,0.0002654,9.9076e-05,1.9835e+08,504.06,0,9.768e+07,56.243,611.88,1
2111,3.2,12107,1,12107,1,3.1144e-05,-9.3892e-10,0,0.00045991,-5.6878e-06,-1.3349e+06,-305.88,0,1.7306e+08,-15.08,12106,13208,1,13208,1,0.00091963,9.7385e-10,0,0.00091963,0.0001595,3.0947e+08,333.49,0,3.4589e+08,94.717,13207,12107,1,12107,1,1.8295e-06,-7.9188e-10,0,0.00046071,-2.4055e-07,5.0676e+05,-253.1,0,1.859e+08,-11.247,12106,10985,1,10985,1,-0.00085041,-3.7325e-09,0,1.8277e-06,-0.0001721,-3.4589e+08,-1210.1,0,5.061e+05,-227.63,10984,11579,1,11579,1,-0.00045705,-1.7239e-09,0,0.00026039,-8.616e-05,-1.859e+08,-559.01,0,9.8191e+07,-43.197,11578,12634,1,12634,1,0.00046073,5.4668e-11,0,0.00071927,8.5755e-05,1.6561e+08,16.656,0,2.6589e+08,17.787,12633,611.88,0,611.88,0,0.0005306,1.1178e-09,0,0.00026625,9.9393e-05,1.9887e+08,366.18,0,9.7925e+07,50.047,611.88,1
2111,3.21,12107,1,12107,1,3.1475e-05,-8.0802e-10,0,0.00046138,-5.7485e-06,-1.3385e+06,-263.24,0,1.7352e+08,-0.46485,12106,13208,1,13208,1,0.00092279,7.4834e-09,0,0.00092279,0.00015996,3.1014e+08,2432.6,0,3.469e+08,206.46,13207,12107,1,12107,1,2.0685e-06,-3.0113e-10,0,0.0004624,-2.8434e-07,5.9896e+05,-91.317,0,1.8639e+08,-11.031,12106,10985,1,10985,1,-0.00085288,-8.116e-09,0,2.0664e-06,-0.00017269,-3.469e+08,-2618.8,0,5.9815e+05,-229.72,10984,11579,1,11579,1,-0.00045827,-3.332e-09,0,0.00026098,-8.6476e-05,-1.8639e+08,-1087.1,0,9.8528e+07,-65.198,11578,12634,1,12634,1,0.00046243,1.3403e-09,0,0.00072132,8.5984e-05,1.6608e+08,436.35,0,2.6664e+08,69.785,12633,611.88,0,611.88,0,0.00053228,3.6285e-09,0,0.0002671,9.9708e-05,1.9939e+08,1180,0,9.8166e+07,90.999,611.88,1
2111,3.22,12107,1,12107,1,3.181e-05,-5.8247e-10,0,0.0004629,-5.8097e-06,-1.3425e+06,-191,0,1.74e+08,-27.404,12106,13208,1,13208,1,0.00092601,1.2244e-09,0,0.00092601,0.00016044,3.1082e+08,419.29,0,3.4793e+08,75.619,13207,12107,1,12107,1,2.308e-06,-2.3619e-10,0,0.00046414,-3.2827e-07,6.9128e+05,-76.948,0,1.8691e+08,-25.461,12106,10985,1,10985,1,-0.00085542,-3.2556e-09,0,2.3054e-06,-0.00017329,-3.4793e+08,-1072.5,0,6.9028e+05,-225.12,10984,11579,1,11579,1,-0.00045953,-1.352e-09,0,0.0002616,-8.6799e-05,-1.8691e+08,-439.03,0,9.8875e+07,-60.319,11578,12634,1,12634,1,0.00046416,1.9754e-10,0,0.00072344,8.6221e-05,1.6657e+08,63.783,0,2.6741e+08,9.3892,12633,611.88,0,611.88,0,0.00053402,1.0644e-09,0,0.00026797,0.00010003,1.9993e+08,351.93,0,9.8418e+07,50.637,611.88,1
2111,3.23,12107,1,12107,1,3.2151e-05,-1.2569e-09,0,0.00046438,-5.872e-06,-1.3462e+06,-407.73,0,1.7445e+08,0.22743,12106,13208,1,13208,1,0.00092919,3.4288e-09,0,0.00092919,0.0001609,3.1148e+08,1125,0,3.4894e+08,208.97,13207,12107,1,12107,1,2.5546e-06,-5.5767e-10,0,0.00046585,-3.7349e-07,7.8634e+05,-180.05,0,1.874e+08,1.2321,12106,10985,1,10985,1,-0.0008579,-7.2532e-09,0,2.5529e-06,-0.00017388,-3.4894e+08,-2338.4,0,7.857e+05,-898.12,10984,11579,1,11579,1,-0.00046074,-3.1512e-09,0,0.00026219,-8.7118e-05,-1.874e+08,-1015.9,0,9.9214e+07,-51.19,11578,12634,1,12634,1,0.00046587,5.8939e-10,0,0.00072548,8.6448e-05,1.6704e+08,188.97,0,2.6816e+08,47.524,12633,611.88,0,611.88,0,0.0005357,2.5744e-09,0,0.00026882,0.00010035,2.0045e+08,838.22,0,9.8658e+07,88.427,611.88,1
2111,3.24,12107,1,12107,1,3.249e-05,-2.8014e-10,0,0.00046589,-5.9341e-06,-1.3502e+06,-93.985,0,1.7493e+08,-24.308,12106,13208,1,13208,1,0.00093239,6.0495e-10,0,0.00093239,0.00016137,3.1214e+08,191.16,0,3.4995e+08,106.18,13207,12107,1,12107,1,2.7999e-06,-5.6058e-11,0,0.00046758,-4.2027e-07,8.8074e+05,-18.04,0,1.8791e+08,-12.538,12106,10985,1,10985,1,-0.00086039,-1.8785e-09,0,2.7963e-06,-0.00017448,-3.4995e+08,-640.96,0,8.7948e+05,-992.07,10984,11579,1,11579,1,-0.00046199,-6.2369e-10,0,0.0002628,-8.7438e-05,-1.8791e+08,-204.92,0,9.956e+07,-44.693,11578,12634,1,12634,1,0.0004676,1.8607e-10,0,0.00072758,8.6683e-05,1.6751e+08,58.109,0,2.6893e+08,14.886,12633,611.88,0,611.88,0,0.00053743,6.2e-10,0,0.00026968,0.00010067,2.0098e+08,205.06,0,9.8906e+07,93.978,611.88,1
2111,3.25,12107,1,12107,1,3.2835e-05,-1.1541e-09,0,0.00046738,-5.9973e-06,-1.3539e+06,-374.57,0,1.7539e+08,-29.406,12106,13208,1,13208,1,0.0009356,6.2349e-10,0,0.0009356,0.00016184,3.128e+08,199.87,0,3.5097e+08,119.04,13207,12107,1,12107,1,3.0488e-06,-1.1946e-09,0,0.00046931,-4.6577e-07,9.7677e+05,-387.55,0,1.884e+08,-14.797,12106,10985,1,10985,1,-0.0008629,-2.927e-09,0,3.0484e-06,-0.00017508,-3.5097e+08,-943.38,0,9.7651e+05,-865.18,10984,11579,1,11579,1,-0.00046321,-1.9412e-09,0,0.00026339,-8.776e-05,-1.884e+08,-630.75,0,9.9902e+07,-50.178,11578,12634,1,12634,1,0.00046932,-4.1156e-10,0,0.00072965,8.6913e-05,1.6799e+08,-131.14,0,2.6968e+08,12.8,12633,611.88,0,611.88,0,0.00053914,9.0865e-10,0,0.00027054,0.00010099,2.0151e+08,296.55,0,9.915e+07,94.637,611.88,1
2111,3.26,12107,1,12107,1,3.3181e-05,-1.2429e-09,0,0.00046887,-6.0604e-06,-1.3579e+06,-403.46,0,1.7585e+08,7.6145,12106,13208,1,13208,1,0.00093879,1.1684e-09,0,0.00093879,0.00016231,3.1345e+08,393.18,0,3.5198e+08,186.46,13207,12107,1,12107,1,3.3014e-06,-9.5179e-10,0,0.00047103,-5.1135e-07,1.074e+06,-309.47,0,1.889e+08,13.048,12106,10985,1,10985,1,-0.00086537,-4.6759e-09,0,3.2992e-06,-0.00017567,-3.5198e+08,-1505.6,0,1.0731e+06,-619.92,10984,11579,1,11579,1,-0.00046443,-2.4344e-09,0,0.00026397,-8.808e-05,-1.889e+08,-793.39,0,1.0024e+08,-21.614,11578,12634,1,12634,1,0.00047104,5.0471e-11,0,0.0007317,8.7141e-05,1.6845e+08,16.048,0,2.7043e+08,47.945,12633,611.88,0,611.88,0,0.00054083,1.5021e-09,0,0.00027139,0.0001013,2.0203e+08,488.26,0,9.939e+07,78.77,611.88,1
2111,3.27,12107,1,12107,1,3.3527e-05,-2.3975e-09,0,0.00047035,-6.1238e-06,-1.3611e+06,-776.58,0,1.7631e+08,-24.077,12106,13208,1,13208,1,0.00094199,4.43e-09,0,0.00094199,0.00016277,3.141e+08,1448,0,3.5299e+08,311.61,13207,12107,1,12107,1,3.555e-06,-2.3246e-09,0,0.00047273,-5.5746e-07,1.1716e+06,-739.06,0,1.8939e+08,-23.147,12106,10985,1,10985,1,-0.00086785,-8.5531e-09,0,3.5522e-06,-0.00017627,-3.5299e+08,-2752.7,0,1.1706e+06,-465.11,10984,11579,1,11579,1,-0.00046563,-5.0222e-09,0,0.00026455,-8.8402e-05,-1.8939e+08,-1613.8,0,1.0058e+08,-81.758,11578,12634,1,12634,1,0.00047277,2.2683e-10,0,0.00073373,8.7367e-05,1.6893e+08,69.932,0,2.7117e+08,35.158,12633,611.88,0,611.88,0,0.00054252,3.0557e-09,0,0.00027225,0.00010162,2.0254e+08,993.46,0,9.963e+07,103.98,611.88,1
2111,3.28,12107,1,12107,1,3.3877e-05,1.1432e-10,0,0.00047187,-6.1879e-06,-1.3653e+06,30.397,0,1.7678e+08,-39.149,12106,13208,1,13208,1,0.00094521,1.5162e-09,0,0.00094521,0.00016324,3.1476e+08,462.04,0,3.54e+08,90.55,13207,12107,1,12107,1,3.8104e-06,5.4844e-11,0,0.0004745,-6.0364e-07,1.27e+06,18.508,0,1.899e+08,-30.782,12106,10985,1,10985,1,-0.00087034,-1.9634e-09,0,3.8059e-06,-0.00017687,-3.54e+08,-652.71,0,1.2682e+06,-266.46,10984,11579,1,11579,1,-0.00046689,-1.9325e-10,0,0.00026516,-8.8725e-05,-1.899e+08,-65.957,0,1.0093e+08,-65.713,11578,12634,1,12634,1,0.00047451,5.964e-10,0,0.00073585,8.7603e-05,1.694e+08,184.95,0,2.7195e+08,0.025945,12633,611.88,0,611.88,0,0.00054425,6.8856e-10,0,0.00027312,0.00010195,2.0308e+08,215.81,0,9.9878e+07,57.78,611.88,1
2111,3.29,12107,1,12107,1,3.4234e-05,-1.2237e-09,0,0.00047336,-6.2531e-06,-1.369e+06,-396.13,0,1.7724e+08,-6.6006,12106,13208,1,13208,1,0.00094843,6.3615e-10,0,0.00094843,0.00016371,3.1541e+08,217.88,0,3.5501e+08,116.92,13207,12107,1,12107,1,4.0707e-06,-1.4143e-09,0,0.00047623,-6.5088e-07,1.3701e+06,-451.27,0,1.9039e+08,-4.5656,12106,10985,1,10985,1,-0.00087283,-2.9102e-09,0,4.0693e-06,-0.00017747,-3.5501e+08,-958.49,0,1.3696e+06,-233.79,10984,11579,1,11579,1,-0.00046809,-1.8912e-09,0,0.00026574,-8.9049e-05,-1.9039e+08,-618.33,0,1.0127e+08,-28.85,11578,12634,1,12634,1,0.00047625,-5.4601e-10,0,0.0007379,8.783e-05,1.6987e+08,-175.93,0,2.727e+08,18.734,12633,611.88,0,611.88,0,0.00054596,8.5977e-10,0,0.00027398,0.00010226,2.0359e+08,280.46,0,1.0012e+08,44.15,611.88,1
2111,3.3,12107,1,12107,1,3.459e-05,-7.406e-11,0,0.00047486,-6.3182e-06,-1.3725e+06,-26.418,0,1.777e+08,-4.9415,12106,13208,1,13208,1,0.00095165,5.9332e-09,0,0.00095165,0.00016417,3.1605e+08,1953.7,0,3.5603e+08,259,13207,12107,1,12107,1,4.3334e-06,4.5919e-11,0,0.00047797,-6.9867e-07,1.4711e+06,15.727,0,1.9088e+08,4.9236,12106,10985,1,10985,1,-0.00087532,-5.1635e-09,0,4.3309e-06,-0.00017807,-3.5603e+08,-1700.3,0,1.4701e+06,-564.48,10984,11579,1,11579,1,-0.00046931,-1.7539e-09,0,0.00026632,-8.9373e-05,-1.9088e+08,-563.41,0,1.0162e+08,-58.258,11578,12634,1,12634,1,0.00047799,1.2191e-09,0,0.00073996,8.8058e-05,1.7034e+08,373.59,0,2.7345e+08,62.643,12633,611.88,0,611.88,0,0.00054767,2.2709e-09,0,0.00027484,0.00010258,2.0411e+08,734.15,0,1.0036e+08,102.88,611.88,1
2111,3.31,12107,1,12107,1,3.4947e-05,2.493e-09,0,0.00047636,-6.3834e-06,-1.3765e+06,802.32,0,1.7816e+08,-9.3482,12106,13208,1,13208,1,0.00095487,5.2521e-09,0,0.00095487,0.00016464,3.167e+08,1687.3,0,3.5704e+08,222.77,13207,12107,1,12107,1,4.5953e-06,2.8298e-09,0,0.00047971,-7.4598e-07,1.5718e+06,905.31,0,1.9137e+08,-4.7788,12106,10985,1,10985,1,-0.0008778,-9.8466e-10,0,4.5933e-06,-0.00017867,-3.5704e+08,-337.25,0,1.5711e+06,-739.01,10984,11579,1,11579,1,-0.00047052,1.2376e-09,0,0.0002669,-8.9697e-05,-1.9137e+08,400.6,0,1.0196e+08,-48.657,11578,12634,1,12634,1,0.00047973,3.8118e-09,0,0.00074201,8.8285e-05,1.7081e+08,1243.6,0,2.7419e+08,40.243,12633,611.88,0,611.88,0,0.00054937,1.6176e-09,0,0.0002757,0.0001029,2.0463e+08,524.03,0,1.006e+08,96.41,611.88,1
2111,3.32,12107,1,12107,1,3.5309e-05,-2.6203e-10,0,0.00047786,-6.4497e-06,-1.3803e+06,-79.391,0,1.7862e+08,-12.373,12106,13208,1,13208,1,0.00095809,2.158e-09,0,0.00095809,0.0001651,3.1733e+08,709.89,0,3.5804e+08,105.68,13207,12107,1,12107,1,4.8636e-06,-1.6247e-10,0,0.00048147,-7.9438e-07,1.6748e+06,-53.453,0,1.9187e+08,-0.83717,12106,10985,1,10985,1,-0.00088027,-2.8816e-09,0,4.8604e-06,-0.00017927,-3.5804e+08,-948.11,0,1.6735e+06,-950.34,10984,11579,1,11579,1,-0.00047175,-6.8568e-10,0,0.00026749,-9.0022e-05,-1.9187e+08,-212.74,0,1.0231e+08,-16.67,11578,12634,1,12634,1,0.00048148,1.9763e-10,0,0.00074409,8.8516e-05,1.7128e+08,65.987,0,2.7496e+08,15.562,12633,611.88,0,611.88,0,0.00055109,7.1578e-10,0,0.00027656,0.00010322,2.0515e+08,230.05,0,1.0084e+08,94.367,611.88,1
2111,3.33,12107,1,12107,1,3.5674e-05,-4.3711e-10,0,0.00047936,-6.5163e-06,-1.3841e+06,-139.86,0,1.7908e+08,-13.278,12106,13208,1,13208,1,0.00096131,1.2516e-09,0,0.00096131,0.00016557,3.1796e+08,419.49,0,3.5905e+08,108.76,13207,12107,1,12107,1,5.1323e-06,-4.274e-10,0,0.00048322,-8.4144e-07,1.7781e+06,-131.18,0,1.9236e+08,-9.4265,12106,10985,1,10985,1,-0.00088275,-2.3139e-09,0,5.1317e-06,-0.00017987,-3.5905e+08,-761.05,0,1.7778e+06,-1141.8,10984,11579,1,11579,1,-0.00047295,-1.0228e-09,0,0.00026806,-9.0346e-05,-1.9236e+08,-323.02,0,1.0265e+08,-31.352,11578,12634,1,12634,1,0.00048322,1.2154e-10,0,0.00074614,8.8743e-05,1.7175e+08,38.789,0,2.757e+08,6.3657,12633,611.88,0,611.88,0,0.0005528,7.115e-10,0,0.00027742,0.00010354,2.0567e+08,229.6,0,1.0108e+08,64.457,611.88,1
2111,3.34,12107,1,12107,1,3.604e-05,-9.1149e-10,0,0.00048086,-6.5834e-06,-1.3875e+06,-294.85,0,1.7953e+08,-33.562,12106,13208,1,13208,1,0.00096455,1.673e-09,0,0.00096455,0.00016603,3.186e+08,550.06,0,3.6006e+08,70.241,13207,12107,1,12107,1,5.4051e-06,-7.7764e-10,0,0.00048496,-8.9249e-07,1.8828e+06,-246.75,0,1.9285e+08,-24.432,12106,10985,1,10985,1,-0.00088523,-4.0618e-09,0,5.404e-06,-0.00018047,-3.6006e+08,-1335.1,0,1.8825e+06,-1430.2,10984,11579,1,11579,1,-0.00047415,-1.9049e-09,0,0.00026863,-9.0673e-05,-1.9285e+08,-615.78,0,1.03e+08,-68.67,11578,12634,1,12634,1,0.00048498,1.2336e-10,0,0.00074819,8.8969e-05,1.7222e+08,40.3,0,2.7645e+08,13.09,12633,611.88,0,611.88,0,0.00055451,1.2373e-09,0,0.00027828,0.00010386,2.0618e+08,401.58,0,1.0132e+08,91.646,611.88,1
2111,3.35,12107,1,12107,1,3.6408e-05,-1.8867e-09,0,0.00048235,-6.6506e-06,-1.3913e+06,-609.03,0,1.7999e+08,-27.501,12106,13208,1,13208,1,0.00096778,1.4268e-09,0,0.00096778,0.0001665,3.1922e+08,488.58,0,3.6106e+08,154.56,13207,12107,1,12107,1,5.6792e-06,-1.581e-09,0,0.0004867,-9.3837e-07,1.988e+06,-494.39,0,1.9334e+08,-24.422,12106,10985,1,10985,1,-0.0008877,-6.7762e-09,0,5.6773e-06,-0.00018108,-3.6106e+08,-2177.3,0,1.9873e+06,-281.11,10984,11579,1,11579,1,-0.00047535,-3.5393e-09,0,0.00026919,-9.0999e-05,-1.9334e+08,-1143.7,0,1.0334e+08,-77.615,11578,12634,1,12634,1,0.00048673,2.2202e-11,0,0.00075021,8.9193e-05,1.7269e+08,6.5095,0,2.7708e+08,20.673,12633,611.88,0,611.88,0,0.00055621,2.1054e-09,0,0.00027914,0.00010418,2.0669e+08,682.64,0,1.0155e+08,75.92,611.88,1
2111,3.36,12107,1,12107,1,3.6777e-05,-9.787e-10,0,0.00048386,-6.718e-06,-1.3953e+06,-319.71,0,1.8045e+08,-18.814,12106,13208,1,13208,1,0.00097101,2.3798e-09,0,0.00097101,0.00016696,3.1985e+08,776.27,0,3.6207e+08,123.82,13207,12107,1,12107,1,5.9538e-06,-7.8165e-10,0,0.00048846,-9.8736e-07,2.0935e+06,-251.4,0,1.9383e+08,-15.649,12106,10985,1,10985,1,-0.00089017,-4.3245e-09,0,5.9513e-06,-0.00018168,-3.6207e+08,-1414.3,0,2.0925e+06,-178.73,10984,11579,1,11579,1,-0.00047656,-2.3033e-09,0,0.00026977,-9.1325e-05,-1.9383e+08,-743.35,0,1.0369e+08,-66.204,11578,12634,1,12634,1,0.00048848,1.7575e-10,0,0.00075228,8.9422e-05,1.7315e+08,51.501,0,2.7767e+08,22.142,12633,611.88,0,611.88,0,0.00055792,1.5675e-09,0,0.00028001,0.0001045,2.0721e+08,512.35,0,1.0179e+08,61.55,611.88,1
2111,3.37,12107,1,12107,1,3.7152e-05,-6.4555e-10,0,0.00048535,-6.7866e-06,-1.3988e+06,-209.99,0,1.809e+08,-10.771,12106,13208,1,13208,1,0.00097424,3.6625e-09,0,0.00097424,0.00016742,3.2047e+08,1196.4,0,3.6306e+08,159.38,13207,12107,1,12107,1,6.235e-06,4.4614e-11,0,0.00049021,-1.0374e-06,2.2012e+06,13.283,0,1.9432e+08,-18.138,12106,10985,1,10985,1,-0.00089262,-6.7971e-09,0,6.2324e-06,-0.00018228,-3.6306e+08,-2222.9,0,2.2002e+06,-139.72,10984,11579,1,11579,1,-0.00047775,-2.0875e-09,0,0.00027033,-9.1651e-05,-1.9432e+08,-668.85,0,1.0403e+08,-58.072,11578,12634,1,12634,1,0.00049023,9.7318e-10,0,0.00075431,8.9645e-05,1.7362e+08,307.19,0,2.7823e+08,28.632,12633,611.88,0,611.88,0,0.00055962,2.4008e-09,0,0.00028086,0.00010482,2.0772e+08,776.96,0,1.0203e+08,62.743,611.88,1
2111,3.38,12107,1,12107,1,3.7527e-05,-2.6324e-09,0,0.00048686,-6.8552e-06,-1.4028e+06,-849.44,0,1.8135e+08,-19.66,12106,13208,1,13208,1,0.00097752,1.2295e-09,0,0.00097752,0.00016789,3.211e+08,421.12,0,3.6408e+08,129.58,13207,12107,1,12107,1,6.5156e-06,-2.6014e-09,0,0.00049198,-1.0879e-06,2.3087e+06,-817.06,0,1.9481e+08,-9.1042,12106,10985,1,10985,1,-0.00089513,-7.1973e-09,0,6.5123e-06,-0.00018289,-3.6408e+08,-2337.7,0,2.3075e+06,-322.25,10984,11579,1,11579,1,-0.00047895,-4.1424e-09,0,0.0002709,-9.1982e-05,-1.9481e+08,-1335,0,1.0438e+08,-65.215,11578,12634,1,12634,1,0.00049201,-1.0597e-09,0,0.00075636,8.9871e-05,1.7409e+08,-344.24,0,2.7881e+08,31.958,12633,611.88,0,611.88,0,0.00056135,2.0221e-09,0,0.00028174,0.00010514,2.0823e+08,660.01,0,1.0227e+08,77.326,611.88,1
2111,3.39,12107,1,12107,1,3.7907e-05,-2.5428e-09,0,0.00048835,-6.9247e-06,-1.406e+06,-825.14,0,1.818e+08,-18.546,12106,13208,1,13208,1,0.00098074,3.0975e-09,0,0.00098074,0.00016835,3.2171e+08,1014.8,0,3.6508e+08,188.67,13207,12107,1,12107,1,6.8024e-06,-2.0868e-09,0,0.00049373,-1.1388e-06,2.4188e+06,-655.05,0,1.9529e+08,-16.8,12106,10985,1,10985,1,-0.00089757,-9.5471e-09,0,6.7973e-06,-0.00018349,-3.6508e+08,-3095.6,0,2.4168e+06,-263.21,10984,11579,1,11579,1,-0.00048014,-4.9508e-09,0,0.00027145,-9.2308e-05,-1.9529e+08,-1592.3,0,1.0472e+08,-84.274,11578,12634,1,12634,1,0.00049377,9.4341e-11,0,0.00075838,9.0094e-05,1.7455e+08,31.478,0,2.7937e+08,42.986,12633,611.88,0,611.88,0,0.00056304,3.0738e-09,0,0.00028259,0.00010546,2.0874e+08,1002.3,0,1.025e+08,89.053,611.88,1
2111,3.4,12107,1,12107,1,3.8288e-05,-4.8344e-10,0,0.00048986,-6.9943e-06,-1.4101e+06,-162.27,0,1.8226e+08,-17.401,12106,13208,1,13208,1,0.00098398,2.1351e-09,0,0.00098398,0.00016881,3.2232e+08,703.42,0,3.6607e+08,99.889,13207,12107,1,12107,1,7.0886e-06,-3.2163e-10,0,0.00049551,-1.1895e-06,2.5283e+06,-101.52,0,1.9578e+08,-12.795,12106,10985,1,10985,1,-0.00090002,-2.4094e-09,0,7.0832e-06,-0.00018409,-3.6607e+08,-808.89,0,2.5262e+06,-175.26,10984,11579,1,11579,1,-0.00048135,-1.3451e-09,0,0.00027202,-9.2636e-05,-1.9578e+08,-445,0,1.0507e+08,-43.494,11578,12634,1,12634,1,0.00049553,2.2434e-10,0,0.00076045,9.0321e-05,1.7501e+08,65.172,0,2.7995e+08,5.7581,12633,611.88,0,611.88,0,0.00056477,1.0488e-09,0,0.00028346,0.00010578,2.0925e+08,345.68,0,1.0274e+08,42.615,611.88,1
2111,3.41,12107,1,12107,1,3.8675e-05,-1.163e-09,0,0.00049137,-7.065e-06,-1.4136e+06,-376.72,0,1.8271e+08,-49.177,12106,13208,1,13208,1,0.00098725,7.6066e-10,0,0.00098725,0.00016928,3.2294e+08,249.63,0,3.6708e+08,105.26,13207,12107,1,12107,1,7.3788e-06,-1.1014e-09,0,0.00049729,-1.2415e-06,2.6393e+06,-355.01,0,1.9626e+08,-38.946,12106,10985,1,10985,1,-0.0009025,-3.631e-09,0,7.376e-06,-0.0001847,-3.6708e+08,-1170.6,0,2.6382e+06,-247.63,10984,11579,1,11579,1,-0.00048254,-1.9969e-09,0,0.00027258,-9.2968e-05,-1.9626e+08,-642.08,0,1.0542e+08,-82.806,11578,12634,1,12634,1,0.00049731,-2.9058e-10,0,0.00076249,9.0545e-05,1.7548e+08,-88.915,0,2.8051e+08,-8.9652,12633,611.88,0,611.88,0,0.00056649,1.0779e-09,0,0.00028433,0.0001061,2.0976e+08,351.86,0,1.0297e+08,57.144,611.88,1
2111,3.42,12107,1,12107,1,3.9064e-05,2.3006e-09,0,0.00049288,-7.136e-06,-1.4174e+06,734.48,0,1.8316e+08,5.6074,12106,13208,1,13208,1,0.00099052,5.6288e-09,0,0.00099052,0.00016974,3.2355e+08,1796.7,0,3.6809e+08,261.92,13207,12107,1,12107,1,7.6725e-06,2.2782e-09,0,0.00049908,-1.2935e-06,2.7517e+06,719.97,0,1.9675e+08,-1.3385,12106,10985,1,10985,1,-0.00090498,-9.0677e-10,0,7.6699e-06,-0.00018531,-3.6809e+08,-310.56,0,2.7507e+06,-281.42,10984,11579,1,11579,1,-0.00048373,1.0068e-09,0,0.00027313,-9.3299e-05,-1.9675e+08,322.15,0,1.0577e+08,-33.821,11578,12634,1,12634,1,0.0004991,3.5632e-09,0,0.00076453,9.077e-05,1.7595e+08,1140.6,0,2.8108e+08,34.38,12633,611.88,0,611.88,0,0.00056821,1.6845e-09,0,0.0002852,0.00010642,2.1027e+08,542.08,0,1.0321e+08,75.249,611.88,1
2111,3.43,12107,1,12107,1,3.9454e-05,-2.4929e-09,0,0.00049438,-7.2074e-06,-1.4213e+06,-794.5,0,1.8361e+08,-23.454,12106,13208,1,13208,1,0.00099377,1.2891e-09,0,0.00099377,0.0001702,3.2415e+08,441.52,0,3.6908e+08,189.64,13207,12107,1,12107,1,7.9681e-06,-2.2585e-09,0,0.00050085,-1.3463e-06,2.8647e+06,-722.49,0,1.9723e+08,-16.112,12106,10985,1,10985,1,-0.00090743,-7.321e-09,0,7.9656e-06,-0.00018592,-3.6908e+08,-2339.2,0,2.8638e+06,-340.78,10984,11579,1,11579,1,-0.00048491,-4.2429e-09,0,0.00027368,-9.3629e-05,-1.9723e+08,-1357.5,0,1.0611e+08,-61.955,11578,12634,1,12634,1,0.00050087,-6.0791e-10,0,0.00076655,9.0991e-05,1.7641e+08,-195.45,0,2.8163e+08,27.747,12633,611.88,0,611.88,0,0.00056991,2.1834e-09,0,0.00028606,0.00010674,2.1078e+08,700.55,0,1.0344e+08,74.387,611.88,1
2111,3.44,12107,1,12107,1,3.9846e-05,-2.0651e-09,0,0.00049588,-7.2789e-06,-1.4248e+06,-665.79,0,1.8406e+08,-14.677,12106,13208,1,13208,1,0.00099705,2.0655e-09,0,0.00099705,0.00017066,3.2475e+08,707.27,0,3.7009e+08,179.57,13207,12107,1,12107,1,8.2661e-06,-1.7645e-09,0,0.00050262,-1.3994e-06,2.9786e+06,-551.83,0,1.9771e+08,-7.9943,12106,10985,1,10985,1,-0.00090989,-7.6547e-09,0,8.2619e-06,-0.00018653,-3.7009e+08,-2467.4,0,2.977e+06,-262.05,10984,11579,1,11579,1,-0.0004861,-3.9646e-09,0,0.00027423,-9.3961e-05,-1.9771e+08,-1283.9,0,1.0646e+08,-63.785,11578,12634,1,12634,1,0.00050265,1.2437e-10,0,0.00076859,9.1214e-05,1.7687e+08,40.111,0,2.8219e+08,33.6,12633,611.88,0,611.88,0,0.00057163,2.4221e-09,0,0.00028693,0.00010706,2.1128e+08,784.31,0,1.0367e+08,75.374,611.88,1
2111,3.45,12107,1,12107,1,4.0242e-05,-2.0551e-09,0,0.00049739,-7.3515e-06,-1.4283e+06,-665.05,0,1.8451e+08,-58.759,12106,13208,1,13208,1,0.0010003,1.7252e-09,0,0.0010003,0.00017112,3.2535e+08,590.87,0,3.7108e+08,202.52,13207,12107,1,12107,1,8.5684e-06,-1.452e-09,0,0.0005044,-1.4535e-06,3.0941e+06,-455.22,0,1.9819e+08,-48.113,12106,10985,1,10985,1,-0.00091234,-8.3547e-09,0,8.5631e-06,-0.00018714,-3.7108e+08,-2697.6,0,3.0921e+06,-507.72,10984,11579,1,11579,1,-0.00048727,-3.9898e-09,0,0.00027477,-9.4293e-05,-1.9819e+08,-1282.5,0,1.0681e+08,-129.96,11578,12634,1,12634,1,0.00050444,1.9828e-10,0,0.00077061,9.1436e-05,1.7733e+08,66.285,0,2.8274e+08,9.6612,12633,611.88,0,611.88,0,0.00057334,2.5466e-09,0,0.0002878,0.00010738,2.1179e+08,826.92,0,1.0391e+08,113.75,611.88,1
2111,3.46,12107,1,12107,1,4.0638e-05,-2.7984e-09,0,0.00049888,-7.4239e-06,-1.4321e+06,-903.15,0,1.8495e+08,-42.968,12106,13208,1,13208,1,0.0010036,2.6176e-09,0,0.0010036,0.00017158,3.2594e+08,861.36,0,3.7208e+08,217.38,13207,12107,1,12107,1,8.8712e-06,-2.3123e-09,0,0.00050618,-1.507e-06,3.2097e+06,-727.34,0,1.9867e+08,-36.164,12106,10985,1,10985,1,-0.00091478,-9.8914e-09,0,8.865e-06,-0.00018774,-3.7208e+08,-3187.6,0,3.2074e+06,-283.64,10984,11579,1,11579,1,-0.00048845,-5.2956e-09,0,0.00027531,-9.4624e-05,-1.9867e+08,-1701.6,0,1.0715e+08,-101.41,11578,12634,1,12634,1,0.00050622,-3.1275e-11,0,0.00077262,9.1656e-05,1.7779e+08,-9.6011,0,2.8329e+08,24.364,12633,611.88,0,611.88,0,0.00057504,3.192e-09,0,0.00028866,0.0001077,2.1229e+08,1037.4,0,1.0414e+08,87.636,611.88,1
2111,3.47,12107,1,12107,1,4.104e-05,-1.7082e-09,0,0.00050041,-7.4973e-06,-1.4358e+06,-556.03,0,1.854e+08,-46.842,12106,13208,1,13208,1,0.0010069,1.3271e-09,0,0.0010069,0.00017205,3.2654e+08,363.08,0,3.7308e+08,155.63,13207,12107,1,12107,1,9.177e-06,-1.6311e-09,0,0.00050799,-1.5611e-06,3.3264e+06,-514.36,0,1.9915e+08,-33.3,12106,10985,1,10985,1,-0.00091726,-5.0705e-09,0,9.1698e-06,-0.00018836,-3.7308e+08,-1656.4,0,3.3236e+06,-257.59,10984,11579,1,11579,1,-0.00048965,-3.147e-09,0,0.00027587,-9.496e-05,-1.9915e+08,-1023,0,1.0751e+08,-93.932,11578,12634,1,12634,1,0.00050802,-2.5168e-10,0,0.00077468,9.1882e-05,1.7826e+08,-74.921,0,2.8386e+08,-2.2363,12633,611.88,0,611.88,0,0.00057678,1.6524e-09,0,0.00028954,0.00010802,2.128e+08,541.31,0,1.0437e+08,70.97,611.88,1
2111,3.48,12107,1,12107,1,4.1446e-05,-7.803e-10,0,0.00050192,-7.5715e-06,-1.4397e+06,-257.23,0,1.8585e+08,-8.7243,12106,13208,1,13208,1,0.0010102,1.9062e-09,0,0.0010102,0.0001725,3.2713e+08,622.02,0,3.7408e+08,101.8,13207,12107,1,12107,1,9.4876e-06,-4.7148e-10,0,0.00050979,-1.6162e-06,3.4449e+06,-148.05,0,1.9964e+08,-2.0263,12106,10985,1,10985,1,-0.0009197,-4.1155e-09,0,9.4819e-06,-0.00018897,-3.7408e+08,-1343.9,0,3.4427e+06,-176.54,10984,11579,1,11579,1,-0.00049083,-1.9515e-09,0,0.00027641,-9.5293e-05,-1.9964e+08,-635.94,0,1.0786e+08,-51.683,11578,12634,1,12634,1,0.00050982,3.5566e-10,0,0.00077672,9.2104e-05,1.7872e+08,104.92,0,2.8441e+08,32.543,12633,611.88,0,611.88,0,0.00057851,1.469e-09,0,0.00029041,0.00010834,2.133e+08,477.61,0,1.046e+08,56.544,611.88,1
2111,3.49,12107,1,12107,1,4.1853e-05,-4.4591e-09,0,0.00050342,-7.6459e-06,-1.4433e+06,-1431.3,0,1.8629e+08,-23.513,12106,13208,1,13208,1,0.0010135,1.9519e-09,0,0.0010135,0.00017297,3.2772e+08,668.53,0,3.7508e+08,278.96,13207,12107,1,12107,1,9.7995e-06,-4.8567e-09,0,0.00051157,-1.6717e-06,3.5637e+06,-1537.5,0,2.001e+08,-23.459,12106,10985,1,10985,1,-0.00092217,-1.0952e-08,0,9.7946e-06,-0.00018958,-3.7508e+08,-3516.1,0,3.5619e+06,-402.88,10984,11579,1,11579,1,-0.00049198,-6.8028e-09,0,0.00027693,-9.5629e-05,-2.001e+08,-2216,0,1.082e+08,-92.801,11578,12634,1,12634,1,0.00051162,-2.1559e-09,0,0.0007787,9.232e-05,1.7918e+08,-658.72,0,2.8493e+08,53.969,12633,611.88,0,611.88,0,0.00058021,3.087e-09,0,0.00029128,0.00010866,2.138e+08,1002.4,0,1.0483e+08,111.59,611.88,1
2111,3.5,12107,1,12107,1,4.2261e-05,2.0052e-10,0,0.00050494,-7.7205e-06,-1.4471e+06,51.367,0,1.8674e+08,-7.3697,12106,13208,1,13208,1,0.0010167,2.4902e-09,0,0.0010167,0.00017342,3.283e+08,748.38,0,3.7606e+08,129.66,13207,12107,1,12107,1,1.0115e-05,2.548e-10,0,0.00051339,-1.7274e-06,3.6839e+06,79.885,0,2.0059e+08,-6.7673,12106,10985,1,10985,1,-0.00092457,-2.3758e-09,0,1.0106e-05,-0.00019019,-3.7606e+08,-813.22,0,3.6805e+06,-178.03,10984,11579,1,11579,1,-0.00049317,-6.376e-10,0,0.00027748,-9.5961e-05,-2.0059e+08,-206.06,0,1.0856e+08,-42.661,11578,12634,1,12634,1,0.00051341,1.1876e-09,0,0.00078076,9.2545e-05,1.7963e+08,363.8,0,2.8549e+08,29.614,12633,611.88,0,611.88,0,0.00058194,1.25e-09,0,0.00029215,0.00010899,2.143e+08,399.74,0,1.0506e+08,56.391,611.88,1
2111,3.51,12107,1,12107,1,4.2675e-05,2.286e-09,0,0.00050645,-7.796e-06,-1.4507e+06,727.67,0,1.8718e+08,16.923,12106,13208,1,13208,1,0.00102,6.4291e-09,0,0.00102,0.00017388,3.2888e+08,2046.4,0,3.7706e+08,220.22,13207,12107,1,12107,1,1.043e-05,2.1814e-09,0,0.0005152,-1.7831e-06,3.8038e+06,685.54,0,2.0106e+08,10.06,12106,10985,1,10985,1,-0.00092704,-6.8575e-10,0,1.0427e-05,-0.0001908,-3.7706e+08,-234.87,0,3.8028e+06,-236.79,10984,11579,1,11579,1,-0.00049434,9.3359e-10,0,0.00027801,-9.6296e-05,-2.0106e+08,279.13,0,1.0891e+08,-21.916,11578,12634,1,12634,1,0.00051521,3.5419e-09,0,0.00078277,9.2764e-05,1.8009e+08,1122.2,0,2.8603e+08,49.052,12633,611.88,0,611.88,0,0.00058366,1.711e-09,0,0.00029303,0.00010931,2.148e+08,550.61,0,1.0529e+08,60.593,611.88,1
2111,3.52,12107,1,12107,1,4.3089e-05,-1.3858e-09,0,0.00050796,-7.8718e-06,-1.4545e+06,-437.18,0,1.8762e+08,-1.5031,12106,13208,1,13208,1,0.0010233,3.1381e-09,0,0.0010233,0.00017434,3.2945e+08,1051.9,0,3.7805e+08,187.17,13207,12107,1,12107,1,1.075e-05,-8.0258e-10,0,0.000517,-1.8401e-06,3.9255e+06,-247.45,0,2.0153e+08,-4.3015,12106,10985,1,10985,1,-0.00092947,-7.2258e-09,0,1.0747e-05,-0.00019141,-3.7805e+08,-2298.9,0,3.9246e+06,-354.3,10984,11579,1,11579,1,-0.0004955,-3.2782e-09,0,0.00027854,-9.6631e-05,-2.0153e+08,-1027.4,0,1.0925e+08,-49.568,11578,12634,1,12634,1,0.00051701,5.2191e-10,0,0.00078478,9.2982e-05,1.8055e+08,170.57,0,2.8656e+08,51.216,12633,611.88,0,611.88,0,0.00058537,2.4834e-09,0,0.00029389,0.00010963,2.1529e+08,795.19,0,1.0552e+08,85.028,611.88,1
2111,3.53,12107,1,12107,1,4.3505e-05,-2.9957e-09,0,0.00050945,-7.9478e-06,-1.4578e+06,-957.55,0,1.8806e+08,2.8625,12106,13208,1,13208,1,0.0010266,2.011e-09,0,0.0010266,0.00017479,3.3002e+08,688.77,0,3.7904e+08,284.62,13207,12107,1,12107,1,1.1072e-05,-2.7058e-09,0,0.00051878,-1.897e-06,4.048e+06,-831.35,0,2.02e+08,-8.4068,12106,10985,1,10985,1,-0.0009319,-9.5721e-09,0,1.1069e-05,-0.00019203,-3.7904e+08,-3056.5,0,4.0469e+06,-265.62,10984,11579,1,11579,1,-0.00049664,-5.4185e-09,0,0.00027905,-9.6968e-05,-2.02e+08,-1715.8,0,1.096e+08,-77.298,11578,12634,1,12634,1,0.00051882,-2.2464e-10,0,0.00078676,9.3197e-05,1.81e+08,-69.041,0,2.8709e+08,79.994,12633,611.88,0,611.88,0,0.00058707,2.9652e-09,0,0.00029476,0.00010994,2.1578e+08,953.49,0,1.0574e+08,110.93,611.88,1
2111,3.54,12107,1,12107,1,4.3925e-05,-1.3263e-09,0,0.00051098,-8.0246e-06,-1.4616e+06,-433.19,0,1.885e+08,-49.57,12106,13208,1,13208,1,0.0010299,1.1283e-09,0,0.0010299,0.00017525,3.306e+08,386.44,0,3.8003e+08,128.24,13207,12107,1,12107,1,1.1397e-05,-1.2575e-09,0,0.00052061,-1.9548e-06,4.1718e+06,-398.95,0,2.0248e+08,-45.362,12106,10985,1,10985,1,-0.00093435,-4.3359e-09,0,1.1391e-05,-0.00019265,-3.8003e+08,-1411.6,0,4.1692e+06,-236.84,10984,11579,1,11579,1,-0.00049783,-2.4623e-09,0,0.00027959,-9.7306e-05,-2.0248e+08,-812.14,0,1.0995e+08,-90.051,11578,12634,1,12634,1,0.00052065,-7.4806e-11,0,0.00078881,9.342e-05,1.8146e+08,-21.756,0,2.8764e+08,-4.2324,12633,611.88,0,611.88,0,0.00058881,1.4212e-09,0,0.00029564,0.00011027,2.1629e+08,464.09,0,1.0598e+08,70.3,611.88,1
2111,3.55,12107,1,12107,1,4.4352e-05,-5.4011e-10,0,0.0005125,-8.1025e-06,-1.4652e+06,-179.99,0,1.8894e+08,-17.036,12106,13208,1,13208,1,0.0010332,1.9355e-09,0,0.0010332,0.00017571,3.3116e+08,624.21,0,3.8102e+08,57.704,13207,12107,1,12107,1,1.1728e-05,-3.7724e-10,0,0.00052244,-2.0133e-06,4.2973e+06,-116.64,0,2.0296e+08,-12.408,12106,10985,1,10985,1,-0.00093678,-2.5957e-09,0,1.1723e-05,-0.00019326,-3.8102e+08,-855.34,0,4.2953e+06,-175.92,10984,11579,1,11579,1,-0.000499,-1.414e-09,0,0.00028012,-9.7643e-05,-2.0296e+08,-453.64,0,1.1031e+08,-34.488,11578,12634,1,12634,1,0.00052246,2.0582e-10,0,0.00079083,9.364e-05,1.8192e+08,60.071,0,2.8817e+08,5.5943,12633,611.88,0,611.88,0,0.00059054,1.0707e-09,0,0.00029652,0.00011059,2.1678e+08,349.24,0,1.062e+08,34.366,611.88,1
2111,3.56,12107,1,12107,1,4.4777e-05,-3.3946e-09,0,0.00051399,-8.1803e-06,-1.4689e+06,-1084.4,0,1.8937e+08,-45.845,12106,13208,1,13208,1,0.0010365,2.9653e-09,0,0.0010365,0.00017616,3.3172e+08,981.88,0,3.8201e+08,211.75,13207,12107,1,12107,1,1.2058e-05,-3.0639e-09,0,0.00052423,-2.0722e-06,4.4226e+06,-965.05,0,2.0341e+08,-48.111,12106,10985,1,10985,1,-0.0009392,-1.0608e-08,0,1.2055e-05,-0.00019387,-3.8201e+08,-3382.8,0,4.4214e+06,-324.01,10984,11579,1,11579,1,-0.00050012,-6.4332e-09,0,0.00028061,-9.798e-05,-2.0341e+08,-2055.6,0,1.1065e+08,-119.57,11578,12634,1,12634,1,0.00052427,-1.356e-10,0,0.00079278,9.3851e-05,1.8237e+08,-41.161,0,2.8868e+08,32.082,12633,611.88,0,611.88,0,0.00059223,3.5224e-09,0,0.00029738,0.00011091,2.1726e+08,1131.6,0,1.0642e+08,106.34,611.88,1
2111,3.57,12107,1,12107,1,4.5204e-05,-4.004e-10,0,0.00051553,-8.2584e-06,-1.4726e+06,-138.39,0,1.8982e+08,-17.68,12106,13208,1,13208,1,0.0010398,9.4803e-10,0,0.0010398,0.00017663,3.3229e+08,324.62,0,3.8301e+08,79.666,13207,12107,1,12107,1,1.2392e-05,-1.4301e-10,0,0.00052609,-2.1308e-06,4.5491e+06,-47.199,0,2.039e+08,-10.213,12106,10985,1,10985,1,-0.00094166,-2.3335e-09,0,1.2384e-05,-0.0001945,-3.8301e+08,-797.99,0,4.5463e+06,-173.55,10984,11579,1,11579,1,-0.00050132,-1.1049e-09,0,0.00028116,-9.8322e-05,-2.039e+08,-370.55,0,1.1101e+08,-49.929,11578,12634,1,12634,1,0.00052611,3.5234e-10,0,0.00079486,9.4076e-05,1.8283e+08,104.88,0,2.8923e+08,16.938,12633,611.88,0,611.88,0,0.00059399,8.7997e-10,0,0.00029827,0.00011124,2.1777e+08,288.58,0,1.0666e+08,46.654,611.88,1
2111,3.58,12107,1,12107,1,4.5641e-05,-1.0976e-09,0,0.00051703,-8.3381e-06,-1.4762e+06,-353.5,0,1.9025e+08,-15.87,12106,13208,1,13208,1,0.0010431,4.8655e-09,0,0.0010431,0.00017708,3.3284e+08,1568.7,0,3.8399e+08,154.75,13207,12107,1,12107,1,1.2731e-05,-8.0065e-10,0,0.00052791,-2.1909e-06,4.6776e+06,-257.4,0,2.0436e+08,-25.016,12106,10985,1,10985,1,-0.00094407,-6.0927e-09,0,1.2727e-05,-0.00019511,-3.8399e+08,-1955,0,4.6763e+06,-200.08,10984,11579,1,11579,1,-0.00050245,-3.1732e-09,0,0.00028166,-9.866e-05,-2.0436e+08,-1014.1,0,1.1136e+08,-67.545,11578,12634,1,12634,1,0.00052793,5.9708e-10,0,0.00079684,9.429e-05,1.8328e+08,185.42,0,2.8974e+08,40.412,12633,611.88,0,611.88,0,0.0005957,2.5279e-09,0,0.00029914,0.00011156,2.1825e+08,812.01,0,1.0688e+08,71.49,611.88,1
2111,3.59,12107,1,12107,1,4.6075e-05,9.0653e-10,0,0.00051855,-8.4175e-06,-1.4796e+06,282.85,0,1.9069e+08,-26.589,12106,13208,1,13208,1,0.0010464,4.4002e-09,0,0.0010464,0.00017753,3.334e+08,1404.7,0,3.8497e+08,156.07,13207,12107,1,12107,1,1.3071e-05,7.8758e-10,0,0.00052974,-2.2508e-06,4.8064e+06,243.46,0,2.0483e+08,-24.772,12106,10985,1,10985,1,-0.00094649,-3.2415e-09,0,1.3066e-05,-0.00019573,-3.8497e+08,-1083.9,0,4.8048e+06,-208.09,10984,11579,1,11579,1,-0.0005036,-4.8746e-10,0,0.00028217,-9.8999e-05,-2.0483e+08,-143.54,0,1.1171e+08,-77.159,11578,12634,1,12634,1,0.00052975,2.3654e-09,0,0.00079884,9.4507e-05,1.8373e+08,750.7,0,2.9026e+08,17.413,12633,611.88,0,611.88,0,0.00059742,1.7582e-09,0,0.00030002,0.00011188,2.1874e+08,563.71,0,1.0711e+08,75.755,611.88,1
2111,3.6,12107,1,12107,1,4.6513e-05,-4.7849e-10,0,0.00052008,-8.4975e-06,-1.4834e+06,-151.26,0,1.9113e+08,-11.959,12106,13208,1,13208,1,0.0010498,1.0996e-09,0,0.0010498,0.00017799,3.3395e+08,376.53,0,3.8597e+08,76.224,13207,12107,1,12107,1,1.3411e-05,-4.4925e-10,0,0.00053158,-2.3114e-06,4.9353e+06,-139.51,0,2.053e+08,-13.968,12106,10985,1,10985,1,-0.00094894,-1.9056e-09,0,1.3408e-05,-0.00019635,-3.8597e+08,-613.93,0,4.9342e+06,-155.4,10984,11579,1,11579,1,-0.00050477,-9.7458e-10,0,0.00028269,-9.9342e-05,-2.053e+08,-308.05,0,1.1207e+08,-33.483,11578,12634,1,12634,1,0.0005316,5.4674e-11,0,0.00080087,9.4725e-05,1.8419e+08,15.388,0,2.9079e+08,12.505,12633,611.88,0,611.88,0,0.00059916,6.3355e-10,0,0.00030091,0.0001122,2.1924e+08,203.64,0,1.0733e+08,34.161,611.88,1
2111,3.61,12107,1,12107,1,4.6957e-05,-3.8172e-10,0,0.00052158,-8.5786e-06,-1.4869e+06,-122.72,0,1.9156e+08,-5.0687,12106,13208,1,13208,1,0.0010531,4.3128e-09,0,0.0010531,0.00017844,3.3449e+08,1391.2,0,3.8694e+08,157.55,13207,12107,1,12107,1,1.376e-05,-7.1565e-11,0,0.00053341,-2.373e-06,5.0673e+06,-22.666,0,2.0576e+08,-14.827,12106,10985,1,10985,1,-0.00095134,-4.3754e-09,0,1.3758e-05,-0.00019697,-3.8694e+08,-1385.8,0,5.0664e+06,-149.39,10984,11579,1,11579,1,-0.00050589,-1.7891e-09,0,0.00028319,-9.9682e-05,-2.0576e+08,-580.29,0,1.1241e+08,-47.975,11578,12634,1,12634,1,0.00053343,8.119e-10,0,0.00080284,9.4937e-05,1.8464e+08,248.24,0,2.9129e+08,33.251,12633,611.88,0,611.88,0,0.00060087,1.9719e-09,0,0.00030178,0.00011252,2.1972e+08,629.76,0,1.0755e+08,58.364,611.88,1
2111,3.62,12107,1,12107,1,4.7399e-05,1.3675e-09,0,0.00052311,-8.6594e-06,-1.4908e+06,431.83,0,1.9199e+08,3.088,12106,13208,1,13208,1,0.0010564,3.0873e-09,0,0.0010564,0.0001789,3.3504e+08,965.09,0,3.8794e+08,142.34,13207,12107,1,12107,1,1.4107e-05,1.4273e-09,0,0.00053526,-2.4343e-06,5.1984e+06,437.67,0,2.0623e+08,-3.3166,12106,10985,1,10985,1,-0.00095378,-5.2674e-10,0,1.4105e-05,-0.00019759,-3.8794e+08,-180.41,0,5.1974e+06,-103.8,10984,11579,1,11579,1,-0.00050705,6.1196e-10,0,0.0002837,-0.00010002,-2.0623e+08,191.16,0,1.1277e+08,-29.106,11578,12634,1,12634,1,0.00053527,2.1909e-09,0,0.00080485,9.5155e-05,1.8509e+08,695.86,0,2.9181e+08,31.601,12633,611.88,0,611.88,0,0.0006026,9.5195e-10,0,0.00030266,0.00011285,2.2021e+08,304.18,0,1.0778e+08,42.562,611.88,1
2111,3.63,12107,1,12107,1,4.7848e-05,-1.487e-09,0,0.00052464,-8.7416e-06,-1.4943e+06,-469.48,0,1.9243e+08,-19.935,12106,13208,1,13208,1,0.0010598,7.229e-10,0,0.0010598,0.00017936,3.3559e+08,247.59,0,3.8893e+08,165.26,13207,12107,1,12107,1,1.446e-05,-1.641e-09,0,0.00053711,-2.4971e-06,5.3314e+06,-519.6,0,2.067e+08,-20.006,12106,10985,1,10985,1,-0.00095621,-3.2255e-09,0,1.4459e-05,-0.00019821,-3.8893e+08,-1020.6,0,5.331e+06,-179.23,10984,11579,1,11579,1,-0.00050819,-2.4176e-09,0,0.0002842,-0.00010037,-2.067e+08,-773.57,0,1.1312e+08,-45.255,11578,12634,1,12634,1,0.00053712,-6.2369e-10,0,0.00080685,9.537e-05,1.8554e+08,-188.66,0,2.9232e+08,6.9581,12633,611.88,0,611.88,0,0.00060434,1.0811e-09,0,0.00030355,0.00011317,2.207e+08,342.61,0,1.08e+08,49.522,611.88,1
2111,3.64,12107,1,12107,1,4.8298e-05,1.9095e-09,0,0.00052613,-8.8236e-06,-1.4977e+06,604.44,0,1.9285e+08,49.62,12106,13208,1,13208,1,0.0010631,1.1892e-08,0,0.0010631,0.00017981,3.3612e+08,3766.5,0,3.899e+08,464.27,13207,12107,1,12107,1,1.4816e-05,7.7151e-10,0,0.00053894,-2.5599e-06,5.4658e+06,240.58,0,2.0715e+08,45.797,12106,10985,1,10985,1,-0.0009586,-5.0076e-09,0,1.4814e-05,-0.00019883,-3.899e+08,-1587.9,0,5.4651e+06,-466.46,10984,11579,1,11579,1,-0.0005093,-7.0066e-10,0,0.00028468,-0.00010071,-2.0715e+08,-220.01,0,1.1347e+08,-42.303,11578,12634,1,12634,1,0.00053896,4.2963e-09,0,0.0008088,9.5579e-05,1.8599e+08,1361.4,0,2.9282e+08,117.21,12633,611.88,0,611.88,0,0.00060603,3.6999e-09,0,0.00030441,0.00011349,2.2117e+08,1179.1,0,1.0822e+08,127.7,611.88,1
2111,3.65,12107,1,12107,1,4.8748e-05,1.0762e-09,0,0.00052766,-8.9059e-06,-1.5014e+06,347.51,0,1.9329e+08,-20.983,12106,13208,1,13208,1,0.0010665,5.0022e-09,0,0.0010665,0.00018026,3.3665e+08,1623.8,0,3.9089e+08,144.06,13207,12107,1,12107,1,1.5171e-05,5.7865e-10,0,0.0005408,-2.6226e-06,5.5997e+06,176.4,0,2.0762e+08,-22.93,12106,10985,1,10985,1,-0.00096103,-1.6735e-09,0,1.5168e-05,-0.00019945,-3.9089e+08,-559.94,0,5.5983e+06,-209.22,10984,11579,1,11579,1,-0.00051046,-1.2126e-10,0,0.00028519,-0.00010105,-2.0762e+08,-34.73,0,1.1383e+08,-63.352,11578,12634,1,12634,1,0.00054082,2.1501e-09,0,0.00081082,9.5796e-05,1.8644e+08,692.07,0,2.9334e+08,21.678,12633,611.88,0,611.88,0,0.00060778,1.5703e-09,0,0.0003053,0.00011381,2.2167e+08,513.31,0,1.0844e+08,68.075,611.88,1
2111,3.66,12107,1,12107,1,4.9206e-05,-2.3567e-09,0,0.00052918,-8.9896e-06,-1.5049e+06,-741.01,0,1.9371e+08,-38.458,12106,13208,1,13208,1,0.0010698,2.5775e-09,0,0.0010698,0.00018071,3.3719e+08,882.57,0,3.9187e+08,127.75,13207,12107,1,12107,1,1.5534e-05,-2.1947e-09,0,0.00054264,-2.6871e-06,5.7361e+06,-675.24,0,2.0807e+08,-37.851,12106,10985,1,10985,1,-0.00096344,-7.3192e-09,0,1.553e-05,-0.00020008,-3.9187e+08,-2312.8,0,5.7349e+06,-259.91,10984,11579,1,11579,1,-0.00051158,-4.5397e-09,0,0.00028567,-0.0001014,-2.0807e+08,-1425.8,0,1.1418e+08,-89.784,11578,12634,1,12634,1,0.00054267,-1.546e-10,0,0.00081278,9.6007e-05,1.8689e+08,-45.186,0,2.9383e+08,16.197,12633,611.88,0,611.88,0,0.0006095,2.4803e-09,0,0.00030618,0.00011413,2.2214e+08,789.99,0,1.0866e+08,70.047,611.88,1
2111,3.67,12107,1,12107,1,4.9665e-05,-4.0381e-10,0,0.00053072,-9.0736e-06,-1.5086e+06,-133.55,0,1.9415e+08,-24.404,12106,13208,1,13208,1,0.0010732,7.6284e-10,0,0.0010732,0.00018117,3.3771e+08,261.21,0,3.9285e+08,42.774,13207,12107,1,12107,1,1.5897e-05,-2.4713e-10,0,0.00054452,-2.7513e-06,5.8729e+06,-75.528,0,2.0854e+08,-15.918,12106,10985,1,10985,1,-0.00096586,-1.6639e-09,0,1.5893e-05,-0.0002007,-3.9285e+08,-561.08,0,5.8715e+06,-171.1,10984,11579,1,11579,1,-0.00051273,-8.2362e-10,0,0.00028618,-0.00010175,-2.0854e+08,-269.57,0,1.1454e+08,-45.498,11578,12634,1,12634,1,0.00054454,2.6348e-11,0,0.00081481,9.6224e-05,1.8734e+08,8.2929,0,2.9434e+08,-0.43229,12633,611.88,0,611.88,0,0.00061124,5.6723e-10,0,0.00030707,0.00011446,2.2263e+08,187.11,0,1.0889e+08,31.537,611.88,1
2111,3.68,12107,1,12107,1,5.013e-05,2.4835e-09,0,0.00053223,-9.1583e-06,-1.5121e+06,785.19,0,1.9457e+08,41.883,12106,13208,1,13208,1,0.0010765,1.1832e-08,0,0.0010765,0.00018162,3.3824e+08,3750.2,0,3.9383e+08,478.57,13207,12107,1,12107,1,1.6265e-05,1.6537e-09,0,0.00054637,-2.8166e-06,6.0113e+06,500.37,0,2.0899e+08,32.822,12106,10985,1,10985,1,-0.00096828,-2.8866e-09,0,1.6263e-05,-0.00020133,-3.9383e+08,-968.38,0,6.0104e+06,-490.27,10984,11579,1,11579,1,-0.00051384,-2.6387e-10,0,0.00028665,-0.00010209,-2.0899e+08,-76.242,0,1.1489e+08,-40.947,11578,12634,1,12634,1,0.0005464,4.6892e-09,0,0.00081676,9.6433e-05,1.8779e+08,1463.7,0,2.9483e+08,107.57,12633,611.88,0,611.88,0,0.00061296,3.355e-09,0,0.00030795,0.00011478,2.2311e+08,1071.8,0,1.091e+08,131.15,611.88,1
2111,3.69,12107,1,12107,1,5.0594e-05,7.1095e-10,0,0.00053376,-9.2432e-06,-1.5159e+06,232.9,0,1.95e+08,-14.966,12106,13208,1,13208,1,0.0010799,2.201e-09,0,0.0010799,0.00018207,3.3876e+08,753.49,0,3.9481e+08,86.112,13207,12107,1,12107,1,1.6635e-05,5.5939e-10,0,0.00054825,-2.8819e-06,6.15e+06,175.48,0,2.0946e+08,-12.585,12106,10985,1,10985,1,-0.00097068,-3.6365e-10,0,1.6631e-05,-0.00020195,-3.9481e+08,-124.52,0,6.1485e+06,-125.6,10984,11579,1,11579,1,-0.00051499,1.1105e-10,0,0.00028715,-0.00010244,-2.0946e+08,32.876,0,1.1524e+08,-39.086,11578,12634,1,12634,1,0.00054826,1.2635e-09,0,0.00081877,9.6648e-05,1.8823e+08,412.8,0,2.9533e+08,9.1949,12633,611.88,0,611.88,0,0.0006147,6.9244e-10,0,0.00030884,0.0001151,2.2359e+08,231.4,0,1.0933e+08,34.024,611.88,1
2111,3.7,12107,1,12107,1,5.1064e-05,2.9992e-09,0,0.00053528,-9.329e-06,-1.5193e+06,955.45,0,1.9542e+08,38.587,12106,13208,1,13208,1,0.0010833,1.2299e-08,0,0.0010833,0.00018253,3.3928e+08,3915,0,3.958e+08,508.22,13207,12107,1,12107,1,1.701e-05,2.229e-09,0,0.0005501,-2.9489e-06,6.2907e+06,680.73,0,2.0991e+08,22.374,12106,10985,1,10985,1,-0.0009731,-1.6009e-09,0,1.7005e-05,-0.00020258,-3.958e+08,-516.33,0,6.2891e+06,-486.48,10984,11579,1,11579,1,-0.00051609,9.5076e-11,0,0.00028762,-0.00010279,-2.0991e+08,31.428,0,1.156e+08,-43.382,11578,12634,1,12634,1,0.00055014,5.2221e-09,0,0.00082072,9.6856e-05,1.8868e+08,1645,0,2.9581e+08,99.115,12633,611.88,0,611.88,0,0.00061642,3.337e-09,0,0.00030972,0.00011543,2.2407e+08,1071.6,0,1.0954e+08,134.29,611.88,1
2111,3.71,12107,1,12107,1,5.1536e-05,-4.6546e-11,0,0.00053682,-9.4155e-06,-1.5229e+06,-3.0887,0,1.9585e+08,-34.972,12106,13208,1,13208,1,0.0010866,7.6054e-10,0,0.0010866,0.00018298,3.398e+08,260.44,0,3.9677e+08,66.683,13207,12107,1,12107,1,1.7386e-05,8.2612e-11,0,0.000552,-3.0153e-06,6.4319e+06,26.828,0,2.1038e+08,-32.63,12106,10985,1,10985,1,-0.00097549,-1.771e-09,0,1.738e-05,-0.00020321,-3.9677e+08,-498.16,0,6.4296e+06,-176.19,10984,11579,1,11579,1,-0.00051724,-2.9754e-10,0,0.00028811,-0.00010313,-2.1038e+08,-83.747,0,1.1596e+08,-62.57,11578,12634,1,12634,1,0.00055202,3.2911e-10,0,0.00082274,9.7072e-05,1.8912e+08,112.17,0,2.9632e+08,-7.5394,12633,611.88,0,611.88,0,0.00061817,5.6741e-10,0,0.00031062,0.00011575,2.2455e+08,172.11,0,1.0977e+08,41.071,611.88,1
2111,3.72,12107,1,12107,1,5.2013e-05,9.0223e-11,0,0.00053834,-9.5026e-06,-1.5266e+06,32.558,0,1.9628e+08,0.91445,12106,13208,1,13208,1,0.00109,3.0908e-09,0,0.00109,0.00018343,3.403e+08,998.42,0,3.9774e+08,85.625,13207,12107,1,12107,1,1.7765e-05,6.4356e-11,0,0.00055388,-3.0825e-06,6.5737e+06,19.071,0,2.1083e+08,0.1446,12106,10985,1,10985,1,-0.00097789,-1.9451e-09,0,1.7763e-05,-0.00020383,-3.9774e+08,-612.61,0,6.573e+06,-155.09,10984,11579,1,11579,1,-0.00051835,-7.2408e-10,0,0.00028859,-0.00010348,-2.1083e+08,-225.53,0,1.1631e+08,-25.05,11578,12634,1,12634,1,0.00055389,6.7435e-10,0,0.0008247,9.7281e-05,1.8957e+08,217.47,0,2.968e+08,32.029,12633,611.88,0,611.88,0,0.0006199,1.0943e-09,0,0.00031151,0.00011607,2.2502e+08,348.73,0,1.0998e+08,40.048,611.88,1
2111,3.73,12107,1,12107,1,5.2491e-05,1.6151e-09,0,0.00053987,-9.59e-06,-1.5301e+06,511.73,0,1.967e+08,13.435,12106,13208,1,13208,1,0.0010934,4.8645e-09,0,0.0010934,0.00018388,3.4082e+08,1547.9,0,3.9873e+08,205.41,13207,12107,1,12107,1,1.8147e-05,1.6186e-09,0,0.00055576,-3.1505e-06,6.7166e+06,500.87,0,2.1128e+08,2.1652,12106,10985,1,10985,1,-0.00098032,-8.1137e-10,0,1.8146e-05,-0.00020447,-3.9873e+08,-236.59,0,6.7161e+06,-222.12,10984,11579,1,11579,1,-0.00051947,5.6563e-10,0,0.00028906,-0.00010383,-2.1128e+08,173.78,0,1.1667e+08,-20.69,11578,12634,1,12634,1,0.00055578,2.4793e-09,0,0.00082667,9.7491e-05,1.9002e+08,790.67,0,2.9728e+08,42.053,12633,611.88,0,611.88,0,0.00062164,1.3161e-09,0,0.0003124,0.0001164,2.255e+08,422.51,0,1.102e+08,56.983,611.88,1
2111,3.74,12107,1,12107,1,5.2973e-05,-1.7559e-10,0,0.00054139,-9.678e-06,-1.5334e+06,-48.872,0,1.9712e+08,-16.339,12106,13208,1,13208,1,0.0010968,2.5389e-09,0,0.0010968,0.00018433,3.4131e+08,830.6,0,3.9969e+08,95.411,13207,12107,1,12107,1,1.8535e-05,-2.3705e-10,0,0.00055764,-3.2191e-06,6.8614e+06,-71.004,0,2.1173e+08,-19.627,12106,10985,1,10985,1,-0.00098267,-1.4183e-09,0,1.8532e-05,-0.00020509,-3.9969e+08,-438.99,0,6.8602e+06,-123.77,10984,11579,1,11579,1,-0.00052057,-8.3854e-10,0,0.00028953,-0.00010418,-2.1173e+08,-255.99,0,1.1702e+08,-42.067,11578,12634,1,12634,1,0.00055765,2.0354e-10,0,0.00082864,9.7699e-05,1.9045e+08,67.341,0,2.9776e+08,1.3886,12633,611.88,0,611.88,0,0.00062336,8.5063e-10,0,0.00031328,0.00011672,2.2597e+08,270.32,0,1.1041e+08,37.275,611.88,1
2111,3.75,12107,1,12107,1,5.3454e-05,-9.8017e-10,0,0.00054292,-9.766e-06,-1.5373e+06,-308.92,0,1.9754e+08,-8.6396,12106,13208,1,13208,1,0.0011002,8.9346e-10,0,0.0011002,0.00018478,3.4182e+08,278.02,0,4.0067e+08,180.14,13207,12107,1,12107,1,1.8919e-05,-8.9488e-10,0,0.00055952,-3.2876e-06,7.0048e+06,-287.76,0,2.1218e+08,-12.857,12106,10985,1,10985,1,-0.00098509,-3.1225e-09,0,1.8917e-05,-0.00020572,-4.0067e+08,-989.8,0,7.0042e+06,-147.83,10984,11579,1,11579,1,-0.00052169,-1.7909e-09,0,0.00029,-0.00010453,-2.1218e+08,-563.13,0,1.1738e+08,-47.76,11578,12634,1,12634,1,0.00055954,-1.5997e-10,0,0.0008306,9.7909e-05,1.909e+08,-49.621,0,2.9824e+08,25.151,12633,611.88,0,611.88,0,0.00062509,9.937e-10,0,0.00031417,0.00011704,2.2645e+08,314.99,0,1.1063e+08,51.174,611.88,1
2111,3.76,12107,1,12107,1,5.3943e-05,-3.6804e-10,0,0.00054445,-9.8553e-06,-1.5406e+06,-120.83,0,1.9796e+08,-10.662,12106,13208,1,13208,1,0.0011036,2.2607e-09,0,0.0011036,0.00018523,3.4231e+08,716.36,0,4.0164e+08,115.96,13207,12107,1,12107,1,1.9312e-05,-3.5907e-10,0,0.00056142,-3.3574e-06,7.1514e+06,-109.08,0,2.1264e+08,-9.1559,12106,10985,1,10985,1,-0.00098748,-2.1242e-09,0,1.931e-05,-0.00020635,-4.0164e+08,-685.23,0,7.1505e+06,-112.82,10984,11579,1,11579,1,-0.0005228,-1.1288e-09,0,0.00029046,-0.00010488,-2.1264e+08,-364.59,0,1.1773e+08,-41.594,11578,12634,1,12634,1,0.00056143,2.9783e-10,0,0.00083257,9.8118e-05,1.9134e+08,86.151,0,2.9872e+08,16.674,12633,611.88,0,611.88,0,0.00062683,9.4299e-10,0,0.00031506,0.00011737,2.2692e+08,300.76,0,1.1085e+08,42.229,611.88,1
2111,3.77,12107,1,12107,1,5.4434e-05,1.6241e-09,0,0.00054598,-9.945e-06,-1.5442e+06,510.43,0,1.9838e+08,20.606,12106,13208,1,13208,1,0.001107,5.5449e-09,0,0.001107,0.00018568,3.4282e+08,1746.6,0,4.0263e+08,232.34,13207,12107,1,12107,1,1.9708e-05,1.3606e-09,0,0.00056332,-3.4278e-06,7.2986e+06,415.98,0,2.1309e+08,10.682,12106,10985,1,10985,1,-0.00098989,-1.0595e-09,0,1.9705e-05,-0.00020699,-4.0263e+08,-362.77,0,7.2977e+06,-270.69,10984,11579,1,11579,1,-0.0005239,5.9869e-11,0,0.00029093,-0.00010524,-2.1309e+08,18.184,0,1.1809e+08,-25.604,11578,12634,1,12634,1,0.00056333,3.0257e-09,0,0.00083454,9.8326e-05,1.9178e+08,954.46,0,2.9919e+08,67.67,12633,611.88,0,611.88,0,0.00062857,1.7298e-09,0,0.00031596,0.00011769,2.2739e+08,549.52,0,1.1106e+08,72.009,611.88,1
2111,3.78,12107,1,12107,1,5.4928e-05,5.1927e-10,0,0.0005475,-1.0035e-05,-1.5477e+06,169.81,0,1.988e+08,7.0072,12106,13208,1,13208,1,0.0011103,4.4065e-09,0,0.0011103,0.00018612,3.433e+08,1412.4,0,4.0359e+08,146.34,13207,12107,1,12107,1,2.0107e-05,5.9636e-11,0,0.00056521,-3.499e-06,7.4472e+06,19.694,0,2.1353e+08,3.4581,12106,10985,1,10985,1,-0.00099226,-1.6901e-09,0,2.0104e-05,-0.00020762,-4.0359e+08,-530.62,0,7.4461e+06,-127.02,10984,11579,1,11579,1,-0.000525,-3.9114e-10,0,0.00029139,-0.00010559,-2.1353e+08,-115.83,0,1.1845e+08,-23.633,11578,12634,1,12634,1,0.00056523,1.2958e-09,0,0.00083649,9.8533e-05,1.9222e+08,414.58,0,2.9966e+08,28.991,12633,611.88,0,611.88,0,0.0006303,1.3322e-09,0,0.00031685,0.00011802,2.2786e+08,427.62,0,1.1128e+08,43.734,611.88,1
2111,3.79,12107,1,12107,1,5.5424e-05,2.8619e-10,0,0.00054904,-1.0126e-05,-1.5513e+06,94.914,0,1.9921e+08,-7.9111,12106,13208,1,13208,1,0.0011137,3.0721e-09,0,0.0011137,0.00018657,3.4378e+08,990.07,0,4.0456e+08,89.594,13207,12107,1,12107,1,2.0506e-05,-1.6056e-11,0,0.00056712,-3.5701e-06,7.5956e+06,-4.7953,0,2.1398e+08,-10.797,12106,10985,1,10985,1,-0.00099464,-1.0273e-09,0,2.0504e-05,-0.00020825,-4.0456e+08,-322.4,0,7.5949e+06,-95.395,10984,11579,1,11579,1,-0.00052611,-2.5149e-10,0,0.00029184,-0.00010594,-2.1398e+08,-76.217,0,1.187e+08,-26.872,11578,12634,1,12634,1,0.00056712,6.8045e-10,0,0.00083846,9.8741e-05,1.9266e+08,215.19,0,3.0013e+08,8.5447,12633,611.88,0,611.88,0,0.00063204,8.3994e-10,0,0.00031774,0.00011834,2.2833e+08,271.44,0,1.1149e+08,31.127,611.88,1
2111,3.8,12107,1,12107,1,5.5925e-05,2.9309e-09,0,0.00055057,-1.0217e-05,-1.5548e+06,927.68,0,1.9963e+08,22.922,12106,13208,1,13208,1,0.0011172,8.7282e-09,0,0.0011172,0.00018703,3.4428e+08,2758.1,0,4.0554e+08,256.84,13207,12107,1,12107,1,2.0911e-05,2.6266e-09,0,0.00056901,-3.6423e-06,7.7459e+06,807.07,0,2.1443e+08,21.538,12106,10985,1,10985,1,-0.00099706,-1.3059e-09,0,2.0908e-05,-0.00020889,-4.0554e+08,-447.27,0,7.7448e+06,-244.86,10984,11579,1,11579,1,-0.0005272,7.4347e-10,0,0.00029229,-0.0001063,-2.1443e+08,224.11,0,1.1888e+08,-27.18,11578,12634,1,12634,1,0.00056905,4.9745e-09,0,0.0008404,9.8946e-05,1.9311e+08,1574.3,0,3.0059e+08,76.863,12633,611.88,0,611.88,0,0.00063377,2.5202e-09,0,0.00031864,0.00011866,2.2879e+08,807.47,0,1.117e+08,78.471,611.88,1
2111,3.81,12107,1,12107,1,5.6427e-05,3.3871e-09,0,0.00055209,-1.0309e-05,-1.5584e+06,1081.1,0,2.0004e+08,21.501,12106,13208,1,13208,1,0.0011206,1.1634e-08,0,0.0011206,0.00018747,3.4475e+08,3706,0,4.0651e+08,311.01,13207,12107,1,12107,1,2.1321e-05,2.8635e-09,0,0.00057091,-3.7153e-06,7.8978e+06,902.13,0,2.1487e+08,19.307,12106,10985,1,10985,1,-0.00099944,-1.6885e-09,0,2.1313e-05,-0.00020953,-4.0651e+08,-566.07,0,7.8949e+06,-262.25,10984,11579,1,11579,1,-0.00052828,3.5917e-10,0,0.00029274,-0.00010665,-2.1487e+08,108.6,0,1.1906e+08,-55.705,11578,12634,1,12634,1,0.00057096,6.0649e-09,0,0.00084233,9.915e-05,1.9354e+08,1922.5,0,3.0105e+08,98.812,12633,611.88,0,611.88,0,0.0006355,3.3605e-09,0,0.00031953,0.00011899,2.2925e+08,1083.8,0,1.1191e+08,100.97,611.88,1
2111,3.82,12107,1,12107,1,5.6934e-05,3.2068e-09,0,0.00055363,-1.0402e-05,-1.5616e+06,1029.7,0,2.0046e+08,8.7575,12106,13208,1,13208,1,0.001124,1.0644e-08,0,0.001124,0.00018792,3.4524e+08,3414.6,0,4.0748e+08,278.85,13207,12107,1,12107,1,2.1733e-05,2.7168e-09,0,0.00057282,-3.789e-06,8.0503e+06,819.57,0,2.1531e+08,7.5784,12106,10985,1,10985,1,-0.0010018,-1.5326e-09,0,2.1722e-05,-0.00021017,-4.0748e+08,-469.43,0,8.0464e+06,-226.87,10984,11579,1,11579,1,-0.00052938,3.7201e-10,0,0.00029319,-0.00010701,-2.1531e+08,116.29,0,1.1924e+08,-63.838,11578,12634,1,12634,1,0.00057288,5.7305e-09,0,0.00084429,9.9357e-05,1.9398e+08,1843.7,0,3.0151e+08,83.756,12633,611.88,0,611.88,0,0.00063725,3.1452e-09,0,0.00032043,0.00011931,2.2972e+08,1020.9,0,1.1213e+08,93.67,611.88,1
2111,3.83,12107,1,12107,1,5.7445e-05,2.9067e-09,0,0.00055517,-1.0495e-05,-1.5652e+06,934.48,0,2.0087e+08,-34.494,12106,13208,1,13208,1,0.0011275,7.173e-09,0,0.0011275,0.00018837,3.457e+08,2446.3,0,4.0845e+08,240.3,13207,12107,1,12107,1,2.2148e-05,2.865e-09,0,0.00057474,-3.8633e-06,8.2039e+06,876.68,0,2.1576e+08,-26.392,12106,10985,1,10985,1,-0.0010042,-1.138e-09,0,2.2137e-05,-0.0002108,-4.0845e+08,-306.81,0,8.1997e+06,-311.94,10984,11579,1,11579,1,-0.00053047,8.1485e-10,0,0.00029364,-0.00010737,-2.1576e+08,237.2,0,1.1942e+08,-101.21,11578,12634,1,12634,1,0.0005748,4.9406e-09,0,0.00084624,9.9562e-05,1.9442e+08,1587.7,0,3.0197e+08,41.087,12633,611.88,0,611.88,0,0.00063898,2.3738e-09,0,0.00032132,0.00011964,2.3019e+08,778.29,0,1.1234e+08,100.8,611.88,1
2111,3.84,12107,1,12107,1,5.7958e-05,-3.5001e-10,0,0.00055671,-1.0589e-05,-1.5691e+06,-91.89,0,2.0129e+08,-4.7758,12106,13208,1,13208,1,0.0011308,2.6212e-09,0,0.0011308,0.00018881,3.4618e+08,897.48,0,4.094e+08,140.64,13207,12107,1,12107,1,2.2563e-05,-3.1169e-10,0,0.00057669,-3.9376e-06,8.3573e+06,-90.232,0,2.1621e+08,-2.6491,12106,10985,1,10985,1,-0.0010066,-2.5605e-09,0,2.2554e-05,-0.00021143,-4.094e+08,-763.48,0,8.3538e+06,-228.06,10984,11579,1,11579,1,-0.00053157,-1.2836e-09,0,0.00029409,-0.00010772,-2.1621e+08,-386.28,0,1.1961e+08,-35.043,11578,12634,1,12634,1,0.0005767,4.6492e-10,0,0.00084822,9.977e-05,1.9485e+08,153.73,0,3.0243e+08,33.872,12633,611.88,0,611.88,0,0.00064073,1.1969e-09,0,0.00032223,0.00011996,2.3065e+08,372.82,0,1.1255e+08,54.249,611.88,1
2111,3.85,12107,1,12107,1,5.8478e-05,1.777e-09,0,0.00055825,-1.0684e-05,-1.5724e+06,563.35,0,2.017e+08,-22.545,12106,13208,1,13208,1,0.0011343,4.1954e-09,0,0.0011343,0.00018926,3.4665e+08,1358.2,0,4.1038e+08,165.08,13207,12107,1,12107,1,2.2983e-05,1.8225e-09,0,0.00057862,-4.0131e-06,8.5121e+06,573.11,0,2.1665e+08,-22.57,12106,10985,1,10985,1,-0.001009,-7.5992e-10,0,2.298e-05,-0.00021208,-4.1038e+08,-260.27,0,8.5109e+06,-175.36,10984,11579,1,11579,1,-0.00053266,6.2258e-10,0,0.00029453,-0.00010808,-2.1665e+08,191.42,0,1.1979e+08,-57.03,11578,12634,1,12634,1,0.00057865,2.9317e-09,0,0.00085016,9.9974e-05,1.9529e+08,940.25,0,3.0288e+08,16.716,12633,611.88,0,611.88,0,0.00064248,1.3562e-09,0,0.00032313,0.00012029,2.3112e+08,437.37,0,1.1276e+08,59.678,611.88,1
2111,3.86,12107,1,12107,1,5.9e-05,-1.3214e-09,0,0.00055979,-1.078e-05,-1.576e+06,-405.51,0,2.0211e+08,4.5035,12106,13208,1,13208,1,0.0011377,4.9744e-10,0,0.0011377,0.0001897,3.4711e+08,170.37,0,4.1134e+08,91.099,13207,12107,1,12107,1,2.3409e-05,-1.2607e-09,0,0.00058056,-4.0893e-06,8.6691e+06,-393.31,0,2.1709e+08,4.294,12106,10985,1,10985,1,-0.0010113,-3.2298e-09,0,2.3405e-05,-0.00021271,-4.1134e+08,-994.23,0,8.6675e+06,-134.38,10984,11579,1,11579,1,-0.00053375,-2.16e-09,0,0.00029496,-0.00010844,-2.1709e+08,-660.08,0,1.1996e+08,-14.482,11578,12634,1,12634,1,0.00058057,-4.8833e-10,0,0.00085212,0.00010018,1.9572e+08,-148.35,0,3.0333e+08,25.439,12633,611.88,0,611.88,0,0.00064423,9.8605e-10,0,0.00032403,0.00012062,2.3158e+08,301.21,0,1.1297e+08,33.475,611.88,1
2111,3.87,12107,1,12107,1,5.9524e-05,1.8665e-09,0,0.00056133,-1.0875e-05,-1.5794e+06,584.94,0,2.0252e+08,-12.26,12106,13208,1,13208,1,0.0011412,4.8764e-09,0,0.0011412,0.00019015,3.4757e+08,1501.7,0,4.1231e+08,234.05,13207,12107,1,12107,1,2.3836e-05,1.9171e-09,0,0.00058249,-4.1662e-06,8.826e+06,588.27,0,2.1752e+08,-18.277,12106,10985,1,10985,1,-0.0010137,-9.2025e-10,0,2.3835e-05,-0.00021335,-4.1231e+08,-315.18,0,8.8257e+06,-187.24,10984,11579,1,11579,1,-0.00053482,5.3448e-10,0,0.00029539,-0.0001088,-2.1752e+08,165.58,0,1.2014e+08,-63.349,11578,12634,1,12634,1,0.00058251,3.1319e-09,0,0.00085404,0.00010038,1.9616e+08,989.32,0,3.0377e+08,35.277,12633,611.88,0,611.88,0,0.00064597,1.5437e-09,0,0.00032493,0.00012094,2.3203e+08,489.24,0,1.1318e+08,74.889,611.88,1
2111,3.88,12107,1,12107,1,6.005e-05,2.0858e-09,0,0.00056286,-1.0972e-05,-1.583e+06,663.38,0,2.0292e+08,18.027,12106,13208,1,13208,1,0.0011446,8.9016e-09,0,0.0011446,0.0001906,3.4802e+08,2789,0,4.1327e+08,234.83,13207,12107,1,12107,1,2.4268e-05,1.0771e-09,0,0.00058442,-4.2433e-06,8.9848e+06,339.77,0,2.1796e+08,1.3223,12106,10985,1,10985,1,-0.0010161,-8.7517e-10,0,2.4264e-05,-0.000214,-4.1327e+08,-282.73,0,8.9832e+06,-198.17,10984,11579,1,11579,1,-0.00053589,1.8875e-10,0,0.00029583,-0.00010916,-2.1796e+08,58.187,0,1.2031e+08,-37.594,11578,12634,1,12634,1,0.00058445,3.7045e-09,0,0.00085599,0.00010058,1.9659e+08,1182.5,0,3.0422e+08,70.837,12633,611.88,0,611.88,0,0.00064771,2.3823e-09,0,0.00032583,0.00012126,2.3249e+08,759.84,0,1.1339e+08,76.782,611.88,1
2111,3.89,12107,1,12107,1,6.0581e-05,-8.0394e-10,0,0.00056441,-1.1069e-05,-1.5863e+06,-241.61,0,2.0333e+08,0.99445,12106,13208,1,13208,1,0.0011481,2.7723e-09,0,0.0011481,0.00019104,3.4848e+08,922.94,0,4.1423e+08,228.18,13207,12107,1,12107,1,2.4703e-05,-5.8658e-10,0,0.00058637,-4.3217e-06,9.1445e+06,-174.79,0,2.184e+08,-5.5538,12106,10985,1,10985,1,-0.0010184,-4.5129e-09,0,2.4697e-05,-0.00021463,-4.1423e+08,-1408.1,0,9.1425e+06,-230.98,10984,11579,1,11579,1,-0.00053697,-2.0624e-09,0,0.00029626,-0.00010952,-2.184e+08,-626.98,0,1.2049e+08,-44.018,11578,12634,1,12634,1,0.00058638,4.1625e-10,0,0.00085793,0.00010079,1.9702e+08,133.15,0,3.0466e+08,39.625,12633,611.88,0,611.88,0,0.00064945,1.6435e-09,0,0.00032674,0.00012159,2.3295e+08,517.34,0,1.136e+08,77.532,611.88,1
2111,3.9,12107,1,12107,1,6.1117e-05,1.6992e-09,0,0.00056595,-1.1167e-05,-1.5897e+06,531.85,0,2.0374e+08,-24.881,12106,13208,1,13208,1,0.0011515,3.5703e-09,0,0.0011515,0.00019148,3.4892e+08,1098.1,0,4.152e+08,114.71,13207,12107,1,12107,1,2.5139e-05,1.8578e-09,0,0.00058832,-4.4005e-06,9.3044e+06,574.93,0,2.1884e+08,-17.173,12106,10985,1,10985,1,-0.0010208,-6.257e-10,0,2.5138e-05,-0.00021528,-4.152e+08,-214.3,0,9.3039e+06,-179.72,10984,11579,1,11579,1,-0.00053805,8.7365e-10,0,0.00029668,-0.00010988,-2.1884e+08,257.6,0,1.2066e+08,-54.693,11578,12634,1,12634,1,0.00058834,2.5781e-09,0,0.00085986,0.00010099,1.9746e+08,820.05,0,3.051e+08,11.025,12633,611.88,0,611.88,0,0.00065121,1.0818e-09,0,0.00032765,0.00012192,2.3341e+08,341.87,0,1.1381e+08,60.093,611.88,1
2111,3.91,12107,1,12107,1,6.1653e-05,1.3282e-09,0,0.00056748,-1.1265e-05,-1.5933e+06,423.6,0,2.0414e+08,13.676,12106,13208,1,13208,1,0.001155,6.3613e-09,0,0.001155,0.00019192,3.4936e+08,2005.6,0,4.1615e+08,208.09,13207,12107,1,12107,1,2.5581e-05,7.4182e-10,0,0.00059026,-4.4798e-06,9.4663e+06,229.14,0,2.1927e+08,11.657,12106,10985,1,10985,1,-0.0010232,-1.6599e-09,0,2.5578e-05,-0.00021592,-4.1615e+08,-499.24,0,9.465e+06,-134.91,10984,11579,1,11579,1,-0.00053911,-2.6354e-11,0,0.0002971,-0.00011024,-2.1927e+08,-7.9276,0,1.2083e+08,-23.009,11578,12634,1,12634,1,0.00059028,2.554e-09,0,0.00086178,0.00010119,1.9788e+08,812.87,0,3.0553e+08,43.705,12633,611.88,0,611.88,0,0.00065294,1.787e-09,0,0.00032854,0.00012224,2.3386e+08,568.01,0,1.1401e+08,54.97,611.88,1
2111,3.92,12107,1,12107,1,6.2193e-05,-1.4839e-09,0,0.00056904,-1.1363e-05,-1.5967e+06,-457.44,0,2.0455e+08,-5.2916,12106,13208,1,13208,1,0.0011585,7.7716e-10,0,0.0011585,0.00019237,3.4982e+08,266.17,0,4.1712e+08,162.63,13207,12107,1,12107,1,2.6023e-05,-1.4454e-09,0,0.00059223,-4.5599e-06,9.628e+06,-434.13,0,2.1971e+08,-6.5746,12106,10985,1,10985,1,-0.0010255,-3.9189e-09,0,2.6021e-05,-0.00021657,-4.1712e+08,-1218.7,0,9.6271e+06,-188.51,10984,11579,1,11579,1,-0.00054018,-2.4595e-09,0,0.00029752,-0.0001106,-2.1971e+08,-757.95,0,1.21e+08,-46.038,11578,12634,1,12634,1,0.00059224,-4.2822e-10,0,0.00086373,0.00010139,1.9832e+08,-141.03,0,3.0596e+08,37.403,12633,611.88,0,611.88,0,0.0006547,1.2142e-09,0,0.00032946,0.00012257,2.3432e+08,377.4,0,1.1422e+08,59.659,611.88,1
2111,3.93,12107,1,12107,1,6.2736e-05,-2.9376e-09,0,0.00057055,-1.1462e-05,-1.6003e+06,-921.25,0,2.0494e+08,41.455,12106,13208,1,13208,1,0.0011619,3.3724e-09,0,0.0011619,0.00019281,3.5024e+08,1064.8,0,4.1807e+08,339.29,13207,12107,1,12107,1,2.6471e-05,-2.6663e-09,0,0.00059415,-4.6405e-06,9.7915e+06,-832.33,0,2.2013e+08,35.749,12106,10985,1,10985,1,-0.0010279,-9.4947e-09,0,2.6468e-05,-0.00021721,-4.1807e+08,-2974.8,0,9.7905e+06,-189.78,10984,11579,1,11579,1,-0.00054121,-5.6572e-09,0,0.00029792,-0.00011096,-2.2013e+08,-1777.8,0,1.2117e+08,-33.687,11578,12634,1,12634,1,0.00059419,-1.2374e-10,0,0.0008656,0.00010158,1.9874e+08,-36.187,0,3.0637e+08,109.24,12633,611.88,0,611.88,0,0.00065641,3.19e-09,0,0.00033035,0.00012289,2.3476e+08,1006.8,0,1.1442e+08,109.7,611.88,1
2111,3.94,12107,1,12107,1,6.3278e-05,-2.2788e-09,0,0.0005721,-1.1562e-05,-1.6041e+06,-726.26,0,2.0535e+08,24.674,12106,13208,1,13208,1,0.0011654,2.1183e-09,0,0.0011654,0.00019326,3.5068e+08,725.51,0,4.1904e+08,355.89,13207,12107,1,12107,1,2.6919e-05,-1.5701e-09,0,0.00059611,-4.7214e-06,9.9549e+06,-477.11,0,2.2056e+08,29.345,12106,10985,1,10985,1,-0.0010302,-8.9303e-09,0,2.6912e-05,-0.00021786,-4.1904e+08,-2847.5,0,9.9522e+06,-343.92,10984,11579,1,11579,1,-0.00054229,-4.5981e-09,0,0.00029834,-0.00011133,-2.2056e+08,-1466.3,0,1.2134e+08,-72.443,11578,12634,1,12634,1,0.00059616,2.7702e-10,0,0.00086754,0.00010179,1.9917e+08,79.358,0,3.0681e+08,108.64,12633,611.88,0,611.88,0,0.00065817,2.85e-09,0,0.00033126,0.00012322,2.3521e+08,909.62,0,1.1463e+08,130.55,611.88,1
2111,3.95,12107,1,12107,1,6.3831e-05,-2.0768e-10,0,0.00057366,-1.1663e-05,-1.6073e+06,-82.718,0,2.0575e+08,-13.178,12106,13208,1,13208,1,0.0011689,1.1989e-09,0,0.0011689,0.0001937,3.5111e+08,319.11,0,4.1999e+08,147.16,13207,12107,1,12107,1,2.7377e-05,-1.0565e-10,0,0.0005981,-4.8039e-06,1.0122e+07,-32.742,0,2.21e+08,-13.785,12106,10985,1,10985,1,-0.0010326,-1.7235e-09,0,2.7367e-05,-0.0002185,-4.1999e+08,-590.1,0,1.0118e+07,-225.15,10984,11579,1,11579,1,-0.00054336,-8.2469e-10,0,0.00029876,-0.00011169,-2.21e+08,-275.62,0,1.2151e+08,-53.815,11578,12634,1,12634,1,0.00059813,3.2305e-10,0,0.0008695,0.00010199,1.996e+08,93.933,0,3.0725e+08,29.601,12633,611.88,0,611.88,0,0.00065993,7.4114e-10,0,0.00033218,0.00012355,2.3567e+08,233.97,0,1.1484e+08,60.065,611.88,1
2111,3.96,12107,1,12107,1,6.4389e-05,-3.3092e-09,0,0.00057519,-1.1765e-05,-1.6101e+06,-1041.9,0,2.0614e+08,32.262,12106,13208,1,13208,1,0.0011724,4.8871e-09,0,0.0011724,0.00019414,3.5154e+08,1538.9,0,4.2095e+08,381.81,13207,12107,1,12107,1,2.7836e-05,-3.0737e-09,0,0.00060004,-4.8873e-06,1.0289e+07,-987.6,0,2.2141e+08,39.495,12106,10985,1,10985,1,-0.0010349,-1.1065e-08,0,2.783e-05,-0.00021915,-4.2095e+08,-3483.8,0,1.0287e+07,-342.94,10984,11579,1,11579,1,-0.00054438,-6.5403e-09,0,0.00029915,-0.00011206,-2.2141e+08,-2061.7,0,1.2166e+08,-65.297,11578,12634,1,12634,1,0.0006001,-5.0112e-12,0,0.00087136,0.00010218,2.0003e+08,-1.3148,0,3.0764e+08,120.75,12633,611.88,0,611.88,0,0.00066166,3.8187e-09,0,0.00033308,0.00012387,2.3611e+08,1208.7,0,1.1504e+08,145,611.88,1
2111,3.97,12107,1,12107,1,6.4943e-05,-3.056e-09,0,0.00057674,-1.1866e-05,-1.6142e+06,-972.94,0,2.0655e+08,-21.778,12106,13208,1,13208,1,0.0011759,1.2725e-09,0,0.0011759,0.00019458,3.5197e+08,364.08,0,4.2191e+08,153.65,13207,12107,1,12107,1,2.8296e-05,-3.1534e-09,0,0.00060202,-4.9704e-06,1.0456e+07,-977.86,0,2.2185e+08,-7.6738,12106,10985,1,10985,1,-0.0010373,-7.1184e-09,0,2.8285e-05,-0.0002198,-4.2191e+08,-2280.4,0,1.0452e+07,-386.9,10984,11579,1,11579,1,-0.00054545,-4.9658e-09,0,0.00029956,-0.00011243,-2.2185e+08,-1593.8,0,1.2183e+08,-52.54,11578,12634,1,12634,1,0.00060208,-1.3617e-09,0,0.0008733,0.00010238,2.0046e+08,-390.89,0,3.0807e+08,44.168,12633,611.88,0,611.88,0,0.00066342,2.186e-09,0,0.000334,0.0001242,2.3656e+08,713.47,0,1.1525e+08,101.53,611.88,1
2111,3.98,12107,1,12107,1,6.5506e-05,-1.9901e-09,0,0.00057828,-1.1969e-05,-1.6172e+06,-640.4,0,2.0694e+08,17.741,12106,13208,1,13208,1,0.0011793,5.3219e-09,0,0.0011793,0.00019502,3.5238e+08,1662.1,0,4.2285e+08,306.03,13207,12107,1,12107,1,2.8763e-05,-1.6993e-09,0,0.000604,-5.0553e-06,1.0625e+07,-518.22,0,2.2227e+08,28.727,12106,10985,1,10985,1,-0.0010396,-8.394e-09,0,2.8751e-05,-0.00022045,-4.2285e+08,-2685.5,0,1.0621e+07,-261.89,10984,11579,1,11579,1,-0.00054649,-4.7214e-09,0,0.00029996,-0.00011279,-2.2227e+08,-1496.5,0,1.2199e+08,-65.102,11578,12634,1,12634,1,0.00060405,5.1899e-10,0,0.0008752,0.00010258,2.0088e+08,143.38,0,3.0848e+08,97.568,12633,611.88,0,611.88,0,0.00066516,3.2118e-09,0,0.0003349,0.00012452,2.37e+08,1021.6,0,1.1545e+08,120.99,611.88,1
2111,3.99,12107,1,12107,1,6.6072e-05,-3.3522e-10,0,0.00057986,-1.2073e-05,-1.6209e+06,-124.33,0,2.0735e+08,-25.699,12106,13208,1,13208,1,0.0011829,1.3383e-09,0,0.0011829,0.00019546,3.5281e+08,354.09,0,4.2381e+08,113.55,13207,12107,1,12107,1,2.9231e-05,-4.3481e-10,0,0.00060601,-5.14e-06,1.0795e+07,-138.71,0,2.2271e+08,-18.294,12106,10985,1,10985,1,-0.001042,-1.6772e-09,0,2.922e-05,-0.0002211,-4.2381e+08,-574.24,0,1.0791e+07,-197.5,10984,11579,1,11579,1,-0.00054757,-9.8936e-10,0,0.00030037,-0.00011316,-2.2271e+08,-324.75,0,1.2216e+08,-66.983,11578,12634,1,12634,1,0.00060604,2.5033e-10,0,0.00087717,0.00010278,2.0131e+08,70.434,0,3.0891e+08,14.97,12633,611.88,0,611.88,0,0.00066694,7.905e-10,0,0.00033583,0.00012485,2.3746e+08,246.43,0,1.1565e+08,61.929,611.88,1
2111,4,12107,1,12107,1,6.6646e-05,-1.612e-09,0,0.0005814,-1.2177e-05,-1.6245e+06,-512.85,0,2.0774e+08,12.897,12106,13208,1,13208,1,0.0011864,9.4853e-10,0,0.0011864,0.0001959,3.5321e+08,324.87,0,4.2477e+08,172.65,13207,12107,1,12107,1,2.9705e-05,-1.5794e-09,0,0.000608,-5.2263e-06,1.0966e+07,-480.96,0,2.2313e+08,19.248,12106,10985,1,10985,1,-0.0010443,-4.5539e-09,0,2.9698e-05,-0.00022175,-4.2477e+08,-1454.7,0,1.0964e+07,-198.83,10984,11579,1,11579,1,-0.0005486,-2.878e-09,0,0.00030076,-0.00011353,-2.2313e+08,-914.69,0,1.2232e+08,-36.115,11578,12634,1,12634,1,0.00060803,-2.356e-10,0,0.00087905,0.00010298,2.0173e+08,-69.631,0,3.0931e+08,59.545,12633,611.88,0,611.88,0,0.00066869,1.485e-09,0,0.00033675,0.00012518,2.379e+08,477.64,0,1.1585e+08,71.608,611.88,1
2111,4.01,12107,1,12107,1,6.7219e-05,-1.4572e-09,0,0.00058296,-1.2282e-05,-1.6277e+06,-466.51,0,2.0814e+08,2.0774,12106,13208,1,13208,1,0.0011899,8.85e-10,0,0.0011899,0.00019634,3.5363e+08,290.34,0,4.2572e+08,152.45,13207,12107,1,12107,1,3.0181e-05,-1.5051e-09,0,0.00061,-5.3127e-06,1.1139e+07,-479.56,0,2.2356e+08,-0.48654,12106,10985,1,10985,1,-0.0010467,-3.7416e-09,0,3.0174e-05,-0.00022241,-4.2572e+08,-1195.4,0,1.1136e+07,-190,10984,11579,1,11579,1,-0.00054965,-2.3594e-09,0,0.00030115,-0.0001139,-2.2356e+08,-753.2,0,1.2248e+08,-44.74,11578,12634,1,12634,1,0.00061003,-5.7775e-10,0,0.00088098,0.00010317,2.0216e+08,-164.24,0,3.0972e+08,53.961,12633,611.88,0,611.88,0,0.00067045,1.1499e-09,0,0.00033767,0.00012551,2.3835e+08,375.18,0,1.1606e+08,65.526,611.88,1
2111,4.02,12107,1,12107,1,6.7797e-05,-2.3594e-09,0,0.0005845,-1.2388e-05,-1.6308e+06,-746.51,0,2.0852e+08,15.245,12106,13208,1,13208,1,0.0011934,3.3658e-09,0,0.0011934,0.00019678,3.5403e+08,1033.5,0,4.2667e+08,285.85,13207,12107,1,12107,1,3.0663e-05,-2.2914e-09,0,0.00061198,-5.4006e-06,1.1312e+07,-685.42,0,2.2397e+08,21.255,12106,10985,1,10985,1,-0.001049,-7.7285e-09,0,3.0656e-05,-0.00022306,-4.2667e+08,-2437.8,0,1.131e+07,-234.39,10984,11579,1,11579,1,-0.00055067,-4.6318e-09,0,0.00030153,-0.00011427,-2.2397e+08,-1430.5,0,1.2263e+08,-64.252,11578,12634,1,12634,1,0.00061202,-4.2678e-12,0,0.00088285,0.00010337,2.0258e+08,-1.4625,0,3.1011e+08,83.803,12633,611.88,0,611.88,0,0.00067219,2.726e-09,0,0.00033858,0.00012583,2.3878e+08,864.14,0,1.1626e+08,107.05,611.88,1
2111,4.03,12107,1,12107,1,6.8373e-05,4.8123e-09,0,0.00058605,-1.2493e-05,-1.6347e+06,1482.3,0,2.0892e+08,-21.407,12106,13208,1,13208,1,0.0011969,1.3844e-08,0,0.0011969,0.00019722,3.5445e+08,4212.7,0,4.2763e+08,360.55,13207,12107,1,12107,1,3.1143e-05,4.3105e-09,0,0.00061399,-5.4876e-06,1.1485e+07,1310.7,0,2.2439e+08,-31.856,12106,10985,1,10985,1,-0.0010514,-2.0903e-09,0,3.1134e-05,-0.00022371,-4.2763e+08,-715.67,0,1.1482e+07,-496.73,10984,11579,1,11579,1,-0.0005517,7.5743e-10,0,0.00030191,-0.00011464,-2.2439e+08,212.69,0,1.2279e+08,-117.52,11578,12634,1,12634,1,0.00061402,8.7236e-09,0,0.00088476,0.00010356,2.03e+08,2711.9,0,3.1051e+08,75.939,12633,611.88,0,611.88,0,0.00067395,4.4503e-09,0,0.0003395,0.00012616,2.3922e+08,1388.8,0,1.1646e+08,158.89,611.88,1
2111,4.04,12107,1,12107,1,6.8958e-05,2.0137e-09,0,0.00058761,-1.26e-05,-1.638e+06,642.67,0,2.0931e+08,-11.775,12106,13208,1,13208,1,0.0012004,6.9423e-09,0,0.0012004,0.00019766,3.5483e+08,2220.6,0,4.2858e+08,248.27,13207,12107,1,12107,1,3.1631e-05,1.7009e-09,0,0.000616,-5.5764e-06,1.1661e+07,514.43,0,2.2482e+08,-3.6887,12106,10985,1,10985,1,-0.0010537,-1.1542e-09,0,3.1623e-05,-0.00022437,-4.2858e+08,-334.06,0,1.1658e+07,-306.36,10984,11579,1,11579,1,-0.00055275,1.8207e-10,0,0.0003023,-0.00011502,-2.2482e+08,55.181,0,1.2295e+08,-74.931,11578,12634,1,12634,1,0.00061604,3.6194e-09,0,0.00088668,0.00010376,2.0342e+08,1154.7,0,3.1092e+08,65.822,12633,611.88,0,611.88,0,0.00067571,2.0592e-09,0,0.00034042,0.00012649,2.3966e+08,669.42,0,1.1666e+08,104.45,611.88,1
2111,4.05,12107,1,12107,1,6.9546e-05,2.0981e-09,0,0.00058917,-1.2708e-05,-1.6415e+06,670.55,0,2.097e+08,-4.5131,12106,13208,1,13208,1,0.001204,6.2334e-09,0,0.001204,0.0001981,3.5522e+08,1999.1,0,4.2952e+08,268.46,13207,12107,1,12107,1,3.2122e-05,1.939e-09,0,0.000618,-5.666e-06,1.1838e+07,593.33,0,2.2523e+08,-0.19568,12106,10985,1,10985,1,-0.001056,-1.1116e-09,0,3.2113e-05,-0.00022503,-4.2952e+08,-321.33,0,1.1835e+07,-293.63,10984,11579,1,11579,1,-0.00055377,1.8763e-10,0,0.00030268,-0.00011539,-2.2523e+08,61.767,0,1.231e+08,-69.998,11578,12634,1,12634,1,0.00061804,3.8464e-09,0,0.00088856,0.00010395,2.0384e+08,1219.7,0,3.1131e+08,74.537,12633,611.88,0,611.88,0,0.00067746,2.0314e-09,0,0.00034134,0.00012682,2.401e+08,659.17,0,1.1686e+08,106.39,611.88,1
2111,4.06,12107,1,12107,1,7.0137e-05,3.636e-10,0,0.00059073,-1.2816e-05,-1.6449e+06,131.04,0,2.1009e+08,-13.406,12106,13208,1,13208,1,0.0012075,1.5797e-09,0,0.0012075,0.00019853,3.5561e+08,540.85,0,4.3046e+08,190.81,13207,12107,1,12107,1,3.2615e-05,4.3714e-10,0,0.00062003,-5.756e-06,1.2015e+07,140.31,0,2.2566e+08,-14.678,12106,10985,1,10985,1,-0.0010583,-1.1364e-09,0,3.2607e-05,-0.00022568,-4.3046e+08,-297.39,0,1.2012e+07,-165.03,10984,11579,1,11579,1,-0.00055481,-1.9937e-10,0,0.00030306,-0.00011576,-2.2566e+08,-53.155,0,1.2326e+08,-49.239,11578,12634,1,12634,1,0.00062005,8.9138e-10,0,0.00089048,0.00010415,2.0426e+08,300.1,0,3.1171e+08,14.933,12633,611.88,0,611.88,0,0.00067923,6.6821e-10,0,0.00034227,0.00012714,2.4054e+08,211.91,0,1.1706e+08,49.392,611.88,1
2111,4.07,12107,1,12107,1,7.0734e-05,-1.5016e-09,0,0.00059229,-1.2925e-05,-1.6481e+06,-456.85,0,2.1048e+08,16.806,12106,13208,1,13208,1,0.001211,1.0507e-09,0,0.001211,0.00019897,3.5601e+08,359.85,0,4.3142e+08,184.18,13207,12107,1,12107,1,3.3111e-05,-1.4237e-09,0,0.00062206,-5.8467e-06,1.2193e+07,-438.55,0,2.2607e+08,17.047,12106,10985,1,10985,1,-0.0010607,-4.5013e-09,0,3.3108e-05,-0.00022634,-4.3142e+08,-1379.6,0,1.2192e+07,-206.22,10984,11579,1,11579,1,-0.00055584,-2.6599e-09,0,0.00030343,-0.00011614,-2.2607e+08,-803.05,0,1.2341e+08,-21.183,11578,12634,1,12634,1,0.00062207,-2.3428e-10,0,0.00089238,0.00010434,2.0468e+08,-65.005,0,3.1209e+08,53.885,12633,611.88,0,611.88,0,0.00068099,1.4313e-09,0,0.0003432,0.00012747,2.4098e+08,438.05,0,1.1726e+08,64.333,611.88,1
2111,4.08,12107,1,12107,1,7.1334e-05,4.8454e-10,0,0.00059385,-1.3035e-05,-1.6517e+06,145.66,0,2.1087e+08,-6.6894,12106,13208,1,13208,1,0.0012146,1.5719e-09,0,0.0012146,0.00019941,3.5639e+08,456.43,0,4.3236e+08,109.69,13207,12107,1,12107,1,3.3613e-05,4.0915e-10,0,0.00062409,-5.9384e-06,1.2373e+07,128.84,0,2.2649e+08,-5.5906,12106,10985,1,10985,1,-0.001063,-5.8729e-10,0,3.3612e-05,-0.000227,-4.3236e+08,-200.93,0,1.2372e+07,-94.12,10984,11579,1,11579,1,-0.00055687,5.5466e-11,0,0.0003038,-0.00011651,-2.2649e+08,16.755,0,1.2356e+08,-39.909,11578,12634,1,12634,1,0.00062409,9.2985e-10,0,0.00089428,0.00010453,2.0509e+08,287.87,0,3.1248e+08,18.642,12633,611.88,0,611.88,0,0.00068276,5.3504e-10,0,0.00034413,0.0001278,2.4141e+08,160.87,0,1.1746e+08,41.902,611.88,1
2111,4.09,12107,1,12107,1,7.1938e-05,-2.7807e-10,0,0.00059541,-1.3145e-05,-1.655e+06,-86.176,0,2.1125e+08,16.344,12106,13208,1,13208,1,0.0012181,6.9139e-10,0,0.0012181,0.00019984,3.5677e+08,196.49,0,4.333e+08,76.322,13207,12107,1,12107,1,3.4119e-05,-3.0924e-10,0,0.00062612,-6.0308e-06,1.2554e+07,-95.144,0,2.269e+08,14.73,12106,10985,1,10985,1,-0.0010653,-8.5934e-10,0,3.4118e-05,-0.00022765,-4.333e+08,-264.89,0,1.2553e+07,-64.611,10984,11579,1,11579,1,-0.00055788,-5.5041e-10,0,0.00030417,-0.00011689,-2.269e+08,-173.86,0,1.237e+08,-0.0095379,11578,12634,1,12634,1,0.00062612,-1.4648e-11,0,0.00089617,0.00010472,2.0551e+08,-4.4697,0,3.1286e+08,34.285,12633,611.88,0,611.88,0,0.00068452,3.269e-10,0,0.00034505,0.00012813,2.4184e+08,99.357,0,1.1765e+08,23.292,611.88,1
2111,4.1,12107,1,12107,1,7.2543e-05,1.951e-09,0,0.00059696,-1.3256e-05,-1.6583e+06,605.53,0,2.1164e+08,13.505,12106,13208,1,13208,1,0.0012217,6.5991e-09,0,0.0012217,0.00020028,3.5715e+08,2001.6,0,4.3425e+08,272.37,13207,12107,1,12107,1,3.4628e-05,1.6811e-09,0,0.00062814,-6.1242e-06,1.2735e+07,517.02,0,2.2731e+08,10.785,12106,10985,1,10985,1,-0.0010677,-1.9234e-09,0,3.4627e-05,-0.00022832,-4.3425e+08,-586.87,0,1.2735e+07,-245.32,10984,11579,1,11579,1,-0.00055888,-1.1613e-10,0,0.00030452,-0.00011727,-2.2731e+08,-32.3,0,1.2385e+08,-53.397,11578,12634,1,12634,1,0.00062816,3.8685e-09,0,0.00089803,0.00010491,2.0593e+08,1195,0,3.1324e+08,80.267,12633,611.88,0,611.88,0,0.00068627,2.2381e-09,0,0.00034598,0.00012846,2.4227e+08,697.41,0,1.1785e+08,95.37,611.88,1
2111,4.11,12107,1,12107,1,7.315e-05,1.4872e-09,0,0.00059852,-1.3367e-05,-1.6617e+06,473.82,0,2.1202e+08,16.374,12106,13208,1,13208,1,0.0012252,8.201e-09,0,0.0012252,0.00020071,3.5751e+08,2572.4,0,4.3519e+08,254.96,13207,12107,1,12107,1,3.5141e-05,6.378e-10,0,0.00063016,-6.2173e-06,1.2919e+07,191.61,0,2.2772e+08,9.2209,12106,10985,1,10985,1,-0.00107,-2.2986e-09,0,3.5135e-05,-0.00022898,-4.3519e+08,-700.21,0,1.2917e+07,-194.26,10984,11579,1,11579,1,-0.00055989,-3.0928e-10,0,0.00030488,-0.00011764,-2.2772e+08,-90.603,0,1.24e+08,-37.795,11578,12634,1,12634,1,0.00063019,3.0808e-09,0,0.00089991,0.0001051,2.0634e+08,973.55,0,3.1361e+08,58.523,12633,611.88,0,611.88,0,0.00068803,2.4061e-09,0,0.0003469,0.00012879,2.427e+08,760.8,0,1.1804e+08,83.889,611.88,1
2111,4.12,12107,1,12107,1,7.3763e-05,2.538e-09,0,0.00060008,-1.3479e-05,-1.6649e+06,798.28,0,2.124e+08,8.1879,12106,13208,1,13208,1,0.0012288,9.9465e-09,0,0.0012288,0.00020115,3.5789e+08,3126.9,0,4.3614e+08,497.72,13207,12107,1,12107,1,3.5657e-05,2.3554e-09,0,0.0006322,-6.3119e-06,1.3103e+07,728.28,0,2.2813e+08,-5.8118,12106,10985,1,10985,1,-0.0010723,-1.3491e-09,0,3.565e-05,-0.00022964,-4.3614e+08,-376.27,0,1.31e+07,-310.83,10984,11579,1,11579,1,-0.0005609,6.2527e-10,0,0.00030523,-0.00011802,-2.2813e+08,181.69,0,1.2414e+08,-80.822,11578,12634,1,12634,1,0.00063224,4.0786e-09,0,0.00090178,0.00010529,2.0676e+08,1293.3,0,3.1399e+08,107.8,12633,611.88,0,611.88,0,0.00068979,2.3214e-09,0,0.00034783,0.00012911,2.4313e+08,742.95,0,1.1824e+08,144.94,611.88,1
2111,4.13,12107,1,12107,1,7.4384e-05,-2.4436e-10,0,0.00060166,-1.3592e-05,-1.668e+06,-55.836,0,2.1279e+08,-26.937,12106,13208,1,13208,1,0.0012324,7.4592e-10,0,0.0012324,0.00020158,3.5825e+08,254.81,0,4.3707e+08,89.032,13207,12107,1,12107,1,3.618e-05,-2.1706e-11,0,0.00063427,-6.4078e-06,1.3289e+07,-6.179,0,2.2855e+08,-29.83,12106,10985,1,10985,1,-0.0010746,-2.0461e-09,0,3.6171e-05,-0.00023031,-4.3707e+08,-563.84,0,1.3286e+07,-134.99,10984,11579,1,11579,1,-0.00056193,-7.3137e-10,0,0.0003056,-0.0001184,-2.2855e+08,-205.17,0,1.2429e+08,-52.395,11578,12634,1,12634,1,0.00063429,3.9461e-10,0,0.0009037,0.00010549,2.0717e+08,133.65,0,3.1437e+08,-8.1002,12633,611.88,0,611.88,0,0.00069157,7.5465e-10,0,0.00034877,0.00012945,2.4357e+08,218.32,0,1.1844e+08,34.522,611.88,1
2111,4.14,12107,1,12107,1,7.5005e-05,-1.5021e-09,0,0.00060321,-1.3706e-05,-1.6718e+06,-454.92,0,2.1316e+08,28.893,12106,13208,1,13208,1,0.001236,2.5295e-09,0,0.001236,0.00020202,3.5861e+08,798.95,0,4.3801e+08,228.65,13207,12107,1,12107,1,3.6702e-05,-8.7331e-10,0,0.00063631,-6.5034e-06,1.3474e+07,-264.62,0,2.2895e+08,19.188,12106,10985,1,10985,1,-0.0010769,-6.7349e-09,0,3.6698e-05,-0.00023097,-4.3801e+08,-2064.1,0,1.3473e+07,-190.55,10984,11579,1,11579,1,-0.00056291,-3.3021e-09,0,0.00030593,-0.00011878,-2.2895e+08,-1012.5,0,1.2442e+08,-18.853,11578,12634,1,12634,1,0.00063632,3.2084e-10,0,0.00090554,0.00010567,2.0758e+08,101.91,0,3.1472e+08,67.179,12633,611.88,0,611.88,0,0.00069332,2.3479e-09,0,0.0003497,0.00012977,2.4399e+08,720.04,0,1.1863e+08,74.808,611.88,1
2111,4.15,12107,1,12107,1,7.5627e-05,-1.3178e-09,0,0.00060477,-1.3819e-05,-1.6752e+06,-412.14,0,2.1354e+08,15.8,12106,13208,1,13208,1,0.0012395,3.2767e-09,0,0.0012395,0.00020245,3.5897e+08,1027,0,4.3895e+08,170.77,13207,12107,1,12107,1,3.7226e-05,-1.0943e-09,0,0.00063835,-6.5994e-06,1.3661e+07,-328.12,0,2.2936e+08,17.988,12106,10985,1,10985,1,-0.0010792,-5.6384e-09,0,3.7223e-05,-0.00023163,-4.3895e+08,-1770.2,0,1.3659e+07,-152.41,10984,11579,1,11579,1,-0.00056391,-2.9572e-09,0,0.00030628,-0.00011916,-2.2936e+08,-919.86,0,1.2456e+08,-32.28,11578,12634,1,12634,1,0.00063838,2.4759e-10,0,0.00090741,0.00010586,2.0799e+08,70.367,0,3.1509e+08,58.634,12633,611.88,0,611.88,0,0.00069508,1.9973e-09,0,0.00035063,0.0001301,2.4441e+08,628.05,0,1.1882e+08,64.975,611.88,1
2111,4.16,12107,1,12107,1,7.6254e-05,-2.9583e-10,0,0.00060633,-1.3934e-05,-1.6786e+06,-100.97,0,2.1392e+08,20.943,12106,13208,1,13208,1,0.0012431,5.6476e-09,0,0.0012431,0.00020288,3.5931e+08,1764.5,0,4.3988e+08,236.51,13207,12107,1,12107,1,3.7757e-05,-2.4137e-10,0,0.00064041,-6.6966e-06,1.3849e+07,-71.759,0,2.2976e+08,26.293,12106,10985,1,10985,1,-0.0010815,-3.9775e-09,0,3.7751e-05,-0.00023229,-4.3988e+08,-1285,0,1.3847e+07,-153.2,10984,11579,1,11579,1,-0.0005649,-1.8587e-09,0,0.00030662,-0.00011954,-2.2976e+08,-587.01,0,1.247e+08,-26.46,11578,12634,1,12634,1,0.00064043,7.8055e-10,0,0.00090928,0.00010605,2.084e+08,232.2,0,3.1545e+08,74.047,12633,611.88,0,611.88,0,0.00069684,2.0706e-09,0,0.00035156,0.00013043,2.4483e+08,653.3,0,1.1902e+08,67.975,611.88,1
2111,4.17,12107,1,12107,1,7.6887e-05,-3.4304e-10,0,0.00060791,-1.405e-05,-1.6817e+06,-111.97,0,2.143e+08,-1.3654,12106,13208,1,13208,1,0.0012467,2.5288e-09,0,0.0012467,0.00020332,3.5967e+08,800.27,0,4.4082e+08,88.179,13207,12107,1,12107,1,3.8291e-05,-1.719e-10,0,0.00064248,-6.7946e-06,1.4038e+07,-53.852,0,2.3017e+08,5.727,12106,10985,1,10985,1,-0.0010838,-2.4621e-09,0,3.8287e-05,-0.00023296,-4.4082e+08,-786.11,0,1.4037e+07,-125.96,10984,11579,1,11579,1,-0.00056591,-1.125e-09,0,0.00030697,-0.00011992,-2.3017e+08,-352.67,0,1.2484e+08,-35.445,11578,12634,1,12634,1,0.0006425,2.329e-10,0,0.00091116,0.00010624,2.0881e+08,67.935,0,3.1581e+08,31.446,12633,611.88,0,611.88,0,0.00069862,1.0221e-09,0,0.00035251,0.00013076,2.4526e+08,329.41,0,1.1921e+08,41.472,611.88,1
2111,4.18,12107,1,12107,1,7.7526e-05,-1.4029e-09,0,0.00060948,-1.4167e-05,-1.6851e+06,-436.52,0,2.1467e+08,1.2362,12106,13208,1,13208,1,0.0012503,6.6785e-10,0,0.0012503,0.00020375,3.6002e+08,228.73,0,4.4176e+08,88.504,13207,12107,1,12107,1,3.8832e-05,-1.1302e-09,0,0.00064455,-6.8937e-06,1.4229e+07,-344.93,0,2.3057e+08,3.4965,12106,10985,1,10985,1,-0.0010861,-4.1702e-09,0,3.8829e-05,-0.00023363,-4.4176e+08,-1312.8,0,1.4228e+07,-117.58,10984,11579,1,11579,1,-0.0005669,-2.3846e-09,0,0.0003073,-0.00012031,-2.3057e+08,-747.33,0,1.2498e+08,-30.752,11578,12634,1,12634,1,0.00064458,-3.8147e-10,0,0.00091303,0.00010642,2.0922e+08,-111.59,0,3.1616e+08,35.898,12633,611.88,0,611.88,0,0.00070039,1.2371e-09,0,0.00035345,0.00013109,2.4568e+08,393.06,0,1.1941e+08,42.917,611.88,1
2111,4.19,12107,1,12107,1,7.8166e-05,-1.2415e-09,0,0.00061104,-1.4284e-05,-1.6886e+06,-390.92,0,2.1504e+08,41.065,12106,13208,1,13208,1,0.0012539,5.7013e-09,0,0.0012539,0.00020418,3.6035e+08,1749.2,0,4.427e+08,267.09,13207,12107,1,12107,1,3.9376e-05,-9.4167e-10,0,0.00064661,-6.9937e-06,1.4422e+07,-289.41,0,2.3097e+08,33.813,12106,10985,1,10985,1,-0.0010884,-6.9584e-09,0,3.937e-05,-0.0002343,-4.427e+08,-2177.3,0,1.442e+07,-170.55,10984,11579,1,11579,1,-0.00056787,-3.5296e-09,0,0.00030763,-0.00012069,-2.3097e+08,-1094.2,0,1.2511e+08,-29.7,11578,12634,1,12634,1,0.00064665,6.2605e-10,0,0.00091487,0.00010661,2.0962e+08,182.41,0,3.1651e+08,100.21,12633,611.88,0,611.88,0,0.00070215,2.8089e-09,0,0.00035438,0.00013142,2.461e+08,875.8,0,1.196e+08,91.968,611.88,1
2111,4.2,12107,1,12107,1,7.881e-05,-2.8886e-09,0,0.0006126,-1.4402e-05,-1.6908e+06,-900.99,0,2.1542e+08,-37.057,12106,13208,1,13208,1,0.0012576,2.3793e-09,0,0.0012576,0.00020461,3.607e+08,814.58,0,4.4364e+08,163.51,13207,12107,1,12107,1,3.9925e-05,-2.6103e-09,0,0.00064868,-7.0946e-06,1.4616e+07,-782.41,0,2.3136e+08,-26.512,12106,10985,1,10985,1,-0.0010907,-9.5876e-09,0,3.9915e-05,-0.00023498,-4.4364e+08,-3008.1,0,1.4612e+07,-317.71,10984,11579,1,11579,1,-0.00056885,-5.3628e-09,0,0.00030795,-0.00012108,-2.3136e+08,-1677.8,0,1.2524e+08,-110.67,11578,12634,1,12634,1,0.00064874,-1.0302e-10,0,0.00091671,0.00010679,2.1004e+08,-30.213,0,3.1686e+08,40.295,12633,611.88,0,611.88,0,0.00070392,3.0335e-09,0,0.00035532,0.00013175,2.4652e+08,958.25,0,1.1979e+08,99.832,611.88,1
2111,4.21,12107,1,12107,1,7.9458e-05,-2.0178e-09,0,0.00061418,-1.452e-05,-1.6948e+06,-644.6,0,2.1579e+08,-6.4573,12106,13208,1,13208,1,0.0012612,1.7933e-09,0,0.0012612,0.00020505,3.6103e+08,594.83,0,4.4457e+08,188.44,13207,12107,1,12107,1,4.0476e-05,-1.5669e-09,0,0.00065077,-7.1955e-06,1.481e+07,-491.07,0,2.3177e+08,-0.73481,12106,10985,1,10985,1,-0.001093,-7.3756e-09,0,4.0464e-05,-0.00023565,-4.4457e+08,-2337,0,1.4806e+07,-262.5,10984,11579,1,11579,1,-0.00056984,-3.9383e-09,0,0.00030828,-0.00012147,-2.3177e+08,-1249.5,0,1.2538e+08,-66.891,11578,12634,1,12634,1,0.00065082,1.5107e-10,0,0.00091858,0.00010698,2.1044e+08,42.099,0,3.1721e+08,61.883,12633,611.88,0,611.88,0,0.00070569,2.3728e-09,0,0.00035627,0.00013208,2.4694e+08,760.91,0,1.1998e+08,91.133,611.88,1
2111,4.22,12107,1,12107,1,8.0112e-05,2.2739e-10,0,0.00061577,-1.464e-05,-1.6983e+06,46.118,0,2.1616e+08,3.8875,12106,13208,1,13208,1,0.0012648,4.4702e-09,0,0.0012648,0.00020548,3.6136e+08,1376.7,0,4.455e+08,143.58,13207,12107,1,12107,1,4.1031e-05,2.8577e-10,0,0.00065288,-7.2974e-06,1.5005e+07,81.056,0,2.3217e+08,11.155,12106,10985,1,10985,1,-0.0010953,-2.588e-09,0,4.102e-05,-0.00023632,-4.455e+08,-886,0,1.5002e+07,-163.34,10984,11579,1,11579,1,-0.00057084,-9.3686e-10,0,0.00030861,-0.00012185,-2.3217e+08,-299.8,0,1.2551e+08,-36.215,11578,12634,1,12634,1,0.00065291,1.0811e-09,0,0.00092047,0.00010717,2.1084e+08,284.48,0,3.1756e+08,47.091,12633,611.88,0,611.88,0,0.00070748,1.5033e-09,0,0.00035722,0.00013241,2.4736e+08,470.98,0,1.2017e+08,59.107,611.88,1
2111,4.23,12107,1,12107,1,8.0775e-05,-7.1294e-10,0,0.00061736,-1.4761e-05,-1.7016e+06,-231.8,0,2.1654e+08,-30.08,12106,13208,1,13208,1,0.0012684,9.6561e-10,0,0.0012684,0.00020591,3.6169e+08,260.6,0,4.4644e+08,133.07,13207,12107,1,12107,1,4.1592e-05,-6.4631e-10,0,0.00065499,-7.4005e-06,1.5203e+07,-205.21,0,2.3257e+08,-18.481,12106,10985,1,10985,1,-0.0010976,-3.0799e-09,0,4.1585e-05,-0.000237,-4.4644e+08,-934.12,0,1.52e+07,-246.35,10984,11579,1,11579,1,-0.00057182,-1.437e-09,0,0.00030893,-0.00012224,-2.3257e+08,-457.52,0,1.2564e+08,-68.501,11578,12634,1,12634,1,0.00065501,6.9913e-11,0,0.00092234,0.00010735,2.1125e+08,20.794,0,3.179e+08,18.46,12633,611.88,0,611.88,0,0.00070928,9.8161e-10,0,0.00035818,0.00013275,2.4778e+08,300.36,0,1.2036e+08,71.935,611.88,1
2111,4.24,12107,1,12107,1,8.144e-05,2.7753e-10,0,0.00061893,-1.4883e-05,-1.7049e+06,76.917,0,2.169e+08,34.684,12106,13208,1,13208,1,0.0012721,2.8314e-09,0,0.0012721,0.00020634,3.6201e+08,836.44,0,4.4737e+08,149.84,13207,12107,1,12107,1,4.2157e-05,8.2033e-11,0,0.0006571,-7.5042e-06,1.5401e+07,22.858,0,2.3297e+08,31.712,12106,10985,1,10985,1,-0.0010999,-1.4894e-09,0,4.2153e-05,-0.00023767,-4.4737e+08,-454.65,0,1.54e+07,-124.51,10984,11579,1,11579,1,-0.00057279,-4.5077e-10,0,0.00030924,-0.00012263,-2.3297e+08,-146.37,0,1.2577e+08,0.86906,11578,12634,1,12634,1,0.00065711,1.0245e-09,0,0.00092419,0.00010753,2.1165e+08,301.22,0,3.1823e+08,69.258,12633,611.88,0,611.88,0,0.00071105,1.0225e-09,0,0.00035912,0.00013308,2.4819e+08,309.25,0,1.2055e+08,50.433,611.88,1
2111,4.25,12107,1,12107,1,8.2105e-05,6.3361e-10,0,0.0006205,-1.5004e-05,-1.7081e+06,193.02,0,2.1727e+08,12.58,12106,13208,1,13208,1,0.0012757,2.6767e-09,0,0.0012757,0.00020677,3.6233e+08,816.77,0,4.4829e+08,110.48,13207,12107,1,12107,1,4.2723e-05,4.8653e-10,0,0.0006592,-7.6086e-06,1.56e+07,145.31,0,2.3336e+08,6.4852,12106,10985,1,10985,1,-0.0011022,-8.5607e-11,0,4.2722e-05,-0.00023834,-4.4829e+08,-29.32,0,1.56e+07,-59.597,10984,11579,1,11579,1,-0.00057376,2.8581e-10,0,0.00030955,-0.00012302,-2.3336e+08,87.246,0,1.2589e+08,-8.3298,11578,12634,1,12634,1,0.00065921,8.1702e-10,0,0.00092603,0.00010772,2.1205e+08,250.58,0,3.1857e+08,31.338,12633,611.88,0,611.88,0,0.00071282,5.136e-10,0,0.00036007,0.00013341,2.4861e+08,158.34,0,1.2074e+08,32.861,611.88,1
2111,4.26,12107,1,12107,1,8.2774e-05,-2.8829e-10,0,0.00062209,-1.5127e-05,-1.7115e+06,-87.252,0,2.1764e+08,1.2657,12106,13208,1,13208,1,0.0012793,8.3536e-10,0,0.0012793,0.0002072,3.6264e+08,285.29,0,4.4923e+08,132.1,13207,12107,1,12107,1,4.3293e-05,-3.331e-10,0,0.00066131,-7.7138e-06,1.58e+07,-100.69,0,2.3376e+08,5.4547,12106,10985,1,10985,1,-0.0011045,-9.3922e-10,0,4.3292e-05,-0.00023902,-4.4923e+08,-286.5,0,1.5799e+07,-130.25,10984,11579,1,11579,1,-0.00057473,-6.2514e-10,0,0.00030986,-0.00012341,-2.3376e+08,-191.95,0,1.2602e+08,-32.137,11578,12634,1,12634,1,0.00066132,9.0736e-12,0,0.00092788,0.0001079,2.1246e+08,3.0067,0,3.189e+08,37.565,12633,611.88,0,611.88,0,0.00071461,3.756e-10,0,0.00036103,0.00013374,2.4902e+08,116.51,0,1.2093e+08,50.089,611.88,1
2111,4.27,12107,1,12107,1,8.345e-05,-2.3842e-09,0,0.00062366,-1.525e-05,-1.7143e+06,-731.65,0,2.18e+08,12.026,12106,13208,1,13208,1,0.001283,1.0952e-09,0,0.001283,0.00020763,3.6296e+08,347.24,0,4.5016e+08,252.34,13207,12107,1,12107,1,4.3871e-05,-2.3215e-09,0,0.00066341,-7.8198e-06,1.6002e+07,-696.35,0,2.3414e+08,10.925,12106,10985,1,10985,1,-0.0011068,-5.82e-09,0,4.3868e-05,-0.00023971,-4.5016e+08,-1797,0,1.6001e+07,-216.87,10984,11579,1,11579,1,-0.00057567,-3.9206e-09,0,0.00031016,-0.00012381,-2.3414e+08,-1217.8,0,1.2614e+08,-47.46,11578,12634,1,12634,1,0.00066344,-9.332e-10,0,0.0009297,0.00010808,2.1286e+08,-255.35,0,3.1922e+08,66.298,12633,611.88,0,611.88,0,0.00071638,1.8579e-09,0,0.00036198,0.00013407,2.4943e+08,578.01,0,1.2112e+08,83.017,611.88,1
2111,4.28,12107,1,12107,1,8.4127e-05,5.1226e-10,0,0.00062525,-1.5374e-05,-1.718e+06,139.96,0,2.1837e+08,14.787,12106,13208,1,13208,1,0.0012867,1.6584e-09,0,0.0012867,0.00020805,3.6327e+08,452.16,0,4.5108e+08,168.19,13207,12107,1,12107,1,4.4452e-05,4.8513e-10,0,0.00066538,-7.9262e-06,1.6205e+07,141.54,0,2.3454e+08,1.0538,12106,10985,1,10985,1,-0.001109,-3.8842e-10,0,4.4277e-05,-0.00024038,-4.5108e+08,-133.01,0,1.6203e+07,-76.604,10984,11579,1,11579,1,-0.00057665,-7.7379e-11,0,0.00031063,-0.0001242,-2.3454e+08,-25.839,0,1.2626e+08,-22.588,11578,12634,1,12634,1,0.00066556,1.0483e-09,0,0.00093173,0.00010826,2.1326e+08,291.64,0,3.1955e+08,40.905,12633,611.88,0,611.88,0,0.00071817,6.0756e-10,0,0.00036294,0.0001344,2.4984e+08,171.6,0,1.2131e+08,52.494,611.88,1
2111,4.29,12107,1,12107,1,8.481e-05,1.889e-09,0,0.00062683,-1.5499e-05,-1.7213e+06,575.51,0,2.1873e+08,23.525,12106,13208,1,13208,1,0.0012903,4.6491e-09,0,0.0012903,0.00020848,3.6357e+08,1401.2,0,4.5201e+08,216.02,13207,12107,1,12107,1,4.5034e-05,1.9426e-09,0,0.00066654,-8.0339e-06,1.6409e+07,596.28,0,2.3492e+08,16.864,12106,10985,1,10985,1,-0.0011113,-9.5245e-10,0,4.3913e-05,-0.00024106,-4.5201e+08,-326.2,0,1.6408e+07,-147.34,10984,11579,1,11579,1,-0.0005776,5.6766e-10,0,0.00031188,-0.00012459,-2.3492e+08,174.55,0,1.2638e+08,-27.549,11578,12634,1,12634,1,0.00066768,3.1668e-09,0,0.0009345,0.00010844,2.1366e+08,966.95,0,3.1986e+08,65.335,12633,611.88,0,611.88,0,0.00071994,1.4934e-09,0,0.00036389,0.00013474,2.5025e+08,456.3,0,1.2149e+08,79.858,611.88,1
2111,4.3,12107,1,12107,1,8.5494e-05,-1.0232e-11,0,0.00062841,-1.5624e-05,-1.7247e+06,8.1335,0,2.1909e+08,27.211,12106,13208,1,13208,1,0.001294,1.8351e-09,0,0.001294,0.00020891,3.6386e+08,548.76,0,4.5293e+08,145.9,13207,12107,1,12107,1,4.5621e-05,8.2038e-11,0,0.00066773,-8.1414e-06,1.6613e+07,26.008,0,2.3531e+08,29.558,12106,10985,1,10985,1,-0.0011136,-1.8928e-09,0,4.3547e-05,-0.00024174,-4.5293e+08,-553.21,0,1.6612e+07,-115.84,10984,11579,1,11579,1,-0.00057856,-6.6314e-10,0,0.00031312,-0.00012498,-2.3531e+08,-195.61,0,1.265e+08,0.18125,11578,12634,1,12634,1,0.0006698,6.6931e-10,0,0.0009373,0.00010862,2.1405e+08,212.59,0,3.2019e+08,58.98,12633,611.88,0,611.88,0,0.00072172,9.0474e-10,0,0.00036485,0.00013507,2.5065e+08,272.07,0,1.2168e+08,44.877,611.88,1
2111,4.31,12107,1,12107,1,8.6186e-05,1.6551e-09,0,0.00062999,-1.5751e-05,-1.7273e+06,510.54,0,2.1945e+08,2.9217,12106,13208,1,13208,1,0.0012977,3.6486e-09,0,0.0012977,0.00020934,3.6416e+08,1125.4,0,4.5386e+08,216.77,13207,12107,1,12107,1,4.6215e-05,1.7416e-09,0,0.00066889,-8.2507e-06,1.682e+07,523.08,0,2.357e+08,-0.36046,12106,10985,1,10985,1,-0.0011159,-5.9735e-10,0,4.3176e-05,-0.00024243,-4.5386e+08,-204.58,0,1.6819e+07,-157.81,10984,11579,1,11579,1,-0.0005795,7.4676e-10,0,0.00031437,-0.00012538,-2.357e+08,223.66,0,1.2662e+08,-40.959,11578,12634,1,12634,1,0.00067195,2.633e-09,0,0.00094009,0.0001088,2.1445e+08,826.07,0,3.205e+08,45.589,12633,611.88,0,611.88,0,0.00072351,1.1377e-09,0,0.00036581,0.0001354,2.5106e+08,358.44,0,1.2187e+08,60.009,611.88,1
2111,4.32,12107,1,12107,1,8.6879e-05,1.6352e-09,0,0.00063156,-1.5877e-05,-1.7306e+06,514.79,0,2.1981e+08,14.614,12106,13208,1,13208,1,0.0013013,5.584e-09,0,0.0013013,0.00020976,3.6444e+08,1804.5,0,4.5478e+08,332.35,13207,12107,1,12107,1,4.6811e-05,1.6151e-09,0,0.00067004,-8.3606e-06,1.7028e+07,477.98,0,2.3608e+08,3.6134,12106,10985,1,10985,1,-0.0011181,-2.8802e-09,0,4.2798e-05,-0.00024311,-4.5478e+08,-825.06,0,1.7025e+07,-210.49,10984,11579,1,11579,1,-0.00058043,-1.6205e-10,0,0.00031562,-0.00012578,-2.3608e+08,-49.483,0,1.2673e+08,-57.491,11578,12634,1,12634,1,0.00067408,3.2791e-09,0,0.00094286,0.00010898,2.1485e+08,1025.5,0,3.208e+08,76.834,12633,611.88,0,611.88,0,0.00072528,2.0742e-09,0,0.00036676,0.00013573,2.5146e+08,649.76,0,1.2205e+08,94.027,611.88,1
2111,4.33,12107,1,12107,1,8.7574e-05,1.1123e-09,0,0.00063316,-1.6004e-05,-1.734e+06,359.39,0,2.2017e+08,37.876,12106,13208,1,13208,1,0.001305,6.6319e-09,0,0.001305,0.00021019,3.6474e+08,2036.1,0,4.557e+08,323.73,13207,12107,1,12107,1,4.7409e-05,5.6028e-10,0,0.00067122,-8.4702e-06,1.7236e+07,176.84,0,2.3647e+08,10.643,12106,10985,1,10985,1,-0.0011204,-1.6254e-09,0,4.2421e-05,-0.00024379,-4.557e+08,-461.81,0,1.7232e+07,-148.68,10984,11579,1,11579,1,-0.00058139,-3.8686e-10,0,0.00031688,-0.00012617,-2.3647e+08,-106.5,0,1.2685e+08,-24.909,11578,12634,1,12634,1,0.00067623,2.3596e-09,0,0.00094567,0.00010916,2.1524e+08,749.03,0,3.2112e+08,80.265,12633,611.88,0,611.88,0,0.00072707,1.8487e-09,0,0.00036773,0.00013606,2.5186e+08,574.01,0,1.2224e+08,94.174,611.88,1
2111,4.34,12107,1,12107,1,8.8277e-05,1.2053e-09,0,0.00063474,-1.6133e-05,-1.7374e+06,387.11,0,2.2052e+08,12.399,12106,13208,1,13208,1,0.0013087,5.2571e-09,0,0.0013087,0.00021061,3.6502e+08,1798.3,0,4.5662e+08,332.17,13207,12107,1,12107,1,4.8014e-05,1.0241e-09,0,0.00067237,-8.5818e-06,1.7445e+07,301.22,0,2.3684e+08,2.0211,12106,10985,1,10985,1,-0.0011226,-3.2162e-09,0,4.2036e-05,-0.00024448,-4.5662e+08,-955.77,0,1.7096e+07,-204.39,10984,11579,1,11579,1,-0.00058232,-4.489e-10,0,0.00031815,-0.00012657,-2.3684e+08,-130.2,0,1.2696e+08,-54.26,11578,12634,1,12634,1,0.00067837,2.8361e-09,0,0.00094847,0.00010933,2.1563e+08,894.42,0,3.2142e+08,72.171,12633,611.88,0,611.88,0,0.00072885,1.9931e-09,0,0.00036869,0.00013639,2.5226e+08,629.03,0,1.2242e+08,88.89,611.88,1
2111,4.35,12107,1,12107,1,8.8983e-05,-1.8832e-09,0,0.00063632,-1.6262e-05,-1.7401e+06,-553.76,0,2.2088e+08,1.7418,12106,13208,1,13208,1,0.0013124,4.0963e-09,0,0.0013124,0.00021104,3.6531e+08,1272.8,0,4.5754e+08,298.81,13207,12107,1,12107,1,4.8621e-05,-1.7022e-09,0,0.00067353,-8.6933e-06,1.7656e+07,-482.04,0,2.3722e+08,-3.1309,12106,10985,1,10985,1,-0.0011249,-7.1465e-09,0,4.1648e-05,-0.00024516,-4.5754e+08,-2155.1,0,1.6938e+07,-214.88,10984,11579,1,11579,1,-0.00058326,-4.1498e-09,0,0.00031942,-0.00012697,-2.3722e+08,-1252.2,0,1.2707e+08,-60.726,11578,12634,1,12634,1,0.00068051,3.9102e-10,0,0.0009513,0.00010951,2.1603e+08,123.36,0,3.2172e+08,45.036,12633,611.88,0,611.88,0,0.00073063,2.7542e-09,0,0.00036965,0.00013673,2.5266e+08,830.61,0,1.226e+08,91.214,611.88,1
2111,4.36,12107,1,12107,1,8.9695e-05,7.3591e-10,0,0.00063793,-1.6392e-05,-1.7438e+06,219.2,0,2.2123e+08,11.303,12106,13208,1,13208,1,0.0013161,4.6403e-09,0,0.0013161,0.00021146,3.6558e+08,1410.4,0,4.5846e+08,210.35,13207,12107,1,12107,1,4.9231e-05,4.548e-10,0,0.0006747,-8.8058e-06,1.7867e+07,126.19,0,2.3761e+08,6.1377,12106,10985,1,10985,1,-0.0011272,-1.73e-09,0,4.126e-05,-0.00024585,-4.5846e+08,-539.78,0,1.6782e+07,-176.13,10984,11579,1,11579,1,-0.00058421,-3.1248e-10,0,0.0003207,-0.00012737,-2.3761e+08,-98.242,0,1.2719e+08,-35.446,11578,12634,1,12634,1,0.00068268,1.6053e-09,0,0.00095414,0.00010969,2.1642e+08,478.08,0,3.2203e+08,58.425,12633,611.88,0,611.88,0,0.00073244,1.3729e-09,0,0.00037063,0.00013706,2.5307e+08,429.05,0,1.2279e+08,68.515,611.88,1
2111,4.37,12107,1,12107,1,9.0415e-05,7.4068e-10,0,0.00063952,-1.6524e-05,-1.7471e+06,228.59,0,2.2159e+08,5.9012,12106,13208,1,13208,1,0.0013199,3.246e-09,0,0.0013199,0.00021189,3.6585e+08,999.53,0,4.5938e+08,138.14,13207,12107,1,12107,1,4.9851e-05,5.3074e-10,0,0.00067586,-8.9199e-06,1.8082e+07,147.83,0,2.3799e+08,0.94156,12106,10985,1,10985,1,-0.0011294,-2.4644e-10,0,4.0863e-05,-0.00024654,-4.5938e+08,-57.831,0,1.6621e+07,-88.101,10984,11579,1,11579,1,-0.00058514,2.152e-10,0,0.00032199,-0.00012777,-2.3799e+08,65.864,0,1.273e+08,-19.132,11578,12634,1,12634,1,0.00068485,1.0459e-09,0,0.00095698,0.00010986,2.1681e+08,324.21,0,3.2232e+08,27.873,12633,611.88,0,611.88,0,0.00073423,7.0577e-10,0,0.0003716,0.0001374,2.5346e+08,225.92,0,1.2297e+08,42.447,611.88,1
2111,4.38,12107,1,12107,1,9.1137e-05,8.5565e-10,0,0.00064112,-1.6656e-05,-1.7501e+06,265.89,0,2.2194e+08,24.522,12106,13208,1,13208,1,0.0013236,3.8604e-09,0,0.0013236,0.00021231,3.6611e+08,1180.2,0,4.603e+08,175.47,13207,12107,1,12107,1,5.0475e-05,6.6843e-10,0,0.000677,-9.0347e-06,1.8297e+07,196.86,0,2.3837e+08,17.934,12106,10985,1,10985,1,-0.0011317,-5.3386e-10,0,4.0461e-05,-0.00024723,-4.603e+08,-166.42,0,1.6459e+07,-108.29,10984,11579,1,11579,1,-0.00058607,2.5181e-11,0,0.00032327,-0.00012817,-2.3837e+08,8.0222,0,1.274e+08,-15.592,11578,12634,1,12634,1,0.00068703,1.5364e-09,0,0.00095981,0.00011004,2.172e+08,477.36,0,3.2261e+08,66.807,12633,611.88,0,611.88,0,0.00073602,9.6262e-10,0,0.00037257,0.00013773,2.5386e+08,300.36,0,1.2315e+08,55.261,611.88,1
2111,4.39,12107,1,12107,1,9.1861e-05,7.1385e-10,0,0.0006427,-1.6788e-05,-1.7536e+06,229.39,0,2.2229e+08,37.445,12106,13208,1,13208,1,0.0013273,4.4772e-09,0,0.0013273,0.00021273,3.6637e+08,1370.5,0,4.6121e+08,220.69,13207,12107,1,12107,1,5.11e-05,4.0754e-10,0,0.00067814,-9.1499e-06,1.8513e+07,122.41,0,2.3874e+08,41.707,12106,10985,1,10985,1,-0.0011339,-2.9704e-09,0,4.0056e-05,-0.00024792,-4.6121e+08,-868.74,0,1.6295e+07,-203.85,10984,11579,1,11579,1,-0.00058698,-5.4712e-10,0,0.00032456,-0.00012857,-2.3874e+08,-161.95,0,1.2751e+08,-10.874,11578,12634,1,12634,1,0.00068919,2.2799e-09,0,0.00096264,0.00011021,2.1759e+08,691.33,0,3.2289e+08,94.778,12633,611.88,0,611.88,0,0.0007378,1.899e-09,0,0.00037354,0.00013806,2.5425e+08,584.9,0,1.2333e+08,76.339,611.88,1
2111,4.4,12107,1,12107,1,9.2583e-05,-3.1094e-09,0,0.00064427,-1.692e-05,-1.7568e+06,-932.05,0,2.2263e+08,41.457,12106,13208,1,13208,1,0.001331,4.497e-09,0,0.001331,0.00021315,3.6663e+08,1397.2,0,4.6212e+08,299.28,13207,12107,1,12107,1,5.1724e-05,-2.395e-09,0,0.00067925,-9.265e-06,1.8728e+07,-668.23,0,2.391e+08,51.236,12106,10985,1,10985,1,-0.0011362,-1.1917e-08,0,3.9647e-05,-0.00024861,-4.6212e+08,-3623,0,1.6131e+07,-344.64,10984,11579,1,11579,1,-0.00058788,-6.5251e-09,0,0.00032584,-0.00012898,-2.391e+08,-1962.1,0,1.276e+08,-35.593,11578,12634,1,12634,1,0.00069136,3.0626e-10,0,0.00096544,0.00011038,2.1797e+08,96.68,0,3.2316e+08,124.1,12633,611.88,0,611.88,0,0.00073957,4.0743e-09,0,0.0003745,0.00013839,2.5463e+08,1241.1,0,1.2351e+08,112.77,611.88,1
2111,4.41,12107,1,12107,1,9.3315e-05,3.0741e-10,0,0.00064589,-1.7054e-05,-1.7596e+06,76.417,0,2.2299e+08,-3.2842,12106,13208,1,13208,1,0.0013348,4.2394e-09,0,0.0013348,0.00021358,3.669e+08,1312.2,0,4.6304e+08,177.82,13207,12107,1,12107,1,5.2359e-05,3.9593e-10,0,0.00068043,-9.3816e-06,1.8947e+07,107.07,0,2.3949e+08,1.843,12106,10985,1,10985,1,-0.0011384,-2.5962e-09,0,3.924e-05,-0.00024931,-4.6304e+08,-888.76,0,1.5966e+07,-220.49,10984,11579,1,11579,1,-0.00058883,-7.2669e-10,0,0.00032714,-0.00012938,-2.3949e+08,-232.71,0,1.2772e+08,-47.288,11578,12634,1,12634,1,0.00069356,1.0874e-09,0,0.00096833,0.00011056,2.1836e+08,314.07,0,3.2347e+08,41.791,12633,611.88,0,611.88,0,0.00074139,1.452e-09,0,0.00037549,0.00013873,2.5504e+08,458.93,0,1.237e+08,69.417,611.88,1
2111,4.42,12107,1,12107,1,9.4059e-05,2.4451e-09,0,0.0006475,-1.719e-05,-1.7631e+06,736.36,0,2.2333e+08,31.042,12106,13208,1,13208,1,0.0013385,7.0408e-09,0,0.0013385,0.000214,3.6715e+08,2130.2,0,4.6396e+08,279.89,13207,12107,1,12107,1,5.3e-05,2.318e-09,0,0.00068156,-9.4999e-06,1.9167e+07,687.6,0,2.3986e+08,21.546,12106,10985,1,10985,1,-0.0011407,-1.239e-09,0,3.882e-05,-0.00025001,-4.6396e+08,-424.35,0,1.5797e+07,-194.32,10984,11579,1,11579,1,-0.00058974,4.3648e-10,0,0.00032846,-0.00012979,-2.3986e+08,124.49,0,1.2781e+08,-35.344,11578,12634,1,12634,1,0.00069576,4.3114e-09,0,0.0009712,0.00011073,2.1875e+08,1306.4,0,3.2374e+08,101.05,12633,611.88,0,611.88,0,0.00074319,2.1921e-09,0,0.00037648,0.00013907,2.5543e+08,675.53,0,1.2388e+08,97.543,611.88,1
2111,4.43,12107,1,12107,1,9.4805e-05,-1.4715e-09,0,0.0006491,-1.7327e-05,-1.7659e+06,-428.99,0,2.2368e+08,5.3873,12106,13208,1,13208,1,0.0013423,2.4583e-09,0,0.0013423,0.00021442,3.6739e+08,767.56,0,4.6487e+08,191.12,13207,12107,1,12107,1,5.3649e-05,-1.2841e-09,0,0.00068269,-9.6192e-06,1.939e+07,-363.69,0,2.4023e+08,1.5906,12106,10985,1,10985,1,-0.0011429,-5.1278e-09,0,3.8394e-05,-0.0002507,-4.6487e+08,-1548.7,0,1.5626e+07,-135.37,10984,11579,1,11579,1,-0.00059065,-3.0508e-09,0,0.00032977,-0.0001302,-2.4023e+08,-909.85,0,1.2791e+08,-36.806,11578,12634,1,12634,1,0.00069795,3.8026e-11,0,0.00097407,0.0001109,2.1914e+08,11.73,0,3.2402e+08,40.552,12633,611.88,0,611.88,0,0.00074499,1.8648e-09,0,0.00037746,0.0001394,2.5582e+08,564.66,0,1.2406e+08,61.753,611.88,1
2111,4.44,12107,1,12107,1,9.5552e-05,6.1447e-10,0,0.0006507,-1.7463e-05,-1.7694e+06,186.11,0,2.2402e+08,31.279,12106,13208,1,13208,1,0.001346,5.6815e-09,0,0.001346,0.00021484,3.6763e+08,1727.9,0,4.6578e+08,252.12,13207,12107,1,12107,1,5.4294e-05,1.2914e-10,0,0.00068382,-9.7382e-06,1.9612e+07,32.812,0,2.406e+08,25.925,12106,10985,1,10985,1,-0.0011452,-2.4257e-09,0,3.7971e-05,-0.0002514,-4.6578e+08,-723.9,0,1.5455e+07,-164.81,10984,11579,1,11579,1,-0.00059156,-6.1925e-10,0,0.00033109,-0.0001306,-2.406e+08,-183.05,0,1.2801e+08,-16.957,11578,12634,1,12634,1,0.00070016,1.6873e-09,0,0.00097694,0.00011108,2.1952e+08,508.34,0,3.2429e+08,79.664,12633,611.88,0,611.88,0,0.00074679,1.7554e-09,0,0.00037844,0.00013974,2.562e+08,543.52,0,1.2424e+08,74.337,611.88,1
2111,4.45,12107,1,12107,1,9.6305e-05,3.0981e-09,0,0.0006523,-1.7601e-05,-1.7725e+06,944.46,0,2.2437e+08,-0.46338,12106,13208,1,13208,1,0.0013498,7.1761e-09,0,0.0013498,0.00021527,3.6788e+08,2248.3,0,4.667e+08,209.52,13207,12107,1,12107,1,5.4949e-05,3.2108e-09,0,0.00068494,-9.8589e-06,1.9836e+07,937.65,0,2.4096e+08,-2.9654,12106,10985,1,10985,1,-0.0011474,-9.2125e-10,0,3.7541e-05,-0.0002521,-4.667e+08,-297.03,0,1.5283e+07,-202.6,10984,11579,1,11579,1,-0.00059246,1.3778e-09,0,0.0003324,-0.00013102,-2.4097e+08,406.22,0,1.2811e+08,-52.827,11578,12634,1,12634,1,0.00070239,4.8686e-09,0,0.0009798,0.00011125,2.1991e+08,1498.7,0,3.2455e+08,56.52,12633,611.88,0,611.88,0,0.00074859,2.1225e-09,0,0.00037943,0.00014007,2.5659e+08,665.89,0,1.2442e+08,78.858,611.88,1
2111,4.46,12107,1,12107,1,9.7063e-05,2.1381e-09,0,0.00065391,-1.7739e-05,-1.7756e+06,673.27,0,2.2471e+08,34.988,12106,13208,1,13208,1,0.0013536,7.9945e-09,0,0.0013536,0.00021569,3.6811e+08,2450.5,0,4.6761e+08,314.7,13207,12107,1,12107,1,5.5611e-05,1.4942e-09,0,0.00068607,-9.9804e-06,2.0062e+07,444.84,0,2.4133e+08,22.42,12106,10985,1,10985,1,-0.0011497,-1.0855e-09,0,3.7102e-05,-0.0002528,-4.6761e+08,-311.43,0,1.5106e+07,-185.26,10984,11579,1,11579,1,-0.00059336,3.2477e-10,0,0.00033373,-0.00013143,-2.4133e+08,99.245,0,1.282e+08,-23.155,11578,12634,1,12634,1,0.00070461,3.7361e-09,0,0.00098269,0.00011142,2.2029e+08,1178.6,0,3.2482e+08,84.858,12633,611.88,0,611.88,0,0.00075039,2.2485e-09,0,0.00038042,0.00014041,2.5698e+08,708.66,0,1.246e+08,87.788,611.88,1
2111,4.47,12107,1,12107,1,9.7825e-05,2.6584e-12,0,0.00065552,-1.7879e-05,-1.7787e+06,29.426,0,2.2505e+08,4.2909,12106,13208,1,13208,1,0.0013574,1.6712e-09,0,0.0013574,0.00021611,3.6834e+08,572.08,0,4.6851e+08,232.56,13207,12107,1,12107,1,5.6273e-05,7.0017e-11,0,0.00068721,-1.0102e-05,2.0289e+07,22.315,0,2.417e+08,-3.0462,12106,10985,1,10985,1,-0.0011519,-1.5954e-09,0,3.6662e-05,-0.0002535,-4.6851e+08,-423.68,0,1.4929e+07,-110.27,10984,11579,1,11579,1,-0.00059427,-7.7531e-10,0,0.00033506,-0.00013184,-2.417e+08,-191.14,0,1.283e+08,-27.49,11578,12634,1,12634,1,0.00070682,6.3591e-10,0,0.0009856,0.00011159,2.2067e+08,210.76,0,3.2509e+08,26.717,12633,611.88,0,611.88,0,0.0007522,8.2421e-10,0,0.00038141,0.00014075,2.5737e+08,246.07,0,1.2477e+08,54.587,611.88,1
2111,4.48,12107,1,12107,1,9.8591e-05,3.4123e-09,0,0.00065712,-1.8019e-05,-1.7819e+06,1047.3,0,2.2538e+08,33.922,12106,13208,1,13208,1,0.0013612,8.5283e-09,0,0.0013612,0.00021653,3.6856e+08,2579.9,0,4.6943e+08,289.96,13207,12107,1,12107,1,5.6938e-05,3.4692e-09,0,0.00068829,-1.0225e-05,2.0516e+07,1047.6,0,2.4206e+08,16.997,12106,10985,1,10985,1,-0.0011541,-1.2828e-09,0,3.622e-05,-0.00025421,-4.6943e+08,-417.45,0,1.4752e+07,-197.58,10984,11579,1,11579,1,-0.00059514,1.1972e-09,0,0.00033639,-0.00013225,-2.4206e+08,365.47,0,1.2838e+08,-41.2,11578,12634,1,12634,1,0.00070905,5.6362e-09,0,0.00098846,0.00011175,2.2105e+08,1762.4,0,3.2533e+08,110.33,12633,611.88,0,611.88,0,0.000754,2.5807e-09,0,0.00038239,0.00014108,2.5774e+08,808.23,0,1.2495e+08,102.3,611.88,1
2111,4.49,12107,1,12107,1,9.9361e-05,-6.1045e-10,0,0.00065874,-1.816e-05,-1.785e+06,-150.26,0,2.2573e+08,-12.547,12106,13208,1,13208,1,0.0013649,1.1466e-09,0,0.0013649,0.00021694,3.6879e+08,392.54,0,4.7032e+08,308.97,13207,12107,1,12107,1,5.7609e-05,-4.3567e-10,0,0.00068944,-1.0349e-05,2.0745e+07,-131.12,0,2.4243e+08,-25.716,12106,10985,1,10985,1,-0.0011563,-3.5126e-09,0,3.5771e-05,-0.00025491,-4.7032e+08,-939.57,0,1.4572e+07,-143.74,10984,11579,1,11579,1,-0.00059606,-1.4498e-09,0,0.00033773,-0.00013266,-2.4243e+08,-392.28,0,1.2848e+08,-59.076,11578,12634,1,12634,1,0.00071128,4.5431e-10,0,0.00099139,0.00011192,2.2142e+08,155.59,0,3.256e+08,5.3433,12633,611.88,0,611.88,0,0.00075581,1.1981e-09,0,0.00038339,0.00014142,2.5813e+08,343.26,0,1.2513e+08,80.086,611.88,1
2111,4.5,12107,1,12107,1,0.00010014,2.7254e-09,0,0.00066033,-1.8301e-05,-1.7881e+06,837.54,0,2.2606e+08,37.615,12106,13208,1,13208,1,0.0013687,7.0862e-09,0,0.0013687,0.00021736,3.69e+08,2125.7,0,4.7123e+08,320.19,13207,12107,1,12107,1,5.8282e-05,2.8125e-09,0,0.00069051,-1.0473e-05,2.0974e+07,846.66,0,2.4278e+08,15.393,12106,10985,1,10985,1,-0.0011586,-9.6279e-10,0,3.532e-05,-0.00025561,-4.7123e+08,-293.01,0,1.4391e+07,-125.29,10984,11579,1,11579,1,-0.00059691,1.024e-09,0,0.00033907,-0.00013308,-2.4278e+08,287.26,0,1.2856e+08,-40.744,11578,12634,1,12634,1,0.00071351,4.478e-09,0,0.00099425,0.00011209,2.218e+08,1403.3,0,3.2584e+08,115.68,12633,611.88,0,611.88,0,0.0007576,2.0453e-09,0,0.00038438,0.00014175,2.585e+08,638.17,0,1.253e+08,98.456,611.88,1
2111,4.51,12107,1,12107,1,0.00010091,1.8991e-09,0,0.00066194,-1.8443e-05,-1.7913e+06,602.62,0,2.2639e+08,50.742,12106,13208,1,13208,1,0.0013725,5.6655e-09,0,0.0013725,0.00021778,3.6921e+08,1726.2,0,4.7213e+08,265.53,13207,12107,1,12107,1,5.8961e-05,1.8185e-09,0,0.00069163,-1.0598e-05,2.1205e+07,552.91,0,2.4314e+08,31.108,12106,10985,1,10985,1,-0.0011608,-1.9683e-09,0,3.4866e-05,-0.00025631,-4.7213e+08,-505.64,0,1.4209e+07,-95.801,10984,11579,1,11579,1,-0.00059781,3.3861e-10,0,0.00034041,-0.00013349,-2.4314e+08,97.058,0,1.2865e+08,-11.407,11578,12634,1,12634,1,0.00071575,3.5302e-09,0,0.00099717,0.00011226,2.2218e+08,1113.2,0,3.261e+08,110.78,12633,611.88,0,611.88,0,0.00075941,1.832e-09,0,0.00038538,0.00014209,2.5888e+08,576.91,0,1.2548e+08,75.534,611.88,1
2111,4.52,12107,1,12107,1,0.0001017,1.7025e-09,0,0.00066355,-1.8587e-05,-1.7944e+06,543.32,0,2.2673e+08,28.081,12106,13208,1,13208,1,0.0013764,4.4897e-09,0,0.0013764,0.00021819,3.6942e+08,1382.8,0,4.7304e+08,224.17,13207,12107,1,12107,1,5.9645e-05,1.7221e-09,0,0.00069273,-1.0724e-05,2.1437e+07,522.24,0,2.435e+08,13.291,12106,10985,1,10985,1,-0.001163,-9.2394e-10,0,3.4404e-05,-0.00025702,-4.7304e+08,-223.66,0,1.4025e+07,-95.519,10984,11579,1,11579,1,-0.00059869,3.8006e-10,0,0.00034177,-0.00013391,-2.435e+08,105.46,0,1.2874e+08,-28.11,11578,12634,1,12634,1,0.000718,3.0936e-09,0,0.0010001,0.00011242,2.2255e+08,985.21,0,3.2634e+08,82.242,12633,611.88,0,611.88,0,0.00076122,1.472e-09,0,0.00038638,0.00014242,2.5926e+08,473.29,0,1.2565e+08,73.65,611.88,1
2111,4.53,12107,1,12107,1,0.00010249,7.2482e-10,0,0.00066518,-1.8731e-05,-1.7976e+06,248.16,0,2.2706e+08,35.385,12106,13208,1,13208,1,0.0013802,3.1159e-09,0,0.0013802,0.00021861,3.6963e+08,959.15,0,4.7394e+08,238.7,13207,12107,1,12107,1,6.0335e-05,7.1261e-10,0,0.00069385,-1.0851e-05,2.1671e+07,227.94,0,2.4386e+08,16.175,12106,10985,1,10985,1,-0.0011652,-1.5767e-09,0,3.3939e-05,-0.00025773,-4.7394e+08,-401.02,0,1.3839e+07,-57.024,10984,11579,1,11579,1,-0.00059957,-2.5838e-10,0,0.00034314,-0.00013432,-2.4386e+08,-73.801,0,1.2882e+08,-10.068,11578,12634,1,12634,1,0.00072026,1.7027e-09,0,0.001003,0.00011259,2.2293e+08,546.13,0,3.2659e+08,69.305,12633,611.88,0,611.88,0,0.00076304,1.0832e-09,0,0.00038738,0.00014276,2.5964e+08,336.65,0,1.2583e+08,60.991,611.88,1
2111,4.54,12107,1,12107,1,0.00010328,1.2823e-09,0,0.00066678,-1.8877e-05,-1.8005e+06,409.75,0,2.2739e+08,44.057,12106,13208,1,13208,1,0.001384,5.2886e-09,0,0.001384,0.00021902,3.6982e+08,1609.2,0,4.7483e+08,240.69,13207,12107,1,12107,1,6.1029e-05,1.1419e-09,0,0.00069492,-1.0979e-05,2.1907e+07,340.34,0,2.4421e+08,28.338,12106,10985,1,10985,1,-0.0011674,-2.6042e-09,0,3.3466e-05,-0.00025844,-4.7483e+08,-693.85,0,1.365e+07,-140.22,10984,11579,1,11579,1,-0.00060043,-7.1317e-11,0,0.0003445,-0.00013474,-2.4421e+08,-19.923,0,1.289e+08,-15.387,11578,12634,1,12634,1,0.00072251,2.6786e-09,0,0.0010059,0.00011275,2.2329e+08,836.91,0,3.2682e+08,103.78,12633,611.88,0,611.88,0,0.00076483,1.6426e-09,0,0.00038838,0.0001431,2.6001e+08,507.45,0,1.26e+08,75.531,611.88,1
2111,4.55,12107,1,12107,1,0.00010408,1.9541e-09,0,0.0006684,-1.9022e-05,-1.8038e+06,613.86,0,2.2772e+08,52.516,12106,13208,1,13208,1,0.0013879,7.6731e-09,0,0.0013879,0.00021945,3.7003e+08,2334.5,0,4.7575e+08,357.77,13207,12107,1,12107,1,6.1726e-05,1.4689e-09,0,0.00069603,-1.1107e-05,2.2143e+07,438.93,0,2.4457e+08,33.575,12106,10985,1,10985,1,-0.0011697,-1.7345e-09,0,3.2996e-05,-0.00025915,-4.7575e+08,-455.05,0,1.3462e+07,-197.67,10984,11579,1,11579,1,-0.00060131,1.0062e-10,0,0.00034587,-0.00013516,-2.4457e+08,28.784,0,1.2898e+08,-18.655,11578,12634,1,12634,1,0.00072479,3.7106e-09,0,0.0010089,0.00011292,2.2367e+08,1154.1,0,3.2706e+08,102.48,12633,611.88,0,611.88,0,0.00076666,2.2388e-09,0,0.00038939,0.00014344,2.6038e+08,696.39,0,1.2618e+08,98.024,611.88,1
2111,4.56,12107,1,12107,1,0.00010488,2.3261e-09,0,0.00067002,-1.917e-05,-1.8067e+06,729.43,0,2.2805e+08,21.709,12106,13208,1,13208,1,0.0013917,7.0583e-09,0,0.0013917,0.00021986,3.7022e+08,2166.1,0,4.7664e+08,289.94,13207,12107,1,12107,1,6.2434e-05,2.0496e-09,0,0.00069711,-1.1237e-05,2.2382e+07,617.69,0,2.4491e+08,10.934,12106,10985,1,10985,1,-0.0011719,-9.4779e-10,0,3.2512e-05,-0.00025986,-4.7664e+08,-213.05,0,1.327e+07,-162.09,10984,11579,1,11579,1,-0.00060217,6.2007e-10,0,0.00034724,-0.00013558,-2.4491e+08,180.82,0,1.2906e+08,-38.808,11578,12634,1,12634,1,0.00072706,3.9725e-09,0,0.0010118,0.00011308,2.2404e+08,1231.4,0,3.2728e+08,83.325,12633,611.88,0,611.88,0,0.00076846,1.9998e-09,0,0.00039039,0.00014377,2.6075e+08,639.26,0,1.2635e+08,84.275,611.88,1
2111,4.57,12107,1,12107,1,0.00010569,1.6088e-09,0,0.00067165,-1.9318e-05,-1.8098e+06,518.69,0,2.2838e+08,36.368,12106,13208,1,13208,1,0.0013956,4.957e-09,0,0.0013956,0.00022028,3.7041e+08,1676.2,0,4.7754e+08,296.08,13207,12107,1,12107,1,6.3142e-05,1.3696e-09,0,0.00069821,-1.1368e-05,2.2621e+07,417.34,0,2.4527e+08,18.854,12106,10985,1,10985,1,-0.0011741,-1.6741e-09,0,3.2029e-05,-0.00026058,-4.7754e+08,-423.04,0,1.3077e+07,-103.26,10984,11579,1,11579,1,-0.00060304,1.6055e-10,0,0.00034863,-0.00013601,-2.4527e+08,44.058,0,1.2914e+08,-21.356,11578,12634,1,12634,1,0.00072935,3.038e-09,0,0.0010148,0.00011324,2.2441e+08,973.44,0,3.2752e+08,91.899,12633,611.88,0,611.88,0,0.00077029,1.6966e-09,0,0.00039141,0.00014411,2.6113e+08,540.37,0,1.2653e+08,77.043,611.88,1
2111,4.58,12107,1,12107,1,0.00010651,1.7214e-09,0,0.00067327,-1.9467e-05,-1.813e+06,549.59,0,2.2871e+08,40.904,12106,13208,1,13208,1,0.0013994,5.4278e-09,0,0.0013994,0.00022069,3.7059e+08,1663,0,4.7844e+08,326.27,13207,12107,1,12107,1,6.3858e-05,1.513e-09,0,0.00069929,-1.15e-05,2.2862e+07,464.08,0,2.4562e+08,20.088,12106,10985,1,10985,1,-0.0011763,-1.349e-09,0,3.1538e-05,-0.0002613,-4.7844e+08,-336.02,0,1.2882e+07,-102.66,10984,11579,1,11579,1,-0.0006039,2.7752e-10,0,0.00035002,-0.00013643,-2.4562e+08,74.123,0,1.2921e+08,-21.189,11578,12634,1,12634,1,0.00073164,3.0965e-09,0,0.0010178,0.00011341,2.2478e+08,989.94,0,3.2774e+08,98.628,12633,611.88,0,611.88,0,0.00077211,1.657e-09,0,0.00039242,0.00014445,2.615e+08,527.94,0,1.267e+08,83.01,611.88,1
2111,4.59,12107,1,12107,1,0.00010733,1.0657e-09,0,0.0006749,-1.9617e-05,-1.816e+06,351.22,0,2.2903e+08,25.73,12106,13208,1,13208,1,0.0014033,3.2004e-09,0,0.0014033,0.00022111,3.7077e+08,1095.1,0,4.7934e+08,310.29,13207,12107,1,12107,1,6.4577e-05,1.077e-09,0,0.00070038,-1.1632e-05,2.3105e+07,340.99,0,2.4597e+08,6.0618,12106,10985,1,10985,1,-0.0011785,-1.1736e-09,0,3.1044e-05,-0.00026201,-4.7934e+08,-281.47,0,1.2686e+07,-96.799,10984,11579,1,11579,1,-0.00060476,-3.0809e-12,0,0.00035142,-0.00013685,-2.4597e+08,-1.1502,0,1.2929e+08,-23.321,11578,12634,1,12634,1,0.00073393,2.0455e-09,0,0.0010207,0.00011357,2.2515e+08,658.84,0,3.2796e+08,65.049,12633,611.88,0,611.88,0,0.00077394,1.1336e-09,0,0.00039344,0.00014479,2.6186e+08,362.85,0,1.2687e+08,73.165,611.88,1
2111,4.6,12107,1,12107,1,0.00010815,1.0905e-09,0,0.00067652,-1.9768e-05,-1.8191e+06,355.35,0,2.2935e+08,61.606,12106,13208,1,13208,1,0.0014072,4.9291e-09,0,0.0014072,0.00022152,3.7095e+08,1525.5,0,4.8023e+08,346.15,13207,12107,1,12107,1,6.5301e-05,7.7179e-10,0,0.00070145,-1.1765e-05,2.3348e+07,232.89,0,2.4631e+08,39.324,12106,10985,1,10985,1,-0.0011807,-2.9117e-09,0,3.0545e-05,-0.00026273,-4.8023e+08,-761.49,0,1.2489e+07,-116.36,10984,11579,1,11579,1,-0.00060561,-2.9294e-10,0,0.00035282,-0.00013728,-2.4631e+08,-73.224,0,1.2936e+08,-6.4193,11578,12634,1,12634,1,0.00073623,2.46e-09,0,0.0010237,0.00011373,2.2552e+08,770.24,0,3.2818e+08,118.37,12633,611.88,0,611.88,0,0.00077576,1.7584e-09,0,0.00039446,0.00014513,2.6223e+08,536.53,0,1.2704e+08,87.259,611.88,1
2111,4.61,12107,1,12107,1,0.00010898,-3.1136e-10,0,0.00067815,-1.992e-05,-1.8221e+06,-67.828,0,2.2968e+08,30.337,12106,13208,1,13208,1,0.001411,1.0896e-09,0,0.001411,0.00022193,3.7112e+08,332.29,0,4.8112e+08,328.15,13207,12107,1,12107,1,6.6028e-05,-1.2256e-10,0,0.00070253,-1.1899e-05,2.3593e+07,-34.748,0,2.4666e+08,4.6109,12106,10985,1,10985,1,-0.0011829,-2.071e-09,0,3.0042e-05,-0.00026345,-4.8112e+08,-538.82,0,1.229e+07,-75.532,10984,11579,1,11579,1,-0.00060646,-1.0584e-09,0,0.00035423,-0.0001377,-2.4666e+08,-272.64,0,1.2943e+08,-12.529,11578,12634,1,12634,1,0.00073852,3.1922e-10,0,0.0010267,0.00011389,2.2588e+08,107.3,0,3.2839e+08,52.56,12633,611.88,0,611.88,0,0.00077758,7.9592e-10,0,0.00039548,0.00014547,2.626e+08,222.54,0,1.2722e+08,70.896,611.88,1
2111,4.62,12107,1,12107,1,0.00010982,2.0824e-09,0,0.00067978,-2.0073e-05,-1.8252e+06,635.6,0,2.3e+08,41.168,12106,13208,1,13208,1,0.0014149,4.6317e-09,0,0.0014149,0.00022235,3.7129e+08,1457.4,0,4.8202e+08,305.02,13207,12107,1,12107,1,6.6761e-05,2.1105e-09,0,0.00070359,-1.2035e-05,2.3838e+07,625.32,0,2.47e+08,22.924,12106,10985,1,10985,1,-0.0011851,-5.3246e-10,0,2.9536e-05,-0.00026417,-4.8202e+08,-176.84,0,1.209e+07,-65.138,10984,11579,1,11579,1,-0.0006073,9.663e-10,0,0.00035563,-0.00013813,-2.47e+08,266.11,0,1.295e+08,-11.084,11578,12634,1,12634,1,0.00074084,3.2299e-09,0,0.0010297,0.00011405,2.2625e+08,998.39,0,3.286e+08,81.093,12633,611.88,0,611.88,0,0.00077941,1.4178e-09,0,0.0003965,0.00014581,2.6296e+08,446.95,0,1.2739e+08,69.535,611.88,1
2111,4.63,12107,1,12107,1,0.00011066,1.499e-09,0,0.0006814,-2.0226e-05,-1.828e+06,472.58,0,2.3031e+08,68.455,12106,13208,1,13208,1,0.0014188,5.5018e-09,0,0.0014188,0.00022276,3.7144e+08,1751.2,0,4.8291e+08,312.7,13207,12107,1,12107,1,6.7501e-05,1.4619e-09,0,0.00070464,-1.2171e-05,2.4086e+07,424,0,2.4734e+08,46.53,12106,10985,1,10985,1,-0.0011873,-4.2724e-09,0,2.902e-05,-0.00026489,-4.8291e+08,-1143.3,0,1.1887e+07,-99.874,10984,11579,1,11579,1,-0.00060813,-2.3771e-10,0,0.00035704,-0.00013856,-2.4734e+08,-74.798,0,1.2956e+08,-10.402,11578,12634,1,12634,1,0.00074315,3.3725e-09,0,0.0010327,0.00011421,2.2661e+08,1027.6,0,3.288e+08,142.54,12633,611.88,0,611.88,0,0.00078122,2.1525e-09,0,0.00039752,0.00014615,2.6332e+08,653.83,0,1.2755e+08,95.979,611.88,1
2111,4.64,12107,1,12107,1,0.0001115,1.417e-09,0,0.00068304,-2.038e-05,-1.8312e+06,451.94,0,2.3063e+08,34.956,12106,13208,1,13208,1,0.0014227,4.1115e-09,0,0.0014227,0.00022317,3.716e+08,1373.2,0,4.838e+08,424.45,13207,12107,1,12107,1,6.8241e-05,1.2562e-09,0,0.00070571,-1.2307e-05,2.4334e+07,386.15,0,2.4768e+08,3.6391,12106,10985,1,10985,1,-0.0011895,-9.2914e-10,0,2.8506e-05,-0.00026561,-4.838e+08,-223.97,0,1.1684e+07,-128.13,10984,11579,1,11579,1,-0.00060897,2.4539e-10,0,0.00035846,-0.00013899,-2.4768e+08,63.656,0,1.2963e+08,-33.491,11578,12634,1,12634,1,0.00074547,2.5537e-09,0,0.0010357,0.00011437,2.2697e+08,809.47,0,3.2901e+08,93.242,12633,611.88,0,611.88,0,0.00078305,1.3599e-09,0,0.00039855,0.00014649,2.6368e+08,437.53,0,1.2773e+08,105.35,611.88,1
2111,4.65,12107,1,12107,1,0.00011235,-1.9616e-09,0,0.00068466,-2.0535e-05,-1.8339e+06,-556.87,0,2.3094e+08,55.349,12106,13208,1,13208,1,0.0014266,4.0541e-09,0,0.0014266,0.00022358,3.7176e+08,1158.3,0,4.8468e+08,402.15,13207,12107,1,12107,1,6.8987e-05,-1.4651e-09,0,0.00070676,-1.2445e-05,2.4584e+07,-445.66,0,2.4801e+08,32.788,12106,10985,1,10985,1,-0.0011916,-7.5794e-09,0,2.7982e-05,-0.00026633,-4.8468e+08,-2193.2,0,1.1478e+07,-176.61,10984,11579,1,11579,1,-0.00060979,-4.2856e-09,0,0.00035989,-0.00013942,-2.4801e+08,-1238.8,0,1.2969e+08,-22.328,11578,12634,1,12634,1,0.00074778,3.3435e-10,0,0.0010387,0.00011452,2.2733e+08,104.2,0,3.292e+08,113.16,12633,611.88,0,611.88,0,0.00078487,2.8117e-09,0,0.00039957,0.00014683,2.6403e+08,807.05,0,1.2789e+08,106.54,611.88,1
2111,4.66,12107,1,12107,1,0.00011319,2.6006e-10,0,0.00068628,-2.069e-05,-1.8371e+06,71.282,0,2.3125e+08,86.847,12106,13208,1,13208,1,0.0014304,7.4895e-09,0,0.0014304,0.00022398,3.719e+08,2217.5,0,4.8555e+08,498.27,13207,12107,1,12107,1,6.9733e-05,-1.4155e-10,0,0.00070781,-1.2582e-05,2.4833e+07,-34.701,0,2.4835e+08,46.851,12106,10985,1,10985,1,-0.0011938,-5.0631e-09,0,2.7459e-05,-0.00026705,-4.8555e+08,-1452.8,0,1.1273e+07,-145.03,10984,11579,1,11579,1,-0.00061061,-1.059e-09,0,0.00036131,-0.00013984,-2.4835e+08,-326.92,0,1.2975e+08,-9.7735,11578,12634,1,12634,1,0.00075009,1.4095e-09,0,0.0010417,0.00011468,2.2768e+08,415.31,0,3.294e+08,177.92,12633,611.88,0,611.88,0,0.00078667,2.3239e-09,0,0.00040059,0.00014716,2.6438e+08,689.46,0,1.2806e+08,131.41,611.88,1
2111,4.67,12107,1,12107,1,0.00011405,2.7519e-09,0,0.00068791,-2.0846e-05,-1.8407e+06,823.77,0,2.3157e+08,125.33,12106,13208,1,13208,1,0.0014344,1.3158e-08,0,0.0014344,0.0002244,3.7206e+08,3921.7,0,4.8645e+08,622.5,13207,12107,1,12107,1,7.0485e-05,1.8142e-09,0,0.00070885,-1.272e-05,2.5083e+07,521.9,0,2.4868e+08,93.47,12106,10985,1,10985,1,-0.001196,-2.4584e-09,0,2.6935e-05,-0.00026778,-4.8645e+08,-711.12,0,1.1067e+07,-257.79,10984,11579,1,11579,1,-0.00061144,-1.8286e-10,0,0.00036273,-0.00014028,-2.4868e+08,-54.611,0,1.2981e+08,-7.3498,11578,12634,1,12634,1,0.00075244,5.0768e-09,0,0.0010446,0.00011483,2.2804e+08,1530.5,0,3.2959e+08,252.32,12633,611.88,0,611.88,0,0.0007885,3.5284e-09,0,0.00040162,0.0001475,2.6474e+08,1071.3,0,1.2823e+08,172.11,611.88,1
2111,4.68,12107,1,12107,1,0.00011491,5.2134e-10,0,0.00068956,-2.1005e-05,-1.8433e+06,187.12,0,2.3189e+08,25.36,12106,13208,1,13208,1,0.0014384,4.3067e-09,0,0.0014384,0.00022481,3.722e+08,1321.7,0,4.8734e+08,297.96,13207,12107,1,12107,1,7.1253e-05,8.5621e-11,0,0.00070993,-1.2862e-05,2.5339e+07,28.773,0,2.4903e+08,14.043,12106,10985,1,10985,1,-0.0011982,-2.7961e-09,0,2.6395e-05,-0.00026851,-4.8734e+08,-775.07,0,1.0856e+07,-167.13,10984,11579,1,11579,1,-0.00061228,-5.2513e-10,0,0.00036418,-0.00014071,-2.4903e+08,-147.88,0,1.2987e+08,-38.657,11578,12634,1,12634,1,0.0007548,1.6418e-09,0,0.0010477,0.00011499,2.284e+08,506.72,0,3.2979e+08,87.047,12633,611.88,0,611.88,0,0.00079035,1.5043e-09,0,0.00040267,0.00014785,2.651e+08,469.75,0,1.284e+08,93.642,611.88,1
2111,4.69,12107,1,12107,1,0.00011579,-2.8753e-10,0,0.00069122,-2.1165e-05,-1.8464e+06,-60.567,0,2.322e+08,16.127,12106,13208,1,13208,1,0.0014423,1.7079e-09,0,0.0014423,0.00022522,3.7234e+08,525.23,0,4.8823e+08,345.38,13207,12107,1,12107,1,7.2026e-05,-2.9622e-10,0,0.00071099,-1.3004e-05,2.5596e+07,-78.475,0,2.4936e+08,-0.93204,12106,10985,1,10985,1,-0.0012004,-1.7664e-09,0,2.5851e-05,-0.00026924,-4.8823e+08,-439.34,0,1.0643e+07,-127.86,10984,11579,1,11579,1,-0.00061311,-1.1054e-09,0,0.00036564,-0.00014115,-2.4936e+08,-292.35,0,1.2993e+08,-29.082,11578,12634,1,12634,1,0.00075717,3.2537e-10,0,0.0010508,0.00011515,2.2876e+08,107.84,0,3.2998e+08,35.821,12633,611.88,0,611.88,0,0.0007922,8.9395e-10,0,0.00040372,0.00014819,2.6546e+08,261.18,0,1.2857e+08,80.36,611.88,1
2111,4.7,12107,1,12107,1,0.00011667,-1.4799e-09,0,0.00069286,-2.1327e-05,-1.8493e+06,-426.46,0,2.3251e+08,36.116,12106,13208,1,13208,1,0.0014463,1.2441e-09,0,0.0014463,0.00022563,3.7247e+08,405.6,0,4.8912e+08,311.2,13207,12107,1,12107,1,7.2802e-05,-1.14e-09,0,0.00071201,-1.3148e-05,2.5854e+07,-323.39,0,2.4969e+08,26.078,12106,10985,1,10985,1,-0.0012026,-5.2144e-09,0,2.53e-05,-0.00026998,-4.8912e+08,-1542.4,0,1.0429e+07,-116.09,10984,11579,1,11579,1,-0.00061391,-2.851e-09,0,0.00036711,-0.00014159,-2.4969e+08,-835.29,0,1.2998e+08,-16.82,11578,12634,1,12634,1,0.00075953,7.1606e-11,0,0.0010538,0.0001153,2.2912e+08,21.818,0,3.3015e+08,77.626,12633,611.88,0,611.88,0,0.00079404,1.7216e-09,0,0.00040476,0.00014853,2.6581e+08,504.26,0,1.2874e+08,77.121,611.88,1
2111,4.71,12107,1,12107,1,0.00011754,2.7197e-09,0,0.00069445,-2.1486e-05,-1.8522e+06,804.22,0,2.328e+08,187.87,12106,13208,1,13208,1,0.0014502,1.8539e-08,0,0.0014502,0.00022603,3.7258e+08,5487,0,4.8999e+08,803.78,13207,12107,1,12107,1,7.3576e-05,1.7484e-09,0,0.00071299,-1.329e-05,2.6111e+07,483.28,0,2.5e+08,138.61,12106,10985,1,10985,1,-0.0012047,-9.3947e-09,0,2.4747e-05,-0.0002707,-4.8999e+08,-2729.2,0,1.0214e+07,-446.57,10984,11579,1,11579,1,-0.00061467,-1.3408e-09,0,0.00036854,-0.00014202,-2.5e+08,-391.79,0,1.3002e+08,-0.33883,11578,12634,1,12634,1,0.00076187,6.4681e-09,0,0.0010568,0.00011544,2.2946e+08,1907.7,0,3.303e+08,372.4,12633,611.88,0,611.88,0,0.00079582,5.5739e-09,0,0.00040577,0.00014886,2.6614e+08,1661.5,0,1.2889e+08,236.04,611.88,1
2111,4.72,12107,1,12107,1,0.00011842,9.9804e-10,0,0.00069614,-2.1648e-05,-1.8545e+06,327.6,0,2.3312e+08,-59.044,12106,13208,1,13208,1,0.0014542,3.1761e-09,0,0.0014542,0.00022644,3.7272e+08,1086.7,0,4.9088e+08,303.45,13207,12107,1,12107,1,7.4359e-05,1.2637e-09,0,0.00071408,-1.3434e-05,2.637e+07,382.22,0,2.5035e+08,-61.251,12106,10985,1,10985,1,-0.0012069,-2.4155e-09,0,2.4198e-05,-0.00027144,-4.9088e+08,-562.45,0,1e+07,-278.33,10984,11579,1,11579,1,-0.00061553,6.1352e-11,0,0.00037001,-0.00014246,-2.5035e+08,19.787,0,1.3008e+08,-128.33,11578,12634,1,12634,1,0.00076426,2.0593e-09,0,0.0010599,0.00011561,2.2982e+08,621.84,0,3.3052e+08,-2.6016,12633,611.88,0,611.88,0,0.0007977,1.2727e-09,0,0.00040684,0.00014921,2.6651e+08,381.15,0,1.2907e+08,101.9,611.88,1
2111,4.73,12107,1,12107,1,0.00011932,3.6194e-09,0,0.00069777,-2.1812e-05,-1.8571e+06,1102.6,0,2.3342e+08,101.41,12106,13208,1,13208,1,0.0014582,1.3949e-08,0,0.0014582,0.00022685,3.7284e+08,4154.1,0,4.9177e+08,750.16,13207,12107,1,12107,1,7.5156e-05,2.9866e-09,0,0.00071508,-1.358e-05,2.6634e+07,848.58,0,2.5066e+08,50.043,12106,10985,1,10985,1,-0.0012091,-3.0606e-09,0,2.3629e-05,-0.00027218,-4.9177e+08,-829.69,0,9.7799e+06,-331.59,10984,11579,1,11579,1,-0.0006163,1.1463e-10,0,0.00037148,-0.00014291,-2.5066e+08,34.017,0,1.3012e+08,-53.829,11578,12634,1,12634,1,0.00076666,6.8005e-09,0,0.0010629,0.00011575,2.3017e+08,2062.4,0,3.3102e+08,231.39,12633,611.88,0,611.88,0,0.00079953,3.999e-09,0,0.00040788,0.00014955,2.6685e+08,1218.7,0,1.2923e+08,206.48,611.88,1
2111,4.74,12107,1,12107,1,0.00012022,6.6516e-10,0,0.00069944,-2.1976e-05,-1.861e+06,249.62,0,2.3373e+08,5.5338,12106,13208,1,13208,1,0.0014621,3.2777e-09,0,0.0014621,0.00022725,3.7295e+08,1121.9,0,4.9264e+08,478.55,13207,12107,1,12107,1,7.5951e-05,7.2836e-10,0,0.00071614,-1.3727e-05,2.6897e+07,230.56,0,2.51e+08,-13.873,12106,10985,1,10985,1,-0.0012112,-2.1005e-09,0,2.3062e-05,-0.00027292,-4.9264e+08,-487.18,0,9.5606e+06,-195.49,10984,11579,1,11579,1,-0.00061713,-3.5677e-10,0,0.00037296,-0.00014335,-2.51e+08,-82.931,0,1.3018e+08,-64.937,11578,12634,1,12634,1,0.00076904,1.6892e-09,0,0.001066,0.00011591,2.3052e+08,558.89,0,3.3154e+08,36.812,12633,611.88,0,611.88,0,0.00080139,1.3561e-09,0,0.00040895,0.0001499,2.672e+08,415.1,0,1.294e+08,113.64,611.88,1
2111,4.75,12107,1,12107,1,0.00012112,3.5811e-09,0,0.00070107,-2.2141e-05,-1.8637e+06,1094.3,0,2.3402e+08,106.05,12106,13208,1,13208,1,0.0014661,1.2102e-08,0,0.0014661,0.00022766,3.7306e+08,3585,0,4.9352e+08,620.6,13207,12107,1,12107,1,7.6752e-05,3.4397e-09,0,0.00071712,-1.3874e-05,2.7161e+07,986.69,0,2.5131e+08,61.424,12106,10985,1,10985,1,-0.0012134,-2.9564e-09,0,2.2488e-05,-0.00027366,-4.9352e+08,-748.69,0,9.3389e+06,-301.5,10984,11579,1,11579,1,-0.00061789,4.395e-10,0,0.00037443,-0.00014379,-2.5131e+08,124.27,0,1.3021e+08,-44.495,11578,12634,1,12634,1,0.00077144,6.5299e-09,0,0.0010691,0.00011605,2.3087e+08,2014.4,0,3.3203e+08,254.61,12633,611.88,0,611.88,0,0.00080321,3.4932e-09,0,0.00040999,0.00015024,2.6754e+08,1067.6,0,1.2956e+08,188.57,611.88,1
2111,4.76,12107,1,12107,1,0.00012203,2.7332e-09,0,0.00070274,-2.2308e-05,-1.8664e+06,870.36,0,2.3433e+08,41.208,12106,13208,1,13208,1,0.0014702,7.0264e-09,0,0.0014702,0.00022807,3.7317e+08,2396.2,0,4.9441e+08,443.84,13207,12107,1,12107,1,7.7561e-05,2.6932e-09,0,0.00071817,-1.4023e-05,2.7428e+07,809.44,0,2.5164e+08,12.797,12106,10985,1,10985,1,-0.0012156,-1.6088e-09,0,2.1909e-05,-0.00027441,-4.9441e+08,-363.3,0,9.1159e+06,-236.18,10984,11579,1,11579,1,-0.00061871,5.3153e-10,0,0.00037593,-0.00014424,-2.5164e+08,141.11,0,1.3027e+08,-63.753,11578,12634,1,12634,1,0.00077387,5.0177e-09,0,0.0010722,0.00011621,2.3122e+08,1602.4,0,3.3255e+08,141.59,12633,611.88,0,611.88,0,0.00080508,2.4915e-09,0,0.00041106,0.00015059,2.6789e+08,794.84,0,1.2973e+08,141.09,611.88,1
2111,4.77,12107,1,12107,1,0.00012295,1.8049e-09,0,0.0007044,-2.2476e-05,-1.8701e+06,598.45,0,2.3463e+08,66.83,12106,13208,1,13208,1,0.0014742,5.4145e-09,0,0.0014742,0.00022848,3.7326e+08,1852.5,0,4.9529e+08,466.99,13207,12107,1,12107,1,7.8377e-05,1.8465e-09,0,0.0007192,-1.4174e-05,2.7696e+07,585.36,0,2.5196e+08,34.99,12106,10985,1,10985,1,-0.0012177,-1.5941e-09,0,2.1322e-05,-0.00027515,-4.9529e+08,-378.19,0,8.8898e+06,-156.95,10984,11579,1,11579,1,-0.0006195,-1.4409e-10,0,0.00037743,-0.00014468,-2.5196e+08,-39.972,0,1.3031e+08,-18.711,11578,12634,1,12634,1,0.00077628,3.512e-09,0,0.0010753,0.00011636,2.3157e+08,1143.6,0,3.3306e+08,133.27,12633,611.88,0,611.88,0,0.00080694,1.969e-09,0,0.00041213,0.00015093,2.6823e+08,626.32,0,1.2989e+08,118.29,611.88,1
2111,4.78,12107,1,12107,1,0.00012386,1.1289e-09,0,0.00070603,-2.2644e-05,-1.8728e+06,391.97,0,2.3492e+08,105.43,12106,13208,1,13208,1,0.0014782,1.049e-08,0,0.0014782,0.00022888,3.7335e+08,3142.7,0,4.9615e+08,654.04,13207,12107,1,12107,1,7.9193e-05,4.0736e-10,0,0.00072018,-1.4323e-05,2.7964e+07,126.66,0,2.5227e+08,73.841,12106,10985,1,10985,1,-0.0012198,-6.8721e-09,0,2.0731e-05,-0.00027588,-4.9615e+08,-1816.3,0,8.663e+06,-258.02,10984,11579,1,11579,1,-0.00062026,-1.3015e-09,0,0.00037893,-0.00014513,-2.5227e+08,-327.39,0,1.3034e+08,-22.742,11578,12634,1,12634,1,0.00077867,3.7987e-09,0,0.0010784,0.0001165,2.319e+08,1186.4,0,3.3355e+08,222.37,12633,611.88,0,611.88,0,0.00080876,3.5009e-09,0,0.00041318,0.00015127,2.6856e+08,1042.1,0,1.3005e+08,173.55,611.88,1
2111,4.79,12107,1,12107,1,0.00012479,-7.6772e-10,0,0.00070772,-2.2813e-05,-1.8754e+06,-173.37,0,2.3523e+08,11.735,12106,13208,1,13208,1,0.0014822,2.3131e-09,0,0.0014822,0.00022928,3.7347e+08,741.79,0,4.9703e+08,577.01,13207,12107,1,12107,1,8.001e-05,-6.0326e-10,0,0.00072123,-1.4475e-05,2.8232e+07,-175.2,0,2.526e+08,-18.293,12106,10985,1,10985,1,-0.001222,-4.1162e-09,0,2.0144e-05,-0.00027663,-4.9703e+08,-1053.9,0,8.4382e+06,-166.59,10984,11579,1,11579,1,-0.00062107,-2.2659e-09,0,0.00038046,-0.00014557,-2.526e+08,-605.78,0,1.3038e+08,-58.306,11578,12634,1,12634,1,0.0007811,8.2758e-10,0,0.0010815,0.00011666,2.3226e+08,277.28,0,3.3408e+08,26.248,12633,611.88,0,611.88,0,0.00081064,1.7703e-09,0,0.00041426,0.00015162,2.6891e+08,500.13,0,1.3022e+08,121.97,611.88,1
2111,4.8,12107,1,12107,1,0.00012572,2.1949e-09,0,0.00070938,-2.2985e-05,-1.8789e+06,667.33,0,2.3552e+08,51.204,12106,13208,1,13208,1,0.0014862,5.1965e-09,0,0.0014862,0.00022969,3.7354e+08,1670.2,0,4.9791e+08,562.38,13207,12107,1,12107,1,8.084e-05,2.2593e-09,0,0.00072221,-1.4628e-05,2.8504e+07,646.47,0,2.5291e+08,25.009,12106,10985,1,10985,1,-0.0012242,-1.6656e-09,0,1.9545e-05,-0.00027738,-4.9791e+08,-400.29,0,8.2089e+06,-244.99,10984,11579,1,11579,1,-0.00062183,7.6852e-10,0,0.00038197,-0.00014603,-2.5291e+08,213.79,0,1.3042e+08,-51.619,11578,12634,1,12634,1,0.00078354,3.7363e-09,0,0.0010846,0.0001168,2.326e+08,1139.5,0,3.3457e+08,139.32,12633,611.88,0,611.88,0,0.00081249,1.7602e-09,0,0.00041533,0.00015196,2.6925e+08,543.18,0,1.3038e+08,156.39,611.88,1
2111,4.81,12107,1,12107,1,0.00012666,8.5831e-11,0,0.00071104,-2.3156e-05,-1.8816e+06,62.692,0,2.3582e+08,64.155,12106,13208,1,13208,1,0.0014903,3.4498e-09,0,0.0014903,0.00023009,3.7362e+08,1017,0,4.9878e+08,457.26,13207,12107,1,12107,1,8.1676e-05,1.1236e-10,0,0.00072322,-1.4781e-05,2.8778e+07,33.233,0,2.5323e+08,49.037,12106,10985,1,10985,1,-0.0012263,-3.0483e-09,0,1.8938e-05,-0.00027813,-4.9878e+08,-755.11,0,7.9769e+06,-140.06,10984,11579,1,11579,1,-0.00062261,-1.0059e-09,0,0.0003835,-0.00014648,-2.5323e+08,-245.09,0,1.3045e+08,-6.257,11578,12634,1,12634,1,0.00078597,1.1256e-09,0,0.0010878,0.00011695,2.3294e+08,356.14,0,3.3508e+08,113.32,12633,611.88,0,611.88,0,0.00081435,1.4383e-09,0,0.0004164,0.00015231,2.6958e+08,415.32,0,1.3055e+08,101.46,611.88,1
2111,4.82,12107,1,12107,1,0.00012761,-4.8458e-10,0,0.00071271,-2.3329e-05,-1.8842e+06,-115.11,0,2.3611e+08,48.288,12106,13208,1,13208,1,0.0014943,1.6797e-09,0,0.0014943,0.00023049,3.737e+08,575.17,0,4.9965e+08,500.27,13207,12107,1,12107,1,8.2514e-05,-1.9823e-10,0,0.00072422,-1.4936e-05,2.9052e+07,-51.985,0,2.5354e+08,8.2231,12106,10985,1,10985,1,-0.0012284,-3.4359e-09,0,1.8328e-05,-0.00027887,-4.9965e+08,-861.98,0,7.7443e+06,-120.47,10984,11579,1,11579,1,-0.00062338,-1.3359e-09,0,0.00038503,-0.00014693,-2.5354e+08,-345.71,0,1.3048e+08,-31.556,11578,12634,1,12634,1,0.00078841,4.5387e-10,0,0.0010909,0.00011709,2.3328e+08,152.29,0,3.3557e+08,86.388,12633,611.88,0,611.88,0,0.00081621,1.1241e-09,0,0.00041748,0.00015266,2.6992e+08,313.74,0,1.3071e+08,121.28,611.88,1
2111,4.83,12107,1,12107,1,0.00012855,9.2078e-10,0,0.00071438,-2.3503e-05,-1.8873e+06,279.1,0,2.364e+08,61.902,12106,13208,1,13208,1,0.0014984,3.3589e-09,0,0.0014984,0.0002309,3.7377e+08,953.84,0,5.0052e+08,591.51,13207,12107,1,12107,1,8.3358e-05,9.9881e-10,0,0.00072521,-1.5092e-05,2.9328e+07,306.45,0,2.5385e+08,23.525,12106,10985,1,10985,1,-0.0012306,-2.5048e-09,0,1.7715e-05,-0.00027963,-5.0052e+08,-605.32,0,7.5111e+06,-159.34,10984,11579,1,11579,1,-0.00062414,1.531e-10,0,0.00038657,-0.00014738,-2.5385e+08,41.852,0,1.3051e+08,-22.245,11578,12634,1,12634,1,0.00079087,1.6588e-09,0,0.0010941,0.00011724,2.3362e+08,492.03,0,3.3607e+08,115.51,12633,611.88,0,611.88,0,0.00081807,1.0322e-09,0,0.00041856,0.000153,2.7025e+08,299.98,0,1.3087e+08,125.6,611.88,1
2111,4.84,12107,1,12107,1,0.00012951,1.2137e-09,0,0.00071602,-2.3677e-05,-1.8894e+06,380.03,0,2.3668e+08,77.373,12106,13208,1,13208,1,0.0015024,9.3167e-09,0,0.0015024,0.00023129,3.7383e+08,2720.9,0,5.0138e+08,595.35,13207,12107,1,12107,1,8.4212e-05,5.6189e-10,0,0.00072617,-1.5249e-05,2.9606e+07,166.14,0,2.5415e+08,50.947,12106,10985,1,10985,1,-0.0012327,-6.996e-09,0,1.7089e-05,-0.00028038,-5.0138e+08,-1836.6,0,7.2731e+06,-297.98,10984,11579,1,11579,1,-0.00062487,-7.4242e-10,0,0.00038809,-0.00014783,-2.5415e+08,-188.62,0,1.3053e+08,-24.706,11578,12634,1,12634,1,0.00079332,3.3545e-09,0,0.0010972,0.00011738,2.3395e+08,1020.9,0,3.3655e+08,169.64,12633,611.88,0,611.88,0,0.0008199,3.0483e-09,0,0.00041962,0.00015334,2.7057e+08,882.38,0,1.3103e+08,153.11,611.88,1
2111,4.85,12107,1,12107,1,0.00013046,5.6698e-10,0,0.00071771,-2.3852e-05,-1.893e+06,199.78,0,2.3698e+08,39.285,12106,13208,1,13208,1,0.0015065,3.2398e-09,0,0.0015065,0.0002317,3.7391e+08,954.32,0,5.0226e+08,537.39,13207,12107,1,12107,1,8.5063e-05,5.0414e-10,0,0.00072719,-1.5405e-05,2.9883e+07,160.69,0,2.5446e+08,6.0761,12106,10985,1,10985,1,-0.0012349,-1.6814e-09,0,1.647e-05,-0.00028114,-5.0226e+08,-404.97,0,7.0382e+06,-210.64,10984,11579,1,11579,1,-0.00062566,-3.2729e-10,0,0.00038964,-0.00014829,-2.5446e+08,-78.263,0,1.3057e+08,-46,11578,12634,1,12634,1,0.00079579,1.3393e-09,0,0.0011004,0.00011752,2.3429e+08,433.01,0,3.3706e+08,95.765,12633,611.88,0,611.88,0,0.00082178,1.0468e-09,0,0.00042072,0.00015369,2.7091e+08,317.55,0,1.3119e+08,134.88,611.88,1
2111,4.86,12107,1,12107,1,0.00013143,1.9988e-09,0,0.00071939,-2.4029e-05,-1.8963e+06,614.04,0,2.3726e+08,82.054,12106,13208,1,13208,1,0.0015106,6.2303e-09,0,0.0015106,0.0002321,3.7397e+08,1831.6,0,5.0313e+08,578.68,13207,12107,1,12107,1,8.5927e-05,1.963e-09,0,0.00072816,-1.5564e-05,3.0164e+07,577.23,0,2.5477e+08,50.671,12106,10985,1,10985,1,-0.001237,-2.5585e-09,0,1.5837e-05,-0.0002819,-5.0313e+08,-614.94,0,6.7986e+06,-182.06,10984,11579,1,11579,1,-0.0006264,4.3493e-10,0,0.00039119,-0.00014875,-2.5477e+08,119.58,0,1.3059e+08,-17.434,11578,12634,1,12634,1,0.00079828,3.4991e-09,0,0.0011035,0.00011766,2.3463e+08,1077.4,0,3.3755e+08,162.35,12633,611.88,0,611.88,0,0.00082365,1.9546e-09,0,0.00042181,0.00015404,2.7124e+08,592.66,0,1.3135e+08,138.17,611.88,1
2111,4.87,12107,1,12107,1,0.0001324,9.2489e-10,0,0.00072107,-2.4208e-05,-1.8994e+06,315.08,0,2.3755e+08,81.05,12106,13208,1,13208,1,0.0015147,4.3237e-09,0,0.0015147,0.00023251,3.7402e+08,1259.5,0,5.04e+08,659.53,13207,12107,1,12107,1,8.6798e-05,1.0306e-09,0,0.00072915,-1.5724e-05,3.0447e+07,314.31,0,2.5508e+08,29.305,12106,10985,1,10985,1,-0.0012391,-2.4343e-09,0,1.5197e-05,-0.00028266,-5.04e+08,-570.33,0,6.5565e+06,-114.53,10984,11579,1,11579,1,-0.00062716,-3.2682e-10,0,0.00039276,-0.00014921,-2.5508e+08,-85.22,0,1.3062e+08,-10.941,11578,12634,1,12634,1,0.00080077,1.9425e-09,0,0.0011067,0.00011781,2.3496e+08,649.14,0,3.3805e+08,140.71,12633,611.88,0,611.88,0,0.00082553,1.3449e-09,0,0.0004229,0.00015439,2.7157e+08,404.23,0,1.3151e+08,139.12,611.88,1
2111,4.88,12107,1,12107,1,0.00013338,1.5283e-09,0,0.00072273,-2.4387e-05,-1.9019e+06,488.82,0,2.3783e+08,114.57,12106,13208,1,13208,1,0.0015188,9.4723e-09,0,0.0015188,0.0002329,3.7407e+08,2757,0,5.0486e+08,666.8,13207,12107,1,12107,1,8.7674e-05,1.0297e-09,0,0.0007301,-1.5886e-05,3.0731e+07,330.5,0,2.5537e+08,76.304,12106,10985,1,10985,1,-0.0012413,-4.754e-09,0,1.4551e-05,-0.00028342,-5.0486e+08,-1175.7,0,6.3122e+06,-186.5,10984,11579,1,11579,1,-0.00062788,-4.6127e-10,0,0.00039432,-0.00014967,-2.5537e+08,-110.81,0,1.3063e+08,6.9847,11578,12634,1,12634,1,0.00080325,3.2286e-09,0,0.0011099,0.00011795,2.3529e+08,1004.7,0,3.3853e+08,210.34,12633,611.88,0,611.88,0,0.00082738,2.6611e-09,0,0.00042399,0.00015473,2.7188e+08,778.62,0,1.3167e+08,153.45,611.88,1
2111,4.89,12107,1,12107,1,0.00013436,-4.304e-11,0,0.00072442,-2.4567e-05,-1.9047e+06,38.08,0,2.3811e+08,64.036,12106,13208,1,13208,1,0.001523,2.3361e-09,0,0.001523,0.0002333,3.7412e+08,756.14,0,5.0572e+08,681.26,13207,12107,1,12107,1,8.8552e-05,2.5982e-10,0,0.0007311,-1.6047e-05,3.1015e+07,83.896,0,2.5568e+08,9.9782,12106,10985,1,10985,1,-0.0012434,-3.8539e-09,0,1.3905e-05,-0.00028418,-5.0572e+08,-943.59,0,6.0685e+06,-118.06,10984,11579,1,11579,1,-0.00062864,-1.2426e-09,0,0.0003959,-0.00015013,-2.5568e+08,-303.74,0,1.3065e+08,-22.625,11578,12634,1,12634,1,0.00080575,1.0467e-09,0,0.0011131,0.00011809,2.3562e+08,347.5,0,3.3903e+08,99.186,12633,611.88,0,611.88,0,0.00082927,1.3275e-09,0,0.00042509,0.00015508,2.7221e+08,373.86,0,1.3183e+08,145.15,611.88,1
2111,4.9,12107,1,12107,1,0.00013535,3.4284e-09,0,0.00072609,-2.4748e-05,-1.9072e+06,1033.8,0,2.3839e+08,101.63,12106,13208,1,13208,1,0.0015271,1.1385e-08,0,0.0015271,0.0002337,3.7416e+08,3316.1,0,5.0659e+08,646.52,13207,12107,1,12107,1,8.944e-05,3.0894e-09,0,0.00073202,-1.6211e-05,3.1302e+07,878.61,0,2.5596e+08,71.104,12106,10985,1,10985,1,-0.0012455,-3.9252e-09,0,1.3249e-05,-0.00028494,-5.0659e+08,-956.75,0,5.8214e+06,-260.14,10984,11579,1,11579,1,-0.00062934,6.9041e-10,0,0.00039747,-0.00015059,-2.5596e+08,201.59,0,1.3066e+08,-7.0827,11578,12634,1,12634,1,0.00080826,6.1251e-09,0,0.0011162,0.00011822,2.3595e+08,1837.6,0,3.3949e+08,203.93,12633,611.88,0,611.88,0,0.00083112,3.4304e-09,0,0.00042618,0.00015543,2.7253e+08,1023.8,0,1.3199e+08,163.84,611.88,1
2111,4.91,12107,1,12107,1,0.00013634,-4.583e-10,0,0.00072778,-2.4929e-05,-1.9105e+06,-69.79,0,2.3867e+08,84.546,12106,13208,1,13208,1,0.0015312,2.6554e-09,0,0.0015312,0.0002341,3.742e+08,908.84,0,5.0744e+08,802.33,13207,12107,1,12107,1,9.0328e-05,-1.4266e-10,0,0.00073301,-1.6374e-05,3.1589e+07,-41.699,0,2.5627e+08,33.047,12106,10985,1,10985,1,-0.0012476,-5.9406e-09,0,1.259e-05,-0.0002857,-5.0744e+08,-1501,0,5.5735e+06,-185.4,10984,11579,1,11579,1,-0.0006301,-1.8982e-09,0,0.00039905,-0.00015105,-2.5627e+08,-460.61,0,1.3085e+08,-15.55,11578,12634,1,12634,1,0.00081076,8.891e-10,0,0.0011195,0.00011837,2.3627e+08,292.5,0,3.3999e+08,138.77,12633,611.88,0,611.88,0,0.000833,1.7893e-09,0,0.00042729,0.00015578,2.7285e+08,496.44,0,1.3215e+08,167.09,611.88,1
2111,4.92,12107,1,12107,1,0.00013735,-4.1597e-10,0,0.00072947,-2.5114e-05,-1.9128e+06,-84.141,0,2.3895e+08,38.821,12106,13208,1,13208,1,0.0015353,2.0764e-09,0,0.0015353,0.0002345,3.7423e+08,710.92,0,5.0831e+08,832.75,13207,12107,1,12107,1,9.1224e-05,-3.7936e-10,0,0.00073398,-1.654e-05,3.1878e+07,-97.588,0,2.5657e+08,-14.102,12106,10985,1,10985,1,-0.0012497,-3.0311e-09,0,1.1926e-05,-0.00028647,-5.0831e+08,-834.12,0,5.3239e+06,-202.33,10984,11579,1,11579,1,-0.00063083,-1.3042e-09,0,0.00040066,-0.00015152,-2.5657e+08,-327.66,0,1.3123e+08,-68.449,11578,12634,1,12634,1,0.00081328,5.8641e-10,0,0.0011227,0.0001185,2.366e+08,200.49,0,3.4048e+08,92.557,12633,611.88,0,611.88,0,0.00083489,1.1209e-09,0,0.0004284,0.00015613,2.7318e+08,321.73,0,1.3231e+08,179.73,611.88,1
2111,4.93,12107,1,12107,1,0.00013836,5.5468e-10,0,0.00073117,-2.5299e-05,-1.9162e+06,182.09,0,2.3922e+08,113.4,12106,13208,1,13208,1,0.0015395,5.3106e-09,0,0.0015395,0.0002349,3.7426e+08,1355.4,0,5.0917e+08,740.85,13207,12107,1,12107,1,9.2128e-05,5.1441e-10,0,0.00073494,-1.6706e-05,3.2168e+07,165.15,0,2.5686e+08,63.905,12106,10985,1,10985,1,-0.0012519,-3.8488e-09,0,1.1255e-05,-0.00028724,-5.0917e+08,-939.42,0,5.0724e+06,-103.81,10984,11579,1,11579,1,-0.00063155,-2.5156e-10,0,0.00040227,-0.00015199,-2.5686e+08,-62.389,0,1.316e+08,5.6338,11578,12634,1,12634,1,0.00081582,1.4279e-09,0,0.0011259,0.00011864,2.3693e+08,456.85,0,3.4096e+08,174.9,12633,611.88,0,611.88,0,0.00083678,1.4833e-09,0,0.00042952,0.00015648,2.7349e+08,407.07,0,1.3247e+08,150.62,611.88,1
2111,4.94,12107,1,12107,1,0.00013937,-1.4549e-09,0,0.00073284,-2.5485e-05,-1.9184e+06,-402.81,0,2.3949e+08,101.26,12106,13208,1,13208,1,0.0015436,5.8723e-09,0,0.0015436,0.00023529,3.7428e+08,1508.5,0,5.1002e+08,809.06,13207,12107,1,12107,1,9.3039e-05,-5.339e-10,0,0.00073586,-1.6874e-05,3.2461e+07,-145.08,0,2.5714e+08,58.06,12106,10985,1,10985,1,-0.001254,-9.1653e-09,0,1.0572e-05,-0.00028801,-5.1002e+08,-2410.4,0,4.8163e+06,-158.13,10984,11579,1,11579,1,-0.00063224,-3.3874e-09,0,0.00040387,-0.00015245,-2.5714e+08,-961.12,0,1.3198e+08,-15.055,11578,12634,1,12634,1,0.00081834,7.2816e-10,0,0.0011292,0.00011877,2.3725e+08,227.57,0,3.4143e+08,158.43,12633,611.88,0,611.88,0,0.00083863,3.1105e-09,0,0.00043062,0.00015683,2.738e+08,863.08,0,1.3262e+08,168.71,611.88,1
2111,4.95,12107,1,12107,1,0.00014039,-7.6562e-10,0,0.00073455,-2.5671e-05,-1.9209e+06,-233.01,0,2.3977e+08,45.962,12106,13208,1,13208,1,0.0015478,3.0461e-09,0,0.0015478,0.00023569,3.743e+08,749.95,0,5.1089e+08,811.32,13207,12107,1,12107,1,9.3955e-05,-4.3534e-10,0,0.00073683,-1.7043e-05,3.2755e+07,-134.31,0,2.5744e+08,-8.598,12106,10985,1,10985,1,-0.0012561,-5.054e-09,0,9.8938e-06,-0.00028879,-5.1089e+08,-1314.3,0,4.5621e+06,-204.56,10984,11579,1,11579,1,-0.00063298,-1.4318e-09,0,0.00040549,-0.00015293,-2.5744e+08,-432.15,0,1.3236e+08,-66.266,11578,12634,1,12634,1,0.0008209,2.5068e-11,0,0.0011324,0.00011891,2.3758e+08,6.5133,0,3.4192e+08,104.23,12633,611.88,0,611.88,0,0.00084054,1.3074e-09,0,0.00043175,0.00015718,2.7412e+08,370.98,0,1.3278e+08,173.19,611.88,1
2111,4.96,12107,1,12107,1,0.00014142,5.1603e-10,0,0.00073624,-2.5859e-05,-1.925e+06,133.42,0,2.4004e+08,125.32,12106,13208,1,13208,1,0.001552,7.2044e-09,0,0.001552,0.00023609,3.7431e+08,1902.4,0,5.1174e+08,872.39,13207,12107,1,12107,1,9.4877e-05,2.0396e-10,0,0.00073777,-1.7212e-05,3.3051e+07,54.203,0,2.5773e+08,102.61,12106,10985,1,10985,1,-0.0012582,-3.7505e-09,0,9.2042e-06,-0.00028956,-5.1174e+08,-946.57,0,4.3042e+06,-963.71,10984,11579,1,11579,1,-0.00063369,-9.5006e-10,0,0.00040711,-0.0001534,-2.5773e+08,-284.66,0,1.3274e+08,19.274,11578,12634,1,12634,1,0.00082345,1.7017e-09,0,0.0011357,0.00011905,2.379e+08,486.77,0,3.424e+08,201.57,12633,611.88,0,611.88,0,0.00084242,2.2701e-09,0,0.00043287,0.00015753,2.7444e+08,640.34,0,1.3294e+08,171.63,611.88,1
2111,4.97,12107,1,12107,1,0.00014245,2.0866e-09,0,0.00073794,-2.6049e-05,-1.9271e+06,603.66,0,2.4031e+08,120.03,12106,13208,1,13208,1,0.0015562,9.071e-09,0,0.0015562,0.00023648,3.7432e+08,2530.7,0,5.126e+08,920.02,13207,12107,1,12107,1,9.5805e-05,1.4695e-09,0,0.0007387,-1.7384e-05,3.3348e+07,410.37,0,2.5801e+08,65.723,12106,10985,1,10985,1,-0.0012603,-3.9905e-09,0,8.5075e-06,-0.00029034,-5.126e+08,-983.27,0,4.0437e+06,-259.63,10984,11579,1,11579,1,-0.00063438,1.5088e-10,0,0.00040874,-0.00015387,-2.5801e+08,47.908,0,1.3312e+08,-20.296,11578,12634,1,12634,1,0.00082602,3.809e-09,0,0.0011389,0.00011918,2.3822e+08,1105.5,0,3.4287e+08,244.19,12633,611.88,0,611.88,0,0.00084431,2.5666e-09,0,0.00043399,0.00015788,2.7475e+08,733.06,0,1.3309e+08,207.07,611.88,1
2111,4.98,12107,1,12107,1,0.00014349,4.3319e-09,0,0.00073962,-2.6238e-05,-1.93e+06,1276.8,0,2.4057e+08,43.601,12106,13208,1,13208,1,0.0015604,1.3512e-08,0,0.0015604,0.00023688,3.7432e+08,4320.9,0,5.1346e+08,1147.3,13207,12107,1,12107,1,9.6741e-05,4.6751e-09,0,0.00073959,-1.7556e-05,3.3647e+07,1369.2,0,2.5829e+08,-1.8354,12106,10985,1,10985,1,-0.0012624,-1.9845e-09,0,7.8067e-06,-0.00029111,-5.1346e+08,-579.63,0,3.7826e+06,-1291.5,10984,11579,1,11579,1,-0.00063506,1.902e-09,0,0.00041035,-0.00015435,-2.5829e+08,487.13,0,1.3349e+08,-113.61,11578,12634,1,12634,1,0.00082859,6.6891e-09,0,0.0011421,0.00011931,2.3853e+08,2057.3,0,3.4333e+08,173.25,12633,611.88,0,611.88,0,0.00084618,3.2109e-09,0,0.00043511,0.00015823,2.7505e+08,955.53,0,1.3325e+08,281.43,611.88,1
2111,4.99,12107,1,12107,1,0.00014453,9.4457e-10,0,0.00074133,-2.6428e-05,-1.9329e+06,345.85,0,2.4084e+08,95.275,12106,13208,1,13208,1,0.0015647,7.7546e-09,0,0.0015647,0.00023727,3.7432e+08,2254,0,5.1431e+08,816.39,13207,12107,1,12107,1,9.7682e-05,8.8897e-10,0,0.00074056,-1.7728e-05,3.3947e+07,284.93,0,2.5858e+08,45.259,12106,10985,1,10985,1,-0.0012645,-6.4168e-09,0,7.1004e-06,-0.0002919,-5.1431e+08,-1544.6,0,3.5189e+06,-217.16,10984,11579,1,11579,1,-0.00063579,-1.0616e-09,0,0.00041199,-0.00015482,-2.5858e+08,-240.91,0,1.3387e+08,-16.711,11578,12634,1,12634,1,0.00083117,2.6781e-09,0,0.0011454,0.00011945,2.3885e+08,841.04,0,3.4382e+08,166.12,12633,611.88,0,611.88,0,0.00084808,2.7189e-09,0,0.00043625,0.00015858,2.7536e+08,782.2,0,1.3341e+08,178.13,611.88,1
2111,5,12107,1,12107,1,0.00014558,1.3811e-09,0,0.00074305,-2.6622e-05,-1.9356e+06,459.49,0,2.4111e+08,68.497,12106,13208,1,13208,1,0.0015689,4.0853e-09,0,0.0015689,0.00023767,3.7431e+08,1356,0,5.1517e+08,871.02,13207,12107,1,12107,1,9.8633e-05,1.6679e-09,0,0.00074149,-1.7903e-05,3.425e+07,493.72,0,2.5886e+08,10.917,12106,10985,1,10985,1,-0.0012666,-3.6589e-09,0,6.3859e-06,-0.00029268,-5.1517e+08,-839.62,0,3.2527e+06,-218.67,10984,11579,1,11579,1,-0.00063648,-1.8199e-10,0,0.00041365,-0.0001553,-2.5886e+08,-44.648,0,1.3425e+08,-52.284,11578,12634,1,12634,1,0.00083377,3.0084e-09,0,0.0011487,0.00011958,2.3917e+08,965.48,0,3.4429e+08,131.18,12633,611.88,0,611.88,0,0.00084999,1.7359e-09,0,0.00043739,0.00015894,2.7567e+08,525.89,0,1.3356e+08,201.51,611.88,1
2111,5.01,12107,1,12107,1,0.00014665,1.4906e-09,0,0.00074476,-2.6816e-05,-1.9382e+06,493.22,0,2.4137e+08,93.244,12106,13208,1,13208,1,0.0015731,5.5396e-09,0,0.0015731,0.00023806,3.743e+08,1584.5,0,5.1602e+08,921.44,13207,12107,1,12107,1,9.959e-05,1.7577e-09,0,0.00074241,-1.8079e-05,3.4555e+07,524.53,0,2.5914e+08,29.504,12106,10985,1,10985,1,-0.0012687,-4.5017e-09,0,5.663e-06,-0.00029347,-5.1602e+08,-1035.7,0,2.9836e+06,-180.3,10984,11579,1,11579,1,-0.00063716,-2.8566e-10,0,0.00041531,-0.00015578,-2.5914e+08,-63.582,0,1.3463e+08,-31.605,11578,12634,1,12634,1,0.00083637,3.0897e-09,0,0.001152,0.00011971,2.3948e+08,1010.9,0,3.4476e+08,163.37,12633,611.88,0,611.88,0,0.00085189,1.9908e-09,0,0.00043853,0.00015929,2.7598e+08,588.41,0,1.3372e+08,192.05,611.88,1
2111,5.02,12107,1,12107,1,0.00014771,1.56e-09,0,0.00074646,-2.7011e-05,-1.9408e+06,514.02,0,2.4163e+08,110.31,12106,13208,1,13208,1,0.0015774,7.9649e-09,0,0.0015774,0.00023846,3.7428e+08,2262.9,0,5.1687e+08,944.2,13207,12107,1,12107,1,0.00010055,1.6562e-09,0,0.00074332,-1.8257e-05,3.486e+07,527.49,0,2.5942e+08,41.748,12106,10985,1,10985,1,-0.0012708,-5.9115e-09,0,4.9361e-06,-0.00029425,-5.1687e+08,-1378.2,0,2.7132e+06,-237.07,10984,11579,1,11579,1,-0.00063784,-4.8894e-10,0,0.00041697,-0.00015626,-2.5942e+08,-114.76,0,1.3502e+08,-35.131,11578,12634,1,12634,1,0.00083897,3.1898e-09,0,0.0011553,0.00011984,2.398e+08,1024.6,0,3.4523e+08,200.72,12633,611.88,0,611.88,0,0.00085379,2.4979e-09,0,0.00043967,0.00015964,2.7628e+08,715.87,0,1.3387e+08,215.08,611.88,1
2111,5.03,12107,1,12107,1,0.00014878,3.0962e-09,0,0.00074816,-2.7206e-05,-1.9444e+06,955.76,0,2.4188e+08,130.85,12106,13208,1,13208,1,0.0015816,1.3435e-08,0,0.0015816,0.00023885,3.7426e+08,3841,0,5.1772e+08,969.92,13207,12107,1,12107,1,0.00010152,2.366e-09,0,0.00074422,-1.8434e-05,3.5166e+07,741.64,0,2.5969e+08,100.24,12106,10985,1,10985,1,-0.0012729,-5.3794e-09,0,4.207e-06,-0.00029504,-5.1772e+08,-1243.1,0,2.4421e+06,-313.22,10984,11579,1,11579,1,-0.00063851,2.1088e-10,0,0.00041863,-0.00015674,-2.5969e+08,55.433,0,1.3539e+08,-3.4587,11578,12634,1,12634,1,0.00084158,5.6724e-09,0,0.0011586,0.00011996,2.4011e+08,1735.3,0,3.4569e+08,233.42,12633,611.88,0,611.88,0,0.00085567,3.8545e-09,0,0.00044081,0.00015999,2.7658e+08,1124.4,0,1.3402e+08,213.07,611.88,1
2111,5.04,12107,1,12107,1,0.00014985,1.8733e-09,0,0.00074988,-2.7403e-05,-1.9468e+06,619.6,0,2.4214e+08,107.98,12106,13208,1,13208,1,0.0015859,8.2232e-09,0,0.0015859,0.00023924,3.7424e+08,2359.5,0,5.1857e+08,1029.8,13207,12107,1,12107,1,0.00010249,2.056e-09,0,0.00074514,-1.8613e-05,3.5474e+07,619.02,0,2.5997e+08,45.157,12106,10985,1,10985,1,-0.001275,-5.9346e-09,0,3.4703e-06,-0.00029583,-5.1857e+08,-1378.2,0,2.1683e+06,-323.83,10984,11579,1,11579,1,-0.00063919,-5.0324e-10,0,0.00042031,-0.00015723,-2.5997e+08,-124.27,0,1.3578e+08,-40.994,11578,12634,1,12634,1,0.0008442,3.8587e-09,0,0.001162,0.00012009,2.4042e+08,1235.1,0,3.4616e+08,214.21,12633,611.88,0,611.88,0,0.00085758,2.7654e-09,0,0.00044196,0.00016035,2.7688e+08,810.87,0,1.3418e+08,247.33,611.88,1
2111,5.05,12107,1,12107,1,0.00015094,-6.9297e-11,0,0.00075161,-2.7602e-05,-1.9492e+06,71.315,0,2.424e+08,131.94,12106,13208,1,13208,1,0.0015902,5.8094e-09,0,0.0015902,0.00023963,3.7422e+08,1562.3,0,5.1941e+08,1138.9,13207,12107,1,12107,1,0.00010347,4.4588e-10,0,0.00074607,-1.8793e-05,3.5784e+07,140.3,0,2.6025e+08,46.89,12106,10985,1,10985,1,-0.001277,-8.6239e-09,0,2.7241e-06,-0.00029662,-5.1941e+08,-2061.1,0,1.8912e+06,-184.39,10984,11579,1,11579,1,-0.00063988,-2.1618e-09,0,0.00042201,-0.00015771,-2.6025e+08,-494.87,0,1.3616e+08,-25.584,11578,12634,1,12634,1,0.00084683,2.046e-09,0,0.0011653,0.00012022,2.4072e+08,662.13,0,3.4663e+08,228.93,12633,611.88,0,611.88,0,0.0008595,2.7919e-09,0,0.00044312,0.0001607,2.7718e+08,761.42,0,1.3434e+08,232.75,611.88,1
2111,5.06,12107,1,12107,1,0.00015203,2.4494e-09,0,0.00075331,-2.7802e-05,-1.952e+06,763.38,0,2.4265e+08,144.18,12106,13208,1,13208,1,0.0015945,1.32e-08,0,0.0015945,0.00024003,3.7417e+08,3767.9,0,5.2026e+08,1124,13207,12107,1,12107,1,0.00010445,1.8658e-09,0,0.00074694,-1.8974e-05,3.6095e+07,589.35,0,2.6051e+08,74.282,12106,10985,1,10985,1,-0.0012791,-7.1464e-09,0,1.9749e-06,-0.00029741,-5.2026e+08,-1693.3,0,1.6132e+06,-336.15,10984,11579,1,11579,1,-0.00064052,-1.8258e-10,0,0.00042369,-0.0001582,-2.6051e+08,-54.715,0,1.3654e+08,-55.986,11578,12634,1,12634,1,0.00084946,4.7085e-09,0,0.0011686,0.00012035,2.4103e+08,1443.3,0,3.4708e+08,298.12,12633,611.88,0,611.88,0,0.00086139,3.6295e-09,0,0.00044427,0.00016105,2.7747e+08,1041.8,0,1.3449e+08,278.41,611.88,1
2111,5.07,12107,1,12107,1,0.00015313,-1.8894e-09,0,0.00075504,-2.8002e-05,-1.9551e+06,-458.5,0,2.4291e+08,143.09,12106,13208,1,13208,1,0.0015987,3.4524e-09,0,0.0015987,0.00024041,3.7415e+08,1182.1,0,5.211e+08,1262.1,13207,12107,1,12107,1,0.00010544,-1.2998e-09,0,0.00074786,-1.9157e-05,3.6407e+07,-340.86,0,2.6078e+08,63.524,12106,10985,1,10985,1,-0.0012812,-8.2687e-09,0,1.2197e-06,-0.0002982,-5.211e+08,-1991.7,0,1.3331e+06,-118.99,10984,11579,1,11579,1,-0.0006412,-4.3955e-09,0,0.00042541,-0.00015868,-2.6078e+08,-1097.7,0,1.3693e+08,5.5472,11578,12634,1,12634,1,0.00085209,6.7191e-10,0,0.001172,0.00012047,2.4134e+08,212.7,0,3.4755e+08,175.64,12633,611.88,0,611.88,0,0.00086332,2.8394e-09,0,0.00044544,0.00016141,2.7777e+08,753.05,0,1.3464e+08,225.75,611.88,1
2111,5.08,12107,1,12107,1,0.00015424,2.5095e-09,0,0.00075677,-2.8205e-05,-1.9575e+06,747.87,0,2.4316e+08,116.15,12106,13208,1,13208,1,0.0016031,5.9843e-09,0,0.0016031,0.00024081,3.7409e+08,1628.4,0,5.2195e+08,1288.7,13207,12107,1,12107,1,0.00010644,2.9211e-09,0,0.00074874,-1.9342e-05,3.6721e+07,820.86,0,2.6105e+08,40.53,12106,10985,1,10985,1,-0.0012833,-3.8126e-09,0,4.6026e-07,-0.000299,-5.2195e+08,-848.34,0,1.0518e+06,-368.68,10984,11579,1,11579,1,-0.00064185,9.2653e-10,0,0.00042712,-0.00015918,-2.6105e+08,245.12,0,1.3732e+08,-71.289,11578,12634,1,12634,1,0.00085476,4.1966e-09,0,0.0011754,0.0001206,2.4164e+08,1287,0,3.4801e+08,228.8,12633,611.88,0,611.88,0,0.00086524,1.9819e-09,0,0.00044661,0.00016177,2.7807e+08,590.5,0,1.348e+08,305.1,611.88,1
2111,5.09,12107,1,12107,1,0.00015535,2.9619e-09,0,0.00075852,-2.8409e-05,-1.96e+06,906.31,0,2.4341e+08,138.45,12106,13208,1,13208,1,0.0016074,1.0348e-08,0,0.0016074,0.0002412,3.7404e+08,2860.2,0,5.228e+08,1247.5,13207,12107,1,12107,1,0.00010745,3.2893e-09,0,0.00075022,-1.9527e-05,3.7039e+07,974.56,0,2.6131e+08,65.259,12106,10985,1,10985,1,-0.0012854,-6.6538e-09,0,2.951e-07,-0.0002998,-5.228e+08,-1529.6,0,7.6539e+05,-335.39,10984,11579,1,11579,1,-0.00064249,4.6013e-10,0,0.00042823,-0.00015967,-2.6131e+08,124.12,0,1.377e+08,-64.079,11578,12634,1,12634,1,0.00085743,5.3449e-09,0,0.0011781,0.00012072,2.4194e+08,1662.9,0,3.4846e+08,266.87,12633,611.88,0,611.88,0,0.00086715,3.1304e-09,0,0.00044774,0.00016212,2.7836e+08,904.26,0,1.3495e+08,294.68,611.88,1
2111,5.1,12107,1,12107,1,0.00015647,1.145e-09,0,0.00076032,-2.8613e-05,-1.963e+06,414.18,0,2.4366e+08,154.02,12106,13208,1,13208,1,0.0016118,6.4688e-09,0,0.0016118,0.00024159,3.7399e+08,1817.5,0,5.2364e+08,1317.9,13207,12107,1,12107,1,0.00010847,1.471e-09,0,0.00075266,-1.9713e-05,3.7358e+07,448.54,0,2.6158e+08,46.061,12106,10985,1,10985,1,-0.0012874,-6.3277e-09,0,1.064e-06,-0.00030061,-5.2364e+08,-1436,0,4.7763e+05,-177.25,10984,11579,1,11579,1,-0.00064316,-8.9893e-10,0,0.00042842,-0.00016017,-2.6158e+08,-199.49,0,1.3809e+08,-29.667,11578,12634,1,12634,1,0.00086012,3.1081e-09,0,0.00118,0.00012085,2.4225e+08,1028.8,0,3.4893e+08,262.49,12633,611.88,0,611.88,0,0.00086908,2.3298e-09,0,0.00044883,0.00016248,2.7865e+08,665.03,0,1.351e+08,281.45,611.88,1
2111,5.11,12107,1,12107,1,0.0001576,-2.5602e-09,0,0.0007621,-2.882e-05,-1.9659e+06,-648,0,2.439e+08,234.43,12106,13208,1,13208,1,0.001616,4.1571e-09,0,0.001616,0.00024197,3.7393e+08,1423.4,0,5.2447e+08,1435.3,13207,12107,1,12107,1,0.00010949,-1.7593e-09,0,0.00075513,-1.9901e-05,3.7677e+07,-515.94,0,2.6184e+08,140.16,12106,10985,1,10985,1,-0.0012895,-1.1454e-08,0,1.8507e-06,-0.0003014,-5.2447e+08,-2745.4,0,1.8717e+05,-117.16,10984,11579,1,11579,1,-0.00064379,-5.1314e-09,0,0.00042857,-0.00016066,-2.6184e+08,-1284,0,1.3848e+08,60.126,11578,12634,1,12634,1,0.00086277,9.2107e-11,0,0.0011818,0.00012097,2.4254e+08,28.392,0,3.4938e+08,304.87,12633,611.88,0,611.88,0,0.000871,3.2929e-09,0,0.00044991,0.00016284,2.7894e+08,854.14,0,1.3525e+08,264.96,611.88,1
2111,5.12,12107,1,12107,1,0.00015873,-1.1887e-09,0,0.00076389,-2.9026e-05,-1.9688e+06,-321.32,0,2.4416e+08,225.13,12106,13208,1,13208,1,0.0016204,6.4308e-09,0,0.0016204,0.00024236,3.7386e+08,1522.9,0,5.2531e+08,1272.7,13207,12107,1,12107,1,0.00011051,-8.5691e-10,0,0.00075759,-2.0089e-05,3.7995e+07,-239.95,0,2.621e+08,132.57,12106,10985,1,10985,1,-0.0012916,-7.8734e-09,0,2.6458e-06,-0.0003022,-5.2531e+08,-1864.7,0,97444,-127.11,10984,11579,1,11579,1,-0.00064443,-2.6961e-09,0,0.00042874,-0.00016115,-2.621e+08,-762.55,0,1.3886e+08,55.334,11578,12634,1,12634,1,0.00086545,2.0918e-10,0,0.0011837,0.00012109,2.4284e+08,57.795,0,3.4983e+08,308.22,12633,611.88,0,611.88,0,0.00087292,2.3363e-09,0,0.000451,0.0001632,2.7923e+08,622.89,0,1.3539e+08,253.69,611.88,1
2111,5.13,12107,1,12107,1,0.00015988,-2.9975e-10,0,0.00076569,-2.9236e-05,-1.9702e+06,-91.949,0,2.4442e+08,171.28,12106,13208,1,13208,1,0.0016248,6.8657e-09,0,0.0016248,0.00024275,3.7379e+08,1610.8,0,5.2615e+08,1422.5,13207,12107,1,12107,1,0.00011154,-3.8056e-10,0,0.00076006,-2.028e-05,3.8319e+07,-112.14,0,2.6236e+08,44.079,12106,10985,1,10985,1,-0.0012936,-6.8486e-09,0,3.4456e-06,-0.00030302,-5.2615e+08,-1589.8,0,3.9286e+05,-121.05,10984,11579,1,11579,1,-0.00064507,-1.2311e-09,0,0.0004289,-0.00016165,-2.6236e+08,-371.98,0,1.3925e+08,-15.559,11578,12634,1,12634,1,0.00086817,3.9416e-10,0,0.0011855,0.00012121,2.4314e+08,96.036,0,3.5029e+08,257.74,12633,611.88,0,611.88,0,0.00087486,1.7061e-09,0,0.00045209,0.00016356,2.7952e+08,453.43,0,1.3551e+08,285.77,611.88,1
2111,5.14,12107,1,12107,1,0.00016102,1.1633e-09,0,0.00076749,-2.9446e-05,-1.9739e+06,322.71,0,2.4468e+08,216.95,12106,13208,1,13208,1,0.0016292,9.0798e-09,0,0.0016292,0.00024314,3.7371e+08,2168.4,0,5.2699e+08,1580.7,13207,12107,1,12107,1,0.00011258,8.0541e-10,0,0.00076254,-2.0472e-05,3.8644e+07,228.14,0,2.6261e+08,97.09,12106,10985,1,10985,1,-0.0012957,-6.541e-09,0,4.247e-06,-0.00030382,-5.2699e+08,-1491.6,0,6.8839e+05,-232.85,10984,11579,1,11579,1,-0.0006457,2.3648e-10,0,0.00042905,-0.00016215,-2.6261e+08,71.697,0,1.3964e+08,33.054,11578,12634,1,12634,1,0.00087087,1.9431e-09,0,0.0011873,0.00012133,2.4343e+08,547.67,0,3.5074e+08,297.15,12633,611.88,0,611.88,0,0.00087679,1.9702e-09,0,0.00045319,0.00016391,2.798e+08,505.16,0,1.3562e+08,288.68,611.88,1
2111,5.15,12107,1,12107,1,0.00016218,-7.2994e-10,0,0.00076929,-2.9657e-05,-1.9759e+06,-202.62,0,2.4494e+08,209.05,12106,13208,1,13208,1,0.0016336,9.1492e-09,0,0.0016336,0.00024352,3.7363e+08,2185.9,0,5.2782e+08,1536.8,13207,12107,1,12107,1,0.00011363,-4.1012e-10,0,0.00076501,-2.0665e-05,3.897e+07,-120.51,0,2.6286e+08,88.745,12106,10985,1,10985,1,-0.0012977,-1.0267e-08,0,5.0587e-06,-0.00030464,-5.2782e+08,-2424.1,0,9.88e+05,-192.9,10984,11579,1,11579,1,-0.00064632,-2.1243e-09,0,0.00042919,-0.00016265,-2.6286e+08,-619.79,0,1.4003e+08,12.03,11578,12634,1,12634,1,0.00087359,4.7717e-10,0,0.0011891,0.00012145,2.4372e+08,121.71,0,3.5118e+08,296.67,12633,611.88,0,611.88,0,0.00087871,2.7217e-09,0,0.00045428,0.00016427,2.8008e+08,703.03,0,1.3573e+08,301.98,611.88,1
2111,5.16,12107,1,12107,1,0.00016334,-1.2004e-09,0,0.0007711,-2.9869e-05,-1.9789e+06,-352.6,0,2.452e+08,183.69,12106,13208,1,13208,1,0.001638,4.9883e-09,0,0.001638,0.00024391,3.7355e+08,1707.8,0,5.2867e+08,1616.9,13207,12107,1,12107,1,0.00011469,-1.2946e-09,0,0.00076749,-2.0859e-05,3.9298e+07,-350.46,0,2.6312e+08,49.032,12106,10985,1,10985,1,-0.0012998,-7.6483e-09,0,5.8697e-06,-0.00030545,-5.2867e+08,-1929.8,0,1.2865e+06,-1157.5,10984,11579,1,11579,1,-0.00064694,-2.3229e-09,0,0.00042934,-0.00016316,-2.6312e+08,-685.6,0,1.4042e+08,-13.778,11578,12634,1,12634,1,0.00087633,-5.8522e-11,0,0.001191,0.00012157,2.4401e+08,-13.019,0,3.5163e+08,271.84,12633,611.88,0,611.88,0,0.00088066,1.7584e-09,0,0.00045539,0.00016463,2.8036e+08,524.94,0,1.3585e+08,335.11,611.88,1
2111,5.17,12107,1,12107,1,0.00016451,2.2046e-09,0,0.0007729,-3.0082e-05,-1.9819e+06,604.44,0,2.4546e+08,269.97,12106,13208,1,13208,1,0.0016424,1.2032e-08,0,0.0016424,0.0002443,3.7346e+08,2875.8,0,5.295e+08,1788.8,13207,12107,1,12107,1,0.00011575,1.636e-09,0,0.00077,-2.1055e-05,3.9628e+07,501.86,0,2.6337e+08,151.48,12106,10985,1,10985,1,-0.0013018,-9.1029e-09,0,6.6924e-06,-0.00030627,-5.295e+08,-2100.1,0,1.5896e+06,-166.87,10984,11579,1,11579,1,-0.00064755,1.2382e-10,0,0.00042947,-0.00016366,-2.6337e+08,34.02,0,1.4081e+08,16.614,11578,12634,1,12634,1,0.00087906,4.0746e-09,0,0.0011928,0.00012168,2.443e+08,1132.2,0,3.5207e+08,416.3,12633,611.88,0,611.88,0,0.0008826,3.3593e-09,0,0.00045649,0.00016499,2.8064e+08,856.74,0,1.3596e+08,352.9,611.88,1
2111,5.18,12107,1,12107,1,0.00016568,3.4334e-10,0,0.0007747,-3.0297e-05,-1.9841e+06,117.76,0,2.4571e+08,239.46,12106,13208,1,13208,1,0.0016468,1.0701e-08,0,0.0016468,0.00024468,3.7335e+08,2559.4,0,5.3032e+08,1638.5,13207,12107,1,12107,1,0.00011682,2.8391e-10,0,0.0007725,-2.1251e-05,3.9958e+07,78.789,0,2.6361e+08,89.563,12106,10985,1,10985,1,-0.0013039,-9.6711e-09,0,7.5208e-06,-0.00030708,-5.3032e+08,-2242.5,0,1.8944e+06,-98.574,10984,11579,1,11579,1,-0.00064816,-6.7104e-10,0,0.00042959,-0.00016417,-2.6361e+08,-176.67,0,1.412e+08,26.093,11578,12634,1,12634,1,0.00088179,1.1437e-09,0,0.0011946,0.0001218,2.4458e+08,347.82,0,3.5251e+08,325.52,12633,611.88,0,611.88,0,0.00088452,2.5607e-09,0,0.0004576,0.00016535,2.8091e+08,648.82,0,1.3607e+08,336.76,611.88,1
2111,5.19,12107,1,12107,1,0.00016686,-4.3177e-10,0,0.00077652,-3.0512e-05,-1.987e+06,-108.47,0,2.4597e+08,255.29,12106,13208,1,13208,1,0.0016512,8.5561e-09,0,0.0016512,0.00024507,3.7326e+08,2009.6,0,5.3116e+08,1694.2,13207,12107,1,12107,1,0.00011789,-3.3851e-10,0,0.00077502,-2.1448e-05,4.0289e+07,-95.756,0,2.6386e+08,112.25,12106,10985,1,10985,1,-0.0013059,-1.0231e-08,0,8.3523e-06,-0.0003079,-5.3116e+08,-2375.6,0,2.1998e+06,-79.889,10984,11579,1,11579,1,-0.00064877,-1.4121e-09,0,0.00042973,-0.00016468,-2.6386e+08,-407.63,0,1.4159e+08,42.14,11578,12634,1,12634,1,0.00088455,4.1345e-10,0,0.0011964,0.00012192,2.4487e+08,106.9,0,3.5253e+08,337.32,12633,611.88,0,611.88,0,0.00088647,2.3652e-09,0,0.00045871,0.00016571,2.812e+08,600.84,0,1.3618e+08,331.17,611.88,1
2111,5.2,12107,1,12107,1,0.00016806,-5.668e-10,0,0.00077836,-3.073e-05,-1.9894e+06,-160.77,0,2.4622e+08,253.96,12106,13208,1,13208,1,0.0016557,6.8781e-09,0,0.0016557,0.00024545,3.7316e+08,2008.3,0,5.32e+08,1749.3,13207,12107,1,12107,1,0.00011898,-6.6497e-10,0,0.00077755,-2.1648e-05,4.0626e+07,-185.92,0,2.6411e+08,90.193,12106,10985,1,10985,1,-0.001308,-8.9774e-09,0,9.1956e-06,-0.00030873,-5.32e+08,-2053.9,0,2.5093e+06,-81.489,10984,11579,1,11579,1,-0.00064938,-1.3521e-09,0,0.00042985,-0.00016519,-2.6411e+08,-405.5,0,1.4198e+08,28.185,11578,12634,1,12634,1,0.00088734,3.633e-10,0,0.0011982,0.00012203,2.4516e+08,89.006,0,3.5247e+08,350.16,12633,611.88,0,611.88,0,0.00088844,1.9893e-09,0,0.00045984,0.00016608,2.8147e+08,551.63,0,1.363e+08,357,611.88,1
2111,5.21,12107,1,12107,1,0.00016926,-1.0409e-09,0,0.00078016,-3.0949e-05,-1.9922e+06,-313.3,0,2.4647e+08,378.86,12106,13208,1,13208,1,0.0016602,1.3543e-08,0,0.0016602,0.00024584,3.7304e+08,3152,0,5.3282e+08,1954.5,13207,12107,1,12107,1,0.00012007,-8.1129e-10,0,0.00078007,-2.1849e-05,4.0963e+07,-255.99,0,2.6434e+08,245.76,12106,10985,1,10985,1,-0.00131,-1.492e-08,0,1.0048e-05,-0.00030955,-5.3282e+08,-3569.8,0,2.8216e+06,-146.62,10984,11579,1,11579,1,-0.00064996,-3.2101e-09,0,0.00042995,-0.0001657,-2.6434e+08,-934.35,0,1.4237e+08,92.951,11578,12634,1,12634,1,0.00089012,1.0396e-09,0,0.0012,0.00012214,2.4544e+08,243.26,0,3.5239e+08,532.07,12633,611.88,0,611.88,0,0.00089037,4.2336e-09,0,0.00046095,0.00016644,2.8174e+08,1077.9,0,1.364e+08,392.31,611.88,1
2111,5.22,12107,1,12107,1,0.00017047,5.689e-10,0,0.00078201,-3.117e-05,-1.995e+06,118.48,0,2.4673e+08,268.01,12106,13208,1,13208,1,0.0016647,1.1152e-08,0,0.0016647,0.00024622,3.7294e+08,2573.6,0,5.3366e+08,1924.5,13207,12107,1,12107,1,0.00012117,7.591e-11,0,0.00078264,-2.2051e-05,4.1301e+07,19.855,0,2.6459e+08,107.64,12106,10985,1,10985,1,-0.0013121,-7.5839e-09,0,1.09e-05,-0.00031039,-5.3366e+08,-1712.6,0,3.1337e+06,-98.085,10984,11579,1,11579,1,-0.00065058,-7.5196e-10,0,0.00043008,-0.00016622,-2.6459e+08,-244.14,0,1.4277e+08,26.023,11578,12634,1,12634,1,0.00089292,1.5551e-09,0,0.0012018,0.00012226,2.4573e+08,374.12,0,3.5232e+08,371.04,12633,611.88,0,611.88,0,0.00089235,2.4174e-09,0,0.00046209,0.0001668,2.8202e+08,616.77,0,1.3652e+08,370.23,611.88,1
2111,5.23,12107,1,12107,1,0.00017169,-1.2507e-09,0,0.00078384,-3.1392e-05,-1.9971e+06,-371.37,0,2.4697e+08,310.54,12106,13208,1,13208,1,0.0016692,9.4165e-09,0,0.0016692,0.00024661,3.7281e+08,2137.4,0,5.3449e+08,2039,13207,12107,1,12107,1,0.00012228,-1.4134e-09,0,0.00078519,-2.2256e-05,4.1643e+07,-409.86,0,2.6483e+08,151.97,12106,10985,1,10985,1,-0.0013141,-1.1875e-08,0,1.1773e-05,-0.00031122,-5.3449e+08,-2755.4,0,3.4529e+06,-122.97,10984,11579,1,11579,1,-0.00065115,-2.8106e-09,0,0.00043017,-0.00016674,-2.6483e+08,-854.38,0,1.4316e+08,55.295,11578,12634,1,12634,1,0.00089573,4.3422e-10,0,0.0012036,0.00012237,2.4601e+08,105.65,0,3.5224e+08,422.7,12633,611.88,0,611.88,0,0.0008943,2.8203e-09,0,0.00046322,0.00016717,2.8229e+08,739.91,0,1.3662e+08,390.15,611.88,1
2111,5.24,12107,1,12107,1,0.00017291,-1.3128e-09,0,0.00078568,-3.1616e-05,-1.9998e+06,-407.1,0,2.4722e+08,331.8,12106,13208,1,13208,1,0.0016737,8.2448e-09,0,0.0016737,0.00024699,3.7268e+08,2103.7,0,5.3532e+08,2122.4,13207,12107,1,12107,1,0.0001234,-1.569e-09,0,0.00078775,-2.2461e-05,4.1986e+07,-442.1,0,2.6506e+08,148.74,12106,10985,1,10985,1,-0.0013162,-1.0696e-08,0,1.2643e-05,-0.00031205,-5.3532e+08,-2593,0,3.7703e+06,-124.38,10984,11579,1,11579,1,-0.00065173,-2.8957e-09,0,0.00043027,-0.00016725,-2.6506e+08,-921.48,0,1.4356e+08,40.709,11578,12634,1,12634,1,0.00089855,4.854e-10,0,0.0012054,0.00012248,2.4629e+08,117.55,0,3.5215e+08,477.01,12633,611.88,0,611.88,0,0.00089627,2.5741e-09,0,0.00046435,0.00016753,2.8256e+08,727.97,0,1.3673e+08,434.42,611.88,1
2111,5.25,12107,1,12107,1,0.00017414,-3.0755e-09,0,0.00078751,-3.184e-05,-2.0025e+06,-918.36,0,2.4746e+08,383.31,12106,13208,1,13208,1,0.0016782,9.334e-09,0,0.0016782,0.00024738,3.7255e+08,2056.2,0,5.3615e+08,2266.9,13207,12107,1,12107,1,0.00012452,-3.6876e-09,0,0.00079031,-2.2668e-05,4.233e+07,-1024,0,2.6529e+08,213.51,12106,10985,1,10985,1,-0.0013182,-1.409e-08,0,1.3519e-05,-0.00031289,-5.3615e+08,-3298.1,0,4.0899e+06,-153.23,10984,11579,1,11579,1,-0.00065229,-5.8434e-09,0,0.00043035,-0.00016778,-2.6529e+08,-1839.2,0,1.4395e+08,86.719,11578,12634,1,12634,1,0.00090137,-1.7302e-10,0,0.0012071,0.00012259,2.4657e+08,-41.794,0,3.5205e+08,535.47,12633,611.88,0,611.88,0,0.00089822,3.6758e-09,0,0.00046549,0.00016789,2.8282e+08,1031.4,0,1.3684e+08,443.74,611.88,1
2111,5.26,12107,1,12107,1,0.00017538,8.5019e-10,0,0.00078936,-3.2067e-05,-2.0048e+06,145.54,0,2.4771e+08,298.17,12106,13208,1,13208,1,0.0016828,1.1774e-08,0,0.0016828,0.00024776,3.7242e+08,2613,0,5.3697e+08,2430.6,13207,12107,1,12107,1,0.00012565,6.7384e-10,0,0.00079292,-2.2876e-05,4.2676e+07,180.96,0,2.6553e+08,114.49,12106,10985,1,10985,1,-0.0013202,-9.3976e-09,0,1.44e-05,-0.00031373,-5.3697e+08,-2953.7,0,4.4106e+06,-131.62,10984,11579,1,11579,1,-0.00065289,-1.2366e-09,0,0.00043045,-0.0001683,-2.6554e+08,-409.87,0,1.4435e+08,13.985,11578,12634,1,12634,1,0.0009042,3.1398e-09,0,0.001209,0.0001227,2.4684e+08,782.1,0,3.5196e+08,404.09,12633,611.88,0,611.88,0,0.0009002,3.2982e-09,0,0.00046664,0.00016826,2.8309e+08,876.28,0,1.3695e+08,441.1,611.88,1
2111,5.27,12107,1,12107,1,0.00017663,-1.1007e-09,0,0.00079122,-3.2295e-05,-2.0072e+06,-357.93,0,2.4795e+08,376.88,12106,13208,1,13208,1,0.0016873,1.1234e-08,0,0.0016873,0.00024814,3.7227e+08,2586.1,0,5.378e+08,2278.2,13207,12107,1,12107,1,0.0001268,-1.3744e-09,0,0.00079553,-2.3086e-05,4.3024e+07,-392.52,0,2.6576e+08,220.03,12106,10985,1,10985,1,-0.0013223,-1.2579e-08,0,1.5303e-05,-0.00031457,-5.378e+08,-3203.4,0,4.7388e+06,-93.303,10984,11579,1,11579,1,-0.00065345,-2.9878e-09,0,0.00043053,-0.00016882,-2.6576e+08,-936.8,0,1.4474e+08,80.456,11578,12634,1,12634,1,0.00090706,9.2669e-10,0,0.0012107,0.00012281,2.4712e+08,226.8,0,3.5187e+08,507.68,12633,611.88,0,611.88,0,0.00090218,3.2965e-09,0,0.00046779,0.00016863,2.8335e+08,904.88,0,1.3706e+08,428.39,611.88,1
2111,5.28,12107,1,12107,1,0.00017789,-4.0908e-09,0,0.00079306,-3.2524e-05,-2.01e+06,-1209.1,0,2.4818e+08,395.89,12106,13208,1,13208,1,0.0016919,1.0601e-08,0,0.0016919,0.00024852,3.7212e+08,2285.2,0,5.3863e+08,2307.7,13207,12107,1,12107,1,0.00012794,-4.8875e-09,0,0.00079811,-2.3297e-05,4.3374e+07,-1382.6,0,2.6598e+08,208.28,12106,10985,1,10985,1,-0.0013243,-1.6026e-08,0,1.6205e-05,-0.00031542,-5.3863e+08,-3770,0,5.066e+06,-176.38,10984,11579,1,11579,1,-0.00065399,-7.5329e-09,0,0.00043059,-0.00016935,-2.6598e+08,-2374.2,0,1.4514e+08,80.199,11578,12634,1,12634,1,0.00090992,-4.0682e-10,0,0.0012125,0.00012291,2.4739e+08,-109.74,0,3.5175e+08,576.96,12633,611.88,0,611.88,0,0.00090415,4.5607e-09,0,0.00046894,0.00016899,2.8361e+08,1285.1,0,1.3716e+08,463.83,611.88,1
2111,5.29,12107,1,12107,1,0.00017915,-2.8544e-09,0,0.00079491,-3.2754e-05,-2.0128e+06,-914.84,0,2.4842e+08,388.47,12106,13208,1,13208,1,0.0016965,1.1327e-08,0,0.0016965,0.0002489,3.7197e+08,2419.1,0,5.3945e+08,2609,13207,12107,1,12107,1,0.0001291,-3.4384e-09,0,0.00080071,-2.3509e-05,4.3725e+07,-964.13,0,2.6621e+08,175.26,12106,10985,1,10985,1,-0.0013263,-1.3557e-08,0,1.7103e-05,-0.00031626,-5.3945e+08,-4257.8,0,5.3911e+06,-115.07,10984,11579,1,11579,1,-0.00065455,-6.2845e-09,0,0.00043066,-0.00016988,-2.6621e+08,-1899.6,0,1.4553e+08,62.315,11578,12634,1,12634,1,0.00091279,5.8924e-10,0,0.0012143,0.00012302,2.4766e+08,153.18,0,3.5164e+08,558.9,12633,611.88,0,611.88,0,0.00090612,4.1959e-09,0,0.00047009,0.00016936,2.8387e+08,1225.5,0,1.3727e+08,494.67,611.88,1
2111,5.3,12107,1,12107,1,0.00018042,2.1544e-09,0,0.00079678,-3.2986e-05,-2.0154e+06,469.48,0,2.4866e+08,413.36,12106,13208,1,13208,1,0.0017011,1.8919e-08,0,0.0017011,0.00024928,3.7183e+08,4237.1,0,5.4027e+08,2840.6,13207,12107,1,12107,1,0.00013026,1.5576e-09,0,0.00080338,-2.3723e-05,4.4077e+07,449.62,0,2.6645e+08,215.57,12106,10985,1,10985,1,-0.0013283,-1.0986e-08,0,1.8016e-05,-0.00031711,-5.4027e+08,-2930.4,0,5.7214e+06,-68.695,10984,11579,1,11579,1,-0.00065513,-1.0471e-09,0,0.00043073,-0.00017041,-2.6645e+08,-343.96,0,1.4594e+08,75.452,11578,12634,1,12634,1,0.00091566,5.1798e-09,0,0.0012161,0.00012313,2.4792e+08,1271.9,0,3.5153e+08,544.92,12633,611.88,0,611.88,0,0.00090812,4.7063e-09,0,0.00047126,0.00016973,2.8413e+08,1182,0,1.3738e+08,512.81,611.88,1
2111,5.31,12107,1,12107,1,0.00018171,-7.112e-10,0,0.00079865,-3.3221e-05,-2.0178e+06,-260.7,0,2.489e+08,444.14,12106,13208,1,13208,1,0.0017057,1.5261e-08,0,0.0017057,0.00024966,3.7165e+08,3374.9,0,5.411e+08,2615.6,13207,12107,1,12107,1,0.00013143,-1.1807e-09,0,0.00080603,-2.3939e-05,4.4432e+07,-352.5,0,2.6667e+08,293.87,12106,10985,1,10985,1,-0.0013304,-1.5042e-08,0,1.8954e-05,-0.00031796,-5.411e+08,-3389.4,0,6.0598e+06,-84.097,10984,11579,1,11579,1,-0.00065567,-3.4527e-09,0,0.00043079,-0.00017094,-2.6667e+08,-1048.4,0,1.4634e+08,97.557,11578,12634,1,12634,1,0.00091855,1.6649e-09,0,0.0012179,0.00012323,2.4819e+08,420.72,0,3.5141e+08,577.84,12633,611.88,0,611.88,0,0.00091011,4.3578e-09,0,0.00047243,0.0001701,2.8439e+08,1123.3,0,1.3748e+08,488.63,611.88,1
2111,5.32,12107,1,12107,1,0.000183,-3.4568e-10,0,0.00080051,-3.3456e-05,-2.0202e+06,-165.01,0,2.4913e+08,423.2,12106,13208,1,13208,1,0.0017103,1.2829e-08,0,0.0017103,0.00025004,3.7147e+08,2780.5,0,5.419e+08,2815.2,13207,12107,1,12107,1,0.00013261,-5.9161e-10,0,0.00080868,-2.4156e-05,4.4789e+07,-167.93,0,2.6688e+08,203.26,12106,10985,1,10985,1,-0.0013323,-1.5023e-08,0,1.989e-05,-0.00031881,-5.419e+08,-4076.6,0,6.3967e+06,-81.31,10984,11579,1,11579,1,-0.00065621,-1.8985e-09,0,0.00043083,-0.00017147,-2.6688e+08,-620.31,0,1.4673e+08,71.223,11578,12634,1,12634,1,0.00092144,1.7417e-09,0,0.0012196,0.00012334,2.4845e+08,428.15,0,3.5128e+08,580.32,12633,611.88,0,611.88,0,0.00091208,3.7585e-09,0,0.00047359,0.00017047,2.8464e+08,997.6,0,1.3759e+08,528.2,611.88,1
2111,5.33,12107,1,12107,1,0.00018429,2.6061e-09,0,0.00080239,-3.3692e-05,-2.0228e+06,669.49,0,2.4936e+08,443.8,12106,13208,1,13208,1,0.0017149,1.8796e-08,0,0.0017149,0.00025042,3.7131e+08,4188,0,5.4273e+08,2893.9,13207,12107,1,12107,1,0.00013379,2.7906e-09,0,0.00081137,-2.4374e-05,4.5146e+07,776.19,0,2.671e+08,199.85,12106,10985,1,10985,1,-0.0013344,-1.2133e-08,0,2.0825e-05,-0.00031967,-5.4273e+08,-3144.2,0,6.7326e+06,-64.937,10984,11579,1,11579,1,-0.00065675,7.2798e-11,0,0.00043088,-0.00017201,-2.6711e+08,19.944,0,1.4714e+08,56.219,11578,12634,1,12634,1,0.00092435,5.0897e-09,0,0.0012214,0.00012344,2.4872e+08,1322.1,0,3.5115e+08,615.42,12633,611.88,0,611.88,0,0.00091409,4.1894e-09,0,0.00047477,0.00017084,2.849e+08,1084.9,0,1.377e+08,569.4,611.88,1
2111,5.34,12107,1,12107,1,0.0001856,6.5911e-10,0,0.00080428,-3.3932e-05,-2.0253e+06,166.61,0,2.4959e+08,464.71,12106,13208,1,13208,1,0.0017196,1.6021e-08,0,0.0017196,0.0002508,3.7113e+08,3708.7,0,5.4355e+08,2866.4,13207,12107,1,12107,1,0.00013499,8.3482e-10,0,0.00081406,-2.4595e-05,4.5508e+07,233.88,0,2.6733e+08,249.03,12106,10985,1,10985,1,-0.0013364,-1.5483e-08,0,2.1784e-05,-0.00032053,-5.4355e+08,-3797.7,0,7.0759e+06,-75.543,10984,11579,1,11579,1,-0.00065729,-7.6593e-10,0,0.00043093,-0.00017255,-2.6733e+08,-216.04,0,1.4754e+08,80.496,11578,12634,1,12634,1,0.00092729,2.2773e-09,0,0.0012232,0.00012354,2.4898e+08,596.1,0,3.5102e+08,624.05,12633,611.88,0,611.88,0,0.0009161,4.0346e-09,0,0.00047596,0.00017121,2.8515e+08,1070.4,0,1.378e+08,560.96,611.88,1
2111,5.35,12107,1,12107,1,0.00018692,-9.3141e-10,0,0.00080616,-3.4172e-05,-2.0282e+06,-264.38,0,2.4982e+08,532.72,12106,13208,1,13208,1,0.0017242,1.6902e-08,0,0.0017242,0.00025118,3.7094e+08,3718.2,0,5.4437e+08,2947.1,13207,12107,1,12107,1,0.0001362,-1.0637e-09,0,0.00081675,-2.4817e-05,4.5872e+07,-312.96,0,2.6754e+08,352.77,12106,10985,1,10985,1,-0.0013384,-1.8276e-08,0,2.2745e-05,-0.00032139,-5.4437e+08,-4037.6,0,7.4194e+06,-83.388,10984,11579,1,11579,1,-0.00065781,-3.0669e-09,0,0.00043095,-0.0001731,-2.6754e+08,-835.11,0,1.4794e+08,128.36,11578,12634,1,12634,1,0.00093023,9.7925e-10,0,0.0012249,0.00012364,2.4924e+08,254.73,0,3.5087e+08,699.86,12633,611.88,0,611.88,0,0.0009181,4.6497e-09,0,0.00047714,0.00017158,2.854e+08,1189.2,0,1.3791e+08,576.29,611.88,1
2111,5.36,12107,1,12107,1,0.00018825,-1.9749e-09,0,0.00080805,-3.4414e-05,-2.0306e+06,-570.89,0,2.5005e+08,559.5,12106,13208,1,13208,1,0.001729,1.749e-08,0,0.001729,0.00025156,3.7075e+08,3817.3,0,5.452e+08,3244,13207,12107,1,12107,1,0.00013742,-2.4768e-09,0,0.00081945,-2.5041e-05,4.6237e+07,-718.4,0,2.6775e+08,358.41,12106,10985,1,10985,1,-0.0013404,-1.9448e-08,0,2.3709e-05,-0.00032226,-5.452e+08,-4290.1,0,7.7631e+06,-129.33,10984,11579,1,11579,1,-0.00065834,-5.1277e-09,0,0.00043098,-0.00017364,-2.6775e+08,-1486,0,1.4834e+08,129.38,11578,12634,1,12634,1,0.00093319,6.8123e-10,0,0.0012267,0.00012374,2.495e+08,155.48,0,3.5073e+08,748.36,12633,611.88,0,611.88,0,0.00092012,5.0667e-09,0,0.00047834,0.00017196,2.8565e+08,1314.2,0,1.3801e+08,618.61,611.88,1
2111,5.37,12107,1,12107,1,0.00018958,-3.5423e-09,0,0.00080992,-3.4657e-05,-2.0329e+06,-1030.6,0,2.5027e+08,597.14,12106,13208,1,13208,1,0.0017337,2.1118e-08,0,0.0017337,0.00025194,3.7055e+08,4691.1,0,5.4601e+08,3274,13207,12107,1,12107,1,0.00013864,-3.9411e-09,0,0.00082212,-2.5266e-05,4.6604e+07,-1156.7,0,2.6795e+08,430.12,12106,10985,1,10985,1,-0.0013424,-2.1433e-08,0,2.4682e-05,-0.00032313,-5.4601e+08,-4782.1,0,8.1088e+06,-203.16,10984,11579,1,11579,1,-0.00065882,-8.5182e-09,0,0.00043098,-0.00017419,-2.6795e+08,-2427.2,0,1.4874e+08,151.59,11578,12634,1,12634,1,0.00093615,8.5397e-10,0,0.0012284,0.00012384,2.4975e+08,217.66,0,3.5057e+08,814.02,12633,611.88,0,611.88,0,0.0009221,6.7408e-09,0,0.00047952,0.00017233,2.8589e+08,1762.5,0,1.3811e+08,637.83,611.88,1
2111,5.38,12107,1,12107,1,0.00019091,-1.2004e-09,0,0.0008118,-3.49e-05,-2.0349e+06,-428.13,0,2.5049e+08,588.06,12106,13208,1,13208,1,0.0017383,2.3332e-08,0,0.0017383,0.00025231,3.7034e+08,5206,0,5.4681e+08,3734.4,13207,12107,1,12107,1,0.00013987,-1.7564e-09,0,0.00082483,-2.5491e-05,4.6971e+07,-535.81,0,2.6816e+08,363.35,12106,10985,1,10985,1,-0.0013444,-2.2575e-08,0,2.5651e-05,-0.00032399,-5.4681e+08,-5088.2,0,8.4521e+06,-150.83,10984,11579,1,11579,1,-0.00065934,-5.3542e-09,0,0.000431,-0.00017473,-2.6816e+08,-1609.4,0,1.4914e+08,112.11,11578,12634,1,12634,1,0.0009391,2.1526e-09,0,0.0012302,0.00012394,2.5001e+08,500.72,0,3.5041e+08,802.46,12633,611.88,0,611.88,0,0.0009241,6.6142e-09,0,0.00048071,0.0001727,2.8613e+08,1663.3,0,1.3821e+08,700.61,611.88,1
2111,5.39,12107,1,12107,1,0.00019226,4.2639e-09,0,0.00081372,-3.5147e-05,-2.0378e+06,1076.8,0,2.5071e+08,526.59,12106,13208,1,13208,1,0.001743,2.0509e-08,0,0.001743,0.00025269,3.7016e+08,4552.1,0,5.4763e+08,4026.9,13207,12107,1,12107,1,0.0001411,3.733e-09,0,0.0008276,-2.5718e-05,4.7339e+07,1109.9,0,2.6837e+08,186.85,12106,10985,1,10985,1,-0.0013464,-1.8032e-08,0,2.6637e-05,-0.00032486,-5.4763e+08,-3950.9,0,8.8003e+06,-241.01,10984,11579,1,11579,1,-0.00065985,-6.7704e-11,0,0.00043101,-0.00017528,-2.6837e+08,-15.978,0,1.4955e+08,3.6158,11578,12634,1,12634,1,0.00094207,9.1306e-09,0,0.0012319,0.00012404,2.5026e+08,2290,0,3.5026e+08,780.02,12633,611.88,0,611.88,0,0.00092613,6.0625e-09,0,0.00048192,0.00017307,2.8638e+08,1491.6,0,1.3832e+08,782.32,611.88,1
2111,5.4,12107,1,12107,1,0.00019363,1.3861e-09,0,0.00081564,-3.5396e-05,-2.0404e+06,373.75,0,2.5094e+08,531.2,12106,13208,1,13208,1,0.0017478,1.7556e-08,0,0.0017478,0.00025307,3.6994e+08,4160.3,0,5.4845e+08,3732.4,13207,12107,1,12107,1,0.00014235,1.8774e-09,0,0.00083037,-2.5949e-05,4.7711e+07,509.67,0,2.6858e+08,208.59,12106,10985,1,10985,1,-0.0013484,-1.821e-08,0,2.765e-05,-0.00032574,-5.4845e+08,-3919.8,0,9.1568e+06,-77.955,10984,11579,1,11579,1,-0.00066037,-3.5286e-10,0,0.00043102,-0.00017583,-2.6858e+08,-100.31,0,1.4996e+08,58.651,11578,12634,1,12634,1,0.00094508,3.5724e-09,0,0.0012337,0.00012413,2.5051e+08,955.51,0,3.501e+08,708.67,12633,611.88,0,611.88,0,0.00092817,4.3222e-09,0,0.00048315,0.00017345,2.8663e+08,1130.1,0,1.3842e+08,722.74,611.88,1
2111,5.41,12107,1,12107,1,0.00019501,-8.3386e-10,0,0.00081756,-3.5648e-05,-2.0425e+06,-208.84,0,2.5115e+08,576.58,12106,13208,1,13208,1,0.0017526,1.682e-08,0,0.0017526,0.00025344,3.6971e+08,4644.8,0,5.4926e+08,3749.6,13207,12107,1,12107,1,0.00014362,-7.7656e-10,0,0.00083314,-2.6182e-05,4.8089e+07,-215.17,0,2.6878e+08,254.94,12106,10985,1,10985,1,-0.0013504,-2.1608e-08,0,2.866e-05,-0.00032663,-5.4926e+08,-4691.8,0,9.5113e+06,-79.729,10984,11579,1,11579,1,-0.00066087,-2.3179e-09,0,0.00043102,-0.00017639,-2.6878e+08,-602.13,0,1.5037e+08,82.057,11578,12634,1,12634,1,0.00094811,9.1783e-10,0,0.0012355,0.00012423,2.5076e+08,246.81,0,3.4993e+08,775.7,12633,611.88,0,611.88,0,0.00093021,4.7736e-09,0,0.00048437,0.00017383,2.8687e+08,1266.9,0,1.3853e+08,747.14,611.88,1
2111,5.42,12107,1,12107,1,0.00019639,4.9754e-10,0,0.00081948,-3.5901e-05,-2.0448e+06,139.03,0,2.5137e+08,637.67,12106,13208,1,13208,1,0.0017574,2.2228e-08,0,0.0017574,0.00025382,3.6949e+08,4810.2,0,5.5008e+08,4007,13207,12107,1,12107,1,0.00014489,7.7138e-10,0,0.00083593,-2.6416e-05,4.8468e+07,228.6,0,2.6898e+08,352.58,12106,10985,1,10985,1,-0.0013524,-2.4208e-08,0,2.9682e-05,-0.00032751,-5.5008e+08,-5249.7,0,9.8686e+06,-115.27,10984,11579,1,11579,1,-0.00066136,-1.4566e-09,0,0.000431,-0.00017695,-2.6898e+08,-419.98,0,1.5078e+08,114.36,11578,12634,1,12634,1,0.00095115,2.6875e-09,0,0.0012372,0.00012432,2.5101e+08,707.73,0,3.4975e+08,847.26,12633,611.88,0,611.88,0,0.00093225,5.7655e-09,0,0.0004856,0.00017421,2.8711e+08,1434.8,0,1.3863e+08,762.11,611.88,1
2111,5.43,12107,1,12107,1,0.00019779,1.0028e-09,0,0.00082141,-3.6155e-05,-2.0478e+06,291.38,0,2.5158e+08,677.73,12106,13208,1,13208,1,0.0017622,2.3118e-08,0,0.0017622,0.0002542,3.6925e+08,5083.3,0,5.5089e+08,4269.5,13207,12107,1,12107,1,0.00014618,1.4235e-09,0,0.00083871,-2.6652e-05,4.8848e+07,387.18,0,2.6917e+08,343.26,12106,10985,1,10985,1,-0.0013544,-2.4208e-08,0,3.0707e-05,-0.0003284,-5.5089e+08,-5205,0,1.0226e+07,-76.115,10984,11579,1,11579,1,-0.00066184,-1.1931e-09,0,0.00043098,-0.00017751,-2.6917e+08,-336.33,0,1.5118e+08,120.86,11578,12634,1,12634,1,0.0009542,3.2981e-09,0,0.001239,0.00012442,2.5125e+08,939,0,3.4956e+08,910.71,12633,611.88,0,611.88,0,0.00093429,5.7941e-09,0,0.00048683,0.00017459,2.8734e+08,1468,0,1.3873e+08,822.34,611.88,1
2111,5.44,12107,1,12107,1,0.00019919,7.3426e-10,0,0.00082334,-3.6411e-05,-2.0503e+06,248.76,0,2.5179e+08,725.18,12106,13208,1,13208,1,0.001767,2.4246e-08,0,0.001767,0.00025457,3.6901e+08,5410.3,0,5.517e+08,4379.1,13207,12107,1,12107,1,0.00014747,1.1884e-09,0,0.0008415,-2.6889e-05,4.9229e+07,330.37,0,2.6937e+08,386.93,12106,10985,1,10985,1,-0.0013564,-2.7068e-08,0,3.1739e-05,-0.00032929,-5.517e+08,-5805.7,0,1.0584e+07,-78.048,10984,11579,1,11579,1,-0.00066232,-1.3804e-09,0,0.00043095,-0.00017808,-2.6937e+08,-375.6,0,1.5159e+08,143.82,11578,12634,1,12634,1,0.00095726,3.0042e-09,0,0.0012407,0.00012451,2.515e+08,944.65,0,3.4937e+08,970.53,12633,611.88,0,611.88,0,0.00093633,6.2961e-09,0,0.00048806,0.00017497,2.8758e+08,1579.4,0,1.3883e+08,847.82,611.88,1
2111,5.45,12107,1,12107,1,0.0002006,2.8336e-09,0,0.00082527,-3.6669e-05,-2.0524e+06,838.89,0,2.52e+08,727.1,12106,13208,1,13208,1,0.0017719,2.545e-08,0,0.0017719,0.00025495,3.6877e+08,5727.6,0,5.5251e+08,4557.1,13207,12107,1,12107,1,0.00014876,3.7849e-09,0,0.00084429,-2.7128e-05,4.9613e+07,1023.7,0,2.6955e+08,384.47,12106,10985,1,10985,1,-0.0013584,-2.7088e-08,0,3.278e-05,-0.00033019,-5.5251e+08,-5763.8,0,1.0944e+07,-138.58,10984,11579,1,11579,1,-0.00066278,-7.9991e-10,0,0.00043091,-0.00017864,-2.6955e+08,-179.81,0,1.5199e+08,134.6,11578,12634,1,12634,1,0.00096033,6.8826e-09,0,0.0012424,0.0001246,2.5174e+08,2011.8,0,3.4918e+08,961.46,12633,611.88,0,611.88,0,0.00093837,6.7555e-09,0,0.0004893,0.00017535,2.8781e+08,1750.8,0,1.3893e+08,885.54,611.88,1
2111,5.46,12107,1,12107,1,0.00020202,-1.2221e-09,0,0.0008272,-3.6928e-05,-2.0545e+06,-231.01,0,2.5221e+08,776.05,12106,13208,1,13208,1,0.0017767,2.5661e-08,0,0.0017767,0.00025532,3.6853e+08,5655.8,0,5.5331e+08,4408,13207,12107,1,12107,1,0.00015007,-2.3507e-10,0,0.00084713,-2.7368e-05,4.9999e+07,-64.444,0,2.6975e+08,444.95,12106,10985,1,10985,1,-0.0013604,-3.1554e-08,0,3.3827e-05,-0.00033108,-5.5331e+08,-6792.1,0,1.1304e+07,-103.19,10984,11579,1,11579,1,-0.00066326,-4.5207e-09,0,0.00043088,-0.00017921,-2.6975e+08,-1163.1,0,1.5241e+08,150.47,11578,12634,1,12634,1,0.00096341,1.9717e-09,0,0.0012442,0.00012469,2.5198e+08,566.53,0,3.4898e+08,1051.4,12633,611.88,0,611.88,0,0.00094042,7.3939e-09,0,0.00049055,0.00017573,2.8804e+08,1818.6,0,1.3903e+08,896.2,611.88,1
2111,5.47,12107,1,12107,1,0.00020345,-2.9123e-09,0,0.00082915,-3.7189e-05,-2.0572e+06,-738.05,0,2.5242e+08,795.98,12106,13208,1,13208,1,0.0017816,2.2685e-08,0,0.0017816,0.0002557,3.6828e+08,5396.5,0,5.5413e+08,4518.2,13207,12107,1,12107,1,0.00015139,-2.2556e-09,0,0.00084999,-2.761e-05,5.0385e+07,-651.96,0,2.6993e+08,436.31,12106,10985,1,10985,1,-0.0013624,-3.3146e-08,0,3.4895e-05,-0.00033198,-5.5413e+08,-7173.6,0,1.1671e+07,-115.35,10984,11579,1,11579,1,-0.00066371,-6.4947e-09,0,0.00043083,-0.00017978,-2.6993e+08,-1694.6,0,1.5282e+08,156.28,11578,12634,1,12634,1,0.0009665,8.4941e-10,0,0.0012459,0.00012478,2.5222e+08,207.91,0,3.4878e+08,1084.9,12633,611.88,0,611.88,0,0.00094249,7.4527e-09,0,0.0004918,0.00017611,2.8827e+08,1872.3,0,1.3914e+08,925.26,611.88,1
2111,5.48,12107,1,12107,1,0.00020489,1.8011e-09,0,0.00083111,-3.7452e-05,-2.0601e+06,486.13,0,2.5262e+08,864.08,12106,13208,1,13208,1,0.0017865,3.1194e-08,0,0.0017865,0.00025607,3.6802e+08,6696.2,0,5.5494e+08,4960.6,13207,12107,1,12107,1,0.00015272,2.151e-09,0,0.00085285,-2.7855e-05,5.0775e+07,608.88,0,2.7012e+08,493.27,12106,10985,1,10985,1,-0.0013644,-2.917e-08,0,3.5973e-05,-0.00033289,-5.5494e+08,-6205.8,0,1.2039e+07,-113.48,10984,11579,1,11579,1,-0.00066418,-1.3865e-09,0,0.00043078,-0.00018035,-2.7012e+08,-380.35,0,1.5323e+08,190.28,11578,12634,1,12634,1,0.00096962,5.0658e-09,0,0.0012476,0.00012487,2.5245e+08,1384.7,0,3.4857e+08,1185.6,12633,611.88,0,611.88,0,0.00094455,7.5594e-09,0,0.00049307,0.00017649,2.885e+08,1863.6,0,1.3924e+08,967.15,611.88,1
2111,5.49,12107,1,12107,1,0.00020635,1.3468e-10,0,0.00083308,-3.7719e-05,-2.0619e+06,77.583,0,2.5283e+08,831.37,12106,13208,1,13208,1,0.0017915,2.7731e-08,0,0.0017915,0.00025645,3.6775e+08,6700.6,0,5.5575e+08,5023.6,13207,12107,1,12107,1,0.00015406,4.56e-10,0,0.00085573,-2.8102e-05,5.1169e+07,129.85,0,2.7031e+08,420.43,12106,10985,1,10985,1,-0.0013664,-3.0046e-08,0,3.7053e-05,-0.0003338,-5.5575e+08,-6418.7,0,1.2407e+07,-52.682,10984,11579,1,11579,1,-0.00066464,-2.3015e-09,0,0.00043073,-0.00018093,-2.7031e+08,-580.55,0,1.5364e+08,139.15,11578,12634,1,12634,1,0.00097276,2.6434e-09,0,0.0012494,0.00012495,2.5269e+08,762.11,0,3.4836e+08,1138.4,12633,611.88,0,611.88,0,0.00094663,7.1752e-09,0,0.00049434,0.00017688,2.8873e+08,1853.1,0,1.3934e+08,1009.6,611.88,1
2111,5.5,12107,1,12107,1,0.00020782,-4.44e-10,0,0.00083504,-3.7986e-05,-2.0648e+06,-88.326,0,2.5303e+08,952.83,12106,13208,1,13208,1,0.0017964,3.0931e-08,0,0.0017964,0.00025682,3.6748e+08,6530.8,0,5.5655e+08,5288.5,13207,12107,1,12107,1,0.00015541,-7.9609e-11,0,0.00085862,-2.835e-05,5.1565e+07,-21.963,0,2.7049e+08,546.67,12106,10985,1,10985,1,-0.0013684,-3.4727e-08,0,3.8147e-05,-0.00033471,-5.5655e+08,-7369.2,0,1.2779e+07,-99.503,10984,11579,1,11579,1,-0.00066508,-3.1969e-09,0,0.00043066,-0.00018151,-2.7049e+08,-864.73,0,1.5406e+08,203.85,11578,12634,1,12634,1,0.0009759,2.2234e-09,0,0.0012511,0.00012504,2.5292e+08,624.59,0,3.4813e+08,1302.1,12633,611.88,0,611.88,0,0.00094871,8.1582e-09,0,0.00049561,0.00017726,2.8895e+08,2012.9,0,1.3944e+08,1054.1,611.88,1
2111,5.51,12107,1,12107,1,0.00020929,1.5827e-10,0,0.00083702,-3.8256e-05,-2.067e+06,65.47,0,2.5323e+08,945.15,12106,13208,1,13208,1,0.0018014,3.1285e-08,0,0.0018014,0.00025719,3.672e+08,7033.9,0,5.5736e+08,5603.3,13207,12107,1,12107,1,0.00015677,2.9106e-10,0,0.00086152,-2.8601e-05,5.1962e+07,79.902,0,2.7067e+08,497.86,12106,10985,1,10985,1,-0.0013703,-3.414e-08,0,3.925e-05,-0.00033563,-5.5736e+08,-7180.9,0,1.3152e+07,-64.315,10984,11579,1,11579,1,-0.00066552,-2.5074e-09,0,0.00043058,-0.00018209,-2.7067e+08,-668.81,0,1.5447e+08,188.31,11578,12634,1,12634,1,0.00097907,2.8616e-09,0,0.0012528,0.00012513,2.5315e+08,772.32,0,3.4791e+08,1286.3,12633,611.88,0,611.88,0,0.00095079,8.0223e-09,0,0.00049689,0.00017765,2.8918e+08,2023.9,0,1.3954e+08,1103.1,611.88,1
2111,5.52,12107,1,12107,1,0.00021078,6.1881e-10,0,0.000839,-3.8528e-05,-2.0696e+06,199.71,0,2.5343e+08,999.49,12106,13208,1,13208,1,0.0018064,3.2898e-08,0,0.0018064,0.00025757,3.6691e+08,7791.1,0,5.5817e+08,5715,13207,12107,1,12107,1,0.00015815,9.9495e-10,0,0.00086443,-2.8853e-05,5.2362e+07,265.77,0,2.7085e+08,556.62,12106,10985,1,10985,1,-0.0013723,-3.477e-08,0,4.0361e-05,-0.00033655,-5.5817e+08,-7316,0,1.3526e+07,-23.718,10984,11579,1,11579,1,-0.00066596,-2.339e-09,0,0.0004305,-0.00018268,-2.7085e+08,-613.83,0,1.5489e+08,207.84,11578,12634,1,12634,1,0.00098226,3.6749e-09,0,0.0012546,0.00012521,2.5338e+08,1015.2,0,3.4768e+08,1337.2,12633,611.88,0,611.88,0,0.00095288,8.4832e-09,0,0.00049818,0.00017804,2.894e+08,2178.5,0,1.3964e+08,1139.3,611.88,1
2111,5.53,12107,1,12107,1,0.00021228,-1.5878e-09,0,0.00084099,-3.8802e-05,-2.0716e+06,-392.15,0,2.5362e+08,1048.2,12106,13208,1,13208,1,0.0018114,3.2769e-08,0,0.0018114,0.00025794,3.6663e+08,8094.4,0,5.5898e+08,6014.7,13207,12107,1,12107,1,0.00015953,-1.7246e-09,0,0.00086738,-2.9108e-05,5.2766e+07,-472.99,0,2.7102e+08,570.48,12106,10985,1,10985,1,-0.0013743,-3.9545e-08,0,4.1482e-05,-0.00033748,-5.5898e+08,-8405,0,1.3902e+07,-47.081,10984,11579,1,11579,1,-0.00066638,-5.0228e-09,0,0.00043041,-0.00018327,-2.7102e+08,-1313.3,0,1.553e+08,205.95,11578,12634,1,12634,1,0.00098546,2.1347e-09,0,0.0012563,0.00012529,2.5361e+08,564.89,0,3.4744e+08,1422.7,12633,611.88,0,611.88,0,0.00095498,9.2977e-09,0,0.00049948,0.00017843,2.8962e+08,2387.6,0,1.3974e+08,1207.3,611.88,1
2111,5.54,12107,1,12107,1,0.0002138,2.7269e-09,0,0.00084298,-3.9078e-05,-2.0738e+06,755.22,0,2.5382e+08,1169.9,12106,13208,1,13208,1,0.0018164,4.0845e-08,0,0.0018164,0.00025832,3.6633e+08,8645,0,5.5978e+08,6456.8,13207,12107,1,12107,1,0.00016093,3.7497e-09,0,0.00087031,-2.9365e-05,5.3171e+07,997.59,0,2.7119e+08,758.95,12106,10985,1,10985,1,-0.0013763,-4.0631e-08,0,4.2618e-05,-0.00033841,-5.5978e+08,-8441.6,0,1.4282e+07,-98.414,10984,11579,1,11579,1,-0.0006668,-1.741e-09,0,0.00043031,-0.00018386,-2.7119e+08,-469.6,0,1.5572e+08,281.82,11578,12634,1,12634,1,0.00098867,7.6001e-09,0,0.001258,0.00012537,2.5383e+08,2112.8,0,3.4719e+08,1570.6,12633,611.88,0,611.88,0,0.00095708,1.0414e-08,0,0.00050078,0.00017881,2.8983e+08,2615.1,0,1.3984e+08,1246.2,611.88,1
2111,5.55,12107,1,12107,1,0.00021531,1.3091e-09,0,0.00084497,-3.9356e-05,-2.0757e+06,412.17,0,2.5401e+08,1159.7,12106,13208,1,13208,1,0.0018215,4.0534e-08,0,0.0018215,0.00025869,3.6602e+08,8831.7,0,5.6058e+08,6621.4,13207,12107,1,12107,1,0.00016233,1.8466e-09,0,0.00087325,-2.9623e-05,5.3578e+07,475.89,0,2.7135e+08,713.72,12106,10985,1,10985,1,-0.0013783,-4.3398e-08,0,4.3754e-05,-0.00033933,-5.6058e+08,-8994.1,0,1.466e+07,-112.25,10984,11579,1,11579,1,-0.00066721,-2.9162e-09,0,0.0004302,-0.00018445,-2.7135e+08,-764.54,0,1.5613e+08,250.25,11578,12634,1,12634,1,0.00099189,5.5706e-09,0,0.0012597,0.00012545,2.5405e+08,1667.5,0,3.4694e+08,1556.8,12633,611.88,0,611.88,0,0.00095918,1.0693e-08,0,0.00050209,0.0001792,2.9005e+08,2690.8,0,1.3994e+08,1285.9,611.88,1
2111,5.56,12107,1,12107,1,0.00021685,-4.3723e-10,0,0.00084698,-3.9636e-05,-2.078e+06,-34.674,0,2.542e+08,1208.7,12106,13208,1,13208,1,0.0018265,4.2867e-08,0,0.0018265,0.00025906,3.6573e+08,9762.2,0,5.6138e+08,6499.3,13207,12107,1,12107,1,0.00016375,-1.2095e-10,0,0.00087624,-2.9883e-05,5.3987e+07,-30.434,0,2.7153e+08,766.77,12106,10985,1,10985,1,-0.0013802,-4.602e-08,0,4.4902e-05,-0.00034027,-5.6138e+08,-9534.2,0,1.5042e+07,-99.387,10984,11579,1,11579,1,-0.00066763,-5.0908e-09,0,0.00043009,-0.00018505,-2.7153e+08,-1290.2,0,1.5655e+08,240.77,11578,12634,1,12634,1,0.00099514,4.1154e-09,0,0.0012614,0.00012553,2.5427e+08,1149.7,0,3.4669e+08,1656.8,12633,611.88,0,611.88,0,0.00096129,1.1499e-08,0,0.00050341,0.0001796,2.9027e+08,2870.4,0,1.4004e+08,1343.6,611.88,1
2111,5.57,12107,1,12107,1,0.00021839,1.9613e-09,0,0.000849,-3.9918e-05,-2.0811e+06,592.25,0,2.5439e+08,1315.9,12106,13208,1,13208,1,0.0018316,4.2799e-08,0,0.0018316,0.00025944,3.654e+08,9876.5,0,5.622e+08,7012.1,13207,12107,1,12107,1,0.00016518,3.3644e-09,0,0.00087923,-3.0146e-05,5.4399e+07,883.92,0,2.7169e+08,896.16,12106,10985,1,10985,1,-0.0013822,-4.729e-08,0,4.6067e-05,-0.00034121,-5.622e+08,-9742.1,0,1.5427e+07,-87.949,10984,11579,1,11579,1,-0.00066803,-2.6721e-09,0,0.00042998,-0.00018565,-2.7169e+08,-695.74,0,1.5697e+08,317.81,11578,12634,1,12634,1,0.00099841,7.4558e-09,0,0.0012631,0.00012561,2.5449e+08,2201,0,3.4643e+08,1749.4,12633,611.88,0,611.88,0,0.00096342,1.1779e-08,0,0.00050474,0.00017999,2.9048e+08,2997.5,0,1.4014e+08,1380.7,611.88,1
2111,5.58,12107,1,12107,1,0.00021995,7.295e-10,0,0.00085101,-4.0202e-05,-2.0833e+06,295.67,0,2.5457e+08,1385.7,12106,13208,1,13208,1,0.0018368,4.5396e-08,0,0.0018368,0.00025981,3.6508e+08,10102,0,5.63e+08,7173,13207,12107,1,12107,1,0.00016662,1.9956e-09,0,0.00088223,-3.0411e-05,5.4814e+07,533.06,0,2.7185e+08,931.84,12106,10985,1,10985,1,-0.0013842,-5.1154e-08,0,4.7238e-05,-0.00034216,-5.63e+08,-10552,0,1.5814e+07,-80.708,10984,11579,1,11579,1,-0.00066843,-4.1426e-09,0,0.00042985,-0.00018626,-2.7185e+08,-1045.6,0,1.5739e+08,332.86,11578,12634,1,12634,1,0.0010017,6.2752e-09,0,0.0012648,0.00012569,2.5471e+08,1894.3,0,3.4616e+08,1862.7,12633,611.88,0,611.88,0,0.00096554,1.2541e-08,0,0.00050607,0.00018038,2.9069e+08,3137.3,0,1.4024e+08,1446.5,611.88,1
2111,5.59,12107,1,12107,1,0.00022152,3.7266e-09,0,0.00085304,-4.0489e-05,-2.0855e+06,1121.8,0,2.5476e+08,1454.8,12106,13208,1,13208,1,0.0018419,5.0449e-08,0,0.0018419,0.00026018,3.6476e+08,10965,0,5.6381e+08,7469,13207,12107,1,12107,1,0.00016808,5.2577e-09,0,0.00088524,-3.0678e-05,5.5232e+07,1409.3,0,2.7201e+08,1007.5,12106,10985,1,10985,1,-0.0013862,-5.0778e-08,0,4.842e-05,-0.00034311,-5.6381e+08,-10379,0,1.6202e+07,-97.16,10984,11579,1,11579,1,-0.00066881,-2.3789e-09,0,0.00042971,-0.00018687,-2.7201e+08,-574.74,0,1.5781e+08,367.95,11578,12634,1,12634,1,0.001005,1.0867e-08,0,0.0012665,0.00012577,2.5493e+08,3198.5,0,3.4589e+08,1956.1,12633,611.88,0,611.88,0,0.00096767,1.3317e-08,0,0.00050741,0.00018078,2.909e+08,3364.2,0,1.4034e+08,1499.3,611.88,1
2111,5.6,12107,1,12107,1,0.0002231,1.0905e-09,0,0.00085508,-4.0778e-05,-2.0877e+06,476.65,0,2.5494e+08,1479,12106,13208,1,13208,1,0.0018471,4.7913e-08,0,0.0018471,0.00026055,3.6442e+08,11530,0,5.6461e+08,7700.4,13207,12107,1,12107,1,0.00016954,2.3257e-09,0,0.00088828,-3.0948e-05,5.5652e+07,643.65,0,2.7217e+08,990.58,12106,10985,1,10985,1,-0.0013882,-5.5392e-08,0,4.9608e-05,-0.00034407,-5.6461e+08,-11311,0,1.6592e+07,-68.199,10984,11579,1,11579,1,-0.00066921,-4.6127e-09,0,0.00042957,-0.00018748,-2.7217e+08,-1115.9,0,1.5823e+08,350.54,11578,12634,1,12634,1,0.0010083,8.0441e-09,0,0.0012682,0.00012584,2.5514e+08,2391.8,0,3.4561e+08,1992.1,12633,611.88,0,611.88,0,0.00096982,1.3698e-08,0,0.00050876,0.00018117,2.9111e+08,3474.6,0,1.4044e+08,1568.2,611.88,1
2111,5.61,12107,1,12107,1,0.0002247,-1.8225e-09,0,0.00085713,-4.107e-05,-2.0902e+06,-287.42,0,2.5512e+08,1543.8,12106,13208,1,13208,1,0.0018523,4.949e-08,0,0.0018523,0.00026092,3.6409e+08,12392,0,5.6541e+08,8118.3,13207,12107,1,12107,1,0.00017102,-7.9982e-10,0,0.00089136,-3.122e-05,5.6075e+07,-196.2,0,2.7233e+08,986.58,12106,10985,1,10985,1,-0.0013901,-6.0242e-08,0,5.0816e-05,-0.00034502,-5.6541e+08,-12306,0,1.6986e+07,-37.836,10984,11579,1,11579,1,-0.0006696,-8.4844e-09,0,0.00042942,-0.00018809,-2.7233e+08,-2063.1,0,1.5866e+08,336.63,11578,12634,1,12634,1,0.0010117,4.8192e-09,0,0.00127,0.00012592,2.5535e+08,1394.2,0,3.4532e+08,2108.7,12633,611.88,0,611.88,0,0.00097197,1.4701e-08,0,0.00051012,0.00018157,2.9131e+08,3680,0,1.4054e+08,1663.7,611.88,1
2111,5.62,12107,1,12107,1,0.0002263,-1.6558e-09,0,0.00085916,-4.1363e-05,-2.0925e+06,-296.09,0,2.5529e+08,1639.4,12106,13208,1,13208,1,0.0018575,5.6649e-08,0,0.0018575,0.00026129,3.6373e+08,12590,0,5.6619e+08,8439.1,13207,12107,1,12107,1,0.00017251,-9.1631e-10,0,0.00089445,-3.1493e-05,5.6498e+07,-272.13,0,2.7247e+08,1067.3,12106,10985,1,10985,1,-0.0013921,-6.365e-08,0,5.2043e-05,-0.00034597,-5.6619e+08,-13012,0,1.7386e+07,-76.484,10984,11579,1,11579,1,-0.00066996,-8.609e-09,0,0.00042925,-0.0001887,-2.7247e+08,-2153.8,0,1.5908e+08,368.75,11578,12634,1,12634,1,0.001015,4.7629e-09,0,0.0012716,0.00012599,2.5555e+08,1337.5,0,3.4502e+08,2264.8,12633,611.88,0,611.88,0,0.0009741,1.5812e-08,0,0.00051147,0.00018197,2.9151e+08,3847.8,0,1.4063e+08,1734.5,611.88,1
2111,5.63,12107,1,12107,1,0.00022792,1.5688e-09,0,0.00086123,-4.1659e-05,-2.0946e+06,524.67,0,2.5547e+08,1687.4,12106,13208,1,13208,1,0.0018627,5.6051e-08,0,0.0018627,0.00026167,3.6338e+08,13391,0,5.6701e+08,9016.7,13207,12107,1,12107,1,0.00017401,2.4878e-09,0,0.00089754,-3.1768e-05,5.6925e+07,650.75,0,2.7262e+08,1084.8,12106,10985,1,10985,1,-0.0013941,-6.1726e-08,0,5.3273e-05,-0.00034695,-5.6701e+08,-12679,0,1.7786e+07,-63.734,10984,11579,1,11579,1,-0.00067033,-4.3005e-09,0,0.0004291,-0.00018933,-2.7262e+08,-1063.8,0,1.5951e+08,372.47,11578,12634,1,12634,1,0.0010184,8.1185e-09,0,0.0012733,0.00012606,2.5576e+08,2295.2,0,3.4474e+08,2329.5,12633,611.88,0,611.88,0,0.00097628,1.5258e-08,0,0.00051285,0.00018237,2.9172e+08,3885.9,0,1.4074e+08,1808.9,611.88,1
2111,5.64,12107,1,12107,1,0.00022956,9.7512e-11,0,0.00086329,-4.1958e-05,-2.0965e+06,171.89,0,2.5564e+08,1769.6,12106,13208,1,13208,1,0.001868,6.2467e-08,0,0.001868,0.00026203,3.6302e+08,13947,0,5.678e+08,9082.2,13207,12107,1,12107,1,0.00017552,7.8776e-10,0,0.00090065,-3.2047e-05,5.7356e+07,221.51,0,2.7277e+08,1152.9,12106,10985,1,10985,1,-0.001396,-6.7808e-08,0,5.4515e-05,-0.00034792,-5.678e+08,-13722,0,1.8188e+07,-67.901,10984,11579,1,11579,1,-0.00067069,-6.6892e-09,0,0.00042892,-0.00018995,-2.7277e+08,-1645.1,0,1.5993e+08,385.94,11578,12634,1,12634,1,0.0010218,6.9822e-09,0,0.001275,0.00012613,2.5596e+08,1977.3,0,3.4443e+08,2432.7,12633,611.88,0,611.88,0,0.00097844,1.6932e-08,0,0.00051423,0.00018277,2.9192e+08,4161.8,0,1.4083e+08,1887.9,611.88,1
2111,5.65,12107,1,12107,1,0.0002312,9.268e-10,0,0.00086535,-4.2257e-05,-2.0996e+06,381.21,0,2.5581e+08,1902.9,12106,13208,1,13208,1,0.0018732,6.8798e-08,0,0.0018732,0.0002624,3.6265e+08,14499,0,5.6859e+08,9409.1,13207,12107,1,12107,1,0.00017704,1.5372e-09,0,0.00090377,-3.2326e-05,5.7787e+07,422.47,0,2.7291e+08,1303.7,12106,10985,1,10985,1,-0.001398,-7.0489e-08,0,5.5764e-05,-0.00034888,-5.6859e+08,-14206,0,1.8592e+07,-117.67,10984,11579,1,11579,1,-0.00067104,-6.426e-09,0,0.00042873,-0.00019057,-2.7291e+08,-1606.4,0,1.6035e+08,449.51,11578,12634,1,12634,1,0.0010251,8.0819e-09,0,0.0012767,0.0001262,2.5616e+08,2231.1,0,3.4411e+08,2639.4,12633,611.88,0,611.88,0,0.00098059,1.8193e-08,0,0.00051561,0.00018317,2.9211e+08,4360,0,1.4093e+08,1945.6,611.88,1
2111,5.66,12107,1,12107,1,0.00023286,7.806e-10,0,0.00086747,-4.256e-05,-2.1014e+06,342.47,0,2.56e+08,1938.3,12106,13208,1,13208,1,0.0018786,6.2655e-08,0,0.0018786,0.00026278,3.6229e+08,15853,0,5.6942e+08,10201,13207,12107,1,12107,1,0.00017858,1.596e-09,0,0.00090693,-3.261e-05,5.8223e+07,426.95,0,2.7306e+08,1247.1,12106,10985,1,10985,1,-0.0014,-7.1969e-08,0,5.7022e-05,-0.00034988,-5.6942e+08,-14720,0,1.8997e+07,-116.16,10984,11579,1,11579,1,-0.00067141,-5.9056e-09,0,0.00042857,-0.00019121,-2.7306e+08,-1469.2,0,1.6079e+08,432.34,11578,12634,1,12634,1,0.0010286,8.1972e-09,0,0.0012784,0.00012627,2.5637e+08,2257.7,0,3.4382e+08,2671.2,12633,611.88,0,611.88,0,0.00098281,1.768e-08,0,0.00051703,0.00018358,2.9232e+08,4494.1,0,1.4104e+08,2057.4,611.88,1
2111,5.67,12107,1,12107,1,0.00023454,-2.8704e-09,0,0.00086955,-4.2868e-05,-2.1028e+06,-616.37,0,2.5616e+08,2058.3,12106,13208,1,13208,1,0.0018839,7.1328e-08,0,0.0018839,0.00026315,3.6191e+08,16091,0,5.702e+08,10513,13207,12107,1,12107,1,0.00018015,-2.1957e-09,0,0.00091013,-3.2898e-05,5.8664e+07,-596.58,0,2.7319e+08,1325.3,12106,10985,1,10985,1,-0.0014019,-8.3812e-08,0,5.831e-05,-0.00035086,-5.702e+08,-16892,0,1.9411e+07,-176.86,10984,11579,1,11579,1,-0.00067174,-1.1357e-08,0,0.00042834,-0.00019184,-2.7319e+08,-2883.8,0,1.6122e+08,428.18,11578,12634,1,12634,1,0.001032,5.6382e-09,0,0.0012801,0.00012633,2.5656e+08,1589.8,0,3.4347e+08,2880.7,12633,611.88,0,611.88,0,0.00098499,2.0469e-08,0,0.00051843,0.00018399,2.9251e+08,4979.4,0,1.4113e+08,2205.1,611.88,1
2111,5.68,12107,1,12107,1,0.00023622,3.7004e-09,0,0.00087164,-4.3175e-05,-2.1055e+06,1073,0,2.5632e+08,2294.6,12106,13208,1,13208,1,0.0018893,8.2454e-08,0,0.0018893,0.00026352,3.6151e+08,16684,0,5.71e+08,11437,13207,12107,1,12107,1,0.00018171,4.5234e-09,0,0.00091329,-3.3183e-05,5.9104e+07,1243.2,0,2.7332e+08,1637.6,12106,10985,1,10985,1,-0.0014039,-8.443e-08,0,5.9603e-05,-0.00035185,-5.71e+08,-16902,0,1.9826e+07,-225.46,10984,11579,1,11579,1,-0.00067206,-4.8314e-09,0,0.00042813,-0.00019248,-2.7332e+08,-1223.9,0,1.6164e+08,563.16,11578,12634,1,12634,1,0.0010355,1.265e-08,0,0.0012818,0.0001264,2.5676e+08,3443.2,0,3.4314e+08,3185.9,12633,611.88,0,611.88,0,0.00098718,2.1668e-08,0,0.00051985,0.00018439,2.927e+08,5178,0,1.4123e+08,2290.9,611.88,1
2111,5.69,12107,1,12107,1,0.00023793,7.2591e-10,0,0.00087377,-4.3487e-05,-2.1079e+06,367.92,0,2.5649e+08,2219.9,12106,13208,1,13208,1,0.0018948,7.4645e-08,0,0.0018948,0.00026389,3.6112e+08,18324,0,5.7182e+08,11579,13207,12107,1,12107,1,0.00018329,1.7086e-09,0,0.00091651,-3.3475e-05,5.9549e+07,446.86,0,2.7347e+08,1437.9,12106,10985,1,10985,1,-0.0014059,-8.5272e-08,0,6.0894e-05,-0.00035285,-5.7182e+08,-16907,0,2.0238e+07,-40.38,10984,11579,1,11579,1,-0.00067242,-7.0628e-09,0,0.00042794,-0.00019313,-2.7347e+08,-1770,0,1.6208e+08,488.59,11578,12634,1,12634,1,0.001039,9.4442e-09,0,0.0012835,0.00012647,2.5695e+08,2561.9,0,3.4282e+08,3072.9,12633,611.88,0,611.88,0,0.00098942,2.0833e-08,0,0.00052129,0.00018481,2.929e+08,5201.6,0,1.4133e+08,2364.9,611.88,1
2111,5.7,12107,1,12107,1,0.00023965,2.3761e-10,0,0.00087589,-4.3802e-05,-2.1101e+06,251.09,0,2.5665e+08,2412.5,12106,13208,1,13208,1,0.0019002,8.3378e-08,0,0.0019002,0.00026426,3.6072e+08,18960,0,5.7261e+08,11953,13207,12107,1,12107,1,0.0001849,7.9631e-10,0,0.00091772,-3.377e-05,5.9999e+07,223.83,0,2.736e+08,1654.3,12106,10985,1,10985,1,-0.0014079,-9.2947e-08,0,6.0141e-05,-0.00035386,-5.7261e+08,-18410,0,2.066e+07,-126.9,10984,11579,1,11579,1,-0.00067274,-8.8155e-09,0,0.00042972,-0.00019378,-2.736e+08,-2171.2,0,1.6251e+08,560.11,11578,12634,1,12634,1,0.0010426,9.7075e-09,0,0.0012853,0.00012653,2.5714e+08,2646.8,0,3.4247e+08,3361.7,12633,611.88,0,611.88,0,0.00099163,2.3079e-08,0,0.00052273,0.00018522,2.9308e+08,5592.9,0,1.4143e+08,2465.4,611.88,1
2111,5.71,12107,1,12107,1,0.00024139,-7.2762e-10,0,0.00087804,-4.4119e-05,-2.1124e+06,10.74,0,2.5682e+08,2452.7,12106,13208,1,13208,1,0.0019057,8.1088e-08,0,0.0019057,0.00026464,3.6032e+08,20518,0,5.7343e+08,12737,13207,12107,1,12107,1,0.00018651,2.7976e-10,0,0.00091861,-3.4067e-05,6.0452e+07,81.02,0,2.7374e+08,1611.8,12106,10985,1,10985,1,-0.0014099,-9.6655e-08,0,5.9086e-05,-0.00035487,-5.7343e+08,-19057,0,2.1083e+07,-83.967,10984,11579,1,11579,1,-0.00067307,-9.8632e-09,0,0.00043189,-0.00019443,-2.7374e+08,-2473.6,0,1.6295e+08,515.35,11578,12634,1,12634,1,0.0010461,8.5475e-09,0,0.0012871,0.0001266,2.5734e+08,2371.1,0,3.4213e+08,3401.5,12633,611.88,0,611.88,0,0.00099388,2.333e-08,0,0.00052419,0.00018563,2.9328e+08,5823.1,0,1.4153e+08,2601.1,611.88,1
2111,5.72,12107,1,12107,1,0.00024315,3.0352e-09,0,0.0008802,-4.4441e-05,-2.1144e+06,987.03,0,2.5697e+08,2642.7,12106,13208,1,13208,1,0.0019113,8.742e-08,0,0.0019113,0.00026502,3.5989e+08,22171,0,5.7424e+08,13674,13207,12107,1,12107,1,0.00018815,4.6523e-09,0,0.00091944,-3.4368e-05,6.0908e+07,1212.2,0,2.7385e+08,1840.1,12106,10985,1,10985,1,-0.0014119,-1.0212e-07,0,5.7999e-05,-0.00035589,-5.7424e+08,-20000,0,2.1511e+07,-221.76,10984,11579,1,11579,1,-0.00067336,-6.5952e-09,0,0.00043406,-0.00019509,-2.7385e+08,-1720.5,0,1.6338e+08,614.37,11578,12634,1,12634,1,0.0010497,1.4407e-08,0,0.0012888,0.00012666,2.5752e+08,3817.9,0,3.4177e+08,3604.9,12633,611.88,0,611.88,0,0.00099613,2.4925e-08,0,0.00052566,0.00018605,2.9346e+08,6231.8,0,1.4163e+08,2740.5,611.88,1
2111,5.73,12107,1,12107,1,0.00024493,-4.6042e-10,0,0.00088236,-4.4765e-05,-2.1165e+06,149.71,0,2.5713e+08,2826.7,12106,13208,1,13208,1,0.0019168,9.4234e-08,0,0.0019168,0.00026539,3.5947e+08,22948,0,5.7503e+08,13909,13207,12107,1,12107,1,0.00018981,7.7844e-10,0,0.00092032,-3.4672e-05,6.1369e+07,206.02,0,2.7398e+08,2040.4,12106,10985,1,10985,1,-0.0014138,-1.1393e-07,0,5.6903e-05,-0.00035692,-5.7503e+08,-22348,0,2.194e+07,-104.23,10984,11579,1,11579,1,-0.00067368,-1.1185e-08,0,0.00043625,-0.00019575,-2.7398e+08,-2755.2,0,1.6382e+08,695.27,11578,12634,1,12634,1,0.0010533,1.1564e-08,0,0.0012905,0.00012672,2.577e+08,3111.5,0,3.414e+08,3847.9,12633,611.88,0,611.88,0,0.00099839,2.7683e-08,0,0.00052714,0.00018647,2.9365e+08,6714.1,0,1.4173e+08,2851.9,611.88,1
2111,5.74,12107,1,12107,1,0.00024672,-1.8894e-09,0,0.00088454,-4.5092e-05,-2.1188e+06,-230.46,0,2.5728e+08,2932.3,12106,13208,1,13208,1,0.0019224,9.5819e-08,0,0.0019224,0.00026576,3.5904e+08,23646,0,5.7585e+08,14701,13207,12107,1,12107,1,0.00019148,-5.769e-10,0,0.00092119,-3.4978e-05,6.1831e+07,-139.61,0,2.741e+08,2107,12106,10985,1,10985,1,-0.0014158,-1.2069e-07,0,5.5799e-05,-0.00035795,-5.7585e+08,-23663,0,2.2374e+07,-165.52,10984,11579,1,11579,1,-0.00067398,-1.2909e-08,0,0.00043847,-0.00019642,-2.741e+08,-3232.2,0,1.6426e+08,666.13,11578,12634,1,12634,1,0.0010569,1.0674e-08,0,0.0012922,0.00012678,2.5789e+08,2901.4,0,3.4103e+08,4011.9,12633,611.88,0,611.88,0,0.0010007,2.8802e-08,0,0.00052863,0.00018689,2.9383e+08,7024.1,0,1.4183e+08,2996.2,611.88,1
2111,5.75,12107,1,12107,1,0.00024853,2.2207e-09,0,0.00088672,-4.5422e-05,-2.121e+06,833.92,0,2.5743e+08,3178.9,12106,13208,1,13208,1,0.0019281,1.1058e-07,0,0.0019281,0.00026614,3.5859e+08,25488,0,5.7665e+08,15341,13207,12107,1,12107,1,0.00019316,3.7759e-09,0,0.00092201,-3.5287e-05,6.2298e+07,1001.2,0,2.7422e+08,2285.4,12106,10985,1,10985,1,-0.0014178,-1.2328e-07,0,5.4677e-05,-0.00035899,-5.7665e+08,-23980,0,2.2244e+07,-104.77,10984,11579,1,11579,1,-0.00067426,-9.9936e-09,0,0.0004407,-0.0001971,-2.7422e+08,-2485.9,0,1.647e+08,792.26,11578,12634,1,12634,1,0.0010606,1.5626e-08,0,0.0012939,0.00012683,2.5807e+08,4259.5,0,3.4065e+08,4430.8,12633,611.88,0,611.88,0,0.0010029,3.0926e-08,0,0.00053013,0.00018731,2.9401e+08,7510.4,0,1.4193e+08,3157.6,611.88,1
2111,5.76,12107,1,12107,1,0.00025035,-1.5684e-09,0,0.00088892,-4.5755e-05,-2.1231e+06,-98.249,0,2.5759e+08,3266.4,12106,13208,1,13208,1,0.0019337,1.0876e-07,0,0.0019337,0.00026651,3.5816e+08,26822,0,5.7746e+08,15867,13207,12107,1,12107,1,0.00019486,2.3325e-10,0,0.00092289,-3.56e-05,6.2769e+07,56.231,0,2.7434e+08,2321,12106,10985,1,10985,1,-0.0014198,-1.3204e-07,0,5.3544e-05,-0.00036004,-5.7746e+08,-25648,0,2.1789e+07,-86.353,10984,11579,1,11579,1,-0.00067456,-1.4463e-08,0,0.00044295,-0.00019778,-2.7434e+08,-3572.3,0,1.6514e+08,754.9,11578,12634,1,12634,1,0.0010643,1.2767e-08,0,0.0012956,0.00012689,2.5825e+08,3452.9,0,3.4026e+08,4564.2,12633,611.88,0,611.88,0,0.0010052,3.2382e-08,0,0.00053165,0.00018774,2.942e+08,7939.5,0,1.4204e+08,3319.1,611.88,1
2111,5.77,12107,1,12107,1,0.0002522,-3.9504e-09,0,0.00089114,-4.6092e-05,-2.1255e+06,-788.95,0,2.5773e+08,3499.3,12106,13208,1,13208,1,0.0019395,1.2008e-07,0,0.0019395,0.00026689,3.577e+08,27709,0,5.7827e+08,16765,13207,12107,1,12107,1,0.00019658,-3.2816e-09,0,0.00092374,-3.5916e-05,6.3242e+07,-878.77,0,2.7442e+08,2511,12106,10985,1,10985,1,-0.0014218,-1.4177e-07,0,5.2395e-05,-0.00036109,-5.7827e+08,-27593,0,2.1328e+07,-66.213,10984,11579,1,11579,1,-0.00067483,-1.8601e-08,0,0.00044524,-0.00019846,-2.7445e+08,-4658.1,0,1.6559e+08,832.24,11578,12634,1,12634,1,0.001068,1.1357e-08,0,0.0012973,0.00012694,2.5842e+08,3042.5,0,3.3987e+08,4880.3,12633,611.88,0,611.88,0,0.0010075,3.5145e-08,0,0.00053318,0.00018816,2.9437e+08,8536.5,0,1.4214e+08,3497.5,611.88,1
2111,5.78,12107,1,12107,1,0.00025406,1.4996e-10,0,0.00089335,-4.6431e-05,-2.1275e+06,220.93,0,2.5788e+08,3720.2,12106,13208,1,13208,1,0.0019452,1.3164e-07,0,0.0019452,0.00026726,3.5722e+08,29999,0,5.7907e+08,17899,13207,12107,1,12107,1,0.00019832,1.1542e-09,0,0.00092456,-3.6234e-05,6.372e+07,302.08,0,2.745e+08,2702,12106,10985,1,10985,1,-0.0014237,-1.4544e-07,0,5.1231e-05,-0.00036215,-5.7907e+08,-28036,0,2.0862e+07,-108.89,10984,11579,1,11579,1,-0.0006751,-1.4973e-08,0,0.00044753,-0.00019915,-2.7456e+08,-3777.8,0,1.6603e+08,899.28,11578,12634,1,12634,1,0.0010718,1.6138e-08,0,0.001299,0.000127,2.5859e+08,4301.6,0,3.3946e+08,5208.8,12633,611.88,0,611.88,0,0.0010099,3.6917e-08,0,0.00053471,0.00018859,2.9455e+08,9022.7,0,1.4224e+08,3687.5,611.88,1
2111,5.79,12107,1,12107,1,0.00025593,2.7092e-09,0,0.00089559,-4.6773e-05,-2.13e+06,901.27,0,2.5802e+08,3986.5,12106,13208,1,13208,1,0.001951,1.4168e-07,0,0.001951,0.00026764,3.5675e+08,31753,0,5.7989e+08,18904,13207,12107,1,12107,1,0.00020007,4.6003e-09,0,0.00092538,-3.6555e-05,6.42e+07,1210.6,0,2.7457e+08,2998.3,12106,10985,1,10985,1,-0.0014258,-1.5504e-07,0,5.0059e-05,-0.00036322,-5.7989e+08,-29784,0,2.0394e+07,-84.711,10984,11579,1,11579,1,-0.00067535,-1.3998e-08,0,0.00044983,-0.00019984,-2.7466e+08,-3482.1,0,1.6647e+08,980.15,11578,12634,1,12634,1,0.0010755,2.0342e-08,0,0.0013007,0.00012705,2.5877e+08,5478.4,0,3.3906e+08,5570.1,12633,611.88,0,611.88,0,0.0010122,3.9753e-08,0,0.00053626,0.00018902,2.9473e+08,9669.2,0,1.4234e+08,3870,611.88,1
2111,5.8,12107,1,12107,1,0.00025783,1.4963e-09,0,0.00089784,-4.7119e-05,-2.1321e+06,660.49,0,2.5816e+08,4219.8,12106,13208,1,13208,1,0.0019568,1.4775e-07,0,0.0019568,0.00026801,3.5627e+08,33923,0,5.807e+08,19788,13207,12107,1,12107,1,0.00020184,3.1266e-09,0,0.00092621,-3.688e-05,6.4685e+07,820.75,0,2.7464e+08,3255.1,12106,10985,1,10985,1,-0.0014277,-1.6567e-07,0,4.8864e-05,-0.00036429,-5.807e+08,-31680,0,1.9917e+07,-91.573,10984,11579,1,11579,1,-0.00067561,-1.6084e-08,0,0.00045214,-0.00020054,-2.7477e+08,-3997.6,0,1.6692e+08,1100.1,11578,12634,1,12634,1,0.0010793,2.0778e-08,0,0.0013024,0.0001271,2.5894e+08,5567.2,0,3.3864e+08,5848.8,12633,611.88,0,611.88,0,0.0010145,4.2422e-08,0,0.00053783,0.00018945,2.949e+08,10263,0,1.4244e+08,4039.5,611.88,1
2111,5.81,12107,1,12107,1,0.00025975,-2.0432e-09,0,0.00090011,-4.747e-05,-2.1339e+06,-222.11,0,2.583e+08,4469.2,12106,13208,1,13208,1,0.0019627,1.5993e-07,0,0.0019627,0.00026839,3.558e+08,35212,0,5.8151e+08,20360,13207,12107,1,12107,1,0.00020364,-9.0213e-10,0,0.00092707,-3.7209e-05,6.5175e+07,-243.37,0,2.7471e+08,3430.2,12106,10985,1,10985,1,-0.0014297,-1.8061e-07,0,4.7654e-05,-0.00036538,-5.8151e+08,-34587,0,1.9435e+07,-158.13,10984,11579,1,11579,1,-0.00067587,-2.1595e-08,0,0.0004545,-0.00020124,-2.7487e+08,-5369.9,0,1.6737e+08,1136.3,11578,12634,1,12634,1,0.0010832,1.8453e-08,0,0.0013041,0.00012715,2.591e+08,4927,0,3.3821e+08,6292.9,12633,611.88,0,611.88,0,0.0010169,4.6185e-08,0,0.00053942,0.00018989,2.9507e+08,10984,0,1.4254e+08,4264.8,611.88,1
2111,5.82,12107,1,12107,1,0.00026169,-9.907e-10,0,0.00090239,-4.7824e-05,-2.1364e+06,19.975,0,2.5844e+08,4714.5,12106,13208,1,13208,1,0.0019686,1.6492e-07,0,0.0019686,0.00026877,3.553e+08,37474,0,5.8233e+08,21485,13207,12107,1,12107,1,0.00020545,8.5426e-10,0,0.00092789,-3.7542e-05,6.5668e+07,220.55,0,2.7477e+08,3685.5,12106,10985,1,10985,1,-0.0014317,-1.8781e-07,0,4.6427e-05,-0.00036647,-5.8233e+08,-35743,0,1.8948e+07,-107.43,10984,11579,1,11579,1,-0.00067611,-2.1088e-08,0,0.00045689,-0.00020196,-2.7497e+08,-5241.5,0,1.6783e+08,1238.8,11578,12634,1,12634,1,0.001087,2.0524e-08,0,0.0013058,0.0001272,2.5926e+08,5401.4,0,3.3778e+08,6585.5,12633,611.88,0,611.88,0,0.0010193,4.8109e-08,0,0.00054101,0.00019033,2.9524e+08,11536,0,1.4265e+08,4452.8,611.88,1
2111,5.83,12107,1,12107,1,0.00026365,4.5645e-09,0,0.00090467,-4.8181e-05,-2.1385e+06,1465,0,2.5857e+08,5087,12106,13208,1,13208,1,0.0019746,1.8914e-07,0,0.0019746,0.00026914,3.5477e+08,39276,0,5.8313e+08,23095,13207,12107,1,12107,1,0.00020728,6.6909e-09,0,0.00092865,-3.7878e-05,6.6165e+07,1723.1,0,2.7482e+08,3942.8,12106,10985,1,10985,1,-0.0014337,-1.9999e-07,0,4.5183e-05,-0.00036756,-5.8313e+08,-37935,0,1.8455e+07,-117.79,10984,11579,1,11579,1,-0.00067631,-1.7141e-08,0,0.00045926,-0.00020267,-2.7505e+08,-4252.4,0,1.6827e+08,1332.4,11578,12634,1,12634,1,0.0010909,2.7336e-08,0,0.0013075,0.00012725,2.5942e+08,7358.6,0,3.3733e+08,7195.1,12633,611.88,0,611.88,0,0.0010216,5.2208e-08,0,0.00054261,0.00019077,2.954e+08,12311,0,1.4275e+08,4791.5,611.88,1
2111,5.84,12107,1,12107,1,0.00026563,-6.5105e-09,0,0.00090701,-4.8542e-05,-2.1408e+06,-1289.2,0,2.5871e+08,5219.3,12106,13208,1,13208,1,0.0019806,1.7938e-07,0,0.0019806,0.00026953,3.543e+08,40644,0,5.8397e+08,23531,13207,12107,1,12107,1,0.00020913,-4.3708e-09,0,0.00092954,-3.8218e-05,6.6666e+07,-1171.2,0,2.7489e+08,3996.7,12106,10985,1,10985,1,-0.0014358,-2.1722e-07,0,4.3933e-05,-0.00036868,-5.8397e+08,-41338,0,1.7961e+07,-45.854,10984,11579,1,11579,1,-0.00067658,-2.9449e-08,0,0.0004617,-0.0002034,-2.7516e+08,-7357.5,0,1.6874e+08,1311.7,11578,12634,1,12634,1,0.0010949,1.7824e-08,0,0.0013092,0.0001273,2.5959e+08,4765.3,0,3.369e+08,7317.1,12633,611.88,0,611.88,0,0.001024,5.421e-08,0,0.00054426,0.00019122,2.9558e+08,12938,0,1.4286e+08,4981.3,611.88,1
2111,5.85,12107,1,12107,1,0.00026763,1.2182e-09,0,0.0009093,-4.8909e-05,-2.1418e+06,564.12,0,2.5883e+08,5594.4,12106,13208,1,13208,1,0.0019866,2.0712e-07,0,0.0019866,0.0002699,3.5373e+08,42056,0,5.8476e+08,25271,13207,12107,1,12107,1,0.00021101,3.8694e-09,0,0.00093028,-3.8562e-05,6.7174e+07,1037.2,0,2.7493e+08,4382.8,12106,10985,1,10985,1,-0.0014377,-2.2942e-07,0,4.2642e-05,-0.00036978,-5.8476e+08,-43562,0,1.7453e+07,-461.97,10984,11579,1,11579,1,-0.00067676,-2.2371e-08,0,0.00046414,-0.00020412,-2.7523e+08,-5570.4,0,1.6919e+08,1454.6,11578,12634,1,12634,1,0.0010988,2.7365e-08,0,0.0013109,0.00012734,2.5974e+08,7415.2,0,3.3642e+08,7907.4,12633,611.88,0,611.88,0,0.0010264,5.9211e-08,0,0.00054588,0.00019166,2.9573e+08,13895,0,1.4295e+08,5260.5,611.88,1
2111,5.86,12107,1,12107,1,0.00026966,1.0282e-09,0,0.00091168,-4.9278e-05,-2.1448e+06,622.05,0,2.5897e+08,5824,12106,13208,1,13208,1,0.0019928,2.1291e-07,0,0.0019928,0.00027029,3.5323e+08,46700,0,5.8561e+08,26132,13207,12107,1,12107,1,0.0002129,3.4989e-09,0,0.00093113,-3.891e-05,6.7684e+07,905.48,0,2.7499e+08,4486.3,12106,10985,1,10985,1,-0.0014398,-2.3049e-07,0,4.1361e-05,-0.00037093,-5.8561e+08,-44452,0,1.695e+07,-156.64,10984,11579,1,11579,1,-0.00067701,-2.4102e-08,0,0.0004666,-0.00020486,-2.7533e+08,-5997.1,0,1.6965e+08,1479.9,11578,12634,1,12634,1,0.0011029,2.7892e-08,0,0.0013127,0.00012739,2.599e+08,7494.8,0,3.3597e+08,8243,12633,611.88,0,611.88,0,0.0010289,6.0075e-08,0,0.00054756,0.00019211,2.9591e+08,14417,0,1.4306e+08,5528.7,611.88,1
2111,5.87,12107,1,12107,1,0.00027172,2.7204e-09,0,0.00091404,-4.9654e-05,-2.1471e+06,1112.4,0,2.5909e+08,6269.6,12106,13208,1,13208,1,0.001999,2.2908e-07,0,0.001999,0.00027067,3.5267e+08,48673,0,5.8643e+08,27510,13207,12107,1,12107,1,0.00021484,6.494e-09,0,0.00093191,-3.9263e-05,6.8203e+07,1711.1,0,2.7503e+08,4934.4,12106,10985,1,10985,1,-0.0014418,-2.5319e-07,0,4.0035e-05,-0.00037206,-5.8643e+08,-47432,0,1.6431e+07,-403.95,10984,11579,1,11579,1,-0.00067719,-2.4549e-08,0,0.00046909,-0.00020561,-2.7541e+08,-5946.8,0,1.7011e+08,1649.9,11578,12634,1,12634,1,0.0011069,3.2711e-08,0,0.0013144,0.00012742,2.6005e+08,8883.8,0,3.3548e+08,8915.3,12633,611.88,0,611.88,0,0.0010313,6.593e-08,0,0.00054924,0.00019257,2.9606e+08,15569,0,1.4317e+08,5819.3,611.88,1
2111,5.88,12107,1,12107,1,0.0002738,2.8986e-10,0,0.00091644,-5.0034e-05,-2.1491e+06,600.86,0,2.5922e+08,6584.6,12106,13208,1,13208,1,0.0020053,2.3949e-07,0,0.0020053,0.00027106,3.5214e+08,52105,0,5.8726e+08,28720,13207,12107,1,12107,1,0.00021679,3.82e-09,0,0.00093273,-3.9622e-05,6.8727e+07,994.63,0,2.7507e+08,5147.7,12106,10985,1,10985,1,-0.0014439,-2.6742e-07,0,3.8698e-05,-0.00037322,-5.8726e+08,-49950,0,1.5911e+07,-226.17,10984,11579,1,11579,1,-0.0006774,-2.8596e-08,0,0.00047162,-0.00020636,-2.7549e+08,-6943,0,1.7057e+08,1715.9,11578,12634,1,12634,1,0.001111,3.1756e-08,0,0.0013161,0.00012747,2.602e+08,8696.7,0,3.35e+08,9337.8,12633,611.88,0,611.88,0,0.0010338,6.9212e-08,0,0.00055095,0.00019303,2.9623e+08,16405,0,1.4328e+08,6149.1,611.88,1
2111,5.89,12107,1,12107,1,0.00027592,-3.0444e-09,0,0.00091886,-5.0421e-05,-2.1508e+06,-207.45,0,2.5934e+08,6989.8,12106,13208,1,13208,1,0.0020116,2.5567e-07,0,0.0020116,0.00027144,3.5158e+08,55291,0,5.8809e+08,30137,13207,12107,1,12107,1,0.00021878,4.2891e-10,0,0.00093354,-3.9986e-05,6.9258e+07,101.78,0,2.7511e+08,5496.5,12106,10985,1,10985,1,-0.0014459,-2.8772e-07,0,3.7331e-05,-0.00037439,-5.8809e+08,-53562,0,1.538e+07,-101.32,10984,11579,1,11579,1,-0.0006776,-3.5062e-08,0,0.00047418,-0.00020713,-2.7557e+08,-8405.7,0,1.7104e+08,1831.8,11578,12634,1,12634,1,0.0011152,3.0983e-08,0,0.0013179,0.00012751,2.6034e+08,8213,0,3.345e+08,9873.8,12633,611.88,0,611.88,0,0.0010363,7.4354e-08,0,0.00055268,0.00019349,2.9639e+08,17524,0,1.4338e+08,6500.5,611.88,1
2111,5.9,12107,1,12107,1,0.00027807,1.2846e-12,0,0.00092132,-5.0813e-05,-2.153e+06,562.97,0,2.5947e+08,7444.5,12106,13208,1,13208,1,0.0020181,2.707e-07,0,0.0020181,0.00027184,3.51e+08,59927,0,5.8895e+08,32514,13207,12107,1,12107,1,0.0002208,3.9177e-09,0,0.00093433,-4.0356e-05,6.9796e+07,996.07,0,2.7515e+08,5871.6,12106,10985,1,10985,1,-0.001448,-3.0389e-07,0,3.5945e-05,-0.00037558,-5.8895e+08,-58092,0,1.4846e+07,-141.2,10984,11579,1,11579,1,-0.00067778,-3.3719e-08,0,0.00047678,-0.00020791,-2.7564e+08,-8136.6,0,1.7122e+08,1893.5,11578,12634,1,12634,1,0.0011194,3.6483e-08,0,0.0013197,0.00012755,2.605e+08,9743.7,0,3.34e+08,10576,12633,611.88,0,611.88,0,0.0010389,7.8759e-08,0,0.00055444,0.00019396,2.9655e+08,18788,0,1.4349e+08,6947.6,611.88,1
2111,5.91,12107,1,12107,1,0.00028025,-5.4147e-09,0,0.00092379,-5.1211e-05,-2.1553e+06,-809.44,0,2.5959e+08,8076.3,12106,13208,1,13208,1,0.0020246,2.985e-07,0,0.0020246,0.00027223,3.5043e+08,63407,0,5.8979e+08,34083,13207,12107,1,12107,1,0.00022285,-3.2158e-09,0,0.00093515,-4.0731e-05,7.0341e+07,-861.66,0,2.7518e+08,6470.6,12106,10985,1,10985,1,-0.0014501,-3.3164e-07,0,3.4527e-05,-0.00037678,-5.8979e+08,-62159,0,1.4301e+07,-56.292,10984,11579,1,11579,1,-0.00067796,-4.3779e-08,0,0.00047942,-0.00020869,-2.7572e+08,-10755,0,1.7103e+08,2125.1,11578,12634,1,12634,1,0.0011237,3.4326e-08,0,0.0013214,0.00012758,2.6063e+08,9016.9,0,3.3348e+08,11463,12633,611.88,0,611.88,0,0.0010414,8.6422e-08,0,0.00055622,0.00019443,2.9671e+08,20381,0,1.436e+08,7388,611.88,1
2111,5.92,12107,1,12107,1,0.00028246,-3.735e-09,0,0.0009263,-5.1615e-05,-2.1577e+06,-458.8,0,2.5971e+08,8604,12106,13208,1,13208,1,0.0020312,3.1882e-07,0,0.0020312,0.00027263,3.4983e+08,68346,0,5.9065e+08,36083,13207,12107,1,12107,1,0.00022493,-1.1513e-09,0,0.00093595,-4.1112e-05,7.0893e+07,-289.25,0,2.752e+08,6987,12106,10985,1,10985,1,-0.0014522,-3.5017e-07,0,3.309e-05,-0.00037799,-5.9065e+08,-67261,0,1.3752e+07,1.4599,10984,11579,1,11579,1,-0.00067814,-4.4811e-08,0,0.00048209,-0.00020949,-2.7579e+08,-11051,0,1.7084e+08,2271.2,11578,12634,1,12634,1,0.0011281,3.8956e-08,0,0.0013232,0.00012762,2.6078e+08,10202,0,3.3295e+08,12181,12633,611.88,0,611.88,0,0.001044,9.2347e-08,0,0.00055802,0.00019491,2.9686e+08,21870,0,1.4371e+08,7782.3,611.88,1
2111,5.93,12107,1,12107,1,0.00028471,-5.0669e-09,0,0.00092881,-5.2023e-05,-2.1599e+06,-866.66,0,2.5982e+08,9300.8,12106,13208,1,13208,1,0.0020378,3.499e-07,0,0.0020378,0.00027302,3.4922e+08,71688,0,5.9149e+08,38253,13207,12107,1,12107,1,0.00022704,-2.7579e-09,0,0.00093673,-4.1498e-05,7.145e+07,-736.78,0,2.7522e+08,7694.5,12106,10985,1,10985,1,-0.0014543,-3.8217e-07,0,3.1622e-05,-0.00037921,-5.9149e+08,-72387,0,1.3193e+07,2.2469,10984,11579,1,11579,1,-0.00067828,-4.9817e-08,0,0.0004848,-0.00021029,-2.7585e+08,-12411,0,1.7063e+08,2591.5,11578,12634,1,12634,1,0.0011324,4.1817e-08,0,0.0013249,0.00012765,2.6091e+08,10736,0,3.3239e+08,13215,12633,611.88,0,611.88,0,0.0010466,1.0128e-07,0,0.00055984,0.00019539,2.9701e+08,23665,0,1.4382e+08,8257.6,611.88,1
2111,5.94,12107,1,12107,1,0.00028698,-8.2296e-10,0,0.00093137,-5.2439e-05,-2.1616e+06,170.94,0,2.5993e+08,9881.2,12106,13208,1,13208,1,0.0020446,3.7589e-07,0,0.0020446,0.00027342,3.4859e+08,78077,0,5.9236e+08,40570,13207,12107,1,12107,1,0.00022919,2.6034e-09,0,0.00093751,-4.189e-05,7.2015e+07,645.19,0,2.7524e+08,8195.7,12106,10985,1,10985,1,-0.0014564,-4.0026e-07,0,3.0136e-05,-0.00038046,-5.9236e+08,-77295,0,1.2632e+07,-0.29742,10984,11579,1,11579,1,-0.00067843,-4.9083e-08,0,0.00048753,-0.00021111,-2.7591e+08,-12124,0,1.7043e+08,2660.3,11578,12634,1,12634,1,0.0011369,4.9064e-08,0,0.0013267,0.00012769,2.6105e+08,12721,0,3.3185e+08,14094,12633,611.88,0,611.88,0,0.0010493,1.0786e-07,0,0.0005617,0.00019588,2.9717e+08,25337,0,1.4394e+08,8770,611.88,1
2111,5.95,12107,1,12107,1,0.0002893,-6.5096e-09,0,0.00093393,-5.2861e-05,-2.1628e+06,-1275.5,0,2.6003e+08,10611,12106,13208,1,13208,1,0.0020514,4.0745e-07,0,0.0020514,0.00027382,3.4797e+08,83040,0,5.932e+08,42657,13207,12107,1,12107,1,0.00023137,-5.666e-09,0,0.00093827,-4.2288e-05,7.2588e+07,-1515.3,0,2.7524e+08,8946.2,12106,10985,1,10985,1,-0.0014585,-4.3725e-07,0,2.8611e-05,-0.00038171,-5.932e+08,-83079,0,1.2057e+07,-157.29,10984,11579,1,11579,1,-0.00067854,-6.0003e-08,0,0.00049031,-0.00021193,-2.7595e+08,-15056,0,1.7021e+08,2905.4,11578,12634,1,12634,1,0.0011414,4.7786e-08,0,0.0013285,0.00012771,2.6118e+08,12320,0,3.3127e+08,15163,12633,611.88,0,611.88,0,0.0010519,1.174e-07,0,0.00056357,0.00019637,2.9731e+08,27467,0,1.4405e+08,9317,611.88,1
2111,5.96,12107,1,12107,1,0.00029164,-3.8603e-09,0,0.00093655,-5.3287e-05,-2.1655e+06,-712.99,0,2.6015e+08,11379,12106,13208,1,13208,1,0.0020583,4.3964e-07,0,0.0020583,0.00027423,3.4733e+08,88678,0,5.9409e+08,45545,13207,12107,1,12107,1,0.00023358,-3.9472e-09,0,0.00093908,-4.2692e-05,7.3167e+07,-1038.1,0,2.7526e+08,9729.6,12106,10985,1,10985,1,-0.0014607,-4.6773e-07,0,2.7075e-05,-0.00038299,-5.9409e+08,-89113,0,1.1482e+07,-43.529,10984,11579,1,11579,1,-0.0006787,-6.161e-08,0,0.0004931,-0.00021277,-2.7601e+08,-15390,0,1.6999e+08,3148.9,11578,12634,1,12634,1,0.0011459,5.5509e-08,0,0.0013303,0.00012775,2.6131e+08,14108,0,3.3071e+08,16234,12633,611.88,0,611.88,0,0.0010546,1.2629e-07,0,0.00056548,0.00019687,2.9747e+08,29462,0,1.4416e+08,9894,611.88,1
2111,5.97,12107,1,12107,1,0.00029403,-5.2679e-09,0,0.00093919,-5.3723e-05,-2.1686e+06,-1039.4,0,2.6025e+08,12232,12106,13208,1,13208,1,0.0020653,4.7336e-07,0,0.0020653,0.00027463,3.4667e+08,94502,0,5.9495e+08,47890,13207,12107,1,12107,1,0.00023583,-5.0708e-09,0,0.00093984,-4.3103e-05,7.3754e+07,-1323.3,0,2.7525e+08,10572,12106,10985,1,10985,1,-0.0014628,-5.0308e-07,0,2.5496e-05,-0.00038428,-5.9495e+08,-95461,0,1.0894e+07,-84.18,10984,11579,1,11579,1,-0.00067881,-6.8574e-08,0,0.00049597,-0.00021362,-2.7606e+08,-17211,0,1.6976e+08,3440.6,11578,12634,1,12634,1,0.0011506,5.9895e-08,0,0.0013321,0.00012777,2.6144e+08,15210,0,3.301e+08,17416,12633,611.88,0,611.88,0,0.0010573,1.3713e-07,0,0.00056741,0.00019737,2.9761e+08,31776,0,1.4428e+08,10452,611.88,1
2111,5.98,12107,1,12107,1,0.00029645,-3.2805e-09,0,0.00094187,-5.4165e-05,-2.1695e+06,-638.79,0,2.6036e+08,13064,12106,13208,1,13208,1,0.0020724,5.1466e-07,0,0.0020724,0.00027504,3.46e+08,1.0137e+05,0,5.9584e+08,51293,13207,12107,1,12107,1,0.00023813,-1.5615e-09,0,0.00094063,-4.3521e-05,7.4353e+07,-428.15,0,2.7526e+08,11347,12106,10985,1,10985,1,-0.001465,-5.3857e-07,0,2.3892e-05,-0.00038559,-5.9584e+08,-1.0173e+05,0,1.03e+07,-6.4859,10984,11579,1,11579,1,-0.00067893,-7.1559e-08,0,0.00049887,-0.00021448,-2.7611e+08,-18028,0,1.6953e+08,3669.1,11578,12634,1,12634,1,0.0011553,6.5305e-08,0,0.001334,0.0001278,2.6157e+08,16612,0,3.2951e+08,18721,12633,611.88,0,611.88,0,0.0010601,1.4774e-07,0,0.00056938,0.00019788,2.9776e+08,34089,0,1.444e+08,11140,611.88,1
2111,5.99,12107,1,12107,1,0.00029894,-1.0206e-09,0,0.0009446,-5.4618e-05,-2.1713e+06,-108.98,0,2.6046e+08,13949,12106,13208,1,13208,1,0.0020797,5.4857e-07,0,0.0020797,0.00027546,3.4531e+08,1.096e+05,0,5.9674e+08,54666,13207,12107,1,12107,1,0.00024048,9.9671e-10,0,0.0009414,-4.3949e-05,7.496e+07,264.58,0,2.7525e+08,12163,12106,10985,1,10985,1,-0.0014672,-5.7873e-07,0,2.2244e-05,-0.00038693,-5.9674e+08,-1.0914e+05,0,9.6918e+06,15,10984,11579,1,11579,1,-0.00067903,-7.4711e-08,0,0.0005018,-0.00021536,-2.7615e+08,-18782,0,1.6929e+08,3913.4,11578,12634,1,12634,1,0.0011601,7.4781e-08,0,0.0013358,0.00012783,2.6169e+08,18847,0,3.2952e+08,19898,12633,611.88,0,611.88,0,0.0010629,1.5893e-07,0,0.00057139,0.0001984,2.9791e+08,36641,0,1.4452e+08,11848,611.88,1
2111,6,12107,1,12107,1,0.00030146,-1.31e-09,0,0.00094736,-5.5077e-05,-2.1753e+06,-169.23,0,2.6056e+08,15149,12106,13208,1,13208,1,0.0020871,5.9625e-07,0,0.0020871,0.00027588,3.4461e+08,1.1814e+05,0,5.9764e+08,58315,13207,12107,1,12107,1,0.00024287,8.5159e-10,0,0.00094218,-4.4385e-05,7.5578e+07,234.48,0,2.7524e+08,13279,12106,10985,1,10985,1,-0.0014694,-6.263e-07,0,2.0564e-05,-0.00038829,-5.9764e+08,-1.1773e+05,0,9.0745e+06,78.599,10984,11579,1,11579,1,-0.00067913,-8.1211e-08,0,0.00050479,-0.00021626,-2.7619e+08,-20456,0,1.6903e+08,4339.8,11578,12634,1,12634,1,0.001165,8.1413e-08,0,0.0013377,0.00012785,2.6181e+08,20438,0,3.297e+08,21732,12633,611.88,0,611.88,0,0.0010658,1.725e-07,0,0.00057344,0.00019893,2.9806e+08,39668,0,1.4464e+08,12727,611.88,1
2111,6.01,12107,1,12107,1,0.00030404,-6.2078e-09,0,0.00095017,-5.5548e-05,-2.1757e+06,-1356.4,0,2.6065e+08,16268,12106,13208,1,13208,1,0.0020946,6.4227e-07,0,0.0020946,0.0002763,3.4391e+08,1.2703e+05,0,5.9855e+08,61767,13207,12107,1,12107,1,0.00024531,-6.4231e-09,0,0.00094294,-4.4831e-05,7.6208e+07,-1684.2,0,2.7522e+08,14256,12106,10985,1,10985,1,-0.0014716,-6.8251e-07,0,1.8837e-05,-0.00038967,-5.9855e+08,-1.272e+05,0,8.4427e+06,-119.28,10984,11579,1,11579,1,-0.00067919,-9.3085e-08,0,0.00050782,-0.00021717,-2.7621e+08,-23689,0,1.6877e+08,4602.4,11578,12634,1,12634,1,0.0011699,8.3358e-08,0,0.0013396,0.00012787,2.6192e+08,20722,0,3.2987e+08,23512,12633,611.88,0,611.88,0,0.0010686,1.8751e-07,0,0.00057553,0.00019946,2.982e+08,42965,0,1.4476e+08,13607,611.88,1
2111,6.02,12107,1,12107,1,0.00030667,-4.0227e-09,0,0.00095302,-5.6026e-05,-2.1781e+06,-899.26,0,2.6075e+08,17562,12106,13208,1,13208,1,0.0021023,6.971e-07,0,0.0021023,0.00027673,3.4318e+08,1.3713e+05,0,5.9948e+08,66005,13207,12107,1,12107,1,0.00024781,-3.5661e-09,0,0.00094372,-4.5285e-05,7.6849e+07,-925.89,0,2.752e+08,15495,12106,10985,1,10985,1,-0.0014739,-7.3712e-07,0,1.7075e-05,-0.00039108,-5.9948e+08,-1.3762e+05,0,7.8005e+06,49.003,10984,11579,1,11579,1,-0.00067927,-9.9371e-08,0,0.00051089,-0.0002181,-2.7624e+08,-25129,0,1.685e+08,5013.5,11578,12634,1,12634,1,0.001175,9.3252e-08,0,0.0013415,0.00012789,2.6204e+08,23193,0,3.3004e+08,25325,12633,611.88,0,611.88,0,0.0010716,2.0359e-07,0,0.00057766,0.0002,2.9834e+08,46550,0,1.4488e+08,14574,611.88,1
2111,6.03,12107,1,12107,1,0.00030936,4.0047e-10,0,0.00095593,-5.6515e-05,-2.1803e+06,184.8,0,2.6084e+08,18927,12106,13208,1,13208,1,0.0021101,7.5783e-07,0,0.0021101,0.00027717,3.4242e+08,1.4882e+05,0,6.0042e+08,70725,13207,12107,1,12107,1,0.00025037,3.6317e-09,0,0.00094448,-4.575e-05,7.7503e+07,961.39,0,2.7517e+08,16783,12106,10985,1,10985,1,-0.0014762,-7.9391e-07,0,1.5268e-05,-0.00039252,-6.0042e+08,-1.4885e+05,0,7.144e+06,20.438,10984,11579,1,11579,1,-0.00067933,-1.0263e-07,0,0.00051404,-0.00021905,-2.7627e+08,-25995,0,1.6822e+08,5406.9,11578,12634,1,12634,1,0.0011802,1.0707e-07,0,0.0013434,0.00012791,2.6215e+08,26570,0,3.3021e+08,27315,12633,611.88,0,611.88,0,0.0010746,2.2079e-07,0,0.00057983,0.00020056,2.9849e+08,50480,0,1.4501e+08,15645,611.88,1
2111,6.04,12107,1,12107,1,0.0003121,-6.3761e-09,0,0.00095888,-5.7013e-05,-2.1822e+06,-1391.1,0,2.6093e+08,20557,12106,13208,1,13208,1,0.002118,8.2456e-07,0,0.002118,0.0002776,3.4168e+08,1.6068e+05,0,6.0136e+08,74840,13207,12107,1,12107,1,0.00025298,-5.9617e-09,0,0.00094524,-4.6223e-05,7.817e+07,-1531.6,0,2.7513e+08,18447,12106,10985,1,10985,1,-0.0014785,-8.7213e-07,0,1.3414e-05,-0.00039398,-6.0136e+08,-1.6107e+05,0,6.4724e+06,-16.259,10984,11579,1,11579,1,-0.00067937,-1.2096e-07,0,0.00051722,-0.00022001,-2.7628e+08,-30439,0,1.6793e+08,5932.1,11578,12634,1,12634,1,0.0011855,1.1026e-07,0,0.0013453,0.00012793,2.6226e+08,27433,0,3.3037e+08,29757,12633,611.88,0,611.88,0,0.0010776,2.4244e-07,0,0.00058205,0.00020112,2.9862e+08,55070,0,1.4514e+08,16770,611.88,1
2111,6.05,12107,1,12107,1,0.00031491,-2.9747e-10,0,0.0009619,-5.7523e-05,-2.1844e+06,14.599,0,2.6101e+08,22140,12106,13208,1,13208,1,0.0021262,8.9906e-07,0,0.0021262,0.00027805,3.4088e+08,1.7457e+05,0,6.0232e+08,80125,13207,12107,1,12107,1,0.00025566,2.9678e-09,0,0.000946,-4.6708e-05,7.8849e+07,757.53,0,2.7509e+08,20059,12106,10985,1,10985,1,-0.0014809,-9.4038e-07,0,1.1514e-05,-0.00039548,-6.0232e+08,-1.7403e+05,0,5.7865e+06,86.388,10984,11579,1,11579,1,-0.00067942,-1.2442e-07,0,0.00052048,-0.000221,-2.763e+08,-31745,0,1.6763e+08,6454.8,11578,12634,1,12634,1,0.0011909,1.2761e-07,0,0.0013473,0.00012794,2.6236e+08,31769,0,3.3054e+08,32249,12633,611.88,0,611.88,0,0.0010807,2.6378e-07,0,0.00058432,0.00020169,2.9876e+08,59773,0,1.4528e+08,17891,611.88,1
2111,6.06,12107,1,12107,1,0.00031779,-4.7439e-09,0,0.00096498,-5.8044e-05,-2.1865e+06,-975.15,0,2.611e+08,24111,12106,13208,1,13208,1,0.0021346,9.7646e-07,0,0.0021346,0.00027851,3.4011e+08,1.8946e+05,0,6.0331e+08,85181,13207,12107,1,12107,1,0.00025841,-3.3187e-09,0,0.00094679,-4.7206e-05,7.9546e+07,-829.78,0,2.7505e+08,22025,12106,10985,1,10985,1,-0.0014833,-1.0294e-06,0,9.5589e-06,-0.00039702,-6.0331e+08,-1.8905e+05,0,5.083e+06,68.927,10984,11579,1,11579,1,-0.00067945,-1.4204e-07,0,0.0005238,-0.00022202,-2.7631e+08,-35575,0,1.6732e+08,7021.5,11578,12634,1,12634,1,0.0011965,1.3656e-07,0,0.0013494,0.00012796,2.6247e+08,33941,0,3.307e+08,35098,12633,611.88,0,611.88,0,0.0010839,2.8898e-07,0,0.00058665,0.00020227,2.9891e+08,65278,0,1.4541e+08,19344,611.88,1
2111,6.07,12107,1,12107,1,0.00032075,-4.5143e-09,0,0.00096814,-5.8579e-05,-2.1886e+06,-944.01,0,2.6118e+08,26200,12106,13208,1,13208,1,0.0021431,1.0679e-06,0,0.0021431,0.00027897,3.3929e+08,2.0605e+05,0,6.0431e+08,91145,13207,12107,1,12107,1,0.00026124,-2.1571e-09,0,0.00094756,-4.7718e-05,8.026e+07,-537.25,0,2.75e+08,24095,12106,10985,1,10985,1,-0.0014858,-1.1233e-06,0,7.5403e-06,-0.0003986,-6.0431e+08,-2.0591e+05,0,4.3574e+06,194.65,10984,11579,1,11579,1,-0.00067947,-1.5574e-07,0,0.00052719,-0.00022306,-2.7632e+08,-39215,0,1.67e+08,7764.9,11578,12634,1,12634,1,0.0012022,1.5183e-07,0,0.0013514,0.00012797,2.6257e+08,37333,0,3.3086e+08,38371,12633,611.88,0,611.88,0,0.0010871,3.169e-07,0,0.00058905,0.00020287,2.9905e+08,71392,0,1.4555e+08,20834,611.88,1
2111,6.08,12107,1,12107,1,0.00032378,-6.0876e-09,0,0.00097134,-5.9127e-05,-2.1911e+06,-1330.3,0,2.6126e+08,28579,12106,13208,1,13208,1,0.0021519,1.1717e-06,0,0.0021519,0.00027944,3.3845e+08,2.2354e+05,0,6.0531e+08,97408,13207,12107,1,12107,1,0.00026415,-5.4197e-09,0,0.00094831,-4.8243e-05,8.099e+07,-1358,0,2.7493e+08,26487,12106,10985,1,10985,1,-0.0014883,-1.231e-06,0,5.4608e-06,-0.00040021,-6.0531e+08,-2.2354e+05,0,3.6109e+06,159.56,10984,11579,1,11579,1,-0.00067945,-1.733e-07,0,0.00053063,-0.00022413,-2.7631e+08,-43475,0,1.6665e+08,8565.6,11578,12634,1,12634,1,0.001208,1.6613e-07,0,0.0013535,0.00012797,2.6266e+08,40814,0,3.3101e+08,41974,12633,611.88,0,611.88,0,0.0010904,3.49e-07,0,0.00059149,0.00020348,2.9918e+08,78144,0,1.4569e+08,22482,611.88,1
2111,6.09,12107,1,12107,1,0.0003269,-2.1555e-09,0,0.00097465,-5.9689e-05,-2.1936e+06,-406.6,0,2.6134e+08,31086,12106,13208,1,13208,1,0.0021609,1.2833e-06,0,0.0021609,0.00027993,3.3759e+08,2.441e+05,0,6.0636e+08,1.0432e+05,13207,12107,1,12107,1,0.00026714,1.4622e-09,0,0.00094908,-4.8782e-05,8.1739e+07,388.52,0,2.7487e+08,28969,12106,10985,1,10985,1,-0.0014908,-1.3411e-06,0,3.3262e-06,-0.00040188,-6.0636e+08,-2.4391e+05,0,2.8459e+06,245.78,10984,11579,1,11579,1,-0.00067946,-1.8734e-07,0,0.00053417,-0.00022522,-2.7632e+08,-46907,0,1.6631e+08,9329.3,11578,12634,1,12634,1,0.001214,1.8801e-07,0,0.0013556,0.00012799,2.6277e+08,46288,0,3.3118e+08,45881,12633,611.88,0,611.88,0,0.0010938,3.8279e-07,0,0.00059402,0.0002041,2.9933e+08,85540,0,1.4585e+08,24245,611.88,1
2111,6.1,12107,1,12107,1,0.00033012,-4.3117e-09,0,0.00097805,-6.0271e-05,-2.1952e+06,-836.06,0,2.6142e+08,33902,12106,13208,1,13208,1,0.0021703,1.4056e-06,0,0.0021703,0.00028043,3.3672e+08,2.6673e+05,0,6.0743e+08,1.1149e+05,13207,12107,1,12107,1,0.00027025,-1.3969e-10,0,0.00094987,-4.934e-05,8.2513e+07,-21.056,0,2.748e+08,31947,12106,10985,1,10985,1,-0.0014935,-1.4733e-06,0,1.105e-06,-0.0004036,-6.0743e+08,-2.6687e+05,0,2.0509e+06,275.14,10984,11579,1,11579,1,-0.00067945,-2.0921e-07,0,0.00053781,-0.00022636,-2.7631e+08,-51924,0,1.6594e+08,10164,11578,12634,1,12634,1,0.0012202,2.0855e-07,0,0.0013578,0.000128,2.6286e+08,50703,0,3.3133e+08,50286,12633,611.88,0,611.88,0,0.0010973,4.2182e-07,0,0.00059663,0.00020475,2.9947e+08,93993,0,1.46e+08,26212,611.88,1
2111,6.11,12107,1,12107,1,0.00033344,-8.2983e-09,0,0.00098158,-6.0869e-05,-2.1974e+06,-1760.9,0,2.6149e+08,37088,12106,13208,1,13208,1,0.0021799,1.543e-06,0,0.0021799,0.00028093,3.3582e+08,2.9188e+05,0,6.0852e+08,1.1922e+05,13207,12107,1,12107,1,0.00027346,-6.2177e-09,0,0.00095158,-4.9918e-05,8.3311e+07,-1595.1,0,2.7472e+08,35107,12106,10985,1,10985,1,-0.0014962,-1.6198e-06,0,2.3476e-07,-0.00040538,-6.0852e+08,-2.9265e+05,0,1.2264e+06,215.22,10984,11579,1,11579,1,-0.0006794,-2.3864e-07,0,0.00054151,-0.00022753,-2.7629e+08,-58818,0,1.6556e+08,11050,11578,12634,1,12634,1,0.0012267,2.2773e-07,0,0.0013629,0.000128,2.6295e+08,55658,0,3.3148e+08,55320,12633,611.88,0,611.88,0,0.0011008,4.6587e-07,0,0.00059925,0.00020541,2.9961e+08,1.0354e+05,0,1.4616e+08,28424,611.88,1
2111,6.12,12107,1,12107,1,0.00033688,-6.6092e-09,0,0.00098532,-6.1487e-05,-2.1994e+06,-1406,0,2.6156e+08,40672,12106,13208,1,13208,1,0.0021899,1.7117e-06,0,0.0021899,0.00028145,3.3488e+08,3.1941e+05,0,6.0964e+08,1.2791e+05,13207,12107,1,12107,1,0.00027679,-5.1151e-09,0,0.00095366,-5.0511e-05,8.4133e+07,-1259.3,0,2.7462e+08,38695,12106,10985,1,10985,1,-0.0014989,-1.7856e-06,0,8.9245e-07,-0.00040721,-6.0964e+08,-3.1974e+05,0,3.733e+05,340.81,10984,11579,1,11579,1,-0.00067935,-2.6411e-07,0,0.00054277,-0.00022874,-2.7627e+08,-64432,0,1.6515e+08,12134,11578,12634,1,12634,1,0.0012333,2.556e-07,0,0.00137,0.000128,2.6304e+08,62301,0,3.3163e+08,60879,12633,611.88,0,611.88,0,0.0011045,5.1774e-07,0,0.00060179,0.00020609,2.9975e+08,1.1429e+05,0,1.4632e+08,30800,611.88,1
2111,6.13,12107,1,12107,1,0.00034043,-3.3509e-09,0,0.0009892,-6.2125e-05,-2.2017e+06,-597.92,0,2.6165e+08,44567,12106,13208,1,13208,1,0.0022002,1.8858e-06,0,0.0022002,0.00028199,3.3392e+08,3.5108e+05,0,6.108e+08,1.371e+05,13207,12107,1,12107,1,0.00028024,3.0964e-09,0,0.00095884,-5.1128e-05,8.4983e+07,712.37,0,2.7452e+08,42638,12106,10985,1,10985,1,-0.0015018,-1.9623e-06,0,3.0048e-06,-0.00040911,-6.108e+08,-3.5084e+05,0,86952,410.05,10984,11579,1,11579,1,-0.00067929,-2.894e-07,0,0.00054223,-0.00022999,-2.7625e+08,-70936,0,1.6473e+08,13271,11578,12634,1,12634,1,0.0012402,2.893e-07,0,0.0013774,0.00012801,2.6312e+08,70572,0,3.3178e+08,67136,12633,611.88,0,611.88,0,0.0011083,5.7299e-07,0,0.0006044,0.00020679,2.999e+08,1.2607e+05,0,1.4646e+08,33392,611.88,1
2111,6.14,12107,1,12107,1,0.00034412,-4.1947e-09,0,0.0009932,-6.2784e-05,-2.204e+06,-727.13,0,2.6176e+08,49056,12106,13208,1,13208,1,0.0022109,2.0913e-06,0,0.0022109,0.00028254,3.3293e+08,3.8514e+05,0,6.1197e+08,1.4692e+05,13207,12107,1,12107,1,0.00028384,3.028e-09,0,0.00096413,-5.1766e-05,8.5863e+07,782.21,0,2.744e+08,47031,12106,10985,1,10985,1,-0.0015047,-2.1735e-06,0,5.2313e-06,-0.00041108,-6.1197e+08,-3.8512e+05,0,2.6738e+05,438.97,10984,11579,1,11579,1,-0.00067919,-3.2381e-07,0,0.00054163,-0.00023129,-2.762e+08,-79070,0,1.6428e+08,14678,11578,12634,1,12634,1,0.0012473,3.23e-07,0,0.001385,0.000128,2.632e+08,78440,0,3.3159e+08,74528,12633,611.88,0,611.88,0,0.0011122,6.3825e-07,0,0.00060709,0.00020751,3.0003e+08,1.3961e+05,0,1.4654e+08,36399,611.88,1
2111,6.15,12107,1,12107,1,0.00034794,-4.753e-09,0,0.00099735,-6.3468e-05,-2.2064e+06,-704.58,0,2.6189e+08,53978,12106,13208,1,13208,1,0.0022221,2.3119e-06,0,0.0022221,0.00028311,3.3192e+08,4.2407e+05,0,6.1321e+08,1.5732e+05,13207,12107,1,12107,1,0.00028758,4.0422e-09,0,0.00096958,-5.243e-05,8.6776e+07,1039.9,0,2.7429e+08,52064,12106,10985,1,10985,1,-0.0015077,-2.4045e-06,0,7.5254e-06,-0.00041314,-6.1321e+08,-4.2356e+05,0,1.049e+06,545.38,10984,11579,1,11579,1,-0.0006791,-3.6187e-07,0,0.00054101,-0.00023265,-2.7616e+08,-88132,0,1.6382e+08,16244,11578,12634,1,12634,1,0.0012548,3.6233e-07,0,0.001393,0.00012801,2.6328e+08,87991,0,3.3044e+08,82606,12633,611.88,0,611.88,0,0.0011163,7.0987e-07,0,0.00060991,0.00020826,3.0018e+08,1.5463e+05,0,1.4661e+08,39659,611.88,1
2111,6.16,12107,1,12107,1,0.00035193,-6.9178e-09,0,0.0010017,-6.418e-05,-2.2089e+06,-1070.7,0,2.6202e+08,59489,12106,13208,1,13208,1,0.0022338,2.5642e-06,0,0.0022338,0.0002837,3.3088e+08,4.6764e+05,0,6.1448e+08,1.6852e+05,13207,12107,1,12107,1,0.0002915,1.8764e-09,0,0.00097519,-5.3123e-05,8.7728e+07,457.67,0,2.7415e+08,57885,12106,10985,1,10985,1,-0.0015108,-2.6672e-06,0,9.9016e-06,-0.00041529,-6.1448e+08,-4.666e+05,0,1.8888e+06,577.88,10984,11579,1,11579,1,-0.00067897,-4.0931e-07,0,0.00054035,-0.00023406,-2.7611e+08,-99010,0,1.6333e+08,18160,11578,12634,1,12634,1,0.0012626,4.0382e-07,0,0.0014014,0.000128,2.6335e+08,98288,0,3.2922e+08,91767,12633,611.88,0,611.88,0,0.0011205,7.9195e-07,0,0.00061284,0.00020904,3.0033e+08,1.7167e+05,0,1.4668e+08,43286,611.88,1
2111,6.17,12107,1,12107,1,0.00035609,-5.2195e-09,0,0.0010061,-6.4921e-05,-2.211e+06,-515.61,0,2.6214e+08,65719,12106,13208,1,13208,1,0.002246,2.8526e-06,0,0.002246,0.00028432,3.2979e+08,5.1694e+05,0,6.158e+08,1.8088e+05,13207,12107,1,12107,1,0.00029561,7.8972e-09,0,0.00098092,-5.3846e-05,8.872e+07,1992.3,0,2.74e+08,64826,12106,10985,1,10985,1,-0.0015141,-2.9613e-06,0,1.2359e-05,-0.00041753,-6.158e+08,-5.1499e+05,0,2.7575e+06,570,10984,11579,1,11579,1,-0.00067882,-4.5671e-07,0,0.00053963,-0.00023553,-2.7605e+08,-1.1077e+05,0,1.628e+08,20108,11578,12634,1,12634,1,0.0012707,4.5871e-07,0,0.0014101,0.000128,2.6342e+08,1.1009e+05,0,3.2794e+08,1.0236e+05,12633,611.88,0,611.88,0,0.0011248,8.8523e-07,0,0.0006159,0.00020984,3.0047e+08,1.9107e+05,0,1.4676e+08,47399,611.88,1
2111,6.18,12107,1,12107,1,0.00036042,-1.434e-08,0,0.0010108,-6.569e-05,-2.2126e+06,-2409.6,0,2.6227e+08,72580,12106,13208,1,13208,1,0.0022588,3.1728e-06,0,0.0022588,0.00028496,3.287e+08,5.7287e+05,0,6.1719e+08,1.9327e+05,13207,12107,1,12107,1,0.00029992,-4.2586e-09,0,0.0009869,-5.4601e-05,8.976e+07,-1098.4,0,2.7385e+08,72098,12106,10985,1,10985,1,-0.0015175,-3.2997e-06,0,1.4888e-05,-0.00041989,-6.1719e+08,-5.7024e+05,0,3.6493e+06,702.81,10984,11579,1,11579,1,-0.00067867,-5.2643e-07,0,0.00053889,-0.00023709,-2.7599e+08,-1.2814e+05,0,1.6226e+08,22333,11578,12634,1,12634,1,0.0012793,5.0405e-07,0,0.0014193,0.00012799,2.6349e+08,1.2286e+05,0,3.2661e+08,1.1452e+05,12633,611.88,0,611.88,0,0.0011294,9.922e-07,0,0.00061911,0.00021068,3.0063e+08,2.1313e+05,0,1.4685e+08,51910,611.88,1
2111,6.19,12107,1,12107,1,0.000365,-9.3496e-09,0,0.0010157,-6.6503e-05,-2.2154e+06,-1376.4,0,2.6239e+08,80436,12106,13208,1,13208,1,0.0022724,3.5347e-06,0,0.0022724,0.00028564,3.2752e+08,6.3693e+05,0,6.1863e+08,2.079e+05,13207,12107,1,12107,1,0.00030449,2.1038e-09,0,0.00099302,-5.5395e-05,9.0846e+07,562.56,0,2.7367e+08,80348,12106,10985,1,10985,1,-0.001521,-3.6793e-06,0,1.7532e-05,-0.00042239,-6.1863e+08,-6.3267e+05,0,4.5785e+06,864.28,10984,11579,1,11579,1,-0.00067847,-5.8951e-07,0,0.00053807,-0.00023872,-2.759e+08,-1.4211e+05,0,1.6167e+08,25002,11578,12634,1,12634,1,0.0012884,5.8273e-07,0,0.001429,0.00012798,2.6355e+08,1.3959e+05,0,3.252e+08,1.29e+05,12633,611.88,0,611.88,0,0.0011341,1.1147e-06,0,0.00062249,0.00021156,3.0078e+08,2.3849e+05,0,1.4694e+08,56993,611.88,1
2111,6.2,12107,1,12107,1,0.00036982,-1.6656e-08,0,0.0010208,-6.7355e-05,-2.2177e+06,-2899.3,0,2.6251e+08,89605,12106,13208,1,13208,1,0.0022867,3.9636e-06,0,0.0022867,0.00028634,3.2633e+08,7.0753e+05,0,6.2014e+08,2.2262e+05,13207,12107,1,12107,1,0.00030933,-6.8949e-09,0,0.00099936,-5.6233e-05,9.1995e+07,-1680.3,0,2.7347e+08,90602,12106,10985,1,10985,1,-0.0015247,-4.1288e-06,0,2.0258e-05,-0.00042503,-6.2014e+08,-7.0403e+05,0,5.5319e+06,1082.3,10984,11579,1,11579,1,-0.00067823,-6.7822e-07,0,0.00053718,-0.00024044,-2.758e+08,-1.6297e+05,0,1.6118e+08,28164,11578,12634,1,12634,1,0.001298,6.5367e-07,0,0.0014393,0.00012797,2.636e+08,1.5761e+05,0,3.237e+08,1.4552e+05,12633,611.88,0,611.88,0,0.0011391,1.2605e-06,0,0.00062605,0.00021248,3.0093e+08,2.6783e+05,0,1.4703e+08,62944,611.88,1
2111,6.21,12107,1,12107,1,0.0003749,-1.9638e-08,0,0.0010262,-6.8251e-05,-2.2202e+06,-3554.3,0,2.6263e+08,99896,12106,13208,1,13208,1,0.002302,4.4536e-06,0,0.002302,0.00028708,3.2508e+08,7.8964e+05,0,6.2173e+08,2.3884e+05,13207,12107,1,12107,1,0.00031447,-1.0866e-08,0,0.0010059,-5.7119e-05,9.3209e+07,-2677.3,0,2.7325e+08,1.0053e+05,12106,10985,1,10985,1,-0.0015287,-4.6282e-06,0,2.3091e-05,-0.00042784,-6.2173e+08,-7.8651e+05,0,6.5172e+06,1074.7,10984,11579,1,11579,1,-0.00067798,-7.664e-07,0,0.00053623,-0.00024228,-2.757e+08,-1.8593e+05,0,1.6115e+08,31860,11578,12634,1,12634,1,0.0013081,7.4349e-07,0,0.0014502,0.00012796,2.6365e+08,1.7959e+05,0,3.2212e+08,1.6372e+05,12633,611.88,0,611.88,0,0.0011444,1.4254e-06,0,0.00062982,0.00021345,3.0109e+08,3.0153e+05,0,1.4714e+08,69651,611.88,1
2111,6.22,12107,1,12107,1,0.00038026,-1.8386e-08,0,0.0010318,-6.9195e-05,-2.2228e+06,-3179.8,0,2.6275e+08,1.1176e+05,12106,13208,1,13208,1,0.0023182,5.0305e-06,0,0.0023182,0.00028785,3.2378e+08,8.8235e+05,0,6.234e+08,2.5585e+05,13207,12107,1,12107,1,0.00031995,-5.8413e-09,0,0.0010126,-5.8054e-05,9.4492e+07,-1415.8,0,2.73e+08,1.1203e+05,12106,10985,1,10985,1,-0.0015327,-5.2142e-06,0,2.6029e-05,-0.00043082,-6.234e+08,-8.7882e+05,0,7.5321e+06,1109.6,10984,11579,1,11579,1,-0.00067765,-8.731e-07,0,0.00053517,-0.00024422,-2.7556e+08,-2.1218e+05,0,1.6112e+08,36035,11578,12634,1,12634,1,0.001319,8.5621e-07,0,0.0014618,0.00012794,2.6368e+08,2.0566e+05,0,3.2042e+08,1.8594e+05,12633,611.88,0,611.88,0,0.0011499,1.622e-06,0,0.0006338,0.00021447,3.0124e+08,3.4065e+05,0,1.4725e+08,77377,611.88,1
2111,6.23,12107,1,12107,1,0.00038595,-2.0019e-08,0,0.0010378,-7.0194e-05,-2.2259e+06,-3493.3,0,2.6287e+08,1.2529e+05,12106,13208,1,13208,1,0.0023356,5.6843e-06,0,0.0023356,0.00028869,3.2244e+08,9.9001e+05,0,6.2519e+08,2.7355e+05,13207,12107,1,12107,1,0.00032581,-6.7016e-09,0,0.0010196,-5.9046e-05,9.5858e+07,-1562.9,0,2.7274e+08,1.2568e+05,12106,10985,1,10985,1,-0.0015372,-5.879e-06,0,2.9063e-05,-0.00043402,-6.2519e+08,-9.8736e+05,0,8.5715e+06,1598.9,10984,11579,1,11579,1,-0.00067732,-1.0011e-06,0,0.00053406,-0.0002463,-2.7542e+08,-2.4331e+05,0,1.6193e+08,41242,11578,12634,1,12634,1,0.0013306,9.875e-07,0,0.0014743,0.00012793,2.6372e+08,2.3501e+05,0,3.1864e+08,2.0866e+05,12633,611.88,0,611.88,0,0.0011557,1.8484e-06,0,0.00063805,0.00021555,3.0141e+08,3.8602e+05,0,1.4738e+08,86257,611.88,1
2111,6.24,12107,1,12107,1,0.00039202,-2.247e-08,0,0.0010442,-7.1257e-05,-2.2263e+06,-3935,0,2.6298e+08,1.4078e+05,12106,13208,1,13208,1,0.0023544,6.4543e-06,0,0.0023544,0.00028957,3.2104e+08,1.1128e+06,0,6.2708e+08,2.9187e+05,13207,12107,1,12107,1,0.00033213,-6.3497e-09,0,0.0010267,-6.0107e-05,9.732e+07,-1594.4,0,2.7244e+08,1.4143e+05,12106,10985,1,10985,1,-0.0015418,-6.6578e-06,0,3.2223e-05,-0.00043747,-6.2708e+08,-1.1088e+06,0,9.6439e+06,1620.8,10984,11579,1,11579,1,-0.00067691,-1.1515e-06,0,0.0005328,-0.00024853,-2.7525e+08,-2.8037e+05,0,1.6282e+08,45291,11578,12634,1,12634,1,0.0013431,1.1408e-06,0,0.0014877,0.00012791,2.6375e+08,2.7066e+05,0,3.167e+08,2.3613e+05,12633,611.88,0,611.88,0,0.0011619,2.117e-06,0,0.00064258,0.00021668,3.0157e+08,4.3898e+05,0,1.4751e+08,96593,611.88,1
2111,6.25,12107,1,12107,1,0.0003985,-2.1329e-08,0,0.0010509,-7.2387e-05,-2.2295e+06,-3555.9,0,2.6308e+08,1.5868e+05,12106,13208,1,13208,1,0.0023746,7.3383e-06,0,0.0023746,0.00029051,3.1958e+08,1.2562e+06,0,6.2911e+08,3.1756e+05,13207,12107,1,12107,1,0.00033896,-3.0467e-09,0,0.001034,-6.1241e-05,9.8888e+07,-521.44,0,2.7211e+08,1.5866e+05,12106,10985,1,10985,1,-0.0015468,-7.5503e-06,0,3.5487e-05,-0.00044121,-6.2911e+08,-1.2516e+06,0,1.0739e+07,2304.6,10984,11579,1,11579,1,-0.00067645,-1.3338e-06,0,0.00053144,-0.00025093,-2.7506e+08,-3.2376e+05,0,1.6371e+08,48988,11578,12634,1,12634,1,0.0013566,1.3256e-06,0,0.0015022,0.00012789,2.6376e+08,3.1428e+05,0,3.1463e+08,2.6506e+05,12633,611.88,0,611.88,0,0.0011685,2.4318e-06,0,0.00064744,0.0002179,3.0174e+08,5.0097e+05,0,1.4766e+08,1.0863e+05,611.88,1
2111,6.26,12107,1,12107,1,0.00040545,-2.0162e-08,0,0.0010581,-7.3595e-05,-2.2311e+06,-3011.1,0,2.6318e+08,1.7946e+05,12106,13208,1,13208,1,0.0023967,8.3846e-06,0,0.0023967,0.00029152,3.1808e+08,1.4192e+06,0,6.3127e+08,3.5976e+05,13207,12107,1,12107,1,0.00034638,4.7251e-09,0,0.0010415,-6.2455e-05,1.0058e+08,1122.9,0,2.7174e+08,1.8171e+05,12106,10985,1,10985,1,-0.0015521,-8.6066e-06,0,3.8856e-05,-0.00044526,-6.3127e+08,-1.4128e+06,0,1.1855e+07,2442.2,10984,11579,1,11579,1,-0.00067589,-1.5388e-06,0,0.00052991,-0.00025353,-2.7482e+08,-3.7439e+05,0,1.6463e+08,54453,11578,12634,1,12634,1,0.0013713,1.5405e-06,0,0.001518,0.00012784,2.6375e+08,3.6568e+05,0,3.1238e+08,2.9713e+05,12633,611.88,0,611.88,0,0.0011754,2.8101e-06,0,0.00065266,0.00021918,3.019e+08,5.7404e+05,0,1.4783e+08,1.2296e+05,611.88,1
2111,6.27,12107,1,12107,1,0.00041291,-2.7853e-08,0,0.0010658,-7.489e-05,-2.2335e+06,-4349.9,0,2.6327e+08,2.0336e+05,12106,13208,1,13208,1,0.0024208,9.5891e-06,0,0.0024208,0.00029262,3.1653e+08,1.608e+06,0,6.3362e+08,4.2054e+05,13207,12107,1,12107,1,0.00035448,-1.8005e-09,0,0.0010491,-6.3765e-05,1.024e+08,-535.51,0,2.7132e+08,2.092e+05,12106,10985,1,10985,1,-0.0015579,-9.8334e-06,0,4.2322e-05,-0.0004497,-6.3362e+08,-1.6021e+06,0,1.2988e+07,2533.7,10984,11579,1,11579,1,-0.00067527,-1.8167e-06,0,0.00052823,-0.00025637,-2.7456e+08,-4.3484e+05,0,1.6555e+08,62795,11578,12634,1,12634,1,0.0013874,1.7866e-06,0,0.0015352,0.00012777,2.6374e+08,4.268e+05,0,3.0995e+08,3.4002e+05,12633,611.88,0,611.88,0,0.0011829,3.2575e-06,0,0.0006583,0.00022056,3.0207e+08,6.6022e+05,0,1.4801e+08,1.3994e+05,611.88,1
2111,6.28,12107,1,12107,1,0.00042098,-3.3271e-08,0,0.0010741,-7.6283e-05,-2.2354e+06,-5178.5,0,2.6335e+08,2.3097e+05,12106,13208,1,13208,1,0.0024474,1.1004e-05,0,0.0024474,0.00029381,3.1493e+08,1.8273e+06,0,6.3617e+08,4.9777e+05,13207,12107,1,12107,1,0.00036338,-3.5277e-09,0,0.0010568,-6.518e-05,1.0439e+08,-886.17,0,2.7085e+08,2.342e+05,12106,10985,1,10985,1,-0.0015642,-1.1262e-05,0,4.5902e-05,-0.0004546,-6.3617e+08,-1.8204e+06,0,1.414e+07,2532.1,10984,11579,1,11579,1,-0.00067455,-2.1442e-06,0,0.00052636,-0.00025948,-2.7426e+08,-5.1132e+05,0,1.6649e+08,73246,11578,12634,1,12634,1,0.0014051,2.0999e-06,0,0.0015494,0.00012768,2.637e+08,4.9994e+05,0,3.0729e+08,3.7525e+05,12633,611.88,0,611.88,0,0.001191,3.795e-06,0,0.00066442,0.00022204,3.0224e+08,7.6255e+05,0,1.4822e+08,1.6046e+05,611.88,1
2111,6.29,12107,1,12107,1,0.00042974,-2.9412e-08,0,0.0010831,-7.779e-05,-2.2365e+06,-3956.7,0,2.6342e+08,2.628e+05,12106,13208,1,13208,1,0.0024771,1.2666e-05,0,0.0024771,0.00029511,3.1324e+08,2.0837e+06,0,6.3896e+08,5.9344e+05,13207,12107,1,12107,1,0.00037324,4.9566e-09,0,0.0010645,-6.6719e-05,1.0657e+08,1630.3,0,2.7031e+08,2.5546e+05,12106,10985,1,10985,1,-0.001571,-1.2911e-05,0,4.9583e-05,-0.00046005,-6.3896e+08,-2.0724e+06,0,1.5307e+07,2492.1,10984,11579,1,11579,1,-0.0006737,-2.5179e-06,0,0.00052424,-0.00026291,-2.739e+08,-6.0059e+05,0,1.6742e+08,84854,11578,12634,1,12634,1,0.0014247,2.4893e-06,0,0.0015601,0.00012756,2.6364e+08,5.9408e+05,0,3.0437e+08,4.2614e+05,12633,611.88,0,611.88,0,0.0011997,4.4406e-06,0,0.00067109,0.00022364,3.0241e+08,8.8463e+05,0,1.4845e+08,1.8554e+05,611.88,1
2111,6.3,12107,1,12107,1,0.00043926,-4.4569e-08,0,0.0010927,-7.9421e-05,-2.2382e+06,-6515.2,0,2.6348e+08,2.9973e+05,12106,13208,1,13208,1,0.0025102,1.4602e-05,0,0.0025102,0.00029654,3.1156e+08,2.3764e+06,0,6.4204e+08,7.1314e+05,13207,12107,1,12107,1,0.00038421,-1.6523e-09,0,0.0010722,-6.8393e-05,1.0898e+08,-1566.5,0,2.697e+08,2.8904e+05,12106,10985,1,10985,1,-0.0015786,-1.4863e-05,0,5.3328e-05,-0.00046615,-6.4204e+08,-2.3631e+06,0,1.6476e+07,2340.9,10984,11579,1,11579,1,-0.00067273,-2.9891e-06,0,0.00052372,-0.00026672,-2.735e+08,-7.1765e+05,0,1.6836e+08,94947,11578,12634,1,12634,1,0.0014466,2.957e-06,0,0.0015698,0.00012741,2.6356e+08,6.9944e+05,0,3.0114e+08,4.815e+05,12633,611.88,0,611.88,0,0.0012091,5.228e-06,0,0.00067841,0.00022537,3.0259e+08,1.0309e+06,0,1.4871e+08,2.1701e+05,611.88,1
2111,6.31,12107,1,12107,1,0.00044975,-4.3025e-08,0,0.0011033,-8.1212e-05,-2.2388e+06,-5845.9,0,2.635e+08,3.4201e+05,12106,13208,1,13208,1,0.0025478,1.685e-05,0,0.0025478,0.00029813,3.0977e+08,2.7138e+06,0,6.4544e+08,8.6422e+05,13207,12107,1,12107,1,0.00039658,-5.0038e-09,0,0.0010797,-7.0235e-05,1.1164e+08,-1296.7,0,2.6899e+08,3.1674e+05,12106,10985,1,10985,1,-0.001587,-1.7111e-05,0,5.718e-05,-0.00047306,-6.4544e+08,-2.6964e+06,0,1.766e+07,1746.1,10984,11579,1,11579,1,-0.00067156,-3.5811e-06,0,0.00052299,-0.000271,-2.73e+08,-8.4631e+05,0,1.6926e+08,1.0356e+05,11578,12634,1,12634,1,0.0014715,3.5127e-06,0,0.0015794,0.00012721,2.6343e+08,8.3558e+05,0,2.9755e+08,5.4657e+05,12633,611.88,0,611.88,0,0.0012193,6.1828e-06,0,0.00068651,0.00022726,3.0276e+08,1.2062e+06,0,1.49e+08,2.5693e+05,611.88,1
2111,6.32,12107,1,12107,1,0.00046133,-5.2181e-08,0,0.0011149,-8.3181e-05,-2.2396e+06,-7023.7,0,2.6351e+08,3.9055e+05,12106,13208,1,13208,1,0.0025909,1.9473e-05,0,0.0025909,0.00029993,3.0797e+08,3.1004e+06,0,6.4928e+08,1.0551e+06,13207,12107,1,12107,1,0.00041065,-1.155e-08,0,0.001087,-7.2272e-05,1.1463e+08,-2857.9,0,2.6816e+08,3.308e+05,12106,10985,1,10985,1,-0.0015964,-1.9707e-05,0,5.296e-05,-0.00048099,-6.4928e+08,-3.0809e+06,0,1.8836e+07,1242.7,10984,11579,1,11579,1,-0.00067018,-4.3385e-06,0,0.00052225,-0.00027585,-2.7242e+08,-1.0137e+06,0,1.7013e+08,1.0844e+05,11578,12634,1,12634,1,0.0014998,4.2516e-06,0,0.0015894,0.00012695,2.6325e+08,9.9843e+05,0,2.9387e+08,6.3544e+05,12633,611.88,0,611.88,0,0.0012306,7.3554e-06,0,0.00069554,0.00022933,3.0293e+08,1.4184e+06,0,1.4934e+08,3.0901e+05,611.88,1
2111,6.33,12107,1,12107,1,0.00047419,-6.5581e-08,0,0.0011277,-8.5366e-05,-2.2393e+06,-9077.5,0,2.6348e+08,4.4559e+05,12106,13208,1,13208,1,0.0026409,2.2513e-05,0,0.0026409,0.00030196,3.0613e+08,3.5373e+06,0,6.5363e+08,1.3004e+06,13207,12107,1,12107,1,0.00042682,-2.9344e-08,0,0.0010938,-7.4538e-05,1.1802e+08,-5299,0,2.6719e+08,3.511e+05,12106,10985,1,10985,1,-0.0016071,-2.2653e-05,0,4.3102e-05,-0.00049019,-6.5363e+08,-3.5185e+06,0,1.7666e+07,389.05,10984,11579,1,11579,1,-0.00066853,-5.293e-06,0,0.00052133,-0.00028141,-2.7172e+08,-1.2132e+06,0,1.7095e+08,1.088e+05,11578,12634,1,12634,1,0.0015326,5.1869e-06,0,0.0016002,0.0001266,2.6302e+08,1.1967e+06,0,2.9003e+08,7.306e+05,12633,611.88,0,611.88,0,0.0012431,8.8001e-06,0,0.00070568,0.00023162,3.031e+08,1.6752e+06,0,1.4973e+08,3.7826e+05,611.88,1
2111,6.34,12107,1,12107,1,0.00048866,-7.4517e-08,0,0.001142,-8.7819e-05,-2.2382e+06,-10288,0,2.6341e+08,5.0781e+05,12106,13208,1,13208,1,0.0026999,2.6099e-05,0,0.0026999,0.0003043,3.0423e+08,4.0366e+06,0,6.5864e+08,1.6179e+06,13207,12107,1,12107,1,0.0004457,-4.2719e-08,0,0.0011,-7.7087e-05,1.219e+08,-7929.4,0,2.6603e+08,3.6041e+05,12106,10985,1,10985,1,-0.0016194,-2.6225e-05,0,3.1574e-05,-0.00050106,-6.5864e+08,-4.0149e+06,0,1.333e+07,-35108,10984,11579,1,11579,1,-0.00066652,-6.5329e-06,0,0.00052002,-0.00028774,-2.7086e+08,-1.4704e+06,0,1.7169e+08,90739,11578,12634,1,12634,1,0.0015673,6.3854e-06,0,0.0016122,0.00012612,2.6271e+08,1.4494e+06,0,2.8584e+08,8.417e+05,12633,611.88,0,611.88,0,0.0012571,1.0596e-05,0,0.00071724,0.00023418,3.0326e+08,1.9885e+06,0,1.5018e+08,4.7202e+05,611.88,1
2111,6.35,12107,1,12107,1,0.00050507,-8.457e-08,0,0.0011581,-9.0605e-05,-2.2395e+06,-11556,0,2.6327e+08,5.7513e+05,12106,13208,1,13208,1,0.0027708,3.0669e-05,0,0.0027708,0.00030702,3.0222e+08,4.6351e+06,0,6.6445e+08,2.0342e+06,13207,12107,1,12107,1,0.00046803,-6.7064e-08,0,0.0011163,-7.9979e-05,1.264e+08,-14558,0,2.6365e+08,3.6911e+05,12106,10985,1,10985,1,-0.0016337,-3.0804e-05,0,1.7897e-05,-0.0005141,-6.6445e+08,-4.6129e+06,0,8.4162e+06,-2.5413e+05,10984,11579,1,11579,1,-0.000664,-7.9465e-06,0,0.00051862,-0.00029416,-2.6979e+08,-1.7673e+06,0,1.7236e+08,58934,11578,12634,1,12634,1,0.0016037,7.879e-06,0,0.0016254,0.00012548,2.6228e+08,1.7484e+06,0,2.82e+08,1.0005e+06,12633,611.88,0,611.88,0,0.0012728,1.2832e-05,0,0.00073056,0.00023706,3.034e+08,2.369e+06,0,1.5072e+08,6.0224e+05,611.88,1
2111,6.36,12107,1,12107,1,0.00052396,-1.0163e-07,0,0.0011764,-9.3805e-05,-2.2329e+06,-14222,0,2.6306e+08,6.4891e+05,12106,13208,1,13208,1,0.0028578,3.6782e-05,0,0.0028578,0.00031024,3.0017e+08,5.4053e+06,0,6.7133e+08,2.5883e+06,13207,12107,1,12107,1,0.00049494,-1.1409e-07,0,0.0011274,-8.3296e-05,1.3169e+08,-25917,0,2.608e+08,3.6708e+05,12106,10985,1,10985,1,-0.0016507,-3.6934e-05,0,1.4113e-06,-0.00053011,-6.7133e+08,-5.3823e+06,0,2.5911e+06,-5.8694e+05,10984,11579,1,11579,1,-0.00066085,-9.6402e-06,0,0.00052027,-0.00030133,-2.6844e+08,-2.1611e+06,0,1.729e+08,21114,11578,12634,1,12634,1,0.0016423,9.5019e-06,0,0.0016503,0.00012463,2.6067e+08,2.1238e+06,0,2.7814e+08,1.1704e+06,12633,611.88,0,611.88,0,0.0012909,1.5679e-05,0,0.00074622,0.00024035,3.0352e+08,2.8398e+06,0,1.5136e+08,7.8413e+05,611.88,1
2111,6.37,12107,1,12107,1,0.00054605,-1.1305e-07,0,0.0011979,-9.7493e-05,-2.2272e+06,-15550,0,2.6279e+08,7.2878e+05,12106,13208,1,13208,1,0.0029675,4.5099e-05,0,0.0029675,0.00031413,2.9794e+08,6.4131e+06,0,6.7963e+08,3.3383e+06,13207,12107,1,12107,1,0.00052729,-1.4874e-07,0,0.0011368,-8.6653e-05,1.38e+08,-34207,0,2.5745e+08,3.4563e+05,12106,10985,1,10985,1,-0.0016711,-4.5273e-05,0,8.5202e-06,-0.00055033,-6.7963e+08,-6.3822e+06,0,2.051e+06,-1.0283e+06,10984,11579,1,11579,1,-0.00065683,-1.1905e-05,0,0.00052911,-0.0003085,-2.6672e+08,-2.6806e+06,0,1.733e+08,2658.8,11578,12634,1,12634,1,0.0016844,1.1768e-05,0,0.0016848,0.0001235,2.5715e+08,2.6304e+06,0,2.7452e+08,1.3762e+06,12633,611.88,0,611.88,0,0.0013121,1.9357e-05,0,0.00076453,0.00024417,3.0363e+08,3.4282e+06,0,1.5203e+08,1.0398e+06,611.88,1
2111,6.38,12107,1,12107,1,0.00057253,-1.1863e-07,0,0.0012238,-0.00010184,-2.2209e+06,-16165,0,2.6252e+08,8.1364e+05,12106,13208,1,13208,1,0.0031106,5.6746e-05,0,0.0031106,0.00031896,2.9544e+08,7.7506e+06,0,6.8992e+08,4.3902e+06,13207,12107,1,12107,1,0.00055915,-1.8772e-07,0,0.001144,-9.0294e-05,1.4479e+08,-42309,0,2.533e+08,3.1669e+05,12106,10985,1,10985,1,-0.0016964,-5.6892e-05,0,1.3325e-05,-0.00057668,-6.8992e+08,-7.7189e+06,0,3.6912e+06,-1.6027e+06,10984,11579,1,11579,1,-0.00065156,-1.495e-05,0,0.00056485,-0.00031597,-2.6446e+08,-3.3746e+06,0,1.7855e+08,-59572,11578,12634,1,12634,1,0.001717,1.4658e-05,0,0.0017177,0.000122,2.5309e+08,3.3031e+06,0,2.7064e+08,1.6754e+06,12633,611.88,0,611.88,0,0.0013376,2.4218e-05,0,0.00078692,0.0002487,3.037e+08,4.1736e+06,0,1.5267e+08,1.4016e+06,611.88,1
2111,6.39,12107,1,12107,1,0.00060519,-1.3128e-07,0,0.0012556,-0.00010711,-2.2098e+06,-17957,0,2.6211e+08,9.05e+05,12106,13208,1,13208,1,0.0033046,7.3675e-05,0,0.0033046,0.00032513,2.9255e+08,9.5766e+06,0,7.0307e+08,5.8923e+06,13207,12107,1,12107,1,0.00059372,-2.6178e-07,0,0.0011661,-9.4391e-05,1.5102e+08,-54001,0,2.4908e+08,2.4662e+05,12106,10985,1,10985,1,-0.0017287,-7.3844e-05,0,1.7162e-05,-0.00061244,-7.0307e+08,-9.5441e+06,0,5.0048e+06,-2.3145e+06,10984,11579,1,11579,1,-0.00064433,-1.9201e-05,0,0.00060338,-0.000322,-2.6134e+08,-4.2604e+06,0,1.8468e+08,-2.4276e+05,11578,12634,1,12634,1,0.0017585,1.8908e-05,0,0.0017589,0.00012002,2.4882e+08,4.1874e+06,0,2.6684e+08,1.9947e+06,12633,611.88,0,611.88,0,0.0013695,3.0878e-05,0,0.00081591,0.00025425,3.0374e+08,5.1409e+06,0,1.5347e+08,1.9171e+06,611.88,1
2111,6.4,12107,1,12107,1,0.00064713,-1.549e-07,0,0.0012961,-0.00011371,-2.1943e+06,-21856,0,2.6145e+08,1.0036e+06,12106,13208,1,13208,1,0.0035828,9.9491e-05,0,0.0035828,0.00033335,2.8904e+08,1.2128e+07,0,7.2054e+08,8.0936e+06,13207,12107,1,12107,1,0.00063171,-4.2514e-07,0,0.0011892,-0.0001004,1.5778e+08,-81920,0,2.453e+08,1.6963e+05,12106,10985,1,10985,1,-0.0017717,-9.9726e-05,0,2.0123e-05,-0.00066372,-7.2054e+08,-1.21e+07,0,6.1299e+06,-3.2288e+06,10984,11579,1,11579,1,-0.00063393,-2.4557e-05,0,0.00063388,-0.00032751,-2.5681e+08,-5.4451e+06,0,1.8275e+08,-6.2586e+05,11578,12634,1,12634,1,0.0018312,2.4251e-05,0,0.0018319,0.00011742,2.4479e+08,5.3125e+06,0,2.6288e+08,2.4462e+06,12633,611.88,0,611.88,0,0.0014116,4.0454e-05,0,0.00085599,0.00026136,3.0374e+08,6.4327e+06,0,1.5464e+08,2.6655e+06,611.88,1
2111,6.41,12107,1,12107,1,0.00070368,-1.7175e-07,0,0.0013501,-0.00012221,-2.1743e+06,-25523,0,2.6033e+08,1.1127e+06,12106,13208,1,13208,1,0.0040107,0.00014163,0,0.0040107,0.00034476,2.8449e+08,1.5855e+07,0,7.4476e+08,1.1452e+07,13207,12107,1,12107,1,0.00067671,-7.475e-07,0,0.0012197,-0.00011009,1.6502e+08,-1.3024e+05,0,2.4167e+08,67730,12106,10985,1,10985,1,-0.0018313,-0.0001419,0,1.1737e-05,-0.00074269,-7.4476e+08,-1.582e+07,0,5.6225e+06,-4.6318e+06,10984,11579,1,11579,1,-0.00061774,-3.157e-05,0,0.00062201,-0.00034007,-2.4975e+08,-6.9475e+06,0,1.8251e+08,-1.3343e+06,11578,12634,1,12634,1,0.0018925,3.1259e-05,0,0.0018945,0.00011359,2.4095e+08,6.8992e+06,0,2.5998e+08,3.0242e+06,12633,611.88,0,611.88,0,0.0014711,5.5204e-05,0,0.00091597,0.00027094,3.0367e+08,8.2285e+06,0,1.5648e+08,3.7847e+06,611.88,1
2111,6.42,12107,1,12107,1,0.00078521,-1.8847e-07,0,0.0014282,-0.0001335,-2.1383e+06,-28013,0,2.5869e+08,1.2304e+06,12106,13208,1,13208,1,0.0047382,0.00021902,0,0.0047382,0.00036162,2.7812e+08,2.164e+07,0,7.8045e+08,1.6868e+07,13207,12107,1,12107,1,0.00073206,-1.2326e-06,0,0.0012467,-0.00012383,1.7195e+08,-1.9863e+05,0,2.3599e+08,-29334,12106,10985,1,10985,1,-0.0019191,-0.00021915,0,2.304e-05,-0.00087711,-7.8045e+08,-2.1602e+07,0,7.656e+06,-6.9106e+06,10984,11579,1,11579,1,-0.0005908,-4.2743e-05,0,0.00061884,-0.00035055,-2.3799e+08,-9.1003e+06,0,1.7734e+08,-2.4098e+06,11578,12634,1,12634,1,0.0019676,4.2595e-05,0,0.0019718,0.00010759,2.3531e+08,9.1148e+06,0,2.6097e+08,3.677e+06,12633,611.88,0,611.88,0,0.0015639,8.0055e-05,0,0.001014,0.0002848,3.0352e+08,1.084e+07,0,1.5904e+08,5.5332e+06,611.88,1
2111,6.43,12107,1,12107,1,0.00091313,-1.1416e-07,0,0.0015511,-0.0001487,-2.0838e+06,-22210,0,2.5602e+08,1.3555e+06,12106,13208,1,13208,1,0.0061712,0.00038474,0,0.0061712,0.00038869,2.8154e+08,3.1268e+07,0,8.3756e+08,2.5909e+07,13207,12107,1,12107,1,0.00081696,-1.1817e-06,0,0.0012993,-0.00014176,1.5785e+08,-1.9771e+05,0,2.2872e+08,-1.3239e+05,12106,10985,1,10985,1,-0.0020597,-0.00038402,0,2.3215e-05,-0.0011419,-8.3756e+08,-3.1315e+07,0,8.0241e+06,-1.0991e+07,10984,11579,1,11579,1,-0.00053933,-6.1334e-05,0,0.00066059,-0.00035075,-2.1554e+08,-1.1944e+07,0,1.6622e+08,-4.315e+06,11578,12634,1,12634,1,0.0020635,6.0984e-05,0,0.0020668,0.00010009,2.298e+08,1.1859e+07,0,2.6509e+08,4.846e+06,12633,611.88,0,611.88,0,0.0017316,0.00012793,0,0.0012009,0.00030696,3.0345e+08,1.4866e+07,0,1.6349e+08,8.403e+06,611.88,1
2111,6.44,12107,1,12107,1,0.0011388,-2.0936e-07,0,0.0017695,-0.00016719,-1.9746e+06,-30290,0,2.5107e+08,1.5163e+06,12106,13208,1,13208,1,0.009674,0.000818,0,0.009674,0.00043509,3.0802e+08,4.8024e+07,0,9.349e+08,4.1015e+07,13207,12107,1,12107,1,0.00093524,-2.1309e-06,0,0.0013597,-0.00015746,1.4427e+08,-3.4477e+05,0,2.1688e+08,-6.4755e+05,12106,10985,1,10985,1,-0.0022993,-0.00082023,0,2.3114e-05,-0.0017863,-9.349e+08,-4.7964e+07,0,7.9918e+06,-1.783e+07,10984,11579,1,11579,1,-0.00042948,-9.0949e-05,0,0.0007209,-0.0003498,-1.7352e+08,-1.5773e+07,0,1.5219e+08,-7.5655e+06,11578,12634,1,12634,1,0.0021421,9.0467e-05,0,0.0021881,9.0116e-05,2.1791e+08,1.5779e+07,0,2.8037e+08,6.294e+06,12633,611.88,0,611.88,0,0.002104,0.00023743,0,0.0016273,0.00034644,3.0338e+08,2.1205e+07,0,1.7154e+08,1.3102e+07,611.88,1
2111,6.45,12107,1,12107,1,0.0015779,-1.9466e-07,0,0.0022021,-0.00016834,-1.7806e+06,-32026,0,2.4015e+08,1.6518e+06,12106,13208,1,13208,1,0.021448,0.002356,0,0.021448,0.00051698,3.5823e+08,7.5496e+07,0,1.1046e+09,6.3094e+07,13207,12107,1,12107,1,0.00107,-1.8804e-06,0,0.0013825,-0.00017945,1.2595e+08,-3.0852e+05,0,1.9625e+08,-1.3021e+06,12106,10985,1,10985,1,-0.0027171,-0.0023695,0,2.1514e-05,-0.0038759,-1.1046e+09,-7.5487e+07,0,7.6187e+06,-2.9571e+07,10984,11579,1,11579,1,-0.00031992,-0.00013802,0,0.0007247,-0.000298,-1.3293e+08,-2.054e+07,0,1.2989e+08,-1.1651e+07,11578,12634,1,12634,1,0.0021349,0.00013555,0,0.0022556,7.6652e-05,1.9648e+08,2.0542e+07,0,2.7841e+08,8.9826e+06,12633,611.88,0,611.88,0,0.0031766,0.00054463,0,0.0028332,0.00042482,3.0227e+08,3.0582e+07,0,1.8603e+08,2.0053e+07,611.88,1
2111,6.45,12107,1,12107,1,0.0016572,-1.1196e-07,0,0.002284,-0.00015777,-1.7422e+06,-29176,0,2.3829e+08,1.6771e+06,12106,13208,1,13208,1,0.026108,0.0029771,0,0.026108,0.00053113,3.7049e+08,8.0417e+07,0,1.1338e+09,6.6923e+07,13207,12107,1,12107,1,0.001072,-1.8524e-06,0,0.0013805,-0.00017963,1.2143e+08,-3.335e+05,0,1.9228e+08,-1.3748e+06,12106,10985,1,10985,1,-0.002789,-0.0029849,0,2.1516e-05,-0.0046264,-1.1338e+09,-8.0442e+07,0,7.538e+06,-3.1668e+07,10984,11579,1,11579,1,-0.00030434,-0.00014567,0,0.00074349,-0.00027877,-1.2523e+08,-2.1285e+07,0,1.2538e+08,-1.2338e+07,11578,12634,1,12634,1,0.0021188,0.00014439,0,0.0022793,7.4153e-05,1.9269e+08,2.1314e+07,0,2.7919e+08,9.214e+06,12633,611.88,0,611.88,0,0.0034671,0.00063835,0,0.0031554,0.00043417,3.0241e+08,3.2162e+07,0,1.8889e+08,2.1212e+07,611.88,1
