"N","Time","avg(GlobalElementId)","avg(ObjectId)","avg(PedigreeElementId)","avg(alpha)","avg(strain_x (0))","avg(strain_x (1))","avg(strain_x (2))","avg(strain_x (Magnitude))","avg(strain_yy)","avg(stress_x (0))","avg(stress_x (1))","avg(stress_x (2))","avg(stress_x (Magnitude))","avg(stress_yy)","avg(vtkOriginalCellIds)","max(GlobalElementId)","max(ObjectId)","max(PedigreeElementId)","max(alpha)","max(strain_x (0))","max(strain_x (1))","max(strain_x (2))","max(strain_x (Magnitude))","max(strain_yy)","max(stress_x (0))","max(stress_x (1))","max(stress_x (2))","max(stress_x (Magnitude))","max(stress_yy)","max(vtkOriginalCellIds)","med(GlobalElementId)","med(ObjectId)","med(PedigreeElementId)","med(alpha)","med(strain_x (0))","med(strain_x (1))","med(strain_x (2))","med(strain_x (Magnitude))","med(strain_yy)","med(stress_x (0))","med(stress_x (1))","med(stress_x (2))","med(stress_x (Magnitude))","med(stress_yy)","med(vtkOriginalCellIds)","min(GlobalElementId)","min(ObjectId)","min(PedigreeElementId)","min(alpha)","min(strain_x (0))","min(strain_x (1))","min(strain_x (2))","min(strain_x (Magnitude))","min(strain_yy)","min(stress_x (0))","min(stress_x (1))","min(stress_x (2))","min(stress_x (Magnitude))","min(stress_yy)","min(vtkOriginalCellIds)","q1(GlobalElementId)","q1(ObjectId)","q1(PedigreeElementId)","q1(alpha)","q1(strain_x (0))","q1(strain_x (1))","q1(strain_x (2))","q1(strain_x (Magnitude))","q1(strain_yy)","q1(stress_x (0))","q1(stress_x (1))","q1(stress_x (2))","q1(stress_x (Magnitude))","q1(stress_yy)","q1(vtkOriginalCellIds)","q3(GlobalElementId)","q3(ObjectId)","q3(PedigreeElementId)","q3(alpha)","q3(strain_x (0))","q3(strain_x (1))","q3(strain_x (2))","q3(strain_x (Magnitude))","q3(strain_yy)","q3(stress_x (0))","q3(stress_x (1))","q3(stress_x (2))","q3(stress_x (Magnitude))","q3(stress_yy)","q3(vtkOriginalCellIds)","std(GlobalElementId)","std(ObjectId)","std(PedigreeElementId)","std(alpha)","std(strain_x (0))","std(strain_x (1))","std(strain_x (2))","std(strain_x (Magnitude))","std(strain_yy)","std(stress_x (0))","std(stress_x (1))","std(stress_x (2))","std(stress_x (Magnitude))","std(stress_yy)","std(vtkOriginalCellIds)","vtkValidPointMask"
816,0,12163,1,12163,1,0,0,0,0,0,0,0,0,0,0,12162,12879,1,12879,1,0,0,0,0,0,0,0,0,0,0,12878,12168,1,12168,1,0,0,0,0,0,0,0,0,0,0,12167,11473,1,11473,1,0,0,0,0,0,0,0,0,0,0,11472,11820,1,11820,1,0,0,0,0,0,0,0,0,0,0,11819,12516,1,12516,1,0,0,0,0,0,0,0,0,0,0,12515,412.9,0,412.9,0,0,0,0,0,0,0,0,0,0,0,412.9,1
816,0.01,12163,1,12163,1,1.1855e-06,-3.8753e-09,0,1.2345e-06,-2.2221e-07,4.6278e+05,-1287.7,0,4.8276e+05,-57.795,12162,12879,1,12879,1,2.7594e-06,2.5599e-08,0,2.7594e-06,5.842e-08,1.0753e+06,8399.5,0,1.0753e+06,2682.5,12878,12168,1,12168,1,1.2004e-06,-3.0913e-09,0,1.2004e-06,-2.2305e-07,4.7044e+05,-1036.4,0,4.7044e+05,-24.452,12167,11473,1,11473,1,-3.0262e-07,-1.4089e-08,0,8.093e-08,-5.1576e-07,-1.2295e+05,-4631.5,0,32513,-2925.2,11472,11820,1,11820,1,4.0197e-07,-7.5737e-09,0,4.0201e-07,-3.7464e-07,1.5878e+05,-2510.5,0,1.5879e+05,-824.84,11819,12516,1,12516,1,1.9988e-06,-4.7674e-11,0,1.9988e-06,-7.5328e-08,7.7972e+05,-15.66,0,7.7973e+05,641.34,12515,412.9,0,412.9,0,9.1101e-07,4.5674e-09,0,8.4326e-07,1.7023e-07,3.5554e+05,1513.4,0,3.2787e+05,1287,412.9,1
816,0.02,12163,1,12163,1,2.4817e-06,-2.3074e-09,0,2.5686e-06,-4.6561e-07,9.6896e+05,-767.74,0,1.0043e+06,-285.51,12162,12879,1,12879,1,5.531e-06,1.5841e-09,0,5.531e-06,1.0339e-07,2.1551e+06,529.66,0,2.1551e+06,98.862,12878,12168,1,12168,1,2.4826e-06,-2.0655e-09,0,2.4826e-06,-4.6645e-07,9.7238e+05,-684.5,0,9.7238e+05,-198.55,12167,11473,1,11473,1,-5.5156e-07,-7.4176e-09,0,1.4496e-07,-1.0368e-06,-2.2446e+05,-2468.8,0,59055,-1257.1,11472,11820,1,11820,1,8.6494e-07,-3.8087e-09,0,8.6496e-07,-7.6865e-07,3.4096e+05,-1273.7,0,3.4097e+05,-434.34,11819,12516,1,12516,1,4.0996e-06,-6.5868e-10,0,4.0996e-06,-1.6307e-07,1.5996e+06,-217.25,0,1.5996e+06,-46.168,12515,412.9,0,412.9,0,1.8642e-06,2.0316e-09,0,1.7424e-06,3.4918e-07,7.2726e+05,676.4,0,6.7753e+05,306.4,412.9,1
816,0.03,12163,1,12163,1,3.7385e-06,1.1972e-09,0,3.8694e-06,-7.0071e-07,1.4597e+06,398.39,0,1.513e+06,-143.64,12162,12879,1,12879,1,8.3132e-06,4.0556e-09,0,8.3132e-06,1.5567e-07,3.2391e+06,1355.9,0,3.2391e+06,27.171,12878,12168,1,12168,1,3.739e-06,1.0957e-09,0,3.739e-06,-7.011e-07,1.4646e+06,368.09,0,1.4646e+06,-56.559,12167,11473,1,11473,1,-8.2881e-07,-4.3916e-10,0,2.1891e-07,-1.5581e-06,-3.3721e+05,-144.1,0,89109,-870.11,11472,11820,1,11820,1,1.3031e-06,5.5208e-10,0,1.3031e-06,-1.1572e-06,5.1383e+05,182.02,0,5.1383e+05,-213.38,11819,12516,1,12516,1,6.1747e-06,1.8358e-09,0,6.1747e-06,-2.4488e-07,2.4093e+06,608.54,0,2.4093e+06,-27.871,12515,412.9,0,412.9,0,2.8084e-06,8.6982e-10,0,2.6249e-06,5.2633e-07,1.0956e+06,290.27,0,1.0207e+06,188.19,412.9,1
816,0.04,12163,1,12163,1,4.9738e-06,2.3616e-09,0,5.1479e-06,-9.3218e-07,1.9421e+06,786.61,0,2.0129e+06,-160.8,12162,12879,1,12879,1,1.1071e-05,7.2838e-09,0,1.1071e-05,2.0714e-07,4.3137e+06,2435.2,0,4.3137e+06,86.781,12878,12168,1,12168,1,4.9757e-06,2.1304e-09,0,4.9757e-06,-9.325e-07,1.9491e+06,701.63,0,1.9491e+06,-128.05,12167,11473,1,11473,1,-1.103e-06,-2.1992e-09,0,2.911e-07,-2.075e-06,-4.487e+05,-735.11,0,1.1854e+05,-934.18,11472,11820,1,11820,1,1.7342e-06,8.3539e-11,0,1.7342e-06,-1.54e-06,6.8387e+05,27.426,0,6.8387e+05,-194.94,11819,12516,1,12516,1,8.2169e-06,4.6902e-09,0,8.2169e-06,-3.2526e-07,3.2061e+06,1556.9,0,3.2061e+06,-54.137,12515,412.9,0,412.9,0,3.7361e-06,2.4233e-09,0,3.492e-06,7.0027e-07,1.4575e+06,809.07,0,1.3579e+06,167.9,412.9,1
816,0.05,12163,1,12163,1,6.225e-06,-1.7257e-09,0,6.4429e-06,-1.1663e-06,2.4306e+06,-574.6,0,2.5192e+06,-55.598,12162,12879,1,12879,1,1.3843e-05,7.4012e-10,0,1.3843e-05,2.5943e-07,5.3935e+06,242.86,0,5.3935e+06,85.671,12878,12168,1,12168,1,6.2257e-06,-1.5887e-09,0,6.2257e-06,-1.1664e-06,2.4388e+06,-526.06,0,2.4388e+06,-36.412,12167,11473,1,11473,1,-1.3797e-06,-4.5771e-09,0,3.6443e-07,-2.5945e-06,-5.6119e+05,-1530.1,0,1.4833e+05,-485.45,11472,11820,1,11820,1,2.1698e-06,-3.0866e-09,0,2.1698e-06,-1.9267e-06,8.5569e+05,-1022.5,0,8.5569e+05,-69.537,11819,12516,1,12516,1,1.0281e-05,-4.2224e-10,0,1.0281e-05,-4.0641e-07,4.0116e+06,-139.79,0,4.0116e+06,3.6158,12515,412.9,0,412.9,0,4.6761e-06,1.4453e-09,0,4.3706e-06,8.7664e-07,1.8241e+06,483.05,0,1.6995e+06,104.44,412.9,1
816,0.06,12163,1,12163,1,7.4688e-06,-1.0143e-09,0,7.7303e-06,-1.3994e-06,2.9163e+06,-337.82,0,3.0226e+06,-66.243,12162,12879,1,12879,1,1.6603e-05,1.2931e-09,0,1.6603e-05,3.1123e-07,6.4689e+06,430.35,0,6.4689e+06,79.38,12878,12168,1,12168,1,7.4699e-06,-6.9282e-10,0,7.4699e-06,-1.3995e-06,2.9262e+06,-230.58,0,2.9262e+06,-21.059,12167,11473,1,11473,1,-1.6548e-06,-4.5619e-09,0,4.375e-07,-3.1117e-06,-6.731e+05,-1525,0,1.7807e+05,-638.53,11472,11820,1,11820,1,2.6036e-06,-2.0886e-09,0,2.6036e-06,-2.3118e-06,1.0267e+06,-694.21,0,1.0267e+06,-77.999,11819,12516,1,12516,1,1.2336e-05,1.0485e-10,0,1.2336e-05,-4.8767e-07,4.8133e+06,34.438,0,4.8133e+06,10.809,12515,412.9,0,412.9,0,5.6105e-06,1.3932e-09,0,5.244e-06,1.0518e-06,2.1887e+06,464.79,0,2.0391e+06,141.38,412.9,1
816,0.07,12163,1,12163,1,8.7102e-06,-2.7814e-10,0,9.015e-06,-1.6319e-06,3.401e+06,-92.849,0,3.525e+06,-59.332,12162,12879,1,12879,1,1.9357e-05,3.3469e-09,0,1.9357e-05,3.6285e-07,7.5422e+06,1119,0,7.5422e+06,61.097,12878,12168,1,12168,1,8.7112e-06,-1.0874e-10,0,8.7112e-06,-1.6321e-06,3.4124e+06,-35.865,0,3.4124e+06,-57.563,12167,11473,1,11473,1,-1.9295e-06,-3.4114e-09,0,5.0998e-07,-3.628e-06,-7.8473e+05,-1140.5,0,2.0756e+05,-460.66,11472,11820,1,11820,1,3.0363e-06,-1.3934e-09,0,3.0363e-06,-2.6959e-06,1.1974e+06,-463.44,0,1.1974e+06,-77.887,11819,12516,1,12516,1,1.4386e-05,6.8474e-10,0,1.4386e-05,-5.6819e-07,5.613e+06,225.45,0,5.613e+06,-18.224,12515,412.9,0,412.9,0,6.5429e-06,1.4995e-09,0,6.1155e-06,1.2267e-06,2.5524e+06,500.14,0,2.378e+06,74.76,412.9,1
816,0.08,12163,1,12163,1,9.9765e-06,-2.7584e-10,0,1.0326e-05,-1.8691e-06,3.8954e+06,-91.939,0,4.0375e+06,-52.617,12162,12879,1,12879,1,2.2166e-05,1.6028e-09,0,2.2166e-05,4.1549e-07,8.6367e+06,536.02,0,8.6367e+06,27.371,12878,12168,1,12168,1,9.9769e-06,-2.479e-10,0,9.9769e-06,-1.8691e-06,3.9082e+06,-81.651,0,3.9082e+06,-27.437,12167,11473,1,11473,1,-2.2093e-06,-1.2811e-09,0,5.8415e-07,-4.1546e-06,-8.9855e+05,-428.33,0,2.3775e+05,-606.81,11472,11820,1,11820,1,3.4777e-06,-7.8805e-10,0,3.4777e-06,-3.0876e-06,1.3715e+06,-261.82,0,1.3715e+06,-64.629,11819,12516,1,12516,1,1.6476e-05,1.0901e-10,0,1.6476e-05,-6.51e-07,6.4286e+06,36.6,0,6.4286e+06,-7.9974,12515,412.9,0,412.9,0,7.4942e-06,5.6888e-10,0,7.0047e-06,1.405e-06,2.9235e+06,189.81,0,2.7237e+06,89.014,412.9,1
816,0.09,12163,1,12163,1,1.1197e-05,-1.5708e-09,0,1.1589e-05,-2.0978e-06,4.372e+06,-523.34,0,4.5314e+06,-83.001,12162,12879,1,12879,1,2.4894e-05,4.8358e-09,0,2.4894e-05,4.6643e-07,9.6997e+06,1627.6,0,9.6997e+06,185.57,12878,12168,1,12168,1,1.12e-05,-8.9538e-10,0,1.12e-05,-2.0983e-06,4.3873e+06,-294.59,0,4.3873e+06,-81.608,12167,11473,1,11473,1,-2.4813e-06,-8.5351e-09,0,6.5532e-07,-4.6659e-06,-1.0092e+06,-2853.4,0,2.6672e+05,-580.39,11472,11820,1,11820,1,3.9038e-06,-4.2401e-09,0,3.9038e-06,-3.4661e-06,1.5395e+06,-1409,0,1.5395e+06,-148.99,11819,12516,1,12516,1,1.8495e-05,8.6933e-10,0,1.8495e-05,-7.3051e-07,7.2166e+06,288.96,0,7.2166e+06,7.5367,12515,412.9,0,412.9,0,8.4109e-06,3.3241e-09,0,7.8615e-06,1.5769e-06,3.2811e+06,1108.8,0,3.0569e+06,126.65,412.9,1
816,0.1,12163,1,12163,1,1.2458e-05,-1.772e-09,0,1.2894e-05,-2.3339e-06,4.8643e+06,-590.55,0,5.0416e+06,-38.26,12162,12879,1,12879,1,2.7694e-05,2.518e-09,0,2.7694e-05,5.1907e-07,1.0791e+07,841.87,0,1.0791e+07,122.05,12878,12168,1,12168,1,1.2459e-05,-1.3922e-09,0,1.2459e-05,-2.3342e-06,4.8807e+06,-459.63,0,4.8807e+06,-31.241,12167,11473,1,11473,1,-2.76e-06,-6.2223e-09,0,7.2937e-07,-5.1907e-06,-1.1225e+06,-2080.2,0,2.9684e+05,-507.97,11472,11820,1,11820,1,4.3428e-06,-3.8939e-09,0,4.3428e-06,-3.8558e-06,1.7127e+06,-1292.2,0,1.7127e+06,-89.108,11819,12516,1,12516,1,2.0576e-05,2.3318e-10,0,2.0576e-05,-8.1263e-07,8.0283e+06,76.558,0,8.0283e+06,14.223,12515,412.9,0,412.9,0,9.358e-06,2.3283e-09,0,8.7467e-06,1.7546e-06,3.6505e+06,777.46,0,3.4011e+06,87.541,412.9,1
816,0.11,12163,1,12163,1,1.3697e-05,-1.3539e-09,0,1.4176e-05,-2.566e-06,5.3481e+06,-450.81,0,5.5431e+06,-33.139,12162,12879,1,12879,1,3.0441e-05,2.8405e-09,0,3.0441e-05,5.7076e-07,1.1861e+07,972.03,0,1.1861e+07,75.127,12878,12168,1,12168,1,1.3699e-05,-1.0054e-09,0,1.3699e-05,-2.5664e-06,5.3662e+06,-331.04,0,5.3662e+06,-29.584,12167,11473,1,11473,1,-3.0345e-06,-5.6141e-09,0,8.02e-07,-5.7054e-06,-1.2341e+06,-1876.8,0,3.2641e+05,-299.45,11472,11820,1,11820,1,4.7747e-06,-3.0942e-09,0,4.7747e-06,-4.2394e-06,1.883e+06,-1027.5,0,1.883e+06,-68.119,11819,12516,1,12516,1,2.2622e-05,2.4662e-10,0,2.2622e-05,-8.9331e-07,8.8267e+06,81.769,0,8.8267e+06,6.2969,12515,412.9,0,412.9,0,1.0289e-05,2.1337e-09,0,9.6168e-06,1.9291e-06,4.0137e+06,711.85,0,3.7394e+06,55.795,412.9,1
816,0.12,12163,1,12163,1,1.4959e-05,-1.6697e-09,0,1.5482e-05,-2.8024e-06,5.8408e+06,-556.25,0,6.0536e+06,-40.271,12162,12879,1,12879,1,3.3244e-05,8.9417e-10,0,3.3244e-05,6.2304e-07,1.2953e+07,293.4,0,1.2953e+07,116.51,12878,12168,1,12168,1,1.4959e-05,-1.6077e-09,0,1.4959e-05,-2.8026e-06,5.86e+06,-529.3,0,5.86e+06,-32.368,12167,11473,1,11473,1,-3.3129e-06,-4.2384e-09,0,8.7489e-07,-6.2309e-06,-1.3474e+06,-1421.6,0,3.5609e+05,-448.51,11472,11820,1,11820,1,5.2145e-06,-3.0906e-09,0,5.2145e-06,-4.6295e-06,2.0565e+06,-1031.1,0,2.0565e+06,-77.461,11819,12516,1,12516,1,2.4704e-05,-3.1358e-10,0,2.4704e-05,-9.7566e-07,9.6389e+06,-103.11,0,9.6389e+06,6.4711,12515,412.9,0,412.9,0,1.1236e-05,1.5395e-09,0,1.0502e-05,2.1067e-06,4.3832e+06,514.46,0,4.0838e+06,72.393,412.9,1
816,0.13,12163,1,12163,1,1.6208e-05,-5.1823e-10,0,1.6776e-05,-3.0365e-06,6.3287e+06,-172.55,0,6.5595e+06,-18.203,12162,12879,1,12879,1,3.601e-05,2.8408e-10,0,3.601e-05,6.7502e-07,1.4031e+07,96.772,0,1.4031e+07,24.21,12878,12168,1,12168,1,1.6209e-05,-4.4559e-10,0,1.6209e-05,-3.0366e-06,6.3495e+06,-147.34,0,6.3495e+06,-14.661,12167,11473,1,11473,1,-3.5891e-06,-1.4528e-09,0,9.4905e-07,-6.7492e-06,-1.4597e+06,-494.37,0,3.8626e+05,-330.95,11472,11820,1,11820,1,5.65e-06,-9.9153e-10,0,5.65e-06,-5.0162e-06,2.2282e+06,-328.84,0,2.2282e+06,-25.983,11819,12516,1,12516,1,2.6767e-05,-4.5973e-11,0,2.6767e-05,-1.057e-06,1.0444e+07,-15.122,0,1.0444e+07,-3.1566,12515,412.9,0,412.9,0,1.2175e-05,5.0473e-10,0,1.138e-05,2.2828e-06,4.7496e+06,168.61,0,4.4251e+06,28.109,412.9,1
816,0.14,12163,1,12163,1,1.7454e-05,2.5828e-09,0,1.8065e-05,-3.2699e-06,6.8152e+06,859.75,0,7.0636e+06,-23.479,12162,12879,1,12879,1,3.8789e-05,4.5867e-09,0,3.8789e-05,7.271e-07,1.5114e+07,1531.8,0,1.5114e+07,67.056,12878,12168,1,12168,1,1.7454e-05,2.9618e-09,0,1.7454e-05,-3.2698e-06,6.8373e+06,978.65,0,6.8373e+06,-19.91,12167,11473,1,11473,1,-3.866e-06,-6.0612e-10,0,1.0217e-06,-7.2701e-06,-1.5723e+06,-198.88,0,4.1587e+05,-141.95,11472,11820,1,11820,1,6.0838e-06,1.5833e-09,0,6.0838e-06,-5.4016e-06,2.3993e+06,520.07,0,2.3993e+06,-45.816,11819,12516,1,12516,1,2.8824e-05,3.8054e-09,0,2.8824e-05,-1.1382e-06,1.1247e+07,1270,0,1.1247e+07,2.9147,12515,412.9,0,412.9,0,1.3111e-05,1.4689e-09,0,1.2255e-05,2.4583e-06,5.1147e+06,492.11,0,4.7652e+06,40.647,412.9,1
816,0.15,12163,1,12163,1,1.8696e-05,-6.1353e-10,0,1.935e-05,-3.5025e-06,7.2999e+06,-204.77,0,7.566e+06,-28.457,12162,12879,1,12879,1,4.1539e-05,1.5433e-09,0,4.1539e-05,7.7871e-07,1.6185e+07,516.24,0,1.6185e+07,70.285,12878,12168,1,12168,1,1.8696e-05,-5.5987e-10,0,1.8696e-05,-3.5025e-06,7.3237e+06,-184.26,0,7.3237e+06,-5.2032,12167,11473,1,11473,1,-4.1402e-06,-2.3953e-09,0,1.0942e-06,-7.7855e-06,-1.6838e+06,-802.25,0,4.4545e+05,-600.07,11472,11820,1,11820,1,6.5169e-06,-1.4218e-09,0,6.5169e-06,-5.7858e-06,2.5701e+06,-475.04,0,2.5701e+06,-55.228,11819,12516,1,12516,1,3.0874e-05,1.9492e-10,0,3.0874e-05,-1.2193e-06,1.2047e+07,63.996,0,1.2047e+07,30.883,12515,412.9,0,412.9,0,1.4044e-05,9.3614e-10,0,1.3126e-05,2.6331e-06,5.4784e+06,312.08,0,5.1041e+06,87.982,412.9,1
816,0.16,12163,1,12163,1,1.9956e-05,1.5583e-09,0,2.0654e-05,-3.7385e-06,7.7919e+06,518.86,0,8.076e+06,-13.634,12162,12879,1,12879,1,4.434e-05,3.1083e-09,0,4.434e-05,8.3115e-07,1.7276e+07,1039.1,0,1.7276e+07,92.916,12878,12168,1,12168,1,1.9955e-05,1.7015e-09,0,1.9955e-05,-3.7384e-06,7.817e+06,565.27,0,7.817e+06,-14.18,12167,11473,1,11473,1,-4.4193e-06,-4.4553e-10,0,1.1683e-06,-8.3105e-06,-1.7973e+06,-146.19,0,4.7553e+05,-102.04,11472,11820,1,11820,1,6.9557e-06,8.8465e-10,0,6.9557e-06,-6.1756e-06,2.7432e+06,290.59,0,2.7432e+06,-38.656,11819,12516,1,12516,1,3.2955e-05,2.3184e-09,0,3.2955e-05,-1.3013e-06,1.2858e+07,772.82,0,1.2858e+07,6.4451,12515,412.9,0,412.9,0,1.499e-05,9.6165e-10,0,1.4011e-05,2.8106e-06,5.8477e+06,322.06,0,5.4482e+06,35.457,412.9,1
816,0.17,12163,1,12163,1,2.1199e-05,4.6361e-09,0,2.194e-05,-3.9713e-06,8.2772e+06,1543.1,0,8.579e+06,-6.2821,12162,12879,1,12879,1,4.7115e-05,8.8219e-09,0,4.7115e-05,8.8296e-07,1.8358e+07,2982.4,0,1.8358e+07,146.38,12878,12168,1,12168,1,2.1197e-05,4.9619e-09,0,2.1197e-05,-3.9711e-06,8.3035e+06,1641.2,0,8.3035e+06,3.5252,12167,11473,1,11473,1,-4.6958e-06,-8.7043e-10,0,1.2408e-06,-8.8305e-06,-1.9098e+06,-285.61,0,5.0502e+05,-223.1,11472,11820,1,11820,1,7.3882e-06,2.8204e-09,0,7.3882e-06,-6.56e-06,2.9138e+06,926.82,0,2.9138e+06,-45.414,11819,12516,1,12516,1,3.5005e-05,6.8847e-09,0,3.5005e-05,-1.3822e-06,1.3658e+07,2291.1,0,1.3658e+07,42.481,12515,412.9,0,412.9,0,1.5924e-05,2.7163e-09,0,1.4884e-05,2.9857e-06,6.212e+06,910.27,0,5.7876e+06,69.776,412.9,1
816,0.18,12163,1,12163,1,2.2445e-05,1.7757e-09,0,2.323e-05,-4.2049e-06,8.7639e+06,591.04,0,9.0834e+06,-37.25,12162,12879,1,12879,1,4.9871e-05,3.3875e-09,0,4.9871e-05,9.3476e-07,1.9431e+07,1133.5,0,1.9431e+07,35.092,12878,12168,1,12168,1,2.2445e-05,1.8685e-09,0,2.2445e-05,-4.205e-06,8.7925e+06,622.25,0,8.7925e+06,-22.972,12167,11473,1,11473,1,-4.9705e-06,-3.3514e-10,0,1.314e-06,-9.3471e-06,-2.0215e+06,-109.97,0,5.3478e+05,-191.17,11472,11820,1,11820,1,7.8239e-06,9.039e-10,0,7.8239e-06,-6.9464e-06,3.0855e+06,302.54,0,3.0855e+06,-61.132,11819,12516,1,12516,1,3.7067e-05,2.7499e-09,0,3.7067e-05,-1.4637e-06,1.4463e+07,915.83,0,1.4463e+07,-6.8438,12515,412.9,0,412.9,0,1.686e-05,1.0733e-09,0,1.5759e-05,3.1612e-06,6.5771e+06,359.62,0,6.1278e+06,47.743,412.9,1
816,0.19,12163,1,12163,1,2.3689e-05,-2.1665e-10,0,2.4518e-05,-4.4379e-06,9.2498e+06,-72.336,0,9.587e+06,25.449,12162,12879,1,12879,1,5.2629e-05,1.2823e-09,0,5.2629e-05,9.8709e-07,2.0506e+07,428.61,0,2.0506e+07,580.53,12878,12168,1,12168,1,2.369e-05,-1.612e-10,0,2.369e-05,-4.4379e-06,9.28e+06,-53.091,0,9.2801e+06,4.4041,12167,11473,1,11473,1,-5.2459e-06,-1.4406e-09,0,1.3873e-06,-9.8638e-06,-2.1335e+06,-490.17,0,5.646e+05,-274.9,11472,11820,1,11820,1,8.2576e-06,-7.1684e-10,0,8.2576e-06,-7.3313e-06,3.2566e+06,-237.47,0,3.2566e+06,-29.976,11819,12516,1,12516,1,3.9122e-05,2.3948e-10,0,3.9122e-05,-1.5447e-06,1.5265e+07,79.274,0,1.5265e+07,59.115,12515,412.9,0,412.9,0,1.7795e-05,5.9081e-10,0,1.6633e-05,3.3365e-06,6.9419e+06,197.13,0,6.4675e+06,108.46,412.9,1
816,0.2,12163,1,12163,1,2.4937e-05,3.4175e-09,0,2.581e-05,-4.6717e-06,9.7369e+06,1137.7,0,1.0092e+07,-29.564,12162,12879,1,12879,1,5.5418e-05,6.1882e-09,0,5.5418e-05,1.0388e-06,2.1593e+07,2068.8,0,2.1593e+07,223.28,12878,12168,1,12168,1,2.4937e-05,3.8194e-09,0,2.4937e-05,-4.6718e-06,9.7686e+06,1268,0,9.7686e+06,-31.298,12167,11473,1,11473,1,-5.5236e-06,-9.0771e-10,0,1.4601e-06,-1.0386e-05,-2.2465e+06,-297.84,0,5.9427e+05,-226.47,11472,11820,1,11820,1,8.692e-06,1.9506e-09,0,8.692e-06,-7.7174e-06,3.4279e+06,641.01,0,3.4279e+06,-67.034,11819,12516,1,12516,1,4.1182e-05,5.2347e-09,0,4.1182e-05,-1.6261e-06,1.6068e+07,1742.5,0,1.6068e+07,3.2497,12515,412.9,0,412.9,0,1.8732e-05,2.0096e-09,0,1.7509e-05,3.5122e-06,7.3074e+06,673.15,0,6.8081e+06,66.041,412.9,1
816,0.21,12163,1,12163,1,2.618e-05,-1.8907e-09,0,2.7097e-05,-4.9044e-06,1.0222e+07,-629.56,0,1.0595e+07,75.668,12162,12879,1,12879,1,5.8174e-05,9.4988e-10,0,5.8174e-05,1.0903e-06,2.2667e+07,311.68,0,2.2667e+07,1474.1,12878,12168,1,12168,1,2.618e-05,-2.1547e-09,0,2.618e-05,-4.9042e-06,1.0256e+07,-713.37,0,1.0256e+07,-22.298,12167,11473,1,11473,1,-5.7982e-06,-3.9907e-09,0,1.5321e-06,-1.0903e-05,-2.3582e+06,-1328.4,0,6.2363e+05,-735.24,11472,11820,1,11820,1,9.1256e-06,-2.9873e-09,0,9.1256e-06,-8.1002e-06,3.5989e+06,-997.61,0,3.5989e+06,-180.6,11819,12516,1,12516,1,4.3235e-05,-8.6233e-10,0,4.3235e-05,-1.7075e-06,1.6869e+07,-283.35,0,1.6869e+07,253.34,12515,412.9,0,412.9,0,1.9666e-05,1.3338e-09,0,1.8382e-05,3.6868e-06,7.6718e+06,445.49,0,7.1477e+06,357.5,412.9,1
816,0.22,12163,1,12163,1,2.7415e-05,-6.1825e-10,0,2.8375e-05,-5.1362e-06,1.0705e+07,-206.13,0,1.1095e+07,-91.11,12162,12879,1,12879,1,6.0913e-05,4.2642e-09,0,6.0913e-05,1.1418e-06,2.3734e+07,1419.1,0,2.3734e+07,364.86,12878,12168,1,12168,1,2.7417e-05,-3.594e-10,0,2.7417e-05,-5.1364e-06,1.074e+07,-118.23,0,1.074e+07,-72.378,12167,11473,1,11473,1,-6.0714e-06,-4.8565e-09,0,1.6048e-06,-1.1417e-05,-2.4693e+06,-1623.5,0,6.5317e+05,-452.12,11472,11820,1,11820,1,9.5568e-06,-2.2827e-09,0,9.5568e-06,-8.4851e-06,3.769e+06,-757.62,0,3.769e+06,-164.46,11819,12516,1,12516,1,4.5277e-05,7.7548e-10,0,4.5277e-05,-1.7878e-06,1.7666e+07,254.46,0,1.7666e+07,-4.5914,12515,412.9,0,412.9,0,2.0594e-05,2.1449e-09,0,1.9249e-05,3.8612e-06,8.0335e+06,715,0,7.4847e+06,128.77,412.9,1
816,0.23,12163,1,12163,1,2.8676e-05,5.222e-10,0,2.9679e-05,-5.3719e-06,1.1197e+07,173.33,0,1.1605e+07,65.446,12162,12879,1,12879,1,6.3704e-05,3.1005e-09,0,6.3704e-05,1.1955e-06,2.4821e+07,1054.9,0,2.4821e+07,914.43,12878,12168,1,12168,1,2.8676e-05,3.5972e-10,0,2.8676e-05,-5.3721e-06,1.1233e+07,118.28,0,1.1233e+07,29.207,12167,11473,1,11473,1,-6.3502e-06,-1.0124e-09,0,1.6791e-06,-1.194e-05,-2.5825e+06,-338.51,0,6.8331e+05,-386.15,11472,11820,1,11820,1,9.9956e-06,-9.1906e-11,0,9.9956e-06,-8.8738e-06,3.942e+06,-30.29,0,3.942e+06,-54.1,11819,12516,1,12516,1,4.7356e-05,1.1769e-09,0,4.7356e-05,-1.8699e-06,1.8478e+07,389.22,0,1.8478e+07,174.08,12515,412.9,0,412.9,0,2.1541e-05,8.9287e-10,0,2.0134e-05,4.0387e-06,8.4031e+06,297.91,0,7.8289e+06,198.34,412.9,1
816,0.24,12163,1,12163,1,2.9936e-05,1.1205e-09,0,3.0983e-05,-5.6079e-06,1.1689e+07,372.85,0,1.2115e+07,79.479,12162,12879,1,12879,1,6.6503e-05,2.7547e-09,0,6.6503e-05,1.2468e-06,2.5912e+07,937.38,0,2.5912e+07,653.98,12878,12168,1,12168,1,2.9934e-05,9.6622e-10,0,2.9934e-05,-5.6074e-06,1.1726e+07,318.9,0,1.1726e+07,28.533,12167,11473,1,11473,1,-6.6284e-06,-2.5449e-10,0,1.7526e-06,-1.2464e-05,-2.6958e+06,-83.508,0,7.1332e+05,-332.89,11472,11820,1,11820,1,1.0434e-05,4.5708e-10,0,1.0434e-05,-9.2636e-06,4.1151e+06,150.65,0,4.1151e+06,-46.617,11819,12516,1,12516,1,4.9434e-05,1.8015e-09,0,4.9434e-05,-1.952e-06,1.9288e+07,596.74,0,1.9288e+07,171.83,12515,412.9,0,412.9,0,2.2487e-05,8.1326e-10,0,2.1018e-05,4.2161e-06,8.7722e+06,272.21,0,8.1729e+06,188.46,412.9,1
816,0.25,12163,1,12163,1,3.1179e-05,1.1146e-09,0,3.227e-05,-5.8409e-06,1.2174e+07,370.67,0,1.2618e+07,28.096,12162,12879,1,12879,1,6.9265e-05,2.0579e-09,0,6.9265e-05,1.2985e-06,2.6988e+07,687.81,0,2.6988e+07,695.76,12878,12168,1,12168,1,3.1178e-05,1.2104e-09,0,3.1178e-05,-5.8405e-06,1.2213e+07,399.54,0,1.2213e+07,14.312,12167,11473,1,11473,1,-6.9039e-06,-3.0346e-11,0,1.8257e-06,-1.2983e-05,-2.8078e+06,-9.9512,0,7.4308e+05,-497.64,11472,11820,1,11820,1,1.0868e-05,8.1015e-10,0,1.0868e-05,-9.6482e-06,4.286e+06,266.12,0,4.286e+06,-99.694,11819,12516,1,12516,1,5.1489e-05,1.5142e-09,0,5.1489e-05,-2.0334e-06,2.009e+07,506.83,0,2.009e+07,132.82,12515,412.9,0,412.9,0,2.3421e-05,4.8954e-10,0,2.1891e-05,4.3912e-06,9.1365e+06,164.73,0,8.5122e+06,200.44,412.9,1
816,0.26,12163,1,12163,1,3.242e-05,7.3812e-10,0,3.3555e-05,-6.0732e-06,1.2659e+07,245.38,0,1.312e+07,109.28,12162,12879,1,12879,1,7.2023e-05,4.2713e-09,0,7.2023e-05,1.3522e-06,2.8063e+07,1427.9,0,2.8063e+07,823.64,12878,12168,1,12168,1,3.242e-05,5.8142e-10,0,3.242e-05,-6.073e-06,1.27e+07,191.76,0,1.27e+07,56.54,12167,11473,1,11473,1,-7.1793e-06,-7.1021e-10,0,1.8984e-06,-1.3499e-05,-2.9197e+06,-237.46,0,7.7268e+05,-230.53,11472,11820,1,11820,1,1.1301e-05,1.9254e-10,0,1.1301e-05,-1.0033e-05,4.4569e+06,64.446,0,4.4569e+06,-48.879,11819,12516,1,12516,1,5.354e-05,1.1622e-09,0,5.354e-05,-2.1136e-06,2.089e+07,390.82,0,2.089e+07,226.35,12515,412.9,0,412.9,0,2.4354e-05,7.4196e-10,0,2.2763e-05,4.5662e-06,9.5003e+06,246.93,0,8.8511e+06,217.18,412.9,1
816,0.27,12163,1,12163,1,3.3675e-05,-1.3991e-09,0,3.4854e-05,-6.3085e-06,1.3149e+07,-465.63,0,1.3628e+07,25.758,12162,12879,1,12879,1,7.4816e-05,6.6474e-10,0,7.4816e-05,1.4028e-06,2.9151e+07,218.12,0,2.9151e+07,1177.5,12878,12168,1,12168,1,3.3675e-05,-1.4954e-09,0,3.3675e-05,-6.3087e-06,1.3191e+07,-496.61,0,1.3191e+07,18.207,12167,11473,1,11473,1,-7.4571e-06,-3.0424e-09,0,1.9718e-06,-1.4022e-05,-3.0328e+06,-1035.3,0,8.0252e+05,-1128.2,11472,11820,1,11820,1,1.1738e-05,-2.1806e-09,0,1.1738e-05,-1.0421e-05,4.6292e+06,-721.96,0,4.6292e+06,-177.03,11819,12516,1,12516,1,5.5611e-05,-7.4294e-10,0,5.5611e-05,-2.1957e-06,2.1698e+07,-244.14,0,2.1698e+07,193.4,12515,412.9,0,412.9,0,2.5296e-05,9.2781e-10,0,2.3644e-05,4.7427e-06,9.868e+06,310.09,0,9.1938e+06,368.84,412.9,1
816,0.28,12163,1,12163,1,3.491e-05,2.4178e-10,0,3.6132e-05,-6.5399e-06,1.3631e+07,79.543,0,1.4128e+07,57.424,12162,12879,1,12879,1,7.7554e-05,3.3773e-09,0,7.7554e-05,1.4562e-06,3.0218e+07,1129.2,0,3.0218e+07,1130,12878,12168,1,12168,1,3.491e-05,1.5744e-10,0,3.491e-05,-6.5402e-06,1.3675e+07,51.745,0,1.3675e+07,14.466,12167,11473,1,11473,1,-7.7303e-06,-6.8219e-10,0,2.0442e-06,-1.4536e-05,-3.1439e+06,-232.06,0,8.3199e+05,-576.04,11472,11820,1,11820,1,1.2169e-05,-2.1574e-10,0,1.2169e-05,-1.0803e-05,4.7991e+06,-71.471,0,4.7991e+06,-114.18,11819,12516,1,12516,1,5.7652e-05,5.19e-10,0,5.7652e-05,-2.2769e-06,2.2495e+07,170.9,0,2.2495e+07,182.49,12515,412.9,0,412.9,0,2.6224e-05,6.0285e-10,0,2.4511e-05,4.9166e-06,1.023e+07,200.35,0,9.5311e+06,284.73,412.9,1
816,0.29,12163,1,12163,1,3.6171e-05,1.0616e-09,0,3.7437e-05,-6.7765e-06,1.4123e+07,353.05,0,1.4638e+07,-114.44,12162,12879,1,12879,1,8.0356e-05,3.0496e-09,0,8.0356e-05,1.5064e-06,3.1309e+07,1037.3,0,3.1309e+07,907.37,12878,12168,1,12168,1,3.617e-05,1.1013e-09,0,3.617e-05,-6.7768e-06,1.4169e+07,365.02,0,1.4169e+07,-166.41,12167,11473,1,11473,1,-8.0095e-06,-3.6632e-10,0,2.1178e-06,-1.5062e-05,-3.2574e+06,-124.56,0,8.6208e+05,-797.19,11472,11820,1,11820,1,1.2608e-05,5.0324e-10,0,1.2608e-05,-1.1193e-05,4.9723e+06,166.33,0,4.9723e+06,-281.37,11819,12516,1,12516,1,5.9733e-05,1.6353e-09,0,5.9733e-05,-2.3591e-06,2.3307e+07,543.69,0,2.3307e+07,10.498,12515,412.9,0,412.9,0,2.7171e-05,6.8574e-10,0,2.5397e-05,5.0942e-06,1.06e+07,229.8,0,9.8753e+06,271.58,412.9,1
816,0.3,12163,1,12163,1,3.7416e-05,-2.3883e-10,0,3.8725e-05,-7.009e-06,1.4609e+07,-79.298,0,1.5142e+07,157.49,12162,12879,1,12879,1,8.3119e-05,1.4941e-09,0,8.3119e-05,1.5585e-06,3.2386e+07,508,0,3.2386e+07,1556.2,12878,12168,1,12168,1,3.7416e-05,-2.0553e-10,0,3.7416e-05,-7.009e-06,1.4657e+07,-67.715,0,1.4657e+07,143.28,12167,11473,1,11473,1,-8.2848e-06,-1.6991e-09,0,2.1904e-06,-1.558e-05,-3.3694e+06,-568.38,0,8.9153e+05,-990.98,11472,11820,1,11820,1,1.3042e-05,-5.6678e-10,0,1.3042e-05,-1.1578e-05,5.1435e+06,-187.96,0,5.1435e+06,-60.582,11819,12516,1,12516,1,6.1789e-05,6.984e-11,0,6.1789e-05,-2.4397e-06,2.4109e+07,23.109,0,2.4109e+07,367.81,12515,412.9,0,412.9,0,2.8106e-05,4.4836e-10,0,2.627e-05,5.2694e-06,1.0964e+07,149.7,0,1.0215e+07,314.64,412.9,1
816,0.31,12163,1,12163,1,3.8661e-05,9.8166e-10,0,4.0014e-05,-7.2427e-06,1.5096e+07,327.2,0,1.5646e+07,21.724,12162,12879,1,12879,1,8.589e-05,2.4923e-09,0,8.589e-05,1.6105e-06,3.3466e+07,847.98,0,3.3466e+07,460.54,12878,12168,1,12168,1,3.8661e-05,1.0577e-09,0,3.8661e-05,-7.2427e-06,1.5145e+07,348.28,0,1.5145e+07,11.707,12167,11473,1,11473,1,-8.561e-06,-5.2186e-10,0,2.264e-06,-1.6098e-05,-3.4818e+06,-174.48,0,9.2138e+05,-235.07,11472,11820,1,11820,1,1.3476e-05,4.018e-10,0,1.3476e-05,-1.1964e-05,5.3148e+06,131.92,0,5.3148e+06,-64.851,11819,12516,1,12516,1,6.3846e-05,1.5604e-09,0,6.3846e-05,-2.521e-06,2.4912e+07,518.54,0,2.4912e+07,95.084,12515,412.9,0,412.9,0,2.9042e-05,6.9221e-10,0,2.7145e-05,5.4453e-06,1.1329e+07,232.82,0,1.0555e+07,123.87,412.9,1
816,0.32,12163,1,12163,1,3.9897e-05,3.7505e-09,0,4.1294e-05,-7.4742e-06,1.5578e+07,1249.8,0,1.6146e+07,46.718,12162,12879,1,12879,1,8.8656e-05,7.7567e-09,0,8.8656e-05,1.6621e-06,3.4544e+07,2639.4,0,3.4544e+07,713.19,12878,12168,1,12168,1,3.9898e-05,4.1483e-09,0,3.9898e-05,-7.4738e-06,1.5629e+07,1369,0,1.5629e+07,62.458,12167,11473,1,11473,1,-8.8369e-06,-1.6278e-09,0,2.3361e-06,-1.6616e-05,-3.594e+06,-534.13,0,9.5081e+05,-716.24,11472,11820,1,11820,1,1.3907e-05,1.8385e-09,0,1.3907e-05,-1.2347e-05,5.4845e+06,604.43,0,5.4845e+06,-63.993,11819,12516,1,12516,1,6.5888e-05,5.6867e-09,0,6.5888e-05,-2.602e-06,2.5708e+07,1887,0,2.5708e+07,184.37,12515,412.9,0,412.9,0,2.997e-05,2.414e-09,0,2.8013e-05,5.6193e-06,1.1691e+07,811.01,0,1.0893e+07,213.31,412.9,1
816,0.33,12163,1,12163,1,4.1152e-05,-5.8265e-11,0,4.2592e-05,-7.7092e-06,1.6068e+07,-19.709,0,1.6654e+07,65.32,12162,12879,1,12879,1,9.1419e-05,2.2477e-09,0,9.1419e-05,1.7147e-06,3.562e+07,751.32,0,3.562e+07,1154.2,12878,12168,1,12168,1,4.1153e-05,-2.5894e-11,0,4.1153e-05,-7.7094e-06,1.6121e+07,-8.5838,0,1.6121e+07,-15.381,12167,11473,1,11473,1,-9.1124e-06,-1.75e-09,0,2.4099e-06,-1.7135e-05,-3.706e+06,-585.12,0,9.8081e+05,-865.19,11472,11820,1,11820,1,1.4345e-05,-6.0238e-10,0,1.4345e-05,-1.2735e-05,5.6572e+06,-198.98,0,5.6572e+06,-141.13,11819,12516,1,12516,1,6.796e-05,3.8945e-10,0,6.796e-05,-2.684e-06,2.6517e+07,128,0,2.6517e+07,255.63,12515,412.9,0,412.9,0,3.0913e-05,7.2499e-10,0,2.8894e-05,5.7956e-06,1.2059e+07,240.97,0,1.1235e+07,325.31,412.9,1
816,0.34,12163,1,12163,1,4.2397e-05,-2.1182e-09,0,4.3881e-05,-7.9425e-06,1.6554e+07,-705.74,0,1.7158e+07,33.45,12162,12879,1,12879,1,9.4199e-05,1.2427e-09,0,9.4199e-05,1.7666e-06,3.6703e+07,407.76,0,3.6703e+07,516.51,12878,12168,1,12168,1,4.2397e-05,-2.1656e-09,0,4.2397e-05,-7.9421e-06,1.6608e+07,-725.19,0,1.6608e+07,18.634,12167,11473,1,11473,1,-9.3893e-06,-5.5305e-09,0,2.4828e-06,-1.7656e-05,-3.8186e+06,-1848.8,0,1.0105e+06,-541.94,11472,11820,1,11820,1,1.4778e-05,-3.6282e-09,0,1.4778e-05,-1.3121e-05,5.8282e+06,-1205.1,0,5.8282e+06,-63.659,11819,12516,1,12516,1,7.0017e-05,-6.8843e-10,0,7.0017e-05,-2.7649e-06,2.7319e+07,-228.65,0,2.7319e+07,122.6,12515,412.9,0,412.9,0,3.1848e-05,1.6678e-09,0,2.9768e-05,5.9714e-06,1.2424e+07,557.35,0,1.1575e+07,169.44,412.9,1
816,0.35,12163,1,12163,1,4.3651e-05,-7.9136e-10,0,4.5178e-05,-8.1774e-06,1.7044e+07,-263.25,0,1.7665e+07,7.0841,12162,12879,1,12879,1,9.6974e-05,9.7188e-10,0,9.6974e-05,1.8183e-06,3.7784e+07,323.48,0,3.7784e+07,294.94,12878,12168,1,12168,1,4.3651e-05,-6.3357e-10,0,4.3651e-05,-8.1773e-06,1.7099e+07,-211.77,0,1.7099e+07,8.6624,12167,11473,1,11473,1,-9.6657e-06,-3.1914e-09,0,2.5562e-06,-1.8176e-05,-3.9311e+06,-1067,0,1.0404e+06,-456.91,11472,11820,1,11820,1,1.5215e-05,-1.3785e-09,0,1.5215e-05,-1.3509e-05,6.0006e+06,-467.92,0,6.0006e+06,-54.08,11819,12516,1,12516,1,7.2087e-05,-3.8847e-11,0,7.2087e-05,-2.8467e-06,2.8127e+07,-12.741,0,2.8127e+07,79.306,12515,412.9,0,412.9,0,3.279e-05,8.8058e-10,0,3.0648e-05,6.148e-06,1.2791e+07,292.94,0,1.1917e+07,112.34,412.9,1
816,0.36,12163,1,12163,1,4.4899e-05,-1.9245e-09,0,4.647e-05,-8.411e-06,1.7531e+07,-640.81,0,1.817e+07,88.71,12162,12879,1,12879,1,9.9752e-05,6.9176e-10,0,9.9752e-05,1.8705e-06,3.8867e+07,226.99,0,3.8867e+07,515.47,12878,12168,1,12168,1,4.4898e-05,-1.9452e-09,0,4.4898e-05,-8.411e-06,1.7588e+07,-645.45,0,1.7588e+07,81.913,12167,11473,1,11473,1,-9.9427e-06,-4.6292e-09,0,2.629e-06,-1.8696e-05,-4.0437e+06,-1547.6,0,1.07e+06,-221.35,11472,11820,1,11820,1,1.565e-05,-3.021e-09,0,1.565e-05,-1.3895e-05,6.172e+06,-1006,0,6.172e+06,-18.263,11819,12516,1,12516,1,7.4146e-05,-8.9599e-10,0,7.4146e-05,-2.9277e-06,2.893e+07,-296.42,0,2.893e+07,193.29,12515,412.9,0,412.9,0,3.3727e-05,1.3687e-09,0,3.1524e-05,6.3237e-06,1.3157e+07,457.62,0,1.2258e+07,137.65,412.9,1
816,0.37,12163,1,12163,1,4.6135e-05,-3.5422e-09,0,4.775e-05,-8.6429e-06,1.8014e+07,-1179.3,0,1.8671e+07,-15.409,12162,12879,1,12879,1,0.00010251,1.0684e-09,0,0.00010251,1.9218e-06,3.9942e+07,350.57,0,3.9942e+07,598.74,12878,12168,1,12168,1,4.6136e-05,-3.6438e-09,0,4.6136e-05,-8.6437e-06,1.8073e+07,-1206.8,0,1.8073e+07,-11.195,12167,11473,1,11473,1,-1.0218e-05,-7.3925e-09,0,2.7012e-06,-1.9214e-05,-4.1559e+06,-2515.4,0,1.0993e+06,-675.64,11472,11820,1,11820,1,1.6081e-05,-5.8402e-09,0,1.6081e-05,-1.4278e-05,6.342e+06,-1938.1,0,6.342e+06,-175.67,11819,12516,1,12516,1,7.619e-05,-1.3741e-09,0,7.619e-05,-3.0085e-06,2.9728e+07,-457.28,0,2.9728e+07,137.53,12515,412.9,0,412.9,0,3.4656e-05,2.506e-09,0,3.2392e-05,6.4979e-06,1.3519e+07,838.25,0,1.2595e+07,226.57,412.9,1
816,0.38,12163,1,12163,1,4.7388e-05,1.9413e-09,0,4.9047e-05,-8.8777e-06,1.8503e+07,646.49,0,1.9178e+07,-43.868,12162,12879,1,12879,1,0.00010528,4.0793e-09,0,0.00010528,1.9738e-06,4.1022e+07,1357.6,0,4.1022e+07,812.41,12878,12168,1,12168,1,4.7389e-05,2.1987e-09,0,4.7389e-05,-8.8779e-06,1.8563e+07,729.04,0,1.8563e+07,-66.851,12167,11473,1,11473,1,-1.0494e-05,-7.7656e-10,0,2.7747e-06,-1.9734e-05,-4.2679e+06,-254.81,0,1.1292e+06,-783.34,11472,11820,1,11820,1,1.6518e-05,9.3788e-10,0,1.6518e-05,-1.4665e-05,6.5144e+06,308.99,0,6.5144e+06,-198.14,11819,12516,1,12516,1,7.8258e-05,3.0644e-09,0,7.8258e-05,-3.0904e-06,3.0535e+07,1015.8,0,3.0535e+07,94.293,12515,412.9,0,412.9,0,3.5597e-05,1.3014e-09,0,3.3272e-05,6.6744e-06,1.3886e+07,435.33,0,1.2938e+07,276.85,412.9,1
816,0.39,12163,1,12163,1,4.8632e-05,3.3348e-09,0,5.0334e-05,-9.1103e-06,1.8989e+07,1110.1,0,1.9681e+07,103.48,12162,12879,1,12879,1,0.00010805,6.4579e-09,0,0.00010805,2.0256e-06,4.2102e+07,2193.5,0,4.2102e+07,1561.5,12878,12168,1,12168,1,4.8632e-05,3.5203e-09,0,4.8632e-05,-9.1108e-06,1.9051e+07,1169,0,1.9051e+07,69.367,12167,11473,1,11473,1,-1.077e-05,-9.8411e-10,0,2.8476e-06,-2.0252e-05,-4.3802e+06,-322.92,0,1.159e+06,-577.32,11472,11820,1,11820,1,1.6952e-05,1.7216e-09,0,1.6952e-05,-1.5049e-05,6.6853e+06,565.51,0,6.6853e+06,-124.9,11819,12516,1,12516,1,8.0312e-05,5.4124e-09,0,8.0312e-05,-3.1713e-06,3.1336e+07,1793.1,0,3.1336e+07,242.58,12515,412.9,0,412.9,0,3.6532e-05,2.1174e-09,0,3.4145e-05,6.8492e-06,1.4251e+07,708.72,0,1.3277e+07,317.24,412.9,1
816,0.4,12163,1,12163,1,4.9866e-05,-1.735e-09,0,5.1612e-05,-9.3421e-06,1.9471e+07,-577.41,0,2.0181e+07,-88.905,12162,12879,1,12879,1,0.00011079,4.171e-09,0,0.00011079,2.0767e-06,4.3169e+07,1394.5,0,4.3169e+07,331.47,12878,12168,1,12168,1,4.9868e-05,-1.3037e-09,0,4.9868e-05,-9.3423e-06,1.9535e+07,-430.37,0,1.9535e+07,-105.85,12167,11473,1,11473,1,-1.1043e-05,-7.8865e-09,0,2.9199e-06,-2.0766e-05,-4.4912e+06,-2636.5,0,1.1884e+06,-429.67,11472,11820,1,11820,1,1.7383e-05,-3.941e-09,0,1.7383e-05,-1.5433e-05,6.8554e+06,-1303.7,0,6.8554e+06,-194.29,11819,12516,1,12516,1,8.2354e-05,2.4287e-10,0,8.2354e-05,-3.2523e-06,3.2133e+07,80.402,0,3.2133e+07,4.6076,12515,412.9,0,412.9,0,3.7459e-05,2.6328e-09,0,3.5012e-05,7.0232e-06,1.4613e+07,877.22,0,1.3614e+07,142.42,412.9,1
816,0.41,12163,1,12163,1,5.1123e-05,1.9542e-09,0,5.2912e-05,-9.5775e-06,1.9962e+07,650.06,0,2.0689e+07,-70.539,12162,12879,1,12879,1,0.00011358,6.5314e-09,0,0.00011358,2.1311e-06,4.4254e+07,2183.3,0,4.4254e+07,1066,12878,12168,1,12168,1,5.1124e-05,1.5734e-09,0,5.1124e-05,-9.5778e-06,2.0027e+07,517.93,0,2.0027e+07,-116.94,12167,11473,1,11473,1,-1.1321e-05,-9.4283e-10,0,2.9935e-06,-2.1289e-05,-4.6042e+06,-315.27,0,1.2184e+06,-671.34,11472,11820,1,11820,1,1.7821e-05,3.9447e-10,0,1.7821e-05,-1.5822e-05,7.0281e+06,130.87,0,7.0281e+06,-267.97,11819,12516,1,12516,1,8.4428e-05,3.3487e-09,0,8.4428e-05,-3.3339e-06,3.2942e+07,1109.5,0,3.2942e+07,79.793,12515,412.9,0,412.9,0,3.8403e-05,1.7302e-09,0,3.5894e-05,7.2003e-06,1.4981e+07,577.64,0,1.3957e+07,302.32,412.9,1
816,0.42,12163,1,12163,1,5.2384e-05,5.5583e-10,0,5.4217e-05,-9.8135e-06,2.0454e+07,185.05,0,2.1199e+07,-23.432,12162,12879,1,12879,1,0.00011637,1.1991e-09,0,0.00011637,2.1817e-06,4.5342e+07,400.97,0,4.5342e+07,424.84,12878,12168,1,12168,1,5.2384e-05,6.2098e-10,0,5.2384e-05,-9.8137e-06,2.052e+07,205.88,0,2.052e+07,-28.75,12167,11473,1,11473,1,-1.1599e-05,-3.4091e-10,0,3.0675e-06,-2.1811e-05,-4.7173e+06,-111.86,0,1.2485e+06,-215.5,11472,11820,1,11820,1,1.826e-05,3.1702e-10,0,1.826e-05,-1.6211e-05,7.2012e+06,104.19,0,7.2012e+06,-101.35,11819,12516,1,12516,1,8.6508e-05,8.3144e-10,0,8.6508e-05,-3.4159e-06,3.3754e+07,276.22,0,3.3754e+07,26.06,12515,412.9,0,412.9,0,3.935e-05,3.4558e-10,0,3.678e-05,7.378e-06,1.535e+07,115.66,0,1.4302e+07,100.83,412.9,1
816,0.43,12163,1,12163,1,5.3625e-05,2.5178e-10,0,5.5501e-05,-1.0046e-05,2.0938e+07,83.515,0,2.1702e+07,-6.1964,12162,12879,1,12879,1,0.00011912,1.8092e-09,0,0.00011912,2.2334e-06,4.6415e+07,604.76,0,4.6415e+07,549.25,12878,12168,1,12168,1,5.3625e-05,1.928e-10,0,5.3625e-05,-1.0046e-05,2.1006e+07,63.603,0,2.1006e+07,-30.174,12167,11473,1,11473,1,-1.1874e-05,-5.8632e-10,0,3.1402e-06,-2.2328e-05,-4.829e+06,-196.09,0,1.2781e+06,-629.94,11472,11820,1,11820,1,1.8692e-05,-5.8945e-11,0,1.8692e-05,-1.6595e-05,7.3718e+06,-19.486,0,7.3718e+06,-112.32,11819,12516,1,12516,1,8.8557e-05,5.6701e-10,0,8.8557e-05,-3.4968e-06,3.4553e+07,188.2,0,3.4553e+07,78.068,12515,412.9,0,412.9,0,4.0282e-05,4.8141e-10,0,3.7651e-05,7.5526e-06,1.5714e+07,159.95,0,1.464e+07,178.95,412.9,1
816,0.44,12163,1,12163,1,5.4863e-05,-2.7694e-09,0,5.6783e-05,-1.0278e-05,2.1422e+07,-922.06,0,2.2203e+07,-43.476,12162,12879,1,12879,1,0.0001219,1.6566e-09,0,0.0001219,2.2851e-06,4.7495e+07,553.9,0,4.7495e+07,268.72,12878,12168,1,12168,1,5.4865e-05,-2.6149e-09,0,5.4865e-05,-1.0278e-05,2.1492e+07,-864.91,0,2.1492e+07,-34.315,12167,11473,1,11473,1,-1.215e-05,-7.3821e-09,0,3.2125e-06,-2.2848e-05,-4.9415e+06,-2467.9,0,1.3075e+06,-634.24,11472,11820,1,11820,1,1.9124e-05,-5.197e-09,0,1.9124e-05,-1.6979e-05,7.5421e+06,-1723,0,7.5421e+06,-113.44,11819,12516,1,12516,1,9.0605e-05,-3.3136e-10,0,9.0605e-05,-3.5778e-06,3.5352e+07,-108.77,0,3.5352e+07,21.951,12515,412.9,0,412.9,0,4.1213e-05,2.5712e-09,0,3.8521e-05,7.7272e-06,1.6077e+07,858.83,0,1.4978e+07,99.919,412.9,1
816,0.45,12163,1,12163,1,5.611e-05,3.8606e-09,0,5.8074e-05,-1.0511e-05,2.1909e+07,1285.1,0,2.2708e+07,126.61,12162,12879,1,12879,1,0.00012467,6.9413e-09,0,0.00012467,2.337e-06,4.8574e+07,2367.7,0,4.8574e+07,1430.9,12878,12168,1,12168,1,5.611e-05,4.3469e-09,0,5.611e-05,-1.0512e-05,2.198e+07,1439.2,0,2.198e+07,76.356,12167,11473,1,11473,1,-1.2427e-05,-8.585e-10,0,3.2857e-06,-2.3367e-05,-5.0541e+06,-281.69,0,1.3373e+06,-1502.1,11472,11820,1,11820,1,1.9558e-05,2.393e-09,0,1.9558e-05,-1.7365e-05,7.7132e+06,786.05,0,7.7132e+06,-108.7,11819,12516,1,12516,1,9.2662e-05,5.6482e-09,0,9.2662e-05,-3.6598e-06,3.6155e+07,1875.3,0,3.6155e+07,336.28,12515,412.9,0,412.9,0,4.215e-05,2.1438e-09,0,3.9396e-05,7.9026e-06,1.6443e+07,719.13,0,1.5319e+07,454.63,412.9,1
816,0.46,12163,1,12163,1,5.7376e-05,1.0101e-09,0,5.9384e-05,-1.0749e-05,2.2403e+07,336.32,0,2.322e+07,-34.082,12162,12879,1,12879,1,0.00012746,2.3765e-09,0,0.00012746,2.3896e-06,4.9663e+07,808.64,0,4.9663e+07,453.08,12878,12168,1,12168,1,5.7375e-05,9.9368e-10,0,5.7375e-05,-1.0749e-05,2.2475e+07,330.69,0,2.2475e+07,-46.396,12167,11473,1,11473,1,-1.2704e-05,-2.8514e-10,0,3.3598e-06,-2.389e-05,-5.1669e+06,-93.561,0,1.3674e+06,-516.4,11472,11820,1,11820,1,1.9999e-05,4.0544e-10,0,1.9999e-05,-1.7756e-05,7.8873e+06,133.18,0,7.8873e+06,-107.31,11819,12516,1,12516,1,9.475e-05,1.6345e-09,0,9.475e-05,-3.7416e-06,3.697e+07,546.46,0,3.697e+07,18.562,12515,412.9,0,412.9,0,4.31e-05,7.0593e-10,0,4.0285e-05,8.081e-06,1.6813e+07,236.7,0,1.5664e+07,131.61,412.9,1
816,0.47,12163,1,12163,1,5.8613e-05,1.6667e-09,0,6.0664e-05,-1.0981e-05,2.2886e+07,555.13,0,2.372e+07,-28.286,12162,12879,1,12879,1,0.00013022,3.7254e-09,0,0.00013022,2.4412e-06,5.0738e+07,1267.6,0,5.0738e+07,351.04,12878,12168,1,12168,1,5.8614e-05,1.5889e-09,0,5.8614e-05,-1.0981e-05,2.2961e+07,529.4,0,2.2961e+07,-31.636,12167,11473,1,11473,1,-1.298e-05,-7.2545e-10,0,3.4322e-06,-2.4406e-05,-5.2789e+06,-238.04,0,1.3969e+06,-278.61,11472,11820,1,11820,1,2.0431e-05,5.8787e-10,0,2.0431e-05,-1.8139e-05,8.0575e+06,194.22,0,8.0575e+06,-97.994,11819,12516,1,12516,1,9.6796e-05,2.8607e-09,0,9.6796e-05,-3.8221e-06,3.7768e+07,947.38,0,3.7768e+07,30.118,12515,412.9,0,412.9,0,4.4029e-05,1.263e-09,0,4.1153e-05,8.2552e-06,1.7176e+07,422.6,0,1.6002e+07,101.17,412.9,1
816,0.48,12163,1,12163,1,5.9847e-05,-2.4117e-09,0,6.1942e-05,-1.1212e-05,2.3368e+07,-802.86,0,2.422e+07,-98.836,12162,12879,1,12879,1,0.00013297,3.6198e-09,0,0.00013297,2.4924e-06,5.1809e+07,1210.2,0,5.1809e+07,526.46,12878,12168,1,12168,1,5.9849e-05,-2.1607e-09,0,5.9849e-05,-1.1212e-05,2.3445e+07,-710.36,0,2.3445e+07,-122.09,12167,11473,1,11473,1,-1.3253e-05,-7.6271e-09,0,3.5043e-06,-2.4924e-05,-5.3902e+06,-2549.8,0,1.4263e+06,-872.61,11472,11820,1,11820,1,2.0862e-05,-5.1796e-09,0,2.0862e-05,-1.8521e-05,8.2274e+06,-1723.1,0,8.2274e+06,-178.11,11819,12516,1,12516,1,9.8836e-05,4.3407e-11,0,9.8836e-05,-3.9031e-06,3.8564e+07,14.255,0,3.8564e+07,-44.05,12515,412.9,0,412.9,0,4.4956e-05,2.8849e-09,0,4.202e-05,8.4291e-06,1.7537e+07,962.54,0,1.6339e+07,155.59,412.9,1
816,0.49,12163,1,12163,1,6.1107e-05,6.4212e-11,0,6.3245e-05,-1.1448e-05,2.386e+07,21.035,0,2.473e+07,-33.622,12162,12879,1,12879,1,0.00013575,1.827e-09,0,0.00013575,2.545e-06,5.2892e+07,616.95,0,5.2892e+07,171.86,12878,12168,1,12168,1,6.1107e-05,1.0813e-10,0,6.1107e-05,-1.1448e-05,2.3937e+07,35.564,0,2.3937e+07,-34.791,12167,11473,1,11473,1,-1.3531e-05,-1.5328e-09,0,3.5782e-06,-2.5443e-05,-5.5029e+06,-510.12,0,1.4563e+06,-413.06,11472,11820,1,11820,1,2.1301e-05,-4.8996e-10,0,2.1301e-05,-1.8911e-05,8.4005e+06,-165.54,0,8.4005e+06,-83.53,11819,12516,1,12516,1,0.00010091,5.7734e-10,0,0.00010091,-3.9848e-06,3.9375e+07,192.98,0,3.9375e+07,19.395,12515,412.9,0,412.9,0,4.5903e-05,7.9235e-10,0,4.2904e-05,8.6065e-06,1.7907e+07,263.99,0,1.6683e+07,70.157,412.9,1
816,0.5,12163,1,12163,1,6.2337e-05,-1.9788e-09,0,6.4519e-05,-1.1678e-05,2.434e+07,-658.81,0,2.5228e+07,-21.957,12162,12879,1,12879,1,0.0001385,3.9295e-09,0,0.0001385,2.5966e-06,5.3964e+07,1313.8,0,5.3964e+07,926.01,12878,12168,1,12168,1,6.2339e-05,-1.7016e-09,0,6.2339e-05,-1.1678e-05,2.442e+07,-560.43,0,2.442e+07,-21.652,12167,11473,1,11473,1,-1.3805e-05,-7.1681e-09,0,3.6505e-06,-2.5959e-05,-5.6145e+06,-2396.3,0,1.4858e+06,-1098.3,11472,11820,1,11820,1,2.173e-05,-4.6102e-09,0,2.173e-05,-1.9291e-05,8.5696e+06,-1535.1,0,8.5696e+06,-118.41,11819,12516,1,12516,1,0.00010295,2.7729e-10,0,0.00010295,-4.0651e-06,4.0169e+07,92.056,0,4.0169e+07,108.95,12515,412.9,0,412.9,0,4.6827e-05,2.8647e-09,0,4.3768e-05,8.7799e-06,1.8267e+07,955.82,0,1.7019e+07,258.53,412.9,1
816,0.51,12163,1,12163,1,6.3598e-05,-1.6029e-09,0,6.5824e-05,-1.1914e-05,2.4833e+07,-533.8,0,2.5738e+07,21.906,12162,12879,1,12879,1,0.00014129,1.1475e-09,0,0.00014129,2.6489e-06,5.5052e+07,392.65,0,5.5052e+07,1577.3,12878,12168,1,12168,1,6.3599e-05,-1.4909e-09,0,6.3599e-05,-1.1915e-05,2.4913e+07,-496.93,0,2.4913e+07,-25.619,12167,11473,1,11473,1,-1.4084e-05,-4.1868e-09,0,3.7244e-06,-2.6483e-05,-5.7278e+06,-1399.7,0,1.5158e+06,-436.57,11472,11820,1,11820,1,2.2169e-05,-3.0763e-09,0,2.2169e-05,-1.9681e-05,8.7428e+06,-1019.2,0,8.7428e+06,-152.48,11819,12516,1,12516,1,0.00010503,-1.4908e-10,0,0.00010503,-4.1474e-06,4.098e+07,-48.924,0,4.098e+07,108.83,12515,412.9,0,412.9,0,4.7774e-05,1.5221e-09,0,4.4654e-05,8.9572e-06,1.8637e+07,508.45,0,1.7363e+07,276.71,412.9,1
816,0.52,12163,1,12163,1,6.4854e-05,-1.6767e-09,0,6.7124e-05,-1.215e-05,2.5323e+07,-558.17,0,2.6246e+07,-100.9,12162,12879,1,12879,1,0.00014408,4.5289e-10,0,0.00014408,2.7011e-06,5.6138e+07,148.6,0,5.6138e+07,1529.2,12878,12168,1,12168,1,6.4854e-05,-1.8758e-09,0,6.4854e-05,-1.215e-05,2.5405e+07,-619.84,0,2.5405e+07,-89.724,12167,11473,1,11473,1,-1.4361e-05,-3.1532e-09,0,3.7975e-06,-2.7005e-05,-5.8405e+06,-1054.1,0,1.5457e+06,-1445.9,11472,11820,1,11820,1,2.2606e-05,-2.4537e-09,0,2.2606e-05,-2.0069e-05,8.9154e+06,-822.09,0,8.9154e+06,-250.63,11819,12516,1,12516,1,0.0001071,-9.5842e-10,0,0.0001071,-4.2291e-06,4.1789e+07,-315.09,0,4.1789e+07,9.7613,12515,412.9,0,412.9,0,4.8718e-05,9.498e-10,0,4.5536e-05,9.1344e-06,1.9005e+07,318.61,0,1.7706e+07,259.25,412.9,1
816,0.53,12163,1,12163,1,6.6095e-05,-2.0581e-09,0,6.8408e-05,-1.2382e-05,2.5808e+07,-685.02,0,2.6748e+07,-58.714,12162,12879,1,12879,1,0.00014684,6.1444e-10,0,0.00014684,2.7526e-06,5.7214e+07,201.61,0,5.7214e+07,135,12878,12168,1,12168,1,6.6096e-05,-2.0287e-09,0,6.6096e-05,-1.2383e-05,2.5892e+07,-670.44,0,2.5892e+07,-50.038,12167,11473,1,11473,1,-1.4636e-05,-4.6082e-09,0,3.8701e-06,-2.7522e-05,-5.9524e+06,-1540.6,0,1.5751e+06,-298.59,11472,11820,1,11820,1,2.3039e-05,-3.5256e-09,0,2.3039e-05,-2.0455e-05,9.0862e+06,-1172,0,9.0862e+06,-105.94,11819,12516,1,12516,1,0.00010915,-6.5523e-10,0,0.00010915,-4.3103e-06,4.2589e+07,-216.59,0,4.2589e+07,12.526,12515,412.9,0,412.9,0,4.965e-05,1.5403e-09,0,4.6407e-05,9.3091e-06,1.9368e+07,515.14,0,1.8045e+07,86.59,412.9,1
816,0.54,12163,1,12163,1,6.7345e-05,2.4153e-09,0,6.9702e-05,-1.2617e-05,2.6296e+07,804.12,0,2.7254e+07,-89.066,12162,12879,1,12879,1,0.00014962,5.9177e-09,0,0.00014962,2.8052e-06,5.8297e+07,1978.2,0,5.8297e+07,387.24,12878,12168,1,12168,1,6.7347e-05,2.385e-09,0,6.7347e-05,-1.2617e-05,2.6381e+07,796.1,0,2.6381e+07,-104.24,12167,11473,1,11473,1,-1.4913e-05,-9.072e-10,0,3.9431e-06,-2.8043e-05,-6.0649e+06,-297.67,0,1.6049e+06,-448.56,11472,11820,1,11820,1,2.3475e-05,9.7056e-10,0,2.3475e-05,-2.0843e-05,9.2582e+06,319.14,0,9.2582e+06,-222.77,11819,12516,1,12516,1,0.00011122,3.9992e-09,0,0.00011122,-4.3918e-06,4.3395e+07,1339.6,0,4.3395e+07,24.402,12515,412.9,0,412.9,0,5.0589e-05,1.7484e-09,0,4.7285e-05,9.4852e-06,1.9735e+07,584.2,0,1.8386e+07,156.89,412.9,1
816,0.55,12163,1,12163,1,6.859e-05,3.613e-09,0,7.0991e-05,-1.285e-05,2.6782e+07,1202.7,0,2.7758e+07,3.9626,12162,12879,1,12879,1,0.00015239,6.4349e-09,0,0.00015239,2.8565e-06,5.9377e+07,2141.6,0,5.9377e+07,1543.4,12878,12168,1,12168,1,6.859e-05,4.1406e-09,0,6.859e-05,-1.285e-05,2.6869e+07,1366.7,0,2.6869e+07,-46.628,12167,11473,1,11473,1,-1.5188e-05,-7.8219e-10,0,4.0159e-06,-2.8563e-05,-6.1771e+06,-256.66,0,1.6344e+06,-693.81,11472,11820,1,11820,1,2.3909e-05,2.1805e-09,0,2.3909e-05,-2.1227e-05,9.429e+06,716.53,0,9.429e+06,-173.02,11819,12516,1,12516,1,0.00011327,5.3742e-09,0,0.00011327,-4.4736e-06,4.4196e+07,1788.8,0,4.4196e+07,86.882,12515,412.9,0,412.9,0,5.1524e-05,2.0476e-09,0,4.8159e-05,9.6603e-06,2.0099e+07,686.1,0,1.8726e+07,314.84,412.9,1
816,0.56,12163,1,12163,1,6.9846e-05,-1.5121e-09,0,7.229e-05,-1.3085e-05,2.7272e+07,-503.42,0,2.8266e+07,23.463,12162,12879,1,12879,1,0.00015517,5.4031e-10,0,0.00015517,2.9089e-06,6.0459e+07,177.29,0,6.0459e+07,1756.4,12878,12168,1,12168,1,6.9846e-05,-1.6848e-09,0,6.9846e-05,-1.3085e-05,2.7361e+07,-554.82,0,2.7361e+07,-24.314,12167,11473,1,11473,1,-1.5466e-05,-2.9161e-09,0,4.09e-06,-2.9083e-05,-6.2901e+06,-974.8,0,1.6647e+06,-642.59,11472,11820,1,11820,1,2.4346e-05,-2.3291e-09,0,2.4346e-05,-2.1614e-05,9.6016e+06,-776.06,0,9.6016e+06,-97.938,11819,12516,1,12516,1,0.00011534,-8.3747e-10,0,0.00011534,-4.5549e-06,4.5005e+07,-275.21,0,4.5005e+07,48.458,12515,412.9,0,412.9,0,5.2467e-05,9.5415e-10,0,4.904e-05,9.8372e-06,2.0467e+07,319.23,0,1.9069e+07,300.38,412.9,1
816,0.57,12163,1,12163,1,7.1093e-05,2.5009e-09,0,7.3581e-05,-1.3319e-05,2.7759e+07,832.53,0,2.8771e+07,-95.445,12162,12879,1,12879,1,0.00015794,4.8498e-09,0,0.00015794,2.9611e-06,6.1541e+07,1645.5,0,6.1541e+07,201.37,12878,12168,1,12168,1,7.1093e-05,2.8275e-09,0,7.1093e-05,-1.3319e-05,2.7849e+07,935.56,0,2.7849e+07,-76.334,12167,11473,1,11473,1,-1.5743e-05,-6.2075e-10,0,4.1626e-06,-2.9604e-05,-6.4026e+06,-203.68,0,1.6942e+06,-522.1,11472,11820,1,11820,1,2.4781e-05,1.4228e-09,0,2.4781e-05,-2.2002e-05,9.7731e+06,467.37,0,9.7731e+06,-171.7,11819,12516,1,12516,1,0.0001174,3.67e-09,0,0.0001174,-4.6364e-06,4.5809e+07,1226.1,0,4.5809e+07,4.9355,12515,412.9,0,412.9,0,5.3404e-05,1.481e-09,0,4.9916e-05,1.0013e-05,2.0833e+07,496.08,0,1.941e+07,141.22,412.9,1
816,0.58,12163,1,12163,1,7.2342e-05,1.502e-09,0,7.4874e-05,-1.3552e-05,2.8247e+07,500.02,0,2.9277e+07,-6.6877,12162,12879,1,12879,1,0.00016071,2.6836e-09,0,0.00016071,3.0128e-06,6.2618e+07,897.1,0,6.2618e+07,1514.3,12878,12168,1,12168,1,7.2342e-05,1.7188e-09,0,7.2342e-05,-1.3552e-05,2.8338e+07,568.75,0,2.8338e+07,-40.806,12167,11473,1,11473,1,-1.6018e-05,-5.9623e-10,0,4.236e-06,-3.0124e-05,-6.5147e+06,-195.64,0,1.724e+06,-1130.3,11472,11820,1,11820,1,2.5217e-05,9.002e-10,0,2.5217e-05,-2.2387e-05,9.9448e+06,295.81,0,9.9448e+06,-98.69,11819,12516,1,12516,1,0.00011947,2.2208e-09,0,0.00011947,-4.7182e-06,4.6614e+07,740.26,0,4.6614e+07,17.949,12515,412.9,0,412.9,0,5.4342e-05,8.9225e-10,0,5.0793e-05,1.0189e-05,2.1199e+07,298.65,0,1.975e+07,300.22,412.9,1
816,0.59,12163,1,12163,1,7.3568e-05,-1.983e-09,0,7.6143e-05,-1.3782e-05,2.8725e+07,-660.53,0,2.9773e+07,-82.747,12162,12879,1,12879,1,0.00016345,3.4005e-09,0,0.00016345,3.0639e-06,6.3685e+07,1136.9,0,6.3685e+07,341.14,12878,12168,1,12168,1,7.357e-05,-1.4993e-09,0,7.357e-05,-1.3783e-05,2.8819e+07,-492.49,0,2.8819e+07,-72.441,12167,11473,1,11473,1,-1.6292e-05,-7.2601e-09,0,4.3078e-06,-3.0635e-05,-6.6259e+06,-2427.2,0,1.7533e+06,-421.82,11472,11820,1,11820,1,2.5644e-05,-4.4922e-09,0,2.5644e-05,-2.2768e-05,1.0114e+07,-1488,0,1.0114e+07,-159.45,11819,12516,1,12516,1,0.0001215,2.4876e-10,0,0.0001215,-4.7976e-06,4.7405e+07,81.629,0,4.7405e+07,-20.456,12515,412.9,0,412.9,0,5.5263e-05,2.7001e-09,0,5.1654e-05,1.0362e-05,2.1558e+07,900.69,0,2.0085e+07,135.04,412.9,1
816,0.6,12163,1,12163,1,7.4831e-05,-4.9863e-10,0,7.745e-05,-1.4019e-05,2.9219e+07,-166.14,0,3.0284e+07,-130.61,12162,12879,1,12879,1,0.00016624,1.1344e-09,0,0.00016624,3.1166e-06,6.4772e+07,377.53,0,6.4772e+07,95.556,12878,12168,1,12168,1,7.4832e-05,-3.4077e-10,0,7.4832e-05,-1.402e-05,2.9314e+07,-112.25,0,2.9314e+07,-125.1,12167,11473,1,11473,1,-1.657e-05,-2.1712e-09,0,4.3819e-06,-3.1157e-05,-6.7388e+06,-725.01,0,1.7834e+06,-388.4,11472,11820,1,11820,1,2.6085e-05,-1.2073e-09,0,2.6085e-05,-2.3159e-05,1.0287e+07,-401.43,0,1.0287e+07,-235.54,11819,12516,1,12516,1,0.00012358,1.404e-10,0,0.00012358,-4.8799e-06,4.8218e+07,46.676,0,4.8218e+07,-16.793,12515,412.9,0,412.9,0,5.6212e-05,8.3932e-10,0,5.254e-05,1.054e-05,2.1928e+07,279.87,0,2.043e+07,117.11,412.9,1
816,0.61,12163,1,12163,1,7.6071e-05,-1.3838e-09,0,7.8734e-05,-1.4251e-05,2.9703e+07,-460.83,0,3.0786e+07,-65.936,12162,12879,1,12879,1,0.000169,2.128e-09,0,0.000169,3.1681e-06,6.5849e+07,708.18,0,6.5849e+07,123.55,12878,12168,1,12168,1,7.6072e-05,-1.1354e-09,0,7.6072e-05,-1.4251e-05,2.98e+07,-373.56,0,2.98e+07,-67.924,12167,11473,1,11473,1,-1.6845e-05,-4.5552e-09,0,4.4543e-06,-3.1675e-05,-6.8508e+06,-1522.8,0,1.8129e+06,-449.21,11472,11820,1,11820,1,2.6517e-05,-3.0717e-09,0,2.6517e-05,-2.3543e-05,1.0458e+07,-1019,0,1.0458e+07,-108.25,11819,12516,1,12516,1,0.00012563,9.0066e-11,0,0.00012563,-4.9607e-06,4.9017e+07,29.597,0,4.9017e+07,-18.445,12515,412.9,0,412.9,0,5.7144e-05,1.7704e-09,0,5.3411e-05,1.0714e-05,2.2292e+07,590.91,0,2.0769e+07,79.469,412.9,1
816,0.62,12163,1,12163,1,7.7322e-05,-1.0949e-09,0,8.0028e-05,-1.4486e-05,3.0191e+07,-364.78,0,3.1292e+07,-103.58,12162,12879,1,12879,1,0.00017178,1.3622e-09,0,0.00017178,3.2203e-06,6.693e+07,455.36,0,6.693e+07,254.68,12878,12168,1,12168,1,7.7323e-05,-1.0036e-09,0,7.7323e-05,-1.4486e-05,3.0289e+07,-329.83,0,3.0289e+07,-111.04,12167,11473,1,11473,1,-1.7121e-05,-3.376e-09,0,4.5275e-06,-3.2195e-05,-6.9633e+06,-1128.7,0,1.8427e+06,-414.8,11472,11820,1,11820,1,2.6953e-05,-2.3031e-09,0,2.6953e-05,-2.3929e-05,1.063e+07,-778,0,1.063e+07,-202.37,11819,12516,1,12516,1,0.00012769,6.6759e-11,0,0.00012769,-5.0425e-06,4.9823e+07,21.912,0,4.9823e+07,-16.826,12515,412.9,0,412.9,0,5.8083e-05,1.2975e-09,0,5.4289e-05,1.089e-05,2.2658e+07,432.87,0,2.111e+07,123.54,412.9,1
816,0.63,12163,1,12163,1,7.8575e-05,2.202e-09,0,8.1325e-05,-1.472e-05,3.068e+07,733.06,0,3.1799e+07,-14.542,12162,12879,1,12879,1,0.00017456,3.8399e-09,0,0.00017456,3.2725e-06,6.8015e+07,1303.1,0,6.8015e+07,3472.5,12878,12168,1,12168,1,7.8575e-05,2.6216e-09,0,7.8575e-05,-1.4721e-05,3.078e+07,870.01,0,3.078e+07,-56.671,12167,11473,1,11473,1,-1.7399e-05,-9.8485e-10,0,4.6009e-06,-3.2722e-05,-7.0763e+06,-323.19,0,1.8725e+06,-2204,11472,11820,1,11820,1,2.7389e-05,1.3105e-09,0,2.7389e-05,-2.4315e-05,1.0801e+07,431.04,0,1.0801e+07,-216.84,11819,12516,1,12516,1,0.00012976,3.2598e-09,0,0.00012976,-5.1249e-06,5.063e+07,1085.5,0,5.063e+07,124.02,12515,412.9,0,412.9,0,5.9024e-05,1.2769e-09,0,5.5169e-05,1.1067e-05,2.3025e+07,427.53,0,2.1452e+07,512.6,412.9,1
816,0.64,12163,1,12163,1,7.9819e-05,1.9866e-10,0,8.2613e-05,-1.4953e-05,3.1166e+07,65.891,0,3.2302e+07,0.19358,12162,12879,1,12879,1,0.00017731,7.26e-10,0,0.00017731,3.3242e-06,6.9087e+07,248.44,0,6.9087e+07,49.772,12878,12168,1,12168,1,7.9819e-05,2.2924e-10,0,7.9819e-05,-1.4953e-05,3.1267e+07,76.317,0,3.1267e+07,-0.50626,12167,11473,1,11473,1,-1.7673e-05,-2.6191e-10,0,4.6741e-06,-3.3233e-05,-7.1877e+06,-86.955,0,1.9024e+06,-84.859,11472,11820,1,11820,1,2.7823e-05,1.221e-10,0,2.7823e-05,-2.4702e-05,1.0973e+07,40.159,0,1.0973e+07,-9.823,11819,12516,1,12516,1,0.00013182,2.7211e-10,0,0.00013182,-5.205e-06,5.1432e+07,90.144,0,5.1432e+07,13.017,12515,412.9,0,412.9,0,5.9959e-05,1.7772e-10,0,5.6043e-05,1.1242e-05,2.339e+07,59.198,0,2.1792e+07,21.581,412.9,1
816,0.65,12163,1,12163,1,8.1067e-05,1.9722e-09,0,8.3904e-05,-1.5187e-05,3.1654e+07,656.43,0,3.2808e+07,-126.18,12162,12879,1,12879,1,0.0001801,3.9691e-09,0,0.0001801,3.3763e-06,7.0172e+07,1353.4,0,7.0172e+07,517.21,12878,12168,1,12168,1,8.1068e-05,2.0511e-09,0,8.1068e-05,-1.5187e-05,3.1756e+07,680.82,0,3.1756e+07,-89.95,12167,11473,1,11473,1,-1.7951e-05,-7.6362e-10,0,4.7469e-06,-3.3755e-05,-7.3006e+06,-250.55,0,1.932e+06,-825.42,11472,11820,1,11820,1,2.8258e-05,1.0488e-09,0,2.8258e-05,-2.5089e-05,1.1144e+07,346.49,0,1.1144e+07,-261.44,11819,12516,1,12516,1,0.00013388,3.0953e-09,0,0.00013388,-5.2872e-06,5.2236e+07,1027.2,0,5.2236e+07,18.174,12515,412.9,0,412.9,0,6.0897e-05,1.2142e-09,0,5.6919e-05,1.1418e-05,2.3756e+07,406.4,0,2.2133e+07,210.47,412.9,1
816,0.66,12163,1,12163,1,8.231e-05,2.9867e-09,0,8.519e-05,-1.542e-05,3.2139e+07,994.4,0,3.331e+07,14.373,12162,12879,1,12879,1,0.00018286,5.5138e-09,0,0.00018286,3.4283e-06,7.1251e+07,1842.2,0,7.1251e+07,1352.1,12878,12168,1,12168,1,8.231e-05,3.4061e-09,0,8.231e-05,-1.542e-05,3.2243e+07,1126.6,0,3.2243e+07,-18.943,12167,11473,1,11473,1,-1.8226e-05,-9.1192e-10,0,4.8193e-06,-3.4274e-05,-7.4126e+06,-299.23,0,1.9614e+06,-525.64,11472,11820,1,11820,1,2.8691e-05,1.6092e-09,0,2.8691e-05,-2.5472e-05,1.1315e+07,529.07,0,1.1315e+07,-96.169,11819,12516,1,12516,1,0.00013593,4.5755e-09,0,0.00013593,-5.3679e-06,5.3036e+07,1529.7,0,5.3036e+07,71.565,12515,412.9,0,412.9,0,6.183e-05,1.8291e-09,0,5.7791e-05,1.1593e-05,2.412e+07,612.36,0,2.2472e+07,227.87,412.9,1
816,0.67,12163,1,12163,1,8.3547e-05,-1.609e-09,0,8.6471e-05,-1.5652e-05,3.2622e+07,-535.8,0,3.3811e+07,-34.947,12162,12879,1,12879,1,0.00018561,2.2773e-09,0,0.00018561,3.4796e-06,7.2319e+07,761.36,0,7.2319e+07,129.29,12878,12168,1,12168,1,8.3548e-05,-1.2314e-09,0,8.3548e-05,-1.5652e-05,3.2728e+07,-409.28,0,3.2728e+07,-42.04,12167,11473,1,11473,1,-1.85e-05,-5.486e-09,0,4.8922e-06,-3.4788e-05,-7.5241e+06,-1834,0,1.9911e+06,-165.67,11472,11820,1,11820,1,2.9123e-05,-3.4399e-09,0,2.9123e-05,-2.5856e-05,1.1485e+07,-1135.1,0,1.1485e+07,-87.763,11819,12516,1,12516,1,0.00013797,7.6614e-11,0,0.00013797,-5.4481e-06,5.3834e+07,25.217,0,5.3834e+07,11.192,12515,412.9,0,412.9,0,6.2759e-05,2.0421e-09,0,5.866e-05,1.1767e-05,2.4482e+07,681.48,0,2.2809e+07,63.371,412.9,1
816,0.68,12163,1,12163,1,8.4788e-05,-2.7814e-09,0,8.7755e-05,-1.5884e-05,3.3106e+07,-926.26,0,3.4313e+07,-24.438,12162,12879,1,12879,1,0.00018838,3.0605e-09,0,0.00018838,3.5314e-06,7.3398e+07,1023.2,0,7.3398e+07,396.55,12878,12168,1,12168,1,8.479e-05,-2.4985e-09,0,8.479e-05,-1.5884e-05,3.3214e+07,-833.02,0,3.3214e+07,-29.619,12167,11473,1,11473,1,-1.8776e-05,-8.0956e-09,0,4.965e-06,-3.5307e-05,-7.6364e+06,-2706.4,0,2.0207e+06,-423.51,11472,11820,1,11820,1,2.9555e-05,-5.5826e-09,0,2.9555e-05,-2.624e-05,1.1656e+07,-1868.7,0,1.1656e+07,-120.75,11819,12516,1,12516,1,0.00014002,-1.1973e-10,0,0.00014002,-5.5292e-06,5.4635e+07,-39.588,0,5.4635e+07,45.941,12515,412.9,0,412.9,0,6.3692e-05,2.9652e-09,0,5.9531e-05,1.1942e-05,2.4846e+07,990.02,0,2.3148e+07,153.93,412.9,1
816,0.69,12163,1,12163,1,8.6059e-05,1.883e-09,0,8.907e-05,-1.6122e-05,3.3602e+07,626.85,0,3.4828e+07,42.215,12162,12879,1,12879,1,0.00019118,3.3545e-09,0,0.00019118,3.584e-06,7.4492e+07,1116.4,0,7.4492e+07,1668.5,12878,12168,1,12168,1,8.6059e-05,2.2203e-09,0,8.6059e-05,-1.6123e-05,3.3711e+07,731.77,0,3.3711e+07,5.5476,12167,11473,1,11473,1,-1.9056e-05,-5.699e-10,0,5.0393e-06,-3.5834e-05,-7.75e+06,-187,0,2.051e+06,-523.34,11472,11820,1,11820,1,2.9998e-05,1.1058e-09,0,2.9998e-05,-2.6632e-05,1.183e+07,363.39,0,1.183e+07,-42.542,11819,12516,1,12516,1,0.00014212,2.8023e-09,0,0.00014212,-5.6123e-06,5.5452e+07,937.38,0,5.5452e+07,55.047,12515,412.9,0,412.9,0,6.4646e-05,1.0915e-09,0,6.0424e-05,1.2121e-05,2.5218e+07,365.55,0,2.3495e+07,239.41,412.9,1
816,0.7,12163,1,12163,1,8.7308e-05,3.0825e-10,0,9.0364e-05,-1.6356e-05,3.409e+07,102.55,0,3.5333e+07,48.233,12162,12879,1,12879,1,0.00019395,9.8461e-10,0,0.00019395,3.6367e-06,7.5569e+07,335.07,0,7.5569e+07,391.63,12878,12168,1,12168,1,8.7308e-05,2.3037e-10,0,8.7308e-05,-1.6356e-05,3.4201e+07,75.988,0,3.4201e+07,33.266,12167,11473,1,11473,1,-1.9331e-05,-4.5247e-10,0,5.1124e-06,-3.6351e-05,-7.862e+06,-153.97,0,2.0807e+06,-252.63,11472,11820,1,11820,1,3.0434e-05,1.1662e-11,0,3.0434e-05,-2.702e-05,1.2002e+07,3.8347,0,1.2002e+07,-4.8375,11819,12516,1,12516,1,0.00014418,6.5042e-10,0,0.00014418,-5.6929e-06,5.6257e+07,216.95,0,5.6257e+07,89.878,12515,412.9,0,412.9,0,6.5585e-05,3.5779e-10,0,6.1301e-05,1.2297e-05,2.5584e+07,119.42,0,2.3836e+07,88.317,412.9,1
816,0.71,12163,1,12163,1,8.8542e-05,-1.2608e-09,0,9.164e-05,-1.6587e-05,3.4572e+07,-420.1,0,3.5832e+07,-36.594,12162,12879,1,12879,1,0.0001967,1.8952e-09,0,0.0001967,3.6878e-06,7.6642e+07,630.73,0,7.6642e+07,242.97,12878,12168,1,12168,1,8.8543e-05,-1.0338e-09,0,8.8543e-05,-1.6587e-05,3.4684e+07,-340.1,0,3.4684e+07,-37.955,12167,11473,1,11473,1,-1.9606e-05,-4.1437e-09,0,5.185e-06,-3.6868e-05,-7.9738e+06,-1385.2,0,2.1103e+06,-432.41,11472,11820,1,11820,1,3.0864e-05,-2.7827e-09,0,3.0864e-05,-2.7402e-05,1.2172e+07,-927.96,0,1.2172e+07,-97.628,11819,12516,1,12516,1,0.00014622,1.1459e-10,0,0.00014622,-5.7737e-06,5.7053e+07,37.634,0,5.7053e+07,22.034,12515,412.9,0,412.9,0,6.6511e-05,1.5894e-09,0,6.2167e-05,1.2471e-05,2.5946e+07,530.4,0,2.4173e+07,99.469,412.9,1
816,0.72,12163,1,12163,1,8.98e-05,2.8304e-09,0,9.2943e-05,-1.6823e-05,3.5063e+07,942.23,0,3.6342e+07,-37.132,12162,12879,1,12879,1,0.0001995,5.5041e-09,0,0.0001995,3.7399e-06,7.7733e+07,1840.1,0,7.7733e+07,459.93,12878,12168,1,12168,1,8.98e-05,3.2694e-09,0,8.98e-05,-1.6823e-05,3.5177e+07,1090.4,0,3.5177e+07,-12.306,12167,11473,1,11473,1,-1.9885e-05,-7.885e-10,0,5.258e-06,-3.7392e-05,-8.087e+06,-258.73,0,2.14e+06,-591.48,11472,11820,1,11820,1,3.1302e-05,1.5919e-09,0,3.1302e-05,-2.7791e-05,1.2345e+07,523.38,0,1.2345e+07,-115.35,11819,12516,1,12516,1,0.0001483,4.2315e-09,0,0.0001483,-5.8561e-06,5.7863e+07,1420.7,0,5.7863e+07,53.356,12515,412.9,0,412.9,0,6.7457e-05,1.6996e-09,0,6.3051e-05,1.2648e-05,2.6315e+07,568.91,0,2.4517e+07,159.95,412.9,1
816,0.73,12163,1,12163,1,9.105e-05,5.6174e-10,0,9.4236e-05,-1.7057e-05,3.5551e+07,186.75,0,3.6847e+07,33.502,12162,12879,1,12879,1,0.00020226,1.0417e-09,0,0.00020226,3.7921e-06,7.8808e+07,354.48,0,7.8808e+07,449.14,12878,12168,1,12168,1,9.105e-05,5.4663e-10,0,9.105e-05,-1.7057e-05,3.5666e+07,181.39,0,3.5666e+07,22.76,12167,11473,1,11473,1,-2.016e-05,1.3368e-11,0,5.3317e-06,-3.7909e-05,-8.1991e+06,4.3873,0,2.17e+06,-245.33,11472,11820,1,11820,1,3.1738e-05,3.5916e-10,0,3.1738e-05,-2.8177e-05,1.2517e+07,117.98,0,1.2517e+07,-0.42058,11819,12516,1,12516,1,0.00015036,8.1325e-10,0,0.00015036,-5.9372e-06,5.8668e+07,268.89,0,5.8668e+07,60.654,12515,412.9,0,412.9,0,6.8395e-05,2.7009e-10,0,6.3928e-05,1.2824e-05,2.6681e+07,90.698,0,2.4858e+07,61.495,412.9,1
816,0.74,12163,1,12163,1,9.2292e-05,2.1848e-09,0,9.5522e-05,-1.729e-05,3.6036e+07,727.15,0,3.735e+07,22.63,12162,12879,1,12879,1,0.00020503,4.0677e-09,0,0.00020503,3.8437e-06,7.9888e+07,1392,0,7.9888e+07,554.82,12878,12168,1,12168,1,9.2292e-05,2.3878e-09,0,9.2292e-05,-1.729e-05,3.6153e+07,791.19,0,3.6153e+07,19.638,12167,11473,1,11473,1,-2.0436e-05,-5.8693e-10,0,5.4044e-06,-3.8428e-05,-8.3114e+06,-192.59,0,2.1995e+06,-626.29,11472,11820,1,11820,1,3.2171e-05,1.2371e-09,0,3.2171e-05,-2.8562e-05,1.2687e+07,406.38,0,1.2687e+07,-25.496,11819,12516,1,12516,1,0.00015241,3.3823e-09,0,0.00015241,-6.0185e-06,5.9469e+07,1123.3,0,5.9469e+07,58.177,12515,412.9,0,412.9,0,6.9328e-05,1.2764e-09,0,6.48e-05,1.2999e-05,2.7045e+07,427.59,0,2.5197e+07,127.33,412.9,1
816,0.75,12163,1,12163,1,9.3541e-05,6.942e-10,0,9.6814e-05,-1.7524e-05,3.6524e+07,230.93,0,3.7856e+07,3.2856,12162,12879,1,12879,1,0.0002078,1.4738e-09,0,0.0002078,3.8956e-06,8.0965e+07,501.41,0,8.0965e+07,1040.6,12878,12168,1,12168,1,9.3541e-05,7.0984e-10,0,9.3541e-05,-1.7524e-05,3.6642e+07,235.68,0,3.6642e+07,0.76143,12167,11473,1,11473,1,-2.0712e-05,-1.9779e-10,0,5.4775e-06,-3.8947e-05,-8.4234e+06,-64.905,0,2.2293e+06,-404.89,11472,11820,1,11820,1,3.2606e-05,4.171e-10,0,3.2606e-05,-2.8948e-05,1.2859e+07,137.07,0,1.2859e+07,-40.653,11819,12516,1,12516,1,0.00015448,9.6477e-10,0,0.00015448,-6.1e-06,6.0273e+07,321.37,0,6.0273e+07,40.294,12515,412.9,0,412.9,0,7.0267e-05,3.6658e-10,0,6.5677e-05,1.3175e-05,2.7411e+07,123.02,0,2.5538e+07,164.71,412.9,1
816,0.76,12163,1,12163,1,9.4783e-05,1.0358e-09,0,9.81e-05,-1.7757e-05,3.7009e+07,344.58,0,3.8358e+07,-41.58,12162,12879,1,12879,1,0.00021056,3.429e-09,0,0.00021056,3.9478e-06,8.2041e+07,1141.2,0,8.2041e+07,529.83,12878,12168,1,12168,1,9.4784e-05,7.302e-10,0,9.4784e-05,-1.7757e-05,3.7129e+07,240.09,0,3.7129e+07,-22.553,12167,11473,1,11473,1,-2.0987e-05,-2.1725e-10,0,5.5504e-06,-3.9464e-05,-8.5354e+06,-71.288,0,2.259e+06,-415.17,11472,11820,1,11820,1,3.3039e-05,2.8001e-10,0,3.3039e-05,-2.9333e-05,1.303e+07,92.503,0,1.303e+07,-87.384,11819,12516,1,12516,1,0.00015653,1.5824e-09,0,0.00015653,-6.1807e-06,6.1074e+07,527.9,0,6.1074e+07,15.083,12515,412.9,0,412.9,0,7.1199e-05,8.9825e-10,0,6.6549e-05,1.335e-05,2.7775e+07,300.21,0,2.5877e+07,99.723,412.9,1
816,0.77,12163,1,12163,1,9.6032e-05,1.6719e-09,0,9.9393e-05,-1.799e-05,3.7497e+07,556.51,0,3.8864e+07,35.23,12162,12879,1,12879,1,0.00021334,3.1136e-09,0,0.00021334,3.9996e-06,8.3124e+07,1041.7,0,8.3124e+07,329.83,12878,12168,1,12168,1,9.6032e-05,1.9046e-09,0,9.6032e-05,-1.799e-05,3.7618e+07,633.1,0,3.7618e+07,15.434,12167,11473,1,11473,1,-2.1264e-05,-3.8945e-10,0,5.6232e-06,-3.9985e-05,-8.6479e+06,-127.79,0,2.2886e+06,-109.72,11472,11820,1,11820,1,3.3475e-05,9.5802e-10,0,3.3475e-05,-2.972e-05,1.3202e+07,315.28,0,1.3202e+07,-13.443,11819,12516,1,12516,1,0.00015859,2.4588e-09,0,0.00015859,-6.2617e-06,6.1878e+07,823.04,0,6.1878e+07,74.009,12515,412.9,0,412.9,0,7.2138e-05,9.5294e-10,0,6.7426e-05,1.3526e-05,2.8141e+07,319.47,0,2.6218e+07,71.936,412.9,1
816,0.78,12163,1,12163,1,9.7289e-05,-4.1272e-11,0,0.00010069,-1.8226e-05,3.7987e+07,-13.839,0,3.9372e+07,3.8557,12162,12879,1,12879,1,0.00021612,3.3199e-10,0,0.00021612,4.0517e-06,8.4208e+07,113.6,0,8.4208e+07,58.12,12878,12168,1,12168,1,9.7289e-05,-1.8188e-11,0,9.7289e-05,-1.8226e-05,3.811e+07,-6.0037,0,3.811e+07,4.8677,12167,11473,1,11473,1,-2.1541e-05,-4.0694e-10,0,5.6969e-06,-4.0506e-05,-8.7607e+06,-138.52,0,2.3186e+06,-66.974,11472,11820,1,11820,1,3.3913e-05,-1.9299e-10,0,3.3913e-05,-3.0108e-05,1.3374e+07,-64.448,0,1.3374e+07,-5.5624,11819,12516,1,12516,1,0.00016066,9.2926e-11,0,0.00016066,-6.3441e-06,6.2688e+07,30.641,0,6.2688e+07,17.437,12515,412.9,0,412.9,0,7.3082e-05,1.7179e-10,0,6.8309e-05,1.3703e-05,2.8509e+07,57.257,0,2.6561e+07,17.785,412.9,1
816,0.79,12163,1,12163,1,9.8531e-05,1.8262e-09,0,0.00010198,-1.8459e-05,3.8472e+07,607.73,0,3.9875e+07,27.05,12162,12879,1,12879,1,0.00021889,3.0551e-09,0,0.00021889,4.1035e-06,8.5286e+07,1039.4,0,8.5286e+07,1239.1,12878,12168,1,12168,1,9.8531e-05,2.1107e-09,0,9.8531e-05,-1.8459e-05,3.8597e+07,700.4,0,3.8597e+07,-12.005,12167,11473,1,11473,1,-2.1817e-05,-3.8825e-10,0,5.7695e-06,-4.1026e-05,-8.873e+06,-127.4,0,2.3482e+06,-506.69,11472,11820,1,11820,1,3.4345e-05,1.1614e-09,0,3.4345e-05,-3.0492e-05,1.3545e+07,381.79,0,1.3545e+07,-123.24,11819,12516,1,12516,1,0.00016272,2.6207e-09,0,0.00016272,-6.4252e-06,6.3488e+07,875.77,0,6.3488e+07,92.161,12515,412.9,0,412.9,0,7.4015e-05,9.4762e-10,0,6.9181e-05,1.3877e-05,2.8873e+07,318.03,0,2.69e+07,246.43,412.9,1
816,0.8,12163,1,12163,1,9.977e-05,2.9341e-09,0,0.00010326,-1.8691e-05,3.8956e+07,976.53,0,4.0377e+07,14.688,12162,12879,1,12879,1,0.00022165,5.6238e-09,0,0.00022165,4.1556e-06,8.6362e+07,1913.4,0,8.6362e+07,1651.4,12878,12168,1,12168,1,9.9771e-05,3.2767e-09,0,9.9771e-05,-1.8691e-05,3.9082e+07,1081.2,0,3.9082e+07,-37.023,12167,11473,1,11473,1,-2.2093e-05,-6.1815e-10,0,5.842e-06,-4.1543e-05,-8.985e+06,-202.84,0,2.3777e+06,-541.88,11472,11820,1,11820,1,3.4778e-05,1.7143e-09,0,3.4778e-05,-3.0876e-05,1.3715e+07,563.82,0,1.3715e+07,-177.73,11819,12516,1,12516,1,0.00016476,4.4175e-09,0,0.00016476,-6.5066e-06,6.4288e+07,1469.9,0,6.4288e+07,54.966,12515,412.9,0,412.9,0,7.4946e-05,1.6511e-09,0,7.0051e-05,1.4052e-05,2.9236e+07,553.4,0,2.7239e+07,351.95,412.9,1
816,0.81,12163,1,12163,1,0.00010102,-1.8521e-09,0,0.00010455,-1.8924e-05,3.9443e+07,-616.78,0,4.0881e+07,36.639,12162,12879,1,12879,1,0.00022442,8.6841e-10,0,0.00022442,4.2078e-06,8.7441e+07,285.74,0,8.7441e+07,780.92,12878,12168,1,12168,1,0.00010102,-1.4801e-09,0,0.00010102,-1.8924e-05,3.9571e+07,-487.78,0,3.9571e+07,20.882,12167,11473,1,11473,1,-2.2368e-05,-5.3633e-09,0,5.9152e-06,-4.2062e-05,-9.097e+06,-1793,0,2.4074e+06,-366.12,11472,11820,1,11820,1,3.5213e-05,-3.5596e-09,0,3.5213e-05,-3.1262e-05,1.3887e+07,-1180.4,0,1.3887e+07,-68.36,11819,12516,1,12516,1,0.00016682,-2.073e-10,0,0.00016682,-6.5873e-06,6.5092e+07,-69.272,0,6.5092e+07,110.21,12515,412.9,0,412.9,0,7.5882e-05,1.8055e-09,0,7.0926e-05,1.4228e-05,2.9602e+07,602.98,0,2.7579e+07,171.98,412.9,1
816,0.82,12163,1,12163,1,0.00010227,1.3859e-10,0,0.00010584,-1.9158e-05,3.9931e+07,45.802,0,4.1386e+07,7.764,12162,12879,1,12879,1,0.00022718,2.4599e-09,0,0.00022718,4.2592e-06,8.8516e+07,828.01,0,8.8516e+07,654.41,12878,12168,1,12168,1,0.00010227,1.0477e-10,0,0.00010227,-1.9158e-05,4.006e+07,34.452,0,4.006e+07,-6.1192,12167,11473,1,11473,1,-2.2643e-05,-1.8981e-09,0,5.9884e-06,-4.2579e-05,-9.209e+06,-634.53,0,2.4373e+06,-149.16,11472,11820,1,11820,1,3.5648e-05,-5.782e-10,0,3.5648e-05,-3.1649e-05,1.4059e+07,-190.83,0,1.4059e+07,-30.221,11819,12516,1,12516,1,0.00016888,8.1556e-10,0,0.00016888,-6.6687e-06,6.5895e+07,268,0,6.5895e+07,23.51,12515,412.9,0,412.9,0,7.682e-05,1.0572e-09,0,7.1803e-05,1.4403e-05,2.9967e+07,352.42,0,2.792e+07,80.96,412.9,1
816,0.83,12163,1,12163,1,0.00010351,-1.1334e-09,0,0.00010714,-1.9392e-05,4.0418e+07,-377.52,0,4.1891e+07,-8.9644,12162,12879,1,12879,1,0.00022996,1.7658e-09,0,0.00022996,4.3114e-06,8.96e+07,590.43,0,8.96e+07,380.8,12878,12168,1,12168,1,0.00010351,-8.4341e-10,0,0.00010351,-1.9392e-05,4.0549e+07,-277.38,0,4.0549e+07,-20.519,12167,11473,1,11473,1,-2.292e-05,-4.2027e-09,0,6.0616e-06,-4.31e-05,-9.3217e+06,-1405,0,2.467e+06,-113.44,11472,11820,1,11820,1,3.6083e-05,-2.4784e-09,0,3.6083e-05,-3.2035e-05,1.423e+07,-824.51,0,1.423e+07,-46.81,11819,12516,1,12516,1,0.00017095,1.044e-10,0,0.00017095,-6.7501e-06,6.67e+07,34.291,0,6.67e+07,9.4556,12515,412.9,0,412.9,0,7.7758e-05,1.5404e-09,0,7.2679e-05,1.4579e-05,3.0333e+07,514.22,0,2.8261e+07,63.695,412.9,1
816,0.84,12163,1,12163,1,0.00010476,2.9014e-09,0,0.00010843,-1.9626e-05,4.0905e+07,965.82,0,4.2397e+07,-8.3531,12162,12879,1,12879,1,0.00023274,5.5558e-09,0,0.00023274,4.3632e-06,9.0683e+07,1857.4,0,9.0683e+07,124.7,12878,12168,1,12168,1,0.00010476,3.0017e-09,0,0.00010476,-1.9626e-05,4.1038e+07,996.26,0,4.1038e+07,-5.9149,12167,11473,1,11473,1,-2.3197e-05,-6.3494e-10,0,6.1343e-06,-4.3621e-05,-9.4344e+06,-208.34,0,2.4966e+06,-96.596,11472,11820,1,11820,1,3.6518e-05,1.4947e-09,0,3.6518e-05,-3.2421e-05,1.4402e+07,492.31,0,1.4402e+07,-32.26,11819,12516,1,12516,1,0.00017301,4.6337e-09,0,0.00017301,-6.8314e-06,6.7504e+07,1538.8,0,6.7504e+07,15.77,12515,412.9,0,412.9,0,7.8696e-05,1.8166e-09,0,7.3556e-05,1.4755e-05,3.0699e+07,608.33,0,2.8602e+07,35.027,412.9,1
816,0.85,12163,1,12163,1,0.00010601,-1.0865e-10,0,0.00010972,-1.9861e-05,4.1394e+07,-36.388,0,4.2903e+07,-38.194,12162,12879,1,12879,1,0.00023551,2.1718e-09,0,0.00023551,4.4153e-06,9.1762e+07,736.07,0,9.1762e+07,400.86,12878,12168,1,12168,1,0.00010601,-3.6011e-11,0,0.00010601,-1.9861e-05,4.1528e+07,-11.82,0,4.1528e+07,-28.84,12167,11473,1,11473,1,-2.3473e-05,-1.9673e-09,0,6.2079e-06,-4.414e-05,-9.5466e+06,-657.64,0,2.5266e+06,-323.43,11472,11820,1,11820,1,3.6955e-05,-8.3668e-10,0,3.6955e-05,-3.2809e-05,1.4574e+07,-277,0,1.4574e+07,-80.438,11819,12516,1,12516,1,0.00017507,4.5088e-10,0,0.00017507,-6.9133e-06,6.8311e+07,149.72,0,6.8311e+07,4.9553,12515,412.9,0,412.9,0,7.9636e-05,9.6591e-10,0,7.4435e-05,1.4931e-05,3.1066e+07,322.09,0,2.8943e+07,78.379,412.9,1
816,0.86,12163,1,12163,1,0.00010726,-2.1932e-09,0,0.00011101,-2.0093e-05,4.1879e+07,-730.41,0,4.3406e+07,1.2183,12162,12879,1,12879,1,0.00023828,9.877e-10,0,0.00023828,4.4672e-06,9.2841e+07,324.09,0,9.2841e+07,490.85,12878,12168,1,12168,1,0.00010726,-1.9823e-09,0,0.00010726,-2.0093e-05,4.2015e+07,-653.56,0,4.2015e+07,-7.7695,12167,11473,1,11473,1,-2.3749e-05,-5.6208e-09,0,6.2805e-06,-4.4659e-05,-9.6588e+06,-1879.1,0,2.5561e+06,-168.51,11472,11820,1,11820,1,3.7387e-05,-3.9097e-09,0,3.7387e-05,-3.3193e-05,1.4745e+07,-1296.7,0,1.4745e+07,-42.177,11819,12516,1,12516,1,0.00017713,-5.9994e-10,0,0.00017713,-6.994e-06,6.9111e+07,-197.02,0,6.9111e+07,30.718,12515,412.9,0,412.9,0,8.0568e-05,1.8204e-09,0,7.5306e-05,1.5106e-05,3.143e+07,608.51,0,2.9282e+07,74.073,412.9,1
816,0.87,12163,1,12163,1,0.0001085,-1.5187e-09,0,0.00011229,-2.0326e-05,4.2364e+07,-505.96,0,4.3908e+07,-130.41,12162,12879,1,12879,1,0.00024103,2.2283e-09,0,0.00024103,4.5191e-06,9.3915e+07,741.58,0,9.3915e+07,544.65,12878,12168,1,12168,1,0.0001085,-1.1177e-09,0,0.0001085,-2.0326e-05,4.2501e+07,-369.89,0,4.2501e+07,-118.18,12167,11473,1,11473,1,-2.4024e-05,-5.5452e-09,0,6.3531e-06,-4.5176e-05,-9.7706e+06,-1853.7,0,2.5856e+06,-663.76,11472,11820,1,11820,1,3.782e-05,-3.3384e-09,0,3.782e-05,-3.3578e-05,1.4915e+07,-1106.5,0,1.4915e+07,-276.55,11819,12516,1,12516,1,0.00017918,1.6014e-10,0,0.00017918,-7.0752e-06,6.9911e+07,52.552,0,6.9911e+07,5.3773,12515,412.9,0,412.9,0,8.1501e-05,2.0389e-09,0,7.6178e-05,1.5281e-05,3.1794e+07,680.44,0,2.9621e+07,188.54,412.9,1
816,0.88,12163,1,12163,1,0.00010976,-2.7626e-10,0,0.0001136,-2.0562e-05,4.2856e+07,-91.931,0,4.4419e+07,7.1351,12162,12879,1,12879,1,0.00024382,3.0779e-10,0,0.00024382,4.571e-06,9.5001e+07,102.43,0,9.5001e+07,263.97,12878,12168,1,12168,1,0.00010976,-2.0422e-10,0,0.00010976,-2.0562e-05,4.2995e+07,-67.496,0,4.2995e+07,-2.5242,12167,11473,1,11473,1,-2.4302e-05,-1.0441e-09,0,6.4271e-06,-4.5698e-05,-9.8836e+06,-347.48,0,2.6158e+06,-76.124,11472,11820,1,11820,1,3.826e-05,-5.2629e-10,0,3.826e-05,-3.3967e-05,1.5089e+07,-175.91,0,1.5089e+07,-12.452,11819,12516,1,12516,1,0.00018126,-6.1689e-13,0,0.00018126,-7.1572e-06,7.0723e+07,-0.20095,0,7.0723e+07,8.9194,12515,412.9,0,412.9,0,8.2449e-05,3.3645e-10,0,7.7064e-05,1.5459e-05,3.2163e+07,112.24,0,2.9966e+07,47.581,412.9,1
816,0.89,12163,1,12163,1,0.00011101,-3.3771e-10,0,0.00011489,-2.0796e-05,4.3343e+07,-112.55,0,4.4923e+07,-120,12162,12879,1,12879,1,0.00024659,2.3954e-10,0,0.00024659,4.6233e-06,9.6082e+07,78.601,0,9.6082e+07,582.69,12878,12168,1,12168,1,0.00011101,-4.1541e-10,0,0.00011101,-2.0796e-05,4.3483e+07,-137.57,0,4.3483e+07,-87.188,12167,11473,1,11473,1,-2.4578e-05,-9.2435e-10,0,6.5001e-06,-4.6218e-05,-9.996e+06,-314.43,0,2.6455e+06,-646.62,11472,11820,1,11820,1,3.8694e-05,-5.2571e-10,0,3.8694e-05,-3.4354e-05,1.526e+07,-174.94,0,1.526e+07,-231.67,11819,12516,1,12516,1,0.00018332,-1.6806e-10,0,0.00018332,-7.2391e-06,7.1527e+07,-55.262,0,7.1527e+07,-2.2907,12515,412.9,0,412.9,0,8.3386e-05,2.4182e-10,0,7.794e-05,1.5635e-05,3.2529e+07,80.845,0,3.0306e+07,176.66,412.9,1
816,0.9,12163,1,12163,1,0.00011224,-1.0017e-09,0,0.00011617,-2.1027e-05,4.3825e+07,-333.79,0,4.5422e+07,-95.673,12162,12879,1,12879,1,0.00024934,3.5948e-09,0,0.00024934,4.6748e-06,9.7153e+07,1198.9,0,9.7153e+07,226.14,12878,12168,1,12168,1,0.00011224,-7.4717e-10,0,0.00011224,-2.1027e-05,4.3967e+07,-245.67,0,4.3967e+07,-84.51,12167,11473,1,11473,1,-2.4853e-05,-4.6122e-09,0,6.5724e-06,-4.6733e-05,-1.0108e+07,-1541.9,0,2.6749e+06,-389.74,11472,11820,1,11820,1,3.9124e-05,-2.8822e-09,0,3.9124e-05,-3.4736e-05,1.543e+07,-951.14,0,1.543e+07,-166.74,11819,12516,1,12516,1,0.00018536,5.0965e-10,0,0.00018536,-7.3193e-06,7.2322e+07,168.43,0,7.2322e+07,-7.7877,12515,412.9,0,412.9,0,8.4312e-05,2.0657e-09,0,7.8805e-05,1.5808e-05,3.289e+07,689.02,0,3.0643e+07,111.54,412.9,1
816,0.91,12163,1,12163,1,0.0001135,1.0938e-10,0,0.00011747,-2.1263e-05,4.4317e+07,36.216,0,4.5933e+07,-34.027,12162,12879,1,12879,1,0.00025213,2.2336e-09,0,0.00025213,4.727e-06,9.824e+07,744.59,0,9.824e+07,309.94,12878,12168,1,12168,1,0.0001135,5.5196e-11,0,0.0001135,-2.1263e-05,4.4461e+07,18.346,0,4.4461e+07,-31.413,12167,11473,1,11473,1,-2.5131e-05,-1.2097e-09,0,6.6462e-06,-4.7256e-05,-1.0221e+07,-404.96,0,2.705e+06,-208.52,11472,11820,1,11820,1,3.9564e-05,-4.9667e-10,0,3.9564e-05,-3.5126e-05,1.5603e+07,-165.17,0,1.5603e+07,-64.252,11819,12516,1,12516,1,0.00018744,5.3171e-10,0,0.00018744,-7.4014e-06,7.3134e+07,178.15,0,7.3134e+07,3.2112,12515,412.9,0,412.9,0,8.5259e-05,8.0776e-10,0,7.9691e-05,1.5986e-05,3.3259e+07,269.33,0,3.0987e+07,58.577,412.9,1
816,0.92,12163,1,12163,1,0.00011474,-1.8174e-09,0,0.00011875,-2.1495e-05,4.4801e+07,-605.17,0,4.6434e+07,-54.245,12162,12879,1,12879,1,0.0002549,6.621e-10,0,0.0002549,4.7784e-06,9.9317e+07,217.25,0,9.9317e+07,93.981,12878,12168,1,12168,1,0.00011474,-1.6333e-09,0,0.00011474,-2.1495e-05,4.4946e+07,-540.78,0,4.4946e+07,-58.514,12167,11473,1,11473,1,-2.5406e-05,-4.7971e-09,0,6.7183e-06,-4.7774e-05,-1.0332e+07,-1603.7,0,2.7343e+06,-186.66,11472,11820,1,11820,1,3.9996e-05,-3.2194e-09,0,3.9996e-05,-3.5509e-05,1.5773e+07,-1073.9,0,1.5773e+07,-84.224,11819,12516,1,12516,1,0.00018948,-3.8143e-10,0,0.00018948,-7.4822e-06,7.3932e+07,-126.2,0,7.3932e+07,-25.921,12515,412.9,0,412.9,0,8.619e-05,1.5487e-09,0,8.056e-05,1.616e-05,3.3622e+07,517.89,0,3.1325e+07,49.268,412.9,1
816,0.93,12163,1,12163,1,0.00011599,-2.4258e-09,0,0.00012005,-2.1729e-05,4.5288e+07,-807.85,0,4.6939e+07,-14.441,12162,12879,1,12879,1,0.00025768,1.1723e-09,0,0.00025768,4.8305e-06,1.004e+08,384.65,0,1.004e+08,301.54,12878,12168,1,12168,1,0.00011599,-2.1583e-09,0,0.00011599,-2.1729e-05,4.5435e+07,-712.68,0,4.5435e+07,-18.979,12167,11473,1,11473,1,-2.5683e-05,-6.7026e-09,0,6.7917e-06,-4.8295e-05,-1.0445e+07,-2240.7,0,2.7641e+06,-159.27,11472,11820,1,11820,1,4.0431e-05,-4.5445e-09,0,4.0431e-05,-3.5895e-05,1.5945e+07,-1503.2,0,1.5945e+07,-65.677,11819,12516,1,12516,1,0.00019155,-3.2566e-10,0,0.00019155,-7.5635e-06,7.4737e+07,-106.97,0,7.4737e+07,25.113,12515,412.9,0,412.9,0,8.7127e-05,2.2614e-09,0,8.1436e-05,1.6336e-05,3.3988e+07,755.64,0,3.1666e+07,68.097,412.9,1
816,0.94,12163,1,12163,1,0.00011723,-9.4315e-10,0,0.00012133,-2.1962e-05,4.5774e+07,-314.36,0,4.7442e+07,-41.455,12162,12879,1,12879,1,0.00026043,2.9196e-09,0,0.00026043,4.8823e-06,1.0147e+08,976.07,0,1.0147e+08,146.48,12878,12168,1,12168,1,0.00011723,-7.328e-10,0,0.00011723,-2.1962e-05,4.5922e+07,-240.65,0,4.5922e+07,-24.899,12167,11473,1,11473,1,-2.5957e-05,-4.3501e-09,0,6.8642e-06,-4.8811e-05,-1.0557e+07,-1454.2,0,2.7937e+06,-440.87,11472,11820,1,11820,1,4.0865e-05,-2.4418e-09,0,4.0865e-05,-3.628e-05,1.6116e+07,-810.2,0,1.6116e+07,-88.71,11819,12516,1,12516,1,0.0001936,3.1643e-10,0,0.0001936,-7.6447e-06,7.5538e+07,105.2,0,7.5538e+07,23.499,12515,412.9,0,412.9,0,8.8061e-05,1.7451e-09,0,8.231e-05,1.6511e-05,3.4352e+07,582.43,0,3.2005e+07,91.931,412.9,1
816,0.95,12163,1,12163,1,0.00011849,1.6989e-09,0,0.00012263,-2.2197e-05,4.6263e+07,565.47,0,4.795e+07,-15.713,12162,12879,1,12879,1,0.00026322,3.2693e-09,0,0.00026322,4.9348e-06,1.0256e+08,1088.1,0,1.0256e+08,435.9,12878,12168,1,12168,1,0.00011849,1.767e-09,0,0.00011849,-2.2197e-05,4.6413e+07,586.27,0,4.6413e+07,-27.091,12167,11473,1,11473,1,-2.6235e-05,-4.1853e-10,0,6.9378e-06,-4.9333e-05,-1.067e+07,-137.33,0,2.8237e+06,-105.79,11472,11820,1,11820,1,4.1302e-05,7.8055e-10,0,4.1302e-05,-3.6668e-05,1.6288e+07,259.49,0,1.6288e+07,-42.904,11819,12516,1,12516,1,0.00019567,2.7814e-09,0,0.00019567,-7.7264e-06,7.6346e+07,922.04,0,7.6346e+07,-0.5701,12515,412.9,0,412.9,0,8.9004e-05,1.0831e-09,0,8.3191e-05,1.6688e-05,3.472e+07,362.52,0,3.2348e+07,55.071,412.9,1
816,0.96,12163,1,12163,1,0.00011972,-2.976e-09,0,0.00012391,-2.2428e-05,4.6746e+07,-990.88,0,4.845e+07,-46.323,12162,12879,1,12879,1,0.00026597,1.2125e-09,0,0.00026597,4.9859e-06,1.0363e+08,405.42,0,1.0363e+08,127.25,12878,12168,1,12168,1,0.00011972,-2.8167e-09,0,0.00011972,-2.2429e-05,4.6897e+07,-931.41,0,4.6897e+07,-50.154,12167,11473,1,11473,1,-2.651e-05,-7.5174e-09,0,7.0097e-06,-4.985e-05,-1.0781e+07,-2520.3,0,2.8529e+06,-199.24,11472,11820,1,11820,1,4.1732e-05,-5.3549e-09,0,4.1732e-05,-3.7051e-05,1.6458e+07,-1774.3,0,1.6458e+07,-91.488,11819,12516,1,12516,1,0.00019771,-5.1779e-10,0,0.00019771,-7.8071e-06,7.7142e+07,-170.86,0,7.7142e+07,-0.71003,12515,412.9,0,412.9,0,8.9932e-05,2.5701e-09,0,8.4058e-05,1.6862e-05,3.5082e+07,859.51,0,3.2685e+07,62.256,412.9,1
816,0.97,12163,1,12163,1,0.00012097,-2.0073e-09,0,0.0001252,-2.2662e-05,4.7233e+07,-668.73,0,4.8955e+07,18.764,12162,12879,1,12879,1,0.00026874,2.0772e-09,0,0.00026874,5.0392e-06,1.0471e+08,691.23,0,1.0471e+08,738.21,12878,12168,1,12168,1,0.00012097,-1.8264e-09,0,0.00012097,-2.2661e-05,4.7386e+07,-601.75,0,4.7386e+07,-0.40006,12167,11473,1,11473,1,-2.6785e-05,-5.5994e-09,0,7.0829e-06,-5.0369e-05,-1.0894e+07,-1905.3,0,2.8826e+06,-646.5,11472,11820,1,11820,1,4.2167e-05,-4.1367e-09,0,4.2167e-05,-3.7437e-05,1.663e+07,-1369.7,0,1.663e+07,-104.33,11819,12516,1,12516,1,0.00019977,-8.4192e-11,0,0.00019977,-7.8886e-06,7.7946e+07,-27.762,0,7.7946e+07,115.6,12515,412.9,0,412.9,0,9.0869e-05,2.1202e-09,0,8.4934e-05,1.7038e-05,3.5448e+07,707.97,0,3.3026e+07,207.68,412.9,1
816,0.98,12163,1,12163,1,0.00012223,-2.2348e-09,0,0.0001265,-2.2898e-05,4.7724e+07,-744.28,0,4.9464e+07,-56.322,12162,12879,1,12879,1,0.00027154,9.7685e-10,0,0.00027154,5.0908e-06,1.058e+08,320.54,0,1.058e+08,479.08,12878,12168,1,12168,1,0.00012223,-2.2101e-09,0,0.00012223,-2.2898e-05,4.7879e+07,-730.96,0,4.7879e+07,-48.042,12167,11473,1,11473,1,-2.7064e-05,-4.8544e-09,0,7.1567e-06,-5.0893e-05,-1.1007e+07,-1622.8,0,2.9127e+06,-458.89,11472,11820,1,11820,1,4.2606e-05,-3.8171e-09,0,4.2606e-05,-3.7826e-05,1.6803e+07,-1271.3,0,1.6803e+07,-131.42,11819,12516,1,12516,1,0.00020185,-8.6945e-10,0,0.00020185,-7.9704e-06,7.8757e+07,-287.84,0,7.8757e+07,18.745,12515,412.9,0,412.9,0,9.1815e-05,1.6685e-09,0,8.5818e-05,1.7215e-05,3.5817e+07,557.7,0,3.337e+07,143.18,412.9,1
816,0.99,12163,1,12163,1,0.00012347,-2.0459e-09,0,0.00012779,-2.3131e-05,4.821e+07,-681.36,0,4.9968e+07,-30.71,12162,12879,1,12879,1,0.0002743,1.0388e-09,0,0.0002743,5.1422e-06,1.0688e+08,340.87,0,1.0688e+08,217.43,12878,12168,1,12168,1,0.00012347,-1.8462e-09,0,0.00012347,-2.3131e-05,4.8366e+07,-613.11,0,4.8366e+07,-27.431,12167,11473,1,11473,1,-2.734e-05,-5.2149e-09,0,7.2293e-06,-5.1411e-05,-1.1119e+07,-1735.6,0,2.9423e+06,-261.05,11472,11820,1,11820,1,4.3039e-05,-3.7617e-09,0,4.3039e-05,-3.8211e-05,1.6974e+07,-1251.6,0,1.6974e+07,-77.315,11819,12516,1,12516,1,0.0002039,-4.9752e-10,0,0.0002039,-8.0515e-06,7.9558e+07,-163.39,0,7.9558e+07,18.908,12515,412.9,0,412.9,0,9.2749e-05,1.7703e-09,0,8.6691e-05,1.739e-05,3.6181e+07,591.08,0,3.3709e+07,72.71,412.9,1
816,1,12163,1,12163,1,0.0001247,-5.1285e-10,0,0.00012906,-2.3361e-05,4.8689e+07,-171.1,0,5.0464e+07,-29.513,12162,12879,1,12879,1,0.00027702,5.3094e-09,0,0.00027702,5.1935e-06,1.0794e+08,1768.8,0,1.0794e+08,461.79,12878,12168,1,12168,1,0.0001247,-3.9483e-10,0,0.0001247,-2.3361e-05,4.8847e+07,-132.37,0,4.8847e+07,-34.493,12167,11473,1,11473,1,-2.7611e-05,-4.6542e-09,0,7.3016e-06,-5.1921e-05,-1.1229e+07,-1555.9,0,2.9717e+06,-200.47,11472,11820,1,11820,1,4.3468e-05,-2.4654e-09,0,4.3468e-05,-3.8591e-05,1.7143e+07,-814.18,0,1.7143e+07,-89.695,11819,12516,1,12516,1,0.00020593,9.2702e-10,0,0.00020593,-8.1317e-06,8.035e+07,306.25,0,8.035e+07,13.09,12515,412.9,0,412.9,0,9.3671e-05,2.3907e-09,0,8.7553e-05,1.7563e-05,3.6541e+07,796.95,0,3.4044e+07,79.433,412.9,1
816,1.01,12163,1,12163,1,0.00012597,-7.2112e-10,0,0.00013038,-2.36e-05,4.9187e+07,-240.1,0,5.0981e+07,12.971,12162,12879,1,12879,1,0.00027985,2.8516e-10,0,0.00027985,5.2471e-06,1.0904e+08,93.567,0,1.0904e+08,684.46,12878,12168,1,12168,1,0.00012597,-5.9877e-10,0,0.00012597,-2.36e-05,4.9347e+07,-198.32,0,4.9347e+07,-13.533,12167,11473,1,11473,1,-2.7892e-05,-1.9823e-09,0,7.3761e-06,-5.245e-05,-1.1344e+07,-666.79,0,3.002e+06,-61.776,11472,11820,1,11820,1,4.3912e-05,-1.2771e-09,0,4.3912e-05,-3.8986e-05,1.7318e+07,-423.44,0,1.7318e+07,-25.213,11819,12516,1,12516,1,0.00020804,-1.5121e-10,0,0.00020804,-8.2146e-06,8.1171e+07,-50.053,0,8.1171e+07,11.778,12515,412.9,0,412.9,0,9.4629e-05,6.3247e-10,0,8.8449e-05,1.7743e-05,3.6915e+07,211.41,0,3.4393e+07,94.652,412.9,1
816,1.02,12163,1,12163,1,0.00012722,-2.0419e-10,0,0.00013167,-2.3834e-05,4.9675e+07,-68.07,0,5.1486e+07,-3.6791,12162,12879,1,12879,1,0.00028262,2.1614e-10,0,0.00028262,5.2982e-06,1.1012e+08,71.118,0,1.1012e+08,204.44,12878,12168,1,12168,1,0.00012722,-1.572e-10,0,0.00012722,-2.3834e-05,4.9835e+07,-51.684,0,4.9835e+07,-5.0386,12167,11473,1,11473,1,-2.8168e-05,-6.8018e-10,0,7.4492e-06,-5.2969e-05,-1.1456e+07,-229.59,0,3.0318e+06,-94.88,11472,11820,1,11820,1,4.4347e-05,-4.4968e-10,0,4.4347e-05,-3.9372e-05,1.749e+07,-148.93,0,1.749e+07,-15.164,11819,12516,1,12516,1,0.0002101,2.8742e-11,0,0.0002101,-8.2961e-06,8.1975e+07,9.4482,0,8.1975e+07,4.736,12515,412.9,0,412.9,0,9.5567e-05,2.5855e-10,0,8.9325e-05,1.7918e-05,3.728e+07,86.243,0,3.4733e+07,21.273,412.9,1
816,1.03,12163,1,12163,1,0.00012846,2.5236e-09,0,0.00013295,-2.4065e-05,5.0158e+07,840.2,0,5.1986e+07,-61.517,12162,12879,1,12879,1,0.00028538,5.5476e-09,0,0.00028538,5.3498e-06,1.1119e+08,1867.2,0,1.1119e+08,441.89,12878,12168,1,12168,1,0.00012846,2.5396e-09,0,0.00012846,-2.4065e-05,5.032e+07,845.93,0,5.032e+07,-72.723,12167,11473,1,11473,1,-2.8444e-05,-8.3904e-10,0,7.5214e-06,-5.3488e-05,-1.1568e+07,-275.31,0,3.0612e+06,-335.66,11472,11820,1,11820,1,4.4778e-05,9.4951e-10,0,4.4778e-05,-3.9755e-05,1.766e+07,313.53,0,1.766e+07,-156.08,11819,12516,1,12516,1,0.00021214,4.2427e-09,0,0.00021214,-8.3767e-06,8.2772e+07,1406.1,0,8.2772e+07,4.605,12515,412.9,0,412.9,0,9.6496e-05,1.791e-09,0,9.0193e-05,1.8093e-05,3.7643e+07,598.97,0,3.5071e+07,134.82,412.9,1
816,1.04,12163,1,12163,1,0.00012971,1.2271e-09,0,0.00013425,-2.4299e-05,5.0646e+07,408.62,0,5.2492e+07,86.631,12162,12879,1,12879,1,0.00028815,2.7128e-09,0,0.00028815,5.4021e-06,1.1227e+08,902.74,0,1.1227e+08,2308.7,12878,12168,1,12168,1,0.00012971,1.2658e-09,0,0.00012971,-2.43e-05,5.081e+07,420.87,0,5.081e+07,-34.704,12167,11473,1,11473,1,-2.872e-05,-9.1047e-10,0,7.5946e-06,-5.4007e-05,-1.168e+07,-298.76,0,3.091e+06,-402.95,11472,11820,1,11820,1,4.5215e-05,3.7479e-10,0,4.5215e-05,-4.014e-05,1.7832e+07,123.64,0,1.7832e+07,-100.53,11819,12516,1,12516,1,0.00021421,2.1954e-09,0,0.00021421,-8.4585e-06,8.3578e+07,726.75,0,8.3578e+07,35.876,12515,412.9,0,412.9,0,9.7435e-05,9.4743e-10,0,9.1072e-05,1.8269e-05,3.8009e+07,316.41,0,3.5412e+07,446.25,412.9,1
816,1.05,12163,1,12163,1,0.00013096,-1.5392e-09,0,0.00013555,-2.4534e-05,5.1135e+07,-512.76,0,5.2999e+07,9.9869,12162,12879,1,12879,1,0.00029093,8.2172e-10,0,0.00029093,5.4542e-06,1.1336e+08,269.63,0,1.1336e+08,152.06,12878,12168,1,12168,1,0.00013096,-1.699e-09,0,0.00013096,-2.4534e-05,5.13e+07,-563.94,0,5.13e+07,19.56,12167,11473,1,11473,1,-2.8997e-05,-3.53e-09,0,7.6684e-06,-5.4529e-05,-1.1793e+07,-1180.1,0,3.121e+06,-344.52,11472,11820,1,11820,1,4.565e-05,-2.3866e-09,0,4.565e-05,-4.0529e-05,1.8003e+07,-799.22,0,1.8003e+07,-11.283,11819,12516,1,12516,1,0.00021627,-7.7894e-10,0,0.00021627,-8.5399e-06,8.4384e+07,-256.08,0,8.4384e+07,44.91,12515,412.9,0,412.9,0,9.8377e-05,1.0976e-09,0,9.1951e-05,1.8445e-05,3.8376e+07,366.87,0,3.5754e+07,65.143,412.9,1
816,1.06,12163,1,12163,1,0.0001322,-4.0624e-10,0,0.00013683,-2.4767e-05,5.1619e+07,-135.47,0,5.3501e+07,-52.963,12162,12879,1,12879,1,0.00029368,2.0034e-09,0,0.00029368,5.5056e-06,1.1443e+08,669.84,0,1.1443e+08,467.4,12878,12168,1,12168,1,0.0001322,-2.8362e-10,0,0.0001322,-2.4767e-05,5.1786e+07,-93.164,0,5.1786e+07,-47.177,12167,11473,1,11473,1,-2.9271e-05,-2.5031e-09,0,7.7406e-06,-5.5044e-05,-1.1904e+07,-836.82,0,3.1504e+06,-325.51,11472,11820,1,11820,1,4.6084e-05,-1.2665e-09,0,4.6084e-05,-4.0913e-05,1.8174e+07,-420.17,0,1.8174e+07,-127.9,11819,12516,1,12516,1,0.00021832,3.6071e-10,0,0.00021832,-8.6212e-06,8.5184e+07,120.13,0,8.5184e+07,-4.1345,12515,412.9,0,412.9,0,9.9308e-05,1.0259e-09,0,9.2822e-05,1.862e-05,3.874e+07,342.15,0,3.6093e+07,114.03,412.9,1
816,1.07,12163,1,12163,1,0.00013346,5.3573e-10,0,0.00013813,-2.5001e-05,5.2109e+07,178.41,0,5.4008e+07,14.84,12162,12879,1,12879,1,0.00029647,1.6527e-09,0,0.00029647,5.5579e-06,1.1551e+08,552.53,0,1.1551e+08,336.47,12878,12168,1,12168,1,0.00013346,4.8233e-10,0,0.00013346,-2.5001e-05,5.2277e+07,159.14,0,5.2277e+07,-3.4927,12167,11473,1,11473,1,-2.9548e-05,-3.2221e-10,0,7.814e-06,-5.5565e-05,-1.2017e+07,-107.79,0,3.1802e+06,-60.815,11472,11820,1,11820,1,4.6521e-05,1.0157e-10,0,4.6521e-05,-4.1301e-05,1.8347e+07,33.355,0,1.8347e+07,-18.08,11819,12516,1,12516,1,0.00022039,9.3593e-10,0,0.00022039,-8.7027e-06,8.5992e+07,313.11,0,8.5992e+07,13.214,12515,412.9,0,412.9,0,0.00010025,5.0572e-10,0,9.3702e-05,1.8797e-05,3.9107e+07,168.81,0,3.6435e+07,68.433,412.9,1
816,1.08,12163,1,12163,1,0.00013471,-1.8853e-09,0,0.00013943,-2.5237e-05,5.26e+07,-627.5,0,5.4517e+07,2.591,12162,12879,1,12879,1,0.00029927,3.9967e-10,0,0.00029927,5.6102e-06,1.166e+08,131.14,0,1.166e+08,72.357,12878,12168,1,12168,1,0.00013471,-2.0821e-09,0,0.00013471,-2.5237e-05,5.277e+07,-692.75,0,5.277e+07,3.9357,12167,11473,1,11473,1,-2.9827e-05,-3.6341e-09,0,7.8873e-06,-5.609e-05,-1.2131e+07,-1214.2,0,3.2101e+06,-100.45,11472,11820,1,11820,1,4.6959e-05,-2.7428e-09,0,4.6959e-05,-4.169e-05,1.8519e+07,-915.35,0,1.8519e+07,-14.698,11819,12516,1,12516,1,0.00022247,-1.1149e-09,0,0.00022247,-8.7847e-06,8.6801e+07,-366.5,0,8.6801e+07,23.116,12515,412.9,0,412.9,0,0.00010119,1.095e-09,0,9.4585e-05,1.8974e-05,3.9475e+07,366.71,0,3.6778e+07,31.685,412.9,1
816,1.09,12163,1,12163,1,0.00013596,1.7357e-10,0,0.00014071,-2.547e-05,5.3085e+07,57.746,0,5.502e+07,0.46066,12162,12879,1,12879,1,0.00030202,3.3052e-10,0,0.00030202,5.6617e-06,1.1767e+08,110.48,0,1.1767e+08,14.727,12878,12168,1,12168,1,0.00013596,1.7622e-10,0,0.00013596,-2.547e-05,5.3256e+07,58.505,0,5.3256e+07,0.64182,12167,11473,1,11473,1,-3.0101e-05,-2.329e-11,0,7.9602e-06,-5.6606e-05,-1.2242e+07,-7.6417,0,3.2398e+06,-15.506,11472,11820,1,11820,1,4.7392e-05,1.089e-10,0,4.7392e-05,-4.2075e-05,1.869e+07,35.798,0,1.869e+07,-3.0999,11819,12516,1,12516,1,0.00022452,2.4315e-10,0,0.00022452,-8.8657e-06,8.7602e+07,81.086,0,8.7602e+07,3.9045,12515,412.9,0,412.9,0,0.00010213,9.035e-11,0,9.5458e-05,1.9149e-05,3.9839e+07,30.339,0,3.7117e+07,5.2752,412.9,1
816,1.1,12163,1,12163,1,0.0001372,-8.4605e-10,0,0.00014201,-2.5704e-05,5.3572e+07,-281.56,0,5.5525e+07,-0.85865,12162,12879,1,12879,1,0.00030479,1.6628e-10,0,0.00030479,5.7137e-06,1.1875e+08,54.556,0,1.1875e+08,241.78,12878,12168,1,12168,1,0.0001372,-9.0146e-10,0,0.0001372,-2.5704e-05,5.3745e+07,-298.77,0,5.3745e+07,0.20996,12167,11473,1,11473,1,-3.0378e-05,-1.584e-09,0,8.033e-06,-5.7126e-05,-1.2355e+07,-530.14,0,3.2694e+06,-38.065,11472,11820,1,11820,1,4.7827e-05,-1.2615e-09,0,4.7827e-05,-4.2461e-05,1.8862e+07,-420.62,0,1.8862e+07,-8.8025,11819,12516,1,12516,1,0.00022658,-5.0629e-10,0,0.00022658,-8.9471e-06,8.8405e+07,-166.68,0,8.8405e+07,5.1362,12515,412.9,0,412.9,0,0.00010306,4.9053e-10,0,9.6333e-05,1.9324e-05,4.0205e+07,164.34,0,3.7458e+07,17.475,412.9,1
816,1.11,12163,1,12163,1,0.00013845,-7.6847e-10,0,0.0001433,-2.5938e-05,5.4059e+07,-255.79,0,5.603e+07,-0.55969,12162,12879,1,12879,1,0.00030757,1.7746e-10,0,0.00030757,5.7657e-06,1.1983e+08,58.229,0,1.1983e+08,32.771,12878,12168,1,12168,1,0.00013845,-8.0636e-10,0,0.00013845,-2.5938e-05,5.4234e+07,-268.28,0,5.4234e+07,0.22195,12167,11473,1,11473,1,-3.0654e-05,-1.5534e-09,0,8.1061e-06,-5.7646e-05,-1.2467e+07,-519.32,0,3.2992e+06,-40.052,11472,11820,1,11820,1,4.8263e-05,-1.167e-09,0,4.8263e-05,-4.2847e-05,1.9034e+07,-390.02,0,1.9034e+07,-11.007,11819,12516,1,12516,1,0.00022864,-4.3158e-10,0,0.00022864,-9.0285e-06,8.921e+07,-141.79,0,8.921e+07,9.8059,12515,412.9,0,412.9,0,0.000104,4.7481e-10,0,9.721e-05,1.95e-05,4.0571e+07,158.91,0,3.7799e+07,13.944,412.9,1
816,1.12,12163,1,12163,1,0.00013968,-1.0296e-09,0,0.00014457,-2.6168e-05,5.454e+07,-342.86,0,5.6528e+07,-19.933,12162,12879,1,12879,1,0.00031031,2.0973e-09,0,0.00031031,5.8171e-06,1.209e+08,697.97,0,1.209e+08,79.937,12878,12168,1,12168,1,0.00013969,-9.0813e-10,0,0.00013969,-2.6169e-05,5.4717e+07,-304.54,0,5.4717e+07,-18.022,12167,11473,1,11473,1,-3.0927e-05,-3.6353e-09,0,8.1781e-06,-5.8159e-05,-1.2578e+07,-1215.3,0,3.3285e+06,-106.81,11472,11820,1,11820,1,4.8692e-05,-2.39e-09,0,4.8692e-05,-4.3229e-05,1.9203e+07,-791.63,0,1.9203e+07,-51.237,11819,12516,1,12516,1,0.00023068,9.6329e-11,0,0.00023068,-9.1089e-06,9.0004e+07,31.859,0,9.0004e+07,7.0006,12515,412.9,0,412.9,0,0.00010493,1.4761e-09,0,9.8075e-05,1.9674e-05,4.0931e+07,492.48,0,3.8135e+07,40.772,412.9,1
816,1.13,12163,1,12163,1,0.00014094,-1.1473e-09,0,0.00014587,-2.6403e-05,5.503e+07,-381.85,0,5.7036e+07,-5.4535,12162,12879,1,12879,1,0.00031309,3.5626e-10,0,0.00031309,5.8693e-06,1.2199e+08,117.22,0,1.2199e+08,50.699,12878,12168,1,12168,1,0.00014094,-1.0333e-09,0,0.00014094,-2.6404e-05,5.5208e+07,-343.11,0,5.5208e+07,-2.5669,12167,11473,1,11473,1,-3.1205e-05,-2.855e-09,0,8.2515e-06,-5.8682e-05,-1.2691e+07,-954.44,0,3.3583e+06,-56.536,11472,11820,1,11820,1,4.913e-05,-2.0778e-09,0,4.913e-05,-4.3617e-05,1.9376e+07,-689.73,0,1.9376e+07,-26.06,11819,12516,1,12516,1,0.00023275,-2.2401e-10,0,0.00023275,-9.1907e-06,9.0812e+07,-74.445,0,9.0812e+07,13.814,12515,412.9,0,412.9,0,0.00010587,9.6563e-10,0,9.8956e-05,1.985e-05,4.1299e+07,322.73,0,3.8477e+07,25.02,412.9,1
816,1.14,12163,1,12163,1,0.00014219,1.0595e-09,0,0.00014716,-2.6637e-05,5.5517e+07,352.37,0,5.7541e+07,-3.9575,12162,12879,1,12879,1,0.00031586,2.1894e-09,0,0.00031586,5.9212e-06,1.2306e+08,732.31,0,1.2306e+08,14.728,12878,12168,1,12168,1,0.00014219,1.073e-09,0,0.00014219,-2.6637e-05,5.5697e+07,355.88,0,5.5697e+07,-4.2548,12167,11473,1,11473,1,-3.1481e-05,1.3498e-11,0,8.3244e-06,-5.92e-05,-1.2803e+07,4.43,0,3.388e+06,-20.948,11472,11820,1,11820,1,4.9565e-05,6.7327e-10,0,4.9565e-05,-4.4003e-05,1.9547e+07,221.65,0,1.9547e+07,-9.4942,11819,12516,1,12516,1,0.00023481,1.4686e-09,0,0.00023481,-9.2721e-06,9.1615e+07,490.71,0,9.1615e+07,1.5299,12515,412.9,0,412.9,0,0.00010681,5.3998e-10,0,9.9832e-05,2.0026e-05,4.1664e+07,181.25,0,3.8818e+07,7.5848,412.9,1
816,1.15,12163,1,12163,1,0.00014344,-7.1488e-11,0,0.00014846,-2.6871e-05,5.6005e+07,-23.811,0,5.8047e+07,-2.8266,12162,12879,1,12879,1,0.00031863,8.567e-11,0,0.00031863,5.9731e-06,1.2414e+08,28.246,0,1.2414e+08,13.859,12878,12168,1,12168,1,0.00014344,-3.3304e-11,0,0.00014344,-2.6872e-05,5.6187e+07,-11.017,0,5.6187e+07,-3.8528,12167,11473,1,11473,1,-3.1757e-05,-4.6738e-10,0,8.3972e-06,-5.972e-05,-1.2915e+07,-156.25,0,3.4176e+06,-17.308,11472,11820,1,11820,1,5.0001e-05,-1.108e-10,0,5.0001e-05,-4.439e-05,1.9719e+07,-36.986,0,1.9719e+07,-7.8703,11819,12516,1,12516,1,0.00023688,1.1896e-12,0,0.00023688,-9.3537e-06,9.2421e+07,0.39269,0,9.2421e+07,2.6188,12515,412.9,0,412.9,0,0.00010775,1.1945e-10,0,0.00010071,2.0202e-05,4.203e+07,39.848,0,3.9159e+07,7.343,412.9,1
816,1.16,12163,1,12163,1,0.00014469,-7.6309e-10,0,0.00014975,-2.7106e-05,5.6493e+07,-254.03,0,5.8553e+07,-6.2318,12162,12879,1,12879,1,0.00032142,2.3455e-10,0,0.00032142,6.0251e-06,1.2522e+08,76.954,0,1.2522e+08,35.608,12878,12168,1,12168,1,0.00014469,-8.297e-10,0,0.00014469,-2.7106e-05,5.6677e+07,-274.94,0,5.6677e+07,-5.4981,12167,11473,1,11473,1,-3.2033e-05,-1.475e-09,0,8.4697e-06,-6.0242e-05,-1.3028e+07,-490.87,0,3.4472e+06,-41.998,11472,11820,1,11820,1,5.0437e-05,-1.1581e-09,0,5.0437e-05,-4.4777e-05,1.9891e+07,-385.85,0,1.9891e+07,-17.229,11819,12516,1,12516,1,0.00023894,-4.2843e-10,0,0.00023894,-9.4353e-06,9.3227e+07,-140.85,0,9.3227e+07,3.4633,12515,412.9,0,412.9,0,0.00010869,4.7281e-10,0,0.00010159,2.0378e-05,4.2396e+07,158.19,0,3.95e+07,14.632,412.9,1
816,1.17,12163,1,12163,1,0.00014592,-1.4663e-09,0,0.00015103,-2.7336e-05,5.6974e+07,-488.07,0,5.9051e+07,-33.319,12162,12879,1,12879,1,0.00032416,3.1069e-09,0,0.00032416,6.0764e-06,1.2629e+08,1038.7,0,1.2629e+08,101.72,12878,12168,1,12168,1,0.00014592,-1.3762e-09,0,0.00014592,-2.7337e-05,5.7159e+07,-453.11,0,5.7159e+07,-20.805,12167,11473,1,11473,1,-3.2307e-05,-4.9492e-09,0,8.5416e-06,-6.0756e-05,-1.3139e+07,-1654.5,0,3.4764e+06,-167.69,11472,11820,1,11820,1,5.0867e-05,-3.3937e-09,0,5.0867e-05,-4.5159e-05,2.0061e+07,-1131.8,0,2.0061e+07,-83.126,11819,12516,1,12516,1,0.00024098,1.3227e-10,0,0.00024098,-9.5158e-06,9.402e+07,43.412,0,9.402e+07,10.889,12515,412.9,0,412.9,0,0.00010961,2.0751e-09,0,0.00010245,2.0552e-05,4.2756e+07,692.3,0,3.9835e+07,62.809,412.9,1
816,1.18,12163,1,12163,1,0.00014717,-1.3444e-09,0,0.00015232,-2.757e-05,5.7461e+07,-447.57,0,5.9556e+07,-31.411,12162,12879,1,12879,1,0.00032693,1.6546e-09,0,0.00032693,6.1282e-06,1.2737e+08,554.84,0,1.2737e+08,88.349,12878,12168,1,12168,1,0.00014717,-1.2539e-09,0,0.00014717,-2.7571e-05,5.7649e+07,-415.67,0,5.7649e+07,-24.431,12167,11473,1,11473,1,-3.2582e-05,-3.8064e-09,0,8.6137e-06,-6.1275e-05,-1.3251e+07,-1272.5,0,3.5058e+06,-162.41,11472,11820,1,11820,1,5.1303e-05,-2.7829e-09,0,5.1303e-05,-4.5545e-05,2.0233e+07,-930.94,0,2.0233e+07,-67.85,11819,12516,1,12516,1,0.00024304,-4.5354e-11,0,0.00024304,-9.5973e-06,9.4825e+07,-14.885,0,9.4825e+07,1.8529,12515,412.9,0,412.9,0,0.00011055,1.4953e-09,0,0.00010333,2.0727e-05,4.3122e+07,498.95,0,4.0176e+07,50.239,412.9,1
816,1.19,12163,1,12163,1,0.00014844,-1.0429e-09,0,0.00015363,-2.7808e-05,5.7955e+07,-347.12,0,6.0068e+07,-4.4133,12162,12879,1,12879,1,0.00032974,2.6573e-10,0,0.00032974,6.1808e-06,1.2846e+08,87.181,0,1.2846e+08,36.695,12878,12168,1,12168,1,0.00014844,-1.1103e-09,0,0.00014844,-2.7808e-05,5.8144e+07,-367.37,0,5.8144e+07,-2.9557,12167,11473,1,11473,1,-3.2861e-05,-2.0921e-09,0,8.6876e-06,-6.1802e-05,-1.3365e+07,-698.11,0,3.5358e+06,-61.326,11472,11820,1,11820,1,5.1744e-05,-1.5708e-09,0,5.1744e-05,-4.5937e-05,2.0407e+07,-524.63,0,2.0407e+07,-15.794,11819,12516,1,12516,1,0.00024513,-5.7429e-10,0,0.00024513,-9.6799e-06,9.564e+07,-188.8,0,9.564e+07,12.387,12515,412.9,0,412.9,0,0.0001115,6.3806e-10,0,0.00010422,2.0906e-05,4.3492e+07,213.56,0,4.0521e+07,20.925,412.9,1
816,1.2,12163,1,12163,1,0.00014968,-6.0489e-10,0,0.00015491,-2.804e-05,5.844e+07,-201.35,0,6.057e+07,-6.802,12162,12879,1,12879,1,0.0003325,6.0167e-10,0,0.0003325,6.2324e-06,1.2953e+08,201.62,0,1.2953e+08,45.716,12878,12168,1,12168,1,0.00014968,-5.1574e-10,0,0.00014968,-2.804e-05,5.8631e+07,-169.41,0,5.8631e+07,-8.2037,12167,11473,1,11473,1,-3.3136e-05,-1.797e-09,0,8.76e-06,-6.2318e-05,-1.3476e+07,-600.75,0,3.5653e+06,-55.751,11472,11820,1,11820,1,5.2177e-05,-1.2414e-09,0,5.2177e-05,-4.6321e-05,2.0578e+07,-413,0,2.0578e+07,-18.852,11819,12516,1,12516,1,0.00024718,-2.1085e-11,0,0.00024718,-9.7609e-06,9.644e+07,-6.9813,0,9.644e+07,5.9725,12515,412.9,0,412.9,0,0.00011243,6.6756e-10,0,0.00010509,2.1081e-05,4.3856e+07,222.86,0,4.0859e+07,18.717,412.9,1
816,1.21,12163,1,12163,1,0.0001509,-2.3089e-09,0,0.00015618,-2.827e-05,5.8917e+07,-768.5,0,6.1064e+07,-64.349,12162,12879,1,12879,1,0.00033523,4.4666e-09,0,0.00033523,6.2835e-06,1.3059e+08,1495.4,0,1.3059e+08,128.89,12878,12168,1,12168,1,0.0001509,-2.1957e-09,0,0.0001509,-2.827e-05,5.911e+07,-722.56,0,5.911e+07,-48.883,12167,11473,1,11473,1,-3.3407e-05,-7.3455e-09,0,8.8307e-06,-6.283e-05,-1.3587e+07,-2455.6,0,3.5941e+06,-293.1,11472,11820,1,11820,1,5.2604e-05,-5.2193e-09,0,5.2604e-05,-4.67e-05,2.0746e+07,-1727.6,0,2.0746e+07,-138.2,11819,12516,1,12516,1,0.0002492,8.9618e-11,0,0.0002492,-9.8409e-06,9.7229e+07,29.499,0,9.7229e+07,11.215,12515,412.9,0,412.9,0,0.00011335,3.028e-09,0,0.00010595,2.1253e-05,4.4213e+07,1010.4,0,4.1193e+07,100.23,412.9,1
816,1.22,12163,1,12163,1,0.00015218,1.8805e-09,0,0.0001575,-2.8509e-05,5.9415e+07,625.86,0,6.1581e+07,6.2143,12162,12879,1,12879,1,0.00033805,3.6055e-09,0,0.00033805,6.3364e-06,1.3169e+08,1205.4,0,1.3169e+08,97.049,12878,12168,1,12168,1,0.00015218,1.9958e-09,0,0.00015218,-2.8509e-05,5.961e+07,664.27,0,5.961e+07,6.1773,12167,11473,1,11473,1,-3.3688e-05,-3.9203e-10,0,8.9047e-06,-6.336e-05,-1.3701e+07,-128.6,0,3.6242e+06,-73.469,11472,11820,1,11820,1,5.305e-05,1.1164e-09,0,5.305e-05,-4.7094e-05,2.0921e+07,366.71,0,2.0921e+07,-14.952,11819,12516,1,12516,1,0.0002513,2.8131e-09,0,0.0002513,-9.924e-06,9.805e+07,933.11,0,9.805e+07,26.636,12515,412.9,0,412.9,0,0.00011431,1.1095e-09,0,0.00010685,2.1433e-05,4.4587e+07,371.56,0,4.1541e+07,30.489,412.9,1
816,1.23,12163,1,12163,1,0.00015341,-2.9811e-10,0,0.00015878,-2.874e-05,5.9897e+07,-99.3,0,6.208e+07,-18.043,12162,12879,1,12879,1,0.00034079,2.4118e-09,0,0.00034079,6.3876e-06,1.3275e+08,806.33,0,1.3275e+08,40.07,12878,12168,1,12168,1,0.00015341,-3.0223e-10,0,0.00015341,-2.874e-05,6.0094e+07,-99.241,0,6.0094e+07,-16.74,12167,11473,1,11473,1,-3.396e-05,-1.8707e-09,0,8.9768e-06,-6.3873e-05,-1.3812e+07,-625.39,0,3.6535e+06,-105.47,11472,11820,1,11820,1,5.3481e-05,-1.157e-09,0,5.3481e-05,-4.7477e-05,2.1091e+07,-383.85,0,2.1091e+07,-36.239,11819,12516,1,12516,1,0.00025335,2.9359e-10,0,0.00025335,-1.0005e-05,9.8845e+07,96.309,0,9.8845e+07,3.998,12515,412.9,0,412.9,0,0.00011524,9.9672e-10,0,0.00010771,2.1606e-05,4.4948e+07,332.38,0,4.1877e+07,27.819,412.9,1
816,1.24,12163,1,12163,1,0.00015467,2.4761e-10,0,0.00016008,-2.8976e-05,6.0389e+07,82.187,0,6.259e+07,4.5157,12162,12879,1,12879,1,0.00034359,1.394e-09,0,0.00034359,6.4399e-06,1.3384e+08,465.99,0,1.3384e+08,41.286,12878,12168,1,12168,1,0.00015467,1.5668e-10,0,0.00015467,-2.8976e-05,6.0588e+07,51.543,0,6.0588e+07,7.6975,12167,11473,1,11473,1,-3.4239e-05,-2.1335e-10,0,9.0502e-06,-6.4397e-05,-1.3925e+07,-71.326,0,3.6834e+06,-46.895,11472,11820,1,11820,1,5.392e-05,-7.8086e-11,0,5.392e-05,-4.7867e-05,2.1265e+07,-25.714,0,2.1265e+07,-8.9656,11819,12516,1,12516,1,0.00025543,4.0732e-10,0,0.00025543,-1.0087e-05,9.9657e+07,135.16,0,9.9657e+07,19.357,12515,412.9,0,412.9,0,0.00011618,4.0422e-10,0,0.0001086,2.1784e-05,4.5317e+07,134.82,0,4.2221e+07,20.278,412.9,1
816,1.25,12163,1,12163,1,0.00015592,2.3296e-09,0,0.00016138,-2.921e-05,6.0876e+07,775.2,0,6.3094e+07,7.8319,12162,12879,1,12879,1,0.00034637,4.4054e-09,0,0.00034637,6.4919e-06,1.3491e+08,1469.7,0,1.3491e+08,107.87,12878,12168,1,12168,1,0.00015592,2.4632e-09,0,0.00015592,-2.921e-05,6.1076e+07,816.55,0,6.1076e+07,4.9645,12167,11473,1,11473,1,-3.4515e-05,-4.0571e-10,0,9.1222e-06,-6.4918e-05,-1.4037e+07,-133.08,0,3.7127e+06,-95.782,11472,11820,1,11820,1,5.4355e-05,1.4107e-09,0,5.4355e-05,-4.8253e-05,2.1436e+07,463.36,0,2.1436e+07,-19.589,11819,12516,1,12516,1,0.00025749,3.468e-09,0,0.00025749,-1.0168e-05,1.0046e+08,1154.6,0,1.0046e+08,36.081,12515,412.9,0,412.9,0,0.00011712,1.3348e-09,0,0.00010947,2.196e-05,4.5682e+07,447.12,0,4.2561e+07,39.996,412.9,1
816,1.26,12163,1,12163,1,0.00015577,-3.9838e-08,0,0.00016122,-2.9186e-05,6.0815e+07,-13252,0,6.3031e+07,-1796.9,12162,12879,1,12879,1,0.00034641,1.6685e-07,0,0.00034641,6.5018e-06,1.3492e+08,55779,0,1.3492e+08,5849.8,12878,12168,1,12168,1,0.00015584,-1.8849e-08,0,0.00015584,-2.9203e-05,6.1043e+07,-6259.2,0,6.1043e+07,-2132.4,12167,11473,1,11473,1,-3.4514e-05,-2.6629e-07,0,9.1009e-06,-6.492e-05,-1.4036e+07,-89019,0,3.7043e+06,-6852.1,11472,11820,1,11820,1,5.4326e-05,-1.0559e-07,0,5.4327e-05,-4.823e-05,2.1425e+07,-35106,0,2.1425e+07,-3525,11819,12516,1,12516,1,0.00025733,2.0915e-08,0,0.00025733,-1.0165e-05,1.004e+08,6996.2,0,1.004e+08,-299.44,12515,412.9,0,412.9,0,0.000117,9.7605e-08,0,0.00010936,2.1936e-05,4.563e+07,32561,0,4.2513e+07,2343.5,412.9,1
816,1.27,12163,1,12163,1,0.00015841,7.7251e-10,0,0.00016395,-2.9677e-05,6.1847e+07,256.83,0,6.4101e+07,-17.673,12162,12879,1,12879,1,0.00035189,1.6359e-09,0,0.00035189,6.5952e-06,1.3705e+08,551.36,0,1.3705e+08,52.128,12878,12168,1,12168,1,0.00015841,7.2707e-10,0,0.00015841,-2.9677e-05,6.2053e+07,240.98,0,6.2053e+07,-13.499,12167,11473,1,11473,1,-3.5064e-05,-2.8483e-10,0,9.2659e-06,-6.5954e-05,-1.426e+07,-97.467,0,3.7712e+06,-133.88,11472,11820,1,11820,1,5.5226e-05,4.0605e-10,0,5.5226e-05,-4.9024e-05,2.178e+07,133.83,0,2.178e+07,-33.175,11819,12516,1,12516,1,0.0002616,1.2117e-09,0,0.0002616,-1.0331e-05,1.0207e+08,405.98,0,1.0207e+08,9.4544,12515,412.9,0,412.9,0,0.00011899,4.772e-10,0,0.00011122,2.231e-05,4.6408e+07,159.87,0,4.3238e+07,36.813,412.9,1
816,1.28,12163,1,12163,1,0.00015817,1.709e-08,0,0.0001637,-2.9636e-05,6.1747e+07,5683.5,0,6.3997e+07,-1818.8,12162,12879,1,12879,1,0.00035163,2.6972e-07,0,0.00035163,6.6088e-06,1.3693e+08,90171,0,1.3693e+08,7324.2,12878,12168,1,12168,1,0.00015823,8.631e-09,0,0.00015823,-2.9655e-05,6.1978e+07,2853.3,0,6.1978e+07,-2280.3,12167,11473,1,11473,1,-3.5046e-05,-2.1197e-07,0,9.2342e-06,-6.5898e-05,-1.4252e+07,-70860,0,3.7585e+06,-7501.4,11472,11820,1,11820,1,5.5162e-05,-4.7427e-08,0,5.5163e-05,-4.8971e-05,2.1754e+07,-15880,0,2.1755e+07,-3792.5,11819,12516,1,12516,1,0.00026126,8.4679e-08,0,0.00026126,-1.0322e-05,1.0193e+08,27934,0,1.0193e+08,47.252,12515,412.9,0,412.9,0,0.00011879,1.0452e-07,0,0.00011104,2.2274e-05,4.6325e+07,34859,0,4.316e+07,2655.1,412.9,1
816,1.29,12163,1,12163,1,0.00016092,-1.497e-09,0,0.00016654,-3.0146e-05,6.282e+07,-498.52,0,6.5109e+07,-10.587,12162,12879,1,12879,1,0.00035746,6.5047e-10,0,0.00035746,6.6978e-06,1.3919e+08,213.31,0,1.3919e+08,88.185,12878,12168,1,12168,1,0.00016092,-1.668e-09,0,0.00016092,-3.0146e-05,6.3033e+07,-550.43,0,6.3033e+07,-4.9722,12167,11473,1,11473,1,-3.561e-05,-3.118e-09,0,9.4051e-06,-6.6996e-05,-1.4482e+07,-1042.4,0,3.8279e+06,-156.16,11472,11820,1,11820,1,5.6103e-05,-2.399e-09,0,5.6103e-05,-4.9798e-05,2.2126e+07,-800.47,0,2.2126e+07,-32.146,11819,12516,1,12516,1,0.00026573,-7.2865e-10,0,0.00026573,-1.0495e-05,1.0367e+08,-240.38,0,1.0367e+08,16.91,12515,412.9,0,412.9,0,0.00012087,1.0337e-09,0,0.00011298,2.2662e-05,4.7134e+07,345.38,0,4.3914e+07,45.781,412.9,1
816,1.3,12163,1,12163,1,0.00016061,-1.5508e-08,0,0.00016623,-3.0093e-05,6.2696e+07,-5165,0,6.498e+07,-1956.4,12162,12879,1,12879,1,0.00035707,2.0984e-07,0,0.00035707,6.7025e-06,1.3901e+08,70153,0,1.3901e+08,6210,12878,12168,1,12168,1,0.00016067,-5.9418e-09,0,0.00016067,-3.0109e-05,6.2934e+07,-1958,0,6.2934e+07,-2359.2,12167,11473,1,11473,1,-3.5565e-05,-2.3127e-07,0,9.3722e-06,-6.6917e-05,-1.4464e+07,-77313,0,3.8147e+06,-6982.4,11472,11820,1,11820,1,5.6018e-05,-7.7705e-08,0,5.6018e-05,-4.9722e-05,2.2092e+07,-25920,0,2.2092e+07,-3745.3,11819,12516,1,12516,1,0.00026529,4.2367e-08,0,0.00026529,-1.0482e-05,1.035e+08,14187,0,1.035e+08,-306.83,12515,412.9,0,412.9,0,0.00012062,9.6939e-08,0,0.00011275,2.2616e-05,4.7033e+07,32332,0,4.3819e+07,2407,412.9,1
816,1.31,12163,1,12163,1,0.00016342,2.5783e-10,0,0.00016913,-3.0615e-05,6.3794e+07,85.684,0,6.6117e+07,-31.432,12162,12879,1,12879,1,0.000363,1.374e-09,0,0.000363,6.8006e-06,1.4132e+08,467.53,0,1.4132e+08,73.436,12878,12168,1,12168,1,0.00016342,1.4081e-10,0,0.00016342,-3.0616e-05,6.4014e+07,46.377,0,6.4014e+07,-37.445,12167,11473,1,11473,1,-3.6155e-05,-7.3672e-10,0,9.5446e-06,-6.8035e-05,-1.4704e+07,-249.87,0,3.8847e+06,-116.18,11472,11820,1,11820,1,5.6981e-05,-1.2043e-10,0,5.6981e-05,-5.0572e-05,2.2472e+07,-39.668,0,2.2472e+07,-65.194,11819,12516,1,12516,1,0.00026986,6.4883e-10,0,0.00026986,-1.066e-05,1.0528e+08,218.93,0,1.0528e+08,3.4258,12515,412.9,0,412.9,0,0.00012274,5.4083e-10,0,0.00011473,2.3014e-05,4.7859e+07,180.61,0,4.459e+07,41.24,412.9,1
816,1.32,12163,1,12163,1,0.00016467,1.6539e-09,0,0.00017043,-3.0849e-05,6.4277e+07,550.5,0,6.6617e+07,-13.819,12162,12879,1,12879,1,0.00036578,4.8969e-09,0,0.00036578,6.8515e-06,1.4238e+08,1637.1,0,1.4238e+08,105.66,12878,12168,1,12168,1,0.00016467,1.2807e-09,0,0.00016467,-3.085e-05,6.4504e+07,422.89,0,6.4504e+07,-10.587,12167,11473,1,11473,1,-3.6425e-05,-5.0529e-10,0,9.6111e-06,-6.8556e-05,-1.4814e+07,-165.63,0,3.9118e+06,-139.91,11472,11820,1,11820,1,5.7421e-05,2.6271e-10,0,5.7421e-05,-5.0958e-05,2.2645e+07,86.246,0,2.2645e+07,-45.728,11819,12516,1,12516,1,0.00027192,2.9408e-09,0,0.00027192,-1.0742e-05,1.0608e+08,984.56,0,1.0608e+08,19.393,12515,412.9,0,412.9,0,0.00012368,1.5059e-09,0,0.00011561,2.3189e-05,4.8217e+07,503.17,0,4.4923e+07,44.48,412.9,1
816,1.33,12163,1,12163,1,0.00016591,2.8266e-09,0,0.00017171,-3.1082e-05,6.4758e+07,940.83,0,6.7116e+07,-27.131,12162,12879,1,12879,1,0.00036854,9.1121e-09,0,0.00036854,6.9027e-06,1.4344e+08,3046.2,0,1.4344e+08,211.78,12878,12168,1,12168,1,0.00016591,2.0967e-09,0,0.00016591,-3.1082e-05,6.499e+07,691.03,0,6.499e+07,-21.995,12167,11473,1,11473,1,-3.6696e-05,-1.0444e-09,0,9.6796e-06,-6.9073e-05,-1.4924e+07,-342.32,0,3.9396e+06,-235.46,11472,11820,1,11820,1,5.7856e-05,2.7481e-10,0,5.7856e-05,-5.1342e-05,2.2817e+07,90.145,0,2.2817e+07,-79.585,11819,12516,1,12516,1,0.00027397,5.1505e-09,0,0.00027397,-1.0823e-05,1.0688e+08,1709.5,0,1.0688e+08,20.615,12515,412.9,0,412.9,0,0.00012461,2.8039e-09,0,0.00011648,2.3363e-05,4.8576e+07,936.42,0,4.5258e+07,78.304,412.9,1
816,1.34,12163,1,12163,1,0.00016575,-1.8457e-08,0,0.00017154,-3.1056e-05,6.4694e+07,-6143.7,0,6.7049e+07,-1961.7,12162,12879,1,12879,1,0.00036849,2.17e-07,0,0.00036849,6.9153e-06,1.434e+08,72547,0,1.434e+08,6542.3,12878,12168,1,12168,1,0.00016581,-7.0927e-09,0,0.00016581,-3.1072e-05,6.4948e+07,-2326.6,0,6.4948e+07,-2358.6,12167,11473,1,11473,1,-3.669e-05,-2.473e-07,0,9.6612e-06,-6.9057e-05,-1.4921e+07,-82672,0,3.9323e+06,-7223.1,11472,11820,1,11820,1,5.7818e-05,-8.4219e-08,0,5.7819e-05,-5.1313e-05,2.2802e+07,-27983,0,2.2802e+07,-3823.1,11819,12516,1,12516,1,0.00027378,4.3318e-08,0,0.00027378,-1.0819e-05,1.068e+08,14436,0,1.068e+08,-220.39,12515,412.9,0,412.9,0,0.00012448,1.0243e-07,0,0.00011635,2.3339e-05,4.8522e+07,34161,0,4.5207e+07,2494,412.9,1
816,1.35,12163,1,12163,1,0.00016666,-6.884e-08,0,0.00017248,-3.1232e-05,6.5047e+07,-22911,0,6.7416e+07,-4526.2,12162,12879,1,12879,1,0.00037099,3.3088e-07,0,0.00037099,6.9525e-06,1.4438e+08,1.1127e+05,0,1.4438e+08,6477.3,12878,12168,1,12168,1,0.00016678,-3.676e-08,0,0.00016678,-3.1259e-05,6.5327e+07,-12091,0,6.5327e+07,-5009.5,12167,11473,1,11473,1,-3.6945e-05,-4.4989e-07,0,9.703e-06,-6.9525e-05,-1.5025e+07,-1.504e+05,0,3.9488e+06,-13488,11472,11820,1,11820,1,5.8151e-05,-1.9388e-07,0,5.8152e-05,-5.1612e-05,2.2933e+07,-64609,0,2.2933e+07,-7928.4,11819,12516,1,12516,1,0.00027537,3.997e-08,0,0.00027537,-1.0886e-05,1.0743e+08,13150,0,1.0743e+08,-1289.3,12515,412.9,0,412.9,0,0.00012515,1.8078e-07,0,0.00011698,2.3464e-05,4.8785e+07,60307,0,4.5451e+07,4411.9,412.9,1
816,1.36,12163,1,12163,1,0.00016844,-7.193e-08,0,0.00017433,-3.1562e-05,6.5743e+07,-23929,0,6.8137e+07,-2684.9,12162,12879,1,12879,1,0.00037489,2.669e-07,0,0.00037489,7.0319e-06,1.4588e+08,89229,0,1.4588e+08,8645.9,12878,12168,1,12168,1,0.00016855,-4.6911e-08,0,0.00016855,-3.1586e-05,6.6022e+07,-15444,0,6.6022e+07,-2679.5,12167,11473,1,11473,1,-3.7319e-05,-3.5661e-07,0,9.8158e-06,-7.0255e-05,-1.5178e+07,-1.1922e+05,0,3.9949e+06,-12383,11472,11820,1,11820,1,5.8768e-05,-1.8348e-07,0,5.8769e-05,-5.216e-05,2.3176e+07,-60916,0,2.3177e+07,-6164.4,11819,12516,1,12516,1,0.00027831,2.041e-08,0,0.00027831,-1.0998e-05,1.0857e+08,6692.6,0,1.0857e+08,210.76,12515,412.9,0,412.9,0,0.00012649,1.4707e-07,0,0.00011824,2.3717e-05,4.9307e+07,49079,0,4.5937e+07,4028.9,412.9,1
816,1.37,12163,1,12163,1,0.00016945,3.2347e-09,0,0.00017537,-3.175e-05,6.6132e+07,1080.7,0,6.8539e+07,-2482.3,12162,12879,1,12879,1,0.00037678,3.4279e-07,0,0.00037678,7.0659e-06,1.466e+08,1.1495e+05,0,1.466e+08,6076.4,12878,12168,1,12168,1,0.00016953,-1.0378e-09,0,0.00016953,-3.1778e-05,6.6403e+07,-339.74,0,6.6403e+07,-2679.4,12167,11473,1,11473,1,-3.7493e-05,-2.9025e-07,0,9.8585e-06,-7.0607e-05,-1.5248e+07,-97030,0,4.0127e+06,-9773.5,11472,11820,1,11820,1,5.9133e-05,-8.8423e-08,0,5.9134e-05,-5.2461e-05,2.332e+07,-29510,0,2.332e+07,-5386.5,11819,12516,1,12516,1,0.00027988,9.0594e-08,0,0.00027988,-1.1073e-05,1.0918e+08,30113,0,1.0918e+08,59.595,12515,412.9,0,412.9,0,0.00012724,1.4571e-07,0,0.00011894,2.3857e-05,4.9592e+07,48605,0,4.6205e+07,3536.6,412.9,1
816,1.38,12163,1,12163,1,0.00017051,-6.7435e-08,0,0.00017647,-3.1951e-05,6.6538e+07,-22445,0,6.8961e+07,-3337.9,12162,12879,1,12879,1,0.00037952,3.3437e-07,0,0.00037952,7.1324e-06,1.4763e+08,1.1153e+05,0,1.4763e+08,14173,12878,12168,1,12168,1,0.00017063,-3.7182e-08,0,0.00017063,-3.1978e-05,6.6836e+07,-12243,0,6.6836e+07,-3405.8,12167,11473,1,11473,1,-3.7769e-05,-4.1937e-07,0,9.9291e-06,-7.1125e-05,-1.5361e+07,-1.402e+05,0,4.0416e+06,-12096,11472,11820,1,11820,1,5.9501e-05,-1.8911e-07,0,5.9502e-05,-5.2804e-05,2.3465e+07,-62658,0,2.3465e+07,-7050.8,11819,12516,1,12516,1,0.00028173,3.9187e-08,0,0.00028173,-1.1137e-05,1.0989e+08,12985,0,1.0989e+08,-456.48,12515,412.9,0,412.9,0,0.00012804,1.7513e-07,0,0.00011969,2.4007e-05,4.9895e+07,58429,0,4.6484e+07,4478.9,412.9,1
816,1.39,12163,1,12163,1,0.00017208,-5.6361e-08,0,0.00017809,-3.2247e-05,6.7145e+07,-18757,0,6.9591e+07,-3967.6,12162,12879,1,12879,1,0.00038286,2.1475e-07,0,0.00038286,7.1711e-06,1.489e+08,71793,0,1.489e+08,6320.4,12878,12168,1,12168,1,0.00017218,-2.586e-08,0,0.00017218,-3.2266e-05,6.7443e+07,-8548.2,0,6.7443e+07,-4401.8,12167,11473,1,11473,1,-3.8111e-05,-3.4925e-07,0,1.0033e-05,-7.1748e-05,-1.55e+07,-1.1675e+05,0,4.0839e+06,-16195,11472,11820,1,11820,1,6.0039e-05,-1.3828e-07,0,6.0039e-05,-5.3282e-05,2.3677e+07,-45896,0,2.3677e+07,-6849.3,11819,12516,1,12516,1,0.00028429,2.7383e-08,0,0.00028429,-1.124e-05,1.1088e+08,9185.3,0,1.1088e+08,-1364.9,12515,412.9,0,412.9,0,0.00012923,1.3012e-07,0,0.00012079,2.4226e-05,5.0351e+07,43436,0,4.6908e+07,4210.4,412.9,1
816,1.4,12163,1,12163,1,0.00017312,-1.1843e-07,0,0.00017916,-3.2442e-05,6.7541e+07,-39404,0,6.9998e+07,-3815,12162,12879,1,12879,1,0.00038553,1.6443e-07,0,0.00038553,7.2096e-06,1.4989e+08,55509,0,1.4989e+08,6882.5,12878,12168,1,12168,1,0.00017325,-8.9367e-08,0,0.00017325,-3.2468e-05,6.7861e+07,-29639,0,6.7861e+07,-4586.9,12167,11473,1,11473,1,-3.8336e-05,-4.1983e-07,0,1.0053e-05,-7.225e-05,-1.5592e+07,-1.4035e+05,0,4.0918e+06,-10461,11472,11820,1,11820,1,6.0428e-05,-2.2727e-07,0,6.0429e-05,-5.3608e-05,2.383e+07,-75356,0,2.3831e+07,-6613,11819,12516,1,12516,1,0.00028604,-1.453e-08,0,0.00028604,-1.1313e-05,1.1154e+08,-4759.6,0,1.1154e+08,-1738.6,12515,412.9,0,412.9,0,0.00012998,1.4397e-07,0,0.00012151,2.4367e-05,5.063e+07,48094,0,4.7172e+07,3711,412.9,1
816,1.41,12163,1,12163,1,0.00017597,1.6269e-09,0,0.0001821,-3.2966e-05,6.8645e+07,538.1,0,7.1139e+07,-199.15,12162,12879,1,12879,1,0.0003908,4.8462e-09,0,0.0003908,7.3067e-06,1.5191e+08,1593.4,0,1.5191e+08,25.081,12878,12168,1,12168,1,0.00017597,1.5806e-09,0,0.00017597,-3.2967e-05,6.893e+07,523.61,0,6.893e+07,-222.67,12167,11473,1,11473,1,-3.885e-05,-1.0025e-09,0,1.0202e-05,-7.3245e-05,-1.58e+07,-329.66,0,4.1522e+06,-412.97,11472,11820,1,11820,1,6.1402e-05,8.0778e-10,0,6.1402e-05,-5.4447e-05,2.4216e+07,266.4,0,2.4216e+07,-289.74,11819,12516,1,12516,1,0.00029054,2.247e-09,0,0.00029054,-1.1487e-05,1.1328e+08,748.98,0,1.1328e+08,-104.11,12515,412.9,0,412.9,0,0.00013212,1.2075e-09,0,0.00012352,2.4771e-05,5.1453e+07,397.56,0,4.7941e+07,116.4,412.9,1
816,1.42,12163,1,12163,1,0.00017726,1.0168e-09,0,0.00018342,-3.3206e-05,6.9125e+07,338.09,0,7.1634e+07,-30.034,12162,12879,1,12879,1,0.00039361,4.2329e-09,0,0.00039361,7.3541e-06,1.5292e+08,1420.9,0,1.5292e+08,75.597,12878,12168,1,12168,1,0.00017726,6.759e-10,0,0.00017726,-3.3207e-05,6.9432e+07,224.63,0,6.9432e+07,-29.674,12167,11473,1,11473,1,-3.9097e-05,-1.0996e-09,0,1.0249e-05,-7.3771e-05,-1.5901e+07,-369.3,0,4.1717e+06,-123.43,11472,11820,1,11820,1,6.1868e-05,2.13e-11,0,6.1868e-05,-5.484e-05,2.4399e+07,7.1163,0,2.4399e+07,-59.937,11819,12516,1,12516,1,0.00029264,1.9888e-09,0,0.00029264,-1.1574e-05,1.1406e+08,661.81,0,1.1406e+08,1.2993,12515,412.9,0,412.9,0,0.00013306,1.3599e-09,0,0.00012441,2.4947e-05,5.1794e+07,454.02,0,4.826e+07,44.013,412.9,1
816,1.43,12163,1,12163,1,0.00017717,2.6395e-08,0,0.00018333,-3.3197e-05,6.9081e+07,8777.8,0,7.1588e+07,-2983.6,12162,12879,1,12879,1,0.00039374,2.9728e-07,0,0.00039374,7.3647e-06,1.5293e+08,99886,0,1.5293e+08,4388.6,12878,12168,1,12168,1,0.00017722,1.1706e-08,0,0.00017722,-3.3212e-05,6.9418e+07,3833.3,0,6.9418e+07,-3481.5,12167,11473,1,11473,1,-3.912e-05,-2.0965e-07,0,1.0229e-05,-7.3789e-05,-1.591e+07,-70146,0,4.1638e+06,-7995,11472,11820,1,11820,1,6.1856e-05,-3.7874e-08,0,6.1857e-05,-5.4833e-05,2.4394e+07,-12735,0,2.4394e+07,-4989.6,11819,12516,1,12516,1,0.00029256,9.5822e-08,0,0.00029256,-1.1578e-05,1.1401e+08,31598,0,1.1401e+08,-1047.8,12515,412.9,0,412.9,0,0.00013298,1.1168e-07,0,0.00012433,2.4932e-05,5.1752e+07,37247,0,4.8219e+07,2778,412.9,1
816,1.44,12163,1,12163,1,0.00017821,-4.7447e-08,0,0.00018441,-3.3395e-05,6.9487e+07,-15767,0,7.201e+07,-4153.5,12162,12879,1,12879,1,0.00039633,3.5505e-07,0,0.00039633,7.419e-06,1.5394e+08,1.1937e+05,0,1.5394e+08,6152.2,12878,12168,1,12168,1,0.0001783,-3.1171e-08,0,0.0001783,-3.3415e-05,6.984e+07,-10339,0,6.984e+07,-4109.6,12167,11473,1,11473,1,-3.9379e-05,-4.068e-07,0,1.0289e-05,-7.427e-05,-1.6014e+07,-1.3599e+05,0,4.1882e+06,-16045,11472,11820,1,11820,1,6.2226e-05,-1.6567e-07,0,6.2227e-05,-5.5165e-05,2.454e+07,-55306,0,2.454e+07,-7971.6,11819,12516,1,12516,1,0.00029434,5.0262e-08,0,0.00029434,-1.1651e-05,1.147e+08,16517,0,1.147e+08,-66.236,12515,412.9,0,412.9,0,0.00013376,1.7436e-07,0,0.00012506,2.5078e-05,5.2055e+07,58153,0,4.8501e+07,5194.4,412.9,1
816,1.45,12163,1,12163,1,0.00017955,-6.7962e-08,0,0.00018579,-3.3648e-05,7.0003e+07,-22606,0,7.2542e+07,-4827,12162,12879,1,12879,1,0.00039943,2.5657e-07,0,0.00039943,7.4604e-06,1.551e+08,86500,0,1.551e+08,5907,12878,12168,1,12168,1,0.00017966,-4.6521e-08,0,0.00017966,-3.3673e-05,7.0373e+07,-15274,0,7.0373e+07,-5363.8,12167,11473,1,11473,1,-3.9643e-05,-3.4858e-07,0,1.0342e-05,-7.4852e-05,-1.6123e+07,-1.1653e+05,0,4.2102e+06,-13224,11472,11820,1,11820,1,6.2719e-05,-1.6526e-07,0,6.272e-05,-5.5583e-05,2.4734e+07,-55561,0,2.4734e+07,-7743.8,11819,12516,1,12516,1,0.00029658,1.826e-08,0,0.00029658,-1.1746e-05,1.1556e+08,5984.3,0,1.1556e+08,-2365.5,12515,412.9,0,412.9,0,0.00013475,1.3918e-07,0,0.00012599,2.526e-05,5.2432e+07,46458,0,4.8854e+07,4200.2,412.9,1
816,1.46,12163,1,12163,1,0.00018067,-7.9863e-08,0,0.00018694,-3.3857e-05,7.0427e+07,-26565,0,7.298e+07,-4873.6,12162,12879,1,12879,1,0.00040195,2.7753e-07,0,0.00040195,7.5017e-06,1.5603e+08,93513,0,1.5603e+08,5691,12878,12168,1,12168,1,0.00018079,-5.4108e-08,0,0.00018079,-3.3882e-05,7.0814e+07,-17986,0,7.0814e+07,-5365.5,12167,11473,1,11473,1,-3.9864e-05,-3.9382e-07,0,1.0386e-05,-7.5323e-05,-1.6212e+07,-1.3165e+05,0,4.2281e+06,-13257,11472,11820,1,11820,1,6.3126e-05,-1.9121e-07,0,6.3127e-05,-5.5928e-05,2.4895e+07,-63985,0,2.4895e+07,-7969.4,11819,12516,1,12516,1,0.00029842,2.0697e-08,0,0.00029842,-1.1821e-05,1.1625e+08,6861,0,1.1625e+08,-1957.7,12515,412.9,0,412.9,0,0.00013557,1.5674e-07,0,0.00012677,2.5415e-05,5.2738e+07,52310,0,4.9141e+07,4293.7,412.9,1
816,1.47,12163,1,12163,1,0.00018184,-1.4898e-08,0,0.00018815,-3.4075e-05,7.0876e+07,-4953.2,0,7.3443e+07,-4531.6,12162,12879,1,12879,1,0.00040422,3.3754e-07,0,0.00040422,7.5527e-06,1.5688e+08,1.1358e+05,0,1.5688e+08,5758,12878,12168,1,12168,1,0.00018192,-5.9949e-09,0,0.00018192,-3.4096e-05,7.1258e+07,-1964.2,0,7.1258e+07,-4933.4,12167,11473,1,11473,1,-4.0094e-05,-3.4223e-07,0,1.0439e-05,-7.575e-05,-1.6305e+07,-1.144e+05,0,4.2496e+06,-13197,11472,11820,1,11820,1,6.3538e-05,-1.0597e-07,0,6.3539e-05,-5.6277e-05,2.5057e+07,-34888,0,2.5057e+07,-7676,11819,12516,1,12516,1,0.00030027,7.3571e-08,0,0.00030027,-1.1896e-05,1.1696e+08,24337,0,1.1696e+08,-1346,12515,412.9,0,412.9,0,0.00013644,1.5216e-07,0,0.00012758,2.5579e-05,5.3066e+07,50756,0,4.9447e+07,4383.4,412.9,1
816,1.48,12163,1,12163,1,0.00018482,1.4652e-09,0,0.00019124,-3.4624e-05,7.2032e+07,487.07,0,7.464e+07,-248.92,12162,12879,1,12879,1,0.00041035,4.4326e-09,0,0.00041035,7.6519e-06,1.5923e+08,1456.1,0,1.5923e+08,27.636,12878,12168,1,12168,1,0.00018483,1.8015e-09,0,0.00018483,-3.4626e-05,7.2397e+07,595.88,0,7.2397e+07,-289.33,12167,11473,1,11473,1,-4.0686e-05,-2.7489e-09,0,1.0614e-05,-7.6906e-05,-1.6547e+07,-902.3,0,4.3204e+06,-439.1,11472,11820,1,11820,1,6.4554e-05,5.118e-10,0,6.4554e-05,-5.7174e-05,2.5458e+07,169.52,0,2.5458e+07,-356.13,11819,12516,1,12516,1,0.0003051,2.3922e-09,0,0.0003051,-1.2077e-05,1.1882e+08,797.06,0,1.1882e+08,-147.89,12515,412.9,0,412.9,0,0.00013869,1.4406e-09,0,0.00012969,2.6003e-05,5.393e+07,477.37,0,5.0254e+07,127.81,412.9,1
816,1.49,12163,1,12163,1,0.00018613,-1.2259e-09,0,0.00019258,-3.4869e-05,7.2518e+07,-408.24,0,7.5141e+07,-11.802,12162,12879,1,12879,1,0.00041321,5.3613e-10,0,0.00041321,7.6991e-06,1.6024e+08,175.1,0,1.6024e+08,50.948,12878,12168,1,12168,1,0.00018613,-1.2612e-09,0,0.00018613,-3.487e-05,7.2909e+07,-418.84,0,7.2909e+07,-6.5334,12167,11473,1,11473,1,-4.0933e-05,-2.6832e-09,0,1.0657e-05,-7.7442e-05,-1.6647e+07,-896.95,0,4.3376e+06,-121.57,11472,11820,1,11820,1,6.5031e-05,-2.005e-09,0,6.5031e-05,-5.7573e-05,2.5647e+07,-663.68,0,2.5647e+07,-33.73,11819,12516,1,12516,1,0.00030723,-5.2087e-10,0,0.00030723,-1.2166e-05,1.1961e+08,-173.76,0,1.1961e+08,15.529,12515,412.9,0,412.9,0,0.00013965,8.9082e-10,0,0.0001306,2.6182e-05,5.4273e+07,297.91,0,5.0574e+07,35.638,412.9,1
816,1.5,12163,1,12163,1,0.00018591,1.286e-08,0,0.00019235,-3.4835e-05,7.2422e+07,4280.8,0,7.5041e+07,-2798.8,12162,12879,1,12879,1,0.00041299,2.6923e-07,0,0.00041299,7.7063e-06,1.6011e+08,90559,0,1.6011e+08,4484,12878,12168,1,12168,1,0.00018596,4.721e-09,0,0.00018596,-3.4849e-05,7.2842e+07,1561.6,0,7.2842e+07,-3315.7,12167,11473,1,11473,1,-4.0921e-05,-2.1648e-07,0,1.0624e-05,-7.7394e-05,-1.6642e+07,-72400,0,4.3248e+06,-8013.6,11472,11820,1,11820,1,6.4975e-05,-4.9139e-08,0,6.4975e-05,-5.7524e-05,2.5624e+07,-16295,0,2.5624e+07,-4865.7,11819,12516,1,12516,1,0.00030693,7.5993e-08,0,0.00030693,-1.2162e-05,1.1947e+08,24974,0,1.1947e+08,-775.38,12515,412.9,0,412.9,0,0.00013947,1.0445e-07,0,0.00013043,2.6147e-05,5.419e+07,34835,0,5.0496e+07,2876.6,412.9,1
816,1.51,12163,1,12163,1,0.00018711,-3.6018e-08,0,0.00019359,-3.5057e-05,7.2886e+07,-11961,0,7.5523e+07,-2440,12162,12879,1,12879,1,0.00041591,2.589e-07,0,0.00041591,7.77e-06,1.6124e+08,87487,0,1.6124e+08,7709.8,12878,12168,1,12168,1,0.00018719,-2.1486e-08,0,0.00018719,-3.5079e-05,7.3322e+07,-7029.1,0,7.3322e+07,-2550.2,12167,11473,1,11473,1,-4.1211e-05,-3.2641e-07,0,1.0689e-05,-7.7938e-05,-1.6759e+07,-1.0863e+05,0,4.3506e+06,-11392,11472,11820,1,11820,1,6.5396e-05,-1.3216e-07,0,6.5397e-05,-5.7899e-05,2.5791e+07,-44015,0,2.5791e+07,-5930.3,11819,12516,1,12516,1,0.00030895,5.2326e-08,0,0.00030895,-1.2247e-05,1.2025e+08,17333,0,1.2025e+08,822.33,12515,412.9,0,412.9,0,0.00014036,1.4079e-07,0,0.00013127,2.6316e-05,5.4537e+07,46944,0,5.0819e+07,4202.1,412.9,1
816,1.52,12163,1,12163,1,0.00018808,-3.3487e-08,0,0.00019459,-3.5243e-05,7.3257e+07,-11140,0,7.5904e+07,-3993,12162,12879,1,12879,1,0.00041808,3.0076e-07,0,0.00041808,7.7852e-06,1.6204e+08,1.0083e+05,0,1.6204e+08,5002.3,12878,12168,1,12168,1,0.00018817,-1.4515e-08,0,0.00018817,-3.5265e-05,7.3706e+07,-4770.3,0,7.3706e+07,-4572.6,12167,11473,1,11473,1,-4.1378e-05,-3.5971e-07,0,1.0724e-05,-7.8347e-05,-1.6828e+07,-1.2041e+05,0,4.3652e+06,-10451,11472,11820,1,11820,1,6.5759e-05,-1.3152e-07,0,6.576e-05,-5.8202e-05,2.5933e+07,-43901,0,2.5933e+07,-6683.8,11819,12516,1,12516,1,0.00031055,5.7883e-08,0,0.00031055,-1.231e-05,1.2086e+08,19208,0,1.2086e+08,-1480.1,12515,412.9,0,412.9,0,0.00014107,1.5155e-07,0,0.00013194,2.6447e-05,5.4803e+07,50546,0,5.1069e+07,3556.2,412.9,1
816,1.53,12163,1,12163,1,0.00018941,-1.6208e-08,0,0.00019596,-3.5495e-05,7.3766e+07,-5385.4,0,7.6432e+07,-5235.5,12162,12879,1,12879,1,0.00042098,3.8393e-07,0,0.00042098,7.8523e-06,1.6313e+08,1.2924e+05,0,1.6313e+08,6546,12878,12168,1,12168,1,0.00018949,-1.0775e-08,0,0.00018949,-3.5516e-05,7.4222e+07,-3518.3,0,7.4222e+07,-5555.9,12167,11473,1,11473,1,-4.1669e-05,-3.5686e-07,0,1.0798e-05,-7.8888e-05,-1.6946e+07,-1.1935e+05,0,4.3957e+06,-15338,11472,11820,1,11820,1,6.6225e-05,-1.1887e-07,0,6.6226e-05,-5.861e-05,2.6117e+07,-39374,0,2.6117e+07,-8599.6,11819,12516,1,12516,1,0.00031272,7.67e-08,0,0.00031272,-1.2402e-05,1.2169e+08,25244,0,1.2169e+08,-1956,12515,412.9,0,412.9,0,0.00014206,1.6528e-07,0,0.00013287,2.6632e-05,5.518e+07,55131,0,5.1419e+07,4896.8,412.9,1
816,1.54,12163,1,12163,1,0.0001905,-1.0421e-08,0,0.00019709,-3.5696e-05,7.418e+07,-3469.2,0,7.6862e+07,-3777.4,12162,12879,1,12879,1,0.00042336,3.9075e-07,0,0.00042336,7.8915e-06,1.6401e+08,1.3063e+05,0,1.6401e+08,6303.7,12878,12168,1,12168,1,0.00019057,-7.1449e-09,0,0.00019057,-3.5722e-05,7.4646e+07,-2357,0,7.4646e+07,-4259.3,12167,11473,1,11473,1,-4.1929e-05,-3.7632e-07,0,1.0877e-05,-7.9335e-05,-1.7052e+07,-1.2615e+05,0,4.4271e+06,-12172,11472,11820,1,11820,1,6.6597e-05,-1.1591e-07,0,6.6597e-05,-5.8948e-05,2.6264e+07,-38408,0,2.6264e+07,-7005,11819,12516,1,12516,1,0.00031451,9.3851e-08,0,0.00031451,-1.2469e-05,1.2236e+08,30889,0,1.2236e+08,-655.51,12515,412.9,0,412.9,0,0.00014289,1.7165e-07,0,0.00013364,2.679e-05,5.5487e+07,57243,0,5.1703e+07,4041.8,412.9,1
816,1.55,12163,1,12163,1,0.00019163,-3.0143e-08,0,0.00019825,-3.591e-05,7.461e+07,-10019,0,7.7303e+07,-5138.3,12162,12879,1,12879,1,0.00042597,4.4368e-07,0,0.00042597,7.9294e-06,1.6498e+08,1.4843e+05,0,1.6498e+08,5856.5,12878,12168,1,12168,1,0.00019173,-2.1915e-08,0,0.00019173,-3.5938e-05,7.51e+07,-7168.5,0,7.51e+07,-5484.2,12167,11473,1,11473,1,-4.2119e-05,-3.8891e-07,0,1.0891e-05,-7.9824e-05,-1.7129e+07,-1.3006e+05,0,4.4334e+06,-17980,11472,11820,1,11820,1,6.703e-05,-1.5789e-07,0,6.703e-05,-5.93e-05,2.6434e+07,-52221,0,2.6434e+07,-8369.1,11819,12516,1,12516,1,0.00031639,6.6436e-08,0,0.00031639,-1.255e-05,1.2308e+08,21765,0,1.2308e+08,-1869.1,12515,412.9,0,412.9,0,0.0001437,1.8305e-07,0,0.00013441,2.6942e-05,5.5791e+07,61052,0,5.199e+07,4572.6,412.9,1
816,1.56,12163,1,12163,1,0.00019295,-2.8327e-08,0,0.00019961,-3.6161e-05,7.511e+07,-9417,0,7.7819e+07,-5956.4,12162,12879,1,12879,1,0.00042893,4.4307e-07,0,0.00042893,7.9789e-06,1.6607e+08,1.4864e+05,0,1.6607e+08,7023.9,12878,12168,1,12168,1,0.00019306,-1.3602e-08,0,0.00019306,-3.6186e-05,7.5616e+07,-4437.7,0,7.5616e+07,-6573.8,12167,11473,1,11473,1,-4.2385e-05,-4.5644e-07,0,1.0938e-05,-8.0378e-05,-1.7237e+07,-1.5257e+05,0,4.4525e+06,-15558,11472,11820,1,11820,1,6.7509e-05,-1.6831e-07,0,6.751e-05,-5.9706e-05,2.6623e+07,-55952,0,2.6623e+07,-9824.3,11819,12516,1,12516,1,0.00031857,9.8776e-08,0,0.00031857,-1.2643e-05,1.2389e+08,32417,0,1.2389e+08,-2127.2,12515,412.9,0,412.9,0,0.00014468,2.104e-07,0,0.00013533,2.7122e-05,5.615e+07,70156,0,5.2327e+07,5129.8,412.9,1
816,1.57,12163,1,12163,1,0.00019408,-7.8619e-08,0,0.00020077,-3.6365e-05,7.5531e+07,-26133,0,7.8252e+07,-3339.9,12162,12879,1,12879,1,0.0004315,2.8842e-07,0,0.0004315,8.0235e-06,1.67e+08,96066,0,1.67e+08,8987.6,12878,12168,1,12168,1,0.00019421,-4.0949e-08,0,0.00019421,-3.6396e-05,7.606e+07,-13510,0,7.606e+07,-3789.4,12167,11473,1,11473,1,-4.2603e-05,-4.6461e-07,0,1.0971e-05,-8.0861e-05,-1.7326e+07,-1.5531e+05,0,4.466e+06,-13414,11472,11820,1,11820,1,6.7927e-05,-2.0603e-07,0,6.7928e-05,-6.0056e-05,2.6788e+07,-67769,0,2.6789e+07,-6835.3,11819,12516,1,12516,1,0.00032045,4.0316e-08,0,0.00032045,-1.2712e-05,1.2459e+08,13446,0,1.2459e+08,-7.085,12515,412.9,0,412.9,0,0.0001455,1.8099e-07,0,0.00013611,2.7279e-05,5.6451e+07,60367,0,5.2609e+07,4417.3,412.9,1
816,1.58,12163,1,12163,1,0.00019587,-5.3619e-08,0,0.00020261,-3.6703e-05,7.6211e+07,-17816,0,7.8956e+07,-4897.5,12162,12879,1,12879,1,0.00043535,3.3913e-07,0,0.00043535,8.0829e-06,1.6843e+08,1.1336e+05,0,1.6843e+08,6070.7,12878,12168,1,12168,1,0.00019598,-3.1264e-08,0,0.00019598,-3.6727e-05,7.6749e+07,-10247,0,7.6749e+07,-5192.3,12167,11473,1,11473,1,-4.2955e-05,-3.9206e-07,0,1.1057e-05,-8.158e-05,-1.7469e+07,-1.3105e+05,0,4.5009e+06,-15332,11472,11820,1,11820,1,6.8558e-05,-1.6875e-07,0,6.8559e-05,-6.06e-05,2.7037e+07,-55574,0,2.7037e+07,-8230.5,11819,12516,1,12516,1,0.00032336,4.0554e-08,0,0.00032336,-1.2837e-05,1.2569e+08,13314,0,1.2569e+08,-1328,12515,412.9,0,412.9,0,0.00014683,1.6767e-07,0,0.00013736,2.7526e-05,5.6949e+07,55933,0,5.3074e+07,4650.6,412.9,1
816,1.59,12163,1,12163,1,0.00019673,-8.8239e-08,0,0.0002035,-3.686e-05,7.6523e+07,-29322,0,7.9275e+07,-2657.3,12162,12879,1,12879,1,0.00043735,3.0625e-07,0,0.00043735,8.1167e-06,1.6912e+08,1.0213e+05,0,1.6912e+08,7206.2,12878,12168,1,12168,1,0.00019686,-5.076e-08,0,0.00019686,-3.6891e-05,7.7088e+07,-16554,0,7.7088e+07,-2964.1,12167,11473,1,11473,1,-4.3121e-05,-4.7498e-07,0,1.107e-05,-8.1954e-05,-1.7537e+07,-1.5877e+05,0,4.5061e+06,-11417,11472,11820,1,11820,1,6.8888e-05,-2.2269e-07,0,6.8889e-05,-6.0869e-05,2.7167e+07,-73964,0,2.7168e+07,-5850,11819,12516,1,12516,1,0.0003248,2.9062e-08,0,0.0003248,-1.289e-05,1.262e+08,9475.1,0,1.262e+08,626.41,12515,412.9,0,412.9,0,0.00014745,1.8797e-07,0,0.00013795,2.7646e-05,5.7162e+07,62692,0,5.3274e+07,4115,412.9,1
816,1.6,12163,1,12163,1,0.00020008,4.6106e-09,0,0.00020696,-3.7482e-05,7.7815e+07,1530.7,0,8.0611e+07,-396.22,12162,12879,1,12879,1,0.00044395,9.5396e-09,0,0.00044395,8.2296e-06,1.7164e+08,3138.8,0,1.7164e+08,67.083,12878,12168,1,12168,1,0.00020008,5.5124e-09,0,0.00020008,-3.7485e-05,7.8348e+07,1836.7,0,7.8348e+07,-393,12167,11473,1,11473,1,-4.376e-05,-3.6861e-09,0,1.1238e-05,-8.3201e-05,-1.7797e+07,-1209.1,0,4.5745e+06,-839.98,11472,11820,1,11820,1,7.0036e-05,2.194e-09,0,7.0036e-05,-6.1863e-05,2.762e+07,719.92,0,2.762e+07,-616.44,11819,12516,1,12516,1,0.00033013,7.3173e-09,0,0.00033013,-1.3103e-05,1.2825e+08,2427.5,0,1.2825e+08,-174.54,12515,412.9,0,412.9,0,0.00014996,3.3251e-09,0,0.00014031,2.8115e-05,5.8122e+07,1100.4,0,5.4171e+07,254.6,412.9,1
816,1.61,12163,1,12163,1,0.00020144,2.167e-09,0,0.00020834,-3.7735e-05,7.8295e+07,720.77,0,8.1102e+07,-7.1873,12162,12879,1,12879,1,0.00044686,4.099e-09,0,0.00044686,8.2712e-06,1.726e+08,1364.2,0,1.726e+08,87.209,12878,12168,1,12168,1,0.00020144,2.4169e-09,0,0.00020144,-3.7737e-05,7.8864e+07,795.86,0,7.8864e+07,-4.4614,12167,11473,1,11473,1,-4.3973e-05,-5.8615e-10,0,1.125e-05,-8.3746e-05,-1.7884e+07,-190.79,0,4.5795e+06,-94.753,11472,11820,1,11820,1,7.0553e-05,1.2277e-09,0,7.0553e-05,-6.2272e-05,2.7824e+07,402.18,0,2.7824e+07,-37.908,11819,12516,1,12516,1,0.00033232,3.233e-09,0,0.00033232,-1.3199e-05,1.2901e+08,1080.1,0,1.2901e+08,20.371,12515,412.9,0,412.9,0,0.00015093,1.2928e-09,0,0.00014124,2.8296e-05,5.8443e+07,432.88,0,5.4474e+07,38.356,412.9,1
816,1.62,12163,1,12163,1,0.0002027,2.0238e-09,0,0.00020964,-3.7972e-05,7.8767e+07,672.91,0,8.159e+07,-17.093,12162,12879,1,12879,1,0.00044964,6.7551e-09,0,0.00044964,8.317e-06,1.736e+08,2253.8,0,1.736e+08,105.33,12878,12168,1,12168,1,0.00020271,1.4367e-09,0,0.00020271,-3.7974e-05,7.9355e+07,472.63,0,7.9355e+07,-16.407,12167,11473,1,11473,1,-4.4216e-05,-9.3725e-10,0,1.1291e-05,-8.4265e-05,-1.7982e+07,-313.24,0,4.5966e+06,-164.87,11472,11820,1,11820,1,7.1015e-05,1.5815e-10,0,7.1015e-05,-6.266e-05,2.8006e+07,51.69,0,2.8006e+07,-56.902,11819,12516,1,12516,1,0.0003344,3.7069e-09,0,0.0003344,-1.3285e-05,1.2977e+08,1223.3,0,1.2977e+08,28.729,12515,412.9,0,412.9,0,0.00015186,2.1356e-09,0,0.00014211,2.847e-05,5.878e+07,712.66,0,5.479e+07,55.62,412.9,1
816,1.63,12163,1,12163,1,0.00020401,-1.1038e-10,0,0.00021098,-3.8216e-05,7.9256e+07,-36.764,0,8.2093e+07,-17.697,12162,12879,1,12879,1,0.00045249,2.2801e-09,0,0.00045249,8.3639e-06,1.7463e+08,764.07,0,1.7463e+08,56.778,12878,12168,1,12168,1,0.00020401,-3.274e-11,0,0.00020401,-3.8218e-05,7.986e+07,-10.728,0,7.986e+07,-20.659,12167,11473,1,11473,1,-4.4466e-05,-2.0569e-09,0,1.1335e-05,-8.4799e-05,-1.8084e+07,-687.53,0,4.6145e+06,-86.575,11472,11820,1,11820,1,7.1489e-05,-8.8436e-10,0,7.1489e-05,-6.306e-05,2.8194e+07,-293.1,0,2.8194e+07,-35.649,11819,12516,1,12516,1,0.00033653,5.8865e-10,0,0.00033653,-1.3374e-05,1.3056e+08,194.61,0,1.3056e+08,0.18944,12515,412.9,0,412.9,0,0.00015281,1.0473e-09,0,0.00014302,2.8649e-05,5.9129e+07,349.1,0,5.5117e+07,26.897,412.9,1
816,1.64,12163,1,12163,1,0.00020526,-1.1664e-09,0,0.00021227,-3.8451e-05,7.9724e+07,-388.14,0,8.2576e+07,-50.088,12162,12879,1,12879,1,0.00045525,5.9515e-09,0,0.00045525,8.4092e-06,1.7563e+08,1989.4,0,1.7563e+08,111.42,12878,12168,1,12168,1,0.00020527,-8.5184e-10,0,0.00020527,-3.8454e-05,8.0346e+07,-279.01,0,8.0346e+07,-58.498,12167,11473,1,11473,1,-4.4707e-05,-6.8576e-09,0,1.1376e-05,-8.5316e-05,-1.8182e+07,-2292.1,0,4.631e+06,-222.8,11472,11820,1,11820,1,7.1947e-05,-3.7227e-09,0,7.1947e-05,-6.3444e-05,2.8374e+07,-1228.4,0,2.8374e+07,-94.081,11819,12516,1,12516,1,0.00033858,7.7956e-10,0,0.00033858,-1.346e-05,1.3132e+08,254.43,0,1.3132e+08,2.2888,12515,412.9,0,412.9,0,0.00015373,3.1485e-09,0,0.00014389,2.8821e-05,5.9463e+07,1049.4,0,5.543e+07,71.113,412.9,1
816,1.65,12163,1,12163,1,0.00020513,-4.9402e-08,0,0.00021213,-3.8433e-05,7.9654e+07,-16412,0,8.25e+07,-2698.8,12162,12879,1,12879,1,0.00045542,2.4934e-07,0,0.00045542,8.4129e-06,1.7563e+08,83101,0,1.7563e+08,4154.1,12878,12168,1,12168,1,0.00020521,-3.0142e-08,0,0.00020521,-3.8454e-05,8.032e+07,-9946.4,0,8.032e+07,-2795.6,12167,11473,1,11473,1,-4.4694e-05,-3.3299e-07,0,1.1328e-05,-8.5341e-05,-1.8177e+07,-1.113e+05,0,4.6115e+06,-10054,11472,11820,1,11820,1,7.1945e-05,-1.4987e-07,0,7.1945e-05,-6.3428e-05,2.8373e+07,-49030,0,2.8373e+07,-4995.7,11819,12516,1,12516,1,0.00033846,3.6955e-08,0,0.00033846,-1.3465e-05,1.3124e+08,12148,0,1.3124e+08,-269.12,12515,412.9,0,412.9,0,0.0001536,1.3678e-07,0,0.00014377,2.8797e-05,5.9391e+07,45586,0,5.5364e+07,3066.1,412.9,1
816,1.66,12163,1,12163,1,0.00020781,4.3283e-09,0,0.0002149,-3.8928e-05,8.0693e+07,1438.2,0,8.3577e+07,-178.98,12162,12879,1,12879,1,0.00046087,7.5657e-09,0,0.00046087,8.5068e-06,1.7773e+08,2528.8,0,1.7773e+08,156.01,12878,12168,1,12168,1,0.00020781,5.0002e-09,0,0.00020781,-3.8931e-05,8.1337e+07,1667.7,0,8.1337e+07,-121.7,12167,11473,1,11473,1,-4.5227e-05,-1.0004e-09,0,1.1484e-05,-8.6369e-05,-1.8394e+07,-324.76,0,4.6751e+06,-700.17,11472,11820,1,11820,1,7.2858e-05,2.608e-09,0,7.2858e-05,-6.4228e-05,2.8733e+07,856.5,0,2.8733e+07,-319.25,11819,12516,1,12516,1,0.00034276,6.4573e-09,0,0.00034276,-1.3631e-05,1.329e+08,2148.5,0,1.329e+08,-28.483,12515,412.9,0,412.9,0,0.00015562,2.4474e-09,0,0.00014566,2.9175e-05,6.0171e+07,817.47,0,5.6091e+07,205.67,412.9,1
816,1.67,12163,1,12163,1,0.00020745,-7.5829e-08,0,0.00021452,-3.8865e-05,8.0516e+07,-25180,0,8.339e+07,-1934.9,12162,12879,1,12879,1,0.00046057,1.8244e-07,0,0.00046057,8.4994e-06,1.7748e+08,60716,0,1.7748e+08,4559.7,12878,12168,1,12168,1,0.00020755,-4.7613e-08,0,0.00020755,-3.889e-05,8.1223e+07,-15703,0,8.1223e+07,-2389.3,12167,11473,1,11473,1,-4.5145e-05,-3.6381e-07,0,1.1409e-05,-8.6305e-05,-1.836e+07,-1.216e+05,0,4.6445e+06,-7274.8,11472,11820,1,11820,1,7.2792e-05,-1.6798e-07,0,7.2793e-05,-6.4143e-05,2.8707e+07,-55165,0,2.8708e+07,-4049.2,11819,12516,1,12516,1,0.00034228,5.6903e-09,0,0.00034228,-1.3619e-05,1.3264e+08,1855.7,0,1.3264e+08,262.17,12515,412.9,0,412.9,0,0.00015531,1.2865e-07,0,0.00014538,2.9117e-05,6.0006e+07,42899,0,5.5939e+07,2694.6,412.9,1
816,1.68,12163,1,12163,1,0.00020833,4.2471e-08,0,0.00021543,-3.9033e-05,8.0858e+07,14112,0,8.3744e+07,-2897.5,12162,12879,1,12879,1,0.00046265,4.6634e-07,0,0.00046265,8.5457e-06,1.7828e+08,1.5587e+05,0,1.7828e+08,6199.8,12878,12168,1,12168,1,0.00020845,1.7552e-08,0,0.00020845,-3.9069e-05,8.1573e+07,5765.7,0,8.1573e+07,-3376.7,12167,11473,1,11473,1,-4.5381e-05,-2.8738e-07,0,1.1449e-05,-8.6692e-05,-1.8456e+07,-96053,0,4.6607e+06,-12326,11472,11820,1,11820,1,7.3103e-05,-6.405e-08,0,7.3104e-05,-6.4427e-05,2.8829e+07,-20959,0,2.883e+07,-5802.4,11819,12516,1,12516,1,0.00034375,1.4584e-07,0,0.00034375,-1.3683e-05,1.3321e+08,48184,0,1.3321e+08,214.82,12515,412.9,0,412.9,0,0.00015596,1.6901e-07,0,0.00014599,2.9239e-05,6.0259e+07,56313,0,5.6175e+07,4230.1,412.9,1
816,1.69,12163,1,12163,1,0.00020965,-3.8294e-08,0,0.00021679,-3.9282e-05,8.1362e+07,-12739,0,8.4266e+07,-3866.3,12162,12879,1,12879,1,0.00046556,3.5281e-07,0,0.00046556,8.5836e-06,1.7937e+08,1.1793e+05,0,1.7937e+08,6074.8,12878,12168,1,12168,1,0.00020976,-1.5522e-08,0,0.00020976,-3.9309e-05,8.2085e+07,-5049.4,0,8.2085e+07,-4401.1,12167,11473,1,11473,1,-4.5624e-05,-4.0987e-07,0,1.1533e-05,-8.7237e-05,-1.8555e+07,-1.37e+05,0,4.6948e+06,-13245,11472,11820,1,11820,1,7.3571e-05,-1.5628e-07,0,7.3572e-05,-6.4824e-05,2.9014e+07,-51316,0,2.9014e+07,-6771.9,11819,12516,1,12516,1,0.00034591,6.2549e-08,0,0.00034591,-1.3771e-05,1.3403e+08,20854,0,1.3403e+08,-609.08,12515,412.9,0,412.9,0,0.00015695,1.7314e-07,0,0.00014692,2.9423e-05,6.0632e+07,57728,0,5.6521e+07,4316.6,412.9,1
816,1.7,12163,1,12163,1,0.00021292,1.421e-09,0,0.00022015,-3.9885e-05,8.2607e+07,469.47,0,8.555e+07,-480.9,12162,12879,1,12879,1,0.00047207,1.0118e-08,0,0.00047207,8.6912e-06,1.818e+08,3316.5,0,1.818e+08,16.937,12878,12168,1,12168,1,0.00021292,1.0819e-09,0,0.00021292,-3.9889e-05,8.3315e+07,369.74,0,8.3315e+07,-543.1,12167,11473,1,11473,1,-4.6215e-05,-7.6207e-09,0,1.1653e-05,-8.8467e-05,-1.8796e+07,-2498.4,0,4.7441e+06,-843.58,11472,11820,1,11820,1,7.4719e-05,-5.6744e-10,0,7.4719e-05,-6.5794e-05,2.9467e+07,-186.25,0,2.9467e+07,-743.48,11819,12516,1,12516,1,0.00035113,3.6045e-09,0,0.00035113,-1.398e-05,1.36e+08,1191,0,1.36e+08,-220.37,12515,412.9,0,412.9,0,0.00015937,3.6975e-09,0,0.0001492,2.9876e-05,6.1541e+07,1215.1,0,5.7375e+07,274.83,412.9,1
816,1.71,12163,1,12163,1,0.00021433,3.6389e-09,0,0.00022158,-4.0148e-05,8.3087e+07,1209.6,0,8.6038e+07,-9.6234,12162,12879,1,12879,1,0.00047509,6.9919e-09,0,0.00047509,8.7285e-06,1.8275e+08,2332.8,0,1.8275e+08,195.25,12878,12168,1,12168,1,0.00021433,3.9795e-09,0,0.00021433,-4.0151e-05,8.3829e+07,1318,0,8.3829e+07,-9.4138,12167,11473,1,11473,1,-4.6403e-05,-9.0231e-10,0,1.1636e-05,-8.9031e-05,-1.8872e+07,-292.34,0,4.7375e+06,-216.61,11472,11820,1,11820,1,7.5273e-05,1.7814e-09,0,7.5273e-05,-6.6216e-05,2.9686e+07,583.82,0,2.9686e+07,-36.889,11819,12516,1,12516,1,0.00035339,5.7228e-09,0,0.00035339,-1.4082e-05,1.3675e+08,1912.8,0,1.3675e+08,22.813,12515,412.9,0,412.9,0,0.00016035,2.2911e-09,0,0.00015016,3.0061e-05,6.1851e+07,766.93,0,5.767e+07,65.895,412.9,1
816,1.72,12163,1,12163,1,0.00021561,5.5264e-09,0,0.00022289,-4.0387e-05,8.3551e+07,1836.2,0,8.6515e+07,-31.716,12162,12879,1,12879,1,0.00047788,1.4002e-08,0,0.00047788,8.7712e-06,1.8372e+08,4679.8,0,1.8372e+08,175.14,12878,12168,1,12168,1,0.00021561,4.8162e-09,0,0.00021561,-4.039e-05,8.4313e+07,1596.4,0,8.4313e+07,-29.822,12167,11473,1,11473,1,-4.6629e-05,-1.4495e-09,0,1.1661e-05,-8.9554e-05,-1.8964e+07,-469.37,0,4.7477e+06,-236.31,11472,11820,1,11820,1,7.5749e-05,1.1779e-09,0,7.5749e-05,-6.6606e-05,2.9874e+07,390.41,0,2.9874e+07,-117.48,11819,12516,1,12516,1,0.00035547,9.623e-09,0,0.00035547,-1.4171e-05,1.375e+08,3201.6,0,1.375e+08,61.167,12515,412.9,0,412.9,0,0.00016128,4.5917e-09,0,0.00015103,3.0234e-05,6.2176e+07,1534.4,0,5.7976e+07,104.31,412.9,1
816,1.73,12163,1,12163,1,0.00021693,4.9012e-09,0,0.00022425,-4.0634e-05,8.4036e+07,1628.9,0,8.7013e+07,-10.247,12162,12879,1,12879,1,0.00048075,1.1758e-08,0,0.00048075,8.8159e-06,1.8474e+08,3927.9,0,1.8474e+08,191.26,12878,12168,1,12168,1,0.00021693,4.4316e-09,0,0.00021693,-4.0637e-05,8.4814e+07,1457.1,0,8.4814e+07,-6.5746,12167,11473,1,11473,1,-4.6866e-05,-1.4541e-09,0,1.1691e-05,-9.0093e-05,-1.906e+07,-470.73,0,4.7599e+06,-195.16,11472,11820,1,11820,1,7.6239e-05,1.317e-09,0,7.6239e-05,-6.7008e-05,3.0067e+07,430.9,0,3.0067e+07,-81.483,11819,12516,1,12516,1,0.00035762,8.6849e-09,0,0.00035762,-1.4262e-05,1.3828e+08,2872.3,0,1.3828e+08,67.193,12515,412.9,0,412.9,0,0.00016223,3.94e-09,0,0.00015194,3.0414e-05,6.2517e+07,1316.9,0,5.8296e+07,90.582,412.9,1
816,1.74,12163,1,12163,1,0.00021824,-5.5044e-10,0,0.00022559,-4.0879e-05,8.4515e+07,-182.97,0,8.7505e+07,-38.693,12162,12879,1,12879,1,0.00048357,1.8244e-09,0,0.00048357,8.8588e-06,1.8574e+08,624.31,0,1.8574e+08,47.655,12878,12168,1,12168,1,0.00021824,-4.7275e-10,0,0.00021824,-4.0882e-05,8.531e+07,-155.43,0,8.531e+07,-46.073,12167,11473,1,11473,1,-4.7096e-05,-2.3235e-09,0,1.1717e-05,-9.062e-05,-1.9154e+07,-776.56,0,4.7708e+06,-114.06,11472,11820,1,11820,1,7.6726e-05,-1.4603e-09,0,7.6726e-05,-6.7407e-05,3.0259e+07,-482.55,0,3.0259e+07,-69.17,11819,12516,1,12516,1,0.00035975,1.4983e-10,0,0.00035975,-1.4354e-05,1.3905e+08,48.413,0,1.3905e+08,-9.4288,12515,412.9,0,412.9,0,0.00016318,9.9257e-10,0,0.00015284,3.0591e-05,6.2852e+07,330.82,0,5.8612e+07,36.467,412.9,1
816,1.75,12163,1,12163,1,0.00021817,9.2685e-09,0,0.00022551,-4.087e-05,8.4461e+07,3070.7,0,8.7446e+07,-1097.9,12162,12879,1,12879,1,0.00048361,2.352e-07,0,0.00048361,8.8588e-06,1.8566e+08,78610,0,1.8566e+08,4060.2,12878,12168,1,12168,1,0.00021821,1.7561e-09,0,0.00021821,-4.0885e-05,8.5282e+07,569.4,0,8.5282e+07,-1553.5,12167,11473,1,11473,1,-4.7057e-05,-1.9051e-07,0,1.1669e-05,-9.0619e-05,-1.9137e+07,-63670,0,4.7511e+06,-4855.3,11472,11820,1,11820,1,7.6742e-05,-5.1453e-08,0,7.6742e-05,-6.7394e-05,3.0265e+07,-17031,0,3.0265e+07,-2857.5,11819,12516,1,12516,1,0.00035965,7.0041e-08,0,0.00035965,-1.4359e-05,1.3896e+08,23179,0,1.3896e+08,459.37,12515,412.9,0,412.9,0,0.0001631,9.5448e-08,0,0.00015278,3.0576e-05,6.279e+07,31795,0,5.8555e+07,2077.9,412.9,1
816,1.76,12163,1,12163,1,0.00021912,-5.4097e-08,0,0.00022649,-4.1054e-05,8.4826e+07,-17955,0,8.7825e+07,-3894.7,12162,12879,1,12879,1,0.0004862,3.4261e-07,0,0.0004862,8.9006e-06,1.8665e+08,1.1451e+05,0,1.8665e+08,6500.8,12878,12168,1,12168,1,0.00021922,-3.9078e-08,0,0.00021922,-4.1077e-05,8.5678e+07,-12805,0,8.5678e+07,-3958.5,12167,11473,1,11473,1,-4.7293e-05,-3.7724e-07,0,1.1717e-05,-9.1101e-05,-1.9234e+07,-1.2608e+05,0,4.7707e+06,-14458,11472,11820,1,11820,1,7.7097e-05,-1.7244e-07,0,7.7098e-05,-6.7704e-05,3.0405e+07,-56477,0,3.0405e+07,-7015.3,11819,12516,1,12516,1,0.00036132,4.1747e-08,0,0.00036132,-1.4429e-05,1.396e+08,13894,0,1.396e+08,-476.94,12515,412.9,0,412.9,0,0.0001638,1.6837e-07,0,0.00015343,3.0705e-05,6.306e+07,56108,0,5.8806e+07,4560.9,412.9,1
816,1.77,12163,1,12163,1,0.00022037,3.2846e-09,0,0.00022777,-4.1285e-05,8.529e+07,1088,0,8.8302e+07,-2925.3,12162,12879,1,12879,1,0.00048868,3.7064e-07,0,0.00048868,8.9424e-06,1.8754e+08,1.2388e+05,0,1.8754e+08,6420.2,12878,12168,1,12168,1,0.00022043,-6.6525e-10,0,0.00022043,-4.1314e-05,8.6141e+07,-213.44,0,8.6141e+07,-3246.4,12167,11473,1,11473,1,-4.7502e-05,-3.3421e-07,0,1.1744e-05,-9.1564e-05,-1.9319e+07,-1.117e+05,0,4.781e+06,-10918,11472,11820,1,11820,1,7.7548e-05,-1.0085e-07,0,7.7548e-05,-6.808e-05,3.0582e+07,-33168,0,3.0582e+07,-6237,11819,12516,1,12516,1,0.00036328,1.086e-07,0,0.00036328,-1.4519e-05,1.4032e+08,35987,0,1.4032e+08,126.44,12515,412.9,0,412.9,0,0.00016471,1.6358e-07,0,0.00015429,3.0876e-05,6.3389e+07,54510,0,5.9116e+07,3903.5,412.9,1
816,1.78,12163,1,12163,1,0.00022145,-6.0747e-08,0,0.00022888,-4.1488e-05,8.5683e+07,-20161,0,8.8706e+07,-2871.9,12162,12879,1,12879,1,0.00049131,3.0398e-07,0,0.00049131,8.977e-06,1.8845e+08,1.016e+05,0,1.8845e+08,5777.9,12878,12168,1,12168,1,0.00022157,-3.6066e-08,0,0.00022157,-4.152e-05,8.6571e+07,-11884,0,8.6571e+07,-3504.4,12167,11473,1,11473,1,-4.7715e-05,-4.1421e-07,0,1.1761e-05,-9.2062e-05,-1.9406e+07,-1.3843e+05,0,4.7881e+06,-10391,11472,11820,1,11820,1,7.7969e-05,-1.7005e-07,0,7.797e-05,-6.8426e-05,3.0749e+07,-56094,0,3.0749e+07,-6151.6,11819,12516,1,12516,1,0.00036514,3.939e-08,0,0.00036514,-1.4591e-05,1.4099e+08,12960,0,1.4099e+08,-37.374,12515,412.9,0,412.9,0,0.00016549,1.6482e-07,0,0.00015504,3.1023e-05,6.3662e+07,54944,0,5.9373e+07,3787.1,412.9,1
816,1.79,12163,1,12163,1,0.00022465,1.7598e-10,0,0.00023217,-4.2081e-05,8.6895e+07,53.07,0,8.9956e+07,-502.64,12162,12879,1,12879,1,0.00049763,1.1499e-08,0,0.00049763,9.0835e-06,1.908e+08,3759.6,0,1.908e+08,41.719,12878,12168,1,12168,1,0.00022465,-2.6808e-10,0,0.00022465,-4.2085e-05,8.7761e+07,-90.684,0,8.7761e+07,-556.29,12167,11473,1,11473,1,-4.83e-05,-8.8014e-09,0,1.1893e-05,-9.3252e-05,-1.9644e+07,-2885.3,0,4.843e+06,-971.36,11472,11820,1,11820,1,7.9082e-05,-2.7688e-09,0,7.9082e-05,-6.9369e-05,3.1188e+07,-921.25,0,3.1188e+07,-806.75,11819,12516,1,12516,1,0.00037022,2.935e-09,0,0.00037022,-1.4796e-05,1.429e+08,964.29,0,1.429e+08,-173.08,12515,412.9,0,412.9,0,0.00016786,4.4693e-09,0,0.00015728,3.1467e-05,6.4549e+07,1468.2,0,6.0204e+07,314.04,412.9,1
816,1.8,12163,1,12163,1,0.00022467,2.3351e-10,0,0.00023216,-4.2086e-05,8.6829e+07,63.695,0,8.9879e+07,-1274.4,12162,12879,1,12879,1,0.00049776,1.9245e-07,0,0.00049776,9.0721e-06,1.9062e+08,64319,0,1.9062e+08,3833.9,12878,12168,1,12168,1,0.00022471,1.7367e-09,0,0.00022471,-4.2102e-05,8.7742e+07,560.45,0,8.7742e+07,-1764.7,12167,11473,1,11473,1,-4.8204e-05,-1.8918e-07,0,1.1799e-05,-9.3268e-05,-1.9604e+07,-63222,0,4.8045e+06,-5099.5,11472,11820,1,11820,1,7.9163e-05,-5.146e-08,0,7.9163e-05,-6.9375e-05,3.122e+07,-16917,0,3.122e+07,-2969.5,11819,12516,1,12516,1,0.00037023,5.2817e-08,0,0.00037023,-1.4812e-05,1.4277e+08,17507,0,1.4277e+08,207.47,12515,412.9,0,412.9,0,0.0001678,8.5e-08,0,0.00015725,3.1455e-05,6.4447e+07,28311,0,6.0114e+07,2004.1,412.9,1
816,1.81,12163,1,12163,1,0.00022563,5.3167e-09,0,0.00023316,-4.227e-05,8.72e+07,1761.2,0,9.0263e+07,-2786.1,12162,12879,1,12879,1,0.00050007,3.689e-07,0,0.00050007,9.1134e-06,1.915e+08,1.2329e+05,0,1.915e+08,6554.2,12878,12168,1,12168,1,0.00022569,-2.4995e-10,0,0.0002257,-4.2298e-05,8.8126e+07,-80.487,0,8.8126e+07,-3357.7,12167,11473,1,11473,1,-4.8415e-05,-3.2466e-07,0,1.1835e-05,-9.3698e-05,-1.969e+07,-1.088e+05,0,4.8187e+06,-10240,11472,11820,1,11820,1,7.9518e-05,-9.5091e-08,0,7.9518e-05,-6.9681e-05,3.1359e+07,-30853,0,3.1359e+07,-5931.3,11819,12516,1,12516,1,0.00037183,1.0816e-07,0,0.00037183,-1.4886e-05,1.4338e+08,35716,0,1.4338e+08,117,12515,412.9,0,412.9,0,0.0001685,1.5986e-07,0,0.00015791,3.1587e-05,6.4718e+07,53249,0,6.0368e+07,3761.4,412.9,1
816,1.82,12163,1,12163,1,0.00022693,-1.0503e-08,0,0.0002345,-4.2514e-05,8.7683e+07,-3498.5,0,9.076e+07,-2919.4,12162,12879,1,12879,1,0.00050299,3.1531e-07,0,0.00050299,9.1558e-06,1.9254e+08,1.0538e+05,0,1.9254e+08,5501.1,12878,12168,1,12168,1,0.00022701,-2.8719e-09,0,0.00022701,-4.2538e-05,8.8627e+07,-924.8,0,8.8627e+07,-3512.4,12167,11473,1,11473,1,-4.8661e-05,-3.2093e-07,0,1.1863e-05,-9.4247e-05,-1.979e+07,-1.0725e+05,0,4.8304e+06,-9775.7,11472,11820,1,11820,1,7.9997e-05,-1.0657e-07,0,7.9997e-05,-7.008e-05,3.1548e+07,-35757,0,3.1548e+07,-5762.3,11819,12516,1,12516,1,0.00037398,7.9628e-08,0,0.00037398,-1.4973e-05,1.4417e+08,26079,0,1.4417e+08,-422.75,12515,412.9,0,412.9,0,0.00016946,1.4691e-07,0,0.00015881,3.1765e-05,6.5061e+07,48947,0,6.069e+07,3422.7,412.9,1
816,1.83,12163,1,12163,1,0.00022809,-4.4226e-08,0,0.00023568,-4.2731e-05,8.81e+07,-14678,0,9.1188e+07,-2680.5,12162,12879,1,12879,1,0.00050565,2.9624e-07,0,0.00050565,9.1984e-06,1.9346e+08,99012,0,1.9346e+08,5692.7,12878,12168,1,12168,1,0.0002282,-2.6452e-08,0,0.0002282,-4.276e-05,8.9075e+07,-8789.4,0,8.9075e+07,-3311.2,12167,11473,1,11473,1,-4.8861e-05,-3.4902e-07,0,1.189e-05,-9.4746e-05,-1.9872e+07,-1.1664e+05,0,4.8414e+06,-9404.6,11472,11820,1,11820,1,8.0447e-05,-1.4143e-07,0,8.0448e-05,-7.0441e-05,3.1726e+07,-46743,0,3.1726e+07,-5511.7,11819,12516,1,12516,1,0.00037592,4.0544e-08,0,0.00037592,-1.5057e-05,1.4486e+08,13177,0,1.4486e+08,-206.12,12515,412.9,0,412.9,0,0.00017029,1.4609e-07,0,0.00015961,3.1921e-05,6.5349e+07,48682,0,6.0961e+07,3381.6,412.9,1
816,1.84,12163,1,12163,1,0.00022928,-6.7867e-08,0,0.00023689,-4.2954e-05,8.8529e+07,-22515,0,9.1627e+07,-3512.7,12162,12879,1,12879,1,0.00050836,2.8664e-07,0,0.00050836,9.2305e-06,1.944e+08,95865,0,1.944e+08,5830,12878,12168,1,12168,1,0.0002294,-4.1729e-08,0,0.0002294,-4.2984e-05,8.9527e+07,-13722,0,8.9527e+07,-3732.4,12167,11473,1,11473,1,-4.9071e-05,-3.8922e-07,0,1.1872e-05,-9.5253e-05,-1.9957e+07,-1.3007e+05,0,4.8346e+06,-12567,11472,11820,1,11820,1,8.0895e-05,-1.7942e-07,0,8.0895e-05,-7.0806e-05,3.1902e+07,-60183,0,3.1902e+07,-6537.8,11819,12516,1,12516,1,0.00037787,2.7551e-08,0,0.00037787,-1.5141e-05,1.4555e+08,9131.3,0,1.4555e+08,-788.61,12515,412.9,0,412.9,0,0.00017113,1.5634e-07,0,0.00016041,3.2079e-05,6.5644e+07,52117,0,6.124e+07,4003.8,412.9,1
816,1.85,12163,1,12163,1,0.00023248,5.0827e-09,0,0.00024019,-4.3548e-05,8.974e+07,1681.8,0,9.2876e+07,-592.99,12162,12879,1,12879,1,0.00051465,1.2284e-08,0,0.00051465,9.3386e-06,1.9674e+08,4020,0,1.9674e+08,48.227,12878,12168,1,12168,1,0.00023249,6.0006e-09,0,0.00023249,-4.3552e-05,9.0719e+07,2007.8,0,9.0719e+07,-618.7,12167,11473,1,11473,1,-4.9658e-05,-5.9695e-09,0,1.2022e-05,-9.644e-05,-2.0196e+07,-1942.3,0,4.8962e+06,-1260.1,11472,11820,1,11820,1,8.2015e-05,1.9368e-09,0,8.2015e-05,-7.1753e-05,3.2345e+07,642.59,0,3.2345e+07,-886.48,11819,12516,1,12516,1,0.00038296,8.3583e-09,0,0.00038296,-1.5345e-05,1.4746e+08,2758.1,0,1.4746e+08,-283.4,12515,412.9,0,412.9,0,0.00017352,4.2777e-09,0,0.00016266,3.2526e-05,6.6529e+07,1406.3,0,6.2068e+07,364.12,412.9,1
816,1.86,12163,1,12163,1,0.00023392,2.8306e-09,0,0.00024165,-4.3815e-05,9.0212e+07,939.28,0,9.3355e+07,-70.29,12162,12879,1,12879,1,0.00051768,6.5757e-09,0,0.00051768,9.3713e-06,1.9764e+08,2197.5,0,1.9764e+08,151.95,12878,12168,1,12168,1,0.00023392,2.5835e-09,0,0.00023392,-4.3818e-05,9.1231e+07,848.03,0,9.1231e+07,-77.23,12167,11473,1,11473,1,-4.9819e-05,-1.1603e-09,0,1.1985e-05,-9.7006e-05,-2.0261e+07,-373.39,0,4.8812e+06,-241.29,11472,11820,1,11820,1,8.2595e-05,1.0579e-09,0,8.2595e-05,-7.218e-05,3.2572e+07,341.8,0,3.2572e+07,-120.12,11819,12516,1,12516,1,0.00038525,4.7188e-09,0,0.00038525,-1.5452e-05,1.4819e+08,1556.9,0,1.4819e+08,-16.74,12515,412.9,0,412.9,0,0.0001745,2.0799e-09,0,0.00016362,3.2711e-05,6.6822e+07,696.24,0,6.235e+07,80.887,412.9,1
816,1.87,12163,1,12163,1,0.00023382,-6.4575e-09,0,0.00024153,-4.38e-05,9.0133e+07,-2141.2,0,9.3267e+07,-1817.8,12162,12879,1,12879,1,0.00051763,2.2654e-07,0,0.00051763,9.363e-06,1.975e+08,76249,0,1.975e+08,3672,12878,12168,1,12168,1,0.00023387,-3.4896e-09,0,0.00023387,-4.3818e-05,9.1183e+07,-1121.9,0,9.1183e+07,-2189.5,12167,11473,1,11473,1,-4.9747e-05,-2.3669e-07,0,1.1911e-05,-9.6991e-05,-2.0232e+07,-79093,0,4.8509e+06,-6351.3,11472,11820,1,11820,1,8.2617e-05,-6.9194e-08,0,8.2617e-05,-7.2159e-05,3.2578e+07,-23073,0,3.2578e+07,-3594.5,11819,12516,1,12516,1,0.0003851,5.5866e-08,0,0.0003851,-1.5459e-05,1.4805e+08,18311,0,1.4805e+08,26.301,12515,412.9,0,412.9,0,0.00017437,1.0142e-07,0,0.00016352,3.2687e-05,6.6733e+07,33752,0,6.2271e+07,2359.5,412.9,1
816,1.88,12163,1,12163,1,0.00023477,-9.3342e-08,0,0.00024251,-4.3982e-05,9.0499e+07,-30920,0,9.3646e+07,-3327.1,12162,12879,1,12879,1,0.00052041,3.7003e-07,0,0.00052041,9.417e-06,1.9855e+08,1.2366e+05,0,1.9855e+08,7758.1,12878,12168,1,12168,1,0.00023491,-6.1242e-08,0,0.00023491,-4.4012e-05,9.1585e+07,-20195,0,9.1585e+07,-3198.4,12167,11473,1,11473,1,-5.0012e-05,-4.8975e-07,0,1.1931e-05,-9.7508e-05,-2.0339e+07,-1.6366e+05,0,4.8583e+06,-13485,11472,11820,1,11820,1,8.2973e-05,-2.4399e-07,0,8.2974e-05,-7.2478e-05,3.2718e+07,-80643,0,3.2719e+07,-6671.7,11819,12516,1,12516,1,0.00038681,3.0749e-08,0,0.00038681,-1.5525e-05,1.4871e+08,10028,0,1.4871e+08,245.11,12515,412.9,0,412.9,0,0.00017507,2.0457e-07,0,0.00016418,3.2819e-05,6.6999e+07,68096,0,6.252e+07,4480.6,412.9,1
816,1.89,12163,1,12163,1,0.00023599,-9.4825e-08,0,0.00024376,-4.4212e-05,9.0939e+07,-31423,0,9.4099e+07,-4379.5,12162,12879,1,12879,1,0.0005231,3.315e-07,0,0.0005231,9.4627e-06,1.9947e+08,1.1078e+05,0,1.9947e+08,6565.9,12878,12168,1,12168,1,0.00023613,-6.0719e-08,0,0.00023613,-4.4243e-05,9.204e+07,-19566,0,9.204e+07,-4184.9,12167,11473,1,11473,1,-5.0243e-05,-4.9649e-07,0,1.1963e-05,-9.8011e-05,-2.0433e+07,-1.6591e+05,0,4.8733e+06,-16013,11472,11820,1,11820,1,8.342e-05,-2.3447e-07,0,8.3421e-05,-7.2852e-05,3.2892e+07,-78459,0,3.2892e+07,-7909.9,11819,12516,1,12516,1,0.0003888,2.6534e-08,0,0.0003888,-1.5617e-05,1.4942e+08,8676.6,0,1.4942e+08,-554.62,12515,412.9,0,412.9,0,0.00017596,1.9505e-07,0,0.00016501,3.2983e-05,6.7312e+07,64961,0,6.2813e+07,5143.4,412.9,1
816,1.9,12163,1,12163,1,0.00023909,3.0696e-09,0,0.00024694,-4.4784e-05,9.2096e+07,1009.9,0,9.529e+07,-714.54,12162,12879,1,12879,1,0.00052896,1.3757e-08,0,0.00052896,9.5402e-06,2.0161e+08,4479.8,0,2.0161e+08,11.502,12878,12168,1,12168,1,0.0002391,2.6371e-09,0,0.0002391,-4.4789e-05,9.3174e+07,876.79,0,9.3174e+07,-748.11,12167,11473,1,11473,1,-5.073e-05,-8.5938e-09,0,1.2064e-05,-9.9117e-05,-2.0632e+07,-2799.6,0,4.9139e+06,-1463.2,11472,11820,1,11820,1,8.453e-05,1.8666e-10,0,8.453e-05,-7.3757e-05,3.3327e+07,60.908,0,3.3327e+07,-1126,11819,12516,1,12516,1,0.00039367,5.8258e-09,0,0.00039367,-1.5816e-05,1.5122e+08,1923,0,1.5122e+08,-283.82,12515,412.9,0,412.9,0,0.00017824,4.6582e-09,0,0.00016718,3.341e-05,6.8148e+07,1521.9,0,6.36e+07,458.61,412.9,1
816,1.91,12163,1,12163,1,0.00023923,-1.3183e-08,0,0.00024704,-4.4812e-05,9.2049e+07,-4354.7,0,9.523e+07,-2320.6,12162,12879,1,12879,1,0.00052933,2.3157e-07,0,0.00052933,9.5365e-06,2.0148e+08,77377,0,2.0148e+08,4834.7,12878,12168,1,12168,1,0.00023927,-8.2619e-09,0,0.00023927,-4.4831e-05,9.3174e+07,-2673.8,0,9.3174e+07,-2580.9,12167,11473,1,11473,1,-5.0633e-05,-2.4075e-07,0,1.1939e-05,-9.9179e-05,-2.0591e+07,-80440,0,4.8636e+06,-8427.3,11472,11820,1,11820,1,8.4673e-05,-7.8376e-08,0,8.4673e-05,-7.3795e-05,3.3374e+07,-25630,0,3.3374e+07,-4106.2,11819,12516,1,12516,1,0.00039385,4.5536e-08,0,0.00039385,-1.5848e-05,1.5112e+08,15042,0,1.5112e+08,-292.22,12515,412.9,0,412.9,0,0.00017823,1.0254e-07,0,0.00016721,3.3409e-05,6.8051e+07,34099,0,6.3518e+07,2745.9,412.9,1
816,1.92,12163,1,12163,1,0.0002418,7.3327e-10,0,0.0002497,-4.5291e-05,9.3039e+07,242.18,0,9.6252e+07,-401.42,12162,12879,1,12879,1,0.00053474,6.7948e-09,0,0.00053474,9.6157e-06,2.0353e+08,2210.4,0,2.0353e+08,6.2105,12878,12168,1,12168,1,0.00024181,7.7918e-10,0,0.00024181,-4.5294e-05,9.4159e+07,263.33,0,9.4159e+07,-462.37,12167,11473,1,11473,1,-5.1123e-05,-6.1719e-09,0,1.2058e-05,-0.0001002,-2.0792e+07,-2008,0,4.9116e+06,-874.19,11472,11820,1,11820,1,8.558e-05,-5.7307e-10,0,8.558e-05,-7.4573e-05,3.3732e+07,-188.8,0,3.3732e+07,-590.52,11819,12516,1,12516,1,0.00039803,2.1015e-09,0,0.00039803,-1.6011e-05,1.5271e+08,695.78,0,1.5271e+08,-159.68,12515,412.9,0,412.9,0,0.00018015,2.5263e-09,0,0.00016902,3.3768e-05,6.8782e+07,825.1,0,6.4202e+07,241.85,412.9,1
816,1.93,12163,1,12163,1,0.00024192,-8.5263e-09,0,0.00024979,-4.5316e-05,9.2998e+07,-2807.6,0,9.62e+07,-2080.6,12162,12879,1,12879,1,0.00053511,2.2438e-07,0,0.00053511,9.6152e-06,2.0342e+08,74970,0,2.0342e+08,5425.5,12878,12168,1,12168,1,0.00024196,-5.5407e-09,0,0.00024196,-4.5336e-05,9.4161e+07,-1783,0,9.4161e+07,-2216.8,12167,11473,1,11473,1,-5.1044e-05,-2.3028e-07,0,1.1941e-05,-0.00010026,-2.0758e+07,-76937,0,4.864e+06,-8428.2,11472,11820,1,11820,1,8.5711e-05,-6.9653e-08,0,8.5711e-05,-7.4607e-05,3.3776e+07,-22728,0,3.3776e+07,-3873.4,11819,12516,1,12516,1,0.0003982,5.1359e-08,0,0.0003982,-1.6043e-05,1.5262e+08,16838,0,1.5262e+08,4.3681,12515,412.9,0,412.9,0,0.00018014,9.8468e-08,0,0.00016905,3.3767e-05,6.8698e+07,32738,0,6.4132e+07,2883.1,412.9,1
816,1.94,12163,1,12163,1,0.00024446,-1.6834e-09,0,0.00025241,-4.5788e-05,9.3974e+07,-558.92,0,9.7208e+07,-394.16,12162,12879,1,12879,1,0.00054049,5.9509e-09,0,0.00054049,9.6926e-06,2.0545e+08,1934.4,0,2.0545e+08,60.505,12878,12168,1,12168,1,0.00024447,-2.2136e-09,0,0.00024447,-4.5792e-05,9.5134e+07,-743.32,0,9.5134e+07,-447.15,12167,11473,1,11473,1,-5.1531e-05,-6.9344e-09,0,1.2056e-05,-0.00010127,-2.0958e+07,-2262.4,0,4.9115e+06,-887.53,11472,11820,1,11820,1,8.6605e-05,-3.8131e-09,0,8.6605e-05,-7.5377e-05,3.4128e+07,-1264.8,0,3.4128e+07,-601.55,11819,12516,1,12516,1,0.00040233,3.0213e-10,0,0.00040233,-1.6203e-05,1.542e+08,101.74,0,1.542e+08,-148.46,12515,412.9,0,412.9,0,0.00018204,2.726e-09,0,0.00017083,3.4121e-05,6.9418e+07,894.48,0,6.4806e+07,250.06,412.9,1
816,1.95,12163,1,12163,1,0.00024448,-5.2276e-08,0,0.0002524,-4.5795e-05,9.3895e+07,-17282,0,9.7116e+07,-2113.9,12162,12879,1,12879,1,0.00054082,1.6466e-07,0,0.00054082,9.691e-06,2.0534e+08,55011,0,2.0534e+08,4753.5,12878,12168,1,12168,1,0.00024456,-3.2087e-08,0,0.00024456,-4.5815e-05,9.511e+07,-10386,0,9.511e+07,-2352.6,12167,11473,1,11473,1,-5.1455e-05,-2.8959e-07,0,1.1942e-05,-0.00010133,-2.0926e+07,-96746,0,4.8649e+06,-8054.2,11472,11820,1,11820,1,8.6698e-05,-1.1953e-07,0,8.6698e-05,-7.5393e-05,3.4157e+07,-39309,0,3.4158e+07,-3796.6,11819,12516,1,12516,1,0.00040239,8.4146e-09,0,0.00040239,-1.6222e-05,1.5407e+08,2823,0,1.5407e+08,-240.37,12515,412.9,0,412.9,0,0.00018196,1.0107e-07,0,0.00017079,3.4107e-05,6.9307e+07,33615,0,6.471e+07,2582.3,412.9,1
816,1.96,12163,1,12163,1,0.00024538,-5.2048e-08,0,0.00025332,-4.5969e-05,9.4237e+07,-17219,0,9.747e+07,-4543.5,12162,12879,1,12879,1,0.00054313,4.1562e-07,0,0.00054313,9.7285e-06,2.062e+08,1.3886e+05,0,2.062e+08,6082.8,12878,12168,1,12168,1,0.00024549,-3.3006e-08,0,0.00024549,-4.5999e-05,9.5471e+07,-10677,0,9.5471e+07,-4236.1,12167,11473,1,11473,1,-5.1662e-05,-4.4861e-07,0,1.1973e-05,-0.00010176,-2.101e+07,-1.4987e+05,0,4.8777e+06,-16076,11472,11820,1,11820,1,8.7033e-05,-1.963e-07,0,8.7034e-05,-7.5683e-05,3.4289e+07,-64235,0,3.4289e+07,-8093.4,11819,12516,1,12516,1,0.00040391,6.7514e-08,0,0.00040391,-1.6287e-05,1.5465e+08,22156,0,1.5465e+08,-596.26,12515,412.9,0,412.9,0,0.00018262,2.0094e-07,0,0.00017141,3.4231e-05,6.9555e+07,66781,0,6.4942e+07,5112.8,412.9,1
816,1.97,12163,1,12163,1,0.00024696,-4.6017e-08,0,0.00025495,-4.6264e-05,9.4817e+07,-15202,0,9.8065e+07,-4000.8,12162,12879,1,12879,1,0.0005465,3.3499e-07,0,0.0005465,9.7791e-06,2.0737e+08,1.1191e+05,0,2.0737e+08,5787.1,12878,12168,1,12168,1,0.00024707,-2.4134e-08,0,0.00024707,-4.629e-05,9.6064e+07,-7756.5,0,9.6064e+07,-4290.2,12167,11473,1,11473,1,-5.1919e-05,-4.0602e-07,0,1.1985e-05,-0.00010239,-2.1114e+07,-1.3564e+05,0,4.8828e+06,-14162,11472,11820,1,11820,1,8.7629e-05,-1.6027e-07,0,8.763e-05,-7.6158e-05,3.4522e+07,-52868,0,3.4522e+07,-7408.2,11819,12516,1,12516,1,0.00040648,5.3256e-08,0,0.00040648,-1.6405e-05,1.5557e+08,17243,0,1.5557e+08,-548.88,12515,412.9,0,412.9,0,0.00018376,1.698e-07,0,0.0001725,3.4442e-05,6.9961e+07,56475,0,6.5326e+07,4591.2,412.9,1
816,1.98,12163,1,12163,1,0.00024979,1.8475e-09,0,0.00025784,-4.6785e-05,9.5847e+07,606.34,0,9.9123e+07,-751.89,12162,12879,1,12879,1,0.00055197,1.2248e-08,0,0.00055197,9.8454e-06,2.0931e+08,3974.2,0,2.0931e+08,18.123,12878,12168,1,12168,1,0.0002498,1.777e-09,0,0.0002498,-4.6789e-05,9.7087e+07,583.6,0,9.7087e+07,-825.2,12167,11473,1,11473,1,-5.2351e-05,-8.8933e-09,0,1.2046e-05,-0.00010342,-2.1291e+07,-2886.6,0,4.9081e+06,-1416.3,11472,11820,1,11820,1,8.8656e-05,-7.3764e-10,0,8.8656e-05,-7.6986e-05,3.4922e+07,-240.96,0,3.4922e+07,-1164.9,11819,12516,1,12516,1,0.00041093,4.4013e-09,0,0.00041093,-1.6587e-05,1.5718e+08,1435.7,0,1.5718e+08,-321.1,12515,412.9,0,412.9,0,0.00018581,4.1783e-09,0,0.00017446,3.4828e-05,7.0693e+07,1362.3,0,6.6016e+07,457.35,412.9,1
816,1.99,12163,1,12163,1,0.00024986,-1.6145e-08,0,0.00025788,-4.6801e-05,9.5778e+07,-5320.2,0,9.9039e+07,-2248.3,12162,12879,1,12879,1,0.00055226,2.3677e-07,0,0.00055226,9.8426e-06,2.0915e+08,79088,0,2.0915e+08,5737.7,12878,12168,1,12168,1,0.00024992,-6.8943e-09,0,0.00024992,-4.6819e-05,9.7068e+07,-2201.8,0,9.7068e+07,-2695.5,12167,11473,1,11473,1,-5.2247e-05,-2.8486e-07,0,1.1918e-05,-0.00010347,-2.1248e+07,-95151,0,4.8558e+06,-7836,11472,11820,1,11820,1,8.8777e-05,-8.7513e-08,0,8.8777e-05,-7.701e-05,3.4961e+07,-28796,0,3.4961e+07,-4391,11819,12516,1,12516,1,0.00041103,5.6351e-08,0,0.00041103,-1.6614e-05,1.5704e+08,18795,0,1.5704e+08,-202,12515,412.9,0,412.9,0,0.00018576,1.1549e-07,0,0.00017445,3.4819e-05,7.058e+07,38358,0,6.592e+07,2842.9,412.9,1
816,2,12163,1,12163,1,0.00025247,-3.3095e-10,0,0.00026057,-4.7287e-05,9.6779e+07,-112.38,0,1.0007e+08,-501.38,12162,12879,1,12879,1,0.00055772,6.8836e-09,0,0.00055772,9.9199e-06,2.112e+08,2228.5,0,2.112e+08,61.598,12878,12168,1,12168,1,0.00025248,-7.9426e-10,0,0.00025248,-4.7291e-05,9.8062e+07,-260.28,0,9.8062e+07,-541.1,12167,11473,1,11473,1,-5.2738e-05,-5.0166e-09,0,1.2032e-05,-0.0001045,-2.1448e+07,-1664.4,0,4.9029e+06,-1019.6,11472,11820,1,11820,1,8.97e-05,-1.8281e-09,0,8.97e-05,-7.7796e-05,3.5325e+07,-603.99,0,3.5325e+07,-765.02,11819,12516,1,12516,1,0.00041526,1.0678e-09,0,0.00041526,-1.6781e-05,1.5865e+08,348.61,0,1.5865e+08,-216.61,12515,412.9,0,412.9,0,0.00018771,2.3147e-09,0,0.00017628,3.5182e-05,7.1318e+07,759.44,0,6.6611e+07,313.85,412.9,1
816,2.01,12163,1,12163,1,0.00025251,-6.536e-08,0,0.00026057,-4.7298e-05,9.67e+07,-21588,0,9.998e+07,-2713.1,12162,12879,1,12879,1,0.00055816,1.5932e-07,0,0.00055816,9.9151e-06,2.1111e+08,53216,0,2.1111e+08,4072.9,12878,12168,1,12168,1,0.00025259,-4.288e-08,0,0.0002526,-4.732e-05,9.8043e+07,-14164,0,9.8043e+07,-3010.5,12167,11473,1,11473,1,-5.2653e-05,-3.1543e-07,0,1.1899e-05,-0.00010457,-2.1413e+07,-1.0535e+05,0,4.8492e+06,-8819.4,11472,11820,1,11820,1,8.9812e-05,-1.4228e-07,0,8.9812e-05,-7.7819e-05,3.5361e+07,-46252,0,3.5361e+07,-4403.8,11819,12516,1,12516,1,0.00041535,6.2917e-09,0,0.00041535,-1.6804e-05,1.5852e+08,2004.2,0,1.5852e+08,-791.42,12515,412.9,0,412.9,0,0.00018763,1.0843e-07,0,0.00017625,3.5168e-05,7.1201e+07,36039,0,6.6511e+07,2601.7,412.9,1
816,2.02,12163,1,12163,1,0.00025516,5.2873e-11,0,0.00026331,-4.779e-05,9.7715e+07,10.521,0,1.0103e+08,-400.88,12162,12879,1,12879,1,0.0005635,7.6533e-09,0,0.0005635,9.9949e-06,2.1311e+08,2479.1,0,2.1311e+08,65.667,12878,12168,1,12168,1,0.00025517,-4.3076e-10,0,0.00025517,-4.7794e-05,9.9042e+07,-142.15,0,9.9042e+07,-362.2,12167,11473,1,11473,1,-5.3133e-05,-4.8243e-09,0,1.2013e-05,-0.00010558,-2.1609e+07,-1650.8,0,4.8957e+06,-909.04,11472,11820,1,11820,1,9.0746e-05,-1.2833e-09,0,9.0746e-05,-7.8607e-05,3.5728e+07,-421.34,0,3.5728e+07,-627.7,11819,12516,1,12516,1,0.0004196,9.4738e-10,0,0.0004196,-1.6977e-05,1.6014e+08,309.95,0,1.6014e+08,-166.02,12515,412.9,0,412.9,0,0.00018961,2.2279e-09,0,0.00017811,3.5538e-05,7.1949e+07,730.78,0,6.7211e+07,274.86,412.9,1
816,2.03,12163,1,12163,1,0.00025543,-5.5187e-08,0,0.00026355,-4.7843e-05,9.7723e+07,-18212,0,1.0103e+08,-2116.6,12162,12879,1,12879,1,0.00056437,1.3996e-07,0,0.00056437,9.9959e-06,2.1318e+08,46744,0,2.1318e+08,4155.1,12878,12168,1,12168,1,0.00025551,-3.4717e-08,0,0.00025551,-4.7862e-05,9.9107e+07,-11369,0,9.9107e+07,-2331.8,12167,11473,1,11473,1,-5.3081e-05,-2.7059e-07,0,1.1889e-05,-0.00010574,-2.1587e+07,-90371,0,4.8456e+06,-7295.8,11472,11820,1,11820,1,9.094e-05,-1.2049e-07,0,9.094e-05,-7.8696e-05,3.5796e+07,-39186,0,3.5797e+07,-3722,11819,12516,1,12516,1,0.00042006,6.9411e-09,0,0.00042006,-1.7015e-05,1.6014e+08,2208.8,0,1.6014e+08,-410.16,12515,412.9,0,412.9,0,0.0001897,9.3436e-08,0,0.00017824,3.5554e-05,7.1894e+07,31052,0,6.7169e+07,2389.6,412.9,1
816,2.04,12163,1,12163,1,0.00025642,-2.7057e-08,0,0.00026457,-4.803e-05,9.8092e+07,-8926.6,0,1.0141e+08,-2941.5,12162,12879,1,12879,1,0.00056667,3.3571e-07,0,0.00056667,1.0041e-05,2.14e+08,1.1212e+05,0,2.14e+08,5980.7,12878,12168,1,12168,1,0.00025651,-1.5817e-08,0,0.00025651,-4.8055e-05,9.9487e+07,-5037.1,0,9.9487e+07,-3005.6,12167,11473,1,11473,1,-5.3302e-05,-3.3352e-07,0,1.1932e-05,-0.00010617,-2.1677e+07,-1.1139e+05,0,4.8628e+06,-12134,11472,11820,1,11820,1,9.1295e-05,-1.3326e-07,0,9.1295e-05,-7.9003e-05,3.5935e+07,-43602,0,3.5935e+07,-6271.3,11819,12516,1,12516,1,0.00042168,5.8786e-08,0,0.00042168,-1.709e-05,1.6074e+08,19271,0,1.6074e+08,360.84,12515,412.9,0,412.9,0,0.00019043,1.5352e-07,0,0.00017892,3.5692e-05,7.2163e+07,50972,0,6.7419e+07,4325.7,412.9,1
816,2.05,12163,1,12163,1,0.00025919,9.8109e-10,0,0.00026741,-4.8543e-05,9.9116e+07,320.51,0,1.0246e+08,-730.16,12162,12879,1,12879,1,0.00057215,1.1354e-08,0,0.00057215,1.0104e-05,2.1598e+08,3671.9,0,2.1598e+08,9.5293,12878,12168,1,12168,1,0.0002592,6.6635e-10,0,0.0002592,-4.8548e-05,1.0051e+08,218.29,0,1.0051e+08,-820.35,12167,11473,1,11473,1,-5.3725e-05,-1.0118e-08,0,1.1984e-05,-0.0001072,-2.185e+07,-3272.9,0,4.8845e+06,-1447.3,11472,11820,1,11820,1,9.2311e-05,-1.3304e-09,0,9.2311e-05,-7.9821e-05,3.6332e+07,-442.62,0,3.6332e+07,-1114.2,11819,12516,1,12516,1,0.00042609,3.3783e-09,0,0.00042609,-1.727e-05,1.6235e+08,1116,0,1.6235e+08,-294.9,12515,412.9,0,412.9,0,0.00019244,4.1707e-09,0,0.00018084,3.6068e-05,7.2892e+07,1354.7,0,6.8108e+07,448.76,412.9,1
816,2.06,12163,1,12163,1,0.00025914,-6.9574e-08,0,0.00026731,-4.8539e-05,9.8994e+07,-22947,0,1.0232e+08,-3372.9,12162,12879,1,12879,1,0.0005724,1.9261e-07,0,0.0005724,1.0096e-05,2.1578e+08,64322,0,2.1578e+08,4416.6,12878,12168,1,12168,1,0.00025923,-4.5663e-08,0,0.00025923,-4.8563e-05,1.0045e+08,-14802,0,1.0045e+08,-3598.4,12167,11473,1,11473,1,-5.3608e-05,-3.5111e-07,0,1.1845e-05,-0.00010724,-2.1801e+07,-1.1725e+05,0,4.8282e+06,-10746,11472,11820,1,11820,1,9.24e-05,-1.5691e-07,0,9.24e-05,-7.9819e-05,3.6358e+07,-51728,0,3.6358e+07,-5270.1,11819,12516,1,12516,1,0.00042604,8.1335e-09,0,0.00042604,-1.7288e-05,1.6215e+08,2593.8,0,1.6215e+08,-1197.2,12515,412.9,0,412.9,0,0.00019229,1.2297e-07,0,0.00018074,3.6041e-05,7.2738e+07,40823,0,6.7974e+07,2969,412.9,1
816,2.07,12163,1,12163,1,0.0002619,-2.8567e-10,0,0.00027016,-4.9049e-05,1.0005e+08,-100.53,0,1.0341e+08,-399.31,12162,12879,1,12879,1,0.00057794,8.2565e-09,0,0.00057794,1.0178e-05,2.1786e+08,2668.1,0,2.1786e+08,39.205,12878,12168,1,12168,1,0.00026191,-9.7221e-10,0,0.00026191,-4.9054e-05,1.0148e+08,-316.01,0,1.0148e+08,-298.67,12167,11473,1,11473,1,-5.4103e-05,-4.0697e-09,0,1.1956e-05,-0.00010828,-2.2003e+07,-1392.5,0,4.8737e+06,-1192.6,11472,11820,1,11820,1,9.3372e-05,-1.8577e-09,0,9.3372e-05,-8.0636e-05,3.6741e+07,-612.55,0,3.6741e+07,-613.53,11819,12516,1,12516,1,0.00043044,6.095e-10,0,0.00043044,-1.7467e-05,1.6382e+08,197.84,0,1.6382e+08,-133.15,12515,412.9,0,412.9,0,0.00019434,2.3103e-09,0,0.00018268,3.6424e-05,7.3512e+07,754.43,0,6.8699e+07,330.43,412.9,1
816,2.08,12163,1,12163,1,0.00026172,-4.3134e-08,0,0.00026993,-4.902e-05,9.9878e+07,-14218,0,1.0322e+08,-3048.1,12162,12879,1,12879,1,0.00057777,2.0931e-07,0,0.00057777,1.0165e-05,2.1752e+08,69897,0,2.1752e+08,4929.1,12878,12168,1,12168,1,0.00026179,-2.5092e-08,0,0.00026179,-4.904e-05,1.0137e+08,-8145.8,0,1.0137e+08,-3369,12167,11473,1,11473,1,-5.3969e-05,-3.0632e-07,0,1.1822e-05,-0.00010824,-2.1948e+07,-1.0228e+05,0,4.8192e+06,-9671.1,11472,11820,1,11820,1,9.34e-05,-1.1979e-07,0,9.3401e-05,-8.0588e-05,3.6743e+07,-39589,0,3.6743e+07,-4911.2,11819,12516,1,12516,1,0.00043016,2.575e-08,0,0.00043016,-1.7477e-05,1.6353e+08,8535.2,0,1.6353e+08,-985.88,12515,412.9,0,412.9,0,0.00019411,1.1334e-07,0,0.00018249,3.638e-05,7.3328e+07,37582,0,6.8535e+07,2731.7,412.9,1
816,2.09,12163,1,12163,1,0.00026304,-6.1246e-08,0,0.0002713,-4.9265e-05,1.0038e+08,-20226,0,1.0374e+08,-1403.4,12162,12879,1,12879,1,0.00058103,2.8403e-07,0,0.00058103,1.0212e-05,2.1874e+08,94843,0,2.1874e+08,8086.7,12878,12168,1,12168,1,0.00026315,-4.0258e-08,0,0.00026315,-4.9293e-05,1.019e+08,-13081,0,1.019e+08,-1392.2,12167,11473,1,11473,1,-5.4246e-05,-3.5871e-07,0,1.1867e-05,-0.00010885,-2.2061e+07,-1.1978e+05,0,4.837e+06,-9788.2,11472,11820,1,11820,1,9.3889e-05,-1.7837e-07,0,9.389e-05,-8.1001e-05,3.6936e+07,-58911,0,3.6936e+07,-4378,11819,12516,1,12516,1,0.00043238,3.6095e-08,0,0.00043238,-1.7561e-05,1.6438e+08,11548,0,1.6438e+08,1381.9,12515,412.9,0,412.9,0,0.00019508,1.5727e-07,0,0.00018341,3.6564e-05,7.3696e+07,52182,0,6.888e+07,3776.9,412.9,1
816,2.1,12163,1,12163,1,0.00026593,1.3564e-09,0,0.00027426,-4.9804e-05,1.0144e+08,439.86,0,1.0483e+08,-743.76,12162,12879,1,12879,1,0.0005866,1.1845e-08,0,0.0005866,1.0285e-05,2.207e+08,3821.9,0,2.207e+08,4.9648,12878,12168,1,12168,1,0.00026594,8.4909e-10,0,0.00026594,-4.9808e-05,1.0295e+08,282.71,0,1.0295e+08,-733.47,12167,11473,1,11473,1,-5.4682e-05,-9.9464e-09,0,1.1912e-05,-0.0001099,-2.2239e+07,-3209.8,0,4.8563e+06,-1541,11472,11820,1,11820,1,9.4947e-05,-1.2808e-09,0,9.4947e-05,-8.1849e-05,3.7348e+07,-412.58,0,3.7348e+07,-1190,11819,12516,1,12516,1,0.00043693,4.1099e-09,0,0.00043693,-1.7762e-05,1.6602e+08,1332.7,0,1.6602e+08,-302.21,12515,412.9,0,412.9,0,0.00019718,4.3903e-09,0,0.00018541,3.6954e-05,7.4446e+07,1423.3,0,6.9589e+07,484.63,412.9,1
816,2.11,12163,1,12163,1,0.00026745,2.5116e-10,0,0.00027578,-5.0086e-05,1.0191e+08,81.917,0,1.053e+08,-72.568,12162,12879,1,12879,1,0.00058971,1.8908e-09,0,0.00058971,1.0309e-05,2.2156e+08,646.97,0,2.2156e+08,19.978,12878,12168,1,12168,1,0.00026745,2.7048e-10,0,0.00026745,-5.0089e-05,1.0346e+08,87.665,0,1.0346e+08,-82.514,12167,11473,1,11473,1,-5.4797e-05,-9.9439e-10,0,1.1829e-05,-0.00011048,-2.2286e+07,-340.24,0,4.8228e+06,-158.86,11472,11820,1,11820,1,9.5587e-05,4.349e-13,0,9.5587e-05,-8.2294e-05,3.759e+07,0.055357,0,3.759e+07,-109.14,11819,12516,1,12516,1,0.00043932,4.7621e-10,0,0.00043932,-1.788e-05,1.6673e+08,154.19,0,1.6673e+08,-30.358,12515,412.9,0,412.9,0,0.00019819,4.7637e-10,0,0.00018641,3.7144e-05,7.4721e+07,159.56,0,6.9858e+07,47.618,412.9,1
816,2.12,12163,1,12163,1,0.00026882,1.9939e-11,0,0.00027717,-5.0342e-05,1.0237e+08,6.4302,0,1.0577e+08,-32.819,12162,12879,1,12879,1,0.00059262,2.5624e-09,0,0.00059262,1.0343e-05,2.2249e+08,859.4,0,2.2249e+08,48.56,12878,12168,1,12168,1,0.00026882,-4.5486e-12,0,0.00026882,-5.0345e-05,1.0394e+08,-1.4852,0,1.0394e+08,-30.334,12167,11473,1,11473,1,-5.4976e-05,-1.7094e-09,0,1.1803e-05,-0.00011103,-2.2358e+07,-571.46,0,4.8124e+06,-105.63,11472,11820,1,11820,1,9.6129e-05,-6.9548e-10,0,9.6129e-05,-8.2704e-05,3.7798e+07,-229.38,0,3.7798e+07,-58.254,11819,12516,1,12516,1,0.00044151,5.7568e-10,0,0.00044151,-1.7981e-05,1.6746e+08,192.31,0,1.6746e+08,-9.0624,12515,412.9,0,412.9,0,0.00019914,1.0041e-09,0,0.00018733,3.7322e-05,7.5024e+07,333.13,0,7.0149e+07,33.206,412.9,1
816,2.13,12163,1,12163,1,0.00027018,2.7691e-11,0,0.00027855,-5.0597e-05,1.0284e+08,8.8461,0,1.0625e+08,-9.4562,12162,12879,1,12879,1,0.00059553,1.3115e-09,0,0.00059553,1.0378e-05,2.2343e+08,441.89,0,2.2343e+08,26.751,12878,12168,1,12168,1,0.00027018,-3.9327e-12,0,0.00027018,-5.0599e-05,1.0443e+08,-1.2869,0,1.0443e+08,-5.1186,12167,11473,1,11473,1,-5.516e-05,-6.2812e-10,0,1.1781e-05,-0.00011157,-2.2434e+07,-209.7,0,4.804e+06,-57.071,11472,11820,1,11820,1,9.6667e-05,-3.162e-10,0,9.6667e-05,-8.3113e-05,3.8005e+07,-103.7,0,3.8005e+07,-26.177,11819,12516,1,12516,1,0.0004437,2.406e-10,0,0.0004437,-1.8081e-05,1.6819e+08,77.667,0,1.6819e+08,6.1835,12515,412.9,0,412.9,0,0.00020009,4.3523e-10,0,0.00018825,3.75e-05,7.5332e+07,144.37,0,7.0443e+07,20.032,412.9,1
816,2.14,12163,1,12163,1,0.00027154,-6.517e-10,0,0.00027993,-5.085e-05,1.033e+08,-215.27,0,1.0672e+08,-7.5166,12162,12879,1,12879,1,0.00059843,8.9614e-10,0,0.00059843,1.0412e-05,2.2436e+08,301.38,0,2.2436e+08,54.285,12878,12168,1,12168,1,0.00027154,-5.8453e-10,0,0.00027154,-5.0853e-05,1.0492e+08,-192.21,0,1.0492e+08,-2.8588,12167,11473,1,11473,1,-5.5343e-05,-1.9754e-09,0,1.1758e-05,-0.00011211,-2.2508e+07,-659.46,0,4.7949e+06,-83.386,11472,11820,1,11820,1,9.7203e-05,-1.3725e-09,0,9.7203e-05,-8.3521e-05,3.8211e+07,-451.76,0,3.8211e+07,-26.588,11819,12516,1,12516,1,0.00044588,2.5764e-11,0,0.00044588,-1.8181e-05,1.6892e+08,8.1502,0,1.6892e+08,14.001,12515,412.9,0,412.9,0,0.00020104,7.6179e-10,0,0.00018917,3.7677e-05,7.5637e+07,252.88,0,7.0734e+07,28.169,412.9,1
816,2.15,12163,1,12163,1,0.00027163,-2.9083e-08,0,0.00028,-5.0872e-05,1.0328e+08,-9564.3,0,1.0669e+08,-2439.9,12162,12879,1,12879,1,0.0005989,2.1344e-07,0,0.0005989,1.042e-05,2.2438e+08,71254,0,2.2438e+08,4044.8,12878,12168,1,12168,1,0.00027168,-1.7331e-08,0,0.00027168,-5.0888e-05,1.0494e+08,-5526.6,0,1.0494e+08,-2564.7,12167,11473,1,11473,1,-5.5331e-05,-2.512e-07,0,1.1682e-05,-0.0001122,-2.2502e+07,-83856,0,4.7643e+06,-8774,11472,11820,1,11820,1,9.7292e-05,-9.9235e-08,0,9.7292e-05,-8.3559e-05,3.8241e+07,-32722,0,3.8241e+07,-4211.1,11819,12516,1,12516,1,0.00044606,3.0356e-08,0,0.00044606,-1.8207e-05,1.6889e+08,9682.3,0,1.6889e+08,-433.2,12515,412.9,0,412.9,0,0.00020104,1.0279e-07,0,0.00018919,3.7677e-05,7.5587e+07,34052,0,7.0692e+07,2766.9,412.9,1
816,2.16,12163,1,12163,1,0.00027251,-1.8773e-08,0,0.0002809,-5.1044e-05,1.0361e+08,-6136.2,0,1.0703e+08,-5263.6,12162,12879,1,12879,1,0.00060101,4.4863e-07,0,0.00060101,1.046e-05,2.2513e+08,1.5153e+05,0,2.2513e+08,7445.6,12878,12168,1,12168,1,0.00027259,-1.3347e-08,0,0.00027259,-5.107e-05,1.0528e+08,-4429.6,0,1.0528e+08,-5610.2,12167,11473,1,11473,1,-5.5504e-05,-3.8912e-07,0,1.1698e-05,-0.00011259,-2.2572e+07,-1.3014e+05,0,4.771e+06,-16452,11472,11820,1,11820,1,9.763e-05,-1.4185e-07,0,9.763e-05,-8.3835e-05,3.8372e+07,-46635,0,3.8372e+07,-8491,11819,12516,1,12516,1,0.0004475,9.1404e-08,0,0.0004475,-1.8277e-05,1.6942e+08,29578,0,1.6942e+08,-1816.5,12515,412.9,0,412.9,0,0.00020167,1.8519e-07,0,0.00018979,3.7794e-05,7.582e+07,61394,0,7.0911e+07,4819.3,412.9,1
816,2.17,12163,1,12163,1,0.00027393,-3.6229e-08,0,0.00028235,-5.1308e-05,1.0411e+08,-11913,0,1.0754e+08,-4371.3,12162,12879,1,12879,1,0.00060412,2.8301e-07,0,0.00060412,1.0487e-05,2.2618e+08,95645,0,2.2618e+08,5375.9,12878,12168,1,12168,1,0.00027402,-1.8172e-08,0,0.00027402,-5.1329e-05,1.058e+08,-5810.8,0,1.058e+08,-4807.4,12167,11473,1,11473,1,-5.571e-05,-3.4473e-07,0,1.1683e-05,-0.00011317,-2.2657e+07,-1.1557e+05,0,4.7656e+06,-12602,11472,11820,1,11820,1,9.8175e-05,-1.3478e-07,0,9.8176e-05,-8.4266e-05,3.8582e+07,-43361,0,3.8582e+07,-7398.3,11819,12516,1,12516,1,0.00044983,5.1559e-08,0,0.00044983,-1.8379e-05,1.7023e+08,17372,0,1.7023e+08,-1655.8,12515,412.9,0,412.9,0,0.00020269,1.4531e-07,0,0.00019077,3.7984e-05,7.6167e+07,48195,0,7.124e+07,3971.4,412.9,1
816,2.18,12163,1,12163,1,0.00027499,-2.2114e-09,0,0.00028343,-5.1499e-05,1.0446e+08,-736.75,0,1.0789e+08,-1336,12162,12879,1,12879,1,0.00060625,3.0303e-07,0,0.00060625,1.0522e-05,2.2682e+08,1.008e+05,0,2.2682e+08,7585.7,12878,12168,1,12168,1,0.00027507,-2.7472e-09,0,0.00027507,-5.1528e-05,1.0617e+08,-866.43,0,1.0617e+08,-2064.8,12167,11473,1,11473,1,-5.5834e-05,-3.2345e-07,0,1.1678e-05,-0.00011357,-2.2706e+07,-1.0795e+05,0,4.7622e+06,-8463.9,11472,11820,1,11820,1,9.8604e-05,-9.3275e-08,0,9.8605e-05,-8.4578e-05,3.8743e+07,-29964,0,3.8743e+07,-4368.2,11819,12516,1,12516,1,0.00045149,9.1616e-08,0,0.00045149,-1.845e-05,1.7075e+08,30340,0,1.7075e+08,1445.8,12515,412.9,0,412.9,0,0.00020343,1.4652e-07,0,0.00019148,3.8125e-05,7.6387e+07,48505,0,7.145e+07,3606.2,412.9,1
816,2.19,12163,1,12163,1,0.00027814,2.3101e-09,0,0.00028665,-5.2087e-05,1.056e+08,762.83,0,1.0906e+08,-896.71,12162,12879,1,12879,1,0.00061266,1.4714e-08,0,0.00061266,1.0593e-05,2.2908e+08,4745.3,0,2.2908e+08,-0.99872,12878,12168,1,12168,1,0.00027815,3.1417e-09,0,0.00027815,-5.2092e-05,1.0732e+08,1036.4,0,1.0732e+08,-1061,12167,11473,1,11473,1,-5.632e-05,-1.2739e-08,0,1.1704e-05,-0.00011478,-2.2905e+07,-4092.6,0,4.7747e+06,-1561,11472,11820,1,11820,1,9.9772e-05,-1.2057e-09,0,9.9772e-05,-8.5514e-05,3.9195e+07,-391.66,0,3.9195e+07,-1377.7,11819,12516,1,12516,1,0.00045653,5.5752e-09,0,0.00045653,-1.8665e-05,1.7256e+08,1830.8,0,1.7256e+08,-361.94,12515,412.9,0,412.9,0,0.00020569,5.628e-09,0,0.00019365,3.8547e-05,7.7194e+07,1821.3,0,7.2216e+07,524.91,412.9,1
816,2.2,12163,1,12163,1,0.00027826,2.1916e-08,0,0.00028671,-5.2112e-05,1.0551e+08,7205.8,0,1.0895e+08,-2548.1,12162,12879,1,12879,1,0.000613,2.8622e-07,0,0.000613,1.0569e-05,2.2883e+08,95935,0,2.2883e+08,3944.3,12878,12168,1,12168,1,0.00027833,9.1881e-09,0,0.00027833,-5.2132e-05,1.0729e+08,2940,0,1.0729e+08,-2923.2,12167,11473,1,11473,1,-5.6131e-05,-2.0602e-07,0,1.1511e-05,-0.00011483,-2.2828e+07,-68793,0,4.6964e+06,-7319.9,11472,11820,1,11820,1,9.9958e-05,-5.2161e-08,0,9.9959e-05,-8.5546e-05,3.9251e+07,-17157,0,3.9251e+07,-4427.4,11819,12516,1,12516,1,0.00045667,9.5428e-08,0,0.00045667,-1.8702e-05,1.7237e+08,31027,0,1.7237e+08,-707.07,12515,412.9,0,412.9,0,0.00020563,1.1223e-07,0,0.00019365,3.8535e-05,7.704e+07,37124,0,7.2087e+07,2526.9,412.9,1
816,2.21,12163,1,12163,1,0.00027943,-6.4027e-08,0,0.00028792,-5.2331e-05,1.0595e+08,-21029,0,1.094e+08,-2515.5,12162,12879,1,12879,1,0.00061588,2.6931e-07,0,0.00061588,1.0622e-05,2.2989e+08,90243,0,2.2989e+08,9115.6,12878,12168,1,12168,1,0.00027953,-3.7738e-08,0,0.00027953,-5.2359e-05,1.0775e+08,-12382,0,1.0775e+08,-2969.7,12167,11473,1,11473,1,-5.6396e-05,-3.7321e-07,0,1.155e-05,-0.00011537,-2.2936e+07,-1.2501e+05,0,4.7116e+06,-10062,11472,11820,1,11820,1,0.00010039,-1.6472e-07,0,0.00010039,-8.5914e-05,3.9419e+07,-53803,0,3.9419e+07,-5281.5,11819,12516,1,12516,1,0.00045865,2.4965e-08,0,0.00045865,-1.8783e-05,1.7311e+08,7968.1,0,1.7311e+08,-111.02,12515,412.9,0,412.9,0,0.00020648,1.4791e-07,0,0.00019446,3.8696e-05,7.7358e+07,49013,0,7.2385e+07,3611.4,412.9,1
816,2.22,12163,1,12163,1,0.0002811,-7.9458e-08,0,0.00028962,-5.2643e-05,1.0653e+08,-26135,0,1.1e+08,-2058.7,12162,12879,1,12879,1,0.00061968,2.4983e-07,0,0.00061968,1.0686e-05,2.3112e+08,83339,0,2.3112e+08,13956,12878,12168,1,12168,1,0.00028123,-5.1713e-08,0,0.00028123,-5.2672e-05,1.0836e+08,-17030,0,1.0836e+08,-2585,12167,11473,1,11473,1,-5.6635e-05,-3.7088e-07,0,1.1552e-05,-0.00011608,-2.3033e+07,-1.2421e+05,0,4.7129e+06,-9623.6,11472,11820,1,11820,1,0.00010104,-1.8419e-07,0,0.00010105,-8.6423e-05,3.967e+07,-59870,0,3.967e+07,-4771.2,11819,12516,1,12516,1,0.00046139,1.1204e-08,0,0.00046139,-1.8901e-05,1.7404e+08,3541.2,0,1.7404e+08,458.81,12515,412.9,0,412.9,0,0.00020767,1.4327e-07,0,0.0001956,3.8918e-05,7.7752e+07,47500,0,7.2759e+07,3814,412.9,1
816,2.23,12163,1,12163,1,0.00028208,-1.0908e-08,0,0.00029059,-5.2824e-05,1.0682e+08,-3595.9,0,1.1029e+08,-1946.5,12162,12879,1,12879,1,0.00062132,3.6934e-07,0,0.00062132,1.0688e-05,2.3151e+08,1.2449e+05,0,2.3151e+08,12261,12878,12168,1,12168,1,0.00028215,-8.5503e-09,0,0.00028215,-5.2851e-05,1.0866e+08,-2694.6,0,1.0866e+08,-2509.3,12167,11473,1,11473,1,-5.6663e-05,-3.4078e-07,0,1.1464e-05,-0.00011639,-2.3043e+07,-1.1412e+05,0,4.6771e+06,-10431,11472,11820,1,11820,1,0.00010146,-1.1802e-07,0,0.00010146,-8.6692e-05,3.9823e+07,-38718,0,3.9823e+07,-5196,11819,12516,1,12516,1,0.00046281,8.6081e-08,0,0.00046281,-1.8976e-05,1.7444e+08,27761,0,1.7444e+08,952.66,12515,412.9,0,412.9,0,0.00020829,1.6232e-07,0,0.00019623,3.9037e-05,7.7915e+07,53710,0,7.2923e+07,4181.4,412.9,1
816,2.24,12163,1,12163,1,0.00028503,1.7718e-09,0,0.00029361,-5.3374e-05,1.079e+08,580.17,0,1.1139e+08,-958.85,12162,12879,1,12879,1,0.00062725,1.4628e-08,0,0.00062725,1.0749e-05,2.3363e+08,4685.1,0,2.3363e+08,9.4866,12878,12168,1,12168,1,0.00028504,2.0277e-09,0,0.00028504,-5.3379e-05,1.0974e+08,670.01,0,1.0974e+08,-1128.7,12167,11473,1,11473,1,-5.7147e-05,-1.2582e-08,0,1.1502e-05,-0.00011751,-2.3242e+07,-4030.6,0,4.6943e+06,-1717.3,11472,11820,1,11820,1,0.00010254,-1.3372e-09,0,0.00010254,-8.7571e-05,4.0243e+07,-432.56,0,4.0243e+07,-1471.5,11819,12516,1,12516,1,0.00046753,4.9337e-09,0,0.00046753,-1.9182e-05,1.7614e+08,1619.2,0,1.7614e+08,-412.74,12515,412.9,0,412.9,0,0.00021044,5.3427e-09,0,0.00019827,3.9435e-05,7.8677e+07,1722.5,0,7.3643e+07,564.12,412.9,1
816,2.25,12163,1,12163,1,0.00028662,-7.0248e-10,0,0.0002952,-5.367e-05,1.0836e+08,-231.3,0,1.1185e+08,-133.52,12162,12879,1,12879,1,0.00063048,3.0441e-09,0,0.00063048,1.0766e-05,2.3446e+08,1041.6,0,2.3446e+08,72.468,12878,12168,1,12168,1,0.00028662,-6.0284e-10,0,0.00028662,-5.3673e-05,1.1025e+08,-191.93,0,1.1025e+08,-163.1,12167,11473,1,11473,1,-5.7221e-05,-3.4421e-09,0,1.1373e-05,-0.00011811,-2.3272e+07,-1177.7,0,4.6428e+06,-251.05,11472,11820,1,11820,1,0.00010324,-1.4705e-09,0,0.00010324,-8.8032e-05,4.0499e+07,-482.41,0,4.0499e+07,-198.36,11819,12516,1,12516,1,0.00047001,-2.0467e-11,0,0.00047001,-1.9309e-05,1.7683e+08,-6.317,0,1.7683e+08,-73.996,12515,412.9,0,412.9,0,0.00021147,1.1732e-09,0,0.00019931,3.9629e-05,7.8934e+07,391.76,0,7.39e+07,81.431,412.9,1
816,2.26,12163,1,12163,1,0.00028804,7.6339e-10,0,0.00029663,-5.3934e-05,1.0882e+08,250.75,0,1.1232e+08,-22.761,12162,12879,1,12879,1,0.00063346,2.1206e-09,0,0.00063346,1.0796e-05,2.3536e+08,717.92,0,2.3536e+08,36.238,12878,12168,1,12168,1,0.00028804,6.1534e-10,0,0.00028804,-5.3937e-05,1.1074e+08,196.87,0,1.1074e+08,-18.588,12167,11473,1,11473,1,-5.7375e-05,-3.1556e-10,0,1.1319e-05,-0.00011867,-2.3334e+07,-107.92,0,4.6213e+06,-87.003,11472,11820,1,11820,1,0.00010382,1.9602e-10,0,0.00010382,-8.8453e-05,4.0715e+07,64.288,0,4.0715e+07,-45.4,11819,12516,1,12516,1,0.00047226,1.3517e-09,0,0.00047226,-1.9416e-05,1.7755e+08,442.35,0,1.7755e+08,-2.1095,12515,412.9,0,412.9,0,0.00021243,6.5219e-10,0,0.00020025,3.9809e-05,7.9226e+07,217.02,0,7.4183e+07,26.508,412.9,1
816,2.27,12163,1,12163,1,0.00028945,-3.1683e-10,0,0.00029805,-5.4197e-05,1.0928e+08,-104.45,0,1.1278e+08,-10.069,12162,12879,1,12879,1,0.00063642,3.001e-10,0,0.00063642,1.0824e-05,2.3626e+08,93.776,0,2.3626e+08,20.747,12878,12168,1,12168,1,0.00028945,-3.3949e-10,0,0.00028945,-5.42e-05,1.1122e+08,-111.69,0,1.1122e+08,-7.1768,12167,11473,1,11473,1,-5.7522e-05,-8.0655e-10,0,1.1259e-05,-0.00011922,-2.3394e+07,-268.81,0,4.5973e+06,-57.764,11472,11820,1,11820,1,0.0001044,-5.8096e-10,0,0.0001044,-8.8871e-05,4.0928e+07,-189.03,0,4.0928e+07,-17.871,11819,12516,1,12516,1,0.0004745,-6.47e-11,0,0.0004745,-1.9524e-05,1.7825e+08,-20.823,0,1.7825e+08,-0.62798,12515,412.9,0,412.9,0,0.00021339,2.9209e-10,0,0.00020119,3.9988e-05,7.9517e+07,96.097,0,7.4465e+07,14.747,412.9,1
816,2.28,12163,1,12163,1,0.00029085,-1.2723e-09,0,0.00029946,-5.4459e-05,1.0973e+08,-418.64,0,1.1324e+08,-4.4367,12162,12879,1,12879,1,0.00063938,5.2697e-10,0,0.00063938,1.0852e-05,2.3716e+08,164.62,0,2.3716e+08,47.495,12878,12168,1,12168,1,0.00029085,-1.3328e-09,0,0.00029085,-5.4462e-05,1.117e+08,-432.01,0,1.117e+08,-4.0181,12167,11473,1,11473,1,-5.7669e-05,-2.711e-09,0,1.1199e-05,-0.00011977,-2.3454e+07,-903.24,0,4.5736e+06,-55.389,11472,11820,1,11820,1,0.00010497,-2.0131e-09,0,0.00010497,-8.9288e-05,4.114e+07,-661.39,0,4.114e+07,-25.635,11819,12516,1,12516,1,0.00047673,-6.3983e-10,0,0.00047673,-1.9631e-05,1.7896e+08,-203.39,0,1.7896e+08,15.574,12515,412.9,0,412.9,0,0.00021434,8.6837e-10,0,0.00020213,4.0167e-05,7.9806e+07,288.78,0,7.4746e+07,24.158,412.9,1
816,2.29,12163,1,12163,1,0.00029226,-1.9732e-09,0,0.00030087,-5.4721e-05,1.1019e+08,-648.96,0,1.137e+08,-9.9247,12162,12879,1,12879,1,0.00064234,7.1872e-10,0,0.00064234,1.088e-05,2.3805e+08,224.4,0,2.3805e+08,74.065,12878,12168,1,12168,1,0.00029225,-2.3482e-09,0,0.00029225,-5.4724e-05,1.1218e+08,-772.08,0,1.1218e+08,-11.66,12167,11473,1,11473,1,-5.7815e-05,-3.6068e-09,0,1.1138e-05,-0.00012033,-2.3513e+07,-1206.4,0,4.5495e+06,-96.958,11472,11820,1,11820,1,0.00010555,-2.9536e-09,0,0.00010555,-8.9705e-05,4.1352e+07,-981.38,0,4.1352e+07,-32.517,11819,12516,1,12516,1,0.00047896,-1.1207e-09,0,0.00047896,-1.9739e-05,1.7966e+08,-353.17,0,1.7966e+08,12.061,12515,412.9,0,412.9,0,0.0002153,1.2032e-09,0,0.00020306,4.0345e-05,8.0095e+07,401.15,0,7.5026e+07,30.709,412.9,1
816,2.3,12163,1,12163,1,0.00029365,-1.2985e-09,0,0.00030228,-5.4981e-05,1.1064e+08,-427.9,0,1.1415e+08,-15.993,12162,12879,1,12879,1,0.00064527,2.4911e-09,0,0.00064527,1.0907e-05,2.3893e+08,829.94,0,2.3893e+08,131.38,12878,12168,1,12168,1,0.00029365,-1.1419e-09,0,0.00029365,-5.4984e-05,1.1266e+08,-362.63,0,1.1266e+08,-26.045,12167,11473,1,11473,1,-5.7958e-05,-4.683e-09,0,1.1076e-05,-0.00012088,-2.3571e+07,-1559.4,0,4.5247e+06,-117.22,11472,11820,1,11820,1,0.00010613,-2.9745e-09,0,0.00010613,-9.0119e-05,4.1563e+07,-976.07,0,4.1563e+07,-60.229,11819,12516,1,12516,1,0.00048117,2.3326e-10,0,0.00048117,-1.9846e-05,1.8036e+08,73.119,0,1.8036e+08,28.999,12515,412.9,0,412.9,0,0.00021624,1.8282e-09,0,0.00020399,4.0522e-05,8.0379e+07,604.19,0,7.5302e+07,56.335,412.9,1
816,2.31,12163,1,12163,1,0.00029506,-2.0533e-09,0,0.0003037,-5.5246e-05,1.1109e+08,-674.55,0,1.1461e+08,18.25,12162,12879,1,12879,1,0.00064825,6.0181e-10,0,0.00064825,1.0935e-05,2.3983e+08,187.63,0,2.3983e+08,140.05,12878,12168,1,12168,1,0.00029506,-2.245e-09,0,0.00029506,-5.5249e-05,1.1314e+08,-737.37,0,1.1314e+08,11.981,12167,11473,1,11473,1,-5.8103e-05,-4.0053e-09,0,1.1013e-05,-0.00012143,-2.363e+07,-1333.4,0,4.5001e+06,-56.022,11472,11820,1,11820,1,0.00010671,-3.0847e-09,0,0.00010671,-9.0538e-05,4.1777e+07,-1008.7,0,4.1777e+07,-9.1255,11819,12516,1,12516,1,0.00048342,-1.1353e-09,0,0.00048342,-1.9954e-05,1.8107e+08,-360.22,0,1.8107e+08,41.234,12515,412.9,0,412.9,0,0.0002172,1.2704e-09,0,0.00020493,4.0702e-05,8.0669e+07,423.93,0,7.5584e+07,37.744,412.9,1
816,2.32,12163,1,12163,1,0.00029646,-2.7758e-09,0,0.00030511,-5.5506e-05,1.1154e+08,-912.64,0,1.1506e+08,-25.109,12162,12879,1,12879,1,0.00065118,2.2161e-09,0,0.00065118,1.0962e-05,2.4071e+08,737.68,0,2.4071e+08,205.58,12878,12168,1,12168,1,0.00029646,-2.4286e-09,0,0.00029646,-5.5509e-05,1.1361e+08,-787.01,0,1.1361e+08,-27.493,12167,11473,1,11473,1,-5.8241e-05,-8.3008e-09,0,1.0946e-05,-0.00012198,-2.3686e+07,-2762.5,0,4.4735e+06,-239.39,11472,11820,1,11820,1,0.00010729,-5.4679e-09,0,0.00010729,-9.0952e-05,4.1988e+07,-1787.4,0,4.1988e+07,-90.711,11819,12516,1,12516,1,0.00048563,-1.4519e-10,0,0.00048563,-2.0062e-05,1.8176e+08,-45.465,0,1.8176e+08,43.02,12515,412.9,0,412.9,0,0.00021814,2.8884e-09,0,0.00020586,4.0878e-05,8.095e+07,955.5,0,7.5857e+07,87.254,412.9,1
816,2.33,12163,1,12163,1,0.00029787,-2.9111e-09,0,0.00030653,-5.5771e-05,1.12e+08,-956.19,0,1.1552e+08,-30.882,12162,12879,1,12879,1,0.00065416,1.3455e-09,0,0.00065416,1.0989e-05,2.416e+08,418.73,0,2.416e+08,165.26,12878,12168,1,12168,1,0.00029788,-2.4419e-09,0,0.00029788,-5.5774e-05,1.141e+08,-789.15,0,1.141e+08,-32.028,12167,11473,1,11473,1,-5.8384e-05,-7.9444e-09,0,1.0881e-05,-0.00012254,-2.3744e+07,-2646.2,0,4.4478e+06,-221.12,11472,11820,1,11820,1,0.00010787,-5.521e-09,0,0.00010787,-9.1372e-05,4.2203e+07,-1796.4,0,4.2203e+07,-82.898,11819,12516,1,12516,1,0.00048788,-3.8078e-10,0,0.00048788,-2.0171e-05,1.8247e+08,-124.66,0,1.8247e+08,14.617,12515,412.9,0,412.9,0,0.0002191,2.7066e-09,0,0.0002068,4.1057e-05,8.1238e+07,896.54,0,7.6138e+07,73.972,412.9,1
816,2.34,12163,1,12163,1,0.00029929,4.7776e-09,0,0.00030795,-5.6034e-05,1.1245e+08,1564.7,0,1.1598e+08,-31.005,12162,12879,1,12879,1,0.00065712,8.8445e-09,0,0.00065712,1.1015e-05,2.4248e+08,2938.3,0,2.4248e+08,247.16,12878,12168,1,12168,1,0.00029929,5.118e-09,0,0.00029929,-5.6037e-05,1.1457e+08,1642.1,0,1.1457e+08,-47.366,12167,11473,1,11473,1,-5.8523e-05,-9.8318e-10,0,1.0811e-05,-0.00012309,-2.3801e+07,-305.44,0,4.4201e+06,-231.96,11472,11820,1,11820,1,0.00010846,2.346e-09,0,0.00010846,-9.179e-05,4.2417e+07,760.7,0,4.2417e+07,-98.257,11819,12516,1,12516,1,0.00049012,7.5905e-09,0,0.00049012,-2.028e-05,1.8316e+08,2483.6,0,1.8316e+08,23.253,12515,412.9,0,412.9,0,0.00022006,2.9044e-09,0,0.00020774,4.1236e-05,8.1522e+07,966.28,0,7.6414e+07,94.6,412.9,1
816,2.35,12163,1,12163,1,0.00030069,3.8754e-09,0,0.00030937,-5.6296e-05,1.129e+08,1270.8,0,1.1643e+08,-25.657,12162,12879,1,12879,1,0.00066007,9.4533e-09,0,0.00066007,1.1041e-05,2.4335e+08,3143.6,0,2.4335e+08,203.01,12878,12168,1,12168,1,0.00030069,3.7694e-09,0,0.00030069,-5.63e-05,1.1505e+08,1226.5,0,1.1505e+08,-29.901,12167,11473,1,11473,1,-5.8656e-05,-1.1092e-09,0,1.0741e-05,-0.00012364,-2.3855e+07,-344.63,0,4.3926e+06,-201.75,11472,11820,1,11820,1,0.00010904,1.433e-09,0,0.00010904,-9.2206e-05,4.263e+07,459.67,0,4.263e+07,-83.776,11819,12516,1,12516,1,0.00049234,6.3379e-09,0,0.00049234,-2.0388e-05,1.8385e+08,2067.3,0,1.8385e+08,12.787,12515,412.9,0,412.9,0,0.000221,2.7685e-09,0,0.00020867,4.1413e-05,8.1803e+07,920.43,0,7.6688e+07,79.503,412.9,1
816,2.36,12163,1,12163,1,0.00030213,1.2397e-09,0,0.00031081,-5.6565e-05,1.1336e+08,407.66,0,1.1689e+08,-14.745,12162,12879,1,12879,1,0.00066306,2.8061e-09,0,0.00066306,1.1068e-05,2.4424e+08,945.98,0,2.4424e+08,83.736,12878,12168,1,12168,1,0.00030213,1.3346e-09,0,0.00030213,-5.6568e-05,1.1554e+08,429.8,0,1.1554e+08,-11.512,12167,11473,1,11473,1,-5.8796e-05,-4.2526e-10,0,1.0672e-05,-0.0001242,-2.3912e+07,-132.1,0,4.365e+06,-87.297,11472,11820,1,11820,1,0.00010963,5.077e-10,0,0.00010963,-9.2631e-05,4.2848e+07,159.85,0,4.2848e+07,-39.982,11819,12516,1,12516,1,0.00049462,1.9943e-09,0,0.00049462,-2.0499e-05,1.8456e+08,660.82,0,1.8456e+08,7.1026,12515,412.9,0,412.9,0,0.00022197,9.0228e-10,0,0.00020963,4.1594e-05,8.2093e+07,300.57,0,7.697e+07,30.48,412.9,1
816,2.37,12163,1,12163,1,0.00030354,-4.6845e-10,0,0.00031223,-5.6829e-05,1.138e+08,-153.68,0,1.1734e+08,-12.984,12162,12879,1,12879,1,0.00066602,1.5713e-09,0,0.00066602,1.1093e-05,2.4511e+08,529.91,0,2.4511e+08,66.784,12878,12168,1,12168,1,0.00030354,-4.2458e-10,0,0.00030354,-5.6832e-05,1.1601e+08,-134.97,0,1.1601e+08,-11.653,12167,11473,1,11473,1,-5.8927e-05,-1.9105e-09,0,1.0596e-05,-0.00012475,-2.3965e+07,-633.21,0,4.335e+06,-93.404,11472,11820,1,11820,1,0.00011023,-1.2795e-09,0,0.00011023,-9.305e-05,4.3063e+07,-417.33,0,4.3063e+07,-32.704,11819,12516,1,12516,1,0.00049686,1.9368e-10,0,0.00049686,-2.0609e-05,1.8525e+08,60.174,0,1.8525e+08,7.2037,12515,412.9,0,412.9,0,0.00022292,8.529e-10,0,0.00021056,4.1772e-05,8.2371e+07,280.25,0,7.7242e+07,30.107,412.9,1
816,2.38,12163,1,12163,1,0.00030494,3.699e-09,0,0.00031363,-5.7089e-05,1.1425e+08,1212.2,0,1.1779e+08,-69.519,12162,12879,1,12879,1,0.00066896,1.1949e-08,0,0.00066896,1.1118e-05,2.4598e+08,3970.2,0,2.4598e+08,269.22,12878,12168,1,12168,1,0.00030494,3.1971e-09,0,0.00030494,-5.7093e-05,1.1648e+08,1028.2,0,1.1648e+08,-78.341,12167,11473,1,11473,1,-5.9055e-05,-3.6755e-09,0,1.0518e-05,-0.0001253,-2.4017e+07,-1221.2,0,4.3042e+06,-312.29,11472,11820,1,11820,1,0.00011081,-1.9308e-11,0,0.00011081,-9.3462e-05,4.3276e+07,-5.9896,0,4.3276e+07,-168.68,11819,12516,1,12516,1,0.00049907,7.388e-09,0,0.00049907,-2.0718e-05,1.8593e+08,2402.9,0,1.8593e+08,17.286,12515,412.9,0,412.9,0,0.00022386,4.1372e-09,0,0.00021149,4.1947e-05,8.2645e+07,1363.4,0,7.751e+07,115.3,412.9,1
816,2.39,12163,1,12163,1,0.00030638,-9.3285e-10,0,0.00031509,-5.7359e-05,1.1471e+08,-304.49,0,1.1825e+08,-27.761,12162,12879,1,12879,1,0.00067196,3.2023e-10,0,0.00067196,1.1144e-05,2.4687e+08,98.782,0,2.4687e+08,37.243,12878,12168,1,12168,1,0.00030638,-1.0509e-09,0,0.00030638,-5.7362e-05,1.1697e+08,-339.91,0,1.1697e+08,-17.596,12167,11473,1,11473,1,-5.9194e-05,-1.7026e-09,0,1.0446e-05,-0.00012586,-2.4074e+07,-563.78,0,4.276e+06,-111.72,11472,11820,1,11820,1,0.00011141,-1.336e-09,0,0.00011141,-9.389e-05,4.3495e+07,-438.91,0,4.3495e+07,-40.422,11819,12516,1,12516,1,0.00050136,-6.1003e-10,0,0.00050136,-2.083e-05,1.8665e+08,-198.72,0,1.8665e+08,-6.588,12515,412.9,0,412.9,0,0.00022483,5.3328e-10,0,0.00021245,4.213e-05,8.2935e+07,175.52,0,7.7792e+07,32.038,412.9,1
816,2.4,12163,1,12163,1,0.00030781,2.6462e-10,0,0.00031652,-5.7625e-05,1.1516e+08,86.113,0,1.187e+08,-2.0269,12162,12879,1,12879,1,0.00067494,7.5777e-10,0,0.00067494,1.1168e-05,2.4773e+08,249.99,0,2.4773e+08,66.758,12878,12168,1,12168,1,0.00030781,2.4568e-10,0,0.00030781,-5.7628e-05,1.1745e+08,78.807,0,1.1745e+08,-4.6506,12167,11473,1,11473,1,-5.9318e-05,-2.7107e-10,0,1.0367e-05,-0.00012642,-2.4124e+07,-90.004,0,4.2448e+06,-61.317,11472,11820,1,11820,1,0.00011201,5.2946e-11,0,0.00011201,-9.4311e-05,4.3712e+07,16.515,0,4.3712e+07,-19.55,11819,12516,1,12516,1,0.00050361,5.0121e-10,0,0.00050361,-2.0941e-05,1.8733e+08,163.71,0,1.8733e+08,14.879,12515,412.9,0,412.9,0,0.00022579,2.6399e-10,0,0.00021339,4.2308e-05,8.3212e+07,87.383,0,7.8064e+07,23.773,412.9,1
816,2.41,12163,1,12163,1,0.00030921,-2.2088e-09,0,0.00031792,-5.7887e-05,1.156e+08,-722.3,0,1.1914e+08,-3.5636,12162,12879,1,12879,1,0.00067788,2.2461e-09,0,0.00067788,1.1192e-05,2.4859e+08,743.07,0,2.4859e+08,156.46,12878,12168,1,12168,1,0.00030921,-1.6817e-09,0,0.00030921,-5.789e-05,1.1791e+08,-537.38,0,1.1791e+08,1.3491,12167,11473,1,11473,1,-5.9442e-05,-7.3576e-09,0,1.0287e-05,-0.00012697,-2.4174e+07,-2442.5,0,4.2129e+06,-173.18,11472,11820,1,11820,1,0.0001126,-4.5316e-09,0,0.0001126,-9.4724e-05,4.3925e+07,-1473,0,4.3925e+07,-56.23,11819,12516,1,12516,1,0.00050582,8.4567e-11,0,0.00050582,-2.1051e-05,1.8801e+08,26.703,0,1.8801e+08,50.304,12515,412.9,0,412.9,0,0.00022672,2.6164e-09,0,0.00021431,4.2483e-05,8.3483e+07,861.58,0,7.8329e+07,64.555,412.9,1
816,2.42,12163,1,12163,1,0.00031065,-2.6966e-09,0,0.00031938,-5.8156e-05,1.1605e+08,-882.35,0,1.196e+08,-28.767,12162,12879,1,12879,1,0.0006809,9.3695e-10,0,0.0006809,1.1217e-05,2.4947e+08,289.27,0,2.4947e+08,98.896,12878,12168,1,12168,1,0.00031065,-2.6901e-09,0,0.00031065,-5.8159e-05,1.184e+08,-871.12,0,1.184e+08,-30.978,12167,11473,1,11473,1,-5.9573e-05,-5.963e-09,0,1.0208e-05,-0.00012754,-2.4227e+07,-1978.9,0,4.182e+06,-122.39,11472,11820,1,11820,1,0.0001132,-4.3795e-09,0,0.0001132,-9.5151e-05,4.4145e+07,-1428.3,0,4.4145e+07,-62.088,11819,12516,1,12516,1,0.00050811,-1.1585e-09,0,0.00050811,-2.1163e-05,1.8871e+08,-366.49,0,1.8871e+08,2.85,12515,412.9,0,412.9,0,0.00022769,1.9083e-09,0,0.00021527,4.2664e-05,8.3767e+07,632.98,0,7.8607e+07,47.167,412.9,1
816,2.43,12163,1,12163,1,0.00031209,6.6323e-10,0,0.00032082,-5.8424e-05,1.165e+08,214.74,0,1.2006e+08,-8.4535,12162,12879,1,12879,1,0.00068387,1.3133e-09,0,0.00068387,1.1241e-05,2.5033e+08,433.25,0,2.5033e+08,41.898,12878,12168,1,12168,1,0.00031209,6.562e-10,0,0.00031209,-5.8427e-05,1.1888e+08,211.63,0,1.1888e+08,-7.5116,12167,11473,1,11473,1,-5.9696e-05,1.8969e-11,0,1.0123e-05,-0.00012809,-2.4277e+07,6.0049,0,4.1485e+06,-75.974,11472,11820,1,11820,1,0.0001138,5.0836e-10,0,0.0001138,-9.5574e-05,4.4364e+07,164.38,0,4.4364e+07,-23.577,11819,12516,1,12516,1,0.00051037,8.4978e-10,0,0.00051037,-2.1275e-05,1.894e+08,279.46,0,1.894e+08,7.9844,12515,412.9,0,412.9,0,0.00022865,2.4963e-10,0,0.00021622,4.2844e-05,8.4044e+07,83.006,0,7.8878e+07,23.996,412.9,1
816,2.44,12163,1,12163,1,0.00031351,2.4278e-09,0,0.00032224,-5.8689e-05,1.1695e+08,791.68,0,1.205e+08,3.1284,12162,12879,1,12879,1,0.00068684,4.3074e-09,0,0.00068684,1.1264e-05,2.5119e+08,1430,0,2.5119e+08,135.38,12878,12168,1,12168,1,0.00031351,2.6292e-09,0,0.00031351,-5.8692e-05,1.1935e+08,842.84,0,1.1935e+08,-3.6714,12167,11473,1,11473,1,-5.9816e-05,-3.0476e-10,0,1.0038e-05,-0.00012865,-2.4326e+07,-93.845,0,4.1149e+06,-70.559,11472,11820,1,11820,1,0.0001144,1.397e-09,0,0.0001144,-9.5992e-05,4.4581e+07,445.17,0,4.4581e+07,-28.046,11819,12516,1,12516,1,0.00051261,3.7446e-09,0,0.00051261,-2.1387e-05,1.9008e+08,1223.2,0,1.9008e+08,20.533,12515,412.9,0,412.9,0,0.0002296,1.37e-09,0,0.00021716,4.3021e-05,8.4316e+07,456.34,0,7.9145e+07,44.103,412.9,1
816,2.45,12163,1,12163,1,0.00031494,-6.3012e-10,0,0.00032368,-5.8957e-05,1.174e+08,-205.66,0,1.2095e+08,-16.882,12162,12879,1,12879,1,0.00068983,1.6941e-09,0,0.00068983,1.1288e-05,2.5205e+08,569.57,0,2.5205e+08,94.561,12878,12168,1,12168,1,0.00031494,-4.9749e-10,0,0.00031494,-5.896e-05,1.1983e+08,-158.82,0,1.1983e+08,-16.589,12167,11473,1,11473,1,-5.9939e-05,-2.762e-09,0,9.9533e-06,-0.0001292,-2.4376e+07,-915.83,0,4.0814e+06,-134.7,11472,11820,1,11820,1,0.00011501,-1.4086e-09,0,0.00011501,-9.6416e-05,4.48e+07,-460.23,0,4.48e+07,-37.341,11819,12516,1,12516,1,0.00051488,1.2753e-10,0,0.00051488,-2.1499e-05,1.9077e+08,39.477,0,1.9077e+08,9.5676,12515,412.9,0,412.9,0,0.00023056,1.0605e-09,0,0.00021811,4.32e-05,8.4592e+07,348.32,0,7.9417e+07,37.027,412.9,1
816,2.46,12163,1,12163,1,0.00031638,-4.0952e-10,0,0.00032512,-5.9225e-05,1.1784e+08,-135.06,0,1.214e+08,-15.803,12162,12879,1,12879,1,0.00069282,1.3926e-09,0,0.00069282,1.1311e-05,2.5291e+08,462.3,0,2.5291e+08,68.864,12878,12168,1,12168,1,0.00031638,-2.6306e-10,0,0.00031638,-5.9228e-05,1.203e+08,-83.467,0,1.203e+08,-12.557,12167,11473,1,11473,1,-6.0057e-05,-2.22e-09,0,9.8652e-06,-0.00012976,-2.4424e+07,-735.89,0,4.0467e+06,-114.45,11472,11820,1,11820,1,0.00011561,-9.5977e-10,0,0.00011561,-9.6839e-05,4.5019e+07,-317.88,0,4.5019e+07,-32.451,11819,12516,1,12516,1,0.00051715,2.1878e-10,0,0.00051715,-2.1612e-05,1.9145e+08,67.807,0,1.9145e+08,5.482,12515,412.9,0,412.9,0,0.00023151,8.2989e-10,0,0.00021905,4.3379e-05,8.4866e+07,272.22,0,7.9686e+07,33.38,412.9,1
816,2.47,12163,1,12163,1,0.00031782,5.3171e-10,0,0.00032657,-5.9494e-05,1.1829e+08,173.96,0,1.2185e+08,2.4195,12162,12879,1,12879,1,0.00069583,1.4067e-09,0,0.00069583,1.1334e-05,2.5377e+08,466.18,0,2.5377e+08,51.829,12878,12168,1,12168,1,0.00031782,5.8184e-10,0,0.00031782,-5.9498e-05,1.2078e+08,189.91,0,1.2078e+08,1.6317,12167,11473,1,11473,1,-6.0176e-05,-3.4161e-10,0,9.7758e-06,-0.00013032,-2.4473e+07,-104.86,0,4.0115e+06,-45.785,11472,11820,1,11820,1,0.00011622,2.6208e-10,0,0.00011622,-9.7264e-05,4.524e+07,81.697,0,4.524e+07,-9.2285,11819,12516,1,12516,1,0.00051942,7.8524e-10,0,0.00051942,-2.1726e-05,1.9214e+08,256.38,0,1.9214e+08,13.105,12515,412.9,0,412.9,0,0.00023247,4.1283e-10,0,0.00022001,4.3559e-05,8.5141e+07,135.46,0,7.9955e+07,15.349,412.9,1
816,2.48,12163,1,12163,1,0.00031926,-7.2675e-10,0,0.00032801,-5.9763e-05,1.1874e+08,-237.08,0,1.223e+08,-12.148,12162,12879,1,12879,1,0.00069882,2.8388e-10,0,0.00069882,1.1356e-05,2.5462e+08,87.085,0,2.5462e+08,30.286,12878,12168,1,12168,1,0.00031926,-8.638e-10,0,0.00031926,-5.9766e-05,1.2126e+08,-276.46,0,1.2126e+08,-11.65,12167,11473,1,11473,1,-6.0291e-05,-1.3945e-09,0,9.6833e-06,-0.00013088,-2.4519e+07,-461.96,0,3.975e+06,-55.973,11472,11820,1,11820,1,0.00011683,-1.1109e-09,0,0.00011683,-9.7687e-05,4.546e+07,-366.19,0,4.546e+07,-23.089,11819,12516,1,12516,1,0.00052169,-4.1095e-10,0,0.00052169,-2.1839e-05,1.9282e+08,-128.07,0,1.9282e+08,-1.8327,12515,412.9,0,412.9,0,0.00023343,4.606e-10,0,0.00022095,4.3737e-05,8.5412e+07,151.81,0,8.0222e+07,14.857,412.9,1
816,2.49,12163,1,12163,1,0.00032069,-1.0539e-09,0,0.00032944,-6.003e-05,1.1918e+08,-345.25,0,1.2274e+08,-8.8054,12162,12879,1,12879,1,0.0007018,7.1197e-10,0,0.0007018,1.1378e-05,2.5547e+08,218.32,0,2.5547e+08,83.799,12878,12168,1,12168,1,0.00032069,-1.2434e-09,0,0.00032069,-6.0034e-05,1.2173e+08,-402.35,0,1.2173e+08,-4.2518,12167,11473,1,11473,1,-6.0405e-05,-2.5646e-09,0,9.5908e-06,-0.00013144,-2.4566e+07,-849.34,0,3.9386e+06,-140.34,11472,11820,1,11820,1,0.00011744,-1.6559e-09,0,0.00011744,-9.8109e-05,4.568e+07,-542.25,0,4.568e+07,-26.943,11819,12516,1,12516,1,0.00052395,-4.4655e-10,0,0.00052395,-2.1953e-05,1.935e+08,-139.35,0,1.935e+08,14.453,12515,412.9,0,412.9,0,0.00023438,8.2775e-10,0,0.0002219,4.3915e-05,8.5682e+07,272.07,0,8.0488e+07,36.873,412.9,1
816,2.5,12163,1,12163,1,0.00032213,-9.0356e-10,0,0.00033088,-6.0298e-05,1.1962e+08,-295.53,0,1.2319e+08,-5.4755,12162,12879,1,12879,1,0.00070479,8.9431e-10,0,0.00070479,1.1399e-05,2.5631e+08,294.06,0,2.5631e+08,75.166,12878,12168,1,12168,1,0.00032213,-7.0224e-10,0,0.00032213,-6.0302e-05,1.2221e+08,-225.2,0,1.2221e+08,-9.7792,12167,11473,1,11473,1,-6.0517e-05,-3.3546e-09,0,9.4966e-06,-0.000132,-2.4611e+07,-1110.6,0,3.9014e+06,-84.78,11472,11820,1,11820,1,0.00011805,-1.6699e-09,0,0.00011805,-9.8532e-05,4.59e+07,-543.27,0,4.59e+07,-22.549,11819,12516,1,12516,1,0.00052621,2.5479e-11,0,0.00052621,-2.2066e-05,1.9418e+08,8.1259,0,1.9418e+08,15.292,12515,412.9,0,412.9,0,0.00023533,1.091e-09,0,0.00022284,4.4093e-05,8.5951e+07,358.48,0,8.0753e+07,31.762,412.9,1
816,2.51,12163,1,12163,1,0.00032358,-1.3104e-09,0,0.00033233,-6.0569e-05,1.2007e+08,-428.15,0,1.2364e+08,-18.546,12162,12879,1,12879,1,0.0007078,7.958e-10,0,0.0007078,1.1421e-05,2.5716e+08,243.62,0,2.5716e+08,86.639,12878,12168,1,12168,1,0.00032358,-1.6018e-09,0,0.00032358,-6.0572e-05,1.2268e+08,-513.5,0,1.2268e+08,-5.8621,12167,11473,1,11473,1,-6.0629e-05,-2.6725e-09,0,9.4003e-06,-0.00013256,-2.4657e+07,-879.75,0,3.8635e+06,-164.86,11472,11820,1,11820,1,0.00011867,-2.0647e-09,0,0.00011867,-9.8957e-05,4.6122e+07,-670.93,0,4.6122e+07,-38.849,11819,12516,1,12516,1,0.00052849,-5.9911e-10,0,0.00052849,-2.2181e-05,1.9486e+08,-185.42,0,1.9486e+08,11.928,12515,412.9,0,412.9,0,0.00023629,9.4478e-10,0,0.0002238,4.4273e-05,8.6221e+07,310.4,0,8.102e+07,46.628,412.9,1
816,2.52,12163,1,12163,1,0.00032502,-1.2131e-09,0,0.00033377,-6.0837e-05,1.2051e+08,-395.89,0,1.2408e+08,-15.758,12162,12879,1,12879,1,0.00071078,9.761e-10,0,0.00071078,1.1442e-05,2.58e+08,318.9,0,2.58e+08,78.18,12878,12168,1,12168,1,0.00032502,-9.7743e-10,0,0.00032502,-6.0841e-05,1.2315e+08,-313.05,0,1.2315e+08,-13.389,12167,11473,1,11473,1,-6.0737e-05,-4.0701e-09,0,9.3019e-06,-0.00013312,-2.47e+07,-1346.7,0,3.8248e+06,-120.13,11472,11820,1,11820,1,0.00011928,-2.267e-09,0,0.00011928,-9.938e-05,4.6343e+07,-742.65,0,4.6343e+07,-35.834,11819,12516,1,12516,1,0.00053075,4.4755e-12,0,0.00053075,-2.2295e-05,1.9553e+08,1.5658,0,1.9553e+08,6.2646,12515,412.9,0,412.9,0,0.00023724,1.3676e-09,0,0.00022474,4.4451e-05,8.6487e+07,449.14,0,8.1282e+07,38.645,412.9,1
816,2.53,12163,1,12163,1,0.00032646,-2.4356e-09,0,0.00033522,-6.1107e-05,1.2096e+08,-794.57,0,1.2452e+08,-38.966,12162,12879,1,12879,1,0.00071379,1.1306e-09,0,0.00071379,1.1463e-05,2.5884e+08,345.41,0,2.5884e+08,115.79,12878,12168,1,12168,1,0.00032646,-2.2579e-09,0,0.00032646,-6.111e-05,1.2363e+08,-730.15,0,1.2363e+08,-33.115,12167,11473,1,11473,1,-6.0845e-05,-6.7502e-09,0,9.2029e-06,-0.00013368,-2.4744e+07,-2232.8,0,3.7858e+06,-240.91,11472,11820,1,11820,1,0.0001199,-4.0639e-09,0,0.0001199,-9.9805e-05,4.6564e+07,-1315.5,0,4.6564e+07,-66.088,11819,12516,1,12516,1,0.00053303,-6.4106e-10,0,0.00053303,-2.241e-05,1.962e+08,-197.54,0,1.962e+08,-4.2348,12515,412.9,0,412.9,0,0.0002382,2.0966e-09,0,0.00022569,4.4629e-05,8.6754e+07,690.29,0,8.1546e+07,66.874,412.9,1
816,2.54,12163,1,12163,1,0.00032791,-1.021e-09,0,0.00033667,-6.1378e-05,1.214e+08,-334.47,0,1.2497e+08,-29.198,12162,12879,1,12879,1,0.00071679,1.4126e-09,0,0.00071679,1.1484e-05,2.5968e+08,470.26,0,2.5968e+08,77.63,12878,12168,1,12168,1,0.00032792,-6.776e-10,0,0.00032792,-6.1381e-05,1.241e+08,-221.83,0,1.241e+08,-28.063,12167,11473,1,11473,1,-6.0951e-05,-4.374e-09,0,9.1012e-06,-0.00013424,-2.4787e+07,-1451.3,0,3.7458e+06,-136.71,11472,11820,1,11820,1,0.00012052,-2.0356e-09,0,0.00012052,-0.00010023,4.6787e+07,-658.96,0,4.6787e+07,-54.083,11819,12516,1,12516,1,0.00053531,1.9543e-10,0,0.00053531,-2.2525e-05,1.9688e+08,59.845,0,1.9688e+08,-4.7378,12515,412.9,0,412.9,0,0.00023916,1.4779e-09,0,0.00022665,4.4808e-05,8.7021e+07,485.02,0,8.181e+07,43.915,412.9,1
816,2.55,12163,1,12163,1,0.00032937,-2.5406e-10,0,0.00033813,-6.165e-05,1.2185e+08,-83.549,0,1.2541e+08,-10.15,12162,12879,1,12879,1,0.00071981,4.7382e-10,0,0.00071981,1.1504e-05,2.6052e+08,156.6,0,2.6052e+08,28.846,12878,12168,1,12168,1,0.00032937,-1.112e-10,0,0.00032937,-6.1653e-05,1.2458e+08,-34.994,0,1.2458e+08,-9.9057,12167,11473,1,11473,1,-6.1057e-05,-1.335e-09,0,8.9982e-06,-0.00013481,-2.483e+07,-447.85,0,3.7053e+06,-51.717,11472,11820,1,11820,1,0.00012114,-5.4352e-10,0,0.00012114,-0.00010066,4.7012e+07,-175.92,0,4.7012e+07,-20.652,11819,12516,1,12516,1,0.0005376,7.1456e-11,0,0.0005376,-2.2642e-05,1.9756e+08,22.151,0,1.9756e+08,-0.67939,12515,412.9,0,412.9,0,0.00024012,4.5069e-10,0,0.00022761,4.4988e-05,8.7289e+07,148.44,0,8.2075e+07,15.144,412.9,1
816,2.56,12163,1,12163,1,0.00033082,-8.7222e-10,0,0.00033958,-6.192e-05,1.2229e+08,-283.99,0,1.2585e+08,-10.576,12162,12879,1,12879,1,0.00072281,8.1593e-10,0,0.00072281,1.1524e-05,2.6135e+08,269.68,0,2.6135e+08,64.761,12878,12168,1,12168,1,0.00033082,-6.7256e-10,0,0.00033082,-6.1923e-05,1.2505e+08,-210.84,0,1.2505e+08,-12.89,12167,11473,1,11473,1,-6.1157e-05,-3.3159e-09,0,8.8928e-06,-0.00013537,-2.4871e+07,-1095.8,0,3.6639e+06,-84.345,11472,11820,1,11820,1,0.00012177,-1.4921e-09,0,0.00012177,-0.00010108,4.7234e+07,-487.98,0,4.7234e+07,-26.351,11819,12516,1,12516,1,0.00053988,-6.1658e-11,0,0.00053988,-2.2757e-05,1.9822e+08,-18.896,0,1.9822e+08,9.6761,12515,412.9,0,412.9,0,0.00024107,1.0062e-09,0,0.00022856,4.5166e-05,8.7551e+07,330.21,0,8.2334e+07,29.455,412.9,1
816,2.57,12163,1,12163,1,0.00033228,-9.7104e-10,0,0.00034103,-6.2192e-05,1.2273e+08,-316.19,0,1.263e+08,-16.117,12162,12879,1,12879,1,0.00072582,4.293e-10,0,0.00072582,1.1543e-05,2.6219e+08,130.68,0,2.6219e+08,55.112,12878,12168,1,12168,1,0.00033228,-7.962e-10,0,0.00033228,-6.2195e-05,1.2553e+08,-250.94,0,1.2553e+08,-16.058,12167,11473,1,11473,1,-6.1259e-05,-3.1691e-09,0,8.7867e-06,-0.00013593,-2.4912e+07,-1046.9,0,3.6221e+06,-94.092,11472,11820,1,11820,1,0.00012239,-1.6214e-09,0,0.00012239,-0.00010151,4.7458e+07,-525.49,0,4.7458e+07,-30.332,11819,12516,1,12516,1,0.00054216,-1.505e-10,0,0.00054216,-2.2874e-05,1.9889e+08,-46.474,0,1.9889e+08,2.9838,12515,412.9,0,412.9,0,0.00024203,9.6405e-10,0,0.00022951,4.5345e-05,8.7815e+07,316.92,0,8.2596e+07,30.369,412.9,1
816,2.58,12163,1,12163,1,0.00033374,-4.5808e-10,0,0.00034249,-6.2464e-05,1.2317e+08,-149.44,0,1.2674e+08,-8.3471,12162,12879,1,12879,1,0.00072884,2.7935e-10,0,0.00072884,1.1563e-05,2.6302e+08,85.004,0,2.6302e+08,35.689,12878,12168,1,12168,1,0.00033374,-3.9492e-10,0,0.00033374,-6.2467e-05,1.26e+08,-125.47,0,1.26e+08,-9.2103,12167,11473,1,11473,1,-6.1358e-05,-1.4592e-09,0,8.678e-06,-0.00013649,-2.4953e+07,-481.87,0,3.5795e+06,-43.735,11472,11820,1,11820,1,0.00012302,-7.7592e-10,0,0.00012302,-0.00010194,4.7683e+07,-254.12,0,4.7683e+07,-19.125,11819,12516,1,12516,1,0.00054445,-8.6037e-11,0,0.00054445,-2.299e-05,1.9956e+08,-26.327,0,1.9956e+08,0.36788,12515,412.9,0,412.9,0,0.00024299,4.4198e-10,0,0.00023047,4.5525e-05,8.8078e+07,145.59,0,8.2858e+07,14.724,412.9,1
816,2.59,12163,1,12163,1,0.00033519,-1.1842e-09,0,0.00034394,-6.2735e-05,1.2361e+08,-386.17,0,1.2718e+08,-10.69,12162,12879,1,12879,1,0.00073185,1.1922e-09,0,0.00073185,1.1582e-05,2.6385e+08,393.68,0,2.6385e+08,142.71,12878,12168,1,12168,1,0.00033519,-8.1169e-10,0,0.00033519,-6.2739e-05,1.2647e+08,-263.42,0,1.2647e+08,-19.501,12167,11473,1,11473,1,-6.1454e-05,-4.7063e-09,0,8.5673e-06,-0.00013705,-2.4992e+07,-1553.8,0,3.5359e+06,-110.89,11472,11820,1,11820,1,0.00012365,-2.2567e-09,0,0.00012365,-0.00010236,4.7907e+07,-732.81,0,4.7907e+07,-44.91,11819,12516,1,12516,1,0.00054673,1.4193e-10,0,0.00054673,-2.3107e-05,2.0023e+08,43.327,0,2.0023e+08,14.84,12515,412.9,0,412.9,0,0.00024394,1.5674e-09,0,0.00023142,4.5703e-05,8.8338e+07,512.43,0,8.3115e+07,49.453,412.9,1
816,2.6,12163,1,12163,1,0.00033664,-1.22e-09,0,0.00034539,-6.3007e-05,1.2405e+08,-397.21,0,1.2761e+08,-20.637,12162,12879,1,12879,1,0.00073485,8.6707e-10,0,0.00073485,1.16e-05,2.6467e+08,286.13,0,2.6467e+08,91.72,12878,12168,1,12168,1,0.00033665,-1.1043e-09,0,0.00033665,-6.301e-05,1.2694e+08,-356.94,0,1.2694e+08,-17.003,12167,11473,1,11473,1,-6.1549e-05,-3.7537e-09,0,8.4556e-06,-0.00013762,-2.503e+07,-1238.9,0,3.4921e+06,-146.7,11472,11820,1,11820,1,0.00012428,-2.2173e-09,0,0.00012428,-0.00010279,4.8131e+07,-723.29,0,4.8131e+07,-39.227,11819,12516,1,12516,1,0.00054902,-1.2008e-10,0,0.00054902,-2.3224e-05,2.0089e+08,-36.608,0,2.0089e+08,3.7926,12515,412.9,0,412.9,0,0.00024489,1.2392e-09,0,0.00023237,4.5881e-05,8.8597e+07,406.64,0,8.3373e+07,40.192,412.9,1
816,2.61,12163,1,12163,1,0.00033811,-1.4465e-09,0,0.00034686,-6.328e-05,1.2449e+08,-471.77,0,1.2806e+08,-34.93,12162,12879,1,12879,1,0.00073788,1.1154e-09,0,0.00073788,1.1619e-05,2.655e+08,371.43,0,2.655e+08,82.177,12878,12168,1,12168,1,0.00033811,-1.1503e-09,0,0.00033811,-6.3283e-05,1.2742e+08,-360.79,0,1.2742e+08,-33.606,12167,11473,1,11473,1,-6.1645e-05,-5.4088e-09,0,8.3432e-06,-0.00013818,-2.5069e+07,-1793.2,0,3.4479e+06,-182.16,11472,11820,1,11820,1,0.00012491,-2.6064e-09,0,0.00012491,-0.00010322,4.8358e+07,-850.76,0,4.8358e+07,-65.355,11819,12516,1,12516,1,0.00055131,4.2915e-12,0,0.00055131,-2.3342e-05,2.0156e+08,1.4441,0,2.0156e+08,-1.3411,12515,412.9,0,412.9,0,0.00024585,1.7115e-09,0,0.00023333,4.606e-05,8.8858e+07,561.42,0,8.3633e+07,52.386,412.9,1
816,2.62,12163,1,12163,1,0.00033958,-2.0001e-09,0,0.00034832,-6.3554e-05,1.2493e+08,-650.51,0,1.2849e+08,-42.603,12162,12879,1,12879,1,0.00074091,1.0484e-09,0,0.00074091,1.1636e-05,2.6632e+08,317.51,0,2.6632e+08,129.75,12878,12168,1,12168,1,0.00033958,-2.1671e-09,0,0.00033958,-6.3557e-05,1.2789e+08,-684.66,0,1.2789e+08,-31.545,12167,11473,1,11473,1,-6.1735e-05,-4.5351e-09,0,8.2255e-06,-0.00013875,-2.5106e+07,-1495.8,0,3.4017e+06,-228.23,11472,11820,1,11820,1,0.00012554,-3.4015e-09,0,0.00012554,-0.00010365,4.8584e+07,-1101.9,0,4.8584e+07,-56.969,11819,12516,1,12516,1,0.00055361,-7.1077e-10,0,0.00055361,-2.346e-05,2.0222e+08,-221.41,0,2.0222e+08,-10.913,12515,412.9,0,412.9,0,0.00024681,1.5434e-09,0,0.00023429,4.624e-05,8.9116e+07,506.93,0,8.389e+07,54.069,412.9,1
816,2.63,12163,1,12163,1,0.00034105,-1.2331e-11,0,0.00034979,-6.3829e-05,1.2537e+08,-5.7398,0,1.2894e+08,-10.869,12162,12879,1,12879,1,0.00074394,6.9145e-10,0,0.00074394,1.1654e-05,2.6714e+08,226.28,0,2.6714e+08,23.683,12878,12168,1,12168,1,0.00034105,9.7219e-11,0,0.00034105,-6.3832e-05,1.2837e+08,30.398,0,1.2837e+08,-5.2519,12167,11473,1,11473,1,-6.1828e-05,-8.7889e-10,0,8.109e-06,-0.00013931,-2.5144e+07,-297.12,0,3.356e+06,-58.733,11472,11820,1,11820,1,0.00012618,-2.2148e-10,0,0.00012618,-0.00010408,4.8812e+07,-70.935,0,4.8812e+07,-24.34,11819,12516,1,12516,1,0.00055592,2.1524e-10,0,0.00055592,-2.3579e-05,2.0289e+08,66.706,0,2.0289e+08,2.5978,12515,412.9,0,412.9,0,0.00024778,3.5782e-10,0,0.00023526,4.642e-05,8.9377e+07,116.84,0,8.4149e+07,19.228,412.9,1
816,2.64,12163,1,12163,1,0.00034251,-2.2292e-09,0,0.00035125,-6.41e-05,1.2581e+08,-723.01,0,1.2937e+08,-30.715,12162,12879,1,12879,1,0.00074695,1.0826e-09,0,0.00074695,1.1671e-05,2.6795e+08,361.89,0,2.6795e+08,132.34,12878,12168,1,12168,1,0.00034251,-1.7647e-09,0,0.00034251,-6.4104e-05,1.2883e+08,-566.59,0,1.2883e+08,-40.273,12167,11473,1,11473,1,-6.1913e-05,-7.3705e-09,0,7.9888e-06,-0.00013988,-2.5178e+07,-2429.5,0,3.3089e+06,-164.08,11472,11820,1,11820,1,0.00012682,-3.8417e-09,0,0.00012682,-0.0001045,4.9037e+07,-1244.8,0,4.9037e+07,-67.056,11819,12516,1,12516,1,0.0005582,-2.3947e-10,0,0.0005582,-2.3697e-05,2.0354e+08,-73.522,0,2.0354e+08,3.9822,12515,412.9,0,412.9,0,0.00024872,2.3184e-09,0,0.00023621,4.6597e-05,8.9629e+07,758.38,0,8.4401e+07,59.862,412.9,1
816,2.65,12163,1,12163,1,0.00034399,-1.1303e-09,0,0.00035272,-6.4376e-05,1.2625e+08,-368.57,0,1.2981e+08,-37.264,12162,12879,1,12879,1,0.00074999,8.2018e-10,0,0.00074999,1.1689e-05,2.6877e+08,247.73,0,2.6877e+08,70.066,12878,12168,1,12168,1,0.00034399,-9.1397e-10,0,0.00034399,-6.438e-05,1.2931e+08,-288.04,0,1.2931e+08,-36.849,12167,11473,1,11473,1,-6.2002e-05,-4.065e-09,0,7.8689e-06,-0.00014044,-2.5214e+07,-1346.2,0,3.2618e+06,-146.61,11472,11820,1,11820,1,0.00012746,-1.967e-09,0,0.00012746,-0.00010494,4.9266e+07,-639.56,0,4.9266e+07,-57.504,11819,12516,1,12516,1,0.00056052,-7.7001e-11,0,0.00056052,-2.3817e-05,2.0421e+08,-23.365,0,2.0421e+08,-12.813,12515,412.9,0,412.9,0,0.00024969,1.2659e-09,0,0.00023717,4.6778e-05,8.9888e+07,414.22,0,8.466e+07,39.576,412.9,1
816,2.66,12163,1,12163,1,0.00034546,-1.466e-09,0,0.00035418,-6.465e-05,1.2668e+08,-475.7,0,1.3024e+08,-16.436,12162,12879,1,12879,1,0.00075301,7.9059e-10,0,0.00075301,1.1705e-05,2.6958e+08,238.52,0,2.6958e+08,93.125,12878,12168,1,12168,1,0.00034546,-1.1438e-09,0,0.00034546,-6.4654e-05,1.2978e+08,-362.56,0,1.2978e+08,-20.262,12167,11473,1,11473,1,-6.2085e-05,-4.9215e-09,0,7.745e-06,-0.00014101,-2.5248e+07,-1621.1,0,3.2133e+06,-106.08,11472,11820,1,11820,1,0.0001281,-2.4964e-09,0,0.0001281,-0.00010537,4.9493e+07,-799.75,0,4.9493e+07,-38.217,11819,12516,1,12516,1,0.00056281,-1.541e-10,0,0.00056281,-2.3936e-05,2.0486e+08,-46.702,0,2.0486e+08,5.1159,12515,412.9,0,412.9,0,0.00025064,1.5257e-09,0,0.00023813,4.6956e-05,9.014e+07,499.48,0,8.4912e+07,38.332,412.9,1
816,2.67,12163,1,12163,1,0.00034694,-7.3754e-10,0,0.00035566,-6.4926e-05,1.2712e+08,-239.96,0,1.3068e+08,-12.983,12162,12879,1,12879,1,0.00075605,5.8904e-10,0,0.00075605,1.1722e-05,2.7039e+08,193.3,0,2.7039e+08,56.055,12878,12168,1,12168,1,0.00034694,-5.7793e-10,0,0.00034694,-6.493e-05,1.3025e+08,-181.46,0,1.3025e+08,-13.58,12167,11473,1,11473,1,-6.2169e-05,-2.6863e-09,0,7.6211e-06,-0.00014158,-2.5282e+07,-887.34,0,3.1647e+06,-86.295,11472,11820,1,11820,1,0.00012875,-1.3466e-09,0,0.00012875,-0.0001058,4.9722e+07,-435.36,0,4.9722e+07,-27.663,11819,12516,1,12516,1,0.00056513,8.5713e-12,0,0.00056513,-2.4056e-05,2.0552e+08,2.7052,0,2.0552e+08,3.446,12515,412.9,0,412.9,0,0.0002516,8.6223e-10,0,0.0002391,4.7136e-05,9.0396e+07,282.3,0,8.5168e+07,27.861,412.9,1
816,2.68,12163,1,12163,1,0.00034841,1.8448e-10,0,0.00035713,-6.5202e-05,1.2756e+08,58.519,0,1.3111e+08,-11.023,12162,12879,1,12879,1,0.00075908,1.7478e-09,0,0.00075908,1.1737e-05,2.7119e+08,575.38,0,2.7119e+08,42.697,12878,12168,1,12168,1,0.00034841,1.1798e-10,0,0.00034841,-6.5205e-05,1.3072e+08,36.41,0,1.3072e+08,-11.041,12167,11473,1,11473,1,-6.225e-05,-8.7013e-10,0,7.494e-06,-0.00014214,-2.5315e+07,-286.42,0,3.1149e+06,-56.606,11472,11820,1,11820,1,0.00012939,-9.9971e-11,0,0.00012939,-0.00010623,4.9951e+07,-32.224,0,4.9951e+07,-20.903,11819,12516,1,12516,1,0.00056743,4.2005e-10,0,0.00056743,-2.4176e-05,2.0617e+08,130.06,0,2.0617e+08,-2.0139,12515,412.9,0,412.9,0,0.00025256,5.1655e-10,0,0.00024006,4.7315e-05,9.0648e+07,168.2,0,8.542e+07,15.979,412.9,1
816,2.69,12163,1,12163,1,0.00034989,-2.8991e-09,0,0.0003586,-6.5477e-05,1.2799e+08,-937.8,0,1.3154e+08,-34.93,12162,12879,1,12879,1,0.00076213,1.3339e-09,0,0.00076213,1.1753e-05,2.72e+08,400.98,0,2.72e+08,136.57,12878,12168,1,12168,1,0.00034989,-2.769e-09,0,0.00034989,-6.548e-05,1.3119e+08,-887.51,0,1.3119e+08,-39.481,12167,11473,1,11473,1,-6.233e-05,-7.5552e-09,0,7.3654e-06,-0.00014271,-2.5347e+07,-2486.2,0,3.0645e+06,-203.89,11472,11820,1,11820,1,0.00013004,-4.6571e-09,0,0.00013004,-0.00010666,5.0179e+07,-1505.5,0,5.0179e+07,-64.781,11819,12516,1,12516,1,0.00056974,-1.0699e-09,0,0.00056974,-2.4296e-05,2.0683e+08,-333.4,0,2.0683e+08,-6.5292,12515,412.9,0,412.9,0,0.00025352,2.2775e-09,0,0.00024102,4.7493e-05,9.0898e+07,745.78,0,8.5672e+07,56.008,412.9,1
816,2.7,12163,1,12163,1,0.00035136,-1.0775e-09,0,0.00036007,-6.5752e-05,1.2843e+08,-351.19,0,1.3198e+08,-29.768,12162,12879,1,12879,1,0.00076515,3.1087e-09,0,0.00076515,1.1768e-05,2.728e+08,1022,0,2.728e+08,132.53,12878,12168,1,12168,1,0.00035136,-4.7075e-10,0,0.00035136,-6.5755e-05,1.3166e+08,-146.69,0,1.3166e+08,-40.867,12167,11473,1,11473,1,-6.2405e-05,-6.7716e-09,0,7.2349e-06,-0.00014327,-2.5378e+07,-2227.6,0,3.0134e+06,-191.76,11472,11820,1,11820,1,0.00013069,-2.4894e-09,0,0.00013069,-0.00010709,5.0408e+07,-792.82,0,5.0408e+07,-73.335,11819,12516,1,12516,1,0.00057204,5.6415e-10,0,0.00057204,-2.4416e-05,2.0748e+08,174.66,0,2.0748e+08,20.35,12515,412.9,0,412.9,0,0.00025447,2.3256e-09,0,0.00024198,4.7672e-05,9.1148e+07,756.82,0,8.5922e+07,64.335,412.9,1
816,2.71,12163,1,12163,1,0.00035285,-1.9455e-09,0,0.00036154,-6.6028e-05,1.2886e+08,-629.64,0,1.3241e+08,-44.677,12162,12879,1,12879,1,0.00076819,7.8713e-10,0,0.00076819,1.1783e-05,2.736e+08,236.27,0,2.736e+08,127.28,12878,12168,1,12168,1,0.00035285,-2.0713e-09,0,0.00035285,-6.6032e-05,1.3213e+08,-651.7,0,1.3213e+08,-37.406,12167,11473,1,11473,1,-6.2482e-05,-4.5886e-09,0,7.1033e-06,-0.00014384,-2.5409e+07,-1516.6,0,2.9619e+06,-215.46,11472,11820,1,11820,1,0.00013134,-3.1912e-09,0,0.00013134,-0.00010752,5.0639e+07,-1031.5,0,5.0639e+07,-59.277,11819,12516,1,12516,1,0.00057435,-7.3432e-10,0,0.00057435,-2.4538e-05,2.0813e+08,-223.29,0,2.0813e+08,-16.193,12515,412.9,0,412.9,0,0.00025543,1.4458e-09,0,0.00024295,4.7851e-05,9.1398e+07,474.98,0,8.6174e+07,51.185,412.9,1
816,2.72,12163,1,12163,1,0.00035434,-1.6823e-09,0,0.00036303,-6.6306e-05,1.293e+08,-545.49,0,1.3284e+08,-10.874,12162,12879,1,12879,1,0.00077125,1.1319e-09,0,0.00077125,1.1798e-05,2.744e+08,339.36,0,2.744e+08,118.64,12878,12168,1,12168,1,0.00035434,-1.6181e-09,0,0.00035434,-6.631e-05,1.326e+08,-510.53,0,1.326e+08,-7.2825,12167,11473,1,11473,1,-6.2556e-05,-4.8821e-09,0,6.9695e-06,-0.00014441,-2.5439e+07,-1606.2,0,2.9095e+06,-174.66,11472,11820,1,11820,1,0.00013199,-2.7763e-09,0,0.00013199,-0.00010795,5.087e+07,-892.18,0,5.087e+07,-26.57,11819,12516,1,12516,1,0.00057668,-5.2448e-10,0,0.00057668,-2.4659e-05,2.0878e+08,-162.37,0,2.0878e+08,17.231,12515,412.9,0,412.9,0,0.00025639,1.4907e-09,0,0.00024392,4.8031e-05,9.1648e+07,487.19,0,8.6425e+07,48.273,412.9,1
816,2.73,12163,1,12163,1,0.00035581,-1.9128e-09,0,0.00036449,-6.6581e-05,1.2973e+08,-618.93,0,1.3327e+08,-33.629,12162,12879,1,12879,1,0.00077427,3.3581e-09,0,0.00077427,1.1812e-05,2.7519e+08,1103.7,0,2.7519e+08,158.32,12878,12168,1,12168,1,0.00035581,-1.3251e-09,0,0.00035581,-6.6585e-05,1.3306e+08,-419.47,0,1.3306e+08,-40.124,12167,11473,1,11473,1,-6.2625e-05,-8.3067e-09,0,6.8324e-06,-0.00014498,-2.5467e+07,-2729.8,0,2.8559e+06,-224.18,11472,11820,1,11820,1,0.00013265,-3.8307e-09,0,0.00013265,-0.00010838,5.11e+07,-1243.9,0,5.11e+07,-82.355,11819,12516,1,12516,1,0.00057898,2.6486e-10,0,0.00057898,-2.4781e-05,2.0942e+08,81.663,0,2.0942e+08,16.994,12515,412.9,0,412.9,0,0.00025734,2.8489e-09,0,0.00024488,4.8208e-05,9.1892e+07,927.12,0,8.6671e+07,78.239,412.9,1
816,2.74,12163,1,12163,1,0.00035732,-4.8992e-10,0,0.00036599,-6.6862e-05,1.3017e+08,-160.6,0,1.3371e+08,-27.526,12162,12879,1,12879,1,0.00077734,5.4647e-10,0,0.00077734,1.1827e-05,2.7599e+08,163.64,0,2.7599e+08,57.934,12878,12168,1,12168,1,0.00035732,-4.6755e-10,0,0.00035732,-6.6866e-05,1.3354e+08,-146.74,0,1.3354e+08,-15.791,12167,11473,1,11473,1,-6.27e-05,-1.8196e-09,0,6.6961e-06,-0.00014555,-2.5497e+07,-616.71,0,2.8026e+06,-135.96,11472,11820,1,11820,1,0.00013331,-9.1347e-10,0,0.00013331,-0.00010882,5.1333e+07,-298.48,0,5.1333e+07,-53.533,11819,12516,1,12516,1,0.00058133,9.294e-12,0,0.00058133,-2.4904e-05,2.1008e+08,2.8542,0,2.1008e+08,2.3828,12515,412.9,0,412.9,0,0.00025832,5.9735e-10,0,0.00024586,4.839e-05,9.2144e+07,194.94,0,8.6924e+07,39.23,412.9,1
816,2.75,12163,1,12163,1,0.00035881,-2.0585e-09,0,0.00036747,-6.714e-05,1.306e+08,-665.13,0,1.3413e+08,-8.3353,12162,12879,1,12879,1,0.0007804,1.2563e-09,0,0.0007804,1.184e-05,2.7678e+08,375.38,0,2.7678e+08,155.2,12878,12168,1,12168,1,0.00035881,-1.7333e-09,0,0.00035881,-6.7143e-05,1.3401e+08,-545.95,0,1.3401e+08,-18.513,12167,11473,1,11473,1,-6.2766e-05,-6.5798e-09,0,6.5549e-06,-0.00014612,-2.5524e+07,-2160.8,0,2.7474e+06,-162.04,11472,11820,1,11820,1,0.00013397,-3.4232e-09,0,0.00013397,-0.00010925,5.1565e+07,-1095.8,0,5.1565e+07,-46.896,11819,12516,1,12516,1,0.00058365,-3.8259e-10,0,0.00058365,-2.5027e-05,2.1072e+08,-118.56,0,2.1072e+08,26.374,12515,412.9,0,412.9,0,0.00025927,2.0324e-09,0,0.00024682,4.8569e-05,9.2387e+07,662.3,0,8.717e+07,59.517,412.9,1
816,2.76,12163,1,12163,1,0.00036031,-4.1956e-10,0,0.00036896,-6.742e-05,1.3104e+08,-137.26,0,1.3457e+08,-15.99,12162,12879,1,12879,1,0.00078346,5.7647e-10,0,0.00078346,1.1853e-05,2.7757e+08,188.1,0,2.7757e+08,69.765,12878,12168,1,12168,1,0.00036031,-1.5783e-10,0,0.00036031,-6.7424e-05,1.3448e+08,-48.845,0,1.3448e+08,-19.853,12167,11473,1,11473,1,-6.2833e-05,-2.3039e-09,0,6.413e-06,-0.00014669,-2.5552e+07,-764.65,0,2.6919e+06,-59.823,11472,11820,1,11820,1,0.00013463,-8.4521e-10,0,0.00013463,-0.00010969,5.1799e+07,-272.65,0,5.1799e+07,-36.67,11819,12516,1,12516,1,0.00058599,1.6057e-10,0,0.00058599,-2.515e-05,2.1137e+08,48.77,0,2.1137e+08,2.4968,12515,412.9,0,412.9,0,0.00026024,7.3137e-10,0,0.0002478,4.8749e-05,9.2634e+07,238.52,0,8.742e+07,24.815,412.9,1
816,2.77,12163,1,12163,1,0.0003618,-1.653e-09,0,0.00037045,-6.7698e-05,1.3147e+08,-533.46,0,1.3499e+08,-13.498,12162,12879,1,12879,1,0.00078652,9.1602e-10,0,0.00078652,1.1866e-05,2.7835e+08,273.15,0,2.7835e+08,150.97,12878,12168,1,12168,1,0.0003618,-1.2187e-09,0,0.0003618,-6.7702e-05,1.3495e+08,-383.55,0,1.3495e+08,-26.495,12167,11473,1,11473,1,-6.2896e-05,-5.5866e-09,0,6.2686e-06,-0.00014727,-2.5577e+07,-1833.4,0,2.6355e+06,-135.83,11472,11820,1,11820,1,0.0001353,-2.7257e-09,0,0.0001353,-0.00011012,5.2032e+07,-881.37,0,5.2032e+07,-49.888,11819,12516,1,12516,1,0.00058831,-2.8663e-10,0,0.00058831,-2.5274e-05,2.1201e+08,-88.75,0,2.1201e+08,16.404,12515,412.9,0,412.9,0,0.00026119,1.6876e-09,0,0.00024876,4.8928e-05,9.2876e+07,549.62,0,8.7665e+07,54.622,412.9,1
816,2.78,12163,1,12163,1,0.00036331,-1.0704e-09,0,0.00037195,-6.798e-05,1.319e+08,-347.14,0,1.3543e+08,-25.992,12162,12879,1,12879,1,0.00078959,7.5021e-10,0,0.00078959,1.1879e-05,2.7914e+08,223.48,0,2.7914e+08,56.832,12878,12168,1,12168,1,0.00036331,-1.2984e-09,0,0.00036331,-6.7983e-05,1.3542e+08,-406.9,0,1.3542e+08,-10.19,12167,11473,1,11473,1,-6.296e-05,-2.1845e-09,0,6.123e-06,-0.00014784,-2.5603e+07,-721.43,0,2.5786e+06,-171.02,11472,11820,1,11820,1,0.00013597,-1.7892e-09,0,0.00013597,-0.00011056,5.2267e+07,-591.41,0,5.2267e+07,-38.872,11819,12516,1,12516,1,0.00059065,-3.824e-10,0,0.00059065,-2.5398e-05,2.1265e+08,-115.88,0,2.1265e+08,1.5511,12515,412.9,0,412.9,0,0.00026216,8.4383e-10,0,0.00024974,4.9109e-05,9.3121e+07,275.02,0,8.7913e+07,45.419,412.9,1
816,2.79,12163,1,12163,1,0.00036481,-2.1545e-09,0,0.00037343,-6.8259e-05,1.3233e+08,-694.88,0,1.3585e+08,-13.214,12162,12879,1,12879,1,0.00079265,9.9178e-10,0,0.00079265,1.1891e-05,2.7992e+08,295.11,0,2.7992e+08,118.56,12878,12168,1,12168,1,0.00036481,-2.3374e-09,0,0.00036481,-6.8262e-05,1.3588e+08,-732.79,0,1.3588e+08,-1.3221,12167,11473,1,11473,1,-6.3019e-05,-4.8628e-09,0,5.9746e-06,-0.00014841,-2.5627e+07,-1594.7,0,2.5207e+06,-190.89,11472,11820,1,11820,1,0.00013663,-3.4729e-09,0,0.00013663,-0.00011099,5.25e+07,-1119.7,0,5.25e+07,-46.614,11819,12516,1,12516,1,0.00059298,-9.587e-10,0,0.00059298,-2.5522e-05,2.1329e+08,-296.82,0,2.1329e+08,23.781,12515,412.9,0,412.9,0,0.00026312,1.5476e-09,0,0.00025071,4.9288e-05,9.3361e+07,506.24,0,8.8156e+07,62.792,412.9,1
816,2.8,12163,1,12163,1,0.0003663,-1.6831e-09,0,0.00037491,-6.8537e-05,1.3276e+08,-543.43,0,1.3627e+08,-21.26,12162,12879,1,12879,1,0.0007957,1.2027e-09,0,0.0007957,1.1903e-05,2.8069e+08,391.03,0,2.8069e+08,133.06,12878,12168,1,12168,1,0.0003663,-1.1224e-09,0,0.0003663,-6.8541e-05,1.3635e+08,-354.57,0,1.3635e+08,-27.385,12167,11473,1,11473,1,-6.3077e-05,-6.4727e-09,0,5.8248e-06,-0.00014898,-2.565e+07,-2121.9,0,2.4622e+06,-143.09,11472,11820,1,11820,1,0.0001373,-3.1143e-09,0,0.0001373,-0.00011143,5.2734e+07,-994.47,0,5.2734e+07,-58.852,11819,12516,1,12516,1,0.00059531,7.7987e-11,0,0.00059531,-2.5646e-05,2.1393e+08,24.132,0,2.1393e+08,9.7621,12515,412.9,0,412.9,0,0.00026407,2.0793e-09,0,0.00025168,4.9466e-05,9.3599e+07,675.68,0,8.8398e+07,53.271,412.9,1
816,2.81,12163,1,12163,1,0.00036781,-1.4404e-09,0,0.00037641,-6.8819e-05,1.3319e+08,-466.17,0,1.367e+08,-40.936,12162,12879,1,12879,1,0.00079877,9.7893e-10,0,0.00079877,1.1914e-05,2.8147e+08,290.67,0,2.8147e+08,91.095,12878,12168,1,12168,1,0.00036781,-1.2977e-09,0,0.00036781,-6.8822e-05,1.3682e+08,-415.42,0,1.3682e+08,-33.159,12167,11473,1,11473,1,-6.3135e-05,-4.4557e-09,0,5.6747e-06,-0.00014955,-2.5674e+07,-1465.2,0,2.4036e+06,-198.45,11472,11820,1,11820,1,0.00013797,-2.5862e-09,0,0.00013797,-0.00011187,5.2969e+07,-835.37,0,5.2969e+07,-64.46,11819,12516,1,12516,1,0.00059765,-2.0094e-10,0,0.00059765,-2.5771e-05,2.1457e+08,-61.715,0,2.1457e+08,-11.216,12515,412.9,0,412.9,0,0.00026504,1.4337e-09,0,0.00025266,4.9646e-05,9.3841e+07,467.21,0,8.8643e+07,51.361,412.9,1
816,2.82,12163,1,12163,1,0.00036932,-1.6929e-09,0,0.00037791,-6.91e-05,1.3362e+08,-545.59,0,1.3713e+08,-29.98,12162,12879,1,12879,1,0.00080184,8.3086e-10,0,0.00080184,1.1925e-05,2.8224e+08,246.48,0,2.8224e+08,75.106,12878,12168,1,12168,1,0.00036932,-1.4271e-09,0,0.00036932,-6.9103e-05,1.3728e+08,-456.37,0,1.3728e+08,-29.255,12167,11473,1,11473,1,-6.3189e-05,-5.1711e-09,0,5.52e-06,-0.00015013,-2.5696e+07,-1694,0,2.3433e+06,-139.05,11472,11820,1,11820,1,0.00013865,-2.8745e-09,0,0.00013865,-0.0001123,5.3204e+07,-927.02,0,5.3204e+07,-53.828,11819,12516,1,12516,1,0.00059999,-2.974e-10,0,0.00059999,-2.5896e-05,2.152e+08,-91.051,0,2.152e+08,-7.5337,12515,412.9,0,412.9,0,0.000266,1.5926e-09,0,0.00025363,4.9825e-05,9.4078e+07,519.05,0,8.8885e+07,41.387,412.9,1
816,2.83,12163,1,12163,1,0.00037082,-2.6379e-09,0,0.00037939,-6.9379e-05,1.3405e+08,-847.77,0,1.3755e+08,-40.471,12162,12879,1,12879,1,0.0008049,1.2498e-09,0,0.0008049,1.1936e-05,2.8301e+08,409.39,0,2.8301e+08,139.55,12878,12168,1,12168,1,0.00037082,-2.2865e-09,0,0.00037082,-6.9383e-05,1.3775e+08,-711.59,0,1.3775e+08,-41.585,12167,11473,1,11473,1,-6.3241e-05,-7.9078e-09,0,5.3644e-06,-0.0001507,-2.5717e+07,-2589.6,0,2.2825e+06,-188.88,11472,11820,1,11820,1,0.00013932,-4.6086e-09,0,0.00013932,-0.00011274,5.3439e+07,-1484.6,0,5.3439e+07,-82.045,11819,12516,1,12516,1,0.00060232,-4.0166e-10,0,0.00060232,-2.6021e-05,2.1583e+08,-122.28,0,2.1583e+08,-1.9365,12515,412.9,0,412.9,0,0.00026695,2.52e-09,0,0.0002546,5.0004e-05,9.4313e+07,820.58,0,8.9125e+07,61.377,412.9,1
816,2.84,12163,1,12163,1,0.00037235,6.0538e-10,0,0.00038091,-6.9665e-05,1.3448e+08,191.38,0,1.3798e+08,-16.013,12162,12879,1,12879,1,0.00080799,1.1889e-09,0,0.00080799,1.1947e-05,2.8379e+08,373.79,0,2.8379e+08,26.311,12878,12168,1,12168,1,0.00037235,5.673e-10,0,0.00037235,-6.9668e-05,1.3822e+08,181.34,0,1.3822e+08,-15.753,12167,11473,1,11473,1,-6.3296e-05,-3.3694e-11,0,5.2084e-06,-0.00015127,-2.574e+07,-9.7203,0,2.2217e+06,-64.896,11472,11820,1,11820,1,0.00014001,4.503e-10,0,0.00014001,-0.00011318,5.3678e+07,143.91,0,5.3678e+07,-28.448,11819,12516,1,12516,1,0.00060469,7.9433e-10,0,0.00060469,-2.6149e-05,2.1647e+08,255.2,0,2.1647e+08,-0.46809,12515,412.9,0,412.9,0,0.00026793,2.913e-10,0,0.00025559,5.0186e-05,9.4555e+07,92.273,0,8.9371e+07,19.813,412.9,1
816,2.85,12163,1,12163,1,0.00037384,-3.4942e-10,0,0.00038239,-6.9943e-05,1.349e+08,-113.26,0,1.3839e+08,-16.74,12162,12879,1,12879,1,0.00081103,5.154e-09,0,0.00081103,1.1956e-05,2.8453e+08,1686.8,0,2.8453e+08,133.55,12878,12168,1,12168,1,0.00037384,-4.2459e-11,0,0.00037384,-6.9947e-05,1.3868e+08,-12.564,0,1.3868e+08,-27.158,12167,11473,1,11473,1,-6.3338e-05,-5.7346e-09,0,5.0463e-06,-0.00015184,-2.5756e+07,-1876.7,0,2.1585e+06,-500.92,11472,11820,1,11820,1,0.00014068,-1.9799e-09,0,0.00014068,-0.00011361,5.3912e+07,-623.67,0,5.3912e+07,-69.541,11819,12516,1,12516,1,0.00060701,1.1781e-09,0,0.00060701,-2.6274e-05,2.1709e+08,362.69,0,2.1709e+08,28.559,12515,412.9,0,412.9,0,0.00026887,2.5257e-09,0,0.00025655,5.0363e-05,9.4783e+07,814.08,0,8.9605e+07,65.079,412.9,1
816,2.86,12163,1,12163,1,0.00037536,-1.7724e-09,0,0.0003839,-7.0227e-05,1.3533e+08,-570.1,0,1.3882e+08,-46.936,12162,12879,1,12879,1,0.00081414,1.2785e-09,0,0.00081414,1.1967e-05,2.8531e+08,432.6,0,2.8531e+08,112.4,12878,12168,1,12168,1,0.00037537,-1.5024e-09,0,0.00037537,-7.0231e-05,1.3915e+08,-464.91,0,1.3915e+08,-49.063,12167,11473,1,11473,1,-6.3388e-05,-5.8692e-09,0,4.8865e-06,-0.00015242,-2.5777e+07,-1919.9,0,2.0963e+06,-456.89,11472,11820,1,11820,1,0.00014136,-3.1646e-09,0,0.00014136,-0.00011405,5.415e+07,-1020.5,0,5.415e+07,-76.533,11819,12516,1,12516,1,0.00060937,-1.4717e-10,0,0.00060937,-2.6401e-05,2.1773e+08,-44.834,0,2.1773e+08,-8.9833,12515,412.9,0,412.9,0,0.00026984,1.8867e-09,0,0.00025754,5.0543e-05,9.502e+07,611.94,0,8.9847e+07,67.838,412.9,1
816,2.87,12163,1,12163,1,0.00037689,-1.5438e-09,0,0.00038541,-7.0511e-05,1.3576e+08,-496.78,0,1.3924e+08,-27.897,12162,12879,1,12879,1,0.00081724,1.012e-09,0,0.00081724,1.1976e-05,2.8607e+08,298.57,0,2.8607e+08,141.67,12878,12168,1,12168,1,0.00037689,-1.104e-09,0,0.00037689,-7.0515e-05,1.3962e+08,-348.81,0,1.3962e+08,-27.493,12167,11473,1,11473,1,-6.3434e-05,-5.5993e-09,0,4.7221e-06,-0.000153,-2.5795e+07,-1831,0,2.0323e+06,-440.12,11472,11820,1,11820,1,0.00014205,-2.6096e-09,0,0.00014205,-0.00011449,5.439e+07,-830.51,0,5.439e+07,-47.858,11819,12516,1,12516,1,0.00061173,-1.9796e-10,0,0.00061173,-2.6529e-05,2.1836e+08,-59.938,0,2.1836e+08,0.28409,12515,412.9,0,412.9,0,0.00027081,1.6763e-09,0,0.00025852,5.0724e-05,9.5255e+07,543.5,0,9.0087e+07,66.121,412.9,1
816,2.88,12163,1,12163,1,0.00037842,1.4436e-09,0,0.00038692,-7.0796e-05,1.3619e+08,460.07,0,1.3966e+08,-23.288,12162,12879,1,12879,1,0.00082032,3.5404e-09,0,0.00082032,1.1985e-05,2.8683e+08,1157.1,0,2.8683e+08,79.885,12878,12168,1,12168,1,0.00037842,1.3947e-09,0,0.00037842,-7.0799e-05,1.4008e+08,445.49,0,1.4008e+08,-17.56,12167,11473,1,11473,1,-6.3476e-05,-3.1757e-10,0,4.5558e-06,-0.00015357,-2.5813e+07,-93.448,0,1.9674e+06,-283.29,11472,11820,1,11820,1,0.00014274,9.33e-10,0,0.00014274,-0.00011493,5.4628e+07,284.14,0,5.4628e+07,-36.398,11819,12516,1,12516,1,0.00061409,2.0278e-09,0,0.00061409,-2.6657e-05,2.1898e+08,654.15,0,2.1898e+08,-0.34092,12515,412.9,0,412.9,0,0.00027177,8.8643e-10,0,0.0002595,5.0904e-05,9.5487e+07,288.69,0,9.0325e+07,48.266,412.9,1
816,2.89,12163,1,12163,1,0.00037994,-9.7181e-10,0,0.00038843,-7.108e-05,1.3662e+08,-311.47,0,1.4008e+08,-30.117,12162,12879,1,12879,1,0.0008234,5.8641e-10,0,0.0008234,1.1993e-05,2.8758e+08,172.46,0,2.8758e+08,76.23,12878,12168,1,12168,1,0.00037994,-8.9208e-10,0,0.00037994,-7.1083e-05,1.4055e+08,-278.62,0,1.4055e+08,-26.833,12167,11473,1,11473,1,-6.3517e-05,-2.942e-09,0,4.3875e-06,-0.00015415,-2.5829e+07,-961.35,0,1.9019e+06,-171.7,11472,11820,1,11820,1,0.00014343,-1.5354e-09,0,0.00014343,-0.00011537,5.4867e+07,-490.43,0,5.4867e+07,-46.676,11819,12516,1,12516,1,0.00061645,-2.75e-10,0,0.00061645,-2.6785e-05,2.1961e+08,-85.546,0,2.1961e+08,-8.1048,12515,412.9,0,412.9,0,0.00027273,8.7664e-10,0,0.00026048,5.1084e-05,9.5718e+07,283.06,0,9.0562e+07,36.708,412.9,1
816,2.9,12163,1,12163,1,0.00038147,-1.2249e-10,0,0.00038994,-7.1365e-05,1.3704e+08,-40.437,0,1.405e+08,-15.577,12162,12879,1,12879,1,0.0008265,1.0753e-09,0,0.0008265,1.2002e-05,2.8834e+08,359.81,0,2.8834e+08,48.75,12878,12168,1,12168,1,0.00038147,2.901e-11,0,0.00038147,-7.1368e-05,1.4101e+08,8.8476,0,1.4101e+08,-16.973,12167,11473,1,11473,1,-6.3555e-05,-1.4818e-09,0,4.2178e-06,-0.00015473,-2.5845e+07,-495.9,0,1.8359e+06,-54.542,11472,11820,1,11820,1,0.00014412,-4.605e-10,0,0.00014412,-0.00011581,5.5107e+07,-146.05,0,5.5107e+07,-28.824,11819,12516,1,12516,1,0.00061882,2.2766e-10,0,0.00061882,-2.6914e-05,2.2024e+08,68.647,0,2.2024e+08,-3.8137,12515,412.9,0,412.9,0,0.0002737,5.8577e-10,0,0.00026147,5.1264e-05,9.5948e+07,189.05,0,9.08e+07,18.465,412.9,1
816,2.91,12163,1,12163,1,0.000383,6.9359e-10,0,0.00039146,-7.165e-05,1.3747e+08,221.54,0,1.4092e+08,-15.032,12162,12879,1,12879,1,0.0008296,1.3387e-09,0,0.0008296,1.2009e-05,2.8909e+08,447.93,0,2.8909e+08,56.324,12878,12168,1,12168,1,0.000383,8.365e-10,0,0.000383,-7.1653e-05,1.4148e+08,262.42,0,1.4148e+08,-10.508,12167,11473,1,11473,1,-6.3592e-05,-2.9681e-10,0,4.045e-06,-0.00015531,-2.5859e+07,-87.046,0,1.7687e+06,-213.01,11472,11820,1,11820,1,0.00014482,4.0608e-10,0,0.00014482,-0.00011626,5.5348e+07,121.89,0,5.5348e+07,-20.178,11819,12516,1,12516,1,0.00062119,1.0289e-09,0,0.00062119,-2.7043e-05,2.2086e+08,331.02,0,2.2086e+08,1.5651,12515,412.9,0,412.9,0,0.00027466,4.1935e-10,0,0.00026246,5.1444e-05,9.6177e+07,136.35,0,9.1036e+07,36.96,412.9,1
816,2.92,12163,1,12163,1,0.00038453,2.2893e-09,0,0.00039296,-7.1934e-05,1.3789e+08,731.28,0,1.4134e+08,10.692,12162,12879,1,12879,1,0.00083269,5.7258e-09,0,0.00083269,1.2017e-05,2.8983e+08,1915.5,0,2.8983e+08,174.75,12878,12168,1,12168,1,0.00038453,2.2538e-09,0,0.00038453,-7.1937e-05,1.4194e+08,712.05,0,1.4194e+08,3.7389,12167,11473,1,11473,1,-6.3626e-05,-7.2124e-10,0,3.871e-06,-0.00015588,-2.5873e+07,-211.48,0,1.701e+06,-287.29,11472,11820,1,11820,1,0.00014551,1.0905e-09,0,0.00014551,-0.00011669,5.5587e+07,328.54,0,5.5587e+07,-18.954,11819,12516,1,12516,1,0.00062354,3.5038e-09,0,0.00062354,-2.7172e-05,2.2147e+08,1119.3,0,2.2147e+08,35.994,12515,412.9,0,412.9,0,0.00027562,1.616e-09,0,0.00026343,5.1623e-05,9.6403e+07,525.82,0,9.1268e+07,59.886,412.9,1
816,2.93,12163,1,12163,1,0.00038606,1.4565e-09,0,0.00039448,-7.222e-05,1.3831e+08,465.42,0,1.4175e+08,-3.0897,12162,12879,1,12879,1,0.0008358,3.9619e-09,0,0.0008358,1.2024e-05,2.9058e+08,1325.2,0,2.9058e+08,94.785,12878,12168,1,12168,1,0.00038606,1.3949e-09,0,0.00038606,-7.2224e-05,1.4241e+08,439.09,0,1.4241e+08,-4.0786,12167,11473,1,11473,1,-6.3659e-05,-3.6368e-10,0,3.6948e-06,-0.00015646,-2.5886e+07,-106.68,0,1.6325e+06,-451.29,11472,11820,1,11820,1,0.00014621,6.1083e-10,0,0.00014621,-0.00011714,5.5828e+07,185.14,0,5.5828e+07,-23.747,11819,12516,1,12516,1,0.00062591,2.2896e-09,0,0.00062591,-2.7301e-05,2.221e+08,731.17,0,2.221e+08,19.782,12515,412.9,0,412.9,0,0.00027658,1.0353e-09,0,0.00026442,5.1803e-05,9.6631e+07,339.24,0,9.1504e+07,55.261,412.9,1
816,2.94,12163,1,12163,1,0.0003876,1.9643e-09,0,0.000396,-7.2507e-05,1.3874e+08,626.42,0,1.4217e+08,2.7332,12162,12879,1,12879,1,0.00083891,3.2634e-09,0,0.00083891,1.2031e-05,2.9133e+08,1069.2,0,2.9133e+08,102.76,12878,12168,1,12168,1,0.0003876,2.277e-09,0,0.0003876,-7.2511e-05,1.4287e+08,712.08,0,1.4287e+08,5.8462,12167,11473,1,11473,1,-6.369e-05,-3.6964e-10,0,3.5165e-06,-0.00015704,-2.5899e+07,-108.26,0,1.5631e+06,-603.7,11472,11820,1,11820,1,0.00014691,1.0758e-09,0,0.00014691,-0.00011758,5.607e+07,321.25,0,5.607e+07,-13.966,11819,12516,1,12516,1,0.00062829,2.9623e-09,0,0.00062829,-2.7432e-05,2.2272e+08,963.82,0,2.2272e+08,25.215,12515,412.9,0,412.9,0,0.00027755,1.1109e-09,0,0.00026541,5.1984e-05,9.6857e+07,365.61,0,9.1738e+07,74.861,412.9,1
816,2.95,12163,1,12163,1,0.00038914,1.903e-09,0,0.00039752,-7.2793e-05,1.3916e+08,608.83,0,1.4259e+08,36.923,12162,12879,1,12879,1,0.00084201,4.2439e-09,0,0.00084201,1.2037e-05,2.9206e+08,1371.3,0,2.9206e+08,215.64,12878,12168,1,12168,1,0.00038914,2.018e-09,0,0.00038914,-7.2797e-05,1.4333e+08,630.43,0,1.4333e+08,26.771,12167,11473,1,11473,1,-6.3717e-05,-8.1074e-10,0,3.3353e-06,-0.00015762,-2.591e+07,-237.02,0,1.4927e+06,-57.652,11472,11820,1,11820,1,0.00014762,8.4966e-10,0,0.00014762,-0.00011802,5.6312e+07,252.96,0,5.6312e+07,-1.1546,11819,12516,1,12516,1,0.00063066,3.0652e-09,0,0.00063066,-2.7562e-05,2.2333e+08,981.94,0,2.2333e+08,64.668,12515,412.9,0,412.9,0,0.00027851,1.3855e-09,0,0.0002664,5.2164e-05,9.708e+07,450.14,0,9.1969e+07,57.488,412.9,1
816,2.96,12163,1,12163,1,0.00039068,-1.1709e-09,0,0.00039904,-7.3081e-05,1.3958e+08,-371.56,0,1.43e+08,-24.824,12162,12879,1,12879,1,0.00084511,8.8244e-10,0,0.00084511,1.2043e-05,2.928e+08,301.52,0,2.928e+08,75.41,12878,12168,1,12168,1,0.00039068,-1.0988e-09,0,0.00039068,-7.3084e-05,1.438e+08,-344.62,0,1.438e+08,-26.207,12167,11473,1,11473,1,-6.3745e-05,-3.2003e-09,0,3.1527e-06,-0.0001582,-2.5921e+07,-1041.7,0,1.4218e+06,-107.53,11472,11820,1,11820,1,0.00014832,-2.0084e-09,0,0.00014832,-0.00011847,5.6555e+07,-641.67,0,5.6555e+07,-53.054,11819,12516,1,12516,1,0.00063304,-3.0592e-10,0,0.00063304,-2.7693e-05,2.2395e+08,-93.351,0,2.2395e+08,-2.4539,12515,412.9,0,412.9,0,0.00027948,1.0564e-09,0,0.00026739,5.2344e-05,9.7304e+07,339.49,0,9.2201e+07,35.625,412.9,1
816,2.97,12163,1,12163,1,0.00039222,-1.6669e-09,0,0.00040056,-7.3367e-05,1.4e+08,-531.95,0,1.4341e+08,-14.486,12162,12879,1,12879,1,0.00084822,9.2065e-10,0,0.00084822,1.2049e-05,2.9353e+08,299.99,0,2.9353e+08,111,12878,12168,1,12168,1,0.00039222,-1.4287e-09,0,0.00039222,-7.3371e-05,1.4426e+08,-438.85,0,1.4426e+08,-10.862,12167,11473,1,11473,1,-6.3768e-05,-4.9774e-09,0,2.9684e-06,-0.00015878,-2.5931e+07,-1621.6,0,1.3502e+06,-128.56,11472,11820,1,11820,1,0.00014903,-3.0175e-09,0,0.00014903,-0.00011891,5.6797e+07,-949.55,0,5.6797e+07,-52.579,11819,12516,1,12516,1,0.00063541,-2.2144e-10,0,0.00063541,-2.7824e-05,2.2456e+08,-67.02,0,2.2456e+08,15.076,12515,412.9,0,412.9,0,0.00028044,1.6482e-09,0,0.00026837,5.2523e-05,9.7525e+07,531.74,0,9.2431e+07,49.983,412.9,1
816,2.98,12163,1,12163,1,0.00039376,-1.7932e-09,0,0.00040208,-7.3654e-05,1.4042e+08,-572.44,0,1.4383e+08,-32.64,12162,12879,1,12879,1,0.00085132,7.7065e-10,0,0.00085132,1.2053e-05,2.9426e+08,224.54,0,2.9426e+08,103.13,12878,12168,1,12168,1,0.00039376,-1.7436e-09,0,0.00039376,-7.3658e-05,1.4472e+08,-531.56,0,1.4472e+08,-24.351,12167,11473,1,11473,1,-6.3788e-05,-4.6374e-09,0,2.7807e-06,-0.00015936,-2.5939e+07,-1515.9,0,1.2773e+06,-177.28,11472,11820,1,11820,1,0.00014973,-3.1056e-09,0,0.00014973,-0.00011935,5.704e+07,-991.99,0,5.704e+07,-62.421,11819,12516,1,12516,1,0.00063778,-4.4676e-10,0,0.00063778,-2.7956e-05,2.2516e+08,-136.18,0,2.2516e+08,0.49634,12515,412.9,0,412.9,0,0.0002814,1.5186e-09,0,0.00026936,5.2702e-05,9.7744e+07,492.16,0,9.2659e+07,53.069,412.9,1
816,2.99,12163,1,12163,1,0.00039531,-2.0956e-09,0,0.00040361,-7.3942e-05,1.4084e+08,-668.56,0,1.4424e+08,-13.203,12162,12879,1,12879,1,0.00085444,9.5592e-10,0,0.00085444,1.2059e-05,2.9499e+08,278.19,0,2.9499e+08,143.46,12878,12168,1,12168,1,0.00039531,-1.857e-09,0,0.00039531,-7.3946e-05,1.4518e+08,-573.18,0,1.4518e+08,-11.624,12167,11473,1,11473,1,-6.381e-05,-6.1233e-09,0,2.5926e-06,-0.00015994,-2.5947e+07,-1998.4,0,1.2043e+06,-196.04,11472,11820,1,11820,1,0.00015044,-3.5273e-09,0,0.00015044,-0.0001198,5.7284e+07,-1110.1,0,5.7284e+07,-44.404,11819,12516,1,12516,1,0.00064017,-4.6803e-10,0,0.00064017,-2.8088e-05,2.2578e+08,-139.54,0,2.2578e+08,19.927,12515,412.9,0,412.9,0,0.00028236,1.9047e-09,0,0.00027035,5.2883e-05,9.7965e+07,616.09,0,9.2889e+07,61.361,412.9,1
816,3,12163,1,12163,1,0.00039686,1.0012e-09,0,0.00040514,-7.4231e-05,1.4126e+08,314.96,0,1.4465e+08,-3.8163,12162,12879,1,12879,1,0.00085755,4.1073e-09,0,0.00085755,1.2063e-05,2.9572e+08,1336.6,0,2.9572e+08,93.035,12878,12168,1,12168,1,0.00039686,7.2185e-10,0,0.00039686,-7.4235e-05,1.4564e+08,225.1,0,1.4564e+08,-7.2329,12167,11473,1,11473,1,-6.3829e-05,-1.4026e-09,0,2.4014e-06,-0.00016052,-2.5955e+07,-474.21,0,1.1301e+06,-66.899,11472,11820,1,11820,1,0.00015116,1.2976e-10,0,0.00015116,-0.00012024,5.7528e+07,39.198,0,5.7528e+07,-32.654,11819,12516,1,12516,1,0.00064256,1.8278e-09,0,0.00064256,-2.822e-05,2.2639e+08,575.54,0,2.2639e+08,21.359,12515,412.9,0,412.9,0,0.00028333,1.2445e-09,0,0.00027134,5.3063e-05,9.8184e+07,399.6,0,9.3118e+07,34.46,412.9,1
816,3.01,12163,1,12163,1,0.00039842,-3.258e-11,0,0.00040667,-7.4522e-05,1.4169e+08,-11.281,0,1.4506e+08,-20.918,12162,12879,1,12879,1,0.00086068,2.0154e-09,0,0.00086068,1.2067e-05,2.9644e+08,664.85,0,2.9644e+08,51.43,12878,12168,1,12168,1,0.00039842,-1.1108e-11,0,0.00039842,-7.4525e-05,1.4611e+08,-3.3436,0,1.4611e+08,-17.435,12167,11473,1,11473,1,-6.3844e-05,-1.4445e-09,0,2.2083e-06,-0.00016111,-2.5961e+07,-471.05,0,1.0552e+06,-76.463,11472,11820,1,11820,1,0.00015188,-5.1633e-10,0,0.00015188,-0.00012069,5.7774e+07,-162.38,0,5.7774e+07,-41.89,11819,12516,1,12516,1,0.00064496,3.0909e-10,0,0.00064496,-2.8354e-05,2.2699e+08,92.178,0,2.2699e+08,-3.8087,12515,412.9,0,412.9,0,0.0002843,7.3041e-10,0,0.00027234,5.3244e-05,9.8403e+07,234.9,0,9.3347e+07,25.083,412.9,1
816,3.02,12163,1,12163,1,0.00039997,1.2423e-10,0,0.00040821,-7.4812e-05,1.4211e+08,38.243,0,1.4547e+08,-0.78951,12162,12879,1,12879,1,0.00086381,2.6792e-09,0,0.00086381,1.207e-05,2.9716e+08,871.17,0,2.9716e+08,68.233,12878,12168,1,12168,1,0.00039997,9.1284e-11,0,0.00039997,-7.4815e-05,1.4657e+08,27.451,0,1.4657e+08,2.2464,12167,11473,1,11473,1,-6.3857e-05,-1.4605e-09,0,2.0121e-06,-0.00016169,-2.5966e+07,-474.87,0,9.7911e+05,-66.688,11472,11820,1,11820,1,0.0001526,-4.991e-10,0,0.0001526,-0.00012113,5.802e+07,-155.11,0,5.802e+07,-22.74,11819,12516,1,12516,1,0.00064735,5.9211e-10,0,0.00064735,-2.8488e-05,2.276e+08,180.03,0,2.276e+08,22.729,12515,412.9,0,412.9,0,0.00028526,9.2062e-10,0,0.00027333,5.3425e-05,9.862e+07,295.08,0,9.3574e+07,30.131,412.9,1
816,3.03,12163,1,12163,1,0.00040153,-2.7352e-10,0,0.00040974,-7.5101e-05,1.4252e+08,-87.574,0,1.4588e+08,2.5225,12162,12879,1,12879,1,0.00086693,2.2122e-09,0,0.00086693,1.2074e-05,2.9788e+08,720.23,0,2.9788e+08,74.58,12878,12168,1,12168,1,0.00040153,-6.5614e-11,0,0.00040153,-7.5105e-05,1.4703e+08,-19.279,0,1.4703e+08,1.9073,12167,11473,1,11473,1,-6.3867e-05,-2.6289e-09,0,1.8142e-06,-0.00016227,-2.5971e+07,-854.47,0,9.0235e+05,-72.505,11472,11820,1,11820,1,0.00015332,-1.023e-09,0,0.00015332,-0.00012158,5.8265e+07,-316.17,0,5.8265e+07,-20.901,11819,12516,1,12516,1,0.00064974,3.9148e-10,0,0.00064974,-2.8621e-05,2.282e+08,114.55,0,2.282e+08,27.735,12515,412.9,0,412.9,0,0.00028622,1.1074e-09,0,0.00027433,5.3604e-05,9.8833e+07,354.76,0,9.3798e+07,31.552,412.9,1
816,3.04,12163,1,12163,1,0.00040308,2.8914e-09,0,0.00041126,-7.5389e-05,1.4294e+08,916.34,0,1.4629e+08,2.6319,12162,12879,1,12879,1,0.00087005,8.9082e-09,0,0.00087005,1.2077e-05,2.9859e+08,2894.4,0,2.9859e+08,300.95,12878,12168,1,12168,1,0.00040308,2.4462e-09,0,0.00040308,-7.5394e-05,1.4749e+08,760.84,0,1.4749e+08,-10.183,12167,11473,1,11473,1,-6.3876e-05,-1.2829e-09,0,1.6138e-06,-0.00016285,-2.5974e+07,-370.96,0,8.2464e+05,-142.53,11472,11820,1,11820,1,0.00015404,8.1646e-10,0,0.00015404,-0.00012202,5.851e+07,249.48,0,5.851e+07,-54.912,11819,12516,1,12516,1,0.00065212,4.805e-09,0,0.00065212,-2.8755e-05,2.288e+08,1519,0,2.288e+08,47.805,12515,412.9,0,412.9,0,0.00028718,2.5062e-09,0,0.00027531,5.3783e-05,9.9045e+07,806.82,0,9.4021e+07,83.952,412.9,1
816,3.05,12163,1,12163,1,0.00040464,-7.7204e-10,0,0.0004128,-7.5681e-05,1.4336e+08,-242.02,0,1.467e+08,-38.2,12162,12879,1,12879,1,0.00087318,1.6262e-09,0,0.00087318,1.2079e-05,2.9931e+08,555.38,0,2.9931e+08,54.336,12878,12168,1,12168,1,0.00040464,-5.457e-10,0,0.00040464,-7.5685e-05,1.4795e+08,-163.39,0,1.4795e+08,-39.949,12167,11473,1,11473,1,-6.3887e-05,-3.399e-09,0,1.4141e-06,-0.00016344,-2.5978e+07,-1108.6,0,7.4725e+05,-117.08,11472,11820,1,11820,1,0.00015476,-1.4766e-09,0,0.00015476,-0.00012247,5.8758e+07,-451.58,0,5.8758e+07,-62.448,11819,12516,1,12516,1,0.00065452,-1.208e-11,0,0.00065452,-2.8889e-05,2.294e+08,-4.0062,0,2.294e+08,-17.729,12515,412.9,0,412.9,0,0.00028815,1.1181e-09,0,0.00027632,5.3964e-05,9.9261e+07,359.47,0,9.4248e+07,33.605,412.9,1
816,3.06,12163,1,12163,1,0.00040622,-3.2998e-10,0,0.00041436,-7.5975e-05,1.4378e+08,-105.71,0,1.4711e+08,-21.241,12162,12879,1,12879,1,0.00087634,1.2593e-09,0,0.00087634,1.2081e-05,3.0002e+08,422.18,0,3.0002e+08,46.277,12878,12168,1,12168,1,0.00040622,-1.3886e-10,0,0.00040622,-7.5979e-05,1.4841e+08,-40.93,0,1.4841e+08,-20.425,12167,11473,1,11473,1,-6.389e-05,-2.0136e-09,0,1.2083e-06,-0.00016403,-2.598e+07,-655.44,0,6.6755e+05,-73.979,11472,11820,1,11820,1,0.0001555,-8.2774e-10,0,0.0001555,-0.00012292,5.9007e+07,-256.95,0,5.9007e+07,-40.505,11819,12516,1,12516,1,0.00065695,1.6526e-10,0,0.00065695,-2.9026e-05,2.3001e+08,48.463,0,2.3001e+08,-6.0645,12515,412.9,0,412.9,0,0.00028912,7.4358e-10,0,0.00027732,5.4146e-05,9.9475e+07,238.78,0,9.4473e+07,26.15,412.9,1
816,3.07,12163,1,12163,1,0.0004078,-1.3399e-10,0,0.00041591,-7.6269e-05,1.4419e+08,-43.235,0,1.4752e+08,-1.7744,12162,12879,1,12879,1,0.00087949,7.8516e-10,0,0.00087949,1.2083e-05,3.0073e+08,255.6,0,3.0073e+08,58.936,12878,12168,1,12168,1,0.0004078,4.9454e-12,0,0.0004078,-7.6272e-05,1.4887e+08,1.5136,0,1.4887e+08,-2.5282,12167,11473,1,11473,1,-6.3893e-05,-1.3098e-09,0,1.0002e-06,-0.00016462,-2.5981e+07,-429.88,0,5.8698e+05,-55.29,11472,11820,1,11820,1,0.00015623,-4.499e-10,0,0.00015623,-0.00012337,5.9257e+07,-140.69,0,5.9257e+07,-15.869,11819,12516,1,12516,1,0.00065937,1.9069e-10,0,0.00065937,-2.9162e-05,2.3061e+08,56.227,0,2.3061e+08,13.502,12515,412.9,0,412.9,0,0.0002901,5.0838e-10,0,0.00027833,5.4328e-05,9.9687e+07,163.23,0,9.4697e+07,23.474,412.9,1
816,3.08,12163,1,12163,1,0.00040936,-8.6962e-10,0,0.00041745,-7.656e-05,1.4461e+08,-276.91,0,1.4792e+08,-16.085,12162,12879,1,12879,1,0.00088262,1.1788e-09,0,0.00088262,1.2083e-05,3.0143e+08,384.77,0,3.0143e+08,88.151,12878,12168,1,12168,1,0.00040936,-6.8373e-10,0,0.00040936,-7.6564e-05,1.4933e+08,-211.79,0,1.4933e+08,-16.929,12167,11473,1,11473,1,-6.3891e-05,-3.2376e-09,0,7.8963e-07,-0.0001652,-2.598e+07,-1050.2,0,5.0542e+05,-93.933,11472,11820,1,11820,1,0.00015696,-1.6975e-09,0,0.00015696,-0.00012382,5.9504e+07,-538.97,0,5.9504e+07,-43.963,11819,12516,1,12516,1,0.00066176,6.1512e-11,0,0.00066176,-2.9298e-05,2.312e+08,18.772,0,2.312e+08,7.8628,12515,412.9,0,412.9,0,0.00029106,1.1141e-09,0,0.00027932,5.4507e-05,9.9894e+07,356.37,0,9.4916e+07,36.4,412.9,1
816,3.09,12163,1,12163,1,0.00041094,-7.3795e-10,0,0.000419,-7.6854e-05,1.4502e+08,-235.53,0,1.4833e+08,-8.0372,12162,12879,1,12879,1,0.00088579,5.2012e-10,0,0.00088579,1.2085e-05,3.0214e+08,149.56,0,3.0214e+08,78.424,12878,12168,1,12168,1,0.00041094,-6.1447e-10,0,0.00041094,-7.6858e-05,1.4979e+08,-193.6,0,1.4979e+08,-8.8305,12167,11473,1,11473,1,-6.3891e-05,-2.4199e-09,0,5.7912e-07,-0.00016579,-2.598e+07,-787.64,0,4.2394e+05,-73.777,11472,11820,1,11820,1,0.0001577,-1.2049e-09,0,0.0001577,-0.00012427,5.9754e+07,-380.29,0,5.9754e+07,-35.794,11819,12516,1,12516,1,0.00066419,-2.0951e-10,0,0.00066419,-2.9435e-05,2.318e+08,-61.818,0,2.318e+08,12.876,12515,412.9,0,412.9,0,0.00029203,7.2615e-10,0,0.00028033,5.4689e-05,1.001e+08,233.47,0,9.514e+07,32.909,412.9,1
816,3.1,12163,1,12163,1,0.00041252,8.1646e-10,0,0.00042055,-7.7148e-05,1.4544e+08,256.78,0,1.4873e+08,17.248,12162,12879,1,12879,1,0.00088893,1.6861e-09,0,0.00088893,1.2085e-05,3.0284e+08,541.24,0,3.0284e+08,81.494,12878,12168,1,12168,1,0.00041252,8.1548e-10,0,0.00041252,-7.7152e-05,1.5025e+08,254.33,0,1.5025e+08,17.173,12167,11473,1,11473,1,-6.3887e-05,-2.3447e-10,0,3.646e-07,-0.00016638,-2.5978e+07,-67.206,0,3.4092e+05,-53.089,11472,11820,1,11820,1,0.00015844,4.7677e-10,0,0.00015844,-0.00012472,6.0004e+07,144.49,0,6.0004e+07,2.1619,11819,12516,1,12516,1,0.0006666,1.2569e-09,0,0.0006666,-2.9572e-05,2.3239e+08,397.6,0,2.3239e+08,33.438,12515,412.9,0,412.9,0,0.000293,5.014e-10,0,0.00028133,5.4869e-05,1.0031e+08,161.19,0,9.536e+07,21.726,412.9,1
816,3.11,12163,1,12163,1,0.0004141,-1.5506e-09,0,0.00042211,-7.7443e-05,1.4585e+08,-489.31,0,1.4913e+08,-14.243,12162,12879,1,12879,1,0.0008921,5.8363e-10,0,0.0008921,1.2085e-05,3.0354e+08,167.27,0,3.0354e+08,66.21,12878,12168,1,12168,1,0.0004141,-1.7104e-09,0,0.0004141,-7.7446e-05,1.5071e+08,-532.81,0,1.5071e+08,-10.914,12167,11473,1,11473,1,-6.3881e-05,-3.2654e-09,0,1.4872e-07,-0.00016697,-2.5975e+07,-1057.9,0,2.5739e+05,-113.37,11472,11820,1,11820,1,0.00015918,-2.2593e-09,0,0.00015918,-0.00012517,6.0255e+07,-726.04,0,6.0255e+07,-38.726,11819,12516,1,12516,1,0.00066903,-9.4797e-10,0,0.00066903,-2.9709e-05,2.3298e+08,-281.65,0,2.3298e+08,10.904,12515,412.9,0,412.9,0,0.00029397,9.6557e-10,0,0.00028234,5.505e-05,1.0052e+08,311.24,0,9.558e+07,34.43,412.9,1
816,3.12,12163,1,12163,1,0.00041565,-4.0009e-10,0,0.00042363,-7.7731e-05,1.4625e+08,-129.52,0,1.4952e+08,-8.1396,12162,12879,1,12879,1,0.00089518,7.6694e-09,0,0.00089518,1.2084e-05,3.0421e+08,2482.5,0,3.0421e+08,192.84,12878,12168,1,12168,1,0.00041565,-7.6519e-11,0,0.00041565,-7.7735e-05,1.5116e+08,-23.21,0,1.5116e+08,-18.177,12167,11473,1,11473,1,-6.3867e-05,-7.7342e-09,0,6.9074e-08,-0.00016754,-2.597e+07,-2504.8,0,1.7256e+05,-181.82,11472,11820,1,11820,1,0.00015991,-2.8292e-09,0,0.00015991,-0.00012561,6.0501e+07,-875.68,0,6.0501e+07,-78.324,11819,12516,1,12516,1,0.0006714,1.7241e-09,0,0.0006714,-2.9845e-05,2.3355e+08,533.75,0,2.3355e+08,55.93,12515,412.9,0,412.9,0,0.00029491,3.5397e-09,0,0.00028331,5.5226e-05,1.0071e+08,1125.7,0,9.579e+07,86.394,412.9,1
816,3.13,12163,1,12163,1,0.00041725,-8.0554e-11,0,0.00042524,-7.8029e-05,1.4668e+08,-27.504,0,1.4993e+08,-30.89,12162,12879,1,12879,1,0.00089838,1.7552e-09,0,0.00089838,1.2084e-05,3.0492e+08,593.44,0,3.0492e+08,52.673,12878,12168,1,12168,1,0.00041726,4.0103e-11,0,0.00041726,-7.8033e-05,1.5162e+08,11.961,0,1.5162e+08,-31.16,12167,11473,1,11473,1,-6.3863e-05,-1.6185e-09,0,2.8547e-07,-0.00016814,-2.5968e+07,-547.17,0,88971,-94.077,11472,11820,1,11820,1,0.00016066,-4.6917e-10,0,0.00016066,-0.00012607,6.0755e+07,-144.51,0,6.0755e+07,-54.882,11819,12516,1,12516,1,0.00067385,2.7307e-10,0,0.00067385,-2.9984e-05,2.3416e+08,81.368,0,2.3416e+08,-6.6301,12515,412.9,0,412.9,0,0.00029589,6.8301e-10,0,0.00028429,5.541e-05,1.0093e+08,220.13,0,9.6016e+07,29.97,412.9,1
816,3.14,12163,1,12163,1,0.00041885,1.8679e-09,0,0.00042683,-7.8326e-05,1.4709e+08,586.98,0,1.5034e+08,-13.749,12162,12879,1,12879,1,0.00090156,3.3154e-09,0,0.00090156,1.2083e-05,3.0561e+08,1063.4,0,3.0561e+08,87.457,12878,12168,1,12168,1,0.00041885,2.1916e-09,0,0.00041885,-7.833e-05,1.5208e+08,676.65,0,1.5208e+08,-14.108,12167,11473,1,11473,1,-6.3849e-05,-3.6824e-10,0,5.1118e-07,-0.00016873,-2.5962e+07,-105.13,0,1940.1,-88.699,11472,11820,1,11820,1,0.00016141,1.2584e-09,0,0.00016141,-0.00012653,6.1008e+07,368.09,0,6.1008e+07,-35.057,11819,12516,1,12516,1,0.00067629,2.5472e-09,0,0.00067629,-3.0124e-05,2.3474e+08,820.08,0,2.3474e+08,6.8966,12515,412.9,0,412.9,0,0.00029687,9.6082e-10,0,0.00028526,5.5592e-05,1.0113e+08,313.28,0,9.6232e+07,30.963,412.9,1
816,3.15,12163,1,12163,1,0.00042043,-9.4293e-11,0,0.00042841,-7.862e-05,1.475e+08,-30.026,0,1.5074e+08,-12.773,12162,12879,1,12879,1,0.00090469,4.0313e-09,0,0.00090469,1.2081e-05,3.0629e+08,1304,0,3.0629e+08,98.966,12878,12168,1,12168,1,0.00042043,6.6335e-11,0,0.00042043,-7.8624e-05,1.5253e+08,19.176,0,1.5253e+08,-22.503,12167,11473,1,11473,1,-6.3831e-05,-3.7885e-09,0,7.3735e-07,-0.00016932,-2.5955e+07,-1225.5,0,85138,-97.493,11472,11820,1,11820,1,0.00016216,-1.2662e-09,0,0.00016216,-0.00012698,6.1259e+07,-382.98,0,6.1259e+07,-47.776,11819,12516,1,12516,1,0.0006787,9.5121e-10,0,0.0006787,-3.0262e-05,2.3532e+08,294.84,0,2.3532e+08,18.896,12515,412.9,0,412.9,0,0.00029782,1.7838e-09,0,0.00028621,5.5771e-05,1.0133e+08,566.35,0,9.6428e+07,44.6,412.9,1
816,3.16,12163,1,12163,1,0.00042202,-4.614e-10,0,0.00043,-7.8917e-05,1.4791e+08,-145.57,0,1.5115e+08,-20.353,12162,12879,1,12879,1,0.00090787,1.5001e-09,0,0.00090787,1.2079e-05,3.0697e+08,500.09,0,3.0697e+08,65.756,12878,12168,1,12168,1,0.00042203,-2.1313e-10,0,0.00042203,-7.8922e-05,1.5299e+08,-62.671,0,1.5299e+08,-27.808,12167,11473,1,11473,1,-6.3815e-05,-2.9203e-09,0,9.6394e-07,-0.00016991,-2.5948e+07,-944.19,0,1.7264e+05,-88.24,11472,11820,1,11820,1,0.00016291,-1.034e-09,0,0.00016291,-0.00012743,6.1512e+07,-317.62,0,6.1512e+07,-43.542,11819,12516,1,12516,1,0.00068114,1.7731e-10,0,0.00068114,-3.0402e-05,2.3591e+08,51.366,0,2.3591e+08,0.60837,12515,412.9,0,412.9,0,0.0002988,9.6583e-10,0,0.00028718,5.5952e-05,1.0153e+08,308.5,0,9.6629e+07,31.375,412.9,1
816,3.17,12163,1,12163,1,0.00042362,2.4112e-09,0,0.0004316,-7.9215e-05,1.4832e+08,756.48,0,1.5156e+08,-20.151,12162,12879,1,12879,1,0.00091105,5.4336e-09,0,0.00091105,1.2077e-05,3.0766e+08,1755.9,0,3.0766e+08,165.45,12878,12168,1,12168,1,0.00042362,2.4846e-09,0,0.00042362,-7.9219e-05,1.5345e+08,772.1,0,1.5345e+08,-19.837,12167,11473,1,11473,1,-6.3796e-05,-5.9514e-10,0,1.1943e-06,-0.0001705,-2.594e+07,-169.25,0,2.6161e+05,-149.48,11472,11820,1,11820,1,0.00016367,1.5521e-09,0,0.00016367,-0.00012788,6.1766e+07,454.09,0,6.1766e+07,-51.151,11819,12516,1,12516,1,0.00068358,3.3657e-09,0,0.00068358,-3.0542e-05,2.3649e+08,1066.3,0,2.3649e+08,11.443,12515,412.9,0,412.9,0,0.00029977,1.422e-09,0,0.00028815,5.6134e-05,1.0173e+08,460.54,0,9.6826e+07,52.935,412.9,1
816,3.18,12163,1,12163,1,0.00042521,-1.3185e-09,0,0.00043318,-7.9511e-05,1.4873e+08,-413.17,0,1.5197e+08,-25.111,12162,12879,1,12879,1,0.00091421,2.4129e-09,0,0.00091421,1.2073e-05,3.0833e+08,798.5,0,3.0833e+08,83.601,12878,12168,1,12168,1,0.00042521,-1.0967e-09,0,0.00042521,-7.9515e-05,1.539e+08,-332.62,0,1.539e+08,-22.085,12167,11473,1,11473,1,-6.3771e-05,-4.7582e-09,0,1.4273e-06,-0.00017109,-2.593e+07,-1537.2,0,3.5159e+05,-112.11,11472,11820,1,11820,1,0.00016442,-2.6237e-09,0,0.00016442,-0.00012834,6.2019e+07,-814.22,0,6.2019e+07,-60.743,11819,12516,1,12516,1,0.000686,-1.4049e-12,0,0.000686,-3.0683e-05,2.3706e+08,-0.58171,0,2.3706e+08,4.5681,12515,412.9,0,412.9,0,0.00030073,1.7169e-09,0,0.00028912,5.6313e-05,1.0192e+08,546.24,0,9.702e+07,45.467,412.9,1
816,3.19,12163,1,12163,1,0.00042683,1.8118e-09,0,0.00043479,-7.9811e-05,1.4914e+08,568.91,0,1.5238e+08,-6.5832,12162,12879,1,12879,1,0.00091741,3.3327e-09,0,0.00091741,1.207e-05,3.0901e+08,1076.2,0,3.0901e+08,70.787,12878,12168,1,12168,1,0.00042683,2.1896e-09,0,0.00042683,-7.9815e-05,1.5436e+08,677.07,0,1.5436e+08,-7.2357,12167,11473,1,11473,1,-6.3749e-05,-4.9344e-10,0,1.6611e-06,-0.00017169,-2.5921e+07,-139.83,0,4.418e+05,-51.122,11472,11820,1,11820,1,0.00016519,1.1219e-09,0,0.00016519,-0.0001288,6.2275e+07,326.38,0,6.2275e+07,-24.583,11819,12516,1,12516,1,0.00068847,2.5468e-09,0,0.00068847,-3.0824e-05,2.3765e+08,818.93,0,2.3765e+08,8.9572,12515,412.9,0,412.9,0,0.00030171,1.0203e-09,0,0.00029009,5.6496e-05,1.0213e+08,329.59,0,9.7218e+07,22.879,412.9,1
816,3.2,12163,1,12163,1,0.00042842,-1.6159e-09,0,0.00043639,-8.0108e-05,1.4955e+08,-506.44,0,1.5279e+08,-11.103,12162,12879,1,12879,1,0.00092058,1.0503e-09,0,0.00092058,1.2066e-05,3.0968e+08,354.66,0,3.0968e+08,145.48,12878,12168,1,12168,1,0.00042843,-1.0948e-09,0,0.00042843,-8.0113e-05,1.5482e+08,-321.95,0,1.5482e+08,-14.417,12167,11473,1,11473,1,-6.372e-05,-5.8757e-09,0,1.8996e-06,-0.00017228,-2.591e+07,-1896.6,0,5.3383e+05,-116.73,11472,11820,1,11820,1,0.00016595,-2.8908e-09,0,0.00016595,-0.00012925,6.253e+07,-911.48,0,6.253e+07,-48.797,11819,12516,1,12516,1,0.0006909,-4.8381e-11,0,0.0006909,-3.0966e-05,2.3822e+08,-13.88,0,2.3822e+08,13.606,12515,412.9,0,412.9,0,0.00030267,1.8926e-09,0,0.00029106,5.6676e-05,1.0232e+08,601.72,0,9.741e+07,50.503,412.9,1
816,3.21,12163,1,12163,1,0.00043002,1.6501e-09,0,0.00043798,-8.0406e-05,1.4995e+08,514.94,0,1.5319e+08,-38.151,12162,12879,1,12879,1,0.00092374,6.3024e-09,0,0.00092374,1.2062e-05,3.1034e+08,2030.8,0,3.1034e+08,148.08,12878,12168,1,12168,1,0.00043002,1.0565e-09,0,0.00043002,-8.041e-05,1.5527e+08,322.4,0,1.5527e+08,-31.163,12167,11473,1,11473,1,-6.369e-05,-1.061e-09,0,2.1387e-06,-0.00017287,-2.5897e+07,-349.81,0,6.2604e+05,-248.15,11472,11820,1,11820,1,0.00016671,1.4438e-10,0,0.00016671,-0.0001297,6.2785e+07,42.195,0,6.2785e+07,-76.586,11819,12516,1,12516,1,0.00069334,2.8703e-09,0,0.00069334,-3.1107e-05,2.3879e+08,891.17,0,2.3879e+08,15.071,12515,412.9,0,412.9,0,0.00030364,1.886e-09,0,0.00029202,5.6856e-05,1.0251e+08,600.3,0,9.7601e+07,70.65,412.9,1
816,3.22,12163,1,12163,1,0.00043163,-1.68e-09,0,0.00043959,-8.0705e-05,1.5036e+08,-527.08,0,1.536e+08,-40.029,12162,12879,1,12879,1,0.00092694,1.8865e-09,0,0.00092694,1.2057e-05,3.1101e+08,636.94,0,3.1101e+08,76.066,12878,12168,1,12168,1,0.00043163,-1.3337e-09,0,0.00043163,-8.071e-05,1.5572e+08,-400.44,0,1.5572e+08,-37.335,12167,11473,1,11473,1,-6.3659e-05,-5.7866e-09,0,2.3802e-06,-0.00017346,-2.5884e+07,-1866.2,0,7.1914e+05,-135.27,11472,11820,1,11820,1,0.00016748,-3.1214e-09,0,0.00016748,-0.00013016,6.3041e+07,-981.4,0,6.3041e+07,-83.666,11819,12516,1,12516,1,0.00069579,9.6985e-13,0,0.00069579,-3.125e-05,2.3936e+08,0.38789,0,2.3936e+08,-2.363,12515,412.9,0,412.9,0,0.00030461,1.9551e-09,0,0.00029299,5.7038e-05,1.027e+08,622.62,0,9.7794e+07,51.885,412.9,1
816,3.23,12163,1,12163,1,0.00043326,-4.8091e-11,0,0.00044121,-8.1007e-05,1.5077e+08,-17.687,0,1.5401e+08,-27.035,12162,12879,1,12879,1,0.00093014,7.9123e-10,0,0.00093014,1.2052e-05,3.1168e+08,239.15,0,3.1168e+08,63.874,12878,12168,1,12168,1,0.00043326,2.9541e-11,0,0.00043326,-8.1012e-05,1.5618e+08,9.1947,0,1.5618e+08,-24.985,12167,11473,1,11473,1,-6.3626e-05,-9.2395e-10,0,2.625e-06,-0.00017406,-2.5871e+07,-292.02,0,8.135e+05,-132.37,11472,11820,1,11820,1,0.00016825,-4.3784e-10,0,0.00016825,-0.00013062,6.3299e+07,-135.85,0,6.3299e+07,-49.101,11819,12516,1,12516,1,0.00069826,3.0876e-10,0,0.00069826,-3.1393e-05,2.3994e+08,91.71,0,2.3994e+08,3.8367,12515,412.9,0,412.9,0,0.00030559,4.4927e-10,0,0.00029397,5.722e-05,1.029e+08,139.26,0,9.7987e+07,37.586,412.9,1
816,3.24,12163,1,12163,1,0.00043487,-2.5357e-09,0,0.00044282,-8.1309e-05,1.5118e+08,-795.52,0,1.5441e+08,-15.803,12162,12879,1,12879,1,0.00093336,9.229e-10,0,0.00093336,1.2047e-05,3.1234e+08,260.2,0,3.1234e+08,86.672,12878,12168,1,12168,1,0.00043487,-2.8306e-09,0,0.00043487,-8.1313e-05,1.5664e+08,-883.54,0,1.5664e+08,-14.29,12167,11473,1,11473,1,-6.3589e-05,-5.18e-09,0,2.8733e-06,-0.00017466,-2.5856e+07,-1669.1,0,9.0918e+05,-139.95,11472,11820,1,11820,1,0.00016903,-3.7965e-09,0,0.00016903,-0.00013108,6.3557e+07,-1207.2,0,6.3557e+07,-52.276,11819,12516,1,12516,1,0.00070072,-1.4354e-09,0,0.00070072,-3.1537e-05,2.4051e+08,-415.19,0,2.4051e+08,20.139,12515,412.9,0,412.9,0,0.00030656,1.5778e-09,0,0.00029495,5.7402e-05,1.0309e+08,508.35,0,9.8176e+07,49.177,412.9,1
816,3.25,12163,1,12163,1,0.00043646,-1.7643e-09,0,0.0004444,-8.1604e-05,1.5157e+08,-556.02,0,1.548e+08,-14.15,12162,12879,1,12879,1,0.00093649,3.0443e-09,0,0.00093649,1.204e-05,3.1297e+08,970.32,0,3.1297e+08,165.35,12878,12168,1,12168,1,0.00043646,-1.2254e-09,0,0.00043646,-8.1609e-05,1.5708e+08,-363.29,0,1.5708e+08,-16.636,12167,11473,1,11473,1,-6.3544e-05,-7.7538e-09,0,3.1221e-06,-0.00017524,-2.5838e+07,-2497.4,0,1.005e+06,-568.35,11472,11820,1,11820,1,0.00016979,-3.6833e-09,0,0.00016979,-0.00013153,6.3811e+07,-1153.4,0,6.3811e+07,-62.078,11819,12516,1,12516,1,0.00070313,3.0425e-10,0,0.00070313,-3.1679e-05,2.4106e+08,87.569,0,2.4106e+08,27.451,12515,412.9,0,412.9,0,0.00030751,2.6596e-09,0,0.0002959,5.7579e-05,1.0327e+08,843.11,0,9.8358e+07,72.003,412.9,1
816,3.26,12163,1,12163,1,0.00043809,-1.529e-09,0,0.00044603,-8.1908e-05,1.5199e+08,-482.19,0,1.5521e+08,-33.221,12162,12879,1,12879,1,0.00093972,9.0923e-10,0,0.00093972,1.2035e-05,3.1365e+08,255.93,0,3.1365e+08,129.72,12878,12168,1,12168,1,0.0004381,-1.1167e-09,0,0.0004381,-8.1913e-05,1.5754e+08,-335.76,0,1.5754e+08,-28.164,12167,11473,1,11473,1,-6.351e-05,-5.36e-09,0,3.3698e-06,-0.00017585,-2.5824e+07,-1725.5,0,1.1004e+06,-473,11472,11820,1,11820,1,0.00017057,-2.6356e-09,0,0.00017057,-0.00013199,6.4071e+07,-820.95,0,6.4071e+07,-59.882,11819,12516,1,12516,1,0.00070562,-2.4091e-10,0,0.00070562,-3.1824e-05,2.4164e+08,-74.345,0,2.4164e+08,2.9617,12515,412.9,0,412.9,0,0.00030849,1.6037e-09,0,0.00029688,5.7763e-05,1.0347e+08,512.21,0,9.8552e+07,74.732,412.9,1
816,3.27,12163,1,12163,1,0.00043973,9.8118e-11,0,0.00044766,-8.2212e-05,1.5239e+08,26.644,0,1.5562e+08,-35.77,12162,12879,1,12879,1,0.00094293,8.4348e-10,0,0.00094293,1.2027e-05,3.143e+08,271.45,0,3.143e+08,46.921,12878,12168,1,12168,1,0.00043973,2.2698e-10,0,0.00043973,-8.2217e-05,1.5799e+08,65.788,0,1.5799e+08,-24.436,12167,11473,1,11473,1,-6.3465e-05,-1.0842e-09,0,3.6274e-06,-0.00017644,-2.5805e+07,-370,0,1.1995e+06,-327.41,11472,11820,1,11820,1,0.00017136,-1.0679e-10,0,0.00017136,-0.00013245,6.4332e+07,-34.026,0,6.4332e+07,-59.603,11819,12516,1,12516,1,0.0007081,3.5122e-10,0,0.0007081,-3.197e-05,2.4221e+08,103.57,0,2.4221e+08,0.75596,12515,412.9,0,412.9,0,0.00030947,4.2232e-10,0,0.00029787,5.7945e-05,1.0365e+08,133.77,0,9.8739e+07,58.635,412.9,1
816,3.28,12163,1,12163,1,0.00044135,5.8724e-11,0,0.00044928,-8.2513e-05,1.5279e+08,16.504,0,1.5602e+08,-12.564,12162,12879,1,12879,1,0.00094612,4.0389e-09,0,0.00094612,1.202e-05,3.1494e+08,1299.3,0,3.1494e+08,106.07,12878,12168,1,12168,1,0.00044135,1.2425e-10,0,0.00044135,-8.2518e-05,1.5844e+08,35.169,0,1.5844e+08,-15.336,12167,11473,1,11473,1,-6.3416e-05,-3.5758e-09,0,3.8864e-06,-0.00017704,-2.5785e+07,-1150.2,0,1.2993e+06,-124.55,11472,11820,1,11820,1,0.00017214,-1.1789e-09,0,0.00017214,-0.00013291,6.459e+07,-359.73,0,6.459e+07,-50.362,11819,12516,1,12516,1,0.00071056,1.2124e-09,0,0.00071056,-3.2115e-05,2.4276e+08,365.67,0,2.4276e+08,23.822,12515,412.9,0,412.9,0,0.00031044,1.8194e-09,0,0.00029883,5.8125e-05,1.0384e+08,573.87,0,9.8922e+07,48.206,412.9,1
816,3.29,12163,1,12163,1,0.00044297,2.3214e-09,0,0.00045089,-8.2815e-05,1.5319e+08,726.48,0,1.5641e+08,17,12162,12879,1,12879,1,0.00094933,8.3443e-09,0,0.00094933,1.2013e-05,3.1559e+08,2740.3,0,3.1559e+08,321.87,12878,12168,1,12168,1,0.00044297,1.652e-09,0,0.00044297,-8.282e-05,1.5889e+08,512.51,0,1.5889e+08,0.85509,12167,11473,1,11473,1,-6.3369e-05,-1.1722e-09,0,4.1436e-06,-0.00017764,-2.5766e+07,-328.38,0,1.3982e+06,-142.16,11472,11820,1,11820,1,0.00017292,3.3428e-10,0,0.00017292,-0.00013337,6.4849e+07,99.127,0,6.4849e+07,-41.997,11819,12516,1,12516,1,0.00071302,4.0293e-09,0,0.00071302,-3.226e-05,2.4332e+08,1244.3,0,2.4332e+08,54.237,12515,412.9,0,412.9,0,0.0003114,2.4146e-09,0,0.00029981,5.8306e-05,1.0402e+08,765.14,0,9.9105e+07,80.202,412.9,1
816,3.3,12163,1,12163,1,0.00044459,5.2499e-10,0,0.0004525,-8.3116e-05,1.5359e+08,165.54,0,1.5681e+08,-34.386,12162,12879,1,12879,1,0.00095251,7.5953e-09,0,0.00095251,1.2004e-05,3.1622e+08,2500.1,0,3.1622e+08,119.27,12878,12168,1,12168,1,0.00044459,6.0046e-11,0,0.00044459,-8.3121e-05,1.5934e+08,16.66,0,1.5934e+08,-34.648,12167,11473,1,11473,1,-6.3316e-05,-3.6336e-09,0,4.4044e-06,-0.00017823,-2.5744e+07,-1196.3,0,1.4984e+06,-392.57,11472,11820,1,11820,1,0.00017371,-9.7852e-10,0,0.00017371,-0.00013383,6.5108e+07,-283.92,0,6.5108e+07,-70.878,11819,12516,1,12516,1,0.00071548,1.6847e-09,0,0.00071548,-3.2405e-05,2.4388e+08,518.73,0,2.4388e+08,11.2,12515,412.9,0,412.9,0,0.00031237,2.3166e-09,0,0.00030077,5.8486e-05,1.042e+08,732.96,0,9.9287e+07,72.564,412.9,1
816,3.31,12163,1,12163,1,0.00044624,-1.8717e-09,0,0.00045415,-8.3424e-05,1.54e+08,-583.13,0,1.5722e+08,-55.253,12162,12879,1,12879,1,0.00095577,8.6522e-10,0,0.00095577,1.1996e-05,3.1688e+08,241.64,0,3.1688e+08,74.849,12878,12168,1,12168,1,0.00044625,-1.8486e-09,0,0.00044625,-8.3429e-05,1.598e+08,-561.2,0,1.598e+08,-38.623,12167,11473,1,11473,1,-6.3268e-05,-5.111e-09,0,4.6679e-06,-0.00017884,-2.5725e+07,-1681.9,0,1.5997e+06,-703.99,11472,11820,1,11820,1,0.00017451,-3.0295e-09,0,0.00017451,-0.00013429,6.5372e+07,-946.41,0,6.5372e+07,-83.665,11819,12516,1,12516,1,0.00071799,-8.0646e-10,0,0.00071799,-3.2553e-05,2.4445e+08,-242.23,0,2.4445e+08,-8.1156,12515,412.9,0,412.9,0,0.00031336,1.3729e-09,0,0.00030177,5.8671e-05,1.0439e+08,438.2,0,9.9475e+07,78.641,412.9,1
816,3.32,12163,1,12163,1,0.00044789,1.5776e-10,0,0.00045579,-8.3729e-05,1.544e+08,46.054,0,1.5761e+08,-27.755,12162,12879,1,12879,1,0.00095899,1.9968e-09,0,0.00095899,1.1986e-05,3.175e+08,642.91,0,3.175e+08,69.214,12878,12168,1,12168,1,0.00044789,2.6262e-10,0,0.00044789,-8.3734e-05,1.6025e+08,74.361,0,1.6025e+08,-27.652,12167,11473,1,11473,1,-6.3208e-05,-1.9555e-09,0,4.9373e-06,-0.00017944,-2.57e+07,-642.95,0,1.7032e+06,-101.6,11472,11820,1,11820,1,0.0001753,-3.1161e-10,0,0.0001753,-0.00013476,6.5634e+07,-93.591,0,6.5634e+07,-54.712,11819,12516,1,12516,1,0.00072047,6.6876e-10,0,0.00072047,-3.2701e-05,2.45e+08,200.34,0,2.45e+08,-3.6108,12515,412.9,0,412.9,0,0.00031433,8.7408e-10,0,0.00030274,5.8852e-05,1.0457e+08,276.18,0,9.9654e+07,35.196,412.9,1
816,3.33,12163,1,12163,1,0.00044953,-3.2703e-11,0,0.00045742,-8.4034e-05,1.548e+08,-12.929,0,1.5801e+08,-12.934,12162,12879,1,12879,1,0.00096221,2.9762e-09,0,0.00096221,1.1977e-05,3.1814e+08,958.14,0,3.1814e+08,88.643,12878,12168,1,12168,1,0.00044953,-2.6772e-11,0,0.00044953,-8.4039e-05,1.607e+08,-7.5671,0,1.607e+08,-8.6255,12167,11473,1,11473,1,-6.3149e-05,-1.9535e-09,0,5.2074e-06,-0.00018004,-2.5676e+07,-626.92,0,1.807e+06,-99.909,11472,11820,1,11820,1,0.0001761,-7.6741e-10,0,0.0001761,-0.00013522,6.5896e+07,-238.81,0,6.5896e+07,-36.13,11819,12516,1,12516,1,0.00072296,4.9198e-10,0,0.00072296,-3.2849e-05,2.4555e+08,142.24,0,2.4555e+08,9.8914,12515,412.9,0,412.9,0,0.0003153,1.0485e-09,0,0.00030372,5.9034e-05,1.0475e+08,330.29,0,9.9834e+07,36.579,412.9,1
816,3.34,12163,1,12163,1,0.00045118,1.5264e-09,0,0.00045907,-8.4342e-05,1.5521e+08,473.79,0,1.5841e+08,3.4857,12162,12879,1,12879,1,0.00096546,4.066e-09,0,0.00096546,1.1967e-05,3.1878e+08,1314.3,0,3.1878e+08,129.22,12878,12168,1,12168,1,0.00045118,1.3199e-09,0,0.00045118,-8.4347e-05,1.6115e+08,409.35,0,1.6115e+08,-1.0163,12167,11473,1,11473,1,-6.309e-05,-4.5865e-10,0,5.4798e-06,-0.00018064,-2.5652e+07,-127.67,0,1.9115e+06,-63.464,11472,11820,1,11820,1,0.0001769,8.2785e-10,0,0.0001769,-0.00013568,6.6161e+07,246.8,0,6.6161e+07,-20.946,11819,12516,1,12516,1,0.00072546,2.2848e-09,0,0.00072546,-3.2998e-05,2.4611e+08,699.97,0,2.4611e+08,21.158,12515,412.9,0,412.9,0,0.00031628,1.0598e-09,0,0.00030471,5.9217e-05,1.0493e+08,339.5,0,1.0002e+08,34.055,412.9,1
816,3.35,12163,1,12163,1,0.00045284,-7.9869e-10,0,0.00046071,-8.465e-05,1.5561e+08,-247.23,0,1.5881e+08,-19.498,12162,12879,1,12879,1,0.0009687,4.1106e-10,0,0.0009687,1.1956e-05,3.1941e+08,114.11,0,3.1941e+08,55.07,12878,12168,1,12168,1,0.00045284,-9.1153e-10,0,0.00045284,-8.4655e-05,1.616e+08,-280.54,0,1.616e+08,-17.925,12167,11473,1,11473,1,-6.3025e-05,-1.4595e-09,0,5.7564e-06,-0.00018125,-2.5626e+07,-456.39,0,2.0177e+06,-87.913,11472,11820,1,11820,1,0.00017771,-1.1993e-09,0,0.00017771,-0.00013615,6.6425e+07,-376.45,0,6.6425e+07,-43.697,11819,12516,1,12516,1,0.00072796,-5.2086e-10,0,0.00072796,-3.3148e-05,2.4666e+08,-153.48,0,2.4666e+08,4.3718,12515,412.9,0,412.9,0,0.00031726,4.7678e-10,0,0.00030569,5.94e-05,1.0511e+08,149.9,0,1.0019e+08,28.627,412.9,1
816,3.36,12163,1,12163,1,0.00045447,3.0551e-09,0,0.00046234,-8.4953e-05,1.56e+08,947.59,0,1.592e+08,19.224,12162,12879,1,12879,1,0.00097191,8.8768e-09,0,0.00097191,1.1945e-05,3.2002e+08,2847.5,0,3.2002e+08,333.84,12878,12168,1,12168,1,0.00045447,2.541e-09,0,0.00045447,-8.4958e-05,1.6205e+08,780.17,0,1.6205e+08,-2.4537,12167,11473,1,11473,1,-6.2957e-05,-7.7784e-10,0,6.0339e-06,-0.00018184,-2.5598e+07,-215.73,0,2.1242e+06,-111.57,11472,11820,1,11820,1,0.00017851,1.1937e-09,0,0.00017851,-0.00013661,6.6686e+07,362.22,0,6.6686e+07,-38.535,11819,12516,1,12516,1,0.00073043,4.7128e-09,0,0.00073043,-3.3295e-05,2.472e+08,1449.6,0,2.472e+08,44.952,12515,412.9,0,412.9,0,0.00031822,2.3905e-09,0,0.00030666,5.9579e-05,1.0528e+08,760.3,0,1.0037e+08,80.246,412.9,1
816,3.37,12163,1,12163,1,0.00045613,1.1039e-09,0,0.00046399,-8.5262e-05,1.564e+08,347.5,0,1.596e+08,-3.8899,12162,12879,1,12879,1,0.00097517,3.852e-09,0,0.00097517,1.1934e-05,3.2065e+08,1280,0,3.2065e+08,148.89,12878,12168,1,12168,1,0.00045613,8.4576e-10,0,0.00045613,-8.5268e-05,1.625e+08,260.93,0,1.625e+08,-14.747,12167,11473,1,11473,1,-6.2891e-05,-7.1486e-10,0,6.3107e-06,-0.00018245,-2.5571e+07,-198.39,0,2.2302e+06,-81.814,11472,11820,1,11820,1,0.00017932,2.4916e-10,0,0.00017932,-0.00013708,6.6952e+07,71.72,0,6.6952e+07,-33.713,11819,12516,1,12516,1,0.00073294,1.8087e-09,0,0.00073294,-3.3446e-05,2.4775e+08,557.54,0,2.4775e+08,17.184,12515,412.9,0,412.9,0,0.0003192,1.1234e-09,0,0.00030765,5.9763e-05,1.0546e+08,358.71,0,1.0055e+08,40.174,412.9,1
816,3.38,12163,1,12163,1,0.00045774,-2.2377e-09,0,0.00046559,-8.5562e-05,1.5678e+08,-694.21,0,1.5997e+08,-38.546,12162,12879,1,12879,1,0.00097832,5.7602e-09,0,0.00097832,1.1922e-05,3.2124e+08,1882.2,0,3.2124e+08,276.71,12878,12168,1,12168,1,0.00045775,-1.3393e-09,0,0.00045775,-8.5568e-05,1.6293e+08,-394.1,0,1.6293e+08,-52.386,12167,11473,1,11473,1,-6.2814e-05,-1.1761e-08,0,6.5941e-06,-0.00018304,-2.554e+07,-3766.1,0,2.3389e+06,-266.8,11472,11820,1,11820,1,0.00018011,-5.1216e-09,0,0.00018011,-0.00013753,6.7212e+07,-1551.5,0,6.7212e+07,-119.46,11819,12516,1,12516,1,0.00073538,8.0931e-10,0,0.00073538,-3.3593e-05,2.4827e+08,241.17,0,2.4827e+08,31.258,12515,412.9,0,412.9,0,0.00032015,4.2667e-09,0,0.0003086,5.9939e-05,1.0562e+08,1337.7,0,1.0071e+08,107.94,412.9,1
816,3.39,12163,1,12163,1,0.00045944,1.1457e-09,0,0.00046728,-8.5877e-05,1.572e+08,352.39,0,1.6038e+08,-63.388,12162,12879,1,12879,1,0.00098163,1.8658e-09,0,0.00098163,1.1911e-05,3.2189e+08,588.61,0,3.2189e+08,42.88,12878,12168,1,12168,1,0.00045944,1.3458e-09,0,0.00045944,-8.5883e-05,1.634e+08,414.51,0,1.634e+08,-67.577,12167,11473,1,11473,1,-6.2752e-05,-4.0977e-10,0,6.8732e-06,-0.00018366,-2.5514e+07,-113.44,0,2.4458e+06,-144.65,11472,11820,1,11820,1,0.00018094,8.4134e-10,0,0.00018094,-0.00013801,6.7482e+07,242.12,0,6.7482e+07,-102.09,11819,12516,1,12516,1,0.00073794,1.6303e-09,0,0.00073794,-3.3746e-05,2.4884e+08,505.59,0,2.4884e+08,-26.035,12515,412.9,0,412.9,0,0.00032115,6.1081e-10,0,0.00030961,6.0126e-05,1.058e+08,190.9,0,1.009e+08,44.806,412.9,1
816,3.4,12163,1,12163,1,0.00046111,-1.4612e-09,0,0.00046894,-8.6188e-05,1.5759e+08,-452.06,0,1.6078e+08,-32.265,12162,12879,1,12879,1,0.0009849,4.6489e-10,0,0.0009849,1.1897e-05,3.225e+08,128.22,0,3.225e+08,71.68,12878,12168,1,12168,1,0.00046111,-1.7823e-09,0,0.00046111,-8.6194e-05,1.6384e+08,-542.22,0,1.6384e+08,-28.97,12167,11473,1,11473,1,-6.2669e-05,-2.3476e-09,0,7.1681e-06,-0.00018427,-2.5481e+07,-756.94,0,2.5587e+06,-116.59,11472,11820,1,11820,1,0.00018176,-2.1097e-09,0,0.00018176,-0.00013848,6.775e+07,-673.57,0,6.775e+07,-49.45,11819,12516,1,12516,1,0.00074046,-9.5345e-10,0,0.00074046,-3.3899e-05,2.4938e+08,-272.27,0,2.4938e+08,-15.483,12515,412.9,0,412.9,0,0.00032213,8.0302e-10,0,0.0003106,6.0309e-05,1.0597e+08,256.7,0,1.0107e+08,25.625,412.9,1
816,3.41,12163,1,12163,1,0.00046276,-5.0047e-10,0,0.00047058,-8.6495e-05,1.5798e+08,-159.24,0,1.6116e+08,-15.888,12162,12879,1,12879,1,0.00098812,2.892e-09,0,0.00098812,1.1883e-05,3.2309e+08,921.05,0,3.2309e+08,91.484,12878,12168,1,12168,1,0.00046276,-1.8617e-10,0,0.00046276,-8.6501e-05,1.6429e+08,-55.586,0,1.6429e+08,-20.561,12167,11473,1,11473,1,-6.2587e-05,-3.9482e-09,0,7.4595e-06,-0.00018487,-2.5447e+07,-1262.5,0,2.6702e+06,-113.71,11472,11820,1,11820,1,0.00018258,-1.6131e-09,0,0.00018258,-0.00013894,6.8015e+07,-497.88,0,6.8015e+07,-53.028,11819,12516,1,12516,1,0.00074295,6.02e-10,0,0.00074295,-3.405e-05,2.4991e+08,176.66,0,2.4991e+08,17.316,12515,412.9,0,412.9,0,0.0003231,1.6084e-09,0,0.00031158,6.0489e-05,1.0614e+08,503.19,0,1.0123e+08,48.17,412.9,1
816,3.42,12163,1,12163,1,0.00046444,2.0395e-10,0,0.00047225,-8.6807e-05,1.5838e+08,60.98,0,1.6156e+08,-13.676,12162,12879,1,12879,1,0.00099139,4.3591e-10,0,0.00099139,1.187e-05,3.2371e+08,125.7,0,3.2371e+08,46.081,12878,12168,1,12168,1,0.00046444,2.3898e-10,0,0.00046444,-8.6813e-05,1.6474e+08,70.934,0,1.6474e+08,-13.118,12167,11473,1,11473,1,-6.251e-05,-1.6525e-10,0,7.75e-06,-0.00018547,-2.5415e+07,-54.219,0,2.7813e+06,-73.636,11472,11820,1,11820,1,0.0001834,1.0235e-10,0,0.0001834,-0.00013941,6.8284e+07,30.505,0,6.8284e+07,-33.232,11819,12516,1,12516,1,0.00074548,3.2503e-10,0,0.00074548,-3.4203e-05,2.5046e+08,99.437,0,2.5046e+08,4.9879,12515,412.9,0,412.9,0,0.00032408,1.4777e-10,0,0.00031257,6.0673e-05,1.0631e+08,44.573,0,1.0141e+08,24.481,412.9,1
816,3.43,12163,1,12163,1,0.00046611,3.298e-09,0,0.00047391,-8.7117e-05,1.5877e+08,1020.7,0,1.6194e+08,37.562,12162,12879,1,12879,1,0.00099466,7.1661e-09,0,0.00099466,1.1856e-05,3.2431e+08,2269.6,0,3.2431e+08,298.06,12878,12168,1,12168,1,0.00046611,3.4434e-09,0,0.00046611,-8.7123e-05,1.6518e+08,1049.8,0,1.6518e+08,15.698,12167,11473,1,11473,1,-6.2424e-05,-1.0961e-09,0,8.0478e-06,-0.00018608,-2.538e+07,-301.03,0,2.8952e+06,-63.655,11472,11820,1,11820,1,0.00018422,1.7964e-09,0,0.00018422,-0.00013988,6.8551e+07,518.34,0,6.8551e+07,-16.421,11819,12516,1,12516,1,0.00074799,5.0585e-09,0,0.00074799,-3.4355e-05,2.5099e+08,1551.2,0,2.5099e+08,72.645,12515,412.9,0,412.9,0,0.00032505,2.1753e-09,0,0.00031355,6.0855e-05,1.0647e+08,691.06,0,1.0157e+08,73.34,412.9,1
816,3.44,12163,1,12163,1,0.00046777,-1.7506e-09,0,0.00047556,-8.7425e-05,1.5916e+08,-538.39,0,1.6233e+08,-40.201,12162,12879,1,12879,1,0.00099788,2.5694e-09,0,0.00099788,1.1841e-05,3.249e+08,848.63,0,3.249e+08,136.17,12878,12168,1,12168,1,0.00046777,-1.5757e-09,0,0.00046777,-8.7432e-05,1.6562e+08,-476.39,0,1.6562e+08,-42.104,12167,11473,1,11473,1,-6.2336e-05,-5.6743e-09,0,8.3449e-06,-0.00018668,-2.5345e+07,-1808.9,0,3.0087e+06,-148.81,11472,11820,1,11820,1,0.00018505,-3.2416e-09,0,0.00018505,-0.00014034,6.8817e+07,-987.28,0,6.8817e+07,-78.847,11819,12516,1,12516,1,0.00075049,-7.8315e-11,0,0.00075049,-3.4508e-05,2.5152e+08,-21.911,0,2.5152e+08,-8.5214,12515,412.9,0,412.9,0,0.00032602,1.9795e-09,0,0.00031453,6.1035e-05,1.0663e+08,619.2,0,1.0174e+08,52.878,412.9,1
816,3.45,12163,1,12163,1,0.00046945,4.4983e-09,0,0.00047723,-8.7737e-05,1.5955e+08,1388.9,0,1.6272e+08,34.482,12162,12879,1,12879,1,0.0010012,9.3212e-09,0,0.0010012,1.1827e-05,3.2551e+08,2985.6,0,3.2551e+08,373.96,12878,12168,1,12168,1,0.00046945,4.9028e-09,0,0.00046945,-8.7744e-05,1.6607e+08,1492.8,0,1.6607e+08,9.4333,12167,11473,1,11473,1,-6.225e-05,-1.2752e-09,0,8.644e-06,-0.0001873,-2.531e+07,-349.22,0,3.123e+06,-85.072,11472,11820,1,11820,1,0.00018588,2.6451e-09,0,0.00018588,-0.00014081,6.9086e+07,750.24,0,6.9086e+07,-32.076,11819,12516,1,12516,1,0.00075302,6.564e-09,0,0.00075302,-3.4661e-05,2.5205e+08,2029.6,0,2.5205e+08,75.838,12515,412.9,0,412.9,0,0.000327,2.7542e-09,0,0.00031552,6.1218e-05,1.068e+08,878.18,0,1.0191e+08,92.595,412.9,1
816,3.46,12163,1,12163,1,0.00047114,7.6799e-10,0,0.00047891,-8.8053e-05,1.5995e+08,243.69,0,1.6311e+08,-14.067,12162,12879,1,12879,1,0.0010045,2.2269e-09,0,0.0010045,1.1811e-05,3.2611e+08,758.27,0,3.2611e+08,63.599,12878,12168,1,12168,1,0.00047114,7.871e-10,0,0.00047114,-8.806e-05,1.6652e+08,236.01,0,1.6652e+08,-14.146,12167,11473,1,11473,1,-6.2158e-05,-3.7297e-10,0,8.9476e-06,-0.00018791,-2.5272e+07,-102.23,0,3.2389e+06,-57.78,11472,11820,1,11820,1,0.00018672,3.1556e-11,0,0.00018672,-0.00014129,6.9359e+07,8.5742,0,6.9359e+07,-36.518,11819,12516,1,12516,1,0.00075557,1.4595e-09,0,0.00075557,-3.4817e-05,2.5259e+08,460.16,0,2.5259e+08,1.6881,12515,412.9,0,412.9,0,0.00032799,7.5554e-10,0,0.00031652,6.1403e-05,1.0697e+08,242.01,0,1.0208e+08,25.418,412.9,1
816,3.47,12163,1,12163,1,0.0004728,-1.7762e-09,0,0.00048055,-8.836e-05,1.6033e+08,-545.6,0,1.6349e+08,-25.152,12162,12879,1,12879,1,0.0010077,5.2851e-09,0,0.0010077,1.1794e-05,3.2668e+08,1716.9,0,3.2668e+08,184.56,12878,12168,1,12168,1,0.0004728,-1.2624e-09,0,0.0004728,-8.8367e-05,1.6695e+08,-369.41,0,1.6695e+08,-32.282,12167,11473,1,11473,1,-6.2057e-05,-8.731e-09,0,9.2573e-06,-0.00018851,-2.5231e+07,-2782,0,3.3571e+06,-189.13,11472,11820,1,11820,1,0.00018754,-4.1846e-09,0,0.00018754,-0.00014175,6.9625e+07,-1243.4,0,6.9625e+07,-82.303,11819,12516,1,12516,1,0.00075805,5.9713e-10,0,0.00075805,-3.497e-05,2.531e+08,166.94,0,2.531e+08,30.365,12515,412.9,0,412.9,0,0.00032894,3.3543e-09,0,0.00031749,6.1581e-05,1.0712e+08,1045.4,0,1.0223e+08,80.007,412.9,1
816,3.48,12163,1,12163,1,0.00047447,-1.4393e-09,0,0.00048221,-8.8671e-05,1.6072e+08,-446.11,0,1.6387e+08,-100.06,12162,12879,1,12879,1,0.0010109,6.9367e-09,0,0.0010109,1.1777e-05,3.2726e+08,2230.9,0,3.2726e+08,146.65,12878,12168,1,12168,1,0.00047447,-7.5348e-10,0,0.00047447,-8.8679e-05,1.674e+08,-228.71,0,1.674e+08,-85.61,12167,11473,1,11473,1,-6.1963e-05,-9.2879e-09,0,9.5613e-06,-0.00018911,-2.5192e+07,-2986.3,0,3.473e+06,-359.47,11472,11820,1,11820,1,0.00018837,-4.0492e-09,0,0.00018837,-0.00014222,6.9893e+07,-1231,0,6.9893e+07,-176.22,11819,12516,1,12516,1,0.00076057,8.8339e-10,0,0.00076057,-3.5125e-05,2.5362e+08,245.95,0,2.5362e+08,-25.504,12515,412.9,0,412.9,0,0.00032991,3.7831e-09,0,0.00031847,6.1762e-05,1.0728e+08,1182.1,0,1.024e+08,109.16,412.9,1
816,3.49,12163,1,12163,1,0.00047618,-2.9005e-09,0,0.00048392,-8.899e-05,1.6112e+08,-896.55,0,1.6426e+08,-79.37,12162,12879,1,12879,1,0.0010143,1.0908e-09,0,0.0010143,1.1761e-05,3.2787e+08,297.36,0,3.2787e+08,83.949,12878,12168,1,12168,1,0.00047619,-3.3744e-09,0,0.00047619,-8.8997e-05,1.6785e+08,-1015.8,0,1.6785e+08,-68.752,12167,11473,1,11473,1,-6.1868e-05,-5.8153e-09,0,9.872e-06,-0.00018974,-2.5154e+07,-1897.7,0,3.5913e+06,-252.16,11472,11820,1,11820,1,0.00018922,-4.2626e-09,0,0.00018922,-0.0001427,7.0168e+07,-1334.4,0,7.0168e+07,-129.99,11819,12516,1,12516,1,0.00076315,-1.6011e-09,0,0.00076315,-3.5282e-05,2.5416e+08,-451.96,0,2.5416e+08,-26.544,12515,412.9,0,412.9,0,0.00033091,1.8182e-09,0,0.00031948,6.1948e-05,1.0745e+08,580.82,0,1.0257e+08,65.735,412.9,1
816,3.5,12163,1,12163,1,0.0004779,1.7915e-09,0,0.00048562,-8.9307e-05,1.6151e+08,544.67,0,1.6465e+08,-30.644,12162,12879,1,12879,1,0.0010176,5.9314e-09,0,0.0010176,1.1744e-05,3.2845e+08,1878.3,0,3.2845e+08,165.33,12878,12168,1,12168,1,0.0004779,1.3305e-09,0,0.0004779,-8.9315e-05,1.683e+08,387.53,0,1.683e+08,-12.15,12167,11473,1,11473,1,-6.1765e-05,-7.3072e-10,0,1.019e-05,-0.00019035,-2.5112e+07,-249.04,0,3.7127e+06,-240.63,11472,11820,1,11820,1,0.00019008,4.5208e-10,0,0.00019008,-0.00014318,7.0443e+07,129.31,0,7.0443e+07,-72.464,11819,12516,1,12516,1,0.00076571,2.8884e-09,0,0.00076571,-3.544e-05,2.5469e+08,876.28,0,2.5469e+08,23.981,12515,412.9,0,412.9,0,0.0003319,1.7038e-09,0,0.00032048,6.2133e-05,1.076e+08,532.17,0,1.0273e+08,74.388,412.9,1
816,3.51,12163,1,12163,1,0.00047958,4.4344e-09,0,0.00048729,-8.9621e-05,1.619e+08,1365.3,0,1.6503e+08,26.13,12162,12879,1,12879,1,0.0010209,9.5581e-09,0,0.0010209,1.1725e-05,3.2903e+08,3072.4,0,3.2903e+08,348.7,12878,12168,1,12168,1,0.00047959,4.7668e-09,0,0.00047959,-8.9629e-05,1.6873e+08,1446.3,0,1.6873e+08,-5.7989,12167,11473,1,11473,1,-6.1655e-05,-1.3355e-09,0,1.0512e-05,-0.00019096,-2.5067e+07,-362.67,0,3.8349e+06,-106.77,11472,11820,1,11820,1,0.00019092,2.5103e-09,0,0.00019092,-0.00014365,7.0714e+07,703.34,0,7.0714e+07,-47.326,11819,12516,1,12516,1,0.00076825,6.5685e-09,0,0.00076825,-3.5597e-05,2.552e+08,2016.3,0,2.552e+08,79.153,12515,412.9,0,412.9,0,0.00033287,2.8149e-09,0,0.00032147,6.2314e-05,1.0776e+08,895.47,0,1.0289e+08,99.608,412.9,1
816,3.52,12163,1,12163,1,0.00048128,-1.8193e-09,0,0.00048897,-8.9936e-05,1.6228e+08,-553.11,0,1.6541e+08,-50.853,12162,12879,1,12879,1,0.0010241,2.0027e-09,0,0.0010241,1.1706e-05,3.296e+08,682.5,0,3.296e+08,73.963,12878,12168,1,12168,1,0.00048128,-1.8306e-09,0,0.00048128,-8.9944e-05,1.6918e+08,-535.91,0,1.6918e+08,-42.819,12167,11473,1,11473,1,-6.1548e-05,-4.6065e-09,0,1.083e-05,-0.00019157,-2.5023e+07,-1455,0,3.956e+06,-191.01,11472,11820,1,11820,1,0.00019177,-3.1682e-09,0,0.00019177,-0.00014412,7.0987e+07,-968.6,0,7.0987e+07,-80.375,11819,12516,1,12516,1,0.00077079,-4.4431e-10,0,0.00077079,-3.5755e-05,2.5572e+08,-133.92,0,2.5572e+08,-12.264,12515,412.9,0,412.9,0,0.00033384,1.5973e-09,0,0.00032246,6.2496e-05,1.0791e+08,496.47,0,1.0305e+08,53.437,412.9,1
816,3.53,12163,1,12163,1,0.00048299,1.1401e-09,0,0.00049067,-9.0254e-05,1.6267e+08,349.56,0,1.658e+08,-7.5023,12162,12879,1,12879,1,0.0010274,2.7363e-09,0,0.0010274,1.1687e-05,3.3017e+08,888.34,0,3.3017e+08,97.522,12878,12168,1,12168,1,0.00048299,1.2691e-09,0,0.00048299,-9.0262e-05,1.6962e+08,377.42,0,1.6962e+08,-6.5668,12167,11473,1,11473,1,-6.1436e-05,-2.5546e-10,0,1.1155e-05,-0.00019219,-2.4978e+07,-69.19,0,4.0795e+06,-78.08,11472,11820,1,11820,1,0.00019263,7.184e-10,0,0.00019263,-0.0001446,7.1262e+07,200.67,0,7.1262e+07,-30.849,11819,12516,1,12516,1,0.00077335,1.5184e-09,0,0.00077335,-3.5913e-05,2.5624e+08,474.71,0,2.5624e+08,14.028,12515,412.9,0,412.9,0,0.00033483,6.5391e-10,0,0.00032346,6.268e-05,1.0807e+08,209.69,0,1.0321e+08,31.973,412.9,1
816,3.54,12163,1,12163,1,0.00048469,1.9235e-09,0,0.00049235,-9.0569e-05,1.6306e+08,593.7,0,1.6617e+08,39.46,12162,12879,1,12879,1,0.0010307,8.3714e-09,0,0.0010307,1.1668e-05,3.3073e+08,2681.6,0,3.3073e+08,369.2,12878,12168,1,12168,1,0.00048469,1.2109e-09,0,0.00048469,-9.0577e-05,1.7006e+08,356.64,0,1.7006e+08,23.552,12167,11473,1,11473,1,-6.132e-05,-1.1978e-09,0,1.1481e-05,-0.0001928,-2.493e+07,-323.95,0,4.2036e+06,-138.51,11472,11820,1,11820,1,0.00019348,-2.7971e-12,0,0.00019348,-0.00014507,7.1535e+07,-0.8164,0,7.1535e+07,-28.527,11819,12516,1,12516,1,0.00077589,3.4066e-09,0,0.00077589,-3.6071e-05,2.5675e+08,1031.7,0,2.5675e+08,83.24,12515,412.9,0,412.9,0,0.0003358,2.3155e-09,0,0.00032444,6.2862e-05,1.0821e+08,724.2,0,1.0336e+08,100.01,412.9,1
816,3.55,12163,1,12163,1,0.00048639,-2.9973e-09,0,0.00049404,-9.0885e-05,1.6344e+08,-914.71,0,1.6655e+08,-63.805,12162,12879,1,12879,1,0.001034,1.8847e-09,0,0.001034,1.1647e-05,3.313e+08,642.16,0,3.313e+08,109.46,12878,12168,1,12168,1,0.00048639,-2.746e-09,0,0.00048639,-9.0893e-05,1.705e+08,-794.87,0,1.705e+08,-60.576,12167,11473,1,11473,1,-6.1206e-05,-7.8787e-09,0,1.1807e-05,-0.00019341,-2.4884e+07,-2502.6,0,4.3274e+06,-202.84,11472,11820,1,11820,1,0.00019434,-5.2013e-09,0,0.00019434,-0.00014554,7.1808e+07,-1565.6,0,7.1808e+07,-113.54,11819,12516,1,12516,1,0.00077844,-7.5111e-10,0,0.00077844,-3.623e-05,2.5726e+08,-211.14,0,2.5726e+08,-23.585,12515,412.9,0,412.9,0,0.00033677,2.5998e-09,0,0.00032543,6.3043e-05,1.0836e+08,813.54,0,1.0351e+08,64.57,412.9,1
816,3.56,12163,1,12163,1,0.00048812,3.6929e-10,0,0.00049575,-9.1206e-05,1.6383e+08,109.11,0,1.6694e+08,-38.705,12162,12879,1,12879,1,0.0010373,1.6362e-09,0,0.0010373,1.1627e-05,3.3187e+08,533,0,3.3187e+08,38.135,12878,12168,1,12168,1,0.00048812,3.8784e-10,0,0.00048812,-9.1215e-05,1.7094e+08,110.01,0,1.7094e+08,-39.218,12167,11473,1,11473,1,-6.1089e-05,-1.0428e-09,0,1.2138e-05,-0.00019403,-2.4836e+07,-347.61,0,4.453e+06,-117.51,11472,11820,1,11820,1,0.00019521,1.3323e-10,0,0.00019521,-0.00014602,7.2086e+07,39.52,0,7.2086e+07,-60.054,11819,12516,1,12516,1,0.00078103,6.3286e-10,0,0.00078103,-3.6391e-05,2.5778e+08,186.06,0,2.5778e+08,-10.981,12515,412.9,0,412.9,0,0.00033777,5.1164e-10,0,0.00032644,6.3229e-05,1.0852e+08,161.31,0,1.0367e+08,31.425,412.9,1
816,3.57,12163,1,12163,1,0.00048983,1.9586e-09,0,0.00049745,-9.1525e-05,1.6421e+08,602.44,0,1.6731e+08,4.6668,12162,12879,1,12879,1,0.0010407,6.6681e-09,0,0.0010407,1.1606e-05,3.3243e+08,2122.8,0,3.3243e+08,262.32,12878,12168,1,12168,1,0.00048984,1.6515e-09,0,0.00048984,-9.1534e-05,1.7138e+08,482.2,0,1.7138e+08,-9.7976,12167,11473,1,11473,1,-6.0963e-05,-1.0865e-09,0,1.2477e-05,-0.00019465,-2.4785e+07,-303.57,0,4.5815e+06,-120.94,11472,11820,1,11820,1,0.00019608,2.6414e-10,0,0.00019608,-0.0001465,7.2363e+07,74.949,0,7.2363e+07,-46.92,11819,12516,1,12516,1,0.0007836,3.3711e-09,0,0.0007836,-3.6552e-05,2.5829e+08,1051,0,2.5829e+08,45.016,12515,412.9,0,412.9,0,0.00033875,2.0095e-09,0,0.00032744,6.3412e-05,1.0866e+08,625.7,0,1.0382e+08,66.672,412.9,1
816,3.58,12163,1,12163,1,0.00049156,-1.7473e-09,0,0.00049917,-9.1846e-05,1.646e+08,-531.82,0,1.6769e+08,-50.574,12162,12879,1,12879,1,0.001044,6.5342e-10,0,0.001044,1.1584e-05,3.3299e+08,175.43,0,3.3299e+08,52.801,12878,12168,1,12168,1,0.00049156,-1.9236e-09,0,0.00049156,-9.1855e-05,1.7182e+08,-569.66,0,1.7182e+08,-46.209,12167,11473,1,11473,1,-6.084e-05,-3.3317e-09,0,1.2814e-05,-0.00019527,-2.4735e+07,-1056.7,0,4.7091e+06,-145.96,11472,11820,1,11820,1,0.00019695,-2.5837e-09,0,0.00019695,-0.00014698,7.264e+07,-793.88,0,7.264e+07,-71.07,11819,12516,1,12516,1,0.00078618,-1.1366e-09,0,0.00078618,-3.6714e-05,2.588e+08,-325.02,0,2.588e+08,-27.624,12515,412.9,0,412.9,0,0.00033973,1.0133e-09,0,0.00032844,6.3596e-05,1.0881e+08,316.71,0,1.0398e+08,37.017,412.9,1
816,3.59,12163,1,12163,1,0.00049326,-3.575e-09,0,0.00050085,-9.2161e-05,1.6497e+08,-1094.2,0,1.6806e+08,-36.416,12162,12879,1,12879,1,0.0010473,1.2478e-09,0,0.0010473,1.1561e-05,3.3353e+08,334.87,0,3.3353e+08,162,12878,12168,1,12168,1,0.00049326,-3.2682e-09,0,0.00049326,-9.2171e-05,1.7226e+08,-981.97,0,1.7226e+08,-36.194,12167,11473,1,11473,1,-6.0708e-05,-9.1423e-09,0,1.3155e-05,-0.00019588,-2.4681e+07,-2908.4,0,4.8381e+06,-207.88,11472,11820,1,11820,1,0.00019781,-6.3192e-09,0,0.00019781,-0.00014745,7.2914e+07,-1911.8,0,7.2914e+07,-80.908,11819,12516,1,12516,1,0.00078871,-8.3312e-10,0,0.00078871,-3.6874e-05,2.5929e+08,-249.44,0,2.5929e+08,4.4067,12515,412.9,0,412.9,0,0.0003407,3.0471e-09,0,0.00032943,6.3776e-05,1.0895e+08,954.88,0,1.0412e+08,68.327,412.9,1
816,3.6,12163,1,12163,1,0.00049501,-2.0583e-09,0,0.00050258,-9.2485e-05,1.6536e+08,-636.57,0,1.6844e+08,-6.8243,12162,12879,1,12879,1,0.0010506,1.0856e-09,0,0.0010506,1.154e-05,3.3409e+08,291.32,0,3.3409e+08,105.38,12878,12168,1,12168,1,0.00049501,-2.2762e-09,0,0.00049501,-9.2495e-05,1.727e+08,-680.86,0,1.727e+08,1.5252,12167,11473,1,11473,1,-6.0584e-05,-4.793e-09,0,1.3493e-05,-0.0001965,-2.4631e+07,-1555.9,0,4.9662e+06,-172.57,11472,11820,1,11820,1,0.00019869,-3.2802e-09,0,0.00019869,-0.00014794,7.3194e+07,-1015.7,0,7.3194e+07,-26.112,11819,12516,1,12516,1,0.00079132,-8.9237e-10,0,0.00079132,-3.7037e-05,2.5981e+08,-248.27,0,2.5981e+08,28.843,12515,412.9,0,412.9,0,0.00034169,1.5464e-09,0,0.00033044,6.3962e-05,1.091e+08,490.36,0,1.0428e+08,57.435,412.9,1
816,3.61,12163,1,12163,1,0.00049673,-9.1388e-10,0,0.00050429,-9.2806e-05,1.6574e+08,-286.67,0,1.6881e+08,-44.582,12162,12879,1,12879,1,0.0010539,1.7283e-09,0,0.0010539,1.1516e-05,3.3463e+08,532.66,0,3.3463e+08,70.204,12878,12168,1,12168,1,0.00049674,-4.8013e-10,0,0.00049674,-9.2816e-05,1.7314e+08,-136.5,0,1.7314e+08,-45.456,12167,11473,1,11473,1,-6.0446e-05,-4.4454e-09,0,1.3844e-05,-0.00019712,-2.4574e+07,-1436.6,0,5.099e+06,-150.85,11472,11820,1,11820,1,0.00019957,-2.1458e-09,0,0.00019957,-0.00014842,7.3473e+07,-646.1,0,7.3473e+07,-82.685,11819,12516,1,12516,1,0.0007939,4.1595e-10,0,0.0007939,-3.72e-05,2.603e+08,115.72,0,2.603e+08,-7.952,12515,412.9,0,412.9,0,0.00034267,1.6272e-09,0,0.00033144,6.4144e-05,1.0924e+08,507.14,0,1.0442e+08,47.829,412.9,1
816,3.62,12163,1,12163,1,0.00049848,-2.0839e-09,0,0.00050602,-9.313e-05,1.6613e+08,-640.43,0,1.6919e+08,-34.967,12162,12879,1,12879,1,0.0010573,9.2345e-10,0,0.0010573,1.1493e-05,3.3518e+08,246.92,0,3.3518e+08,81.725,12878,12168,1,12168,1,0.00049848,-2.0211e-09,0,0.00049848,-9.314e-05,1.7358e+08,-596.64,0,1.7358e+08,-25.424,12167,11473,1,11473,1,-6.0311e-05,-4.9821e-09,0,1.4193e-05,-0.00019775,-2.452e+07,-1611.7,0,5.2306e+06,-162.87,11472,11820,1,11820,1,0.00020046,-3.441e-09,0,0.00020046,-0.0001489,7.3753e+07,-1043.8,0,7.3753e+07,-67.343,11819,12516,1,12516,1,0.0007965,-8.9598e-10,0,0.0007965,-3.7364e-05,2.6081e+08,-248.12,0,2.6081e+08,-3.826,12515,412.9,0,412.9,0,0.00034366,1.5815e-09,0,0.00033245,6.4329e-05,1.0938e+08,500.12,0,1.0458e+08,45.993,412.9,1
816,3.63,12163,1,12163,1,0.00050019,2.9264e-09,0,0.00050771,-9.3448e-05,1.665e+08,887.78,0,1.6956e+08,25.538,12162,12879,1,12879,1,0.0010606,9.1645e-09,0,0.0010606,1.1468e-05,3.357e+08,2899.5,0,3.357e+08,384.14,12878,12168,1,12168,1,0.0005002,2.5863e-09,0,0.0005002,-9.3459e-05,1.7401e+08,752,0,1.7401e+08,1.9341,12167,11473,1,11473,1,-6.0168e-05,-1.0727e-09,0,1.4547e-05,-0.00019836,-2.4461e+07,-285.93,0,5.3645e+06,-96.388,11472,11820,1,11820,1,0.00020134,9.6454e-10,0,0.00020134,-0.00014938,7.403e+07,275.79,0,7.403e+07,-38.302,11819,12516,1,12516,1,0.00079905,4.5501e-09,0,0.00079905,-3.7526e-05,2.6129e+08,1372.1,0,2.6129e+08,58.763,12515,412.9,0,412.9,0,0.00034463,2.4311e-09,0,0.00033343,6.451e-05,1.0952e+08,756.41,0,1.0472e+08,87.993,412.9,1
816,3.64,12163,1,12163,1,0.00050195,-3.777e-09,0,0.00050946,-9.3775e-05,1.6689e+08,-1147.2,0,1.6994e+08,17.86,12162,12879,1,12879,1,0.001064,1.1883e-09,0,0.001064,1.1444e-05,3.3626e+08,316.28,0,3.3626e+08,129.82,12878,12168,1,12168,1,0.00050195,-4.6945e-09,0,0.00050195,-9.3785e-05,1.7445e+08,-1391.8,0,1.7445e+08,34.803,12167,11473,1,11473,1,-6.0033e-05,-6.3511e-09,0,1.4899e-05,-0.00019899,-2.4406e+07,-1958.6,0,5.497e+06,-272.39,11472,11820,1,11820,1,0.00020223,-5.3558e-09,0,0.00020223,-0.00014986,7.4312e+07,-1680.9,0,7.4312e+07,-11.295,11819,12516,1,12516,1,0.00080168,-2.4954e-09,0,0.00080168,-3.7691e-05,2.618e+08,-695.14,0,2.618e+08,69.525,12515,412.9,0,412.9,0,0.00034563,2.0579e-09,0,0.00033445,6.4696e-05,1.0966e+08,646.22,0,1.0487e+08,77.139,412.9,1
816,3.65,12163,1,12163,1,0.0005037,3.0693e-09,0,0.00051119,-9.41e-05,1.6726e+08,929.21,0,1.7031e+08,1.9607,12162,12879,1,12879,1,0.0010673,5.6765e-09,0,0.0010673,1.1419e-05,3.3679e+08,1765,0,3.3679e+08,170.33,12878,12168,1,12168,1,0.0005037,3.4226e-09,0,0.0005037,-9.411e-05,1.7489e+08,1033.5,0,1.7489e+08,-8.1669,12167,11473,1,11473,1,-5.9886e-05,-8.0276e-10,0,1.526e-05,-0.00019961,-2.4346e+07,-213.05,0,5.6332e+06,-77.803,11472,11820,1,11820,1,0.00020312,2.0458e-09,0,0.00020312,-0.00015035,7.4594e+07,575.83,0,7.4594e+07,-35.135,11819,12516,1,12516,1,0.00080428,4.4718e-09,0,0.00080428,-3.7857e-05,2.6229e+08,1374.9,0,2.6229e+08,27.598,12515,412.9,0,412.9,0,0.00034661,1.7119e-09,0,0.00033546,6.488e-05,1.098e+08,535.28,0,1.0501e+08,50.288,412.9,1
816,3.66,12163,1,12163,1,0.00050545,2.7568e-09,0,0.00051292,-9.4425e-05,1.6764e+08,840.31,0,1.7068e+08,2.3652,12162,12879,1,12879,1,0.0010707,6.8093e-09,0,0.0010707,1.1393e-05,3.3732e+08,2175.2,0,3.3732e+08,200.01,12878,12168,1,12168,1,0.00050545,2.6096e-09,0,0.00050545,-9.4436e-05,1.7533e+08,769.66,0,1.7533e+08,-14.014,12167,11473,1,11473,1,-5.9735e-05,-6.5449e-10,0,1.5623e-05,-0.00020023,-2.4285e+07,-173.87,0,5.7697e+06,-77.457,11472,11820,1,11820,1,0.00020402,1.2754e-09,0,0.00020402,-0.00015083,7.4877e+07,356.14,0,7.4877e+07,-40.173,11819,12516,1,12516,1,0.00080689,4.2341e-09,0,0.00080689,-3.8023e-05,2.6278e+08,1308.6,0,2.6278e+08,27.68,12515,412.9,0,412.9,0,0.0003476,1.9488e-09,0,0.00033647,6.5064e-05,1.0993e+08,616.06,0,1.0515e+08,56.829,412.9,1
816,3.67,12163,1,12163,1,0.00050721,-9.7399e-10,0,0.00051466,-9.4751e-05,1.6802e+08,-290.41,0,1.7105e+08,-26.874,12162,12879,1,12879,1,0.001074,3.0046e-10,0,0.001074,1.1366e-05,3.3784e+08,79.359,0,3.3784e+08,46.45,12878,12168,1,12168,1,0.00050721,-1.0967e-09,0,0.00050721,-9.4762e-05,1.7576e+08,-329.43,0,1.7576e+08,-25.008,12167,11473,1,11473,1,-5.9585e-05,-1.5546e-09,0,1.5987e-05,-0.00020086,-2.4224e+07,-460.3,0,5.9066e+06,-120.68,11472,11820,1,11820,1,0.00020492,-1.3009e-09,0,0.00020492,-0.00015132,7.5159e+07,-389.66,0,7.5159e+07,-61.229,11819,12516,1,12516,1,0.0008095,-7.9455e-10,0,0.0008095,-3.819e-05,2.6327e+08,-237.15,0,2.6327e+08,9.197,12515,412.9,0,412.9,0,0.00034858,4.4522e-10,0,0.00033748,6.5248e-05,1.1007e+08,133.09,0,1.0529e+08,39.832,412.9,1
816,3.68,12163,1,12163,1,0.00050894,2.8021e-09,0,0.00051637,-9.5072e-05,1.6839e+08,854.23,0,1.7141e+08,44.504,12162,12879,1,12879,1,0.0010773,9.9747e-09,0,0.0010773,1.134e-05,3.3836e+08,3147.7,0,3.3836e+08,493.39,12878,12168,1,12168,1,0.00050894,2.2928e-09,0,0.00050894,-9.5083e-05,1.7619e+08,682.74,0,1.7619e+08,5.9313,12167,11473,1,11473,1,-5.9427e-05,-1.3568e-09,0,1.6356e-05,-0.00020148,-2.4159e+07,-359,0,6.0453e+06,-94.16,11472,11820,1,11820,1,0.00020581,5.7516e-10,0,0.00020581,-0.0001518,7.5439e+07,159.31,0,7.5439e+07,-40.806,11819,12516,1,12516,1,0.00081207,4.638e-09,0,0.00081207,-3.8355e-05,2.6375e+08,1401.2,0,2.6375e+08,80.802,12515,412.9,0,412.9,0,0.00034955,2.7077e-09,0,0.00033847,6.5428e-05,1.1019e+08,839.74,0,1.0543e+08,122.02,412.9,1
816,3.69,12163,1,12163,1,0.00051071,-2.7345e-09,0,0.00051812,-9.5401e-05,1.6877e+08,-824.71,0,1.7178e+08,-5.7292,12162,12879,1,12879,1,0.0010807,1.0079e-09,0,0.0010807,1.1313e-05,3.3889e+08,266.04,0,3.3889e+08,112.78,12878,12168,1,12168,1,0.00051071,-3.0552e-09,0,0.00051071,-9.5412e-05,1.7663e+08,-910.01,0,1.7663e+08,-1.0354,12167,11473,1,11473,1,-5.9278e-05,-5.0252e-09,0,1.6721e-05,-0.00020211,-2.4099e+07,-1584.9,0,6.1824e+06,-192.49,11472,11820,1,11820,1,0.00020672,-3.9552e-09,0,0.00020672,-0.00015229,7.5723e+07,-1206.6,0,7.5723e+07,-44.386,11819,12516,1,12516,1,0.0008147,-1.8563e-09,0,0.0008147,-3.8523e-05,2.6424e+08,-514.52,0,2.6424e+08,44.942,12515,412.9,0,412.9,0,0.00035055,1.5221e-09,0,0.00033949,6.5615e-05,1.1033e+08,473.82,0,1.0558e+08,64.821,412.9,1
816,3.7,12163,1,12163,1,0.00051246,3.5072e-09,0,0.00051985,-9.5726e-05,1.6914e+08,1061.1,0,1.7214e+08,50.243,12162,12879,1,12879,1,0.0010841,1.0087e-08,0,0.0010841,1.1285e-05,3.394e+08,3190,0,3.394e+08,456.17,12878,12168,1,12168,1,0.00051246,2.9785e-09,0,0.00051246,-9.5738e-05,1.7706e+08,875.34,0,1.7706e+08,21.559,12167,11473,1,11473,1,-5.9114e-05,-1.383e-09,0,1.7097e-05,-0.00020273,-2.4032e+07,-364.77,0,6.3235e+06,-78.638,11472,11820,1,11820,1,0.00020762,1.0819e-09,0,0.00020762,-0.00015277,7.6006e+07,312.83,0,7.6006e+07,-30,11819,12516,1,12516,1,0.00081731,5.7225e-09,0,0.00081731,-3.8691e-05,2.6472e+08,1729.8,0,2.6472e+08,90.215,12515,412.9,0,412.9,0,0.00035153,2.9069e-09,0,0.00034049,6.5797e-05,1.1046e+08,903.24,0,1.0571e+08,107.37,412.9,1
816,3.71,12163,1,12163,1,0.00051424,1.9571e-09,0,0.00052161,-9.6056e-05,1.6952e+08,600.56,0,1.7252e+08,-7.2581,12162,12879,1,12879,1,0.0010875,4.4585e-09,0,0.0010875,1.1256e-05,3.3992e+08,1490.3,0,3.3992e+08,200,12878,12168,1,12168,1,0.00051424,2.2487e-09,0,0.00051424,-9.6068e-05,1.775e+08,663.33,0,1.775e+08,-17.751,12167,11473,1,11473,1,-5.8953e-05,-9.8087e-10,0,1.7472e-05,-0.00020336,-2.3966e+07,-258.7,0,6.4639e+06,-117.45,11472,11820,1,11820,1,0.00020854,8.1037e-10,0,0.00020854,-0.00015326,7.6293e+07,220.53,0,7.6293e+07,-54.675,11819,12516,1,12516,1,0.00081995,2.982e-09,0,0.00081995,-3.886e-05,2.6521e+08,928.64,0,2.6521e+08,24.589,12515,412.9,0,412.9,0,0.00035252,1.4505e-09,0,0.00034151,6.5983e-05,1.1059e+08,457.21,0,1.0585e+08,64.618,412.9,1
816,3.72,12163,1,12163,1,0.000516,2.5806e-09,0,0.00052335,-9.6384e-05,1.6989e+08,789.65,0,1.7288e+08,40.277,12162,12879,1,12879,1,0.0010908,6.696e-09,0,0.0010908,1.1227e-05,3.4042e+08,2149.6,0,3.4042e+08,334.83,12878,12168,1,12168,1,0.00051601,2.633e-09,0,0.00051601,-9.6396e-05,1.7793e+08,766.26,0,1.7793e+08,12.569,12167,11473,1,11473,1,-5.8784e-05,-1.0798e-09,0,1.7853e-05,-0.00020399,-2.3898e+07,-284.25,0,6.6065e+06,-51.286,11472,11820,1,11820,1,0.00020945,1.0377e-09,0,0.00020945,-0.00015375,7.6577e+07,285,0,7.6577e+07,-16.131,11819,12516,1,12516,1,0.00082256,4.0563e-09,0,0.00082256,-3.9029e-05,2.6568e+08,1247.8,0,2.6568e+08,62.845,12515,412.9,0,412.9,0,0.0003535,1.9937e-09,0,0.00034252,6.6166e-05,1.1071e+08,626.59,0,1.0598e+08,83.046,412.9,1
816,3.73,12163,1,12163,1,0.00051779,-9.1709e-10,0,0.00052511,-9.6715e-05,1.7027e+08,-268.29,0,1.7325e+08,-22.319,12162,12879,1,12879,1,0.0010942,1.0718e-09,0,0.0010942,1.1197e-05,3.4094e+08,364.53,0,3.4094e+08,48.232,12878,12168,1,12168,1,0.00051779,-9.8007e-10,0,0.00051779,-9.6727e-05,1.7836e+08,-279.91,0,1.7836e+08,-26.508,12167,11473,1,11473,1,-5.8619e-05,-1.9769e-09,0,1.8234e-05,-0.00020461,-2.3831e+07,-600.34,0,6.7492e+06,-74.25,11472,11820,1,11820,1,0.00021037,-1.4904e-09,0,0.00021037,-0.00015424,7.6864e+07,-440.17,0,7.6864e+07,-41.116,11819,12516,1,12516,1,0.0008252,-4.3005e-10,0,0.0008252,-3.92e-05,2.6616e+08,-117.82,0,2.6616e+08,-5.1956,12515,412.9,0,412.9,0,0.0003545,6.9682e-10,0,0.00034354,6.6351e-05,1.1084e+08,211.43,0,1.0612e+08,26.502,412.9,1
816,3.74,12163,1,12163,1,0.00051956,1.7219e-09,0,0.00052686,-9.7043e-05,1.7064e+08,522.91,0,1.7361e+08,16.624,12162,12879,1,12879,1,0.0010976,5.4719e-09,0,0.0010976,1.1167e-05,3.4143e+08,1736.1,0,3.4143e+08,239.48,12878,12168,1,12168,1,0.00051956,1.4302e-09,0,0.00051956,-9.7056e-05,1.7879e+08,425.3,0,1.7879e+08,-0.30457,12167,11473,1,11473,1,-5.8443e-05,-7.3781e-10,0,1.8624e-05,-0.00020524,-2.3759e+07,-193.54,0,6.8946e+06,-69.19,11472,11820,1,11820,1,0.00021129,5.5573e-10,0,0.00021129,-0.00015473,7.715e+07,168.56,0,7.715e+07,-22.713,11819,12516,1,12516,1,0.00082783,2.7328e-09,0,0.00082783,-3.937e-05,2.6664e+08,826.68,0,2.6664e+08,38.126,12515,412.9,0,412.9,0,0.00035548,1.4733e-09,0,0.00034455,6.6535e-05,1.1096e+08,459.62,0,1.0625e+08,60.739,412.9,1
816,3.75,12163,1,12163,1,0.00052134,1.4709e-09,0,0.00052862,-9.7374e-05,1.7101e+08,447.86,0,1.7397e+08,-0.33694,12162,12879,1,12879,1,0.001101,2.8519e-09,0,0.001101,1.1136e-05,3.4193e+08,953.23,0,3.4193e+08,82.58,12878,12168,1,12168,1,0.00052134,1.6541e-09,0,0.00052134,-9.7387e-05,1.7923e+08,480.59,0,1.7923e+08,-4.9974,12167,11473,1,11473,1,-5.827e-05,-3.9473e-10,0,1.9011e-05,-0.00020587,-2.3688e+07,-103.52,0,7.0391e+06,-54.26,11472,11820,1,11820,1,0.00021222,6.3861e-10,0,0.00021222,-0.00015522,7.7437e+07,172.9,0,7.7437e+07,-20.185,11819,12516,1,12516,1,0.00083047,2.2772e-09,0,0.00083047,-3.9541e-05,2.6711e+08,707.46,0,2.6711e+08,15.195,12515,412.9,0,412.9,0,0.00035647,9.4705e-10,0,0.00034556,6.6719e-05,1.1109e+08,302.2,0,1.0638e+08,27.691,412.9,1
816,3.76,12163,1,12163,1,0.00052312,3.5283e-09,0,0.00053038,-9.7704e-05,1.7138e+08,1072.3,0,1.7433e+08,36.934,12162,12879,1,12879,1,0.0011044,9.6668e-09,0,0.0011044,1.1106e-05,3.4243e+08,3063,0,3.4243e+08,434.12,12878,12168,1,12168,1,0.00052312,3.2904e-09,0,0.00052312,-9.7717e-05,1.7966e+08,981.09,0,1.7966e+08,2.8373,12167,11473,1,11473,1,-5.8091e-05,-1.3725e-09,0,1.9403e-05,-0.00020651,-2.3615e+07,-358.73,0,7.1854e+06,-111.2,11472,11820,1,11820,1,0.00021314,1.4352e-09,0,0.00021314,-0.0001557,7.7724e+07,393.16,0,7.7724e+07,-37.911,11819,12516,1,12516,1,0.0008331,5.5556e-09,0,0.0008331,-3.9712e-05,2.6758e+08,1700,0,2.6758e+08,79.516,12515,412.9,0,412.9,0,0.00035745,2.7859e-09,0,0.00034657,6.6903e-05,1.1121e+08,870.76,0,1.0651e+08,109.68,412.9,1
816,3.77,12163,1,12163,1,0.0005249,2.2511e-09,0,0.00053214,-9.8035e-05,1.7174e+08,691.04,0,1.7469e+08,18.62,12162,12879,1,12879,1,0.0011077,7.3747e-09,0,0.0011077,1.1074e-05,3.4292e+08,2394.3,0,3.4292e+08,330.85,12878,12168,1,12168,1,0.0005249,1.8762e-09,0,0.0005249,-9.8048e-05,1.8009e+08,555.37,0,1.8009e+08,-2.9013,12167,11473,1,11473,1,-5.791e-05,-1.1775e-09,0,1.9796e-05,-0.00020713,-2.3542e+07,-307.69,0,7.3316e+06,-122.72,11472,11820,1,11820,1,0.00021407,5.3007e-10,0,0.00021407,-0.0001562,7.8012e+07,147.34,0,7.8012e+07,-37.028,11819,12516,1,12516,1,0.00083574,3.7826e-09,0,0.00083574,-3.9884e-05,2.6804e+08,1133,0,2.6804e+08,47.338,12515,412.9,0,412.9,0,0.00035844,2.1499e-09,0,0.00034759,6.7086e-05,1.1133e+08,673.55,0,1.0664e+08,84.887,412.9,1
816,3.78,12163,1,12163,1,0.00052669,3.0758e-09,0,0.00053391,-9.8367e-05,1.7211e+08,939.16,0,1.7505e+08,21.637,12162,12879,1,12879,1,0.0011111,9.1665e-09,0,0.0011111,1.1042e-05,3.4341e+08,2961.5,0,3.4341e+08,378.44,12878,12168,1,12168,1,0.00052669,2.7209e-09,0,0.00052669,-9.838e-05,1.8051e+08,795.6,0,1.8051e+08,-8.088,12167,11473,1,11473,1,-5.7727e-05,-1.3427e-09,0,2.0194e-05,-0.00020777,-2.3467e+07,-350.21,0,7.4794e+06,-128.14,11472,11820,1,11820,1,0.000215,9.2305e-10,0,0.000215,-0.00015669,7.83e+07,250.86,0,7.83e+07,-46.858,11819,12516,1,12516,1,0.00083838,5.0923e-09,0,0.00083838,-4.0057e-05,2.6851e+08,1531.4,0,2.6851e+08,59.351,12515,412.9,0,412.9,0,0.00035942,2.7052e-09,0,0.0003486,6.7271e-05,1.1144e+08,846.68,0,1.0677e+08,103.26,412.9,1
816,3.79,12163,1,12163,1,0.00052849,-1.3116e-09,0,0.00053568,-9.87e-05,1.7248e+08,-383.93,0,1.7541e+08,-30.732,12162,12879,1,12879,1,0.0011145,1.8312e-09,0,0.0011145,1.1009e-05,3.439e+08,622.42,0,3.439e+08,80.978,12878,12168,1,12168,1,0.00052849,-1.3817e-09,0,0.00052849,-9.8714e-05,1.8094e+08,-381.84,0,1.8094e+08,-35.72,12167,11473,1,11473,1,-5.7543e-05,-3.1035e-09,0,2.0594e-05,-0.0002084,-2.3392e+07,-951.51,0,7.6283e+06,-92.107,11472,11820,1,11820,1,0.00021594,-2.2376e-09,0,0.00021594,-0.00015718,7.859e+07,-658.26,0,7.859e+07,-56.523,11819,12516,1,12516,1,0.00084104,-4.9045e-10,0,0.00084104,-4.0231e-05,2.6898e+08,-132.73,0,2.6898e+08,-8.314,12515,412.9,0,412.9,0,0.00036042,1.1097e-09,0,0.00034962,6.7456e-05,1.1156e+08,337.58,0,1.069e+08,34.689,412.9,1
816,3.8,12163,1,12163,1,0.0005303,1.3983e-09,0,0.00053746,-9.9036e-05,1.7285e+08,422.96,0,1.7577e+08,-12.082,12162,12879,1,12879,1,0.001118,3.7148e-09,0,0.001118,1.0975e-05,3.4438e+08,1195.1,0,3.4438e+08,76.156,12878,12168,1,12168,1,0.0005303,1.2591e-09,0,0.0005303,-9.9049e-05,1.8138e+08,364.19,0,1.8138e+08,-9.3818,12167,11473,1,11473,1,-5.735e-05,-5.2988e-10,0,2.1002e-05,-0.00020903,-2.3314e+07,-137.83,0,7.7797e+06,-105.92,11472,11820,1,11820,1,0.00021689,6.0084e-10,0,0.00021689,-0.00015768,7.8881e+07,169.96,0,7.8881e+07,-42.885,11819,12516,1,12516,1,0.00084371,2.1705e-09,0,0.00084371,-4.0406e-05,2.6944e+08,651.11,0,2.6944e+08,18.239,12515,412.9,0,412.9,0,0.00036141,1.0611e-09,0,0.00035065,6.7641e-05,1.1168e+08,333.94,0,1.0703e+08,39.094,412.9,1
816,3.81,12163,1,12163,1,0.0005321,2.2173e-09,0,0.00053924,-9.937e-05,1.7322e+08,671.42,0,1.7612e+08,-16.356,12162,12879,1,12879,1,0.0011214,5.5121e-09,0,0.0011214,1.0941e-05,3.4486e+08,1794.2,0,3.4486e+08,180.92,12878,12168,1,12168,1,0.0005321,2.1953e-09,0,0.0005321,-9.9384e-05,1.818e+08,650.25,0,1.818e+08,-22.805,12167,11473,1,11473,1,-5.7158e-05,-8.0951e-10,0,2.1407e-05,-0.00020967,-2.3236e+07,-210.07,0,7.9301e+06,-133.52,11472,11820,1,11820,1,0.00021783,1.0196e-09,0,0.00021783,-0.00015817,7.9173e+07,274.12,0,7.9173e+07,-67.095,11819,12516,1,12516,1,0.00084637,3.3876e-09,0,0.00084637,-4.058e-05,2.699e+08,1013.5,0,2.699e+08,27.692,12515,412.9,0,412.9,0,0.0003624,1.6313e-09,0,0.00035167,6.7826e-05,1.1179e+08,512.33,0,1.0715e+08,66.264,412.9,1
816,3.82,12163,1,12163,1,0.00053387,3.8715e-09,0,0.00054099,-9.97e-05,1.7357e+08,1178.7,0,1.7647e+08,-69.732,12162,12879,1,12879,1,0.0011248,1.5566e-08,0,0.0011248,1.0906e-05,3.4532e+08,4927,0,3.4532e+08,461.68,12878,12168,1,12168,1,0.00053388,2.3441e-09,0,0.00053388,-9.9714e-05,1.8222e+08,681.04,0,1.8222e+08,-100.33,12167,11473,1,11473,1,-5.6955e-05,-2.2862e-09,0,2.182e-05,-0.0002103,-2.3153e+07,-591.76,0,8.0827e+06,-410.08,11472,11820,1,11820,1,0.00021877,-2.8086e-10,0,0.00021877,-0.00015866,7.946e+07,-75.223,0,7.946e+07,-198.08,11819,12516,1,12516,1,0.00084899,7.2245e-09,0,0.00084899,-4.0754e-05,2.7034e+08,2132.8,0,2.7034e+08,47.542,12515,412.9,0,412.9,0,0.00036337,4.8186e-09,0,0.00035267,6.8006e-05,1.119e+08,1481.4,0,1.0727e+08,166.2,412.9,1
816,3.83,12163,1,12163,1,0.00053569,4.2715e-09,0,0.00054278,-0.00010004,1.7394e+08,1297.6,0,1.7683e+08,-72.043,12162,12879,1,12879,1,0.0011282,1.1074e-08,0,0.0011282,1.0872e-05,3.4581e+08,3664.8,0,3.4581e+08,302.1,12878,12168,1,12168,1,0.00053569,4.0826e-09,0,0.00053569,-0.00010005,1.8265e+08,1183.8,0,1.8265e+08,-86.885,12167,11473,1,11473,1,-5.6763e-05,-1.6938e-09,0,2.2228e-05,-0.00021094,-2.3075e+07,-438.48,0,8.2333e+06,-353.11,11472,11820,1,11820,1,0.00021972,1.6712e-09,0,0.00021972,-0.00015915,7.9751e+07,453.87,0,7.9751e+07,-184.67,11819,12516,1,12516,1,0.00085167,6.6373e-09,0,0.00085167,-4.093e-05,2.7081e+08,2018.4,0,2.7081e+08,35.094,12515,412.9,0,412.9,0,0.00036436,3.3165e-09,0,0.00035369,6.8192e-05,1.1201e+08,1045.5,0,1.074e+08,149.75,412.9,1
816,3.84,12163,1,12163,1,0.00053751,2.3261e-09,0,0.00054458,-0.00010037,1.7431e+08,715.4,0,1.7718e+08,-56.27,12162,12879,1,12879,1,0.0011316,8.2625e-09,0,0.0011316,1.0836e-05,3.4628e+08,2761.5,0,3.4628e+08,214.15,12878,12168,1,12168,1,0.00053751,1.659e-09,0,0.00053751,-0.00010039,1.8308e+08,483.55,0,1.8308e+08,-69.615,12167,11473,1,11473,1,-5.6561e-05,-1.3298e-09,0,2.2646e-05,-0.00021158,-2.2993e+07,-343.83,0,8.3878e+06,-274.38,11472,11820,1,11820,1,0.00022067,1.6572e-10,0,0.00022067,-0.00015965,8.0045e+07,45.648,0,8.0045e+07,-137.3,11819,12516,1,12516,1,0.00085435,4.0736e-09,0,0.00085435,-4.1107e-05,2.7127e+08,1218.8,0,2.7127e+08,23.264,12515,412.9,0,412.9,0,0.00036536,2.5662e-09,0,0.00035472,6.8378e-05,1.1212e+08,801.94,0,1.0752e+08,104.34,412.9,1
816,3.85,12163,1,12163,1,0.00053933,1.9317e-09,0,0.00054638,-0.00010071,1.7467e+08,593.27,0,1.7754e+08,-48.179,12162,12879,1,12879,1,0.0011351,6.788e-09,0,0.0011351,1.08e-05,3.4674e+08,2258.7,0,3.4674e+08,214.21,12878,12168,1,12168,1,0.00053934,1.3688e-09,0,0.00053934,-0.00010073,1.8351e+08,395.48,0,1.8351e+08,-53.109,12167,11473,1,11473,1,-5.6353e-05,-1.0744e-09,0,2.307e-05,-0.00021221,-2.2908e+07,-277.35,0,8.5442e+06,-261.99,11472,11820,1,11820,1,0.00022164,1.6544e-10,0,0.00022164,-0.00016015,8.0339e+07,43.507,0,8.0339e+07,-119.21,11819,12516,1,12516,1,0.00085704,3.4072e-09,0,0.00085704,-4.1285e-05,2.7172e+08,1007.5,0,2.7172e+08,25.051,12515,412.9,0,412.9,0,0.00036635,2.1224e-09,0,0.00035575,6.8563e-05,1.1223e+08,662.73,0,1.0764e+08,97.134,412.9,1
816,3.86,12163,1,12163,1,0.00054116,2.1748e-09,0,0.00054818,-0.00010105,1.7504e+08,663.1,0,1.7789e+08,-61.751,12162,12879,1,12879,1,0.0011385,7.071e-09,0,0.0011385,1.0763e-05,3.4721e+08,2357,0,3.4721e+08,221.85,12878,12168,1,12168,1,0.00054117,1.6822e-09,0,0.00054117,-0.00010107,1.8394e+08,476.57,0,1.8394e+08,-73.282,12167,11473,1,11473,1,-5.6141e-05,-1.114e-09,0,2.3498e-05,-0.00021286,-2.2822e+07,-286.9,0,8.7017e+06,-284.51,11472,11820,1,11820,1,0.0002226,3.4448e-10,0,0.0002226,-0.00016065,8.0635e+07,95.537,0,8.0635e+07,-133.59,11819,12516,1,12516,1,0.00085973,3.7553e-09,0,0.00085973,-4.1464e-05,2.7217e+08,1119.9,0,2.7217e+08,13.48,12515,412.9,0,412.9,0,0.00036735,2.1903e-09,0,0.00035678,6.8749e-05,1.1234e+08,683,0,1.0776e+08,98.281,412.9,1
816,3.87,12163,1,12163,1,0.00054299,1.6444e-09,0,0.00054998,-0.00010139,1.754e+08,504.41,0,1.7824e+08,-41.819,12162,12879,1,12879,1,0.0011419,4.8424e-09,0,0.0011419,1.0725e-05,3.4766e+08,1625.7,0,3.4766e+08,183.13,12878,12168,1,12168,1,0.00054299,1.5005e-09,0,0.00054299,-0.00010141,1.8436e+08,437.39,0,1.8436e+08,-48.586,12167,11473,1,11473,1,-5.5928e-05,-9.0636e-10,0,2.3926e-05,-0.00021349,-2.2735e+07,-233.14,0,8.8593e+06,-215.18,11472,11820,1,11820,1,0.00022357,4.2963e-10,0,0.00022357,-0.00016115,8.0929e+07,113.73,0,8.0929e+07,-101.9,11819,12516,1,12516,1,0.00086242,2.7007e-09,0,0.00086242,-4.1643e-05,2.7261e+08,824.99,0,2.7261e+08,17.331,12515,412.9,0,412.9,0,0.00036834,1.533e-09,0,0.00035781,6.8934e-05,1.1244e+08,480.09,0,1.0788e+08,84.367,412.9,1
816,3.88,12163,1,12163,1,0.00054483,3.1396e-09,0,0.00055179,-0.00010173,1.7576e+08,947.82,0,1.7859e+08,-33.303,12162,12879,1,12879,1,0.0011454,5.8494e-09,0,0.0011454,1.0687e-05,3.4812e+08,1903.6,0,3.4812e+08,237.68,12878,12168,1,12168,1,0.00054483,3.5656e-09,0,0.00054483,-0.00010175,1.8479e+08,1015.8,0,1.8479e+08,-35.609,12167,11473,1,11473,1,-5.5713e-05,-9.1621e-10,0,2.4358e-05,-0.00021414,-2.2647e+07,-235.04,0,9.0179e+06,-236,11472,11820,1,11820,1,0.00022454,1.3496e-09,0,0.00022454,-0.00016165,8.1225e+07,355.95,0,8.1225e+07,-99.998,11819,12516,1,12516,1,0.00086512,4.9842e-09,0,0.00086512,-4.1823e-05,2.7306e+08,1525.3,0,2.7306e+08,20.114,12515,412.9,0,412.9,0,0.00036934,2.0477e-09,0,0.00035884,6.912e-05,1.1255e+08,647.26,0,1.0799e+08,98.122,412.9,1
816,3.89,12163,1,12163,1,0.00054666,-4.1116e-10,0,0.0005536,-0.00010207,1.7612e+08,-113.19,0,1.7894e+08,-5.9774,12162,12879,1,12879,1,0.0011488,1.5926e-09,0,0.0011488,1.0648e-05,3.4857e+08,540.46,0,3.4857e+08,76.052,12878,12168,1,12168,1,0.00054666,-5.2621e-10,0,0.00054666,-0.00010209,1.8521e+08,-147.98,0,1.8521e+08,-9.6753,12167,11473,1,11473,1,-5.5493e-05,-1.29e-09,0,2.4794e-05,-0.00021478,-2.2558e+07,-365.55,0,9.1778e+06,-98.298,11472,11820,1,11820,1,0.00022552,-9.2578e-10,0,0.00022552,-0.00016215,8.1521e+07,-261.95,0,8.1521e+07,-27.186,11819,12516,1,12516,1,0.00086781,-5.0024e-11,0,0.00086781,-4.2003e-05,2.735e+08,-13.499,0,2.735e+08,17.925,12515,412.9,0,412.9,0,0.00037033,6.3364e-10,0,0.00035987,6.9305e-05,1.1265e+08,187.65,0,1.0811e+08,32.626,412.9,1
816,3.9,12163,1,12163,1,0.00054848,-2.7586e-09,0,0.00055539,-0.00010241,1.7647e+08,-822.87,0,1.7928e+08,40.915,12162,12879,1,12879,1,0.0011522,2.0181e-09,0,0.0011522,1.0609e-05,3.4901e+08,640.91,0,3.4901e+08,258,12878,12168,1,12168,1,0.00054848,-2.4577e-09,0,0.00054848,-0.00010242,1.8563e+08,-719.64,0,1.8563e+08,45.894,12167,11473,1,11473,1,-5.527e-05,-7.6167e-09,0,2.523e-05,-0.00021541,-2.2467e+07,-2375.8,0,9.3379e+06,-198.92,11472,11820,1,11820,1,0.00022648,-5.0978e-09,0,0.00022648,-0.00016265,8.1814e+07,-1501.2,0,8.1814e+07,-10.604,11819,12516,1,12516,1,0.00087048,-3.4219e-10,0,0.00087048,-4.2182e-05,2.7394e+08,-101.35,0,2.7394e+08,89.147,12515,412.9,0,412.9,0,0.00037131,2.6141e-09,0,0.00036088,6.9488e-05,1.1275e+08,800.57,0,1.0822e+08,77.216,412.9,1
816,3.91,12163,1,12163,1,0.00055035,9.9995e-10,0,0.00055723,-0.00010276,1.7684e+08,293.65,0,1.7964e+08,-28.156,12162,12879,1,12879,1,0.0011557,1.9366e-09,0,0.0011557,1.057e-05,3.4947e+08,628.19,0,3.4947e+08,56.39,12878,12168,1,12168,1,0.00055035,1.0924e-09,0,0.00055035,-0.00010277,1.8606e+08,313.81,0,1.8606e+08,-28.826,12167,11473,1,11473,1,-5.5049e-05,-2.5028e-10,0,2.567e-05,-0.00021606,-2.2377e+07,-63.942,0,9.4989e+06,-93.27,11472,11820,1,11820,1,0.00022747,6.9714e-10,0,0.00022747,-0.00016316,8.2115e+07,201.61,0,8.2115e+07,-48.756,11819,12516,1,12516,1,0.00087322,1.2987e-09,0,0.00087322,-4.2365e-05,2.7439e+08,377.27,0,2.7439e+08,-10.388,12515,412.9,0,412.9,0,0.00037232,4.8764e-10,0,0.00036193,6.9677e-05,1.1285e+08,151.46,0,1.0834e+08,29.484,412.9,1
816,3.92,12163,1,12163,1,0.0005522,1.6529e-09,0,0.00055905,-0.0001031,1.772e+08,490.78,0,1.7998e+08,-19.483,12162,12879,1,12879,1,0.0011592,2.7547e-09,0,0.0011592,1.0529e-05,3.4991e+08,857.92,0,3.4991e+08,55.154,12878,12168,1,12168,1,0.0005522,1.8992e-09,0,0.0005522,-0.00010311,1.8648e+08,554.43,0,1.8648e+08,-17.3,12167,11473,1,11473,1,-5.4813e-05,-2.6341e-10,0,2.6121e-05,-0.00021671,-2.2282e+07,-66.915,0,9.6638e+06,-91.027,11472,11820,1,11820,1,0.00022846,1.032e-09,0,0.00022846,-0.00016366,8.2414e+07,273.3,0,8.2414e+07,-40.682,11819,12516,1,12516,1,0.00087594,2.3716e-09,0,0.00087594,-4.2548e-05,2.7482e+08,733.12,0,2.7482e+08,3.1122,12515,412.9,0,412.9,0,0.00037332,8.4619e-10,0,0.00036297,6.9862e-05,1.1295e+08,268.74,0,1.0845e+08,28.915,412.9,1
816,3.93,12163,1,12163,1,0.00055402,-3.0064e-09,0,0.00056085,-0.00010344,1.7755e+08,-891.66,0,1.8032e+08,20.138,12162,12879,1,12879,1,0.0011626,8.8545e-10,0,0.0011626,1.0488e-05,3.5033e+08,224.61,0,3.5033e+08,232.98,12878,12168,1,12168,1,0.00055403,-2.9393e-09,0,0.00055403,-0.00010345,1.8689e+08,-848.26,0,1.8689e+08,19.076,12167,11473,1,11473,1,-5.4579e-05,-6.6011e-09,0,2.6569e-05,-0.00021734,-2.2186e+07,-2053.3,0,9.8272e+06,-198.15,11472,11820,1,11820,1,0.00022944,-5.0347e-09,0,0.00022944,-0.00016416,8.2708e+07,-1491.8,0,8.2708e+07,-38.14,11819,12516,1,12516,1,0.00087861,-1.1537e-09,0,0.00087861,-4.2729e-05,2.7524e+08,-313.66,0,2.7524e+08,77.507,12515,412.9,0,412.9,0,0.0003743,2.1802e-09,0,0.00036398,7.0044e-05,1.1304e+08,666.62,0,1.0855e+08,86.459,412.9,1
816,3.94,12163,1,12163,1,0.00055587,-5.1806e-09,0,0.00056267,-0.00010378,1.779e+08,-1545.6,0,1.8067e+08,38.714,12162,12879,1,12879,1,0.0011661,1.3563e-09,0,0.0011661,1.0447e-05,3.5077e+08,343.96,0,3.5077e+08,290.4,12878,12168,1,12168,1,0.00055587,-5.8153e-09,0,0.00055587,-0.0001038,1.8731e+08,-1661.2,0,1.8731e+08,50.325,12167,11473,1,11473,1,-5.4348e-05,-9.6566e-09,0,2.7014e-05,-0.00021799,-2.2092e+07,-3044.6,0,9.9896e+06,-270.45,11472,11820,1,11820,1,0.00023042,-7.7858e-09,0,0.00023042,-0.00016466,8.3006e+07,-2362.3,0,8.3006e+07,-43.499,11819,12516,1,12516,1,0.00088133,-2.7745e-09,0,0.00088133,-4.2911e-05,2.7568e+08,-725.26,0,2.7568e+08,131.82,12515,412.9,0,412.9,0,0.00037529,3.0873e-09,0,0.00036502,7.023e-05,1.1313e+08,969.34,0,1.0866e+08,122.94,412.9,1
816,3.95,12163,1,12163,1,0.00055774,-1.4351e-09,0,0.0005645,-0.00010413,1.7826e+08,-444.8,0,1.8101e+08,16.928,12162,12879,1,12879,1,0.0011696,1.2351e-09,0,0.0011696,1.0405e-05,3.512e+08,313.17,0,3.512e+08,178.81,12878,12168,1,12168,1,0.00055774,-1.055e-09,0,0.00055774,-0.00010414,1.8774e+08,-297.36,0,1.8774e+08,13.319,12167,11473,1,11473,1,-5.4112e-05,-5.4564e-09,0,2.7466e-05,-0.00021864,-2.1996e+07,-1747.9,0,1.0154e+07,-137.06,11472,11820,1,11820,1,0.00023142,-2.8855e-09,0,0.00023142,-0.00016517,8.3307e+07,-867.15,0,8.3307e+07,-25.787,11819,12516,1,12516,1,0.00088406,2.7659e-10,0,0.00088406,-4.3096e-05,2.7611e+08,73.241,0,2.7611e+08,60.143,12515,412.9,0,412.9,0,0.00037629,1.8819e-09,0,0.00036606,7.0416e-05,1.1323e+08,577.97,0,1.0877e+08,64.841,412.9,1
816,3.96,12163,1,12163,1,0.00055961,-2.8149e-09,0,0.00056634,-0.00010447,1.7862e+08,-850.02,0,1.8135e+08,11.993,12162,12879,1,12879,1,0.0011731,1.4158e-09,0,0.0011731,1.0363e-05,3.5163e+08,358.08,0,3.5163e+08,251.89,12878,12168,1,12168,1,0.00055961,-2.7758e-09,0,0.00055961,-0.00010449,1.8816e+08,-811.12,0,1.8816e+08,26.05,12167,11473,1,11473,1,-5.3868e-05,-6.8736e-09,0,2.7927e-05,-0.00021929,-2.1897e+07,-2198,0,1.0322e+07,-256.58,11472,11820,1,11820,1,0.00023242,-4.8631e-09,0,0.00023242,-0.00016568,8.3608e+07,-1448.9,0,8.3608e+07,-35.848,11819,12516,1,12516,1,0.0008868,-9.2622e-10,0,0.0008868,-4.3281e-05,2.7654e+08,-252.24,0,2.7654e+08,69.52,12515,412.9,0,412.9,0,0.00037729,2.3292e-09,0,0.0003671,7.0603e-05,1.1332e+08,722.39,0,1.0888e+08,94.967,412.9,1
816,3.97,12163,1,12163,1,0.00056145,-2.0729e-10,0,0.00056816,-0.00010482,1.7896e+08,-76.899,0,1.8169e+08,-19.771,12162,12879,1,12879,1,0.0011766,6.3518e-09,0,0.0011766,1.0318e-05,3.5204e+08,1949.4,0,3.5204e+08,129.06,12878,12168,1,12168,1,0.00056146,1.645e-10,0,0.00056146,-0.00010483,1.8857e+08,44.192,0,1.8857e+08,-1.0463,12167,11473,1,11473,1,-5.3619e-05,-5.7588e-09,0,2.839e-05,-0.00021993,-2.1796e+07,-1855.6,0,1.049e+07,-190.07,11472,11820,1,11820,1,0.00023342,-2.3591e-09,0,0.00023342,-0.00016618,8.3907e+07,-691.86,0,8.3907e+07,-86.939,11819,12516,1,12516,1,0.0008895,1.5818e-09,0,0.0008895,-4.3465e-05,2.7696e+08,450.66,0,2.7696e+08,42.342,12515,412.9,0,412.9,0,0.00037828,2.9137e-09,0,0.00036812,7.0786e-05,1.1341e+08,878.21,0,1.0898e+08,79.487,412.9,1
816,3.98,12163,1,12163,1,0.00056335,-2.9395e-09,0,0.00057002,-0.00010517,1.7933e+08,-880.93,0,1.8204e+08,-8.3145,12162,12879,1,12879,1,0.0011801,1.2942e-09,0,0.0011801,1.0275e-05,3.5248e+08,326.13,0,3.5248e+08,107.15,12878,12168,1,12168,1,0.00056335,-3.4388e-09,0,0.00056335,-0.00010518,1.89e+08,-966.14,0,1.89e+08,8.5874,12167,11473,1,11473,1,-5.3375e-05,-6.4969e-09,0,2.8853e-05,-0.00022059,-2.1697e+07,-1986.4,0,1.0658e+07,-385.51,11472,11820,1,11820,1,0.00023443,-4.5887e-09,0,0.00023443,-0.00016669,8.4211e+07,-1440.9,0,8.4211e+07,-22.701,11819,12516,1,12516,1,0.00089227,-1.1924e-09,0,0.00089227,-4.3653e-05,2.7739e+08,-317.79,0,2.7739e+08,53.863,12515,412.9,0,412.9,0,0.00037929,2.117e-09,0,0.00036918,7.0975e-05,1.135e+08,650.65,0,1.0909e+08,95.839,412.9,1
816,3.99,12163,1,12163,1,0.00056523,3.1154e-09,0,0.00057187,-0.00010552,1.7968e+08,908.05,0,1.8238e+08,-26.414,12162,12879,1,12879,1,0.0011836,5.1622e-09,0,0.0011836,1.023e-05,3.5289e+08,1544.8,0,3.5289e+08,145.82,12878,12168,1,12168,1,0.00056523,3.3393e-09,0,0.00056523,-0.00010553,1.8942e+08,963.62,0,1.8942e+08,-25.614,12167,11473,1,11473,1,-5.312e-05,-3.4446e-10,0,2.9327e-05,-0.00022124,-2.1593e+07,-85.997,0,1.0829e+07,-182.63,11472,11820,1,11820,1,0.00023545,2.2754e-09,0,0.00023545,-0.0001672,8.4514e+07,634.94,0,8.4514e+07,-76.177,11819,12516,1,12516,1,0.00089502,4.3175e-09,0,0.00089502,-4.3841e-05,2.7781e+08,1300.1,0,2.7781e+08,19.609,12515,412.9,0,412.9,0,0.00038029,1.4381e-09,0,0.00037022,7.1161e-05,1.1359e+08,441.61,0,1.0919e+08,65.703,412.9,1
816,4,12163,1,12163,1,0.00056711,-3.1728e-09,0,0.00057372,-0.00010586,1.8003e+08,-936.64,0,1.8271e+08,15.486,12162,12879,1,12879,1,0.0011871,7.8e-10,0,0.0011871,1.0185e-05,3.533e+08,195.53,0,3.533e+08,148.18,12878,12168,1,12168,1,0.00056711,-3.6704e-09,0,0.00056711,-0.00010588,1.8983e+08,-1032.3,0,1.8983e+08,17.827,12167,11473,1,11473,1,-5.286e-05,-5.4469e-09,0,2.9804e-05,-0.00022189,-2.1487e+07,-1689.4,0,1.1002e+07,-131.4,11472,11820,1,11820,1,0.00023646,-4.5708e-09,0,0.00023646,-0.00016771,8.4817e+07,-1385.9,0,8.4817e+07,-20.69,11819,12516,1,12516,1,0.00089776,-1.943e-09,0,0.00089776,-4.4028e-05,2.7823e+08,-507.63,0,2.7823e+08,56.696,12515,412.9,0,412.9,0,0.00038129,1.7177e-09,0,0.00037126,7.1347e-05,1.1367e+08,535.91,0,1.0929e+08,57.286,412.9,1
816,4.01,12163,1,12163,1,0.000569,-4.547e-09,0,0.00057557,-0.00010621,1.8038e+08,-1351.8,0,1.8305e+08,47.238,12162,12879,1,12879,1,0.0011906,1.367e-09,0,0.0011906,1.0139e-05,3.5372e+08,342.43,0,3.5372e+08,307.46,12878,12168,1,12168,1,0.000569,-5.2468e-09,0,0.000569,-0.00010623,1.9025e+08,-1514.5,0,1.9025e+08,51.43,12167,11473,1,11473,1,-5.2601e-05,-8.4099e-09,0,3.0277e-05,-0.00022255,-2.1381e+07,-2637.4,0,1.1173e+07,-220.45,11472,11820,1,11820,1,0.00023748,-6.8415e-09,0,0.00023748,-0.00016823,8.5121e+07,-2099.8,0,8.5121e+07,-20.072,11819,12516,1,12516,1,0.00090051,-2.334e-09,0,0.00090051,-4.4217e-05,2.7865e+08,-603.34,0,2.7865e+08,121.05,12515,412.9,0,412.9,0,0.00038229,2.7757e-09,0,0.0003723,7.1534e-05,1.1375e+08,868.15,0,1.094e+08,112.11,412.9,1
816,4.02,12163,1,12163,1,0.00057087,3.2502e-09,0,0.00057741,-0.00010656,1.8072e+08,943.74,0,1.8338e+08,-19.051,12162,12879,1,12879,1,0.0011941,7.1931e-09,0,0.0011941,1.0093e-05,3.5411e+08,2193.8,0,3.5411e+08,229.12,12878,12168,1,12168,1,0.00057087,3.1344e-09,0,0.00057087,-0.00010658,1.9066e+08,879.83,0,1.9066e+08,-16.503,12167,11473,1,11473,1,-5.234e-05,-5.1879e-10,0,3.0755e-05,-0.00022319,-2.1275e+07,-128.9,0,1.1346e+07,-189.29,11472,11820,1,11820,1,0.0002385,1.5464e-09,0,0.0002385,-0.00016873,8.5424e+07,430.12,0,8.5424e+07,-74.866,11819,12516,1,12516,1,0.00090325,4.9496e-09,0,0.00090325,-4.4404e-05,2.7905e+08,1434.8,0,2.7905e+08,32.394,12515,412.9,0,412.9,0,0.00038328,2.0959e-09,0,0.00037334,7.1718e-05,1.1383e+08,633.92,0,1.0949e+08,78.925,412.9,1
816,4.03,12163,1,12163,1,0.00057276,3.0607e-09,0,0.00057927,-0.00010691,1.8107e+08,907,0,1.8372e+08,-21.599,12162,12879,1,12879,1,0.0011976,8.1385e-09,0,0.0011976,1.0046e-05,3.5452e+08,2548.2,0,3.5452e+08,238.9,12878,12168,1,12168,1,0.00057276,2.7017e-09,0,0.00057276,-0.00010693,1.9108e+08,762.71,0,1.9108e+08,-34.565,12167,11473,1,11473,1,-5.2073e-05,-1.051e-09,0,3.1239e-05,-0.00022384,-2.1167e+07,-262.06,0,1.152e+07,-185.46,11472,11820,1,11820,1,0.00023952,8.9122e-10,0,0.00023952,-0.00016925,8.5728e+07,233.78,0,8.5728e+07,-82.888,11819,12516,1,12516,1,0.00090601,5.2008e-09,0,0.00090601,-4.4594e-05,2.7947e+08,1543.5,0,2.7947e+08,26.354,12515,412.9,0,412.9,0,0.00038428,2.5796e-09,0,0.00037438,7.1904e-05,1.1392e+08,788.34,0,1.0959e+08,79.046,412.9,1
816,4.04,12163,1,12163,1,0.00057467,-1.1797e-09,0,0.00058115,-0.00010727,1.8142e+08,-340.08,0,1.8406e+08,-23.016,12162,12879,1,12879,1,0.0012011,1.5245e-09,0,0.0012011,9.9981e-06,3.5492e+08,516.06,0,3.5492e+08,74.524,12878,12168,1,12168,1,0.00057467,-1.18e-09,0,0.00057467,-0.00010728,1.915e+08,-327.25,0,1.915e+08,-22.068,12167,11473,1,11473,1,-5.1803e-05,-2.8722e-09,0,3.1727e-05,-0.0002245,-2.1057e+07,-887.69,0,1.1696e+07,-104.81,11472,11820,1,11820,1,0.00024055,-2.0513e-09,0,0.00024055,-0.00016976,8.6035e+07,-588.03,0,8.6035e+07,-47.142,11819,12516,1,12516,1,0.00090879,-4.2447e-10,0,0.00090879,-4.4785e-05,2.7988e+08,-121.21,0,2.7988e+08,1.0756,12515,412.9,0,412.9,0,0.00038529,1.0061e-09,0,0.00037544,7.2092e-05,1.14e+08,302.74,0,1.0969e+08,36.53,412.9,1
816,4.05,12163,1,12163,1,0.00057658,1.7958e-09,0,0.00058302,-0.00010762,1.8177e+08,528.5,0,1.8439e+08,-30.704,12162,12879,1,12879,1,0.0012047,3.2283e-09,0,0.0012047,9.9493e-06,3.5531e+08,1008.6,0,3.5531e+08,149.63,12878,12168,1,12168,1,0.00057658,2.0197e-09,0,0.00057658,-0.00010764,1.9191e+08,569.62,0,1.9191e+08,-22.748,12167,11473,1,11473,1,-5.1526e-05,-3.6942e-10,0,3.2221e-05,-0.00022516,-2.0944e+07,-91.652,0,1.1874e+07,-162.6,11472,11820,1,11820,1,0.00024159,1.1193e-09,0,0.00024159,-0.00017028,8.6342e+07,289.18,0,8.6342e+07,-65.474,11819,12516,1,12516,1,0.00091157,2.6288e-09,0,0.00091157,-4.4977e-05,2.8029e+08,803.81,0,2.8029e+08,6.8183,12515,412.9,0,412.9,0,0.00038629,9.8626e-10,0,0.00037649,7.2279e-05,1.1407e+08,309.48,0,1.0979e+08,56.263,412.9,1
816,4.06,12163,1,12163,1,0.00057846,2.4675e-09,0,0.00058487,-0.00010797,1.8211e+08,732.09,0,1.8471e+08,-35.189,12162,12879,1,12879,1,0.0012082,8.9727e-09,0,0.0012082,9.8998e-06,3.5568e+08,2808.6,0,3.5568e+08,328.29,12878,12168,1,12168,1,0.00057846,1.5793e-09,0,0.00057846,-0.00010799,1.9232e+08,444.45,0,1.9232e+08,-40.077,12167,11473,1,11473,1,-5.1244e-05,-9.4858e-10,0,3.2716e-05,-0.00022581,-2.083e+07,-235.4,0,1.2051e+07,-296.78,11472,11820,1,11820,1,0.00024262,8.9868e-11,0,0.00024262,-0.00017078,8.6646e+07,23.652,0,8.6646e+07,-122.81,11819,12516,1,12516,1,0.00091431,4.4379e-09,0,0.00091431,-4.5167e-05,2.8068e+08,1274,0,2.8068e+08,37.75,12515,412.9,0,412.9,0,0.00038728,2.7306e-09,0,0.00037752,7.2462e-05,1.1414e+08,828.69,0,1.0987e+08,119.85,412.9,1
816,4.07,12163,1,12163,1,0.00058037,-5.2629e-09,0,0.00058675,-0.00010832,1.8246e+08,-1536.6,0,1.8505e+08,-10.005,12162,12879,1,12879,1,0.0012117,1.1635e-09,0,0.0012117,9.8516e-06,3.5609e+08,287.77,0,3.5609e+08,202.03,12878,12168,1,12168,1,0.00058038,-5.7671e-09,0,0.00058038,-0.00010834,1.9274e+08,-1659.1,0,1.9274e+08,7.918,12167,11473,1,11473,1,-5.0973e-05,-9.099e-09,0,3.3208e-05,-0.00022647,-2.072e+07,-2808.7,0,1.2227e+07,-275.66,11472,11820,1,11820,1,0.00024366,-7.6318e-09,0,0.00024366,-0.0001713,8.6953e+07,-2262.7,0,8.6953e+07,-71.735,11819,12516,1,12516,1,0.0009171,-3.4812e-09,0,0.0009171,-4.536e-05,2.8109e+08,-919.56,0,2.8109e+08,51.722,12515,412.9,0,412.9,0,0.00038829,2.77e-09,0,0.00037858,7.2651e-05,1.1422e+08,853.98,0,1.0997e+08,88.735,412.9,1
816,4.08,12163,1,12163,1,0.0005823,6.2957e-11,0,0.00058863,-0.00010868,1.828e+08,8.4805,0,1.8538e+08,-23.302,12162,12879,1,12879,1,0.0012153,1.4894e-09,0,0.0012153,9.8008e-06,3.5646e+08,454.96,0,3.5646e+08,54.205,12878,12168,1,12168,1,0.0005823,3.0429e-10,0,0.0005823,-0.0001087,1.9315e+08,78.396,0,1.9315e+08,-25.283,12167,11473,1,11473,1,-5.0686e-05,-1.9734e-09,0,3.3711e-05,-0.00022713,-2.0603e+07,-651.54,0,1.2408e+07,-97.527,11472,11820,1,11820,1,0.00024471,-3.8378e-10,0,0.00024471,-0.00017182,8.7263e+07,-114.63,0,8.7263e+07,-48.575,11819,12516,1,12516,1,0.00091989,5.6074e-10,0,0.00091989,-4.5554e-05,2.8149e+08,153.92,0,2.8149e+08,6.1136,12515,412.9,0,412.9,0,0.00038929,8.1096e-10,0,0.00037963,7.2838e-05,1.1429e+08,244.86,0,1.1006e+08,33.86,412.9,1
816,4.09,12163,1,12163,1,0.00058422,-1.8113e-09,0,0.00059051,-0.00010903,1.8315e+08,-538.2,0,1.8571e+08,11.509,12162,12879,1,12879,1,0.0012189,9.2317e-10,0,0.0012189,9.7498e-06,3.5684e+08,227.99,0,3.5684e+08,118.29,12878,12168,1,12168,1,0.00058422,-1.8366e-09,0,0.00058422,-0.00010905,1.9356e+08,-517.45,0,1.9356e+08,11.195,12167,11473,1,11473,1,-5.0396e-05,-4.5005e-09,0,3.4218e-05,-0.00022779,-2.0485e+07,-1410.9,0,1.2589e+07,-103.01,11472,11820,1,11820,1,0.00024576,-2.8676e-09,0,0.00024576,-0.00017234,8.7572e+07,-861.66,0,8.7572e+07,-23.049,11819,12516,1,12516,1,0.00092268,-7.8625e-10,0,0.00092268,-4.5748e-05,2.8189e+08,-206.78,0,2.8189e+08,48.561,12515,412.9,0,412.9,0,0.00039029,1.3813e-09,0,0.00038068,7.3025e-05,1.1437e+08,424.43,0,1.1015e+08,48.166,412.9,1
816,4.1,12163,1,12163,1,0.00058615,1.9104e-09,0,0.00059241,-0.00010939,1.8349e+08,553.19,0,1.8604e+08,-26.425,12162,12879,1,12879,1,0.0012224,4.6496e-09,0,0.0012224,9.6989e-06,3.5722e+08,1410.1,0,3.5722e+08,197.82,12878,12168,1,12168,1,0.00058615,1.687e-09,0,0.00058615,-0.00010941,1.9397e+08,474.45,0,1.9397e+08,-16.543,12167,11473,1,11473,1,-5.0107e-05,-6.2506e-10,0,3.4728e-05,-0.00022845,-2.0368e+07,-153.79,0,1.2771e+07,-236.04,11472,11820,1,11820,1,0.00024681,8.5835e-10,0,0.00024681,-0.00017286,8.7882e+07,235.11,0,8.7882e+07,-90.093,11819,12516,1,12516,1,0.00092548,2.9932e-09,0,0.00092548,-4.5943e-05,2.8229e+08,870.43,0,2.8229e+08,29.225,12515,412.9,0,412.9,0,0.0003913,1.3521e-09,0,0.00038174,7.3213e-05,1.1444e+08,408.19,0,1.1024e+08,86.242,412.9,1
816,4.11,12163,1,12163,1,0.00058807,-1.1277e-10,0,0.0005943,-0.00010975,1.8383e+08,-31.788,0,1.8636e+08,-5.6965,12162,12879,1,12879,1,0.001226,2.3927e-09,0,0.001226,9.6458e-06,3.5759e+08,760.38,0,3.5759e+08,92.443,12878,12168,1,12168,1,0.00058807,-1.1455e-10,0,0.00058807,-0.00010977,1.9438e+08,-28.954,0,1.9438e+08,3.9874,12167,11473,1,11473,1,-4.9807e-05,-2.0573e-09,0,3.5244e-05,-0.00022911,-2.0246e+07,-636.73,0,1.2955e+07,-112.19,11472,11820,1,11820,1,0.00024787,-7.8603e-10,0,0.00024787,-0.00017338,8.8192e+07,-226.68,0,8.8192e+07,-29.964,11819,12516,1,12516,1,0.00092828,4.1956e-10,0,0.00092828,-4.6139e-05,2.8268e+08,117.29,0,2.8268e+08,21.685,12515,412.9,0,412.9,0,0.00039231,1.0192e-09,0,0.0003828,7.3399e-05,1.145e+08,306.89,0,1.1033e+08,39.94,412.9,1
816,4.12,12163,1,12163,1,0.00059001,-1.349e-09,0,0.0005962,-0.00011011,1.8417e+08,-396.68,0,1.8669e+08,1.1652,12162,12879,1,12879,1,0.0012295,7.3364e-10,0,0.0012295,9.5931e-06,3.5796e+08,180.07,0,3.5796e+08,101.1,12878,12168,1,12168,1,0.00059001,-1.2271e-09,0,0.00059001,-0.00011013,1.9479e+08,-342.48,0,1.9479e+08,3.3576,12167,11473,1,11473,1,-4.9509e-05,-3.614e-09,0,3.576e-05,-0.00022978,-2.0125e+07,-1119.4,0,1.3139e+07,-82.524,11472,11820,1,11820,1,0.00024893,-2.2169e-09,0,0.00024893,-0.0001739,8.8503e+07,-645.92,0,8.8503e+07,-23.74,11819,12516,1,12516,1,0.00093109,-4.9846e-10,0,0.00093109,-4.6335e-05,2.8307e+08,-139.71,0,2.8307e+08,26.609,12515,412.9,0,412.9,0,0.00039331,1.0986e-09,0,0.00038385,7.3586e-05,1.1457e+08,333.85,0,1.1042e+08,33.626,412.9,1
816,4.13,12163,1,12163,1,0.00059194,-1.0453e-09,0,0.00059809,-0.00011047,1.8451e+08,-311.72,0,1.8701e+08,3.0022,12162,12879,1,12879,1,0.0012331,5.9468e-10,0,0.0012331,9.5394e-06,3.5832e+08,172.99,0,3.5832e+08,89.999,12878,12168,1,12168,1,0.00059194,-7.7794e-10,0,0.00059194,-0.00011048,1.952e+08,-220.6,0,1.952e+08,9.2839,12167,11473,1,11473,1,-4.9205e-05,-3.5193e-09,0,3.628e-05,-0.00023044,-2.0002e+07,-1105.2,0,1.3324e+07,-119.58,11472,11820,1,11820,1,0.00025,-1.9441e-09,0,0.00025,-0.00017442,8.8813e+07,-568.34,0,8.8813e+07,-34.986,11819,12516,1,12516,1,0.00093388,-6.3284e-11,0,0.00093388,-4.6532e-05,2.8346e+08,-18.088,0,2.8346e+08,41.384,12515,412.9,0,412.9,0,0.00039431,1.1547e-09,0,0.00038491,7.3773e-05,1.1463e+08,350.76,0,1.105e+08,44.941,412.9,1
816,4.14,12163,1,12163,1,0.0005939,-1.6244e-09,0,0.00060001,-0.00011083,1.8485e+08,-481.93,0,1.8734e+08,-10.073,12162,12879,1,12879,1,0.0012367,5.9541e-10,0,0.0012367,9.4859e-06,3.5869e+08,145.65,0,3.5869e+08,62.232,12878,12168,1,12168,1,0.0005939,-1.8279e-09,0,0.0005939,-0.00011085,1.9562e+08,-515.94,0,1.9562e+08,8.3099,12167,11473,1,11473,1,-4.8902e-05,-3.4984e-09,0,3.6804e-05,-0.00023111,-1.9878e+07,-1095.2,0,1.3511e+07,-193.19,11472,11820,1,11820,1,0.00025107,-2.6225e-09,0,0.00025107,-0.00017494,8.9128e+07,-801.24,0,8.9128e+07,-36.685,11819,12516,1,12516,1,0.00093673,-6.4235e-10,0,0.00093673,-4.6731e-05,2.8385e+08,-162.9,0,2.8385e+08,33.318,12515,412.9,0,412.9,0,0.00039533,1.1879e-09,0,0.00038598,7.3962e-05,1.147e+08,364.81,0,1.1059e+08,59.573,412.9,1
816,4.15,12163,1,12163,1,0.00059581,-1.6736e-09,0,0.00060188,-0.00011118,1.8518e+08,-498.2,0,1.8765e+08,14.451,12162,12879,1,12879,1,0.0012402,3.46e-09,0,0.0012402,9.4299e-06,3.5902e+08,1010.1,0,3.5902e+08,201.84,12878,12168,1,12168,1,0.00059581,-1.1925e-09,0,0.00059581,-0.0001112,1.9601e+08,-322.3,0,1.9601e+08,13.89,12167,11473,1,11473,1,-4.8584e-05,-6.9461e-09,0,3.7334e-05,-0.00023176,-1.9749e+07,-2148.3,0,1.3699e+07,-168.73,11472,11820,1,11820,1,0.00025213,-3.8986e-09,0,0.00025213,-0.00017546,8.9436e+07,-1129.2,0,8.9436e+07,-37.63,11819,12516,1,12516,1,0.00093949,5.4114e-10,0,0.00093949,-4.6927e-05,2.8421e+08,141.51,0,2.8421e+08,59.511,12515,412.9,0,412.9,0,0.00039631,2.6938e-09,0,0.00038701,7.4145e-05,1.1475e+08,802.01,0,1.1066e+08,71.46,412.9,1
816,4.16,12163,1,12163,1,0.00059777,-1.8678e-09,0,0.00060381,-0.00011155,1.8552e+08,-554.36,0,1.8798e+08,-12.611,12162,12879,1,12879,1,0.0012439,7.7299e-10,0,0.0012439,9.3764e-06,3.5939e+08,188.62,0,3.5939e+08,113.07,12878,12168,1,12168,1,0.00059777,-1.6777e-09,0,0.00059777,-0.00011157,1.9643e+08,-488.3,0,1.9643e+08,3.8144,12167,11473,1,11473,1,-4.8281e-05,-4.8756e-09,0,3.7858e-05,-0.00023243,-1.9626e+07,-1543.6,0,1.3885e+07,-159.93,11472,11820,1,11820,1,0.00025321,-3.1116e-09,0,0.00025321,-0.00017599,8.975e+07,-928.51,0,8.975e+07,-52.223,11819,12516,1,12516,1,0.00094234,-6.2833e-10,0,0.00094234,-4.7126e-05,2.8461e+08,-163.91,0,2.8461e+08,32.199,12515,412.9,0,412.9,0,0.00039733,1.54e-09,0,0.00038809,7.4335e-05,1.1482e+08,475.36,0,1.1075e+08,60.252,412.9,1
816,4.17,12163,1,12163,1,0.00059974,-9.9817e-10,0,0.00060573,-0.00011191,1.8586e+08,-303.16,0,1.883e+08,-12.756,12162,12879,1,12879,1,0.0012475,8.5668e-10,0,0.0012475,9.3196e-06,3.5974e+08,208.61,0,3.5974e+08,97.215,12878,12168,1,12168,1,0.00059974,-8.1604e-10,0,0.00059974,-0.00011193,1.9683e+08,-225.27,0,1.9683e+08,-14.936,12167,11473,1,11473,1,-4.7961e-05,-3.5239e-09,0,3.8398e-05,-0.0002331,-1.9496e+07,-1114.8,0,1.4076e+07,-119.02,11472,11820,1,11820,1,0.0002543,-1.8406e-09,0,0.0002543,-0.00017651,9.0066e+07,-538.68,0,9.0066e+07,-67.44,11819,12516,1,12516,1,0.00094518,-3.8632e-11,0,0.00094518,-4.7328e-05,2.8499e+08,-9.8424,0,2.8499e+08,40.256,12515,412.9,0,412.9,0,0.00039834,1.1369e-09,0,0.00038915,7.4523e-05,1.1488e+08,346.7,0,1.1083e+08,59.253,412.9,1
816,4.18,12163,1,12163,1,0.00060169,-1.4259e-09,0,0.00060764,-0.00011227,1.8619e+08,-426.09,0,1.8861e+08,6.4075,12162,12879,1,12879,1,0.001251,2.4978e-09,0,0.001251,9.2626e-06,3.6008e+08,728.79,0,3.6008e+08,145.32,12878,12168,1,12168,1,0.00060169,-1.1008e-09,0,0.00060169,-0.00011229,1.9723e+08,-300.61,0,1.9723e+08,17.41,12167,11473,1,11473,1,-4.7636e-05,-5.3209e-09,0,3.8939e-05,-0.00023377,-1.9365e+07,-1674,0,1.4267e+07,-186.2,11472,11820,1,11820,1,0.00025538,-3.1328e-09,0,0.00025538,-0.00017703,9.038e+07,-886.11,0,9.038e+07,-32.616,11819,12516,1,12516,1,0.000948,3.103e-10,0,0.000948,-4.7528e-05,2.8536e+08,77.371,0,2.8536e+08,47.696,12515,412.9,0,412.9,0,0.00039934,1.9944e-09,0,0.00039021,7.4709e-05,1.1493e+08,598.23,0,1.1091e+08,65.765,412.9,1
816,4.19,12163,1,12163,1,0.00060366,-2.6125e-09,0,0.00060958,-0.00011264,1.8653e+08,-770.89,0,1.8894e+08,-35.066,12162,12879,1,12879,1,0.0012547,1.1077e-09,0,0.0012547,9.2056e-06,3.6043e+08,268.56,0,3.6043e+08,122.21,12878,12168,1,12168,1,0.00060367,-2.9608e-09,0,0.00060367,-0.00011266,1.9764e+08,-827.31,0,1.9764e+08,-11.628,12167,11473,1,11473,1,-4.7314e-05,-5.7916e-09,0,3.9482e-05,-0.00023444,-1.9234e+07,-1829.9,0,1.4459e+07,-305.4,11472,11820,1,11820,1,0.00025648,-3.9346e-09,0,0.00025648,-0.00017757,9.0696e+07,-1183.2,0,9.0696e+07,-96.408,11819,12516,1,12516,1,0.00095086,-1.2509e-09,0,0.00095086,-4.773e-05,2.8574e+08,-318.21,0,2.8574e+08,45.366,12515,412.9,0,412.9,0,0.00040036,1.8285e-09,0,0.00039129,7.4899e-05,1.1499e+08,564.22,0,1.1099e+08,101.05,412.9,1
816,4.2,12163,1,12163,1,0.00060565,1.7397e-09,0,0.00061152,-0.00011301,1.8687e+08,489.21,0,1.8926e+08,-13.472,12162,12879,1,12879,1,0.0012583,2.5831e-09,0,0.0012583,9.1473e-06,3.6077e+08,754.72,0,3.6077e+08,85.315,12878,12168,1,12168,1,0.00060565,1.9554e-09,0,0.00060565,-0.00011302,1.9805e+08,542.8,0,1.9805e+08,-11.418,12167,11473,1,11473,1,-4.6985e-05,-1.5116e-11,0,4.0032e-05,-0.00023511,-1.91e+07,-3.3897,0,1.4654e+07,-88.151,11472,11820,1,11820,1,0.00025758,1.3501e-09,0,0.00025758,-0.0001781,9.1015e+07,402.63,0,9.1015e+07,-35.817,11819,12516,1,12516,1,0.00095372,2.2581e-09,0,0.00095372,-4.7934e-05,2.8611e+08,631.55,0,2.8611e+08,9.7182,12515,412.9,0,412.9,0,0.00040138,6.4746e-10,0,0.00039236,7.5088e-05,1.1504e+08,186.31,0,1.1106e+08,34.588,412.9,1
816,4.21,12163,1,12163,1,0.00060761,-1.2505e-09,0,0.00061344,-0.00011337,1.8719e+08,-366.87,0,1.8956e+08,6.4706,12162,12879,1,12879,1,0.0012619,2.1329e-09,0,0.0012619,9.0875e-06,3.6109e+08,649.76,0,3.6109e+08,122.8,12878,12168,1,12168,1,0.00060761,-1.1271e-09,0,0.00060761,-0.00011339,1.9845e+08,-298.41,0,1.9845e+08,16.12,12167,11473,1,11473,1,-4.6646e-05,-4.1564e-09,0,4.0587e-05,-0.00023578,-1.8963e+07,-1289.9,0,1.4849e+07,-134.77,11472,11820,1,11820,1,0.00025867,-2.7264e-09,0,0.00025867,-0.00017862,9.1329e+07,-778.79,0,9.1329e+07,-29.886,11819,12516,1,12516,1,0.00095655,1.5892e-10,0,0.00095655,-4.8136e-05,2.8647e+08,38.454,0,2.8647e+08,38.553,12515,412.9,0,412.9,0,0.00040237,1.6299e-09,0,0.00039342,7.5274e-05,1.1509e+08,484.83,0,1.1113e+08,49.382,412.9,1
816,4.22,12163,1,12163,1,0.00060958,2.9588e-09,0,0.00061536,-0.00011373,1.8752e+08,854.03,0,1.8988e+08,-1.9841,12162,12879,1,12879,1,0.0012655,7.9979e-09,0,0.0012655,9.0292e-06,3.6142e+08,2463.2,0,3.6142e+08,284.93,12878,12168,1,12168,1,0.00060958,2.5849e-09,0,0.00060958,-0.00011375,1.9885e+08,702.03,0,1.9885e+08,-5.5457,12167,11473,1,11473,1,-4.6313e-05,-1.0388e-09,0,4.1139e-05,-0.00023645,-1.8828e+07,-250,0,1.5043e+07,-215.37,11472,11820,1,11820,1,0.00025977,1.1164e-09,0,0.00025977,-0.00017915,9.1645e+07,293.13,0,9.1645e+07,-73.383,11819,12516,1,12516,1,0.00095939,4.7247e-09,0,0.00095939,-4.8339e-05,2.8684e+08,1359.5,0,2.8684e+08,59.129,12515,412.9,0,412.9,0,0.00040338,2.297e-09,0,0.00039448,7.546e-05,1.1514e+08,691.12,0,1.1121e+08,98.585,412.9,1
816,4.23,12163,1,12163,1,0.00061157,-3.7844e-09,0,0.00061732,-0.0001141,1.8786e+08,-1088.5,0,1.902e+08,-25.805,12162,12879,1,12879,1,0.0012691,1.0812e-09,0,0.0012691,8.9693e-06,3.6176e+08,259.51,0,3.6176e+08,133.42,12878,12168,1,12168,1,0.00061157,-4.3636e-09,0,0.00061157,-0.00011412,1.9926e+08,-1238.3,0,1.9926e+08,-7.9848,12167,11473,1,11473,1,-4.5977e-05,-6.1557e-09,0,4.1697e-05,-0.00023713,-1.8692e+07,-1862.9,0,1.524e+07,-242.02,11472,11820,1,11820,1,0.00026088,-5.2846e-09,0,0.00026088,-0.00017968,9.1964e+07,-1559,0,9.1964e+07,-88.948,11819,12516,1,12516,1,0.00096226,-2.694e-09,0,0.00096226,-4.8544e-05,2.8721e+08,-684.66,0,2.8721e+08,52.418,12515,412.9,0,412.9,0,0.0004044,1.9519e-09,0,0.00039556,7.565e-05,1.1519e+08,593.62,0,1.1128e+08,89.564,412.9,1
816,4.24,12163,1,12163,1,0.00061355,-8.5635e-10,0,0.00061925,-0.00011447,1.8818e+08,-255.63,0,1.905e+08,8.5065,12162,12879,1,12879,1,0.0012727,1.7087e-09,0,0.0012727,8.9076e-06,3.6206e+08,512.99,0,3.6206e+08,113.41,12878,12168,1,12168,1,0.00061355,-4.9256e-10,0,0.00061355,-0.00011449,1.9965e+08,-130.91,0,1.9965e+08,11.387,12167,11473,1,11473,1,-4.5628e-05,-3.8114e-09,0,4.2261e-05,-0.0002378,-1.855e+07,-1199.9,0,1.5438e+07,-100.24,11472,11820,1,11820,1,0.00026199,-1.9226e-09,0,0.00026199,-0.00018021,9.2282e+07,-553.67,0,9.2282e+07,-28.589,11819,12516,1,12516,1,0.00096511,2.4767e-10,0,0.00096511,-4.8749e-05,2.8756e+08,61.311,0,2.8756e+08,42.27,12515,412.9,0,412.9,0,0.0004054,1.4132e-09,0,0.00039662,7.5837e-05,1.1523e+08,423.3,0,1.1135e+08,47.11,412.9,1
816,4.25,12163,1,12163,1,0.00061555,1.3179e-09,0,0.00062121,-0.00011484,1.8852e+08,372.7,0,1.9082e+08,14.262,12162,12879,1,12879,1,0.0012764,4.6918e-09,0,0.0012764,8.8473e-06,3.6239e+08,1444.9,0,3.6239e+08,211.66,12878,12168,1,12168,1,0.00061555,9.3199e-10,0,0.00061555,-0.00011486,2.0006e+08,246.92,0,2.0006e+08,17.537,12167,11473,1,11473,1,-4.5285e-05,-1.0347e-09,0,4.2826e-05,-0.00023847,-1.8411e+07,-337.85,0,1.5636e+07,-176.55,11472,11820,1,11820,1,0.0002631,3.4475e-10,0,0.0002631,-0.00018074,9.2601e+07,84.896,0,9.2601e+07,-35.014,11819,12516,1,12516,1,0.00096799,2.2366e-09,0,0.00096799,-4.8955e-05,2.8793e+08,643.43,0,2.8793e+08,68.437,12515,412.9,0,412.9,0,0.00040642,1.3953e-09,0,0.0003977,7.6026e-05,1.1528e+08,417.21,0,1.1142e+08,75.543,412.9,1
816,4.26,12163,1,12163,1,0.00061754,1.9511e-10,0,0.00062316,-0.00011521,1.8884e+08,55.145,0,1.9113e+08,-12.964,12162,12879,1,12879,1,0.00128,3.7068e-09,0,0.00128,8.784e-06,3.627e+08,1177,0,3.627e+08,98.051,12878,12168,1,12168,1,0.00061754,1.6141e-10,0,0.00061754,-0.00011523,2.0046e+08,39.906,0,2.0046e+08,-10.529,12167,11473,1,11473,1,-4.4928e-05,-2.6382e-09,0,4.3401e-05,-0.00023915,-1.8266e+07,-811.43,0,1.5838e+07,-147.41,11472,11820,1,11820,1,0.00026423,-7.326e-10,0,0.00026423,-0.00018127,9.2921e+07,-198.08,0,9.2921e+07,-46.548,11819,12516,1,12516,1,0.00097086,1.0277e-09,0,0.00097086,-4.9162e-05,2.8828e+08,275.61,0,2.8828e+08,27.052,12515,412.9,0,412.9,0,0.00040743,1.4486e-09,0,0.00039877,7.6214e-05,1.1532e+08,431.68,0,1.1149e+08,51.61,412.9,1
816,4.27,12163,1,12163,1,0.00061955,-2.6765e-09,0,0.00062512,-0.00011558,1.8917e+08,-772.45,0,1.9144e+08,1.0731,12162,12879,1,12879,1,0.0012837,9.3902e-10,0,0.0012837,8.7216e-06,3.6302e+08,223.93,0,3.6302e+08,145.61,12878,12168,1,12168,1,0.00061955,-2.6019e-09,0,0.00061955,-0.0001156,2.0086e+08,-732.87,0,2.0086e+08,11.352,12167,11473,1,11473,1,-4.4575e-05,-6.0463e-09,0,4.3976e-05,-0.00023983,-1.8123e+07,-1871,0,1.6039e+07,-181.58,11472,11820,1,11820,1,0.00026535,-4.3437e-09,0,0.00026535,-0.00018181,9.3243e+07,-1257.1,0,9.3243e+07,-45.559,11819,12516,1,12516,1,0.00097375,-1.1006e-09,0,0.00097375,-4.9371e-05,2.8864e+08,-300.1,0,2.8864e+08,48.235,12515,412.9,0,412.9,0,0.00040845,1.8803e-09,0,0.00039985,7.6403e-05,1.1536e+08,569.77,0,1.1156e+08,66.849,412.9,1
816,4.28,12163,1,12163,1,0.00062157,-4.0028e-10,0,0.0006271,-0.00011596,1.895e+08,-126.17,0,1.9175e+08,-59.413,12162,12879,1,12879,1,0.0012874,8.0886e-10,0,0.0012874,8.6568e-06,3.6332e+08,206.67,0,3.6332e+08,88.746,12878,12168,1,12168,1,0.00062157,-3.7122e-10,0,0.00062157,-0.00011598,2.0126e+08,-104.22,0,2.0126e+08,-63.017,12167,11473,1,11473,1,-4.4211e-05,-1.8487e-09,0,4.4208e-05,-0.00024051,-1.7976e+07,-611.49,0,1.6243e+07,-218.53,11472,11820,1,11820,1,0.00026649,-1.0853e-09,0,0.00026649,-0.00018235,9.3567e+07,-313,0,9.3567e+07,-118.05,11819,12516,1,12516,1,0.00097666,3.2731e-10,0,0.00097666,-4.9581e-05,2.8899e+08,83.384,0,2.8899e+08,-3.4673,12515,412.9,0,412.9,0,0.00040947,7.8078e-10,0,0.00040094,7.6593e-05,1.154e+08,226.9,0,1.1163e+08,70.479,412.9,1
816,4.29,12163,1,12163,1,0.00062359,-1.9537e-10,0,0.00062907,-0.00011633,1.8982e+08,-66.8,0,1.9205e+08,8.7183,12162,12879,1,12879,1,0.001291,1.0205e-09,0,0.001291,8.5927e-06,3.6362e+08,281.94,0,3.6362e+08,62.697,12878,12168,1,12168,1,0.00062359,-1.1909e-10,0,0.00062359,-0.00011635,2.0166e+08,-31.942,0,2.0166e+08,11.635,12167,11473,1,11473,1,-4.3846e-05,-1.337e-09,0,4.3844e-05,-0.00024119,-1.7828e+07,-419.36,0,1.6447e+07,-69.274,11472,11820,1,11820,1,0.00026763,-7.3486e-10,0,0.00026763,-0.00018289,9.3889e+07,-213.49,0,9.3889e+07,-12.78,11819,12516,1,12516,1,0.00097956,3.6119e-10,0,0.00097956,-4.9791e-05,2.8934e+08,90.959,0,2.8934e+08,32.016,12515,412.9,0,412.9,0,0.00041048,6.2702e-10,0,0.00040202,7.6782e-05,1.1544e+08,182.32,0,1.1169e+08,29.133,412.9,1
816,4.3,12163,1,12163,1,0.00062559,-1.044e-09,0,0.00063102,-0.0001167,1.9014e+08,-310.08,0,1.9235e+08,34.51,12162,12879,1,12879,1,0.0012947,4.1685e-09,0,0.0012947,8.5276e-06,3.6391e+08,1220.8,0,3.6391e+08,196.29,12878,12168,1,12168,1,0.00062559,-6.6638e-10,0,0.00062559,-0.00011672,2.0205e+08,-174.85,0,2.0205e+08,41.104,12167,11473,1,11473,1,-4.3477e-05,-5.7308e-09,0,4.3475e-05,-0.00024187,-1.7678e+07,-1758.2,0,1.6652e+07,-103.5,11472,11820,1,11820,1,0.00026875,-3.2025e-09,0,0.00026875,-0.00018342,9.4208e+07,-907.62,0,9.4208e+07,-20.52,11819,12516,1,12516,1,0.00098243,8.9134e-10,0,0.00098243,-4.9999e-05,2.8968e+08,222.74,0,2.8968e+08,78.44,12515,412.9,0,412.9,0,0.00041148,2.5457e-09,0,0.00040309,7.6968e-05,1.1547e+08,742.74,0,1.1175e+08,67.508,412.9,1
816,4.31,12163,1,12163,1,0.00062762,-4.448e-09,0,0.00063301,-0.00011708,1.9047e+08,-1286.6,0,1.9266e+08,-37.72,12162,12879,1,12879,1,0.0012984,1.2861e-09,0,0.0012984,8.4624e-06,3.6422e+08,304.4,0,3.6422e+08,136.84,12878,12168,1,12168,1,0.00062762,-5.1513e-09,0,0.00062762,-0.0001171,2.0245e+08,-1438.6,0,2.0245e+08,-17.042,12167,11473,1,11473,1,-4.3109e-05,-8.0286e-09,0,4.3108e-05,-0.00024256,-1.7529e+07,-2499.5,0,1.6857e+07,-318.68,11472,11820,1,11820,1,0.0002699,-6.626e-09,0,0.0002699,-0.00018396,9.4533e+07,-1981.3,0,9.4533e+07,-111.34,11819,12516,1,12516,1,0.00098535,-2.3679e-09,0,0.00098535,-5.0211e-05,2.9003e+08,-589.74,0,2.9003e+08,51.532,12515,412.9,0,412.9,0,0.00041251,2.6863e-09,0,0.00040418,7.7159e-05,1.1551e+08,825.55,0,1.1182e+08,110.78,412.9,1
816,4.32,12163,1,12163,1,0.00062966,9.3377e-10,0,0.000635,-0.00011745,1.9079e+08,242.24,0,1.9297e+08,-25.152,12162,12879,1,12879,1,0.0013021,2.4983e-09,0,0.0013021,8.3956e-06,3.6451e+08,690.82,0,3.6451e+08,81.875,12878,12168,1,12168,1,0.00062966,1.1295e-09,0,0.00062966,-0.00011747,2.0285e+08,304.5,0,2.0285e+08,-25.111,12167,11473,1,11473,1,-4.2734e-05,-9.7187e-10,0,4.2726e-05,-0.00024324,-1.7378e+07,-326.37,0,1.7065e+07,-118.02,11472,11820,1,11820,1,0.00027105,4.4924e-10,0,0.00027105,-0.0001845,9.4858e+07,123.6,0,9.4858e+07,-67.878,11819,12516,1,12516,1,0.00098826,1.5259e-09,0,0.00098826,-5.0424e-05,2.9037e+08,388.82,0,2.9037e+08,14.43,12515,412.9,0,412.9,0,0.00041353,7.9376e-10,0,0.00040527,7.7349e-05,1.1554e+08,219.42,0,1.1188e+08,47.826,412.9,1
816,4.33,12163,1,12163,1,0.0006317,1.8786e-10,0,0.00063699,-0.00011783,1.9112e+08,44.045,0,1.9327e+08,10.304,12162,12879,1,12879,1,0.0013058,2.2317e-09,0,0.0013058,8.3281e-06,3.6479e+08,660.75,0,3.6479e+08,112.21,12878,12168,1,12168,1,0.0006317,3.0327e-10,0,0.0006317,-0.00011785,2.0324e+08,75.287,0,2.0324e+08,10.976,12167,11473,1,11473,1,-4.2351e-05,-1.8075e-09,0,4.2347e-05,-0.00024393,-1.7223e+07,-575.92,0,1.7221e+07,-116.6,11472,11820,1,11820,1,0.00027221,-4.1207e-10,0,0.00027221,-0.00018504,9.5184e+07,-110.05,0,9.5184e+07,-24.964,11819,12516,1,12516,1,0.00099119,7.8071e-10,0,0.00099119,-5.0637e-05,2.9071e+08,208.16,0,2.9071e+08,38.378,12515,412.9,0,412.9,0,0.00041455,9.3875e-10,0,0.00040636,7.7539e-05,1.1558e+08,274.59,0,1.1193e+08,44.49,412.9,1
816,4.34,12163,1,12163,1,0.00063374,2.2777e-09,0,0.00063898,-0.00011821,1.9143e+08,649.81,0,1.9357e+08,19.809,12162,12879,1,12879,1,0.0013095,6.0784e-09,0,0.0013095,8.2602e-06,3.6508e+08,1859,0,3.6508e+08,279.25,12878,12168,1,12168,1,0.00063374,1.994e-09,0,0.00063374,-0.00011823,2.0364e+08,535.47,0,2.0364e+08,3.8511,12167,11473,1,11473,1,-4.1965e-05,-9.4089e-10,0,4.1961e-05,-0.00024461,-1.7066e+07,-221.08,0,1.7065e+07,-135.55,11472,11820,1,11820,1,0.00027336,8.4305e-10,0,0.00027336,-0.00018558,9.551e+07,216.8,0,9.551e+07,-32.087,11819,12516,1,12516,1,0.00099411,3.5987e-09,0,0.00099411,-5.0851e-05,2.9105e+08,1026.6,0,2.9105e+08,57.797,12515,412.9,0,412.9,0,0.00041556,1.7615e-09,0,0.00040744,7.7728e-05,1.156e+08,525.02,0,1.1199e+08,78.492,412.9,1
816,4.35,12163,1,12163,1,0.00063578,3.1938e-09,0,0.00064097,-0.00011859,1.9175e+08,926.4,0,1.9387e+08,-1.1105,12162,12879,1,12879,1,0.0013132,6.5319e-09,0,0.0013132,8.1912e-06,3.6535e+08,2058.8,0,3.6535e+08,366.83,12878,12168,1,12168,1,0.00063578,3.589e-09,0,0.00063578,-0.00011861,2.0403e+08,973.68,0,2.0403e+08,-22.955,12167,11473,1,11473,1,-4.1574e-05,-1.3828e-09,0,4.1573e-05,-0.0002453,-1.6909e+07,-324.45,0,1.6908e+07,-203.04,11472,11820,1,11820,1,0.00027452,1.4647e-09,0,0.00027452,-0.00018613,9.5835e+07,358.44,0,9.5835e+07,-85.312,11819,12516,1,12516,1,0.00099703,5.0969e-09,0,0.00099703,-5.1065e-05,2.9138e+08,1498.5,0,2.9138e+08,61.945,12515,412.9,0,412.9,0,0.00041658,2.2314e-09,0,0.00040853,7.7916e-05,1.1563e+08,673.39,0,1.1205e+08,126.23,412.9,1
816,4.36,12163,1,12163,1,0.00063781,5.5926e-10,0,0.00064296,-0.00011896,1.9207e+08,183.79,0,1.9416e+08,-35.622,12162,12879,1,12879,1,0.0013168,2.9564e-09,0,0.0013168,8.1215e-06,3.6562e+08,991.48,0,3.6562e+08,176.36,12878,12168,1,12168,1,0.00063782,2.9311e-10,0,0.00063782,-0.00011898,2.0442e+08,78.872,0,2.0442e+08,-46.671,12167,11473,1,11473,1,-4.1185e-05,-1.1889e-09,0,4.1179e-05,-0.00024598,-1.6751e+07,-287.29,0,1.6749e+07,-135.1,11472,11820,1,11820,1,0.00027568,-5.9145e-10,0,0.00027568,-0.00018667,9.616e+07,-143.51,0,9.616e+07,-88.624,11819,12516,1,12516,1,0.00099995,1.6126e-09,0,0.00099995,-5.128e-05,2.9171e+08,489.15,0,2.9171e+08,4.5957,12515,412.9,0,412.9,0,0.00041759,1.2567e-09,0,0.00040961,7.8105e-05,1.1566e+08,369.48,0,1.121e+08,64.064,412.9,1
816,4.37,12163,1,12163,1,0.00063987,1.5125e-09,0,0.00064497,-0.00011934,1.9239e+08,449.42,0,1.9446e+08,0.22153,12162,12879,1,12879,1,0.0013206,5.8195e-09,0,0.0013206,8.0517e-06,3.659e+08,1835.3,0,3.659e+08,271.32,12878,12168,1,12168,1,0.00063987,1.107e-09,0,0.00063987,-0.00011936,2.0481e+08,307.13,0,2.0481e+08,-28.186,12167,11473,1,11473,1,-4.0791e-05,-9.2534e-10,0,4.0786e-05,-0.00024667,-1.6592e+07,-216.57,0,1.659e+07,-146.36,11472,11820,1,11820,1,0.00027685,-1.2967e-10,0,0.00027685,-0.00018721,9.6488e+07,-32.52,0,9.6488e+07,-66.032,11819,12516,1,12516,1,0.0010029,2.8226e-09,0,0.0010029,-5.1496e-05,2.9204e+08,828.37,0,2.9204e+08,43.375,12515,412.9,0,412.9,0,0.00041861,1.8684e-09,0,0.00041071,7.8295e-05,1.1568e+08,555.73,0,1.1216e+08,87.28,412.9,1
816,4.38,12163,1,12163,1,0.00064194,-7.9624e-10,0,0.00064699,-0.00011973,1.9271e+08,-212.96,0,1.9476e+08,-22.892,12162,12879,1,12879,1,0.0013243,1.6195e-09,0,0.0013243,7.9805e-06,3.6617e+08,542.6,0,3.6617e+08,73.503,12878,12168,1,12168,1,0.00064194,-8.5009e-10,0,0.00064194,-0.00011975,2.052e+08,-226.79,0,2.052e+08,-24.436,12167,11473,1,11473,1,-4.039e-05,-2.0593e-09,0,4.0383e-05,-0.00024736,-1.643e+07,-593,0,1.6428e+07,-86.722,11472,11820,1,11820,1,0.00027803,-1.5018e-09,0,0.00027803,-0.00018776,9.6818e+07,-415.7,0,9.6818e+07,-43.848,11819,12516,1,12516,1,0.0010059,-2.5853e-10,0,0.0010059,-5.1714e-05,2.9237e+08,-64.271,0,2.9237e+08,-4.5804,12515,412.9,0,412.9,0,0.00041964,8.6141e-10,0,0.00041181,7.8486e-05,1.1571e+08,247.23,0,1.1221e+08,29.823,412.9,1
816,4.39,12163,1,12163,1,0.00064401,8.8378e-10,0,0.00064901,-0.00012011,1.9302e+08,258.06,0,1.9505e+08,-25.376,12162,12879,1,12879,1,0.001328,2.1037e-09,0,0.001328,7.908e-06,3.6642e+08,669.88,0,3.6642e+08,88.873,12878,12168,1,12168,1,0.00064401,9.6858e-10,0,0.00064401,-0.00012013,2.0559e+08,270.88,0,2.0559e+08,-26.602,12167,11473,1,11473,1,-3.998e-05,-3.942e-10,0,3.9978e-05,-0.00024806,-1.6265e+07,-91.861,0,1.6264e+07,-92.386,11472,11820,1,11820,1,0.00027922,2.5235e-10,0,0.00027922,-0.00018831,9.7147e+07,60.79,0,9.7147e+07,-53.845,11819,12516,1,12516,1,0.0010088,1.5105e-09,0,0.0010088,-5.1933e-05,2.9269e+08,439.41,0,2.9269e+08,-2.354,12515,412.9,0,412.9,0,0.00042066,7.2245e-10,0,0.0004129,7.8676e-05,1.1573e+08,217.51,0,1.1226e+08,37.999,412.9,1
816,4.4,12163,1,12163,1,0.00064605,1.6015e-09,0,0.00065099,-0.00012049,1.9333e+08,474.54,0,1.9534e+08,54.652,12162,12879,1,12879,1,0.0013317,8.9629e-09,0,0.0013317,7.8362e-06,3.6667e+08,2730,0,3.6667e+08,672.25,12878,12168,1,12168,1,0.00064605,7.5192e-10,0,0.00064605,-0.00012051,2.0597e+08,206.83,0,2.0597e+08,-7.3383,12167,11473,1,11473,1,-3.9568e-05,-3.5097e-09,0,3.9567e-05,-0.00024874,-1.6099e+07,-1036.7,0,1.6098e+07,-197.02,11472,11820,1,11820,1,0.00028039,-9.4189e-10,0,0.00028039,-0.00018885,9.7472e+07,-234.86,0,9.7472e+07,-75.239,11819,12516,1,12516,1,0.0010117,3.954e-09,0,0.0010117,-5.2149e-05,2.93e+08,1084.4,0,2.93e+08,113.98,12515,412.9,0,412.9,0,0.00042166,3.1593e-09,0,0.00041398,7.8862e-05,1.1574e+08,916.39,0,1.123e+08,182.4,412.9,1
816,4.41,12163,1,12163,1,0.00064814,2.1782e-09,0,0.00065303,-0.00012087,1.9365e+08,638.68,0,1.9564e+08,-28.658,12162,12879,1,12879,1,0.0013355,6.2456e-09,0,0.0013355,7.7633e-06,3.6694e+08,2042.2,0,3.6694e+08,320.23,12878,12168,1,12168,1,0.00064814,1.9743e-09,0,0.00064814,-0.0001209,2.0637e+08,531.54,0,2.0637e+08,-43,12167,11473,1,11473,1,-3.9165e-05,-1.3032e-09,0,3.916e-05,-0.00024944,-1.5936e+07,-302.35,0,1.5934e+07,-206.28,11472,11820,1,11820,1,0.00028158,5.8935e-10,0,0.00028158,-0.0001894,9.7804e+07,143.03,0,9.7804e+07,-124.22,11819,12516,1,12516,1,0.0010147,3.7e-09,0,0.0010147,-5.2369e-05,2.9333e+08,1064.1,0,2.9333e+08,36.471,12515,412.9,0,412.9,0,0.0004227,2.0024e-09,0,0.00041509,7.9054e-05,1.1576e+08,603.71,0,1.1236e+08,120.44,412.9,1
816,4.42,12163,1,12163,1,0.00065024,-1.3102e-09,0,0.00065508,-0.00012126,1.9396e+08,-355.03,0,1.9593e+08,-21.08,12162,12879,1,12879,1,0.0013392,5.3638e-10,0,0.0013392,7.689e-06,3.672e+08,179.43,0,3.672e+08,97.268,12878,12168,1,12168,1,0.00065024,-1.5096e-09,0,0.00065024,-0.00012128,2.0676e+08,-407.06,0,2.0676e+08,-18.631,12167,11473,1,11473,1,-3.8747e-05,-2.4061e-09,0,3.8739e-05,-0.00025014,-1.5768e+07,-645.34,0,1.5765e+07,-133.01,11472,11820,1,11820,1,0.00028278,-1.963e-09,0,0.00028278,-0.00018995,9.8138e+07,-532.46,0,9.8138e+07,-52.755,11819,12516,1,12516,1,0.0010177,-7.6008e-10,0,0.0010177,-5.2591e-05,2.9365e+08,-200.98,0,2.9365e+08,9.3711,12515,412.9,0,412.9,0,0.00042373,7.9046e-10,0,0.0004162,7.9247e-05,1.1578e+08,214.8,0,1.1241e+08,45.17,412.9,1
816,4.43,12163,1,12163,1,0.00065232,2.7546e-09,0,0.00065711,-0.00012165,1.9427e+08,791.17,0,1.9622e+08,3.2549,12162,12879,1,12879,1,0.001343,7.3253e-09,0,0.001343,7.613e-06,3.6743e+08,2280,0,3.6743e+08,354.5,12878,12168,1,12168,1,0.00065233,2.5586e-09,0,0.00065233,-0.00012167,2.0715e+08,678.28,0,2.0715e+08,-18.902,12167,11473,1,11473,1,-3.8316e-05,-1.3418e-09,0,3.8315e-05,-0.00025083,-1.5594e+07,-309.61,0,1.5594e+07,-188.98,11472,11820,1,11820,1,0.00028398,8.7127e-10,0,0.00028398,-0.0001905,9.8469e+07,219.83,0,9.8469e+07,-76.581,11819,12516,1,12516,1,0.0010207,4.6049e-09,0,0.0010207,-5.2813e-05,2.9395e+08,1312.8,0,2.9395e+08,58.587,12515,412.9,0,412.9,0,0.00042475,2.2932e-09,0,0.00041729,7.9436e-05,1.1579e+08,683.77,0,1.1245e+08,109.41,412.9,1
816,4.44,12163,1,12163,1,0.00065442,-1.7678e-10,0,0.00065916,-0.00012204,1.9458e+08,-35.011,0,1.9651e+08,-22.554,12162,12879,1,12879,1,0.0013468,2.8685e-09,0,0.0013468,7.5369e-06,3.6768e+08,942.36,0,3.6768e+08,109.62,12878,12168,1,12168,1,0.00065442,-4.7511e-10,0,0.00065442,-0.00012206,2.0754e+08,-124.07,0,2.0754e+08,-28.351,12167,11473,1,11473,1,-3.7893e-05,-1.1204e-09,0,3.7887e-05,-0.00025153,-1.5424e+07,-290.6,0,1.5422e+07,-122.74,11472,11820,1,11820,1,0.00028519,-8.1291e-10,0,0.00028519,-0.00019106,9.8803e+07,-217.36,0,9.8803e+07,-50.61,11819,12516,1,12516,1,0.0010237,1.4516e-10,0,0.0010237,-5.3036e-05,2.9427e+08,33.924,0,2.9427e+08,2.3934,12515,412.9,0,412.9,0,0.00042578,9.08e-10,0,0.0004184,7.9627e-05,1.158e+08,265.27,0,1.125e+08,45.988,412.9,1
816,4.45,12163,1,12163,1,0.00065651,1.0338e-09,0,0.00066119,-0.00012242,1.9489e+08,303.53,0,1.968e+08,-11.178,12162,12879,1,12879,1,0.0013505,5.1054e-09,0,0.0013505,7.4598e-06,3.6791e+08,1634.1,0,3.6791e+08,161.13,12878,12168,1,12168,1,0.00065651,4.1536e-10,0,0.00065651,-0.00012245,2.0792e+08,108.3,0,2.0792e+08,-12.33,12167,11473,1,11473,1,-3.7459e-05,-1.258e-09,0,3.7455e-05,-0.00025223,-1.5249e+07,-361.03,0,1.5248e+07,-159.69,11472,11820,1,11820,1,0.0002864,-2.3665e-10,0,0.0002864,-0.00019161,9.9135e+07,-57.152,0,9.9135e+07,-54.362,11819,12516,1,12516,1,0.0010266,2.1749e-09,0,0.0010266,-5.3259e-05,2.9457e+08,600.94,0,2.9457e+08,30.827,12515,412.9,0,412.9,0,0.0004268,1.7086e-09,0,0.0004195,7.9817e-05,1.1581e+08,504.3,0,1.1254e+08,62.83,412.9,1
816,4.46,12163,1,12163,1,0.00065859,3.2323e-09,0,0.00066322,-0.00012281,1.9519e+08,929.44,0,1.9708e+08,11.333,12162,12879,1,12879,1,0.0013542,1.2112e-08,0,0.0013542,7.3826e-06,3.6814e+08,3784.5,0,3.6814e+08,431.71,12878,12168,1,12168,1,0.00065859,2.1151e-09,0,0.00065859,-0.00012283,2.083e+08,553.58,0,2.083e+08,-5.9194,12167,11473,1,11473,1,-3.7023e-05,-2.5591e-09,0,3.702e-05,-0.00025292,-1.5074e+07,-749.32,0,1.5073e+07,-252.95,11472,11820,1,11820,1,0.0002876,-1.2173e-10,0,0.0002876,-0.00019216,9.9465e+07,-29.835,0,9.9465e+07,-89.877,11819,12516,1,12516,1,0.0010296,6.2448e-09,0,0.0010296,-5.3481e-05,2.9487e+08,1750.7,0,2.9487e+08,95.757,12515,412.9,0,412.9,0,0.00042781,4.0256e-09,0,0.00042059,8.0005e-05,1.1582e+08,1183.7,0,1.1258e+08,132.88,412.9,1
816,4.47,12163,1,12163,1,0.0006607,-3.2911e-09,0,0.00066527,-0.0001232,1.955e+08,-909.04,0,1.9737e+08,-47.433,12162,12879,1,12879,1,0.001358,1.6963e-09,0,0.001358,7.3056e-06,3.6838e+08,566.68,0,3.6838e+08,122.9,12878,12168,1,12168,1,0.0006607,-3.2523e-09,0,0.0006607,-0.00012322,2.0868e+08,-857.87,0,2.0868e+08,-39.576,12167,11473,1,11473,1,-3.6595e-05,-7.2189e-09,0,3.6585e-05,-0.00025362,-1.4902e+07,-2174.1,0,1.4898e+07,-212.45,11472,11820,1,11820,1,0.00028881,-5.2651e-09,0,0.00028881,-0.00019271,9.9799e+07,-1474.1,0,9.9799e+07,-92.44,11819,12516,1,12516,1,0.0010326,-1.5932e-09,0,0.0010326,-5.3705e-05,2.9518e+08,-403.68,0,2.9518e+08,-3.2437,12515,412.9,0,412.9,0,0.00042884,2.2835e-09,0,0.0004217,8.0196e-05,1.1583e+08,667.04,0,1.1262e+08,67.39,412.9,1
816,4.48,12163,1,12163,1,0.00066283,1.789e-09,0,0.00066735,-0.00012359,1.9582e+08,505.68,0,1.9766e+08,-58.792,12162,12879,1,12879,1,0.0013618,3.9316e-09,0,0.0013618,7.2257e-06,3.6861e+08,1259.5,0,3.6861e+08,166.6,12878,12168,1,12168,1,0.00066284,1.9536e-09,0,0.00066284,-0.00012362,2.0907e+08,520.53,0,2.0907e+08,-45.907,12167,11473,1,11473,1,-3.6148e-05,-7.4753e-10,0,3.6146e-05,-0.00025433,-1.4723e+07,-171.03,0,1.4722e+07,-224.96,11472,11820,1,11820,1,0.00029005,1.0251e-09,0,0.00029005,-0.00019328,1.0014e+08,252.61,0,1.0014e+08,-115.73,11819,12516,1,12516,1,0.0010356,2.5652e-09,0,0.0010356,-5.3933e-05,2.9548e+08,735.19,0,2.9548e+08,-1.784,12515,412.9,0,412.9,0,0.00042988,1.1319e-09,0,0.00042283,8.039e-05,1.1584e+08,340.57,0,1.1266e+08,72.444,412.9,1
816,4.49,12163,1,12163,1,0.00066493,1.3932e-09,0,0.0006694,-0.00012398,1.9611e+08,404.7,0,1.9793e+08,6.3296,12162,12879,1,12879,1,0.0013656,5.1685e-09,0,0.0013656,7.1446e-06,3.6881e+08,1654.3,0,3.6881e+08,315.34,12878,12168,1,12168,1,0.00066494,9.6699e-10,0,0.00066494,-0.000124,2.0945e+08,256.95,0,2.0945e+08,-17.196,12167,11473,1,11473,1,-3.5692e-05,-1.4728e-09,0,3.569e-05,-0.00025502,-1.454e+07,-438.96,0,1.4539e+07,-185.62,11472,11820,1,11820,1,0.00029127,-1.2296e-10,0,0.00029127,-0.00019383,1.0047e+08,-28.672,0,1.0047e+08,-71.2,11819,12516,1,12516,1,0.0010386,2.7977e-09,0,0.0010386,-5.4159e-05,2.9576e+08,780.69,0,2.9576e+08,70.593,12515,412.9,0,412.9,0,0.00043089,1.7781e-09,0,0.00042392,8.0578e-05,1.1583e+08,525.31,0,1.1269e+08,104,412.9,1
816,4.5,12163,1,12163,1,0.00066705,5.5148e-09,0,0.00067146,-0.00012437,1.9642e+08,1568.8,0,1.9821e+08,60.164,12162,12879,1,12879,1,0.0013694,1.3573e-08,0,0.0013694,7.0656e-06,3.6904e+08,4164.2,0,3.6904e+08,675.67,12878,12168,1,12168,1,0.00066706,5.1685e-09,0,0.00066706,-0.0001244,2.0983e+08,1365.2,0,2.0983e+08,7.284,12167,11473,1,11473,1,-3.5247e-05,-2.1983e-09,0,3.5244e-05,-0.00025574,-1.4362e+07,-499.65,0,1.4361e+07,-283.74,11472,11820,1,11820,1,0.0002925,1.8731e-09,0,0.0002925,-0.00019438,1.0081e+08,475.39,0,1.0081e+08,-96.236,11819,12516,1,12516,1,0.0010416,9.2721e-09,0,0.0010416,-5.4385e-05,2.9606e+08,2601.8,0,2.9606e+08,173.76,12515,412.9,0,412.9,0,0.00043192,4.2969e-09,0,0.00042503,8.0769e-05,1.1584e+08,1282.3,0,1.1273e+08,206.98,412.9,1
816,4.51,12163,1,12163,1,0.0006692,7.7942e-10,0,0.00067355,-0.00012477,1.9672e+08,257.89,0,1.985e+08,-90.902,12162,12879,1,12879,1,0.0013732,5.4349e-09,0,0.0013732,6.9831e-06,3.6925e+08,1813.2,0,3.6925e+08,237.74,12878,12168,1,12168,1,0.0006692,4.0152e-10,0,0.0006692,-0.00012479,2.1021e+08,107.79,0,2.1021e+08,-108.93,12167,11473,1,11473,1,-3.4794e-05,-1.9676e-09,0,3.4783e-05,-0.00025644,-1.418e+07,-457.26,0,1.4176e+07,-247.6,11472,11820,1,11820,1,0.00029374,-7.7161e-10,0,0.00029374,-0.00019495,1.0114e+08,-185.38,0,1.0114e+08,-185.79,11819,12516,1,12516,1,0.0010447,1.949e-09,0,0.0010447,-5.4615e-05,2.9636e+08,588.4,0,2.9636e+08,-20.908,12515,412.9,0,412.9,0,0.00043296,1.8663e-09,0,0.00042616,8.0962e-05,1.1584e+08,544.59,0,1.1277e+08,107.34,412.9,1
816,4.52,12163,1,12163,1,0.00067135,-3.5862e-09,0,0.00067564,-0.00012517,1.9703e+08,-979.96,0,1.9878e+08,-30.348,12162,12879,1,12879,1,0.001377,6.1708e-10,0,0.001377,6.8997e-06,3.6947e+08,139.16,0,3.6947e+08,117.08,12878,12168,1,12168,1,0.00067136,-3.8952e-09,0,0.00067136,-0.00012519,2.106e+08,-1017.8,0,2.106e+08,-28.544,12167,11473,1,11473,1,-3.433e-05,-6.1209e-09,0,3.432e-05,-0.00025715,-1.3995e+07,-1774.6,0,1.3991e+07,-118.5,11472,11820,1,11820,1,0.00029499,-5.2128e-09,0,0.00029499,-0.00019551,1.0149e+08,-1467.1,0,1.0149e+08,-62.365,11819,12516,1,12516,1,0.0010477,-2.2922e-09,0,0.0010477,-5.4847e-05,2.9665e+08,-581.35,0,2.9665e+08,-3.8297,12515,412.9,0,412.9,0,0.000434,1.8335e-09,0,0.00042728,8.1155e-05,1.1584e+08,527.94,0,1.1281e+08,41.511,412.9,1
816,4.53,12163,1,12163,1,0.0006735,3.9056e-09,0,0.00067773,-0.00012557,1.9733e+08,1095.7,0,1.9905e+08,-10.467,12162,12879,1,12879,1,0.0013809,6.5756e-09,0,0.0013809,6.8146e-06,3.6967e+08,1994.1,0,3.6967e+08,201.57,12878,12168,1,12168,1,0.0006735,4.5247e-09,0,0.0006735,-0.00012559,2.1097e+08,1216.9,0,2.1097e+08,-10.312,12167,11473,1,11473,1,-3.3855e-05,-7.5365e-10,0,3.3854e-05,-0.00025786,-1.3805e+07,-170.33,0,1.3805e+07,-163.79,11472,11820,1,11820,1,0.00029625,2.5354e-09,0,0.00029625,-0.00019608,1.0182e+08,599.2,0,1.0182e+08,-67.505,11819,12516,1,12516,1,0.0010508,5.6429e-09,0,0.0010508,-5.5078e-05,2.9693e+08,1675.8,0,2.9693e+08,36.029,12515,412.9,0,412.9,0,0.00043503,2.0976e-09,0,0.0004284,8.1347e-05,1.1583e+08,637.7,0,1.1284e+08,79.846,412.9,1
816,4.54,12163,1,12163,1,0.00067567,-1.7545e-09,0,0.00067984,-0.00012597,1.9763e+08,-473.35,0,1.9934e+08,-19.134,12162,12879,1,12879,1,0.0013847,1.0626e-10,0,0.0013847,6.7299e-06,3.6987e+08,23.451,0,3.6987e+08,65.547,12878,12168,1,12168,1,0.00067567,-1.8485e-09,0,0.00067567,-0.00012599,2.1136e+08,-508.01,0,2.1136e+08,-17.396,12167,11473,1,11473,1,-3.3387e-05,-2.969e-09,0,3.3379e-05,-0.00025857,-1.3618e+07,-785.5,0,1.3615e+07,-75.905,11472,11820,1,11820,1,0.00029751,-2.4134e-09,0,0.00029751,-0.00019665,1.0217e+08,-651.29,0,1.0217e+08,-36.204,11819,12516,1,12516,1,0.0010538,-1.3137e-09,0,0.0010538,-5.5311e-05,2.9722e+08,-339.73,0,2.9722e+08,-0.39123,12515,412.9,0,412.9,0,0.00043608,7.931e-10,0,0.00042953,8.154e-05,1.1583e+08,215.15,0,1.1287e+08,25.683,412.9,1
816,4.55,12163,1,12163,1,0.00067781,1.549e-09,0,0.00068193,-0.00012636,1.9793e+08,439.22,0,1.9961e+08,8.5088,12162,12879,1,12879,1,0.0013885,3.8172e-09,0,0.0013885,6.6427e-06,3.7006e+08,1122,0,3.7006e+08,230.23,12878,12168,1,12168,1,0.00067781,1.5384e-09,0,0.00067781,-0.00012639,2.1173e+08,404.47,0,2.1173e+08,-11.31,12167,11473,1,11473,1,-3.2902e-05,-5.7822e-10,0,3.2901e-05,-0.00025928,-1.3425e+07,-129.94,0,1.3425e+07,-107.16,11472,11820,1,11820,1,0.00029877,4.3326e-10,0,0.00029877,-0.00019721,1.025e+08,105.15,0,1.025e+08,-45.157,11819,12516,1,12516,1,0.0010569,2.7037e-09,0,0.0010569,-5.5543e-05,2.9749e+08,759.67,0,2.9749e+08,59.901,12515,412.9,0,412.9,0,0.0004371,1.2811e-09,0,0.00043065,8.173e-05,1.1581e+08,376.95,0,1.1289e+08,71.195,412.9,1
816,4.56,12163,1,12163,1,0.00067996,3.6468e-09,0,0.00068402,-0.00012676,1.9822e+08,1027.7,0,1.9988e+08,19.89,12162,12879,1,12879,1,0.0013924,7.6443e-09,0,0.0013924,6.5566e-06,3.7025e+08,2356.4,0,3.7025e+08,308.45,12878,12168,1,12168,1,0.00067996,3.813e-09,0,0.00067996,-0.00012678,2.121e+08,998.74,0,2.121e+08,-10.319,12167,11473,1,11473,1,-3.2426e-05,-7.6329e-10,0,3.2424e-05,-0.00025999,-1.3236e+07,-171.23,0,1.3235e+07,-97.956,11472,11820,1,11820,1,0.00030002,1.8351e-09,0,0.00030002,-0.00019777,1.0284e+08,440.6,0,1.0284e+08,-49.372,11819,12516,1,12516,1,0.0010599,5.6043e-09,0,0.0010599,-5.5775e-05,2.9777e+08,1589.2,0,2.9777e+08,66.971,12515,412.9,0,412.9,0,0.00043813,2.3361e-09,0,0.00043177,8.1921e-05,1.1581e+08,706.62,0,1.1292e+08,94.772,412.9,1
816,4.57,12163,1,12163,1,0.00068212,2.4464e-09,0,0.00068611,-0.00012716,1.9852e+08,707.8,0,2.0015e+08,62.338,12162,12879,1,12879,1,0.0013962,8.8469e-09,0,0.0013962,6.4696e-06,3.7044e+08,2753.4,0,3.7044e+08,540.18,12878,12168,1,12168,1,0.00068212,1.7629e-09,0,0.00068212,-0.00012718,2.1248e+08,476.69,0,2.1248e+08,8.4594,12167,11473,1,11473,1,-3.1946e-05,-1.4643e-09,0,3.194e-05,-0.00026071,-1.3045e+07,-327.83,0,1.3042e+07,-140.87,11472,11820,1,11820,1,0.00030129,6.5266e-12,0,0.00030129,-0.00019834,1.0318e+08,1.3807,0,1.0318e+08,-37.991,11819,12516,1,12516,1,0.001063,4.472e-09,0,0.001063,-5.6009e-05,2.9805e+08,1264.7,0,2.9805e+08,119.02,12515,412.9,0,412.9,0,0.00043916,2.7836e-09,0,0.00043289,8.2113e-05,1.1579e+08,817.99,0,1.1295e+08,148.81,412.9,1
816,4.58,12163,1,12163,1,0.00068427,-5.0418e-09,0,0.0006882,-0.00012756,1.9881e+08,-1379.3,0,2.0042e+08,-26.27,12162,12879,1,12879,1,0.0014,1.7917e-09,0,0.0014,6.3806e-06,3.7062e+08,597.15,0,3.7062e+08,244.36,12878,12168,1,12168,1,0.00068427,-5.3645e-09,0,0.00068427,-0.00012758,2.1285e+08,-1396.1,0,2.1285e+08,-15.461,12167,11473,1,11473,1,-3.1459e-05,-9.6689e-09,0,3.1448e-05,-0.00026141,-1.2851e+07,-2845.3,0,1.2847e+07,-214.4,11472,11820,1,11820,1,0.00030255,-7.9796e-09,0,0.00030255,-0.0001989,1.0352e+08,-2246.5,0,1.0352e+08,-82.695,11819,12516,1,12516,1,0.001066,-2.3861e-09,0,0.001066,-5.6243e-05,2.9831e+08,-607.61,0,2.9831e+08,22.446,12515,412.9,0,412.9,0,0.00044018,3.2268e-09,0,0.000434,8.2302e-05,1.1578e+08,931.41,0,1.1297e+08,73.1,412.9,1
816,4.59,12163,1,12163,1,0.00068644,-2.7856e-09,0,0.00069032,-0.00012796,1.9911e+08,-785.42,0,2.0069e+08,-35.595,12162,12879,1,12879,1,0.0014039,1.5366e-09,0,0.0014039,6.2914e-06,3.708e+08,342.32,0,3.708e+08,148.85,12878,12168,1,12168,1,0.00068645,-2.7414e-09,0,0.00068645,-0.00012798,2.1322e+08,-717.93,0,2.1322e+08,-23.061,12167,11473,1,11473,1,-3.0967e-05,-6.6166e-09,0,3.0966e-05,-0.00026213,-1.2656e+07,-2026.5,0,1.2656e+07,-247.9,11472,11820,1,11820,1,0.00030383,-4.6328e-09,0,0.00030383,-0.00019947,1.0386e+08,-1342.4,0,1.0386e+08,-117.46,11819,12516,1,12516,1,0.0010691,-1.0698e-09,0,0.0010691,-5.6478e-05,2.9858e+08,-250.79,0,2.9858e+08,46.553,12515,412.9,0,412.9,0,0.00044122,2.1758e-09,0,0.00043513,8.2495e-05,1.1577e+08,641.19,0,1.13e+08,88.18,412.9,1
816,4.6,12163,1,12163,1,0.00068864,-3.34e-09,0,0.00069245,-0.00012837,1.994e+08,-949.35,0,2.0096e+08,-41.497,12162,12879,1,12879,1,0.0014078,1.4792e-09,0,0.0014078,6.2005e-06,3.7098e+08,329.07,0,3.7098e+08,169.7,12878,12168,1,12168,1,0.00068864,-3.5221e-09,0,0.00068864,-0.00012839,2.136e+08,-899.11,0,2.136e+08,-14.483,12167,11473,1,11473,1,-3.0471e-05,-7.6193e-09,0,3.0467e-05,-0.00026285,-1.246e+07,-2331.6,0,1.2458e+07,-363.4,11472,11820,1,11820,1,0.00030511,-5.4326e-09,0,0.00030511,-0.00020004,1.0421e+08,-1531,0,1.0421e+08,-142.92,11819,12516,1,12516,1,0.0010722,-1.2903e-09,0,0.0010722,-5.6716e-05,2.9885e+08,-302.5,0,2.9885e+08,67.052,12515,412.9,0,412.9,0,0.00044226,2.5091e-09,0,0.00043627,8.2688e-05,1.1575e+08,746.76,0,1.1302e+08,135.13,412.9,1
816,4.61,12163,1,12163,1,0.00069085,1.1707e-10,0,0.00069459,-0.00012878,1.997e+08,2.3035,0,2.0123e+08,-11.83,12162,12879,1,12879,1,0.0014117,1.4405e-09,0,0.0014117,6.1084e-06,3.7115e+08,334.69,0,3.7115e+08,174.98,12878,12168,1,12168,1,0.00069085,5.1308e-10,0,0.00069085,-0.0001288,2.1397e+08,128.48,0,2.1397e+08,-16.998,12167,11473,1,11473,1,-2.9969e-05,-2.6937e-09,0,2.996e-05,-0.00026357,-1.2261e+07,-859.73,0,1.2257e+07,-121.58,11472,11820,1,11820,1,0.00030642,-5.3497e-10,0,0.00030642,-0.00020062,1.0456e+08,-159.05,0,1.0456e+08,-87.658,11819,12516,1,12516,1,0.0010753,9.6121e-10,0,0.0010753,-5.6956e-05,2.9912e+08,232.17,0,2.9912e+08,49.216,12515,412.9,0,412.9,0,0.00044331,1.1043e-09,0,0.00043741,8.2883e-05,1.1573e+08,310.84,0,1.1305e+08,77.523,412.9,1
816,4.62,12163,1,12163,1,0.00069306,1.0229e-09,0,0.00069674,-0.00012918,1.9999e+08,259.84,0,2.015e+08,-20.032,12162,12879,1,12879,1,0.0014156,1.9534e-09,0,0.0014156,6.0139e-06,3.7132e+08,534.67,0,3.7132e+08,158.46,12878,12168,1,12168,1,0.00069306,1.1841e-09,0,0.00069306,-0.00012921,2.1434e+08,299.69,0,2.1434e+08,-20.601,12167,11473,1,11473,1,-2.9453e-05,-6.7438e-10,0,2.9446e-05,-0.00026429,-1.2057e+07,-224.47,0,1.2054e+07,-112.23,11472,11820,1,11820,1,0.00030772,5.9737e-10,0,0.00030772,-0.00020119,1.049e+08,149.13,0,1.049e+08,-74.603,11819,12516,1,12516,1,0.0010784,1.5747e-09,0,0.0010784,-5.7197e-05,2.9938e+08,406.21,0,2.9938e+08,14.158,12515,412.9,0,412.9,0,0.00044435,6.7043e-10,0,0.00043855,8.3077e-05,1.1571e+08,177.4,0,1.1306e+08,60.921,412.9,1
816,4.63,12163,1,12163,1,0.00069527,2.9224e-09,0,0.00069889,-0.00012959,2.0028e+08,798.58,0,2.0176e+08,-5.5358,12162,12879,1,12879,1,0.0014195,4.4061e-09,0,0.0014195,5.9189e-06,3.7148e+08,1266.6,0,3.7148e+08,178.43,12878,12168,1,12168,1,0.00069527,3.3727e-09,0,0.00069527,-0.00012962,2.1471e+08,924.97,0,2.1471e+08,-13.45,12167,11473,1,11473,1,-2.8936e-05,-3.7562e-10,0,2.893e-05,-0.00026502,-1.1853e+07,-82.441,0,1.1851e+07,-109.63,11472,11820,1,11820,1,0.00030903,2.3136e-09,0,0.00030903,-0.00020177,1.0525e+08,538.13,0,1.0525e+08,-46.647,11819,12516,1,12516,1,0.0010815,3.9547e-09,0,0.0010815,-5.7438e-05,2.9964e+08,1124.4,0,2.9964e+08,31.308,12515,412.9,0,412.9,0,0.0004454,1.3065e-09,0,0.00043969,8.327e-05,1.1569e+08,388.26,0,1.1308e+08,57.378,412.9,1
816,4.64,12163,1,12163,1,0.00069748,-2.1059e-09,0,0.00070103,-0.00013,2.0057e+08,-582.07,0,2.0203e+08,23.606,12162,12879,1,12879,1,0.0014234,1.0078e-09,0,0.0014234,5.823e-06,3.7163e+08,221.58,0,3.7163e+08,244.36,12878,12168,1,12168,1,0.00069748,-2.3757e-09,0,0.00069748,-0.00013002,2.1508e+08,-625.65,0,2.1508e+08,12.659,12167,11473,1,11473,1,-2.8415e-05,-4.0005e-09,0,2.8413e-05,-0.00026574,-1.1648e+07,-1179.3,0,1.1647e+07,-137.75,11472,11820,1,11820,1,0.00031034,-3.2267e-09,0,0.00031034,-0.00020234,1.056e+08,-918.07,0,1.056e+08,-27.704,11819,12516,1,12516,1,0.0010846,-1.0923e-09,0,0.0010846,-5.7679e-05,2.9989e+08,-274.32,0,2.9989e+08,73.576,12515,412.9,0,412.9,0,0.00044643,1.3474e-09,0,0.00044083,8.3463e-05,1.1566e+08,386.3,0,1.131e+08,64.89,412.9,1
816,4.65,12163,1,12163,1,0.00069969,-1.2026e-09,0,0.00070318,-0.00013041,2.0086e+08,-343.87,0,2.0229e+08,42.362,12162,12879,1,12879,1,0.0014273,1.1139e-09,0,0.0014273,5.7269e-06,3.7178e+08,310.12,0,3.7178e+08,211.03,12878,12168,1,12168,1,0.00069969,-8.4126e-10,0,0.00069969,-0.00013043,2.1545e+08,-215.87,0,2.1545e+08,41.388,12167,11473,1,11473,1,-2.7896e-05,-4.4502e-09,0,2.7892e-05,-0.00026646,-1.1444e+07,-1347.5,0,1.1442e+07,-138.54,11472,11820,1,11820,1,0.00031165,-2.5165e-09,0,0.00031165,-0.00020292,1.0594e+08,-688.27,0,1.0594e+08,-7.9407,11819,12516,1,12516,1,0.0010877,2.2652e-10,0,0.0010877,-5.7921e-05,3.0014e+08,53.168,0,3.0014e+08,87.093,12515,412.9,0,412.9,0,0.00044747,1.5955e-09,0,0.00044197,8.3655e-05,1.1564e+08,456.43,0,1.1311e+08,66.147,412.9,1
816,4.66,12163,1,12163,1,0.00070189,2.4989e-09,0,0.00070531,-0.00013082,2.0114e+08,677.25,0,2.0254e+08,42.771,12162,12879,1,12879,1,0.0014312,6.7937e-09,0,0.0014312,5.629e-06,3.7193e+08,1982.1,0,3.7193e+08,271.68,12878,12168,1,12168,1,0.0007019,2.2125e-09,0,0.0007019,-0.00013084,2.1581e+08,578.76,0,2.1581e+08,25.272,12167,11473,1,11473,1,-2.7368e-05,-8.8991e-10,0,2.7361e-05,-0.00026718,-1.1237e+07,-271.12,0,1.1234e+07,-87.871,11472,11820,1,11820,1,0.00031296,7.7617e-10,0,0.00031296,-0.00020349,1.0629e+08,191.63,0,1.0629e+08,-15.328,11819,12516,1,12516,1,0.0010908,3.9492e-09,0,0.0010908,-5.8163e-05,3.0039e+08,1078.6,0,3.0039e+08,87.494,12515,412.9,0,412.9,0,0.0004485,2.0281e-09,0,0.0004431,8.3846e-05,1.1561e+08,576.65,0,1.1312e+08,76.322,412.9,1
816,4.67,12163,1,12163,1,0.00070413,3.2165e-09,0,0.00070749,-0.00013123,2.0143e+08,894.54,0,2.0281e+08,15.234,12162,12879,1,12879,1,0.0014351,7.3732e-09,0,0.0014351,5.5306e-06,3.7208e+08,2192,0,3.7208e+08,356.07,12878,12168,1,12168,1,0.00070413,3.2882e-09,0,0.00070413,-0.00013125,2.1618e+08,868.92,0,2.1618e+08,-3.5197,12167,11473,1,11473,1,-2.6838e-05,-1.5641e-09,0,2.6836e-05,-0.00026791,-1.1029e+07,-342.01,0,1.1029e+07,-179.09,11472,11820,1,11820,1,0.00031428,1.7106e-09,0,0.00031428,-0.00020408,1.0664e+08,402.47,0,1.0664e+08,-62.135,11819,12516,1,12516,1,0.001094,4.9242e-09,0,0.001094,-5.8408e-05,3.0064e+08,1371,0,3.0064e+08,70.796,12515,412.9,0,412.9,0,0.00044955,2.1741e-09,0,0.00044425,8.4041e-05,1.1558e+08,641.75,0,1.1314e+08,106.76,412.9,1
816,4.68,12163,1,12163,1,0.00070637,-1.2068e-09,0,0.00070966,-0.00013165,2.0171e+08,-314.77,0,2.0307e+08,-11.716,12162,12879,1,12879,1,0.001439,1.118e-09,0,0.001439,5.4297e-06,3.7222e+08,371.78,0,3.7222e+08,136.24,12878,12168,1,12168,1,0.00070637,-1.4304e-09,0,0.00070637,-0.00013167,2.1655e+08,-366.5,0,2.1655e+08,-8.7687,12167,11473,1,11473,1,-2.6301e-05,-2.1031e-09,0,2.6293e-05,-0.00026864,-1.0819e+07,-563.92,0,1.0816e+07,-95.661,11472,11820,1,11820,1,0.00031561,-1.8447e-09,0,0.00031561,-0.00020466,1.0699e+08,-481.04,0,1.0699e+08,-43.553,11819,12516,1,12516,1,0.0010971,-7.0098e-10,0,0.0010971,-5.8654e-05,3.0088e+08,-171.48,0,3.0088e+08,14.612,12515,412.9,0,412.9,0,0.0004506,7.4938e-10,0,0.0004454,8.4234e-05,1.1555e+08,201.33,0,1.1315e+08,40.22,412.9,1
816,4.69,12163,1,12163,1,0.0007086,9.5587e-10,0,0.00071182,-0.00013206,2.02e+08,268.25,0,2.0332e+08,-8.1833,12162,12879,1,12879,1,0.001443,4.606e-09,0,0.001443,5.3273e-06,3.7235e+08,1399.6,0,3.7235e+08,241.63,12878,12168,1,12168,1,0.00070861,4.6794e-10,0,0.00070861,-0.00013208,2.1691e+08,114.49,0,2.1691e+08,-8.1928,12167,11473,1,11473,1,-2.5753e-05,-6.9073e-10,0,2.5751e-05,-0.00026937,-1.0605e+07,-188.22,0,1.0605e+07,-201.87,11472,11820,1,11820,1,0.00031695,1.0662e-10,0,0.00031695,-0.00020524,1.0734e+08,23.278,0,1.0734e+08,-66.261,11819,12516,1,12516,1,0.0011003,1.6336e-09,0,0.0011003,-5.89e-05,3.0112e+08,453.17,0,3.0112e+08,40.2,12515,412.9,0,412.9,0,0.00045164,1.2503e-09,0,0.00044654,8.4427e-05,1.1551e+08,365.51,0,1.1316e+08,83.158,412.9,1
816,4.7,12163,1,12163,1,0.00071086,-2.1845e-09,0,0.00071401,-0.00013248,2.0228e+08,-590.82,0,2.0358e+08,15.16,12162,12879,1,12879,1,0.0014469,1.8744e-09,0,0.0014469,5.2254e-06,3.7249e+08,589.36,0,3.7249e+08,131.88,12878,12168,1,12168,1,0.00071086,-1.9932e-09,0,0.00071086,-0.0001325,2.1728e+08,-489.4,0,2.1728e+08,19.79,12167,11473,1,11473,1,-2.5211e-05,-5.6919e-09,0,2.5206e-05,-0.0002701,-1.0394e+07,-1682.6,0,1.0392e+07,-106.87,11472,11820,1,11820,1,0.00031829,-3.9698e-09,0,0.00031829,-0.00020583,1.0769e+08,-1057.9,0,1.0769e+08,-29.88,11819,12516,1,12516,1,0.0011034,-4.9783e-10,0,0.0011034,-5.9148e-05,3.0136e+08,-116.29,0,3.0136e+08,56.17,12515,412.9,0,412.9,0,0.00045269,1.9705e-09,0,0.0004477,8.4622e-05,1.1548e+08,563.21,0,1.1317e+08,53.484,412.9,1
816,4.71,12163,1,12163,1,0.00071312,-3.1498e-09,0,0.0007162,-0.00013289,2.0256e+08,-869.52,0,2.0383e+08,-22.292,12162,12879,1,12879,1,0.0014509,1.2356e-09,0,0.0014509,5.1202e-06,3.7261e+08,267.63,0,3.7261e+08,216.82,12878,12168,1,12168,1,0.00071312,-2.6989e-09,0,0.00071312,-0.00013292,2.1764e+08,-701.92,0,2.1764e+08,-33.142,12167,11473,1,11473,1,-2.4652e-05,-8.0287e-09,0,2.4651e-05,-0.00027084,-1.0177e+07,-2423.5,0,1.0176e+07,-220.57,11472,11820,1,11820,1,0.00031964,-5.2366e-09,0,0.00031964,-0.00020641,1.0804e+08,-1429.3,0,1.0804e+08,-121.15,11819,12516,1,12516,1,0.0011066,-1.0936e-09,0,0.0011066,-5.9397e-05,3.0159e+08,-262.5,0,3.0159e+08,66.366,12515,412.9,0,412.9,0,0.00045374,2.4853e-09,0,0.00044885,8.4816e-05,1.1544e+08,725.24,0,1.1318e+08,114.93,412.9,1
816,4.72,12163,1,12163,1,0.00071533,1.7445e-09,0,0.00071835,-0.0001333,2.0283e+08,470.14,0,2.0407e+08,64.561,12162,12879,1,12879,1,0.0014548,1.0196e-08,0,0.0014548,5.0159e-06,3.7271e+08,3012.3,0,3.7271e+08,478.86,12878,12168,1,12168,1,0.00071534,1.0859e-09,0,0.00071534,-0.00013333,2.1799e+08,275.14,0,2.1799e+08,43.352,12167,11473,1,11473,1,-2.4097e-05,-5.9797e-09,0,2.409e-05,-0.00027155,-9.9613e+06,-1811.8,0,9.9584e+06,-169.29,11472,11820,1,11820,1,0.00032098,-5.9833e-10,0,0.00032098,-0.00020698,1.0839e+08,-151.4,0,1.0839e+08,-32.311,11819,12516,1,12516,1,0.0011097,4.077e-09,0,0.0011097,-5.9643e-05,3.0181e+08,1064.6,0,3.0181e+08,140.79,12515,412.9,0,412.9,0,0.00045476,3.6551e-09,0,0.00044998,8.5004e-05,1.154e+08,1034.4,0,1.1318e+08,122.6,412.9,1
816,4.73,12163,1,12163,1,0.00071757,1.4917e-09,0,0.00072051,-0.00013372,2.0311e+08,420.63,0,2.0432e+08,-11.996,12162,12879,1,12879,1,0.0014587,1.2271e-08,0,0.0014587,4.9105e-06,3.7283e+08,3714.8,0,3.7283e+08,542.42,12878,12168,1,12168,1,0.00071757,3.2667e-10,0,0.00071757,-0.00013374,2.1834e+08,76.992,0,2.1834e+08,-51.169,12167,11473,1,11473,1,-2.3541e-05,-5.8169e-09,0,2.3538e-05,-0.00027228,-9.7459e+06,-1761.1,0,9.7446e+06,-281.94,11472,11820,1,11820,1,0.00032231,-8.4356e-10,0,0.00032231,-0.00020756,1.0873e+08,-209.91,0,1.0873e+08,-125.75,11819,12516,1,12516,1,0.0011128,3.393e-09,0,0.0011128,-5.989e-05,3.0204e+08,948.64,0,3.0204e+08,80.264,12515,412.9,0,412.9,0,0.00045579,3.83e-09,0,0.00045112,8.5195e-05,1.1536e+08,1098.3,0,1.1318e+08,156.07,412.9,1
816,4.74,12163,1,12163,1,0.00071986,1.4859e-09,0,0.00072273,-0.00013414,2.0339e+08,421.65,0,2.0459e+08,-79.472,12162,12879,1,12879,1,0.0014627,7.4399e-09,0,0.0014627,4.8037e-06,3.7297e+08,2351.2,0,3.7297e+08,187.57,12878,12168,1,12168,1,0.00071987,1.189e-09,0,0.00071987,-0.00013416,2.1871e+08,294.92,0,2.1871e+08,-71.098,12167,11473,1,11473,1,-2.2985e-05,-1.3116e-09,0,2.298e-05,-0.00027303,-9.5312e+06,-283.22,0,9.5288e+06,-310.26,11472,11820,1,11820,1,0.00032368,3.4049e-10,0,0.00032368,-0.00020816,1.0909e+08,80.913,0,1.0909e+08,-175.54,11819,12516,1,12516,1,0.0011161,2.0577e-09,0,0.0011161,-6.0143e-05,3.0228e+08,574.32,0,3.0228e+08,7.599,12515,412.9,0,412.9,0,0.00045686,1.7691e-09,0,0.0004523,8.5393e-05,1.1532e+08,524.43,0,1.1319e+08,118.19,412.9,1
816,4.75,12163,1,12163,1,0.00072215,3.408e-09,0,0.00072495,-0.00013457,2.0367e+08,959.66,0,2.0483e+08,-13.666,12162,12879,1,12879,1,0.0014668,1.099e-08,0,0.0014668,4.6938e-06,3.7307e+08,3358.7,0,3.7307e+08,454.53,12878,12168,1,12168,1,0.00072216,3.2156e-09,0,0.00072216,-0.00013459,2.1907e+08,835.32,0,2.1907e+08,-34.317,12167,11473,1,11473,1,-2.2405e-05,-2.4571e-09,0,2.2399e-05,-0.00027377,-9.307e+06,-527.91,0,9.3048e+06,-280.35,11472,11820,1,11820,1,0.00032506,1.2773e-09,0,0.00032506,-0.00020875,1.0945e+08,293.65,0,1.0945e+08,-123.33,11819,12516,1,12516,1,0.0011193,5.3265e-09,0,0.0011193,-6.0397e-05,3.025e+08,1514.4,0,3.025e+08,84.026,12515,412.9,0,412.9,0,0.00045791,2.9867e-09,0,0.00045346,8.5588e-05,1.1527e+08,876.85,0,1.1319e+08,148.92,412.9,1
816,4.76,12163,1,12163,1,0.00072447,8.0907e-10,0,0.0007272,-0.00013499,2.0395e+08,256.04,0,2.0509e+08,-97.664,12162,12879,1,12879,1,0.0014708,7.3357e-09,0,0.0014708,4.5833e-06,3.7319e+08,2368.8,0,3.7319e+08,112.55,12878,12168,1,12168,1,0.00072448,-7.8883e-11,0,0.00072448,-0.00013502,2.1944e+08,-18.395,0,2.1944e+08,-87.683,12167,11473,1,11473,1,-2.183e-05,-1.47e-09,0,2.1818e-05,-0.00027452,-9.0853e+06,-323.66,0,9.0809e+06,-296.87,11472,11820,1,11820,1,0.00032645,-5.3429e-10,0,0.00032645,-0.00020935,1.0981e+08,-127.03,0,1.0981e+08,-170.37,11819,12516,1,12516,1,0.0011225,1.5918e-09,0,0.0011225,-6.0653e-05,3.0273e+08,446.93,0,3.0273e+08,-28.831,12515,412.9,0,412.9,0,0.00045898,2.0545e-09,0,0.00045464,8.5786e-05,1.1523e+08,599.53,0,1.132e+08,92.599,412.9,1
816,4.77,12163,1,12163,1,0.00072679,-5.3224e-10,0,0.00072944,-0.00013542,2.0423e+08,-114.63,0,2.0533e+08,-66.094,12162,12879,1,12879,1,0.0014748,2.4094e-09,0,0.0014748,4.4698e-06,3.7328e+08,799.95,0,3.7328e+08,91.548,12878,12168,1,12168,1,0.00072679,-6.1698e-10,0,0.00072679,-0.00013544,2.1979e+08,-149.38,0,2.1979e+08,-51.615,12167,11473,1,11473,1,-2.1236e-05,-2.5592e-09,0,2.1226e-05,-0.00027527,-8.857e+06,-589.71,0,8.8532e+06,-208.09,11472,11820,1,11820,1,0.00032785,-1.1073e-09,0,0.00032785,-0.00020995,1.1017e+08,-257.68,0,1.1017e+08,-123.63,11819,12516,1,12516,1,0.0011257,-6.5507e-11,0,0.0011257,-6.0911e-05,3.0294e+08,-19.767,0,3.0294e+08,-11.009,12515,412.9,0,412.9,0,0.00046004,9.6937e-10,0,0.00045582,8.5982e-05,1.1518e+08,256.36,0,1.1319e+08,69.848,412.9,1
816,4.78,12163,1,12163,1,0.0007291,2.1338e-09,0,0.00073168,-0.00013585,2.045e+08,600.58,0,2.0558e+08,-66.406,12162,12879,1,12879,1,0.0014789,4.9577e-09,0,0.0014789,4.3552e-06,3.7338e+08,1531.2,0,3.7338e+08,149.2,12878,12168,1,12168,1,0.0007291,2.3817e-09,0,0.0007291,-0.00013587,2.2015e+08,604.06,0,2.2015e+08,-51.551,12167,11473,1,11473,1,-2.0639e-05,-8.6175e-10,0,2.0633e-05,-0.00027602,-8.6277e+06,-193.32,0,8.6257e+06,-275.77,11472,11820,1,11820,1,0.00032924,5.5852e-10,0,0.00032924,-0.00021055,1.1052e+08,125.12,0,1.1052e+08,-130.71,11819,12516,1,12516,1,0.001129,3.6433e-09,0,0.001129,-6.1169e-05,3.0316e+08,1046.8,0,3.0316e+08,-3.4209,12515,412.9,0,412.9,0,0.0004611,1.7162e-09,0,0.00045699,8.6177e-05,1.1513e+08,504.91,0,1.1319e+08,92.819,412.9,1
816,4.79,12163,1,12163,1,0.00073142,1.1102e-09,0,0.00073393,-0.00013628,2.0477e+08,328.12,0,2.0582e+08,-37.827,12162,12879,1,12879,1,0.0014829,3.9692e-09,0,0.0014829,4.2405e-06,3.7347e+08,1248,0,3.7347e+08,129.39,12878,12168,1,12168,1,0.00073142,9.2652e-10,0,0.00073142,-0.0001363,2.2051e+08,230.65,0,2.2051e+08,-41.706,12167,11473,1,11473,1,-2.0043e-05,-7.5825e-10,0,2.0036e-05,-0.00027677,-8.3996e+06,-161.65,0,8.3969e+06,-207.45,11472,11820,1,11820,1,0.00033064,-2.1801e-10,0,0.00033064,-0.00021114,1.1088e+08,-50.236,0,1.1088e+08,-82.549,11819,12516,1,12516,1,0.0011322,2.232e-09,0,0.0011322,-6.1427e-05,3.0337e+08,650.57,0,3.0337e+08,0.88035,12515,412.9,0,412.9,0,0.00046216,1.3649e-09,0,0.00045816,8.6373e-05,1.1507e+08,398.4,0,1.1318e+08,65.525,412.9,1
816,4.8,12163,1,12163,1,0.00073373,3.1811e-09,0,0.00073616,-0.00013671,2.0504e+08,893.01,0,2.0606e+08,-15.975,12162,12879,1,12879,1,0.0014869,7.2712e-09,0,0.0014869,4.1249e-06,3.7355e+08,2212,0,3.7355e+08,315.24,12878,12168,1,12168,1,0.00073373,3.277e-09,0,0.00073373,-0.00013673,2.2086e+08,848.39,0,2.2086e+08,-36.734,12167,11473,1,11473,1,-1.9442e-05,-1.4421e-09,0,1.9435e-05,-0.00027751,-8.1695e+06,-305.82,0,8.1669e+06,-211.44,11472,11820,1,11820,1,0.00033204,9.2298e-10,0,0.00033204,-0.00021174,1.1124e+08,210.26,0,1.1124e+08,-99.372,11819,12516,1,12516,1,0.0011354,5.4921e-09,0,0.0011354,-6.1685e-05,3.0357e+08,1564.9,0,3.0357e+08,54.911,12515,412.9,0,412.9,0,0.00046321,2.6297e-09,0,0.00045933,8.6567e-05,1.1502e+08,766.22,0,1.1318e+08,113.6,412.9,1
816,4.81,12163,1,12163,1,0.00073604,3.7561e-10,0,0.00073839,-0.00013713,2.0531e+08,144.8,0,2.063e+08,35.413,12162,12879,1,12879,1,0.001491,5.7651e-09,0,0.001491,4.009e-06,3.7362e+08,1795.1,0,3.7362e+08,340.29,12878,12168,1,12168,1,0.00073604,-3.9987e-10,0,0.00073604,-0.00013715,2.2121e+08,-96.509,0,2.2121e+08,16.944,12167,11473,1,11473,1,-1.8843e-05,-2.7532e-09,0,1.883e-05,-0.00027826,-7.9409e+06,-670.53,0,7.9359e+06,-161.08,11472,11820,1,11820,1,0.00033344,-1.3321e-09,0,0.00033344,-0.00021234,1.116e+08,-300.81,0,1.116e+08,-41.186,11819,12516,1,12516,1,0.0011386,1.7975e-09,0,0.0011386,-6.1943e-05,3.0377e+08,488.02,0,3.0377e+08,84.931,12515,412.9,0,412.9,0,0.00046426,2.2373e-09,0,0.0004605,8.6761e-05,1.1496e+08,622.2,0,1.1317e+08,105.36,412.9,1
816,4.82,12163,1,12163,1,0.00073838,2.3812e-10,0,0.00074066,-0.00013757,2.0558e+08,101.49,0,2.0655e+08,11.14,12162,12879,1,12879,1,0.001495,5.2787e-09,0,0.001495,3.8915e-06,3.7371e+08,1621.7,0,3.7371e+08,253.99,12878,12168,1,12168,1,0.00073838,-4.7065e-10,0,0.00073838,-0.00013758,2.2156e+08,-109.18,0,2.2156e+08,7.8183,12167,11473,1,11473,1,-1.8235e-05,-2.4135e-09,0,1.8224e-05,-0.00027901,-7.7092e+06,-603.03,0,7.7049e+06,-214.21,11472,11820,1,11820,1,0.00033485,-1.1872e-09,0,0.00033485,-0.00021294,1.1196e+08,-272.87,0,1.1196e+08,-62.907,11819,12516,1,12516,1,0.0011419,1.3593e-09,0,0.0011419,-6.2204e-05,3.0398e+08,374.59,0,3.0398e+08,68.73,12515,412.9,0,412.9,0,0.00046532,1.9381e-09,0,0.00046168,8.6958e-05,1.1491e+08,541.71,0,1.1316e+08,98.059,412.9,1
816,4.83,12163,1,12163,1,0.00074072,1.543e-09,0,0.00074292,-0.000138,2.0585e+08,450.46,0,2.0678e+08,-15.277,12162,12879,1,12879,1,0.0014991,4.8246e-09,0,0.0014991,3.7705e-06,3.7378e+08,1534.6,0,3.7378e+08,284.4,12878,12168,1,12168,1,0.00074072,1.5686e-09,0,0.00074072,-0.00013802,2.2191e+08,394.5,0,2.2191e+08,-20.659,12167,11473,1,11473,1,-1.7613e-05,-1.3462e-09,0,1.7605e-05,-0.00027976,-7.4724e+06,-283.7,0,7.4695e+06,-231.78,11472,11820,1,11820,1,0.00033628,-6.4319e-11,0,0.00033628,-0.00021354,1.1232e+08,-15.046,0,1.1232e+08,-93.225,11819,12516,1,12516,1,0.0011452,3.0408e-09,0,0.0011452,-6.2466e-05,3.0418e+08,886.23,0,3.0418e+08,36.72,12515,412.9,0,412.9,0,0.00046638,1.7417e-09,0,0.00046286,8.7153e-05,1.1484e+08,501.97,0,1.1315e+08,109.22,412.9,1
816,4.84,12163,1,12163,1,0.00074307,1.5767e-09,0,0.00074519,-0.00013843,2.0612e+08,461.23,0,2.0702e+08,17.845,12162,12879,1,12879,1,0.0015032,4.2387e-09,0,0.0015032,3.6508e-06,3.7385e+08,1348,0,3.7385e+08,261.24,12878,12168,1,12168,1,0.00074307,1.5712e-09,0,0.00074307,-0.00013845,2.2226e+08,390.82,0,2.2226e+08,13.551,12167,11473,1,11473,1,-1.6995e-05,-1.1694e-09,0,1.6984e-05,-0.00028052,-7.2376e+06,-248.28,0,7.2335e+06,-172.73,11472,11820,1,11820,1,0.0003377,-1.4951e-10,0,0.0003377,-0.00021415,1.1268e+08,-33.278,0,1.1268e+08,-45.75,11819,12516,1,12516,1,0.0011484,3.3614e-09,0,0.0011484,-6.273e-05,3.0438e+08,940.99,0,3.0438e+08,64.491,12515,412.9,0,412.9,0,0.00046745,1.7702e-09,0,0.00046405,8.735e-05,1.1478e+08,512.66,0,1.1314e+08,95.303,412.9,1
816,4.85,12163,1,12163,1,0.00074542,-2.664e-09,0,0.00074747,-0.00013887,2.0638e+08,-687.35,0,2.0725e+08,19.928,12162,12879,1,12879,1,0.0015072,2.2123e-09,0,0.0015072,3.5285e-06,3.7392e+08,700.25,0,3.7392e+08,343.51,12878,12168,1,12168,1,0.00074542,-2.5921e-09,0,0.00074542,-0.00013889,2.2261e+08,-631.08,0,2.2261e+08,-1.1042,12167,11473,1,11473,1,-1.6366e-05,-6.7753e-09,0,1.6354e-05,-0.00028126,-6.9991e+06,-1790.5,0,6.9945e+06,-100.51,11472,11820,1,11820,1,0.00033914,-4.4201e-09,0,0.00033914,-0.00021475,1.1304e+08,-1157,0,1.1304e+08,-36.283,11819,12516,1,12516,1,0.0011517,-8.19e-10,0,0.0011517,-6.2994e-05,3.0456e+08,-203.68,0,3.0456e+08,57.953,12515,412.9,0,412.9,0,0.0004685,2.1956e-09,0,0.00046523,8.7545e-05,1.1472e+08,587.92,0,1.1313e+08,72.422,412.9,1
816,4.86,12163,1,12163,1,0.00074775,2.8363e-09,0,0.00074972,-0.0001393,2.0663e+08,787.19,0,2.0748e+08,71.119,12162,12879,1,12879,1,0.0015113,1.0238e-08,0,0.0015113,3.4055e-06,3.7396e+08,3021.1,0,3.7396e+08,473.74,12878,12168,1,12168,1,0.00074776,2.116e-09,0,0.00074776,-0.00013932,2.2295e+08,551.97,0,2.2295e+08,55.167,12167,11473,1,11473,1,-1.5731e-05,-2.3255e-09,0,1.5728e-05,-0.00028202,-6.7582e+06,-485.19,0,6.7571e+06,-233.13,11472,11820,1,11820,1,0.00034056,5.0376e-11,0,0.00034056,-0.00021535,1.134e+08,10.991,0,1.134e+08,-36.078,11819,12516,1,12516,1,0.0011549,5.3341e-09,0,0.0011549,-6.3257e-05,3.0474e+08,1420.2,0,3.0474e+08,149.57,12515,412.9,0,412.9,0,0.00046955,3.2924e-09,0,0.0004664,8.7738e-05,1.1465e+08,924.87,0,1.1311e+08,144.13,412.9,1
816,4.87,12163,1,12163,1,0.00075009,4.3714e-09,0,0.00075198,-0.00013973,2.0689e+08,1218.2,0,2.0771e+08,-0.52414,12162,12879,1,12879,1,0.0015154,1.7341e-08,0,0.0015154,3.2824e-06,3.7402e+08,5234.1,0,3.7402e+08,573.62,12878,12168,1,12168,1,0.0007501,2.7673e-09,0,0.0007501,-0.00013975,2.2329e+08,721.67,0,2.2329e+08,-18.806,12167,11473,1,11473,1,-1.5101e-05,-2.8257e-09,0,1.5093e-05,-0.00028277,-6.5201e+06,-588.52,0,6.5171e+06,-411.43,11472,11820,1,11820,1,0.00034199,9.7562e-12,0,0.00034199,-0.00021595,1.1376e+08,1.639,0,1.1376e+08,-136.64,11819,12516,1,12516,1,0.0011582,7.8389e-09,0,0.0011582,-6.3521e-05,3.0493e+08,2095.7,0,3.0493e+08,109.68,12515,412.9,0,412.9,0,0.0004706,5.2674e-09,0,0.00046758,8.7932e-05,1.1458e+08,1494.7,0,1.1309e+08,187.08,412.9,1
816,4.88,12163,1,12163,1,0.00075249,-4.8806e-10,0,0.0007543,-0.00014018,2.0717e+08,-75.332,0,2.0795e+08,-58.192,12162,12879,1,12879,1,0.0015195,5.5531e-09,0,0.0015195,3.1591e-06,3.7409e+08,1806,0,3.7409e+08,265.36,12878,12168,1,12168,1,0.0007525,-1.1793e-09,0,0.0007525,-0.00014019,2.2365e+08,-285.49,0,2.2365e+08,-54.535,12167,11473,1,11473,1,-1.4471e-05,-2.9906e-09,0,1.4453e-05,-0.00028354,-6.2821e+06,-673.24,0,6.2756e+06,-332.93,11472,11820,1,11820,1,0.00034345,-1.8443e-09,0,0.00034345,-0.00021657,1.1413e+08,-436.28,0,1.1413e+08,-153.89,11819,12516,1,12516,1,0.0011615,2.2302e-10,0,0.0011615,-6.379e-05,3.0513e+08,60.475,0,3.0513e+08,22.333,12515,412.9,0,412.9,0,0.00047169,1.9945e-09,0,0.00046879,8.8132e-05,1.1452e+08,548.17,0,1.1308e+08,133.12,412.9,1
816,4.89,12163,1,12163,1,0.00075488,2.6723e-09,0,0.00075661,-0.00014062,2.0742e+08,764.13,0,2.0818e+08,-38.925,12162,12879,1,12879,1,0.0015236,8.4961e-09,0,0.0015236,3.0305e-06,3.7412e+08,2700.8,0,3.7412e+08,279.96,12878,12168,1,12168,1,0.00075488,2.6324e-09,0,0.00075488,-0.00014063,2.2399e+08,669.89,0,2.2399e+08,-29.856,12167,11473,1,11473,1,-1.381e-05,-2.0188e-09,0,1.3797e-05,-0.0002843,-6.0328e+06,-418.87,0,6.0279e+06,-319.03,11472,11820,1,11820,1,0.00034492,2.8762e-10,0,0.00034492,-0.00021718,1.1449e+08,63.102,0,1.1449e+08,-133.16,11819,12516,1,12516,1,0.0011649,4.5499e-09,0,0.0011649,-6.406e-05,3.053e+08,1317.2,0,3.053e+08,49.306,12515,412.9,0,412.9,0,0.00047275,2.7973e-09,0,0.00046998,8.8329e-05,1.1444e+08,806.44,0,1.1306e+08,125.51,412.9,1
816,4.9,12163,1,12163,1,0.00075729,-4.1513e-10,0,0.00075894,-0.00014107,2.0769e+08,-58.271,0,2.0841e+08,-43.495,12162,12879,1,12879,1,0.0015278,2.4638e-09,0,0.0015278,2.9027e-06,3.7417e+08,812.16,0,3.7417e+08,250.3,12878,12168,1,12168,1,0.00075729,-7.5898e-10,0,0.00075729,-0.00014108,2.2434e+08,-170.11,0,2.2434e+08,-39.793,12167,11473,1,11473,1,-1.3156e-05,-3.0483e-09,0,1.314e-05,-0.00028507,-5.7866e+06,-683.05,0,5.7806e+06,-221.96,11472,11820,1,11820,1,0.00034639,-1.6331e-09,0,0.00034639,-0.0002178,1.1486e+08,-374.69,0,1.1486e+08,-106.88,11819,12516,1,12516,1,0.0011682,1.0164e-09,0,0.0011682,-6.4332e-05,3.0549e+08,287.16,0,3.0549e+08,1.4138,12515,412.9,0,412.9,0,0.00047383,1.5747e-09,0,0.00047119,8.8528e-05,1.1437e+08,413.71,0,1.1304e+08,93.063,412.9,1
816,4.91,12163,1,12163,1,0.0007597,9.4822e-10,0,0.00076126,-0.00014151,2.0794e+08,294.9,0,2.0864e+08,2.1224,12162,12879,1,12879,1,0.0015319,3.9212e-09,0,0.0015319,2.7724e-06,3.742e+08,1244.4,0,3.742e+08,296.53,12878,12168,1,12168,1,0.0007597,7.4233e-10,0,0.0007597,-0.00014152,2.2468e+08,184.6,0,2.2468e+08,-8.4798,12167,11473,1,11473,1,-1.2487e-05,-1.35e-09,0,1.2475e-05,-0.00028584,-5.5347e+06,-281.6,0,5.5304e+06,-163.17,11472,11820,1,11820,1,0.00034787,-6.9785e-10,0,0.00034787,-0.00021841,1.1523e+08,-149.25,0,1.1523e+08,-63.972,11819,12516,1,12516,1,0.0011715,2.5938e-09,0,0.0011715,-6.4605e-05,3.0566e+08,731.81,0,3.0566e+08,43.281,12515,412.9,0,412.9,0,0.0004749,1.6456e-09,0,0.00047239,8.8726e-05,1.1429e+08,462.37,0,1.1302e+08,97.423,412.9,1
816,4.92,12163,1,12163,1,0.0007621,-4.7498e-09,0,0.00076357,-0.00014195,2.082e+08,-1234.1,0,2.0886e+08,36.616,12162,12879,1,12879,1,0.001536,9.4957e-10,0,0.001536,2.6428e-06,3.7423e+08,194.11,0,3.7423e+08,244.9,12878,12168,1,12168,1,0.0007621,-4.6925e-09,0,0.0007621,-0.00014197,2.2502e+08,-1180.6,0,2.2502e+08,24.205,12167,11473,1,11473,1,-1.1822e-05,-9.6905e-09,0,1.1808e-05,-0.0002866,-5.2848e+06,-2612.3,0,5.2796e+06,-105.58,11472,11820,1,11820,1,0.00034935,-6.6408e-09,0,0.00034935,-0.00021903,1.1559e+08,-1751.8,0,1.1559e+08,-11.552,11819,12516,1,12516,1,0.0011749,-2.971e-09,0,0.0011749,-6.4877e-05,3.0582e+08,-755.22,0,3.0582e+08,70.329,12515,412.9,0,412.9,0,0.00047597,2.6475e-09,0,0.00047359,8.8922e-05,1.1421e+08,717.86,0,1.13e+08,63.932,412.9,1
816,4.93,12163,1,12163,1,0.00076452,1.5146e-09,0,0.00076591,-0.0001424,2.0846e+08,402.4,0,2.0909e+08,15.726,12162,12879,1,12879,1,0.0015402,2.6785e-09,0,0.0015402,2.5104e-06,3.7426e+08,792.06,0,3.7426e+08,230.4,12878,12168,1,12168,1,0.00076452,1.7243e-09,0,0.00076452,-0.00014241,2.2536e+08,447.94,0,2.2536e+08,2.3028,12167,11473,1,11473,1,-1.1144e-05,-3.1267e-10,0,1.1143e-05,-0.00028737,-5.0304e+06,-64.156,0,5.0301e+06,-92.416,11472,11820,1,11820,1,0.00035083,9.9417e-10,0,0.00035083,-0.00021965,1.1596e+08,222.54,0,1.1596e+08,-35.75,11819,12516,1,12516,1,0.0011782,2.0866e-09,0,0.0011782,-6.5152e-05,3.06e+08,569.96,0,3.06e+08,48.404,12515,412.9,0,412.9,0,0.00047704,7.731e-10,0,0.0004748,8.9121e-05,1.1413e+08,227.14,0,1.1297e+08,70.266,412.9,1
816,4.94,12163,1,12163,1,0.00076694,1.5604e-09,0,0.00076825,-0.00014285,2.0871e+08,427.15,0,2.0931e+08,91.632,12162,12879,1,12879,1,0.0015444,6.9425e-09,0,0.0015444,2.3785e-06,3.7428e+08,1994.5,0,3.7428e+08,423.88,12878,12168,1,12168,1,0.00076694,8.5056e-10,0,0.00076694,-0.00014286,2.257e+08,212.57,0,2.257e+08,57.548,12167,11473,1,11473,1,-1.0465e-05,-2.2358e-09,0,1.0462e-05,-0.00028814,-4.7761e+06,-551.99,0,4.775e+06,-100.57,11472,11820,1,11820,1,0.00035233,-3.6706e-10,0,0.00035233,-0.00022027,1.1633e+08,-83.564,0,1.1633e+08,-0.15852,11819,12516,1,12516,1,0.0011816,3.3384e-09,0,0.0011816,-6.5426e-05,3.0616e+08,883.45,0,3.0616e+08,151.27,12515,412.9,0,412.9,0,0.00047811,2.4057e-09,0,0.00047601,8.9319e-05,1.1405e+08,659.4,0,1.1295e+08,121.15,412.9,1
816,4.95,12163,1,12163,1,0.00076937,2.8615e-10,0,0.00077059,-0.0001433,2.0896e+08,93.139,0,2.0953e+08,20.93,12162,12879,1,12879,1,0.0015485,6.2941e-09,0,0.0015485,2.2449e-06,3.7429e+08,1870,0,3.7429e+08,434.89,12878,12168,1,12168,1,0.00076937,-1.5046e-10,0,0.00076937,-0.00014331,2.2603e+08,-32.255,0,2.2603e+08,-6.6459,12167,11473,1,11473,1,-9.7807e-06,-4.1267e-09,0,9.7751e-06,-0.00028891,-4.5198e+06,-1087.3,0,4.5176e+06,-261.82,11472,11820,1,11820,1,0.00035382,-1.5032e-09,0,0.00035382,-0.00022089,1.167e+08,-366.06,0,1.167e+08,-74.014,11819,12516,1,12516,1,0.0011849,1.8299e-09,0,0.0011849,-6.5703e-05,3.0632e+08,474.42,0,3.0632e+08,92.621,12515,412.9,0,412.9,0,0.00047918,2.541e-09,0,0.00047721,8.9516e-05,1.1396e+08,697.35,0,1.1292e+08,142.73,412.9,1
816,4.96,12163,1,12163,1,0.00077181,-9.4657e-10,0,0.00077295,-0.00014375,2.0921e+08,-231.65,0,2.0975e+08,-21.275,12162,12879,1,12879,1,0.0015527,2.6224e-09,0,0.0015527,2.1097e-06,3.7431e+08,835.57,0,3.7431e+08,335.53,12878,12168,1,12168,1,0.00077181,-8.5226e-10,0,0.00077181,-0.00014376,2.2637e+08,-189.45,0,2.2637e+08,-23.225,12167,11473,1,11473,1,-9.0913e-06,-4.4828e-09,0,9.0862e-06,-0.00028969,-4.2621e+06,-1229.9,0,4.26e+06,-985.29,11472,11820,1,11820,1,0.00035533,-1.9444e-09,0,0.00035533,-0.00022151,1.1707e+08,-477.41,0,1.1707e+08,-88.622,11819,12516,1,12516,1,0.0011883,-5.9338e-13,0,0.0011883,-6.5981e-05,3.0648e+08,-0.64212,0,3.0648e+08,54.72,12515,412.9,0,412.9,0,0.00048026,1.6338e-09,0,0.00047843,8.9715e-05,1.1388e+08,448.27,0,1.1289e+08,147.16,412.9,1
816,4.97,12163,1,12163,1,0.00077427,1.5922e-10,0,0.00077532,-0.0001442,2.0947e+08,51.383,0,2.0997e+08,-17.53,12162,12879,1,12879,1,0.0015569,2.8377e-09,0,0.0015569,1.9756e-06,3.7432e+08,907.16,0,3.7432e+08,343.88,12878,12168,1,12168,1,0.00077427,3.704e-11,0,0.00077427,-0.00014421,2.2671e+08,8.4353,0,2.2671e+08,-13.511,12167,11473,1,11473,1,-8.3927e-06,-1.0914e-09,0,8.3902e-06,-0.00029047,-4.001e+06,-348.77,0,4.0001e+06,-551.38,11472,11820,1,11820,1,0.00035685,-2.8482e-10,0,0.00035685,-0.00022214,1.1745e+08,-64.27,0,1.1745e+08,-87.053,11819,12516,1,12516,1,0.0011917,2.8592e-10,0,0.0011917,-6.6261e-05,3.0663e+08,75.076,0,3.0663e+08,36.785,12515,412.9,0,412.9,0,0.00048135,6.9408e-10,0,0.00047965,8.9914e-05,1.1379e+08,199.47,0,1.1286e+08,127.91,412.9,1
816,4.98,12163,1,12163,1,0.00077672,4.0333e-09,0,0.00077768,-0.00014466,2.0971e+08,1074,0,2.1018e+08,0.67862,12162,12879,1,12879,1,0.0015612,7.8602e-09,0,0.0015612,1.8474e-06,3.7432e+08,2300.6,0,3.7432e+08,310.57,12878,12168,1,12168,1,0.00077672,4.6487e-09,0,0.00077672,-0.00014467,2.2704e+08,1164.4,0,2.2704e+08,-0.57994,12167,11473,1,11473,1,-7.688e-06,-8.1811e-10,0,7.6858e-06,-0.00029125,-3.738e+06,-165.55,0,3.7373e+06,-209.93,11472,11820,1,11820,1,0.00035837,2.2677e-09,0,0.00035837,-0.00022276,1.1782e+08,491.98,0,1.1782e+08,-69.01,11819,12516,1,12516,1,0.0011951,5.8983e-09,0,0.0011951,-6.6541e-05,3.0678e+08,1605,0,3.0678e+08,71.501,12515,412.9,0,412.9,0,0.00048242,2.359e-09,0,0.00048087,9.0114e-05,1.137e+08,685.3,0,1.1283e+08,107.08,412.9,1
816,4.99,12163,1,12163,1,0.00077918,-4.1829e-09,0,0.00078005,-0.00014511,2.0996e+08,-1078.3,0,2.1039e+08,64.568,12162,12879,1,12879,1,0.0015653,1.1489e-09,0,0.0015653,1.7187e-06,3.7432e+08,230.78,0,3.7432e+08,437.33,12878,12168,1,12168,1,0.00077918,-3.5912e-09,0,0.00077918,-0.00014512,2.2737e+08,-884.5,0,2.2737e+08,25.995,12167,11473,1,11473,1,-6.9846e-06,-1.0393e-08,0,6.9734e-06,-0.00029202,-3.4759e+06,-2790.6,0,3.4716e+06,-112.56,11472,11820,1,11820,1,0.00035989,-6.2637e-09,0,0.00035989,-0.00022339,1.1819e+08,-1620.3,0,1.1819e+08,-27.209,11819,12516,1,12516,1,0.0011985,-1.9309e-09,0,0.0011985,-6.6822e-05,3.0693e+08,-460.87,0,3.0693e+08,114.54,12515,412.9,0,412.9,0,0.0004835,2.9867e-09,0,0.00048209,9.0313e-05,1.136e+08,797.6,0,1.1279e+08,124.25,412.9,1
816,5,12163,1,12163,1,0.00078163,1.8942e-09,0,0.00078242,-0.00014556,2.102e+08,500.45,0,2.1061e+08,-10.69,12162,12879,1,12879,1,0.0015695,3.9817e-09,0,0.0015695,1.5872e-06,3.743e+08,1116.4,0,3.743e+08,540.69,12878,12168,1,12168,1,0.00078164,2.2117e-09,0,0.00078164,-0.00014557,2.277e+08,543.38,0,2.277e+08,-14.014,12167,11473,1,11473,1,-6.2664e-06,-8.147e-10,0,6.265e-06,-0.0002928,-3.2083e+06,-163.86,0,3.2078e+06,-258.75,11472,11820,1,11820,1,0.00036142,1.0642e-09,0,0.00036142,-0.00022402,1.1856e+08,245.58,0,1.1856e+08,-94.511,11819,12516,1,12516,1,0.0012018,2.7457e-09,0,0.0012018,-6.7104e-05,3.0707e+08,747.26,0,3.0707e+08,48.802,12515,412.9,0,412.9,0,0.00048457,1.1741e-09,0,0.0004833,9.0511e-05,1.1351e+08,328.58,0,1.1276e+08,130.73,412.9,1
816,5.01,12163,1,12163,1,0.00078413,1.7282e-09,0,0.00078482,-0.00014602,2.1046e+08,467.47,0,2.1082e+08,29.202,12162,12879,1,12879,1,0.0015738,3.4555e-09,0,0.0015738,1.4564e-06,3.743e+08,1052.8,0,3.743e+08,395.75,12878,12168,1,12168,1,0.00078413,1.9693e-09,0,0.00078413,-0.00014603,2.2804e+08,488.63,0,2.2804e+08,10.664,12167,11473,1,11473,1,-5.5539e-06,-5.1813e-10,0,5.5498e-06,-0.00029359,-2.9431e+06,-104.1,0,2.9416e+06,-105.13,11472,11820,1,11820,1,0.00036296,7.0605e-10,0,0.00036296,-0.00022465,1.1894e+08,153.01,0,1.1894e+08,-30.489,11819,12516,1,12516,1,0.0012053,2.7883e-09,0,0.0012053,-6.7389e-05,3.0722e+08,779.59,0,3.0722e+08,68.507,12515,412.9,0,412.9,0,0.00048566,1.1867e-09,0,0.00048454,9.0714e-05,1.1341e+08,345.81,0,1.1273e+08,86.622,412.9,1
816,5.02,12163,1,12163,1,0.00078661,-1.9006e-09,0,0.00078721,-0.00014648,2.1069e+08,-481.34,0,2.1103e+08,92.205,12162,12879,1,12879,1,0.001578,2.1121e-09,0,0.001578,1.3228e-06,3.7428e+08,577.02,0,3.7428e+08,447.88,12878,12168,1,12168,1,0.00078661,-1.5221e-09,0,0.00078661,-0.00014649,2.2837e+08,-365.88,0,2.2837e+08,57.364,12167,11473,1,11473,1,-4.8245e-06,-6.5841e-09,0,4.8172e-06,-0.00029437,-2.6717e+06,-1705.6,0,2.669e+06,-36.205,11472,11820,1,11820,1,0.00036451,-3.648e-09,0,0.00036451,-0.00022528,1.1931e+08,-917.51,0,1.1931e+08,8.6801,11819,12516,1,12516,1,0.0012087,-1.8094e-11,0,0.0012087,-6.7674e-05,3.0735e+08,-4.0242,0,3.0735e+08,145.56,12515,412.9,0,412.9,0,0.00048674,2.2884e-09,0,0.00048576,9.0913e-05,1.1331e+08,598.65,0,1.1269e+08,107.66,412.9,1
816,5.03,12163,1,12163,1,0.00078911,1.4729e-09,0,0.00078962,-0.00014694,2.1094e+08,391.17,0,2.1124e+08,34.527,12162,12879,1,12879,1,0.0015823,2.6992e-09,0,0.0015823,1.1881e-06,3.7426e+08,819.76,0,3.7426e+08,402.11,12878,12168,1,12168,1,0.00078911,1.7476e-09,0,0.00078911,-0.00014695,2.287e+08,433.82,0,2.287e+08,13.837,12167,11473,1,11473,1,-4.0904e-06,-4.3876e-10,0,4.0886e-06,-0.00029516,-2.3988e+06,-87.425,0,2.3982e+06,-116.87,11472,11820,1,11820,1,0.00036607,8.1871e-10,0,0.00036607,-0.00022592,1.1969e+08,174.35,0,1.1969e+08,-26.207,11819,12516,1,12516,1,0.0012121,2.2075e-09,0,0.0012121,-6.7961e-05,3.0749e+08,616.1,0,3.0749e+08,64.461,12515,412.9,0,412.9,0,0.00048783,8.7129e-10,0,0.000487,9.1114e-05,1.1321e+08,252.51,0,1.1265e+08,98.901,412.9,1
816,5.04,12163,1,12163,1,0.00079161,2.1859e-09,0,0.00079203,-0.00014741,2.1118e+08,594.35,0,2.1144e+08,20.729,12162,12879,1,12879,1,0.0015866,7.1107e-09,0,0.0015866,1.0522e-06,3.7423e+08,1993.9,0,3.7423e+08,437.38,12878,12168,1,12168,1,0.00079161,1.9477e-09,0,0.00079161,-0.00014741,2.2902e+08,476.62,0,2.2902e+08,12.232,12167,11473,1,11473,1,-3.3493e-06,-1.9097e-09,0,3.346e-06,-0.00029595,-2.1234e+06,-428.31,0,2.1222e+06,-223.97,11472,11820,1,11820,1,0.00036763,1.5828e-10,0,0.00036763,-0.00022655,1.2006e+08,32.305,0,1.2006e+08,-70.882,11819,12516,1,12516,1,0.0012156,4.0453e-09,0,0.0012156,-6.8249e-05,3.0762e+08,1063.5,0,3.0762e+08,84.14,12515,412.9,0,412.9,0,0.00048891,2.3875e-09,0,0.00048823,9.1314e-05,1.1311e+08,650.89,0,1.1261e+08,127.82,412.9,1
816,5.05,12163,1,12163,1,0.00079412,-8.6461e-10,0,0.00079445,-0.00014787,2.1142e+08,-198.93,0,2.1165e+08,67.687,12162,12879,1,12879,1,0.0015909,2.804e-09,0,0.0015909,9.1703e-07,3.742e+08,825.72,0,3.742e+08,384.43,12878,12168,1,12168,1,0.00079413,-9.7756e-10,0,0.00079413,-0.00014788,2.2935e+08,-240.2,0,2.2935e+08,46.384,12167,11473,1,11473,1,-2.6127e-06,-3.7387e-09,0,2.6025e-06,-0.00029674,-1.85e+06,-907.96,0,1.8462e+06,-75.104,11472,11820,1,11820,1,0.0003692,-1.9602e-09,0,0.0003692,-0.00022719,1.2044e+08,-478.89,0,1.2044e+08,4.1382,11819,12516,1,12516,1,0.0012191,-2.5156e-12,0,0.0012191,-6.8538e-05,3.0775e+08,-1.0661,0,3.0775e+08,109.92,12515,412.9,0,412.9,0,0.00049,1.4393e-09,0,0.00048947,9.1517e-05,1.13e+08,373.96,0,1.1257e+08,94.925,412.9,1
816,5.06,12163,1,12163,1,0.00079661,2.2206e-09,0,0.00079684,-0.00014833,2.1165e+08,607.07,0,2.1185e+08,15.237,12162,12879,1,12879,1,0.0015951,9.9625e-09,0,0.0015951,7.7878e-07,3.7415e+08,2825.7,0,3.7415e+08,621.85,12878,12168,1,12168,1,0.00079662,1.4244e-09,0,0.00079662,-0.00014834,2.2967e+08,340.65,0,2.2967e+08,8.89,12167,11473,1,11473,1,-1.8554e-06,-3.575e-09,0,1.8523e-06,-0.00029753,-1.5688e+06,-877.65,0,1.5677e+06,-308.77,11472,11820,1,11820,1,0.00037076,-5.1021e-10,0,0.00037076,-0.00022782,1.2082e+08,-107.67,0,1.2082e+08,-143.19,11819,12516,1,12516,1,0.0012225,4.6508e-09,0,0.0012225,-6.8826e-05,3.0786e+08,1217.5,0,3.0786e+08,100.15,12515,412.9,0,412.9,0,0.00049107,3.3778e-09,0,0.00049069,9.1714e-05,1.1289e+08,917.99,0,1.1252e+08,205.25,412.9,1
816,5.07,12163,1,12163,1,0.00079915,1.2174e-09,0,0.00079929,-0.0001488,2.119e+08,353.19,0,2.1206e+08,-28.777,12162,12879,1,12879,1,0.0015994,5.8737e-09,0,0.0015994,6.4175e-07,3.7413e+08,1803.6,0,3.7413e+08,434.42,12878,12168,1,12168,1,0.00079915,7.8256e-10,0,0.00079915,-0.00014881,2.3e+08,198.87,0,2.3e+08,-18.41,12167,11473,1,11473,1,-1.1107e-06,-1.5307e-09,0,1.101e-06,-0.00029833,-1.2928e+06,-330.53,0,1.2893e+06,-230.52,11472,11820,1,11820,1,0.00037235,-4.2434e-10,0,0.00037235,-0.00022847,1.2119e+08,-89.593,0,1.2119e+08,-120.11,11819,12516,1,12516,1,0.001226,2.5361e-09,0,0.001226,-6.9119e-05,3.08e+08,683.87,0,3.08e+08,25.983,12515,412.9,0,412.9,0,0.00049217,1.9167e-09,0,0.00049194,9.1918e-05,1.1279e+08,530.7,0,1.1248e+08,116.72,412.9,1
816,5.08,12163,1,12163,1,0.00080166,1.7776e-09,0,0.0008017,-0.00014926,2.1212e+08,518.89,0,2.1225e+08,4.6407,12162,12879,1,12879,1,0.0016037,1.2022e-08,0,0.0016037,5.0181e-07,3.7407e+08,3530.7,0,3.7407e+08,640.13,12878,12168,1,12168,1,0.00080167,6.8671e-10,0,0.00080167,-0.00014927,2.3031e+08,166.5,0,2.3031e+08,11.917,12167,11473,1,11473,1,-3.4472e-07,-4.1295e-09,0,3.3307e-07,-0.00029912,-1.0089e+06,-993,0,1.0046e+06,-415.4,11472,11820,1,11820,1,0.00037393,-1.4061e-09,0,0.00037393,-0.0002291,1.2157e+08,-303.66,0,1.2157e+08,-146,11819,12516,1,12516,1,0.0012294,4.2893e-09,0,0.0012294,-6.941e-05,3.081e+08,1122.2,0,3.081e+08,110.28,12515,412.9,0,412.9,0,0.00049324,3.8923e-09,0,0.00049317,9.2116e-05,1.1267e+08,1053.6,0,1.1243e+08,210.17,412.9,1
816,5.09,12163,1,12163,1,0.00080423,-2.0426e-10,0,0.00080423,-0.00014973,2.1237e+08,5.0127,0,2.1246e+08,-44.946,12162,12879,1,12879,1,0.0016081,5.6119e-09,0,0.0016081,3.6148e-07,3.7404e+08,1787.7,0,3.7404e+08,296.73,12878,12168,1,12168,1,0.00080423,-1.0125e-09,0,0.00080423,-0.00014974,2.3064e+08,-221.32,0,2.3064e+08,-32.478,12167,11473,1,11473,1,4.1579e-07,-2.668e-09,0,4.1579e-07,-0.00029993,-7.2741e+05,-620.13,0,7.2091e+05,-281.93,11472,11820,1,11820,1,0.00037553,-1.7737e-09,0,0.00037553,-0.00022975,1.2195e+08,-386.61,0,1.2195e+08,-133.65,11819,12516,1,12516,1,0.0012329,8.3032e-10,0,0.0012329,-6.9706e-05,3.0823e+08,233.9,0,3.0823e+08,23.093,12515,412.9,0,412.9,0,0.00049435,2.0376e-09,0,0.00049435,9.2321e-05,1.1256e+08,544.91,0,1.1239e+08,114.52,412.9,1
816,5.1,12163,1,12163,1,0.00080677,2.268e-09,0,0.00080677,-0.0001502,2.1259e+08,643.79,0,2.1265e+08,-33.56,12162,12879,1,12879,1,0.0016124,1.1612e-08,0,0.0016124,2.1842e-07,3.7396e+08,3444.1,0,3.7396e+08,719.97,12878,12168,1,12168,1,0.00080678,1.1252e-09,0,0.00080678,-0.00015021,2.3095e+08,274.76,0,2.3095e+08,-12.805,12167,11473,1,11473,1,1.1991e-06,-3.2878e-09,0,1.1991e-06,-0.00030073,-4.3744e+05,-774.02,0,4.3226e+05,-424.72,11472,11820,1,11820,1,0.00037714,-8.393e-10,0,0.00037714,-0.0002304,1.2233e+08,-176.28,0,1.2233e+08,-224.91,11819,12516,1,12516,1,0.0012364,4.9274e-09,0,0.0012364,-7.0001e-05,3.0833e+08,1290.3,0,3.0833e+08,80.997,12515,412.9,0,412.9,0,0.00049543,3.7787e-09,0,0.00049543,9.2522e-05,1.1244e+08,1039.7,0,1.1234e+08,229.63,412.9,1
816,5.11,12163,1,12163,1,0.00080936,-2.4634e-09,0,0.00080936,-0.00015068,2.1283e+08,-580.39,0,2.1285e+08,-32.008,12162,12879,1,12879,1,0.0016168,2.4969e-09,0,0.0016168,7.4712e-08,3.7392e+08,794.12,0,3.7392e+08,414.37,12878,12168,1,12168,1,0.00080936,-2.8531e-09,0,0.00080936,-0.00015069,2.3128e+08,-680.34,0,2.3128e+08,-34.318,12167,11473,1,11473,1,1.9794e-06,-4.616e-09,0,1.9794e-06,-0.00030153,-1.4898e+05,-1055.3,0,1.4228e+05,-245.03,11472,11820,1,11820,1,0.00037876,-3.8215e-09,0,0.00037876,-0.00023105,1.2272e+08,-898.47,0,1.2272e+08,-118.62,11819,12516,1,12516,1,0.00124,-1.3883e-09,0,0.00124,-7.0301e-05,3.0845e+08,-363.45,0,3.0845e+08,17.922,12515,412.9,0,412.9,0,0.00049654,1.5817e-09,0,0.00049654,9.2728e-05,1.1233e+08,383.15,0,1.1229e+08,122.04,412.9,1
816,5.12,12163,1,12163,1,0.00081191,2.3734e-09,0,0.00081191,-0.00015115,2.1305e+08,657.71,0,2.1305e+08,42.979,12162,12879,1,12879,1,0.0016211,1.2722e-08,0,0.0016211,-7.0579e-08,3.7383e+08,3756.3,0,3.7383e+08,657.02,12878,12168,1,12168,1,0.00081192,1.089e-09,0,0.00081192,-0.00015116,2.3159e+08,272.73,0,2.3159e+08,23.11,12167,11473,1,11473,1,2.7765e-06,-3.8106e-09,0,2.7765e-06,-0.00030233,1.4568e+05,-924.36,0,1.4568e+05,-347.74,11472,11820,1,11820,1,0.00038038,-7.1188e-10,0,0.00038038,-0.0002317,1.231e+08,-146.25,0,1.231e+08,-103.64,11819,12516,1,12516,1,0.0012435,4.8737e-09,0,0.0012435,-7.0598e-05,3.0854e+08,1282.4,0,3.0854e+08,134.79,12515,412.9,0,412.9,0,0.00049762,4.0219e-09,0,0.00049762,9.2927e-05,1.122e+08,1099.6,0,1.122e+08,211.2,412.9,1
816,5.13,12163,1,12163,1,0.00081451,-1.8201e-09,0,0.00081451,-0.00015163,2.1329e+08,-419.46,0,2.1329e+08,0.83853,12162,12879,1,12879,1,0.0016255,2.7532e-09,0,0.0016255,-2.1538e-07,3.7378e+08,874.97,0,3.7378e+08,449.33,12878,12168,1,12168,1,0.00081452,-2.2712e-09,0,0.00081452,-0.00015164,2.3191e+08,-538.57,0,2.3191e+08,0.56753,12167,11473,1,11473,1,3.5631e-06,-4.3607e-09,0,3.5631e-06,-0.00030315,4.3606e+05,-1084.9,0,4.3606e+05,-207.66,11472,11820,1,11820,1,0.00038201,-3.0618e-09,0,0.00038201,-0.00023236,1.2348e+08,-708.16,0,1.2348e+08,-92.011,11819,12516,1,12516,1,0.001247,-8.2895e-10,0,0.001247,-7.09e-05,3.0866e+08,-174.53,0,3.0866e+08,52.375,12515,412.9,0,412.9,0,0.00049874,1.5991e-09,0,0.00049874,9.3134e-05,1.1208e+08,404.92,0,1.1208e+08,126.93,412.9,1
816,5.14,12163,1,12163,1,0.00081711,2.8752e-09,0,0.00081711,-0.00015211,2.1352e+08,784.32,0,2.1352e+08,-23.071,12162,12879,1,12879,1,0.0016299,9.017e-09,0,0.0016299,-3.6412e-07,3.737e+08,2633.7,0,3.737e+08,581.14,12878,12168,1,12168,1,0.00081711,2.6354e-09,0,0.00081711,-0.00015212,2.3222e+08,621.83,0,2.3222e+08,-21.391,12167,11473,1,11473,1,4.3759e-06,-1.9815e-09,0,4.3759e-06,-0.00030396,7.3608e+05,-383.69,0,7.3608e+05,-712.75,11472,11820,1,11820,1,0.00038366,3.375e-10,0,0.00038366,-0.00023301,1.2387e+08,80.075,0,1.2387e+08,-158.66,11819,12516,1,12516,1,0.0012506,5.2339e-09,0,0.0012506,-7.1202e-05,3.0875e+08,1383.4,0,3.0875e+08,66.903,12515,412.9,0,412.9,0,0.00049984,2.9162e-09,0,0.00049984,9.3337e-05,1.1196e+08,811.08,0,1.1196e+08,199.88,412.9,1
816,5.15,12163,1,12163,1,0.00081971,-2.7798e-09,0,0.00081971,-0.00015259,2.1374e+08,-666.05,0,2.1374e+08,35.815,12162,12879,1,12879,1,0.0016343,4.0148e-09,0,0.0016343,-5.111e-07,3.7362e+08,1248.7,0,3.7362e+08,556.91,12878,12168,1,12168,1,0.00081971,-2.9887e-09,0,0.00081971,-0.0001526,2.3254e+08,-704.17,0,2.3254e+08,14.206,12167,11473,1,11473,1,5.183e-06,-7.0319e-09,0,5.183e-06,-0.00030477,1.0336e+06,-1758.5,0,1.0336e+06,-441.77,11472,11820,1,11820,1,0.0003853,-4.5919e-09,0,0.0003853,-0.00023367,1.2425e+08,-1123.1,0,1.2425e+08,-43.948,11819,12516,1,12516,1,0.0012541,-1.1914e-09,0,0.0012541,-7.1506e-05,3.0884e+08,-251.88,0,3.0884e+08,89.206,12515,412.9,0,412.9,0,0.00050094,2.3445e-09,0,0.00050094,9.3541e-05,1.1183e+08,605.75,0,1.1183e+08,147.89,412.9,1
816,5.16,12163,1,12163,1,0.00082233,1.4427e-09,0,0.00082233,-0.00015307,2.1397e+08,401.68,0,2.1397e+08,3.4486,12162,12879,1,12879,1,0.0016387,4.0778e-09,0,0.0016387,-6.5109e-07,3.7353e+08,1266.1,0,3.7353e+08,667.47,12878,12168,1,12168,1,0.00082233,1.4417e-09,0,0.00082233,-0.00015308,2.3285e+08,347.26,0,2.3285e+08,-6.7177,12167,11473,1,11473,1,6.0038e-06,-1.1518e-09,0,6.0038e-06,-0.00030559,1.3361e+06,-224.54,0,1.3361e+06,-321.27,11472,11820,1,11820,1,0.00038696,1.4671e-11,0,0.00038696,-0.00023433,1.2464e+08,2.6956,0,1.2464e+08,-118.78,11819,12516,1,12516,1,0.0012577,2.8354e-09,0,0.0012577,-7.1811e-05,3.0893e+08,773.28,0,3.0893e+08,85.981,12515,412.9,0,412.9,0,0.00050205,1.5353e-09,0,0.00050205,9.3747e-05,1.117e+08,427.05,0,1.117e+08,188.47,412.9,1
816,5.17,12163,1,12163,1,0.00082493,-4.9495e-09,0,0.00082493,-0.00015355,2.1419e+08,-1242.7,0,2.1419e+08,83.459,12162,12879,1,12879,1,0.001643,1.267e-09,0,0.001643,-7.9377e-07,3.7344e+08,242.01,0,3.7344e+08,804.68,12878,12168,1,12168,1,0.00082493,-5.4533e-09,0,0.00082493,-0.00015356,2.3315e+08,-1330.5,0,2.3315e+08,50.103,12167,11473,1,11473,1,6.829e-06,-9.5992e-09,0,6.829e-06,-0.00030639,1.6398e+06,-2452.1,0,1.6398e+06,-130,11472,11820,1,11820,1,0.00038861,-7.2466e-09,0,0.00038861,-0.00023498,1.2502e+08,-1897.2,0,1.2502e+08,2.2687,11819,12516,1,12516,1,0.0012613,-2.8872e-09,0,0.0012613,-7.2117e-05,3.0901e+08,-673.37,0,3.0901e+08,123.32,12515,412.9,0,412.9,0,0.00050314,2.7519e-09,0,0.00050314,9.395e-05,1.1156e+08,727.72,0,1.1156e+08,131.16,412.9,1
816,5.18,12163,1,12163,1,0.00082758,8.2875e-10,0,0.00082758,-0.00015404,2.1442e+08,199.99,0,2.1442e+08,98.979,12162,12879,1,12879,1,0.0016475,4.4836e-09,0,0.0016475,-9.3554e-07,3.7335e+08,1098.5,0,3.7335e+08,605.83,12878,12168,1,12168,1,0.00082758,6.795e-10,0,0.00082758,-0.00015405,2.3347e+08,156.67,0,2.3347e+08,43.919,12167,11473,1,11473,1,7.6545e-06,-1.4897e-09,0,7.6545e-06,-0.00030721,1.9432e+06,-365.46,0,1.9432e+06,-49.449,11472,11820,1,11820,1,0.00039029,1.3402e-10,0,0.00039029,-0.00023565,1.2541e+08,29.598,0,1.2541e+08,11.671,11819,12516,1,12516,1,0.0012649,1.3408e-09,0,0.0012649,-7.2425e-05,3.0911e+08,319.81,0,3.0911e+08,135.71,12515,412.9,0,412.9,0,0.00050426,1.1118e-09,0,0.00050426,9.4159e-05,1.1144e+08,280.23,0,1.1144e+08,135.84,412.9,1
816,5.19,12163,1,12163,1,0.00083023,3.7099e-09,0,0.00083023,-0.00015453,2.1464e+08,948.65,0,2.1464e+08,73.528,12162,12879,1,12879,1,0.001652,6.0736e-09,0,0.001652,-1.0798e-06,3.7325e+08,1785.1,0,3.7325e+08,883.68,12878,12168,1,12168,1,0.00083023,4.4752e-09,0,0.00083023,-0.00015454,2.3378e+08,1081.7,0,2.3378e+08,33.773,12167,11473,1,11473,1,8.5e-06,-8.6589e-10,0,8.5e-06,-0.00030804,2.2539e+06,-165.33,0,2.2539e+06,-211.55,11472,11820,1,11820,1,0.00039197,2.4865e-09,0,0.00039197,-0.00023632,1.258e+08,507.9,0,1.258e+08,-81.896,11819,12516,1,12516,1,0.0012685,5.1992e-09,0,0.0012685,-7.2735e-05,3.0918e+08,1396,0,3.0918e+08,186.31,12515,412.9,0,412.9,0,0.00050537,1.9019e-09,0,0.00050537,9.4365e-05,1.113e+08,539.62,0,1.113e+08,202.45,412.9,1
816,5.2,12163,1,12163,1,0.00083286,1.4269e-09,0,0.00083286,-0.00015502,2.1485e+08,394.93,0,2.1485e+08,153.24,12162,12879,1,12879,1,0.0016564,9.4659e-09,0,0.0016564,-1.2241e-06,3.7313e+08,2570,0,3.7313e+08,796.95,12878,12168,1,12168,1,0.00083286,6.7443e-10,0,0.00083286,-0.00015502,2.3408e+08,159.77,0,2.3408e+08,84.447,12167,11473,1,11473,1,9.3406e-06,-4.9486e-09,0,9.3406e-06,-0.00030886,2.5622e+06,-1115.7,0,2.5622e+06,-92.794,11472,11820,1,11820,1,0.00039365,-8.4549e-10,0,0.00039365,-0.00023698,1.2619e+08,-169.41,0,1.2619e+08,24.955,11819,12516,1,12516,1,0.0012721,3.4514e-09,0,0.0012721,-7.3044e-05,3.0925e+08,879.09,0,3.0925e+08,238.69,12515,412.9,0,412.9,0,0.00050647,3.2402e-09,0,0.00050647,9.4569e-05,1.1116e+08,832.15,0,1.1116e+08,183.4,412.9,1
816,5.21,12163,1,12163,1,0.00083554,5.9083e-10,0,0.00083554,-0.00015551,2.1508e+08,192.64,0,2.1508e+08,90.903,12162,12879,1,12879,1,0.0016609,3.8872e-09,0,0.0016609,-1.3691e-06,3.7302e+08,1092.7,0,3.7302e+08,714.64,12878,12168,1,12168,1,0.00083553,3.4095e-10,0,0.00083553,-0.00015552,2.3439e+08,78.179,0,2.3439e+08,41.169,12167,11473,1,11473,1,1.0187e-05,-3.4582e-09,0,1.0187e-05,-0.00030969,2.8724e+06,-746.55,0,2.8724e+06,-130.13,11472,11820,1,11820,1,0.00039535,-8.1761e-10,0,0.00039535,-0.00023765,1.2658e+08,-161.76,0,1.2658e+08,-24.235,11819,12516,1,12516,1,0.0012757,2.1226e-09,0,0.0012757,-7.3358e-05,3.0933e+08,578.53,0,3.0933e+08,167.15,12515,412.9,0,412.9,0,0.0005076,1.6537e-09,0,0.0005076,9.4778e-05,1.1102e+08,430.73,0,1.1102e+08,166.58,412.9,1
816,5.22,12163,1,12163,1,0.00083821,3.9492e-10,0,0.00083821,-0.000156,2.1529e+08,151.48,0,2.1529e+08,138.05,12162,12879,1,12879,1,0.0016654,7.8266e-09,0,0.0016654,-1.5161e-06,3.729e+08,2206,0,3.729e+08,762.1,12878,12168,1,12168,1,0.00083821,-3.5113e-10,0,0.00083821,-0.00015601,2.347e+08,-74.595,0,2.347e+08,82.279,12167,11473,1,11473,1,1.1049e-05,-5.9461e-09,0,1.1049e-05,-0.00031052,3.1877e+06,-1337.8,0,3.1877e+06,-125.17,11472,11820,1,11820,1,0.00039706,-1.5429e-09,0,0.00039706,-0.00023832,1.2697e+08,-346.88,0,1.2697e+08,6.8774,11819,12516,1,12516,1,0.0012794,2.3077e-09,0,0.0012794,-7.3672e-05,3.094e+08,580.87,0,3.094e+08,219.6,12515,412.9,0,412.9,0,0.00050871,3.0173e-09,0,0.00050871,9.4985e-05,1.1087e+08,768.85,0,1.1087e+08,180.31,412.9,1
816,5.23,12163,1,12163,1,0.00084088,3.9408e-09,0,0.00084088,-0.00015649,2.1551e+08,1063.8,0,2.1551e+08,40.511,12162,12879,1,12879,1,0.0016699,1.2008e-08,0,0.0016699,-1.6636e-06,3.7278e+08,3582.5,0,3.7278e+08,791.68,12878,12168,1,12168,1,0.00084088,3.8584e-09,0,0.00084088,-0.0001565,2.35e+08,899.7,0,2.35e+08,25.524,12167,11473,1,11473,1,1.1915e-05,-3.6643e-09,0,1.1915e-05,-0.00031136,3.5044e+06,-759.52,0,3.5044e+06,-342.96,11472,11820,1,11820,1,0.00039877,1.2834e-10,0,0.00039877,-0.00023899,1.2736e+08,27.726,0,1.2736e+08,-98.508,11819,12516,1,12516,1,0.001283,7.2828e-09,0,0.001283,-7.3987e-05,3.0946e+08,1947.9,0,3.0946e+08,134.04,12515,412.9,0,412.9,0,0.00050982,4.181e-09,0,0.00050982,9.5191e-05,1.1073e+08,1131,0,1.1073e+08,200.58,412.9,1
816,5.24,12163,1,12163,1,0.00084358,-4.2495e-09,0,0.00084358,-0.00015699,2.1572e+08,-1002.5,0,2.1572e+08,132.76,12162,12879,1,12879,1,0.0016744,1.495e-10,0,0.0016744,-1.8112e-06,3.7266e+08,26.63,0,3.7266e+08,811.08,12878,12168,1,12168,1,0.00084358,-4.5131e-09,0,0.00084358,-0.000157,2.353e+08,-1049.6,0,2.353e+08,67.282,12167,11473,1,11473,1,1.278e-05,-8.9426e-09,0,1.278e-05,-0.00031218,3.8202e+06,-2087.4,0,3.8202e+06,-38.964,11472,11820,1,11820,1,0.00040049,-5.9936e-09,0,0.00040049,-0.00023967,1.2776e+08,-1382.9,0,1.2776e+08,33.227,11819,12516,1,12516,1,0.0012867,-2.4834e-09,0,0.0012867,-7.4305e-05,3.0952e+08,-658.26,0,3.0952e+08,160.88,12515,412.9,0,412.9,0,0.00051094,2.2193e-09,0,0.00051094,9.54e-05,1.1058e+08,512.23,0,1.1058e+08,159.7,412.9,1
816,5.25,12163,1,12163,1,0.00084627,-2.5681e-09,0,0.00084627,-0.00015748,2.1593e+08,-615.29,0,2.1593e+08,127.07,12162,12879,1,12879,1,0.0016789,4.5601e-10,0,0.0016789,-1.9619e-06,3.7252e+08,84.558,0,3.7252e+08,839.45,12878,12168,1,12168,1,0.00084627,-2.5312e-09,0,0.00084627,-0.0001575,2.356e+08,-598.02,0,2.356e+08,64.753,12167,11473,1,11473,1,1.3669e-05,-7.4491e-09,0,1.3669e-05,-0.00031301,4.1443e+06,-1765.8,0,4.1443e+06,-78.413,11472,11820,1,11820,1,0.00040222,-3.5837e-09,0,0.00040222,-0.00024035,1.2815e+08,-853.35,0,1.2815e+08,10.735,11819,12516,1,12516,1,0.0012903,-1.3105e-09,0,0.0012903,-7.4623e-05,3.0958e+08,-319.09,0,3.0958e+08,158.19,12515,412.9,0,412.9,0,0.00051206,1.6879e-09,0,0.00051206,9.5607e-05,1.1043e+08,405.39,0,1.1043e+08,177.7,412.9,1
816,5.26,12163,1,12163,1,0.000849,1.9434e-09,0,0.000849,-0.00015799,2.1615e+08,509.39,0,2.1615e+08,127.8,12162,12879,1,12879,1,0.0016835,5.6145e-09,0,0.0016835,-2.1129e-06,3.7239e+08,1442.9,0,3.7239e+08,806.42,12878,12168,1,12168,1,0.000849,2.0713e-09,0,0.000849,-0.000158,2.359e+08,474.38,0,2.359e+08,54.149,12167,11473,1,11473,1,1.4558e-05,-2.6965e-09,0,1.4558e-05,-0.00031386,4.4677e+06,-575.25,0,4.4677e+06,-85.412,11472,11820,1,11820,1,0.00040396,3.2882e-10,0,0.00040396,-0.00024103,1.2854e+08,69.028,0,1.2854e+08,10.84,11819,12516,1,12516,1,0.001294,3.6351e-09,0,0.001294,-7.4944e-05,3.0964e+08,942.78,0,3.0964e+08,197.69,12515,412.9,0,412.9,0,0.00051319,1.9237e-09,0,0.00051319,9.5818e-05,1.1028e+08,507.2,0,1.1028e+08,174.64,412.9,1
816,5.27,12163,1,12163,1,0.00085173,-2.6372e-09,0,0.00085173,-0.00015849,2.1636e+08,-639.3,0,2.1636e+08,206.6,12162,12879,1,12879,1,0.001688,1.265e-09,0,0.001688,-2.2651e-06,3.7225e+08,299.06,0,3.7225e+08,879.54,12878,12168,1,12168,1,0.00085173,-2.4756e-09,0,0.00085173,-0.0001585,2.362e+08,-579.64,0,2.362e+08,156.9,12167,11473,1,11473,1,1.5456e-05,-8.1722e-09,0,1.5456e-05,-0.0003147,4.7941e+06,-1933.9,0,4.7941e+06,-20.835,11472,11820,1,11820,1,0.00040572,-4.1379e-09,0,0.00040572,-0.00024171,1.2894e+08,-1013.3,0,1.2894e+08,55.642,11819,12516,1,12516,1,0.0012977,-9.2526e-10,0,0.0012977,-7.5268e-05,3.0969e+08,-223.08,0,3.0969e+08,282.41,12515,412.9,0,412.9,0,0.00051431,2.12e-09,0,0.00051431,9.6027e-05,1.1012e+08,517.44,0,1.1012e+08,191.95,412.9,1
816,5.28,12163,1,12163,1,0.00085447,3.169e-10,0,0.00085447,-0.00015899,2.1657e+08,85.729,0,2.1657e+08,169.99,12162,12879,1,12879,1,0.0016926,3.5895e-09,0,0.0016926,-2.419e-06,3.7209e+08,838.77,0,3.7209e+08,970.57,12878,12168,1,12168,1,0.00085447,3.9812e-10,0,0.00085447,-0.00015901,2.3649e+08,90.817,0,2.3649e+08,87.689,12167,11473,1,11473,1,1.6366e-05,-3.914e-09,0,1.6366e-05,-0.00031554,5.1242e+06,-880.19,0,5.1242e+06,-17.694,11472,11820,1,11820,1,0.00040748,-1.5634e-10,0,0.00040748,-0.0002424,1.2934e+08,-34.158,0,1.2934e+08,34.709,11819,12516,1,12516,1,0.0013015,9.2378e-10,0,0.0013015,-7.5593e-05,3.0974e+08,258.38,0,3.0974e+08,235.55,12515,412.9,0,412.9,0,0.00051544,1.1852e-09,0,0.00051544,9.6237e-05,1.0997e+08,278.42,0,1.0997e+08,193.55,412.9,1
816,5.29,12163,1,12163,1,0.00085722,2.083e-09,0,0.00085722,-0.0001595,2.1677e+08,538.44,0,2.1677e+08,176.93,12162,12879,1,12879,1,0.0016972,5.4003e-09,0,0.0016972,-2.5735e-06,3.7194e+08,1300.2,0,3.7194e+08,987.93,12878,12168,1,12168,1,0.00085721,2.5478e-09,0,0.00085721,-0.00015951,2.3679e+08,594.91,0,2.3679e+08,100.42,12167,11473,1,11473,1,1.7278e-05,-3.4955e-09,0,1.7278e-05,-0.00031639,5.4545e+06,-745.01,0,5.4545e+06,-97.499,11472,11820,1,11820,1,0.00040925,5.0739e-10,0,0.00040925,-0.00024308,1.2973e+08,108.68,0,1.2973e+08,40.485,11819,12516,1,12516,1,0.0013052,3.8261e-09,0,0.0013052,-7.5918e-05,3.0978e+08,1018.6,0,3.0978e+08,262.51,12515,412.9,0,412.9,0,0.00051657,1.9922e-09,0,0.00051657,9.6447e-05,1.0981e+08,508.75,0,1.0981e+08,196.12,412.9,1
816,5.3,12163,1,12163,1,0.00085996,3.4555e-09,0,0.00085996,-0.00016001,2.1698e+08,907.79,0,2.1698e+08,207.69,12162,12879,1,12879,1,0.0017018,8.7633e-09,0,0.0017018,-2.7281e-06,3.7178e+08,2605.1,0,3.7178e+08,1069.8,12878,12168,1,12168,1,0.00085996,4.0586e-09,0,0.00085996,-0.00016002,2.3708e+08,936.19,0,2.3708e+08,144.84,12167,11473,1,11473,1,1.8192e-05,-3.8975e-09,0,1.8192e-05,-0.00031724,5.7848e+06,-812.38,0,5.7848e+06,-157.35,11472,11820,1,11820,1,0.00041102,7.3266e-10,0,0.00041102,-0.00024377,1.3013e+08,151.08,0,1.3013e+08,54.338,11819,12516,1,12516,1,0.0013089,6.1232e-09,0,0.0013089,-7.6244e-05,3.0981e+08,1642.2,0,3.0981e+08,308.1,12515,412.9,0,412.9,0,0.0005177,3.1843e-09,0,0.0005177,9.6656e-05,1.0964e+08,843.34,0,1.0964e+08,206.9,412.9,1
816,5.31,12163,1,12163,1,0.00086274,3.4713e-09,0,0.00086274,-0.00016052,2.1718e+08,935.11,0,2.1718e+08,204.61,12162,12879,1,12879,1,0.0017064,9.7629e-09,0,0.0017064,-2.8841e-06,3.7162e+08,2971,0,3.7162e+08,941.84,12878,12168,1,12168,1,0.00086273,3.6759e-09,0,0.00086273,-0.00016053,2.3737e+08,841.18,0,2.3737e+08,141.24,12167,11473,1,11473,1,1.9111e-05,-4.0468e-09,0,1.9111e-05,-0.0003181,6.1162e+06,-824.16,0,6.1162e+06,-120.54,11472,11820,1,11820,1,0.0004128,1.0213e-10,0,0.0004128,-0.00024446,1.3053e+08,21.899,0,1.3053e+08,61.595,11819,12516,1,12516,1,0.0013127,7.0146e-09,0,0.0013127,-7.6573e-05,3.0985e+08,1849.4,0,3.0985e+08,307.06,12515,412.9,0,412.9,0,0.00051883,3.6295e-09,0,0.00051883,9.6868e-05,1.0948e+08,978.44,0,1.0948e+08,194.96,412.9,1
816,5.32,12163,1,12163,1,0.00086552,-2.5301e-09,0,0.00086552,-0.00016103,2.1738e+08,-544.6,0,2.1738e+08,223.53,12162,12879,1,12879,1,0.001711,2.0342e-09,0,0.001711,-3.0424e-06,3.7145e+08,618.27,0,3.7145e+08,992.88,12878,12168,1,12168,1,0.00086551,-2.3252e-09,0,0.00086551,-0.00016104,2.3766e+08,-499.25,0,2.3766e+08,153.4,12167,11473,1,11473,1,2.0044e-05,-9.4986e-09,0,2.0044e-05,-0.00031895,6.4518e+06,-2093.7,0,6.4518e+06,-61.154,11472,11820,1,11820,1,0.0004146,-4.4637e-09,0,0.0004146,-0.00024516,1.3093e+08,-982.39,0,1.3093e+08,62.674,11819,12516,1,12516,1,0.0013164,-4.9571e-10,0,0.0013164,-7.6904e-05,3.0988e+08,-107.33,0,3.0988e+08,323.63,12515,412.9,0,412.9,0,0.00051997,2.7148e-09,0,0.00051997,9.7079e-05,1.0932e+08,619.09,0,1.0932e+08,215.67,412.9,1
816,5.33,12163,1,12163,1,0.00086832,-8.8295e-10,0,0.00086832,-0.00016154,2.1759e+08,-156.64,0,2.1759e+08,238.46,12162,12879,1,12879,1,0.0017157,2.7686e-09,0,0.0017157,-3.2024e-06,3.7127e+08,840.54,0,3.7127e+08,991.88,12878,12168,1,12168,1,0.00086831,-7.648e-10,0,0.00086831,-0.00016156,2.3796e+08,-153.97,0,2.3796e+08,200.17,12167,11473,1,11473,1,2.0989e-05,-7.4752e-09,0,2.0989e-05,-0.00031981,6.7912e+06,-1619.7,0,6.7912e+06,-104.79,11472,11820,1,11820,1,0.00041641,-2.2959e-09,0,0.00041641,-0.00024586,1.3133e+08,-483.98,0,1.3133e+08,63.907,11819,12516,1,12516,1,0.0013202,1.0335e-09,0,0.0013202,-7.7237e-05,3.0992e+08,265.91,0,3.0992e+08,329.39,12515,412.9,0,412.9,0,0.00052111,2.2215e-09,0,0.00052111,9.7291e-05,1.0915e+08,519.78,0,1.0915e+08,223.18,412.9,1
816,5.34,12163,1,12163,1,0.00087111,-6.4418e-09,0,0.00087111,-0.00016206,2.1778e+08,-1564.1,0,2.1778e+08,308.99,12162,12879,1,12879,1,0.0017203,5.278e-09,0,0.0017203,-3.365e-06,3.7109e+08,1235.5,0,3.7109e+08,1306,12878,12168,1,12168,1,0.00087111,-6.6785e-09,0,0.00087111,-0.00016208,2.3824e+08,-1552.8,0,2.3824e+08,266.33,12167,11473,1,11473,1,2.1947e-05,-1.5075e-08,0,2.1947e-05,-0.00032066,7.134e+06,-3738.9,0,7.134e+06,-134.73,11472,11820,1,11820,1,0.00041823,-1.1868e-08,0,0.00041823,-0.00024655,1.3173e+08,-3019.2,0,1.3173e+08,84.964,11819,12516,1,12516,1,0.001324,-1.0534e-09,0,0.001324,-7.7571e-05,3.0993e+08,-231.15,0,3.0993e+08,453.02,12515,412.9,0,412.9,0,0.00052224,5.7727e-09,0,0.00052224,9.7501e-05,1.0897e+08,1429.8,0,1.0897e+08,284.32,412.9,1
816,5.35,12163,1,12163,1,0.00087389,-2.4395e-09,0,0.00087389,-0.00016257,2.1797e+08,-617.98,0,2.1797e+08,272.17,12162,12879,1,12879,1,0.0017249,8.6311e-09,0,0.0017249,-3.5272e-06,3.7089e+08,2063.2,0,3.7089e+08,1264,12878,12168,1,12168,1,0.00087389,-2.3208e-09,0,0.00087389,-0.00016259,2.3852e+08,-486.57,0,2.3852e+08,190.64,12167,11473,1,11473,1,2.2906e-05,-1.088e-08,0,2.2906e-05,-0.00032151,7.4767e+06,-2632.7,0,7.4767e+06,-98.937,11472,11820,1,11820,1,0.00042003,-6.9167e-09,0,0.00042003,-0.00024725,1.3213e+08,-1708.9,0,1.3213e+08,66.845,11819,12516,1,12516,1,0.0013277,1.0936e-09,0,0.0013277,-7.7904e-05,3.0995e+08,220.05,0,3.0995e+08,387.66,12515,412.9,0,412.9,0,0.00052336,4.8083e-09,0,0.00052336,9.771e-05,1.088e+08,1200.9,0,1.088e+08,285.2,412.9,1
816,5.36,12163,1,12163,1,0.00087673,3.4267e-09,0,0.00087673,-0.00016309,2.1818e+08,830.89,0,2.1818e+08,164.84,12162,12879,1,12879,1,0.0017296,9.4525e-09,0,0.0017296,-3.6906e-06,3.7072e+08,2348.8,0,3.7072e+08,1392.5,12878,12168,1,12168,1,0.00087673,3.6832e-09,0,0.00087673,-0.00016311,2.3881e+08,833.09,0,2.3881e+08,48.188,12167,11473,1,11473,1,2.3864e-05,-3.4178e-09,0,2.3864e-05,-0.00032238,7.8177e+06,-764.75,0,7.8177e+06,-114.95,11472,11820,1,11820,1,0.00042187,1.1394e-09,0,0.00042187,-0.00024795,1.3253e+08,249.6,0,1.3253e+08,-15.674,11819,12516,1,12516,1,0.0013316,5.6597e-09,0,0.0013316,-7.8243e-05,3.0998e+08,1407.5,0,3.0998e+08,245.36,12515,412.9,0,412.9,0,0.00052452,2.7588e-09,0,0.00052452,9.7925e-05,1.0863e+08,693.09,0,1.0863e+08,286.99,412.9,1
816,5.37,12163,1,12163,1,0.00087957,1.7987e-09,0,0.00087957,-0.00016361,2.1837e+08,465.31,0,2.1837e+08,226.02,12162,12879,1,12879,1,0.0017343,8.3726e-09,0,0.0017343,-3.8569e-06,3.7052e+08,2086.5,0,3.7052e+08,1375,12878,12168,1,12168,1,0.00087957,1.5458e-09,0,0.00087957,-0.00016363,2.391e+08,342.32,0,2.391e+08,126.32,12167,11473,1,11473,1,2.4842e-05,-5.617e-09,0,2.4842e-05,-0.00032325,8.1654e+06,-1242.8,0,8.1654e+06,-131.94,11472,11820,1,11820,1,0.00042371,-1.9852e-10,0,0.00042371,-0.00024866,1.3294e+08,-42.778,0,1.3294e+08,36.62,11819,12516,1,12516,1,0.0013354,4.0587e-09,0,0.0013354,-7.8583e-05,3.0999e+08,1028.9,0,3.0999e+08,327.94,12515,412.9,0,412.9,0,0.00052567,2.8035e-09,0,0.00052567,9.8138e-05,1.0845e+08,704.54,0,1.0845e+08,284,412.9,1
816,5.38,12163,1,12163,1,0.00088244,-3.5755e-09,0,0.00088244,-0.00016414,2.1857e+08,-866.81,0,2.1857e+08,206.66,12162,12879,1,12879,1,0.0017391,8.0914e-10,0,0.0017391,-4.0259e-06,3.7032e+08,172.94,0,3.7032e+08,1259.8,12878,12168,1,12168,1,0.00088244,-3.5814e-09,0,0.00088244,-0.00016416,2.3938e+08,-817.68,0,2.3938e+08,121.89,12167,11473,1,11473,1,2.5828e-05,-8.9388e-09,0,2.5828e-05,-0.00032413,8.5142e+06,-2049.8,0,8.5142e+06,-75.494,11472,11820,1,11820,1,0.00042558,-5.9836e-09,0,0.00042558,-0.00024938,1.3335e+08,-1507.5,0,1.3335e+08,30.358,11819,12516,1,12516,1,0.0013393,-1.2375e-09,0,0.0013393,-7.8927e-05,3.1e+08,-276.33,0,3.1e+08,281.34,12515,412.9,0,412.9,0,0.00052682,2.5762e-09,0,0.00052682,9.8353e-05,1.0827e+08,647.74,0,1.0827e+08,260.13,412.9,1
816,5.39,12163,1,12163,1,0.00088533,1.6739e-10,0,0.00088533,-0.00016467,2.1877e+08,36.456,0,2.1877e+08,228.34,12162,12879,1,12879,1,0.0017438,3.8205e-09,0,0.0017438,-4.1973e-06,3.7011e+08,880.85,0,3.7011e+08,1429.7,12878,12168,1,12168,1,0.00088533,3.0849e-10,0,0.00088533,-0.0001647,2.3966e+08,64.752,0,2.3966e+08,107.74,12167,11473,1,11473,1,2.6829e-05,-5.2614e-09,0,2.6829e-05,-0.00032501,8.8674e+06,-1133.7,0,8.8674e+06,-61.505,11472,11820,1,11820,1,0.00042746,-2.8444e-10,0,0.00042746,-0.00025009,1.3376e+08,-74.547,0,1.3376e+08,24.341,11819,12516,1,12516,1,0.0013432,8.1823e-10,0,0.0013432,-7.9273e-05,3.1001e+08,169,0,3.1001e+08,328.13,12515,412.9,0,412.9,0,0.00052799,1.324e-09,0,0.00052799,9.8569e-05,1.0809e+08,294.55,0,1.0809e+08,298.12,412.9,1
816,5.4,12163,1,12163,1,0.00088817,-3.3823e-10,0,0.00088817,-0.0001652,2.1894e+08,-90.78,0,2.1894e+08,353.89,12162,12879,1,12879,1,0.0017485,1.0124e-08,0,0.0017485,-4.3698e-06,3.6987e+08,2346.6,0,3.6987e+08,1697.5,12878,12168,1,12168,1,0.00088817,2.1595e-10,0,0.00088817,-0.00016522,2.3993e+08,41.168,0,2.3993e+08,245.19,12167,11473,1,11473,1,2.7836e-05,-1.165e-08,0,2.7836e-05,-0.00032587,9.2216e+06,-2681.2,0,9.2216e+06,-66.627,11472,11820,1,11820,1,0.00042933,-3.6556e-09,0,0.00042933,-0.0002508,1.3416e+08,-853.31,0,1.3416e+08,95.678,11819,12516,1,12516,1,0.001347,2.8801e-09,0,0.001347,-7.9616e-05,3.0999e+08,665.42,0,3.0999e+08,497.67,12515,412.9,0,412.9,0,0.00052911,4.5691e-09,0,0.00052911,9.8779e-05,1.0789e+08,1088.2,0,1.0789e+08,356.32,412.9,1
816,5.41,12163,1,12163,1,0.00089108,-6.5126e-10,0,0.00089108,-0.00016573,2.1914e+08,-170.62,0,2.1914e+08,310.27,12162,12879,1,12879,1,0.0017533,7.2994e-09,0,0.0017533,-4.5426e-06,3.6968e+08,1702.1,0,3.6968e+08,1588.9,12878,12168,1,12168,1,0.00089107,-9.4665e-11,0,0.00089107,-0.00016576,2.4022e+08,-21.26,0,2.4022e+08,193.24,12167,11473,1,11473,1,2.8831e-05,-9.3353e-09,0,2.8831e-05,-0.00032676,9.5705e+06,-2139.8,0,9.5705e+06,-69.858,11472,11820,1,11820,1,0.00043121,-3.0459e-09,0,0.00043121,-0.00025152,1.3457e+08,-762.97,0,1.3457e+08,51.059,11819,12516,1,12516,1,0.0013509,1.5025e-09,0,0.0013509,-7.9963e-05,3.1e+08,340.24,0,3.1e+08,452.87,12515,412.9,0,412.9,0,0.00053029,3.3441e-09,0,0.00053029,9.8997e-05,1.0772e+08,797.32,0,1.0772e+08,352.83,412.9,1
816,5.42,12163,1,12163,1,0.00089399,-1.7332e-09,0,0.00089399,-0.00016627,2.1933e+08,-451.19,0,2.1933e+08,345.45,12162,12879,1,12879,1,0.0017581,7.8861e-09,0,0.0017581,-4.7206e-06,3.6944e+08,1722.4,0,3.6944e+08,1694.7,12878,12168,1,12168,1,0.00089398,-1.5806e-09,0,0.00089398,-0.00016629,2.4049e+08,-351,0,2.4049e+08,228.66,12167,11473,1,11473,1,2.9857e-05,-1.0356e-08,0,2.9857e-05,-0.00032765,9.929e+06,-2405.3,0,9.929e+06,-34.67,11472,11820,1,11820,1,0.00043312,-4.9369e-09,0,0.00043312,-0.00025224,1.3498e+08,-1241.9,0,1.3498e+08,72.894,11819,12516,1,12516,1,0.0013549,9.7695e-10,0,0.0013549,-8.0314e-05,3.0999e+08,183.24,0,3.0999e+08,481.09,12515,412.9,0,412.9,0,0.00053145,3.7134e-09,0,0.00053145,9.9212e-05,1.0752e+08,889.05,0,1.0752e+08,366.7,412.9,1
816,5.43,12163,1,12163,1,0.00089689,-3.775e-09,0,0.00089689,-0.0001668,2.1951e+08,-973.14,0,2.1951e+08,370.23,12162,12879,1,12879,1,0.001763,6.8171e-09,0,0.001763,-4.8985e-06,3.6921e+08,1452.5,0,3.6921e+08,1859.6,12878,12168,1,12168,1,0.00089689,-3.2005e-09,0,0.00089689,-0.00016682,2.4076e+08,-771.15,0,2.4076e+08,214.45,12167,11473,1,11473,1,3.0881e-05,-1.4553e-08,0,3.0881e-05,-0.00032854,1.0285e+07,-3549.1,0,1.0285e+07,-169.12,11472,11820,1,11820,1,0.00043502,-8.3103e-09,0,0.00043502,-0.00025296,1.3539e+08,-2027.7,0,1.3539e+08,53.323,11819,12516,1,12516,1,0.0013588,7.0928e-10,0,0.0013588,-8.0663e-05,3.0998e+08,149.66,0,3.0998e+08,539.49,12515,412.9,0,412.9,0,0.0005326,5.0336e-09,0,0.0005326,9.9426e-05,1.0733e+08,1249.7,0,1.0733e+08,439.79,412.9,1
816,5.44,12163,1,12163,1,0.00089982,6.1836e-09,0,0.00089982,-0.00016734,2.197e+08,1452.3,0,2.197e+08,318.42,12162,12879,1,12879,1,0.0017677,1.6198e-08,0,0.0017677,-5.0793e-06,3.6898e+08,3692.2,0,3.6898e+08,2004.8,12878,12168,1,12168,1,0.00089982,6.4119e-09,0,0.00089982,-0.00016737,2.4104e+08,1493.6,0,2.4104e+08,176.31,12167,11473,1,11473,1,3.1906e-05,-2.6617e-09,0,3.1906e-05,-0.00032942,1.0641e+07,-565.35,0,1.0641e+07,-106.84,11472,11820,1,11820,1,0.00043694,2.9385e-09,0,0.00043694,-0.00025369,1.358e+08,679.19,0,1.358e+08,51.367,11819,12516,1,12516,1,0.0013627,9.4368e-09,0,0.0013627,-8.1017e-05,3.0996e+08,2254.4,0,3.0996e+08,454.39,12515,412.9,0,412.9,0,0.00053377,4.0442e-09,0,0.00053377,9.9642e-05,1.0714e+08,963.33,0,1.0714e+08,382.41,412.9,1
816,5.45,12163,1,12163,1,0.00090277,2.0119e-09,0,0.00090277,-0.00016788,2.1988e+08,471.51,0,2.1988e+08,347.56,12162,12879,1,12879,1,0.0017726,1.1022e-08,0,0.0017726,-5.2629e-06,3.6873e+08,2525.4,0,3.6873e+08,2027.5,12878,12168,1,12168,1,0.00090277,2.2209e-09,0,0.00090277,-0.00016791,2.4131e+08,484.48,0,2.4131e+08,205.87,12167,11473,1,11473,1,3.2964e-05,-8.6101e-09,0,3.2964e-05,-0.00033031,1.1006e+07,-1895.2,0,1.1006e+07,-47.784,11472,11820,1,11820,1,0.00043887,-2.8068e-11,0,0.00043887,-0.00025442,1.3621e+08,-4.4583,0,1.3621e+08,52.614,11819,12516,1,12516,1,0.0013667,4.2098e-09,0,0.0013667,-8.1374e-05,3.0994e+08,997.46,0,3.0994e+08,490.77,12515,412.9,0,412.9,0,0.00053494,3.5519e-09,0,0.00053494,9.9859e-05,1.0694e+08,820.62,0,1.0694e+08,404.09,412.9,1
816,5.46,12163,1,12163,1,0.00090572,-2.1675e-09,0,0.00090572,-0.00016843,2.2006e+08,-538.47,0,2.2006e+08,392.71,12162,12879,1,12879,1,0.0017774,7.9943e-09,0,0.0017774,-5.4487e-06,3.6848e+08,1808.9,0,3.6848e+08,1997.7,12878,12168,1,12168,1,0.00090572,-1.6718e-09,0,0.00090572,-0.00016845,2.4158e+08,-367.04,0,2.4158e+08,257.33,12167,11473,1,11473,1,3.402e-05,-1.4073e-08,0,3.402e-05,-0.00033121,1.137e+07,-3231.6,0,1.137e+07,-57.025,11472,11820,1,11820,1,0.00044081,-5.1414e-09,0,0.00044081,-0.00025515,1.3662e+08,-1330.6,0,1.3662e+08,65.604,11819,12516,1,12516,1,0.0013706,9.0111e-10,0,0.0013706,-8.1731e-05,3.0992e+08,172.91,0,3.0992e+08,552.68,12515,412.9,0,412.9,0,0.0005361,4.4192e-09,0,0.0005361,0.00010008,1.0674e+08,1045.3,0,1.0674e+08,426.14,412.9,1
816,5.47,12163,1,12163,1,0.0009087,1.5111e-09,0,0.0009087,-0.00016898,2.2024e+08,336.59,0,2.2024e+08,392.57,12162,12879,1,12879,1,0.0017823,1.1148e-08,0,0.0017823,-5.6374e-06,3.6823e+08,2457.8,0,3.6823e+08,1934.9,12878,12168,1,12168,1,0.0009087,1.155e-09,0,0.0009087,-0.000169,2.4185e+08,252.52,0,2.4185e+08,265.94,12167,11473,1,11473,1,3.5081e-05,-6.9407e-09,0,3.5081e-05,-0.00033211,1.1734e+07,-1482.8,0,1.1734e+07,-55.908,11472,11820,1,11820,1,0.00044277,-7.2011e-11,0,0.00044277,-0.00025589,1.3704e+08,-19.736,0,1.3704e+08,88.147,11819,12516,1,12516,1,0.0013746,2.8852e-09,0,0.0013746,-8.2091e-05,3.099e+08,632.57,0,3.099e+08,545.08,12515,412.9,0,412.9,0,0.00053728,2.9524e-09,0,0.00053728,0.00010029,1.0654e+08,652.25,0,1.0654e+08,404.91,412.9,1
816,5.48,12163,1,12163,1,0.0009117,1.4291e-09,0,0.0009117,-0.00016953,2.2042e+08,336.5,0,2.2042e+08,425.28,12162,12879,1,12879,1,0.0017872,1.0161e-08,0,0.0017872,-5.8278e-06,3.6797e+08,2204.2,0,3.6797e+08,2242.4,12878,12168,1,12168,1,0.00091169,1.7991e-09,0,0.00091169,-0.00016955,2.4212e+08,418.97,0,2.4212e+08,288,12167,11473,1,11473,1,3.616e-05,-1.0123e-08,0,3.616e-05,-0.00033302,1.2103e+07,-2163.6,0,1.2103e+07,-122.74,11472,11820,1,11820,1,0.00044474,-1.8359e-10,0,0.00044474,-0.00025663,1.3746e+08,-35.114,0,1.3746e+08,80.819,11819,12516,1,12516,1,0.0013786,3.4111e-09,0,0.0013786,-8.2454e-05,3.0986e+08,789.75,0,3.0986e+08,609.28,12515,412.9,0,412.9,0,0.00053846,3.4214e-09,0,0.00053846,0.00010051,1.0633e+08,755.77,0,1.0633e+08,452.5,412.9,1
816,5.49,12163,1,12163,1,0.00091471,-2.3653e-09,0,0.00091471,-0.00017008,2.206e+08,-582.05,0,2.206e+08,495.49,12162,12879,1,12879,1,0.0017922,8.8563e-09,0,0.0017922,-6.0213e-06,3.677e+08,1859.1,0,3.677e+08,2201.1,12878,12168,1,12168,1,0.0009147,-2.3707e-09,0,0.0009147,-0.00017011,2.4238e+08,-543.95,0,2.4238e+08,374.88,12167,11473,1,11473,1,3.7246e-05,-1.4493e-08,0,3.7246e-05,-0.00033393,1.2472e+07,-3199.8,0,1.2472e+07,-35.128,11472,11820,1,11820,1,0.00044673,-5.0766e-09,0,0.00044673,-0.00025737,1.3787e+08,-1315.9,0,1.3787e+08,123.53,11819,12516,1,12516,1,0.0013827,7.9061e-10,0,0.0013827,-8.2819e-05,3.0983e+08,145.74,0,3.0983e+08,692.78,12515,412.9,0,412.9,0,0.00053965,4.3422e-09,0,0.00053965,0.00010073,1.0612e+08,982.18,0,1.0612e+08,470.31,412.9,1
816,5.5,12163,1,12163,1,0.00091775,-3.7462e-09,0,0.00091775,-0.00017064,2.2077e+08,-926.24,0,2.2077e+08,499.58,12162,12879,1,12879,1,0.0017972,6.9985e-09,0,0.0017972,-6.2186e-06,3.6743e+08,1403.7,0,3.6743e+08,2333.6,12878,12168,1,12168,1,0.00091773,-4.3037e-09,0,0.00091773,-0.00017066,2.4265e+08,-1003.1,0,2.4265e+08,357.36,12167,11473,1,11473,1,3.8338e-05,-1.4722e-08,0,3.8338e-05,-0.00033485,1.2843e+07,-3260.4,0,1.2843e+07,-69.164,11472,11820,1,11820,1,0.00044873,-6.5331e-09,0,0.00044873,-0.00025812,1.3829e+08,-1702,0,1.3829e+08,114.93,11819,12516,1,12516,1,0.0013867,-5.2885e-10,0,0.0013867,-8.3187e-05,3.0979e+08,-102.06,0,3.0979e+08,712.3,12515,412.9,0,412.9,0,0.00054084,4e-09,0,0.00054084,0.00010095,1.0591e+08,941.53,0,1.0591e+08,503.92,412.9,1
816,5.51,12163,1,12163,1,0.00092079,2.5022e-09,0,0.00092079,-0.0001712,2.2094e+08,544.9,0,2.2094e+08,550.17,12162,12879,1,12879,1,0.0018021,1.5022e-08,0,0.0018021,-6.4183e-06,3.6715e+08,3207.5,0,3.6715e+08,2576.2,12878,12168,1,12168,1,0.00092078,1.9522e-09,0,0.00092078,-0.00017123,2.4291e+08,445.86,0,2.4291e+08,437.43,12167,11473,1,11473,1,3.9448e-05,-1.0372e-08,0,3.9448e-05,-0.00033577,1.3217e+07,-2194.9,0,1.3217e+07,-7.5289,11472,11820,1,11820,1,0.00045074,1.563e-10,0,0.00045074,-0.00025887,1.3871e+08,41.657,0,1.3871e+08,134.11,11819,12516,1,12516,1,0.0013908,5.181e-09,0,0.0013908,-8.3558e-05,3.0974e+08,1123.6,0,3.0974e+08,773.89,12515,412.9,0,412.9,0,0.00054203,4.4244e-09,0,0.00054203,0.00010117,1.057e+08,950.65,0,1.057e+08,523.01,412.9,1
816,5.52,12163,1,12163,1,0.00092383,-5.9289e-10,0,0.00092383,-0.00017176,2.2111e+08,-185.22,0,2.2111e+08,594.33,12162,12879,1,12879,1,0.0018071,1.4251e-08,0,0.0018071,-6.6193e-06,3.6685e+08,3032.1,0,3.6685e+08,2727.3,12878,12168,1,12168,1,0.00092382,-1.7094e-10,0,0.00092382,-0.00017178,2.4317e+08,-39.728,0,2.4317e+08,470.25,12167,11473,1,11473,1,4.0567e-05,-1.6884e-08,0,4.0567e-05,-0.00033669,1.3594e+07,-3716,0,1.3594e+07,-24.227,11472,11820,1,11820,1,0.00045275,-4.2221e-09,0,0.00045275,-0.00025962,1.3913e+08,-1107.7,0,1.3913e+08,137.68,11819,12516,1,12516,1,0.0013949,3.1426e-09,0,0.0013949,-8.3928e-05,3.0969e+08,652.19,0,3.0969e+08,833.34,12515,412.9,0,412.9,0,0.00054321,5.8924e-09,0,0.00054321,0.00010139,1.0548e+08,1315.4,0,1.0548e+08,562.56,412.9,1
816,5.53,12163,1,12163,1,0.00092688,-6.6113e-10,0,0.00092688,-0.00017232,2.2128e+08,-197.51,0,2.2128e+08,572.65,12162,12879,1,12879,1,0.0018121,1.5411e-08,0,0.0018121,-6.8216e-06,3.6656e+08,3309.8,0,3.6656e+08,2726.4,12878,12168,1,12168,1,0.00092687,-2.3669e-10,0,0.00092687,-0.00017235,2.4343e+08,-48.454,0,2.4343e+08,416.43,12167,11473,1,11473,1,4.1678e-05,-1.6169e-08,0,4.1678e-05,-0.00033761,1.3967e+07,-3555.8,0,1.3967e+07,-32.279,11472,11820,1,11820,1,0.00045477,-4.918e-09,0,0.00045477,-0.00026037,1.3955e+08,-1259.2,0,1.3955e+08,104.49,11819,12516,1,12516,1,0.001399,3.0607e-09,0,0.001399,-8.43e-05,3.0964e+08,674.31,0,3.0964e+08,817.68,12515,412.9,0,412.9,0,0.0005444,5.9914e-09,0,0.0005444,0.00010161,1.0526e+08,1352.3,0,1.0526e+08,577.36,412.9,1
816,5.54,12163,1,12163,1,0.00092998,3.5589e-09,0,0.00092998,-0.00017289,2.2145e+08,801.58,0,2.2145e+08,621.77,12162,12879,1,12879,1,0.0018171,1.6114e-08,0,0.0018171,-7.028e-06,3.6628e+08,3477.9,0,3.6628e+08,3006.8,12878,12168,1,12168,1,0.00092997,3.5655e-09,0,0.00092997,-0.00017292,2.4369e+08,820.61,0,2.4369e+08,489.62,12167,11473,1,11473,1,4.2817e-05,-1.2245e-08,0,4.2817e-05,-0.00033854,1.4347e+07,-2579.2,0,1.4347e+07,-28.333,11472,11820,1,11820,1,0.00045683,5.5005e-10,0,0.00045683,-0.00026113,1.3998e+08,101.78,0,1.3998e+08,165.94,11819,12516,1,12516,1,0.0014031,7.0583e-09,0,0.0014031,-8.4678e-05,3.0958e+08,1566.9,0,3.0958e+08,863.03,12515,412.9,0,412.9,0,0.0005456,5.0663e-09,0,0.0005456,0.00010183,1.0504e+08,1099.5,0,1.0504e+08,589.86,412.9,1
816,5.55,12163,1,12163,1,0.00093308,2.5501e-10,0,0.00093308,-0.00017346,2.2162e+08,45.328,0,2.2162e+08,641.44,12162,12879,1,12879,1,0.0018222,1.3975e-08,0,0.0018222,-7.2371e-06,3.6597e+08,2981.7,0,3.6597e+08,2966.5,12878,12168,1,12168,1,0.00093307,3.1127e-10,0,0.00093307,-0.00017349,2.4395e+08,61.331,0,2.4395e+08,499.55,12167,11473,1,11473,1,4.3971e-05,-1.5981e-08,0,4.3971e-05,-0.00033947,1.4732e+07,-3379.6,0,1.4732e+07,-45.661,11472,11820,1,11820,1,0.00045889,-1.9639e-09,0,0.00045889,-0.0002619,1.404e+08,-457.64,0,1.404e+08,168.65,11819,12516,1,12516,1,0.0014073,3.0262e-09,0,0.0014073,-8.5058e-05,3.0952e+08,642.41,0,3.0952e+08,891.31,12515,412.9,0,412.9,0,0.00054681,5.0534e-09,0,0.00054681,0.00010205,1.0482e+08,1089.1,0,1.0482e+08,604.02,412.9,1
816,5.56,12163,1,12163,1,0.0009362,-1.845e-09,0,0.0009362,-0.00017404,2.2178e+08,-457.17,0,2.2178e+08,632.22,12162,12879,1,12879,1,0.0018273,1.3284e-08,0,0.0018273,-7.4485e-06,3.6566e+08,2766.4,0,3.6566e+08,3043.9,12878,12168,1,12168,1,0.00093619,-2.0264e-09,0,0.00093619,-0.00017406,2.442e+08,-488.01,0,2.442e+08,456.9,12167,11473,1,11473,1,4.5131e-05,-1.7331e-08,0,4.5131e-05,-0.00034041,1.5117e+07,-3667.7,0,1.5117e+07,-91.924,11472,11820,1,11820,1,0.00046096,-4.7493e-09,0,0.00046096,-0.00026266,1.4083e+08,-1235.1,0,1.4083e+08,135.03,11819,12516,1,12516,1,0.0014114,1.2704e-09,0,0.0014114,-8.5439e-05,3.0945e+08,234.83,0,3.0945e+08,871.09,12515,412.9,0,412.9,0,0.00054801,5.3532e-09,0,0.00054801,0.00010228,1.0459e+08,1165.3,0,1.0459e+08,638.8,412.9,1
816,5.57,12163,1,12163,1,0.00093933,-7.7723e-10,0,0.00093933,-0.00017462,2.2195e+08,-212.12,0,2.2195e+08,718.46,12162,12879,1,12879,1,0.0018324,1.4941e-08,0,0.0018324,-7.6618e-06,3.6534e+08,3107.9,0,3.6534e+08,3370.1,12878,12168,1,12168,1,0.00093932,-6.4833e-10,0,0.00093932,-0.00017464,2.4445e+08,-140.33,0,2.4445e+08,546.38,12167,11473,1,11473,1,4.6294e-05,-1.8817e-08,0,4.6294e-05,-0.00034135,1.5501e+07,-3977.4,0,1.5501e+07,-97.197,11472,11820,1,11820,1,0.00046304,-3.8943e-09,0,0.00046304,-0.00026343,1.4126e+08,-949.59,0,1.4126e+08,153.77,11819,12516,1,12516,1,0.0014156,2.7071e-09,0,0.0014156,-8.5822e-05,3.0938e+08,558.48,0,3.0938e+08,1009,12515,412.9,0,412.9,0,0.00054922,5.9816e-09,0,0.00054922,0.0001025,1.0436e+08,1291.2,0,1.0436e+08,707.82,412.9,1
816,5.58,12163,1,12163,1,0.00094249,2.8366e-09,0,0.00094249,-0.0001752,2.2211e+08,640.11,0,2.2211e+08,841.38,12162,12879,1,12879,1,0.0018375,2.1105e-08,0,0.0018375,-7.8781e-06,3.6502e+08,4453.6,0,3.6502e+08,3485,12878,12168,1,12168,1,0.00094248,2.5899e-09,0,0.00094248,-0.00017522,2.4471e+08,648.95,0,2.4471e+08,699.19,12167,11473,1,11473,1,4.7472e-05,-1.717e-08,0,4.7472e-05,-0.0003423,1.589e+07,-3550,0,1.589e+07,-22.082,11472,11820,1,11820,1,0.00046515,-2.5053e-10,0,0.00046515,-0.00026421,1.4169e+08,-49.255,0,1.4169e+08,231.76,11819,12516,1,12516,1,0.0014198,6.4558e-09,0,0.0014198,-8.6209e-05,3.0931e+08,1423,0,3.0931e+08,1189.2,12515,412.9,0,412.9,0,0.00055044,6.54e-09,0,0.00055044,0.00010273,1.0413e+08,1395.3,0,1.0413e+08,737.44,412.9,1
816,5.59,12163,1,12163,1,0.00094566,-2.3074e-09,0,0.00094566,-0.00017578,2.2227e+08,-561.78,0,2.2227e+08,818.68,12162,12879,1,12879,1,0.0018427,1.7493e-08,0,0.0018427,-8.0969e-06,3.6468e+08,3594.1,0,3.6468e+08,3578.2,12878,12168,1,12168,1,0.00094564,-2.4522e-09,0,0.00094564,-0.0001758,2.4495e+08,-579.16,0,2.4495e+08,652.73,12167,11473,1,11473,1,4.8668e-05,-2.2372e-08,0,4.8668e-05,-0.00034324,1.6283e+07,-4706.7,0,1.6283e+07,-60.49,11472,11820,1,11820,1,0.00046726,-5.9896e-09,0,0.00046726,-0.00026498,1.4211e+08,-1460.5,0,1.4211e+08,193.58,11819,12516,1,12516,1,0.001424,1.6255e-09,0,0.001424,-8.6598e-05,3.0922e+08,322.94,0,3.0922e+08,1142.7,12515,412.9,0,412.9,0,0.00055165,7.0554e-09,0,0.00055165,0.00010295,1.0389e+08,1518.7,0,1.0389e+08,761.31,412.9,1
816,5.6,12163,1,12163,1,0.00094884,5.4713e-09,0,0.00094884,-0.00017637,2.2243e+08,1278.4,0,2.2243e+08,999.49,12162,12879,1,12879,1,0.0018478,2.4335e-08,0,0.0018478,-8.3167e-06,3.6436e+08,5208.8,0,3.6436e+08,3944.8,12878,12168,1,12168,1,0.00094883,6.3951e-09,0,0.00094883,-0.00017639,2.452e+08,1476.2,0,2.452e+08,858.66,12167,11473,1,11473,1,4.9864e-05,-1.905e-08,0,4.9864e-05,-0.0003442,1.6674e+07,-3885,0,1.6674e+07,-14.768,11472,11820,1,11820,1,0.00046939,3.0074e-10,0,0.00046939,-0.00026577,1.4254e+08,68.93,0,1.4254e+08,324.16,11819,12516,1,12516,1,0.0014283,1.0593e-08,0,0.0014283,-8.6987e-05,3.0914e+08,2547.1,0,3.0914e+08,1408.8,12515,412.9,0,412.9,0,0.00055287,7.8612e-09,0,0.00055287,0.00010317,1.0366e+08,1720,0,1.0366e+08,814.52,412.9,1
816,5.61,12163,1,12163,1,0.00095205,2.5648e-10,0,0.00095205,-0.00017696,2.2258e+08,90.951,0,2.2258e+08,912.42,12162,12879,1,12879,1,0.001853,1.8368e-08,0,0.001853,-8.5399e-06,3.6401e+08,3814.1,0,3.6401e+08,3833.6,12878,12168,1,12168,1,0.00095204,1.1071e-09,0,0.00095204,-0.00017698,2.4545e+08,240.96,0,2.4545e+08,766.69,12167,11473,1,11473,1,5.1074e-05,-2.2441e-08,0,5.1074e-05,-0.00034516,1.707e+07,-4579.3,0,1.707e+07,-13.609,11472,11820,1,11820,1,0.00047153,-2.5849e-09,0,0.00047153,-0.00026655,1.4298e+08,-520.45,0,1.4298e+08,253.35,11819,12516,1,12516,1,0.0014325,3.484e-09,0,0.0014325,-8.7382e-05,3.0905e+08,810.91,0,3.0905e+08,1288.4,12515,412.9,0,412.9,0,0.0005541,6.7652e-09,0,0.0005541,0.0001034,1.0342e+08,1418.7,0,1.0342e+08,806.03,412.9,1
816,5.62,12163,1,12163,1,0.00095526,1.445e-09,0,0.00095526,-0.00017755,2.2273e+08,380.01,0,2.2273e+08,1019,12162,12879,1,12879,1,0.0018582,2.2984e-08,0,0.0018582,-8.7656e-06,3.6365e+08,4863.2,0,3.6365e+08,4027.9,12878,12168,1,12168,1,0.00095525,2.2958e-09,0,0.00095525,-0.00017757,2.4569e+08,480.04,0,2.4569e+08,880.84,12167,11473,1,11473,1,5.2297e-05,-2.4719e-08,0,5.2297e-05,-0.00034612,1.7468e+07,-5030.4,0,1.7468e+07,-8.0573,11472,11820,1,11820,1,0.00047368,-2.595e-09,0,0.00047368,-0.00026734,1.4341e+08,-525.57,0,1.4341e+08,293.98,11819,12516,1,12516,1,0.0014368,5.8748e-09,0,0.0014368,-8.7777e-05,3.0895e+08,1410.7,0,3.0895e+08,1430.6,12515,412.9,0,412.9,0,0.00055532,8.3246e-09,0,0.00055532,0.00010363,1.0317e+08,1773.7,0,1.0317e+08,859.6,412.9,1
816,5.63,12163,1,12163,1,0.00095849,-4.2726e-09,0,0.00095849,-0.00017814,2.2289e+08,-958.42,0,2.2289e+08,1004.4,12162,12879,1,12879,1,0.0018634,2.1102e-08,0,0.0018634,-8.9928e-06,3.633e+08,4395.6,0,3.633e+08,4167.5,12878,12168,1,12168,1,0.00095847,-3.3776e-09,0,0.00095847,-0.00017816,2.4593e+08,-723.09,0,2.4593e+08,790.23,12167,11473,1,11473,1,5.3526e-05,-3.3821e-08,0,5.3526e-05,-0.00034708,1.7867e+07,-7086,0,1.7867e+07,-81.613,11472,11820,1,11820,1,0.00047584,-9.9784e-09,0,0.00047584,-0.00026813,1.4384e+08,-2282.3,0,1.4384e+08,227.39,11819,12516,1,12516,1,0.0014411,1.8666e-09,0,0.0014411,-8.8175e-05,3.0885e+08,383.51,0,3.0885e+08,1437.4,12515,412.9,0,412.9,0,0.00055655,1.0279e-08,0,0.00055655,0.00010385,1.0292e+08,2215.4,0,1.0292e+08,914.43,412.9,1
816,5.64,12163,1,12163,1,0.00096173,1.4855e-09,0,0.00096173,-0.00017874,2.2304e+08,379.51,0,2.2304e+08,1035.2,12162,12879,1,12879,1,0.0018687,2.5205e-08,0,0.0018687,-9.2233e-06,3.6293e+08,5383.3,0,3.6293e+08,4358.8,12878,12168,1,12168,1,0.00096171,1.6804e-09,0,0.00096171,-0.00017876,2.4617e+08,422.37,0,2.4617e+08,834.93,12167,11473,1,11473,1,5.4772e-05,-2.7188e-08,0,5.4772e-05,-0.00034804,1.8271e+07,-5567,0,1.8271e+07,-18.159,11472,11820,1,11820,1,0.00047802,-3.0916e-09,0,0.00047802,-0.00026892,1.4427e+08,-622.51,0,1.4427e+08,254.88,11819,12516,1,12516,1,0.0014454,6.7428e-09,0,0.0014454,-8.8575e-05,3.0875e+08,1585.7,0,3.0875e+08,1478.1,12515,412.9,0,412.9,0,0.00055778,9.2972e-09,0,0.00055778,0.00010408,1.0267e+08,1991.1,0,1.0267e+08,932.73,412.9,1
816,5.65,12163,1,12163,1,0.00096502,1.9381e-10,0,0.00096502,-0.00017934,2.2319e+08,117.32,0,2.2319e+08,1029.1,12162,12879,1,12879,1,0.001874,2.3498e-08,0,0.001874,-9.4543e-06,3.6258e+08,5004,0,3.6258e+08,4625.3,12878,12168,1,12168,1,0.000965,6.6624e-10,0,0.000965,-0.00017936,2.4642e+08,123.28,0,2.4642e+08,782.36,12167,11473,1,11473,1,5.6022e-05,-2.9631e-08,0,5.6022e-05,-0.00034903,1.8674e+07,-6030,0,1.8674e+07,-121.99,11472,11820,1,11820,1,0.00048022,-4.5085e-09,0,0.00048022,-0.00026973,1.4471e+08,-926.06,0,1.4471e+08,225.81,11819,12516,1,12516,1,0.0014498,5.9433e-09,0,0.0014498,-8.898e-05,3.0865e+08,1433.4,0,3.0865e+08,1480.8,12515,412.9,0,412.9,0,0.00055903,9.5318e-09,0,0.00055903,0.00010431,1.0243e+08,2038.9,0,1.0243e+08,989.03,412.9,1
816,5.66,12163,1,12163,1,0.00096834,-1.6723e-10,0,0.00096834,-0.00017996,2.2334e+08,34.542,0,2.2334e+08,1157,12162,12879,1,12879,1,0.0018794,1.9595e-08,0,0.0018794,-9.6903e-06,3.622e+08,4054.9,0,3.622e+08,4861.8,12878,12168,1,12168,1,0.00096831,1.2225e-09,0,0.00096831,-0.00017997,2.4666e+08,260.34,0,2.4666e+08,985.72,12167,11473,1,11473,1,5.7296e-05,-2.8811e-08,0,5.7296e-05,-0.00035002,1.9084e+07,-5746.4,0,1.9084e+07,-72.898,11472,11820,1,11820,1,0.00048245,-3.5423e-09,0,0.00048245,-0.00027054,1.4515e+08,-685.36,0,1.4515e+08,333.49,11819,12516,1,12516,1,0.0014542,3.8338e-09,0,0.0014542,-8.9389e-05,3.0854e+08,919.56,0,3.0854e+08,1630.9,12515,412.9,0,412.9,0,0.00056028,8.0123e-09,0,0.00056028,0.00010454,1.0217e+08,1657.4,0,1.0217e+08,1016.8,412.9,1
816,5.67,12163,1,12163,1,0.00097168,-3.8603e-09,0,0.00097168,-0.00018057,2.2349e+08,-831.81,0,2.2349e+08,1269.7,12162,12879,1,12879,1,0.0018848,2.2312e-08,0,0.0018848,-9.9293e-06,3.6182e+08,4471.2,0,3.6182e+08,5023.9,12878,12168,1,12168,1,0.00097165,-2.4964e-09,0,0.00097165,-0.00018059,2.4689e+08,-654.7,0,2.4689e+08,1094.8,12167,11473,1,11473,1,5.8585e-05,-3.5715e-08,0,5.8585e-05,-0.00035101,1.9498e+07,-7207,0,1.9498e+07,-27.909,11472,11820,1,11820,1,0.00048469,-8.1497e-09,0,0.00048469,-0.00027135,1.456e+08,-1736.7,0,1.456e+08,367.47,11819,12516,1,12516,1,0.0014586,1.0783e-09,0,0.0014586,-8.9802e-05,3.0842e+08,208.58,0,3.0842e+08,1796.5,12515,412.9,0,412.9,0,0.00056154,9.6891e-09,0,0.00056154,0.00010477,1.0191e+08,1979.9,0,1.0191e+08,1097,412.9,1
816,5.68,12163,1,12163,1,0.00097502,8.3253e-10,0,0.00097502,-0.00018118,2.2363e+08,254.78,0,2.2363e+08,1474.3,12162,12879,1,12879,1,0.0018901,3.1637e-08,0,0.0018901,-1.017e-05,3.6142e+08,6547.6,0,3.6142e+08,5497.6,12878,12168,1,12168,1,0.00097499,1.8676e-09,0,0.00097499,-0.0001812,2.4712e+08,382.61,0,2.4712e+08,1301.3,12167,11473,1,11473,1,5.9887e-05,-3.6982e-08,0,5.9887e-05,-0.000352,1.9915e+07,-7423.4,0,1.9915e+07,-18.346,11472,11820,1,11820,1,0.00048695,-5.2113e-09,0,0.00048695,-0.00027217,1.4604e+08,-1078.7,0,1.4604e+08,441.17,11819,12516,1,12516,1,0.001463,7.635e-09,0,0.001463,-9.0216e-05,3.0829e+08,1750.5,0,3.0829e+08,2105.5,12515,412.9,0,412.9,0,0.0005628,1.2271e-08,0,0.0005628,0.000105,1.0165e+08,2562.4,0,1.0165e+08,1202.8,412.9,1
816,5.69,12163,1,12163,1,0.0009784,-2.3532e-11,0,0.0009784,-0.00018181,2.2377e+08,89.649,0,2.2377e+08,1480.5,12162,12879,1,12879,1,0.0018956,2.7925e-08,0,0.0018956,-1.0413e-05,3.6103e+08,5686.4,0,3.6103e+08,5699.6,12878,12168,1,12168,1,0.00097837,1.5302e-09,0,0.00097837,-0.00018182,2.4736e+08,311.99,0,2.4736e+08,1281.3,12167,11473,1,11473,1,6.1195e-05,-3.6047e-08,0,6.1195e-05,-0.00035301,2.0333e+07,-7102.3,0,2.0333e+07,-40.654,11472,11820,1,11820,1,0.00048922,-4.8595e-09,0,0.00048922,-0.00027299,1.4649e+08,-947.45,0,1.4649e+08,446.89,11819,12516,1,12516,1,0.0014675,5.353e-09,0,0.0014675,-9.0634e-05,3.0817e+08,1289.4,0,3.0817e+08,2116.6,12515,412.9,0,412.9,0,0.00056407,1.0664e-08,0,0.00056407,0.00010524,1.0138e+08,2185.3,0,1.0138e+08,1244.8,412.9,1
816,5.7,12163,1,12163,1,0.0009818,-7.0483e-10,0,0.0009818,-0.00018243,2.2391e+08,-71.077,0,2.2391e+08,1643.2,12162,12879,1,12879,1,0.0019011,3.2323e-08,0,0.0019011,-1.0659e-05,3.6062e+08,6568.8,0,3.6062e+08,6030.8,12878,12168,1,12168,1,0.00098177,1.1156e-09,0,0.00098177,-0.00018245,2.4759e+08,252.75,0,2.4759e+08,1493.3,12167,11473,1,11473,1,6.2524e-05,-4.2762e-08,0,6.2524e-05,-0.00035402,2.0757e+07,-8466.5,0,2.0757e+07,-54.666,11472,11820,1,11820,1,0.00049152,-6.8167e-09,0,0.00049152,-0.00027382,1.4693e+08,-1404.2,0,1.4693e+08,495.54,11819,12516,1,12516,1,0.001472,6.0383e-09,0,0.001472,-9.1056e-05,3.0803e+08,1372.5,0,3.0803e+08,2355.9,12515,412.9,0,412.9,0,0.00056534,1.3119e-08,0,0.00056534,0.00010547,1.0111e+08,2683.1,0,1.0111e+08,1323.7,412.9,1
816,5.71,12163,1,12163,1,0.00098523,-1.4506e-09,0,0.00098523,-0.00018306,2.2405e+08,-224.81,0,2.2405e+08,1722.1,12162,12879,1,12879,1,0.0019066,3.2697e-08,0,0.0019066,-1.0908e-05,3.6021e+08,6606.8,0,3.6021e+08,6327.2,12878,12168,1,12168,1,0.00098519,8.2234e-10,0,0.00098519,-0.00018308,2.4782e+08,165.57,0,2.4782e+08,1567.6,12167,11473,1,11473,1,6.3865e-05,-4.5589e-08,0,6.3865e-05,-0.00035503,2.1183e+07,-8995.7,0,2.1183e+07,-49.883,11472,11820,1,11820,1,0.00049383,-7.7067e-09,0,0.00049383,-0.00027465,1.4738e+08,-1586,0,1.4738e+08,521.02,11819,12516,1,12516,1,0.0014765,5.5427e-09,0,0.0014765,-9.1481e-05,3.0789e+08,1262.5,0,3.0789e+08,2468.5,12515,412.9,0,412.9,0,0.00056662,1.3591e-08,0,0.00056662,0.00010571,1.0084e+08,2763.6,0,1.0084e+08,1390.3,412.9,1
816,5.72,12163,1,12163,1,0.00098868,-3.3533e-09,0,0.00098868,-0.0001837,2.2419e+08,-651.61,0,2.2419e+08,1811.9,12162,12879,1,12879,1,0.0019121,3.194e-08,0,0.0019121,-1.1158e-05,3.5979e+08,6347.1,0,3.5979e+08,6593.3,12878,12168,1,12168,1,0.00098864,-8.1394e-10,0,0.00098864,-0.00018371,2.4805e+08,-173.41,0,2.4805e+08,1653.6,12167,11473,1,11473,1,6.5217e-05,-4.902e-08,0,6.5217e-05,-0.00035606,2.1612e+07,-9649.1,0,2.1612e+07,-11.866,11472,11820,1,11820,1,0.00049616,-9.717e-09,0,0.00049616,-0.00027549,1.4783e+08,-1977.2,0,1.4783e+08,557.61,11819,12516,1,12516,1,0.0014811,3.6854e-09,0,0.0014811,-9.1909e-05,3.0775e+08,801.57,0,3.0775e+08,2594.7,12515,412.9,0,412.9,0,0.00056791,1.3879e-08,0,0.00056791,0.00010594,1.0056e+08,2790.2,0,1.0056e+08,1453.8,412.9,1
816,5.73,12163,1,12163,1,0.00099214,-1.473e-09,0,0.00099214,-0.00018433,2.2432e+08,-214.71,0,2.2432e+08,1979.6,12162,12879,1,12879,1,0.0019177,3.845e-08,0,0.0019177,-1.1412e-05,3.5935e+08,7721.1,0,3.5935e+08,6973.3,12878,12168,1,12168,1,0.00099209,9.7687e-10,0,0.00099209,-0.00018435,2.4827e+08,196.37,0,2.4827e+08,1830.9,12167,11473,1,11473,1,6.6588e-05,-5.171e-08,0,6.6588e-05,-0.00035708,2.2045e+07,-10133,0,2.2045e+07,3.1346,11472,11820,1,11820,1,0.00049851,-9.0709e-09,0,0.00049851,-0.00027633,1.4828e+08,-1811.4,0,1.4828e+08,620.54,11819,12516,1,12516,1,0.0014857,6.6341e-09,0,0.0014857,-9.234e-05,3.076e+08,1499.3,0,3.076e+08,2847.3,12515,412.9,0,412.9,0,0.00056919,1.5774e-08,0,0.00056919,0.00010618,1.0028e+08,3189.9,0,1.0028e+08,1553.7,412.9,1
816,5.74,12163,1,12163,1,0.00099563,-2.3714e-09,0,0.00099563,-0.00018498,2.2446e+08,-398.25,0,2.2446e+08,2028.1,12162,12879,1,12879,1,0.0019233,3.9316e-08,0,0.0019233,-1.1669e-05,3.5892e+08,7864,0,3.5892e+08,7213.7,12878,12168,1,12168,1,0.00099558,2.1784e-10,0,0.00099558,-0.00018499,2.485e+08,36.359,0,2.485e+08,1849.3,12167,11473,1,11473,1,6.797e-05,-5.4881e-08,0,6.797e-05,-0.00035811,2.2481e+07,-10700,0,2.2481e+07,-146.66,11472,11820,1,11820,1,0.00050087,-1.0417e-08,0,0.00050087,-0.00027718,1.4873e+08,-2101.9,0,1.4873e+08,607.27,11819,12516,1,12516,1,0.0014903,6.2582e-09,0,0.0014903,-9.2775e-05,3.0744e+08,1392.6,0,3.0744e+08,2936,12515,412.9,0,412.9,0,0.00057048,1.6483e-08,0,0.00057048,0.00010642,1e+08,3315.2,0,1e+08,1642.5,412.9,1
816,5.75,12163,1,12163,1,0.00099913,-1.3305e-09,0,0.00099913,-0.00018562,2.2459e+08,-139.56,0,2.2459e+08,2189,12162,12879,1,12879,1,0.0019289,4.6581e-08,0,0.0019289,-1.1927e-05,3.5848e+08,9431.8,0,3.5848e+08,7752.6,12878,12168,1,12168,1,0.00099908,7.0009e-10,0,0.00099908,-0.00018563,2.4872e+08,138.05,0,2.4872e+08,2003.6,12167,11473,1,11473,1,6.9364e-05,-6.0507e-08,0,6.9364e-05,-0.00035915,2.292e+07,-11800,0,2.292e+07,-59.442,11472,11820,1,11820,1,0.00050325,-1.1433e-08,0,0.00050325,-0.00027803,1.4919e+08,-2289.4,0,1.4919e+08,620.41,11819,12516,1,12516,1,0.0014949,9.2967e-09,0,0.0014949,-9.3211e-05,3.0728e+08,2070.6,0,3.0728e+08,3158.4,12515,412.9,0,412.9,0,0.00057178,1.94e-08,0,0.00057178,0.00010666,9.9714e+07,3946.3,0,9.9714e+07,1772.2,412.9,1
816,5.76,12163,1,12163,1,0.0010027,-7.6136e-09,0,0.0010027,-0.00018628,2.2472e+08,-1567.3,0,2.2472e+08,2204.3,12162,12879,1,12879,1,0.0019346,3.7392e-08,0,0.0019346,-1.2188e-05,3.5804e+08,7275.7,0,3.5804e+08,8063.9,12878,12168,1,12168,1,0.0010026,-3.9583e-09,0,0.0010026,-0.00018628,2.4894e+08,-930.15,0,2.4894e+08,1997.5,12167,11473,1,11473,1,7.0774e-05,-6.6175e-08,0,7.0774e-05,-0.0003602,2.3363e+07,-12986,0,2.3363e+07,-45.915,11472,11820,1,11820,1,0.00050566,-1.6128e-08,0,0.00050566,-0.00027889,1.4965e+08,-3275.6,0,1.4965e+08,643.53,11819,12516,1,12516,1,0.0014996,1.8699e-09,0,0.0014996,-9.3655e-05,3.0712e+08,404.7,0,3.0712e+08,3153.2,12515,412.9,0,412.9,0,0.0005731,1.8004e-08,0,0.0005731,0.0001069,9.9427e+07,3578.1,0,9.9427e+07,1803.1,412.9,1
816,5.77,12163,1,12163,1,0.0010063,-4.5149e-09,0,0.0010063,-0.00018693,2.2485e+08,-883.95,0,2.2485e+08,2427.5,12162,12879,1,12879,1,0.0019403,4.6455e-08,0,0.0019403,-1.2454e-05,3.5758e+08,9160.5,0,3.5758e+08,8643.7,12878,12168,1,12168,1,0.0010062,-1.4274e-09,0,0.0010062,-0.00018694,2.4916e+08,-310.59,0,2.4916e+08,2235.3,12167,11473,1,11473,1,7.2211e-05,-6.839e-08,0,7.2211e-05,-0.00036125,2.3813e+07,-13369,0,2.3813e+07,-2.8812,11472,11820,1,11820,1,0.0005081,-1.4097e-08,0,0.0005081,-0.00027976,1.5011e+08,-2932.7,0,1.5011e+08,718.5,11819,12516,1,12516,1,0.0015043,5.5526e-09,0,0.0015043,-9.4102e-05,3.0695e+08,1224.4,0,3.0695e+08,3485,12515,412.9,0,412.9,0,0.00057442,2.0193e-08,0,0.00057442,0.00010714,9.9132e+07,4026.1,0,9.9132e+07,1936.6,412.9,1
816,5.78,12163,1,12163,1,0.0010099,-1.46e-09,0,0.0010099,-0.0001876,2.2497e+08,-194.41,0,2.2497e+08,2657.3,12162,12879,1,12879,1,0.0019461,5.5607e-08,0,0.0019461,-1.2722e-05,3.571e+08,10978,0,3.571e+08,9161.3,12878,12168,1,12168,1,0.0010098,1.3151e-09,0,0.0010098,-0.0001876,2.4938e+08,278.95,0,2.4938e+08,2466.8,12167,11473,1,11473,1,7.3661e-05,-7.0363e-08,0,7.3661e-05,-0.00036231,2.4266e+07,-13642,0,2.4266e+07,-36.435,11472,11820,1,11820,1,0.00051055,-1.2099e-08,0,0.00051055,-0.00028064,1.5057e+08,-2474.8,0,1.5057e+08,794.46,11819,12516,1,12516,1,0.0015091,9.7902e-09,0,0.0015091,-9.4552e-05,3.0677e+08,2127.3,0,3.0677e+08,3855.5,12515,412.9,0,412.9,0,0.00057574,2.2162e-08,0,0.00057574,0.00010739,9.8833e+07,4421.3,0,9.8833e+07,2083.3,412.9,1
816,5.79,12163,1,12163,1,0.0010135,-7.4738e-09,0,0.0010135,-0.00018827,2.251e+08,-1545.6,0,2.251e+08,2690.7,12162,12879,1,12879,1,0.0019519,5.1384e-08,0,0.0019519,-1.2993e-05,3.5663e+08,9907.4,0,3.5663e+08,9397.9,12878,12168,1,12168,1,0.0010134,-4.598e-09,0,0.0010134,-0.00018827,2.4959e+08,-1132.9,0,2.4959e+08,2487.8,12167,11473,1,11473,1,7.5123e-05,-7.5954e-08,0,7.5123e-05,-0.00036338,2.4722e+07,-14719,0,2.4722e+07,-88.866,11472,11820,1,11820,1,0.00051303,-1.8068e-08,0,0.00051303,-0.00028152,1.5103e+08,-3647,0,1.5103e+08,774.51,11819,12516,1,12516,1,0.0015139,3.7148e-09,0,0.0015139,-9.5007e-05,3.0659e+08,759.24,0,3.0659e+08,3914.9,12515,412.9,0,412.9,0,0.00057707,2.197e-08,0,0.00057707,0.00010763,9.8532e+07,4322.4,0,9.8532e+07,2187,412.9,1
816,5.8,12163,1,12163,1,0.0010171,6.0155e-09,0,0.0010171,-0.00018893,2.2521e+08,1506.3,0,2.2521e+08,2993.4,12162,12879,1,12879,1,0.0019577,7.0793e-08,0,0.0019577,-1.3266e-05,3.5613e+08,14046,0,3.5613e+08,10209,12878,12168,1,12168,1,0.0010171,9.8703e-09,0,0.0010171,-0.00018893,2.498e+08,2105.2,0,2.498e+08,2831.4,12167,11473,1,11473,1,7.6602e-05,-7.3953e-08,0,7.6602e-05,-0.00036445,2.5182e+07,-14034,0,2.5182e+07,-91.597,11472,11820,1,11820,1,0.0005155,-6.9418e-09,0,0.0005155,-0.00028239,1.5149e+08,-1232.4,0,1.5149e+08,880.38,11819,12516,1,12516,1,0.0015186,1.8625e-08,0,0.0015186,-9.5461e-05,3.0639e+08,4504.6,0,3.0639e+08,4318.2,12515,412.9,0,412.9,0,0.00057839,2.536e-08,0,0.00057839,0.00010788,9.8224e+07,5093,0,9.8224e+07,2354.1,412.9,1
816,5.81,12163,1,12163,1,0.0010208,-2.1646e-09,0,0.0010208,-0.00018961,2.2534e+08,-263.12,0,2.2534e+08,3138.1,12162,12879,1,12879,1,0.0019636,6.2033e-08,0,0.0019636,-1.354e-05,3.5566e+08,12136,0,3.5566e+08,10453,12878,12168,1,12168,1,0.0010208,1.7912e-09,0,0.0010208,-0.00018961,2.5002e+08,363.13,0,2.5002e+08,3052.5,12167,11473,1,11473,1,7.8077e-05,-8.3447e-08,0,7.8077e-05,-0.00036554,2.5639e+07,-15826,0,2.5639e+07,-34.015,11472,11820,1,11820,1,0.00051802,-1.4358e-08,0,0.00051802,-0.00028329,1.5196e+08,-2813.4,0,1.5196e+08,973.36,11819,12516,1,12516,1,0.0015235,1.0904e-08,0,0.0015235,-9.5922e-05,3.0621e+08,2507,0,3.0621e+08,4539.5,12515,412.9,0,412.9,0,0.00057975,2.5428e-08,0,0.00057975,0.00010813,9.7922e+07,4997.1,0,9.7922e+07,2404.7,412.9,1
816,5.82,12163,1,12163,1,0.0010246,-6.3621e-09,0,0.0010246,-0.0001903,2.2546e+08,-1185.4,0,2.2546e+08,3429.5,12162,12879,1,12879,1,0.0019695,6.7614e-08,0,0.0019695,-1.3819e-05,3.5515e+08,13133,0,3.5515e+08,11239,12878,12168,1,12168,1,0.0010245,-1.5525e-09,0,0.0010245,-0.0001903,2.5023e+08,-348.14,0,2.5023e+08,3260.9,12167,11473,1,11473,1,7.959e-05,-9.6841e-08,0,7.959e-05,-0.00036663,2.6107e+07,-18503,0,2.6107e+07,-67.755,11472,11820,1,11820,1,0.00052056,-2.1316e-08,0,0.00052056,-0.00028419,1.5243e+08,-4209.5,0,1.5243e+08,1061.7,11819,12516,1,12516,1,0.0015284,8.7321e-09,0,0.0015284,-9.6389e-05,3.06e+08,1903.6,0,3.06e+08,4953.7,12515,412.9,0,412.9,0,0.0005811,2.9322e-08,0,0.0005811,0.00010838,9.7606e+07,5745.8,0,9.7606e+07,2630.9,412.9,1
816,5.83,12163,1,12163,1,0.0010283,-2.8229e-09,0,0.0010283,-0.00019098,2.2557e+08,-363.24,0,2.2557e+08,3658.6,12162,12879,1,12879,1,0.0019755,7.7812e-08,0,0.0019755,-1.4101e-05,3.5464e+08,15249,0,3.5464e+08,11881,12878,12168,1,12168,1,0.0010282,1.5846e-09,0,0.0010282,-0.00019098,2.5043e+08,292.68,0,2.5043e+08,3498.1,12167,11473,1,11473,1,8.112e-05,-1.0059e-07,0,8.112e-05,-0.00036773,2.6579e+07,-19061,0,2.6579e+07,-68.457,11472,11820,1,11820,1,0.00052313,-1.9923e-08,0,0.00052313,-0.00028509,1.5291e+08,-3898.6,0,1.5291e+08,1109.2,11819,12516,1,12516,1,0.0015333,1.352e-08,0,0.0015333,-9.6859e-05,3.0579e+08,3270.2,0,3.0579e+08,5237.7,12515,412.9,0,412.9,0,0.00058246,3.2345e-08,0,0.00058246,0.00010863,9.7288e+07,6380.9,0,9.7288e+07,2785.9,412.9,1
816,5.84,12163,1,12163,1,0.0010321,-9.4518e-10,0,0.0010321,-0.00019168,2.2569e+08,122.23,0,2.2569e+08,3865.6,12162,12879,1,12879,1,0.0019815,7.717e-08,0,0.0019815,-1.4385e-05,3.5411e+08,15100,0,3.5411e+08,12664,12878,12168,1,12168,1,0.001032,4.4722e-09,0,0.001032,-0.00019167,2.5063e+08,918.87,0,2.5063e+08,3682.1,12167,11473,1,11473,1,8.2663e-05,-1.0416e-07,0,8.2663e-05,-0.00036884,2.7055e+07,-19573,0,2.7055e+07,-275.25,11472,11820,1,11820,1,0.00052571,-1.7396e-08,0,0.00052571,-0.000286,1.5338e+08,-3289.8,0,1.5338e+08,1242.6,11819,12516,1,12516,1,0.0015382,1.7104e-08,0,0.0015382,-9.7333e-05,3.0558e+08,4100.8,0,3.0558e+08,5620.4,12515,412.9,0,412.9,0,0.00058382,3.2448e-08,0,0.00058382,0.00010888,9.6966e+07,6386.1,0,9.6966e+07,2926.8,412.9,1
816,5.85,12163,1,12163,1,0.0010359,-1.4341e-08,0,0.0010359,-0.00019239,2.2581e+08,-2812.5,0,2.2581e+08,3924.4,12162,12879,1,12879,1,0.0019876,6.8617e-08,0,0.0019876,-1.4675e-05,3.5362e+08,13049,0,3.5362e+08,12777,12878,12168,1,12168,1,0.0010358,-7.3157e-09,0,0.0010358,-0.00019238,2.5085e+08,-1513.5,0,2.5085e+08,3786.3,12167,11473,1,11473,1,8.4225e-05,-1.1948e-07,0,8.4225e-05,-0.00036997,2.7535e+07,-22631,0,2.7535e+07,-21.606,11472,11820,1,11820,1,0.00052834,-3.1868e-08,0,0.00052834,-0.00028693,1.5386e+08,-6259.5,0,1.5386e+08,1173.9,11819,12516,1,12516,1,0.0015433,3.746e-09,0,0.0015433,-9.7817e-05,3.0538e+08,793.95,0,3.0538e+08,5699.5,12515,412.9,0,412.9,0,0.00058523,3.3598e-08,0,0.00058523,0.00010914,9.6646e+07,6484.8,0,9.6646e+07,3038.2,412.9,1
816,5.86,12163,1,12163,1,0.0010398,-5.3659e-09,0,0.0010398,-0.0001931,2.2592e+08,-855.68,0,2.2592e+08,4228.6,12162,12879,1,12879,1,0.0019938,8.4584e-08,0,0.0019938,-1.4971e-05,3.5306e+08,16247,0,3.5306e+08,13967,12878,12168,1,12168,1,0.0010397,8.8651e-10,0,0.0010397,-0.00019309,2.5105e+08,169.88,0,2.5105e+08,4143.9,12167,11473,1,11473,1,8.5834e-05,-1.2056e-07,0,8.5834e-05,-0.0003711,2.8028e+07,-22562,0,2.8028e+07,-183.96,11472,11820,1,11820,1,0.00053101,-2.353e-08,0,0.00053101,-0.00028786,1.5435e+08,-4696.9,0,1.5435e+08,1315.5,11819,12516,1,12516,1,0.0015484,1.4078e-08,0,0.0015484,-9.8305e-05,3.0514e+08,3076.5,0,3.0514e+08,6144.2,12515,412.9,0,412.9,0,0.00058662,3.6892e-08,0,0.00058662,0.00010939,9.631e+07,7145.9,0,9.631e+07,3223,412.9,1
816,5.87,12163,1,12163,1,0.0010437,-7.9505e-09,0,0.0010437,-0.00019382,2.2603e+08,-1385.9,0,2.2603e+08,4586.2,12162,12879,1,12879,1,0.002,8.8647e-08,0,0.002,-1.5268e-05,3.5252e+08,16877,0,3.5252e+08,14831,12878,12168,1,12168,1,0.0010436,-1.1191e-09,0,0.0010436,-0.00019381,2.5126e+08,-263.01,0,2.5126e+08,4490.8,12167,11473,1,11473,1,8.7449e-05,-1.3065e-07,0,8.7449e-05,-0.00037225,2.8522e+07,-24355,0,2.8522e+07,-75.641,11472,11820,1,11820,1,0.0005337,-2.7664e-08,0,0.0005337,-0.00028881,1.5483e+08,-5313,0,1.5483e+08,1474.7,11819,12516,1,12516,1,0.0015535,1.23e-08,0,0.0015535,-9.8799e-05,3.0491e+08,2756.1,0,3.0491e+08,6652,12515,412.9,0,412.9,0,0.00058804,3.9081e-08,0,0.00058804,0.00010965,9.5976e+07,7508.6,0,9.5976e+07,3469.8,412.9,1
816,5.88,12163,1,12163,1,0.0010477,-1.1439e-08,0,0.0010477,-0.00019455,2.2614e+08,-2132.6,0,2.2614e+08,4933.3,12162,12879,1,12879,1,0.0020063,9.4868e-08,0,0.0020063,-1.557e-05,3.5196e+08,17922,0,3.5196e+08,15874,12878,12168,1,12168,1,0.0010476,-3.4228e-09,0,0.0010476,-0.00019454,2.5145e+08,-662.81,0,2.5145e+08,4807.9,12167,11473,1,11473,1,8.9093e-05,-1.4561e-07,0,8.9093e-05,-0.00037341,2.9023e+07,-27212,0,2.9023e+07,-12.984,11472,11820,1,11820,1,0.00053643,-3.2972e-08,0,0.00053643,-0.00028977,1.5533e+08,-6404.2,0,1.5533e+08,1533,11819,12516,1,12516,1,0.0015587,1.1106e-08,0,0.0015587,-9.9299e-05,3.0467e+08,2336.2,0,3.0467e+08,7189.9,12515,412.9,0,412.9,0,0.00058946,4.2881e-08,0,0.00058946,0.00010992,9.5632e+07,8206.8,0,9.5632e+07,3739.3,412.9,1
816,5.89,12163,1,12163,1,0.0010517,-8.7883e-09,0,0.0010517,-0.00019529,2.2624e+08,-1547,0,2.2624e+08,5304.1,12162,12879,1,12879,1,0.0020127,1.062e-07,0,0.0020127,-1.5877e-05,3.5138e+08,20053,0,3.5138e+08,16799,12878,12168,1,12168,1,0.0010516,-9.3421e-10,0,0.0010516,-0.00019527,2.5165e+08,-199.58,0,2.5165e+08,5222,12167,11473,1,11473,1,9.0762e-05,-1.5136e-07,0,9.0762e-05,-0.00037458,2.9531e+07,-28057,0,2.9531e+07,-69.212,11472,11820,1,11820,1,0.0005392,-3.1907e-08,0,0.0005392,-0.00029073,1.5582e+08,-6137.1,0,1.5582e+08,1679.7,11819,12516,1,12516,1,0.001564,1.5082e-08,0,0.001564,-9.9805e-05,3.0442e+08,3261,0,3.0442e+08,7749,12515,412.9,0,412.9,0,0.0005909,4.6047e-08,0,0.0005909,0.00011018,9.5284e+07,8788.4,0,9.5284e+07,3978.5,412.9,1
816,5.9,12163,1,12163,1,0.0010558,-1.5008e-08,0,0.0010558,-0.00019603,2.2635e+08,-2897.8,0,2.2635e+08,5697,12162,12879,1,12879,1,0.0020191,1.1134e-07,0,0.0020191,-1.6188e-05,3.5081e+08,20741,0,3.5081e+08,17790,12878,12168,1,12168,1,0.0010556,-6.7648e-09,0,0.0010556,-0.00019602,2.5185e+08,-1363.2,0,2.5185e+08,5591.2,12167,11473,1,11473,1,9.2453e-05,-1.6721e-07,0,9.2453e-05,-0.00037577,3.0044e+07,-31080,0,3.0044e+07,-38.678,11472,11820,1,11820,1,0.00054199,-3.9933e-08,0,0.00054199,-0.00029171,1.5632e+08,-7702.7,0,1.5632e+08,1799.6,11819,12516,1,12516,1,0.0015693,1.1001e-08,0,0.0015693,-0.00010032,3.0417e+08,2228.9,0,3.0417e+08,8311.1,12515,412.9,0,412.9,0,0.00059235,4.9526e-08,0,0.00059235,0.00011045,9.4931e+07,9395.7,0,9.4931e+07,4265.1,412.9,1
816,5.91,12163,1,12163,1,0.0010599,-9.2151e-09,0,0.0010599,-0.00019679,2.2645e+08,-1622.9,0,2.2645e+08,6136.6,12162,12879,1,12879,1,0.0020256,1.2592e-07,0,0.0020256,-1.6503e-05,3.5021e+08,23514,0,3.5021e+08,19257,12878,12168,1,12168,1,0.0010597,-4.5585e-10,0,0.0010597,-0.00019677,2.5204e+08,-91.402,0,2.5204e+08,6055.1,12167,11473,1,11473,1,9.4172e-05,-1.7438e-07,0,9.4172e-05,-0.00037696,3.0565e+07,-32102,0,3.0565e+07,-49.084,11472,11820,1,11820,1,0.00054482,-3.6247e-08,0,0.00054482,-0.00029269,1.5682e+08,-6927.2,0,1.5682e+08,1968.7,11819,12516,1,12516,1,0.0015747,1.8212e-08,0,0.0015747,-0.00010084,3.039e+08,4018.2,0,3.039e+08,9015,12515,412.9,0,412.9,0,0.00059381,5.3594e-08,0,0.00059381,0.00011072,9.4574e+07,10151,0,9.4574e+07,4594.2,412.9,1
816,5.92,12163,1,12163,1,0.001064,-9.095e-09,0,0.001064,-0.00019755,2.2655e+08,-1573.9,0,2.2655e+08,6555.8,12162,12879,1,12879,1,0.0020322,1.3533e-07,0,0.0020322,-1.6822e-05,3.496e+08,25123,0,3.496e+08,20426,12878,12168,1,12168,1,0.0010639,-7.9585e-10,0,0.0010639,-0.00019753,2.5224e+08,-147.71,0,2.5224e+08,6471.3,12167,11473,1,11473,1,9.5913e-05,-1.8457e-07,0,9.5913e-05,-0.00037818,3.109e+07,-33756,0,3.109e+07,-90.594,11472,11820,1,11820,1,0.00054769,-3.6958e-08,0,0.00054769,-0.00029369,1.5733e+08,-7036.2,0,1.5733e+08,2073.1,11819,12516,1,12516,1,0.0015801,1.9718e-08,0,0.0015801,-0.00010136,3.0363e+08,4281.9,0,3.0363e+08,9594.3,12515,412.9,0,412.9,0,0.00059529,5.6787e-08,0,0.00059529,0.00011099,9.421e+07,10686,0,9.421e+07,4870.3,412.9,1
816,5.93,12163,1,12163,1,0.0010682,-9.8296e-09,0,0.0010682,-0.00019832,2.2665e+08,-1690.6,0,2.2665e+08,7137,12162,12879,1,12879,1,0.0020388,1.5077e-07,0,0.0020388,-1.7145e-05,3.4898e+08,28089,0,3.4898e+08,21778,12878,12168,1,12168,1,0.0010681,1.8845e-10,0,0.0010681,-0.0001983,2.5242e+08,31.816,0,2.5242e+08,7024.8,12167,11473,1,11473,1,9.7677e-05,-2.0447e-07,0,9.7677e-05,-0.0003794,3.1622e+07,-37333,0,3.1622e+07,-32.1,11472,11820,1,11820,1,0.00055059,-4.2545e-08,0,0.00055059,-0.00029469,1.5783e+08,-8008.5,0,1.5783e+08,2245.3,11819,12516,1,12516,1,0.0015856,2.2851e-08,0,0.0015856,-0.00010189,3.0335e+08,4931.8,0,3.0335e+08,10494,12515,412.9,0,412.9,0,0.00059678,6.3964e-08,0,0.00059678,0.00011127,9.3839e+07,12041,0,9.3839e+07,5266.1,412.9,1
816,5.94,12163,1,12163,1,0.0010725,-1.2584e-08,0,0.0010725,-0.0001991,2.2675e+08,-2243.5,0,2.2675e+08,7708.7,12162,12879,1,12879,1,0.0020456,1.6056e-07,0,0.0020456,-1.7473e-05,3.4836e+08,29494,0,3.4836e+08,23138,12878,12168,1,12168,1,0.0010723,-1.7909e-09,0,0.0010723,-0.00019908,2.5262e+08,-380.66,0,2.5262e+08,7647.3,12167,11473,1,11473,1,9.9466e-05,-2.1905e-07,0,9.9466e-05,-0.00038064,3.2159e+07,-39790,0,3.2159e+07,-18.176,11472,11820,1,11820,1,0.00055353,-4.6723e-08,0,0.00055353,-0.00029572,1.5835e+08,-8916.2,0,1.5835e+08,2452.9,11819,12516,1,12516,1,0.0015911,2.1996e-08,0,0.0015911,-0.00010243,3.0307e+08,4644.9,0,3.0307e+08,11396,12515,412.9,0,412.9,0,0.00059829,6.765e-08,0,0.00059829,0.00011154,9.3466e+07,12636,0,9.3466e+07,5683.7,412.9,1
816,5.95,12163,1,12163,1,0.0010768,-2.1358e-08,0,0.0010768,-0.00019989,2.2683e+08,-4169.3,0,2.2683e+08,8408.9,12162,12879,1,12879,1,0.0020523,1.7081e-07,0,0.0020523,-1.7806e-05,3.4772e+08,30982,0,3.4772e+08,24969,12878,12168,1,12168,1,0.0010766,-1.008e-08,0,0.0010766,-0.00019986,2.528e+08,-2533.7,0,2.528e+08,8332.8,12167,11473,1,11473,1,0.00010129,-2.4701e-07,0,0.00010129,-0.00038188,3.2705e+07,-45193,0,3.2705e+07,-94.538,11472,11820,1,11820,1,0.00055651,-5.8635e-08,0,0.00055651,-0.00029675,1.5887e+08,-11462,0,1.5887e+08,2754.3,11819,12516,1,12516,1,0.0015967,1.7315e-08,0,0.0015967,-0.00010297,3.0276e+08,3405.1,0,3.0276e+08,12347,12515,412.9,0,412.9,0,0.0005998,7.4691e-08,0,0.0005998,0.00011182,9.3081e+07,13910,0,9.3081e+07,6115.4,412.9,1
816,5.96,12163,1,12163,1,0.0010812,-1.6635e-08,0,0.0010812,-0.0002007,2.2694e+08,-3196.1,0,2.2694e+08,9020,12162,12879,1,12879,1,0.0020593,1.8944e-07,0,0.0020593,-1.8145e-05,3.4708e+08,34137,0,3.4708e+08,26792,12878,12168,1,12168,1,0.001081,-7.3184e-09,0,0.001081,-0.00020067,2.53e+08,-1620.7,0,2.53e+08,8994.8,12167,11473,1,11473,1,0.00010315,-2.5512e-07,0,0.00010315,-0.00038317,3.3261e+07,-46191,0,3.3261e+07,13.601,11472,11820,1,11820,1,0.00055956,-5.4807e-08,0,0.00055956,-0.0002978,1.594e+08,-10381,0,1.594e+08,2949.5,11819,12516,1,12516,1,0.0016025,2.3144e-08,0,0.0016025,-0.00010353,3.0248e+08,4585.3,0,3.0248e+08,13290,12515,412.9,0,412.9,0,0.00060136,7.8608e-08,0,0.00060136,0.00011211,9.27e+07,14537,0,9.27e+07,6526.1,412.9,1
816,5.97,12163,1,12163,1,0.0010857,-1.3922e-08,0,0.0010857,-0.00020152,2.2702e+08,-2635.8,0,2.2702e+08,9822.1,12162,12879,1,12879,1,0.0020663,2.1424e-07,0,0.0020663,-1.8492e-05,3.464e+08,38581,0,3.464e+08,28958,12878,12168,1,12168,1,0.0010855,-4.2096e-09,0,0.0010855,-0.00020148,2.5318e+08,-927.47,0,2.5318e+08,9824.5,12167,11473,1,11473,1,0.00010505,-2.7738e-07,0,0.00010505,-0.00038446,3.3829e+07,-50149,0,3.3829e+07,82.026,11472,11820,1,11820,1,0.00056266,-5.6258e-08,0,0.00056266,-0.00029887,1.5993e+08,-10984,0,1.5993e+08,3222.2,11819,12516,1,12516,1,0.0016083,3.0507e-08,0,0.0016083,-0.00010409,3.0215e+08,6259.7,0,3.0215e+08,14484,12515,412.9,0,412.9,0,0.00060292,8.8001e-08,0,0.00060292,0.0001124,9.23e+07,16256,0,9.23e+07,7043.1,412.9,1
816,5.98,12163,1,12163,1,0.0010902,-1.1539e-08,0,0.0010902,-0.00020235,2.2711e+08,-2105.3,0,2.2711e+08,10569,12162,12879,1,12879,1,0.0020735,2.3294e-07,0,0.0020735,-1.8843e-05,3.4571e+08,41690,0,3.4571e+08,31072,12878,12168,1,12168,1,0.00109,-1.5755e-09,0,0.00109,-0.00020231,2.5337e+08,-378.93,0,2.5337e+08,10613,12167,11473,1,11473,1,0.00010698,-2.9258e-07,0,0.00010698,-0.00038578,3.4402e+07,-52364,0,3.4402e+07,40.278,11472,11820,1,11820,1,0.0005658,-5.584e-08,0,0.0005658,-0.00029996,1.6047e+08,-10661,0,1.6047e+08,3471.6,11819,12516,1,12516,1,0.0016142,3.5545e-08,0,0.0016142,-0.00010467,3.0183e+08,7194.8,0,3.0183e+08,15657,12515,412.9,0,412.9,0,0.00060452,9.3443e-08,0,0.00060452,0.0001127,9.1899e+07,17149,0,9.1899e+07,7575.9,412.9,1
816,5.99,12163,1,12163,1,0.0010948,-2.0355e-08,0,0.0010948,-0.0002032,2.272e+08,-3988.9,0,2.272e+08,11601,12162,12879,1,12879,1,0.0020807,2.5027e-07,0,0.0020807,-1.9202e-05,3.4502e+08,44464,0,3.4502e+08,33218,12878,12168,1,12168,1,0.0010946,-1.1733e-08,0,0.0010946,-0.00020316,2.5354e+08,-2938.1,0,2.5354e+08,11752,12167,11473,1,11473,1,0.00010895,-3.2527e-07,0,0.00010895,-0.00038712,3.4986e+07,-58341,0,3.4986e+07,43.132,11472,11820,1,11820,1,0.00056901,-7.0425e-08,0,0.00056901,-0.00030106,1.6101e+08,-13344,0,1.6101e+08,3922.3,11819,12516,1,12516,1,0.0016202,3.2062e-08,0,0.0016202,-0.00010525,3.015e+08,6010.1,0,3.015e+08,17152,12515,412.9,0,412.9,0,0.00060613,1.0246e-07,0,0.00060613,0.00011299,9.1485e+07,18735,0,9.1485e+07,8217.3,412.9,1
816,6,12163,1,12163,1,0.0010995,-1.4354e-08,0,0.0010995,-0.00020406,2.2729e+08,-2741.7,0,2.2729e+08,12494,12162,12879,1,12879,1,0.0020882,2.8089e-07,0,0.0020882,-1.9567e-05,3.443e+08,49729,0,3.443e+08,35874,12878,12168,1,12168,1,0.0010993,-6.6018e-09,0,0.0010993,-0.00020401,2.5373e+08,-1531.6,0,2.5373e+08,12698,12167,11473,1,11473,1,0.00011097,-3.458e-07,0,0.00011097,-0.00038848,3.5581e+07,-61474,0,3.5581e+07,37.504,11472,11820,1,11820,1,0.00057228,-6.6511e-08,0,0.00057228,-0.00030218,1.6157e+08,-12897,0,1.6157e+08,4164.3,11819,12516,1,12516,1,0.0016263,4.1694e-08,0,0.0016263,-0.00010585,3.0116e+08,8314.4,0,3.0116e+08,18633,12515,412.9,0,412.9,0,0.00060778,1.1171e-07,0,0.00060778,0.0001133,9.1067e+07,20325,0,9.1067e+07,8880.1,412.9,1
816,6.01,12163,1,12163,1,0.0011043,-1.3522e-08,0,0.0011043,-0.00020493,2.2737e+08,-2566.4,0,2.2737e+08,13635,12162,12879,1,12879,1,0.0020957,3.1421e-07,0,0.0020957,-1.9939e-05,3.4356e+08,55452,0,3.4356e+08,38658,12878,12168,1,12168,1,0.0011041,-4.9507e-09,0,0.0011041,-0.00020488,2.5391e+08,-1244.2,0,2.5391e+08,13919,12167,11473,1,11473,1,0.00011302,-3.7785e-07,0,0.00011302,-0.00038987,3.6187e+07,-66926,0,3.6187e+07,48.646,11472,11820,1,11820,1,0.00057561,-7.2812e-08,0,0.00057561,-0.00030332,1.6212e+08,-14052,0,1.6212e+08,4537.2,11819,12516,1,12516,1,0.0016325,4.8519e-08,0,0.0016325,-0.00010645,3.0079e+08,9838.8,0,3.0079e+08,20355,12515,412.9,0,412.9,0,0.00060944,1.2415e-07,0,0.00060944,0.00011361,9.0635e+07,22518,0,9.0635e+07,9646.5,412.9,1
816,6.02,12163,1,12163,1,0.0011092,-1.3789e-08,0,0.0011092,-0.00020583,2.2745e+08,-2607.3,0,2.2745e+08,14833,12162,12879,1,12879,1,0.0021034,3.43e-07,0,0.0021034,-2.0317e-05,3.4282e+08,60229,0,3.4282e+08,41734,12878,12168,1,12168,1,0.0011089,-5.1151e-09,0,0.0011089,-0.00020577,2.5409e+08,-1208.1,0,2.5409e+08,15248,12167,11473,1,11473,1,0.00011511,-4.109e-07,0,0.00011511,-0.00039128,3.6801e+07,-72405,0,3.6801e+07,90.007,11472,11820,1,11820,1,0.000579,-7.7857e-08,0,0.000579,-0.00030448,1.6269e+08,-15096,0,1.6269e+08,4963.9,11819,12516,1,12516,1,0.0016389,5.4112e-08,0,0.0016389,-0.00010707,3.0043e+08,10847,0,3.0043e+08,22181,12515,412.9,0,412.9,0,0.00061114,1.3536e-07,0,0.00061114,0.00011392,9.0198e+07,24438,0,9.0198e+07,10446,412.9,1
816,6.03,12163,1,12163,1,0.0011141,-1.3687e-08,0,0.0011141,-0.00020674,2.2753e+08,-2572.7,0,2.2753e+08,16190,12162,12879,1,12879,1,0.0021112,3.7793e-07,0,0.0021112,-2.0703e-05,3.4205e+08,66055,0,3.4205e+08,44902,12878,12168,1,12168,1,0.0011139,-4.5413e-09,0,0.0011139,-0.00020668,2.5426e+08,-1139,0,2.5426e+08,16758,12167,11473,1,11473,1,0.00011724,-4.4677e-07,0,0.00011724,-0.00039272,3.7426e+07,-78278,0,3.7426e+07,106.27,11472,11820,1,11820,1,0.00058246,-8.389e-08,0,0.00058246,-0.00030566,1.6327e+08,-16125,0,1.6327e+08,5450.2,11819,12516,1,12516,1,0.0016453,6.1321e-08,0,0.0016453,-0.0001077,3.0005e+08,12089,0,3.0005e+08,24292,12515,412.9,0,412.9,0,0.00061286,1.4829e-07,0,0.00061286,0.00011424,8.9751e+07,26645,0,8.9751e+07,11326,412.9,1
816,6.04,12163,1,12163,1,0.0011192,-1.7412e-08,0,0.0011192,-0.00020766,2.276e+08,-3349.6,0,2.276e+08,17676,12162,12879,1,12879,1,0.0021192,4.1622e-07,0,0.0021192,-2.1098e-05,3.4126e+08,72397,0,3.4126e+08,48392,12878,12168,1,12168,1,0.0011189,-9.3127e-09,0,0.0011189,-0.0002076,2.5444e+08,-2356.3,0,2.5444e+08,18378,12167,11473,1,11473,1,0.00011943,-4.9355e-07,0,0.00011943,-0.00039419,3.8065e+07,-86299,0,3.8065e+07,68.666,11472,11820,1,11820,1,0.00058599,-9.7955e-08,0,0.00058599,-0.00030687,1.6385e+08,-18271,0,1.6385e+08,5936.3,11819,12516,1,12516,1,0.0016519,6.6356e-08,0,0.0016519,-0.00010834,2.9966e+08,12881,0,2.9966e+08,26632,12515,412.9,0,412.9,0,0.00061462,1.6447e-07,0,0.00061462,0.00011456,8.9292e+07,29452,0,8.9292e+07,12329,412.9,1
816,6.05,12163,1,12163,1,0.0011244,-1.111e-08,0,0.0011244,-0.00020862,2.2768e+08,-2013.7,0,2.2768e+08,19261,12162,12879,1,12879,1,0.0021274,4.619e-07,0,0.0021274,-2.15e-05,3.4046e+08,80015,0,3.4046e+08,52463,12878,12168,1,12168,1,0.0011241,-1.6388e-09,0,0.0011241,-0.00020854,2.5462e+08,-422.71,0,2.5462e+08,20101,12167,11473,1,11473,1,0.00012166,-5.3291e-07,0,0.00012166,-0.0003957,3.8716e+07,-92400,0,3.8716e+07,190.9,11472,11820,1,11820,1,0.00058961,-9.7358e-08,0,0.00058961,-0.00030811,1.6445e+08,-18549,0,1.6445e+08,6530.8,11819,12516,1,12516,1,0.0016586,8.04e-08,0,0.0016586,-0.000109,2.9926e+08,15244,0,2.9926e+08,28947,12515,412.9,0,412.9,0,0.00061642,1.8017e-07,0,0.00061642,0.0001149,8.8826e+07,32098,0,8.8826e+07,13389,412.9,1
816,6.06,12163,1,12163,1,0.0011298,-1.2449e-08,0,0.0011298,-0.00020959,2.2776e+08,-2231.2,0,2.2776e+08,21121,12162,12879,1,12879,1,0.0021358,5.1099e-07,0,0.0021358,-2.1911e-05,3.3963e+08,88156,0,3.3963e+08,56853,12878,12168,1,12168,1,0.0011294,-9.085e-10,0,0.0011294,-0.00020951,2.5479e+08,-229.43,0,2.5479e+08,21985,12167,11473,1,11473,1,0.00012395,-5.8844e-07,0,0.00012395,-0.00039725,3.9381e+07,-1.0161e+05,0,3.9381e+07,225.03,11472,11820,1,11820,1,0.00059331,-1.0895e-07,0,0.00059331,-0.00030937,1.6505e+08,-20557,0,1.6505e+08,7218.3,11819,12516,1,12516,1,0.0016655,8.9478e-08,0,0.0016655,-0.00010967,2.9883e+08,17076,0,2.9883e+08,31914,12515,412.9,0,412.9,0,0.00061826,1.9995e-07,0,0.00061826,0.00011524,8.8343e+07,35483,0,8.8343e+07,14625,412.9,1
816,6.07,12163,1,12163,1,0.0011352,-1.8542e-08,0,0.0011352,-0.00021059,2.2782e+08,-3449.3,0,2.2782e+08,23190,12162,12879,1,12879,1,0.0021443,5.5815e-07,0,0.0021443,-2.2332e-05,3.3878e+08,95723,0,3.3878e+08,61407,12878,12168,1,12168,1,0.0011348,-6.7728e-09,0,0.0011348,-0.0002105,2.5496e+08,-1736.9,0,2.5496e+08,24120,12167,11473,1,11473,1,0.0001263,-6.5068e-07,0,0.0001263,-0.00039883,4.0061e+07,-1.1196e+05,0,4.0061e+07,252.79,11472,11820,1,11820,1,0.00059711,-1.2579e-07,0,0.00059711,-0.00031066,1.6567e+08,-23718,0,1.6567e+08,7933.8,11819,12516,1,12516,1,0.0016725,9.377e-08,0,0.0016725,-0.00011036,2.984e+08,17694,0,2.984e+08,35133,12515,412.9,0,412.9,0,0.00062013,2.203e-07,0,0.00062013,0.00011559,8.7849e+07,38907,0,8.7849e+07,15965,412.9,1
816,6.08,12163,1,12163,1,0.0011408,-1.9066e-08,0,0.0011408,-0.00021161,2.279e+08,-3534.6,0,2.279e+08,25388,12162,12879,1,12879,1,0.0021532,6.1718e-07,0,0.0021532,-2.2763e-05,3.3791e+08,1.0532e+05,0,3.3791e+08,66778,12878,12168,1,12168,1,0.0011404,-6.6464e-09,0,0.0011404,-0.00021151,2.5514e+08,-1721.2,0,2.5514e+08,26351,12167,11473,1,11473,1,0.00012872,-7.1646e-07,0,0.00012872,-0.00040045,4.0757e+07,-1.2269e+05,0,4.0757e+07,238.58,11472,11820,1,11820,1,0.00060101,-1.3798e-07,0,0.00060101,-0.00031198,1.663e+08,-25800,0,1.663e+08,8680.2,11819,12516,1,12516,1,0.0016798,1.0624e-07,0,0.0016798,-0.00011106,2.9795e+08,19717,0,2.9795e+08,38576,12515,412.9,0,412.9,0,0.00062206,2.4374e-07,0,0.00062206,0.00011595,8.7344e+07,42844,0,8.7344e+07,17491,412.9,1
816,6.09,12163,1,12163,1,0.0011466,-1.238e-08,0,0.0011466,-0.00021266,2.2796e+08,-2087.3,0,2.2796e+08,27893,12162,12879,1,12879,1,0.0021622,6.9141e-07,0,0.0021622,-2.3206e-05,3.37e+08,1.1761e+05,0,3.37e+08,72430,12878,12168,1,12168,1,0.0011461,3.0486e-09,0,0.0011461,-0.00021255,2.5531e+08,789.19,0,2.5531e+08,29024,12167,11473,1,11473,1,0.0001312,-7.8299e-07,0,0.0001312,-0.00040212,4.1471e+07,-1.3303e+05,0,4.1471e+07,179.54,11472,11820,1,11820,1,0.00060501,-1.4763e-07,0,0.00060501,-0.00031334,1.6694e+08,-26721,0,1.6694e+08,9647,11819,12516,1,12516,1,0.0016872,1.2714e-07,0,0.0016872,-0.00011178,2.9748e+08,23900,0,2.9748e+08,42481,12515,412.9,0,412.9,0,0.00062404,2.7022e-07,0,0.00062404,0.00011631,8.6823e+07,47269,0,8.6823e+07,19109,412.9,1
816,6.1,12163,1,12163,1,0.0011525,-2.1004e-08,0,0.0011525,-0.00021374,2.2803e+08,-3752.7,0,2.2803e+08,30703,12162,12879,1,12879,1,0.0021716,7.5975e-07,0,0.0021716,-2.366e-05,3.3608e+08,1.2838e+05,0,3.3608e+08,78547,12878,12168,1,12168,1,0.0011519,-3.666e-09,0,0.0011519,-0.00021362,2.5548e+08,-948.31,0,2.5548e+08,31939,12167,11473,1,11473,1,0.00013374,-8.7478e-07,0,0.00013374,-0.00040384,4.2201e+07,-1.4813e+05,0,4.2201e+07,271.24,11472,11820,1,11820,1,0.00060914,-1.6934e-07,0,0.00060914,-0.00031474,1.676e+08,-31446,0,1.676e+08,10640,11819,12516,1,12516,1,0.0016948,1.344e-07,0,0.0016948,-0.00011253,2.9699e+08,24921,0,2.9699e+08,46986,12515,412.9,0,412.9,0,0.00062607,3.0067e-07,0,0.00062607,0.00011669,8.6286e+07,52346,0,8.6286e+07,20973,412.9,1
816,6.11,12163,1,12163,1,0.0011586,-1.8576e-08,0,0.0011586,-0.00021486,2.2809e+08,-3163.9,0,2.2809e+08,33807,12162,12879,1,12879,1,0.0021813,8.4315e-07,0,0.0021813,-2.4126e-05,3.3512e+08,1.4166e+05,0,3.3512e+08,85415,12878,12168,1,12168,1,0.001158,1.8962e-09,0,0.001158,-0.00021472,2.5565e+08,500.34,0,2.5565e+08,35192,12167,11473,1,11473,1,0.00013637,-9.6077e-07,0,0.00013637,-0.00040562,4.2952e+07,-1.6142e+05,0,4.2952e+07,312.94,11472,11820,1,11820,1,0.0006134,-1.8396e-07,0,0.0006134,-0.00031618,1.6827e+08,-33260,0,1.6827e+08,11869,11819,12516,1,12516,1,0.0017027,1.5231e-07,0,0.0017027,-0.00011329,2.9649e+08,28525,0,2.9649e+08,51961,12515,412.9,0,412.9,0,0.00062817,3.3175e-07,0,0.00062817,0.00011708,8.5734e+07,57399,0,8.5734e+07,22997,412.9,1
816,6.12,12163,1,12163,1,0.0011649,-3.4775e-08,0,0.0011649,-0.00021601,2.2815e+08,-6372.4,0,2.2815e+08,37531,12162,12879,1,12879,1,0.0021912,9.3238e-07,0,0.0021912,-2.4606e-05,3.3413e+08,1.5558e+05,0,3.3413e+08,93209,12878,12168,1,12168,1,0.0011643,-1.574e-08,0,0.0011643,-0.00021585,2.5581e+08,-3937.4,0,2.5581e+08,39192,12167,11473,1,11473,1,0.00013909,-1.0812e-06,0,0.00013909,-0.00040746,4.3724e+07,-1.8113e+05,0,4.3724e+07,348.61,11472,11820,1,11820,1,0.00061779,-2.1815e-07,0,0.00061779,-0.00031767,1.6896e+08,-39984,0,1.6896e+08,13140,11819,12516,1,12516,1,0.0017108,1.5722e-07,0,0.0017108,-0.00011408,2.9596e+08,28778,0,2.9596e+08,58003,12515,412.9,0,412.9,0,0.00063032,3.7118e-07,0,0.00063032,0.00011749,8.5158e+07,63890,0,8.5158e+07,25413,412.9,1
816,6.13,12163,1,12163,1,0.0011715,-1.9685e-08,0,0.0011715,-0.0002172,2.2821e+08,-3229.2,0,2.2821e+08,41434,12162,12879,1,12879,1,0.0022016,1.0528e-06,0,0.0022016,-2.5101e-05,3.331e+08,1.75e+05,0,3.331e+08,1.0168e+05,12878,12168,1,12168,1,0.0011707,5.4227e-09,0,0.0011707,-0.00021703,2.5599e+08,1287.2,0,2.5599e+08,43428,12167,11473,1,11473,1,0.0001419,-1.1873e-06,0,0.0001419,-0.00040937,4.4521e+07,-1.9715e+05,0,4.4521e+07,421.64,11472,11820,1,11820,1,0.00062234,-2.2912e-07,0,0.00062234,-0.00031921,1.6968e+08,-40816,0,1.6968e+08,14728,11819,12516,1,12516,1,0.0017192,1.9546e-07,0,0.0017192,-0.0001149,2.9541e+08,36286,0,2.9541e+08,64385,12515,412.9,0,412.9,0,0.00063257,4.1475e-07,0,0.00063257,0.00011791,8.4571e+07,70991,0,8.4571e+07,27976,412.9,1
816,6.14,12163,1,12163,1,0.0011783,-2.6986e-08,0,0.0011783,-0.00021844,2.2827e+08,-4497.2,0,2.2827e+08,46042,12162,12879,1,12879,1,0.0022124,1.1711e-06,0,0.0022124,-2.5611e-05,3.3205e+08,1.9336e+05,0,3.3205e+08,1.1091e+05,12878,12168,1,12168,1,0.0011774,2.7786e-09,0,0.0011774,-0.00021825,2.5616e+08,653.39,0,2.5616e+08,48164,12167,11473,1,11473,1,0.0001448,-1.331e-06,0,0.0001448,-0.00041136,4.5341e+07,-2.1965e+05,0,4.5341e+07,444.26,11472,11820,1,11820,1,0.00062707,-2.6206e-07,0,0.00062707,-0.0003208,1.7041e+08,-46825,0,1.7041e+08,16601,11819,12516,1,12516,1,0.0017279,2.1422e-07,0,0.0017279,-0.00011574,2.9484e+08,39592,0,2.9484e+08,71940,12515,412.9,0,412.9,0,0.00063489,4.6439e-07,0,0.00063489,0.00011834,8.3956e+07,79003,0,8.3956e+07,30970,412.9,1
816,6.15,12163,1,12163,1,0.0011854,-3.359e-08,0,0.0011854,-0.00021973,2.2832e+08,-5615.1,0,2.2832e+08,51360,12162,12879,1,12879,1,0.0022237,1.3134e-06,0,0.0022237,-2.6137e-05,3.3095e+08,2.1563e+05,0,3.3095e+08,1.2144e+05,12878,12168,1,12168,1,0.0011844,2.8436e-09,0,0.0011844,-0.00021951,2.5633e+08,654.04,0,2.5633e+08,53649,12167,11473,1,11473,1,0.00014781,-1.498e-06,0,0.00014781,-0.00041343,4.6188e+07,-2.459e+05,0,4.6188e+07,626.74,11472,11820,1,11820,1,0.00063197,-3.0097e-07,0,0.00063197,-0.00032245,1.7116e+08,-53795,0,1.7116e+08,18601,11819,12516,1,12516,1,0.001737,2.3976e-07,0,0.001737,-0.00011662,2.9423e+08,43783,0,2.9423e+08,80631,12515,412.9,0,412.9,0,0.0006373,5.2445e-07,0,0.0006373,0.00011879,8.3316e+07,88734,0,8.3316e+07,34406,412.9,1
816,6.16,12163,1,12163,1,0.0011928,-3.7013e-08,0,0.0011928,-0.00022106,2.2837e+08,-6058.7,0,2.2837e+08,57297,12162,12879,1,12879,1,0.0022354,1.4777e-06,0,0.0022354,-2.6682e-05,3.298e+08,2.4125e+05,0,3.298e+08,1.3278e+05,12878,12168,1,12168,1,0.0011916,5.4011e-09,0,0.0011916,-0.00022081,2.5649e+08,1330.8,0,2.5649e+08,60048,12167,11473,1,11473,1,0.00015093,-1.6796e-06,0,0.00015093,-0.00041558,4.7063e+07,-2.7387e+05,0,4.7063e+07,743.02,11472,11820,1,11820,1,0.00063706,-3.4248e-07,0,0.00063706,-0.00032417,1.7194e+08,-60556,0,1.7194e+08,20769,11819,12516,1,12516,1,0.0017463,2.7198e-07,0,0.0017463,-0.00011752,2.9359e+08,49973,0,2.9359e+08,90579,12515,412.9,0,412.9,0,0.0006398,5.9104e-07,0,0.0006398,0.00011926,8.2651e+07,99392,0,8.2651e+07,38216,412.9,1
816,6.17,12163,1,12163,1,0.0012005,-4.4637e-08,0,0.0012005,-0.00022246,2.2842e+08,-7268.8,0,2.2842e+08,63980,12162,12879,1,12879,1,0.0022477,1.6563e-06,0,0.0022477,-2.7245e-05,3.2862e+08,2.6852e+05,0,3.2862e+08,1.4544e+05,12878,12168,1,12168,1,0.0011992,5.993e-09,0,0.0011992,-0.00022217,2.5666e+08,1460.3,0,2.5666e+08,67428,12167,11473,1,11473,1,0.00015417,-1.8914e-06,0,0.00015417,-0.00041784,4.7967e+07,-3.063e+05,0,4.7967e+07,800.07,11472,11820,1,11820,1,0.00064237,-3.9022e-07,0,0.00064237,-0.00032596,1.7275e+08,-68863,0,1.7275e+08,23078,11819,12516,1,12516,1,0.0017561,3.0488e-07,0,0.0017561,-0.00011847,2.9294e+08,55704,0,2.9294e+08,1.0204e+05,12515,412.9,0,412.9,0,0.00064243,6.6657e-07,0,0.00064243,0.00011976,8.1963e+07,1.1136e+05,0,8.1963e+07,42544,412.9,1
816,6.18,12163,1,12163,1,0.0012085,-5.993e-08,0,0.0012085,-0.00022391,2.2847e+08,-9881.8,0,2.2847e+08,71677,12162,12879,1,12879,1,0.0022606,1.8657e-06,0,0.0022606,-2.7832e-05,3.274e+08,2.9989e+05,0,3.274e+08,1.595e+05,12878,12168,1,12168,1,0.0012071,8.4841e-10,0,0.0012071,-0.0002236,2.5684e+08,153.29,0,2.5684e+08,75737,12167,11473,1,11473,1,0.00015756,-2.1379e-06,0,0.00015756,-0.00042022,4.8911e+07,-3.4392e+05,0,4.8911e+07,809.43,11472,11820,1,11820,1,0.00064795,-4.5608e-07,0,0.00064795,-0.00032784,1.7359e+08,-79510,0,1.7359e+08,25606,11819,12516,1,12516,1,0.0017664,3.3257e-07,0,0.0017664,-0.00011945,2.9225e+08,61085,0,2.9225e+08,1.1514e+05,12515,412.9,0,412.9,0,0.00064517,7.5322e-07,0,0.00064517,0.00012028,8.1241e+07,1.2494e+05,0,8.1241e+07,47562,412.9,1
816,6.19,12163,1,12163,1,0.0012171,-5.8617e-08,0,0.0012171,-0.00022545,2.2851e+08,-9522.7,0,2.2851e+08,80554,12162,12879,1,12879,1,0.0022743,2.1175e-06,0,0.0022743,-2.8443e-05,3.2609e+08,3.382e+05,0,3.2609e+08,1.7593e+05,12878,12168,1,12168,1,0.0012154,3.9269e-09,0,0.0012154,-0.00022509,2.5701e+08,975.08,0,2.5701e+08,85906,12167,11473,1,11473,1,0.00016112,-2.4177e-06,0,0.00016112,-0.00042274,4.9896e+07,-3.8606e+05,0,4.9896e+07,995.69,11472,11820,1,11820,1,0.00065381,-5.1036e-07,0,0.00065381,-0.00032981,1.7446e+08,-89054,0,1.7446e+08,28926,11819,12516,1,12516,1,0.0017772,3.9862e-07,0,0.0017772,-0.00012048,2.915e+08,70926,0,2.915e+08,1.3119e+05,12515,412.9,0,412.9,0,0.00064806,8.6013e-07,0,0.00064806,0.00012082,8.0485e+07,1.4169e+05,0,8.0485e+07,53234,412.9,1
816,6.2,12163,1,12163,1,0.001226,-7.0868e-08,0,0.001226,-0.00022707,2.2855e+08,-11513,0,2.2855e+08,90922,12162,12879,1,12879,1,0.0022887,2.4107e-06,0,0.0022887,-2.9079e-05,3.2474e+08,3.8209e+05,0,3.2474e+08,1.9361e+05,12878,12168,1,12168,1,0.0012241,2.1782e-09,0,0.0012241,-0.00022666,2.5718e+08,464.16,0,2.5718e+08,97565,12167,11473,1,11473,1,0.00016484,-2.7478e-06,0,0.00016484,-0.0004254,5.092e+07,-4.3554e+05,0,5.092e+07,1196.5,11472,11820,1,11820,1,0.00065997,-5.9458e-07,0,0.00065997,-0.00033187,1.7537e+08,-1.022e+05,0,1.7537e+08,32499,11819,12516,1,12516,1,0.0017885,4.5052e-07,0,0.0017885,-0.00012157,2.9072e+08,79458,0,2.9072e+08,1.4919e+05,12515,412.9,0,412.9,0,0.00065111,9.8193e-07,0,0.00065111,0.0001214,7.9686e+07,1.6054e+05,0,7.9686e+07,59908,412.9,1
816,6.21,12163,1,12163,1,0.0012355,-8.7152e-08,0,0.0012355,-0.00022878,2.2858e+08,-14192,0,2.2858e+08,1.0272e+05,12162,12879,1,12879,1,0.0023041,2.7458e-06,0,0.0023041,-2.9744e-05,3.2332e+08,4.3144e+05,0,3.2332e+08,2.1325e+05,12878,12168,1,12168,1,0.0012334,-3.3519e-09,0,0.0012334,-0.00022832,2.5735e+08,-923.15,0,2.5735e+08,1.1108e+05,12167,11473,1,11473,1,0.00016874,-3.1307e-06,0,0.00016874,-0.00042823,5.199e+07,-4.9238e+05,0,5.199e+07,1320.8,11472,11820,1,11820,1,0.00066647,-6.9235e-07,0,0.00066647,-0.00033406,1.7633e+08,-1.1805e+05,0,1.7633e+08,36558,11819,12516,1,12516,1,0.0018005,5.0977e-07,0,0.0018005,-0.0001227,2.8989e+08,89096,0,2.8989e+08,1.7017e+05,12515,412.9,0,412.9,0,0.00065434,1.1233e-06,0,0.00065434,0.00012202,7.8847e+07,1.8219e+05,0,7.8847e+07,67520,412.9,1
816,6.22,12163,1,12163,1,0.0012456,-1.0581e-07,0,0.0012456,-0.0002306,2.2861e+08,-17275,0,2.2861e+08,1.1653e+05,12162,12879,1,12879,1,0.0023205,3.1385e-06,0,0.0023205,-3.0441e-05,3.2183e+08,4.8852e+05,0,3.2183e+08,2.3581e+05,12878,12168,1,12168,1,0.0012432,-8.7152e-09,0,0.0012432,-0.00023006,2.5752e+08,-2232,0,2.5752e+08,1.2756e+05,12167,11473,1,11473,1,0.00017286,-3.5816e-06,0,0.00017286,-0.00043125,5.3113e+07,-5.5876e+05,0,5.3113e+07,1463.7,11472,11820,1,11820,1,0.00067337,-8.0251e-07,0,0.00067337,-0.00033638,1.7733e+08,-1.3541e+05,0,1.7733e+08,41280,11819,12516,1,12516,1,0.0018132,5.8165e-07,0,0.0018132,-0.0001239,2.89e+08,1.0019e+05,0,2.89e+08,1.9364e+05,12515,412.9,0,412.9,0,0.00065777,1.2898e-06,0,0.00065777,0.00012267,7.7958e+07,2.0742e+05,0,7.7958e+07,76484,412.9,1
816,6.23,12163,1,12163,1,0.0012564,-1.1518e-07,0,0.0012564,-0.00023252,2.2863e+08,-18459,0,2.2863e+08,1.3283e+05,12162,12879,1,12879,1,0.0023381,3.6318e-06,0,0.0023381,-3.117e-05,3.2024e+08,5.6097e+05,0,3.2024e+08,2.6139e+05,12878,12168,1,12168,1,0.0012535,-9.4581e-09,0,0.0012535,-0.00023191,2.5769e+08,-2519.5,0,2.5769e+08,1.4516e+05,12167,11473,1,11473,1,0.00017719,-4.1117e-06,0,0.0001772,-0.00043448,5.429e+07,-6.3606e+05,0,5.429e+07,1768,11472,11820,1,11820,1,0.00068068,-9.2623e-07,0,0.00068068,-0.00033883,1.7838e+08,-1.5549e+05,0,1.7838e+08,46837,11819,12516,1,12516,1,0.0018267,6.8609e-07,0,0.0018267,-0.00012517,2.8805e+08,1.1652e+05,0,2.8805e+08,2.2099e+05,12515,412.9,0,412.9,0,0.00066141,1.4947e-06,0,0.00066141,0.00012337,7.7015e+07,2.3838e+05,0,7.7015e+07,87005,412.9,1
816,6.24,12163,1,12163,1,0.0012679,-1.3668e-07,0,0.0012679,-0.00023458,2.2865e+08,-21815,0,2.2865e+08,1.5168e+05,12162,12879,1,12879,1,0.002357,4.1902e-06,0,0.002357,-3.1935e-05,3.1858e+08,6.4075e+05,0,3.1858e+08,2.8949e+05,12878,12168,1,12168,1,0.0012646,-1.1765e-08,0,0.0012646,-0.00023388,2.5786e+08,-3028.1,0,2.5786e+08,1.6456e+05,12167,11473,1,11473,1,0.00018177,-4.7328e-06,0,0.00018177,-0.00043797,5.5525e+07,-7.2541e+05,0,5.5526e+07,2063.8,11472,11820,1,11820,1,0.00068848,-1.0807e-06,0,0.00068848,-0.00034145,1.795e+08,-1.7956e+05,0,1.795e+08,53239,11819,12516,1,12516,1,0.0018411,7.9536e-07,0,0.0018411,-0.00012651,2.8703e+08,1.3364e+05,0,2.8703e+08,2.5384e+05,12515,412.9,0,412.9,0,0.00066533,1.7309e-06,0,0.00066533,0.00012412,7.6016e+07,2.7342e+05,0,7.6016e+07,99231,412.9,1
816,6.25,12163,1,12163,1,0.0012803,-1.584e-07,0,0.0012803,-0.00023678,2.2866e+08,-25051,0,2.2866e+08,1.7414e+05,12162,12879,1,12879,1,0.0023775,4.8757e-06,0,0.0023775,-3.274e-05,3.1681e+08,7.3855e+05,0,3.1681e+08,3.2168e+05,12878,12168,1,12168,1,0.0012764,-2.1685e-08,0,0.0012764,-0.00023597,2.5802e+08,-5291.8,0,2.5802e+08,1.874e+05,12167,11473,1,11473,1,0.00018662,-5.4819e-06,0,0.00018662,-0.00044172,5.6826e+07,-8.3256e+05,0,5.6826e+07,2469.5,11472,11820,1,11820,1,0.0006968,-1.2718e-06,0,0.0006968,-0.00034423,1.8067e+08,-2.0831e+05,0,1.8067e+08,60806,11819,12516,1,12516,1,0.0018564,9.377e-07,0,0.0018564,-0.00012793,2.8592e+08,1.5527e+05,0,2.8592e+08,2.9308e+05,12515,412.9,0,412.9,0,0.00066951,2.0218e-06,0,0.00066951,0.00012493,7.4944e+07,3.1631e+05,0,7.4944e+07,1.1382e+05,412.9,1
816,6.26,12163,1,12163,1,0.0012936,-1.768e-07,0,0.0012936,-0.00023915,2.2866e+08,-27405,0,2.2866e+08,2.003e+05,12162,12879,1,12879,1,0.0023998,5.6866e-06,0,0.0023998,-3.3589e-05,3.1494e+08,8.5255e+05,0,3.1494e+08,3.6535e+05,12878,12168,1,12168,1,0.0012891,-1.4626e-08,0,0.0012891,-0.00023821,2.5819e+08,-3844.6,0,2.5819e+08,2.1345e+05,12167,11473,1,11473,1,0.00019176,-6.3546e-06,0,0.00019176,-0.00044583,5.8195e+07,-9.5491e+05,0,5.8195e+07,2760.2,11472,11820,1,11820,1,0.00070574,-1.4962e-06,0,0.00070574,-0.00034723,1.8191e+08,-2.4201e+05,0,1.8192e+08,69480,11819,12516,1,12516,1,0.0018729,1.1137e-06,0,0.0018729,-0.00012945,2.8475e+08,1.8332e+05,0,2.8475e+08,3.3328e+05,12515,412.9,0,412.9,0,0.00067405,2.3654e-06,0,0.00067405,0.00012582,7.3806e+07,3.6613e+05,0,7.3806e+07,1.3094e+05,412.9,1
816,6.27,12163,1,12163,1,0.0013081,-2.1266e-07,0,0.0013081,-0.00024171,2.2865e+08,-32820,0,2.2865e+08,2.3174e+05,12162,12879,1,12879,1,0.0024243,6.6668e-06,0,0.0024243,-3.4487e-05,3.1296e+08,9.8797e+05,0,3.1296e+08,4.2867e+05,12878,12168,1,12168,1,0.0013028,-2.5735e-08,0,0.0013028,-0.00024061,2.5835e+08,-6494,0,2.5835e+08,2.4416e+05,12167,11473,1,11473,1,0.00019722,-7.4236e-06,0,0.00019722,-0.00045034,5.9641e+07,-1.1038e+06,0,5.9642e+07,3220,11472,11820,1,11820,1,0.00071538,-1.7762e-06,0,0.00071538,-0.00035046,1.8324e+08,-2.8378e+05,0,1.8324e+08,79279,11819,12516,1,12516,1,0.0018907,1.3257e-06,0,0.0018907,-0.00013108,2.8346e+08,2.1235e+05,0,2.8346e+08,3.8473e+05,12515,412.9,0,412.9,0,0.00067899,2.7879e-06,0,0.00067899,0.00012678,7.2579e+07,4.266e+05,0,7.2579e+07,1.5162e+05,412.9,1
816,6.28,12163,1,12163,1,0.0013239,-2.465e-07,0,0.0013239,-0.00024449,2.2862e+08,-37462,0,2.2862e+08,2.6922e+05,12162,12879,1,12879,1,0.0024512,7.8699e-06,0,0.0024512,-3.544e-05,3.1084e+08,1.1528e+06,0,3.1084e+08,5.0837e+05,12878,12168,1,12168,1,0.0013175,-3.3574e-08,0,0.0013176,-0.0002432,2.585e+08,-8364.9,0,2.585e+08,2.7928e+05,12167,11473,1,11473,1,0.00020304,-8.7106e-06,0,0.00020304,-0.0004553,6.1172e+07,-1.2806e+06,0,6.1172e+07,3568.9,11472,11820,1,11820,1,0.0007258,-2.1164e-06,0,0.00072581,-0.00035395,1.8466e+08,-3.3405e+05,0,1.8466e+08,90394,11819,12516,1,12516,1,0.00191,1.5923e-06,0,0.00191,-0.00013282,2.8205e+08,2.5174e+05,0,2.8205e+08,4.462e+05,12515,412.9,0,412.9,0,0.00068437,3.3077e-06,0,0.00068437,0.00012784,7.1251e+07,5.0001e+05,0,7.1251e+07,1.7652e+05,412.9,1
816,6.29,12163,1,12163,1,0.0013412,-3.003e-07,0,0.0013412,-0.00024754,2.2859e+08,-45330,0,2.2859e+08,3.1401e+05,12162,12879,1,12879,1,0.0024813,9.3194e-06,0,0.0024813,-3.6456e-05,3.086e+08,1.3473e+06,0,3.086e+08,6.0657e+05,12878,12168,1,12168,1,0.0013337,-5.1589e-08,0,0.0013337,-0.00024601,2.5866e+08,-12232,0,2.5866e+08,3.2491e+05,12167,11473,1,11473,1,0.00020924,-1.0274e-05,0,0.00020924,-0.00046083,6.279e+07,-1.4926e+06,0,6.2791e+07,3997.1,11472,11820,1,11820,1,0.00073715,-2.5417e-06,0,0.00073716,-0.00035775,1.8618e+08,-3.969e+05,0,1.8618e+08,1.0313e+05,11819,12516,1,12516,1,0.001931,1.9055e-06,0,0.001931,-0.0001347,2.8052e+08,2.953e+05,0,2.8052e+08,5.1116e+05,12515,412.9,0,412.9,0,0.00069031,3.9444e-06,0,0.00069032,0.00012901,6.9819e+07,5.8831e+05,0,6.9819e+07,2.0669e+05,412.9,1
816,6.3,12163,1,12163,1,0.0013604,-3.5434e-07,0,0.0013604,-0.00025088,2.2853e+08,-52687,0,2.2853e+08,3.6831e+05,12162,12879,1,12879,1,0.002515,1.1127e-05,0,0.002515,-3.7547e-05,3.0618e+08,1.5869e+06,0,3.0618e+08,7.2997e+05,12878,12168,1,12168,1,0.0013513,-6.976e-08,0,0.0013514,-0.00024907,2.588e+08,-15958,0,2.588e+08,3.8811e+05,12167,11473,1,11473,1,0.00021589,-1.2179e-05,0,0.00021589,-0.00046703,6.4511e+07,-1.7467e+06,0,6.4512e+07,4344.8,11472,11820,1,11820,1,0.00074958,-3.0826e-06,0,0.00074959,-0.00036192,1.8782e+08,-4.7324e+05,0,1.8782e+08,1.1813e+05,11819,12516,1,12516,1,0.0019541,2.3174e-06,0,0.0019541,-0.00013674,2.7882e+08,3.5218e+05,0,2.7882e+08,5.9511e+05,12515,412.9,0,412.9,0,0.00069689,4.7419e-06,0,0.00069689,0.00013032,6.8255e+07,6.9711e+05,0,6.8255e+07,2.4381e+05,412.9,1
816,6.31,12163,1,12163,1,0.0013817,-4.2149e-07,0,0.0013817,-0.00025459,2.2844e+08,-61814,0,2.2845e+08,4.3396e+05,12162,12879,1,12879,1,0.0025533,1.3363e-05,0,0.0025533,-3.8725e-05,3.0358e+08,1.8775e+06,0,3.0358e+08,8.852e+05,12878,12168,1,12168,1,0.0013708,-8.9974e-08,0,0.0013708,-0.00025242,2.5892e+08,-20826,0,2.5892e+08,4.6121e+05,12167,11473,1,11473,1,0.00022301,-1.4512e-05,0,0.00022301,-0.00047408,6.6336e+07,-2.0529e+06,0,6.6338e+07,4925.3,11472,11820,1,11820,1,0.00076325,-3.7591e-06,0,0.00076326,-0.00036649,1.8959e+08,-5.6791e+05,0,1.8959e+08,1.3555e+05,11819,12516,1,12516,1,0.0019795,2.8409e-06,0,0.0019795,-0.00013896,2.7656e+08,4.2118e+05,0,2.7657e+08,6.9802e+05,12515,412.9,0,412.9,0,0.00070425,5.7407e-06,0,0.00070425,0.00013179,6.6547e+07,8.3054e+05,0,6.6547e+07,2.8979e+05,412.9,1
816,6.32,12163,1,12163,1,0.0014056,-5.176e-07,0,0.0014056,-0.00025872,2.2833e+08,-75092,0,2.2833e+08,5.1368e+05,12162,12879,1,12879,1,0.0025972,1.614e-05,0,0.0025972,-4.0014e-05,3.0081e+08,2.2316e+06,0,3.0081e+08,1.0825e+06,12878,12168,1,12168,1,0.0013924,-1.3534e-07,0,0.0013924,-0.00025612,2.5902e+08,-29940,0,2.5903e+08,5.4042e+05,12167,11473,1,11473,1,0.00023066,-1.7406e-05,0,0.00023067,-0.00048215,6.8279e+07,-2.4273e+06,0,6.8281e+07,5296.6,11472,11820,1,11820,1,0.00077842,-4.612e-06,0,0.00077844,-0.00037157,1.9152e+08,-6.8854e+05,0,1.9153e+08,1.5985e+05,11819,12516,1,12516,1,0.0020077,3.4793e-06,0,0.0020077,-0.00014139,2.7412e+08,5.0809e+05,0,2.7412e+08,8.1794e+05,12515,412.9,0,412.9,0,0.00071255,7.0099e-06,0,0.00071256,0.00013347,6.4666e+07,9.9655e+05,0,6.4666e+07,3.4741e+05,412.9,1
816,6.33,12163,1,12163,1,0.0014327,-6.2444e-07,0,0.0014327,-0.00026338,2.2818e+08,-89177,0,2.2818e+08,6.1114e+05,12162,12879,1,12879,1,0.0026483,1.9657e-05,0,0.0026483,-4.1445e-05,2.9781e+08,2.6712e+06,0,2.9781e+08,1.3364e+06,12878,12168,1,12168,1,0.0014166,-1.8258e-07,0,0.0014166,-0.00026024,2.5911e+08,-38155,0,2.5911e+08,6.2525e+05,12167,11473,1,11473,1,0.00023891,-2.0963e-05,0,0.00023892,-0.00049155,7.0352e+07,-2.8784e+06,0,7.0355e+07,5537.1,11472,11820,1,11820,1,0.00079541,-5.7521e-06,0,0.00079543,-0.00037726,1.9365e+08,-8.4564e+05,0,1.9365e+08,1.9553e+05,11819,12516,1,12516,1,0.0020394,4.3127e-06,0,0.0020394,-0.00014409,2.7159e+08,6.2293e+05,0,2.7159e+08,9.713e+05,12515,412.9,0,412.9,0,0.00072204,8.6333e-06,0,0.00072205,0.00013539,6.2587e+07,1.2036e+06,0,6.2588e+07,4.2069e+05,412.9,1
816,6.34,12163,1,12163,1,0.0014638,-7.4938e-07,0,0.0014638,-0.00026869,2.2797e+08,-1.0509e+05,0,2.2798e+08,7.3003e+05,12162,12879,1,12879,1,0.0027087,2.4086e-05,0,0.0027087,-4.3065e-05,2.9455e+08,3.212e+06,0,2.9455e+08,1.6654e+06,12878,12168,1,12168,1,0.001444,-2.3004e-07,0,0.001444,-0.00026487,2.5914e+08,-46404,0,2.5915e+08,7.0789e+05,12167,11473,1,11473,1,0.00024786,-2.5368e-05,0,0.00024787,-0.00050267,7.257e+07,-3.4257e+06,0,7.2573e+07,5775.2,11472,11820,1,11820,1,0.00081464,-7.3502e-06,0,0.00081467,-0.00038368,1.9599e+08,-1.0395e+06,0,1.9599e+08,2.3908e+05,11819,12516,1,12516,1,0.0020753,5.4049e-06,0,0.0020754,-0.00014712,2.6894e+08,7.7202e+05,0,2.6894e+08,1.1675e+06,12515,412.9,0,412.9,0,0.00073303,1.0731e-05,0,0.00073304,0.00013762,6.0269e+07,1.4632e+06,0,6.0271e+07,5.1533e+05,412.9,1
816,6.35,12163,1,12163,1,0.0014998,-9.3523e-07,0,0.0014999,-0.00027483,2.277e+08,-1.294e+05,0,2.277e+08,8.7584e+05,12162,12879,1,12879,1,0.0027814,2.9701e-05,0,0.0027814,-4.4955e-05,2.9102e+08,3.8793e+06,0,2.9102e+08,2.0972e+06,12878,12168,1,12168,1,0.0014753,-3.314e-07,0,0.0014754,-0.00027014,2.5912e+08,-64011,0,2.5914e+08,8.2237e+05,12167,11473,1,11473,1,0.00025758,-3.0886e-05,0,0.0002576,-0.00051605,7.495e+07,-4.099e+06,0,7.4954e+07,5299.1,11472,11820,1,11820,1,0.00083667,-9.4302e-06,0,0.00083671,-0.00039136,1.986e+08,-1.3077e+06,0,1.9861e+08,2.8703e+05,11819,12516,1,12516,1,0.0021226,6.9858e-06,0,0.0021226,-0.00015057,2.6579e+08,9.6415e+05,0,2.658e+08,1.4075e+06,12515,412.9,0,412.9,0,0.00074592,1.3485e-05,0,0.00074594,0.00014025,5.7663e+07,1.7932e+06,0,5.7666e+07,6.4022e+05,412.9,1
816,6.36,12163,1,12163,1,0.0015423,-1.141e-06,0,0.0015424,-0.00028199,2.2733e+08,-1.5476e+05,0,2.2734e+08,1.0563e+06,12162,12879,1,12879,1,0.0028709,3.6957e-05,0,0.0028709,-4.7216e-05,2.8713e+08,4.7217e+06,0,2.8713e+08,2.6715e+06,12878,12168,1,12168,1,0.0015118,-4.4615e-07,0,0.0015119,-0.00027618,2.5778e+08,-86384,0,2.5778e+08,9.1429e+05,12167,11473,1,11473,1,0.00026827,-3.7777e-05,0,0.0002683,-0.00053254,7.7521e+07,-4.9226e+06,0,7.7527e+07,4449.3,11472,11820,1,11820,1,0.00086228,-1.2237e-05,0,0.00086234,-0.00040367,2.0154e+08,-1.6451e+06,0,2.0155e+08,3.3385e+05,11819,12516,1,12516,1,0.0021903,9.2186e-06,0,0.0021903,-0.00015441,2.629e+08,1.2261e+06,0,2.6292e+08,1.6879e+06,12515,412.9,0,412.9,0,0.00076138,1.7168e-05,0,0.00076139,0.00014342,5.4722e+07,2.2181e+06,0,5.4726e+07,8.0951e+05,412.9,1
816,6.37,12163,1,12163,1,0.0015934,-1.412e-06,0,0.0015936,-0.0002904,2.2683e+08,-1.8786e+05,0,2.2684e+08,1.2796e+06,12162,12879,1,12879,1,0.0029844,4.6335e-05,0,0.0029844,-5.0017e-05,2.8284e+08,5.779e+06,0,2.8284e+08,3.4555e+06,12878,12168,1,12168,1,0.0015758,-6.2133e-07,0,0.0015758,-0.00028283,2.5385e+08,-1.1759e+05,0,2.5389e+08,1.0546e+06,12167,11473,1,11473,1,0.00028017,-4.653e-05,0,0.00028021,-0.00055344,8.0333e+07,-5.9351e+06,0,8.0341e+07,2483.3,11472,11820,1,11820,1,0.00089266,-1.6364e-05,0,0.00089276,-0.00041729,2.0491e+08,-2.077e+06,0,2.0492e+08,3.2561e+05,11819,12516,1,12516,1,0.0022697,1.1962e-05,0,0.0022698,-0.00015866,2.6042e+08,1.5618e+06,0,2.6044e+08,2.1189e+06,12515,412.9,0,412.9,0,0.0007804,2.2161e-05,0,0.00078042,0.0001474,5.1384e+07,2.7683e+06,0,5.139e+07,1.0443e+06,412.9,1
816,6.38,12163,1,12163,1,0.0016561,-1.771e-06,0,0.0016564,-0.00030048,2.2614e+08,-2.31e+05,0,2.2617e+08,1.5581e+06,12162,12879,1,12879,1,0.0031329,5.87e-05,0,0.0031329,-5.3622e-05,2.7804e+08,7.1232e+06,0,2.7804e+08,4.5571e+06,12878,12168,1,12168,1,0.0016475,-9.1756e-07,0,0.0016477,-0.00029379,2.4923e+08,-1.649e+05,0,2.4924e+08,1.1745e+06,12167,11473,1,11473,1,0.00029355,-5.8767e-05,0,0.00029361,-0.0005808,8.3433e+07,-7.1907e+06,0,8.3443e+07,-1.275e+05,11472,11820,1,11820,1,0.00093512,-2.2291e-05,0,0.00093512,-0.00043319,2.0882e+08,-2.6313e+06,0,2.0885e+08,3.2362e+05,11819,12516,1,12516,1,0.0023536,1.5636e-05,0,0.0023539,-0.00016363,2.5749e+08,2.0392e+06,0,2.5751e+08,2.6214e+06,12515,412.9,0,412.9,0,0.00080455,2.9129e-05,0,0.0008046,0.00015246,4.7581e+07,3.4954e+06,0,4.7592e+07,1.3805e+06,412.9,1
816,6.39,12163,1,12163,1,0.0017355,-2.2099e-06,0,0.0017359,-0.00031291,2.2519e+08,-2.8311e+05,0,2.2523e+08,1.9068e+06,12162,12879,1,12879,1,0.0033359,7.6547e-05,0,0.0033359,-5.8336e-05,2.7255e+08,8.8491e+06,0,2.7256e+08,6.1348e+06,12878,12168,1,12168,1,0.0017334,-1.4436e-06,0,0.0017342,-0.00030645,2.4321e+08,-2.2948e+05,0,2.4327e+08,1.3209e+06,12167,11473,1,11473,1,0.00030867,-7.6591e-05,0,0.00030874,-0.0006182,8.6883e+07,-8.8487e+06,0,8.6897e+07,-8.113e+05,11472,11820,1,11820,1,0.0010045,-2.976e-05,0,0.0010045,-0.00045014,2.1553e+08,-3.484e+06,0,2.1553e+08,2.4682e+05,11819,12516,1,12516,1,0.0024426,2.2522e-05,0,0.0024434,-0.00016953,2.5407e+08,2.7103e+06,0,2.5411e+08,3.2594e+06,12515,412.9,0,412.9,0,0.00083672,3.9158e-05,0,0.0008368,0.00015908,4.3305e+07,4.4728e+06,0,4.3324e+07,1.8766e+06,412.9,1
816,6.4,12163,1,12163,1,0.0018397,-2.8016e-06,0,0.0018404,-0.00032877,2.2378e+08,-3.5199e+05,0,2.2385e+08,2.347e+06,12162,12879,1,12879,1,0.0036291,0.00010399,0,0.0036291,-6.4743e-05,2.6613e+08,1.1161e+07,0,2.6613e+08,8.4607e+06,12878,12168,1,12168,1,0.0018209,-2.3535e-06,0,0.0018233,-0.00032249,2.3786e+08,-3.1993e+05,0,2.3791e+08,1.4912e+06,12167,11473,1,11473,1,0.00032632,-0.00010408,0,0.0003264,-0.00067226,9.0751e+07,-1.1167e+07,0,9.0769e+07,-1.9284e+06,11472,11820,1,11820,1,0.0010852,-4.252e-05,0,0.0010853,-0.0004656,2.1831e+08,-4.7213e+06,0,2.1832e+08,1.5205e+05,11819,12516,1,12516,1,0.002568,3.3931e-05,0,0.0025693,-0.00017668,2.5064e+08,3.6776e+06,0,2.5084e+08,4.2227e+06,12515,412.9,0,412.9,0,0.00088238,5.4272e-05,0,0.00088251,0.00016816,3.8689e+07,5.8223e+06,0,3.8724e+07,2.6343e+06,412.9,1
816,6.41,12163,1,12163,1,0.0019833,-3.5146e-06,0,0.0019847,-0.00034967,2.2163e+08,-4.3463e+05,0,2.2175e+08,2.9205e+06,12162,12879,1,12879,1,0.0040857,0.0001495,0,0.0040857,-6.789e-05,2.6241e+08,1.4539e+07,0,2.6241e+08,1.203e+07,12878,12168,1,12168,1,0.0019399,-3.8678e-06,0,0.00194,-0.00034005,2.3165e+08,-4.6678e+05,0,2.3187e+08,1.6299e+06,12167,11473,1,11473,1,0.00034746,-0.00014933,0,0.00034757,-0.00075654,9.521e+07,-1.4506e+07,0,9.5231e+07,-3.6951e+06,11472,11820,1,11820,1,0.0011862,-6.393e-05,0,0.0011877,-0.00049166,2.0706e+08,-6.5455e+06,0,2.0706e+08,60347,11819,12516,1,12516,1,0.0027161,5.2746e-05,0,0.0027199,-0.00018632,2.4749e+08,4.9785e+06,0,2.4788e+08,5.4658e+06,12515,412.9,0,412.9,0,0.00095359,7.858e-05,0,0.00095382,0.00018149,3.4507e+07,7.7535e+06,0,3.4572e+07,3.8246e+06,412.9,1
816,6.42,12163,1,12163,1,0.0021942,-4.6307e-06,0,0.0021973,-0.00037817,2.1811e+08,-5.6202e+05,0,2.1835e+08,3.657e+06,12162,12879,1,12879,1,0.0048753,0.00023419,0,0.0048753,-6.9553e-05,2.6938e+08,1.9535e+07,0,2.6938e+08,1.7807e+07,12878,12168,1,12168,1,0.002105,-6.7167e-06,0,0.0021124,-0.00035932,2.257e+08,-6.6367e+05,0,2.2604e+08,1.7178e+06,12167,11473,1,11473,1,0.00037299,-0.00023436,0,0.0003731,-0.00090248,1.0038e+08,-1.954e+07,0,1.004e+08,-6.7367e+06,11472,11820,1,11820,1,0.0012906,-9.9783e-05,0,0.0012926,-0.00051409,1.9638e+08,-9.1088e+06,0,1.9654e+08,-92743,11819,12516,1,12516,1,0.0029334,8.3569e-05,0,0.0029397,-0.00020011,2.4333e+08,6.9774e+06,0,2.4394e+08,7.2233e+06,12515,412.9,0,412.9,0,0.0010801,0.00012103,0,0.0010805,0.0002031,3.3328e+07,1.0606e+07,0,3.3438e+07,5.7685e+06,412.9,1
816,6.43,12163,1,12163,1,0.0025312,-6.035e-06,0,0.0025389,-0.00041708,2.1188e+08,-7.2782e+05,0,2.1239e+08,4.6244e+06,12162,12879,1,12879,1,0.0064678,0.00042007,0,0.0064678,-6.7613e-05,2.8388e+08,2.7406e+07,0,2.8388e+08,2.7512e+07,12878,12168,1,12168,1,0.0022911,-8.3983e-06,0,0.0023099,-0.00036835,2.1718e+08,-8.3331e+05,0,2.1783e+08,1.7319e+06,12167,11473,1,11473,1,0.00040433,-0.00041972,0,0.0004044,-0.0011966,1.0637e+08,-2.7423e+07,0,1.0638e+08,-1.1472e+07,11472,11820,1,11820,1,0.0014837,-0.00016248,0,0.0014877,-0.00054147,1.8448e+08,-1.3252e+07,0,1.8498e+08,-7.297e+05,11819,12516,1,12516,1,0.0032986,0.00014424,0,0.0033017,-0.00022829,2.4249e+08,1.049e+07,0,2.4315e+08,9.8278e+06,12515,412.9,0,412.9,0,0.0013479,0.00020575,0,0.001349,0.00024365,4.0511e+07,1.5027e+07,0,4.0648e+07,9.0328e+06,412.9,1
816,6.44,12163,1,12163,1,0.0031259,-7.9121e-06,0,0.0031496,-0.00046141,1.9944e+08,-9.5533e+05,0,2.0061e+08,5.8973e+06,12162,12879,1,12879,1,0.010504,0.00092605,0,0.010504,-5.7029e-05,3.1409e+08,4.0049e+07,0,3.1409e+08,4.3584e+07,12878,12168,1,12168,1,0.0024947,-1.3744e-05,0,0.0025149,-0.0003727,2.0301e+08,-1.1457e+06,0,2.0482e+08,2.0507e+06,12167,11473,1,11473,1,0.0004416,-0.00092485,0,0.00044162,-0.0019366,7.2423e+07,-4.0066e+07,0,7.2423e+07,-1.9095e+07,11472,11820,1,11820,1,0.0017205,-0.00026802,0,0.0017354,-0.0005371,1.5718e+08,-1.8641e+07,0,1.5901e+08,-2.0756e+06,11819,12516,1,12516,1,0.0039138,0.00027221,0,0.0039679,-0.0002547,2.4332e+08,1.6948e+07,0,2.4544e+08,1.3463e+07,12515,412.9,0,412.9,0,0.0020395,0.00040708,0,0.0020437,0.00033221,5.9907e+07,2.1908e+07,0,6.0007e+07,1.4262e+07,412.9,1
816,6.4401,12163,1,12163,1,0.0042639,-1.0084e-05,0,0.0043535,-0.00043775,1.7215e+08,-1.24e+06,0,1.7493e+08,7.3468e+06,12162,12879,1,12879,1,0.024635,0.0028161,0,0.024636,-4.628e-05,3.6718e+08,5.7484e+07,0,3.6718e+08,6.3384e+07,12878,12168,1,12168,1,0.0026378,-6.3963e-05,0,0.0027342,-0.00028081,1.6953e+08,-2.4669e+06,0,1.7337e+08,1.9112e+06,12167,11473,1,11473,1,0.0004763,-0.0028131,0,0.00047635,-0.0044035,2.1673e+07,-5.7419e+07,0,2.1673e+07,-3.1131e+07,11472,11820,1,11820,1,0.0018074,-0.00050037,0,0.0018568,-0.00035554,1.0848e+08,-2.729e+07,0,1.1187e+08,-3.643e+06,11819,12516,1,12516,1,0.0049787,0.00050702,0,0.0050699,-0.0002474,2.2941e+08,2.4316e+07,0,2.3281e+08,1.8896e+07,12515,412.9,0,412.9,0,0.0041865,0.00098209,0,0.0042094,0.00055033,8.5667e+07,3.1208e+07,0,8.573e+07,2.0475e+07,412.9,1
