"N","Time","avg(GlobalElementId)","avg(ObjectId)","avg(PedigreeElementId)","avg(alpha)","avg(strain_x (0))","avg(strain_x (1))","avg(strain_x (2))","avg(strain_x (Magnitude))","avg(strain_yy)","avg(stress_x (0))","avg(stress_x (1))","avg(stress_x (2))","avg(stress_x (Magnitude))","avg(stress_yy)","avg(vtkOriginalCellIds)","max(GlobalElementId)","max(ObjectId)","max(PedigreeElementId)","max(alpha)","max(strain_x (0))","max(strain_x (1))","max(strain_x (2))","max(strain_x (Magnitude))","max(strain_yy)","max(stress_x (0))","max(stress_x (1))","max(stress_x (2))","max(stress_x (Magnitude))","max(stress_yy)","max(vtkOriginalCellIds)","med(GlobalElementId)","med(ObjectId)","med(PedigreeElementId)","med(alpha)","med(strain_x (0))","med(strain_x (1))","med(strain_x (2))","med(strain_x (Magnitude))","med(strain_yy)","med(stress_x (0))","med(stress_x (1))","med(stress_x (2))","med(stress_x (Magnitude))","med(stress_yy)","med(vtkOriginalCellIds)","min(GlobalElementId)","min(ObjectId)","min(PedigreeElementId)","min(alpha)","min(strain_x (0))","min(strain_x (1))","min(strain_x (2))","min(strain_x (Magnitude))","min(strain_yy)","min(stress_x (0))","min(stress_x (1))","min(stress_x (2))","min(stress_x (Magnitude))","min(stress_yy)","min(vtkOriginalCellIds)","q1(GlobalElementId)","q1(ObjectId)","q1(PedigreeElementId)","q1(alpha)","q1(strain_x (0))","q1(strain_x (1))","q1(strain_x (2))","q1(strain_x (Magnitude))","q1(strain_yy)","q1(stress_x (0))","q1(stress_x (1))","q1(stress_x (2))","q1(stress_x (Magnitude))","q1(stress_yy)","q1(vtkOriginalCellIds)","q3(GlobalElementId)","q3(ObjectId)","q3(PedigreeElementId)","q3(alpha)","q3(strain_x (0))","q3(strain_x (1))","q3(strain_x (2))","q3(strain_x (Magnitude))","q3(strain_yy)","q3(stress_x (0))","q3(stress_x (1))","q3(stress_x (2))","q3(stress_x (Magnitude))","q3(stress_yy)","q3(vtkOriginalCellIds)","std(GlobalElementId)","std(ObjectId)","std(PedigreeElementId)","std(alpha)","std(strain_x (0))","std(strain_x (1))","std(strain_x (2))","std(strain_x (Magnitude))","std(strain_yy)","std(stress_x (0))","std(stress_x (1))","std(stress_x (2))","std(stress_x (Magnitude))","std(stress_yy)","std(vtkOriginalCellIds)","vtkValidPointMask"
825,0,12164,1,12164,1,0,0,0,0,0,0,0,0,0,0,12163,12984,1,12984,1,0,0,0,0,0,0,0,0,0,0,12983,12171,1,12171,1,0,0,0,0,0,0,0,0,0,0,12170,11369,1,11369,1,0,0,0,0,0,0,0,0,0,0,11368,11756,1,11756,1,0,0,0,0,0,0,0,0,0,0,11755,12533,1,12533,1,0,0,0,0,0,0,0,0,0,0,12532,446.74,0,446.74,0,0,0,0,0,0,0,0,0,0,0,446.74,1
825,0.01,12164,1,12164,1,1.2154e-06,-4.0888e-09,0,1.229e-06,-2.2745e-07,4.1301e+05,-1190.8,0,4.1859e+05,-260.39,12163,12984,1,12984,1,2.9022e-06,1.9877e-08,0,2.9022e-06,2.8527e-08,9.765e+05,5623.2,0,9.7652e+05,9869.2,12983,12171,1,12171,1,1.1993e-06,-9.1727e-10,0,1.1994e-06,-2.2272e-07,4.1171e+05,-267.85,0,4.1172e+05,-86.591,12170,11369,1,11369,1,-1.2352e-07,-5.6888e-08,0,4.3962e-08,-5.4201e-07,-50045,-16118,0,16821,-12017,11368,11756,1,11756,1,4.6601e-07,-8.6761e-09,0,4.6602e-07,-3.6503e-07,1.6327e+05,-2548.2,0,1.6328e+05,-720.72,11755,12533,1,12533,1,1.9502e-06,2.6336e-09,0,1.9502e-06,-9.9729e-08,6.5851e+05,787.49,0,6.5851e+05,1692.5,12532,446.74,0,446.74,0,8.1539e-07,1.13e-08,0,7.9482e-07,1.5099e-07,2.7396e+05,3299.2,0,2.6536e+05,4116.8,446.74,1
825,0.02,12164,1,12164,1,2.8796e-06,3.6033e-10,0,2.8796e-06,-5.4273e-07,9.8034e+05,104.91,0,9.8034e+05,-1824.2,12163,12984,1,12984,1,5.7334e-06,1.7331e-08,0,5.7334e-06,-7.6977e-09,1.9271e+06,5218.5,0,1.9271e+06,54.174,12983,12171,1,12171,1,2.8798e-06,8.2241e-10,0,2.8798e-06,-5.4351e-07,9.8782e+05,242.42,0,9.8782e+05,-1144.7,12170,11369,1,11369,1,4.3655e-08,-1.9136e-08,0,4.3656e-08,-1.0735e-06,13920,-5761.8,0,13920,-6876.1,11368,11756,1,11756,1,1.2638e-06,-8.3689e-10,0,1.2638e-06,-8.4328e-07,4.4604e+05,-248.18,0,4.4604e+05,-2681.2,11755,12533,1,12533,1,4.4897e-06,3.5652e-09,0,4.4897e-06,-2.473e-07,1.5156e+06,1044.1,0,1.5156e+06,-586.41,12532,446.74,0,446.74,0,1.7495e-06,5.7598e-09,0,1.7495e-06,3.2602e-07,5.8449e+05,1722.4,0,5.8448e+05,1678,446.74,1
825,0.03,12164,1,12164,1,4.307e-06,-1.7151e-09,0,4.307e-06,-8.0603e-07,1.4667e+06,-510.26,0,1.4667e+06,-492.35,12163,12984,1,12984,1,8.5584e-06,7.358e-09,0,8.5584e-06,-1.1455e-08,2.8766e+06,2239.8,0,2.8766e+06,96.771,12983,12171,1,12171,1,4.3058e-06,-8.9325e-10,0,4.3058e-06,-8.0509e-07,1.4772e+06,-258.99,0,1.4772e+06,-191.32,12170,11369,1,11369,1,7.1091e-08,-1.4903e-08,0,7.1297e-08,-1.6017e-06,22881,-4537.5,0,22945,-3980.2,11368,11756,1,11756,1,1.8885e-06,-3.6991e-09,0,1.8885e-06,-1.2577e-06,6.6655e+05,-1080.5,0,6.6655e+05,-438.2,11755,12533,1,12533,1,6.722e-06,4.8378e-10,0,6.722e-06,-3.5531e-07,2.2694e+06,138.67,0,2.2694e+06,-95.209,12532,446.74,0,446.74,0,2.6151e-06,3.3881e-09,0,2.6151e-06,4.8896e-07,8.7351e+05,1018.1,0,8.735e+05,750.29,446.74,1
825,0.04,12164,1,12164,1,5.7795e-06,-2.742e-10,0,5.7795e-06,-1.0803e-06,1.9682e+06,-81.503,0,1.9682e+06,-153.46,12163,12984,1,12984,1,1.1466e-05,4.0572e-09,0,1.1466e-05,-1.5153e-08,3.8538e+06,1235,0,3.8538e+06,23.657,12983,12171,1,12171,1,5.7794e-06,-2.3337e-10,0,5.7794e-06,-1.08e-06,1.9828e+06,-67.8,0,1.9828e+06,-23.152,12170,11369,1,11369,1,9.6799e-08,-2.2254e-09,0,9.6801e-08,-2.1457e-06,31276,-677.32,0,31279,-2743.2,11368,11756,1,11756,1,2.5331e-06,-5.7198e-10,0,2.5331e-06,-1.6882e-06,8.944e+05,-170.55,0,8.944e+05,-152.04,11755,12533,1,12533,1,9.025e-06,6.3608e-11,0,9.025e-06,-4.723e-07,3.047e+06,18.051,0,3.047e+06,-0.34538,12532,446.74,0,446.74,0,3.509e-06,6.2717e-10,0,3.509e-06,6.5724e-07,1.172e+06,189.55,0,1.172e+06,361.62,446.74,1
825,0.05,12164,1,12164,1,7.2173e-06,-2.4763e-09,0,7.2173e-06,-1.3489e-06,2.4579e+06,-733.85,0,2.4579e+06,-122.41,12163,12984,1,12984,1,1.4336e-05,1.3278e-09,0,1.4336e-05,-1.867e-08,4.8185e+06,375.93,0,4.8185e+06,122.72,12983,12171,1,12171,1,7.2167e-06,-2.7001e-09,0,7.2167e-06,-1.3482e-06,2.476e+06,-783.06,0,2.476e+06,-30.221,12170,11369,1,11369,1,1.2122e-07,-7.6545e-09,0,1.2122e-07,-2.6829e-06,39687,-2329.4,0,39702,-1937.4,11368,11756,1,11756,1,3.165e-06,-3.8741e-09,0,3.165e-06,-2.1068e-06,1.1175e+06,-1141.1,0,1.1175e+06,-169.29,11755,12533,1,12533,1,1.1263e-05,-1.1278e-09,0,1.1263e-05,-5.8951e-07,3.8026e+06,-322.35,0,3.8026e+06,13.821,12532,446.74,0,446.74,0,4.3819e-06,1.8343e-09,0,4.3819e-06,8.209e-07,1.4636e+06,549.98,0,1.4635e+06,269.47,446.74,1
825,0.06,12164,1,12164,1,8.6637e-06,-1.1945e-09,0,8.6637e-06,-1.619e-06,2.9505e+06,-352.2,0,2.9505e+06,-76.031,12163,12984,1,12984,1,1.7189e-05,9.4448e-10,0,1.7189e-05,-2.2712e-08,5.7775e+06,298.42,0,5.7775e+06,45.541,12983,12171,1,12171,1,8.663e-06,-7.6117e-10,0,8.663e-06,-1.6187e-06,2.9722e+06,-223.89,0,2.9722e+06,-43.689,12170,11369,1,11369,1,1.4545e-07,-5.1398e-09,0,1.4545e-07,-3.2167e-06,47617,-1624.1,0,47618,-794.74,11368,11756,1,11756,1,3.7968e-06,-1.9102e-09,0,3.7968e-06,-2.5307e-06,1.3406e+06,-559.4,0,1.3406e+06,-71.972,11755,12533,1,12533,1,1.3529e-05,-2.5403e-10,0,1.3529e-05,-7.0717e-07,4.5677e+06,-73.793,0,4.5677e+06,-19.548,12532,446.74,0,446.74,0,5.2604e-06,1.1997e-09,0,5.2604e-06,9.8567e-07,1.7569e+06,360.91,0,1.7569e+06,116.38,446.74,1
825,0.07,12164,1,12164,1,1.0099e-05,-2.8091e-09,0,1.0099e-05,-1.8873e-06,3.4391e+06,-831.97,0,3.4391e+06,-153.8,12163,12984,1,12984,1,2.0056e-05,3.2437e-09,0,2.0056e-05,-2.6159e-08,6.7412e+06,987.4,0,6.7412e+06,131.01,12983,12171,1,12171,1,1.0097e-05,-2.3827e-09,0,1.0097e-05,-1.8866e-06,3.4641e+06,-687.21,0,3.4641e+06,-80.676,12170,11369,1,11369,1,1.699e-07,-9.0879e-09,0,1.6992e-07,-3.7535e-06,55669,-2870.9,0,55672,-2203.9,11368,11756,1,11756,1,4.428e-06,-5.2979e-09,0,4.428e-06,-2.9484e-06,1.5635e+06,-1549.3,0,1.5635e+06,-209.37,11755,12533,1,12533,1,1.5761e-05,-8.3894e-11,0,1.5761e-05,-8.2479e-07,5.3213e+06,-23.762,0,5.3213e+06,-21.1,12532,446.74,0,446.74,0,6.1313e-06,2.9361e-09,0,6.1312e-06,1.1487e-06,2.0478e+06,880.22,0,2.0478e+06,234.22,446.74,1
825,0.08,12164,1,12164,1,1.1552e-05,-2.7923e-09,0,1.1552e-05,-2.1585e-06,3.9341e+06,-827.35,0,3.9341e+06,-11.612,12163,12984,1,12984,1,2.2933e-05,1.2772e-09,0,2.2933e-05,-3.0187e-08,7.708e+06,361.6,0,7.708e+06,107.15,12983,12171,1,12171,1,1.1551e-05,-3.1996e-09,0,1.1551e-05,-2.1582e-06,3.9632e+06,-926.56,0,3.9632e+06,23.126,12170,11369,1,11369,1,1.9551e-07,-5.8697e-09,0,1.9555e-07,-4.2918e-06,64153,-1854.3,0,64155,-722.24,11368,11756,1,11756,1,5.0651e-06,-4.2119e-09,0,5.0651e-06,-3.3727e-06,1.7885e+06,-1252.8,0,1.7885e+06,-8.0175,11755,12533,1,12533,1,1.8032e-05,-1.4537e-09,0,1.8032e-05,-9.4283e-07,6.0879e+06,-413.48,0,6.0879e+06,41.274,12532,446.74,0,446.74,0,7.0133e-06,1.7981e-09,0,7.0133e-06,1.3143e-06,2.3424e+06,541.78,0,2.3424e+06,112.88,446.74,1
825,0.09,12164,1,12164,1,1.3017e-05,-2.7716e-09,0,1.3017e-05,-2.4325e-06,4.433e+06,-820.33,0,4.433e+06,-112.67,12163,12984,1,12984,1,2.5835e-05,7.7025e-10,0,2.5835e-05,-3.4181e-08,8.6834e+06,218.07,0,8.6834e+06,44.997,12983,12171,1,12171,1,1.3017e-05,-3.194e-09,0,1.3017e-05,-2.432e-06,4.4658e+06,-925.14,0,4.4658e+06,-33.461,12170,11369,1,11369,1,2.196e-07,-5.9872e-09,0,2.1961e-07,-4.8349e-06,71965,-1891.5,0,71968,-911.04,11368,11756,1,11756,1,5.7069e-06,-4.1592e-09,0,5.7069e-06,-3.8011e-06,2.0151e+06,-1239.2,0,2.0151e+06,-119.68,11755,12533,1,12533,1,2.0321e-05,-1.5019e-09,0,2.0321e-05,-1.0625e-06,6.8606e+06,-427.2,0,6.8606e+06,-9.6757,12532,446.74,0,446.74,0,7.9029e-06,1.6949e-09,0,7.9028e-06,1.4808e-06,2.6395e+06,511.13,0,2.6395e+06,193.68,446.74,1
825,0.1,12164,1,12164,1,1.4416e-05,-1.4448e-09,0,1.4416e-05,-2.6939e-06,4.9095e+06,-429.02,0,4.9095e+06,-108.02,12163,12984,1,12984,1,2.8606e-05,4.0872e-09,0,2.8606e-05,-3.7873e-08,9.6148e+06,1291.1,0,9.6148e+06,49.349,12983,12171,1,12171,1,1.4415e-05,-1.1825e-09,0,1.4415e-05,-2.6934e-06,4.9456e+06,-343.03,0,4.9456e+06,-55.62,12170,11369,1,11369,1,2.4316e-07,-7.6078e-09,0,2.4319e-07,-5.3533e-06,79676,-2404.3,0,79686,-876.45,11368,11756,1,11756,1,6.319e-06,-2.9235e-09,0,6.319e-06,-4.2103e-06,2.2312e+06,-849.81,0,2.2312e+06,-111.91,11755,12533,1,12533,1,2.2509e-05,1.8395e-10,0,2.2509e-05,-1.1767e-06,7.5992e+06,52.411,0,7.5992e+06,-25.73,12532,446.74,0,446.74,0,8.7524e-06,2.0496e-09,0,8.7524e-06,1.64e-06,2.9232e+06,615.89,0,2.9232e+06,167.78,446.74,1
825,0.11,12164,1,12164,1,1.5897e-05,-1.0067e-09,0,1.5897e-05,-2.9707e-06,5.4138e+06,-298.63,0,5.4138e+06,-107.68,12163,12984,1,12984,1,3.1537e-05,3.8111e-09,0,3.1537e-05,-4.1712e-08,1.06e+07,1204.3,0,1.06e+07,45.736,12983,12171,1,12171,1,1.5896e-05,-5.9885e-10,0,1.5896e-05,-2.9702e-06,5.4537e+06,-172.24,0,5.4537e+06,-53.156,12170,11369,1,11369,1,2.6848e-07,-6.0996e-09,0,2.6851e-07,-5.9018e-06,87991,-1926.7,0,88000,-904.12,11368,11756,1,11756,1,6.9674e-06,-2.215e-09,0,6.9674e-06,-4.6434e-06,2.4601e+06,-644.67,0,2.4601e+06,-109.37,11755,12533,1,12533,1,2.4824e-05,2.4738e-10,0,2.4824e-05,-1.2975e-06,8.381e+06,71.62,0,8.381e+06,-23.993,12532,446.74,0,446.74,0,9.6515e-06,1.8238e-09,0,9.6515e-06,1.8085e-06,3.2235e+06,547.49,0,3.2235e+06,175.65,446.74,1
825,0.12,12164,1,12164,1,1.7344e-05,-4.853e-09,0,1.7344e-05,-3.2408e-06,5.9066e+06,-1437.1,0,5.9066e+06,-29.73,12163,12984,1,12984,1,3.4428e-05,1.2595e-09,0,3.4428e-05,-4.512e-08,1.1572e+07,356.57,0,1.1572e+07,236.11,12983,12171,1,12171,1,1.7344e-05,-5.5855e-09,0,1.7344e-05,-3.2402e-06,5.9505e+06,-1623.2,0,5.9505e+06,11.861,12170,11369,1,11369,1,2.9293e-07,-9.96e-09,0,2.9295e-07,-6.4431e-06,96006,-3146.6,0,96012,-1069.1,11368,11756,1,11756,1,7.6043e-06,-7.305e-09,0,7.6043e-06,-5.0635e-06,2.685e+06,-2188,0,2.685e+06,-57.918,11755,12533,1,12533,1,2.7073e-05,-2.7301e-09,0,2.7073e-05,-1.4157e-06,9.1402e+06,-776.53,0,9.1402e+06,86.117,12532,446.74,0,446.74,0,1.053e-05,2.8963e-09,0,1.053e-05,1.9733e-06,3.5169e+06,876.1,0,3.5169e+06,215.44,446.74,1
825,0.13,12164,1,12164,1,1.8804e-05,3.2196e-10,0,1.8804e-05,-3.5137e-06,6.4037e+06,94.894,0,6.4037e+06,-87.819,12163,12984,1,12984,1,3.729e-05,2.5548e-09,0,3.729e-05,-4.9526e-08,1.2534e+07,806.98,0,1.2534e+07,22.102,12983,12171,1,12171,1,1.8804e-05,2.5231e-10,0,1.8804e-05,-3.5132e-06,6.4513e+06,73.244,0,6.4513e+06,-14.54,12170,11369,1,11369,1,3.1809e-07,-1.1389e-09,0,3.181e-07,-6.9785e-06,1.0428e+05,-359.81,0,1.0429e+05,-1060.6,11368,11756,1,11756,1,8.2407e-06,1.5075e-10,0,8.2407e-06,-5.4929e-06,2.9097e+06,43.205,0,2.9097e+06,-73.523,11755,12533,1,12533,1,2.9366e-05,4.9416e-10,0,2.9366e-05,-1.5345e-06,9.9144e+06,146.49,0,9.9144e+06,-0.78561,12532,446.74,0,446.74,0,1.1416e-05,3.6236e-10,0,1.1416e-05,2.1393e-06,3.8129e+06,112,0,3.8129e+06,202.05,446.74,1
825,0.14,12164,1,12164,1,2.023e-05,-1.6103e-09,0,2.023e-05,-3.7802e-06,6.8895e+06,-478,0,6.8895e+06,-63.535,12163,12984,1,12984,1,4.0135e-05,1.797e-09,0,4.0135e-05,-5.2959e-08,1.349e+07,567.37,0,1.349e+07,90.023,12983,12171,1,12171,1,2.0229e-05,-1.4578e-09,0,2.0229e-05,-3.7795e-06,6.9404e+06,-426.02,0,6.9404e+06,-18.252,12170,11369,1,11369,1,3.4199e-07,-6.2977e-09,0,3.4201e-07,-7.511e-06,1.1212e+05,-1989.5,0,1.1212e+05,-1132.2,11368,11756,1,11756,1,8.8668e-06,-2.7554e-09,0,8.8668e-06,-5.9087e-06,3.1308e+06,-809.79,0,3.1308e+06,-69.479,11755,12533,1,12533,1,3.1589e-05,-3.5453e-10,0,3.1589e-05,-1.6507e-06,1.0665e+07,-100.61,0,1.0665e+07,11.404,12532,446.74,0,446.74,0,1.2282e-05,1.5258e-09,0,1.2282e-05,2.3016e-06,4.1022e+06,459.95,0,4.1022e+06,181.05,446.74,1
825,0.15,12164,1,12164,1,2.1688e-05,9.055e-10,0,2.1688e-05,-4.0528e-06,7.3862e+06,267.84,0,7.3862e+06,-89.9,12163,12984,1,12984,1,4.3018e-05,5.3769e-09,0,4.3018e-05,-5.7077e-08,1.4459e+07,1698.6,0,1.4459e+07,32.738,12983,12171,1,12171,1,2.1688e-05,5.0543e-10,0,2.1688e-05,-4.0523e-06,7.4408e+06,148.05,0,7.4408e+06,-44.798,12170,11369,1,11369,1,3.6667e-07,-2.2944e-09,0,3.6669e-07,-8.0505e-06,1.2024e+05,-725.35,0,1.2024e+05,-1319.6,11368,11756,1,11756,1,9.5052e-06,2.0669e-11,0,9.5052e-06,-6.3354e-06,3.3562e+06,6.0023,0,3.3562e+06,-87.67,11755,12533,1,12533,1,3.387e-05,1.6148e-09,0,3.387e-05,-1.7699e-06,1.1435e+07,476.69,0,1.1435e+07,-20.318,12532,446.74,0,446.74,0,1.3168e-05,1.2283e-09,0,1.3168e-05,2.4676e-06,4.3979e+06,370.74,0,4.3979e+06,173.02,446.74,1
825,0.16,12164,1,12164,1,2.3148e-05,2.1332e-10,0,2.3148e-05,-4.3254e-06,7.8834e+06,63.145,0,7.8834e+06,-3.3015,12163,12984,1,12984,1,4.5907e-05,5.3564e-10,0,4.5907e-05,-6.0854e-08,1.543e+07,159.54,0,1.543e+07,11.564,12983,12171,1,12171,1,2.3148e-05,2.0906e-10,0,2.3148e-05,-4.325e-06,7.9419e+06,60.954,0,7.9419e+06,-3.264,12170,11369,1,11369,1,3.9172e-07,-7.135e-11,0,3.9172e-07,-8.5911e-06,1.2867e+05,-20.199,0,1.2867e+05,-16.846,11368,11756,1,11756,1,1.0145e-05,7.1499e-11,0,1.0145e-05,-6.7621e-06,3.582e+06,20.567,0,3.582e+06,-6.6068,11755,12533,1,12533,1,3.6151e-05,3.4923e-10,0,3.6151e-05,-1.8887e-06,1.2205e+07,103.11,0,1.2205e+07,0.25802,12532,446.74,0,446.74,0,1.4054e-05,1.655e-10,0,1.4054e-05,2.6339e-06,4.694e+06,49.468,0,4.694e+06,5.3651,446.74,1
825,0.17,12164,1,12164,1,2.4601e-05,-2.7391e-10,0,2.4601e-05,-4.5969e-06,8.3781e+06,-80.916,0,8.3781e+06,-32.506,12163,12984,1,12984,1,4.8787e-05,2.6283e-10,0,4.8787e-05,-6.4837e-08,1.6398e+07,78.612,0,1.6398e+07,101.6,12983,12171,1,12171,1,2.4601e-05,-2.2894e-10,0,2.4601e-05,-4.5964e-06,8.4403e+06,-66.753,0,8.4403e+06,-23.492,12170,11369,1,11369,1,4.1622e-07,-9.6615e-10,0,4.1622e-07,-9.1308e-06,1.3667e+05,-290.58,0,1.3667e+05,-289.68,11368,11756,1,11756,1,1.0781e-05,-4.7778e-10,0,1.0781e-05,-7.1864e-06,3.8068e+06,-142.32,0,3.8068e+06,-71.35,11755,12533,1,12533,1,3.842e-05,-5.4009e-11,0,3.842e-05,-2.0073e-06,1.2971e+07,-15.56,0,1.2971e+07,20.999,12532,446.74,0,446.74,0,1.4936e-05,2.8093e-10,0,1.4936e-05,2.7992e-06,4.9885e+06,83.716,0,4.9885e+06,74.518,446.74,1
825,0.18,12164,1,12164,1,2.6041e-05,-9.1361e-11,0,2.6041e-05,-4.8661e-06,8.8685e+06,-27.011,0,8.8685e+06,-108.14,12163,12984,1,12984,1,5.1642e-05,2.8859e-10,0,5.1642e-05,-6.8597e-08,1.7358e+07,83.408,0,1.7358e+07,270.86,12983,12171,1,12171,1,2.6041e-05,-1.0118e-10,0,2.6041e-05,-4.8656e-06,8.9343e+06,-29.05,0,8.9343e+06,-87.734,12170,11369,1,11369,1,4.4054e-07,-3.3058e-10,0,4.4054e-07,-9.6659e-06,1.4465e+05,-100.6,0,1.4465e+05,-683.47,11368,11756,1,11756,1,1.1412e-05,-1.5956e-10,0,1.1412e-05,-7.6072e-06,4.0295e+06,-47.159,0,4.0295e+06,-222.1,11755,12533,1,12533,1,4.0669e-05,-3.354e-11,0,4.0669e-05,-2.1253e-06,1.3731e+07,-9.7262,0,1.3731e+07,-14.557,12532,446.74,0,446.74,0,1.581e-05,9.6073e-11,0,1.581e-05,2.963e-06,5.2805e+06,28.602,0,5.2805e+06,147.85,446.74,1
825,0.19,12164,1,12164,1,2.7487e-05,-7.6857e-11,0,2.7487e-05,-5.1365e-06,9.361e+06,-22.201,0,9.361e+06,-162.11,12163,12984,1,12984,1,5.451e-05,5.8038e-10,0,5.451e-05,-7.2836e-08,1.8322e+07,176.58,0,1.8322e+07,174.55,12983,12171,1,12171,1,2.7487e-05,-5.391e-11,0,2.7487e-05,-5.136e-06,9.4305e+06,-15.785,0,9.4305e+06,-171.4,12170,11369,1,11369,1,4.6464e-07,-6.7962e-10,0,4.6464e-07,-1.0202e-05,1.5252e+05,-206.73,0,1.5252e+05,-562.89,11368,11756,1,11756,1,1.2046e-05,-2.3346e-10,0,1.2046e-05,-8.0298e-06,4.2533e+06,-67.482,0,4.2533e+06,-243.87,11755,12533,1,12533,1,4.2929e-05,5.4556e-11,0,4.2929e-05,-2.2432e-06,1.4493e+07,15.999,0,1.4493e+07,-86.539,12532,446.74,0,446.74,0,1.6689e-05,2.2476e-10,0,1.6689e-05,3.1276e-06,5.5738e+06,66.452,0,5.5738e+06,135.54,446.74,1
825,0.2,12164,1,12164,1,2.8933e-05,-5.1966e-11,0,2.8933e-05,-5.4064e-06,9.8534e+06,-15.018,0,9.8534e+06,-66.454,12163,12984,1,12984,1,5.7377e-05,6.4955e-10,0,5.7377e-05,-7.6456e-08,1.9285e+07,197.53,0,1.9285e+07,175.15,12983,12171,1,12171,1,2.8933e-05,-5.8781e-11,0,2.8933e-05,-5.4058e-06,9.9265e+06,-16.686,0,9.9265e+06,-62.408,12170,11369,1,11369,1,4.8938e-07,-5.7137e-10,0,4.8938e-07,-1.0738e-05,1.6069e+05,-173.82,0,1.6069e+05,-318.3,11368,11756,1,11756,1,1.268e-05,-1.9457e-10,0,1.268e-05,-8.4519e-06,4.4771e+06,-56.49,0,4.4771e+06,-145.13,11755,12533,1,12533,1,4.5186e-05,7.3328e-11,0,4.5186e-05,-2.3609e-06,1.5255e+07,21.346,0,1.5255e+07,5.9769,12532,446.74,0,446.74,0,1.7566e-05,2.1752e-10,0,1.7566e-05,3.292e-06,5.867e+06,65.041,0,5.867e+06,104.31,446.74,1
825,0.21,12164,1,12164,1,3.0386e-05,-3.771e-12,0,3.0386e-05,-5.6781e-06,1.0348e+07,-0.94754,0,1.0348e+07,-157.6,12163,12984,1,12984,1,6.0258e-05,4.1588e-10,0,6.0258e-05,-8.0328e-08,2.0254e+07,131.49,0,2.0254e+07,82.105,12983,12171,1,12171,1,3.0386e-05,6.4763e-12,0,3.0386e-05,-5.6776e-06,1.0425e+07,1.9367,0,1.0425e+07,-162.65,12170,11369,1,11369,1,5.1387e-07,-4.6501e-10,0,5.1387e-07,-1.1278e-05,1.6872e+05,-147.5,0,1.6872e+05,-507.43,11368,11756,1,11756,1,1.3316e-05,-8.0413e-11,0,1.3316e-05,-8.8766e-06,4.7019e+06,-23.254,0,4.7019e+06,-205.17,11755,12533,1,12533,1,4.7455e-05,8.7283e-11,0,4.7455e-05,-2.4796e-06,1.6022e+07,25.593,0,1.6022e+07,-92.845,12532,446.74,0,446.74,0,1.8448e-05,1.4041e-10,0,1.8448e-05,3.4574e-06,6.1616e+06,41.406,0,6.1616e+06,106.03,446.74,1
825,0.22,12164,1,12164,1,3.1826e-05,5.9521e-11,0,3.1826e-05,-5.9471e-06,1.0839e+07,17.567,0,1.0839e+07,-75.937,12163,12984,1,12984,1,6.3115e-05,8.8253e-10,0,6.3115e-05,-8.4067e-08,2.1214e+07,268.46,0,2.1214e+07,144.12,12983,12171,1,12171,1,3.1826e-05,4.5963e-13,0,3.1826e-05,-5.9466e-06,1.0919e+07,0.11639,0,1.0919e+07,-89.382,12170,11369,1,11369,1,5.3847e-07,-5.8518e-10,0,5.3847e-07,-1.1812e-05,1.7683e+05,-178.03,0,1.7683e+05,-257.02,11368,11756,1,11756,1,1.3948e-05,-7.4399e-11,0,1.3948e-05,-9.2972e-06,4.9248e+06,-21.76,0,4.9248e+06,-133.51,11755,12533,1,12533,1,4.9705e-05,1.9876e-10,0,4.9705e-05,-2.597e-06,1.6781e+07,57.403,0,1.6781e+07,-27.286,12532,446.74,0,446.74,0,1.9323e-05,2.3852e-10,0,1.9323e-05,3.6213e-06,6.4537e+06,71.346,0,6.4537e+06,84.287,446.74,1
825,0.23,12164,1,12164,1,3.3272e-05,-3.2438e-11,0,3.3272e-05,-6.2174e-06,1.1331e+07,-9.5041,0,1.1331e+07,-145.91,12163,12984,1,12984,1,6.5982e-05,9.5601e-10,0,6.5982e-05,-8.8073e-08,2.2178e+07,282.1,0,2.2178e+07,235.08,12983,12171,1,12171,1,3.3273e-05,-8.8214e-11,0,3.3273e-05,-6.2167e-06,1.1415e+07,-25.112,0,1.1415e+07,-171.26,12170,11369,1,11369,1,5.6183e-07,-8.5383e-10,0,5.6183e-07,-1.2349e-05,1.8441e+05,-259.84,0,1.8441e+05,-490.83,11368,11756,1,11756,1,1.4581e-05,-2.5214e-10,0,1.4581e-05,-9.7199e-06,5.1485e+06,-72.375,0,5.1485e+06,-241.24,11755,12533,1,12533,1,5.1963e-05,1.8137e-10,0,5.1963e-05,-2.7152e-06,1.7544e+07,52.136,0,1.7544e+07,-64.224,12532,446.74,0,446.74,0,2.0201e-05,3.7289e-10,0,2.0201e-05,3.7859e-06,6.747e+06,110.7,0,6.747e+06,133.68,446.74,1
825,0.24,12164,1,12164,1,3.472e-05,2.5902e-10,0,3.472e-05,-6.4878e-06,1.1824e+07,76.791,0,1.1824e+07,-109.14,12163,12984,1,12984,1,6.8855e-05,1.0623e-09,0,6.8855e-05,-9.1505e-08,2.3143e+07,319.45,0,2.3143e+07,151.09,12983,12171,1,12171,1,3.472e-05,2.0078e-10,0,3.472e-05,-6.4872e-06,1.1912e+07,57.686,0,1.1912e+07,-105.2,12170,11369,1,11369,1,5.8737e-07,-4.1148e-10,0,5.8737e-07,-1.2886e-05,1.9289e+05,-125.14,0,1.9289e+05,-389.19,11368,11756,1,11756,1,1.5216e-05,-2.1422e-11,0,1.5216e-05,-1.0143e-05,5.3726e+06,-6.1259,0,5.3726e+06,-147.85,11755,12533,1,12533,1,5.4223e-05,5.1868e-10,0,5.4223e-05,-2.8331e-06,1.8306e+07,152.18,0,1.8306e+07,-67.356,12532,446.74,0,446.74,0,2.108e-05,3.5017e-10,0,2.108e-05,3.9505e-06,7.0404e+06,104.59,0,7.0404e+06,80.424,446.74,1
825,0.25,12164,1,12164,1,3.6166e-05,2.3643e-10,0,3.6166e-05,-6.758e-06,1.2317e+07,69.745,0,1.2317e+07,-108.39,12163,12984,1,12984,1,7.1723e-05,1.0989e-09,0,7.1723e-05,-9.5499e-08,2.4107e+07,330.49,0,2.4107e+07,115.87,12983,12171,1,12171,1,3.6166e-05,1.6117e-10,0,3.6166e-05,-6.7574e-06,1.2408e+07,46.132,0,1.2408e+07,-111.63,12170,11369,1,11369,1,6.1176e-07,-5.5991e-10,0,6.1176e-07,-1.3423e-05,2.0089e+05,-170.38,0,2.0089e+05,-343.32,11368,11756,1,11756,1,1.585e-05,-5.3325e-11,0,1.585e-05,-1.0565e-05,5.5964e+06,-15.426,0,5.5964e+06,-160.6,11755,12533,1,12533,1,5.6481e-05,4.9114e-10,0,5.6481e-05,-2.9511e-06,1.9069e+07,144.76,0,1.9069e+07,-58.692,12532,446.74,0,446.74,0,2.1958e-05,3.8688e-10,0,2.1958e-05,4.115e-06,7.3336e+06,114.96,0,7.3336e+06,85.941,446.74,1
825,0.26,12164,1,12164,1,3.7617e-05,-2.8995e-10,0,3.7617e-05,-7.0292e-06,1.2811e+07,-85.693,0,1.2811e+07,-138.81,12163,12984,1,12984,1,7.4599e-05,2.0604e-10,0,7.4599e-05,-9.9143e-08,2.5074e+07,62.714,0,2.5074e+07,103.61,12983,12171,1,12171,1,3.7617e-05,-2.6679e-10,0,3.7617e-05,-7.0287e-06,1.2906e+07,-77.545,0,1.2906e+07,-151.94,12170,11369,1,11369,1,6.3635e-07,-9.0202e-10,0,6.3635e-07,-1.3961e-05,2.0897e+05,-274.4,0,2.0897e+05,-338.1,11368,11756,1,11756,1,1.6485e-05,-4.0755e-10,0,1.6485e-05,-1.0989e-05,5.8208e+06,-119.5,0,5.8208e+06,-183.89,11755,12533,1,12533,1,5.8748e-05,-1.5368e-10,0,5.8748e-05,-3.0695e-06,1.9834e+07,-44.006,0,1.9834e+07,-94.376,12532,446.74,0,446.74,0,2.2839e-05,1.9764e-10,0,2.2839e-05,4.2802e-06,7.6279e+06,60.166,0,7.6279e+06,82.186,446.74,1
825,0.27,12164,1,12164,1,3.9059e-05,3.7908e-11,0,3.9059e-05,-7.2988e-06,1.3302e+07,11.34,0,1.3302e+07,-185.95,12163,12984,1,12984,1,7.7459e-05,1.7182e-09,0,7.7459e-05,-1.0307e-07,2.6035e+07,522.6,0,2.6035e+07,145.67,12983,12171,1,12171,1,3.9059e-05,1.3922e-11,0,3.9059e-05,-7.2982e-06,1.3401e+07,3.9646,0,1.3401e+07,-188,12170,11369,1,11369,1,6.6075e-07,-1.193e-09,0,6.6075e-07,-1.4497e-05,2.1698e+05,-362.97,0,2.1698e+05,-591.05,11368,11756,1,11756,1,1.7118e-05,-3.1545e-10,0,1.7118e-05,-1.141e-05,6.044e+06,-91.025,0,6.044e+06,-261.9,11755,12533,1,12533,1,6.1001e-05,3.715e-10,0,6.1001e-05,-3.1874e-06,2.0595e+07,106.75,0,2.0595e+07,-126.49,12532,446.74,0,446.74,0,2.3714e-05,5.346e-10,0,2.3714e-05,4.4443e-06,7.9204e+06,158.79,0,7.9204e+06,108.25,446.74,1
825,0.28,12164,1,12164,1,4.0509e-05,-1.4403e-10,0,4.0509e-05,-7.5697e-06,1.3796e+07,-42.161,0,1.3796e+07,-173.5,12163,12984,1,12984,1,8.0334e-05,1.3972e-09,0,8.0334e-05,-1.067e-07,2.7002e+07,424.98,0,2.7002e+07,70.041,12983,12171,1,12171,1,4.0509e-05,-1.1442e-10,0,4.0509e-05,-7.5691e-06,1.3898e+07,-33.317,0,1.3898e+07,-176.27,12170,11369,1,11369,1,6.8457e-07,-1.3128e-09,0,6.8457e-07,-1.5036e-05,2.2474e+05,-399.41,0,2.2474e+05,-1087.6,11368,11756,1,11756,1,1.7753e-05,-3.4453e-10,0,1.7753e-05,-1.1834e-05,6.2683e+06,-102.43,0,6.2683e+06,-234.6,11755,12533,1,12533,1,6.3266e-05,2.1236e-11,0,6.3266e-05,-3.3056e-06,2.1359e+07,6.1514,0,2.1359e+07,-109.79,12532,446.74,0,446.74,0,2.4595e-05,3.7366e-10,0,2.4595e-05,4.6093e-06,8.2144e+06,111.54,0,8.2144e+06,114.67,446.74,1
825,0.29,12164,1,12164,1,4.1953e-05,1.8884e-10,0,4.1953e-05,-7.8394e-06,1.4288e+07,55.667,0,1.4288e+07,-122.36,12163,12984,1,12984,1,8.3199e-05,1.5824e-09,0,8.3199e-05,-1.1052e-07,2.7964e+07,481.4,0,2.7964e+07,156.24,12983,12171,1,12171,1,4.1953e-05,1.1533e-10,0,4.1953e-05,-7.8387e-06,1.4393e+07,32.792,0,1.4393e+07,-130.2,12170,11369,1,11369,1,7.0948e-07,-1.0227e-09,0,7.0948e-07,-1.5571e-05,2.3297e+05,-311.06,0,2.3297e+05,-397.25,11368,11756,1,11756,1,1.8386e-05,-9.011e-11,0,1.8386e-05,-1.2256e-05,6.4918e+06,-26.027,0,6.4918e+06,-172.78,11755,12533,1,12533,1,6.552e-05,4.2797e-10,0,6.552e-05,-3.4233e-06,2.212e+07,125.9,0,2.212e+07,-80.992,12532,446.74,0,446.74,0,2.5471e-05,4.4628e-10,0,2.5471e-05,4.7736e-06,8.5072e+06,133.2,0,8.5072e+06,76.547,446.74,1
825,0.3,12164,1,12164,1,4.3403e-05,-2.1303e-10,0,4.3403e-05,-8.1104e-06,1.4781e+07,-62.936,0,1.4781e+07,-140.85,12163,12984,1,12984,1,8.6074e-05,9.3618e-10,0,8.6074e-05,-1.1437e-07,2.8931e+07,284.68,0,2.8931e+07,54.062,12983,12171,1,12171,1,4.3403e-05,-1.4267e-10,0,4.3403e-05,-8.1098e-06,1.4891e+07,-40.729,0,1.4891e+07,-148.37,12170,11369,1,11369,1,7.3393e-07,-1.4767e-09,0,7.3393e-07,-1.6109e-05,2.41e+05,-449.28,0,2.41e+05,-427.45,11368,11756,1,11756,1,1.9021e-05,-4.5075e-10,0,1.9021e-05,-1.2679e-05,6.7162e+06,-131.18,0,6.7162e+06,-191.13,11755,12533,1,12533,1,6.7786e-05,3.0719e-11,0,6.7786e-05,-3.5417e-06,2.2885e+07,8.7919,0,2.2885e+07,-99.213,12532,446.74,0,446.74,0,2.6352e-05,4.0819e-10,0,2.6352e-05,4.9386e-06,8.8013e+06,121.79,0,8.8013e+06,76.253,446.74,1
825,0.31,12164,1,12164,1,4.4848e-05,-6.7959e-11,0,4.4848e-05,-8.3805e-06,1.5273e+07,-19.709,0,1.5273e+07,-195.34,12163,12984,1,12984,1,8.8939e-05,1.6629e-09,0,8.8939e-05,-1.1825e-07,2.9894e+07,505.78,0,2.9894e+07,136.05,12983,12171,1,12171,1,4.4848e-05,-3.5942e-11,0,4.4848e-05,-8.3799e-06,1.5387e+07,-10.204,0,1.5387e+07,-206.62,12170,11369,1,11369,1,7.5861e-07,-1.149e-09,0,7.5861e-07,-1.6645e-05,2.4911e+05,-349.48,0,2.4911e+05,-439.64,11368,11756,1,11756,1,1.9654e-05,-4.5332e-10,0,1.9654e-05,-1.3102e-05,6.9398e+06,-132.31,0,6.9398e+06,-256.15,11755,12533,1,12533,1,7.0042e-05,2.5541e-10,0,7.0042e-05,-3.6596e-06,2.3647e+07,73.797,0,2.3647e+07,-149.99,12532,446.74,0,446.74,0,2.7229e-05,5.2376e-10,0,2.7229e-05,5.103e-06,9.0942e+06,155.72,0,9.0942e+06,100.7,446.74,1
825,0.32,12164,1,12164,1,4.6294e-05,9.3868e-11,0,4.6294e-05,-8.6505e-06,1.5766e+07,27.81,0,1.5766e+07,-140.91,12163,12984,1,12984,1,9.1806e-05,1.2506e-09,0,9.1806e-05,-1.2169e-07,3.0858e+07,380.45,0,3.0858e+07,173.09,12983,12171,1,12171,1,4.6294e-05,2.2771e-11,0,4.6294e-05,-8.65e-06,1.5883e+07,6.4865,0,1.5883e+07,-146.78,12170,11369,1,11369,1,7.8301e-07,-9.3308e-10,0,7.8301e-07,-1.7181e-05,2.5715e+05,-283.87,0,2.5715e+05,-331.27,11368,11756,1,11756,1,2.0288e-05,-1.6545e-10,0,2.0288e-05,-1.3524e-05,7.1634e+06,-48.298,0,7.1634e+06,-194.8,11755,12533,1,12533,1,7.2299e-05,3.3059e-10,0,7.2299e-05,-3.7774e-06,2.4409e+07,96.995,0,2.4409e+07,-91.043,12532,446.74,0,446.74,0,2.8107e-05,4.3084e-10,0,2.8107e-05,5.2675e-06,9.3874e+06,128.43,0,9.3874e+06,76.064,446.74,1
825,0.33,12164,1,12164,1,4.7742e-05,-2.0257e-10,0,4.7742e-05,-8.9209e-06,1.6259e+07,-60.096,0,1.6259e+07,-78.4,12163,12984,1,12984,1,9.4677e-05,8.6397e-10,0,9.4677e-05,-1.2561e-07,3.1823e+07,262.9,0,3.1823e+07,100.45,12983,12171,1,12171,1,4.7742e-05,-1.1826e-10,0,4.7742e-05,-8.9201e-06,1.638e+07,-34,0,1.638e+07,-79.742,12170,11369,1,11369,1,8.0785e-07,-1.4037e-09,0,8.0785e-07,-1.7718e-05,2.6533e+05,-426.98,0,2.6533e+05,-262.42,11368,11756,1,11756,1,2.0923e-05,-4.8892e-10,0,2.0923e-05,-1.3947e-05,7.3876e+06,-143.17,0,7.3876e+06,-116.29,11755,12533,1,12533,1,7.456e-05,6.9547e-11,0,7.456e-05,-3.8955e-06,2.5173e+07,19.784,0,2.5173e+07,-49.196,12532,446.74,0,446.74,0,2.8986e-05,4.5493e-10,0,2.8986e-05,5.4322e-06,9.6809e+06,136.04,0,9.6809e+06,52.263,446.74,1
825,0.34,12164,1,12164,1,4.9188e-05,-1.1961e-11,0,4.9188e-05,-9.1909e-06,1.6751e+07,-3.635,0,1.6751e+07,-34.719,12163,12984,1,12984,1,9.7544e-05,1.2692e-09,0,9.7544e-05,-1.2932e-07,3.2786e+07,386.14,0,3.2786e+07,138.11,12983,12171,1,12171,1,4.9188e-05,-2.6509e-11,0,4.9188e-05,-9.1901e-06,1.6876e+07,-7.5175,0,1.6876e+07,-34.525,12170,11369,1,11369,1,8.3226e-07,-1.0813e-09,0,8.3226e-07,-1.8255e-05,2.7336e+05,-328.91,0,2.7336e+05,-246.42,11368,11756,1,11756,1,2.1556e-05,-3.4978e-10,0,2.1556e-05,-1.4369e-05,7.6113e+06,-103.04,0,7.6113e+06,-65.522,11755,12533,1,12533,1,7.6819e-05,2.9274e-10,0,7.6819e-05,-4.0132e-06,2.5935e+07,86.783,0,2.5935e+07,10.962,12532,446.74,0,446.74,0,2.9864e-05,4.8566e-10,0,2.9864e-05,5.5968e-06,9.9741e+06,144.57,0,9.9741e+06,65.654,446.74,1
825,0.35,12164,1,12164,1,5.0638e-05,-1.9173e-10,0,5.0638e-05,-9.462e-06,1.7245e+07,-56.801,0,1.7245e+07,-65.926,12163,12984,1,12984,1,0.00010042,8.7706e-10,0,0.00010042,-1.3323e-07,3.3753e+07,266.78,0,3.3753e+07,137.74,12983,12171,1,12171,1,5.0638e-05,-1.4989e-10,0,5.0638e-05,-9.4612e-06,1.7373e+07,-42.851,0,1.7373e+07,-75.815,12170,11369,1,11369,1,8.5674e-07,-1.0334e-09,0,8.5674e-07,-1.8793e-05,2.8138e+05,-314.35,0,2.8138e+05,-248.11,11368,11756,1,11756,1,2.2192e-05,-4.4378e-10,0,2.2192e-05,-1.4792e-05,7.8357e+06,-129.73,0,7.8357e+06,-145.27,11755,12533,1,12533,1,7.9083e-05,4.6723e-11,0,7.9083e-05,-4.1319e-06,2.67e+07,13.246,0,2.67e+07,20.514,12532,446.74,0,446.74,0,3.0744e-05,3.6499e-10,0,3.0744e-05,5.7617e-06,1.0268e+07,109.25,0,1.0268e+07,95.122,446.74,1
825,0.36,12164,1,12164,1,5.2082e-05,1.7325e-10,0,5.2082e-05,-9.7317e-06,1.7737e+07,51.176,0,1.7737e+07,-1.1617,12163,12984,1,12984,1,0.00010328,1.0109e-09,0,0.00010328,-1.3701e-07,3.4716e+07,319.52,0,3.4716e+07,117.68,12983,12171,1,12171,1,5.2082e-05,1.0633e-10,0,5.2082e-05,-9.7308e-06,1.7869e+07,30.169,0,1.7869e+07,1.2894,12170,11369,1,11369,1,8.8131e-07,-4.8155e-10,0,8.8131e-07,-1.9329e-05,2.8947e+05,-146.52,0,2.8947e+05,-154.56,11368,11756,1,11756,1,2.2825e-05,-5.1374e-11,0,2.2825e-05,-1.5214e-05,8.0592e+06,-14.547,0,8.0592e+06,-47.492,11755,12533,1,12533,1,8.1339e-05,3.9806e-10,0,8.1339e-05,-4.2494e-06,2.7461e+07,117,0,2.7461e+07,45.471,12532,446.74,0,446.74,0,3.1621e-05,3.1266e-10,0,3.1621e-05,5.926e-06,1.0561e+07,93.468,0,1.0561e+07,59.54,446.74,1
825,0.37,12164,1,12164,1,5.353e-05,2.4661e-11,0,5.353e-05,-1.0002e-05,1.823e+07,7.0921,0,1.823e+07,-62.852,12163,12984,1,12984,1,0.00010615,4.5216e-10,0,0.00010615,-1.4095e-07,3.568e+07,137.64,0,3.568e+07,65.419,12983,12171,1,12171,1,5.353e-05,7.7372e-13,0,5.353e-05,-1.0001e-05,1.8365e+07,0.21217,0,1.8365e+07,-55.118,12170,11369,1,11369,1,9.0574e-07,-5.2406e-10,0,9.0574e-07,-1.9867e-05,2.9747e+05,-159.53,0,2.9747e+05,-403.72,11368,11756,1,11756,1,2.3459e-05,-3.271e-11,0,2.3459e-05,-1.5637e-05,8.2832e+06,-9.3055,0,8.2832e+06,-98.173,11755,12533,1,12533,1,8.36e-05,7.0914e-11,0,8.36e-05,-4.3676e-06,2.8225e+07,20.618,0,2.8225e+07,-12.467,12532,446.74,0,446.74,0,3.25e-05,1.4108e-10,0,3.25e-05,6.0908e-06,1.0855e+07,42.582,0,1.0855e+07,68.282,446.74,1
825,0.38,12164,1,12164,1,5.4985e-05,9.4691e-11,0,5.4985e-05,-1.0274e-05,1.8726e+07,27.877,0,1.8726e+07,25.105,12163,12984,1,12984,1,0.00010904,4.1861e-10,0,0.00010904,-1.4461e-07,3.665e+07,124.46,0,3.665e+07,77.986,12983,12171,1,12171,1,5.4985e-05,6.3409e-11,0,5.4985e-05,-1.0273e-05,1.8865e+07,18.051,0,1.8865e+07,26.305,12170,11369,1,11369,1,9.3043e-07,-2.1816e-10,0,9.3043e-07,-2.0406e-05,3.056e+05,-66.34,0,3.056e+05,-76.409,11368,11756,1,11756,1,2.4097e-05,-8.1344e-12,0,2.4097e-05,-1.6062e-05,8.5084e+06,-2.3127,0,8.5084e+06,5.596,11755,12533,1,12533,1,8.5873e-05,1.9432e-10,0,8.5873e-05,-4.486e-06,2.8992e+07,57.838,0,2.8992e+07,49.973,12532,446.74,0,446.74,0,3.3383e-05,1.4415e-10,0,3.3383e-05,6.2564e-06,1.115e+07,42.689,0,1.115e+07,29.277,446.74,1
825,0.39,12164,1,12164,1,5.6423e-05,1.1305e-10,0,5.6423e-05,-1.0543e-05,1.9215e+07,33.454,0,1.9215e+07,1.4002,12163,12984,1,12984,1,0.00011189,1.1598e-09,0,0.00011189,-1.4833e-07,3.7609e+07,364.78,0,3.7609e+07,65.485,12983,12171,1,12171,1,5.6423e-05,1.6521e-11,0,5.6423e-05,-1.0542e-05,1.9358e+07,4.9493,0,1.9358e+07,3.8764,12170,11369,1,11369,1,9.5471e-07,-8.4327e-10,0,9.5471e-07,-2.094e-05,3.1358e+05,-266.6,0,3.1358e+05,-161.4,11368,11756,1,11756,1,2.4727e-05,-1.764e-10,0,2.4727e-05,-1.6482e-05,8.7309e+06,-51.206,0,8.7309e+06,-12.131,11755,12533,1,12533,1,8.8118e-05,4.2264e-10,0,8.8118e-05,-4.6034e-06,2.975e+07,123.8,0,2.975e+07,21.642,12532,446.74,0,446.74,0,3.4256e-05,4.4852e-10,0,3.4256e-05,6.42e-06,1.1441e+07,133.67,0,1.1441e+07,33.111,446.74,1
825,0.4,12164,1,12164,1,5.787e-05,-6.2906e-11,0,5.787e-05,-1.0813e-05,1.9708e+07,-18.659,0,1.9708e+07,-77.308,12163,12984,1,12984,1,0.00011476,8.6624e-10,0,0.00011476,-1.523e-07,3.8573e+07,263.5,0,3.8573e+07,37.832,12983,12171,1,12171,1,5.7869e-05,-6.3503e-11,0,5.7869e-05,-1.0812e-05,1.9854e+07,-18.114,0,1.9854e+07,-78.178,12170,11369,1,11369,1,9.7927e-07,-9.5441e-10,0,9.7927e-07,-2.1477e-05,3.2163e+05,-290.37,0,3.2163e+05,-253.6,11368,11756,1,11756,1,2.5361e-05,-3.157e-10,0,2.5361e-05,-1.6905e-05,8.9547e+06,-93.366,0,8.9547e+06,-111.45,11755,12533,1,12533,1,9.0378e-05,1.6368e-10,0,9.0378e-05,-4.7216e-06,3.0513e+07,47.455,0,3.0513e+07,-40.679,12532,446.74,0,446.74,0,3.5135e-05,3.7313e-10,0,3.5135e-05,6.5846e-06,1.1735e+07,111.33,0,1.1735e+07,55.658,446.74,1
825,0.41,12164,1,12164,1,5.9315e-05,1.6901e-10,0,5.9315e-05,-1.1083e-05,2.02e+07,49.997,0,2.02e+07,-13.867,12163,12984,1,12984,1,0.00011763,1.6792e-09,0,0.00011763,-1.559e-07,3.9537e+07,530.34,0,3.9537e+07,37.799,12983,12171,1,12171,1,5.9315e-05,4.2532e-11,0,5.9315e-05,-1.1082e-05,2.035e+07,12.04,0,2.035e+07,-13.501,12170,11369,1,11369,1,1.0037e-06,-9.4046e-10,0,1.0037e-06,-2.2013e-05,3.2967e+05,-297.14,0,3.2967e+05,-167.4,11368,11756,1,11756,1,2.5994e-05,-1.9984e-10,0,2.5994e-05,-1.7327e-05,9.1784e+06,-58.084,0,9.1784e+06,-26.807,11755,12533,1,12533,1,9.2635e-05,4.9999e-10,0,9.2635e-05,-4.8393e-06,3.1275e+07,146.3,0,3.1275e+07,-0.42933,12532,446.74,0,446.74,0,3.6012e-05,5.7075e-10,0,3.6012e-05,6.7491e-06,1.2028e+07,170.14,0,1.2028e+07,21.986,446.74,1
825,0.42,12164,1,12164,1,6.0765e-05,4.23e-11,0,6.0765e-05,-1.1354e-05,2.0694e+07,12.319,0,2.0694e+07,26.505,12163,12984,1,12984,1,0.0001205,3.3328e-10,0,0.0001205,-1.5976e-07,4.0503e+07,105.48,0,4.0503e+07,113.79,12983,12171,1,12171,1,6.0765e-05,2.7836e-11,0,6.0765e-05,-1.1353e-05,2.0848e+07,8.0554,0,2.0848e+07,32.04,12170,11369,1,11369,1,1.0283e-06,-1.8778e-10,0,1.0283e-06,-2.2551e-05,3.3774e+05,-59.182,0,3.3774e+05,-173.43,11368,11756,1,11756,1,2.663e-05,1.3222e-11,0,2.663e-05,-1.7751e-05,9.4028e+06,3.7695,0,9.4028e+06,10.057,11755,12533,1,12533,1,9.4901e-05,6.3292e-11,0,9.4901e-05,-4.9576e-06,3.204e+07,18.473,0,3.204e+07,49.437,12532,446.74,0,446.74,0,3.6893e-05,7.1687e-11,0,3.6893e-05,6.9141e-06,1.2322e+07,21.669,0,1.2322e+07,33.666,446.74,1
825,0.43,12164,1,12164,1,6.221e-05,1.1162e-10,0,6.221e-05,-1.1624e-05,2.1186e+07,33.008,0,2.1186e+07,2.2083,12163,12984,1,12984,1,0.00012337,1.3699e-09,0,0.00012337,-1.6352e-07,4.1466e+07,432.85,0,4.1466e+07,32.556,12983,12171,1,12171,1,6.221e-05,1.8729e-12,0,6.221e-05,-1.1623e-05,2.1343e+07,0.52858,0,2.1343e+07,2.6883,12170,11369,1,11369,1,1.0526e-06,-7.9007e-10,0,1.0526e-06,-2.3088e-05,3.4575e+05,-249.64,0,3.4575e+05,-29.456,11368,11756,1,11756,1,2.7263e-05,-2.1323e-10,0,2.7263e-05,-1.8173e-05,9.6264e+06,-62.445,0,9.6264e+06,-4.2051,11755,12533,1,12533,1,9.7156e-05,3.8657e-10,0,9.7156e-05,-5.0755e-06,3.2801e+07,115.7,0,3.2801e+07,9.0925,12532,446.74,0,446.74,0,3.777e-05,4.7506e-10,0,3.777e-05,7.0785e-06,1.2615e+07,141.51,0,1.2615e+07,10.444,446.74,1
825,0.44,12164,1,12164,1,6.3655e-05,-9.2297e-12,0,6.3655e-05,-1.1894e-05,2.1678e+07,-2.7015,0,2.1678e+07,6.6733,12163,12984,1,12984,1,0.00012623,1.1727e-09,0,0.00012623,-1.6735e-07,4.243e+07,360.32,0,4.243e+07,39.707,12983,12171,1,12171,1,6.3655e-05,-4.2006e-11,0,6.3655e-05,-1.1893e-05,2.1839e+07,-11.897,0,2.1839e+07,7.5923,12170,11369,1,11369,1,1.077e-06,-1.0742e-09,0,1.077e-06,-2.3624e-05,3.5377e+05,-339.36,0,3.5377e+05,-87.404,11368,11756,1,11756,1,2.7897e-05,-3.1452e-10,0,2.7897e-05,-1.8595e-05,9.85e+06,-92.324,0,9.85e+06,3.0073,11755,12533,1,12533,1,9.9414e-05,2.5557e-10,0,9.9414e-05,-5.1934e-06,3.3564e+07,73.465,0,3.3564e+07,11.711,12532,446.74,0,446.74,0,3.8647e-05,4.6086e-10,0,3.8647e-05,7.243e-06,1.2908e+07,137.46,0,1.2908e+07,11.361,446.74,1
825,0.45,12164,1,12164,1,6.5108e-05,-1.2647e-10,0,6.5108e-05,-1.2166e-05,2.2173e+07,-37.311,0,2.2173e+07,-27.326,12163,12984,1,12984,1,0.00012911,2.6913e-10,0,0.00012911,-1.7116e-07,4.3398e+07,81.834,0,4.3398e+07,67.841,12983,12171,1,12171,1,6.5108e-05,-9.8959e-11,0,6.5108e-05,-1.2165e-05,2.2337e+07,-28.438,0,2.2337e+07,-16.009,12170,11369,1,11369,1,1.1017e-06,-5.7402e-10,0,1.1017e-06,-2.4163e-05,3.6184e+05,-181.55,0,3.6184e+05,-216.02,11368,11756,1,11756,1,2.8533e-05,-2.7158e-10,0,2.8533e-05,-1.902e-05,1.0075e+07,-79.627,0,1.0075e+07,-60.495,11755,12533,1,12533,1,0.00010168,1.243e-11,0,0.00010168,-5.3121e-06,3.4329e+07,3.5304,0,3.4329e+07,14.882,12532,446.74,0,446.74,0,3.9529e-05,2.0048e-10,0,3.9529e-05,7.4082e-06,1.3202e+07,59.978,0,1.3202e+07,53.894,446.74,1
825,0.46,12164,1,12164,1,6.6552e-05,3.7012e-11,0,6.6552e-05,-1.2435e-05,2.2665e+07,10.967,0,2.2665e+07,-2.612,12163,12984,1,12984,1,0.00013198,5.9017e-10,0,0.00013198,-1.7501e-07,4.436e+07,179.5,0,4.436e+07,16.532,12983,12171,1,12171,1,6.6552e-05,-1.6256e-11,0,6.6552e-05,-1.2434e-05,2.2833e+07,-4.6328,0,2.2833e+07,-2.5804,12170,11369,1,11369,1,1.1262e-06,-3.9424e-10,0,1.1262e-06,-2.4699e-05,3.6993e+05,-124.59,0,3.6993e+05,-24.853,11368,11756,1,11756,1,2.9166e-05,-1.1385e-10,0,2.9166e-05,-1.9442e-05,1.0298e+07,-33.534,0,1.0298e+07,-6.2814,11755,12533,1,12533,1,0.00010394,1.6304e-10,0,0.00010394,-5.4297e-06,3.5091e+07,46.732,0,3.5091e+07,1.5928,12532,446.74,0,446.74,0,4.0406e-05,2.2775e-10,0,4.0406e-05,7.5725e-06,1.3495e+07,67.843,0,1.3495e+07,7.5744,446.74,1
825,0.47,12164,1,12164,1,6.7998e-05,-1.6477e-11,0,6.7998e-05,-1.2706e-05,2.3157e+07,-4.9127,0,2.3157e+07,-2.3928,12163,12984,1,12984,1,0.00013485,8.3383e-10,0,0.00013485,-1.7879e-07,4.5324e+07,263.25,0,4.5324e+07,25.26,12983,12171,1,12171,1,6.7998e-05,-4.7645e-12,0,6.7998e-05,-1.2705e-05,2.3329e+07,-1.4424,0,2.3329e+07,-3.844,12170,11369,1,11369,1,1.1507e-06,-7.5984e-10,0,1.1507e-06,-2.5235e-05,3.7798e+05,-240.04,0,3.7798e+05,-16.221,11368,11756,1,11756,1,2.98e-05,-2.3863e-10,0,2.98e-05,-1.9864e-05,1.0522e+07,-68.82,0,1.0522e+07,-8.4285,11755,12533,1,12533,1,0.0001062,1.8347e-10,0,0.0001062,-5.5477e-06,3.5853e+07,54.497,0,3.5853e+07,2.6538,12532,446.74,0,446.74,0,4.1284e-05,3.3564e-10,0,4.1284e-05,7.7371e-06,1.3788e+07,99.868,0,1.3788e+07,7.361,446.74,1
825,0.48,12164,1,12164,1,6.9445e-05,-1.9029e-10,0,6.9445e-05,-1.2976e-05,2.365e+07,-56.357,0,2.365e+07,-2.3131,12163,12984,1,12984,1,0.00013772,3.0842e-10,0,0.00013772,-1.8252e-07,4.6289e+07,97.395,0,4.6289e+07,43.604,12983,12171,1,12171,1,6.9445e-05,-1.4639e-10,0,6.9445e-05,-1.2975e-05,2.3826e+07,-42.716,0,2.3826e+07,-3.2479,12170,11369,1,11369,1,1.1751e-06,-7.6712e-10,0,1.1751e-06,-2.5773e-05,3.8597e+05,-236.85,0,3.8597e+05,-63.524,11368,11756,1,11756,1,3.0434e-05,-3.6184e-10,0,3.0434e-05,-2.0287e-05,1.0746e+07,-106.96,0,1.0746e+07,-11.118,11755,12533,1,12533,1,0.00010846,3.3887e-12,0,0.00010846,-5.6658e-06,3.6616e+07,0.95768,0,3.6616e+07,5.0172,12532,446.74,0,446.74,0,4.2163e-05,2.4176e-10,0,4.2163e-05,7.9018e-06,1.4082e+07,72.226,0,1.4082e+07,16.475,446.74,1
825,0.49,12164,1,12164,1,7.0891e-05,3.8055e-11,0,7.0891e-05,-1.3246e-05,2.4143e+07,11.216,0,2.4143e+07,-21.954,12163,12984,1,12984,1,0.00014058,1.0331e-09,0,0.00014058,-1.8641e-07,4.7252e+07,324.67,0,4.7252e+07,32.828,12983,12171,1,12171,1,7.0891e-05,-3.2911e-12,0,7.0891e-05,-1.3245e-05,2.4322e+07,-0.93184,0,2.4322e+07,-11.897,12170,11369,1,11369,1,1.1996e-06,-6.2304e-10,0,1.1996e-06,-2.6309e-05,3.9403e+05,-189.5,0,3.9403e+05,-123.75,11368,11756,1,11756,1,3.1068e-05,-2.0507e-10,0,3.1068e-05,-2.0709e-05,1.097e+07,-59.779,0,1.097e+07,-42.355,11755,12533,1,12533,1,0.00011071,2.4104e-10,0,0.00011071,-5.7839e-06,3.7379e+07,70.033,0,3.7379e+07,0.27698,12532,446.74,0,446.74,0,4.3041e-05,3.5944e-10,0,4.3041e-05,8.0663e-06,1.4375e+07,107.05,0,1.4375e+07,30.533,446.74,1
825,0.5,12164,1,12164,1,7.2337e-05,3.7061e-11,0,7.2337e-05,-1.3516e-05,2.4635e+07,10.979,0,2.4635e+07,-4.5387,12163,12984,1,12984,1,0.00014345,9.7345e-10,0,0.00014345,-1.9019e-07,4.8217e+07,292.81,0,4.8217e+07,26.953,12983,12171,1,12171,1,7.2337e-05,-1.2528e-11,0,7.2337e-05,-1.3515e-05,2.4818e+07,-3.5788,0,2.4818e+07,-6.1009,12170,11369,1,11369,1,1.224e-06,-7.7615e-10,0,1.224e-06,-2.6846e-05,4.0205e+05,-236.5,0,4.0205e+05,-35.716,11368,11756,1,11756,1,3.1701e-05,-2.0298e-10,0,3.1701e-05,-2.1132e-05,1.1193e+07,-59.046,0,1.1193e+07,-11.223,11755,12533,1,12533,1,0.00011297,2.6256e-10,0,0.00011297,-5.9018e-06,3.8141e+07,79.481,0,3.8141e+07,2.2373,12532,446.74,0,446.74,0,4.3919e-05,3.8372e-10,0,4.3919e-05,8.2309e-06,1.4668e+07,114.03,0,1.4668e+07,10.189,446.74,1
825,0.51,12164,1,12164,1,7.3784e-05,6.4687e-11,0,7.3784e-05,-1.3787e-05,2.5128e+07,19.064,0,2.5128e+07,-1.9179,12163,12984,1,12984,1,0.00014632,1.3474e-09,0,0.00014632,-1.9394e-07,4.9181e+07,412.54,0,4.9181e+07,40.829,12983,12171,1,12171,1,7.3784e-05,4.5139e-12,0,7.3784e-05,-1.3786e-05,2.5314e+07,1.2766,0,2.5314e+07,-3.3126,12170,11369,1,11369,1,1.2485e-06,-9.2538e-10,0,1.2485e-06,-2.7383e-05,4.1008e+05,-292.41,0,4.1008e+05,-32.897,11368,11756,1,11756,1,3.2335e-05,-2.7784e-10,0,3.2335e-05,-2.1554e-05,1.1417e+07,-79.511,0,1.1417e+07,-9.1215,11755,12533,1,12533,1,0.00011523,3.7571e-10,0,0.00011523,-6.0198e-06,3.8904e+07,108.93,0,3.8904e+07,4.2348,12532,446.74,0,446.74,0,4.4797e-05,5.0501e-10,0,4.4797e-05,8.3954e-06,1.4962e+07,150.14,0,1.4962e+07,11.393,446.74,1
825,0.52,12164,1,12164,1,7.5241e-05,1.8442e-10,0,7.5241e-05,-1.4059e-05,2.5624e+07,54.475,0,2.5624e+07,2.1539,12163,12984,1,12984,1,0.00014921,6.0913e-10,0,0.00014921,-1.9786e-07,5.0152e+07,183.07,0,5.0152e+07,22.232,12983,12171,1,12171,1,7.5241e-05,1.5683e-10,0,7.5241e-05,-1.4058e-05,2.5814e+07,45.94,0,2.5814e+07,1.7391,12170,11369,1,11369,1,1.2733e-06,-1.3901e-10,0,1.2733e-06,-2.7923e-05,4.1824e+05,-43.827,0,4.1824e+05,-61.716,11368,11756,1,11756,1,3.2974e-05,3.5157e-11,0,3.2974e-05,-2.198e-05,1.1643e+07,10.162,0,1.1643e+07,-0.20065,11755,12533,1,12533,1,0.00011751,3.0821e-10,0,0.00011751,-6.1387e-06,3.9672e+07,91.009,0,3.9672e+07,4.5923,12532,446.74,0,446.74,0,4.5681e-05,1.7724e-10,0,4.5681e-05,8.5612e-06,1.5257e+07,52.786,0,1.5257e+07,6.4699,446.74,1
825,0.53,12164,1,12164,1,7.6683e-05,1.5204e-10,0,7.6683e-05,-1.4328e-05,2.6115e+07,44.917,0,2.6115e+07,2.0966,12163,12984,1,12984,1,0.00015207,3.9982e-10,0,0.00015207,-2.0161e-07,5.1113e+07,126.27,0,5.1113e+07,32.914,12983,12171,1,12171,1,7.6683e-05,1.5363e-10,0,7.6683e-05,-1.4327e-05,2.6309e+07,44.849,0,2.6309e+07,-0.023735,12170,11369,1,11369,1,1.2976e-06,-4.9339e-11,0,1.2976e-06,-2.8459e-05,4.2623e+05,-13.968,0,4.2623e+05,-20.071,11368,11756,1,11756,1,3.3606e-05,7.6785e-11,0,3.3606e-05,-2.2401e-05,1.1866e+07,21.961,0,1.1866e+07,-3.9138,11755,12533,1,12533,1,0.00011976,2.1266e-10,0,0.00011976,-6.2563e-06,4.0432e+07,63.221,0,4.0432e+07,6.2823,12532,446.74,0,446.74,0,4.6557e-05,1.0655e-10,0,4.6557e-05,8.7253e-06,1.555e+07,31.976,0,1.555e+07,9.0611,446.74,1
825,0.54,12164,1,12164,1,7.8135e-05,2.5327e-11,0,7.8135e-05,-1.46e-05,2.661e+07,7.4282,0,2.661e+07,4.3417,12163,12984,1,12984,1,0.00015495,3.8618e-10,0,0.00015495,-2.055e-07,5.2081e+07,117.46,0,5.2081e+07,75.151,12983,12171,1,12171,1,7.8135e-05,1.4541e-11,0,7.8135e-05,-1.4598e-05,2.6807e+07,4.1173,0,2.6807e+07,8.0611,12170,11369,1,11369,1,1.3223e-06,-3.3095e-10,0,1.3223e-06,-2.8998e-05,4.343e+05,-99.545,0,4.343e+05,-166.8,11368,11756,1,11756,1,3.4242e-05,-5.223e-11,0,3.4242e-05,-2.2825e-05,1.2091e+07,-14.981,0,1.2091e+07,-3.463,11755,12533,1,12533,1,0.00012203,1.1246e-10,0,0.00012203,-6.3747e-06,4.1198e+07,32.944,0,4.1198e+07,26.154,12532,446.74,0,446.74,0,4.7439e-05,1.371e-10,0,4.7439e-05,8.8905e-06,1.5844e+07,40.563,0,1.5844e+07,36.443,446.74,1
825,0.55,12164,1,12164,1,7.9574e-05,2.6313e-10,0,7.9574e-05,-1.4869e-05,2.71e+07,77.878,0,2.71e+07,0.2534,12163,12984,1,12984,1,0.0001578,9.271e-10,0,0.0001578,-2.0921e-07,5.3041e+07,286.75,0,5.3041e+07,34.719,12983,12171,1,12171,1,7.9574e-05,1.7377e-10,0,7.9574e-05,-1.4867e-05,2.7301e+07,50.186,0,2.7301e+07,-1.7762,12170,11369,1,11369,1,1.3466e-06,-1.907e-10,0,1.3466e-06,-2.9532e-05,4.4231e+05,-60.273,0,4.4231e+05,-19.237,11368,11756,1,11756,1,3.4873e-05,-1.2876e-12,0,3.4873e-05,-2.3246e-05,1.2313e+07,-0.37111,0,1.2313e+07,-7.5384,11755,12533,1,12533,1,0.00012427,5.0751e-10,0,0.00012427,-6.4922e-06,4.1957e+07,148.75,0,4.1957e+07,5.6318,12532,446.74,0,446.74,0,4.8312e-05,3.0833e-10,0,4.8312e-05,9.0543e-06,1.6136e+07,92.07,0,1.6136e+07,10.662,446.74,1
825,0.56,12164,1,12164,1,8.1019e-05,1.6348e-10,0,8.1019e-05,-1.5139e-05,2.7592e+07,48.345,0,2.7592e+07,-10.082,12163,12984,1,12984,1,0.00016067,1.4987e-09,0,0.00016067,-2.1295e-07,5.4004e+07,468.6,0,5.4004e+07,50.765,12983,12171,1,12171,1,8.1019e-05,3.045e-11,0,8.1019e-05,-1.5137e-05,2.7796e+07,8.6631,0,2.7796e+07,-5.0893,12170,11369,1,11369,1,1.371e-06,-7.8597e-10,0,1.371e-06,-3.0068e-05,4.5032e+05,-248.36,0,4.5032e+05,-167.22,11368,11756,1,11756,1,3.5506e-05,-1.5993e-10,0,3.5506e-05,-2.3668e-05,1.2537e+07,-45.914,0,1.2537e+07,-14.532,11755,12533,1,12533,1,0.00012653,4.418e-10,0,0.00012653,-6.6101e-06,4.2719e+07,130.74,0,4.2719e+07,3.5296,12532,446.74,0,446.74,0,4.919e-05,4.9939e-10,0,4.919e-05,9.2187e-06,1.6429e+07,148.71,0,1.6429e+07,29.565,446.74,1
825,0.57,12164,1,12164,1,8.2467e-05,1.045e-10,0,8.2467e-05,-1.5409e-05,2.8085e+07,30.871,0,2.8085e+07,0.18604,12163,12984,1,12984,1,0.00016354,9.0019e-10,0,0.00016354,-2.1678e-07,5.4969e+07,273.82,0,5.4969e+07,49.232,12983,12171,1,12171,1,8.2467e-05,5.4053e-12,0,8.2467e-05,-1.5408e-05,2.8293e+07,1.5883,0,2.8293e+07,-1.5285,12170,11369,1,11369,1,1.3956e-06,-3.7996e-10,0,1.3956e-06,-3.0605e-05,4.5841e+05,-120.12,0,4.5841e+05,-20.504,11368,11756,1,11756,1,3.6141e-05,-8.9788e-11,0,3.6141e-05,-2.4091e-05,1.2761e+07,-26.379,0,1.2761e+07,-5.2108,11755,12533,1,12533,1,0.00012879,2.6379e-10,0,0.00012879,-6.7282e-06,4.3482e+07,76.599,0,4.3482e+07,3.8559,12532,446.74,0,446.74,0,5.0069e-05,2.9242e-10,0,5.0069e-05,9.3834e-06,1.6722e+07,86.905,0,1.6722e+07,10.882,446.74,1
825,0.58,12164,1,12164,1,8.3914e-05,5.6502e-11,0,8.3914e-05,-1.568e-05,2.8578e+07,16.785,0,2.8578e+07,3.0548,12163,12984,1,12984,1,0.00016641,6.5269e-10,0,0.00016641,-2.2069e-07,5.5933e+07,206.17,0,5.5933e+07,31.99,12983,12171,1,12171,1,8.3914e-05,5.0607e-12,0,8.3914e-05,-1.5678e-05,2.8789e+07,1.4814,0,2.8789e+07,2.055,12170,11369,1,11369,1,1.4201e-06,-4.9243e-10,0,1.4201e-06,-3.1142e-05,4.6644e+05,-155.61,0,4.6644e+05,-18.113,11368,11756,1,11756,1,3.6775e-05,-9.2923e-11,0,3.6775e-05,-2.4513e-05,1.2985e+07,-26.923,0,1.2985e+07,-1.9332,11755,12533,1,12533,1,0.00013105,2.0914e-10,0,0.00013105,-6.8462e-06,4.4245e+07,62.012,0,4.4245e+07,7.1357,12532,446.74,0,446.74,0,5.0947e-05,2.5106e-10,0,5.0947e-05,9.548e-06,1.7016e+07,74.78,0,1.7016e+07,7.8415,446.74,1
825,0.59,12164,1,12164,1,8.5361e-05,7.9112e-11,0,8.5361e-05,-1.595e-05,2.9071e+07,23.387,0,2.9071e+07,-3.0766,12163,12984,1,12984,1,0.00016928,8.9364e-10,0,0.00016928,-2.2445e-07,5.6898e+07,276.57,0,5.6898e+07,26.618,12983,12171,1,12171,1,8.5361e-05,-7.604e-12,0,8.5361e-05,-1.5949e-05,2.9286e+07,-2.15,0,2.9286e+07,-2.7148,12170,11369,1,11369,1,1.4445e-06,-4.582e-10,0,1.4445e-06,-3.1679e-05,4.7448e+05,-144.8,0,4.7448e+05,-27.012,11368,11756,1,11756,1,3.7409e-05,-1.4493e-10,0,3.7409e-05,-2.4936e-05,1.3209e+07,-42.222,0,1.3209e+07,-8.1005,11755,12533,1,12533,1,0.00013331,2.6724e-10,0,0.00013331,-6.9644e-06,4.5009e+07,78.241,0,4.5009e+07,2.7236,12532,446.74,0,446.74,0,5.1826e-05,3.2257e-10,0,5.1826e-05,9.7128e-06,1.7309e+07,95.885,0,1.7309e+07,9.2616,446.74,1
825,0.6,12164,1,12164,1,8.6806e-05,1.7545e-10,0,8.6806e-05,-1.622e-05,2.9563e+07,51.96,0,2.9563e+07,1.0527,12163,12984,1,12984,1,0.00017215,1.0194e-09,0,0.00017215,-2.282e-07,5.7861e+07,306.62,0,5.7861e+07,40.759,12983,12171,1,12171,1,8.6806e-05,9.2024e-11,0,8.6806e-05,-1.6219e-05,2.9782e+07,26.846,0,2.9782e+07,-2.3789,12170,11369,1,11369,1,1.4689e-06,-4.9618e-10,0,1.4689e-06,-3.2216e-05,4.8247e+05,-156.81,0,4.8247e+05,-14.416,11368,11756,1,11756,1,3.8042e-05,-7.4556e-11,0,3.8042e-05,-2.5358e-05,1.3432e+07,-21.291,0,1.3432e+07,-7.4705,11755,12533,1,12533,1,0.00013557,4.2418e-10,0,0.00013557,-7.0822e-06,4.577e+07,125.14,0,4.577e+07,6.0054,12532,446.74,0,446.74,0,5.2703e-05,3.4166e-10,0,5.2703e-05,9.8772e-06,1.7602e+07,101.53,0,1.7602e+07,12.099,446.74,1
825,0.61,12164,1,12164,1,8.8254e-05,6.6758e-12,0,8.8254e-05,-1.6491e-05,3.0056e+07,2.043,0,3.0056e+07,-2.4764,12163,12984,1,12984,1,0.00017502,8.2866e-10,0,0.00017502,-2.3205e-07,5.8826e+07,252.09,0,5.8826e+07,25.099,12983,12171,1,12171,1,8.8254e-05,-3.915e-11,0,8.8254e-05,-1.6489e-05,3.0278e+07,-11.091,0,3.0278e+07,-2.6875,12170,11369,1,11369,1,1.4934e-06,-5.7874e-10,0,1.4934e-06,-3.2753e-05,4.9054e+05,-176.03,0,4.9054e+05,-23.409,11368,11756,1,11756,1,3.8677e-05,-2.0391e-10,0,3.8677e-05,-2.5781e-05,1.3656e+07,-59.106,0,1.3656e+07,-6.8711,11755,12533,1,12533,1,0.00013783,1.6029e-10,0,0.00013783,-7.2003e-06,4.6534e+07,48.207,0,4.6534e+07,2.0805,12532,446.74,0,446.74,0,5.3582e-05,3.1438e-10,0,5.3582e-05,1.0042e-05,1.7896e+07,93.39,0,1.7896e+07,7.9503,446.74,1
825,0.62,12164,1,12164,1,8.9702e-05,2.0817e-10,0,8.9702e-05,-1.6761e-05,3.0549e+07,61.783,0,3.0549e+07,5.6827,12163,12984,1,12984,1,0.00017789,9.2472e-10,0,0.00017789,-2.3575e-07,5.9791e+07,281.28,0,5.9791e+07,63.15,12983,12171,1,12171,1,8.9702e-05,1.1543e-10,0,8.9702e-05,-1.676e-05,3.0775e+07,33.644,0,3.0775e+07,1.3608,12170,11369,1,11369,1,1.5179e-06,-2.4533e-10,0,1.5179e-06,-3.329e-05,4.9857e+05,-77.566,0,4.9857e+05,-18.437,11368,11756,1,11756,1,3.9311e-05,-3.7922e-11,0,3.9311e-05,-2.6204e-05,1.388e+07,-10.893,0,1.388e+07,-6.1885,11755,12533,1,12533,1,0.00014009,4.1669e-10,0,0.00014009,-7.3185e-06,4.7297e+07,123.02,0,4.7297e+07,12.09,12532,446.74,0,446.74,0,5.4461e-05,2.9854e-10,0,5.4461e-05,1.0207e-05,1.819e+07,89.027,0,1.819e+07,16.457,446.74,1
825,0.63,12164,1,12164,1,9.1149e-05,3.5431e-10,0,9.1149e-05,-1.7031e-05,3.1042e+07,104.83,0,3.1042e+07,-3.0895,12163,12984,1,12984,1,0.00018076,1.2328e-09,0,0.00018076,-2.3959e-07,6.0756e+07,373.81,0,6.0756e+07,54.855,12983,12171,1,12171,1,9.1149e-05,2.3066e-10,0,9.1149e-05,-1.703e-05,3.1272e+07,67.446,0,3.1272e+07,-3.6517,12170,11369,1,11369,1,1.5424e-06,-1.5754e-10,0,1.5424e-06,-3.3828e-05,5.0664e+05,-49.795,0,5.0664e+05,-34.063,11368,11756,1,11756,1,3.9946e-05,2.358e-11,0,3.9946e-05,-2.6627e-05,1.4104e+07,6.9804,0,1.4104e+07,-9.5414,11755,12533,1,12533,1,0.00014235,6.178e-10,0,0.00014235,-7.4366e-06,4.806e+07,181.59,0,4.806e+07,3.9526,12532,446.74,0,446.74,0,5.534e-05,3.8768e-10,0,5.534e-05,1.0371e-05,1.8483e+07,115.62,0,1.8483e+07,13.191,446.74,1
825,0.64,12164,1,12164,1,9.2596e-05,7.3163e-11,0,9.2596e-05,-1.7302e-05,3.1534e+07,21.736,0,3.1534e+07,-2.0633,12163,12984,1,12984,1,0.00018363,1.133e-09,0,0.00018363,-2.4343e-07,6.172e+07,344.66,0,6.172e+07,40.893,12983,12171,1,12171,1,9.2596e-05,-3.6262e-11,0,9.2596e-05,-1.73e-05,3.1768e+07,-10.269,0,3.1768e+07,-2.3434,12170,11369,1,11369,1,1.5668e-06,-5.2742e-10,0,1.5668e-06,-3.4364e-05,5.1465e+05,-166.56,0,5.1465e+05,-33.848,11368,11756,1,11756,1,4.0579e-05,-1.8704e-10,0,4.0579e-05,-2.705e-05,1.4328e+07,-54.928,0,1.4328e+07,-7.0895,11755,12533,1,12533,1,0.00014461,2.686e-10,0,0.00014461,-7.5546e-06,4.8823e+07,77.016,0,4.8823e+07,3.7121,12532,446.74,0,446.74,0,5.6218e-05,3.8776e-10,0,5.6218e-05,1.0536e-05,1.8776e+07,115.35,0,1.8776e+07,11.58,446.74,1
825,0.65,12164,1,12164,1,9.4043e-05,-1.7605e-10,0,9.4043e-05,-1.7572e-05,3.2027e+07,-52.121,0,3.2027e+07,0.64306,12163,12984,1,12984,1,0.0001865,2.0413e-10,0,0.0001865,-2.4731e-07,6.2685e+07,64.397,0,6.2685e+07,23.52,12983,12171,1,12171,1,9.4043e-05,-1.6012e-10,0,9.4043e-05,-1.7571e-05,3.2265e+07,-46.423,0,3.2265e+07,0.59668,12170,11369,1,11369,1,1.5915e-06,-5.2932e-10,0,1.5915e-06,-3.4901e-05,5.2277e+05,-165.36,0,5.2277e+05,-16.334,11368,11756,1,11756,1,4.1214e-05,-3.2514e-10,0,4.1214e-05,-2.7472e-05,1.4552e+07,-95.328,0,1.4552e+07,-2.8033,11755,12533,1,12533,1,0.00014687,-2.1664e-11,0,0.00014687,-7.6727e-06,4.9586e+07,-6.1783,0,4.9586e+07,4.3363,12532,446.74,0,446.74,0,5.7097e-05,1.8082e-10,0,5.7097e-05,1.0701e-05,1.907e+07,54.074,0,1.907e+07,6.3682,446.74,1
825,0.66,12164,1,12164,1,9.5489e-05,-4.9296e-13,0,9.5489e-05,-1.7842e-05,3.252e+07,-0.10271,0,3.252e+07,1.4372,12163,12984,1,12984,1,0.00018936,5.9538e-10,0,0.00018936,-2.5101e-07,6.3648e+07,180.52,0,6.3648e+07,48.28,12983,12171,1,12171,1,9.5489e-05,-3.7284e-11,0,9.5489e-05,-1.7841e-05,3.2761e+07,-10.559,0,3.2761e+07,-0.026234,12170,11369,1,11369,1,1.6158e-06,-5.2425e-10,0,1.6158e-06,-3.5438e-05,5.3075e+05,-165.61,0,5.3075e+05,-19.9,11368,11756,1,11756,1,4.1847e-05,-1.5966e-10,0,4.1847e-05,-2.7895e-05,1.4776e+07,-46.356,0,1.4776e+07,-3.2197,11755,12533,1,12533,1,0.00014913,1.3377e-10,0,0.00014913,-7.7906e-06,5.0349e+07,39.486,0,5.0349e+07,5.9371,12532,446.74,0,446.74,0,5.7975e-05,2.4428e-10,0,5.7975e-05,1.0865e-05,1.9363e+07,72.673,0,1.9363e+07,9.7394,446.74,1
825,0.67,12164,1,12164,1,9.6938e-05,3.4765e-10,0,9.6938e-05,-1.8113e-05,3.3013e+07,102.89,0,3.3013e+07,1.4183,12163,12984,1,12984,1,0.00019224,7.7378e-10,0,0.00019224,-2.5482e-07,6.4615e+07,232.48,0,6.4615e+07,63.881,12983,12171,1,12171,1,9.6938e-05,3.6547e-10,0,9.6938e-05,-1.8112e-05,3.3258e+07,105.94,0,3.3258e+07,-3.7258,12170,11369,1,11369,1,1.6405e-06,-1.0827e-10,0,1.6405e-06,-3.5976e-05,5.3885e+05,-30.651,0,5.3885e+05,-15.326,11368,11756,1,11756,1,4.2483e-05,1.7292e-10,0,4.2483e-05,-2.8318e-05,1.5e+07,49.769,0,1.5e+07,-6.718,11755,12533,1,12533,1,0.00015139,5.4586e-10,0,0.00015139,-7.9089e-06,5.1112e+07,159.99,0,5.1112e+07,4.2548,12532,446.74,0,446.74,0,5.8855e-05,2.3835e-10,0,5.8855e-05,1.103e-05,1.9657e+07,71.375,0,1.9657e+07,12.854,446.74,1
825,0.68,12164,1,12164,1,9.8384e-05,3.7753e-10,0,9.8384e-05,-1.8383e-05,3.3506e+07,111.84,0,3.3506e+07,-6.8194,12163,12984,1,12984,1,0.00019511,9.6877e-10,0,0.00019511,-2.587e-07,6.5579e+07,300.42,0,6.5579e+07,35.913,12983,12171,1,12171,1,9.8384e-05,3.4561e-10,0,9.8384e-05,-1.8382e-05,3.3754e+07,100.87,0,3.3754e+07,-9.1085,12170,11369,1,11369,1,1.665e-06,-1.6049e-10,0,1.665e-06,-3.6513e-05,5.4692e+05,-45.435,0,5.4692e+05,-23.446,11368,11756,1,11756,1,4.3116e-05,1.1893e-10,0,4.3116e-05,-2.874e-05,1.5224e+07,34.44,0,1.5224e+07,-13.868,11755,12533,1,12533,1,0.00015365,6.3829e-10,0,0.00015365,-8.0269e-06,5.1875e+07,188.17,0,5.1875e+07,-1.5691,12532,446.74,0,446.74,0,5.9733e-05,3.1183e-10,0,5.9733e-05,1.1195e-05,1.995e+07,93.296,0,1.995e+07,9.7199,446.74,1
825,0.69,12164,1,12164,1,9.9829e-05,1.0796e-10,0,9.9829e-05,-1.8653e-05,3.3998e+07,31.993,0,3.3998e+07,-5.4479,12163,12984,1,12984,1,0.00019797,1.1012e-09,0,0.00019797,-2.6252e-07,6.6541e+07,334.98,0,6.6541e+07,24.233,12983,12171,1,12171,1,9.9829e-05,1.5377e-11,0,9.9829e-05,-1.8652e-05,3.425e+07,4.3852,0,3.425e+07,-5.6478,12170,11369,1,11369,1,1.6894e-06,-6.2019e-10,0,1.6894e-06,-3.7049e-05,5.5492e+05,-193.67,0,5.5492e+05,-32.592,11368,11756,1,11756,1,4.3749e-05,-1.6867e-10,0,4.3749e-05,-2.9163e-05,1.5448e+07,-49.298,0,1.5448e+07,-11.82,11755,12533,1,12533,1,0.00015591,3.8226e-10,0,0.00015591,-8.1447e-06,5.2637e+07,112.67,0,5.2637e+07,0.72604,12532,446.74,0,446.74,0,6.061e-05,4.0176e-10,0,6.061e-05,1.1359e-05,2.0243e+07,119.47,0,2.0243e+07,9.8917,446.74,1
825,0.7,12164,1,12164,1,0.00010128,6.858e-11,0,0.00010128,-1.8924e-05,3.4491e+07,20.331,0,3.4491e+07,0.90222,12163,12984,1,12984,1,0.00020084,8.4458e-10,0,0.00020084,-2.6629e-07,6.7506e+07,257.6,0,6.7506e+07,36.545,12983,12171,1,12171,1,0.00010128,-8.355e-12,0,0.00010128,-1.8922e-05,3.4746e+07,-2.3672,0,3.4746e+07,0.021596,12170,11369,1,11369,1,1.7139e-06,-4.3843e-10,0,1.7139e-06,-3.7586e-05,5.6295e+05,-138.53,0,5.6295e+05,-24.255,11368,11756,1,11756,1,4.4384e-05,-1.1892e-10,0,4.4384e-05,-2.9586e-05,1.5672e+07,-34.805,0,1.5672e+07,-4.6958,11755,12533,1,12533,1,0.00015817,2.1711e-10,0,0.00015817,-8.2628e-06,5.34e+07,63.675,0,5.34e+07,6.795,12532,446.74,0,446.74,0,6.1489e-05,2.9474e-10,0,6.1489e-05,1.1524e-05,2.0537e+07,87.605,0,2.0537e+07,10.551,446.74,1
825,0.71,12164,1,12164,1,0.00010272,-2.1894e-10,0,0.00010272,-1.9194e-05,3.4983e+07,-64.843,0,3.4983e+07,-3.9697,12163,12984,1,12984,1,0.00020371,4.799e-10,0,0.00020371,-2.7013e-07,6.8471e+07,145.3,0,6.8471e+07,24.074,12983,12171,1,12171,1,0.00010272,-1.6475e-10,0,0.00010272,-1.9193e-05,3.5242e+07,-47.052,0,3.5242e+07,-4.5253,12170,11369,1,11369,1,1.7384e-06,-8.5871e-10,0,1.7384e-06,-3.8123e-05,5.7101e+05,-261.2,0,5.7101e+05,-25.771,11368,11756,1,11756,1,4.5018e-05,-4.8461e-10,0,4.5018e-05,-3.0008e-05,1.5895e+07,-141.21,0,1.5895e+07,-8.3488,11755,12533,1,12533,1,0.00016043,3.3163e-11,0,0.00016043,-8.3809e-06,5.4163e+07,10.014,0,5.4163e+07,1.0276,12532,446.74,0,446.74,0,6.2367e-05,3.3556e-10,0,6.2367e-05,1.1688e-05,2.083e+07,99.988,0,2.083e+07,8.8448,446.74,1
825,0.72,12164,1,12164,1,0.00010418,2.6049e-10,0,0.00010418,-1.9466e-05,3.5478e+07,77.064,0,3.5478e+07,4.6249,12163,12984,1,12984,1,0.00020659,8.3338e-10,0,0.00020659,-2.7396e-07,6.9439e+07,253.5,0,6.9439e+07,24.012,12983,12171,1,12171,1,0.00010418,1.9132e-10,0,0.00010418,-1.9464e-05,3.5741e+07,55.948,0,3.5741e+07,5.2322,12170,11369,1,11369,1,1.763e-06,-2.1063e-10,0,1.763e-06,-3.8662e-05,5.791e+05,-64.087,0,5.791e+05,-8.557,11368,11756,1,11756,1,4.5655e-05,2.2703e-11,0,4.5655e-05,-3.0433e-05,1.612e+07,6.5806,0,1.612e+07,1.1568,11755,12533,1,12533,1,0.0001627,4.8034e-10,0,0.0001627,-8.4994e-06,5.4929e+07,143.22,0,5.4929e+07,8.0012,12532,446.74,0,446.74,0,6.3249e-05,2.8231e-10,0,6.3249e-05,1.1854e-05,2.1125e+07,84.413,0,2.1125e+07,5.1061,446.74,1
825,0.73,12164,1,12164,1,0.00010562,1.9903e-10,0,0.00010562,-1.9735e-05,3.5969e+07,58.988,0,3.5969e+07,-2.714,12163,12984,1,12984,1,0.00020945,9.7121e-10,0,0.00020945,-2.777e-07,7.0399e+07,292.47,0,7.0399e+07,34.327,12983,12171,1,12171,1,0.00010562,9.9889e-11,0,0.00010562,-1.9733e-05,3.6235e+07,29.367,0,3.6235e+07,-5.245,12170,11369,1,11369,1,1.7873e-06,-4.6554e-10,0,1.7873e-06,-3.9197e-05,5.8706e+05,-145.64,0,5.8706e+05,-25.111,11368,11756,1,11756,1,4.6286e-05,-7.981e-11,0,4.6286e-05,-3.0853e-05,1.6343e+07,-23.678,0,1.6343e+07,-11.051,11755,12533,1,12533,1,0.00016495,4.9461e-10,0,0.00016495,-8.6169e-06,5.5688e+07,144.5,0,5.5688e+07,4.5257,12532,446.74,0,446.74,0,6.4124e-05,3.8026e-10,0,6.4124e-05,1.2018e-05,2.1417e+07,113.18,0,2.1417e+07,11.165,446.74,1
825,0.74,12164,1,12164,1,0.00010707,2.7253e-10,0,0.00010707,-2.0006e-05,3.6464e+07,80.641,0,3.6464e+07,0.81255,12163,12984,1,12984,1,0.00021233,5.074e-10,0,0.00021233,-2.8159e-07,7.1368e+07,152.63,0,7.1368e+07,20.447,12983,12171,1,12171,1,0.00010707,3.1421e-10,0,0.00010707,-2.0005e-05,3.6734e+07,91.879,0,3.6734e+07,-1.0351,12170,11369,1,11369,1,1.812e-06,-9.5507e-11,0,1.812e-06,-3.9736e-05,5.9519e+05,-27.039,0,5.9519e+05,-10.041,11368,11756,1,11756,1,4.6923e-05,1.4503e-10,0,4.6923e-05,-3.1278e-05,1.6568e+07,41.252,0,1.6568e+07,-4.3567,11755,12533,1,12533,1,0.00016722,4.1697e-10,0,0.00016722,-8.7355e-06,5.6455e+07,125.02,0,5.6455e+07,4.9211,12532,446.74,0,446.74,0,6.5006e-05,1.7107e-10,0,6.5006e-05,1.2183e-05,2.1711e+07,51.229,0,2.1711e+07,6.8088,446.74,1
825,0.75,12164,1,12164,1,0.00010851,2.7808e-10,0,0.00010851,-2.0276e-05,3.6955e+07,82.23,0,3.6955e+07,-5.4731,12163,12984,1,12984,1,0.00021519,9.836e-10,0,0.00021519,-2.8538e-07,7.2329e+07,295.14,0,7.2329e+07,32.449,12983,12171,1,12171,1,0.00010851,1.7195e-10,0,0.00010851,-2.0274e-05,3.7229e+07,50.314,0,3.7229e+07,-4.7996,12170,11369,1,11369,1,1.8365e-06,-1.4614e-10,0,1.8365e-06,-4.0271e-05,6.0325e+05,-46.21,0,6.0325e+05,-36.592,11368,11756,1,11756,1,4.7555e-05,9.1129e-12,0,4.7555e-05,-3.1699e-05,1.6791e+07,2.5914,0,1.6791e+07,-11.213,11755,12533,1,12533,1,0.00016947,4.9832e-10,0,0.00016947,-8.8533e-06,5.7215e+07,146.31,0,5.7215e+07,0.34367,12532,446.74,0,446.74,0,6.5882e-05,3.1442e-10,0,6.5882e-05,1.2347e-05,2.2004e+07,93.654,0,2.2004e+07,11.692,446.74,1
825,0.76,12164,1,12164,1,0.00010996,5.7039e-11,0,0.00010996,-2.0546e-05,3.7447e+07,16.895,0,3.7447e+07,-4.7687,12163,12984,1,12984,1,0.00021806,7.4025e-10,0,0.00021806,-2.8917e-07,7.3292e+07,225.04,0,7.3292e+07,22.3,12983,12171,1,12171,1,0.00010996,-9.1327e-12,0,0.00010996,-2.0544e-05,3.7724e+07,-2.5865,0,3.7724e+07,-5.0601,12170,11369,1,11369,1,1.8608e-06,-4.9338e-10,0,1.8608e-06,-4.0807e-05,6.1123e+05,-152.46,0,6.1123e+05,-26.039,11368,11756,1,11756,1,4.8188e-05,-1.3869e-10,0,4.8188e-05,-3.2121e-05,1.7015e+07,-40.289,0,1.7015e+07,-8.681,11755,12533,1,12533,1,0.00017173,2.4106e-10,0,0.00017173,-8.9711e-06,5.7977e+07,69.589,0,5.7977e+07,0.21293,12532,446.74,0,446.74,0,6.6759e-05,2.9171e-10,0,6.6759e-05,1.2511e-05,2.2297e+07,86.585,0,2.2297e+07,7.6505,446.74,1
825,0.77,12164,1,12164,1,0.0001114,1.5174e-10,0,0.0001114,-2.0816e-05,3.794e+07,45.034,0,3.794e+07,-3.4557,12163,12984,1,12984,1,0.00022092,9.2535e-10,0,0.00022092,-2.9298e-07,7.4257e+07,281.48,0,7.4257e+07,20.127,12983,12171,1,12171,1,0.0001114,6.8272e-11,0,0.0001114,-2.0815e-05,3.8221e+07,19.817,0,3.8221e+07,-3.6876,12170,11369,1,11369,1,1.8853e-06,-3.0953e-10,0,1.8853e-06,-4.1344e-05,6.1928e+05,-97.819,0,6.1928e+05,-32.792,11368,11756,1,11756,1,4.8822e-05,-5.6461e-11,0,4.8822e-05,-3.2544e-05,1.7239e+07,-15.99,0,1.7239e+07,-6.5079,11755,12533,1,12533,1,0.00017399,3.27e-10,0,0.00017399,-9.0891e-06,5.874e+07,96.225,0,5.874e+07,1.1287,12532,446.74,0,446.74,0,6.7637e-05,2.7772e-10,0,6.7637e-05,1.2676e-05,2.259e+07,82.765,0,2.259e+07,7.8363,446.74,1
825,0.78,12164,1,12164,1,0.00011285,2.3031e-10,0,0.00011285,-2.1087e-05,3.8433e+07,68.299,0,3.8433e+07,-6.7332,12163,12984,1,12984,1,0.0002238,1.1307e-09,0,0.0002238,-2.9677e-07,7.5222e+07,343.94,0,7.5222e+07,24.726,12983,12171,1,12171,1,0.00011285,1.0817e-10,0,0.00011285,-2.1085e-05,3.8717e+07,31.641,0,3.8717e+07,-5.9596,12170,11369,1,11369,1,1.9098e-06,-2.1972e-10,0,1.9098e-06,-4.1882e-05,6.2731e+05,-69.449,0,6.2731e+05,-37.738,11368,11756,1,11756,1,4.9457e-05,-3.7767e-11,0,4.9457e-05,-3.2967e-05,1.7463e+07,-10.703,0,1.7463e+07,-12.893,11755,12533,1,12533,1,0.00017625,4.5175e-10,0,0.00017625,-9.2072e-06,5.9503e+07,134.29,0,5.9503e+07,-0.66564,12532,446.74,0,446.74,0,6.8516e-05,3.4595e-10,0,6.8516e-05,1.2841e-05,2.2884e+07,103.07,0,2.2884e+07,9.8425,446.74,1
825,0.79,12164,1,12164,1,0.0001143,-4.0023e-11,0,0.0001143,-2.1357e-05,3.8925e+07,-11.836,0,3.8925e+07,-1.525,12163,12984,1,12984,1,0.00022666,3.6967e-10,0,0.00022666,-3.0063e-07,7.6185e+07,110.58,0,7.6185e+07,9.272,12983,12171,1,12171,1,0.0001143,-3.6929e-11,0,0.0001143,-2.1355e-05,3.9213e+07,-10.828,0,3.9213e+07,-2.2514,12170,11369,1,11369,1,1.9343e-06,-3.5663e-10,0,1.9343e-06,-4.2418e-05,6.3537e+05,-110.96,0,6.3537e+05,-8.226,11368,11756,1,11756,1,5.009e-05,-1.5031e-10,0,5.009e-05,-3.3389e-05,1.7686e+07,-44.546,0,1.7686e+07,-3.6629,11755,12533,1,12533,1,0.00017851,4.3993e-11,0,0.00017851,-9.3252e-06,6.0266e+07,12.64,0,6.0266e+07,0.11658,12532,446.74,0,446.74,0,6.9394e-05,1.5573e-10,0,6.9394e-05,1.3005e-05,2.3177e+07,46.277,0,2.3177e+07,3.057,446.74,1
825,0.8,12164,1,12164,1,0.00011575,2.657e-10,0,0.00011575,-2.1627e-05,3.9418e+07,78.474,0,3.9418e+07,-0.97387,12163,12984,1,12984,1,0.00022953,7.4805e-10,0,0.00022953,-3.0442e-07,7.715e+07,235.37,0,7.715e+07,15.579,12983,12171,1,12171,1,0.00011575,2.2745e-10,0,0.00011575,-2.1626e-05,3.971e+07,66.945,0,3.971e+07,-1.7382,12170,11369,1,11369,1,1.9588e-06,-3.9643e-11,0,1.9588e-06,-4.2955e-05,6.4342e+05,-12.593,0,6.4342e+05,-8.1133,11368,11756,1,11756,1,5.0725e-05,8.3502e-11,0,5.0725e-05,-3.3812e-05,1.791e+07,24.119,0,1.791e+07,-4.1383,11755,12533,1,12533,1,0.00018077,4.2472e-10,0,0.00018077,-9.4433e-06,6.1029e+07,124.93,0,6.1029e+07,0.97344,12532,446.74,0,446.74,0,7.0273e-05,2.0807e-10,0,7.0273e-05,1.317e-05,2.347e+07,62.404,0,2.347e+07,4.2164,446.74,1
825,0.81,12164,1,12164,1,0.00011719,2.9543e-10,0,0.00011719,-2.1898e-05,3.9911e+07,87.443,0,3.9911e+07,-2.1127,12163,12984,1,12984,1,0.0002324,7.9577e-10,0,0.0002324,-3.0822e-07,7.8114e+07,242.06,0,7.8114e+07,18.075,12983,12171,1,12171,1,0.00011719,2.7274e-10,0,0.00011719,-2.1896e-05,4.0206e+07,79.017,0,4.0206e+07,-3.1408,12170,11369,1,11369,1,1.9833e-06,-8.1308e-11,0,1.9833e-06,-4.3492e-05,6.5145e+05,-23.019,0,6.5145e+05,-16.083,11368,11756,1,11756,1,5.1358e-05,6.9128e-11,0,5.1358e-05,-3.4235e-05,1.8134e+07,20.026,0,1.8134e+07,-6.1678,11755,12533,1,12533,1,0.00018302,5.1001e-10,0,0.00018302,-9.5613e-06,6.1791e+07,151.03,0,6.1791e+07,1.0927,12532,446.74,0,446.74,0,7.1151e-05,2.5096e-10,0,7.1151e-05,1.3335e-05,2.3764e+07,75.027,0,2.3764e+07,5.8974,446.74,1
825,0.82,12164,1,12164,1,0.00011864,2.8703e-10,0,0.00011864,-2.2168e-05,4.0404e+07,85.027,0,4.0404e+07,-2.5279,12163,12984,1,12984,1,0.00023527,1.071e-09,0,0.00023527,-3.1196e-07,7.908e+07,323.67,0,7.908e+07,35.707,12983,12171,1,12171,1,0.00011864,1.6662e-10,0,0.00011864,-2.2166e-05,4.0703e+07,49.187,0,4.0703e+07,-3.5207,12170,11369,1,11369,1,2.0077e-06,-2.2911e-10,0,2.0077e-06,-4.403e-05,6.5947e+05,-72.427,0,6.5947e+05,-25.099,11368,11756,1,11756,1,5.1993e-05,-3.2944e-11,0,5.1993e-05,-3.4658e-05,1.8358e+07,-9.3598,0,1.8358e+07,-10.774,11755,12533,1,12533,1,0.00018529,5.7688e-10,0,0.00018529,-9.6794e-06,6.2555e+07,168.55,0,6.2555e+07,4.016,12532,446.74,0,446.74,0,7.203e-05,3.7063e-10,0,7.203e-05,1.3499e-05,2.4057e+07,110.41,0,2.4057e+07,10.595,446.74,1
825,0.83,12164,1,12164,1,0.00012009,-9.3666e-12,0,0.00012009,-2.2438e-05,4.0896e+07,-2.7744,0,4.0896e+07,-0.4501,12163,12984,1,12984,1,0.00023814,7.287e-10,0,0.00023814,-3.1583e-07,8.0043e+07,221.68,0,8.0043e+07,18.938,12983,12171,1,12171,1,0.00012009,-9.2001e-12,0,0.00012009,-2.2437e-05,4.1199e+07,-2.6171,0,4.1199e+07,-1.3611,12170,11369,1,11369,1,2.0323e-06,-5.4568e-10,0,2.0323e-06,-4.4566e-05,6.6755e+05,-165.07,0,6.6755e+05,-17.613,11368,11756,1,11756,1,5.2627e-05,-1.8969e-10,0,5.2627e-05,-3.508e-05,1.8582e+07,-55.211,0,1.8582e+07,-4.5904,11755,12533,1,12533,1,0.00018754,1.3604e-10,0,0.00018754,-9.7974e-06,6.3318e+07,39.648,0,6.3318e+07,3.6922,12532,446.74,0,446.74,0,7.2908e-05,2.7108e-10,0,7.2908e-05,1.3664e-05,2.4351e+07,80.631,0,2.4351e+07,6.1342,446.74,1
825,0.84,12164,1,12164,1,0.00012153,-1.9147e-10,0,0.00012153,-2.2709e-05,4.1389e+07,-56.624,0,4.1389e+07,0.48155,12163,12984,1,12984,1,0.00024101,4.1669e-11,0,0.00024101,-3.1967e-07,8.1007e+07,11.796,0,8.1007e+07,7.0042,12983,12171,1,12171,1,0.00012153,-1.8863e-10,0,0.00012153,-2.2707e-05,4.1695e+07,-55.593,0,4.1695e+07,0.12829,12170,11369,1,11369,1,2.0568e-06,-5.04e-10,0,2.0568e-06,-4.5103e-05,6.756e+05,-153.3,0,6.756e+05,-8.3098,11368,11756,1,11756,1,5.3261e-05,-2.8128e-10,0,5.3261e-05,-3.5503e-05,1.8806e+07,-83.029,0,1.8806e+07,-1.2904,11755,12533,1,12533,1,0.0001898,-8.6448e-11,0,0.0001898,-9.9155e-06,6.4081e+07,-25.341,0,6.4081e+07,2.2858,12532,446.74,0,446.74,0,7.3787e-05,1.3463e-10,0,7.3787e-05,1.3828e-05,2.4644e+07,40.445,0,2.4644e+07,2.9409,446.74,1
825,0.85,12164,1,12164,1,0.00012298,2.3801e-10,0,0.00012298,-2.2979e-05,4.1882e+07,70.539,0,4.1882e+07,0.24635,12163,12984,1,12984,1,0.00024388,8.5523e-10,0,0.00024388,-3.2345e-07,8.1973e+07,260.15,0,8.1973e+07,16.388,12983,12171,1,12171,1,0.00012298,1.6208e-10,0,0.00012298,-2.2977e-05,4.2192e+07,47.842,0,4.2192e+07,-0.0087514,12170,11369,1,11369,1,2.0812e-06,-1.7475e-10,0,2.0812e-06,-4.5641e-05,6.8362e+05,-55.253,0,6.8362e+05,-14.004,11368,11756,1,11756,1,5.3895e-05,-3.9585e-12,0,5.3895e-05,-3.5926e-05,1.903e+07,-1.1275,0,1.903e+07,-4.4869,11755,12533,1,12533,1,0.00019206,4.6015e-10,0,0.00019206,-1.0034e-05,6.4844e+07,134.68,0,6.4844e+07,4.1978,12532,446.74,0,446.74,0,7.4666e-05,2.7692e-10,0,7.4666e-05,1.3993e-05,2.4938e+07,82.627,0,2.4938e+07,6.0767,446.74,1
825,0.86,12164,1,12164,1,0.00012443,-3.3848e-11,0,0.00012443,-2.3249e-05,4.2375e+07,-10.011,0,4.2375e+07,-0.83382,12163,12984,1,12984,1,0.00024675,4.5218e-10,0,0.00024675,-3.2727e-07,8.2936e+07,137.4,0,8.2936e+07,12.638,12983,12171,1,12171,1,0.00012443,-1.6433e-11,0,0.00012443,-2.3248e-05,4.2688e+07,-4.6521,0,4.2688e+07,-1.4743,12170,11369,1,11369,1,2.1058e-06,-4.8413e-10,0,2.1058e-06,-4.6177e-05,6.917e+05,-148.44,0,6.917e+05,-18.867,11368,11756,1,11756,1,5.4529e-05,-1.5453e-10,0,5.4529e-05,-3.6348e-05,1.9254e+07,-45.128,0,1.9254e+07,-3.4479,11755,12533,1,12533,1,0.00019432,7.6616e-11,0,0.00019432,-1.0152e-05,6.5607e+07,22.6,0,6.5607e+07,1.7522,12532,446.74,0,446.74,0,7.5544e-05,1.9356e-10,0,7.5544e-05,1.4158e-05,2.5231e+07,57.582,0,2.5231e+07,4.4945,446.74,1
825,0.87,12164,1,12164,1,0.00012587,3.8143e-10,0,0.00012587,-2.352e-05,4.2867e+07,112.92,0,4.2867e+07,-1.8119,12163,12984,1,12984,1,0.00024962,8.5816e-10,0,0.00024962,-3.3105e-07,8.3901e+07,269.84,0,8.3901e+07,23.521,12983,12171,1,12171,1,0.00012587,3.9428e-10,0,0.00012587,-2.3518e-05,4.3185e+07,114.03,0,4.3185e+07,-2.5486,12170,11369,1,11369,1,2.1303e-06,-1.0355e-10,0,2.1303e-06,-4.6714e-05,6.9974e+05,-29.317,0,6.9974e+05,-21.819,11368,11756,1,11756,1,5.5163e-05,1.5674e-10,0,5.5163e-05,-3.6771e-05,1.9478e+07,45.149,0,1.9478e+07,-6.8872,11755,12533,1,12533,1,0.00019658,6.1093e-10,0,0.00019658,-1.027e-05,6.6369e+07,181.34,0,6.6369e+07,1.9167,12532,446.74,0,446.74,0,7.6422e-05,2.687e-10,0,7.6422e-05,1.4322e-05,2.5524e+07,80.675,0,2.5524e+07,7.2143,446.74,1
825,0.88,12164,1,12164,1,0.00012732,-4.6422e-11,0,0.00012732,-2.379e-05,4.336e+07,-13.772,0,4.336e+07,-0.82476,12163,12984,1,12984,1,0.00025249,7.3977e-11,0,0.00025249,-3.349e-07,8.4865e+07,23.346,0,8.4865e+07,6.8972,12983,12171,1,12171,1,0.00012732,-2.4409e-11,0,0.00012732,-2.3788e-05,4.3681e+07,-7.1497,0,4.3681e+07,-0.74764,12170,11369,1,11369,1,2.1548e-06,-2.5671e-10,0,2.1548e-06,-4.7251e-05,7.078e+05,-78.079,0,7.078e+05,-6.7247,11368,11756,1,11756,1,5.5797e-05,-9.3477e-11,0,5.5797e-05,-3.7194e-05,1.9701e+07,-27.348,0,1.9701e+07,-2.2513,11755,12533,1,12533,1,0.00019884,1.1079e-11,0,0.00019884,-1.0388e-05,6.7132e+07,3.1394,0,6.7132e+07,0.22643,12532,446.74,0,446.74,0,7.7301e-05,7.4289e-11,0,7.7301e-05,1.4487e-05,2.5818e+07,22.103,0,2.5818e+07,2.381,446.74,1
825,0.89,12164,1,12164,1,0.00012876,8.975e-11,0,0.00012876,-2.406e-05,4.3852e+07,26.633,0,4.3852e+07,-0.40323,12163,12984,1,12984,1,0.00025535,1.1289e-09,0,0.00025535,-3.3858e-07,8.5828e+07,343.41,0,8.5828e+07,48.475,12983,12171,1,12171,1,0.00012876,1.0142e-11,0,0.00012876,-2.4058e-05,4.4176e+07,2.9303,0,4.4176e+07,-3.3025,12170,11369,1,11369,1,2.1791e-06,-7.5105e-10,0,2.1791e-06,-4.7787e-05,7.1579e+05,-237.31,0,7.1579e+05,-23.567,11368,11756,1,11756,1,5.643e-05,-1.9316e-10,0,5.643e-05,-3.7616e-05,1.9925e+07,-55.563,0,1.9925e+07,-10.339,11755,12533,1,12533,1,0.0002011,3.6993e-10,0,0.0002011,-1.0506e-05,6.7894e+07,108.38,0,6.7894e+07,5.9826,12532,446.74,0,446.74,0,7.8178e-05,4.3114e-10,0,7.8178e-05,1.4651e-05,2.6111e+07,128.36,0,2.6111e+07,12.887,446.74,1
825,0.9,12164,1,12164,1,0.00013022,2.9735e-10,0,0.00013022,-2.4331e-05,4.4346e+07,88.119,0,4.4346e+07,0.63015,12163,12984,1,12984,1,0.00025823,5.1779e-10,0,0.00025823,-3.4248e-07,8.6796e+07,158.46,0,8.6796e+07,25.258,12983,12171,1,12171,1,0.00013022,3.5572e-10,0,0.00013022,-2.4329e-05,4.4674e+07,103.03,0,4.4674e+07,-1.5156,12170,11369,1,11369,1,2.2038e-06,-9.3137e-11,0,2.2038e-06,-4.8326e-05,7.2389e+05,-26.368,0,7.2389e+05,-7.9494,11368,11756,1,11756,1,5.7067e-05,1.553e-10,0,5.7067e-05,-3.804e-05,2.015e+07,44.251,0,2.015e+07,-4.026,11755,12533,1,12533,1,0.00020337,4.6015e-10,0,0.00020337,-1.0624e-05,6.8659e+07,137.59,0,6.8659e+07,2.7439,12532,446.74,0,446.74,0,7.9059e-05,1.8538e-10,0,7.9059e-05,1.4817e-05,2.6405e+07,55.882,0,2.6405e+07,6.8441,446.74,1
825,0.91,12164,1,12164,1,0.00013166,3.8021e-11,0,0.00013166,-2.4601e-05,4.4838e+07,11.146,0,4.4838e+07,-2.2496,12163,12984,1,12984,1,0.00026109,9.8318e-10,0,0.00026109,-3.4627e-07,8.7757e+07,299.08,0,8.7757e+07,21.698,12983,12171,1,12171,1,0.00013166,2.1168e-11,0,0.00013166,-2.4599e-05,4.5169e+07,5.9925,0,4.5169e+07,-4.0018,12170,11369,1,11369,1,2.2282e-06,-7.0794e-10,0,2.2282e-06,-4.8861e-05,7.319e+05,-222.08,0,7.319e+05,-17.171,11368,11756,1,11756,1,5.7699e-05,-2.209e-10,0,5.7699e-05,-3.8461e-05,2.0373e+07,-64.604,0,2.0373e+07,-9.0895,11755,12533,1,12533,1,0.00020562,2.6895e-10,0,0.00020562,-1.0742e-05,6.942e+07,77.963,0,6.942e+07,2.7902,12532,446.74,0,446.74,0,7.9935e-05,3.8031e-10,0,7.9935e-05,1.4981e-05,2.6698e+07,113.17,0,2.6698e+07,8.5989,446.74,1
825,0.92,12164,1,12164,1,0.0001331,-4.662e-11,0,0.0001331,-2.4871e-05,4.533e+07,-13.753,0,4.533e+07,-4.1406,12163,12984,1,12984,1,0.00026396,1.2279e-09,0,0.00026396,-3.5006e-07,8.8721e+07,373.56,0,8.8721e+07,24.322,12983,12171,1,12171,1,0.0001331,-4.3828e-11,0,0.0001331,-2.4869e-05,4.5665e+07,-12.49,0,4.5665e+07,-5.3825,12170,11369,1,11369,1,2.2526e-06,-1.0431e-09,0,2.2526e-06,-4.9398e-05,7.3992e+05,-317.27,0,7.3992e+05,-28.522,11368,11756,1,11756,1,5.8332e-05,-3.6955e-10,0,5.8332e-05,-3.8883e-05,2.0597e+07,-107.75,0,2.0597e+07,-11.279,11755,12533,1,12533,1,0.00020788,2.2424e-10,0,0.00020788,-1.086e-05,7.0182e+07,64.074,0,7.0182e+07,2.4996,12532,446.74,0,446.74,0,8.0813e-05,4.8564e-10,0,8.0813e-05,1.5145e-05,2.6991e+07,144.42,0,2.6991e+07,10.497,446.74,1
825,0.93,12164,1,12164,1,0.00013455,-4.9073e-11,0,0.00013455,-2.5142e-05,4.5824e+07,-14.609,0,4.5824e+07,0.092859,12163,12984,1,12984,1,0.00026683,6.773e-11,0,0.00026683,-3.5394e-07,8.9687e+07,19.174,0,8.9687e+07,8.783,12983,12171,1,12171,1,0.00013455,-6.1125e-11,0,0.00013455,-2.514e-05,4.6163e+07,-17.633,0,4.6163e+07,1.3876,12170,11369,1,11369,1,2.2773e-06,-1.4689e-10,0,2.2773e-06,-4.9936e-05,7.4802e+05,-44.19,0,7.4802e+05,-16.859,11368,11756,1,11756,1,5.8968e-05,-8.088e-11,0,5.8968e-05,-3.9307e-05,2.0821e+07,-24.254,0,2.0821e+07,-0.67184,11755,12533,1,12533,1,0.00021014,-1.5241e-11,0,0.00021014,-1.0978e-05,7.0947e+07,-4.3431,0,7.0947e+07,2.7247,12532,446.74,0,446.74,0,8.1693e-05,4.6033e-11,0,8.1693e-05,1.531e-05,2.7285e+07,13.649,0,2.7285e+07,4.9906,446.74,1
825,0.94,12164,1,12164,1,0.000136,9.774e-11,0,0.000136,-2.5412e-05,4.6317e+07,28.952,0,4.6317e+07,-2.4871,12163,12984,1,12984,1,0.0002697,9.5617e-10,0,0.0002697,-3.5768e-07,9.0652e+07,290.87,0,9.0652e+07,33.669,12983,12171,1,12171,1,0.000136,6.4497e-12,0,0.000136,-2.541e-05,4.6659e+07,1.8867,0,4.6659e+07,-3.2133,12170,11369,1,11369,1,2.3018e-06,-4.3292e-10,0,2.3018e-06,-5.0473e-05,7.5608e+05,-136.8,0,7.5608e+05,-28.438,11368,11756,1,11756,1,5.9602e-05,-1.4329e-10,0,5.9602e-05,-3.973e-05,2.1045e+07,-41.66,0,2.1045e+07,-9.1416,11755,12533,1,12533,1,0.0002124,3.2245e-10,0,0.0002124,-1.1096e-05,7.171e+07,95.761,0,7.171e+07,1.4163,12532,446.74,0,446.74,0,8.2571e-05,3.3652e-10,0,8.2571e-05,1.5475e-05,2.7578e+07,100.12,0,2.7578e+07,10.899,446.74,1
825,0.95,12164,1,12164,1,0.00013745,3.4195e-11,0,0.00013745,-2.5683e-05,4.681e+07,10.189,0,4.681e+07,-1.6198,12163,12984,1,12984,1,0.00027257,8.7426e-11,0,0.00027257,-3.6157e-07,9.1617e+07,26.042,0,9.1617e+07,3.3759,12983,12171,1,12171,1,0.00013745,4.5651e-11,0,0.00013745,-2.5681e-05,4.7156e+07,13.491,0,4.7156e+07,-1.6028,12170,11369,1,11369,1,2.3263e-06,-5.9546e-11,0,2.3263e-06,-5.101e-05,7.6413e+05,-16.859,0,7.6413e+05,-6.2613,11368,11756,1,11756,1,6.0236e-05,3.9599e-12,0,6.0236e-05,-4.0153e-05,2.1269e+07,1.1223,0,2.1269e+07,-3.1305,11755,12533,1,12533,1,0.00021466,6.8217e-11,0,0.00021466,-1.1214e-05,7.2473e+07,20.15,0,7.2473e+07,-0.45517,12532,446.74,0,446.74,0,8.3451e-05,3.8821e-11,0,8.3451e-05,1.564e-05,2.7872e+07,11.42,0,2.7872e+07,2.0368,446.74,1
825,0.96,12164,1,12164,1,0.00013889,2.4298e-10,0,0.00013889,-2.5953e-05,4.7302e+07,71.921,0,4.7302e+07,0.94165,12163,12984,1,12984,1,0.00027544,7.8056e-10,0,0.00027544,-3.6533e-07,9.258e+07,236.16,0,9.258e+07,18.282,12983,12171,1,12171,1,0.00013889,1.811e-10,0,0.00013889,-2.5951e-05,4.7652e+07,53.446,0,4.7652e+07,0.61459,12170,11369,1,11369,1,2.3507e-06,-1.4784e-10,0,2.3507e-06,-5.1547e-05,7.7215e+05,-44.962,0,7.7215e+05,-12.159,11368,11756,1,11756,1,6.087e-05,1.0713e-11,0,6.087e-05,-4.0575e-05,2.1493e+07,3.096,0,2.1493e+07,-3.7588,11755,12533,1,12533,1,0.00021692,4.5903e-10,0,0.00021692,-1.1332e-05,7.3235e+07,133.62,0,7.3235e+07,4.5215,12532,446.74,0,446.74,0,8.4328e-05,2.6018e-10,0,8.4328e-05,1.5804e-05,2.8165e+07,77.591,0,2.8165e+07,6.2907,446.74,1
825,0.97,12164,1,12164,1,0.00014034,1.1606e-10,0,0.00014034,-2.6223e-05,4.7794e+07,34.346,0,4.7794e+07,2.2365,12163,12984,1,12984,1,0.00027831,9.8124e-10,0,0.00027831,-3.6905e-07,9.3544e+07,297.42,0,9.3544e+07,43.349,12983,12171,1,12171,1,0.00014034,2.834e-11,0,0.00014034,-2.6221e-05,4.8148e+07,8.13,0,4.8148e+07,-0.00070527,12170,11369,1,11369,1,2.3752e-06,-4.8426e-10,0,2.3752e-06,-5.2083e-05,7.8018e+05,-153.02,0,7.8018e+05,-17.123,11368,11756,1,11756,1,6.1504e-05,-1.2138e-10,0,6.1504e-05,-4.0997e-05,2.1716e+07,-36.211,0,2.1716e+07,-4.7905,11755,12533,1,12533,1,0.00021918,3.4072e-10,0,0.00021918,-1.145e-05,7.3998e+07,102.41,0,7.3998e+07,7.3484,12532,446.74,0,446.74,0,8.5206e-05,3.5129e-10,0,8.5206e-05,1.5969e-05,2.8458e+07,104.5,0,2.8458e+07,11.051,446.74,1
825,0.98,12164,1,12164,1,0.00014179,-1.7619e-10,0,0.00014179,-2.6494e-05,4.8288e+07,-52.117,0,4.8288e+07,0.33685,12163,12984,1,12984,1,0.00028118,3.267e-11,0,0.00028118,-3.7299e-07,9.451e+07,9.2492,0,9.451e+07,6.1257,12983,12171,1,12171,1,0.00014179,-2.1115e-10,0,0.00014179,-2.6492e-05,4.8645e+07,-61.675,0,4.8645e+07,0.39662,12170,11369,1,11369,1,2.3998e-06,-2.9769e-10,0,2.3998e-06,-5.2621e-05,7.8828e+05,-91.416,0,7.8828e+05,-7.7887,11368,11756,1,11756,1,6.2139e-05,-2.5981e-10,0,6.2139e-05,-4.1421e-05,2.1941e+07,-77.648,0,2.1941e+07,-0.52247,11755,12533,1,12533,1,0.00022144,-1.0026e-10,0,0.00022144,-1.1568e-05,7.4762e+07,-28.521,0,7.4762e+07,1.4065,12532,446.74,0,446.74,0,8.6086e-05,9.769e-11,0,8.6086e-05,1.6133e-05,2.8752e+07,29.534,0,2.8752e+07,1.9678,446.74,1
825,0.99,12164,1,12164,1,0.00014324,1.7486e-10,0,0.00014324,-2.6764e-05,4.878e+07,51.765,0,4.878e+07,-4.6968,12163,12984,1,12984,1,0.00028405,1.3824e-09,0,0.00028405,-3.7664e-07,9.5474e+07,424.2,0,9.5474e+07,59.265,12983,12171,1,12171,1,0.00014324,2.6003e-11,0,0.00014324,-2.6762e-05,4.9141e+07,7.7034,0,4.9141e+07,-5.9557,12170,11369,1,11369,1,2.4242e-06,-5.8802e-10,0,2.4242e-06,-5.3158e-05,7.963e+05,-185.79,0,7.963e+05,-40.459,11368,11756,1,11756,1,6.2772e-05,-1.6154e-10,0,6.2772e-05,-4.1843e-05,2.2164e+07,-46.723,0,2.2164e+07,-14.467,11755,12533,1,12533,1,0.0002237,5.0299e-10,0,0.0002237,-1.1686e-05,7.5524e+07,146.81,0,7.5524e+07,0.74384,12532,446.74,0,446.74,0,8.6963e-05,4.7741e-10,0,8.6963e-05,1.6298e-05,2.9045e+07,142.04,0,2.9045e+07,16.107,446.74,1
825,1,12164,1,12164,1,0.00014468,2.8116e-10,0,0.00014468,-2.7034e-05,4.9273e+07,83.168,0,4.9273e+07,-2.3633,12163,12984,1,12984,1,0.00028692,1.3125e-09,0,0.00028692,-3.8051e-07,9.6438e+07,398.46,0,9.6438e+07,35.215,12983,12171,1,12171,1,0.00014468,1.239e-10,0,0.00014468,-2.7032e-05,4.9637e+07,36.053,0,4.9637e+07,-3.2339,12170,11369,1,11369,1,2.4486e-06,-4.2344e-10,0,2.4486e-06,-5.3695e-05,8.0431e+05,-128.8,0,8.0431e+05,-34.543,11368,11756,1,11756,1,6.3406e-05,-7.4784e-11,0,6.3406e-05,-4.2265e-05,2.2388e+07,-21.416,0,2.2388e+07,-10.131,11755,12533,1,12533,1,0.00022596,6.0827e-10,0,0.00022596,-1.1804e-05,7.6287e+07,181.2,0,7.6287e+07,5.5619,12532,446.74,0,446.74,0,8.7842e-05,4.6532e-10,0,8.7842e-05,1.6463e-05,2.9338e+07,138.39,0,2.9338e+07,12.822,446.74,1
825,1.01,12164,1,12164,1,0.00014613,-1.1523e-10,0,0.00014613,-2.7305e-05,4.9766e+07,-34.103,0,4.9766e+07,-0.13431,12163,12984,1,12984,1,0.00028979,5.4313e-11,0,0.00028979,-3.844e-07,9.7402e+07,15.376,0,9.7402e+07,10.027,12983,12171,1,12171,1,0.00014613,-1.3436e-10,0,0.00014613,-2.7303e-05,5.0133e+07,-38.808,0,5.0133e+07,-0.085488,12170,11369,1,11369,1,2.4733e-06,-2.7925e-10,0,2.4733e-06,-5.4231e-05,8.1241e+05,-86.269,0,8.1241e+05,-12.642,11368,11756,1,11756,1,6.404e-05,-1.7187e-10,0,6.404e-05,-4.2688e-05,2.2612e+07,-51.672,0,2.2612e+07,-2.7169,11755,12533,1,12533,1,0.00022822,-5.7305e-11,0,0.00022822,-1.1922e-05,7.705e+07,-16.363,0,7.705e+07,2.6683,12532,446.74,0,446.74,0,8.872e-05,7.5655e-11,0,8.872e-05,1.6627e-05,2.9632e+07,22.709,0,2.9632e+07,4.5327,446.74,1
825,1.02,12164,1,12164,1,0.00014758,3.2443e-10,0,0.00014758,-2.7575e-05,5.0258e+07,96.103,0,5.0258e+07,-5.8611,12163,12984,1,12984,1,0.00029266,1.6514e-09,0,0.00029266,-3.8811e-07,9.8367e+07,504.85,0,9.8367e+07,34.849,12983,12171,1,12171,1,0.00014758,1.4223e-10,0,0.00014758,-2.7573e-05,5.063e+07,40.891,0,5.063e+07,-7.1127,12170,11369,1,11369,1,2.4976e-06,-6.315e-10,0,2.4976e-06,-5.4769e-05,8.204e+05,-195.28,0,8.204e+05,-34.358,11368,11756,1,11756,1,6.4674e-05,-1.076e-10,0,6.4674e-05,-4.3111e-05,2.2836e+07,-30.91,0,2.2836e+07,-15.536,11755,12533,1,12533,1,0.00023048,7.366e-10,0,0.00023048,-1.204e-05,7.7812e+07,216.92,0,7.7812e+07,2.3526,12532,446.74,0,446.74,0,8.9598e-05,5.8386e-10,0,8.9598e-05,1.6792e-05,2.9925e+07,174.06,0,2.9925e+07,12.384,446.74,1
825,1.03,12164,1,12164,1,0.00014902,2.0183e-10,0,0.00014902,-2.7845e-05,5.0751e+07,59.762,0,5.0751e+07,-1.9611,12163,12984,1,12984,1,0.00029552,1.1558e-09,0,0.00029552,-3.9191e-07,9.9331e+07,355.21,0,9.9331e+07,49.933,12983,12171,1,12171,1,0.00014902,7.8788e-11,0,0.00014902,-2.7843e-05,5.1126e+07,22.613,0,5.1126e+07,-3.7329,12170,11369,1,11369,1,2.5222e-06,-4.6853e-10,0,2.5222e-06,-5.5305e-05,8.2849e+05,-148.08,0,8.2849e+05,-33.329,11368,11756,1,11756,1,6.5308e-05,-7.8096e-11,0,6.5308e-05,-4.3533e-05,2.306e+07,-22.649,0,2.306e+07,-9.6555,11755,12533,1,12533,1,0.00023274,4.4422e-10,0,0.00023274,-1.2158e-05,7.8575e+07,131.89,0,7.8575e+07,6.3225,12532,446.74,0,446.74,0,9.0476e-05,3.959e-10,0,9.0476e-05,1.6956e-05,3.0218e+07,117.87,0,3.0218e+07,13.501,446.74,1
825,1.04,12164,1,12164,1,0.00015047,2.4959e-10,0,0.00015047,-2.8116e-05,5.1244e+07,73.845,0,5.1244e+07,0.23434,12163,12984,1,12984,1,0.0002984,4.8203e-10,0,0.0002984,-3.958e-07,1.003e+08,146.63,0,1.003e+08,12.23,12983,12171,1,12171,1,0.00015047,2.7347e-10,0,0.00015047,-2.8114e-05,5.1623e+07,81.003,0,5.1623e+07,0.32157,12170,11369,1,11369,1,2.5467e-06,-8.9745e-11,0,2.5467e-06,-5.5842e-05,8.3653e+05,-25.408,0,8.3653e+05,-8.3127,11368,11756,1,11756,1,6.5943e-05,1.4252e-10,0,6.5943e-05,-4.3956e-05,2.3284e+07,40.538,0,2.3284e+07,-2.2258,11755,12533,1,12533,1,0.000235,3.6514e-10,0,0.000235,-1.2276e-05,7.9338e+07,108.48,0,7.9338e+07,2.7952,12532,446.74,0,446.74,0,9.1356e-05,1.4668e-10,0,9.1356e-05,1.7121e-05,3.0512e+07,44.294,0,3.0512e+07,3.6589,446.74,1
825,1.05,12164,1,12164,1,0.00015192,8.7065e-11,0,0.00015192,-2.8386e-05,5.1737e+07,25.741,0,5.1737e+07,2.1869,12163,12984,1,12984,1,0.00030126,8.7444e-10,0,0.00030126,-3.995e-07,1.0126e+08,265.84,0,1.0126e+08,50.178,12983,12171,1,12171,1,0.00015192,1.4778e-11,0,0.00015192,-2.8384e-05,5.2119e+07,4.1824,0,5.2119e+07,-1.0323,12170,11369,1,11369,1,2.5711e-06,-5.4639e-10,0,2.5711e-06,-5.6379e-05,8.4456e+05,-172.63,0,8.4456e+05,-17.138,11368,11756,1,11756,1,6.6577e-05,-1.6422e-10,0,6.6577e-05,-4.4379e-05,2.3508e+07,-47.819,0,2.3508e+07,-6.6844,11755,12533,1,12533,1,0.00023726,3.3085e-10,0,0.00023726,-1.2394e-05,8.0101e+07,97.526,0,8.0101e+07,7.7769,12532,446.74,0,446.74,0,9.2234e-05,3.6317e-10,0,9.2234e-05,1.7286e-05,3.0805e+07,108.02,0,3.0805e+07,12.839,446.74,1
825,1.06,12164,1,12164,1,0.00015336,3.3138e-10,0,0.00015336,-2.8656e-05,5.2229e+07,98.071,0,5.2229e+07,-2.6547,12163,12984,1,12984,1,0.00030413,6.2363e-10,0,0.00030413,-4.0341e-07,1.0222e+08,189.19,0,1.0222e+08,15.208,12983,12171,1,12171,1,0.00015336,3.6834e-10,0,0.00015336,-2.8654e-05,5.2615e+07,106.28,0,5.2615e+07,-3.7552,12170,11369,1,11369,1,2.5957e-06,-1.0801e-10,0,2.5957e-06,-5.6916e-05,8.5262e+05,-30.578,0,8.5262e+05,-16.593,11368,11756,1,11756,1,6.7211e-05,1.6856e-10,0,6.7211e-05,-4.4801e-05,2.3731e+07,48.64,0,2.3731e+07,-7.3381,11755,12533,1,12533,1,0.00023952,5.0906e-10,0,0.00023952,-1.2512e-05,8.0864e+07,151.06,0,8.0864e+07,1.3349,12532,446.74,0,446.74,0,9.3112e-05,2.0804e-10,0,9.3112e-05,1.745e-05,3.1099e+07,62.571,0,3.1099e+07,6.3457,446.74,1
825,1.07,12164,1,12164,1,0.00015481,-2.7674e-10,0,0.00015481,-2.8927e-05,5.2723e+07,-81.787,0,5.2723e+07,1.7638,12163,12984,1,12984,1,0.00030701,4.6646e-11,0,0.00030701,-4.0726e-07,1.0319e+08,13.205,0,1.0319e+08,16.286,12983,12171,1,12171,1,0.00015481,-2.5584e-10,0,0.00015481,-2.8925e-05,5.3112e+07,-75.109,0,5.3112e+07,1.7207,12170,11369,1,11369,1,2.6203e-06,-6.4567e-10,0,2.6203e-06,-5.7454e-05,8.6069e+05,-196.23,0,8.6069e+05,-15.811,11368,11756,1,11756,1,6.7846e-05,-3.9719e-10,0,6.7846e-05,-4.5225e-05,2.3956e+07,-116.92,0,2.3956e+07,-1.014,11755,12533,1,12533,1,0.00024178,-1.5198e-10,0,0.00024178,-1.2631e-05,8.1628e+07,-43.367,0,8.1628e+07,4.7707,12532,446.74,0,446.74,0,9.3992e-05,1.7512e-10,0,9.3992e-05,1.7615e-05,3.1393e+07,52.798,0,3.1393e+07,5.4922,446.74,1
825,1.08,12164,1,12164,1,0.00015626,2.1413e-10,0,0.00015626,-2.9197e-05,5.3215e+07,63.373,0,5.3215e+07,1.6335,12163,12984,1,12984,1,0.00030987,8.4885e-10,0,0.00030987,-4.1096e-07,1.0415e+08,255.35,0,1.0415e+08,37.577,12983,12171,1,12171,1,0.00015626,1.2624e-10,0,0.00015626,-2.9195e-05,5.3608e+07,37.411,0,5.3608e+07,-0.21238,12170,11369,1,11369,1,2.6446e-06,-2.9566e-10,0,2.6446e-06,-5.799e-05,8.687e+05,-93.444,0,8.687e+05,-16.391,11368,11756,1,11756,1,6.8479e-05,-3.3891e-11,0,6.8479e-05,-4.5647e-05,2.4179e+07,-9.6259,0,2.4179e+07,-5.5098,11755,12533,1,12533,1,0.00024404,4.6422e-10,0,0.00024404,-1.2749e-05,8.239e+07,136.37,0,8.239e+07,7.3614,12532,446.74,0,446.74,0,9.4869e-05,3.104e-10,0,9.4869e-05,1.778e-05,3.1685e+07,92.378,0,3.1685e+07,10.338,446.74,1
825,1.09,12164,1,12164,1,0.0001577,2.0779e-10,0,0.0001577,-2.9467e-05,5.3707e+07,61.595,0,5.3707e+07,1.0185,12163,12984,1,12984,1,0.00031274,5.3649e-10,0,0.00031274,-4.1483e-07,1.0512e+08,163.21,0,1.0512e+08,15.887,12983,12171,1,12171,1,0.0001577,2.2416e-10,0,0.0001577,-2.9465e-05,5.4104e+07,65.422,0,5.4104e+07,0.41454,12170,11369,1,11369,1,2.6692e-06,-9.2051e-11,0,2.6692e-06,-5.8527e-05,8.7676e+05,-26.061,0,8.7676e+05,-13.557,11368,11756,1,11756,1,6.9113e-05,6.6067e-11,0,6.9113e-05,-4.6069e-05,2.4403e+07,18.77,0,2.4403e+07,-3.5726,11755,12533,1,12533,1,0.00024629,3.4873e-10,0,0.00024629,-1.2867e-05,8.3152e+07,103.29,0,8.3152e+07,5.6951,12532,446.74,0,446.74,0,9.5747e-05,1.6256e-10,0,9.5747e-05,1.7944e-05,3.1979e+07,48.666,0,3.1979e+07,6.1972,446.74,1
825,1.1,12164,1,12164,1,0.00015915,1.0305e-10,0,0.00015915,-2.9738e-05,5.4201e+07,30.602,0,5.4201e+07,0.16925,12163,12984,1,12984,1,0.00031561,2.4156e-10,0,0.00031561,-4.1869e-07,1.0608e+08,73.476,0,1.0608e+08,9.419,12983,12171,1,12171,1,0.00015915,1.0377e-10,0,0.00015915,-2.9736e-05,5.4601e+07,29.91,0,5.4601e+07,-0.57007,12170,11369,1,11369,1,2.6938e-06,-9.3224e-11,0,2.6938e-06,-5.9065e-05,8.8485e+05,-26.394,0,8.8485e+05,-6.1253,11368,11756,1,11756,1,6.9748e-05,2.9532e-11,0,6.9748e-05,-4.6493e-05,2.4627e+07,8.4988,0,2.4627e+07,-2.3941,11755,12533,1,12533,1,0.00024856,1.8595e-10,0,0.00024856,-1.2985e-05,8.3917e+07,55.148,0,8.3917e+07,2.3654,12532,446.74,0,446.74,0,9.6627e-05,9.0658e-11,0,9.6627e-05,1.8109e-05,3.2273e+07,27.082,0,3.2273e+07,3.4927,446.74,1
825,1.11,12164,1,12164,1,0.0001606,4.1737e-10,0,0.0001606,-3.0008e-05,5.4693e+07,123.55,0,5.4693e+07,-2.7792,12163,12984,1,12984,1,0.00031848,1.0994e-09,0,0.00031848,-4.2244e-07,1.0705e+08,334.41,0,1.0705e+08,24.192,12983,12171,1,12171,1,0.0001606,4.0908e-10,0,0.0001606,-3.0006e-05,5.5096e+07,119.48,0,5.5096e+07,-4.7811,12170,11369,1,11369,1,2.7182e-06,-1.3186e-10,0,2.7182e-06,-5.9601e-05,8.9286e+05,-37.332,0,8.9286e+05,-18.585,11368,11756,1,11756,1,7.0381e-05,1.3695e-10,0,7.0381e-05,-4.6914e-05,2.4851e+07,39.173,0,2.4851e+07,-9.7971,11755,12533,1,12533,1,0.00025081,6.6778e-10,0,0.00025081,-1.3103e-05,8.4678e+07,195.52,0,8.4678e+07,2.4164,12532,446.74,0,446.74,0,9.7504e-05,3.2932e-10,0,9.7504e-05,1.8273e-05,3.2565e+07,98.576,0,3.2565e+07,8.8553,446.74,1
825,1.12,12164,1,12164,1,0.00016205,-3.4697e-10,0,0.00016205,-3.0279e-05,5.5186e+07,-102.67,0,5.5186e+07,0.23547,12163,12984,1,12984,1,0.00032135,7.7493e-11,0,0.00032135,-4.2628e-07,1.0801e+08,21.939,0,1.0801e+08,10.885,12983,12171,1,12171,1,0.00016205,-3.7164e-10,0,0.00016205,-3.0276e-05,5.5593e+07,-107.82,0,5.5593e+07,1.1301,12170,11369,1,11369,1,2.7427e-06,-6.3812e-10,0,2.7427e-06,-6.0138e-05,9.0093e+05,-194.88,0,9.0093e+05,-14.238,11368,11756,1,11756,1,7.1016e-05,-5.3039e-10,0,7.1016e-05,-4.7338e-05,2.5075e+07,-158.02,0,2.5075e+07,-3.3487,11755,12533,1,12533,1,0.00025307,-1.9276e-10,0,0.00025307,-1.3221e-05,8.5442e+07,-55.302,0,8.5442e+07,3.7636,12532,446.74,0,446.74,0,9.8384e-05,2.1046e-10,0,9.8384e-05,1.8438e-05,3.2859e+07,63.507,0,3.2859e+07,4.4381,446.74,1
825,1.13,12164,1,12164,1,0.00016349,1.4287e-10,0,0.00016349,-3.0549e-05,5.5678e+07,42.446,0,5.5678e+07,1.2755,12163,12984,1,12984,1,0.00032422,1.2298e-09,0,0.00032422,-4.3e-07,1.0897e+08,376.59,0,1.0897e+08,46.053,12983,12171,1,12171,1,0.00016349,1.4961e-11,0,0.00016349,-3.0546e-05,5.6089e+07,4.3213,0,5.6089e+07,-1.6142,12170,11369,1,11369,1,2.7672e-06,-4.647e-10,0,2.7672e-06,-6.0675e-05,9.0897e+05,-141.85,0,9.0897e+05,-18.828,11368,11756,1,11756,1,7.1649e-05,-1.1795e-10,0,7.1649e-05,-4.776e-05,2.5298e+07,-33.924,0,2.5298e+07,-6.9313,11755,12533,1,12533,1,0.00025533,3.5508e-10,0,0.00025533,-1.3339e-05,8.6204e+07,104.49,0,8.6204e+07,6.5896,12532,446.74,0,446.74,0,9.9261e-05,3.877e-10,0,9.9261e-05,1.8603e-05,3.3152e+07,115.4,0,3.3152e+07,11.96,446.74,1
825,1.14,12164,1,12164,1,0.00016494,-2.5874e-10,0,0.00016494,-3.082e-05,5.6172e+07,-76.45,0,5.6172e+07,-0.43715,12163,12984,1,12984,1,0.00032709,2.0778e-11,0,0.00032709,-4.3392e-07,1.0994e+08,5.8815,0,1.0994e+08,4.4169,12983,12171,1,12171,1,0.00016494,-2.9102e-10,0,0.00016494,-3.0817e-05,5.6586e+07,-85.197,0,5.6586e+07,0.10977,12170,11369,1,11369,1,2.7918e-06,-4.4344e-10,0,2.7918e-06,-6.1212e-05,9.1704e+05,-134.81,0,9.1704e+05,-10.743,11368,11756,1,11756,1,7.2284e-05,-3.6715e-10,0,7.2284e-05,-4.8183e-05,2.5523e+07,-110.18,0,2.5523e+07,-1.1463,11755,12533,1,12533,1,0.0002576,-1.6022e-10,0,0.0002576,-1.3457e-05,8.6968e+07,-45.572,0,8.6968e+07,1.4968,12532,446.74,0,446.74,0,0.00010014,1.3157e-10,0,0.00010014,1.8768e-05,3.3446e+07,39.97,0,3.3446e+07,2.9879,446.74,1
825,1.15,12164,1,12164,1,0.00016639,-4.7076e-12,0,0.00016639,-3.109e-05,5.6664e+07,-1.3603,0,5.6664e+07,0.54298,12163,12984,1,12984,1,0.00032996,5.1947e-10,0,0.00032996,-4.3766e-07,1.109e+08,157.92,0,1.109e+08,28.507,12983,12171,1,12171,1,0.00016639,-2.7028e-11,0,0.00016639,-3.1087e-05,5.7083e+07,-7.6531,0,5.7083e+07,0.26589,12170,11369,1,11369,1,2.8162e-06,-3.2202e-10,0,2.8162e-06,-6.1749e-05,9.2507e+05,-99.81,0,9.2507e+05,-18.943,11368,11756,1,11756,1,7.2918e-05,-1.5489e-10,0,7.2918e-05,-4.8606e-05,2.5747e+07,-45.54,0,2.5747e+07,-3.8277,11755,12533,1,12533,1,0.00025986,9.5004e-11,0,0.00025986,-1.3575e-05,8.7731e+07,27.465,0,8.7731e+07,4.2851,12532,446.74,0,446.74,0,0.00010102,2.0778e-10,0,0.00010102,1.8932e-05,3.374e+07,61.803,0,3.374e+07,8.1998,446.74,1
825,1.16,12164,1,12164,1,0.00016783,-2.5468e-11,0,0.00016783,-3.136e-05,5.7157e+07,-7.4739,0,5.7157e+07,-0.86535,12163,12984,1,12984,1,0.00033283,2.0792e-10,0,0.00033283,-4.4155e-07,1.1187e+08,63.25,0,1.1187e+08,7.9331,12983,12171,1,12171,1,0.00016783,-1.002e-11,0,0.00016783,-3.1358e-05,5.7579e+07,-2.8491,0,5.7579e+07,-0.60473,12170,11369,1,11369,1,2.8408e-06,-3.3439e-10,0,2.8408e-06,-6.2286e-05,9.3314e+05,-101.29,0,9.3314e+05,-15.859,11368,11756,1,11756,1,7.3552e-05,-1.1101e-10,0,7.3552e-05,-4.9029e-05,2.597e+07,-32.136,0,2.597e+07,-3.1926,11755,12533,1,12533,1,0.00026212,7.8793e-11,0,0.00026212,-1.3693e-05,8.8494e+07,22.692,0,8.8494e+07,1.862,12532,446.74,0,446.74,0,0.0001019,1.4326e-10,0,0.0001019,1.9097e-05,3.4033e+07,42.609,0,3.4033e+07,4.2899,446.74,1
825,1.17,12164,1,12164,1,0.00016928,-4.6389e-11,0,0.00016928,-3.163e-05,5.765e+07,-13.632,0,5.765e+07,-2.897,12163,12984,1,12984,1,0.0003357,8.8985e-10,0,0.0003357,-4.4528e-07,1.1283e+08,271.35,0,1.1283e+08,26.959,12983,12171,1,12171,1,0.00016928,-5.3534e-11,0,0.00016928,-3.1628e-05,5.8075e+07,-15.166,0,5.8075e+07,-3.857,12170,11369,1,11369,1,2.8652e-06,-6.8061e-10,0,2.8652e-06,-6.2823e-05,9.4116e+05,-207.03,0,9.4116e+05,-22.075,11368,11756,1,11756,1,7.4186e-05,-3.3106e-10,0,7.4186e-05,-4.9451e-05,2.6194e+07,-96.903,0,2.6194e+07,-8.0746,11755,12533,1,12533,1,0.00026437,1.8407e-10,0,0.00026437,-1.3811e-05,8.9256e+07,53.211,0,8.9256e+07,2.1809,12532,446.74,0,446.74,0,0.00010278,3.8211e-10,0,0.00010278,1.9261e-05,3.4326e+07,113.65,0,3.4326e+07,8.8705,446.74,1
825,1.18,12164,1,12164,1,0.00017073,2.004e-10,0,0.00017073,-3.1901e-05,5.8142e+07,59.289,0,5.8142e+07,-7.8075,12163,12984,1,12984,1,0.00033856,1.1874e-09,0,0.00033856,-4.4913e-07,1.138e+08,361.19,0,1.138e+08,12.156,12983,12171,1,12171,1,0.00017073,9.128e-11,0,0.00017073,-3.1898e-05,5.8571e+07,26.573,0,5.8571e+07,-7.8873,12170,11369,1,11369,1,2.8897e-06,-5.119e-10,0,2.8897e-06,-6.336e-05,9.492e+05,-156.74,0,9.492e+05,-24.048,11368,11756,1,11756,1,7.482e-05,-9.4494e-11,0,7.482e-05,-4.9873e-05,2.6418e+07,-27.022,0,2.6418e+07,-13.988,11755,12533,1,12533,1,0.00026663,4.9984e-10,0,0.00026663,-1.3929e-05,9.0019e+07,146.9,0,9.0019e+07,-2.3202,12532,446.74,0,446.74,0,0.00010365,4.2143e-10,0,0.00010365,1.9426e-05,3.4619e+07,125.33,0,3.4619e+07,7.7302,446.74,1
825,1.19,12164,1,12164,1,0.00017217,2.4299e-10,0,0.00017217,-3.2171e-05,5.8634e+07,71.927,0,5.8634e+07,-3.97,12163,12984,1,12984,1,0.00034143,1.303e-09,0,0.00034143,-4.529e-07,1.1476e+08,396.38,0,1.1476e+08,23.176,12983,12171,1,12171,1,0.00017217,1.1081e-10,0,0.00017217,-3.2168e-05,5.9067e+07,31.857,0,5.9067e+07,-5.0147,12170,11369,1,11369,1,2.9142e-06,-4.7644e-10,0,2.9142e-06,-6.3896e-05,9.5725e+05,-144.92,0,9.5725e+05,-25.199,11368,11756,1,11756,1,7.5453e-05,-7.4886e-11,0,7.5453e-05,-5.0296e-05,2.6642e+07,-21.747,0,2.6642e+07,-10.231,11755,12533,1,12533,1,0.00026889,5.4529e-10,0,0.00026889,-1.4047e-05,9.0781e+07,159.25,0,9.0781e+07,1.9454,12532,446.74,0,446.74,0,0.00010453,4.2901e-10,0,0.00010453,1.959e-05,3.4912e+07,127.69,0,3.4912e+07,8.9222,446.74,1
825,1.2,12164,1,12164,1,0.00017362,3.581e-11,0,0.00017362,-3.2441e-05,5.9127e+07,10.693,0,5.9127e+07,-5.5224,12163,12984,1,12984,1,0.0003443,1.1813e-09,0,0.0003443,-4.5673e-07,1.1573e+08,359.31,0,1.1573e+08,16.336,12983,12171,1,12171,1,0.00017362,-2.3931e-11,0,0.00017362,-3.2439e-05,5.9563e+07,-6.7785,0,5.9563e+07,-4.4047,12170,11369,1,11369,1,2.9387e-06,-7.3403e-10,0,2.9387e-06,-6.4433e-05,9.653e+05,-223.27,0,9.653e+05,-37.892,11368,11756,1,11756,1,7.6088e-05,-2.8108e-10,0,7.6088e-05,-5.0719e-05,2.6866e+07,-81.475,0,2.6866e+07,-11.403,11755,12533,1,12533,1,0.00027115,3.0713e-10,0,0.00027115,-1.4165e-05,9.1544e+07,89.635,0,9.1544e+07,1.1789,12532,446.74,0,446.74,0,0.00010541,4.4603e-10,0,0.00010541,1.9755e-05,3.5206e+07,132.61,0,3.5206e+07,9.67,446.74,1
825,1.21,12164,1,12164,1,0.00017507,2.885e-10,0,0.00017507,-3.2712e-05,5.962e+07,85.566,0,5.962e+07,1.1169,12163,12984,1,12984,1,0.00034717,6.2545e-10,0,0.00034717,-4.6051e-07,1.1669e+08,188.6,0,1.1669e+08,27.762,12983,12171,1,12171,1,0.00017507,3.1788e-10,0,0.00017507,-3.2709e-05,6.006e+07,92.451,0,6.006e+07,-1.2762,12170,11369,1,11369,1,2.9632e-06,-1.4883e-10,0,2.9632e-06,-6.497e-05,9.7334e+05,-42.136,0,9.7334e+05,-16.446,11368,11756,1,11756,1,7.6722e-05,1.0706e-10,0,7.6722e-05,-5.1141e-05,2.709e+07,31.408,0,2.709e+07,-6.2594,11755,12533,1,12533,1,0.00027341,4.7808e-10,0,0.00027341,-1.4283e-05,9.2307e+07,141.68,0,9.2307e+07,7.1643,12532,446.74,0,446.74,0,0.00010629,2.1919e-10,0,0.00010629,1.992e-05,3.5499e+07,65.565,0,3.5499e+07,10.38,446.74,1
825,1.22,12164,1,12164,1,0.00017651,4.8592e-10,0,0.00017651,-3.2982e-05,6.0113e+07,143.81,0,6.0113e+07,-3.4501,12163,12984,1,12984,1,0.00035004,1.4263e-09,0,0.00035004,-4.6432e-07,1.1765e+08,433.82,0,1.1765e+08,24.362,12983,12171,1,12171,1,0.00017651,3.8469e-10,0,0.00017651,-3.2979e-05,6.0556e+07,113.75,0,6.0556e+07,-3.4408,12170,11369,1,11369,1,2.9877e-06,-1.4277e-10,0,2.9877e-06,-6.5508e-05,9.814e+05,-40.421,0,9.814e+05,-24.69,11368,11756,1,11756,1,7.7356e-05,7.5071e-11,0,7.7356e-05,-5.1564e-05,2.7313e+07,21.287,0,2.7313e+07,-9.8754,11755,12533,1,12533,1,0.00027567,8.6904e-10,0,0.00027567,-1.4401e-05,9.3069e+07,254.6,0,9.3069e+07,2.05,12532,446.74,0,446.74,0,0.00010717,4.5178e-10,0,0.00010717,2.0084e-05,3.5793e+07,135.13,0,3.5793e+07,9.2606,446.74,1
825,1.23,12164,1,12164,1,0.00017796,1.2667e-10,0,0.00017796,-3.3252e-05,6.0606e+07,37.574,0,6.0606e+07,-3.3482,12163,12984,1,12984,1,0.00035291,8.6533e-10,0,0.00035291,-4.6815e-07,1.1862e+08,263.23,0,1.1862e+08,17.947,12983,12171,1,12171,1,0.00017796,3.5273e-11,0,0.00017796,-3.325e-05,6.1053e+07,10.036,0,6.1053e+07,-3.9054,12170,11369,1,11369,1,3.0122e-06,-4.3043e-10,0,3.0122e-06,-6.6044e-05,9.8944e+05,-130.92,0,9.8944e+05,-23.155,11368,11756,1,11756,1,7.799e-05,-9.5331e-11,0,7.799e-05,-5.1987e-05,2.7537e+07,-27.425,0,2.7537e+07,-8.2451,11755,12533,1,12533,1,0.00027793,3.5284e-10,0,0.00027793,-1.4519e-05,9.3833e+07,104.33,0,9.3833e+07,1.5159,12532,446.74,0,446.74,0,0.00010805,3.1708e-10,0,0.00010805,2.0249e-05,3.6086e+07,94.319,0,3.6086e+07,6.9459,446.74,1
825,1.24,12164,1,12164,1,0.00017941,6.4207e-11,0,0.00017941,-3.3523e-05,6.1098e+07,19.047,0,6.1098e+07,-5.1489,12163,12984,1,12984,1,0.00035578,1.2613e-09,0,0.00035578,-4.7191e-07,1.1958e+08,383.69,0,1.1958e+08,36.835,12983,12171,1,12171,1,0.00017941,-6.198e-12,0,0.00017941,-3.352e-05,6.1549e+07,-1.8099,0,6.1549e+07,-5.3497,12170,11369,1,11369,1,3.0367e-06,-7.3204e-10,0,3.0367e-06,-6.6581e-05,9.975e+05,-226.95,0,9.975e+05,-38.86,11368,11756,1,11756,1,7.8624e-05,-2.6991e-10,0,7.8624e-05,-5.2409e-05,2.7761e+07,-78.247,0,2.7761e+07,-12.923,11755,12533,1,12533,1,0.00028019,3.525e-10,0,0.00028019,-1.4637e-05,9.4595e+07,105.16,0,9.4595e+07,0.85198,12532,446.74,0,446.74,0,0.00010892,4.6581e-10,0,0.00010892,2.0414e-05,3.6379e+07,138.5,0,3.6379e+07,12.396,446.74,1
825,1.25,12164,1,12164,1,0.00018086,8.5235e-11,0,0.00018086,-3.3794e-05,6.1593e+07,25.404,0,6.1593e+07,2.0522,12163,12984,1,12984,1,0.00035866,4.3349e-10,0,0.00035866,-4.7578e-07,1.2055e+08,131.86,0,1.2055e+08,15.618,12983,12171,1,12171,1,0.00018086,6.0218e-11,0,0.00018086,-3.3791e-05,6.2047e+07,17.639,0,6.2047e+07,1.9145,12170,11369,1,11369,1,3.0613e-06,-3.3257e-10,0,3.0613e-06,-6.712e-05,1.0056e+06,-101.68,0,1.0056e+06,-11.506,11368,11756,1,11756,1,7.926e-05,-5.0081e-11,0,7.926e-05,-5.2833e-05,2.7986e+07,-14.184,0,2.7986e+07,-1.7309,11755,12533,1,12533,1,0.00028246,2.4065e-10,0,0.00028246,-1.4756e-05,9.5361e+07,70.394,0,9.5361e+07,5.8179,12532,446.74,0,446.74,0,0.00010981,1.8288e-10,0,0.00010981,2.0579e-05,3.6674e+07,54.481,0,3.6674e+07,5.6019,446.74,1
825,1.26,12164,1,12164,1,0.0001823,1.8808e-10,0,0.0001823,-3.4063e-05,6.2084e+07,55.802,0,6.2084e+07,-2.9081,12163,12984,1,12984,1,0.00036152,4.9048e-10,0,0.00036152,-4.796e-07,1.2151e+08,150.43,0,1.2151e+08,12.224,12983,12171,1,12171,1,0.0001823,1.9859e-10,0,0.0001823,-3.4061e-05,6.2542e+07,57.814,0,6.2542e+07,-4.7082,12170,11369,1,11369,1,3.0858e-06,-1.0804e-10,0,3.0858e-06,-6.7655e-05,1.0136e+06,-30.589,0,1.0136e+06,-12.225,11368,11756,1,11756,1,7.9892e-05,4.7251e-11,0,7.9892e-05,-5.3255e-05,2.8209e+07,13.441,0,2.8209e+07,-7.2229,11755,12533,1,12533,1,0.00028471,3.1713e-10,0,0.00028471,-1.4873e-05,9.6122e+07,93.626,0,9.6122e+07,-0.14375,12532,446.74,0,446.74,0,0.00011068,1.589e-10,0,0.00011068,2.0743e-05,3.6966e+07,47.428,0,3.6966e+07,5.6084,446.74,1
825,1.27,12164,1,12164,1,0.00018375,2.8153e-10,0,0.00018375,-3.4333e-05,6.2576e+07,83.445,0,6.2576e+07,1.0888,12163,12984,1,12984,1,0.00036438,2.2467e-09,0,0.00036438,-4.832e-07,1.2248e+08,683.3,0,1.2248e+08,82.896,12983,12171,1,12171,1,0.00018374,2.8839e-11,0,0.00018374,-3.4331e-05,6.3037e+07,8.3787,0,6.3037e+07,-2.8204,12170,11369,1,11369,1,3.1101e-06,-9.2443e-10,0,3.1101e-06,-6.8192e-05,1.0216e+06,-281.18,0,1.0216e+06,-42.35,11368,11756,1,11756,1,8.0525e-05,-2.8155e-10,0,8.0525e-05,-5.3677e-05,2.8433e+07,-81.337,0,2.8433e+07,-14.354,11755,12533,1,12533,1,0.00028696,7.8422e-10,0,0.00028696,-1.4991e-05,9.6883e+07,227.79,0,9.6883e+07,10.694,12532,446.74,0,446.74,0,0.00011156,7.9111e-10,0,0.00011156,2.0907e-05,3.7259e+07,235.36,0,3.7259e+07,22.733,446.74,1
825,1.28,12164,1,12164,1,0.00018519,-1.2028e-10,0,0.00018519,-3.4604e-05,6.3069e+07,-35.457,0,6.3069e+07,-2.7534,12163,12984,1,12984,1,0.00036726,5.4559e-10,0,0.00036726,-4.8722e-07,1.2344e+08,165.99,0,1.2344e+08,11.213,12983,12171,1,12171,1,0.00018519,-8.5651e-11,0,0.00018519,-3.4601e-05,6.3534e+07,-24.247,0,6.3534e+07,-2.8817,12170,11369,1,11369,1,3.1348e-06,-6.2527e-10,0,3.1348e-06,-6.8729e-05,1.0297e+06,-190.19,0,1.0297e+06,-20.768,11368,11756,1,11756,1,8.1161e-05,-3.2694e-10,0,8.1161e-05,-5.41e-05,2.8657e+07,-96.446,0,2.8657e+07,-6.4444,11755,12533,1,12533,1,0.00028923,3.3254e-11,0,0.00028923,-1.511e-05,9.7648e+07,9.7351,0,9.7648e+07,0.82452,12532,446.74,0,446.74,0,0.00011244,2.6855e-10,0,0.00011244,2.1072e-05,3.7553e+07,79.992,0,3.7553e+07,5.3872,446.74,1
825,1.29,12164,1,12164,1,0.00018664,3.2321e-10,0,0.00018664,-3.4874e-05,6.3562e+07,95.656,0,6.3562e+07,-7.4088,12163,12984,1,12984,1,0.00037013,1.4508e-09,0,0.00037013,-4.9101e-07,1.2441e+08,441.32,0,1.2441e+08,18.692,12983,12171,1,12171,1,0.00018664,1.8771e-10,0,0.00018664,-3.4872e-05,6.403e+07,54.705,0,6.403e+07,-8.3112,12170,11369,1,11369,1,3.1593e-06,-5.0986e-10,0,3.1593e-06,-6.9266e-05,1.0378e+06,-155.08,0,1.0378e+06,-29.456,11368,11756,1,11756,1,8.1795e-05,-7.4277e-11,0,8.1795e-05,-5.4523e-05,2.8881e+07,-21.111,0,2.8881e+07,-14.76,11755,12533,1,12533,1,0.00029149,7.22e-10,0,0.00029149,-1.5228e-05,9.841e+07,213.53,0,9.841e+07,-0.13779,12532,446.74,0,446.74,0,0.00011332,5.0419e-10,0,0.00011332,2.1237e-05,3.7847e+07,150.13,0,3.7847e+07,9.8802,446.74,1
825,1.3,12164,1,12164,1,0.00018809,2.9633e-11,0,0.00018809,-3.5145e-05,6.4055e+07,8.7969,0,6.4055e+07,-4.9675,12163,12984,1,12984,1,0.00037299,1.3134e-09,0,0.00037299,-4.9479e-07,1.2537e+08,399.53,0,1.2537e+08,24.984,12983,12171,1,12171,1,0.00018809,-2.2032e-11,0,0.00018809,-3.5142e-05,6.4527e+07,-6.2397,0,6.4527e+07,-4.6974,12170,11369,1,11369,1,3.1838e-06,-8.4145e-10,0,3.1838e-06,-6.9803e-05,1.0458e+06,-255.95,0,1.0458e+06,-40.695,11368,11756,1,11756,1,8.2428e-05,-3.3757e-10,0,8.2428e-05,-5.4945e-05,2.9105e+07,-98.994,0,2.9105e+07,-12.892,11755,12533,1,12533,1,0.00029375,3.3442e-10,0,0.00029375,-1.5346e-05,9.9173e+07,96.865,0,9.9173e+07,2.5537,12532,446.74,0,446.74,0,0.00011419,5.0753e-10,0,0.00011419,2.1401e-05,3.814e+07,150.94,0,3.814e+07,12.004,446.74,1
825,1.31,12164,1,12164,1,0.00018953,1.3972e-10,0,0.00018953,-3.5415e-05,6.4547e+07,41.368,0,6.4547e+07,-5.0291,12163,12984,1,12984,1,0.00037586,1.3497e-09,0,0.00037586,-4.9861e-07,1.2633e+08,410.55,0,1.2633e+08,21.606,12983,12171,1,12171,1,0.00018953,3.2758e-11,0,0.00018953,-3.5412e-05,6.5023e+07,9.431,0,6.5023e+07,-5.1665,12170,11369,1,11369,1,3.2083e-06,-6.9228e-10,0,3.2083e-06,-7.034e-05,1.0539e+06,-210.57,0,1.0539e+06,-37.414,11368,11756,1,11756,1,8.3062e-05,-1.8919e-10,0,8.3062e-05,-5.5368e-05,2.9328e+07,-55.063,0,2.9328e+07,-11.549,11755,12533,1,12533,1,0.00029601,4.6126e-10,0,0.00029601,-1.5464e-05,9.9936e+07,132.5,0,9.9936e+07,2.0378,12532,446.74,0,446.74,0,0.00011507,4.7769e-10,0,0.00011507,2.1566e-05,3.8433e+07,142.07,0,3.8433e+07,10.546,446.74,1
825,1.32,12164,1,12164,1,0.00019098,2.7833e-10,0,0.00019098,-3.5686e-05,6.504e+07,82.401,0,6.504e+07,-1.2335,12163,12984,1,12984,1,0.00037873,5.403e-10,0,0.00037873,-5.0243e-07,1.273e+08,164.69,0,1.273e+08,18.834,12983,12171,1,12171,1,0.00019098,3.0248e-10,0,0.00019098,-3.5683e-05,6.552e+07,89.913,0,6.552e+07,-1.2597,12170,11369,1,11369,1,3.2328e-06,-1.1726e-10,0,3.2328e-06,-7.0877e-05,1.0619e+06,-33.199,0,1.0619e+06,-17.957,11368,11756,1,11756,1,8.3697e-05,1.5229e-10,0,8.3697e-05,-5.5791e-05,2.9553e+07,43.317,0,2.9553e+07,-4.2171,11755,12533,1,12533,1,0.00029827,4.1452e-10,0,0.00029827,-1.5582e-05,1.007e+08,124.2,0,1.007e+08,2.1528,12532,446.74,0,446.74,0,0.00011595,1.7324e-10,0,0.00011595,2.1731e-05,3.8727e+07,52.188,0,3.8727e+07,5.2262,446.74,1
825,1.33,12164,1,12164,1,0.00019243,2.1255e-10,0,0.00019243,-3.5956e-05,6.5533e+07,62.985,0,6.5533e+07,-6.5528,12163,12984,1,12984,1,0.0003816,1.3214e-09,0,0.0003816,-5.0625e-07,1.2826e+08,401.61,0,1.2826e+08,17.473,12983,12171,1,12171,1,0.00019243,7.7151e-11,0,0.00019243,-3.5953e-05,6.6016e+07,21.91,0,6.6016e+07,-7.0526,12170,11369,1,11369,1,3.2573e-06,-5.2899e-10,0,3.2573e-06,-7.1414e-05,1.07e+06,-160.9,0,1.07e+06,-35.972,11368,11756,1,11756,1,8.4331e-05,-1.0743e-10,0,8.4331e-05,-5.6213e-05,2.9776e+07,-30.725,0,2.9776e+07,-12.542,11755,12533,1,12533,1,0.00030053,5.2145e-10,0,0.00030053,-1.57e-05,1.0146e+08,152.19,0,1.0146e+08,-0.033515,12532,446.74,0,446.74,0,0.00011683,4.4158e-10,0,0.00011683,2.1895e-05,3.902e+07,131.35,0,3.902e+07,9.4568,446.74,1
825,1.34,12164,1,12164,1,0.00019388,3.1257e-10,0,0.00019388,-3.6227e-05,6.6026e+07,92.669,0,6.6026e+07,1.275,12163,12984,1,12984,1,0.00038448,7.2479e-10,0,0.00038448,-5.1001e-07,1.2923e+08,218.38,0,1.2923e+08,34.709,12983,12171,1,12171,1,0.00019388,3.1807e-10,0,0.00019388,-3.6224e-05,6.6513e+07,92.49,0,6.6513e+07,0.095487,12170,11369,1,11369,1,3.2818e-06,-1.5494e-10,0,3.2818e-06,-7.1952e-05,1.078e+06,-43.865,0,1.078e+06,-17.325,11368,11756,1,11756,1,8.4966e-05,1.313e-10,0,8.4966e-05,-5.6637e-05,3.0001e+07,37.471,0,3.0001e+07,-4.3431,11755,12533,1,12533,1,0.00030279,5.1858e-10,0,0.00030279,-1.5818e-05,1.0223e+08,153.47,0,1.0223e+08,5.3887,12532,446.74,0,446.74,0,0.00011771,2.3731e-10,0,0.00011771,2.206e-05,3.9314e+07,71.072,0,3.9314e+07,8.1956,446.74,1
825,1.35,12164,1,12164,1,0.00019532,2.7194e-10,0,0.00019532,-3.6497e-05,6.6518e+07,80.546,0,6.6518e+07,1.2758,12163,12984,1,12984,1,0.00038734,6.8165e-10,0,0.00038734,-5.1384e-07,1.3019e+08,203.36,0,1.3019e+08,33.772,12983,12171,1,12171,1,0.00019532,2.6926e-10,0,0.00019532,-3.6494e-05,6.7008e+07,79.455,0,6.7008e+07,-1.0555,12170,11369,1,11369,1,3.3063e-06,-1.0568e-10,0,3.3063e-06,-7.2488e-05,1.0861e+06,-29.919,0,1.0861e+06,-12.838,11368,11756,1,11756,1,8.5599e-05,8.743e-11,0,8.5599e-05,-5.7059e-05,3.0224e+07,25.106,0,3.0224e+07,-6.8808,11755,12533,1,12533,1,0.00030504,4.6015e-10,0,0.00030504,-1.5936e-05,1.0299e+08,135.7,0,1.0299e+08,6.5671,12532,446.74,0,446.74,0,0.00011859,2.1665e-10,0,0.00011859,2.2224e-05,3.9607e+07,64.726,0,3.9607e+07,9.9234,446.74,1
825,1.36,12164,1,12164,1,0.00019677,4.5896e-11,0,0.00019677,-3.6767e-05,6.7011e+07,13.694,0,6.7011e+07,-5.2011,12163,12984,1,12984,1,0.00039021,1.0676e-09,0,0.00039021,-5.1769e-07,1.3116e+08,324.02,0,1.3116e+08,13.296,12983,12171,1,12171,1,0.00019677,-2.2742e-11,0,0.00019677,-3.6764e-05,6.7505e+07,-6.5138,0,6.7505e+07,-3.9844,12170,11369,1,11369,1,3.3308e-06,-5.8631e-10,0,3.3308e-06,-7.3025e-05,1.0941e+06,-178.37,0,1.0941e+06,-39.887,11368,11756,1,11756,1,8.6233e-05,-2.1738e-10,0,8.6233e-05,-5.7481e-05,3.0448e+07,-63.118,0,3.0448e+07,-10.252,11755,12533,1,12533,1,0.00030731,2.6497e-10,0,0.00030731,-1.6054e-05,1.0375e+08,77.333,0,1.0375e+08,1.0982,12532,446.74,0,446.74,0,0.00011947,3.7503e-10,0,0.00011947,2.2389e-05,3.99e+07,111.49,0,3.99e+07,9.234,446.74,1
825,1.37,12164,1,12164,1,0.00019822,2.2207e-10,0,0.00019822,-3.7037e-05,6.7504e+07,65.759,0,6.7504e+07,-5.4418,12163,12984,1,12984,1,0.00039308,1.4835e-09,0,0.00039308,-5.2146e-07,1.3212e+08,451.11,0,1.3212e+08,28.584,12983,12171,1,12171,1,0.00019822,5.313e-11,0,0.00019822,-3.7034e-05,6.8001e+07,15.469,0,6.8001e+07,-5.0995,12170,11369,1,11369,1,3.3553e-06,-5.4711e-10,0,3.3553e-06,-7.3562e-05,1.1022e+06,-166.42,0,1.1022e+06,-39.915,11368,11756,1,11756,1,8.6867e-05,-1.3884e-10,0,8.6867e-05,-5.7904e-05,3.0672e+07,-40.386,0,3.0672e+07,-13.599,11755,12533,1,12533,1,0.00030957,5.6902e-10,0,0.00030957,-1.6172e-05,1.0451e+08,164.29,0,1.0451e+08,1.5985,12532,446.74,0,446.74,0,0.00012034,5.01e-10,0,0.00012034,2.2554e-05,4.0194e+07,149.08,0,4.0194e+07,11.893,446.74,1
825,1.38,12164,1,12164,1,0.00019966,2.7988e-10,0,0.00019966,-3.7308e-05,6.7997e+07,82.848,0,6.7997e+07,2.2241,12163,12984,1,12984,1,0.00039595,1.2819e-09,0,0.00039595,-5.252e-07,1.3309e+08,389.94,0,1.3309e+08,50.9,12983,12171,1,12171,1,0.00019966,1.4113e-10,0,0.00019966,-3.7305e-05,6.8497e+07,42.698,0,6.8497e+07,-0.23302,12170,11369,1,11369,1,3.3797e-06,-3.6485e-10,0,3.3797e-06,-7.4099e-05,1.1102e+06,-110.17,0,1.1102e+06,-21.207,11368,11756,1,11756,1,8.7502e-05,-3.5687e-11,0,8.7502e-05,-5.8327e-05,3.0896e+07,-10.189,0,3.0896e+07,-6.5012,11755,12533,1,12533,1,0.00031182,5.6668e-10,0,0.00031182,-1.629e-05,1.0528e+08,165.72,0,1.0528e+08,8.3013,12532,446.74,0,446.74,0,0.00012122,4.1673e-10,0,0.00012122,2.2718e-05,4.0487e+07,124.05,0,4.0487e+07,12.499,446.74,1
825,1.39,12164,1,12164,1,0.00020111,1.7209e-10,0,0.00020111,-3.7578e-05,6.849e+07,50.893,0,6.849e+07,-2.2822,12163,12984,1,12984,1,0.00039882,1.0027e-09,0,0.00039882,-5.291e-07,1.3405e+08,305.71,0,1.3405e+08,15.22,12983,12171,1,12171,1,0.00020111,5.6989e-11,0,0.00020111,-3.7575e-05,6.8994e+07,16.705,0,6.8994e+07,-2.0526,12170,11369,1,11369,1,3.4043e-06,-3.1669e-10,0,3.4043e-06,-7.4636e-05,1.1183e+06,-96.334,0,1.1183e+06,-19.481,11368,11756,1,11756,1,8.8136e-05,-6.6141e-11,0,8.8136e-05,-5.875e-05,3.112e+07,-19.199,0,3.112e+07,-7.0216,11755,12533,1,12533,1,0.00031409,3.9889e-10,0,0.00031409,-1.6408e-05,1.0604e+08,115.58,0,1.0604e+08,2.032,12532,446.74,0,446.74,0,0.0001221,3.3146e-10,0,0.0001221,2.2883e-05,4.0781e+07,98.768,0,4.0781e+07,6.7279,446.74,1
825,1.4,12164,1,12164,1,0.00020256,2.0888e-10,0,0.00020256,-3.7848e-05,6.8982e+07,61.893,0,6.8982e+07,2.6379,12163,12984,1,12984,1,0.00040169,1.3345e-09,0,0.00040169,-5.328e-07,1.3501e+08,405.91,0,1.3501e+08,62.844,12983,12171,1,12171,1,0.00020256,5.1409e-11,0,0.00020256,-3.7845e-05,6.949e+07,14.848,0,6.949e+07,-0.47477,12170,11369,1,11369,1,3.4288e-06,-5.5995e-10,0,3.4288e-06,-7.5173e-05,1.1263e+06,-170.32,0,1.1263e+06,-22.255,11368,11756,1,11756,1,8.877e-05,-1.4143e-10,0,8.877e-05,-5.9172e-05,3.1344e+07,-40.888,0,3.1344e+07,-7.7235,11755,12533,1,12533,1,0.00031634,5.2862e-10,0,0.00031634,-1.6526e-05,1.068e+08,156.04,0,1.068e+08,9.583,12532,446.74,0,446.74,0,0.00012298,4.9102e-10,0,0.00012298,2.3048e-05,4.1074e+07,146.03,0,4.1074e+07,14.867,446.74,1
825,1.41,12164,1,12164,1,0.000204,4.0871e-10,0,0.000204,-3.8119e-05,6.9474e+07,120.99,0,6.9474e+07,-3.7994,12163,12984,1,12984,1,0.00040456,1.2596e-09,0,0.00040456,-5.367e-07,1.3598e+08,383.14,0,1.3598e+08,25.807,12983,12171,1,12171,1,0.000204,3.403e-10,0,0.000204,-3.8115e-05,6.9986e+07,99.891,0,6.9986e+07,-5.9471,12170,11369,1,11369,1,3.4533e-06,-1.6564e-10,0,3.4533e-06,-7.5709e-05,1.1344e+06,-51.676,0,1.1344e+06,-22.404,11368,11756,1,11756,1,8.9403e-05,4.2885e-11,0,8.9403e-05,-5.9594e-05,3.1567e+07,12.967,0,3.1567e+07,-11.03,11755,12533,1,12533,1,0.0003186,7.2369e-10,0,0.0003186,-1.6644e-05,1.0756e+08,214.9,0,1.0756e+08,2.0451,12532,446.74,0,446.74,0,0.00012386,4.0672e-10,0,0.00012386,2.3212e-05,4.1367e+07,121.21,0,4.1367e+07,9.386,446.74,1
825,1.42,12164,1,12164,1,0.00020545,2.2471e-10,0,0.00020545,-3.8389e-05,6.9967e+07,66.715,0,6.9967e+07,-4.2447,12163,12984,1,12984,1,0.00040742,1.4748e-09,0,0.00040742,-5.405e-07,1.3694e+08,450.12,0,1.3694e+08,28.319,12983,12171,1,12171,1,0.00020545,6.2849e-11,0,0.00020545,-3.8386e-05,7.0482e+07,17.935,0,7.0482e+07,-4.2412,12170,11369,1,11369,1,3.4778e-06,-6.2234e-10,0,3.4778e-06,-7.6246e-05,1.1424e+06,-189,0,1.1424e+06,-46.209,11368,11756,1,11756,1,9.0037e-05,-1.3934e-10,0,9.0037e-05,-6.0017e-05,3.1791e+07,-40.288,0,3.1791e+07,-11.914,11755,12533,1,12533,1,0.00032086,5.717e-10,0,0.00032086,-1.6762e-05,1.0833e+08,165.8,0,1.0833e+08,3.7385,12532,446.74,0,446.74,0,0.00012474,5.1469e-10,0,0.00012474,2.3377e-05,4.166e+07,153.33,0,4.166e+07,12.069,446.74,1
825,1.43,12164,1,12164,1,0.0002069,3.1385e-10,0,0.0002069,-3.866e-05,7.0461e+07,92.911,0,7.0461e+07,-4.3788,12163,12984,1,12984,1,0.0004103,9.6954e-10,0,0.0004103,-5.4436e-07,1.3791e+08,294.55,0,1.3791e+08,14.56,12983,12171,1,12171,1,0.0002069,2.6576e-10,0,0.0002069,-3.8656e-05,7.0979e+07,78.279,0,7.0979e+07,-5.099,12170,11369,1,11369,1,3.5024e-06,-9.877e-11,0,3.5024e-06,-7.6784e-05,1.1505e+06,-27.962,0,1.1505e+06,-19.996,11368,11756,1,11756,1,9.0672e-05,4.7257e-11,0,9.0672e-05,-6.044e-05,3.2015e+07,13.528,0,3.2015e+07,-8.8679,11755,12533,1,12533,1,0.00032312,5.6065e-10,0,0.00032312,-1.688e-05,1.0909e+08,165.53,0,1.0909e+08,-0.18775,12532,446.74,0,446.74,0,0.00012561,2.9543e-10,0,0.00012561,2.3542e-05,4.1954e+07,88.212,0,4.1954e+07,6.3437,446.74,1
825,1.44,12164,1,12164,1,0.00020834,1.94e-10,0,0.00020834,-3.893e-05,7.0953e+07,57.459,0,7.0953e+07,-5.802,12163,12984,1,12984,1,0.00041317,1.42e-09,0,0.00041317,-5.4815e-07,1.3887e+08,431.94,0,1.3887e+08,22.205,12983,12171,1,12171,1,0.00020834,4.6424e-11,0,0.00020834,-3.8927e-05,7.1475e+07,13.143,0,7.1475e+07,-5.0367,12170,11369,1,11369,1,3.5269e-06,-5.4395e-10,0,3.5269e-06,-7.7321e-05,1.1585e+06,-165.46,0,1.1585e+06,-40.514,11368,11756,1,11756,1,9.1306e-05,-1.4435e-10,0,9.1306e-05,-6.0863e-05,3.2239e+07,-41.407,0,3.2239e+07,-12.805,11755,12533,1,12533,1,0.00032538,5.1511e-10,0,0.00032538,-1.6998e-05,1.0985e+08,150.54,0,1.0985e+08,1.4631,12532,446.74,0,446.74,0,0.00012649,4.75e-10,0,0.00012649,2.3706e-05,4.2248e+07,141.33,0,4.2248e+07,11.024,446.74,1
825,1.45,12164,1,12164,1,0.00020979,1.7882e-10,0,0.00020979,-3.92e-05,7.1446e+07,53.013,0,7.1446e+07,-4.008,12163,12984,1,12984,1,0.00041603,1.0166e-09,0,0.00041603,-5.5197e-07,1.3984e+08,308.96,0,1.3984e+08,16.455,12983,12171,1,12171,1,0.00020979,7.1778e-11,0,0.00020979,-3.9197e-05,7.1972e+07,20.372,0,7.1972e+07,-4.3229,12170,11369,1,11369,1,3.5514e-06,-4.0878e-10,0,3.5514e-06,-7.7858e-05,1.1666e+06,-124.77,0,1.1666e+06,-24.732,11368,11756,1,11756,1,9.194e-05,-8.0969e-11,0,9.194e-05,-6.1286e-05,3.2463e+07,-23.286,0,3.2463e+07,-8.9123,11755,12533,1,12533,1,0.00032764,4.3159e-10,0,0.00032764,-1.7116e-05,1.1062e+08,125.41,0,1.1062e+08,1.0129,12532,446.74,0,446.74,0,0.00012737,3.4786e-10,0,0.00012737,2.3871e-05,4.2541e+07,103.48,0,4.2541e+07,7.317,446.74,1
825,1.46,12164,1,12164,1,0.00021124,5.4551e-10,0,0.00021124,-3.947e-05,7.1938e+07,161.57,0,7.1938e+07,-1.2819,12163,12984,1,12984,1,0.0004189,1.0949e-09,0,0.0004189,-5.5574e-07,1.408e+08,329.36,0,1.408e+08,23.777,12983,12171,1,12171,1,0.00021124,5.9481e-10,0,0.00021124,-3.9467e-05,7.2468e+07,172.33,0,7.2468e+07,-2.5541,12170,11369,1,11369,1,3.5758e-06,-1.7152e-10,0,3.5758e-06,-7.8395e-05,1.1746e+06,-48.56,0,1.1746e+06,-16.201,11368,11756,1,11756,1,9.2574e-05,2.6826e-10,0,9.2574e-05,-6.1708e-05,3.2687e+07,76.702,0,3.2687e+07,-8.4447,11755,12533,1,12533,1,0.0003299,8.549e-10,0,0.0003299,-1.7234e-05,1.1138e+08,251.94,0,1.1138e+08,4.4223,12532,446.74,0,446.74,0,0.00012825,3.6079e-10,0,0.00012825,2.4035e-05,4.2834e+07,108.44,0,4.2834e+07,8.0675,446.74,1
825,1.47,12164,1,12164,1,0.00021268,3.759e-10,0,0.00021268,-3.974e-05,7.243e+07,111.29,0,7.243e+07,-6.9442,12163,12984,1,12984,1,0.00042177,1.3378e-09,0,0.00042177,-5.5957e-07,1.4176e+08,406.97,0,1.4176e+08,21.576,12983,12171,1,12171,1,0.00021268,2.894e-10,0,0.00021268,-3.9737e-05,7.2963e+07,83.302,0,7.2963e+07,-8.0968,12170,11369,1,11369,1,3.6004e-06,-3.0621e-10,0,3.6004e-06,-7.8931e-05,1.1827e+06,-94.245,0,1.1827e+06,-24.611,11368,11756,1,11756,1,9.3207e-05,-4.0805e-12,0,9.3207e-05,-6.213e-05,3.291e+07,-1.1658,0,3.291e+07,-13.629,11755,12533,1,12533,1,0.00033216,7.2179e-10,0,0.00033216,-1.7352e-05,1.1214e+08,211.35,0,1.1214e+08,-1.4367,12532,446.74,0,446.74,0,0.00012913,4.2505e-10,0,0.00012913,2.42e-05,4.3127e+07,126.66,0,4.3127e+07,8.7603,446.74,1
825,1.48,12164,1,12164,1,0.00021413,2.1344e-10,0,0.00021413,-4.0011e-05,7.2924e+07,63.243,0,7.2924e+07,-2.688,12163,12984,1,12984,1,0.00042464,4.1332e-10,0,0.00042464,-5.6343e-07,1.4273e+08,125.37,0,1.4273e+08,8.263,12983,12171,1,12171,1,0.00021413,2.477e-10,0,0.00021413,-4.0008e-05,7.3461e+07,71.91,0,7.3461e+07,-2.7212,12170,11369,1,11369,1,3.625e-06,-1.0891e-10,0,3.625e-06,-7.9469e-05,1.1908e+06,-30.835,0,1.1908e+06,-14.054,11368,11756,1,11756,1,9.3843e-05,1.0577e-10,0,9.3843e-05,-6.2554e-05,3.3135e+07,30.492,0,3.3135e+07,-7.1621,11755,12533,1,12533,1,0.00033442,3.3848e-10,0,0.00033442,-1.7471e-05,1.1291e+08,100.86,0,1.1291e+08,1.7523,12532,446.74,0,446.74,0,0.00013001,1.4266e-10,0,0.00013001,2.4365e-05,4.3421e+07,42.801,0,4.3421e+07,5.3476,446.74,1
825,1.49,12164,1,12164,1,0.00021558,3.4117e-11,0,0.00021558,-4.0282e-05,7.3417e+07,10.164,0,7.3417e+07,-2.3856,12163,12984,1,12984,1,0.00042751,9.3305e-10,0,0.00042751,-5.6718e-07,1.4369e+08,284.34,0,1.4369e+08,31.36,12983,12171,1,12171,1,0.00021558,-1.5572e-11,0,0.00021558,-4.0279e-05,7.3957e+07,-4.6283,0,7.3957e+07,-2.4243,12170,11369,1,11369,1,3.6495e-06,-5.0935e-10,0,3.6495e-06,-8.0006e-05,1.1988e+06,-154.93,0,1.1988e+06,-30.818,11368,11756,1,11756,1,9.4477e-05,-2.1341e-10,0,9.4477e-05,-6.2977e-05,3.3359e+07,-62.481,0,3.3359e+07,-8.2761,11755,12533,1,12533,1,0.00033668,2.3211e-10,0,0.00033668,-1.7589e-05,1.1367e+08,67.993,0,1.1367e+08,2.3843,12532,446.74,0,446.74,0,0.00013089,3.3983e-10,0,0.00013089,2.4529e-05,4.3715e+07,101.05,0,4.3715e+07,9.8284,446.74,1
825,1.5,12164,1,12164,1,0.00021703,1.6315e-10,0,0.00021703,-4.0552e-05,7.3909e+07,48.349,0,7.3909e+07,-5.8069,12163,12984,1,12984,1,0.00043038,1.4867e-09,0,0.00043038,-5.7101e-07,1.4466e+08,451.73,0,1.4466e+08,20.301,12983,12171,1,12171,1,0.00021703,3.9075e-11,0,0.00021703,-4.0549e-05,7.4453e+07,11.061,0,7.4453e+07,-6.0879,12170,11369,1,11369,1,3.674e-06,-8.4074e-10,0,3.674e-06,-8.0542e-05,1.2068e+06,-255.73,0,1.2068e+06,-41.297,11368,11756,1,11756,1,9.511e-05,-2.0192e-10,0,9.511e-05,-6.3399e-05,3.3582e+07,-59.19,0,3.3582e+07,-13.326,11755,12533,1,12533,1,0.00033894,5.5e-10,0,0.00033894,-1.7706e-05,1.1443e+08,160.47,0,1.1443e+08,3.0675,12532,446.74,0,446.74,0,0.00013176,5.4958e-10,0,0.00013176,2.4694e-05,4.4008e+07,163.45,0,4.4008e+07,11.641,446.74,1
825,1.51,12164,1,12164,1,0.00021847,1.3175e-10,0,0.00021847,-4.0823e-05,7.4403e+07,39.041,0,7.4403e+07,-1.3334,12163,12984,1,12984,1,0.00043325,2.6249e-10,0,0.00043325,-5.7487e-07,1.4562e+08,79.166,0,1.4562e+08,8.085,12983,12171,1,12171,1,0.00021847,1.4761e-10,0,0.00021847,-4.0819e-05,7.495e+07,43.372,0,7.495e+07,-1.9635,12170,11369,1,11369,1,3.6986e-06,-7.0879e-11,0,3.6986e-06,-8.108e-05,1.2149e+06,-20.067,0,1.2149e+06,-7.7357,11368,11756,1,11756,1,9.5745e-05,6.6291e-11,0,9.5745e-05,-6.3822e-05,3.3807e+07,18.956,0,3.3807e+07,-3.6958,11755,12533,1,12533,1,0.0003412,2.1089e-10,0,0.0003412,-1.7825e-05,1.1519e+08,62.753,0,1.1519e+08,0.49421,12532,446.74,0,446.74,0,0.00013264,8.9783e-11,0,0.00013264,2.4859e-05,4.4302e+07,26.886,0,4.4302e+07,3.1882,446.74,1
825,1.52,12164,1,12164,1,0.00021992,2.4417e-10,0,0.00021992,-4.1093e-05,7.4896e+07,72.22,0,7.4896e+07,-4.801,12163,12984,1,12984,1,0.00043612,1.029e-09,0,0.00043612,-5.7866e-07,1.4659e+08,313.02,0,1.4659e+08,15.063,12983,12171,1,12171,1,0.00021992,1.3401e-10,0,0.00021992,-4.109e-05,7.5446e+07,39.011,0,7.5446e+07,-4.2652,12170,11369,1,11369,1,3.7231e-06,-1.3763e-10,0,3.7231e-06,-8.1617e-05,1.223e+06,-41.869,0,1.223e+06,-24.01,11368,11756,1,11756,1,9.638e-05,-1.2813e-11,0,9.638e-05,-6.4245e-05,3.4031e+07,-3.7301,0,3.4031e+07,-9.6547,11755,12533,1,12533,1,0.00034346,4.7602e-10,0,0.00034346,-1.7943e-05,1.1596e+08,139.45,0,1.1596e+08,-0.43168,12532,446.74,0,446.74,0,0.00013352,3.1704e-10,0,0.00013352,2.5023e-05,4.4595e+07,94.541,0,4.4595e+07,6.7739,446.74,1
825,1.53,12164,1,12164,1,0.00022137,4.6247e-10,0,0.00022137,-4.1363e-05,7.5387e+07,136.9,0,7.5387e+07,-5.5404,12163,12984,1,12984,1,0.00043899,1.8227e-09,0,0.00043899,-5.824e-07,1.4755e+08,559.53,0,1.4755e+08,43.742,12983,12171,1,12171,1,0.00022136,3.1393e-10,0,0.00022136,-4.1359e-05,7.5941e+07,90.91,0,7.5941e+07,-7.9009,12170,11369,1,11369,1,3.7475e-06,-4.4775e-10,0,3.7475e-06,-8.2153e-05,1.231e+06,-136.18,0,1.231e+06,-33.748,11368,11756,1,11756,1,9.7013e-05,-2.4813e-11,0,9.7013e-05,-6.4666e-05,3.4254e+07,-7.0508,0,3.4254e+07,-16.268,11755,12533,1,12533,1,0.00034572,8.9922e-10,0,0.00034572,-1.8061e-05,1.1672e+08,266.16,0,1.1672e+08,3.487,12532,446.74,0,446.74,0,0.0001344,5.8363e-10,0,0.0001344,2.5188e-05,4.4888e+07,174.21,0,4.4888e+07,14.674,446.74,1
825,1.54,12164,1,12164,1,0.00022282,2.9228e-10,0,0.00022282,-4.1634e-05,7.5881e+07,86.587,0,7.5881e+07,-2.7104,12163,12984,1,12984,1,0.00044186,7.2012e-10,0,0.00044186,-5.8628e-07,1.4852e+08,217.47,0,1.4852e+08,15.827,12983,12171,1,12171,1,0.00022282,2.7794e-10,0,0.00022282,-4.163e-05,7.6439e+07,81.907,0,7.6439e+07,-3.5496,12170,11369,1,11369,1,3.7721e-06,-1.1978e-10,0,3.7721e-06,-8.2691e-05,1.2391e+06,-33.909,0,1.2391e+06,-16.13,11368,11756,1,11756,1,9.7648e-05,6.4585e-11,0,9.7648e-05,-6.509e-05,3.4478e+07,18.372,0,3.4478e+07,-7.9111,11755,12533,1,12533,1,0.00034798,5.2964e-10,0,0.00034798,-1.8179e-05,1.1748e+08,154.85,0,1.1748e+08,1.5456,12532,446.74,0,446.74,0,0.00013528,2.5142e-10,0,0.00013528,2.5353e-05,4.5182e+07,75.094,0,4.5182e+07,6.6456,446.74,1
825,1.55,12164,1,12164,1,0.00022426,2.6728e-10,0,0.00022426,-4.1904e-05,7.6374e+07,79.249,0,7.6374e+07,2.0173,12163,12984,1,12984,1,0.00044473,7.1025e-10,0,0.00044473,-5.9008e-07,1.4948e+08,211.93,0,1.4948e+08,30.243,12983,12171,1,12171,1,0.00022426,2.4505e-10,0,0.00022426,-4.1901e-05,7.6935e+07,71.254,0,7.6935e+07,0.42576,12170,11369,1,11369,1,3.7966e-06,-1.8283e-10,0,3.7966e-06,-8.3228e-05,1.2471e+06,-51.761,0,1.2471e+06,-11.549,11368,11756,1,11756,1,9.8282e-05,4.558e-11,0,9.8282e-05,-6.5513e-05,3.4702e+07,13.161,0,3.4702e+07,-4.918,11755,12533,1,12533,1,0.00035024,5.0646e-10,0,0.00035024,-1.8297e-05,1.1825e+08,148.02,0,1.1825e+08,6.6502,12532,446.74,0,446.74,0,0.00013616,2.4762e-10,0,0.00013616,2.5517e-05,4.5475e+07,73.829,0,4.5475e+07,8.7412,446.74,1
825,1.56,12164,1,12164,1,0.00022571,5.4301e-10,0,0.00022571,-4.2174e-05,7.6866e+07,160.7,0,7.6866e+07,-3.9544,12163,12984,1,12984,1,0.0004476,1.497e-09,0,0.0004476,-5.9385e-07,1.5045e+08,459.13,0,1.5045e+08,38.777,12983,12171,1,12171,1,0.00022571,4.4848e-10,0,0.00022571,-4.2171e-05,7.7431e+07,132.27,0,7.7431e+07,-6.3098,12170,11369,1,11369,1,3.8211e-06,-1.2471e-10,0,3.8211e-06,-8.3765e-05,1.2552e+06,-35.304,0,1.2552e+06,-28.937,11368,11756,1,11756,1,9.8916e-05,1.3281e-10,0,9.8916e-05,-6.5935e-05,3.4926e+07,38.616,0,3.4926e+07,-13.931,11755,12533,1,12533,1,0.0003525,9.1725e-10,0,0.0003525,-1.8415e-05,1.1901e+08,271.34,0,1.1901e+08,3.3426,12532,446.74,0,446.74,0,0.00013703,4.6711e-10,0,0.00013703,2.5682e-05,4.5768e+07,139.81,0,4.5768e+07,13.473,446.74,1
825,1.57,12164,1,12164,1,0.00022716,8.8902e-11,0,0.00022716,-4.2445e-05,7.7359e+07,26.329,0,7.7359e+07,-1.4754,12163,12984,1,12984,1,0.00045047,7.7018e-10,0,0.00045047,-5.977e-07,1.5141e+08,234.29,0,1.5141e+08,19.081,12983,12171,1,12171,1,0.00022716,1.0768e-11,0,0.00022716,-4.2441e-05,7.7928e+07,3.1749,0,7.7928e+07,-1.346,12170,11369,1,11369,1,3.8456e-06,-3.6253e-10,0,3.8456e-06,-8.4302e-05,1.2632e+06,-110.28,0,1.2632e+06,-18.695,11368,11756,1,11756,1,9.955e-05,-1.1398e-10,0,9.955e-05,-6.6358e-05,3.515e+07,-33.636,0,3.515e+07,-5.8466,11755,12533,1,12533,1,0.00035476,2.7541e-10,0,0.00035476,-1.8533e-05,1.1977e+08,82.679,0,1.1977e+08,2.7848,12532,446.74,0,446.74,0,0.00013791,2.8799e-10,0,0.00013791,2.5847e-05,4.6062e+07,85.646,0,4.6062e+07,6.3589,446.74,1
825,1.58,12164,1,12164,1,0.0002286,3.2953e-10,0,0.0002286,-4.2715e-05,7.7851e+07,97.577,0,7.7851e+07,-5.2443,12163,12984,1,12984,1,0.00045333,1.3785e-09,0,0.00045333,-6.0149e-07,1.5237e+08,419.34,0,1.5237e+08,26.881,12983,12171,1,12171,1,0.0002286,2.1256e-10,0,0.0002286,-4.2711e-05,7.8423e+07,61.1,0,7.8423e+07,-5.9668,12170,11369,1,11369,1,3.8701e-06,-2.9968e-10,0,3.8701e-06,-8.4838e-05,1.2713e+06,-91.148,0,1.2713e+06,-29.725,11368,11756,1,11756,1,0.00010018,-3.0443e-11,0,0.00010018,-6.678e-05,3.5374e+07,-8.6629,0,3.5374e+07,-11.094,11755,12533,1,12533,1,0.00035702,6.4672e-10,0,0.00035702,-1.8651e-05,1.2053e+08,190.23,0,1.2053e+08,0.51278,12532,446.74,0,446.74,0,0.00013879,4.2572e-10,0,0.00013879,2.6011e-05,4.6355e+07,126.85,0,4.6355e+07,9.1373,446.74,1
825,1.59,12164,1,12164,1,0.00023005,1.4836e-10,0,0.00023005,-4.2985e-05,7.8344e+07,44.001,0,7.8344e+07,-6.4471,12163,12984,1,12984,1,0.00045621,1.0421e-09,0,0.00045621,-6.0534e-07,1.5334e+08,317.76,0,1.5334e+08,12.524,12983,12171,1,12171,1,0.00023005,2.7728e-11,0,0.00023005,-4.2982e-05,7.892e+07,7.8755,0,7.892e+07,-4.1439,12170,11369,1,11369,1,3.8947e-06,-4.0597e-10,0,3.8947e-06,-8.5375e-05,1.2794e+06,-123.49,0,1.2794e+06,-39.508,11368,11756,1,11756,1,0.00010082,-1.0583e-10,0,0.00010082,-6.7203e-05,3.5598e+07,-30.398,0,3.5598e+07,-12.513,11755,12533,1,12533,1,0.00035928,3.6231e-10,0,0.00035928,-1.8769e-05,1.213e+08,105.85,0,1.213e+08,1.2904,12532,446.74,0,446.74,0,0.00013967,3.6215e-10,0,0.00013967,2.6176e-05,4.6649e+07,107.79,0,4.6649e+07,10.969,446.74,1
825,1.6,12164,1,12164,1,0.00023146,-2.2518e-09,0,0.00023146,-4.325e-05,7.8826e+07,-666.96,0,7.8826e+07,4.7336,12163,12984,1,12984,1,0.00045903,2.9994e-09,0,0.00045903,-6.0804e-07,1.5429e+08,946.93,0,1.5429e+08,389.65,12983,12171,1,12171,1,0.00023146,-1.9755e-09,0,0.00023146,-4.3246e-05,7.9405e+07,-566.14,0,7.9405e+07,9.6094,12170,11369,1,11369,1,3.9184e-06,-7.3541e-09,0,3.9184e-06,-8.5904e-05,1.2871e+06,-2323.7,0,1.2871e+06,-174.17,11368,11756,1,11756,1,0.00010144,-4.3023e-09,0,0.00010144,-6.7615e-05,3.5817e+07,-1256.7,0,3.5817e+07,-35.66,11755,12533,1,12533,1,0.00036148,-1.2885e-10,0,0.00036148,-1.8885e-05,1.2204e+08,-36.947,0,1.2204e+08,36.062,12532,446.74,0,446.74,0,0.00014053,2.431e-09,0,0.00014053,2.6337e-05,4.6936e+07,728.63,0,4.6936e+07,81.424,446.74,1
825,1.61,12164,1,12164,1,0.00023292,-1.5472e-09,0,0.00023292,-4.3521e-05,7.9321e+07,-458.37,0,7.9321e+07,22.355,12163,12984,1,12984,1,0.0004619,2.8777e-09,0,0.0004619,-6.1178e-07,1.5525e+08,908.65,0,1.5525e+08,421.24,12983,12171,1,12171,1,0.00023291,-1.1325e-09,0,0.00023291,-4.3517e-05,7.9903e+07,-330.79,0,7.9903e+07,5.9337,12170,11369,1,11369,1,3.9429e-06,-6.3925e-09,0,3.9429e-06,-8.6442e-05,1.2952e+06,-2018.6,0,1.2952e+06,-84.964,11368,11756,1,11756,1,0.00010208,-2.8941e-09,0,0.00010208,-6.804e-05,3.6041e+07,-847.87,0,3.6041e+07,-17.386,11755,12533,1,12533,1,0.00036375,-3.441e-11,0,0.00036375,-1.9003e-05,1.2281e+08,-9.7592,0,1.2281e+08,37.444,12532,446.74,0,446.74,0,0.00014141,1.8422e-09,0,0.00014141,2.6502e-05,4.723e+07,553.19,0,4.723e+07,76.294,446.74,1
825,1.62,12164,1,12164,1,0.00023437,-1.5437e-09,0,0.00023437,-4.3793e-05,7.9816e+07,-457.57,0,7.9816e+07,3.8918,12163,12984,1,12984,1,0.00046479,1.8337e-09,0,0.00046479,-6.1592e-07,1.5622e+08,579.09,0,1.5622e+08,300.39,12983,12171,1,12171,1,0.00023437,-1.3369e-09,0,0.00023437,-4.3789e-05,8.0402e+07,-387.51,0,8.0402e+07,3.1311,12170,11369,1,11369,1,3.9675e-06,-5.5091e-09,0,3.9675e-06,-8.6981e-05,1.3033e+06,-1739.9,0,1.3033e+06,-115.52,11368,11756,1,11756,1,0.00010271,-2.6796e-09,0,0.00010271,-6.8465e-05,3.6267e+07,-780.19,0,3.6267e+07,-23.008,11755,12533,1,12533,1,0.00036602,-2.6489e-10,0,0.00036602,-1.9122e-05,1.2358e+08,-77.051,0,1.2358e+08,23.161,12532,446.74,0,446.74,0,0.00014229,1.4469e-09,0,0.00014229,2.6668e-05,4.7525e+07,436.9,0,4.7525e+07,59.516,446.74,1
825,1.63,12164,1,12164,1,0.00023581,-1.0723e-09,0,0.00023581,-4.4062e-05,8.0306e+07,-317.73,0,8.0306e+07,-4.5452,12163,12984,1,12984,1,0.00046764,4.217e-09,0,0.00046764,-6.2e-07,1.5718e+08,1331.7,0,1.5718e+08,197.83,12983,12171,1,12171,1,0.00023581,-7.2345e-10,0,0.00023581,-4.4058e-05,8.0895e+07,-206.74,0,8.0895e+07,-2.8951,12170,11369,1,11369,1,3.9921e-06,-5.433e-09,0,3.9921e-06,-8.7516e-05,1.3114e+06,-1716.1,0,1.3114e+06,-153.64,11368,11756,1,11756,1,0.00010334,-2.6124e-09,0,0.00010334,-6.8886e-05,3.6489e+07,-757.82,0,3.6489e+07,-28.475,11755,12533,1,12533,1,0.00036827,2.8678e-10,0,0.00036827,-1.9239e-05,1.2433e+08,81.202,0,1.2433e+08,21.496,12532,446.74,0,446.74,0,0.00014317,1.9643e-09,0,0.00014317,2.6831e-05,4.7817e+07,586.09,0,4.7817e+07,55.196,446.74,1
825,1.64,12164,1,12164,1,0.00023727,-7.9634e-10,0,0.00023727,-4.4334e-05,8.0802e+07,-235.78,0,8.0802e+07,1.4452,12163,12984,1,12984,1,0.00047052,2.145e-09,0,0.00047052,-6.2377e-07,1.5815e+08,677.23,0,1.5815e+08,227.11,12983,12171,1,12171,1,0.00023726,-6.0321e-10,0,0.00023726,-4.433e-05,8.1395e+07,-174.11,0,8.1395e+07,-4.0845,12170,11369,1,11369,1,4.0168e-06,-3.5561e-09,0,4.0168e-06,-8.8055e-05,1.3195e+06,-1123.2,0,1.3195e+06,-85.09,11368,11756,1,11756,1,0.00010398,-1.7145e-09,0,0.00010398,-6.9311e-05,3.6714e+07,-504,0,3.6714e+07,-16.472,11755,12533,1,12533,1,0.00037055,7.8014e-11,0,0.00037055,-1.9358e-05,1.251e+08,22.55,0,1.251e+08,14.395,12532,446.74,0,446.74,0,0.00014405,1.1888e-09,0,0.00014405,2.6997e-05,4.8112e+07,355.61,0,4.8112e+07,41.972,446.74,1
825,1.65,12164,1,12164,1,0.00023873,2.0158e-10,0,0.00023873,-4.4608e-05,8.1301e+07,59.713,0,8.1301e+07,-2.3864,12163,12984,1,12984,1,0.00047342,6.604e-10,0,0.00047342,-6.2822e-07,1.5913e+08,200.88,0,1.5913e+08,12.285,12983,12171,1,12171,1,0.00023873,1.3996e-10,0,0.00023873,-4.4604e-05,8.1898e+07,40.331,0,8.1898e+07,-2.4312,12170,11369,1,11369,1,4.0418e-06,-8.4744e-11,0,4.0418e-06,-8.8598e-05,1.3277e+06,-23.992,0,1.3277e+06,-14.361,11368,11756,1,11756,1,0.00010462,1.2553e-11,0,0.00010462,-6.974e-05,3.6941e+07,3.5828,0,3.6941e+07,-6.2328,11755,12533,1,12533,1,0.00037284,3.6706e-10,0,0.00037284,-1.9477e-05,1.2588e+08,107.14,0,1.2588e+08,1.1988,12532,446.74,0,446.74,0,0.00014494,2.1432e-10,0,0.00014494,2.7164e-05,4.8409e+07,63.996,0,4.8409e+07,5.0285,446.74,1
825,1.66,12164,1,12164,1,0.00024018,9.345e-11,0,0.00024018,-4.4878e-05,8.1794e+07,27.667,0,8.1794e+07,-3.9809,12163,12984,1,12984,1,0.00047629,1.0211e-09,0,0.00047629,-6.32e-07,1.6009e+08,312.71,0,1.6009e+08,18.606,12983,12171,1,12171,1,0.00024018,7.4972e-12,0,0.00024018,-4.4874e-05,8.2394e+07,2.1266,0,8.2394e+07,-4.1021,12170,11369,1,11369,1,4.0663e-06,-4.9606e-10,0,4.0663e-06,-8.9134e-05,1.3357e+06,-150.89,0,1.3357e+06,-20.41,11368,11756,1,11756,1,0.00010526,-1.7221e-10,0,0.00010526,-7.0162e-05,3.7165e+07,-49.3,0,3.7165e+07,-9.0776,11755,12533,1,12533,1,0.0003751,3.1967e-10,0,0.0003751,-1.9595e-05,1.2664e+08,94.562,0,1.2664e+08,1.1197,12532,446.74,0,446.74,0,0.00014582,3.6719e-10,0,0.00014582,2.7328e-05,4.8702e+07,109.18,0,4.8702e+07,7.2969,446.74,1
825,1.67,12164,1,12164,1,0.00024163,2.7058e-10,0,0.00024163,-4.5148e-05,8.2287e+07,80.154,0,8.2287e+07,-1.6993,12163,12984,1,12984,1,0.00047916,7.9425e-10,0,0.00047916,-6.3584e-07,1.6105e+08,238.91,0,1.6105e+08,13.435,12983,12171,1,12171,1,0.00024163,2.3245e-10,0,0.00024163,-4.5145e-05,8.289e+07,67.842,0,8.289e+07,-1.1609,12170,11369,1,11369,1,4.0909e-06,-1.0087e-10,0,4.0909e-06,-8.9672e-05,1.3438e+06,-28.556,0,1.3438e+06,-21.117,11368,11756,1,11756,1,0.00010589,8.4788e-11,0,0.00010589,-7.0585e-05,3.7389e+07,24.639,0,3.7389e+07,-4.6722,11755,12533,1,12533,1,0.00037736,4.2638e-10,0,0.00037736,-1.9714e-05,1.274e+08,125.84,0,1.274e+08,2.2588,12532,446.74,0,446.74,0,0.0001467,2.3281e-10,0,0.0001467,2.7493e-05,4.8996e+07,69.655,0,4.8996e+07,6.0321,446.74,1
825,1.68,12164,1,12164,1,0.00024307,3.5647e-10,0,0.00024307,-4.5419e-05,8.2779e+07,105.55,0,8.2779e+07,0.060511,12163,12984,1,12984,1,0.00048203,8.2597e-10,0,0.00048203,-6.3963e-07,1.6202e+08,253.43,0,1.6202e+08,25.841,12983,12171,1,12171,1,0.00024307,3.5156e-10,0,0.00024307,-4.5415e-05,8.3387e+07,102.72,0,8.3387e+07,-1.8333,12170,11369,1,11369,1,4.1154e-06,-1.0388e-10,0,4.1154e-06,-9.0208e-05,1.3519e+06,-29.408,0,1.3519e+06,-16.095,11368,11756,1,11756,1,0.00010653,1.4314e-10,0,0.00010653,-7.1007e-05,3.7613e+07,41.971,0,3.7613e+07,-6.2494,11755,12533,1,12533,1,0.00037962,5.7436e-10,0,0.00037962,-1.9832e-05,1.2816e+08,169.61,0,1.2816e+08,4.341,12532,446.74,0,446.74,0,0.00014758,2.5994e-10,0,0.00014758,2.7658e-05,4.9289e+07,78.04,0,4.9289e+07,8.8577,446.74,1
825,1.69,12164,1,12164,1,0.00024452,2.1342e-10,0,0.00024452,-4.5689e-05,8.3272e+07,63.222,0,8.3272e+07,-3.5272,12163,12984,1,12984,1,0.0004849,5.3096e-10,0,0.0004849,-6.4348e-07,1.6298e+08,161.24,0,1.6298e+08,9.522,12983,12171,1,12171,1,0.00024452,2.0449e-10,0,0.00024452,-4.5685e-05,8.3883e+07,59.417,0,8.3883e+07,-3.7981,12170,11369,1,11369,1,4.1399e-06,-8.1061e-11,0,4.1399e-06,-9.0745e-05,1.3599e+06,-22.949,0,1.3599e+06,-11.507,11368,11756,1,11756,1,0.00010716,6.3116e-11,0,0.00010716,-7.143e-05,3.7837e+07,18.524,0,3.7837e+07,-7.3824,11755,12533,1,12533,1,0.00038188,3.6942e-10,0,0.00038188,-1.995e-05,1.2893e+08,108.38,0,1.2893e+08,-0.71954,12532,446.74,0,446.74,0,0.00014846,1.759e-10,0,0.00014846,2.7822e-05,4.9583e+07,52.554,0,4.9583e+07,4.4563,446.74,1
825,1.7,12164,1,12164,1,0.00024596,2.8673e-10,0,0.00024596,-4.5959e-05,8.3764e+07,84.828,0,8.3764e+07,-7.0662,12163,12984,1,12984,1,0.00048777,1.4697e-09,0,0.00048777,-6.4726e-07,1.6395e+08,447.06,0,1.6395e+08,16.749,12983,12171,1,12171,1,0.00024596,1.4166e-10,0,0.00024596,-4.5955e-05,8.4378e+07,40.391,0,8.4378e+07,-7.699,12170,11369,1,11369,1,4.1644e-06,-4.4498e-10,0,4.1644e-06,-9.1282e-05,1.368e+06,-135.35,0,1.368e+06,-35.036,11368,11756,1,11756,1,0.00010779,-6.8998e-11,0,0.00010779,-7.1852e-05,3.806e+07,-20.085,0,3.806e+07,-13.231,11755,12533,1,12533,1,0.00038413,6.2411e-10,0,0.00038413,-2.0068e-05,1.2969e+08,180.66,0,1.2969e+08,-0.60612,12532,446.74,0,446.74,0,0.00014933,4.7106e-10,0,0.00014933,2.7987e-05,4.9876e+07,140.24,0,4.9876e+07,9.3902,446.74,1
825,1.71,12164,1,12164,1,0.00024741,3.1995e-10,0,0.00024741,-4.6229e-05,8.4257e+07,94.69,0,8.4257e+07,-4.3652,12163,12984,1,12984,1,0.00049063,1.2837e-09,0,0.00049063,-6.5105e-07,1.6491e+08,390.48,0,1.6491e+08,23.315,12983,12171,1,12171,1,0.00024741,2.238e-10,0,0.00024741,-4.6226e-05,8.4874e+07,65.017,0,8.4874e+07,-5.5958,12170,11369,1,11369,1,4.1889e-06,-2.9863e-10,0,4.1889e-06,-9.1818e-05,1.376e+06,-91.206,0,1.376e+06,-22.456,11368,11756,1,11756,1,0.00010843,-1.2361e-12,0,0.00010843,-7.2275e-05,3.8284e+07,-0.35256,0,3.8284e+07,-10.984,11755,12533,1,12533,1,0.00038639,5.8794e-10,0,0.00038639,-2.0186e-05,1.3045e+08,173.77,0,1.3045e+08,0.87612,12532,446.74,0,446.74,0,0.00015021,3.9022e-10,0,0.00015021,2.8151e-05,5.0169e+07,116.51,0,5.0169e+07,8.1944,446.74,1
825,1.72,12164,1,12164,1,0.00024886,9.941e-11,0,0.00024886,-4.65e-05,8.4751e+07,29.484,0,8.4751e+07,-1.1129,12163,12984,1,12984,1,0.00049351,2.5472e-10,0,0.00049351,-6.5492e-07,1.6588e+08,76.793,0,1.6588e+08,6.7897,12983,12171,1,12171,1,0.00024886,9.8629e-11,0,0.00024886,-4.6497e-05,8.5372e+07,28.502,0,8.5372e+07,-1.3752,12170,11369,1,11369,1,4.2135e-06,-5.5314e-11,0,4.2135e-06,-9.2357e-05,1.3841e+06,-16.846,0,1.3841e+06,-8.6206,11368,11756,1,11756,1,0.00010906,8.1111e-12,0,0.00010906,-7.2699e-05,3.8508e+07,2.3138,0,3.8508e+07,-3.6227,11755,12533,1,12533,1,0.00038866,1.9182e-10,0,0.00038866,-2.0304e-05,1.3122e+08,56.524,0,1.3122e+08,0.84781,12532,446.74,0,446.74,0,0.00015109,9.6318e-11,0,0.00015109,2.8316e-05,5.0463e+07,28.701,0,5.0463e+07,3.1034,446.74,1
825,1.73,12164,1,12164,1,0.00025028,-1.7115e-09,0,0.00025028,-4.6766e-05,8.5234e+07,-506.75,0,8.5234e+07,16.272,12163,12984,1,12984,1,0.00049634,2.4622e-09,0,0.00049634,-6.5772e-07,1.6683e+08,777.24,0,1.6683e+08,349.92,12983,12171,1,12171,1,0.00025028,-1.3939e-09,0,0.00025028,-4.6762e-05,8.5859e+07,-399.95,0,8.5859e+07,10.61,12170,11369,1,11369,1,4.2372e-06,-5.4963e-09,0,4.2372e-06,-9.2887e-05,1.3919e+06,-1694.6,0,1.3919e+06,-116.87,11368,11756,1,11756,1,0.00010969,-3.2891e-09,0,0.00010969,-7.3113e-05,3.8729e+07,-971.63,0,3.8729e+07,-25.725,11755,12533,1,12533,1,0.00039087,-3.8091e-11,0,0.00039087,-2.042e-05,1.3196e+08,-10.806,0,1.3196e+08,42.385,12532,446.74,0,446.74,0,0.00015195,1.9415e-09,0,0.00015195,2.8478e-05,5.0751e+07,580.69,0,5.0751e+07,73.267,446.74,1
825,1.74,12164,1,12164,1,0.00025173,-7.0989e-10,0,0.00025173,-4.7036e-05,8.5727e+07,-210.4,0,8.5727e+07,-0.41386,12163,12984,1,12984,1,0.0004992,4.7784e-09,0,0.0004992,-6.6178e-07,1.6779e+08,1509.8,0,1.6779e+08,270.76,12983,12171,1,12171,1,0.00025173,-5.3099e-10,0,0.00025173,-4.7032e-05,8.6355e+07,-154.09,0,8.6355e+07,-14.739,12170,11369,1,11369,1,4.2619e-06,-4.2467e-09,0,4.2619e-06,-9.3422e-05,1.4e+06,-1332.1,0,1.4e+06,-101.59,11368,11756,1,11756,1,0.00011032,-1.9306e-09,0,0.00011032,-7.3535e-05,3.8952e+07,-571.79,0,3.8952e+07,-32.913,11755,12533,1,12533,1,0.00039313,3.6435e-10,0,0.00039313,-2.0538e-05,1.3273e+08,103.64,0,1.3273e+08,17.39,12532,446.74,0,446.74,0,0.00015283,1.6791e-09,0,0.00015283,2.8642e-05,5.1044e+07,501.72,0,5.1044e+07,49.915,446.74,1
825,1.75,12164,1,12164,1,0.00025317,-2.2629e-10,0,0.00025317,-4.7306e-05,8.6219e+07,-67.409,0,8.6219e+07,10.811,12163,12984,1,12984,1,0.00050207,6.7739e-09,0,0.00050207,-6.6435e-07,1.6875e+08,2139.8,0,1.6875e+08,753.07,12983,12171,1,12171,1,0.00025317,-4.9612e-11,0,0.00025317,-4.7302e-05,8.6851e+07,-14.033,0,8.6851e+07,-10.569,12170,11369,1,11369,1,4.2866e-06,-5.0703e-09,0,4.2866e-06,-9.3958e-05,1.4082e+06,-1601.9,0,1.4082e+06,-156.65,11368,11756,1,11756,1,0.00011095,-1.5854e-09,0,0.00011095,-7.3958e-05,3.9176e+07,-460.88,0,3.9176e+07,-38.07,11755,12533,1,12533,1,0.00039539,9.2267e-10,0,0.00039539,-2.0656e-05,1.3349e+08,270.98,0,1.3349e+08,27.884,12532,446.74,0,446.74,0,0.00015371,2.0544e-09,0,0.00015371,2.8807e-05,5.1338e+07,617.11,0,5.1338e+07,97.214,446.74,1
825,1.76,12164,1,12164,1,0.00025465,9.0015e-11,0,0.00025465,-4.7582e-05,8.6721e+07,26.645,0,8.6721e+07,0.52467,12163,12984,1,12984,1,0.00050499,6.2629e-10,0,0.00050499,-6.7015e-07,1.6973e+08,190.51,0,1.6973e+08,24.221,12983,12171,1,12171,1,0.00025465,2.179e-11,0,0.00025465,-4.7578e-05,8.7357e+07,6.4581,0,8.7357e+07,-0.97075,12170,11369,1,11369,1,4.3117e-06,-2.8251e-10,0,4.3117e-06,-9.4504e-05,1.4164e+06,-86.769,0,1.4164e+06,-11.209,11368,11756,1,11756,1,0.0001116,-6.7605e-11,0,0.0001116,-7.4389e-05,3.9404e+07,-20.155,0,3.9404e+07,-4.2724,11755,12533,1,12533,1,0.0003977,2.4605e-10,0,0.0003977,-2.0776e-05,1.3427e+08,72.147,0,1.3427e+08,3.639,12532,446.74,0,446.74,0,0.0001546,2.2794e-10,0,0.0001546,2.8975e-05,5.1637e+07,67.823,0,5.1637e+07,6.8107,446.74,1
825,1.77,12164,1,12164,1,0.00025609,1.6006e-10,0,0.00025609,-4.7852e-05,8.7214e+07,47.307,0,8.7214e+07,-1.7067,12163,12984,1,12984,1,0.00050785,8.1647e-10,0,0.00050785,-6.7398e-07,1.707e+08,247.65,0,1.707e+08,23.467,12983,12171,1,12171,1,0.00025609,8.3014e-11,0,0.00025609,-4.7848e-05,8.7853e+07,24.015,0,8.7853e+07,-2.9843,12170,11369,1,11369,1,4.3363e-06,-2.3701e-10,0,4.3363e-06,-9.5041e-05,1.4245e+06,-72.639,0,1.4245e+06,-25.105,11368,11756,1,11756,1,0.00011223,-2.3727e-11,0,0.00011223,-7.4812e-05,3.9628e+07,-6.7889,0,3.9628e+07,-6.5187,11755,12533,1,12533,1,0.00039996,3.2152e-10,0,0.00039996,-2.0894e-05,1.3503e+08,94.155,0,1.3503e+08,2.2066,12532,446.74,0,446.74,0,0.00015548,2.4922e-10,0,0.00015548,2.9139e-05,5.193e+07,74.181,0,5.193e+07,7.2735,446.74,1
825,1.78,12164,1,12164,1,0.00025754,1.009e-10,0,0.00025754,-4.8122e-05,8.7706e+07,29.88,0,8.7706e+07,-2.5301,12163,12984,1,12984,1,0.00051072,3.4925e-10,0,0.00051072,-6.7785e-07,1.7166e+08,105.79,0,1.7166e+08,5.2853,12983,12171,1,12171,1,0.00025754,7.7876e-11,0,0.00025754,-4.8118e-05,8.8349e+07,22.467,0,8.8349e+07,-2.5029,12170,11369,1,11369,1,4.3609e-06,-1.7961e-10,0,4.3609e-06,-9.5578e-05,1.4326e+06,-55.389,0,1.4326e+06,-12.224,11368,11756,1,11756,1,0.00011287,-2.0927e-11,0,0.00011287,-7.5234e-05,3.9852e+07,-6.0536,0,3.9852e+07,-4.8078,11755,12533,1,12533,1,0.00040222,2.2839e-10,0,0.00040222,-2.1012e-05,1.3579e+08,66.947,0,1.3579e+08,-0.2576,12532,446.74,0,446.74,0,0.00015636,1.4096e-10,0,0.00015636,2.9304e-05,5.2223e+07,41.958,0,5.2223e+07,3.1245,446.74,1
825,1.79,12164,1,12164,1,0.00025895,-8.4386e-10,0,0.00025895,-4.8386e-05,8.8187e+07,-250.75,0,8.8187e+07,-5.9666,12163,12984,1,12984,1,0.00051354,4.32e-09,0,0.00051354,-6.8083e-07,1.7261e+08,1364.8,0,1.7261e+08,266.67,12983,12171,1,12171,1,0.00025895,-2.708e-10,0,0.00025895,-4.8382e-05,8.8833e+07,-76.865,0,8.8833e+07,-15.68,12170,11369,1,11369,1,4.3844e-06,-6.637e-09,0,4.3844e-06,-9.6104e-05,1.4403e+06,-2097.4,0,1.4403e+06,-96.508,11368,11756,1,11756,1,0.00011349,-2.3729e-09,0,0.00011349,-7.5646e-05,4.007e+07,-693.58,0,4.007e+07,-50.426,11755,12533,1,12533,1,0.00040442,7.5332e-10,0,0.00040442,-2.1127e-05,1.3654e+08,214.27,0,1.3654e+08,21.284,12532,446.74,0,446.74,0,0.00015722,2.3367e-09,0,0.00015722,2.9465e-05,5.251e+07,697.73,0,5.251e+07,63.558,446.74,1
825,1.8,12164,1,12164,1,0.00026041,-2.2255e-09,0,0.00026041,-4.8658e-05,8.8683e+07,-659.03,0,8.8683e+07,10.12,12163,12984,1,12984,1,0.00051643,2.2262e-09,0,0.00051643,-6.8404e-07,1.7358e+08,703.02,0,1.7358e+08,522.5,12983,12171,1,12171,1,0.00026041,-1.9022e-09,0,0.00026041,-4.8654e-05,8.9332e+07,-550.25,0,8.9332e+07,-8.73,12170,11369,1,11369,1,4.4093e-06,-6.6815e-09,0,4.4093e-06,-9.6646e-05,1.4485e+06,-2110.7,0,1.4485e+06,-98.163,11368,11756,1,11756,1,0.00011413,-3.9354e-09,0,0.00011413,-7.6071e-05,4.0296e+07,-1156.8,0,4.0296e+07,-28.915,11755,12533,1,12533,1,0.00040669,-4.1224e-10,0,0.00040669,-2.1246e-05,1.373e+08,-120.77,0,1.373e+08,28.785,12532,446.74,0,446.74,0,0.0001581,2.1006e-09,0,0.0001581,2.963e-05,5.2805e+07,630.73,0,5.2805e+07,75.393,446.74,1
825,1.81,12164,1,12164,1,0.00026185,-9.1149e-10,0,0.00026185,-4.8928e-05,8.9175e+07,-270.5,0,8.9175e+07,0.72034,12163,12984,1,12984,1,0.00051929,4.0101e-09,0,0.00051929,-6.8866e-07,1.7454e+08,1266.6,0,1.7454e+08,225.2,12983,12171,1,12171,1,0.00026185,-6.3746e-10,0,0.00026185,-4.8924e-05,8.9828e+07,-182,0,8.9828e+07,-12.276,12170,11369,1,11369,1,4.4341e-06,-5.609e-09,0,4.4341e-06,-9.7181e-05,1.4566e+06,-1772,0,1.4566e+06,-302.2,11368,11756,1,11756,1,0.00011476,-2.2693e-09,0,0.00011476,-7.6494e-05,4.0519e+07,-666.58,0,4.0519e+07,-33.873,11755,12533,1,12533,1,0.00040895,3.5324e-10,0,0.00040895,-2.1364e-05,1.3807e+08,103.12,0,1.3807e+08,22.048,12532,446.74,0,446.74,0,0.00015898,1.9062e-09,0,0.00015898,2.9795e-05,5.3098e+07,571.09,0,5.3098e+07,56.091,446.74,1
825,1.82,12164,1,12164,1,0.00026331,-1.5782e-09,0,0.00026331,-4.9199e-05,8.9669e+07,-467.62,0,8.9669e+07,-9.9147,12163,12984,1,12984,1,0.00052217,1.9639e-09,0,0.00052217,-6.9283e-07,1.7551e+08,620.47,0,1.7551e+08,99.698,12983,12171,1,12171,1,0.0002633,-1.3977e-09,0,0.0002633,-4.9195e-05,9.0326e+07,-413.41,0,9.0326e+07,-13.642,12170,11369,1,11369,1,4.4586e-06,-4.8445e-09,0,4.4586e-06,-9.772e-05,1.4646e+06,-1525.7,0,1.4646e+06,-167.65,11368,11756,1,11756,1,0.00011539,-2.7941e-09,0,0.00011539,-7.6917e-05,4.0744e+07,-827.19,0,4.0744e+07,-26.149,11755,12533,1,12533,1,0.00041121,-2.7842e-10,0,0.00041121,-2.1483e-05,1.3883e+08,-79.011,0,1.3883e+08,8.6276,12532,446.74,0,446.74,0,0.00015986,1.534e-09,0,0.00015986,2.996e-05,5.3392e+07,459.73,0,5.3392e+07,35.66,446.74,1
825,1.83,12164,1,12164,1,0.00026477,-1.5015e-09,0,0.00026477,-4.9473e-05,9.0168e+07,-444.71,0,9.0168e+07,-10.5,12163,12984,1,12984,1,0.00052507,6.5933e-10,0,0.00052507,-6.9667e-07,1.7648e+08,186.67,0,1.7648e+08,122.38,12983,12171,1,12171,1,0.00026477,-1.7831e-09,0,0.00026477,-4.9469e-05,9.0829e+07,-519.31,0,9.0829e+07,0.1189,12170,11369,1,11369,1,4.4838e-06,-2.834e-09,0,4.4838e-06,-9.8263e-05,1.4729e+06,-862.14,0,1.4729e+06,-384.09,11368,11756,1,11756,1,0.00011604,-2.2559e-09,0,0.00011604,-7.7346e-05,4.0971e+07,-680.81,0,4.0971e+07,-21.868,11755,12533,1,12533,1,0.0004135,-8.3699e-10,0,0.0004135,-2.1602e-05,1.396e+08,-238.56,0,1.396e+08,15.336,12532,446.74,0,446.74,0,0.00016075,9.4693e-10,0,0.00016075,3.0126e-05,5.3689e+07,284.44,0,5.3689e+07,45.173,446.74,1
825,1.84,12164,1,12164,1,0.00026621,-8.8657e-10,0,0.00026621,-4.9741e-05,9.0657e+07,-262.78,0,9.0657e+07,3.2504,12163,12984,1,12984,1,0.00052791,1.1888e-09,0,0.00052791,-7.004e-07,1.7744e+08,375.58,0,1.7744e+08,140.45,12983,12171,1,12171,1,0.0002662,-7.5798e-10,0,0.0002662,-4.9737e-05,9.1321e+07,-217.97,0,9.1321e+07,-1.6851,12170,11369,1,11369,1,4.5081e-06,-3.2426e-09,0,4.5081e-06,-9.8795e-05,1.4809e+06,-994.04,0,1.4809e+06,-59.64,11368,11756,1,11756,1,0.00011666,-1.6726e-09,0,0.00011666,-7.7765e-05,4.1193e+07,-494.29,0,4.1193e+07,-13.531,11755,12533,1,12533,1,0.00041574,-3.7311e-11,0,0.00041574,-2.1719e-05,1.4036e+08,-10.563,0,1.4036e+08,16.708,12532,446.74,0,446.74,0,0.00016162,1.034e-09,0,0.00016162,3.029e-05,5.398e+07,309.1,0,5.398e+07,25.497,446.74,1
825,1.85,12164,1,12164,1,0.00026763,-1.9062e-09,0,0.00026763,-5.0008e-05,9.1142e+07,-565.7,0,9.1142e+07,-6.0961,12163,12984,1,12984,1,0.00053076,5.2824e-09,0,0.00053076,-7.0373e-07,1.784e+08,1668.4,0,1.784e+08,301.48,12983,12171,1,12171,1,0.00026763,-1.2602e-09,0,0.00026763,-5.0004e-05,9.1809e+07,-358.96,0,9.1809e+07,-24.834,12170,11369,1,11369,1,4.5323e-06,-9.1856e-09,0,4.5323e-06,-9.9327e-05,1.4889e+06,-2880.8,0,1.4889e+06,-136.16,11368,11756,1,11756,1,0.00011729,-4.4382e-09,0,0.00011729,-7.8181e-05,4.1414e+07,-1310.4,0,4.1414e+07,-69.83,11755,12533,1,12533,1,0.00041797,5.0859e-10,0,0.00041797,-2.1836e-05,1.4111e+08,144.09,0,1.4111e+08,37.304,12532,446.74,0,446.74,0,0.00016249,3.38e-09,0,0.00016249,3.0452e-05,5.4269e+07,1008.9,0,5.4269e+07,81.657,446.74,1
825,1.86,12164,1,12164,1,0.00026911,-1.2047e-09,0,0.00026911,-5.0284e-05,9.1646e+07,-356.48,0,9.1646e+07,-6.5626,12163,12984,1,12984,1,0.00053367,4.1245e-10,0,0.00053367,-7.0836e-07,1.7938e+08,116.77,0,1.7938e+08,38.632,12983,12171,1,12171,1,0.00026911,-1.4181e-09,0,0.00026911,-5.028e-05,9.2317e+07,-411.53,0,9.2317e+07,-1.0316,12170,11369,1,11369,1,4.5576e-06,-2.3792e-09,0,4.5576e-06,-9.9872e-05,1.4972e+06,-751.87,0,1.4972e+06,-189.53,11368,11756,1,11756,1,0.00011794,-1.7992e-09,0,0.00011794,-7.8613e-05,4.1642e+07,-539.8,0,4.1642e+07,-15.297,11755,12533,1,12533,1,0.00042028,-6.7748e-10,0,0.00042028,-2.1956e-05,1.4189e+08,-192.7,0,1.4189e+08,9.194,12532,446.74,0,446.74,0,0.00016338,7.1482e-10,0,0.00016338,3.062e-05,5.4569e+07,215.38,0,5.4569e+07,26.101,446.74,1
825,1.87,12164,1,12164,1,0.00027054,-7.0659e-10,0,0.00027054,-5.0552e-05,9.2133e+07,-209.41,0,9.2133e+07,-5.2446,12163,12984,1,12984,1,0.00053651,1.4518e-09,0,0.00053651,-7.1201e-07,1.8033e+08,458.84,0,1.8033e+08,78.514,12983,12171,1,12171,1,0.00027054,-4.2727e-10,0,0.00027054,-5.0547e-05,9.2808e+07,-123.95,0,9.2808e+07,-6.8595,12170,11369,1,11369,1,4.5818e-06,-3.3906e-09,0,4.5818e-06,-0.0001004,1.5052e+06,-1071.2,0,1.5052e+06,-167.39,11368,11756,1,11756,1,0.00011857,-1.3017e-09,0,0.00011857,-7.9032e-05,4.1864e+07,-382.88,0,4.1864e+07,-20.079,11755,12533,1,12533,1,0.00042252,4.6981e-11,0,0.00042252,-2.2073e-05,1.4265e+08,13.504,0,1.4265e+08,7.2342,12532,446.74,0,446.74,0,0.00016425,9.8886e-10,0,0.00016425,3.0783e-05,5.4859e+07,296.23,0,5.4859e+07,25.256,446.74,1
825,1.88,12164,1,12164,1,0.00027199,-2.118e-09,0,0.00027199,-5.0822e-05,9.2626e+07,-627.75,0,9.2626e+07,-1.6357,12163,12984,1,12984,1,0.00053939,2.692e-09,0,0.00053939,-7.1529e-07,1.813e+08,850.66,0,1.813e+08,271.21,12983,12171,1,12171,1,0.00027199,-1.7916e-09,0,0.00027199,-5.0817e-05,9.3303e+07,-516.19,0,9.3303e+07,-9.8887,12170,11369,1,11369,1,4.6062e-06,-6.6909e-09,0,4.6062e-06,-0.00010094,1.5131e+06,-2114.2,0,1.5131e+06,-248.66,11368,11756,1,11756,1,0.0001192,-3.8568e-09,0,0.0001192,-7.9453e-05,4.2088e+07,-1136.4,0,4.2088e+07,-33.618,11755,12533,1,12533,1,0.00042477,-1.8094e-10,0,0.00042477,-2.2191e-05,1.4341e+08,-54.992,0,1.4341e+08,23.155,12532,446.74,0,446.74,0,0.00016513,2.1508e-09,0,0.00016513,3.0948e-05,5.5152e+07,645.19,0,5.5152e+07,55.777,446.74,1
825,1.89,12164,1,12164,1,0.00027343,-4.8754e-10,0,0.00027343,-5.109e-05,9.3115e+07,-144.53,0,9.3115e+07,13.429,12163,12984,1,12984,1,0.00054223,4.7388e-09,0,0.00054223,-7.1891e-07,1.8225e+08,1497.2,0,1.8225e+08,351.73,12983,12171,1,12171,1,0.00027343,-1.2538e-10,0,0.00027343,-5.1086e-05,9.3797e+07,-35.651,0,9.3797e+07,0.56383,12170,11369,1,11369,1,4.6306e-06,-5.7161e-09,0,4.6306e-06,-0.00010147,1.5213e+06,-1778.8,0,1.5213e+06,-88.914,11368,11756,1,11756,1,0.00011983,-1.9401e-09,0,0.00011983,-7.9874e-05,4.231e+07,-565.07,0,4.231e+07,-39.841,11755,12533,1,12533,1,0.00042702,8.7982e-10,0,0.00042702,-2.2308e-05,1.4417e+08,252.96,0,1.4417e+08,40.828,12532,446.74,0,446.74,0,0.000166,2.2151e-09,0,0.000166,3.1111e-05,5.5444e+07,660.93,0,5.5444e+07,77.348,446.74,1
825,1.9,12164,1,12164,1,0.00027488,-1.9726e-09,0,0.00027488,-5.1361e-05,9.3609e+07,-584.28,0,9.3609e+07,-10.764,12163,12984,1,12984,1,0.00054511,3.2846e-09,0,0.00054511,-7.2277e-07,1.8322e+08,1037.8,0,1.8322e+08,339.02,12983,12171,1,12171,1,0.00027487,-1.7835e-09,0,0.00027487,-5.1357e-05,9.4294e+07,-519.97,0,9.4294e+07,-16.915,12170,11369,1,11369,1,4.6553e-06,-6.6322e-09,0,4.6553e-06,-0.00010201,1.5293e+06,-2095.7,0,1.5293e+06,-358.39,11368,11756,1,11756,1,0.00012047,-3.4376e-09,0,0.00012047,-8.0297e-05,4.2535e+07,-1005,0,4.2535e+07,-31.41,11755,12533,1,12533,1,0.00042928,-4.3191e-10,0,0.00042928,-2.2427e-05,1.4493e+08,-124.03,0,1.4493e+08,7.5134,12532,446.74,0,446.74,0,0.00016688,1.8462e-09,0,0.00016688,3.1276e-05,5.5738e+07,555.96,0,5.5738e+07,53.353,446.74,1
825,1.91,12164,1,12164,1,0.00027629,-2.4338e-09,0,0.00027629,-5.1625e-05,9.4089e+07,-721.76,0,9.4089e+07,-27.257,12163,12984,1,12984,1,0.00054792,9.7023e-09,0,0.00054792,-7.2428e-07,1.8417e+08,3063.8,0,1.8417e+08,1206.8,12983,12171,1,12171,1,0.00027628,-1.4441e-09,0,0.00027628,-5.162e-05,9.4777e+07,-414.41,0,9.4777e+07,-56.945,12170,11369,1,11369,1,4.6791e-06,-1.403e-08,0,4.6791e-06,-0.00010254,1.5371e+06,-4433.4,0,1.5372e+06,-261.25,11368,11756,1,11756,1,0.00012108,-6.0369e-09,0,0.00012108,-8.0709e-05,4.2753e+07,-1774.2,0,4.2753e+07,-122,11755,12533,1,12533,1,0.00043148,1.0943e-09,0,0.00043148,-2.2542e-05,1.4567e+08,314.68,0,1.4567e+08,25.359,12532,446.74,0,446.74,0,0.00016774,5.0754e-09,0,0.00016774,3.1437e-05,5.6023e+07,1516.1,0,5.6023e+07,161.71,446.74,1
825,1.92,12164,1,12164,1,0.00027778,-1.6811e-09,0,0.00027778,-5.1905e-05,9.4599e+07,-497.64,0,9.4599e+07,-3.3592,12163,12984,1,12984,1,0.00055087,6.7057e-10,0,0.00055087,-7.3093e-07,1.8516e+08,211.59,0,1.8516e+08,162.94,12983,12171,1,12171,1,0.00027778,-1.738e-09,0,0.00027778,-5.19e-05,9.5291e+07,-504.92,0,9.5291e+07,-0.84318,12170,11369,1,11369,1,4.7048e-06,-3.9038e-09,0,4.7048e-06,-0.00010309,1.5456e+06,-1233.3,0,1.5456e+06,-90.73,11368,11756,1,11756,1,0.00012174,-2.6801e-09,0,0.00012174,-8.1146e-05,4.2984e+07,-790.85,0,4.2984e+07,-15.046,11755,12533,1,12533,1,0.00043382,-7.4345e-10,0,0.00043382,-2.2664e-05,1.4646e+08,-215.69,0,1.4646e+08,11.647,12532,446.74,0,446.74,0,0.00016865,1.1654e-09,0,0.00016865,3.1607e-05,5.6327e+07,351.2,0,5.6327e+07,31.652,446.74,1
825,1.93,12164,1,12164,1,0.0002792,-2.2108e-09,0,0.0002792,-5.217e-05,9.5083e+07,-655.43,0,9.5083e+07,-5.4714,12163,12984,1,12984,1,0.00055371,7.165e-09,0,0.00055371,-7.3381e-07,1.8611e+08,2263.2,0,1.8611e+08,494.53,12983,12171,1,12171,1,0.0002792,-1.579e-09,0,0.0002792,-5.2166e-05,9.5778e+07,-451.88,0,9.5778e+07,-28.618,12170,11369,1,11369,1,4.7289e-06,-1.0039e-08,0,4.7289e-06,-0.00010362,1.5536e+06,-3079,0,1.5536e+06,-195.61,11368,11756,1,11756,1,0.00012236,-5.237e-09,0,0.00012236,-8.1561e-05,4.3205e+07,-1521.6,0,4.3205e+07,-71.837,11755,12533,1,12533,1,0.00043604,5.988e-10,0,0.00043604,-2.278e-05,1.4721e+08,169.52,0,1.4721e+08,31.602,12532,446.74,0,446.74,0,0.00016951,3.846e-09,0,0.00016951,3.1769e-05,5.6615e+07,1148,0,5.6615e+07,97.177,446.74,1
825,1.94,12164,1,12164,1,0.00028067,-1.2901e-09,0,0.00028067,-5.2444e-05,9.5581e+07,-382.7,0,9.5581e+07,0.62917,12163,12984,1,12984,1,0.0005566,2.7684e-09,0,0.0005566,-7.387e-07,1.8708e+08,874.72,0,1.8708e+08,118.21,12983,12171,1,12171,1,0.00028067,-1.0709e-09,0,0.00028067,-5.2439e-05,9.628e+07,-311.87,0,9.628e+07,-2.7527,12170,11369,1,11369,1,4.754e-06,-5.2213e-09,0,4.754e-06,-0.00010416,1.5618e+06,-1649.7,0,1.5618e+06,-305.77,11368,11756,1,11756,1,0.000123,-2.485e-09,0,0.000123,-8.1989e-05,4.3431e+07,-737.49,0,4.3431e+07,-20.467,11755,12533,1,12533,1,0.00043833,3.1175e-11,0,0.00043833,-2.2899e-05,1.4799e+08,8.8217,0,1.4799e+08,23.02,12532,446.74,0,446.74,0,0.0001704,1.5748e-09,0,0.0001704,3.1935e-05,5.6912e+07,472.66,0,5.6912e+07,40.15,446.74,1
825,1.95,12164,1,12164,1,0.0002821,-2.2349e-09,0,0.0002821,-5.2711e-05,9.6069e+07,-663.66,0,9.6069e+07,-4.3383,12163,12984,1,12984,1,0.00055945,3.3702e-09,0,0.00055945,-7.4218e-07,1.8804e+08,1025.3,0,1.8804e+08,238.09,12983,12171,1,12171,1,0.0002821,-1.5226e-09,0,0.0002821,-5.2707e-05,9.6771e+07,-457.91,0,9.6771e+07,-17.553,12170,11369,1,11369,1,4.7782e-06,-9.4833e-09,0,4.7782e-06,-0.0001047,1.5697e+06,-2884.6,0,1.5697e+06,-124.54,11368,11756,1,11756,1,0.00012363,-4.6267e-09,0,0.00012363,-8.2407e-05,4.3653e+07,-1359.2,0,4.3653e+07,-61.842,11755,12533,1,12533,1,0.00044056,3.6859e-10,0,0.00044056,-2.3016e-05,1.4874e+08,105.9,0,1.4874e+08,38.77,12532,446.74,0,446.74,0,0.00017127,3.2129e-09,0,0.00017127,3.2098e-05,5.7202e+07,958.78,0,5.7202e+07,68.363,446.74,1
825,1.96,12164,1,12164,1,0.00028357,-6.81e-10,0,0.00028357,-5.2986e-05,9.6569e+07,-201.89,0,9.6569e+07,1.9751,12163,12984,1,12984,1,0.00056235,1.3995e-09,0,0.00056235,-7.4634e-07,1.8901e+08,442.17,0,1.8901e+08,127.07,12983,12171,1,12171,1,0.00028357,-5.5552e-10,0,0.00028357,-5.2982e-05,9.7276e+07,-160.45,0,9.7276e+07,-2.1259,12170,11369,1,11369,1,4.8033e-06,-2.7806e-09,0,4.8033e-06,-0.00010524,1.578e+06,-878.46,0,1.578e+06,-97.558,11368,11756,1,11756,1,0.00012428,-1.3339e-09,0,0.00012428,-8.2838e-05,4.388e+07,-392.1,0,4.388e+07,-12.153,11755,12533,1,12533,1,0.00044286,1.7642e-11,0,0.00044286,-2.3136e-05,1.4952e+08,4.9967,0,1.4952e+08,13.732,12532,446.74,0,446.74,0,0.00017216,9.0372e-10,0,0.00017216,3.2265e-05,5.7501e+07,270.44,0,5.7501e+07,24.006,446.74,1
825,1.97,12164,1,12164,1,0.00028498,-2.4202e-09,0,0.00028498,-5.3249e-05,9.7048e+07,-717.73,0,9.7048e+07,-9.3456,12163,12984,1,12984,1,0.00056516,5.839e-09,0,0.00056516,-7.4946e-07,1.8996e+08,1844.2,0,1.8996e+08,341.99,12983,12171,1,12171,1,0.00028497,-1.6178e-09,0,0.00028497,-5.3244e-05,9.7757e+07,-459.12,0,9.7757e+07,-29.182,12170,11369,1,11369,1,4.827e-06,-1.1285e-08,0,4.827e-06,-0.00010577,1.5858e+06,-3515.5,0,1.5858e+06,-172.93,11368,11756,1,11756,1,0.00012489,-5.51e-09,0,0.00012489,-8.3247e-05,4.4098e+07,-1619.7,0,4.4098e+07,-74.543,11755,12533,1,12533,1,0.00044505,5.099e-10,0,0.00044505,-2.3251e-05,1.5026e+08,144.46,0,1.5026e+08,42.508,12532,446.74,0,446.74,0,0.00017302,4.0835e-09,0,0.00017302,3.2425e-05,5.7786e+07,1218.4,0,5.7786e+07,86.845,446.74,1
825,1.98,12164,1,12164,1,0.00028648,-1.9217e-09,0,0.00028648,-5.353e-05,9.7562e+07,-568.6,0,9.7562e+07,-4.9709,12163,12984,1,12984,1,0.00056813,4.4201e-10,0,0.00056813,-7.5423e-07,1.9096e+08,125.14,0,1.9096e+08,74.802,12983,12171,1,12171,1,0.00028648,-2.2079e-09,0,0.00028648,-5.3526e-05,9.8275e+07,-646.73,0,9.8275e+07,6.1503,12170,11369,1,11369,1,4.8529e-06,-3.5208e-09,0,4.8529e-06,-0.00010632,1.5943e+06,-1064.6,0,1.5943e+06,-168.72,11368,11756,1,11756,1,0.00012555,-2.8231e-09,0,0.00012555,-8.3688e-05,4.4331e+07,-841.8,0,4.4331e+07,-20.73,11755,12533,1,12533,1,0.00044741,-1.0973e-09,0,0.00044741,-2.3374e-05,1.5105e+08,-313.19,0,1.5105e+08,15.246,12532,446.74,0,446.74,0,0.00017393,1.138e-09,0,0.00017393,3.2597e-05,5.8091e+07,342.9,0,5.8091e+07,33.469,446.74,1
825,1.99,12164,1,12164,1,0.00028791,-9.4546e-10,0,0.00028791,-5.3796e-05,9.8046e+07,-279.63,0,9.8046e+07,0.90344,12163,12984,1,12984,1,0.00057095,1.1849e-09,0,0.00057095,-7.5776e-07,1.9191e+08,374.31,0,1.9191e+08,146.53,12983,12171,1,12171,1,0.00028791,-6.5373e-10,0,0.00028791,-5.3792e-05,9.8763e+07,-187.16,0,9.8763e+07,-4.4656,12170,11369,1,11369,1,4.8771e-06,-3.862e-09,0,4.8771e-06,-0.00010685,1.6022e+06,-1181.5,0,1.6022e+06,-54.413,11368,11756,1,11756,1,0.00012618,-1.7793e-09,0,0.00012618,-8.4105e-05,4.4551e+07,-521.5,0,4.4551e+07,-20.353,11755,12533,1,12533,1,0.00044964,-2.71e-11,0,0.00044964,-2.349e-05,1.518e+08,-7.7043,0,1.518e+08,14.944,12532,446.74,0,446.74,0,0.0001748,1.1915e-09,0,0.0001748,3.2759e-05,5.838e+07,356.03,0,5.838e+07,29.504,446.74,1
825,2,12164,1,12164,1,0.00028936,-3.1385e-09,0,0.00028936,-5.4067e-05,9.8539e+07,-930.56,0,9.8539e+07,-27.698,12163,12984,1,12984,1,0.00057384,1.4086e-09,0,0.00057384,-7.6191e-07,1.9288e+08,398.81,0,1.9288e+08,69.411,12983,12171,1,12171,1,0.00028936,-3.5972e-09,0,0.00028936,-5.4062e-05,9.926e+07,-1036.6,0,9.926e+07,-7.196,12170,11369,1,11369,1,4.9017e-06,-6.8957e-09,0,4.9017e-06,-0.00010739,1.6103e+06,-2178.8,0,1.6103e+06,-454.85,11368,11756,1,11756,1,0.00012681,-4.8565e-09,0,0.00012681,-8.4526e-05,4.4776e+07,-1448,0,4.4776e+07,-48.885,11755,12533,1,12533,1,0.00045189,-1.6377e-09,0,0.00045189,-2.3609e-05,1.5256e+08,-465.82,0,1.5256e+08,10.543,12532,446.74,0,446.74,0,0.00017568,2.0577e-09,0,0.00017568,3.2923e-05,5.8673e+07,620.76,0,5.8673e+07,66.622,446.74,1
825,2.01,12164,1,12164,1,0.0002908,-1.1167e-09,0,0.0002908,-5.4337e-05,9.9032e+07,-331.42,0,9.9032e+07,10.193,12163,12984,1,12984,1,0.00057669,3.4568e-09,0,0.00057669,-7.6427e-07,1.9384e+08,1092.2,0,1.9384e+08,607.63,12983,12171,1,12171,1,0.0002908,-7.7611e-10,0,0.0002908,-5.4333e-05,9.9756e+07,-228.29,0,9.9756e+07,-8.3464,12170,11369,1,11369,1,4.9266e-06,-6.0825e-09,0,4.9266e-06,-0.00010792,1.6185e+06,-1921.8,0,1.6185e+06,-300.89,11368,11756,1,11756,1,0.00012745,-2.1327e-09,0,0.00012745,-8.495e-05,4.4999e+07,-622.28,0,4.4999e+07,-25.076,11755,12533,1,12533,1,0.00045416,3.3659e-11,0,0.00045416,-2.3726e-05,1.5333e+08,9.5297,0,1.5333e+08,21.367,12532,446.74,0,446.74,0,0.00017655,1.5355e-09,0,0.00017655,3.3088e-05,5.8967e+07,465.39,0,5.8967e+07,78.55,446.74,1
825,2.02,12164,1,12164,1,0.00029224,-1.4859e-09,0,0.00029224,-5.4606e-05,9.9522e+07,-440.18,0,9.9522e+07,-6.1582,12163,12984,1,12984,1,0.00057955,2.4047e-09,0,0.00057955,-7.6926e-07,1.948e+08,759.44,0,1.948e+08,159.78,12983,12171,1,12171,1,0.00029224,-1.1939e-09,0,0.00029224,-5.4602e-05,1.0025e+08,-343.56,0,1.0025e+08,-16.022,12170,11369,1,11369,1,4.9511e-06,-5.5113e-09,0,4.9511e-06,-0.00010846,1.6266e+06,-1688.5,0,1.6266e+06,-110.38,11368,11756,1,11756,1,0.00012808,-2.9834e-09,0,0.00012808,-8.5371e-05,4.5222e+07,-883.16,0,4.5222e+07,-37.137,11755,12533,1,12533,1,0.0004564,3.6668e-11,0,0.0004564,-2.3844e-05,1.5409e+08,10.386,0,1.5409e+08,17.567,12532,446.74,0,446.74,0,0.00017743,1.9222e-09,0,0.00017743,3.3252e-05,5.9259e+07,574.2,0,5.9259e+07,42.195,446.74,1
825,2.03,12164,1,12164,1,0.00029369,-3.1778e-09,0,0.00029369,-5.4877e-05,1.0001e+08,-942.08,0,1.0001e+08,-24.129,12163,12984,1,12984,1,0.00058243,2.1985e-09,0,0.00058243,-7.7301e-07,1.9577e+08,694.93,0,1.9577e+08,167.26,12983,12171,1,12171,1,0.00029369,-2.9347e-09,0,0.00029369,-5.4872e-05,1.0075e+08,-865.56,0,1.0075e+08,-18.968,12170,11369,1,11369,1,4.9751e-06,-9.064e-09,0,4.9751e-06,-0.000109,1.6344e+06,-2863.8,0,1.6344e+06,-484.9,11368,11756,1,11756,1,0.00012871,-5.4486e-09,0,0.00012871,-8.5792e-05,4.5446e+07,-1614.5,0,4.5446e+07,-49.382,11755,12533,1,12533,1,0.00045866,-7.5447e-10,0,0.00045866,-2.3962e-05,1.5485e+08,-222.1,0,1.5485e+08,13.387,12532,446.74,0,446.74,0,0.00017831,2.8058e-09,0,0.00017831,3.3416e-05,5.9552e+07,842.41,0,5.9552e+07,72.477,446.74,1
825,2.04,12164,1,12164,1,0.00029514,-1.4604e-09,0,0.00029514,-5.5148e-05,1.0051e+08,-432.74,0,1.0051e+08,5.176,12163,12984,1,12984,1,0.0005853,2.4904e-09,0,0.0005853,-7.766e-07,1.9673e+08,786.41,0,1.9673e+08,253.69,12983,12171,1,12171,1,0.00029514,-1.24e-09,0,0.00029514,-5.5143e-05,1.0124e+08,-354.13,0,1.0124e+08,-6.174,12170,11369,1,11369,1,5e-06,-5.3426e-09,0,5e-06,-0.00010953,1.6426e+06,-1625.1,0,1.6426e+06,-109.02,11368,11756,1,11756,1,0.00012935,-2.7341e-09,0,0.00012935,-8.6217e-05,4.5671e+07,-813.04,0,4.5671e+07,-23.94,11755,12533,1,12533,1,0.00046093,-3.1891e-12,0,0.00046093,-2.408e-05,1.5562e+08,-0.90039,0,1.5562e+08,24.174,12532,446.74,0,446.74,0,0.00017919,1.7416e-09,0,0.00017919,3.3582e-05,5.9846e+07,520.65,0,5.9846e+07,50.428,446.74,1
825,2.05,12164,1,12164,1,0.00029657,-1.9356e-09,0,0.00029657,-5.5414e-05,1.0099e+08,-574.35,0,1.0099e+08,-12.747,12163,12984,1,12984,1,0.00058813,3.6712e-09,0,0.00058813,-7.8064e-07,1.9768e+08,1159.4,0,1.9768e+08,188.46,12983,12171,1,12171,1,0.00029656,-1.295e-09,0,0.00029656,-5.5409e-05,1.0173e+08,-372.94,0,1.0173e+08,-28.493,12170,11369,1,11369,1,5.0245e-06,-8.876e-09,0,5.0245e-06,-0.00011006,1.6507e+06,-2699.8,0,1.6507e+06,-131.18,11368,11756,1,11756,1,0.00012997,-4.0334e-09,0,0.00012997,-8.6633e-05,4.5891e+07,-1195.9,0,4.5891e+07,-57.491,11755,12533,1,12533,1,0.00046315,2.8911e-10,0,0.00046315,-2.4197e-05,1.5637e+08,81.862,0,1.5637e+08,28.498,12532,446.74,0,446.74,0,0.00018005,2.9421e-09,0,0.00018005,3.3744e-05,6.0135e+07,878.05,0,6.0135e+07,59.64,446.74,1
825,2.06,12164,1,12164,1,0.00029805,-1.7696e-09,0,0.00029805,-5.5691e-05,1.015e+08,-523.65,0,1.015e+08,-7.673,12163,12984,1,12984,1,0.00059106,4.9051e-10,0,0.00059106,-7.8473e-07,1.9866e+08,138.87,0,1.9866e+08,108.84,12983,12171,1,12171,1,0.00029805,-2.0745e-09,0,0.00029805,-5.5686e-05,1.0224e+08,-601.22,0,1.0224e+08,-2.2402,12170,11369,1,11369,1,5.0498e-06,-3.2888e-09,0,5.0498e-06,-0.00011061,1.659e+06,-1005.5,0,1.659e+06,-188.44,11368,11756,1,11756,1,0.00013062,-2.6025e-09,0,0.00013062,-8.7066e-05,4.612e+07,-785.57,0,4.612e+07,-16.287,11755,12533,1,12533,1,0.00046547,-9.7765e-10,0,0.00046547,-2.4317e-05,1.5715e+08,-278.08,0,1.5715e+08,8.9977,12532,446.74,0,446.74,0,0.00018095,1.0166e-09,0,0.00018095,3.3912e-05,6.0436e+07,307.05,0,6.0436e+07,31.165,446.74,1
825,2.07,12164,1,12164,1,0.00029947,-2.0204e-09,0,0.00029947,-5.5956e-05,1.0198e+08,-598.75,0,1.0198e+08,-20.947,12163,12984,1,12984,1,0.00059388,3.909e-09,0,0.00059388,-7.8818e-07,1.9961e+08,1234.8,0,1.9961e+08,221.27,12983,12171,1,12171,1,0.00029946,-1.3603e-09,0,0.00029946,-5.5951e-05,1.0273e+08,-393.28,0,1.0273e+08,-31.035,12170,11369,1,11369,1,5.0738e-06,-8.6214e-09,0,5.0738e-06,-0.00011114,1.6669e+06,-2622.4,0,1.6669e+06,-114.74,11368,11756,1,11756,1,0.00013124,-4.1275e-09,0,0.00013124,-8.748e-05,4.634e+07,-1219.1,0,4.634e+07,-63.346,11755,12533,1,12533,1,0.00046768,1.3344e-10,0,0.00046768,-2.4433e-05,1.579e+08,37.79,0,1.579e+08,15.365,12532,446.74,0,446.74,0,0.00018181,2.8846e-09,0,0.00018181,3.4074e-05,6.0723e+07,861.45,0,6.0723e+07,56.029,446.74,1
825,2.08,12164,1,12164,1,0.00030096,-2.323e-09,0,0.00030096,-5.6235e-05,1.0249e+08,-687.49,0,1.0249e+08,-3.754,12163,12984,1,12984,1,0.00059683,5.6496e-10,0,0.00059683,-7.9263e-07,2.006e+08,159.95,0,2.006e+08,57.586,12983,12171,1,12171,1,0.00030096,-2.5491e-09,0,0.00030096,-5.623e-05,1.0324e+08,-748.77,0,1.0324e+08,9.9406,12170,11369,1,11369,1,5.0995e-06,-4.4088e-09,0,5.0995e-06,-0.00011169,1.6754e+06,-1335.9,0,1.6754e+06,-127.95,11368,11756,1,11756,1,0.0001319,-3.5334e-09,0,0.0001319,-8.7916e-05,4.6571e+07,-1039.3,0,4.6571e+07,-24.399,11755,12533,1,12533,1,0.00047001,-1.2742e-09,0,0.00047001,-2.4555e-05,1.5868e+08,-363.78,0,1.5868e+08,25.141,12532,446.74,0,446.74,0,0.00018272,1.4233e-09,0,0.00018272,3.4243e-05,6.1025e+07,428.73,0,6.1025e+07,41.328,446.74,1
825,2.09,12164,1,12164,1,0.00030238,-6.7448e-10,0,0.00030238,-5.6501e-05,1.0297e+08,-199.81,0,1.0297e+08,5.6342,12163,12984,1,12984,1,0.00059965,9.586e-10,0,0.00059965,-7.9621e-07,2.0155e+08,302.84,0,2.0155e+08,112.44,12983,12171,1,12171,1,0.00030238,-4.6079e-10,0,0.00030238,-5.6496e-05,1.0373e+08,-132.78,0,1.0373e+08,0.95475,12170,11369,1,11369,1,5.1236e-06,-2.923e-09,0,5.1236e-06,-0.00011222,1.6833e+06,-893.25,0,1.6833e+06,-35.082,11368,11756,1,11756,1,0.00013252,-1.2921e-09,0,0.00013252,-8.8333e-05,4.6791e+07,-384.41,0,4.6791e+07,-11.4,11755,12533,1,12533,1,0.00047224,2.3732e-11,0,0.00047224,-2.4671e-05,1.5944e+08,6.9097,0,1.5944e+08,18.469,12532,446.74,0,446.74,0,0.00018358,9.0085e-10,0,0.00018358,3.4405e-05,6.1314e+07,269.2,0,6.1314e+07,23.111,446.74,1
825,2.1,12164,1,12164,1,0.00030382,-2.8846e-09,0,0.00030382,-5.677e-05,1.0346e+08,-854.68,0,1.0346e+08,7.2928,12163,12984,1,12984,1,0.00060252,1.444e-09,0,0.00060252,-7.9973e-07,2.0252e+08,408.82,0,2.0252e+08,211,12983,12171,1,12171,1,0.00030382,-2.7223e-09,0,0.00030382,-5.6765e-05,1.0422e+08,-792.14,0,1.0422e+08,15.191,12170,11369,1,11369,1,5.1478e-06,-7.5166e-09,0,5.1478e-06,-0.00011276,1.6913e+06,-2375,0,1.6913e+06,-321.42,11368,11756,1,11756,1,0.00013315,-5.0484e-09,0,0.00013315,-8.8752e-05,4.7014e+07,-1486,0,4.7014e+07,-28.086,11755,12533,1,12533,1,0.00047448,-7.9663e-10,0,0.00047448,-2.4789e-05,1.6019e+08,-226.94,0,1.6019e+08,48.411,12532,446.74,0,446.74,0,0.00018446,2.4568e-09,0,0.00018446,3.4569e-05,6.1606e+07,736.01,0,6.1606e+07,73.682,446.74,1
825,2.11,12164,1,12164,1,0.00030527,-2.2677e-09,0,0.00030527,-5.7041e-05,1.0396e+08,-671.98,0,1.0396e+08,-8.0095,12163,12984,1,12984,1,0.00060539,1.2422e-09,0,0.00060539,-8.0388e-07,2.0348e+08,351.69,0,2.0348e+08,134.35,12983,12171,1,12171,1,0.00030527,-1.9145e-09,0,0.00030527,-5.7036e-05,1.0472e+08,-556.7,0,1.0472e+08,2.3714,12170,11369,1,11369,1,5.1731e-06,-6.6098e-09,0,5.1731e-06,-0.00011329,1.6996e+06,-2088.5,0,1.6996e+06,-353.85,11368,11756,1,11756,1,0.00013379,-4.069e-09,0,0.00013379,-8.9175e-05,4.7238e+07,-1192.7,0,4.7238e+07,-38.388,11755,12533,1,12533,1,0.00047675,-3.6319e-10,0,0.00047675,-2.4907e-05,1.6096e+08,-104.99,0,1.6096e+08,28.286,12532,446.74,0,446.74,0,0.00018534,2.1381e-09,0,0.00018534,3.4734e-05,6.1899e+07,640,0,6.1899e+07,62.458,446.74,1
825,2.12,12164,1,12164,1,0.00030672,-1.7692e-09,0,0.00030672,-5.7312e-05,1.0445e+08,-523.95,0,1.0445e+08,4.064,12163,12984,1,12984,1,0.00060826,6.4588e-10,0,0.00060826,-8.0773e-07,2.0444e+08,182.86,0,2.0444e+08,141.49,12983,12171,1,12171,1,0.00030672,-1.7595e-09,0,0.00030672,-5.7307e-05,1.0522e+08,-513.93,0,1.0522e+08,1.207,12170,11369,1,11369,1,5.1978e-06,-4.2832e-09,0,5.1978e-06,-0.00011383,1.7077e+06,-1353.4,0,1.7077e+06,-102.88,11368,11756,1,11756,1,0.00013442,-2.8006e-09,0,0.00013442,-8.96e-05,4.7463e+07,-829.49,0,4.7463e+07,-11.828,11755,12533,1,12533,1,0.00047902,-7.1797e-10,0,0.00047902,-2.5025e-05,1.6172e+08,-204.22,0,1.6172e+08,18.201,12532,446.74,0,446.74,0,0.00018622,1.2881e-09,0,0.00018622,3.4899e-05,6.2194e+07,387.08,0,6.2194e+07,32.138,446.74,1
825,2.13,12164,1,12164,1,0.00030817,-2.2916e-09,0,0.00030817,-5.7582e-05,1.0494e+08,-679.07,0,1.0494e+08,0.6118,12163,12984,1,12984,1,0.00061114,1.4049e-09,0,0.00061114,-8.1157e-07,2.0541e+08,443.43,0,2.0541e+08,159.41,12983,12171,1,12171,1,0.00030817,-2.0513e-09,0,0.00030817,-5.7577e-05,1.0571e+08,-593.72,0,1.0571e+08,6.2231,12170,11369,1,11369,1,5.2228e-06,-6.5879e-09,0,5.2228e-06,-0.00011437,1.716e+06,-2003.9,0,1.716e+06,-162.25,11368,11756,1,11756,1,0.00013506,-4.2521e-09,0,0.00013506,-9.0021e-05,4.7687e+07,-1255.7,0,4.7687e+07,-29.897,11755,12533,1,12533,1,0.00048127,-2.7512e-10,0,0.00048127,-2.5143e-05,1.6248e+08,-82.493,0,1.6248e+08,34.646,12532,446.74,0,446.74,0,0.00018709,2.2374e-09,0,0.00018709,3.5064e-05,6.2486e+07,668.69,0,6.2486e+07,64.543,446.74,1
825,2.14,12164,1,12164,1,0.00030962,1.7848e-09,0,0.00030962,-5.7854e-05,1.0544e+08,528.04,0,1.0544e+08,-4.441,12163,12984,1,12984,1,0.00061401,5.0245e-09,0,0.00061401,-8.1496e-07,2.0637e+08,1587.5,0,2.0637e+08,308.2,12983,12171,1,12171,1,0.00030962,1.4988e-09,0,0.00030962,-5.7849e-05,1.0621e+08,436.82,0,1.0621e+08,-18.599,12170,11369,1,11369,1,5.2473e-06,-1.6043e-09,0,5.2473e-06,-0.00011491,1.724e+06,-507.61,0,1.724e+06,-117.28,11368,11756,1,11756,1,0.00013569,1.8233e-10,0,0.00013569,-9.0447e-05,4.7912e+07,53.018,0,4.7912e+07,-45.4,11755,12533,1,12533,1,0.00048354,3.3484e-09,0,0.00048354,-2.5262e-05,1.6325e+08,982.02,0,1.6325e+08,22.845,12532,446.74,0,446.74,0,0.00018798,1.726e-09,0,0.00018798,3.5229e-05,6.2781e+07,516.27,0,6.2781e+07,64.281,446.74,1
825,2.15,12164,1,12164,1,0.00031105,-3.2993e-09,0,0.00031105,-5.8121e-05,1.0593e+08,-977.66,0,1.0593e+08,-2.4445,12163,12984,1,12984,1,0.00061687,2.0619e-09,0,0.00061687,-8.1907e-07,2.0733e+08,593.79,0,2.0733e+08,204.6,12983,12171,1,12171,1,0.00031105,-2.6551e-09,0,0.00031105,-5.8116e-05,1.067e+08,-773.44,0,1.067e+08,-4.7423,12170,11369,1,11369,1,5.2717e-06,-1.0474e-08,0,5.2717e-06,-0.00011544,1.732e+06,-3185.9,0,1.732e+06,-183.96,11368,11756,1,11756,1,0.00013632,-6.1384e-09,0,0.00013632,-9.0864e-05,4.8133e+07,-1814.9,0,4.8133e+07,-42.222,11755,12533,1,12533,1,0.00048577,-1.4964e-10,0,0.00048577,-2.5379e-05,1.64e+08,-42.405,0,1.64e+08,45.69,12532,446.74,0,446.74,0,0.00018885,3.4892e-09,0,0.00018885,3.5392e-05,6.3071e+07,1042.4,0,6.3071e+07,76.426,446.74,1
825,2.16,12164,1,12164,1,0.0003125,-1.6526e-09,0,0.0003125,-5.8392e-05,1.0642e+08,-490.36,0,1.0642e+08,-10.418,12163,12984,1,12984,1,0.00061973,2.8925e-09,0,0.00061973,-8.2303e-07,2.0829e+08,879.96,0,2.0829e+08,181.85,12983,12171,1,12171,1,0.0003125,-1.168e-09,0,0.0003125,-5.8387e-05,1.072e+08,-337.78,0,1.072e+08,-9.5567,12170,11369,1,11369,1,5.2968e-06,-6.5009e-09,0,5.2968e-06,-0.00011598,1.7403e+06,-1977.5,0,1.7403e+06,-159.31,11368,11756,1,11756,1,0.00013696,-3.5474e-09,0,0.00013696,-9.1288e-05,4.8357e+07,-1039.7,0,4.8357e+07,-44.604,11755,12533,1,12533,1,0.00048804,2.3304e-10,0,0.00048804,-2.5497e-05,1.6477e+08,66.187,0,1.6477e+08,25.019,12532,446.74,0,446.74,0,0.00018973,2.4098e-09,0,0.00018973,3.5557e-05,6.3365e+07,718.19,0,6.3365e+07,61.084,446.74,1
825,2.17,12164,1,12164,1,0.00031396,-1.3827e-09,0,0.00031396,-5.8664e-05,1.0692e+08,-410.11,0,1.0692e+08,5.4277,12163,12984,1,12984,1,0.00062261,9.7553e-10,0,0.00062261,-8.2686e-07,2.0926e+08,308.01,0,2.0926e+08,204.53,12983,12171,1,12171,1,0.00031396,-1.2599e-09,0,0.00031396,-5.8659e-05,1.077e+08,-365.57,0,1.077e+08,3.4872,12170,11369,1,11369,1,5.322e-06,-3.9714e-09,0,5.322e-06,-0.00011652,1.7486e+06,-1254.9,0,1.7486e+06,-90.148,11368,11756,1,11756,1,0.0001376,-2.5391e-09,0,0.0001376,-9.1714e-05,4.8583e+07,-755.08,0,4.8583e+07,-15.38,11755,12533,1,12533,1,0.00049032,-2.1831e-10,0,0.00049032,-2.5616e-05,1.6554e+08,-62.323,0,1.6554e+08,23.629,12532,446.74,0,446.74,0,0.00019061,1.3332e-09,0,0.00019061,3.5723e-05,6.366e+07,398.55,0,6.366e+07,38.38,446.74,1
825,2.18,12164,1,12164,1,0.0003154,-2.3494e-09,0,0.0003154,-5.8934e-05,1.0741e+08,-696.14,0,1.0741e+08,3.0788,12163,12984,1,12984,1,0.00062548,1.1886e-09,0,0.00062548,-8.3086e-07,2.1022e+08,336.48,0,2.1022e+08,163.23,12983,12171,1,12171,1,0.0003154,-2.2494e-09,0,0.0003154,-5.8929e-05,1.0819e+08,-666.91,0,1.0819e+08,14.349,12170,11369,1,11369,1,5.3467e-06,-6.0113e-09,0,5.3467e-06,-0.00011705,1.7568e+06,-1828.5,0,1.7568e+06,-160.95,11368,11756,1,11756,1,0.00013823,-4.2276e-09,0,0.00013823,-9.2135e-05,4.8807e+07,-1246.5,0,4.8807e+07,-28.263,11755,12533,1,12533,1,0.00049257,-6.0622e-10,0,0.00049257,-2.5734e-05,1.663e+08,-173.36,0,1.663e+08,39.586,12532,446.74,0,446.74,0,0.00019149,2.039e-09,0,0.00019149,3.5887e-05,6.3952e+07,609.87,0,6.3952e+07,61.62,446.74,1
825,2.19,12164,1,12164,1,0.00031686,-1.1715e-09,0,0.00031686,-5.9206e-05,1.079e+08,-347.13,0,1.079e+08,-3.8561,12163,12984,1,12984,1,0.00062835,6.9794e-10,0,0.00062835,-8.3495e-07,2.1119e+08,197.59,0,2.1119e+08,83.182,12983,12171,1,12171,1,0.00031686,-9.5567e-10,0,0.00031686,-5.9201e-05,1.0869e+08,-277.02,0,1.0869e+08,-5.2393,12170,11369,1,11369,1,5.3719e-06,-3.6045e-09,0,5.3719e-06,-0.00011759,1.765e+06,-1096.5,0,1.765e+06,-75.835,11368,11756,1,11756,1,0.00013887,-2.1207e-09,0,0.00013887,-9.2561e-05,4.9031e+07,-627.03,0,4.9031e+07,-17.901,11755,12533,1,12533,1,0.00049484,-1.1764e-10,0,0.00049484,-2.5852e-05,1.6707e+08,-34.182,0,1.6707e+08,11.135,12532,446.74,0,446.74,0,0.00019237,1.1767e-09,0,0.00019237,3.6052e-05,6.4247e+07,351.64,0,6.4247e+07,26.511,446.74,1
825,2.2,12164,1,12164,1,0.00031829,-2.5266e-09,0,0.00031829,-5.9473e-05,1.0839e+08,-748.65,0,1.0839e+08,-18.014,12163,12984,1,12984,1,0.0006312,1.4399e-09,0,0.0006312,-8.3853e-07,2.1214e+08,407.61,0,2.1214e+08,159.43,12983,12171,1,12171,1,0.00031828,-1.9082e-09,0,0.00031828,-5.9468e-05,1.0918e+08,-565.97,0,1.0918e+08,-27.573,12170,11369,1,11369,1,5.3959e-06,-8.0861e-09,0,5.3959e-06,-0.00011812,1.7729e+06,-2536.1,0,1.7729e+06,-222.06,11368,11756,1,11756,1,0.00013949,-4.4492e-09,0,0.00013949,-9.2977e-05,4.9253e+07,-1293.8,0,4.9253e+07,-55.122,11755,12533,1,12533,1,0.00049707,-3.1152e-10,0,0.00049707,-2.5969e-05,1.6782e+08,-91.933,0,1.6782e+08,17.077,12532,446.74,0,446.74,0,0.00019324,2.5865e-09,0,0.00019324,3.6215e-05,6.4536e+07,773.67,0,6.4536e+07,57.07,446.74,1
825,2.21,12164,1,12164,1,0.00031973,-3.2223e-09,0,0.00031973,-5.9743e-05,1.0888e+08,-954.34,0,1.0888e+08,-15.72,12163,12984,1,12984,1,0.00063408,1.4158e-09,0,0.00063408,-8.424e-07,2.1311e+08,400.79,0,2.1311e+08,189.5,12983,12171,1,12171,1,0.00031973,-2.7931e-09,0,0.00031973,-5.9738e-05,1.0968e+08,-808.24,0,1.0968e+08,-21.103,12170,11369,1,11369,1,5.4212e-06,-8.7009e-09,0,5.4212e-06,-0.00011866,1.7813e+06,-2646.6,0,1.7813e+06,-145.84,11368,11756,1,11756,1,0.00014013,-5.6272e-09,0,0.00014013,-9.34e-05,4.9477e+07,-1647.8,0,4.9477e+07,-64.805,11755,12533,1,12533,1,0.00049933,-7.7556e-10,0,0.00049933,-2.6088e-05,1.6858e+08,-234.76,0,1.6858e+08,24.953,12532,446.74,0,446.74,0,0.00019412,2.8304e-09,0,0.00019412,3.6379e-05,6.4829e+07,847.45,0,6.4829e+07,63.794,446.74,1
825,2.22,12164,1,12164,1,0.00032119,-9.4963e-10,0,0.00032119,-6.0015e-05,1.0938e+08,-281.21,0,1.0938e+08,-5.4034,12163,12984,1,12984,1,0.00063694,1.8415e-09,0,0.00063694,-8.4654e-07,2.1407e+08,581.61,0,2.1407e+08,91.989,12983,12171,1,12171,1,0.00032119,-5.3292e-10,0,0.00032119,-6.001e-05,1.1018e+08,-156.5,0,1.1018e+08,-9.8083,12170,11369,1,11369,1,5.4463e-06,-4.5411e-09,0,5.4463e-06,-0.0001192,1.7895e+06,-1381.3,0,1.7895e+06,-62.038,11368,11756,1,11756,1,0.00014077,-2.0869e-09,0,0.00014077,-9.3826e-05,4.9702e+07,-613.17,0,4.9702e+07,-31.62,11755,12533,1,12533,1,0.00050161,2.426e-10,0,0.00050161,-2.6206e-05,1.6935e+08,70.346,0,1.6935e+08,13.504,12532,446.74,0,446.74,0,0.000195,1.5951e-09,0,0.000195,3.6545e-05,6.5124e+07,475.32,0,6.5124e+07,31.02,446.74,1
825,2.23,12164,1,12164,1,0.00032263,-2.7987e-09,0,0.00032263,-6.0284e-05,1.0987e+08,-829.03,0,1.0987e+08,-14.33,12163,12984,1,12984,1,0.00063982,1.4226e-09,0,0.00063982,-8.5024e-07,2.1503e+08,402.71,0,2.1503e+08,162.8,12983,12171,1,12171,1,0.00032263,-2.2358e-09,0,0.00032263,-6.0279e-05,1.1067e+08,-653.45,0,1.1067e+08,-24.635,12170,11369,1,11369,1,5.4711e-06,-8.4764e-09,0,5.4711e-06,-0.00011974,1.7977e+06,-2578.4,0,1.7977e+06,-115.08,11368,11756,1,11756,1,0.0001414,-4.8449e-09,0,0.0001414,-9.4246e-05,4.9925e+07,-1435.4,0,4.9925e+07,-58.906,11755,12533,1,12533,1,0.00050385,-4.642e-10,0,0.00050385,-2.6324e-05,1.7011e+08,-131.72,0,1.7011e+08,22.771,12532,446.74,0,446.74,0,0.00019587,2.7164e-09,0,0.00019587,3.6709e-05,6.5416e+07,812.25,0,6.5416e+07,57.817,446.74,1
825,2.24,12164,1,12164,1,0.00032409,-1.6209e-09,0,0.00032409,-6.0558e-05,1.1036e+08,-480,0,1.1036e+08,-3.1522,12163,12984,1,12984,1,0.0006427,7.9267e-10,0,0.0006427,-8.5428e-07,2.16e+08,224.39,0,2.16e+08,115.08,12983,12171,1,12171,1,0.00032409,-1.3226e-09,0,0.00032409,-6.0553e-05,1.1117e+08,-381.93,0,1.1117e+08,-10.203,12170,11369,1,11369,1,5.4964e-06,-4.8453e-09,0,5.4964e-06,-0.00012028,1.8061e+06,-1473.9,0,1.8061e+06,-88.142,11368,11756,1,11756,1,0.00014204,-2.9303e-09,0,0.00014204,-9.4674e-05,5.0151e+07,-865.71,0,5.0151e+07,-30.09,11755,12533,1,12533,1,0.00050614,-1.4855e-10,0,0.00050614,-2.6443e-05,1.7088e+08,-42.31,0,1.7088e+08,18.527,12532,446.74,0,446.74,0,0.00019676,1.5983e-09,0,0.00019676,3.6875e-05,6.5712e+07,477.98,0,6.5712e+07,37.201,446.74,1
825,2.25,12164,1,12164,1,0.00032553,-1.3393e-09,0,0.00032553,-6.0827e-05,1.1086e+08,-396.82,0,1.1086e+08,-8.1421,12163,12984,1,12984,1,0.00064556,1.2059e-09,0,0.00064556,-8.583e-07,2.1696e+08,366.76,0,2.1696e+08,78.011,12983,12171,1,12171,1,0.00032553,-8.3503e-10,0,0.00032553,-6.0822e-05,1.1167e+08,-238.47,0,1.1167e+08,-12.876,12170,11369,1,11369,1,5.5215e-06,-5.3934e-09,0,5.5215e-06,-0.00012081,1.8143e+06,-1639.9,0,1.8143e+06,-76.599,11368,11756,1,11756,1,0.00014267,-2.5648e-09,0,0.00014267,-9.5095e-05,5.0375e+07,-762.91,0,5.0375e+07,-33.203,11755,12533,1,12533,1,0.0005084,5.7817e-11,0,0.0005084,-2.6561e-05,1.7164e+08,16.36,0,1.7164e+08,17.342,12532,446.74,0,446.74,0,0.00019764,1.7751e-09,0,0.00019764,3.7039e-05,6.6004e+07,529.47,0,6.6004e+07,35.293,446.74,1
825,2.26,12164,1,12164,1,0.00032699,-1.1899e-09,0,0.00032699,-6.1099e-05,1.1135e+08,-352.54,0,1.1135e+08,-4.7302,12163,12984,1,12984,1,0.00064845,6.9848e-10,0,0.00064845,-8.6212e-07,2.1793e+08,197.73,0,2.1793e+08,127.08,12983,12171,1,12171,1,0.00032699,-1.0439e-09,0,0.00032699,-6.1094e-05,1.1217e+08,-306.27,0,1.1217e+08,-6.71,12170,11369,1,11369,1,5.5466e-06,-3.3183e-09,0,5.5466e-06,-0.00012135,1.8226e+06,-1009.4,0,1.8226e+06,-57.561,11368,11756,1,11756,1,0.00014331,-1.8267e-09,0,0.00014331,-9.552e-05,5.06e+07,-543.46,0,5.06e+07,-27.664,11755,12533,1,12533,1,0.00051067,-4.7578e-10,0,0.00051067,-2.668e-05,1.724e+08,-138.1,0,1.724e+08,11.456,12532,446.74,0,446.74,0,0.00019852,9.8306e-10,0,0.00019852,3.7205e-05,6.6299e+07,294.52,0,6.6299e+07,29.499,446.74,1
825,2.27,12164,1,12164,1,0.00032843,-2.1906e-09,0,0.00032843,-6.1368e-05,1.1184e+08,-648.5,0,1.1184e+08,-2.2945,12163,12984,1,12984,1,0.00065131,8.8093e-10,0,0.00065131,-8.6567e-07,2.1889e+08,249.37,0,2.1889e+08,287.03,12983,12171,1,12171,1,0.00032843,-1.9443e-09,0,0.00032843,-6.1363e-05,1.1266e+08,-571.06,0,1.1266e+08,-11.752,12170,11369,1,11369,1,5.572e-06,-5.5809e-09,0,5.572e-06,-0.00012189,1.831e+06,-1736.8,0,1.831e+06,-84.607,11368,11756,1,11756,1,0.00014394,-3.6171e-09,0,0.00014394,-9.5941e-05,5.0823e+07,-1056.8,0,5.0823e+07,-38.344,11755,12533,1,12533,1,0.00051292,-7.4445e-10,0,0.00051292,-2.6797e-05,1.7316e+08,-220.99,0,1.7316e+08,19.371,12532,446.74,0,446.74,0,0.00019939,1.7331e-09,0,0.00019939,3.7369e-05,6.659e+07,520.06,0,6.659e+07,52.725,446.74,1
825,2.28,12164,1,12164,1,0.00032988,-1.3486e-09,0,0.00032988,-6.1639e-05,1.1233e+08,-399.29,0,1.1233e+08,-0.29512,12163,12984,1,12984,1,0.00065417,7.0654e-10,0,0.00065417,-8.6991e-07,2.1985e+08,223.12,0,2.1985e+08,111.46,12983,12171,1,12171,1,0.00032988,-1.0621e-09,0,0.00032988,-6.1634e-05,1.1316e+08,-313.49,0,1.1316e+08,-8.1245,12170,11369,1,11369,1,5.5965e-06,-4.1895e-09,0,5.5965e-06,-0.00012242,1.8391e+06,-1274.4,0,1.8391e+06,-48.804,11368,11756,1,11756,1,0.00014458,-2.4521e-09,0,0.00014458,-9.6364e-05,5.1047e+07,-720.2,0,5.1047e+07,-25.752,11755,12533,1,12533,1,0.00051518,-8.2309e-11,0,0.00051518,-2.6915e-05,1.7392e+08,-24.51,0,1.7392e+08,18.821,12532,446.74,0,446.74,0,0.00020027,1.396e-09,0,0.00020027,3.7533e-05,6.6883e+07,417.14,0,6.6883e+07,32.721,446.74,1
825,2.29,12164,1,12164,1,0.00033131,-1.2446e-09,0,0.00033131,-6.1906e-05,1.1282e+08,-368.72,0,1.1282e+08,4.1954,12163,12984,1,12984,1,0.00065702,4.4237e-09,0,0.00065702,-8.7302e-07,2.208e+08,1397.1,0,2.208e+08,391.22,12983,12171,1,12171,1,0.00033131,-6.6374e-10,0,0.00033131,-6.1901e-05,1.1365e+08,-189.44,0,1.1365e+08,-11.225,12170,11369,1,11369,1,5.6212e-06,-7.034e-09,0,5.6212e-06,-0.00012296,1.8472e+06,-2139.5,0,1.8472e+06,-109.98,11368,11756,1,11756,1,0.0001452,-3.1976e-09,0,0.0001452,-9.6782e-05,5.1269e+07,-943.59,0,5.1269e+07,-49.28,11755,12533,1,12533,1,0.00051741,6.8155e-10,0,0.00051741,-2.7032e-05,1.7468e+08,196.3,0,1.7468e+08,44.607,12532,446.74,0,446.74,0,0.00020114,2.7091e-09,0,0.00020114,3.7696e-05,6.7173e+07,807.14,0,6.7173e+07,74.282,446.74,1
825,2.3,12164,1,12164,1,0.00033277,-1.3314e-09,0,0.00033277,-6.2179e-05,1.1332e+08,-394.01,0,1.1332e+08,1.7997,12163,12984,1,12984,1,0.0006599,1.6154e-09,0,0.0006599,-8.7756e-07,2.2177e+08,510.05,0,2.2177e+08,159.19,12983,12171,1,12171,1,0.00033277,-9.4959e-10,0,0.00033277,-6.2174e-05,1.1415e+08,-272.93,0,1.1415e+08,-8.6397,12170,11369,1,11369,1,5.6464e-06,-5.0039e-09,0,5.6464e-06,-0.0001235,1.8555e+06,-1521.2,0,1.8555e+06,-53.834,11368,11756,1,11756,1,0.00014584,-2.671e-09,0,0.00014584,-9.7208e-05,5.1494e+07,-785.79,0,5.1494e+07,-27.684,11755,12533,1,12533,1,0.00051969,5.8632e-11,0,0.00051969,-2.7151e-05,1.7545e+08,16.865,0,1.7545e+08,26.056,12532,446.74,0,446.74,0,0.00020203,1.7269e-09,0,0.00020203,3.7862e-05,6.7468e+07,515.15,0,6.7468e+07,37.447,446.74,1
825,2.31,12164,1,12164,1,0.00033421,-1.373e-09,0,0.00033421,-6.2449e-05,1.1381e+08,-406.74,0,1.1381e+08,-1.2551,12163,12984,1,12984,1,0.00066277,1.7408e-09,0,0.00066277,-8.8158e-07,2.2273e+08,528.52,0,2.2273e+08,112.44,12983,12171,1,12171,1,0.00033421,-9.2939e-10,0,0.00033421,-6.2444e-05,1.1464e+08,-268.98,0,1.1464e+08,-10.274,12170,11369,1,11369,1,5.6714e-06,-5.4107e-09,0,5.6714e-06,-0.00012403,1.8637e+06,-1644.7,0,1.8637e+06,-70.496,11368,11756,1,11756,1,0.00014648,-2.8054e-09,0,0.00014648,-9.763e-05,5.1718e+07,-824.7,0,5.1718e+07,-31.319,11755,12533,1,12533,1,0.00052195,1.0533e-10,0,0.00052195,-2.7269e-05,1.7621e+08,30.043,0,1.7621e+08,25.686,12532,446.74,0,446.74,0,0.0002029,1.8822e-09,0,0.0002029,3.8026e-05,6.7761e+07,561.27,0,6.7761e+07,39.842,446.74,1
825,2.32,12164,1,12164,1,0.00033563,-1.6172e-09,0,0.00033563,-6.2714e-05,1.1429e+08,-479.58,0,1.1429e+08,-12.271,12163,12984,1,12984,1,0.00066559,9.0855e-09,0,0.00066559,-8.8426e-07,2.2368e+08,2869.9,0,2.2368e+08,585.11,12983,12171,1,12171,1,0.00033563,-7.3328e-10,0,0.00033563,-6.2708e-05,1.1513e+08,-212.13,0,1.1513e+08,-36.406,12170,11369,1,11369,1,5.6961e-06,-1.0953e-08,0,5.6961e-06,-0.00012456,1.8719e+06,-3331.7,0,1.8719e+06,-175.97,11368,11756,1,11756,1,0.0001471,-4.8111e-09,0,0.0001471,-9.8044e-05,5.1938e+07,-1399.9,0,5.1938e+07,-95.166,11755,12533,1,12533,1,0.00052416,1.4205e-09,0,0.00052416,-2.7385e-05,1.7695e+08,405.41,0,1.7695e+08,42.636,12532,446.74,0,446.74,0,0.00020376,4.4285e-09,0,0.00020376,3.8188e-05,6.8048e+07,1319.5,0,6.8048e+07,109.33,446.74,1
825,2.33,12164,1,12164,1,0.00033711,-2.1081e-09,0,0.00033711,-6.2991e-05,1.148e+08,-624.45,0,1.148e+08,-11.17,12163,12984,1,12984,1,0.00066853,1.0168e-09,0,0.00066853,-8.8944e-07,2.2466e+08,287.82,0,2.2466e+08,133.22,12983,12171,1,12171,1,0.00033711,-1.8081e-09,0,0.00033711,-6.2985e-05,1.1564e+08,-521.12,0,1.1564e+08,-12.53,12170,11369,1,11369,1,5.7221e-06,-5.9202e-09,0,5.7221e-06,-0.00012511,1.8805e+06,-1800.9,0,1.8805e+06,-116.46,11368,11756,1,11756,1,0.00014775,-3.7072e-09,0,0.00014775,-9.8477e-05,5.2167e+07,-1092.1,0,5.2167e+07,-44.309,11755,12533,1,12533,1,0.00052647,-4.1367e-10,0,0.00052647,-2.7506e-05,1.7773e+08,-122.91,0,1.7773e+08,19.138,12532,446.74,0,446.74,0,0.00020466,1.9229e-09,0,0.00020466,3.8356e-05,6.8348e+07,575.39,0,6.8348e+07,46.47,446.74,1
825,2.34,12164,1,12164,1,0.00033859,-2.5939e-09,0,0.00033859,-6.3266e-05,1.153e+08,-767.38,0,1.153e+08,-14.76,12163,12984,1,12984,1,0.00067145,6.6896e-10,0,0.00067145,-8.9348e-07,2.2564e+08,189.36,0,2.2564e+08,98.521,12983,12171,1,12171,1,0.00033859,-3.064e-09,0,0.00033859,-6.3261e-05,1.1614e+08,-894.71,0,1.1614e+08,-7.7301,12170,11369,1,11369,1,5.7475e-06,-4.5921e-09,0,5.7475e-06,-0.00012566,1.8888e+06,-1388,0,1.8888e+06,-147.72,11368,11756,1,11756,1,0.0001484,-3.8108e-09,0,0.0001484,-9.8907e-05,5.2396e+07,-1143.6,0,5.2396e+07,-48.005,11755,12533,1,12533,1,0.00052878,-1.5487e-09,0,0.00052878,-2.7626e-05,1.7851e+08,-440.48,0,1.7851e+08,22.835,12532,446.74,0,446.74,0,0.00020556,1.4997e-09,0,0.00020556,3.8524e-05,6.8646e+07,451.98,0,6.8646e+07,52.946,446.74,1
825,2.35,12164,1,12164,1,0.00034,-1.0768e-09,0,0.00034,-6.353e-05,1.1578e+08,-319.74,0,1.1578e+08,-34.45,12163,12984,1,12984,1,0.00067424,4.7985e-09,0,0.00067424,-8.9739e-07,2.2657e+08,1464.1,0,2.2657e+08,134.2,12983,12171,1,12171,1,0.00034,-5.0652e-10,0,0.00034,-6.3524e-05,1.1663e+08,-147.05,0,1.1663e+08,-45.015,12170,11369,1,11369,1,5.773e-06,-6.799e-09,0,5.773e-06,-0.00012618,1.8973e+06,-2067.1,0,1.8973e+06,-179.67,11368,11756,1,11756,1,0.00014901,-3.0711e-09,0,0.00014901,-9.9319e-05,5.2614e+07,-907.58,0,5.2614e+07,-80.097,11755,12533,1,12533,1,0.00053098,8.3161e-10,0,0.00053098,-2.7742e-05,1.7925e+08,236.49,0,1.7925e+08,8.1413,12532,446.74,0,446.74,0,0.00020641,2.7778e-09,0,0.00020641,3.8684e-05,6.893e+07,826.91,0,6.893e+07,60.74,446.74,1
825,2.36,12164,1,12164,1,0.00034145,-2.4743e-09,0,0.00034145,-6.38e-05,1.1627e+08,-733.46,0,1.1627e+08,-33.201,12163,12984,1,12984,1,0.00067712,3.0424e-09,0,0.00067712,-9.0146e-07,2.2753e+08,923.72,0,2.2753e+08,161.33,12983,12171,1,12171,1,0.00034144,-1.7903e-09,0,0.00034144,-6.3795e-05,1.1712e+08,-527.29,0,1.1712e+08,-42.572,12170,11369,1,11369,1,5.7994e-06,-8.8035e-09,0,5.7994e-06,-0.00012672,1.9061e+06,-2677.9,0,1.9061e+06,-181.45,11368,11756,1,11756,1,0.00014965,-4.931e-09,0,0.00014965,-9.9742e-05,5.2839e+07,-1466.7,0,5.2839e+07,-86.994,11755,12533,1,12533,1,0.00053324,1.5183e-10,0,0.00053324,-2.786e-05,1.8001e+08,42.98,0,1.8001e+08,14.926,12532,446.74,0,446.74,0,0.00020729,3.1475e-09,0,0.00020729,3.8849e-05,6.9222e+07,938.88,0,6.9222e+07,71.729,446.74,1
825,2.37,12164,1,12164,1,0.00034289,-3.5675e-09,0,0.00034289,-6.4069e-05,1.1676e+08,-1056.9,0,1.1676e+08,-41.765,12163,12984,1,12984,1,0.00067999,4.0473e-09,0,0.00067999,-9.0545e-07,2.2848e+08,1248.6,0,2.2848e+08,226.89,12983,12171,1,12171,1,0.00034288,-2.7135e-09,0,0.00034288,-6.4064e-05,1.1762e+08,-804.65,0,1.1762e+08,-52.557,12170,11369,1,11369,1,5.8258e-06,-1.2111e-08,0,5.8258e-06,-0.00012725,1.9149e+06,-3683.9,0,1.9149e+06,-225.36,11368,11756,1,11756,1,0.00015028,-7.0718e-09,0,0.00015028,-0.00010016,5.3062e+07,-2078.4,0,5.3062e+07,-108.96,11755,12533,1,12533,1,0.00053548,6.7437e-11,0,0.00053548,-2.7978e-05,1.8077e+08,19.381,0,1.8077e+08,16.354,12532,446.74,0,446.74,0,0.00020816,4.305e-09,0,0.00020816,3.9012e-05,6.9511e+07,1285,0,6.9511e+07,91.169,446.74,1
825,2.38,12164,1,12164,1,0.00034433,-1.8653e-09,0,0.00034433,-6.4338e-05,1.1725e+08,-553.45,0,1.1725e+08,-51.517,12163,12984,1,12984,1,0.00068283,7.1591e-09,0,0.00068283,-9.0967e-07,2.2942e+08,2215.1,0,2.2942e+08,173.27,12983,12171,1,12171,1,0.00034432,-8.6577e-10,0,0.00034432,-6.4333e-05,1.1811e+08,-253.8,0,1.1811e+08,-68.778,12170,11369,1,11369,1,5.8518e-06,-1.1582e-08,0,5.8518e-06,-0.00012779,1.9235e+06,-3523,0,1.9235e+06,-187.81,11368,11756,1,11756,1,0.00015091,-5.1198e-09,0,0.00015091,-0.00010058,5.3285e+07,-1478.3,0,5.3285e+07,-116.96,11755,12533,1,12533,1,0.00053773,1.2675e-09,0,0.00053773,-2.8095e-05,1.8153e+08,363.19,0,1.8153e+08,9.2719,12532,446.74,0,446.74,0,0.00020904,4.5308e-09,0,0.00020904,3.9176e-05,6.9801e+07,1348.6,0,6.9801e+07,82.2,446.74,1
825,2.39,12164,1,12164,1,0.0003458,-2.045e-09,0,0.0003458,-6.4614e-05,1.1775e+08,-606.22,0,1.1775e+08,-18.416,12163,12984,1,12984,1,0.00068575,2.0306e-09,0,0.00068575,-9.1406e-07,2.3039e+08,631.65,0,2.3039e+08,148.97,12983,12171,1,12171,1,0.0003458,-1.5401e-09,0,0.0003458,-6.4609e-05,1.1862e+08,-450.42,0,1.1862e+08,-23.648,12170,11369,1,11369,1,5.8793e-06,-6.9864e-09,0,5.8793e-06,-0.00012833,1.9327e+06,-2125.2,0,1.9327e+06,-123.98,11368,11756,1,11756,1,0.00015156,-4.012e-09,0,0.00015156,-0.00010101,5.3514e+07,-1174.9,0,5.3514e+07,-61.368,11755,12533,1,12533,1,0.00054004,9.1754e-11,0,0.00054004,-2.8216e-05,1.823e+08,26.663,0,1.823e+08,18.785,12532,446.74,0,446.74,0,0.00020993,2.4357e-09,0,0.00020993,3.9343e-05,7.0097e+07,727.04,0,7.0097e+07,58.184,446.74,1
825,2.4,12164,1,12164,1,0.00034725,-2.841e-09,0,0.00034725,-6.4885e-05,1.1824e+08,-842.02,0,1.1824e+08,-18.31,12163,12984,1,12984,1,0.00068862,1.5881e-09,0,0.00068862,-9.1814e-07,2.3134e+08,449.4,0,2.3134e+08,181.41,12983,12171,1,12171,1,0.00034725,-2.2035e-09,0,0.00034725,-6.4879e-05,1.1911e+08,-642.47,0,1.1911e+08,-28.599,12170,11369,1,11369,1,5.9058e-06,-8.8525e-09,0,5.9058e-06,-0.00012887,1.9415e+06,-2692.8,0,1.9415e+06,-134.58,11368,11756,1,11756,1,0.0001522,-5.1346e-09,0,0.0001522,-0.00010144,5.3738e+07,-1509.6,0,5.3738e+07,-63.495,11755,12533,1,12533,1,0.00054229,-2.7446e-10,0,0.00054229,-2.8334e-05,1.8307e+08,-77.888,0,1.8307e+08,16.945,12532,446.74,0,446.74,0,0.00021081,2.8966e-09,0,0.00021081,3.9508e-05,7.0388e+07,865.61,0,7.0388e+07,63.816,446.74,1
825,2.41,12164,1,12164,1,0.00034871,-1.4979e-09,0,0.00034871,-6.5157e-05,1.1873e+08,-444.04,0,1.1873e+08,-11.664,12163,12984,1,12984,1,0.0006915,1.5829e-09,0,0.0006915,-9.2255e-07,2.323e+08,499.7,0,2.323e+08,122.35,12983,12171,1,12171,1,0.00034871,-9.4269e-10,0,0.00034871,-6.5152e-05,1.1961e+08,-275.93,0,1.1961e+08,-17.244,12170,11369,1,11369,1,5.9328e-06,-5.6577e-09,0,5.9328e-06,-0.00012941,1.9505e+06,-1721,0,1.9505e+06,-97.451,11368,11756,1,11756,1,0.00015284,-2.9496e-09,0,0.00015284,-0.00010186,5.3964e+07,-875.12,0,5.3964e+07,-46.218,11755,12533,1,12533,1,0.00054457,1.0065e-10,0,0.00054457,-2.8454e-05,1.8384e+08,29.039,0,1.8384e+08,19.312,12532,446.74,0,446.74,0,0.00021169,1.9361e-09,0,0.00021169,3.9674e-05,7.0682e+07,577.74,0,7.0682e+07,47.997,446.74,1
825,2.42,12164,1,12164,1,0.00035016,-1.6043e-09,0,0.00035016,-6.5428e-05,1.1923e+08,-475.67,0,1.1923e+08,-17.391,12163,12984,1,12984,1,0.00069438,2.1019e-09,0,0.00069438,-9.2669e-07,2.3325e+08,642.83,0,2.3325e+08,131.72,12983,12171,1,12171,1,0.00035016,-1.0972e-09,0,0.00035016,-6.5423e-05,1.2011e+08,-318.03,0,1.2011e+08,-24.514,12170,11369,1,11369,1,5.9594e-06,-5.9442e-09,0,5.9594e-06,-0.00012995,1.9593e+06,-1808.1,0,1.9593e+06,-102.17,11368,11756,1,11756,1,0.00015347,-3.2674e-09,0,0.00015347,-0.00010229,5.4189e+07,-963.56,0,5.4189e+07,-53.249,11755,12533,1,12533,1,0.00054684,1.3125e-10,0,0.00054684,-2.8572e-05,1.846e+08,37.492,0,1.846e+08,15.263,12532,446.74,0,446.74,0,0.00021257,2.1278e-09,0,0.00021257,3.9838e-05,7.0973e+07,634.73,0,7.0973e+07,48.135,446.74,1
825,2.43,12164,1,12164,1,0.0003516,-2.28e-09,0,0.0003516,-6.5697e-05,1.1971e+08,-675.47,0,1.1971e+08,-24.508,12163,12984,1,12984,1,0.00069723,1.0589e-09,0,0.00069723,-9.3096e-07,2.342e+08,299.61,0,2.342e+08,122.85,12983,12171,1,12171,1,0.0003516,-1.8166e-09,0,0.0003516,-6.5691e-05,1.206e+08,-532.37,0,1.206e+08,-34.575,12170,11369,1,11369,1,5.9862e-06,-7.2265e-09,0,5.9862e-06,-0.00013048,1.9683e+06,-2195.9,0,1.9683e+06,-137.83,11368,11756,1,11756,1,0.00015411,-4.0643e-09,0,0.00015411,-0.00010271,5.4412e+07,-1175.8,0,5.4412e+07,-59.748,11755,12533,1,12533,1,0.00054908,-2.2389e-10,0,0.00054908,-2.869e-05,1.8535e+08,-63.768,0,1.8535e+08,4.6148,12532,446.74,0,446.74,0,0.00021344,2.3283e-09,0,0.00021344,4.0002e-05,7.1262e+07,695.55,0,7.1262e+07,48.249,446.74,1
825,2.44,12164,1,12164,1,0.00035303,-1.0946e-09,0,0.00035303,-6.5964e-05,1.202e+08,-325.77,0,1.202e+08,-28.683,12163,12984,1,12984,1,0.00070007,5.8747e-09,0,0.00070007,-9.3491e-07,2.3514e+08,1787.1,0,2.3514e+08,158.62,12983,12171,1,12171,1,0.00035303,-3.1838e-10,0,0.00035303,-6.5959e-05,1.2109e+08,-92.582,0,1.2109e+08,-41.927,12170,11369,1,11369,1,6.012e-06,-8.4009e-09,0,6.012e-06,-0.00013101,1.9768e+06,-2551.7,0,1.9768e+06,-156.05,11368,11756,1,11756,1,0.00015473,-3.5361e-09,0,0.00015473,-0.00010312,5.4634e+07,-1024,0,5.4634e+07,-84.776,11755,12533,1,12533,1,0.00055132,1.1698e-09,0,0.00055132,-2.8807e-05,1.8611e+08,343.49,0,1.8611e+08,18.731,12532,446.74,0,446.74,0,0.00021431,3.3896e-09,0,0.00021431,4.0164e-05,7.155e+07,1008.2,0,7.155e+07,69.618,446.74,1
825,2.45,12164,1,12164,1,0.0003545,-3.5557e-09,0,0.0003545,-6.6239e-05,1.207e+08,-1053.9,0,1.207e+08,-37.03,12163,12984,1,12984,1,0.000703,4.1247e-09,0,0.000703,-9.3886e-07,2.3611e+08,1254.8,0,2.3611e+08,263.04,12983,12171,1,12171,1,0.0003545,-2.9696e-09,0,0.0003545,-6.6233e-05,1.216e+08,-862.22,0,1.216e+08,-34.877,12170,11369,1,11369,1,6.0389e-06,-1.1602e-08,0,6.0389e-06,-0.00013156,1.9858e+06,-3529,0,1.9858e+06,-282.98,11368,11756,1,11756,1,0.00015538,-7.1487e-09,0,0.00015538,-0.00010355,5.4862e+07,-2098.8,0,5.4862e+07,-112.78,11755,12533,1,12533,1,0.0005536,1.2908e-10,0,0.0005536,-2.8927e-05,1.8688e+08,36.514,0,1.8688e+08,29.695,12532,446.74,0,446.74,0,0.0002152,4.1849e-09,0,0.0002152,4.0331e-05,7.1845e+07,1249.1,0,7.1845e+07,105.4,446.74,1
825,2.46,12164,1,12164,1,0.00035595,-9.4754e-10,0,0.00035595,-6.6509e-05,1.2119e+08,-281.95,0,1.2119e+08,-33.424,12163,12984,1,12984,1,0.00070584,5.1143e-09,0,0.00070584,-9.4354e-07,2.3705e+08,1558.1,0,2.3705e+08,135.03,12983,12171,1,12171,1,0.00035595,-2.4675e-10,0,0.00035595,-6.6504e-05,1.2209e+08,-72.081,0,1.2209e+08,-46.087,12170,11369,1,11369,1,6.0663e-06,-7.4785e-09,0,6.0664e-06,-0.00013209,1.995e+06,-2273.2,0,1.995e+06,-168.78,11368,11756,1,11756,1,0.00015602,-3.0689e-09,0,0.00015602,-0.00010398,5.5086e+07,-890.77,0,5.5086e+07,-79.132,11755,12533,1,12533,1,0.00055587,1.086e-09,0,0.00055587,-2.9045e-05,1.8764e+08,310.21,0,1.8764e+08,11.575,12532,446.74,0,446.74,0,0.00021608,2.9882e-09,0,0.00021608,4.0496e-05,7.2136e+07,889.2,0,7.2136e+07,62.571,446.74,1
825,2.47,12164,1,12164,1,0.00035739,-1.7847e-09,0,0.00035739,-6.678e-05,1.2168e+08,-528.95,0,1.2168e+08,-34.847,12163,12984,1,12984,1,0.00070872,4.8553e-09,0,0.00070872,-9.4771e-07,2.38e+08,1533,0,2.38e+08,148.03,12983,12171,1,12171,1,0.00035739,-1.1987e-09,0,0.00035739,-6.6775e-05,1.2259e+08,-340.9,0,1.2259e+08,-45.414,12170,11369,1,11369,1,6.0931e-06,-8.2524e-09,0,6.0931e-06,-0.00013263,2.0039e+06,-2508.9,0,2.0039e+06,-189.14,11368,11756,1,11756,1,0.00015665,-4.2524e-09,0,0.00015665,-0.0001044,5.5311e+07,-1250.4,0,5.5311e+07,-87.772,11755,12533,1,12533,1,0.00055813,5.2606e-10,0,0.00055813,-2.9164e-05,1.8841e+08,152.02,0,1.8841e+08,13.136,12532,446.74,0,446.74,0,0.00021696,3.2208e-09,0,0.00021696,4.066e-05,7.2427e+07,959.8,0,7.2427e+07,68.835,446.74,1
825,2.48,12164,1,12164,1,0.00035885,-2.9141e-09,0,0.00035885,-6.7052e-05,1.2218e+08,-863.94,0,1.2218e+08,-25.918,12163,12984,1,12984,1,0.00071161,1.7345e-09,0,0.00071161,-9.5177e-07,2.3896e+08,490.62,0,2.3896e+08,192.19,12983,12171,1,12171,1,0.00035885,-2.2411e-09,0,0.00035885,-6.7047e-05,1.2309e+08,-656.7,0,1.2309e+08,-31.408,12170,11369,1,11369,1,6.1198e-06,-9.2185e-09,0,6.1198e-06,-0.00013317,2.0127e+06,-2804.1,0,2.0127e+06,-155.72,11368,11756,1,11756,1,0.00015729,-5.3129e-09,0,0.00015729,-0.00010482,5.5537e+07,-1577.2,0,5.5537e+07,-77.817,11755,12533,1,12533,1,0.0005604,-2.0901e-10,0,0.0005604,-2.9283e-05,1.8917e+08,-60.164,0,1.8917e+08,16.78,12532,446.74,0,446.74,0,0.00021784,3.0599e-09,0,0.00021784,4.0826e-05,7.272e+07,914.08,0,7.272e+07,68.262,446.74,1
825,2.49,12164,1,12164,1,0.0003603,-4.1046e-09,0,0.0003603,-6.7323e-05,1.2267e+08,-1216.4,0,1.2267e+08,-22.096,12163,12984,1,12984,1,0.0007145,1.8519e-09,0,0.0007145,-9.5597e-07,2.3992e+08,523.79,0,2.3992e+08,205.75,12983,12171,1,12171,1,0.0003603,-3.7036e-09,0,0.0003603,-6.7318e-05,1.2359e+08,-1094.1,0,1.2359e+08,-29.195,12170,11369,1,11369,1,6.1465e-06,-1.0644e-08,0,6.1465e-06,-0.00013371,2.0216e+06,-3237.7,0,2.0216e+06,-179.71,11368,11756,1,11756,1,0.00015793,-6.9177e-09,0,0.00015793,-0.00010525,5.5762e+07,-2025.8,0,5.5762e+07,-77.824,11755,12533,1,12533,1,0.00056266,-1.3143e-09,0,0.00056266,-2.9402e-05,1.8993e+08,-374.37,0,1.8993e+08,21.625,12532,446.74,0,446.74,0,0.00021872,3.383e-09,0,0.00021872,4.0991e-05,7.3011e+07,1013.3,0,7.3011e+07,74.053,446.74,1
825,2.5,12164,1,12164,1,0.00036174,-2.1029e-09,0,0.00036174,-6.7592e-05,1.2316e+08,-623.98,0,1.2316e+08,-39.711,12163,12984,1,12984,1,0.00071734,4.8071e-09,0,0.00071734,-9.6024e-07,2.4086e+08,1472.6,0,2.4086e+08,181.03,12983,12171,1,12171,1,0.00036174,-1.2462e-09,0,0.00036174,-6.7587e-05,1.2408e+08,-353.61,0,1.2408e+08,-56.085,12170,11369,1,11369,1,6.1733e-06,-9.9169e-09,0,6.1733e-06,-0.00013424,2.0306e+06,-3014.5,0,2.0306e+06,-159.48,11368,11756,1,11756,1,0.00015856,-4.8837e-09,0,0.00015856,-0.00010567,5.5985e+07,-1454.9,0,5.5985e+07,-101.57,11755,12533,1,12533,1,0.00056491,6.6694e-10,0,0.00056491,-2.9519e-05,1.9069e+08,189.1,0,1.9069e+08,12.785,12532,446.74,0,446.74,0,0.00021959,3.7435e-09,0,0.00021959,4.1154e-05,7.33e+07,1115.2,0,7.33e+07,75.827,446.74,1
825,2.51,12164,1,12164,1,0.00036319,-1.8602e-09,0,0.00036319,-6.7863e-05,1.2365e+08,-551.5,0,1.2365e+08,-26.807,12163,12984,1,12984,1,0.0007202,3.5946e-09,0,0.0007202,-9.6459e-07,2.418e+08,1121.6,0,2.418e+08,140.29,12983,12171,1,12171,1,0.00036319,-1.246e-09,0,0.00036319,-6.7857e-05,1.2458e+08,-355.04,0,1.2458e+08,-38.684,12170,11369,1,11369,1,6.2003e-06,-7.8441e-09,0,6.2003e-06,-0.00013478,2.0396e+06,-2384.5,0,2.0396e+06,-138.8,11368,11756,1,11756,1,0.0001592,-4.0864e-09,0,0.0001592,-0.00010609,5.6209e+07,-1200.2,0,5.6209e+07,-72.11,11755,12533,1,12533,1,0.00056718,2.99e-10,0,0.00056718,-2.9637e-05,1.9145e+08,87.716,0,1.9145e+08,12.825,12532,446.74,0,446.74,0,0.00022047,2.8871e-09,0,0.00022047,4.1319e-05,7.3591e+07,860.44,0,7.3591e+07,57.821,446.74,1
825,2.52,12164,1,12164,1,0.00036463,-2.4025e-09,0,0.00036463,-6.8132e-05,1.2414e+08,-713.22,0,1.2414e+08,-52.27,12163,12984,1,12984,1,0.00072307,7.2194e-09,0,0.00072307,-9.6855e-07,2.4275e+08,2200.2,0,2.4275e+08,228.28,12983,12171,1,12171,1,0.00036463,-1.3594e-09,0,0.00036463,-6.8126e-05,1.2507e+08,-397.39,0,1.2507e+08,-71.726,12170,11369,1,11369,1,6.2268e-06,-1.2294e-08,0,6.2268e-06,-0.00013531,2.0484e+06,-3739.5,0,2.0484e+06,-235.73,11368,11756,1,11756,1,0.00015983,-6.1065e-09,0,0.00015983,-0.00010651,5.6433e+07,-1804.9,0,5.6433e+07,-127.89,11755,12533,1,12533,1,0.00056942,1.1189e-09,0,0.00056942,-2.9755e-05,1.9221e+08,318.7,0,1.9221e+08,16.574,12532,446.74,0,446.74,0,0.00022134,4.8751e-09,0,0.00022134,4.1482e-05,7.388e+07,1451.6,0,7.388e+07,97.974,446.74,1
825,2.53,12164,1,12164,1,0.00036611,-5.242e-09,0,0.00036611,-6.8408e-05,1.2464e+08,-1553.6,0,1.2464e+08,-18.474,12163,12984,1,12984,1,0.00072601,2.367e-09,0,0.00072601,-9.7269e-07,2.4373e+08,669.35,0,2.4373e+08,298.88,12983,12171,1,12171,1,0.00036611,-5.1864e-09,0,0.00036611,-6.8402e-05,1.2558e+08,-1516.2,0,1.2558e+08,-21.463,12170,11369,1,11369,1,6.2543e-06,-1.2541e-08,0,6.2543e-06,-0.00013587,2.0576e+06,-3825.9,0,2.0576e+06,-261.13,11368,11756,1,11756,1,0.00016048,-8.6626e-09,0,0.00016048,-0.00010694,5.6663e+07,-2564.4,0,5.6663e+07,-90.54,11755,12533,1,12533,1,0.00057172,-1.9659e-09,0,0.00057172,-2.9876e-05,1.9299e+08,-559.1,0,1.9299e+08,39.047,12532,446.74,0,446.74,0,0.00022224,3.9949e-09,0,0.00022224,4.165e-05,7.4177e+07,1198.1,0,7.4177e+07,105.4,446.74,1
825,2.54,12164,1,12164,1,0.00036756,-2.3524e-09,0,0.00036756,-6.8679e-05,1.2513e+08,-697.14,0,1.2513e+08,-8.7723,12163,12984,1,12984,1,0.00072886,1.2513e-09,0,0.00072886,-9.7736e-07,2.4467e+08,353.85,0,2.4467e+08,155.76,12983,12171,1,12171,1,0.00036756,-1.9667e-09,0,0.00036756,-6.8674e-05,1.2608e+08,-568.46,0,1.2608e+08,-8.8017,12170,11369,1,11369,1,6.2818e-06,-6.6604e-09,0,6.2818e-06,-0.0001364,2.0667e+06,-2025.9,0,2.0667e+06,-124.28,11368,11756,1,11756,1,0.00016112,-4.1527e-09,0,0.00016112,-0.00010737,5.6887e+07,-1224.8,0,5.6887e+07,-49.77,11755,12533,1,12533,1,0.00057399,-5.4879e-10,0,0.00057399,-2.9995e-05,1.9375e+08,-156.26,0,1.9375e+08,26.481,12532,446.74,0,446.74,0,0.00022312,2.1604e-09,0,0.00022312,4.1815e-05,7.4468e+07,646.38,0,7.4468e+07,55.869,446.74,1
825,2.55,12164,1,12164,1,0.00036901,-1.1444e-09,0,0.00036901,-6.895e-05,1.2562e+08,-339.56,0,1.2562e+08,-15.087,12163,12984,1,12984,1,0.00073172,2.675e-09,0,0.00073172,-9.8168e-07,2.4562e+08,815.82,0,2.4562e+08,124.7,12983,12171,1,12171,1,0.00036901,-6.3739e-10,0,0.00036901,-6.8944e-05,1.2657e+08,-183.26,0,1.2657e+08,-23.302,12170,11369,1,11369,1,6.3086e-06,-5.5014e-09,0,6.3086e-06,-0.00013693,2.0757e+06,-1673.4,0,2.0757e+06,-118.15,11368,11756,1,11756,1,0.00016175,-2.7107e-09,0,0.00016175,-0.00010779,5.7111e+07,-805.35,0,5.7111e+07,-48.761,11755,12533,1,12533,1,0.00057626,3.9583e-10,0,0.00057626,-3.0113e-05,1.9452e+08,114.76,0,1.9452e+08,18.093,12532,446.74,0,446.74,0,0.000224,2.0879e-09,0,0.000224,4.1979e-05,7.4759e+07,622.11,0,7.4759e+07,47.647,446.74,1
825,2.56,12164,1,12164,1,0.00037044,-2.1209e-09,0,0.00037044,-6.9217e-05,1.2611e+08,-629.16,0,1.2611e+08,-47.871,12163,12984,1,12984,1,0.00073457,8.012e-09,0,0.00073457,-9.8563e-07,2.4656e+08,2437.3,0,2.4656e+08,217.97,12983,12171,1,12171,1,0.00037043,-1.4162e-09,0,0.00037043,-6.9211e-05,1.2706e+08,-405.29,0,1.2706e+08,-66.311,12170,11369,1,11369,1,6.3351e-06,-1.0871e-08,0,6.3351e-06,-0.00013747,2.0845e+06,-3306.8,0,2.0845e+06,-341.82,11368,11756,1,11756,1,0.00016238,-5.6865e-09,0,0.00016238,-0.00010821,5.7333e+07,-1666.5,0,5.7333e+07,-123.21,11755,12533,1,12533,1,0.00057848,1.0279e-09,0,0.00057848,-3.023e-05,1.9527e+08,298.92,0,1.9527e+08,23.197,12532,446.74,0,446.74,0,0.00022486,4.522e-09,0,0.00022486,4.2142e-05,7.5046e+07,1346.7,0,7.5046e+07,105.58,446.74,1
825,2.57,12164,1,12164,1,0.00037193,2.9854e-10,0,0.00037193,-6.9495e-05,1.2661e+08,87.849,0,1.2661e+08,-18.426,12163,12984,1,12984,1,0.00073748,1.8267e-09,0,0.00073748,-9.9231e-07,2.4748e+08,568.07,0,2.4748e+08,43.622,12983,12171,1,12171,1,0.00037193,2.4674e-10,0,0.00037193,-6.949e-05,1.2757e+08,69.934,0,1.2757e+08,-20.912,12170,11369,1,11369,1,6.3734e-06,-1.7189e-09,0,6.3734e-06,-0.00013801,2.0978e+06,-526.3,0,2.0978e+06,-62.369,11368,11756,1,11756,1,0.00016304,-1.0456e-10,0,0.00016304,-0.00010864,5.7566e+07,-30.356,0,5.7566e+07,-35.189,11755,12533,1,12533,1,0.00058081,9.0181e-10,0,0.00058081,-3.0353e-05,1.9604e+08,264.87,0,1.9604e+08,-4.0637,12532,446.74,0,446.74,0,0.00022576,7.9572e-10,0,0.00022576,4.231e-05,7.5334e+07,237.24,0,7.5334e+07,20.431,446.74,1
825,2.58,12164,1,12164,1,0.00037338,-2.373e-09,0,0.00037338,-6.9766e-05,1.2709e+08,-702.79,0,1.2709e+08,-32.35,12163,12984,1,12984,1,0.00074037,2.7628e-09,0,0.00074037,-9.9821e-07,2.484e+08,850,0,2.484e+08,142.39,12983,12171,1,12171,1,0.00037337,-2.0374e-09,0,0.00037337,-6.9761e-05,1.2807e+08,-593.85,0,1.2807e+08,-35.015,12170,11369,1,11369,1,6.411e-06,-7.672e-09,0,6.411e-06,-0.00013855,2.1109e+06,-2333.7,0,2.1109e+06,-183.9,11368,11756,1,11756,1,0.00016368,-4.6584e-09,0,0.00016368,-0.00010906,5.7794e+07,-1366.7,0,5.7794e+07,-74.655,11755,12533,1,12533,1,0.00058306,1.6056e-11,0,0.00058306,-3.0473e-05,1.9679e+08,4.8496,0,1.9679e+08,11.793,12532,446.74,0,446.74,0,0.00022663,2.7219e-09,0,0.00022663,4.2473e-05,7.5612e+07,812.26,0,7.5612e+07,67.793,446.74,1
825,2.59,12164,1,12164,1,0.00037486,-2.0094e-09,0,0.00037486,-7.0043e-05,1.2759e+08,-595.74,0,1.2759e+08,-27.517,12163,12984,1,12984,1,0.00074329,1.4281e-09,0,0.00074329,-1.0044e-06,2.4932e+08,403.56,0,2.4932e+08,132.07,12983,12171,1,12171,1,0.00037485,-1.6217e-09,0,0.00037485,-7.0037e-05,1.2858e+08,-467.72,0,1.2858e+08,-29.33,12170,11369,1,11369,1,6.4488e-06,-6.356e-09,0,6.4488e-06,-0.0001391,2.124e+06,-1933.4,0,2.124e+06,-188.98,11368,11756,1,11756,1,0.00016434,-3.7307e-09,0,0.00016434,-0.00010949,5.8025e+07,-1094,0,5.8025e+07,-59.798,11755,12533,1,12533,1,0.00058537,-1.8854e-10,0,0.00058537,-3.0595e-05,1.9756e+08,-54.284,0,1.9756e+08,8.2598,12532,446.74,0,446.74,0,0.00022752,2.1156e-09,0,0.00022752,4.264e-05,7.5896e+07,632,0,7.5896e+07,57.183,446.74,1
825,2.6,12164,1,12164,1,0.00037631,-2.6627e-09,0,0.00037631,-7.0313e-05,1.2807e+08,-789.03,0,1.2807e+08,-35.542,12163,12984,1,12984,1,0.00074615,2.1755e-09,0,0.00074615,-1.0107e-06,2.5023e+08,661.89,0,2.5023e+08,140.33,12983,12171,1,12171,1,0.0003763,-2.1667e-09,0,0.0003763,-7.0308e-05,1.2907e+08,-633.19,0,1.2907e+08,-40.048,12170,11369,1,11369,1,6.4872e-06,-8.5467e-09,0,6.4872e-06,-0.00013963,2.1374e+06,-2599.8,0,2.1374e+06,-179.4,11368,11756,1,11756,1,0.00016498,-5.0701e-09,0,0.00016498,-0.00010991,5.8252e+07,-1491.3,0,5.8252e+07,-78.2,11755,12533,1,12533,1,0.00058762,1.3372e-11,0,0.00058762,-3.0715e-05,1.9831e+08,4.0031,0,1.9831e+08,14.99,12532,446.74,0,446.74,0,0.0002284,2.925e-09,0,0.0002284,4.2803e-05,7.6174e+07,873.32,0,7.6174e+07,68.066,446.74,1
825,2.61,12164,1,12164,1,0.00037777,-2.161e-09,0,0.00037777,-7.0588e-05,1.2856e+08,-639.94,0,1.2856e+08,-21.156,12163,12984,1,12984,1,0.00074905,1.646e-09,0,0.00074905,-1.0169e-06,2.5114e+08,507.73,0,2.5114e+08,108.01,12983,12171,1,12171,1,0.00037777,-1.735e-09,0,0.00037777,-7.0582e-05,1.2958e+08,-502.95,0,1.2958e+08,-26.322,12170,11369,1,11369,1,6.525e-06,-6.9097e-09,0,6.525e-06,-0.00014017,2.1505e+06,-2101.8,0,2.1505e+06,-122.56,11368,11756,1,11756,1,0.00016563,-3.9821e-09,0,0.00016563,-0.00011034,5.8482e+07,-1175,0,5.8482e+07,-54.247,11755,12533,1,12533,1,0.00058991,-9.519e-11,0,0.00058991,-3.0836e-05,1.9907e+08,-27.987,0,1.9907e+08,16.328,12532,446.74,0,446.74,0,0.00022928,2.3169e-09,0,0.00022928,4.2969e-05,7.6456e+07,692.17,0,7.6456e+07,50.491,446.74,1
825,2.62,12164,1,12164,1,0.00037924,-3.442e-09,0,0.00037924,-7.0862e-05,1.2905e+08,-1019.4,0,1.2905e+08,-34.376,12163,12984,1,12984,1,0.00075196,1.5504e-09,0,0.00075196,-1.0231e-06,2.5206e+08,437.81,0,2.5206e+08,163.11,12983,12171,1,12171,1,0.00037924,-3.3762e-09,0,0.00037924,-7.0857e-05,1.3008e+08,-984.71,0,1.3008e+08,-27.007,12170,11369,1,11369,1,6.5637e-06,-8.546e-09,0,6.5637e-06,-0.00014072,2.164e+06,-2599.4,0,2.164e+06,-217.38,11368,11756,1,11756,1,0.00016629,-5.69e-09,0,0.00016629,-0.00011077,5.8713e+07,-1684.4,0,5.8713e+07,-79.777,11755,12533,1,12533,1,0.00059219,-1.1778e-09,0,0.00059219,-3.0958e-05,1.9984e+08,-336.88,0,1.9984e+08,11.289,12532,446.74,0,446.74,0,0.00023016,2.7078e-09,0,0.00023016,4.3134e-05,7.6738e+07,810.77,0,7.6738e+07,72.14,446.74,1
825,2.63,12164,1,12164,1,0.0003807,-2.1807e-09,0,0.0003807,-7.1134e-05,1.2954e+08,-646.43,0,1.2954e+08,-37.763,12163,12984,1,12984,1,0.00075482,3.3764e-09,0,0.00075482,-1.0295e-06,2.5297e+08,1038.1,0,2.5297e+08,145.25,12983,12171,1,12171,1,0.00038069,-1.4158e-09,0,0.00038069,-7.1128e-05,1.3058e+08,-414.08,0,1.3058e+08,-50.122,12170,11369,1,11369,1,6.6022e-06,-8.6484e-09,0,6.6022e-06,-0.00014125,2.1774e+06,-2630.6,0,2.1774e+06,-165.4,11368,11756,1,11756,1,0.00016693,-4.6119e-09,0,0.00016693,-0.00011119,5.894e+07,-1340.3,0,5.894e+07,-84.182,11755,12533,1,12533,1,0.00059446,2.706e-10,0,0.00059446,-3.1078e-05,2.0059e+08,77.475,0,2.0059e+08,12.313,12532,446.74,0,446.74,0,0.00023104,3.1099e-09,0,0.00023104,4.3298e-05,7.7016e+07,927.24,0,7.7016e+07,67.875,446.74,1
825,2.64,12164,1,12164,1,0.00038219,-3.1678e-09,0,0.00038219,-7.1413e-05,1.3004e+08,-937.41,0,1.3004e+08,-21.933,12163,12984,1,12984,1,0.00075777,8.5887e-10,0,0.00075777,-1.0361e-06,2.539e+08,242.47,0,2.539e+08,86.992,12983,12171,1,12171,1,0.00038219,-3.842e-09,0,0.00038219,-7.1408e-05,1.3109e+08,-1107.6,0,1.3109e+08,-13.09,12170,11369,1,11369,1,6.6416e-06,-5.2363e-09,0,6.6416e-06,-0.00014181,2.1911e+06,-1582.5,0,2.1911e+06,-154.81,11368,11756,1,11756,1,0.0001676,-4.7609e-09,0,0.0001676,-0.00011163,5.9174e+07,-1432,0,5.9174e+07,-54.29,11755,12533,1,12533,1,0.00059679,-1.7958e-09,0,0.00059679,-3.1201e-05,2.0137e+08,-510.48,0,2.0137e+08,16.575,12532,446.74,0,446.74,0,0.00023194,1.8524e-09,0,0.00023194,4.3467e-05,7.7303e+07,557.92,0,7.7303e+07,49.917,446.74,1
825,2.65,12164,1,12164,1,0.00038365,-1.0736e-09,0,0.00038365,-7.1685e-05,1.3052e+08,-318.32,0,1.3052e+08,-16.133,12163,12984,1,12984,1,0.00076063,1.0544e-09,0,0.00076063,-1.0425e-06,2.548e+08,326.35,0,2.548e+08,60.532,12983,12171,1,12171,1,0.00038365,-8.3197e-10,0,0.00038365,-7.168e-05,1.3159e+08,-240.18,0,1.3159e+08,-18.521,12170,11369,1,11369,1,6.6806e-06,-3.7288e-09,0,6.6806e-06,-0.00014234,2.2047e+06,-1134.9,0,2.2047e+06,-91.228,11368,11756,1,11756,1,0.00016824,-2.0749e-09,0,0.00016824,-0.00011205,5.9402e+07,-612.98,0,5.9402e+07,-34.247,11755,12533,1,12533,1,0.00059906,4.9616e-11,0,0.00059906,-3.1321e-05,2.0212e+08,14.285,0,2.0212e+08,4.3784,12532,446.74,0,446.74,0,0.00023281,1.2811e-09,0,0.00023281,4.363e-05,7.7581e+07,382.49,0,7.7581e+07,30.156,446.74,1
825,2.66,12164,1,12164,1,0.00038511,-2.1518e-09,0,0.00038511,-7.1958e-05,1.3101e+08,-637.63,0,1.3101e+08,-20.858,12163,12984,1,12984,1,0.00076353,1.1281e-09,0,0.00076353,-1.0487e-06,2.5571e+08,318.27,0,2.5571e+08,119.43,12983,12171,1,12171,1,0.00038511,-2.0498e-09,0,0.00038511,-7.1953e-05,1.3209e+08,-603.46,0,1.3209e+08,-12.918,12170,11369,1,11369,1,6.7192e-06,-5.709e-09,0,6.7192e-06,-0.00014288,2.2181e+06,-1736.6,0,2.2181e+06,-163.56,11368,11756,1,11756,1,0.00016889,-3.6701e-09,0,0.00016889,-0.00011248,5.9631e+07,-1076.8,0,5.9631e+07,-55.809,11755,12533,1,12533,1,0.00060133,-6.044e-10,0,0.00060133,-3.1442e-05,2.0288e+08,-171.27,0,2.0288e+08,13.583,12532,446.74,0,446.74,0,0.00023369,1.8496e-09,0,0.00023369,4.3795e-05,7.786e+07,552.98,0,7.786e+07,53.153,446.74,1
825,2.67,12164,1,12164,1,0.00038659,-2.1608e-09,0,0.00038659,-7.2234e-05,1.315e+08,-639.65,0,1.315e+08,-17.442,12163,12984,1,12984,1,0.00076644,7.3306e-10,0,0.00076644,-1.0553e-06,2.5663e+08,206.8,0,2.5663e+08,76.002,12983,12171,1,12171,1,0.00038659,-2.5688e-09,0,0.00038659,-7.2229e-05,1.326e+08,-750.42,0,1.326e+08,-8.1669,12170,11369,1,11369,1,6.7586e-06,-3.8674e-09,0,6.7586e-06,-0.00014343,2.2319e+06,-1178.7,0,2.2319e+06,-129.52,11368,11756,1,11756,1,0.00016955,-3.2754e-09,0,0.00016955,-0.00011291,5.9863e+07,-979.9,0,5.9863e+07,-44.094,11755,12533,1,12533,1,0.00060363,-1.1497e-09,0,0.00060363,-3.1564e-05,2.0365e+08,-328.07,0,2.0365e+08,12.833,12532,446.74,0,446.74,0,0.00023458,1.3103e-09,0,0.00023458,4.3962e-05,7.8143e+07,394.2,0,7.8143e+07,39.538,446.74,1
825,2.68,12164,1,12164,1,0.00038803,-3.2217e-09,0,0.00038803,-7.2503e-05,1.3198e+08,-954.31,0,1.3198e+08,-36.94,12163,12984,1,12984,1,0.00076929,2.2991e-09,0,0.00076929,-1.0614e-06,2.5753e+08,699.54,0,2.5753e+08,167.2,12983,12171,1,12171,1,0.00038803,-2.7364e-09,0,0.00038803,-7.2498e-05,1.3309e+08,-792.99,0,1.3309e+08,-36.639,12170,11369,1,11369,1,6.7972e-06,-9.9987e-09,0,6.7972e-06,-0.00014396,2.2454e+06,-3050.9,0,2.2454e+06,-200.35,11368,11756,1,11756,1,0.00017018,-5.918e-09,0,0.00017018,-0.00011332,6.0088e+07,-1753.7,0,6.0088e+07,-90.475,11755,12533,1,12533,1,0.00060586,-1.4721e-10,0,0.00060586,-3.1683e-05,2.0439e+08,-41.596,0,2.0439e+08,16.892,12532,446.74,0,446.74,0,0.00023544,3.3569e-09,0,0.00023544,4.4123e-05,7.8417e+07,1002.6,0,7.8417e+07,79.939,446.74,1
825,2.69,12164,1,12164,1,0.00038951,-2.4534e-10,0,0.00038951,-7.278e-05,1.3248e+08,-73.848,0,1.3248e+08,-18.155,12163,12984,1,12984,1,0.00077219,2.691e-09,0,0.00077219,-1.0682e-06,2.5844e+08,829.19,0,2.5844e+08,61.544,12983,12171,1,12171,1,0.00038951,1.3698e-10,0,0.00038951,-7.2775e-05,1.336e+08,38.642,0,1.336e+08,-21.341,12170,11369,1,11369,1,6.8371e-06,-3.911e-09,0,6.8371e-06,-0.0001445,2.2593e+06,-1189.6,0,2.2593e+06,-83.195,11368,11756,1,11756,1,0.00017084,-1.304e-09,0,0.00017084,-0.00011376,6.032e+07,-383.73,0,6.032e+07,-45.155,11755,12533,1,12533,1,0.00060818,7.8786e-10,0,0.00060818,-3.1805e-05,2.0516e+08,226.27,0,2.0516e+08,5.921,12532,446.74,0,446.74,0,0.00023633,1.5858e-09,0,0.00023633,4.429e-05,7.87e+07,472.01,0,7.87e+07,33.666,446.74,1
825,2.7,12164,1,12164,1,0.00039099,-2.1478e-09,0,0.00039099,-7.3057e-05,1.3297e+08,-635.8,0,1.3297e+08,-9.6244,12163,12984,1,12984,1,0.00077512,8.3551e-10,0,0.00077512,-1.0745e-06,2.5936e+08,235.52,0,2.5936e+08,146.61,12983,12171,1,12171,1,0.00039099,-2.4088e-09,0,0.00039099,-7.3052e-05,1.3411e+08,-698.02,0,1.3411e+08,-3.9693,12170,11369,1,11369,1,6.8772e-06,-4.4472e-09,0,6.8772e-06,-0.00014505,2.2733e+06,-1352.7,0,2.2733e+06,-99.014,11368,11756,1,11756,1,0.0001715,-3.22e-09,0,0.0001715,-0.00011419,6.0553e+07,-948.89,0,6.0553e+07,-36.559,11755,12533,1,12533,1,0.00061048,-1.1491e-09,0,0.00061048,-3.1928e-05,2.0593e+08,-327.45,0,2.0593e+08,16.207,12532,446.74,0,446.74,0,0.00023722,1.3672e-09,0,0.00023722,4.4457e-05,7.8983e+07,410.91,0,7.8983e+07,39.683,446.74,1
825,2.71,12164,1,12164,1,0.00039245,-2.6521e-09,0,0.00039245,-7.3329e-05,1.3346e+08,-785.69,0,1.3346e+08,-19.277,12163,12984,1,12984,1,0.00077801,1.1965e-09,0,0.00077801,-1.081e-06,2.6027e+08,337.19,0,2.6027e+08,141.23,12983,12171,1,12171,1,0.00039245,-2.8924e-09,0,0.00039245,-7.3324e-05,1.3461e+08,-839.78,0,1.3461e+08,-7.123,12170,11369,1,11369,1,6.9169e-06,-5.7921e-09,0,6.9169e-06,-0.00014559,2.2871e+06,-1761.7,0,2.2871e+06,-196.6,11368,11756,1,11756,1,0.00017215,-4.3447e-09,0,0.00017215,-0.00011461,6.0781e+07,-1274.2,0,6.0781e+07,-54.957,11755,12533,1,12533,1,0.00061274,-1.1626e-09,0,0.00061274,-3.2049e-05,2.0668e+08,-330.41,0,2.0668e+08,16.379,12532,446.74,0,446.74,0,0.0002381,1.9224e-09,0,0.0002381,4.4621e-05,7.9261e+07,575.68,0,7.9261e+07,59.803,446.74,1
825,2.72,12164,1,12164,1,0.0003939,-1.9568e-09,0,0.0003939,-7.36e-05,1.3394e+08,-580.09,0,1.3394e+08,-30.171,12163,12984,1,12984,1,0.00078086,3.2729e-09,0,0.00078086,-1.0876e-06,2.6117e+08,1024.9,0,2.6117e+08,127.81,12983,12171,1,12171,1,0.0003939,-1.3419e-09,0,0.0003939,-7.3595e-05,1.351e+08,-384.48,0,1.351e+08,-41.022,12170,11369,1,11369,1,6.9566e-06,-7.648e-09,0,6.9566e-06,-0.00014613,2.301e+06,-2329.7,0,2.301e+06,-176.08,11368,11756,1,11756,1,0.00017279,-4.1534e-09,0,0.00017279,-0.00011503,6.1009e+07,-1213.8,0,6.1009e+07,-72.325,11755,12533,1,12533,1,0.000615,2.4427e-10,0,0.000615,-3.2169e-05,2.0743e+08,68.869,0,2.0743e+08,20.278,12532,446.74,0,446.74,0,0.00023897,2.8093e-09,0,0.00023897,4.4784e-05,7.9537e+07,837.55,0,7.9537e+07,65.905,446.74,1
825,2.73,12164,1,12164,1,0.0003954,-1.0195e-09,0,0.0003954,-7.388e-05,1.3444e+08,-301.87,0,1.3444e+08,-13.414,12163,12984,1,12984,1,0.0007838,3.0801e-10,0,0.0007838,-1.0944e-06,2.6209e+08,86.818,0,2.6209e+08,48.278,12983,12171,1,12171,1,0.0003954,-1.0655e-09,0,0.0003954,-7.3875e-05,1.3562e+08,-309.9,0,1.3562e+08,-10.091,12170,11369,1,11369,1,6.9972e-06,-2.2174e-09,0,6.9972e-06,-0.00014667,2.3151e+06,-674.47,0,2.3151e+06,-126.55,11368,11756,1,11756,1,0.00017346,-1.6041e-09,0,0.00017346,-0.00011547,6.1243e+07,-472.17,0,6.1243e+07,-24.433,11755,12533,1,12533,1,0.00061734,-4.7096e-10,0,0.00061734,-3.2292e-05,2.0821e+08,-137.16,0,2.0821e+08,-0.71546,12532,446.74,0,446.74,0,0.00023987,6.8712e-10,0,0.00023987,4.4953e-05,7.9822e+07,206.84,0,7.9822e+07,20.286,446.74,1
825,2.74,12164,1,12164,1,0.00039685,-2.5568e-09,0,0.00039685,-7.4152e-05,1.3493e+08,-756.95,0,1.3493e+08,-16.892,12163,12984,1,12984,1,0.00078669,9.572e-10,0,0.00078669,-1.1009e-06,2.6299e+08,269.55,0,2.6299e+08,112.82,12983,12171,1,12171,1,0.00039685,-2.7301e-09,0,0.00039685,-7.4147e-05,1.3612e+08,-794.47,0,1.3612e+08,-7.6779,12170,11369,1,11369,1,7.0375e-06,-5.4917e-09,0,7.0375e-06,-0.00014721,2.3292e+06,-1670.4,0,2.3292e+06,-186,11368,11756,1,11756,1,0.0001741,-4.0842e-09,0,0.0001741,-0.00011589,6.1472e+07,-1204.6,0,6.1472e+07,-49.792,11755,12533,1,12533,1,0.0006196,-1.1747e-09,0,0.0006196,-3.2413e-05,2.0896e+08,-339.79,0,2.0896e+08,14.74,12532,446.74,0,446.74,0,0.00024075,1.7684e-09,0,0.00024075,4.5117e-05,8.0099e+07,530.34,0,8.0099e+07,51.621,446.74,1
825,2.75,12164,1,12164,1,0.00039832,-2.0801e-09,0,0.00039832,-7.4426e-05,1.3541e+08,-615.91,0,1.3541e+08,-11.437,12163,12984,1,12984,1,0.00078958,7.8099e-10,0,0.00078958,-1.1076e-06,2.639e+08,219.91,0,2.639e+08,102.12,12983,12171,1,12171,1,0.00039832,-2.1995e-09,0,0.00039832,-7.4421e-05,1.3662e+08,-641.57,0,1.3662e+08,-7.4062,12170,11369,1,11369,1,7.0777e-06,-4.4648e-09,0,7.0777e-06,-0.00014775,2.3433e+06,-1358,0,2.3433e+06,-110.76,11368,11756,1,11756,1,0.00017475,-3.2805e-09,0,0.00017475,-0.00011632,6.1702e+07,-968.31,0,6.1702e+07,-37.032,11755,12533,1,12533,1,0.00062188,-1.0572e-09,0,0.00062188,-3.2534e-05,2.0972e+08,-302.88,0,2.0972e+08,11.727,12532,446.74,0,446.74,0,0.00024163,1.4226e-09,0,0.00024163,4.5282e-05,8.0378e+07,427.03,0,8.0378e+07,38.579,446.74,1
825,2.76,12164,1,12164,1,0.00039978,-9.6388e-10,0,0.00039978,-7.4699e-05,1.359e+08,-285.87,0,1.359e+08,-17.814,12163,12984,1,12984,1,0.00079246,6.559e-10,0,0.00079246,-1.1144e-06,2.648e+08,195.5,0,2.648e+08,62.119,12983,12171,1,12171,1,0.00039978,-7.5209e-10,0,0.00039978,-7.4695e-05,1.3712e+08,-216.63,0,1.3712e+08,-16.74,12170,11369,1,11369,1,7.1185e-06,-3.2744e-09,0,7.1185e-06,-0.00014829,2.3576e+06,-995.96,0,2.3576e+06,-90.379,11368,11756,1,11756,1,0.0001754,-1.7676e-09,0,0.0001754,-0.00011675,6.1931e+07,-524.38,0,6.1931e+07,-38.32,11755,12533,1,12533,1,0.00062416,-2.4923e-11,0,0.00062416,-3.2655e-05,2.1048e+08,-7.067,0,2.1048e+08,2.4756,12532,446.74,0,446.74,0,0.00024251,1.0748e-09,0,0.00024251,4.5446e-05,8.0656e+07,320.85,0,8.0656e+07,30.266,446.74,1
825,2.77,12164,1,12164,1,0.00040127,-1.4779e-09,0,0.00040127,-7.4978e-05,1.3639e+08,-438.29,0,1.3639e+08,-43.349,12163,12984,1,12984,1,0.00079539,9.082e-10,0,0.00079539,-1.1234e-06,2.6569e+08,255.58,0,2.6569e+08,74.722,12983,12171,1,12171,1,0.00040127,-1.218e-09,0,0.00040127,-7.4973e-05,1.3763e+08,-357.11,0,1.3763e+08,-45.46,12170,11369,1,11369,1,7.1729e-06,-4.3243e-09,0,7.1729e-06,-0.00014884,2.377e+06,-1315.3,0,2.377e+06,-126.45,11368,11756,1,11756,1,0.00017608,-2.5433e-09,0,0.00017608,-0.00011718,6.2168e+07,-751.36,0,6.2168e+07,-70.565,11755,12533,1,12533,1,0.00062647,-3.9584e-10,0,0.00062647,-3.278e-05,2.1122e+08,-112.43,0,2.1122e+08,-20.205,12532,446.74,0,446.74,0,0.00024339,1.3561e-09,0,0.00024339,4.5612e-05,8.0926e+07,405.65,0,8.0926e+07,37.663,446.74,1
825,2.78,12164,1,12164,1,0.00040277,-1.1648e-09,0,0.00040277,-7.5258e-05,1.3687e+08,-345.57,0,1.3687e+08,-19.04,12163,12984,1,12984,1,0.00079833,9.1377e-10,0,0.00079833,-1.1343e-06,2.6655e+08,257.06,0,2.6655e+08,72.535,12983,12171,1,12171,1,0.00040277,-7.2278e-10,0,0.00040277,-7.5253e-05,1.3815e+08,-212.97,0,1.3815e+08,-21.997,12170,11369,1,11369,1,7.2371e-06,-4.1372e-09,0,7.2371e-06,-0.00014939,2.4002e+06,-1258.4,0,2.4002e+06,-124.69,11368,11756,1,11756,1,0.00017675,-2.1043e-09,0,0.00017675,-0.00011761,6.2408e+07,-622,0,6.2408e+07,-35.026,11755,12533,1,12533,1,0.00062879,-6.3483e-11,0,0.00062879,-3.2907e-05,2.1194e+08,-18.777,0,2.1194e+08,0.49714,12532,446.74,0,446.74,0,0.00024428,1.3237e-09,0,0.00024428,4.5778e-05,8.1187e+07,395.63,0,8.1187e+07,33.771,446.74,1
825,2.79,12164,1,12164,1,0.00040428,-2.2555e-09,0,0.00040428,-7.5539e-05,1.3736e+08,-668.17,0,1.3736e+08,-38.886,12163,12984,1,12984,1,0.00080128,9.0449e-10,0,0.00080128,-1.1454e-06,2.6742e+08,254.32,0,2.6742e+08,80.203,12983,12171,1,12171,1,0.00040428,-2.5698e-09,0,0.00040428,-7.5535e-05,1.3866e+08,-749.97,0,1.3866e+08,-27.876,12170,11369,1,11369,1,7.3025e-06,-4.5957e-09,0,7.3025e-06,-0.00014994,2.4239e+06,-1402,0,2.4239e+06,-166.64,11368,11756,1,11756,1,0.00017744,-3.4396e-09,0,0.00017744,-0.00011805,6.2649e+07,-1019.9,0,6.2649e+07,-72.664,11755,12533,1,12533,1,0.00063112,-1.1645e-09,0,0.00063112,-3.3034e-05,2.1267e+08,-330.95,0,2.1267e+08,-6.7309,12532,446.74,0,446.74,0,0.00024517,1.47e-09,0,0.00024517,4.5945e-05,8.1448e+07,441.87,0,8.1448e+07,48.467,446.74,1
825,2.8,12164,1,12164,1,0.00040576,-1.8744e-09,0,0.00040576,-7.5815e-05,1.3783e+08,-555.86,0,1.3783e+08,-26.447,12163,12984,1,12984,1,0.00080418,2.2774e-09,0,0.00080418,-1.1561e-06,2.6827e+08,697.69,0,2.6827e+08,115.22,12983,12171,1,12171,1,0.00040576,-1.3768e-09,0,0.00040576,-7.5812e-05,1.3917e+08,-392.91,0,1.3917e+08,-33.23,12170,11369,1,11369,1,7.3667e-06,-6.7939e-09,0,7.3667e-06,-0.00015048,2.4472e+06,-2066.4,0,2.4472e+06,-148.89,11368,11756,1,11756,1,0.00017811,-3.8002e-09,0,0.00017811,-0.00011847,6.2886e+07,-1116.2,0,6.2886e+07,-67.212,11755,12533,1,12533,1,0.00063341,9.4047e-11,0,0.00063341,-3.3159e-05,2.1338e+08,26.664,0,2.1338e+08,13.488,12532,446.74,0,446.74,0,0.00024604,2.4098e-09,0,0.00024604,4.6109e-05,8.1704e+07,719.24,0,8.1704e+07,56.057,446.74,1
825,2.81,12164,1,12164,1,0.00040729,-7.1708e-10,0,0.00040729,-7.6101e-05,1.3832e+08,-213.36,0,1.3832e+08,-29.481,12163,12984,1,12984,1,0.00080715,9.8402e-10,0,0.00080715,-1.1695e-06,2.6912e+08,310.49,0,2.6912e+08,40.452,12983,12171,1,12171,1,0.00040729,-4.1386e-10,0,0.00040729,-7.6098e-05,1.397e+08,-119.89,0,1.397e+08,-32.594,12170,11369,1,11369,1,7.4436e-06,-3.0446e-09,0,7.4436e-06,-0.00015104,2.4752e+06,-940.58,0,2.4752e+06,-111.98,11368,11756,1,11756,1,0.00017881,-1.4821e-09,0,0.00017881,-0.00011892,6.3133e+07,-433.76,0,6.3133e+07,-45.182,11755,12533,1,12533,1,0.00063577,8.6217e-11,0,0.00063577,-3.3289e-05,2.1411e+08,25.021,0,2.1411e+08,-10.635,12532,446.74,0,446.74,0,0.00024694,1.0352e-09,0,0.00024694,4.6277e-05,8.1961e+07,310.24,0,8.1961e+07,28.036,446.74,1
825,2.82,12164,1,12164,1,0.0004088,-2.0885e-09,0,0.0004088,-7.6383e-05,1.3879e+08,-618.78,0,1.3879e+08,-47.375,12163,12984,1,12984,1,0.0008101,1.6256e-09,0,0.0008101,-1.1833e-06,2.6996e+08,501.71,0,2.6996e+08,100.92,12983,12171,1,12171,1,0.0004088,-1.6639e-09,0,0.0004088,-7.638e-05,1.4021e+08,-479.11,0,1.4021e+08,-53.698,12170,11369,1,11369,1,7.5255e-06,-6.8193e-09,0,7.5255e-06,-0.00015159,2.5052e+06,-2092.5,0,2.5052e+06,-199.21,11368,11756,1,11756,1,0.0001795,-3.925e-09,0,0.0001795,-0.00011935,6.3379e+07,-1148.7,0,6.3379e+07,-83.053,11755,12533,1,12533,1,0.0006381,-6.7628e-11,0,0.0006381,-3.3419e-05,2.148e+08,-19.133,0,2.148e+08,-10.609,12532,446.74,0,446.74,0,0.00024782,2.2688e-09,0,0.00024782,4.6442e-05,8.2208e+07,679.42,0,8.2208e+07,55.623,446.74,1
825,2.83,12164,1,12164,1,0.00041033,-1.6304e-09,0,0.00041033,-7.6668e-05,1.3927e+08,-483.94,0,1.3927e+08,-47.555,12163,12984,1,12984,1,0.00081307,2.6973e-09,0,0.00081307,-1.1972e-06,2.7079e+08,831.93,0,2.7079e+08,107.44,12983,12171,1,12171,1,0.00041033,-1.0264e-09,0,0.00041033,-7.6665e-05,1.4074e+08,-293.46,0,1.4074e+08,-56.622,12170,11369,1,11369,1,7.6068e-06,-6.8223e-09,0,7.6068e-06,-0.00015215,2.5349e+06,-2098.7,0,2.5349e+06,-205.04,11368,11756,1,11756,1,0.0001802,-3.4454e-09,0,0.0001802,-0.00011979,6.3626e+07,-1016.2,0,6.3626e+07,-86.415,11755,12533,1,12533,1,0.00064045,1.7056e-10,0,0.00064045,-3.3549e-05,2.1551e+08,48.147,0,2.1551e+08,-2.7208,12532,446.74,0,446.74,0,0.00024872,2.3931e-09,0,0.00024872,4.6609e-05,8.2458e+07,715.74,0,8.2458e+07,62.705,446.74,1
825,2.84,12164,1,12164,1,0.00041186,-9.669e-10,0,0.00041186,-7.6954e-05,1.3976e+08,-287.82,0,1.3976e+08,-32.14,12163,12984,1,12984,1,0.00081605,1.1648e-09,0,0.00081605,-1.2115e-06,2.7164e+08,364.53,0,2.7164e+08,61.64,12983,12171,1,12171,1,0.00041186,-6.5929e-10,0,0.00041186,-7.6951e-05,1.4126e+08,-193.94,0,1.4126e+08,-30.637,12170,11369,1,11369,1,7.6899e-06,-3.7938e-09,0,7.6899e-06,-0.0001527,2.5653e+06,-1171.9,0,2.5653e+06,-157.94,11368,11756,1,11756,1,0.00018091,-1.9177e-09,0,0.00018091,-0.00012023,6.3874e+07,-568.36,0,6.3874e+07,-58.198,11755,12533,1,12533,1,0.00064281,1.035e-10,0,0.00064281,-3.368e-05,2.1622e+08,29.343,0,2.1622e+08,-5.4358,12532,446.74,0,446.74,0,0.00024961,1.275e-09,0,0.00024961,4.6776e-05,8.2708e+07,381.81,0,8.2708e+07,39.79,446.74,1
825,2.85,12164,1,12164,1,0.00041338,-1.2934e-09,0,0.00041338,-7.7237e-05,1.4023e+08,-383.95,0,1.4023e+08,-36.295,12163,12984,1,12984,1,0.000819,2.1857e-09,0,0.000819,-1.2257e-06,2.7247e+08,674.97,0,2.7247e+08,82.258,12983,12171,1,12171,1,0.00041337,-7.5293e-10,0,0.00041337,-7.7235e-05,1.4178e+08,-218.59,0,1.4178e+08,-43.422,12170,11369,1,11369,1,7.7732e-06,-5.6289e-09,0,7.7732e-06,-0.00015325,2.5958e+06,-1725.7,0,2.5958e+06,-159.4,11368,11756,1,11756,1,0.0001816,-2.7348e-09,0,0.0001816,-0.00012067,6.412e+07,-805.8,0,6.412e+07,-66.147,11755,12533,1,12533,1,0.00064514,1.9837e-10,0,0.00064514,-3.381e-05,2.1692e+08,57.677,0,2.1692e+08,-1.6119,12532,446.74,0,446.74,0,0.00025049,1.9752e-09,0,0.00025049,4.6942e-05,8.2954e+07,590.24,0,8.2954e+07,48.247,446.74,1
825,2.86,12164,1,12164,1,0.00041492,-4.3008e-11,0,0.00041492,-7.7524e-05,1.4071e+08,-13.862,0,1.4071e+08,-16.356,12163,12984,1,12984,1,0.00082198,5.9868e-10,0,0.00082198,-1.2403e-06,2.7331e+08,188.86,0,2.7331e+08,24.231,12983,12171,1,12171,1,0.00041491,1.1497e-10,0,0.00041491,-7.7522e-05,1.4231e+08,32.715,0,1.4231e+08,-17.481,12170,11369,1,11369,1,7.8573e-06,-1.2946e-09,0,7.8573e-06,-0.00015381,2.6266e+06,-406.14,0,2.6266e+06,-74.464,11368,11756,1,11756,1,0.00018231,-2.8305e-10,0,0.00018231,-0.00012111,6.437e+07,-81.765,0,6.437e+07,-26.044,11755,12533,1,12533,1,0.00064752,2.8282e-10,0,0.00064752,-3.3942e-05,2.1763e+08,80.152,0,2.1763e+08,-4.6128,12532,446.74,0,446.74,0,0.00025139,4.737e-10,0,0.00025139,4.711e-05,8.3205e+07,141.71,0,8.3205e+07,15.605,446.74,1
825,2.87,12164,1,12164,1,0.00041642,-1.3699e-09,0,0.00041642,-7.7806e-05,1.4119e+08,-406.9,0,1.4119e+08,-42.444,12163,12984,1,12984,1,0.00082493,1.8848e-09,0,0.00082493,-1.2546e-06,2.7413e+08,586.03,0,2.7413e+08,93.178,12983,12171,1,12171,1,0.00041642,-8.8816e-10,0,0.00041642,-7.7804e-05,1.4283e+08,-261.72,0,1.4283e+08,-35.862,12170,11369,1,11369,1,7.9417e-06,-5.7579e-09,0,7.9417e-06,-0.00015436,2.6576e+06,-1763.7,0,2.6576e+06,-188.5,11368,11756,1,11756,1,0.00018301,-2.7154e-09,0,0.00018301,-0.00012154,6.4616e+07,-797.97,0,6.4616e+07,-79.1,11755,12533,1,12533,1,0.00064984,1.9812e-10,0,0.00064984,-3.4072e-05,2.1833e+08,56.005,0,2.1833e+08,-1.302,12532,446.74,0,446.74,0,0.00025227,1.9301e-09,0,0.00025227,4.7274e-05,8.3449e+07,576.36,0,8.3449e+07,58.2,446.74,1
825,2.88,12164,1,12164,1,0.00041795,-2.0684e-09,0,0.00041795,-7.8091e-05,1.4167e+08,-613.2,0,1.4167e+08,-40.14,12163,12984,1,12984,1,0.0008279,1.5847e-09,0,0.0008279,-1.269e-06,2.7497e+08,495.35,0,2.7497e+08,105.34,12983,12171,1,12171,1,0.00041795,-1.7785e-09,0,0.00041795,-7.809e-05,1.4335e+08,-510.78,0,1.4335e+08,-41.155,12170,11369,1,11369,1,8.026e-06,-6.298e-09,0,8.026e-06,-0.00015492,2.6884e+06,-1933.6,0,2.6884e+06,-204.79,11368,11756,1,11756,1,0.00018371,-3.8958e-09,0,0.00018371,-0.00012198,6.4864e+07,-1148.4,0,6.4864e+07,-73.923,11755,12533,1,12533,1,0.00065219,-9.4357e-11,0,0.00065219,-3.4203e-05,2.1903e+08,-26.842,0,2.1903e+08,-4.3575,12532,446.74,0,446.74,0,0.00025316,2.1415e-09,0,0.00025316,4.7441e-05,8.3696e+07,641.52,0,8.3696e+07,57.424,446.74,1
825,2.89,12164,1,12164,1,0.00041948,-9.3111e-10,0,0.00041948,-7.8376e-05,1.4214e+08,-277,0,1.4214e+08,-32.733,12163,12984,1,12984,1,0.00083086,1.8495e-09,0,0.00083086,-1.2838e-06,2.758e+08,570.12,0,2.758e+08,75.277,12983,12171,1,12171,1,0.00041948,-4.3767e-10,0,0.00041948,-7.8375e-05,1.4387e+08,-126.79,0,1.4387e+08,-38.594,12170,11369,1,11369,1,8.112e-06,-4.501e-09,0,8.112e-06,-0.00015547,2.72e+06,-1385.4,0,2.72e+06,-138.54,11368,11756,1,11756,1,0.00018441,-2.0674e-09,0,0.00018441,-0.00012242,6.5112e+07,-611.67,0,6.5112e+07,-58.847,11755,12533,1,12533,1,0.00065454,2.1131e-10,0,0.00065454,-3.4334e-05,2.1973e+08,59.859,0,2.1973e+08,-6.5316,12532,446.74,0,446.74,0,0.00025406,1.6013e-09,0,0.00025406,4.7608e-05,8.3943e+07,478.63,0,8.3943e+07,38.088,446.74,1
825,2.9,12164,1,12164,1,0.00042101,-1.6241e-09,0,0.00042101,-7.8662e-05,1.4262e+08,-481.61,0,1.4262e+08,-29.176,12163,12984,1,12984,1,0.00083384,8.2891e-10,0,0.00083384,-1.2986e-06,2.7663e+08,231.73,0,2.7663e+08,78.707,12983,12171,1,12171,1,0.00042101,-1.3364e-09,0,0.00042101,-7.8661e-05,1.444e+08,-387.99,0,1.444e+08,-29.673,12170,11369,1,11369,1,8.1982e-06,-4.96e-09,0,8.1982e-06,-0.00015603,2.7516e+06,-1518,0,2.7516e+06,-147.38,11368,11756,1,11756,1,0.00018512,-2.9204e-09,0,0.00018512,-0.00012286,6.5361e+07,-861.05,0,6.5361e+07,-57.474,11755,12533,1,12533,1,0.0006569,-2.5029e-10,0,0.0006569,-3.4465e-05,2.2043e+08,-70.401,0,2.2043e+08,-0.21134,12532,446.74,0,446.74,0,0.00025495,1.6e-09,0,0.00025495,4.7775e-05,8.4189e+07,479.55,0,8.4189e+07,43.607,446.74,1
825,2.91,12164,1,12164,1,0.00042255,-1.3449e-09,0,0.00042255,-7.895e-05,1.431e+08,-398.34,0,1.431e+08,-18.986,12163,12984,1,12984,1,0.00083683,4.0273e-10,0,0.00083683,-1.3137e-06,2.7746e+08,112.57,0,2.7746e+08,35.387,12983,12171,1,12171,1,0.00042255,-1.3714e-09,0,0.00042255,-7.8949e-05,1.4493e+08,-399.52,0,1.4493e+08,-15.429,12170,11369,1,11369,1,8.2856e-06,-2.8627e-09,0,8.2856e-06,-0.00015658,2.7836e+06,-882.31,0,2.7836e+06,-98.93,11368,11756,1,11756,1,0.00018583,-2.1067e-09,0,0.00018583,-0.00012331,6.5612e+07,-620.56,0,6.5612e+07,-31.872,11755,12533,1,12533,1,0.00065927,-6.4064e-10,0,0.00065927,-3.4597e-05,2.2114e+08,-180.99,0,2.2114e+08,-5.2155,12532,446.74,0,446.74,0,0.00025585,8.9762e-10,0,0.00025585,4.7943e-05,8.4437e+07,271.13,0,8.4437e+07,22.553,446.74,1
825,2.92,12164,1,12164,1,0.00042404,-1.8115e-09,0,0.00042404,-7.9228e-05,1.4357e+08,-537.59,0,1.4357e+08,-54.29,12163,12984,1,12984,1,0.00083974,5.5707e-09,0,0.00083974,-1.3282e-06,2.7827e+08,1707.8,0,2.7827e+08,152.73,12983,12171,1,12171,1,0.00042404,-9.0991e-10,0,0.00042404,-7.9228e-05,1.4544e+08,-258.48,0,1.4544e+08,-65.706,12170,11369,1,11369,1,8.3724e-06,-1.0158e-08,0,8.3724e-06,-0.00015713,2.8155e+06,-3109.6,0,2.8155e+06,-242.33,11368,11756,1,11756,1,0.00018652,-4.4991e-09,0,0.00018652,-0.00012373,6.5855e+07,-1331.5,0,6.5855e+07,-113.45,11755,12533,1,12533,1,0.00066156,8.6961e-10,0,0.00066156,-3.4726e-05,2.2182e+08,245.32,0,2.2182e+08,15.407,12532,446.74,0,446.74,0,0.00025671,3.8056e-09,0,0.00025671,4.8105e-05,8.4674e+07,1135.1,0,8.4674e+07,88.694,446.74,1
825,2.93,12164,1,12164,1,0.00042559,-8.2386e-10,0,0.00042559,-7.9516e-05,1.4405e+08,-245,0,1.4405e+08,-43.046,12163,12984,1,12984,1,0.00084272,2.4334e-09,0,0.00084272,-1.3435e-06,2.791e+08,760.89,0,2.791e+08,55.538,12983,12171,1,12171,1,0.00042558,-3.9928e-10,0,0.00042558,-7.9516e-05,1.4597e+08,-116.29,0,1.4597e+08,-51.67,12170,11369,1,11369,1,8.4597e-06,-4.4241e-09,0,8.4597e-06,-0.00015769,2.8475e+06,-1371.9,0,2.8475e+06,-111.29,11368,11756,1,11756,1,0.00018723,-1.9429e-09,0,0.00018723,-0.00012418,6.6106e+07,-574.62,0,6.6106e+07,-71.022,11755,12533,1,12533,1,0.00066394,2.5648e-10,0,0.00066394,-3.4858e-05,2.2253e+08,72.619,0,2.2253e+08,-16.165,12532,446.74,0,446.74,0,0.00025761,1.6073e-09,0,0.00025761,4.8273e-05,8.4922e+07,480.98,0,8.4922e+07,38.127,446.74,1
825,2.94,12164,1,12164,1,0.00042712,-1.5991e-09,0,0.00042712,-7.9802e-05,1.4453e+08,-473.98,0,1.4453e+08,-39.225,12163,12984,1,12984,1,0.00084571,1.5987e-09,0,0.00084571,-1.3587e-06,2.7993e+08,497.36,0,2.7993e+08,77.075,12983,12171,1,12171,1,0.00042712,-1.2055e-09,0,0.00042712,-7.9803e-05,1.4649e+08,-348.75,0,1.4649e+08,-44.344,12170,11369,1,11369,1,8.5488e-06,-5.4787e-09,0,8.5488e-06,-0.00015824,2.8802e+06,-1683,0,2.8802e+06,-163.74,11368,11756,1,11756,1,0.00018794,-3.0592e-09,0,0.00018794,-0.00012462,6.6356e+07,-888.21,0,6.6356e+07,-68.27,11755,12533,1,12533,1,0.0006663,-1.1223e-11,0,0.0006663,-3.499e-05,2.2323e+08,-3.1674,0,2.2323e+08,-8.1369,12532,446.74,0,446.74,0,0.0002585,1.8416e-09,0,0.0002585,4.844e-05,8.5167e+07,551.43,0,8.5167e+07,46.31,446.74,1
825,2.95,12164,1,12164,1,0.00042865,-1.6546e-09,0,0.00042865,-8.0088e-05,1.4501e+08,-491.15,0,1.4501e+08,-26.977,12163,12984,1,12984,1,0.00084869,1.02e-09,0,0.00084869,-1.374e-06,2.8075e+08,284.34,0,2.8075e+08,84.801,12983,12171,1,12171,1,0.00042865,-1.3824e-09,0,0.00042865,-8.0089e-05,1.4702e+08,-402.38,0,1.4702e+08,-26.69,12170,11369,1,11369,1,8.6378e-06,-5.1309e-09,0,8.6378e-06,-0.0001588,2.9128e+06,-1577.8,0,2.9128e+06,-160.4,11368,11756,1,11756,1,0.00018865,-2.9923e-09,0,0.00018865,-0.00012506,6.6606e+07,-877.68,0,6.6606e+07,-53.179,11755,12533,1,12533,1,0.00066866,-2.5964e-10,0,0.00066866,-3.5122e-05,2.2393e+08,-74.569,0,2.2393e+08,2.1753,12532,446.74,0,446.74,0,0.0002594,1.657e-09,0,0.0002594,4.8607e-05,8.5411e+07,496.54,0,8.5411e+07,43.93,446.74,1
825,2.96,12164,1,12164,1,0.00043019,-8.5216e-10,0,0.00043019,-8.0375e-05,1.4548e+08,-252.58,0,1.4548e+08,-21.044,12163,12984,1,12984,1,0.00085166,3.8057e-10,0,0.00085166,-1.3897e-06,2.8157e+08,106.09,0,2.8157e+08,31.402,12983,12171,1,12171,1,0.00043019,-5.684e-10,0,0.00043019,-8.0377e-05,1.4755e+08,-164.77,0,1.4755e+08,-24.711,12170,11369,1,11369,1,8.7287e-06,-2.9685e-09,0,8.7287e-06,-0.00015935,2.9462e+06,-917.62,0,2.9462e+06,-62.426,11368,11756,1,11756,1,0.00018936,-1.5344e-09,0,0.00018936,-0.0001255,6.6857e+07,-452.86,0,6.6857e+07,-35.59,11755,12533,1,12533,1,0.00067102,-6.7049e-11,0,0.00067102,-3.5254e-05,2.2463e+08,-18.962,0,2.2463e+08,-8.3576,12532,446.74,0,446.74,0,0.00026029,9.2169e-10,0,0.00026029,4.8774e-05,8.5654e+07,276.86,0,8.5654e+07,18.828,446.74,1
825,2.97,12164,1,12164,1,0.00043173,1.4133e-09,0,0.00043173,-8.0662e-05,1.4596e+08,417.85,0,1.4596e+08,-2.9647,12163,12984,1,12984,1,0.00085465,2.8221e-09,0,0.00085465,-1.405e-06,2.824e+08,848.99,0,2.824e+08,110.32,12983,12171,1,12171,1,0.00043173,1.5145e-09,0,0.00043173,-8.0664e-05,1.4807e+08,444.69,0,1.4807e+08,-7.6857,12170,11369,1,11369,1,8.8192e-06,-5.0547e-10,0,8.8192e-06,-0.00015991,2.9794e+06,-140.67,0,2.9794e+06,-74.305,11368,11756,1,11756,1,0.00019007,6.4778e-10,0,0.00019007,-0.00012594,6.7108e+07,187.32,0,6.7108e+07,-25.768,11755,12533,1,12533,1,0.00067339,2.2318e-09,0,0.00067339,-3.5387e-05,2.2532e+08,661.05,0,2.2532e+08,16.804,12532,446.74,0,446.74,0,0.00026118,9.5034e-10,0,0.00026118,4.8941e-05,8.5898e+07,284.83,0,8.5898e+07,31.429,446.74,1
825,2.98,12164,1,12164,1,0.00043326,-1.4404e-09,0,0.00043326,-8.0948e-05,1.4644e+08,-425.76,0,1.4644e+08,-14.198,12163,12984,1,12984,1,0.00085762,5.6509e-10,0,0.00085762,-1.4208e-06,2.8321e+08,157.16,0,2.8321e+08,74.312,12983,12171,1,12171,1,0.00043326,-1.3445e-09,0,0.00043326,-8.095e-05,1.486e+08,-391.49,0,1.486e+08,-13.276,12170,11369,1,11369,1,8.9105e-06,-3.6375e-09,0,8.9105e-06,-0.00016047,3.0129e+06,-1110.5,0,3.0129e+06,-121.73,11368,11756,1,11756,1,0.00019078,-2.3531e-09,0,0.00019078,-0.00012638,6.7358e+07,-692.61,0,6.7358e+07,-28.543,11755,12533,1,12533,1,0.00067574,-5.3163e-10,0,0.00067574,-3.5519e-05,2.2602e+08,-152.52,0,2.2602e+08,6.242,12532,446.74,0,446.74,0,0.00026207,1.1133e-09,0,0.00026207,4.9108e-05,8.6139e+07,333.74,0,8.6139e+07,32.475,446.74,1
825,2.99,12164,1,12164,1,0.00043478,-1.6535e-09,0,0.00043478,-8.1231e-05,1.4691e+08,-490.53,0,1.4691e+08,-41.95,12163,12984,1,12984,1,0.00086057,1.9814e-09,0,0.00086057,-1.4364e-06,2.8402e+08,610.96,0,2.8402e+08,100.23,12983,12171,1,12171,1,0.00043478,-1.2226e-09,0,0.00043478,-8.1234e-05,1.4912e+08,-349.8,0,1.4912e+08,-47.155,12170,11369,1,11369,1,9.0017e-06,-6.1323e-09,0,9.0017e-06,-0.00016102,3.0464e+06,-1882.1,0,3.0464e+06,-160.57,11368,11756,1,11756,1,0.00019148,-3.3201e-09,0,0.00019148,-0.00012682,6.7606e+07,-974.5,0,6.7606e+07,-76.008,11755,12533,1,12533,1,0.00067807,1.291e-10,0,0.00067807,-3.565e-05,2.267e+08,36.041,0,2.267e+08,-8.1273,12532,446.74,0,446.74,0,0.00026295,2.1007e-09,0,0.00026295,4.9272e-05,8.6378e+07,627.69,0,8.6378e+07,50.106,446.74,1
825,3,12164,1,12164,1,0.0004363,-2.0106e-09,0,0.0004363,-8.1515e-05,1.4738e+08,-596.03,0,1.4738e+08,-59.582,12163,12984,1,12984,1,0.00086353,3.1577e-09,0,0.00086353,-1.4521e-06,2.8483e+08,979.09,0,2.8483e+08,109.29,12983,12171,1,12171,1,0.0004363,-1.1784e-09,0,0.0004363,-8.1518e-05,1.4964e+08,-342.35,0,1.4964e+08,-73.336,12170,11369,1,11369,1,9.0931e-06,-8.4772e-09,0,9.0931e-06,-0.00016157,3.08e+06,-2601,0,3.08e+06,-185.54,11368,11756,1,11756,1,0.00019218,-4.1276e-09,0,0.00019218,-0.00012725,6.7855e+07,-1215.6,0,6.7855e+07,-106.57,11755,12533,1,12533,1,0.00068041,2.1455e-10,0,0.00068041,-3.5781e-05,2.2739e+08,63.439,0,2.2739e+08,-11.558,12532,446.74,0,446.74,0,0.00026384,2.932e-09,0,0.00026384,4.9437e-05,8.6617e+07,875.98,0,8.6617e+07,64.764,446.74,1
825,3.01,12164,1,12164,1,0.00043785,-5.2949e-10,0,0.00043785,-8.1805e-05,1.4786e+08,-158.3,0,1.4786e+08,-31.952,12163,12984,1,12984,1,0.00086653,1.4e-09,0,0.00086653,-1.4682e-06,2.8565e+08,435.33,0,2.8565e+08,37.041,12983,12171,1,12171,1,0.00043785,-1.7948e-10,0,0.00043785,-8.1808e-05,1.5017e+08,-51.89,0,1.5017e+08,-36.529,12170,11369,1,11369,1,9.1858e-06,-2.9944e-09,0,9.1858e-06,-0.00016213,3.114e+06,-927.87,0,3.114e+06,-101.63,11368,11756,1,11756,1,0.0001929,-1.2895e-09,0,0.0001929,-0.0001277,6.8108e+07,-375.35,0,6.8108e+07,-51.443,11755,12533,1,12533,1,0.0006828,2.3851e-10,0,0.0006828,-3.5915e-05,2.281e+08,67.882,0,2.281e+08,-13.926,12532,446.74,0,446.74,0,0.00026474,1.0693e-09,0,0.00026474,4.9606e-05,8.6862e+07,319.83,0,8.6862e+07,26.801,446.74,1
825,3.02,12164,1,12164,1,0.00043938,-3.1806e-09,0,0.00043938,-8.2091e-05,1.4834e+08,-941.59,0,1.4834e+08,-36.068,12163,12984,1,12984,1,0.00086952,1.2583e-09,0,0.00086952,-1.484e-06,2.8647e+08,349.24,0,2.8647e+08,152.89,12983,12171,1,12171,1,0.00043938,-3.0181e-09,0,0.00043938,-8.2094e-05,1.507e+08,-874.88,0,1.507e+08,-35.415,12170,11369,1,11369,1,9.2796e-06,-8.1732e-09,0,9.2796e-06,-0.00016269,3.1485e+06,-2505.3,0,3.1485e+06,-230.1,11368,11756,1,11756,1,0.00019361,-5.3689e-09,0,0.00019361,-0.00012814,6.836e+07,-1576.4,0,6.836e+07,-76.726,11755,12533,1,12533,1,0.00068515,-9.9077e-10,0,0.00068515,-3.6048e-05,2.2878e+08,-279.23,0,2.2878e+08,2.8564,12532,446.74,0,446.74,0,0.00026563,2.5778e-09,0,0.00026563,4.9772e-05,8.71e+07,773.61,0,8.71e+07,65.88,446.74,1
825,3.03,12164,1,12164,1,0.00044092,-1.9626e-10,0,0.00044092,-8.2377e-05,1.4881e+08,-59.521,0,1.4881e+08,-33.948,12163,12984,1,12984,1,0.00087247,2.2964e-09,0,0.00087247,-1.5006e-06,2.8727e+08,705.86,0,2.8727e+08,55.469,12983,12171,1,12171,1,0.00044092,6.7308e-11,0,0.00044092,-8.2381e-05,1.5122e+08,18.942,0,1.5122e+08,-37.146,12170,11369,1,11369,1,9.3741e-06,-3.8409e-09,0,9.3741e-06,-0.00016324,3.1833e+06,-1184.2,0,3.1833e+06,-101.22,11368,11756,1,11756,1,0.00019432,-1.0916e-09,0,0.00019432,-0.00012858,6.861e+07,-321.2,0,6.861e+07,-61.024,11755,12533,1,12533,1,0.00068751,7.9576e-10,0,0.00068751,-3.6179e-05,2.2948e+08,230.35,0,2.2948e+08,-10.198,12532,446.74,0,446.74,0,0.00026651,1.4679e-09,0,0.00026651,4.9939e-05,8.7339e+07,437.59,0,8.7339e+07,32.555,446.74,1
825,3.04,12164,1,12164,1,0.00044246,-1.548e-09,0,0.00044246,-8.2665e-05,1.4929e+08,-458.66,0,1.4929e+08,-32.318,12163,12984,1,12984,1,0.00087546,7.8624e-10,0,0.00087546,-1.5167e-06,2.8809e+08,242.47,0,2.8809e+08,82.363,12983,12171,1,12171,1,0.00044246,-1.2774e-09,0,0.00044246,-8.2669e-05,1.5175e+08,-371.74,0,1.5175e+08,-34.96,12170,11369,1,11369,1,9.4689e-06,-4.7532e-09,0,9.4689e-06,-0.0001638,3.2181e+06,-1458.7,0,3.2181e+06,-154.83,11368,11756,1,11756,1,0.00019504,-2.7963e-09,0,0.00019504,-0.00012902,6.8862e+07,-826.98,0,6.8862e+07,-57.471,11755,12533,1,12533,1,0.00068987,-2.1747e-10,0,0.00068987,-3.6313e-05,2.3017e+08,-62.308,0,2.3017e+08,-8.1009,12532,446.74,0,446.74,0,0.00026741,1.5502e-09,0,0.00026741,5.0105e-05,8.7579e+07,464.18,0,8.7579e+07,40.986,446.74,1
825,3.05,12164,1,12164,1,0.000444,-2.8916e-09,0,0.000444,-8.2952e-05,1.4976e+08,-856.48,0,1.4976e+08,-30.521,12163,12984,1,12984,1,0.00087846,1.0936e-09,0,0.00087846,-1.533e-06,2.889e+08,303.03,0,2.889e+08,119.71,12983,12171,1,12171,1,0.000444,-3.2163e-09,0,0.000444,-8.2957e-05,1.5228e+08,-945.97,0,1.5228e+08,-20.909,12170,11369,1,11369,1,9.5638e-06,-5.9073e-09,0,9.5638e-06,-0.00016436,3.253e+06,-1811.5,0,3.253e+06,-205.78,11368,11756,1,11756,1,0.00019575,-4.6086e-09,0,0.00019575,-0.00012946,6.9115e+07,-1375,0,6.9115e+07,-65.446,11755,12533,1,12533,1,0.00069223,-1.364e-09,0,0.00069223,-3.6446e-05,2.3086e+08,-383.22,0,2.3086e+08,9.1455,12532,446.74,0,446.74,0,0.0002683,1.9976e-09,0,0.0002683,5.0273e-05,8.7819e+07,600.39,0,8.7819e+07,59.657,446.74,1
825,3.06,12164,1,12164,1,0.00044552,-8.0119e-10,0,0.00044552,-8.3237e-05,1.5023e+08,-238.88,0,1.5023e+08,-33.497,12163,12984,1,12984,1,0.0008814,2.4879e-09,0,0.0008814,-1.5497e-06,2.8969e+08,761.67,0,2.8969e+08,57.671,12983,12171,1,12171,1,0.00044552,-3.2164e-10,0,0.00044552,-8.3242e-05,1.528e+08,-92.407,0,1.528e+08,-42.938,12170,11369,1,11369,1,9.66e-06,-4.8173e-09,0,9.66e-06,-0.00016491,3.2884e+06,-1480.1,0,3.2884e+06,-87.59,11368,11756,1,11756,1,0.00019646,-2.0931e-09,0,0.00019646,-0.0001299,6.9365e+07,-615.98,0,6.9365e+07,-62.783,11755,12533,1,12533,1,0.00069458,4.8113e-10,0,0.00069458,-3.6578e-05,2.3154e+08,135.22,0,2.3154e+08,-9.3697,12532,446.74,0,446.74,0,0.00026918,1.8022e-09,0,0.00026918,5.0438e-05,8.8054e+07,537.27,0,8.8054e+07,34.913,446.74,1
825,3.07,12164,1,12164,1,0.00044707,-6.0132e-10,0,0.00044707,-8.3526e-05,1.5071e+08,-178.43,0,1.5071e+08,-20.749,12163,12984,1,12984,1,0.00088439,2.7851e-10,0,0.00088439,-1.5664e-06,2.905e+08,77.164,0,2.905e+08,15.809,12983,12171,1,12171,1,0.00044707,-4.7525e-10,0,0.00044707,-8.3531e-05,1.5333e+08,-138.3,0,1.5333e+08,-21.956,12170,11369,1,11369,1,9.7569e-06,-2.1213e-09,0,9.7569e-06,-0.00016547,3.324e+06,-657.89,0,3.324e+06,-59.486,11368,11756,1,11756,1,0.00019718,-9.523e-10,0,0.00019718,-0.00013034,6.9618e+07,-279.81,0,6.9618e+07,-29.989,11755,12533,1,12533,1,0.00069696,-1.5492e-10,0,0.00069696,-3.6712e-05,2.3224e+08,-43.485,0,2.3224e+08,-11.637,12532,446.74,0,446.74,0,0.00027008,5.7717e-10,0,0.00027008,5.0605e-05,8.8294e+07,173.57,0,8.8294e+07,14.222,446.74,1
825,3.08,12164,1,12164,1,0.00044858,-2.1e-09,0,0.00044858,-8.3807e-05,1.5117e+08,-622.7,0,1.5117e+08,-69.235,12163,12984,1,12984,1,0.00088733,5.3351e-09,0,0.00088733,-1.5827e-06,2.9129e+08,1639.8,0,2.9129e+08,165.39,12983,12171,1,12171,1,0.00044858,-1.368e-09,0,0.00044858,-8.3813e-05,1.5385e+08,-386.03,0,1.5385e+08,-83.28,12170,11369,1,11369,1,9.8535e-06,-9.6845e-09,0,9.8535e-06,-0.00016602,3.3596e+06,-2968.4,0,3.3596e+06,-246.82,11368,11756,1,11756,1,0.00019788,-4.8609e-09,0,0.00019788,-0.00013077,6.9866e+07,-1419.9,0,6.9866e+07,-127.59,11755,12533,1,12533,1,0.00069927,5.8478e-10,0,0.00069927,-3.6843e-05,2.3291e+08,166.68,0,2.3291e+08,-9.8861,12532,446.74,0,446.74,0,0.00027095,3.6695e-09,0,0.00027095,5.0768e-05,8.8524e+07,1094,0,8.8524e+07,86.855,446.74,1
825,3.09,12164,1,12164,1,0.00045014,-2.396e-09,0,0.00045014,-8.4099e-05,1.5166e+08,-710.54,0,1.5166e+08,-52.739,12163,12984,1,12984,1,0.00089036,1.2397e-09,0,0.00089036,-1.5996e-06,2.9211e+08,342.82,0,2.9211e+08,109.31,12983,12171,1,12171,1,0.00045014,-2.1175e-09,0,0.00045014,-8.4105e-05,1.5438e+08,-612.58,0,1.5438e+08,-52.857,12170,11369,1,11369,1,9.9505e-06,-6.7604e-09,0,9.9505e-06,-0.00016658,3.3952e+06,-2080.2,0,3.3952e+06,-217.38,11368,11756,1,11756,1,0.00019861,-4.1575e-09,0,0.00019861,-0.00013122,7.0123e+07,-1221.3,0,7.0123e+07,-90.001,11755,12533,1,12533,1,0.00070167,-5.2779e-10,0,0.00070167,-3.6978e-05,2.3361e+08,-148.59,0,2.3361e+08,-16.393,12532,446.74,0,446.74,0,0.00027186,2.1393e-09,0,0.00027186,5.0938e-05,8.8767e+07,641.85,0,8.8767e+07,57.978,446.74,1
825,3.1,12164,1,12164,1,0.00045169,-1.7196e-09,0,0.00045169,-8.4388e-05,1.5213e+08,-509.8,0,1.5213e+08,-23.817,12163,12984,1,12984,1,0.00089335,6.9603e-10,0,0.00089335,-1.6169e-06,2.9291e+08,192.39,0,2.9291e+08,66.451,12983,12171,1,12171,1,0.00045169,-1.6326e-09,0,0.00045169,-8.4394e-05,1.5491e+08,-467.63,0,1.5491e+08,-23.27,12170,11369,1,11369,1,1.005e-05,-4.4267e-09,0,1.005e-05,-0.00016714,3.4318e+06,-1363.8,0,3.4318e+06,-121.11,11368,11756,1,11756,1,0.00019933,-2.807e-09,0,0.00019933,-0.00013167,7.0377e+07,-831.94,0,7.0377e+07,-44.315,11755,12533,1,12533,1,0.00070405,-6.0743e-10,0,0.00070405,-3.7112e-05,2.343e+08,-172.96,0,2.343e+08,-2.8166,12532,446.74,0,446.74,0,0.00027275,1.3707e-09,0,0.00027275,5.1105e-05,8.9003e+07,412.61,0,8.9003e+07,32.431,446.74,1
825,3.11,12164,1,12164,1,0.00045323,-6.712e-10,0,0.00045323,-8.4675e-05,1.526e+08,-200.19,0,1.526e+08,-18.021,12163,12984,1,12984,1,0.00089632,5.3631e-10,0,0.00089632,-1.634e-06,2.9371e+08,148.14,0,2.9371e+08,46.391,12983,12171,1,12171,1,0.00045323,-4.8526e-10,0,0.00045323,-8.4682e-05,1.5544e+08,-143.96,0,1.5544e+08,-18.364,12170,11369,1,11369,1,1.015e-05,-2.5105e-09,0,1.015e-05,-0.0001677,3.4685e+06,-774.4,0,3.4685e+06,-88.596,11368,11756,1,11756,1,0.00020004,-1.3126e-09,0,0.00020004,-0.00013211,7.0629e+07,-386.04,0,7.0629e+07,-32.181,11755,12533,1,12533,1,0.00070641,3.6277e-11,0,0.00070641,-3.7245e-05,2.3498e+08,10.152,0,2.3498e+08,-3.7847,12532,446.74,0,446.74,0,0.00027364,8.2977e-10,0,0.00027364,5.1271e-05,8.9238e+07,248.24,0,8.9238e+07,22.769,446.74,1
825,3.12,12164,1,12164,1,0.00045476,-2.4308e-09,0,0.00045476,-8.496e-05,1.5306e+08,-719.77,0,1.5306e+08,-54.673,12163,12984,1,12984,1,0.00089928,6.3186e-09,0,0.00089928,-1.6548e-06,2.9446e+08,1926.9,0,2.9446e+08,209.58,12983,12171,1,12171,1,0.00045476,-1.3443e-09,0,0.00045476,-8.4967e-05,1.5595e+08,-396.54,0,1.5595e+08,-71.511,12170,11369,1,11369,1,1.0272e-05,-1.2214e-08,0,1.0272e-05,-0.00016825,3.5138e+06,-3725,0,3.5138e+06,-209.42,11368,11756,1,11756,1,0.00020077,-5.8466e-09,0,0.00020077,-0.00013254,7.0886e+07,-1717,0,7.0886e+07,-126.72,11755,12533,1,12533,1,0.00070874,8.9959e-10,0,0.00070874,-3.738e-05,2.3563e+08,258.28,0,2.3563e+08,6.5668,12532,446.74,0,446.74,0,0.00027451,4.5591e-09,0,0.00027451,5.1434e-05,8.9453e+07,1356.8,0,8.9453e+07,90.296,446.74,1
825,3.13,12164,1,12164,1,0.00045639,-2.137e-09,0,0.00045639,-8.5265e-05,1.5354e+08,-633.48,0,1.5354e+08,-27.583,12163,12984,1,12984,1,0.0009024,9.1452e-10,0,0.0009024,-1.6788e-06,2.9525e+08,252.32,0,2.9525e+08,62.126,12983,12171,1,12171,1,0.00045639,-2.2593e-09,0,0.00045639,-8.5272e-05,1.5648e+08,-653.08,0,1.5648e+08,-15.531,12170,11369,1,11369,1,1.0408e-05,-4.7553e-09,0,1.0408e-05,-0.00016883,3.5643e+06,-1471.8,0,3.5643e+06,-162.18,11368,11756,1,11756,1,0.00020155,-3.436e-09,0,0.00020155,-0.00013301,7.1161e+07,-1022.3,0,7.1161e+07,-52.332,11755,12533,1,12533,1,0.00071123,-9.3548e-10,0,0.00071123,-3.7525e-05,2.3631e+08,-261.79,0,2.3631e+08,4.905,12532,446.74,0,446.74,0,0.00027543,1.5656e-09,0,0.00027543,5.1606e-05,8.9677e+07,471.11,0,8.9677e+07,45.265,446.74,1
825,3.14,12164,1,12164,1,0.00045798,-1.8713e-09,0,0.00045798,-8.5561e-05,1.5399e+08,-553.68,0,1.5399e+08,-10.527,12163,12984,1,12984,1,0.00090543,5.9314e-10,0,0.00090543,-1.7038e-06,2.9599e+08,163.5,0,2.9599e+08,74.554,12983,12171,1,12171,1,0.00045798,-1.6298e-09,0,0.00045798,-8.5569e-05,1.5699e+08,-474.71,0,1.5699e+08,-6.9274,12170,11369,1,11369,1,1.0551e-05,-5.0448e-09,0,1.0551e-05,-0.0001694,3.6176e+06,-1549.7,0,3.6176e+06,-88.53,11368,11756,1,11756,1,0.00020231,-3.1629e-09,0,0.00020231,-0.00013346,7.143e+07,-935.6,0,7.143e+07,-31.95,11755,12533,1,12533,1,0.00071365,-5.2183e-10,0,0.00071365,-3.7667e-05,2.3695e+08,-145.97,0,2.3695e+08,11.83,12532,446.74,0,446.74,0,0.00027633,1.5658e-09,0,0.00027633,5.1773e-05,8.9886e+07,471.05,0,8.9886e+07,32.966,446.74,1
825,3.15,12164,1,12164,1,0.00045955,-1.6527e-09,0,0.00045955,-8.5854e-05,1.5445e+08,-490.24,0,1.5445e+08,-33.772,12163,12984,1,12984,1,0.00090843,5.0089e-09,0,0.00090843,-1.7281e-06,2.9673e+08,1523.1,0,2.9673e+08,163.84,12983,12171,1,12171,1,0.00045955,-8.2676e-10,0,0.00045955,-8.5861e-05,1.5749e+08,-238.16,0,1.5749e+08,-41.869,12170,11369,1,11369,1,1.0692e-05,-9.5737e-09,0,1.0692e-05,-0.00016996,3.67e+06,-2932.7,0,3.67e+06,-202.64,11368,11756,1,11756,1,0.00020306,-4.0994e-09,0,0.00020306,-0.0001339,7.1695e+07,-1206.1,0,7.1695e+07,-84.677,11755,12533,1,12533,1,0.00071603,8.362e-10,0,0.00071603,-3.7808e-05,2.3759e+08,238.73,0,2.3759e+08,15.899,12532,446.74,0,446.74,0,0.00027721,3.447e-09,0,0.00027721,5.1938e-05,9.0092e+07,1025.8,0,9.0092e+07,74.26,446.74,1
825,3.16,12164,1,12164,1,0.00046116,-1.3833e-09,0,0.00046116,-8.6154e-05,1.5492e+08,-409.82,0,1.5492e+08,-43.086,12163,12984,1,12984,1,0.0009115,2.6889e-09,0,0.0009115,-1.7528e-06,2.975e+08,825.87,0,2.975e+08,85.13,12983,12171,1,12171,1,0.00046116,-6.4034e-10,0,0.00046116,-8.6161e-05,1.5801e+08,-181.94,0,1.5801e+08,-50.046,12170,11369,1,11369,1,1.0833e-05,-7.3252e-09,0,1.0833e-05,-0.00017053,3.7224e+06,-2257.2,0,3.7224e+06,-154.07,11368,11756,1,11756,1,0.00020383,-3.1263e-09,0,0.00020383,-0.00013436,7.1967e+07,-915.53,0,7.1967e+07,-82.926,11755,12533,1,12533,1,0.00071848,4.2443e-10,0,0.00071848,-3.7951e-05,2.3824e+08,123,0,2.3824e+08,-8.502,12532,446.74,0,446.74,0,0.00027811,2.4829e-09,0,0.00027811,5.2107e-05,9.0307e+07,741.36,0,9.0307e+07,50.095,446.74,1
825,3.17,12164,1,12164,1,0.00046275,-2.3779e-09,0,0.00046275,-8.6451e-05,1.5538e+08,-704.85,0,1.5538e+08,-47.071,12163,12984,1,12984,1,0.00091456,3.7832e-09,0,0.00091456,-1.7777e-06,2.9824e+08,1163.9,0,2.9824e+08,172.98,12983,12171,1,12171,1,0.00046275,-2.03e-09,0,0.00046275,-8.6459e-05,1.5852e+08,-578.47,0,1.5852e+08,-35.489,12170,11369,1,11369,1,1.0978e-05,-8.3271e-09,0,1.0978e-05,-0.0001711,3.7763e+06,-2549.9,0,3.7763e+06,-264.95,11368,11756,1,11756,1,0.0002046,-4.8066e-09,0,0.0002046,-0.00013481,7.2238e+07,-1397.7,0,7.2238e+07,-88.537,11755,12533,1,12533,1,0.0007209,1.683e-10,0,0.0007209,-3.8094e-05,2.3889e+08,47.829,0,2.3889e+08,-0.77085,12532,446.74,0,446.74,0,0.00027901,2.9968e-09,0,0.00027901,5.2275e-05,9.0516e+07,893.87,0,9.0516e+07,77.779,446.74,1
825,3.18,12164,1,12164,1,0.00046438,-7.5847e-10,0,0.00046438,-8.6754e-05,1.5585e+08,-225.6,0,1.5585e+08,-30.004,12163,12984,1,12984,1,0.00091764,3.9207e-10,0,0.00091764,-1.8034e-06,2.99e+08,114.57,0,2.99e+08,32.794,12983,12171,1,12171,1,0.00046438,-4.5426e-10,0,0.00046438,-8.6762e-05,1.5905e+08,-133.43,0,1.5905e+08,-31.126,12170,11369,1,11369,1,1.1123e-05,-3.0177e-09,0,1.1123e-05,-0.00017168,3.83e+06,-944.41,0,3.83e+06,-91.507,11368,11756,1,11756,1,0.00020538,-1.3111e-09,0,0.00020538,-0.00013527,7.2512e+07,-385.29,0,7.2512e+07,-43.856,11755,12533,1,12533,1,0.00072337,-4.3048e-11,0,0.00072337,-3.8239e-05,2.3955e+08,-12.051,0,2.3955e+08,-15.678,12532,446.74,0,446.74,0,0.00027992,8.7926e-10,0,0.00027992,5.2445e-05,9.073e+07,264.66,0,9.073e+07,23.508,446.74,1
825,3.19,12164,1,12164,1,0.00046594,-2.1833e-09,0,0.00046594,-8.7046e-05,1.563e+08,-647.2,0,1.563e+08,-38.694,12163,12984,1,12984,1,0.00092065,7.0225e-09,0,0.00092065,-1.8285e-06,2.9973e+08,2135.2,0,2.9973e+08,232.13,12983,12171,1,12171,1,0.00046594,-1.4679e-09,0,0.00046594,-8.7054e-05,1.5955e+08,-421.04,0,1.5955e+08,-36.921,12170,11369,1,11369,1,1.127e-05,-1.054e-08,0,1.127e-05,-0.00017224,3.8848e+06,-3216.4,0,3.8848e+06,-244.68,11368,11756,1,11756,1,0.00020613,-5.539e-09,0,0.00020613,-0.00013571,7.278e+07,-1619.9,0,7.278e+07,-111.42,11755,12533,1,12533,1,0.00072575,9.3057e-10,0,0.00072575,-3.838e-05,2.4017e+08,256.53,0,2.4017e+08,26.704,12532,446.74,0,446.74,0,0.0002808,4.2755e-09,0,0.0002808,5.2609e-05,9.093e+07,1271.4,0,9.093e+07,99.001,446.74,1
825,3.2,12164,1,12164,1,0.00046758,-7.8164e-11,0,0.00046758,-8.7352e-05,1.5677e+08,-25.955,0,1.5677e+08,-33.183,12163,12984,1,12984,1,0.00092376,7.5878e-10,0,0.00092376,-1.8544e-06,3.0049e+08,238.56,0,3.0049e+08,22.041,12983,12171,1,12171,1,0.00046758,2.8214e-11,0,0.00046758,-8.7361e-05,1.6008e+08,7.9234,0,1.6008e+08,-28.624,12170,11369,1,11369,1,1.1416e-05,-1.2129e-09,0,1.1416e-05,-0.00017282,3.9388e+06,-381.7,0,3.9388e+06,-102.68,11368,11756,1,11756,1,0.00020692,-3.2181e-10,0,0.00020692,-0.00013618,7.3056e+07,-94.578,0,7.3056e+07,-50.72,11755,12533,1,12533,1,0.00072825,2.4088e-10,0,0.00072825,-3.8526e-05,2.4084e+08,68.593,0,2.4084e+08,-14.271,12532,446.74,0,446.74,0,0.00028172,4.3358e-10,0,0.00028172,5.2782e-05,9.1148e+07,129.04,0,9.1148e+07,25.957,446.74,1
825,3.21,12164,1,12164,1,0.00046918,-3.4538e-09,0,0.00046918,-8.7649e-05,1.5723e+08,-1020.3,0,1.5723e+08,-9.7772,12163,12984,1,12984,1,0.00092682,1.3824e-09,0,0.00092682,-1.8802e-06,3.0123e+08,378.55,0,3.0123e+08,178.86,12983,12171,1,12171,1,0.00046918,-3.4492e-09,0,0.00046918,-8.7658e-05,1.6059e+08,-984,0,1.6059e+08,3.7049,12170,11369,1,11369,1,1.1566e-05,-8.2815e-09,0,1.1566e-05,-0.00017339,3.9948e+06,-2524.4,0,3.9948e+06,-220.51,11368,11756,1,11756,1,0.00020769,-5.9201e-09,0,0.00020769,-0.00013663,7.3329e+07,-1724.4,0,7.3329e+07,-50.231,11755,12533,1,12533,1,0.00073066,-1.0719e-09,0,0.00073066,-3.867e-05,2.4147e+08,-303.73,0,2.4147e+08,36.813,12532,446.74,0,446.74,0,0.00028261,2.7284e-09,0,0.00028261,5.2948e-05,9.1351e+07,817.19,0,9.1351e+07,74.663,446.74,1
825,3.22,12164,1,12164,1,0.00047078,2.1169e-09,0,0.00047078,-8.7949e-05,1.5769e+08,620.93,0,1.5769e+08,-25.074,12163,12984,1,12984,1,0.00092987,4.4864e-09,0,0.00092987,-1.9064e-06,3.0197e+08,1362.1,0,3.0197e+08,44.604,12983,12171,1,12171,1,0.00047078,1.9842e-09,0,0.00047078,-8.7958e-05,1.6111e+08,575.53,0,1.6111e+08,-24.587,12170,11369,1,11369,1,1.1714e-05,-3.9287e-10,0,1.1714e-05,-0.00017396,4.0499e+06,-107.41,0,4.0499e+06,-87.641,11368,11756,1,11756,1,0.00020846,1.1079e-09,0,0.00020846,-0.00013709,7.3601e+07,317.11,0,7.3601e+07,-50.754,11755,12533,1,12533,1,0.00073311,3.2388e-09,0,0.00073311,-3.8814e-05,2.4212e+08,949.04,0,2.4212e+08,-1.5196,12532,446.74,0,446.74,0,0.00028352,1.3031e-09,0,0.00028352,5.3117e-05,9.1558e+07,391.19,0,9.1558e+07,28.773,446.74,1
825,3.23,12164,1,12164,1,0.00047238,9.9726e-10,0,0.00047238,-8.8247e-05,1.5815e+08,294.28,0,1.5815e+08,-19.648,12163,12984,1,12984,1,0.00093291,4.663e-09,0,0.00093291,-1.9327e-06,3.027e+08,1419.8,0,3.027e+08,52.368,12983,12171,1,12171,1,0.00047238,5.4736e-10,0,0.00047238,-8.8257e-05,1.6162e+08,158.33,0,1.6162e+08,-22.248,12170,11369,1,11369,1,1.1865e-05,-7.5691e-10,0,1.1865e-05,-0.00017452,4.1059e+06,-233.3,0,4.1059e+06,-69.031,11368,11756,1,11756,1,0.00020923,-2.0292e-11,0,0.00020923,-0.00013754,7.3873e+07,-5.7557,0,7.3873e+07,-38.3,11755,12533,1,12533,1,0.00073554,1.8505e-09,0,0.00073554,-3.8958e-05,2.4276e+08,545.07,0,2.4276e+08,-2.716,12532,446.74,0,446.74,0,0.00028441,1.3322e-09,0,0.00028441,5.3284e-05,9.1763e+07,397.94,0,9.1763e+07,24.313,446.74,1
825,3.24,12164,1,12164,1,0.00047399,-2.9519e-09,0,0.00047399,-8.8547e-05,1.5861e+08,-870.36,0,1.5861e+08,-26.343,12163,12984,1,12984,1,0.00093599,9.9502e-10,0,0.00093599,-1.9588e-06,3.0345e+08,271.71,0,3.0345e+08,136.81,12983,12171,1,12171,1,0.00047399,-2.8723e-09,0,0.00047399,-8.8556e-05,1.6213e+08,-837.85,0,1.6213e+08,-23.109,12170,11369,1,11369,1,1.2016e-05,-7.1002e-09,0,1.2016e-05,-0.0001751,4.1621e+06,-2160.5,0,4.1621e+06,-178.73,11368,11756,1,11756,1,0.00021001,-4.715e-09,0,0.00021001,-0.00013799,7.4148e+07,-1395.8,0,7.4148e+07,-55.783,11755,12533,1,12533,1,0.00073797,-1.1949e-09,0,0.00073797,-3.9103e-05,2.434e+08,-342.7,0,2.434e+08,6.4252,12532,446.74,0,446.74,0,0.00028531,2.1859e-09,0,0.00028531,5.3452e-05,9.1968e+07,654.63,0,9.1968e+07,55.956,446.74,1
825,3.25,12164,1,12164,1,0.0004756,2.2157e-10,0,0.0004756,-8.8846e-05,1.5907e+08,62.414,0,1.5907e+08,-30.616,12163,12984,1,12984,1,0.00093904,3.3962e-09,0,0.00093904,-1.9856e-06,3.0417e+08,1032.5,0,3.0417e+08,41.168,12983,12171,1,12171,1,0.0004756,3.1411e-10,0,0.0004756,-8.8856e-05,1.6265e+08,87.603,0,1.6265e+08,-38.211,12170,11369,1,11369,1,1.2168e-05,-3.3415e-09,0,1.2168e-05,-0.00017567,4.2186e+06,-1034.8,0,4.2186e+06,-94.587,11368,11756,1,11756,1,0.00021078,-6.8776e-10,0,0.00021078,-0.00013845,7.4421e+07,-196.77,0,7.4421e+07,-54.856,11755,12533,1,12533,1,0.00074041,1.1955e-09,0,0.00074041,-3.9247e-05,2.4404e+08,341.72,0,2.4404e+08,-5.8376,12532,446.74,0,446.74,0,0.00028621,1.4998e-09,0,0.00028621,5.362e-05,9.2172e+07,445.91,0,9.2172e+07,32.408,446.74,1
825,3.26,12164,1,12164,1,0.00047721,-1.3815e-09,0,0.00047721,-8.9146e-05,1.5952e+08,-408.21,0,1.5952e+08,-27.793,12163,12984,1,12984,1,0.0009421,8.3771e-10,0,0.0009421,-2.0123e-06,3.0491e+08,263.16,0,3.0491e+08,59.941,12983,12171,1,12171,1,0.0004772,-9.4133e-10,0,0.0004772,-8.9156e-05,1.6316e+08,-275.91,0,1.6316e+08,-30.605,12170,11369,1,11369,1,1.2322e-05,-5.032e-09,0,1.2322e-05,-0.00017624,4.2757e+06,-1545.2,0,4.2757e+06,-104,11368,11756,1,11756,1,0.00021156,-2.453e-09,0,0.00021156,-0.0001389,7.4695e+07,-707.09,0,7.4695e+07,-44.834,11755,12533,1,12533,1,0.00074285,-7.7936e-11,0,0.00074285,-3.9392e-05,2.4467e+08,-21.469,0,2.4467e+08,-7.4947,12532,446.74,0,446.74,0,0.00028711,1.5296e-09,0,0.00028711,5.3787e-05,9.2375e+07,457.04,0,9.2375e+07,31.737,446.74,1
825,3.27,12164,1,12164,1,0.00047883,-1.8727e-09,0,0.00047883,-8.9449e-05,1.5999e+08,-553.9,0,1.5999e+08,-11.482,12163,12984,1,12984,1,0.00094521,9.3019e-10,0,0.00094521,-2.0392e-06,3.0565e+08,253.54,0,3.0565e+08,111.32,12983,12171,1,12171,1,0.00047883,-1.8296e-09,0,0.00047883,-8.946e-05,1.6368e+08,-534.79,0,1.6368e+08,-8.2594,12170,11369,1,11369,1,1.2476e-05,-4.6844e-09,0,1.2476e-05,-0.00017682,4.333e+06,-1435.9,0,4.333e+06,-148.76,11368,11756,1,11756,1,0.00021235,-3.0886e-09,0,0.00021235,-0.00013936,7.4973e+07,-906.31,0,7.4973e+07,-37.688,11755,12533,1,12533,1,0.00074531,-7.764e-10,0,0.00074531,-3.9538e-05,2.4532e+08,-216.81,0,2.4532e+08,15.383,12532,446.74,0,446.74,0,0.00028802,1.4556e-09,0,0.00028802,5.3957e-05,9.2581e+07,436.69,0,9.2581e+07,41.635,446.74,1
825,3.28,12164,1,12164,1,0.00048044,-6.5133e-10,0,0.00048044,-8.9748e-05,1.6044e+08,-193.08,0,1.6044e+08,-19.018,12163,12984,1,12984,1,0.00094825,3.5714e-10,0,0.00094825,-2.0668e-06,3.0636e+08,105.98,0,3.0636e+08,42.268,12983,12171,1,12171,1,0.00048043,-2.3296e-10,0,0.00048043,-8.9759e-05,1.642e+08,-68.559,0,1.642e+08,-22.085,12170,11369,1,11369,1,1.2633e-05,-3.5518e-09,0,1.2633e-05,-0.00017739,4.3912e+06,-1104.5,0,4.3912e+06,-77.457,11368,11756,1,11756,1,0.00021312,-1.1752e-09,0,0.00021312,-0.00013982,7.5246e+07,-340.27,0,7.5246e+07,-30.888,11755,12533,1,12533,1,0.00074775,6.6435e-11,0,0.00074775,-3.9683e-05,2.4595e+08,18.748,0,2.4595e+08,-6.3952,12532,446.74,0,446.74,0,0.00028891,9.6261e-10,0,0.00028891,5.4124e-05,9.278e+07,287.92,0,9.278e+07,21.478,446.74,1
825,3.29,12164,1,12164,1,0.00048205,-2.1033e-09,0,0.00048205,-9.0049e-05,1.609e+08,-621.48,0,1.609e+08,1.5751,12163,12984,1,12984,1,0.00095133,1.0242e-09,0,0.00095133,-2.0937e-06,3.071e+08,278.61,0,3.071e+08,133.05,12983,12171,1,12171,1,0.00048205,-1.9774e-09,0,0.00048205,-9.006e-05,1.6471e+08,-577.48,0,1.6471e+08,4.4641,12170,11369,1,11369,1,1.2788e-05,-5.4249e-09,0,1.2788e-05,-0.00017796,4.449e+06,-1657.1,0,4.449e+06,-157.43,11368,11756,1,11756,1,0.0002139,-3.6416e-09,0,0.0002139,-0.00014027,7.5522e+07,-1074,0,7.5522e+07,-24.472,11755,12533,1,12533,1,0.00075019,-6.1805e-10,0,0.00075019,-3.9828e-05,2.4658e+08,-171.13,0,2.4658e+08,24.694,12532,446.74,0,446.74,0,0.00028981,1.7604e-09,0,0.00028981,5.4292e-05,9.2982e+07,526.71,0,9.2982e+07,41.496,446.74,1
825,3.3,12164,1,12164,1,0.00048366,-1.2967e-09,0,0.00048366,-9.0349e-05,1.6136e+08,-385.85,0,1.6136e+08,-10.357,12163,12984,1,12984,1,0.0009544,1.0908e-09,0,0.0009544,-2.1213e-06,3.0782e+08,296.56,0,3.0782e+08,130.81,12983,12171,1,12171,1,0.00048366,-8.9887e-10,0,0.00048366,-9.036e-05,1.6523e+08,-258.63,0,1.6523e+08,-17.19,12170,11369,1,11369,1,1.2946e-05,-4.7682e-09,0,1.2946e-05,-0.00017853,4.5078e+06,-1464.2,0,4.5078e+06,-112.89,11368,11756,1,11756,1,0.00021468,-2.5624e-09,0,0.00021468,-0.00014073,7.5798e+07,-745.36,0,7.5798e+07,-36.351,11755,12533,1,12533,1,0.00075263,5.8801e-11,0,0.00075263,-3.9974e-05,2.4721e+08,16.341,0,2.4721e+08,13.23,12532,446.74,0,446.74,0,0.00029071,1.5866e-09,0,0.00029071,5.446e-05,9.3182e+07,472.61,0,9.3182e+07,44.557,446.74,1
825,3.31,12164,1,12164,1,0.00048529,1.6054e-09,0,0.00048529,-9.0652e-05,1.6182e+08,472.04,0,1.6182e+08,-14.14,12163,12984,1,12984,1,0.00095748,2.9429e-09,0,0.00095748,-2.1493e-06,3.0855e+08,884.71,0,3.0855e+08,84.06,12983,12171,1,12171,1,0.00048529,1.9095e-09,0,0.00048529,-9.0664e-05,1.6575e+08,555.3,0,1.6575e+08,-15.309,12170,11369,1,11369,1,1.3105e-05,-5.2248e-10,0,1.3105e-05,-0.00017911,4.5668e+06,-141.8,0,4.5668e+06,-88.357,11368,11756,1,11756,1,0.00021547,1.001e-09,0,0.00021547,-0.00014119,7.6076e+07,278.32,0,7.6076e+07,-36.861,11755,12533,1,12533,1,0.0007551,2.2951e-09,0,0.0007551,-4.0121e-05,2.4785e+08,683.05,0,2.4785e+08,6.7326,12532,446.74,0,446.74,0,0.00029161,9.3218e-10,0,0.00029161,5.4629e-05,9.3383e+07,278.94,0,9.3383e+07,32.185,446.74,1
825,3.32,12164,1,12164,1,0.00048688,3.3517e-10,0,0.00048688,-9.0949e-05,1.6227e+08,98.776,0,1.6227e+08,-4.0428,12163,12984,1,12984,1,0.0009605,5.049e-09,0,0.0009605,-2.1773e-06,3.0925e+08,1536,0,3.0925e+08,136.05,12983,12171,1,12171,1,0.00048688,1.0169e-10,0,0.00048688,-9.0961e-05,1.6625e+08,28.283,0,1.6625e+08,-6.4264,12170,11369,1,11369,1,1.3265e-05,-2.788e-09,0,1.3265e-05,-0.00017967,4.6264e+06,-852.42,0,4.6264e+06,-106.81,11368,11756,1,11756,1,0.00021624,-1.045e-09,0,0.00021624,-0.00014164,7.6349e+07,-305.02,0,7.6349e+07,-34.377,11755,12533,1,12533,1,0.00075751,1.5545e-09,0,0.00075751,-4.0265e-05,2.4847e+08,450.83,0,2.4847e+08,20.147,12532,446.74,0,446.74,0,0.0002925,1.9229e-09,0,0.0002925,5.4795e-05,9.3577e+07,570.97,0,9.3577e+07,43.427,446.74,1
825,3.33,12164,1,12164,1,0.00048849,-1.7284e-09,0,0.00048849,-9.125e-05,1.6273e+08,-508.76,0,1.6273e+08,-19.97,12163,12984,1,12984,1,0.00096358,1.1452e-09,0,0.00096358,-2.205e-06,3.0998e+08,359.68,0,3.0998e+08,113.34,12983,12171,1,12171,1,0.00048849,-1.2008e-09,0,0.00048849,-9.1262e-05,1.6677e+08,-343.79,0,1.6677e+08,-22.358,12170,11369,1,11369,1,1.3425e-05,-5.6833e-09,0,1.3425e-05,-0.00018025,4.6854e+06,-1736.8,0,4.6854e+06,-117.02,11368,11756,1,11756,1,0.00021703,-3.2014e-09,0,0.00021703,-0.00014209,7.6625e+07,-934.11,0,7.6625e+07,-54.373,11755,12533,1,12533,1,0.00075996,-1.2454e-10,0,0.00075996,-4.0411e-05,2.491e+08,-34.242,0,2.491e+08,7.4118,12532,446.74,0,446.74,0,0.0002934,1.8686e-09,0,0.0002934,5.4962e-05,9.3776e+07,558.09,0,9.3776e+07,42.522,446.74,1
825,3.34,12164,1,12164,1,0.00049012,-3.3029e-09,0,0.00049012,-9.1554e-05,1.6318e+08,-975.88,0,1.6318e+08,-21.455,12163,12984,1,12984,1,0.00096669,1.5641e-09,0,0.00096669,-2.2334e-06,3.107e+08,423.67,0,3.107e+08,149.36,12983,12171,1,12171,1,0.00049012,-3.5382e-09,0,0.00049012,-9.1566e-05,1.6729e+08,-1018.5,0,1.6729e+08,-11.389,12170,11369,1,11369,1,1.3587e-05,-7.808e-09,0,1.3587e-05,-0.00018083,4.7458e+06,-2387.5,0,4.7458e+06,-194.93,11368,11756,1,11756,1,0.00021782,-5.2049e-09,0,0.00021782,-0.00014255,7.6905e+07,-1529.7,0,7.6905e+07,-56.898,11755,12533,1,12533,1,0.00076242,-1.5232e-09,0,0.00076242,-4.0559e-05,2.4973e+08,-422.39,0,2.4973e+08,16.864,12532,446.74,0,446.74,0,0.0002943,2.431e-09,0,0.0002943,5.5131e-05,9.3975e+07,728.67,0,9.3975e+07,62.163,446.74,1
825,3.35,12164,1,12164,1,0.00049174,-2.2396e-09,0,0.00049174,-9.1855e-05,1.6364e+08,-664.06,0,1.6364e+08,0.19391,12163,12984,1,12984,1,0.00096976,1.409e-09,0,0.00096976,-2.262e-06,3.1141e+08,381.45,0,3.1141e+08,159.16,12983,12171,1,12171,1,0.00049174,-1.8534e-09,0,0.00049174,-9.1867e-05,1.678e+08,-543.84,0,1.678e+08,0.83933,12170,11369,1,11369,1,1.3749e-05,-7.0264e-09,0,1.3749e-05,-0.0001814,4.8061e+06,-2160.3,0,4.8061e+06,-157.59,11368,11756,1,11756,1,0.00021861,-4.0264e-09,0,0.00021861,-0.00014301,7.7183e+07,-1173.8,0,7.7183e+07,-30.199,11755,12533,1,12533,1,0.00076486,-3.3571e-10,0,0.00076486,-4.0705e-05,2.5035e+08,-93.134,0,2.5035e+08,26.379,12532,446.74,0,446.74,0,0.0002952,2.2542e-09,0,0.0002952,5.5299e-05,9.417e+07,674.02,0,9.417e+07,47.914,446.74,1
825,3.36,12164,1,12164,1,0.00049337,1.2639e-09,0,0.00049337,-9.2159e-05,1.641e+08,370.33,0,1.641e+08,-17.125,12163,12984,1,12984,1,0.00097283,3.0432e-09,0,0.00097283,-2.291e-06,3.1213e+08,914.71,0,3.1213e+08,60.676,12983,12171,1,12171,1,0.00049337,1.1683e-09,0,0.00049337,-9.2172e-05,1.6832e+08,337.67,0,1.6832e+08,-17.339,12170,11369,1,11369,1,1.3914e-05,-5.8299e-10,0,1.3914e-05,-0.00018197,4.8674e+06,-157.5,0,4.8674e+06,-84.834,11368,11756,1,11756,1,0.0002194,6.3176e-10,0,0.0002194,-0.00014347,7.7462e+07,183.18,0,7.7462e+07,-42.53,11755,12533,1,12533,1,0.00076734,1.9814e-09,0,0.00076734,-4.0853e-05,2.5099e+08,576.7,0,2.5099e+08,5.398,12532,446.74,0,446.74,0,0.00029611,9.0846e-10,0,0.00029611,5.5468e-05,9.4369e+07,270.2,0,9.4369e+07,30.756,446.74,1
825,3.37,12164,1,12164,1,0.00049499,1.9485e-09,0,0.00049499,-9.2462e-05,1.6455e+08,574.18,0,1.6455e+08,-11.718,12163,12984,1,12984,1,0.00097592,4.2304e-09,0,0.00097592,-2.3201e-06,3.1284e+08,1281.9,0,3.1284e+08,86.644,12983,12171,1,12171,1,0.00049499,2.0112e-09,0,0.00049499,-9.2475e-05,1.6884e+08,579.99,0,1.6884e+08,-17.079,12170,11369,1,11369,1,1.4081e-05,-6.2364e-10,0,1.4081e-05,-0.00018255,4.9292e+06,-168.46,0,4.9292e+06,-87.62,11368,11756,1,11756,1,0.00022019,9.1958e-10,0,0.00022019,-0.00014393,7.7741e+07,255.75,0,7.7741e+07,-37.229,11755,12533,1,12533,1,0.00076979,3.0838e-09,0,0.00076979,-4.1e-05,2.5161e+08,904.33,0,2.5161e+08,11.195,12532,446.74,0,446.74,0,0.00029701,1.3307e-09,0,0.00029701,5.5636e-05,9.4563e+07,400.28,0,9.4563e+07,34.509,446.74,1
825,3.38,12164,1,12164,1,0.00049662,2.1008e-09,0,0.00049662,-9.2765e-05,1.6501e+08,620.05,0,1.6501e+08,-11.006,12163,12984,1,12984,1,0.00097901,3.9683e-09,0,0.00097901,-2.3493e-06,3.1355e+08,1199.5,0,3.1355e+08,105.61,12983,12171,1,12171,1,0.00049662,2.3853e-09,0,0.00049662,-9.2778e-05,1.6935e+08,687.85,0,1.6935e+08,-14.766,12170,11369,1,11369,1,1.4247e-05,-6.8516e-10,0,1.4247e-05,-0.00018312,4.991e+06,-184.95,0,4.991e+06,-100.07,11368,11756,1,11756,1,0.00022098,9.7655e-10,0,0.00022098,-0.00014439,7.8021e+07,270.09,0,7.8021e+07,-39.231,11755,12533,1,12533,1,0.00077225,3.3393e-09,0,0.00077225,-4.1148e-05,2.5223e+08,992.75,0,2.5223e+08,9.7503,12532,446.74,0,446.74,0,0.00029791,1.3712e-09,0,0.00029791,5.5804e-05,9.4757e+07,413.59,0,9.4757e+07,38.181,446.74,1
825,3.39,12164,1,12164,1,0.00049823,-1.4798e-09,0,0.00049823,-9.3065e-05,1.6546e+08,-435.41,0,1.6546e+08,-4.0186,12163,12984,1,12984,1,0.00098206,9.298e-10,0,0.00098206,-2.3786e-06,3.1425e+08,271.73,0,3.1425e+08,119.05,12983,12171,1,12171,1,0.00049823,-1.1712e-09,0,0.00049823,-9.3079e-05,1.6987e+08,-337.54,0,1.6987e+08,-9.6176,12170,11369,1,11369,1,1.4415e-05,-4.5711e-09,0,1.4415e-05,-0.00018369,5.0533e+06,-1389.4,0,5.0533e+06,-137.94,11368,11756,1,11756,1,0.00022177,-2.6613e-09,0,0.00022177,-0.00014484,7.8298e+07,-770.79,0,7.8298e+07,-26.753,11755,12533,1,12533,1,0.00077469,-1.9731e-10,0,0.00077469,-4.1294e-05,2.5285e+08,-55.871,0,2.5285e+08,18.39,12532,446.74,0,446.74,0,0.0002988,1.5265e-09,0,0.0002988,5.5971e-05,9.4949e+07,452.6,0,9.4949e+07,41.184,446.74,1
825,3.4,12164,1,12164,1,0.00049981,-4.5287e-09,0,0.00049981,-9.336e-05,1.659e+08,-1331.7,0,1.659e+08,-16.504,12163,12984,1,12984,1,0.00098509,1.8254e-09,0,0.00098509,-2.4077e-06,3.1493e+08,563.05,0,3.1493e+08,235.99,12983,12171,1,12171,1,0.00049981,-3.72e-09,0,0.00049981,-9.3374e-05,1.7037e+08,-1060.1,0,1.7037e+08,-20.123,12170,11369,1,11369,1,1.4582e-05,-1.347e-08,0,1.4582e-05,-0.00018426,5.1152e+06,-4114.3,0,5.1152e+06,-202.38,11368,11756,1,11756,1,0.00022254,-8.0132e-09,0,0.00022254,-0.00014528,7.8572e+07,-2343.6,0,7.8572e+07,-77.063,11755,12533,1,12533,1,0.00077707,-7.1916e-10,0,0.00077707,-4.1439e-05,2.5345e+08,-196.65,0,2.5345e+08,34.642,12532,446.74,0,446.74,0,0.00029967,4.2825e-09,0,0.00029967,5.6134e-05,9.5133e+07,1280.5,0,9.5133e+07,85.951,446.74,1
825,3.41,12164,1,12164,1,0.00050152,2.4876e-09,0,0.00050152,-9.3679e-05,1.6636e+08,727.39,0,1.6636e+08,-62.406,12163,12984,1,12984,1,0.00098828,6.7562e-09,0,0.00098828,-2.4439e-06,3.1563e+08,2053.5,0,3.1563e+08,116.02,12983,12171,1,12171,1,0.00050152,1.9985e-09,0,0.00050152,-9.3693e-05,1.7088e+08,570.19,0,1.7088e+08,-60.741,12170,11369,1,11369,1,1.4784e-05,-1.0085e-09,0,1.4784e-05,-0.00018485,5.1906e+06,-271.32,0,5.1906e+06,-180.24,11368,11756,1,11756,1,0.00022339,9.5519e-10,0,0.00022339,-0.00014577,7.8871e+07,269.17,0,7.8871e+07,-105.61,11755,12533,1,12533,1,0.00077965,4.003e-09,0,0.00077965,-4.1597e-05,2.5407e+08,1187.8,0,2.5407e+08,-22.465,12532,446.74,0,446.74,0,0.0003006,2.0169e-09,0,0.0003006,5.6308e-05,9.5321e+07,603,0,9.5321e+07,54.616,446.74,1
825,3.42,12164,1,12164,1,0.00050323,-4.0042e-10,0,0.00050323,-9.3997e-05,1.6681e+08,-115.86,0,1.6681e+08,-25.295,12163,12984,1,12984,1,0.00099146,5.7744e-10,0,0.00099146,-2.4828e-06,3.163e+08,181.29,0,3.163e+08,13.655,12983,12171,1,12171,1,0.00050323,-4.1766e-10,0,0.00050323,-9.4011e-05,1.7138e+08,-117.81,0,1.7138e+08,-26.5,12170,11369,1,11369,1,1.5005e-05,-1.0788e-09,0,1.5005e-05,-0.00018545,5.2727e+06,-336.15,0,5.2727e+06,-59.929,11368,11756,1,11756,1,0.00022425,-5.8205e-10,0,0.00022425,-0.00014624,7.9174e+07,-168.53,0,7.9174e+07,-39.065,11755,12533,1,12533,1,0.00078222,-2.0228e-10,0,0.00078222,-4.1757e-05,2.5467e+08,-55.791,0,2.5467e+08,-12.03,12532,446.74,0,446.74,0,0.00030152,3.1813e-10,0,0.00030152,5.648e-05,9.5495e+07,95.761,0,9.5495e+07,17.513,446.74,1
825,3.43,12164,1,12164,1,0.0005049,-2.7462e-09,0,0.0005049,-9.4307e-05,1.6724e+08,-808.16,0,1.6724e+08,-22.506,12163,12984,1,12984,1,0.0009946,1.1092e-09,0,0.0009946,-2.521e-06,3.1695e+08,297.8,0,3.1695e+08,151.99,12983,12171,1,12171,1,0.00050489,-2.3721e-09,0,0.00050489,-9.4321e-05,1.7186e+08,-667.74,0,1.7186e+08,-16.379,12170,11369,1,11369,1,1.5223e-05,-7.8259e-09,0,1.5223e-05,-0.00018603,5.354e+06,-2386.1,0,5.354e+06,-178.42,11368,11756,1,11756,1,0.00022509,-4.8703e-09,0,0.00022509,-0.00014671,7.947e+07,-1415,0,7.947e+07,-55.109,11755,12533,1,12533,1,0.0007847,-4.4727e-10,0,0.0007847,-4.1913e-05,2.5524e+08,-129.58,0,2.5524e+08,12.551,12532,446.74,0,446.74,0,0.00030242,2.5395e-09,0,0.00030242,5.6646e-05,9.566e+07,757.9,0,9.566e+07,60.584,446.74,1
825,3.44,12164,1,12164,1,0.00050661,-1.484e-09,0,0.00050661,-9.4625e-05,1.6769e+08,-439.89,0,1.6769e+08,-20.96,12163,12984,1,12984,1,0.00099779,7.1964e-10,0,0.00099779,-2.5594e-06,3.1763e+08,193.22,0,3.1763e+08,55.694,12983,12171,1,12171,1,0.0005066,-1.5997e-09,0,0.0005066,-9.464e-05,1.7236e+08,-462.61,0,1.7236e+08,-4.3145,12170,11369,1,11369,1,1.5439e-05,-3.2081e-09,0,1.5439e-05,-0.00018663,5.4343e+06,-1002,0,5.4343e+06,-172.12,11368,11756,1,11756,1,0.00022594,-2.5245e-09,0,0.00022594,-0.00014718,7.9773e+07,-756.46,0,7.9773e+07,-42.024,11755,12533,1,12533,1,0.00078726,-5.2464e-10,0,0.00078726,-4.2073e-05,2.5585e+08,-143.79,0,2.5585e+08,11.094,12532,446.74,0,446.74,0,0.00030334,1.157e-09,0,0.00030334,5.6818e-05,9.5836e+07,347.62,0,9.5836e+07,45.902,446.74,1
825,3.45,12164,1,12164,1,0.0005083,-2.5598e-09,0,0.0005083,-9.494e-05,1.6813e+08,-755.71,0,1.6813e+08,-11.91,12163,12984,1,12984,1,0.001001,1.0704e-09,0,0.001001,-2.5986e-06,3.1829e+08,286.9,0,3.1829e+08,133.47,12983,12171,1,12171,1,0.0005083,-2.6305e-09,0,0.0005083,-9.4955e-05,1.7286e+08,-756.94,0,1.7286e+08,4.7666,12170,11369,1,11369,1,1.5661e-05,-5.892e-09,0,1.5661e-05,-0.00018722,5.517e+06,-1813.9,0,5.517e+06,-224.24,11368,11756,1,11756,1,0.00022679,-4.3103e-09,0,0.00022679,-0.00014765,8.0074e+07,-1270.1,0,8.0074e+07,-42.18,11755,12533,1,12533,1,0.00078979,-8.5969e-10,0,0.00078979,-4.2232e-05,2.5643e+08,-240.46,0,2.5643e+08,32.626,12532,446.74,0,446.74,0,0.00030425,1.9612e-09,0,0.00030425,5.6988e-05,9.6004e+07,588.65,0,9.6004e+07,67.29,446.74,1
825,3.46,12164,1,12164,1,0.00050996,-2.9892e-09,0,0.00050996,-9.5251e-05,1.6856e+08,-882.71,0,1.6856e+08,-34.198,12163,12984,1,12984,1,0.0010041,2.0605e-09,0,0.0010041,-2.6376e-06,3.1893e+08,619.26,0,3.1893e+08,188.51,12983,12171,1,12171,1,0.00050996,-2.2691e-09,0,0.00050996,-9.5265e-05,1.7334e+08,-643.41,0,1.7334e+08,-31.872,12170,11369,1,11369,1,1.5881e-05,-1.0315e-08,0,1.5881e-05,-0.0001878,5.5991e+06,-3169.1,0,5.5991e+06,-223.7,11368,11756,1,11756,1,0.00022764,-5.7063e-09,0,0.00022764,-0.00014812,8.0371e+07,-1670.4,0,8.0371e+07,-77.681,11755,12533,1,12533,1,0.00079228,4.4422e-11,0,0.00079228,-4.2389e-05,2.57e+08,12.201,0,2.57e+08,8.8474,12532,446.74,0,446.74,0,0.00030514,3.4212e-09,0,0.00030514,5.7154e-05,9.6167e+07,1020.3,0,9.6167e+07,74.879,446.74,1
825,3.47,12164,1,12164,1,0.00051169,3.7521e-10,0,0.00051169,-9.5572e-05,1.6901e+08,106.99,0,1.6901e+08,-30.637,12163,12984,1,12984,1,0.0010073,1.1192e-09,0,0.0010073,-2.6773e-06,3.196e+08,316.91,0,3.196e+08,25.427,12983,12171,1,12171,1,0.00051169,3.5272e-10,0,0.00051169,-9.5586e-05,1.7385e+08,102.34,0,1.7385e+08,-28.253,12170,11369,1,11369,1,1.6103e-05,-5.1602e-10,0,1.6103e-05,-0.00018839,5.6817e+06,-153.89,0,5.6817e+06,-82.092,11368,11756,1,11756,1,0.0002285,2.7495e-11,0,0.0002285,-0.0001486,8.0675e+07,7.8997,0,8.0675e+07,-51.846,11755,12533,1,12533,1,0.00079487,7.3524e-10,0,0.00079487,-4.255e-05,2.5761e+08,210.71,0,2.5761e+08,-11.167,12532,446.74,0,446.74,0,0.00030607,4.2176e-10,0,0.00030607,5.7327e-05,9.6342e+07,120.07,0,9.6342e+07,24.146,446.74,1
825,3.48,12164,1,12164,1,0.00051335,-2.5701e-09,0,0.00051335,-9.5881e-05,1.6944e+08,-754.76,0,1.6944e+08,-41.84,12163,12984,1,12984,1,0.0010104,3.4776e-09,0,0.0010104,-2.717e-06,3.2023e+08,1057,0,3.2023e+08,142.17,12983,12171,1,12171,1,0.00051334,-1.8009e-09,0,0.00051334,-9.5896e-05,1.7433e+08,-502.72,0,1.7433e+08,-42.641,12170,11369,1,11369,1,1.633e-05,-9.3648e-09,0,1.633e-05,-0.00018898,5.7662e+06,-2860,0,5.7662e+06,-180.93,11368,11756,1,11756,1,0.00022934,-5.1385e-09,0,0.00022934,-0.00014906,8.0972e+07,-1493.4,0,8.0972e+07,-92.819,11755,12533,1,12533,1,0.00079735,3.4593e-11,0,0.00079735,-4.2707e-05,2.5816e+08,9.2346,0,2.5816e+08,0.69859,12532,446.74,0,446.74,0,0.00030695,3.2985e-09,0,0.00030695,5.7492e-05,9.6499e+07,981.18,0,9.6499e+07,66.92,446.74,1
825,3.49,12164,1,12164,1,0.00051504,-3.1697e-09,0,0.00051504,-9.6197e-05,1.6988e+08,-934.72,0,1.6988e+08,-50.687,12163,12984,1,12984,1,0.0010136,2.4709e-09,0,0.0010136,-2.7564e-06,3.2089e+08,765.03,0,3.2089e+08,179.36,12983,12171,1,12171,1,0.00051504,-2.5185e-09,0,0.00051504,-9.6211e-05,1.7482e+08,-701.65,0,1.7482e+08,-38.934,12170,11369,1,11369,1,1.6552e-05,-1.0394e-08,0,1.6552e-05,-0.00018957,5.8487e+06,-3202.9,0,5.8487e+06,-273.88,11368,11756,1,11756,1,0.0002302,-5.895e-09,0,0.0002302,-0.00014953,8.1274e+07,-1743.8,0,8.1274e+07,-101.16,11755,12533,1,12533,1,0.00079988,-8.1394e-11,0,0.00079988,-4.2867e-05,2.5875e+08,-22.735,0,2.5875e+08,-0.083899,12532,446.74,0,446.74,0,0.00030786,3.4545e-09,0,0.00030786,5.7662e-05,9.6668e+07,1031.5,0,9.6668e+07,85.851,446.74,1
825,3.5,12164,1,12164,1,0.00051674,1.4952e-09,0,0.00051674,-9.6513e-05,1.7032e+08,433.05,0,1.7032e+08,-69.615,12163,12984,1,12984,1,0.0010167,8.4621e-09,0,0.0010167,-2.7972e-06,3.2153e+08,2590.4,0,3.2153e+08,83.274,12983,12171,1,12171,1,0.00051674,7.4375e-10,0,0.00051674,-9.6528e-05,1.7531e+08,205.07,0,1.7531e+08,-61.981,12170,11369,1,11369,1,1.678e-05,-3.8968e-09,0,1.678e-05,-0.00019015,5.9335e+06,-1224,0,5.9335e+06,-196.77,11368,11756,1,11756,1,0.00023105,-2.6862e-10,0,0.00023105,-0.00015001,8.1576e+07,-74.743,0,8.1576e+07,-124.12,11755,12533,1,12533,1,0.00080243,3.3528e-09,0,0.00080243,-4.3026e-05,2.5933e+08,936.73,0,2.5933e+08,-24.502,12532,446.74,0,446.74,0,0.00030877,2.776e-09,0,0.00030877,5.7832e-05,9.6832e+07,825,0,9.6832e+07,66.151,446.74,1
825,3.51,12164,1,12164,1,0.00051847,9.9823e-10,0,0.00051847,-9.6835e-05,1.7076e+08,291.27,0,1.7076e+08,-39.213,12163,12984,1,12984,1,0.0010199,3.2222e-09,0,0.0010199,-2.8382e-06,3.2219e+08,1011.7,0,3.2219e+08,37.945,12983,12171,1,12171,1,0.00051847,7.1383e-10,0,0.00051847,-9.685e-05,1.7581e+08,202.57,0,1.7581e+08,-44.612,12170,11369,1,11369,1,1.7011e-05,-6.6259e-10,0,1.7011e-05,-0.00019075,6.0192e+06,-208.2,0,6.0192e+06,-97.539,11368,11756,1,11756,1,0.00023192,3.6403e-10,0,0.00023192,-0.00015049,8.1884e+07,99.724,0,8.1884e+07,-59.098,11755,12533,1,12533,1,0.00080501,1.5862e-09,0,0.00080501,-4.3189e-05,2.5992e+08,458.54,0,2.5992e+08,-20.083,12532,446.74,0,446.74,0,0.00030969,9.0365e-10,0,0.00030969,5.8004e-05,9.7e+07,273.17,0,9.7e+07,28.56,446.74,1
825,3.52,12164,1,12164,1,0.00052018,-3.5485e-09,0,0.00052018,-9.7154e-05,1.712e+08,-1040.2,0,1.712e+08,-26.285,12163,12984,1,12984,1,0.0010231,1.3115e-09,0,0.0010231,-2.8795e-06,3.2284e+08,348.65,0,3.2284e+08,137.21,12983,12171,1,12171,1,0.00052018,-3.4808e-09,0,0.00052018,-9.7169e-05,1.7631e+08,-987.48,0,1.7631e+08,-15.011,12170,11369,1,11369,1,1.7246e-05,-8.1301e-09,0,1.7246e-05,-0.00019135,6.1063e+06,-2487.5,0,6.1063e+06,-234.23,11368,11756,1,11756,1,0.00023279,-5.7003e-09,0,0.00023279,-0.00015096,8.2191e+07,-1669.2,0,8.2191e+07,-56.34,11755,12533,1,12533,1,0.00080756,-1.5503e-09,0,0.00080756,-4.3351e-05,2.6049e+08,-435.54,0,2.6049e+08,15.359,12532,446.74,0,446.74,0,0.00031061,2.4711e-09,0,0.00031061,5.8174e-05,9.7162e+07,741.89,0,9.7162e+07,63.16,446.74,1
825,3.53,12164,1,12164,1,0.00052187,-3.1298e-09,0,0.00052187,-9.7469e-05,1.7163e+08,-921.38,0,1.7163e+08,-21.877,12163,12984,1,12984,1,0.0010263,1.222e-09,0,0.0010263,-2.921e-06,3.2346e+08,324.77,0,3.2346e+08,132.33,12983,12171,1,12171,1,0.00052187,-2.821e-09,0,0.00052187,-9.7484e-05,1.768e+08,-809.15,0,1.768e+08,-14.392,12170,11369,1,11369,1,1.7477e-05,-8.3283e-09,0,1.7477e-05,-0.00019194,6.1924e+06,-2572.7,0,6.1924e+06,-177.42,11368,11756,1,11756,1,0.00023365,-5.2052e-09,0,0.00023365,-0.00015143,8.2494e+07,-1520,0,8.2494e+07,-57.989,11755,12533,1,12533,1,0.00081009,-9.8727e-10,0,0.00081009,-4.3511e-05,2.6106e+08,-277.36,0,2.6106e+08,18.432,12532,446.74,0,446.74,0,0.00031151,2.5454e-09,0,0.00031151,5.8343e-05,9.732e+07,764.93,0,9.732e+07,58.233,446.74,1
825,3.54,12164,1,12164,1,0.00052358,-1.5312e-09,0,0.00052358,-9.7787e-05,1.7207e+08,-455.09,0,1.7207e+08,-18.424,12163,12984,1,12984,1,0.0010295,1.0929e-09,0,0.0010295,-2.9625e-06,3.241e+08,290.24,0,3.241e+08,108.25,12983,12171,1,12171,1,0.00052358,-1.1415e-09,0,0.00052358,-9.7802e-05,1.7729e+08,-330.86,0,1.7729e+08,-13.383,12170,11369,1,11369,1,1.771e-05,-5.4523e-09,0,1.771e-05,-0.00019253,6.2788e+06,-1698.2,0,6.2788e+06,-137.75,11368,11756,1,11756,1,0.00023452,-2.9594e-09,0,0.00023452,-0.00015191,8.28e+07,-862.98,0,8.28e+07,-54.807,11755,12533,1,12533,1,0.00081264,5.6788e-12,0,0.00081264,-4.3672e-05,2.6164e+08,1.6866,0,2.6164e+08,17.465,12532,446.74,0,446.74,0,0.00031242,1.7858e-09,0,0.00031242,5.8513e-05,9.7482e+07,533.24,0,9.7482e+07,49.785,446.74,1
825,3.55,12164,1,12164,1,0.00052529,-3.6952e-09,0,0.00052529,-9.8105e-05,1.7251e+08,-1086,0,1.7251e+08,-9.3725,12163,12984,1,12984,1,0.0010327,1.0301e-09,0,0.0010327,-3.0046e-06,3.2474e+08,273.17,0,3.2474e+08,132.08,12983,12171,1,12171,1,0.00052529,-4.1243e-09,0,0.00052529,-9.812e-05,1.7778e+08,-1182.2,0,1.7778e+08,6.4443,12170,11369,1,11369,1,1.7947e-05,-7.5645e-09,0,1.7947e-05,-0.00019313,6.3666e+06,-2335.9,0,6.3666e+06,-193.18,11368,11756,1,11756,1,0.00023538,-5.5932e-09,0,0.00023538,-0.00015238,8.3106e+07,-1659.6,0,8.3106e+07,-47.109,11755,12533,1,12533,1,0.00081519,-1.8086e-09,0,0.00081519,-4.3834e-05,2.6221e+08,-494.34,0,2.6221e+08,31.327,12532,446.74,0,446.74,0,0.00031333,2.3686e-09,0,0.00031333,5.8682e-05,9.7641e+07,716.83,0,9.7641e+07,64.257,446.74,1
825,3.56,12164,1,12164,1,0.00052699,-1.3254e-09,0,0.00052699,-9.8421e-05,1.7294e+08,-394.58,0,1.7294e+08,-32.524,12163,12984,1,12984,1,0.0010358,3.3394e-09,0,0.0010358,-3.0469e-06,3.2536e+08,993.9,0,3.2536e+08,102.4,12983,12171,1,12171,1,0.00052699,-9.4826e-10,0,0.00052699,-9.8437e-05,1.7827e+08,-264.9,0,1.7827e+08,-19.654,12170,11369,1,11369,1,1.8183e-05,-6.0569e-09,0,1.8183e-05,-0.00019371,6.4544e+06,-1882.3,0,6.4544e+06,-210.31,11368,11756,1,11756,1,0.00023625,-3.15e-09,0,0.00023625,-0.00015286,8.3411e+07,-924.26,0,8.3411e+07,-67.457,11755,12533,1,12533,1,0.00081773,4.4302e-10,0,0.00081773,-4.3995e-05,2.6277e+08,118.8,0,2.6277e+08,7.6812,12532,446.74,0,446.74,0,0.00031423,2.3225e-09,0,0.00031423,5.8851e-05,9.7798e+07,689.9,0,9.7798e+07,62.227,446.74,1
825,3.57,12164,1,12164,1,0.0005287,-5.1989e-09,0,0.0005287,-9.8741e-05,1.7337e+08,-1527.2,0,1.7337e+08,-16.606,12163,12984,1,12984,1,0.001039,1.9478e-09,0,0.001039,-3.089e-06,3.26e+08,515.08,0,3.26e+08,243.6,12983,12171,1,12171,1,0.0005287,-5.5389e-09,0,0.0005287,-9.8756e-05,1.7876e+08,-1610.9,0,1.7876e+08,6.108,12170,11369,1,11369,1,1.8422e-05,-1.0671e-08,0,1.8422e-05,-0.00019431,6.543e+06,-3284.6,0,6.543e+06,-376.93,11368,11756,1,11756,1,0.00023712,-8.225e-09,0,0.00023712,-0.00015333,8.3719e+07,-2437.7,0,8.3719e+07,-78.005,11755,12533,1,12533,1,0.00082027,-2.5599e-09,0,0.00082027,-4.4158e-05,2.6334e+08,-694.04,0,2.6334e+08,69.762,12532,446.74,0,446.74,0,0.00031514,3.5227e-09,0,0.00031514,5.902e-05,9.7956e+07,1059.6,0,9.7956e+07,121.29,446.74,1
825,3.58,12164,1,12164,1,0.00053042,-1.2137e-09,0,0.00053042,-9.906e-05,1.7381e+08,-364.02,0,1.7381e+08,-23.586,12163,12984,1,12984,1,0.0010422,1.916e-09,0,0.0010422,-3.1324e-06,3.2662e+08,563.72,0,3.2662e+08,100.86,12983,12171,1,12171,1,0.00053042,-6.3688e-10,0,0.00053042,-9.9076e-05,1.7925e+08,-177.5,0,1.7925e+08,-14.251,12170,11369,1,11369,1,1.8662e-05,-5.8835e-09,0,1.8662e-05,-0.0001949,6.6321e+06,-1843.1,0,6.6321e+06,-171.25,11368,11756,1,11756,1,0.00023799,-2.7426e-09,0,0.00023799,-0.00015381,8.4026e+07,-807.58,0,8.4026e+07,-62.831,11755,12533,1,12533,1,0.00082284,5.0308e-10,0,0.00082284,-4.4321e-05,2.6391e+08,137.36,0,2.6391e+08,17.811,12532,446.74,0,446.74,0,0.00031605,2.0793e-09,0,0.00031605,5.919e-05,9.8113e+07,619.11,0,9.8113e+07,57.309,446.74,1
825,3.59,12164,1,12164,1,0.00053215,-3.8773e-09,0,0.00053215,-9.9381e-05,1.7425e+08,-1140.3,0,1.7425e+08,-20.258,12163,12984,1,12984,1,0.0010454,1.4958e-09,0,0.0010454,-3.1758e-06,3.2726e+08,394.8,0,3.2726e+08,178.05,12983,12171,1,12171,1,0.00053215,-4.063e-09,0,0.00053215,-9.9397e-05,1.7975e+08,-1200.4,0,1.7975e+08,-4.435,12170,11369,1,11369,1,1.8906e-05,-8.6412e-09,0,1.8906e-05,-0.0001955,6.7225e+06,-2668.9,0,6.7225e+06,-255.94,11368,11756,1,11756,1,0.00023887,-6.0579e-09,0,0.00023887,-0.00015429,8.4337e+07,-1794.5,0,8.4337e+07,-67.276,11755,12533,1,12533,1,0.00082541,-1.8104e-09,0,0.00082541,-4.4485e-05,2.6448e+08,-488.61,0,2.6448e+08,39.305,12532,446.74,0,446.74,0,0.00031697,2.7199e-09,0,0.00031697,5.9361e-05,9.827e+07,818.53,0,9.827e+07,84.635,446.74,1
825,3.6,12164,1,12164,1,0.00053388,-2.1492e-09,0,0.00053388,-9.9704e-05,1.7468e+08,-634.31,0,1.7468e+08,-3.6698,12163,12984,1,12984,1,0.0010486,7.331e-10,0,0.0010486,-3.22e-06,3.2788e+08,193.51,0,3.2788e+08,65.282,12983,12171,1,12171,1,0.00053388,-2.3577e-09,0,0.00053388,-9.972e-05,1.8024e+08,-676.76,0,1.8024e+08,4.3314,12170,11369,1,11369,1,1.9151e-05,-5.3241e-09,0,1.9151e-05,-0.0001961,6.8134e+06,-1635.9,0,6.8134e+06,-120.85,11368,11756,1,11756,1,0.00023975,-3.5367e-09,0,0.00023975,-0.00015477,8.4648e+07,-1058.8,0,8.4648e+07,-17.151,11755,12533,1,12533,1,0.000828,-7.9319e-10,0,0.000828,-4.4649e-05,2.6505e+08,-216.37,0,2.6505e+08,12.979,12532,446.74,0,446.74,0,0.00031789,1.5806e-09,0,0.00031789,5.9532e-05,9.8426e+07,478.38,0,9.8426e+07,31.782,446.74,1
825,3.61,12164,1,12164,1,0.00053559,-1.4748e-09,0,0.00053559,-0.00010002,1.7511e+08,-437.97,0,1.7511e+08,-5.4054,12163,12984,1,12984,1,0.0010518,1.5381e-09,0,0.0010518,-3.264e-06,3.2849e+08,438.9,0,3.2849e+08,142.1,12983,12171,1,12171,1,0.00053558,-1.0315e-09,0,0.00053558,-0.00010004,1.8073e+08,-287.18,0,1.8073e+08,-2.1165,12170,11369,1,11369,1,1.9399e-05,-5.8144e-09,0,1.9399e-05,-0.00019669,6.905e+06,-1799.1,0,6.905e+06,-140.29,11368,11756,1,11756,1,0.00024063,-3.0618e-09,0,0.00024063,-0.00015524,8.4956e+07,-906.28,0,8.4956e+07,-37.196,11755,12533,1,12533,1,0.00083054,3.315e-10,0,0.00083054,-4.4812e-05,2.656e+08,90.492,0,2.656e+08,21.8,12532,446.74,0,446.74,0,0.00031879,2.0252e-09,0,0.00031879,5.97e-05,9.8575e+07,601.15,0,9.8575e+07,48.298,446.74,1
825,3.62,12164,1,12164,1,0.00053732,-4.9739e-10,0,0.00053732,-0.00010034,1.7555e+08,-150.66,0,1.7555e+08,-9.1403,12163,12984,1,12984,1,0.001055,5.3554e-10,0,0.001055,-3.3084e-06,3.2912e+08,141,0,3.2912e+08,36.812,12983,12171,1,12171,1,0.00053732,-5.2202e-10,0,0.00053732,-0.00010036,1.8122e+08,-150.1,0,1.8122e+08,-0.28672,12170,11369,1,11369,1,1.9646e-05,-1.5557e-09,0,1.9646e-05,-0.00019729,6.9965e+06,-488.58,0,6.9965e+06,-88.893,11368,11756,1,11756,1,0.00024151,-1.0812e-09,0,0.00024151,-0.00015572,8.5268e+07,-321.61,0,8.5268e+07,-21.01,11755,12533,1,12533,1,0.00083313,8.5951e-11,0,0.00083313,-4.4977e-05,2.6617e+08,23.495,0,2.6617e+08,7.3328,12532,446.74,0,446.74,0,0.00031971,6.3625e-10,0,0.00031971,5.9872e-05,9.8732e+07,188.19,0,9.8732e+07,25.269,446.74,1
825,3.63,12164,1,12164,1,0.00053901,-2.4765e-09,0,0.00053901,-0.00010066,1.7597e+08,-727.8,0,1.7597e+08,-12.17,12163,12984,1,12984,1,0.0010582,3.9961e-09,0,0.0010582,-3.3528e-06,3.2972e+08,1209.6,0,3.2972e+08,202.78,12983,12171,1,12171,1,0.00053901,-1.7574e-09,0,0.00053901,-0.00010068,1.817e+08,-504.35,0,1.817e+08,-5.257,12170,11369,1,11369,1,1.9895e-05,-9.3796e-09,0,1.9895e-05,-0.00019788,7.0889e+06,-2876.5,0,7.0889e+06,-201.94,11368,11756,1,11756,1,0.00024238,-5.4413e-09,0,0.00024238,-0.00015619,8.5575e+07,-1575.8,0,8.5575e+07,-75.666,11755,12533,1,12533,1,0.00083564,2.7991e-10,0,0.00083564,-4.5139e-05,2.6671e+08,73.937,0,2.6671e+08,38.156,12532,446.74,0,446.74,0,0.0003206,3.4927e-09,0,0.0003206,6.0038e-05,9.8876e+07,1035.3,0,9.8876e+07,77.653,446.74,1
825,3.64,12164,1,12164,1,0.00054075,-3.9193e-09,0,0.00054075,-0.00010098,1.7641e+08,-1151.1,0,1.7641e+08,-35.501,12163,12984,1,12984,1,0.0010614,1.7466e-09,0,0.0010614,-3.3974e-06,3.3034e+08,458.36,0,3.3034e+08,158.78,12983,12171,1,12171,1,0.00054075,-3.838e-09,0,0.00054075,-0.000101,1.822e+08,-1105.6,0,1.822e+08,-19.082,12170,11369,1,11369,1,2.0143e-05,-9.7078e-09,0,2.0143e-05,-0.00019848,7.1806e+06,-3002.8,0,7.1806e+06,-246.95,11368,11756,1,11756,1,0.00024327,-6.1535e-09,0,0.00024327,-0.00015667,8.5888e+07,-1802.9,0,8.5888e+07,-91.314,11755,12533,1,12533,1,0.00083822,-1.8298e-09,0,0.00083822,-4.5304e-05,2.6728e+08,-494.95,0,2.6728e+08,26.953,12532,446.74,0,446.74,0,0.00032152,2.9144e-09,0,0.00032152,6.0209e-05,9.9031e+07,876.63,0,9.9031e+07,82.681,446.74,1
825,3.65,12164,1,12164,1,0.00054248,-4.4852e-09,0,0.00054248,-0.0001013,1.7684e+08,-1317.5,0,1.7684e+08,-22.018,12163,12984,1,12984,1,0.0010646,1.5078e-09,0,0.0010646,-3.443e-06,3.3095e+08,395.35,0,3.3095e+08,172.81,12983,12171,1,12171,1,0.00054247,-4.6058e-09,0,0.00054247,-0.00010132,1.8269e+08,-1339,0,1.8269e+08,-2.7512,12170,11369,1,11369,1,2.0396e-05,-1.0207e-08,0,2.0396e-05,-0.00019908,7.274e+06,-3163.3,0,7.274e+06,-269.56,11368,11756,1,11756,1,0.00024415,-7.0609e-09,0,0.00024415,-0.00015715,8.6201e+07,-2074.9,0,8.6201e+07,-75.849,11755,12533,1,12533,1,0.00084079,-2.0795e-09,0,0.00084079,-4.5469e-05,2.6783e+08,-559.87,0,2.6783e+08,39.543,12532,446.74,0,446.74,0,0.00032243,3.1709e-09,0,0.00032243,6.0379e-05,9.9179e+07,956.7,0,9.9179e+07,86.013,446.74,1
825,3.66,12164,1,12164,1,0.0005442,-1.5258e-09,0,0.0005442,-0.00010162,1.7727e+08,-454.82,0,1.7727e+08,-20.953,12163,12984,1,12984,1,0.0010678,1.755e-09,0,0.0010678,-3.4886e-06,3.3155e+08,505.02,0,3.3155e+08,104.33,12983,12171,1,12171,1,0.0005442,-9.0451e-10,0,0.0005442,-0.00010164,1.8317e+08,-249.76,0,1.8317e+08,-17.429,12170,11369,1,11369,1,2.0649e-05,-6.6356e-09,0,2.0649e-05,-0.00019967,7.3677e+06,-2072.9,0,7.3677e+06,-144.31,11368,11756,1,11756,1,0.00024503,-3.1736e-09,0,0.00024503,-0.00015763,8.6512e+07,-935.14,0,8.6512e+07,-59.295,11755,12533,1,12533,1,0.00084336,4.1461e-10,0,0.00084336,-4.5634e-05,2.6839e+08,109.62,0,2.6839e+08,15.752,12532,446.74,0,446.74,0,0.00032334,2.2599e-09,0,0.00032334,6.0548e-05,9.9326e+07,673.05,0,9.9326e+07,50.223,446.74,1
825,3.67,12164,1,12164,1,0.00054595,-3.5631e-09,0,0.00054595,-0.00010195,1.777e+08,-1044.4,0,1.777e+08,-10.7,12163,12984,1,12984,1,0.001071,9.0126e-10,0,0.001071,-3.5348e-06,3.3217e+08,235.78,0,3.3217e+08,94.491,12983,12171,1,12171,1,0.00054595,-4.1109e-09,0,0.00054595,-0.00010197,1.8367e+08,-1158.5,0,1.8367e+08,4.1564,12170,11369,1,11369,1,2.0906e-05,-6.3498e-09,0,2.0906e-05,-0.00020027,7.4627e+06,-1965.9,0,7.4627e+06,-182.41,11368,11756,1,11756,1,0.00024593,-5.5976e-09,0,0.00024593,-0.00015811,8.6828e+07,-1677.1,0,8.6828e+07,-40.148,11755,12533,1,12533,1,0.00084596,-1.7732e-09,0,0.00084596,-4.5801e-05,2.6895e+08,-474.86,0,2.6895e+08,29.59,12532,446.74,0,446.74,0,0.00032426,2.2372e-09,0,0.00032426,6.072e-05,9.9477e+07,678.09,0,9.9477e+07,56.513,446.74,1
825,3.68,12164,1,12164,1,0.00054768,-5.109e-09,0,0.00054768,-0.00010227,1.7813e+08,-1498.8,0,1.7813e+08,-7.3807,12163,12984,1,12984,1,0.0010742,1.8897e-09,0,0.0010742,-3.5812e-06,3.3277e+08,493.43,0,3.3277e+08,268.66,12983,12171,1,12171,1,0.00054768,-5.1201e-09,0,0.00054768,-0.00010229,1.8416e+08,-1449.7,0,1.8416e+08,9.1032,12170,11369,1,11369,1,2.1164e-05,-1.207e-08,0,2.1164e-05,-0.00020087,7.5581e+06,-3717.1,0,7.5581e+06,-305.25,11368,11756,1,11756,1,0.00024682,-8.3272e-09,0,0.00024682,-0.00015859,8.7143e+07,-2443.7,0,8.7143e+07,-77.96,11755,12533,1,12533,1,0.00084852,-1.9624e-09,0,0.00084852,-4.5967e-05,2.6949e+08,-539.78,0,2.6949e+08,69.941,12532,446.74,0,446.74,0,0.00032517,3.8126e-09,0,0.00032517,6.0889e-05,9.962e+07,1144.8,0,9.962e+07,112.53,446.74,1
825,3.69,12164,1,12164,1,0.00054942,-6.7359e-10,0,0.00054942,-0.0001026,1.7856e+08,-206,0,1.7856e+08,-20.868,12163,12984,1,12984,1,0.0010774,6.4385e-10,0,0.0010774,-3.6283e-06,3.3336e+08,168.4,0,3.3336e+08,36.228,12983,12171,1,12171,1,0.00054941,-3.3987e-10,0,0.00054941,-0.00010261,1.8465e+08,-98.177,0,1.8465e+08,-9.114,12170,11369,1,11369,1,2.1424e-05,-3.4414e-09,0,2.1424e-05,-0.00020147,7.6539e+06,-1081.1,0,7.6539e+06,-111.73,11368,11756,1,11756,1,0.00024771,-1.4815e-09,0,0.00024771,-0.00015907,8.7457e+07,-434.85,0,8.7457e+07,-43.186,11755,12533,1,12533,1,0.00085112,3.2836e-10,0,0.00085112,-4.6134e-05,2.7005e+08,88.165,0,2.7005e+08,3.8505,12532,446.74,0,446.74,0,0.00032608,1.1442e-09,0,0.00032608,6.1059e-05,9.9767e+07,341.63,0,9.9767e+07,33.953,446.74,1
825,3.7,12164,1,12164,1,0.00055116,-3.6579e-09,0,0.00055116,-0.00010292,1.7899e+08,-1072.4,0,1.7899e+08,21.185,12163,12984,1,12984,1,0.0010807,1.6418e-09,0,0.0010807,-3.675e-06,3.3397e+08,427.69,0,3.3397e+08,265.52,12983,12171,1,12171,1,0.00055115,-3.7802e-09,0,0.00055115,-0.00010294,1.8514e+08,-1059.1,0,1.8514e+08,31.935,12170,11369,1,11369,1,2.1686e-05,-8.0296e-09,0,2.1686e-05,-0.00020207,7.7507e+06,-2473.1,0,7.7507e+06,-236.61,11368,11756,1,11756,1,0.00024861,-5.8928e-09,0,0.00024861,-0.00015955,8.7774e+07,-1714.8,0,8.7774e+07,-33.137,11755,12533,1,12533,1,0.00085369,-1.6765e-09,0,0.00085369,-4.63e-05,2.7059e+08,-466.81,0,2.7059e+08,82.149,12532,446.74,0,446.74,0,0.00032699,2.6047e-09,0,0.00032699,6.1229e-05,9.9911e+07,782.6,0,9.9911e+07,96.308,446.74,1
825,3.71,12164,1,12164,1,0.0005529,-2.1773e-09,0,0.0005529,-0.00010324,1.7942e+08,-642.19,0,1.7942e+08,2.1542,12163,12984,1,12984,1,0.0010839,8.7922e-10,0,0.0010839,-3.7229e-06,3.3456e+08,229.03,0,3.3456e+08,119.93,12983,12171,1,12171,1,0.0005529,-2.3259e-09,0,0.0005529,-0.00010326,1.8563e+08,-662.24,0,1.8563e+08,15.967,12170,11369,1,11369,1,2.1949e-05,-4.7828e-09,0,2.1949e-05,-0.00020267,7.8478e+06,-1489.1,0,7.8478e+06,-190.78,11368,11756,1,11756,1,0.0002495,-3.6644e-09,0,0.0002495,-0.00016004,8.809e+07,-1090.2,0,8.809e+07,-32.4,11755,12533,1,12533,1,0.00085629,-7.326e-10,0,0.00085629,-4.6468e-05,2.7114e+08,-197.61,0,2.7114e+08,52.243,12532,446.74,0,446.74,0,0.00032791,1.6811e-09,0,0.00032791,6.1399e-05,1.0005e+08,506.66,0,1.0005e+08,67.975,446.74,1
825,3.72,12164,1,12164,1,0.00055463,-3.7646e-10,0,0.00055463,-0.00010357,1.7984e+08,-116.6,0,1.7984e+08,-1.0482,12163,12984,1,12984,1,0.0010871,1.1043e-09,0,0.0010871,-3.7709e-06,3.3514e+08,315.7,0,3.3514e+08,79.917,12983,12171,1,12171,1,0.00055463,-2.3596e-11,0,0.00055463,-0.00010358,1.8611e+08,-6.0438,0,1.8611e+08,2.3542,12170,11369,1,11369,1,2.2214e-05,-2.8343e-09,0,2.2214e-05,-0.00020326,7.9456e+06,-890.29,0,7.9456e+06,-76.086,11368,11756,1,11756,1,0.0002504,-1.0545e-09,0,0.0002504,-0.00016052,8.8405e+07,-307.33,0,8.8405e+07,-24.426,11755,12533,1,12533,1,0.00085887,4.2647e-10,0,0.00085887,-4.6634e-05,2.7168e+08,113.39,0,2.7168e+08,19.326,12532,446.74,0,446.74,0,0.00032881,1.0333e-09,0,0.00032881,6.1569e-05,1.0019e+08,305.46,0,1.0019e+08,32.356,446.74,1
825,3.73,12164,1,12164,1,0.00055638,2.2517e-09,0,0.00055638,-0.00010389,1.8026e+08,653.16,0,1.8026e+08,-11.254,12163,12984,1,12984,1,0.0010903,7.2881e-09,0,0.0010903,-3.8224e-06,3.3572e+08,2214,0,3.3572e+08,116.91,12983,12171,1,12171,1,0.00055638,1.8959e-09,0,0.00055638,-0.00010391,1.8659e+08,524.77,0,1.8659e+08,-13.644,12170,11369,1,11369,1,2.25e-05,-9.8652e-10,0,2.25e-05,-0.00020386,8.0512e+06,-310.16,0,8.0512e+06,-85.778,11368,11756,1,11756,1,0.00025131,4.2395e-10,0,0.00025131,-0.000161,8.8718e+07,115.33,0,8.8718e+07,-40.723,11755,12533,1,12533,1,0.00086146,3.8169e-09,0,0.00086146,-4.6804e-05,2.7221e+08,1111,0,2.7221e+08,11.986,12532,446.74,0,446.74,0,0.00032972,2.0271e-09,0,0.00032972,6.1737e-05,1.0033e+08,603.13,0,1.0033e+08,40.574,446.74,1
825,3.74,12164,1,12164,1,0.00055818,-3.1503e-09,0,0.00055818,-0.00010423,1.8068e+08,-917.3,0,1.8068e+08,-27.193,12163,12984,1,12984,1,0.0010936,2.2749e-09,0,0.0010936,-3.8779e-06,3.3629e+08,714.35,0,3.3629e+08,128.36,12983,12171,1,12171,1,0.00055818,-2.6657e-09,0,0.00055818,-0.00010424,1.8706e+08,-737.63,0,1.8706e+08,-17.924,12170,11369,1,11369,1,2.2806e-05,-9.4244e-09,0,2.2806e-05,-0.00020448,8.1642e+06,-2879,0,8.1642e+06,-237.6,11368,11756,1,11756,1,0.00025226,-5.7585e-09,0,0.00025226,-0.00016149,8.9036e+07,-1663.2,0,8.9036e+07,-77.383,11755,12533,1,12533,1,0.0008641,-2.6853e-10,0,0.0008641,-4.6981e-05,2.7273e+08,-71.779,0,2.7273e+08,25.421,12532,446.74,0,446.74,0,0.00033064,3.157e-09,0,0.00033064,6.1909e-05,1.0046e+08,937.33,0,1.0046e+08,71.773,446.74,1
825,3.75,12164,1,12164,1,0.00055999,2.5904e-09,0,0.00055999,-0.00010456,1.8109e+08,752.11,0,1.8109e+08,-18.759,12163,12984,1,12984,1,0.0010969,7.9224e-09,0,0.0010969,-3.9352e-06,3.3685e+08,2407.5,0,3.3685e+08,123.5,12983,12171,1,12171,1,0.00055999,2.2763e-09,0,0.00055999,-0.00010458,1.8753e+08,625.07,0,1.8753e+08,-14.198,12170,11369,1,11369,1,2.3121e-05,-2.2734e-09,0,2.3121e-05,-0.00020509,8.2804e+06,-714.6,0,8.2804e+06,-137.39,11368,11756,1,11756,1,0.00025321,5.2381e-10,0,0.00025321,-0.00016199,8.9355e+07,147.22,0,8.9355e+07,-64.012,11755,12533,1,12533,1,0.00086677,4.7549e-09,0,0.00086677,-4.7158e-05,2.7325e+08,1366.6,0,2.7325e+08,20.909,12532,446.74,0,446.74,0,0.00033156,2.442e-09,0,0.00033156,6.2081e-05,1.0058e+08,724.39,0,1.0058e+08,58.212,446.74,1
825,3.76,12164,1,12164,1,0.00056184,9.8147e-10,0,0.00056184,-0.00010491,1.8151e+08,289.77,0,1.8151e+08,-63.665,12163,12984,1,12984,1,0.0011002,3.2664e-09,0,0.0011002,-3.9961e-06,3.3739e+08,1026.2,0,3.3739e+08,36.254,12983,12171,1,12171,1,0.00056183,7.8499e-10,0,0.00056183,-0.00010492,1.8801e+08,220.16,0,1.8801e+08,-59.548,12170,11369,1,11369,1,2.3454e-05,-5.6508e-10,0,2.3454e-05,-0.00020571,8.4031e+06,-146.46,0,8.4031e+06,-167.98,11368,11756,1,11756,1,0.00025419,2.137e-10,0,0.00025419,-0.00016249,8.9675e+07,58.245,0,8.9675e+07,-97.117,11755,12533,1,12533,1,0.00086948,1.637e-09,0,0.00086948,-4.7341e-05,2.7377e+08,476.82,0,2.7377e+08,-25.771,12532,446.74,0,446.74,0,0.0003325,9.7551e-10,0,0.0003325,6.2255e-05,1.0071e+08,293.85,0,1.0071e+08,46.208,446.74,1
825,3.77,12164,1,12164,1,0.00056368,-3.0872e-09,0,0.00056368,-0.00010525,1.8192e+08,-897.67,0,1.8192e+08,8.3098,12163,12984,1,12984,1,0.0011036,9.7307e-10,0,0.0011036,-4.0576e-06,3.3794e+08,250.95,0,3.3794e+08,180.81,12983,12171,1,12171,1,0.00056368,-3.527e-09,0,0.00056368,-0.00010527,1.8847e+08,-1000.2,0,1.8847e+08,16.048,12170,11369,1,11369,1,2.3794e-05,-5.479e-09,0,2.3794e-05,-0.00020634,8.5285e+06,-1654.8,0,8.5285e+06,-204.24,11368,11756,1,11756,1,0.00025518,-4.5932e-09,0,0.00025518,-0.00016299,8.9995e+07,-1347.4,0,8.9995e+07,-34.391,11755,12533,1,12533,1,0.00087218,-1.8489e-09,0,0.00087218,-4.7524e-05,2.7428e+08,-490.37,0,2.7428e+08,52.282,12532,446.74,0,446.74,0,0.00033343,1.8397e-09,0,0.00033343,6.2428e-05,1.0082e+08,551.52,0,1.0082e+08,69.452,446.74,1
825,3.78,12164,1,12164,1,0.00056549,-3.7129e-09,0,0.00056549,-0.00010559,1.8231e+08,-1086.8,0,1.8231e+08,6.0607,12163,12984,1,12984,1,0.0011069,4.2014e-09,0,0.0011069,-4.1191e-06,3.3846e+08,1276,0,3.3846e+08,432.65,12983,12171,1,12171,1,0.00056548,-2.6968e-09,0,0.00056548,-0.0001056,1.8892e+08,-774.19,0,1.8892e+08,-1.7057,12170,11369,1,11369,1,2.4133e-05,-1.311e-08,0,2.4133e-05,-0.00020695,8.6534e+06,-4001.9,0,8.6534e+06,-275.16,11368,11756,1,11756,1,0.00025615,-7.7125e-09,0,0.00025615,-0.00016348,9.031e+07,-2219.1,0,9.031e+07,-80.954,11755,12533,1,12533,1,0.00087482,2.9354e-10,0,0.00087482,-4.7704e-05,2.7476e+08,78.208,0,2.7476e+08,81.887,12532,446.74,0,446.74,0,0.00033433,4.7384e-09,0,0.00033433,6.2596e-05,1.0093e+08,1402.1,0,1.0093e+08,137.15,446.74,1
825,3.79,12164,1,12164,1,0.00056733,-2.0038e-09,0,0.00056733,-0.00010593,1.8273e+08,-592.83,0,1.8273e+08,-41.541,12163,12984,1,12984,1,0.0011102,2.423e-09,0,0.0011102,-4.1814e-06,3.39e+08,758.36,0,3.39e+08,182.74,12983,12171,1,12171,1,0.00056733,-1.1382e-09,0,0.00056733,-0.00010595,1.8939e+08,-315.38,0,1.8939e+08,-35.864,12170,11369,1,11369,1,2.447e-05,-8.2507e-09,0,2.447e-05,-0.00020757,8.7777e+06,-2570.3,0,8.7777e+06,-243.42,11368,11756,1,11756,1,0.00025713,-4.0137e-09,0,0.00025713,-0.00016399,9.063e+07,-1176,0,9.063e+07,-97.05,11755,12533,1,12533,1,0.00087752,2.2989e-10,0,0.00087752,-4.7887e-05,2.7527e+08,61.938,0,2.7527e+08,13.93,12532,446.74,0,446.74,0,0.00033526,2.7868e-09,0,0.00033526,6.2769e-05,1.0105e+08,829.95,0,1.0105e+08,86.473,446.74,1
825,3.8,12164,1,12164,1,0.00056918,-2.0282e-09,0,0.00056918,-0.00010627,1.8313e+08,-598.75,0,1.8313e+08,-26.443,12163,12984,1,12984,1,0.0011136,1.4617e-09,0,0.0011136,-4.2447e-06,3.3953e+08,376.13,0,3.3953e+08,155.62,12983,12171,1,12171,1,0.00056918,-1.6036e-09,0,0.00056918,-0.00010629,1.8986e+08,-445.95,0,1.8986e+08,-15.656,12170,11369,1,11369,1,2.4816e-05,-6.6722e-09,0,2.4816e-05,-0.0002082,8.9049e+06,-2084.8,0,8.9049e+06,-227.66,11368,11756,1,11756,1,0.00025812,-3.7214e-09,0,0.00025812,-0.00016449,9.0951e+07,-1105.1,0,9.0951e+07,-75.673,11755,12533,1,12533,1,0.00088023,-1.0192e-10,0,0.00088023,-4.8071e-05,2.7578e+08,-26.083,0,2.7578e+08,28.605,12532,446.74,0,446.74,0,0.00033619,2.2076e-09,0,0.00033619,6.2943e-05,1.0117e+08,658.66,0,1.0117e+08,76.614,446.74,1
825,3.81,12164,1,12164,1,0.00057105,1.9562e-09,0,0.00057105,-0.00010662,1.8355e+08,562.57,0,1.8355e+08,-50.293,12163,12984,1,12984,1,0.0011169,3.2179e-09,0,0.0011169,-4.309e-06,3.4007e+08,941.58,0,3.4007e+08,61.119,12983,12171,1,12171,1,0.00057105,2.2243e-09,0,0.00057105,-0.00010664,1.9033e+08,640.32,0,1.9033e+08,-47.378,12170,11369,1,11369,1,2.5166e-05,-4.7146e-10,0,2.5166e-05,-0.00020882,9.0338e+06,-120.9,0,9.0338e+06,-160.79,11368,11756,1,11756,1,0.00025912,1.3486e-09,0,0.00025912,-0.000165,9.1275e+07,375.19,0,9.1275e+07,-92.396,11755,12533,1,12533,1,0.00088298,2.7339e-09,0,0.00088298,-4.8257e-05,2.7628e+08,801.1,0,2.7628e+08,-7.2562,12532,446.74,0,446.74,0,0.00033713,9.9372e-10,0,0.00033713,6.3117e-05,1.0128e+08,294.35,0,1.0128e+08,51.193,446.74,1
825,3.82,12164,1,12164,1,0.00057289,-2.1653e-09,0,0.00057289,-0.00010696,1.8395e+08,-629.09,0,1.8395e+08,-0.81318,12163,12984,1,12984,1,0.0011203,9.9329e-10,0,0.0011203,-4.3733e-06,3.4059e+08,279.63,0,3.4059e+08,165.78,12983,12171,1,12171,1,0.00057289,-1.8762e-09,0,0.00057289,-0.00010698,1.9078e+08,-533.88,0,1.9078e+08,4.3802,12170,11369,1,11369,1,2.5519e-05,-5.8307e-09,0,2.5519e-05,-0.00020944,9.1638e+06,-1771.4,0,9.1638e+06,-135.3,11368,11756,1,11756,1,0.00026011,-3.8188e-09,0,0.00026011,-0.0001655,9.1595e+07,-1111,0,9.1595e+07,-39.401,11755,12533,1,12533,1,0.00088566,-4.1815e-10,0,0.00088566,-4.844e-05,2.7677e+08,-114.55,0,2.7677e+08,36.401,12532,446.74,0,446.74,0,0.00033805,1.9432e-09,0,0.00033805,6.3288e-05,1.0139e+08,576.75,0,1.0139e+08,59.586,446.74,1
825,3.83,12164,1,12164,1,0.00057475,9.147e-10,0,0.00057475,-0.00010731,1.8435e+08,259,0,1.8435e+08,-30.645,12163,12984,1,12984,1,0.0011236,2.5137e-09,0,0.0011236,-4.4381e-06,3.4111e+08,771.81,0,3.4111e+08,23.22,12983,12171,1,12171,1,0.00057475,8.7369e-10,0,0.00057475,-0.00010732,1.9125e+08,241.81,0,1.9125e+08,-33.016,12170,11369,1,11369,1,2.587e-05,-7.1866e-10,0,2.587e-05,-0.00021007,9.2926e+06,-225.85,0,9.2926e+06,-82.232,11368,11756,1,11756,1,0.0002611,4.9557e-10,0,0.0002611,-0.00016601,9.1918e+07,132.14,0,9.1918e+07,-45.293,11755,12533,1,12533,1,0.00088839,1.373e-09,0,0.00088839,-4.8625e-05,2.7727e+08,390.65,0,2.7727e+08,-14.579,12532,446.74,0,446.74,0,0.00033898,6.4173e-10,0,0.00033898,6.3461e-05,1.015e+08,191.44,0,1.015e+08,22.747,446.74,1
825,3.84,12164,1,12164,1,0.00057661,-3.1977e-11,0,0.00057661,-0.00010765,1.8476e+08,-9.945,0,1.8476e+08,-13.367,12163,12984,1,12984,1,0.001127,1.529e-10,0,0.001127,-4.5035e-06,3.4163e+08,41.489,0,3.4163e+08,15.516,12983,12171,1,12171,1,0.00057661,1.1866e-11,0,0.00057661,-0.00010767,1.9171e+08,3.4202,0,1.9171e+08,-14.47,12170,11369,1,11369,1,2.6226e-05,-6.5456e-10,0,2.6226e-05,-0.00021069,9.4236e+06,-205.7,0,9.4236e+06,-36.39,11368,11756,1,11756,1,0.0002621,-1.1334e-10,0,0.0002621,-0.00016651,9.2242e+07,-32.761,0,9.2242e+07,-21.892,11755,12533,1,12533,1,0.00089111,8.0007e-11,0,0.00089111,-4.8811e-05,2.7776e+08,22.853,0,2.7776e+08,-4.3212,12532,446.74,0,446.74,0,0.00033991,1.498e-10,0,0.00033991,6.3634e-05,1.0161e+08,43.689,0,1.0161e+08,10.87,446.74,1
825,3.85,12164,1,12164,1,0.00057845,-1.1097e-09,0,0.00057845,-0.000108,1.8516e+08,-322,0,1.8516e+08,-8.0722,12163,12984,1,12984,1,0.0011303,9.5443e-10,0,0.0011303,-4.5689e-06,3.4214e+08,292.57,0,3.4214e+08,81.066,12983,12171,1,12171,1,0.00057845,-9.4168e-10,0,0.00057845,-0.00010801,1.9217e+08,-261.58,0,1.9217e+08,-6.9622,12170,11369,1,11369,1,2.6583e-05,-3.3334e-09,0,2.6583e-05,-0.00021131,9.5548e+06,-1017.5,0,9.5548e+06,-81.519,11368,11756,1,11756,1,0.0002631,-2.1253e-09,0,0.0002631,-0.00016701,9.2564e+07,-602.15,0,9.2564e+07,-26.266,11755,12533,1,12533,1,0.00089381,-8.8779e-11,0,0.00089381,-4.8997e-05,2.7824e+08,-22.889,0,2.7824e+08,9.3617,12532,446.74,0,446.74,0,0.00034083,1.1714e-09,0,0.00034083,6.3806e-05,1.0172e+08,346.62,0,1.0172e+08,30.339,446.74,1
825,3.86,12164,1,12164,1,0.00058032,-9.3144e-10,0,0.00058032,-0.00010834,1.8556e+08,-272.39,0,1.8556e+08,-7.6728,12163,12984,1,12984,1,0.0011337,5.2718e-10,0,0.0011337,-4.6348e-06,3.4266e+08,165.22,0,3.4266e+08,58.044,12983,12171,1,12171,1,0.00058032,-8.2103e-10,0,0.00058032,-0.00010836,1.9263e+08,-228.99,0,1.9263e+08,-2.0779,12170,11369,1,11369,1,2.6941e-05,-2.7238e-09,0,2.6941e-05,-0.00021194,9.686e+06,-844.83,0,9.686e+06,-98.159,11368,11756,1,11756,1,0.0002641,-1.7079e-09,0,0.0002641,-0.00016752,9.2889e+07,-496.15,0,9.2889e+07,-21.281,11755,12533,1,12533,1,0.00089653,-1.1648e-10,0,0.00089653,-4.9183e-05,2.7874e+08,-31.946,0,2.7874e+08,11.005,12532,446.74,0,446.74,0,0.00034176,9.2326e-10,0,0.00034176,6.3979e-05,1.0183e+08,274.94,0,1.0183e+08,29.891,446.74,1
825,3.87,12164,1,12164,1,0.00058218,-1.2453e-10,0,0.00058218,-0.00010869,1.8597e+08,-39.569,0,1.8597e+08,-20.464,12163,12984,1,12984,1,0.0011371,4.0698e-10,0,0.0011371,-4.7018e-06,3.4316e+08,126.1,0,3.4316e+08,20.165,12983,12171,1,12171,1,0.00058218,7.7568e-11,0,0.00058218,-0.00010871,1.9309e+08,21.37,0,1.9309e+08,-17.559,12170,11369,1,11369,1,2.7304e-05,-1.2446e-09,0,2.7304e-05,-0.00021257,9.8194e+06,-390.97,0,9.8194e+06,-61.542,11368,11756,1,11756,1,0.00026511,-4.2046e-10,0,0.00026511,-0.00016803,9.3213e+07,-121.82,0,9.3213e+07,-38.281,11755,12533,1,12533,1,0.00089925,2.315e-10,0,0.00089925,-4.937e-05,2.7922e+08,60.89,0,2.7922e+08,-4.308,12532,446.74,0,446.74,0,0.00034269,4.5499e-10,0,0.00034269,6.4151e-05,1.0193e+08,134.31,0,1.0193e+08,19.587,446.74,1
825,3.88,12164,1,12164,1,0.00058404,-1.8298e-09,0,0.00058404,-0.00010904,1.8636e+08,-531.52,0,1.8636e+08,-15.439,12163,12984,1,12984,1,0.0011404,8.0899e-10,0,0.0011404,-4.7687e-06,3.4367e+08,205.49,0,3.4367e+08,70.991,12983,12171,1,12171,1,0.00058404,-1.5085e-09,0,0.00058404,-0.00010905,1.9355e+08,-427.48,0,1.9355e+08,-15.674,12170,11369,1,11369,1,2.7668e-05,-4.993e-09,0,2.7668e-05,-0.00021319,9.9528e+06,-1525.6,0,9.9528e+06,-99.136,11368,11756,1,11756,1,0.00026612,-3.1938e-09,0,0.00026612,-0.00016853,9.3538e+07,-923.91,0,9.3538e+07,-43.544,11755,12533,1,12533,1,0.00090196,-3.9343e-10,0,0.00090196,-4.9557e-05,2.797e+08,-111.76,0,2.797e+08,9.7501,12532,446.74,0,446.74,0,0.00034361,1.6287e-09,0,0.00034361,6.4323e-05,1.0203e+08,483.66,0,1.0203e+08,35.431,446.74,1
825,3.89,12164,1,12164,1,0.0005859,-1.3151e-09,0,0.0005859,-0.00010938,1.8676e+08,-385.05,0,1.8676e+08,-25.899,12163,12984,1,12984,1,0.0011438,1.5461e-09,0,0.0011438,-4.8361e-06,3.4417e+08,470.48,0,3.4417e+08,80.127,12983,12171,1,12171,1,0.0005859,-7.002e-10,0,0.0005859,-0.0001094,1.94e+08,-196.47,0,1.94e+08,-30.531,12170,11369,1,11369,1,2.8033e-05,-5.4898e-09,0,2.8033e-05,-0.00021382,1.0087e+07,-1690,0,1.0087e+07,-97.487,11368,11756,1,11756,1,0.00026712,-2.818e-09,0,0.00026712,-0.00016903,9.3862e+07,-810.77,0,9.3862e+07,-61.779,11755,12533,1,12533,1,0.00090468,2.0311e-10,0,0.00090468,-4.9744e-05,2.8018e+08,52.273,0,2.8018e+08,1.0476,12532,446.74,0,446.74,0,0.00034453,1.926e-09,0,0.00034453,6.4495e-05,1.0213e+08,569.06,0,1.0213e+08,40.856,446.74,1
825,3.9,12164,1,12164,1,0.00058778,-2.5022e-09,0,0.00058778,-0.00010973,1.8716e+08,-728.89,0,1.8716e+08,-35.428,12163,12984,1,12984,1,0.0011472,8.7014e-10,0,0.0011472,-4.9039e-06,3.4468e+08,220.64,0,3.4468e+08,61.047,12983,12171,1,12171,1,0.00058778,-2.6245e-09,0,0.00058778,-0.00010975,1.9446e+08,-739.26,0,1.9446e+08,-25.338,12170,11369,1,11369,1,2.84e-05,-5.5415e-09,0,2.84e-05,-0.00021445,1.0221e+07,-1721.8,0,1.0221e+07,-173.89,11368,11756,1,11756,1,0.00026814,-3.9299e-09,0,0.00026814,-0.00016954,9.419e+07,-1150.3,0,9.419e+07,-64.497,11755,12533,1,12533,1,0.00090741,-1.119e-09,0,0.00090741,-4.9933e-05,2.8066e+08,-293.81,0,2.8066e+08,1.352,12532,446.74,0,446.74,0,0.00034546,1.809e-09,0,0.00034546,6.4668e-05,1.0224e+08,542.93,0,1.0224e+08,45.835,446.74,1
825,3.91,12164,1,12164,1,0.00058966,4.188e-10,0,0.00058966,-0.00011008,1.8756e+08,113.31,0,1.8756e+08,-15.203,12163,12984,1,12984,1,0.0011506,8.2476e-10,0,0.0011506,-4.973e-06,3.4517e+08,222.08,0,3.4517e+08,12.002,12983,12171,1,12171,1,0.00058966,5.044e-10,0,0.00058966,-0.0001101,1.9492e+08,140.56,0,1.9492e+08,-9.6883,12170,11369,1,11369,1,2.8773e-05,-5.9406e-10,0,2.8773e-05,-0.00021508,1.0358e+07,-186.57,0,1.0358e+07,-62.452,11368,11756,1,11756,1,0.00026916,2.2976e-10,0,0.00026916,-0.00017005,9.4517e+07,65.464,0,9.4517e+07,-29.292,11755,12533,1,12533,1,0.00091016,6.9033e-10,0,0.00091016,-5.0122e-05,2.8114e+08,189.59,0,2.8114e+08,0.19156,12532,446.74,0,446.74,0,0.00034639,3.4072e-10,0,0.00034639,6.4841e-05,1.0234e+08,95.37,0,1.0234e+08,18.747,446.74,1
825,3.92,12164,1,12164,1,0.00059153,-2.4105e-10,0,0.00059153,-0.00011043,1.8796e+08,-72.317,0,1.8796e+08,-6.1682,12163,12984,1,12984,1,0.0011539,5.7681e-10,0,0.0011539,-5.0424e-06,3.4566e+08,172.1,0,3.4566e+08,38.083,12983,12171,1,12171,1,0.00059153,-3.0985e-11,0,0.00059153,-0.00011044,1.9538e+08,-8.4141,0,1.9538e+08,-8.3612,12170,11369,1,11369,1,2.9149e-05,-1.5943e-09,0,2.9149e-05,-0.0002157,1.0496e+07,-498.56,0,1.0496e+07,-41.988,11368,11756,1,11756,1,0.00027017,-6.5907e-10,0,0.00027017,-0.00017056,9.4844e+07,-187.59,0,9.4844e+07,-17.02,11755,12533,1,12533,1,0.00091289,2.1532e-10,0,0.00091289,-5.0311e-05,2.8161e+08,59.031,0,2.8161e+08,3.0636,12532,446.74,0,446.74,0,0.00034732,5.8777e-10,0,0.00034732,6.5013e-05,1.0243e+08,173.01,0,1.0243e+08,15.151,446.74,1
825,3.93,12164,1,12164,1,0.0005934,-1.9683e-10,0,0.0005934,-0.00011078,1.8835e+08,-59.683,0,1.8835e+08,-5.6761,12163,12984,1,12984,1,0.0011573,1.9735e-09,0,0.0011573,-5.112e-06,3.4615e+08,600.39,0,3.4615e+08,53.567,12983,12171,1,12171,1,0.0005934,2.8755e-11,0,0.0005934,-0.00011079,1.9583e+08,7.4334,0,1.9583e+08,-6.7236,12170,11369,1,11369,1,2.9526e-05,-2.5483e-09,0,2.9526e-05,-0.00021633,1.0633e+07,-773.92,0,1.0633e+07,-63.954,11368,11756,1,11756,1,0.00027119,-9.5037e-10,0,0.00027119,-0.00017107,9.5171e+07,-268.66,0,9.5171e+07,-23.982,11755,12533,1,12533,1,0.00091562,4.9019e-10,0,0.00091562,-5.05e-05,2.8208e+08,133.36,0,2.8208e+08,11.779,12532,446.74,0,446.74,0,0.00034824,1.0603e-09,0,0.00034824,6.5185e-05,1.0253e+08,310.5,0,1.0253e+08,23.642,446.74,1
825,3.94,12164,1,12164,1,0.00059529,2.195e-09,0,0.00059529,-0.00011113,1.8875e+08,634.46,0,1.8875e+08,-8.3071,12163,12984,1,12984,1,0.0011607,4.8666e-09,0,0.0011607,-5.1819e-06,3.4664e+08,1476,0,3.4664e+08,131.54,12983,12171,1,12171,1,0.00059529,2.24e-09,0,0.00059529,-0.00011114,1.9629e+08,626.49,0,1.9629e+08,-16.046,12170,11369,1,11369,1,2.9904e-05,-9.163e-10,0,2.9904e-05,-0.00021696,1.0772e+07,-230.53,0,1.0772e+07,-100.57,11368,11756,1,11756,1,0.00027221,9.0952e-10,0,0.00027221,-0.00017158,9.55e+07,251.87,0,9.55e+07,-46.468,11755,12533,1,12533,1,0.00091836,3.6012e-09,0,0.00091836,-5.069e-05,2.8255e+08,1029.6,0,2.8255e+08,20.949,12532,446.74,0,446.74,0,0.00034917,1.5745e-09,0,0.00034917,6.5358e-05,1.0263e+08,468.16,0,1.0263e+08,48.471,446.74,1
825,3.95,12164,1,12164,1,0.00059717,-2.2242e-09,0,0.00059717,-0.00011147,1.8914e+08,-637.41,0,1.8914e+08,-22.697,12163,12984,1,12984,1,0.0011641,7.6314e-10,0,0.0011641,-5.2527e-06,3.4712e+08,191.72,0,3.4712e+08,53.989,12983,12171,1,12171,1,0.00059716,-1.9555e-09,0,0.00059716,-0.00011149,1.9674e+08,-545.28,0,1.9674e+08,-21.198,12170,11369,1,11369,1,3.0285e-05,-5.2686e-09,0,3.0285e-05,-0.00021759,1.0911e+07,-1597.8,0,1.0911e+07,-133.71,11368,11756,1,11756,1,0.00027323,-3.6774e-09,0,0.00027323,-0.00017208,9.5828e+07,-1049.1,0,9.5828e+07,-43.987,11755,12533,1,12533,1,0.00092109,-8.2193e-10,0,0.00092109,-5.088e-05,2.8302e+08,-233.16,0,2.8302e+08,2.1421,12532,446.74,0,446.74,0,0.0003501,1.6692e-09,0,0.0003501,6.553e-05,1.0272e+08,493.9,0,1.0272e+08,36.55,446.74,1
825,3.96,12164,1,12164,1,0.00059907,1.3983e-09,0,0.00059907,-0.00011183,1.8954e+08,401.03,0,1.8954e+08,-15.48,12163,12984,1,12984,1,0.0011675,2.6887e-09,0,0.0011675,-5.324e-06,3.4761e+08,809.04,0,3.4761e+08,72.391,12983,12171,1,12171,1,0.00059907,1.4745e-09,0,0.00059907,-0.00011184,1.972e+08,411.38,0,1.972e+08,-16.363,12170,11369,1,11369,1,3.067e-05,-4.8277e-10,0,3.067e-05,-0.00021822,1.1052e+07,-121.05,0,1.1052e+07,-77.787,11368,11756,1,11756,1,0.00027427,8.1017e-10,0,0.00027427,-0.0001726,9.616e+07,217.12,0,9.616e+07,-40.935,11755,12533,1,12533,1,0.00092386,2.116e-09,0,0.00092386,-5.1072e-05,2.8349e+08,611.27,0,2.8349e+08,5.312,12532,446.74,0,446.74,0,0.00035103,8.5331e-10,0,0.00035103,6.5704e-05,1.0282e+08,253.93,0,1.0282e+08,31.067,446.74,1
825,3.97,12164,1,12164,1,0.00060096,-1.1226e-09,0,0.00060096,-0.00011218,1.8993e+08,-321.74,0,1.8993e+08,-16.178,12163,12984,1,12984,1,0.0011709,7.3287e-10,0,0.0011709,-5.3962e-06,3.4808e+08,229.83,0,3.4808e+08,36.065,12983,12171,1,12171,1,0.00060095,-9.8065e-10,0,0.00060095,-0.00011219,1.9765e+08,-262.01,0,1.9765e+08,-15.819,12170,11369,1,11369,1,3.1058e-05,-2.9943e-09,0,3.1058e-05,-0.00021885,1.1194e+07,-908.73,0,1.1194e+07,-82.942,11368,11756,1,11756,1,0.0002753,-2.0161e-09,0,0.0002753,-0.00017311,9.649e+07,-577.12,0,9.649e+07,-31.414,11755,12533,1,12533,1,0.00092661,-1.9102e-10,0,0.00092661,-5.1264e-05,2.8395e+08,-49.902,0,2.8395e+08,-0.17499,12532,446.74,0,446.74,0,0.00035196,1.0152e-09,0,0.00035196,6.5876e-05,1.0291e+08,299.67,0,1.0291e+08,22.785,446.74,1
825,3.98,12164,1,12164,1,0.00060284,-2.2676e-09,0,0.00060284,-0.00011253,1.9033e+08,-655.91,0,1.9033e+08,-26.557,12163,12984,1,12984,1,0.0011743,9.4638e-10,0,0.0011743,-5.4682e-06,3.4856e+08,236.83,0,3.4856e+08,81.078,12983,12171,1,12171,1,0.00060284,-2.1188e-09,0,0.00060284,-0.00011255,1.981e+08,-581.45,0,1.981e+08,-21.984,12170,11369,1,11369,1,3.1447e-05,-5.7458e-09,0,3.1447e-05,-0.00021949,1.1336e+07,-1762.4,0,1.1336e+07,-164.51,11368,11756,1,11756,1,0.00027633,-3.9619e-09,0,0.00027633,-0.00017362,9.6821e+07,-1120,0,9.6821e+07,-61.216,11755,12533,1,12533,1,0.00092935,-6.296e-10,0,0.00092935,-5.1456e-05,2.8441e+08,-172.32,0,2.8441e+08,12.176,12532,446.74,0,446.74,0,0.00035289,1.9053e-09,0,0.00035289,6.6048e-05,1.03e+08,564.63,0,1.03e+08,50.169,446.74,1
825,3.99,12164,1,12164,1,0.00060474,-1.5703e-09,0,0.00060474,-0.00011288,1.9072e+08,-458.39,0,1.9072e+08,-28.782,12163,12984,1,12984,1,0.0011777,9.51e-10,0,0.0011777,-5.5409e-06,3.4903e+08,237.82,0,3.4903e+08,68.469,12983,12171,1,12171,1,0.00060474,-1.1148e-09,0,0.00060474,-0.0001129,1.9856e+08,-309.98,0,1.9856e+08,-24.301,12170,11369,1,11369,1,3.1837e-05,-5.2694e-09,0,3.1837e-05,-0.00022012,1.1478e+07,-1636.6,0,1.1478e+07,-139.42,11368,11756,1,11756,1,0.00027737,-3.0251e-09,0,0.00027737,-0.00017413,9.7153e+07,-863.69,0,9.7153e+07,-63.439,11755,12533,1,12533,1,0.0009321,5.7371e-11,0,0.0009321,-5.1648e-05,2.8487e+08,14.318,0,2.8487e+08,4.1671,12532,446.74,0,446.74,0,0.00035382,1.7787e-09,0,0.00035382,6.6221e-05,1.0308e+08,526.33,0,1.0308e+08,46.158,446.74,1
825,4,12164,1,12164,1,0.00060665,-3.2866e-11,0,0.00060665,-0.00011324,1.9111e+08,-16.577,0,1.9111e+08,-26.997,12163,12984,1,12984,1,0.0011811,7.3301e-10,0,0.0011811,-5.6143e-06,3.495e+08,192.03,0,3.495e+08,22.713,12983,12171,1,12171,1,0.00060665,1.0011e-11,0,0.00060665,-0.00011325,1.9901e+08,2.9174,0,1.9901e+08,-15.481,12170,11369,1,11369,1,3.2232e-05,-8.3172e-10,0,3.2232e-05,-0.00022075,1.1623e+07,-260.8,0,1.1623e+07,-100.7,11368,11756,1,11756,1,0.00027841,-4.214e-10,0,0.00027841,-0.00017465,9.7486e+07,-122.31,0,9.7486e+07,-44.955,11755,12533,1,12533,1,0.00093488,3.2518e-10,0,0.00093488,-5.1842e-05,2.8534e+08,84.497,0,2.8534e+08,-5.5008,12532,446.74,0,446.74,0,0.00035475,4.4064e-10,0,0.00035475,6.6395e-05,1.0318e+08,125.38,0,1.0318e+08,28.443,446.74,1
825,4.01,12164,1,12164,1,0.00060853,5.9228e-11,0,0.00060853,-0.00011359,1.915e+08,14.573,0,1.915e+08,-9.3979,12163,12984,1,12984,1,0.0011844,3.0509e-09,0,0.0011844,-5.6881e-06,3.4995e+08,924.76,0,3.4995e+08,91.434,12983,12171,1,12171,1,0.00060852,7.7896e-11,0,0.00060852,-0.0001136,1.9946e+08,19.656,0,1.9946e+08,-11.556,12170,11369,1,11369,1,3.263e-05,-3.7396e-09,0,3.263e-05,-0.00022138,1.1768e+07,-1140.7,0,1.1768e+07,-91.73,11368,11756,1,11756,1,0.00027944,-9.9039e-10,0,0.00027944,-0.00017515,9.7815e+07,-278.39,0,9.7815e+07,-40.548,11755,12533,1,12533,1,0.00093761,1.2814e-09,0,0.00093761,-5.2034e-05,2.8578e+08,357.38,0,2.8578e+08,17.832,12532,446.74,0,446.74,0,0.00035567,1.6683e-09,0,0.00035567,6.6565e-05,1.0326e+08,486.32,0,1.0326e+08,38.101,446.74,1
825,4.02,12164,1,12164,1,0.00061043,-1.2853e-09,0,0.00061043,-0.00011394,1.9189e+08,-372.34,0,1.9189e+08,-34.802,12163,12984,1,12984,1,0.0011879,2.4369e-09,0,0.0011879,-5.7618e-06,3.5042e+08,753.79,0,3.5042e+08,71.511,12983,12171,1,12171,1,0.00061043,-9.2596e-10,0,0.00061043,-0.00011395,1.9991e+08,-247.26,0,1.9991e+08,-30.455,12170,11369,1,11369,1,3.3026e-05,-4.9886e-09,0,3.3026e-05,-0.00022201,1.1912e+07,-1534.9,0,1.1912e+07,-140.71,11368,11756,1,11756,1,0.00028049,-2.8393e-09,0,0.00028049,-0.00017567,9.8149e+07,-811.57,0,9.8149e+07,-69.512,11755,12533,1,12533,1,0.00094037,1.7029e-10,0,0.00094037,-5.2228e-05,2.8624e+08,44.968,0,2.8624e+08,-2.574,12532,446.74,0,446.74,0,0.0003566,1.8846e-09,0,0.0003566,6.6738e-05,1.0334e+08,553.5,0,1.0334e+08,46.348,446.74,1
825,4.03,12164,1,12164,1,0.00061235,3.0681e-10,0,0.00061235,-0.0001143,1.9228e+08,84.241,0,1.9228e+08,-31.162,12163,12984,1,12984,1,0.0011913,2.3404e-09,0,0.0011913,-5.837e-06,3.5088e+08,722.63,0,3.5088e+08,36.77,12983,12171,1,12171,1,0.00061235,3.2152e-10,0,0.00061235,-0.00011431,2.0036e+08,81.821,0,2.0036e+08,-29.336,12170,11369,1,11369,1,3.3429e-05,-1.8566e-09,0,3.3429e-05,-0.00022265,1.2059e+07,-582,0,1.2059e+07,-105.05,11368,11756,1,11756,1,0.00028154,-1.038e-10,0,0.00028154,-0.00017618,9.8484e+07,-28.992,0,9.8484e+07,-53.878,11755,12533,1,12533,1,0.00094315,7.4899e-10,0,0.00094315,-5.2423e-05,2.8669e+08,207.14,0,2.8669e+08,-12.268,12532,446.74,0,446.74,0,0.00035753,8.3517e-10,0,0.00035753,6.6912e-05,1.0343e+08,246.69,0,1.0343e+08,29.091,446.74,1
825,4.04,12164,1,12164,1,0.00061425,-1.6851e-09,0,0.00061425,-0.00011465,1.9266e+08,-486.1,0,1.9266e+08,-24.879,12163,12984,1,12984,1,0.0011947,1.1241e-09,0,0.0011947,-5.9124e-06,3.5133e+08,307.87,0,3.5133e+08,79.439,12983,12171,1,12171,1,0.00061425,-1.1779e-09,0,0.00061425,-0.00011466,2.0081e+08,-326.74,0,2.0081e+08,-29.53,12170,11369,1,11369,1,3.3835e-05,-5.6548e-09,0,3.3835e-05,-0.00022328,1.2207e+07,-1725,0,1.2207e+07,-95.788,11368,11756,1,11756,1,0.00028259,-3.1508e-09,0,0.00028259,-0.0001767,9.8819e+07,-890.71,0,9.8819e+07,-58.195,11755,12533,1,12533,1,0.00094591,-5.9343e-11,0,0.00094591,-5.2618e-05,2.8714e+08,-16.446,0,2.8714e+08,2.5192,12532,446.74,0,446.74,0,0.00035846,1.8522e-09,0,0.00035846,6.7084e-05,1.0351e+08,545.31,0,1.0351e+08,40.158,446.74,1
825,4.05,12164,1,12164,1,0.00061617,-1.3836e-09,0,0.00061617,-0.00011501,1.9305e+08,-402.86,0,1.9305e+08,-37.919,12163,12984,1,12984,1,0.0011981,1.435e-09,0,0.0011981,-5.9882e-06,3.5179e+08,444.82,0,3.5179e+08,69.987,12983,12171,1,12171,1,0.00061616,-8.9637e-10,0,0.00061616,-0.00011502,2.0126e+08,-243.46,0,2.0126e+08,-34.404,12170,11369,1,11369,1,3.424e-05,-5.057e-09,0,3.424e-05,-0.00022392,1.2355e+07,-1575.1,0,1.2355e+07,-151.1,11368,11756,1,11756,1,0.00028364,-2.8008e-09,0,0.00028364,-0.00017721,9.9154e+07,-795.95,0,9.9154e+07,-73.2,11755,12533,1,12533,1,0.00094869,1.2956e-10,0,0.00094869,-5.2813e-05,2.8759e+08,32.032,0,2.8759e+08,-4.3378,12532,446.74,0,446.74,0,0.00035939,1.7506e-09,0,0.00035939,6.7257e-05,1.0359e+08,516.55,0,1.0359e+08,47.35,446.74,1
825,4.06,12164,1,12164,1,0.0006181,-1.6216e-09,0,0.0006181,-0.00011536,1.9345e+08,-470.97,0,1.9345e+08,-36.851,12163,12984,1,12984,1,0.0012016,6.2039e-10,0,0.0012016,-6.0648e-06,3.5225e+08,153.58,0,3.5225e+08,34.236,12983,12171,1,12171,1,0.0006181,-1.8117e-09,0,0.0006181,-0.00011538,2.0172e+08,-500,0,2.0172e+08,-25.03,12170,11369,1,11369,1,3.4651e-05,-3.4782e-09,0,3.4651e-05,-0.00022456,1.2505e+07,-1087.3,0,1.2505e+07,-146.41,11368,11756,1,11756,1,0.00028471,-2.6842e-09,0,0.00028471,-0.00017773,9.9494e+07,-790.58,0,9.9494e+07,-58.936,11755,12533,1,12533,1,0.00095149,-5.991e-10,0,0.00095149,-5.3011e-05,2.8804e+08,-153.71,0,2.8804e+08,-6.6431,12532,446.74,0,446.74,0,0.00036033,1.2185e-09,0,0.00036033,6.7432e-05,1.0367e+08,364.55,0,1.0367e+08,38.407,446.74,1
825,4.07,12164,1,12164,1,0.00062002,-1.033e-09,0,0.00062002,-0.00011572,1.9383e+08,-305.06,0,1.9383e+08,-15.115,12163,12984,1,12984,1,0.001205,7.4976e-10,0,0.001205,-6.1421e-06,3.5269e+08,185.17,0,3.5269e+08,45.846,12983,12171,1,12171,1,0.00062002,-1.0179e-09,0,0.00062002,-0.00011574,2.0216e+08,-285.49,0,2.0216e+08,-7.811,12170,11369,1,11369,1,3.5066e-05,-2.8919e-09,0,3.5066e-05,-0.0002252,1.2656e+07,-905.75,0,1.2656e+07,-130.9,11368,11756,1,11756,1,0.00028577,-1.9581e-09,0,0.00028577,-0.00017825,9.9831e+07,-579.08,0,9.9831e+07,-35.271,11755,12533,1,12533,1,0.00095428,-8.7712e-11,0,0.00095428,-5.3208e-05,2.8848e+08,-22.095,0,2.8848e+08,12.836,12532,446.74,0,446.74,0,0.00036126,1.0823e-09,0,0.00036126,6.7604e-05,1.0375e+08,318.48,0,1.0375e+08,37.276,446.74,1
825,4.08,12164,1,12164,1,0.00062194,-3.1719e-10,0,0.00062194,-0.00011608,1.9421e+08,-97.37,0,1.9421e+08,-9.8719,12163,12984,1,12984,1,0.0012084,8.9373e-10,0,0.0012084,-6.2198e-06,3.5312e+08,251.45,0,3.5312e+08,46.8,12983,12171,1,12171,1,0.00062194,-1.4215e-11,0,0.00062194,-0.00011609,2.0261e+08,-3.3523,0,2.0261e+08,-8.3983,12170,11369,1,11369,1,3.5482e-05,-2.4026e-09,0,3.5482e-05,-0.00022583,1.2808e+07,-745.64,0,1.2808e+07,-60.937,11368,11756,1,11756,1,0.00028682,-8.9423e-10,0,0.00028682,-0.00017876,1.0017e+08,-256.79,0,1.0017e+08,-26.637,11755,12533,1,12533,1,0.00095705,3.3625e-10,0,0.00095705,-5.3405e-05,2.8892e+08,85.27,0,2.8892e+08,5.4145,12532,446.74,0,446.74,0,0.00036219,8.4919e-10,0,0.00036219,6.7776e-05,1.0383e+08,247.71,0,1.0383e+08,21.992,446.74,1
825,4.09,12164,1,12164,1,0.00062386,-1.5565e-10,0,0.00062386,-0.00011643,1.946e+08,-48.7,0,1.946e+08,-18.852,12163,12984,1,12984,1,0.0012118,8.8661e-10,0,0.0012118,-6.2977e-06,3.5356e+08,267.28,0,3.5356e+08,18.508,12983,12171,1,12171,1,0.00062386,6.2175e-11,0,0.00062386,-0.00011645,2.0305e+08,16.191,0,2.0305e+08,-18.486,12170,11369,1,11369,1,3.59e-05,-1.6606e-09,0,3.59e-05,-0.00022647,1.296e+07,-519.95,0,1.296e+07,-55.929,11368,11756,1,11756,1,0.00028789,-5.5336e-10,0,0.00028789,-0.00017928,1.005e+08,-157.66,0,1.005e+08,-32.225,11755,12533,1,12533,1,0.00095984,2.6778e-10,0,0.00095984,-5.3602e-05,2.8936e+08,69.002,0,2.8936e+08,-6.8546,12532,446.74,0,446.74,0,0.00036312,6.0956e-10,0,0.00036312,6.7949e-05,1.039e+08,178.44,0,1.039e+08,17.141,446.74,1
825,4.1,12164,1,12164,1,0.00062579,2.6197e-09,0,0.00062579,-0.00011679,1.9498e+08,747.25,0,1.9498e+08,-4.0991,12163,12984,1,12984,1,0.0012153,6.0506e-09,0,0.0012153,-6.3759e-06,3.54e+08,1832.7,0,3.54e+08,141.62,12983,12171,1,12171,1,0.00062578,2.483e-09,0,0.00062578,-0.00011681,2.035e+08,694.85,0,2.035e+08,-13.176,12170,11369,1,11369,1,3.632e-05,-7.7446e-10,0,3.632e-05,-0.00022711,1.3113e+07,-190.04,0,1.3113e+07,-89.171,11368,11756,1,11756,1,0.00028895,1.0702e-09,0,0.00028895,-0.0001798,1.0084e+08,288.44,0,1.0084e+08,-41.093,11755,12533,1,12533,1,0.00096262,4.1886e-09,0,0.00096262,-5.38e-05,2.8979e+08,1189.1,0,2.8979e+08,29.21,12532,446.74,0,446.74,0,0.00036405,1.837e-09,0,0.00036405,6.8122e-05,1.0398e+08,545.05,0,1.0398e+08,48.326,446.74,1
825,4.11,12164,1,12164,1,0.0006277,1.1946e-09,0,0.0006277,-0.00011715,1.9535e+08,350.85,0,1.9535e+08,-8.5253,12163,12984,1,12984,1,0.0012187,6.3728e-09,0,0.0012187,-6.4544e-06,3.5442e+08,1962.3,0,3.5442e+08,173.2,12983,12171,1,12171,1,0.00062769,5.1613e-10,0,0.00062769,-0.00011716,2.0394e+08,143.37,0,2.0394e+08,-14.262,12170,11369,1,11369,1,3.674e-05,-2.5094e-09,0,3.674e-05,-0.00022774,1.3266e+07,-770.31,0,1.3266e+07,-113.44,11368,11756,1,11756,1,0.00029001,-4.8229e-10,0,0.00029001,-0.00018031,1.0118e+08,-121.75,0,1.0118e+08,-56.543,11755,12533,1,12533,1,0.00096538,2.7071e-09,0,0.00096538,-5.3997e-05,2.9021e+08,775.15,0,2.9021e+08,33.557,12532,446.74,0,446.74,0,0.00036497,2.2242e-09,0,0.00036497,6.8293e-05,1.0405e+08,649.93,0,1.0405e+08,59.661,446.74,1
825,4.12,12164,1,12164,1,0.00062966,-6.6882e-10,0,0.00062966,-0.00011751,1.9575e+08,-186.54,0,1.9575e+08,-39.92,12163,12984,1,12984,1,0.0012222,8.2493e-10,0,0.0012222,-6.5339e-06,3.5487e+08,258.07,0,3.5487e+08,24.88,12983,12171,1,12171,1,0.00062966,-8.0036e-10,0,0.00062966,-0.00011753,2.044e+08,-217.89,0,2.044e+08,-43.914,12170,11369,1,11369,1,3.7164e-05,-1.2602e-09,0,3.7164e-05,-0.00022839,1.342e+07,-351.89,0,1.342e+07,-132.84,11368,11756,1,11756,1,0.00029109,-1.0594e-09,0,0.00029109,-0.00018084,1.0152e+08,-296.88,0,1.0152e+08,-56.212,11755,12533,1,12533,1,0.00096822,-3.4404e-10,0,0.00096822,-5.4198e-05,2.9066e+08,-90.402,0,2.9066e+08,-18.012,12532,446.74,0,446.74,0,0.00036592,4.5813e-10,0,0.00036592,6.8469e-05,1.0412e+08,129.75,0,1.0412e+08,28.19,446.74,1
825,4.13,12164,1,12164,1,0.0006316,1.9299e-09,0,0.0006316,-0.00011787,1.9613e+08,552.25,0,1.9613e+08,-9.4586,12163,12984,1,12984,1,0.0012256,3.4599e-09,0,0.0012256,-6.6148e-06,3.5529e+08,1048.4,0,3.5529e+08,72.521,12983,12171,1,12171,1,0.0006316,2.2044e-09,0,0.0006316,-0.00011789,2.0484e+08,614.98,0,2.0484e+08,-9.9959,12170,11369,1,11369,1,3.7599e-05,-5.6738e-10,0,3.7599e-05,-0.00022903,1.3578e+07,-138.65,0,1.3578e+07,-81.608,11368,11756,1,11756,1,0.00029217,1.0792e-09,0,0.00029217,-0.00018136,1.0186e+08,273.87,0,1.0186e+08,-30.38,11755,12533,1,12533,1,0.00097102,2.9835e-09,0,0.00097102,-5.4399e-05,2.9109e+08,874.83,0,2.9109e+08,9.3201,12532,446.74,0,446.74,0,0.00036685,1.1943e-09,0,0.00036685,6.8642e-05,1.0419e+08,356.72,0,1.0419e+08,31.204,446.74,1
825,4.14,12164,1,12164,1,0.00063355,-1.7577e-10,0,0.00063355,-0.00011823,1.9651e+08,-44.674,0,1.9651e+08,-6.1011,12163,12984,1,12984,1,0.0012291,2.068e-09,0,0.0012291,-6.6957e-06,3.5572e+08,646.76,0,3.5572e+08,62.7,12983,12171,1,12171,1,0.00063355,-2.7159e-10,0,0.00063355,-0.00011825,2.0529e+08,-67.873,0,2.0529e+08,-7.6766,12170,11369,1,11369,1,3.803e-05,-1.4046e-09,0,3.803e-05,-0.00022968,1.3735e+07,-414.47,0,1.3735e+07,-72.933,11368,11756,1,11756,1,0.00029325,-8.2283e-10,0,0.00029325,-0.00018188,1.0221e+08,-227.39,0,1.0221e+08,-21.082,11755,12533,1,12533,1,0.00097384,2.5221e-10,0,0.00097384,-5.4599e-05,2.9152e+08,68.235,0,2.9152e+08,9.7991,12532,446.74,0,446.74,0,0.00036778,8.4184e-10,0,0.00036778,6.8816e-05,1.0426e+08,243.65,0,1.0426e+08,23.719,446.74,1
825,4.15,12164,1,12164,1,0.0006355,1.1045e-09,0,0.0006355,-0.0001186,1.9689e+08,317.33,0,1.9689e+08,-8.0859,12163,12984,1,12984,1,0.0012325,3.0279e-09,0,0.0012325,-6.7771e-06,3.5614e+08,934.81,0,3.5614e+08,67.487,12983,12171,1,12171,1,0.0006355,1.0452e-09,0,0.0006355,-0.00011861,2.0573e+08,291.94,0,2.0573e+08,-15.365,12170,11369,1,11369,1,3.8466e-05,-5.2047e-10,0,3.8466e-05,-0.00023032,1.3894e+07,-126.89,0,1.3894e+07,-38.97,11368,11756,1,11756,1,0.00029434,4.4542e-10,0,0.00029434,-0.0001824,1.0255e+08,112.57,0,1.0255e+08,-25.343,11755,12533,1,12533,1,0.00097665,1.6359e-09,0,0.00097665,-5.4801e-05,2.9194e+08,473.56,0,2.9194e+08,5.4098,12532,446.74,0,446.74,0,0.00036872,8.6063e-10,0,0.00036872,6.8989e-05,1.0433e+08,256.08,0,1.0433e+08,21.69,446.74,1
825,4.16,12164,1,12164,1,0.00063744,-7.5858e-10,0,0.00063744,-0.00011896,1.9726e+08,-212.62,0,1.9726e+08,-25.371,12163,12984,1,12984,1,0.001236,7.9993e-10,0,0.001236,-6.8588e-06,3.5655e+08,250.01,0,3.5655e+08,33.406,12983,12171,1,12171,1,0.00063743,-4.8744e-10,0,0.00063743,-0.00011897,2.0617e+08,-130.88,0,2.0617e+08,-28.053,12170,11369,1,11369,1,3.8903e-05,-2.808e-09,0,3.8903e-05,-0.00023096,1.4053e+07,-844.56,0,1.4053e+07,-65.47,11368,11756,1,11756,1,0.00029542,-1.3317e-09,0,0.00029542,-0.00018292,1.0289e+08,-359.99,0,1.0289e+08,-39.045,11755,12533,1,12533,1,0.00097945,-1.5719e-10,0,0.00097945,-5.5002e-05,2.9236e+08,-39.84,0,2.9236e+08,-12.831,12532,446.74,0,446.74,0,0.00036965,8.4537e-10,0,0.00036965,6.9161e-05,1.0439e+08,245.89,0,1.0439e+08,19.426,446.74,1
825,4.17,12164,1,12164,1,0.00063938,3.4795e-09,0,0.00063938,-0.00011932,1.9764e+08,989.92,0,1.9764e+08,3.875,12163,12984,1,12984,1,0.0012394,8.2704e-09,0,0.0012394,-6.9402e-06,3.5696e+08,2503.6,0,3.5696e+08,195.76,12983,12171,1,12171,1,0.00063937,3.2635e-09,0,0.00063937,-0.00011933,2.0661e+08,905.7,0,2.0661e+08,-5.6361,12170,11369,1,11369,1,3.934e-05,-1.0522e-09,0,3.934e-05,-0.0002316,1.4212e+07,-255.33,0,1.4212e+07,-120.74,11368,11756,1,11756,1,0.0002965,1.411e-09,0,0.0002965,-0.00018344,1.0323e+08,376.82,0,1.0323e+08,-43.504,11755,12533,1,12533,1,0.00098224,5.5383e-09,0,0.00098224,-5.5203e-05,2.9278e+08,1583,0,2.9278e+08,37.77,12532,446.74,0,446.74,0,0.00037057,2.4816e-09,0,0.00037057,6.9334e-05,1.0446e+08,736.1,0,1.0446e+08,64.282,446.74,1
825,4.18,12164,1,12164,1,0.00064133,-3.2837e-11,0,0.00064133,-0.00011968,1.9802e+08,-0.81229,0,1.9802e+08,-30.316,12163,12984,1,12984,1,0.0012429,3.6759e-09,0,0.0012429,-7.0229e-06,3.5737e+08,1148.6,0,3.5737e+08,62.199,12983,12171,1,12171,1,0.00064133,-3.0823e-10,0,0.00064133,-0.00011969,2.0705e+08,-78.297,0,2.0705e+08,-35.542,12170,11369,1,11369,1,3.978e-05,-2.6115e-09,0,3.978e-05,-0.00023225,1.4372e+07,-788.02,0,1.4372e+07,-97.315,11368,11756,1,11756,1,0.00029759,-9.6459e-10,0,0.00029759,-0.00018397,1.0358e+08,-247.44,0,1.0358e+08,-59.074,11755,12533,1,12533,1,0.00098507,7.2153e-10,0,0.00098507,-5.5405e-05,2.932e+08,193.89,0,2.932e+08,-5.0319,12532,446.74,0,446.74,0,0.00037151,1.4425e-09,0,0.00037151,6.9508e-05,1.0452e+08,420.08,0,1.0452e+08,36.337,446.74,1
825,4.19,12164,1,12164,1,0.0006433,-1.583e-09,0,0.0006433,-0.00012005,1.984e+08,-447.29,0,1.984e+08,-45.213,12163,12984,1,12984,1,0.0012464,5.7887e-10,0,0.0012464,-7.1068e-06,3.5779e+08,140.12,0,3.5779e+08,35.754,12983,12171,1,12171,1,0.0006433,-1.6333e-09,0,0.0006433,-0.00012006,2.075e+08,-460.35,0,2.075e+08,-50.241,12170,11369,1,11369,1,4.0228e-05,-3.289e-09,0,4.0228e-05,-0.00023289,1.4535e+07,-1003,0,1.4535e+07,-106.54,11368,11756,1,11756,1,0.00029869,-2.4246e-09,0,0.00029869,-0.00018449,1.0392e+08,-675.09,0,1.0392e+08,-71.057,11755,12533,1,12533,1,0.00098791,-8.7056e-10,0,0.00098791,-5.5609e-05,2.9362e+08,-237.62,0,2.9362e+08,-21.114,12532,446.74,0,446.74,0,0.00037245,9.9791e-10,0,0.00037245,6.9682e-05,1.0459e+08,294.49,0,1.0459e+08,31.256,446.74,1
825,4.2,12164,1,12164,1,0.00064527,1.9402e-09,0,0.00064527,-0.00012041,1.9877e+08,549.39,0,1.9877e+08,-13.754,12163,12984,1,12984,1,0.0012499,3.3488e-09,0,0.0012499,-7.1909e-06,3.5819e+08,1002.6,0,3.5819e+08,63.259,12983,12171,1,12171,1,0.00064527,2.2335e-09,0,0.00064527,-0.00012042,2.0794e+08,612.6,0,2.0794e+08,-14.419,12170,11369,1,11369,1,4.0678e-05,-4.9538e-10,0,4.0678e-05,-0.00023354,1.4698e+07,-119.57,0,1.4698e+07,-96.913,11368,11756,1,11756,1,0.00029979,1.1713e-09,0,0.00029979,-0.00018502,1.0427e+08,297.94,0,1.0427e+08,-30.785,11755,12533,1,12533,1,0.00099074,2.8687e-09,0,0.00099074,-5.5814e-05,2.9403e+08,841.81,0,2.9403e+08,-0.24422,12532,446.74,0,446.74,0,0.00037339,1.1057e-09,0,0.00037339,6.9856e-05,1.0465e+08,327.37,0,1.0465e+08,25.266,446.74,1
825,4.21,12164,1,12164,1,0.00064723,-2.3715e-10,0,0.00064723,-0.00012078,1.9915e+08,-63.659,0,1.9915e+08,-9.1513,12163,12984,1,12984,1,0.0012533,2.7847e-09,0,0.0012533,-7.2753e-06,3.5859e+08,854.85,0,3.5859e+08,74.098,12983,12171,1,12171,1,0.00064723,-2.0873e-10,0,0.00064723,-0.00012079,2.0838e+08,-52.607,0,2.0838e+08,-12.688,12170,11369,1,11369,1,4.1129e-05,-2.2648e-09,0,4.1129e-05,-0.00023419,1.4862e+07,-677.45,0,1.4862e+07,-84.487,11368,11756,1,11756,1,0.00030089,-1.2137e-09,0,0.00030089,-0.00018555,1.0461e+08,-327.26,0,1.0461e+08,-31.077,11755,12533,1,12533,1,0.00099358,4.7019e-10,0,0.00099358,-5.6018e-05,2.9445e+08,129.68,0,2.9445e+08,10.549,12532,446.74,0,446.74,0,0.00037432,1.2508e-09,0,0.00037432,7.0029e-05,1.047e+08,360.63,0,1.047e+08,30.351,446.74,1
825,4.22,12164,1,12164,1,0.0006492,-5.9105e-10,0,0.0006492,-0.00012114,1.9952e+08,-166.03,0,1.9952e+08,-24.54,12163,12984,1,12984,1,0.0012568,1.6939e-09,0,0.0012568,-7.3604e-06,3.5898e+08,528.72,0,3.5898e+08,34.501,12983,12171,1,12171,1,0.0006492,-4.5419e-10,0,0.0006492,-0.00012115,2.0882e+08,-122.66,0,2.0882e+08,-25.396,12170,11369,1,11369,1,4.1583e-05,-2.3086e-09,0,4.1583e-05,-0.00023483,1.5027e+07,-707.58,0,1.5027e+07,-87.589,11368,11756,1,11756,1,0.00030199,-1.3055e-09,0,0.00030199,-0.00018607,1.0496e+08,-362.65,0,1.0496e+08,-41.315,11755,12533,1,12533,1,0.00099641,-2.646e-11,0,0.00099641,-5.6223e-05,2.9486e+08,-7.0867,0,2.9486e+08,-9.9956,12532,446.74,0,446.74,0,0.00037526,9.0646e-10,0,0.00037526,7.0203e-05,1.0476e+08,265.13,0,1.0476e+08,22.792,446.74,1
825,4.23,12164,1,12164,1,0.00065116,-2.8355e-09,0,0.00065116,-0.0001215,1.9989e+08,-804.91,0,1.9989e+08,-45.532,12163,12984,1,12984,1,0.0012603,9.4594e-10,0,0.0012603,-7.4456e-06,3.5937e+08,227.4,0,3.5937e+08,76.503,12983,12171,1,12171,1,0.00065116,-2.5249e-09,0,0.00065116,-0.00012152,2.0925e+08,-699.93,0,2.0925e+08,-44.347,12170,11369,1,11369,1,4.2039e-05,-7.1545e-09,0,4.2039e-05,-0.00023548,1.5193e+07,-2187.4,0,1.5193e+07,-168.88,11368,11756,1,11756,1,0.00030309,-4.7377e-09,0,0.00030309,-0.00018659,1.0531e+08,-1344,0,1.0531e+08,-77.064,11755,12533,1,12533,1,0.00099921,-9.2681e-10,0,0.00099921,-5.6427e-05,2.9526e+08,-241.68,0,2.9526e+08,-16.347,12532,446.74,0,446.74,0,0.00037618,2.2709e-09,0,0.00037618,7.0375e-05,1.0482e+08,668.83,0,1.0482e+08,42.424,446.74,1
825,4.24,12164,1,12164,1,0.00065314,-4.68e-10,0,0.00065314,-0.00012187,2.0027e+08,-141.25,0,2.0027e+08,-38.479,12163,12984,1,12984,1,0.0012638,5.7154e-10,0,0.0012638,-7.5311e-06,3.5977e+08,142.35,0,3.5977e+08,23.331,12983,12171,1,12171,1,0.00065314,-4.0393e-10,0,0.00065314,-0.00012188,2.097e+08,-108.49,0,2.097e+08,-32.371,12170,11369,1,11369,1,4.2495e-05,-1.8423e-09,0,4.2495e-05,-0.00023613,1.5358e+07,-574.87,0,1.5358e+07,-113.83,11368,11756,1,11756,1,0.0003042,-1.0094e-09,0,0.0003042,-0.00018712,1.0566e+08,-296.98,0,1.0566e+08,-66.467,11755,12533,1,12533,1,0.0010021,1.242e-10,0,0.0010021,-5.6634e-05,2.9567e+08,30.049,0,2.9567e+08,-11.421,12532,446.74,0,446.74,0,0.00037713,6.7001e-10,0,0.00037713,7.055e-05,1.0487e+08,195.55,0,1.0487e+08,32.5,446.74,1
825,4.25,12164,1,12164,1,0.00065512,1.1521e-09,0,0.00065512,-0.00012224,2.0064e+08,322.5,0,2.0064e+08,-17.274,12163,12984,1,12984,1,0.0012673,3.2659e-09,0,0.0012673,-7.6179e-06,3.6015e+08,978.73,0,3.6015e+08,65.968,12983,12171,1,12171,1,0.00065512,1.0266e-09,0,0.00065512,-0.00012225,2.1014e+08,271.47,0,2.1014e+08,-20.072,12170,11369,1,11369,1,4.296e-05,-1.372e-09,0,4.296e-05,-0.00023678,1.5527e+07,-428.21,0,1.5527e+07,-126.17,11368,11756,1,11756,1,0.00030532,2.0295e-10,0,0.00030532,-0.00018765,1.06e+08,49.848,0,1.06e+08,-42.515,11755,12533,1,12533,1,0.0010049,2.1321e-09,0,0.0010049,-5.684e-05,2.9607e+08,598.08,0,2.9607e+08,5.4861,12532,446.74,0,446.74,0,0.00037806,1.1444e-09,0,0.00037806,7.0724e-05,1.0493e+08,331.82,0,1.0493e+08,34.339,446.74,1
825,4.26,12164,1,12164,1,0.00065709,-3.8751e-10,0,0.00065709,-0.00012261,2.01e+08,-108.98,0,2.01e+08,-38.152,12163,12984,1,12984,1,0.0012708,4.0864e-09,0,0.0012708,-7.705e-06,3.6053e+08,1253.9,0,3.6053e+08,59.524,12983,12171,1,12171,1,0.00065709,-3.589e-10,0,0.00065709,-0.00012262,2.1057e+08,-95.275,0,2.1057e+08,-44.16,12170,11369,1,11369,1,4.3424e-05,-3.1052e-09,0,4.3424e-05,-0.00023742,1.5696e+07,-954.45,0,1.5696e+07,-136.53,11368,11756,1,11756,1,0.00030642,-1.5779e-09,0,0.00030642,-0.00018818,1.0635e+08,-427.05,0,1.0635e+08,-57.604,11755,12533,1,12533,1,0.0010077,3.7705e-10,0,0.0010077,-5.7046e-05,2.9647e+08,103.13,0,2.9647e+08,-17.894,12532,446.74,0,446.74,0,0.00037899,1.5714e-09,0,0.00037899,7.0896e-05,1.0498e+08,454.06,0,1.0498e+08,32.984,446.74,1
825,4.27,12164,1,12164,1,0.00065908,8.4763e-11,0,0.00065908,-0.00012297,2.0138e+08,24.334,0,2.0138e+08,-41.505,12163,12984,1,12984,1,0.0012743,1.709e-09,0,0.0012743,-7.7923e-06,3.6091e+08,532.94,0,3.6091e+08,32.5,12983,12171,1,12171,1,0.00065908,5.4246e-11,0,0.00065908,-0.00012299,2.1101e+08,13.693,0,2.1101e+08,-46.989,12170,11369,1,11369,1,4.3889e-05,-1.5936e-09,0,4.3889e-05,-0.00023807,1.5865e+07,-497,0,1.5865e+07,-93.631,11368,11756,1,11756,1,0.00030754,-1.6673e-10,0,0.00030754,-0.00018871,1.067e+08,-44.556,0,1.067e+08,-58.599,11755,12533,1,12533,1,0.0010106,3.2679e-10,0,0.0010106,-5.7254e-05,2.9687e+08,89.885,0,2.9687e+08,-25.955,12532,446.74,0,446.74,0,0.00037993,5.8131e-10,0,0.00037993,7.107e-05,1.0503e+08,171.37,0,1.0503e+08,24.028,446.74,1
825,4.28,12164,1,12164,1,0.0006611,-9.4977e-10,0,0.0006611,-0.00012335,2.0174e+08,-270.56,0,2.0174e+08,-44.054,12163,12984,1,12984,1,0.0012778,1.1254e-09,0,0.0012778,-7.8855e-06,3.6128e+08,350.6,0,3.6128e+08,38.376,12983,12171,1,12171,1,0.0006611,-7.6885e-10,0,0.0006611,-0.00012336,2.1143e+08,-216.15,0,2.1143e+08,-44.909,12170,11369,1,11369,1,4.439e-05,-3.0625e-09,0,4.439e-05,-0.00023874,1.6044e+07,-940.56,0,1.6044e+07,-162.69,11368,11756,1,11756,1,0.0003087,-1.7841e-09,0,0.0003087,-0.00018924,1.0705e+08,-498.95,0,1.0705e+08,-62.174,11755,12533,1,12533,1,0.0010135,-9.7507e-11,0,0.0010135,-5.7468e-05,2.9726e+08,-26.472,0,2.9726e+08,-24.058,12532,446.74,0,446.74,0,0.00038087,1.0336e-09,0,0.00038087,7.1245e-05,1.0507e+08,300.18,0,1.0507e+08,30.283,446.74,1
825,4.29,12164,1,12164,1,0.00066313,2.8536e-09,0,0.00066313,-0.00012373,2.0209e+08,804.19,0,2.0209e+08,10.101,12163,12984,1,12984,1,0.0012814,7.4874e-09,0,0.0012814,-7.98e-06,3.6164e+08,2291.3,0,3.6164e+08,247.26,12983,12171,1,12171,1,0.00066313,2.5379e-09,0,0.00066313,-0.00012374,2.1186e+08,688.89,0,2.1186e+08,-8.3606,12170,11369,1,11369,1,4.49e-05,-1.2734e-09,0,4.49e-05,-0.0002394,1.6226e+07,-302.79,0,1.6226e+07,-103.76,11368,11756,1,11756,1,0.00030986,7.6061e-10,0,0.00030986,-0.00018978,1.0739e+08,197.03,0,1.0739e+08,-41.021,11755,12533,1,12533,1,0.0010164,4.9285e-09,0,0.0010164,-5.7683e-05,2.9763e+08,1380.1,0,2.9763e+08,39.749,12532,446.74,0,446.74,0,0.00038181,2.4409e-09,0,0.00038181,7.142e-05,1.0511e+08,709.59,0,1.0511e+08,69.803,446.74,1
825,4.3,12164,1,12164,1,0.00066519,-2.9727e-10,0,0.00066519,-0.00012411,2.0246e+08,-75.303,0,2.0246e+08,-41.542,12163,12984,1,12984,1,0.001285,1.1979e-09,0,0.001285,-8.0764e-06,3.6199e+08,373.17,0,3.6199e+08,23.471,12983,12171,1,12171,1,0.00066519,-4.4866e-10,0,0.00066519,-0.00012412,2.1228e+08,-114.72,0,2.1228e+08,-36.407,12170,11369,1,11369,1,4.5414e-05,-1.2376e-09,0,4.5414e-05,-0.00024006,1.6409e+07,-385.17,0,1.6409e+07,-111.01,11368,11756,1,11756,1,0.00031104,-6.2474e-10,0,0.00031104,-0.00019033,1.0774e+08,-162.1,0,1.0774e+08,-67.217,11755,12533,1,12533,1,0.0010193,-1.0751e-10,0,0.0010193,-5.7902e-05,2.9801e+08,-25.592,0,2.9801e+08,-14.792,12532,446.74,0,446.74,0,0.00038277,5.0264e-10,0,0.00038277,7.1597e-05,1.0515e+08,144.63,0,1.0515e+08,33.55,446.74,1
825,4.31,12164,1,12164,1,0.00066726,-2.8857e-09,0,0.00066726,-0.00012449,2.0282e+08,-810.74,0,2.0282e+08,-44.88,12163,12984,1,12984,1,0.0012886,8.7884e-10,0,0.0012886,-8.1738e-06,3.6234e+08,208.14,0,3.6234e+08,71.414,12983,12171,1,12171,1,0.00066726,-3.1457e-09,0,0.00066726,-0.0001245,2.1271e+08,-868.62,0,2.1271e+08,-43.409,12170,11369,1,11369,1,4.5938e-05,-5.3457e-09,0,4.5938e-05,-0.00024074,1.6596e+07,-1584.7,0,1.6596e+07,-190.96,11368,11756,1,11756,1,0.00031222,-4.3296e-09,0,0.00031222,-0.00019088,1.081e+08,-1232.4,0,1.081e+08,-71.235,11755,12533,1,12533,1,0.0010223,-1.7718e-09,0,0.0010223,-5.8122e-05,2.9839e+08,-454.69,0,2.9839e+08,-5.6151,12532,446.74,0,446.74,0,0.00038372,1.7386e-09,0,0.00038372,7.1774e-05,1.0519e+08,509.65,0,1.0519e+08,49.611,446.74,1
825,4.32,12164,1,12164,1,0.00066932,-1.8176e-09,0,0.00066932,-0.00012487,2.0317e+08,-520,0,2.0317e+08,-27.015,12163,12984,1,12984,1,0.0012922,9.9016e-10,0,0.0012922,-8.2716e-06,3.6268e+08,234.44,0,3.6268e+08,71.539,12983,12171,1,12171,1,0.00066932,-1.6157e-09,0,0.00066932,-0.00012489,2.1313e+08,-427.2,0,2.1313e+08,-21.301,12170,11369,1,11369,1,4.6463e-05,-5.199e-09,0,4.6463e-05,-0.0002414,1.6783e+07,-1615.6,0,1.6783e+07,-164.56,11368,11756,1,11756,1,0.00031341,-3.3788e-09,0,0.00031341,-0.00019142,1.0845e+08,-963.81,0,1.0845e+08,-64.472,11755,12533,1,12533,1,0.0010252,-1.9301e-10,0,0.0010252,-5.8341e-05,2.9876e+08,-49.606,0,2.9876e+08,17.66,12532,446.74,0,446.74,0,0.00038467,1.8058e-09,0,0.00038467,7.1949e-05,1.0522e+08,527.32,0,1.0522e+08,51.465,446.74,1
825,4.33,12164,1,12164,1,0.00067138,-2.5515e-09,0,0.00067138,-0.00012526,2.0353e+08,-727.05,0,2.0353e+08,-41.44,12163,12984,1,12984,1,0.0012958,1.0141e-09,0,0.0012958,-8.3697e-06,3.6302e+08,239.79,0,3.6302e+08,69.761,12983,12171,1,12171,1,0.00067138,-2.8168e-09,0,0.00067138,-0.00012527,2.1355e+08,-748.65,0,2.1355e+08,-25.877,12170,11369,1,11369,1,4.6988e-05,-5.6654e-09,0,4.6988e-05,-0.00024207,1.697e+07,-1762.5,0,1.697e+07,-243.39,11368,11756,1,11756,1,0.00031459,-3.9853e-09,0,0.00031459,-0.00019196,1.088e+08,-1165.2,0,1.088e+08,-87.208,11755,12533,1,12533,1,0.0010282,-1.0704e-09,0,0.0010282,-5.8561e-05,2.9912e+08,-263.39,0,2.9912e+08,20.461,12532,446.74,0,446.74,0,0.00038561,1.8247e-09,0,0.00038561,7.2125e-05,1.0526e+08,542.42,0,1.0526e+08,74.439,446.74,1
825,4.34,12164,1,12164,1,0.00067344,4.469e-09,0,0.00067344,-0.00012564,2.0388e+08,1243.2,0,2.0388e+08,20.685,12163,12984,1,12984,1,0.0012994,8.1684e-09,0,0.0012994,-8.4679e-06,3.6335e+08,2375.6,0,3.6335e+08,281.24,12983,12171,1,12171,1,0.00067344,4.8332e-09,0,0.00067344,-0.00012565,2.1397e+08,1278.4,0,2.1397e+08,4.0128,12170,11369,1,11369,1,4.7519e-05,-1.0216e-09,0,4.7519e-05,-0.00024274,1.716e+07,-240.24,0,1.716e+07,-115,11368,11756,1,11756,1,0.00031577,2.3941e-09,0,0.00031577,-0.00019251,1.0915e+08,613.28,0,1.0915e+08,-33.186,11755,12533,1,12533,1,0.0010311,6.897e-09,0,0.0010311,-5.878e-05,2.9948e+08,1939.2,0,2.9948e+08,54.569,12532,446.74,0,446.74,0,0.00038656,2.6065e-09,0,0.00038656,7.23e-05,1.0529e+08,758.87,0,1.0529e+08,78.72,446.74,1
825,4.35,12164,1,12164,1,0.00067552,-4.1937e-10,0,0.00067552,-0.00012602,2.0424e+08,-109.58,0,2.0424e+08,-22.4,12163,12984,1,12984,1,0.001303,8.6094e-10,0,0.001303,-8.5679e-06,3.6368e+08,267.53,0,3.6368e+08,62.732,12983,12171,1,12171,1,0.00067551,-4.816e-10,0,0.00067551,-0.00012603,2.1439e+08,-123.03,0,2.1439e+08,-24.959,12170,11369,1,11369,1,4.8053e-05,-1.8298e-09,0,4.8053e-05,-0.00024341,1.735e+07,-560.5,0,1.735e+07,-94.308,11368,11756,1,11756,1,0.00031697,-6.8848e-10,0,0.00031697,-0.00019306,1.095e+08,-177.04,0,1.095e+08,-54.977,11755,12533,1,12533,1,0.0010341,-1.328e-10,0,0.0010341,-5.9001e-05,2.9986e+08,-36.526,0,2.9986e+08,7.5183,12532,446.74,0,446.74,0,0.00038751,5.2874e-10,0,0.00038751,7.2477e-05,1.0532e+08,151.92,0,1.0532e+08,39.791,446.74,1
825,4.36,12164,1,12164,1,0.00067759,9.8035e-10,0,0.00067759,-0.00012641,2.0459e+08,277.04,0,2.0459e+08,-10.485,12163,12984,1,12984,1,0.0013066,2.0254e-09,0,0.0013066,-8.6684e-06,3.6401e+08,629.22,0,3.6401e+08,82.027,12983,12171,1,12171,1,0.00067759,1.092e-09,0,0.00067759,-0.00012642,2.1481e+08,292.9,0,2.1481e+08,-11.882,12170,11369,1,11369,1,4.8592e-05,-3.1156e-10,0,4.8592e-05,-0.00024408,1.7542e+07,-73.327,0,1.7542e+07,-71.326,11368,11756,1,11756,1,0.00031817,5.0043e-10,0,0.00031817,-0.00019361,1.0985e+08,125.94,0,1.0985e+08,-43.582,11755,12533,1,12533,1,0.001037,1.4818e-09,0,0.001037,-5.9224e-05,3.0022e+08,428.93,0,3.0022e+08,9.8584,12532,446.74,0,446.74,0,0.00038846,6.3735e-10,0,0.00038846,7.2654e-05,1.0535e+08,190.25,0,1.0535e+08,37.816,446.74,1
825,4.37,12164,1,12164,1,0.00067966,-1.0353e-09,0,0.00067966,-0.00012679,2.0494e+08,-288.17,0,2.0494e+08,-19.065,12163,12984,1,12984,1,0.0013102,2.2931e-09,0,0.0013102,-8.769e-06,3.6432e+08,711.91,0,3.6432e+08,87.877,12983,12171,1,12171,1,0.00067966,-1.0711e-09,0,0.00067966,-0.0001268,2.1523e+08,-278.12,0,2.1523e+08,-17.944,12170,11369,1,11369,1,4.9133e-05,-3.0895e-09,0,4.9133e-05,-0.00024474,1.7734e+07,-928.19,0,1.7734e+07,-125.52,11368,11756,1,11756,1,0.00031936,-2.2803e-09,0,0.00031936,-0.00019415,1.102e+08,-625.85,0,1.102e+08,-42.324,11755,12533,1,12533,1,0.00104,-3.0203e-12,0,0.00104,-5.9445e-05,3.0057e+08,-0.78988,0,3.0057e+08,0.29096,12532,446.74,0,446.74,0,0.0003894,1.3179e-09,0,0.0003894,7.2828e-05,1.0537e+08,376.01,0,1.0537e+08,32.401,446.74,1
825,4.38,12164,1,12164,1,0.00068174,2.1466e-09,0,0.00068174,-0.00012718,2.0529e+08,599.74,0,2.0529e+08,3.8836,12163,12984,1,12984,1,0.0013138,6.5738e-09,0,0.0013138,-8.8695e-06,3.6465e+08,2036.1,0,3.6465e+08,208.79,12983,12171,1,12171,1,0.00068174,1.6862e-09,0,0.00068174,-0.00012719,2.1565e+08,443.34,0,2.1565e+08,-12.912,12170,11369,1,11369,1,4.9674e-05,-1.0191e-09,0,4.9674e-05,-0.00024542,1.7927e+07,-316.55,0,1.7927e+07,-91.532,11368,11756,1,11756,1,0.00032056,2.8553e-10,0,0.00032056,-0.0001947,1.1056e+08,68.76,0,1.1056e+08,-41.738,11755,12533,1,12533,1,0.0010429,3.8273e-09,0,0.0010429,-5.9667e-05,3.0093e+08,1044.7,0,3.0093e+08,35.823,12532,446.74,0,446.74,0,0.00039036,2.0751e-09,0,0.00039036,7.3005e-05,1.054e+08,602.07,0,1.054e+08,63.313,446.74,1
825,4.39,12164,1,12164,1,0.00068383,-2.1975e-10,0,0.00068383,-0.00012757,2.0564e+08,-55.196,0,2.0564e+08,-38.533,12163,12984,1,12984,1,0.0013175,7.3625e-10,0,0.0013175,-8.972e-06,3.6497e+08,228.48,0,3.6497e+08,33.635,12983,12171,1,12171,1,0.00068383,-2.0022e-10,0,0.00068383,-0.00012758,2.1607e+08,-51.491,0,2.1607e+08,-44.183,12170,11369,1,11369,1,5.0222e-05,-1.2423e-09,0,5.0222e-05,-0.00024609,1.8121e+07,-315.71,0,1.8121e+07,-100.15,11368,11756,1,11756,1,0.00032177,-4.7174e-10,0,0.00032177,-0.00019525,1.1091e+08,-123.35,0,1.1091e+08,-64.61,11755,12533,1,12533,1,0.0010459,-2.3569e-12,0,0.0010459,-5.9892e-05,3.0128e+08,-0.56844,0,3.0128e+08,-11.323,12532,446.74,0,446.74,0,0.00039131,3.9656e-10,0,0.00039131,7.3182e-05,1.0542e+08,109.5,0,1.0542e+08,32.085,446.74,1
825,4.4,12164,1,12164,1,0.0006859,8.0778e-10,0,0.0006859,-0.00012795,2.0598e+08,233.19,0,2.0598e+08,7.9733,12163,12984,1,12984,1,0.0013211,5.8058e-09,0,0.0013211,-9.0743e-06,3.6527e+08,1800.8,0,3.6527e+08,265.8,12983,12171,1,12171,1,0.0006859,3.7008e-10,0,0.0006859,-0.00012796,2.1647e+08,95.511,0,2.1647e+08,-6.6067,12170,11369,1,11369,1,5.0772e-05,-3.4927e-09,0,5.0772e-05,-0.00024676,1.8317e+07,-1079.1,0,1.8317e+07,-121.54,11368,11756,1,11756,1,0.00032297,-7.2045e-10,0,0.00032297,-0.00019579,1.1126e+08,-176.69,0,1.1126e+08,-49.075,11755,12533,1,12533,1,0.0010488,2.4341e-09,0,0.0010488,-6.0114e-05,3.0162e+08,651.57,0,3.0162e+08,47.705,12532,446.74,0,446.74,0,0.00039225,2.1483e-09,0,0.00039225,7.3356e-05,1.0544e+08,613.52,0,1.0544e+08,77.548,446.74,1
825,4.41,12164,1,12164,1,0.000688,-8.2971e-10,0,0.000688,-0.00012834,2.0633e+08,-226.77,0,2.0633e+08,-50.008,12163,12984,1,12984,1,0.0013247,1.5259e-09,0,0.0013247,-9.1772e-06,3.6559e+08,473.04,0,3.6559e+08,39.413,12983,12171,1,12171,1,0.000688,-8.9848e-10,0,0.000688,-0.00012835,2.1689e+08,-231.89,0,2.1689e+08,-54.53,12170,11369,1,11369,1,5.1322e-05,-1.9277e-09,0,5.1322e-05,-0.00024744,1.8513e+07,-591.89,0,1.8513e+07,-156.32,11368,11756,1,11756,1,0.00032419,-1.4634e-09,0,0.00032419,-0.00019635,1.1162e+08,-403.32,0,1.1162e+08,-76.406,11755,12533,1,12533,1,0.0010518,-3.3003e-10,0,0.0010518,-6.034e-05,3.0198e+08,-82.746,0,3.0198e+08,-22.297,12532,446.74,0,446.74,0,0.00039321,7.3208e-10,0,0.00039321,7.3533e-05,1.0547e+08,210.04,0,1.0547e+08,36.322,446.74,1
825,4.42,12164,1,12164,1,0.00069011,-2.6481e-09,0,0.00069011,-0.00012873,2.0668e+08,-740.17,0,2.0668e+08,-52.21,12163,12984,1,12984,1,0.0013284,8.9996e-10,0,0.0013284,-9.2815e-06,3.659e+08,208.97,0,3.659e+08,75.663,12983,12171,1,12171,1,0.00069011,-2.9252e-09,0,0.00069011,-0.00012874,2.1731e+08,-776.44,0,2.1731e+08,-46.81,12170,11369,1,11369,1,5.1882e-05,-5.0877e-09,0,5.1882e-05,-0.00024812,1.8711e+07,-1539.8,0,1.8711e+07,-216.21,11368,11756,1,11756,1,0.00032541,-4.0551e-09,0,0.00032541,-0.0001969,1.1198e+08,-1140.2,0,1.1198e+08,-91.927,11755,12533,1,12533,1,0.0010548,-1.5163e-09,0,0.0010548,-6.0566e-05,3.0232e+08,-386.1,0,3.0232e+08,-3.4274,12532,446.74,0,446.74,0,0.00039416,1.6946e-09,0,0.00039416,7.371e-05,1.0549e+08,495.37,0,1.0549e+08,58.153,446.74,1
825,4.43,12164,1,12164,1,0.00069221,-2.393e-09,0,0.00069221,-0.00012912,2.0702e+08,-676.33,0,2.0702e+08,-16.91,12163,12984,1,12984,1,0.001332,9.4063e-10,0,0.001332,-9.3858e-06,3.6619e+08,218.28,0,3.6619e+08,89.439,12983,12171,1,12171,1,0.0006922,-2.6462e-09,0,0.0006922,-0.00012913,2.1772e+08,-726.42,0,2.1772e+08,-6.723,12170,11369,1,11369,1,5.2442e-05,-4.8619e-09,0,5.2442e-05,-0.00024879,1.891e+07,-1506.4,0,1.891e+07,-181.04,11368,11756,1,11756,1,0.00032663,-3.8071e-09,0,0.00032663,-0.00019745,1.1233e+08,-1097.3,0,1.1233e+08,-58.48,11755,12533,1,12533,1,0.0010578,-1.0658e-09,0,0.0010578,-6.0793e-05,3.0266e+08,-258.29,0,3.0266e+08,32.015,12532,446.74,0,446.74,0,0.00039511,1.6842e-09,0,0.00039511,7.3886e-05,1.055e+08,496.81,0,1.055e+08,61.74,446.74,1
825,4.44,12164,1,12164,1,0.00069432,2.2262e-09,0,0.00069432,-0.00012951,2.0737e+08,606.79,0,2.0737e+08,-1.1876,12163,12984,1,12984,1,0.0013356,3.7953e-09,0,0.0013356,-9.4907e-06,3.665e+08,1090.2,0,3.665e+08,75.683,12983,12171,1,12171,1,0.00069432,2.3433e-09,0,0.00069432,-0.00012952,2.1813e+08,633.36,0,2.1813e+08,-4.6722,12170,11369,1,11369,1,5.3006e-05,-3.533e-10,0,5.3006e-05,-0.00024947,1.9111e+07,-81.384,0,1.9111e+07,-54.72,11368,11756,1,11756,1,0.00032786,1.5194e-09,0,0.00032786,-0.00019801,1.1269e+08,404.54,0,1.1269e+08,-26.779,11755,12533,1,12533,1,0.0010608,3.1694e-09,0,0.0010608,-6.102e-05,3.0301e+08,872.45,0,3.0301e+08,15.426,12532,446.74,0,446.74,0,0.00039606,1.0855e-09,0,0.00039606,7.4064e-05,1.0552e+08,309.85,0,1.0552e+08,29.658,446.74,1
825,4.45,12164,1,12164,1,0.00069642,2.2567e-09,0,0.00069642,-0.0001299,2.0771e+08,628.59,0,2.0771e+08,8.0251,12163,12984,1,12984,1,0.0013393,5.538e-09,0,0.0013393,-9.5971e-06,3.6678e+08,1676.7,0,3.6678e+08,185.9,12983,12171,1,12171,1,0.00069642,2.0406e-09,0,0.00069642,-0.00012991,2.1854e+08,544.32,0,2.1854e+08,-4.5678,12170,11369,1,11369,1,5.3577e-05,-8.447e-10,0,5.3577e-05,-0.00025014,1.9313e+07,-194.93,0,1.9313e+07,-80.163,11368,11756,1,11756,1,0.00032908,5.033e-10,0,0.00032908,-0.00019856,1.1305e+08,134.81,0,1.1305e+08,-30.678,11755,12533,1,12533,1,0.0010638,4.0049e-09,0,0.0010638,-6.1247e-05,3.0334e+08,1096.5,0,3.0334e+08,39.908,12532,446.74,0,446.74,0,0.00039701,1.8758e-09,0,0.00039701,7.4239e-05,1.0553e+08,542.93,0,1.0553e+08,56.314,446.74,1
825,4.46,12164,1,12164,1,0.00069854,-1.6543e-09,0,0.00069854,-0.00013029,2.0806e+08,-453.74,0,2.0806e+08,-35.261,12163,12984,1,12984,1,0.0013429,5.1419e-10,0,0.0013429,-9.7036e-06,3.6708e+08,118.44,0,3.6708e+08,29.075,12983,12171,1,12171,1,0.00069854,-1.9273e-09,0,0.00069854,-0.0001303,2.1896e+08,-522.6,0,2.1896e+08,-35.495,12170,11369,1,11369,1,5.4147e-05,-2.7927e-09,0,5.4147e-05,-0.00025082,1.9515e+07,-770.87,0,1.9515e+07,-152.72,11368,11756,1,11756,1,0.00033032,-2.2791e-09,0,0.00033032,-0.00019912,1.1341e+08,-647.94,0,1.1341e+08,-54.661,11755,12533,1,12533,1,0.0010668,-1.2094e-09,0,0.0010668,-6.1476e-05,3.0368e+08,-298.46,0,3.0368e+08,-10.615,12532,446.74,0,446.74,0,0.00039797,8.5444e-10,0,0.00039797,7.4417e-05,1.0555e+08,241.47,0,1.0555e+08,32.324,446.74,1
825,4.47,12164,1,12164,1,0.00070066,-4.4912e-10,0,0.00070066,-0.00013069,2.084e+08,-129.9,0,2.084e+08,-14.395,12163,12984,1,12984,1,0.0013466,7.0865e-10,0,0.0013466,-9.8109e-06,3.6736e+08,188.44,0,3.6736e+08,45.547,12983,12171,1,12171,1,0.00070066,-3.4643e-10,0,0.00070066,-0.0001307,2.1937e+08,-92.517,0,2.1937e+08,-11.853,12170,11369,1,11369,1,5.4724e-05,-1.8105e-09,0,5.4724e-05,-0.0002515,1.972e+07,-560.18,0,1.972e+07,-123.79,11368,11756,1,11756,1,0.00033156,-1.0558e-09,0,0.00033156,-0.00019968,1.1377e+08,-288.35,0,1.1377e+08,-35.069,11755,12533,1,12533,1,0.0010698,1.5667e-10,0,0.0010698,-6.1705e-05,3.0401e+08,38.011,0,3.0401e+08,7.2649,12532,446.74,0,446.74,0,0.00039892,6.9117e-10,0,0.00039892,7.4594e-05,1.0556e+08,195.59,0,1.0556e+08,28.37,446.74,1
825,4.48,12164,1,12164,1,0.00070278,-3.3262e-09,0,0.00070278,-0.00013108,2.0874e+08,-927.8,0,2.0874e+08,-37.702,12163,12984,1,12984,1,0.0013503,9.6372e-10,0,0.0013503,-9.9186e-06,3.6765e+08,221.27,0,3.6765e+08,54.678,12983,12171,1,12171,1,0.00070278,-3.9065e-09,0,0.00070278,-0.00013109,2.1978e+08,-1041.3,0,2.1978e+08,-19.69,12170,11369,1,11369,1,5.5301e-05,-5.9908e-09,0,5.5301e-05,-0.00025219,1.9924e+07,-1824.3,0,1.9924e+07,-237.72,11368,11756,1,11756,1,0.0003328,-5.044e-09,0,0.0003328,-0.00020023,1.1413e+08,-1449.2,0,1.1413e+08,-74.85,11755,12533,1,12533,1,0.0010728,-1.9185e-09,0,0.0010728,-6.1936e-05,3.0434e+08,-460.9,0,3.0434e+08,12.172,12532,446.74,0,446.74,0,0.00039987,2.0091e-09,0,0.00039987,7.477e-05,1.0557e+08,592.7,0,1.0557e+08,66.347,446.74,1
825,4.49,12164,1,12164,1,0.00070491,-2.8073e-09,0,0.00070491,-0.00013147,2.0908e+08,-796.64,0,2.0908e+08,-29.736,12163,12984,1,12984,1,0.001354,1.5351e-09,0,0.001354,-1.0027e-05,3.6793e+08,351.96,0,3.6793e+08,112.69,12983,12171,1,12171,1,0.00070491,-3.0787e-09,0,0.00070491,-0.00013148,2.2018e+08,-818.83,0,2.2018e+08,-10.051,12170,11369,1,11369,1,5.588e-05,-6.513e-09,0,5.588e-05,-0.00025287,2.0129e+07,-2013.1,0,2.0129e+07,-287.69,11368,11756,1,11756,1,0.00033404,-4.7878e-09,0,0.00033404,-0.00020079,1.1449e+08,-1362.4,0,1.1449e+08,-83.356,11755,12533,1,12533,1,0.0010758,-9.7487e-10,0,0.0010758,-6.2167e-05,3.0466e+08,-232.37,0,3.0466e+08,33.499,12532,446.74,0,446.74,0,0.00040083,2.2802e-09,0,0.00040083,7.4947e-05,1.0558e+08,662.83,0,1.0558e+08,89.465,446.74,1
825,4.5,12164,1,12164,1,0.00070704,3.0002e-09,0,0.00070704,-0.00013187,2.0942e+08,813.79,0,2.0942e+08,18.715,12163,12984,1,12984,1,0.0013576,5.1516e-09,0,0.0013576,-1.0135e-05,3.6821e+08,1432.6,0,3.6821e+08,174.51,12983,12171,1,12171,1,0.00070704,3.253e-09,0,0.00070704,-0.00013188,2.2059e+08,876.71,0,2.2059e+08,4.5473,12170,11369,1,11369,1,5.6466e-05,-5.7395e-10,0,5.6466e-05,-0.00025354,2.0337e+07,-130.62,0,2.0337e+07,-85.136,11368,11756,1,11756,1,0.00033529,2.0037e-09,0,0.00033529,-0.00020135,1.1485e+08,509.71,0,1.1485e+08,-17.028,11755,12533,1,12533,1,0.0010788,4.2883e-09,0,0.0010788,-6.2397e-05,3.0499e+08,1199.3,0,3.0499e+08,44.623,12532,446.74,0,446.74,0,0.00040178,1.545e-09,0,0.00040178,7.5124e-05,1.0558e+08,433,0,1.0558e+08,50.008,446.74,1
825,4.51,12164,1,12164,1,0.00070916,2.6357e-09,0,0.00070916,-0.00013226,2.0975e+08,733.14,0,2.0975e+08,20.467,12163,12984,1,12984,1,0.0013613,6.9865e-09,0,0.0013613,-1.0245e-05,3.6847e+08,2152.4,0,3.6847e+08,292.71,12983,12171,1,12171,1,0.00070916,2.3518e-09,0,0.00070916,-0.00013227,2.2099e+08,632.38,0,2.2099e+08,-2.0142,12170,11369,1,11369,1,5.7057e-05,-1.2904e-09,0,5.7057e-05,-0.00025423,2.0546e+07,-294.35,0,2.0546e+07,-90.985,11368,11756,1,11756,1,0.00033653,6.4211e-10,0,0.00033653,-0.0002019,1.1521e+08,162.39,0,1.1521e+08,-38.846,11755,12533,1,12533,1,0.0010818,4.6391e-09,0,0.0010818,-6.2627e-05,3.053e+08,1277.5,0,3.053e+08,50.446,12532,446.74,0,446.74,0,0.00040273,2.2918e-09,0,0.00040273,7.5299e-05,1.0559e+08,657.96,0,1.0559e+08,82.033,446.74,1
825,4.52,12164,1,12164,1,0.00071131,1.6741e-09,0,0.00071131,-0.00013266,2.1009e+08,474.99,0,2.1009e+08,-27.604,12163,12984,1,12984,1,0.001365,4.1678e-09,0,0.001365,-1.0355e-05,3.6874e+08,1286.6,0,3.6874e+08,130.49,12983,12171,1,12171,1,0.0007113,1.7223e-09,0,0.0007113,-0.00013267,2.214e+08,457.24,0,2.214e+08,-34.901,12170,11369,1,11369,1,5.7646e-05,-8.6143e-10,0,5.7646e-05,-0.00025491,2.0754e+07,-196.55,0,2.0754e+07,-118.55,11368,11756,1,11756,1,0.00033779,5.8555e-10,0,0.00033779,-0.00020247,1.1557e+08,139.76,0,1.1557e+08,-73.986,11755,12533,1,12533,1,0.0010848,2.7979e-09,0,0.0010848,-6.2861e-05,3.0563e+08,800.83,0,3.0563e+08,10.626,12532,446.74,0,446.74,0,0.00040369,1.3919e-09,0,0.00040369,7.5478e-05,1.0559e+08,407.57,0,1.0559e+08,55.653,446.74,1
825,4.53,12164,1,12164,1,0.0007135,8.298e-10,0,0.0007135,-0.00013307,2.1041e+08,240.39,0,2.1041e+08,-33.538,12163,12984,1,12984,1,0.0013687,3.0009e-09,0,0.0013687,-1.0473e-05,3.6899e+08,925.99,0,3.6899e+08,109.42,12983,12171,1,12171,1,0.0007135,5.0092e-10,0,0.0007135,-0.00013307,2.2179e+08,136.68,0,2.2179e+08,-39.499,12170,11369,1,11369,1,5.8285e-05,-4.4187e-10,0,5.8285e-05,-0.00025561,2.0975e+07,-101.7,0,2.0975e+07,-200.95,11368,11756,1,11756,1,0.0003391,-5.3402e-11,0,0.0003391,-0.00020304,1.1593e+08,-13.049,0,1.1593e+08,-65.331,11755,12533,1,12533,1,0.0010879,1.5879e-09,0,0.0010879,-6.3103e-05,3.0593e+08,448.78,0,3.0593e+08,-7.5264,12532,446.74,0,446.74,0,0.00040465,9.9251e-10,0,0.00040465,7.5656e-05,1.0559e+08,291.79,0,1.0559e+08,46.521,446.74,1
825,4.54,12164,1,12164,1,0.00071575,1.9363e-11,0,0.00071575,-0.00013348,2.1073e+08,21.051,0,2.1073e+08,-35.593,12163,12984,1,12984,1,0.0013726,3.0087e-09,0,0.0013726,-1.0598e-05,3.6921e+08,915,0,3.6921e+08,159.02,12983,12171,1,12171,1,0.00071575,-4.5157e-10,0,0.00071575,-0.00013349,2.2218e+08,-111.18,0,2.2218e+08,-51.045,12170,11369,1,11369,1,5.896e-05,-1.4226e-09,0,5.896e-05,-0.00025632,2.1204e+07,-432.15,0,2.1204e+07,-144.12,11368,11756,1,11756,1,0.00034045,-8.9968e-10,0,0.00034045,-0.00020362,1.1628e+08,-222.63,0,1.1628e+08,-77.032,11755,12533,1,12533,1,0.0010911,7.4237e-10,0,0.0010911,-6.3352e-05,3.0622e+08,201.6,0,3.0622e+08,-3.838,12532,446.74,0,446.74,0,0.00040563,1.2005e-09,0,0.00040563,7.5837e-05,1.0558e+08,338.21,0,1.0558e+08,56.766,446.74,1
825,4.55,12164,1,12164,1,0.00071801,2.5147e-09,0,0.00071801,-0.0001339,2.1104e+08,708.1,0,2.1104e+08,-49.807,12163,12984,1,12984,1,0.0013764,1.1974e-08,0,0.0013764,-1.0724e-05,3.6943e+08,3631.5,0,3.6943e+08,277.76,12983,12171,1,12171,1,0.00071801,1.0644e-09,0,0.00071801,-0.00013391,2.2255e+08,284.04,0,2.2255e+08,-61.419,12170,11369,1,11369,1,5.9647e-05,-2.4627e-09,0,5.9647e-05,-0.00025703,2.1438e+07,-735.19,0,2.1438e+07,-375.21,11368,11756,1,11756,1,0.00034181,-5.0518e-10,0,0.00034181,-0.0002042,1.1664e+08,-116.42,0,1.1664e+08,-117.82,11755,12533,1,12533,1,0.0010942,4.987e-09,0,0.0010942,-6.3604e-05,3.065e+08,1356.5,0,3.065e+08,21.091,12532,446.74,0,446.74,0,0.0004066,3.9068e-09,0,0.0004066,7.6017e-05,1.0556e+08,1111.6,0,1.0556e+08,127.72,446.74,1
825,4.56,12164,1,12164,1,0.00072028,4.8182e-09,0,0.00072028,-0.00013432,2.1136e+08,1341.8,0,2.1136e+08,-37.737,12163,12984,1,12984,1,0.0013803,1.2078e-08,0,0.0013803,-1.0852e-05,3.6964e+08,3706.7,0,3.6964e+08,429.22,12983,12171,1,12171,1,0.00072028,4.3559e-09,0,0.00072028,-0.00013433,2.2293e+08,1148.2,0,2.2293e+08,-62.942,12170,11369,1,11369,1,6.0338e-05,-1.6381e-09,0,6.0338e-05,-0.00025775,2.1672e+07,-370.57,0,2.1672e+07,-316.68,11368,11756,1,11756,1,0.00034318,1.7928e-09,0,0.00034318,-0.00020479,1.1699e+08,458.97,0,1.1699e+08,-142.29,11755,12533,1,12533,1,0.0010974,7.7133e-09,0,0.0010974,-6.3857e-05,3.0677e+08,2163.8,0,3.0677e+08,46.637,12532,446.74,0,446.74,0,0.00040757,3.7026e-09,0,0.00040757,7.6198e-05,1.0554e+08,1089.9,0,1.0554e+08,146.36,446.74,1
825,4.57,12164,1,12164,1,0.00072257,6.3573e-10,0,0.00072257,-0.00013475,2.1167e+08,215.56,0,2.1167e+08,-13.615,12163,12984,1,12984,1,0.0013842,1.0473e-08,0,0.0013842,-1.098e-05,3.6984e+08,3221,0,3.6984e+08,601.07,12983,12171,1,12171,1,0.00072256,-6.2618e-10,0,0.00072256,-0.00013475,2.2331e+08,-163.59,0,2.2331e+08,-56.147,12170,11369,1,11369,1,6.1037e-05,-6.4324e-09,0,6.1037e-05,-0.00025847,2.1909e+07,-1908.1,0,2.1909e+07,-327.17,11368,11756,1,11756,1,0.00034456,-2.2056e-09,0,0.00034456,-0.00020538,1.1735e+08,-529.23,0,1.1735e+08,-146.4,11755,12533,1,12533,1,0.0011006,3.3911e-09,0,0.0011006,-6.4112e-05,3.0704e+08,926.16,0,3.0704e+08,78.607,12532,446.74,0,446.74,0,0.00040855,4.0939e-09,0,0.00040855,7.6379e-05,1.0552e+08,1159.2,0,1.0552e+08,182,446.74,1
825,4.58,12164,1,12164,1,0.00072486,2.4737e-10,0,0.00072486,-0.00013517,2.1198e+08,92.711,0,2.1198e+08,-104.81,12163,12984,1,12984,1,0.001388,4.2065e-09,0,0.001388,-1.1111e-05,3.7004e+08,1292.4,0,3.7004e+08,86.844,12983,12171,1,12171,1,0.00072486,-1.8445e-10,0,0.00072486,-0.00013518,2.2369e+08,-48.027,0,2.2369e+08,-96.368,12170,11369,1,11369,1,6.1744e-05,-1.9485e-09,0,6.1744e-05,-0.00025918,2.2149e+07,-458.62,0,2.2149e+07,-314.73,11368,11756,1,11756,1,0.00034595,-7.1289e-10,0,0.00034595,-0.00020598,1.1771e+08,-178.15,0,1.1771e+08,-188.48,11755,12533,1,12533,1,0.0011038,9.2696e-10,0,0.0011038,-6.4369e-05,3.0731e+08,261.45,0,3.0731e+08,-14.156,12532,446.74,0,446.74,0,0.00040953,1.4351e-09,0,0.00040953,7.6561e-05,1.0549e+08,407.24,0,1.0549e+08,101.84,446.74,1
825,4.59,12164,1,12164,1,0.00072717,3.7329e-09,0,0.00072717,-0.0001356,2.1229e+08,1047.8,0,2.1229e+08,-46.205,12163,12984,1,12984,1,0.001392,1.0141e-08,0,0.001392,-1.1242e-05,3.7025e+08,3110.4,0,3.7025e+08,428.68,12983,12171,1,12171,1,0.00072717,3.4258e-09,0,0.00072717,-0.0001356,2.2406e+08,878.11,0,2.2406e+08,-64.219,12170,11369,1,11369,1,6.2458e-05,-1.8497e-09,0,6.2458e-05,-0.00025991,2.239e+07,-415.44,0,2.239e+07,-299.53,11368,11756,1,11756,1,0.00034735,8.1949e-10,0,0.00034735,-0.00020657,1.1807e+08,217.49,0,1.1807e+08,-174.08,11755,12533,1,12533,1,0.001107,6.4181e-09,0,0.001107,-6.4627e-05,3.0758e+08,1795.2,0,3.0758e+08,41.291,12532,446.74,0,446.74,0,0.00041052,3.3298e-09,0,0.00041052,7.6745e-05,1.0547e+08,968,0,1.0547e+08,165.32,446.74,1
825,4.6,12164,1,12164,1,0.0007295,-2.8388e-09,0,0.0007295,-0.00013603,2.126e+08,-750.12,0,2.126e+08,-65.307,12163,12984,1,12984,1,0.0013958,4.5408e-10,0,0.0013958,-1.1375e-05,3.7044e+08,101.32,0,3.7044e+08,79.097,12983,12171,1,12171,1,0.0007295,-3.2765e-09,0,0.0007295,-0.00013603,2.2444e+08,-860.38,0,2.2444e+08,-63.789,12170,11369,1,11369,1,6.3178e-05,-4.4163e-09,0,6.3178e-05,-0.00026063,2.2633e+07,-1153.4,0,2.2633e+07,-190.46,11368,11756,1,11756,1,0.00034875,-3.8264e-09,0,0.00034875,-0.00020717,1.1844e+08,-1026.9,0,1.1844e+08,-115.56,11755,12533,1,12533,1,0.0011102,-2.0705e-09,0,0.0011102,-6.4887e-05,3.0785e+08,-538.74,0,3.0785e+08,-16.999,12532,446.74,0,446.74,0,0.00041151,1.247e-09,0,0.00041151,7.6929e-05,1.0544e+08,337.07,0,1.0544e+08,60.166,446.74,1
825,4.61,12164,1,12164,1,0.00073183,-1.1014e-09,0,0.00073183,-0.00013646,2.1291e+08,-293.89,0,2.1291e+08,-46.47,12163,12984,1,12984,1,0.0013998,2.094e-10,0,0.0013998,-1.151e-05,3.7062e+08,46.788,0,3.7062e+08,56.31,12983,12171,1,12171,1,0.00073183,-1.2044e-09,0,0.00073183,-0.00013647,2.2482e+08,-333.69,0,2.2482e+08,-39.489,12170,11369,1,11369,1,6.3911e-05,-2.0352e-09,0,6.3911e-05,-0.00026136,2.288e+07,-523.97,0,2.288e+07,-141.31,11368,11756,1,11756,1,0.00035016,-1.5211e-09,0,0.00035016,-0.00020778,1.188e+08,-405.16,0,1.188e+08,-82.099,11755,12533,1,12533,1,0.0011135,-7.9904e-10,0,0.0011135,-6.5148e-05,3.0811e+08,-202.1,0,3.0811e+08,-10.081,12532,446.74,0,446.74,0,0.0004125,5.6112e-10,0,0.0004125,7.7112e-05,1.0541e+08,150.72,0,1.0541e+08,43.948,446.74,1
825,4.62,12164,1,12164,1,0.00073412,3.5001e-09,0,0.00073412,-0.00013688,2.132e+08,963.98,0,2.132e+08,23.79,12163,12984,1,12984,1,0.0014036,1.0201e-08,0,0.0014036,-1.1643e-05,3.7079e+08,3049.8,0,3.7079e+08,419.12,12983,12171,1,12171,1,0.00073411,3.1632e-09,0,0.00073411,-0.00013689,2.2518e+08,807.79,0,2.2518e+08,-7.1885,12170,11369,1,11369,1,6.4639e-05,-2.5564e-09,0,6.4639e-05,-0.00026208,2.3125e+07,-776.82,0,2.3125e+07,-169.63,11368,11756,1,11756,1,0.00035156,3.0785e-10,0,0.00035156,-0.00020836,1.1916e+08,79.464,0,1.1916e+08,-78.87,11755,12533,1,12533,1,0.0011167,6.5161e-09,0,0.0011167,-6.5405e-05,3.0834e+08,1764.7,0,3.0834e+08,95.917,12532,446.74,0,446.74,0,0.00041346,3.5241e-09,0,0.00041346,7.7291e-05,1.0537e+08,1001.7,0,1.0537e+08,128.39,446.74,1
825,4.63,12164,1,12164,1,0.00073643,4.0349e-09,0,0.00073643,-0.00013731,2.1351e+08,1119.4,0,2.1351e+08,-25.399,12163,12984,1,12984,1,0.0014076,9.9142e-09,0,0.0014076,-1.1776e-05,3.7098e+08,3033.7,0,3.7098e+08,397.88,12983,12171,1,12171,1,0.00073643,3.7724e-09,0,0.00073643,-0.00013732,2.2555e+08,962.8,0,2.2555e+08,-51.102,12170,11369,1,11369,1,6.5359e-05,-1.5097e-09,0,6.5359e-05,-0.00026281,2.3368e+07,-335.94,0,2.3368e+07,-258,11368,11756,1,11756,1,0.00035297,1.1401e-09,0,0.00035297,-0.00020896,1.1952e+08,268.37,0,1.1952e+08,-127.59,11755,12533,1,12533,1,0.0011199,6.7869e-09,0,0.0011199,-6.5666e-05,3.086e+08,1867.9,0,3.086e+08,58.027,12532,446.74,0,446.74,0,0.00041445,3.2758e-09,0,0.00041445,7.7473e-05,1.0534e+08,953.79,0,1.0534e+08,135.58,446.74,1
825,4.64,12164,1,12164,1,0.00073876,4.077e-09,0,0.00073876,-0.00013774,2.1381e+08,1145.3,0,2.1381e+08,11.844,12163,12984,1,12984,1,0.0014115,1.1269e-08,0,0.0014115,-1.1911e-05,3.7115e+08,3420.3,0,3.7115e+08,625.82,12983,12171,1,12171,1,0.00073876,3.6306e-09,0,0.00073876,-0.00013775,2.2592e+08,953.81,0,2.2592e+08,-21.333,12170,11369,1,11369,1,6.6092e-05,-2.2288e-09,0,6.6092e-05,-0.00026354,2.3614e+07,-494.87,0,2.3614e+07,-291.99,11368,11756,1,11756,1,0.00035439,7.5557e-10,0,0.00035439,-0.00020956,1.1988e+08,179.27,0,1.1988e+08,-154.46,11755,12533,1,12533,1,0.0011231,7.3535e-09,0,0.0011231,-6.5928e-05,3.0885e+08,2026.5,0,3.0885e+08,96.867,12532,446.74,0,446.74,0,0.00041543,3.8488e-09,0,0.00041543,7.7656e-05,1.0531e+08,1110.3,0,1.0531e+08,209.83,446.74,1
825,4.65,12164,1,12164,1,0.00074112,-2.9859e-09,0,0.00074112,-0.00013818,2.1412e+08,-777.35,0,2.1412e+08,-35.09,12163,12984,1,12984,1,0.0014154,2.2878e-10,0,0.0014154,-1.2049e-05,3.7133e+08,50.29,0,3.7133e+08,287.44,12983,12171,1,12171,1,0.00074112,-3.1061e-09,0,0.00074112,-0.00013818,2.2629e+08,-844.42,0,2.2629e+08,-33.421,12170,11369,1,11369,1,6.6833e-05,-4.9542e-09,0,6.6833e-05,-0.00026426,2.3863e+07,-1241.2,0,2.3863e+07,-200.35,11368,11756,1,11756,1,0.00035582,-3.9887e-09,0,0.00035582,-0.00021017,1.2025e+08,-1033.2,0,1.2025e+08,-105.05,11755,12533,1,12533,1,0.0011264,-2.1677e-09,0,0.0011264,-6.6193e-05,3.0911e+08,-592.27,0,3.0911e+08,9.9814,12532,446.74,0,446.74,0,0.00041642,1.2482e-09,0,0.00041642,7.7841e-05,1.0527e+08,319.4,0,1.0527e+08,92.095,446.74,1
825,4.66,12164,1,12164,1,0.00074347,5.6428e-10,0,0.00074347,-0.00013861,2.1442e+08,169.94,0,2.1442e+08,-22.345,12163,12984,1,12984,1,0.0014194,3.3635e-09,0,0.0014194,-1.2188e-05,3.7148e+08,1026.8,0,3.7148e+08,270.61,12983,12171,1,12171,1,0.00074347,1.6332e-10,0,0.00074347,-0.00013862,2.2666e+08,40.971,0,2.2666e+08,-40.492,12170,11369,1,11369,1,6.7593e-05,-1.0834e-09,0,6.7593e-05,-0.000265,2.4117e+07,-323.86,0,2.4117e+07,-172.01,11368,11756,1,11756,1,0.00035726,-4.4229e-10,0,0.00035726,-0.00021077,1.2061e+08,-101.54,0,1.2061e+08,-100.1,11755,12533,1,12533,1,0.0011297,1.4188e-09,0,0.0011297,-6.6458e-05,3.0935e+08,384.71,0,3.0935e+08,31.812,12532,446.74,0,446.74,0,0.00041741,1.2046e-09,0,0.00041741,7.8024e-05,1.0523e+08,341.63,0,1.0523e+08,102.74,446.74,1
825,4.67,12164,1,12164,1,0.00074581,-2.9096e-09,0,0.00074581,-0.00013904,2.1471e+08,-779.41,0,2.1471e+08,-23.076,12163,12984,1,12984,1,0.0014233,7.844e-10,0,0.0014233,-1.2327e-05,3.7164e+08,172.49,0,3.7164e+08,157.96,12983,12171,1,12171,1,0.00074581,-3.0133e-09,0,0.00074581,-0.00013905,2.2702e+08,-772.26,0,2.2702e+08,-20.587,12170,11369,1,11369,1,6.8345e-05,-5.6707e-09,0,6.8345e-05,-0.00026572,2.4369e+07,-1676.2,0,2.4369e+07,-110.75,11368,11756,1,11756,1,0.00035869,-4.4652e-09,0,0.00035869,-0.00021137,1.2097e+08,-1206.3,0,1.2097e+08,-57.873,11755,12533,1,12533,1,0.0011329,-1.5241e-09,0,0.0011329,-6.6722e-05,3.0958e+08,-375.53,0,3.0958e+08,5.6126,12532,446.74,0,446.74,0,0.00041839,1.7439e-09,0,0.00041839,7.8205e-05,1.0519e+08,496.03,0,1.0519e+08,42.427,446.74,1
825,4.68,12164,1,12164,1,0.00074816,-1.9094e-09,0,0.00074816,-0.00013948,2.1501e+08,-521.93,0,2.1501e+08,-28.304,12163,12984,1,12984,1,0.0014272,7.2558e-10,0,0.0014272,-1.2466e-05,3.7179e+08,159.6,0,3.7179e+08,93.716,12983,12171,1,12171,1,0.00074816,-1.8603e-09,0,0.00074816,-0.00013949,2.2739e+08,-476.07,0,2.2739e+08,-22.459,12170,11369,1,11369,1,6.9101e-05,-4.7146e-09,0,6.9101e-05,-0.00026645,2.4622e+07,-1436.9,0,2.4622e+07,-134.07,11368,11756,1,11756,1,0.00036013,-3.101e-09,0,0.00036013,-0.00021198,1.2134e+08,-844.79,0,1.2134e+08,-69.97,11755,12533,1,12533,1,0.0011362,-6.7574e-10,0,0.0011362,-6.6988e-05,3.0982e+08,-158.18,0,3.0982e+08,15.185,12532,446.74,0,446.74,0,0.00041938,1.4469e-09,0,0.00041938,7.8388e-05,1.0514e+08,417.96,0,1.0514e+08,48.564,446.74,1
825,4.69,12164,1,12164,1,0.00075053,1.8717e-10,0,0.00075053,-0.00013992,2.1531e+08,41.105,0,2.1531e+08,-22.764,12163,12984,1,12984,1,0.0014312,8.5611e-10,0,0.0014312,-1.2606e-05,3.7194e+08,202.4,0,3.7194e+08,86.348,12983,12171,1,12171,1,0.00075053,2.2062e-10,0,0.00075053,-0.00013992,2.2775e+08,53.859,0,2.2775e+08,-19.386,12170,11369,1,11369,1,6.9862e-05,-9.3591e-10,0,6.9862e-05,-0.00026719,2.4876e+07,-284.86,0,2.4876e+07,-81.207,11368,11756,1,11756,1,0.00036158,3.1108e-11,0,0.00036158,-0.00021258,1.217e+08,8.9789,0,1.217e+08,-51.207,11755,12533,1,12533,1,0.0011395,4.3044e-10,0,0.0011395,-6.7256e-05,3.1006e+08,105.18,0,3.1006e+08,-0.68718,12532,446.74,0,446.74,0,0.00042037,3.7747e-10,0,0.00042037,7.8573e-05,1.051e+08,99.61,0,1.051e+08,34.164,446.74,1
825,4.7,12164,1,12164,1,0.00075289,2.837e-09,0,0.00075289,-0.00014035,2.156e+08,767.07,0,2.156e+08,-4.6193,12163,12984,1,12984,1,0.0014352,6.3114e-09,0,0.0014352,-1.2748e-05,3.7209e+08,1844.5,0,3.7209e+08,210.18,12983,12171,1,12171,1,0.00075289,2.8345e-09,0,0.00075289,-0.00014036,2.2811e+08,738.58,0,2.2811e+08,-11.618,12170,11369,1,11369,1,7.0632e-05,-9.2103e-10,0,7.0632e-05,-0.00026792,2.5132e+07,-201.03,0,2.5132e+07,-122.72,11368,11756,1,11756,1,0.00036303,1.176e-09,0,0.00036303,-0.00021319,1.2207e+08,279.53,0,1.2207e+08,-43.7,11755,12533,1,12533,1,0.0011427,4.5378e-09,0,0.0011427,-6.7524e-05,3.1028e+08,1223.3,0,3.1028e+08,24.794,12532,446.74,0,446.74,0,0.00042135,1.9905e-09,0,0.00042135,7.8755e-05,1.0505e+08,565.38,0,1.0505e+08,55.699,446.74,1
825,4.71,12164,1,12164,1,0.00075525,1.9724e-09,0,0.00075525,-0.00014079,2.1589e+08,553.23,0,2.1589e+08,55.148,12163,12984,1,12984,1,0.0014391,7.4718e-09,0,0.0014391,-1.2889e-05,3.7223e+08,2258.4,0,3.7223e+08,437.39,12983,12171,1,12171,1,0.00075525,1.535e-09,0,0.00075525,-0.0001408,2.2847e+08,391.72,0,2.2847e+08,26.953,12170,11369,1,11369,1,7.1399e-05,-1.8911e-09,0,7.1399e-05,-0.00026866,2.5388e+07,-456.04,0,2.5388e+07,-92.833,11368,11756,1,11756,1,0.00036448,-2.6072e-10,0,0.00036448,-0.00021379,1.2243e+08,-61.569,0,1.2243e+08,-32.132,11755,12533,1,12533,1,0.001146,3.9064e-09,0,0.001146,-6.7792e-05,3.105e+08,1058.6,0,3.105e+08,104.81,12532,446.74,0,446.74,0,0.00042234,2.5336e-09,0,0.00042234,7.8937e-05,1.05e+08,712.46,0,1.05e+08,113.07,446.74,1
825,4.72,12164,1,12164,1,0.00075762,3.2621e-10,0,0.00075762,-0.00014123,2.1618e+08,109.74,0,2.1618e+08,-25.114,12163,12984,1,12984,1,0.0014431,4.869e-09,0,0.0014431,-1.3032e-05,3.7236e+08,1478.6,0,3.7236e+08,176.18,12983,12171,1,12171,1,0.00075762,-2.7867e-10,0,0.00075762,-0.00014124,2.2883e+08,-69.258,0,2.2883e+08,-36.959,12170,11369,1,11369,1,7.2172e-05,-1.5892e-09,0,7.2172e-05,-0.00026939,2.5645e+07,-455.17,0,2.5645e+07,-144.05,11368,11756,1,11756,1,0.00036594,-7.0316e-10,0,0.00036594,-0.0002144,1.228e+08,-161.19,0,1.228e+08,-94.077,11755,12533,1,12533,1,0.0011493,1.0458e-09,0,0.0011493,-6.8062e-05,3.1073e+08,289.7,0,3.1073e+08,34.598,12532,446.74,0,446.74,0,0.00042332,1.4748e-09,0,0.00042332,7.912e-05,1.0495e+08,414.86,0,1.0495e+08,79.923,446.74,1
825,4.73,12164,1,12164,1,0.00076,-6.9851e-10,0,0.00076,-0.00014167,2.1647e+08,-173.48,0,2.1647e+08,-17.817,12163,12984,1,12984,1,0.0014471,4.9571e-09,0,0.0014471,-1.3176e-05,3.7249e+08,1504,0,3.7249e+08,134.46,12983,12171,1,12171,1,0.00076,-8.3686e-10,0,0.00076,-0.00014168,2.2918e+08,-199.94,0,2.2918e+08,-22.644,12170,11369,1,11369,1,7.2954e-05,-4.0218e-09,0,7.2954e-05,-0.00027013,2.5904e+07,-1176.2,0,2.5904e+07,-128.18,11368,11756,1,11756,1,0.00036741,-2.1015e-09,0,0.00036741,-0.00021501,1.2316e+08,-530.79,0,1.2316e+08,-48.974,11755,12533,1,12533,1,0.0011526,3.2152e-10,0,0.0011526,-6.8332e-05,3.1095e+08,84.092,0,3.1095e+08,13.979,12532,446.74,0,446.74,0,0.00042431,1.9917e-09,0,0.00042431,7.9303e-05,1.049e+08,555.59,0,1.049e+08,46.488,446.74,1
825,4.74,12164,1,12164,1,0.0007624,-1.3363e-09,0,0.0007624,-0.00014211,2.1676e+08,-353.95,0,2.1676e+08,-46.55,12163,12984,1,12984,1,0.0014511,6.223e-10,0,0.0014511,-1.3321e-05,3.7263e+08,134.81,0,3.7263e+08,89.943,12983,12171,1,12171,1,0.0007624,-1.5544e-09,0,0.0007624,-0.00014212,2.2955e+08,-398.11,0,2.2955e+08,-36.065,12170,11369,1,11369,1,7.3743e-05,-2.6048e-09,0,7.3743e-05,-0.00027087,2.6166e+07,-781.98,0,2.6166e+07,-161.98,11368,11756,1,11756,1,0.00036889,-1.9698e-09,0,0.00036889,-0.00021563,1.2353e+08,-517.23,0,1.2353e+08,-87.963,11755,12533,1,12533,1,0.0011559,-7.7123e-10,0,0.0011559,-6.8605e-05,3.1117e+08,-187.29,0,3.1117e+08,-7.1509,12532,446.74,0,446.74,0,0.00042531,8.0846e-10,0,0.00042531,7.9488e-05,1.0485e+08,222.41,0,1.0485e+08,52.82,446.74,1
825,4.75,12164,1,12164,1,0.00076482,-2.231e-09,0,0.00076482,-0.00014256,2.1705e+08,-601.95,0,2.1705e+08,-20.578,12163,12984,1,12984,1,0.0014551,6.5775e-10,0,0.0014551,-1.3468e-05,3.7276e+08,142.23,0,3.7276e+08,120.87,12983,12171,1,12171,1,0.00076482,-2.6078e-09,0,0.00076482,-0.00014257,2.299e+08,-668.48,0,2.299e+08,-6.625,12170,11369,1,11369,1,7.4541e-05,-4.741e-09,0,7.4541e-05,-0.00027162,2.643e+07,-1385.5,0,2.643e+07,-223.23,11368,11756,1,11756,1,0.00037038,-3.1534e-09,0,0.00037038,-0.00021624,1.239e+08,-899.72,0,1.239e+08,-66.086,11755,12533,1,12533,1,0.0011593,-1.1782e-09,0,0.0011593,-6.888e-05,3.1139e+08,-269.4,0,3.1139e+08,17.239,12532,446.74,0,446.74,0,0.00042631,1.3629e-09,0,0.00042631,7.9673e-05,1.0479e+08,390.67,0,1.0479e+08,64.542,446.74,1
825,4.76,12164,1,12164,1,0.00076722,-4.1968e-10,0,0.00076722,-0.00014301,2.1733e+08,-126.76,0,2.1733e+08,23.06,12163,12984,1,12984,1,0.0014591,1.0549e-09,0,0.0014591,-1.3615e-05,3.7287e+08,255.41,0,3.7287e+08,140.23,12983,12171,1,12171,1,0.00076722,-6.0274e-11,0,0.00076722,-0.00014301,2.3026e+08,-15.643,0,2.3026e+08,18.553,12170,11369,1,11369,1,7.534e-05,-3.172e-09,0,7.534e-05,-0.00027236,2.6695e+07,-960.33,0,2.6695e+07,-78.498,11368,11756,1,11756,1,0.00037187,-1.1076e-09,0,0.00037187,-0.00021686,1.2427e+08,-298.53,0,1.2427e+08,-14.619,11755,12533,1,12533,1,0.0011626,4.6675e-10,0,0.0011626,-6.9155e-05,3.1159e+08,106.15,0,3.1159e+08,48.403,12532,446.74,0,446.74,0,0.0004273,1.1127e-09,0,0.0004273,7.9857e-05,1.0473e+08,307.03,0,1.0473e+08,46.557,446.74,1
825,4.77,12164,1,12164,1,0.00076963,-7.4409e-10,0,0.00076963,-0.00014345,2.1762e+08,-213.88,0,2.1762e+08,17.707,12163,12984,1,12984,1,0.0014631,1.3247e-09,0,0.0014631,-1.3762e-05,3.7298e+08,331.91,0,3.7298e+08,167.91,12983,12171,1,12171,1,0.00076963,-4.1145e-10,0,0.00076963,-0.00014346,2.3061e+08,-107.3,0,2.3061e+08,10.371,12170,11369,1,11369,1,7.6141e-05,-3.6957e-09,0,7.6141e-05,-0.0002731,2.6959e+07,-1117.8,0,2.6959e+07,-75.025,11368,11756,1,11756,1,0.00037336,-1.6449e-09,0,0.00037336,-0.00021747,1.2464e+08,-445.85,0,1.2464e+08,-14.431,11755,12533,1,12533,1,0.0011659,2.926e-10,0,0.0011659,-6.943e-05,3.118e+08,66.437,0,3.118e+08,39.378,12532,446.74,0,446.74,0,0.00042829,1.2773e-09,0,0.00042829,8.004e-05,1.0467e+08,355.48,0,1.0467e+08,44.634,446.74,1
825,4.78,12164,1,12164,1,0.00077202,1.2206e-09,0,0.00077202,-0.00014389,2.1789e+08,318.16,0,2.1789e+08,36.47,12163,12984,1,12984,1,0.0014671,5.0968e-09,0,0.0014671,-1.3911e-05,3.7308e+08,1449.5,0,3.7308e+08,266.24,12983,12171,1,12171,1,0.00077202,9.843e-10,0,0.00077202,-0.0001439,2.3095e+08,237.17,0,2.3095e+08,20.542,12170,11369,1,11369,1,7.6946e-05,-2.293e-09,0,7.6946e-05,-0.00027384,2.7225e+07,-693.01,0,2.7225e+07,-65.48,11368,11756,1,11756,1,0.00037484,8.0253e-11,0,0.00037484,-0.00021808,1.25e+08,19.341,0,1.25e+08,-12.997,11755,12533,1,12533,1,0.0011692,2.1524e-09,0,0.0011692,-6.9705e-05,3.1199e+08,565.19,0,3.1199e+08,66.063,12532,446.74,0,446.74,0,0.00042927,1.6025e-09,0,0.00042927,8.0223e-05,1.0461e+08,439.15,0,1.0461e+08,66.115,446.74,1
825,4.79,12164,1,12164,1,0.00077445,1.3718e-09,0,0.00077445,-0.00014434,2.1818e+08,362.77,0,2.1818e+08,1.5598,12163,12984,1,12984,1,0.0014712,3.0464e-09,0,0.0014712,-1.4061e-05,3.732e+08,913.91,0,3.732e+08,112.77,12983,12171,1,12171,1,0.00077445,1.3181e-09,0,0.00077445,-0.00014435,2.3131e+08,335.69,0,2.3131e+08,0.96733,12170,11369,1,11369,1,7.7759e-05,-2.212e-10,0,7.7759e-05,-0.00027459,2.7493e+07,-47.402,0,2.7493e+07,-88.527,11368,11756,1,11756,1,0.00037634,7.6343e-10,0,0.00037634,-0.00021871,1.2538e+08,186.72,0,1.2538e+08,-25.538,11755,12533,1,12533,1,0.0011726,1.9123e-09,0,0.0011726,-6.9982e-05,3.122e+08,514.3,0,3.122e+08,21.279,12532,446.74,0,446.74,0,0.00043027,8.0165e-10,0,0.00043027,8.0408e-05,1.0455e+08,233.28,0,1.0455e+08,33.949,446.74,1
825,4.8,12164,1,12164,1,0.00077688,-1.9486e-09,0,0.00077688,-0.00014479,2.1846e+08,-516.09,0,2.1846e+08,15.705,12163,12984,1,12984,1,0.0014752,7.2947e-10,0,0.0014752,-1.4211e-05,3.733e+08,155.63,0,3.733e+08,125.22,12983,12171,1,12171,1,0.00077688,-1.8635e-09,0,0.00077688,-0.0001448,2.3166e+08,-454.52,0,2.3166e+08,14.605,12170,11369,1,11369,1,7.8573e-05,-4.7821e-09,0,7.8573e-05,-0.00027534,2.7762e+07,-1428,0,2.7762e+07,-108.78,11368,11756,1,11756,1,0.00037786,-3.1099e-09,0,0.00037786,-0.00021932,1.2575e+08,-793.14,0,1.2575e+08,-14.222,11755,12533,1,12533,1,0.0011759,-8.2403e-10,0,0.0011759,-7.0261e-05,3.124e+08,-190.9,0,3.124e+08,49.928,12532,446.74,0,446.74,0,0.00043126,1.4496e-09,0,0.00043126,8.0592e-05,1.0448e+08,406.82,0,1.0448e+08,50.989,446.74,1
825,4.81,12164,1,12164,1,0.00077933,-1.2187e-09,0,0.00077933,-0.00014524,2.1874e+08,-339.5,0,2.1874e+08,15.78,12163,12984,1,12984,1,0.0014793,1.1134e-09,0,0.0014793,-1.4363e-05,3.7339e+08,319.57,0,3.7339e+08,169.73,12983,12171,1,12171,1,0.00077932,-7.8445e-10,0,0.00077932,-0.00014525,2.32e+08,-193.73,0,2.32e+08,29.489,12170,11369,1,11369,1,7.9402e-05,-4.6968e-09,0,7.9402e-05,-0.00027609,2.8033e+07,-1415.9,0,2.8033e+07,-164.9,11368,11756,1,11756,1,0.00037938,-2.5506e-09,0,0.00037938,-0.00021995,1.2612e+08,-678.94,0,1.2612e+08,-49.099,11755,12533,1,12533,1,0.0011793,2.1278e-10,0,0.0011793,-7.0542e-05,3.1259e+08,48.889,0,3.1259e+08,70.155,12532,446.74,0,446.74,0,0.00043226,1.6341e-09,0,0.00043226,8.0777e-05,1.0442e+08,457.56,0,1.0442e+08,81.841,446.74,1
825,4.82,12164,1,12164,1,0.00078176,4.4092e-09,0,0.00078176,-0.00014569,2.1901e+08,1163.6,0,2.1901e+08,-28.522,12163,12984,1,12984,1,0.0014833,8.15e-09,0,0.0014833,-1.4516e-05,3.7348e+08,2334.3,0,3.7348e+08,253.03,12983,12171,1,12171,1,0.00078176,4.8044e-09,0,0.00078176,-0.0001457,2.3235e+08,1228,0,2.3235e+08,-11.04,12170,11369,1,11369,1,8.0234e-05,-1.2587e-09,0,8.0234e-05,-0.00027684,2.8306e+07,-266.93,0,2.8306e+07,-255.02,11368,11756,1,11756,1,0.00038089,2.7255e-09,0,0.00038089,-0.00022057,1.2649e+08,662.4,0,1.2649e+08,-94.593,11755,12533,1,12533,1,0.0011826,6.4331e-09,0,0.0011826,-7.0822e-05,3.1278e+08,1721.7,0,3.1278e+08,31.875,12532,446.74,0,446.74,0,0.00043325,2.4074e-09,0,0.00043325,8.0961e-05,1.0435e+08,682.84,0,1.0435e+08,100.18,446.74,1
825,4.83,12164,1,12164,1,0.00078418,1.8988e-09,0,0.00078418,-0.00014614,2.1928e+08,530.3,0,2.1928e+08,15.38,12163,12984,1,12984,1,0.0014873,1.0115e-08,0,0.0014873,-1.4669e-05,3.7356e+08,3017.8,0,3.7356e+08,382.87,12983,12171,1,12171,1,0.00078418,9.3283e-10,0,0.00078418,-0.00014615,2.3268e+08,232.74,0,2.3268e+08,11.839,12170,11369,1,11369,1,8.1065e-05,-3.4071e-09,0,8.1065e-05,-0.00027759,2.8578e+07,-962.7,0,2.8578e+07,-257.47,11368,11756,1,11756,1,0.00038241,-7.1155e-10,0,0.00038241,-0.00022118,1.2686e+08,-158.14,0,1.2686e+08,-67.61,11755,12533,1,12533,1,0.0011859,4.2119e-09,0,0.0011859,-7.1101e-05,3.1296e+08,1086.3,0,3.1296e+08,91.496,12532,446.74,0,446.74,0,0.00043424,3.3904e-09,0,0.00043424,8.1143e-05,1.0427e+08,935.58,0,1.0427e+08,119.22,446.74,1
825,4.84,12164,1,12164,1,0.00078665,1.7479e-09,0,0.00078665,-0.0001466,2.1957e+08,498.72,0,2.1957e+08,-30.693,12163,12984,1,12984,1,0.0014915,7.0901e-09,0,0.0014915,-1.4823e-05,3.7366e+08,2131.8,0,3.7366e+08,213.53,12983,12171,1,12171,1,0.00078665,1.5083e-09,0,0.00078665,-0.0001466,2.3303e+08,379.06,0,2.3303e+08,-23.787,12170,11369,1,11369,1,8.1899e-05,-2.124e-09,0,8.1899e-05,-0.00027835,2.8851e+07,-449.53,0,2.8851e+07,-253.21,11368,11756,1,11756,1,0.00038395,-5.505e-11,0,0.00038395,-0.00022181,1.2723e+08,-12.514,0,1.2723e+08,-95.902,11755,12533,1,12533,1,0.0011893,3.1397e-09,0,0.0011893,-7.1386e-05,3.1315e+08,882.25,0,3.1315e+08,37.876,12532,446.74,0,446.74,0,0.00043525,2.3188e-09,0,0.00043525,8.133e-05,1.0421e+08,644.34,0,1.0421e+08,97.876,446.74,1
825,4.85,12164,1,12164,1,0.00078914,1.458e-09,0,0.00078914,-0.00014706,2.1984e+08,419.86,0,2.1984e+08,-36.576,12163,12984,1,12984,1,0.0014956,5.6483e-09,0,0.0014956,-1.498e-05,3.7373e+08,1696.8,0,3.7373e+08,162.18,12983,12171,1,12171,1,0.00078914,1.2874e-09,0,0.00078914,-0.00014706,2.3338e+08,320.19,0,2.3338e+08,-35.174,12170,11369,1,11369,1,8.2749e-05,-1.4741e-09,0,8.2749e-05,-0.00027911,2.9129e+07,-320.04,0,2.9129e+07,-192.56,11368,11756,1,11756,1,0.0003855,-2.8274e-10,0,0.0003855,-0.00022244,1.2761e+08,-65.365,0,1.2761e+08,-87.388,11755,12533,1,12533,1,0.0011928,2.9728e-09,0,0.0011928,-7.1672e-05,3.1334e+08,833.13,0,3.1334e+08,11.118,12532,446.74,0,446.74,0,0.00043625,1.9257e-09,0,0.00043625,8.1517e-05,1.0413e+08,537.92,0,1.0413e+08,73.954,446.74,1
825,4.86,12164,1,12164,1,0.00079162,-4.3271e-09,0,0.00079162,-0.00014751,2.2011e+08,-1115.3,0,2.2011e+08,-1.3076,12163,12984,1,12984,1,0.0014996,7.6798e-10,0,0.0014996,-1.5137e-05,3.7381e+08,160.68,0,3.7381e+08,192.57,12983,12171,1,12171,1,0.00079162,-4.7802e-09,0,0.00079162,-0.00014752,2.3372e+08,-1220.4,0,2.3372e+08,-13.607,12170,11369,1,11369,1,8.3607e-05,-7.2761e-09,0,8.3607e-05,-0.00027986,2.9409e+07,-2016.5,0,2.9409e+07,-132.27,11368,11756,1,11756,1,0.00038704,-5.7995e-09,0,0.00038704,-0.00022307,1.2798e+08,-1478,0,1.2798e+08,-54.71,11755,12533,1,12533,1,0.0011962,-3.2551e-09,0,0.0011962,-7.1957e-05,3.1351e+08,-817.68,0,3.1351e+08,44.624,12532,446.74,0,446.74,0,0.00043726,2.0251e-09,0,0.00043726,8.1703e-05,1.0405e+08,549.49,0,1.0405e+08,72.484,446.74,1
825,4.87,12164,1,12164,1,0.00079409,3.3561e-09,0,0.00079409,-0.00014797,2.2038e+08,895.84,0,2.2038e+08,23.557,12163,12984,1,12984,1,0.0015037,8.2523e-09,0,0.0015037,-1.5296e-05,3.7387e+08,2356,0,3.7387e+08,262.5,12983,12171,1,12171,1,0.00079409,3.3809e-09,0,0.00079409,-0.00014798,2.3406e+08,854.33,0,2.3406e+08,20.356,12170,11369,1,11369,1,8.4471e-05,-1.8453e-09,0,8.4471e-05,-0.00028062,2.969e+07,-386.8,0,2.969e+07,-160.58,11368,11756,1,11756,1,0.0003886,1.4976e-09,0,0.0003886,-0.0002237,1.2835e+08,352.64,0,1.2835e+08,-27.4,11755,12533,1,12533,1,0.0011996,5.3509e-09,0,0.0011996,-7.2243e-05,3.1368e+08,1395.2,0,3.1368e+08,69.517,12532,446.74,0,446.74,0,0.00043825,2.5045e-09,0,0.00043825,8.1887e-05,1.0397e+08,699.64,0,1.0397e+08,77.715,446.74,1
825,4.88,12164,1,12164,1,0.00079658,2.4537e-09,0,0.00079658,-0.00014843,2.2065e+08,672.72,0,2.2065e+08,-91.151,12163,12984,1,12984,1,0.0015079,9.1778e-09,0,0.0015079,-1.5455e-05,3.7393e+08,2732.2,0,3.7393e+08,160.67,12983,12171,1,12171,1,0.00079657,1.8645e-09,0,0.00079657,-0.00014844,2.344e+08,479.5,0,2.344e+08,-42.624,12170,11369,1,11369,1,8.533e-05,-1.856e-09,0,8.533e-05,-0.00028139,2.997e+07,-388.3,0,2.997e+07,-412.95,11368,11756,1,11756,1,0.00039016,2.9921e-10,0,0.00039016,-0.00022433,1.2873e+08,68.225,0,1.2873e+08,-202.61,11755,12533,1,12533,1,0.001203,4.1083e-09,0,0.001203,-7.2533e-05,3.1385e+08,1087.9,0,3.1385e+08,9.601,12532,446.74,0,446.74,0,0.00043925,2.7229e-09,0,0.00043925,8.2073e-05,1.0389e+08,760.23,0,1.0389e+08,135.46,446.74,1
825,4.89,12164,1,12164,1,0.00079908,-3.4422e-09,0,0.00079908,-0.00014889,2.2092e+08,-879.01,0,2.2092e+08,-24.073,12163,12984,1,12984,1,0.001512,6.6597e-10,0,0.001512,-1.5616e-05,3.74e+08,138.38,0,3.74e+08,146.3,12983,12171,1,12171,1,0.00079908,-3.9193e-09,0,0.00079908,-0.0001489,2.3474e+08,-989.58,0,2.3474e+08,-32.728,12170,11369,1,11369,1,8.6202e-05,-5.2464e-09,0,8.6202e-05,-0.00028215,3.0253e+07,-1436.5,0,3.0253e+07,-117.67,11368,11756,1,11756,1,0.00039172,-4.7193e-09,0,0.00039172,-0.00022497,1.2911e+08,-1216,0,1.2911e+08,-63.083,11755,12533,1,12533,1,0.0012064,-2.5479e-09,0,0.0012064,-7.2821e-05,3.1402e+08,-627.65,0,3.1402e+08,9.6351,12532,446.74,0,446.74,0,0.00044027,1.5724e-09,0,0.00044027,8.226e-05,1.0381e+08,416.68,0,1.0381e+08,53.836,446.74,1
825,4.9,12164,1,12164,1,0.0008016,-9.1982e-10,0,0.0008016,-0.00014936,2.2118e+08,-246.19,0,2.2118e+08,-20.191,12163,12984,1,12984,1,0.0015161,5.1682e-10,0,0.0015161,-1.5778e-05,3.7405e+08,107.65,0,3.7405e+08,249.81,12983,12171,1,12171,1,0.0008016,-1.1313e-09,0,0.0008016,-0.00014936,2.3507e+08,-280.6,0,2.3507e+08,-5.3883,12170,11369,1,11369,1,8.7086e-05,-1.9779e-09,0,8.7086e-05,-0.00028291,3.054e+07,-536.46,0,3.054e+07,-243.74,11368,11756,1,11756,1,0.00039331,-1.5252e-09,0,0.00039331,-0.00022561,1.2948e+08,-425.98,0,1.2948e+08,-69.212,11755,12533,1,12533,1,0.0012099,-3.2791e-10,0,0.0012099,-7.3113e-05,3.1419e+08,-73.705,0,3.1419e+08,24.448,12532,446.74,0,446.74,0,0.00044127,7.0969e-10,0,0.00044127,8.2447e-05,1.0373e+08,192.1,0,1.0373e+08,88.361,446.74,1
825,4.91,12164,1,12164,1,0.00080411,-3.6297e-10,0,0.00080411,-0.00014982,2.2145e+08,-97.916,0,2.2145e+08,17.47,12163,12984,1,12984,1,0.0015203,1.4362e-09,0,0.0015203,-1.5941e-05,3.7409e+08,403.23,0,3.7409e+08,285.71,12983,12171,1,12171,1,0.00080411,-1.1815e-10,0,0.00080411,-0.00014983,2.354e+08,-28.424,0,2.354e+08,5.535,12170,11369,1,11369,1,8.7971e-05,-2.5004e-09,0,8.7971e-05,-0.00028368,3.0827e+07,-696.45,0,3.0827e+07,-72.046,11368,11756,1,11756,1,0.00039489,-1.0316e-09,0,0.00039489,-0.00022624,1.2986e+08,-262.27,0,1.2986e+08,-22.433,11755,12533,1,12533,1,0.0012133,2.6641e-10,0,0.0012133,-7.3405e-05,3.1434e+08,59.198,0,3.1434e+08,34.801,12532,446.74,0,446.74,0,0.00044228,9.4858e-10,0,0.00044228,8.2633e-05,1.0364e+08,257.3,0,1.0364e+08,61.242,446.74,1
825,4.92,12164,1,12164,1,0.00080663,1.4945e-09,0,0.00080663,-0.00015029,2.2171e+08,388.1,0,2.2171e+08,9.6225,12163,12984,1,12984,1,0.0015244,2.3534e-09,0,0.0015244,-1.6105e-05,3.7414e+08,670.6,0,3.7414e+08,271.39,12983,12171,1,12171,1,0.00080663,1.7889e-09,0,0.00080663,-0.00015029,2.3574e+08,451.14,0,2.3574e+08,-2.4238,12170,11369,1,11369,1,8.8861e-05,-1.7324e-10,0,8.8861e-05,-0.00028445,3.1115e+07,-35.836,0,3.1115e+07,-75.069,11368,11756,1,11756,1,0.00039648,1.0987e-09,0,0.00039648,-0.00022688,1.3024e+08,246.29,0,1.3024e+08,-30.294,11755,12533,1,12533,1,0.0012168,2.0336e-09,0,0.0012168,-7.3698e-05,3.145e+08,557.28,0,3.145e+08,30.077,12532,446.74,0,446.74,0,0.00044329,6.9309e-10,0,0.00044329,8.282e-05,1.0355e+08,199.16,0,1.0355e+08,59.566,446.74,1
825,4.93,12164,1,12164,1,0.00080914,2.8915e-09,0,0.00080914,-0.00015075,2.2197e+08,768.78,0,2.2197e+08,30.82,12163,12984,1,12984,1,0.0015286,7.2348e-09,0,0.0015286,-1.6269e-05,3.7418e+08,2064.8,0,3.7418e+08,304.37,12983,12171,1,12171,1,0.00080914,2.8648e-09,0,0.00080914,-0.00015076,2.3606e+08,711.19,0,2.3606e+08,14.501,12170,11369,1,11369,1,8.9752e-05,-1.3979e-09,0,8.9752e-05,-0.00028522,3.1403e+07,-288.38,0,3.1403e+07,-175.11,11368,11756,1,11756,1,0.00039807,9.6713e-10,0,0.00039807,-0.00022751,1.3061e+08,223.79,0,1.3061e+08,-25.683,11755,12533,1,12533,1,0.0012202,4.7611e-09,0,0.0012202,-7.3991e-05,3.1465e+08,1244.4,0,3.1465e+08,76.193,12532,446.74,0,446.74,0,0.00044429,2.2841e-09,0,0.00044429,8.3005e-05,1.0346e+08,634.48,0,1.0346e+08,92.391,446.74,1
825,4.94,12164,1,12164,1,0.00081166,-2.5924e-09,0,0.00081166,-0.00015122,2.2223e+08,-658.56,0,2.2223e+08,17.756,12163,12984,1,12984,1,0.0015327,1.343e-09,0,0.0015327,-1.6433e-05,3.7422e+08,381.15,0,3.7422e+08,322.27,12983,12171,1,12171,1,0.00081166,-2.6021e-09,0,0.00081166,-0.00015122,2.3639e+08,-616.92,0,2.3639e+08,4.5741,12170,11369,1,11369,1,9.0642e-05,-6.1989e-09,0,9.0642e-05,-0.00028598,3.1691e+07,-1723.3,0,3.1691e+07,-146.59,11368,11756,1,11756,1,0.00039966,-4.4378e-09,0,0.00039966,-0.00022815,1.3099e+08,-1119.6,0,1.3099e+08,-30.581,11755,12533,1,12533,1,0.0012237,-7.1166e-10,0,0.0012237,-7.4285e-05,3.148e+08,-152.14,0,3.148e+08,45.128,12532,446.74,0,446.74,0,0.00044529,2.1757e-09,0,0.00044529,8.3192e-05,1.0337e+08,582.24,0,1.0337e+08,87.494,446.74,1
825,4.95,12164,1,12164,1,0.00081421,2.308e-11,0,0.00081421,-0.00015169,2.2249e+08,5.1775,0,2.2249e+08,-18.808,12163,12984,1,12984,1,0.0015369,6.2221e-10,0,0.0015369,-1.66e-05,3.7424e+08,139.42,0,3.7424e+08,287.71,12983,12171,1,12171,1,0.00081421,5.4429e-11,0,0.00081421,-0.00015169,2.3673e+08,13.935,0,2.3673e+08,-10.729,12170,11369,1,11369,1,9.1553e-05,-9.9732e-10,0,9.1553e-05,-0.00028675,3.1983e+07,-229.44,0,3.1983e+07,-237.53,11368,11756,1,11756,1,0.00040127,-1.9775e-10,0,0.00040127,-0.0002288,1.3137e+08,-52.028,0,1.3137e+08,-83.908,11755,12533,1,12533,1,0.0012272,2.6612e-10,0,0.0012272,-7.4582e-05,3.1495e+08,65.437,0,3.1495e+08,38.793,12532,446.74,0,446.74,0,0.0004463,3.2273e-10,0,0.0004463,8.3379e-05,1.0327e+08,76.767,0,1.0327e+08,91.071,446.74,1
825,4.96,12164,1,12164,1,0.00081673,-9.32e-10,0,0.00081673,-0.00015215,2.2274e+08,-242.74,0,2.2274e+08,1.8952,12163,12984,1,12984,1,0.001541,5.8731e-09,0,0.001541,-1.6767e-05,3.7426e+08,1600.9,0,3.7426e+08,420.67,12983,12171,1,12171,1,0.00081673,-3.4463e-10,0,0.00081673,-0.00015216,2.3704e+08,-80.436,0,2.3704e+08,-8.994,12170,11369,1,11369,1,9.2454e-05,-7.4204e-09,0,9.2454e-05,-0.00028752,3.2275e+07,-2072.9,0,3.2275e+07,-207.07,11368,11756,1,11756,1,0.00040287,-3.2351e-09,0,0.00040287,-0.00022943,1.3174e+08,-795.1,0,1.3174e+08,-68.614,11755,12533,1,12533,1,0.0012306,8.8077e-10,0,0.0012306,-7.4877e-05,3.1508e+08,210.74,0,3.1508e+08,54.362,12532,446.74,0,446.74,0,0.0004473,3.2053e-09,0,0.0004473,8.3563e-05,1.0317e+08,857.86,0,1.0317e+08,114.44,446.74,1
825,4.97,12164,1,12164,1,0.00081923,-2.8424e-09,0,0.00081923,-0.00015262,2.2298e+08,-760.22,0,2.2298e+08,-22.243,12163,12984,1,12984,1,0.0015452,7.9595e-09,0,0.0015452,-1.6934e-05,3.7427e+08,2359,0,3.7427e+08,444.9,12983,12171,1,12171,1,0.00081923,-1.0361e-09,0,0.00081923,-0.00015262,2.3736e+08,-253.12,0,2.3736e+08,-47.553,12170,11369,1,11369,1,9.3363e-05,-1.5549e-08,0,9.3363e-05,-0.00028829,3.2565e+07,-4478.4,0,3.2565e+07,-237.75,11368,11756,1,11756,1,0.00040446,-7.227e-09,0,0.00040446,-0.00023006,1.3212e+08,-1808.3,0,1.3212e+08,-113.97,11755,12533,1,12533,1,0.001234,1.6394e-09,0,0.001234,-7.5171e-05,3.1521e+08,360.36,0,3.1521e+08,43.007,12532,446.74,0,446.74,0,0.00044829,5.9807e-09,0,0.00044829,8.3746e-05,1.0307e+08,1609.4,0,1.0307e+08,128.63,446.74,1
825,4.98,12164,1,12164,1,0.00082182,-3.6213e-10,0,0.00082182,-0.0001531,2.2325e+08,-122.75,0,2.2325e+08,-89.311,12163,12984,1,12984,1,0.0015494,1.7052e-09,0,0.0015494,-1.7103e-05,3.7431e+08,367.4,0,3.7431e+08,367.06,12983,12171,1,12171,1,0.00082182,2.5555e-10,0,0.00082182,-0.0001531,2.377e+08,62.738,0,2.377e+08,-75.217,12170,11369,1,11369,1,9.4275e-05,-6.063e-09,0,9.4275e-05,-0.00028908,3.2858e+07,-1800.5,0,3.2858e+07,-317.23,11368,11756,1,11756,1,0.00040609,-7.8101e-10,0,0.00040609,-0.00023072,1.325e+08,-210.18,0,1.325e+08,-201.96,11755,12533,1,12533,1,0.0012375,7.9806e-10,0,0.0012375,-7.5472e-05,3.1537e+08,188.52,0,3.1537e+08,-4.4751,12532,446.74,0,446.74,0,0.00044932,1.81e-09,0,0.00044932,8.3937e-05,1.0298e+08,494.53,0,1.0298e+08,127.8,446.74,1
825,4.99,12164,1,12164,1,0.00082442,1.6363e-09,0,0.00082442,-0.00015357,2.2351e+08,403.83,0,2.2351e+08,-58.664,12163,12984,1,12984,1,0.0015536,3.2801e-09,0,0.0015536,-1.7275e-05,3.7433e+08,794.74,0,3.7433e+08,327.94,12983,12171,1,12171,1,0.00082441,1.8744e-09,0,0.00082441,-0.00015358,2.3802e+08,463.31,0,2.3802e+08,-35.842,12170,11369,1,11369,1,9.5217e-05,-7.1346e-10,0,9.5217e-05,-0.00028986,3.316e+07,-211.36,0,3.316e+07,-268.99,11368,11756,1,11756,1,0.00040774,9.0993e-10,0,0.00040774,-0.00023137,1.3288e+08,220.39,0,1.3288e+08,-139.48,11755,12533,1,12533,1,0.0012411,2.4102e-09,0,0.0012411,-7.5776e-05,3.155e+08,601.54,0,3.155e+08,2.5813,12532,446.74,0,446.74,0,0.00045034,1.0015e-09,0,0.00045034,8.4127e-05,1.0288e+08,248.95,0,1.0288e+08,112.35,446.74,1
825,5,12164,1,12164,1,0.00082701,-8.1339e-10,0,0.00082701,-0.00015405,2.2375e+08,-223.08,0,2.2375e+08,-42.164,12163,12984,1,12984,1,0.0015579,3.3366e-09,0,0.0015579,-1.745e-05,3.7433e+08,989.29,0,3.7433e+08,394.2,12983,12171,1,12171,1,0.00082701,3.9166e-11,0,0.00082701,-0.00015406,2.3834e+08,8.9108,0,2.3834e+08,-46.267,12170,11369,1,11369,1,9.6163e-05,-6.9333e-09,0,9.6163e-05,-0.00029064,3.3462e+07,-2055.8,0,3.3462e+07,-269.12,11368,11756,1,11756,1,0.00040939,-2.4821e-09,0,0.00040939,-0.00023203,1.3327e+08,-622.78,0,1.3327e+08,-113.09,11755,12533,1,12533,1,0.0012446,1.0157e-09,0,0.0012446,-7.608e-05,3.1563e+08,226.3,0,3.1563e+08,12.494,12532,446.74,0,446.74,0,0.00045136,2.6305e-09,0,0.00045136,8.4315e-05,1.0277e+08,715,0,1.0277e+08,109.58,446.74,1
825,5.01,12164,1,12164,1,0.0008296,2.3416e-09,0,0.0008296,-0.00015453,2.2401e+08,596.6,0,2.2401e+08,-62.57,12163,12984,1,12984,1,0.0015621,4.9754e-09,0,0.0015621,-1.7623e-05,3.7433e+08,1480.1,0,3.7433e+08,376.47,12983,12171,1,12171,1,0.0008296,2.484e-09,0,0.0008296,-0.00015454,2.3866e+08,599.36,0,2.3866e+08,-27.629,12170,11369,1,11369,1,9.7102e-05,-4.3881e-10,0,9.7102e-05,-0.00029143,3.3764e+07,-88.899,0,3.3764e+07,-363.74,11368,11756,1,11756,1,0.00041104,1.3789e-09,0,0.00041104,-0.00023268,1.3365e+08,335.79,0,1.3365e+08,-179.58,11755,12533,1,12533,1,0.0012482,3.3109e-09,0,0.0012482,-7.6385e-05,3.1575e+08,826.89,0,3.1575e+08,22.793,12532,446.74,0,446.74,0,0.00045238,1.258e-09,0,0.00045238,8.4504e-05,1.0267e+08,354.8,0,1.0267e+08,155.86,446.74,1
825,5.02,12164,1,12164,1,0.00083222,-6.2651e-11,0,0.00083222,-0.00015501,2.2425e+08,-21.557,0,2.2425e+08,-6.9986,12163,12984,1,12984,1,0.0015664,8.2164e-10,0,0.0015664,-1.7798e-05,3.7432e+08,242.94,0,3.7432e+08,474.61,12983,12171,1,12171,1,0.00083221,1.7694e-10,0,0.00083221,-0.00015502,2.3898e+08,40.915,0,2.3898e+08,-23.786,12170,11369,1,11369,1,9.8062e-05,-1.9107e-09,0,9.8062e-05,-0.00029221,3.4068e+07,-565.49,0,3.4068e+07,-185.2,11368,11756,1,11756,1,0.0004127,-4.2419e-10,0,0.0004127,-0.00023334,1.3403e+08,-94.57,0,1.3403e+08,-92.961,11755,12533,1,12533,1,0.0012517,4.8752e-10,0,0.0012517,-7.6691e-05,3.1588e+08,117.24,0,3.1588e+08,26.639,12532,446.74,0,446.74,0,0.0004534,7.1128e-10,0,0.0004534,8.4694e-05,1.0256e+08,188.88,0,1.0256e+08,119.32,446.74,1
825,5.03,12164,1,12164,1,0.00083481,7.1733e-10,0,0.00083481,-0.00015549,2.245e+08,183.56,0,2.245e+08,16.535,12163,12984,1,12984,1,0.0015706,6.2617e-09,0,0.0015706,-1.7974e-05,3.7431e+08,1779.5,0,3.7431e+08,553.8,12983,12171,1,12171,1,0.00083481,5.0664e-10,0,0.00083481,-0.0001555,2.3929e+08,108.58,0,2.3929e+08,-3.8342,12170,11369,1,11369,1,9.902e-05,-4.0481e-09,0,9.902e-05,-0.000293,3.4373e+07,-1117.1,0,3.4373e+07,-204.31,11368,11756,1,11756,1,0.00041436,-8.6377e-10,0,0.00041436,-0.00023399,1.3441e+08,-214.69,0,1.3441e+08,-68.48,11755,12533,1,12533,1,0.0012553,2.372e-09,0,0.0012553,-7.6997e-05,3.1598e+08,573.96,0,3.1598e+08,66.684,12532,446.74,0,446.74,0,0.00045441,2.5593e-09,0,0.00045441,8.4881e-05,1.0244e+08,683.2,0,1.0244e+08,134.19,446.74,1
825,5.04,12164,1,12164,1,0.00083743,-1.2707e-09,0,0.00083743,-0.00015598,2.2474e+08,-329.73,0,2.2474e+08,-1.5933,12163,12984,1,12984,1,0.0015749,1.6634e-09,0,0.0015749,-1.8151e-05,3.743e+08,491.3,0,3.743e+08,474.39,12983,12171,1,12171,1,0.00083742,-7.1373e-10,0,0.00083742,-0.00015598,2.3961e+08,-160.26,0,2.3961e+08,-31.327,12170,11369,1,11369,1,9.9979e-05,-5.3861e-09,0,9.9979e-05,-0.00029379,3.4678e+07,-1565.8,0,3.4678e+07,-155.63,11368,11756,1,11756,1,0.00041603,-2.3156e-09,0,0.00041603,-0.00023465,1.348e+08,-588.8,0,1.348e+08,-83.766,11755,12533,1,12533,1,0.0012588,-3.7736e-11,0,0.0012588,-7.7305e-05,3.161e+08,-7.9419,0,3.161e+08,41.599,12532,446.74,0,446.74,0,0.00045544,1.7614e-09,0,0.00045544,8.507e-05,1.0233e+08,475.93,0,1.0233e+08,119.91,446.74,1
825,5.05,12164,1,12164,1,0.00084005,2.344e-09,0,0.00084005,-0.00015646,2.2499e+08,602.69,0,2.2499e+08,-15.32,12163,12984,1,12984,1,0.0015792,4.4128e-09,0,0.0015792,-1.833e-05,3.7428e+08,1250.8,0,3.7428e+08,492.78,12983,12171,1,12171,1,0.00084004,2.7768e-09,0,0.00084004,-0.00015646,2.3993e+08,679.99,0,2.3993e+08,-6.3999,12170,11369,1,11369,1,0.00010095,-8.6541e-10,0,0.00010095,-0.00029458,3.4986e+07,-172.88,0,3.4986e+07,-288.08,11368,11756,1,11756,1,0.00041771,1.4823e-09,0,0.00041771,-0.00023531,1.3518e+08,329.77,0,1.3518e+08,-93.247,11755,12533,1,12533,1,0.0012624,3.361e-09,0,0.0012624,-7.7615e-05,3.1621e+08,887.1,0,3.1621e+08,43.365,12532,446.74,0,446.74,0,0.00045646,1.347e-09,0,0.00045646,8.5259e-05,1.0222e+08,370.95,0,1.0222e+08,130.82,446.74,1
825,5.06,12164,1,12164,1,0.00084267,1.7271e-09,0,0.00084267,-0.00015694,2.2523e+08,464.41,0,2.2523e+08,15.3,12163,12984,1,12984,1,0.0015834,7.7942e-09,0,0.0015834,-1.8508e-05,3.7426e+08,2304.7,0,3.7426e+08,517.92,12983,12171,1,12171,1,0.00084267,8.9525e-10,0,0.00084267,-0.00015695,2.4024e+08,201.92,0,2.4024e+08,13.091,12170,11369,1,11369,1,0.00010192,-2.5315e-09,0,0.00010192,-0.00029537,3.5294e+07,-622.37,0,3.5294e+07,-299.83,11368,11756,1,11756,1,0.00041938,-3.8632e-10,0,0.00041938,-0.00023596,1.3557e+08,-83.963,0,1.3557e+08,-113.24,11755,12533,1,12533,1,0.0012659,3.752e-09,0,0.0012659,-7.7925e-05,3.1632e+08,938.64,0,3.1632e+08,110.82,12532,446.74,0,446.74,0,0.00045748,2.7104e-09,0,0.00045748,8.5448e-05,1.021e+08,732.16,0,1.021e+08,185.89,446.74,1
825,5.07,12164,1,12164,1,0.00084532,-1.0989e-09,0,0.00084532,-0.00015743,2.2547e+08,-269.41,0,2.2547e+08,-1.3192,12163,12984,1,12984,1,0.0015877,6.573e-10,0,0.0015877,-1.8689e-05,3.7423e+08,193.28,0,3.7423e+08,393.59,12983,12171,1,12171,1,0.00084531,-1.2499e-09,0,0.00084531,-0.00015744,2.4055e+08,-308.51,0,2.4055e+08,-15.476,12170,11369,1,11369,1,0.0001029,-2.2478e-09,0,0.0001029,-0.00029616,3.5604e+07,-548.55,0,3.5604e+07,-138.14,11368,11756,1,11756,1,0.00042108,-1.5367e-09,0,0.00042108,-0.00023663,1.3595e+08,-376.6,0,1.3595e+08,-62.761,11755,12533,1,12533,1,0.0012695,-7.1334e-10,0,0.0012695,-7.8237e-05,3.1642e+08,-161.22,0,3.1642e+08,25.409,12532,446.74,0,446.74,0,0.0004585,6.3244e-10,0,0.0004585,8.5638e-05,1.0198e+08,159.22,0,1.0198e+08,92.469,446.74,1
825,5.08,12164,1,12164,1,0.00084793,2.0595e-09,0,0.00084793,-0.00015792,2.257e+08,545.17,0,2.257e+08,15.225,12163,12984,1,12984,1,0.001592,9.8296e-09,0,0.001592,-1.887e-05,3.7419e+08,2845.1,0,3.7419e+08,584.88,12983,12171,1,12171,1,0.00084793,1.0603e-09,0,0.00084793,-0.00015792,2.4085e+08,242.85,0,2.4085e+08,33.899,12170,11369,1,11369,1,0.00010389,-3.8588e-09,0,0.00010389,-0.00029696,3.5915e+07,-971.26,0,3.5915e+07,-281.06,11368,11756,1,11756,1,0.00042277,-5.9884e-10,0,0.00042277,-0.00023728,1.3633e+08,-135.78,0,1.3633e+08,-104.12,11755,12533,1,12533,1,0.0012731,4.5523e-09,0,0.0012731,-7.8548e-05,3.1651e+08,1142.4,0,3.1651e+08,86.865,12532,446.74,0,446.74,0,0.00045951,3.577e-09,0,0.00045951,8.5825e-05,1.0186e+08,950.22,0,1.0186e+08,155.01,446.74,1
825,5.09,12164,1,12164,1,0.00085059,-1.214e-09,0,0.00085059,-0.00015841,2.2594e+08,-286.63,0,2.2594e+08,2.297,12163,12984,1,12984,1,0.0015963,5.3606e-09,0,0.0015963,-1.9052e-05,3.7416e+08,1576.4,0,3.7416e+08,367.01,12983,12171,1,12171,1,0.00085059,-1.3474e-09,0,0.00085059,-0.00015841,2.4116e+08,-292.9,0,2.4116e+08,-7.1039,12170,11369,1,11369,1,0.00010487,-5.0026e-09,0,0.00010487,-0.00029775,3.6226e+07,-1299.2,0,3.6226e+07,-190.5,11368,11756,1,11756,1,0.00042447,-2.7692e-09,0,0.00042447,-0.00023795,1.3672e+08,-665.83,0,1.3672e+08,-63.348,11755,12533,1,12533,1,0.0012767,-1.423e-10,0,0.0012767,-7.8862e-05,3.1662e+08,-32.509,0,3.1662e+08,49.271,12532,446.74,0,446.74,0,0.00046054,2.1923e-09,0,0.00046054,8.6015e-05,1.0174e+08,582.63,0,1.0174e+08,103.1,446.74,1
825,5.1,12164,1,12164,1,0.00085327,2.2532e-10,0,0.00085327,-0.0001589,2.2618e+08,77.025,0,2.2618e+08,-40.175,12163,12984,1,12984,1,0.0016007,3.5522e-09,0,0.0016007,-1.9237e-05,3.7412e+08,1044.1,0,3.7412e+08,512.43,12983,12171,1,12171,1,0.00085327,-6.4563e-11,0,0.00085327,-0.0001589,2.4147e+08,-15.011,0,2.4147e+08,-34.199,12170,11369,1,11369,1,0.00010588,-2.5448e-09,0,0.00010588,-0.00029856,3.6544e+07,-642.6,0,3.6544e+07,-271.29,11368,11756,1,11756,1,0.00042619,-6.6811e-10,0,0.00042619,-0.00023862,1.3711e+08,-144.18,0,1.3711e+08,-135.42,11755,12533,1,12533,1,0.0012803,9.1989e-10,0,0.0012803,-7.918e-05,3.1671e+08,243.88,0,3.1671e+08,20.214,12532,446.74,0,446.74,0,0.00046158,1.3045e-09,0,0.00046158,8.6206e-05,1.0162e+08,348.35,0,1.0162e+08,134.35,446.74,1
825,5.11,12164,1,12164,1,0.00085594,-2.5073e-10,0,0.00085594,-0.00015939,2.2641e+08,-40.553,0,2.2641e+08,15.746,12163,12984,1,12984,1,0.001605,4.7086e-09,0,0.001605,-1.9422e-05,3.7406e+08,1370.2,0,3.7406e+08,507.96,12983,12171,1,12171,1,0.00085594,-7.4071e-10,0,0.00085594,-0.0001594,2.4177e+08,-161.92,0,2.4177e+08,-6.4344,12170,11369,1,11369,1,0.00010689,-3.7699e-09,0,0.00010689,-0.00029936,3.6861e+07,-950.3,0,3.6861e+07,-231.52,11368,11756,1,11756,1,0.00042792,-1.1939e-09,0,0.00042792,-0.00023929,1.375e+08,-263.31,0,1.375e+08,-81.854,11755,12533,1,12533,1,0.001284,5.2116e-10,0,0.001284,-7.9497e-05,3.168e+08,134.85,0,3.168e+08,74.658,12532,446.74,0,446.74,0,0.0004626,1.7355e-09,0,0.0004626,8.6396e-05,1.0149e+08,455.56,0,1.0149e+08,146.25,446.74,1
825,5.12,12164,1,12164,1,0.00085861,7.5724e-10,0,0.00085861,-0.00015989,2.2664e+08,219.57,0,2.2664e+08,24.495,12163,12984,1,12984,1,0.0016094,8.3247e-09,0,0.0016094,-1.9608e-05,3.7401e+08,2404.3,0,3.7401e+08,561.24,12983,12171,1,12171,1,0.00085861,-9.6977e-11,0,0.00085861,-0.00015989,2.4207e+08,-23.751,0,2.4207e+08,7.0077,12170,11369,1,11369,1,0.0001079,-3.3002e-09,0,0.0001079,-0.00030016,3.7179e+07,-820.14,0,3.7179e+07,-246.31,11368,11756,1,11756,1,0.00042964,-8.0014e-10,0,0.00042964,-0.00023996,1.3788e+08,-169.05,0,1.3788e+08,-73.554,11755,12533,1,12533,1,0.0012876,1.8997e-09,0,0.0012876,-7.9815e-05,3.1688e+08,476.45,0,3.1688e+08,81.398,12532,446.74,0,446.74,0,0.00046363,2.4323e-09,0,0.00046363,8.6586e-05,1.0136e+08,643.77,0,1.0136e+08,152.02,446.74,1
825,5.13,12164,1,12164,1,0.0008613,2.0032e-09,0,0.0008613,-0.00016039,2.2687e+08,542.66,0,2.2687e+08,-16.087,12163,12984,1,12984,1,0.0016137,7.1108e-09,0,0.0016137,-1.9796e-05,3.7396e+08,2083.8,0,3.7396e+08,464.65,12983,12171,1,12171,1,0.0008613,1.7067e-09,0,0.0008613,-0.00016039,2.4238e+08,423,0,2.4238e+08,-16.245,12170,11369,1,11369,1,0.00010892,-1.7018e-09,0,0.00010892,-0.00030097,3.7498e+07,-333.06,0,3.7498e+07,-298.83,11368,11756,1,11756,1,0.00043138,1.4218e-11,0,0.00043138,-0.00024063,1.3827e+08,2.3876,0,1.3827e+08,-105.05,11755,12533,1,12533,1,0.0012912,3.6753e-09,0,0.0012912,-8.0136e-05,3.1696e+08,978.75,0,3.1696e+08,50.93,12532,446.74,0,446.74,0,0.00046466,2.311e-09,0,0.00046466,8.6777e-05,1.0123e+08,626.89,0,1.0123e+08,140.37,446.74,1
825,5.14,12164,1,12164,1,0.00086401,-1.6722e-09,0,0.00086401,-0.00016088,2.271e+08,-386.74,0,2.271e+08,19.895,12163,12984,1,12984,1,0.0016181,1.8605e-09,0,0.0016181,-1.9985e-05,3.739e+08,544.35,0,3.739e+08,431.84,12983,12171,1,12171,1,0.00086401,-1.9018e-09,0,0.00086401,-0.00016089,2.4268e+08,-443.13,0,2.4268e+08,1.9587,12170,11369,1,11369,1,0.00010994,-3.7678e-09,0,0.00010994,-0.00030178,3.7819e+07,-893.67,0,3.7819e+07,-124.28,11368,11756,1,11756,1,0.00043313,-2.6235e-09,0,0.00043313,-0.00024131,1.3866e+08,-606.94,0,1.3866e+08,-44.533,11755,12533,1,12533,1,0.0012949,-9.6451e-10,0,0.0012949,-8.0458e-05,3.1704e+08,-216.83,0,3.1704e+08,41.66,12532,446.74,0,446.74,0,0.0004657,1.129e-09,0,0.0004657,8.6969e-05,1.011e+08,269.67,0,1.011e+08,106.97,446.74,1
825,5.15,12164,1,12164,1,0.0008667,3.2217e-09,0,0.0008667,-0.00016138,2.2732e+08,854.05,0,2.2732e+08,12.522,12163,12984,1,12984,1,0.0016225,1.2756e-08,0,0.0016225,-2.0175e-05,3.7382e+08,3613.2,0,3.7382e+08,657.23,12983,12171,1,12171,1,0.0008667,2.473e-09,0,0.0008667,-0.00016138,2.4297e+08,568.4,0,2.4297e+08,-15.205,12170,11369,1,11369,1,0.00011098,-5.3241e-09,0,0.00011098,-0.00030259,3.8143e+07,-1288.1,0,3.8143e+07,-291.59,11368,11756,1,11756,1,0.00043487,-8.1551e-10,0,0.00043487,-0.00024198,1.3905e+08,-164.74,0,1.3905e+08,-84.465,11755,12533,1,12533,1,0.0012985,6.8686e-09,0,0.0012985,-8.078e-05,3.1711e+08,1745.6,0,3.1711e+08,91.062,12532,446.74,0,446.74,0,0.00046672,4.6982e-09,0,0.00046672,8.7158e-05,1.0096e+08,1243.1,0,1.0096e+08,151.45,446.74,1
825,5.16,12164,1,12164,1,0.00086944,-3.0781e-09,0,0.00086944,-0.00016189,2.2756e+08,-732.8,0,2.2756e+08,-2.4218,12163,12984,1,12984,1,0.0016269,-2.5056e-10,0,0.0016269,-2.0367e-05,3.7377e+08,-49.423,0,3.7377e+08,516.07,12983,12171,1,12171,1,0.00086944,-2.986e-09,0,0.00086944,-0.00016189,2.4328e+08,-720.86,0,2.4328e+08,-17.473,12170,11369,1,11369,1,0.00011202,-5.729e-09,0,0.00011202,-0.0003034,3.8467e+07,-1311.9,0,3.8467e+07,-177.92,11368,11756,1,11756,1,0.00043664,-4.1451e-09,0,0.00043664,-0.00024267,1.3944e+08,-980.56,0,1.3944e+08,-76.331,11755,12533,1,12533,1,0.0013022,-2.0993e-09,0,0.0013022,-8.1106e-05,3.1719e+08,-513.2,0,3.1719e+08,29.528,12532,446.74,0,446.74,0,0.00046777,1.3928e-09,0,0.00046777,8.7352e-05,1.0083e+08,322.82,0,1.0083e+08,123.71,446.74,1
825,5.17,12164,1,12164,1,0.00087215,-3.8744e-09,0,0.00087215,-0.00016239,2.2777e+08,-961.06,0,2.2777e+08,136.2,12163,12984,1,12984,1,0.0016312,1.9336e-09,0,0.0016312,-2.056e-05,3.7367e+08,526.46,0,3.7367e+08,674.2,12983,12171,1,12171,1,0.00087215,-3.5078e-09,0,0.00087215,-0.00016239,2.4356e+08,-825.63,0,2.4356e+08,96.449,12170,11369,1,11369,1,0.00011307,-9.7071e-09,0,0.00011307,-0.00030421,3.8795e+07,-2645.4,0,3.8795e+07,-38.501,11368,11756,1,11756,1,0.00043839,-6.6265e-09,0,0.00043839,-0.00024334,1.3983e+08,-1655.5,0,1.3983e+08,44.423,11755,12533,1,12533,1,0.0013059,-9.3538e-10,0,0.0013059,-8.1429e-05,3.1724e+08,-205.15,0,3.1724e+08,187.26,12532,446.74,0,446.74,0,0.00046879,3.3312e-09,0,0.00046879,8.7542e-05,1.0068e+08,867.96,0,1.0068e+08,136.22,446.74,1
825,5.18,12164,1,12164,1,0.00087491,-7.5407e-10,0,0.00087491,-0.0001629,2.28e+08,-191.94,0,2.28e+08,59.908,12163,12984,1,12984,1,0.0016357,3.4336e-10,0,0.0016357,-2.0755e-05,3.736e+08,75.496,0,3.736e+08,681.76,12983,12171,1,12171,1,0.00087491,-6.4235e-10,0,0.00087491,-0.0001629,2.4386e+08,-148.05,0,2.4386e+08,21.749,12170,11369,1,11369,1,0.00011413,-2.6576e-09,0,0.00011413,-0.00030503,3.9125e+07,-684.27,0,3.9125e+07,-131.47,11368,11756,1,11756,1,0.00044018,-1.0942e-09,0,0.00044018,-0.00024403,1.4022e+08,-281.35,0,1.4022e+08,-36.74,11755,12533,1,12533,1,0.0013096,-2.4778e-10,0,0.0013096,-8.1758e-05,3.1732e+08,-57.458,0,3.1732e+08,103.69,12532,446.74,0,446.74,0,0.00046985,7.0217e-10,0,0.00046985,8.7736e-05,1.0055e+08,188.42,0,1.0055e+08,154.66,446.74,1
825,5.19,12164,1,12164,1,0.00087763,2.5339e-09,0,0.00087763,-0.0001634,2.2821e+08,646.51,0,2.2821e+08,55.356,12163,12984,1,12984,1,0.0016401,1.1043e-08,0,0.0016401,-2.0951e-05,3.735e+08,3035.5,0,3.735e+08,933.44,12983,12171,1,12171,1,0.00087762,1.8571e-09,0,0.00087762,-0.0001634,2.4414e+08,411.05,0,2.4414e+08,11.213,12170,11369,1,11369,1,0.0001152,-5.4843e-09,0,0.0001152,-0.00030584,3.9456e+07,-1407,0,3.9456e+07,-391.7,11368,11756,1,11756,1,0.00044195,-6.6883e-10,0,0.00044195,-0.0002447,1.4061e+08,-135.73,0,1.4061e+08,-117.87,11755,12533,1,12533,1,0.0013133,5.4638e-09,0,0.0013133,-8.2086e-05,3.1736e+08,1360.2,0,3.1736e+08,176.62,12532,446.74,0,446.74,0,0.00047087,4.108e-09,0,0.00047087,8.7925e-05,1.0039e+08,1062.7,0,1.0039e+08,249.69,446.74,1
825,5.2,12164,1,12164,1,0.0008804,1.6521e-09,0,0.0008804,-0.00016391,2.2844e+08,436.31,0,2.2844e+08,35.41,12163,12984,1,12984,1,0.0016446,6.6472e-09,0,0.0016446,-2.1146e-05,3.7342e+08,1935.5,0,3.7342e+08,716.29,12983,12171,1,12171,1,0.0008804,1.0677e-09,0,0.0008804,-0.00016391,2.4445e+08,254.87,0,2.4445e+08,8.9226,12170,11369,1,11369,1,0.00011626,-1.9142e-09,0,0.00011626,-0.00030667,3.9785e+07,-448.56,0,3.9785e+07,-281.19,11368,11756,1,11756,1,0.00044376,-3.9381e-11,0,0.00044376,-0.0002454,1.4101e+08,-8.9937,0,1.4101e+08,-95.997,11755,12533,1,12533,1,0.001317,3.0075e-09,0,0.001317,-8.2418e-05,3.1743e+08,773.8,0,3.1743e+08,119.64,12532,446.74,0,446.74,0,0.00047192,2.123e-09,0,0.00047192,8.812e-05,1.0026e+08,570.85,0,1.0026e+08,190.52,446.74,1
825,5.21,12164,1,12164,1,0.00088317,-2.9144e-09,0,0.00088317,-0.00016442,2.2866e+08,-710.96,0,2.2866e+08,32.767,12163,12984,1,12984,1,0.001649,7.69e-10,0,0.001649,-2.1346e-05,3.7332e+08,146.24,0,3.7332e+08,668.93,12983,12171,1,12171,1,0.00088317,-3.2206e-09,0,0.00088317,-0.00016442,2.4473e+08,-737.17,0,2.4473e+08,-11.38,12170,11369,1,11369,1,0.00011734,-5.9266e-09,0,0.00011734,-0.00030749,4.0121e+07,-1494.2,0,4.0121e+07,-110.8,11368,11756,1,11756,1,0.00044556,-4.1965e-09,0,0.00044556,-0.00024609,1.414e+08,-1038,0,1.414e+08,-53.908,11755,12533,1,12533,1,0.0013208,-1.7565e-09,0,0.0013208,-8.2751e-05,3.1748e+08,-387.82,0,3.1748e+08,44.1,12532,446.74,0,446.74,0,0.00047296,1.6201e-09,0,0.00047296,8.8313e-05,1.0011e+08,418.05,0,1.0011e+08,141.21,446.74,1
825,5.22,12164,1,12164,1,0.00088596,2.7398e-09,0,0.00088596,-0.00016493,2.2887e+08,702.81,0,2.2887e+08,46.754,12163,12984,1,12984,1,0.0016535,7.3345e-09,0,0.0016535,-2.1546e-05,3.7322e+08,2111.2,0,3.7322e+08,855.14,12983,12171,1,12171,1,0.00088595,2.7823e-09,0,0.00088595,-0.00016493,2.4502e+08,646.96,0,2.4502e+08,30.69,12170,11369,1,11369,1,0.00011843,-1.7693e-09,0,0.00011843,-0.00030832,4.0457e+07,-390.4,0,4.0457e+07,-323.29,11368,11756,1,11756,1,0.00044737,7.35e-10,0,0.00044737,-0.00024678,1.4179e+08,152.99,0,1.4179e+08,-104,11755,12533,1,12533,1,0.0013245,4.736e-09,0,0.0013245,-8.3085e-05,3.1752e+08,1191.1,0,3.1752e+08,152.67,12532,446.74,0,446.74,0,0.00047401,2.3902e-09,0,0.00047401,8.8507e-05,9.9956e+07,638.66,0,9.9956e+07,218.34,446.74,1
825,5.23,12164,1,12164,1,0.00088875,-7.9184e-10,0,0.00088875,-0.00016545,2.2909e+08,-178.86,0,2.2909e+08,73.508,12163,12984,1,12984,1,0.001658,1.288e-09,0,0.001658,-2.1747e-05,3.731e+08,354.04,0,3.731e+08,682.28,12983,12171,1,12171,1,0.00088875,-8.6412e-10,0,0.00088875,-0.00016545,2.4531e+08,-198.47,0,2.4531e+08,28.922,12170,11369,1,11369,1,0.00011952,-2.8893e-09,0,0.00011952,-0.00030915,4.0794e+07,-648.39,0,4.0794e+07,-121.25,11368,11756,1,11756,1,0.0004492,-1.3477e-09,0,0.0004492,-0.00024748,1.4219e+08,-306.36,0,1.4219e+08,-19.041,11755,12533,1,12533,1,0.0013283,-2.3236e-10,0,0.0013283,-8.3421e-05,3.1757e+08,-49.986,0,3.1757e+08,96.158,12532,446.74,0,446.74,0,0.00047506,7.4974e-10,0,0.00047506,8.8701e-05,9.9804e+07,173.7,0,9.9804e+07,146.38,446.74,1
825,5.24,12164,1,12164,1,0.00089155,-3.6991e-09,0,0.00089155,-0.00016597,2.293e+08,-916.17,0,2.293e+08,136.95,12163,12984,1,12984,1,0.0016625,1.0775e-09,0,0.0016625,-2.195e-05,3.7299e+08,203.47,0,3.7299e+08,872.54,12983,12171,1,12171,1,0.00089155,-3.7979e-09,0,0.00089155,-0.00016597,2.4559e+08,-916.11,0,2.4559e+08,84.491,12170,11369,1,11369,1,0.00012063,-8.6383e-09,0,0.00012063,-0.00030998,4.1135e+07,-2156.1,0,4.1135e+07,-109.07,11368,11756,1,11756,1,0.00045103,-5.5813e-09,0,0.00045103,-0.00024817,1.4258e+08,-1427.1,0,1.4258e+08,27.6,11755,12533,1,12533,1,0.0013321,-1.749e-09,0,0.0013321,-8.3758e-05,3.176e+08,-401.1,0,3.176e+08,180.36,12532,446.74,0,446.74,0,0.00047611,2.447e-09,0,0.00047611,8.8895e-05,9.9647e+07,636.42,0,9.9647e+07,175.2,446.74,1
825,5.25,12164,1,12164,1,0.00089436,-9.2704e-10,0,0.00089436,-0.00016648,2.2951e+08,-247.88,0,2.2951e+08,149.48,12163,12984,1,12984,1,0.001667,2.3245e-09,0,0.001667,-2.2154e-05,3.7287e+08,513.46,0,3.7287e+08,987.07,12983,12171,1,12171,1,0.00089436,-7.322e-10,0,0.00089436,-0.00016648,2.4587e+08,-173.86,0,2.4587e+08,67.947,12170,11369,1,11369,1,0.00012173,-5.1666e-09,0,0.00012173,-0.00031082,4.1475e+07,-1278.4,0,4.1475e+07,-56.513,11368,11756,1,11756,1,0.00045287,-1.9696e-09,0,0.00045287,-0.00024887,1.4298e+08,-498.03,0,1.4298e+08,27.933,11755,12533,1,12533,1,0.0013359,3.8237e-10,0,0.0013359,-8.4097e-05,3.1764e+08,77.93,0,3.1764e+08,191.87,12532,446.74,0,446.74,0,0.00047716,1.554e-09,0,0.00047716,8.9089e-05,9.9492e+07,388.12,0,9.9492e+07,196.34,446.74,1
825,5.26,12164,1,12164,1,0.00089719,-1.1216e-09,0,0.00089719,-0.00016701,2.2972e+08,-304.9,0,2.2972e+08,148.25,12163,12984,1,12984,1,0.0016715,2.4798e-09,0,0.0016715,-2.236e-05,3.7274e+08,522.13,0,3.7274e+08,962.91,12983,12171,1,12171,1,0.00089719,-9.3138e-10,0,0.00089719,-0.00016701,2.4615e+08,-223.79,0,2.4615e+08,62.868,12170,11369,1,11369,1,0.00012285,-5.2972e-09,0,0.00012285,-0.00031166,4.1818e+07,-1335.7,0,4.1818e+07,-107.71,11368,11756,1,11756,1,0.00045472,-2.4106e-09,0,0.00045472,-0.00024957,1.4338e+08,-621.66,0,1.4338e+08,24.619,11755,12533,1,12533,1,0.0013396,5.5285e-10,0,0.0013396,-8.4438e-05,3.1767e+08,113.17,0,3.1767e+08,204.27,12532,446.74,0,446.74,0,0.00047822,1.854e-09,0,0.00047822,8.9284e-05,9.9332e+07,466.19,0,9.9332e+07,203.32,446.74,1
825,5.27,12164,1,12164,1,0.00090003,4.3453e-10,0,0.00090003,-0.00016753,2.2993e+08,75.137,0,2.2993e+08,177.29,12163,12984,1,12984,1,0.0016761,4.2069e-09,0,0.0016761,-2.2566e-05,3.7262e+08,919.49,0,3.7262e+08,1052.9,12983,12171,1,12171,1,0.00090003,6.0873e-10,0,0.00090003,-0.00016753,2.4644e+08,133.46,0,2.4644e+08,103.19,12170,11369,1,11369,1,0.00012397,-2.9119e-09,0,0.00012397,-0.0003125,4.2162e+07,-696.76,0,4.2162e+07,-26.901,11368,11756,1,11756,1,0.00045658,-6.8963e-10,0,0.00045658,-0.00025027,1.4377e+08,-169.77,0,1.4377e+08,42.896,11755,12533,1,12533,1,0.0013435,1.4058e-09,0,0.0013435,-8.4781e-05,3.1771e+08,293.38,0,3.1771e+08,225.23,12532,446.74,0,446.74,0,0.00047928,1.3205e-09,0,0.00047928,8.948e-05,9.9172e+07,305.39,0,9.9172e+07,203.26,446.74,1
825,5.28,12164,1,12164,1,0.00090287,-8.0725e-10,0,0.00090287,-0.00016805,2.3013e+08,-235.15,0,2.3013e+08,236.34,12163,12984,1,12984,1,0.0016806,4.1133e-09,0,0.0016806,-2.2774e-05,3.7247e+08,878.71,0,3.7247e+08,1192.5,12983,12171,1,12171,1,0.00090287,-6.7664e-10,0,0.00090287,-0.00016805,2.4671e+08,-150.27,0,2.4671e+08,166.05,12170,11369,1,11369,1,0.00012511,-6.01e-09,0,0.00012511,-0.00031334,4.2509e+07,-1482,0,4.2509e+07,-40.645,11368,11756,1,11756,1,0.00045845,-2.3786e-09,0,0.00045845,-0.00025098,1.4417e+08,-628.12,0,1.4417e+08,83.227,11755,12533,1,12533,1,0.0013473,1.0246e-09,0,0.0013473,-8.5125e-05,3.1772e+08,204.69,0,3.1772e+08,297.44,12532,446.74,0,446.74,0,0.00048033,2.1427e-09,0,0.00048033,8.9675e-05,9.9006e+07,521.43,0,9.9006e+07,230.84,446.74,1
825,5.29,12164,1,12164,1,0.0009057,3.5598e-09,0,0.0009057,-0.00016858,2.3033e+08,851.49,0,2.3033e+08,162.1,12163,12984,1,12984,1,0.0016852,9.3323e-09,0,0.0016852,-2.2984e-05,3.7233e+08,2187.3,0,3.7233e+08,1160.6,12983,12171,1,12171,1,0.0009057,3.8126e-09,0,0.0009057,-0.00016858,2.4698e+08,880.37,0,2.4698e+08,73.961,12170,11369,1,11369,1,0.00012625,-2.2353e-09,0,0.00012625,-0.00031417,4.2856e+07,-500.05,0,4.2856e+07,-102.02,11368,11756,1,11756,1,0.00046031,1.4964e-09,0,0.00046031,-0.00025168,1.4456e+08,335.06,0,1.4456e+08,20.354,11755,12533,1,12533,1,0.0013511,5.4318e-09,0,0.0013511,-8.5468e-05,3.1774e+08,1322.9,0,3.1774e+08,237.26,12532,446.74,0,446.74,0,0.00048138,2.545e-09,0,0.00048138,8.9868e-05,9.8839e+07,616.99,0,9.8839e+07,216.03,446.74,1
825,5.3,12164,1,12164,1,0.00090856,1.2548e-09,0,0.00090856,-0.0001691,2.3054e+08,312.53,0,2.3054e+08,152.62,12163,12984,1,12984,1,0.0016897,5.5973e-09,0,0.0016897,-2.3195e-05,3.7219e+08,1305.4,0,3.7219e+08,1076.7,12983,12171,1,12171,1,0.00090857,1.328e-09,0,0.00090857,-0.0001691,2.4726e+08,313.08,0,2.4726e+08,68.006,12170,11369,1,11369,1,0.0001274,-4.3521e-09,0,0.0001274,-0.00031502,4.3207e+07,-973.3,0,4.3207e+07,-122.84,11368,11756,1,11756,1,0.00046219,-1.874e-10,0,0.00046219,-0.00025239,1.4496e+08,-36.597,0,1.4496e+08,6.2792,11755,12533,1,12533,1,0.0013549,2.6021e-09,0,0.0013549,-8.5815e-05,3.1776e+08,661.94,0,3.1776e+08,241.76,12532,446.74,0,446.74,0,0.00048244,1.9534e-09,0,0.00048244,9.0065e-05,9.8675e+07,464.54,0,9.8675e+07,209.58,446.74,1
825,5.31,12164,1,12164,1,0.00091144,1.3264e-09,0,0.00091144,-0.00016963,2.3074e+08,334.99,0,2.3074e+08,198.33,12163,12984,1,12984,1,0.0016943,6.251e-09,0,0.0016943,-2.3407e-05,3.7204e+08,1478.1,0,3.7204e+08,1029.6,12983,12171,1,12171,1,0.00091144,1.3637e-09,0,0.00091144,-0.00016963,2.4753e+08,316.08,0,2.4753e+08,114.25,12170,11369,1,11369,1,0.00012855,-3.7796e-09,0,0.00012855,-0.00031587,4.3557e+07,-813.05,0,4.3557e+07,-44.413,11368,11756,1,11756,1,0.00046408,1.3375e-10,0,0.00046408,-0.0002531,1.4536e+08,24.981,0,1.4536e+08,47.424,11755,12533,1,12533,1,0.0013588,2.3045e-09,0,0.0013588,-8.6163e-05,3.1777e+08,610.57,0,3.1777e+08,275.67,12532,446.74,0,446.74,0,0.0004835,1.7698e-09,0,0.0004835,9.0261e-05,9.8505e+07,426.51,0,9.8505e+07,213.03,446.74,1
825,5.32,12164,1,12164,1,0.00091431,-3.3125e-09,0,0.00091431,-0.00017016,2.3093e+08,-809.17,0,2.3093e+08,221.94,12163,12984,1,12984,1,0.0016989,4.0862e-09,0,0.0016989,-2.3621e-05,3.7188e+08,918.21,0,3.7188e+08,937.1,12983,12171,1,12171,1,0.00091431,-2.4972e-09,0,0.00091431,-0.00017016,2.4779e+08,-571.51,0,2.4779e+08,158.98,12170,11369,1,11369,1,0.00012971,-1.2557e-08,0,0.00012971,-0.00031671,4.3911e+07,-3060.4,0,4.3911e+07,-52.532,11368,11756,1,11756,1,0.00046597,-6.1328e-09,0,0.00046597,-0.00025381,1.4576e+08,-1487.5,0,1.4576e+08,49.888,11755,12533,1,12533,1,0.0013626,-4.8693e-11,0,0.0013626,-8.6512e-05,3.1777e+08,-9.3524,0,3.1777e+08,318.2,12532,446.74,0,446.74,0,0.00048455,4.0048e-09,0,0.00048455,9.0455e-05,9.833e+07,986.61,0,9.833e+07,220.51,446.74,1
825,5.33,12164,1,12164,1,0.0009172,1.967e-09,0,0.0009172,-0.0001707,2.3113e+08,481.32,0,2.3113e+08,158.48,12163,12984,1,12984,1,0.0017035,5.4631e-09,0,0.0017035,-2.3836e-05,3.7172e+08,1258.6,0,3.7172e+08,1196.3,12983,12171,1,12171,1,0.0009172,2.4449e-09,0,0.0009172,-0.0001707,2.4807e+08,575.11,0,2.4807e+08,68.604,12170,11369,1,11369,1,0.00013088,-3.3928e-09,0,0.00013088,-0.00031756,4.4266e+07,-744.64,0,4.4266e+07,-76.899,11368,11756,1,11756,1,0.00046788,8.4227e-10,0,0.00046788,-0.00025453,1.4616e+08,170.09,0,1.4616e+08,20.64,11755,12533,1,12533,1,0.0013665,3.2098e-09,0,0.0013665,-8.6864e-05,3.1778e+08,799.89,0,3.1778e+08,215.33,12532,446.74,0,446.74,0,0.00048562,1.6955e-09,0,0.00048562,9.0652e-05,9.8159e+07,413.17,0,9.8159e+07,218.01,446.74,1
825,5.34,12164,1,12164,1,0.0009201,-4.9766e-09,0,0.0009201,-0.00017123,2.3133e+08,-1221.6,0,2.3133e+08,205.04,12163,12984,1,12984,1,0.0017082,4.5837e-09,0,0.0017082,-2.4053e-05,3.7156e+08,1022.2,0,3.7156e+08,963.73,12983,12171,1,12171,1,0.0009201,-5.0593e-09,0,0.0009201,-0.00017123,2.4833e+08,-1102.6,0,2.4833e+08,162.54,12170,11369,1,11369,1,0.00013206,-1.189e-08,0,0.00013206,-0.00031842,4.4622e+07,-3199.2,0,4.4622e+07,-140.28,11368,11756,1,11756,1,0.0004698,-9.8186e-09,0,0.0004698,-0.00025524,1.4656e+08,-2385.2,0,1.4656e+08,46.014,11755,12533,1,12533,1,0.0013704,-7.3627e-10,0,0.0013704,-8.7216e-05,3.1777e+08,-144.34,0,3.1777e+08,301.66,12532,446.74,0,446.74,0,0.00048668,4.7379e-09,0,0.00048668,9.0848e-05,9.798e+07,1191.8,0,9.798e+07,220.49,446.74,1
825,5.35,12164,1,12164,1,0.000923,-1.2833e-09,0,0.000923,-0.00017177,2.3152e+08,-349.67,0,2.3152e+08,197.6,12163,12984,1,12984,1,0.0017128,7.7069e-09,0,0.0017128,-2.427e-05,3.7138e+08,1785.6,0,3.7138e+08,1237.5,12983,12171,1,12171,1,0.00092299,-4.7289e-10,0,0.00092299,-0.00017176,2.4859e+08,-102.47,0,2.4859e+08,116.31,12170,11369,1,11369,1,0.00013324,-8.8489e-09,0,0.00013324,-0.00031928,4.4978e+07,-2428.2,0,4.4978e+07,-154.79,11368,11756,1,11756,1,0.00047172,-5.0466e-09,0,0.00047172,-0.00025595,1.4696e+08,-1215.3,0,1.4696e+08,21.319,11755,12533,1,12533,1,0.0013743,1.8131e-09,0,0.0013743,-8.757e-05,3.1777e+08,391.53,0,3.1777e+08,291.54,12532,446.74,0,446.74,0,0.00048774,4.236e-09,0,0.00048774,9.1045e-05,9.7802e+07,1048.4,0,9.7802e+07,264.08,446.74,1
825,5.36,12164,1,12164,1,0.00092596,-1.6108e-09,0,0.00092596,-0.00017231,2.3172e+08,-431.41,0,2.3172e+08,145.64,12163,12984,1,12984,1,0.0017175,2.9644e-09,0,0.0017175,-2.449e-05,3.7121e+08,621.24,0,3.7121e+08,1277.9,12983,12171,1,12171,1,0.00092595,-1.3786e-09,0,0.00092595,-0.00017231,2.4887e+08,-309.22,0,2.4887e+08,45.236,12170,11369,1,11369,1,0.00013443,-6.0649e-09,0,0.00013443,-0.00032015,4.5339e+07,-1738.7,0,4.5339e+07,-147.27,11368,11756,1,11756,1,0.00047367,-3.6279e-09,0,0.00047367,-0.00025668,1.4737e+08,-927.32,0,1.4737e+08,-43.436,11755,12533,1,12533,1,0.0013782,5.5724e-10,0,0.0013782,-8.793e-05,3.1778e+08,109.32,0,3.1778e+08,238.7,12532,446.74,0,446.74,0,0.00048883,2.3164e-09,0,0.00048883,9.1246e-05,9.7626e+07,592.12,0,9.7626e+07,277.44,446.74,1
825,5.37,12164,1,12164,1,0.00092889,-2.1021e-09,0,0.00092889,-0.00017285,2.319e+08,-566.31,0,2.319e+08,239.89,12163,12984,1,12984,1,0.0017222,8.5921e-09,0,0.0017222,-2.4712e-05,3.7102e+08,1949.5,0,3.7102e+08,1451.1,12983,12171,1,12171,1,0.00092888,-1.3557e-09,0,0.00092888,-0.00017285,2.4912e+08,-294.89,0,2.4912e+08,151.71,12170,11369,1,11369,1,0.00013564,-1.0795e-08,0,0.00013564,-0.00032101,4.5702e+07,-3092.1,0,4.5702e+07,-136.03,11368,11756,1,11756,1,0.00047563,-6.769e-09,0,0.00047563,-0.0002574,1.4777e+08,-1626,0,1.4777e+08,27.425,11755,12533,1,12533,1,0.0013821,1.8578e-09,0,0.0013821,-8.829e-05,3.1775e+08,362.53,0,3.1775e+08,343.22,12532,446.74,0,446.74,0,0.00048989,5.0156e-09,0,0.00048989,9.1442e-05,9.7436e+07,1249.3,0,9.7436e+07,308.74,446.74,1
825,5.38,12164,1,12164,1,0.00093185,-5.3757e-10,0,0.00093185,-0.0001734,2.321e+08,-196.7,0,2.321e+08,218.75,12163,12984,1,12984,1,0.0017269,6.7631e-09,0,0.0017269,-2.4935e-05,3.7083e+08,1490.9,0,3.7083e+08,1602.9,12983,12171,1,12171,1,0.00093185,4.3834e-10,0,0.00093185,-0.00017339,2.4938e+08,98.234,0,2.4938e+08,100.83,12170,11369,1,11369,1,0.00013685,-7.6313e-09,0,0.00013685,-0.00032188,4.6066e+07,-2183.4,0,4.6066e+07,-146.84,11368,11756,1,11756,1,0.00047759,-3.5077e-09,0,0.00047759,-0.00025813,1.4817e+08,-847.73,0,1.4817e+08,-2.5054,11755,12533,1,12533,1,0.0013861,2.0453e-09,0,0.0013861,-8.8651e-05,3.1774e+08,396.95,0,3.1774e+08,322.6,12532,446.74,0,446.74,0,0.00049097,3.5435e-09,0,0.00049097,9.1641e-05,9.7253e+07,874.65,0,9.7253e+07,336.15,446.74,1
825,5.39,12164,1,12164,1,0.00093483,4.0052e-09,0,0.00093483,-0.00017395,2.3228e+08,916.93,0,2.3228e+08,151.55,12163,12984,1,12984,1,0.0017316,7.8844e-09,0,0.0017316,-2.5161e-05,3.7064e+08,1748.2,0,3.7064e+08,1756.3,12983,12171,1,12171,1,0.00093483,4.3177e-09,0,0.00093483,-0.00017394,2.4964e+08,997.29,0,2.4964e+08,9.9299,12170,11369,1,11369,1,0.00013808,-1.1331e-09,0,0.00013808,-0.00032275,4.6434e+07,-232.66,0,4.6434e+07,-180.17,11368,11756,1,11756,1,0.00047956,2.4441e-09,0,0.00047956,-0.00025887,1.4858e+08,571.67,0,1.4858e+08,-68.87,11755,12533,1,12533,1,0.0013901,5.6318e-09,0,0.0013901,-8.9015e-05,3.1772e+08,1268.9,0,3.1772e+08,246.95,12532,446.74,0,446.74,0,0.00049205,2.1506e-09,0,0.00049205,9.1841e-05,9.7065e+07,482.04,0,9.7065e+07,349.76,446.74,1
825,5.4,12164,1,12164,1,0.0009378,-3.3131e-10,0,0.0009378,-0.00017449,2.3246e+08,-120.86,0,2.3246e+08,286.33,12163,12984,1,12984,1,0.0017363,9.5265e-09,0,0.0017363,-2.5388e-05,3.7043e+08,2123.7,0,3.7043e+08,1611.2,12983,12171,1,12171,1,0.0009378,-2.9009e-11,0,0.0009378,-0.00017449,2.4989e+08,-5.0185,0,2.4989e+08,185.53,12170,11369,1,11369,1,0.00013931,-8.1013e-09,0,0.00013931,-0.00032362,4.6805e+07,-1878.6,0,4.6805e+07,-66.016,11368,11756,1,11756,1,0.00048154,-3.7312e-09,0,0.00048154,-0.0002596,1.4898e+08,-900.56,0,1.4898e+08,59,11755,12533,1,12533,1,0.001394,2.2575e-09,0,0.001394,-8.9379e-05,3.1769e+08,489.41,0,3.1769e+08,393.37,12532,446.74,0,446.74,0,0.00049312,3.835e-09,0,0.00049312,9.2039e-05,9.6871e+07,908.49,0,9.6871e+07,317.87,446.74,1
825,5.41,12164,1,12164,1,0.00094079,6.1099e-09,0,0.00094079,-0.00017505,2.3265e+08,1453,0,2.3265e+08,233.26,12163,12984,1,12984,1,0.001741,1.2165e-08,0,0.001741,-2.5616e-05,3.7024e+08,3066.9,0,3.7024e+08,1891.3,12983,12171,1,12171,1,0.00094079,7.2589e-09,0,0.00094079,-0.00017504,2.5015e+08,1683.5,0,2.5015e+08,86.333,12170,11369,1,11369,1,0.00014056,-4.389e-09,0,0.00014056,-0.00032449,4.7176e+07,-941.14,0,4.7176e+07,-144.57,11368,11756,1,11756,1,0.00048352,2.8326e-09,0,0.00048352,-0.00026034,1.4939e+08,584.27,0,1.4939e+08,16.794,11755,12533,1,12533,1,0.0013981,9.5097e-09,0,0.0013981,-8.9745e-05,3.1766e+08,2314.6,0,3.1766e+08,334.36,12532,446.74,0,446.74,0,0.00049421,4.1208e-09,0,0.00049421,9.2239e-05,9.668e+07,1015.4,0,9.668e+07,353.44,446.74,1
825,5.42,12164,1,12164,1,0.00094381,-1.3826e-09,0,0.00094381,-0.0001756,2.3283e+08,-324.89,0,2.3283e+08,279.7,12163,12984,1,12984,1,0.0017458,5.4069e-09,0,0.0017458,-2.5846e-05,3.7002e+08,1184.4,0,3.7002e+08,1515.7,12983,12171,1,12171,1,0.00094381,-1.3399e-09,0,0.00094381,-0.0001756,2.5041e+08,-292.57,0,2.5041e+08,186.19,12170,11369,1,11369,1,0.00014181,-8.7683e-09,0,0.00014181,-0.00032537,4.7551e+07,-1946.7,0,4.7551e+07,-40.402,11368,11756,1,11756,1,0.00048553,-2.9391e-09,0,0.00048553,-0.00026108,1.4979e+08,-703.84,0,1.4979e+08,52.512,11755,12533,1,12533,1,0.0014021,2.3842e-10,0,0.0014021,-9.0116e-05,3.1763e+08,44.976,0,3.1763e+08,381.58,12532,446.74,0,446.74,0,0.0004953,2.5131e-09,0,0.0004953,9.2442e-05,9.6486e+07,571.84,0,9.6486e+07,307.47,446.74,1
825,5.43,12164,1,12164,1,0.00094684,3.8874e-10,0,0.00094684,-0.00017616,2.3301e+08,92.803,0,2.3301e+08,342.05,12163,12984,1,12984,1,0.0017506,7.9178e-09,0,0.0017506,-2.6078e-05,3.698e+08,1759.1,0,3.698e+08,1748.9,12983,12171,1,12171,1,0.00094684,4.2606e-10,0,0.00094684,-0.00017616,2.5066e+08,84.761,0,2.5066e+08,217.37,12170,11369,1,11369,1,0.00014308,-7.9066e-09,0,0.00014308,-0.00032626,4.7927e+07,-1723.3,0,4.7927e+07,-29.403,11368,11756,1,11756,1,0.00048755,-7.4211e-10,0,0.00048755,-0.00026183,1.502e+08,-166.6,0,1.502e+08,96.272,11755,12533,1,12533,1,0.0014061,1.6728e-09,0,0.0014061,-9.0488e-05,3.1759e+08,406.2,0,3.1759e+08,462.14,12532,446.74,0,446.74,0,0.00049639,2.5816e-09,0,0.00049639,9.2643e-05,9.6286e+07,578.12,0,9.6286e+07,349.22,446.74,1
825,5.44,12164,1,12164,1,0.00094988,-3.464e-09,0,0.00094988,-0.00017672,2.3319e+08,-836.53,0,2.3319e+08,363.77,12163,12984,1,12984,1,0.0017554,5.1102e-09,0,0.0017554,-2.6312e-05,3.6958e+08,1069.1,0,3.6958e+08,1707.3,12983,12171,1,12171,1,0.00094989,-3.785e-09,0,0.00094989,-0.00017672,2.5091e+08,-852.79,0,2.5091e+08,270.79,12170,11369,1,11369,1,0.00014435,-1.1358e-08,0,0.00014435,-0.00032715,4.8306e+07,-2538.6,0,4.8306e+07,-69.649,11368,11756,1,11756,1,0.00048959,-6.3784e-09,0,0.00048959,-0.00026257,1.5061e+08,-1586.8,0,1.5061e+08,102.75,11755,12533,1,12533,1,0.0014102,-6.3674e-10,0,0.0014102,-9.0862e-05,3.1755e+08,-125.83,0,3.1755e+08,491.61,12532,446.74,0,446.74,0,0.00049748,3.3852e-09,0,0.00049748,9.2845e-05,9.6085e+07,804.03,0,9.6085e+07,358.56,446.74,1
825,5.45,12164,1,12164,1,0.00095292,2.4026e-09,0,0.00095292,-0.00017728,2.3336e+08,554.43,0,2.3336e+08,366.7,12163,12984,1,12984,1,0.0017602,1.1151e-08,0,0.0017602,-2.6547e-05,3.6934e+08,2468,0,3.6934e+08,2039.2,12983,12171,1,12171,1,0.00095292,2.6736e-09,0,0.00095292,-0.00017728,2.5115e+08,632.1,0,2.5115e+08,233.23,12170,11369,1,11369,1,0.00014563,-8.0436e-09,0,0.00014563,-0.00032803,4.8685e+07,-1720.7,0,4.8685e+07,-33.651,11368,11756,1,11756,1,0.00049162,5.6975e-10,0,0.00049162,-0.00026332,1.5102e+08,109.89,0,1.5102e+08,80.144,11755,12533,1,12533,1,0.0014142,4.2791e-09,0,0.0014142,-9.1237e-05,3.1749e+08,986.68,0,3.1749e+08,508.02,12532,446.74,0,446.74,0,0.00049857,3.2518e-09,0,0.00049857,9.3045e-05,9.5879e+07,726.68,0,9.5879e+07,391.48,446.74,1
825,5.46,12164,1,12164,1,0.00095598,1.68e-09,0,0.00095598,-0.00017785,2.3354e+08,400.24,0,2.3354e+08,374.38,12163,12984,1,12984,1,0.001765,1.2113e-08,0,0.001765,-2.6783e-05,3.6911e+08,2734.8,0,3.6911e+08,2020,12983,12171,1,12171,1,0.00095599,1.8056e-09,0,0.00095599,-0.00017784,2.514e+08,390.83,0,2.514e+08,267.42,12170,11369,1,11369,1,0.00014692,-1.006e-08,0,0.00014692,-0.00032892,4.9067e+07,-2162.9,0,4.9067e+07,-77.386,11368,11756,1,11756,1,0.00049367,-3.4899e-10,0,0.00049367,-0.00026407,1.5143e+08,-76.272,0,1.5143e+08,77.665,11755,12533,1,12533,1,0.0014183,3.9242e-09,0,0.0014183,-9.1614e-05,3.1745e+08,939.92,0,3.1745e+08,518.99,12532,446.74,0,446.74,0,0.00049966,3.8988e-09,0,0.00049966,9.3247e-05,9.5676e+07,881.46,0,9.5676e+07,388.5,446.74,1
825,5.47,12164,1,12164,1,0.00095906,-2.1398e-09,0,0.00095906,-0.00017841,2.3371e+08,-508.89,0,2.3371e+08,414.65,12163,12984,1,12984,1,0.0017699,9.4768e-09,0,0.0017699,-2.7023e-05,3.6887e+08,2087.8,0,3.6887e+08,1973.7,12983,12171,1,12171,1,0.00095906,-1.6539e-09,0,0.00095906,-0.00017841,2.5164e+08,-350.71,0,2.5164e+08,308.29,12170,11369,1,11369,1,0.00014821,-1.4898e-08,0,0.00014821,-0.00032982,4.9451e+07,-3326.8,0,4.9451e+07,-86.749,11368,11756,1,11756,1,0.00049573,-5.5008e-09,0,0.00049573,-0.00026483,1.5184e+08,-1323.6,0,1.5184e+08,85.531,11755,12533,1,12533,1,0.0014224,1.1641e-09,0,0.0014224,-9.1993e-05,3.1739e+08,247.8,0,3.1739e+08,601.45,12532,446.74,0,446.74,0,0.00050076,4.9278e-09,0,0.00050076,9.345e-05,9.5468e+07,1133,0,9.5468e+07,415.49,446.74,1
825,5.48,12164,1,12164,1,0.00096214,3.6612e-09,0,0.00096214,-0.00017898,2.3388e+08,884.23,0,2.3388e+08,375.45,12163,12984,1,12984,1,0.0017748,1.2567e-08,0,0.0017748,-2.7262e-05,3.6863e+08,2822,0,3.6863e+08,2328.3,12983,12171,1,12171,1,0.00096214,4.282e-09,0,0.00096214,-0.00017898,2.5188e+08,947.73,0,2.5188e+08,218.24,12170,11369,1,11369,1,0.00014952,-8.3999e-09,0,0.00014952,-0.00033072,4.9837e+07,-1759,0,4.9837e+07,-132.88,11368,11756,1,11756,1,0.0004978,8.2063e-10,0,0.0004978,-0.00026558,1.5225e+08,162.19,0,1.5225e+08,82.452,11755,12533,1,12533,1,0.0014265,6.8292e-09,0,0.0014265,-9.2375e-05,3.1733e+08,1692.2,0,3.1733e+08,524.29,12532,446.74,0,446.74,0,0.00050186,3.8829e-09,0,0.00050186,9.3653e-05,9.5257e+07,919.09,0,9.5257e+07,429.05,446.74,1
825,5.49,12164,1,12164,1,0.00096524,1.9905e-10,0,0.00096524,-0.00017955,2.3405e+08,71.585,0,2.3405e+08,372.67,12163,12984,1,12984,1,0.0017797,5.9905e-09,0,0.0017797,-2.7504e-05,3.6837e+08,1292,0,3.6837e+08,2274.6,12983,12171,1,12171,1,0.00096525,1.092e-09,0,0.00096525,-0.00017955,2.5212e+08,236.3,0,2.5212e+08,255,12170,11369,1,11369,1,0.00015083,-1.2008e-08,0,0.00015083,-0.00033162,5.0223e+07,-2536.9,0,5.0223e+07,-90.351,11368,11756,1,11756,1,0.00049988,-9.979e-10,0,0.00049988,-0.00026634,1.5266e+08,-196.48,0,1.5266e+08,80.124,11755,12533,1,12533,1,0.0014306,2.1975e-09,0,0.0014306,-9.2758e-05,3.1727e+08,531.39,0,3.1727e+08,503.25,12532,446.74,0,446.74,0,0.00050296,3.0808e-09,0,0.00050296,9.3856e-05,9.5044e+07,670.83,0,9.5044e+07,416.79,446.74,1
825,5.5,12164,1,12164,1,0.00096837,1.4444e-09,0,0.00096837,-0.00018013,2.3422e+08,376.61,0,2.3422e+08,466.88,12163,12984,1,12984,1,0.0017846,1.1918e-08,0,0.0017846,-2.7747e-05,3.6811e+08,2671.7,0,3.6811e+08,2255.3,12983,12171,1,12171,1,0.00096838,2.0435e-09,0,0.00096838,-0.00018012,2.5236e+08,439.07,0,2.5236e+08,362.79,12170,11369,1,11369,1,0.00015216,-1.1994e-08,0,0.00015216,-0.00033253,5.0612e+07,-2498.4,0,5.0612e+07,-51.985,11368,11756,1,11756,1,0.00050198,-8.9474e-10,0,0.00050198,-0.0002671,1.5308e+08,-181.53,0,1.5308e+08,127.91,11755,12533,1,12533,1,0.0014348,4.1445e-09,0,0.0014348,-9.3144e-05,3.172e+08,1065.9,0,3.172e+08,631.3,12532,446.74,0,446.74,0,0.00050407,4.1752e-09,0,0.00050407,9.4061e-05,9.483e+07,933.12,0,9.483e+07,438.53,446.74,1
825,5.51,12164,1,12164,1,0.0009715,2.6629e-09,0,0.0009715,-0.0001807,2.3438e+08,690.4,0,2.3438e+08,475.58,12163,12984,1,12984,1,0.0017895,1.426e-08,0,0.0017895,-2.7992e-05,3.6785e+08,3343.5,0,3.6785e+08,2435.7,12983,12171,1,12171,1,0.0009715,3.1646e-09,0,0.0009715,-0.0001807,2.5259e+08,664.09,0,2.5259e+08,370.84,12170,11369,1,11369,1,0.00015349,-1.3309e-08,0,0.00015349,-0.00033344,5.1003e+07,-2749.4,0,5.1003e+07,-126.76,11368,11756,1,11756,1,0.00050409,-1.3515e-09,0,0.00050409,-0.00026786,1.5349e+08,-251.77,0,1.5349e+08,121.02,11755,12533,1,12533,1,0.0014389,7.14e-09,0,0.0014389,-9.3533e-05,3.1712e+08,1722.5,0,3.1712e+08,665.25,12532,446.74,0,446.74,0,0.00050517,5.4057e-09,0,0.00050517,9.4264e-05,9.461e+07,1251.4,0,9.461e+07,457.92,446.74,1
825,5.52,12164,1,12164,1,0.00097464,-1.8688e-09,0,0.00097464,-0.00018128,2.3454e+08,-370.79,0,2.3454e+08,534.55,12163,12984,1,12984,1,0.0017945,1.0675e-08,0,0.0017945,-2.8239e-05,3.6758e+08,2401,0,3.6758e+08,2333.4,12983,12171,1,12171,1,0.00097465,-1.3802e-09,0,0.00097465,-0.00018128,2.5283e+08,-280.68,0,2.5283e+08,406.2,12170,11369,1,11369,1,0.00015483,-1.7355e-08,0,0.00015483,-0.00033435,5.1396e+07,-3644.2,0,5.1396e+07,8.2223,11368,11756,1,11756,1,0.00050621,-4.7558e-09,0,0.00050621,-0.00026863,1.539e+08,-1009.6,0,1.539e+08,135.5,11755,12533,1,12533,1,0.0014431,1.2255e-09,0,0.0014431,-9.3923e-05,3.1705e+08,293.16,0,3.1705e+08,735.36,12532,446.74,0,446.74,0,0.00050629,5.0603e-09,0,0.00050629,9.447e-05,9.4391e+07,1104.8,0,9.4391e+07,499.71,446.74,1
825,5.53,12164,1,12164,1,0.00097781,-6.4631e-10,0,0.00097781,-0.00018187,2.3471e+08,-77.816,0,2.3471e+08,537.77,12163,12984,1,12984,1,0.0017994,1.0616e-08,0,0.0017994,-2.8489e-05,3.673e+08,2363.9,0,3.673e+08,2541.8,12983,12171,1,12171,1,0.00097781,-2.9849e-10,0,0.00097781,-0.00018186,2.5306e+08,-63.07,0,2.5306e+08,411.73,12170,11369,1,11369,1,0.00015619,-1.6868e-08,0,0.00015619,-0.00033527,5.1794e+07,-3517.3,0,5.1794e+07,-83.918,11368,11756,1,11756,1,0.00050835,-2.9175e-09,0,0.00050835,-0.00026941,1.5432e+08,-603.19,0,1.5432e+08,149.52,11755,12533,1,12533,1,0.0014473,2.9285e-09,0,0.0014473,-9.4316e-05,3.1696e+08,720.7,0,3.1696e+08,744.11,12532,446.74,0,446.74,0,0.0005074,4.8531e-09,0,0.0005074,9.4675e-05,9.4168e+07,1060.9,0,9.4168e+07,513.3,446.74,1
825,5.54,12164,1,12164,1,0.00098099,-4.7162e-09,0,0.00098099,-0.00018245,2.3487e+08,-1044.2,0,2.3487e+08,553.15,12163,12984,1,12984,1,0.0018044,9.4373e-09,0,0.0018044,-2.8742e-05,3.6703e+08,2047,0,3.6703e+08,2486.4,12983,12171,1,12171,1,0.000981,-4.3385e-09,0,0.000981,-0.00018245,2.5329e+08,-969.09,0,2.5329e+08,411.9,12170,11369,1,11369,1,0.00015757,-2.229e-08,0,0.00015757,-0.00033619,5.2194e+07,-4767.6,0,5.2194e+07,-36.225,11368,11756,1,11756,1,0.00051049,-8.4136e-09,0,0.00051049,-0.00027019,1.5474e+08,-1900.6,0,1.5474e+08,114.09,11755,12533,1,12533,1,0.0014515,-3.0269e-10,0,0.0014515,-9.4711e-05,3.1688e+08,-58.103,0,3.1688e+08,779.62,12532,446.74,0,446.74,0,0.00050852,6.0104e-09,0,0.00050852,9.4882e-05,9.3942e+07,1318.5,0,9.3942e+07,542.17,446.74,1
825,5.55,12164,1,12164,1,0.00098418,-2.3848e-09,0,0.00098418,-0.00018304,2.3502e+08,-512.92,0,2.3502e+08,601.27,12163,12984,1,12984,1,0.0018094,1.0838e-08,0,0.0018094,-2.8996e-05,3.6673e+08,2342.9,0,3.6673e+08,2724.5,12983,12171,1,12171,1,0.00098419,-1.7068e-09,0,0.00098419,-0.00018304,2.5352e+08,-382.37,0,2.5352e+08,455.3,12170,11369,1,11369,1,0.00015895,-1.9032e-08,0,0.00015895,-0.00033711,5.2598e+07,-4010.3,0,5.2598e+07,-13.025,11368,11756,1,11756,1,0.00051265,-4.8777e-09,0,0.00051265,-0.00027097,1.5515e+08,-1076.7,0,1.5515e+08,151.62,11755,12533,1,12533,1,0.0014557,3.4511e-10,0,0.0014557,-9.5108e-05,3.1678e+08,78.777,0,3.1678e+08,827.36,12532,446.74,0,446.74,0,0.00050964,5.1117e-09,0,0.00050964,9.5089e-05,9.3713e+07,1100.7,0,9.3713e+07,563.85,446.74,1
825,5.56,12164,1,12164,1,0.00098738,1.9077e-09,0,0.00098738,-0.00018363,2.3517e+08,499.22,0,2.3517e+08,642.82,12163,12984,1,12984,1,0.0018144,1.4539e-08,0,0.0018144,-2.9251e-05,3.6643e+08,3181.8,0,3.6643e+08,3057.2,12983,12171,1,12171,1,0.00098739,3.131e-09,0,0.00098739,-0.00018362,2.5374e+08,635.23,0,2.5374e+08,526.78,12170,11369,1,11369,1,0.00016034,-1.8947e-08,0,0.00016034,-0.00033804,5.3001e+07,-3948.1,0,5.3001e+07,-76.875,11368,11756,1,11756,1,0.00051481,-1.5033e-09,0,0.00051481,-0.00027174,1.5557e+08,-283.72,0,1.5557e+08,170.89,11755,12533,1,12533,1,0.0014599,6.6785e-09,0,0.0014599,-9.5507e-05,3.1668e+08,1663.9,0,3.1668e+08,879.4,12532,446.74,0,446.74,0,0.00051075,6.1973e-09,0,0.00051075,9.5294e-05,9.3481e+07,1381.5,0,9.3481e+07,588.64,446.74,1
825,5.57,12164,1,12164,1,0.00099062,-2.0979e-09,0,0.00099062,-0.00018423,2.3533e+08,-425.7,0,2.3533e+08,617.19,12163,12984,1,12984,1,0.0018195,1.0738e-08,0,0.0018195,-2.9508e-05,3.6614e+08,2248.9,0,3.6614e+08,2865.1,12983,12171,1,12171,1,0.00099063,-1.2987e-09,0,0.00099063,-0.00018422,2.5397e+08,-271.21,0,2.5397e+08,467.52,12170,11369,1,11369,1,0.00016174,-1.9094e-08,0,0.00016174,-0.00033897,5.3405e+07,-3946.6,0,5.3405e+07,-56.736,11368,11756,1,11756,1,0.000517,-4.5243e-09,0,0.000517,-0.00027253,1.5599e+08,-937.47,0,1.5599e+08,153.02,11755,12533,1,12533,1,0.0014642,6.8835e-10,0,0.0014642,-9.591e-05,3.1659e+08,170.84,0,3.1659e+08,862.43,12532,446.74,0,446.74,0,0.00051189,4.9148e-09,0,0.00051189,9.5504e-05,9.3251e+07,1027.9,0,9.3251e+07,606.17,446.74,1
825,5.58,12164,1,12164,1,0.00099385,2.5552e-09,0,0.00099385,-0.00018482,2.3548e+08,665.49,0,2.3548e+08,765.17,12163,12984,1,12984,1,0.0018246,1.7178e-08,0,0.0018246,-2.9767e-05,3.6582e+08,3728.6,0,3.6582e+08,3217.4,12983,12171,1,12171,1,0.00099386,3.8436e-09,0,0.00099386,-0.00018482,2.5418e+08,793,0,2.5418e+08,666.9,12170,11369,1,11369,1,0.00016315,-2.0265e-08,0,0.00016315,-0.00033991,5.3814e+07,-4140.1,0,5.3814e+07,-93.064,11368,11756,1,11756,1,0.0005192,-1.4569e-09,0,0.0005192,-0.00027332,1.5641e+08,-271.77,0,1.5641e+08,233.26,11755,12533,1,12533,1,0.0014685,7.708e-09,0,0.0014685,-9.6314e-05,3.1647e+08,1924.3,0,3.1647e+08,1084.7,12532,446.74,0,446.74,0,0.00051301,6.8324e-09,0,0.00051301,9.5711e-05,9.3011e+07,1518.7,0,9.3011e+07,650.81,446.74,1
825,5.59,12164,1,12164,1,0.00099713,-1.8062e-09,0,0.00099713,-0.00018542,2.3563e+08,-330.62,0,2.3563e+08,781.86,12163,12984,1,12984,1,0.0018297,1.4036e-08,0,0.0018297,-3.0028e-05,3.6552e+08,2961.6,0,3.6552e+08,3161.8,12983,12171,1,12171,1,0.00099714,-9.8496e-10,0,0.00099714,-0.00018542,2.5441e+08,-192.76,0,2.5441e+08,655.53,12170,11369,1,11369,1,0.00016457,-2.3152e-08,0,0.00016457,-0.00034085,5.4223e+07,-4758,0,5.4223e+07,-2.726,11368,11756,1,11756,1,0.00052142,-5.1506e-09,0,0.00052142,-0.00027412,1.5683e+08,-1059.9,0,1.5683e+08,225.06,11755,12533,1,12533,1,0.0014728,2.55e-09,0,0.0014728,-9.6722e-05,3.1637e+08,629.37,0,3.1637e+08,1088.9,12532,446.74,0,446.74,0,0.00051415,6.5106e-09,0,0.00051415,9.5922e-05,9.2776e+07,1373.7,0,9.2776e+07,680.11,446.74,1
825,5.6,12164,1,12164,1,0.0010004,-2.5451e-09,0,0.0010004,-0.00018603,2.3578e+08,-508.66,0,2.3578e+08,795.73,12163,12984,1,12984,1,0.0018348,1.5906e-08,0,0.0018348,-3.0293e-05,3.6519e+08,3338.7,0,3.6519e+08,3279.3,12983,12171,1,12171,1,0.0010004,-1.5949e-09,0,0.0010004,-0.00018602,2.5462e+08,-329.73,0,2.5462e+08,656.58,12170,11369,1,11369,1,0.00016601,-2.4751e-08,0,0.00016601,-0.00034179,5.4639e+07,-5083.6,0,5.4639e+07,-22.556,11368,11756,1,11756,1,0.00052365,-6.4721e-09,0,0.00052365,-0.00027491,1.5725e+08,-1341.6,0,1.5725e+08,207.99,11755,12533,1,12533,1,0.0014771,1.5509e-09,0,0.0014771,-9.7132e-05,3.1625e+08,396.08,0,3.1625e+08,1114.7,12532,446.74,0,446.74,0,0.00051528,7.1035e-09,0,0.00051528,9.6131e-05,9.2531e+07,1489.5,0,9.2531e+07,715.85,446.74,1
825,5.61,12164,1,12164,1,0.0010037,1.5324e-09,0,0.0010037,-0.00018663,2.3592e+08,438.51,0,2.3592e+08,889.86,12163,12984,1,12984,1,0.0018399,1.9595e-08,0,0.0018399,-3.0558e-05,3.6486e+08,4178.7,0,3.6486e+08,3603,12983,12171,1,12171,1,0.0010037,2.6622e-09,0,0.0010037,-0.00018663,2.5484e+08,568.75,0,2.5484e+08,770.42,12170,11369,1,11369,1,0.00016746,-2.4597e-08,0,0.00016746,-0.00034275,5.5055e+07,-4994.6,0,5.5055e+07,-56.74,11368,11756,1,11756,1,0.00052589,-2.7197e-09,0,0.00052589,-0.00027571,1.5767e+08,-515.54,0,1.5767e+08,246.72,11755,12533,1,12533,1,0.0014815,7.2557e-09,0,0.0014815,-9.7545e-05,3.1613e+08,1828.7,0,3.1613e+08,1262.1,12532,446.74,0,446.74,0,0.00051642,7.9691e-09,0,0.00051642,9.6341e-05,9.2287e+07,1724.5,0,9.2287e+07,755.22,446.74,1
825,5.62,12164,1,12164,1,0.001007,-6.2638e-09,0,0.001007,-0.00018724,2.3607e+08,-1361,0,2.3607e+08,870,12163,12984,1,12984,1,0.0018451,1.7341e-08,0,0.0018451,-3.0826e-05,3.6454e+08,3609.8,0,3.6454e+08,3587.9,12983,12171,1,12171,1,0.001007,-5.9713e-09,0,0.001007,-0.00018724,2.5505e+08,-1400,0,2.5505e+08,681.51,12170,11369,1,11369,1,0.00016892,-3.0265e-08,0,0.00016892,-0.00034369,5.5473e+07,-6269.6,0,5.5473e+07,-80.053,11368,11756,1,11756,1,0.00052814,-1.2083e-08,0,0.00052814,-0.00027652,1.5809e+08,-2660.4,0,1.5809e+08,217.43,11755,12533,1,12533,1,0.0014859,-3.8921e-10,0,0.0014859,-9.7959e-05,3.16e+08,-68.655,0,3.16e+08,1220.9,12532,446.74,0,446.74,0,0.00051757,8.9403e-09,0,0.00051757,9.6552e-05,9.2039e+07,1895.7,0,9.2039e+07,801.44,446.74,1
825,5.63,12164,1,12164,1,0.0010104,-1.3315e-09,0,0.0010104,-0.00018786,2.3621e+08,-241.09,0,2.3621e+08,902.33,12163,12984,1,12984,1,0.0018503,1.7343e-08,0,0.0018503,-3.1098e-05,3.642e+08,3566.7,0,3.642e+08,3977.3,12983,12171,1,12171,1,0.0010104,8.7799e-11,0,0.0010104,-0.00018785,2.5527e+08,14.894,0,2.5527e+08,752.01,12170,11369,1,11369,1,0.0001704,-2.747e-08,0,0.0001704,-0.00034466,5.5897e+07,-5589.9,0,5.5897e+07,-87.504,11368,11756,1,11756,1,0.00053042,-4.5177e-09,0,0.00053042,-0.00027733,1.5852e+08,-943.3,0,1.5852e+08,242.23,11755,12533,1,12533,1,0.0014903,2.5518e-09,0,0.0014903,-9.8378e-05,3.1588e+08,647.26,0,3.1588e+08,1274.4,12532,446.74,0,446.74,0,0.00051872,7.5287e-09,0,0.00051872,9.6765e-05,9.1791e+07,1560.3,0,9.1791e+07,820.35,446.74,1
825,5.64,12164,1,12164,1,0.0010137,9.5645e-10,0,0.0010137,-0.00018848,2.3635e+08,296.77,0,2.3635e+08,1041.3,12163,12984,1,12984,1,0.0018555,2.2181e-08,0,0.0018555,-3.137e-05,3.6385e+08,4629.9,0,3.6385e+08,4218.6,12983,12171,1,12171,1,0.0010137,2.4421e-09,0,0.0010137,-0.00018847,2.5548e+08,508.92,0,2.5548e+08,912.24,12170,11369,1,11369,1,0.00017188,-2.8563e-08,0,0.00017188,-0.00034562,5.6321e+07,-5760.6,0,5.6321e+07,-36.903,11368,11756,1,11756,1,0.00053271,-3.4278e-09,0,0.00053271,-0.00027814,1.5895e+08,-636.96,0,1.5895e+08,301.15,11755,12533,1,12533,1,0.0014947,6.3671e-09,0,0.0014947,-9.88e-05,3.1574e+08,1611.2,0,3.1574e+08,1470.4,12532,446.74,0,446.74,0,0.00051987,8.7936e-09,0,0.00051987,9.6978e-05,9.1536e+07,1853.2,0,9.1536e+07,878.12,446.74,1
825,5.65,12164,1,12164,1,0.0010171,-3.0122e-09,0,0.0010171,-0.0001891,2.3649e+08,-606.46,0,2.3649e+08,1028.8,12163,12984,1,12984,1,0.0018608,2.1727e-08,0,0.0018608,-3.1646e-05,3.635e+08,4472.6,0,3.635e+08,4201,12983,12171,1,12171,1,0.0010171,-1.8435e-09,0,0.0010171,-0.00018909,2.5568e+08,-385.03,0,2.5568e+08,863.17,12170,11369,1,11369,1,0.00017338,-3.1618e-08,0,0.00017338,-0.00034659,5.6749e+07,-6400,0,5.6749e+07,-61.685,11368,11756,1,11756,1,0.00053502,-8.0094e-09,0,0.00053502,-0.00027896,1.5937e+08,-1655.4,0,1.5937e+08,263.04,11755,12533,1,12533,1,0.0014992,1.7034e-09,0,0.0014992,-9.9224e-05,3.156e+08,395.48,0,3.156e+08,1457.8,12532,446.74,0,446.74,0,0.00052103,9.2752e-09,0,0.00052103,9.7191e-05,9.1279e+07,1913.5,0,9.1279e+07,918.31,446.74,1
825,5.66,12164,1,12164,1,0.0010205,2.4199e-09,0,0.0010205,-0.00018972,2.3662e+08,654.84,0,2.3662e+08,1206.3,12163,12984,1,12984,1,0.0018661,2.7298e-08,0,0.0018661,-3.1922e-05,3.6313e+08,5758.7,0,3.6313e+08,4600.5,12983,12171,1,12171,1,0.0010205,3.616e-09,0,0.0010205,-0.00018972,2.5589e+08,759.9,0,2.5589e+08,1040.6,12170,11369,1,11369,1,0.00017489,-2.9214e-08,0,0.00017489,-0.00034756,5.7177e+07,-5755.9,0,5.7177e+07,-156.74,11368,11756,1,11756,1,0.00053734,-3.3917e-09,0,0.00053734,-0.00027978,1.598e+08,-636.48,0,1.598e+08,352.31,11755,12533,1,12533,1,0.0015036,8.5851e-09,0,0.0015036,-9.965e-05,3.1545e+08,2224.1,0,3.1545e+08,1727.8,12532,446.74,0,446.74,0,0.00052219,9.9621e-09,0,0.00052219,9.7405e-05,9.1019e+07,2108.3,0,9.1019e+07,1009.8,446.74,1
825,5.67,12164,1,12164,1,0.0010239,2.2395e-09,0,0.0010239,-0.00019035,2.3675e+08,662.76,0,2.3675e+08,1243.4,12163,12984,1,12984,1,0.0018713,2.9559e-08,0,0.0018713,-3.22e-05,3.6276e+08,6347.2,0,3.6276e+08,4685,12983,12171,1,12171,1,0.0010239,3.3042e-09,0,0.0010239,-0.00019034,2.5608e+08,669.6,0,2.5608e+08,1091,12170,11369,1,11369,1,0.0001764,-3.587e-08,0,0.0001764,-0.00034854,5.7606e+07,-7112.9,0,5.7606e+07,-205.56,11368,11756,1,11756,1,0.00053966,-4.997e-09,0,0.00053966,-0.0002806,1.6023e+08,-940.68,0,1.6023e+08,341.53,11755,12533,1,12533,1,0.001508,1.1695e-08,0,0.001508,-0.00010008,3.1529e+08,2805.8,0,3.1529e+08,1802.7,12532,446.74,0,446.74,0,0.00052334,1.2332e-08,0,0.00052334,9.7617e-05,9.0755e+07,2644.4,0,9.0755e+07,1040.5,446.74,1
825,5.68,12164,1,12164,1,0.0010273,-3.1355e-09,0,0.0010273,-0.00019097,2.3688e+08,-527.59,0,2.3688e+08,1296.1,12163,12984,1,12984,1,0.0018766,2.7069e-08,0,0.0018766,-3.2478e-05,3.6239e+08,5807.9,0,3.6239e+08,4821.2,12983,12171,1,12171,1,0.0010273,-2.5174e-09,0,0.0010273,-0.00019097,2.5628e+08,-466.39,0,2.5628e+08,1073.8,12170,11369,1,11369,1,0.00017792,-4.2588e-08,0,0.00017792,-0.00034951,5.8034e+07,-8546,0,5.8034e+07,-101.28,11368,11756,1,11756,1,0.000542,-1.0819e-08,0,0.000542,-0.00028142,1.6065e+08,-2198.5,0,1.6065e+08,339.49,11755,12533,1,12533,1,0.0015125,6.4017e-09,0,0.0015125,-0.00010051,3.1514e+08,1452,0,3.1514e+08,1877.9,12532,446.74,0,446.74,0,0.0005245,1.3265e-08,0,0.0005245,9.7831e-05,9.0492e+07,2794.3,0,9.0492e+07,1103.8,446.74,1
825,5.69,12164,1,12164,1,0.0010307,-6.8435e-09,0,0.0010307,-0.0001916,2.3701e+08,-1363.6,0,2.3701e+08,1230.7,12163,12984,1,12984,1,0.0018819,2.4986e-08,0,0.0018819,-3.276e-05,3.6202e+08,5360.2,0,3.6202e+08,5017.7,12983,12171,1,12171,1,0.0010307,-5.1966e-09,0,0.0010307,-0.0001916,2.5648e+08,-1077.2,0,2.5648e+08,994.46,12170,11369,1,11369,1,0.00017946,-4.7212e-08,0,0.00017946,-0.00035049,5.847e+07,-9583.9,0,5.847e+07,-88.621,11368,11756,1,11756,1,0.00054434,-1.5031e-08,0,0.00054434,-0.00028225,1.6108e+08,-3063.6,0,1.6108e+08,279.09,11755,12533,1,12533,1,0.001517,2.1995e-09,0,0.001517,-0.00010094,3.1498e+08,459.33,0,3.1498e+08,1771.3,12532,446.74,0,446.74,0,0.00052566,1.3697e-08,0,0.00052566,9.8046e-05,9.0227e+07,2874.2,0,9.0227e+07,1113.3,446.74,1
825,5.7,12164,1,12164,1,0.0010341,-3.8874e-09,0,0.0010341,-0.00019224,2.3714e+08,-715.31,0,2.3714e+08,1245.3,12163,12984,1,12984,1,0.0018873,2.5714e-08,0,0.0018873,-3.3047e-05,3.6164e+08,5473.6,0,3.6164e+08,5253.1,12983,12171,1,12171,1,0.0010342,-2.6594e-09,0,0.0010342,-0.00019223,2.5668e+08,-525.08,0,2.5668e+08,1005.6,12170,11369,1,11369,1,0.00018102,-4.1509e-08,0,0.00018102,-0.00035148,5.8909e+07,-8256.9,0,5.8909e+07,-76.101,11368,11756,1,11756,1,0.00054672,-1.0519e-08,0,0.00054672,-0.00028309,1.6151e+08,-2108.2,0,1.6151e+08,303.72,11755,12533,1,12533,1,0.0015216,3.5303e-09,0,0.0015216,-0.00010138,3.1482e+08,829.26,0,3.1482e+08,1759.8,12532,446.74,0,446.74,0,0.00052684,1.1999e-08,0,0.00052684,9.8263e-05,8.996e+07,2481.4,0,8.996e+07,1149.8,446.74,1
825,5.71,12164,1,12164,1,0.0010376,-2.4303e-10,0,0.0010376,-0.00019288,2.3727e+08,126.52,0,2.3727e+08,1428.9,12163,12984,1,12984,1,0.0018927,3.2869e-08,0,0.0018927,-3.3335e-05,3.6124e+08,6967,0,3.6124e+08,5711,12983,12171,1,12171,1,0.0010377,3.4379e-10,0,0.0010377,-0.00019288,2.5687e+08,76.88,0,2.5687e+08,1172.1,12170,11369,1,11369,1,0.00018259,-4.3301e-08,0,0.00018259,-0.00035248,5.9352e+07,-8522.3,0,5.9352e+07,-185.11,11368,11756,1,11756,1,0.00054912,-7.6666e-09,0,0.00054912,-0.00028393,1.6195e+08,-1497.8,0,1.6195e+08,372.13,11755,12533,1,12533,1,0.0015261,9.1913e-09,0,0.0015261,-0.00010182,3.1465e+08,2183,0,3.1465e+08,2056.4,12532,446.74,0,446.74,0,0.00052802,1.3706e-08,0,0.00052802,9.8481e-05,8.9686e+07,2866.1,0,8.9686e+07,1269.2,446.74,1
825,5.72,12164,1,12164,1,0.0010412,-6.7517e-09,0,0.0010412,-0.00019354,2.374e+08,-1322.6,0,2.374e+08,1460.9,12163,12984,1,12984,1,0.0018982,2.3384e-08,0,0.0018982,-3.3627e-05,3.6086e+08,4726.5,0,3.6086e+08,5827.4,12983,12171,1,12171,1,0.0010412,-4.4784e-09,0,0.0010412,-0.00019353,2.5708e+08,-896.21,0,2.5708e+08,1230,12170,11369,1,11369,1,0.00018418,-4.8744e-08,0,0.00018418,-0.00035349,5.9798e+07,-9617.1,0,5.9798e+07,-67.175,11368,11756,1,11756,1,0.00055156,-1.345e-08,0,0.00055156,-0.00028479,1.6238e+08,-2701.7,0,1.6238e+08,390.05,11755,12533,1,12533,1,0.0015308,1.6223e-09,0,0.0015308,-0.00010227,3.1448e+08,399.48,0,3.1448e+08,2075.4,12532,446.74,0,446.74,0,0.00052923,1.2692e-08,0,0.00052923,9.8704e-05,8.9413e+07,2551.6,0,8.9413e+07,1287.5,446.74,1
825,5.73,12164,1,12164,1,0.0010447,-6.6784e-09,0,0.0010447,-0.00019419,2.3751e+08,-1315.4,0,2.3751e+08,1604.8,12163,12984,1,12984,1,0.0019037,2.9856e-08,0,0.0019037,-3.3924e-05,3.6044e+08,6086.4,0,3.6044e+08,6316.6,12983,12171,1,12171,1,0.0010448,-4.2858e-09,0,0.0010448,-0.00019418,2.5726e+08,-843.24,0,2.5726e+08,1353.7,12170,11369,1,11369,1,0.0001858,-5.4396e-08,0,0.0001858,-0.0003545,6.0252e+07,-10805,0,6.0252e+07,-205.27,11368,11756,1,11756,1,0.00055401,-1.5262e-08,0,0.00055401,-0.00028565,1.6282e+08,-3088.1,0,1.6282e+08,418.03,11755,12533,1,12533,1,0.0015355,2.8234e-09,0,0.0015355,-0.00010272,3.1429e+08,655.9,0,3.1429e+08,2308.1,12532,446.74,0,446.74,0,0.00053042,1.5412e-08,0,0.00053042,9.8924e-05,8.9127e+07,3137.6,0,8.9127e+07,1399.8,446.74,1
825,5.74,12164,1,12164,1,0.0010483,-5.9411e-09,0,0.0010483,-0.00019485,2.3763e+08,-1165.3,0,2.3763e+08,1761.8,12163,12984,1,12984,1,0.0019092,3.4309e-08,0,0.0019092,-3.4223e-05,3.6003e+08,6901.4,0,3.6003e+08,6791.8,12983,12171,1,12171,1,0.0010484,-3.7225e-09,0,0.0010484,-0.00019484,2.5745e+08,-724.99,0,2.5745e+08,1468.6,12170,11369,1,11369,1,0.00018743,-5.5745e-08,0,0.00018743,-0.00035552,6.0708e+07,-11024,0,6.0708e+07,-44.483,11368,11756,1,11756,1,0.00055647,-1.4375e-08,0,0.00055647,-0.00028652,1.6326e+08,-2904.7,0,1.6326e+08,477.28,11755,12533,1,12533,1,0.0015402,2.8269e-09,0,0.0015402,-0.00010317,3.1411e+08,688.06,0,3.1411e+08,2525.3,12532,446.74,0,446.74,0,0.00053163,1.5908e-08,0,0.00053163,9.9147e-05,8.8843e+07,3213.8,0,8.8843e+07,1513.7,446.74,1
825,5.75,12164,1,12164,1,0.0010519,-4.0198e-09,0,0.0010519,-0.00019551,2.3775e+08,-722.83,0,2.3775e+08,1827.8,12163,12984,1,12984,1,0.0019148,3.8246e-08,0,0.0019148,-3.4525e-05,3.5959e+08,7726.5,0,3.5959e+08,7114.1,12983,12171,1,12171,1,0.001052,-2.2146e-09,0,0.001052,-0.0001955,2.5763e+08,-410.68,0,2.5763e+08,1549,12170,11369,1,11369,1,0.00018908,-5.7074e-08,0,0.00018908,-0.00035654,6.1167e+07,-11178,0,6.1167e+07,-132.63,11368,11756,1,11756,1,0.00055896,-1.2778e-08,0,0.00055896,-0.00028738,1.637e+08,-2516.5,0,1.637e+08,480.33,11755,12533,1,12533,1,0.0015449,4.9094e-09,0,0.0015449,-0.00010363,3.1391e+08,1254.4,0,3.1391e+08,2629.1,12532,446.74,0,446.74,0,0.00053283,1.6675e-08,0,0.00053283,9.9368e-05,8.8552e+07,3361.7,0,8.8552e+07,1580.7,446.74,1
825,5.76,12164,1,12164,1,0.0010556,-4.3353e-09,0,0.0010556,-0.00019618,2.3787e+08,-788.72,0,2.3787e+08,1903.6,12163,12984,1,12984,1,0.0019204,3.8261e-08,0,0.0019204,-3.4828e-05,3.5917e+08,7619.5,0,3.5917e+08,7383.9,12983,12171,1,12171,1,0.0010556,-1.8391e-09,0,0.0010556,-0.00019617,2.5782e+08,-356.65,0,2.5782e+08,1645,12170,11369,1,11369,1,0.00019073,-5.8724e-08,0,0.00019073,-0.00035758,6.1627e+07,-11424,0,6.1627e+07,-103.53,11368,11756,1,11756,1,0.00056147,-1.2745e-08,0,0.00056147,-0.00028826,1.6414e+08,-2588.9,0,1.6414e+08,518.51,11755,12533,1,12533,1,0.0015497,4.6571e-09,0,0.0015497,-0.00010409,3.1371e+08,1181.4,0,3.1371e+08,2738.9,12532,446.74,0,446.74,0,0.00053405,1.6754e-08,0,0.00053405,9.9594e-05,8.8263e+07,3340,0,8.8263e+07,1630,446.74,1
825,5.77,12164,1,12164,1,0.0010592,-2.0498e-09,0,0.0010592,-0.00019685,2.3798e+08,-258.71,0,2.3798e+08,2091.1,12163,12984,1,12984,1,0.001926,4.5337e-08,0,0.001926,-3.5135e-05,3.5872e+08,9112.1,0,3.5872e+08,7835.5,12983,12171,1,12171,1,0.0010592,9.6085e-11,0,0.0010592,-0.00019684,2.58e+08,16.232,0,2.58e+08,1829.4,12170,11369,1,11369,1,0.00019241,-6.215e-08,0,0.00019241,-0.00035862,6.2091e+07,-12001,0,6.2091e+07,-116.73,11368,11756,1,11756,1,0.000564,-1.194e-08,0,0.000564,-0.00028914,1.6459e+08,-2352.2,0,1.6459e+08,587.42,11755,12533,1,12533,1,0.0015544,8.3263e-09,0,0.0015544,-0.00010455,3.135e+08,2167,0,3.135e+08,3026.6,12532,446.74,0,446.74,0,0.00053527,1.8956e-08,0,0.00053527,9.9818e-05,8.7966e+07,3801.8,0,8.7966e+07,1749.3,446.74,1
825,5.78,12164,1,12164,1,0.0010629,-4.6325e-09,0,0.0010629,-0.00019753,2.3809e+08,-800.69,0,2.3809e+08,2236.4,12163,12984,1,12984,1,0.0019317,4.5443e-08,0,0.0019317,-3.5443e-05,3.5828e+08,9076.6,0,3.5828e+08,8269.6,12983,12171,1,12171,1,0.0010629,-2.0066e-09,0,0.0010629,-0.00019752,2.5818e+08,-352.79,0,2.5818e+08,1981.6,12170,11369,1,11369,1,0.00019409,-6.9817e-08,0,0.00019409,-0.00035967,6.2557e+07,-13503,0,6.2557e+07,-89.651,11368,11756,1,11756,1,0.00056655,-1.5503e-08,0,0.00056655,-0.00029002,1.6503e+08,-3033.8,0,1.6503e+08,631.04,11755,12533,1,12533,1,0.0015592,6.9239e-09,0,0.0015592,-0.00010502,3.1329e+08,1793.2,0,3.1329e+08,3229.2,12532,446.74,0,446.74,0,0.0005365,2.0579e-08,0,0.0005365,0.00010004,8.7669e+07,4105.7,0,8.7669e+07,1849.6,446.74,1
825,5.79,12164,1,12164,1,0.0010666,-6.481e-09,0,0.0010666,-0.00019821,2.3819e+08,-1187.7,0,2.3819e+08,2374.1,12163,12984,1,12984,1,0.0019374,4.7581e-08,0,0.0019374,-3.5755e-05,3.5781e+08,9460.8,0,3.5781e+08,8687.4,12983,12171,1,12171,1,0.0010666,-3.342e-09,0,0.0010666,-0.0001982,2.5835e+08,-626.63,0,2.5835e+08,2116.8,12170,11369,1,11369,1,0.0001958,-7.6256e-08,0,0.0001958,-0.00036071,6.3027e+07,-14738,0,6.3027e+07,-84.323,11368,11756,1,11756,1,0.00056911,-1.8538e-08,0,0.00056911,-0.00029091,1.6548e+08,-3596.1,0,1.6548e+08,681.1,11755,12533,1,12533,1,0.0015641,5.5741e-09,0,0.0015641,-0.00010549,3.1307e+08,1453.5,0,3.1307e+08,3424,12532,446.74,0,446.74,0,0.00053772,2.2107e-08,0,0.00053772,0.00010027,8.7364e+07,4389.6,0,8.7364e+07,1944.2,446.74,1
825,5.8,12164,1,12164,1,0.0010703,-8.9106e-09,0,0.0010703,-0.00019889,2.383e+08,-1737.8,0,2.383e+08,2412.7,12163,12984,1,12984,1,0.0019431,4.9905e-08,0,0.0019431,-3.6071e-05,3.5736e+08,9796.1,0,3.5736e+08,8974,12983,12171,1,12171,1,0.0010704,-5.1864e-09,0,0.0010704,-0.00019889,2.5853e+08,-1069.3,0,2.5853e+08,2138.8,12170,11369,1,11369,1,0.00019752,-8.0476e-08,0,0.00019752,-0.00036177,6.3501e+07,-15542,0,6.3501e+07,-47.264,11368,11756,1,11756,1,0.0005717,-2.1421e-08,0,0.0005717,-0.00029181,1.6592e+08,-4289.6,0,1.6592e+08,645.04,11755,12533,1,12533,1,0.0015689,3.4467e-09,0,0.0015689,-0.00010597,3.1284e+08,724.99,0,3.1284e+08,3497.4,12532,446.74,0,446.74,0,0.00053896,2.3249e-08,0,0.00053896,0.0001005,8.706e+07,4586.5,0,8.706e+07,2033.4,446.74,1
825,5.81,12164,1,12164,1,0.0010741,-5.1183e-09,0,0.0010741,-0.00019959,2.384e+08,-890.56,0,2.384e+08,2629,12163,12984,1,12984,1,0.0019489,5.5851e-08,0,0.0019489,-3.6389e-05,3.5688e+08,11009,0,3.5688e+08,9648.2,12983,12171,1,12171,1,0.0010741,-1.7906e-09,0,0.0010741,-0.00019958,2.587e+08,-358.67,0,2.587e+08,2368.1,12170,11369,1,11369,1,0.00019926,-8.104e-08,0,0.00019926,-0.00036283,6.3979e+07,-15484,0,6.3979e+07,-150.41,11368,11756,1,11756,1,0.00057431,-1.7895e-08,0,0.00057431,-0.00029271,1.6637e+08,-3468.7,0,1.6637e+08,726.42,11755,12533,1,12533,1,0.0015739,7.0895e-09,0,0.0015739,-0.00010645,3.1262e+08,1751.3,0,3.1262e+08,3785.3,12532,446.74,0,446.74,0,0.0005402,2.4167e-08,0,0.0005402,0.00010073,8.6753e+07,4756.8,0,8.6753e+07,2159.2,446.74,1
825,5.82,12164,1,12164,1,0.0010779,-1.0318e-08,0,0.0010779,-0.00020029,2.3851e+08,-2032.5,0,2.3851e+08,2834.1,12163,12984,1,12984,1,0.0019547,5.7996e-08,0,0.0019547,-3.6712e-05,3.5642e+08,11222,0,3.5642e+08,10209,12983,12171,1,12171,1,0.0010779,-6.1e-09,0,0.0010779,-0.00020028,2.5888e+08,-1221.5,0,2.5888e+08,2537.2,12170,11369,1,11369,1,0.00020102,-9.2284e-08,0,0.00020102,-0.00036391,6.4462e+07,-17709,0,6.4462e+07,-35.32,11368,11756,1,11756,1,0.00057695,-2.4705e-08,0,0.00057695,-0.00029363,1.6683e+08,-4902.3,0,1.6683e+08,789.12,11755,12533,1,12533,1,0.0015788,3.6878e-09,0,0.0015788,-0.00010693,3.1238e+08,768.72,0,3.1238e+08,4112.6,12532,446.74,0,446.74,0,0.00054146,2.6734e-08,0,0.00054146,0.00010096,8.6441e+07,5231.5,0,8.6441e+07,2331.8,446.74,1
825,5.83,12164,1,12164,1,0.0010817,-6.4934e-09,0,0.0010817,-0.00020098,2.386e+08,-1217.2,0,2.386e+08,3107.5,12163,12984,1,12984,1,0.0019605,7.0443e-08,0,0.0019605,-3.7037e-05,3.559e+08,13739,0,3.559e+08,11091,12983,12171,1,12171,1,0.0010817,-2.585e-09,0,0.0010817,-0.00020097,2.5903e+08,-499.67,0,2.5903e+08,2829.7,12170,11369,1,11369,1,0.0002028,-9.8612e-08,0,0.0002028,-0.00036498,6.4949e+07,-18947,0,6.4949e+07,-85.081,11368,11756,1,11756,1,0.0005796,-2.2527e-08,0,0.0005796,-0.00029454,1.6727e+08,-4439.4,0,1.6727e+08,890.33,11755,12533,1,12533,1,0.0015838,9.7976e-09,0,0.0015838,-0.00010742,3.1213e+08,1980.3,0,3.1213e+08,4487.8,12532,446.74,0,446.74,0,0.0005427,3.0304e-08,0,0.0005427,0.00010119,8.6119e+07,5954.5,0,8.6119e+07,2495.5,446.74,1
825,5.84,12164,1,12164,1,0.0010855,-3.1658e-09,0,0.0010855,-0.00020169,2.387e+08,-470.62,0,2.387e+08,3205.8,12163,12984,1,12984,1,0.0019665,7.5728e-08,0,0.0019665,-3.7365e-05,3.5542e+08,14775,0,3.5542e+08,11526,12983,12171,1,12171,1,0.0010856,4.0082e-10,0,0.0010856,-0.00020168,2.592e+08,79.018,0,2.592e+08,2917.5,12170,11369,1,11369,1,0.00020459,-9.7569e-08,0,0.00020459,-0.00036607,6.5436e+07,-18510,0,6.5436e+07,-178.01,11368,11756,1,11756,1,0.00058228,-1.9285e-08,0,0.00058228,-0.00029546,1.6773e+08,-3736.7,0,1.6773e+08,918.6,11755,12533,1,12533,1,0.0015888,1.3439e-08,0,0.0015888,-0.00010791,3.1189e+08,2806.4,0,3.1189e+08,4638.6,12532,446.74,0,446.74,0,0.00054397,3.0885e-08,0,0.00054397,0.00010142,8.5803e+07,6045.7,0,8.5803e+07,2599.8,446.74,1
825,5.85,12164,1,12164,1,0.0010894,-5.5259e-09,0,0.0010894,-0.00020241,2.3879e+08,-943.18,0,2.3879e+08,3392.9,12163,12984,1,12984,1,0.0019724,7.7453e-08,0,0.0019724,-3.7696e-05,3.5491e+08,15083,0,3.5491e+08,12185,12983,12171,1,12171,1,0.0010895,-1.3552e-09,0,0.0010895,-0.0002024,2.5936e+08,-267.49,0,2.5936e+08,3080.9,12170,11369,1,11369,1,0.0002064,-1.0683e-07,0,0.0002064,-0.00036717,6.5928e+07,-20221,0,6.5928e+07,-165.19,11368,11756,1,11756,1,0.00058499,-2.3297e-08,0,0.00058499,-0.00029639,1.6819e+08,-4489.3,0,1.6819e+08,947.06,11755,12533,1,12533,1,0.0015939,1.2169e-08,0,0.0015939,-0.00010841,3.1163e+08,2542,0,3.1163e+08,4947.4,12532,446.74,0,446.74,0,0.00054525,3.2993e-08,0,0.00054525,0.00010166,8.5478e+07,6438,0,8.5478e+07,2726.1,446.74,1
825,5.86,12164,1,12164,1,0.0010933,-4.712e-09,0,0.0010933,-0.00020313,2.3888e+08,-725.35,0,2.3888e+08,3672.2,12163,12984,1,12984,1,0.0019784,8.3682e-08,0,0.0019784,-3.8029e-05,3.544e+08,16284,0,3.544e+08,13037,12983,12171,1,12171,1,0.0010934,-6.1926e-10,0,0.0010934,-0.00020312,2.5952e+08,-98.692,0,2.5952e+08,3350.8,12170,11369,1,11369,1,0.00020823,-1.138e-07,0,0.00020823,-0.00036828,6.6424e+07,-21445,0,6.6424e+07,-137.26,11368,11756,1,11756,1,0.00058773,-2.3392e-08,0,0.00058773,-0.00029733,1.6865e+08,-4528.2,0,1.6865e+08,1073.8,11755,12533,1,12533,1,0.001599,1.4405e-08,0,0.001599,-0.00010891,3.1137e+08,3086.4,0,3.1137e+08,5348.4,12532,446.74,0,446.74,0,0.00054653,3.5482e-08,0,0.00054653,0.0001019,8.515e+07,6915.5,0,8.515e+07,2934.6,446.74,1
825,5.87,12164,1,12164,1,0.0010973,-1.001e-08,0,0.0010973,-0.00020386,2.3898e+08,-1844.3,0,2.3898e+08,3780.6,12163,12984,1,12984,1,0.0019845,8.212e-08,0,0.0019845,-3.8369e-05,3.5389e+08,15766,0,3.5389e+08,13625,12983,12171,1,12171,1,0.0010974,-4.3776e-09,0,0.0010974,-0.00020385,2.5969e+08,-845.82,0,2.5969e+08,3392.4,12170,11369,1,11369,1,0.00021008,-1.2584e-07,0,0.00021008,-0.0003694,6.6926e+07,-23721,0,6.6926e+07,-160.14,11368,11756,1,11756,1,0.00059051,-3.0139e-08,0,0.00059051,-0.00029828,1.6911e+08,-5912.9,0,1.6911e+08,1025.2,11755,12533,1,12533,1,0.0016041,1.0087e-08,0,0.0016041,-0.00010942,3.111e+08,2110.3,0,3.111e+08,5509.3,12532,446.74,0,446.74,0,0.00054783,3.771e-08,0,0.00054783,0.00010214,8.4818e+07,7296.8,0,8.4818e+07,3085.3,446.74,1
825,5.88,12164,1,12164,1,0.0011013,-9.2095e-09,0,0.0011013,-0.00020459,2.3906e+08,-1650.1,0,2.3906e+08,4038.5,12163,12984,1,12984,1,0.0019906,9.1413e-08,0,0.0019906,-3.8713e-05,3.5334e+08,17554,0,3.5334e+08,14478,12983,12171,1,12171,1,0.0011014,-4.1268e-09,0,0.0011014,-0.00020458,2.5983e+08,-772.41,0,2.5983e+08,3681.5,12170,11369,1,11369,1,0.00021197,-1.3324e-07,0,0.00021197,-0.00037052,6.7434e+07,-25021,0,6.7434e+07,-149.08,11368,11756,1,11756,1,0.0005933,-3.131e-08,0,0.0005933,-0.00029924,1.6957e+08,-6115.9,0,1.6957e+08,1134.6,11755,12533,1,12533,1,0.0016093,1.2481e-08,0,0.0016093,-0.00010994,3.1081e+08,2811,0,3.1081e+08,5880.7,12532,446.74,0,446.74,0,0.00054913,4.0906e-08,0,0.00054913,0.00010238,8.4477e+07,7909.5,0,8.4477e+07,3270.3,446.74,1
825,5.89,12164,1,12164,1,0.0011054,-1.1063e-08,0,0.0011054,-0.00020533,2.3915e+08,-2029.8,0,2.3915e+08,4309.3,12163,12984,1,12984,1,0.0019968,9.5852e-08,0,0.0019968,-3.906e-05,3.5281e+08,18265,0,3.5281e+08,15145,12983,12171,1,12171,1,0.0011054,-5.1669e-09,0,0.0011054,-0.00020533,2.5999e+08,-991.43,0,2.5999e+08,3927,12170,11369,1,11369,1,0.00021387,-1.4057e-07,0,0.00021387,-0.00037166,6.7945e+07,-26268,0,6.7945e+07,-122.36,11368,11756,1,11756,1,0.00059613,-3.3608e-08,0,0.00059613,-0.0003002,1.7004e+08,-6596.8,0,1.7004e+08,1216.2,11755,12533,1,12533,1,0.0016146,1.1432e-08,0,0.0016146,-0.00011046,3.1054e+08,2271,0,3.1054e+08,6247.1,12532,446.74,0,446.74,0,0.00055044,4.2564e-08,0,0.00055044,0.00010262,8.4137e+07,8168.4,0,8.4137e+07,3485.1,446.74,1
825,5.9,12164,1,12164,1,0.0011095,-9.8428e-09,0,0.0011095,-0.00020609,2.3923e+08,-1732.2,0,2.3923e+08,4681.2,12163,12984,1,12984,1,0.0020031,1.0291e-07,0,0.0020031,-3.9412e-05,3.5226e+08,19556,0,3.5226e+08,16393,12983,12171,1,12171,1,0.0011095,-3.9652e-09,0,0.0011095,-0.00020608,2.6014e+08,-707.37,0,2.6014e+08,4279,12170,11369,1,11369,1,0.0002158,-1.5022e-07,0,0.0002158,-0.00037282,6.8463e+07,-27935,0,6.8463e+07,-211.07,11368,11756,1,11756,1,0.00059901,-3.4373e-08,0,0.00059901,-0.00030118,1.7051e+08,-6704,0,1.7051e+08,1399.1,11755,12533,1,12533,1,0.0016199,1.4699e-08,0,0.0016199,-0.00011098,3.1025e+08,3108.9,0,3.1025e+08,6791.7,12532,446.74,0,446.74,0,0.00055178,4.6009e-08,0,0.00055178,0.00010286,8.3791e+07,8806.7,0,8.3791e+07,3728.5,446.74,1
825,5.91,12164,1,12164,1,0.0011136,-1.2633e-08,0,0.0011136,-0.00020684,2.3931e+08,-2295.2,0,2.3931e+08,4958.6,12163,12984,1,12984,1,0.0020094,1.1108e-07,0,0.0020094,-3.9769e-05,3.5169e+08,21025,0,3.5169e+08,17335,12983,12171,1,12171,1,0.0011136,-5.6428e-09,0,0.0011136,-0.00020684,2.6029e+08,-1065,0,2.6029e+08,4507.6,12170,11369,1,11369,1,0.00021775,-1.6449e-07,0,0.00021775,-0.00037398,6.8986e+07,-30514,0,6.8986e+07,-246.08,11368,11756,1,11756,1,0.00060191,-3.9317e-08,0,0.00060191,-0.00030217,1.7098e+08,-7617.1,0,1.7098e+08,1351.6,11755,12533,1,12533,1,0.0016253,1.3615e-08,0,0.0016253,-0.00011152,3.0994e+08,2690.3,0,3.0994e+08,7198.4,12532,446.74,0,446.74,0,0.00055311,4.9832e-08,0,0.00055311,0.00010311,8.3434e+07,9498.6,0,8.3434e+07,4014.1,446.74,1
825,5.92,12164,1,12164,1,0.0011178,-2.1517e-08,0,0.0011178,-0.00020762,2.394e+08,-4204.1,0,2.394e+08,5373.6,12163,12984,1,12984,1,0.0020158,1.1361e-07,0,0.0020158,-4.0131e-05,3.5114e+08,21020,0,3.5114e+08,18376,12983,12171,1,12171,1,0.0011179,-1.3444e-08,0,0.0011179,-0.00020761,2.6044e+08,-2632.8,0,2.6044e+08,4975.7,12170,11369,1,11369,1,0.00021974,-1.8112e-07,0,0.00021974,-0.00037516,6.9516e+07,-33698,0,6.9516e+07,-61.355,11368,11756,1,11756,1,0.00060486,-4.9534e-08,0,0.00060486,-0.00030317,1.7147e+08,-9524.6,0,1.7147e+08,1554.8,11755,12533,1,12533,1,0.0016307,5.721e-09,0,0.0016307,-0.00011206,3.0964e+08,1107.8,0,3.0964e+08,7786.6,12532,446.74,0,446.74,0,0.00055447,5.2422e-08,0,0.00055447,0.00010336,8.3081e+07,9908.9,0,8.3081e+07,4282,446.74,1
825,5.93,12164,1,12164,1,0.001122,-8.8103e-09,0,0.001122,-0.00020839,2.3946e+08,-1488.2,0,2.3946e+08,5860.4,12163,12984,1,12984,1,0.0020222,1.3833e-07,0,0.0020222,-4.0496e-05,3.5052e+08,26024,0,3.5052e+08,20203,12983,12171,1,12171,1,0.0011221,-1.2268e-09,0,0.0011221,-0.00020838,2.6057e+08,-206.61,0,2.6057e+08,5431.9,12170,11369,1,11369,1,0.00022175,-1.8906e-07,0,0.00022175,-0.00037634,7.0051e+07,-34856,0,7.0051e+07,-203.49,11368,11756,1,11756,1,0.00060783,-4.1052e-08,0,0.00060783,-0.00030417,1.7194e+08,-7683.3,0,1.7194e+08,1746.7,11755,12533,1,12533,1,0.0016362,2.4319e-08,0,0.0016362,-0.0001126,3.0931e+08,4847.7,0,3.0931e+08,8605.4,12532,446.74,0,446.74,0,0.00055582,5.9872e-08,0,0.00055582,0.00010361,8.2713e+07,11376,0,8.2713e+07,4576.9,446.74,1
825,5.94,12164,1,12164,1,0.0011263,-1.5725e-08,0,0.0011263,-0.00020918,2.3954e+08,-2911.8,0,2.3954e+08,6185,12163,12984,1,12984,1,0.0020288,1.442e-07,0,0.0020288,-4.0867e-05,3.4994e+08,26910,0,3.4994e+08,21115,12983,12171,1,12171,1,0.0011264,-7.3802e-09,0,0.0011264,-0.00020917,2.6072e+08,-1380.4,0,2.6072e+08,5733.4,12170,11369,1,11369,1,0.00022378,-2.0597e-07,0,0.00022378,-0.00037755,7.0591e+07,-37953,0,7.0591e+07,-136.58,11368,11756,1,11756,1,0.00061085,-5.0177e-08,0,0.00061085,-0.0003052,1.7243e+08,-9705.2,0,1.7243e+08,1812,11755,12533,1,12533,1,0.0016417,1.912e-08,0,0.0016417,-0.00011316,3.09e+08,3815.4,0,3.09e+08,9048.4,12532,446.74,0,446.74,0,0.0005572,6.3977e-08,0,0.0005572,0.00010387,8.2348e+07,12091,0,8.2348e+07,4878.9,446.74,1
825,5.95,12164,1,12164,1,0.0011306,-1.1198e-08,0,0.0011306,-0.00020998,2.3961e+08,-1918.1,0,2.3961e+08,6651.7,12163,12984,1,12984,1,0.0020354,1.5696e-07,0,0.0020354,-4.1243e-05,3.4932e+08,29237,0,3.4932e+08,22702,12983,12171,1,12171,1,0.0011307,-2.1549e-09,0,0.0011307,-0.00020997,2.6086e+08,-399.4,0,2.6086e+08,6187,12170,11369,1,11369,1,0.00022585,-2.1583e-07,0,0.00022585,-0.00037876,7.1138e+07,-39452,0,7.1138e+07,-227.87,11368,11756,1,11756,1,0.00061391,-4.7534e-08,0,0.00061391,-0.00030623,1.7292e+08,-8836,0,1.7292e+08,1964.3,11755,12533,1,12533,1,0.0016474,2.5059e-08,0,0.0016474,-0.00011372,3.0866e+08,4929.3,0,3.0866e+08,9760.1,12532,446.74,0,446.74,0,0.00055859,6.7571e-08,0,0.00055859,0.00010412,8.1972e+07,12710,0,8.1972e+07,5230.5,446.74,1
825,5.96,12164,1,12164,1,0.001135,-1.9821e-08,0,0.001135,-0.00021078,2.3967e+08,-3709.2,0,2.3967e+08,7177.3,12163,12984,1,12984,1,0.002042,1.6604e-07,0,0.002042,-4.1625e-05,3.4871e+08,30684,0,3.4871e+08,23821,12983,12171,1,12171,1,0.0011351,-9.6226e-09,0,0.0011351,-0.00021077,2.6099e+08,-1850.1,0,2.6099e+08,6709.1,12170,11369,1,11369,1,0.00022795,-2.3794e-07,0,0.00022795,-0.00037999,7.169e+07,-43506,0,7.169e+07,-26.985,11368,11756,1,11756,1,0.000617,-5.9269e-08,0,0.000617,-0.00030727,1.7341e+08,-11300,0,1.7341e+08,2112.4,11755,12533,1,12533,1,0.001653,1.9453e-08,0,0.001653,-0.00011428,3.0831e+08,3692.6,0,3.0831e+08,10525,12532,446.74,0,446.74,0,0.00055999,7.3252e-08,0,0.00055999,0.00010438,8.1591e+07,13714,0,8.1591e+07,5606.3,446.74,1
825,5.97,12164,1,12164,1,0.0011395,-1.9335e-08,0,0.0011395,-0.0002116,2.3974e+08,-3606.5,0,2.3974e+08,7774.7,12163,12984,1,12984,1,0.0020488,1.8261e-07,0,0.0020488,-4.2011e-05,3.4808e+08,33294,0,3.4808e+08,25706,12983,12171,1,12171,1,0.0011395,-8.3979e-09,0,0.0011395,-0.00021159,2.6113e+08,-1561.9,0,2.6113e+08,7288.9,12170,11369,1,11369,1,0.00023008,-2.5455e-07,0,0.00023008,-0.00038124,7.2251e+07,-46303,0,7.2251e+07,0.29887,11368,11756,1,11756,1,0.00062015,-6.139e-08,0,0.00062015,-0.00030833,1.739e+08,-11703,0,1.739e+08,2326,11755,12533,1,12533,1,0.0016588,2.2021e-08,0,0.0016588,-0.00011486,3.0797e+08,4328.7,0,3.0797e+08,11415,12532,446.74,0,446.74,0,0.00056142,7.901e-08,0,0.00056142,0.00010465,8.1207e+07,14704,0,8.1207e+07,6027.1,446.74,1
825,5.98,12164,1,12164,1,0.001144,-2.1322e-08,0,0.001144,-0.00021243,2.3981e+08,-4019.2,0,2.3981e+08,8407.3,12163,12984,1,12984,1,0.0020557,1.9895e-07,0,0.0020557,-4.2406e-05,3.4744e+08,36030,0,3.4744e+08,27470,12983,12171,1,12171,1,0.0011441,-9.7567e-09,0,0.0011441,-0.00021242,2.6126e+08,-1848.9,0,2.6126e+08,7992.9,12170,11369,1,11369,1,0.00023225,-2.7437e-07,0,0.00023225,-0.00038251,7.2822e+07,-49754,0,7.2822e+07,16.341,11368,11756,1,11756,1,0.00062336,-6.6513e-08,0,0.00062336,-0.0003094,1.7441e+08,-12630,0,1.7441e+08,2530,11755,12533,1,12533,1,0.0016647,2.3177e-08,0,0.0016647,-0.00011545,3.0761e+08,4403.7,0,3.0761e+08,12367,12532,446.74,0,446.74,0,0.00056287,8.5313e-08,0,0.00056287,0.00010491,8.0815e+07,15805,0,8.0815e+07,6477,446.74,1
825,5.99,12164,1,12164,1,0.0011486,-2.1871e-08,0,0.0011486,-0.00021327,2.3987e+08,-4151.6,0,2.3987e+08,9113.2,12163,12984,1,12984,1,0.0020627,2.1839e-07,0,0.0020627,-4.2809e-05,3.4678e+08,39293,0,3.4678e+08,29426,12983,12171,1,12171,1,0.0011487,-1.0066e-08,0,0.0011487,-0.00021327,2.6139e+08,-1940.2,0,2.6139e+08,8792.8,12170,11369,1,11369,1,0.00023447,-2.9457e-07,0,0.00023447,-0.0003838,7.3402e+07,-53208,0,7.3402e+07,44.098,11368,11756,1,11756,1,0.00062662,-6.9576e-08,0,0.00062662,-0.0003105,1.7492e+08,-13218,0,1.7492e+08,2822.9,11755,12533,1,12533,1,0.0016706,2.6221e-08,0,0.0016706,-0.00011604,3.0724e+08,4862.9,0,3.0724e+08,13463,12532,446.74,0,446.74,0,0.00056433,9.1968e-08,0,0.00056433,0.00010518,8.0413e+07,16945,0,8.0413e+07,6968.3,446.74,1
825,6,12164,1,12164,1,0.0011533,-1.813e-08,0,0.0011533,-0.00021413,2.3993e+08,-3367.3,0,2.3993e+08,9843.4,12163,12984,1,12984,1,0.0020699,2.43e-07,0,0.0020699,-4.3217e-05,3.4609e+08,43575,0,3.4609e+08,31678,12983,12171,1,12171,1,0.0011534,-5.2074e-09,0,0.0011534,-0.00021413,2.6152e+08,-1183,0,2.6152e+08,9578.9,12170,11369,1,11369,1,0.00023673,-3.1435e-07,0,0.00023673,-0.00038511,7.399e+07,-56376,0,7.399e+07,23.205,11368,11756,1,11756,1,0.00062994,-7.0786e-08,0,0.00062994,-0.0003116,1.7543e+08,-13345,0,1.7543e+08,3056.9,11755,12533,1,12533,1,0.0016766,3.3474e-08,0,0.0016766,-0.00011665,3.0685e+08,6433.4,0,3.0685e+08,14551,12532,446.74,0,446.74,0,0.00056582,1.0024e-07,0,0.00056582,0.00010546,8.0004e+07,18384,0,8.0004e+07,7489.3,446.74,1
825,6.01,12164,1,12164,1,0.001158,-2.0227e-08,0,0.001158,-0.000215,2.3998e+08,-3806.5,0,2.3998e+08,10766,12163,12984,1,12984,1,0.0020771,2.6798e-07,0,0.0020771,-4.3632e-05,3.4541e+08,47789,0,3.4541e+08,33967,12983,12171,1,12171,1,0.0011581,-7.7065e-09,0,0.0011581,-0.000215,2.6164e+08,-1918.6,0,2.6164e+08,10434,12170,11369,1,11369,1,0.00023902,-3.4302e-07,0,0.00023902,-0.00038644,7.4585e+07,-61336,0,7.4585e+07,68.124,11368,11756,1,11756,1,0.00063331,-7.7921e-08,0,0.00063331,-0.00031273,1.7595e+08,-14659,0,1.7595e+08,3407.4,11755,12533,1,12533,1,0.0016827,3.7839e-08,0,0.0016827,-0.00011727,3.0646e+08,7043.2,0,3.0646e+08,16046,12532,446.74,0,446.74,0,0.00056732,1.1021e-07,0,0.00056732,0.00010574,7.9587e+07,20132,0,7.9587e+07,8107.4,446.74,1
825,6.02,12164,1,12164,1,0.0011629,-2.2735e-08,0,0.0011629,-0.00021589,2.4003e+08,-4339.8,0,2.4003e+08,11701,12163,12984,1,12984,1,0.0020844,2.9215e-07,0,0.0020844,-4.4054e-05,3.447e+08,51797,0,3.447e+08,36420,12983,12171,1,12171,1,0.001163,-1.2529e-08,0,0.001163,-0.00021588,2.6176e+08,-2709.6,0,2.6176e+08,11305,12170,11369,1,11369,1,0.00024135,-3.7235e-07,0,0.00024135,-0.00038779,7.5189e+07,-66343,0,7.5189e+07,38.786,11368,11756,1,11756,1,0.00063674,-8.5062e-08,0,0.00063674,-0.00031386,1.7647e+08,-16050,0,1.7647e+08,3759.5,11755,12533,1,12533,1,0.0016889,4.0815e-08,0,0.0016889,-0.00011789,3.0605e+08,7324.4,0,3.0605e+08,17420,12532,446.74,0,446.74,0,0.00056884,1.1995e-07,0,0.00056884,0.00010602,7.9163e+07,21809,0,7.9163e+07,8747.1,446.74,1
825,6.03,12164,1,12164,1,0.0011678,-1.6676e-08,0,0.0011678,-0.00021678,2.4008e+08,-3088.4,0,2.4008e+08,12749,12163,12984,1,12984,1,0.0020918,3.3159e-07,0,0.0020918,-4.4482e-05,3.4397e+08,58734,0,3.4397e+08,39465,12983,12171,1,12171,1,0.0011679,-2.5994e-09,0,0.0011679,-0.00021678,2.6187e+08,-640.3,0,2.6187e+08,12364,12170,11369,1,11369,1,0.00024372,-4.03e-07,0,0.00024372,-0.00038916,7.5801e+07,-71471,0,7.5801e+07,123,11368,11756,1,11756,1,0.00064023,-8.7758e-08,0,0.00064023,-0.00031502,1.77e+08,-16465,0,1.77e+08,4116.4,11755,12533,1,12533,1,0.0016952,5.4958e-08,0,0.0016952,-0.00011853,3.0563e+08,10467,0,3.0563e+08,19139,12532,446.74,0,446.74,0,0.00057038,1.3426e-07,0,0.00057038,0.0001063,7.8732e+07,24379,0,7.8732e+07,9469.9,446.74,1
825,6.04,12164,1,12164,1,0.0011728,-2.1441e-08,0,0.0011728,-0.0002177,2.4013e+08,-4067.5,0,2.4013e+08,13832,12163,12984,1,12984,1,0.0020994,3.5728e-07,0,0.0020994,-4.4918e-05,3.4324e+08,62847,0,3.4324e+08,42325,12983,12171,1,12171,1,0.0011729,-9.8571e-09,0,0.0011729,-0.0002177,2.6199e+08,-2280.2,0,2.6199e+08,13448,12170,11369,1,11369,1,0.00024614,-4.386e-07,0,0.00024614,-0.00039056,7.6424e+07,-77503,0,7.6424e+07,99.426,11368,11756,1,11756,1,0.0006438,-9.8618e-08,0,0.0006438,-0.0003162,1.7754e+08,-18247,0,1.7754e+08,4504.4,11755,12533,1,12533,1,0.0017017,5.5967e-08,0,0.0017017,-0.00011918,3.052e+08,10356,0,3.052e+08,20745,12532,446.74,0,446.74,0,0.00057195,1.4496e-07,0,0.00057195,0.0001066,7.8292e+07,26172,0,7.8292e+07,10227,446.74,1
825,6.05,12164,1,12164,1,0.0011779,-1.8853e-08,0,0.0011779,-0.00021863,2.4017e+08,-3542.6,0,2.4017e+08,15041,12163,12984,1,12984,1,0.0021072,3.9565e-07,0,0.0021072,-4.5363e-05,3.4248e+08,69304,0,3.4248e+08,45693,12983,12171,1,12171,1,0.001178,-8.5947e-09,0,0.001178,-0.00021863,2.621e+08,-1888.1,0,2.621e+08,14650,12170,11369,1,11369,1,0.00024861,-4.7375e-07,0,0.00024861,-0.00039198,7.7058e+07,-83190,0,7.7058e+07,120.08,11368,11756,1,11756,1,0.00064744,-1.026e-07,0,0.00064744,-0.0003174,1.7809e+08,-19079,0,1.7809e+08,4964.8,11755,12533,1,12533,1,0.0017082,6.516e-08,0,0.0017082,-0.00011985,3.0476e+08,12313,0,3.0476e+08,22567,12532,446.74,0,446.74,0,0.00057356,1.5861e-07,0,0.00057356,0.00010689,7.7844e+07,28498,0,7.7844e+07,11070,446.74,1
825,6.06,12164,1,12164,1,0.0011831,-1.4629e-08,0,0.0011831,-0.00021959,2.4021e+08,-2644.1,0,2.4021e+08,16352,12163,12984,1,12984,1,0.0021151,4.3765e-07,0,0.0021151,-4.5815e-05,3.417e+08,76350,0,3.417e+08,49493,12983,12171,1,12171,1,0.0011832,-1.9562e-09,0,0.0011832,-0.00021959,2.6221e+08,-431.17,0,2.6221e+08,15971,12170,11369,1,11369,1,0.00025113,-5.1609e-07,0,0.00025113,-0.00039344,7.7701e+07,-90124,0,7.7701e+07,107.25,11368,11756,1,11756,1,0.00065116,-1.0741e-07,0,0.00065116,-0.00031863,1.7864e+08,-19570,0,1.7864e+08,5457.4,11755,12533,1,12533,1,0.0017149,7.9006e-08,0,0.0017149,-0.00012053,3.043e+08,14929,0,3.043e+08,24597,12532,446.74,0,446.74,0,0.00057519,1.7505e-07,0,0.00057519,0.0001072,7.7384e+07,31325,0,7.7384e+07,12007,446.74,1
825,6.07,12164,1,12164,1,0.0011884,-1.6152e-08,0,0.0011884,-0.00022056,2.4025e+08,-2909.5,0,2.4025e+08,17881,12163,12984,1,12984,1,0.0021232,4.8313e-07,0,0.0021232,-4.6277e-05,3.4091e+08,83935,0,3.4091e+08,53190,12983,12171,1,12171,1,0.0011885,-2.2689e-09,0,0.0011885,-0.00022056,2.6232e+08,-478.09,0,2.6232e+08,17461,12170,11369,1,11369,1,0.00025369,-5.6535e-07,0,0.00025369,-0.00039493,7.8354e+07,-98262,0,7.8354e+07,152,11368,11756,1,11756,1,0.00065497,-1.1962e-07,0,0.00065497,-0.00031988,1.7921e+08,-21726,0,1.7921e+08,5985.6,11755,12533,1,12533,1,0.0017217,8.7244e-08,0,0.0017217,-0.00012122,3.0383e+08,16627,0,3.0383e+08,26999,12532,446.74,0,446.74,0,0.00057685,1.9301e-07,0,0.00057685,0.0001075,7.6915e+07,34398,0,7.6915e+07,13053,446.74,1
825,6.08,12164,1,12164,1,0.0011938,-2.3934e-08,0,0.0011938,-0.00022155,2.4028e+08,-4467.7,0,2.4028e+08,19619,12163,12984,1,12984,1,0.0021314,5.2642e-07,0,0.0021314,-4.6749e-05,3.4011e+08,90911,0,3.4011e+08,57244,12983,12171,1,12171,1,0.001194,-1.0539e-08,0,0.001194,-0.00022155,2.6242e+08,-2423.6,0,2.6242e+08,19337,12170,11369,1,11369,1,0.00025632,-6.2372e-07,0,0.00025632,-0.00039645,7.9022e+07,-1.0808e+05,0,7.9022e+07,227.27,11368,11756,1,11756,1,0.00065887,-1.3721e-07,0,0.00065887,-0.00032116,1.7978e+08,-25183,0,1.7978e+08,6468.5,11755,12533,1,12533,1,0.0017286,8.9312e-08,0,0.0017286,-0.00012193,3.0334e+08,16700,0,3.0334e+08,29850,12532,446.74,0,446.74,0,0.00057855,2.1207e-07,0,0.00057855,0.00010782,7.6433e+07,37617,0,7.6433e+07,14199,446.74,1
825,6.09,12164,1,12164,1,0.0011994,-1.2492e-08,0,0.0011994,-0.00022257,2.4031e+08,-2089.5,0,2.4031e+08,21328,12163,12984,1,12984,1,0.0021399,5.9266e-07,0,0.0021399,-4.7229e-05,3.3926e+08,1.0227e+05,0,3.3926e+08,62257,12983,12171,1,12171,1,0.0011996,6.0234e-09,0,0.0011996,-0.00022258,2.6252e+08,1378,0,2.6252e+08,20992,12170,11369,1,11369,1,0.00025901,-6.7762e-07,0,0.00025901,-0.00039801,7.9702e+07,-1.1657e+05,0,7.9702e+07,84.903,11368,11756,1,11756,1,0.00066286,-1.3857e-07,0,0.00066286,-0.00032247,1.8036e+08,-24942,0,1.8036e+08,7142,11755,12533,1,12533,1,0.0017358,1.1599e-07,0,0.0017358,-0.00012265,3.0284e+08,21436,0,3.0284e+08,32517,12532,446.74,0,446.74,0,0.00058028,2.3606e-07,0,0.00058028,0.00010814,7.5941e+07,41731,0,7.5941e+07,15436,446.74,1
825,6.1,12164,1,12164,1,0.0012051,-2.1398e-08,0,0.0012051,-0.00022361,2.4034e+08,-3799.1,0,2.4034e+08,23399,12163,12984,1,12984,1,0.0021486,6.4327e-07,0,0.0021486,-4.7721e-05,3.3841e+08,1.1013e+05,0,3.3841e+08,67018,12983,12171,1,12171,1,0.0012053,-2.384e-09,0,0.0012053,-0.00022362,2.6262e+08,-504.57,0,2.6262e+08,23098,12170,11369,1,11369,1,0.00026176,-7.5001e-07,0,0.00026176,-0.00039961,8.0394e+07,-1.2845e+05,0,8.0394e+07,242.09,11368,11756,1,11756,1,0.00066697,-1.6193e-07,0,0.00066697,-0.00032381,1.8096e+08,-29105,0,1.8096e+08,7698.8,11755,12533,1,12533,1,0.0017431,1.1873e-07,0,0.0017431,-0.0001234,3.0232e+08,22184,0,3.0232e+08,35676,12532,446.74,0,446.74,0,0.00058206,2.5883e-07,0,0.00058206,0.00010847,7.5436e+07,45501,0,7.5436e+07,16853,446.74,1
825,6.11,12164,1,12164,1,0.001211,-2.6184e-08,0,0.001211,-0.00022469,2.4037e+08,-4698.4,0,2.4037e+08,25656,12163,12984,1,12984,1,0.0021575,7.075e-07,0,0.0021575,-4.8226e-05,3.3754e+08,1.2046e+05,0,3.3754e+08,72361,12983,12171,1,12171,1,0.0012112,-6.0901e-09,0,0.0012112,-0.00022469,2.6272e+08,-1314.5,0,2.6272e+08,25451,12170,11369,1,11369,1,0.00026458,-8.273e-07,0,0.00026458,-0.00040125,8.1105e+07,-1.4098e+05,0,8.1105e+07,188.26,11368,11756,1,11756,1,0.0006712,-1.8243e-07,0,0.0006712,-0.00032518,1.8157e+08,-32822,0,1.8157e+08,8424.4,11755,12533,1,12533,1,0.0017506,1.2738e-07,0,0.0017506,-0.00012417,3.0178e+08,23709,0,3.0178e+08,39474,12532,446.74,0,446.74,0,0.00058388,2.8567e-07,0,0.00058388,0.00010881,7.4917e+07,49958,0,7.4917e+07,18430,446.74,1
825,6.12,12164,1,12164,1,0.001217,-2.6902e-08,0,0.001217,-0.00022579,2.4039e+08,-4794,0,2.4039e+08,28226,12163,12984,1,12984,1,0.0021667,7.8707e-07,0,0.0021667,-4.8743e-05,3.3663e+08,1.3331e+05,0,3.3663e+08,78549,12983,12171,1,12171,1,0.0012172,-4.9847e-09,0,0.0012172,-0.0002258,2.6281e+08,-1136.6,0,2.6281e+08,28132,12170,11369,1,11369,1,0.00026749,-9.1343e-07,0,0.00026749,-0.00040295,8.1832e+07,-1.5483e+05,0,8.1832e+07,313.8,11368,11756,1,11756,1,0.00067556,-2.0159e-07,0,0.00067556,-0.00032659,1.8219e+08,-36187,0,1.8219e+08,9184,11755,12533,1,12533,1,0.0017583,1.4539e-07,0,0.0017583,-0.00012496,3.0122e+08,26740,0,3.0122e+08,43611,12532,446.74,0,446.74,0,0.00058576,3.1806e-07,0,0.00058576,0.00010916,7.4384e+07,55363,0,7.4384e+07,20146,446.74,1
825,6.13,12164,1,12164,1,0.0012232,-3.0591e-08,0,0.0012232,-0.00022692,2.4041e+08,-5408.8,0,2.4041e+08,31138,12163,12984,1,12984,1,0.0021762,8.7132e-07,0,0.0021762,-4.9274e-05,3.357e+08,1.4676e+05,0,3.357e+08,85573,12983,12171,1,12171,1,0.0012235,-3.5835e-09,0,0.0012235,-0.00022693,2.6291e+08,-696.47,0,2.6291e+08,31031,12170,11369,1,11369,1,0.00027049,-1.0119e-06,0,0.00027049,-0.00040469,8.2579e+07,-1.7065e+05,0,8.2579e+07,337.86,11368,11756,1,11756,1,0.00068005,-2.244e-07,0,0.00068005,-0.00032804,1.8283e+08,-40084,0,1.8283e+08,10156,11755,12533,1,12533,1,0.0017661,1.6131e-07,0,0.0017661,-0.00012577,3.0063e+08,29692,0,3.0063e+08,48434,12532,446.74,0,446.74,0,0.00058768,3.525e-07,0,0.00058768,0.00010952,7.3833e+07,61039,0,7.3833e+07,22150,446.74,1
825,6.14,12164,1,12164,1,0.0012296,-2.8575e-08,0,0.0012296,-0.00022809,2.4042e+08,-5029.2,0,2.4042e+08,34281,12163,12984,1,12984,1,0.002186,9.6934e-07,0,0.002186,-4.982e-05,3.3473e+08,1.6241e+05,0,3.3473e+08,92976,12983,12171,1,12171,1,0.0012299,-3.9505e-09,0,0.0012299,-0.0002281,2.6299e+08,-996.52,0,2.6299e+08,34625,12170,11369,1,11369,1,0.00027357,-1.1185e-06,0,0.00027357,-0.0004065,8.3343e+07,-1.8752e+05,0,8.3343e+07,394.83,11368,11756,1,11756,1,0.0006847,-2.457e-07,0,0.0006847,-0.00032954,1.8348e+08,-43620,0,1.8348e+08,11031,11755,12533,1,12533,1,0.0017743,1.9007e-07,0,0.0017743,-0.00012661,3.0003e+08,34051,0,3.0003e+08,53767,12532,446.74,0,446.74,0,0.00058967,3.9378e-07,0,0.00058967,0.00010989,7.3267e+07,67832,0,7.3267e+07,24216,446.74,1
825,6.15,12164,1,12164,1,0.0012363,-3.4443e-08,0,0.0012363,-0.0002293,2.4043e+08,-6103.9,0,2.4043e+08,37821,12163,12984,1,12984,1,0.0021962,1.0773e-06,0,0.0021962,-5.0382e-05,3.3374e+08,1.7943e+05,0,3.3374e+08,1.0105e+05,12983,12171,1,12171,1,0.0012366,-7.7777e-09,0,0.0012366,-0.00022932,2.6308e+08,-1899.6,0,2.6308e+08,38413,12170,11369,1,11369,1,0.00027675,-1.2445e-06,0,0.00027675,-0.00040837,8.413e+07,-2.0757e+05,0,8.413e+07,390.55,11368,11756,1,11756,1,0.00068952,-2.7804e-07,0,0.00068952,-0.00033109,1.8415e+08,-49437,0,1.8415e+08,12103,11755,12533,1,12533,1,0.0017827,2.0939e-07,0,0.0017827,-0.00012748,2.994e+08,37867,0,2.994e+08,59668,12532,446.74,0,446.74,0,0.00059172,4.3959e-07,0,0.00059172,0.00011028,7.2682e+07,75323,0,7.2682e+07,26651,446.74,1
825,6.16,12164,1,12164,1,0.0012432,-2.7887e-08,0,0.0012432,-0.00023055,2.4043e+08,-4668.1,0,2.4043e+08,41951,12163,12984,1,12984,1,0.0022067,1.2117e-06,0,0.0022067,-5.0959e-05,3.3269e+08,2.0107e+05,0,3.3269e+08,1.1039e+05,12983,12171,1,12171,1,0.0012435,6.3222e-09,0,0.0012435,-0.00023058,2.6315e+08,1552.6,0,2.6315e+08,42841,12170,11369,1,11369,1,0.00028003,-1.3802e-06,0,0.00028003,-0.0004103,8.4935e+07,-2.2866e+05,0,8.4935e+07,438.74,11368,11756,1,11756,1,0.00069452,-2.9914e-07,0,0.00069452,-0.00033268,1.8484e+08,-52706,0,1.8484e+08,13353,11755,12533,1,12533,1,0.0017914,2.4831e-07,0,0.0017914,-0.00012838,2.9873e+08,43445,0,2.9873e+08,66491,12532,446.74,0,446.74,0,0.00059384,4.9229e-07,0,0.00059384,0.00011068,7.2073e+07,83914,0,7.2073e+07,29433,446.74,1
825,6.17,12164,1,12164,1,0.0012503,-3.1854e-08,0,0.0012503,-0.00023185,2.4043e+08,-5223,0,2.4043e+08,46538,12163,12984,1,12984,1,0.0022176,1.3513e-06,0,0.0022176,-5.1551e-05,3.3163e+08,2.2299e+05,0,3.3163e+08,1.1994e+05,12983,12171,1,12171,1,0.0012507,1.0438e-08,0,0.0012507,-0.00023188,2.6323e+08,2630.3,0,2.6323e+08,47759,12170,11369,1,11369,1,0.00028339,-1.5379e-06,0,0.00028339,-0.00041231,8.576e+07,-2.5318e+05,0,8.576e+07,607.15,11368,11756,1,11756,1,0.00069972,-3.3553e-07,0,0.00069972,-0.00033434,1.8556e+08,-58879,0,1.8556e+08,14839,11755,12533,1,12533,1,0.0018005,2.7729e-07,0,0.0018005,-0.00012931,2.9804e+08,48324,0,2.9804e+08,74372,12532,446.74,0,446.74,0,0.00059604,5.5092e-07,0,0.00059604,0.00011109,7.1446e+07,93367,0,7.1446e+07,32479,446.74,1
825,6.18,12164,1,12164,1,0.0012577,-4.3422e-08,0,0.0012577,-0.0002332,2.4043e+08,-7228.8,0,2.4043e+08,51665,12163,12984,1,12984,1,0.002229,1.507e-06,0,0.002229,-5.2161e-05,3.3053e+08,2.4695e+05,0,3.3053e+08,1.3066e+05,12983,12171,1,12171,1,0.0012582,6.3288e-09,0,0.0012582,-0.00023324,2.633e+08,1577.7,0,2.633e+08,53275,12170,11369,1,11369,1,0.00028688,-1.7259e-06,0,0.00028688,-0.00041441,8.661e+07,-2.824e+05,0,8.661e+07,504.84,11368,11756,1,11756,1,0.00070514,-3.8704e-07,0,0.00070514,-0.00033605,1.8629e+08,-67808,0,1.8629e+08,16256,11755,12533,1,12533,1,0.0018099,3.0281e-07,0,0.0018099,-0.00013029,2.9732e+08,53394,0,2.9732e+08,83169,12532,446.74,0,446.74,0,0.00059832,6.1838e-07,0,0.00059832,0.00011152,7.0794e+07,1.0415e+05,0,7.0794e+07,35953,446.74,1
825,6.19,12164,1,12164,1,0.0012655,-5.3516e-08,0,0.0012655,-0.0002346,2.4042e+08,-8917.1,0,2.4042e+08,57648,12163,12984,1,12984,1,0.002241,1.6881e-06,0,0.002241,-5.2795e-05,3.294e+08,2.7484e+05,0,3.294e+08,1.4222e+05,12983,12171,1,12171,1,0.001266,4.5179e-09,0,0.001266,-0.00023466,2.6337e+08,1095.6,0,2.6337e+08,58657,12170,11369,1,11369,1,0.0002905,-1.9385e-06,0,0.0002905,-0.00041661,8.749e+07,-3.1524e+05,0,8.749e+07,639.38,11368,11756,1,11756,1,0.00071081,-4.4463e-07,0,0.00071081,-0.00033784,1.8706e+08,-77416,0,1.8706e+08,18152,11755,12533,1,12533,1,0.0018197,3.3786e-07,0,0.0018197,-0.0001313,2.9655e+08,59424,0,2.9655e+08,93732,12532,446.74,0,446.74,0,0.00060071,6.9667e-07,0,0.00060071,0.00011197,7.0116e+07,1.1663e+05,0,7.0116e+07,39933,446.74,1
825,6.2,12164,1,12164,1,0.0012736,-6.738e-08,0,0.0012736,-0.00023607,2.404e+08,-11339,0,2.404e+08,64331,12163,12984,1,12984,1,0.0022536,1.8925e-06,0,0.0022536,-5.3452e-05,3.2822e+08,3.0564e+05,0,3.2822e+08,1.554e+05,12983,12171,1,12171,1,0.0012742,-1.1173e-09,0,0.0012742,-0.00023614,2.6344e+08,-256.75,0,2.6344e+08,65609,12170,11369,1,11369,1,0.00029428,-2.1813e-06,0,0.00029428,-0.00041893,8.8403e+07,-3.5244e+05,0,8.8403e+07,773.62,11368,11756,1,11756,1,0.00071678,-5.0873e-07,0,0.00071678,-0.00033971,1.8785e+08,-88673,0,1.8785e+08,20090,11755,12533,1,12533,1,0.0018299,3.7245e-07,0,0.0018299,-0.00013236,2.9576e+08,66612,0,2.9576e+08,1.0524e+05,12532,446.74,0,446.74,0,0.00060321,7.8522e-07,0,0.00060321,0.00011244,6.9411e+07,1.3053e+05,0,6.9411e+07,44426,446.74,1
825,6.21,12164,1,12164,1,0.0012821,-7.6206e-08,0,0.0012821,-0.00023761,2.4038e+08,-12700,0,2.4038e+08,72275,12163,12984,1,12984,1,0.0022667,2.149e-06,0,0.0022667,-5.4134e-05,3.2697e+08,3.4477e+05,0,3.2697e+08,1.7048e+05,12983,12171,1,12171,1,0.0012828,-3.5667e-09,0,0.0012828,-0.00023768,2.6349e+08,-990.42,0,2.6349e+08,73586,12170,11369,1,11369,1,0.00029822,-2.4636e-06,0,0.00029822,-0.00042135,8.9351e+07,-3.9554e+05,0,8.9351e+07,1003,11368,11756,1,11756,1,0.00072304,-5.8089e-07,0,0.00072304,-0.00034166,1.8868e+08,-1.0093e+05,0,1.8868e+08,22481,11755,12533,1,12533,1,0.0018405,4.2706e-07,0,0.0018405,-0.00013347,2.949e+08,75330,0,2.949e+08,1.1869e+05,12532,446.74,0,446.74,0,0.00060582,8.9307e-07,0,0.00060582,0.00011294,6.8667e+07,1.4752e+05,0,6.8667e+07,49687,446.74,1
825,6.22,12164,1,12164,1,0.0012911,-7.7391e-08,0,0.0012911,-0.00023923,2.4035e+08,-12661,0,2.4035e+08,81002,12163,12984,1,12984,1,0.0022808,2.4327e-06,0,0.0022808,-5.4844e-05,3.2567e+08,3.8744e+05,0,3.2567e+08,1.8675e+05,12983,12171,1,12171,1,0.0012919,7.3833e-09,0,0.0012919,-0.00023933,2.6355e+08,1808.4,0,2.6355e+08,81837,12170,11369,1,11369,1,0.00030233,-2.7712e-06,0,0.00030233,-0.00042393,9.0333e+07,-4.4123e+05,0,9.0333e+07,910.93,11368,11756,1,11756,1,0.00072967,-6.4532e-07,0,0.00072967,-0.00034371,1.8955e+08,-1.1237e+05,0,1.8955e+08,24905,11755,12533,1,12533,1,0.0018518,4.9613e-07,0,0.0018518,-0.00013465,2.9402e+08,85632,0,2.9402e+08,1.3339e+05,12532,446.74,0,446.74,0,0.00060858,1.012e-06,0,0.00060858,0.00011346,6.7896e+07,1.6588e+05,0,6.7896e+07,55503,446.74,1
825,6.23,12164,1,12164,1,0.0013005,-9.3805e-08,0,0.0013005,-0.00024094,2.4032e+08,-15336,0,2.4032e+08,91295,12163,12984,1,12984,1,0.0022956,2.7662e-06,0,0.0022956,-5.5584e-05,3.2432e+08,4.3724e+05,0,3.2432e+08,2.0453e+05,12983,12171,1,12171,1,0.0013015,1.8918e-09,0,0.0013015,-0.00024105,2.6359e+08,334.49,0,2.6359e+08,92055,12170,11369,1,11369,1,0.00030663,-3.1522e-06,0,0.00030663,-0.00042666,9.1356e+07,-4.9835e+05,0,9.1356e+07,1132.9,11368,11756,1,11756,1,0.0007367,-7.514e-07,0,0.0007367,-0.00034587,1.9046e+08,-1.2975e+05,0,1.9046e+08,27882,11755,12533,1,12533,1,0.0018636,5.6385e-07,0,0.0018636,-0.00013589,2.9306e+08,97165,0,2.9306e+08,1.5154e+05,12532,446.74,0,446.74,0,0.00061149,1.1582e-06,0,0.00061149,0.00011402,6.7077e+07,1.8847e+05,0,6.7077e+07,62334,446.74,1
825,6.24,12164,1,12164,1,0.0013106,-1.1461e-07,0,0.0013106,-0.00024275,2.4027e+08,-18779,0,2.4027e+08,1.0318e+05,12163,12984,1,12984,1,0.0023114,3.1551e-06,0,0.0023114,-5.6355e-05,3.229e+08,4.9427e+05,0,3.229e+08,2.2479e+05,12983,12171,1,12171,1,0.0013117,-5.893e-09,0,0.0013117,-0.00024288,2.6364e+08,-1599.1,0,2.6364e+08,1.049e+05,12170,11369,1,11369,1,0.00031114,-3.5926e-06,0,0.00031114,-0.00042957,9.2423e+07,-5.6376e+05,0,9.2423e+07,1330.3,11368,11756,1,11756,1,0.00074418,-8.7804e-07,0,0.00074418,-0.00034815,1.9142e+08,-1.4982e+05,0,1.9142e+08,31249,11755,12533,1,12533,1,0.0018761,6.3955e-07,0,0.0018761,-0.0001372,2.9204e+08,1.1053e+05,0,2.9204e+08,1.7285e+05,12532,446.74,0,446.74,0,0.00061458,1.3269e-06,0,0.00061458,0.00011461,6.6216e+07,2.1418e+05,0,6.6216e+07,70287,446.74,1
825,6.25,12164,1,12164,1,0.0013212,-1.2526e-07,0,0.0013212,-0.00024466,2.4021e+08,-20206,0,2.4021e+08,1.1707e+05,12163,12984,1,12984,1,0.0023282,3.6257e-06,0,0.0023282,-5.7159e-05,3.2139e+08,5.6354e+05,0,3.2139e+08,2.4736e+05,12983,12171,1,12171,1,0.0013225,-1.7972e-09,0,0.0013225,-0.00024481,2.6366e+08,-634.08,0,2.6366e+08,1.1947e+05,12170,11369,1,11369,1,0.00031586,-4.0983e-06,0,0.00031586,-0.00043266,9.3532e+07,-6.3772e+05,0,9.3532e+07,1528.2,11368,11756,1,11756,1,0.00075215,-1.0123e-06,0,0.00075215,-0.00035055,1.9242e+08,-1.709e+05,0,1.9242e+08,35264,11755,12533,1,12533,1,0.0018892,7.479e-07,0,0.0018892,-0.00013859,2.9094e+08,1.2675e+05,0,2.9094e+08,1.9593e+05,12532,446.74,0,446.74,0,0.00061784,1.5272e-06,0,0.00061784,0.00011523,6.5303e+07,2.4449e+05,0,6.5303e+07,79509,446.74,1
825,6.26,12164,1,12164,1,0.0013326,-1.5044e-07,0,0.0013326,-0.0002467,2.4015e+08,-24191,0,2.4015e+08,1.3297e+05,12163,12984,1,12984,1,0.0023464,4.1599e-06,0,0.0023464,-5.8002e-05,3.1983e+08,6.4038e+05,0,3.1983e+08,2.7177e+05,12983,12171,1,12171,1,0.001334,-3.9036e-09,0,0.001334,-0.00024688,2.6369e+08,-1104.2,0,2.6369e+08,1.362e+05,12170,11369,1,11369,1,0.00032082,-4.6947e-06,0,0.00032082,-0.00043601,9.4691e+07,-7.2406e+05,0,9.4691e+07,1719.6,11368,11756,1,11756,1,0.00076071,-1.1827e-06,0,0.00076071,-0.00035311,1.935e+08,-1.9842e+05,0,1.935e+08,39466,11755,12533,1,12533,1,0.0019032,8.5751e-07,0,0.0019032,-0.00014008,2.8978e+08,1.4516e+05,0,2.8978e+08,2.2203e+05,12532,446.74,0,446.74,0,0.00062135,1.7606e-06,0,0.00062135,0.00011591,6.4342e+07,2.7926e+05,0,6.4342e+07,90223,446.74,1
825,6.27,12164,1,12164,1,0.0013448,-1.7905e-07,0,0.0013448,-0.00024888,2.4006e+08,-28677,0,2.4006e+08,1.5205e+05,12163,12984,1,12984,1,0.002366,4.8051e-06,0,0.002366,-5.8884e-05,3.1818e+08,7.3259e+05,0,3.1818e+08,2.9964e+05,12983,12171,1,12171,1,0.0013465,-1.1844e-08,0,0.0013465,-0.00024909,2.637e+08,-3128.2,0,2.637e+08,1.5628e+05,12170,11369,1,11369,1,0.00032605,-5.4128e-06,0,0.00032605,-0.00043962,9.5905e+07,-8.2761e+05,0,9.5905e+07,2073,11368,11756,1,11756,1,0.00076993,-1.3942e-06,0,0.00076993,-0.00035583,1.9464e+08,-2.3167e+05,0,1.9464e+08,44738,11755,12533,1,12533,1,0.0019181,1.0015e-06,0,0.0019181,-0.00014167,2.8852e+08,1.6747e+05,0,2.8852e+08,2.5533e+05,12532,446.74,0,446.74,0,0.0006251,2.0452e-06,0,0.0006251,0.00011663,6.3316e+07,3.2137e+05,0,6.3316e+07,1.03e+05,446.74,1
825,6.28,12164,1,12164,1,0.0013579,-2.08e-07,0,0.0013579,-0.00025122,2.3996e+08,-33079,0,2.3996e+08,1.7451e+05,12163,12984,1,12984,1,0.0023873,5.591e-06,0,0.0023873,-5.9812e-05,3.1642e+08,8.4428e+05,0,3.1642e+08,3.3397e+05,12983,12171,1,12171,1,0.0013598,-2.3946e-08,0,0.0013599,-0.00025147,2.637e+08,-6154,0,2.637e+08,1.8009e+05,12170,11369,1,11369,1,0.00033158,-6.2636e-06,0,0.00033158,-0.00044352,9.7179e+07,-9.4906e+05,0,9.7179e+07,2593,11368,11756,1,11756,1,0.0007799,-1.6409e-06,0,0.0007799,-0.00035872,1.9585e+08,-2.6917e+05,0,1.9585e+08,50746,11755,12533,1,12533,1,0.0019341,1.1855e-06,0,0.0019341,-0.00014338,2.8715e+08,1.9461e+05,0,2.8715e+08,2.976e+05,12532,446.74,0,446.74,0,0.00062913,2.3913e-06,0,0.00062913,0.00011742,6.2219e+07,3.7211e+05,0,6.2219e+07,1.1813e+05,446.74,1
825,6.29,12164,1,12164,1,0.0013721,-2.2784e-07,0,0.0013721,-0.00025373,2.3985e+08,-35599,0,2.3985e+08,2.0088e+05,12163,12984,1,12984,1,0.0024104,6.5376e-06,0,0.0024104,-6.0788e-05,3.1456e+08,9.773e+05,0,3.1456e+08,3.8834e+05,12983,12171,1,12171,1,0.0013743,-2.0052e-08,0,0.0013743,-0.00025403,2.6368e+08,-5257.4,0,2.6368e+08,2.0812e+05,12170,11369,1,11369,1,0.0003374,-7.2588e-06,0,0.0003374,-0.00044779,9.8509e+07,-1.0886e+06,0,9.8509e+07,2892.6,11368,11756,1,11756,1,0.00079074,-1.921e-06,0,0.00079074,-0.00036183,1.9714e+08,-3.1315e+05,0,1.9714e+08,58014,11755,12533,1,12533,1,0.0019511,1.4152e-06,0,0.0019511,-0.00014522,2.8566e+08,2.2738e+05,0,2.8566e+08,3.4187e+05,12532,446.74,0,446.74,0,0.0006335,2.8056e-06,0,0.0006335,0.00011827,6.1047e+07,4.3195e+05,0,6.1047e+07,1.3605e+05,446.74,1
825,6.3,12164,1,12164,1,0.0013874,-2.8204e-07,0,0.0013874,-0.00025646,2.3971e+08,-43994,0,2.3971e+08,2.3187e+05,12163,12984,1,12984,1,0.002436,7.6423e-06,0,0.002436,-6.1818e-05,3.1262e+08,1.1291e+06,0,3.1262e+08,4.587e+05,12983,12171,1,12171,1,0.0013901,-4.0915e-08,0,0.0013901,-0.00025681,2.6364e+08,-10140,0,2.6364e+08,2.4176e+05,12170,11369,1,11369,1,0.00034355,-8.4724e-06,0,0.00034355,-0.00045249,9.9907e+07,-1.2578e+06,0,9.9907e+07,3294.1,11368,11756,1,11756,1,0.00080262,-2.2998e-06,0,0.00080262,-0.00036517,1.9855e+08,-3.6994e+05,0,1.9855e+08,68046,11755,12533,1,12533,1,0.0019695,1.6697e-06,0,0.0019695,-0.00014722,2.8405e+08,2.6584e+05,0,2.8405e+08,3.8614e+05,12532,446.74,0,446.74,0,0.00063825,3.306e-06,0,0.00063826,0.00011921,5.979e+07,5.031e+05,0,5.979e+07,1.5733e+05,446.74,1
825,6.31,12164,1,12164,1,0.0014042,-3.145e-07,0,0.0014042,-0.00025943,2.3955e+08,-48209,0,2.3955e+08,2.6914e+05,12163,12984,1,12984,1,0.0024643,9.0238e-06,0,0.0024643,-6.2909e-05,3.1052e+08,1.3178e+06,0,3.1052e+08,5.4577e+05,12983,12171,1,12171,1,0.0014074,-3.4803e-08,0,0.0014074,-0.00025984,2.6358e+08,-9034.2,0,2.6358e+08,2.8232e+05,12170,11369,1,11369,1,0.00035007,-9.9052e-06,0,0.00035007,-0.0004577,1.0137e+08,-1.4537e+06,0,1.0137e+08,3630.3,11368,11756,1,11756,1,0.00081571,-2.7293e-06,0,0.00081571,-0.00036878,2.0006e+08,-4.3412e+05,0,2.0006e+08,80503,11755,12533,1,12533,1,0.0019892,2.033e-06,0,0.0019893,-0.0001494,2.8226e+08,3.1588e+05,0,2.8226e+08,4.4671e+05,12532,446.74,0,446.74,0,0.00064347,3.9221e-06,0,0.00064347,0.00012024,5.8431e+07,5.8942e+05,0,5.8432e+07,1.8324e+05,446.74,1
825,6.32,12164,1,12164,1,0.0014227,-3.7784e-07,0,0.0014227,-0.00026267,2.3936e+08,-57360,0,2.3936e+08,3.1388e+05,12163,12984,1,12984,1,0.0024959,1.0695e-05,0,0.0024959,-6.4067e-05,3.0831e+08,1.5422e+06,0,3.0831e+08,6.547e+05,12983,12171,1,12171,1,0.0014264,-6.0983e-08,0,0.0014264,-0.00026316,2.6349e+08,-14750,0,2.635e+08,3.2573e+05,12170,11369,1,11369,1,0.00035696,-1.1676e-05,0,0.00035696,-0.00046352,1.0291e+08,-1.6941e+06,0,1.0291e+08,4043.1,11368,11756,1,11756,1,0.00083023,-3.3081e-06,0,0.00083024,-0.00037268,2.0172e+08,-5.1676e+05,0,2.0172e+08,95863,11755,12533,1,12533,1,0.0020107,2.4587e-06,0,0.0020108,-0.00015178,2.8028e+08,3.7591e+05,0,2.8028e+08,5.1653e+05,12532,446.74,0,446.74,0,0.00064922,4.6897e-06,0,0.00064922,0.00012138,5.696e+07,6.9543e+05,0,5.696e+07,2.1491e+05,446.74,1
825,6.33,12164,1,12164,1,0.0014431,-4.4629e-07,0,0.0014431,-0.00026624,2.3912e+08,-67004,0,2.3913e+08,3.6751e+05,12163,12984,1,12984,1,0.0025316,1.2755e-05,0,0.0025316,-6.5307e-05,3.0595e+08,1.8144e+06,0,3.0595e+08,7.908e+05,12983,12171,1,12171,1,0.0014475,-8.4932e-08,0,0.0014475,-0.00026682,2.6336e+08,-20546,0,2.6336e+08,3.7506e+05,12170,11369,1,11369,1,0.00036428,-1.381e-05,0,0.00036428,-0.00047007,1.0452e+08,-1.9792e+06,0,1.0452e+08,4332.6,11368,11756,1,11756,1,0.00084648,-4.0332e-06,0,0.00084648,-0.00037692,2.0352e+08,-6.1762e+05,0,2.0352e+08,1.1492e+05,11755,12533,1,12533,1,0.0020341,3.0254e-06,0,0.0020341,-0.00015442,2.7815e+08,4.5147e+05,0,2.7815e+08,5.9144e+05,12532,446.74,0,446.74,0,0.00065559,5.643e-06,0,0.0006556,0.00012266,5.5357e+07,8.2459e+05,0,5.5358e+07,2.5385e+05,446.74,1
825,6.34,12164,1,12164,1,0.0014658,-5.3644e-07,0,0.0014658,-0.0002702,2.3885e+08,-79618,0,2.3885e+08,4.3203e+05,12163,12984,1,12984,1,0.0025722,1.5287e-05,0,0.0025722,-6.6647e-05,3.0345e+08,2.1434e+06,0,3.0345e+08,9.6282e+05,12983,12171,1,12171,1,0.0014711,-1.2546e-07,0,0.0014711,-0.0002709,2.6319e+08,-28912,0,2.6319e+08,4.2672e+05,12170,11369,1,11369,1,0.00037203,-1.6409e-05,0,0.00037203,-0.00047755,1.0621e+08,-2.3216e+06,0,1.0621e+08,4606.7,11368,11756,1,11756,1,0.00086481,-4.9662e-06,0,0.00086481,-0.00038155,2.0551e+08,-7.4368e+05,0,2.0551e+08,1.3785e+05,11755,12533,1,12533,1,0.0020597,3.7405e-06,0,0.0020597,-0.00015735,2.7606e+08,5.4561e+05,0,2.7606e+08,6.9748e+05,12532,446.74,0,446.74,0,0.00066276,6.8385e-06,0,0.00066276,0.0001241,5.3609e+07,9.834e+05,0,5.3609e+07,3.0229e+05,446.74,1
825,6.35,12164,1,12164,1,0.0014913,-6.3732e-07,0,0.0014913,-0.00027463,2.3852e+08,-93333,0,2.3852e+08,5.0966e+05,12163,12984,1,12984,1,0.0026191,1.8418e-05,0,0.0026191,-6.8114e-05,3.0076e+08,2.5423e+06,0,3.0076e+08,1.1823e+06,12983,12171,1,12171,1,0.0014978,-1.598e-07,0,0.0014978,-0.00027548,2.6296e+08,-36730,0,2.6297e+08,5.0092e+05,12170,11369,1,11369,1,0.00038027,-1.9565e-05,0,0.00038027,-0.00048619,1.0799e+08,-2.7299e+06,0,1.0799e+08,4744.8,11368,11756,1,11756,1,0.00088575,-6.1124e-06,0,0.00088576,-0.00038663,2.0773e+08,-8.912e+05,0,2.0773e+08,1.6364e+05,11755,12533,1,12533,1,0.0020877,4.6236e-06,0,0.0020877,-0.00016064,2.7387e+08,6.6846e+05,0,2.7387e+08,8.2275e+05,12532,446.74,0,446.74,0,0.00067088,8.3469e-06,0,0.00067088,0.00012574,5.1688e+07,1.179e+06,0,5.1688e+07,3.634e+05,446.74,1
825,6.36,12164,1,12164,1,0.0015202,-7.613e-07,0,0.0015203,-0.00027963,2.3812e+08,-1.098e+05,0,2.3812e+08,6.0385e+05,12163,12984,1,12984,1,0.002674,2.2345e-05,0,0.002674,-6.9742e-05,2.9787e+08,3.0335e+06,0,2.9787e+08,1.4663e+06,12983,12171,1,12171,1,0.0015281,-2.1413e-07,0,0.0015282,-0.00028066,2.6265e+08,-46757,0,2.6265e+08,5.7679e+05,12170,11369,1,11369,1,0.00038901,-2.3441e-05,0,0.00038901,-0.00049629,1.0985e+08,-3.224e+06,0,1.0985e+08,4858.8,11368,11756,1,11756,1,0.00090993,-7.6607e-06,0,0.00090993,-0.00039221,2.1022e+08,-1.0815e+06,0,2.1022e+08,1.9281e+05,11755,12533,1,12533,1,0.0021185,5.7654e-06,0,0.0021186,-0.00016436,2.7123e+08,8.2422e+05,0,2.7123e+08,9.5506e+05,12532,446.74,0,446.74,0,0.00068017,1.0286e-05,0,0.00068018,0.00012763,4.956e+07,1.4244e+06,0,4.9561e+07,4.421e+05,446.74,1
825,6.37,12164,1,12164,1,0.0015535,-9.1802e-07,0,0.0015535,-0.00028535,2.3762e+08,-1.3051e+05,0,2.3763e+08,7.18e+05,12163,12984,1,12984,1,0.0027395,2.7258e-05,0,0.0027395,-7.1588e-05,2.9479e+08,3.6349e+06,0,2.9479e+08,1.8356e+06,12983,12171,1,12171,1,0.0015631,-2.901e-07,0,0.0015632,-0.00028658,2.6223e+08,-62252,0,2.6224e+08,6.456e+05,12170,11369,1,11369,1,0.00039829,-2.8185e-05,0,0.00039829,-0.00050834,1.1178e+08,-3.8185e+06,0,1.1178e+08,4386.6,11368,11756,1,11756,1,0.00093828,-9.7104e-06,0,0.00093829,-0.00039837,2.1304e+08,-1.3336e+06,0,2.1304e+08,2.2406e+05,11755,12533,1,12533,1,0.0021525,7.191e-06,0,0.0021526,-0.00016863,2.6805e+08,1.0304e+06,0,2.6807e+08,1.1491e+06,12532,446.74,0,446.74,0,0.00069101,1.2795e-05,0,0.00069101,0.00012984,4.7202e+07,1.7326e+06,0,4.7204e+07,5.4532e+05,446.74,1
825,6.38,12164,1,12164,1,0.0015922,-1.1312e-06,0,0.0015922,-0.00029197,2.3701e+08,-1.5865e+05,0,2.3702e+08,8.5624e+05,12163,12984,1,12984,1,0.0028191,3.3416e-05,0,0.0028191,-7.375e-05,2.9147e+08,4.3715e+06,0,2.9147e+08,2.329e+06,12983,12171,1,12171,1,0.001604,-4.2047e-07,0,0.0016042,-0.00029346,2.6136e+08,-88080,0,2.6137e+08,7.2235e+05,12170,11369,1,11369,1,0.00040822,-3.4007e-05,0,0.00040822,-0.00052299,1.1382e+08,-4.5373e+06,0,1.1382e+08,3332.1,11368,11756,1,11756,1,0.00097208,-1.2543e-05,0,0.00097209,-0.00040518,2.1627e+08,-1.6593e+06,0,2.1627e+08,2.4071e+05,11755,12533,1,12533,1,0.0021903,9.2818e-06,0,0.0021904,-0.00017361,2.6507e+08,1.2964e+06,0,2.6509e+08,1.3881e+06,12532,446.74,0,446.74,0,0.00070386,1.6085e-05,0,0.00070387,0.00013246,4.4566e+07,2.1232e+06,0,4.4569e+07,6.8388e+05,446.74,1
825,6.39,12164,1,12164,1,0.001638,-1.3668e-06,0,0.0016381,-0.00029971,2.3624e+08,-1.8855e+05,0,2.3625e+08,1.0248e+06,12163,12984,1,12984,1,0.0029184,4.1245e-05,0,0.0029184,-7.6336e-05,2.8783e+08,5.2884e+06,0,2.8783e+08,2.9804e+06,12983,12171,1,12171,1,0.001652,-5.5831e-07,0,0.0016525,-0.00030155,2.5749e+08,-1.1682e+05,0,2.575e+08,8.1127e+05,12170,11369,1,11369,1,0.00041888,-4.1324e-05,0,0.00041888,-0.00054128,1.1596e+08,-5.4022e+06,0,1.1596e+08,1285.6,11368,11756,1,11756,1,0.0010131,-1.6297e-05,0,0.0010132,-0.0004127,2.2004e+08,-2.0934e+06,0,2.2004e+08,2.35e+05,11755,12533,1,12533,1,0.0022333,1.2241e-05,0,0.0022333,-0.00017901,2.6206e+08,1.6609e+06,0,2.6208e+08,1.6839e+06,12532,446.74,0,446.74,0,0.00071949,2.0479e-05,0,0.0007195,0.00013569,4.161e+07,2.6246e+06,0,4.1615e+07,8.7509e+05,446.74,1
825,6.4,12164,1,12164,1,0.0016932,-1.6551e-06,0,0.0016934,-0.00030882,2.3524e+08,-2.2432e+05,0,2.3526e+08,1.2301e+06,12163,12984,1,12984,1,0.003046,5.1385e-05,0,0.003046,-7.9541e-05,2.838e+08,6.4321e+06,0,2.838e+08,3.89e+06,12983,12171,1,12171,1,0.0016967,-8.0461e-07,0,0.0016974,-0.00030947,2.5278e+08,-1.5582e+05,0,2.5278e+08,8.6963e+05,12170,11369,1,11369,1,0.00043042,-5.1366e-05,0,0.00043042,-0.00056479,1.1822e+08,-6.4572e+06,0,1.1822e+08,-2.3044e+05,11368,11756,1,11756,1,0.0010611,-2.0563e-05,0,0.0010613,-0.00042749,2.2448e+08,-2.6909e+06,0,2.2449e+08,2.3153e+05,11755,12533,1,12533,1,0.0023228,1.676e-05,0,0.0023228,-0.00018512,2.5942e+08,2.083e+06,0,2.5947e+08,2.0595e+06,12532,446.74,0,446.74,0,0.00073907,2.6464e-05,0,0.00073909,0.00013978,3.8296e+07,3.276e+06,0,3.8304e+07,1.146e+06,446.74,1
825,6.41,12164,1,12164,1,0.0017615,-2.0439e-06,0,0.0017618,-0.00031986,2.3392e+08,-2.7298e+05,0,2.3395e+08,1.4796e+06,12163,12984,1,12984,1,0.0032162,6.5803e-05,0,0.0032162,-8.3635e-05,2.7933e+08,7.8568e+06,0,2.7933e+08,5.1805e+06,12983,12171,1,12171,1,0.0017355,-1.2688e-06,0,0.0017365,-0.00031821,2.4758e+08,-2.3287e+05,0,2.476e+08,9.4493e+05,12170,11369,1,11369,1,0.00044302,-6.5819e-05,0,0.00044302,-0.00059613,1.2063e+08,-7.8586e+06,0,1.2063e+08,-8.4935e+05,11368,11756,1,11756,1,0.001113,-2.8766e-05,0,0.0011131,-0.00044443,2.2896e+08,-3.4322e+06,0,2.2897e+08,1.5109e+05,11755,12533,1,12533,1,0.0024168,2.2888e-05,0,0.0024173,-0.00019237,2.5647e+08,2.7213e+06,0,2.5651e+08,2.5838e+06,12532,446.74,0,446.74,0,0.00076471,3.4857e-05,0,0.00076474,0.00014506,3.4643e+07,4.1376e+06,0,3.4657e+07,1.5412e+06,446.74,1
825,6.42,12164,1,12164,1,0.0018485,-2.5152e-06,0,0.0018491,-0.00033356,2.3213e+08,-3.3028e+05,0,2.3219e+08,1.7866e+06,12163,12984,1,12984,1,0.0034538,8.7335e-05,0,0.0034538,-8.8889e-05,2.7416e+08,9.7833e+06,0,2.7416e+08,7.0459e+06,12983,12171,1,12171,1,0.0018304,-1.9752e-06,0,0.0018318,-0.00032756,2.4323e+08,-3.361e+05,0,2.4328e+08,9.9569e+05,12170,11369,1,11369,1,0.00045665,-8.7347e-05,0,0.00045665,-0.00063994,1.2317e+08,-9.782e+06,0,1.2318e+08,-1.8015e+06,11368,11756,1,11756,1,0.0011697,-4.0128e-05,0,0.00117,-0.00046116,2.2668e+08,-4.3973e+06,0,2.2671e+08,85157,11755,12533,1,12533,1,0.0025104,3.284e-05,0,0.0025108,-0.00020116,2.533e+08,3.5478e+06,0,2.5344e+08,3.1836e+06,12532,446.74,0,446.74,0,0.00080029,4.7058e-05,0,0.00080034,0.00015217,3.0808e+07,5.3018e+06,0,3.0833e+07,2.1319e+06,446.74,1
825,6.43,12164,1,12164,1,0.0019647,-3.079e-06,0,0.0019658,-0.00035127,2.2958e+08,-3.999e+05,0,2.2967e+08,2.164e+06,12163,12984,1,12984,1,0.0038085,0.00012144,0,0.0038085,-9.5873e-05,2.6802e+08,1.25e+07,0,2.6802e+08,9.8498e+06,12983,12171,1,12171,1,0.0019329,-3.3139e-06,0,0.0019346,-0.00033749,2.3762e+08,-4.8344e+05,0,2.3772e+08,1.0622e+06,12170,11369,1,11369,1,0.00047196,-0.00012141,0,0.00047196,-0.00070536,1.2584e+08,-1.2497e+07,0,1.2584e+08,-3.2382e+06,11368,11756,1,11756,1,0.0012339,-5.7155e-05,0,0.0012354,-0.00047542,2.1705e+08,-5.8886e+06,0,2.1708e+08,18547,11755,12533,1,12533,1,0.0026452,4.6148e-05,0,0.002646,-0.00021188,2.5023e+08,4.8748e+06,0,2.5038e+08,4.0132e+06,12532,446.74,0,446.74,0,0.0008541,6.5762e-05,0,0.00085418,0.00016237,2.7487e+07,6.9185e+06,0,2.7534e+07,3.0432e+06,446.74,1
825,6.44,12164,1,12164,1,0.0021281,-3.8586e-06,0,0.0021302,-0.00037481,2.2573e+08,-4.9582e+05,0,2.2591e+08,2.6411e+06,12163,12984,1,12984,1,0.004385,0.00018054,0,0.004385,-0.00010454,2.6481e+08,1.6506e+07,0,2.6481e+08,1.4243e+07,12983,12171,1,12171,1,0.0020579,-6.0113e-06,0,0.0020589,-0.00035915,2.3269e+08,-6.993e+05,0,2.3294e+08,1.0334e+06,12170,11369,1,11369,1,0.00048879,-0.00018053,0,0.00048882,-0.00081183,1.2858e+08,-1.6507e+07,0,1.2859e+08,-5.5229e+06,11368,11756,1,11756,1,0.0013463,-8.4815e-05,0,0.0013477,-0.00050036,2.0853e+08,-7.9982e+06,0,2.087e+08,-1.4475e+05,11755,12533,1,12533,1,0.0028002,7.1366e-05,0,0.0028052,-0.00022558,2.47e+08,6.9628e+06,0,2.4741e+08,5.34e+06,12532,446.74,0,446.74,0,0.00094519,9.6696e-05,0,0.00094532,0.00017828,2.6652e+07,9.2554e+06,0,2.6731e+07,4.4806e+06,446.74,1
825,6.45,12164,1,12164,1,0.0023756,-4.8832e-06,0,0.0023804,-0.00040691,2.1955e+08,-6.219e+05,0,2.199e+08,3.2362e+06,12163,12984,1,12984,1,0.0054469,0.00029882,0,0.0054469,-0.00010908,2.746e+08,2.2632e+07,0,2.746e+08,2.1422e+07,12983,12171,1,12171,1,0.002224,-1.1977e-05,0,0.0022244,-0.0003788,2.2587e+08,-1.1495e+06,0,2.2613e+08,1.0042e+06,12170,11369,1,11369,1,0.00050725,-0.00029894,0,0.00050732,-0.0010082,1.3127e+08,-2.2646e+07,0,1.3128e+08,-8.9162e+06,11368,11756,1,11756,1,0.0014791,-0.00012731,0,0.001483,-0.00052645,1.9817e+08,-1.1473e+07,0,1.9843e+08,-7.7195e+05,11755,12533,1,12533,1,0.0030665,0.00011692,0,0.0030668,-0.00024379,2.4133e+08,1.0153e+07,0,2.421e+08,7.0297e+06,12532,446.74,0,446.74,0,0.0011241,0.0001536,0,0.0011244,0.00020665,3.2096e+07,1.2775e+07,0,3.2206e+07,6.84e+06,446.74,1
825,6.46,12164,1,12164,1,0.0027869,-6.1432e-06,0,0.0027998,-0.00044864,2.0856e+08,-7.8126e+05,0,2.0933e+08,4.0012e+06,12163,12984,1,12984,1,0.0077953,0.00058372,0,0.0077953,-0.00010673,2.9556e+08,3.2367e+07,0,2.9556e+08,3.335e+07,12983,12171,1,12171,1,0.0023916,-2.7051e-05,0,0.0024133,-0.00037626,2.1521e+08,-1.9737e+06,0,2.16e+08,7.9118e+05,12170,11369,1,11369,1,0.00052569,-0.00058373,0,0.00052589,-0.0014412,1.0266e+08,-3.2374e+07,0,1.0267e+08,-1.4321e+07,11368,11756,1,11756,1,0.0016686,-0.00019743,0,0.0016822,-0.00054239,1.7683e+08,-1.6336e+07,0,1.7722e+08,-2.1754e+06,11755,12533,1,12533,1,0.0035274,0.00019748,0,0.0035382,-0.0002639,2.3896e+08,1.4681e+07,0,2.3959e+08,9.5346e+06,12532,446.74,0,446.74,0,0.0015412,0.00027554,0,0.0015426,0.00026489,4.6699e+07,1.8252e+07,0,4.6821e+07,1.0684e+07,446.74,1
825,6.47,12164,1,12164,1,0.0035445,-7.7084e-06,0,0.0035874,-0.00047892,1.8705e+08,-9.9066e+05,0,1.8886e+08,4.9439e+06,12163,12984,1,12984,1,0.014618,0.001468,0,0.014618,-9.4097e-05,3.3484e+08,4.7728e+07,0,3.3484e+08,5.0914e+07,12983,12171,1,12171,1,0.0025569,-5.5882e-05,0,0.0025919,-0.0003531,1.9141e+08,-2.5224e+06,0,1.944e+08,8.3914e+05,12170,11369,1,11369,1,0.00053792,-0.001467,0,0.00053849,-0.0026939,4.6976e+07,-4.7731e+07,0,4.6976e+07,-2.3577e+07,11368,11756,1,11756,1,0.0018128,-0.00034836,0,0.0018538,-0.00048788,1.3919e+08,-2.3743e+07,0,1.4163e+08,-3.9625e+06,11755,12533,1,12533,1,0.0043234,0.00034856,0,0.0043899,-0.00027619,2.3053e+08,2.1437e+07,0,2.3285e+08,1.3744e+07,12532,446.74,0,446.74,0,0.0027045,0.00059311,0,0.0027129,0.0004013,6.8908e+07,2.6461e+07,0,6.9053e+07,1.6215e+07,446.74,1
825,6.47,12164,1,12164,1,0.0037284,-8.1322e-06,0,0.0037875,-0.00045996,1.8194e+08,-1.0382e+06,0,1.8415e+08,5.1557e+06,12163,12984,1,12984,1,0.018685,0.0019909,0,0.018685,-7.7213e-05,3.5168e+08,5.2135e+07,0,3.5168e+08,5.6683e+07,12983,12171,1,12171,1,0.0025496,-6.7155e-05,0,0.0026209,-0.00032942,1.8667e+08,-2.7287e+06,0,1.8866e+08,5.5171e+05,12170,11369,1,11369,1,0.0005382,-0.0019901,0,0.00053885,-0.0033631,3.2582e+07,-5.214e+07,0,3.2583e+07,-2.6082e+07,11368,11756,1,11756,1,0.001799,-0.00038904,0,0.0018358,-0.00043538,1.2894e+08,-2.5812e+07,0,1.3187e+08,-5.1533e+06,11755,12533,1,12533,1,0.0044139,0.00038817,0,0.0044957,-0.00027422,2.2686e+08,2.3813e+07,0,2.2952e+08,1.4626e+07,12532,446.74,0,446.74,0,0.0031747,0.00073579,0,0.00319,0.00043625,7.5374e+07,2.8715e+07,0,7.5491e+07,1.7859e+07,446.74,1
