"N","Time","avg(GlobalElementId)","avg(ObjectId)","avg(PedigreeElementId)","avg(alpha)","avg(strain_x (0))","avg(strain_x (1))","avg(strain_x (2))","avg(strain_x (Magnitude))","avg(strain_yy)","avg(stress_x (0))","avg(stress_x (1))","avg(stress_x (2))","avg(stress_x (Magnitude))","avg(stress_yy)","avg(vtkOriginalCellIds)","max(GlobalElementId)","max(ObjectId)","max(PedigreeElementId)","max(alpha)","max(strain_x (0))","max(strain_x (1))","max(strain_x (2))","max(strain_x (Magnitude))","max(strain_yy)","max(stress_x (0))","max(stress_x (1))","max(stress_x (2))","max(stress_x (Magnitude))","max(stress_yy)","max(vtkOriginalCellIds)","med(GlobalElementId)","med(ObjectId)","med(PedigreeElementId)","med(alpha)","med(strain_x (0))","med(strain_x (1))","med(strain_x (2))","med(strain_x (Magnitude))","med(strain_yy)","med(stress_x (0))","med(stress_x (1))","med(stress_x (2))","med(stress_x (Magnitude))","med(stress_yy)","med(vtkOriginalCellIds)","min(GlobalElementId)","min(ObjectId)","min(PedigreeElementId)","min(alpha)","min(strain_x (0))","min(strain_x (1))","min(strain_x (2))","min(strain_x (Magnitude))","min(strain_yy)","min(stress_x (0))","min(stress_x (1))","min(stress_x (2))","min(stress_x (Magnitude))","min(stress_yy)","min(vtkOriginalCellIds)","q1(GlobalElementId)","q1(ObjectId)","q1(PedigreeElementId)","q1(alpha)","q1(strain_x (0))","q1(strain_x (1))","q1(strain_x (2))","q1(strain_x (Magnitude))","q1(strain_yy)","q1(stress_x (0))","q1(stress_x (1))","q1(stress_x (2))","q1(stress_x (Magnitude))","q1(stress_yy)","q1(vtkOriginalCellIds)","q3(GlobalElementId)","q3(ObjectId)","q3(PedigreeElementId)","q3(alpha)","q3(strain_x (0))","q3(strain_x (1))","q3(strain_x (2))","q3(strain_x (Magnitude))","q3(strain_yy)","q3(stress_x (0))","q3(stress_x (1))","q3(stress_x (2))","q3(stress_x (Magnitude))","q3(stress_yy)","q3(vtkOriginalCellIds)","std(GlobalElementId)","std(ObjectId)","std(PedigreeElementId)","std(alpha)","std(strain_x (0))","std(strain_x (1))","std(strain_x (2))","std(strain_x (Magnitude))","std(strain_yy)","std(stress_x (0))","std(stress_x (1))","std(stress_x (2))","std(stress_x (Magnitude))","std(stress_yy)","std(vtkOriginalCellIds)","vtkValidPointMask"
432,0,12137,1,12137,1,0,0,0,0,0,0,0,0,0,0,12136,12879,1,12879,1,0,0,0,0,0,0,0,0,0,0,12878,12136,1,12136,1,0,0,0,0,0,0,0,0,0,0,12135,11395,1,11395,1,0,0,0,0,0,0,0,0,0,0,11394,11748,1,11748,1,0,0,0,0,0,0,0,0,0,0,11747,12524,1,12524,1,0,0,0,0,0,0,0,0,0,0,12523,438.26,0,438.26,0,0,0,0,0,0,0,0,0,0,0,438.26,1
432,0.01,12137,1,12137,1,1.7701e-06,-4.1186e-09,0,1.7702e-06,-3.2911e-07,5.332e+05,-1061.3,0,5.3322e+05,323.79,12136,12879,1,12879,1,2.4048e-06,2.0244e-08,0,2.4048e-06,-1.8259e-07,7.1661e+05,5257.4,0,7.1661e+05,14617,12878,12136,1,12136,1,1.8462e-06,-6.2149e-10,0,1.8463e-06,-3.3014e-07,5.5531e+05,-156.7,0,5.5531e+05,-392.54,12135,11395,1,11395,1,1.1219e-06,-7.1058e-08,0,1.1221e-06,-4.7882e-07,3.4764e+05,-18153,0,3.4768e+05,-17737,11394,11748,1,11748,1,1.4911e-06,-6.5544e-09,0,1.4911e-06,-4.0445e-07,4.5336e+05,-1674.3,0,4.5336e+05,-613.24,11747,12524,1,12524,1,2.1601e-06,2.7769e-09,0,2.1606e-06,-2.5961e-07,6.4535e+05,700.12,0,6.4546e+05,343.92,12523,438.26,0,438.26,0,4.0866e-07,1.2812e-08,0,4.0862e-07,7.9676e-08,1.1744e+05,3295.8,0,1.1743e+05,4229.7,438.26,1
432,0.02,12137,1,12137,1,4.447e-06,5.5196e-11,0,4.447e-06,-8.3182e-07,1.3396e+06,14.614,0,1.3396e+06,-470.87,12136,12879,1,12879,1,5.8659e-06,1.404e-09,0,5.8659e-06,-5.6559e-07,1.7482e+06,364.21,0,1.7482e+06,103.68,12878,12136,1,12136,1,4.4467e-06,2.5399e-11,0,4.4467e-06,-8.3214e-07,1.3388e+06,6.3995,0,1.3388e+06,-101.09,12135,11395,1,11395,1,3.0302e-06,-2.0153e-09,0,3.0302e-06,-1.0983e-06,9.3417e+05,-524.31,0,9.3417e+05,-3477.3,11394,11748,1,11748,1,3.6391e-06,-3.4618e-10,0,3.6391e-06,-9.8182e-07,1.1091e+06,-87.087,0,1.1091e+06,-508.9,11747,12524,1,12524,1,5.254e-06,5.0475e-10,0,5.254e-06,-6.8252e-07,1.569e+06,129.59,0,1.569e+06,-39.217,12523,438.26,0,438.26,0,9.2672e-07,5.52e-10,0,9.2672e-07,1.7261e-07,2.6513e+05,141.62,0,2.6513e+05,764.91,438.26,1
432,0.03,12137,1,12137,1,6.6889e-06,-2.5212e-10,0,6.6889e-06,-1.2495e-06,2.015e+06,-64.952,0,2.015e+06,-104.41,12136,12879,1,12879,1,8.821e-06,3.286e-10,0,8.821e-06,-8.505e-07,2.6289e+06,83.662,0,2.6289e+06,11.157,12878,12136,1,12136,1,6.6895e-06,-1.5623e-10,0,6.6895e-06,-1.2497e-06,2.0141e+06,-39.809,0,2.0141e+06,-41.152,12135,11395,1,11395,1,4.5598e-06,-1.7768e-09,0,4.5598e-06,-1.6489e-06,1.4064e+06,-462.46,0,1.4064e+06,-1562.4,11394,11748,1,11748,1,5.474e-06,-5.5298e-10,0,5.474e-06,-1.4772e-06,1.6685e+06,-140.9,0,1.6685e+06,-124.67,11747,12524,1,12524,1,7.9049e-06,1.0093e-10,0,7.9049e-06,-1.0228e-06,2.3607e+06,25.637,0,2.3607e+06,-14.68,12523,438.26,0,438.26,0,1.3944e-06,4.3747e-10,0,1.3944e-06,2.6106e-07,3.9886e+05,112.53,0,3.9886e+05,164.66,438.26,1
432,0.04,12137,1,12137,1,8.8811e-06,-2.5072e-09,0,8.8811e-06,-1.6589e-06,2.6754e+06,-643.09,0,2.6754e+06,-81.968,12136,12879,1,12879,1,1.1737e-05,8.1502e-10,0,1.1737e-05,-1.1284e-06,3.4978e+06,204.6,0,3.4978e+06,66.437,12878,12136,1,12136,1,8.8859e-06,-1.7753e-09,0,8.8859e-06,-1.6598e-06,2.6754e+06,-452.05,0,2.6754e+06,-88.243,12135,11395,1,11395,1,6.0483e-06,-8.4501e-09,0,6.0483e-06,-2.1938e-06,1.8656e+06,-2197.4,0,1.8656e+06,-408.41,11394,11748,1,11748,1,7.2708e-06,-4.3026e-09,0,7.2708e-06,-1.9622e-06,2.2162e+06,-1102.2,0,2.2162e+06,-139.87,11747,12524,1,12524,1,1.0501e-05,-3.1541e-10,0,1.0501e-05,-1.3575e-06,3.1359e+06,-79.353,0,3.1359e+06,-12.294,12523,438.26,0,438.26,0,1.8512e-06,2.568e-09,0,1.8512e-06,3.4672e-07,5.295e+05,662.17,0,5.295e+05,81.645,438.26,1
432,0.05,12137,1,12137,1,1.1147e-05,-3.5682e-10,0,1.1147e-05,-2.082e-06,3.358e+06,-91.605,0,3.358e+06,-35.489,12136,12879,1,12879,1,1.4697e-05,2.9035e-10,0,1.4697e-05,-1.4174e-06,4.38e+06,72.896,0,4.38e+06,19.251,12878,12136,1,12136,1,1.1147e-05,-2.1836e-10,0,1.1147e-05,-2.082e-06,3.3563e+06,-55.978,0,3.3563e+06,-18.062,12135,11395,1,11395,1,7.5998e-06,-2.0625e-09,0,7.5998e-06,-2.7472e-06,2.3442e+06,-536.33,0,2.3442e+06,-222.01,11394,11748,1,11748,1,9.1213e-06,-5.7499e-10,0,9.1213e-06,-2.4617e-06,2.7803e+06,-147.82,0,2.7803e+06,-49.264,11747,12524,1,12524,1,1.3173e-05,-1.2735e-11,0,1.3173e-05,-1.7026e-06,3.9341e+06,-3.2375,0,3.9341e+06,-9.5016,12523,438.26,0,438.26,0,2.3237e-06,4.7941e-10,0,2.3237e-06,4.3541e-07,6.6466e+05,123.32,0,6.6466e+05,41.496,438.26,1
432,0.06,12137,1,12137,1,1.3411e-05,4.5551e-10,0,1.3411e-05,-2.5048e-06,4.0401e+06,117.38,0,4.0401e+06,-23.769,12136,12879,1,12879,1,1.7685e-05,1.6186e-09,0,1.7685e-05,-1.7051e-06,5.2705e+06,420.89,0,5.2705e+06,34.258,12878,12136,1,12136,1,1.3411e-05,4.447e-10,0,1.3411e-05,-2.5048e-06,4.0379e+06,112.64,0,4.0379e+06,-11.724,12135,11395,1,11395,1,9.1418e-06,-4.6793e-10,0,9.1418e-06,-3.3058e-06,2.8198e+06,-117.48,0,2.8198e+06,-289.72,11394,11748,1,11748,1,1.0974e-05,2.6603e-12,0,1.0974e-05,-2.9615e-06,3.3449e+06,0.68226,0,3.3449e+06,-35.225,11747,12524,1,12524,1,1.5849e-05,9.1826e-10,0,1.5849e-05,-2.0484e-06,4.733e+06,236.62,0,4.733e+06,8.2976,12523,438.26,0,438.26,0,2.7958e-06,5.4025e-10,0,2.7958e-06,5.2387e-07,7.9969e+05,138.92,0,7.9969e+05,50.787,438.26,1
432,0.07,12137,1,12137,1,1.561e-05,-1.3711e-09,0,1.561e-05,-2.9156e-06,4.7026e+06,-352.34,0,4.7026e+06,-47.279,12136,12879,1,12879,1,2.0596e-05,7.6705e-10,0,2.0596e-05,-1.9842e-06,6.1381e+06,192.57,0,6.1381e+06,55.441,12878,12136,1,12136,1,1.5612e-05,-1.1172e-09,0,1.5612e-05,-2.9159e-06,4.7007e+06,-284.46,0,4.7007e+06,-40.164,12135,11395,1,11395,1,1.0639e-05,-4.6566e-09,0,1.0639e-05,-3.85e-06,3.2815e+06,-1210.9,0,3.2815e+06,-217.04,11394,11748,1,11748,1,1.2775e-05,-2.5774e-09,0,1.2775e-05,-3.4476e-06,3.8939e+06,-658.75,0,3.8939e+06,-70.978,11747,12524,1,12524,1,1.845e-05,-8.6169e-11,0,1.845e-05,-2.3844e-06,5.5098e+06,-21.902,0,5.5098e+06,-14.259,12523,438.26,0,438.26,0,3.254e-06,1.4966e-09,0,3.254e-06,6.0972e-07,9.3076e+05,385.56,0,9.3076e+05,51.085,438.26,1
432,0.08,12137,1,12137,1,1.788e-05,1.8938e-10,0,1.788e-05,-3.3394e-06,5.3862e+06,48.788,0,5.3862e+06,-26.831,12136,12879,1,12879,1,2.3569e-05,7.826e-10,0,2.3569e-05,-2.2736e-06,7.0242e+06,203.5,0,7.0242e+06,43.43,12878,12136,1,12136,1,1.7879e-05,1.5277e-10,0,1.7879e-05,-3.3392e-06,5.3831e+06,38.906,0,5.3831e+06,-17.81,12135,11395,1,11395,1,1.2191e-05,-2.8901e-10,0,1.2191e-05,-4.4058e-06,3.7603e+06,-72.562,0,3.7603e+06,-250.3,11394,11748,1,11748,1,1.463e-05,5.3449e-13,0,1.463e-05,-3.9481e-06,4.4593e+06,0.14534,0,4.4593e+06,-37.96,11747,12524,1,12524,1,2.1128e-05,3.8661e-10,0,2.1128e-05,-2.7306e-06,6.3097e+06,98.936,0,6.3097e+06,-2.8758,12523,438.26,0,438.26,0,3.7272e-06,2.561e-10,0,3.7272e-06,6.9846e-07,1.0661e+06,65.825,0,1.0661e+06,43.484,438.26,1
432,0.09,12137,1,12137,1,2.0142e-05,-7.6217e-10,0,2.0142e-05,-3.7618e-06,6.0676e+06,-195.61,0,6.0676e+06,-9.9162,12136,12879,1,12879,1,2.6553e-05,4.2381e-10,0,2.6553e-05,-2.5605e-06,7.9135e+06,106.4,0,7.9135e+06,46.784,12878,12136,1,12136,1,2.0139e-05,-5.6339e-10,0,2.0139e-05,-3.7613e-06,6.0637e+06,-145.33,0,6.0637e+06,-6.811,12135,11395,1,11395,1,1.373e-05,-2.5004e-09,0,1.373e-05,-4.9635e-06,4.235e+06,-650.22,0,4.235e+06,-135.49,11394,11748,1,11748,1,1.6479e-05,-1.2778e-09,0,1.6479e-05,-4.4473e-06,5.023e+06,-328.98,0,5.023e+06,-25.368,11747,12524,1,12524,1,2.38e-05,-1.9522e-10,0,2.38e-05,-3.0756e-06,7.1075e+06,-49.132,0,7.1075e+06,8.9171,12523,438.26,0,438.26,0,4.1989e-06,7.149e-10,0,4.1989e-06,7.8688e-07,1.201e+06,184.52,0,1.201e+06,30.402,438.26,1
432,0.1,12137,1,12137,1,2.2363e-05,-2.7364e-11,0,2.2363e-05,-4.1766e-06,6.7367e+06,-7.0372,0,6.7367e+06,-1.2722,12136,12879,1,12879,1,2.9476e-05,6.1185e-11,0,2.9476e-05,-2.8437e-06,8.7846e+06,15.909,0,8.7846e+06,2.5127,12878,12136,1,12136,1,2.2363e-05,-8.8232e-12,0,2.2363e-05,-4.1764e-06,6.7331e+06,-2.2567,0,6.7331e+06,-1.2654,12135,11395,1,11395,1,1.525e-05,-1.5538e-10,0,1.525e-05,-5.5099e-06,4.7039e+06,-40.406,0,4.7039e+06,-5.6706,11394,11748,1,11748,1,1.8298e-05,-6.2248e-11,0,1.8298e-05,-4.9382e-06,5.5776e+06,-15.896,0,5.5776e+06,-2.4618,11747,12524,1,12524,1,2.6427e-05,9.6358e-12,0,2.6427e-05,-3.4149e-06,7.8921e+06,2.4221,0,7.8921e+06,-0.087972,12523,438.26,0,438.26,0,4.6617e-06,5.0647e-11,0,4.6617e-06,8.7363e-07,1.3334e+06,13.036,0,1.3334e+06,1.8129,438.26,1
432,0.11,12137,1,12137,1,2.4602e-05,3.7474e-11,0,2.4602e-05,-4.5948e-06,7.4112e+06,9.6186,0,7.4112e+06,4.5209,12136,12879,1,12879,1,3.2427e-05,3.8158e-10,0,3.2427e-05,-3.1284e-06,9.6641e+06,99.226,0,9.6641e+06,12.051,12878,12136,1,12136,1,2.4601e-05,1.4677e-11,0,2.4601e-05,-4.5945e-06,7.4072e+06,3.748,0,7.4072e+06,5.474,12135,11395,1,11395,1,1.6776e-05,-2.9055e-10,0,1.6776e-05,-6.0616e-06,5.1747e+06,-75.552,0,5.1747e+06,-5.849,11394,11748,1,11748,1,2.013e-05,-4.5998e-11,0,2.013e-05,-5.4326e-06,6.1359e+06,-11.774,0,6.1359e+06,1.3908,11747,12524,1,12524,1,2.9073e-05,1.124e-10,0,2.9073e-05,-3.7568e-06,8.6822e+06,28.623,0,8.6822e+06,7.752,12523,438.26,0,438.26,0,5.1286e-06,1.3502e-10,0,5.1286e-06,9.6113e-07,1.4669e+06,34.75,0,1.4669e+06,4.1062,438.26,1
432,0.12,12137,1,12137,1,2.6837e-05,-3.567e-11,0,2.6837e-05,-5.0123e-06,8.0847e+06,-9.1953,0,8.0847e+06,0.88917,12136,12879,1,12879,1,3.5374e-05,1.9474e-10,0,3.5374e-05,-3.4126e-06,1.0542e+07,50.64,0,1.0542e+07,17.022,12878,12136,1,12136,1,2.6837e-05,-1.1398e-11,0,2.6837e-05,-5.012e-06,8.0802e+06,-2.8725,0,8.0802e+06,0.86869,12135,11395,1,11395,1,1.8301e-05,-3.6852e-10,0,1.8301e-05,-6.6124e-06,5.6449e+06,-95.826,0,5.6449e+06,-9.0867,11394,11748,1,11748,1,2.1959e-05,-1.0928e-10,0,2.1959e-05,-5.9262e-06,6.6935e+06,-27.932,0,6.6935e+06,-1.6705,11747,12524,1,12524,1,3.1715e-05,4.3759e-11,0,3.1715e-05,-4.0981e-06,9.4712e+06,11.052,0,9.4712e+06,3.1038,12523,438.26,0,438.26,0,5.5946e-06,1.1681e-10,0,5.5946e-06,1.0485e-06,1.6002e+06,30.067,0,1.6002e+06,4.3445,438.26,1
432,0.13,12137,1,12137,1,2.9077e-05,-5.4503e-11,0,2.9077e-05,-5.4306e-06,8.7594e+06,-13.902,0,8.7594e+06,0.32161,12136,12879,1,12879,1,3.8326e-05,1.8604e-11,0,3.8326e-05,-3.6976e-06,1.1422e+07,4.8371,0,1.1422e+07,7.2778,12878,12136,1,12136,1,2.9077e-05,-4.1971e-11,0,2.9077e-05,-5.4304e-06,8.7547e+06,-10.548,0,8.7547e+06,0.013737,12135,11395,1,11395,1,1.9829e-05,-1.7872e-10,0,1.9829e-05,-7.1641e-06,6.1162e+06,-46.475,0,6.1162e+06,-4.0253,11394,11748,1,11748,1,2.3792e-05,-7.1984e-11,0,2.3792e-05,-6.4209e-06,7.2522e+06,-18.178,0,7.2522e+06,-0.90296,11747,12524,1,12524,1,3.4362e-05,-3.0651e-11,0,3.4362e-05,-4.4402e-06,1.0262e+07,-7.7623,0,1.0262e+07,1.4034,12523,438.26,0,438.26,0,6.0615e-06,4.0745e-11,0,6.0615e-06,1.136e-06,1.7338e+06,10.521,0,1.7338e+06,1.9337,438.26,1
432,0.14,12137,1,12137,1,3.133e-05,3.4676e-10,0,3.133e-05,-5.8512e-06,9.4382e+06,88.913,0,9.4382e+06,80.425,12136,12879,1,12879,1,4.1298e-05,1.9226e-09,0,4.1298e-05,-3.9827e-06,1.2308e+07,499.87,0,1.2308e+07,715.25,12878,12136,1,12136,1,3.1329e-05,2.0741e-10,0,3.1329e-05,-5.8505e-06,9.4327e+06,52.175,0,9.4327e+06,120.99,12135,11395,1,11395,1,2.1362e-05,-1.0609e-09,0,2.1362e-05,-7.722e-06,6.5893e+06,-275.8,0,6.5893e+06,-1014.5,11394,11748,1,11748,1,2.5635e-05,-7.9277e-11,0,2.5635e-05,-6.9185e-06,7.8138e+06,-20.222,0,7.8138e+06,-86.19,11747,12524,1,12524,1,3.7023e-05,7.2567e-10,0,3.7023e-05,-4.7838e-06,1.1056e+07,183.68,0,1.1056e+07,264.84,12523,438.26,0,438.26,0,6.5313e-06,6.0541e-10,0,6.5313e-06,1.2243e-06,1.8681e+06,155.67,0,1.8681e+06,266.96,438.26,1
432,0.15,12137,1,12137,1,3.3562e-05,5.5639e-11,0,3.3562e-05,-6.2681e-06,1.011e+07,14.172,0,1.011e+07,20.871,12136,12879,1,12879,1,4.4238e-05,1.1588e-09,0,4.4238e-05,-4.2665e-06,1.3184e+07,301.29,0,1.3184e+07,690.55,12878,12136,1,12136,1,3.3561e-05,3.1404e-11,0,3.3561e-05,-6.2671e-06,1.0105e+07,7.8748,0,1.0105e+07,9.8574,12135,11395,1,11395,1,2.2886e-05,-1.3563e-09,0,2.2886e-05,-8.2702e-06,7.0592e+06,-352.75,0,7.0592e+06,-424.61,11394,11748,1,11748,1,2.7461e-05,-1.3796e-10,0,2.7461e-05,-7.4114e-06,8.3706e+06,-34.782,0,8.3706e+06,-69.933,11747,12524,1,12524,1,3.9661e-05,2.9055e-10,0,3.9661e-05,-5.1243e-06,1.1844e+07,74.396,0,1.1844e+07,94.743,12523,438.26,0,438.26,0,6.9965e-06,4.3471e-10,0,6.9965e-06,1.3114e-06,2.0012e+06,111.86,0,2.0012e+06,166.16,438.26,1
432,0.16,12137,1,12137,1,3.5765e-05,-5.3652e-10,0,3.5765e-05,-6.6814e-06,1.0774e+07,-136.06,0,1.0774e+07,-650.63,12136,12879,1,12879,1,4.7147e-05,2.9595e-09,0,4.7147e-05,-4.5476e-06,1.4051e+07,743,0,1.4051e+07,893.11,12878,12136,1,12136,1,3.5765e-05,-4.1503e-10,0,3.5765e-05,-6.6802e-06,1.0768e+07,-106.09,0,1.0768e+07,-475.77,12135,11395,1,11395,1,2.4386e-05,-6.2159e-09,0,2.4386e-05,-8.8247e-06,7.5217e+06,-1560.3,0,7.5217e+06,-4604.8,11394,11748,1,11748,1,2.9264e-05,-1.4404e-09,0,2.9264e-05,-7.9008e-06,8.92e+06,-368.31,0,8.92e+06,-889.19,11747,12524,1,12524,1,4.2265e-05,4.1386e-10,0,4.2265e-05,-5.4623e-06,1.2622e+07,103.97,0,1.2622e+07,-264.88,12523,438.26,0,438.26,0,7.4563e-06,1.4097e-09,0,7.4563e-06,1.3985e-06,2.1327e+06,358.14,0,2.1327e+06,670.92,438.26,1
432,0.17,12137,1,12137,1,3.803e-05,2.9135e-10,0,3.803e-05,-7.1037e-06,1.1456e+07,74.819,0,1.1456e+07,-339.34,12136,12879,1,12879,1,5.0128e-05,1.2229e-09,0,5.0128e-05,-4.8357e-06,1.4939e+07,311.08,0,1.4939e+07,273.33,12878,12136,1,12136,1,3.803e-05,3.6597e-10,0,3.803e-05,-7.1032e-06,1.145e+07,92.843,0,1.145e+07,-343.58,12135,11395,1,11395,1,2.5931e-05,-1.1786e-09,0,2.5931e-05,-9.3731e-06,7.9985e+06,-295.85,0,7.9985e+06,-1010.5,11394,11748,1,11748,1,3.1118e-05,6.8171e-12,0,3.1118e-05,-8.3989e-06,9.485e+06,1.7292,0,9.485e+06,-434.13,11747,12524,1,12524,1,4.4941e-05,6.0037e-10,0,4.4941e-05,-5.8081e-06,1.3421e+07,153.35,0,1.3421e+07,-255.1,12523,438.26,0,438.26,0,7.928e-06,4.8074e-10,0,7.928e-06,1.4858e-06,2.2676e+06,122.15,0,2.2676e+06,166.46,438.26,1
432,0.18,12137,1,12137,1,4.0252e-05,5.6689e-11,0,4.0252e-05,-7.5188e-06,1.2126e+07,14.833,0,1.2126e+07,-435.27,12136,12879,1,12879,1,5.3056e-05,3.1069e-09,0,5.3056e-05,-5.1183e-06,1.5812e+07,780.06,0,1.5812e+07,307.34,12878,12136,1,12136,1,4.0252e-05,9.1753e-11,0,4.0252e-05,-7.5182e-06,1.2119e+07,23.703,0,1.2119e+07,-321.76,12135,11395,1,11395,1,2.7447e-05,-4.2809e-09,0,2.7447e-05,-9.9234e-06,8.466e+06,-1074.7,0,8.466e+06,-2198.7,11394,11748,1,11748,1,3.2936e-05,-2.7828e-10,0,3.2936e-05,-8.8902e-06,1.0039e+07,-71.349,0,1.0039e+07,-645.92,11747,12524,1,12524,1,4.7568e-05,4.5066e-10,0,4.7568e-05,-6.1469e-06,1.4205e+07,115.8,0,1.4205e+07,-132.21,12523,438.26,0,438.26,0,8.3912e-06,7.8162e-10,0,8.3912e-06,1.5734e-06,2.4001e+06,197.13,0,2.4001e+06,436.04,438.26,1
432,0.19,12137,1,12137,1,4.2517e-05,5.6013e-11,0,4.2517e-05,-7.941e-06,1.2808e+07,14.303,0,1.2808e+07,-85.513,12136,12879,1,12879,1,5.6042e-05,1.1175e-09,0,5.6042e-05,-5.4048e-06,1.6702e+07,290.62,0,1.6702e+07,614.53,12878,12136,1,12136,1,4.2517e-05,5.1455e-11,0,4.2517e-05,-7.9409e-06,1.2801e+07,12.973,0,1.2801e+07,-51.179,12135,11395,1,11395,1,2.8993e-05,-1.1335e-09,0,2.8993e-05,-1.0478e-05,8.9429e+06,-294.73,0,8.9429e+06,-915.59,11394,11748,1,11748,1,3.4789e-05,-2.2111e-10,0,3.4789e-05,-9.3894e-06,1.0604e+07,-56.114,0,1.0604e+07,-167.08,11747,12524,1,12524,1,5.0244e-05,3.3848e-10,0,5.0244e-05,-6.4929e-06,1.5005e+07,86.812,0,1.5005e+07,57.484,12523,438.26,0,438.26,0,8.8634e-06,4.3999e-10,0,8.8634e-06,1.6612e-06,2.5352e+06,113.14,0,2.5352e+06,210.09,438.26,1
432,0.2,12137,1,12137,1,4.4733e-05,-4.0262e-10,0,4.4733e-05,-8.3555e-06,1.3476e+07,-102.85,0,1.3476e+07,-305,12136,12879,1,12879,1,5.8963e-05,7.373e-10,0,5.8963e-05,-5.6887e-06,1.7572e+07,185.07,0,1.7572e+07,298.1,12878,12136,1,12136,1,4.4733e-05,-4.0069e-10,0,4.4733e-05,-8.3549e-06,1.3468e+07,-102.39,0,1.3468e+07,-312.09,12135,11395,1,11395,1,3.0504e-05,-1.1759e-09,0,3.0504e-05,-1.1024e-05,9.4091e+06,-296.38,0,9.4091e+06,-969.37,11394,11748,1,11748,1,3.6603e-05,-5.9835e-10,0,3.6603e-05,-9.8791e-06,1.1157e+07,-152.52,0,1.1157e+07,-410.77,11747,12524,1,12524,1,5.2863e-05,-2.3885e-10,0,5.2863e-05,-6.8319e-06,1.5787e+07,-60.097,0,1.5787e+07,-187.42,12523,438.26,0,438.26,0,9.3252e-06,2.8871e-10,0,9.3252e-06,1.7477e-06,2.6673e+06,73.987,0,2.6673e+06,190.6,438.26,1
432,0.21,12137,1,12137,1,4.6952e-05,-2.5959e-10,0,4.6952e-05,-8.7702e-06,1.4144e+07,-66.335,0,1.4144e+07,-429.75,12136,12879,1,12879,1,6.1888e-05,1.4825e-09,0,6.1888e-05,-5.9705e-06,1.8444e+07,385.52,0,1.8444e+07,50.712,12878,12136,1,12136,1,4.6951e-05,-2.0804e-10,0,4.6951e-05,-8.7697e-06,1.4136e+07,-52.895,0,1.4136e+07,-333.98,12135,11395,1,11395,1,3.2015e-05,-1.9766e-09,0,3.2015e-05,-1.1572e-05,9.8751e+06,-509.23,0,9.8751e+06,-1313.7,11394,11748,1,11748,1,3.8418e-05,-7.0819e-10,0,3.8418e-05,-1.0369e-05,1.171e+07,-179.21,0,1.171e+07,-676.28,11747,12524,1,12524,1,5.5486e-05,2.5219e-10,0,5.5486e-05,-7.1712e-06,1.657e+07,64.306,0,1.657e+07,-207.49,12523,438.26,0,438.26,0,9.7879e-06,8.1576e-10,0,9.7879e-06,1.8346e-06,2.7996e+06,209.17,0,2.7996e+06,297.59,438.26,1
432,0.22,12137,1,12137,1,4.9184e-05,-5.911e-10,0,4.9184e-05,-9.187e-06,1.4816e+07,-150.75,0,1.4816e+07,-442.1,12136,12879,1,12879,1,6.4835e-05,4.3523e-09,0,6.4835e-05,-6.2543e-06,1.9322e+07,1092.7,0,1.9322e+07,172.91,12878,12136,1,12136,1,4.9183e-05,-5.1564e-10,0,4.9183e-05,-9.1864e-06,1.4808e+07,-130.07,0,1.4808e+07,-391.81,12135,11395,1,11395,1,3.3536e-05,-8.5905e-09,0,3.3536e-05,-1.2124e-05,1.0344e+07,-2157,0,1.0344e+07,-2221.8,11394,11748,1,11748,1,4.0244e-05,-1.3324e-09,0,4.0244e-05,-1.0862e-05,1.2267e+07,-336.87,0,1.2267e+07,-574.7,11747,12524,1,12524,1,5.8123e-05,2.6598e-10,0,5.8123e-05,-7.5111e-06,1.7358e+07,67.612,0,1.7358e+07,-172.7,12523,438.26,0,438.26,0,1.0253e-05,1.5071e-09,0,1.0253e-05,1.922e-06,2.9327e+06,381.23,0,2.9327e+06,411.63,438.26,1
432,0.23,12137,1,12137,1,5.1427e-05,-4.0434e-10,0,5.1427e-05,-9.6055e-06,1.5492e+07,-103.49,0,1.5492e+07,-276.4,12136,12879,1,12879,1,6.7791e-05,1.2399e-09,0,6.7791e-05,-6.5393e-06,2.0203e+07,322.45,0,2.0203e+07,145.5,12878,12136,1,12136,1,5.1427e-05,-3.9306e-10,0,5.1427e-05,-9.6051e-06,1.5484e+07,-99.822,0,1.5484e+07,-192.32,12135,11395,1,11395,1,3.5066e-05,-2.1841e-09,0,3.5066e-05,-1.2677e-05,1.0816e+07,-567.89,0,1.0816e+07,-1775,11394,11748,1,11748,1,4.208e-05,-8.5183e-10,0,4.208e-05,-1.1357e-05,1.2827e+07,-217.93,0,1.2827e+07,-452.58,11747,12524,1,12524,1,6.0775e-05,1.8634e-10,0,6.0775e-05,-7.8534e-06,1.815e+07,46.99,0,1.815e+07,-40.853,12523,438.26,0,438.26,0,1.0721e-05,7.5517e-10,0,1.0721e-05,2.0096e-06,3.0665e+06,194.02,0,3.0665e+06,306.01,438.26,1
432,0.24,12137,1,12137,1,5.3659e-05,-3.7313e-10,0,5.3659e-05,-1.0024e-05,1.6165e+07,-95.14,0,1.6165e+07,-692.05,12136,12879,1,12879,1,7.0731e-05,1.7994e-09,0,7.0731e-05,-6.8239e-06,2.1079e+07,451.75,0,2.1079e+07,109.37,12878,12136,1,12136,1,5.3659e-05,-4.713e-10,0,5.3659e-05,-1.0023e-05,1.6156e+07,-119.69,0,1.6156e+07,-593.59,12135,11395,1,11395,1,3.6589e-05,-2.0874e-09,0,3.6589e-05,-1.3227e-05,1.1286e+07,-542.98,0,1.1286e+07,-2200.6,11394,11748,1,11748,1,4.3907e-05,-9.6533e-10,0,4.3907e-05,-1.1852e-05,1.3383e+07,-245.26,0,1.3383e+07,-834.58,11747,12524,1,12524,1,6.3412e-05,2.2726e-10,0,6.3412e-05,-8.1949e-06,1.8937e+07,58.062,0,1.8937e+07,-403.93,12523,438.26,0,438.26,0,1.1186e-05,7.946e-10,0,1.1186e-05,2.0973e-06,3.1996e+06,203.39,0,3.1996e+06,475,438.26,1
432,0.25,12137,1,12137,1,5.5901e-05,-4.5478e-10,0,5.5901e-05,-1.0442e-05,1.684e+07,-116.12,0,1.684e+07,-402.7,12136,12879,1,12879,1,7.3685e-05,1.0527e-09,0,7.3685e-05,-7.109e-06,2.196e+07,264.26,0,2.196e+07,220.07,12878,12136,1,12136,1,5.5901e-05,-4.3876e-10,0,5.5901e-05,-1.0441e-05,1.6831e+07,-110.59,0,1.6831e+07,-384.63,12135,11395,1,11395,1,3.8118e-05,-1.5397e-09,0,3.8118e-05,-1.3778e-05,1.1757e+07,-388.1,0,1.1757e+07,-1473.7,11394,11748,1,11748,1,4.5741e-05,-9.1428e-10,0,4.5741e-05,-1.2345e-05,1.3942e+07,-233.59,0,1.3942e+07,-518.96,11747,12524,1,12524,1,6.6062e-05,-3.1167e-11,0,6.6062e-05,-8.5374e-06,1.9729e+07,-7.8623,0,1.9729e+07,-269.92,12523,438.26,0,438.26,0,1.1654e-05,5.3965e-10,0,1.1654e-05,2.1842e-06,3.3334e+06,137.69,0,3.3334e+06,269.55,438.26,1
432,0.26,12137,1,12137,1,5.8136e-05,-2.6084e-10,0,5.8136e-05,-1.0859e-05,1.7513e+07,-66.859,0,1.7513e+07,-460.13,12136,12879,1,12879,1,7.6631e-05,2.317e-09,0,7.6631e-05,-7.3934e-06,2.2838e+07,581.78,0,2.2838e+07,194.41,12878,12136,1,12136,1,5.8136e-05,-3.3545e-10,0,5.8136e-05,-1.0858e-05,1.7504e+07,-86.764,0,1.7504e+07,-464.9,12135,11395,1,11395,1,3.9642e-05,-2.5006e-09,0,3.9642e-05,-1.4327e-05,1.2228e+07,-627.83,0,1.2228e+07,-1109.1,11394,11748,1,11748,1,4.757e-05,-8.4306e-10,0,4.757e-05,-1.2839e-05,1.45e+07,-213.29,0,1.45e+07,-589.79,11747,12524,1,12524,1,6.8703e-05,3.8923e-10,0,6.8703e-05,-8.8787e-06,2.0517e+07,99.43,0,2.0517e+07,-351.49,12523,438.26,0,438.26,0,1.2119e-05,9.7226e-10,0,1.2119e-05,2.2714e-06,3.4664e+06,248.35,0,3.4664e+06,196.27,438.26,1
432,0.27,12137,1,12137,1,6.0368e-05,-1.4249e-11,0,6.0368e-05,-1.1276e-05,1.8186e+07,-3.512,0,1.8186e+07,-553.07,12136,12879,1,12879,1,7.9574e-05,1.4349e-09,0,7.9574e-05,-7.6772e-06,2.3715e+07,360.23,0,2.3715e+07,-155.49,12878,12136,1,12136,1,6.0368e-05,-1.3051e-11,0,6.0368e-05,-1.1275e-05,1.8176e+07,-3.3567,0,1.8176e+07,-528.07,12135,11395,1,11395,1,4.1165e-05,-1.5647e-09,0,4.1165e-05,-1.4878e-05,1.2697e+07,-407.08,0,1.2697e+07,-1426.4,11394,11748,1,11748,1,4.9396e-05,-4.5061e-10,0,4.9396e-05,-1.3332e-05,1.5056e+07,-113.64,0,1.5056e+07,-632.44,11747,12524,1,12524,1,7.134e-05,4.6222e-10,0,7.134e-05,-9.22e-06,2.1305e+07,117.04,0,2.1305e+07,-431.86,12523,438.26,0,438.26,0,1.2585e-05,5.9601e-10,0,1.2585e-05,2.3585e-06,3.5996e+06,152.55,0,3.5996e+06,205.25,438.26,1
432,0.28,12137,1,12137,1,6.2609e-05,-2.4249e-10,0,6.2609e-05,-1.1694e-05,1.8861e+07,-61.494,0,1.8861e+07,-416.08,12136,12879,1,12879,1,8.2525e-05,6.1099e-10,0,8.2525e-05,-7.9614e-06,2.4594e+07,158.88,0,2.4594e+07,58.561,12878,12136,1,12136,1,6.2609e-05,-2.3524e-10,0,6.2609e-05,-1.1694e-05,1.8851e+07,-59.541,0,1.8851e+07,-409.05,12135,11395,1,11395,1,4.2694e-05,-1.361e-09,0,4.2694e-05,-1.5429e-05,1.3169e+07,-341.75,0,1.3169e+07,-1040.7,11394,11748,1,11748,1,5.123e-05,-4.1315e-10,0,5.123e-05,-1.3827e-05,1.5616e+07,-104.39,0,1.5616e+07,-524.64,11747,12524,1,12524,1,7.3989e-05,8.3211e-12,0,7.3989e-05,-9.5616e-06,2.2096e+07,2.1317,0,2.2096e+07,-293.91,12523,438.26,0,438.26,0,1.3052e-05,3.6251e-10,0,1.3052e-05,2.4463e-06,3.7333e+06,92.091,0,3.7333e+06,190.45,438.26,1
432,0.29,12137,1,12137,1,6.4838e-05,-9.0904e-10,0,6.4838e-05,-1.2111e-05,1.9532e+07,-232.43,0,1.9532e+07,-657.86,12136,12879,1,12879,1,8.547e-05,1.4717e-09,0,8.547e-05,-8.2465e-06,2.5472e+07,382.68,0,2.5472e+07,3.3367,12878,12136,1,12136,1,6.484e-05,-8.9984e-10,0,6.484e-05,-1.2111e-05,1.9522e+07,-226,0,1.9522e+07,-665.35,12135,11395,1,11395,1,4.4214e-05,-3.6091e-09,0,4.4214e-05,-1.5978e-05,1.3638e+07,-938.52,0,1.3638e+07,-1289.4,11394,11748,1,11748,1,5.3056e-05,-1.476e-09,0,5.3056e-05,-1.432e-05,1.6172e+07,-377.75,0,1.6172e+07,-757.56,11747,12524,1,12524,1,7.6625e-05,-8.0644e-11,0,7.6625e-05,-9.9026e-06,2.2883e+07,-20.268,0,2.2883e+07,-544.75,12523,438.26,0,438.26,0,1.3516e-05,1.061e-09,0,1.3516e-05,2.533e-06,3.8661e+06,273.43,0,3.8661e+06,172.65,438.26,1
432,0.3,12137,1,12137,1,6.7088e-05,-8.4421e-10,0,6.7088e-05,-1.2532e-05,2.021e+07,-216.16,0,2.021e+07,-861.06,12136,12879,1,12879,1,8.8435e-05,1.9599e-09,0,8.8435e-05,-8.5315e-06,2.6356e+07,492.09,0,2.6356e+07,569.47,12878,12136,1,12136,1,6.7089e-05,-8.2192e-10,0,6.7089e-05,-1.2531e-05,2.02e+07,-209.15,0,2.02e+07,-780.27,12135,11395,1,11395,1,4.5746e-05,-2.4241e-09,0,4.5746e-05,-1.6535e-05,1.4111e+07,-630.4,0,1.4111e+07,-2207.8,11394,11748,1,11748,1,5.4895e-05,-1.6373e-09,0,5.4895e-05,-1.4817e-05,1.6733e+07,-413.41,0,1.6733e+07,-1157.9,11747,12524,1,12524,1,7.9282e-05,-1.2935e-10,0,7.9282e-05,-1.0246e-05,2.3677e+07,-32.822,0,2.3677e+07,-567.18,12523,438.26,0,438.26,0,1.3985e-05,9.2677e-10,0,1.3985e-05,2.6219e-06,4.0002e+06,237.73,0,4.0002e+06,521.16,438.26,1
432,0.31,12137,1,12137,1,6.9317e-05,-3.7066e-10,0,6.9317e-05,-1.2948e-05,2.0882e+07,-95.116,0,2.0882e+07,-521.7,12136,12879,1,12879,1,9.1369e-05,1.1979e-09,0,9.1369e-05,-8.8156e-06,2.723e+07,300.71,0,2.723e+07,-80.136,12878,12136,1,12136,1,6.9317e-05,-2.8452e-10,0,6.9317e-05,-1.2947e-05,2.087e+07,-72.003,0,2.087e+07,-513.24,12135,11395,1,11395,1,4.7266e-05,-1.6356e-09,0,4.7266e-05,-1.7082e-05,1.4579e+07,-425.31,0,1.4579e+07,-1354.8,11394,11748,1,11748,1,5.6718e-05,-7.7603e-10,0,5.6718e-05,-1.5308e-05,1.7288e+07,-197.54,0,1.7288e+07,-587.31,11747,12524,1,12524,1,8.1916e-05,2.4453e-12,0,8.1916e-05,-1.0586e-05,2.4463e+07,0.66766,0,2.4463e+07,-446.2,12523,438.26,0,438.26,0,1.445e-05,5.6662e-10,0,1.445e-05,2.7081e-06,4.1332e+06,145.87,0,4.1332e+06,158.51,438.26,1
432,0.32,12137,1,12137,1,7.1555e-05,-1.4448e-10,0,7.1555e-05,-1.3365e-05,2.1556e+07,-36.786,0,2.1556e+07,-365.04,12136,12879,1,12879,1,9.4316e-05,1.7116e-09,0,9.4316e-05,-9.0996e-06,2.8108e+07,445.12,0,2.8108e+07,-116.5,12878,12136,1,12136,1,7.1555e-05,-2.4159e-10,0,7.1555e-05,-1.3364e-05,2.1544e+07,-61.087,0,2.1544e+07,-364.31,12135,11395,1,11395,1,4.8795e-05,-1.0371e-09,0,4.8795e-05,-1.7632e-05,1.5051e+07,-269.7,0,1.5051e+07,-821.86,11394,11748,1,11748,1,5.855e-05,-3.7742e-10,0,5.855e-05,-1.5802e-05,1.7847e+07,-96.798,0,1.7847e+07,-454.89,11747,12524,1,12524,1,8.456e-05,2.9126e-11,0,8.456e-05,-1.0928e-05,2.5253e+07,7.379,0,2.5253e+07,-266.27,12523,438.26,0,438.26,0,1.4916e-05,4.2802e-10,0,1.4916e-05,2.7954e-06,4.2666e+06,110.14,0,4.2666e+06,125.14,438.26,1
432,0.33,12137,1,12137,1,7.3792e-05,1.7973e-10,0,7.3792e-05,-1.3783e-05,2.223e+07,46.347,0,2.223e+07,-301.87,12136,12879,1,12879,1,9.7267e-05,1.6837e-09,0,9.7267e-05,-9.3837e-06,2.8988e+07,437.88,0,2.8988e+07,127.24,12878,12136,1,12136,1,7.3793e-05,5.3725e-11,0,7.3793e-05,-1.3782e-05,2.2218e+07,13.608,0,2.2218e+07,-294.7,12135,11395,1,11395,1,5.0321e-05,-8.0207e-10,0,5.0321e-05,-1.8184e-05,1.5522e+07,-208.65,0,1.5522e+07,-1078,11394,11748,1,11748,1,6.0381e-05,-1.0038e-10,0,6.0381e-05,-1.6296e-05,1.8405e+07,-25.786,0,1.8405e+07,-429.23,11747,12524,1,12524,1,8.7205e-05,3.8956e-10,0,8.7205e-05,-1.1269e-05,2.6043e+07,99.901,0,2.6043e+07,-132.8,12523,438.26,0,438.26,0,1.5383e-05,4.8312e-10,0,1.5383e-05,2.8829e-06,4.4e+06,124.43,0,4.4e+06,224.98,438.26,1
432,0.34,12137,1,12137,1,7.6058e-05,-3.3628e-11,0,7.6058e-05,-1.4205e-05,2.2912e+07,-8.5079,0,2.2912e+07,-8.9297,12136,12879,1,12879,1,0.00010025,9.4303e-10,0,0.00010025,-9.6715e-06,2.9877e+07,245.26,0,2.9877e+07,201.16,12878,12136,1,12136,1,7.6058e-05,-1.5438e-11,0,7.6058e-05,-1.4205e-05,2.29e+07,-3.8883,0,2.29e+07,-15.122,12135,11395,1,11395,1,5.1866e-05,-1.1965e-09,0,5.1866e-05,-1.874e-05,1.5998e+07,-311.08,0,1.5998e+07,-392.61,11394,11748,1,11748,1,6.2234e-05,-2.4291e-10,0,6.2234e-05,-1.6796e-05,1.897e+07,-61.074,0,1.897e+07,-73.872,11747,12524,1,12524,1,8.9881e-05,2.3433e-10,0,8.9881e-05,-1.1614e-05,2.6842e+07,59.488,0,2.6842e+07,61.419,12523,438.26,0,438.26,0,1.5855e-05,4.2188e-10,0,1.5855e-05,2.9715e-06,4.5351e+06,108.41,0,4.5351e+06,93.365,438.26,1
432,0.35,12137,1,12137,1,7.8262e-05,1.359e-10,0,7.8262e-05,-1.4617e-05,2.3576e+07,35.061,0,2.3576e+07,-184.03,12136,12879,1,12879,1,0.00010316,1.8741e-09,0,0.00010316,-9.9519e-06,3.0744e+07,487.33,0,3.0744e+07,156.14,12878,12136,1,12136,1,7.8263e-05,1.843e-11,0,7.8263e-05,-1.4617e-05,2.3564e+07,4.7024,0,2.3564e+07,-188.44,12135,11395,1,11395,1,5.3369e-05,-9.7053e-10,0,5.3369e-05,-1.9284e-05,1.6462e+07,-252.46,0,1.6462e+07,-546.05,11394,11748,1,11748,1,6.4039e-05,-1.5919e-10,0,6.4039e-05,-1.7283e-05,1.952e+07,-39.95,0,1.952e+07,-263.22,11747,12524,1,12524,1,9.2487e-05,4.0824e-10,0,9.2487e-05,-1.1951e-05,2.762e+07,104.24,0,2.762e+07,-118.7,12523,438.26,0,438.26,0,1.6314e-05,5.4608e-10,0,1.6314e-05,3.0574e-06,4.6664e+06,140.57,0,4.6664e+06,117.81,438.26,1
432,0.36,12137,1,12137,1,8.0504e-05,2.6218e-11,0,8.0504e-05,-1.5036e-05,2.4252e+07,6.8796,0,2.4252e+07,-220.72,12136,12879,1,12879,1,0.00010611,5.1883e-10,0,0.00010611,-1.0238e-05,3.1624e+07,134.84,0,3.1624e+07,132.67,12878,12136,1,12136,1,8.0504e-05,2.8086e-11,0,8.0504e-05,-1.5035e-05,2.4239e+07,7.1342,0,2.4239e+07,-206.89,12135,11395,1,11395,1,5.4898e-05,-3.1372e-10,0,5.4898e-05,-1.9837e-05,1.6933e+07,-81.571,0,1.6933e+07,-805.61,11394,11748,1,11748,1,6.5872e-05,-9.9901e-11,0,6.5872e-05,-1.7778e-05,2.0079e+07,-25.378,0,2.0079e+07,-323.39,11747,12524,1,12524,1,9.5135e-05,1.185e-10,0,9.5135e-05,-1.2294e-05,2.8411e+07,30.187,0,2.8411e+07,-102.43,12523,438.26,0,438.26,0,1.6782e-05,1.722e-10,0,1.6782e-05,3.1449e-06,4.8002e+06,44.217,0,4.8002e+06,167.24,438.26,1
432,0.37,12137,1,12137,1,8.2736e-05,-4.9036e-10,0,8.2736e-05,-1.5453e-05,2.4924e+07,-125.48,0,2.4924e+07,-290.76,12136,12879,1,12879,1,0.00010906,7.9139e-10,0,0.00010906,-1.0522e-05,3.2501e+07,205.76,0,3.2501e+07,203.33,12878,12136,1,12136,1,8.2737e-05,-3.8521e-10,0,8.2737e-05,-1.5452e-05,2.4911e+07,-97.212,0,2.4911e+07,-340.14,12135,11395,1,11395,1,5.6419e-05,-1.8999e-09,0,5.6419e-05,-2.0388e-05,1.7402e+07,-494.16,0,1.7402e+07,-723.84,11394,11748,1,11748,1,6.77e-05,-7.9512e-10,0,6.77e-05,-1.827e-05,2.0636e+07,-201.92,0,2.0636e+07,-381.24,11747,12524,1,12524,1,9.7775e-05,-1.0463e-10,0,9.7775e-05,-1.2635e-05,2.9199e+07,-26.373,0,2.9199e+07,-206.16,12523,438.26,0,438.26,0,1.7247e-05,5.3801e-10,0,1.7247e-05,3.2322e-06,4.9333e+06,138.89,0,4.9333e+06,145.52,438.26,1
432,0.38,12137,1,12137,1,8.4971e-05,-3.4012e-10,0,8.4971e-05,-1.5871e-05,2.5597e+07,-87.38,0,2.5597e+07,-568.71,12136,12879,1,12879,1,0.000112,1.0542e-09,0,0.000112,-1.0806e-05,3.3379e+07,274.28,0,3.3379e+07,-76.817,12878,12136,1,12136,1,8.4972e-05,-2.0925e-10,0,8.4972e-05,-1.5871e-05,2.5584e+07,-53.22,0,2.5584e+07,-567.52,12135,11395,1,11395,1,5.7943e-05,-1.7801e-09,0,5.7943e-05,-2.0939e-05,1.7873e+07,-462.76,0,1.7873e+07,-1239.2,11394,11748,1,11748,1,6.9528e-05,-7.7958e-10,0,6.9528e-05,-1.8765e-05,2.1193e+07,-200.24,0,2.1193e+07,-700.6,11747,12524,1,12524,1,0.00010042,1.0123e-10,0,0.00010042,-1.2977e-05,2.9988e+07,25.851,0,2.9988e+07,-417.09,12523,438.26,0,438.26,0,1.7713e-05,5.8819e-10,0,1.7713e-05,3.3197e-06,5.0665e+06,151.51,0,5.0665e+06,208.78,438.26,1
432,0.39,12137,1,12137,1,8.7206e-05,-5.4298e-10,0,8.7206e-05,-1.6288e-05,2.6271e+07,-139.15,0,2.6271e+07,-157.32,12136,12879,1,12879,1,0.00011495,7.0168e-10,0,0.00011495,-1.1089e-05,3.4258e+07,182.53,0,3.4258e+07,147.86,12878,12136,1,12136,1,8.7207e-05,-3.5327e-10,0,8.7207e-05,-1.6287e-05,2.6257e+07,-89.328,0,2.6257e+07,-135.42,12135,11395,1,11395,1,5.9467e-05,-2.3477e-09,0,5.9467e-05,-2.1489e-05,1.8343e+07,-610.55,0,1.8343e+07,-879.18,11394,11748,1,11748,1,7.1358e-05,-9.6974e-10,0,7.1358e-05,-1.9258e-05,2.1751e+07,-247.33,0,2.1751e+07,-271.58,11747,12524,1,12524,1,0.00010306,-4.1081e-11,0,0.00010306,-1.3317e-05,3.0777e+07,-10.314,0,3.0777e+07,-35.386,12523,438.26,0,438.26,0,1.8179e-05,6.5708e-10,0,1.8179e-05,3.407e-06,5.1998e+06,169.37,0,5.1998e+06,169.79,438.26,1
432,0.4,12137,1,12137,1,8.9445e-05,5.8655e-11,0,8.9445e-05,-1.6706e-05,2.6945e+07,15.211,0,2.6945e+07,-165.26,12136,12879,1,12879,1,0.0001179,8.8723e-10,0,0.0001179,-1.1374e-05,3.5136e+07,230.63,0,3.5136e+07,145.61,12878,12136,1,12136,1,8.9445e-05,2.0205e-11,0,8.9445e-05,-1.6705e-05,2.6931e+07,5.1864,0,2.6931e+07,-127.41,12135,11395,1,11395,1,6.0995e-05,-6.2041e-10,0,6.0995e-05,-2.204e-05,1.8814e+07,-161.36,0,1.8814e+07,-676.64,11394,11748,1,11748,1,7.3189e-05,-1.0028e-10,0,7.3189e-05,-1.9752e-05,2.2309e+07,-25.22,0,2.2309e+07,-293.08,11747,12524,1,12524,1,0.0001057,2.0605e-10,0,0.0001057,-1.3659e-05,3.1566e+07,52.245,0,3.1566e+07,-34.395,12523,438.26,0,438.26,0,1.8646e-05,2.8067e-10,0,1.8646e-05,3.4944e-06,5.3333e+06,72.163,0,5.3333e+06,174.39,438.26,1
432,0.41,12137,1,12137,1,9.168e-05,5.6438e-11,0,9.168e-05,-1.7123e-05,2.7618e+07,14.573,0,2.7618e+07,-285.51,12136,12879,1,12879,1,0.00012084,2.2735e-09,0,0.00012084,-1.1658e-05,3.6014e+07,591.28,0,3.6014e+07,105.5,12878,12136,1,12136,1,9.168e-05,-1.3149e-11,0,9.168e-05,-1.7123e-05,2.7604e+07,-3.2882,0,2.7604e+07,-264.2,12135,11395,1,11395,1,6.2519e-05,-1.5718e-09,0,6.2519e-05,-2.2591e-05,1.9284e+07,-408.79,0,1.9284e+07,-1162.3,11394,11748,1,11748,1,7.5018e-05,-3.258e-10,0,7.5018e-05,-2.0246e-05,2.2866e+07,-82.493,0,2.2866e+07,-385.34,11747,12524,1,12524,1,0.00010834,3.702e-10,0,0.00010834,-1.4001e-05,3.2355e+07,94.728,0,3.2355e+07,-154.69,12523,438.26,0,438.26,0,1.9112e-05,6.7823e-10,0,1.9112e-05,3.5818e-06,5.4665e+06,174.56,0,5.4665e+06,216.12,438.26,1
432,0.42,12137,1,12137,1,9.3924e-05,-1.3335e-10,0,9.3924e-05,-1.7542e-05,2.8294e+07,-34.163,0,2.8294e+07,-214.26,12136,12879,1,12879,1,0.0001238,1.7101e-10,0,0.0001238,-1.1944e-05,3.6895e+07,44.481,0,3.6895e+07,94.537,12878,12136,1,12136,1,9.3924e-05,-1.2702e-10,0,9.3924e-05,-1.7542e-05,2.8279e+07,-32.006,0,2.8279e+07,-166.7,12135,11395,1,11395,1,6.405e-05,-5.1188e-10,0,6.405e-05,-2.3144e-05,1.9756e+07,-133.17,0,1.9756e+07,-1053.6,11394,11748,1,11748,1,7.6853e-05,-2.805e-10,0,7.6853e-05,-2.0741e-05,2.3426e+07,-71.618,0,2.3426e+07,-309.5,11747,12524,1,12524,1,0.00011099,2.9913e-11,0,0.00011099,-1.4344e-05,3.3147e+07,7.5521,0,3.3147e+07,-64.068,12523,438.26,0,438.26,0,1.958e-05,1.7065e-10,0,1.958e-05,3.6692e-06,5.6004e+06,43.854,0,5.6004e+06,205.01,438.26,1
432,0.43,12137,1,12137,1,9.6158e-05,1.5187e-10,0,9.6158e-05,-1.796e-05,2.8968e+07,39.035,0,2.8968e+07,-268.67,12136,12879,1,12879,1,0.00012675,1.6156e-09,0,0.00012675,-1.2228e-05,3.7774e+07,420.11,0,3.7774e+07,97.831,12878,12136,1,12136,1,9.6159e-05,8.9974e-11,0,9.6159e-05,-1.7959e-05,2.8952e+07,22.843,0,2.8952e+07,-251.58,12135,11395,1,11395,1,6.5573e-05,-9.8328e-10,0,6.5573e-05,-2.3695e-05,2.0226e+07,-255.75,0,2.0226e+07,-1160.9,11394,11748,1,11748,1,7.8682e-05,-1.2047e-10,0,7.8682e-05,-2.1235e-05,2.3983e+07,-30.768,0,2.3983e+07,-434.73,11747,12524,1,12524,1,0.00011364,3.8597e-10,0,0.00011364,-1.4685e-05,3.3936e+07,97.729,0,3.3936e+07,-74.766,12523,438.26,0,438.26,0,2.0045e-05,4.9402e-10,0,2.0045e-05,3.7567e-06,5.7336e+06,127.11,0,5.7336e+06,241.21,438.26,1
432,0.44,12137,1,12137,1,9.8396e-05,-3.2527e-10,0,9.8396e-05,-1.8377e-05,2.9641e+07,-83.269,0,2.9641e+07,-129.87,12136,12879,1,12879,1,0.0001297,6.804e-10,0,0.0001297,-1.2512e-05,3.8652e+07,176.99,0,3.8652e+07,50.717,12878,12136,1,12136,1,9.8396e-05,-2.6402e-10,0,9.8396e-05,-1.8377e-05,2.9626e+07,-66.576,0,2.9626e+07,-70.696,12135,11395,1,11395,1,6.7099e-05,-1.3426e-09,0,6.7099e-05,-2.4245e-05,2.0697e+07,-349.15,0,2.0697e+07,-725.59,11394,11748,1,11748,1,8.0513e-05,-5.5178e-10,0,8.0513e-05,-2.1729e-05,2.4541e+07,-141.01,0,2.4541e+07,-209.69,11747,12524,1,12524,1,0.00011628,-5.9977e-11,0,0.00011628,-1.5026e-05,3.4725e+07,-15.372,0,3.4725e+07,-12.7,12523,438.26,0,438.26,0,2.0512e-05,3.95e-10,0,2.0512e-05,3.844e-06,5.867e+06,101.85,0,5.867e+06,157.58,438.26,1
432,0.45,12137,1,12137,1,0.00010064,-4.5249e-10,0,0.00010064,-1.8796e-05,3.0317e+07,-115.97,0,3.0317e+07,-115.76,12136,12879,1,12879,1,0.00013265,7.4755e-10,0,0.00013265,-1.2797e-05,3.9533e+07,194.38,0,3.9533e+07,59.722,12878,12136,1,12136,1,0.00010064,-2.8019e-10,0,0.00010064,-1.8795e-05,3.0301e+07,-70.656,0,3.0301e+07,-87.767,12135,11395,1,11395,1,6.8627e-05,-1.8513e-09,0,6.8627e-05,-2.4797e-05,2.1168e+07,-481.38,0,2.1168e+07,-457.4,11394,11748,1,11748,1,8.2347e-05,-8.3386e-10,0,8.2347e-05,-2.2223e-05,2.51e+07,-212.35,0,2.51e+07,-183.43,11747,12524,1,12524,1,0.00011893,-7.5517e-11,0,0.00011893,-1.5368e-05,3.5516e+07,-19.041,0,3.5516e+07,-35.005,12523,438.26,0,438.26,0,2.0979e-05,5.4958e-10,0,2.0979e-05,3.9315e-06,6.0006e+06,141.72,0,6.0006e+06,106.54,438.26,1
432,0.46,12137,1,12137,1,0.00010287,-3.4646e-10,0,0.00010287,-1.9213e-05,3.099e+07,-88.8,0,3.099e+07,-85.348,12136,12879,1,12879,1,0.0001356,7.9835e-10,0,0.0001356,-1.3081e-05,4.0411e+07,207.56,0,4.0411e+07,66.222,12878,12136,1,12136,1,0.00010287,-2.391e-10,0,0.00010287,-1.9212e-05,3.0973e+07,-61.174,0,3.0973e+07,-52.767,12135,11395,1,11395,1,7.0151e-05,-1.543e-09,0,7.0151e-05,-2.5349e-05,2.1638e+07,-401.25,0,2.1638e+07,-815.53,11394,11748,1,11748,1,8.4175e-05,-6.8369e-10,0,8.4175e-05,-2.2717e-05,2.5658e+07,-173.97,0,2.5658e+07,-148.53,11747,12524,1,12524,1,0.00012157,2.9973e-12,0,0.00012157,-1.5709e-05,3.6305e+07,0.77,0,3.6305e+07,1.7646,12523,438.26,0,438.26,0,2.1445e-05,4.9214e-10,0,2.1445e-05,4.0188e-06,6.1339e+06,126.81,0,6.1339e+06,118.82,438.26,1
432,0.47,12137,1,12137,1,0.0001051,5.5857e-11,0,0.0001051,-1.963e-05,3.1661e+07,14.383,0,3.1661e+07,-382.15,12136,12879,1,12879,1,0.00013853,2.1591e-09,0,0.00013853,-1.3365e-05,4.1286e+07,561.37,0,4.1286e+07,102.19,12878,12136,1,12136,1,0.0001051,-5.4596e-11,0,0.0001051,-1.9629e-05,3.1644e+07,-13.807,0,3.1644e+07,-371.12,12135,11395,1,11395,1,7.1671e-05,-1.3813e-09,0,7.1671e-05,-2.5898e-05,2.2107e+07,-359.14,0,2.2107e+07,-1121.5,11394,11748,1,11748,1,8.5998e-05,-2.2464e-10,0,8.5998e-05,-2.321e-05,2.6213e+07,-57.352,0,2.6213e+07,-525.06,11747,12524,1,12524,1,0.0001242,3.2918e-10,0,0.0001242,-1.605e-05,3.7091e+07,84.06,0,3.7091e+07,-195.86,12523,438.26,0,438.26,0,2.1909e-05,6.7546e-10,0,2.1909e-05,4.1061e-06,6.2667e+06,173.7,0,6.2667e+06,237.12,438.26,1
432,0.48,12137,1,12137,1,0.00010734,1.9207e-11,0,0.00010734,-2.0047e-05,3.2336e+07,5.0011,0,3.2336e+07,-2.5211,12136,12879,1,12879,1,0.00014148,1.2081e-09,0,0.00014148,-1.365e-05,4.2165e+07,314.15,0,4.2165e+07,44.383,12878,12136,1,12136,1,0.00010734,-4.5992e-12,0,0.00010734,-2.0047e-05,3.2319e+07,-1.1536,0,3.2319e+07,8.7985,12135,11395,1,11395,1,7.3198e-05,-1.0693e-09,0,7.3198e-05,-2.6448e-05,2.2578e+07,-278.07,0,2.2578e+07,-428.35,11394,11748,1,11748,1,8.7831e-05,-2.0857e-10,0,8.7831e-05,-2.3703e-05,2.6772e+07,-53.083,0,2.6772e+07,-11.621,11747,12524,1,12524,1,0.00012685,2.304e-10,0,0.00012685,-1.6391e-05,3.7882e+07,58.661,0,3.7882e+07,21.29,12523,438.26,0,438.26,0,2.2376e-05,4.3751e-10,0,2.2376e-05,4.1934e-06,6.4003e+06,112.61,0,6.4003e+06,44.92,438.26,1
432,0.49,12137,1,12137,1,0.00010958,-3.3244e-10,0,0.00010958,-2.0465e-05,3.3009e+07,-85.248,0,3.3009e+07,-19.87,12136,12879,1,12879,1,0.00014443,1.0707e-09,0,0.00014443,-1.3934e-05,4.3044e+07,278.42,0,4.3044e+07,19.362,12878,12136,1,12136,1,0.00010958,-2.008e-10,0,0.00010958,-2.0464e-05,3.2992e+07,-50.677,0,3.2992e+07,-18.568,12135,11395,1,11395,1,7.4723e-05,-1.8351e-09,0,7.4723e-05,-2.6998e-05,2.3048e+07,-477.2,0,2.3048e+07,-167.1,11394,11748,1,11748,1,8.9661e-05,-7.4025e-10,0,8.9661e-05,-2.4197e-05,2.733e+07,-189.35,0,2.733e+07,-30.299,11747,12524,1,12524,1,0.00012949,6.2638e-11,0,0.00012949,-1.6733e-05,3.8671e+07,15.924,0,3.8671e+07,-5.3888,12523,438.26,0,438.26,0,2.2842e-05,5.8736e-10,0,2.2842e-05,4.2807e-06,6.5336e+06,151.25,0,6.5336e+06,25.594,438.26,1
432,0.5,12137,1,12137,1,0.00011182,-5.9771e-11,0,0.00011182,-2.0884e-05,3.3685e+07,-15.333,0,3.3685e+07,-93.392,12136,12879,1,12879,1,0.00014738,1.0251e-10,0,0.00014738,-1.4219e-05,4.3924e+07,25.68,0,4.3924e+07,65.691,12878,12136,1,12136,1,0.00011182,-6.8674e-11,0,0.00011182,-2.0883e-05,3.3667e+07,-17.385,0,3.3667e+07,-70.32,12135,11395,1,11395,1,7.6253e-05,-1.9901e-10,0,7.6253e-05,-2.7552e-05,2.352e+07,-51.759,0,2.352e+07,-864.4,11394,11748,1,11748,1,9.1495e-05,-1.071e-10,0,9.1495e-05,-2.4692e-05,2.7889e+07,-27.294,0,2.7889e+07,-140.33,11747,12524,1,12524,1,0.00013214,-1.4942e-11,0,0.00013214,-1.7076e-05,3.9462e+07,-3.7715,0,3.9462e+07,-18.083,12523,438.26,0,438.26,0,2.331e-05,6.2588e-11,0,2.331e-05,4.3685e-06,6.6674e+06,16.044,0,6.6674e+06,109.97,438.26,1
432,0.51,12137,1,12137,1,0.00011406,4.0122e-11,0,0.00011406,-2.1302e-05,3.4359e+07,10.332,0,3.4359e+07,-42.174,12136,12879,1,12879,1,0.00015033,2.867e-10,0,0.00015033,-1.4504e-05,4.4804e+07,74.55,0,4.4804e+07,59.45,12878,12136,1,12136,1,0.00011406,2.2687e-11,0,0.00011406,-2.1301e-05,3.4341e+07,5.7659,0,3.4341e+07,-11.682,12135,11395,1,11395,1,7.7779e-05,-2.1645e-10,0,7.7779e-05,-2.8104e-05,2.3991e+07,-56.26,0,2.3991e+07,-891.79,11394,11748,1,11748,1,9.3327e-05,-3.0278e-11,0,9.3327e-05,-2.5187e-05,2.8447e+07,-7.6617,0,2.8447e+07,-58.751,11747,12524,1,12524,1,0.00013479,1.1879e-10,0,0.00013479,-1.7417e-05,4.0252e+07,30.561,0,4.0252e+07,4.4553,12523,438.26,0,438.26,0,2.3777e-05,1.0577e-10,0,2.3777e-05,4.4559e-06,6.8009e+06,27.196,0,6.8009e+06,90.449,438.26,1
432,0.52,12137,1,12137,1,0.00011628,-1.9522e-10,0,0.00011628,-2.1717e-05,3.5029e+07,-49.953,0,3.5029e+07,-67.457,12136,12879,1,12879,1,0.00015327,1.7532e-09,0,0.00015327,-1.4787e-05,4.5678e+07,455.89,0,4.5678e+07,40.506,12878,12136,1,12136,1,0.00011628,-1.417e-10,0,0.00011628,-2.1716e-05,3.501e+07,-35.989,0,3.501e+07,-28.179,12135,11395,1,11395,1,7.9295e-05,-1.7697e-09,0,7.9295e-05,-2.8651e-05,2.4459e+07,-460.17,0,2.4459e+07,-548.88,11394,11748,1,11748,1,9.5147e-05,-5.66e-10,0,9.5147e-05,-2.5678e-05,2.9002e+07,-145.25,0,2.9002e+07,-100.26,11747,12524,1,12524,1,0.00013741,1.2604e-10,0,0.00013741,-1.7757e-05,4.1037e+07,31.831,0,4.1037e+07,-2.3326,12523,438.26,0,438.26,0,2.424e-05,6.5611e-10,0,2.424e-05,4.5427e-06,6.9334e+06,168.94,0,6.9334e+06,102.46,438.26,1
432,0.53,12137,1,12137,1,0.00011852,1.4609e-10,0,0.00011852,-2.2136e-05,3.5705e+07,37.558,0,3.5705e+07,-28.363,12136,12879,1,12879,1,0.00015623,8.3775e-10,0,0.00015623,-1.5072e-05,4.6559e+07,217.83,0,4.6559e+07,40.284,12878,12136,1,12136,1,0.00011853,9.2337e-11,0,0.00011853,-2.2136e-05,3.5686e+07,23.452,0,3.5686e+07,-24.273,12135,11395,1,11395,1,8.0826e-05,-2.2582e-10,0,8.0826e-05,-2.9203e-05,2.4931e+07,-58.712,0,2.4931e+07,-225.53,11394,11748,1,11748,1,9.6983e-05,-3.4731e-11,0,9.6983e-05,-2.6173e-05,2.9562e+07,-8.7196,0,2.9562e+07,-31.223,11747,12524,1,12524,1,0.00014007,2.9767e-10,0,0.00014007,-1.81e-05,4.1829e+07,76.606,0,4.1829e+07,-14.483,12523,438.26,0,438.26,0,2.4708e-05,2.2864e-10,0,2.4708e-05,4.6304e-06,7.0673e+06,58.9,0,7.0673e+06,30.931,438.26,1
432,0.54,12137,1,12137,1,0.00012076,-2.1363e-10,0,0.00012076,-2.2554e-05,3.6378e+07,-54.725,0,3.6378e+07,-10.007,12136,12879,1,12879,1,0.00015917,1.0481e-09,0,0.00015917,-1.5356e-05,4.7437e+07,272.51,0,4.7437e+07,24.522,12878,12136,1,12136,1,0.00012076,-1.191e-10,0,0.00012076,-2.2553e-05,3.6359e+07,-30.131,0,3.6359e+07,-3.095,12135,11395,1,11395,1,8.2349e-05,-1.4546e-09,0,8.2349e-05,-2.9755e-05,2.5401e+07,-378.24,0,2.5401e+07,-659.12,11394,11748,1,11748,1,9.8812e-05,-5.1113e-10,0,9.8812e-05,-2.6667e-05,3.0119e+07,-130.16,0,3.0119e+07,-10.97,11747,12524,1,12524,1,0.00014271,8.2658e-11,0,0.00014271,-1.8441e-05,4.2618e+07,20.897,0,4.2618e+07,2.8185,12523,438.26,0,438.26,0,2.5174e-05,5.0261e-10,0,2.5174e-05,4.7177e-06,7.2005e+06,129.4,0,7.2005e+06,50.117,438.26,1
432,0.55,12137,1,12137,1,0.00012299,-2.2212e-10,0,0.00012299,-2.2971e-05,3.7052e+07,-56.858,0,3.7052e+07,-106.91,12136,12879,1,12879,1,0.00016212,5.3372e-10,0,0.00016212,-1.5641e-05,4.8315e+07,138.8,0,4.8315e+07,16.327,12878,12136,1,12136,1,0.00012299,-1.5726e-10,0,0.00012299,-2.2971e-05,3.7032e+07,-39.881,0,3.7032e+07,-78.249,12135,11395,1,11395,1,8.3874e-05,-1.0497e-09,0,8.3874e-05,-3.0305e-05,2.5871e+07,-272.83,0,2.5871e+07,-571.42,11394,11748,1,11748,1,0.00010064,-4.3369e-10,0,0.00010064,-2.7161e-05,3.0677e+07,-109.71,0,3.0677e+07,-151.77,11747,12524,1,12524,1,0.00014535,-9.1358e-12,0,0.00014535,-1.8782e-05,4.3407e+07,-2.2687,0,4.3407e+07,-31.903,12523,438.26,0,438.26,0,2.564e-05,3.2218e-10,0,2.564e-05,4.805e-06,7.3338e+06,83.079,0,7.3338e+06,101.94,438.26,1
432,0.56,12137,1,12137,1,0.00012523,-9.1852e-11,0,0.00012523,-2.3389e-05,3.7726e+07,-23.475,0,3.7726e+07,-18.138,12136,12879,1,12879,1,0.00016507,8.9917e-10,0,0.00016507,-1.5925e-05,4.9194e+07,233.81,0,4.9194e+07,30.001,12878,12136,1,12136,1,0.00012523,-5.5773e-11,0,0.00012523,-2.3388e-05,3.7706e+07,-14.066,0,3.7706e+07,-13.687,12135,11395,1,11395,1,8.54e-05,-1.0788e-09,0,8.54e-05,-3.0856e-05,2.6342e+07,-280.54,0,2.6342e+07,-408.05,11394,11748,1,11748,1,0.00010247,-2.9817e-10,0,0.00010247,-2.7654e-05,3.1235e+07,-76.906,0,3.1235e+07,-24.237,11747,12524,1,12524,1,0.00014799,1.1352e-10,0,0.00014799,-1.9124e-05,4.4196e+07,28.629,0,4.4196e+07,-3.4593,12523,438.26,0,438.26,0,2.6106e-05,3.7785e-10,0,2.6106e-05,4.8924e-06,7.4672e+06,97.246,0,7.4672e+06,36.24,438.26,1
432,0.57,12137,1,12137,1,0.00012747,-3.7332e-11,0,0.00012747,-2.3807e-05,3.8399e+07,-9.474,0,3.8399e+07,-64,12136,12879,1,12879,1,0.00016801,1.3122e-09,0,0.00016801,-1.6209e-05,5.0072e+07,341.23,0,5.0072e+07,25.724,12878,12136,1,12136,1,0.00012747,-7.6309e-11,0,0.00012747,-2.3806e-05,3.8379e+07,-19.397,0,3.8379e+07,-31.968,12135,11395,1,11395,1,8.6925e-05,-1.092e-09,0,8.6925e-05,-3.1407e-05,2.6812e+07,-283.93,0,2.6812e+07,-511.38,11394,11748,1,11748,1,0.0001043,-3.0421e-10,0,0.0001043,-2.8149e-05,3.1792e+07,-76.744,0,3.1792e+07,-79.483,11747,12524,1,12524,1,0.00015064,1.4242e-10,0,0.00015064,-1.9465e-05,4.4985e+07,35.943,0,4.4985e+07,-11.823,12523,438.26,0,438.26,0,2.6572e-05,4.8332e-10,0,2.6572e-05,4.9799e-06,7.6005e+06,124.39,0,7.6005e+06,92.77,438.26,1
432,0.58,12137,1,12137,1,0.0001297,-7.7107e-11,0,0.0001297,-2.4224e-05,3.9073e+07,-19.713,0,3.9073e+07,9.0905,12136,12879,1,12879,1,0.00017096,1.191e-09,0,0.00017096,-1.6494e-05,5.095e+07,309.67,0,5.095e+07,126.84,12878,12136,1,12136,1,0.0001297,-4.8985e-11,0,0.0001297,-2.4224e-05,3.9052e+07,-12.301,0,3.9052e+07,1.9754,12135,11395,1,11395,1,8.845e-05,-1.1628e-09,0,8.845e-05,-3.1958e-05,2.7282e+07,-302.43,0,2.7282e+07,-206.94,11394,11748,1,11748,1,0.00010613,-3.2478e-10,0,0.00010613,-2.8642e-05,3.235e+07,-82.029,0,3.235e+07,-13.614,11747,12524,1,12524,1,0.00015328,1.3371e-10,0,0.00015328,-1.9807e-05,4.5775e+07,33.697,0,4.5775e+07,25.235,12523,438.26,0,438.26,0,2.7038e-05,4.2969e-10,0,2.7038e-05,5.0672e-06,7.7338e+06,110.58,0,7.7338e+06,42.722,438.26,1
432,0.59,12137,1,12137,1,0.00013194,-1.4583e-10,0,0.00013194,-2.4642e-05,3.9748e+07,-37.354,0,3.9748e+07,-11.517,12136,12879,1,12879,1,0.00017391,9.6911e-10,0,0.00017391,-1.6779e-05,5.183e+07,251.98,0,5.183e+07,28.509,12878,12136,1,12136,1,0.00013194,-7.3984e-11,0,0.00013194,-2.4642e-05,3.9726e+07,-18.585,0,3.9726e+07,-14.585,12135,11395,1,11395,1,8.9976e-05,-1.1748e-09,0,8.9976e-05,-3.2509e-05,2.7753e+07,-305.5,0,2.7753e+07,-114.53,11394,11748,1,11748,1,0.00010796,-3.7736e-10,0,0.00010796,-2.9136e-05,3.2909e+07,-96.353,0,3.2909e+07,-21.257,11747,12524,1,12524,1,0.00015592,9.6326e-11,0,0.00015592,-2.0149e-05,4.6565e+07,24.216,0,4.6565e+07,-1.1013,12523,438.26,0,438.26,0,2.7505e-05,4.1249e-10,0,2.7505e-05,5.1546e-06,7.8674e+06,106.18,0,7.8674e+06,14.895,438.26,1
432,0.6,12137,1,12137,1,0.00013418,-3.6934e-11,0,0.00013418,-2.506e-05,4.0421e+07,-9.4305,0,4.0421e+07,-17.648,12136,12879,1,12879,1,0.00017686,1.2259e-09,0,0.00017686,-1.7063e-05,5.2708e+07,318.76,0,5.2708e+07,20.919,12878,12136,1,12136,1,0.00013418,-3.2945e-11,0,0.00013418,-2.5059e-05,4.0399e+07,-8.2825,0,4.0399e+07,-8.8651,12135,11395,1,11395,1,9.1501e-05,-1.1233e-09,0,9.1501e-05,-3.306e-05,2.8223e+07,-292.1,0,2.8223e+07,-200.56,11394,11748,1,11748,1,0.00010979,-2.5745e-10,0,0.00010979,-2.963e-05,3.3466e+07,-65.155,0,3.3466e+07,-18.683,11747,12524,1,12524,1,0.00015857,1.8647e-10,0,0.00015857,-2.049e-05,4.7354e+07,47.32,0,4.7354e+07,-0.71139,12523,438.26,0,438.26,0,2.7971e-05,4.4849e-10,0,2.7971e-05,5.2419e-06,8.0006e+06,115.45,0,8.0006e+06,36.468,438.26,1
432,0.61,12137,1,12137,1,0.00013641,-1.5083e-10,0,0.00013641,-2.5477e-05,4.1094e+07,-38.663,0,4.1094e+07,-18.156,12136,12879,1,12879,1,0.0001798,1.4463e-09,0,0.0001798,-1.7347e-05,5.3586e+07,376.07,0,5.3586e+07,26.329,12878,12136,1,12136,1,0.00013641,-8.2938e-11,0,0.00013641,-2.5477e-05,4.1072e+07,-20.867,0,4.1072e+07,-21.906,12135,11395,1,11395,1,9.3024e-05,-1.6056e-09,0,9.3024e-05,-3.361e-05,2.8693e+07,-417.51,0,2.8693e+07,-58.091,11394,11748,1,11748,1,0.00011162,-4.9933e-10,0,0.00011162,-3.0123e-05,3.4023e+07,-127.15,0,3.4023e+07,-32.927,11747,12524,1,12524,1,0.00016121,1.5252e-10,0,0.00016121,-2.0831e-05,4.8142e+07,38.288,0,4.8142e+07,-4.6106,12523,438.26,0,438.26,0,2.8437e-05,5.9781e-10,0,2.8437e-05,5.3292e-06,8.1339e+06,153.84,0,8.1339e+06,18.331,438.26,1
432,0.62,12137,1,12137,1,0.00013865,-3.3882e-10,0,0.00013865,-2.5896e-05,4.1769e+07,-86.716,0,4.1769e+07,-111.36,12136,12879,1,12879,1,0.00018276,9.8507e-10,0,0.00018276,-1.7632e-05,5.4466e+07,256.23,0,5.4466e+07,39.977,12878,12136,1,12136,1,0.00013865,-2.3897e-10,0,0.00013865,-2.5895e-05,4.1746e+07,-60.281,0,4.1746e+07,-86.969,12135,11395,1,11395,1,9.4551e-05,-1.632e-09,0,9.4551e-05,-3.4162e-05,2.9164e+07,-424.44,0,2.9164e+07,-362.2,11394,11748,1,11748,1,0.00011345,-6.2591e-10,0,0.00011345,-3.0618e-05,3.4582e+07,-160.41,0,3.4582e+07,-172.09,11747,12524,1,12524,1,0.00016385,-3.9558e-11,0,0.00016385,-2.1173e-05,4.8932e+07,-10.108,0,4.8932e+07,-46.426,12523,438.26,0,438.26,0,2.8903e-05,4.8811e-10,0,2.8903e-05,5.4167e-06,8.2674e+06,125.84,0,8.2674e+06,83.76,438.26,1
432,0.63,12137,1,12137,1,0.00014089,-9.2657e-11,0,0.00014089,-2.6313e-05,4.2442e+07,-23.648,0,4.2442e+07,-126.77,12136,12879,1,12879,1,0.0001857,6.3495e-10,0,0.0001857,-1.7916e-05,5.5343e+07,165.09,0,5.5343e+07,-0.314,12878,12136,1,12136,1,0.00014089,-8.8358e-11,0,0.00014089,-2.6313e-05,4.2419e+07,-22.389,0,4.2419e+07,-112.1,12135,11395,1,11395,1,9.6077e-05,-6.9493e-10,0,9.6077e-05,-3.4713e-05,2.9635e+07,-180.68,0,2.9635e+07,-386.55,11394,11748,1,11748,1,0.00011528,-1.793e-10,0,0.00011528,-3.1112e-05,3.5139e+07,-45.577,0,3.5139e+07,-165.8,11747,12524,1,12524,1,0.00016649,-1.727e-12,0,0.00016649,-2.1515e-05,4.9721e+07,-0.43837,0,4.9721e+07,-79.751,12523,438.26,0,438.26,0,2.937e-05,2.0243e-10,0,2.937e-05,5.5041e-06,8.4008e+06,52.177,0,8.4008e+06,70.547,438.26,1
432,0.64,12137,1,12137,1,0.00014312,-1.1707e-10,0,0.00014312,-2.673e-05,4.3115e+07,-29.862,0,4.3115e+07,-10.126,12136,12879,1,12879,1,0.00018864,8.0797e-10,0,0.00018864,-1.82e-05,5.6221e+07,210.09,0,5.6221e+07,33.224,12878,12136,1,12136,1,0.00014312,-8.2382e-11,0,0.00014312,-2.6729e-05,4.3092e+07,-20.715,0,4.3092e+07,-8.1295,12135,11395,1,11395,1,9.76e-05,-9.5758e-10,0,9.76e-05,-3.5263e-05,3.0105e+07,-249.01,0,3.0105e+07,-129.52,11394,11748,1,11748,1,0.00011711,-3.1055e-10,0,0.00011711,-3.1605e-05,3.5697e+07,-79.443,0,3.5697e+07,-15.445,11747,12524,1,12524,1,0.00016913,4.0348e-11,0,0.00016913,-2.1856e-05,5.051e+07,10.299,0,5.051e+07,-0.10296,12523,438.26,0,438.26,0,2.9835e-05,3.2631e-10,0,2.9835e-05,5.5913e-06,8.534e+06,83.926,0,8.534e+06,20.035,438.26,1
432,0.65,12137,1,12137,1,0.00014537,-4.8661e-10,0,0.00014537,-2.715e-05,4.3792e+07,-124.73,0,4.3792e+07,-2.7597,12136,12879,1,12879,1,0.00019161,1.5617e-10,0,0.00019161,-1.8486e-05,5.7105e+07,39.205,0,5.7105e+07,25.193,12878,12136,1,12136,1,0.00014537,-3.9285e-10,0,0.00014537,-2.7149e-05,4.3769e+07,-99.209,0,4.3769e+07,2.7058,12135,11395,1,11395,1,9.9132e-05,-1.3639e-09,0,9.9132e-05,-3.5817e-05,3.0577e+07,-354.66,0,3.0577e+07,-365.87,11394,11748,1,11748,1,0.00011895,-7.7976e-10,0,0.00011895,-3.2101e-05,3.6257e+07,-199.15,0,3.6257e+07,-3.2922,11747,12524,1,12524,1,0.00017179,-1.6002e-10,0,0.00017179,-2.2199e-05,5.1303e+07,-40.216,0,5.1303e+07,9.5069,12523,438.26,0,438.26,0,3.0304e-05,3.8826e-10,0,3.0304e-05,5.6791e-06,8.668e+06,100.36,0,8.668e+06,36.813,438.26,1
432,0.66,12137,1,12137,1,0.0001476,-1.9009e-11,0,0.0001476,-2.7566e-05,4.4464e+07,-4.8656,0,4.4464e+07,-64.122,12136,12879,1,12879,1,0.00019454,7.2928e-10,0,0.00019454,-1.8769e-05,5.7979e+07,189.66,0,5.7979e+07,194.41,12878,12136,1,12136,1,0.0001476,-2.9116e-11,0,0.0001476,-2.7566e-05,4.444e+07,-7.3252,0,4.444e+07,-36.211,12135,11395,1,11395,1,0.00010065,-5.4767e-10,0,0.00010065,-3.6366e-05,3.1046e+07,-142.42,0,3.1046e+07,-387.96,11394,11748,1,11748,1,0.00012077,-1.2026e-10,0,0.00012077,-3.2593e-05,3.6813e+07,-30.931,0,3.6813e+07,-156.67,11747,12524,1,12524,1,0.00017442,6.202e-11,0,0.00017442,-2.2539e-05,5.2089e+07,15.774,0,5.2089e+07,42.329,12523,438.26,0,438.26,0,3.0768e-05,2.1798e-10,0,3.0768e-05,5.7662e-06,8.8008e+06,56.096,0,8.8008e+06,140.11,438.26,1
432,0.67,12137,1,12137,1,0.00014984,1.9169e-10,0,0.00014984,-2.7985e-05,4.5139e+07,49.216,0,4.5139e+07,-41.74,12136,12879,1,12879,1,0.0001975,1.8446e-09,0,0.0001975,-1.9054e-05,5.886e+07,479.64,0,5.886e+07,25.616,12878,12136,1,12136,1,0.00014984,6.5026e-11,0,0.00014984,-2.7984e-05,4.5115e+07,16.373,0,4.5115e+07,-42.656,12135,11395,1,11395,1,0.00010218,-8.8406e-10,0,0.00010218,-3.6919e-05,3.1517e+07,-229.89,0,3.1517e+07,-149.47,11394,11748,1,11748,1,0.00012261,-1.5359e-10,0,0.00012261,-3.3088e-05,3.7372e+07,-38.603,0,3.7372e+07,-58.161,11747,12524,1,12524,1,0.00017707,5.1338e-10,0,0.00017707,-2.2882e-05,5.2881e+07,130.36,0,5.2881e+07,-23.493,12523,438.26,0,438.26,0,3.1236e-05,5.493e-10,0,3.1236e-05,5.8537e-06,8.9344e+06,141.43,0,8.9344e+06,31.081,438.26,1
432,0.68,12137,1,12137,1,0.00015207,-1.311e-10,0,0.00015207,-2.8402e-05,4.5811e+07,-33.635,0,4.5811e+07,-11.442,12136,12879,1,12879,1,0.00020044,8.1775e-10,0,0.00020044,-1.9338e-05,5.9737e+07,212.64,0,5.9737e+07,27.161,12878,12136,1,12136,1,0.00015207,-6.4154e-11,0,0.00015207,-2.8401e-05,4.5787e+07,-16.141,0,4.5787e+07,-0.39676,12135,11395,1,11395,1,0.0001037,-1.0543e-09,0,0.0001037,-3.7468e-05,3.1987e+07,-274.13,0,3.1987e+07,-180.22,11394,11748,1,11748,1,0.00012443,-3.6418e-10,0,0.00012443,-3.3581e-05,3.7929e+07,-92.423,0,3.7929e+07,-17.848,11747,12524,1,12524,1,0.00017971,1.0541e-10,0,0.00017971,-2.3223e-05,5.3668e+07,26.572,0,5.3668e+07,10.285,12523,438.26,0,438.26,0,3.1701e-05,3.6831e-10,0,3.1701e-05,5.9409e-06,9.0676e+06,94.839,0,9.0676e+06,36.606,438.26,1
432,0.69,12137,1,12137,1,0.0001543,-5.3021e-10,0,0.0001543,-2.8819e-05,4.6484e+07,-135.92,0,4.6484e+07,-79.263,12136,12879,1,12879,1,0.00020339,9.5696e-10,0,0.00020339,-1.9622e-05,6.0615e+07,248.82,0,6.0615e+07,40.534,12878,12136,1,12136,1,0.00015431,-3.2653e-10,0,0.00015431,-2.8818e-05,4.6459e+07,-83.143,0,4.6459e+07,-69.305,12135,11395,1,11395,1,0.00010522,-2.2487e-09,0,0.00010522,-3.802e-05,3.2456e+07,-584.75,0,3.2456e+07,-195.26,11394,11748,1,11748,1,0.00012626,-1.0106e-09,0,0.00012626,-3.4074e-05,3.8486e+07,-255.79,0,3.8486e+07,-130.54,11747,12524,1,12524,1,0.00018235,-4.4831e-11,0,0.00018235,-2.3564e-05,5.4457e+07,-11.251,0,5.4457e+07,-38.43,12523,438.26,0,438.26,0,3.2166e-05,6.9651e-10,0,3.2166e-05,6.0281e-06,9.2007e+06,179.55,0,9.2007e+06,59.156,438.26,1
432,0.7,12137,1,12137,1,0.00015655,2.5371e-10,0,0.00015655,-2.9239e-05,4.7161e+07,65.239,0,4.7161e+07,-20.35,12136,12879,1,12879,1,0.00020635,7.5565e-10,0,0.00020635,-1.9908e-05,6.1497e+07,196.5,0,6.1497e+07,25.642,12878,12136,1,12136,1,0.00015655,2.8417e-10,0,0.00015655,-2.9238e-05,4.7135e+07,72.228,0,4.7135e+07,-7.8731,12135,11395,1,11395,1,0.00010676,-1.6082e-10,0,0.00010676,-3.8572e-05,3.2929e+07,-40.378,0,3.2929e+07,-195.78,11394,11748,1,11748,1,0.0001281,4.6378e-11,0,0.0001281,-3.457e-05,3.9046e+07,11.656,0,3.9046e+07,-19.841,11747,12524,1,12524,1,0.000185,4.6317e-10,0,0.000185,-2.3906e-05,5.5249e+07,119.33,0,5.5249e+07,4.5526,12523,438.26,0,438.26,0,3.2635e-05,2.4492e-10,0,3.2635e-05,6.116e-06,9.3348e+06,63.082,0,9.3348e+06,42.69,438.26,1
432,0.71,12137,1,12137,1,0.00015878,-7.7562e-11,0,0.00015878,-2.9656e-05,4.7834e+07,-19.833,0,4.7834e+07,-9.9633,12136,12879,1,12879,1,0.00020929,6.7862e-10,0,0.00020929,-2.0192e-05,6.2373e+07,176.45,0,6.2373e+07,21.941,12878,12136,1,12136,1,0.00015878,-6.275e-11,0,0.00015878,-2.9655e-05,4.7808e+07,-15.795,0,4.7808e+07,-9.9956,12135,11395,1,11395,1,0.00010828,-5.4653e-10,0,0.00010828,-3.9122e-05,3.3399e+07,-142.11,0,3.3399e+07,-71.657,11394,11748,1,11748,1,0.00012993,-2.3826e-10,0,0.00012993,-3.5063e-05,3.9603e+07,-60.495,0,3.9603e+07,-20.374,11747,12524,1,12524,1,0.00018764,3.6853e-11,0,0.00018764,-2.4247e-05,5.6037e+07,9.2554,0,5.6037e+07,0.48044,12523,438.26,0,438.26,0,3.3101e-05,2.3145e-10,0,3.3101e-05,6.2032e-06,9.4679e+06,59.59,0,9.4679e+06,16.232,438.26,1
432,0.72,12137,1,12137,1,0.00016102,-8.35e-11,0,0.00016102,-3.0072e-05,4.8506e+07,-21.387,0,4.8506e+07,-3.0688,12136,12879,1,12879,1,0.00021223,1.0205e-09,0,0.00021223,-2.0476e-05,6.3251e+07,265.36,0,6.3251e+07,21.229,12878,12136,1,12136,1,0.00016102,-5.6171e-11,0,0.00016102,-3.0072e-05,4.848e+07,-14.121,0,4.848e+07,-1.6556,12135,11395,1,11395,1,0.0001098,-9.7945e-10,0,0.0001098,-3.9672e-05,3.3869e+07,-254.69,0,3.3869e+07,-36.519,11394,11748,1,11748,1,0.00013175,-3.2266e-10,0,0.00013175,-3.5556e-05,4.016e+07,-83.288,0,4.016e+07,-11.475,11747,12524,1,12524,1,0.00019028,1.1646e-10,0,0.00019028,-2.4588e-05,5.6825e+07,29.611,0,5.6825e+07,6.2703,12523,438.26,0,438.26,0,3.3566e-05,3.8863e-10,0,3.3566e-05,6.2904e-06,9.601e+06,100.03,0,9.601e+06,13.217,438.26,1
432,0.73,12137,1,12137,1,0.00016325,-1.1381e-11,0,0.00016325,-3.049e-05,4.9179e+07,-2.7425,0,4.9179e+07,-5.9883,12136,12879,1,12879,1,0.00021518,1.3096e-09,0,0.00021518,-2.076e-05,6.4129e+07,340.5,0,6.4129e+07,23.888,12878,12136,1,12136,1,0.00016325,-4.4311e-11,0,0.00016325,-3.0489e-05,4.9153e+07,-11.129,0,4.9153e+07,-7.3755,12135,11395,1,11395,1,0.00011133,-9.8944e-10,0,0.00011133,-4.0223e-05,3.4339e+07,-257.29,0,3.4339e+07,-37.731,11394,11748,1,11748,1,0.00013358,-2.3661e-10,0,0.00013358,-3.605e-05,4.0718e+07,-59.567,0,4.0718e+07,-14.205,11747,12524,1,12524,1,0.00019292,2.0693e-10,0,0.00019292,-2.493e-05,5.7614e+07,52.374,0,5.7614e+07,2.3113,12523,438.26,0,438.26,0,3.4032e-05,4.2224e-10,0,3.4032e-05,6.3777e-06,9.7343e+06,108.64,0,9.7343e+06,12.739,438.26,1
432,0.74,12137,1,12137,1,0.0001655,-2.4296e-10,0,0.0001655,-3.091e-05,4.9857e+07,-62.253,0,4.9857e+07,0.22138,12136,12879,1,12879,1,0.00021815,1.9445e-10,0,0.00021815,-2.1046e-05,6.5013e+07,50.562,0,6.5013e+07,20.159,12878,12136,1,12136,1,0.0001655,-1.8805e-10,0,0.0001655,-3.0909e-05,4.9831e+07,-47.745,0,4.9831e+07,0.47813,12135,11395,1,11395,1,0.00011286,-8.3097e-10,0,0.00011286,-4.0778e-05,3.4812e+07,-216.08,0,3.4812e+07,-63.695,11394,11748,1,11748,1,0.00013542,-4.121e-10,0,0.00013542,-3.6547e-05,4.1279e+07,-105.37,0,4.1279e+07,-4.1955,11747,12524,1,12524,1,0.00019558,-6.2771e-11,0,0.00019558,-2.5273e-05,5.8409e+07,-15.995,0,5.8409e+07,9.3358,12523,438.26,0,438.26,0,3.4501e-05,2.4509e-10,0,3.4501e-05,6.4657e-06,9.8685e+06,63.251,0,9.8685e+06,13.642,438.26,1
432,0.75,12137,1,12137,1,0.00016773,-2.0845e-10,0,0.00016773,-3.1327e-05,5.0529e+07,-53.436,0,5.0529e+07,-6.0009,12136,12879,1,12879,1,0.00022109,1.1118e-10,0,0.00022109,-2.133e-05,6.5889e+07,28.905,0,6.5889e+07,6.9825,12878,12136,1,12136,1,0.00016773,-1.405e-10,0,0.00016773,-3.1326e-05,5.0502e+07,-36.03,0,5.0502e+07,-7.1447,12135,11395,1,11395,1,0.00011438,-8.6712e-10,0,0.00011438,-4.1327e-05,3.5281e+07,-225.48,0,3.5281e+07,-23.147,11394,11748,1,11748,1,0.00013725,-3.5416e-10,0,0.00013725,-3.704e-05,4.1835e+07,-90.411,0,4.1835e+07,-9.2653,11747,12524,1,12524,1,0.00019822,-2.1528e-11,0,0.00019822,-2.5614e-05,5.9196e+07,-5.4713,0,5.9196e+07,-1.792,12523,438.26,0,438.26,0,3.4966e-05,2.2503e-10,0,3.4966e-05,6.5528e-06,1.0002e+07,58.028,0,1.0002e+07,5.8183,438.26,1
432,0.76,12137,1,12137,1,0.00016996,-2.6352e-10,0,0.00016996,-3.1743e-05,5.12e+07,-67.524,0,5.12e+07,-15.343,12136,12879,1,12879,1,0.00022402,1.3652e-09,0,0.00022402,-2.1613e-05,6.6765e+07,354.98,0,6.6765e+07,28.965,12878,12136,1,12136,1,0.00016996,-1.5423e-10,0,0.00016996,-3.1742e-05,5.1173e+07,-38.761,0,5.1173e+07,-17.44,12135,11395,1,11395,1,0.0001159,-1.7217e-09,0,0.0001159,-4.1876e-05,3.575e+07,-447.7,0,3.575e+07,-49.147,11394,11748,1,11748,1,0.00013907,-6.8667e-10,0,0.00013907,-3.7532e-05,4.2391e+07,-174.26,0,4.2391e+07,-28.936,11747,12524,1,12524,1,0.00020085,9.5353e-11,0,0.00020085,-2.5954e-05,5.9982e+07,24.351,0,5.9982e+07,-3.7342,12523,438.26,0,438.26,0,3.543e-05,6.2343e-10,0,3.543e-05,6.6398e-06,1.0134e+07,160.46,0,1.0134e+07,17.596,438.26,1
432,0.77,12137,1,12137,1,0.0001722,-3.5197e-10,0,0.0001722,-3.2161e-05,5.1875e+07,-90.265,0,5.1875e+07,-10.477,12136,12879,1,12879,1,0.00022697,4.0195e-10,0,0.00022697,-2.1898e-05,6.7644e+07,104.5,0,6.7644e+07,17.198,12878,12136,1,12136,1,0.0001722,-2.4852e-10,0,0.0001722,-3.216e-05,5.1847e+07,-62.784,0,5.1847e+07,-11.927,12135,11395,1,11395,1,0.00011743,-1.4028e-09,0,0.00011743,-4.2428e-05,3.622e+07,-364.77,0,3.622e+07,-41.308,11394,11748,1,11748,1,0.0001409,-6.4442e-10,0,0.0001409,-3.8026e-05,4.2949e+07,-164.13,0,4.2949e+07,-18.45,11747,12524,1,12524,1,0.0002035,-2.3511e-11,0,0.0002035,-2.6296e-05,6.0772e+07,-5.9153,0,6.0772e+07,-0.83588,12523,438.26,0,438.26,0,3.5897e-05,4.1714e-10,0,3.5897e-05,6.7272e-06,1.0268e+07,107.53,0,1.0268e+07,11.858,438.26,1
432,0.78,12137,1,12137,1,0.00017445,-1.6527e-10,0,0.00017445,-3.2581e-05,5.2552e+07,-42.213,0,5.2552e+07,-4.3404,12136,12879,1,12879,1,0.00022994,3.5404e-10,0,0.00022994,-2.2184e-05,6.8527e+07,92.047,0,6.8527e+07,10.974,12878,12136,1,12136,1,0.00017445,-1.1518e-10,0,0.00017445,-3.258e-05,5.2524e+07,-29.147,0,5.2524e+07,-5.595,12135,11395,1,11395,1,0.00011896,-6.5817e-10,0,0.00011896,-4.2981e-05,3.6694e+07,-171.15,0,3.6694e+07,-25.621,11394,11748,1,11748,1,0.00014274,-2.6607e-10,0,0.00014274,-3.8523e-05,4.351e+07,-67.748,0,4.351e+07,-8.2709,11747,12524,1,12524,1,0.00020616,-5.4151e-11,0,0.00020616,-2.6639e-05,6.1566e+07,-13.822,0,6.1566e+07,0.43242,12523,438.26,0,438.26,0,3.6366e-05,1.8869e-10,0,3.6366e-05,6.8151e-06,1.0402e+07,48.664,0,1.0402e+07,6.7797,438.26,1
432,0.79,12137,1,12137,1,0.00017668,1.8956e-10,0,0.00017668,-3.2997e-05,5.3224e+07,48.705,0,5.3224e+07,-2.0476,12136,12879,1,12879,1,0.00023288,1.0977e-09,0,0.00023288,-2.2467e-05,6.9403e+07,285.43,0,6.9403e+07,16.275,12878,12136,1,12136,1,0.00017668,6.4946e-11,0,0.00017668,-3.2996e-05,5.3195e+07,16.347,0,5.3195e+07,-3.2999,12135,11395,1,11395,1,0.00012048,-4.2733e-10,0,0.00012048,-4.3531e-05,3.7162e+07,-111.12,0,3.7162e+07,-28.717,11394,11748,1,11748,1,0.00014457,-6.7233e-11,0,0.00014457,-3.9015e-05,4.4066e+07,-16.945,0,4.4066e+07,-8.1611,11747,12524,1,12524,1,0.00020879,4.2027e-10,0,0.00020879,-2.698e-05,6.2352e+07,107.98,0,6.2352e+07,4.477,12523,438.26,0,438.26,0,3.683e-05,3.6223e-10,0,3.683e-05,6.9022e-06,1.0535e+07,93.249,0,1.0535e+07,8.3875,438.26,1
432,0.8,12137,1,12137,1,0.00017891,-2.6576e-11,0,0.00017891,-3.3414e-05,5.3897e+07,-6.7788,0,5.3897e+07,-9.1963,12136,12879,1,12879,1,0.00023582,9.278e-10,0,0.00023582,-2.2751e-05,7.0279e+07,241.24,0,7.0279e+07,18.192,12878,12136,1,12136,1,0.00017891,-1.6035e-12,0,0.00017891,-3.3413e-05,5.3868e+07,-0.40173,0,5.3868e+07,-10.684,12135,11395,1,11395,1,0.00012201,-9.5408e-10,0,0.00012201,-4.4081e-05,3.7632e+07,-248.09,0,3.7632e+07,-39.47,11394,11748,1,11748,1,0.00014639,-1.7129e-10,0,0.00014639,-3.9508e-05,4.4623e+07,-43.473,0,4.4623e+07,-16.703,11747,12524,1,12524,1,0.00021143,1.288e-10,0,0.00021143,-2.7321e-05,6.314e+07,32.824,0,6.314e+07,-2.0079,12523,438.26,0,438.26,0,3.7296e-05,3.3203e-10,0,3.7296e-05,6.9894e-06,1.0668e+07,85.465,0,1.0668e+07,12.089,438.26,1
432,0.81,12137,1,12137,1,0.00018114,-3.1597e-10,0,0.00018114,-3.3831e-05,5.4569e+07,-80.955,0,5.4569e+07,-11.379,12136,12879,1,12879,1,0.00023876,1.0172e-09,0,0.00023876,-2.3035e-05,7.1157e+07,264.49,0,7.1157e+07,28.302,12878,12136,1,12136,1,0.00018114,-1.8608e-10,0,0.00018114,-3.383e-05,5.454e+07,-46.899,0,5.454e+07,-14.422,12135,11395,1,11395,1,0.00012353,-1.6974e-09,0,0.00012353,-4.4631e-05,3.8102e+07,-441.38,0,3.8102e+07,-44.119,11394,11748,1,11748,1,0.00014822,-6.5217e-10,0,0.00014822,-4.0001e-05,4.518e+07,-166.56,0,4.518e+07,-22.574,11747,12524,1,12524,1,0.00021407,2.2084e-11,0,0.00021407,-2.7662e-05,6.3928e+07,5.5496,0,6.3928e+07,-1.3293,12523,438.26,0,438.26,0,3.7761e-05,5.3315e-10,0,3.7761e-05,7.0766e-06,1.0801e+07,137.31,0,1.0801e+07,15.296,438.26,1
432,0.82,12137,1,12137,1,0.00018339,-2.2074e-10,0,0.00018339,-3.425e-05,5.5245e+07,-56.579,0,5.5245e+07,-7.7772,12136,12879,1,12879,1,0.00024172,8.4691e-10,0,0.00024172,-2.332e-05,7.2038e+07,220.21,0,7.2038e+07,27.165,12878,12136,1,12136,1,0.00018339,-1.4004e-10,0,0.00018339,-3.4249e-05,5.5215e+07,-35.3,0,5.5215e+07,-9.182,12135,11395,1,11395,1,0.00012506,-1.186e-09,0,0.00012506,-4.5184e-05,3.8573e+07,-308.41,0,3.8573e+07,-49.294,11394,11748,1,11748,1,0.00015006,-4.9029e-10,0,0.00015006,-4.0496e-05,4.5739e+07,-124.79,0,4.5739e+07,-16.48,11747,12524,1,12524,1,0.00021672,2.6015e-11,0,0.00021672,-2.8004e-05,6.472e+07,6.5584,0,6.472e+07,1.2687,12523,438.26,0,438.26,0,3.8229e-05,3.9612e-10,0,3.8229e-05,7.1643e-06,1.0935e+07,102.05,0,1.0935e+07,14.719,438.26,1
432,0.83,12137,1,12137,1,0.00018562,6.9777e-11,0,0.00018562,-3.4667e-05,5.5917e+07,17.939,0,5.5917e+07,-12.465,12136,12879,1,12879,1,0.00024466,1.5538e-09,0,0.00024466,-2.3604e-05,7.2914e+07,404.02,0,7.2914e+07,43.649,12878,12136,1,12136,1,0.00018562,2.6302e-11,0,0.00018562,-3.4666e-05,5.5887e+07,6.608,0,5.5887e+07,-16.931,12135,11395,1,11395,1,0.00012658,-1.0631e-09,0,0.00012658,-4.5733e-05,3.9043e+07,-276.45,0,3.9043e+07,-47.387,11394,11748,1,11748,1,0.00015188,-2.0928e-10,0,0.00015188,-4.0989e-05,4.6296e+07,-53.694,0,4.6296e+07,-26.468,11747,12524,1,12524,1,0.00021935,3.0023e-10,0,0.00021935,-2.8345e-05,6.5507e+07,76.642,0,6.5507e+07,0.16422,12523,438.26,0,438.26,0,3.8694e-05,4.9821e-10,0,3.8694e-05,7.2514e-06,1.1068e+07,128.23,0,1.1068e+07,17.877,438.26,1
432,0.84,12137,1,12137,1,0.00018786,-3.3327e-10,0,0.00018786,-3.5086e-05,5.6593e+07,-85.446,0,5.6593e+07,-5.1667,12136,12879,1,12879,1,0.00024762,8.5679e-11,0,0.00024762,-2.3889e-05,7.3796e+07,21.507,0,7.3796e+07,9.882,12878,12136,1,12136,1,0.00018786,-2.7551e-10,0,0.00018786,-3.5085e-05,5.6563e+07,-69.737,0,5.6563e+07,-6.4133,12135,11395,1,11395,1,0.00012811,-1.0493e-09,0,0.00012811,-4.6287e-05,3.9515e+07,-272.84,0,3.9515e+07,-21.854,11394,11748,1,11748,1,0.00015372,-5.4182e-10,0,0.00015372,-4.1484e-05,4.6855e+07,-137.9,0,4.6855e+07,-9.4966,11747,12524,1,12524,1,0.00022201,-8.3018e-11,0,0.00022201,-2.8688e-05,6.6299e+07,-21.024,0,6.6299e+07,-0.56594,12523,438.26,0,438.26,0,3.9162e-05,2.9693e-10,0,3.9162e-05,7.3391e-06,1.1202e+07,76.65,0,1.1202e+07,6.3409,438.26,1
432,0.85,12137,1,12137,1,0.00019009,-2.1003e-10,0,0.00019009,-3.5502e-05,5.7264e+07,-53.791,0,5.7264e+07,-11.745,12136,12879,1,12879,1,0.00025055,1.0326e-09,0,0.00025055,-2.4173e-05,7.4671e+07,268.49,0,7.4671e+07,19.618,12878,12136,1,12136,1,0.00019009,-1.1961e-10,0,0.00019009,-3.5501e-05,5.7234e+07,-30.234,0,5.7234e+07,-9.2803,12135,11395,1,11395,1,0.00012963,-1.3811e-09,0,0.00012963,-4.6835e-05,3.9983e+07,-359.12,0,3.9983e+07,-71.17,11394,11748,1,11748,1,0.00015554,-4.824e-10,0,0.00015554,-4.1976e-05,4.7411e+07,-123.56,0,4.7411e+07,-21.901,11747,12524,1,12524,1,0.00022464,5.7848e-11,0,0.00022464,-2.9028e-05,6.7086e+07,14.695,0,6.7086e+07,1.5417,12523,438.26,0,438.26,0,3.9626e-05,4.6295e-10,0,3.9626e-05,7.4261e-06,1.1335e+07,119.2,0,1.1335e+07,18.134,438.26,1
432,0.86,12137,1,12137,1,0.00019233,-3.0684e-10,0,0.00019233,-3.5921e-05,5.7939e+07,-78.651,0,5.7939e+07,-7.5788,12136,12879,1,12879,1,0.00025351,7.6131e-10,0,0.00025351,-2.4458e-05,7.5551e+07,197.95,0,7.5551e+07,21.474,12878,12136,1,12136,1,0.00019233,-1.6736e-10,0,0.00019233,-3.592e-05,5.7908e+07,-42.622,0,5.7908e+07,-6.4641,12135,11395,1,11395,1,0.00013116,-1.4735e-09,0,0.00013116,-4.7388e-05,4.0454e+07,-383.16,0,4.0454e+07,-55.241,11394,11748,1,11748,1,0.00015737,-6.5421e-10,0,0.00015737,-4.2471e-05,4.797e+07,-166.12,0,4.797e+07,-18.095,11747,12524,1,12524,1,0.00022729,3.3302e-11,0,0.00022729,-2.937e-05,6.7876e+07,8.3625,0,6.7876e+07,2.6884,12523,438.26,0,438.26,0,4.0093e-05,4.8195e-10,0,4.0093e-05,7.5137e-06,1.1468e+07,124.13,0,1.1468e+07,14.15,438.26,1
432,0.87,12137,1,12137,1,0.00019457,-4.6977e-11,0,0.00019457,-3.6338e-05,5.8612e+07,-12.009,0,5.8612e+07,-7.0243,12136,12879,1,12879,1,0.00025645,9.0188e-10,0,0.00025645,-2.4742e-05,7.6429e+07,234.51,0,7.6429e+07,20.197,12878,12136,1,12136,1,0.00019457,-3.1669e-11,0,0.00019457,-3.6337e-05,5.8581e+07,-7.9643,0,5.8581e+07,-6.0836,12135,11395,1,11395,1,0.00013268,-9.6634e-10,0,0.00013268,-4.7938e-05,4.0925e+07,-251.27,0,4.0925e+07,-39.237,11394,11748,1,11748,1,0.0001592,-2.404e-10,0,0.0001592,-4.2965e-05,4.8527e+07,-61.218,0,4.8527e+07,-15.675,11747,12524,1,12524,1,0.00022993,1.3196e-10,0,0.00022993,-2.9711e-05,6.8665e+07,33.489,0,6.8665e+07,-0.85575,12523,438.26,0,438.26,0,4.0559e-05,3.5656e-10,0,4.0559e-05,7.601e-06,1.1602e+07,91.753,0,1.1602e+07,11.774,438.26,1
432,0.88,12137,1,12137,1,0.0001968,-1.4194e-10,0,0.0001968,-3.6755e-05,5.9284e+07,-36.294,0,5.9284e+07,-12.615,12136,12879,1,12879,1,0.00025939,1.095e-09,0,0.00025939,-2.5026e-05,7.7305e+07,284.74,0,7.7305e+07,16.042,12878,12136,1,12136,1,0.0001968,-7.8454e-11,0,0.0001968,-3.6753e-05,5.9252e+07,-19.79,0,5.9252e+07,-16.176,12135,11395,1,11395,1,0.0001342,-1.366e-09,0,0.0001342,-4.8487e-05,4.1394e+07,-355.21,0,4.1394e+07,-33.816,11394,11748,1,11748,1,0.00016103,-4.0295e-10,0,0.00016103,-4.3457e-05,4.9084e+07,-103,0,4.9084e+07,-20.272,11747,12524,1,12524,1,0.00023256,7.9123e-11,0,0.00023256,-3.0052e-05,6.9452e+07,20.055,0,6.9452e+07,-5.9061,12523,438.26,0,438.26,0,4.1024e-05,4.5733e-10,0,4.1024e-05,7.6881e-06,1.1734e+07,117.66,0,1.1734e+07,11.099,438.26,1
432,0.89,12137,1,12137,1,0.00019904,-2.6366e-10,0,0.00019904,-3.7174e-05,5.996e+07,-67.514,0,5.996e+07,-5.6418,12136,12879,1,12879,1,0.00026235,9.9315e-10,0,0.00026235,-2.5311e-05,7.8187e+07,258.24,0,7.8187e+07,22.6,12878,12136,1,12136,1,0.00019904,-1.5359e-10,0,0.00019904,-3.7172e-05,5.9928e+07,-38.986,0,5.9928e+07,-5.4562,12135,11395,1,11395,1,0.00013573,-1.4831e-09,0,0.00013573,-4.904e-05,4.1866e+07,-385.65,0,4.1866e+07,-54.54,11394,11748,1,11748,1,0.00016286,-5.9906e-10,0,0.00016286,-4.3953e-05,4.9643e+07,-152.96,0,4.9643e+07,-14.458,11747,12524,1,12524,1,0.00023521,5.4005e-11,0,0.00023521,-3.0394e-05,7.0244e+07,13.649,0,7.0244e+07,6.4401,12523,438.26,0,438.26,0,4.1492e-05,5.0792e-10,0,4.1492e-05,7.7758e-06,1.1868e+07,130.79,0,1.1868e+07,15.163,438.26,1
432,0.9,12137,1,12137,1,0.00020128,3.3592e-11,0,0.00020128,-3.7592e-05,6.0635e+07,8.6225,0,6.0635e+07,-7.4219,12136,12879,1,12879,1,0.0002653,5.8356e-10,0,0.0002653,-2.5596e-05,7.9066e+07,151.74,0,7.9066e+07,6.6253,12878,12136,1,12136,1,0.00020128,1.1354e-11,0,0.00020128,-3.7591e-05,6.0602e+07,2.8521,0,6.0602e+07,-8.3032,12135,11395,1,11395,1,0.00013726,-3.1979e-10,0,0.00013726,-4.9592e-05,4.2337e+07,-83.154,0,4.2337e+07,-20.293,11394,11748,1,11748,1,0.0001647,-6.6813e-11,0,0.0001647,-4.4447e-05,5.0202e+07,-17.026,0,5.0202e+07,-12.302,11747,12524,1,12524,1,0.00023786,1.223e-10,0,0.00023786,-3.0737e-05,7.1034e+07,31.375,0,7.1034e+07,-2.8272,12523,438.26,0,438.26,0,4.1959e-05,1.7594e-10,0,4.1959e-05,7.8633e-06,1.2002e+07,45.271,0,1.2002e+07,5.8189,438.26,1
432,0.91,12137,1,12137,1,0.00020351,-2.3296e-10,0,0.00020351,-3.8009e-05,6.1308e+07,-59.634,0,6.1308e+07,-8.4653,12136,12879,1,12879,1,0.00026825,6.0795e-10,0,0.00026825,-2.588e-05,7.9944e+07,158.07,0,7.9944e+07,16.225,12878,12136,1,12136,1,0.00020351,-1.3287e-10,0,0.00020351,-3.8008e-05,6.1275e+07,-33.38,0,6.1275e+07,-11.005,12135,11395,1,11395,1,0.00013878,-1.2193e-09,0,0.00013878,-5.0143e-05,4.2807e+07,-317.07,0,4.2807e+07,-29.182,11394,11748,1,11748,1,0.00016653,-4.4205e-10,0,0.00016653,-4.4941e-05,5.0759e+07,-112.84,0,5.0759e+07,-16.19,11747,12524,1,12524,1,0.0002405,-3.1952e-12,0,0.0002405,-3.1078e-05,7.1823e+07,-0.80353,0,7.1823e+07,-1.6262,12523,438.26,0,438.26,0,4.2425e-05,3.6273e-10,0,4.2425e-05,7.9506e-06,1.2135e+07,93.45,0,1.2135e+07,10.771,438.26,1
432,0.92,12137,1,12137,1,0.00020575,-2.2214e-11,0,0.00020575,-3.8428e-05,6.1983e+07,-5.5548,0,6.1983e+07,-6.188,12136,12879,1,12879,1,0.0002712,8.5688e-10,0,0.0002712,-2.6165e-05,8.0824e+07,222.8,0,8.0824e+07,21.149,12878,12136,1,12136,1,0.00020575,-2.9609e-11,0,0.00020575,-3.8427e-05,6.195e+07,-7.4484,0,6.195e+07,-6.5136,12135,11395,1,11395,1,0.00014031,-7.8136e-10,0,0.00014031,-5.0694e-05,4.3278e+07,-203.18,0,4.3278e+07,-57.022,11394,11748,1,11748,1,0.00016836,-1.8856e-10,0,0.00016836,-4.5435e-05,5.1318e+07,-47.432,0,5.1318e+07,-11.284,11747,12524,1,12524,1,0.00024315,1.5651e-10,0,0.00024315,-3.142e-05,7.2614e+07,39.643,0,7.2614e+07,2.6553,12523,438.26,0,438.26,0,4.2892e-05,3.0181e-10,0,4.2892e-05,8.0381e-06,1.2269e+07,77.669,0,1.2269e+07,13.447,438.26,1
432,0.93,12137,1,12137,1,0.00020798,-2.6573e-10,0,0.00020798,-3.8844e-05,6.2654e+07,-68.126,0,6.2654e+07,-8.4006,12136,12879,1,12879,1,0.00027414,6.5805e-10,0,0.00027414,-2.6448e-05,8.1699e+07,171.09,0,8.1699e+07,20.578,12878,12136,1,12136,1,0.00020798,-1.5608e-10,0,0.00020798,-3.8842e-05,6.262e+07,-39.538,0,6.262e+07,-9.8662,12135,11395,1,11395,1,0.00014183,-1.306e-09,0,0.00014183,-5.1243e-05,4.3746e+07,-339.59,0,4.3746e+07,-36.261,11394,11748,1,11748,1,0.00017018,-5.183e-10,0,0.00017018,-4.5927e-05,5.1873e+07,-133.16,0,5.1873e+07,-16.528,11747,12524,1,12524,1,0.00024578,-4.7402e-12,0,0.00024578,-3.176e-05,7.34e+07,-1.1916,0,7.34e+07,-0.36371,12523,438.26,0,438.26,0,4.3356e-05,3.8343e-10,0,4.3356e-05,8.1251e-06,1.2401e+07,98.8,0,1.2401e+07,12.029,438.26,1
432,0.94,12137,1,12137,1,0.00021022,-1.8543e-10,0,0.00021022,-3.9262e-05,6.3329e+07,-47.539,0,6.3329e+07,-15.01,12136,12879,1,12879,1,0.00027709,1.1232e-09,0,0.00027709,-2.6733e-05,8.2579e+07,292.04,0,8.2579e+07,27.031,12878,12136,1,12136,1,0.00021022,-9.5566e-11,0,0.00021022,-3.9261e-05,6.3295e+07,-24.04,0,6.3295e+07,-15.17,12135,11395,1,11395,1,0.00014336,-1.2871e-09,0,0.00014336,-5.1795e-05,4.4218e+07,-334.68,0,4.4218e+07,-70.833,11394,11748,1,11748,1,0.00017201,-4.7566e-10,0,0.00017201,-4.6422e-05,5.2432e+07,-121.11,0,5.2432e+07,-25.45,11747,12524,1,12524,1,0.00024843,8.5987e-11,0,0.00024843,-3.2102e-05,7.419e+07,21.838,0,7.419e+07,-2.3162,12523,438.26,0,438.26,0,4.3823e-05,4.5544e-10,0,4.3823e-05,8.2126e-06,1.2535e+07,117.24,0,1.2535e+07,19.071,438.26,1
432,0.95,12137,1,12137,1,0.00021247,-4.6084e-10,0,0.00021247,-3.9681e-05,6.4005e+07,-118.2,0,6.4005e+07,-5.1411,12136,12879,1,12879,1,0.00028005,8.5635e-11,0,0.00028005,-2.7018e-05,8.3461e+07,21.497,0,8.3461e+07,6.2748,12878,12136,1,12136,1,0.00021247,-4.7931e-10,0,0.00021247,-3.968e-05,6.397e+07,-121.76,0,6.397e+07,-4.9729,12135,11395,1,11395,1,0.00014489,-1.072e-09,0,0.00014489,-5.2349e-05,4.4689e+07,-278.75,0,4.4689e+07,-22.674,11394,11748,1,11748,1,0.00017385,-7.3008e-10,0,0.00017385,-4.6917e-05,5.2992e+07,-187.4,0,5.2992e+07,-7.9143,11747,12524,1,12524,1,0.00025108,-1.6645e-10,0,0.00025108,-3.2445e-05,7.4982e+07,-41.892,0,7.4982e+07,-1.7467,12523,438.26,0,438.26,0,4.4291e-05,3.3149e-10,0,4.4291e-05,8.3003e-06,1.2669e+07,85.719,0,1.2669e+07,4.8722,438.26,1
432,0.96,12137,1,12137,1,0.0002147,-4.1039e-11,0,0.0002147,-4.0098e-05,6.4677e+07,-10.494,0,6.4677e+07,-9.848,12136,12879,1,12879,1,0.00028299,1.0535e-09,0,0.00028299,-2.7302e-05,8.4337e+07,273.94,0,8.4337e+07,19.872,12878,12136,1,12136,1,0.0002147,-2.2406e-11,0,0.0002147,-4.0097e-05,6.4642e+07,-5.6252,0,6.4642e+07,-11.655,12135,11395,1,11395,1,0.00014641,-1.0867e-09,0,0.00014641,-5.2898e-05,4.5159e+07,-282.58,0,4.5159e+07,-33.97,11394,11748,1,11748,1,0.00017568,-2.5788e-10,0,0.00017568,-4.741e-05,5.3548e+07,-65.87,0,5.3548e+07,-19.115,11747,12524,1,12524,1,0.00025372,1.5638e-10,0,0.00025372,-3.2785e-05,7.577e+07,40.486,0,7.577e+07,-2.1575,12523,438.26,0,438.26,0,4.4756e-05,4.0989e-10,0,4.4756e-05,8.3875e-06,1.2802e+07,105.47,0,1.2802e+07,12.141,438.26,1
432,0.97,12137,1,12137,1,0.00021693,-4.8405e-10,0,0.00021693,-4.0516e-05,6.5351e+07,-124.08,0,6.5351e+07,-6.5002,12136,12879,1,12879,1,0.00028594,1.28e-10,0,0.00028594,-2.7586e-05,8.5216e+07,32.131,0,8.5216e+07,14.97,12878,12136,1,12136,1,0.00021693,-3.985e-10,0,0.00021693,-4.0515e-05,6.5316e+07,-100.44,0,6.5316e+07,-7.3578,12135,11395,1,11395,1,0.00014793,-1.5114e-09,0,0.00014793,-5.345e-05,4.5629e+07,-393.02,0,4.5629e+07,-32.59,11394,11748,1,11748,1,0.00017751,-7.8992e-10,0,0.00017751,-4.7904e-05,5.4106e+07,-201.73,0,5.4106e+07,-12.726,11747,12524,1,12524,1,0.00025636,-1.2369e-10,0,0.00025636,-3.3127e-05,7.6559e+07,-31.473,0,7.6559e+07,-0.29013,12523,438.26,0,438.26,0,4.5222e-05,4.3019e-10,0,4.5222e-05,8.4749e-06,1.2935e+07,111.07,0,1.2935e+07,9.1532,438.26,1
432,0.98,12137,1,12137,1,0.00021917,-1.4545e-10,0,0.00021917,-4.0934e-05,6.6026e+07,-37.309,0,6.6026e+07,-3.3341,12136,12879,1,12879,1,0.00028889,7.2549e-10,0,0.00028889,-2.7871e-05,8.6096e+07,188.64,0,8.6096e+07,15.637,12878,12136,1,12136,1,0.00021917,-7.5557e-11,0,0.00021917,-4.0933e-05,6.599e+07,-19.457,0,6.599e+07,-3.7756,12135,11395,1,11395,1,0.00014946,-9.9699e-10,0,0.00014946,-5.4001e-05,4.6101e+07,-259.26,0,4.6101e+07,-24.58,11394,11748,1,11748,1,0.00017934,-3.7571e-10,0,0.00017934,-4.8399e-05,5.4665e+07,-96.049,0,5.4665e+07,-12.902,11747,12524,1,12524,1,0.00025901,7.161e-11,0,0.00025901,-3.3469e-05,7.735e+07,18.179,0,7.735e+07,7.4445,12523,438.26,0,438.26,0,4.5689e-05,3.5422e-10,0,4.5689e-05,8.5624e-06,1.3069e+07,91.172,0,1.3069e+07,11.062,438.26,1
432,0.99,12137,1,12137,1,0.00022141,-1.4923e-10,0,0.00022141,-4.1352e-05,6.6699e+07,-38.271,0,6.6699e+07,-10.768,12136,12879,1,12879,1,0.00029184,6.885e-10,0,0.00029184,-2.8156e-05,8.6974e+07,179.02,0,8.6974e+07,18.362,12878,12136,1,12136,1,0.00022141,-7.8877e-11,0,0.00022141,-4.1351e-05,6.6664e+07,-19.864,0,6.6664e+07,-11.15,12135,11395,1,11395,1,0.00015099,-9.865e-10,0,0.00015099,-5.4552e-05,4.6571e+07,-256.52,0,4.6571e+07,-44.908,11394,11748,1,11748,1,0.00018117,-3.624e-10,0,0.00018117,-4.8893e-05,5.5223e+07,-92.524,0,5.5223e+07,-19.138,11747,12524,1,12524,1,0.00026165,7.2231e-11,0,0.00026165,-3.3811e-05,7.8139e+07,18.146,0,7.8139e+07,-1.815,12523,438.26,0,438.26,0,4.6155e-05,3.3606e-10,0,4.6155e-05,8.6498e-06,1.3202e+07,86.525,0,1.3202e+07,12.981,438.26,1
432,1,12137,1,12137,1,0.00022365,2.4323e-10,0,0.00022365,-4.1771e-05,6.7375e+07,62.603,0,6.7375e+07,5.098,12136,12879,1,12879,1,0.00029479,8.9596e-10,0,0.00029479,-2.8441e-05,8.7855e+07,232.98,0,8.7855e+07,27.251,12878,12136,1,12136,1,0.00022365,2.2708e-10,0,0.00022365,-4.1769e-05,6.7339e+07,57.666,0,6.7339e+07,6.015,12135,11395,1,11395,1,0.00015252,-2.2089e-10,0,0.00015252,-5.5105e-05,4.7042e+07,-55.46,0,4.7042e+07,-15.947,11394,11748,1,11748,1,0.000183,1.0017e-11,0,0.000183,-4.9388e-05,5.5782e+07,2.5248,0,5.5782e+07,-0.17979,11747,12524,1,12524,1,0.0002643,4.3743e-10,0,0.0002643,-3.4153e-05,7.893e+07,111.8,0,7.893e+07,9.6388,12523,438.26,0,438.26,0,4.6623e-05,2.7946e-10,0,4.6623e-05,8.7374e-06,1.3336e+07,71.914,0,1.3336e+07,8.0077,438.26,1
432,1.01,12137,1,12137,1,0.00022588,2.3363e-10,0,0.00022588,-4.2187e-05,6.8047e+07,60.056,0,6.8047e+07,-2.2908,12136,12879,1,12879,1,0.00029773,1.075e-09,0,0.00029773,-2.8724e-05,8.8732e+07,279.52,0,8.8732e+07,13.349,12878,12136,1,12136,1,0.00022588,1.5637e-10,0,0.00022588,-4.2186e-05,6.801e+07,39.415,0,6.801e+07,-1.2216,12135,11395,1,11395,1,0.00015404,-2.0124e-10,0,0.00015404,-5.5654e-05,4.7512e+07,-50.519,0,4.7512e+07,-35.164,11394,11748,1,11748,1,0.00018483,-9.5695e-12,0,0.00018483,-4.9881e-05,5.6339e+07,-2.4211,0,5.6339e+07,-4.7211,11747,12524,1,12524,1,0.00026694,4.5112e-10,0,0.00026694,-3.4494e-05,7.9718e+07,115.86,0,7.9718e+07,2.5278,12523,438.26,0,438.26,0,4.7088e-05,2.8734e-10,0,4.7088e-05,8.8245e-06,1.3469e+07,74.005,0,1.3469e+07,8.9695,438.26,1
432,1.02,12137,1,12137,1,0.00022812,-1.1197e-11,0,0.00022812,-4.2604e-05,6.872e+07,-2.8342,0,6.872e+07,-4.7309,12136,12879,1,12879,1,0.00030067,1.136e-09,0,0.00030067,-2.9009e-05,8.9608e+07,295.38,0,8.9608e+07,17.603,12878,12136,1,12136,1,0.00022812,-9.1888e-12,0,0.00022812,-4.2603e-05,6.8683e+07,-2.3067,0,6.8683e+07,-4.1214,12135,11395,1,11395,1,0.00015556,-8.1348e-10,0,0.00015556,-5.6204e-05,4.7982e+07,-211.54,0,4.7982e+07,-33.766,11394,11748,1,11748,1,0.00018666,-2.1182e-10,0,0.00018666,-5.0374e-05,5.6896e+07,-54.191,0,5.6896e+07,-15.39,11747,12524,1,12524,1,0.00026958,1.4712e-10,0,0.00026958,-3.4835e-05,8.0506e+07,37.492,0,8.0506e+07,6.3499,12523,438.26,0,438.26,0,4.7554e-05,3.6083e-10,0,4.7554e-05,8.9118e-06,1.3602e+07,92.854,0,1.3602e+07,12.301,438.26,1
432,1.03,12137,1,12137,1,0.00023036,-6.5038e-11,0,0.00023036,-4.3023e-05,6.9395e+07,-16.674,0,6.9395e+07,-4.4555,12136,12879,1,12879,1,0.00030363,4.8707e-10,0,0.00030363,-2.9294e-05,9.0488e+07,126.65,0,9.0488e+07,12.2,12878,12136,1,12136,1,0.00023036,-2.8197e-11,0,0.00023036,-4.3021e-05,6.9357e+07,-7.0886,0,6.9357e+07,-5.117,12135,11395,1,11395,1,0.00015709,-5.8036e-10,0,0.00015709,-5.6756e-05,4.8453e+07,-150.91,0,4.8453e+07,-19.2,11394,11748,1,11748,1,0.00018849,-1.9199e-10,0,0.00018849,-5.0868e-05,5.7454e+07,-49.029,0,5.7454e+07,-9.6171,11747,12524,1,12524,1,0.00027222,6.5244e-11,0,0.00027222,-3.5177e-05,8.1296e+07,16.516,0,8.1296e+07,1.1999,12523,438.26,0,438.26,0,4.8021e-05,2.1212e-10,0,4.8021e-05,8.9993e-06,1.3736e+07,54.613,0,1.3736e+07,6.9679,438.26,1
432,1.04,12137,1,12137,1,0.00023259,-6.8072e-11,0,0.00023259,-4.344e-05,7.0067e+07,-17.391,0,7.0067e+07,-14.114,12136,12879,1,12879,1,0.00030657,1.0792e-09,0,0.00030657,-2.9578e-05,9.1365e+07,280.61,0,9.1365e+07,20.112,12878,12136,1,12136,1,0.00023259,-3.1314e-11,0,0.00023259,-4.3438e-05,7.003e+07,-7.8979,0,7.003e+07,-15.636,12135,11395,1,11395,1,0.00015861,-1.1954e-09,0,0.00015861,-5.7306e-05,4.8922e+07,-310.85,0,4.8922e+07,-60.932,11394,11748,1,11748,1,0.00019032,-2.6931e-10,0,0.00019032,-5.1361e-05,5.8011e+07,-68.61,0,5.8011e+07,-25.2,11747,12524,1,12524,1,0.00027486,1.4353e-10,0,0.00027486,-3.5518e-05,8.2084e+07,36.563,0,8.2084e+07,-3.2045,12523,438.26,0,438.26,0,4.8486e-05,4.1587e-10,0,4.8486e-05,9.0865e-06,1.3869e+07,107.03,0,1.3869e+07,16.184,438.26,1
432,1.05,12137,1,12137,1,0.00023482,-9.0324e-12,0,0.00023482,-4.3857e-05,7.074e+07,-2.2539,0,7.074e+07,-6.34,12136,12879,1,12879,1,0.00030951,6.0214e-10,0,0.00030951,-2.9862e-05,9.2243e+07,156.57,0,9.2243e+07,11.407,12878,12136,1,12136,1,0.00023482,-4.4401e-12,0,0.00023482,-4.3856e-05,7.0702e+07,-1.1164,0,7.0702e+07,-6.6277,12135,11395,1,11395,1,0.00016014,-7.7759e-10,0,0.00016014,-5.7857e-05,4.9392e+07,-202.19,0,4.9392e+07,-23.437,11394,11748,1,11748,1,0.00019215,-1.2208e-10,0,0.00019215,-5.1855e-05,5.8568e+07,-30.708,0,5.8568e+07,-12.456,11747,12524,1,12524,1,0.0002775,1.3814e-10,0,0.0002775,-3.5859e-05,8.2873e+07,34.956,0,8.2873e+07,-1.3287,12523,438.26,0,438.26,0,4.8952e-05,2.6116e-10,0,4.8952e-05,9.1738e-06,1.4002e+07,67.172,0,1.4002e+07,7.2903,438.26,1
432,1.06,12137,1,12137,1,0.00023707,1.1251e-10,0,0.00023707,-4.4276e-05,7.1415e+07,28.994,0,7.1415e+07,-6.7969,12136,12879,1,12879,1,0.00031247,1.1632e-09,0,0.00031247,-3.0147e-05,9.3124e+07,302.44,0,9.3124e+07,18.996,12878,12136,1,12136,1,0.00023707,1.4967e-11,0,0.00023707,-4.4274e-05,7.1377e+07,3.7984,0,7.1377e+07,-7.1638,12135,11395,1,11395,1,0.00016166,-5.9263e-10,0,0.00016166,-5.8409e-05,4.9863e+07,-154.1,0,4.9863e+07,-28.487,11394,11748,1,11748,1,0.00019398,-1.0593e-10,0,0.00019398,-5.235e-05,5.9128e+07,-26.844,0,5.9128e+07,-14.529,11747,12524,1,12524,1,0.00028015,3.1164e-10,0,0.00028015,-3.6201e-05,8.3664e+07,80.076,0,8.3664e+07,-0.27711,12523,438.26,0,438.26,0,4.9419e-05,3.4575e-10,0,4.9419e-05,9.2613e-06,1.4136e+07,89.006,0,1.4136e+07,10.289,438.26,1
432,1.07,12137,1,12137,1,0.0002393,-4.7405e-11,0,0.0002393,-4.4692e-05,7.2087e+07,-12.098,0,7.2087e+07,-9.621,12136,12879,1,12879,1,0.00031541,9.6906e-10,0,0.00031541,-3.043e-05,9.4e+07,251.96,0,9.4e+07,15.397,12878,12136,1,12136,1,0.0002393,-1.8866e-11,0,0.0002393,-4.4691e-05,7.2049e+07,-4.7438,0,7.2049e+07,-12.066,12135,11395,1,11395,1,0.00016318,-1.0225e-09,0,0.00016318,-5.8959e-05,5.0333e+07,-265.87,0,5.0333e+07,-32.969,11394,11748,1,11748,1,0.0001958,-2.0351e-10,0,0.0001958,-5.2842e-05,5.9684e+07,-51.648,0,5.9684e+07,-17.814,11747,12524,1,12524,1,0.00028279,1.1717e-10,0,0.00028279,-3.6542e-05,8.4451e+07,29.537,0,8.4451e+07,-2.7657,12523,438.26,0,438.26,0,4.9884e-05,3.4732e-10,0,4.9884e-05,9.3485e-06,1.4269e+07,89.378,0,1.4269e+07,10.831,438.26,1
432,1.08,12137,1,12137,1,0.00024153,-2.7637e-10,0,0.00024153,-4.511e-05,7.2762e+07,-70.937,0,7.2762e+07,-10.501,12136,12879,1,12879,1,0.00031836,7.2661e-10,0,0.00031836,-3.0715e-05,9.488e+07,188.92,0,9.488e+07,21.279,12878,12136,1,12136,1,0.00024154,-1.5801e-10,0,0.00024154,-4.5109e-05,7.2723e+07,-39.953,0,7.2723e+07,-12.233,12135,11395,1,11395,1,0.00016471,-1.3797e-09,0,0.00016471,-5.9511e-05,5.0803e+07,-358.76,0,5.0803e+07,-42.397,11394,11748,1,11748,1,0.00019764,-5.8401e-10,0,0.00019764,-5.3337e-05,6.0242e+07,-149.51,0,6.0242e+07,-20.292,11747,12524,1,12524,1,0.00028543,4.0242e-11,0,0.00028543,-3.6884e-05,8.5241e+07,10.171,0,8.5241e+07,-1.5305,12523,438.26,0,438.26,0,5.0351e-05,4.4331e-10,0,5.0351e-05,9.4359e-06,1.4402e+07,114.16,0,1.4402e+07,13.255,438.26,1
432,1.09,12137,1,12137,1,0.00024377,-2.0818e-10,0,0.00024377,-4.5528e-05,7.3435e+07,-53.414,0,7.3435e+07,-8.3054,12136,12879,1,12879,1,0.00032131,6.2603e-10,0,0.00032131,-3.0999e-05,9.5758e+07,162.77,0,9.5758e+07,18.375,12878,12136,1,12136,1,0.00024377,-1.0856e-10,0,0.00024377,-4.5527e-05,7.3396e+07,-27.36,0,7.3396e+07,-8.7273,12135,11395,1,11395,1,0.00016624,-1.095e-09,0,0.00016624,-6.0061e-05,5.1274e+07,-284.72,0,5.1274e+07,-39.944,11394,11748,1,11748,1,0.00019947,-4.5068e-10,0,0.00019947,-5.3831e-05,6.08e+07,-115.2,0,6.08e+07,-16.469,11747,12524,1,12524,1,0.00028808,2.5724e-11,0,0.00028808,-3.7225e-05,8.603e+07,6.4602,0,8.603e+07,0.27415,12523,438.26,0,438.26,0,5.0817e-05,3.5259e-10,0,5.0817e-05,9.5233e-06,1.4536e+07,90.807,0,1.4536e+07,12.359,438.26,1
432,1.1,12137,1,12137,1,0.00024601,-7.5251e-11,0,0.00024601,-4.5946e-05,7.411e+07,-19.176,0,7.411e+07,-4.2335,12136,12879,1,12879,1,0.00032426,8.5648e-10,0,0.00032426,-3.1284e-05,9.6637e+07,222.69,0,9.6637e+07,16.924,12878,12136,1,12136,1,0.00024601,-4.8102e-11,0,0.00024601,-4.5945e-05,7.407e+07,-12.129,0,7.407e+07,-3.7165,12135,11395,1,11395,1,0.00016776,-8.9698e-10,0,0.00016776,-6.0613e-05,5.1745e+07,-233.25,0,5.1745e+07,-45.404,11394,11748,1,11748,1,0.0002013,-2.417e-10,0,0.0002013,-5.4325e-05,6.1358e+07,-61.806,0,6.1358e+07,-11.045,11747,12524,1,12524,1,0.00029072,7.8968e-11,0,0.00029072,-3.7567e-05,8.682e+07,19.96,0,8.682e+07,5.451,12523,438.26,0,438.26,0,5.1283e-05,3.215e-10,0,5.1283e-05,9.6108e-06,1.4669e+07,82.749,0,1.4669e+07,12.238,438.26,1
432,1.11,12137,1,12137,1,0.00024824,-5.1066e-12,0,0.00024824,-4.6363e-05,7.4782e+07,-1.355,0,7.4782e+07,-10.908,12136,12879,1,12879,1,0.0003272,9.6226e-10,0,0.0003272,-3.1568e-05,9.7514e+07,250.2,0,9.7514e+07,12.534,12878,12136,1,12136,1,0.00024824,2.3161e-11,0,0.00024824,-4.6362e-05,7.4742e+07,5.8158,0,7.4742e+07,-11.904,12135,11395,1,11395,1,0.00016929,-1.0367e-09,0,0.00016929,-6.1163e-05,5.2214e+07,-269.58,0,5.2214e+07,-35.215,11394,11748,1,11748,1,0.00020313,-1.6902e-10,0,0.00020313,-5.4818e-05,6.1915e+07,-43.069,0,6.1915e+07,-17.698,11747,12524,1,12524,1,0.00029336,1.7203e-10,0,0.00029336,-3.7908e-05,8.7608e+07,44.536,0,8.7608e+07,-5.5154,12523,438.26,0,438.26,0,5.1749e-05,3.5787e-10,0,5.1749e-05,9.698e-06,1.4802e+07,92.023,0,1.4802e+07,9.7684,438.26,1
432,1.12,12137,1,12137,1,0.00025048,-8.6617e-11,0,0.00025048,-4.678e-05,7.5455e+07,-22.178,0,7.5455e+07,-11.431,12136,12879,1,12879,1,0.00033014,1.4714e-09,0,0.00033014,-3.1852e-05,9.8391e+07,382.59,0,9.8391e+07,19.442,12878,12136,1,12136,1,0.00025048,-5.5033e-11,0,0.00025048,-4.6779e-05,7.5415e+07,-13.815,0,7.5415e+07,-10.498,12135,11395,1,11395,1,0.00017081,-1.4209e-09,0,0.00017081,-6.1713e-05,5.2684e+07,-369.47,0,5.2684e+07,-50.565,11394,11748,1,11748,1,0.00020495,-3.7966e-10,0,0.00020495,-5.5311e-05,6.2472e+07,-97.567,0,6.2472e+07,-20.676,11747,12524,1,12524,1,0.000296,1.3274e-10,0,0.000296,-3.8249e-05,8.8396e+07,33.485,0,8.8396e+07,-2.968,12523,438.26,0,438.26,0,5.2214e-05,5.2667e-10,0,5.2214e-05,9.7852e-06,1.4935e+07,135.49,0,1.4935e+07,14.278,438.26,1
432,1.13,12137,1,12137,1,0.00025272,-1.1267e-10,0,0.00025272,-4.72e-05,7.6131e+07,-28.948,0,7.6131e+07,-8.6501,12136,12879,1,12879,1,0.0003331,5.252e-10,0,0.0003331,-3.2137e-05,9.9273e+07,136.56,0,9.9273e+07,11.498,12878,12136,1,12136,1,0.00025272,-2.6244e-11,0,0.00025272,-4.7198e-05,7.6091e+07,-6.6421,0,7.6091e+07,-9.474,12135,11395,1,11395,1,0.00017234,-1.0351e-09,0,0.00017234,-6.2266e-05,5.3156e+07,-269.15,0,5.3156e+07,-31.548,11394,11748,1,11748,1,0.00020679,-2.8672e-10,0,0.00020679,-5.5807e-05,6.3032e+07,-72.313,0,6.3032e+07,-15.025,11747,12524,1,12524,1,0.00029865,8.8567e-11,0,0.00029865,-3.8592e-05,8.9189e+07,22.535,0,8.9189e+07,-2.7353,12523,438.26,0,438.26,0,5.2682e-05,3.0941e-10,0,5.2682e-05,9.8729e-06,1.5069e+07,79.616,0,1.5069e+07,9.1359,438.26,1
432,1.14,12137,1,12137,1,0.00025495,-1.9533e-10,0,0.00025495,-4.7617e-05,7.6804e+07,-50.036,0,7.6804e+07,-5.8789,12136,12879,1,12879,1,0.00033605,1.0246e-09,0,0.00033605,-3.2422e-05,1.0015e+08,266.42,0,1.0015e+08,22.088,12878,12136,1,12136,1,0.00025496,-1.07e-10,0,0.00025496,-4.7615e-05,7.6764e+07,-26.894,0,7.6764e+07,-6.6667,12135,11395,1,11395,1,0.00017386,-1.3399e-09,0,0.00017386,-6.2817e-05,5.3626e+07,-348.42,0,5.3626e+07,-32.192,11394,11748,1,11748,1,0.00020862,-4.7838e-10,0,0.00020862,-5.63e-05,6.3589e+07,-121.84,0,6.3589e+07,-14.281,11747,12524,1,12524,1,0.00030129,7.1057e-11,0,0.00030129,-3.8933e-05,8.9977e+07,17.922,0,8.9977e+07,1.4753,12523,438.26,0,438.26,0,5.3148e-05,4.6725e-10,0,5.3148e-05,9.9602e-06,1.5203e+07,120.26,0,1.5203e+07,11.307,438.26,1
432,1.15,12137,1,12137,1,0.0002572,-3.3832e-10,0,0.0002572,-4.8035e-05,7.7479e+07,-86.924,0,7.7479e+07,-3.897,12136,12879,1,12879,1,0.00033901,3.9752e-10,0,0.00033901,-3.2706e-05,1.0103e+08,103.36,0,1.0103e+08,21.784,12878,12136,1,12136,1,0.0002572,-2.1263e-10,0,0.0002572,-4.8034e-05,7.7438e+07,-53.59,0,7.7438e+07,-5.6542,12135,11395,1,11395,1,0.00017539,-1.5058e-09,0,0.00017539,-6.337e-05,5.4097e+07,-391.54,0,5.4097e+07,-35.184,11394,11748,1,11748,1,0.00021045,-6.7078e-10,0,0.00021045,-5.6795e-05,6.4148e+07,-169.72,0,6.4148e+07,-10.986,11747,12524,1,12524,1,0.00030394,2.665e-11,0,0.00030394,-3.9275e-05,9.0768e+07,6.6989,0,9.0768e+07,4.4079,12523,438.26,0,438.26,0,5.3615e-05,4.6563e-10,0,5.3615e-05,1.0048e-05,1.5336e+07,119.91,0,1.5336e+07,11.153,438.26,1
432,1.16,12137,1,12137,1,0.00025943,4.9413e-11,0,0.00025943,-4.8453e-05,7.8153e+07,12.886,0,7.8153e+07,-0.95388,12136,12879,1,12879,1,0.00034195,3.9666e-10,0,0.00034195,-3.2991e-05,1.0191e+08,103.14,0,1.0191e+08,14.277,12878,12136,1,12136,1,0.00025943,3.5921e-11,0,0.00025943,-4.8451e-05,7.8111e+07,9.0912,0,7.8111e+07,-0.78705,12135,11395,1,11395,1,0.00017692,-1.7973e-10,0,0.00017692,-6.392e-05,5.4567e+07,-46.729,0,5.4567e+07,-14.564,11394,11748,1,11748,1,0.00021228,-6.7606e-11,0,0.00021228,-5.7289e-05,6.4706e+07,-17.012,0,6.4706e+07,-4.2843,11747,12524,1,12524,1,0.00030658,1.6117e-10,0,0.00030658,-3.9617e-05,9.1557e+07,40.915,0,9.1557e+07,2.0322,12523,438.26,0,438.26,0,5.4081e-05,1.4285e-10,0,5.4081e-05,1.0135e-05,1.547e+07,36.609,0,1.547e+07,4.9609,438.26,1
432,1.17,12137,1,12137,1,0.00026166,-1.2185e-10,0,0.00026166,-4.8869e-05,7.8825e+07,-31.2,0,7.8825e+07,-7.9111,12136,12879,1,12879,1,0.00034489,9.6724e-10,0,0.00034489,-3.3274e-05,1.0279e+08,251.5,0,1.0279e+08,22.108,12878,12136,1,12136,1,0.00026166,-6.2624e-11,0,0.00026166,-4.8868e-05,7.8783e+07,-15.832,0,7.8783e+07,-11.527,12135,11395,1,11395,1,0.00017844,-1.3908e-09,0,0.00017844,-6.4469e-05,5.5036e+07,-361.64,0,5.5036e+07,-39.77,11394,11748,1,11748,1,0.0002141,-3.779e-10,0,0.0002141,-5.7781e-05,6.5262e+07,-96.128,0,6.5262e+07,-16.741,11747,12524,1,12524,1,0.00030922,1.3272e-10,0,0.00030922,-3.9957e-05,9.2344e+07,33.318,0,9.2344e+07,2.1898,12523,438.26,0,438.26,0,5.4546e-05,4.5608e-10,0,5.4546e-05,1.0222e-05,1.5602e+07,117.39,0,1.5602e+07,12.714,438.26,1
432,1.18,12137,1,12137,1,0.0002639,-1.997e-10,0,0.0002639,-4.9288e-05,7.95e+07,-51.264,0,7.95e+07,-7.3177,12136,12879,1,12879,1,0.00034784,3.9339e-10,0,0.00034784,-3.3559e-05,1.0367e+08,102.28,0,1.0367e+08,14.378,12878,12136,1,12136,1,0.0002639,-1.1427e-10,0,0.0002639,-4.9286e-05,7.9457e+07,-28.997,0,7.9457e+07,-7.7885,12135,11395,1,11395,1,0.00017996,-1.1158e-09,0,0.00017996,-6.5021e-05,5.5508e+07,-290.14,0,5.5508e+07,-24.856,11394,11748,1,11748,1,0.00021594,-4.0193e-10,0,0.00021594,-5.8276e-05,6.5821e+07,-103.36,0,6.5821e+07,-14.11,11747,12524,1,12524,1,0.00031187,3.9385e-11,0,0.00031187,-4.0299e-05,9.3135e+07,10.08,0,9.3135e+07,-0.98944,12523,438.26,0,438.26,0,5.5013e-05,3.1327e-10,0,5.5013e-05,1.031e-05,1.5736e+07,80.658,0,1.5736e+07,8.9878,438.26,1
432,1.19,12137,1,12137,1,0.00026614,1.0803e-10,0,0.00026614,-4.9705e-05,8.0173e+07,27.676,0,8.0173e+07,-3.0534,12136,12879,1,12879,1,0.00035079,1.1148e-09,0,0.00035079,-3.3843e-05,1.0454e+08,289.88,0,1.0454e+08,12.831,12878,12136,1,12136,1,0.00026614,3.5003e-11,0,0.00026614,-4.9703e-05,8.013e+07,8.8232,0,8.013e+07,-2.4303,12135,11395,1,11395,1,0.00018149,-5.314e-10,0,0.00018149,-6.5572e-05,5.5978e+07,-138.18,0,5.5978e+07,-21.868,11394,11748,1,11748,1,0.00021777,-5.6629e-11,0,0.00021777,-5.8769e-05,6.6378e+07,-14.298,0,6.6378e+07,-10.783,11747,12524,1,12524,1,0.00031451,2.5506e-10,0,0.00031451,-4.0641e-05,9.3923e+07,65.181,0,9.3923e+07,3.873,12523,438.26,0,438.26,0,5.5479e-05,3.1445e-10,0,5.5479e-05,1.0397e-05,1.5869e+07,80.922,0,1.5869e+07,8.216,438.26,1
432,1.2,12137,1,12137,1,0.00026838,1.1301e-10,0,0.00026838,-5.0124e-05,8.0848e+07,29.049,0,8.0848e+07,-1.8624,12136,12879,1,12879,1,0.00035374,1.3718e-09,0,0.00035374,-3.4128e-05,1.0542e+08,356.68,0,1.0542e+08,21.239,12878,12136,1,12136,1,0.00026838,4.0637e-11,0,0.00026838,-5.0122e-05,8.0805e+07,10.351,0,8.0805e+07,-2.8991,12135,11395,1,11395,1,0.00018302,-6.5933e-10,0,0.00018302,-6.6124e-05,5.6449e+07,-171.44,0,5.6449e+07,-34.367,11394,11748,1,11748,1,0.0002196,-1.1384e-10,0,0.0002196,-5.9264e-05,6.6937e+07,-29.093,0,6.6937e+07,-7.344,11747,12524,1,12524,1,0.00031715,2.975e-10,0,0.00031715,-4.0983e-05,9.4714e+07,76.255,0,9.4714e+07,3.5494,12523,438.26,0,438.26,0,5.5946e-05,3.6301e-10,0,5.5946e-05,1.0485e-05,1.6003e+07,93.468,0,1.6003e+07,10.35,438.26,1
432,1.21,12137,1,12137,1,0.00027061,7.694e-12,0,0.00027061,-5.0541e-05,8.1521e+07,2.0311,0,8.1521e+07,-3.4898,12136,12879,1,12879,1,0.00035668,8.335e-10,0,0.00035668,-3.4413e-05,1.063e+08,216.72,0,1.063e+08,13.047,12878,12136,1,12136,1,0.00027061,-1.6902e-11,0,0.00027061,-5.0539e-05,8.1478e+07,-4.2461,0,8.1478e+07,-4.4476,12135,11395,1,11395,1,0.00018454,-6.6819e-10,0,0.00018454,-6.6674e-05,5.6919e+07,-173.74,0,5.6919e+07,-17.258,11394,11748,1,11748,1,0.00022143,-1.2539e-10,0,0.00022143,-5.9758e-05,6.7494e+07,-31.91,0,6.7494e+07,-6.978,11747,12524,1,12524,1,0.0003198,1.375e-10,0,0.0003198,-4.1324e-05,9.5503e+07,35.331,0,9.5503e+07,-0.35564,12523,438.26,0,438.26,0,5.6412e-05,2.6186e-10,0,5.6412e-05,1.0572e-05,1.6136e+07,67.334,0,1.6136e+07,5.3826,438.26,1
432,1.22,12137,1,12137,1,0.00027285,2.2005e-10,0,0.00027285,-5.0958e-05,8.2194e+07,56.579,0,8.2194e+07,-6.3396,12136,12879,1,12879,1,0.00035963,1.4363e-09,0,0.00035963,-3.4697e-05,1.0718e+08,373.46,0,1.0718e+08,21.406,12878,12136,1,12136,1,0.00027285,6.5823e-11,0,0.00027285,-5.0957e-05,8.215e+07,16.579,0,8.215e+07,-6.5673,12135,11395,1,11395,1,0.00018606,-6.0612e-10,0,0.00018606,-6.7225e-05,5.7389e+07,-157.6,0,5.7389e+07,-39.795,11394,11748,1,11748,1,0.00022326,-8.9546e-11,0,0.00022326,-6.0251e-05,6.8052e+07,-22.615,0,6.8052e+07,-16.348,11747,12524,1,12524,1,0.00032244,5.3209e-10,0,0.00032244,-4.1665e-05,9.6291e+07,135.89,0,9.6291e+07,1.4149,12523,438.26,0,438.26,0,5.6878e-05,4.4893e-10,0,5.6878e-05,1.0659e-05,1.6269e+07,115.56,0,1.6269e+07,11.714,438.26,1
432,1.23,12137,1,12137,1,0.00027508,-1.5263e-10,0,0.00027508,-5.1376e-05,8.2868e+07,-39.071,0,8.2868e+07,-2.7032,12136,12879,1,12879,1,0.00036258,2.6375e-10,0,0.00036258,-3.4981e-05,1.0806e+08,68.57,0,1.0806e+08,10.053,12878,12136,1,12136,1,0.00027508,-1.0835e-10,0,0.00027508,-5.1374e-05,8.2824e+07,-27.464,0,8.2824e+07,-2.9771,12135,11395,1,11395,1,0.00018759,-6.5744e-10,0,0.00018759,-6.7776e-05,5.7859e+07,-170.95,0,5.7859e+07,-19.857,11394,11748,1,11748,1,0.00022509,-2.5524e-10,0,0.00022509,-6.0745e-05,6.861e+07,-65.548,0,6.861e+07,-5.3218,11747,12524,1,12524,1,0.00032508,-3.2948e-11,0,0.00032508,-4.2007e-05,9.7081e+07,-8.372,0,9.7081e+07,0.27516,12523,438.26,0,438.26,0,5.7344e-05,1.7329e-10,0,5.7344e-05,1.0747e-05,1.6403e+07,44.687,0,1.6403e+07,5.2334,438.26,1
432,1.24,12137,1,12137,1,0.00027732,4.4487e-10,0,0.00027732,-5.1795e-05,8.3543e+07,114.16,0,8.3543e+07,-4.1214,12136,12879,1,12879,1,0.00036554,1.4602e-09,0,0.00036554,-3.5266e-05,1.0894e+08,379.68,0,1.0894e+08,20.179,12878,12136,1,12136,1,0.00027732,3.3625e-10,0,0.00027732,-5.1793e-05,8.3499e+07,85.054,0,8.3499e+07,-1.723,12135,11395,1,11395,1,0.00018912,-3.0027e-10,0,0.00018912,-6.8329e-05,5.833e+07,-78.07,0,5.833e+07,-30.862,11394,11748,1,11748,1,0.00022692,1.4349e-11,0,0.00022692,-6.124e-05,6.9169e+07,3.6042,0,6.9169e+07,-15.915,11747,12524,1,12524,1,0.00032773,8.7019e-10,0,0.00032773,-4.2349e-05,9.7872e+07,221.48,0,9.7872e+07,6.4416,12523,438.26,0,438.26,0,5.7811e-05,5.0052e-10,0,5.7811e-05,1.0834e-05,1.6536e+07,128.97,0,1.6536e+07,12.619,438.26,1
432,1.25,12137,1,12137,1,0.00027956,1.0412e-10,0,0.00027956,-5.2212e-05,8.4217e+07,26.67,0,8.4217e+07,-0.88695,12136,12879,1,12879,1,0.00036848,3.3847e-10,0,0.00036848,-3.5551e-05,1.0982e+08,88.005,0,1.0982e+08,3.4306,12878,12136,1,12136,1,0.00027956,9.5534e-11,0,0.00027956,-5.2211e-05,8.4172e+07,24.397,0,8.4172e+07,-0.52227,12135,11395,1,11395,1,0.00019064,-3.3769e-12,0,0.00019064,-6.8879e-05,5.8801e+07,-0.84665,0,5.8801e+07,-6.9702,11394,11748,1,11748,1,0.00022875,4.2114e-11,0,0.00022875,-6.1734e-05,6.9727e+07,10.6,0,6.9727e+07,-1.6921,11747,12524,1,12524,1,0.00033037,1.54e-10,0,0.00033037,-4.2691e-05,9.8661e+07,39.4,0,9.8661e+07,0.13568,12523,438.26,0,438.26,0,5.8278e-05,7.5035e-11,0,5.8278e-05,1.0922e-05,1.667e+07,19.406,0,1.667e+07,1.6323,438.26,1
432,1.26,12137,1,12137,1,0.00028179,-2.1061e-10,0,0.00028179,-5.2629e-05,8.4889e+07,-54.063,0,8.4889e+07,-9.4759,12136,12879,1,12879,1,0.00037142,8.3583e-10,0,0.00037142,-3.5834e-05,1.1069e+08,217.33,0,1.1069e+08,23.608,12878,12136,1,12136,1,0.00028179,-9.0124e-11,0,0.00028179,-5.2627e-05,8.4844e+07,-23.182,0,8.4844e+07,-10.329,12135,11395,1,11395,1,0.00019216,-1.3543e-09,0,0.00019216,-6.9429e-05,5.927e+07,-352.14,0,5.927e+07,-58.024,11394,11748,1,11748,1,0.00023058,-4.8875e-10,0,0.00023058,-6.2227e-05,7.0283e+07,-124.81,0,7.0283e+07,-18.667,11747,12524,1,12524,1,0.00033301,7.8622e-11,0,0.00033301,-4.3031e-05,9.9449e+07,19.896,0,9.9449e+07,-0.25401,12523,438.26,0,438.26,0,5.8743e-05,4.4272e-10,0,5.8743e-05,1.1009e-05,1.6803e+07,113.99,0,1.6803e+07,15.365,438.26,1
432,1.27,12137,1,12137,1,0.00028404,1.354e-10,0,0.00028404,-5.3048e-05,8.5565e+07,34.81,0,8.5565e+07,-2.3043,12136,12879,1,12879,1,0.00037438,7.7169e-10,0,0.00037438,-3.612e-05,1.1157e+08,200.65,0,1.1157e+08,11.214,12878,12136,1,12136,1,0.00028404,8.1807e-11,0,0.00028404,-5.3046e-05,8.5519e+07,20.973,0,8.5519e+07,-2.588,12135,11395,1,11395,1,0.00019369,-2.6062e-10,0,0.00019369,-6.9982e-05,5.9742e+07,-67.764,0,5.9742e+07,-21.607,11394,11748,1,11748,1,0.00023241,-3.764e-11,0,0.00023241,-6.2722e-05,7.0843e+07,-9.4687,0,7.0843e+07,-5.7549,11747,12524,1,12524,1,0.00033566,2.9811e-10,0,0.00033566,-4.3374e-05,1.0024e+08,76.197,0,1.0024e+08,1.1176,12523,438.26,0,438.26,0,5.921e-05,2.1915e-10,0,5.921e-05,1.1096e-05,1.6937e+07,56.435,0,1.6937e+07,5.3254,438.26,1
432,1.28,12137,1,12137,1,0.00028628,-5.8494e-11,0,0.00028628,-5.3468e-05,8.6242e+07,-14.951,0,8.6242e+07,2.7413,12136,12879,1,12879,1,0.00037734,1.8153e-10,0,0.00037734,-3.6406e-05,1.1246e+08,47.201,0,1.1246e+08,14.312,12878,12136,1,12136,1,0.00028628,-3.5418e-11,0,0.00028628,-5.3466e-05,8.6196e+07,-8.8955,0,8.6196e+07,2.8189,12135,11395,1,11395,1,0.00019523,-4.914e-10,0,0.00019523,-7.0535e-05,6.0215e+07,-127.77,0,6.0215e+07,-8.2923,11394,11748,1,11748,1,0.00023425,-1.1224e-10,0,0.00023425,-6.3218e-05,7.1403e+07,-28.347,0,7.1403e+07,-0.19422,11747,12524,1,12524,1,0.00033832,1.8012e-11,0,0.00033832,-4.3717e-05,1.0103e+08,4.6275,0,1.0103e+08,5.8516,12523,438.26,0,438.26,0,5.9679e-05,1.2725e-10,0,5.9679e-05,1.1184e-05,1.7071e+07,32.777,0,1.7071e+07,4.6593,438.26,1
432,1.29,12137,1,12137,1,0.0002885,8.693e-11,0,0.0002885,-5.3883e-05,8.6911e+07,22.348,0,8.6911e+07,-4.7367,12136,12879,1,12879,1,0.00038027,7.665e-10,0,0.00038027,-3.6688e-05,1.1333e+08,199.29,0,1.1333e+08,11.27,12878,12136,1,12136,1,0.0002885,3.6152e-11,0,0.0002885,-5.3881e-05,8.6865e+07,9.1502,0,8.6865e+07,-5.8741,12135,11395,1,11395,1,0.00019674,-3.9149e-10,0,0.00019674,-7.1083e-05,6.0682e+07,-101.79,0,6.0682e+07,-24.287,11394,11748,1,11748,1,0.00023607,-5.0448e-11,0,0.00023607,-6.3709e-05,7.1957e+07,-12.743,0,7.1957e+07,-7.7133,11747,12524,1,12524,1,0.00034094,2.2207e-10,0,0.00034094,-4.4056e-05,1.0182e+08,56.733,0,1.0182e+08,-0.95814,12523,438.26,0,438.26,0,6.0142e-05,2.1093e-10,0,6.0142e-05,1.1271e-05,1.7203e+07,54.288,0,1.7203e+07,5.9193,438.26,1
432,1.3,12137,1,12137,1,0.00029074,2.9381e-11,0,0.00029074,-5.4301e-05,8.7586e+07,7.6277,0,8.7586e+07,-5.6526,12136,12879,1,12879,1,0.00038322,8.5245e-10,0,0.00038322,-3.6973e-05,1.1421e+08,221.66,0,1.1421e+08,15.435,12878,12136,1,12136,1,0.00029074,5.1363e-14,0,0.00029074,-5.4299e-05,8.7539e+07,0.011859,0,8.7539e+07,-7.9401,12135,11395,1,11395,1,0.00019827,-7.0332e-10,0,0.00019827,-7.1635e-05,6.1153e+07,-182.88,0,6.1153e+07,-40.684,11394,11748,1,11748,1,0.0002379,-1.3764e-10,0,0.0002379,-6.4203e-05,7.2516e+07,-34.758,0,7.2516e+07,-11.125,11747,12524,1,12524,1,0.00034359,2.0431e-10,0,0.00034359,-4.4398e-05,1.0261e+08,52.177,0,1.0261e+08,0.29781,12523,438.26,0,438.26,0,6.0609e-05,3.0003e-10,0,6.0609e-05,1.1358e-05,1.7337e+07,77.212,0,1.7337e+07,9.581,438.26,1
432,1.31,12137,1,12137,1,0.00029298,-1.7595e-10,0,0.00029298,-5.4718e-05,8.8258e+07,-45.049,0,8.8258e+07,-6.9534,12136,12879,1,12879,1,0.00038616,5.3373e-10,0,0.00038616,-3.7257e-05,1.1509e+08,138.77,0,1.1509e+08,13.922,12878,12136,1,12136,1,0.00029298,-1.1372e-10,0,0.00029298,-5.4716e-05,8.8211e+07,-28.657,0,8.8211e+07,-7.3748,12135,11395,1,11395,1,0.00019979,-9.5867e-10,0,0.00019979,-7.2185e-05,6.1622e+07,-249.27,0,6.1622e+07,-29.845,11394,11748,1,11748,1,0.00023973,-3.2064e-10,0,0.00023973,-6.4696e-05,7.3072e+07,-82.465,0,7.3072e+07,-12.93,11747,12524,1,12524,1,0.00034622,-1.3788e-11,0,0.00034622,-4.4739e-05,1.034e+08,-3.4931,0,1.034e+08,-0.8429,12523,438.26,0,438.26,0,6.1074e-05,2.7282e-10,0,6.1074e-05,1.1446e-05,1.747e+07,70.284,0,1.747e+07,9.523,438.26,1
432,1.32,12137,1,12137,1,0.00029521,-7.911e-11,0,0.00029521,-5.5135e-05,8.8932e+07,-20.137,0,8.8932e+07,-3.0422,12136,12879,1,12879,1,0.00038911,6.9744e-11,0,0.00038911,-3.7541e-05,1.1596e+08,18.137,0,1.1596e+08,10.783,12878,12136,1,12136,1,0.00029521,-4.1755e-11,0,0.00029521,-5.5134e-05,8.8884e+07,-10.491,0,8.8884e+07,-2.8914,12135,11395,1,11395,1,0.00020132,-5.4015e-10,0,0.00020132,-7.2735e-05,6.2093e+07,-140.44,0,6.2093e+07,-13.324,11394,11748,1,11748,1,0.00024156,-1.401e-10,0,0.00024156,-6.519e-05,7.363e+07,-35.204,0,7.363e+07,-4.839,11747,12524,1,12524,1,0.00034887,1.2684e-11,0,0.00034887,-4.5081e-05,1.0418e+08,3.2015,0,1.0418e+08,-1.0029,12523,438.26,0,438.26,0,6.154e-05,1.2068e-10,0,6.154e-05,1.1533e-05,1.7603e+07,30.995,0,1.7603e+07,3.7139,438.26,1
432,1.33,12137,1,12137,1,0.00029745,-8.5465e-11,0,0.00029745,-5.5553e-05,8.9605e+07,-21.886,0,8.9605e+07,-8.2809,12136,12879,1,12879,1,0.00039205,1.0041e-09,0,0.00039205,-3.7825e-05,1.1684e+08,261.07,0,1.1684e+08,18.826,12878,12136,1,12136,1,0.00029745,-4.321e-11,0,0.00029745,-5.5551e-05,8.9557e+07,-10.858,0,8.9557e+07,-9.458,12135,11395,1,11395,1,0.00020284,-1.0531e-09,0,0.00020284,-7.3286e-05,6.2562e+07,-273.82,0,6.2562e+07,-43.032,11394,11748,1,11748,1,0.00024339,-2.8777e-10,0,0.00024339,-6.5683e-05,7.4187e+07,-73.216,0,7.4187e+07,-14.793,11747,12524,1,12524,1,0.00035151,8.6418e-11,0,0.00035151,-4.5422e-05,1.0497e+08,21.915,0,1.0497e+08,-1.009,12523,438.26,0,438.26,0,6.2006e-05,3.5958e-10,0,6.2006e-05,1.162e-05,1.7736e+07,92.556,0,1.7736e+07,11.778,438.26,1
432,1.34,12137,1,12137,1,0.00029969,2.6503e-11,0,0.00029969,-5.5972e-05,9.028e+07,6.9072,0,9.028e+07,-6.8672,12136,12879,1,12879,1,0.00039501,8.9102e-10,0,0.00039501,-3.811e-05,1.1772e+08,231.67,0,1.1772e+08,17.154,12878,12136,1,12136,1,0.00029969,-1.7903e-11,0,0.00029969,-5.597e-05,9.0232e+07,-4.506,0,9.0232e+07,-9.5541,12135,11395,1,11395,1,0.00020437,-5.8738e-10,0,0.00020437,-7.3838e-05,6.3034e+07,-152.73,0,6.3034e+07,-30.397,11394,11748,1,11748,1,0.00024522,-1.3644e-10,0,0.00024522,-6.6179e-05,7.4747e+07,-34.592,0,7.4747e+07,-13.918,11747,12524,1,12524,1,0.00035416,1.6254e-10,0,0.00035416,-4.5764e-05,1.0576e+08,41.424,0,1.0576e+08,-0.74899,12523,438.26,0,438.26,0,6.2473e-05,2.7603e-10,0,6.2473e-05,1.1708e-05,1.787e+07,71.036,0,1.787e+07,9.6142,438.26,1
432,1.35,12137,1,12137,1,0.00030192,-1.5528e-10,0,0.00030192,-5.6389e-05,9.0953e+07,-39.777,0,9.0953e+07,-5.7503,12136,12879,1,12879,1,0.00039796,7.8542e-10,0,0.00039796,-3.8394e-05,1.186e+08,204.21,0,1.186e+08,17.988,12878,12136,1,12136,1,0.00030192,-7.6126e-11,0,0.00030192,-5.6387e-05,9.0905e+07,-19.49,0,9.0905e+07,-6.888,12135,11395,1,11395,1,0.00020589,-1.1165e-09,0,0.00020589,-7.4389e-05,6.3504e+07,-290.3,0,6.3504e+07,-38.905,11394,11748,1,11748,1,0.00024705,-3.3553e-10,0,0.00024705,-6.6672e-05,7.5304e+07,-86.406,0,7.5304e+07,-11.852,11747,12524,1,12524,1,0.0003568,4.8922e-11,0,0.0003568,-4.6106e-05,1.0655e+08,12.336,0,1.0655e+08,0.82624,12523,438.26,0,438.26,0,6.2939e-05,3.4686e-10,0,6.2939e-05,1.1795e-05,1.8003e+07,89.325,0,1.8003e+07,10.77,438.26,1
432,1.36,12137,1,12137,1,0.00030416,-3.4753e-10,0,0.00030416,-5.6807e-05,9.1628e+07,-89.208,0,9.1628e+07,-12.834,12136,12879,1,12879,1,0.00040091,1.8059e-10,0,0.00040091,-3.8679e-05,1.1948e+08,45.334,0,1.1948e+08,13.969,12878,12136,1,12136,1,0.00030416,-2.5196e-10,0,0.00030416,-5.6805e-05,9.1579e+07,-63.817,0,9.1579e+07,-13.873,12135,11395,1,11395,1,0.00020742,-1.3005e-09,0,0.00020742,-7.4941e-05,6.3974e+07,-338.15,0,6.3974e+07,-44.29,11394,11748,1,11748,1,0.00024888,-6.4123e-10,0,0.00024888,-6.7166e-05,7.5862e+07,-163.5,0,7.5862e+07,-19.803,11747,12524,1,12524,1,0.00035944,-3.2598e-12,0,0.00035944,-4.6447e-05,1.0734e+08,-0.82625,0,1.0734e+08,-5.0243,12523,438.26,0,438.26,0,6.3406e-05,3.9668e-10,0,6.3406e-05,1.1883e-05,1.8137e+07,102.22,0,1.8137e+07,11.079,438.26,1
432,1.37,12137,1,12137,1,0.0003064,2.663e-10,0,0.0003064,-5.7224e-05,9.2301e+07,68.505,0,9.2301e+07,-3.2323,12136,12879,1,12879,1,0.00040385,1.2145e-09,0,0.00040385,-3.8963e-05,1.2036e+08,315.78,0,1.2036e+08,19.016,12878,12136,1,12136,1,0.0003064,1.9479e-10,0,0.0003064,-5.7222e-05,9.2252e+07,49.095,0,9.2252e+07,-2.6058,12135,11395,1,11395,1,0.00020894,-3.1094e-10,0,0.00020894,-7.5491e-05,6.4444e+07,-80.842,0,6.4444e+07,-28.487,11394,11748,1,11748,1,0.00025071,-6.256e-11,0,0.00025071,-6.766e-05,7.642e+07,-15.717,0,7.642e+07,-6.7527,11747,12524,1,12524,1,0.00036208,5.503e-10,0,0.00036208,-4.6789e-05,1.0813e+08,140.06,0,1.0813e+08,3.068,12523,438.26,0,438.26,0,6.3872e-05,3.6739e-10,0,6.3872e-05,1.197e-05,1.827e+07,94.572,0,1.827e+07,9.0105,438.26,1
432,1.38,12137,1,12137,1,0.00030865,-2.5271e-10,0,0.00030865,-5.7645e-05,9.2979e+07,-64.992,0,9.2979e+07,-5.5247,12136,12879,1,12879,1,0.00040682,2.0111e-10,0,0.00040682,-3.9249e-05,1.2124e+08,50.492,0,1.2124e+08,13.265,12878,12136,1,12136,1,0.00030865,-2.1741e-10,0,0.00030865,-5.7643e-05,9.2929e+07,-55.013,0,9.2929e+07,-5.5136,12135,11395,1,11395,1,0.00021048,-8.444e-10,0,0.00021048,-7.6046e-05,6.4918e+07,-219.57,0,6.4918e+07,-25.745,11394,11748,1,11748,1,0.00025255,-4.6477e-10,0,0.00025255,-6.8157e-05,7.6981e+07,-118.84,0,7.6981e+07,-12.432,11747,12524,1,12524,1,0.00036474,-2.8348e-11,0,0.00036474,-4.7132e-05,1.0893e+08,-7.1278,0,1.0893e+08,1.3943,12523,438.26,0,438.26,0,6.4341e-05,2.7729e-10,0,6.4341e-05,1.2058e-05,1.8404e+07,71.387,0,1.8404e+07,8.2647,438.26,1
432,1.39,12137,1,12137,1,0.00031087,1.2272e-11,0,0.00031087,-5.8059e-05,9.3648e+07,3.3208,0,9.3648e+07,-5.2575,12136,12879,1,12879,1,0.00040975,8.4411e-10,0,0.00040975,-3.9532e-05,1.2211e+08,219.47,0,1.2211e+08,16.695,12878,12136,1,12136,1,0.00031087,-2.3826e-11,0,0.00031087,-5.8058e-05,9.3598e+07,-5.9838,0,9.3598e+07,-6.3736,12135,11395,1,11395,1,0.00021199,-7.3521e-10,0,0.00021199,-7.6593e-05,6.5385e+07,-191.17,0,6.5385e+07,-29.139,11394,11748,1,11748,1,0.00025437,-1.3994e-10,0,0.00025437,-6.8647e-05,7.7535e+07,-35.153,0,7.7535e+07,-10.517,11747,12524,1,12524,1,0.00036737,1.959e-10,0,0.00036737,-4.7472e-05,1.0971e+08,50.133,0,1.0971e+08,-0.17105,12523,438.26,0,438.26,0,6.4804e-05,2.7942e-10,0,6.4804e-05,1.2145e-05,1.8537e+07,71.86,0,1.8537e+07,7.5871,438.26,1
432,1.4,12137,1,12137,1,0.00031311,-1.1038e-10,0,0.00031311,-5.8478e-05,9.4322e+07,-28.318,0,9.4322e+07,-4.6738,12136,12879,1,12879,1,0.0004127,3.0931e-10,0,0.0004127,-3.9817e-05,1.2299e+08,80.42,0,1.2299e+08,7.7695,12878,12136,1,12136,1,0.00031311,-6.3366e-11,0,0.00031311,-5.8476e-05,9.4272e+07,-16.027,0,9.4272e+07,-5.7207,12135,11395,1,11395,1,0.00021352,-6.1766e-10,0,0.00021352,-7.7144e-05,6.5856e+07,-160.6,0,6.5856e+07,-15.381,11394,11748,1,11748,1,0.0002562,-2.403e-10,0,0.0002562,-6.9141e-05,7.8093e+07,-61.361,0,7.8093e+07,-7.8111,11747,12524,1,12524,1,0.00037001,2.6701e-11,0,0.00037001,-4.7813e-05,1.105e+08,6.7504,0,1.105e+08,-1.7161,12523,438.26,0,438.26,0,6.527e-05,1.9303e-10,0,6.527e-05,1.2232e-05,1.867e+07,49.678,0,1.867e+07,4.6305,438.26,1
432,1.41,12137,1,12137,1,0.00031534,9.81e-11,0,0.00031534,-5.8895e-05,9.4996e+07,25.333,0,9.4996e+07,-8.9854,12136,12879,1,12879,1,0.00041564,1.4725e-09,0,0.00041564,-4.0101e-05,1.2387e+08,382.87,0,1.2387e+08,19.84,12878,12136,1,12136,1,0.00031534,9.3391e-12,0,0.00031534,-5.8893e-05,9.4945e+07,2.3548,0,9.4945e+07,-10.823,12135,11395,1,11395,1,0.00021504,-7.9275e-10,0,0.00021504,-7.7695e-05,6.6326e+07,-206.12,0,6.6326e+07,-45.486,11394,11748,1,11748,1,0.00025803,-1.5797e-10,0,0.00025803,-6.9635e-05,7.8651e+07,-39.968,0,7.8651e+07,-17.177,11747,12524,1,12524,1,0.00037266,3.1173e-10,0,0.00037266,-4.8155e-05,1.1129e+08,79.383,0,1.1129e+08,-1.7851,12523,438.26,0,438.26,0,6.5736e-05,4.14e-10,0,6.5736e-05,1.2319e-05,1.8804e+07,106.52,0,1.8804e+07,12.101,438.26,1
432,1.42,12137,1,12137,1,0.00031759,-2.465e-10,0,0.00031759,-5.9315e-05,9.5673e+07,-63.176,0,9.5673e+07,-0.71636,12136,12879,1,12879,1,0.0004186,6.2202e-11,0,0.0004186,-4.0386e-05,1.2475e+08,15.613,0,1.2475e+08,13.197,12878,12136,1,12136,1,0.00031759,-2.6093e-10,0,0.00031759,-5.9313e-05,9.5622e+07,-66.411,0,9.5622e+07,-1.6078,12135,11395,1,11395,1,0.00021658,-5.7023e-10,0,0.00021658,-7.8249e-05,6.6798e+07,-148.27,0,6.6798e+07,-4.2321,11394,11748,1,11748,1,0.00025987,-3.7728e-10,0,0.00025987,-7.0131e-05,7.9211e+07,-96.818,0,7.9211e+07,-2.2976,11747,12524,1,12524,1,0.00037531,-1.1446e-10,0,0.00037531,-4.8498e-05,1.1208e+08,-28.815,0,1.1208e+08,-0.38844,12523,438.26,0,438.26,0,6.6205e-05,1.5767e-10,0,6.6205e-05,1.2407e-05,1.8938e+07,40.849,0,1.8938e+07,3.1233,438.26,1
432,1.43,12137,1,12137,1,0.00031982,-3.3417e-10,0,0.00031982,-5.9731e-05,9.6343e+07,-85.628,0,9.6343e+07,-8.0833,12136,12879,1,12879,1,0.00042154,1.3579e-10,0,0.00042154,-4.067e-05,1.2563e+08,35.297,0,1.2563e+08,10.812,12878,12136,1,12136,1,0.00031982,-2.7034e-10,0,0.00031982,-5.9729e-05,9.6292e+07,-68.347,0,9.6292e+07,-9.2555,12135,11395,1,11395,1,0.00021809,-1.148e-09,0,0.00021809,-7.8798e-05,6.7267e+07,-298.5,0,6.7267e+07,-31.215,11394,11748,1,11748,1,0.00026169,-5.4658e-10,0,0.00026169,-7.0623e-05,7.9767e+07,-138.96,0,7.9767e+07,-13.131,11747,12524,1,12524,1,0.00037794,-7.7441e-11,0,0.00037794,-4.8838e-05,1.1287e+08,-19.627,0,1.1287e+08,-1.9836,12523,438.26,0,438.26,0,6.6669e-05,3.0786e-10,0,6.6669e-05,1.2494e-05,1.907e+07,79.471,0,1.907e+07,8.5027,438.26,1
432,1.44,12137,1,12137,1,0.00032205,-7.0782e-11,0,0.00032205,-6.0148e-05,9.7017e+07,-18.16,0,9.7017e+07,-7.8014,12136,12879,1,12879,1,0.00042449,4.993e-10,0,0.00042449,-4.0954e-05,1.2651e+08,129.82,0,1.2651e+08,9.0462,12878,12136,1,12136,1,0.00032205,-4.5125e-11,0,0.00032205,-6.0146e-05,9.6965e+07,-11.355,0,9.6965e+07,-8.8554,12135,11395,1,11395,1,0.00021962,-7.3161e-10,0,0.00021962,-7.9348e-05,6.7737e+07,-190.23,0,6.7737e+07,-18.78,11394,11748,1,11748,1,0.00026352,-1.9167e-10,0,0.00026352,-7.1117e-05,8.0324e+07,-49.376,0,8.0324e+07,-11.834,11747,12524,1,12524,1,0.00038059,4.264e-11,0,0.00038059,-4.9179e-05,1.1366e+08,10.84,0,1.1366e+08,-4.0093,12523,438.26,0,438.26,0,6.7135e-05,2.1835e-10,0,6.7135e-05,1.2582e-05,1.9204e+07,56.123,0,1.9204e+07,5.7671,438.26,1
432,1.45,12137,1,12137,1,0.00032429,-1.3008e-10,0,0.00032429,-6.0566e-05,9.769e+07,-33.456,0,9.769e+07,-12.37,12136,12879,1,12879,1,0.00042743,1.3034e-09,0,0.00042743,-4.1238e-05,1.2739e+08,338.88,0,1.2739e+08,21.733,12878,12136,1,12136,1,0.00032429,-5.402e-11,0,0.00032429,-6.0564e-05,9.7639e+07,-13.635,0,9.7639e+07,-14.26,12135,11395,1,11395,1,0.00022114,-1.4171e-09,0,0.00022114,-7.9899e-05,6.8207e+07,-368.48,0,6.8207e+07,-48.23,11394,11748,1,11748,1,0.00026535,-4.6591e-10,0,0.00026535,-7.161e-05,8.0882e+07,-118.23,0,8.0882e+07,-22.169,11747,12524,1,12524,1,0.00038323,1.6089e-10,0,0.00038323,-4.9521e-05,1.1445e+08,40.396,0,1.1445e+08,-3.4828,12523,438.26,0,438.26,0,6.7601e-05,5.2801e-10,0,6.7601e-05,1.2669e-05,1.9337e+07,135.83,0,1.9337e+07,13.897,438.26,1
432,1.46,12137,1,12137,1,0.00032652,-2.5818e-11,0,0.00032652,-6.0983e-05,9.8364e+07,-6.5613,0,9.8364e+07,-7.7635,12136,12879,1,12879,1,0.00043038,7.6972e-10,0,0.00043038,-4.1523e-05,1.2826e+08,200.13,0,1.2826e+08,12.282,12878,12136,1,12136,1,0.00032652,-1.8718e-11,0,0.00032652,-6.0981e-05,9.8312e+07,-4.7031,0,9.8312e+07,-8.6438,12135,11395,1,11395,1,0.00022267,-6.8223e-10,0,0.00022267,-8.045e-05,6.8677e+07,-177.39,0,6.8677e+07,-44.335,11394,11748,1,11748,1,0.00026718,-1.7695e-10,0,0.00026718,-7.2104e-05,8.1439e+07,-44.989,0,8.1439e+07,-11.936,11747,12524,1,12524,1,0.00038587,1.1196e-10,0,0.00038587,-4.9862e-05,1.1523e+08,28.286,0,1.1523e+08,-1.9479,12523,438.26,0,438.26,0,6.8067e-05,2.7016e-10,0,6.8067e-05,1.2756e-05,1.947e+07,69.524,0,1.947e+07,9.7412,438.26,1
432,1.47,12137,1,12137,1,0.00032876,-1.4056e-10,0,0.00032876,-6.1401e-05,9.9038e+07,-35.902,0,9.9038e+07,-6.46,12136,12879,1,12879,1,0.00043333,8.535e-10,0,0.00043333,-4.1807e-05,1.2914e+08,221.9,0,1.2914e+08,17.301,12878,12136,1,12136,1,0.00032876,-8.5522e-11,0,0.00032876,-6.1399e-05,9.8985e+07,-21.732,0,9.8985e+07,-9.1954,12135,11395,1,11395,1,0.00022419,-1.129e-09,0,0.00022419,-8.1001e-05,6.9148e+07,-293.56,0,6.9148e+07,-40.825,11394,11748,1,11748,1,0.00026901,-3.135e-10,0,0.00026901,-7.2598e-05,8.1998e+07,-80.414,0,8.1998e+07,-11.56,11747,12524,1,12524,1,0.00038851,3.2097e-11,0,0.00038851,-5.0204e-05,1.1602e+08,8.1105,0,1.1602e+08,-0.25601,12523,438.26,0,438.26,0,6.8534e-05,3.4438e-10,0,6.8534e-05,1.2844e-05,1.9604e+07,88.671,0,1.9604e+07,10.46,438.26,1
432,1.48,12137,1,12137,1,0.000331,-3.6597e-10,0,0.000331,-6.1819e-05,9.9712e+07,-93.954,0,9.9712e+07,-13.067,12136,12879,1,12879,1,0.00043628,4.5537e-10,0,0.00043628,-4.2092e-05,1.3002e+08,118.39,0,1.3002e+08,22.897,12878,12136,1,12136,1,0.000331,-2.7374e-10,0,0.000331,-6.1817e-05,9.9659e+07,-69.977,0,9.9659e+07,-13.308,12135,11395,1,11395,1,0.00022572,-1.4382e-09,0,0.00022572,-8.1553e-05,6.9618e+07,-373.95,0,6.9618e+07,-43.879,11394,11748,1,11748,1,0.00027084,-7.0677e-10,0,0.00027084,-7.3093e-05,8.2556e+07,-180.16,0,8.2556e+07,-26.111,11747,12524,1,12524,1,0.00039116,1.9286e-11,0,0.00039116,-5.0546e-05,1.1681e+08,4.9161,0,1.1681e+08,-0.44314,12523,438.26,0,438.26,0,6.9e-05,4.6613e-10,0,6.9e-05,1.2931e-05,1.9737e+07,120.08,0,1.9737e+07,15.33,438.26,1
432,1.49,12137,1,12137,1,0.00033324,3.7573e-10,0,0.00033324,-6.2237e-05,1.0039e+08,96.576,0,1.0039e+08,-1.8366,12136,12879,1,12879,1,0.00043923,1.1366e-09,0,0.00043923,-4.2376e-05,1.309e+08,295.55,0,1.309e+08,15.158,12878,12136,1,12136,1,0.00033324,3.5873e-10,0,0.00033324,-6.2235e-05,1.0033e+08,91.927,0,1.0033e+08,-0.47165,12135,11395,1,11395,1,0.00022724,-2.3053e-10,0,0.00022724,-8.2104e-05,7.0088e+07,-57.875,0,7.0088e+07,-19.685,11394,11748,1,11748,1,0.00027267,5.4733e-11,0,0.00027267,-7.3586e-05,8.3114e+07,13.779,0,8.3114e+07,-5.9482,11747,12524,1,12524,1,0.0003938,6.9171e-10,0,0.0003938,-5.0887e-05,1.176e+08,177.14,0,1.176e+08,2.9008,12523,438.26,0,438.26,0,6.9467e-05,3.7607e-10,0,6.9467e-05,1.3018e-05,1.9871e+07,96.875,0,1.9871e+07,6.8675,438.26,1
432,1.5,12137,1,12137,1,0.00033547,-6.413e-11,0,0.00033547,-6.2655e-05,1.0106e+08,-16.451,0,1.0106e+08,-6.0662,12136,12879,1,12879,1,0.00044217,2.5251e-10,0,0.00044217,-4.2661e-05,1.3178e+08,65.645,0,1.3178e+08,4.0096,12878,12136,1,12136,1,0.00033547,-6.7377e-11,0,0.00033547,-6.2652e-05,1.0101e+08,-17.114,0,1.0101e+08,-4.652,12135,11395,1,11395,1,0.00022877,-3.2456e-10,0,0.00022877,-8.2654e-05,7.0559e+07,-84.387,0,7.0559e+07,-21.966,11394,11748,1,11748,1,0.0002745,-1.5402e-10,0,0.0002745,-7.408e-05,8.3671e+07,-39.189,0,8.3671e+07,-8.5461,11747,12524,1,12524,1,0.00039644,1.8511e-11,0,0.00039644,-5.1228e-05,1.1839e+08,4.7448,0,1.1839e+08,-2.428,12523,438.26,0,438.26,0,6.9933e-05,1.1496e-10,0,6.9933e-05,1.3106e-05,2.0004e+07,29.526,0,2.0004e+07,4.9608,438.26,1
432,1.51,12137,1,12137,1,0.0003377,-3.0094e-11,0,0.0003377,-6.3071e-05,1.0173e+08,-7.7296,0,1.0173e+08,-7.6319,12136,12879,1,12879,1,0.00044511,9.0819e-10,0,0.00044511,-4.2944e-05,1.3265e+08,236.13,0,1.3265e+08,12.469,12878,12136,1,12136,1,0.0003377,-1.3286e-11,0,0.0003377,-6.3069e-05,1.0168e+08,-3.4013,0,1.0168e+08,-9.1869,12135,11395,1,11395,1,0.00023029,-9.0238e-10,0,0.00023029,-8.3204e-05,7.1028e+07,-234.63,0,7.1028e+07,-28.58,11394,11748,1,11748,1,0.00027633,-2.0996e-10,0,0.00027633,-7.4573e-05,8.4228e+07,-53.503,0,8.4228e+07,-13.261,11747,12524,1,12524,1,0.00039908,1.1184e-10,0,0.00039908,-5.1569e-05,1.1918e+08,28.204,0,1.1918e+08,-2.3766,12523,438.26,0,438.26,0,7.0398e-05,3.2644e-10,0,7.0398e-05,1.3193e-05,2.0137e+07,83.975,0,2.0137e+07,8.5192,438.26,1
432,1.52,12137,1,12137,1,0.00033995,-5.6054e-11,0,0.00033995,-6.3491e-05,1.0241e+08,-14.31,0,1.0241e+08,-2.1439,12136,12879,1,12879,1,0.00044808,3.2561e-10,0,0.00044808,-4.323e-05,1.3354e+08,84.66,0,1.3354e+08,8.8529,12878,12136,1,12136,1,0.00033995,-3.4223e-11,0,0.00033995,-6.3489e-05,1.0235e+08,-8.5978,0,1.0235e+08,-2.5585,12135,11395,1,11395,1,0.00023183,-4.5897e-10,0,0.00023183,-8.3758e-05,7.1501e+07,-119.34,0,7.1501e+07,-14.673,11394,11748,1,11748,1,0.00027817,-1.3169e-10,0,0.00027817,-7.5069e-05,8.4788e+07,-33.778,0,8.4788e+07,-5.2362,11747,12524,1,12524,1,0.00040174,2.3306e-11,0,0.00040174,-5.1912e-05,1.1997e+08,5.8723,0,1.1997e+08,0.64668,12523,438.26,0,438.26,0,7.0866e-05,1.4844e-10,0,7.0866e-05,1.3281e-05,2.0271e+07,38.219,0,2.0271e+07,4.4971,438.26,1
432,1.53,12137,1,12137,1,0.00034218,-1.5543e-10,0,0.00034218,-6.3907e-05,1.0308e+08,-39.789,0,1.0308e+08,-6.8174,12136,12879,1,12879,1,0.00045102,7.9543e-10,0,0.00045102,-4.3514e-05,1.3441e+08,206.8,0,1.3441e+08,16.569,12878,12136,1,12136,1,0.00034218,-8.2138e-11,0,0.00034218,-6.3905e-05,1.0303e+08,-20.937,0,1.0303e+08,-8.4021,12135,11395,1,11395,1,0.00023335,-1.1052e-09,0,0.00023335,-8.4307e-05,7.197e+07,-287.38,0,7.197e+07,-40.709,11394,11748,1,11748,1,0.00027999,-3.3295e-10,0,0.00027999,-7.5562e-05,8.5345e+07,-84.477,0,8.5345e+07,-12.904,11747,12524,1,12524,1,0.00040437,4.5566e-11,0,0.00040437,-5.2253e-05,1.2076e+08,11.49,0,1.2076e+08,-0.30926,12523,438.26,0,438.26,0,7.1331e-05,3.4394e-10,0,7.1331e-05,1.3368e-05,2.0404e+07,88.571,0,2.0404e+07,10.687,438.26,1
432,1.54,12137,1,12137,1,0.00034442,-2.2923e-10,0,0.00034442,-6.4325e-05,1.0375e+08,-58.848,0,1.0375e+08,-5.5617,12136,12879,1,12879,1,0.00045397,8.9661e-11,0,0.00045397,-4.3798e-05,1.3529e+08,22.509,0,1.3529e+08,7.9117,12878,12136,1,12136,1,0.00034442,-1.9617e-10,0,0.00034442,-6.4323e-05,1.037e+08,-49.527,0,1.037e+08,-5.5677,12135,11395,1,11395,1,0.00023487,-7.1633e-10,0,0.00023487,-8.4859e-05,7.244e+07,-186.26,0,7.244e+07,-18.694,11394,11748,1,11748,1,0.00028182,-4.1754e-10,0,0.00028182,-7.6056e-05,8.5903e+07,-107.02,0,8.5903e+07,-9.4255,11747,12524,1,12524,1,0.00040702,-3.1457e-11,0,0.00040702,-5.2595e-05,1.2155e+08,-7.908,0,1.2155e+08,-1.0682,12523,438.26,0,438.26,0,7.1798e-05,2.3132e-10,0,7.1798e-05,1.3455e-05,2.0538e+07,59.621,0,2.0538e+07,5.4664,438.26,1
432,1.55,12137,1,12137,1,0.00034665,4.1515e-11,0,0.00034665,-6.4743e-05,1.0443e+08,10.706,0,1.0443e+08,-2.5244,12136,12879,1,12879,1,0.00045691,5.2405e-10,0,0.00045691,-4.4083e-05,1.3617e+08,136.26,0,1.3617e+08,7.4175,12878,12136,1,12136,1,0.00034665,9.3128e-12,0,0.00034665,-6.4741e-05,1.0437e+08,2.3427,0,1.0437e+08,-2.717,12135,11395,1,11395,1,0.0002364,-3.6617e-10,0,0.0002364,-8.5409e-05,7.291e+07,-95.207,0,7.291e+07,-11.97,11394,11748,1,11748,1,0.00028365,-6.6278e-11,0,0.00028365,-7.6549e-05,8.646e+07,-16.647,0,8.646e+07,-6.1332,11747,12524,1,12524,1,0.00040966,1.5717e-10,0,0.00040966,-5.2936e-05,1.2234e+08,40.022,0,1.2234e+08,0.25475,12523,438.26,0,438.26,0,7.2264e-05,1.7291e-10,0,7.2264e-05,1.3543e-05,2.0671e+07,44.476,0,2.0671e+07,4.3416,438.26,1
432,1.56,12137,1,12137,1,0.00034889,-2.463e-10,0,0.00034889,-6.5161e-05,1.051e+08,-63.266,0,1.051e+08,-6.4325,12136,12879,1,12879,1,0.00045987,2.9054e-10,0,0.00045987,-4.4367e-05,1.3705e+08,75.532,0,1.3705e+08,16.278,12878,12136,1,12136,1,0.00034889,-1.8545e-10,0,0.00034889,-6.5159e-05,1.0505e+08,-47.317,0,1.0505e+08,-7.344,12135,11395,1,11395,1,0.00023792,-9.8229e-10,0,0.00023792,-8.5962e-05,7.3381e+07,-255.41,0,7.3381e+07,-28.653,11394,11748,1,11748,1,0.00028548,-4.7673e-10,0,0.00028548,-7.7044e-05,8.7019e+07,-121.7,0,8.7019e+07,-13.23,11747,12524,1,12524,1,0.00041231,1.1414e-11,0,0.00041231,-5.3278e-05,1.2313e+08,2.9453,0,1.2313e+08,1.1741,12523,438.26,0,438.26,0,7.2731e-05,3.1056e-10,0,7.2731e-05,1.363e-05,2.0805e+07,79.997,0,2.0805e+07,9.7257,438.26,1
432,1.57,12137,1,12137,1,0.00035113,-1.4373e-10,0,0.00035113,-6.5579e-05,1.0578e+08,-36.862,0,1.0578e+08,-2.7124,12136,12879,1,12879,1,0.00046281,4.6564e-10,0,0.00046281,-4.4652e-05,1.3793e+08,121.06,0,1.3793e+08,16.232,12878,12136,1,12136,1,0.00035113,-7.1255e-11,0,0.00035113,-6.5577e-05,1.0572e+08,-18.02,0,1.0572e+08,-3.9363,12135,11395,1,11395,1,0.00023945,-8.3266e-10,0,0.00023945,-8.6513e-05,7.3852e+07,-216.51,0,7.3852e+07,-23.557,11394,11748,1,11748,1,0.00028731,-2.9356e-10,0,0.00028731,-7.7538e-05,8.7577e+07,-75.129,0,8.7577e+07,-7.4152,11747,12524,1,12524,1,0.00041495,1.9357e-11,0,0.00041495,-5.362e-05,1.2392e+08,4.881,0,1.2392e+08,2.1258,12523,438.26,0,438.26,0,7.3197e-05,2.4847e-10,0,7.3197e-05,1.3717e-05,2.0938e+07,64.005,0,2.0938e+07,7.6186,438.26,1
432,1.58,12137,1,12137,1,0.00035336,2.3762e-10,0,0.00035336,-6.5996e-05,1.0645e+08,60.968,0,1.0645e+08,-0.94712,12136,12879,1,12879,1,0.00046576,6.7936e-10,0,0.00046576,-4.4936e-05,1.3881e+08,176.64,0,1.3881e+08,12.428,12878,12136,1,12136,1,0.00035336,2.2271e-10,0,0.00035336,-6.5994e-05,1.0639e+08,57.446,0,1.0639e+08,-0.95446,12135,11395,1,11395,1,0.00024097,-8.9791e-11,0,0.00024097,-8.7063e-05,7.4321e+07,-22.541,0,7.4321e+07,-15.6,11394,11748,1,11748,1,0.00028914,6.8003e-11,0,0.00028914,-7.8031e-05,8.8134e+07,17.09,0,8.8134e+07,-2.9866,11747,12524,1,12524,1,0.00041759,4.0779e-10,0,0.00041759,-5.3961e-05,1.2471e+08,104.36,0,1.2471e+08,1.554,12523,438.26,0,438.26,0,7.3663e-05,2.032e-10,0,7.3663e-05,1.3805e-05,2.1071e+07,52.43,0,2.1071e+07,4.2665,438.26,1
432,1.59,12137,1,12137,1,0.0003556,1.651e-10,0,0.0003556,-6.6414e-05,1.0712e+08,42.336,0,1.0712e+08,-3.5182,12136,12879,1,12879,1,0.00046871,7.4298e-10,0,0.00046871,-4.522e-05,1.3969e+08,193.17,0,1.3969e+08,10.814,12878,12136,1,12136,1,0.0003556,1.2121e-10,0,0.0003556,-6.6412e-05,1.0707e+08,31.377,0,1.0707e+08,-4.3088,12135,11395,1,11395,1,0.0002425,-2.3757e-10,0,0.0002425,-8.7614e-05,7.4792e+07,-61.767,0,7.4792e+07,-13.602,11394,11748,1,11748,1,0.00029097,-1.9945e-12,0,0.00029097,-7.8525e-05,8.8692e+07,-0.50264,0,8.8692e+07,-6.8428,11747,12524,1,12524,1,0.00042023,3.1039e-10,0,0.00042023,-5.4303e-05,1.255e+08,79.032,0,1.255e+08,-0.02489,12523,438.26,0,438.26,0,7.4129e-05,2.0436e-10,0,7.4129e-05,1.3892e-05,2.1205e+07,52.666,0,2.1205e+07,4.9958,438.26,1
432,1.6,12137,1,12137,1,0.00035784,4.8743e-11,0,0.00035784,-6.6832e-05,1.078e+08,12.552,0,1.078e+08,-3.4303,12136,12879,1,12879,1,0.00047165,5.5103e-10,0,0.00047165,-4.5505e-05,1.4056e+08,143.27,0,1.4056e+08,5.028,12878,12136,1,12136,1,0.00035784,1.2282e-11,0,0.00035784,-6.6829e-05,1.0774e+08,3.1279,0,1.0774e+08,-3.5622,12135,11395,1,11395,1,0.00024402,-2.4399e-10,0,0.00024402,-8.8165e-05,7.5262e+07,-63.438,0,7.5262e+07,-19.767,11394,11748,1,11748,1,0.0002928,-4.3833e-11,0,0.0002928,-7.9019e-05,8.925e+07,-11.091,0,8.925e+07,-5.4201,11747,12524,1,12524,1,0.00042287,1.2158e-10,0,0.00042287,-5.4644e-05,1.2629e+08,30.955,0,1.2629e+08,-0.84308,12523,438.26,0,438.26,0,7.4595e-05,1.4369e-10,0,7.4595e-05,1.398e-05,2.1338e+07,36.96,0,2.1338e+07,4.1807,438.26,1
432,1.61,12137,1,12137,1,0.00036007,-8.5836e-12,0,0.00036007,-6.7249e-05,1.0847e+08,-2.2705,0,1.0847e+08,-9.2869,12136,12879,1,12879,1,0.0004746,8.6155e-10,0,0.0004746,-4.5789e-05,1.4144e+08,224.01,0,1.4144e+08,16.434,12878,12136,1,12136,1,0.00036007,1.4588e-11,0,0.00036007,-6.7247e-05,1.0841e+08,3.6632,0,1.0841e+08,-10.393,12135,11395,1,11395,1,0.00024555,-8.8307e-10,0,0.00024555,-8.8715e-05,7.5732e+07,-229.61,0,7.5732e+07,-41.726,11394,11748,1,11748,1,0.00029463,-1.7252e-10,0,0.00029463,-7.9512e-05,8.9807e+07,-43.969,0,8.9807e+07,-16.202,11747,12524,1,12524,1,0.00042551,1.4812e-10,0,0.00042551,-5.4985e-05,1.2707e+08,37.473,0,1.2707e+08,-2.118,12523,438.26,0,438.26,0,7.5061e-05,3.1939e-10,0,7.5061e-05,1.4067e-05,2.1471e+07,82.176,0,2.1471e+07,11.5,438.26,1
432,1.62,12137,1,12137,1,0.00036231,-1.0366e-10,0,0.00036231,-6.7667e-05,1.0914e+08,-26.566,0,1.0914e+08,-2.1184,12136,12879,1,12879,1,0.00047755,3.7763e-10,0,0.00047755,-4.6074e-05,1.4232e+08,98.183,0,1.4232e+08,12.766,12878,12136,1,12136,1,0.00036231,-4.3739e-11,0,0.00036231,-6.7665e-05,1.0909e+08,-11.103,0,1.0909e+08,-2.1194,12135,11395,1,11395,1,0.00024707,-7.8532e-10,0,0.00024707,-8.9267e-05,7.6203e+07,-204.19,0,7.6203e+07,-18.577,11394,11748,1,11748,1,0.00029646,-2.1714e-10,0,0.00029646,-8.0007e-05,9.0366e+07,-55.301,0,9.0366e+07,-5.5288,11747,12524,1,12524,1,0.00042816,2.271e-11,0,0.00042816,-5.5327e-05,1.2786e+08,5.7009,0,1.2786e+08,1.3078,12523,438.26,0,438.26,0,7.5528e-05,2.1053e-10,0,7.5528e-05,1.4154e-05,2.1605e+07,54.192,0,2.1605e+07,5.9753,438.26,1
432,1.63,12137,1,12137,1,0.00036455,-5.4412e-11,0,0.00036455,-6.8085e-05,1.0982e+08,-13.866,0,1.0982e+08,-7.2915,12136,12879,1,12879,1,0.0004805,7.5751e-10,0,0.0004805,-4.6358e-05,1.432e+08,196.94,0,1.432e+08,10.807,12878,12136,1,12136,1,0.00036455,-3.6481e-11,0,0.00036455,-6.8083e-05,1.0976e+08,-9.2573,0,1.0976e+08,-7.8025,12135,11395,1,11395,1,0.0002486,-7.442e-10,0,0.0002486,-8.9818e-05,7.6673e+07,-193.5,0,7.6673e+07,-34.749,11394,11748,1,11748,1,0.00029829,-1.8312e-10,0,0.00029829,-8.0501e-05,9.0923e+07,-46.893,0,9.0923e+07,-10.769,11747,12524,1,12524,1,0.0004308,5.6658e-11,0,0.0004308,-5.5669e-05,1.2865e+08,14.507,0,1.2865e+08,-2.3928,12523,438.26,0,438.26,0,7.5994e-05,2.5473e-10,0,7.5994e-05,1.4242e-05,2.1738e+07,65.536,0,2.1738e+07,8.4755,438.26,1
432,1.64,12137,1,12137,1,0.00036679,-2.5233e-10,0,0.00036679,-6.8503e-05,1.1049e+08,-64.878,0,1.1049e+08,-1.8834,12136,12879,1,12879,1,0.00048345,1.7512e-10,0,0.00048345,-4.6643e-05,1.4408e+08,43.964,0,1.4408e+08,12.595,12878,12136,1,12136,1,0.00036679,-2.2404e-10,0,0.00036679,-6.8501e-05,1.1043e+08,-56.545,0,1.1043e+08,-0.7734,12135,11395,1,11395,1,0.00025013,-7.7538e-10,0,0.00025013,-9.0371e-05,7.7144e+07,-201.61,0,7.7144e+07,-25.653,11394,11748,1,11748,1,0.00030012,-4.541e-10,0,0.00030012,-8.0995e-05,9.1482e+07,-116.27,0,9.1482e+07,-4.3416,11747,12524,1,12524,1,0.00043345,-2.701e-11,0,0.00043345,-5.6011e-05,1.2944e+08,-6.7999,0,1.2944e+08,2.7459,12523,438.26,0,438.26,0,7.6461e-05,2.64e-10,0,7.6461e-05,1.4329e-05,2.1872e+07,67.988,0,2.1872e+07,7.2623,438.26,1
432,1.65,12137,1,12137,1,0.00036902,1.4405e-10,0,0.00036902,-6.892e-05,1.1117e+08,37.095,0,1.1117e+08,-4.7773,12136,12879,1,12879,1,0.00048639,1.2477e-09,0,0.00048639,-4.6927e-05,1.4496e+08,324.39,0,1.4496e+08,18.676,12878,12136,1,12136,1,0.00036902,2.8027e-11,0,0.00036902,-6.8918e-05,1.1111e+08,7.0463,0,1.1111e+08,-6.7114,12135,11395,1,11395,1,0.00025165,-5.8242e-10,0,0.00025165,-9.0921e-05,7.7614e+07,-151.43,0,7.7614e+07,-38.347,11394,11748,1,11748,1,0.00030195,-9.5929e-11,0,0.00030195,-8.1488e-05,9.2039e+07,-24.097,0,9.2039e+07,-9.8278,11747,12524,1,12524,1,0.00043609,3.8909e-10,0,0.00043609,-5.6352e-05,1.3023e+08,99.201,0,1.3023e+08,1.7141,12523,438.26,0,438.26,0,7.6926e-05,3.5535e-10,0,7.6926e-05,1.4416e-05,2.2005e+07,91.459,0,2.2005e+07,9.5787,438.26,1
432,1.66,12137,1,12137,1,0.00037126,-2.9605e-10,0,0.00037126,-6.9339e-05,1.1184e+08,-75.986,0,1.1184e+08,-11.357,12136,12879,1,12879,1,0.00048935,3.8215e-10,0,0.00048935,-4.7212e-05,1.4584e+08,99.349,0,1.4584e+08,16.986,12878,12136,1,12136,1,0.00037126,-2.0389e-10,0,0.00037126,-6.9337e-05,1.1178e+08,-52.632,0,1.1178e+08,-12.259,12135,11395,1,11395,1,0.00025318,-1.1912e-09,0,0.00025318,-9.1473e-05,7.8085e+07,-309.73,0,7.8085e+07,-37.67,11394,11748,1,11748,1,0.00030379,-5.6218e-10,0,0.00030379,-8.1983e-05,9.2598e+07,-142.81,0,9.2598e+07,-21.086,11747,12524,1,12524,1,0.00043874,3.192e-12,0,0.00043874,-5.6694e-05,1.3102e+08,0.81167,0,1.3102e+08,-1.4874,12523,438.26,0,438.26,0,7.7393e-05,3.7931e-10,0,7.7393e-05,1.4504e-05,2.2139e+07,97.723,0,2.2139e+07,12.232,438.26,1
432,1.67,12137,1,12137,1,0.0003735,2.4902e-10,0,0.0003735,-6.9756e-05,1.1251e+08,64.005,0,1.1251e+08,0.3387,12136,12879,1,12879,1,0.0004923,1.015e-09,0,0.0004923,-4.7496e-05,1.4672e+08,263.89,0,1.4672e+08,17.365,12878,12136,1,12136,1,0.0003735,1.835e-10,0,0.0003735,-6.9754e-05,1.1245e+08,46.252,0,1.1245e+08,1.0685,12135,11395,1,11395,1,0.0002547,-1.9601e-10,0,0.0002547,-9.2024e-05,7.8555e+07,-49.208,0,7.8555e+07,-18.821,11394,11748,1,11748,1,0.00030562,-4.5429e-12,0,0.00030562,-8.2477e-05,9.3156e+07,-1.1488,0,9.3156e+07,-5.1656,11747,12524,1,12524,1,0.00044138,4.9337e-10,0,0.00044138,-5.7035e-05,1.3181e+08,126,0,1.3181e+08,5.9046,12523,438.26,0,438.26,0,7.7859e-05,2.9041e-10,0,7.7859e-05,1.4591e-05,2.2272e+07,74.809,0,2.2272e+07,7.0768,438.26,1
432,1.68,12137,1,12137,1,0.00037572,-1.4693e-10,0,0.00037572,-7.0172e-05,1.1319e+08,-37.609,0,1.1319e+08,-9.9568,12136,12879,1,12879,1,0.00049523,8.4022e-10,0,0.00049523,-4.7779e-05,1.4759e+08,218.44,0,1.4759e+08,13.519,12878,12136,1,12136,1,0.00037572,-8.4913e-11,0,0.00037572,-7.017e-05,1.1313e+08,-21.528,0,1.1313e+08,-10.832,12135,11395,1,11395,1,0.00025622,-1.078e-09,0,0.00025622,-9.2572e-05,7.9023e+07,-280.29,0,7.9023e+07,-40.992,11394,11748,1,11748,1,0.00030744,-3.5257e-10,0,0.00030744,-8.2969e-05,9.3711e+07,-89.498,0,9.3711e+07,-16.018,11747,12524,1,12524,1,0.00044401,3.1202e-11,0,0.00044401,-5.7375e-05,1.326e+08,7.8372,0,1.326e+08,-3.7459,12523,438.26,0,438.26,0,7.8324e-05,3.5066e-10,0,7.8324e-05,1.4678e-05,2.2405e+07,90.253,0,2.2405e+07,10.113,438.26,1
432,1.69,12137,1,12137,1,0.00037797,-3.0207e-10,0,0.00037797,-7.0591e-05,1.1386e+08,-77.493,0,1.1386e+08,-5.1964,12136,12879,1,12879,1,0.00049819,1.2994e-10,0,0.00049819,-4.8064e-05,1.4847e+08,33.774,0,1.4847e+08,15.164,12878,12136,1,12136,1,0.00037797,-2.387e-10,0,0.00037797,-7.0589e-05,1.138e+08,-60.26,0,1.138e+08,-6.1587,12135,11395,1,11395,1,0.00025775,-1.0151e-09,0,0.00025775,-9.3125e-05,7.9495e+07,-263.93,0,7.9495e+07,-25.86,11394,11748,1,11748,1,0.00030927,-5.1705e-10,0,0.00030927,-8.3464e-05,9.427e+07,-132.83,0,9.427e+07,-10.963,11747,12524,1,12524,1,0.00044666,-3.933e-11,0,0.00044666,-5.7718e-05,1.3339e+08,-9.9289,0,1.3339e+08,-0.21008,12523,438.26,0,438.26,0,7.8791e-05,3.0667e-10,0,7.8791e-05,1.4766e-05,2.2538e+07,79.082,0,2.2538e+07,7.8372,438.26,1
432,1.7,12137,1,12137,1,0.0003802,1.5208e-10,0,0.0003802,-7.1009e-05,1.1453e+08,39.047,0,1.1453e+08,-5.4665,12136,12879,1,12879,1,0.00050113,7.461e-10,0,0.00050113,-4.8349e-05,1.4935e+08,193.99,0,1.4935e+08,8.0116,12878,12136,1,12136,1,0.0003802,1.0539e-10,0,0.0003802,-7.1007e-05,1.1447e+08,26.732,0,1.1447e+08,-4.6013,12135,11395,1,11395,1,0.00025928,-1.5616e-10,0,0.00025928,-9.3676e-05,7.9965e+07,-40.598,0,7.9965e+07,-24.598,11394,11748,1,11748,1,0.0003111,-1.324e-11,0,0.0003111,-8.3958e-05,9.4828e+07,-3.3254,0,9.4828e+07,-9.4769,11747,12524,1,12524,1,0.00044931,2.7351e-10,0,0.00044931,-5.806e-05,1.3418e+08,70.055,0,1.3418e+08,-0.94879,12523,438.26,0,438.26,0,7.9258e-05,1.9251e-10,0,7.9258e-05,1.4853e-05,2.2672e+07,49.575,0,2.2672e+07,6.4016,438.26,1
432,1.71,12137,1,12137,1,0.00038243,-1.0772e-10,0,0.00038243,-7.1426e-05,1.1521e+08,-27.618,0,1.1521e+08,-9.7172,12136,12879,1,12879,1,0.00050407,7.4917e-10,0,0.00050407,-4.8633e-05,1.5023e+08,194.78,0,1.5023e+08,13.234,12878,12136,1,12136,1,0.00038243,-5.0513e-11,0,0.00038243,-7.1423e-05,1.1515e+08,-12.773,0,1.1515e+08,-11.575,12135,11395,1,11395,1,0.0002608,-9.3741e-10,0,0.0002608,-9.4225e-05,8.0434e+07,-243.73,0,8.0434e+07,-36.629,11394,11748,1,11748,1,0.00031293,-2.9432e-10,0,0.00031293,-8.4451e-05,9.5385e+07,-74.355,0,9.5385e+07,-15.648,11747,12524,1,12524,1,0.00045194,5.4285e-11,0,0.00045194,-5.84e-05,1.3497e+08,13.673,0,1.3497e+08,-3.6048,12523,438.26,0,438.26,0,7.9722e-05,3.179e-10,0,7.9722e-05,1.494e-05,2.2805e+07,81.794,0,2.2805e+07,9.5083,438.26,1
432,1.72,12137,1,12137,1,0.00038469,2.7863e-10,0,0.00038469,-7.1848e-05,1.1589e+08,71.465,0,1.1589e+08,5.2157,12136,12879,1,12879,1,0.00050705,7.7228e-10,0,0.00050705,-4.892e-05,1.5111e+08,200.8,0,1.5111e+08,19.535,12878,12136,1,12136,1,0.00038469,2.3427e-10,0,0.00038469,-7.1845e-05,1.1583e+08,59.337,0,1.1583e+08,5.0186,12135,11395,1,11395,1,0.00026234,-9.5436e-11,0,0.00026234,-9.4782e-05,8.0909e+07,-23.96,0,8.0909e+07,-7.9706,11394,11748,1,11748,1,0.00031478,8.5771e-11,0,0.00031478,-8.4949e-05,9.5948e+07,21.587,0,9.5948e+07,-0.0042875,11747,12524,1,12524,1,0.00045461,4.5342e-10,0,0.00045461,-5.8745e-05,1.3576e+08,115.95,0,1.3576e+08,10.453,12523,438.26,0,438.26,0,8.0194e-05,2.2946e-10,0,8.0194e-05,1.5029e-05,2.294e+07,59.264,0,2.294e+07,6.2901,438.26,1
432,1.73,12137,1,12137,1,0.00038692,8.5993e-11,0,0.00038692,-7.2262e-05,1.1656e+08,22.113,0,1.1656e+08,-2.5873,12136,12879,1,12879,1,0.00050998,4.8402e-10,0,0.00050998,-4.9203e-05,1.5199e+08,125.84,0,1.5199e+08,4.0012,12878,12136,1,12136,1,0.00038692,4.9561e-11,0,0.00038692,-7.226e-05,1.1649e+08,12.591,0,1.1649e+08,-2.4147,12135,11395,1,11395,1,0.00026385,-1.6458e-10,0,0.00026385,-9.5329e-05,8.1377e+07,-42.79,0,8.1377e+07,-18.79,11394,11748,1,11748,1,0.00031659,-3.4981e-11,0,0.00031659,-8.544e-05,9.6502e+07,-8.7836,0,9.6502e+07,-3.8482,11747,12524,1,12524,1,0.00045724,1.933e-10,0,0.00045724,-5.9084e-05,1.3655e+08,49.252,0,1.3655e+08,-0.19144,12523,438.26,0,438.26,0,8.0657e-05,1.4167e-10,0,8.0657e-05,1.5115e-05,2.3072e+07,36.457,0,2.3072e+07,3.7579,438.26,1
432,1.74,12137,1,12137,1,0.00038917,-2.2375e-10,0,0.00038917,-7.2683e-05,1.1724e+08,-57.501,0,1.1724e+08,5.1464,12136,12879,1,12879,1,0.00051295,1.438e-10,0,0.00051295,-4.9489e-05,1.5287e+08,37.383,0,1.5287e+08,18.498,12878,12136,1,12136,1,0.00038917,-1.5825e-10,0,0.00038917,-7.2681e-05,1.1717e+08,-40.5,0,1.1717e+08,5.134,12135,11395,1,11395,1,0.00026539,-8.7593e-10,0,0.00026539,-9.5885e-05,8.185e+07,-227.75,0,8.185e+07,-9.423,11394,11748,1,11748,1,0.00031844,-4.5188e-10,0,0.00031844,-8.5938e-05,9.7064e+07,-115.49,0,9.7064e+07,1.3834,11747,12524,1,12524,1,0.0004599,2.5621e-11,0,0.0004599,-5.9428e-05,1.3734e+08,6.5503,0,1.3734e+08,8.5265,12523,438.26,0,438.26,0,8.1126e-05,2.8356e-10,0,8.1126e-05,1.5204e-05,2.3207e+07,72.991,0,2.3207e+07,5.6031,438.26,1
432,1.75,12137,1,12137,1,0.00039138,-2.2805e-10,0,0.00039138,-7.3096e-05,1.179e+08,-58.399,0,1.179e+08,-11.222,12136,12879,1,12879,1,0.00051587,1.0549e-09,0,0.00051587,-4.977e-05,1.5374e+08,274.28,0,1.5374e+08,19.562,12878,12136,1,12136,1,0.00039138,-1.3138e-10,0,0.00039138,-7.3094e-05,1.1784e+08,-33.948,0,1.1784e+08,-12.289,12135,11395,1,11395,1,0.0002669,-1.5563e-09,0,0.0002669,-9.643e-05,8.2315e+07,-404.65,0,8.2315e+07,-57.081,11394,11748,1,11748,1,0.00032025,-4.8912e-10,0,0.00032025,-8.6426e-05,9.7616e+07,-125.03,0,9.7616e+07,-20.971,11747,12524,1,12524,1,0.00046251,4.0241e-11,0,0.00046251,-5.9766e-05,1.3812e+08,10.181,0,1.3812e+08,-1.7592,12523,438.26,0,438.26,0,8.1587e-05,4.7704e-10,0,8.1587e-05,1.529e-05,2.3338e+07,122.82,0,2.3338e+07,14.293,438.26,1
432,1.76,12137,1,12137,1,0.00039363,3.9464e-11,0,0.00039363,-7.3517e-05,1.1858e+08,9.9705,0,1.1858e+08,-4.3654,12136,12879,1,12879,1,0.00051883,3.6011e-10,0,0.00051883,-5.0057e-05,1.5462e+08,93.628,0,1.5462e+08,6.4232,12878,12136,1,12136,1,0.00039363,5.2342e-11,0,0.00039363,-7.3514e-05,1.1852e+08,13.159,0,1.1852e+08,-4.5187,12135,11395,1,11395,1,0.00026843,-1.8297e-10,0,0.00026843,-9.6984e-05,8.2789e+07,-47.573,0,8.2789e+07,-15.049,11394,11748,1,11748,1,0.00032209,-5.4734e-11,0,0.00032209,-8.6923e-05,9.8177e+07,-14.019,0,9.8177e+07,-7.4592,11747,12524,1,12524,1,0.00046517,1.0363e-10,0,0.00046517,-6.011e-05,1.3892e+08,26.091,0,1.3892e+08,-1.5642,12523,438.26,0,438.26,0,8.2057e-05,1.1431e-10,0,8.2057e-05,1.5378e-05,2.3473e+07,29.357,0,2.3473e+07,4.3046,438.26,1
432,1.77,12137,1,12137,1,0.00039586,-7.8155e-11,0,0.00039586,-7.3933e-05,1.1925e+08,-20.035,0,1.1925e+08,-3.9593,12136,12879,1,12879,1,0.00052177,3.3672e-10,0,0.00052177,-5.034e-05,1.555e+08,87.542,0,1.555e+08,6.384,12878,12136,1,12136,1,0.00039586,-4.5251e-11,0,0.00039586,-7.393e-05,1.1919e+08,-11.497,0,1.1919e+08,-4.3574,12135,11395,1,11395,1,0.00026995,-5.522e-10,0,0.00026995,-9.7533e-05,8.3257e+07,-143.57,0,8.3257e+07,-17.882,11394,11748,1,11748,1,0.00032391,-1.7914e-10,0,0.00032391,-8.7415e-05,9.8733e+07,-45.888,0,9.8733e+07,-6.1639,11747,12524,1,12524,1,0.00046781,1.1666e-11,0,0.00046781,-6.045e-05,1.397e+08,2.9288,0,1.397e+08,-1.4329,12523,438.26,0,438.26,0,8.2521e-05,1.6545e-10,0,8.2521e-05,1.5465e-05,2.3606e+07,42.56,0,2.3606e+07,4.1071,438.26,1
432,1.78,12137,1,12137,1,0.0003981,-4.6634e-10,0,0.0003981,-7.4351e-05,1.1992e+08,-119.64,0,1.1992e+08,-3.8557,12136,12879,1,12879,1,0.00052472,1.4528e-10,0,0.00052472,-5.0624e-05,1.5638e+08,36.471,0,1.5638e+08,10.888,12878,12136,1,12136,1,0.0003981,-4.6943e-10,0,0.0003981,-7.4348e-05,1.1986e+08,-119.24,0,1.1986e+08,-3.7313,12135,11395,1,11395,1,0.00027148,-1.1595e-09,0,0.00027148,-9.8085e-05,8.3727e+07,-301.47,0,8.3727e+07,-24.085,11394,11748,1,11748,1,0.00032574,-7.6081e-10,0,0.00032574,-8.7909e-05,9.9291e+07,-196.48,0,9.9291e+07,-8.8685,11747,12524,1,12524,1,0.00047045,-1.3434e-10,0,0.00047045,-6.0792e-05,1.4049e+08,-33.764,0,1.4049e+08,1.8107,12523,438.26,0,438.26,0,8.2987e-05,3.7215e-10,0,8.2987e-05,1.5552e-05,2.3739e+07,96.121,0,2.3739e+07,7.2094,438.26,1
432,1.79,12137,1,12137,1,0.00040033,2.0571e-10,0,0.00040033,-7.4769e-05,1.206e+08,52.88,0,1.206e+08,-5.4423,12136,12879,1,12879,1,0.00052767,1.2983e-09,0,0.00052767,-5.0909e-05,1.5726e+08,337.55,0,1.5726e+08,16.987,12878,12136,1,12136,1,0.00040033,9.6278e-11,0,0.00040033,-7.4766e-05,1.2054e+08,24.462,0,1.2054e+08,-6.5288,12135,11395,1,11395,1,0.000273,-5.2214e-10,0,0.000273,-9.8636e-05,8.4198e+07,-135.76,0,8.4198e+07,-34.199,11394,11748,1,11748,1,0.00032757,-6.8126e-11,0,0.00032757,-8.8403e-05,9.9849e+07,-17.109,0,9.9849e+07,-12.884,11747,12524,1,12524,1,0.00047309,4.8063e-10,0,0.00047309,-6.1134e-05,1.4128e+08,122.43,0,1.4128e+08,1.0875,12523,438.26,0,438.26,0,8.3454e-05,3.7886e-10,0,8.3454e-05,1.564e-05,2.3872e+07,97.552,0,2.3872e+07,9.6131,438.26,1
432,1.8,12137,1,12137,1,0.00040257,1.0437e-10,0,0.00040257,-7.5187e-05,1.2127e+08,26.857,0,1.2127e+08,-2.6186,12136,12879,1,12879,1,0.00053062,4.4181e-10,0,0.00053062,-5.1194e-05,1.5814e+08,114.87,0,1.5814e+08,6.4421,12878,12136,1,12136,1,0.00040257,9.3204e-11,0,0.00040257,-7.5184e-05,1.2121e+08,23.605,0,1.2121e+08,-2.8125,12135,11395,1,11395,1,0.00027453,-8.7071e-11,0,0.00027453,-9.9187e-05,8.4669e+07,-21.86,0,8.4669e+07,-15.191,11394,11748,1,11748,1,0.00032941,-1.4712e-12,0,0.00032941,-8.8897e-05,1.0041e+08,-0.3704,0,1.0041e+08,-5.369,11747,12524,1,12524,1,0.00047574,2.017e-10,0,0.00047574,-6.1475e-05,1.4207e+08,51.683,0,1.4207e+08,-0.13241,12523,438.26,0,438.26,0,8.392e-05,1.2788e-10,0,8.392e-05,1.5727e-05,2.4006e+07,32.896,0,2.4006e+07,4.1659,438.26,1
432,1.81,12137,1,12137,1,0.00040481,-4.142e-10,0,0.00040481,-7.5604e-05,1.2195e+08,-106.34,0,1.2195e+08,-12.958,12136,12879,1,12879,1,0.00053357,2.2038e-10,0,0.00053357,-5.1477e-05,1.5902e+08,55.329,0,1.5902e+08,15.22,12878,12136,1,12136,1,0.00040481,-3.2938e-10,0,0.00040481,-7.5601e-05,1.2188e+08,-83.861,0,1.2188e+08,-14.136,12135,11395,1,11395,1,0.00027605,-1.5149e-09,0,0.00027605,-9.9738e-05,8.5138e+07,-393.89,0,8.5138e+07,-58.862,11394,11748,1,11748,1,0.00033123,-7.3028e-10,0,0.00033123,-8.9391e-05,1.0096e+08,-186.44,0,1.0096e+08,-19.789,11747,12524,1,12524,1,0.00047838,-2.7607e-11,0,0.00047838,-6.1817e-05,1.4286e+08,-7.0258,0,1.4286e+08,-4.3397,12523,438.26,0,438.26,0,8.4386e-05,4.5167e-10,0,8.4386e-05,1.5814e-05,2.4139e+07,116.39,0,2.4139e+07,13.41,438.26,1
432,1.82,12137,1,12137,1,0.00040705,-4.6018e-11,0,0.00040705,-7.6023e-05,1.2262e+08,-11.83,0,1.2262e+08,-2.555,12136,12879,1,12879,1,0.00053652,5.4335e-10,0,0.00053652,-5.1763e-05,1.599e+08,141.27,0,1.599e+08,12.824,12878,12136,1,12136,1,0.00040705,-1.3889e-11,0,0.00040705,-7.6021e-05,1.2256e+08,-3.4921,0,1.2256e+08,-1.6642,12135,11395,1,11395,1,0.00027758,-5.3293e-10,0,0.00027758,-0.00010029,8.5611e+07,-138.57,0,8.5611e+07,-24.279,11394,11748,1,11748,1,0.00033307,-1.8469e-10,0,0.00033307,-8.9887e-05,1.0152e+08,-47.085,0,1.0152e+08,-9.5159,11747,12524,1,12524,1,0.00048103,8.183e-11,0,0.00048103,-6.2159e-05,1.4365e+08,20.628,0,1.4365e+08,4.3062,12523,438.26,0,438.26,0,8.4854e-05,2.1232e-10,0,8.4854e-05,1.5902e-05,2.4273e+07,54.648,0,2.4273e+07,8.0751,438.26,1
432,1.83,12137,1,12137,1,0.00040928,1.4732e-11,0,0.00040928,-7.644e-05,1.233e+08,3.8619,0,1.233e+08,-4.781,12136,12879,1,12879,1,0.00053946,7.1353e-10,0,0.00053946,-5.2047e-05,1.6077e+08,185.51,0,1.6077e+08,11.885,12878,12136,1,12136,1,0.00040929,-1.3518e-11,0,0.00040929,-7.6438e-05,1.2323e+08,-3.4052,0,1.2323e+08,-5.8742,12135,11395,1,11395,1,0.00027911,-4.5514e-10,0,0.00027911,-0.00010084,8.608e+07,-118.34,0,8.608e+07,-24.769,11394,11748,1,11748,1,0.0003349,-1.0749e-10,0,0.0003349,-9.038e-05,1.0208e+08,-27.175,0,1.0208e+08,-9.4253,11747,12524,1,12524,1,0.00048367,1.0977e-10,0,0.00048367,-6.25e-05,1.4444e+08,28.053,0,1.4444e+08,-0.75697,12523,438.26,0,438.26,0,8.532e-05,2.1292e-10,0,8.532e-05,1.5989e-05,2.4406e+07,54.788,0,2.4406e+07,6.7702,438.26,1
432,1.84,12137,1,12137,1,0.00041151,-2.0144e-10,0,0.00041151,-7.6857e-05,1.2397e+08,-51.646,0,1.2397e+08,-5.1659,12136,12879,1,12879,1,0.0005424,3.1452e-10,0,0.0005424,-5.2331e-05,1.6165e+08,81.764,0,1.6165e+08,10.983,12878,12136,1,12136,1,0.00041152,-1.4506e-10,0,0.00041152,-7.6854e-05,1.239e+08,-36.56,0,1.239e+08,-5.4925,12135,11395,1,11395,1,0.00028063,-8.3917e-10,0,0.00028063,-0.00010139,8.6549e+07,-218.19,0,8.6549e+07,-23.312,11394,11748,1,11748,1,0.00033672,-3.7714e-10,0,0.00033672,-9.0872e-05,1.0264e+08,-96.348,0,1.0264e+08,-9.6049,11747,12524,1,12524,1,0.00048631,-1.491e-12,0,0.00048631,-6.2841e-05,1.4523e+08,-0.38126,0,1.4523e+08,-0.32282,12523,438.26,0,438.26,0,8.5785e-05,2.4664e-10,0,8.5785e-05,1.6076e-05,2.4539e+07,63.563,0,2.4539e+07,6.7826,438.26,1
432,1.85,12137,1,12137,1,0.00041375,1.5787e-11,0,0.00041375,-7.7275e-05,1.2464e+08,4.0126,0,1.2464e+08,-2.8948,12136,12879,1,12879,1,0.00054535,2.5148e-10,0,0.00054535,-5.2616e-05,1.6253e+08,65.38,0,1.6253e+08,6.8138,12878,12136,1,12136,1,0.00041375,2.0263e-11,0,0.00041375,-7.7272e-05,1.2458e+08,5.1084,0,1.2458e+08,-3.0364,12135,11395,1,11395,1,0.00028216,-2.6598e-10,0,0.00028216,-0.00010194,8.702e+07,-69.154,0,8.702e+07,-12.098,11394,11748,1,11748,1,0.00033855,-2.5327e-11,0,0.00033855,-9.1367e-05,1.032e+08,-6.4489,0,1.032e+08,-4.2723,11747,12524,1,12524,1,0.00048895,6.511e-11,0,0.00048895,-6.3183e-05,1.4602e+08,16.501,0,1.4602e+08,-0.93383,12523,438.26,0,438.26,0,8.6251e-05,8.8314e-11,0,8.6251e-05,1.6164e-05,2.4673e+07,22.698,0,2.4673e+07,3.3818,438.26,1
432,1.86,12137,1,12137,1,0.00041599,7.7987e-11,0,0.00041599,-7.7693e-05,1.2532e+08,20.021,0,1.2532e+08,-3.1899,12136,12879,1,12879,1,0.0005483,5.4073e-10,0,0.0005483,-5.29e-05,1.6341e+08,140.58,0,1.6341e+08,6.1119,12878,12136,1,12136,1,0.00041599,4.3963e-11,0,0.00041599,-7.769e-05,1.2525e+08,11.093,0,1.2525e+08,-3.8547,12135,11395,1,11395,1,0.00028368,-2.1456e-10,0,0.00028368,-0.00010249,8.749e+07,-55.785,0,8.749e+07,-15.188,11394,11748,1,11748,1,0.00034039,-2.2089e-11,0,0.00034039,-9.1861e-05,1.0375e+08,-5.5753,0,1.0375e+08,-4.8416,11747,12524,1,12524,1,0.0004916,1.6834e-10,0,0.0004916,-6.3524e-05,1.4681e+08,43.026,0,1.4681e+08,-1.2228,12523,438.26,0,438.26,0,8.6718e-05,1.4232e-10,0,8.6718e-05,1.6251e-05,2.4806e+07,36.631,0,2.4806e+07,3.4077,438.26,1
432,1.87,12137,1,12137,1,0.00041823,-5.4636e-11,0,0.00041823,-7.8111e-05,1.2599e+08,-14.011,0,1.2599e+08,-2.9486,12136,12879,1,12879,1,0.00055125,9.7218e-11,0,0.00055125,-5.3184e-05,1.6429e+08,25.273,0,1.6429e+08,3.4182,12878,12136,1,12136,1,0.00041823,-4.2731e-11,0,0.00041823,-7.8108e-05,1.2592e+08,-10.794,0,1.2592e+08,-2.6613,12135,11395,1,11395,1,0.00028521,-2.8716e-10,0,0.00028521,-0.00010304,8.7961e+07,-74.658,0,8.7961e+07,-9.889,11394,11748,1,11748,1,0.00034222,-1.0658e-10,0,0.00034222,-9.2354e-05,1.0431e+08,-27.272,0,1.0431e+08,-4.5568,11747,12524,1,12524,1,0.00049424,4.8779e-12,0,0.00049424,-6.3866e-05,1.476e+08,1.2283,0,1.476e+08,-1.1538,12523,438.26,0,438.26,0,8.7184e-05,7.3651e-11,0,8.7184e-05,1.6339e-05,2.494e+07,18.955,0,2.494e+07,2.568,438.26,1
432,1.88,12137,1,12137,1,0.00042046,-5.5439e-11,0,0.00042046,-7.8528e-05,1.2666e+08,-14.16,0,1.2666e+08,-5.2204,12136,12879,1,12879,1,0.0005542,2.7465e-10,0,0.0005542,-5.3469e-05,1.6516e+08,71.403,0,1.6516e+08,5.1963,12878,12136,1,12136,1,0.00042046,-2.9559e-11,0,0.00042046,-7.8526e-05,1.266e+08,-7.4544,0,1.266e+08,-5.2818,12135,11395,1,11395,1,0.00028673,-4.5436e-10,0,0.00028673,-0.00010359,8.8431e+07,-118.13,0,8.8431e+07,-14.244,11394,11748,1,11748,1,0.00034405,-1.2315e-10,0,0.00034405,-9.2848e-05,1.0487e+08,-31.356,0,1.0487e+08,-7.7447,11747,12524,1,12524,1,0.00049688,1.4213e-11,0,0.00049688,-6.4207e-05,1.4839e+08,3.5825,0,1.4839e+08,-2.6686,12523,438.26,0,438.26,0,8.765e-05,1.3331e-10,0,8.765e-05,1.6426e-05,2.5073e+07,34.279,0,2.5073e+07,4.0595,438.26,1
432,1.89,12137,1,12137,1,0.00042271,5.3451e-12,0,0.00042271,-7.8947e-05,1.2734e+08,1.4805,0,1.2734e+08,-0.78608,12136,12879,1,12879,1,0.00055715,1.5965e-10,0,0.00055715,-5.3754e-05,1.6604e+08,41.508,0,1.6604e+08,5.26,12878,12136,1,12136,1,0.00042271,2.7916e-13,0,0.00042271,-7.8944e-05,1.2727e+08,0.071403,0,1.2727e+08,-0.57011,12135,11395,1,11395,1,0.00028826,-9.2327e-11,0,0.00028826,-0.00010415,8.8902e+07,-23.316,0,8.8902e+07,-7.2574,11394,11748,1,11748,1,0.00034588,-3.8722e-11,0,0.00034588,-9.3343e-05,1.0543e+08,-9.7483,0,1.0543e+08,-2.9676,11747,12524,1,12524,1,0.00049953,4.4433e-11,0,0.00049953,-6.455e-05,1.4918e+08,11.386,0,1.4918e+08,1.5716,12523,438.26,0,438.26,0,8.8117e-05,5.8981e-11,0,8.8117e-05,1.6514e-05,2.5207e+07,15.073,0,2.5207e+07,2.8965,438.26,1
432,1.9,12137,1,12137,1,0.00042494,9.2651e-11,0,0.00042494,-7.9364e-05,1.2801e+08,23.87,0,1.2801e+08,-8.45,12136,12879,1,12879,1,0.0005601,9.7349e-10,0,0.0005601,-5.4038e-05,1.6692e+08,253.1,0,1.6692e+08,14.204,12878,12136,1,12136,1,0.00042494,2.845e-11,0,0.00042494,-7.9361e-05,1.2794e+08,7.1907,0,1.2794e+08,-10.307,12135,11395,1,11395,1,0.00028978,-5.6913e-10,0,0.00028978,-0.0001047,8.9371e+07,-147.97,0,8.9371e+07,-29.408,11394,11748,1,11748,1,0.00034771,-9.4087e-11,0,0.00034771,-9.3836e-05,1.0599e+08,-23.717,0,1.0599e+08,-14.629,11747,12524,1,12524,1,0.00050217,2.721e-10,0,0.00050217,-6.4891e-05,1.4997e+08,70.199,0,1.4997e+08,-2.4446,12523,438.26,0,438.26,0,8.8582e-05,2.8785e-10,0,8.8582e-05,1.6601e-05,2.534e+07,74.051,0,2.534e+07,8.6111,438.26,1
432,1.91,12137,1,12137,1,0.00042718,1.5653e-11,0,0.00042718,-7.9782e-05,1.2869e+08,4.027,0,1.2869e+08,-2.4153,12136,12879,1,12879,1,0.00056305,2.2543e-10,0,0.00056305,-5.4323e-05,1.678e+08,58.609,0,1.678e+08,2.5423,12878,12136,1,12136,1,0.00042718,5.6085e-12,0,0.00042718,-7.9779e-05,1.2862e+08,1.4279,0,1.2862e+08,-2.2011,12135,11395,1,11395,1,0.00029131,-1.3898e-10,0,0.00029131,-0.00010525,8.9842e+07,-36.135,0,8.9842e+07,-11.742,11394,11748,1,11748,1,0.00034954,-2.5866e-11,0,0.00034954,-9.4331e-05,1.0654e+08,-6.5785,0,1.0654e+08,-3.2536,11747,12524,1,12524,1,0.00050482,5.062e-11,0,0.00050482,-6.5233e-05,1.5076e+08,12.871,0,1.5076e+08,-1.0344,12523,438.26,0,438.26,0,8.905e-05,6.5798e-11,0,8.905e-05,1.6688e-05,2.5473e+07,16.902,0,2.5473e+07,2.1843,438.26,1
432,1.92,12137,1,12137,1,0.00042941,2.5218e-10,0,0.00042941,-8.0199e-05,1.2936e+08,64.769,0,1.2936e+08,-15.762,12136,12879,1,12879,1,0.00056599,1.3069e-09,0,0.00056599,-5.4606e-05,1.6868e+08,339.79,0,1.6868e+08,12.141,12878,12136,1,12136,1,0.00042941,1.0864e-10,0,0.00042941,-8.0196e-05,1.2929e+08,27.442,0,1.2929e+08,-15.701,12135,11395,1,11395,1,0.00029283,-3.5808e-10,0,0.00029283,-0.0001058,9.0311e+07,-93.097,0,9.0311e+07,-42.904,11394,11748,1,11748,1,0.00035137,-6.8531e-11,0,0.00035137,-9.4824e-05,1.071e+08,-17.221,0,1.071e+08,-25.585,11747,12524,1,12524,1,0.00050745,5.2951e-10,0,0.00050745,-6.5573e-05,1.5154e+08,134.59,0,1.5154e+08,-6.3445,12523,438.26,0,438.26,0,8.9515e-05,3.8307e-10,0,8.9515e-05,1.6775e-05,2.5607e+07,98.634,0,2.5607e+07,12.679,438.26,1
432,1.93,12137,1,12137,1,0.00043165,-1.4036e-10,0,0.00043165,-8.0617e-05,1.3003e+08,-35.976,0,1.3003e+08,-7.5338,12136,12879,1,12879,1,0.00056894,4.3555e-10,0,0.00056894,-5.4891e-05,1.6956e+08,113.24,0,1.6956e+08,9.5435,12878,12136,1,12136,1,0.00043165,-8.4159e-11,0,0.00043165,-8.0614e-05,1.2996e+08,-21.222,0,1.2996e+08,-9.2892,12135,11395,1,11395,1,0.00029436,-7.9299e-10,0,0.00029436,-0.00010635,9.0782e+07,-206.18,0,9.0782e+07,-24.73,11394,11748,1,11748,1,0.0003532,-2.9657e-10,0,0.0003532,-9.5318e-05,1.0766e+08,-75.266,0,1.0766e+08,-12.054,11747,12524,1,12524,1,0.0005101,2.3326e-11,0,0.0005101,-6.5915e-05,1.5233e+08,5.8634,0,1.5233e+08,-2.9293,12523,438.26,0,438.26,0,8.9981e-05,2.4659e-10,0,8.9981e-05,1.6863e-05,2.574e+07,63.475,0,2.574e+07,6.8271,438.26,1
432,1.94,12137,1,12137,1,0.00043388,1.3196e-10,0,0.00043388,-8.1034e-05,1.307e+08,34.042,0,1.307e+08,-1.4055,12136,12879,1,12879,1,0.00057189,6.0222e-10,0,0.00057189,-5.5175e-05,1.7044e+08,156.58,0,1.7044e+08,13.218,12878,12136,1,12136,1,0.00043388,1.2114e-10,0,0.00043388,-8.1032e-05,1.3064e+08,30.653,0,1.3064e+08,-0.43583,12135,11395,1,11395,1,0.00029588,-1.7045e-10,0,0.00029588,-0.0001069,9.1252e+07,-42.793,0,9.1252e+07,-18.363,11394,11748,1,11748,1,0.00035503,-3.7581e-11,0,0.00035503,-9.5812e-05,1.0822e+08,-9.4393,0,1.0822e+08,-4.9082,11747,12524,1,12524,1,0.00051274,2.7097e-10,0,0.00051274,-6.6257e-05,1.5312e+08,69.541,0,1.5312e+08,2.1749,12523,438.26,0,438.26,0,9.0447e-05,1.9035e-10,0,9.0447e-05,1.695e-05,2.5873e+07,48.907,0,2.5873e+07,5.3112,438.26,1
432,1.95,12137,1,12137,1,0.00043612,-1.2455e-10,0,0.00043612,-8.1453e-05,1.3138e+08,-31.939,0,1.3138e+08,-4.1764,12136,12879,1,12879,1,0.00057484,3.3505e-10,0,0.00057484,-5.546e-05,1.7132e+08,87.103,0,1.7132e+08,9.7376,12878,12136,1,12136,1,0.00043612,-7.4573e-11,0,0.00043612,-8.145e-05,1.3131e+08,-18.953,0,1.3131e+08,-4.4482,12135,11395,1,11395,1,0.00029741,-6.3208e-10,0,0.00029741,-0.00010745,9.1723e+07,-164.34,0,9.1723e+07,-20.228,11394,11748,1,11748,1,0.00035686,-2.5665e-10,0,0.00035686,-9.6306e-05,1.0878e+08,-65.467,0,1.0878e+08,-7.6845,11747,12524,1,12524,1,0.00051539,1.5118e-11,0,0.00051539,-6.6599e-05,1.5391e+08,3.7981,0,1.5391e+08,-0.39012,12523,438.26,0,438.26,0,9.0914e-05,1.9232e-10,0,9.0914e-05,1.7038e-05,2.6007e+07,49.531,0,2.6007e+07,5.6115,438.26,1
432,1.96,12137,1,12137,1,0.00043836,8.0233e-11,0,0.00043836,-8.187e-05,1.3205e+08,20.728,0,1.3205e+08,-1.2771,12136,12879,1,12879,1,0.00057778,5.1438e-10,0,0.00057778,-5.5744e-05,1.7219e+08,133.74,0,1.7219e+08,10.766,12878,12136,1,12136,1,0.00043836,4.5222e-11,0,0.00043836,-8.1868e-05,1.3198e+08,11.397,0,1.3198e+08,-0.13317,12135,11395,1,11395,1,0.00029893,-2.8061e-10,0,0.00029893,-0.000108,9.2193e+07,-72.955,0,9.2193e+07,-22.352,11394,11748,1,11748,1,0.00035869,-6.7906e-11,0,0.00035869,-9.68e-05,1.0933e+08,-17.093,0,1.0933e+08,-4.8133,11747,12524,1,12524,1,0.00051803,2.3143e-10,0,0.00051803,-6.694e-05,1.547e+08,58.906,0,1.547e+08,2.1347,12523,438.26,0,438.26,0,9.138e-05,1.7908e-10,0,9.138e-05,1.7125e-05,2.614e+07,46.038,0,2.614e+07,5.1848,438.26,1
432,1.97,12137,1,12137,1,0.00044059,-1.5117e-10,0,0.00044059,-8.2288e-05,1.3273e+08,-38.842,0,1.3273e+08,-5.3808,12136,12879,1,12879,1,0.00058073,5.4162e-10,0,0.00058073,-5.6029e-05,1.7307e+08,140.81,0,1.7307e+08,16.438,12878,12136,1,12136,1,0.00044059,-6.0592e-11,0,0.00044059,-8.2285e-05,1.3266e+08,-15.283,0,1.3266e+08,-6.839,12135,11395,1,11395,1,0.00030046,-9.1887e-10,0,0.00030046,-0.00010855,9.2663e+07,-238.91,0,9.2663e+07,-29.073,11394,11748,1,11748,1,0.00036052,-3.5038e-10,0,0.00036052,-9.7293e-05,1.0989e+08,-89.222,0,1.0989e+08,-11.436,11747,12524,1,12524,1,0.00052067,5.0605e-11,0,0.00052067,-6.7281e-05,1.5549e+08,12.775,0,1.5549e+08,0.49523,12523,438.26,0,438.26,0,9.1846e-05,2.9667e-10,0,9.1846e-05,1.7212e-05,2.6274e+07,76.375,0,2.6274e+07,9.0714,438.26,1
432,1.98,12137,1,12137,1,0.00044283,2.2525e-10,0,0.00044283,-8.2705e-05,1.334e+08,57.854,0,1.334e+08,-1.6961,12136,12879,1,12879,1,0.00058368,8.9986e-10,0,0.00058368,-5.6313e-05,1.7395e+08,233.96,0,1.7395e+08,10.527,12878,12136,1,12136,1,0.00044283,1.6772e-10,0,0.00044283,-8.2702e-05,1.3333e+08,42.732,0,1.3333e+08,-1.9438,12135,11395,1,11395,1,0.00030198,-1.2947e-10,0,0.00030198,-0.00010911,9.3133e+07,-32.502,0,9.3133e+07,-17.912,11394,11748,1,11748,1,0.00036235,3.4045e-12,0,0.00036235,-9.7787e-05,1.1045e+08,0.86167,0,1.1045e+08,-4.9436,11747,12524,1,12524,1,0.00052331,4.289e-10,0,0.00052331,-6.7623e-05,1.5628e+08,109.83,0,1.5628e+08,1.7781,12523,438.26,0,438.26,0,9.2312e-05,2.589e-10,0,9.2312e-05,1.73e-05,2.6407e+07,66.718,0,2.6407e+07,4.8596,438.26,1
432,1.99,12137,1,12137,1,0.00044507,-1.2182e-10,0,0.00044507,-8.3123e-05,1.3407e+08,-31.177,0,1.3407e+08,-3.3806,12136,12879,1,12879,1,0.00058662,2.1664e-10,0,0.00058662,-5.6597e-05,1.7483e+08,56.319,0,1.7483e+08,5.4116,12878,12136,1,12136,1,0.00044507,-8.5215e-11,0,0.00044507,-8.312e-05,1.34e+08,-21.625,0,1.34e+08,-3.864,12135,11395,1,11395,1,0.00030351,-5.7025e-10,0,0.00030351,-0.00010966,9.3603e+07,-148.26,0,9.3603e+07,-12.377,11394,11748,1,11748,1,0.00036418,-2.128e-10,0,0.00036418,-9.8281e-05,1.1101e+08,-54.048,0,1.1101e+08,-5.9886,11747,12524,1,12524,1,0.00052596,-1.6169e-11,0,0.00052596,-6.7964e-05,1.5707e+08,-4.0616,0,1.5707e+08,-1.0978,12523,438.26,0,438.26,0,9.2778e-05,1.5303e-10,0,9.2778e-05,1.7387e-05,2.654e+07,39.419,0,2.654e+07,3.442,438.26,1
432,2,12137,1,12137,1,0.0004473,8.1302e-11,0,0.0004473,-8.3541e-05,1.3475e+08,20.838,0,1.3475e+08,-2.6686,12136,12879,1,12879,1,0.00058957,4.016e-10,0,0.00058957,-5.6882e-05,1.7571e+08,104.41,0,1.7571e+08,4.6425,12878,12136,1,12136,1,0.0004473,5.8321e-11,0,0.0004473,-8.3538e-05,1.3468e+08,14.783,0,1.3468e+08,-2.9246,12135,11395,1,11395,1,0.00030503,-9.4898e-11,0,0.00030503,-0.00011021,9.4074e+07,-24.671,0,9.4074e+07,-8.1471,11394,11748,1,11748,1,0.00036601,9.0027e-13,0,0.00036601,-9.8775e-05,1.1156e+08,0.22625,0,1.1156e+08,-4.0224,11747,12524,1,12524,1,0.0005286,1.418e-10,0,0.0005286,-6.8306e-05,1.5786e+08,36.106,0,1.5786e+08,-1.426,12523,438.26,0,438.26,0,9.3245e-05,1.0108e-10,0,9.3245e-05,1.7475e-05,2.6674e+07,26.018,0,2.6674e+07,2.0931,438.26,1
432,2.01,12137,1,12137,1,0.00044954,-1.3994e-10,0,0.00044954,-8.3959e-05,1.3542e+08,-35.951,0,1.3542e+08,-4.6711,12136,12879,1,12879,1,0.00059253,2.166e-10,0,0.00059253,-5.7167e-05,1.7659e+08,56.309,0,1.7659e+08,9.681,12878,12136,1,12136,1,0.00044954,-1.0014e-10,0,0.00044954,-8.3956e-05,1.3535e+08,-25.247,0,1.3535e+08,-4.8117,12135,11395,1,11395,1,0.00030656,-6.2348e-10,0,0.00030656,-0.00011076,9.4545e+07,-162.1,0,9.4545e+07,-22.803,11394,11748,1,11748,1,0.00036784,-2.8041e-10,0,0.00036784,-9.927e-05,1.1212e+08,-71.159,0,1.1212e+08,-7.835,11747,12524,1,12524,1,0.00053125,2.6556e-11,0,0.00053125,-6.8648e-05,1.5865e+08,6.6953,0,1.5865e+08,-0.48796,12523,438.26,0,438.26,0,9.3712e-05,1.9387e-10,0,9.3712e-05,1.7562e-05,2.6807e+07,49.919,0,2.6807e+07,5.9949,438.26,1
432,2.02,12137,1,12137,1,0.00045178,-2.2578e-10,0,0.00045178,-8.4376e-05,1.361e+08,-57.963,0,1.361e+08,-2.9032,12136,12879,1,12879,1,0.00059547,1.3718e-10,0,0.00059547,-5.7451e-05,1.7747e+08,34.44,0,1.7747e+08,12.696,12878,12136,1,12136,1,0.00045178,-1.8202e-10,0,0.00045178,-8.4374e-05,1.3602e+08,-46.275,0,1.3602e+08,-3.4326,12135,11395,1,11395,1,0.00030808,-7.9967e-10,0,0.00030808,-0.00011131,9.5014e+07,-207.91,0,9.5014e+07,-18.111,11394,11748,1,11748,1,0.00036967,-3.9784e-10,0,0.00036967,-9.9763e-05,1.1268e+08,-101.27,0,1.1268e+08,-7.799,11747,12524,1,12524,1,0.00053389,-2.5559e-11,0,0.00053389,-6.8989e-05,1.5944e+08,-6.435,0,1.5944e+08,1.9875,12523,438.26,0,438.26,0,9.4177e-05,2.3683e-10,0,9.4177e-05,1.7649e-05,2.6941e+07,61.051,0,2.6941e+07,6.3735,438.26,1
432,2.03,12137,1,12137,1,0.00045401,1.468e-10,0,0.00045401,-8.4794e-05,1.3677e+08,37.763,0,1.3677e+08,-5.1486,12136,12879,1,12879,1,0.00059842,7.5515e-10,0,0.00059842,-5.7735e-05,1.7834e+08,196.33,0,1.7834e+08,10.311,12878,12136,1,12136,1,0.00045401,9.7632e-11,0,0.00045401,-8.4791e-05,1.367e+08,24.735,0,1.367e+08,-5.6466,12135,11395,1,11395,1,0.00030961,-2.1793e-10,0,0.00030961,-0.00011186,9.5484e+07,-56.655,0,9.5484e+07,-19.595,11394,11748,1,11748,1,0.0003715,-4.9781e-11,0,0.0003715,-0.00010026,1.1324e+08,-12.507,0,1.1324e+08,-9.9635,11747,12524,1,12524,1,0.00053653,3.1723e-10,0,0.00053653,-6.9331e-05,1.6023e+08,81.575,0,1.6023e+08,-0.68023,12523,438.26,0,438.26,0,9.4643e-05,2.1796e-10,0,9.4643e-05,1.7737e-05,2.7074e+07,56.073,0,2.7074e+07,5.8724,438.26,1
432,2.04,12137,1,12137,1,0.00045625,1.9248e-10,0,0.00045625,-8.5212e-05,1.3744e+08,49.496,0,1.3744e+08,-2.6776,12136,12879,1,12879,1,0.00060137,1.0121e-09,0,0.00060137,-5.802e-05,1.7922e+08,263.14,0,1.7922e+08,14.719,12878,12136,1,12136,1,0.00045625,1.3163e-10,0,0.00045625,-8.5209e-05,1.3737e+08,33.538,0,1.3737e+08,-3.0111,12135,11395,1,11395,1,0.00031114,-3.0625e-10,0,0.00031114,-0.00011241,9.5955e+07,-79.622,0,9.5955e+07,-27.372,11394,11748,1,11748,1,0.00037333,-3.8911e-11,0,0.00037333,-0.00010075,1.138e+08,-9.7781,0,1.138e+08,-7.8531,11747,12524,1,12524,1,0.00053918,4.2355e-10,0,0.00053918,-6.9673e-05,1.6102e+08,108.17,0,1.6102e+08,1.9589,12523,438.26,0,438.26,0,9.511e-05,3.0046e-10,0,9.511e-05,1.7824e-05,2.7208e+07,77.371,0,2.7208e+07,7.4345,438.26,1
432,2.05,12137,1,12137,1,0.00045849,-7.4515e-11,0,0.00045849,-8.563e-05,1.3812e+08,-19.109,0,1.3812e+08,-2.9972,12136,12879,1,12879,1,0.00060432,1.5702e-10,0,0.00060432,-5.8304e-05,1.801e+08,40.82,0,1.801e+08,9.9913,12878,12136,1,12136,1,0.00045849,-2.7775e-11,0,0.00045849,-8.5627e-05,1.3804e+08,-7.0054,0,1.3804e+08,-3.4495,12135,11395,1,11395,1,0.00031266,-5.3877e-10,0,0.00031266,-0.00011296,9.6425e+07,-140.08,0,9.6425e+07,-14.151,11394,11748,1,11748,1,0.00037516,-1.363e-10,0,0.00037516,-0.00010125,1.1435e+08,-34.707,0,1.1435e+08,-5.76,11747,12524,1,12524,1,0.00054182,9.1923e-12,0,0.00054182,-7.0014e-05,1.6181e+08,2.3084,0,1.6181e+08,-0.43667,12523,438.26,0,438.26,0,9.5576e-05,1.3632e-10,0,9.5576e-05,1.7912e-05,2.7341e+07,35.096,0,2.7341e+07,4.421,438.26,1
432,2.06,12137,1,12137,1,0.00046072,-7.6669e-11,0,0.00046072,-8.6047e-05,1.3879e+08,-19.523,0,1.3879e+08,-4.3449,12136,12879,1,12879,1,0.00060726,3.6434e-10,0,0.00060726,-5.8588e-05,1.8098e+08,94.716,0,1.8098e+08,12.211,12878,12136,1,12136,1,0.00046072,-6.3972e-11,0,0.00046072,-8.6044e-05,1.3872e+08,-16.141,0,1.3872e+08,-4.551,12135,11395,1,11395,1,0.00031419,-5.5959e-10,0,0.00031419,-0.00011351,9.6895e+07,-145.49,0,9.6895e+07,-21.591,11394,11748,1,11748,1,0.00037699,-1.449e-10,0,0.00037699,-0.00010174,1.1491e+08,-36.873,0,1.1491e+08,-7.8286,11747,12524,1,12524,1,0.00054446,-1.3036e-11,0,0.00054446,-7.0355e-05,1.626e+08,-3.3723,0,1.626e+08,-0.41847,12523,438.26,0,438.26,0,9.6042e-05,1.5449e-10,0,9.6042e-05,1.7999e-05,2.7474e+07,39.746,0,2.7474e+07,6.0759,438.26,1
432,2.07,12137,1,12137,1,0.00046296,-2.4314e-10,0,0.00046296,-8.6465e-05,1.3946e+08,-62.412,0,1.3946e+08,-6.4605,12136,12879,1,12879,1,0.00061021,3.3375e-10,0,0.00061021,-5.8873e-05,1.8186e+08,86.76,0,1.8186e+08,12.865,12878,12136,1,12136,1,0.00046296,-1.6083e-10,0,0.00046296,-8.6462e-05,1.3939e+08,-41.192,0,1.3939e+08,-7.3984,12135,11395,1,11395,1,0.00031571,-1.0922e-09,0,0.00031571,-0.00011407,9.7365e+07,-283.97,0,9.7365e+07,-25.055,11394,11748,1,11748,1,0.00037882,-4.7334e-10,0,0.00037882,-0.00010223,1.1547e+08,-121.41,0,1.1547e+08,-13.09,11747,12524,1,12524,1,0.0005471,2.383e-11,0,0.0005471,-7.0697e-05,1.6338e+08,5.987,0,1.6338e+08,-0.60993,12523,438.26,0,438.26,0,9.6508e-05,3.2724e-10,0,9.6508e-05,1.8086e-05,2.7608e+07,84.287,0,2.7608e+07,8.6628,438.26,1
432,2.08,12137,1,12137,1,0.0004652,-1.6533e-10,0,0.0004652,-8.6883e-05,1.4014e+08,-42.437,0,1.4014e+08,-3.1123,12136,12879,1,12879,1,0.00061316,5.8349e-11,0,0.00061316,-5.9157e-05,1.8274e+08,14.647,0,1.8274e+08,6.0206,12878,12136,1,12136,1,0.0004652,-1.4062e-10,0,0.0004652,-8.688e-05,1.4006e+08,-35.444,0,1.4006e+08,-2.7228,12135,11395,1,11395,1,0.00031724,-5.0536e-10,0,0.00031724,-0.00011462,9.7836e+07,-131.39,0,9.7836e+07,-12.138,11394,11748,1,11748,1,0.00038065,-2.876e-10,0,0.00038065,-0.00010273,1.1603e+08,-73.45,0,1.1603e+08,-6.168,11747,12524,1,12524,1,0.00054975,-2.9383e-11,0,0.00054975,-7.1039e-05,1.6417e+08,-7.3952,0,1.6417e+08,-0.39383,12523,438.26,0,438.26,0,9.6975e-05,1.5943e-10,0,9.6975e-05,1.8174e-05,2.7741e+07,41.098,0,2.7741e+07,3.4873,438.26,1
432,2.09,12137,1,12137,1,0.00046743,2.9035e-10,0,0.00046743,-8.7301e-05,1.4081e+08,74.675,0,1.4081e+08,-2.2876,12136,12879,1,12879,1,0.00061611,1.0552e-09,0,0.00061611,-5.9442e-05,1.8362e+08,274.34,0,1.8362e+08,19.97,12878,12136,1,12136,1,0.00046743,2.1492e-10,0,0.00046743,-8.7298e-05,1.4074e+08,54.631,0,1.4074e+08,-1.9977,12135,11395,1,11395,1,0.00031876,-2.4205e-10,0,0.00031876,-0.00011517,9.8306e+07,-60.767,0,9.8306e+07,-23.296,11394,11748,1,11748,1,0.00038248,-1.342e-11,0,0.00038248,-0.00010322,1.1658e+08,-3.3849,0,1.1658e+08,-6.2693,11747,12524,1,12524,1,0.00055239,5.6806e-10,0,0.00055239,-7.138e-05,1.6496e+08,144.84,0,1.6496e+08,2.1325,12523,438.26,0,438.26,0,9.7441e-05,3.4328e-10,0,9.7441e-05,1.8261e-05,2.7875e+07,88.387,0,2.7875e+07,8.1924,438.26,1
432,2.1,12137,1,12137,1,0.00046967,-1.4407e-10,0,0.00046967,-8.7719e-05,1.4149e+08,-37.005,0,1.4149e+08,-6.941,12136,12879,1,12879,1,0.00061906,2.8008e-10,0,0.00061906,-5.9727e-05,1.845e+08,72.812,0,1.845e+08,9.7942,12878,12136,1,12136,1,0.00046968,-7.3109e-11,0,0.00046968,-8.7716e-05,1.4141e+08,-18.617,0,1.4141e+08,-7.6977,12135,11395,1,11395,1,0.00032029,-6.9168e-10,0,0.00032029,-0.00011572,9.8777e+07,-179.83,0,9.8777e+07,-24.01,11394,11748,1,11748,1,0.00038431,-3.0304e-10,0,0.00038431,-0.00010372,1.1714e+08,-77.174,0,1.1714e+08,-12.854,11747,12524,1,12524,1,0.00055504,2.5738e-11,0,0.00055504,-7.1722e-05,1.6575e+08,6.4654,0,1.6575e+08,-0.99485,12523,438.26,0,438.26,0,9.7908e-05,2.256e-10,0,9.7908e-05,1.8349e-05,2.8008e+07,58.082,0,2.8008e+07,7.4291,438.26,1
432,2.11,12137,1,12137,1,0.00047191,-4.2117e-10,0,0.00047191,-8.8136e-05,1.4216e+08,-108.12,0,1.4216e+08,-14.466,12136,12879,1,12879,1,0.00062201,2.7152e-10,0,0.00062201,-6.0011e-05,1.8537e+08,70.577,0,1.8537e+08,18.879,12878,12136,1,12136,1,0.00047191,-3.122e-10,0,0.00047191,-8.8133e-05,1.4208e+08,-79.322,0,1.4208e+08,-14.762,12135,11395,1,11395,1,0.00032181,-1.5615e-09,0,0.00032181,-0.00011627,9.9246e+07,-405.99,0,9.9246e+07,-51.243,11394,11748,1,11748,1,0.00038614,-7.7074e-10,0,0.00038614,-0.00010421,1.177e+08,-196.16,0,1.177e+08,-26.171,11747,12524,1,12524,1,0.00055768,-1.8931e-11,0,0.00055768,-7.2063e-05,1.6654e+08,-4.7748,0,1.6654e+08,-2.0191,12523,438.26,0,438.26,0,9.8374e-05,4.8796e-10,0,9.8374e-05,1.8436e-05,2.8141e+07,125.73,0,2.8141e+07,15.004,438.26,1
432,2.12,12137,1,12137,1,0.00047415,-2.6227e-10,0,0.00047415,-8.8554e-05,1.4283e+08,-67.296,0,1.4283e+08,-2.8799,12136,12879,1,12879,1,0.00062496,7.792e-11,0,0.00062496,-6.0295e-05,1.8625e+08,19.561,0,1.8625e+08,6.6559,12878,12136,1,12136,1,0.00047415,-2.7243e-10,0,0.00047415,-8.8551e-05,1.4276e+08,-69.261,0,1.4276e+08,-2.9236,12135,11395,1,11395,1,0.00032334,-6.4621e-10,0,0.00032334,-0.00011682,9.9717e+07,-168.01,0,9.9717e+07,-11.253,11394,11748,1,11748,1,0.00038797,-4.2598e-10,0,0.00038797,-0.0001047,1.1826e+08,-109.77,0,1.1826e+08,-5.7707,11747,12524,1,12524,1,0.00056032,-8.1271e-11,0,0.00056032,-7.2405e-05,1.6733e+08,-20.456,0,1.6733e+08,0.076095,12523,438.26,0,438.26,0,9.884e-05,2.0471e-10,0,9.884e-05,1.8523e-05,2.8275e+07,52.862,0,2.8275e+07,3.4949,438.26,1
432,2.13,12137,1,12137,1,0.00047638,1.0648e-10,0,0.00047638,-8.8972e-05,1.4351e+08,27.384,0,1.4351e+08,-4.83,12136,12879,1,12879,1,0.0006279,8.7627e-10,0,0.0006279,-6.058e-05,1.8713e+08,227.82,0,1.8713e+08,12.349,12878,12136,1,12136,1,0.00047638,3.1142e-11,0,0.00047638,-8.8969e-05,1.4343e+08,7.8276,0,1.4343e+08,-5.1007,12135,11395,1,11395,1,0.00032486,-5.4594e-10,0,0.00032486,-0.00011737,1.0019e+08,-141.94,0,1.0019e+08,-21.836,11394,11748,1,11748,1,0.0003898,-7.2137e-11,0,0.0003898,-0.0001052,1.1882e+08,-18.319,0,1.1882e+08,-10.062,11747,12524,1,12524,1,0.00056296,3.0144e-10,0,0.00056296,-7.2746e-05,1.6812e+08,76.761,0,1.6812e+08,-0.40413,12523,438.26,0,438.26,0,9.9306e-05,2.7775e-10,0,9.9306e-05,1.8611e-05,2.8408e+07,71.471,0,2.8408e+07,7.3716,438.26,1
432,2.14,12137,1,12137,1,0.00047861,-1.7578e-10,0,0.00047861,-8.9388e-05,1.4418e+08,-45.015,0,1.4418e+08,-6.576,12136,12879,1,12879,1,0.00063084,6.5954e-10,0,0.00063084,-6.0863e-05,1.8801e+08,171.46,0,1.8801e+08,15.005,12878,12136,1,12136,1,0.00047861,-9.7226e-11,0,0.00047861,-8.9385e-05,1.441e+08,-24.611,0,1.441e+08,-7.6406,12135,11395,1,11395,1,0.00032638,-1.0705e-09,0,0.00032638,-0.00011792,1.0066e+08,-278.33,0,1.0066e+08,-33.557,11394,11748,1,11748,1,0.00039163,-3.5807e-10,0,0.00039163,-0.00010569,1.1937e+08,-91.176,0,1.1937e+08,-12.263,11747,12524,1,12524,1,0.0005656,1.6011e-11,0,0.0005656,-7.3087e-05,1.6891e+08,4.061,0,1.6891e+08,-0.85706,12523,438.26,0,438.26,0,9.9771e-05,3.1657e-10,0,9.9771e-05,1.8698e-05,2.8541e+07,81.525,0,2.8541e+07,9.2223,438.26,1
432,2.15,12137,1,12137,1,0.00048085,-4.7525e-11,0,0.00048085,-8.9807e-05,1.4485e+08,-12.22,0,1.4485e+08,-0.042396,12136,12879,1,12879,1,0.0006338,4.5812e-11,0,0.0006338,-6.1149e-05,1.8889e+08,11.607,0,1.8889e+08,6.3456,12878,12136,1,12136,1,0.00048085,-4.679e-11,0,0.00048085,-8.9804e-05,1.4478e+08,-11.882,0,1.4478e+08,-0.29352,12135,11395,1,11395,1,0.00032791,-1.8346e-10,0,0.00032791,-0.00011847,1.0113e+08,-47.7,0,1.0113e+08,-6.1179,11394,11748,1,11748,1,0.00039346,-9.3493e-11,0,0.00039346,-0.00010618,1.1993e+08,-23.997,0,1.1993e+08,-1.1547,11747,12524,1,12524,1,0.00056825,1.1404e-12,0,0.00056825,-7.3429e-05,1.697e+08,0.28984,0,1.697e+08,1.5303,12523,438.26,0,438.26,0,0.00010024,5.8497e-11,0,0.00010024,1.8785e-05,2.8675e+07,15.043,0,2.8675e+07,2.4015,438.26,1
432,2.16,12137,1,12137,1,0.00048309,-2.1266e-10,0,0.00048309,-9.0225e-05,1.4553e+08,-54.456,0,1.4553e+08,-1.9625,12136,12879,1,12879,1,0.00063675,2.571e-11,0,0.00063675,-6.1433e-05,1.8977e+08,6.4522,0,1.8977e+08,5.5909,12878,12136,1,12136,1,0.00048309,-1.7411e-10,0,0.00048309,-9.0222e-05,1.4545e+08,-44.422,0,1.4545e+08,-2.9282,12135,11395,1,11395,1,0.00032944,-6.4302e-10,0,0.00032944,-0.00011903,1.016e+08,-167.18,0,1.016e+08,-9.5645,11394,11748,1,11748,1,0.00039529,-3.2096e-10,0,0.00039529,-0.00010668,1.2049e+08,-81.604,0,1.2049e+08,-4.0121,11747,12524,1,12524,1,0.00057089,-8.2058e-11,0,0.00057089,-7.3771e-05,1.7049e+08,-20.751,0,1.7049e+08,0.1575,12523,438.26,0,438.26,0,0.00010071,1.6174e-10,0,0.00010071,1.8873e-05,2.8809e+07,41.822,0,2.8809e+07,3.1146,438.26,1
432,2.17,12137,1,12137,1,0.00048533,-1.7832e-10,0,0.00048533,-9.0643e-05,1.462e+08,-45.814,0,1.462e+08,-1.8582,12136,12879,1,12879,1,0.0006397,1.3145e-10,0,0.0006397,-6.1718e-05,1.9065e+08,32.999,0,1.9065e+08,17.16,12878,12136,1,12136,1,0.00048533,-1.2377e-10,0,0.00048533,-9.064e-05,1.4613e+08,-31.412,0,1.4613e+08,-2.3522,12135,11395,1,11395,1,0.00033097,-7.0768e-10,0,0.00033097,-0.00011958,1.0207e+08,-183.99,0,1.0207e+08,-24.686,11394,11748,1,11748,1,0.00039712,-3.5337e-10,0,0.00039712,-0.00010717,1.2105e+08,-89.938,0,1.2105e+08,-6.9212,11747,12524,1,12524,1,0.00057354,1.0811e-11,0,0.00057354,-7.4113e-05,1.7128e+08,2.7224,0,1.7128e+08,4.7543,12523,438.26,0,438.26,0,0.00010117,2.2495e-10,0,0.00010117,1.896e-05,2.8942e+07,57.931,0,2.8942e+07,8.5459,438.26,1
432,2.18,12137,1,12137,1,0.00048756,3.4313e-10,0,0.00048756,-9.106e-05,1.4687e+08,88.183,0,1.4687e+08,-0.45015,12136,12879,1,12879,1,0.00064264,1.172e-09,0,0.00064264,-6.2001e-05,1.9152e+08,304.72,0,1.9152e+08,17.469,12878,12136,1,12136,1,0.00048756,3.2271e-10,0,0.00048756,-9.1057e-05,1.468e+08,82.266,0,1.468e+08,0.13194,12135,11395,1,11395,1,0.00033249,-1.8509e-10,0,0.00033249,-0.00012013,1.0254e+08,-46.47,0,1.0254e+08,-24.19,11394,11748,1,11748,1,0.00039895,5.4233e-11,0,0.00039895,-0.00010766,1.216e+08,13.686,0,1.216e+08,-4.1322,11747,12524,1,12524,1,0.00057617,6.159e-10,0,0.00057617,-7.4454e-05,1.7207e+08,158.14,0,1.7207e+08,4.8449,12523,438.26,0,438.26,0,0.00010164,3.4165e-10,0,0.00010164,1.9047e-05,2.9075e+07,88.041,0,2.9075e+07,8.3951,438.26,1
432,2.19,12137,1,12137,1,0.0004898,1.1764e-11,0,0.0004898,-9.1478e-05,1.4755e+08,3.1222,0,1.4755e+08,-3.1928,12136,12879,1,12879,1,0.00064559,6.9126e-10,0,0.00064559,-6.2286e-05,1.924e+08,179.71,0,1.924e+08,7.8309,12878,12136,1,12136,1,0.0004898,-2.2794e-11,0,0.0004898,-9.1475e-05,1.4747e+08,-5.7266,0,1.4747e+08,-2.1185,12135,11395,1,11395,1,0.00033402,-3.3475e-10,0,0.00033402,-0.00012068,1.0301e+08,-87.033,0,1.0301e+08,-35.886,11394,11748,1,11748,1,0.00040078,-9.8903e-11,0,0.00040078,-0.00010816,1.2216e+08,-24.885,0,1.2216e+08,-5.7919,11747,12524,1,12524,1,0.00057882,9.1447e-11,0,0.00057882,-7.4796e-05,1.7286e+08,23.525,0,1.7286e+08,1.0574,12523,438.26,0,438.26,0,0.0001021,1.789e-10,0,0.0001021,1.9135e-05,2.9209e+07,46.024,0,2.9209e+07,7.2876,438.26,1
432,2.2,12137,1,12137,1,0.00049204,-4.3849e-11,0,0.00049204,-9.1897e-05,1.4822e+08,-11.217,0,1.4822e+08,-0.92763,12136,12879,1,12879,1,0.00064854,6.0234e-12,0,0.00064854,-6.2571e-05,1.9328e+08,1.5123,0,1.9328e+08,1.9397,12878,12136,1,12136,1,0.00049204,-3.5623e-11,0,0.00049204,-9.1893e-05,1.4815e+08,-9.1175,0,1.4815e+08,-0.91356,12135,11395,1,11395,1,0.00033554,-1.5091e-10,0,0.00033554,-0.00012123,1.0348e+08,-39.236,0,1.0348e+08,-3.8293,11394,11748,1,11748,1,0.00040261,-5.8345e-11,0,0.00040261,-0.00010865,1.2272e+08,-14.822,0,1.2272e+08,-1.5005,11747,12524,1,12524,1,0.00058147,-2.0008e-11,0,0.00058147,-7.5138e-05,1.7365e+08,-5.0426,0,1.7365e+08,-0.43252,12523,438.26,0,438.26,0,0.00010257,3.2166e-11,0,0.00010257,1.9222e-05,2.9343e+07,8.3095,0,2.9343e+07,0.90059,438.26,1
432,2.21,12137,1,12137,1,0.00049428,-1.2983e-10,0,0.00049428,-9.2314e-05,1.489e+08,-33.364,0,1.489e+08,-2.7736,12136,12879,1,12879,1,0.00065149,4.4976e-10,0,0.00065149,-6.2855e-05,1.9416e+08,116.93,0,1.9416e+08,14.868,12878,12136,1,12136,1,0.00049428,-4.0604e-11,0,0.00049428,-9.2311e-05,1.4882e+08,-10.208,0,1.4882e+08,-2.9256,12135,11395,1,11395,1,0.00033707,-8.0246e-10,0,0.00033707,-0.00012178,1.0395e+08,-208.63,0,1.0395e+08,-22.896,11394,11748,1,11748,1,0.00040444,-3.1563e-10,0,0.00040444,-0.00010915,1.2328e+08,-79.867,0,1.2328e+08,-9.4148,11747,12524,1,12524,1,0.00058411,5.9502e-11,0,0.00058411,-7.5479e-05,1.7444e+08,15.014,0,1.7444e+08,4.2026,12523,438.26,0,438.26,0,0.00010304,2.724e-10,0,0.00010304,1.931e-05,2.9476e+07,70.122,0,2.9476e+07,8.362,438.26,1
432,2.22,12137,1,12137,1,0.00049651,-1.8526e-10,0,0.00049651,-9.2731e-05,1.4957e+08,-47.57,0,1.4957e+08,-0.59959,12136,12879,1,12879,1,0.00065443,7.5315e-11,0,0.00065443,-6.314e-05,1.9504e+08,18.908,0,1.9504e+08,4.7169,12878,12136,1,12136,1,0.00049651,-1.7913e-10,0,0.00049651,-9.2728e-05,1.4949e+08,-45.764,0,1.4949e+08,-0.23143,12135,11395,1,11395,1,0.00033859,-5.4204e-10,0,0.00033859,-0.00012233,1.0442e+08,-140.93,0,1.0442e+08,-9.8572,11394,11748,1,11748,1,0.00040627,-3.1773e-10,0,0.00040627,-0.00010964,1.2384e+08,-81.562,0,1.2384e+08,-2.4539,11747,12524,1,12524,1,0.00058675,-4.8369e-11,0,0.00058675,-7.582e-05,1.7523e+08,-12.158,0,1.7523e+08,1.6281,12523,438.26,0,438.26,0,0.0001035,1.6362e-10,0,0.0001035,1.9397e-05,2.9609e+07,42.194,0,2.9609e+07,2.7745,438.26,1
432,2.23,12137,1,12137,1,0.00049875,-1.953e-11,0,0.00049875,-9.3149e-05,1.5024e+08,-4.9636,0,1.5024e+08,-2.5432,12136,12879,1,12879,1,0.00065738,5.3685e-10,0,0.00065738,-6.3424e-05,1.9592e+08,139.57,0,1.9592e+08,7.035,12878,12136,1,12136,1,0.00049875,-1.9005e-11,0,0.00049875,-9.3146e-05,1.5016e+08,-4.7821,0,1.5016e+08,-2.7075,12135,11395,1,11395,1,0.00034012,-4.1871e-10,0,0.00034012,-0.00012288,1.0489e+08,-108.86,0,1.0489e+08,-15.025,11394,11748,1,11748,1,0.0004081,-1.2698e-10,0,0.0004081,-0.00011014,1.2439e+08,-32.074,0,1.2439e+08,-6.9978,11747,12524,1,12524,1,0.0005894,6.2522e-11,0,0.0005894,-7.6162e-05,1.7602e+08,15.79,0,1.7602e+08,1.7487,12523,438.26,0,438.26,0,0.00010397,1.8145e-10,0,0.00010397,1.9484e-05,2.9743e+07,46.673,0,2.9743e+07,4.9078,438.26,1
432,2.24,12137,1,12137,1,0.00050099,-1.5982e-10,0,0.00050099,-9.3567e-05,1.5092e+08,-41.045,0,1.5092e+08,-3.6082,12136,12879,1,12879,1,0.00066033,2.904e-10,0,0.00066033,-6.3709e-05,1.968e+08,75.493,0,1.968e+08,13.825,12878,12136,1,12136,1,0.00050099,-7.7553e-11,0,0.00050099,-9.3564e-05,1.5084e+08,-19.851,0,1.5084e+08,-4.1533,12135,11395,1,11395,1,0.00034164,-7.4907e-10,0,0.00034164,-0.00012343,1.0536e+08,-194.75,0,1.0536e+08,-24.801,11394,11748,1,11748,1,0.00040993,-3.4322e-10,0,0.00040993,-0.00011063,1.2495e+08,-87.425,0,1.2495e+08,-10.535,11747,12524,1,12524,1,0.00059204,4.4885e-11,0,0.00059204,-7.6504e-05,1.7681e+08,11.378,0,1.7681e+08,4.1423,12523,438.26,0,438.26,0,0.00010444,2.4866e-10,0,0.00010444,1.9572e-05,2.9876e+07,64.008,0,2.9876e+07,8.6365,438.26,1
432,2.25,12137,1,12137,1,0.00050322,1.312e-10,0,0.00050322,-9.3985e-05,1.5159e+08,33.703,0,1.5159e+08,-2.8735,12136,12879,1,12879,1,0.00066328,9.3152e-10,0,0.00066328,-6.3993e-05,1.9767e+08,242.19,0,1.9767e+08,11.467,12878,12136,1,12136,1,0.00050322,5.8655e-11,0,0.00050322,-9.3982e-05,1.5151e+08,14.766,0,1.5151e+08,-4.3743,12135,11395,1,11395,1,0.00034317,-4.0252e-10,0,0.00034317,-0.00012399,1.0583e+08,-104.65,0,1.0583e+08,-16.867,11394,11748,1,11748,1,0.00041176,-4.9059e-11,0,0.00041176,-0.00011112,1.2551e+08,-12.348,0,1.2551e+08,-7.8799,11747,12524,1,12524,1,0.00059468,2.6601e-10,0,0.00059468,-7.6845e-05,1.7759e+08,67.861,0,1.7759e+08,2.9766,12523,438.26,0,438.26,0,0.0001049,2.7951e-10,0,0.0001049,1.9659e-05,3.001e+07,71.926,0,3.001e+07,7.1736,438.26,1
432,2.26,12137,1,12137,1,0.00050546,-2.4336e-10,0,0.00050546,-9.4402e-05,1.5226e+08,-62.388,0,1.5226e+08,-3.8272,12136,12879,1,12879,1,0.00066622,2.5315e-10,0,0.00066622,-6.4277e-05,1.9855e+08,65.81,0,1.9855e+08,13.075,12878,12136,1,12136,1,0.00050546,-1.4296e-10,0,0.00050546,-9.4399e-05,1.5218e+08,-36.616,0,1.5218e+08,-5.0357,12135,11395,1,11395,1,0.00034469,-1.0187e-09,0,0.00034469,-0.00012454,1.063e+08,-264.86,0,1.063e+08,-24.099,11394,11748,1,11748,1,0.00041359,-4.4949e-10,0,0.00041359,-0.00011162,1.2607e+08,-114.08,0,1.2607e+08,-11.178,11747,12524,1,12524,1,0.00059732,-8.8766e-12,0,0.00059732,-7.7186e-05,1.7838e+08,-2.2269,0,1.7838e+08,4.8415,12523,438.26,0,438.26,0,0.00010537,2.9917e-10,0,0.00010537,1.9746e-05,3.0143e+07,77.094,0,3.0143e+07,9.098,438.26,1
432,2.27,12137,1,12137,1,0.0005077,-1.9562e-10,0,0.0005077,-9.482e-05,1.5294e+08,-50.166,0,1.5294e+08,-1.6496,12136,12879,1,12879,1,0.00066918,1.2529e-10,0,0.00066918,-6.4562e-05,1.9943e+08,32.57,0,1.9943e+08,10.503,12878,12136,1,12136,1,0.0005077,-1.6512e-10,0,0.0005077,-9.4817e-05,1.5286e+08,-41.929,0,1.5286e+08,-2.219,12135,11395,1,11395,1,0.00034622,-6.5907e-10,0,0.00034622,-0.00012509,1.0677e+08,-171.35,0,1.0677e+08,-14.781,11394,11748,1,11748,1,0.00041542,-3.4506e-10,0,0.00041542,-0.00011211,1.2662e+08,-88.221,0,1.2662e+08,-6.6857,11747,12524,1,12524,1,0.00059997,-1.5403e-11,0,0.00059997,-7.7528e-05,1.7917e+08,-3.8908,0,1.7917e+08,3.5795,12523,438.26,0,438.26,0,0.00010583,2.0265e-10,0,0.00010583,1.9834e-05,3.0277e+07,52.253,0,3.0277e+07,5.955,438.26,1
432,2.28,12137,1,12137,1,0.00050994,-4.6624e-11,0,0.00050994,-9.5239e-05,1.5361e+08,-11.941,0,1.5361e+08,0.51023,12136,12879,1,12879,1,0.00067213,2.8811e-11,0,0.00067213,-6.4847e-05,2.0031e+08,7.2315,0,2.0031e+08,7.392,12878,12136,1,12136,1,0.00050994,-3.2897e-11,0,0.00050994,-9.5236e-05,1.5353e+08,-8.3465,0,1.5353e+08,0.29471,12135,11395,1,11395,1,0.00034775,-2.2404e-10,0,0.00034775,-0.00012564,1.0724e+08,-58.245,0,1.0724e+08,-3.1656,11394,11748,1,11748,1,0.00041726,-7.1137e-11,0,0.00041726,-0.00011261,1.2718e+08,-18.114,0,1.2718e+08,-1.0496,11747,12524,1,12524,1,0.00060262,-1.5043e-11,0,0.00060262,-7.7871e-05,1.7996e+08,-3.7931,0,1.7996e+08,2.0092,12523,438.26,0,438.26,0,0.0001063,4.6653e-11,0,0.0001063,1.9922e-05,3.0411e+07,12.048,0,3.0411e+07,2.0095,438.26,1
432,2.29,12137,1,12137,1,0.00051217,-9.3599e-11,0,0.00051217,-9.5656e-05,1.5429e+08,-24.112,0,1.5429e+08,-1.1106,12136,12879,1,12879,1,0.00067507,1.3378e-10,0,0.00067507,-6.5131e-05,2.0119e+08,33.588,0,2.0119e+08,7.9188,12878,12136,1,12136,1,0.00051217,-5.3649e-11,0,0.00051217,-9.5653e-05,1.542e+08,-13.525,0,1.542e+08,-1.2683,12135,11395,1,11395,1,0.00034927,-4.5246e-10,0,0.00034927,-0.00012619,1.0771e+08,-117.63,0,1.0771e+08,-16.363,11394,11748,1,11748,1,0.00041909,-2.0812e-10,0,0.00041909,-0.0001131,1.2774e+08,-53.084,0,1.2774e+08,-3.6634,11747,12524,1,12524,1,0.00060526,2.6873e-11,0,0.00060526,-7.8212e-05,1.8075e+08,6.7611,0,1.8075e+08,2.7365,12523,438.26,0,438.26,0,0.00010677,1.5298e-10,0,0.00010677,2.0009e-05,3.0544e+07,39.353,0,3.0544e+07,5.0629,438.26,1
432,2.3,12137,1,12137,1,0.00051441,-1.901e-11,0,0.00051441,-9.6074e-05,1.5496e+08,-4.8776,0,1.5496e+08,-3.8498,12136,12879,1,12879,1,0.00067802,4.8692e-10,0,0.00067802,-6.5415e-05,2.0207e+08,126.58,0,2.0207e+08,10.08,12878,12136,1,12136,1,0.00051441,-9.3852e-12,0,0.00051441,-9.607e-05,1.5488e+08,-2.3787,0,1.5488e+08,-4.5077,12135,11395,1,11395,1,0.0003508,-4.1636e-10,0,0.0003508,-0.00012674,1.0818e+08,-108.25,0,1.0818e+08,-18.989,11394,11748,1,11748,1,0.00042092,-1.0014e-10,0,0.00042092,-0.00011359,1.283e+08,-25.347,0,1.283e+08,-7.6254,11747,12524,1,12524,1,0.0006079,5.4361e-11,0,0.0006079,-7.8553e-05,1.8154e+08,13.647,0,1.8154e+08,0.071042,12523,438.26,0,438.26,0,0.00010723,1.5661e-10,0,0.00010723,2.0096e-05,3.0677e+07,40.308,0,3.0677e+07,5.9784,438.26,1
432,2.31,12137,1,12137,1,0.00051664,2.0258e-10,0,0.00051664,-9.6491e-05,1.5563e+08,52.075,0,1.5563e+08,-2.5427,12136,12879,1,12879,1,0.00068097,1.0776e-09,0,0.00068097,-6.57e-05,2.0295e+08,280.13,0,2.0295e+08,10.973,12878,12136,1,12136,1,0.00051664,1.3757e-10,0,0.00051664,-9.6488e-05,1.5555e+08,34.726,0,1.5555e+08,-1.6801,12135,11395,1,11395,1,0.00035232,-1.6753e-10,0,0.00035232,-0.00012729,1.0865e+08,-43.55,0,1.0865e+08,-39.889,11394,11748,1,11748,1,0.00042275,-3.1386e-11,0,0.00042275,-0.00011409,1.2885e+08,-7.883,0,1.2885e+08,-4.9996,11747,12524,1,12524,1,0.00061054,4.0251e-10,0,0.00061054,-7.8895e-05,1.8233e+08,103.75,0,1.8233e+08,1.5378,12523,438.26,0,438.26,0,0.0001077,2.7595e-10,0,0.0001077,2.0183e-05,3.0811e+07,71.063,0,3.0811e+07,7.8061,438.26,1
432,2.32,12137,1,12137,1,0.00051889,-8.2129e-11,0,0.00051889,-9.6911e-05,1.5631e+08,-21.009,0,1.5631e+08,1.2082,12136,12879,1,12879,1,0.00068393,-8.9061e-12,0,0.00068393,-6.5985e-05,2.0383e+08,-2.238,0,2.0383e+08,3.8867,12878,12136,1,12136,1,0.00051889,-7.3513e-11,0,0.00051889,-9.6907e-05,1.5623e+08,-18.788,0,1.5623e+08,1.4409,12135,11395,1,11395,1,0.00035385,-2.4447e-10,0,0.00035385,-0.00012784,1.0912e+08,-63.555,0,1.0912e+08,-2.4625,11394,11748,1,11748,1,0.00042458,-1.0572e-10,0,0.00042458,-0.00011458,1.2941e+08,-27.142,0,1.2941e+08,0.46051,11747,12524,1,12524,1,0.0006132,-4.5813e-11,0,0.0006132,-7.9238e-05,1.8312e+08,-11.529,0,1.8312e+08,2.1095,12523,438.26,0,438.26,0,0.00010817,4.9384e-11,0,0.00010817,2.0271e-05,3.0945e+07,12.81,0,3.0945e+07,1.1717,438.26,1
432,2.33,12137,1,12137,1,0.00052112,-1.5259e-10,0,0.00052112,-9.7327e-05,1.5698e+08,-39.218,0,1.5698e+08,-1.6631,12136,12879,1,12879,1,0.00068687,1.3876e-10,0,0.00068687,-6.6269e-05,2.047e+08,36.072,0,2.047e+08,10.102,12878,12136,1,12136,1,0.00052112,-1.1444e-10,0,0.00052112,-9.7324e-05,1.569e+08,-29.24,0,1.569e+08,-1.5041,12135,11395,1,11395,1,0.00035537,-5.8611e-10,0,0.00035537,-0.00012839,1.0959e+08,-152.38,0,1.0959e+08,-18.571,11394,11748,1,11748,1,0.00042641,-3.0375e-10,0,0.00042641,-0.00011508,1.2997e+08,-77.453,0,1.2997e+08,-4.7752,11747,12524,1,12524,1,0.00061583,1.2711e-11,0,0.00061583,-7.9578e-05,1.8391e+08,3.192,0,1.8391e+08,2.6866,12523,438.26,0,438.26,0,0.00010863,1.9553e-10,0,0.00010863,2.0358e-05,3.1078e+07,50.349,0,3.1078e+07,5.6439,438.26,1
432,2.34,12137,1,12137,1,0.00052335,-2.5633e-10,0,0.00052335,-9.7743e-05,1.5765e+08,-65.632,0,1.5765e+08,-6.139,12136,12879,1,12879,1,0.00068981,4.9697e-10,0,0.00068981,-6.6552e-05,2.0558e+08,129.19,0,2.0558e+08,15.228,12878,12136,1,12136,1,0.00052335,-1.6111e-10,0,0.00052335,-9.774e-05,1.5757e+08,-41.145,0,1.5757e+08,-4.1418,12135,11395,1,11395,1,0.00035689,-1.0681e-09,0,0.00035689,-0.00012894,1.1006e+08,-277.69,0,1.1006e+08,-45.728,11394,11748,1,11748,1,0.00042823,-4.6486e-10,0,0.00042823,-0.00011557,1.3053e+08,-118.99,0,1.3053e+08,-14.531,11747,12524,1,12524,1,0.00061847,-4.0106e-11,0,0.00061847,-7.9919e-05,1.847e+08,-10.084,0,1.847e+08,5.4514,12523,438.26,0,438.26,0,0.0001091,3.1692e-10,0,0.0001091,2.0445e-05,3.1211e+07,81.705,0,3.1211e+07,13.494,438.26,1
432,2.35,12137,1,12137,1,0.00052559,-1.8347e-10,0,0.00052559,-9.8163e-05,1.5833e+08,-47.145,0,1.5833e+08,-3.6255,12136,12879,1,12879,1,0.00069277,1.452e-10,0,0.00069277,-6.6838e-05,2.0646e+08,36.455,0,2.0646e+08,10.833,12878,12136,1,12136,1,0.0005256,-1.2874e-10,0,0.0005256,-9.816e-05,1.5824e+08,-32.688,0,1.5824e+08,-3.4661,12135,11395,1,11395,1,0.00035842,-7.1805e-10,0,0.00035842,-0.0001295,1.1053e+08,-186.68,0,1.1053e+08,-22.423,11394,11748,1,11748,1,0.00043007,-3.5331e-10,0,0.00043007,-0.00011606,1.3109e+08,-90.243,0,1.3109e+08,-7.4071,11747,12524,1,12524,1,0.00062112,4.4259e-12,0,0.00062112,-8.0262e-05,1.8549e+08,1.111,0,1.8549e+08,0.22275,12523,438.26,0,438.26,0,0.00010956,2.2657e-10,0,0.00010956,2.0533e-05,3.1345e+07,58.346,0,3.1345e+07,6.4227,438.26,1
432,2.36,12137,1,12137,1,0.00052783,-9.3865e-12,0,0.00052783,-9.858e-05,1.59e+08,-2.3312,0,1.59e+08,-1.5454,12136,12879,1,12879,1,0.00069571,9.4278e-10,0,0.00069571,-6.7122e-05,2.0734e+08,245.1,0,2.0734e+08,15.522,12878,12136,1,12136,1,0.00052783,-2.7378e-11,0,0.00052783,-9.8577e-05,1.5892e+08,-6.928,0,1.5892e+08,-1.8192,12135,11395,1,11395,1,0.00035995,-7.2825e-10,0,0.00035995,-0.00013005,1.11e+08,-189.34,0,1.11e+08,-27.463,11394,11748,1,11748,1,0.0004319,-1.7276e-10,0,0.0004319,-0.00011656,1.3164e+08,-43.755,0,1.3164e+08,-7.9015,11747,12524,1,12524,1,0.00062376,1.3761e-10,0,0.00062376,-8.0603e-05,1.8628e+08,35.171,0,1.8628e+08,4.8807,12523,438.26,0,438.26,0,0.00011003,3.1306e-10,0,0.00011003,2.062e-05,3.1478e+07,80.55,0,3.1478e+07,8.3462,438.26,1
432,2.37,12137,1,12137,1,0.00053006,-2.0429e-10,0,0.00053006,-9.8997e-05,1.5967e+08,-52.501,0,1.5967e+08,-2.6204,12136,12879,1,12879,1,0.00069866,3.0846e-10,0,0.00069866,-6.7406e-05,2.0822e+08,80.19,0,2.0822e+08,14.571,12878,12136,1,12136,1,0.00053006,-1.1601e-10,0,0.00053006,-9.8994e-05,1.5959e+08,-29.568,0,1.5959e+08,-2.7679,12135,11395,1,11395,1,0.00036147,-9.2065e-10,0,0.00036147,-0.0001306,1.1147e+08,-239.35,0,1.1147e+08,-27.448,11394,11748,1,11748,1,0.00043373,-4.1322e-10,0,0.00043373,-0.00011705,1.322e+08,-105.57,0,1.322e+08,-7.4158,11747,12524,1,12524,1,0.0006264,3.2136e-11,0,0.0006264,-8.0944e-05,1.8707e+08,8.1255,0,1.8707e+08,3.8533,12523,438.26,0,438.26,0,0.0001105,3.0176e-10,0,0.0001105,2.0708e-05,3.1611e+07,77.691,0,3.1611e+07,8.3382,438.26,1
432,2.38,12137,1,12137,1,0.0005323,1.0101e-10,0,0.0005323,-9.9415e-05,1.6035e+08,25.962,0,1.6035e+08,-6.4706,12136,12879,1,12879,1,0.0007016,7.0313e-10,0,0.0007016,-6.7691e-05,2.091e+08,182.79,0,2.091e+08,8.3909,12878,12136,1,12136,1,0.0005323,3.6845e-11,0,0.0005323,-9.9412e-05,1.6026e+08,9.388,0,1.6026e+08,-7.1779,12135,11395,1,11395,1,0.000363,-2.3152e-10,0,0.000363,-0.00013115,1.1194e+08,-60.19,0,1.1194e+08,-22.869,11394,11748,1,11748,1,0.00043556,-3.9023e-11,0,0.00043556,-0.00011754,1.3276e+08,-9.8513,0,1.3276e+08,-11.196,11747,12524,1,12524,1,0.00062904,2.3283e-10,0,0.00062904,-8.1286e-05,1.8786e+08,59.598,0,1.8786e+08,-1.6485,12523,438.26,0,438.26,0,0.00011096,1.8946e-10,0,0.00011096,2.0795e-05,3.1745e+07,48.768,0,3.1745e+07,6.6926,438.26,1
432,2.39,12137,1,12137,1,0.00053454,-1.8556e-10,0,0.00053454,-9.9834e-05,1.6102e+08,-47.639,0,1.6102e+08,0.58689,12136,12879,1,12879,1,0.00070456,7.5209e-11,0,0.00070456,-6.7976e-05,2.0998e+08,18.881,0,2.0998e+08,8.0523,12878,12136,1,12136,1,0.00053454,-1.885e-10,0,0.00053454,-9.9831e-05,1.6094e+08,-48.299,0,1.6094e+08,0.11026,12135,11395,1,11395,1,0.00036453,-5.3971e-10,0,0.00036453,-0.0001317,1.1241e+08,-140.31,0,1.1241e+08,-5.922,11394,11748,1,11748,1,0.00043739,-3.0234e-10,0,0.00043739,-0.00011804,1.3332e+08,-77.84,0,1.3332e+08,-1.8458,11747,12524,1,12524,1,0.00063169,-5.2524e-11,0,0.00063169,-8.1628e-05,1.8865e+08,-13.201,0,1.8865e+08,3.1156,12523,438.26,0,438.26,0,0.00011143,1.5786e-10,0,0.00011143,2.0883e-05,3.1879e+07,40.72,0,3.1879e+07,3.0019,438.26,1
432,2.4,12137,1,12137,1,0.00053678,-3.516e-11,0,0.00053678,-0.00010025,1.617e+08,-9.0806,0,1.617e+08,-2.5477,12136,12879,1,12879,1,0.0007075,1.2198e-10,0,0.0007075,-6.826e-05,2.1085e+08,31.711,0,2.1085e+08,4.4685,12878,12136,1,12136,1,0.00053678,1.8574e-12,0,0.00053678,-0.00010025,1.6161e+08,0.4645,0,1.6161e+08,-2.6334,12135,11395,1,11395,1,0.00036605,-3.3344e-10,0,0.00036605,-0.00013225,1.1288e+08,-86.687,0,1.1288e+08,-13.98,11394,11748,1,11748,1,0.00043922,-9.0175e-11,0,0.00043922,-0.00011853,1.3387e+08,-23.164,0,1.3387e+08,-4.3907,11747,12524,1,12524,1,0.00063433,3.5997e-11,0,0.00063433,-8.1969e-05,1.8944e+08,9.149,0,1.8944e+08,-0.26088,12523,438.26,0,438.26,0,0.0001119,1.0061e-10,0,0.0001119,2.097e-05,3.2012e+07,25.865,0,3.2012e+07,3.364,438.26,1
432,2.41,12137,1,12137,1,0.00053901,-1.2527e-10,0,0.00053901,-0.00010067,1.6237e+08,-32.13,0,1.6237e+08,-4.4559,12136,12879,1,12879,1,0.00071045,3.4498e-10,0,0.00071045,-6.8545e-05,2.1173e+08,89.684,0,2.1173e+08,12.466,12878,12136,1,12136,1,0.00053901,-5.8484e-11,0,0.00053901,-0.00010067,1.6228e+08,-14.769,0,1.6228e+08,-5.899,12135,11395,1,11395,1,0.00036758,-6.979e-10,0,0.00036758,-0.0001328,1.1335e+08,-181.44,0,1.1335e+08,-21.089,11394,11748,1,11748,1,0.00044105,-2.6547e-10,0,0.00044105,-0.00011903,1.3443e+08,-67.596,0,1.3443e+08,-8.9987,11747,12524,1,12524,1,0.00063698,1.9567e-11,0,0.00063698,-8.2311e-05,1.9023e+08,4.9309,0,1.9023e+08,-0.01883,12523,438.26,0,438.26,0,0.00011236,2.1781e-10,0,0.00011236,2.1057e-05,3.2146e+07,56.098,0,3.2146e+07,6.8332,438.26,1
432,2.42,12137,1,12137,1,0.00054125,1.6829e-10,0,0.00054125,-0.00010109,1.6304e+08,43.244,0,1.6304e+08,-1.5282,12136,12879,1,12879,1,0.0007134,8.27e-10,0,0.0007134,-6.8829e-05,2.1261e+08,215,0,2.1261e+08,8.3613,12878,12136,1,12136,1,0.00054125,1.1781e-10,0,0.00054125,-0.00010108,1.6296e+08,29.815,0,1.6296e+08,-2.004,12135,11395,1,11395,1,0.0003691,-1.3982e-10,0,0.0003691,-0.00013335,1.1382e+08,-36.348,0,1.1382e+08,-10.822,11394,11748,1,11748,1,0.00044288,-1.9115e-11,0,0.00044288,-0.00011952,1.3499e+08,-4.8105,0,1.3499e+08,-4.3897,11747,12524,1,12524,1,0.00063962,3.3333e-10,0,0.00063962,-8.2652e-05,1.9101e+08,85.279,0,1.9101e+08,0.86337,12523,438.26,0,438.26,0,0.00011283,2.2371e-10,0,0.00011283,2.1145e-05,3.2279e+07,57.614,0,3.2279e+07,3.8812,438.26,1
432,2.43,12137,1,12137,1,0.00054349,-5.2354e-11,0,0.00054349,-0.00010151,1.6372e+08,-13.348,0,1.6372e+08,-0.0088551,12136,12879,1,12879,1,0.00071635,-1.7313e-11,0,0.00071635,-6.9114e-05,2.1349e+08,-4.5013,0,2.1349e+08,2.4132,12878,12136,1,12136,1,0.00054349,-3.9503e-11,0,0.00054349,-0.0001015,1.6363e+08,-9.9564,0,1.6363e+08,0.47021,12135,11395,1,11395,1,0.00037063,-1.6017e-10,0,0.00037063,-0.00013391,1.143e+08,-41.641,0,1.143e+08,-7.6128,11394,11748,1,11748,1,0.00044471,-6.2001e-11,0,0.00044471,-0.00012002,1.3555e+08,-15.659,0,1.3555e+08,-0.49927,11747,12524,1,12524,1,0.00064227,-3.4488e-11,0,0.00064227,-8.2995e-05,1.9181e+08,-8.7841,0,1.9181e+08,1.0022,12523,438.26,0,438.26,0,0.0001133,2.9587e-11,0,0.0001133,2.1232e-05,3.2413e+07,7.6466,0,3.2413e+07,1.5867,438.26,1
432,2.44,12137,1,12137,1,0.00054572,4.59e-11,0,0.00054572,-0.00010192,1.6439e+08,11.849,0,1.6439e+08,-3.5009,12136,12879,1,12879,1,0.00071929,9.5469e-10,0,0.00071929,-6.9397e-05,2.1437e+08,248.19,0,2.1437e+08,13.215,12878,12136,1,12136,1,0.00054572,3.416e-12,0,0.00054572,-0.00010192,1.643e+08,0.85668,0,1.643e+08,-4.2624,12135,11395,1,11395,1,0.00037215,-6.6164e-10,0,0.00037215,-0.00013446,1.1476e+08,-172.01,0,1.1476e+08,-30.977,11394,11748,1,11748,1,0.00044654,-1.2128e-10,0,0.00044654,-0.00012051,1.361e+08,-30.566,0,1.361e+08,-7.5434,11747,12524,1,12524,1,0.0006449,2.0022e-10,0,0.0006449,-8.3335e-05,1.9259e+08,50.88,0,1.9259e+08,1.3222,12523,438.26,0,438.26,0,0.00011376,3.0345e-10,0,0.00011376,2.1319e-05,3.2546e+07,78.071,0,3.2546e+07,7.605,438.26,1
432,2.45,12137,1,12137,1,0.00054796,6.9042e-11,0,0.00054796,-0.00010234,1.6506e+08,17.806,0,1.6506e+08,-2.1128,12136,12879,1,12879,1,0.00072224,7.9648e-10,0,0.00072224,-6.9682e-05,2.1525e+08,207.07,0,2.1525e+08,9.5735,12878,12136,1,12136,1,0.00054796,1.9263e-12,0,0.00054796,-0.00010234,1.6497e+08,0.48255,0,1.6497e+08,-2.3601,12135,11395,1,11395,1,0.00037368,-3.8816e-10,0,0.00037368,-0.00013501,1.1523e+08,-100.91,0,1.1523e+08,-20.758,11394,11748,1,11748,1,0.00044837,-9.0248e-11,0,0.00044837,-0.000121,1.3666e+08,-22.701,0,1.3666e+08,-5.1262,11747,12524,1,12524,1,0.00064755,2.0906e-10,0,0.00064755,-8.3677e-05,1.9338e+08,53.698,0,1.9338e+08,0.86536,12523,438.26,0,438.26,0,0.00011423,2.336e-10,0,0.00011423,2.1407e-05,3.2679e+07,60.092,0,3.2679e+07,5.0365,438.26,1
432,2.46,12137,1,12137,1,0.0005502,-8.1101e-11,0,0.0005502,-0.00010276,1.6574e+08,-20.841,0,1.6574e+08,-0.81964,12136,12879,1,12879,1,0.0007252,5.5029e-11,0,0.0007252,-6.9967e-05,2.1613e+08,13.816,0,2.1613e+08,2.9392,12878,12136,1,12136,1,0.0005502,-6.5928e-11,0,0.0005502,-0.00010276,1.6565e+08,-16.79,0,1.6565e+08,-0.77391,12135,11395,1,11395,1,0.00037521,-2.6913e-10,0,0.00037521,-0.00013556,1.1571e+08,-69.968,0,1.1571e+08,-7.3378,11394,11748,1,11748,1,0.0004502,-1.4898e-10,0,0.0004502,-0.0001215,1.3722e+08,-38.234,0,1.3722e+08,-2.3105,11747,12524,1,12524,1,0.0006502,-1.1855e-11,0,0.0006502,-8.4019e-05,1.9417e+08,-2.9845,0,1.9417e+08,0.75134,12523,438.26,0,438.26,0,0.00011469,8.4702e-11,0,0.00011469,2.1494e-05,3.2813e+07,21.82,0,3.2813e+07,2.0138,438.26,1
432,2.47,12137,1,12137,1,0.00055243,-1.3714e-10,0,0.00055243,-0.00010317,1.6641e+08,-35.264,0,1.6641e+08,-5.3419,12136,12879,1,12879,1,0.00072814,1.0038e-10,0,0.00072814,-7.0251e-05,2.17e+08,25.964,0,2.17e+08,7.5964,12878,12136,1,12136,1,0.00055243,-1.023e-10,0,0.00055243,-0.00010317,1.6632e+08,-26.056,0,1.6632e+08,-5.8042,12135,11395,1,11395,1,0.00037673,-5.6725e-10,0,0.00037673,-0.00013611,1.1617e+08,-147.47,0,1.1617e+08,-19.163,11394,11748,1,11748,1,0.00045203,-2.8324e-10,0,0.00045203,-0.00012199,1.3778e+08,-72.407,0,1.3778e+08,-9.1906,11747,12524,1,12524,1,0.00065283,3.2792e-11,0,0.00065283,-8.436e-05,1.9496e+08,8.4014,0,1.9496e+08,-1.6542,12523,438.26,0,438.26,0,0.00011516,1.8446e-10,0,0.00011516,2.1581e-05,3.2946e+07,47.462,0,3.2946e+07,5.1413,438.26,1
432,2.48,12137,1,12137,1,0.00055467,6.6422e-11,0,0.00055467,-0.00010359,1.6709e+08,17.151,0,1.6709e+08,-0.99871,12136,12879,1,12879,1,0.00073109,6.2513e-10,0,0.00073109,-7.0536e-05,2.1788e+08,162.52,0,2.1788e+08,10.575,12878,12136,1,12136,1,0.00055467,7.9287e-12,0,0.00055467,-0.00010359,1.6699e+08,1.9964,0,1.6699e+08,-1.779,12135,11395,1,11395,1,0.00037825,-3.3834e-10,0,0.00037825,-0.00013666,1.1664e+08,-87.959,0,1.1664e+08,-15.282,11394,11748,1,11748,1,0.00045386,-7.4821e-11,0,0.00045386,-0.00012248,1.3833e+08,-18.788,0,1.3833e+08,-3.4195,11747,12524,1,12524,1,0.00065548,2.1177e-10,0,0.00065548,-8.4702e-05,1.9575e+08,54.393,0,1.9575e+08,1.3057,12523,438.26,0,438.26,0,0.00011563,1.9709e-10,0,0.00011563,2.1669e-05,3.308e+07,50.686,0,3.308e+07,4.0327,438.26,1
432,2.49,12137,1,12137,1,0.00055691,-4.6489e-10,0,0.00055691,-0.00010401,1.6776e+08,-119.35,0,1.6776e+08,-9.0216,12136,12879,1,12879,1,0.00073404,1.858e-10,0,0.00073404,-7.082e-05,2.1876e+08,46.646,0,2.1876e+08,12.475,12878,12136,1,12136,1,0.00055691,-4.5993e-10,0,0.00055691,-0.00010401,1.6767e+08,-117.11,0,1.6767e+08,-9.4282,12135,11395,1,11395,1,0.00037978,-1.2984e-09,0,0.00037978,-0.00013721,1.1712e+08,-337.55,0,1.1712e+08,-27.98,11394,11748,1,11748,1,0.00045569,-7.9178e-10,0,0.00045569,-0.00012298,1.3889e+08,-202.86,0,1.3889e+08,-15.136,11747,12524,1,12524,1,0.00065813,-1.1346e-10,0,0.00065813,-8.5044e-05,1.9654e+08,-28.556,0,1.9654e+08,-2.7428,12523,438.26,0,438.26,0,0.00011609,4.0193e-10,0,0.00011609,2.1756e-05,3.3214e+07,103.69,0,3.3214e+07,8.3219,438.26,1
432,2.5,12137,1,12137,1,0.00055915,1.203e-10,0,0.00055915,-0.00010443,1.6843e+08,30.916,0,1.6843e+08,1.3038,12136,12879,1,12879,1,0.00073699,4.1912e-10,0,0.00073699,-7.1105e-05,2.1964e+08,108.96,0,2.1964e+08,6.5704,12878,12136,1,12136,1,0.00055915,8.8794e-11,0,0.00055915,-0.00010443,1.6834e+08,22.738,0,1.6834e+08,1.8599,12135,11395,1,11395,1,0.00038131,-1.0373e-10,0,0.00038131,-0.00013776,1.1759e+08,-26.043,0,1.1759e+08,-10.707,11394,11748,1,11748,1,0.00045752,1.0031e-11,0,0.00045752,-0.00012347,1.3945e+08,2.5544,0,1.3945e+08,-0.44602,11747,12524,1,12524,1,0.00066077,2.2113e-10,0,0.00066077,-8.5385e-05,1.9733e+08,56.273,0,1.9733e+08,3.2969,12523,438.26,0,438.26,0,0.00011656,1.3144e-10,0,0.00011656,2.1844e-05,3.3347e+07,33.862,0,3.3347e+07,2.8488,438.26,1
432,2.51,12137,1,12137,1,0.00056138,2.1825e-11,0,0.00056138,-0.00010485,1.6911e+08,5.7235,0,1.6911e+08,-1.422,12136,12879,1,12879,1,0.00073993,5.2631e-10,0,0.00073993,-7.1389e-05,2.2052e+08,136.83,0,2.2052e+08,8.9858,12878,12136,1,12136,1,0.00056138,-1.7572e-11,0,0.00056138,-0.00010484,1.6901e+08,-4.4134,0,1.6901e+08,-0.65901,12135,11395,1,11395,1,0.00038283,-3.3979e-10,0,0.00038283,-0.00013831,1.1806e+08,-88.334,0,1.1806e+08,-22.913,11394,11748,1,11748,1,0.00045935,-8.9069e-11,0,0.00045935,-0.00012397,1.4001e+08,-22.491,0,1.4001e+08,-5.3369,11747,12524,1,12524,1,0.00066341,1.2397e-10,0,0.00066341,-8.5727e-05,1.9812e+08,31.661,0,1.9812e+08,2.9546,12523,438.26,0,438.26,0,0.00011702,1.6687e-10,0,0.00011702,2.1931e-05,3.3481e+07,42.896,0,3.3481e+07,5.5753,438.26,1
432,2.52,12137,1,12137,1,0.00056362,-4.317e-11,0,0.00056362,-0.00010526,1.6978e+08,-10.959,0,1.6978e+08,-0.12703,12136,12879,1,12879,1,0.00074288,4.9893e-10,0,0.00074288,-7.1673e-05,2.214e+08,129.71,0,2.214e+08,8.7767,12878,12136,1,12136,1,0.00056362,-4.5016e-11,0,0.00056362,-0.00010526,1.6969e+08,-11.306,0,1.6969e+08,-0.2664,12135,11395,1,11395,1,0.00038436,-4.5182e-10,0,0.00038436,-0.00013886,1.1853e+08,-117.46,0,1.1853e+08,-19.646,11394,11748,1,11748,1,0.00046118,-1.2457e-10,0,0.00046118,-0.00012446,1.4056e+08,-31.546,0,1.4056e+08,-2.6324,11747,12524,1,12524,1,0.00066605,2.7513e-11,0,0.00066605,-8.6068e-05,1.9891e+08,7.024,0,1.9891e+08,2.4502,12523,438.26,0,438.26,0,0.00011749,1.6573e-10,0,0.00011749,2.2018e-05,3.3614e+07,42.639,0,3.3614e+07,4.4519,438.26,1
432,2.53,12137,1,12137,1,0.00056585,-1.8863e-11,0,0.00056585,-0.00010568,1.7045e+08,-4.7708,0,1.7045e+08,-2.6401,12136,12879,1,12879,1,0.00074583,5.0799e-10,0,0.00074583,-7.1958e-05,2.2228e+08,132.06,0,2.2228e+08,7.8619,12878,12136,1,12136,1,0.00056585,-2.133e-11,0,0.00056585,-0.00010568,1.7036e+08,-5.3588,0,1.7036e+08,-2.984,12135,11395,1,11395,1,0.00038588,-4.9311e-10,0,0.00038588,-0.00013942,1.19e+08,-128.19,0,1.19e+08,-19.291,11394,11748,1,11748,1,0.00046301,-1.1343e-10,0,0.00046301,-0.00012495,1.4112e+08,-28.784,0,1.4112e+08,-5.4008,11747,12524,1,12524,1,0.0006687,7.665e-11,0,0.0006687,-8.6409e-05,1.997e+08,19.474,0,1.997e+08,0.2997,12523,438.26,0,438.26,0,0.00011796,1.8419e-10,0,0.00011796,2.2106e-05,3.3747e+07,47.381,0,3.3747e+07,4.812,438.26,1
432,2.54,12137,1,12137,1,0.00056809,-3.0634e-11,0,0.00056809,-0.0001061,1.7113e+08,-7.8432,0,1.7113e+08,-1.7223,12136,12879,1,12879,1,0.00074877,4.645e-10,0,0.00074877,-7.2242e-05,2.2315e+08,120.75,0,2.2315e+08,8.5567,12878,12136,1,12136,1,0.00056809,-1.642e-11,0,0.00056809,-0.0001061,1.7103e+08,-4.1234,0,1.7103e+08,-2.2766,12135,11395,1,11395,1,0.00038741,-5.0862e-10,0,0.00038741,-0.00013997,1.1947e+08,-132.23,0,1.1947e+08,-16.046,11394,11748,1,11748,1,0.00046484,-1.2708e-10,0,0.00046484,-0.00012545,1.4168e+08,-32.15,0,1.4168e+08,-4.6267,11747,12524,1,12524,1,0.00067134,5.6213e-11,0,0.00067134,-8.6751e-05,2.0049e+08,14.4,0,2.0049e+08,0.94457,12523,438.26,0,438.26,0,0.00011842,1.7856e-10,0,0.00011842,2.2193e-05,3.3881e+07,45.945,0,3.3881e+07,4.538,438.26,1
432,2.55,12137,1,12137,1,0.00057033,-9.9245e-11,0,0.00057033,-0.00010652,1.718e+08,-25.499,0,1.718e+08,-0.89746,12136,12879,1,12879,1,0.00075173,7.2051e-11,0,0.00075173,-7.2527e-05,2.2403e+08,18.089,0,2.2403e+08,5.0312,12878,12136,1,12136,1,0.00057033,-7.7008e-11,0,0.00057033,-0.00010651,1.7171e+08,-19.477,0,1.7171e+08,-0.87764,12135,11395,1,11395,1,0.00038893,-3.2732e-10,0,0.00038893,-0.00014052,1.1994e+08,-85.094,0,1.1994e+08,-9.7116,11394,11748,1,11748,1,0.00046668,-1.8718e-10,0,0.00046668,-0.00012594,1.4224e+08,-47.633,0,1.4224e+08,-2.2603,11747,12524,1,12524,1,0.00067399,-8.1895e-12,0,0.00067399,-8.7093e-05,2.0128e+08,-2.0656,0,2.0128e+08,1.0399,12523,438.26,0,438.26,0,0.00011889,1.0866e-10,0,0.00011889,2.2281e-05,3.4015e+07,27.991,0,3.4015e+07,2.8914,438.26,1
432,2.56,12137,1,12137,1,0.00057257,-1.3842e-10,0,0.00057257,-0.00010694,1.7248e+08,-35.605,0,1.7248e+08,-0.96618,12136,12879,1,12879,1,0.00075468,1.086e-10,0,0.00075468,-7.2812e-05,2.2491e+08,27.265,0,2.2491e+08,13.981,12878,12136,1,12136,1,0.00057257,-1.3335e-10,0,0.00057257,-0.00010693,1.7238e+08,-33.981,0,1.7238e+08,-1.4665,12135,11395,1,11395,1,0.00039046,-4.858e-10,0,0.00039046,-0.00014107,1.2041e+08,-126.29,0,1.2041e+08,-14.88,11394,11748,1,11748,1,0.00046851,-2.4684e-10,0,0.00046851,-0.00012644,1.428e+08,-63.586,0,1.428e+08,-5.01,11747,12524,1,12524,1,0.00067663,-1.352e-11,0,0.00067663,-8.7435e-05,2.0207e+08,-3.4094,0,2.0207e+08,2.5843,12523,438.26,0,438.26,0,0.00011936,1.4929e-10,0,0.00011936,2.2368e-05,3.4148e+07,38.421,0,3.4148e+07,5.8262,438.26,1
432,2.57,12137,1,12137,1,0.0005748,4.2305e-11,0,0.0005748,-0.00010735,1.7315e+08,10.906,0,1.7315e+08,-2.0794,12136,12879,1,12879,1,0.00075762,4.8118e-10,0,0.00075762,-7.3096e-05,2.2579e+08,125.09,0,2.2579e+08,5.3069,12878,12136,1,12136,1,0.0005748,-4.2803e-13,0,0.0005748,-0.00010735,1.7305e+08,-0.10704,0,1.7305e+08,-1.9695,12135,11395,1,11395,1,0.00039198,-2.1032e-10,0,0.00039198,-0.00014162,1.2088e+08,-54.678,0,1.2088e+08,-17.567,11394,11748,1,11748,1,0.00047034,-4.9673e-11,0,0.00047034,-0.00012693,1.4335e+08,-12.577,0,1.4335e+08,-3.9959,11747,12524,1,12524,1,0.00067927,1.1612e-10,0,0.00067927,-8.7776e-05,2.0286e+08,29.752,0,2.0286e+08,-0.0038063,12523,438.26,0,438.26,0,0.00011982,1.3813e-10,0,0.00011982,2.2455e-05,3.4282e+07,35.534,0,3.4282e+07,3.6893,438.26,1
432,2.58,12137,1,12137,1,0.00057704,-3.3474e-10,0,0.00057704,-0.00010777,1.7382e+08,-85.923,0,1.7382e+08,-2.7456,12136,12879,1,12879,1,0.00076058,1.5284e-10,0,0.00076058,-7.338e-05,2.2667e+08,38.37,0,2.2667e+08,11.788,12878,12136,1,12136,1,0.00057704,-2.7916e-10,0,0.00057704,-0.00010777,1.7373e+08,-70.673,0,1.7373e+08,-1.8241,12135,11395,1,11395,1,0.00039351,-9.7913e-10,0,0.00039351,-0.00014217,1.2135e+08,-254.54,0,1.2135e+08,-18.015,11394,11748,1,11748,1,0.00047217,-5.7774e-10,0,0.00047217,-0.00012742,1.4391e+08,-147.67,0,1.4391e+08,-7.7551,11747,12524,1,12524,1,0.00068192,-7.3124e-11,0,0.00068192,-8.8118e-05,2.0365e+08,-18.403,0,2.0365e+08,3.1294,12523,438.26,0,438.26,0,0.00012029,3.1096e-10,0,0.00012029,2.2543e-05,3.4415e+07,80.189,0,3.4415e+07,6.9545,438.26,1
432,2.59,12137,1,12137,1,0.00057927,1.2351e-12,0,0.00057927,-0.00010819,1.7449e+08,0.39425,0,1.7449e+08,-1.6022,12136,12879,1,12879,1,0.00076352,6.4553e-10,0,0.00076352,-7.3665e-05,2.2755e+08,167.81,0,2.2755e+08,9.4738,12878,12136,1,12136,1,0.00057927,-2.0777e-11,0,0.00057927,-0.00010818,1.744e+08,-5.2178,0,1.744e+08,-1.5487,12135,11395,1,11395,1,0.00039503,-4.4785e-10,0,0.00039503,-0.00014272,1.2182e+08,-116.43,0,1.2182e+08,-19.412,11394,11748,1,11748,1,0.00047399,-1.0969e-10,0,0.00047399,-0.00012792,1.4447e+08,-27.921,0,1.4447e+08,-5.3121,11747,12524,1,12524,1,0.00068455,1.0731e-10,0,0.00068455,-8.8459e-05,2.0443e+08,27.57,0,2.0443e+08,2.2895,12523,438.26,0,438.26,0,0.00012075,2.0683e-10,0,0.00012075,2.263e-05,3.4549e+07,53.201,0,3.4549e+07,5.164,438.26,1
432,2.6,12137,1,12137,1,0.00058151,1.7532e-10,0,0.00058151,-0.00010861,1.7517e+08,45.081,0,1.7517e+08,0.11886,12136,12879,1,12879,1,0.00076647,8.2211e-10,0,0.00076647,-7.3949e-05,2.2843e+08,213.72,0,2.2843e+08,12.932,12878,12136,1,12136,1,0.00058151,1.1246e-10,0,0.00058151,-0.0001086,1.7507e+08,28.656,0,1.7507e+08,0.61543,12135,11395,1,11395,1,0.00039656,-1.6769e-10,0,0.00039656,-0.00014327,1.2229e+08,-43.59,0,1.2229e+08,-14.809,11394,11748,1,11748,1,0.00047583,-2.2259e-11,0,0.00047583,-0.00012841,1.4502e+08,-5.5926,0,1.4502e+08,-3.0984,11747,12524,1,12524,1,0.0006872,3.583e-10,0,0.0006872,-8.8801e-05,2.0522e+08,91.654,0,2.0522e+08,3.2954,12523,438.26,0,438.26,0,0.00012122,2.4255e-10,0,0.00012122,2.2717e-05,3.4682e+07,62.432,0,3.4682e+07,5.4056,438.26,1
432,2.61,12137,1,12137,1,0.00058375,-4.6787e-11,0,0.00058375,-0.00010902,1.7584e+08,-11.95,0,1.7584e+08,-2.8205,12136,12879,1,12879,1,0.00076941,4.3919e-10,0,0.00076941,-7.4234e-05,2.293e+08,114.17,0,2.293e+08,7.5931,12878,12136,1,12136,1,0.00058375,-3.9044e-11,0,0.00058375,-0.00010902,1.7574e+08,-9.8417,0,1.7574e+08,-2.7407,12135,11395,1,11395,1,0.00039808,-4.4675e-10,0,0.00039808,-0.00014382,1.2276e+08,-116.14,0,1.2276e+08,-16.503,11394,11748,1,11748,1,0.00047766,-1.277e-10,0,0.00047766,-0.00012891,1.4558e+08,-32.187,0,1.4558e+08,-5.6654,11747,12524,1,12524,1,0.00068984,2.0055e-11,0,0.00068984,-8.9142e-05,2.0601e+08,5.0396,0,2.0601e+08,0.27,12523,438.26,0,438.26,0,0.00012169,1.5357e-10,0,0.00012169,2.2805e-05,3.4816e+07,39.521,0,3.4816e+07,5.0711,438.26,1
432,2.62,12137,1,12137,1,0.00058599,5.9703e-11,0,0.00058599,-0.00010944,1.7652e+08,15.303,0,1.7652e+08,0.24274,12136,12879,1,12879,1,0.00077237,1.6927e-10,0,0.00077237,-7.4519e-05,2.3019e+08,44.004,0,2.3019e+08,4.9939,12878,12136,1,12136,1,0.00058599,4.8671e-11,0,0.00058599,-0.00010944,1.7642e+08,12.291,0,1.7642e+08,0.18793,12135,11395,1,11395,1,0.00039961,-5.4056e-11,0,0.00039961,-0.00014438,1.2323e+08,-14.051,0,1.2323e+08,-5.1852,11394,11748,1,11748,1,0.00047949,1.8001e-11,0,0.00047949,-0.0001294,1.4614e+08,4.5232,0,1.4614e+08,-1.2893,11747,12524,1,12524,1,0.00069249,1.0202e-10,0,0.00069249,-8.9485e-05,2.068e+08,26.036,0,2.068e+08,2.1132,12523,438.26,0,438.26,0,0.00012215,5.3898e-11,0,0.00012215,2.2892e-05,3.495e+07,13.916,0,3.495e+07,2.1107,438.26,1
432,2.63,12137,1,12137,1,0.00058822,1.1809e-10,0,0.00058822,-0.00010986,1.7719e+08,30.313,0,1.7719e+08,-6.1333,12136,12879,1,12879,1,0.00077531,7.8549e-10,0,0.00077531,-7.4802e-05,2.3106e+08,204.19,0,2.3106e+08,11.708,12878,12136,1,12136,1,0.00058822,4.7435e-11,0,0.00058822,-0.00010986,1.7709e+08,11.942,0,1.7709e+08,-8.0447,12135,11395,1,11395,1,0.00040113,-3.8111e-10,0,0.00040113,-0.00014493,1.237e+08,-99.076,0,1.237e+08,-22.384,11394,11748,1,11748,1,0.00048131,-4.1056e-11,0,0.00048131,-0.00012989,1.467e+08,-10.325,0,1.467e+08,-11.11,11747,12524,1,12524,1,0.00069513,2.8222e-10,0,0.00069513,-8.9825e-05,2.0759e+08,71.852,0,2.0759e+08,-1.0643,12523,438.26,0,438.26,0,0.00012262,2.3726e-10,0,0.00012262,2.2979e-05,3.5083e+07,61.084,0,3.5083e+07,7.1289,438.26,1
432,2.64,12137,1,12137,1,0.00059047,-1.478e-10,0,0.00059047,-0.00011028,1.7786e+08,-37.931,0,1.7786e+08,0.43494,12136,12879,1,12879,1,0.00077827,5.8939e-11,0,0.00077827,-7.5088e-05,2.3194e+08,14.796,0,2.3194e+08,6.7989,12878,12136,1,12136,1,0.00059047,-1.4526e-10,0,0.00059047,-0.00011027,1.7776e+08,-37.013,0,1.7776e+08,0.67307,12135,11395,1,11395,1,0.00040266,-4.1552e-10,0,0.00040266,-0.00014548,1.2417e+08,-108.02,0,1.2417e+08,-4.4279,11394,11748,1,11748,1,0.00048315,-2.3675e-10,0,0.00048315,-0.00013039,1.4726e+08,-60.677,0,1.4726e+08,-1.6028,11747,12524,1,12524,1,0.00069778,-4.0532e-11,0,0.00069778,-9.0168e-05,2.0838e+08,-10.186,0,2.0838e+08,2.5097,12523,438.26,0,438.26,0,0.00012309,1.2241e-10,0,0.00012309,2.3067e-05,3.5217e+07,31.608,0,3.5217e+07,2.4584,438.26,1
432,2.65,12137,1,12137,1,0.00059269,-1.5266e-09,0,0.00059269,-0.00011069,1.7853e+08,-392.19,0,1.7853e+08,-25.665,12136,12879,1,12879,1,0.00078122,1.0232e-09,0,0.00078122,-7.537e-05,2.3282e+08,256.88,0,2.3282e+08,78.571,12878,12136,1,12136,1,0.00059269,-1.2183e-09,0,0.00059269,-0.00011069,1.7843e+08,-311.09,0,1.7843e+08,-29.478,12135,11395,1,11395,1,0.00040418,-4.7605e-09,0,0.00040418,-0.00014603,1.2463e+08,-1237.5,0,1.2463e+08,-103.74,11394,11748,1,11748,1,0.00048497,-2.7618e-09,0,0.00048497,-0.00013088,1.4781e+08,-703.38,0,1.4781e+08,-59.862,11747,12524,1,12524,1,0.00070041,-2.5023e-10,0,0.00070041,-9.0508e-05,2.0917e+08,-62.983,0,2.0917e+08,6.6155,12523,438.26,0,438.26,0,0.00012355,1.5643e-09,0,0.00012355,2.3154e-05,3.5349e+07,403.06,0,3.5349e+07,43.887,438.26,1
432,2.66,12137,1,12137,1,0.00059494,1.2742e-10,0,0.00059494,-0.00011111,1.7921e+08,32.766,0,1.7921e+08,-5.1947,12136,12879,1,12879,1,0.00078416,7.0507e-10,0,0.00078416,-7.5656e-05,2.337e+08,183.29,0,2.337e+08,7.5903,12878,12136,1,12136,1,0.00059494,5.8208e-11,0,0.00059494,-0.00011111,1.7911e+08,14.763,0,1.7911e+08,-5.0094,12135,11395,1,11395,1,0.00040571,-1.4284e-10,0,0.00040571,-0.00014658,1.2511e+08,-37.132,0,1.2511e+08,-33.43,11394,11748,1,11748,1,0.00048681,-3.1409e-11,0,0.00048681,-0.00013138,1.4837e+08,-7.8873,0,1.4837e+08,-7.4183,11747,12524,1,12524,1,0.00070306,2.5188e-10,0,0.00070306,-9.0851e-05,2.0996e+08,64.529,0,2.0996e+08,-1.2998,12523,438.26,0,438.26,0,0.00012402,1.9772e-10,0,0.00012402,2.3242e-05,3.5483e+07,50.893,0,3.5483e+07,6.7268,438.26,1
432,2.67,12137,1,12137,1,0.00059718,-8.8637e-11,0,0.00059718,-0.00011153,1.7988e+08,-22.789,0,1.7988e+08,2.1599,12136,12879,1,12879,1,0.00078711,6.8136e-11,0,0.00078711,-7.5941e-05,2.3457e+08,17.104,0,2.3457e+08,16.985,12878,12136,1,12136,1,0.00059718,-7.3378e-11,0,0.00059718,-0.00011153,1.7978e+08,-18.565,0,1.7978e+08,1.485,12135,11395,1,11395,1,0.00040724,-3.6217e-10,0,0.00040724,-0.00014713,1.2558e+08,-94.147,0,1.2558e+08,-2.8092,11394,11748,1,11748,1,0.00048864,-1.4503e-10,0,0.00048864,-0.00013187,1.4893e+08,-37.293,0,1.4893e+08,-0.73388,11747,12524,1,12524,1,0.00070571,-1.3675e-11,0,0.00070571,-9.1193e-05,2.1075e+08,-3.4468,0,2.1075e+08,3.3154,12523,438.26,0,438.26,0,0.00012449,9.7055e-11,0,0.00012449,2.3329e-05,3.5616e+07,25.009,0,3.5616e+07,4.0029,438.26,1
432,2.68,12137,1,12137,1,0.00059941,-1.5283e-11,0,0.00059941,-0.00011195,1.8056e+08,-3.8956,0,1.8056e+08,-3.9657,12136,12879,1,12879,1,0.00079005,3.7214e-10,0,0.00079005,-7.6225e-05,2.3545e+08,96.739,0,2.3545e+08,5.6143,12878,12136,1,12136,1,0.00059941,-1.7472e-11,0,0.00059941,-0.00011195,1.8046e+08,-4.3885,0,1.8046e+08,-4.4,12135,11395,1,11395,1,0.00040877,-3.2709e-10,0,0.00040877,-0.00014768,1.2605e+08,-85.03,0,1.2605e+08,-19.505,11394,11748,1,11748,1,0.00049047,-9.4669e-11,0,0.00049047,-0.00013236,1.4948e+08,-23.938,0,1.4948e+08,-6.3431,11747,12524,1,12524,1,0.00070835,4.0056e-11,0,0.00070835,-9.1534e-05,2.1154e+08,10.341,0,2.1154e+08,-1.2104,12523,438.26,0,438.26,0,0.00012495,1.3576e-10,0,0.00012495,2.3416e-05,3.5749e+07,34.922,0,3.5749e+07,4.6206,438.26,1
432,2.69,12137,1,12137,1,0.00060165,-1.4398e-10,0,0.00060165,-0.00011237,1.8123e+08,-36.973,0,1.8123e+08,-2.718,12136,12879,1,12879,1,0.00079301,8.7595e-11,0,0.00079301,-7.651e-05,2.3633e+08,21.99,0,2.3633e+08,6.3264,12878,12136,1,12136,1,0.00060165,-1.1223e-10,0,0.00060165,-0.00011236,1.8113e+08,-28.537,0,1.8113e+08,-3.0785,12135,11395,1,11395,1,0.00041029,-4.6619e-10,0,0.00041029,-0.00014824,1.2652e+08,-121.19,0,1.2652e+08,-11.617,11394,11748,1,11748,1,0.0004923,-2.5803e-10,0,0.0004923,-0.00013286,1.5004e+08,-65.658,0,1.5004e+08,-5.7456,11747,12524,1,12524,1,0.000711,-2.438e-11,0,0.000711,-9.1876e-05,2.1233e+08,-6.1492,0,2.1233e+08,0.14283,12523,438.26,0,438.26,0,0.00012542,1.4659e-10,0,0.00012542,2.3504e-05,3.5882e+07,37.783,0,3.5882e+07,3.9004,438.26,1
432,2.7,12137,1,12137,1,0.00060389,1.267e-10,0,0.00060389,-0.00011279,1.819e+08,32.58,0,1.819e+08,-3.5192,12136,12879,1,12879,1,0.00079596,5.8382e-10,0,0.00079596,-7.6795e-05,2.372e+08,151.78,0,2.372e+08,6.8821,12878,12136,1,12136,1,0.00060389,8.0153e-11,0,0.00060389,-0.00011278,1.818e+08,20.402,0,1.818e+08,-3.1476,12135,11395,1,11395,1,0.00041182,-1.0022e-10,0,0.00041182,-0.00014879,1.2699e+08,-25.16,0,1.2699e+08,-28.153,11394,11748,1,11748,1,0.00049413,-1.3353e-11,0,0.00049413,-0.00013335,1.506e+08,-3.3527,0,1.506e+08,-5.1615,11747,12524,1,12524,1,0.00071364,2.3956e-10,0,0.00071364,-9.2217e-05,2.1312e+08,60.887,0,2.1312e+08,-0.35184,12523,438.26,0,438.26,0,0.00012588,1.6993e-10,0,0.00012588,2.3591e-05,3.6015e+07,43.753,0,3.6015e+07,5.6547,438.26,1
432,2.71,12137,1,12137,1,0.00060612,-6.4368e-11,0,0.00060612,-0.0001132,1.8258e+08,-16.506,0,1.8258e+08,-5.5318,12136,12879,1,12879,1,0.0007989,3.9695e-10,0,0.0007989,-7.7079e-05,2.3808e+08,103.19,0,2.3808e+08,8.1899,12878,12136,1,12136,1,0.00060612,-3.4518e-11,0,0.00060612,-0.0001132,1.8248e+08,-8.7052,0,1.8248e+08,-6.1141,12135,11395,1,11395,1,0.00041334,-4.7478e-10,0,0.00041334,-0.00014934,1.2746e+08,-123.43,0,1.2746e+08,-25.667,11394,11748,1,11748,1,0.00049596,-1.8501e-10,0,0.00049596,-0.00013385,1.5116e+08,-47.078,0,1.5116e+08,-9.3254,11747,12524,1,12524,1,0.00071628,4.2529e-11,0,0.00071628,-9.2559e-05,2.1391e+08,10.676,0,2.1391e+08,-0.89738,12523,438.26,0,438.26,0,0.00012635,1.7901e-10,0,0.00012635,2.3679e-05,3.6148e+07,46.067,0,3.6148e+07,6.5272,438.26,1
432,2.72,12137,1,12137,1,0.00060834,-1.1424e-09,0,0.00060834,-0.00011362,1.8324e+08,-293.46,0,1.8324e+08,-31.541,12136,12879,1,12879,1,0.00080184,7.299e-10,0,0.00080184,-7.736e-05,2.3895e+08,183.23,0,2.3895e+08,44.201,12878,12136,1,12136,1,0.00060834,-8.5711e-10,0,0.00060834,-0.00011361,1.8314e+08,-217.91,0,1.8314e+08,-32.394,12135,11395,1,11395,1,0.00041485,-4.0341e-09,0,0.00041485,-0.00014989,1.2792e+08,-1048.7,0,1.2792e+08,-127.47,11394,11748,1,11748,1,0.00049778,-2.0622e-09,0,0.00049778,-0.00013434,1.5171e+08,-526.03,0,1.5171e+08,-57.642,11747,12524,1,12524,1,0.0007189,-1.2251e-10,0,0.0007189,-9.2898e-05,2.1469e+08,-30.836,0,2.1469e+08,-5.8788,12523,438.26,0,438.26,0,0.00012681,1.2508e-09,0,0.00012681,2.3765e-05,3.628e+07,322.23,0,3.628e+07,35.466,438.26,1
432,2.73,12137,1,12137,1,0.00061058,1.1936e-09,0,0.00061058,-0.00011404,1.8392e+08,306.87,0,1.8392e+08,2.2786,12136,12879,1,12879,1,0.0008048,3.9469e-09,0,0.0008048,-7.7645e-05,2.3983e+08,1026.1,0,2.3983e+08,68.799,12878,12136,1,12136,1,0.00061058,1.0621e-09,0,0.00061058,-0.00011403,1.8382e+08,272.67,0,1.8382e+08,3.4707,12135,11395,1,11395,1,0.00041638,-7.7657e-10,0,0.00041638,-0.00015044,1.2839e+08,-194.95,0,1.2839e+08,-53.403,11394,11748,1,11748,1,0.00049961,1.7264e-10,0,0.00049961,-0.00013483,1.5227e+08,43.405,0,1.5227e+08,-13.951,11747,12524,1,12524,1,0.00072155,2.1135e-09,0,0.00072155,-9.324e-05,2.1548e+08,541.47,0,2.1548e+08,20.199,12523,438.26,0,438.26,0,0.00012728,1.2329e-09,0,0.00012728,2.3853e-05,3.6413e+07,317.66,0,3.6413e+07,24.342,438.26,1
432,2.74,12137,1,12137,1,0.00061282,-5.5365e-10,0,0.00061282,-0.00011445,1.8459e+08,-142.18,0,1.8459e+08,-17.982,12136,12879,1,12879,1,0.00080773,6.1558e-10,0,0.00080773,-7.793e-05,2.407e+08,160.01,0,2.407e+08,30.435,12878,12136,1,12136,1,0.00061282,-3.6131e-10,0,0.00061282,-0.00011445,1.8449e+08,-92.011,0,1.8449e+08,-20.459,12135,11395,1,11395,1,0.00041791,-2.2719e-09,0,0.00041791,-0.00015099,1.2887e+08,-590.6,0,1.2887e+08,-64.006,11394,11748,1,11748,1,0.00050144,-1.1e-09,0,0.00050144,-0.00013532,1.5283e+08,-280.92,0,1.5283e+08,-33.274,11747,12524,1,12524,1,0.00072419,5.3989e-11,0,0.00072419,-9.3581e-05,2.1627e+08,13.565,0,2.1627e+08,-3.5247,12523,438.26,0,438.26,0,0.00012774,7.406e-10,0,0.00012774,2.394e-05,3.6546e+07,190.71,0,3.6546e+07,20.503,438.26,1
432,2.75,12137,1,12137,1,0.00061503,-7.411e-10,0,0.00061503,-0.00011487,1.8526e+08,-190.1,0,1.8526e+08,-26.232,12136,12879,1,12879,1,0.00081065,1.4853e-09,0,0.00081065,-7.8211e-05,2.4157e+08,386.08,0,2.4157e+08,63.962,12878,12136,1,12136,1,0.00061503,-3.4618e-10,0,0.00061503,-0.00011486,1.8516e+08,-87.801,0,1.8516e+08,-34.416,12135,11395,1,11395,1,0.00041941,-3.6392e-09,0,0.00041941,-0.00015153,1.2933e+08,-946.02,0,1.2933e+08,-122.52,11394,11748,1,11748,1,0.00050325,-1.5343e-09,0,0.00050325,-0.00013581,1.5338e+08,-390.65,0,1.5338e+08,-47.885,11747,12524,1,12524,1,0.00072681,8.7452e-11,0,0.00072681,-9.3919e-05,2.1705e+08,22.154,0,2.1705e+08,0.25512,12523,438.26,0,438.26,0,0.00012821,1.1599e-09,0,0.00012821,2.4026e-05,3.6678e+07,298.66,0,3.6678e+07,35.756,438.26,1
432,2.76,12137,1,12137,1,0.0006173,1.4552e-09,0,0.0006173,-0.00011529,1.8594e+08,373.7,0,1.8594e+08,-2.2245,12136,12879,1,12879,1,0.00081365,4.3869e-09,0,0.00081365,-7.8499e-05,2.4246e+08,1140.4,0,2.4246e+08,32.058,12878,12136,1,12136,1,0.0006173,1.2932e-09,0,0.0006173,-0.00011529,1.8584e+08,333.73,0,1.8584e+08,0.26647,12135,11395,1,11395,1,0.00042096,-7.3766e-10,0,0.00042096,-0.00015209,1.2981e+08,-185.17,0,1.2981e+08,-52.103,11394,11748,1,11748,1,0.00050511,3.4404e-10,0,0.00050511,-0.00013631,1.5394e+08,86.598,0,1.5394e+08,-12.293,11747,12524,1,12524,1,0.00072949,2.4807e-09,0,0.00072949,-9.4266e-05,2.1785e+08,631.57,0,2.1785e+08,10.421,12523,438.26,0,438.26,0,0.00012868,1.3546e-09,0,0.00012868,2.4115e-05,3.6813e+07,349.21,0,3.6813e+07,17.923,438.26,1
432,2.77,12137,1,12137,1,0.00061953,1.2504e-09,0,0.00061953,-0.00011571,1.8661e+08,320.56,0,1.8661e+08,-9.2476,12136,12879,1,12879,1,0.00081658,5.2831e-09,0,0.00081658,-7.8783e-05,2.4333e+08,1373.4,0,2.4333e+08,67.96,12878,12136,1,12136,1,0.00061953,8.4686e-10,0,0.00061953,-0.0001157,1.8651e+08,214.24,0,1.8651e+08,-11.139,12135,11395,1,11395,1,0.00042248,-6.725e-10,0,0.00042248,-0.00015264,1.3028e+08,-168.81,0,1.3028e+08,-72.346,11394,11748,1,11748,1,0.00050693,2.2361e-10,0,0.00050693,-0.00013681,1.545e+08,56.82,0,1.545e+08,-29.264,11747,12524,1,12524,1,0.00073212,2.1421e-09,0,0.00073212,-9.4606e-05,2.1864e+08,548.49,0,2.1864e+08,8.0854,12523,438.26,0,438.26,0,0.00012914,1.34e-09,0,0.00012914,2.4202e-05,3.6945e+07,345.59,0,3.6945e+07,27.75,438.26,1
432,2.78,12137,1,12137,1,0.00062175,2.0269e-09,0,0.00062175,-0.00011612,1.8728e+08,520.65,0,1.8728e+08,-2.0531,12136,12879,1,12879,1,0.00081953,5.9381e-09,0,0.00081953,-7.9065e-05,2.4421e+08,1543.7,0,2.4421e+08,70.672,12878,12136,1,12136,1,0.00062175,1.6558e-09,0,0.00062175,-0.00011612,1.8718e+08,422.79,0,1.8718e+08,0.83104,12135,11395,1,11395,1,0.00042399,-1.084e-09,0,0.00042399,-0.00015319,1.3074e+08,-272.12,0,1.3074e+08,-88.83,11394,11748,1,11748,1,0.00050875,3.1371e-10,0,0.00050875,-0.0001373,1.5505e+08,79.236,0,1.5505e+08,-17.589,11747,12524,1,12524,1,0.00073475,3.65e-09,0,0.00073475,-9.4946e-05,2.1942e+08,937.73,0,2.1942e+08,20.079,12523,438.26,0,438.26,0,0.00012961,2.027e-09,0,0.00012961,2.4289e-05,3.7077e+07,522.28,0,3.7077e+07,31.653,438.26,1
432,2.79,12137,1,12137,1,0.00062395,1.2803e-09,0,0.00062395,-0.00011653,1.8794e+08,329.82,0,1.8794e+08,-15.996,12136,12879,1,12879,1,0.00082243,6.2791e-09,0,0.00082243,-7.9345e-05,2.4507e+08,1632.3,0,2.4507e+08,102.19,12878,12136,1,12136,1,0.00062396,8.2166e-10,0,0.00062396,-0.00011653,1.8784e+08,207.75,0,1.8784e+08,-18.585,12135,11395,1,11395,1,0.0004255,-1.8628e-09,0,0.0004255,-0.00015373,1.3121e+08,-484.22,0,1.3121e+08,-169.54,11394,11748,1,11748,1,0.00051056,-4.1845e-10,0,0.00051056,-0.00013778,1.556e+08,-106.47,0,1.556e+08,-41.72,11747,12524,1,12524,1,0.00073736,2.9902e-09,0,0.00073736,-9.5283e-05,2.202e+08,760.88,0,2.202e+08,10.173,12523,438.26,0,438.26,0,0.00013006,2.0337e-09,0,0.00013006,2.4375e-05,3.7208e+07,523.03,0,3.7208e+07,47.013,438.26,1
432,2.8,12137,1,12137,1,0.00062626,2.9958e-10,0,0.00062626,-0.00011696,1.8864e+08,76.539,0,1.8864e+08,-1.6585,12136,12879,1,12879,1,0.00082544,1.0374e-09,0,0.00082544,-7.964e-05,2.4596e+08,269.67,0,2.4596e+08,25.108,12878,12136,1,12136,1,0.00062626,2.3073e-10,0,0.00062626,-0.00011696,1.8853e+08,58.467,0,1.8853e+08,-0.49835,12135,11395,1,11395,1,0.00042707,-8.9196e-13,0,0.00042707,-0.0001543,1.3169e+08,-0.21685,0,1.3169e+08,-23.642,11394,11748,1,11748,1,0.00051244,1.4977e-10,0,0.00051244,-0.00013829,1.5618e+08,38.111,0,1.5618e+08,-8.8685,11747,12524,1,12524,1,0.00074007,4.0932e-10,0,0.00074007,-9.5633e-05,2.2101e+08,105.9,0,2.2101e+08,6.421,12523,438.26,0,438.26,0,0.00013055,2.0948e-10,0,0.00013055,2.4465e-05,3.7345e+07,54.19,0,3.7345e+07,9.6956,438.26,1
432,2.81,12137,1,12137,1,0.00062843,2.1491e-10,0,0.00062843,-0.00011737,1.8929e+08,54.869,0,1.8929e+08,-29.575,12136,12879,1,12879,1,0.00082831,4.6338e-09,0,0.00082831,-7.9917e-05,2.4682e+08,1204.6,0,2.4682e+08,65.557,12878,12136,1,12136,1,0.00062844,1.363e-10,0,0.00062844,-0.00011737,1.8918e+08,34.471,0,1.8918e+08,-34.298,12135,11395,1,11395,1,0.00042856,-3.237e-09,0,0.00042856,-0.00015483,1.3215e+08,-841.47,0,1.3215e+08,-132.47,11394,11748,1,11748,1,0.00051422,-6.2507e-10,0,0.00051422,-0.00013877,1.5672e+08,-158.3,0,1.5672e+08,-55.029,11747,12524,1,12524,1,0.00074265,9.9604e-10,0,0.00074265,-9.5966e-05,2.2178e+08,252.23,0,2.2178e+08,-8.0514,12523,438.26,0,438.26,0,0.000131,1.5058e-09,0,0.000131,2.455e-05,3.7474e+07,387.29,0,3.7474e+07,38.791,438.26,1
432,2.82,12137,1,12137,1,0.00063071,-8.632e-10,0,0.00063071,-0.0001178,1.8998e+08,-221.9,0,1.8998e+08,-7.4027,12136,12879,1,12879,1,0.00083132,5.5058e-10,0,0.00083132,-8.0206e-05,2.4771e+08,138.21,0,2.4771e+08,30.692,12878,12136,1,12136,1,0.00063071,-8.3749e-10,0,0.00063071,-0.00011779,1.8987e+08,-212.66,0,1.8987e+08,-8.7885,12135,11395,1,11395,1,0.00043011,-2.6975e-09,0,0.00043011,-0.0001554,1.3263e+08,-701.23,0,1.3263e+08,-53.442,11394,11748,1,11748,1,0.00051609,-1.548e-09,0,0.00051609,-0.00013928,1.5729e+08,-395.48,0,1.5729e+08,-20.285,11747,12524,1,12524,1,0.00074534,-1.1996e-10,0,0.00074534,-9.6314e-05,2.2258e+08,-30.197,0,2.2258e+08,5.5003,12523,438.26,0,438.26,0,0.00013147,8.6209e-10,0,0.00013147,2.4639e-05,3.761e+07,221.98,0,3.761e+07,17.155,438.26,1
432,2.83,12137,1,12137,1,0.00063292,-1.2518e-09,0,0.00063292,-0.00011821,1.9064e+08,-322.03,0,1.9064e+08,-21.728,12136,12879,1,12879,1,0.00083424,2.5892e-09,0,0.00083424,-8.0486e-05,2.4858e+08,673.05,0,2.4858e+08,113.96,12878,12136,1,12136,1,0.00063292,-6.7639e-10,0,0.00063292,-0.0001182,1.9053e+08,-171.62,0,1.9053e+08,-21.233,12135,11395,1,11395,1,0.00043161,-6.4981e-09,0,0.00043161,-0.00015594,1.3309e+08,-1689.2,0,1.3309e+08,-187.3,11394,11748,1,11748,1,0.00051789,-2.8615e-09,0,0.00051789,-0.00013976,1.5784e+08,-726.93,0,1.5784e+08,-60.587,11747,12524,1,12524,1,0.00074795,3.9133e-10,0,0.00074795,-9.6651e-05,2.2336e+08,98.325,0,2.2336e+08,18.591,12523,438.26,0,438.26,0,0.00013193,2.1746e-09,0,0.00013193,2.4725e-05,3.774e+07,559.53,0,3.774e+07,59.598,438.26,1
432,2.84,12137,1,12137,1,0.00063516,-8.3485e-10,0,0.00063516,-0.00011863,1.9131e+08,-215.23,0,1.9131e+08,-10.717,12136,12879,1,12879,1,0.0008372,1.975e-09,0,0.0008372,-8.0772e-05,2.4946e+08,513.37,0,2.4946e+08,95.423,12878,12136,1,12136,1,0.00063517,-3.9879e-10,0,0.00063517,-0.00011862,1.9121e+08,-100.52,0,1.9121e+08,-10.849,12135,11395,1,11395,1,0.00043315,-4.6887e-09,0,0.00043315,-0.00015649,1.3356e+08,-1218.8,0,1.3356e+08,-136.49,11394,11748,1,11748,1,0.00051973,-2.1539e-09,0,0.00051973,-0.00014026,1.584e+08,-551.52,0,1.584e+08,-42.842,11747,12524,1,12524,1,0.0007506,4.6428e-10,0,0.0007506,-9.6994e-05,2.2415e+08,116.65,0,2.2415e+08,19.43,12523,438.26,0,438.26,0,0.0001324,1.6573e-09,0,0.0001324,2.4813e-05,3.7874e+07,426.13,0,3.7874e+07,46.097,438.26,1
432,2.85,12137,1,12137,1,0.00063744,3.3101e-10,0,0.00063744,-0.00011905,1.92e+08,85.216,0,1.92e+08,1.9655,12136,12879,1,12879,1,0.00084018,1.4531e-09,0,0.00084018,-8.1062e-05,2.5034e+08,377.74,0,2.5034e+08,33.511,12878,12136,1,12136,1,0.00063744,2.2899e-10,0,0.00063744,-0.00011905,1.9189e+08,58.19,0,1.9189e+08,5.6265,12135,11395,1,11395,1,0.0004347,-5.3523e-10,0,0.0004347,-0.00015705,1.3404e+08,-139.13,0,1.3404e+08,-32.838,11394,11748,1,11748,1,0.00052159,-7.9501e-11,0,0.00052159,-0.00014076,1.5896e+08,-19.97,0,1.5896e+08,-9.0149,11747,12524,1,12524,1,0.00075329,7.4832e-10,0,0.00075329,-9.7342e-05,2.2495e+08,191.68,0,2.2495e+08,12.24,12523,438.26,0,438.26,0,0.00013288,4.9924e-10,0,0.00013288,2.4902e-05,3.8009e+07,128.4,0,3.8009e+07,14.452,438.26,1
432,2.86,12137,1,12137,1,0.00063964,-1.3891e-09,0,0.00063964,-0.00011946,1.9266e+08,-357.09,0,1.9266e+08,-20.617,12136,12879,1,12879,1,0.0008431,1.1136e-09,0,0.0008431,-8.1341e-05,2.5121e+08,279.52,0,2.5121e+08,94.698,12878,12136,1,12136,1,0.00063965,-1.0396e-09,0,0.00063965,-0.00011946,1.9255e+08,-263.28,0,1.9255e+08,-22.793,12135,11395,1,11395,1,0.0004362,-4.9486e-09,0,0.0004362,-0.0001576,1.345e+08,-1286.4,0,1.345e+08,-148.22,11394,11748,1,11748,1,0.0005234,-2.8853e-09,0,0.0005234,-0.00014125,1.5951e+08,-738.95,0,1.5951e+08,-50.667,11747,12524,1,12524,1,0.0007559,1.6044e-10,0,0.0007559,-9.7678e-05,2.2573e+08,40.349,0,2.2573e+08,10.858,12523,438.26,0,438.26,0,0.00013333,1.7585e-09,0,0.00013333,2.4988e-05,3.814e+07,452.64,0,3.814e+07,45.337,438.26,1
432,2.87,12137,1,12137,1,0.00064192,-5.3918e-10,0,0.00064192,-0.00011989,1.9335e+08,-138.23,0,1.9335e+08,1.2437,12136,12879,1,12879,1,0.00084608,9.4369e-11,0,0.00084608,-8.1632e-05,2.521e+08,23.685,0,2.521e+08,9.1659,12878,12136,1,12136,1,0.00064192,-5.7387e-10,0,0.00064192,-0.00011988,1.9324e+08,-145.6,0,1.9324e+08,1.6285,12135,11395,1,11395,1,0.00043776,-1.1633e-09,0,0.00043776,-0.00015816,1.3498e+08,-302.4,0,1.3498e+08,-12.06,11394,11748,1,11748,1,0.00052526,-8.4872e-10,0,0.00052526,-0.00014175,1.6008e+08,-217.62,0,1.6008e+08,-1.3399,11747,12524,1,12524,1,0.00075858,-2.2994e-10,0,0.00075858,-9.8025e-05,2.2653e+08,-57.885,0,2.2653e+08,4.2255,12523,438.26,0,438.26,0,0.00013381,3.6566e-10,0,0.00013381,2.5077e-05,3.8275e+07,94.615,0,3.8275e+07,4.2148,438.26,1
432,2.88,12137,1,12137,1,0.00064412,4.1294e-10,0,0.00064412,-0.0001203,1.9401e+08,106.1,0,1.9401e+08,-12.917,12136,12879,1,12879,1,0.00084898,2.8237e-09,0,0.00084898,-8.1911e-05,2.5296e+08,734.01,0,2.5296e+08,21.982,12878,12136,1,12136,1,0.00064412,2.1034e-10,0,0.00064412,-0.00012029,1.939e+08,53.267,0,1.939e+08,-12.457,12135,11395,1,11395,1,0.00043926,-1.1599e-09,0,0.00043926,-0.0001587,1.3544e+08,-301.5,0,1.3544e+08,-53.059,11394,11748,1,11748,1,0.00052706,-1.9421e-10,0,0.00052706,-0.00014224,1.6063e+08,-48.779,0,1.6063e+08,-23.637,11747,12524,1,12524,1,0.00076118,9.7589e-10,0,0.00076118,-9.8361e-05,2.2731e+08,248.47,0,2.2731e+08,-1.8515,12523,438.26,0,438.26,0,0.00013427,8.158e-10,0,0.00013427,2.5162e-05,3.8405e+07,209.83,0,3.8405e+07,16.492,438.26,1
432,2.89,12137,1,12137,1,0.00064637,1.3971e-09,0,0.00064637,-0.00012072,1.9469e+08,358.56,0,1.9469e+08,0.40576,12136,12879,1,12879,1,0.00085197,3.5077e-09,0,0.00085197,-8.2197e-05,2.5384e+08,911.84,0,2.5384e+08,43.09,12878,12136,1,12136,1,0.00064637,1.4798e-09,0,0.00064637,-0.00012072,1.9458e+08,376.59,0,1.9458e+08,2.854,12135,11395,1,11395,1,0.00044079,-5.7235e-10,0,0.00044079,-0.00015926,1.3592e+08,-143.65,0,1.3592e+08,-33.89,11394,11748,1,11748,1,0.0005289,4.1544e-10,0,0.0005289,-0.00014273,1.6119e+08,104.41,0,1.6119e+08,-9.994,11747,12524,1,12524,1,0.00076385,2.2704e-09,0,0.00076385,-9.8706e-05,2.281e+08,580.21,0,2.281e+08,10.51,12523,438.26,0,438.26,0,0.00013474,1.1065e-09,0,0.00013474,2.525e-05,3.8539e+07,285.59,0,3.8539e+07,14.187,438.26,1
432,2.9,12137,1,12137,1,0.00064859,1.4128e-11,0,0.00064859,-0.00012113,1.9535e+08,2.9313,0,1.9535e+08,-20.422,12136,12879,1,12879,1,0.00085488,3.7903e-09,0,0.00085488,-8.2481e-05,2.5471e+08,985.27,0,2.5471e+08,72.096,12878,12136,1,12136,1,0.00064859,1.0844e-10,0,0.00064859,-0.00012113,1.9524e+08,27.233,0,1.9524e+08,-20.599,12135,11395,1,11395,1,0.00044231,-2.8636e-09,0,0.00044231,-0.0001598,1.3639e+08,-744.39,0,1.3639e+08,-123.55,11394,11748,1,11748,1,0.00053072,-9.096e-10,0,0.00053072,-0.00014322,1.6174e+08,-231.42,0,1.6174e+08,-44.563,11747,12524,1,12524,1,0.00076647,7.0975e-10,0,0.00076647,-9.9045e-05,2.2889e+08,179.03,0,2.2889e+08,1.4903,12523,438.26,0,438.26,0,0.0001352,1.3256e-09,0,0.0001352,2.5337e-05,3.8671e+07,340.85,0,3.8671e+07,37.72,438.26,1
432,2.91,12137,1,12137,1,0.00065084,-2.1405e-10,0,0.00065084,-0.00012155,1.9603e+08,-55.604,0,1.9603e+08,-11.269,12136,12879,1,12879,1,0.00085785,2.575e-09,0,0.00085785,-8.2766e-05,2.5559e+08,669.36,0,2.5559e+08,69.3,12878,12136,1,12136,1,0.00065084,1.2745e-12,0,0.00065084,-0.00012155,1.9592e+08,0.30199,0,1.9592e+08,-12.613,12135,11395,1,11395,1,0.00044384,-2.3756e-09,0,0.00044384,-0.00016035,1.3686e+08,-617.53,0,1.3686e+08,-94.094,11394,11748,1,11748,1,0.00053256,-1.0436e-09,0,0.00053256,-0.00014372,1.623e+08,-266.42,0,1.623e+08,-29.227,11747,12524,1,12524,1,0.00076912,5.1929e-10,0,0.00076912,-9.9388e-05,2.2968e+08,130.71,0,2.2968e+08,4.6484,12523,438.26,0,438.26,0,0.00013567,1.0612e-09,0,0.00013567,2.5425e-05,3.8804e+07,272.75,0,3.8804e+07,29.158,438.26,1
432,2.92,12137,1,12137,1,0.0006531,-5.5917e-10,0,0.0006531,-0.00012198,1.9671e+08,-143.92,0,1.9671e+08,-3.6269,12136,12879,1,12879,1,0.00086082,4.9346e-10,0,0.00086082,-8.3053e-05,2.5647e+08,123.86,0,2.5647e+08,33.166,12878,12136,1,12136,1,0.0006531,-5.2514e-10,0,0.0006531,-0.00012197,1.966e+08,-133.96,0,1.966e+08,-3.3442,12135,11395,1,11395,1,0.00044538,-2.0414e-09,0,0.00044538,-0.00016091,1.3733e+08,-530.65,0,1.3733e+08,-48.838,11394,11748,1,11748,1,0.0005344,-1.0329e-09,0,0.0005344,-0.00014422,1.6286e+08,-266.07,0,1.6286e+08,-13.32,11747,12524,1,12524,1,0.00077179,-1.3711e-11,0,0.00077179,-9.9732e-05,2.3047e+08,-3.4685,0,2.3047e+08,7.6503,12523,438.26,0,438.26,0,0.00013614,6.4099e-10,0,0.00013614,2.5513e-05,3.8939e+07,164.86,0,3.8939e+07,15.113,438.26,1
432,2.93,12137,1,12137,1,0.00065526,1.0305e-09,0,0.00065526,-0.00012238,1.9736e+08,265.71,0,1.9736e+08,-17.254,12136,12879,1,12879,1,0.00086369,8.1885e-09,0,0.00086369,-8.3328e-05,2.5733e+08,2128.6,0,2.5733e+08,139.31,12878,12136,1,12136,1,0.00065527,4.5881e-10,0,0.00065527,-0.00012238,1.9725e+08,117.53,0,1.9725e+08,-27.715,12135,11395,1,11395,1,0.00044685,-3.7281e-09,0,0.00044685,-0.00016145,1.3779e+08,-969.09,0,1.3779e+08,-250.98,11394,11748,1,11748,1,0.00053618,-6.3615e-10,0,0.00053618,-0.0001447,1.6341e+08,-161.54,0,1.6341e+08,-55.799,11747,12524,1,12524,1,0.00077435,2.7858e-09,0,0.00077435,-0.00010006,2.3124e+08,712.56,0,2.3124e+08,25.836,12523,438.26,0,438.26,0,0.00013659,2.4284e-09,0,0.00013659,2.5597e-05,3.9067e+07,624.63,0,3.9067e+07,69.033,438.26,1
432,2.94,12137,1,12137,1,0.00065753,2.512e-09,0,0.00065753,-0.0001228,1.9804e+08,644.98,0,1.9804e+08,-7.4023,12136,12879,1,12879,1,0.00086669,9.0422e-09,0,0.00086669,-8.3616e-05,2.5822e+08,2350.5,0,2.5822e+08,90.044,12878,12136,1,12136,1,0.00065754,1.904e-09,0,0.00065754,-0.0001228,1.9793e+08,483.77,0,1.9793e+08,-4.9206,12135,11395,1,11395,1,0.0004484,-1.3986e-09,0,0.0004484,-0.00016201,1.3826e+08,-351.01,0,1.3826e+08,-120.8,11394,11748,1,11748,1,0.00053804,3.176e-10,0,0.00053804,-0.0001452,1.6397e+08,79.958,0,1.6397e+08,-37.227,11747,12524,1,12524,1,0.00077704,4.6086e-09,0,0.00077704,-0.00010041,2.3204e+08,1174.2,0,2.3204e+08,25.517,12523,438.26,0,438.26,0,0.00013706,2.6505e-09,0,0.00013706,2.5686e-05,3.9202e+07,682.94,0,3.9202e+07,45.804,438.26,1
432,2.95,12137,1,12137,1,0.00065978,2.4806e-10,0,0.00065978,-0.00012322,1.9872e+08,63.146,0,1.9872e+08,-10.598,12136,12879,1,12879,1,0.00086962,3.0052e-09,0,0.00086962,-8.3904e-05,2.5909e+08,781.17,0,2.5909e+08,52.887,12878,12136,1,12136,1,0.00065978,1.9251e-10,0,0.00065978,-0.00012322,1.986e+08,48.366,0,1.986e+08,-14.098,12135,11395,1,11395,1,0.00044994,-1.6806e-09,0,0.00044994,-0.00016256,1.3874e+08,-436.86,0,1.3874e+08,-61.089,11394,11748,1,11748,1,0.00053987,-2.6098e-10,0,0.00053987,-0.00014569,1.6453e+08,-67.121,0,1.6453e+08,-24.926,11747,12524,1,12524,1,0.00077969,6.2202e-10,0,0.00077969,-0.00010075,2.3283e+08,157.81,0,2.3283e+08,2.6002,12523,438.26,0,438.26,0,0.00013753,8.6947e-10,0,0.00013753,2.5774e-05,3.9335e+07,223.62,0,3.9335e+07,22.142,438.26,1
432,2.96,12137,1,12137,1,0.00066203,-1.1844e-09,0,0.00066203,-0.00012364,1.9939e+08,-304.38,0,1.9939e+08,-26.945,12136,12879,1,12879,1,0.0008726,8.5895e-10,0,0.0008726,-8.4189e-05,2.5996e+08,215.57,0,2.5996e+08,62.844,12878,12136,1,12136,1,0.00066203,-9.3516e-10,0,0.00066203,-0.00012364,1.9928e+08,-235.67,0,1.9928e+08,-24.647,12135,11395,1,11395,1,0.00045147,-4.1658e-09,0,0.00045147,-0.00016311,1.3921e+08,-1082.9,0,1.3921e+08,-107.38,11394,11748,1,11748,1,0.00054172,-2.332e-09,0,0.00054172,-0.00014619,1.6509e+08,-596.39,0,1.6509e+08,-68.307,11747,12524,1,12524,1,0.00078235,4.3959e-11,0,0.00078235,-0.0001011,2.3362e+08,11.122,0,2.3362e+08,7.7744,12523,438.26,0,438.26,0,0.000138,1.402e-09,0,0.000138,2.5862e-05,3.9465e+07,360.96,0,3.9465e+07,41.956,438.26,1
432,2.97,12137,1,12137,1,0.00066423,-5.1078e-10,0,0.00066423,-0.00012406,2.0005e+08,-131.46,0,2.0005e+08,-55.136,12136,12879,1,12879,1,0.0008755,3.719e-09,0,0.0008755,-8.447e-05,2.608e+08,966.68,0,2.608e+08,64.77,12878,12136,1,12136,1,0.00066424,-1.4291e-10,0,0.00066424,-0.00012405,1.9994e+08,-35.95,0,1.9994e+08,-62.05,12135,11395,1,11395,1,0.00045298,-5.0402e-09,0,0.00045298,-0.00016365,1.3967e+08,-1310.2,0,1.3967e+08,-148.53,11394,11748,1,11748,1,0.00054352,-1.639e-09,0,0.00054352,-0.00014668,1.6564e+08,-417.58,0,1.6564e+08,-100.79,11747,12524,1,12524,1,0.00078495,6.0305e-10,0,0.00078495,-0.00010143,2.3439e+08,151.35,0,2.3439e+08,-12.974,12523,438.26,0,438.26,0,0.00013846,1.8159e-09,0,0.00013846,2.5947e-05,3.9591e+07,466.92,0,3.9591e+07,51.147,438.26,1
432,2.98,12137,1,12137,1,0.00066652,1.7975e-09,0,0.00066652,-0.00012448,2.0074e+08,461.31,0,2.0074e+08,-8.6044,12136,12879,1,12879,1,0.00087853,4.4586e-09,0,0.00087853,-8.476e-05,2.6169e+08,1159,0,2.6169e+08,38.791,12878,12136,1,12136,1,0.00066652,1.8873e-09,0,0.00066652,-0.00012448,2.0063e+08,477.48,0,2.0063e+08,-10.299,12135,11395,1,11395,1,0.00045453,-6.312e-10,0,0.00045453,-0.00016422,1.4015e+08,-158.37,0,1.4015e+08,-69.278,11394,11748,1,11748,1,0.00054539,5.071e-10,0,0.00054539,-0.00014718,1.6621e+08,127.44,0,1.6621e+08,-24.379,11747,12524,1,12524,1,0.00078766,2.9722e-09,0,0.00078766,-0.00010178,2.3519e+08,765.76,0,2.3519e+08,8.0075,12523,438.26,0,438.26,0,0.00013893,1.4369e-09,0,0.00013893,2.6037e-05,3.9723e+07,370.85,0,3.9723e+07,20.217,438.26,1
432,2.99,12137,1,12137,1,0.00066877,3.0217e-09,0,0.00066877,-0.0001249,2.0141e+08,775.43,0,2.0141e+08,-10.579,12136,12879,1,12879,1,0.0008815,8.1431e-09,0,0.0008815,-8.5046e-05,2.6256e+08,2116.8,0,2.6256e+08,95.281,12878,12136,1,12136,1,0.00066878,3.0104e-09,0,0.00066878,-0.0001249,2.0131e+08,761.61,0,2.0131e+08,-13.619,12135,11395,1,11395,1,0.00045606,-1.0957e-09,0,0.00045606,-0.00016478,1.4062e+08,-274.93,0,1.4062e+08,-89.317,11394,11748,1,11748,1,0.00054724,8.7931e-10,0,0.00054724,-0.00014768,1.6677e+08,220.97,0,1.6677e+08,-41.408,11747,12524,1,12524,1,0.00079032,5.0668e-09,0,0.00079032,-0.00010213,2.3598e+08,1297.9,0,2.3598e+08,19.803,12523,438.26,0,438.26,0,0.0001394,2.5072e-09,0,0.0001394,2.6125e-05,3.9852e+07,646.99,0,3.9852e+07,40.255,438.26,1
432,3,12137,1,12137,1,0.00067101,6.8274e-10,0,0.00067101,-0.00012532,2.0208e+08,175.37,0,2.0208e+08,-20.729,12136,12879,1,12879,1,0.00088442,4.5302e-09,0,0.00088442,-8.5332e-05,2.6341e+08,1177.6,0,2.6341e+08,58.988,12878,12136,1,12136,1,0.00067101,2.5448e-10,0,0.00067101,-0.00012532,2.0198e+08,64.777,0,2.0198e+08,-23.097,12135,11395,1,11395,1,0.0004576,-1.1913e-09,0,0.0004576,-0.00016532,1.411e+08,-309.65,0,1.411e+08,-110.37,11394,11748,1,11748,1,0.00054906,-1.0942e-10,0,0.00054906,-0.00014817,1.6733e+08,-27.487,0,1.6733e+08,-45.171,11747,12524,1,12524,1,0.00079295,1.3592e-09,0,0.00079295,-0.00010247,2.3677e+08,347.58,0,2.3677e+08,-0.37743,12523,438.26,0,438.26,0,0.00013987,1.1986e-09,0,0.00013987,2.6212e-05,3.9981e+07,308.59,0,3.9981e+07,32.362,438.26,1
432,3.01,12137,1,12137,1,0.00067325,-6.3089e-10,0,0.00067325,-0.00012574,2.0275e+08,-162.5,0,2.0275e+08,-29.597,12136,12879,1,12879,1,0.00088738,2.0131e-09,0,0.00088738,-8.5618e-05,2.6427e+08,523.25,0,2.6427e+08,82.026,12878,12136,1,12136,1,0.00067325,-3.3006e-10,0,0.00067325,-0.00012574,2.0265e+08,-84.18,0,2.0265e+08,-31.81,12135,11395,1,11395,1,0.00045913,-3.616e-09,0,0.00045913,-0.00016588,1.4157e+08,-939.96,0,1.4157e+08,-106.48,11394,11748,1,11748,1,0.0005509,-1.6308e-09,0,0.0005509,-0.00014867,1.6789e+08,-417.56,0,1.6789e+08,-69.374,11747,12524,1,12524,1,0.00079561,3.2795e-10,0,0.00079561,-0.00010281,2.3756e+08,82.407,0,2.3756e+08,5.1009,12523,438.26,0,438.26,0,0.00014033,1.2899e-09,0,0.00014033,2.6299e-05,4.011e+07,331.72,0,4.011e+07,43.989,438.26,1
432,3.02,12137,1,12137,1,0.00067545,-3.4878e-10,0,0.00067545,-0.00012615,2.0341e+08,-90.208,0,2.0341e+08,-57.573,12136,12879,1,12879,1,0.00089028,4.9751e-09,0,0.00089028,-8.5897e-05,2.6511e+08,1293.2,0,2.6511e+08,79.913,12878,12136,1,12136,1,0.00067545,-1.0184e-10,0,0.00067545,-0.00012615,2.0331e+08,-25.842,0,2.0331e+08,-51.789,12135,11395,1,11395,1,0.00046063,-4.4291e-09,0,0.00046063,-0.00016642,1.4203e+08,-1151.3,0,1.4203e+08,-184.38,11394,11748,1,11748,1,0.0005527,-1.773e-09,0,0.0005527,-0.00014915,1.6844e+08,-451.53,0,1.6844e+08,-109.43,11747,12524,1,12524,1,0.0007982,7.3154e-10,0,0.0007982,-0.00010315,2.3833e+08,183.54,0,2.3833e+08,-9.9158,12523,438.26,0,438.26,0,0.00014079,1.947e-09,0,0.00014079,2.6385e-05,4.0236e+07,500.45,0,4.0236e+07,62.022,438.26,1
432,3.03,12137,1,12137,1,0.00067771,1.4751e-09,0,0.00067771,-0.00012657,2.0409e+08,378.77,0,2.0409e+08,-57.357,12136,12879,1,12879,1,0.00089327,9.9738e-09,0,0.00089327,-8.6185e-05,2.6598e+08,2592.6,0,2.6598e+08,111.09,12878,12136,1,12136,1,0.00067772,6.197e-10,0,0.00067772,-0.00012657,2.0399e+08,156.81,0,2.0399e+08,-73.296,12135,11395,1,11395,1,0.00046217,-3.5265e-09,0,0.00046217,-0.00016698,1.4251e+08,-916.65,0,1.4251e+08,-235.84,11394,11748,1,11748,1,0.00055455,-6.0165e-10,0,0.00055455,-0.00014965,1.69e+08,-151.32,0,1.69e+08,-104.42,11747,12524,1,12524,1,0.00080088,3.2856e-09,0,0.00080088,-0.00010349,2.3912e+08,843.8,0,2.3912e+08,-14.66,12523,438.26,0,438.26,0,0.00014126,2.9186e-09,0,0.00014126,2.6473e-05,4.0365e+07,751.02,0,4.0365e+07,63.029,438.26,1
432,3.04,12137,1,12137,1,0.00067994,2.4832e-09,0,0.00067994,-0.00012699,2.0475e+08,637.39,0,2.0475e+08,-54.909,12136,12879,1,12879,1,0.00089622,1.1581e-08,0,0.00089622,-8.6468e-05,2.6684e+08,3010.4,0,2.6684e+08,100.31,12878,12136,1,12136,1,0.00067995,1.489e-09,0,0.00067995,-0.00012699,2.0466e+08,375.41,0,2.0466e+08,-63.109,12135,11395,1,11395,1,0.00046369,-2.0829e-09,0,0.00046369,-0.00016753,1.4297e+08,-541.39,0,1.4297e+08,-203.48,11394,11748,1,11748,1,0.00055638,-3.7108e-10,0,0.00055638,-0.00015015,1.6956e+08,-93.937,0,1.6956e+08,-100.48,11747,12524,1,12524,1,0.00080351,4.9899e-09,0,0.00080351,-0.00010383,2.399e+08,1270.2,0,2.399e+08,-14.418,12523,438.26,0,438.26,0,0.00014173,3.3025e-09,0,0.00014173,2.656e-05,4.0493e+07,850.29,0,4.0493e+07,59.652,438.26,1
432,3.05,12137,1,12137,1,0.00068218,1.0275e-09,0,0.00068218,-0.00012741,2.0543e+08,263.07,0,2.0543e+08,-59.88,12136,12879,1,12879,1,0.00089915,8.2974e-09,0,0.00089915,-8.6754e-05,2.6769e+08,2156.8,0,2.6769e+08,104.98,12878,12136,1,12136,1,0.00068218,3.4643e-10,0,0.00068218,-0.0001274,2.0534e+08,86.952,0,2.0534e+08,-44.805,12135,11395,1,11395,1,0.00046523,-1.7326e-09,0,0.00046523,-0.00016807,1.4345e+08,-450.38,0,1.4345e+08,-213.86,11394,11748,1,11748,1,0.00055821,-2.0221e-10,0,0.00055821,-0.00015064,1.7011e+08,-51.082,0,1.7011e+08,-112.06,11747,12524,1,12524,1,0.00080616,1.8164e-09,0,0.00080616,-0.00010418,2.4069e+08,459.98,0,2.4069e+08,-17.145,12523,438.26,0,438.26,0,0.00014219,2.027e-09,0,0.00014219,2.6647e-05,4.0622e+07,521.72,0,4.0622e+07,66.847,438.26,1
432,3.06,12137,1,12137,1,0.00068446,7.3557e-10,0,0.00068446,-0.00012783,2.0611e+08,188.07,0,2.0611e+08,-20.611,12136,12879,1,12879,1,0.00090214,4.3214e-09,0,0.00090214,-8.7044e-05,2.6857e+08,1123.3,0,2.6857e+08,64.49,12878,12136,1,12136,1,0.00068446,3.6083e-10,0,0.00068446,-0.00012783,2.0602e+08,90.639,0,2.0602e+08,-16.757,12135,11395,1,11395,1,0.00046678,-2.8335e-10,0,0.00046678,-0.00016863,1.4393e+08,-73.648,0,1.4393e+08,-105.39,11394,11748,1,11748,1,0.00056008,1.8806e-10,0,0.00056008,-0.00015114,1.7068e+08,47.561,0,1.7068e+08,-49.752,11747,12524,1,12524,1,0.00080885,1.0305e-09,0,0.00080885,-0.00010452,2.4149e+08,261.51,0,2.4149e+08,4.7655,12523,438.26,0,438.26,0,0.00014267,9.3636e-10,0,0.00014267,2.6736e-05,4.0753e+07,241.34,0,4.0753e+07,33.853,438.26,1
432,3.07,12137,1,12137,1,0.00068665,-6.5296e-10,0,0.00068665,-0.00012824,2.0676e+08,-167.86,0,2.0676e+08,-72.996,12136,12879,1,12879,1,0.00090504,4.1579e-09,0,0.00090504,-8.7323e-05,2.6941e+08,1080.7,0,2.6941e+08,47.382,12878,12136,1,12136,1,0.00068665,-3.1613e-10,0,0.00068665,-0.00012824,2.0668e+08,-80.183,0,2.0668e+08,-73.475,12135,11395,1,11395,1,0.00046828,-5.1149e-09,0,0.00046828,-0.00016917,1.4439e+08,-1329.5,0,1.4439e+08,-202.3,11394,11748,1,11748,1,0.00056187,-2.0754e-09,0,0.00056187,-0.00015163,1.7123e+08,-531.37,0,1.7123e+08,-110.8,11747,12524,1,12524,1,0.00081144,5.1512e-10,0,0.00081144,-0.00010486,2.4225e+08,129.18,0,2.4225e+08,-27.719,12523,438.26,0,438.26,0,0.00014312,1.9795e-09,0,0.00014312,2.6821e-05,4.0878e+07,508.85,0,4.0878e+07,57.944,438.26,1
432,3.08,12137,1,12137,1,0.00068894,2.2047e-09,0,0.00068894,-0.00012867,2.0745e+08,565.41,0,2.0745e+08,-22.126,12136,12879,1,12879,1,0.00090807,6.0754e-09,0,0.00090807,-8.7613e-05,2.7029e+08,1579.2,0,2.7029e+08,21.558,12878,12136,1,12136,1,0.00068894,2.2225e-09,0,0.00068894,-0.00012867,2.0737e+08,569.17,0,2.0737e+08,-17.634,12135,11395,1,11395,1,0.00046983,-5.0465e-10,0,0.00046983,-0.00016974,1.4487e+08,-126.52,0,1.4487e+08,-115.1,11394,11748,1,11748,1,0.00056374,7.2773e-10,0,0.00056374,-0.00015213,1.718e+08,182.83,0,1.718e+08,-38.307,11747,12524,1,12524,1,0.00081414,3.5446e-09,0,0.00081414,-0.00010521,2.4306e+08,906.54,0,2.4306e+08,-1.5383,12523,438.26,0,438.26,0,0.0001436,1.6872e-09,0,0.0001436,2.6911e-05,4.1009e+07,435.85,0,4.1009e+07,26.493,438.26,1
432,3.09,12137,1,12137,1,0.00069119,4.8395e-10,0,0.00069119,-0.00012909,2.0812e+08,124.19,0,2.0812e+08,-19.051,12136,12879,1,12879,1,0.000911,1.9573e-09,0,0.000911,-8.79e-05,2.7115e+08,508.77,0,2.7115e+08,8.7861,12878,12136,1,12136,1,0.00069119,4.4611e-10,0,0.00069119,-0.00012909,2.0804e+08,114.26,0,2.0804e+08,-15.556,12135,11395,1,11395,1,0.00047137,-3.4016e-10,0,0.00047137,-0.00017029,1.4534e+08,-85.295,0,1.4534e+08,-74.695,11394,11748,1,11748,1,0.00056558,1.1445e-10,0,0.00056558,-0.00015263,1.7236e+08,28.843,0,1.7236e+08,-26.008,11747,12524,1,12524,1,0.00081679,7.2596e-10,0,0.00081679,-0.00010555,2.4384e+08,187.33,0,2.4384e+08,-9.8022,12523,438.26,0,438.26,0,0.00014407,4.5328e-10,0,0.00014407,2.6998e-05,4.1138e+07,116.81,0,4.1138e+07,14.606,438.26,1
432,3.1,12137,1,12137,1,0.00069343,1.0604e-10,0,0.00069343,-0.00012951,2.0879e+08,27.079,0,2.0879e+08,-18.74,12136,12879,1,12879,1,0.00091396,3.3945e-09,0,0.00091396,-8.8186e-05,2.7201e+08,882.35,0,2.7201e+08,72.611,12878,12136,1,12136,1,0.00069343,5.0921e-11,0,0.00069343,-0.0001295,2.0871e+08,12.781,0,2.0871e+08,-17.671,12135,11395,1,11395,1,0.0004729,-1.9222e-09,0,0.0004729,-0.00017084,1.4581e+08,-499.66,0,1.4581e+08,-116.71,11394,11748,1,11748,1,0.00056742,-4.6958e-10,0,0.00056742,-0.00015312,1.7292e+08,-118.9,0,1.7292e+08,-45.698,11747,12524,1,12524,1,0.00081944,4.2819e-10,0,0.00081944,-0.00010589,2.4463e+08,110.2,0,2.4463e+08,9.0502,12523,438.26,0,438.26,0,0.00014453,9.8982e-10,0,0.00014453,2.7086e-05,4.1266e+07,254.65,0,4.1266e+07,37.306,438.26,1
432,3.11,12137,1,12137,1,0.00069564,-1.1588e-09,0,0.00069564,-0.00012992,2.0945e+08,-297.89,0,2.0945e+08,-51.353,12136,12879,1,12879,1,0.0009169,2.8834e-09,0,0.0009169,-8.8467e-05,2.7286e+08,749.43,0,2.7286e+08,88.662,12878,12136,1,12136,1,0.00069565,-8.4992e-10,0,0.00069565,-0.00012992,2.0938e+08,-218.11,0,2.0938e+08,-46.99,12135,11395,1,11395,1,0.00047441,-5.3079e-09,0,0.00047441,-0.00017139,1.4628e+08,-1379.7,0,1.4628e+08,-178.51,11394,11748,1,11748,1,0.00056923,-2.7824e-09,0,0.00056923,-0.00015361,1.7347e+08,-710.23,0,1.7347e+08,-113.28,11747,12524,1,12524,1,0.00082206,4.7151e-10,0,0.00082206,-0.00010623,2.4541e+08,119.99,0,2.4541e+08,-4.1527,12523,438.26,0,438.26,0,0.000145,1.9658e-09,0,0.000145,2.7172e-05,4.1393e+07,505.7,0,4.1393e+07,62.388,438.26,1
432,3.12,12137,1,12137,1,0.00069791,8.1993e-10,0,0.00069791,-0.00013034,2.1013e+08,210.25,0,2.1013e+08,-14.797,12136,12879,1,12879,1,0.00091986,2.2979e-09,0,0.00091986,-8.8755e-05,2.7372e+08,597.33,0,2.7372e+08,11.523,12878,12136,1,12136,1,0.00069791,6.6444e-10,0,0.00069791,-0.00013034,2.1006e+08,168.49,0,2.1006e+08,-10.139,12135,11395,1,11395,1,0.00047596,-2.7306e-10,0,0.00047596,-0.00017194,1.4675e+08,-68.432,0,1.4675e+08,-64.815,11394,11748,1,11748,1,0.00057108,2.285e-10,0,0.00057108,-0.00015411,1.7403e+08,57.692,0,1.7403e+08,-23.845,11747,12524,1,12524,1,0.00082473,1.4326e-09,0,0.00082473,-0.00010658,2.462e+08,366.8,0,2.462e+08,-2.3007,12523,438.26,0,438.26,0,0.00014547,7.4031e-10,0,0.00014547,2.726e-05,4.1522e+07,190.82,0,4.1522e+07,16.767,438.26,1
432,3.13,12137,1,12137,1,0.00070015,1.1305e-09,0,0.00070015,-0.00013076,2.108e+08,289.67,0,2.108e+08,-20.016,12136,12879,1,12879,1,0.00092282,3.7922e-09,0,0.00092282,-8.904e-05,2.7458e+08,985.73,0,2.7458e+08,12.535,12878,12136,1,12136,1,0.00070015,8.4649e-10,0,0.00070015,-0.00013076,2.1073e+08,215.09,0,2.1073e+08,-19.053,12135,11395,1,11395,1,0.00047749,-1.2373e-10,0,0.00047749,-0.0001725,1.4722e+08,-31.023,0,1.4722e+08,-61.883,11394,11748,1,11748,1,0.00057292,3.3169e-10,0,0.00057292,-0.00015461,1.7459e+08,83.578,0,1.7459e+08,-31.048,11747,12524,1,12524,1,0.00082738,1.8832e-09,0,0.00082738,-0.00010692,2.4698e+08,477.88,0,2.4698e+08,-6.81,12523,438.26,0,438.26,0,0.00014593,1.001e-09,0,0.00014593,2.7348e-05,4.165e+07,258.24,0,4.165e+07,16.167,438.26,1
432,3.14,12137,1,12137,1,0.00070239,-1.7069e-10,0,0.00070239,-0.00013118,2.1147e+08,-43.589,0,2.1147e+08,-24.551,12136,12879,1,12879,1,0.00092576,3.909e-09,0,0.00092576,-8.9326e-05,2.7544e+08,1016.1,0,2.7544e+08,67.359,12878,12136,1,12136,1,0.00070239,-2.314e-10,0,0.00070239,-0.00013118,2.114e+08,-58.073,0,2.114e+08,-16.911,12135,11395,1,11395,1,0.00047902,-2.3776e-09,0,0.00047902,-0.00017305,1.477e+08,-618.01,0,1.477e+08,-93.125,11394,11748,1,11748,1,0.00057475,-9.6049e-10,0,0.00057475,-0.0001551,1.7515e+08,-245.92,0,1.7515e+08,-54.945,11747,12524,1,12524,1,0.00083002,2.4879e-10,0,0.00083002,-0.00010726,2.4777e+08,63.71,0,2.4777e+08,-1.645,12523,438.26,0,438.26,0,0.0001464,1.2211e-09,0,0.0001464,2.7435e-05,4.1778e+07,314.03,0,4.1778e+07,34.832,438.26,1
432,3.15,12137,1,12137,1,0.00070461,-2.297e-09,0,0.00070461,-0.0001316,2.1214e+08,-589.95,0,2.1214e+08,-45.635,12136,12879,1,12879,1,0.00092872,1.3016e-09,0,0.00092872,-8.9608e-05,2.763e+08,326.22,0,2.763e+08,94.86,12878,12136,1,12136,1,0.00070462,-1.9438e-09,0,0.00070462,-0.00013159,2.1207e+08,-492.23,0,2.1207e+08,-40.651,12135,11395,1,11395,1,0.00048053,-7.3721e-09,0,0.00048053,-0.0001736,1.4816e+08,-1916.2,0,1.4816e+08,-177.52,11394,11748,1,11748,1,0.00057657,-4.3278e-09,0,0.00057657,-0.00015559,1.7571e+08,-1108,0,1.7571e+08,-103.24,11747,12524,1,12524,1,0.00083266,-2.2815e-10,0,0.00083266,-0.0001076,2.4855e+08,-57.365,0,2.4855e+08,11.118,12523,438.26,0,438.26,0,0.00014686,2.3787e-09,0,0.00014686,2.7522e-05,4.1905e+07,612.65,0,4.1905e+07,66.581,438.26,1
432,3.16,12137,1,12137,1,0.00070688,9.8232e-10,0,0.00070688,-0.00013202,2.1281e+08,251.66,0,2.1281e+08,-23.464,12136,12879,1,12879,1,0.00093168,4.9296e-09,0,0.00093168,-8.9897e-05,2.7716e+08,1281.4,0,2.7716e+08,56.872,12878,12136,1,12136,1,0.00070688,5.7191e-10,0,0.00070688,-0.00013202,2.1275e+08,145.48,0,2.1275e+08,-25.176,12135,11395,1,11395,1,0.00048208,-4.2296e-10,0,0.00048208,-0.00017415,1.4864e+08,-109.93,0,1.4864e+08,-109.3,11394,11748,1,11748,1,0.00057843,1.4534e-10,0,0.00057843,-0.00015609,1.7627e+08,36.942,0,1.7627e+08,-46.695,11747,12524,1,12524,1,0.00083533,1.5678e-09,0,0.00083533,-0.00010795,2.4934e+08,398.82,0,2.4934e+08,-3.6606,12523,438.26,0,438.26,0,0.00014733,1.1853e-09,0,0.00014733,2.761e-05,4.2034e+07,305.5,0,4.2034e+07,31.079,438.26,1
432,3.17,12137,1,12137,1,0.00070912,-2.8974e-11,0,0.00070912,-0.00013244,2.1349e+08,-7.1901,0,2.1349e+08,-10.997,12136,12879,1,12879,1,0.00093463,2.0898e-09,0,0.00093463,-9.0183e-05,2.7801e+08,543.19,0,2.7801e+08,45.727,12878,12136,1,12136,1,0.00070912,-1.8951e-10,0,0.00070912,-0.00013243,2.1343e+08,-47.499,0,2.1343e+08,-4.6497,12135,11395,1,11395,1,0.00048361,-6.8627e-10,0,0.00048361,-0.0001747,1.4911e+08,-178.38,0,1.4911e+08,-81.906,11394,11748,1,11748,1,0.00058026,-3.2246e-10,0,0.00058026,-0.00015659,1.7683e+08,-82.392,0,1.7683e+08,-27.529,11747,12524,1,12524,1,0.00083798,4.591e-11,0,0.00083798,-0.00010829,2.5013e+08,11.687,0,2.5013e+08,7.6813,12523,438.26,0,438.26,0,0.0001478,5.2291e-10,0,0.0001478,2.7698e-05,4.2163e+07,134.36,0,4.2163e+07,25.099,438.26,1
432,3.18,12137,1,12137,1,0.00071135,-1.9786e-10,0,0.00071135,-0.00013286,2.1415e+08,-51.74,0,2.1415e+08,-39.313,12136,12879,1,12879,1,0.00093758,2.9607e-09,0,0.00093758,-9.0467e-05,2.7887e+08,769.54,0,2.7887e+08,72.79,12878,12136,1,12136,1,0.00071135,-1.2867e-12,0,0.00071135,-0.00013285,2.141e+08,-0.34201,0,2.141e+08,-36.622,12135,11395,1,11395,1,0.00048513,-2.53e-09,0,0.00048513,-0.00017526,1.4958e+08,-657.62,0,1.4958e+08,-116.37,11394,11748,1,11748,1,0.00058209,-1.1816e-09,0,0.00058209,-0.00015708,1.7738e+08,-302.98,0,1.7738e+08,-82.999,11747,12524,1,12524,1,0.00084062,6.5072e-10,0,0.00084062,-0.00010863,2.5091e+08,165.6,0,2.5091e+08,-5.4833,12523,438.26,0,438.26,0,0.00014826,1.1937e-09,0,0.00014826,2.7784e-05,4.229e+07,306.59,0,4.229e+07,43.134,438.26,1
432,3.19,12137,1,12137,1,0.00071362,-1.4765e-10,0,0.00071362,-0.00013328,2.1483e+08,-38.225,0,2.1483e+08,-27.711,12136,12879,1,12879,1,0.00094057,3.3548e-09,0,0.00094057,-9.0756e-05,2.7974e+08,872,0,2.7974e+08,73.127,12878,12136,1,12136,1,0.00071362,-7.0534e-11,0,0.00071362,-0.00013328,2.1478e+08,-17.802,0,2.1478e+08,-27.697,12135,11395,1,11395,1,0.00048669,-2.5968e-09,0,0.00048669,-0.00017581,1.5006e+08,-674.98,0,1.5006e+08,-130.06,11394,11748,1,11748,1,0.00058395,-9.6459e-10,0,0.00058395,-0.00015758,1.7795e+08,-245.25,0,1.7795e+08,-67.519,11747,12524,1,12524,1,0.0008433,5.6328e-10,0,0.0008433,-0.00010898,2.5171e+08,141.55,0,2.5171e+08,4.6752,12523,438.26,0,438.26,0,0.00014874,1.1727e-09,0,0.00014874,2.7873e-05,4.2419e+07,301.64,0,4.2419e+07,43.608,438.26,1
432,3.2,12137,1,12137,1,0.00071583,-5.9678e-10,0,0.00071583,-0.00013369,2.1549e+08,-153.53,0,2.1549e+08,-27.472,12136,12879,1,12879,1,0.00094348,1.2598e-09,0,0.00094348,-9.1036e-05,2.8058e+08,327.43,0,2.8058e+08,29.943,12878,12136,1,12136,1,0.00071583,-3.6466e-10,0,0.00071583,-0.00013369,2.1544e+08,-92.878,0,2.1544e+08,-23.218,12135,11395,1,11395,1,0.00048819,-2.8502e-09,0,0.00048819,-0.00017636,1.5052e+08,-740.84,0,1.5052e+08,-99.71,11394,11748,1,11748,1,0.00058575,-1.4502e-09,0,0.00058575,-0.00015807,1.785e+08,-369.01,0,1.785e+08,-49.286,11747,12524,1,12524,1,0.00084591,3.5192e-10,0,0.00084591,-0.00010932,2.5248e+08,88.181,0,2.5248e+08,-5.2798,12523,438.26,0,438.26,0,0.0001492,1.0503e-09,0,0.0001492,2.7959e-05,4.2545e+07,270.01,0,4.2545e+07,31.185,438.26,1
432,3.21,12137,1,12137,1,0.00071809,-7.7906e-10,0,0.00071809,-0.00013411,2.1617e+08,-200.55,0,2.1617e+08,-28.342,12136,12879,1,12879,1,0.00094647,2.2802e-09,0,0.00094647,-9.1325e-05,2.8145e+08,592.66,0,2.8145e+08,81.615,12878,12136,1,12136,1,0.0007181,-4.3935e-10,0,0.0007181,-0.00013411,2.1612e+08,-110.73,0,2.1612e+08,-29.892,12135,11395,1,11395,1,0.00048974,-4.2711e-09,0,0.00048974,-0.00017692,1.51e+08,-1110.2,0,1.51e+08,-122.38,11394,11748,1,11748,1,0.00058761,-1.9369e-09,0,0.00058761,-0.00015857,1.7907e+08,-495.9,0,1.7907e+08,-66.929,11747,12524,1,12524,1,0.00084859,3.827e-10,0,0.00084859,-0.00010966,2.5327e+08,96.094,0,2.5327e+08,3.3086,12523,438.26,0,438.26,0,0.00014967,1.5096e-09,0,0.00014967,2.8047e-05,4.2674e+07,388.22,0,4.2674e+07,44.129,438.26,1
432,3.22,12137,1,12137,1,0.00072034,-5.3469e-10,0,0.00072034,-0.00013453,2.1684e+08,-137.83,0,2.1684e+08,-25.415,12136,12879,1,12879,1,0.00094943,1.6494e-09,0,0.00094943,-9.1611e-05,2.8231e+08,428.71,0,2.8231e+08,66.86,12878,12136,1,12136,1,0.00072035,-3.4012e-10,0,0.00072035,-0.00013453,2.168e+08,-85.854,0,2.168e+08,-26.516,12135,11395,1,11395,1,0.00049127,-2.6474e-09,0,0.00049127,-0.00017747,1.5147e+08,-688.14,0,1.5147e+08,-101.94,11394,11748,1,11748,1,0.00058945,-1.4354e-09,0,0.00058945,-0.00015906,1.7963e+08,-365.15,0,1.7963e+08,-56.681,11747,12524,1,12524,1,0.00085124,3.0534e-10,0,0.00085124,-0.00011001,2.5406e+08,76.679,0,2.5406e+08,2.4225,12523,438.26,0,438.26,0,0.00015013,1.051e-09,0,0.00015013,2.8135e-05,4.2802e+07,270.17,0,4.2802e+07,35.268,438.26,1
432,3.23,12137,1,12137,1,0.00072258,-1.2134e-09,0,0.00072258,-0.00013495,2.1749e+08,-312.22,0,2.1749e+08,-39.728,12136,12879,1,12879,1,0.00095238,1.1718e-09,0,0.00095238,-9.1896e-05,2.8312e+08,293.48,0,2.8312e+08,80.821,12878,12136,1,12136,1,0.00072258,-8.4982e-10,0,0.00072258,-0.00013495,2.1746e+08,-214.28,0,2.1746e+08,-42.044,12135,11395,1,11395,1,0.0004928,-4.8246e-09,0,0.0004928,-0.00017802,1.5194e+08,-1254,0,1.5194e+08,-178.39,11394,11748,1,11748,1,0.00059128,-2.5559e-09,0,0.00059128,-0.00015956,1.8018e+08,-653.41,0,1.8018e+08,-86.013,11747,12524,1,12524,1,0.00085389,2.1895e-10,0,0.00085389,-0.00011035,2.548e+08,55.182,0,2.548e+08,1.0812,12523,438.26,0,438.26,0,0.0001506,1.6436e-09,0,0.0001506,2.8221e-05,4.291e+07,422.89,0,4.291e+07,52.462,438.26,1
432,3.24,12137,1,12137,1,0.0007249,-6.0306e-10,0,0.0007249,-0.00013539,2.1817e+08,-155.09,0,2.1817e+08,5.2951,12136,12879,1,12879,1,0.00095542,4.5465e-10,0,0.00095542,-9.2192e-05,2.8394e+08,113.8,0,2.8394e+08,98.071,12878,12136,1,12136,1,0.0007249,-4.4699e-10,0,0.0007249,-0.00013538,2.1815e+08,-114.12,0,2.1815e+08,1.0854,12135,11395,1,11395,1,0.00049439,-2.8855e-09,0,0.00049439,-0.00017859,1.5243e+08,-749.99,0,1.5243e+08,-27.983,11394,11748,1,11748,1,0.00059318,-1.098e-09,0,0.00059318,-0.00016007,1.8076e+08,-279.7,0,1.8076e+08,-9.3232,11747,12524,1,12524,1,0.00085662,-2.0837e-11,0,0.00085662,-0.0001107,2.5557e+08,-5.2082,0,2.5557e+08,13.263,12523,438.26,0,438.26,0,0.00015108,7.1744e-10,0,0.00015108,2.8311e-05,4.3019e+07,184.8,0,4.3019e+07,22.603,438.26,1
432,3.25,12137,1,12137,1,0.00072715,-1.2842e-10,0,0.00072715,-0.0001358,2.1882e+08,-33.224,0,2.1882e+08,5.0533,12136,12879,1,12879,1,0.00095837,2.8007e-10,0,0.00095837,-9.248e-05,2.8473e+08,70.128,0,2.8473e+08,48.292,12878,12136,1,12136,1,0.00072715,-1.0556e-10,0,0.00072715,-0.0001358,2.1882e+08,-26.978,0,2.1882e+08,3.3149,12135,11395,1,11395,1,0.00049593,-8.8926e-10,0,0.00049593,-0.00017914,1.5291e+08,-231.14,0,1.5291e+08,-10.59,11394,11748,1,11748,1,0.00059503,-2.4105e-10,0,0.00059503,-0.00016056,1.8132e+08,-61.987,0,1.8132e+08,-1.6059,11747,12524,1,12524,1,0.00085927,3.1154e-11,0,0.00085927,-0.00011105,2.563e+08,7.8194,0,2.563e+08,7.3092,12523,438.26,0,438.26,0,0.00015154,2.1589e-10,0,0.00015154,2.8398e-05,4.3122e+07,55.497,0,4.3122e+07,10.726,438.26,1
432,3.26,12137,1,12137,1,0.0007294,-6.2666e-10,0,0.0007294,-0.00013623,2.1947e+08,-161.06,0,2.1947e+08,-26.196,12136,12879,1,12879,1,0.00096134,4.7424e-10,0,0.00096134,-9.2768e-05,2.8553e+08,118.66,0,2.8553e+08,28.565,12878,12136,1,12136,1,0.0007294,-3.886e-10,0,0.0007294,-0.00013622,2.1949e+08,-98.595,0,2.1949e+08,-29.043,12135,11395,1,11395,1,0.00049747,-2.9689e-09,0,0.00049747,-0.00017969,1.5338e+08,-771.68,0,1.5338e+08,-100.03,11394,11748,1,11748,1,0.00059687,-1.275e-09,0,0.00059687,-0.00016106,1.8189e+08,-326.91,0,1.8189e+08,-45.842,11747,12524,1,12524,1,0.00086193,1.6407e-10,0,0.00086193,-0.00011139,2.5704e+08,41.235,0,2.5704e+08,-7.8297,12523,438.26,0,438.26,0,0.00015201,8.9441e-10,0,0.00015201,2.8485e-05,4.3226e+07,230.13,0,4.3226e+07,26.309,438.26,1
432,3.27,12137,1,12137,1,0.00073165,-9.8376e-10,0,0.00073165,-0.00013665,2.2012e+08,-253.22,0,2.2012e+08,-52.538,12136,12879,1,12879,1,0.00096431,2.3806e-09,0,0.00096431,-9.3055e-05,2.8633e+08,618.74,0,2.8633e+08,93.05,12878,12136,1,12136,1,0.00073166,-5.6715e-10,0,0.00073166,-0.00013664,2.2016e+08,-142.76,0,2.2016e+08,-58.105,12135,11395,1,11395,1,0.00049902,-5.0233e-09,0,0.00049902,-0.00018025,1.5386e+08,-1305.7,0,1.5386e+08,-209.14,11394,11748,1,11748,1,0.00059872,-2.334e-09,0,0.00059872,-0.00016156,1.8245e+08,-597.59,0,1.8245e+08,-104.73,11747,12524,1,12524,1,0.00086459,3.7664e-10,0,0.00086459,-0.00011174,2.5778e+08,95.876,0,2.5778e+08,-5.0748,12523,438.26,0,438.26,0,0.00015247,1.7339e-09,0,0.00015247,2.8572e-05,4.333e+07,446,0,4.333e+07,63.692,438.26,1
432,3.28,12137,1,12137,1,0.00073391,-1.0423e-09,0,0.00073391,-0.00013707,2.2077e+08,-268.42,0,2.2077e+08,-68.415,12136,12879,1,12879,1,0.00096728,2.7396e-09,0,0.00096728,-9.3343e-05,2.8713e+08,712.03,0,2.8713e+08,88.673,12878,12136,1,12136,1,0.00073391,-4.9456e-10,0,0.00073391,-0.00013706,2.2084e+08,-127.61,0,2.2084e+08,-77.417,12135,11395,1,11395,1,0.00050056,-5.9007e-09,0,0.00050056,-0.0001808,1.5433e+08,-1533.7,0,1.5433e+08,-218.43,11394,11748,1,11748,1,0.00060057,-2.4803e-09,0,0.00060057,-0.00016205,1.8301e+08,-632.6,0,1.8301e+08,-126.89,11747,12524,1,12524,1,0.00086725,5.1345e-10,0,0.00086725,-0.00011208,2.5852e+08,128.58,0,2.5852e+08,-16.88,12523,438.26,0,438.26,0,0.00015294,1.9935e-09,0,0.00015294,2.8659e-05,4.3433e+07,512.75,0,4.3433e+07,66.694,438.26,1
432,3.29,12137,1,12137,1,0.00073624,3.3415e-10,0,0.00073624,-0.0001375,2.2145e+08,85.667,0,2.2145e+08,9.603,12136,12879,1,12879,1,0.00097033,1.6249e-09,0,0.00097033,-9.3642e-05,2.8795e+08,422.35,0,2.8795e+08,107.35,12878,12136,1,12136,1,0.00073624,2.436e-10,0,0.00073624,-0.0001375,2.2153e+08,61.853,0,2.2153e+08,8.5849,12135,11395,1,11395,1,0.00050216,-1.783e-09,0,0.00050216,-0.00018137,1.5483e+08,-463.42,0,1.5483e+08,-58.781,11394,11748,1,11748,1,0.00060248,-1.4353e-10,0,0.00060248,-0.00016257,1.8359e+08,-36.532,0,1.8359e+08,-7.4553,11747,12524,1,12524,1,0.00087,9.1436e-10,0,0.00087,-0.00011244,2.5928e+08,233.39,0,2.5928e+08,25.655,12523,438.26,0,438.26,0,0.00015342,7.0429e-10,0,0.00015342,2.8749e-05,4.3541e+07,181.12,0,4.3541e+07,28.621,438.26,1
432,3.3,12137,1,12137,1,0.00073848,-7.0878e-10,0,0.00073848,-0.00013792,2.2209e+08,-182.51,0,2.2209e+08,-30.581,12136,12879,1,12879,1,0.00097328,1.5239e-09,0,0.00097328,-9.3928e-05,2.8874e+08,396.05,0,2.8874e+08,70.192,12878,12136,1,12136,1,0.00073848,-3.9694e-10,0,0.00073848,-0.00013792,2.2219e+08,-100.67,0,2.2219e+08,-32.621,12135,11395,1,11395,1,0.00050369,-3.4565e-09,0,0.00050369,-0.00018192,1.553e+08,-898.41,0,1.553e+08,-144.15,11394,11748,1,11748,1,0.00060432,-1.6983e-09,0,0.00060432,-0.00016306,1.8415e+08,-432.05,0,1.8415e+08,-59.795,11747,12524,1,12524,1,0.00087265,2.4119e-10,0,0.00087265,-0.00011278,2.6002e+08,60.837,0,2.6002e+08,0.76311,12523,438.26,0,438.26,0,0.00015388,1.2161e-09,0,0.00015388,2.8835e-05,4.3642e+07,312.65,0,4.3642e+07,45.095,438.26,1
432,3.31,12137,1,12137,1,0.00074076,-1.3713e-09,0,0.00074076,-0.00013835,2.2275e+08,-352.4,0,2.2275e+08,-21.867,12136,12879,1,12879,1,0.00097628,7.4018e-10,0,0.00097628,-9.4218e-05,2.8955e+08,184.94,0,2.8955e+08,60.504,12878,12136,1,12136,1,0.00074076,-1.3498e-09,0,0.00074076,-0.00013834,2.2287e+08,-341.24,0,2.2287e+08,-21.928,12135,11395,1,11395,1,0.00050525,-4.1017e-09,0,0.00050525,-0.00018248,1.5578e+08,-1066.1,0,1.5578e+08,-83.451,11394,11748,1,11748,1,0.00060619,-2.3939e-09,0,0.00060619,-0.00016356,1.8472e+08,-614.21,0,1.8472e+08,-47.28,11747,12524,1,12524,1,0.00087533,-2.9768e-10,0,0.00087533,-0.00011313,2.6076e+08,-74.729,0,2.6076e+08,1.2897,12523,438.26,0,438.26,0,0.00015435,1.2942e-09,0,0.00015435,2.8923e-05,4.3746e+07,333.45,0,4.3746e+07,30.613,438.26,1
432,3.32,12137,1,12137,1,0.00074303,-1.088e-09,0,0.00074303,-0.00013877,2.2341e+08,-280.08,0,2.2341e+08,-31.21,12136,12879,1,12879,1,0.00097926,9.9791e-10,0,0.00097926,-9.4508e-05,2.9034e+08,249.3,0,2.9034e+08,73.158,12878,12136,1,12136,1,0.00074303,-7.803e-10,0,0.00074303,-0.00013877,2.2355e+08,-196.93,0,2.2355e+08,-33.369,12135,11395,1,11395,1,0.00050681,-4.0643e-09,0,0.00050681,-0.00018304,1.5626e+08,-1056.4,0,1.5626e+08,-136.77,11394,11748,1,11748,1,0.00060805,-2.1905e-09,0,0.00060805,-0.00016406,1.8529e+08,-560.92,0,1.8529e+08,-70.437,11747,12524,1,12524,1,0.00087801,9.0322e-11,0,0.00087801,-0.00011348,2.615e+08,22.623,0,2.615e+08,1.9636,12523,438.26,0,438.26,0,0.00015482,1.3879e-09,0,0.00015482,2.9011e-05,4.3849e+07,357.03,0,4.3849e+07,44.033,438.26,1
432,3.33,12137,1,12137,1,0.00074531,-1.3235e-09,0,0.00074531,-0.0001392,2.2407e+08,-340.55,0,2.2407e+08,-32.88,12136,12879,1,12879,1,0.00098227,1.1895e-09,0,0.00098227,-9.48e-05,2.9115e+08,297.08,0,2.9115e+08,74.538,12878,12136,1,12136,1,0.00074532,-1.0189e-09,0,0.00074532,-0.00013919,2.2423e+08,-260.55,0,2.2423e+08,-34.964,12135,11395,1,11395,1,0.00050837,-4.6452e-09,0,0.00050837,-0.0001836,1.5674e+08,-1207.4,0,1.5674e+08,-156.38,11394,11748,1,11748,1,0.00060992,-2.5351e-09,0,0.00060992,-0.00016456,1.8586e+08,-649.53,0,1.8586e+08,-70.548,11747,12524,1,12524,1,0.00088071,-4.2153e-11,0,0.00088071,-0.00011383,2.6225e+08,-10.6,0,2.6225e+08,2.4768,12523,438.26,0,438.26,0,0.00015529,1.5643e-09,0,0.00015529,2.9099e-05,4.3953e+07,402.48,0,4.3953e+07,46.829,438.26,1
432,3.34,12137,1,12137,1,0.0007476,6.1647e-10,0,0.0007476,-0.00013962,2.2473e+08,157.99,0,2.2473e+08,-2.9371,12136,12879,1,12879,1,0.00098525,1.46e-09,0,0.00098525,-9.5092e-05,2.9195e+08,379.5,0,2.9195e+08,25.667,12878,12136,1,12136,1,0.0007476,6.7969e-10,0,0.0007476,-0.00013962,2.249e+08,172.34,0,2.249e+08,-3.2234,12135,11395,1,11395,1,0.00050994,-2.384e-10,0,0.00050994,-0.00018416,1.5722e+08,-59.445,0,1.5722e+08,-32.645,11394,11748,1,11748,1,0.00061179,2.546e-10,0,0.00061179,-0.00016507,1.8643e+08,63.795,0,1.8643e+08,-10.82,11747,12524,1,12524,1,0.0008834,9.7455e-10,0,0.0008834,-0.00011418,2.6299e+08,250.28,0,2.6299e+08,4.9848,12523,438.26,0,438.26,0,0.00015576,4.369e-10,0,0.00015576,2.9187e-05,4.4056e+07,112.74,0,4.4056e+07,10.471,438.26,1
432,3.35,12137,1,12137,1,0.00074982,-8.9502e-10,0,0.00074982,-0.00014004,2.2537e+08,-230.21,0,2.2537e+08,-41.862,12136,12879,1,12879,1,0.0009882,1.2016e-09,0,0.0009882,-9.5377e-05,2.9273e+08,312.28,0,2.9273e+08,50.22,12878,12136,1,12136,1,0.00074983,-5.6959e-10,0,0.00074983,-0.00014004,2.2557e+08,-146.36,0,2.2557e+08,-48.953,12135,11395,1,11395,1,0.00051146,-4.4541e-09,0,0.00051146,-0.00018471,1.5769e+08,-1157.7,0,1.5769e+08,-166.96,11394,11748,1,11748,1,0.00061362,-1.9144e-09,0,0.00061362,-0.00016556,1.8699e+08,-484.96,0,1.8699e+08,-72.131,11747,12524,1,12524,1,0.00088603,3.4577e-10,0,0.00088603,-0.00011452,2.6372e+08,87.291,0,2.6372e+08,-10.623,12523,438.26,0,438.26,0,0.00015622,1.4014e-09,0,0.00015622,2.9273e-05,4.4156e+07,360.31,0,4.4156e+07,42.423,438.26,1
432,3.36,12137,1,12137,1,0.00075212,-1.5465e-10,0,0.00075212,-0.00014047,2.2603e+08,-40.538,0,2.2603e+08,-15.829,12136,12879,1,12879,1,0.00099121,6.0524e-10,0,0.00099121,-9.5671e-05,2.9354e+08,157.29,0,2.9354e+08,26.821,12878,12136,1,12136,1,0.00075212,-8.8254e-12,0,0.00075212,-0.00014046,2.2625e+08,-2.2132,0,2.2625e+08,-17.34,12135,11395,1,11395,1,0.00051304,-1.4321e-09,0,0.00051304,-0.00018527,1.5818e+08,-372.22,0,1.5818e+08,-76.929,11394,11748,1,11748,1,0.00061551,-5.98e-10,0,0.00061551,-0.00016606,1.8756e+08,-153.38,0,1.8756e+08,-32.943,11747,12524,1,12524,1,0.00088874,3.1812e-10,0,0.00088874,-0.00011487,2.6447e+08,79.815,0,2.6447e+08,1.462,12523,438.26,0,438.26,0,0.00015669,5.4039e-10,0,0.00015669,2.9361e-05,4.426e+07,138.57,0,4.426e+07,21.176,438.26,1
432,3.37,12137,1,12137,1,0.0007544,-7.6469e-10,0,0.0007544,-0.00014089,2.2669e+08,-197.18,0,2.2669e+08,-24.704,12136,12879,1,12879,1,0.00099421,8.66e-10,0,0.00099421,-9.5961e-05,2.9434e+08,216.01,0,2.9434e+08,48.16,12878,12136,1,12136,1,0.0007544,-5.9445e-10,0,0.0007544,-0.00014089,2.2693e+08,-151.79,0,2.2693e+08,-23.895,12135,11395,1,11395,1,0.0005146,-3.0627e-09,0,0.0005146,-0.00018583,1.5866e+08,-796.05,0,1.5866e+08,-105.81,11394,11748,1,11748,1,0.00061737,-1.6038e-09,0,0.00061737,-0.00016657,1.8813e+08,-410.22,0,1.8813e+08,-50.564,11747,12524,1,12524,1,0.00089142,1.0401e-10,0,0.00089142,-0.00011522,2.6521e+08,26.072,0,2.6521e+08,0.94987,12523,438.26,0,438.26,0,0.00015716,1.0465e-09,0,0.00015716,2.9449e-05,4.4362e+07,268.82,0,4.4362e+07,32.506,438.26,1
432,3.38,12137,1,12137,1,0.00075666,-1.0404e-10,0,0.00075666,-0.00014131,2.2734e+08,-27.158,0,2.2734e+08,-18.072,12136,12879,1,12879,1,0.00099718,1.2265e-09,0,0.00099718,-9.6251e-05,2.9513e+08,318.76,0,2.9513e+08,30.374,12878,12136,1,12136,1,0.00075666,5.6556e-11,0,0.00075666,-0.00014131,2.276e+08,14.176,0,2.276e+08,-21.428,12135,11395,1,11395,1,0.00051615,-1.9254e-09,0,0.00051615,-0.00018639,1.5914e+08,-500.46,0,1.5914e+08,-79.538,11394,11748,1,11748,1,0.00061923,-4.064e-10,0,0.00061923,-0.00016706,1.8869e+08,-104.23,0,1.8869e+08,-33.258,11747,12524,1,12524,1,0.0008941,2.6982e-10,0,0.0008941,-0.00011556,2.6594e+08,67.673,0,2.6594e+08,-2.125,12523,438.26,0,438.26,0,0.00015763,6.1329e-10,0,0.00015763,2.9537e-05,4.4463e+07,157.64,0,4.4463e+07,22.132,438.26,1
432,3.39,12137,1,12137,1,0.00075895,1.2834e-09,0,0.00075895,-0.00014174,2.28e+08,329.05,0,2.28e+08,-7.5745,12136,12879,1,12879,1,0.0010002,3.0634e-09,0,0.0010002,-9.6543e-05,2.9593e+08,796.22,0,2.9593e+08,23.442,12878,12136,1,12136,1,0.00075895,1.341e-09,0,0.00075895,-0.00014174,2.2828e+08,338.85,0,2.2828e+08,-4.9576,12135,11395,1,11395,1,0.00051772,-3.3349e-10,0,0.00051772,-0.00018695,1.5962e+08,-83.093,0,1.5962e+08,-57.433,11394,11748,1,11748,1,0.00062111,4.2079e-10,0,0.00062111,-0.00016757,1.8926e+08,105.47,0,1.8926e+08,-21.043,11747,12524,1,12524,1,0.0008968,2.0449e-09,0,0.0008968,-0.00011591,2.6669e+08,528.74,0,2.6669e+08,6.3587,12523,438.26,0,438.26,0,0.0001581,9.5777e-10,0,0.0001581,2.9625e-05,4.4565e+07,247.43,0,4.4565e+07,16.585,438.26,1
432,3.4,12137,1,12137,1,0.00076124,3.9772e-10,0,0.00076124,-0.00014217,2.2866e+08,102.06,0,2.2866e+08,9.0401,12136,12879,1,12879,1,0.0010032,1.8999e-09,0,0.0010032,-9.6836e-05,2.9673e+08,493.83,0,2.9673e+08,55.012,12878,12136,1,12136,1,0.00076124,2.4061e-10,0,0.00076124,-0.00014217,2.2896e+08,61.217,0,2.2896e+08,10.068,12135,11395,1,11395,1,0.00051929,-7.8348e-10,0,0.00051929,-0.00018751,1.601e+08,-203.62,0,1.601e+08,-37.454,11394,11748,1,11748,1,0.00062298,-4.2956e-12,0,0.00062298,-0.00016807,1.8983e+08,-1.0986,0,1.8983e+08,-5.5091,11747,12524,1,12524,1,0.00089949,7.7672e-10,0,0.00089949,-0.00011626,2.6743e+08,198.03,0,2.6743e+08,22.233,12523,438.26,0,438.26,0,0.00015858,5.8939e-10,0,0.00015858,2.9713e-05,4.4667e+07,151.81,0,4.4667e+07,20.239,438.26,1
432,3.41,12137,1,12137,1,0.0007635,-9.9277e-10,0,0.0007635,-0.00014259,2.2931e+08,-255.18,0,2.2931e+08,-9.072,12136,12879,1,12879,1,0.0010062,6.073e-10,0,0.0010062,-9.7124e-05,2.9752e+08,151.26,0,2.9752e+08,39.51,12878,12136,1,12136,1,0.0007635,-1.0234e-09,0,0.0007635,-0.00014259,2.2963e+08,-259.71,0,2.2963e+08,-9.1489,12135,11395,1,11395,1,0.00052083,-3.0014e-09,0,0.00052083,-0.00018807,1.6058e+08,-780.13,0,1.6058e+08,-77.403,11394,11748,1,11748,1,0.00062484,-1.7233e-09,0,0.00062484,-0.00016857,1.904e+08,-445.16,0,1.904e+08,-27.72,11747,12524,1,12524,1,0.00090216,-2.0885e-10,0,0.00090216,-0.00011661,2.6816e+08,-52.452,0,2.6816e+08,9.9351,12523,438.26,0,438.26,0,0.00015904,9.5356e-10,0,0.00015904,2.98e-05,4.4767e+07,245.39,0,4.4767e+07,23.578,438.26,1
432,3.42,12137,1,12137,1,0.00076574,-2.5114e-09,0,0.00076574,-0.00014301,2.2995e+08,-645.24,0,2.2995e+08,-50.617,12136,12879,1,12879,1,0.0010091,1.6189e-09,0,0.0010091,-9.741e-05,2.9831e+08,403.17,0,2.9831e+08,133.3,12878,12136,1,12136,1,0.00076575,-1.9366e-09,0,0.00076575,-0.00014301,2.303e+08,-494.58,0,2.303e+08,-52.191,12135,11395,1,11395,1,0.00052237,-8.1487e-09,0,0.00052237,-0.00018862,1.6105e+08,-2118,0,1.6105e+08,-215.74,11394,11748,1,11748,1,0.00062668,-4.655e-09,0,0.00062668,-0.00016906,1.9096e+08,-1188.1,0,1.9096e+08,-122.46,11747,12524,1,12524,1,0.00090481,-1.9072e-10,0,0.00090481,-0.00011695,2.6889e+08,-49.082,0,2.6889e+08,11.692,12523,438.26,0,438.26,0,0.0001595,2.6897e-09,0,0.0001595,2.9886e-05,4.4866e+07,692.53,0,4.4866e+07,76.342,438.26,1
432,3.43,12137,1,12137,1,0.00076801,-4.4832e-10,0,0.00076801,-0.00014343,2.3061e+08,-116.04,0,2.3061e+08,-50.687,12136,12879,1,12879,1,0.0010121,2.2591e-09,0,0.0010121,-9.7702e-05,2.9909e+08,587.12,0,2.9909e+08,55.804,12878,12136,1,12136,1,0.00076801,-2.2588e-11,0,0.00076801,-0.00014343,2.3097e+08,-5.7973,0,2.3097e+08,-59.394,12135,11395,1,11395,1,0.00052393,-4.028e-09,0,0.00052393,-0.00018917,1.6153e+08,-1046.9,0,1.6153e+08,-160.17,11394,11748,1,11748,1,0.00062854,-1.3806e-09,0,0.00062854,-0.00016956,1.9153e+08,-351.15,0,1.9153e+08,-92.939,11747,12524,1,12524,1,0.00090749,5.0905e-10,0,0.00090749,-0.0001173,2.6963e+08,128.25,0,2.6963e+08,-12.45,12523,438.26,0,438.26,0,0.00015997,1.3621e-09,0,0.00015997,2.9974e-05,4.4966e+07,350.17,0,4.4966e+07,47.871,438.26,1
432,3.44,12137,1,12137,1,0.00077029,-1.229e-09,0,0.00077029,-0.00014386,2.3126e+08,-315.84,0,2.3126e+08,-40.802,12136,12879,1,12879,1,0.0010151,9.3743e-10,0,0.0010151,-9.7993e-05,2.9989e+08,240.14,0,2.9989e+08,71.181,12878,12136,1,12136,1,0.0007703,-8.6878e-10,0,0.0007703,-0.00014386,2.3165e+08,-221.93,0,2.3165e+08,-42.881,12135,11395,1,11395,1,0.00052549,-4.835e-09,0,0.00052549,-0.00018974,1.6201e+08,-1256.7,0,1.6201e+08,-154.64,11394,11748,1,11748,1,0.00063041,-2.4613e-09,0,0.00063041,-0.00017007,1.921e+08,-626.05,0,1.921e+08,-85.082,11747,12524,1,12524,1,0.00091018,1.0992e-10,0,0.00091018,-0.00011765,2.7037e+08,27.513,0,2.7037e+08,-4.6142,12523,438.26,0,438.26,0,0.00016044,1.5577e-09,0,0.00016044,3.0062e-05,4.5067e+07,400.94,0,4.5067e+07,47.681,438.26,1
432,3.45,12137,1,12137,1,0.00077254,-1.4971e-09,0,0.00077254,-0.00014428,2.3191e+08,-385.2,0,2.3191e+08,-69.896,12136,12879,1,12879,1,0.0010181,2.73e-09,0,0.0010181,-9.8279e-05,3.0067e+08,709.48,0,3.0067e+08,115.09,12878,12136,1,12136,1,0.00077254,-9.1306e-10,0,0.00077254,-0.00014428,2.3231e+08,-229.56,0,2.3231e+08,-73.156,12135,11395,1,11395,1,0.00052703,-6.9796e-09,0,0.00052703,-0.00019029,1.6248e+08,-1814.1,0,1.6248e+08,-223,11394,11748,1,11748,1,0.00063225,-3.3702e-09,0,0.00063225,-0.00017056,1.9266e+08,-857.6,0,1.9266e+08,-142.41,11747,12524,1,12524,1,0.00091283,4.736e-10,0,0.00091283,-0.00011799,2.7109e+08,119.11,0,2.7109e+08,-6.4172,12523,438.26,0,438.26,0,0.0001609,2.3741e-09,0,0.0001609,3.0148e-05,4.5165e+07,610.55,0,4.5165e+07,80.561,438.26,1
432,3.46,12137,1,12137,1,0.00077488,4.5142e-10,0,0.00077488,-0.00014471,2.3258e+08,115.37,0,2.3258e+08,-13.916,12136,12879,1,12879,1,0.0010211,2.121e-09,0,0.0010211,-9.858e-05,3.0148e+08,551.26,0,3.0148e+08,32.008,12878,12136,1,12136,1,0.00077488,3.5438e-10,0,0.00077488,-0.00014471,2.3301e+08,89.865,0,2.3301e+08,-9.7875,12135,11395,1,11395,1,0.00052864,-2.2418e-10,0,0.00052864,-0.00019086,1.6298e+08,-55.764,0,1.6298e+08,-93.124,11394,11748,1,11748,1,0.00063417,2.4816e-10,0,0.00063417,-0.00017108,1.9324e+08,63.222,0,1.9324e+08,-22.059,11747,12524,1,12524,1,0.00091559,5.0853e-10,0,0.00091559,-0.00011835,2.7185e+08,129.49,0,2.7185e+08,-3.6501,12523,438.26,0,438.26,0,0.00016139,3.7709e-10,0,0.00016139,3.0239e-05,4.5269e+07,97.42,0,4.5269e+07,19.175,438.26,1
432,3.47,12137,1,12137,1,0.00077715,-3.098e-10,0,0.00077715,-0.00014514,2.3323e+08,-79.33,0,2.3323e+08,-13.642,12136,12879,1,12879,1,0.0010241,1.2663e-09,0,0.0010241,-9.887e-05,3.0226e+08,329.1,0,3.0226e+08,30.784,12878,12136,1,12136,1,0.00077715,-2.0639e-10,0,0.00077715,-0.00014514,2.3368e+08,-51.808,0,2.3368e+08,-14.857,12135,11395,1,11395,1,0.00053019,-1.5939e-09,0,0.00053019,-0.00019141,1.6346e+08,-414.26,0,1.6346e+08,-96.369,11394,11748,1,11748,1,0.00063603,-6.8918e-10,0,0.00063603,-0.00017158,1.9381e+08,-175.5,0,1.9381e+08,-23.61,11747,12524,1,12524,1,0.00091826,3.7798e-11,0,0.00091826,-0.0001187,2.7258e+08,9.5405,0,2.7258e+08,-0.66811,12523,438.26,0,438.26,0,0.00016185,5.5367e-10,0,0.00016185,3.0326e-05,4.5367e+07,142.55,0,4.5367e+07,21.776,438.26,1
432,3.48,12137,1,12137,1,0.00077947,-1.0735e-09,0,0.00077947,-0.00014557,2.3386e+08,-276.3,0,2.3386e+08,-7.8268,12136,12879,1,12879,1,0.0010272,8.53e-10,0,0.0010272,-9.9167e-05,3.03e+08,212.01,0,3.03e+08,65.276,12878,12136,1,12136,1,0.00077947,-1.1165e-09,0,0.00077947,-0.00014557,2.3431e+08,-281.91,0,2.3431e+08,-8.43,12135,11395,1,11395,1,0.00053179,-3.4992e-09,0,0.00053179,-0.00019198,1.6395e+08,-909.5,0,1.6395e+08,-86.685,11394,11748,1,11748,1,0.00063794,-1.9811e-09,0,0.00063794,-0.00017209,1.9438e+08,-509.29,0,1.9438e+08,-27.931,11747,12524,1,12524,1,0.000921,-6.2561e-11,0,0.000921,-0.00011906,2.7326e+08,-15.634,0,2.7326e+08,12.239,12523,438.26,0,438.26,0,0.00016233,1.1399e-09,0,0.00016233,3.0414e-05,4.5437e+07,292.91,0,4.5437e+07,30.635,438.26,1
432,3.49,12137,1,12137,1,0.00078176,1.828e-09,0,0.00078176,-0.000146,2.3447e+08,470.09,0,2.3447e+08,-16.822,12136,12879,1,12879,1,0.0010302,9.0544e-09,0,0.0010302,-9.9463e-05,3.0371e+08,2353.3,0,3.0371e+08,141.47,12878,12136,1,12136,1,0.00078177,1.2233e-09,0,0.00078177,-0.000146,2.3493e+08,316.35,0,2.3493e+08,-12.708,12135,11395,1,11395,1,0.00053337,-2.2973e-09,0,0.00053337,-0.00019255,1.6444e+08,-597.04,0,1.6444e+08,-175.09,11394,11748,1,11748,1,0.00063984,-4.0964e-10,0,0.00063984,-0.00017259,1.9495e+08,-101.85,0,1.9495e+08,-62.636,11747,12524,1,12524,1,0.0009237,3.9477e-09,0,0.0009237,-0.00011941,2.7393e+08,996.38,0,2.7393e+08,29.08,12523,438.26,0,438.26,0,0.00016279,2.6305e-09,0,0.00016279,3.05e-05,4.5502e+07,675.96,0,4.5502e+07,65.151,438.26,1
432,3.5,12137,1,12137,1,0.00078413,7.9043e-10,0,0.00078413,-0.00014644,2.351e+08,203.11,0,2.351e+08,-23.561,12136,12879,1,12879,1,0.0010333,3.2156e-09,0,0.0010333,-9.9768e-05,3.0444e+08,835.74,0,3.0444e+08,50.868,12878,12136,1,12136,1,0.00078413,5.4083e-10,0,0.00078413,-0.00014644,2.3557e+08,137.64,0,2.3557e+08,-18.536,12135,11395,1,11395,1,0.00053501,-3.9726e-10,0,0.00053501,-0.00019312,1.6494e+08,-98.775,0,1.6494e+08,-104.6,11394,11748,1,11748,1,0.00064178,7.2592e-12,0,0.00064178,-0.00017311,1.9553e+08,1.6659,0,1.9553e+08,-40.049,11747,12524,1,12524,1,0.00092648,1.4858e-09,0,0.00092648,-0.00011977,2.7461e+08,380.21,0,2.7461e+08,-3.6539,12523,438.26,0,438.26,0,0.00016327,9.0537e-10,0,0.00016327,3.059e-05,4.5572e+07,233.53,0,4.5572e+07,30.469,438.26,1
432,3.51,12137,1,12137,1,0.00078645,1.7357e-09,0,0.00078645,-0.00014687,2.3572e+08,444.98,0,2.3572e+08,-19.484,12136,12879,1,12879,1,0.0010363,6.456e-09,0,0.0010363,-0.00010007,3.0516e+08,1678,0,3.0516e+08,51.781,12878,12136,1,12136,1,0.00078646,1.3476e-09,0,0.00078646,-0.00014687,2.362e+08,340.44,0,2.362e+08,-16.695,12135,11395,1,11395,1,0.00053662,-5.9391e-10,0,0.00053662,-0.00019369,1.6544e+08,-147.4,0,1.6544e+08,-95.432,11394,11748,1,11748,1,0.0006437,3.536e-10,0,0.0006437,-0.00017362,1.9611e+08,89.846,0,1.9611e+08,-43.949,11747,12524,1,12524,1,0.00092922,2.9286e-09,0,0.00092922,-0.00012013,2.7528e+08,757.47,0,2.7528e+08,4.1987,12523,438.26,0,438.26,0,0.00016374,1.6905e-09,0,0.00016374,3.0678e-05,4.5637e+07,435.97,0,4.5637e+07,33.789,438.26,1
432,3.52,12137,1,12137,1,0.00078883,-1.3405e-09,0,0.00078883,-0.00014732,2.3633e+08,-344.29,0,2.3633e+08,-64.891,12136,12879,1,12879,1,0.0010394,1.4377e-09,0,0.0010394,-0.00010037,3.0586e+08,356.4,0,3.0586e+08,90.766,12878,12136,1,12136,1,0.00078883,-8.1409e-10,0,0.00078883,-0.00014732,2.3681e+08,-208.47,0,2.3681e+08,-55.182,12135,11395,1,11395,1,0.00053826,-6.2011e-09,0,0.00053826,-0.00019427,1.6595e+08,-1611.7,0,1.6595e+08,-300.74,11394,11748,1,11748,1,0.00064565,-2.7034e-09,0,0.00064565,-0.00017414,1.9667e+08,-684.59,0,1.9667e+08,-110.61,11747,12524,1,12524,1,0.00093201,1.7772e-10,0,0.00093201,-0.00012049,2.7593e+08,44.763,0,2.7593e+08,-19.494,12523,438.26,0,438.26,0,0.00016422,1.8692e-09,0,0.00016422,3.0766e-05,4.5695e+07,480.49,0,4.5695e+07,71.711,438.26,1
432,3.53,12137,1,12137,1,0.00079123,5.823e-10,0,0.00079123,-0.00014776,2.3694e+08,148.79,0,2.3694e+08,-10.71,12136,12879,1,12879,1,0.0010425,1.2435e-09,0,0.0010425,-0.00010069,3.0655e+08,323.18,0,3.0655e+08,15.887,12878,12136,1,12136,1,0.00079123,6.9801e-10,0,0.00079123,-0.00014776,2.3742e+08,175.95,0,2.3742e+08,-8.3905,12135,11395,1,11395,1,0.00053993,-2.4657e-10,0,0.00053993,-0.00019485,1.6646e+08,-61.118,0,1.6646e+08,-79.825,11394,11748,1,11748,1,0.00064763,3.0438e-10,0,0.00064763,-0.00017466,1.9724e+08,75.792,0,1.9724e+08,-18.016,11747,12524,1,12524,1,0.00093482,8.8684e-10,0,0.00093482,-0.00012086,2.7659e+08,228.67,0,2.7659e+08,-1.1679,12523,438.26,0,438.26,0,0.0001647,3.4968e-10,0,0.0001647,3.0856e-05,4.5751e+07,90.243,0,4.5751e+07,15.054,438.26,1
432,3.54,12137,1,12137,1,0.00079357,-1.1051e-09,0,0.00079357,-0.0001482,2.3753e+08,-284.27,0,2.3753e+08,-45.375,12136,12879,1,12879,1,0.0010456,1.4042e-09,0,0.0010456,-0.00010099,3.0723e+08,364.92,0,3.0723e+08,62.998,12878,12136,1,12136,1,0.00079357,-6.8002e-10,0,0.00079357,-0.0001482,2.3801e+08,-170.68,0,2.3801e+08,-45.095,12135,11395,1,11395,1,0.00054156,-5.1096e-09,0,0.00054156,-0.00019542,1.6696e+08,-1328,0,1.6696e+08,-210.7,11394,11748,1,11748,1,0.00064957,-2.4966e-09,0,0.00064957,-0.00017518,1.978e+08,-633.74,0,1.978e+08,-76.126,11747,12524,1,12524,1,0.00093758,4.0425e-10,0,0.00093758,-0.00012122,2.7722e+08,102.5,0,2.7722e+08,-15.005,12523,438.26,0,438.26,0,0.00016517,1.725e-09,0,0.00016517,3.0944e-05,4.5801e+07,442.93,0,4.5801e+07,51.741,438.26,1
432,3.55,12137,1,12137,1,0.00079598,-1.0245e-09,0,0.00079598,-0.00014865,2.3814e+08,-264.23,0,2.3814e+08,-39.337,12136,12879,1,12879,1,0.0010487,1.341e-09,0,0.0010487,-0.0001013,3.0793e+08,331.86,0,3.0793e+08,77.528,12878,12136,1,12136,1,0.00079598,-6.0391e-10,0,0.00079598,-0.00014865,2.3863e+08,-152,0,2.3863e+08,-40.972,12135,11395,1,11395,1,0.00054322,-4.52e-09,0,0.00054322,-0.00019601,1.6747e+08,-1174.8,0,1.6747e+08,-172.61,11394,11748,1,11748,1,0.00065155,-2.3216e-09,0,0.00065155,-0.0001757,1.9837e+08,-588.97,0,1.9837e+08,-74.902,11747,12524,1,12524,1,0.00094041,3.6293e-10,0,0.00094041,-0.00012159,2.7787e+08,91.909,0,2.7787e+08,-2.7109,12523,438.26,0,438.26,0,0.00016565,1.6112e-09,0,0.00016565,3.1034e-05,4.5857e+07,413.59,0,4.5857e+07,52.172,438.26,1
432,3.56,12137,1,12137,1,0.00079837,4.2814e-10,0,0.00079837,-0.0001491,2.3874e+08,109.02,0,2.3874e+08,-13.238,12136,12879,1,12879,1,0.0010518,1.1064e-09,0,0.0010518,-0.00010161,3.0861e+08,287.56,0,3.0861e+08,15.968,12878,12136,1,12136,1,0.00079837,4.4159e-10,0,0.00079837,-0.00014909,2.3923e+08,110.58,0,2.3923e+08,-13.879,12135,11395,1,11395,1,0.00054489,-1.5312e-10,0,0.00054489,-0.00019659,1.6799e+08,-37.833,0,1.6799e+08,-61.717,11394,11748,1,11748,1,0.00065353,2.4996e-10,0,0.00065353,-0.00017623,1.9893e+08,62.409,0,1.9893e+08,-24.559,11747,12524,1,12524,1,0.00094321,6.4068e-10,0,0.00094321,-0.00012196,2.7851e+08,162.53,0,2.7851e+08,-2.5335,12523,438.26,0,438.26,0,0.00016613,2.6469e-10,0,0.00016613,3.1123e-05,4.5909e+07,68.243,0,4.5909e+07,14.903,438.26,1
432,3.57,12137,1,12137,1,0.00080074,-7.254e-10,0,0.00080074,-0.00014954,2.3934e+08,-186.4,0,2.3934e+08,-25.28,12136,12879,1,12879,1,0.001055,1.2973e-09,0,0.001055,-0.00010192,3.0929e+08,337.16,0,3.0929e+08,72.726,12878,12136,1,12136,1,0.00080074,-4.4349e-10,0,0.00080074,-0.00014954,2.3983e+08,-111.95,0,2.3983e+08,-28.444,12135,11395,1,11395,1,0.00054654,-3.2165e-09,0,0.00054654,-0.00019717,1.6849e+08,-835.97,0,1.6849e+08,-115.66,11394,11748,1,11748,1,0.00065549,-1.6353e-09,0,0.00065549,-0.00017675,1.995e+08,-419.27,0,1.995e+08,-51.342,11747,12524,1,12524,1,0.000946,1.5176e-10,0,0.000946,-0.00012233,2.7915e+08,38.211,0,2.7915e+08,-0.61821,12523,438.26,0,438.26,0,0.00016661,1.1265e-09,0,0.00016661,3.1211e-05,4.596e+07,289.33,0,4.596e+07,38.366,438.26,1
432,3.58,12137,1,12137,1,0.0008031,8.8599e-10,0,0.0008031,-0.00014998,2.3993e+08,228.05,0,2.3993e+08,-25.249,12136,12879,1,12879,1,0.001058,4.5421e-09,0,0.001058,-0.00010222,3.0996e+08,1180.5,0,3.0996e+08,79.609,12878,12136,1,12136,1,0.0008031,4.7074e-10,0,0.0008031,-0.00014998,2.4042e+08,117.41,0,2.4042e+08,-24.339,12135,11395,1,11395,1,0.00054817,-1.629e-09,0,0.00054817,-0.00019774,1.69e+08,-423.34,0,1.69e+08,-262.67,11394,11748,1,11748,1,0.00065743,-2.851e-10,0,0.00065743,-0.00017726,2.0005e+08,-70.533,0,2.0005e+08,-57.348,11747,12524,1,12524,1,0.00094877,2.0461e-09,0,0.00094877,-0.00012269,2.7978e+08,524.01,0,2.7978e+08,11.982,12523,438.26,0,438.26,0,0.00016708,1.4677e-09,0,0.00016708,3.1299e-05,4.6009e+07,376.51,0,4.6009e+07,56.721,438.26,1
432,3.59,12137,1,12137,1,0.0008055,-1.7383e-10,0,0.0008055,-0.00015043,2.4054e+08,-43.774,0,2.4054e+08,-22.898,12136,12879,1,12879,1,0.0010612,1.7045e-09,0,0.0010612,-0.00010254,3.1065e+08,442.98,0,3.1065e+08,44.892,12878,12136,1,12136,1,0.0008055,-2.0962e-10,0,0.0008055,-0.00015042,2.4103e+08,-52.266,0,2.4103e+08,-27.164,12135,11395,1,11395,1,0.00054985,-1.3312e-09,0,0.00054985,-0.00019833,1.6951e+08,-345.97,0,1.6951e+08,-127.48,11394,11748,1,11748,1,0.00065942,-4.5478e-10,0,0.00065942,-0.00017779,2.0062e+08,-113.99,0,2.0062e+08,-42.739,11747,12524,1,12524,1,0.00095159,6.7303e-11,0,0.00095159,-0.00012306,2.8043e+08,16.681,0,2.8043e+08,-1.3467,12523,438.26,0,438.26,0,0.00016756,5.1532e-10,0,0.00016756,3.1389e-05,4.6062e+07,132.51,0,4.6062e+07,32.065,438.26,1
432,3.6,12137,1,12137,1,0.00080789,7.2228e-10,0,0.00080789,-0.00015087,2.4114e+08,185.81,0,2.4114e+08,-8.6633,12136,12879,1,12879,1,0.0010643,2.4259e-09,0,0.0010643,-0.00010284,3.1133e+08,630.48,0,3.1133e+08,29.687,12878,12136,1,12136,1,0.00080789,7.4483e-10,0,0.00080789,-0.00015087,2.4163e+08,188.64,0,2.4163e+08,-3.1656,12135,11395,1,11395,1,0.0005515,-7.9751e-10,0,0.0005515,-0.00019891,1.7002e+08,-196.64,0,1.7002e+08,-143.55,11394,11748,1,11748,1,0.00066138,4.4652e-11,0,0.00066138,-0.00017831,2.0118e+08,11.051,0,2.0118e+08,-16.68,11747,12524,1,12524,1,0.00095439,1.3406e-09,0,0.00095439,-0.00012343,2.8106e+08,343.59,0,2.8106e+08,8.1377,12523,438.26,0,438.26,0,0.00016804,8.2229e-10,0,0.00016804,3.1478e-05,4.6111e+07,210.81,0,4.6111e+07,26.899,438.26,1
432,3.61,12137,1,12137,1,0.00081026,-8.8578e-10,0,0.00081026,-0.00015131,2.4173e+08,-226.9,0,2.4173e+08,-42.04,12136,12879,1,12879,1,0.0010674,1.7698e-09,0,0.0010674,-0.00010315,3.12e+08,459.94,0,3.12e+08,72.078,12878,12136,1,12136,1,0.00081026,-3.9673e-10,0,0.00081026,-0.00015131,2.4223e+08,-101.27,0,2.4223e+08,-48.416,12135,11395,1,11395,1,0.00055315,-4.4975e-09,0,0.00055315,-0.00019948,1.7053e+08,-1168.9,0,1.7053e+08,-194.15,11394,11748,1,11748,1,0.00066334,-1.9609e-09,0,0.00066334,-0.00017883,2.0174e+08,-494.65,0,2.0174e+08,-73.202,11747,12524,1,12524,1,0.00095718,1.739e-10,0,0.00095718,-0.00012379,2.8169e+08,43.855,0,2.8169e+08,-6.3697,12523,438.26,0,438.26,0,0.00016851,1.4334e-09,0,0.00016851,3.1566e-05,4.6159e+07,368.01,0,4.6159e+07,51.133,438.26,1
432,3.62,12137,1,12137,1,0.00081266,8.257e-10,0,0.00081266,-0.00015176,2.4233e+08,210.49,0,2.4233e+08,-12.873,12136,12879,1,12879,1,0.0010705,1.632e-09,0,0.0010705,-0.00010346,3.1268e+08,424.15,0,3.1268e+08,9.539,12878,12136,1,12136,1,0.00081266,9.1692e-10,0,0.00081266,-0.00015176,2.4283e+08,230.01,0,2.4283e+08,-11.688,12135,11395,1,11395,1,0.00055482,-1.1578e-10,0,0.00055482,-0.00020007,1.7104e+08,-28.552,0,1.7104e+08,-52.966,11394,11748,1,11748,1,0.00066532,3.687e-10,0,0.00066532,-0.00017936,2.0231e+08,91.238,0,2.0231e+08,-20.526,11747,12524,1,12524,1,0.00095999,1.2467e-09,0,0.00095999,-0.00012416,2.8233e+08,319.51,0,2.8233e+08,-4.0795,12523,438.26,0,438.26,0,0.00016899,4.9348e-10,0,0.00016899,3.1655e-05,4.6209e+07,127.73,0,4.6209e+07,11.214,438.26,1
432,3.63,12137,1,12137,1,0.00081503,5.0671e-10,0,0.00081503,-0.0001522,2.4292e+08,129.73,0,2.4292e+08,-13.85,12136,12879,1,12879,1,0.0010736,3.0249e-09,0,0.0010736,-0.00010377,3.1334e+08,786.15,0,3.1334e+08,59.054,12878,12136,1,12136,1,0.00081503,2.9503e-10,0,0.00081503,-0.0001522,2.4342e+08,73.865,0,2.4342e+08,-11.915,12135,11395,1,11395,1,0.00055646,-7.245e-10,0,0.00055646,-0.00020064,1.7155e+08,-178.18,0,1.7155e+08,-182.11,11394,11748,1,11748,1,0.00066728,5.6683e-11,0,0.00066728,-0.00017987,2.0287e+08,13.95,0,2.0287e+08,-22.877,11747,12524,1,12524,1,0.00096278,8.2449e-10,0,0.00096278,-0.00012453,2.8296e+08,208.25,0,2.8296e+08,3.7562,12523,438.26,0,438.26,0,0.00016946,6.6055e-10,0,0.00016946,3.1744e-05,4.6255e+07,169.99,0,4.6255e+07,35.748,438.26,1
432,3.64,12137,1,12137,1,0.00081741,1.9635e-09,0,0.00081741,-0.00015264,2.4352e+08,503.43,0,2.4352e+08,-7.6087,12136,12879,1,12879,1,0.0010767,5.9344e-09,0,0.0010767,-0.00010408,3.1402e+08,1542.4,0,3.1402e+08,75.18,12878,12136,1,12136,1,0.00081741,1.8913e-09,0,0.00081741,-0.00015264,2.4402e+08,475.93,0,2.4402e+08,0.89391,12135,11395,1,11395,1,0.00055811,-1.5092e-09,0,0.00055811,-0.00020123,1.7206e+08,-370.9,0,1.7206e+08,-247.89,11394,11748,1,11748,1,0.00066924,3.7942e-10,0,0.00066924,-0.00018039,2.0343e+08,93.922,0,2.0343e+08,-28.272,11747,12524,1,12524,1,0.00096557,3.4441e-09,0,0.00096557,-0.00012489,2.8359e+08,884.08,0,2.8359e+08,27.073,12523,438.26,0,438.26,0,0.00016994,1.9331e-09,0,0.00016994,3.1832e-05,4.6302e+07,496.54,0,4.6302e+07,53.017,438.26,1
432,3.65,12137,1,12137,1,0.00081981,1.3717e-09,0,0.00081981,-0.00015309,2.4412e+08,352.78,0,2.4412e+08,-3.7632,12136,12879,1,12879,1,0.0010799,5.0387e-09,0,0.0010799,-0.00010439,3.1469e+08,1309.6,0,3.1469e+08,88.174,12878,12136,1,12136,1,0.00081981,1.2781e-09,0,0.00081981,-0.00015309,2.4462e+08,320.39,0,2.4462e+08,0.27236,12135,11395,1,11395,1,0.00055978,-1.0972e-09,0,0.00055978,-0.00020181,1.7257e+08,-269.52,0,1.7257e+08,-156.84,11394,11748,1,11748,1,0.00067123,-7.7249e-11,0,0.00067123,-0.00018092,2.04e+08,-19.323,0,2.04e+08,-25.037,11747,12524,1,12524,1,0.00096839,2.5987e-09,0,0.00096839,-0.00012526,2.8422e+08,664.18,0,2.8422e+08,22.193,12523,438.26,0,438.26,0,0.00017042,1.6034e-09,0,0.00017042,3.1922e-05,4.635e+07,411.15,0,4.635e+07,40.622,438.26,1
432,3.66,12137,1,12137,1,0.00082216,3.2708e-10,0,0.00082216,-0.00015353,2.447e+08,84.11,0,2.447e+08,-24.088,12136,12879,1,12879,1,0.0010829,3.4048e-09,0,0.0010829,-0.0001047,3.1534e+08,884.86,0,3.1534e+08,40.82,12878,12136,1,12136,1,0.00082217,4.0739e-11,0,0.00082217,-0.00015353,2.452e+08,9.9737,0,2.452e+08,-20.419,12135,11395,1,11395,1,0.00056143,-1.0554e-09,0,0.00056143,-0.00020238,1.7308e+08,-274.28,0,1.7308e+08,-156.68,11394,11748,1,11748,1,0.00067318,-2.1012e-10,0,0.00067318,-0.00018144,2.0455e+08,-53.203,0,2.0455e+08,-42.793,11747,12524,1,12524,1,0.00097116,7.4907e-10,0,0.00097116,-0.00012563,2.8484e+08,190.45,0,2.8484e+08,0.0087084,12523,438.26,0,438.26,0,0.00017089,8.71e-10,0,0.00017089,3.2009e-05,4.6393e+07,223.72,0,4.6393e+07,36.1,438.26,1
432,3.67,12137,1,12137,1,0.00082454,-1.8058e-09,0,0.00082454,-0.00015397,2.4529e+08,-462.73,0,2.4529e+08,-54.615,12136,12879,1,12879,1,0.001086,1.7641e-09,0,0.001086,-0.000105,3.1602e+08,432.45,0,3.1602e+08,113.26,12878,12136,1,12136,1,0.00082455,-1.1963e-09,0,0.00082455,-0.00015397,2.458e+08,-297.92,0,2.458e+08,-61.755,12135,11395,1,11395,1,0.00056308,-7.522e-09,0,0.00056308,-0.00020296,1.7359e+08,-1954.9,0,1.7359e+08,-281.49,11394,11748,1,11748,1,0.00067514,-3.7719e-09,0,0.00067514,-0.00018196,2.0511e+08,-952.48,0,2.0511e+08,-100.96,11747,12524,1,12524,1,0.00097396,2.3585e-10,0,0.00097396,-0.00012599,2.8546e+08,58.909,0,2.8546e+08,-2.1414,12523,438.26,0,438.26,0,0.00017136,2.4493e-09,0,0.00017136,3.2097e-05,4.6439e+07,628.07,0,4.6439e+07,77.672,438.26,1
432,3.68,12137,1,12137,1,0.00082696,-4.3328e-10,0,0.00082696,-0.00015442,2.4589e+08,-112.31,0,2.4589e+08,-39.325,12136,12879,1,12879,1,0.0010892,1.4089e-09,0,0.0010892,-0.00010532,3.1669e+08,366.13,0,3.1669e+08,67.078,12878,12136,1,12136,1,0.00082696,-6.8784e-11,0,0.00082696,-0.00015442,2.464e+08,-16.863,0,2.464e+08,-40.045,12135,11395,1,11395,1,0.00056476,-3.0597e-09,0,0.00056476,-0.00020355,1.741e+08,-795.18,0,1.741e+08,-146.91,11394,11748,1,11748,1,0.00067714,-1.1858e-09,0,0.00067714,-0.00018248,2.0568e+08,-299.2,0,2.0568e+08,-79.544,11747,12524,1,12524,1,0.00097679,3.2347e-10,0,0.00097679,-0.00012636,2.861e+08,79.945,0,2.861e+08,-2.3769,12523,438.26,0,438.26,0,0.00017185,1.0584e-09,0,0.00017185,3.2187e-05,4.6485e+07,271.28,0,4.6485e+07,48.716,438.26,1
432,3.69,12137,1,12137,1,0.00082936,4.4568e-10,0,0.00082936,-0.00015487,2.4649e+08,113.06,0,2.4649e+08,-14.067,12136,12879,1,12879,1,0.0010923,1.502e-09,0,0.0010923,-0.00010563,3.1735e+08,390.35,0,3.1735e+08,30.638,12878,12136,1,12136,1,0.00082936,4.3596e-10,0,0.00082936,-0.00015487,2.4699e+08,109.66,0,2.4699e+08,-9.008,12135,11395,1,11395,1,0.00056644,-2.7392e-10,0,0.00056644,-0.00020413,1.7462e+08,-67.086,0,1.7462e+08,-99.751,11394,11748,1,11748,1,0.00067912,2.9612e-10,0,0.00067912,-0.00018301,2.0625e+08,73.928,0,2.0625e+08,-29.249,11747,12524,1,12524,1,0.00097961,5.1594e-10,0,0.00097961,-0.00012673,2.8672e+08,130.16,0,2.8672e+08,0.77439,12523,438.26,0,438.26,0,0.00017233,2.7708e-10,0,0.00017233,3.2277e-05,4.6529e+07,71.585,0,4.6529e+07,22.631,438.26,1
432,3.7,12137,1,12137,1,0.00083174,-3.7576e-10,0,0.00083174,-0.00015532,2.4708e+08,-96.333,0,2.4708e+08,-20.157,12136,12879,1,12879,1,0.0010954,1.1281e-09,0,0.0010954,-0.00010594,3.1801e+08,293.17,0,3.1801e+08,36.66,12878,12136,1,12136,1,0.00083175,-2.1838e-10,0,0.00083175,-0.00015531,2.4758e+08,-54.3,0,2.4758e+08,-22.721,12135,11395,1,11395,1,0.00056809,-1.9557e-09,0,0.00056809,-0.00020471,1.7513e+08,-508.25,0,1.7513e+08,-86.819,11394,11748,1,11748,1,0.00068109,-9.1359e-10,0,0.00068109,-0.00018353,2.0681e+08,-231.04,0,2.0681e+08,-39.555,11747,12524,1,12524,1,0.0009824,1.1999e-10,0,0.0009824,-0.0001271,2.8734e+08,29.835,0,2.8734e+08,-2.04,12523,438.26,0,438.26,0,0.0001728,6.8603e-10,0,0.0001728,3.2365e-05,4.6571e+07,175.84,0,4.6571e+07,25.317,438.26,1
432,3.71,12137,1,12137,1,0.00083414,1.6558e-09,0,0.00083414,-0.00015576,2.4767e+08,423.35,0,2.4767e+08,2.8116,12136,12879,1,12879,1,0.0010985,4.9588e-09,0,0.0010985,-0.00010625,3.1867e+08,1288.8,0,3.1867e+08,82.771,12878,12136,1,12136,1,0.00083414,1.6629e-09,0,0.00083414,-0.00015576,2.4818e+08,420.25,0,2.4818e+08,4.0916,12135,11395,1,11395,1,0.00056975,-8.6666e-10,0,0.00056975,-0.00020529,1.7564e+08,-211.72,0,1.7564e+08,-81.549,11394,11748,1,11748,1,0.00068307,3.8559e-10,0,0.00068307,-0.00018406,2.0737e+08,95.021,0,2.0737e+08,-20.183,11747,12524,1,12524,1,0.00098522,2.7642e-09,0,0.00098522,-0.00012747,2.8797e+08,710.65,0,2.8797e+08,23.974,12523,438.26,0,438.26,0,0.00017328,1.5058e-09,0,0.00017328,3.2454e-05,4.6614e+07,386.44,0,4.6614e+07,30.492,438.26,1
432,3.72,12137,1,12137,1,0.00083653,3.8575e-10,0,0.00083653,-0.00015621,2.4825e+08,99.614,0,2.4825e+08,-7.0239,12136,12879,1,12879,1,0.0011016,2.4221e-09,0,0.0011016,-0.00010656,3.1932e+08,629.46,0,3.1932e+08,37.787,12878,12136,1,12136,1,0.00083653,3.0096e-10,0,0.00083653,-0.0001562,2.4877e+08,75.324,0,2.4877e+08,-3.0884,12135,11395,1,11395,1,0.00057142,-7.2016e-10,0,0.00057142,-0.00020587,1.7616e+08,-175.96,0,1.7616e+08,-137.04,11394,11748,1,11748,1,0.00068504,-9.488e-11,0,0.00068504,-0.00018458,2.0793e+08,-23.54,0,2.0793e+08,-9.8961,11747,12524,1,12524,1,0.00098802,7.7953e-10,0,0.00098802,-0.00012784,2.8858e+08,199.58,0,2.8858e+08,4.7097,12523,438.26,0,438.26,0,0.00017375,6.029e-10,0,0.00017375,3.2542e-05,4.6655e+07,154.5,0,4.6655e+07,25.609,438.26,1
432,3.73,12137,1,12137,1,0.00083887,-1.4576e-09,0,0.00083887,-0.00015664,2.4883e+08,-372.67,0,2.4883e+08,-68.368,12136,12879,1,12879,1,0.0011047,3.7322e-09,0,0.0011047,-0.00010686,3.1997e+08,969.9,0,3.1997e+08,131.17,12878,12136,1,12136,1,0.00083887,-9.4199e-10,0,0.00083887,-0.00015664,2.4934e+08,-236.3,0,2.4934e+08,-77.676,12135,11395,1,11395,1,0.00057304,-6.8618e-09,0,0.00057304,-0.00020644,1.7666e+08,-1783.3,0,1.7666e+08,-234.9,11394,11748,1,11748,1,0.00068698,-3.3075e-09,0,0.00068698,-0.00018509,2.0848e+08,-838.83,0,2.0848e+08,-134.07,11747,12524,1,12524,1,0.00099077,3.4437e-10,0,0.00099077,-0.0001282,2.8919e+08,84.689,0,2.8919e+08,-6.6588,12523,438.26,0,438.26,0,0.00017422,2.4027e-09,0,0.00017422,3.2629e-05,4.6693e+07,615.55,0,4.6693e+07,81.138,438.26,1
432,3.74,12137,1,12137,1,0.00084131,8.0297e-10,0,0.00084131,-0.0001571,2.4943e+08,204.68,0,2.4943e+08,-14.348,12136,12879,1,12879,1,0.0011079,2.215e-09,0,0.0011079,-0.00010718,3.2064e+08,575.66,0,3.2064e+08,19.529,12878,12136,1,12136,1,0.00084131,7.9733e-10,0,0.00084131,-0.00015709,2.4995e+08,199.32,0,2.4995e+08,-11.878,12135,11395,1,11395,1,0.00057475,-3.2455e-10,0,0.00057475,-0.00020703,1.7718e+08,-78.914,0,1.7718e+08,-70.721,11394,11748,1,11748,1,0.00068899,2.0092e-10,0,0.00068899,-0.00018562,2.0906e+08,49.461,0,2.0906e+08,-22.477,11747,12524,1,12524,1,0.00099363,1.3934e-09,0,0.00099363,-0.00012857,2.8982e+08,353.48,0,2.8982e+08,-4.4065,12523,438.26,0,438.26,0,0.00017471,7.2246e-10,0,0.00017471,3.272e-05,4.6738e+07,184.76,0,4.6738e+07,15.213,438.26,1
432,3.75,12137,1,12137,1,0.00084369,1.2883e-09,0,0.00084369,-0.00015754,2.5002e+08,330.43,0,2.5002e+08,-0.76254,12136,12879,1,12879,1,0.001111,4.6269e-09,0,0.001111,-0.00010749,3.2129e+08,1202.5,0,3.2129e+08,62.024,12878,12136,1,12136,1,0.00084369,1.226e-09,0,0.00084369,-0.00015754,2.5053e+08,309.99,0,2.5053e+08,3.6513,12135,11395,1,11395,1,0.0005764,-1.0316e-09,0,0.0005764,-0.00020762,1.7769e+08,-251.36,0,1.7769e+08,-112.66,11394,11748,1,11748,1,0.00069096,1.4181e-10,0,0.00069096,-0.00018614,2.0961e+08,34.964,0,2.0961e+08,-21.046,11747,12524,1,12524,1,0.00099643,2.4066e-09,0,0.00099643,-0.00012894,2.9043e+08,617.4,0,2.9043e+08,21.325,12523,438.26,0,438.26,0,0.00017518,1.4624e-09,0,0.00017518,3.2808e-05,4.6776e+07,374.09,0,4.6776e+07,32.594,438.26,1
432,3.76,12137,1,12137,1,0.00084604,1.9548e-09,0,0.00084604,-0.00015798,2.5059e+08,502.26,0,2.5059e+08,-35.898,12136,12879,1,12879,1,0.0011141,8.7179e-09,0,0.0011141,-0.00010779,3.2192e+08,2265.6,0,3.2192e+08,142.43,12878,12136,1,12136,1,0.00084604,1.1528e-09,0,0.00084604,-0.00015798,2.5111e+08,287.02,0,2.5111e+08,-27.779,12135,11395,1,11395,1,0.00057803,-2.1817e-09,0,0.00057803,-0.00020819,1.7819e+08,-531.21,0,1.7819e+08,-412.8,11394,11748,1,11748,1,0.0006929,-5.0838e-10,0,0.0006929,-0.00018666,2.1017e+08,-126.58,0,2.1017e+08,-76.852,11747,12524,1,12524,1,0.00099919,4.1618e-09,0,0.00099919,-0.0001293,2.9103e+08,1055.6,0,2.9103e+08,21.133,12523,438.26,0,438.26,0,0.00017565,2.8149e-09,0,0.00017565,3.2895e-05,4.6812e+07,720.14,0,4.6812e+07,91.34,438.26,1
432,3.77,12137,1,12137,1,0.00084848,-1.9701e-09,0,0.00084848,-0.00015844,2.5119e+08,-501.3,0,2.5119e+08,-30.72,12136,12879,1,12879,1,0.0011172,9.2973e-10,0,0.0011172,-0.00010811,3.2259e+08,226.13,0,3.2259e+08,68.407,12878,12136,1,12136,1,0.00084849,-1.9299e-09,0,0.00084849,-0.00015843,2.5171e+08,-481.17,0,2.5171e+08,-35.569,12135,11395,1,11395,1,0.00057974,-4.9385e-09,0,0.00057974,-0.00020878,1.7872e+08,-1283.4,0,1.7872e+08,-160.09,11394,11748,1,11748,1,0.00069492,-3.2397e-09,0,0.00069492,-0.00018719,2.1074e+08,-823.72,0,2.1074e+08,-58.518,11747,12524,1,12524,1,0.0010021,-8.1144e-10,0,0.0010021,-0.00012968,2.9166e+08,-198.62,0,2.9166e+08,-0.6492,12523,438.26,0,438.26,0,0.00017613,1.5164e-09,0,0.00017613,3.2986e-05,4.6856e+07,389.29,0,4.6856e+07,42.306,438.26,1
432,3.78,12137,1,12137,1,0.00085088,-5.7686e-10,0,0.00085088,-0.00015888,2.5177e+08,-149.24,0,2.5177e+08,-23.763,12136,12879,1,12879,1,0.0011204,1.2864e-09,0,0.0011204,-0.00010842,3.2323e+08,334.3,0,3.2323e+08,90.21,12878,12136,1,12136,1,0.00085088,-2.3527e-10,0,0.00085088,-0.00015888,2.5229e+08,-59.205,0,2.5229e+08,-25.328,12135,11395,1,11395,1,0.00058141,-3.3563e-09,0,0.00058141,-0.00020936,1.7923e+08,-872.26,0,1.7923e+08,-106.97,11394,11748,1,11748,1,0.0006969,-1.5306e-09,0,0.0006969,-0.00018772,2.113e+08,-394.43,0,2.113e+08,-64.707,11747,12524,1,12524,1,0.0010049,3.7016e-10,0,0.0010049,-0.00013005,2.9227e+08,91.382,0,2.9227e+08,9.6527,12523,438.26,0,438.26,0,0.00017661,1.2077e-09,0,0.00017661,3.3074e-05,4.6891e+07,308.36,0,4.6891e+07,45.836,438.26,1
432,3.79,12137,1,12137,1,0.00085327,1.3807e-09,0,0.00085327,-0.00015933,2.5236e+08,350.26,0,2.5236e+08,-21.826,12136,12879,1,12879,1,0.0011235,3.5129e-09,0,0.0011235,-0.00010873,3.2388e+08,912.91,0,3.2388e+08,21.249,12878,12136,1,12136,1,0.00085327,1.4109e-09,0,0.00085327,-0.00015932,2.5288e+08,355.37,0,2.5288e+08,-17.909,12135,11395,1,11395,1,0.00058308,-3.0121e-10,0,0.00058308,-0.00020994,1.7975e+08,-73.156,0,1.7975e+08,-116.56,11394,11748,1,11748,1,0.00069888,6.6893e-10,0,0.00069888,-0.00018824,2.1186e+08,163.42,0,2.1186e+08,-36.003,11747,12524,1,12524,1,0.0010077,1.9954e-09,0,0.0010077,-0.00013042,2.9288e+08,507.26,0,2.9288e+08,-6.1174,12523,438.26,0,438.26,0,0.00017708,8.7472e-10,0,0.00017708,3.3163e-05,4.6928e+07,226.19,0,4.6928e+07,25.744,438.26,1
432,3.8,12137,1,12137,1,0.00085565,5.7104e-10,0,0.00085565,-0.00015977,2.5294e+08,146.26,0,2.5294e+08,-23.376,12136,12879,1,12879,1,0.0011266,4.8941e-09,0,0.0011266,-0.00010904,3.2451e+08,1271.8,0,3.2451e+08,76.407,12878,12136,1,12136,1,0.00085566,2.0143e-10,0,0.00085566,-0.00015977,2.5346e+08,49.175,0,2.5346e+08,-29.405,12135,11395,1,11395,1,0.00058474,-1.2744e-09,0,0.00058474,-0.00021052,1.8026e+08,-331.18,0,1.8026e+08,-177.85,11394,11748,1,11748,1,0.00070085,-2.2575e-10,0,0.00070085,-0.00018876,2.1242e+08,-57.149,0,2.1242e+08,-46.932,11747,12524,1,12524,1,0.0010105,1.2792e-09,0,0.0010105,-0.00013078,2.9348e+08,322.23,0,2.9348e+08,6.6602,12523,438.26,0,438.26,0,0.00017756,1.2336e-09,0,0.00017756,3.3251e-05,4.6964e+07,316.02,0,4.6964e+07,44.691,438.26,1
432,3.81,12137,1,12137,1,0.00085806,1.3962e-10,0,0.00085806,-0.00016022,2.5352e+08,35.817,0,2.5352e+08,-25.685,12136,12879,1,12879,1,0.0011297,2.5661e-09,0,0.0011297,-0.00010936,3.2516e+08,666.84,0,3.2516e+08,37.636,12878,12136,1,12136,1,0.00085806,3.1297e-11,0,0.00085806,-0.00016022,2.5404e+08,7.6786,0,2.5404e+08,-32.116,12135,11395,1,11395,1,0.00058642,-1.1782e-09,0,0.00058642,-0.0002111,1.8077e+08,-306.2,0,1.8077e+08,-110.23,11394,11748,1,11748,1,0.00070284,-1.8716e-10,0,0.00070284,-0.00018928,2.1298e+08,-46.441,0,2.1298e+08,-48.463,11747,12524,1,12524,1,0.0010133,3.4057e-10,0,0.0010133,-0.00013116,2.941e+08,86.136,0,2.941e+08,-1.965,12523,438.26,0,438.26,0,0.00017804,6.3491e-10,0,0.00017804,3.334e-05,4.7001e+07,162.92,0,4.7001e+07,31.161,438.26,1
432,3.82,12137,1,12137,1,0.00086047,-1.0267e-09,0,0.00086047,-0.00016067,2.5411e+08,-262.1,0,2.5411e+08,-28.556,12136,12879,1,12879,1,0.0011329,1.2675e-09,0,0.0011329,-0.00010967,3.2581e+08,329.36,0,3.2581e+08,81.514,12878,12136,1,12136,1,0.00086047,-7.1027e-10,0,0.00086047,-0.00016066,2.5463e+08,-179.07,0,2.5463e+08,-31.773,12135,11395,1,11395,1,0.00058809,-3.7183e-09,0,0.00058809,-0.00021169,1.8129e+08,-966.31,0,1.8129e+08,-124.78,11394,11748,1,11748,1,0.00070483,-2.132e-09,0,0.00070483,-0.00018981,2.1354e+08,-537.11,0,2.1354e+08,-68.453,11747,12524,1,12524,1,0.0010161,2.8719e-11,0,0.0010161,-0.00013153,2.947e+08,6.8936,0,2.947e+08,4.2807,12523,438.26,0,438.26,0,0.00017851,1.3201e-09,0,0.00017851,3.3429e-05,4.7036e+07,337.86,0,4.7036e+07,44.182,438.26,1
432,3.83,12137,1,12137,1,0.00086286,3.9388e-10,0,0.00086286,-0.00016112,2.5468e+08,99.687,0,2.5468e+08,-15.779,12136,12879,1,12879,1,0.001136,3.2877e-09,0,0.001136,-0.00010998,3.2644e+08,854.37,0,3.2644e+08,64.03,12878,12136,1,12136,1,0.00086286,2.8969e-10,0,0.00086286,-0.00016111,2.5521e+08,70.886,0,2.5521e+08,-18.603,12135,11395,1,11395,1,0.00058976,-1.0699e-09,0,0.00058976,-0.00021227,1.818e+08,-278.05,0,1.818e+08,-141.47,11394,11748,1,11748,1,0.0007068,-2.9754e-11,0,0.0007068,-0.00019033,2.141e+08,-7.2551,0,2.141e+08,-42.698,11747,12524,1,12524,1,0.0010189,6.7658e-10,0,0.0010189,-0.00013189,2.9531e+08,168.82,0,2.9531e+08,8.2017,12523,438.26,0,438.26,0,0.00017899,7.5617e-10,0,0.00017899,3.3517e-05,4.7069e+07,193.88,0,4.7069e+07,37.255,438.26,1
432,3.84,12137,1,12137,1,0.00086525,1.4177e-09,0,0.00086525,-0.00016156,2.5526e+08,364.3,0,2.5526e+08,-11.317,12136,12879,1,12879,1,0.0011391,5.839e-09,0,0.0011391,-0.00011029,3.2708e+08,1517.4,0,3.2708e+08,102.81,12878,12136,1,12136,1,0.00086525,1.2628e-09,0,0.00086525,-0.00016156,2.5579e+08,311.94,0,2.5579e+08,-7.1611,12135,11395,1,11395,1,0.00059142,-1.5483e-09,0,0.00059142,-0.00021285,1.8231e+08,-374.58,0,1.8231e+08,-198.02,11394,11748,1,11748,1,0.00070878,-3.3783e-13,0,0.00070878,-0.00019086,2.1466e+08,-0.077647,0,2.1466e+08,-40.88,11747,12524,1,12524,1,0.0010217,2.8563e-09,0,0.0010217,-0.00013226,2.9591e+08,722.81,0,2.9591e+08,25.492,12523,438.26,0,438.26,0,0.00017946,1.8919e-09,0,0.00017946,3.3605e-05,4.7103e+07,481.86,0,4.7103e+07,50.763,438.26,1
432,3.85,12137,1,12137,1,0.00086768,-6.4302e-10,0,0.00086768,-0.00016201,2.5585e+08,-162.63,0,2.5585e+08,-19.439,12136,12879,1,12879,1,0.0011422,5.0971e-10,0,0.0011422,-0.00011061,3.2772e+08,123.16,0,3.2772e+08,38.741,12878,12136,1,12136,1,0.00086768,-5.2229e-10,0,0.00086768,-0.00016201,2.5638e+08,-129.73,0,2.5638e+08,-19.704,12135,11395,1,11395,1,0.00059312,-2.0227e-09,0,0.00059312,-0.00021344,1.8284e+08,-525.65,0,1.8284e+08,-120.56,11394,11748,1,11748,1,0.00071079,-1.1061e-09,0,0.00071079,-0.00019139,2.1523e+08,-279.04,0,2.1523e+08,-36.605,11747,12524,1,12524,1,0.0010246,-2.4529e-10,0,0.0010246,-0.00013264,2.9652e+08,-60.261,0,2.9652e+08,0.95042,12523,438.26,0,438.26,0,0.00017995,5.6651e-10,0,0.00017995,3.3695e-05,4.7138e+07,145.06,0,4.7138e+07,29.823,438.26,1
432,3.86,12137,1,12137,1,0.00087006,-5.4812e-10,0,0.00087006,-0.00016246,2.5642e+08,-139.55,0,2.5642e+08,-25.598,12136,12879,1,12879,1,0.0011454,1.1891e-09,0,0.0011454,-0.00011092,3.2834e+08,308.97,0,3.2834e+08,37.363,12878,12136,1,12136,1,0.00087007,-3.5845e-10,0,0.00087007,-0.00016245,2.5695e+08,-89.574,0,2.5695e+08,-32.394,12135,11395,1,11395,1,0.00059478,-2.7978e-09,0,0.00059478,-0.00021402,1.8335e+08,-727.08,0,1.8335e+08,-118.26,11394,11748,1,11748,1,0.00071276,-1.1004e-09,0,0.00071276,-0.00019191,2.1579e+08,-277.96,0,2.1579e+08,-43.49,11747,12524,1,12524,1,0.0010274,5.7902e-11,0,0.0010274,-0.00013301,2.9711e+08,13.982,0,2.9711e+08,-3.6873,12523,438.26,0,438.26,0,0.00018042,8.5348e-10,0,0.00018042,3.3783e-05,4.7168e+07,218.47,0,4.7168e+07,28.964,438.26,1
432,3.87,12137,1,12137,1,0.00087247,-6.2238e-10,0,0.00087247,-0.00016291,2.57e+08,-159.38,0,2.57e+08,-27.8,12136,12879,1,12879,1,0.0011485,1.9288e-09,0,0.0011485,-0.00011123,3.2898e+08,501.21,0,3.2898e+08,77.918,12878,12136,1,12136,1,0.00087247,-2.9746e-10,0,0.00087247,-0.0001629,2.5753e+08,-73.816,0,2.5753e+08,-33.402,12135,11395,1,11395,1,0.00059646,-3.3613e-09,0,0.00059646,-0.0002146,1.8387e+08,-873.51,0,1.8387e+08,-133.88,11394,11748,1,11748,1,0.00071476,-1.547e-09,0,0.00071476,-0.00019243,2.1635e+08,-389.04,0,2.1635e+08,-64.791,11747,12524,1,12524,1,0.0010302,2.4825e-10,0,0.0010302,-0.00013338,2.9771e+08,60.64,0,2.9771e+08,5.333,12523,438.26,0,438.26,0,0.0001809,1.195e-09,0,0.0001809,3.3872e-05,4.72e+07,305.5,0,4.72e+07,45.688,438.26,1
432,3.88,12137,1,12137,1,0.00087487,-1.4824e-09,0,0.00087487,-0.00016335,2.5758e+08,-377.88,0,2.5758e+08,-51.013,12136,12879,1,12879,1,0.0011516,1.0336e-09,0,0.0011516,-0.00011154,3.2961e+08,249.35,0,3.2961e+08,77.4,12878,12136,1,12136,1,0.00087488,-1.1429e-09,0,0.00087488,-0.00016335,2.5811e+08,-279.99,0,2.5811e+08,-50.838,12135,11395,1,11395,1,0.00059813,-5.1426e-09,0,0.00059813,-0.00021519,1.8438e+08,-1336.5,0,1.8438e+08,-156.57,11394,11748,1,11748,1,0.00071674,-2.7719e-09,0,0.00071674,-0.00019296,2.1691e+08,-703.44,0,2.1691e+08,-103.49,11747,12524,1,12524,1,0.001033,-6.3596e-11,0,0.001033,-0.00013375,2.9831e+08,-16.294,0,2.9831e+08,-4.3579,12523,438.26,0,438.26,0,0.00018137,1.6576e-09,0,0.00018137,3.396e-05,4.7231e+07,424.61,0,4.7231e+07,56.254,438.26,1
432,3.89,12137,1,12137,1,0.00087728,1.4185e-09,0,0.00087728,-0.0001638,2.5816e+08,361.49,0,2.5816e+08,7.8959,12136,12879,1,12879,1,0.0011548,4.1446e-09,0,0.0011548,-0.00011186,3.3024e+08,1077.1,0,3.3024e+08,69.212,12878,12136,1,12136,1,0.00087728,1.4487e-09,0,0.00087728,-0.0001638,2.5869e+08,354.08,0,2.5869e+08,13.905,12135,11395,1,11395,1,0.00059981,-1.1356e-09,0,0.00059981,-0.00021577,1.849e+08,-273.61,0,1.849e+08,-130.76,11394,11748,1,11748,1,0.00071873,3.0998e-10,0,0.00071873,-0.00019348,2.1747e+08,75.502,0,2.1747e+08,-4.5522,11747,12524,1,12524,1,0.0010358,2.4441e-09,0,0.0010358,-0.00013412,2.9891e+08,626.47,0,2.9891e+08,29.319,12523,438.26,0,438.26,0,0.00018185,1.3582e-09,0,0.00018185,3.4049e-05,4.7261e+07,346.47,0,4.7261e+07,33.597,438.26,1
432,3.9,12137,1,12137,1,0.00087977,-1.0504e-09,0,0.00087977,-0.00016427,2.5869e+08,-266.97,0,2.5869e+08,-39.493,12136,12879,1,12879,1,0.001158,6.773e-10,0,0.001158,-0.00011218,3.3082e+08,162.99,0,3.3082e+08,55.883,12878,12136,1,12136,1,0.00087977,-8.5288e-10,0,0.00087977,-0.00016426,2.5922e+08,-210.88,0,2.5922e+08,-44.609,12135,11395,1,11395,1,0.00060157,-3.3073e-09,0,0.00060157,-0.00021637,1.8539e+08,-859.25,0,1.8539e+08,-124.67,11394,11748,1,11748,1,0.0007208,-1.9332e-09,0,0.0007208,-0.00019403,2.1799e+08,-484.62,0,2.1799e+08,-69.784,11747,12524,1,12524,1,0.0010387,-1.8287e-10,0,0.0010387,-0.0001345,2.9946e+08,-44.579,0,2.9946e+08,-7.0914,12523,438.26,0,438.26,0,0.00018233,1.0677e-09,0,0.00018233,3.4139e-05,4.7285e+07,272.98,0,4.7285e+07,41.083,438.26,1
432,3.91,12137,1,12137,1,0.00088228,5.8832e-10,0,0.00088228,-0.00016473,2.5922e+08,148.9,0,2.5922e+08,-31.908,12136,12879,1,12879,1,0.0011612,4.7868e-09,0,0.0011612,-0.00011251,3.3138e+08,1243.2,0,3.3138e+08,81.835,12878,12136,1,12136,1,0.00088228,3.1403e-10,0,0.00088228,-0.00016473,2.5975e+08,78.946,0,2.5975e+08,-40.84,12135,11395,1,11395,1,0.00060334,-1.3875e-09,0,0.00060334,-0.00021697,1.8589e+08,-360.34,0,1.8589e+08,-132.82,11394,11748,1,11748,1,0.00072289,-9.6334e-11,0,0.00072289,-0.00019457,2.185e+08,-23.686,0,2.185e+08,-68.454,11747,12524,1,12524,1,0.0010417,1.0707e-09,0,0.0010417,-0.00013489,3e+08,265.01,0,3e+08,6.3052,12523,438.26,0,438.26,0,0.00018282,1.1753e-09,0,0.00018282,3.4229e-05,4.7305e+07,300.46,0,4.7305e+07,46.37,438.26,1
432,3.92,12137,1,12137,1,0.00088477,-1.5431e-09,0,0.00088477,-0.0001652,2.5974e+08,-394.16,0,2.5974e+08,-112.12,12136,12879,1,12879,1,0.0011645,3.1454e-09,0,0.0011645,-0.00011284,3.3194e+08,816.61,0,3.3194e+08,143.71,12878,12136,1,12136,1,0.00088478,-9.122e-10,0,0.00088478,-0.00016519,2.6027e+08,-226.76,0,2.6027e+08,-122.86,12135,11395,1,11395,1,0.0006051,-7.4578e-09,0,0.0006051,-0.00021758,1.8638e+08,-1936.4,0,1.8638e+08,-338.37,11394,11748,1,11748,1,0.00072497,-3.5585e-09,0,0.00072497,-0.00019511,2.1901e+08,-888.29,0,2.1901e+08,-183.84,11747,12524,1,12524,1,0.0010446,4.7314e-10,0,0.0010446,-0.00013528,3.0053e+08,113.45,0,3.0053e+08,-37.166,12523,438.26,0,438.26,0,0.0001833,2.5643e-09,0,0.0001833,3.4318e-05,4.7323e+07,653.52,0,4.7323e+07,105.5,438.26,1
432,3.93,12137,1,12137,1,0.00088731,-1.0133e-09,0,0.00088731,-0.00016567,2.6028e+08,-258.11,0,2.6028e+08,-57.302,12136,12879,1,12879,1,0.0011678,7.8724e-10,0,0.0011678,-0.00011317,3.3251e+08,189.22,0,3.3251e+08,54.089,12878,12136,1,12136,1,0.00088732,-7.9579e-10,0,0.00088732,-0.00016566,2.6081e+08,-199.41,0,2.6081e+08,-57.313,12135,11395,1,11395,1,0.00060689,-3.6672e-09,0,0.00060689,-0.00021819,1.8688e+08,-951.85,0,1.8688e+08,-175.1,11394,11748,1,11748,1,0.00072708,-1.7007e-09,0,0.00072708,-0.00019567,2.1954e+08,-428.43,0,2.1954e+08,-104.21,11747,12524,1,12524,1,0.0010476,-2.4853e-10,0,0.0010476,-0.00013567,3.0108e+08,-60.338,0,3.0108e+08,-11.688,12523,438.26,0,438.26,0,0.00018379,1.0914e-09,0,0.00018379,3.441e-05,4.7343e+07,279.59,0,4.7343e+07,53.918,438.26,1
432,3.94,12137,1,12137,1,0.00088982,8.7149e-10,0,0.00088982,-0.00016614,2.608e+08,218.23,0,2.608e+08,-57.906,12136,12879,1,12879,1,0.001171,5.3095e-09,0,0.001171,-0.0001135,3.3306e+08,1377.8,0,3.3306e+08,70.043,12878,12136,1,12136,1,0.00088982,5.7822e-10,0,0.00088982,-0.00016613,2.6132e+08,140.6,0,2.6132e+08,-63.69,12135,11395,1,11395,1,0.00060866,-1.2427e-09,0,0.00060866,-0.00021879,1.8737e+08,-322.41,0,1.8737e+08,-149.33,11394,11748,1,11748,1,0.00072916,1.9085e-10,0,0.00072916,-0.00019621,2.2004e+08,47.525,0,2.2004e+08,-107.44,11747,12524,1,12524,1,0.0010505,1.2925e-09,0,0.0010505,-0.00013606,3.016e+08,322.61,0,3.016e+08,-12.68,12523,438.26,0,438.26,0,0.00018427,1.1999e-09,0,0.00018427,3.45e-05,4.7358e+07,306.69,0,4.7358e+07,56.283,438.26,1
432,3.95,12137,1,12137,1,0.00089233,1.7418e-09,0,0.00089233,-0.0001666,2.6132e+08,439.9,0,2.6132e+08,-41.211,12136,12879,1,12879,1,0.0011742,6.3257e-09,0,0.0011742,-0.00011383,3.3362e+08,1641.1,0,3.3362e+08,61.664,12878,12136,1,12136,1,0.00089233,1.3761e-09,0,0.00089233,-0.0001666,2.6185e+08,342.69,0,2.6185e+08,-45.545,12135,11395,1,11395,1,0.00061043,-5.177e-10,0,0.00061043,-0.0002194,1.8786e+08,-124.01,0,1.8786e+08,-146.09,11394,11748,1,11748,1,0.00073125,5.6301e-10,0,0.00073125,-0.00019676,2.2056e+08,138.97,0,2.2056e+08,-80.489,11747,12524,1,12524,1,0.0010534,2.8166e-09,0,0.0010534,-0.00013645,3.0213e+08,701.82,0,3.0213e+08,-1.4295,12523,438.26,0,438.26,0,0.00018476,1.4856e-09,0,0.00018476,3.459e-05,4.7375e+07,381.49,0,4.7375e+07,48.834,438.26,1
432,3.96,12137,1,12137,1,0.00089487,9.3973e-10,0,0.00089487,-0.00016707,2.6185e+08,239.31,0,2.6185e+08,-15.422,12136,12879,1,12879,1,0.0011775,3.3971e-09,0,0.0011775,-0.00011417,3.3417e+08,881.01,0,3.3417e+08,29.916,12878,12136,1,12136,1,0.00089487,9.5427e-10,0,0.00089487,-0.00016707,2.6237e+08,237.43,0,2.6237e+08,-3.7041,12135,11395,1,11395,1,0.00061222,-7.2666e-10,0,0.00061222,-0.00022001,1.8836e+08,-174.01,0,1.8836e+08,-107.43,11394,11748,1,11748,1,0.00073336,1.1213e-10,0,0.00073336,-0.00019731,2.2107e+08,27.006,0,2.2107e+08,-35.447,11747,12524,1,12524,1,0.0010564,1.7259e-09,0,0.0010564,-0.00013684,3.0267e+08,441.14,0,3.0267e+08,5.1019,12523,438.26,0,438.26,0,0.00018524,9.5425e-10,0,0.00018524,3.4681e-05,4.7392e+07,243.61,0,4.7392e+07,29.578,438.26,1
432,3.97,12137,1,12137,1,0.00089736,-9.1867e-10,0,0.00089736,-0.00016754,2.6236e+08,-232.02,0,2.6236e+08,-53.649,12136,12879,1,12879,1,0.0011807,2.1657e-09,0,0.0011807,-0.0001145,3.3471e+08,561.45,0,3.3471e+08,64.223,12878,12136,1,12136,1,0.00089736,-6.1006e-10,0,0.00089736,-0.00016753,2.6288e+08,-156.12,0,2.6288e+08,-61.274,12135,11395,1,11395,1,0.00061399,-3.9966e-09,0,0.00061399,-0.00022061,1.8885e+08,-1036.3,0,1.8885e+08,-156.51,11394,11748,1,11748,1,0.00073543,-1.8876e-09,0,0.00073543,-0.00019785,2.2158e+08,-472.3,0,2.2158e+08,-90.823,11747,12524,1,12524,1,0.0010593,1.0208e-11,0,0.0010593,-0.00013723,3.0319e+08,2.2478,0,3.0319e+08,-11.327,12523,438.26,0,438.26,0,0.00018572,1.3143e-09,0,0.00018572,3.477e-05,4.7404e+07,334.7,0,4.7404e+07,51.844,438.26,1
432,3.98,12137,1,12137,1,0.00089988,-9.4592e-10,0,0.00089988,-0.00016801,2.6288e+08,-241.15,0,2.6288e+08,-68.548,12136,12879,1,12879,1,0.001184,1.5613e-09,0,0.001184,-0.00011483,3.3527e+08,404.66,0,3.3527e+08,82.18,12878,12136,1,12136,1,0.00089988,-4.7698e-10,0,0.00089988,-0.000168,2.6341e+08,-117.01,0,2.6341e+08,-71.006,12135,11395,1,11395,1,0.00061576,-5.0261e-09,0,0.00061576,-0.00022122,1.8934e+08,-1302.8,0,1.8934e+08,-215.79,11394,11748,1,11748,1,0.00073753,-2.0976e-09,0,0.00073753,-0.0001984,2.2209e+08,-524.05,0,2.2209e+08,-117.18,11747,12524,1,12524,1,0.0010622,3.274e-10,0,0.0010622,-0.00013762,3.0372e+08,79.268,0,3.0372e+08,-14.923,12523,438.26,0,438.26,0,0.00018621,1.6168e-09,0,0.00018621,3.486e-05,4.7419e+07,410.99,0,4.7419e+07,70.377,438.26,1
432,3.99,12137,1,12137,1,0.00090241,3.0012e-11,0,0.00090241,-0.00016848,2.634e+08,5.8992,0,2.634e+08,-58.713,12136,12879,1,12879,1,0.0011873,3.158e-09,0,0.0011873,-0.00011516,3.3581e+08,818.35,0,3.3581e+08,68.178,12878,12136,1,12136,1,0.00090241,1.8037e-10,0,0.00090241,-0.00016847,2.6392e+08,44.204,0,2.6392e+08,-65.738,12135,11395,1,11395,1,0.00061755,-2.938e-09,0,0.00061755,-0.00022182,1.8984e+08,-761.33,0,1.8984e+08,-170.01,11394,11748,1,11748,1,0.00073964,-5.0361e-10,0,0.00073964,-0.00019895,2.226e+08,-125.83,0,2.226e+08,-108.67,11747,12524,1,12524,1,0.0010652,6.4357e-10,0,0.0010652,-0.00013801,3.0424e+08,155.36,0,3.0424e+08,-9.6677,12523,438.26,0,438.26,0,0.00018669,1.1311e-09,0,0.00018669,3.495e-05,4.7433e+07,287.7,0,4.7433e+07,57.838,438.26,1
432,4,12137,1,12137,1,0.00090496,-1.1814e-09,0,0.00090496,-0.00016895,2.6392e+08,-299.12,0,2.6392e+08,-32.123,12136,12879,1,12879,1,0.0011906,5.7489e-10,0,0.0011906,-0.00011549,3.3637e+08,137.01,0,3.3637e+08,32.18,12878,12136,1,12136,1,0.00090496,-1.289e-09,0,0.00090496,-0.00016895,2.6445e+08,-315.35,0,2.6445e+08,-30.805,12135,11395,1,11395,1,0.00061935,-3.1577e-09,0,0.00061935,-0.00022244,1.9034e+08,-818.07,0,1.9034e+08,-108.36,11394,11748,1,11748,1,0.00074176,-2.0755e-09,0,0.00074176,-0.0001995,2.2312e+08,-527.03,0,2.2312e+08,-53.571,11747,12524,1,12524,1,0.0010682,-2.8279e-10,0,0.0010682,-0.0001384,3.0477e+08,-67.835,0,3.0477e+08,-9.4059,12523,438.26,0,438.26,0,0.00018719,1.0239e-09,0,0.00018719,3.5042e-05,4.7447e+07,261.45,0,4.7447e+07,31.19,438.26,1
432,4.01,12137,1,12137,1,0.00090747,3.1058e-10,0,0.00090747,-0.00016942,2.6443e+08,75.29,0,2.6443e+08,-44.94,12136,12879,1,12879,1,0.0011938,3.7028e-09,0,0.0011938,-0.00011583,3.3689e+08,959.05,0,3.3689e+08,74.656,12878,12136,1,12136,1,0.00090747,3.8045e-10,0,0.00090747,-0.00016941,2.6495e+08,92.061,0,2.6495e+08,-53.058,12135,11395,1,11395,1,0.00062113,-2.3844e-09,0,0.00062113,-0.00022304,1.9083e+08,-617.52,0,1.9083e+08,-137.96,11394,11748,1,11748,1,0.00074385,-4.3743e-10,0,0.00074385,-0.00020004,2.2362e+08,-110.01,0,2.2362e+08,-78.498,11747,12524,1,12524,1,0.0010711,8.6264e-10,0,0.0010711,-0.00013879,3.0528e+08,206.26,0,3.0528e+08,-10.238,12523,438.26,0,438.26,0,0.00018767,1.183e-09,0,0.00018767,3.5131e-05,4.7455e+07,299.74,0,4.7455e+07,48.267,438.26,1
432,4.02,12137,1,12137,1,0.00090997,-2.1471e-09,0,0.00090997,-0.00016988,2.6494e+08,-544.41,0,2.6494e+08,-97.942,12136,12879,1,12879,1,0.0011971,1.7315e-09,0,0.0011971,-0.00011615,3.3743e+08,411.35,0,3.3743e+08,125.16,12878,12136,1,12136,1,0.00090997,-1.4577e-09,0,0.00090997,-0.00016988,2.6546e+08,-354.06,0,2.6546e+08,-93.421,12135,11395,1,11395,1,0.00062289,-8.7046e-09,0,0.00062289,-0.00022365,1.9131e+08,-2253.8,0,1.9131e+08,-311.42,11394,11748,1,11748,1,0.00074593,-4.1061e-09,0,0.00074593,-0.00020059,2.2413e+08,-1031.3,0,2.2413e+08,-165.2,11747,12524,1,12524,1,0.001074,1.2404e-10,0,0.001074,-0.00013918,3.0579e+08,29.627,0,3.0579e+08,-28.06,12523,438.26,0,438.26,0,0.00018815,2.7276e-09,0,0.00018815,3.522e-05,4.7466e+07,692.77,0,4.7466e+07,98.717,438.26,1
432,4.03,12137,1,12137,1,0.00091248,-7.6159e-10,0,0.00091248,-0.00017035,2.6545e+08,-197.6,0,2.6545e+08,-106.21,12136,12879,1,12879,1,0.0012003,3.7177e-09,0,0.0012003,-0.00011648,3.3797e+08,962.31,0,3.3797e+08,133.84,12878,12136,1,12136,1,0.00091249,5.3438e-11,0,0.00091249,-0.00017035,2.6597e+08,13.297,0,2.6597e+08,-117.24,12135,11395,1,11395,1,0.00062467,-7.0692e-09,0,0.00062467,-0.00022425,1.9181e+08,-1829.8,0,1.9181e+08,-332.77,11394,11748,1,11748,1,0.00074803,-2.4176e-09,0,0.00074803,-0.00020113,2.2464e+08,-598.09,0,2.2464e+08,-177.9,11747,12524,1,12524,1,0.001077,9.7966e-10,0,0.001077,-0.00013957,3.0631e+08,239.74,0,3.0631e+08,-23.257,12523,438.26,0,438.26,0,0.00018863,2.4413e-09,0,0.00018863,3.531e-05,4.7477e+07,617.93,0,4.7477e+07,108.69,438.26,1
432,4.04,12137,1,12137,1,0.00091505,1.1473e-09,0,0.00091505,-0.00017083,2.6597e+08,286.46,0,2.6597e+08,-14.556,12136,12879,1,12879,1,0.0012036,2.3623e-09,0,0.0012036,-0.00011682,3.3851e+08,602.72,0,3.3851e+08,30.075,12878,12136,1,12136,1,0.00091505,1.1094e-09,0,0.00091505,-0.00017082,2.6649e+08,275.96,0,2.6649e+08,-4.4805,12135,11395,1,11395,1,0.0006265,1.7613e-11,0,0.0006265,-0.00022486,1.9231e+08,4.0524,0,1.9231e+08,-76.085,11394,11748,1,11748,1,0.00075016,4.8572e-10,0,0.00075016,-0.00020169,2.2515e+08,121.92,0,2.2515e+08,-32.174,11747,12524,1,12524,1,0.0010799,1.8662e-09,0,0.0010799,-0.00013997,3.0684e+08,463.02,0,3.0684e+08,5.3213,12523,438.26,0,438.26,0,0.00018912,7.4029e-10,0,0.00018912,3.5402e-05,4.7489e+07,187.98,0,4.7489e+07,25.864,438.26,1
432,4.05,12137,1,12137,1,0.00091759,-9.4025e-10,0,0.00091759,-0.0001713,2.6648e+08,-239.36,0,2.6648e+08,-53.342,12136,12879,1,12879,1,0.0012069,1.6451e-09,0,0.0012069,-0.00011716,3.3905e+08,425.56,0,3.3905e+08,92.959,12878,12136,1,12136,1,0.00091759,-4.8677e-10,0,0.00091759,-0.00017129,2.67e+08,-119.49,0,2.67e+08,-54.402,12135,11395,1,11395,1,0.00062829,-4.8353e-09,0,0.00062829,-0.00022548,1.928e+08,-1251,0,1.928e+08,-193.82,11394,11748,1,11748,1,0.00075228,-2.2262e-09,0,0.00075228,-0.00020224,2.2566e+08,-552.33,0,2.2566e+08,-92.837,11747,12524,1,12524,1,0.0010829,3.8106e-10,0,0.0010829,-0.00014036,3.0735e+08,91.449,0,3.0735e+08,-10.189,12523,438.26,0,438.26,0,0.00018961,1.664e-09,0,0.00018961,3.5492e-05,4.7495e+07,420.81,0,4.7495e+07,62.533,438.26,1
432,4.06,12137,1,12137,1,0.00092011,4.5713e-12,0,0.00092011,-0.00017177,2.6699e+08,-1.2259,0,2.6699e+08,-40.237,12136,12879,1,12879,1,0.0012102,1.315e-09,0,0.0012102,-0.00011749,3.3957e+08,340.08,0,3.3957e+08,59.046,12878,12136,1,12136,1,0.00092012,2.7395e-10,0,0.00092012,-0.00017176,2.6751e+08,66.293,0,2.6751e+08,-40.623,12135,11395,1,11395,1,0.00063008,-2.5547e-09,0,0.00063008,-0.00022608,1.933e+08,-660.67,0,1.933e+08,-150.28,11394,11748,1,11748,1,0.00075438,-3.5926e-10,0,0.00075438,-0.00020279,2.2617e+08,-91.347,0,2.2617e+08,-70.207,11747,12524,1,12524,1,0.0010859,5.2973e-10,0,0.0010859,-0.00014075,3.0785e+08,130.11,0,3.0785e+08,0.37005,12523,438.26,0,438.26,0,0.00019009,8.2481e-10,0,0.00019009,3.5582e-05,4.7503e+07,208.6,0,4.7503e+07,49.111,438.26,1
432,4.07,12137,1,12137,1,0.00092265,1.0559e-09,0,0.00092265,-0.00017224,2.675e+08,263.6,0,2.675e+08,-32.189,12136,12879,1,12879,1,0.0012134,3.6858e-09,0,0.0012134,-0.00011782,3.401e+08,952.96,0,3.401e+08,34.976,12878,12136,1,12136,1,0.00092265,8.6454e-10,0,0.00092265,-0.00017223,2.6802e+08,212.82,0,2.6802e+08,-36.381,12135,11395,1,11395,1,0.00063187,-1.6305e-10,0,0.00063187,-0.00022669,1.9379e+08,-38.521,0,1.9379e+08,-88.758,11394,11748,1,11748,1,0.00075649,5.4242e-10,0,0.00075649,-0.00020334,2.2667e+08,131.21,0,2.2667e+08,-59.698,11747,12524,1,12524,1,0.0010888,1.4263e-09,0,0.0010888,-0.00014114,3.0836e+08,360.79,0,3.0836e+08,-4.0059,12523,438.26,0,438.26,0,0.00019058,7.5338e-10,0,0.00019058,3.5672e-05,4.751e+07,193.18,0,4.751e+07,31.452,438.26,1
432,4.08,12137,1,12137,1,0.00092512,-1.6429e-09,0,0.00092512,-0.0001727,2.6799e+08,-413.49,0,2.6799e+08,-77.386,12136,12879,1,12879,1,0.0012166,9.0014e-10,0,0.0012166,-0.00011815,3.406e+08,227.64,0,3.406e+08,65.381,12878,12136,1,12136,1,0.00092513,-1.0975e-09,0,0.00092513,-0.0001727,2.6851e+08,-270.71,0,2.6851e+08,-77.598,12135,11395,1,11395,1,0.00063362,-6.7084e-09,0,0.00063362,-0.00022729,1.9427e+08,-1734,0,1.9427e+08,-236.66,11394,11748,1,11748,1,0.00075856,-3.0119e-09,0,0.00075856,-0.00020388,2.2717e+08,-745.18,0,2.2717e+08,-124.47,11747,12524,1,12524,1,0.0010917,2.5998e-11,0,0.0010917,-0.00014153,3.0885e+08,6.0635,0,3.0885e+08,-19.34,12523,438.26,0,438.26,0,0.00019105,1.992e-09,0,0.00019105,3.576e-05,4.7513e+07,505.08,0,4.7513e+07,73.326,438.26,1
432,4.09,12137,1,12137,1,0.00092766,-2.18e-09,0,0.00092766,-0.00017318,2.685e+08,-552.2,0,2.685e+08,-108.92,12136,12879,1,12879,1,0.00122,2.1501e-09,0,0.00122,-0.00011848,3.4114e+08,506.8,0,3.4114e+08,151.73,12878,12136,1,12136,1,0.00092767,-1.3936e-09,0,0.00092767,-0.00017317,2.6902e+08,-341.22,0,2.6902e+08,-113.5,12135,11395,1,11395,1,0.00063541,-9.7062e-09,0,0.00063541,-0.0002279,1.9477e+08,-2508.1,0,1.9477e+08,-371.77,11394,11748,1,11748,1,0.00076067,-4.4371e-09,0,0.00076067,-0.00020443,2.2767e+08,-1098.5,0,2.2767e+08,-182.35,11747,12524,1,12524,1,0.0010947,4.226e-10,0,0.0010947,-0.00014192,3.0936e+08,100.4,0,3.0936e+08,-23.973,12523,438.26,0,438.26,0,0.00019154,3.0844e-09,0,0.00019154,3.5851e-05,4.7521e+07,779.97,0,4.7521e+07,116.34,438.26,1
432,4.1,12137,1,12137,1,0.00093021,-1.0591e-09,0,0.00093021,-0.00017365,2.6901e+08,-271.51,0,2.6901e+08,-104.43,12136,12879,1,12879,1,0.0012232,2.7609e-09,0,0.0012232,-0.00011882,3.4166e+08,713.2,0,3.4166e+08,133.2,12878,12136,1,12136,1,0.00093022,-1.8081e-10,0,0.00093022,-0.00017364,2.6952e+08,-44.706,0,2.6952e+08,-116.98,12135,11395,1,11395,1,0.00063722,-7.7902e-09,0,0.00063722,-0.00022852,1.9526e+08,-2012.3,0,1.9526e+08,-355.86,11394,11748,1,11748,1,0.0007628,-2.6067e-09,0,0.0007628,-0.00020498,2.2818e+08,-643.28,0,2.2818e+08,-176.3,11747,12524,1,12524,1,0.0010976,7.5867e-10,0,0.0010976,-0.00014232,3.0987e+08,179.78,0,3.0987e+08,-12.613,12523,438.26,0,438.26,0,0.00019202,2.4883e-09,0,0.00019202,3.5941e-05,4.7527e+07,628.4,0,4.7527e+07,115.97,438.26,1
432,4.11,12137,1,12137,1,0.00093272,-3.3592e-10,0,0.00093272,-0.00017412,2.695e+08,-87.313,0,2.695e+08,-100.73,12136,12879,1,12879,1,0.0012265,4.5085e-09,0,0.0012265,-0.00011915,3.4216e+08,1164.3,0,3.4216e+08,102.92,12878,12136,1,12136,1,0.00093273,7.7859e-11,0,0.00093273,-0.00017411,2.7002e+08,18.983,0,2.7002e+08,-113.23,12135,11395,1,11395,1,0.000639,-5.4851e-09,0,0.000639,-0.00022912,1.9575e+08,-1416.4,0,1.9575e+08,-278.02,11394,11748,1,11748,1,0.0007649,-1.4155e-09,0,0.0007649,-0.00020553,2.2868e+08,-345.16,0,2.2868e+08,-179.93,11747,12524,1,12524,1,0.0011006,7.3732e-10,0,0.0011006,-0.00014271,3.1036e+08,177.96,0,3.1036e+08,-23.135,12523,438.26,0,438.26,0,0.0001925,1.8834e-09,0,0.0001925,3.603e-05,4.7528e+07,476.43,0,4.7528e+07,94.981,438.26,1
432,4.12,12137,1,12137,1,0.00093532,-4.9025e-10,0,0.00093532,-0.0001746,2.7002e+08,-125.29,0,2.7002e+08,-50.813,12136,12879,1,12879,1,0.0012298,7.8719e-10,0,0.0012298,-0.00011949,3.427e+08,185.31,0,3.427e+08,34.217,12878,12136,1,12136,1,0.00093532,-4.8777e-10,0,0.00093532,-0.00017459,2.7053e+08,-118.84,0,2.7053e+08,-48.338,12135,11395,1,11395,1,0.00064084,-2.3345e-09,0,0.00064084,-0.00022974,1.9626e+08,-602.61,0,1.9626e+08,-163.19,11394,11748,1,11748,1,0.00076705,-8.8625e-10,0,0.00076705,-0.00020609,2.292e+08,-225.24,0,2.292e+08,-88.215,11747,12524,1,12524,1,0.0011036,8.728e-11,0,0.0011036,-0.00014311,3.1088e+08,20.428,0,3.1088e+08,-9.2318,12523,438.26,0,438.26,0,0.000193,7.2889e-10,0,0.000193,3.6123e-05,4.7535e+07,183.65,0,4.7535e+07,48.912,438.26,1
432,4.13,12137,1,12137,1,0.00093783,-8.684e-10,0,0.00093783,-0.00017507,2.7051e+08,-219.86,0,2.7051e+08,-78.315,12136,12879,1,12879,1,0.0012331,3.5622e-09,0,0.0012331,-0.00011983,3.432e+08,919.38,0,3.432e+08,106.97,12878,12136,1,12136,1,0.00093784,-2.0283e-10,0,0.00093784,-0.00017506,2.7102e+08,-48.229,0,2.7102e+08,-89.316,12135,11395,1,11395,1,0.00064263,-6.3841e-09,0,0.00064263,-0.00023034,1.9675e+08,-1647.8,0,1.9675e+08,-257.53,11394,11748,1,11748,1,0.00076915,-2.2127e-09,0,0.00076915,-0.00020663,2.2969e+08,-540.8,0,2.2969e+08,-127.97,11747,12524,1,12524,1,0.0011065,5.3483e-10,0,0.0011065,-0.0001435,3.1136e+08,129.19,0,3.1136e+08,-13.249,12523,438.26,0,438.26,0,0.00019348,2.0958e-09,0,0.00019348,3.6212e-05,4.7534e+07,529.07,0,4.7534e+07,84.842,438.26,1
432,4.14,12137,1,12137,1,0.00094038,-3.4445e-10,0,0.00094038,-0.00017554,2.7101e+08,-89.53,0,2.7101e+08,-78.922,12136,12879,1,12879,1,0.0012364,3.3118e-09,0,0.0012364,-0.00012016,3.4371e+08,854.48,0,3.4371e+08,91.536,12878,12136,1,12136,1,0.00094039,3.6173e-11,0,0.00094039,-0.00017553,2.7152e+08,8.9505,0,2.7152e+08,-85.298,12135,11395,1,11395,1,0.00064443,-4.3256e-09,0,0.00064443,-0.00023096,1.9724e+08,-1116.1,0,1.9724e+08,-226.02,11394,11748,1,11748,1,0.00077128,-1.2915e-09,0,0.00077128,-0.00020719,2.302e+08,-315.35,0,2.302e+08,-141.68,11747,12524,1,12524,1,0.0011095,6.2817e-10,0,0.0011095,-0.00014389,3.1186e+08,149.08,0,3.1186e+08,-15.738,12523,438.26,0,438.26,0,0.00019396,1.5122e-09,0,0.00019396,3.6302e-05,4.7537e+07,381.35,0,4.7537e+07,78.164,438.26,1
432,4.15,12137,1,12137,1,0.00094294,1.2516e-09,0,0.00094294,-0.00017602,2.7152e+08,311.23,0,2.7152e+08,-39.125,12136,12879,1,12879,1,0.0012396,3.5807e-09,0,0.0012396,-0.0001205,3.4423e+08,923.61,0,3.4423e+08,34.848,12878,12136,1,12136,1,0.00094295,1.234e-09,0,0.00094295,-0.00017601,2.7202e+08,302.9,0,2.7202e+08,-37.861,12135,11395,1,11395,1,0.00064625,-3.4959e-10,0,0.00064625,-0.00023157,1.9774e+08,-81.944,0,1.9774e+08,-136.09,11394,11748,1,11748,1,0.00077341,7.1021e-10,0,0.00077341,-0.00020774,2.307e+08,168.34,0,2.307e+08,-72.618,11747,12524,1,12524,1,0.0011125,1.7874e-09,0,0.0011125,-0.00014429,3.1236e+08,446.95,0,3.1236e+08,-3.4652,12523,438.26,0,438.26,0,0.00019445,7.8723e-10,0,0.00019445,3.6393e-05,4.7538e+07,201.45,0,4.7538e+07,40.378,438.26,1
432,4.16,12137,1,12137,1,0.00094548,-1.682e-09,0,0.00094548,-0.00017649,2.7201e+08,-422.44,0,2.7201e+08,-82.837,12136,12879,1,12879,1,0.0012429,1.4363e-09,0,0.0012429,-0.00012084,3.4473e+08,370.3,0,3.4473e+08,101.16,12878,12136,1,12136,1,0.00094548,-1.046e-09,0,0.00094548,-0.00017648,2.7252e+08,-250.8,0,2.7252e+08,-80.908,12135,11395,1,11395,1,0.00064805,-7.3729e-09,0,0.00064805,-0.00023218,1.9823e+08,-1901.3,0,1.9823e+08,-281.36,11394,11748,1,11748,1,0.00077553,-3.3062e-09,0,0.00077553,-0.00020829,2.312e+08,-802.44,0,2.312e+08,-139.57,11747,12524,1,12524,1,0.0011154,1.2861e-10,0,0.0011154,-0.00014468,3.1284e+08,29.997,0,3.1284e+08,-14.441,12523,438.26,0,438.26,0,0.00019494,2.2603e-09,0,0.00019494,3.6483e-05,4.7537e+07,570.07,0,4.7537e+07,89.586,438.26,1
432,4.17,12137,1,12137,1,0.00094801,2.402e-10,0,0.00094801,-0.00017696,2.725e+08,56.748,0,2.725e+08,-64.684,12136,12879,1,12879,1,0.0012462,3.8335e-09,0,0.0012462,-0.00012117,3.4522e+08,988.24,0,3.4522e+08,82.724,12878,12136,1,12136,1,0.00094802,3.5135e-10,0,0.00094802,-0.00017695,2.7301e+08,84.104,0,2.7301e+08,-70.822,12135,11395,1,11395,1,0.00064985,-2.5917e-09,0,0.00064985,-0.00023279,1.9872e+08,-668.06,0,1.9872e+08,-187.88,11394,11748,1,11748,1,0.00077764,-3.7831e-10,0,0.00077764,-0.00020884,2.317e+08,-92.58,0,2.317e+08,-117,11747,12524,1,12524,1,0.0011184,8.59e-10,0,0.0011184,-0.00014508,3.1333e+08,205.25,0,3.1333e+08,-12.497,12523,438.26,0,438.26,0,0.00019542,1.1451e-09,0,0.00019542,3.6572e-05,4.7536e+07,288.53,0,4.7536e+07,65.104,438.26,1
432,4.18,12137,1,12137,1,0.00095061,-2.3807e-10,0,0.00095061,-0.00017744,2.7301e+08,-61.268,0,2.7301e+08,-27.934,12136,12879,1,12879,1,0.0012495,4.6799e-10,0,0.0012495,-0.00012151,3.4574e+08,110.19,0,3.4574e+08,32.265,12878,12136,1,12136,1,0.00095061,-1.2992e-10,0,0.00095061,-0.00017743,2.7351e+08,-30.748,0,2.7351e+08,-23.515,12135,11395,1,11395,1,0.00065169,-1.5067e-09,0,0.00065169,-0.00023341,1.9922e+08,-388.38,0,1.9922e+08,-86.609,11394,11748,1,11748,1,0.0007798,-6.9562e-10,0,0.0007798,-0.0002094,2.3221e+08,-172.24,0,2.3221e+08,-46.153,11747,12524,1,12524,1,0.0011214,2.7792e-10,0,0.0011214,-0.00014548,3.1383e+08,65.482,0,3.1383e+08,-11.831,12523,438.26,0,438.26,0,0.00019591,5.5296e-10,0,0.00019591,3.6665e-05,4.7537e+07,137.62,0,4.7537e+07,23.853,438.26,1
432,4.19,12137,1,12137,1,0.00095312,-9.6216e-10,0,0.00095312,-0.00017791,2.7349e+08,-243.83,0,2.7349e+08,-72.609,12136,12879,1,12879,1,0.0012528,4.1434e-09,0,0.0012528,-0.00012185,3.4623e+08,1067.5,0,3.4623e+08,124.88,12878,12136,1,12136,1,0.00095313,-2.025e-10,0,0.00095313,-0.0001779,2.7399e+08,-47.412,0,2.7399e+08,-81.187,12135,11395,1,11395,1,0.00065347,-7.1817e-09,0,0.00065347,-0.00023402,1.9971e+08,-1850.4,0,1.9971e+08,-260.59,11394,11748,1,11748,1,0.0007819,-2.7258e-09,0,0.0007819,-0.00020995,2.327e+08,-664.61,0,2.327e+08,-125.58,11747,12524,1,12524,1,0.0011244,8.2385e-10,0,0.0011244,-0.00014587,3.143e+08,199.49,0,3.143e+08,-17.584,12523,438.26,0,438.26,0,0.00019639,2.5038e-09,0,0.00019639,3.6753e-05,4.753e+07,628.77,0,4.753e+07,85.338,438.26,1
432,4.2,12137,1,12137,1,0.00095568,-1.0973e-09,0,0.00095568,-0.00017839,2.7398e+08,-278.07,0,2.7398e+08,-88.719,12136,12879,1,12879,1,0.0012561,1.747e-09,0,0.0012561,-0.00012218,3.4673e+08,406.73,0,3.4673e+08,97.317,12878,12136,1,12136,1,0.00095568,-3.6893e-10,0,0.00095568,-0.00017838,2.7449e+08,-90.942,0,2.7449e+08,-90.771,12135,11395,1,11395,1,0.00065528,-6.7577e-09,0,0.00065528,-0.00023463,2.002e+08,-1740.5,0,2.002e+08,-305.86,11394,11748,1,11748,1,0.00078403,-2.3562e-09,0,0.00078403,-0.0002105,2.332e+08,-570.29,0,2.332e+08,-149.2,11747,12524,1,12524,1,0.0011273,4.1403e-10,0,0.0011273,-0.00014627,3.1479e+08,97.552,0,3.1479e+08,-19.147,12523,438.26,0,438.26,0,0.00019688,2.0538e-09,0,0.00019688,3.6843e-05,4.7529e+07,516.36,0,4.7529e+07,93.157,438.26,1
432,4.21,12137,1,12137,1,0.00095825,6.2689e-11,0,0.00095825,-0.00017887,2.7448e+08,10.293,0,2.7448e+08,-60.196,12136,12879,1,12879,1,0.0012594,1.2409e-09,0,0.0012594,-0.00012252,3.4723e+08,288.7,0,3.4723e+08,54.45,12878,12136,1,12136,1,0.00095826,3.8316e-10,0,0.00095826,-0.00017885,2.7498e+08,92.138,0,2.7498e+08,-57.301,12135,11395,1,11395,1,0.00065711,-2.3271e-09,0,0.00065711,-0.00023525,2.007e+08,-599.1,0,2.007e+08,-201.81,11394,11748,1,11748,1,0.00078618,-4.6736e-10,0,0.00078618,-0.00021106,2.3371e+08,-114.81,0,2.3371e+08,-103.54,11747,12524,1,12524,1,0.0011303,6.4885e-10,0,0.0011303,-0.00014667,3.1527e+08,155,0,3.1527e+08,-13.651,12523,438.26,0,438.26,0,0.00019737,8.4468e-10,0,0.00019737,3.6935e-05,4.7526e+07,210.01,0,4.7526e+07,58.917,438.26,1
432,4.22,12137,1,12137,1,0.0009608,1.1789e-09,0,0.0009608,-0.00017934,2.7496e+08,292.78,0,2.7496e+08,-22.464,12136,12879,1,12879,1,0.0012627,4.3512e-09,0,0.0012627,-0.00012286,3.4771e+08,1120.1,0,3.4771e+08,50.584,12878,12136,1,12136,1,0.0009608,1.001e-09,0,0.0009608,-0.00017933,2.7546e+08,244.3,0,2.7546e+08,-25.068,12135,11395,1,11395,1,0.00065893,-5.2844e-10,0,0.00065893,-0.00023585,2.0119e+08,-122.53,0,2.0119e+08,-115.42,11394,11748,1,11748,1,0.0007883,4.0887e-10,0,0.0007883,-0.00021161,2.342e+08,96.142,0,2.342e+08,-48.767,11747,12524,1,12524,1,0.0011333,1.8967e-09,0,0.0011333,-0.00014706,3.1574e+08,469.52,0,3.1574e+08,5.7183,12523,438.26,0,438.26,0,0.00019785,1.0124e-09,0,0.00019785,3.7024e-05,4.7519e+07,255.87,0,4.7519e+07,36.173,438.26,1
432,4.23,12137,1,12137,1,0.00096337,-2.2032e-09,0,0.00096337,-0.00017982,2.7545e+08,-549.3,0,2.7545e+08,-54.484,12136,12879,1,12879,1,0.001266,1.0677e-09,0,0.001266,-0.0001232,3.4821e+08,247.41,0,3.4821e+08,87.592,12878,12136,1,12136,1,0.00096338,-1.826e-09,0,0.00096338,-0.00017981,2.7595e+08,-446.46,0,2.7595e+08,-50.517,12135,11395,1,11395,1,0.00066075,-6.9004e-09,0,0.00066075,-0.00023647,2.0168e+08,-1775.8,0,2.0168e+08,-230.27,11394,11748,1,11748,1,0.00079046,-3.6674e-09,0,0.00079046,-0.00021217,2.347e+08,-899.7,0,2.347e+08,-91.237,11747,12524,1,12524,1,0.0011363,-5.4643e-10,0,0.0011363,-0.00014746,3.1622e+08,-128.29,0,3.1622e+08,-13.023,12523,438.26,0,438.26,0,0.00019834,2.0692e-09,0,0.00019834,3.7115e-05,4.7515e+07,521.97,0,4.7515e+07,64.168,438.26,1
432,4.24,12137,1,12137,1,0.00096604,-1.0227e-09,0,0.00096604,-0.00018031,2.759e+08,-258.31,0,2.759e+08,-55.462,12136,12879,1,12879,1,0.0012694,1.1407e-09,0,0.0012694,-0.00012355,3.4865e+08,264.34,0,3.4865e+08,53.886,12878,12136,1,12136,1,0.00096604,-7.5936e-10,0,0.00096604,-0.0001803,2.764e+08,-186.35,0,2.764e+08,-49.654,12135,11395,1,11395,1,0.00066266,-4.8745e-09,0,0.00066266,-0.00023711,2.0214e+08,-1253.4,0,2.0214e+08,-211.67,11394,11748,1,11748,1,0.00079269,-1.8432e-09,0,0.00079269,-0.00021275,2.3516e+08,-457.21,0,2.3516e+08,-93.827,11747,12524,1,12524,1,0.0011394,1.0809e-10,0,0.0011394,-0.00014787,3.1666e+08,25.56,0,3.1666e+08,-10.156,12523,438.26,0,438.26,0,0.00019883,1.4608e-09,0,0.00019883,3.7207e-05,4.7507e+07,366.17,0,4.7507e+07,60.91,438.26,1
432,4.25,12137,1,12137,1,0.00096871,9.8662e-10,0,0.00096871,-0.00018081,2.7634e+08,242.84,0,2.7634e+08,-36.842,12136,12879,1,12879,1,0.0012728,3.038e-09,0,0.0012728,-0.00012391,3.4908e+08,780.86,0,3.4908e+08,27.912,12878,12136,1,12136,1,0.00096872,9.4935e-10,0,0.00096872,-0.0001808,2.7684e+08,229.29,0,2.7684e+08,-36.889,12135,11395,1,11395,1,0.00066459,-1.7363e-10,0,0.00066459,-0.00023774,2.026e+08,-40.008,0,2.026e+08,-98.233,11394,11748,1,11748,1,0.00079493,4.9815e-10,0,0.00079493,-0.00021332,2.3562e+08,117.83,0,2.3562e+08,-65.356,11747,12524,1,12524,1,0.0011425,1.3242e-09,0,0.0011425,-0.00014829,3.1709e+08,330.9,0,3.1709e+08,-10.862,12523,438.26,0,438.26,0,0.00019932,6.4204e-10,0,0.00019932,3.7299e-05,4.7494e+07,162.64,0,4.7494e+07,31.897,438.26,1
432,4.26,12137,1,12137,1,0.0009714,-1.8188e-09,0,0.0009714,-0.00018131,2.7679e+08,-454.31,0,2.7679e+08,-67.283,12136,12879,1,12879,1,0.0012763,1.2588e-09,0,0.0012763,-0.00012427,3.4951e+08,290.54,0,3.4951e+08,63.959,12878,12136,1,12136,1,0.00097141,-1.405e-09,0,0.00097141,-0.0001813,2.7728e+08,-350.14,0,2.7728e+08,-64.169,12135,11395,1,11395,1,0.00066651,-6.7546e-09,0,0.00066651,-0.00023839,2.0306e+08,-1734.9,0,2.0306e+08,-236.47,11394,11748,1,11748,1,0.00079719,-3.0898e-09,0,0.00079719,-0.0002139,2.3608e+08,-754.9,0,2.3608e+08,-106.45,11747,12524,1,12524,1,0.0011456,-2.2385e-10,0,0.0011456,-0.00014871,3.1751e+08,-52.703,0,3.1751e+08,-18.676,12523,438.26,0,438.26,0,0.00019982,2.0146e-09,0,0.00019982,3.7391e-05,4.748e+07,505.41,0,4.748e+07,68.874,438.26,1
432,4.27,12137,1,12137,1,0.0009741,6.9954e-10,0,0.0009741,-0.00018181,2.7723e+08,171.75,0,2.7723e+08,-13.351,12136,12879,1,12879,1,0.0012797,1.2707e-09,0,0.0012797,-0.00012463,3.4994e+08,314.38,0,3.4994e+08,26.494,12878,12136,1,12136,1,0.0009741,7.6111e-10,0,0.0009741,-0.0001818,2.7772e+08,186.41,0,2.7772e+08,-9.4992,12135,11395,1,11395,1,0.00066846,-4.713e-11,0,0.00066846,-0.00023902,2.0352e+08,-10.768,0,2.0352e+08,-52.613,11394,11748,1,11748,1,0.00079945,4.4427e-10,0,0.00079945,-0.00021448,2.3653e+08,104.55,0,2.3653e+08,-26.122,11747,12524,1,12524,1,0.0011488,1.0263e-09,0,0.0011488,-0.00014913,3.1793e+08,252.2,0,3.1793e+08,-0.96638,12523,438.26,0,438.26,0,0.00020032,3.8201e-10,0,0.00020032,3.7483e-05,4.7466e+07,95.533,0,4.7466e+07,16.96,438.26,1
432,4.28,12137,1,12137,1,0.00097677,9.3995e-10,0,0.00097677,-0.00018231,2.7766e+08,233.05,0,2.7766e+08,-39.481,12136,12879,1,12879,1,0.0012832,4.4565e-09,0,0.0012832,-0.00012499,3.5035e+08,1143.2,0,3.5035e+08,30.064,12878,12136,1,12136,1,0.00097678,5.6227e-10,0,0.00097678,-0.00018229,2.7815e+08,135.73,0,2.7815e+08,-35.611,12135,11395,1,11395,1,0.00067039,-4.3422e-10,0,0.00067039,-0.00023966,2.0398e+08,-110.12,0,2.0398e+08,-126.77,11394,11748,1,11748,1,0.0008017,7.0082e-11,0,0.0008017,-0.00021506,2.3699e+08,16.869,0,2.3699e+08,-61.793,11747,12524,1,12524,1,0.0011519,1.6061e-09,0,0.0011519,-0.00014955,3.1834e+08,396.24,0,3.1834e+08,-14.726,12523,438.26,0,438.26,0,0.00020081,1.1206e-09,0,0.00020081,3.7575e-05,4.7448e+07,280.94,0,4.7448e+07,35.882,438.26,1
432,4.29,12137,1,12137,1,0.00097942,-2.4646e-09,0,0.00097942,-0.0001828,2.7808e+08,-609.17,0,2.7808e+08,-86.848,12136,12879,1,12879,1,0.0012866,8.5507e-10,0,0.0012866,-0.00012534,3.5076e+08,196.42,0,3.5076e+08,72.981,12878,12136,1,12136,1,0.00097943,-1.8157e-09,0,0.00097943,-0.00018279,2.7857e+08,-445.11,0,2.7857e+08,-82.375,12135,11395,1,11395,1,0.00067229,-8.6149e-09,0,0.00067229,-0.00024029,2.0442e+08,-2208.5,0,2.0442e+08,-308.46,11394,11748,1,11748,1,0.00080392,-4.156e-09,0,0.00080392,-0.00021563,2.3743e+08,-1003.3,0,2.3743e+08,-139.58,11747,12524,1,12524,1,0.0011549,-4.2711e-10,0,0.0011549,-0.00014996,3.1875e+08,-100.27,0,3.1875e+08,-15.371,12523,438.26,0,438.26,0,0.00020129,2.4734e-09,0,0.00020129,3.7665e-05,4.743e+07,621.11,0,4.743e+07,84.384,438.26,1
432,4.3,12137,1,12137,1,0.00098215,-1.8543e-10,0,0.00098215,-0.00018331,2.7853e+08,-49.392,0,2.7853e+08,-42.45,12136,12879,1,12879,1,0.0012901,8.4669e-10,0,0.0012901,-0.00012571,3.5119e+08,194.61,0,3.5119e+08,53.022,12878,12136,1,12136,1,0.00098216,6.3226e-11,0,0.00098216,-0.00018329,2.7902e+08,15.044,0,2.7902e+08,-39.121,12135,11395,1,11395,1,0.00067425,-2.1793e-09,0,0.00067425,-0.00024095,2.0489e+08,-558.16,0,2.0489e+08,-178.01,11394,11748,1,11748,1,0.00080622,-5.564e-10,0,0.00080622,-0.00021622,2.379e+08,-135.71,0,2.379e+08,-73.605,11747,12524,1,12524,1,0.0011581,2.7049e-10,0,0.0011581,-0.00015039,3.1918e+08,63.947,0,3.1918e+08,-5.9205,12523,438.26,0,438.26,0,0.0002018,6.9833e-10,0,0.0002018,3.7759e-05,4.7417e+07,173.21,0,4.7417e+07,50.339,438.26,1
432,4.31,12137,1,12137,1,0.00098486,1.0744e-09,0,0.00098486,-0.00018381,2.7896e+08,265.12,0,2.7896e+08,-22.48,12136,12879,1,12879,1,0.0012935,3.2745e-09,0,0.0012935,-0.00012607,3.516e+08,838.36,0,3.516e+08,29.468,12878,12136,1,12136,1,0.00098486,1.1629e-09,0,0.00098486,-0.0001838,2.7945e+08,277.06,0,2.7945e+08,-17.996,12135,11395,1,11395,1,0.00067621,-5.0112e-10,0,0.00067621,-0.00024159,2.0535e+08,-114.77,0,2.0535e+08,-94.939,11394,11748,1,11748,1,0.00080849,4.9112e-10,0,0.00080849,-0.0002168,2.3835e+08,114.22,0,2.3835e+08,-44.306,11747,12524,1,12524,1,0.0011612,1.6388e-09,0,0.0011612,-0.00015081,3.1958e+08,408.39,0,3.1958e+08,0.96299,12523,438.26,0,438.26,0,0.0002023,7.9622e-10,0,0.0002023,3.7851e-05,4.7397e+07,199.97,0,4.7397e+07,30.637,438.26,1
432,4.32,12137,1,12137,1,0.0009875,-3.2436e-09,0,0.0009875,-0.0001843,2.7938e+08,-801.71,0,2.7938e+08,-123.58,12136,12879,1,12879,1,0.0012969,2.5918e-09,0,0.0012969,-0.00012642,3.52e+08,662.93,0,3.52e+08,138.45,12878,12136,1,12136,1,0.00098751,-2.1885e-09,0,0.00098751,-0.00018429,2.7986e+08,-524.01,0,2.7986e+08,-131.92,12135,11395,1,11395,1,0.0006781,-1.2751e-08,0,0.0006781,-0.00024222,2.0579e+08,-3262.5,0,2.0579e+08,-449.92,11394,11748,1,11748,1,0.00081071,-6.1047e-09,0,0.00081071,-0.00021737,2.3879e+08,-1480.4,0,2.3879e+08,-202.4,11747,12524,1,12524,1,0.0011643,1.5197e-10,0,0.0011643,-0.00015122,3.1997e+08,36.209,0,3.1997e+08,-14.736,12523,438.26,0,438.26,0,0.00020278,3.9619e-09,0,0.00020278,3.7941e-05,4.7374e+07,989.3,0,4.7374e+07,128.36,438.26,1
432,4.33,12137,1,12137,1,0.00099023,-1.2542e-11,0,0.00099023,-0.00018481,2.7982e+08,-7.97,0,2.7982e+08,-67.654,12136,12879,1,12879,1,0.0013004,1.1637e-09,0,0.0013004,-0.00012679,3.5242e+08,266.49,0,3.5242e+08,67.553,12878,12136,1,12136,1,0.00099024,2.2128e-10,0,0.00099024,-0.00018479,2.8031e+08,52.885,0,2.8031e+08,-60.404,12135,11395,1,11395,1,0.00068007,-2.6914e-09,0,0.00068007,-0.00024287,2.0626e+08,-687.83,0,2.0626e+08,-256.59,11394,11748,1,11748,1,0.00081301,-2.1269e-10,0,0.00081301,-0.00021796,2.3925e+08,-50.371,0,2.3925e+08,-127.07,11747,12524,1,12524,1,0.0011675,4.3897e-10,0,0.0011675,-0.00015165,3.204e+08,103.97,0,3.204e+08,-1.1697,12523,438.26,0,438.26,0,0.00020328,7.8576e-10,0,0.00020328,3.8034e-05,4.7359e+07,193.96,0,4.7359e+07,75.62,438.26,1
432,4.34,12137,1,12137,1,0.00099295,6.7823e-10,0,0.00099295,-0.00018531,2.8025e+08,164.62,0,2.8025e+08,-34.445,12136,12879,1,12879,1,0.0013039,1.0621e-09,0,0.0013039,-0.00012715,3.5282e+08,255.95,0,3.5282e+08,23.444,12878,12136,1,12136,1,0.00099296,7.7795e-10,0,0.00099296,-0.0001853,2.8073e+08,189.23,0,2.8073e+08,-29.169,12135,11395,1,11395,1,0.00068203,1.4322e-11,0,0.00068203,-0.00024351,2.0672e+08,3.2004,0,2.0672e+08,-107.58,11394,11748,1,11748,1,0.00081529,5.0591e-10,0,0.00081529,-0.00021855,2.397e+08,119.47,0,2.397e+08,-60.766,11747,12524,1,12524,1,0.0011706,8.8794e-10,0,0.0011706,-0.00015207,3.208e+08,220.42,0,3.208e+08,-5.2274,12523,438.26,0,438.26,0,0.00020378,2.79e-10,0,0.00020378,3.8127e-05,4.7337e+07,69.93,0,4.7337e+07,32.085,438.26,1
432,4.35,12137,1,12137,1,0.00099566,-1.5582e-09,0,0.00099566,-0.00018581,2.8067e+08,-386.14,0,2.8067e+08,-51.495,12136,12879,1,12879,1,0.0013074,1.1987e-09,0,0.0013074,-0.00012751,3.5323e+08,273,0,3.5323e+08,79.315,12878,12136,1,12136,1,0.00099567,-1.0355e-09,0,0.00099567,-0.0001858,2.8116e+08,-244.83,0,2.8116e+08,-46.61,12135,11395,1,11395,1,0.00068398,-6.3683e-09,0,0.00068398,-0.00024416,2.0717e+08,-1626.2,0,2.0717e+08,-231.46,11394,11748,1,11748,1,0.00081757,-2.8411e-09,0,0.00081757,-0.00021913,2.4015e+08,-681.32,0,2.4015e+08,-85.286,11747,12524,1,12524,1,0.0011738,-6.0454e-12,0,0.0011738,-0.00015249,3.212e+08,-1.3641,0,3.212e+08,-3.1302,12523,438.26,0,438.26,0,0.00020428,1.914e-09,0,0.00020428,3.8219e-05,4.7315e+07,476.42,0,4.7315e+07,70.025,438.26,1
432,4.36,12137,1,12137,1,0.00099839,6.9527e-10,0,0.00099839,-0.00018632,2.811e+08,166.89,0,2.811e+08,-26.42,12136,12879,1,12879,1,0.0013108,1.0568e-09,0,0.0013108,-0.00012788,3.5362e+08,254.07,0,3.5362e+08,63.587,12878,12136,1,12136,1,0.00099839,7.5619e-10,0,0.00099839,-0.00018631,2.8158e+08,178.2,0,2.8158e+08,-25.514,12135,11395,1,11395,1,0.00068595,1.4967e-10,0,0.00068595,-0.0002448,2.0763e+08,34.027,0,2.0763e+08,-104.3,11394,11748,1,11748,1,0.00081986,5.8048e-10,0,0.00081986,-0.00021972,2.406e+08,134.75,0,2.406e+08,-54.4,11747,12524,1,12524,1,0.0011769,8.4346e-10,0,0.0011769,-0.00015292,3.216e+08,205.12,0,3.216e+08,-1.0325,12523,438.26,0,438.26,0,0.00020478,1.9386e-10,0,0.00020478,3.8312e-05,4.7293e+07,47.608,0,4.7293e+07,34.42,438.26,1
432,4.37,12137,1,12137,1,0.0010011,2.4832e-10,0,0.0010011,-0.00018682,2.8152e+08,61.305,0,2.8152e+08,-14.264,12136,12879,1,12879,1,0.0013143,1.2402e-09,0,0.0013143,-0.00012824,3.5402e+08,316.33,0,3.5402e+08,42.806,12878,12136,1,12136,1,0.0010011,1.7712e-10,0,0.0010011,-0.00018681,2.82e+08,41.562,0,2.82e+08,-11.999,12135,11395,1,11395,1,0.00068791,-5.7692e-10,0,0.00068791,-0.00024545,2.0808e+08,-147.05,0,2.0808e+08,-68.072,11394,11748,1,11748,1,0.00082213,-2.9933e-11,0,0.00082213,-0.0002203,2.4104e+08,-6.8305,0,2.4104e+08,-30.567,11747,12524,1,12524,1,0.0011801,4.9579e-10,0,0.0011801,-0.00015334,3.2199e+08,120.56,0,3.2199e+08,4.1605,12523,438.26,0,438.26,0,0.00020527,3.8145e-10,0,0.00020527,3.8404e-05,4.7268e+07,94.501,0,4.7268e+07,23.842,438.26,1
432,4.38,12137,1,12137,1,0.0010038,4.3818e-10,0,0.0010038,-0.00018732,2.8194e+08,109.46,0,2.8194e+08,-2.8453,12136,12879,1,12879,1,0.0013178,2.1467e-09,0,0.0013178,-0.00012861,3.5441e+08,547.06,0,3.5441e+08,44.567,12878,12136,1,12136,1,0.0010038,3.7222e-10,0,0.0010038,-0.00018731,2.8241e+08,87.585,0,2.8241e+08,-3.6782,12135,11395,1,11395,1,0.00068985,-6.602e-10,0,0.00068985,-0.00024609,2.0853e+08,-149.68,0,2.0853e+08,-42.549,11394,11748,1,11748,1,0.0008244,-1.7181e-12,0,0.0008244,-0.00022088,2.4149e+08,-0.40264,0,2.4149e+08,-17.262,11747,12524,1,12524,1,0.0011832,8.6984e-10,0,0.0011832,-0.00015376,3.2238e+08,213.15,0,3.2238e+08,8.064,12523,438.26,0,438.26,0,0.00020576,6.0374e-10,0,0.00020576,3.8495e-05,4.7243e+07,148.79,0,4.7243e+07,18.345,438.26,1
432,4.39,12137,1,12137,1,0.0010065,-1.3012e-10,0,0.0010065,-0.00018783,2.8235e+08,-31.907,0,2.8235e+08,-33.341,12136,12879,1,12879,1,0.0013212,2.7577e-09,0,0.0013212,-0.00012897,3.5479e+08,702.25,0,3.5479e+08,49.855,12878,12136,1,12136,1,0.0010065,-8.6097e-11,0,0.0010065,-0.00018781,2.8283e+08,-19.937,0,2.8283e+08,-34.781,12135,11395,1,11395,1,0.0006918,-1.8014e-09,0,0.0006918,-0.00024673,2.0899e+08,-458.81,0,2.0899e+08,-119.13,11394,11748,1,11748,1,0.00082668,-6.6198e-10,0,0.00082668,-0.00022146,2.4193e+08,-157.29,0,2.4193e+08,-56.911,11747,12524,1,12524,1,0.0011863,2.605e-10,0,0.0011863,-0.00015419,3.2277e+08,60.606,0,3.2277e+08,-6.9331,12523,438.26,0,438.26,0,0.00020626,8.1412e-10,0,0.00020626,3.8587e-05,4.7218e+07,201.74,0,4.7218e+07,36.537,438.26,1
432,4.4,12137,1,12137,1,0.0010092,6.6108e-10,0,0.0010092,-0.00018833,2.8278e+08,161.72,0,2.8278e+08,-5.6299,12136,12879,1,12879,1,0.0013247,1.9038e-09,0,0.0013247,-0.00012933,3.5519e+08,484.65,0,3.5519e+08,19.578,12878,12136,1,12136,1,0.0010092,6.3107e-10,0,0.0010092,-0.00018832,2.8325e+08,149.61,0,2.8325e+08,-0.35204,12135,11395,1,11395,1,0.00069378,-2.5969e-10,0,0.00069378,-0.00024738,2.0944e+08,-58.943,0,2.0944e+08,-49.076,11394,11748,1,11748,1,0.00082898,2.0572e-10,0,0.00082898,-0.00022205,2.4238e+08,47.521,0,2.4238e+08,-17.911,11747,12524,1,12524,1,0.0011895,1.0569e-09,0,0.0011895,-0.00015461,3.2316e+08,257.81,0,3.2316e+08,8.2427,12523,438.26,0,438.26,0,0.00020676,5.5674e-10,0,0.00020676,3.868e-05,4.7194e+07,138.59,0,4.7194e+07,18.147,438.26,1
432,4.41,12137,1,12137,1,0.0010119,-8.99e-11,0,0.0010119,-0.00018884,2.8318e+08,-20.852,0,2.8318e+08,-30.784,12136,12879,1,12879,1,0.0013282,3.4533e-09,0,0.0013282,-0.0001297,3.5556e+08,878.26,0,3.5556e+08,75.232,12878,12136,1,12136,1,0.0010119,-1.3557e-10,0,0.0010119,-0.00018882,2.8366e+08,-31.134,0,2.8366e+08,-33.85,12135,11395,1,11395,1,0.00069573,-2.6008e-09,0,0.00069573,-0.00024802,2.0989e+08,-661.58,0,2.0989e+08,-125.21,11394,11748,1,11748,1,0.00083125,-7.2368e-10,0,0.00083125,-0.00022263,2.4282e+08,-168.16,0,2.4282e+08,-61.335,11747,12524,1,12524,1,0.0011926,4.4042e-10,0,0.0011926,-0.00015504,3.2354e+08,103.04,0,3.2354e+08,4.9471,12523,438.26,0,438.26,0,0.00020725,1.182e-09,0,0.00020725,3.8771e-05,4.7165e+07,292.15,0,4.7165e+07,43.529,438.26,1
432,4.42,12137,1,12137,1,0.0010146,-2.1758e-09,0,0.0010146,-0.00018933,2.8359e+08,-533.93,0,2.8359e+08,-86.857,12136,12879,1,12879,1,0.0013316,1.4346e-09,0,0.0013316,-0.00013006,3.5594e+08,323.18,0,3.5594e+08,103.02,12878,12136,1,12136,1,0.0010146,-1.3402e-09,0,0.0010146,-0.00018932,2.8406e+08,-329.54,0,2.8406e+08,-84.595,12135,11395,1,11395,1,0.00069766,-9.0864e-09,0,0.00069766,-0.00024866,2.1034e+08,-2309.7,0,2.1034e+08,-359.84,11394,11748,1,11748,1,0.00083352,-4.0371e-09,0,0.00083352,-0.00022321,2.4325e+08,-957.6,0,2.4325e+08,-141.95,11747,12524,1,12524,1,0.0011958,4.353e-12,0,0.0011958,-0.00015545,3.2391e+08,0.82711,0,3.2391e+08,-8.5795,12523,438.26,0,438.26,0,0.00020774,2.6997e-09,0,0.00020774,3.8862e-05,4.7136e+07,668.09,0,4.7136e+07,103.74,438.26,1
432,4.43,12137,1,12137,1,0.0010174,5.4717e-10,0,0.0010174,-0.00018984,2.8401e+08,128.83,0,2.8401e+08,-55.5,12136,12879,1,12879,1,0.0013351,2.2953e-09,0,0.0013351,-0.00013042,3.5632e+08,582.96,0,3.5632e+08,61.801,12878,12136,1,12136,1,0.0010174,6.4763e-10,0,0.0010174,-0.00018983,2.8448e+08,149.07,0,2.8448e+08,-51.771,12135,11395,1,11395,1,0.00069964,-1.4617e-09,0,0.00069964,-0.00024931,2.1079e+08,-371.02,0,2.1079e+08,-220.82,11394,11748,1,11748,1,0.00083582,2.4662e-10,0,0.00083582,-0.0002238,2.437e+08,59.742,0,2.437e+08,-98.444,11747,12524,1,12524,1,0.0011989,9.0735e-10,0,0.0011989,-0.00015588,3.243e+08,210.74,0,3.243e+08,-1.7665,12523,438.26,0,438.26,0,0.00020824,6.4325e-10,0,0.00020824,3.8955e-05,4.7111e+07,158.54,0,4.7111e+07,65.099,438.26,1
432,4.44,12137,1,12137,1,0.0010201,-2.4105e-10,0,0.0010201,-0.00019035,2.8442e+08,-60.343,0,2.8442e+08,-56.881,12136,12879,1,12879,1,0.0013386,3.5141e-09,0,0.0013386,-0.00013079,3.5669e+08,891.94,0,3.5669e+08,81.949,12878,12136,1,12136,1,0.0010201,-3.6912e-11,0,0.0010201,-0.00019033,2.8488e+08,-8.3798,0,2.8488e+08,-55.863,12135,11395,1,11395,1,0.00070161,-3.3531e-09,0,0.00070161,-0.00024996,2.1124e+08,-851,0,2.1124e+08,-222.29,11394,11748,1,11748,1,0.00083811,-9.5958e-10,0,0.00083811,-0.00022439,2.4414e+08,-229.04,0,2.4414e+08,-107.07,11747,12524,1,12524,1,0.0012021,4.1829e-10,0,0.0012021,-0.00015631,3.2468e+08,95.816,0,3.2468e+08,-1.0506,12523,438.26,0,438.26,0,0.00020873,1.2438e-09,0,0.00020873,3.9047e-05,4.708e+07,307.44,0,4.708e+07,67.985,438.26,1
432,4.45,12137,1,12137,1,0.0010228,1.2828e-09,0,0.0010228,-0.00019086,2.8483e+08,314.04,0,2.8483e+08,-7.9782,12136,12879,1,12879,1,0.0013421,3.5736e-09,0,0.0013421,-0.00013116,3.5708e+08,906.8,0,3.5708e+08,51.459,12878,12136,1,12136,1,0.0010228,1.2931e-09,0,0.0010228,-0.00019084,2.8529e+08,317.14,0,2.8529e+08,-2.3732,12135,11395,1,11395,1,0.0007036,-8.1073e-10,0,0.0007036,-0.00025061,2.117e+08,-181.93,0,2.117e+08,-97.248,11394,11748,1,11748,1,0.00084042,2.7149e-10,0,0.00084042,-0.00022498,2.4458e+08,62.298,0,2.4458e+08,-23.438,11747,12524,1,12524,1,0.0012053,2.3324e-09,0,0.0012053,-0.00015674,3.2506e+08,560.37,0,3.2506e+08,11.468,12523,438.26,0,438.26,0,0.00020923,1.2574e-09,0,0.00020923,3.914e-05,4.7051e+07,308.44,0,4.7051e+07,27.179,438.26,1
432,4.46,12137,1,12137,1,0.0010256,-1.7126e-09,0,0.0010256,-0.00019137,2.8523e+08,-416.96,0,2.8523e+08,-34.424,12136,12879,1,12879,1,0.0013456,6.4495e-10,0,0.0013456,-0.00013153,3.5744e+08,144.16,0,3.5744e+08,59.237,12878,12136,1,12136,1,0.0010256,-1.8269e-09,0,0.0010256,-0.00019135,2.857e+08,-438.4,0,2.857e+08,-35.188,12135,11395,1,11395,1,0.00070558,-4.0782e-09,0,0.00070558,-0.00025126,2.1215e+08,-1034,0,2.1215e+08,-130.05,11394,11748,1,11748,1,0.00084273,-2.6901e-09,0,0.00084273,-0.00022556,2.4502e+08,-650.76,0,2.4502e+08,-61.672,11747,12524,1,12524,1,0.0012084,-6.4036e-10,0,0.0012084,-0.00015716,3.2543e+08,-145.75,0,3.2543e+08,-8.922,12523,438.26,0,438.26,0,0.00020973,1.3062e-09,0,0.00020973,3.9232e-05,4.7019e+07,324.24,0,4.7019e+07,38.035,438.26,1
432,4.47,12137,1,12137,1,0.0010283,-5.849e-10,0,0.0010283,-0.00019187,2.8563e+08,-145.54,0,2.8563e+08,-50.097,12136,12879,1,12879,1,0.0013491,3.4691e-09,0,0.0013491,-0.00013189,3.578e+08,878.82,0,3.578e+08,98.092,12878,12136,1,12136,1,0.0010283,-4.8507e-11,0,0.0010283,-0.00019185,2.8609e+08,-10.837,0,2.8609e+08,-53.311,12135,11395,1,11395,1,0.00070753,-5.1276e-09,0,0.00070753,-0.0002519,2.1259e+08,-1299,0,2.1259e+08,-223.09,11394,11748,1,11748,1,0.00084501,-1.816e-09,0,0.00084501,-0.00022615,2.4545e+08,-437.77,0,2.4545e+08,-96.156,11747,12524,1,12524,1,0.0012116,6.965e-10,0,0.0012116,-0.00015759,3.2579e+08,159.85,0,3.2579e+08,1.4772,12523,438.26,0,438.26,0,0.00021022,1.8182e-09,0,0.00021022,3.9323e-05,4.6985e+07,446.26,0,4.6985e+07,68.731,438.26,1
432,4.48,12137,1,12137,1,0.001031,2.0367e-09,0,0.001031,-0.00019238,2.8604e+08,494.66,0,2.8604e+08,-14.176,12136,12879,1,12879,1,0.0013525,4.3691e-09,0,0.0013525,-0.00013226,3.5817e+08,1106.3,0,3.5817e+08,57.967,12878,12136,1,12136,1,0.001031,2.3137e-09,0,0.001031,-0.00019236,2.8649e+08,547.92,0,2.8649e+08,-11.471,12135,11395,1,11395,1,0.00070952,-8.0986e-10,0,0.00070952,-0.00025255,2.1304e+08,-180.74,0,2.1304e+08,-124.83,11394,11748,1,11748,1,0.00084731,7.6718e-10,0,0.00084731,-0.00022674,2.4589e+08,174.02,0,2.4589e+08,-30.561,11747,12524,1,12524,1,0.0012147,3.3274e-09,0,0.0012147,-0.00015801,3.2616e+08,820.12,0,3.2616e+08,6.7919,12523,438.26,0,438.26,0,0.00021072,1.4856e-09,0,0.00021072,3.9415e-05,4.6954e+07,368.04,0,4.6954e+07,31.739,438.26,1
432,4.49,12137,1,12137,1,0.0010338,-1.5522e-09,0,0.0010338,-0.00019289,2.8644e+08,-377.36,0,2.8644e+08,-61.623,12136,12879,1,12879,1,0.0013561,8.6504e-10,0,0.0013561,-0.00013263,3.5853e+08,192.57,0,3.5853e+08,53.133,12878,12136,1,12136,1,0.0010338,-1.2322e-09,0,0.0010338,-0.00019287,2.869e+08,-293.18,0,2.869e+08,-62.046,12135,11395,1,11395,1,0.00071151,-5.0484e-09,0,0.00071151,-0.0002532,2.135e+08,-1277.4,0,2.135e+08,-209.97,11394,11748,1,11748,1,0.00084962,-2.6226e-09,0,0.00084962,-0.00022733,2.4632e+08,-625.74,0,2.4632e+08,-100.27,11747,12524,1,12524,1,0.0012179,-4.2307e-10,0,0.0012179,-0.00015844,3.2653e+08,-96.767,0,3.2653e+08,-15.948,12523,438.26,0,438.26,0,0.00021121,1.4832e-09,0,0.00021121,3.9508e-05,4.6921e+07,365.49,0,4.6921e+07,58.778,438.26,1
432,4.5,12137,1,12137,1,0.0010365,-1.7832e-10,0,0.0010365,-0.0001934,2.8684e+08,-45.819,0,2.8684e+08,-50.107,12136,12879,1,12879,1,0.0013595,1.5101e-09,0,0.0013595,-0.00013299,3.5888e+08,381.72,0,3.5888e+08,56.12,12878,12136,1,12136,1,0.0010365,1.2722e-10,0,0.0010365,-0.00019338,2.8729e+08,28.812,0,2.8729e+08,-49.765,12135,11395,1,11395,1,0.00071349,-2.7386e-09,0,0.00071349,-0.00025385,2.1395e+08,-692.27,0,2.1395e+08,-194.79,11394,11748,1,11748,1,0.00085193,-6.6796e-10,0,0.00085193,-0.00022791,2.4676e+08,-157.4,0,2.4676e+08,-89.382,11747,12524,1,12524,1,0.0012211,3.8917e-10,0,0.0012211,-0.00015887,3.2689e+08,90.749,0,3.2689e+08,-1.6282,12523,438.26,0,438.26,0,0.00021171,8.9948e-10,0,0.00021171,3.96e-05,4.6885e+07,220.53,0,4.6885e+07,55.776,438.26,1
432,4.51,12137,1,12137,1,0.0010393,-2.3437e-09,0,0.0010393,-0.00019391,2.8723e+08,-571.89,0,2.8723e+08,-74.138,12136,12879,1,12879,1,0.0013631,1.6122e-09,0,0.0013631,-0.00013336,3.5924e+08,358.23,0,3.5924e+08,111.08,12878,12136,1,12136,1,0.0010393,-1.8457e-09,0,0.0010393,-0.00019389,2.8769e+08,-433.34,0,2.8769e+08,-70.195,12135,11395,1,11395,1,0.00071546,-8.3919e-09,0,0.00071546,-0.00025451,2.1439e+08,-2120.3,0,2.1439e+08,-310.98,11394,11748,1,11748,1,0.00085424,-4.0773e-09,0,0.00085424,-0.0002285,2.4719e+08,-985.86,0,2.4719e+08,-130.28,11747,12524,1,12524,1,0.0012243,-2.7424e-10,0,0.0012243,-0.0001593,3.2725e+08,-61.938,0,3.2725e+08,-10.319,12523,438.26,0,438.26,0,0.00021221,2.5472e-09,0,0.00021221,3.9692e-05,4.685e+07,626.19,0,4.685e+07,91.803,438.26,1
432,4.52,12137,1,12137,1,0.001042,6.3427e-10,0,0.001042,-0.00019441,2.8763e+08,149.11,0,2.8763e+08,-47.205,12136,12879,1,12879,1,0.0013665,4.213e-09,0,0.0013665,-0.00013373,3.5958e+08,1063.7,0,3.5958e+08,81.577,12878,12136,1,12136,1,0.001042,6.2098e-10,0,0.001042,-0.0001944,2.8808e+08,141.58,0,2.8808e+08,-48.559,12135,11395,1,11395,1,0.00071745,-1.8779e-09,0,0.00071745,-0.00025515,2.1484e+08,-473.82,0,2.1484e+08,-192.72,11394,11748,1,11748,1,0.00085655,1.0868e-10,0,0.00085655,-0.00022909,2.4762e+08,26.11,0,2.4762e+08,-103.7,11747,12524,1,12524,1,0.0012274,1.0048e-09,0,0.0012274,-0.00015973,3.276e+08,233.56,0,3.276e+08,10.297,12523,438.26,0,438.26,0,0.0002127,1.0334e-09,0,0.0002127,3.9784e-05,4.6813e+07,253.65,0,4.6813e+07,65.207,438.26,1
432,4.53,12137,1,12137,1,0.0010447,1.41e-09,0,0.0010447,-0.00019492,2.8801e+08,345.93,0,2.8801e+08,-28.718,12136,12879,1,12879,1,0.00137,5.9667e-09,0,0.00137,-0.00013409,3.5992e+08,1505.3,0,3.5992e+08,104.24,12878,12136,1,12136,1,0.0010447,1.5555e-09,0,0.0010447,-0.0001949,2.8846e+08,362.31,0,2.8846e+08,-19.945,12135,11395,1,11395,1,0.00071942,-1.6792e-09,0,0.00071942,-0.00025579,2.1528e+08,-371.69,0,2.1528e+08,-245.64,11394,11748,1,11748,1,0.00085883,1.628e-10,0,0.00085883,-0.00022967,2.4804e+08,36.918,0,2.4804e+08,-75.875,11747,12524,1,12524,1,0.0012306,2.6843e-09,0,0.0012306,-0.00016015,3.2795e+08,655.81,0,3.2795e+08,19.912,12523,438.26,0,438.26,0,0.00021319,1.6481e-09,0,0.00021319,3.9875e-05,4.6775e+07,400.25,0,4.6775e+07,66.321,438.26,1
432,4.54,12137,1,12137,1,0.0010475,8.0971e-10,0,0.0010475,-0.00019544,2.8842e+08,201.72,0,2.8842e+08,-10.009,12136,12879,1,12879,1,0.0013736,4.0658e-09,0,0.0013736,-0.00013447,3.6029e+08,1025.2,0,3.6029e+08,93.329,12878,12136,1,12136,1,0.0010475,5.7129e-10,0,0.0010475,-0.00019542,2.8887e+08,130.45,0,2.8887e+08,-18.948,12135,11395,1,11395,1,0.00072144,-1.2784e-09,0,0.00072144,-0.00025646,2.1574e+08,-282.82,0,2.1574e+08,-97.261,11394,11748,1,11748,1,0.00086119,-5.5676e-10,0,0.00086119,-0.00023027,2.4849e+08,-128.63,0,2.4849e+08,-42.888,11747,12524,1,12524,1,0.0012338,1.9595e-09,0,0.0012338,-0.00016059,3.2832e+08,464.46,0,3.2832e+08,28.397,12523,438.26,0,438.26,0,0.0002137,1.5225e-09,0,0.0002137,3.9969e-05,4.6742e+07,367.58,0,4.6742e+07,41.151,438.26,1
432,4.55,12137,1,12137,1,0.0010503,-1.3925e-09,0,0.0010503,-0.00019595,2.8881e+08,-334.54,0,2.8881e+08,-48.181,12136,12879,1,12879,1,0.0013771,1.9348e-09,0,0.0013771,-0.00013484,3.6062e+08,487.25,0,3.6062e+08,101.5,12878,12136,1,12136,1,0.0010503,-8.0237e-10,0,0.0010503,-0.00019593,2.8925e+08,-189.91,0,2.8925e+08,-35.865,12135,11395,1,11395,1,0.00072345,-5.7069e-09,0,0.00072345,-0.0002571,2.1619e+08,-1438.1,0,2.1619e+08,-218.17,11394,11748,1,11748,1,0.00086351,-2.7172e-09,0,0.00086351,-0.00023087,2.4891e+08,-644.92,0,2.4891e+08,-89.705,11747,12524,1,12524,1,0.001237,-1.5317e-10,0,0.001237,-0.00016102,3.2866e+08,-34.877,0,3.2866e+08,-2.7886,12523,438.26,0,438.26,0,0.00021419,1.7718e-09,0,0.00021419,4.0061e-05,4.67e+07,432.82,0,4.67e+07,68.728,438.26,1
432,4.56,12137,1,12137,1,0.001053,-1.1809e-10,0,0.001053,-0.00019646,2.892e+08,-26.845,0,2.892e+08,-27.559,12136,12879,1,12879,1,0.0013806,4.9004e-10,0,0.0013806,-0.00013522,3.6096e+08,115.08,0,3.6096e+08,34.484,12878,12136,1,12136,1,0.001053,-9.4556e-11,0,0.001053,-0.00019644,2.8964e+08,-23.037,0,2.8964e+08,-25.252,12135,11395,1,11395,1,0.00072546,-1.0434e-09,0,0.00072546,-0.00025776,2.1664e+08,-250.67,0,2.1664e+08,-97.425,11394,11748,1,11748,1,0.00086585,-3.9258e-10,0,0.00086585,-0.00023146,2.4934e+08,-93.376,0,2.4934e+08,-44.983,11747,12524,1,12524,1,0.0012402,2.5725e-10,0,0.0012402,-0.00016145,3.2901e+08,60.78,0,3.2901e+08,-7.9208,12523,438.26,0,438.26,0,0.00021469,4.0559e-10,0,0.00021469,4.0154e-05,4.6661e+07,96.013,0,4.6661e+07,26.763,438.26,1
432,4.57,12137,1,12137,1,0.0010558,1.4142e-09,0,0.0010558,-0.00019698,2.8959e+08,341.05,0,2.8959e+08,13.011,12136,12879,1,12879,1,0.0013842,4.5357e-09,0,0.0013842,-0.00013559,3.613e+08,1141.3,0,3.613e+08,84.066,12878,12136,1,12136,1,0.0010558,1.237e-09,0,0.0010558,-0.00019696,2.9003e+08,300.34,0,2.9003e+08,6.6991,12135,11395,1,11395,1,0.00072747,-5.2138e-10,0,0.00072747,-0.00025842,2.1708e+08,-114.51,0,2.1708e+08,-42.452,11394,11748,1,11748,1,0.00086819,3.5172e-10,0,0.00086819,-0.00023206,2.4977e+08,78.516,0,2.4977e+08,-5.3639,11747,12524,1,12524,1,0.0012434,2.311e-09,0,0.0012434,-0.00016189,3.2936e+08,546.11,0,3.2936e+08,31.223,12523,438.26,0,438.26,0,0.00021519,1.3129e-09,0,0.00021519,4.0247e-05,4.662e+07,321.75,0,4.662e+07,27.067,438.26,1
432,4.58,12137,1,12137,1,0.0010586,2.8224e-10,0,0.0010586,-0.00019749,2.8997e+08,71.052,0,2.8997e+08,8.7545,12136,12879,1,12879,1,0.0013877,1.8831e-09,0,0.0013877,-0.00013596,3.6163e+08,473.41,0,3.6163e+08,79.646,12878,12136,1,12136,1,0.0010586,1.2259e-10,0,0.0010586,-0.00019747,2.9041e+08,28.518,0,2.9041e+08,7.5146,12135,11395,1,11395,1,0.00072947,-5.7511e-10,0,0.00072947,-0.00025907,2.1753e+08,-126.52,0,2.1753e+08,-55.918,11394,11748,1,11748,1,0.00087052,-2.2145e-10,0,0.00087052,-0.00023265,2.502e+08,-49.435,0,2.502e+08,-9.0378,11747,12524,1,12524,1,0.0012466,6.5324e-10,0,0.0012466,-0.00016232,3.297e+08,157.57,0,3.297e+08,22.468,12523,438.26,0,438.26,0,0.00021569,6.1699e-10,0,0.00021569,4.0339e-05,4.6577e+07,149.42,0,4.6577e+07,27.089,438.26,1
432,4.59,12137,1,12137,1,0.0010613,-5.4858e-10,0,0.0010613,-0.000198,2.9035e+08,-130.54,0,2.9035e+08,-21.535,12136,12879,1,12879,1,0.0013912,1.3478e-09,0,0.0013912,-0.00013633,3.6195e+08,338.6,0,3.6195e+08,39.851,12878,12136,1,12136,1,0.0010613,-3.0267e-10,0,0.0010613,-0.00019798,2.9078e+08,-67.158,0,2.9078e+08,-16.774,12135,11395,1,11395,1,0.00073148,-2.6957e-09,0,0.00073148,-0.00025972,2.1797e+08,-677.46,0,2.1797e+08,-80.136,11394,11748,1,11748,1,0.00087284,-1.1597e-09,0,0.00087284,-0.00023324,2.5062e+08,-271.48,0,2.5062e+08,-35.967,11747,12524,1,12524,1,0.0012498,1.0349e-10,0,0.0012498,-0.00016275,3.3003e+08,22.921,0,3.3003e+08,-6.6051,12523,438.26,0,438.26,0,0.00021618,9.4255e-10,0,0.00021618,4.0431e-05,4.6534e+07,228.4,0,4.6534e+07,24.755,438.26,1
432,4.6,12137,1,12137,1,0.0010641,-2.4284e-10,0,0.0010641,-0.00019851,2.9073e+08,-57.765,0,2.9073e+08,-15.429,12136,12879,1,12879,1,0.0013947,1.4521e-10,0,0.0013947,-0.00013671,3.6228e+08,31.832,0,3.6228e+08,24.938,12878,12136,1,12136,1,0.0010641,-1.6848e-10,0,0.0010641,-0.00019849,2.9116e+08,-39.013,0,2.9116e+08,-9.112,12135,11395,1,11395,1,0.00073349,-9.7064e-10,0,0.00073349,-0.00026038,2.1842e+08,-243.7,0,2.1842e+08,-64.294,11394,11748,1,11748,1,0.00087517,-3.5173e-10,0,0.00087517,-0.00023383,2.5105e+08,-83.056,0,2.5105e+08,-29.744,11747,12524,1,12524,1,0.001253,-1.0643e-10,0,0.001253,-0.00016318,3.3037e+08,-24.027,0,3.3037e+08,0.26671,12523,438.26,0,438.26,0,0.00021668,2.1766e-10,0,0.00021668,4.0523e-05,4.6492e+07,53.386,0,4.6492e+07,21.345,438.26,1
432,4.61,12137,1,12137,1,0.0010669,9.8048e-10,0,0.0010669,-0.00019904,2.911e+08,236.78,0,2.911e+08,-2.0544,12136,12879,1,12879,1,0.0013983,2.5414e-09,0,0.0013983,-0.00013709,3.626e+08,637.6,0,3.626e+08,35.831,12878,12136,1,12136,1,0.0010669,9.8779e-10,0,0.0010669,-0.00019902,2.9153e+08,231.97,0,2.9153e+08,-1.5259,12135,11395,1,11395,1,0.00073555,-6.2374e-10,0,0.00073555,-0.00026105,2.1885e+08,-136.32,0,2.1885e+08,-35.243,11394,11748,1,11748,1,0.00087757,2.2959e-10,0,0.00087757,-0.00023444,2.5146e+08,51.101,0,2.5146e+08,-13.16,11747,12524,1,12524,1,0.0012563,1.7021e-09,0,0.0012563,-0.00016363,3.307e+08,406.75,0,3.307e+08,8.5374,12523,438.26,0,438.26,0,0.00021719,8.8499e-10,0,0.00021719,4.0617e-05,4.6448e+07,215.52,0,4.6448e+07,14.705,438.26,1
432,4.62,12137,1,12137,1,0.0010698,-2.2731e-09,0,0.0010698,-0.00019958,2.9145e+08,-543.75,0,2.9145e+08,-32.956,12136,12879,1,12879,1,0.001402,7.9898e-10,0,0.001402,-0.00013748,3.6289e+08,174.03,0,3.6289e+08,65.214,12878,12136,1,12136,1,0.0010698,-2.102e-09,0,0.0010698,-0.00019956,2.9188e+08,-486,0,2.9188e+08,-13.738,12135,11395,1,11395,1,0.00073767,-6.1935e-09,0,0.00073767,-0.00026173,2.1927e+08,-1552.5,0,2.1927e+08,-187.04,11394,11748,1,11748,1,0.00088002,-3.576e-09,0,0.00088002,-0.00023506,2.5185e+08,-846.39,0,2.5185e+08,-70.211,11747,12524,1,12524,1,0.0012596,-8.1437e-10,0,0.0012596,-0.00016408,3.31e+08,-180.62,0,3.31e+08,12.109,12523,438.26,0,438.26,0,0.00021769,1.818e-09,0,0.00021769,4.0711e-05,4.64e+07,444.9,0,4.64e+07,62.197,438.26,1
432,4.63,12137,1,12137,1,0.0010727,-1.6602e-09,0,0.0010727,-0.00020011,2.9177e+08,-401.54,0,2.9177e+08,-83.737,12136,12879,1,12879,1,0.0014057,3.3734e-09,0,0.0014057,-0.00013787,3.6314e+08,844.53,0,3.6314e+08,132.57,12878,12136,1,12136,1,0.0010727,-7.0335e-10,0,0.0010727,-0.00020009,2.922e+08,-166.95,0,2.922e+08,-94.192,12135,11395,1,11395,1,0.00073979,-8.9079e-09,0,0.00073979,-0.00026241,2.1967e+08,-2230.1,0,2.1967e+08,-329.98,11394,11748,1,11748,1,0.00088248,-3.7229e-09,0,0.00088248,-0.00023568,2.5223e+08,-863.16,0,2.5223e+08,-158.43,11747,12524,1,12524,1,0.001263,5.9711e-10,0,0.001263,-0.00016454,3.3127e+08,131.19,0,3.3127e+08,2.0127,12523,438.26,0,438.26,0,0.00021819,2.9076e-09,0,0.00021819,4.0803e-05,4.6347e+07,703.86,0,4.6347e+07,101.33,438.26,1
432,4.64,12137,1,12137,1,0.0010757,1.638e-10,0,0.0010757,-0.00020066,2.921e+08,33.371,0,2.921e+08,-73.823,12136,12879,1,12879,1,0.0014094,2.2174e-09,0,0.0014094,-0.00013828,3.6339e+08,554.41,0,3.6339e+08,67.819,12878,12136,1,12136,1,0.0010757,4.787e-10,0,0.0010757,-0.00020064,2.9252e+08,107.92,0,2.9252e+08,-71.011,12135,11395,1,11395,1,0.00074196,-2.8554e-09,0,0.00074196,-0.0002631,2.2008e+08,-713.62,0,2.2008e+08,-260.71,11394,11748,1,11748,1,0.00088498,-2.498e-10,0,0.00088498,-0.00023631,2.526e+08,-57.022,0,2.526e+08,-143.08,11747,12524,1,12524,1,0.0012663,7.3848e-10,0,0.0012663,-0.000165,3.3154e+08,166.82,0,3.3154e+08,0.82037,12523,438.26,0,438.26,0,0.0002187,9.6531e-10,0,0.0002187,4.0898e-05,4.6295e+07,232.95,0,4.6295e+07,79.994,438.26,1
432,4.65,12137,1,12137,1,0.0010787,1.301e-09,0,0.0010787,-0.00020121,2.9243e+08,308.05,0,2.9243e+08,-40.336,12136,12879,1,12879,1,0.0014131,2.4102e-09,0,0.0014131,-0.00013869,3.6365e+08,597.94,0,3.6365e+08,31.145,12878,12136,1,12136,1,0.0010787,1.5006e-09,0,0.0010787,-0.00020119,2.9285e+08,351.2,0,2.9285e+08,-30.299,12135,11395,1,11395,1,0.00074417,-5.742e-10,0,0.00074417,-0.0002638,2.2049e+08,-124.73,0,2.2049e+08,-179.6,11394,11748,1,11748,1,0.00088752,6.9703e-10,0,0.00088752,-0.00023695,2.5299e+08,155.34,0,2.5299e+08,-72.224,11747,12524,1,12524,1,0.0012698,2e-09,0,0.0012698,-0.00016547,3.3182e+08,484.04,0,3.3182e+08,1.457,12523,438.26,0,438.26,0,0.00021922,8.3607e-10,0,0.00021922,4.0995e-05,4.624e+07,202.09,0,4.624e+07,47.7,438.26,1
432,4.66,12137,1,12137,1,0.0010816,6.2375e-10,0,0.0010816,-0.00020176,2.9275e+08,148.74,0,2.9275e+08,-41.659,12136,12879,1,12879,1,0.0014169,3.7135e-09,0,0.0014169,-0.00013909,3.6388e+08,926.45,0,3.6388e+08,47.219,12878,12136,1,12136,1,0.0010816,4.0509e-10,0,0.0010816,-0.00020174,2.9316e+08,89.895,0,2.9316e+08,-38.976,12135,11395,1,11395,1,0.00074636,-6.1537e-10,0,0.00074636,-0.00026449,2.2089e+08,-133.45,0,2.2089e+08,-159.43,11394,11748,1,11748,1,0.00089005,1.0833e-10,0,0.00089005,-0.00023758,2.5336e+08,23.82,0,2.5336e+08,-78.959,11747,12524,1,12524,1,0.0012732,1.0216e-09,0,0.0012732,-0.00016594,3.3208e+08,241.94,0,3.3208e+08,-0.6433,12523,438.26,0,438.26,0,0.00021973,7.9161e-10,0,0.00021973,4.109e-05,4.6181e+07,192.52,0,4.6181e+07,46.923,438.26,1
432,4.67,12137,1,12137,1,0.0010846,2.807e-10,0,0.0010846,-0.00020232,2.9306e+08,70.102,0,2.9306e+08,-34.88,12136,12879,1,12879,1,0.0014207,1.6864e-09,0,0.0014207,-0.0001395,3.6412e+08,420.42,0,3.6412e+08,53.792,12878,12136,1,12136,1,0.0010846,2.5759e-10,0,0.0010846,-0.0002023,2.9348e+08,58.196,0,2.9348e+08,-33.688,12135,11395,1,11395,1,0.00074856,-7.0535e-10,0,0.00074856,-0.00026519,2.2129e+08,-152.48,0,2.2129e+08,-119.83,11394,11748,1,11748,1,0.00089258,-2.1859e-10,0,0.00089258,-0.00023821,2.5373e+08,-48.055,0,2.5373e+08,-54.351,11747,12524,1,12524,1,0.0012766,7.536e-10,0,0.0012766,-0.00016641,3.3233e+08,180.81,0,3.3233e+08,-13.96,12523,438.26,0,438.26,0,0.00022025,6.215e-10,0,0.00022025,4.1185e-05,4.6123e+07,146.76,0,4.6123e+07,35.024,438.26,1
432,4.68,12137,1,12137,1,0.0010876,5.9657e-10,0,0.0010876,-0.00020287,2.9338e+08,142.49,0,2.9338e+08,-42.302,12136,12879,1,12879,1,0.0014244,3.7077e-09,0,0.0014244,-0.00013991,3.6436e+08,922.92,0,3.6436e+08,49.835,12878,12136,1,12136,1,0.0010876,2.9194e-10,0,0.0010876,-0.00020285,2.9379e+08,64.539,0,2.9379e+08,-48.776,12135,11395,1,11395,1,0.00075076,-6.0396e-10,0,0.00075076,-0.00026589,2.217e+08,-150.31,0,2.217e+08,-106.65,11394,11748,1,11748,1,0.00089513,-1.7626e-11,0,0.00089513,-0.00023885,2.541e+08,-3.8846,0,2.541e+08,-75.6,11747,12524,1,12524,1,0.0012801,1.0753e-09,0,0.0012801,-0.00016688,3.3259e+08,249.76,0,3.3259e+08,-8.9874,12523,438.26,0,438.26,0,0.00022076,9.0475e-10,0,0.00022076,4.128e-05,4.6064e+07,219.47,0,4.6064e+07,40.193,438.26,1
432,4.69,12137,1,12137,1,0.0010906,-1.8708e-09,0,0.0010906,-0.00020342,2.9369e+08,-442.36,0,2.9369e+08,-78.605,12136,12879,1,12879,1,0.0014282,1.4305e-09,0,0.0014282,-0.00014032,3.6459e+08,355.41,0,3.6459e+08,91.29,12878,12136,1,12136,1,0.0010906,-1.396e-09,0,0.0010906,-0.0002034,2.941e+08,-315.77,0,2.941e+08,-86.55,12135,11395,1,11395,1,0.00075297,-6.8103e-09,0,0.00075297,-0.00026659,2.221e+08,-1693.8,0,2.221e+08,-258.53,11394,11748,1,11748,1,0.00089767,-3.2212e-09,0,0.00089767,-0.00023949,2.5447e+08,-739.15,0,2.5447e+08,-124.04,11747,12524,1,12524,1,0.0012835,-4.3301e-10,0,0.0012835,-0.00016735,3.3284e+08,-95.098,0,3.3284e+08,-21.792,12523,438.26,0,438.26,0,0.00022127,1.9791e-09,0,0.00022127,4.1375e-05,4.6003e+07,478.75,0,4.6003e+07,75.633,438.26,1
432,4.7,12137,1,12137,1,0.0010936,-1.6118e-09,0,0.0010936,-0.00020397,2.9399e+08,-385.32,0,2.9399e+08,-101.06,12136,12879,1,12879,1,0.001432,1.341e-09,0,0.001432,-0.00014072,3.6481e+08,288.2,0,3.6481e+08,100.07,12878,12136,1,12136,1,0.0010936,-1.0643e-09,0,0.0010936,-0.00020395,2.944e+08,-239.52,0,2.944e+08,-103.92,12135,11395,1,11395,1,0.00075516,-6.741e-09,0,0.00075516,-0.00026729,2.2249e+08,-1674.4,0,2.2249e+08,-335.78,11394,11748,1,11748,1,0.0009002,-2.942e-09,0,0.0009002,-0.00024012,2.5483e+08,-698.39,0,2.5483e+08,-161.99,11747,12524,1,12524,1,0.0012869,6.901e-12,0,0.0012869,-0.00016782,3.3309e+08,1.1389,0,3.3309e+08,-32.799,12523,438.26,0,438.26,0,0.00022178,2.0476e-09,0,0.00022178,4.147e-05,4.5941e+07,493.17,0,4.5941e+07,91.607,438.26,1
432,4.71,12137,1,12137,1,0.0010965,-1.2635e-09,0,0.0010965,-0.00020452,2.9429e+08,-303.71,0,2.9429e+08,-115.16,12136,12879,1,12879,1,0.0014357,2.1822e-09,0,0.0014357,-0.00014113,3.6503e+08,541.27,0,3.6503e+08,98.428,12878,12136,1,12136,1,0.0010965,-3.9446e-10,0,0.0010965,-0.0002045,2.947e+08,-88.674,0,2.947e+08,-113.07,12135,11395,1,11395,1,0.00075734,-7.6015e-09,0,0.00075734,-0.00026799,2.2289e+08,-1885.9,0,2.2289e+08,-396.33,11394,11748,1,11748,1,0.00090272,-2.5474e-09,0,0.00090272,-0.00024075,2.5519e+08,-589.69,0,2.5519e+08,-190.44,11747,12524,1,12524,1,0.0012903,3.3143e-10,0,0.0012903,-0.00016829,3.3333e+08,73.246,0,3.3333e+08,-30.92,12523,438.26,0,438.26,0,0.00022229,2.2793e-09,0,0.00022229,4.1564e-05,4.5878e+07,547.86,0,4.5878e+07,107.57,438.26,1
432,4.72,12137,1,12137,1,0.0010996,3.6299e-10,0,0.0010996,-0.00020509,2.9462e+08,79.748,0,2.9462e+08,-50.476,12136,12879,1,12879,1,0.0014396,2.3238e-09,0,0.0014396,-0.00014154,3.6527e+08,533.1,0,3.6527e+08,12.266,12878,12136,1,12136,1,0.0010996,5.4559e-10,0,0.0010996,-0.00020507,2.9502e+08,123.93,0,2.9502e+08,-35.36,12135,11395,1,11395,1,0.0007596,-3.0678e-09,0,0.0007596,-0.0002687,2.233e+08,-760.67,0,2.233e+08,-169.47,11394,11748,1,11748,1,0.00090531,-3.0104e-10,0,0.00090531,-0.0002414,2.5557e+08,-72.266,0,2.5557e+08,-83.844,11747,12524,1,12524,1,0.0012938,1.2824e-09,0,0.0012938,-0.00016877,3.3359e+08,291.52,0,3.3359e+08,-11.673,12523,438.26,0,438.26,0,0.00022282,1.1851e-09,0,0.00022282,4.1662e-05,4.582e+07,276.59,0,4.582e+07,45.699,438.26,1
432,4.73,12137,1,12137,1,0.0011026,-3.9172e-10,0,0.0011026,-0.00020564,2.9491e+08,-98.531,0,2.9491e+08,-62.107,12136,12879,1,12879,1,0.0014434,2.8007e-09,0,0.0014434,-0.00014195,3.6547e+08,693.4,0,3.6547e+08,98.408,12878,12136,1,12136,1,0.0011026,2.2609e-11,0,0.0011026,-0.00020562,2.9531e+08,5.4275,0,2.9531e+08,-60.148,12135,11395,1,11395,1,0.00076182,-4.1264e-09,0,0.00076182,-0.0002694,2.2369e+08,-1021.4,0,2.2369e+08,-229.99,11394,11748,1,11748,1,0.00090787,-1.4018e-09,0,0.00090787,-0.00024204,2.5593e+08,-320.61,0,2.5593e+08,-109.7,11747,12524,1,12524,1,0.0012973,6.5217e-10,0,0.0012973,-0.00016924,3.3382e+08,145.38,0,3.3382e+08,-19.695,12523,438.26,0,438.26,0,0.00022333,1.5139e-09,0,0.00022333,4.1757e-05,4.5752e+07,360.56,0,4.5752e+07,66.331,438.26,1
432,4.74,12137,1,12137,1,0.0011056,1.3445e-09,0,0.0011056,-0.0002062,2.952e+08,310.09,0,2.952e+08,-54.562,12136,12879,1,12879,1,0.0014471,3.3182e-09,0,0.0014471,-0.00014236,3.6567e+08,820.54,0,3.6567e+08,39.45,12878,12136,1,12136,1,0.0011056,1.28e-09,0,0.0011056,-0.00020618,2.956e+08,289.05,0,2.956e+08,-47.243,12135,11395,1,11395,1,0.00076403,-1.5526e-10,0,0.00076403,-0.00027009,2.2409e+08,-37.999,0,2.2409e+08,-195.52,11394,11748,1,11748,1,0.00091041,7.7987e-10,0,0.00091041,-0.00024268,2.5629e+08,177.25,0,2.5629e+08,-103.39,11747,12524,1,12524,1,0.0013007,1.8376e-09,0,0.0013007,-0.00016971,3.3405e+08,435.67,0,3.3405e+08,-3.3609,12523,438.26,0,438.26,0,0.00022384,7.4734e-10,0,0.00022384,4.1851e-05,4.5686e+07,182.31,0,4.5686e+07,56.686,438.26,1
432,4.75,12137,1,12137,1,0.0011086,-1.0691e-09,0,0.0011086,-0.00020676,2.9551e+08,-255.55,0,2.9551e+08,-57.727,12136,12879,1,12879,1,0.0014509,1.1799e-09,0,0.0014509,-0.00014278,3.659e+08,251.1,0,3.659e+08,61.995,12878,12136,1,12136,1,0.0011086,-9.2367e-10,0,0.0011086,-0.00020674,2.9591e+08,-216.56,0,2.9591e+08,-52.479,12135,11395,1,11395,1,0.00076627,-4.3618e-09,0,0.00076627,-0.00027081,2.2449e+08,-1077.2,0,2.2449e+08,-228.14,11394,11748,1,11748,1,0.00091299,-1.8295e-09,0,0.00091299,-0.00024332,2.5665e+08,-435.62,0,2.5665e+08,-96.543,11747,12524,1,12524,1,0.0013042,-1.7283e-10,0,0.0013042,-0.00017019,3.3429e+08,-37.523,0,3.3429e+08,-9.4938,12523,438.26,0,438.26,0,0.00022436,1.2948e-09,0,0.00022436,4.1948e-05,4.5623e+07,308.95,0,4.5623e+07,64.555,438.26,1
432,4.76,12137,1,12137,1,0.0011116,3.1054e-10,0,0.0011116,-0.00020731,2.958e+08,69.228,0,2.958e+08,-72.607,12136,12879,1,12879,1,0.0014547,4.4806e-09,0,0.0014547,-0.00014319,3.6608e+08,1105.5,0,3.6608e+08,88.003,12878,12136,1,12136,1,0.0011116,4.2505e-10,0,0.0011116,-0.00020729,2.9619e+08,93.859,0,2.9619e+08,-73.549,12135,11395,1,11395,1,0.00076849,-3.7909e-09,0,0.00076849,-0.0002715,2.2488e+08,-935.1,0,2.2488e+08,-244.21,11394,11748,1,11748,1,0.00091554,-3.8578e-10,0,0.00091554,-0.00024396,2.57e+08,-82.687,0,2.57e+08,-140.56,11747,12524,1,12524,1,0.0013076,1.0123e-09,0,0.0013076,-0.00017066,3.3451e+08,224.38,0,3.3451e+08,-7.3886,12523,438.26,0,438.26,0,0.00022487,1.5311e-09,0,0.00022487,4.2042e-05,4.5553e+07,365.06,0,4.5553e+07,77.869,438.26,1
432,4.77,12137,1,12137,1,0.0011146,8.6295e-10,0,0.0011146,-0.00020788,2.961e+08,198.18,0,2.961e+08,-52.408,12136,12879,1,12879,1,0.0014585,1.6802e-09,0,0.0014585,-0.00014361,3.663e+08,382.21,0,3.663e+08,23.616,12878,12136,1,12136,1,0.0011146,9.7285e-10,0,0.0011146,-0.00020786,2.9649e+08,218.28,0,2.9649e+08,-44.563,12135,11395,1,11395,1,0.00077074,-1.9434e-10,0,0.00077074,-0.00027221,2.2528e+08,-41.532,0,2.2528e+08,-166.32,11394,11748,1,11748,1,0.00091813,5.5327e-10,0,0.00091813,-0.00024461,2.5737e+08,121.31,0,2.5737e+08,-93.542,11747,12524,1,12524,1,0.0013111,1.1821e-09,0,0.0013111,-0.00017114,3.3475e+08,270.61,0,3.3475e+08,-7.6791,12523,438.26,0,438.26,0,0.00022538,4.4237e-10,0,0.00022538,4.2139e-05,4.5488e+07,103.7,0,4.5488e+07,48.743,438.26,1
432,4.78,12137,1,12137,1,0.0011177,-7.6668e-10,0,0.0011177,-0.00020844,2.9639e+08,-179.8,0,2.9639e+08,-48.732,12136,12879,1,12879,1,0.0014624,5.6543e-10,0,0.0014624,-0.00014402,3.6649e+08,119.8,0,3.6649e+08,43.25,12878,12136,1,12136,1,0.0011177,-5.682e-10,0,0.0011177,-0.00020842,2.9678e+08,-126.95,0,2.9678e+08,-43.853,12135,11395,1,11395,1,0.00077299,-2.8542e-09,0,0.00077299,-0.00027292,2.2567e+08,-702.44,0,2.2567e+08,-167.34,11394,11748,1,11748,1,0.00092071,-1.1868e-09,0,0.00092071,-0.00024525,2.5772e+08,-270.86,0,2.5772e+08,-86.933,11747,12524,1,12524,1,0.0013146,-3.0755e-10,0,0.0013146,-0.00017162,3.3497e+08,-68.828,0,3.3497e+08,-11.083,12523,438.26,0,438.26,0,0.0002259,7.6068e-10,0,0.0002259,4.2234e-05,4.5418e+07,182.88,0,4.5418e+07,46.9,438.26,1
432,4.79,12137,1,12137,1,0.0011207,-1.5685e-09,0,0.0011207,-0.00020899,2.9666e+08,-371.08,0,2.9666e+08,-76.512,12136,12879,1,12879,1,0.0014661,1.4355e-09,0,0.0014661,-0.00014443,3.6667e+08,302.84,0,3.6667e+08,96.718,12878,12136,1,12136,1,0.0011207,-8.9658e-10,0,0.0011207,-0.00020897,2.9705e+08,-197.75,0,2.9705e+08,-74.626,12135,11395,1,11395,1,0.0007752,-7.3748e-09,0,0.0007752,-0.00027362,2.2605e+08,-1813.2,0,2.2605e+08,-311.07,11394,11748,1,11748,1,0.00092326,-3.0124e-09,0,0.00092326,-0.00024589,2.5807e+08,-678.93,0,2.5807e+08,-120.44,11747,12524,1,12524,1,0.0013181,1.7747e-10,0,0.0013181,-0.00017209,3.3518e+08,38.185,0,3.3518e+08,-17.126,12523,438.26,0,438.26,0,0.00022641,2.2303e-09,0,0.00022641,4.2328e-05,4.5346e+07,529.65,0,4.5346e+07,85.942,438.26,1
432,4.8,12137,1,12137,1,0.0011236,-1.5834e-09,0,0.0011236,-0.00020955,2.9694e+08,-377.63,0,2.9694e+08,-118.39,12136,12879,1,12879,1,0.0014699,3.812e-09,0,0.0014699,-0.00014484,3.6686e+08,936.09,0,3.6686e+08,144.82,12878,12136,1,12136,1,0.0011237,-4.4261e-10,0,0.0011237,-0.00020953,2.9733e+08,-100.35,0,2.9733e+08,-114.13,12135,11395,1,11395,1,0.00077741,-1.0091e-08,0,0.00077741,-0.00027433,2.2644e+08,-2478,0,2.2644e+08,-455.21,11394,11748,1,11748,1,0.00092582,-3.6963e-09,0,0.00092582,-0.00024653,2.5842e+08,-841.59,0,2.5842e+08,-202.74,11747,12524,1,12524,1,0.0013215,7.8375e-10,0,0.0013215,-0.00017256,3.3539e+08,167.67,0,3.3539e+08,-21.171,12523,438.26,0,438.26,0,0.00022691,3.259e-09,0,0.00022691,4.2422e-05,4.5276e+07,771.43,0,4.5276e+07,126.9,438.26,1
432,4.81,12137,1,12137,1,0.0011267,9.4958e-10,0,0.0011267,-0.00021011,2.9724e+08,211.32,0,2.9724e+08,-92.636,12136,12879,1,12879,1,0.0014737,1.784e-09,0,0.0014737,-0.00014526,3.6705e+08,411.65,0,3.6705e+08,71.229,12878,12136,1,12136,1,0.0011267,1.1938e-09,0,0.0011267,-0.00021009,2.9762e+08,264.22,0,2.9762e+08,-78.849,12135,11395,1,11395,1,0.00077967,-1.5323e-09,0,0.00077967,-0.00027503,2.2684e+08,-375.11,0,2.2684e+08,-327,11394,11748,1,11748,1,0.00092841,6.4232e-10,0,0.00092841,-0.00024717,2.5877e+08,141.58,0,2.5877e+08,-169.31,11747,12524,1,12524,1,0.001325,1.4233e-09,0,0.001325,-0.00017304,3.3561e+08,317.8,0,3.3561e+08,-8.6246,12523,438.26,0,438.26,0,0.00022743,6.739e-10,0,0.00022743,4.2519e-05,4.5207e+07,154.93,0,4.5207e+07,92.597,438.26,1
432,4.82,12137,1,12137,1,0.0011298,6.2246e-10,0,0.0011298,-0.00021068,2.9752e+08,137.81,0,2.9752e+08,-59.134,12136,12879,1,12879,1,0.0014776,2.0416e-09,0,0.0014776,-0.00014568,3.6724e+08,460.72,0,3.6724e+08,36.662,12878,12136,1,12136,1,0.0011298,6.3422e-10,0,0.0011298,-0.00021066,2.979e+08,144.23,0,2.979e+08,-48.636,12135,11395,1,11395,1,0.00078195,-6.0934e-10,0,0.00078195,-0.00027575,2.2723e+08,-141.34,0,2.2723e+08,-194.5,11394,11748,1,11748,1,0.00093103,8.4347e-11,0,0.00093103,-0.00024783,2.5913e+08,20.351,0,2.5913e+08,-101.66,11747,12524,1,12524,1,0.0013285,1.1758e-09,0,0.0013285,-0.00017353,3.3583e+08,260.4,0,3.3583e+08,-16.54,12523,438.26,0,438.26,0,0.00022795,6.7373e-10,0,0.00022795,4.2616e-05,4.5136e+07,151.49,0,4.5136e+07,53.714,438.26,1
432,4.83,12137,1,12137,1,0.0011328,-8.0083e-10,0,0.0011328,-0.00021124,2.9779e+08,-194.41,0,2.9779e+08,-91.088,12136,12879,1,12879,1,0.0014814,3.282e-09,0,0.0014814,-0.0001461,3.6741e+08,803.14,0,3.6741e+08,132.58,12878,12136,1,12136,1,0.0011328,2.6002e-11,0,0.0011328,-0.00021122,2.9817e+08,5.9968,0,2.9817e+08,-91.047,12135,11395,1,11395,1,0.00078419,-6.8317e-09,0,0.00078419,-0.00027645,2.2761e+08,-1671.8,0,2.2761e+08,-342.39,11394,11748,1,11748,1,0.0009336,-2.2805e-09,0,0.0009336,-0.00024847,2.5946e+08,-519.3,0,2.5946e+08,-154.02,11747,12524,1,12524,1,0.001332,8.5005e-10,0,0.001332,-0.000174,3.3602e+08,183.55,0,3.3602e+08,-24.627,12523,438.26,0,438.26,0,0.00022846,2.3102e-09,0,0.00022846,4.271e-05,4.5059e+07,542.65,0,4.5059e+07,95.58,438.26,1
432,4.84,12137,1,12137,1,0.0011359,6.3265e-10,0,0.0011359,-0.00021181,2.9807e+08,138.68,0,2.9807e+08,-67.984,12136,12879,1,12879,1,0.0014853,1.3798e-09,0,0.0014853,-0.00014652,3.6759e+08,296.23,0,3.6759e+08,45.264,12878,12136,1,12136,1,0.0011359,6.543e-10,0,0.0011359,-0.00021178,2.9845e+08,144.51,0,2.9845e+08,-56.865,12135,11395,1,11395,1,0.00078647,-7.0601e-10,0,0.00078647,-0.00027717,2.2801e+08,-172,0,2.2801e+08,-227.85,11394,11748,1,11748,1,0.00093622,3.7578e-10,0,0.00093622,-0.00024912,2.5982e+08,85.791,0,2.5982e+08,-122.8,11747,12524,1,12524,1,0.0013355,9.9106e-10,0,0.0013355,-0.00017449,3.3624e+08,212.23,0,3.3624e+08,-12.21,12523,438.26,0,438.26,0,0.00022898,4.3298e-10,0,0.00022898,4.2806e-05,4.4987e+07,94.337,0,4.4987e+07,65.179,438.26,1
432,4.85,12137,1,12137,1,0.0011389,8.2112e-10,0,0.0011389,-0.00021237,2.9834e+08,185.98,0,2.9834e+08,-56.75,12136,12879,1,12879,1,0.0014891,2.4348e-09,0,0.0014891,-0.00014694,3.6775e+08,594.39,0,3.6775e+08,37.276,12878,12136,1,12136,1,0.0011389,7.9141e-10,0,0.0011389,-0.00021235,2.9871e+08,176.98,0,2.9871e+08,-50.691,12135,11395,1,11395,1,0.00078874,-8.7423e-10,0,0.00078874,-0.00027787,2.2839e+08,-213.04,0,2.2839e+08,-172,11394,11748,1,11748,1,0.00093881,4.6346e-10,0,0.00093881,-0.00024976,2.6015e+08,101.27,0,2.6015e+08,-106.54,11747,12524,1,12524,1,0.001339,1.2191e-09,0,0.001339,-0.00017497,3.3643e+08,284.18,0,3.3643e+08,-6.4316,12523,438.26,0,438.26,0,0.0002295,5.8252e-10,0,0.0002295,4.2902e-05,4.491e+07,138.44,0,4.491e+07,55.784,438.26,1
432,4.86,12137,1,12137,1,0.0011419,-1.1751e-09,0,0.0011419,-0.00021293,2.9861e+08,-276.14,0,2.9861e+08,-81.968,12136,12879,1,12879,1,0.0014929,1.6474e-09,0,0.0014929,-0.00014736,3.6792e+08,401.53,0,3.6792e+08,92.245,12878,12136,1,12136,1,0.0011419,-5.9393e-10,0,0.0011419,-0.00021291,2.9898e+08,-126.8,0,2.9898e+08,-82.649,12135,11395,1,11395,1,0.00079099,-6.0389e-09,0,0.00079099,-0.00027858,2.2877e+08,-1472.6,0,2.2877e+08,-284.81,11394,11748,1,11748,1,0.00094141,-2.3422e-09,0,0.00094141,-0.00025041,2.6049e+08,-523.79,0,2.6049e+08,-139.84,11747,12524,1,12524,1,0.0013425,1.7634e-10,0,0.0013425,-0.00017545,3.3663e+08,37.459,0,3.3663e+08,-22.116,12523,438.26,0,438.26,0,0.00023001,1.8516e-09,0,0.00023001,4.2996e-05,4.4834e+07,435.66,0,4.4834e+07,81.408,438.26,1
432,4.87,12137,1,12137,1,0.001145,1.2178e-10,0,0.001145,-0.0002135,2.9889e+08,21.721,0,2.9889e+08,-73.818,12136,12879,1,12879,1,0.0014968,2.1813e-09,0,0.0014968,-0.00014778,3.6809e+08,531.15,0,3.6809e+08,80.416,12878,12136,1,12136,1,0.001145,4.4383e-10,0,0.001145,-0.00021348,2.9925e+08,96.804,0,2.9925e+08,-67.815,12135,11395,1,11395,1,0.00079328,-3.2666e-09,0,0.00079328,-0.0002793,2.2916e+08,-795.25,0,2.2916e+08,-282.23,11394,11748,1,11748,1,0.00094404,-2.9929e-10,0,0.00094404,-0.00025107,2.6084e+08,-66.328,0,2.6084e+08,-143.45,11747,12524,1,12524,1,0.001346,7.4963e-10,0,0.001346,-0.00017593,3.3683e+08,163.2,0,3.3683e+08,2.7946,12523,438.26,0,438.26,0,0.00023053,1.0493e-09,0,0.00023053,4.3093e-05,4.4758e+07,245.19,0,4.4758e+07,84.628,438.26,1
432,4.88,12137,1,12137,1,0.0011481,-2.2991e-09,0,0.0011481,-0.00021407,2.9914e+08,-540.08,0,2.9914e+08,-112.43,12136,12879,1,12879,1,0.0015006,2.5837e-09,0,0.0015006,-0.0001482,3.6825e+08,534.88,0,3.6825e+08,166.61,12878,12136,1,12136,1,0.0011481,-1.2856e-09,0,0.0011481,-0.00021404,2.995e+08,-281.69,0,2.995e+08,-104.37,12135,11395,1,11395,1,0.00079553,-1.1192e-08,0,0.00079553,-0.00028002,2.2954e+08,-2722.8,0,2.2954e+08,-532.04,11394,11748,1,11748,1,0.00094663,-4.4807e-09,0,0.00094663,-0.00025171,2.6117e+08,-995.66,0,2.6117e+08,-184.64,11747,12524,1,12524,1,0.0013495,3.7039e-10,0,0.0013495,-0.00017641,3.3701e+08,78.238,0,3.3701e+08,-6.0696,12523,438.26,0,438.26,0,0.00023104,3.4466e-09,0,0.00023104,4.3187e-05,4.4678e+07,806.79,0,4.4678e+07,148.66,438.26,1
432,4.89,12137,1,12137,1,0.0011512,1.0381e-09,0,0.0011512,-0.00021464,2.9942e+08,227.09,0,2.9942e+08,-71.433,12136,12879,1,12879,1,0.0015045,2.572e-09,0,0.0015045,-0.00014862,3.6841e+08,561.74,0,3.6841e+08,94.017,12878,12136,1,12136,1,0.0011512,1.0398e-09,0,0.0011512,-0.00021462,2.9978e+08,232.79,0,2.9978e+08,-58.608,12135,11395,1,11395,1,0.00079784,-3.264e-10,0,0.00079784,-0.00028074,2.2993e+08,-72.869,0,2.2993e+08,-286.66,11394,11748,1,11748,1,0.00094929,4.1026e-10,0,0.00094929,-0.00025237,2.6152e+08,94.811,0,2.6152e+08,-139.89,11747,12524,1,12524,1,0.0013531,1.5876e-09,0,0.0013531,-0.00017691,3.3721e+08,359.82,0,3.3721e+08,-3.7967,12523,438.26,0,438.26,0,0.00023156,7.3239e-10,0,0.00023156,4.3285e-05,4.4602e+07,158.72,0,4.4602e+07,84.116,438.26,1
432,4.9,12137,1,12137,1,0.0011543,2.0455e-09,0,0.0011543,-0.00021521,2.9968e+08,464.6,0,2.9968e+08,-39.631,12136,12879,1,12879,1,0.0015084,3.8108e-09,0,0.0015084,-0.00014905,3.6856e+08,908.75,0,3.6856e+08,54.245,12878,12136,1,12136,1,0.0011543,2.2799e-09,0,0.0011543,-0.00021519,3.0003e+08,493.28,0,3.0003e+08,-27.908,12135,11395,1,11395,1,0.00080015,-4.8537e-10,0,0.00080015,-0.00028145,2.3032e+08,-100.05,0,2.3032e+08,-196.84,11394,11748,1,11748,1,0.00095192,1.2072e-09,0,0.00095192,-0.00025302,2.6185e+08,261.31,0,2.6185e+08,-73.347,11747,12524,1,12524,1,0.0013566,3.0166e-09,0,0.0013566,-0.00017739,3.3739e+08,697.42,0,3.3739e+08,6.6191,12523,438.26,0,438.26,0,0.00023208,1.1963e-09,0,0.00023208,4.3381e-05,4.452e+07,280.95,0,4.452e+07,53.774,438.26,1
432,4.91,12137,1,12137,1,0.0011573,-2.0944e-09,0,0.0011573,-0.00021578,2.9993e+08,-485.55,0,2.9993e+08,-29.309,12136,12879,1,12879,1,0.0015123,1.6456e-09,0,0.0015123,-0.00014947,3.687e+08,338.55,0,3.687e+08,72.678,12878,12136,1,12136,1,0.0011573,-2.1866e-09,0,0.0011573,-0.00021576,3.0028e+08,-484.08,0,3.0028e+08,-27.049,12135,11395,1,11395,1,0.00080243,-6.0555e-09,0,0.00080243,-0.00028217,2.3069e+08,-1468,0,2.3069e+08,-149.8,11394,11748,1,11748,1,0.00095454,-3.6033e-09,0,0.00095454,-0.00025368,2.6219e+08,-832.4,0,2.6219e+08,-67.669,11747,12524,1,12524,1,0.0013601,-4.1552e-10,0,0.0013601,-0.00017788,3.3757e+08,-86.527,0,3.3757e+08,14.741,12523,438.26,0,438.26,0,0.0002326,1.9402e-09,0,0.0002326,4.3477e-05,4.4438e+07,454.81,0,4.4438e+07,54.179,438.26,1
432,4.92,12137,1,12137,1,0.0011604,9.1492e-10,0,0.0011604,-0.00021636,3.002e+08,200.14,0,3.002e+08,-17.993,12136,12879,1,12879,1,0.0015161,1.628e-09,0,0.0015161,-0.0001499,3.6885e+08,343.66,0,3.6885e+08,59.667,12878,12136,1,12136,1,0.0011604,9.0408e-10,0,0.0011604,-0.00021633,3.0054e+08,202.41,0,3.0054e+08,-9.8327,12135,11395,1,11395,1,0.00080474,1.0723e-10,0,0.00080474,-0.00028289,2.3108e+08,26.31,0,2.3108e+08,-119.52,11394,11748,1,11748,1,0.00095719,7.1686e-10,0,0.00095719,-0.00025434,2.6253e+08,156.35,0,2.6253e+08,-48.614,11747,12524,1,12524,1,0.0013637,1.1282e-09,0,0.0013637,-0.00017837,3.3775e+08,243.55,0,3.3775e+08,15.304,12523,438.26,0,438.26,0,0.00023312,3.4251e-10,0,0.00023312,4.3573e-05,4.4357e+07,71.419,0,4.4357e+07,40.961,438.26,1
432,4.93,12137,1,12137,1,0.0011635,-7.7103e-10,0,0.0011635,-0.00021692,3.0044e+08,-187.46,0,3.0044e+08,-5.2165,12136,12879,1,12879,1,0.00152,2.4094e-09,0,0.00152,-0.00015032,3.6898e+08,543.44,0,3.6898e+08,147.76,12878,12136,1,12136,1,0.0011635,-2.4746e-10,0,0.0011635,-0.0002169,3.0078e+08,-51.594,0,3.0078e+08,12.763,12135,11395,1,11395,1,0.00080701,-5.4382e-09,0,0.00080701,-0.0002836,2.3145e+08,-1314.9,0,2.3145e+08,-175.3,11394,11748,1,11748,1,0.00095981,-2.3888e-09,0,0.00095981,-0.00025498,2.6285e+08,-529.69,0,2.6285e+08,-77.364,11747,12524,1,12524,1,0.0013672,8.8294e-10,0,0.0013672,-0.00017885,3.3792e+08,184.81,0,3.3792e+08,52.561,12523,438.26,0,438.26,0,0.00023363,2.0598e-09,0,0.00023363,4.3668e-05,4.4272e+07,474.59,0,4.4272e+07,76.692,438.26,1
432,4.94,12137,1,12137,1,0.0011666,-5.0798e-11,0,0.0011666,-0.00021749,3.0069e+08,-22.006,0,3.0069e+08,-37.165,12136,12879,1,12879,1,0.0015239,1.8418e-09,0,0.0015239,-0.00015075,3.6912e+08,376.95,0,3.6912e+08,102.24,12878,12136,1,12136,1,0.0011666,3.3401e-10,0,0.0011666,-0.00021747,3.0103e+08,72.416,0,3.0103e+08,-15.133,12135,11395,1,11395,1,0.00080931,-3.114e-09,0,0.00080931,-0.00028432,2.3183e+08,-751.68,0,2.3183e+08,-238.27,11394,11748,1,11748,1,0.00096244,-6.967e-10,0,0.00096244,-0.00025564,2.6318e+08,-154.8,0,2.6318e+08,-109.26,11747,12524,1,12524,1,0.0013707,7.237e-10,0,0.0013707,-0.00017934,3.3809e+08,151.99,0,3.3809e+08,31.209,12523,438.26,0,438.26,0,0.00023414,1.1581e-09,0,0.00023414,4.3763e-05,4.419e+07,264.48,0,4.419e+07,83.597,438.26,1
432,4.95,12137,1,12137,1,0.0011697,6.8303e-10,0,0.0011697,-0.00021807,3.0095e+08,147.34,0,3.0095e+08,-32.037,12136,12879,1,12879,1,0.0015278,1.7934e-09,0,0.0015278,-0.00015118,3.6926e+08,385.27,0,3.6926e+08,42.497,12878,12136,1,12136,1,0.0011697,6.8231e-10,0,0.0011697,-0.00021805,3.0128e+08,146.82,0,3.0128e+08,-14.858,12135,11395,1,11395,1,0.00081164,-3.5148e-10,0,0.00081164,-0.00028504,2.3221e+08,-80.14,0,2.3221e+08,-170.72,11394,11748,1,11748,1,0.0009651,2.2525e-10,0,0.0009651,-0.0002563,2.6351e+08,50.037,0,2.6351e+08,-71.591,11747,12524,1,12524,1,0.0013743,1.1637e-09,0,0.0013743,-0.00017983,3.3827e+08,250.34,0,3.3827e+08,13.808,12523,438.26,0,438.26,0,0.00023467,5.8646e-10,0,0.00023467,4.386e-05,4.4106e+07,126.55,0,4.4106e+07,55.301,438.26,1
432,4.96,12137,1,12137,1,0.0011728,5.6698e-10,0,0.0011728,-0.00021865,3.012e+08,121.56,0,3.012e+08,-25.763,12136,12879,1,12879,1,0.0015317,1.4785e-09,0,0.0015317,-0.00015161,3.6939e+08,316.93,0,3.6939e+08,33.61,12878,12136,1,12136,1,0.0011728,5.8649e-10,0,0.0011728,-0.00021862,3.0153e+08,126.08,0,3.0153e+08,-12.335,12135,11395,1,11395,1,0.00081397,-4.4698e-10,0,0.00081397,-0.00028577,2.3259e+08,-107.77,0,2.3259e+08,-126.65,11394,11748,1,11748,1,0.00096777,2.3357e-10,0,0.00096777,-0.00025696,2.6384e+08,49.432,0,2.6384e+08,-54.241,11747,12524,1,12524,1,0.0013779,9.0089e-10,0,0.0013779,-0.00018033,3.3843e+08,195.64,0,3.3843e+08,5.126,12523,438.26,0,438.26,0,0.00023519,4.5765e-10,0,0.00023519,4.3957e-05,4.402e+07,98.626,0,4.402e+07,39.747,438.26,1
432,4.97,12137,1,12137,1,0.0011759,8.6321e-10,0,0.0011759,-0.00021922,3.0144e+08,190.19,0,3.0144e+08,-17.695,12136,12879,1,12879,1,0.0015356,1.2728e-09,0,0.0015356,-0.00015204,3.6951e+08,306.42,0,3.6951e+08,28.005,12878,12136,1,12136,1,0.0011759,9.3637e-10,0,0.0011759,-0.0002192,3.0176e+08,207.97,0,3.0176e+08,-8.5723,12135,11395,1,11395,1,0.00081629,3.0937e-11,0,0.00081629,-0.00028649,2.3297e+08,6.3246,0,2.3297e+08,-102.42,11394,11748,1,11748,1,0.00097043,6.8888e-10,0,0.00097043,-0.00025762,2.6416e+08,149.28,0,2.6416e+08,-42.441,11747,12524,1,12524,1,0.0013814,1.0783e-09,0,0.0013814,-0.00018082,3.3859e+08,236.15,0,3.3859e+08,10.566,12523,438.26,0,438.26,0,0.0002357,2.7665e-10,0,0.0002357,4.4053e-05,4.3932e+07,64.048,0,4.3932e+07,33.693,438.26,1
432,4.98,12137,1,12137,1,0.001179,-5.4497e-11,0,0.001179,-0.0002198,3.0168e+08,-18.95,0,3.0168e+08,-17.367,12136,12879,1,12879,1,0.0015395,1.7525e-09,0,0.0015395,-0.00015247,3.6963e+08,421.19,0,3.6963e+08,67.749,12878,12136,1,12136,1,0.001179,1.9105e-10,0,0.001179,-0.00021977,3.02e+08,41.008,0,3.02e+08,-6.6936,12135,11395,1,11395,1,0.0008186,-2.1943e-09,0,0.0008186,-0.00028721,2.3334e+08,-527.24,0,2.3334e+08,-122.48,11394,11748,1,11748,1,0.00097308,-7.3542e-10,0,0.00097308,-0.00025828,2.6448e+08,-165.37,0,2.6448e+08,-57.072,11747,12524,1,12524,1,0.001385,6.4361e-10,0,0.001385,-0.00018131,3.3874e+08,132.54,0,3.3874e+08,18.103,12523,438.26,0,438.26,0,0.00023622,9.1584e-10,0,0.00023622,4.4149e-05,4.3844e+07,208.64,0,4.3844e+07,43.97,438.26,1
432,4.99,12137,1,12137,1,0.0011822,8.8257e-10,0,0.0011822,-0.00022038,3.0192e+08,195.81,0,3.0192e+08,-26.841,12136,12879,1,12879,1,0.0015434,1.4634e-09,0,0.0015434,-0.0001529,3.6975e+08,334.03,0,3.6975e+08,28.062,12878,12136,1,12136,1,0.0011822,1.0042e-09,0,0.0011822,-0.00022035,3.0224e+08,217.54,0,3.0224e+08,-21.394,12135,11395,1,11395,1,0.00082094,-1.4233e-10,0,0.00082094,-0.00028793,2.3372e+08,-28.853,0,2.3372e+08,-108.69,11394,11748,1,11748,1,0.00097575,5.8964e-10,0,0.00097575,-0.00025894,2.6481e+08,126.51,0,2.6481e+08,-53.287,11747,12524,1,12524,1,0.0013886,1.2044e-09,0,0.0013886,-0.0001818,3.3891e+08,272.97,0,3.3891e+08,2.7252,12523,438.26,0,438.26,0,0.00023674,4.123e-10,0,0.00023674,4.4245e-05,4.3757e+07,95.234,0,4.3757e+07,35.391,438.26,1
432,5,12137,1,12137,1,0.0011853,-1.6905e-10,0,0.0011853,-0.00022095,3.0216e+08,-43.383,0,3.0216e+08,-20.639,12136,12879,1,12879,1,0.0015473,9.3057e-10,0,0.0015473,-0.00015333,3.6986e+08,187.84,0,3.6986e+08,51.54,12878,12136,1,12136,1,0.0011853,-3.8154e-11,0,0.0011853,-0.00022093,3.0247e+08,-7.9817,0,3.0247e+08,-10.782,12135,11395,1,11395,1,0.00082327,-1.7618e-09,0,0.00082327,-0.00028866,2.3409e+08,-422.37,0,2.3409e+08,-106.29,11394,11748,1,11748,1,0.00097843,-6.2811e-10,0,0.00097843,-0.0002596,2.6513e+08,-139.96,0,2.6513e+08,-51.483,11747,12524,1,12524,1,0.0013921,2.6745e-10,0,0.0013921,-0.0001823,3.3906e+08,55.756,0,3.3906e+08,6.3667,12523,438.26,0,438.26,0,0.00023726,6.3727e-10,0,0.00023726,4.4342e-05,4.3667e+07,143.24,0,4.3667e+07,35.645,438.26,1
432,5.01,12137,1,12137,1,0.0011884,1.2635e-09,0,0.0011884,-0.00022154,3.024e+08,283.37,0,3.024e+08,-16.984,12136,12879,1,12879,1,0.0015512,2.796e-09,0,0.0015512,-0.00015376,3.6998e+08,669.88,0,3.6998e+08,26.525,12878,12136,1,12136,1,0.0011884,1.3031e-09,0,0.0011884,-0.00022151,3.0271e+08,279.89,0,3.0271e+08,-17.433,12135,11395,1,11395,1,0.00082563,-2.7994e-10,0,0.00082563,-0.00028939,2.3447e+08,-56.259,0,2.3447e+08,-81.682,11394,11748,1,11748,1,0.00098112,6.1777e-10,0,0.00098112,-0.00026027,2.6545e+08,127.51,0,2.6545e+08,-28.408,11747,12524,1,12524,1,0.0013957,1.9988e-09,0,0.0013957,-0.00018279,3.3921e+08,448.35,0,3.3921e+08,-0.72416,12523,438.26,0,438.26,0,0.00023778,8.6968e-10,0,0.00023778,4.4438e-05,4.3577e+07,201.28,0,4.3577e+07,20.779,438.26,1
432,5.02,12137,1,12137,1,0.0011915,-1.198e-09,0,0.0011915,-0.00022211,3.0262e+08,-273.9,0,3.0262e+08,-7.1222,12136,12879,1,12879,1,0.0015552,1.1675e-09,0,0.0015552,-0.0001542,3.7008e+08,234.26,0,3.7008e+08,76.98,12878,12136,1,12136,1,0.0011916,-9.9701e-10,0,0.0011916,-0.00022209,3.0293e+08,-211.77,0,3.0293e+08,-1.0471,12135,11395,1,11395,1,0.00082796,-3.9283e-09,0,0.00082796,-0.00029011,2.3483e+08,-939.7,0,2.3483e+08,-93.91,11394,11748,1,11748,1,0.00098379,-2.3008e-09,0,0.00098379,-0.00026093,2.6576e+08,-517.68,0,2.6576e+08,-39.528,11747,12524,1,12524,1,0.0013993,-2.1855e-12,0,0.0013993,-0.00018329,3.3934e+08,-0.5595,0,3.3934e+08,19.527,12523,438.26,0,438.26,0,0.0002383,1.3824e-09,0,0.0002383,4.4534e-05,4.3484e+07,316.73,0,4.3484e+07,37.235,438.26,1
432,5.03,12137,1,12137,1,0.0011946,-1.1542e-09,0,0.0011946,-0.00022268,3.0284e+08,-268.27,0,3.0284e+08,-21.265,12136,12879,1,12879,1,0.001559,2.0756e-09,0,0.001559,-0.00015462,3.7017e+08,495.71,0,3.7017e+08,117.2,12878,12136,1,12136,1,0.0011946,-6.4076e-10,0,0.0011946,-0.00022266,3.0314e+08,-134.56,0,3.0314e+08,-3.5633,12135,11395,1,11395,1,0.00083026,-6.1603e-09,0,0.00083026,-0.00029083,2.3519e+08,-1471.5,0,2.3519e+08,-189.74,11394,11748,1,11748,1,0.00098643,-2.8347e-09,0,0.00098643,-0.00026158,2.6607e+08,-617.16,0,2.6607e+08,-92.825,11747,12524,1,12524,1,0.0014029,5.9468e-10,0,0.0014029,-0.00018378,3.3948e+08,121.02,0,3.3948e+08,38.431,12523,438.26,0,438.26,0,0.00023881,2.1387e-09,0,0.00023881,4.4628e-05,4.3391e+07,488.29,0,4.3391e+07,74.615,438.26,1
432,5.04,12137,1,12137,1,0.0011978,-7.05e-11,0,0.0011978,-0.00022327,3.0308e+08,-27.214,0,3.0308e+08,-37.722,12136,12879,1,12879,1,0.001563,1.6481e-09,0,0.001563,-0.00015506,3.7028e+08,339.56,0,3.7028e+08,92.196,12878,12136,1,12136,1,0.0011978,4.3947e-11,0,0.0011978,-0.00022324,3.0338e+08,9.7086,0,3.0338e+08,-15.353,12135,11395,1,11395,1,0.00083261,-2.6604e-09,0,0.00083261,-0.00029157,2.3557e+08,-634.53,0,2.3557e+08,-197.79,11394,11748,1,11748,1,0.00098913,-9.7938e-10,0,0.00098913,-0.00026225,2.6639e+08,-218.93,0,2.6639e+08,-81.069,11747,12524,1,12524,1,0.0014065,8.8746e-10,0,0.0014065,-0.00018428,3.3963e+08,184.78,0,3.3963e+08,4.9426,12523,438.26,0,438.26,0,0.00023933,1.0888e-09,0,0.00023933,4.4726e-05,4.3302e+07,240.72,0,4.3302e+07,58.816,438.26,1
432,5.05,12137,1,12137,1,0.001201,-9.6409e-11,0,0.001201,-0.00022385,3.033e+08,-34.055,0,3.033e+08,-34.058,12136,12879,1,12879,1,0.001567,1.7587e-09,0,0.001567,-0.00015549,3.7038e+08,351.19,0,3.7038e+08,81.361,12878,12136,1,12136,1,0.001201,1.4402e-10,0,0.001201,-0.00022383,3.036e+08,30.935,0,3.036e+08,-14.924,12135,11395,1,11395,1,0.00083497,-2.8373e-09,0,0.00083497,-0.0002923,2.3594e+08,-675.64,0,2.3594e+08,-212.16,11394,11748,1,11748,1,0.00099184,-8.1017e-10,0,0.00099184,-0.00026292,2.667e+08,-186.36,0,2.667e+08,-89.235,11747,12524,1,12524,1,0.0014101,8.2271e-10,0,0.0014101,-0.00018478,3.3976e+08,169.12,0,3.3976e+08,21.103,12523,438.26,0,438.26,0,0.00023986,1.1466e-09,0,0.00023986,4.4822e-05,4.3207e+07,255.31,0,4.3207e+07,65.888,438.26,1
432,5.06,12137,1,12137,1,0.0012041,2.1129e-09,0,0.0012041,-0.00022444,3.0353e+08,461.47,0,3.0353e+08,-29.409,12136,12879,1,12879,1,0.0015709,3.0892e-09,0,0.0015709,-0.00015593,3.7047e+08,689.22,0,3.7047e+08,25.715,12878,12136,1,12136,1,0.0012041,2.3238e-09,0,0.0012041,-0.00022441,3.0382e+08,502.97,0,3.0382e+08,-18.004,12135,11395,1,11395,1,0.00083735,4.3008e-10,0,0.00083735,-0.00029303,2.3631e+08,85.685,0,2.3631e+08,-142.23,11394,11748,1,11748,1,0.00099454,1.7097e-09,0,0.00099454,-0.00026359,2.6701e+08,345.49,0,2.6701e+08,-57.854,11747,12524,1,12524,1,0.0014137,2.6666e-09,0,0.0014137,-0.00018528,3.399e+08,600.19,0,3.399e+08,4.5906,12523,438.26,0,438.26,0,0.00024038,7.1031e-10,0,0.00024038,4.4919e-05,4.3111e+07,167.91,0,4.3111e+07,41.102,438.26,1
432,5.07,12137,1,12137,1,0.0012072,-1.4902e-09,0,0.0012072,-0.00022501,3.0373e+08,-347.04,0,3.0373e+08,-29.783,12136,12879,1,12879,1,0.0015748,3.3317e-09,0,0.0015748,-0.00015636,3.7054e+08,724.01,0,3.7054e+08,160.67,12878,12136,1,12136,1,0.0012072,-6.005e-10,0,0.0012072,-0.00022498,3.0401e+08,-130.49,0,3.0401e+08,-17.249,12135,11395,1,11395,1,0.00083965,-9.6654e-09,0,0.00083965,-0.00029375,2.3666e+08,-2297.2,0,2.3666e+08,-238.14,11394,11748,1,11748,1,0.00099719,-3.6627e-09,0,0.00099719,-0.00026424,2.673e+08,-828.38,0,2.673e+08,-107.3,11747,12524,1,12524,1,0.0014172,1.0981e-09,0,0.0014172,-0.00018577,3.4e+08,225.83,0,3.4e+08,37.614,12523,438.26,0,438.26,0,0.00024088,3.2829e-09,0,0.00024088,4.5013e-05,4.3012e+07,743.34,0,4.3012e+07,89.093,438.26,1
432,5.08,12137,1,12137,1,0.0012104,-1.3182e-09,0,0.0012104,-0.0002256,3.0397e+08,-310.84,0,3.0397e+08,-56.017,12136,12879,1,12879,1,0.0015788,2.8321e-09,0,0.0015788,-0.0001568,3.7065e+08,561.8,0,3.7065e+08,88.289,12878,12136,1,12136,1,0.0012104,-1.2053e-09,0,0.0012104,-0.00022557,3.0425e+08,-257.36,0,3.0425e+08,-22.041,12135,11395,1,11395,1,0.00084203,-6.4705e-09,0,0.00084203,-0.00029449,2.3703e+08,-1535.7,0,2.3703e+08,-287.39,11394,11748,1,11748,1,0.00099993,-3.1872e-09,0,0.00099993,-0.00026492,2.6763e+08,-724.93,0,2.6763e+08,-128.8,11747,12524,1,12524,1,0.0014209,6.3085e-10,0,0.0014209,-0.00018627,3.4015e+08,126.5,0,3.4015e+08,15.199,12523,438.26,0,438.26,0,0.00024141,2.3219e-09,0,0.00024141,4.5111e-05,4.2921e+07,520.36,0,4.2921e+07,92.679,438.26,1
432,5.09,12137,1,12137,1,0.0012135,1.2705e-09,0,0.0012135,-0.00022618,3.0417e+08,262.55,0,3.0417e+08,-47.831,12136,12879,1,12879,1,0.0015827,3.3343e-09,0,0.0015827,-0.00015724,3.7071e+08,790.67,0,3.7071e+08,126.92,12878,12136,1,12136,1,0.0012136,1.6543e-09,0,0.0012136,-0.00022615,3.0444e+08,340.88,0,3.0444e+08,-7.7174,12135,11395,1,11395,1,0.00084439,-2.3889e-09,0,0.00084439,-0.00029522,2.3739e+08,-565.56,0,2.3739e+08,-267.69,11394,11748,1,11748,1,0.0010026,7.5406e-10,0,0.0010026,-0.00026558,2.6792e+08,168.71,0,2.6792e+08,-132.58,11747,12524,1,12524,1,0.0014245,2.1496e-09,0,0.0014245,-0.00018677,3.4026e+08,439.13,0,3.4026e+08,29.449,12523,438.26,0,438.26,0,0.00024193,1.2134e-09,0,0.00024193,4.5207e-05,4.282e+07,265.02,0,4.282e+07,97.753,438.26,1
432,5.1,12137,1,12137,1,0.0012168,-2.4071e-09,0,0.0012168,-0.00022678,3.044e+08,-553.67,0,3.044e+08,-23.618,12136,12879,1,12879,1,0.0015868,3.0391e-09,0,0.0015868,-0.00015768,3.7081e+08,600.02,0,3.7081e+08,160.35,12878,12136,1,12136,1,0.0012168,-2.4378e-09,0,0.0012168,-0.00022675,3.0467e+08,-516.74,0,3.0467e+08,-0.11469,12135,11395,1,11395,1,0.00084678,-9.3686e-09,0,0.00084678,-0.00029597,2.3776e+08,-2218,0,2.3776e+08,-246.74,11394,11748,1,11748,1,0.0010054,-5.0621e-09,0,0.0010054,-0.00026627,2.6824e+08,-1155,0,2.6824e+08,-105.19,11747,12524,1,12524,1,0.0014282,3.5694e-10,0,0.0014282,-0.00018728,3.404e+08,71.753,0,3.404e+08,52.332,12523,438.26,0,438.26,0,0.00024246,3.1751e-09,0,0.00024246,4.5305e-05,4.2725e+07,716.8,0,4.2725e+07,94.198,438.26,1
432,5.11,12137,1,12137,1,0.0012199,2.042e-09,0,0.0012199,-0.00022736,3.0459e+08,431.1,0,3.0459e+08,-56.403,12136,12879,1,12879,1,0.0015907,3.3646e-09,0,0.0015907,-0.00015812,3.7086e+08,742.69,0,3.7086e+08,108.45,12878,12136,1,12136,1,0.0012199,2.402e-09,0,0.0012199,-0.00022733,3.0486e+08,491.92,0,3.0486e+08,-35.131,12135,11395,1,11395,1,0.00084916,-2.1139e-09,0,0.00084916,-0.0002967,2.3812e+08,-498.95,0,2.3812e+08,-299,11394,11748,1,11748,1,0.0010081,1.4717e-09,0,0.0010081,-0.00026693,2.6853e+08,317.84,0,2.6853e+08,-125.37,11747,12524,1,12524,1,0.0014318,2.8013e-09,0,0.0014318,-0.00018778,3.4049e+08,601.89,0,3.4049e+08,18.49,12523,438.26,0,438.26,0,0.00024297,1.1294e-09,0,0.00024297,4.54e-05,4.262e+07,246.5,0,4.262e+07,93.87,438.26,1
432,5.12,12137,1,12137,1,0.0012231,-7.5051e-10,0,0.0012231,-0.00022795,3.048e+08,-188.97,0,3.048e+08,-31.627,12136,12879,1,12879,1,0.0015947,3.3463e-09,0,0.0015947,-0.00015856,3.7094e+08,657.6,0,3.7094e+08,175.71,12878,12136,1,12136,1,0.0012231,-2.1028e-11,0,0.0012231,-0.00022792,3.0506e+08,-3.5807,0,3.0506e+08,-7.4444,12135,11395,1,11395,1,0.00085154,-7.1452e-09,0,0.00085154,-0.00029744,2.3848e+08,-1687,0,2.3848e+08,-291.73,11394,11748,1,11748,1,0.0010108,-2.6664e-09,0,0.0010108,-0.00026761,2.6883e+08,-587.83,0,2.6883e+08,-123.05,11747,12524,1,12524,1,0.0014354,1.2241e-09,0,0.0014354,-0.00018828,3.4061e+08,251.23,0,3.4061e+08,48.434,12523,438.26,0,438.26,0,0.0002435,2.6351e-09,0,0.0002435,4.5497e-05,4.2522e+07,586.33,0,4.2522e+07,107.74,438.26,1
432,5.13,12137,1,12137,1,0.0012263,2.2216e-09,0,0.0012263,-0.00022855,3.0502e+08,471.02,0,3.0502e+08,-49.842,12136,12879,1,12879,1,0.0015987,3.7588e-09,0,0.0015987,-0.00015901,3.7101e+08,779.19,0,3.7101e+08,117.57,12878,12136,1,12136,1,0.0012263,2.1419e-09,0,0.0012263,-0.00022852,3.0527e+08,470.37,0,3.0527e+08,-14.864,12135,11395,1,11395,1,0.00085397,1.4822e-10,0,0.00085397,-0.00029818,2.3885e+08,29.34,0,2.3885e+08,-309.27,11394,11748,1,11748,1,0.0010136,1.7015e-09,0,0.0010136,-0.00026829,2.6914e+08,362.83,0,2.6914e+08,-118.11,11747,12524,1,12524,1,0.0014391,2.8059e-09,0,0.0014391,-0.0001888,3.4073e+08,569.43,0,3.4073e+08,25.54,12523,438.26,0,438.26,0,0.00024403,7.8745e-10,0,0.00024403,4.5596e-05,4.2422e+07,162.23,0,4.2422e+07,102.62,438.26,1
432,5.14,12137,1,12137,1,0.0012295,1.5813e-09,0,0.0012295,-0.00022914,3.0522e+08,332.63,0,3.0522e+08,-33.421,12136,12879,1,12879,1,0.0016027,3.4271e-09,0,0.0016027,-0.00015945,3.7106e+08,730.35,0,3.7106e+08,154.01,12878,12136,1,12136,1,0.0012295,1.5512e-09,0,0.0012295,-0.00022911,3.0547e+08,321.65,0,3.0547e+08,-11.67,12135,11395,1,11395,1,0.00085639,-3.0447e-10,0,0.00085639,-0.00029892,2.3921e+08,-71.715,0,2.3921e+08,-246.65,11394,11748,1,11748,1,0.0010163,9.0067e-10,0,0.0010163,-0.00026897,2.6943e+08,193.56,0,2.6943e+08,-89.517,11747,12524,1,12524,1,0.0014428,2.2424e-09,0,0.0014428,-0.0001893,3.4083e+08,472.45,0,3.4083e+08,18.55,12523,438.26,0,438.26,0,0.00024455,8.9416e-10,0,0.00024455,4.5693e-05,4.2317e+07,188.09,0,4.2317e+07,83.169,438.26,1
432,5.15,12137,1,12137,1,0.0012328,3.4267e-10,0,0.0012328,-0.00022973,3.0542e+08,62.477,0,3.0542e+08,-29.081,12136,12879,1,12879,1,0.0016068,1.66e-09,0,0.0016068,-0.0001599,3.7112e+08,326.13,0,3.7112e+08,132.97,12878,12136,1,12136,1,0.0012328,6.2412e-10,0,0.0012328,-0.00022971,3.0566e+08,130.98,0,3.0566e+08,-12.401,12135,11395,1,11395,1,0.0008588,-2.3409e-09,0,0.0008588,-0.00029966,2.3957e+08,-550.07,0,2.3957e+08,-216.34,11394,11748,1,11748,1,0.0010191,-1.0385e-10,0,0.0010191,-0.00026965,2.6973e+08,-21.61,0,2.6973e+08,-91.156,11747,12524,1,12524,1,0.0014464,1.0072e-09,0,0.0014464,-0.00018981,3.4093e+08,203.77,0,3.4093e+08,28.621,12523,438.26,0,438.26,0,0.00024508,9.4227e-10,0,0.00024508,4.579e-05,4.2213e+07,204.5,0,4.2213e+07,79.264,438.26,1
432,5.16,12137,1,12137,1,0.001236,2.3232e-11,0,0.001236,-0.00023033,3.0561e+08,-9.7099,0,3.0561e+08,-39.558,12136,12879,1,12879,1,0.0016108,1.9384e-09,0,0.0016108,-0.00016034,3.7117e+08,377.56,0,3.7117e+08,138.28,12878,12136,1,12136,1,0.001236,4.6637e-10,0,0.001236,-0.0002303,3.0585e+08,96.766,0,3.0585e+08,-25.374,12135,11395,1,11395,1,0.00086121,-3.4177e-09,0,0.00086121,-0.0003004,2.3993e+08,-802.5,0,2.3993e+08,-234.48,11394,11748,1,11748,1,0.0010218,-7.628e-10,0,0.0010218,-0.00027032,2.7002e+08,-168.25,0,2.7002e+08,-111.47,11747,12524,1,12524,1,0.0014501,9.3801e-10,0,0.0014501,-0.00019032,3.4103e+08,187.61,0,3.4103e+08,27.207,12523,438.26,0,438.26,0,0.0002456,1.3073e-09,0,0.0002456,4.5887e-05,4.2108e+07,286.16,0,4.2108e+07,87.794,438.26,1
432,5.17,12137,1,12137,1,0.0012392,3.1393e-09,0,0.0012392,-0.00023092,3.0581e+08,681.64,0,3.0581e+08,-28.701,12136,12879,1,12879,1,0.0016148,5.9433e-09,0,0.0016148,-0.0001608,3.7123e+08,1373.7,0,3.7123e+08,84.867,12878,12136,1,12136,1,0.0012392,3.3295e-09,0,0.0012392,-0.00023089,3.0605e+08,687.45,0,3.0605e+08,-15.791,12135,11395,1,11395,1,0.00086365,-4.0042e-10,0,0.00086365,-0.00030114,2.4029e+08,-77.368,0,2.4029e+08,-197.5,11394,11748,1,11748,1,0.0010246,1.8245e-09,0,0.0010246,-0.000271,2.7031e+08,363.25,0,2.7031e+08,-61.185,11747,12524,1,12524,1,0.0014538,4.74e-09,0,0.0014538,-0.00019083,3.4113e+08,1048.5,0,3.4113e+08,14.569,12523,438.26,0,438.26,0,0.00024613,1.8544e-09,0,0.00024613,4.5985e-05,4.2003e+07,419.67,0,4.2003e+07,57.521,438.26,1
432,5.18,12137,1,12137,1,0.0012424,8.3127e-10,0,0.0012424,-0.00023152,3.0601e+08,180.55,0,3.0601e+08,-27.456,12136,12879,1,12879,1,0.0016188,2.2326e-09,0,0.0016188,-0.00016125,3.7127e+08,523.05,0,3.7127e+08,48.53,12878,12136,1,12136,1,0.0012424,1.0031e-09,0,0.0012424,-0.00023149,3.0623e+08,216.53,0,3.0623e+08,-21.211,12135,11395,1,11395,1,0.00086609,-6.6401e-10,0,0.00086609,-0.00030189,2.4065e+08,-128.49,0,2.4065e+08,-153.4,11394,11748,1,11748,1,0.0010274,5.213e-10,0,0.0010274,-0.00027169,2.7061e+08,104.43,0,2.7061e+08,-53.714,11747,12524,1,12524,1,0.0014575,1.2039e-09,0,0.0014575,-0.00019135,3.4122e+08,264.39,0,3.4122e+08,1.7865,12523,438.26,0,438.26,0,0.00024666,5.2329e-10,0,0.00024666,4.6083e-05,4.1896e+07,116.66,0,4.1896e+07,41.228,438.26,1
432,5.19,12137,1,12137,1,0.0012456,-1.751e-09,0,0.0012456,-0.00023211,3.0619e+08,-389.53,0,3.0619e+08,-26.24,12136,12879,1,12879,1,0.0016228,1.7735e-09,0,0.0016228,-0.00016169,3.713e+08,342.22,0,3.713e+08,128.91,12878,12136,1,12136,1,0.0012456,-1.2128e-09,0,0.0012456,-0.00023208,3.0641e+08,-257.21,0,3.0641e+08,-24.024,12135,11395,1,11395,1,0.00086849,-6.8072e-09,0,0.00086849,-0.00030263,2.41e+08,-1593,0,2.41e+08,-168.78,11394,11748,1,11748,1,0.0010301,-3.292e-09,0,0.0010301,-0.00027236,2.7089e+08,-700.15,0,2.7089e+08,-81.66,11747,12524,1,12524,1,0.0014611,-1.9864e-10,0,0.0014611,-0.00019185,3.413e+08,-39.586,0,3.413e+08,27.426,12523,438.26,0,438.26,0,0.00024718,2.0886e-09,0,0.00024718,4.6179e-05,4.1787e+07,467.71,0,4.1787e+07,68.501,438.26,1
432,5.2,12137,1,12137,1,0.0012489,-3.0559e-10,0,0.0012489,-0.00023271,3.0638e+08,-76.187,0,3.0638e+08,-33.804,12136,12879,1,12879,1,0.0016268,1.5775e-09,0,0.0016268,-0.00016214,3.7134e+08,304.27,0,3.7134e+08,98.927,12878,12136,1,12136,1,0.0012489,9.5334e-12,0,0.0012489,-0.00023268,3.066e+08,1.9815,0,3.066e+08,-22.692,12135,11395,1,11395,1,0.00087091,-3.371e-09,0,0.00087091,-0.00030338,2.4135e+08,-787.43,0,2.4135e+08,-182.55,11394,11748,1,11748,1,0.0010329,-9.518e-10,0,0.0010329,-0.00027304,2.7118e+08,-205.11,0,2.7118e+08,-86.584,11747,12524,1,12524,1,0.0014648,3.7635e-10,0,0.0014648,-0.00019237,3.4139e+08,75.362,0,3.4139e+08,22.049,12523,438.26,0,438.26,0,0.0002477,1.106e-09,0,0.0002477,4.6276e-05,4.168e+07,243.34,0,4.168e+07,69.883,438.26,1
432,5.21,12137,1,12137,1,0.0012521,-3.3386e-12,0,0.0012521,-0.0002333,3.0655e+08,-16.051,0,3.0655e+08,-31.73,12136,12879,1,12879,1,0.0016308,2.4754e-09,0,0.0016308,-0.00016258,3.7137e+08,475.96,0,3.7137e+08,152.75,12878,12136,1,12136,1,0.0012521,5.9617e-10,0,0.0012521,-0.00023327,3.0677e+08,118.03,0,3.0677e+08,-9.8118,12135,11395,1,11395,1,0.00087332,-4.6684e-09,0,0.00087332,-0.00030412,2.417e+08,-1089.2,0,2.417e+08,-224.32,11394,11748,1,11748,1,0.0010357,-9.0567e-10,0,0.0010357,-0.00027372,2.7146e+08,-186.68,0,2.7146e+08,-109.9,11747,12524,1,12524,1,0.0014685,1.1236e-09,0,0.0014685,-0.00019287,3.4146e+08,229.04,0,3.4146e+08,43.063,12523,438.26,0,438.26,0,0.00024822,1.6172e-09,0,0.00024822,4.6372e-05,4.157e+07,353.77,0,4.157e+07,91.226,438.26,1
432,5.22,12137,1,12137,1,0.0012552,-3.1333e-10,0,0.0012552,-0.00023389,3.0673e+08,-87.306,0,3.0673e+08,-32.32,12136,12879,1,12879,1,0.0016348,3.3422e-09,0,0.0016348,-0.00016303,3.714e+08,668.08,0,3.714e+08,178.01,12878,12136,1,12136,1,0.0012553,5.4425e-10,0,0.0012553,-0.00023386,3.0694e+08,111.77,0,3.0694e+08,-20.766,12135,11395,1,11395,1,0.00087571,-6.9876e-09,0,0.00087571,-0.00030486,2.4204e+08,-1628.2,0,2.4204e+08,-272.4,11394,11748,1,11748,1,0.0010384,-1.7979e-09,0,0.0010384,-0.00027439,2.7173e+08,-383.6,0,2.7173e+08,-116.39,11747,12524,1,12524,1,0.0014721,1.3396e-09,0,0.0014721,-0.00019338,3.4154e+08,273.52,0,3.4154e+08,49.118,12523,438.26,0,438.26,0,0.00024874,2.3859e-09,0,0.00024874,4.6468e-05,4.1461e+07,523.57,0,4.1461e+07,107.59,438.26,1
432,5.23,12137,1,12137,1,0.0012585,1.7984e-09,0,0.0012585,-0.00023449,3.0689e+08,368.43,0,3.0689e+08,-107.39,12136,12879,1,12879,1,0.0016389,8.085e-09,0,0.0016389,-0.00016348,3.714e+08,1881.7,0,3.714e+08,263.8,12878,12136,1,12136,1,0.0012585,2.1569e-09,0,0.0012585,-0.00023447,3.071e+08,421.89,0,3.071e+08,-115.92,12135,11395,1,11395,1,0.00087817,-5.9073e-09,0,0.00087817,-0.00030561,2.4238e+08,-1373.9,0,2.4238e+08,-521.76,11394,11748,1,11748,1,0.0010412,6.1134e-10,0,0.0010412,-0.00027508,2.72e+08,129.95,0,2.72e+08,-258.65,11747,12524,1,12524,1,0.0014758,3.3188e-09,0,0.0014758,-0.0001939,3.416e+08,658.44,0,3.416e+08,47.88,12523,438.26,0,438.26,0,0.00024926,2.5137e-09,0,0.00024926,4.6564e-05,4.1352e+07,556.13,0,4.1352e+07,185.26,438.26,1
432,5.24,12137,1,12137,1,0.0012619,6.9386e-10,0,0.0012619,-0.00023513,3.0708e+08,130.87,0,3.0708e+08,-94.291,12136,12879,1,12879,1,0.0016432,4.5493e-09,0,0.0016432,-0.00016396,3.7143e+08,912.66,0,3.7143e+08,190.37,12878,12136,1,12136,1,0.001262,5.2385e-10,0,0.001262,-0.0002351,3.0727e+08,109.29,0,3.0727e+08,-80.38,12135,11395,1,11395,1,0.00088077,-2.1607e-09,0,0.00088077,-0.0003064,2.4273e+08,-475.57,0,2.4273e+08,-460.01,11394,11748,1,11748,1,0.0010442,-6.803e-10,0,0.0010442,-0.00027581,2.7228e+08,-151.6,0,2.7228e+08,-219.37,11747,12524,1,12524,1,0.0014798,1.9766e-09,0,0.0014798,-0.00019445,3.4168e+08,393.45,0,3.4168e+08,31.808,12523,438.26,0,438.26,0,0.00024981,1.6376e-09,0,0.00024981,4.6666e-05,4.1243e+07,335.55,0,4.1243e+07,150.85,438.26,1
432,5.25,12137,1,12137,1,0.0012653,7.0034e-10,0,0.0012653,-0.00023576,3.0721e+08,132.15,0,3.0721e+08,-92.657,12136,12879,1,12879,1,0.0016474,3.7391e-09,0,0.0016474,-0.00016444,3.714e+08,735.51,0,3.714e+08,210.53,12878,12136,1,12136,1,0.0012654,6.2749e-10,0,0.0012654,-0.00023573,3.074e+08,134.37,0,3.074e+08,-87.664,12135,11395,1,11395,1,0.00088334,-3.1287e-09,0,0.00088334,-0.00030718,2.4305e+08,-724.73,0,2.4305e+08,-447.92,11394,11748,1,11748,1,0.0010471,7.1393e-11,0,0.0010471,-0.00027652,2.7252e+08,14.587,0,2.7252e+08,-222.69,11747,12524,1,12524,1,0.0014836,1.5273e-09,0,0.0014836,-0.00019499,3.417e+08,298.45,0,3.417e+08,34.419,12523,438.26,0,438.26,0,0.00025035,1.3675e-09,0,0.00025035,4.6766e-05,4.112e+07,284.08,0,4.112e+07,155,438.26,1
432,5.26,12137,1,12137,1,0.0012688,1.6227e-09,0,0.0012688,-0.00023639,3.0736e+08,330.52,0,3.0736e+08,-85.419,12136,12879,1,12879,1,0.0016517,4.7238e-09,0,0.0016517,-0.00016492,3.7138e+08,952.29,0,3.7138e+08,193.81,12878,12136,1,12136,1,0.0012688,1.4539e-09,0,0.0012688,-0.00023636,3.0755e+08,300.48,0,3.0755e+08,-77.684,12135,11395,1,11395,1,0.00088594,-4.9444e-10,0,0.00088594,-0.00030797,2.4338e+08,-113.59,0,2.4338e+08,-389.16,11394,11748,1,11748,1,0.00105,6.5681e-10,0,0.00105,-0.00027724,2.7278e+08,143.61,0,2.7278e+08,-196.63,11747,12524,1,12524,1,0.0014875,2.4906e-09,0,0.0014875,-0.00019553,3.4173e+08,498.92,0,3.4173e+08,25.371,12523,438.26,0,438.26,0,0.00025089,1.1793e-09,0,0.00025089,4.6866e-05,4.1001e+07,235.86,0,4.1001e+07,136.75,438.26,1
432,5.27,12137,1,12137,1,0.0012722,1.4713e-09,0,0.0012722,-0.00023703,3.0751e+08,299.23,0,3.0751e+08,-79.027,12136,12879,1,12879,1,0.001656,4.7573e-09,0,0.001656,-0.0001654,3.7136e+08,988.22,0,3.7136e+08,167.31,12878,12136,1,12136,1,0.0012723,1.4258e-09,0,0.0012723,-0.000237,3.0769e+08,294.8,0,3.0769e+08,-63.705,12135,11395,1,11395,1,0.00088858,-1.6237e-09,0,0.00088858,-0.00030877,2.4372e+08,-375.91,0,2.4372e+08,-338.31,11394,11748,1,11748,1,0.001053,4.4761e-10,0,0.001053,-0.00027797,2.7304e+08,91.51,0,2.7304e+08,-166.77,11747,12524,1,12524,1,0.0014915,2.6105e-09,0,0.0014915,-0.00019608,3.4177e+08,525.47,0,3.4177e+08,1.6507,12523,438.26,0,438.26,0,0.00025144,1.4368e-09,0,0.00025144,4.6969e-05,4.088e+07,296.9,0,4.088e+07,109.13,438.26,1
432,5.28,12137,1,12137,1,0.0012757,1.5483e-09,0,0.0012757,-0.00023766,3.0763e+08,316.3,0,3.0763e+08,-54.18,12136,12879,1,12879,1,0.0016602,2.9455e-09,0,0.0016602,-0.00016588,3.713e+08,585.09,0,3.713e+08,192.25,12878,12136,1,12136,1,0.0012757,1.654e-09,0,0.0012757,-0.00023763,3.078e+08,354.58,0,3.078e+08,-53.403,12135,11395,1,11395,1,0.00089118,-7.4442e-10,0,0.00089118,-0.00030955,2.4404e+08,-170.79,0,2.4404e+08,-277.03,11394,11748,1,11748,1,0.001056,1.1754e-09,0,0.001056,-0.00027869,2.7328e+08,235.82,0,2.7328e+08,-137.64,11747,12524,1,12524,1,0.0014954,1.9619e-09,0,0.0014954,-0.00019663,3.4177e+08,399.42,0,3.4177e+08,23.082,12523,438.26,0,438.26,0,0.00025198,6.9713e-10,0,0.00025198,4.7068e-05,4.0753e+07,139.92,0,4.0753e+07,101.17,438.26,1
432,5.29,12137,1,12137,1,0.0012791,1.2598e-09,0,0.0012791,-0.00023829,3.0776e+08,255.03,0,3.0776e+08,-56.847,12136,12879,1,12879,1,0.0016644,2.5003e-09,0,0.0016644,-0.00016636,3.7126e+08,499.3,0,3.7126e+08,125.3,12878,12136,1,12136,1,0.0012791,1.3781e-09,0,0.0012791,-0.00023826,3.0793e+08,293.2,0,3.0793e+08,-56.096,12135,11395,1,11395,1,0.00089376,-1.2899e-09,0,0.00089376,-0.00031032,2.4435e+08,-296.38,0,2.4435e+08,-270.77,11394,11748,1,11748,1,0.0010589,9.8436e-10,0,0.0010589,-0.0002794,2.7352e+08,196.37,0,2.7352e+08,-132,11747,12524,1,12524,1,0.0014992,1.6755e-09,0,0.0014992,-0.00019717,3.4178e+08,336.69,0,3.4178e+08,23.048,12523,438.26,0,438.26,0,0.00025251,6.8216e-10,0,0.00025251,4.7167e-05,4.0629e+07,138.83,0,4.0629e+07,92.682,438.26,1
432,5.3,12137,1,12137,1,0.0012825,2.3995e-09,0,0.0012825,-0.00023893,3.079e+08,501.37,0,3.079e+08,-61.292,12136,12879,1,12879,1,0.0016687,4.4447e-09,0,0.0016687,-0.00016685,3.7123e+08,934.01,0,3.7123e+08,43.531,12878,12136,1,12136,1,0.0012825,2.4391e-09,0,0.0012825,-0.0002389,3.0806e+08,528.41,0,3.0806e+08,-50.911,12135,11395,1,11395,1,0.0008964,-7.706e-11,0,0.0008964,-0.00031112,2.4469e+08,-14.568,0,2.4469e+08,-223.38,11394,11748,1,11748,1,0.0010619,1.5658e-09,0,0.0010619,-0.00028013,2.7377e+08,308.06,0,2.7377e+08,-123.37,11747,12524,1,12524,1,0.0015032,3.1822e-09,0,0.0015032,-0.00019772,3.4181e+08,691.15,0,3.4181e+08,5.4635,12523,438.26,0,438.26,0,0.00025306,1.0732e-09,0,0.00025306,4.7268e-05,4.0508e+07,234.39,0,4.0508e+07,74.521,438.26,1
432,5.31,12137,1,12137,1,0.0012859,-1.3108e-09,0,0.0012859,-0.00023956,3.0801e+08,-293.95,0,3.0801e+08,-76.698,12136,12879,1,12879,1,0.0016729,4.5956e-09,0,0.0016729,-0.00016732,3.7116e+08,1056,0,3.7116e+08,212.57,12878,12136,1,12136,1,0.0012859,-2.3429e-10,0,0.0012859,-0.00023952,3.0817e+08,-47.037,0,3.0817e+08,-86.825,12135,11395,1,11395,1,0.00089897,-9.5622e-09,0,0.00089897,-0.0003119,2.4499e+08,-2197.3,0,2.4499e+08,-367.37,11394,11748,1,11748,1,0.0010648,-3.5606e-09,0,0.0010648,-0.00028084,2.74e+08,-726.62,0,2.74e+08,-197.82,11747,12524,1,12524,1,0.001507,1.0065e-09,0,0.001507,-0.00019826,3.418e+08,196.76,0,3.418e+08,36.969,12523,438.26,0,438.26,0,0.00025359,3.1976e-09,0,0.00025359,4.7366e-05,4.0379e+07,698.34,0,4.0379e+07,144.38,438.26,1
432,5.32,12137,1,12137,1,0.0012893,-1.1169e-09,0,0.0012893,-0.00024019,3.0814e+08,-256.22,0,3.0814e+08,-82.953,12136,12879,1,12879,1,0.0016772,3.0925e-09,0,0.0016772,-0.0001678,3.7112e+08,578.53,0,3.7112e+08,151.63,12878,12136,1,12136,1,0.0012894,-8.3522e-10,0,0.0012894,-0.00024016,3.0829e+08,-168.63,0,3.0829e+08,-51.828,12135,11395,1,11395,1,0.00090157,-6.5893e-09,0,0.00090157,-0.00031269,2.4531e+08,-1511.5,0,2.4531e+08,-427.71,11394,11748,1,11748,1,0.0010678,-2.6125e-09,0,0.0010678,-0.00028156,2.7424e+08,-569.94,0,2.7424e+08,-197.91,11747,12524,1,12524,1,0.0015109,5.1621e-10,0,0.0015109,-0.00019881,3.4181e+08,97.375,0,3.4181e+08,36.559,12523,438.26,0,438.26,0,0.00025413,2.2686e-09,0,0.00025413,4.7466e-05,4.0255e+07,489.07,0,4.0255e+07,145.14,438.26,1
432,5.33,12137,1,12137,1,0.0012928,1.7198e-09,0,0.0012928,-0.00024082,3.0826e+08,339.35,0,3.0826e+08,-95.731,12136,12879,1,12879,1,0.0016814,5.0118e-09,0,0.0016814,-0.00016828,3.7106e+08,1148,0,3.7106e+08,192.81,12878,12136,1,12136,1,0.0012928,1.9843e-09,0,0.0012928,-0.00024079,3.084e+08,386.09,0,3.084e+08,-92.928,12135,11395,1,11395,1,0.00090418,-3.2224e-09,0,0.00090418,-0.00031348,2.4563e+08,-737.01,0,2.4563e+08,-430.33,11394,11748,1,11748,1,0.0010708,9.5034e-10,0,0.0010708,-0.00028228,2.7447e+08,189.43,0,2.7447e+08,-200.37,11747,12524,1,12524,1,0.0015148,2.8854e-09,0,0.0015148,-0.00019936,3.4182e+08,574.7,0,3.4182e+08,21.581,12523,438.26,0,438.26,0,0.00025467,1.6235e-09,0,0.00025467,4.7566e-05,4.0129e+07,338.17,0,4.0129e+07,150.01,438.26,1
432,5.34,12137,1,12137,1,0.0012963,1.0678e-09,0,0.0012963,-0.00024147,3.0838e+08,199.13,0,3.0838e+08,-120.7,12136,12879,1,12879,1,0.0016858,4.7459e-09,0,0.0016858,-0.00016877,3.7101e+08,912.85,0,3.7101e+08,178.64,12878,12136,1,12136,1,0.0012963,7.7425e-10,0,0.0012963,-0.00024144,3.0852e+08,150.98,0,3.0852e+08,-114.98,12135,11395,1,11395,1,0.00090682,-3.3018e-09,0,0.00090682,-0.00031428,2.4595e+08,-754.46,0,2.4595e+08,-437.91,11394,11748,1,11748,1,0.0010738,-1.7317e-10,0,0.0010738,-0.00028301,2.7471e+08,-37.353,0,2.7471e+08,-234.64,11747,12524,1,12524,1,0.0015188,2.5922e-09,0,0.0015188,-0.00019991,3.4182e+08,515.06,0,3.4182e+08,-7.2517,12523,438.26,0,438.26,0,0.00025521,1.8358e-09,0,0.00025521,4.7667e-05,4.0002e+07,367.52,0,4.0002e+07,152.11,438.26,1
432,5.35,12137,1,12137,1,0.0012998,2.9147e-09,0,0.0012998,-0.00024211,3.085e+08,594.04,0,3.085e+08,-91.456,12136,12879,1,12879,1,0.0016901,6.3865e-09,0,0.0016901,-0.00016927,3.7095e+08,1303.4,0,3.7095e+08,104.05,12878,12136,1,12136,1,0.0012998,2.6947e-09,0,0.0012998,-0.00024208,3.0863e+08,536.6,0,3.0863e+08,-49.032,12135,11395,1,11395,1,0.00090949,-3.1009e-10,0,0.00090949,-0.00031507,2.4627e+08,-57.747,0,2.4627e+08,-439.19,11394,11748,1,11748,1,0.0010768,1.6893e-09,0,0.0010768,-0.00028375,2.7495e+08,364.33,0,2.7495e+08,-190.72,11747,12524,1,12524,1,0.0015228,4.0916e-09,0,0.0015228,-0.00020047,3.4182e+08,847.45,0,3.4182e+08,18.325,12523,438.26,0,438.26,0,0.00025576,1.5762e-09,0,0.00025576,4.7768e-05,3.9872e+07,320,0,3.9872e+07,141.88,438.26,1
432,5.36,12137,1,12137,1,0.0013032,3.2935e-10,0,0.0013032,-0.00024275,3.086e+08,44.258,0,3.086e+08,-84.384,12136,12879,1,12879,1,0.0016944,4.2878e-09,0,0.0016944,-0.00016975,3.7086e+08,977.18,0,3.7086e+08,211.59,12878,12136,1,12136,1,0.0013032,8.3806e-10,0,0.0013032,-0.00024272,3.0873e+08,163.53,0,3.0873e+08,-33.73,12135,11395,1,11395,1,0.00091211,-5.8219e-09,0,0.00091211,-0.00031586,2.4657e+08,-1326.5,0,2.4657e+08,-500.25,11394,11748,1,11748,1,0.0010798,-9.9805e-10,0,0.0010798,-0.00028447,2.7517e+08,-209.23,0,2.7517e+08,-221.34,11747,12524,1,12524,1,0.0015267,1.8992e-09,0,0.0015267,-0.00020102,3.4179e+08,374.02,0,3.4179e+08,39.446,12523,438.26,0,438.26,0,0.00025629,2.3294e-09,0,0.00025629,4.7867e-05,3.9739e+07,491.71,0,3.9739e+07,170.49,438.26,1
432,5.37,12137,1,12137,1,0.0013067,2.5249e-09,0,0.0013067,-0.0002434,3.0873e+08,510.31,0,3.0873e+08,-98.404,12136,12879,1,12879,1,0.0016987,6.5966e-09,0,0.0016987,-0.00017024,3.708e+08,1340.2,0,3.708e+08,67.666,12878,12136,1,12136,1,0.0013067,2.3779e-09,0,0.0013067,-0.00024337,3.0884e+08,452.72,0,3.0884e+08,-52.328,12135,11395,1,11395,1,0.0009148,-1.7194e-09,0,0.0009148,-0.00031667,2.469e+08,-362.63,0,2.469e+08,-436.51,11394,11748,1,11748,1,0.0010828,9.0412e-10,0,0.0010828,-0.00028521,2.7541e+08,175.39,0,2.7541e+08,-193.57,11747,12524,1,12524,1,0.0015307,4.2385e-09,0,0.0015307,-0.00020158,3.418e+08,882.23,0,3.418e+08,3.7855,12523,438.26,0,438.26,0,0.00025685,2.1444e-09,0,0.00025685,4.797e-05,3.9612e+07,439.05,0,3.9612e+07,135.44,438.26,1
432,5.38,12137,1,12137,1,0.0013102,2.1267e-09,0,0.0013102,-0.00024404,3.0882e+08,424.97,0,3.0882e+08,-72.391,12136,12879,1,12879,1,0.001703,4.3801e-09,0,0.001703,-0.00017074,3.7071e+08,858.25,0,3.7071e+08,123.45,12878,12136,1,12136,1,0.0013102,2.0793e-09,0,0.0013102,-0.00024401,3.0894e+08,421.4,0,3.0894e+08,-29.537,12135,11395,1,11395,1,0.00091747,-1.8475e-10,0,0.00091747,-0.00031747,2.472e+08,-40.863,0,2.472e+08,-412.57,11394,11748,1,11748,1,0.0010858,1.4786e-09,0,0.0010858,-0.00028594,2.7563e+08,302.88,0,2.7563e+08,-169.04,11747,12524,1,12524,1,0.0015346,2.7739e-09,0,0.0015346,-0.00020214,3.4177e+08,554.08,0,3.4177e+08,28.217,12523,438.26,0,438.26,0,0.00025739,1.0161e-09,0,0.00025739,4.807e-05,3.9476e+07,195.99,0,3.9476e+07,136.6,438.26,1
432,5.39,12137,1,12137,1,0.0013138,1.2795e-09,0,0.0013138,-0.0002447,3.0894e+08,249.14,0,3.0894e+08,-77.782,12136,12879,1,12879,1,0.0017074,4.9681e-09,0,0.0017074,-0.00017124,3.7064e+08,1005,0,3.7064e+08,73.149,12878,12136,1,12136,1,0.0013138,1.248e-09,0,0.0013138,-0.00024467,3.0904e+08,243.84,0,3.0904e+08,-30.414,12135,11395,1,11395,1,0.00092017,-1.7953e-09,0,0.00092017,-0.00031828,2.4752e+08,-407.77,0,2.4752e+08,-353.85,11394,11748,1,11748,1,0.0010889,-1.1846e-10,0,0.0010889,-0.00028669,2.7586e+08,-23.897,0,2.7586e+08,-166.88,11747,12524,1,12524,1,0.0015387,2.5657e-09,0,0.0015387,-0.0002027,3.4176e+08,520.42,0,3.4176e+08,13.346,12523,438.26,0,438.26,0,0.00025795,1.6648e-09,0,0.00025795,4.8173e-05,3.9345e+07,335.68,0,3.9345e+07,117.6,438.26,1
432,5.4,12137,1,12137,1,0.0013172,1.1012e-09,0,0.0013172,-0.00024534,3.0902e+08,207.55,0,3.0902e+08,-48.251,12136,12879,1,12879,1,0.0017117,3.3012e-09,0,0.0017117,-0.00017173,3.7053e+08,665.17,0,3.7053e+08,152.37,12878,12136,1,12136,1,0.0013173,1.3886e-09,0,0.0013173,-0.00024531,3.0912e+08,273.88,0,3.0912e+08,-0.74143,12135,11395,1,11395,1,0.00092283,-2.8425e-09,0,0.00092283,-0.00031908,2.4782e+08,-642.88,0,2.4782e+08,-361.19,11394,11748,1,11748,1,0.0010919,4.1539e-10,0,0.0010919,-0.00028742,2.7607e+08,86.842,0,2.7607e+08,-150.06,11747,12524,1,12524,1,0.0015426,2.0083e-09,0,0.0015426,-0.00020326,3.4172e+08,397.11,0,3.4172e+08,43.679,12523,438.26,0,438.26,0,0.00025848,1.4024e-09,0,0.00025848,4.8273e-05,3.9206e+07,285.29,0,3.9206e+07,130.05,438.26,1
432,5.41,12137,1,12137,1,0.0013208,1.0354e-09,0,0.0013208,-0.000246,3.0914e+08,192.89,0,3.0914e+08,-54.97,12136,12879,1,12879,1,0.0017162,4.6418e-09,0,0.0017162,-0.00017223,3.7046e+08,902.74,0,3.7046e+08,95.192,12878,12136,1,12136,1,0.0013208,1.091e-09,0,0.0013208,-0.00024597,3.0923e+08,217.64,0,3.0923e+08,-16.498,12135,11395,1,11395,1,0.00092554,-2.5033e-09,0,0.00092554,-0.00031989,2.4814e+08,-566.38,0,2.4814e+08,-300.64,11394,11748,1,11748,1,0.001095,-3.2574e-10,0,0.001095,-0.00028816,2.7631e+08,-66.535,0,2.7631e+08,-125.15,11747,12524,1,12524,1,0.0015467,2.5767e-09,0,0.0015467,-0.00020383,3.4171e+08,497.85,0,3.4171e+08,22.784,12523,438.26,0,438.26,0,0.00025904,1.7872e-09,0,0.00025904,4.8376e-05,3.9074e+07,357.24,0,3.9074e+07,108.45,438.26,1
432,5.42,12137,1,12137,1,0.0013243,1.7269e-09,0,0.0013243,-0.00024665,3.0922e+08,336.69,0,3.0922e+08,-43.443,12136,12879,1,12879,1,0.0017205,4.3181e-09,0,0.0017205,-0.00017273,3.7035e+08,838.42,0,3.7035e+08,112.3,12878,12136,1,12136,1,0.0013244,1.7295e-09,0,0.0013244,-0.00024662,3.0931e+08,338.24,0,3.0931e+08,-2.4189,12135,11395,1,11395,1,0.00092824,-9.1238e-10,0,0.00092824,-0.0003207,2.4844e+08,-204.8,0,2.4844e+08,-265.41,11394,11748,1,11748,1,0.001098,7.1314e-10,0,0.001098,-0.0002889,2.7652e+08,146.77,0,2.7652e+08,-114.95,11747,12524,1,12524,1,0.0015507,2.6283e-09,0,0.0015507,-0.00020439,3.4166e+08,526.59,0,3.4166e+08,29.551,12523,438.26,0,438.26,0,0.00025959,1.2807e-09,0,0.00025959,4.8477e-05,3.8934e+07,249.72,0,3.8934e+07,99.144,438.26,1
432,5.43,12137,1,12137,1,0.0013279,2.8367e-09,0,0.0013279,-0.00024731,3.0932e+08,567.65,0,3.0932e+08,-37.143,12136,12879,1,12879,1,0.0017249,5.3073e-09,0,0.0017249,-0.00017323,3.7026e+08,1063.4,0,3.7026e+08,105.16,12878,12136,1,12136,1,0.0013279,2.7811e-09,0,0.0013279,-0.00024728,3.094e+08,558.96,0,3.094e+08,0.30978,12135,11395,1,11395,1,0.00093097,4.9152e-10,0,0.00093097,-0.00032151,2.4875e+08,89.173,0,2.4875e+08,-239.4,11394,11748,1,11748,1,0.0011011,1.8612e-09,0,0.0011011,-0.00028965,2.7674e+08,379.67,0,2.7674e+08,-99.341,11747,12524,1,12524,1,0.0015547,3.7174e-09,0,0.0015547,-0.00020496,3.4163e+08,769.28,0,3.4163e+08,24.067,12523,438.26,0,438.26,0,0.00026014,1.2281e-09,0,0.00026014,4.8579e-05,3.8798e+07,249.35,0,3.8798e+07,84.584,438.26,1
432,5.44,12137,1,12137,1,0.0013314,1.7058e-09,0,0.0013314,-0.00024795,3.0938e+08,330.17,0,3.0938e+08,-23.475,12136,12879,1,12879,1,0.0017292,7.1669e-09,0,0.0017292,-0.00017372,3.7012e+08,1612.6,0,3.7012e+08,169.25,12878,12136,1,12136,1,0.0013314,1.948e-09,0,0.0013314,-0.00024792,3.0945e+08,362.9,0,3.0945e+08,16.005,12135,11395,1,11395,1,0.00093363,-3.6957e-09,0,0.00093363,-0.0003223,2.4904e+08,-830.54,0,2.4904e+08,-306.93,11394,11748,1,11748,1,0.0011041,5.8894e-10,0,0.0011041,-0.00029038,2.7693e+08,117.31,0,2.7693e+08,-134.91,11747,12524,1,12524,1,0.0015587,2.9462e-09,0,0.0015587,-0.00020551,3.4157e+08,547.03,0,3.4157e+08,67.73,12523,438.26,0,438.26,0,0.00026067,2.0817e-09,0,0.00026067,4.8678e-05,3.8655e+07,438.44,0,3.8655e+07,124.78,438.26,1
432,5.45,12137,1,12137,1,0.001335,2.1456e-09,0,0.001335,-0.00024861,3.0949e+08,424.69,0,3.0949e+08,-72.474,12136,12879,1,12879,1,0.0017336,4.5136e-09,0,0.0017336,-0.00017422,3.7004e+08,887.01,0,3.7004e+08,82.398,12878,12136,1,12136,1,0.001335,2.0316e-09,0,0.001335,-0.00024858,3.0955e+08,398.23,0,3.0955e+08,-36.527,12135,11395,1,11395,1,0.00093636,-1.8417e-10,0,0.00093636,-0.00032312,2.4935e+08,-33.365,0,2.4935e+08,-352.08,11394,11748,1,11748,1,0.0011072,1.2585e-09,0,0.0011072,-0.00029113,2.7716e+08,265.82,0,2.7716e+08,-158,11747,12524,1,12524,1,0.0015627,3.0601e-09,0,0.0015627,-0.00020608,3.4155e+08,593.24,0,3.4155e+08,14.253,12523,438.26,0,438.26,0,0.00026123,1.1249e-09,0,0.00026123,4.8781e-05,3.8521e+07,217.6,0,3.8521e+07,115.39,438.26,1
432,5.46,12137,1,12137,1,0.0013386,2.2869e-09,0,0.0013386,-0.00024928,3.0958e+08,455.23,0,3.0958e+08,-62.57,12136,12879,1,12879,1,0.0017381,5.8203e-09,0,0.0017381,-0.00017473,3.6993e+08,1189.8,0,3.6993e+08,63.777,12878,12136,1,12136,1,0.0013386,2.0631e-09,0,0.0013386,-0.00024924,3.0963e+08,405,0,3.0963e+08,-26.839,12135,11395,1,11395,1,0.00093912,-1.687e-09,0,0.00093912,-0.00032394,2.4966e+08,-378.55,0,2.4966e+08,-273.94,11394,11748,1,11748,1,0.0011103,8.6776e-10,0,0.0011103,-0.00029188,2.7738e+08,163.48,0,2.7738e+08,-121.02,11747,12524,1,12524,1,0.0015668,3.9125e-09,0,0.0015668,-0.00020666,3.415e+08,796.59,0,3.415e+08,2.5237,12523,438.26,0,438.26,0,0.00026179,1.9153e-09,0,0.00026179,4.8884e-05,3.838e+07,390.76,0,3.838e+07,87.255,438.26,1
432,5.47,12137,1,12137,1,0.0013422,2.1826e-09,0,0.0013422,-0.00024994,3.0965e+08,435.69,0,3.0965e+08,-36.849,12136,12879,1,12879,1,0.0017425,4.3461e-09,0,0.0017425,-0.00017524,3.698e+08,876.59,0,3.698e+08,78.185,12878,12136,1,12136,1,0.0013422,2.214e-09,0,0.0013422,-0.0002499,3.097e+08,446.83,0,3.097e+08,-12.249,12135,11395,1,11395,1,0.00094187,5.4516e-11,0,0.00094187,-0.00032476,2.4996e+08,10.344,0,2.4996e+08,-193.69,11394,11748,1,11748,1,0.0011134,1.1728e-09,0,0.0011134,-0.00029263,2.7758e+08,224.84,0,2.7758e+08,-83.195,11747,12524,1,12524,1,0.0015709,3.2381e-09,0,0.0015709,-0.00020723,3.4144e+08,644.03,0,3.4144e+08,12.334,12523,438.26,0,438.26,0,0.00026234,1.2103e-09,0,0.00026234,4.8986e-05,3.8236e+07,247.41,0,3.8236e+07,67.627,438.26,1
432,5.48,12137,1,12137,1,0.0013457,3.1864e-10,0,0.0013457,-0.00025059,3.0972e+08,49.102,0,3.0972e+08,-33.505,12136,12879,1,12879,1,0.0017469,3.0808e-09,0,0.0017469,-0.00017574,3.6967e+08,688.41,0,3.6967e+08,115.38,12878,12136,1,12136,1,0.0013457,8.0274e-10,0,0.0013457,-0.00025056,3.0976e+08,152.3,0,3.0976e+08,9.38,12135,11395,1,11395,1,0.00094459,-3.8915e-09,0,0.00094459,-0.00032557,2.5025e+08,-868.94,0,2.5025e+08,-253.77,11394,11748,1,11748,1,0.0011165,-5.7551e-10,0,0.0011165,-0.00029338,2.7778e+08,-117.14,0,2.7778e+08,-129.74,11747,12524,1,12524,1,0.0015749,1.3515e-09,0,0.0015749,-0.0002078,3.4138e+08,252.07,0,3.4138e+08,40.917,12523,438.26,0,438.26,0,0.00026288,1.5502e-09,0,0.00026288,4.9086e-05,3.8092e+07,322.68,0,3.8092e+07,98.897,438.26,1
432,5.49,12137,1,12137,1,0.0013493,-9.1921e-11,0,0.0013493,-0.00025125,3.0979e+08,-40.534,0,3.0979e+08,-19.388,12136,12879,1,12879,1,0.0017513,2.8869e-09,0,0.0017513,-0.00017624,3.6954e+08,515.09,0,3.6954e+08,145.18,12878,12136,1,12136,1,0.0013493,-2.6892e-11,0,0.0013493,-0.00025121,3.0982e+08,-4.9394,0,3.0982e+08,25.431,12135,11395,1,11395,1,0.0009473,-4.4846e-09,0,0.0009473,-0.00032638,2.5054e+08,-999.75,0,2.5054e+08,-247.63,11394,11748,1,11748,1,0.0011196,-1.1289e-09,0,0.0011196,-0.00029412,2.7798e+08,-227.64,0,2.7798e+08,-110.26,11747,12524,1,12524,1,0.0015789,1.1698e-09,0,0.0015789,-0.00020837,3.4131e+08,212.48,0,3.4131e+08,63.897,12523,438.26,0,438.26,0,0.00026343,1.7159e-09,0,0.00026343,4.9187e-05,3.795e+07,348.17,0,3.795e+07,108,438.26,1
432,5.5,12137,1,12137,1,0.0013528,1.9244e-09,0,0.0013528,-0.0002519,3.0984e+08,363.75,0,3.0984e+08,-25.795,12136,12879,1,12879,1,0.0017556,6.4859e-09,0,0.0017556,-0.00017674,3.6939e+08,1444.5,0,3.6939e+08,222.75,12878,12136,1,12136,1,0.0013528,2.5121e-09,0,0.0013528,-0.00025186,3.0987e+08,468.33,0,3.0987e+08,13.18,12135,11395,1,11395,1,0.00094999,-4.1521e-09,0,0.00094999,-0.00032718,2.5082e+08,-923.61,0,2.5082e+08,-337.24,11394,11748,1,11748,1,0.0011226,7.9403e-10,0,0.0011226,-0.00029485,2.7816e+08,159.33,0,2.7816e+08,-136.04,11747,12524,1,12524,1,0.0015829,3.3639e-09,0,0.0015829,-0.00020893,3.4123e+08,629.53,0,3.4123e+08,63.329,12523,438.26,0,438.26,0,0.00026396,2.0998e-09,0,0.00026396,4.9286e-05,3.7805e+07,430.73,0,3.7805e+07,136.41,438.26,1
432,5.51,12137,1,12137,1,0.0013565,4.3706e-09,0,0.0013565,-0.00025259,3.0993e+08,876.2,0,3.0993e+08,-116.63,12136,12879,1,12879,1,0.0017602,8.9984e-09,0,0.0017602,-0.00017727,3.6929e+08,1864.2,0,3.6929e+08,63.303,12878,12136,1,12136,1,0.0013565,4.2378e-09,0,0.0013565,-0.00025255,3.0994e+08,785.62,0,3.0994e+08,-72.763,12135,11395,1,11395,1,0.00095288,-6.3393e-10,0,0.00095288,-0.00032803,2.5112e+08,-112.55,0,2.5112e+08,-436.7,11394,11748,1,11748,1,0.0011259,1.5847e-09,0,0.0011259,-0.00029564,2.7837e+08,294.37,0,2.7837e+08,-207.65,11747,12524,1,12524,1,0.0015872,7.1169e-09,0,0.0015872,-0.00020953,3.4119e+08,1445.9,0,3.4119e+08,-14.692,12523,438.26,0,438.26,0,0.00026454,2.8888e-09,0,0.00026454,4.9393e-05,3.7669e+07,599.72,0,3.7669e+07,126.13,438.26,1
432,5.52,12137,1,12137,1,0.0013604,3.8062e-09,0,0.0013604,-0.00025331,3.0995e+08,763.27,0,3.0995e+08,-86.525,12136,12879,1,12879,1,0.001765,7.3592e-09,0,0.001765,-0.00017783,3.6909e+08,1556.1,0,3.6909e+08,59.691,12878,12136,1,12136,1,0.0013604,3.6912e-09,0,0.0013604,-0.00025327,3.0996e+08,737.82,0,3.0996e+08,-55.465,12135,11395,1,11395,1,0.00095589,-3.4002e-10,0,0.00095589,-0.00032891,2.5138e+08,-61.309,0,2.5138e+08,-343.8,11394,11748,1,11748,1,0.0011293,1.3684e-09,0,0.0011293,-0.00029645,2.7852e+08,260.72,0,2.7852e+08,-160.16,11747,12524,1,12524,1,0.0015916,6.2423e-09,0,0.0015916,-0.00021015,3.4107e+08,1264.2,0,3.4107e+08,0.31785,12523,438.26,0,438.26,0,0.00026511,2.4483e-09,0,0.00026511,4.9499e-05,3.7516e+07,512.41,0,3.7516e+07,107.24,438.26,1
432,5.53,12137,1,12137,1,0.0013643,8.1626e-10,0,0.0013643,-0.00025403,3.0995e+08,152.74,0,3.0995e+08,-45.978,12136,12879,1,12879,1,0.0017698,2.3242e-09,0,0.0017698,-0.00017839,3.6886e+08,425.1,0,3.6886e+08,160.44,12878,12136,1,12136,1,0.0013644,7.5834e-10,0,0.0013644,-0.00025399,3.0995e+08,145.79,0,3.0995e+08,-9.4025,12135,11395,1,11395,1,0.00095894,-7.3445e-10,0,0.00095894,-0.0003298,2.5162e+08,-143.91,0,2.5162e+08,-319.05,11394,11748,1,11748,1,0.0011327,1.4705e-10,0,0.0011327,-0.00029727,2.7867e+08,28.325,0,2.7867e+08,-120.91,11747,12524,1,12524,1,0.001596,1.5961e-09,0,0.001596,-0.00021078,3.4093e+08,306.09,0,3.4093e+08,41.844,12523,438.26,0,438.26,0,0.00026569,8.6145e-10,0,0.00026569,4.9607e-05,3.7357e+07,161.05,0,3.7357e+07,106.72,438.26,1
432,5.54,12137,1,12137,1,0.0013684,6.7382e-10,0,0.0013684,-0.00025477,3.0995e+08,120.46,0,3.0995e+08,-69.816,12136,12879,1,12879,1,0.0017747,2.4483e-09,0,0.0017747,-0.00017896,3.6863e+08,436.38,0,3.6863e+08,154.14,12878,12136,1,12136,1,0.0013684,6.2146e-10,0,0.0013684,-0.00025473,3.0994e+08,115.67,0,3.0994e+08,-27.289,12135,11395,1,11395,1,0.00096204,-1.8023e-09,0,0.00096204,-0.00033071,2.5187e+08,-397.21,0,2.5187e+08,-303.32,11394,11748,1,11748,1,0.0011362,6.415e-11,0,0.0011362,-0.0002981,2.7881e+08,12.163,0,2.7881e+08,-167.26,11747,12524,1,12524,1,0.0016005,1.3824e-09,0,0.0016005,-0.00021143,3.4078e+08,256.13,0,3.4078e+08,13.811,12523,438.26,0,438.26,0,0.00026628,9.9777e-10,0,0.00026628,4.9716e-05,3.7195e+07,190.24,0,3.7195e+07,115.9,438.26,1
432,5.55,12137,1,12137,1,0.0013723,1.9369e-09,0,0.0013723,-0.00025551,3.0992e+08,376.73,0,3.0992e+08,-67.582,12136,12879,1,12879,1,0.0017796,5.744e-09,0,0.0017796,-0.00017953,3.6837e+08,1265.2,0,3.6837e+08,175.11,12878,12136,1,12136,1,0.0013724,2.1682e-09,0,0.0013724,-0.00025547,3.0991e+08,410.14,0,3.0991e+08,-38.995,12135,11395,1,11395,1,0.00096514,-2.4822e-09,0,0.00096514,-0.00033161,2.5211e+08,-545.65,0,2.5211e+08,-364.41,11394,11748,1,11748,1,0.0011397,1.327e-09,0,0.0011397,-0.00029893,2.7894e+08,256.58,0,2.7894e+08,-182.88,11747,12524,1,12524,1,0.001605,2.5436e-09,0,0.001605,-0.00021207,3.406e+08,488.18,0,3.406e+08,35.963,12523,438.26,0,438.26,0,0.00026687,1.1815e-09,0,0.00026687,4.9824e-05,3.7027e+07,245.9,0,3.7027e+07,137.09,438.26,1
432,5.56,12137,1,12137,1,0.0013764,3.4385e-09,0,0.0013764,-0.00025626,3.0992e+08,677.87,0,3.0992e+08,-103.37,12136,12879,1,12879,1,0.0017846,6.2074e-09,0,0.0017846,-0.00018012,3.6814e+08,1248.3,0,3.6814e+08,132.63,12878,12136,1,12136,1,0.0013765,3.6863e-09,0,0.0013765,-0.00025623,3.099e+08,704.2,0,3.099e+08,-85.271,12135,11395,1,11395,1,0.00096833,-7.2415e-10,0,0.00096833,-0.00033254,2.5237e+08,-126.46,0,2.5237e+08,-356.82,11394,11748,1,11748,1,0.0011433,1.8702e-09,0,0.0011433,-0.00029979,2.7909e+08,341.18,0,2.7909e+08,-194.7,11747,12524,1,12524,1,0.0016097,5.0421e-09,0,0.0016097,-0.00021273,3.4044e+08,1044.1,0,3.4044e+08,-4.2211,12523,438.26,0,438.26,0,0.00026747,1.8929e-09,0,0.00026747,4.9936e-05,3.6863e+07,384.73,0,3.6863e+07,117.73,438.26,1
432,5.57,12137,1,12137,1,0.0013806,3.5554e-09,0,0.0013806,-0.00025702,3.0989e+08,707.06,0,3.0989e+08,-92.201,12136,12879,1,12879,1,0.0017896,6.2534e-09,0,0.0017896,-0.00018071,3.6787e+08,1316.3,0,3.6787e+08,134.16,12878,12136,1,12136,1,0.0013806,4.0821e-09,0,0.0013806,-0.00025698,3.0987e+08,788.34,0,3.0987e+08,-70.476,12135,11395,1,11395,1,0.00097154,-1.1534e-09,0,0.00097154,-0.00033346,2.5261e+08,-200.37,0,2.5261e+08,-331.8,11394,11748,1,11748,1,0.0011469,1.9523e-09,0,0.0011469,-0.00030064,2.7921e+08,358.84,0,2.7921e+08,-177.56,11747,12524,1,12524,1,0.0016143,5.2738e-09,0,0.0016143,-0.00021339,3.4026e+08,1060.1,0,3.4026e+08,-5.3111,12523,438.26,0,438.26,0,0.00026807,2.0235e-09,0,0.00026807,5.0047e-05,3.6691e+07,420.73,0,3.6691e+07,107.09,438.26,1
432,5.58,12137,1,12137,1,0.0013847,-2.4997e-10,0,0.0013847,-0.00025778,3.0986e+08,-62.347,0,3.0986e+08,-59.431,12136,12879,1,12879,1,0.0017947,2.1716e-09,0,0.0017947,-0.0001813,3.6758e+08,381.48,0,3.6758e+08,239.8,12878,12136,1,12136,1,0.0013847,-3.6962e-10,0,0.0013847,-0.00025774,3.0982e+08,-64.985,0,3.0982e+08,-35.085,12135,11395,1,11395,1,0.00097473,-2.6344e-09,0,0.00097473,-0.00033439,2.5284e+08,-575.5,0,2.5284e+08,-336.16,11394,11748,1,11748,1,0.0011504,-1.5631e-09,0,0.0011504,-0.0003015,2.7933e+08,-317.28,0,2.7933e+08,-141.75,11747,12524,1,12524,1,0.0016189,9.3742e-10,0,0.0016189,-0.00021405,3.4006e+08,173.95,0,3.4006e+08,29.765,12523,438.26,0,438.26,0,0.00026867,1.415e-09,0,0.00026867,5.0158e-05,3.6517e+07,273.5,0,3.6517e+07,122.14,438.26,1
432,5.59,12137,1,12137,1,0.0013888,1.3864e-10,0,0.0013888,-0.00025854,3.0982e+08,11.373,0,3.0982e+08,-58.778,12136,12879,1,12879,1,0.0017998,2.619e-09,0,0.0017998,-0.00018189,3.673e+08,458.4,0,3.673e+08,310.88,12878,12136,1,12136,1,0.0013888,-1.0078e-10,0,0.0013888,-0.0002585,3.0978e+08,-17.876,0,3.0978e+08,-28.644,12135,11395,1,11395,1,0.00097794,-2.6312e-09,0,0.00097794,-0.00033533,2.5308e+08,-573.39,0,2.5308e+08,-381.01,11394,11748,1,11748,1,0.0011541,-1.0429e-09,0,0.0011541,-0.00030236,2.7946e+08,-203.56,0,2.7946e+08,-161.31,11747,12524,1,12524,1,0.0016236,1.2772e-09,0,0.0016236,-0.00021472,3.3987e+08,229.89,0,3.3987e+08,39.821,12523,438.26,0,438.26,0,0.00026927,1.3838e-09,0,0.00026927,5.0269e-05,3.6344e+07,264.13,0,3.6344e+07,136.77,438.26,1
432,5.6,12137,1,12137,1,0.001393,4.3257e-09,0,0.001393,-0.00025931,3.0979e+08,849,0,3.0979e+08,-61.934,12136,12879,1,12879,1,0.0018048,7.7321e-09,0,0.0018048,-0.00018249,3.6702e+08,1599,0,3.6702e+08,355.74,12878,12136,1,12136,1,0.001393,4.5605e-09,0,0.001393,-0.00025927,3.0974e+08,912.64,0,3.0974e+08,-65.759,12135,11395,1,11395,1,0.0009812,-8.9699e-10,0,0.0009812,-0.00033627,2.5331e+08,-153.94,0,2.5331e+08,-256.85,11394,11748,1,11748,1,0.0011577,2.5121e-09,0,0.0011577,-0.00030322,2.7958e+08,468.38,0,2.7958e+08,-140.31,11747,12524,1,12524,1,0.0016283,6.3893e-09,0,0.0016283,-0.00021539,3.3967e+08,1234.5,0,3.3967e+08,9.6209,12523,438.26,0,438.26,0,0.00026988,2.3324e-09,0,0.00026988,5.0382e-05,3.6169e+07,481.72,0,3.6169e+07,104.72,438.26,1
432,5.61,12137,1,12137,1,0.0013972,1.3201e-09,0,0.0013972,-0.00026008,3.0974e+08,246.26,0,3.0974e+08,-43.156,12136,12879,1,12879,1,0.0018099,3.1441e-09,0,0.0018099,-0.00018309,3.6672e+08,578.12,0,3.6672e+08,424.75,12878,12136,1,12136,1,0.0013972,1.2556e-09,0,0.0013972,-0.00026004,3.0968e+08,242.13,0,3.0968e+08,-28.693,12135,11395,1,11395,1,0.00098446,-1.3496e-09,0,0.00098446,-0.00033721,2.5354e+08,-292.45,0,2.5354e+08,-311.22,11394,11748,1,11748,1,0.0011614,6.2697e-10,0,0.0011614,-0.00030409,2.7969e+08,123.61,0,2.7969e+08,-118.7,11747,12524,1,12524,1,0.001633,1.8998e-09,0,0.001633,-0.00021606,3.3946e+08,338.3,0,3.3946e+08,16.237,12523,438.26,0,438.26,0,0.00027048,8.3575e-10,0,0.00027048,5.0494e-05,3.5991e+07,152.04,0,3.5991e+07,119.32,438.26,1
432,5.62,12137,1,12137,1,0.0014013,7.1914e-09,0,0.0014013,-0.00026085,3.0968e+08,1428.4,0,3.0968e+08,37.62,12136,12879,1,12879,1,0.001815,1.7564e-08,0,0.001815,-0.00018369,3.6642e+08,3808,0,3.6642e+08,366.05,12878,12136,1,12136,1,0.0014013,7.4112e-09,0,0.0014013,-0.00026081,3.0961e+08,1393,0,3.0961e+08,40.511,12135,11395,1,11395,1,0.00098772,-2.469e-09,0,0.00098772,-0.00033814,2.5376e+08,-419.91,0,2.5376e+08,-210.23,11394,11748,1,11748,1,0.001165,3.2405e-09,0,0.001165,-0.00030495,2.7979e+08,567.78,0,2.7979e+08,-18.019,11747,12524,1,12524,1,0.0016377,1.1005e-08,0,0.0016377,-0.00021673,3.3924e+08,2237.6,0,3.3924e+08,96.761,12523,438.26,0,438.26,0,0.00027108,5.1093e-09,0,0.00027108,5.0605e-05,3.5812e+07,1061,0,3.5812e+07,85.399,438.26,1
432,5.63,12137,1,12137,1,0.0014056,9.9817e-11,0,0.0014056,-0.00026163,3.0964e+08,26.844,0,3.0964e+08,9.2622,12136,12879,1,12879,1,0.0018201,2.2448e-09,0,0.0018201,-0.00018429,3.6611e+08,485.46,0,3.6611e+08,365.69,12878,12136,1,12136,1,0.0014056,7.8685e-11,0,0.0014056,-0.00026159,3.0956e+08,14.455,0,3.0956e+08,5.9017,12135,11395,1,11395,1,0.00099101,-1.7324e-09,0,0.00099101,-0.00033909,2.54e+08,-308.68,0,2.54e+08,-173.13,11394,11748,1,11748,1,0.0011687,-8.9994e-10,0,0.0011687,-0.00030583,2.7991e+08,-162.34,0,2.7991e+08,-26.36,11747,12524,1,12524,1,0.0016425,9.7184e-10,0,0.0016425,-0.00021741,3.3904e+08,179.49,0,3.3904e+08,33.5,12523,438.26,0,438.26,0,0.0002717,1.079e-09,0,0.0002717,5.0719e-05,3.5635e+07,208.76,0,3.5635e+07,76.154,438.26,1
432,5.64,12137,1,12137,1,0.0014098,-5.0799e-09,0,0.0014098,-0.00026241,3.0958e+08,-1002.9,0,3.0958e+08,-45.193,12136,12879,1,12879,1,0.0018253,1.1286e-09,0,0.0018253,-0.0001849,3.6581e+08,190.25,0,3.6581e+08,532.25,12878,12136,1,12136,1,0.0014098,-5.2297e-09,0,0.0014098,-0.00026237,3.095e+08,-953.45,0,3.095e+08,-64.941,12135,11395,1,11395,1,0.00099432,-1.2183e-08,0,0.00099432,-0.00034005,2.5422e+08,-2628.6,0,2.5422e+08,-307.6,11394,11748,1,11748,1,0.0011724,-7.8644e-09,0,0.0011724,-0.00030671,2.8001e+08,-1591.8,0,2.8001e+08,-140.59,11747,12524,1,12524,1,0.0016472,-2.0653e-09,0,0.0016472,-0.00021809,3.3881e+08,-377.34,0,3.3881e+08,27.299,12523,438.26,0,438.26,0,0.00027231,3.5603e-09,0,0.00027231,5.0831e-05,3.5453e+07,739.67,0,3.5453e+07,149.02,438.26,1
432,5.65,12137,1,12137,1,0.001414,7.5273e-11,0,0.001414,-0.00026319,3.0951e+08,7.1707,0,3.0951e+08,24.506,12136,12879,1,12879,1,0.0018305,4.2836e-09,0,0.0018305,-0.00018551,3.6547e+08,922.01,0,3.6547e+08,741.55,12878,12136,1,12136,1,0.001414,3.4378e-10,0,0.001414,-0.00026315,3.0942e+08,62.904,0,3.0942e+08,-6.9594,12135,11395,1,11395,1,0.00099762,-5.1546e-09,0,0.00099762,-0.000341,2.5444e+08,-1109.6,0,2.5444e+08,-188.76,11394,11748,1,11748,1,0.0011761,-4.2898e-10,0,0.0011761,-0.00030759,2.8011e+08,-85.453,0,2.8011e+08,-61.092,11747,12524,1,12524,1,0.001652,7.4172e-10,0,0.001652,-0.00021877,3.3857e+08,130.62,0,3.3857e+08,57.021,12523,438.26,0,438.26,0,0.00027291,1.4071e-09,0,0.00027291,5.0944e-05,3.527e+07,281.85,0,3.527e+07,145.3,438.26,1
432,5.66,12137,1,12137,1,0.0014183,8.8206e-10,0,0.0014183,-0.00026397,3.0945e+08,167.13,0,3.0945e+08,36.987,12136,12879,1,12879,1,0.0018357,5.5644e-09,0,0.0018357,-0.00018612,3.6515e+08,1195.1,0,3.6515e+08,788.98,12878,12136,1,12136,1,0.0014183,1.1808e-09,0,0.0014183,-0.00026393,3.0935e+08,211.23,0,3.0935e+08,-0.61322,12135,11395,1,11395,1,0.0010009,-5.0852e-09,0,0.0010009,-0.00034195,2.5467e+08,-1092,0,2.5467e+08,-139.82,11394,11748,1,11748,1,0.0011798,3.3518e-10,0,0.0011798,-0.00030847,2.8021e+08,57.618,0,2.8021e+08,-51.691,11747,12524,1,12524,1,0.0016568,1.5282e-09,0,0.0016568,-0.00021946,3.3834e+08,293.88,0,3.3834e+08,57.838,12523,438.26,0,438.26,0,0.00027353,1.5727e-09,0,0.00027353,5.1057e-05,3.5087e+07,313.49,0,3.5087e+07,144.63,438.26,1
432,5.67,12137,1,12137,1,0.0014226,1.6792e-09,0,0.0014226,-0.00026476,3.0938e+08,323.17,0,3.0938e+08,86.063,12136,12879,1,12879,1,0.0018409,8.0457e-09,0,0.0018409,-0.00018674,3.6481e+08,1723.6,0,3.6481e+08,866.59,12878,12136,1,12136,1,0.0014226,1.8281e-09,0,0.0014226,-0.00026472,3.0927e+08,326.5,0,3.0927e+08,30.769,12135,11395,1,11395,1,0.0010043,-5.4768e-09,0,0.0010043,-0.00034291,2.5488e+08,-1173.4,0,2.5488e+08,-41.785,11394,11748,1,11748,1,0.0011836,3.5564e-10,0,0.0011836,-0.00030936,2.803e+08,59.894,0,2.803e+08,-3.3586,11747,12524,1,12524,1,0.0016616,3.0619e-09,0,0.0016616,-0.00022015,3.381e+08,599.56,0,3.381e+08,110.52,12523,438.26,0,438.26,0,0.00027414,2.2728e-09,0,0.00027414,5.1171e-05,3.4903e+07,453.52,0,3.4903e+07,149.24,438.26,1
432,5.68,12137,1,12137,1,0.0014269,-2.3837e-11,0,0.0014269,-0.00026556,3.093e+08,-6.771,0,3.093e+08,104.72,12136,12879,1,12879,1,0.0018461,7.1652e-09,0,0.0018461,-0.00018736,3.6448e+08,1531.4,0,3.6448e+08,943.16,12878,12136,1,12136,1,0.0014269,2.8904e-10,0,0.0014269,-0.00026551,3.0918e+08,50.061,0,3.0918e+08,39.597,12135,11395,1,11395,1,0.0010077,-8.7336e-09,0,0.0010077,-0.00034388,2.551e+08,-1866.4,0,2.551e+08,-30.605,11394,11748,1,11748,1,0.0011873,-8.3327e-10,0,0.0011873,-0.00031025,2.8039e+08,-155.65,0,2.8039e+08,4.6193,11747,12524,1,12524,1,0.0016664,1.1139e-09,0,0.0016664,-0.00022084,3.3786e+08,207.47,0,3.3786e+08,133.19,12523,438.26,0,438.26,0,0.00027476,2.6887e-09,0,0.00027476,5.1285e-05,3.4717e+07,530.15,0,3.4717e+07,164.67,438.26,1
432,5.69,12137,1,12137,1,0.0014312,-2.4397e-10,0,0.0014312,-0.00026634,3.0921e+08,-53.466,0,3.0921e+08,93.238,12136,12879,1,12879,1,0.0018513,1.1196e-08,0,0.0018513,-0.00018797,3.6412e+08,2386.5,0,3.6412e+08,1042.5,12878,12136,1,12136,1,0.0014312,2.5113e-10,0,0.0014312,-0.0002663,3.0908e+08,40.475,0,3.0908e+08,23.614,12135,11395,1,11395,1,0.001011,-1.1059e-08,0,0.001011,-0.00034484,2.5531e+08,-2357.4,0,2.5531e+08,-83.81,11394,11748,1,11748,1,0.0011911,-2.2765e-09,0,0.0011911,-0.00031113,2.8047e+08,-428.11,0,2.8047e+08,-23.395,11747,12524,1,12524,1,0.0016712,1.4226e-09,0,0.0016712,-0.00022153,3.3759e+08,268.48,0,3.3759e+08,118.61,12523,438.26,0,438.26,0,0.00027536,3.9876e-09,0,0.00027536,5.1398e-05,3.4528e+07,785.45,0,3.4528e+07,190.05,438.26,1
432,5.7,12137,1,12137,1,0.0014355,3.0828e-09,0,0.0014355,-0.00026714,3.0914e+08,597.19,0,3.0914e+08,154.86,12136,12879,1,12879,1,0.0018566,1.1765e-08,0,0.0018566,-0.00018859,3.6378e+08,2501.7,0,3.6378e+08,1051.5,12878,12136,1,12136,1,0.0014355,3.2347e-09,0,0.0014355,-0.00026709,3.09e+08,578.89,0,3.09e+08,85.181,12135,11395,1,11395,1,0.0010144,-6.9374e-09,0,0.0010144,-0.00034581,2.5552e+08,-1418,0,2.5552e+08,-41.038,11394,11748,1,11748,1,0.0011949,1.6071e-10,0,0.0011949,-0.00031203,2.8056e+08,30.465,0,2.8056e+08,42.041,11747,12524,1,12524,1,0.0016761,5.9098e-09,0,0.0016761,-0.00022223,3.3735e+08,1147.9,0,3.3735e+08,204.31,12523,438.26,0,438.26,0,0.00027598,3.5913e-09,0,0.00027598,5.1512e-05,3.4342e+07,712.62,0,3.4342e+07,182.08,438.26,1
432,5.71,12137,1,12137,1,0.0014398,1.6752e-09,0,0.0014398,-0.00026793,3.0904e+08,335.48,0,3.0904e+08,138.26,12136,12879,1,12879,1,0.0018618,1.7463e-08,0,0.0018618,-0.00018921,3.6341e+08,3703.1,0,3.6341e+08,993.57,12878,12136,1,12136,1,0.0014398,7.7578e-10,0,0.0014398,-0.00026789,3.0889e+08,141.81,0,3.0889e+08,80.377,12135,11395,1,11395,1,0.0010177,-9.2074e-09,0,0.0010177,-0.00034678,2.5572e+08,-1855.5,0,2.5572e+08,-154.64,11394,11748,1,11748,1,0.0011986,-1.2365e-09,0,0.0011986,-0.00031292,2.8064e+08,-210.98,0,2.8064e+08,21.277,11747,12524,1,12524,1,0.0016809,3.9924e-09,0,0.0016809,-0.00022292,3.3707e+08,752.04,0,3.3707e+08,199.71,12523,438.26,0,438.26,0,0.00027659,4.696e-09,0,0.00027659,5.1625e-05,3.415e+07,920.15,0,3.415e+07,184.72,438.26,1
432,5.72,12137,1,12137,1,0.0014442,-7.0081e-10,0,0.0014442,-0.00026874,3.0896e+08,-117.94,0,3.0896e+08,175.44,12136,12879,1,12879,1,0.0018672,1.1904e-08,0,0.0018672,-0.00018984,3.6306e+08,2518,0,3.6306e+08,1053.8,12878,12136,1,12136,1,0.0014442,-1.049e-09,0,0.0014442,-0.00026869,3.088e+08,-176.56,0,3.088e+08,104.2,12135,11395,1,11395,1,0.0010212,-1.2529e-08,0,0.0010212,-0.00034777,2.5593e+08,-2533.3,0,2.5593e+08,-110.57,11394,11748,1,11748,1,0.0012025,-2.4718e-09,0,0.0012025,-0.00031383,2.8072e+08,-444.08,0,2.8072e+08,48.08,11747,12524,1,12524,1,0.0016859,1.3766e-09,0,0.0016859,-0.00022363,3.3682e+08,254.01,0,3.3682e+08,240.33,12523,438.26,0,438.26,0,0.00027722,4.1822e-09,0,0.00027722,5.1741e-05,3.3962e+07,812.05,0,3.3962e+07,207.16,438.26,1
432,5.73,12137,1,12137,1,0.0014486,-4.0822e-09,0,0.0014486,-0.00026955,3.0886e+08,-768.18,0,3.0886e+08,143.27,12136,12879,1,12879,1,0.0018725,8.4929e-09,0,0.0018725,-0.00019047,3.6269e+08,1792,0,3.6269e+08,1219.6,12878,12136,1,12136,1,0.0014486,-3.774e-09,0,0.0014486,-0.0002695,3.0869e+08,-668.31,0,3.0869e+08,59.029,12135,11395,1,11395,1,0.0010246,-1.7442e-08,0,0.0010246,-0.00034875,2.5614e+08,-3602.4,0,2.5614e+08,-132.3,11394,11748,1,11748,1,0.0012063,-6.7383e-09,0,0.0012063,-0.00031474,2.8079e+08,-1284.9,0,2.8079e+08,3.9536,11747,12524,1,12524,1,0.0016908,-7.6754e-10,0,0.0016908,-0.00022433,3.3654e+08,-129.81,0,3.3654e+08,201.86,12523,438.26,0,438.26,0,0.00027784,4.7793e-09,0,0.00027784,5.1856e-05,3.3769e+07,934.01,0,3.3769e+07,231.06,438.26,1
432,5.74,12137,1,12137,1,0.001453,-1.7824e-09,0,0.001453,-0.00027036,3.0875e+08,-318.69,0,3.0875e+08,185.37,12136,12879,1,12879,1,0.0018779,1.5628e-08,0,0.0018779,-0.00019111,3.623e+08,3288.8,0,3.623e+08,1268.7,12878,12136,1,12136,1,0.001453,-1.7934e-09,0,0.001453,-0.00027031,3.0857e+08,-299.36,0,3.0857e+08,113.52,12135,11395,1,11395,1,0.0010281,-1.8353e-08,0,0.0010281,-0.00034974,2.5634e+08,-3775.9,0,2.5634e+08,-227.03,11394,11748,1,11748,1,0.0012102,-4.6941e-09,0,0.0012102,-0.00031565,2.8086e+08,-840.06,0,2.8086e+08,27.78,11747,12524,1,12524,1,0.0016957,9.6792e-10,0,0.0016957,-0.00022504,3.3625e+08,179.52,0,3.3625e+08,276.98,12523,438.26,0,438.26,0,0.00027846,5.9957e-09,0,0.00027846,5.1971e-05,3.3574e+07,1159.6,0,3.3574e+07,251.1,438.26,1
432,5.75,12137,1,12137,1,0.0014574,-3.4248e-09,0,0.0014574,-0.00027118,3.0865e+08,-632.75,0,3.0865e+08,209.21,12136,12879,1,12879,1,0.0018833,1.0136e-08,0,0.0018833,-0.00019175,3.6193e+08,2127.8,0,3.6193e+08,1425.6,12878,12136,1,12136,1,0.0014574,-3.0851e-09,0,0.0014574,-0.00027113,3.0846e+08,-558.81,0,3.0846e+08,91.718,12135,11395,1,11395,1,0.0010315,-1.7943e-08,0,0.0010315,-0.00035074,2.5654e+08,-3627.9,0,2.5654e+08,-65.296,11394,11748,1,11748,1,0.0012141,-5.6633e-09,0,0.0012141,-0.00031657,2.8093e+08,-1040.4,0,2.8093e+08,25.34,11747,12524,1,12524,1,0.0017007,-1.1762e-09,0,0.0017007,-0.00022576,3.3597e+08,-199.3,0,3.3597e+08,284.83,12523,438.26,0,438.26,0,0.00027909,4.8282e-09,0,0.00027909,5.2088e-05,3.338e+07,930.07,0,3.338e+07,276.95,438.26,1
432,5.76,12137,1,12137,1,0.0014619,-1.6295e-09,0,0.0014619,-0.000272,3.0853e+08,-281.85,0,3.0853e+08,289.79,12136,12879,1,12879,1,0.0018887,1.8837e-08,0,0.0018887,-0.00019239,3.6152e+08,3943.5,0,3.6152e+08,1553.3,12878,12136,1,12136,1,0.0014619,-2.0666e-09,0,0.0014619,-0.00027195,3.0833e+08,-340.31,0,3.0833e+08,183.91,12135,11395,1,11395,1,0.001035,-2.0939e-08,0,0.001035,-0.00035174,2.5673e+08,-4229.9,0,2.5673e+08,-163.89,11394,11748,1,11748,1,0.001218,-5.1228e-09,0,0.001218,-0.00031749,2.8099e+08,-917,0,2.8099e+08,89.217,11747,12524,1,12524,1,0.0017057,1.855e-09,0,0.0017057,-0.00022648,3.3567e+08,348.58,0,3.3567e+08,388.97,12523,438.26,0,438.26,0,0.00027972,7.1512e-09,0,0.00027972,5.2204e-05,3.3181e+07,1370.8,0,3.3181e+07,314.45,438.26,1
432,5.77,12137,1,12137,1,0.0014664,-5.9066e-09,0,0.0014664,-0.00027283,3.0841e+08,-1098.5,0,3.0841e+08,215.97,12136,12879,1,12879,1,0.0018942,1.1845e-08,0,0.0018942,-0.00019304,3.6114e+08,2473.4,0,3.6114e+08,1695.9,12878,12136,1,12136,1,0.0014663,-5.3653e-09,0,0.0014663,-0.00027277,3.082e+08,-948.1,0,3.082e+08,88.723,12135,11395,1,11395,1,0.0010385,-2.5486e-08,0,0.0010385,-0.00035274,2.5693e+08,-5224.4,0,2.5693e+08,-99.745,11394,11748,1,11748,1,0.0012219,-9.8372e-09,0,0.0012219,-0.00031842,2.8105e+08,-1855.6,0,2.8105e+08,20.64,11747,12524,1,12524,1,0.0017108,-1.0526e-09,0,0.0017108,-0.0002272,3.3538e+08,-170.53,0,3.3538e+08,296.15,12523,438.26,0,438.26,0,0.00028035,7.0533e-09,0,0.00028035,5.2321e-05,3.2983e+07,1361.2,0,3.2983e+07,320.19,438.26,1
432,5.78,12137,1,12137,1,0.0014709,-6.8379e-09,0,0.0014709,-0.00027365,3.0829e+08,-1283.5,0,3.0829e+08,220.9,12136,12879,1,12879,1,0.0018996,1.3015e-08,0,0.0018996,-0.00019369,3.6073e+08,2672.1,0,3.6073e+08,1744.1,12878,12136,1,12136,1,0.0014708,-5.9036e-09,0,0.0014708,-0.0002736,3.0807e+08,-1033.5,0,3.0807e+08,83.809,12135,11395,1,11395,1,0.0010421,-3.0546e-08,0,0.0010421,-0.00035374,2.5712e+08,-6359.8,0,2.5712e+08,-127.84,11394,11748,1,11748,1,0.0012259,-1.2277e-08,0,0.0012259,-0.00031935,2.8111e+08,-2305.5,0,2.8111e+08,18.378,11747,12524,1,12524,1,0.0017158,-1.5902e-10,0,0.0017158,-0.00022793,3.3507e+08,-27.578,0,3.3507e+08,304.5,12523,438.26,0,438.26,0,0.00028098,8.7589e-09,0,0.00028098,5.2438e-05,3.2782e+07,1688.4,0,3.2782e+07,335.56,438.26,1
432,5.79,12137,1,12137,1,0.0014754,-3.499e-09,0,0.0014754,-0.00027449,3.0816e+08,-660.12,0,3.0816e+08,270.63,12136,12879,1,12879,1,0.0019051,1.6793e-08,0,0.0019051,-0.00019435,3.6032e+08,3322.7,0,3.6032e+08,2043.1,12878,12136,1,12136,1,0.0014754,-2.8321e-09,0,0.0014754,-0.00027444,3.0793e+08,-499.24,0,3.0793e+08,120.33,12135,11395,1,11395,1,0.0010457,-2.5089e-08,0,0.0010457,-0.00035476,2.5731e+08,-5132.9,0,2.5731e+08,-123.49,11394,11748,1,11748,1,0.0012299,-7.8695e-09,0,0.0012299,-0.00032029,2.8116e+08,-1474.7,0,2.8116e+08,22.008,11747,12524,1,12524,1,0.0017209,7.6823e-10,0,0.0017209,-0.00022867,3.3476e+08,122.64,0,3.3476e+08,368.96,12523,438.26,0,438.26,0,0.00028162,7.7566e-09,0,0.00028162,5.2556e-05,3.2581e+07,1472.2,0,3.2581e+07,398.03,438.26,1
432,5.8,12137,1,12137,1,0.00148,-1.4973e-10,0,0.00148,-0.00027533,3.0803e+08,-26.122,0,3.0803e+08,402.19,12136,12879,1,12879,1,0.0019107,2.479e-08,0,0.0019107,-0.00019501,3.5989e+08,5023.7,0,3.5989e+08,2294.3,12878,12136,1,12136,1,0.00148,-8.5603e-11,0,0.00148,-0.00027528,3.0779e+08,-13.988,0,3.0779e+08,245.33,12135,11395,1,11395,1,0.0010493,-2.5882e-08,0,0.0010493,-0.00035578,2.575e+08,-5228,0,2.575e+08,-15.899,11394,11748,1,11748,1,0.0012339,-4.4922e-09,0,0.0012339,-0.00032123,2.8121e+08,-797.52,0,2.8121e+08,86.887,11747,12524,1,12524,1,0.0017261,4.3878e-09,0,0.0017261,-0.0002294,3.3444e+08,788.67,0,3.3444e+08,541.55,12523,438.26,0,438.26,0,0.00028227,9.3078e-09,0,0.00028227,5.2675e-05,3.2377e+07,1754.1,0,3.2377e+07,435.68,438.26,1
432,5.81,12137,1,12137,1,0.0014846,-2.013e-09,0,0.0014846,-0.00027617,3.0789e+08,-384.41,0,3.0789e+08,361.78,12136,12879,1,12879,1,0.0019162,2.64e-08,0,0.0019162,-0.00019567,3.5946e+08,5306.8,0,3.5946e+08,2379.5,12878,12136,1,12136,1,0.0014845,-4.4153e-10,0,0.0014845,-0.00027612,3.0763e+08,-71.437,0,3.0763e+08,196.6,12135,11395,1,11395,1,0.0010529,-3.4814e-08,0,0.0010529,-0.00035681,2.5768e+08,-7171.4,0,2.5768e+08,-96.975,11394,11748,1,11748,1,0.0012379,-7.9791e-09,0,0.0012379,-0.00032218,2.8125e+08,-1411.1,0,2.8125e+08,83.112,11747,12524,1,12524,1,0.0017312,3.9474e-09,0,0.0017312,-0.00023014,3.3411e+08,692.66,0,3.3411e+08,478.76,12523,438.26,0,438.26,0,0.0002829,1.1715e-08,0,0.0002829,5.2793e-05,3.2171e+07,2207.9,0,3.2171e+07,434.29,438.26,1
432,5.82,12137,1,12137,1,0.0014892,8.3757e-10,0,0.0014892,-0.00027703,3.0775e+08,148.83,0,3.0775e+08,382.13,12136,12879,1,12879,1,0.0019219,2.6969e-08,0,0.0019219,-0.00019634,3.5903e+08,5362.3,0,3.5903e+08,2580,12878,12136,1,12136,1,0.0014892,1.0062e-09,0,0.0014892,-0.00027698,3.0749e+08,162.21,0,3.0749e+08,210.58,12135,11395,1,11395,1,0.0010565,-2.7593e-08,0,0.0010565,-0.00035785,2.5787e+08,-5533.4,0,2.5787e+08,-80.477,11394,11748,1,11748,1,0.001242,-3.4449e-09,0,0.001242,-0.00032314,2.813e+08,-617.38,0,2.813e+08,36.535,11747,12524,1,12524,1,0.0017364,5.8192e-09,0,0.0017364,-0.00023089,3.3379e+08,1047.8,0,3.3379e+08,533.07,12523,438.26,0,438.26,0,0.00028355,1.0008e-08,0,0.00028355,5.2914e-05,3.1966e+07,1869.9,0,3.1966e+07,488.1,438.26,1
432,5.83,12137,1,12137,1,0.0014939,-2.1491e-09,0,0.0014939,-0.00027789,3.076e+08,-416.8,0,3.076e+08,476.77,12136,12879,1,12879,1,0.0019275,2.7615e-08,0,0.0019275,-0.00019701,3.5858e+08,5375.9,0,3.5858e+08,2842.5,12878,12136,1,12136,1,0.0014938,-4.2207e-10,0,0.0014938,-0.00027783,3.0733e+08,-68.56,0,3.0733e+08,293.58,12135,11395,1,11395,1,0.0010601,-3.7213e-08,0,0.0010601,-0.00035889,2.5804e+08,-7585.2,0,2.5804e+08,-66.357,11394,11748,1,11748,1,0.001246,-8.5092e-09,0,0.001246,-0.0003241,2.8133e+08,-1548.9,0,2.8133e+08,140.28,11747,12524,1,12524,1,0.0017416,4.2822e-09,0,0.0017416,-0.00023164,3.3344e+08,736.3,0,3.3344e+08,631.5,12523,438.26,0,438.26,0,0.0002842,1.2466e-08,0,0.0002842,5.3033e-05,3.1756e+07,2326.4,0,3.1756e+07,514.42,438.26,1
432,5.84,12137,1,12137,1,0.0014985,3.516e-09,0,0.0014985,-0.00027874,3.0744e+08,633.04,0,3.0744e+08,488.55,12136,12879,1,12879,1,0.0019331,3.8235e-08,0,0.0019331,-0.00019768,3.5812e+08,7596.5,0,3.5812e+08,2995.9,12878,12136,1,12136,1,0.0014985,3.0219e-09,0,0.0014985,-0.00027868,3.0715e+08,512.43,0,3.0715e+08,288.47,12135,11395,1,11395,1,0.0010638,-3.3614e-08,0,0.0010638,-0.00035993,2.5822e+08,-6749.3,0,2.5822e+08,-47.657,11394,11748,1,11748,1,0.0012501,-3.0388e-09,0,0.0012501,-0.00032505,2.8136e+08,-533.25,0,2.8136e+08,74.221,11747,12524,1,12524,1,0.0017468,1.1189e-08,0,0.0017468,-0.00023239,3.3308e+08,2014.2,0,3.3308e+08,690.11,12523,438.26,0,438.26,0,0.00028484,1.3741e-08,0,0.00028484,5.3152e-05,3.1544e+07,2554.3,0,3.1544e+07,559.92,438.26,1
432,5.85,12137,1,12137,1,0.0015032,3.2422e-09,0,0.0015032,-0.00027961,3.0729e+08,581.93,0,3.0729e+08,543.9,12136,12879,1,12879,1,0.0019389,3.8942e-08,0,0.0019389,-0.00019836,3.5768e+08,7694.4,0,3.5768e+08,3232,12878,12136,1,12136,1,0.0015032,2.8196e-09,0,0.0015032,-0.00027955,3.0699e+08,471.77,0,3.0699e+08,336.04,12135,11395,1,11395,1,0.0010675,-3.5345e-08,0,0.0010675,-0.00036098,2.584e+08,-7034.9,0,2.584e+08,-25.683,11394,11748,1,11748,1,0.0012543,-3.5437e-09,0,0.0012543,-0.00032603,2.814e+08,-616.59,0,2.814e+08,98.819,11747,12524,1,12524,1,0.0017521,1.1349e-08,0,0.0017521,-0.00023315,3.3275e+08,2013.9,0,3.3275e+08,761.44,12523,438.26,0,438.26,0,0.0002855,1.4281e-08,0,0.0002855,5.3275e-05,3.1335e+07,2644.3,0,3.1335e+07,598.62,438.26,1
432,5.86,12137,1,12137,1,0.0015079,3.0848e-09,0,0.0015079,-0.00028047,3.0711e+08,552.18,0,3.0711e+08,573.7,12136,12879,1,12879,1,0.0019445,4.7644e-08,0,0.0019445,-0.00019905,3.5719e+08,9526.8,0,3.5719e+08,3339.7,12878,12136,1,12136,1,0.0015079,2.3103e-09,0,0.0015079,-0.00028042,3.068e+08,396.2,0,3.068e+08,355.15,12135,11395,1,11395,1,0.0010712,-4.3707e-08,0,0.0010712,-0.00036203,2.5856e+08,-8773.2,0,2.5856e+08,-58.939,11394,11748,1,11748,1,0.0012584,-5.8901e-09,0,0.0012584,-0.000327,2.8141e+08,-1006.8,0,2.8141e+08,131.54,11747,12524,1,12524,1,0.0017574,1.3343e-08,0,0.0017574,-0.00023391,3.3237e+08,2381.8,0,3.3237e+08,792.17,12523,438.26,0,438.26,0,0.00028615,1.7856e-08,0,0.00028615,5.3394e-05,3.1119e+07,3303.8,0,3.1119e+07,620.43,438.26,1
432,5.87,12137,1,12137,1,0.0015127,1.4666e-09,0,0.0015127,-0.00028135,3.0695e+08,254.88,0,3.0695e+08,610.95,12136,12879,1,12879,1,0.0019503,4.2489e-08,0,0.0019503,-0.00019974,3.5673e+08,8343.8,0,3.5673e+08,3544.7,12878,12136,1,12136,1,0.0015126,1.7459e-09,0,0.0015126,-0.00028129,3.0663e+08,287.78,0,3.0663e+08,374.74,12135,11395,1,11395,1,0.001075,-4.3954e-08,0,0.001075,-0.0003631,2.5874e+08,-8774.9,0,2.5874e+08,-11.736,11394,11748,1,11748,1,0.0012626,-6.2816e-09,0,0.0012626,-0.00032798,2.8144e+08,-1120.3,0,2.8144e+08,126.59,11747,12524,1,12524,1,0.0017627,1.0465e-08,0,0.0017627,-0.00023468,3.3202e+08,1847.2,0,3.3202e+08,823.49,12523,438.26,0,438.26,0,0.00028681,1.6502e-08,0,0.00028681,5.3517e-05,3.0907e+07,3036.5,0,3.0907e+07,662.86,438.26,1
432,5.88,12137,1,12137,1,0.0015175,2.4558e-09,0,0.0015175,-0.00028224,3.0679e+08,436.95,0,3.0679e+08,667.33,12136,12879,1,12879,1,0.0019562,4.4247e-08,0,0.0019562,-0.00020044,3.5626e+08,8612.9,0,3.5626e+08,3745.6,12878,12136,1,12136,1,0.0015175,2.2822e-09,0,0.0015175,-0.00028218,3.0645e+08,379.36,0,3.0645e+08,428.89,12135,11395,1,11395,1,0.0010788,-4.3664e-08,0,0.0010788,-0.00036418,2.5892e+08,-8609.6,0,2.5892e+08,-48.772,11394,11748,1,11748,1,0.0012668,-5.3289e-09,0,0.0012668,-0.00032898,2.8147e+08,-922.48,0,2.8147e+08,125.99,11747,12524,1,12524,1,0.0017681,1.1682e-08,0,0.0017681,-0.00023547,3.3165e+08,2073.3,0,3.3165e+08,929.64,12523,438.26,0,438.26,0,0.00028748,1.6739e-08,0,0.00028748,5.3641e-05,3.069e+07,3063.6,0,3.069e+07,717.72,438.26,1
432,5.89,12137,1,12137,1,0.0015224,3.1679e-09,0,0.0015224,-0.00028313,3.0659e+08,562.86,0,3.0659e+08,718.88,12136,12879,1,12879,1,0.001962,5.5129e-08,0,0.001962,-0.00020114,3.5575e+08,10794,0,3.5575e+08,3924.1,12878,12136,1,12136,1,0.0015223,2.169e-09,0,0.0015223,-0.00028307,3.0624e+08,348.27,0,3.0624e+08,439.8,12135,11395,1,11395,1,0.0010826,-4.9548e-08,0,0.0010826,-0.00036525,2.5907e+08,-9751.9,0,2.5907e+08,-103.44,11394,11748,1,11748,1,0.0012711,-7.3381e-09,0,0.0012711,-0.00032997,2.8147e+08,-1249,0,2.8147e+08,135.67,11747,12524,1,12524,1,0.0017735,1.4608e-08,0,0.0017735,-0.00023625,3.3125e+08,2559.5,0,3.3125e+08,1006.2,12523,438.26,0,438.26,0,0.00028815,2.042e-08,0,0.00028815,5.3764e-05,3.0467e+07,3729.2,0,3.0467e+07,787.88,438.26,1
432,5.9,12137,1,12137,1,0.0015273,4.2248e-09,0,0.0015273,-0.00028404,3.0642e+08,763.87,0,3.0642e+08,783.84,12136,12879,1,12879,1,0.001968,5.2607e-08,0,0.001968,-0.00020185,3.5527e+08,10149,0,3.5527e+08,4214.9,12878,12136,1,12136,1,0.0015272,3.3665e-09,0,0.0015272,-0.00028398,3.0606e+08,551.66,0,3.0606e+08,532.61,12135,11395,1,11395,1,0.0010865,-4.3525e-08,0,0.0010865,-0.00036636,2.5924e+08,-8233.2,0,2.5924e+08,-260.05,11394,11748,1,11748,1,0.0012754,-5.3618e-09,0,0.0012754,-0.00033099,2.815e+08,-896.87,0,2.815e+08,93.414,11747,12524,1,12524,1,0.0017791,1.3962e-08,0,0.0017791,-0.00023705,3.3088e+08,2426.5,0,3.3088e+08,1139.1,12523,438.26,0,438.26,0,0.00028883,1.8176e-08,0,0.00028883,5.389e-05,3.0248e+07,3289.6,0,3.0248e+07,883.7,438.26,1
432,5.91,12137,1,12137,1,0.0015322,-1.4691e-10,0,0.0015322,-0.00028495,3.0622e+08,-30.925,0,3.0622e+08,915.24,12136,12879,1,12879,1,0.001974,5.7861e-08,0,0.001974,-0.00020257,3.5475e+08,11079,0,3.5475e+08,4601,12878,12136,1,12136,1,0.0015322,4.4205e-10,0,0.0015322,-0.00028489,3.0585e+08,67.778,0,3.0585e+08,648.44,12135,11395,1,11395,1,0.0010904,-6.0503e-08,0,0.0010904,-0.00036746,2.5941e+08,-11670,0,2.5941e+08,-70.505,11394,11748,1,11748,1,0.0012798,-1.3055e-08,0,0.0012798,-0.00033201,2.815e+08,-2232.9,0,2.815e+08,164.03,11747,12524,1,12524,1,0.0017846,1.2898e-08,0,0.0017846,-0.00023785,3.3048e+08,2202.5,0,3.3048e+08,1313,12523,438.26,0,438.26,0,0.00028951,2.3349e-08,0,0.00028951,5.4016e-05,3.0022e+07,4216.6,0,3.0022e+07,940.91,438.26,1
432,5.92,12137,1,12137,1,0.0015372,2.2275e-09,0,0.0015372,-0.00028585,3.0601e+08,397.24,0,3.0601e+08,985.6,12136,12879,1,12879,1,0.0019799,7.1228e-08,0,0.0019799,-0.00020328,3.5422e+08,13792,0,3.5422e+08,4937.3,12878,12136,1,12136,1,0.0015371,1.7776e-09,0,0.0015371,-0.00028579,3.0562e+08,288.2,0,3.0562e+08,690.98,12135,11395,1,11395,1,0.0010943,-6.8242e-08,0,0.0010943,-0.00036855,2.5955e+08,-13176,0,2.5955e+08,-191.83,11394,11748,1,11748,1,0.0012841,-1.3143e-08,0,0.0012841,-0.00033303,2.8149e+08,-2252.7,0,2.8149e+08,189.65,11747,12524,1,12524,1,0.0017901,1.8289e-08,0,0.0017901,-0.00023864,3.3005e+08,3170,0,3.3005e+08,1408.8,12523,438.26,0,438.26,0,0.00029018,2.7946e-08,0,0.00029018,5.414e-05,2.9793e+07,5041.7,0,2.9793e+07,1030.7,438.26,1
432,5.93,12137,1,12137,1,0.0015421,3.9758e-09,0,0.0015421,-0.00028677,3.0581e+08,723.06,0,3.0581e+08,1111.1,12136,12879,1,12879,1,0.001986,7.3977e-08,0,0.001986,-0.000204,3.537e+08,14347,0,3.537e+08,5209.1,12878,12136,1,12136,1,0.0015421,2.0279e-09,0,0.0015421,-0.00028671,3.0541e+08,330.89,0,3.0541e+08,830.98,12135,11395,1,11395,1,0.0010982,-6.5623e-08,0,0.0010982,-0.00036967,2.5971e+08,-12337,0,2.5971e+08,-297.33,11394,11748,1,11748,1,0.0012885,-1.1772e-08,0,0.0012885,-0.00033405,2.8149e+08,-1994.3,0,2.8149e+08,208.37,11747,12524,1,12524,1,0.0017957,1.9767e-08,0,0.0017957,-0.00023945,3.2965e+08,3401.9,0,3.2965e+08,1590.2,12523,438.26,0,438.26,0,0.00029086,2.8214e-08,0,0.00029086,5.4267e-05,2.9568e+07,5064.6,0,2.9568e+07,1100.8,438.26,1
432,5.94,12137,1,12137,1,0.0015472,3.6381e-10,0,0.0015472,-0.0002877,3.056e+08,86.496,0,3.056e+08,1172.6,12136,12879,1,12879,1,0.0019921,7.5808e-08,0,0.0019921,-0.00020473,3.5317e+08,14646,0,3.5317e+08,5607,12878,12136,1,12136,1,0.0015471,3.6359e-10,0,0.0015471,-0.00028764,3.0519e+08,62.821,0,3.0519e+08,849.33,12135,11395,1,11395,1,0.0011022,-7.8943e-08,0,0.0011022,-0.0003708,2.5987e+08,-14923,0,2.5987e+08,-317.61,11394,11748,1,11748,1,0.0012929,-1.7312e-08,0,0.0012929,-0.00033509,2.8149e+08,-2994.4,0,2.8149e+08,243.67,11747,12524,1,12524,1,0.0018013,1.8411e-08,0,0.0018013,-0.00024026,3.2924e+08,3123.6,0,3.2924e+08,1707.6,12523,438.26,0,438.26,0,0.00029156,3.159e-08,0,0.00029156,5.4395e-05,2.9339e+07,5651.2,0,2.9339e+07,1181.2,438.26,1
432,5.95,12137,1,12137,1,0.0015523,-3.0177e-09,0,0.0015523,-0.00028864,3.0538e+08,-509.33,0,3.0538e+08,1323.9,12136,12879,1,12879,1,0.0019983,7.869e-08,0,0.0019983,-0.00020547,3.5262e+08,15117,0,3.5262e+08,6050.5,12878,12136,1,12136,1,0.0015522,-1.9235e-09,0,0.0015522,-0.00028857,3.0496e+08,-308.32,0,3.0496e+08,957.56,12135,11395,1,11395,1,0.0011062,-9.0198e-08,0,0.0011062,-0.00037193,2.6002e+08,-17136,0,2.6002e+08,-182.15,11394,11748,1,11748,1,0.0012974,-2.2822e-08,0,0.0012974,-0.00033614,2.8147e+08,-3860.6,0,2.8147e+08,293.59,11747,12524,1,12524,1,0.001807,1.6695e-08,0,0.001807,-0.00024109,3.288e+08,2766.6,0,3.288e+08,1886.7,12523,438.26,0,438.26,0,0.00029225,3.451e-08,0,0.00029225,5.4524e-05,2.9106e+07,6154,0,2.9106e+07,1261.1,438.26,1
432,5.96,12137,1,12137,1,0.0015575,-2.6812e-09,0,0.0015575,-0.00028959,3.0516e+08,-442.78,0,3.0516e+08,1397.5,12136,12879,1,12879,1,0.0020046,8.1875e-08,0,0.0020046,-0.00020621,3.5207e+08,15595,0,3.5207e+08,6497.4,12878,12136,1,12136,1,0.0015574,-1.916e-09,0,0.0015574,-0.00028952,3.0472e+08,-307.49,0,3.0472e+08,1075.4,12135,11395,1,11395,1,0.0011103,-8.9983e-08,0,0.0011103,-0.00037309,2.6017e+08,-16736,0,2.6017e+08,-213.06,11394,11748,1,11748,1,0.001302,-2.2147e-08,0,0.001302,-0.0003372,2.8146e+08,-3736.9,0,2.8146e+08,290.31,11747,12524,1,12524,1,0.0018128,1.6576e-08,0,0.0018128,-0.00024192,3.2837e+08,2782.7,0,3.2837e+08,2035.8,12523,438.26,0,438.26,0,0.00029296,3.438e-08,0,0.00029296,5.4655e-05,2.8871e+07,6091.3,0,2.8871e+07,1365.3,438.26,1
432,5.97,12137,1,12137,1,0.0015627,-9.8623e-09,0,0.0015627,-0.00029054,3.0492e+08,-1714.7,0,3.0492e+08,1462.4,12136,12879,1,12879,1,0.0020108,8.926e-08,0,0.0020108,-0.00020697,3.515e+08,16892,0,3.515e+08,6986.6,12878,12136,1,12136,1,0.0015626,-7.0483e-09,0,0.0015626,-0.00029047,3.0447e+08,-1148,0,3.0447e+08,1046.9,12135,11395,1,11395,1,0.0011144,-1.1161e-07,0,0.0011144,-0.00037424,2.6031e+08,-21133,0,2.6031e+08,-106.28,11394,11748,1,11748,1,0.0013065,-3.4711e-08,0,0.0013065,-0.00033827,2.8143e+08,-5815.3,0,2.8143e+08,263.79,11747,12524,1,12524,1,0.0018186,1.2602e-08,0,0.0018186,-0.00024276,3.2791e+08,2080.6,0,3.2791e+08,2169.7,12523,438.26,0,438.26,0,0.00029366,4.0953e-08,0,0.00029366,5.4784e-05,2.8631e+07,7250.1,0,2.8631e+07,1438.1,438.26,1
432,5.98,12137,1,12137,1,0.0015679,-9.7407e-09,0,0.0015679,-0.00029151,3.0469e+08,-1697.7,0,3.0469e+08,1596.3,12136,12879,1,12879,1,0.0020171,9.3615e-08,0,0.0020171,-0.00020773,3.5093e+08,17443,0,3.5093e+08,7347.6,12878,12136,1,12136,1,0.0015678,-6.2581e-09,0,0.0015678,-0.00029144,3.0422e+08,-1001.6,0,3.0422e+08,1147.4,12135,11395,1,11395,1,0.0011185,-1.1736e-07,0,0.0011185,-0.0003754,2.6045e+08,-22160,0,2.6045e+08,-42.242,11394,11748,1,11748,1,0.0013112,-3.5237e-08,0,0.0013112,-0.00033935,2.8141e+08,-5849.9,0,2.8141e+08,327.29,11747,12524,1,12524,1,0.0018245,1.367e-08,0,0.0018245,-0.00024361,3.2746e+08,2280.2,0,3.2746e+08,2333.8,12523,438.26,0,438.26,0,0.00029437,4.251e-08,0,0.00029437,5.4917e-05,2.8393e+07,7489.7,0,2.8393e+07,1557,438.26,1
432,5.99,12137,1,12137,1,0.0015732,-5.3982e-09,0,0.0015732,-0.00029248,3.0444e+08,-936.64,0,3.0444e+08,1766.1,12136,12879,1,12879,1,0.0020236,1.0749e-07,0,0.0020236,-0.0002085,3.5034e+08,19992,0,3.5034e+08,7836.6,12878,12136,1,12136,1,0.0015731,-3.2241e-09,0,0.0015731,-0.00029241,3.0396e+08,-505.57,0,3.0396e+08,1300.3,12135,11395,1,11395,1,0.0011228,-1.2339e-07,0,0.0011228,-0.00037659,2.606e+08,-23185,0,2.606e+08,4.5458,11394,11748,1,11748,1,0.0013159,-3.2556e-08,0,0.0013159,-0.00034044,2.8138e+08,-5486.3,0,2.8138e+08,385.83,11747,12524,1,12524,1,0.0018304,2.1579e-08,0,0.0018304,-0.00024447,3.27e+08,3617.2,0,3.27e+08,2642,12523,438.26,0,438.26,0,0.00029509,4.6993e-08,0,0.00029509,5.505e-05,2.815e+07,8240.5,0,2.815e+07,1668.9,438.26,1
432,6,12137,1,12137,1,0.0015786,1.2724e-09,0,0.0015786,-0.00029348,3.042e+08,239.57,0,3.042e+08,1926.2,12136,12879,1,12879,1,0.0020301,1.2323e-07,0,0.0020301,-0.00020928,3.4974e+08,23074,0,3.4974e+08,8429.2,12878,12136,1,12136,1,0.0015785,9.7004e-10,0,0.0015785,-0.0002934,3.037e+08,143.83,0,3.037e+08,1450.9,12135,11395,1,11395,1,0.001127,-1.2392e-07,0,0.001127,-0.00037779,2.6074e+08,-22776,0,2.6074e+08,-255.43,11394,11748,1,11748,1,0.0013206,-2.8074e-08,0,0.0013206,-0.00034155,2.8135e+08,-4722.7,0,2.8135e+08,392.35,11747,12524,1,12524,1,0.0018364,3.1272e-08,0,0.0018364,-0.00024534,3.2652e+08,5099.2,0,3.2652e+08,2905.9,12523,438.26,0,438.26,0,0.00029582,5.0745e-08,0,0.00029582,5.5186e-05,2.7904e+07,8856.1,0,2.7904e+07,1827.5,438.26,1
432,6.01,12137,1,12137,1,0.0015841,-4.7841e-09,0,0.0015841,-0.00029448,3.0394e+08,-811.79,0,3.0394e+08,2079.1,12136,12879,1,12879,1,0.0020367,1.2859e-07,0,0.0020367,-0.00021007,3.4914e+08,23757,0,3.4914e+08,9032.7,12878,12136,1,12136,1,0.001584,-3.5386e-09,0,0.001584,-0.00029441,3.0342e+08,-524.1,0,3.0342e+08,1546.9,12135,11395,1,11395,1,0.0011313,-1.4127e-07,0,0.0011313,-0.00037901,2.6088e+08,-26029,0,2.6088e+08,-86.317,11394,11748,1,11748,1,0.0013254,-3.7643e-08,0,0.0013254,-0.00034267,2.8132e+08,-6222.7,0,2.8132e+08,432.24,11747,12524,1,12524,1,0.0018425,2.7312e-08,0,0.0018425,-0.00024623,3.2604e+08,4500.2,0,3.2604e+08,3159.9,12523,438.26,0,438.26,0,0.00029656,5.5409e-08,0,0.00029656,5.5323e-05,2.7654e+07,9628.4,0,2.7654e+07,1959.5,438.26,1
432,6.02,12137,1,12137,1,0.0015896,-2.4603e-09,0,0.0015896,-0.0002955,3.0366e+08,-399.58,0,3.0366e+08,2326.3,12136,12879,1,12879,1,0.0020434,1.438e-07,0,0.0020434,-0.00021087,3.485e+08,26578,0,3.485e+08,9795.5,12878,12136,1,12136,1,0.0015895,-1.7426e-09,0,0.0015895,-0.00029542,3.0313e+08,-251.71,0,3.0313e+08,1808.4,12135,11395,1,11395,1,0.0011357,-1.5243e-07,0,0.0011357,-0.00038024,2.6101e+08,-27846,0,2.6101e+08,-152.91,11394,11748,1,11748,1,0.0013303,-3.9273e-08,0,0.0013303,-0.0003438,2.8127e+08,-6368.3,0,2.8127e+08,498.57,11747,12524,1,12524,1,0.0018487,3.421e-08,0,0.0018487,-0.00024712,3.2553e+08,5544.1,0,3.2553e+08,3544.6,12523,438.26,0,438.26,0,0.0002973,6.134e-08,0,0.0002973,5.5461e-05,2.74e+07,10615,0,2.74e+07,2133.4,438.26,1
432,6.03,12137,1,12137,1,0.0015952,-4.941e-09,0,0.0015952,-0.00029652,3.0339e+08,-821.21,0,3.0339e+08,2520.6,12136,12879,1,12879,1,0.0020502,1.5578e-07,0,0.0020502,-0.00021168,3.4787e+08,28606,0,3.4787e+08,10642,12878,12136,1,12136,1,0.0015951,-4.1012e-09,0,0.0015951,-0.00029644,3.0284e+08,-643.02,0,3.0284e+08,1915.4,12135,11395,1,11395,1,0.0011401,-1.6865e-07,0,0.0011401,-0.00038148,2.6114e+08,-30709,0,2.6114e+08,-69.062,11394,11748,1,11748,1,0.0013352,-4.5681e-08,0,0.0013352,-0.00034495,2.8122e+08,-7472.4,0,2.8122e+08,565.49,11747,12524,1,12524,1,0.0018549,3.4486e-08,0,0.0018549,-0.00024802,3.2502e+08,5640.8,0,3.2502e+08,3852.8,12523,438.26,0,438.26,0,0.00029806,6.717e-08,0,0.00029806,5.56e-05,2.7144e+07,11574,0,2.7144e+07,2316.4,438.26,1
432,6.04,12137,1,12137,1,0.0016009,-9.0403e-09,0,0.0016009,-0.00029757,3.031e+08,-1528.5,0,3.031e+08,2754.6,12136,12879,1,12879,1,0.002057,1.6733e-07,0,0.002057,-0.0002125,3.4723e+08,30390,0,3.4723e+08,11504,12878,12136,1,12136,1,0.0016007,-6.5235e-09,0,0.0016007,-0.00029748,3.0254e+08,-1000.1,0,3.0254e+08,2116.3,12135,11395,1,11395,1,0.0011446,-1.8683e-07,0,0.0011446,-0.00038275,2.6127e+08,-34009,0,2.6127e+08,-3.1213,11394,11748,1,11748,1,0.0013402,-5.3731e-08,0,0.0013402,-0.00034611,2.8116e+08,-8849.7,0,2.8116e+08,615.83,11747,12524,1,12524,1,0.0018612,3.3808e-08,0,0.0018612,-0.00024894,3.245e+08,5544.8,0,3.245e+08,4271,12523,438.26,0,438.26,0,0.00029882,7.328e-08,0,0.00029882,5.5742e-05,2.6885e+07,12576,0,2.6885e+07,2506,438.26,1
432,6.05,12137,1,12137,1,0.0016066,-5.7742e-09,0,0.0016066,-0.00029862,3.028e+08,-961.98,0,3.028e+08,2993.7,12136,12879,1,12879,1,0.0020639,1.8837e-07,0,0.0020639,-0.00021333,3.4656e+08,34185,0,3.4656e+08,12216,12878,12136,1,12136,1,0.0016065,-4.7739e-09,0,0.0016065,-0.00029853,3.0223e+08,-696.76,0,3.0223e+08,2318.5,12135,11395,1,11395,1,0.0011491,-2.0328e-07,0,0.0011491,-0.00038402,2.6139e+08,-36791,0,2.6139e+08,-61.634,11394,11748,1,11748,1,0.0013453,-5.571e-08,0,0.0013453,-0.00034729,2.811e+08,-9026.5,0,2.811e+08,672.53,11747,12524,1,12524,1,0.0018676,4.267e-08,0,0.0018676,-0.00024987,3.2396e+08,6928,0,3.2396e+08,4718,12523,438.26,0,438.26,0,0.00029958,8.1688e-08,0,0.00029958,5.5884e-05,2.6621e+07,13957,0,2.6621e+07,2721.1,438.26,1
432,6.06,12137,1,12137,1,0.0016124,-8.1311e-09,0,0.0016124,-0.00029969,3.025e+08,-1364.4,0,3.025e+08,3288.6,12136,12879,1,12879,1,0.002071,2.0068e-07,0,0.002071,-0.00021417,3.4589e+08,35974,0,3.4589e+08,13180,12878,12136,1,12136,1,0.0016123,-5.2257e-09,0,0.0016123,-0.0002996,3.0191e+08,-762.11,0,3.0191e+08,2550.6,12135,11395,1,11395,1,0.0011537,-2.2133e-07,0,0.0011537,-0.00038532,2.6151e+08,-39847,0,2.6151e+08,-32.854,11394,11748,1,11748,1,0.0013504,-6.1551e-08,0,0.0013504,-0.00034848,2.8104e+08,-9983.6,0,2.8104e+08,764.61,11747,12524,1,12524,1,0.0018741,4.4034e-08,0,0.0018741,-0.00025081,3.2342e+08,7185.5,0,3.2342e+08,5191.7,12523,438.26,0,438.26,0,0.00030036,8.7468e-08,0,0.00030036,5.6029e-05,2.6355e+07,14867,0,2.6355e+07,2964.9,438.26,1
432,6.07,12137,1,12137,1,0.0016183,-9.6569e-09,0,0.0016183,-0.00030077,3.0219e+08,-1636.7,0,3.0219e+08,3708,12136,12879,1,12879,1,0.0020781,2.2343e-07,0,0.0020781,-0.00021503,3.4521e+08,39762,0,3.4521e+08,14466,12878,12136,1,12136,1,0.0016182,-5.4582e-09,0,0.0016182,-0.00030069,3.0158e+08,-857,0,3.0158e+08,2958.6,12135,11395,1,11395,1,0.0011584,-2.4675e-07,0,0.0011584,-0.00038663,2.6162e+08,-44554,0,2.6162e+08,-58.362,11394,11748,1,11748,1,0.0013556,-7.0009e-08,0,0.0013556,-0.0003497,2.8096e+08,-11432,0,2.8096e+08,826.5,11747,12524,1,12524,1,0.0018807,4.8633e-08,0,0.0018807,-0.00025177,3.2287e+08,7938.7,0,3.2287e+08,5877.5,12523,438.26,0,438.26,0,0.00030115,9.8186e-08,0,0.00030115,5.6175e-05,2.6084e+07,16625,0,2.6084e+07,3260.2,438.26,1
432,6.08,12137,1,12137,1,0.0016243,-2.4862e-09,0,0.0016243,-0.00030188,3.0187e+08,-428.11,0,3.0187e+08,3964.2,12136,12879,1,12879,1,0.0020854,2.5567e-07,0,0.0020854,-0.00021589,3.445e+08,45437,0,3.445e+08,15446,12878,12136,1,12136,1,0.0016242,-1.0623e-09,0,0.0016242,-0.00030179,3.0125e+08,-174.75,0,3.0125e+08,3126,12135,11395,1,11395,1,0.0011631,-2.6242e-07,0,0.0011631,-0.00038797,2.6175e+08,-46958,0,2.6175e+08,27.485,11394,11748,1,11748,1,0.0013609,-7.0335e-08,0,0.0013609,-0.00035093,2.8089e+08,-11235,0,2.8089e+08,919.64,11747,12524,1,12524,1,0.0018874,6.4241e-08,0,0.0018874,-0.00025274,3.223e+08,10148,0,3.223e+08,6318.6,12523,438.26,0,438.26,0,0.00030195,1.091e-07,0,0.00030195,5.6325e-05,2.5811e+07,18386,0,2.5811e+07,3529.7,438.26,1
432,6.09,12137,1,12137,1,0.0016304,-2.8481e-09,0,0.0016304,-0.000303,3.0154e+08,-499.89,0,3.0154e+08,4481.8,12136,12879,1,12879,1,0.0020927,2.8204e-07,0,0.0020927,-0.00021677,3.4377e+08,49802,0,3.4377e+08,16767,12878,12136,1,12136,1,0.0016302,-1.2421e-09,0,0.0016302,-0.0003029,3.009e+08,-185.82,0,3.009e+08,3592.6,12135,11395,1,11395,1,0.0011679,-2.8946e-07,0,0.0011679,-0.00038933,2.6186e+08,-51726,0,2.6186e+08,73.991,11394,11748,1,11748,1,0.0013663,-7.8384e-08,0,0.0013663,-0.00035217,2.808e+08,-12341,0,2.808e+08,1071.7,11747,12524,1,12524,1,0.0018942,7.0738e-08,0,0.0018942,-0.00025372,3.2171e+08,11229,0,3.2171e+08,7069.5,12523,438.26,0,438.26,0,0.00030276,1.2061e-07,0,0.00030276,5.6476e-05,2.553e+07,20235,0,2.553e+07,3865.6,438.26,1
432,6.1,12137,1,12137,1,0.0016366,4.4981e-09,0,0.0016366,-0.00030413,3.0119e+08,719.09,0,3.0119e+08,4761,12136,12879,1,12879,1,0.0021002,3.2093e-07,0,0.0021002,-0.00021765,3.4303e+08,56611,0,3.4303e+08,18158,12878,12136,1,12136,1,0.0016364,2.936e-09,0,0.0016364,-0.00030403,3.0053e+08,408.85,0,3.0053e+08,3788.5,12135,11395,1,11395,1,0.0011727,-3.12e-07,0,0.0011727,-0.0003907,2.6197e+08,-55363,0,2.6197e+08,-29.342,11394,11748,1,11748,1,0.0013717,-8.0666e-08,0,0.0013717,-0.00035343,2.807e+08,-12775,0,2.807e+08,1134.3,11747,12524,1,12524,1,0.001901,8.9722e-08,0,0.001901,-0.00025471,3.211e+08,14236,0,3.211e+08,7585.9,12523,438.26,0,438.26,0,0.00030358,1.3473e-07,0,0.00030358,5.6628e-05,2.5247e+07,22505,0,2.5247e+07,4183.3,438.26,1
432,6.11,12137,1,12137,1,0.0016429,3.4925e-09,0,0.0016429,-0.00030529,3.0084e+08,540.19,0,3.0084e+08,5290.7,12136,12879,1,12879,1,0.0021078,3.5086e-07,0,0.0021078,-0.00021855,3.4229e+08,61491,0,3.4229e+08,19758,12878,12136,1,12136,1,0.0016426,3.1026e-09,0,0.0016426,-0.00030518,3.0016e+08,426.63,0,3.0016e+08,4242.1,12135,11395,1,11395,1,0.0011777,-3.4254e-07,0,0.0011777,-0.0003921,2.6207e+08,-60544,0,2.6207e+08,89.487,11394,11748,1,11748,1,0.0013772,-8.9734e-08,0,0.0013772,-0.00035471,2.8061e+08,-14286,0,2.8061e+08,1217.7,11747,12524,1,12524,1,0.001908,9.6377e-08,0,0.001908,-0.00025573,3.2049e+08,15235,0,3.2049e+08,8388.5,12523,438.26,0,438.26,0,0.00030442,1.4757e-07,0,0.00030442,5.6784e-05,2.496e+07,24528,0,2.496e+07,4574,438.26,1
432,6.12,12137,1,12137,1,0.0016494,1.1045e-08,0,0.0016494,-0.00030648,3.0049e+08,1789.5,0,3.0049e+08,5772.5,12136,12879,1,12879,1,0.0021157,3.9161e-07,0,0.0021157,-0.00021949,3.4155e+08,68488,0,3.4155e+08,21516,12878,12136,1,12136,1,0.0016491,9.4765e-09,0,0.0016491,-0.00030636,2.998e+08,1382.5,0,2.998e+08,4631.6,12135,11395,1,11395,1,0.0011828,-3.6905e-07,0,0.0011828,-0.00039355,2.6219e+08,-64550,0,2.6219e+08,81.391,11394,11748,1,11748,1,0.001383,-8.9263e-08,0,0.001383,-0.00035604,2.8052e+08,-14070,0,2.8052e+08,1437.5,11747,12524,1,12524,1,0.0019152,1.1599e-07,0,0.0019152,-0.00025678,3.1988e+08,18136,0,3.1988e+08,9141,12523,438.26,0,438.26,0,0.00030528,1.6285e-07,0,0.00030528,5.6944e-05,2.4669e+07,26938,0,2.4669e+07,4965,438.26,1
432,6.13,12137,1,12137,1,0.001656,7.2103e-09,0,0.001656,-0.00030769,3.0011e+08,1141.5,0,3.0011e+08,6320.9,12136,12879,1,12879,1,0.0021237,4.2687e-07,0,0.0021237,-0.00022043,3.4074e+08,74114,0,3.4074e+08,23349,12878,12136,1,12136,1,0.0016557,5.2352e-09,0,0.0016557,-0.00030757,2.9939e+08,800.39,0,2.9939e+08,5080.2,12135,11395,1,11395,1,0.0011879,-4.1447e-07,0,0.0011879,-0.00039502,2.6229e+08,-72425,0,2.6229e+08,55.58,11394,11748,1,11748,1,0.0013888,-1.0799e-07,0,0.0013888,-0.00035738,2.804e+08,-16748,0,2.804e+08,1490.7,11747,12524,1,12524,1,0.0019225,1.2497e-07,0,0.0019225,-0.00025784,3.1923e+08,19417,0,3.1923e+08,9971,12523,438.26,0,438.26,0,0.00030615,1.8094e-07,0,0.00030615,5.7107e-05,2.4367e+07,29785,0,2.4367e+07,5439.3,438.26,1
432,6.14,12137,1,12137,1,0.0016627,1.2224e-08,0,0.0016627,-0.00030893,2.9972e+08,1956.5,0,2.9972e+08,6920.6,12136,12879,1,12879,1,0.0021318,4.7572e-07,0,0.0021318,-0.0002214,3.3994e+08,82384,0,3.3994e+08,25385,12878,12136,1,12136,1,0.0016624,1.05e-08,0,0.0016624,-0.0003088,2.9898e+08,1569.9,0,2.9898e+08,5580.8,12135,11395,1,11395,1,0.0011932,-4.5313e-07,0,0.0011932,-0.00039652,2.6239e+08,-78581,0,2.6239e+08,159.26,11394,11748,1,11748,1,0.0013947,-1.1343e-07,0,0.0013947,-0.00035876,2.8028e+08,-17513,0,2.8028e+08,1685.8,11747,12524,1,12524,1,0.00193,1.4309e-07,0,0.00193,-0.00025893,3.1856e+08,22166,0,3.1856e+08,10980,12523,438.26,0,438.26,0,0.00030704,2.0055e-07,0,0.00030704,5.7273e-05,2.4061e+07,32851,0,2.4061e+07,5929.9,438.26,1
432,6.15,12137,1,12137,1,0.0016696,8.2412e-09,0,0.0016696,-0.00031018,2.9931e+08,1293.1,0,2.9931e+08,7615.8,12136,12879,1,12879,1,0.0021401,5.1904e-07,0,0.0021401,-0.00022237,3.3909e+08,89252,0,3.3909e+08,27595,12878,12136,1,12136,1,0.0016692,6.2979e-09,0,0.0016692,-0.00031005,2.9855e+08,952.39,0,2.9855e+08,6153,12135,11395,1,11395,1,0.0011986,-5.0711e-07,0,0.0011986,-0.00039805,2.6248e+08,-87743,0,2.6248e+08,140.39,11394,11748,1,11748,1,0.0014007,-1.3329e-07,0,0.0014007,-0.00036015,2.8015e+08,-20448,0,2.8015e+08,1844,11747,12524,1,12524,1,0.0019376,1.5346e-07,0,0.0019376,-0.00026003,3.1786e+08,23586,0,3.1786e+08,12125,12523,438.26,0,438.26,0,0.00030794,2.2164e-07,0,0.00030794,5.7441e-05,2.3747e+07,36115,0,2.3747e+07,6502.3,438.26,1
432,6.16,12137,1,12137,1,0.0016767,1.247e-08,0,0.0016767,-0.00031148,2.989e+08,1965.5,0,2.989e+08,8378.8,12136,12879,1,12879,1,0.0021487,5.7822e-07,0,0.0021487,-0.00022338,3.3826e+08,98988,0,3.3826e+08,30080,12878,12136,1,12136,1,0.0016762,1.0664e-08,0,0.0016762,-0.00031133,2.9812e+08,1662.5,0,2.9812e+08,6818.7,12135,11395,1,11395,1,0.0012041,-5.5746e-07,0,0.0012041,-0.00039963,2.6258e+08,-95805,0,2.6258e+08,211.43,11394,11748,1,11748,1,0.0014069,-1.4403e-07,0,0.0014069,-0.00036159,2.8002e+08,-21859,0,2.8002e+08,2056.2,11747,12524,1,12524,1,0.0019454,1.7492e-07,0,0.0019454,-0.00026116,3.1717e+08,26733,0,3.1717e+08,13355,12523,438.26,0,438.26,0,0.00030888,2.4638e-07,0,0.00030888,5.7616e-05,2.3431e+07,39940,0,2.3431e+07,7122.8,438.26,1
432,6.17,12137,1,12137,1,0.0016839,1.5277e-08,0,0.0016839,-0.00031281,2.9847e+08,2405.3,0,2.9847e+08,9230.4,12136,12879,1,12879,1,0.0021575,6.4013e-07,0,0.0021575,-0.00022441,3.3739e+08,1.0903e+05,0,3.3739e+08,32718,12878,12136,1,12136,1,0.0016834,1.3853e-08,0,0.0016834,-0.00031266,2.9767e+08,2063.6,0,2.9767e+08,7579.9,12135,11395,1,11395,1,0.0012097,-6.168e-07,0,0.0012097,-0.00040125,2.6268e+08,-1.0534e+05,0,2.6268e+08,214.48,11394,11748,1,11748,1,0.0014133,-1.5908e-07,0,0.0014133,-0.00036307,2.7987e+08,-24043,0,2.7987e+08,2272.1,11747,12524,1,12524,1,0.0019535,1.9706e-07,0,0.0019535,-0.00026233,3.1645e+08,29993,0,3.1645e+08,14779,12523,438.26,0,438.26,0,0.00030983,2.7414e-07,0,0.00030983,5.7795e-05,2.3104e+07,44201,0,2.3104e+07,7832,438.26,1
432,6.18,12137,1,12137,1,0.0016914,1.6101e-08,0,0.0016914,-0.00031417,2.9801e+08,2520.3,0,2.9801e+08,10227,12136,12879,1,12879,1,0.0021666,7.123e-07,0,0.0021666,-0.00022546,3.3648e+08,1.2076e+05,0,3.3648e+08,35663,12878,12136,1,12136,1,0.0016908,1.4024e-08,0,0.0016908,-0.00031401,2.972e+08,2231.6,0,2.972e+08,8448,12135,11395,1,11395,1,0.0012155,-6.8658e-07,0,0.0012155,-0.00040291,2.6276e+08,-1.1659e+05,0,2.6276e+08,248.97,11394,11748,1,11748,1,0.0014199,-1.8016e-07,0,0.0014199,-0.00036458,2.7972e+08,-26970,0,2.7972e+08,2523.9,11747,12524,1,12524,1,0.0019617,2.1988e-07,0,0.0019617,-0.00026353,3.1569e+08,33228,0,3.1569e+08,16437,12523,438.26,0,438.26,0,0.00031081,3.0613e-07,0,0.00031081,5.7977e-05,2.2768e+07,49088,0,2.2768e+07,8626,438.26,1
432,6.19,12137,1,12137,1,0.001699,1.2341e-08,0,0.001699,-0.00031558,2.9755e+08,1900.6,0,2.9755e+08,11353,12136,12879,1,12879,1,0.0021759,7.8707e-07,0,0.0021759,-0.00022654,3.3555e+08,1.3258e+05,0,3.3555e+08,39121,12878,12136,1,12136,1,0.0016984,8.8687e-09,0,0.0016984,-0.0003154,2.9671e+08,1318.7,0,2.9671e+08,9431.2,12135,11395,1,11395,1,0.0012215,-7.6998e-07,0,0.0012215,-0.00040463,2.6284e+08,-1.3028e+05,0,2.6284e+08,297.08,11394,11748,1,11748,1,0.0014266,-2.1125e-07,0,0.0014266,-0.00036614,2.7956e+08,-31748,0,2.7956e+08,2825.4,11747,12524,1,12524,1,0.0019702,2.4133e-07,0,0.0019702,-0.00026475,3.1491e+08,36226,0,3.1491e+08,18361,12523,438.26,0,438.26,0,0.00031182,3.4195e-07,0,0.00031182,5.8166e-05,2.2425e+07,54526,0,2.2425e+07,9527.3,438.26,1
432,6.2,12137,1,12137,1,0.0017068,1.6506e-08,0,0.0017068,-0.00031701,2.9705e+08,2538,0,2.9705e+08,12567,12136,12879,1,12879,1,0.0021854,8.8448e-07,0,0.0021854,-0.00022764,3.3458e+08,1.4838e+05,0,3.3458e+08,42720,12878,12136,1,12136,1,0.0017061,1.0748e-08,0,0.0017061,-0.00031682,2.9619e+08,1615.2,0,2.9619e+08,10489,12135,11395,1,11395,1,0.0012275,-8.5797e-07,0,0.0012275,-0.00040638,2.6291e+08,-1.4441e+05,0,2.6291e+08,321.36,11394,11748,1,11748,1,0.0014334,-2.3484e-07,0,0.0014334,-0.00036772,2.7937e+08,-35094,0,2.7937e+08,3097,11747,12524,1,12524,1,0.0019788,2.7472e-07,0,0.0019788,-0.00026601,3.141e+08,40892,0,3.141e+08,20341,12523,438.26,0,438.26,0,0.00031284,3.8412e-07,0,0.00031284,5.8358e-05,2.2071e+07,60906,0,2.2071e+07,10488,438.26,1
432,6.21,12137,1,12137,1,0.001715,2.8027e-08,0,0.001715,-0.00031851,2.9656e+08,4349.1,0,2.9656e+08,13946,12136,12879,1,12879,1,0.0021953,9.9154e-07,0,0.0021953,-0.00022879,3.3363e+08,1.6582e+05,0,3.3363e+08,46493,12878,12136,1,12136,1,0.0017142,2.7089e-08,0,0.0017142,-0.00031831,2.9568e+08,3520.5,0,2.9568e+08,11824,12135,11395,1,11395,1,0.0012338,-9.4527e-07,0,0.0012338,-0.00040821,2.63e+08,-1.5764e+05,0,2.63e+08,332.16,11394,11748,1,11748,1,0.0014406,-2.4838e-07,0,0.0014406,-0.00036938,2.792e+08,-36721,0,2.792e+08,3486.7,11747,12524,1,12524,1,0.0019878,3.1659e-07,0,0.0019878,-0.00026732,3.1329e+08,47264,0,3.1329e+08,22663,12523,438.26,0,438.26,0,0.00031391,4.2907e-07,0,0.00031391,5.856e-05,2.1712e+07,67635,0,2.1712e+07,11587,438.26,1
432,6.22,12137,1,12137,1,0.0017235,2.1038e-08,0,0.0017235,-0.00032006,2.9603e+08,3230.4,0,2.9603e+08,15503,12136,12879,1,12879,1,0.0022057,1.0965e-06,0,0.0022057,-0.00022998,3.326e+08,1.8194e+05,0,3.326e+08,51008,12878,12136,1,12136,1,0.0017226,1.8509e-08,0,0.0017226,-0.00031984,2.9513e+08,2867.8,0,2.9513e+08,13123,12135,11395,1,11395,1,0.0012404,-1.0673e-06,0,0.0012404,-0.00041011,2.6308e+08,-1.7715e+05,0,2.6308e+08,474.74,11394,11748,1,11748,1,0.001448,-2.9484e-07,0,0.001448,-0.0003711,2.79e+08,-43104,0,2.79e+08,3863.4,11747,12524,1,12524,1,0.0019972,3.4592e-07,0,0.0019972,-0.00026867,3.1243e+08,51154,0,3.1243e+08,25291,12523,438.26,0,438.26,0,0.00031502,4.8097e-07,0,0.00031502,5.8769e-05,2.1338e+07,75339,0,2.1338e+07,12854,438.26,1
432,6.23,12137,1,12137,1,0.0017322,2.0394e-08,0,0.0017322,-0.00032166,2.9547e+08,3106.9,0,2.9547e+08,17233,12136,12879,1,12879,1,0.0022163,1.2302e-06,0,0.0022163,-0.00023119,3.3152e+08,2.0302e+05,0,3.3152e+08,55772,12878,12136,1,12136,1,0.0017313,1.2744e-08,0,0.0017313,-0.00032142,2.9454e+08,1993.4,0,2.9454e+08,14728,12135,11395,1,11395,1,0.0012471,-1.1995e-06,0,0.0012471,-0.00041208,2.6314e+08,-1.9791e+05,0,2.6314e+08,455.75,11394,11748,1,11748,1,0.0014557,-3.4042e-07,0,0.0014557,-0.00037287,2.7878e+08,-49735,0,2.7878e+08,4241.1,11747,12524,1,12524,1,0.0020068,3.8842e-07,0,0.0020068,-0.00027007,3.1152e+08,56925,0,3.1152e+08,28256,12523,438.26,0,438.26,0,0.00031616,5.4218e-07,0,0.00031616,5.8984e-05,2.095e+07,84388,0,2.095e+07,14273,438.26,1
432,6.24,12137,1,12137,1,0.0017413,1.728e-08,0,0.0017413,-0.00032333,2.949e+08,2600.8,0,2.949e+08,19240,12136,12879,1,12879,1,0.0022275,1.3717e-06,0,0.0022275,-0.00023245,3.3043e+08,2.2469e+05,0,3.3043e+08,61206,12878,12136,1,12136,1,0.0017403,9.3175e-09,0,0.0017403,-0.00032307,2.9394e+08,1283.8,0,2.9394e+08,16500,12135,11395,1,11395,1,0.001254,-1.3547e-06,0,0.001254,-0.00041414,2.6321e+08,-2.2234e+05,0,2.6321e+08,488.55,11394,11748,1,11748,1,0.0014637,-3.9064e-07,0,0.0014637,-0.00037471,2.7856e+08,-56926,0,2.7856e+08,4725.9,11747,12524,1,12524,1,0.0020168,4.3447e-07,0,0.0020168,-0.00027152,3.1059e+08,63103,0,3.1059e+08,31637,12523,438.26,0,438.26,0,0.00031735,6.1093e-07,0,0.00031735,5.921e-05,2.0552e+07,94461,0,2.0552e+07,15862,438.26,1
432,6.25,12137,1,12137,1,0.0017508,2.6522e-08,0,0.0017508,-0.00032506,2.9429e+08,4008.5,0,2.9429e+08,21512,12136,12879,1,12879,1,0.0022392,1.5538e-06,0,0.0022392,-0.00023376,3.2929e+08,2.5319e+05,0,3.2929e+08,67314,12878,12136,1,12136,1,0.0017497,1.9095e-08,0,0.0017497,-0.00032479,2.9331e+08,3099.7,0,2.9331e+08,18784,12135,11395,1,11395,1,0.0012613,-1.5141e-06,0,0.0012613,-0.00041629,2.6328e+08,-2.4633e+05,0,2.6328e+08,519.52,11394,11748,1,11748,1,0.001472,-4.3721e-07,0,0.001472,-0.00037663,2.7832e+08,-62857,0,2.7832e+08,5324.1,11747,12524,1,12524,1,0.0020273,4.9943e-07,0,0.0020273,-0.00027303,3.0961e+08,72356,0,3.0961e+08,35659,12523,438.26,0,438.26,0,0.00031859,6.9053e-07,0,0.00031859,5.9446e-05,2.0136e+07,1.0603e+05,0,2.0136e+07,17709,438.26,1
432,6.26,12137,1,12137,1,0.0017608,2.1636e-08,0,0.0017608,-0.00032688,2.9365e+08,3241.6,0,2.9365e+08,24165,12136,12879,1,12879,1,0.0022515,1.7489e-06,0,0.0022515,-0.00023512,3.2809e+08,2.8298e+05,0,3.2809e+08,74189,12878,12136,1,12136,1,0.0017595,9.6415e-09,0,0.0017595,-0.00032658,2.9264e+08,1528.7,0,2.9264e+08,21073,12135,11395,1,11395,1,0.0012688,-1.7218e-06,0,0.0012688,-0.00041854,2.6333e+08,-2.7842e+05,0,2.6333e+08,691.49,11394,11748,1,11748,1,0.0014807,-5.076e-07,0,0.0014807,-0.00037864,2.7806e+08,-72799,0,2.7806e+08,6042.3,11747,12524,1,12524,1,0.0020382,5.6162e-07,0,0.0020382,-0.00027461,3.0858e+08,80519,0,3.0858e+08,40312,12523,438.26,0,438.26,0,0.00031989,7.8451e-07,0,0.00031989,5.9693e-05,1.9704e+07,1.196e+05,0,1.9704e+07,19806,438.26,1
432,6.27,12137,1,12137,1,0.0017712,2.3581e-08,0,0.0017712,-0.00032878,2.9298e+08,3512.3,0,2.9298e+08,27123,12136,12879,1,12879,1,0.0022643,1.9774e-06,0,0.0022643,-0.00023653,3.2685e+08,3.1775e+05,0,3.2685e+08,81665,12878,12136,1,12136,1,0.0017697,9.6197e-09,0,0.0017697,-0.00032846,2.9194e+08,1353.6,0,2.9194e+08,23645,12135,11395,1,11395,1,0.0012766,-1.949e-06,0,0.0012766,-0.00042091,2.6338e+08,-3.1273e+05,0,2.6338e+08,756.79,11394,11748,1,11748,1,0.0014898,-5.8198e-07,0,0.0014898,-0.00038073,2.7778e+08,-82808,0,2.7778e+08,6718.4,11747,12524,1,12524,1,0.0020496,6.4135e-07,0,0.0020496,-0.00027626,3.0751e+08,91279,0,3.0751e+08,45597,12523,438.26,0,438.26,0,0.00032125,8.923e-07,0,0.00032125,5.9952e-05,1.9254e+07,1.3501e+05,0,1.9254e+07,22203,438.26,1
432,6.28,12137,1,12137,1,0.0017821,2.2039e-08,0,0.0017821,-0.00033078,2.9226e+08,3262.6,0,2.9226e+08,30715,12136,12879,1,12879,1,0.0022779,2.2451e-06,0,0.0022779,-0.000238,3.2555e+08,3.5824e+05,0,3.2555e+08,90405,12878,12136,1,12136,1,0.0017805,7.069e-09,0,0.0017805,-0.00033043,2.912e+08,935.59,0,2.912e+08,26649,12135,11395,1,11395,1,0.0012848,-2.2234e-06,0,0.0012848,-0.00042341,2.6343e+08,-3.5431e+05,0,2.6343e+08,834.89,11394,11748,1,11748,1,0.0014993,-6.7364e-07,0,0.0014993,-0.00038293,2.7748e+08,-95585,0,2.7748e+08,7649.3,11747,12524,1,12524,1,0.0020616,7.3252e-07,0,0.0020616,-0.00027799,3.0638e+08,1.0336e+05,0,3.0638e+08,51934,12523,438.26,0,438.26,0,0.00032268,1.0205e-06,0,0.00032268,6.0226e-05,1.8786e+07,1.5321e+05,0,1.8786e+07,24989,438.26,1
432,6.29,12137,1,12137,1,0.0017937,1.5483e-08,0,0.0017937,-0.00033289,2.9151e+08,2254.6,0,2.9151e+08,34693,12136,12879,1,12879,1,0.0022923,2.5506e-06,0,0.0022923,-0.00023953,3.2418e+08,4.0366e+05,0,3.2418e+08,1.0005e+05,12878,12136,1,12136,1,0.0017918,5.8216e-09,0,0.0017918,-0.00033249,2.904e+08,697.71,0,2.904e+08,29973,12135,11395,1,11395,1,0.0012933,-2.5458e-06,0,0.0012933,-0.00042606,2.6346e+08,-4.0291e+05,0,2.6346e+08,969.23,11394,11748,1,11748,1,0.0015093,-7.891e-07,0,0.0015093,-0.00038524,2.7716e+08,-1.1122e+05,0,2.7716e+08,8657.6,11747,12524,1,12524,1,0.0020742,8.3504e-07,0,0.0020742,-0.00027981,3.0518e+08,1.165e+05,0,3.0518e+08,59312,12523,438.26,0,438.26,0,0.00032419,1.1699e-06,0,0.00032419,6.0515e-05,1.8294e+07,1.742e+05,0,1.8294e+07,28158,438.26,1
432,6.3,12137,1,12137,1,0.0018059,1.6836e-08,0,0.0018059,-0.00033512,2.907e+08,2422.7,0,2.907e+08,39337,12136,12879,1,12879,1,0.0023076,2.9151e-06,0,0.0023076,-0.00024113,3.2275e+08,4.5753e+05,0,3.2275e+08,1.108e+05,12878,12136,1,12136,1,0.0018038,7.2182e-09,0,0.0018038,-0.00033467,2.8956e+08,854.41,0,2.8956e+08,33872,12135,11395,1,11395,1,0.0013022,-2.9144e-06,0,0.0013022,-0.00042887,2.6348e+08,-4.5766e+05,0,2.6348e+08,1061.7,11394,11748,1,11748,1,0.0015199,-9.1626e-07,0,0.0015199,-0.00038768,2.7681e+08,-1.2741e+05,0,2.7681e+08,9812.6,11747,12524,1,12524,1,0.0020875,9.6596e-07,0,0.0020875,-0.00028172,3.0392e+08,1.336e+05,0,3.0392e+08,68075,12523,438.26,0,438.26,0,0.00032578,1.3458e-06,0,0.00032578,6.0822e-05,1.7779e+07,1.9865e+05,0,1.7779e+07,31870,438.26,1
432,6.31,12137,1,12137,1,0.0018189,2.1044e-08,0,0.0018189,-0.00033749,2.8985e+08,3014.3,0,2.8985e+08,44762,12136,12879,1,12879,1,0.002324,3.3469e-06,0,0.002324,-0.00024282,3.2126e+08,5.2096e+05,0,3.2126e+08,1.2309e+05,12878,12136,1,12136,1,0.0018164,7.6119e-09,0,0.0018164,-0.00033698,2.8868e+08,890.58,0,2.8868e+08,38467,12135,11395,1,11395,1,0.0013116,-3.3383e-06,0,0.0013116,-0.00043188,2.6351e+08,-5.1958e+05,0,2.6351e+08,1274.9,11394,11748,1,11748,1,0.0015311,-1.0643e-06,0,0.0015311,-0.00039027,2.7643e+08,-1.4615e+05,0,2.7643e+08,11186,11747,12524,1,12524,1,0.0021016,1.1227e-06,0,0.0021016,-0.00028375,3.0259e+08,1.5394e+05,0,3.0259e+08,77160,12523,438.26,0,438.26,0,0.00032749,1.5529e-06,0,0.00032749,6.1152e-05,1.7238e+07,2.2714e+05,0,1.7238e+07,36189,438.26,1
432,6.32,12137,1,12137,1,0.0018327,2.6969e-08,0,0.0018327,-0.00034001,2.8893e+08,3838.7,0,2.8893e+08,51217,12136,12879,1,12879,1,0.0023415,3.8721e-06,0,0.0023415,-0.00024458,3.1968e+08,5.9781e+05,0,3.1968e+08,1.3701e+05,12878,12136,1,12136,1,0.0018299,8.1782e-09,0,0.0018299,-0.00033943,2.8773e+08,944.52,0,2.8773e+08,43906,12135,11395,1,11395,1,0.0013215,-3.8517e-06,0,0.0013215,-0.0004351,2.6352e+08,-5.9432e+05,0,2.6352e+08,1560.6,11394,11748,1,11748,1,0.001543,-1.2461e-06,0,0.001543,-0.00039302,2.7602e+08,-1.6868e+05,0,2.7602e+08,12845,11747,12524,1,12524,1,0.0021166,1.3171e-06,0,0.0021166,-0.0002859,3.0117e+08,1.7871e+05,0,3.0117e+08,87848,12523,438.26,0,438.26,0,0.0003293,1.8062e-06,0,0.0003293,6.1504e-05,1.6664e+07,2.6165e+05,0,1.6664e+07,41273,438.26,1
432,6.33,12137,1,12137,1,0.0018475,2.2885e-08,0,0.0018475,-0.0003427,2.8794e+08,3204.6,0,2.8794e+08,58696,12136,12879,1,12879,1,0.0023603,4.4747e-06,0,0.0023603,-0.00024643,3.1799e+08,6.844e+05,0,3.1799e+08,1.5249e+05,12878,12136,1,12136,1,0.0018442,9.4016e-09,0,0.0018442,-0.00034204,2.867e+08,1069.5,0,2.867e+08,50136,12135,11395,1,11395,1,0.0013318,-4.4663e-06,0,0.0013319,-0.00043857,2.6351e+08,-6.8322e+05,0,2.6351e+08,1965.5,11394,11748,1,11748,1,0.0015557,-1.4776e-06,0,0.0015557,-0.00039594,2.7556e+08,-1.9627e+05,0,2.7556e+08,14771,11747,12524,1,12524,1,0.0021326,1.5391e-06,0,0.0021326,-0.00028819,2.9964e+08,2.0621e+05,0,2.9964e+08,1.0016e+05,12523,438.26,0,438.26,0,0.00033124,2.1049e-06,0,0.00033124,6.1883e-05,1.6058e+07,3.0182e+05,0,1.6058e+07,47183,438.26,1
432,6.34,12137,1,12137,1,0.0018634,2.9397e-08,0,0.0018634,-0.00034559,2.8687e+08,4085.6,0,2.8687e+08,67461,12136,12879,1,12879,1,0.0023808,5.2005e-06,0,0.0023808,-0.00024839,3.1623e+08,7.8801e+05,0,3.1623e+08,1.701e+05,12878,12136,1,12136,1,0.0018596,1.172e-08,0,0.0018596,-0.00034483,2.856e+08,1312.6,0,2.856e+08,57479,12135,11395,1,11395,1,0.0013428,-5.185e-06,0,0.0013428,-0.00044234,2.6349e+08,-7.854e+05,0,2.6349e+08,2190.3,11394,11748,1,11748,1,0.0015693,-1.7428e-06,0,0.0015693,-0.00039908,2.7506e+08,-2.2865e+05,0,2.7506e+08,17012,11747,12524,1,12524,1,0.0021496,1.8225e-06,0,0.0021496,-0.00029063,2.9802e+08,2.396e+05,0,2.9802e+08,1.1464e+05,12523,438.26,0,438.26,0,0.00033333,2.4637e-06,0,0.00033333,6.2294e-05,1.5416e+07,3.4942e+05,0,1.5416e+07,54168,438.26,1
432,6.35,12137,1,12137,1,0.0018806,3.5109e-08,0,0.0018806,-0.00034871,2.8572e+08,4827.1,0,2.8572e+08,77771,12136,12879,1,12879,1,0.0024031,6.0711e-06,0,0.0024031,-0.00025045,3.1436e+08,9.1045e+05,0,3.1436e+08,1.8992e+05,12878,12136,1,12136,1,0.0018761,1.3476e-08,0,0.0018761,-0.00034783,2.8441e+08,1484.6,0,2.8441e+08,66111,12135,11395,1,11395,1,0.0013544,-6.0487e-06,0,0.0013544,-0.00044644,2.6345e+08,-9.0679e+05,0,2.6345e+08,2523.7,11394,11748,1,11748,1,0.0015839,-2.0719e-06,0,0.0015839,-0.00040245,2.7452e+08,-2.6849e+05,0,2.7452e+08,19640,11747,12524,1,12524,1,0.002168,2.1683e-06,0,0.002168,-0.00029325,2.9628e+08,2.7929e+05,0,2.9628e+08,1.3163e+05,12523,438.26,0,438.26,0,0.00033561,2.8986e-06,0,0.00033561,6.2743e-05,1.4733e+07,4.0631e+05,0,1.4733e+07,62477,438.26,1
432,6.36,12137,1,12137,1,0.0018992,4.6712e-08,0,0.0018992,-0.00035209,2.8447e+08,6381.5,0,2.8447e+08,90266,12136,12879,1,12879,1,0.0024275,7.1271e-06,0,0.0024275,-0.00025264,3.1237e+08,1.0578e+06,0,3.1237e+08,2.1869e+05,12878,12136,1,12136,1,0.0018939,1.4537e-08,0,0.0018939,-0.00035107,2.8312e+08,1574,0,2.8312e+08,75397,12135,11395,1,11395,1,0.0013667,-7.0937e-06,0,0.0013667,-0.00045093,2.634e+08,-1.0519e+06,0,2.634e+08,2845.3,11394,11748,1,11748,1,0.0015997,-2.4715e-06,0,0.0015997,-0.00040609,2.7391e+08,-3.1606e+05,0,2.7391e+08,22687,11747,12524,1,12524,1,0.0021879,2.6029e-06,0,0.0021879,-0.00029607,2.9439e+08,3.2729e+05,0,2.9439e+08,1.4968e+05,12523,438.26,0,438.26,0,0.00033808,3.4321e-06,0,0.00033808,6.3234e-05,1.4003e+07,4.7511e+05,0,1.4003e+07,72455,438.26,1
432,6.37,12137,1,12137,1,0.0019196,4.3988e-08,0,0.0019196,-0.00035577,2.831e+08,5921.6,0,2.831e+08,1.0494e+05,12136,12879,1,12879,1,0.0024546,8.3843e-06,0,0.0024546,-0.00025495,3.1024e+08,1.2302e+06,0,3.1024e+08,2.5846e+05,12878,12136,1,12136,1,0.0019133,1.6589e-08,0,0.0019133,-0.00035457,2.817e+08,1759.9,0,2.817e+08,85948,12135,11395,1,11395,1,0.0013798,-8.3673e-06,0,0.0013798,-0.00045591,2.6331e+08,-1.2269e+06,0,2.6331e+08,3444.3,11394,11748,1,11748,1,0.0016168,-2.9845e-06,0,0.0016168,-0.00041003,2.7323e+08,-3.751e+05,0,2.7323e+08,25614,11747,12524,1,12524,1,0.0022095,3.1227e-06,0,0.0022095,-0.00029913,2.9235e+08,3.8422e+05,0,2.9235e+08,1.7109e+05,12523,438.26,0,438.26,0,0.00034081,4.0835e-06,0,0.0003408,6.3778e-05,1.3223e+07,5.5769e+05,0,1.3223e+07,84344,438.26,1
432,6.38,12137,1,12137,1,0.0019419,5.2346e-08,0,0.0019419,-0.00035981,2.816e+08,6948,0,2.816e+08,1.2266e+05,12136,12879,1,12879,1,0.0024847,9.9281e-06,0,0.0024847,-0.0002574,3.0797e+08,1.4387e+06,0,3.0797e+08,3.0932e+05,12878,12136,1,12136,1,0.0019344,1.983e-08,0,0.0019344,-0.00035839,2.8016e+08,2057.8,0,2.8016e+08,98630,12135,11395,1,11395,1,0.0013936,-9.906e-06,0,0.0013937,-0.00046145,2.6319e+08,-1.4346e+06,0,2.6319e+08,3756.5,11394,11748,1,11748,1,0.0016354,-3.628e-06,0,0.0016355,-0.00041434,2.7248e+08,-4.4486e+05,0,2.7248e+08,29074,11747,12524,1,12524,1,0.002233,3.7829e-06,0,0.002233,-0.00030245,2.9012e+08,4.5448e+05,0,2.9012e+08,1.9708e+05,12523,438.26,0,438.26,0,0.00034383,4.889e-06,0,0.00034383,6.4386e-05,1.2386e+07,6.5795e+05,0,1.2386e+07,98849,438.26,1
432,6.39,12137,1,12137,1,0.0019666,6.8965e-08,0,0.0019666,-0.00036427,2.7993e+08,9059.3,0,2.7993e+08,1.4411e+05,12136,12879,1,12879,1,0.0025185,1.1836e-05,0,0.0025185,-0.00026,3.0555e+08,1.6938e+06,0,3.0555e+08,3.7311e+05,12878,12136,1,12136,1,0.0019576,2.1813e-08,0,0.0019576,-0.00036258,2.7845e+08,2210.4,0,2.7845e+08,1.1335e+05,12135,11395,1,11395,1,0.0014084,-1.1796e-05,0,0.0014084,-0.00046768,2.6303e+08,-1.6861e+06,0,2.6304e+08,4026.8,11394,11748,1,11748,1,0.0016559,-4.4463e-06,0,0.0016559,-0.00041906,2.7162e+08,-5.306e+05,0,2.7163e+08,33156,11747,12524,1,12524,1,0.0022588,4.6135e-06,0,0.0022588,-0.00030608,2.8768e+08,5.4157e+05,0,2.8768e+08,2.2788e+05,12523,438.26,0,438.26,0,0.00034721,5.9012e-06,0,0.0003472,6.507e-05,1.1487e+07,7.8161e+05,0,1.1486e+07,1.1653e+05,438.26,1
432,6.4,12137,1,12137,1,0.0019941,6.9899e-08,0,0.0019941,-0.00036921,2.7808e+08,9039.5,0,2.7808e+08,1.6988e+05,12136,12879,1,12879,1,0.0025569,1.4157e-05,0,0.0025569,-0.00026276,3.0293e+08,1.9984e+06,0,3.0293e+08,4.5354e+05,12878,12136,1,12136,1,0.0019831,2.7168e-08,0,0.0019831,-0.00036719,2.7621e+08,2676.3,0,2.7621e+08,1.3059e+05,12135,11395,1,11395,1,0.001424,-1.4139e-05,0,0.0014241,-0.00047474,2.6282e+08,-1.9937e+06,0,2.6283e+08,4754.4,11394,11748,1,11748,1,0.0016785,-5.522e-06,0,0.0016785,-0.00042427,2.7065e+08,-6.3454e+05,0,2.7066e+08,37913,11747,12524,1,12524,1,0.0022873,5.6573e-06,0,0.0022873,-0.00031007,2.8499e+08,6.4831e+05,0,2.8499e+08,2.7547e+05,12523,438.26,0,438.26,0,0.00035104,7.1723e-06,0,0.00035104,6.585e-05,1.0523e+07,9.3353e+05,0,1.0522e+07,1.3828e+05,438.26,1
432,6.41,12137,1,12137,1,0.0020249,8.8647e-08,0,0.0020249,-0.00037475,2.7601e+08,11310,0,2.7601e+08,2.0125e+05,12136,12879,1,12879,1,0.0026011,1.7044e-05,0,0.0026011,-0.0002657,3.0014e+08,2.371e+06,0,3.0014e+08,5.5591e+05,12878,12136,1,12136,1,0.0020116,3.1267e-08,0,0.0020116,-0.0003723,2.7382e+08,2987.2,0,2.7383e+08,1.5372e+05,12135,11395,1,11395,1,0.0014406,-1.7015e-05,0,0.0014406,-0.00048286,2.6255e+08,-2.3635e+06,0,2.6256e+08,5056.5,11394,11748,1,11748,1,0.0017035,-6.8414e-06,0,0.0017036,-0.00043006,2.6955e+08,-7.6309e+05,0,2.6955e+08,42977,11747,12524,1,12524,1,0.002319,6.9848e-06,0,0.002319,-0.00031448,2.8185e+08,7.8889e+05,0,2.8185e+08,3.3338e+05,12523,438.26,0,438.26,0,0.00035546,8.7841e-06,0,0.00035544,6.6752e-05,9.4931e+06,1.1215e+06,0,9.4919e+06,1.6534e+05,438.26,1
432,6.42,12137,1,12137,1,0.0020598,1.1289e-07,0,0.0020598,-0.00038102,2.7367e+08,14149,0,2.7367e+08,2.3921e+05,12136,12879,1,12879,1,0.0026525,2.0611e-05,0,0.0026525,-0.00026883,2.9712e+08,2.8227e+06,0,2.9712e+08,6.8818e+05,12878,12136,1,12136,1,0.0020435,3.9457e-08,0,0.0020436,-0.00037804,2.7131e+08,3636.5,0,2.7132e+08,1.8858e+05,12135,11395,1,11395,1,0.0014582,-2.058e-05,0,0.0014583,-0.00049232,2.622e+08,-2.8133e+06,0,2.6221e+08,5227.2,11394,11748,1,11748,1,0.0017317,-8.5535e-06,0,0.0017318,-0.00043657,2.6826e+08,-9.2657e+05,0,2.6827e+08,48753,11747,12524,1,12524,1,0.0023547,8.705e-06,0,0.0023547,-0.00031942,2.7786e+08,9.6721e+05,0,2.7786e+08,3.9505e+05,12523,438.26,0,438.26,0,0.00036063,1.0848e-05,0,0.00036061,6.7812e-05,8.4068e+06,1.3556e+06,0,8.4051e+06,1.9948e+05,438.26,1
432,6.43,12137,1,12137,1,0.0020998,1.1646e-07,0,0.0020998,-0.00038818,2.71e+08,14355,0,2.7101e+08,2.8561e+05,12136,12879,1,12879,1,0.0027133,2.5048e-05,0,0.0027133,-0.00027216,2.9383e+08,3.3734e+06,0,2.9383e+08,8.5935e+05,12878,12136,1,12136,1,0.0020797,4.7566e-08,0,0.0020798,-0.00038452,2.6859e+08,4203.9,0,2.686e+08,2.2993e+05,12135,11395,1,11395,1,0.0014767,-2.5074e-05,0,0.0014768,-0.00050352,2.6173e+08,-3.371e+06,0,2.6175e+08,5469.9,11394,11748,1,11748,1,0.0017636,-1.0826e-05,0,0.0017637,-0.00044394,2.6662e+08,-1.1517e+06,0,2.6662e+08,54959,11747,12524,1,12524,1,0.0023951,1.0981e-05,0,0.0023951,-0.00032499,2.7365e+08,1.1865e+06,0,2.7365e+08,4.6676e+05,12523,438.26,0,438.26,0,0.00036684,1.3534e-05,0,0.00036681,6.9087e-05,7.2963e+06,1.6511e+06,0,7.2941e+06,2.433e+05,438.26,1
432,6.44,12137,1,12137,1,0.0021462,1.4029e-07,0,0.0021462,-0.00039647,2.6791e+08,16954,0,2.6792e+08,3.4201e+05,12136,12879,1,12879,1,0.0027867,3.0589e-05,0,0.0027867,-0.00027571,2.9025e+08,4.0472e+06,0,2.9025e+08,1.0843e+06,12878,12136,1,12136,1,0.0021267,6.1328e-08,0,0.0021267,-0.00039222,2.6558e+08,5159.1,0,2.6558e+08,2.7313e+05,12135,11395,1,11395,1,0.001496,-3.065e-05,0,0.0014963,-0.00051703,2.6111e+08,-4.0471e+06,0,2.6114e+08,5348.1,11394,11748,1,11748,1,0.0018002,-1.3845e-05,0,0.0018004,-0.00045472,2.641e+08,-1.4314e+06,0,2.641e+08,66891,11747,12524,1,12524,1,0.0024558,1.4027e-05,0,0.0024558,-0.00033135,2.6963e+08,1.4513e+06,0,2.6964e+08,5.4391e+05,12523,438.26,0,438.26,0,0.00037454,1.7049e-05,0,0.00037449,7.0657e-05,6.2524e+06,2.024e+06,0,6.2498e+06,3.0038e+05,438.26,1
432,6.45,12137,1,12137,1,0.0022009,1.783e-07,0,0.002201,-0.00040623,2.6431e+08,21119,0,2.6432e+08,4.1097e+05,12136,12879,1,12879,1,0.0028775,3.7548e-05,0,0.0028775,-0.0002795,2.8636e+08,4.8777e+06,0,2.8636e+08,1.3811e+06,12878,12136,1,12136,1,0.0021931,7.8685e-08,0,0.0021932,-0.00040413,2.6263e+08,6239.3,0,2.6264e+08,3.0673e+05,12135,11395,1,11395,1,0.0015162,-3.7647e-05,0,0.0015165,-0.00053374,2.5737e+08,-4.8772e+06,0,2.5737e+08,4307.3,11394,11748,1,11748,1,0.0018554,-1.7822e-05,0,0.0018556,-0.00046798,2.61e+08,-1.7645e+06,0,2.6102e+08,83936,11747,12524,1,12524,1,0.0025281,1.8184e-05,0,0.0025281,-0.00033973,2.6604e+08,1.837e+06,0,2.6606e+08,6.3076e+05,12523,438.26,0,438.26,0,0.0003845,2.1744e-05,0,0.00038443,7.2669e-05,5.5073e+06,2.5016e+06,0,5.5057e+06,3.7704e+05,438.26,1
432,6.46,12137,1,12137,1,0.0022666,1.9783e-07,0,0.0022668,-0.00041786,2.6e+08,23030,0,2.6002e+08,4.9583e+05,12136,12879,1,12879,1,0.0029928,4.6442e-05,0,0.0029928,-0.00028351,2.8201e+08,5.904e+06,0,2.8201e+08,1.7875e+06,12878,12136,1,12136,1,0.0022689,1.0298e-07,0,0.0022692,-0.00041797,2.6011e+08,7590.6,0,2.6013e+08,3.2114e+05,12135,11395,1,11395,1,0.0015365,-4.6615e-05,0,0.0015371,-0.00055498,2.5028e+08,-5.9147e+06,0,2.5028e+08,2111.1,11394,11748,1,11748,1,0.0019244,-2.329e-05,0,0.0019245,-0.00048309,2.5666e+08,-2.2609e+06,0,2.5668e+08,98787,11747,12524,1,12524,1,0.0026113,2.3956e-05,0,0.0026114,-0.00035171,2.6202e+08,2.3527e+06,0,2.6206e+08,7.648e+05,12523,438.26,0,438.26,0,0.00039807,2.8149e-05,0,0.00039794,7.5408e-05,5.4966e+06,3.1219e+06,0,5.4993e+06,4.8245e+05,438.26,1
432,6.47,12137,1,12137,1,0.0023471,2.504e-07,0,0.0023474,-0.00043194,2.5475e+08,28451,0,2.5478e+08,5.9848e+05,12136,12879,1,12879,1,0.0031443,5.8867e-05,0,0.0031443,-0.00028783,2.7714e+08,7.1699e+06,0,2.7715e+08,2.36e+06,12878,12136,1,12136,1,0.0023518,1.4768e-07,0,0.0023522,-0.0004335,2.5618e+08,9926.3,0,2.5624e+08,3.4893e+05,12135,11395,1,11395,1,0.0015568,-5.9023e-05,0,0.0015576,-0.00058289,2.4154e+08,-7.1915e+06,0,2.4154e+08,-42281,11394,11748,1,11748,1,0.0020054,-3.2295e-05,0,0.0020059,-0.00049847,2.4966e+08,-2.9592e+06,0,2.4967e+08,87689,11747,12524,1,12524,1,0.0026906,3.3216e-05,0,0.0026908,-0.00036464,2.5905e+08,3.0784e+06,0,2.5908e+08,9.6808e+05,12523,438.26,0,438.26,0,0.00041775,3.7075e-05,0,0.00041752,7.9412e-05,6.6519e+06,3.9341e+06,0,6.6635e+06,6.3271e+05,438.26,1
432,6.48,12137,1,12137,1,0.0024487,3.1417e-07,0,0.0024493,-0.00044937,2.4824e+08,35465,0,2.4829e+08,7.2566e+05,12136,12879,1,12879,1,0.0033523,7.7214e-05,0,0.0033523,-0.0002922,2.7164e+08,8.8808e+06,0,2.7164e+08,3.1747e+06,12878,12136,1,12136,1,0.0024309,2.1377e-07,0,0.0024318,-0.00044746,2.5003e+08,12743,0,2.5009e+08,3.9664e+05,12135,11395,1,11395,1,0.0015752,-7.7362e-05,0,0.0015765,-0.00062122,2.3021e+08,-8.8852e+06,0,2.3021e+08,-4.09e+05,11394,11748,1,11748,1,0.0020824,-4.6133e-05,0,0.0020835,-0.00051338,2.4077e+08,-3.9493e+06,0,2.4079e+08,51020,11747,12524,1,12524,1,0.002777,4.7376e-05,0,0.002777,-0.00037919,2.5602e+08,4.0597e+06,0,2.5617e+08,1.2168e+06,12523,438.26,0,438.26,0,0.00044867,4.998e-05,0,0.00044828,8.5554e-05,9.0482e+06,5.0224e+06,0,9.0737e+06,8.5239e+05,438.26,1
432,6.49,12137,1,12137,1,0.0025819,4.0763e-07,0,0.002583,-0.00047171,2.3983e+08,44613,0,2.3991e+08,8.778e+05,12136,12879,1,12879,1,0.0036546,0.00010553,0,0.0036546,-0.00029699,2.6514e+08,1.1246e+07,0,2.6515e+08,4.3625e+06,12878,12136,1,12136,1,0.0025593,3.6055e-07,0,0.0025607,-0.00046271,2.4217e+08,18250,0,2.4222e+08,4.0866e+05,12135,11395,1,11395,1,0.0015912,-0.00010576,0,0.0015932,-0.00067697,2.1433e+08,-1.126e+07,0,2.1433e+08,-1.0593e+06,11394,11748,1,11748,1,0.0021687,-6.8302e-05,0,0.0021687,-0.00054424,2.3002e+08,-5.3047e+06,0,2.3002e+08,38548,11747,12524,1,12524,1,0.0029583,6.9544e-05,0,0.0029588,-0.00039332,2.5094e+08,5.434e+06,0,2.5114e+08,1.5109e+06,12523,438.26,0,438.26,0,0.00050145,6.9444e-05,0,0.00050075,9.5518e-05,1.2628e+07,6.5029e+06,0,1.2676e+07,1.1869e+06,438.26,1
432,6.5,12137,1,12137,1,0.0027644,4.9698e-07,0,0.0027665,-0.00050117,2.2849e+08,53310,0,2.2864e+08,1.0627e+06,12136,12879,1,12879,1,0.0041283,0.00015259,0,0.0041283,-0.00030158,2.571e+08,1.4665e+07,0,2.571e+08,6.141e+06,12878,12136,1,12136,1,0.0026925,6.1989e-07,0,0.0026925,-0.00048897,2.3178e+08,24832,0,2.3194e+08,3.8393e+05,12135,11395,1,11395,1,0.001601,-0.00015289,0,0.0016042,-0.00076438,1.9316e+08,-1.4695e+07,0,1.9316e+08,-2.0497e+06,11394,11748,1,11748,1,0.0023232,-0.00010197,0,0.0023262,-0.00057868,2.1525e+08,-7.1577e+06,0,2.1538e+08,-17302,11747,12524,1,12524,1,0.0031839,0.00010303,0,0.0031845,-0.00040851,2.4379e+08,7.3167e+06,0,2.44e+08,1.8565e+06,12523,438.26,0,438.26,0,0.00059967,0.00010077,0,0.0005984,0.0001129,1.7519e+07,8.5699e+06,0,1.7607e+07,1.7048e+06,438.26,1
432,6.51,12137,1,12137,1,0.0030323,8.5827e-07,0,0.003037,-0.00054156,2.1278e+08,84810,0,2.1308e+08,1.2953e+06,12136,12879,1,12879,1,0.0049579,0.00024262,0,0.0049579,-0.00030395,2.4748e+08,1.9917e+07,0,2.4749e+08,8.8655e+06,12878,12136,1,12136,1,0.0029116,1.3589e-06,0,0.0029117,-0.00050635,2.1723e+08,38064,0,2.1766e+08,4.3092e+05,12135,11395,1,11395,1,0.0015972,-0.00024244,0,0.0016024,-0.00091773,1.6402e+08,-1.9881e+07,0,1.6402e+08,-3.7452e+06,11394,11748,1,11748,1,0.0024243,-0.00015123,0,0.0024301,-0.00063648,1.9469e+08,-9.7048e+06,0,1.9469e+08,-1.0235e+05,11747,12524,1,12524,1,0.0035602,0.0001522,0,0.0035626,-0.00043032,2.3348e+08,9.9063e+06,0,2.3406e+08,2.3841e+06,12523,438.26,0,438.26,0,0.00079934,0.00015647,0,0.00079708,0.00014608,2.4042e+07,1.1571e+07,0,2.4207e+07,2.525e+06,438.26,1
432,6.52,12137,1,12137,1,0.0034597,8.3403e-07,0,0.0034714,-0.00059733,1.8939e+08,85143,0,1.9e+08,1.56e+06,12136,12879,1,12879,1,0.0066567,0.00044189,0,0.0066567,-0.0003014,2.3283e+08,2.8038e+07,0,2.3377e+08,1.2881e+07,12878,12136,1,12136,1,0.0031934,3.3197e-06,0,0.0032142,-0.00053172,1.9619e+08,51443,0,1.9686e+08,4.4213e+05,12135,11395,1,11395,1,0.0015739,-0.00044218,0,0.0015824,-0.0012316,1.2153e+08,-2.806e+07,0,1.2153e+08,-5.7548e+06,11394,11748,1,11748,1,0.0024565,-0.00024459,0,0.0024725,-0.00070765,1.6371e+08,-1.3474e+07,0,1.6401e+08,-3.5486e+05,11747,12524,1,12524,1,0.004259,0.00024479,0,0.0042788,-0.00043975,2.1794e+08,1.364e+07,0,2.1907e+08,3.3084e+06,12523,438.26,0,438.26,0,0.0012411,0.00026906,0,0.0012374,0.00021537,3.2542e+07,1.5904e+07,0,3.2866e+07,3.8041e+06,438.26,1
432,6.53,12137,1,12137,1,0.0042128,1.0565e-06,0,0.0042499,-0.00066039,1.5376e+08,1.0608e+05,0,1.5511e+08,1.8782e+06,12136,12879,1,12879,1,0.011067,0.00099936,0,0.011067,-0.000289,2.1598e+08,4.075e+07,0,2.176e+08,1.7435e+07,12878,12136,1,12136,1,0.0033352,4.155e-06,0,0.0033988,-0.00052262,1.6145e+08,37821,0,1.6311e+08,3.0791e+05,12135,11395,1,11395,1,0.001502,-0.00099809,0,0.0015167,-0.0020083,6.7528e+07,-4.0802e+07,0,6.7528e+07,-8.5716e+06,11394,11748,1,11748,1,0.0023492,-0.00044555,0,0.002362,-0.0007727,1.1907e+08,-1.7945e+07,0,1.2015e+08,-1.1028e+06,11747,12524,1,12524,1,0.005663,0.00043694,0,0.0056953,-0.00040688,1.9103e+08,1.7682e+07,0,1.924e+08,4.2393e+06,12523,438.26,0,438.26,0,0.0023498,0.00054457,0,0.0023459,0.00037381,4.2308e+07,2.1812e+07,0,4.2968e+07,5.5307e+06,438.26,1
432,6.5301,12137,1,12137,1,0.0056439,1.5958e-06,0,0.0057875,-0.00060741,1.0299e+08,1.2906e+05,0,1.0586e+08,2.2089e+06,12136,12879,1,12879,1,0.026981,0.0031275,0,0.026982,-0.00018509,1.8566e+08,5.5563e+07,0,1.8846e+08,1.9364e+07,12878,12136,1,12136,1,0.0028082,-8.1031e-07,0,0.0029912,-0.00033231,1.0753e+08,49279,0,1.1011e+08,3.0014e+05,12135,11395,1,11395,1,0.0013321,-0.0031339,0,0.0013573,-0.0048046,1.8541e+07,-5.5466e+07,0,1.8541e+07,-1.1418e+07,11394,11748,1,11748,1,0.0019704,-0.00076787,0,0.0020165,-0.0005125,6.1366e+07,-2.0081e+07,0,6.229e+07,-1.2359e+06,11747,12524,1,12524,1,0.0075336,0.00077835,0,0.0079292,-0.0002602,1.4652e+08,2.0755e+07,0,1.5015e+08,5.4118e+06,12523,438.26,0,438.26,0,0.0056522,0.0013496,0,0.0056677,0.00076108,4.8313e+07,2.6921e+07,0,4.9582e+07,6.7856e+06,438.26,1
