"N","Time","avg(GlobalElementId)","avg(ObjectId)","avg(PedigreeElementId)","avg(alpha)","avg(strain_x (0))","avg(strain_x (1))","avg(strain_x (2))","avg(strain_x (Magnitude))","avg(strain_yy)","avg(stress_x (0))","avg(stress_x (1))","avg(stress_x (2))","avg(stress_x (Magnitude))","avg(stress_yy)","avg(vtkOriginalCellIds)","max(GlobalElementId)","max(ObjectId)","max(PedigreeElementId)","max(alpha)","max(strain_x (0))","max(strain_x (1))","max(strain_x (2))","max(strain_x (Magnitude))","max(strain_yy)","max(stress_x (0))","max(stress_x (1))","max(stress_x (2))","max(stress_x (Magnitude))","max(stress_yy)","max(vtkOriginalCellIds)","med(GlobalElementId)","med(ObjectId)","med(PedigreeElementId)","med(alpha)","med(strain_x (0))","med(strain_x (1))","med(strain_x (2))","med(strain_x (Magnitude))","med(strain_yy)","med(stress_x (0))","med(stress_x (1))","med(stress_x (2))","med(stress_x (Magnitude))","med(stress_yy)","med(vtkOriginalCellIds)","min(GlobalElementId)","min(ObjectId)","min(PedigreeElementId)","min(alpha)","min(strain_x (0))","min(strain_x (1))","min(strain_x (2))","min(strain_x (Magnitude))","min(strain_yy)","min(stress_x (0))","min(stress_x (1))","min(stress_x (2))","min(stress_x (Magnitude))","min(stress_yy)","min(vtkOriginalCellIds)","q1(GlobalElementId)","q1(ObjectId)","q1(PedigreeElementId)","q1(alpha)","q1(strain_x (0))","q1(strain_x (1))","q1(strain_x (2))","q1(strain_x (Magnitude))","q1(strain_yy)","q1(stress_x (0))","q1(stress_x (1))","q1(stress_x (2))","q1(stress_x (Magnitude))","q1(stress_yy)","q1(vtkOriginalCellIds)","q3(GlobalElementId)","q3(ObjectId)","q3(PedigreeElementId)","q3(alpha)","q3(strain_x (0))","q3(strain_x (1))","q3(strain_x (2))","q3(strain_x (Magnitude))","q3(strain_yy)","q3(stress_x (0))","q3(stress_x (1))","q3(stress_x (2))","q3(stress_x (Magnitude))","q3(stress_yy)","q3(vtkOriginalCellIds)","std(GlobalElementId)","std(ObjectId)","std(PedigreeElementId)","std(alpha)","std(strain_x (0))","std(strain_x (1))","std(strain_x (2))","std(strain_x (Magnitude))","std(strain_yy)","std(stress_x (0))","std(stress_x (1))","std(stress_x (2))","std(stress_x (Magnitude))","std(stress_yy)","std(vtkOriginalCellIds)","vtkValidPointMask"
2468,0,12178,1,12178,1,0,0,0,0,0,0,0,0,0,0,12177,13439,1,13439,1,0,0,0,0,0,0,0,0,0,0,13438,12178,1,12178,1,0,0,0,0,0,0,0,0,0,0,12177,10873,1,10873,1,0,0,0,0,0,0,0,0,0,0,10872,11561,1,11561,1,0,0,0,0,0,0,0,0,0,0,11560,12795,1,12795,1,0,0,0,0,0,0,0,0,0,0,12794,714.3,0,714.3,0,0,0,0,0,0,0,0,0,0,0,714.3,1
2468,0.01,12178,1,12178,1,1.6062e-08,2.0945e-10,0,1.3943e-06,-3.095e-09,-17449,83.794,0,5.4316e+05,-174,12177,13439,1,13439,1,2.8574e-06,6.1508e-08,0,2.8575e-06,5.0588e-07,1.0591e+06,19203,0,1.0969e+06,6876.8,13438,12178,1,12178,1,-4.0224e-08,2.9196e-10,0,1.4575e-06,4.0898e-09,-16620,94.729,0,5.4467e+05,-33.901,12177,10873,1,10873,1,-2.6969e-06,-4.821e-08,0,4.0153e-08,-5.4844e-07,-1.0969e+06,-15047,0,16618,-7537.6,10872,11561,1,11561,1,-1.4635e-06,-3.3705e-09,0,6.863e-07,-2.6565e-07,-5.9537e+05,-1097.7,0,2.7442e+05,-909.68,11560,12795,1,12795,1,1.3801e-06,3.7823e-09,0,2.0679e-06,2.7333e-07,5.1649e+05,1267.9,0,8.337e+05,518.23,12794,714.3,0,714.3,0,1.6096e-06,6.5605e-09,0,8.0396e-07,3.0186e-07,6.2653e+05,2106.5,0,3.1258e+05,2258.8,714.3,1
2468,0.02,12178,1,12178,1,1.1527e-07,-7.0014e-10,0,2.8406e-06,-2.2978e-08,-3385.1,-228.51,0,1.1052e+06,-832.11,12177,13439,1,13439,1,5.6105e-06,1.2732e-08,0,5.6105e-06,1.0062e-06,2.0792e+06,4073.1,0,2.1818e+06,48.787,13438,12178,1,12178,1,-7.9874e-08,-4.5192e-10,0,2.9108e-06,1.409e-08,-33034,-147.68,0,1.1776e+06,-568.39,12177,10873,1,10873,1,-5.3643e-06,-9.9384e-09,0,7.9878e-08,-1.0512e-06,-2.1818e+06,-3195.4,0,33025,-3867,10872,11561,1,11561,1,-2.9109e-06,-1.8153e-09,0,1.536e-06,-5.2324e-07,-1.184e+06,-608.42,0,5.799e+05,-1250,11560,12795,1,12795,1,2.7649e-06,3.7744e-10,0,4.369e-06,5.4481e-07,1.0344e+06,124.08,0,1.6774e+06,-141.84,12794,714.3,0,714.3,0,3.2782e-06,2.9567e-09,0,1.6394e-06,6.1496e-07,1.2748e+06,956.68,0,6.3495e+05,856.22,714.3,1
2468,0.03,12178,1,12178,1,1.7287e-07,-4.1975e-12,0,4.2491e-06,-3.1952e-08,-4703.3,-1.343,0,1.6533e+06,-226.12,12177,13439,1,13439,1,8.3876e-06,9.6502e-09,0,8.3876e-06,1.504e-06,3.1083e+06,3125.8,0,3.2613e+06,225.83,13438,12178,1,12178,1,-1.1832e-07,-4.5379e-12,0,4.3585e-06,2.0842e-08,-48860,-1.4591,0,1.7647e+06,-74.848,12177,10873,1,10873,1,-8.0183e-06,-6.7061e-09,0,1.1832e-07,-1.5714e-06,-3.2613e+06,-2172.3,0,48859,-2334.3,10872,11561,1,11561,1,-4.3585e-06,-1.5449e-09,0,2.3046e-06,-7.7564e-07,-1.7727e+06,-516.85,0,8.7105e+05,-225.98,11560,12795,1,12795,1,4.1342e-06,1.2242e-09,0,6.5445e-06,8.1785e-07,1.547e+06,405.48,0,2.5117e+06,2.7176,12794,714.3,0,714.3,0,4.9038e-06,2.3824e-09,0,2.4525e-06,9.1917e-07,1.907e+06,780.54,0,9.4982e+05,412.43,714.3,1
2468,0.04,12178,1,12178,1,2.3138e-07,9.0437e-10,0,5.6791e-06,-4.3078e-08,-6180.5,296.86,0,2.2097e+06,-433.5,12177,13439,1,13439,1,1.1217e-05,1.4163e-08,0,1.1217e-05,2.0112e-06,4.157e+06,4587.1,0,4.3613e+06,167.96,13438,12178,1,12178,1,-1.5817e-07,2.5869e-10,0,5.8258e-06,2.7938e-08,-65337,82.97,0,2.3591e+06,-128.82,12177,10873,1,10873,1,-1.0723e-05,-9.9186e-09,0,1.5811e-07,-2.1014e-06,-4.3613e+06,-3212.8,0,65325,-3196.1,10872,11561,1,11561,1,-5.8258e-06,-7.8919e-10,0,3.0809e-06,-1.0375e-06,-2.3695e+06,-262.58,0,1.1645e+06,-561.49,11560,12795,1,12795,1,5.5284e-06,2.4821e-09,0,8.7489e-06,1.093e-06,2.0687e+06,816.04,0,3.3573e+06,-23.314,12794,714.3,0,714.3,0,6.5541e-06,2.8825e-09,0,3.2779e-06,1.2286e-06,2.5488e+06,938.68,0,1.2695e+06,679.51,714.3,1
2468,0.05,12178,1,12178,1,2.8832e-07,-8.2387e-10,0,7.0821e-06,-5.2681e-08,-7717.9,-271.16,0,2.7556e+06,-133.87,12177,13439,1,13439,1,1.3991e-05,1.363e-08,0,1.3991e-05,2.5085e-06,5.185e+06,4414.4,0,5.4396e+06,361.14,13438,12178,1,12178,1,-1.9715e-07,-6.2906e-10,0,7.262e-06,3.5304e-08,-81435,-208.49,0,2.9403e+06,-54.568,12177,10873,1,10873,1,-1.3374e-05,-1.1182e-08,0,1.9719e-07,-2.6212e-06,-5.4396e+06,-3621.5,0,81446,-2456.9,10872,11561,1,11561,1,-7.262e-06,-4.7396e-09,0,3.8402e-06,-1.2912e-06,-2.9536e+06,-1573.7,0,1.4514e+06,-156.01,11560,12795,1,12795,1,6.8962e-06,1.8757e-09,0,1.0904e-05,1.3632e-06,2.5808e+06,632.16,0,4.1848e+06,63.874,12794,714.3,0,714.3,0,8.1732e-06,4.8762e-09,0,4.0876e-06,1.532e-06,3.1785e+06,1603.4,0,1.5831e+06,393.39,714.3,1
2468,0.06,12178,1,12178,1,3.4718e-07,9.9174e-10,0,8.5367e-06,-6.3438e-08,-9443,326.54,0,3.3216e+06,-164.13,12177,13439,1,13439,1,1.6831e-05,5.8075e-09,0,1.6831e-05,3.0175e-06,6.2372e+06,1880.8,0,6.5438e+06,70.567,13438,12178,1,12178,1,-2.3813e-07,8.5064e-10,0,8.7617e-06,4.2312e-08,-98368,281.69,0,3.5472e+06,-33.502,12177,10873,1,10873,1,-1.6088e-05,-2.9209e-09,0,2.3797e-07,-3.1529e-06,-6.5438e+06,-946.02,0,98365,-2193.5,10872,11561,1,11561,1,-8.7618e-06,2.7436e-10,0,4.6325e-06,-1.5531e-06,-3.5637e+06,90.356,0,1.7508e+06,-119.87,11560,12795,1,12795,1,8.2959e-06,1.6411e-09,0,1.3156e-05,1.6438e-06,3.1046e+06,543.92,0,5.0495e+06,-3.2508,12794,714.3,0,714.3,0,9.852e-06,9.4927e-10,0,4.9274e-06,1.8466e-06,3.8313e+06,311.15,0,1.9083e+06,345.98,714.3,1
2468,0.07,12178,1,12178,1,4.0526e-07,-1.0383e-09,0,9.9632e-06,-7.386e-08,-10985,-341.97,0,3.8767e+06,-114.12,12177,13439,1,13439,1,1.9643e-05,2.2512e-09,0,1.9643e-05,3.5218e-06,7.2795e+06,729.6,0,7.6372e+06,93.214,13438,12178,1,12178,1,-2.7788e-07,-8.2776e-10,0,1.0225e-05,5.0264e-08,-1.1479e+05,-271.43,0,4.1395e+06,-30.605,12177,10873,1,10873,1,-1.8777e-05,-3.8518e-09,0,2.7772e-07,-3.6798e-06,-7.6372e+06,-1247.4,0,1.1479e+05,-2121.8,10872,11561,1,11561,1,-1.0225e-05,-1.7273e-09,0,5.4059e-06,-1.8125e-06,-4.1587e+06,-571.85,0,2.0432e+06,-97.331,11560,12795,1,12795,1,9.6821e-06,-2.6982e-10,0,1.5352e-05,1.9184e-06,3.6234e+06,-88.429,0,5.8925e+06,8.7041,12794,714.3,0,714.3,0,1.1498e-05,1.0228e-09,0,5.7508e-06,2.1551e-06,4.4716e+06,336.71,0,2.2272e+06,281.87,714.3,1
2468,0.08,12178,1,12178,1,4.6302e-07,-9.342e-10,0,1.138e-05,-8.4185e-08,-12478,-307.54,0,4.428e+06,-47.201,12177,13439,1,13439,1,2.2433e-05,1.8884e-09,0,2.2433e-05,4.0219e-06,8.3132e+06,611.58,0,8.7216e+06,100.37,13438,12178,1,12178,1,-3.1728e-07,-7.5298e-10,0,1.1681e-05,6.174e-08,-1.3103e+05,-245.44,0,4.7291e+06,-18.354,12177,10873,1,10873,1,-2.1443e-05,-3.5186e-09,0,3.1725e-07,-4.2023e-06,-8.7216e+06,-1139.5,0,1.3101e+05,-1421.5,10872,11561,1,11561,1,-1.1681e-05,-1.7533e-09,0,6.176e-06,-2.0697e-06,-4.7509e+06,-571.46,0,2.3343e+06,-54.717,11560,12795,1,12795,1,1.1057e-05,-2.44e-12,0,1.7539e-05,2.1917e-06,4.1381e+06,-0.83688,0,6.7316e+06,14.304,12794,714.3,0,714.3,0,1.3133e-05,1.0687e-09,0,6.5685e-06,2.4616e-06,5.1075e+06,351.63,0,2.5439e+06,133.5,714.3,1
2468,0.09,12178,1,12178,1,5.2019e-07,1.0309e-09,0,1.2791e-05,-9.4597e-08,-14122,339.69,0,4.977e+06,-60.776,12177,13439,1,13439,1,2.5229e-05,1.1617e-08,0,2.5229e-05,4.5238e-06,9.3497e+06,3762.4,0,9.81e+06,372.57,13438,12178,1,12178,1,-3.5662e-07,3.4838e-10,0,1.3129e-05,6.6804e-08,-1.4726e+05,114.59,0,5.3154e+06,-37.56,12177,10873,1,10873,1,-2.4119e-05,-6.6571e-09,0,3.5661e-07,-4.7262e-06,-9.81e+06,-2155.8,0,1.4726e+05,-1965.1,10872,11561,1,11561,1,-1.3129e-05,-7.9436e-10,0,6.9416e-06,-2.3275e-06,-5.3398e+06,-262.73,0,2.6237e+06,-88.677,11560,12795,1,12795,1,1.2435e-05,2.4655e-09,0,1.9713e-05,2.4636e-06,4.6536e+06,814.48,0,7.566e+06,31.482,12794,714.3,0,714.3,0,1.4762e-05,3.0315e-09,0,7.3829e-06,2.7668e-06,5.7407e+06,996.92,0,2.8593e+06,235.39,714.3,1
2468,0.1,12178,1,12178,1,5.7879e-07,-1.958e-09,0,1.4225e-05,-1.0525e-07,-15598,-644.93,0,5.535e+06,-64.149,12177,13439,1,13439,1,2.8045e-05,7.4979e-10,0,2.8045e-05,5.0282e-06,1.0393e+07,256.8,0,1.0904e+07,120.78,13438,12178,1,12178,1,-3.9635e-07,-2.1898e-09,0,1.4595e-05,7.7198e-08,-1.6377e+05,-723.46,0,5.9091e+06,-9.7637,12177,10873,1,10873,1,-2.6808e-05,-5.167e-09,0,3.963e-07,-5.2538e-06,-1.0904e+07,-1743.7,0,1.6375e+05,-1718.5,10872,11561,1,11561,1,-1.4595e-05,-2.9677e-09,0,7.7171e-06,-2.5879e-06,-5.9362e+06,-984.32,0,2.9167e+06,-64.846,11560,12795,1,12795,1,1.3824e-05,-9.7765e-10,0,2.1915e-05,2.7385e-06,5.1736e+06,-317.8,0,8.411e+06,18.657,12794,714.3,0,714.3,0,1.6417e-05,1.2829e-09,0,8.2108e-06,3.077e-06,6.3844e+06,423.23,0,3.18e+06,192.97,714.3,1
2468,0.11,12178,1,12178,1,6.3703e-07,3.2488e-10,0,1.5662e-05,-1.1577e-07,-17253,106.98,0,6.0941e+06,-44.62,12177,13439,1,13439,1,3.0857e-05,2.4458e-09,0,3.0857e-05,5.5323e-06,1.1435e+07,825.43,0,1.1997e+07,48.872,13438,12178,1,12178,1,-4.3694e-07,2.4043e-10,0,1.6079e-05,8.5197e-08,-1.8043e+05,78.676,0,6.5098e+06,-9.2362,12177,10873,1,10873,1,-2.9496e-05,-2.0064e-09,0,4.3694e-07,-5.7804e-06,-1.1997e+07,-677.1,0,1.8043e+05,-1359.4,10872,11561,1,11561,1,-1.6079e-05,-5.2979e-11,0,8.5015e-06,-2.8469e-06,-6.5399e+06,-17.051,0,3.2132e+06,-34.139,11560,12795,1,12795,1,1.521e-05,6.5377e-10,0,2.4143e-05,3.0169e-06,5.6921e+06,213.85,0,9.2666e+06,4.3661,12794,714.3,0,714.3,0,1.8075e-05,5.2711e-10,0,9.0403e-06,3.3878e-06,7.0293e+06,174.83,0,3.5012e+06,130.64,714.3,1
2468,0.12,12178,1,12178,1,6.9434e-07,1.1202e-09,0,1.7071e-05,-1.2615e-07,-18801,368.14,0,6.6423e+06,-33.734,12177,13439,1,13439,1,3.3655e-05,6.1607e-09,0,3.3655e-05,6.034e-06,1.2472e+07,1995.2,0,1.3085e+07,138.31,13438,12178,1,12178,1,-4.7615e-07,8.4943e-10,0,1.7523e-05,9.2885e-08,-1.9664e+05,278.6,0,7.0946e+06,-7.3647,12177,10873,1,10873,1,-3.2171e-05,-2.606e-09,0,4.7615e-07,-6.3045e-06,-1.3085e+07,-843.95,0,1.9664e+05,-1425.6,10872,11561,1,11561,1,-1.7523e-05,-2.2577e-10,0,9.2651e-06,-3.1046e-06,-7.1272e+06,-74.1,0,3.5018e+06,-51.087,11560,12795,1,12795,1,1.6588e-05,2.5907e-09,0,2.6312e-05,3.288e-06,6.2079e+06,863.63,0,1.0099e+07,37.326,12794,714.3,0,714.3,0,1.9701e-05,1.7365e-09,0,9.8534e-06,3.6926e-06,7.6617e+06,569.25,0,3.8162e+06,147.47,714.3,1
2468,0.13,12178,1,12178,1,7.5289e-07,-6.0886e-10,0,1.851e-05,-1.3681e-07,-20376,-200.4,0,7.2021e+06,-44.203,12177,13439,1,13439,1,3.647e-05,2.129e-09,0,3.647e-05,6.5386e-06,1.3515e+07,718.5,0,1.418e+07,67.289,13438,12178,1,12178,1,-5.163e-07,-6.335e-10,0,1.9001e-05,1.0073e-07,-2.1321e+05,-207.58,0,7.6929e+06,-11.29,12177,10873,1,10873,1,-3.4862e-05,-3.4413e-09,0,5.1629e-07,-6.8318e-06,-1.418e+07,-1161.4,0,2.1319e+05,-809.39,10872,11561,1,11561,1,-1.9001e-05,-1.1225e-09,0,1.0046e-05,-3.3646e-06,-7.7284e+06,-371.04,0,3.7972e+06,-38.931,11560,12795,1,12795,1,1.7976e-05,-5.1212e-11,0,2.8531e-05,3.5651e-06,6.7274e+06,-16.465,0,1.0951e+07,4.6979,12794,714.3,0,714.3,0,2.1362e-05,6.2871e-10,0,1.0684e-05,4.0037e-06,8.3074e+06,208.06,0,4.1378e+06,122.78,714.3,1
2468,0.14,12178,1,12178,1,8.0991e-07,1.3611e-09,0,1.992e-05,-1.4723e-07,-22064,448.1,0,7.7508e+06,-73.563,12177,13439,1,13439,1,3.9257e-05,4.2203e-09,0,3.9257e-05,7.0385e-06,1.4548e+07,1366.8,0,1.5263e+07,67.054,13438,12178,1,12178,1,-5.5598e-07,1.3914e-09,0,2.0448e-05,1.0845e-07,-2.296e+05,457.43,0,8.2786e+06,-17.72,12177,10873,1,10873,1,-3.7527e-05,-1.6051e-09,0,5.5599e-07,-7.354e-06,-1.5263e+07,-519.77,0,2.296e+05,-1874.5,10872,11561,1,11561,1,-2.0448e-05,4.1538e-10,0,1.0811e-05,-3.6219e-06,-8.317e+06,137.24,0,4.0862e+06,-71.792,11560,12795,1,12795,1,1.935e-05,2.2906e-09,0,3.0704e-05,3.8368e-06,7.2416e+06,755.01,0,1.1785e+07,6.4649,12794,714.3,0,714.3,0,2.2989e-05,1.0217e-09,0,1.1498e-05,4.3088e-06,8.9403e+06,336.67,0,4.453e+06,189.19,714.3,1
2468,0.15,12178,1,12178,1,8.6834e-07,1.5882e-09,0,2.1351e-05,-1.578e-07,-23551,522.86,0,8.3077e+06,-58.161,12177,13439,1,13439,1,4.208e-05,4.9356e-09,0,4.208e-05,7.5443e-06,1.5594e+07,1665.3,0,1.636e+07,132.33,13438,12178,1,12178,1,-5.9555e-07,1.2985e-09,0,2.1914e-05,1.1623e-07,-2.4595e+05,427.95,0,8.8722e+06,-28.448,12177,10873,1,10873,1,-4.0223e-05,-2.1023e-09,0,5.9555e-07,-7.8828e-06,-1.636e+07,-709.47,0,2.4595e+05,-1457.6,10872,11561,1,11561,1,-2.1914e-05,3.5309e-10,0,1.1587e-05,-3.8819e-06,-8.9132e+06,113.96,0,4.3793e+06,-90.037,11560,12795,1,12795,1,2.0741e-05,2.7184e-09,0,3.2905e-05,4.1118e-06,7.7621e+06,897.58,0,1.2629e+07,15.366,12794,714.3,0,714.3,0,2.4641e-05,1.4335e-09,0,1.2324e-05,4.6183e-06,9.5826e+06,472.43,0,4.773e+06,148.83,714.3,1
2468,0.16,12178,1,12178,1,9.2541e-07,-1.4664e-09,0,2.2754e-05,-1.681e-07,-25093,-482.23,0,8.8537e+06,-30.397,12177,13439,1,13439,1,4.485e-05,3.2887e-09,0,4.485e-05,8.0409e-06,1.6621e+07,1064.9,0,1.7437e+07,194.01,13438,12178,1,12178,1,-6.3485e-07,-1.3187e-09,0,2.3357e-05,1.2384e-07,-2.6214e+05,-436.53,0,9.4564e+06,-13.252,12177,10873,1,10873,1,-4.2871e-05,-5.6145e-09,0,6.3483e-07,-8.4016e-06,-1.7437e+07,-1818.3,0,2.6214e+05,-1002.1,10872,11561,1,11561,1,-2.3357e-05,-3.1013e-09,0,1.235e-05,-4.1379e-06,-9.5001e+06,-1028.6,0,4.6676e+06,-63.738,11560,12795,1,12795,1,2.2107e-05,8.6431e-11,0,3.5072e-05,4.3827e-06,8.2734e+06,28.532,0,1.3461e+07,36.741,12794,714.3,0,714.3,0,2.626e-05,1.9837e-09,0,1.3134e-05,4.9219e-06,1.0212e+07,652.54,0,5.0866e+06,145.06,714.3,1
2468,0.17,12178,1,12178,1,9.8412e-07,-3.4684e-10,0,2.4195e-05,-1.7895e-07,-26653,-114.16,0,9.4143e+06,-110.35,12177,13439,1,13439,1,4.7671e-05,1.5625e-09,0,4.7671e-05,8.5467e-06,1.7666e+07,527.14,0,1.8534e+07,529.31,13438,12178,1,12178,1,-6.7494e-07,-1.7604e-10,0,2.4842e-05,1.3159e-07,-2.7877e+05,-56.766,0,1.0057e+07,-28.235,12177,10873,1,10873,1,-4.5568e-05,-2.2398e-09,0,6.7493e-07,-8.9326e-06,-1.8534e+07,-725.49,0,2.7876e+05,-1104.5,10872,11561,1,11561,1,-2.4842e-05,-7.6698e-10,0,1.3134e-05,-4.3989e-06,-1.0104e+07,-254.16,0,4.9642e+06,-147.42,11560,12795,1,12795,1,2.3498e-05,1.7313e-10,0,3.7301e-05,4.6608e-06,8.7938e+06,55.905,0,1.4317e+07,4.9348,12794,714.3,0,714.3,0,2.7923e-05,6.8242e-10,0,1.3966e-05,5.2336e-06,1.0859e+07,224.61,0,5.4088e+06,222.87,714.3,1
2468,0.18,12178,1,12178,1,1.0416e-06,2.6457e-09,0,2.5608e-05,-1.8913e-07,-28210,869.53,0,9.9642e+06,-9.7459,12177,13439,1,13439,1,5.0492e-05,7.9103e-09,0,5.0492e-05,9.0528e-06,1.8712e+07,2562.2,0,1.9632e+07,755.31,13438,12178,1,12178,1,-7.1433e-07,2.4872e-09,0,2.6282e-05,1.3954e-07,-2.9499e+05,819.32,0,1.064e+07,9.2762,12177,10873,1,10873,1,-4.8266e-05,-1.7496e-09,0,7.1434e-07,-9.4587e-06,-1.9632e+07,-562.38,0,2.9498e+05,-1020,10872,11561,1,11561,1,-2.6282e-05,1.4363e-10,0,1.3896e-05,-4.6581e-06,-1.069e+07,46.616,0,5.2521e+06,-48.378,11560,12795,1,12795,1,2.4888e-05,5.0266e-09,0,3.9463e-05,4.9312e-06,9.3139e+06,1652.7,0,1.5146e+07,58.524,12794,714.3,0,714.3,0,2.9554e-05,2.5701e-09,0,1.4781e-05,5.5392e-06,1.1493e+07,843.88,0,5.7247e+06,152.53,714.3,1
2468,0.19,12178,1,12178,1,1.0998e-06,2.2724e-09,0,2.704e-05,-2.0024e-07,-29829,748.81,0,1.0521e+07,-228.76,12177,13439,1,13439,1,5.3296e-05,6.3034e-09,0,5.3296e-05,9.5561e-06,1.9751e+07,2127.7,0,2.0722e+07,1316.1,13438,12178,1,12178,1,-7.5387e-07,2.0988e-09,0,2.7754e-05,1.4735e-07,-3.1121e+05,700.03,0,1.1237e+07,-203.39,12177,10873,1,10873,1,-5.0946e-05,-9.5787e-10,0,7.5374e-07,-9.9852e-06,-2.0722e+07,-298.92,0,3.1116e+05,-1746.3,10872,11561,1,11561,1,-2.7754e-05,9.4807e-10,0,1.4675e-05,-4.9188e-06,-1.1289e+07,309.11,0,5.5464e+06,-422.07,11560,12795,1,12795,1,2.627e-05,3.5644e-09,0,4.1675e-05,5.2066e-06,9.8313e+06,1179.7,0,1.5995e+07,-37.249,12794,714.3,0,714.3,0,3.1207e-05,1.6754e-09,0,1.5608e-05,5.849e-06,1.2136e+07,553.53,0,6.0448e+06,404.36,714.3,1
2468,0.2,12178,1,12178,1,1.1581e-06,3.4097e-10,0,2.8463e-05,-2.1049e-07,-31221,112.5,0,1.1075e+07,-92.783,12177,13439,1,13439,1,5.6075e-05,3.4913e-09,0,5.6075e-05,1.0053e-05,2.0781e+07,1131.6,0,2.1802e+07,1207.2,13438,12178,1,12178,1,-7.9359e-07,2.6633e-10,0,2.9224e-05,1.5513e-07,-3.2777e+05,88.083,0,1.1832e+07,-59.373,12177,10873,1,10873,1,-5.3601e-05,-1.6314e-09,0,7.9331e-07,-1.051e-05,-2.1802e+07,-528.69,0,3.2776e+05,-2121.2,10872,11561,1,11561,1,-2.9224e-05,-2.5873e-10,0,1.5452e-05,-5.1743e-06,-1.1887e+07,-86.066,0,5.8404e+06,-192.46,11560,12795,1,12795,1,2.764e-05,7.4949e-10,0,4.3882e-05,5.4832e-06,1.0344e+07,243,0,1.6842e+07,28.255,12794,714.3,0,714.3,0,3.2849e-05,9.0838e-10,0,1.6429e-05,6.1568e-06,1.2775e+07,298.82,0,6.3629e+06,301.85,714.3,1
2468,0.21,12178,1,12178,1,1.2158e-06,1.0583e-09,0,2.9889e-05,-2.2101e-07,-32903,348.78,0,1.163e+07,-110.97,12177,13439,1,13439,1,5.8901e-05,3.8515e-09,0,5.8901e-05,1.056e-05,2.1828e+07,1299.3,0,2.29e+07,1552,13438,12178,1,12178,1,-8.3285e-07,9.4627e-10,0,3.0683e-05,1.6339e-07,-3.438e+05,316.58,0,1.2423e+07,-114.64,12177,10873,1,10873,1,-5.6301e-05,-2.162e-09,0,8.3274e-07,-1.1034e-05,-2.29e+07,-700.18,0,3.4373e+05,-1576.3,10872,11561,1,11561,1,-3.0683e-05,-1.1696e-10,0,1.6223e-05,-5.4341e-06,-1.248e+07,-38.067,0,6.1317e+06,-235.43,11560,12795,1,12795,1,2.9032e-05,2.1995e-09,0,4.6072e-05,5.7567e-06,1.0865e+07,721.53,0,1.7683e+07,-3.4715,12794,714.3,0,714.3,0,3.4494e-05,1.3209e-09,0,1.7252e-05,6.4652e-06,1.3414e+07,434.63,0,6.6816e+06,310.24,714.3,1
2468,0.22,12178,1,12178,1,1.2735e-06,-6.4862e-10,0,3.1305e-05,-2.3184e-07,-34414,-212.29,0,1.2181e+07,-248.91,12177,13439,1,13439,1,6.1686e-05,4.3678e-09,0,6.1686e-05,1.1059e-05,2.286e+07,1491.9,0,2.3984e+07,1702.4,13438,12178,1,12178,1,-8.7218e-07,-5.5231e-10,0,3.2138e-05,1.7123e-07,-3.6002e+05,-181.29,0,1.3012e+07,-136.87,12177,10873,1,10873,1,-5.8966e-05,-4.2075e-09,0,8.7202e-07,-1.1558e-05,-2.3984e+07,-1362.7,0,3.5991e+05,-2374.1,10872,11561,1,11561,1,-3.2138e-05,-1.5846e-09,0,1.6993e-05,-5.6939e-06,-1.3072e+07,-522.68,0,6.4225e+06,-463.04,11560,12795,1,12795,1,3.0407e-05,3.3532e-10,0,4.8257e-05,6.0287e-06,1.1379e+07,111.14,0,1.8522e+07,0.85207,12794,714.3,0,714.3,0,3.6128e-05,1.3145e-09,0,1.8069e-05,6.7717e-06,1.405e+07,431.66,0,6.9981e+06,444.52,714.3,1
2468,0.23,12178,1,12178,1,1.3313e-06,-8.1145e-10,0,3.2731e-05,-2.4161e-07,-36047,-267.74,0,1.2736e+07,38.367,12177,13439,1,13439,1,6.4492e-05,3.0877e-09,0,6.4492e-05,1.1563e-05,2.39e+07,1000.2,0,2.5075e+07,2389.5,13438,12178,1,12178,1,-9.1289e-07,-6.0303e-10,0,3.3605e-05,1.7827e-07,-3.7697e+05,-196.13,0,1.3605e+07,-41.766,12177,10873,1,10873,1,-6.1648e-05,-7.8017e-09,0,9.128e-07,-1.2083e-05,-2.5075e+07,-2526.2,0,3.7694e+05,-1476.2,10872,11561,1,11561,1,-3.3605e-05,-1.5946e-09,0,1.7768e-05,-5.9518e-06,-1.3668e+07,-525.78,0,6.7155e+06,-221.82,11560,12795,1,12795,1,3.179e-05,6.0623e-11,0,5.0459e-05,6.3046e-06,1.1897e+07,19.684,0,1.9367e+07,137.4,12794,714.3,0,714.3,0,3.7775e-05,1.1199e-09,0,1.8893e-05,7.0796e-06,1.469e+07,366.02,0,7.317e+06,527.38,714.3,1
2468,0.24,12178,1,12178,1,1.3892e-06,-1.7327e-09,0,3.4153e-05,-2.5255e-07,-37595,-569.64,0,1.3289e+07,-128.92,12177,13439,1,13439,1,6.7312e-05,5.2807e-09,0,6.7312e-05,1.2068e-05,2.4945e+07,1710.1,0,2.6171e+07,1577.6,13438,12178,1,12178,1,-9.5271e-07,-1.5475e-09,0,3.5058e-05,1.8671e-07,-3.934e+05,-512.02,0,1.4194e+07,-99.449,12177,10873,1,10873,1,-6.4344e-05,-7.3376e-09,0,9.5263e-07,-1.2611e-05,-2.6171e+07,-2376.4,0,3.9339e+05,-1264.9,10872,11561,1,11561,1,-3.5058e-05,-3.5009e-09,0,1.8536e-05,-6.2113e-06,-1.4259e+07,-1158.4,0,7.0059e+06,-243.59,11560,12795,1,12795,1,3.318e-05,2.0015e-10,0,5.2641e-05,6.5776e-06,1.2417e+07,66.418,0,2.0204e+07,18.507,12794,714.3,0,714.3,0,3.9415e-05,2.3275e-09,0,1.9713e-05,7.3875e-06,1.5328e+07,762.77,0,7.6347e+06,298.15,714.3,1
2468,0.25,12178,1,12178,1,1.447e-06,-1.798e-09,0,3.5576e-05,-2.6313e-07,-39215,-592.48,0,1.3843e+07,-166.27,12177,13439,1,13439,1,7.0113e-05,7.4207e-09,0,7.0113e-05,1.257e-05,2.5983e+07,2402.9,0,2.726e+07,2184.7,13438,12178,1,12178,1,-9.9104e-07,-1.4801e-09,0,3.652e-05,1.9596e-07,-4.0894e+05,-487.86,0,1.4786e+07,-123.89,12177,10873,1,10873,1,-6.702e-05,-7.8587e-09,0,9.9082e-07,-1.3134e-05,-2.726e+07,-2545,0,4.0884e+05,-2690.8,10872,11561,1,11561,1,-3.652e-05,-3.5141e-09,0,1.9308e-05,-6.4681e-06,-1.4854e+07,-1155.8,0,7.2977e+06,-381.62,11560,12795,1,12795,1,3.4559e-05,-1.538e-10,0,5.4837e-05,6.8509e-06,1.2933e+07,-50.435,0,2.1047e+07,40.209,12794,714.3,0,714.3,0,4.1058e-05,2.2283e-09,0,2.0535e-05,7.6954e-06,1.5967e+07,729.11,0,7.953e+06,392.96,714.3,1
2468,0.26,12178,1,12178,1,1.5049e-06,-9.8805e-10,0,3.6998e-05,-2.7345e-07,-40737,-323.77,0,1.4396e+07,-89.547,12177,13439,1,13439,1,7.2911e-05,5.9748e-09,0,7.2911e-05,1.3072e-05,2.702e+07,1935.7,0,2.8348e+07,1969.1,13438,12178,1,12178,1,-1.0319e-06,-6.9862e-10,0,3.7982e-05,2.0389e-07,-4.2603e+05,-226.53,0,1.5377e+07,-67.3,12177,10873,1,10873,1,-6.9695e-05,-7.2788e-09,0,1.0319e-06,-1.366e-05,-2.8348e+07,-2357.2,0,4.2602e+05,-1299.6,10872,11561,1,11561,1,-3.7982e-05,-2.5869e-09,0,2.0081e-05,-6.7277e-06,-1.5448e+07,-850.24,0,7.5899e+06,-302.79,11560,12795,1,12795,1,3.5938e-05,5.5013e-10,0,5.7031e-05,7.1264e-06,1.345e+07,184.56,0,2.1889e+07,81.222,12794,714.3,0,714.3,0,4.2698e-05,2.2296e-09,0,2.1355e-05,8.0028e-06,1.6605e+07,729.54,0,8.2706e+06,355.3,714.3,1
2468,0.27,12178,1,12178,1,1.5624e-06,-4.2037e-10,0,3.8413e-05,-2.8396e-07,-42314,-132.74,0,1.4946e+07,-114.47,12177,13439,1,13439,1,7.5683e-05,1.01e-08,0,7.5683e-05,1.3569e-05,2.8047e+07,3271.9,0,2.9425e+07,2072.9,13438,12178,1,12178,1,-1.0711e-06,-1.3574e-10,0,3.944e-05,2.0985e-07,-4.4217e+05,-44.311,0,1.5968e+07,-62.877,12177,10873,1,10873,1,-7.2345e-05,-1.0805e-08,0,1.071e-06,-1.4179e-05,-2.9425e+07,-3499.2,0,4.4214e+05,-1937,10872,11561,1,11561,1,-3.944e-05,-1.2828e-09,0,2.0853e-05,-6.9839e-06,-1.6042e+07,-427.48,0,7.8817e+06,-293.58,11560,12795,1,12795,1,3.7306e-05,5.7357e-10,0,5.9221e-05,7.3999e-06,1.3961e+07,192.53,0,2.273e+07,73.3,12794,714.3,0,714.3,0,4.4332e-05,2.1059e-09,0,2.2172e-05,8.309e-06,1.724e+07,686.26,0,8.5871e+06,441.17,714.3,1
2468,0.28,12178,1,12178,1,1.621e-06,-1.1951e-09,0,3.9862e-05,-2.9492e-07,-44053,-387.56,0,1.551e+07,-242.16,12177,13439,1,13439,1,7.8536e-05,5.1756e-09,0,7.8536e-05,1.4081e-05,2.9105e+07,1768.5,0,3.0535e+07,2062.7,13438,12178,1,12178,1,-1.1117e-06,-7.9101e-10,0,4.0925e-05,2.1654e-07,-4.589e+05,-261.12,0,1.6569e+07,-152.8,12177,10873,1,10873,1,-7.5074e-05,-8.8087e-09,0,1.1116e-06,-1.4716e-05,-3.0535e+07,-2852.4,0,4.5877e+05,-2209.7,10872,11561,1,11561,1,-4.0926e-05,-1.5946e-09,0,2.1637e-05,-7.25e-06,-1.6646e+07,-521.9,0,8.178e+06,-382.06,11560,12795,1,12795,1,3.8713e-05,-9.568e-11,0,6.1451e-05,7.6785e-06,1.4488e+07,-31.952,0,2.3586e+07,-3.8446,12794,714.3,0,714.3,0,4.6004e-05,1.8538e-09,0,2.3009e-05,8.6227e-06,1.7891e+07,598.03,0,8.911e+06,478.91,714.3,1
2468,0.29,12178,1,12178,1,1.6783e-06,-1.3401e-09,0,4.1261e-05,-3.0491e-07,-45433,-441.84,0,1.6054e+07,-78.678,12177,13439,1,13439,1,8.1312e-05,1.0788e-08,0,8.1312e-05,1.4578e-05,3.0134e+07,3493.4,0,3.1614e+07,1944.2,13438,12178,1,12178,1,-1.1508e-06,-1.1975e-09,0,4.2359e-05,2.2582e-07,-4.753e+05,-395.21,0,1.715e+07,-76.192,12177,10873,1,10873,1,-7.7725e-05,-1.1583e-08,0,1.1504e-06,-1.5231e-05,-3.1614e+07,-3751.2,0,4.7507e+05,-1686.6,10872,11561,1,11561,1,-4.2359e-05,-3.5399e-09,0,2.2396e-05,-7.5043e-06,-1.7229e+07,-1183.9,0,8.4649e+06,-293.77,11560,12795,1,12795,1,4.008e-05,6.0412e-10,0,6.3604e-05,7.9476e-06,1.4999e+07,198.6,0,2.4412e+07,161.93,12794,714.3,0,714.3,0,4.7618e-05,3.2471e-09,0,2.3816e-05,8.9249e-06,1.8518e+07,1055.3,0,9.2236e+06,469.31,714.3,1
2468,0.3,12178,1,12178,1,1.735e-06,-1.0969e-09,0,4.2698e-05,-3.1568e-07,-47713,-358.21,0,1.6614e+07,-274.8,12177,13439,1,13439,1,8.4134e-05,9.5237e-09,0,8.4134e-05,1.5085e-05,3.1179e+07,3083.5,0,3.2711e+07,2161.6,13438,12178,1,12178,1,-1.1921e-06,-7.0547e-10,0,4.3837e-05,2.3474e-07,-4.9211e+05,-230.09,0,1.7745e+07,-239.09,12177,10873,1,10873,1,-8.0424e-05,-1.1216e-08,0,1.1919e-06,-1.5763e-05,-3.2711e+07,-3631.8,0,4.92e+05,-1943.2,10872,11561,1,11561,1,-4.3837e-05,-2.4314e-09,0,2.3172e-05,-7.7631e-06,-1.783e+07,-809.53,0,8.7581e+06,-527.08,11560,12795,1,12795,1,4.1472e-05,3.184e-10,0,6.5814e-05,8.2249e-06,1.552e+07,107.77,0,2.5263e+07,-34.637,12794,714.3,0,714.3,0,4.9277e-05,2.7473e-09,0,2.4645e-05,9.236e-06,1.9163e+07,884.02,0,9.5449e+06,363.97,714.3,1
2468,0.31,12178,1,12178,1,1.7941e-06,-8.8607e-10,0,4.4129e-05,-3.2628e-07,-48945,-283.7,0,1.7171e+07,-218.55,12177,13439,1,13439,1,8.6943e-05,1.1954e-08,0,8.6943e-05,1.5588e-05,3.2219e+07,3871.6,0,3.3803e+07,4235.5,13438,12178,1,12178,1,-1.2307e-06,-7.3236e-10,0,4.5308e-05,2.4225e-07,-5.0809e+05,-244.24,0,1.8342e+07,-162.02,12177,10873,1,10873,1,-8.3107e-05,-9.9633e-09,0,1.2306e-06,-1.63e-05,-3.3803e+07,-3357.6,0,5.078e+05,-5506.2,10872,11561,1,11561,1,-4.5308e-05,-1.7178e-09,0,2.3952e-05,-8.0239e-06,-1.8428e+07,-549.41,0,9.0534e+06,-692.99,11560,12795,1,12795,1,4.2857e-05,1.973e-10,0,6.8027e-05,8.5012e-06,1.6038e+07,65.828,0,2.6111e+07,239.34,12794,714.3,0,714.3,0,5.0929e-05,1.9105e-09,0,2.5471e-05,9.546e-06,1.9806e+07,621.61,0,9.8648e+06,1000.9,714.3,1
2468,0.32,12178,1,12178,1,1.852e-06,-1.1494e-09,0,4.5533e-05,-3.3654e-07,-50158,-380.22,0,1.7717e+07,-112.57,12177,13439,1,13439,1,8.9725e-05,1.3329e-08,0,8.9725e-05,1.6087e-05,3.3251e+07,4316.7,0,3.4885e+07,1115.4,13438,12178,1,12178,1,-1.2669e-06,-9.471e-10,0,4.6745e-05,2.4832e-07,-5.2304e+05,-312.13,0,1.8926e+07,-68.583,12177,10873,1,10873,1,-8.5768e-05,-8.0608e-09,0,1.2666e-06,-1.6809e-05,-3.4885e+07,-2610,0,5.2285e+05,-1915.3,10872,11561,1,11561,1,-4.6745e-05,-3.1444e-09,0,2.4716e-05,-8.2795e-06,-1.9013e+07,-1035.9,0,9.3415e+06,-290.95,11560,12795,1,12795,1,4.4227e-05,4.8011e-10,0,7.0191e-05,8.7704e-06,1.6551e+07,155.33,0,2.694e+07,116.72,12794,714.3,0,714.3,0,5.2549e-05,2.7362e-09,0,2.6282e-05,9.8491e-06,2.0436e+07,890.55,0,1.0179e+07,402.71,714.3,1
2468,0.33,12178,1,12178,1,1.9006e-06,8.8887e-10,0,4.6959e-05,-3.475e-07,-55543,301.44,0,1.8272e+07,-1007.5,12177,13439,1,13439,1,9.2532e-05,1.7152e-08,0,9.2532e-05,1.6589e-05,3.4291e+07,5485.5,0,3.5977e+07,1981.7,13438,12178,1,12178,1,-1.3151e-06,1.0883e-09,0,4.8221e-05,2.5334e-07,-5.431e+05,369.53,0,1.9514e+07,-807.33,12177,10873,1,10873,1,-8.8451e-05,-3.2045e-08,0,1.3147e-06,-1.7337e-05,-3.5977e+07,-10002,0,5.4293e+05,-4259.7,10872,11561,1,11561,1,-4.8221e-05,-6.1241e-10,0,2.5475e-05,-8.5414e-06,-1.9613e+07,-196.57,0,9.6282e+06,-1593,11560,12795,1,12795,1,4.5603e-05,2.4286e-09,0,7.2382e-05,9.0459e-06,1.7066e+07,824.48,0,2.7789e+07,-264.2,12794,714.3,0,714.3,0,5.4194e-05,4.7989e-09,0,2.7104e-05,1.0158e-05,2.1076e+07,1529.3,0,1.0497e+07,1002.3,714.3,1
2468,0.34,12178,1,12178,1,1.9681e-06,-2.0031e-09,0,4.8393e-05,-3.5709e-07,-53376,-657.78,0,1.883e+07,94.603,12177,13439,1,13439,1,9.5364e-05,4.037e-09,0,9.5364e-05,1.7098e-05,3.534e+07,1361.5,0,3.7077e+07,2068,13438,12178,1,12178,1,-1.3503e-06,-1.3827e-09,0,4.9677e-05,2.6542e-07,-5.5747e+05,-453.41,0,2.0112e+07,67.75,12177,10873,1,10873,1,-9.1158e-05,-8.2355e-09,0,1.3502e-06,-1.7873e-05,-3.7077e+07,-2667,0,5.5747e+05,-3343.8,10872,11561,1,11561,1,-4.9678e-05,-3.7906e-09,0,2.6264e-05,-8.7961e-06,-2.0205e+07,-1244.5,0,9.9268e+06,-158.36,11560,12795,1,12795,1,4.7006e-05,7.4527e-11,0,7.4591e-05,9.3217e-06,1.7591e+07,24.016,0,2.8629e+07,383.25,12794,714.3,0,714.3,0,5.585e-05,2.51e-09,0,2.7933e-05,1.0467e-05,2.1719e+07,823.69,0,1.0818e+07,472.15,714.3,1
2468,0.35,12178,1,12178,1,2.0247e-06,-9.2977e-10,0,4.979e-05,-3.6775e-07,-55024,-312.64,0,1.9373e+07,-55.186,12177,13439,1,13439,1,9.8123e-05,1.5104e-08,0,9.8123e-05,1.7593e-05,3.6363e+07,4890.8,0,3.815e+07,1969.8,13438,12178,1,12178,1,-1.3896e-06,-7.7656e-10,0,5.1116e-05,2.7257e-07,-5.7347e+05,-259.22,0,2.0695e+07,-36.058,12177,10873,1,10873,1,-9.3796e-05,-1.3012e-08,0,1.3896e-06,-1.8385e-05,-3.815e+07,-4213.5,0,5.7344e+05,-1859.3,10872,11561,1,11561,1,-5.1116e-05,-3.907e-09,0,2.7026e-05,-9.0552e-06,-2.079e+07,-1292.9,0,1.0215e+07,-370.3,11560,12795,1,12795,1,4.8366e-05,1.2223e-09,0,7.6752e-05,9.5908e-06,1.81e+07,394.51,0,2.9458e+07,210.06,12794,714.3,0,714.3,0,5.7462e-05,4.0584e-09,0,2.8739e-05,1.077e-05,2.2346e+07,1318.8,0,1.113e+07,515.01,714.3,1
2468,0.36,12178,1,12178,1,2.0847e-06,-2.3835e-09,0,5.1254e-05,-3.7804e-07,-56409,-786.24,0,1.9943e+07,189.49,12177,13439,1,13439,1,0.00010099,3.8155e-09,0,0.00010099,1.8107e-05,3.7427e+07,1288.3,0,3.9266e+07,1922.3,13438,12178,1,12178,1,-1.4285e-06,-2.2001e-09,0,5.2613e-05,2.8288e-07,-5.8975e+05,-716.14,0,2.1301e+07,94.548,12177,10873,1,10873,1,-9.654e-05,-7.478e-09,0,1.428e-06,-1.892e-05,-3.9266e+07,-2421.8,0,5.8954e+05,-1249.1,10872,11561,1,11561,1,-5.2613e-05,-3.9634e-09,0,2.7816e-05,-9.3163e-06,-2.1399e+07,-1321.6,0,1.0513e+07,-62.13,11560,12795,1,12795,1,4.9782e-05,-6.6763e-10,0,7.9e-05,9.8714e-06,1.8631e+07,-216.96,0,3.0321e+07,420.34,12794,714.3,0,714.3,0,5.9151e-05,2.0985e-09,0,2.9584e-05,1.1086e-05,2.3003e+07,694.52,0,1.1458e+07,423.38,714.3,1
2468,0.37,12178,1,12178,1,2.1413e-06,2.7416e-09,0,5.2641e-05,-3.8887e-07,-57873,901.25,0,2.0482e+07,-32.032,12177,13439,1,13439,1,0.00010376,2.1979e-08,0,0.00010376,1.8604e-05,3.8451e+07,7118.2,0,4.034e+07,2886.6,13438,12178,1,12178,1,-1.4676e-06,2.8496e-09,0,5.4035e-05,2.88e-07,-6.058e+05,928.26,0,2.1877e+07,-43.831,12177,10873,1,10873,1,-9.918e-05,-1.5291e-08,0,1.4675e-06,-1.9439e-05,-4.034e+07,-4951.9,0,6.0573e+05,-2560.7,10872,11561,1,11561,1,-5.4035e-05,-5.8035e-10,0,2.8571e-05,-9.5724e-06,-2.1978e+07,-192.87,0,1.0799e+07,-287.32,11560,12795,1,12795,1,5.1142e-05,6.32e-09,0,8.1138e-05,1.0138e-05,1.9139e+07,2088.9,0,3.1141e+07,209.95,12794,714.3,0,714.3,0,6.0752e-05,4.5475e-09,0,3.0384e-05,1.1386e-05,2.3626e+07,1485,0,1.1768e+07,509.14,714.3,1
2468,0.38,12178,1,12178,1,2.1996e-06,-5.194e-10,0,5.4078e-05,-3.9875e-07,-59487,-167.09,0,2.1042e+07,253.11,12177,13439,1,13439,1,0.00010655,1.231e-08,0,0.00010655,1.9102e-05,3.9485e+07,3984.2,0,4.1425e+07,4251.4,13438,12178,1,12178,1,-1.5078e-06,-3.5437e-10,0,5.5524e-05,2.9737e-07,-6.2222e+05,-117.4,0,2.248e+07,106.71,12177,10873,1,10873,1,-0.00010185,-9.1074e-09,0,1.5069e-06,-1.9961e-05,-4.1425e+07,-2949.5,0,6.2195e+05,-2395.4,10872,11561,1,11561,1,-5.5524e-05,-1.6492e-09,0,2.9356e-05,-9.8305e-06,-2.2583e+07,-540.74,0,1.1096e+07,-226.26,11560,12795,1,12795,1,5.252e-05,4.7404e-10,0,8.3372e-05,1.0417e-05,1.9655e+07,157.18,0,3.1999e+07,621.28,12794,714.3,0,714.3,0,6.2411e-05,2.1121e-09,0,3.1214e-05,1.1697e-05,2.4271e+07,686.1,0,1.2089e+07,786.07,714.3,1
2468,0.39,12178,1,12178,1,2.2583e-06,-1.1556e-09,0,5.5523e-05,-4.0987e-07,-61122,-382.36,0,2.1604e+07,67.927,12177,13439,1,13439,1,0.00010939,4.5289e-09,0,0.00010939,1.9613e-05,4.054e+07,1529,0,4.2532e+07,1496.4,13438,12178,1,12178,1,-1.547e-06,-1.1016e-09,0,5.7004e-05,3.0638e-07,-6.3889e+05,-356.54,0,2.3079e+07,45.246,12177,10873,1,10873,1,-0.00010457,-6.926e-09,0,1.5469e-06,-2.0493e-05,-4.2532e+07,-2366.2,0,6.3884e+05,-1244.3,10872,11561,1,11561,1,-5.7004e-05,-2.1571e-09,0,3.0139e-05,-1.0092e-05,-2.3186e+07,-717.76,0,1.1392e+07,-91.207,11560,12795,1,12795,1,5.3922e-05,-1.3952e-10,0,8.5594e-05,1.0695e-05,2.018e+07,-45.906,0,3.2852e+07,206.21,12794,714.3,0,714.3,0,6.4078e-05,1.4735e-09,0,3.2048e-05,1.201e-05,2.4919e+07,486.84,0,1.2412e+07,336.16,714.3,1
2468,0.4,12178,1,12178,1,2.3156e-06,-4.0057e-10,0,5.6934e-05,-4.2022e-07,-62734,-130.2,0,2.2153e+07,85.631,12177,13439,1,13439,1,0.00011216,6.6075e-09,0,0.00011216,2.011e-05,4.1566e+07,2140.2,0,4.3609e+07,1967.7,13438,12178,1,12178,1,-1.5876e-06,-3.3907e-10,0,5.8458e-05,3.1399e-07,-6.5552e+05,-111.35,0,2.3667e+07,40.286,12177,10873,1,10873,1,-0.00010722,-5.6871e-09,0,1.5874e-06,-2.1011e-05,-4.3609e+07,-1841.6,0,6.5542e+05,-1353.8,10872,11561,1,11561,1,-5.8458e-05,-7.8134e-10,0,3.0907e-05,-1.0349e-05,-2.3777e+07,-262.56,0,1.1682e+07,-117.53,11560,12795,1,12795,1,5.5288e-05,2.3174e-11,0,8.7777e-05,1.0968e-05,2.0691e+07,7.5536,0,3.369e+07,234.56,12794,714.3,0,714.3,0,6.5707e-05,8.2685e-10,0,3.2862e-05,1.2315e-05,2.5553e+07,268.96,0,1.2727e+07,362.85,714.3,1
2468,0.41,12178,1,12178,1,2.3735e-06,-1.3537e-09,0,5.836e-05,-4.3087e-07,-64330,-444.17,0,2.2708e+07,32.092,12177,13439,1,13439,1,0.00011499,6.7894e-09,0,0.00011499,2.0616e-05,4.2613e+07,2199.6,0,4.4707e+07,2059.1,13438,12178,1,12178,1,-1.628e-06,-1.0694e-09,0,5.9918e-05,3.2335e-07,-6.7214e+05,-352.19,0,2.4258e+07,-9.3257,12177,10873,1,10873,1,-0.00010992,-8.2648e-09,0,1.6279e-06,-2.1542e-05,-4.4707e+07,-2676.6,0,6.7207e+05,-786.9,10872,11561,1,11561,1,-5.9918e-05,-2.7673e-09,0,3.1679e-05,-1.0609e-05,-2.437e+07,-917.57,0,1.1974e+07,-138.91,11560,12795,1,12795,1,5.668e-05,1.3951e-10,0,8.9969e-05,1.1242e-05,2.1212e+07,47.008,0,3.4531e+07,108.48,12794,714.3,0,714.3,0,6.7352e-05,2.1838e-09,0,3.3685e-05,1.2623e-05,2.6193e+07,708.47,0,1.3046e+07,311.19,714.3,1
2468,0.42,12178,1,12178,1,2.4313e-06,-1.3461e-09,0,5.9781e-05,-4.4152e-07,-65923,-441.87,0,2.3261e+07,-34.097,12177,13439,1,13439,1,0.00011779,9.2725e-09,0,0.00011779,2.1119e-05,4.3652e+07,3003.9,0,4.5797e+07,2285.2,13438,12178,1,12178,1,-1.668e-06,-8.5605e-10,0,6.1374e-05,3.285e-07,-6.8856e+05,-275.47,0,2.4848e+07,31.382,12177,10873,1,10873,1,-0.0001126,-9.4683e-09,0,1.6677e-06,-2.2075e-05,-4.5797e+07,-3067.2,0,6.8851e+05,-4201.2,10872,11561,1,11561,1,-6.1375e-05,-3.3077e-09,0,3.245e-05,-1.0869e-05,-2.4963e+07,-1113.3,0,1.2265e+07,-263.44,11560,12795,1,12795,1,5.8061e-05,4.9995e-10,0,9.2157e-05,1.1515e-05,2.1729e+07,166.26,0,3.5371e+07,193.01,12794,714.3,0,714.3,0,6.8992e-05,2.9015e-09,0,3.4506e-05,1.2931e-05,2.683e+07,947.68,0,1.3364e+07,539.19,714.3,1
2468,0.43,12178,1,12178,1,2.4895e-06,1.8608e-09,0,6.1204e-05,-4.5155e-07,-67299,611.2,0,2.3814e+07,189.28,12177,13439,1,13439,1,0.0001206,1.309e-08,0,0.0001206,2.1623e-05,4.4692e+07,4237.7,0,4.6887e+07,2976.5,13438,12178,1,12178,1,-1.7071e-06,1.8005e-09,0,6.2835e-05,3.3845e-07,-7.0467e+05,598.26,0,2.544e+07,91.547,12177,10873,1,10873,1,-0.00011528,-5.8139e-09,0,1.707e-06,-2.2591e-05,-4.6887e+07,-1882.7,0,7.045e+05,-1489.7,10872,11561,1,11561,1,-6.2836e-05,6.6762e-11,0,3.3223e-05,-1.1125e-05,-2.5557e+07,21.833,0,1.2557e+07,-24.674,11560,12795,1,12795,1,5.9444e-05,3.3784e-09,0,9.4352e-05,1.179e-05,2.2246e+07,1118.9,0,3.6213e+07,301.51,12794,714.3,0,714.3,0,7.0635e-05,2.0876e-09,0,3.5327e-05,1.3239e-05,2.7469e+07,681.65,0,1.3682e+07,429.83,714.3,1
2468,0.44,12178,1,12178,1,2.5476e-06,-4.1333e-10,0,6.2633e-05,-4.625e-07,-68945,-136.27,0,2.4371e+07,19.918,12177,13439,1,13439,1,0.00012339,1.0325e-08,0,0.00012339,2.2123e-05,4.5729e+07,3344.1,0,4.7976e+07,1267.8,13438,12178,1,12178,1,-1.7466e-06,-3.0699e-10,0,6.4309e-05,3.4546e-07,-7.2112e+05,-102.48,0,2.6037e+07,1.5001,12177,10873,1,10873,1,-0.00011795,-5.8583e-09,0,1.7464e-06,-2.3116e-05,-4.7976e+07,-1897,0,7.2105e+05,-1490.6,10872,11561,1,11561,1,-6.4309e-05,-1.4545e-09,0,3.4002e-05,-1.1384e-05,-2.6157e+07,-476.66,0,1.2851e+07,-151.27,11560,12795,1,12795,1,6.0824e-05,2.8041e-10,0,9.6564e-05,1.2066e-05,2.2763e+07,93.056,0,3.7062e+07,146.42,12794,714.3,0,714.3,0,7.2284e-05,1.7983e-09,0,3.6152e-05,1.3548e-05,2.811e+07,582.36,0,1.4001e+07,289.08,714.3,1
2468,0.45,12178,1,12178,1,2.6052e-06,-5.3545e-10,0,6.4058e-05,-4.7309e-07,-70642,-175.01,0,2.4925e+07,-31.567,12177,13439,1,13439,1,0.0001262,5.2337e-09,0,0.0001262,2.2626e-05,4.6767e+07,1694.3,0,4.9065e+07,1647.7,13438,12178,1,12178,1,-1.7875e-06,-2.8068e-10,0,6.5774e-05,3.54e-07,-7.3803e+05,-91.82,0,2.6629e+07,-34.598,12177,10873,1,10873,1,-0.00012063,-6.6201e-09,0,1.7875e-06,-2.3642e-05,-4.9065e+07,-2143.8,0,7.3802e+05,-1869.1,10872,11561,1,11561,1,-6.5774e-05,-9.7312e-10,0,3.4776e-05,-1.1645e-05,-2.6752e+07,-320.56,0,1.3144e+07,-196.4,11560,12795,1,12795,1,6.2205e-05,3.9809e-11,0,9.8763e-05,1.234e-05,2.3279e+07,13.151,0,3.7906e+07,125.87,12794,714.3,0,714.3,0,7.3928e-05,1.2913e-09,0,3.6974e-05,1.3856e-05,2.875e+07,418.72,0,1.432e+07,339.81,714.3,1
2468,0.46,12178,1,12178,1,2.6635e-06,1.8663e-09,0,6.548e-05,-4.831e-07,-71975,615.28,0,2.5478e+07,207.3,12177,13439,1,13439,1,0.00012902,1.272e-08,0,0.00012902,2.3138e-05,4.7813e+07,4283.6,0,5.016e+07,7123.1,13438,12178,1,12178,1,-1.8245e-06,1.8036e-09,0,6.7225e-05,3.607e-07,-7.5255e+05,586.47,0,2.7218e+07,57.064,12177,10873,1,10873,1,-0.00012332,-1.5037e-08,0,1.8217e-06,-2.4166e-05,-5.016e+07,-5068.3,0,7.5136e+05,-2157,10872,11561,1,11561,1,-6.7225e-05,4.5135e-10,0,3.5544e-05,-1.1905e-05,-2.7343e+07,149.15,0,1.3434e+07,-393.16,11560,12795,1,12795,1,6.3594e-05,3.238e-09,0,0.00010094,1.2613e-05,2.3799e+07,1065,0,3.8743e+07,579.46,12794,714.3,0,714.3,0,7.5569e-05,2.2042e-09,0,3.7795e-05,1.4163e-05,2.9388e+07,730.71,0,1.4638e+07,1110.5,714.3,1
2468,0.47,12178,1,12178,1,2.7214e-06,-3.3001e-10,0,6.6904e-05,-4.9403e-07,-73602,-109.53,0,2.6032e+07,34.75,12177,13439,1,13439,1,0.0001318,7.5144e-09,0,0.0001318,2.363e-05,4.8844e+07,2433.5,0,5.1244e+07,1399.4,13438,12178,1,12178,1,-1.8657e-06,-2.3777e-10,0,6.8697e-05,3.6996e-07,-7.7035e+05,-78.593,0,2.7813e+07,18.774,12177,10873,1,10873,1,-0.00012599,-6.2069e-09,0,1.8657e-06,-2.4692e-05,-5.1244e+07,-2010.3,0,7.7033e+05,-1068.5,10872,11561,1,11561,1,-6.8697e-05,-7.5801e-10,0,3.6322e-05,-1.2161e-05,-2.7941e+07,-252.55,0,1.3728e+07,-108.43,11560,12795,1,12795,1,6.4969e-05,3.8106e-11,0,0.00010315,1.2889e-05,2.4314e+07,12.983,0,3.9591e+07,139.37,12794,714.3,0,714.3,0,7.7213e-05,1.2051e-09,0,3.8617e-05,1.4472e-05,3.0027e+07,391.37,0,1.4956e+07,299.29,714.3,1
2468,0.48,12178,1,12178,1,2.7786e-06,-1.305e-09,0,6.8319e-05,-5.0418e-07,-75278,-429.33,0,2.6583e+07,130.14,12177,13439,1,13439,1,0.00013461,4.9377e-09,0,0.00013461,2.4134e-05,4.9884e+07,1599.5,0,5.2336e+07,1362.1,13438,12178,1,12178,1,-1.906e-06,-1.1466e-09,0,7.0144e-05,3.7759e-07,-7.8703e+05,-382.38,0,2.8399e+07,67.823,12177,10873,1,10873,1,-0.00012867,-6.3159e-09,0,1.9058e-06,-2.5216e-05,-5.2336e+07,-2045.4,0,7.8699e+05,-1462.4,10872,11561,1,11561,1,-7.0144e-05,-3.039e-09,0,3.7087e-05,-1.242e-05,-2.853e+07,-997.31,0,1.4017e+07,-51.939,11560,12795,1,12795,1,6.6351e-05,2.5981e-10,0,0.00010533,1.3161e-05,2.4831e+07,87.227,0,4.0425e+07,272.4,12794,714.3,0,714.3,0,7.8846e-05,2.1612e-09,0,3.9434e-05,1.4777e-05,3.0662e+07,708.47,0,1.5273e+07,353.89,714.3,1
2468,0.49,12178,1,12178,1,2.8372e-06,3.6424e-11,0,6.9754e-05,-5.1405e-07,-76695,14.514,0,2.7141e+07,446.52,12177,13439,1,13439,1,0.00013741,4.7477e-09,0,0.00013741,2.4638e-05,5.0924e+07,1602.8,0,5.3425e+07,3411.8,13438,12178,1,12178,1,-1.9449e-06,1.0818e-10,0,7.1623e-05,3.8659e-07,-8.03e+05,36.205,0,2.8998e+07,220.78,12177,10873,1,10873,1,-0.00013135,-8.0246e-09,0,1.9447e-06,-2.5743e-05,-5.3425e+07,-2599.2,0,8.0284e+05,-1462.2,10872,11561,1,11561,1,-7.1623e-05,-1.9397e-10,0,3.7868e-05,-1.2679e-05,-2.9132e+07,-61.964,0,1.4313e+07,23.047,11560,12795,1,12795,1,6.7733e-05,4.1199e-10,0,0.00010755,1.3438e-05,2.5348e+07,138.94,0,4.1278e+07,656.43,12794,714.3,0,714.3,0,8.0502e-05,1.1265e-09,0,4.0262e-05,1.5088e-05,3.1306e+07,369.51,0,1.5593e+07,699.2,714.3,1
2468,0.5,12178,1,12178,1,2.8955e-06,1.41e-09,0,7.1173e-05,-5.2536e-07,-78119,463.79,0,2.7694e+07,150.04,12177,13439,1,13439,1,0.00014024,1.5304e-08,0,0.00014024,2.5143e-05,5.197e+07,4956.1,0,5.4522e+07,2820.9,13438,12178,1,12178,1,-1.9845e-06,1.1112e-09,0,7.3075e-05,3.9378e-07,-8.1911e+05,367.56,0,2.9586e+07,59.174,12177,10873,1,10873,1,-0.00013405,-4.323e-09,0,1.9834e-06,-2.6269e-05,-5.4522e+07,-1399.7,0,8.1871e+05,-856.66,10872,11561,1,11561,1,-7.3075e-05,3.3889e-11,0,3.8637e-05,-1.2937e-05,-2.9722e+07,11.124,0,1.4603e+07,-73.433,11560,12795,1,12795,1,6.9123e-05,2.485e-09,0,0.00010973,1.3711e-05,2.5868e+07,818.66,0,4.2114e+07,267.19,12794,714.3,0,714.3,0,8.214e-05,1.793e-09,0,4.1082e-05,1.5395e-05,3.1943e+07,585.48,0,1.5911e+07,433.79,714.3,1
2468,0.51,12178,1,12178,1,2.9523e-06,-2.1176e-09,0,7.2581e-05,-5.356e-07,-79838,-695.08,0,2.8241e+07,177.06,12177,13439,1,13439,1,0.00014302,8.0797e-09,0,0.00014302,2.5642e-05,5.3003e+07,2617.8,0,5.5607e+07,1554.3,13438,12178,1,12178,1,-2.0244e-06,-1.7409e-09,0,7.4513e-05,4.007e-07,-8.3593e+05,-581.21,0,3.0168e+07,119.48,12177,10873,1,10873,1,-0.00013671,-1.1126e-08,0,2.0241e-06,-2.6791e-05,-5.5607e+07,-3603.3,0,8.359e+05,-759.15,10872,11561,1,11561,1,-7.4513e-05,-4.8554e-09,0,3.9398e-05,-1.3193e-05,-3.0307e+07,-1580.5,0,1.4891e+07,-61.791,11560,12795,1,12795,1,7.0498e-05,6.3812e-10,0,0.00011189,1.3981e-05,2.6383e+07,210.17,0,4.2943e+07,339.94,12794,714.3,0,714.3,0,8.3764e-05,3.8871e-09,0,4.1894e-05,1.5699e-05,3.2575e+07,1275.5,0,1.6225e+07,329.88,714.3,1
2468,0.52,12178,1,12178,1,3.0111e-06,2.007e-09,0,7.4024e-05,-5.4601e-07,-81383,659.16,0,2.8803e+07,283.14,12177,13439,1,13439,1,0.00014585,6.9539e-09,0,0.00014585,2.6153e-05,5.4051e+07,2252.1,0,5.6706e+07,4174.6,13438,12178,1,12178,1,-2.0623e-06,1.9346e-09,0,7.5998e-05,4.0727e-07,-8.5152e+05,634.35,0,3.0769e+07,131.2,12177,10873,1,10873,1,-0.00013942,-7.1961e-09,0,2.0622e-06,-2.7327e-05,-5.6706e+07,-2330.9,0,8.5144e+05,-2918,10872,11561,1,11561,1,-7.5998e-05,4.0949e-10,0,4.0183e-05,-1.3458e-05,-3.0911e+07,137.34,0,1.5187e+07,-126.95,11560,12795,1,12795,1,7.189e-05,3.5162e-09,0,0.00011412,1.4259e-05,2.6904e+07,1162.4,0,4.3799e+07,495.31,12794,714.3,0,714.3,0,8.543e-05,1.9552e-09,0,4.2727e-05,1.6012e-05,3.3223e+07,640.33,0,1.6548e+07,896.73,714.3,1
2468,0.53,12178,1,12178,1,3.0682e-06,-1.3381e-09,0,7.5431e-05,-5.5679e-07,-83014,-439.34,0,2.935e+07,115.42,12177,13439,1,13439,1,0.00014863,5.2534e-09,0,0.00014863,2.6647e-05,5.508e+07,1701.5,0,5.7786e+07,1784.2,13438,12178,1,12178,1,-2.1043e-06,-1.1303e-09,0,7.7445e-05,4.1785e-07,-8.6872e+05,-375.34,0,3.1355e+07,33.322,12177,10873,1,10873,1,-0.00014207,-7.1364e-09,0,2.1043e-06,-2.7842e-05,-5.7786e+07,-2303.7,0,8.6869e+05,-341.67,10872,11561,1,11561,1,-7.7445e-05,-3.5534e-09,0,4.0948e-05,-1.3712e-05,-3.1499e+07,-1172.3,0,1.5477e+07,-65.089,11560,12795,1,12795,1,7.3261e-05,6.2207e-10,0,0.00011629,1.4531e-05,2.7417e+07,202.45,0,4.4632e+07,211.53,12794,714.3,0,714.3,0,8.7054e-05,2.7746e-09,0,4.3539e-05,1.6316e-05,3.3854e+07,910.6,0,1.6862e+07,281.08,714.3,1
2468,0.54,12178,1,12178,1,3.126e-06,-1.8697e-09,0,7.685e-05,-5.6711e-07,-84530,-612.26,0,2.9902e+07,187.77,12177,13439,1,13439,1,0.00015144,8.9774e-09,0,0.00015144,2.7151e-05,5.6122e+07,2908.8,0,5.8878e+07,2490.7,13438,12178,1,12178,1,-2.1436e-06,-1.1751e-09,0,7.89e-05,4.2649e-07,-8.85e+05,-388.69,0,3.1944e+07,141.08,12177,10873,1,10873,1,-0.00014476,-9.8564e-09,0,2.1436e-06,-2.8368e-05,-5.8878e+07,-3192,0,8.8483e+05,-1492.2,10872,11561,1,11561,1,-7.89e-05,-4.4715e-09,0,4.1716e-05,-1.3971e-05,-3.2091e+07,-1467.4,0,1.5767e+07,-55.056,11560,12795,1,12795,1,7.4646e-05,5.8465e-10,0,0.00011847,1.4803e-05,2.7935e+07,190.33,0,4.5471e+07,409.74,12794,714.3,0,714.3,0,8.8692e-05,3.2505e-09,0,4.4358e-05,1.6623e-05,3.4491e+07,1060.4,0,1.718e+07,448.59,714.3,1
2468,0.55,12178,1,12178,1,3.1846e-06,-1.4886e-09,0,7.8291e-05,-5.7836e-07,-86153,-490.47,0,3.0463e+07,-62.787,12177,13439,1,13439,1,0.00015426,6.8197e-09,0,0.00015426,2.7657e-05,5.7166e+07,2210.3,0,5.9975e+07,2565.6,13438,12178,1,12178,1,-2.1838e-06,-1.0796e-09,0,8.038e-05,4.32e-07,-9.0158e+05,-351.3,0,3.2543e+07,-0.46805,12177,10873,1,10873,1,-0.00014745,-1.0568e-08,0,2.1835e-06,-2.8907e-05,-5.9975e+07,-3422.9,0,9.0143e+05,-4740.1,10872,11561,1,11561,1,-8.038e-05,-3.263e-09,0,4.25e-05,-1.4233e-05,-3.2693e+07,-1070.3,0,1.6063e+07,-276.35,11560,12795,1,12795,1,7.6036e-05,3.8636e-10,0,0.0001207,1.508e-05,2.8455e+07,130.34,0,4.6324e+07,210.76,12794,714.3,0,714.3,0,9.0354e-05,2.5112e-09,0,4.5189e-05,1.6935e-05,3.5138e+07,823.69,0,1.7502e+07,637.32,714.3,1
2468,0.56,12178,1,12178,1,3.2419e-06,-1.4192e-09,0,7.9703e-05,-5.882e-07,-87701,-465.37,0,3.1012e+07,171.08,12177,13439,1,13439,1,0.00015705,8.1428e-09,0,0.00015705,2.8156e-05,5.8199e+07,2638,0,6.1059e+07,1966.5,13438,12178,1,12178,1,-2.2235e-06,-1.0837e-09,0,8.183e-05,4.4093e-07,-9.1802e+05,-361.71,0,3.313e+07,80.987,12177,10873,1,10873,1,-0.00015012,-8.3913e-09,0,2.2235e-06,-2.9419e-05,-6.1059e+07,-2717.4,0,9.1798e+05,-905.16,10872,11561,1,11561,1,-8.183e-05,-3.898e-09,0,4.3266e-05,-1.4487e-05,-3.3283e+07,-1266.8,0,1.6353e+07,-72.818,11560,12795,1,12795,1,7.741e-05,6.6567e-10,0,0.00012287,1.5354e-05,2.897e+07,219.29,0,4.716e+07,265.61,12794,714.3,0,714.3,0,9.1984e-05,3.2011e-09,0,4.6005e-05,1.724e-05,3.5771e+07,1048.5,0,1.7817e+07,418.55,714.3,1
2468,0.57,12178,1,12178,1,3.3004e-06,-2.6758e-10,0,8.1134e-05,-5.9901e-07,-89202,-87.832,0,3.1569e+07,94.728,12177,13439,1,13439,1,0.00015984,5.0273e-09,0,0.00015984,2.8657e-05,5.9235e+07,1629.5,0,6.2145e+07,2973.7,13438,12178,1,12178,1,-2.2629e-06,-1.2607e-10,0,8.3307e-05,4.482e-07,-9.3434e+05,-41.486,0,3.3728e+07,49.502,12177,10873,1,10873,1,-0.00015279,-5.7118e-09,0,2.2624e-06,-2.9946e-05,-6.2145e+07,-1849.8,0,9.3429e+05,-2883.1,10872,11561,1,11561,1,-8.3307e-05,-1.0518e-09,0,4.4047e-05,-1.4748e-05,-3.3884e+07,-346.56,0,1.6648e+07,-35.831,11560,12795,1,12795,1,7.8788e-05,4.2149e-10,0,0.00012509,1.563e-05,2.9485e+07,141.75,0,4.8011e+07,247.8,12794,714.3,0,714.3,0,9.3636e-05,1.1701e-09,0,4.6831e-05,1.755e-05,3.6414e+07,382.54,0,1.8137e+07,411.6,714.3,1
2468,0.58,12178,1,12178,1,3.3584e-06,-8.4884e-10,0,8.2562e-05,-6.0942e-07,-90771,-277.61,0,3.2125e+07,147.05,12177,13439,1,13439,1,0.00016266,4.4902e-09,0,0.00016266,2.9163e-05,6.0281e+07,1454.3,0,6.3243e+07,3606.4,13438,12178,1,12178,1,-2.3021e-06,-4.9388e-10,0,8.477e-05,4.5608e-07,-9.5066e+05,-159.58,0,3.432e+07,72.907,12177,10873,1,10873,1,-0.00015549,-7.2944e-09,0,2.3018e-06,-3.0472e-05,-6.3243e+07,-2362.8,0,9.5054e+05,-1385.5,10872,11561,1,11561,1,-8.477e-05,-2.1232e-09,0,4.482e-05,-1.5008e-05,-3.4479e+07,-697.36,0,1.694e+07,-78.265,11560,12795,1,12795,1,8.018e-05,4.0766e-10,0,0.00012729,1.5905e-05,3.0006e+07,135.28,0,4.8854e+07,284.8,12794,714.3,0,714.3,0,9.5284e-05,1.6861e-09,0,4.7655e-05,1.7859e-05,3.7055e+07,552.42,0,1.8456e+07,441.05,714.3,1
2468,0.59,12178,1,12178,1,3.4165e-06,6.4359e-12,0,8.399e-05,-6.1916e-07,-92307,0.89011,0,3.268e+07,469.6,12177,13439,1,13439,1,0.00016546,8.7238e-09,0,0.00016546,2.9666e-05,6.1318e+07,2826,0,6.433e+07,5880.6,13438,12178,1,12178,1,-2.3412e-06,-6.09e-11,0,8.624e-05,4.6508e-07,-9.6607e+05,-19.666,0,3.4916e+07,202.11,12177,10873,1,10873,1,-0.00015816,-7.9561e-09,0,2.3409e-06,-3.0995e-05,-6.433e+07,-2679.6,0,9.6593e+05,-632.21,10872,11561,1,11561,1,-8.624e-05,-6.0615e-10,0,4.5597e-05,-1.5265e-05,-3.5077e+07,-199.84,0,1.7234e+07,24.504,11560,12795,1,12795,1,8.1558e-05,3.6649e-10,0,0.00012949,1.6181e-05,3.0522e+07,121,0,4.9702e+07,573.09,12794,714.3,0,714.3,0,9.6932e-05,1.1423e-09,0,4.8479e-05,1.8167e-05,3.7696e+07,375.18,0,1.8776e+07,753.28,714.3,1
2468,0.6,12178,1,12178,1,3.4731e-06,2.9895e-11,0,8.5387e-05,-6.3031e-07,-93990,11.384,0,3.3224e+07,114.04,12177,13439,1,13439,1,0.00016823,1.0567e-08,0,0.00016823,3.0161e-05,6.2345e+07,3422.6,0,6.5408e+07,2840.1,13438,12178,1,12178,1,-2.3822e-06,-1.2647e-10,0,8.767e-05,4.7215e-07,-9.8349e+05,-42.738,0,3.5494e+07,71.292,12177,10873,1,10873,1,-0.00016081,-7.5304e-09,0,2.382e-06,-3.1519e-05,-6.5408e+07,-2438.8,0,9.8348e+05,-1654.2,10872,11561,1,11561,1,-8.767e-05,-2.6114e-09,0,4.6353e-05,-1.5522e-05,-3.5658e+07,-869.28,0,1.752e+07,-109.65,11560,12795,1,12795,1,8.2924e-05,1.9725e-09,0,0.00013164,1.645e-05,3.1033e+07,647.37,0,5.0525e+07,316.56,12794,714.3,0,714.3,0,9.8544e-05,3.4713e-09,0,4.9285e-05,1.8469e-05,3.8322e+07,1138.9,0,1.9088e+07,471.07,714.3,1
2468,0.61,12178,1,12178,1,3.5305e-06,-1.7106e-09,0,8.6796e-05,-6.4097e-07,-95504,-561.37,0,3.3772e+07,22.221,12177,13439,1,13439,1,0.00017103,1.0493e-08,0,0.00017103,3.0664e-05,6.3383e+07,3372.8,0,6.6496e+07,2480.4,13438,12178,1,12178,1,-2.4202e-06,-1.4473e-09,0,8.9112e-05,4.8111e-07,-9.9905e+05,-468.41,0,3.6078e+07,11.821,12177,10873,1,10873,1,-0.00016349,-1.3154e-08,0,2.42e-06,-3.2036e-05,-6.6496e+07,-4259.5,0,9.9897e+05,-2966.7,10872,11561,1,11561,1,-8.9112e-05,-5.7769e-09,0,4.7116e-05,-1.5781e-05,-3.6245e+07,-1908,0,1.7808e+07,-316.39,11560,12795,1,12795,1,8.4304e-05,1.2865e-09,0,0.00013381,1.672e-05,3.1549e+07,438.5,0,5.1356e+07,327.54,12794,714.3,0,714.3,0,0.00010017,4.8243e-09,0,5.0099e-05,1.8774e-05,3.8955e+07,1580.5,0,1.9403e+07,677.22,714.3,1
2468,0.62,12178,1,12178,1,3.5891e-06,-7.4827e-10,0,8.8235e-05,-6.5127e-07,-97047,-244.97,0,3.4332e+07,160.14,12177,13439,1,13439,1,0.00017385,7.1999e-09,0,0.00017385,3.1168e-05,6.4425e+07,2331.1,0,6.759e+07,2537.2,13438,12178,1,12178,1,-2.4614e-06,-5.5122e-10,0,9.0595e-05,4.8723e-07,-1.0162e+06,-183.85,0,3.6679e+07,94.163,12177,10873,1,10873,1,-0.00016618,-6.906e-09,0,2.4612e-06,-3.2565e-05,-6.759e+07,-2236.7,0,1.0162e+06,-1265.1,10872,11561,1,11561,1,-9.0595e-05,-3.0645e-09,0,4.79e-05,-1.604e-05,-3.6848e+07,-1009.6,0,1.8104e+07,-69.205,11560,12795,1,12795,1,8.5692e-05,8.9168e-10,0,0.00013603,1.6999e-05,3.2069e+07,299.25,0,5.2211e+07,334.8,12794,714.3,0,714.3,0,0.00010183,2.7788e-09,0,5.093e-05,1.9086e-05,3.9601e+07,911.27,0,1.9725e+07,363.09,714.3,1
2468,0.63,12178,1,12178,1,3.6471e-06,-5.2371e-10,0,8.9659e-05,-6.6186e-07,-98597,-171.4,0,3.4886e+07,136.78,12177,13439,1,13439,1,0.00017664,4.5783e-09,0,0.00017664,3.1669e-05,6.5462e+07,1482.5,0,6.8678e+07,1206.9,13438,12178,1,12178,1,-2.501e-06,-3.7747e-10,0,9.206e-05,4.9709e-07,-1.0326e+06,-120.87,0,3.7272e+07,78.376,12177,10873,1,10873,1,-0.00016885,-6.5638e-09,0,2.5009e-06,-3.3088e-05,-6.8678e+07,-2125.5,0,1.0326e+06,-437.61,10872,11561,1,11561,1,-9.206e-05,-2.045e-09,0,4.8675e-05,-1.6296e-05,-3.7444e+07,-679.58,0,1.8397e+07,1.1646,11560,12795,1,12795,1,8.7071e-05,6.4576e-10,0,0.00013823,1.7273e-05,3.2585e+07,211.52,0,5.3055e+07,211.87,12794,714.3,0,714.3,0,0.00010347,2.0169e-09,0,5.1752e-05,1.9394e-05,4.024e+07,661.53,0,2.0043e+07,217.01,714.3,1
2468,0.64,12178,1,12178,1,3.7056e-06,-1.6971e-09,0,9.11e-05,-6.7269e-07,-1.0023e+05,-558.03,0,3.5447e+07,53.689,12177,13439,1,13439,1,0.00017949,1.2537e-09,0,0.00017949,3.218e-05,6.6518e+07,405.85,0,6.9786e+07,1037.7,13438,12178,1,12178,1,-2.5411e-06,-1.4069e-09,0,9.3533e-05,5.05e-07,-1.0492e+06,-466.54,0,3.7868e+07,32.185,12177,10873,1,10873,1,-0.00017157,-5.8629e-09,0,2.5411e-06,-3.3624e-05,-6.9786e+07,-1898.7,0,1.0492e+06,-470.87,10872,11561,1,11561,1,-9.3533e-05,-3.0283e-09,0,4.9454e-05,-1.6559e-05,-3.8043e+07,-995.74,0,1.8692e+07,-34.989,11560,12795,1,12795,1,8.8474e-05,-1.0594e-10,0,0.00014045,1.755e-05,3.311e+07,-35.159,0,5.3904e+07,103.92,12794,714.3,0,714.3,0,0.00010514,1.7893e-09,0,5.2583e-05,1.9705e-05,4.0887e+07,588.77,0,2.0365e+07,161.53,714.3,1
2468,0.65,12178,1,12178,1,3.7636e-06,7.152e-10,0,9.2524e-05,-6.8307e-07,-1.0175e+05,235.67,0,3.6001e+07,112.41,12177,13439,1,13439,1,0.00018228,3.9249e-09,0,0.00018228,3.268e-05,6.7551e+07,1261.3,0,7.0869e+07,1635.3,13438,12178,1,12178,1,-2.5811e-06,4.7244e-10,0,9.5002e-05,5.1264e-07,-1.0657e+06,154.51,0,3.8463e+07,68.205,12177,10873,1,10873,1,-0.00017424,-1.0604e-09,0,2.5811e-06,-3.4146e-05,-7.0869e+07,-343,0,1.0656e+06,-960.39,10872,11561,1,11561,1,-9.5002e-05,-8.3306e-11,0,5.0231e-05,-1.6819e-05,-3.864e+07,-26.759,0,1.8985e+07,0.44646,11560,12795,1,12795,1,8.9849e-05,1.1917e-09,0,0.00014265,1.7825e-05,3.3624e+07,391.35,0,5.4751e+07,190.42,12794,714.3,0,714.3,0,0.00010678,9.9219e-10,0,5.3405e-05,2.0013e-05,4.1526e+07,327.14,0,2.0683e+07,216.57,714.3,1
2468,0.66,12178,1,12178,1,3.8216e-06,-1.4042e-09,0,9.3945e-05,-6.9367e-07,-1.0324e+05,-461.45,0,3.6554e+07,87.443,12177,13439,1,13439,1,0.0001851,4.4241e-09,0,0.0001851,3.3185e-05,6.8595e+07,1432.8,0,7.1965e+07,2725.3,13438,12178,1,12178,1,-2.6203e-06,-9.2233e-10,0,9.6454e-05,5.1766e-07,-1.0819e+06,-299.19,0,3.9051e+07,31.977,12177,10873,1,10873,1,-0.00017693,-7.2889e-09,0,2.6202e-06,-3.4674e-05,-7.1965e+07,-2360.4,0,1.0819e+06,-1335,10872,11561,1,11561,1,-9.6454e-05,-3.3729e-09,0,5.0999e-05,-1.7076e-05,-3.9231e+07,-1108.5,0,1.9276e+07,-55.384,11560,12795,1,12795,1,9.1238e-05,4.437e-10,0,0.00014483,1.8097e-05,3.4144e+07,147.01,0,5.5588e+07,159.86,12794,714.3,0,714.3,0,0.00010842,2.5194e-09,0,5.4225e-05,2.032e-05,4.2163e+07,827.39,0,2.1001e+07,323.43,714.3,1
2468,0.67,12178,1,12178,1,3.8795e-06,2.3171e-10,0,9.5372e-05,-7.0373e-07,-1.0486e+05,76.76,0,3.7109e+07,265.28,12177,13439,1,13439,1,0.00018788,4.5888e-09,0,0.00018788,3.3684e-05,6.9627e+07,1486.5,0,7.3047e+07,4191,13438,12178,1,12178,1,-2.6603e-06,1.674e-10,0,9.7928e-05,5.2539e-07,-1.0983e+06,55.229,0,3.9648e+07,212.95,12177,10873,1,10873,1,-0.00017959,-4.1891e-09,0,2.6598e-06,-3.52e-05,-7.3047e+07,-1407.9,0,1.0982e+06,-2379.5,10872,11561,1,11561,1,-9.7928e-05,-2.0967e-10,0,5.1778e-05,-1.7335e-05,-3.983e+07,-68.365,0,1.957e+07,10.667,11560,12795,1,12795,1,9.261e-05,7.7298e-10,0,0.00014704,1.8374e-05,3.4658e+07,249.08,0,5.6437e+07,476.67,12794,714.3,0,714.3,0,0.00011007,8.5774e-10,0,5.5049e-05,2.0629e-05,4.2804e+07,281.32,0,2.132e+07,517.91,714.3,1
2468,0.68,12178,1,12178,1,3.9369e-06,-1.5018e-09,0,9.6786e-05,-7.1432e-07,-1.0646e+05,-493.97,0,3.7659e+07,200.85,12177,13439,1,13439,1,0.00019068,1.5962e-09,0,0.00019068,3.4186e-05,7.0665e+07,516.83,0,7.4136e+07,1834.8,13438,12178,1,12178,1,-2.7001e-06,-1.4476e-09,0,9.9374e-05,5.3581e-07,-1.1147e+06,-472.69,0,4.0233e+07,70.594,12177,10873,1,10873,1,-0.00018227,-4.3752e-09,0,2.7e-06,-3.5721e-05,-7.4136e+07,-1416.7,0,1.1147e+06,-928.43,10872,11561,1,11561,1,-9.9374e-05,-2.4278e-09,0,5.2542e-05,-1.7592e-05,-4.0419e+07,-810.82,0,1.9859e+07,-11.926,11560,12795,1,12795,1,9.3991e-05,-4.5461e-10,0,0.00014922,1.8646e-05,3.5175e+07,-153.2,0,5.7271e+07,272.17,12794,714.3,0,714.3,0,0.0001117,1.2103e-09,0,5.5865e-05,2.0935e-05,4.3439e+07,397.14,0,2.1636e+07,368.65,714.3,1
2468,0.69,12178,1,12178,1,3.9946e-06,-4.8013e-10,0,9.8206e-05,-7.2508e-07,-1.0807e+05,-157.24,0,3.8212e+07,85.955,12177,13439,1,13439,1,0.00019348,5.2926e-09,0,0.00019348,3.4689e-05,7.1703e+07,1713.9,0,7.5225e+07,902.89,13438,12178,1,12178,1,-2.7395e-06,-3.1945e-10,0,0.00010083,5.435e-07,-1.1312e+06,-106.12,0,4.0824e+07,53.959,12177,10873,1,10873,1,-0.00018495,-4.9639e-09,0,2.7395e-06,-3.6243e-05,-7.5225e+07,-1607.2,0,1.1312e+06,-460.62,10872,11561,1,11561,1,-0.00010083,-2.2374e-09,0,5.3314e-05,-1.785e-05,-4.1012e+07,-736.42,0,2.015e+07,-11.675,11560,12795,1,12795,1,9.5371e-05,7.6791e-10,0,0.00015141,1.892e-05,3.5691e+07,251.85,0,5.8112e+07,151.32,12794,714.3,0,714.3,0,0.00011334,2.1129e-09,0,5.6685e-05,2.1242e-05,4.4076e+07,693.47,0,2.1954e+07,167.39,714.3,1
2468,0.7,12178,1,12178,1,4.0523e-06,-8.3128e-10,0,9.9623e-05,-7.3561e-07,-1.0962e+05,-272.58,0,3.8763e+07,60.325,12177,13439,1,13439,1,0.00019629,9.3247e-09,0,0.00019629,3.5192e-05,7.2743e+07,3019.6,0,7.6317e+07,763.24,13438,12178,1,12178,1,-2.7789e-06,-6.4726e-10,0,0.00010228,5.5136e-07,-1.1474e+06,-213.48,0,4.1411e+07,35.475,12177,10873,1,10873,1,-0.00018763,-8.1892e-09,0,2.7789e-06,-3.6769e-05,-7.6317e+07,-2652.2,0,1.1474e+06,-519.04,10872,11561,1,11561,1,-0.00010228,-4.2021e-09,0,5.4081e-05,-1.811e-05,-4.1602e+07,-1394.6,0,2.044e+07,-56.085,11560,12795,1,12795,1,9.6756e-05,1.4325e-09,0,0.00015359,1.9192e-05,3.6209e+07,473.43,0,5.8948e+07,150.61,12794,714.3,0,714.3,0,0.00011497,4.014e-09,0,5.7502e-05,2.1549e-05,4.4712e+07,1319.7,0,2.227e+07,169.78,714.3,1
2468,0.71,12178,1,12178,1,4.1109e-06,3.0781e-10,0,0.00010106,-7.4581e-07,-1.1106e+05,104.14,0,3.9321e+07,243.72,12177,13439,1,13439,1,0.0001991,1.4285e-08,0,0.0001991,3.5697e-05,7.3785e+07,4622.6,0,7.7409e+07,4609.9,13438,12178,1,12178,1,-2.8184e-06,4.7037e-11,0,0.00010376,5.5732e-07,-1.1636e+06,15.59,0,4.2009e+07,254.95,12177,10873,1,10873,1,-0.00019032,-1.0112e-08,0,2.8181e-06,-3.73e-05,-7.7409e+07,-3275.2,0,1.1636e+06,-2262.4,10872,11561,1,11561,1,-0.00010376,-2.0187e-09,0,5.4861e-05,-1.837e-05,-4.2202e+07,-666.71,0,2.0735e+07,-74.446,11560,12795,1,12795,1,9.8139e-05,2.2165e-09,0,0.0001558,1.9468e-05,3.6727e+07,727.31,0,5.9798e+07,558.41,12794,714.3,0,714.3,0,0.00011663,3.5182e-09,0,5.8331e-05,2.1859e-05,4.5356e+07,1146.5,0,2.2591e+07,706.16,714.3,1
2468,0.72,12178,1,12178,1,4.1691e-06,-1.0204e-09,0,0.00010249,-7.5628e-07,-1.1261e+05,-334.97,0,3.9877e+07,280.49,12177,13439,1,13439,1,0.00020191,4.5848e-09,0,0.00020191,3.62e-05,7.4827e+07,1483,0,7.8503e+07,2709.3,13438,12178,1,12178,1,-2.8586e-06,-7.8799e-10,0,0.00010523,5.6693e-07,-1.1802e+06,-253.95,0,4.2604e+07,159.15,12177,10873,1,10873,1,-0.00019301,-5.3146e-09,0,2.8584e-06,-3.7823e-05,-7.8503e+07,-1720.9,0,1.1801e+06,-882.87,10872,11561,1,11561,1,-0.00010523,-2.1104e-09,0,5.5638e-05,-1.8627e-05,-4.28e+07,-692.2,0,2.1029e+07,33.054,11560,12795,1,12795,1,9.9526e-05,1.6647e-10,0,0.00015801,1.9744e-05,3.7246e+07,54.41,0,6.0644e+07,403.44,12794,714.3,0,714.3,0,0.00011828,1.6116e-09,0,5.9156e-05,2.2168e-05,4.5997e+07,526.31,0,2.2911e+07,368.09,714.3,1
2468,0.73,12178,1,12178,1,4.2268e-06,-2.0419e-09,0,0.00010392,-7.6639e-07,-1.1432e+05,-671.36,0,4.0433e+07,429.95,12177,13439,1,13439,1,0.00020474,2.3756e-09,0,0.00020474,3.6707e-05,7.5874e+07,769.05,0,7.9601e+07,2628.8,13438,12178,1,12178,1,-2.8991e-06,-1.5367e-09,0,0.00010669,5.7583e-07,-1.1969e+06,-509.06,0,4.3196e+07,324.73,12177,10873,1,10873,1,-0.00019571,-7.2616e-09,0,2.8991e-06,-3.8353e-05,-7.9601e+07,-2334.2,0,1.1969e+06,-546.36,10872,11561,1,11561,1,-0.00010669,-3.6831e-09,0,5.6411e-05,-1.8886e-05,-4.3395e+07,-1218.1,0,2.1321e+07,147.44,11560,12795,1,12795,1,0.00010092,-2.0487e-10,0,0.0001602,2.0018e-05,3.7767e+07,-65.903,0,6.1488e+07,625.45,12794,714.3,0,714.3,0,0.00011993,2.2236e-09,0,5.998e-05,2.2477e-05,4.6638e+07,729.2,0,2.323e+07,424.55,714.3,1
2468,0.74,12178,1,12178,1,4.2849e-06,-8.5275e-10,0,0.00010534,-7.7782e-07,-1.1587e+05,-280.35,0,4.0987e+07,70.797,12177,13439,1,13439,1,0.00020753,1.9526e-09,0,0.00020753,3.7207e-05,7.6908e+07,632.4,0,8.0686e+07,1465.4,13438,12178,1,12178,1,-2.9386e-06,-6.5859e-10,0,0.00010816,5.8411e-07,-1.2132e+06,-214.04,0,4.379e+07,26.492,12177,10873,1,10873,1,-0.00019837,-3.7816e-09,0,2.9386e-06,-3.8875e-05,-8.0686e+07,-1224.6,0,1.2132e+06,-136.37,10872,11561,1,11561,1,-0.00010816,-1.8945e-09,0,5.7187e-05,-1.9146e-05,-4.3991e+07,-622.46,0,2.1614e+07,-14.098,11560,12795,1,12795,1,0.00010229,1.4338e-10,0,0.00016241,2.0294e-05,3.8282e+07,47.964,0,6.2333e+07,74.93,12794,714.3,0,714.3,0,0.00012157,1.2886e-09,0,6.0802e-05,2.2785e-05,4.7277e+07,423.35,0,2.3548e+07,187.01,714.3,1
2468,0.75,12178,1,12178,1,4.342e-06,-9.5931e-10,0,0.00010675,-7.8698e-07,-1.1742e+05,-315.18,0,4.1535e+07,559.55,12177,13439,1,13439,1,0.00021031,5.0528e-09,0,0.00021031,3.7705e-05,7.7939e+07,1636.5,0,8.1767e+07,5060.7,13438,12178,1,12178,1,-2.9778e-06,-6.6453e-10,0,0.0001096,5.9251e-07,-1.2292e+06,-217.6,0,4.4375e+07,233.71,12177,10873,1,10873,1,-0.00020103,-5.6372e-09,0,2.9778e-06,-3.9397e-05,-8.1767e+07,-1825.6,0,1.2291e+06,-362.49,10872,11561,1,11561,1,-0.0001096,-2.8694e-09,0,5.795e-05,-1.9402e-05,-4.458e+07,-951.68,0,2.1903e+07,55.119,11560,12795,1,12795,1,0.00010367,5.7116e-10,0,0.00016458,2.0565e-05,3.8795e+07,184.74,0,6.3166e+07,676.23,12794,714.3,0,714.3,0,0.0001232,2.294e-09,0,6.1615e-05,2.3089e-05,4.7909e+07,753.04,0,2.3863e+07,857.24,714.3,1
2468,0.76,12178,1,12178,1,4.4007e-06,-9.9209e-10,0,0.00010818,-7.9856e-07,-1.1894e+05,-325.78,0,4.2094e+07,188.65,12177,13439,1,13439,1,0.00021314,5.791e-09,0,0.00021314,3.8213e-05,7.8988e+07,1875.6,0,8.2869e+07,3701.8,13438,12178,1,12178,1,-3.0175e-06,-6.7023e-10,0,0.00011108,5.9951e-07,-1.2458e+06,-222.91,0,4.4971e+07,59.529,12177,10873,1,10873,1,-0.00020374,-6.5969e-09,0,3.0173e-06,-3.9927e-05,-8.2869e+07,-2136.1,0,1.2457e+06,-1848.6,10872,11561,1,11561,1,-0.00011108,-2.6673e-09,0,5.873e-05,-1.9662e-05,-4.5178e+07,-868.17,0,2.2198e+07,-53.845,11560,12795,1,12795,1,0.00010506,4.8602e-10,0,0.00016679,2.0841e-05,3.9317e+07,162.39,0,6.4015e+07,303.65,12794,714.3,0,714.3,0,0.00012485,2.274e-09,0,6.2444e-05,2.34e-05,4.8554e+07,744.19,0,2.4184e+07,445.22,714.3,1
2468,0.77,12178,1,12178,1,4.4582e-06,7.5347e-10,0,0.0001096,-8.0855e-07,-1.2059e+05,247.57,0,4.2646e+07,367.25,12177,13439,1,13439,1,0.00021592,3.3439e-09,0,0.00021592,3.8712e-05,8.0017e+07,1082.4,0,8.3948e+07,3348.9,13438,12178,1,12178,1,-3.0576e-06,7.8851e-10,0,0.00011254,6.0818e-07,-1.262e+06,261.49,0,4.5563e+07,245.88,12177,10873,1,10873,1,-0.00020639,-2.8376e-09,0,3.0575e-06,-4.045e-05,-8.3948e+07,-958.4,0,1.262e+06,-885.08,10872,11561,1,11561,1,-0.00011254,2.3378e-10,0,5.9503e-05,-1.992e-05,-4.5773e+07,76.721,0,2.249e+07,114.46,11560,12795,1,12795,1,0.00010643,1.3671e-09,0,0.00016898,2.1116e-05,3.9829e+07,449.4,0,6.4858e+07,506.34,12794,714.3,0,714.3,0,0.00012649,7.9948e-10,0,6.3263e-05,2.3707e-05,4.9191e+07,262.26,0,2.4501e+07,441.47,714.3,1
2468,0.78,12178,1,12178,1,4.5158e-06,-4.8566e-10,0,0.00011102,-8.1963e-07,-1.2214e+05,-159.38,0,4.3197e+07,119.97,12177,13439,1,13439,1,0.00021872,7.1345e-09,0,0.00021872,3.9213e-05,8.1055e+07,2310.9,0,8.5037e+07,2607.4,13438,12178,1,12178,1,-3.097e-06,-4.5657e-10,0,0.00011399,6.1555e-07,-1.2787e+06,-150.78,0,4.615e+07,18.87,12177,10873,1,10873,1,-0.00020907,-5.0608e-09,0,3.097e-06,-4.0972e-05,-8.5037e+07,-1638.8,0,1.2787e+06,-408.62,10872,11561,1,11561,1,-0.00011399,-2.604e-09,0,6.0269e-05,-2.0178e-05,-4.6362e+07,-852.76,0,2.2779e+07,-36.386,11560,12795,1,12795,1,0.00010781,8.3088e-10,0,0.00017116,2.1388e-05,4.0346e+07,271.92,0,6.5693e+07,166.53,12794,714.3,0,714.3,0,0.00012812,2.5535e-09,0,6.4079e-05,2.4013e-05,4.9826e+07,838.92,0,2.4817e+07,300.75,714.3,1
2468,0.79,12178,1,12178,1,4.5733e-06,-1.1708e-09,0,0.00011244,-8.2974e-07,-1.2376e+05,-385.53,0,4.3748e+07,253.14,12177,13439,1,13439,1,0.00022153,9.7188e-09,0,0.00022153,3.9718e-05,8.2097e+07,3147.5,0,8.6131e+07,2692.1,13438,12178,1,12178,1,-3.1366e-06,-8.2244e-10,0,0.00011544,6.2396e-07,-1.295e+06,-272.9,0,4.6737e+07,125.99,12177,10873,1,10873,1,-0.00021176,-9.6979e-09,0,3.1366e-06,-4.1498e-05,-8.6131e+07,-3140.4,0,1.2949e+06,-421.61,10872,11561,1,11561,1,-0.00011544,-4.6215e-09,0,6.1036e-05,-2.0438e-05,-4.6953e+07,-1545,0,2.3069e+07,-11.072,11560,12795,1,12795,1,0.0001092,1.4882e-09,0,0.00017334,2.166e-05,4.0865e+07,483.74,0,6.6529e+07,307.22,12794,714.3,0,714.3,0,0.00012976,4.109e-09,0,6.4898e-05,2.432e-05,5.0462e+07,1349.3,0,2.5134e+07,466.82,714.3,1
2468,0.8,12178,1,12178,1,4.6324e-06,1.6541e-09,0,0.00011388,-8.4084e-07,-1.2532e+05,544.07,0,4.4312e+07,101.68,12177,13439,1,13439,1,0.00022437,4.3251e-09,0,0.00022437,4.0227e-05,8.3148e+07,1407.6,0,8.7232e+07,2791.7,13438,12178,1,12178,1,-3.1767e-06,1.7004e-09,0,0.00011693,6.3146e-07,-1.3116e+06,551.33,0,4.7341e+07,36.78,12177,10873,1,10873,1,-0.00021447,-6.7426e-10,0,3.1767e-06,-4.2029e-05,-8.7232e+07,-227.93,0,1.3116e+06,-292.27,10872,11561,1,11561,1,-0.00011693,5.3277e-10,0,6.1824e-05,-2.0699e-05,-4.7559e+07,176.87,0,2.3367e+07,-13.115,11560,12795,1,12795,1,0.00011059,2.6797e-09,0,0.00017558,2.1939e-05,4.1387e+07,885.44,0,6.7388e+07,104.46,12794,714.3,0,714.3,0,0.00013143,1.261e-09,0,6.5735e-05,2.4634e-05,5.1113e+07,414.99,0,2.5459e+07,262.39,714.3,1
2468,0.81,12178,1,12178,1,4.6898e-06,-2.2453e-09,0,0.00011528,-8.5047e-07,-1.266e+05,-739.58,0,4.4856e+07,422.95,12177,13439,1,13439,1,0.00022715,9.1798e-09,0,0.00022715,4.0724e-05,8.4179e+07,2972.8,0,8.8314e+07,3258.2,13438,12178,1,12178,1,-3.2149e-06,-1.917e-09,0,0.00011836,6.3982e-07,-1.3271e+06,-632.03,0,4.792e+07,255.39,12177,10873,1,10873,1,-0.00021713,-1.1339e-08,0,3.2149e-06,-4.255e-05,-8.8314e+07,-3672.4,0,1.327e+06,-3127.2,10872,11561,1,11561,1,-0.00011836,-5.8095e-09,0,6.2581e-05,-2.0956e-05,-4.814e+07,-1912.3,0,2.3653e+07,-7.3724,11560,12795,1,12795,1,0.00011196,8.1625e-10,0,0.00017773,2.2208e-05,4.1901e+07,271.52,0,6.8212e+07,680.36,12794,714.3,0,714.3,0,0.00013305,4.2275e-09,0,6.6541e-05,2.4936e-05,5.174e+07,1387.8,0,2.5771e+07,659.13,714.3,1
2468,0.82,12178,1,12178,1,4.7476e-06,-5.5618e-10,0,0.00011671,-8.6175e-07,-1.2838e+05,-182.63,0,4.5412e+07,101.86,12177,13439,1,13439,1,0.00022993,6.5813e-09,0,0.00022993,4.1224e-05,8.5211e+07,2130,0,8.9398e+07,1742.8,13438,12178,1,12178,1,-3.2556e-06,-3.8317e-10,0,0.00011984,6.465e-07,-1.3441e+06,-126,0,4.8518e+07,50.612,12177,10873,1,10873,1,-0.00021979,-4.7339e-09,0,3.2555e-06,-4.3072e-05,-8.9398e+07,-1521.7,0,1.344e+06,-387.49,10872,11561,1,11561,1,-0.00011984,-2.1262e-09,0,6.3361e-05,-2.1213e-05,-4.8741e+07,-701.97,0,2.3948e+07,-8.2661,11560,12795,1,12795,1,0.00011334,6.0328e-10,0,0.00017994,2.2485e-05,4.2415e+07,198.85,0,6.9063e+07,140.91,12794,714.3,0,714.3,0,0.00013469,2.0118e-09,0,6.7366e-05,2.5245e-05,5.2381e+07,658.85,0,2.609e+07,217.45,714.3,1
2468,0.83,12178,1,12178,1,4.8059e-06,-2.0041e-09,0,0.00011815,-8.7182e-07,-1.2998e+05,-659.45,0,4.5972e+07,313.6,12177,13439,1,13439,1,0.00023278,4.4188e-09,0,0.00023278,4.1734e-05,8.6267e+07,1431.5,0,9.0504e+07,3795.9,13438,12178,1,12178,1,-3.2958e-06,-1.4548e-09,0,0.00012131,6.5494e-07,-1.3608e+06,-479.05,0,4.9112e+07,177.3,12177,10873,1,10873,1,-0.00022251,-8.2896e-09,0,3.2958e-06,-4.3606e-05,-9.0504e+07,-2684.5,0,1.3607e+06,-413.75,10872,11561,1,11561,1,-0.00012131,-3.8508e-09,0,6.4137e-05,-2.1475e-05,-4.9339e+07,-1280,0,2.4242e+07,5.0407,11560,12795,1,12795,1,0.00011474,1.7108e-10,0,0.00018215,2.2761e-05,4.294e+07,54.811,0,6.991e+07,399.16,12794,714.3,0,714.3,0,0.00013635,2.7579e-09,0,6.8196e-05,2.5556e-05,5.3027e+07,907.22,0,2.6412e+07,553.75,714.3,1
2468,0.84,12178,1,12178,1,4.8641e-06,-1.9006e-09,0,0.00011958,-8.8282e-07,-1.3156e+05,-624.46,0,4.6527e+07,133.41,12177,13439,1,13439,1,0.00023559,4.8666e-09,0,0.00023559,4.2239e-05,8.7309e+07,1643.5,0,9.1598e+07,2155.3,13438,12178,1,12178,1,-3.3357e-06,-1.257e-09,0,0.00012277,6.6261e-07,-1.3773e+06,-415.41,0,4.9706e+07,71.539,12177,10873,1,10873,1,-0.0002252,-7.7541e-09,0,3.3356e-06,-4.4133e-05,-9.1598e+07,-2494.6,0,1.3772e+06,-342.54,10872,11561,1,11561,1,-0.00012277,-3.9466e-09,0,6.4912e-05,-2.1735e-05,-4.9935e+07,-1303.7,0,2.4534e+07,-34.98,11560,12795,1,12795,1,0.00011613,2.4304e-10,0,0.00018435,2.3036e-05,4.3459e+07,79.017,0,7.0755e+07,203.74,12794,714.3,0,714.3,0,0.000138,2.7065e-09,0,6.902e-05,2.5865e-05,5.3668e+07,889.79,0,2.6731e+07,288.18,714.3,1
2468,0.85,12178,1,12178,1,4.9216e-06,-8.8643e-10,0,0.00012099,-8.9235e-07,-1.3297e+05,-288.3,0,4.7076e+07,512.89,12177,13439,1,13439,1,0.00023838,1.0896e-08,0,0.00023838,4.2738e-05,8.834e+07,3528.7,0,9.2679e+07,4178.7,13438,12178,1,12178,1,-3.3745e-06,-4.7693e-10,0,0.00012422,6.7032e-07,-1.3931e+06,-152.24,0,5.0293e+07,371.68,12177,10873,1,10873,1,-0.00022786,-9.4402e-09,0,3.3744e-06,-4.4654e-05,-9.2679e+07,-3057.1,0,1.3931e+06,-841.19,10872,11561,1,11561,1,-0.00012422,-3.4223e-09,0,6.568e-05,-2.1991e-05,-5.0525e+07,-1136.4,0,2.4824e+07,103.19,11560,12795,1,12795,1,0.0001175,1.1233e-09,0,0.00018653,2.3308e-05,4.3972e+07,374.62,0,7.1591e+07,806.4,12794,714.3,0,714.3,0,0.00013963,3.4732e-09,0,6.9835e-05,2.617e-05,5.4301e+07,1132.7,0,2.7047e+07,660.37,714.3,1
2468,0.86,12178,1,12178,1,4.9797e-06,7.6654e-10,0,0.00012242,-9.0323e-07,-1.3463e+05,252.09,0,4.7633e+07,370.9,12177,13439,1,13439,1,0.00024117,6.086e-09,0,0.00024117,4.324e-05,8.9375e+07,1970.7,0,9.3765e+07,4509.8,13438,12178,1,12178,1,-3.4148e-06,7.5615e-10,0,0.0001257,6.7933e-07,-1.4096e+06,247.37,0,5.0891e+07,105.69,12177,10873,1,10873,1,-0.00023053,-2.8372e-09,0,3.4147e-06,-4.5176e-05,-9.3765e+07,-955.45,0,1.4095e+06,-143.87,10872,11561,1,11561,1,-0.0001257,8.1802e-11,0,6.6461e-05,-2.2248e-05,-5.1126e+07,26.556,0,2.512e+07,26.85,11560,12795,1,12795,1,0.00011888,1.4004e-09,0,0.00018874,2.3585e-05,4.4487e+07,462.27,0,7.2442e+07,435.47,12794,714.3,0,714.3,0,0.00014128,8.6081e-10,0,7.0661e-05,2.6479e-05,5.4943e+07,282.63,0,2.7366e+07,597.08,714.3,1
2468,0.87,12178,1,12178,1,5.0377e-06,1.4316e-10,0,0.00012385,-9.1316e-07,-1.3618e+05,46.054,0,4.8188e+07,617.08,12177,13439,1,13439,1,0.00024397,5.9856e-09,0,0.00024397,4.3742e-05,9.0414e+07,1938.6,0,9.4854e+07,7139.4,13438,12178,1,12178,1,-3.4538e-06,1.4038e-10,0,0.00012717,6.8756e-07,-1.4254e+06,46.439,0,5.1485e+07,212.84,12177,10873,1,10873,1,-0.00023321,-7.544e-09,0,3.4534e-06,-4.5708e-05,-9.4854e+07,-2545.1,0,1.4252e+06,-2273.8,10872,11561,1,11561,1,-0.00012717,-5.485e-11,0,6.7235e-05,-2.2509e-05,-5.1723e+07,-18.194,0,2.5413e+07,-11.371,11560,12795,1,12795,1,0.00012026,3.2067e-10,0,0.00019095,2.3859e-05,4.5004e+07,107.93,0,7.3288e+07,845.66,12794,714.3,0,714.3,0,0.00014293,9.6745e-10,0,7.1484e-05,2.6788e-05,5.5583e+07,317.78,0,2.7685e+07,1074,714.3,1
2468,0.88,12178,1,12178,1,5.096e-06,1.2561e-10,0,0.00012528,-9.2464e-07,-1.378e+05,41.292,0,4.8746e+07,251.37,12177,13439,1,13439,1,0.00024679,1.9683e-09,0,0.00024679,4.4248e-05,9.1458e+07,664.47,0,9.5951e+07,3714.2,13438,12178,1,12178,1,-3.4947e-06,1.3716e-10,0,0.00012864,6.9393e-07,-1.4428e+06,45.739,0,5.2081e+07,68.124,12177,10873,1,10873,1,-0.0002359,-3.8681e-09,0,3.4946e-06,-4.6232e-05,-9.5951e+07,-1312.3,0,1.4427e+06,-633.94,10872,11561,1,11561,1,-0.00012864,-3.1736e-11,0,6.8014e-05,-2.2769e-05,-5.2321e+07,-10.817,0,2.5707e+07,-4.7379,11560,12795,1,12795,1,0.00012165,3.4101e-10,0,0.00019316,2.4136e-05,4.5524e+07,111.77,0,7.4135e+07,309.54,12794,714.3,0,714.3,0,0.00014458,4.1674e-10,0,7.2311e-05,2.7098e-05,5.6226e+07,138.22,0,2.8006e+07,484.06,714.3,1
2468,0.89,12178,1,12178,1,5.1525e-06,-8.0886e-10,0,0.00012667,-9.3458e-07,-1.3931e+05,-265.17,0,4.9286e+07,386.87,12177,13439,1,13439,1,0.00024957,1.0934e-08,0,0.00024957,4.4744e-05,9.2486e+07,3539.7,0,9.703e+07,4390.1,13438,12178,1,12178,1,-3.5331e-06,-9.931e-10,0,0.00013005,7.0253e-07,-1.4585e+06,-330.24,0,5.2654e+07,265.59,12177,10873,1,10873,1,-0.00023856,-8.464e-09,0,3.533e-06,-4.6749e-05,-9.703e+07,-2741.1,0,1.4584e+06,-785.3,10872,11561,1,11561,1,-0.00013005,-4.1755e-09,0,6.8763e-05,-2.3022e-05,-5.2897e+07,-1374.9,0,2.599e+07,37.325,11560,12795,1,12795,1,0.00012302,1.3181e-09,0,0.00019528,2.4403e-05,4.6036e+07,431.58,0,7.4952e+07,577.95,12794,714.3,0,714.3,0,0.00014619,4.1634e-09,0,7.3113e-05,2.7399e-05,5.685e+07,1367,0,2.8316e+07,550.46,714.3,1
2468,0.9,12178,1,12178,1,5.2103e-06,-1.0784e-09,0,0.00012808,-9.4601e-07,-1.4089e+05,-354.67,0,4.9838e+07,2.5287,12177,13439,1,13439,1,0.00025235,6.9742e-09,0,0.00025235,4.5242e-05,9.3516e+07,2258.4,0,9.8111e+07,628.25,13438,12178,1,12178,1,-3.573e-06,-1.182e-09,0,0.00013151,7.0981e-07,-1.4753e+06,-386.4,0,5.3245e+07,0.77029,12177,10873,1,10873,1,-0.00024121,-6.1685e-09,0,3.573e-06,-4.7271e-05,-9.8111e+07,-1997.5,0,1.4753e+06,-381.25,10872,11561,1,11561,1,-0.00013151,-3.7273e-09,0,6.9535e-05,-2.3282e-05,-5.349e+07,-1229.6,0,2.6281e+07,-57.797,11560,12795,1,12795,1,0.00012439,5.81e-10,0,0.00019747,2.4676e-05,4.6549e+07,193.39,0,7.5792e+07,50.239,12794,714.3,0,714.3,0,0.00014782,3.0106e-09,0,7.3931e-05,2.7705e-05,5.7486e+07,991.56,0,2.8633e+07,100.55,714.3,1
2468,0.91,12178,1,12178,1,5.269e-06,-5.7856e-10,0,0.00012953,-9.5646e-07,-1.425e+05,-189.7,0,5.04e+07,85.979,12177,13439,1,13439,1,0.00025519,5.2832e-09,0,0.00025519,4.5752e-05,9.457e+07,1710.9,0,9.9216e+07,1575.4,13438,12178,1,12178,1,-3.6132e-06,-4.1574e-10,0,0.000133,7.1809e-07,-1.4919e+06,-136.41,0,5.3846e+07,44.194,12177,10873,1,10873,1,-0.00024393,-4.6085e-09,0,3.6131e-06,-4.7803e-05,-9.9216e+07,-1492.5,0,1.4918e+06,-201.24,10872,11561,1,11561,1,-0.000133,-2.4185e-09,0,7.032e-05,-2.3543e-05,-5.4094e+07,-803.55,0,2.6578e+07,-13.563,11560,12795,1,12795,1,0.00012579,7.3459e-10,0,0.0001997,2.4954e-05,4.7073e+07,238.64,0,7.6649e+07,106.71,12794,714.3,0,714.3,0,0.00014949,2.18e-09,0,7.4765e-05,2.8018e-05,5.8134e+07,716,0,2.8956e+07,184.45,714.3,1
2468,0.92,12178,1,12178,1,5.3271e-06,1.9126e-09,0,0.00013096,-9.6704e-07,-1.4411e+05,629.19,0,5.0957e+07,77.049,12177,13439,1,13439,1,0.00025802,5.2196e-09,0,0.00025802,4.6258e-05,9.5618e+07,1692.4,0,1.0031e+08,1831.1,13438,12178,1,12178,1,-3.6532e-06,1.9051e-09,0,0.00013446,7.2588e-07,-1.5082e+06,626.89,0,5.444e+07,19.294,12177,10873,1,10873,1,-0.00024663,-2.1011e-09,0,3.6531e-06,-4.8333e-05,-1.0031e+08,-719.03,0,1.5082e+06,-283.69,10872,11561,1,11561,1,-0.00013446,1.1163e-10,0,7.1095e-05,-2.3803e-05,-5.469e+07,36.129,0,2.6871e+07,-34.866,11560,12795,1,12795,1,0.00012718,3.6874e-09,0,0.0002019,2.5229e-05,4.7594e+07,1220.1,0,7.7493e+07,116.71,12794,714.3,0,714.3,0,0.00015114,1.8852e-09,0,7.5591e-05,2.8327e-05,5.8777e+07,620.21,0,2.9276e+07,214.47,714.3,1
2468,0.93,12178,1,12178,1,5.3851e-06,1.8659e-09,0,0.00013238,-9.7736e-07,-1.4561e+05,613.87,0,5.151e+07,158.4,12177,13439,1,13439,1,0.00026082,5.514e-09,0,0.00026082,4.6762e-05,9.6656e+07,1786,0,1.014e+08,2647.5,13438,12178,1,12178,1,-3.6926e-06,1.9197e-09,0,0.00013592,7.3385e-07,-1.5244e+06,616.95,0,5.503e+07,49.759,12177,10873,1,10873,1,-0.00024931,-2.6344e-09,0,3.6926e-06,-4.8857e-05,-1.014e+08,-899.97,0,1.5244e+06,-349.65,10872,11561,1,11561,1,-0.00013592,-1.1941e-11,0,7.1867e-05,-2.4062e-05,-5.5284e+07,-3.904,0,2.7163e+07,-26.112,11560,12795,1,12795,1,0.00012856,3.7359e-09,0,0.00020409,2.5503e-05,4.8111e+07,1240.3,0,7.8333e+07,193.39,12794,714.3,0,714.3,0,0.00015278,1.98e-09,0,7.6412e-05,2.8635e-05,5.9415e+07,651.91,0,2.9594e+07,361.96,714.3,1
2468,0.94,12178,1,12178,1,5.443e-06,-1.4782e-09,0,0.0001338,-9.8796e-07,-1.4711e+05,-486.67,0,5.2062e+07,123.62,12177,13439,1,13439,1,0.00026361,4.5056e-09,0,0.00026361,4.7262e-05,9.7692e+07,1461,0,1.0249e+08,3925.8,13438,12178,1,12178,1,-3.732e-06,-1.1689e-09,0,0.00013738,7.4193e-07,-1.5405e+06,-384.66,0,5.562e+07,38.108,12177,10873,1,10873,1,-0.00025198,-7.4768e-09,0,3.7319e-06,-4.9382e-05,-1.0249e+08,-2421.3,0,1.5405e+06,-482.76,10872,11561,1,11561,1,-0.00013738,-3.3411e-09,0,7.2637e-05,-2.432e-05,-5.5876e+07,-1092.6,0,2.7454e+07,-40.364,11560,12795,1,12795,1,0.00012994,3.6812e-10,0,0.00020628,2.5776e-05,4.8627e+07,121.25,0,7.9173e+07,165.56,12794,714.3,0,714.3,0,0.00015442,2.5674e-09,0,7.723e-05,2.8942e-05,6.0051e+07,844.63,0,2.9911e+07,335.17,714.3,1
2468,0.95,12178,1,12178,1,5.5011e-06,1.0731e-09,0,0.00013523,-9.9875e-07,-1.4871e+05,353.32,0,5.2618e+07,28.27,12177,13439,1,13439,1,0.00026642,5.6287e-09,0,0.00026642,4.7766e-05,9.8733e+07,1850.6,0,1.0358e+08,1424.7,13438,12178,1,12178,1,-3.772e-06,8.7183e-10,0,0.00013885,7.4947e-07,-1.5574e+06,284.74,0,5.6216e+07,8.1224,12177,10873,1,10873,1,-0.00025467,-2.0194e-09,0,3.772e-06,-4.9908e-05,-1.0358e+08,-691.05,0,1.5574e+06,-572.68,10872,11561,1,11561,1,-0.00013885,-2.692e-10,0,7.3416e-05,-2.458e-05,-5.6475e+07,-86.815,0,2.7748e+07,-31.437,11560,12795,1,12795,1,0.00013132,2.2404e-09,0,0.00020849,2.6052e-05,4.9145e+07,739.13,0,8.0022e+07,52.438,12794,714.3,0,714.3,0,0.00015607,1.6219e-09,0,7.8056e-05,2.9251e-05,6.0693e+07,534.53,0,3.023e+07,159.64,714.3,1
2468,0.96,12178,1,12178,1,5.5585e-06,1.7715e-09,0,0.00013664,-1.0082e-06,-1.5022e+05,581.77,0,5.3167e+07,425.62,12177,13439,1,13439,1,0.00026922,8.227e-09,0,0.00026922,4.8268e-05,9.9772e+07,2631.4,0,1.0467e+08,5136.9,13438,12178,1,12178,1,-3.8114e-06,1.5077e-09,0,0.0001403,7.5804e-07,-1.5731e+06,497.51,0,5.6802e+07,144.74,12177,10873,1,10873,1,-0.00025735,-5.6196e-09,0,3.8114e-06,-5.0428e-05,-1.0467e+08,-1850.1,0,1.573e+06,-452.71,10872,11561,1,11561,1,-0.0001403,-6.0538e-10,0,7.418e-05,-2.4836e-05,-5.7063e+07,-198.61,0,2.8037e+07,5.8574,11560,12795,1,12795,1,0.0001327,4.4982e-09,0,0.00021066,2.6324e-05,4.9661e+07,1481.4,0,8.0855e+07,446.05,12794,714.3,0,714.3,0,0.0001577,3.1823e-09,0,7.8871e-05,2.9556e-05,6.1327e+07,1044.3,0,3.0546e+07,751.22,714.3,1
2468,0.97,12178,1,12178,1,5.617e-06,8.4639e-10,0,0.00013808,-1.0198e-06,-1.5183e+05,278.53,0,5.3727e+07,45.37,12177,13439,1,13439,1,0.00027204,6.4512e-09,0,0.00027204,4.8772e-05,1.0081e+08,2088.9,0,1.0577e+08,840.75,13438,12178,1,12178,1,-3.8514e-06,3.4879e-10,0,0.00014178,7.6544e-07,-1.5902e+06,116.76,0,5.7401e+07,37.667,12177,10873,1,10873,1,-0.00026004,-3.094e-09,0,3.8514e-06,-5.096e-05,-1.0577e+08,-1010.9,0,1.5902e+06,-611.22,10872,11561,1,11561,1,-0.00014178,-7.1239e-10,0,7.4962e-05,-2.5097e-05,-5.7665e+07,-236.71,0,2.8332e+07,-23.341,11560,12795,1,12795,1,0.00013409,2.5589e-09,0,0.00021289,2.6601e-05,5.0181e+07,843.79,0,8.1708e+07,97.913,12794,714.3,0,714.3,0,0.00015936,2.0835e-09,0,7.97e-05,2.9867e-05,6.1972e+07,685.27,0,3.0867e+07,152.11,714.3,1
2468,0.98,12178,1,12178,1,5.6749e-06,-1.141e-10,0,0.00013951,-1.0298e-06,-1.5344e+05,-37.615,0,5.4281e+07,240.48,12177,13439,1,13439,1,0.00027482,2.9747e-09,0,0.00027482,4.9272e-05,1.0185e+08,1003.6,0,1.0685e+08,4625.4,13438,12178,1,12178,1,-3.8913e-06,-1.1486e-10,0,0.00014324,7.7336e-07,-1.6067e+06,-38.536,0,5.7995e+07,48.242,12177,10873,1,10873,1,-0.0002627,-3.4888e-09,0,3.8911e-06,-5.1482e-05,-1.0685e+08,-1176.7,0,1.6065e+06,-779.6,10872,11561,1,11561,1,-0.00014324,-2.8209e-10,0,7.5737e-05,-2.5355e-05,-5.8262e+07,-92.283,0,2.8626e+07,-23.915,11560,12795,1,12795,1,0.00013546,6.8265e-11,0,0.00021509,2.6877e-05,5.0695e+07,22.585,0,8.2554e+07,252.66,12794,714.3,0,714.3,0,0.000161,3.9383e-10,0,8.0523e-05,3.0175e-05,6.2612e+07,130.33,0,3.1186e+07,549.02,714.3,1
2468,0.99,12178,1,12178,1,5.7326e-06,-1.2583e-09,0,0.00014093,-1.0399e-06,-1.5498e+05,-413.99,0,5.4834e+07,365.68,12177,13439,1,13439,1,0.00027763,1.0688e-09,0,0.00027763,4.9776e-05,1.0289e+08,345.99,0,1.0794e+08,2922.8,13438,12178,1,12178,1,-3.9308e-06,-9.073e-10,0,0.0001447,7.816e-07,-1.623e+06,-291.04,0,5.8584e+07,203.3,12177,10873,1,10873,1,-0.00026539,-4.2951e-09,0,3.9308e-06,-5.2008e-05,-1.0794e+08,-1380.5,0,1.6229e+06,-129.32,10872,11561,1,11561,1,-0.0001447,-2.4502e-09,0,7.6506e-05,-2.5613e-05,-5.8854e+07,-813.57,0,2.8916e+07,61.368,11560,12795,1,12795,1,0.00013685,-7.8514e-11,0,0.00021727,2.715e-05,5.1213e+07,-26.054,0,8.3392e+07,489.94,12794,714.3,0,714.3,0,0.00016264,1.3593e-09,0,8.1342e-05,3.0482e-05,6.3249e+07,445.89,0,3.1503e+07,461.24,714.3,1
2468,1,12178,1,12178,1,5.7906e-06,1.9207e-09,0,0.00014235,-1.051e-06,-1.5656e+05,631.28,0,5.5388e+07,167.98,12177,13439,1,13439,1,0.00028046,6.8155e-09,0,0.00028046,5.0282e-05,1.0393e+08,2179.8,0,1.0904e+08,2860.2,13438,12178,1,12178,1,-3.9706e-06,1.8448e-09,0,0.00014616,7.8746e-07,-1.6393e+06,608.91,0,5.9174e+07,59.402,12177,10873,1,10873,1,-0.00026808,-2.4223e-09,0,3.9705e-06,-5.2536e-05,-1.0904e+08,-784.45,0,1.6392e+06,-946.99,10872,11561,1,11561,1,-0.00014616,4.2439e-11,0,7.7278e-05,-2.5874e-05,-5.9446e+07,13.919,0,2.9208e+07,-35.857,11560,12795,1,12795,1,0.00013824,3.8029e-09,0,0.00021946,2.7423e-05,5.1733e+07,1263.6,0,8.4232e+07,196.97,12794,714.3,0,714.3,0,0.00016428,2.0728e-09,0,8.2165e-05,3.0791e-05,6.3888e+07,678.84,0,3.1822e+07,421.03,714.3,1
2468,1.01,12178,1,12178,1,5.8487e-06,2.7317e-10,0,0.00014378,-1.0618e-06,-1.5817e+05,90.159,0,5.5944e+07,34.067,12177,13439,1,13439,1,0.00028324,3.6531e-09,0,0.00028324,5.078e-05,1.0496e+08,1183,0,1.1012e+08,1744.9,13438,12178,1,12178,1,-4.0107e-06,9.4547e-11,0,0.00014763,7.9714e-07,-1.6558e+06,31.893,0,5.9771e+07,7.1357,12177,10873,1,10873,1,-0.00027074,-1.0854e-09,0,4.0107e-06,-5.3058e-05,-1.1012e+08,-348.89,0,1.6558e+06,-422.82,10872,11561,1,11561,1,-0.00014763,-3.8706e-10,0,7.8058e-05,-2.6131e-05,-6.0046e+07,-128.31,0,2.9502e+07,-27.047,11560,12795,1,12795,1,0.00013961,7.1067e-10,0,0.00022168,2.77e-05,5.2247e+07,235.37,0,8.5082e+07,55.306,12794,714.3,0,714.3,0,0.00016593,8.8943e-10,0,8.2989e-05,3.11e-05,6.4529e+07,292.34,0,3.2141e+07,167.99,714.3,1
2468,1.02,12178,1,12178,1,5.9064e-06,-1.5866e-09,0,0.0001452,-1.0714e-06,-1.5973e+05,-522.34,0,5.6497e+07,420.21,12177,13439,1,13439,1,0.00028606,3.0376e-09,0,0.00028606,5.1285e-05,1.0601e+08,985.06,0,1.1122e+08,5068.7,13438,12178,1,12178,1,-4.0503e-06,-1.4168e-09,0,0.00014908,8.0558e-07,-1.6719e+06,-467.07,0,6.0359e+07,98.485,12177,10873,1,10873,1,-0.00027344,-4.7168e-09,0,4.0501e-06,-5.3586e-05,-1.1122e+08,-1591.6,0,1.6719e+06,-270.26,10872,11561,1,11561,1,-0.00014908,-2.7263e-09,0,7.8824e-05,-2.6391e-05,-6.0637e+07,-902.44,0,2.9792e+07,-11.438,11560,12795,1,12795,1,0.000141,-3.8181e-10,0,0.00022386,2.7972e-05,5.2766e+07,-123,0,8.5919e+07,590.86,12794,714.3,0,714.3,0,0.00016757,1.4634e-09,0,8.381e-05,3.1407e-05,6.5167e+07,482.21,0,3.2459e+07,753.52,714.3,1
2468,1.03,12178,1,12178,1,5.9647e-06,-1.7971e-10,0,0.00014663,-1.0828e-06,-1.6132e+05,-59.184,0,5.7054e+07,95.327,12177,13439,1,13439,1,0.00028886,2.6027e-09,0,0.00028886,5.1788e-05,1.0705e+08,843.17,0,1.1231e+08,3569.8,13438,12178,1,12178,1,-4.0904e-06,-2.2064e-10,0,0.00015056,8.1272e-07,-1.6889e+06,-73.073,0,6.0957e+07,6.6273,12177,10873,1,10873,1,-0.00027612,-1.7076e-09,0,4.0903e-06,-5.4112e-05,-1.1231e+08,-553,0,1.6889e+06,-337.19,10872,11561,1,11561,1,-0.00015056,-7.3563e-10,0,7.9606e-05,-2.665e-05,-6.1238e+07,-241.53,0,3.0088e+07,-22.659,11560,12795,1,12795,1,0.00014238,1.8971e-10,0,0.00022608,2.825e-05,5.3284e+07,60.994,0,8.677e+07,66.604,12794,714.3,0,714.3,0,0.00016923,8.015e-10,0,8.4636e-05,3.1717e-05,6.581e+07,264.09,0,3.2779e+07,314.71,714.3,1
2468,1.04,12178,1,12178,1,6.0222e-06,-5.8232e-10,0,0.00014804,-1.0928e-06,-1.6283e+05,-191.67,0,5.7603e+07,240.32,12177,13439,1,13439,1,0.00029165,2.4073e-09,0,0.00029165,5.2287e-05,1.0808e+08,751.48,0,1.1339e+08,3388.6,13438,12178,1,12178,1,-4.1296e-06,-6.3142e-10,0,0.00015201,8.2086e-07,-1.7047e+06,-203.19,0,6.1543e+07,29.245,12177,10873,1,10873,1,-0.00027878,-4.1628e-09,0,4.1296e-06,-5.4633e-05,-1.1339e+08,-1402.5,0,1.7047e+06,-244.86,10872,11561,1,11561,1,-0.00015201,-1.2429e-09,0,8.0372e-05,-2.6907e-05,-6.1827e+07,-412.2,0,3.0377e+07,-8.2268,11560,12795,1,12795,1,0.00014376,9.1213e-11,0,0.00022825,2.8521e-05,5.3798e+07,29.76,0,8.7605e+07,225.01,12794,714.3,0,714.3,0,0.00017085,8.1111e-10,0,8.5451e-05,3.2022e-05,6.6443e+07,266.55,0,3.3095e+07,478.98,714.3,1
2468,1.05,12178,1,12178,1,6.0802e-06,2.5459e-09,0,0.00014946,-1.1032e-06,-1.6429e+05,837.17,0,5.8156e+07,294.22,12177,13439,1,13439,1,0.00029449,9.5932e-09,0,0.00029449,5.2798e-05,1.0913e+08,3105.4,0,1.1449e+08,4534.7,13438,12178,1,12178,1,-4.1685e-06,2.3037e-09,0,0.00015346,8.291e-07,-1.721e+06,761.37,0,6.213e+07,43.051,12177,10873,1,10873,1,-0.00028149,-1.9988e-09,0,4.1684e-06,-5.5164e-05,-1.1449e+08,-684.42,0,1.721e+06,-888.63,10872,11561,1,11561,1,-0.00015346,6.0702e-11,0,8.1139e-05,-2.7167e-05,-6.2416e+07,20.787,0,3.0667e+07,-73.017,11560,12795,1,12795,1,0.00014515,4.7816e-09,0,0.00023043,2.8793e-05,5.432e+07,1578.7,0,8.8439e+07,321.27,12794,714.3,0,714.3,0,0.00017249,2.6615e-09,0,8.627e-05,3.2329e-05,6.708e+07,874.62,0,3.3412e+07,770.13,714.3,1
2468,1.06,12178,1,12178,1,6.1381e-06,2.0125e-09,0,0.00015089,-1.1141e-06,-1.6598e+05,662.04,0,5.8712e+07,160.15,12177,13439,1,13439,1,0.00029729,1.0123e-08,0,0.00029729,5.3299e-05,1.1017e+08,3278.3,0,1.1558e+08,2371.5,13438,12178,1,12178,1,-4.2087e-06,1.3079e-09,0,0.00015493,8.354e-07,-1.7376e+06,434.73,0,6.2726e+07,56.406,12177,10873,1,10873,1,-0.00028417,-1.5225e-09,0,4.2086e-06,-5.5691e-05,-1.1558e+08,-521.32,0,1.7376e+06,-584.98,10872,11561,1,11561,1,-0.00015493,-1.2623e-10,0,8.1917e-05,-2.7426e-05,-6.3015e+07,-41.577,0,3.0961e+07,-15.479,11560,12795,1,12795,1,0.00014654,3.6887e-09,0,0.00023264,2.9069e-05,5.4837e+07,1220.8,0,8.9288e+07,224.38,12794,714.3,0,714.3,0,0.00017414,2.4881e-09,0,8.7095e-05,3.2638e-05,6.7722e+07,818.1,0,3.3731e+07,311.08,714.3,1
2468,1.07,12178,1,12178,1,6.1966e-06,-2.0488e-11,0,0.00015233,-1.1249e-06,-1.6755e+05,-7.0107,0,5.927e+07,75.541,12177,13439,1,13439,1,0.00030008,2.356e-09,0,0.00030008,5.3799e-05,1.1121e+08,795.23,0,1.1667e+08,3048.8,13438,12178,1,12178,1,-4.2489e-06,2.1573e-11,0,0.00015641,8.4451e-07,-1.7543e+06,7.1492,0,6.3325e+07,8.4533,12177,10873,1,10873,1,-0.00028684,-1.94e-09,0,4.2488e-06,-5.6213e-05,-1.1667e+08,-655.05,0,1.7543e+06,-291.15,10872,11561,1,11561,1,-0.00015641,-3.9146e-10,0,8.2699e-05,-2.7685e-05,-6.3617e+07,-130.03,0,3.1257e+07,-9.2388,11560,12795,1,12795,1,0.00014791,2.6222e-10,0,0.00023486,2.9347e-05,5.5353e+07,86.075,0,9.0141e+07,42.719,12794,714.3,0,714.3,0,0.0001758,5.0232e-10,0,8.7924e-05,3.2949e-05,6.8366e+07,165.43,0,3.4052e+07,257.48,714.3,1
2468,1.08,12178,1,12178,1,6.254e-06,-5.5684e-10,0,0.00015374,-1.1347e-06,-1.6909e+05,-183.08,0,5.982e+07,314.8,12177,13439,1,13439,1,0.00030288,3.9577e-09,0,0.00030288,5.4301e-05,1.1224e+08,1281.7,0,1.1776e+08,3120.7,13438,12178,1,12178,1,-4.2884e-06,-4.0722e-10,0,0.00015786,8.5238e-07,-1.7704e+06,-133.19,0,6.3912e+07,71.363,12177,10873,1,10873,1,-0.00028951,-4.1523e-09,0,4.2884e-06,-5.6737e-05,-1.1776e+08,-1344.6,0,1.7703e+06,-437.46,10872,11561,1,11561,1,-0.00015786,-1.8015e-09,0,8.3465e-05,-2.7943e-05,-6.4206e+07,-592.91,0,3.1546e+07,-33.015,11560,12795,1,12795,1,0.00014929,5.7415e-10,0,0.00023704,2.9619e-05,5.5869e+07,187.41,0,9.0976e+07,392.83,12794,714.3,0,714.3,0,0.00017743,1.5754e-09,0,8.874e-05,3.3255e-05,6.9001e+07,516.59,0,3.4368e+07,618.82,714.3,1
2468,1.09,12178,1,12178,1,6.3119e-06,1.5041e-09,0,0.00015517,-1.1452e-06,-1.7072e+05,493.94,0,6.0375e+07,320.28,12177,13439,1,13439,1,0.0003057,7.9056e-09,0,0.0003057,5.4808e-05,1.1329e+08,2559.5,0,1.1885e+08,4170.2,13438,12178,1,12178,1,-4.3281e-06,1.375e-09,0,0.00015932,8.585e-07,-1.7869e+06,452.01,0,6.4503e+07,169.03,12177,10873,1,10873,1,-0.00029221,-2.6839e-09,0,4.328e-06,-5.7264e-05,-1.1885e+08,-869.24,0,1.7869e+06,-1160.6,10872,11561,1,11561,1,-0.00015932,-2.5558e-10,0,8.4238e-05,-2.8203e-05,-6.48e+07,-86.298,0,3.1838e+07,31.138,11560,12795,1,12795,1,0.00015068,3.0729e-09,0,0.00023923,2.9893e-05,5.6389e+07,1016.9,0,9.1818e+07,451.37,12794,714.3,0,714.3,0,0.00017908,1.9492e-09,0,8.9563e-05,3.3563e-05,6.964e+07,638.77,0,3.4687e+07,501.19,714.3,1
2468,1.1,12178,1,12178,1,6.3695e-06,2.5216e-09,0,0.00015658,-1.1561e-06,-1.7228e+05,829.31,0,6.0925e+07,134.93,12177,13439,1,13439,1,0.0003085,7.9925e-09,0,0.0003085,5.531e-05,1.1433e+08,2644,0,1.1994e+08,2822.7,13438,12178,1,12178,1,-4.3674e-06,2.5491e-09,0,0.00016076,8.6781e-07,-1.8033e+06,842.24,0,6.5088e+07,56.418,12177,10873,1,10873,1,-0.00029489,-3.766e-09,0,4.3674e-06,-5.7791e-05,-1.1994e+08,-1288.7,0,1.8033e+06,-464.06,10872,11561,1,11561,1,-0.00016076,-2.9828e-10,0,8.5002e-05,-2.8461e-05,-6.5387e+07,-96.05,0,3.2127e+07,-32.237,11560,12795,1,12795,1,0.00015206,5.3002e-09,0,0.0002414,3.0164e-05,5.6906e+07,1753,0,9.265e+07,169.27,12794,714.3,0,714.3,0,0.00018071,2.9761e-09,0,9.0379e-05,3.3869e-05,7.0275e+07,979.36,0,3.5003e+07,341.33,714.3,1
2468,1.11,12178,1,12178,1,6.4271e-06,-1.3502e-09,0,0.000158,-1.1665e-06,-1.7382e+05,-443.69,0,6.1476e+07,185.69,12177,13439,1,13439,1,0.00031128,7.4641e-09,0,0.00031128,5.5807e-05,1.1536e+08,2417.5,0,1.2102e+08,3944.3,13438,12178,1,12178,1,-4.4073e-06,-1.0516e-09,0,0.00016222,8.765e-07,-1.8195e+06,-348.22,0,6.5679e+07,63.672,12177,10873,1,10873,1,-0.00029755,-7.8236e-09,0,4.4072e-06,-5.8312e-05,-1.2102e+08,-2533.7,0,1.8195e+06,-644.52,10872,11561,1,11561,1,-0.00016222,-4.1268e-09,0,8.5773e-05,-2.8718e-05,-6.5982e+07,-1349.7,0,3.2418e+07,-28.753,11560,12795,1,12795,1,0.00015343,6.3965e-10,0,0.00024359,3.0438e-05,5.7419e+07,203.32,0,9.3492e+07,230.1,12794,714.3,0,714.3,0,0.00018234,3.2273e-09,0,9.1196e-05,3.4175e-05,7.0911e+07,1060.7,0,3.532e+07,441.94,714.3,1
2468,1.12,12178,1,12178,1,6.4856e-06,-1.8138e-09,0,0.00015943,-1.1776e-06,-1.7542e+05,-596.89,0,6.2035e+07,0.18634,12177,13439,1,13439,1,0.00031411,1.9793e-09,0,0.00031411,5.6314e-05,1.164e+08,640.9,0,1.2212e+08,267.22,13438,12178,1,12178,1,-4.4472e-06,-1.3946e-09,0,0.0001637,8.8353e-07,-1.8363e+06,-451.31,0,6.6277e+07,-4.5079,12177,10873,1,10873,1,-0.00030025,-7.0345e-09,0,4.4471e-06,-5.8841e-05,-1.2212e+08,-2278.1,0,1.8363e+06,-263.2,10872,11561,1,11561,1,-0.0001637,-3.6676e-09,0,8.6554e-05,-2.8979e-05,-6.6582e+07,-1203,0,3.2713e+07,-46.137,11560,12795,1,12795,1,0.00015483,3.7505e-11,0,0.00024581,3.0715e-05,5.7941e+07,12.29,0,9.4343e+07,47.202,12794,714.3,0,714.3,0,0.000184,2.2397e-09,0,9.2026e-05,3.4486e-05,7.1556e+07,737.52,0,3.5641e+07,72.167,714.3,1
2468,1.13,12178,1,12178,1,6.5434e-06,-9.9464e-10,0,0.00016085,-1.188e-06,-1.7695e+05,-327.13,0,6.2588e+07,15.251,12177,13439,1,13439,1,0.0003169,3.4244e-09,0,0.0003169,5.6815e-05,1.1744e+08,1108.9,0,1.2321e+08,865.44,13438,12178,1,12178,1,-4.4869e-06,-6.4223e-10,0,0.00016516,8.9181e-07,-1.8526e+06,-213.3,0,6.6868e+07,1.8569,12177,10873,1,10873,1,-0.00030292,-5.7477e-09,0,4.4869e-06,-5.9363e-05,-1.2321e+08,-1861.3,0,1.8526e+06,-238.96,10872,11561,1,11561,1,-0.00016516,-2.8584e-09,0,8.7326e-05,-2.9237e-05,-6.7176e+07,-951.36,0,3.3005e+07,-39.259,11560,12795,1,12795,1,0.0001562,5.8307e-10,0,0.000248,3.0989e-05,5.8455e+07,195.74,0,9.5184e+07,56.659,12794,714.3,0,714.3,0,0.00018564,2.1558e-09,0,9.2845e-05,3.4793e-05,7.2193e+07,709.67,0,3.5958e+07,95.597,714.3,1
2468,1.14,12178,1,12178,1,6.6009e-06,-6.6311e-10,0,0.00016227,-1.1985e-06,-1.7859e+05,-218.13,0,6.314e+07,-3.9628,12177,13439,1,13439,1,0.00031968,1.7148e-09,0,0.00031968,5.7313e-05,1.1847e+08,551.2,0,1.2429e+08,95.302,13438,12178,1,12178,1,-4.5267e-06,-3.5663e-10,0,0.00016662,8.9938e-07,-1.8691e+06,-117.75,0,6.7458e+07,-2.384,12177,10873,1,10873,1,-0.00030558,-3.8347e-09,0,4.5267e-06,-5.9885e-05,-1.2429e+08,-1260,0,1.8691e+06,-170.21,10872,11561,1,11561,1,-0.00016662,-1.7753e-09,0,8.8097e-05,-2.9493e-05,-6.7769e+07,-581.89,0,3.3297e+07,-24.704,11560,12795,1,12795,1,0.00015758,3.3717e-10,0,0.00025019,3.1263e-05,5.8969e+07,108.7,0,9.6025e+07,18.083,12794,714.3,0,714.3,0,0.00018728,1.3317e-09,0,9.3664e-05,3.51e-05,7.2829e+07,438.57,0,3.6275e+07,37.692,714.3,1
2468,1.15,12178,1,12178,1,6.6595e-06,2.4383e-10,0,0.00016371,-1.2091e-06,-1.8012e+05,80.267,0,6.3699e+07,16.098,12177,13439,1,13439,1,0.00032251,5.4901e-09,0,0.00032251,5.782e-05,1.1952e+08,1777.9,0,1.2539e+08,1144.4,13438,12178,1,12178,1,-4.5666e-06,-1.3756e-10,0,0.0001681,9.0766e-07,-1.8854e+06,-46.185,0,6.8056e+07,4.2181,12177,10873,1,10873,1,-0.00030828,-2.1957e-09,0,4.5666e-06,-6.0414e-05,-1.2539e+08,-711.06,0,1.8854e+06,-173.99,10872,11561,1,11561,1,-0.0001681,-8.4643e-10,0,8.8878e-05,-2.9754e-05,-6.837e+07,-277.9,0,3.3592e+07,-40.414,11560,12795,1,12795,1,0.00015897,8.3276e-10,0,0.00025241,3.154e-05,5.949e+07,276.79,0,9.6876e+07,47.475,12794,714.3,0,714.3,0,0.00018893,1.6211e-09,0,9.4493e-05,3.5411e-05,7.3474e+07,534.15,0,3.6597e+07,110.69,714.3,1
2468,1.16,12178,1,12178,1,6.717e-06,-2.1436e-10,0,0.00016512,-1.2196e-06,-1.8163e+05,-70.354,0,6.4247e+07,-3.5574,12177,13439,1,13439,1,0.00032528,3.6991e-09,0,0.00032528,5.8318e-05,1.2055e+08,1198.1,0,1.2647e+08,688.4,13438,12178,1,12178,1,-4.6058e-06,-3.0665e-11,0,0.00016954,9.1528e-07,-1.9017e+06,-10.503,0,6.8642e+07,1.5199,12177,10873,1,10873,1,-0.00031093,-4.2298e-09,0,4.6058e-06,-6.0933e-05,-1.2647e+08,-1369.8,0,1.9017e+06,-300.9,10872,11561,1,11561,1,-0.00016954,-1.4711e-09,0,8.9643e-05,-3.001e-05,-6.8958e+07,-483.38,0,3.3881e+07,-58.399,11560,12795,1,12795,1,0.00016034,8.6022e-10,0,0.00025458,3.1811e-05,6.0002e+07,283.57,0,9.7709e+07,41.892,12794,714.3,0,714.3,0,0.00019056,1.6334e-09,0,9.5306e-05,3.5715e-05,7.4106e+07,537.44,0,3.6911e+07,114.48,714.3,1
2468,1.17,12178,1,12178,1,6.7753e-06,-2.5393e-11,0,0.00016654,-1.2301e-06,-1.8311e+05,-8.4748,0,6.4802e+07,42.795,12177,13439,1,13439,1,0.00032809,2.1493e-09,0,0.00032809,5.8822e-05,1.2159e+08,696.04,0,1.2756e+08,730.67,13438,12178,1,12178,1,-4.6454e-06,1.1353e-11,0,0.00017101,9.2349e-07,-1.9181e+06,3.5656,0,6.9236e+07,21.218,12177,10873,1,10873,1,-0.00031362,-3.9231e-09,0,4.6454e-06,-6.1461e-05,-1.2756e+08,-1340.3,0,1.9181e+06,-174.78,10872,11561,1,11561,1,-0.00017101,-6.442e-10,0,9.0418e-05,-3.0269e-05,-6.9554e+07,-212.88,0,3.4174e+07,-17.407,11560,12795,1,12795,1,0.00016172,9.1233e-10,0,0.00025678,3.2086e-05,6.052e+07,303,0,9.8555e+07,53.064,12794,714.3,0,714.3,0,0.00019221,1.2332e-09,0,9.613e-05,3.6024e-05,7.4747e+07,406.38,0,3.7231e+07,115.57,714.3,1
2468,1.18,12178,1,12178,1,6.8335e-06,1.4663e-10,0,0.00016798,-1.2407e-06,-1.8477e+05,48.203,0,6.5361e+07,16.329,12177,13439,1,13439,1,0.00033092,1.4726e-09,0,0.00033092,5.9328e-05,1.2263e+08,497.03,0,1.2866e+08,548.29,13438,12178,1,12178,1,-4.6856e-06,8.0808e-11,0,0.00017248,9.3131e-07,-1.9347e+06,26.652,0,6.9833e+07,6.6508,12177,10873,1,10873,1,-0.00031632,-2.0972e-09,0,4.6856e-06,-6.199e-05,-1.2866e+08,-707.94,0,1.9347e+06,-100.49,10872,11561,1,11561,1,-0.00017248,-2.175e-10,0,9.1198e-05,-3.053e-05,-7.0154e+07,-69.929,0,3.4469e+07,-19.512,11560,12795,1,12795,1,0.00016311,5.5163e-10,0,0.00025899,3.2363e-05,6.1041e+07,180.63,0,9.9404e+07,37.71,12794,714.3,0,714.3,0,0.00019386,6.0233e-10,0,9.696e-05,3.6335e-05,7.5392e+07,198.88,0,3.7552e+07,62.034,714.3,1
2468,1.19,12178,1,12178,1,6.8905e-06,-9.0782e-10,0,0.00016939,-1.2505e-06,-1.8633e+05,-298.3,0,6.5908e+07,250.85,12177,13439,1,13439,1,0.00033371,5.7781e-09,0,0.00033371,5.9829e-05,1.2367e+08,1871.3,0,1.2974e+08,4826.3,13438,12178,1,12178,1,-4.7249e-06,-6.2183e-10,0,0.00017392,9.3991e-07,-1.9507e+06,-200.36,0,7.0415e+07,142.05,12177,10873,1,10873,1,-0.00031899,-6.5145e-09,0,4.7249e-06,-6.2511e-05,-1.2974e+08,-2109.7,0,1.9507e+06,-316.05,10872,11561,1,11561,1,-0.00017392,-3.1729e-09,0,9.1958e-05,-3.0787e-05,-7.0739e+07,-1060.1,0,3.4756e+07,18.567,11560,12795,1,12795,1,0.00016449,8.513e-10,0,0.00026115,3.2633e-05,6.1556e+07,273.73,0,1.0023e+08,323.47,12794,714.3,0,714.3,0,0.00019549,2.693e-09,0,9.777e-05,3.6639e-05,7.6022e+07,884.34,0,3.7866e+07,387.61,714.3,1
2468,1.2,12178,1,12178,1,6.9488e-06,1.7531e-09,0,0.00017082,-1.2616e-06,-1.8791e+05,577.01,0,6.6464e+07,15.682,12177,13439,1,13439,1,0.00033653,6.8298e-09,0,0.00033653,6.0334e-05,1.2471e+08,2211.6,0,1.3084e+08,569.35,13438,12178,1,12178,1,-4.7646e-06,1.5079e-09,0,0.00017539,9.4707e-07,-1.9673e+06,501.54,0,7.101e+07,11.989,12177,10873,1,10873,1,-0.00032168,-2.7977e-09,0,4.7645e-06,-6.3041e-05,-1.3084e+08,-944.58,0,1.9673e+06,-278.35,10872,11561,1,11561,1,-0.00017539,7.3434e-11,0,9.2735e-05,-3.1047e-05,-7.1337e+07,24.44,0,3.505e+07,-23.149,11560,12795,1,12795,1,0.00016588,3.3589e-09,0,0.00026336,3.2908e-05,6.2076e+07,1107.6,0,1.0108e+08,51.183,12794,714.3,0,714.3,0,0.00019714,2.0071e-09,0,9.8596e-05,3.6948e-05,7.6664e+07,661.37,0,3.8186e+07,71.523,714.3,1
2468,1.21,12178,1,12178,1,7.0066e-06,-4.8212e-10,0,0.00017224,-1.2721e-06,-1.895e+05,-158.33,0,6.7017e+07,22.713,12177,13439,1,13439,1,0.00033931,2.6583e-09,0,0.00033931,6.0833e-05,1.2575e+08,860.62,0,1.3192e+08,553.88,13438,12178,1,12178,1,-4.8046e-06,-1.6614e-10,0,0.00017685,9.5492e-07,-1.9838e+06,-54.897,0,7.1602e+07,16.653,12177,10873,1,10873,1,-0.00032434,-4.1436e-09,0,4.8046e-06,-6.3563e-05,-1.3192e+08,-1341.9,0,1.9838e+06,-244.13,10872,11561,1,11561,1,-0.00017685,-1.6833e-09,0,9.3508e-05,-3.1305e-05,-7.1932e+07,-554.9,0,3.5342e+07,-15.348,11560,12795,1,12795,1,0.00016725,5.5222e-10,0,0.00026556,3.3183e-05,6.259e+07,181.54,0,1.0192e+08,48.318,12794,714.3,0,714.3,0,0.00019878,1.5113e-09,0,9.9416e-05,3.7256e-05,7.7302e+07,496.95,0,3.8503e+07,83.156,714.3,1
2468,1.22,12178,1,12178,1,7.065e-06,-5.3727e-10,0,0.00017367,-1.2828e-06,-1.9097e+05,-176.97,0,6.7574e+07,-9.7333,12177,13439,1,13439,1,0.00034213,2.7069e-09,0,0.00034213,6.1338e-05,1.2679e+08,876.58,0,1.3302e+08,69.879,13438,12178,1,12178,1,-4.8439e-06,-3.0512e-10,0,0.00017832,9.6241e-07,-2.0001e+06,-101.78,0,7.2197e+07,-4.472,12177,10873,1,10873,1,-0.00032703,-3.6136e-09,0,4.8438e-06,-6.409e-05,-1.3302e+08,-1210.5,0,2.0001e+06,-186.62,10872,11561,1,11561,1,-0.00017832,-1.5709e-09,0,9.4285e-05,-3.1564e-05,-7.2529e+07,-521.66,0,3.5635e+07,-35.937,11560,12795,1,12795,1,0.00016864,3.2856e-10,0,0.00026776,3.3458e-05,6.3109e+07,108.96,0,1.0277e+08,21.081,12794,714.3,0,714.3,0,0.00020043,1.387e-09,0,0.00010024,3.7565e-05,7.7944e+07,457.02,0,3.8823e+07,39.102,714.3,1
2468,1.23,12178,1,12178,1,7.1227e-06,-4.7886e-10,0,0.00017509,-1.2932e-06,-1.9261e+05,-157.61,0,6.8128e+07,10.655,12177,13439,1,13439,1,0.00034493,1.6522e-09,0,0.00034493,6.184e-05,1.2783e+08,534.99,0,1.3411e+08,543.02,13438,12178,1,12178,1,-4.884e-06,-2.6807e-10,0,0.00017978,9.7063e-07,-2.0166e+06,-87.446,0,7.2788e+07,7.3832,12177,10873,1,10873,1,-0.00032971,-3.0588e-09,0,4.884e-06,-6.4615e-05,-1.3411e+08,-1033.3,0,2.0166e+06,-128.83,10872,11561,1,11561,1,-0.00017978,-1.2888e-09,0,9.5058e-05,-3.1823e-05,-7.3124e+07,-423.67,0,3.5927e+07,-17.135,11560,12795,1,12795,1,0.00017002,2.4417e-10,0,0.00026996,3.3732e-05,6.3626e+07,82.725,0,1.0361e+08,27.193,12794,714.3,0,714.3,0,0.00020207,1.0498e-09,0,0.00010106,3.7873e-05,7.8583e+07,345.66,0,3.9141e+07,57.286,714.3,1
2468,1.24,12178,1,12178,1,7.181e-06,-1.3922e-09,0,0.00017651,-1.3038e-06,-1.9401e+05,-458.03,0,6.868e+07,-9.872,12177,13439,1,13439,1,0.00034775,4.7318e-09,0,0.00034775,6.2347e-05,1.2887e+08,1532.3,0,1.352e+08,479.45,13438,12178,1,12178,1,-4.9228e-06,-8.335e-10,0,0.00018123,9.7818e-07,-2.0327e+06,-277.72,0,7.3376e+07,-17.373,12177,10873,1,10873,1,-0.00033241,-8.1436e-09,0,4.9228e-06,-6.5144e-05,-1.352e+08,-2670.2,0,2.0327e+06,-263.66,10872,11561,1,11561,1,-0.00018123,-4.0285e-09,0,9.5826e-05,-3.2083e-05,-7.3714e+07,-1322.8,0,3.6218e+07,-83.504,11560,12795,1,12795,1,0.00017141,8.0072e-10,0,0.00027214,3.4005e-05,6.4147e+07,263.53,0,1.0445e+08,55.9,12794,714.3,0,714.3,0,0.00020371,3.0506e-09,0,0.00010188,3.818e-05,7.922e+07,1004.6,0,3.9459e+07,100.41,714.3,1
2468,1.25,12178,1,12178,1,7.2387e-06,1.0626e-09,0,0.00017794,-1.3143e-06,-1.9575e+05,349.52,0,6.9237e+07,1.5126,12177,13439,1,13439,1,0.00035055,4.7887e-09,0,0.00035055,6.2848e-05,1.2991e+08,1539.3,0,1.3629e+08,460.04,13438,12178,1,12178,1,-4.9634e-06,8.2395e-10,0,0.00018271,9.8643e-07,-2.0493e+06,271.28,0,7.3973e+07,-5.1823,12177,10873,1,10873,1,-0.00033509,-1.7226e-09,0,4.9633e-06,-6.5668e-05,-1.3629e+08,-557.83,0,2.0493e+06,-139.48,10872,11561,1,11561,1,-0.00018271,1.6352e-11,0,9.6605e-05,-3.2341e-05,-7.4313e+07,5.3509,0,3.6512e+07,-28.471,11560,12795,1,12795,1,0.00017279,2.0824e-09,0,0.00027435,3.4281e-05,6.4663e+07,686.44,0,1.053e+08,27.93,12794,714.3,0,714.3,0,0.00020536,1.3513e-09,0,0.00010271,3.8489e-05,7.9862e+07,444.45,0,3.9778e+07,56.056,714.3,1
2468,1.26,12178,1,12178,1,7.2966e-06,1.8365e-09,0,0.00017937,-1.3248e-06,-1.9738e+05,604.03,0,6.9791e+07,2.0975,12177,13439,1,13439,1,0.00035337,4.9216e-09,0,0.00035337,6.3353e-05,1.3095e+08,1595.3,0,1.3739e+08,1224.4,13438,12178,1,12178,1,-5.0029e-06,1.7875e-09,0,0.00018417,9.9387e-07,-2.0657e+06,590.72,0,7.4563e+07,-11.004,12177,10873,1,10873,1,-0.00033778,-6.8313e-10,0,5.0029e-06,-6.6196e-05,-1.3739e+08,-233.97,0,2.0657e+06,-203.26,10872,11561,1,11561,1,-0.00018417,3.9018e-10,0,9.7376e-05,-3.2601e-05,-7.4906e+07,129.38,0,3.6803e+07,-43.324,11560,12795,1,12795,1,0.00017418,3.2438e-09,0,0.00027654,3.4555e-05,6.5182e+07,1066.3,0,1.0614e+08,31.215,12794,714.3,0,714.3,0,0.000207,1.5426e-09,0,0.00010353,3.8798e-05,8.0502e+07,507.3,0,4.0097e+07,90.286,714.3,1
2468,1.27,12178,1,12178,1,7.3548e-06,-1.3837e-09,0,0.00018079,-1.3354e-06,-1.989e+05,-455.6,0,7.0346e+07,2.244,12177,13439,1,13439,1,0.00035617,1.4742e-09,0,0.00035617,6.3856e-05,1.3199e+08,488.27,0,1.3848e+08,195.58,13438,12178,1,12178,1,-5.043e-06,-1.1516e-09,0,0.00018563,1.002e-06,-2.0823e+06,-384.7,0,7.5157e+07,-6.1269,12177,10873,1,10873,1,-0.00034046,-5.0432e-09,0,5.043e-06,-6.6721e-05,-1.3848e+08,-1633.2,0,2.0823e+06,-135.53,10872,11561,1,11561,1,-0.00018563,-2.663e-09,0,9.8151e-05,-3.286e-05,-7.5503e+07,-870.23,0,3.7096e+07,-36.711,11560,12795,1,12795,1,0.00017556,1.5939e-11,0,0.00027874,3.483e-05,6.5699e+07,5.2098,0,1.0698e+08,39.184,12794,714.3,0,714.3,0,0.00020865,1.6677e-09,0,0.00010435,3.9106e-05,8.1141e+07,549.7,0,4.0416e+07,55.633,714.3,1
2468,1.28,12178,1,12178,1,7.4124e-06,-4.2157e-10,0,0.00018221,-1.3458e-06,-2.0044e+05,-138.88,0,7.0897e+07,3.0189,12177,13439,1,13439,1,0.00035895,4.7928e-09,0,0.00035895,6.4355e-05,1.3302e+08,1552.1,0,1.3956e+08,821.88,13438,12178,1,12178,1,-5.0822e-06,-4.3475e-10,0,0.00018709,1.0097e-06,-2.0985e+06,-144.32,0,7.5746e+07,-2.2162,12177,10873,1,10873,1,-0.00034312,-3.9949e-09,0,5.0822e-06,-6.7242e-05,-1.3956e+08,-1293.7,0,2.0985e+06,-324.71,10872,11561,1,11561,1,-0.00018709,-1.9834e-09,0,9.8921e-05,-3.3116e-05,-7.6095e+07,-656.01,0,3.7387e+07,-52.753,11560,12795,1,12795,1,0.00017693,5.7223e-10,0,0.00028093,3.5103e-05,6.6212e+07,184.75,0,1.0782e+08,50.013,12794,714.3,0,714.3,0,0.00021028,1.9417e-09,0,0.00010517,3.9412e-05,8.1777e+07,639.46,0,4.0732e+07,88.749,714.3,1
2468,1.29,12178,1,12178,1,7.4707e-06,1.2899e-09,0,0.00018364,-1.3564e-06,-2.0207e+05,424.23,0,7.1454e+07,-3.7305,12177,13439,1,13439,1,0.00036178,4.3161e-09,0,0.00036178,6.4862e-05,1.3407e+08,1414.8,0,1.4066e+08,702.55,13438,12178,1,12178,1,-5.1221e-06,1.2154e-09,0,0.00018856,1.0176e-06,-2.115e+06,400.37,0,7.6341e+07,-8.4226,12177,10873,1,10873,1,-0.00034582,-1.3741e-09,0,5.122e-06,-6.7772e-05,-1.4066e+08,-462.71,0,2.1149e+06,-185.65,10872,11561,1,11561,1,-0.00018856,8.1671e-11,0,9.9697e-05,-3.3377e-05,-7.6692e+07,27.26,0,3.7681e+07,-42.434,11560,12795,1,12795,1,0.00017833,2.296e-09,0,0.00028313,3.5379e-05,6.6734e+07,751.1,0,1.0867e+08,30.104,12794,714.3,0,714.3,0,0.00021194,1.3458e-09,0,0.000106,3.9722e-05,8.242e+07,443,0,4.1052e+07,66.341,714.3,1
2468,1.3,12178,1,12178,1,7.5286e-06,4.0191e-10,0,0.00018506,-1.367e-06,-2.0359e+05,132.1,0,7.2007e+07,-4.9063,12177,13439,1,13439,1,0.00036457,1.705e-09,0,0.00036457,6.5361e-05,1.3511e+08,575.47,0,1.4174e+08,473.09,13438,12178,1,12178,1,-5.1618e-06,4.4774e-10,0,0.00019002,1.0258e-06,-2.1313e+06,147.67,0,7.6933e+07,-9.0062,12177,10873,1,10873,1,-0.00034848,-1.5984e-09,0,5.1617e-06,-6.8294e-05,-1.4174e+08,-517.59,0,2.1313e+06,-107.99,10872,11561,1,11561,1,-0.00019002,-1.4153e-10,0,0.00010047,-3.3635e-05,-7.7287e+07,-46.65,0,3.7973e+07,-26.176,11560,12795,1,12795,1,0.0001797,9.8982e-10,0,0.00028533,3.5653e-05,6.7248e+07,325.86,0,1.0951e+08,11.881,12794,714.3,0,714.3,0,0.00021358,6.6958e-10,0,0.00010682,4.003e-05,8.3058e+07,220.69,0,4.137e+07,42.058,714.3,1
2468,1.31,12178,1,12178,1,7.5864e-06,1.0473e-09,0,0.00018648,-1.3775e-06,-2.0519e+05,344.54,0,7.256e+07,-8.4383,12177,13439,1,13439,1,0.00036738,3.2119e-09,0,0.00036738,6.5865e-05,1.3615e+08,1040.2,0,1.4283e+08,193.18,13438,12178,1,12178,1,-5.2014e-06,1.0417e-09,0,0.00019148,1.0335e-06,-2.1477e+06,342.37,0,7.7524e+07,-7.4777,12177,10873,1,10873,1,-0.00035117,-8.8157e-10,0,5.2013e-06,-6.882e-05,-1.4283e+08,-299.83,0,2.1477e+06,-140.65,10872,11561,1,11561,1,-0.00019148,1.4511e-10,0,0.00010124,-3.3893e-05,-7.788e+07,46.394,0,3.8265e+07,-28.623,11560,12795,1,12795,1,0.00018109,1.9157e-09,0,0.00028752,3.5927e-05,6.7766e+07,630.34,0,1.1035e+08,14.095,12794,714.3,0,714.3,0,0.00021522,9.4613e-10,0,0.00010764,4.0337e-05,8.3696e+07,311.5,0,4.1688e+07,39.516,714.3,1
2468,1.32,12178,1,12178,1,7.6444e-06,-1.0114e-09,0,0.00018791,-1.3879e-06,-2.067e+05,-332.93,0,7.3114e+07,21.439,12177,13439,1,13439,1,0.00037018,2.2097e-09,0,0.00037018,6.6367e-05,1.3718e+08,756.15,0,1.4392e+08,887.34,13438,12178,1,12178,1,-5.2411e-06,-8.5201e-10,0,0.00019294,1.0417e-06,-2.1639e+06,-278.18,0,7.8115e+07,6.499,12177,10873,1,10873,1,-0.00035385,-4.5108e-09,0,5.241e-06,-6.9345e-05,-1.4392e+08,-1460.8,0,2.1639e+06,-132.98,10872,11561,1,11561,1,-0.00019294,-2.1797e-09,0,0.00010201,-3.4152e-05,-7.8474e+07,-723.89,0,3.8556e+07,-27.189,11560,12795,1,12795,1,0.00018247,2.1691e-10,0,0.00028971,3.6201e-05,6.8283e+07,71.209,0,1.1119e+08,55.561,12794,714.3,0,714.3,0,0.00021686,1.5728e-09,0,0.00010846,4.0645e-05,8.4334e+07,517.99,0,4.2006e+07,86.835,714.3,1
2468,1.33,12178,1,12178,1,7.7025e-06,-1.1276e-09,0,0.00018933,-1.3985e-06,-2.0824e+05,-371.29,0,7.3667e+07,9.6122,12177,13439,1,13439,1,0.00037299,2.1804e-09,0,0.00037299,6.6871e-05,1.3822e+08,744.91,0,1.4501e+08,389.96,13438,12178,1,12178,1,-5.2807e-06,-9.5972e-10,0,0.0001944,1.0493e-06,-2.1804e+06,-312.52,0,7.8706e+07,0.73415,12177,10873,1,10873,1,-0.00035653,-4.6791e-09,0,5.2807e-06,-6.9871e-05,-1.4501e+08,-1515.3,0,2.1804e+06,-137.59,10872,11561,1,11561,1,-0.0001944,-2.3963e-09,0,0.00010279,-3.4411e-05,-7.9068e+07,-784.66,0,3.8848e+07,-32.532,11560,12795,1,12795,1,0.00018385,2.2193e-10,0,0.0002919,3.6475e-05,6.8801e+07,74.214,0,1.1203e+08,46.944,12794,714.3,0,714.3,0,0.0002185,1.6401e-09,0,0.00010928,4.0953e-05,8.4973e+07,540.45,0,4.2324e+07,61.179,714.3,1
2468,1.34,12178,1,12178,1,7.7608e-06,-4.7026e-10,0,0.00019076,-1.4091e-06,-2.0981e+05,-154.91,0,7.4225e+07,-10.075,12177,13439,1,13439,1,0.00037579,1.9407e-10,0,0.00037579,6.7373e-05,1.3926e+08,65.449,0,1.461e+08,238.53,13438,12178,1,12178,1,-5.3205e-06,-4.3204e-10,0,0.00019587,1.057e-06,-2.1969e+06,-142.75,0,7.9303e+07,-2.7134,12177,10873,1,10873,1,-0.00035921,-2.5692e-09,0,5.3205e-06,-7.0396e-05,-1.461e+08,-867.12,0,2.1968e+06,-216.38,10872,11561,1,11561,1,-0.00019587,-6.1803e-10,0,0.00010357,-3.467e-05,-7.9668e+07,-203.2,0,3.9143e+07,-19.232,11560,12795,1,12795,1,0.00018523,-2.5078e-10,0,0.00029412,3.6751e-05,6.9318e+07,-82.855,0,1.1288e+08,6.6166,12794,714.3,0,714.3,0,0.00022015,3.1959e-10,0,0.00011011,4.1262e-05,8.5615e+07,105.86,0,4.2644e+07,31.155,714.3,1
2468,1.35,12178,1,12178,1,7.8183e-06,-8.5878e-10,0,0.00019218,-1.4196e-06,-2.1143e+05,-282.79,0,7.4775e+07,-9.3928,12177,13439,1,13439,1,0.00037859,2.3311e-09,0,0.00037859,6.7875e-05,1.403e+08,754.93,0,1.4719e+08,116.64,13438,12178,1,12178,1,-5.3602e-06,-7.7031e-10,0,0.00019732,1.0649e-06,-2.2133e+06,-253.62,0,7.989e+07,-12.785,12177,10873,1,10873,1,-0.00036189,-3.6011e-09,0,5.3602e-06,-7.0921e-05,-1.4719e+08,-1173.6,0,2.2133e+06,-248.89,10872,11561,1,11561,1,-0.00019732,-1.9764e-09,0,0.00010433,-3.4928e-05,-8.0258e+07,-651.09,0,3.9433e+07,-40.292,11560,12795,1,12795,1,0.00018662,2.0979e-10,0,0.0002963,3.7024e-05,6.9835e+07,67.563,0,1.1372e+08,15.422,12794,714.3,0,714.3,0,0.00022179,1.3941e-09,0,0.00011093,4.1569e-05,8.6251e+07,459.58,0,4.2961e+07,50.045,714.3,1
2468,1.36,12178,1,12178,1,7.8762e-06,7.6191e-10,0,0.0001936,-1.43e-06,-2.1296e+05,250.78,0,7.5328e+07,34.84,12177,13439,1,13439,1,0.00038139,3.4995e-09,0,0.00038139,6.8376e-05,1.4134e+08,1133.1,0,1.4828e+08,1497.8,13438,12178,1,12178,1,-5.3996e-06,6.1374e-10,0,0.00019879,1.0726e-06,-2.2293e+06,202.55,0,8.0482e+07,-1.0976,12177,10873,1,10873,1,-0.00036456,-1.8739e-09,0,5.3994e-06,-7.1444e-05,-1.4828e+08,-606.78,0,2.2293e+06,-424.08,10872,11561,1,11561,1,-0.00019879,1.3643e-10,0,0.00010511,-3.5186e-05,-8.0853e+07,44.278,0,3.9725e+07,-33.93,11560,12795,1,12795,1,0.00018799,1.2451e-09,0,0.00029849,3.7298e-05,7.035e+07,409.07,0,1.1456e+08,37.778,12794,714.3,0,714.3,0,0.00022343,7.9084e-10,0,0.00011175,4.1876e-05,8.6889e+07,259.99,0,4.3278e+07,202.72,714.3,1
2468,1.37,12178,1,12178,1,7.9345e-06,-1.705e-09,0,0.00019503,-1.4406e-06,-2.1454e+05,-561.35,0,7.5886e+07,7.7783,12177,13439,1,13439,1,0.00038422,6.5477e-10,0,0.00038422,6.8884e-05,1.4239e+08,224.26,0,1.4938e+08,558.56,13438,12178,1,12178,1,-5.4396e-06,-1.4568e-09,0,0.00020025,1.0809e-06,-2.246e+06,-477.7,0,8.1075e+07,4.0557,12177,10873,1,10873,1,-0.00036727,-5.1057e-09,0,5.4395e-06,-7.1975e-05,-1.4938e+08,-1653.5,0,2.246e+06,-167.93,10872,11561,1,11561,1,-0.00020025,-2.7597e-09,0,0.00010588,-3.5447e-05,-8.1448e+07,-903.75,0,4.0017e+07,-29.157,11560,12795,1,12795,1,0.00018939,-4.2677e-10,0,0.00030069,3.7573e-05,7.0873e+07,-140.14,0,1.1541e+08,43.886,12794,714.3,0,714.3,0,0.00022508,1.5143e-09,0,0.00011257,4.2186e-05,8.7531e+07,499.01,0,4.3599e+07,65.058,714.3,1
2468,1.38,12178,1,12178,1,7.992e-06,-2.1983e-09,0,0.00019644,-1.451e-06,-2.161e+05,-723.72,0,7.6435e+07,42.323,12177,13439,1,13439,1,0.00038702,4.6171e-09,0,0.00038702,6.9386e-05,1.4342e+08,1551.6,0,1.5047e+08,1650.5,13438,12178,1,12178,1,-5.4789e-06,-1.8523e-09,0,0.0002017,1.0888e-06,-2.262e+06,-605.89,0,8.1661e+07,13.365,12177,10873,1,10873,1,-0.00036994,-9.8062e-09,0,5.4788e-06,-7.2499e-05,-1.5047e+08,-3175.8,0,2.262e+06,-282.34,10872,11561,1,11561,1,-0.0002017,-4.775e-09,0,0.00010665,-3.5705e-05,-8.2036e+07,-1577.6,0,4.0307e+07,-63.427,11560,12795,1,12795,1,0.00019077,4.3942e-10,0,0.00030286,3.7844e-05,7.1389e+07,143.66,0,1.1624e+08,111.48,12794,714.3,0,714.3,0,0.00022671,3.455e-09,0,0.00011339,4.2491e-05,8.8165e+07,1137.9,0,4.3914e+07,187.79,714.3,1
2468,1.39,12178,1,12178,1,8.0501e-06,-1.8906e-09,0,0.00019787,-1.4616e-06,-2.1764e+05,-622.39,0,7.699e+07,21.601,12177,13439,1,13439,1,0.00038982,2.9053e-09,0,0.00038982,6.9888e-05,1.4446e+08,952.87,0,1.5156e+08,893.84,13438,12178,1,12178,1,-5.5186e-06,-1.6693e-09,0,0.00020316,1.0966e-06,-2.2786e+06,-558.8,0,8.2255e+07,2.7429,12177,10873,1,10873,1,-0.00037262,-6.7849e-09,0,5.5185e-06,-7.3024e-05,-1.5156e+08,-2197.3,0,2.2786e+06,-281.9,10872,11561,1,11561,1,-0.00020316,-3.697e-09,0,0.00010742,-3.5964e-05,-8.2633e+07,-1216.3,0,4.06e+07,-38.76,11560,12795,1,12795,1,0.00019215,6.5349e-11,0,0.00030506,3.8119e-05,7.1905e+07,22.271,0,1.1709e+08,74.659,12794,714.3,0,714.3,0,0.00022836,2.354e-09,0,0.00011421,4.28e-05,8.8805e+07,775.67,0,4.4233e+07,98.983,714.3,1
2468,1.4,12178,1,12178,1,8.1083e-06,1.9671e-10,0,0.0001993,-1.4722e-06,-2.1924e+05,64.504,0,7.7546e+07,-6.3265,12177,13439,1,13439,1,0.00039261,3.5675e-09,0,0.00039261,7.0389e-05,1.455e+08,1155.3,0,1.5264e+08,641.84,13438,12178,1,12178,1,-5.5584e-06,-3.8618e-11,0,0.00020464,1.1045e-06,-2.295e+06,-13.224,0,8.2853e+07,-10.091,12177,10873,1,10873,1,-0.00037529,-1.208e-09,0,5.5583e-06,-7.3547e-05,-1.5264e+08,-391.2,0,2.295e+06,-137.75,10872,11561,1,11561,1,-0.00020464,-5.3391e-10,0,0.0001082,-3.6222e-05,-8.3234e+07,-174.51,0,4.0895e+07,-32.199,11560,12795,1,12795,1,0.00019353,5.5471e-10,0,0.00030728,3.8396e-05,7.2421e+07,180.99,0,1.1794e+08,14.328,12794,714.3,0,714.3,0,0.00023001,9.9628e-10,0,0.00011504,4.3109e-05,8.9447e+07,327.98,0,4.4553e+07,51.568,714.3,1
2468,1.41,12178,1,12178,1,8.1662e-06,-9.7083e-10,0,0.00020072,-1.4827e-06,-2.208e+05,-319.55,0,7.8099e+07,13.321,12177,13439,1,13439,1,0.00039542,2.2037e-09,0,0.00039542,7.0893e-05,1.4654e+08,714.8,0,1.5374e+08,1180.8,13438,12178,1,12178,1,-5.5982e-06,-8.8042e-10,0,0.00020609,1.1128e-06,-2.3114e+06,-290.45,0,8.3442e+07,2.5444,12177,10873,1,10873,1,-0.00037798,-3.9051e-09,0,5.5981e-06,-7.4074e-05,-1.5374e+08,-1264.7,0,2.3114e+06,-149.99,10872,11561,1,11561,1,-0.00020609,-2.0858e-09,0,0.00010897,-3.6481e-05,-8.3825e+07,-683.87,0,4.1186e+07,-28.664,11560,12795,1,12795,1,0.00019491,1.2881e-10,0,0.00030947,3.8669e-05,7.2939e+07,42.841,0,1.1878e+08,45.407,12794,714.3,0,714.3,0,0.00023165,1.3973e-09,0,0.00011586,4.3416e-05,9.0085e+07,460.17,0,4.487e+07,89.973,714.3,1
2468,1.42,12178,1,12178,1,8.2241e-06,-8.4954e-10,0,0.00020214,-1.4932e-06,-2.2236e+05,-279.76,0,7.8653e+07,6.7122,12177,13439,1,13439,1,0.00039822,1.854e-09,0,0.00039822,7.1394e-05,1.4758e+08,634.43,0,1.5483e+08,347.93,13438,12178,1,12178,1,-5.6377e-06,-7.9761e-10,0,0.00020756,1.1205e-06,-2.3278e+06,-261.1,0,8.4034e+07,-1.963,12177,10873,1,10873,1,-0.00038065,-3.2594e-09,0,5.6377e-06,-7.4598e-05,-1.5483e+08,-1055.6,0,2.3278e+06,-95.719,10872,11561,1,11561,1,-0.00020756,-1.8371e-09,0,0.00010974,-3.6739e-05,-8.442e+07,-607.84,0,4.1478e+07,-24.06,11560,12795,1,12795,1,0.00019629,1.1432e-10,0,0.00031166,3.8943e-05,7.3455e+07,38.047,0,1.1962e+08,29.315,12794,714.3,0,714.3,0,0.00023329,1.2115e-09,0,0.00011668,4.3724e-05,9.0723e+07,399.37,0,4.5188e+07,47.82,714.3,1
2468,1.43,12178,1,12178,1,8.2818e-06,-9.1135e-10,0,0.00020356,-1.5037e-06,-2.2387e+05,-300.29,0,7.9203e+07,1.3789,12177,13439,1,13439,1,0.00040102,6.7797e-09,0,0.00040102,7.1896e-05,1.4861e+08,2218.2,0,1.5591e+08,247.43,13438,12178,1,12178,1,-5.677e-06,-8.4437e-10,0,0.000209,1.128e-06,-2.3441e+06,-281.9,0,8.462e+07,-9.0615,12177,10873,1,10873,1,-0.00038333,-6.7714e-09,0,5.6769e-06,-7.5122e-05,-1.5591e+08,-2220,0,2.3441e+06,-196.08,10872,11561,1,11561,1,-0.000209,-3.5924e-09,0,0.00011051,-3.6997e-05,-8.5009e+07,-1188.5,0,4.1767e+07,-60.212,11560,12795,1,12795,1,0.00019767,9.0554e-10,0,0.00031384,3.9215e-05,7.3971e+07,297.04,0,1.2045e+08,54.56,12794,714.3,0,714.3,0,0.00023492,3.1417e-09,0,0.00011749,4.403e-05,9.1357e+07,1035.3,0,4.5504e+07,88.356,714.3,1
2468,1.44,12178,1,12178,1,8.3404e-06,-1.0422e-09,0,0.000205,-1.5143e-06,-2.2553e+05,-343.2,0,7.9764e+07,11.827,12177,13439,1,13439,1,0.00040385,2.8935e-10,0,0.00040385,7.2403e-05,1.4966e+08,99.104,0,1.5701e+08,615.59,13438,12178,1,12178,1,-5.7174e-06,-9.5404e-10,0,0.00021049,1.1364e-06,-2.3606e+06,-310.5,0,8.5221e+07,4.2698,12177,10873,1,10873,1,-0.00038603,-2.8175e-09,0,5.7173e-06,-7.5652e-05,-1.5701e+08,-912.41,0,2.3606e+06,-111.69,10872,11561,1,11561,1,-0.00021049,-1.6149e-09,0,0.00011129,-3.7258e-05,-8.5613e+07,-530.84,0,4.2064e+07,-11.771,11560,12795,1,12795,1,0.00019907,-4.0593e-10,0,0.00031607,3.9494e-05,7.4493e+07,-131.71,0,1.2131e+08,28.406,12794,714.3,0,714.3,0,0.00023659,7.9192e-10,0,0.00011833,4.4342e-05,9.2005e+07,260.97,0,4.5827e+07,53.349,714.3,1
2468,1.45,12178,1,12178,1,8.3978e-06,1.5168e-10,0,0.00020641,-1.5247e-06,-2.2709e+05,49.738,0,8.0313e+07,9.872,12177,13439,1,13439,1,0.00040662,3.5452e-09,0,0.00040662,7.29e-05,1.5069e+08,1150.6,0,1.5809e+08,611.14,13438,12178,1,12178,1,-5.7565e-06,-9.5592e-12,0,0.00021194,1.1438e-06,-2.3769e+06,-3.066,0,8.5808e+07,4.5157,12177,10873,1,10873,1,-0.00038868,-2.4979e-09,0,5.7564e-06,-7.6171e-05,-1.5809e+08,-829.16,0,2.3769e+06,-219.52,10872,11561,1,11561,1,-0.00021194,-6.0989e-10,0,0.00011206,-3.7514e-05,-8.6203e+07,-199.83,0,4.2354e+07,-18.85,11560,12795,1,12795,1,0.00020043,7.5894e-10,0,0.00031824,3.9766e-05,7.5004e+07,249.47,0,1.2214e+08,30.418,12794,714.3,0,714.3,0,0.00023821,1.1909e-09,0,0.00011914,4.4647e-05,9.2638e+07,392.57,0,4.6142e+07,62.904,714.3,1
2468,1.46,12178,1,12178,1,8.456e-06,-8.7468e-11,0,0.00020784,-1.5353e-06,-2.2866e+05,-29.018,0,8.0868e+07,-2.0869,12177,13439,1,13439,1,0.00040943,3.2193e-09,0,0.00040943,7.3404e-05,1.5173e+08,1042.6,0,1.5918e+08,136.66,13438,12178,1,12178,1,-5.7964e-06,-1.352e-10,0,0.00021341,1.1517e-06,-2.3934e+06,-44.988,0,8.6402e+07,-3.2269,12177,10873,1,10873,1,-0.00039137,-1.907e-09,0,5.7963e-06,-7.6698e-05,-1.5918e+08,-617.55,0,2.3934e+06,-176.75,10872,11561,1,11561,1,-0.00021341,-1.0313e-09,0,0.00011284,-3.7774e-05,-8.6799e+07,-339.6,0,4.2647e+07,-22.644,11560,12795,1,12795,1,0.00020182,4.6247e-10,0,0.00032045,4.0041e-05,7.5523e+07,153.22,0,1.2299e+08,19.301,12794,714.3,0,714.3,0,0.00023986,1.1754e-09,0,0.00011996,4.4956e-05,9.3279e+07,387.57,0,4.6461e+07,36.67,714.3,1
2468,1.47,12178,1,12178,1,8.5132e-06,-1.8647e-09,0,0.00020924,-1.5456e-06,-2.3012e+05,-614.02,0,8.1414e+07,61.427,12177,13439,1,13439,1,0.00041223,5.8706e-09,0,0.00041223,7.3905e-05,1.5277e+08,1914.9,0,1.6027e+08,2128.1,13438,12178,1,12178,1,-5.8352e-06,-1.491e-09,0,0.00021484,1.1598e-06,-2.409e+06,-483.23,0,8.6982e+07,22.547,12177,10873,1,10873,1,-0.00039404,-8.6699e-09,0,5.8352e-06,-7.7221e-05,-1.6027e+08,-2807.6,0,2.409e+06,-213.16,10872,11561,1,11561,1,-0.00021484,-5.1432e-09,0,0.00011359,-3.8031e-05,-8.7381e+07,-1675.5,0,4.2933e+07,-39.632,11560,12795,1,12795,1,0.00020319,6.8006e-10,0,0.0003226,4.031e-05,7.6038e+07,222.89,0,1.2381e+08,107.16,12794,714.3,0,714.3,0,0.00024148,3.5805e-09,0,0.00012077,4.5259e-05,9.3908e+07,1179.8,0,4.6775e+07,216.73,714.3,1
2468,1.48,12178,1,12178,1,8.5721e-06,1.2932e-09,0,0.00021069,-1.5564e-06,-2.3184e+05,425.34,0,8.1979e+07,-14.894,12177,13439,1,13439,1,0.00041507,3.7277e-09,0,0.00041507,7.4415e-05,1.5382e+08,1207.2,0,1.6138e+08,145.62,13438,12178,1,12178,1,-5.8756e-06,1.3163e-09,0,0.00021633,1.1671e-06,-2.4261e+06,433.93,0,8.7587e+07,-12.645,12177,10873,1,10873,1,-0.00039676,-1.0078e-09,0,5.8755e-06,-7.7754e-05,-1.6138e+08,-345.12,0,2.4261e+06,-336.18,10872,11561,1,11561,1,-0.00021633,1.361e-10,0,0.00011438,-3.8293e-05,-8.7989e+07,44.655,0,4.3231e+07,-50.834,11560,12795,1,12795,1,0.0002046,2.3572e-09,0,0.00032484,4.059e-05,7.6562e+07,783.02,0,1.2468e+08,19.388,12794,714.3,0,714.3,0,0.00024316,1.225e-09,0,0.00012161,4.5573e-05,9.456e+07,403.26,0,4.7099e+07,56.763,714.3,1
2468,1.49,12178,1,12178,1,8.6296e-06,-3.2459e-09,0,0.00021209,-1.5669e-06,-2.3315e+05,-1068.9,0,8.2523e+07,-0.94203,12177,13439,1,13439,1,0.00041786,5.3516e-09,0,0.00041786,7.4916e-05,1.5485e+08,1756.3,0,1.6246e+08,397.51,13438,12178,1,12178,1,-5.914e-06,-3.0307e-09,0,0.00021776,1.1751e-06,-2.4419e+06,-996.57,0,8.8164e+07,-23.732,12177,10873,1,10873,1,-0.00039942,-1.2082e-08,0,5.914e-06,-7.8278e-05,-1.6246e+08,-3912.4,0,2.4419e+06,-332.91,10872,11561,1,11561,1,-0.00021776,-6.8849e-09,0,0.00011514,-3.8552e-05,-8.8568e+07,-2271.8,0,4.3516e+07,-94.334,11560,12795,1,12795,1,0.00020597,2.127e-10,0,0.00032698,4.0857e-05,7.7078e+07,69.523,0,1.255e+08,70.627,12794,714.3,0,714.3,0,0.00024477,4.287e-09,0,0.00012242,4.5876e-05,9.5187e+07,1412.5,0,4.7412e+07,143.04,714.3,1
2468,1.5,12178,1,12178,1,8.6875e-06,-3.3e-09,0,0.00021352,-1.5773e-06,-2.3489e+05,-1086.5,0,8.3079e+07,21.464,12177,13439,1,13439,1,0.00042066,1.3718e-09,0,0.00042066,7.5418e-05,1.5589e+08,469.84,0,1.6355e+08,1046.2,13438,12178,1,12178,1,-5.9541e-06,-3.2652e-09,0,0.00021922,1.1827e-06,-2.4584e+06,-1069.2,0,8.8758e+07,-0.048514,12177,10873,1,10873,1,-0.0004021,-9.0204e-09,0,5.954e-06,-7.8802e-05,-1.6355e+08,-2970.3,0,2.4583e+06,-407.86,10872,11561,1,11561,1,-0.00021922,-5.5586e-09,0,0.00011591,-3.881e-05,-8.9165e+07,-1829.7,0,4.3809e+07,-58.067,11560,12795,1,12795,1,0.00020735,-8.3396e-10,0,0.00032918,4.1133e-05,7.7594e+07,-273.34,0,1.2634e+08,90.063,12794,714.3,0,714.3,0,0.00024642,2.7226e-09,0,0.00012324,4.6185e-05,9.5828e+07,897.12,0,4.7731e+07,135.47,714.3,1
2468,1.51,12178,1,12178,1,8.7463e-06,-5.2583e-10,0,0.00021496,-1.5881e-06,-2.365e+05,-173.28,0,8.364e+07,-8.5289,12177,13439,1,13439,1,0.00042347,5.0331e-10,0,0.00042347,7.5921e-05,1.5693e+08,172.3,0,1.6464e+08,42.271,13438,12178,1,12178,1,-5.9945e-06,-4.4645e-10,0,0.00022072,1.191e-06,-2.4752e+06,-144.73,0,8.9364e+07,-4.0071,12177,10873,1,10873,1,-0.00040478,-1.64e-09,0,5.9944e-06,-7.9327e-05,-1.6464e+08,-544.72,0,2.4752e+06,-241.97,10872,11561,1,11561,1,-0.00022072,-1.0304e-09,0,0.00011671,-3.9069e-05,-8.9774e+07,-339.83,0,4.4109e+07,-15.023,11560,12795,1,12795,1,0.00020874,-3.222e-11,0,0.00033143,4.1413e-05,7.8112e+07,-10.581,0,1.2721e+08,8.123,12794,714.3,0,714.3,0,0.00024808,5.5882e-10,0,0.00012408,4.6497e-05,9.6476e+07,184.67,0,4.8054e+07,31.364,714.3,1
2468,1.52,12178,1,12178,1,8.8033e-06,-2.0682e-09,0,0.00021636,-1.5984e-06,-2.3809e+05,-681.2,0,8.4185e+07,-7.6037,12177,13439,1,13439,1,0.00042626,4.3392e-09,0,0.00042626,7.6421e-05,1.5797e+08,1402.9,0,1.6573e+08,240.22,13438,12178,1,12178,1,-6.0335e-06,-1.7481e-09,0,0.00022215,1.1983e-06,-2.4913e+06,-577.26,0,8.9943e+07,-12.615,12177,10873,1,10873,1,-0.00040745,-8.4752e-09,0,6.0335e-06,-7.9851e-05,-1.6573e+08,-2744.6,0,2.4913e+06,-433.12,10872,11561,1,11561,1,-0.00022215,-4.781e-09,0,0.00011746,-3.9326e-05,-9.0355e+07,-1566.8,0,4.4394e+07,-75.568,11560,12795,1,12795,1,0.00021011,3.2767e-10,0,0.00033358,4.1682e-05,7.8627e+07,108.05,0,1.2803e+08,53.36,12794,714.3,0,714.3,0,0.0002497,3.0064e-09,0,0.00012488,4.68e-05,9.7104e+07,990.89,0,4.8367e+07,92.986,714.3,1
2468,1.53,12178,1,12178,1,8.8617e-06,-7.5647e-10,0,0.00021779,-1.609e-06,-2.3956e+05,-249.27,0,8.474e+07,-19.304,12177,13439,1,13439,1,0.00042905,4.6464e-09,0,0.00042905,7.6921e-05,1.59e+08,1504.7,0,1.6681e+08,155.4,13438,12178,1,12178,1,-6.073e-06,-5.3788e-10,0,0.00022362,1.2067e-06,-2.5076e+06,-174.64,0,9.0538e+07,-25.906,12177,10873,1,10873,1,-0.00041012,-5.0207e-09,0,6.073e-06,-8.0373e-05,-1.6681e+08,-1632.8,0,2.5076e+06,-244.45,10872,11561,1,11561,1,-0.00022362,-2.7534e-09,0,0.00011824,-3.9584e-05,-9.0953e+07,-907.38,0,4.4688e+07,-58.148,11560,12795,1,12795,1,0.00021149,6.5957e-10,0,0.00033579,4.1958e-05,7.9142e+07,215.3,0,1.2888e+08,18.139,12794,714.3,0,714.3,0,0.00025135,2.3562e-09,0,0.00012571,4.7108e-05,9.7745e+07,776.42,0,4.8686e+07,62.334,714.3,1
2468,1.54,12178,1,12178,1,8.9199e-06,-1.5026e-09,0,0.00021921,-1.6196e-06,-2.411e+05,-494.93,0,8.5294e+07,-10.91,12177,13439,1,13439,1,0.00043187,4.428e-09,0,0.00043187,7.7427e-05,1.6004e+08,1436.6,0,1.6791e+08,226.32,13438,12178,1,12178,1,-6.1125e-06,-1.2318e-09,0,0.00022508,1.2144e-06,-2.5239e+06,-408.79,0,9.1129e+07,-17.39,12177,10873,1,10873,1,-0.00041282,-7.074e-09,0,6.1125e-06,-8.0902e-05,-1.6791e+08,-2290.8,0,2.5239e+06,-234.87,10872,11561,1,11561,1,-0.00022508,-3.8521e-09,0,0.00011901,-3.9844e-05,-9.1547e+07,-1264.9,0,4.498e+07,-72.287,11560,12795,1,12795,1,0.00021288,4.1459e-10,0,0.00033798,4.2232e-05,7.9662e+07,133.42,0,1.2972e+08,39.711,12794,714.3,0,714.3,0,0.00025299,2.6387e-09,0,0.00012653,4.7417e-05,9.8384e+07,869.59,0,4.9004e+07,83.409,714.3,1
2468,1.55,12178,1,12178,1,8.9777e-06,-1.5385e-09,0,0.00022063,-1.6301e-06,-2.4269e+05,-506.83,0,8.5846e+07,-10.642,12177,13439,1,13439,1,0.00043467,6.0713e-09,0,0.00043467,7.7928e-05,1.6108e+08,1966.1,0,1.6899e+08,234.35,13438,12178,1,12178,1,-6.1518e-06,-1.2605e-09,0,0.00022653,1.2223e-06,-2.5402e+06,-408.66,0,9.1719e+07,-20.436,12177,10873,1,10873,1,-0.00041549,-7.6846e-09,0,6.1517e-06,-8.1425e-05,-1.6899e+08,-2488.5,0,2.5401e+06,-255.05,10872,11561,1,11561,1,-0.00022653,-4.4755e-09,0,0.00011978,-4.0102e-05,-9.2139e+07,-1465.5,0,4.5271e+07,-68.099,11560,12795,1,12795,1,0.00021426,6.8376e-10,0,0.00034016,4.2505e-05,8.0177e+07,223.19,0,1.3056e+08,37.606,12794,714.3,0,714.3,0,0.00025463,3.2707e-09,0,0.00012735,4.7723e-05,9.902e+07,1077.6,0,4.9321e+07,89.168,714.3,1
2468,1.56,12178,1,12178,1,9.0351e-06,-1.8443e-09,0,0.00022205,-1.6405e-06,-2.4435e+05,-607.43,0,8.6397e+07,2.663,12177,13439,1,13439,1,0.00043746,6.6563e-09,0,0.00043746,7.8429e-05,1.6211e+08,2179.7,0,1.7008e+08,435.06,13438,12178,1,12178,1,-6.1915e-06,-1.5498e-09,0,0.00022799,1.2304e-06,-2.5565e+06,-507.56,0,9.2306e+07,-16.119,12177,10873,1,10873,1,-0.00041816,-8.8191e-09,0,6.1915e-06,-8.1949e-05,-1.7008e+08,-2855.9,0,2.5565e+06,-275.54,10872,11561,1,11561,1,-0.00022799,-5.231e-09,0,0.00012055,-4.036e-05,-9.2729e+07,-1722.9,0,4.5561e+07,-65.753,11560,12795,1,12795,1,0.00021564,7.4324e-10,0,0.00034234,4.2777e-05,8.0693e+07,242.25,0,1.3139e+08,56.9,12794,714.3,0,714.3,0,0.00025626,3.7448e-09,0,0.00012817,4.803e-05,9.9655e+07,1233.9,0,4.9637e+07,109.26,714.3,1
2468,1.57,12178,1,12178,1,9.0946e-06,-9.5699e-10,0,0.0002235,-1.6513e-06,-2.4593e+05,-315,0,8.6962e+07,-3.6992,12177,13439,1,13439,1,0.0004403,1.7499e-09,0,0.0004403,7.8938e-05,1.6316e+08,591.78,0,1.7118e+08,92.423,13438,12178,1,12178,1,-6.2319e-06,-8.7045e-10,0,0.00022949,1.2383e-06,-2.5732e+06,-283.29,0,9.2913e+07,-2.2443,12177,10873,1,10873,1,-0.00042087,-3.6177e-09,0,6.2318e-06,-8.248e-05,-1.7118e+08,-1171.5,0,2.5732e+06,-205.9,10872,11561,1,11561,1,-0.00022949,-2.012e-09,0,0.00012134,-4.0621e-05,-9.3339e+07,-663.61,0,4.5861e+07,-30.093,11560,12795,1,12795,1,0.00021703,1.0401e-10,0,0.00034459,4.3058e-05,8.1216e+07,34.154,0,1.3226e+08,23.261,12794,714.3,0,714.3,0,0.00025794,1.3234e-09,0,0.00012901,4.8344e-05,1.0031e+08,435.98,0,4.9962e+07,40.979,714.3,1
2468,1.58,12178,1,12178,1,9.1529e-06,-6.6253e-10,0,0.00022493,-1.6618e-06,-2.4746e+05,-218.05,0,8.7517e+07,9.5496,12177,13439,1,13439,1,0.0004431,9.0977e-10,0,0.0004431,7.944e-05,1.642e+08,307.02,0,1.7227e+08,842,13438,12178,1,12178,1,-6.2713e-06,-5.9883e-10,0,0.00023095,1.2464e-06,-2.5894e+06,-195.73,0,9.3507e+07,0.73441,12177,10873,1,10873,1,-0.00042355,-2.109e-09,0,6.2712e-06,-8.3005e-05,-1.7227e+08,-680.06,0,2.5894e+06,-121.52,10872,11561,1,11561,1,-0.00023095,-1.2161e-09,0,0.00012212,-4.088e-05,-9.3935e+07,-399.68,0,4.6154e+07,-16.967,11560,12795,1,12795,1,0.00021842,-3.4177e-11,0,0.0003468,4.3333e-05,8.1733e+07,-11.182,0,1.331e+08,19.607,12794,714.3,0,714.3,0,0.00025959,7.066e-10,0,0.00012983,4.8653e-05,1.0095e+08,232.76,0,5.0281e+07,71.445,714.3,1
2468,1.59,12178,1,12178,1,9.2111e-06,-1.2954e-10,0,0.00022635,-1.6724e-06,-2.4904e+05,-42.643,0,8.8071e+07,-2.0183,12177,13439,1,13439,1,0.0004459,1.799e-09,0,0.0004459,7.9942e-05,1.6524e+08,615.63,0,1.7336e+08,294.61,13438,12178,1,12178,1,-6.3107e-06,-1.8827e-10,0,0.00023241,1.2541e-06,-2.6057e+06,-60.59,0,9.4099e+07,-2.1284,12177,10873,1,10873,1,-0.00042623,-1.3037e-09,0,6.3106e-06,-8.353e-05,-1.7336e+08,-422.19,0,2.6057e+06,-165.85,10872,11561,1,11561,1,-0.00023241,-6.6109e-10,0,0.00012289,-4.1139e-05,-9.453e+07,-221.2,0,4.6446e+07,-16.977,11560,12795,1,12795,1,0.0002198,1.9533e-10,0,0.00034899,4.3607e-05,8.225e+07,64.363,0,1.3394e+08,15.365,12794,714.3,0,714.3,0,0.00026123,6.8298e-10,0,0.00013065,4.896e-05,1.0159e+08,225.28,0,5.0599e+07,33.836,714.3,1
2468,1.6,12178,1,12178,1,9.2689e-06,-1.3139e-09,0,0.00022777,-1.6829e-06,-2.5061e+05,-432.39,0,8.8622e+07,-1.41,12177,13439,1,13439,1,0.00044871,1.7481e-09,0,0.00044871,8.0445e-05,1.6628e+08,574.31,0,1.7445e+08,115,13438,12178,1,12178,1,-6.35e-06,-1.1917e-09,0,0.00023386,1.2619e-06,-2.622e+06,-388.18,0,9.4686e+07,0.7165,12177,10873,1,10873,1,-0.00042891,-4.4288e-09,0,6.35e-06,-8.4055e-05,-1.7445e+08,-1434.3,0,2.622e+06,-178.16,10872,11561,1,11561,1,-0.00023386,-2.4988e-09,0,0.00012366,-4.1397e-05,-9.5119e+07,-824,0,4.6736e+07,-32.884,11560,12795,1,12795,1,0.00022118,1.0377e-11,0,0.00035117,4.3879e-05,8.2767e+07,3.5541,0,1.3478e+08,29.718,12794,714.3,0,714.3,0,0.00026286,1.5156e-09,0,0.00013147,4.9267e-05,1.0222e+08,499.15,0,5.0916e+07,45.161,714.3,1
2468,1.61,12178,1,12178,1,9.3276e-06,-1.9209e-10,0,0.0002292,-1.6936e-06,-2.522e+05,-63.319,0,8.9181e+07,-11.722,12177,13439,1,13439,1,0.00045152,8.6569e-10,0,0.00045152,8.0949e-05,1.6732e+08,296.36,0,1.7555e+08,35.732,13438,12178,1,12178,1,-6.3898e-06,-1.389e-10,0,0.00023534,1.2695e-06,-2.6385e+06,-46.728,0,9.5286e+07,-4.4669,12177,10873,1,10873,1,-0.0004316,-1.1198e-09,0,6.3897e-06,-8.4582e-05,-1.7555e+08,-362.65,0,2.6384e+06,-247.56,10872,11561,1,11561,1,-0.00023534,-5.1922e-10,0,0.00012444,-4.1657e-05,-9.5721e+07,-170.79,0,4.7032e+07,-20.187,11560,12795,1,12795,1,0.00022257,1.1901e-10,0,0.00035339,4.4157e-05,8.3286e+07,38.824,0,1.3563e+08,7.1061,12794,714.3,0,714.3,0,0.00026452,4.504e-10,0,0.0001323,4.9577e-05,1.0287e+08,148.3,0,5.1237e+07,33.227,714.3,1
2468,1.62,12178,1,12178,1,9.3854e-06,-1.6226e-10,0,0.00023061,-1.7041e-06,-2.5367e+05,-53.35,0,8.9729e+07,-5.8127,12177,13439,1,13439,1,0.0004543,3.5542e-09,0,0.0004543,8.1448e-05,1.6835e+08,1151,0,1.7663e+08,125.4,13438,12178,1,12178,1,-6.4287e-06,-3.0667e-10,0,0.00023679,1.2773e-06,-2.6546e+06,-102.3,0,9.5871e+07,-4.9552,12177,10873,1,10873,1,-0.00043425,-2.2294e-09,0,6.4286e-06,-8.5104e-05,-1.7663e+08,-721.97,0,2.6545e+06,-228.02,10872,11561,1,11561,1,-0.00023679,-1.2428e-09,0,0.00012521,-4.1914e-05,-9.631e+07,-410.96,0,4.7321e+07,-32.171,11560,12795,1,12795,1,0.00022394,3.5604e-10,0,0.00035556,4.4428e-05,8.3799e+07,120.37,0,1.3647e+08,15.881,12794,714.3,0,714.3,0,0.00026615,1.3253e-09,0,0.00013311,4.9882e-05,1.035e+08,436.93,0,5.1552e+07,43.247,714.3,1
2468,1.63,12178,1,12178,1,9.4439e-06,-4.6562e-10,0,0.00023205,-1.7147e-06,-2.553e+05,-153.32,0,9.0287e+07,-5.9128,12177,13439,1,13439,1,0.00045713,9.926e-10,0,0.00045713,8.1955e-05,1.6939e+08,339.81,0,1.7773e+08,56.86,13438,12178,1,12178,1,-6.4686e-06,-4.087e-10,0,0.00023826,1.2853e-06,-2.671e+06,-133.81,0,9.6468e+07,-2.0567,12177,10873,1,10873,1,-0.00043695,-1.8836e-09,0,6.4685e-06,-8.5633e-05,-1.7773e+08,-609.99,0,2.671e+06,-205.67,10872,11561,1,11561,1,-0.00023826,-1.0115e-09,0,0.00012598,-4.2174e-05,-9.6909e+07,-332.56,0,4.7615e+07,-18.86,11560,12795,1,12795,1,0.00022533,8.635e-11,0,0.00035778,4.4705e-05,8.432e+07,28.621,0,1.3731e+08,14.394,12794,714.3,0,714.3,0,0.0002678,6.8517e-10,0,0.00013394,5.0193e-05,1.0414e+08,225.84,0,5.1872e+07,32.331,714.3,1
2468,1.64,12178,1,12178,1,9.502e-06,-2.1551e-10,0,0.00023347,-1.7253e-06,-2.5684e+05,-70.871,0,9.084e+07,-0.011263,12177,13439,1,13439,1,0.00045993,1.6628e-09,0,0.00045993,8.2456e-05,1.7043e+08,563.94,0,1.7881e+08,410.34,13438,12178,1,12178,1,-6.5079e-06,-2.0848e-10,0,0.00023972,1.2934e-06,-2.6872e+06,-67.001,0,9.7059e+07,-2.8577,12177,10873,1,10873,1,-0.00043963,-1.7577e-09,0,6.5078e-06,-8.6157e-05,-1.7881e+08,-569.17,0,2.6871e+06,-155.42,10872,11561,1,11561,1,-0.00023972,-8.1964e-10,0,0.00012676,-4.2433e-05,-9.7502e+07,-270.22,0,4.7907e+07,-21.285,11560,12795,1,12795,1,0.00022671,2.5974e-10,0,0.00035997,4.4978e-05,8.4836e+07,84.438,0,1.3816e+08,17.607,12794,714.3,0,714.3,0,0.00026944,7.9258e-10,0,0.00013476,5.05e-05,1.0478e+08,261.21,0,5.219e+07,41.284,714.3,1
2468,1.65,12178,1,12178,1,9.5601e-06,-1.1042e-09,0,0.00023489,-1.7358e-06,-2.5845e+05,-363.52,0,9.1394e+07,-9.877,12177,13439,1,13439,1,0.00046274,1.6568e-09,0,0.00046274,8.2961e-05,1.7147e+08,552.38,0,1.7991e+08,118.78,13438,12178,1,12178,1,-6.5474e-06,-9.346e-10,0,0.00024118,1.301e-06,-2.7036e+06,-305.54,0,9.7649e+07,-9.445,12177,10873,1,10873,1,-0.00044232,-4.2844e-09,0,6.5474e-06,-8.6684e-05,-1.7991e+08,-1387.5,0,2.7035e+06,-237.65,10872,11561,1,11561,1,-0.00024118,-2.2458e-09,0,0.00012753,-4.2692e-05,-9.8095e+07,-745.11,0,4.8198e+07,-44.309,11560,12795,1,12795,1,0.0002281,7.5878e-11,0,0.00036216,4.5252e-05,8.5355e+07,24.398,0,1.39e+08,24.398,12794,714.3,0,714.3,0,0.00027108,1.498e-09,0,0.00013558,5.0808e-05,1.0542e+08,493.52,0,5.2508e+07,51.38,714.3,1
2468,1.66,12178,1,12178,1,9.6181e-06,-9.6022e-10,0,0.00023631,-1.7463e-06,-2.6002e+05,-316.03,0,9.1944e+07,-5.2767,12177,13439,1,13439,1,0.00046553,4.3838e-09,0,0.00046553,8.3461e-05,1.725e+08,1419.7,0,1.8099e+08,176.06,13438,12178,1,12178,1,-6.5864e-06,-9.7609e-10,0,0.00024263,1.3088e-06,-2.7196e+06,-317.47,0,9.8238e+07,-5.4688,12177,10873,1,10873,1,-0.00044499,-4.9147e-09,0,6.5863e-06,-8.7207e-05,-1.8099e+08,-1591.5,0,2.7196e+06,-232.8,10872,11561,1,11561,1,-0.00024263,-2.7549e-09,0,0.0001283,-4.295e-05,-9.8686e+07,-913.57,0,4.8489e+07,-52.816,11560,12795,1,12795,1,0.00022947,4.0443e-10,0,0.00036434,4.5525e-05,8.587e+07,135.56,0,1.3983e+08,34.915,12794,714.3,0,714.3,0,0.00027272,2.1544e-09,0,0.0001364,5.1114e-05,1.0605e+08,709.64,0,5.2824e+07,68.676,714.3,1
2468,1.67,12178,1,12178,1,9.6772e-06,-1.735e-09,0,0.00023773,-1.7571e-06,-2.6157e+05,-570.74,0,9.2499e+07,-9.3547,12177,13439,1,13439,1,0.00046836,4.0915e-09,0,0.00046836,8.3967e-05,1.7354e+08,1330,0,1.8209e+08,245.97,13438,12178,1,12178,1,-6.6252e-06,-1.4754e-09,0,0.00024409,1.3165e-06,-2.7357e+06,-480.13,0,9.8829e+07,-12.677,12177,10873,1,10873,1,-0.00044768,-7.518e-09,0,6.6252e-06,-8.7736e-05,-1.8209e+08,-2434.7,0,2.7357e+06,-271.29,10872,11561,1,11561,1,-0.00024409,-3.7945e-09,0,0.00012907,-4.321e-05,-9.9279e+07,-1251.2,0,4.8781e+07,-78.841,11560,12795,1,12795,1,0.00023087,3.5669e-10,0,0.00036653,4.5799e-05,8.6391e+07,116.2,0,1.4067e+08,55.006,12794,714.3,0,714.3,0,0.00027436,2.7896e-09,0,0.00013722,5.1423e-05,1.0669e+08,918.32,0,5.3142e+07,94.219,714.3,1
2468,1.68,12178,1,12178,1,9.7362e-06,-1.5898e-09,0,0.00023915,-1.7678e-06,-2.6307e+05,-523,0,9.3051e+07,-13.247,12177,13439,1,13439,1,0.00047115,3.8459e-09,0,0.00047115,8.4468e-05,1.7457e+08,1256.9,0,1.8318e+08,175.23,13438,12178,1,12178,1,-6.6637e-06,-1.5107e-09,0,0.00024555,1.3242e-06,-2.7516e+06,-491.21,0,9.9421e+07,-14.705,12177,10873,1,10873,1,-0.00045035,-6.397e-09,0,6.6637e-06,-8.826e-05,-1.8318e+08,-2071.6,0,2.7516e+06,-234.95,10872,11561,1,11561,1,-0.00024555,-3.5732e-09,0,0.00012984,-4.3468e-05,-9.9873e+07,-1164.2,0,4.9073e+07,-64.348,11560,12795,1,12795,1,0.00023224,2.773e-10,0,0.00036873,4.6072e-05,8.6907e+07,89.579,0,1.4152e+08,34.256,12794,714.3,0,714.3,0,0.000276,2.4686e-09,0,0.00013804,5.173e-05,1.0733e+08,812.97,0,5.346e+07,73.678,714.3,1
2468,1.69,12178,1,12178,1,9.7956e-06,-1.4227e-09,0,0.00024059,-1.7786e-06,-2.6469e+05,-468.29,0,9.361e+07,-13.256,12177,13439,1,13439,1,0.00047398,4.4342e-10,0,0.00047398,8.4973e-05,1.7561e+08,151.87,0,1.8427e+08,104.17,13438,12178,1,12178,1,-6.7029e-06,-1.1128e-09,0,0.00024703,1.3318e-06,-2.7678e+06,-366.92,0,1.0002e+08,-7.4291,12177,10873,1,10873,1,-0.00045305,-4.2492e-09,0,6.7029e-06,-8.8789e-05,-1.8427e+08,-1376.1,0,2.7678e+06,-243.9,10872,11561,1,11561,1,-0.00024703,-2.4066e-09,0,0.00013062,-4.3729e-05,-1.0047e+08,-790.2,0,4.9369e+07,-42.011,11560,12795,1,12795,1,0.00023364,-2.9998e-10,0,0.00037095,4.6349e-05,8.7428e+07,-97.326,0,1.4237e+08,17.553,12794,714.3,0,714.3,0,0.00027766,1.2821e-09,0,0.00013887,5.2041e-05,1.0798e+08,422.05,0,5.3781e+07,48.846,714.3,1
2468,1.7,12178,1,12178,1,9.8535e-06,-3.1286e-09,0,0.00024199,-1.7891e-06,-2.6629e+05,-1029,0,9.4155e+07,-13.992,12177,13439,1,13439,1,0.00047677,5.2259e-09,0,0.00047677,8.5475e-05,1.7664e+08,1716.4,0,1.8536e+08,267.41,13438,12178,1,12178,1,-6.7407e-06,-2.9548e-09,0,0.00024845,1.3396e-06,-2.7834e+06,-977.4,0,1.006e+08,-4.5038,12177,10873,1,10873,1,-0.00045572,-1.0635e-08,0,6.7406e-06,-8.9312e-05,-1.8536e+08,-3444.2,0,2.7834e+06,-352.03,10872,11561,1,11561,1,-0.00024845,-6.2194e-09,0,0.00013138,-4.3987e-05,-1.0105e+08,-2042.2,0,4.9655e+07,-85.59,11560,12795,1,12795,1,0.00023501,3.3871e-10,0,0.00037309,4.6617e-05,8.7943e+07,111.18,0,1.4319e+08,64.892,12794,714.3,0,714.3,0,0.00027928,3.8795e-09,0,0.00013968,5.2344e-05,1.086e+08,1276.8,0,5.4093e+07,113.41,714.3,1
2468,1.71,12178,1,12178,1,9.9132e-06,-1.1786e-09,0,0.00024343,-1.8e-06,-2.6783e+05,-387.82,0,9.4715e+07,-14.069,12177,13439,1,13439,1,0.00047957,2.2814e-09,0,0.00047957,8.5976e-05,1.7767e+08,758.15,0,1.8645e+08,103.84,13438,12178,1,12178,1,-6.7801e-06,-1.1613e-09,0,0.00024994,1.3473e-06,-2.7997e+06,-382.33,0,1.012e+08,-9.9361,12177,10873,1,10873,1,-0.0004584,-4.1425e-09,0,6.78e-06,-8.9837e-05,-1.8645e+08,-1341.5,0,2.7997e+06,-242.69,10872,11561,1,11561,1,-0.00024994,-2.4099e-09,0,0.00013217,-4.4246e-05,-1.0166e+08,-787.09,0,4.9953e+07,-40.385,11560,12795,1,12795,1,0.0002364,7.992e-11,0,0.00037533,4.6896e-05,8.8461e+07,26.431,0,1.4405e+08,18.746,12794,714.3,0,714.3,0,0.00028094,1.5444e-09,0,0.00014051,5.2655e-05,1.0925e+08,508.76,0,5.4414e+07,53.171,714.3,1
2468,1.72,12178,1,12178,1,9.9724e-06,-1.073e-09,0,0.00024486,-1.8107e-06,-2.6936e+05,-353.08,0,9.5269e+07,-11.277,12177,13439,1,13439,1,0.00048238,2.4285e-09,0,0.00048238,8.6479e-05,1.7871e+08,787.52,0,1.8754e+08,135.63,13438,12178,1,12178,1,-6.8186e-06,-1.0238e-09,0,0.0002514,1.355e-06,-2.8157e+06,-334.69,0,1.0179e+08,-9.3991,12177,10873,1,10873,1,-0.00046108,-4.062e-09,0,6.8186e-06,-9.0363e-05,-1.8754e+08,-1315.1,0,2.8156e+06,-239.94,10872,11561,1,11561,1,-0.0002514,-2.2786e-09,0,0.00013294,-4.4505e-05,-1.0225e+08,-749.49,0,5.0246e+07,-45.978,11560,12795,1,12795,1,0.00023778,1.1082e-10,0,0.00037753,4.7171e-05,8.8978e+07,36.568,0,1.4489e+08,25.562,12794,714.3,0,714.3,0,0.00028259,1.5787e-09,0,0.00014133,5.2964e-05,1.0989e+08,519.91,0,5.4732e+07,58.368,714.3,1
2468,1.73,12178,1,12178,1,1.003e-05,-1.9445e-09,0,0.00024627,-1.8212e-06,-2.7108e+05,-639.57,0,9.5817e+07,1.4176,12177,13439,1,13439,1,0.00048518,5.4185e-09,0,0.00048518,8.6981e-05,1.7974e+08,1757.9,0,1.8863e+08,251.95,13438,12178,1,12178,1,-6.8573e-06,-1.853e-09,0,0.00025285,1.3627e-06,-2.8316e+06,-615.53,0,1.0238e+08,1.4637,12177,10873,1,10873,1,-0.00046376,-8.3447e-09,0,6.8573e-06,-9.0888e-05,-1.8863e+08,-2702.4,0,2.8316e+06,-228.97,10872,11561,1,11561,1,-0.00025285,-4.5855e-09,0,0.00013371,-4.4763e-05,-1.0284e+08,-1502.1,0,5.0534e+07,-70.575,11560,12795,1,12795,1,0.00023916,5.4162e-10,0,0.0003797,4.7442e-05,8.9495e+07,171.98,0,1.4572e+08,63.243,12794,714.3,0,714.3,0,0.00028422,3.3239e-09,0,0.00014215,5.3269e-05,1.1052e+08,1094.1,0,5.5047e+07,98.262,714.3,1
2468,1.74,12178,1,12178,1,1.0091e-05,-3.9651e-10,0,0.00024771,-1.8322e-06,-2.7249e+05,-130.49,0,9.6379e+07,-17.352,12177,13439,1,13439,1,0.000488,1.8333e-09,0,0.000488,8.7485e-05,1.8078e+08,627.62,0,1.8972e+08,108.98,13438,12178,1,12178,1,-6.896e-06,-1.2466e-10,0,0.00025434,1.3703e-06,-2.8476e+06,-40.24,0,1.0298e+08,-11.201,12177,10873,1,10873,1,-0.00046644,-2.7691e-09,0,6.8959e-06,-9.1415e-05,-1.8972e+08,-894.93,0,2.8476e+06,-249.64,10872,11561,1,11561,1,-0.00025434,-1.2263e-09,0,0.0001345,-4.5023e-05,-1.0345e+08,-402.47,0,5.0832e+07,-51.182,11560,12795,1,12795,1,0.00024055,3.095e-10,0,0.00038194,4.772e-05,9.0015e+07,103.43,0,1.4658e+08,19.718,12794,714.3,0,714.3,0,0.00028588,1.0488e-09,0,0.00014298,5.3581e-05,1.1117e+08,345,0,5.537e+07,51.424,714.3,1
2468,1.75,12178,1,12178,1,1.0149e-05,-1.2494e-10,0,0.00024913,-1.8428e-06,-2.7409e+05,-41.062,0,9.6929e+07,-9.8446,12177,13439,1,13439,1,0.00049079,3.1374e-09,0,0.00049079,8.7984e-05,1.818e+08,1032.7,0,1.908e+08,108.08,13438,12178,1,12178,1,-6.9344e-06,-2.8657e-10,0,0.00025579,1.378e-06,-2.8635e+06,-91.874,0,1.0357e+08,-4.681,12177,10873,1,10873,1,-0.0004691,-1.7388e-09,0,6.9343e-06,-9.1937e-05,-1.908e+08,-563.08,0,2.8635e+06,-218.67,10872,11561,1,11561,1,-0.00025579,-9.9871e-10,0,0.00013527,-4.5281e-05,-1.0404e+08,-329.02,0,5.1123e+07,-28.577,11560,12795,1,12795,1,0.00024193,2.7864e-10,0,0.00038412,4.7993e-05,9.0529e+07,91.772,0,1.4742e+08,12.89,12794,714.3,0,714.3,0,0.00028751,1.094e-09,0,0.0001438,5.3887e-05,1.118e+08,360.84,0,5.5685e+07,45.317,714.3,1
2468,1.76,12178,1,12178,1,1.0208e-05,-2.2976e-09,0,0.00025054,-1.8535e-06,-2.7558e+05,-755.93,0,9.7479e+07,-12.442,12177,13439,1,13439,1,0.00049361,4.3718e-09,0,0.00049361,8.849e-05,1.8284e+08,1448.8,0,1.919e+08,244.55,13438,12178,1,12178,1,-6.9726e-06,-2.107e-09,0,0.00025723,1.3855e-06,-2.8793e+06,-683.41,0,1.0416e+08,-14.367,12177,10873,1,10873,1,-0.0004718,-8.6625e-09,0,6.9726e-06,-9.2466e-05,-1.919e+08,-2801.3,0,2.8793e+06,-240.54,10872,11561,1,11561,1,-0.00025723,-4.7056e-09,0,0.00013603,-4.5541e-05,-1.0462e+08,-1555.1,0,5.1413e+07,-86.353,11560,12795,1,12795,1,0.00024332,2.0247e-10,0,0.00038629,4.8264e-05,9.1049e+07,66.578,0,1.4825e+08,53.383,12794,714.3,0,714.3,0,0.00028915,3.2187e-09,0,0.00014462,5.4194e-05,1.1244e+08,1059.7,0,5.6001e+07,102.14,714.3,1
2468,1.77,12178,1,12178,1,1.0267e-05,-2.3289e-10,0,0.00025197,-1.8643e-06,-2.772e+05,-76.663,0,9.8033e+07,-16.508,12177,13439,1,13439,1,0.00049639,3.9688e-09,0,0.00049639,8.8988e-05,1.8386e+08,1287.4,0,1.9298e+08,105.17,13438,12178,1,12178,1,-7.0113e-06,-3.6109e-10,0,0.0002587,1.3932e-06,-2.8953e+06,-117.96,0,1.0475e+08,-13.21,12177,10873,1,10873,1,-0.00047446,-2.5633e-09,0,7.0113e-06,-9.2987e-05,-1.9298e+08,-830.07,0,2.8953e+06,-236.16,10872,11561,1,11561,1,-0.0002587,-1.5102e-09,0,0.00013681,-4.5798e-05,-1.0522e+08,-491.82,0,5.1707e+07,-42.037,11560,12795,1,12795,1,0.00024469,4.7579e-10,0,0.0003885,4.854e-05,9.1563e+07,156.91,0,1.491e+08,15.195,12794,714.3,0,714.3,0,0.00029079,1.5263e-09,0,0.00014544,5.4502e-05,1.1308e+08,503.36,0,5.6319e+07,51.976,714.3,1
2468,1.78,12178,1,12178,1,1.0326e-05,-7.5831e-10,0,0.0002534,-1.875e-06,-2.7878e+05,-249.43,0,9.8588e+07,-7.7739,12177,13439,1,13439,1,0.00049921,2.7455e-09,0,0.00049921,8.9493e-05,1.849e+08,916.29,0,1.9407e+08,114.59,13438,12178,1,12178,1,-7.05e-06,-7.4388e-10,0,0.00026017,1.401e-06,-2.9113e+06,-241.68,0,1.0535e+08,-6.9562,12177,10873,1,10873,1,-0.00047715,-3.5665e-09,0,7.05e-06,-9.3515e-05,-1.9407e+08,-1155,0,2.9112e+06,-216.24,10872,11561,1,11561,1,-0.00026017,-2.0591e-09,0,0.00013759,-4.6058e-05,-1.0582e+08,-679.32,0,5.2e+07,-34.773,11560,12795,1,12795,1,0.00024608,2.8298e-10,0,0.0003907,4.8815e-05,9.2083e+07,93.896,0,1.4994e+08,21.384,12794,714.3,0,714.3,0,0.00029244,1.5081e-09,0,0.00014626,5.4811e-05,1.1372e+08,496.92,0,5.6638e+07,48.781,714.3,1
2468,1.79,12178,1,12178,1,1.0385e-05,-2.0736e-09,0,0.00025482,-1.8857e-06,-2.8041e+05,-682.06,0,9.9142e+07,-10.347,12177,13439,1,13439,1,0.00050203,3.2424e-09,0,0.00050203,8.9999e-05,1.8594e+08,1087.6,0,1.9517e+08,175.12,13438,12178,1,12178,1,-7.0887e-06,-1.663e-09,0,0.00026162,1.4087e-06,-2.9273e+06,-547.24,0,1.0594e+08,-4.2927,12177,10873,1,10873,1,-0.00047985,-7.7502e-09,0,7.0886e-06,-9.4044e-05,-1.9517e+08,-2501.7,0,2.9272e+06,-271.66,10872,11561,1,11561,1,-0.00026162,-4.0746e-09,0,0.00013836,-4.6318e-05,-1.0641e+08,-1334.4,0,5.2291e+07,-69.059,11560,12795,1,12795,1,0.00024747,1.1175e-10,0,0.00039289,4.9087e-05,9.2603e+07,36.703,0,1.5078e+08,47.82,12794,714.3,0,714.3,0,0.00029408,2.6138e-09,0,0.00014708,5.5119e-05,1.1435e+08,860.06,0,5.6955e+07,83.689,714.3,1
2468,1.8,12178,1,12178,1,1.0445e-05,-3.2959e-10,0,0.00025625,-1.8966e-06,-2.819e+05,-108.53,0,9.9698e+07,-15.851,12177,13439,1,13439,1,0.00050482,4.0869e-10,0,0.00050482,9.0499e-05,1.8696e+08,139.95,0,1.9625e+08,31.639,13438,12178,1,12178,1,-7.127e-06,-2.3955e-10,0,0.0002631,1.4163e-06,-2.9431e+06,-78.134,0,1.0654e+08,-8.4988,12177,10873,1,10873,1,-0.00048251,-1.6604e-09,0,7.1269e-06,-9.4566e-05,-1.9625e+08,-568.42,0,2.9431e+06,-237.83,10872,11561,1,11561,1,-0.0002631,-5.1783e-10,0,0.00013914,-4.6576e-05,-1.0701e+08,-169.54,0,5.2587e+07,-23.862,11560,12795,1,12795,1,0.00024885,-3.4145e-11,0,0.00039511,4.9365e-05,9.3118e+07,-11.074,0,1.5163e+08,4.5061,12794,714.3,0,714.3,0,0.00029573,4.0135e-10,0,0.00014791,5.5428e-05,1.15e+08,133.08,0,5.7274e+07,35.17,714.3,1
2468,1.81,12178,1,12178,1,1.0504e-05,6.7855e-10,0,0.00025767,-1.9073e-06,-2.8347e+05,223.15,0,1.0025e+08,-10.865,12177,13439,1,13439,1,0.00050762,2.6428e-09,0,0.00050762,9.1001e-05,1.88e+08,855.86,0,1.9734e+08,60.039,13438,12178,1,12178,1,-7.1653e-06,6.3214e-10,0,0.00026455,1.4239e-06,-2.959e+06,205.74,0,1.0713e+08,-3.2935,12177,10873,1,10873,1,-0.00048519,-1.2925e-09,0,7.1652e-06,-9.5091e-05,-1.9734e+08,-442.58,0,2.9589e+06,-241.35,10872,11561,1,11561,1,-0.00026455,5.0173e-11,0,0.00013991,-4.6834e-05,-1.076e+08,16.954,0,5.2879e+07,-22.731,11560,12795,1,12795,1,0.00025023,1.33e-09,0,0.0003973,4.9637e-05,9.3635e+07,432.7,0,1.5247e+08,14.031,12794,714.3,0,714.3,0,0.00029737,7.729e-10,0,0.00014873,5.5735e-05,1.1563e+08,255.33,0,5.7591e+07,42.079,714.3,1
2468,1.82,12178,1,12178,1,1.0567e-05,-1.7649e-09,0,0.0002591,-1.9187e-06,-2.8503e+05,-581.1,0,1.008e+08,-31.768,12177,13439,1,13439,1,0.00051046,7.5109e-10,0,0.00051046,9.1507e-05,1.8903e+08,257.25,0,1.9844e+08,80.755,13438,12178,1,12178,1,-7.2008e-06,-1.5935e-09,0,0.00026601,1.4311e-06,-2.9737e+06,-517.27,0,1.0772e+08,-29.752,12177,10873,1,10873,1,-0.00048789,-5.2739e-09,0,7.2007e-06,-9.5622e-05,-1.9844e+08,-1708,0,2.9737e+06,-225.61,10872,11561,1,11561,1,-0.00026601,-2.9072e-09,0,0.00014069,-4.7097e-05,-1.0819e+08,-961.49,0,5.3173e+07,-68.835,11560,12795,1,12795,1,0.00025163,-3.657e-10,0,0.0003995,4.9911e-05,9.4159e+07,-119.17,0,1.5331e+08,9.2176,12794,714.3,0,714.3,0,0.00029902,1.5383e-09,0,0.00014955,5.6044e-05,1.1627e+08,506.83,0,5.7908e+07,53.256,714.3,1
2468,1.83,12178,1,12178,1,1.0631e-05,1.4047e-10,0,0.00026051,-1.9303e-06,-2.8658e+05,45.921,0,1.0135e+08,-14.638,12177,13439,1,13439,1,0.00051324,5.5036e-09,0,0.00051324,9.2003e-05,1.9003e+08,1782.2,0,1.9952e+08,211.07,13438,12178,1,12178,1,-7.2338e-06,-1.0212e-10,0,0.00026746,1.4376e-06,-2.9874e+06,-34.11,0,1.0831e+08,-20.779,12177,10873,1,10873,1,-0.00049053,-2.298e-09,0,7.2336e-06,-9.6142e-05,-1.9952e+08,-783.25,0,2.9874e+06,-256.35,10872,11561,1,11561,1,-0.00026746,-1.2309e-09,0,0.00014147,-4.7354e-05,-1.0879e+08,-405.2,0,5.3466e+07,-52.068,11560,12795,1,12795,1,0.000253,8.4719e-10,0,0.00040169,5.0184e-05,9.4673e+07,274.57,0,1.5415e+08,14.611,12794,714.3,0,714.3,0,0.00030065,1.7691e-09,0,0.00015037,5.635e-05,1.169e+08,583.41,0,5.8221e+07,67.492,714.3,1
2468,1.84,12178,1,12178,1,1.0696e-05,-3.7547e-10,0,0.00026194,-1.9421e-06,-2.8821e+05,-123.63,0,1.0191e+08,-30.647,12177,13439,1,13439,1,0.00051607,4.5861e-09,0,0.00051607,9.2509e-05,1.9105e+08,1487.8,0,2.0061e+08,170.49,13438,12178,1,12178,1,-7.2673e-06,-3.8297e-10,0,0.00026892,1.4443e-06,-3.0013e+06,-124.64,0,1.0891e+08,-35.114,12177,10873,1,10873,1,-0.00049323,-4.1612e-09,0,7.2673e-06,-9.6674e-05,-2.0061e+08,-1347.6,0,3.0013e+06,-254.7,10872,11561,1,11561,1,-0.00026892,-1.6703e-09,0,0.00014225,-4.7616e-05,-1.0938e+08,-543.55,0,5.3762e+07,-84.797,11560,12795,1,12795,1,0.0002544,6.3227e-10,0,0.0004039,5.0458e-05,9.5197e+07,210.15,0,1.5499e+08,20.968,12794,714.3,0,714.3,0,0.00030231,1.8691e-09,0,0.0001512,5.666e-05,1.1754e+08,615.84,0,5.8538e+07,73.752,714.3,1
2468,1.85,12178,1,12178,1,1.076e-05,-2.1266e-09,0,0.00026335,-1.9538e-06,-2.8969e+05,-700.2,0,1.0245e+08,-26.464,12177,13439,1,13439,1,0.00051889,6.8691e-09,0,0.00051889,9.3011e-05,1.9206e+08,2221.5,0,2.017e+08,272.41,13438,12178,1,12178,1,-7.2996e-06,-1.5843e-09,0,0.00027035,1.4506e-06,-3.0148e+06,-514.17,0,1.0949e+08,-29.168,12177,10873,1,10873,1,-0.0004959,-1.1039e-08,0,7.2996e-06,-9.72e-05,-2.017e+08,-3574.6,0,3.0148e+06,-343.03,10872,11561,1,11561,1,-0.00027035,-5.8862e-09,0,0.00014302,-4.7876e-05,-1.0996e+08,-1928.6,0,5.4052e+07,-102.86,11560,12795,1,12795,1,0.00025579,8.4343e-10,0,0.00040607,5.0726e-05,9.5717e+07,277.86,0,1.5582e+08,44.499,12794,714.3,0,714.3,0,0.00030393,4.2011e-09,0,0.00015201,5.6964e-05,1.1817e+08,1383.9,0,5.8849e+07,107.56,714.3,1
2468,1.86,12178,1,12178,1,1.0825e-05,-1.2549e-09,0,0.00026478,-1.9657e-06,-2.9119e+05,-413.27,0,1.0301e+08,-31.11,12177,13439,1,13439,1,0.00052169,5.0393e-09,0,0.00052169,9.3512e-05,1.9307e+08,1631.9,0,2.0279e+08,173.92,13438,12178,1,12178,1,-7.3325e-06,-1.113e-09,0,0.00027182,1.4574e-06,-3.0285e+06,-367.11,0,1.1009e+08,-32.11,12177,10873,1,10873,1,-0.00049857,-6.0925e-09,0,7.3325e-06,-9.7726e-05,-2.0279e+08,-1972.9,0,3.0285e+06,-223.4,10872,11561,1,11561,1,-0.00027182,-3.5759e-09,0,0.0001438,-4.8136e-05,-1.1056e+08,-1168.3,0,5.435e+07,-79.604,11560,12795,1,12795,1,0.00025718,5.0264e-10,0,0.00040829,5.1002e-05,9.6236e+07,168.32,0,1.5666e+08,12.986,12794,714.3,0,714.3,0,0.00030558,2.5905e-09,0,0.00015284,5.7274e-05,1.1881e+08,854.13,0,5.9166e+07,71.368,714.3,1
2468,1.87,12178,1,12178,1,1.089e-05,-5.7902e-10,0,0.00026622,-1.9775e-06,-2.9282e+05,-190.75,0,1.0356e+08,-17.645,12177,13439,1,13439,1,0.00052451,4.0071e-09,0,0.00052451,9.4014e-05,1.9408e+08,1297.6,0,2.0388e+08,135.96,13438,12178,1,12178,1,-7.3658e-06,-4.3392e-10,0,0.00027329,1.464e-06,-3.0423e+06,-140.33,0,1.1069e+08,-25.199,12177,10873,1,10873,1,-0.00050125,-3.999e-09,0,7.3657e-06,-9.8253e-05,-2.0388e+08,-1351.9,0,3.0423e+06,-234.23,10872,11561,1,11561,1,-0.00027329,-2.2018e-09,0,0.00014459,-4.8396e-05,-1.1116e+08,-724.33,0,5.4646e+07,-55.861,11560,12795,1,12795,1,0.00025857,5.586e-10,0,0.00041051,5.1277e-05,9.6756e+07,183.25,0,1.5751e+08,14.95,12794,714.3,0,714.3,0,0.00030724,1.9058e-09,0,0.00015367,5.7583e-05,1.1944e+08,628.78,0,5.9483e+07,56.004,714.3,1
2468,1.88,12178,1,12178,1,1.0956e-05,-8.2403e-10,0,0.00026766,-1.9895e-06,-2.9439e+05,-271.37,0,1.0412e+08,-29.856,12177,13439,1,13439,1,0.00052735,6.1136e-10,0,0.00052735,9.4521e-05,1.9511e+08,191.89,0,2.0498e+08,56.769,13438,12178,1,12178,1,-7.3988e-06,-7.2777e-10,0,0.00027476,1.4706e-06,-3.056e+06,-242.04,0,1.113e+08,-21.42,12177,10873,1,10873,1,-0.00050396,-2.6027e-09,0,7.3987e-06,-9.8786e-05,-2.0498e+08,-842.86,0,3.056e+06,-259.76,10872,11561,1,11561,1,-0.00027476,-1.4088e-09,0,0.00014538,-4.8659e-05,-1.1176e+08,-462.71,0,5.4945e+07,-57.36,11560,12795,1,12795,1,0.00025998,-1.8404e-10,0,0.00041274,5.1553e-05,9.7282e+07,-60.912,0,1.5836e+08,3.8819,12794,714.3,0,714.3,0,0.0003089,8.0707e-10,0,0.0001545,5.7896e-05,1.2009e+08,265.07,0,5.9802e+07,45.286,714.3,1
2468,1.89,12178,1,12178,1,1.1021e-05,-1.9791e-09,0,0.00026907,-2.0013e-06,-2.9592e+05,-651.48,0,1.0467e+08,-35.038,12177,13439,1,13439,1,0.00053017,1.2785e-09,0,0.00053017,9.5023e-05,1.9612e+08,437.9,0,2.0607e+08,103.02,13438,12178,1,12178,1,-7.4307e-06,-1.8819e-09,0,0.0002762,1.477e-06,-3.0694e+06,-616.68,0,1.1188e+08,-23.905,12177,10873,1,10873,1,-0.00050663,-6.1184e-09,0,7.4307e-06,-9.9313e-05,-2.0607e+08,-1981.4,0,3.0694e+06,-237.72,10872,11561,1,11561,1,-0.0002762,-3.4324e-09,0,0.00014615,-4.8919e-05,-1.1234e+08,-1134.2,0,5.5237e+07,-82.902,11560,12795,1,12795,1,0.00026137,-2.2804e-10,0,0.00041492,5.1823e-05,9.7802e+07,-74.101,0,1.5919e+08,18.359,12794,714.3,0,714.3,0,0.00031053,1.9411e-09,0,0.00015532,5.8202e-05,1.2072e+08,638.74,0,6.0114e+07,69.211,714.3,1
2468,1.9,12178,1,12178,1,1.1085e-05,-1.5301e-09,0,0.00027048,-2.0131e-06,-2.974e+05,-503.81,0,1.0521e+08,-25.814,12177,13439,1,13439,1,0.00053296,6.0381e-09,0,0.00053296,9.5521e-05,1.9712e+08,1955.2,0,2.0715e+08,239.65,13438,12178,1,12178,1,-7.4627e-06,-1.2911e-09,0,0.00027764,1.4834e-06,-3.0827e+06,-424.97,0,1.1247e+08,-27.623,12177,10873,1,10873,1,-0.00050929,-8.0764e-09,0,7.4626e-06,-9.9836e-05,-2.0715e+08,-2615.3,0,3.0827e+06,-243.85,10872,11561,1,11561,1,-0.00027764,-4.4161e-09,0,0.00014693,-4.9178e-05,-1.1293e+08,-1471.4,0,5.5529e+07,-88.874,11560,12795,1,12795,1,0.00026275,6.9229e-10,0,0.00041711,5.2094e-05,9.8319e+07,227.94,0,1.6002e+08,31.811,12794,714.3,0,714.3,0,0.00031216,3.2614e-09,0,0.00015613,5.8507e-05,1.2135e+08,1074.7,0,6.0426e+07,88.789,714.3,1
2468,1.91,12178,1,12178,1,1.1151e-05,-1.6718e-09,0,0.00027193,-2.0251e-06,-2.991e+05,-550.52,0,1.0577e+08,-24.118,12177,13439,1,13439,1,0.0005358,1.1018e-09,0,0.0005358,9.6029e-05,1.9814e+08,377.36,0,2.0825e+08,85.616,13438,12178,1,12178,1,-7.4961e-06,-1.4444e-09,0,0.00027912,1.4901e-06,-3.0966e+06,-476.19,0,1.1308e+08,-18.978,12177,10873,1,10873,1,-0.00051199,-5.4762e-09,0,7.4961e-06,-0.00010037,-2.0825e+08,-1773.4,0,3.0966e+06,-228.8,10872,11561,1,11561,1,-0.00027912,-2.9271e-09,0,0.00014772,-4.9441e-05,-1.1353e+08,-967.91,0,5.5829e+07,-57.88,11560,12795,1,12795,1,0.00026415,-2.124e-10,0,0.00041935,5.2371e-05,9.8845e+07,-70.515,0,1.6088e+08,17.035,12794,714.3,0,714.3,0,0.00031383,1.6306e-09,0,0.00015697,5.8819e-05,1.2199e+08,537.04,0,6.0746e+07,53.747,714.3,1
2468,1.92,12178,1,12178,1,1.1216e-05,-1.834e-09,0,0.00027334,-2.0369e-06,-3.0055e+05,-603.76,0,1.0631e+08,-36.434,12177,13439,1,13439,1,0.0005386,6.7387e-09,0,0.0005386,9.6526e-05,1.9915e+08,2182.2,0,2.0933e+08,220.44,13438,12178,1,12178,1,-7.5276e-06,-1.5818e-09,0,0.00028055,1.4961e-06,-3.1097e+06,-518.78,0,1.1366e+08,-32.71,12177,10873,1,10873,1,-0.00051464,-9.6377e-09,0,7.5275e-06,-0.00010089,-2.0933e+08,-3120.9,0,3.1097e+06,-368.39,10872,11561,1,11561,1,-0.00028055,-5.0436e-09,0,0.00014849,-4.9699e-05,-1.1411e+08,-1655.9,0,5.6119e+07,-113.04,11560,12795,1,12795,1,0.00026553,7.8215e-10,0,0.00042152,5.2641e-05,9.9361e+07,260.08,0,1.617e+08,35.805,12794,714.3,0,714.3,0,0.00031545,3.744e-09,0,0.00015778,5.9123e-05,1.2262e+08,1233.8,0,6.1056e+07,107.79,714.3,1
2468,1.93,12178,1,12178,1,1.1282e-05,8.4327e-10,0,0.00027478,-2.0489e-06,-3.0227e+05,277.14,0,1.0687e+08,-4.7808,12177,13439,1,13439,1,0.00054142,4.8519e-09,0,0.00054142,9.703e-05,2.0016e+08,1571.1,0,2.1042e+08,213.26,13438,12178,1,12178,1,-7.5603e-06,4.2638e-10,0,0.00028204,1.5028e-06,-3.1234e+06,139.18,0,1.1427e+08,-4.7367,12177,10873,1,10873,1,-0.00051733,-1.5603e-09,0,7.5602e-06,-0.00010142,-2.1042e+08,-534.25,0,3.1233e+06,-312.5,10872,11561,1,11561,1,-0.00028204,-1.4016e-10,0,0.00014929,-4.996e-05,-1.1472e+08,-47.246,0,5.6421e+07,-35.623,11560,12795,1,12795,1,0.00026693,1.7427e-09,0,0.00042377,5.2919e-05,9.9884e+07,569.93,0,1.6256e+08,29.056,12794,714.3,0,714.3,0,0.00031712,1.3643e-09,0,0.00015861,5.9436e-05,1.2326e+08,450.19,0,6.1375e+07,70.401,714.3,1
2468,1.94,12178,1,12178,1,1.1349e-05,-8.5526e-10,0,0.00027622,-2.061e-06,-3.0382e+05,-281.6,0,1.0743e+08,-22.065,12177,13439,1,13439,1,0.00054425,6.6396e-10,0,0.00054425,9.7535e-05,2.0117e+08,208.77,0,2.1151e+08,48.581,13438,12178,1,12178,1,-7.5928e-06,-7.1752e-10,0,0.00028351,1.5094e-06,-3.1369e+06,-237.28,0,1.1487e+08,-10.8,12177,10873,1,10873,1,-0.00052002,-2.6762e-09,0,7.5928e-06,-0.00010195,-2.1151e+08,-866.66,0,3.1369e+06,-260.2,10872,11561,1,11561,1,-0.00028351,-1.4398e-09,0,0.00015007,-5.0223e-05,-1.1531e+08,-469.99,0,5.6718e+07,-44.055,11560,12795,1,12795,1,0.00026833,-2.3124e-10,0,0.00042598,5.3194e-05,1.0041e+08,-76.914,0,1.6341e+08,8.5054,12794,714.3,0,714.3,0,0.00031878,7.9082e-10,0,0.00015944,5.9747e-05,1.239e+08,259.77,0,6.1692e+07,43.881,714.3,1
2468,1.95,12178,1,12178,1,1.1413e-05,-2.2534e-09,0,0.00027761,-2.0728e-06,-3.0529e+05,-741.89,0,1.0797e+08,-35.855,12177,13439,1,13439,1,0.00054705,5.1947e-09,0,0.00054705,9.8033e-05,2.0217e+08,1682,0,2.1259e+08,264.96,13438,12178,1,12178,1,-7.6236e-06,-2.0845e-09,0,0.00028492,1.5154e-06,-3.1497e+06,-680.48,0,1.1545e+08,-34.919,12177,10873,1,10873,1,-0.00052268,-9.6764e-09,0,7.6236e-06,-0.00010247,-2.1259e+08,-3133.6,0,3.1497e+06,-376.11,10872,11561,1,11561,1,-0.00028492,-5.0448e-09,0,0.00015083,-5.0481e-05,-1.1589e+08,-1669.2,0,5.7006e+07,-110.55,11560,12795,1,12795,1,0.00026971,4.3505e-10,0,0.00042813,5.346e-05,1.0092e+08,139.75,0,1.6423e+08,35.523,12794,714.3,0,714.3,0,0.00032039,3.5586e-09,0,0.00016025,6.0048e-05,1.2452e+08,1172.1,0,6.2e+07,111.8,714.3,1
2468,1.96,12178,1,12178,1,1.148e-05,-1.1794e-09,0,0.00027906,-2.0849e-06,-3.0694e+05,-388.48,0,1.0853e+08,-19.866,12177,13439,1,13439,1,0.00054988,1.0985e-09,0,0.00054988,9.8537e-05,2.0319e+08,375.92,0,2.1369e+08,89.542,13438,12178,1,12178,1,-7.6564e-06,-9.7392e-10,0,0.00028641,1.5222e-06,-3.1634e+06,-322.6,0,1.1606e+08,-14.351,12177,10873,1,10873,1,-0.00052537,-4.2674e-09,0,7.6564e-06,-0.000103,-2.1369e+08,-1381.9,0,3.1634e+06,-270.09,10872,11561,1,11561,1,-0.00028641,-2.1652e-09,0,0.00015163,-5.0743e-05,-1.1649e+08,-705.61,0,5.7307e+07,-59.1,11560,12795,1,12795,1,0.00027111,1.8558e-11,0,0.00043038,5.3738e-05,1.0145e+08,5.8094,0,1.6508e+08,25.992,12794,714.3,0,714.3,0,0.00032206,1.3742e-09,0,0.00016108,6.0361e-05,1.2517e+08,452.59,0,6.232e+07,59.595,714.3,1
2468,1.97,12178,1,12178,1,1.1555e-05,-8.7442e-10,0,0.00028049,-2.0986e-06,-3.0848e+05,-288.46,0,1.0908e+08,-17.811,12177,13439,1,13439,1,0.00055271,2.8929e-09,0,0.00055271,9.9038e-05,2.0418e+08,939.82,0,2.1477e+08,154.19,13438,12178,1,12178,1,-7.6789e-06,-7.0663e-10,0,0.00028786,1.5268e-06,-3.1729e+06,-231.37,0,1.1666e+08,-26.092,12177,10873,1,10873,1,-0.00052804,-4.5926e-09,0,7.6789e-06,-0.00010353,-2.1477e+08,-1487.2,0,3.1729e+06,-246.15,10872,11561,1,11561,1,-0.00028786,-2.2177e-09,0,0.00015242,-5.1005e-05,-1.1708e+08,-735.48,0,5.7606e+07,-62.037,11560,12795,1,12795,1,0.00027251,3.2985e-10,0,0.0004326,5.401e-05,1.0197e+08,107.35,0,1.6592e+08,21.997,12794,714.3,0,714.3,0,0.00032371,1.7276e-09,0,0.00016191,6.067e-05,1.258e+08,569.97,0,6.2631e+07,64.996,714.3,1
2468,1.98,12178,1,12178,1,1.1634e-05,4.7928e-10,0,0.00028192,-2.1129e-06,-3.1008e+05,157.34,0,1.0963e+08,-18.725,12177,13439,1,13439,1,0.00055554,1.0521e-09,0,0.00055554,9.9539e-05,2.0517e+08,340.7,0,2.1586e+08,44.56,13438,12178,1,12178,1,-7.6989e-06,5.4601e-10,0,0.00028931,1.5308e-06,-3.1815e+06,180.22,0,1.1726e+08,-8.0011,12177,10873,1,10873,1,-0.00053071,-3.4343e-10,0,7.6988e-06,-0.00010406,-2.1586e+08,-117.62,0,3.1815e+06,-294.74,10872,11561,1,11561,1,-0.00028931,2.3764e-10,0,0.00015322,-5.1269e-05,-1.1767e+08,79.228,0,5.7909e+07,-22.762,11560,12795,1,12795,1,0.00027392,7.1982e-10,0,0.00043484,5.4283e-05,1.025e+08,235.69,0,1.6676e+08,1.8908,12794,714.3,0,714.3,0,0.00032536,3.1618e-10,0,0.00016274,6.0981e-05,1.2643e+08,103.87,0,6.2943e+07,41.259,714.3,1
2468,1.99,12178,1,12178,1,1.1712e-05,-5.3795e-10,0,0.00028336,-2.1272e-06,-3.1159e+05,-177.25,0,1.1018e+08,-17.875,12177,13439,1,13439,1,0.00055838,9.1445e-10,0,0.00055838,0.00010004,2.0616e+08,288.24,0,2.1695e+08,76.187,13438,12178,1,12178,1,-7.7188e-06,-4.4823e-10,0,0.00029076,1.5349e-06,-3.19e+06,-145.96,0,1.1786e+08,-10.455,12177,10873,1,10873,1,-0.00053339,-2.017e-09,0,7.7187e-06,-0.0001046,-2.1695e+08,-653.16,0,3.19e+06,-278.4,10872,11561,1,11561,1,-0.00029076,-1.0171e-09,0,0.00015402,-5.1533e-05,-1.1826e+08,-336.8,0,5.821e+07,-40.51,11560,12795,1,12795,1,0.00027533,-1.2428e-11,0,0.00043706,5.4555e-05,1.0303e+08,-4.1872,0,1.676e+08,11.649,12794,714.3,0,714.3,0,0.00032702,6.3127e-10,0,0.00016357,6.129e-05,1.2706e+08,207.27,0,6.3254e+07,49.419,714.3,1
2468,2,12178,1,12178,1,1.1795e-05,-6.3127e-10,0,0.00028478,-2.1424e-06,-3.1321e+05,-208.15,0,1.1072e+08,-20.509,12177,13439,1,13439,1,0.00056122,1.4722e-09,0,0.00056122,0.00010054,2.0713e+08,503.98,0,2.1803e+08,80.124,13438,12178,1,12178,1,-7.7331e-06,-5.6397e-10,0,0.0002922,1.5379e-06,-3.1964e+06,-185.79,0,1.1846e+08,-14.693,12177,10873,1,10873,1,-0.00053605,-2.7057e-09,0,7.733e-06,-0.00010513,-2.1803e+08,-876.19,0,3.1963e+06,-290.56,10872,11561,1,11561,1,-0.0002922,-1.3314e-09,0,0.00015482,-5.1797e-05,-1.1885e+08,-438.3,0,5.8512e+07,-51.876,11560,12795,1,12795,1,0.00027674,1.0518e-10,0,0.00043928,5.4825e-05,1.0355e+08,35.246,0,1.6844e+08,14.869,12794,714.3,0,714.3,0,0.00032866,9.606e-10,0,0.00016439,6.1598e-05,1.2769e+08,317.05,0,6.3561e+07,52.52,714.3,1
2468,2.01,12178,1,12178,1,1.1882e-05,-3.109e-10,0,0.00028621,-2.1582e-06,-3.147e+05,-102.59,0,1.1127e+08,-20.446,12177,13439,1,13439,1,0.00056407,1.6896e-09,0,0.00056407,0.00010104,2.0811e+08,570.18,0,2.1912e+08,79.732,13438,12178,1,12178,1,-7.7449e-06,-2.0556e-10,0,0.00029365,1.5404e-06,-3.2017e+06,-67.222,0,1.1906e+08,-13.493,12177,10873,1,10873,1,-0.00053872,-2.0268e-09,0,7.7448e-06,-0.00010566,-2.1912e+08,-656.37,0,3.2016e+06,-292.64,10872,11561,1,11561,1,-0.00029365,-8.8738e-10,0,0.00015563,-5.2063e-05,-1.1944e+08,-285.97,0,5.8817e+07,-55.204,11560,12795,1,12795,1,0.00027816,2.1748e-10,0,0.00044153,5.5096e-05,1.0409e+08,72.191,0,1.6927e+08,20.406,12794,714.3,0,714.3,0,0.00033032,7.8364e-10,0,0.00016522,6.1909e-05,1.2832e+08,258.01,0,6.387e+07,56.047,714.3,1
2468,2.02,12178,1,12178,1,1.1968e-05,-1.8343e-09,0,0.00028764,-2.1741e-06,-3.1631e+05,-604.13,0,1.1181e+08,-33.428,12177,13439,1,13439,1,0.00056694,2.6442e-09,0,0.00056694,0.00010154,2.0909e+08,857.93,0,2.2021e+08,197.67,13438,12178,1,12178,1,-7.7564e-06,-1.44e-09,0,0.00029508,1.5426e-06,-3.2069e+06,-470.64,0,1.1966e+08,-21.128,12177,10873,1,10873,1,-0.0005414,-7.6412e-09,0,7.7563e-06,-0.0001062,-2.2021e+08,-2474.4,0,3.2069e+06,-357.49,10872,11561,1,11561,1,-0.00029508,-3.5573e-09,0,0.00015643,-5.233e-05,-1.2002e+08,-1162.9,0,5.9119e+07,-112.49,11560,12795,1,12795,1,0.00027959,2.0274e-10,0,0.00044375,5.5365e-05,1.0462e+08,67.069,0,1.701e+08,48.508,12794,714.3,0,714.3,0,0.00033196,2.4629e-09,0,0.00016605,6.2217e-05,1.2894e+08,811.64,0,6.4177e+07,113.28,714.3,1
2468,2.03,12178,1,12178,1,1.2055e-05,-1.398e-09,0,0.00028906,-2.19e-06,-3.1778e+05,-460.69,0,1.1235e+08,-39.588,12177,13439,1,13439,1,0.00056977,4.6725e-09,0,0.00056977,0.00010204,2.1005e+08,1525.6,0,2.2129e+08,144.59,13438,12178,1,12178,1,-7.7671e-06,-1.3456e-09,0,0.00029651,1.5451e-06,-3.2117e+06,-446.92,0,1.2026e+08,-37.76,12177,10873,1,10873,1,-0.00054405,-6.4159e-09,0,7.767e-06,-0.00010673,-2.2129e+08,-2077.5,0,3.2117e+06,-289.25,10872,11561,1,11561,1,-0.00029651,-3.5049e-09,0,0.00015723,-5.2594e-05,-1.206e+08,-1155.6,0,5.9422e+07,-97.706,11560,12795,1,12795,1,0.000281,5.2905e-10,0,0.00044597,5.5634e-05,1.0515e+08,170.19,0,1.7093e+08,25.029,12794,714.3,0,714.3,0,0.00033361,2.5039e-09,0,0.00016687,6.2525e-05,1.2956e+08,826.06,0,6.4482e+07,82.962,714.3,1
2468,2.04,12178,1,12178,1,1.2143e-05,2.5057e-10,0,0.00029051,-2.206e-06,-3.1944e+05,81.865,0,1.1291e+08,-15.421,12177,13439,1,13439,1,0.00057262,1.4076e-09,0,0.00057262,0.00010254,2.1102e+08,458.71,0,2.2237e+08,38.283,13438,12178,1,12178,1,-7.7782e-06,1.5372e-10,0,0.00029797,1.5476e-06,-3.2168e+06,49.978,0,1.2087e+08,-2.6872,12177,10873,1,10873,1,-0.00054672,-8.5544e-10,0,7.778e-06,-0.00010726,-2.2237e+08,-292.95,0,3.2167e+06,-300.12,10872,11561,1,11561,1,-0.00029797,-2.2912e-12,0,0.00015805,-5.286e-05,-1.212e+08,-0.7632,0,5.9732e+07,-20.27,11560,12795,1,12795,1,0.00028242,4.5943e-10,0,0.00044824,5.5908e-05,1.0568e+08,149.09,0,1.7178e+08,6.2628,12794,714.3,0,714.3,0,0.00033528,3.9355e-10,0,0.00016771,6.2838e-05,1.302e+08,130.79,0,6.4793e+07,39.718,714.3,1
2468,2.05,12178,1,12178,1,1.2232e-05,4.0148e-10,0,0.00029194,-2.2221e-06,-3.2095e+05,131.95,0,1.1345e+08,-14.885,12177,13439,1,13439,1,0.00057547,2.4438e-09,0,0.00057547,0.00010304,2.1199e+08,791.27,0,2.2346e+08,68.159,13438,12178,1,12178,1,-7.7883e-06,1.7729e-10,0,0.00029941,1.5498e-06,-3.2214e+06,59.199,0,1.2147e+08,-8.989,12177,10873,1,10873,1,-0.00054939,-1.2882e-09,0,7.7882e-06,-0.0001078,-2.2346e+08,-441.11,0,3.2214e+06,-305.47,10872,11561,1,11561,1,-0.00029941,-1.5862e-10,0,0.00015885,-5.3126e-05,-1.2178e+08,-51.379,0,6.0037e+07,-27.11,11560,12795,1,12795,1,0.00028384,9.8114e-10,0,0.00045048,5.6179e-05,1.0621e+08,318.26,0,1.7262e+08,12.343,12794,714.3,0,714.3,0,0.00033693,7.9996e-10,0,0.00016854,6.3147e-05,1.3082e+08,264.73,0,6.51e+07,44.845,714.3,1
2468,2.06,12178,1,12178,1,1.232e-05,-1.2509e-09,0,0.00029336,-2.2383e-06,-3.2244e+05,-411.7,0,1.1399e+08,-38.697,12177,13439,1,13439,1,0.00057832,4.2134e-09,0,0.00057832,0.00010354,2.1296e+08,1381.8,0,2.2454e+08,151.9,13438,12178,1,12178,1,-7.7979e-06,-1.205e-09,0,0.00030084,1.5518e-06,-3.2258e+06,-398.93,0,1.2206e+08,-39.311,12177,10873,1,10873,1,-0.00055206,-6.0725e-09,0,7.7979e-06,-0.00010833,-2.2454e+08,-1966.3,0,3.2258e+06,-284.7,10872,11561,1,11561,1,-0.00030084,-3.0637e-09,0,0.00015965,-5.3392e-05,-1.2236e+08,-1010,0,6.0338e+07,-103.21,11560,12795,1,12795,1,0.00028526,4.92e-10,0,0.00045269,5.6446e-05,1.0674e+08,159.26,0,1.7344e+08,21.807,12794,714.3,0,714.3,0,0.00033857,2.3682e-09,0,0.00016936,6.3455e-05,1.3144e+08,780.6,0,6.5405e+07,83.071,714.3,1
2468,2.07,12178,1,12178,1,1.2408e-05,-1.3045e-09,0,0.0002948,-2.2545e-06,-3.2401e+05,-430.09,0,1.1454e+08,-39.238,12177,13439,1,13439,1,0.00058119,2.3498e-09,0,0.00058119,0.00010404,2.1394e+08,772.03,0,2.2563e+08,101.59,13438,12178,1,12178,1,-7.8076e-06,-1.1533e-09,0,0.00030228,1.554e-06,-3.2303e+06,-374.85,0,1.2267e+08,-31.491,12177,10873,1,10873,1,-0.00055473,-5.2739e-09,0,7.8075e-06,-0.00010886,-2.2563e+08,-1707.7,0,3.2303e+06,-281.22,10872,11561,1,11561,1,-0.00030228,-2.6654e-09,0,0.00016046,-5.3659e-05,-1.2295e+08,-885.95,0,6.0645e+07,-94.777,11560,12795,1,12795,1,0.00028669,2.7536e-10,0,0.00045494,5.6717e-05,1.0728e+08,91.552,0,1.7428e+08,16.091,12794,714.3,0,714.3,0,0.00034023,1.8225e-09,0,0.00017019,6.3766e-05,1.3207e+08,600.94,0,6.5714e+07,69.584,714.3,1
2468,2.08,12178,1,12178,1,1.2498e-05,-1.349e-09,0,0.00029625,-2.2709e-06,-3.2559e+05,-444.63,0,1.1509e+08,-34.596,12177,13439,1,13439,1,0.00058406,9.5207e-10,0,0.00058406,0.00010455,2.1491e+08,300.09,0,2.2672e+08,75.69,13438,12178,1,12178,1,-7.8167e-06,-1.1894e-09,0,0.00030374,1.556e-06,-3.2346e+06,-393.27,0,1.2327e+08,-17.239,12177,10873,1,10873,1,-0.00055742,-4.2465e-09,0,7.8165e-06,-0.0001094,-2.2672e+08,-1375,0,3.2345e+06,-303.45,10872,11561,1,11561,1,-0.00030374,-2.3362e-09,0,0.00016128,-5.3927e-05,-1.2354e+08,-764.29,0,6.0953e+07,-77.109,11560,12795,1,12795,1,0.00028812,-2.5937e-10,0,0.0004572,5.699e-05,1.0781e+08,-87.71,0,1.7512e+08,9.7237,12794,714.3,0,714.3,0,0.0003419,1.2728e-09,0,0.00017103,6.4078e-05,1.327e+08,418.66,0,6.6024e+07,62.769,714.3,1
2468,2.09,12178,1,12178,1,1.2588e-05,-9.5292e-10,0,0.00029766,-2.2873e-06,-3.2712e+05,-314.18,0,1.1563e+08,-35.061,12177,13439,1,13439,1,0.00058689,4.2596e-09,0,0.00058689,0.00010504,2.1587e+08,1386.6,0,2.278e+08,163.48,13438,12178,1,12178,1,-7.8245e-06,-8.3399e-10,0,0.00030516,1.5577e-06,-3.2383e+06,-272.64,0,1.2387e+08,-39.478,12177,10873,1,10873,1,-0.00056006,-5.8164e-09,0,7.8245e-06,-0.00010993,-2.278e+08,-1883.3,0,3.2383e+06,-271.87,10872,11561,1,11561,1,-0.00030516,-2.6255e-09,0,0.00016208,-5.4191e-05,-1.2412e+08,-867.26,0,6.1256e+07,-96.161,11560,12795,1,12795,1,0.00028953,5.8418e-10,0,0.00045941,5.7257e-05,1.0834e+08,195.77,0,1.7595e+08,26.398,12794,714.3,0,714.3,0,0.00034353,2.3035e-09,0,0.00017185,6.4384e-05,1.3332e+08,759.46,0,6.6327e+07,83.365,714.3,1
2468,2.1,12178,1,12178,1,1.2677e-05,-1.2761e-09,0,0.00029909,-2.3036e-06,-3.2882e+05,-420.44,0,1.1617e+08,-28.322,12177,13439,1,13439,1,0.00058974,4.818e-09,0,0.00058974,0.00010554,2.1683e+08,1560,0,2.2888e+08,189.24,13438,12178,1,12178,1,-7.8333e-06,-1.1222e-09,0,0.00030659,1.5597e-06,-3.2424e+06,-364.28,0,1.2447e+08,-38.114,12177,10873,1,10873,1,-0.00056272,-6.9223e-09,0,7.8332e-06,-0.00011047,-2.2888e+08,-2241.4,0,3.2424e+06,-279.66,10872,11561,1,11561,1,-0.00030659,-3.3089e-09,0,0.00016289,-5.4457e-05,-1.247e+08,-1102,0,6.1561e+07,-97.596,11560,12795,1,12795,1,0.00029095,5.1176e-10,0,0.00046165,5.7526e-05,1.0887e+08,165.26,0,1.7678e+08,35.907,12794,714.3,0,714.3,0,0.00034518,2.6634e-09,0,0.00017268,6.4693e-05,1.3394e+08,878.94,0,6.6633e+07,87.432,714.3,1
2468,2.11,12178,1,12178,1,1.2768e-05,-1.9427e-09,0,0.00030054,-2.3202e-06,-3.3026e+05,-639.99,0,1.1672e+08,-36.49,12177,13439,1,13439,1,0.00059261,7.5564e-10,0,0.00059261,0.00010605,2.178e+08,258.81,0,2.2997e+08,101.9,13438,12178,1,12178,1,-7.8411e-06,-1.7469e-09,0,0.00030804,1.5615e-06,-3.2461e+06,-566.72,0,1.2507e+08,-31.062,12177,10873,1,10873,1,-0.0005654,-5.748e-09,0,7.8409e-06,-0.000111,-2.2997e+08,-1861.1,0,3.2461e+06,-273.31,10872,11561,1,11561,1,-0.00030804,-3.2161e-09,0,0.0001637,-5.4725e-05,-1.2529e+08,-1064.7,0,6.1868e+07,-80.371,11560,12795,1,12795,1,0.00029238,-4.0497e-10,0,0.0004639,5.7797e-05,1.0941e+08,-133.93,0,1.7762e+08,10.558,12794,714.3,0,714.3,0,0.00034684,1.7112e-09,0,0.00017351,6.5005e-05,1.3457e+08,564.66,0,6.6941e+07,59.262,714.3,1
2468,2.12,12178,1,12178,1,1.2859e-05,1.6042e-09,0,0.00030196,-2.3368e-06,-3.3188e+05,527.21,0,1.1726e+08,-4.7204,12177,13439,1,13439,1,0.00059545,4.9949e-09,0,0.00059545,0.00010654,2.1876e+08,1622.8,0,2.3105e+08,143.31,13438,12178,1,12178,1,-7.8477e-06,1.4144e-09,0,0.00030948,1.563e-06,-3.2494e+06,459.84,0,1.2567e+08,-4.8364,12177,10873,1,10873,1,-0.00056806,-1.4609e-09,0,7.8475e-06,-0.00011153,-2.3105e+08,-500.21,0,3.2493e+06,-318.5,10872,11561,1,11561,1,-0.00030948,1.0104e-10,0,0.00016451,-5.499e-05,-1.2588e+08,32.708,0,6.2175e+07,-37.31,11560,12795,1,12795,1,0.0002938,3.0801e-09,0,0.00046614,5.8067e-05,1.0994e+08,1004.5,0,1.7846e+08,34.499,12794,714.3,0,714.3,0,0.00034849,1.6195e-09,0,0.00017434,6.5314e-05,1.3519e+08,533.77,0,6.7247e+07,65.747,714.3,1
2468,2.13,12178,1,12178,1,1.295e-05,2.657e-11,0,0.0003034,-2.3535e-06,-3.3341e+05,8.8946,0,1.1781e+08,-21.442,12177,13439,1,13439,1,0.00059829,2.9138e-09,0,0.00059829,0.00010704,2.1972e+08,945.29,0,2.3213e+08,107.54,13438,12178,1,12178,1,-7.8551e-06,-6.4134e-11,0,0.00031092,1.5647e-06,-3.253e+06,-20.987,0,1.2628e+08,-20.052,12177,10873,1,10873,1,-0.00057071,-1.7785e-09,0,7.8551e-06,-0.00011207,-2.3213e+08,-575.84,0,3.253e+06,-314.02,10872,11561,1,11561,1,-0.00031092,-7.9297e-10,0,0.00016533,-5.5256e-05,-1.2646e+08,-260.32,0,6.2483e+07,-45.358,11560,12795,1,12795,1,0.00029522,4.589e-10,0,0.0004684,5.8338e-05,1.1047e+08,149.83,0,1.7929e+08,6.948,12794,714.3,0,714.3,0,0.00035015,1.0338e-09,0,0.00017517,6.5624e-05,1.3582e+08,341.79,0,6.7553e+07,51.034,714.3,1
2468,2.14,12178,1,12178,1,1.3042e-05,6.3508e-10,0,0.00030483,-2.3702e-06,-3.3513e+05,208.81,0,1.1835e+08,-2.3375,12177,13439,1,13439,1,0.00060116,2.8818e-09,0,0.00060116,0.00010754,2.2069e+08,945.09,0,2.3322e+08,126.95,13438,12178,1,12178,1,-7.8616e-06,5.1337e-10,0,0.00031236,1.5662e-06,-3.2562e+06,170.72,0,1.2688e+08,3.8111,12177,10873,1,10873,1,-0.00057338,-1.8665e-09,0,7.8614e-06,-0.0001126,-2.3322e+08,-639.1,0,3.2561e+06,-309.86,10872,11561,1,11561,1,-0.00031236,-2.2976e-10,0,0.00016614,-5.5523e-05,-1.2705e+08,-72.523,0,6.2789e+07,-27.342,11560,12795,1,12795,1,0.00029665,1.5761e-09,0,0.00047064,5.8608e-05,1.11e+08,521.52,0,1.8013e+08,30.893,12794,714.3,0,714.3,0,0.0003518,1.0633e-09,0,0.000176,6.5934e-05,1.3644e+08,351.13,0,6.7859e+07,57.738,714.3,1
2468,2.15,12178,1,12178,1,1.3134e-05,-5.5212e-10,0,0.00030627,-2.3872e-06,-3.3657e+05,-181.74,0,1.1889e+08,-24.017,12177,13439,1,13439,1,0.00060401,1.6983e-09,0,0.00060401,0.00010804,2.2165e+08,570.48,0,2.343e+08,55.55,13438,12178,1,12178,1,-7.8677e-06,-4.7738e-10,0,0.0003138,1.5676e-06,-3.2593e+06,-156.59,0,1.2748e+08,-13.739,12177,10873,1,10873,1,-0.00057604,-2.549e-09,0,7.8676e-06,-0.00011314,-2.343e+08,-825.31,0,3.2592e+06,-301.94,10872,11561,1,11561,1,-0.0003138,-1.2356e-09,0,0.00016695,-5.579e-05,-1.2763e+08,-406.6,0,6.3096e+07,-55.85,11560,12795,1,12795,1,0.00029807,1.6648e-10,0,0.00047288,5.8878e-05,1.1153e+08,54.85,0,1.8096e+08,15.302,12794,714.3,0,714.3,0,0.00035346,9.2803e-10,0,0.00017683,6.6244e-05,1.3707e+08,305.76,0,6.8165e+07,52.314,714.3,1
2468,2.16,12178,1,12178,1,1.3227e-05,-4.7991e-10,0,0.0003077,-2.4042e-06,-3.3806e+05,-158.34,0,1.1944e+08,-20.918,12177,13439,1,13439,1,0.00060687,7.7141e-10,0,0.00060687,0.00010854,2.2261e+08,264.14,0,2.3538e+08,51.536,13438,12178,1,12178,1,-7.873e-06,-4.3421e-10,0,0.00031524,1.5688e-06,-3.262e+06,-141.54,0,1.2809e+08,-13.375,12177,10873,1,10873,1,-0.00057871,-1.7202e-09,0,7.8729e-06,-0.00011367,-2.3538e+08,-557.81,0,3.262e+06,-301.16,10872,11561,1,11561,1,-0.00031524,-1.0311e-09,0,0.00016776,-5.6057e-05,-1.2822e+08,-339.36,0,6.3403e+07,-32.226,11560,12795,1,12795,1,0.0002995,1.8511e-11,0,0.00047513,5.9148e-05,1.1207e+08,6.0563,0,1.818e+08,2.917,12794,714.3,0,714.3,0,0.00035511,6.1227e-10,0,0.00017766,6.6554e-05,1.3769e+08,202.64,0,6.8471e+07,41.994,714.3,1
2468,2.17,12178,1,12178,1,1.332e-05,-8.7733e-10,0,0.00030913,-2.4212e-06,-3.3963e+05,-289.1,0,1.1998e+08,-24.663,12177,13439,1,13439,1,0.00060973,3.958e-10,0,0.00060973,0.00010904,2.2356e+08,135.56,0,2.3647e+08,42.975,13438,12178,1,12178,1,-7.8782e-06,-8.4218e-10,0,0.00031667,1.5701e-06,-3.2647e+06,-278.27,0,1.2868e+08,-10.141,12177,10873,1,10873,1,-0.00058137,-2.5128e-09,0,7.8781e-06,-0.00011421,-2.3647e+08,-813.57,0,3.2647e+06,-289.21,10872,11561,1,11561,1,-0.00031667,-1.4745e-09,0,0.00016857,-5.6323e-05,-1.288e+08,-491.5,0,6.3709e+07,-48.856,11560,12795,1,12795,1,0.00030092,-2.051e-10,0,0.00047736,5.9416e-05,1.126e+08,-68.817,0,1.8263e+08,8.5473,12794,714.3,0,714.3,0,0.00035676,7.8144e-10,0,0.00017849,6.6864e-05,1.3832e+08,257.3,0,6.8776e+07,47.585,714.3,1
2468,2.18,12178,1,12178,1,1.3413e-05,-6.34e-10,0,0.00031055,-2.4383e-06,-3.4107e+05,-208.97,0,1.2052e+08,-40.406,12177,13439,1,13439,1,0.00061257,6.6229e-09,0,0.00061257,0.00010954,2.2452e+08,2144.3,0,2.3754e+08,226.39,13438,12178,1,12178,1,-7.8823e-06,-7.017e-10,0,0.00031809,1.5711e-06,-3.2669e+06,-228.55,0,1.2928e+08,-46.607,12177,10873,1,10873,1,-0.00058402,-6.016e-09,0,7.8822e-06,-0.00011474,-2.3754e+08,-1947.8,0,3.2669e+06,-297.73,10872,11561,1,11561,1,-0.00031809,-2.6171e-09,0,0.00016938,-5.6589e-05,-1.2938e+08,-862,0,6.4013e+07,-118.9,11560,12795,1,12795,1,0.00030234,9.0813e-10,0,0.00047958,5.9683e-05,1.1313e+08,295.9,0,1.8345e+08,28.484,12794,714.3,0,714.3,0,0.0003584,2.805e-09,0,0.00017931,6.717e-05,1.3893e+08,925.09,0,6.9078e+07,104.63,714.3,1
2468,2.19,12178,1,12178,1,1.3508e-05,5.2598e-10,0,0.00031199,-2.4554e-06,-3.4269e+05,172.49,0,1.2107e+08,-19.361,12177,13439,1,13439,1,0.00061544,3.834e-09,0,0.00061544,0.00011004,2.2548e+08,1244.9,0,2.3863e+08,121.84,13438,12178,1,12178,1,-7.887e-06,1.7923e-10,0,0.00031954,1.5723e-06,-3.2695e+06,57.243,0,1.2989e+08,-15.1,12177,10873,1,10873,1,-0.00058669,-1.0084e-09,0,7.8869e-06,-0.00011527,-2.3863e+08,-340.53,0,3.2694e+06,-302.38,10872,11561,1,11561,1,-0.00031954,-3.1438e-10,0,0.0001702,-5.6857e-05,-1.2997e+08,-103.12,0,6.4324e+07,-45.291,11560,12795,1,12795,1,0.00030377,1.1758e-09,0,0.00048186,5.9955e-05,1.1367e+08,390.81,0,1.843e+08,15.306,12794,714.3,0,714.3,0,0.00036007,1.1518e-09,0,0.00018015,6.7483e-05,1.3956e+08,381.27,0,6.9386e+07,52.57,714.3,1
2468,2.2,12178,1,12178,1,1.3602e-05,-2.7601e-10,0,0.00031342,-2.4727e-06,-3.4426e+05,-91.02,0,1.2161e+08,-30.853,12177,13439,1,13439,1,0.00061829,2.5489e-09,0,0.00061829,0.00011054,2.2643e+08,854.74,0,2.3971e+08,79.407,13438,12178,1,12178,1,-7.8909e-06,-2.2754e-10,0,0.00032097,1.5733e-06,-3.2716e+06,-73.722,0,1.3049e+08,-24.24,12177,10873,1,10873,1,-0.00058934,-2.7341e-09,0,7.8908e-06,-0.00011581,-2.3971e+08,-885.24,0,3.2716e+06,-330.7,10872,11561,1,11561,1,-0.00032097,-1.0871e-09,0,0.00017101,-5.7123e-05,-1.3055e+08,-356.05,0,6.4631e+07,-67.195,11560,12795,1,12795,1,0.0003052,4.5896e-10,0,0.00048409,6.0223e-05,1.142e+08,149.63,0,1.8512e+08,11.733,12794,714.3,0,714.3,0,0.00036172,1.1148e-09,0,0.00018097,6.7792e-05,1.4018e+08,367.87,0,6.969e+07,59.775,714.3,1
2468,2.21,12178,1,12178,1,1.3697e-05,-3.4492e-12,0,0.00031486,-2.4901e-06,-3.4582e+05,-1.5165,0,1.2215e+08,-16.403,12177,13439,1,13439,1,0.00062115,1.9233e-09,0,0.00062115,0.00011104,2.2738e+08,624.66,0,2.4079e+08,68.602,13438,12178,1,12178,1,-7.8943e-06,-6.0459e-11,0,0.00032241,1.5742e-06,-3.2737e+06,-19.313,0,1.311e+08,-8.9263,12177,10873,1,10873,1,-0.00059201,-1.4615e-09,0,7.8942e-06,-0.00011634,-2.4079e+08,-500.43,0,3.2736e+06,-307.65,10872,11561,1,11561,1,-0.00032241,-5.331e-10,0,0.00017183,-5.7391e-05,-1.3114e+08,-174.78,0,6.494e+07,-27.558,11560,12795,1,12795,1,0.00030663,4.3302e-10,0,0.00048635,6.0494e-05,1.1473e+08,140.69,0,1.8596e+08,9.217,12794,714.3,0,714.3,0,0.00036338,7.2941e-10,0,0.00018181,6.8103e-05,1.4081e+08,241.7,0,6.9996e+07,44.893,714.3,1
2468,2.22,12178,1,12178,1,1.3793e-05,-5.4499e-10,0,0.00031628,-2.5077e-06,-3.473e+05,-179.41,0,1.2269e+08,-16.238,12177,13439,1,13439,1,0.00062401,2.558e-09,0,0.00062401,0.00011153,2.2833e+08,844.2,0,2.4187e+08,106.24,13438,12178,1,12178,1,-7.8957e-06,-2.476e-10,0,0.00032384,1.5748e-06,-3.2749e+06,-80.625,0,1.3169e+08,-15.479,12177,10873,1,10873,1,-0.00059467,-3.7483e-09,0,7.8956e-06,-0.00011688,-2.4187e+08,-1213.5,0,3.2748e+06,-319.31,10872,11561,1,11561,1,-0.00032384,-1.8186e-09,0,0.00017264,-5.7658e-05,-1.3171e+08,-588.48,0,6.5246e+07,-44.08,11560,12795,1,12795,1,0.00030806,5.4183e-10,0,0.00048858,6.0761e-05,1.1527e+08,177.01,0,1.8679e+08,15.223,12794,714.3,0,714.3,0,0.00036502,1.4598e-09,0,0.00018263,6.8411e-05,1.4142e+08,481.26,0,7.0298e+07,51.658,714.3,1
2468,2.23,12178,1,12178,1,1.3906e-05,-1.6286e-09,0,0.00031772,-2.5284e-06,-3.4907e+05,-536.54,0,1.2322e+08,-15.942,12177,13439,1,13439,1,0.00062691,4.3079e-09,0,0.00062691,0.00011203,2.2927e+08,1394.7,0,2.4296e+08,173.06,13438,12178,1,12178,1,-7.881e-06,-1.0339e-09,0,0.00032525,1.5722e-06,-3.2697e+06,-343.26,0,1.3228e+08,-18.288,12177,10873,1,10873,1,-0.00059733,-8.174e-09,0,7.8809e-06,-0.00011742,-2.4296e+08,-2646.4,0,3.2696e+06,-324.35,10872,11561,1,11561,1,-0.00032525,-3.9323e-09,0,0.00017347,-5.793e-05,-1.3229e+08,-1291,0,6.556e+07,-72.942,11560,12795,1,12795,1,0.00030951,4.838e-10,0,0.00049083,6.1026e-05,1.158e+08,157.24,0,1.8761e+08,47.15,12794,714.3,0,714.3,0,0.00036667,3.0309e-09,0,0.00018346,6.872e-05,1.4204e+08,1000.1,0,7.0597e+07,82.546,714.3,1
2468,2.24,12178,1,12178,1,1.4023e-05,2.5303e-10,0,0.00031917,-2.5497e-06,-3.5048e+05,82.054,0,1.2377e+08,-18.684,12177,13439,1,13439,1,0.00062979,1.4564e-09,0,0.00062979,0.00011253,2.302e+08,482.54,0,2.4403e+08,41.763,13438,12178,1,12178,1,-7.8638e-06,2.0546e-10,0,0.00032669,1.5691e-06,-3.2635e+06,65.7,0,1.3288e+08,-7.8302,12177,10873,1,10873,1,-0.00059998,-9.1579e-10,0,7.8636e-06,-0.00011796,-2.4403e+08,-313.62,0,3.2634e+06,-329,10872,11561,1,11561,1,-0.00032669,-8.2869e-12,0,0.00017432,-5.8202e-05,-1.3288e+08,-2.7958,0,6.5882e+07,-22.074,11560,12795,1,12795,1,0.00031096,4.5784e-10,0,0.00049315,6.1297e-05,1.1632e+08,148.82,0,1.8845e+08,1.4547,12794,714.3,0,714.3,0,0.00036836,4.1905e-10,0,0.00018431,6.9035e-05,1.4266e+08,139.2,0,7.0901e+07,42.997,714.3,1
2468,2.25,12178,1,12178,1,1.4139e-05,-4.6455e-10,0,0.00032061,-2.5711e-06,-3.5201e+05,-152.99,0,1.243e+08,-22.01,12177,13439,1,13439,1,0.0006327,2.8612e-09,0,0.0006327,0.00011303,2.3114e+08,929.14,0,2.4512e+08,152.29,13438,12178,1,12178,1,-7.8464e-06,-4.3194e-10,0,0.00032811,1.5659e-06,-3.2572e+06,-142.71,0,1.3345e+08,-21.923,12177,10873,1,10873,1,-0.00060264,-3.152e-09,0,7.8462e-06,-0.0001185,-2.4512e+08,-1020.5,0,3.2572e+06,-342.57,10872,11561,1,11561,1,-0.00032811,-1.4194e-09,0,0.00017516,-5.8475e-05,-1.3345e+08,-468.3,0,6.6198e+07,-55.797,11560,12795,1,12795,1,0.00031242,2.7705e-10,0,0.00049542,6.1563e-05,1.1685e+08,90.618,0,1.8928e+08,18.22,12794,714.3,0,714.3,0,0.00037002,1.2895e-09,0,0.00018514,6.9346e-05,1.4327e+08,424.77,0,7.12e+07,67.625,714.3,1
2468,2.26,12178,1,12178,1,1.4256e-05,-1.4701e-09,0,0.00032204,-2.5926e-06,-3.5343e+05,-484.1,0,1.2484e+08,-38.664,12177,13439,1,13439,1,0.00063559,1.9534e-09,0,0.00063559,0.00011353,2.3206e+08,651.02,0,2.4619e+08,97.676,13438,12178,1,12178,1,-7.8279e-06,-1.2381e-09,0,0.00032951,1.5627e-06,-3.2505e+06,-407.73,0,1.3402e+08,-37.083,12177,10873,1,10873,1,-0.00060529,-5.8701e-09,0,7.8278e-06,-0.00011905,-2.4619e+08,-1900.4,0,3.2505e+06,-326.49,10872,11561,1,11561,1,-0.00032951,-3.0408e-09,0,0.00017599,-5.8748e-05,-1.3402e+08,-1002.1,0,6.6513e+07,-81.486,11560,12795,1,12795,1,0.00031388,1.7078e-10,0,0.00049768,6.1826e-05,1.1738e+08,54.553,0,1.901e+08,9.6319,12794,714.3,0,714.3,0,0.00037167,1.9108e-09,0,0.00018597,6.9655e-05,1.4388e+08,630.23,0,7.1498e+07,62.827,714.3,1
2468,2.27,12178,1,12178,1,1.4373e-05,-8.2326e-10,0,0.00032347,-2.6139e-06,-3.5505e+05,-272.18,0,1.2537e+08,-29.006,12177,13439,1,13439,1,0.00063846,2.9494e-09,0,0.00063846,0.00011402,2.3298e+08,961.24,0,2.4726e+08,104.36,13438,12178,1,12178,1,-7.8089e-06,-2.4025e-10,0,0.00033093,1.5593e-06,-3.2436e+06,-77.202,0,1.346e+08,-23.445,12177,10873,1,10873,1,-0.00060792,-5.1532e-09,0,7.8087e-06,-0.00011958,-2.4726e+08,-1668.3,0,3.2436e+06,-313.19,10872,11561,1,11561,1,-0.00033093,-2.3563e-09,0,0.00017683,-5.9018e-05,-1.346e+08,-771.08,0,6.6829e+07,-63.16,11560,12795,1,12795,1,0.00031533,6.6842e-10,0,0.00049995,6.2092e-05,1.1791e+08,221.65,0,1.9093e+08,12.12,12794,714.3,0,714.3,0,0.00037332,2.073e-09,0,0.0001868,6.9964e-05,1.4449e+08,684.77,0,7.1795e+07,59.548,714.3,1
2468,2.28,12178,1,12178,1,1.4491e-05,-3.6732e-10,0,0.00032493,-2.6356e-06,-3.5666e+05,-121.65,0,1.2591e+08,-17.4,12177,13439,1,13439,1,0.00064137,9.8002e-10,0,0.00064137,0.00011452,2.3391e+08,323.16,0,2.4835e+08,67.388,13438,12178,1,12178,1,-7.7899e-06,-2.998e-10,0,0.00033237,1.5558e-06,-3.2368e+06,-97.717,0,1.3518e+08,-9.3269,12177,10873,1,10873,1,-0.00061058,-1.7087e-09,0,7.7897e-06,-0.00012013,-2.4835e+08,-585.06,0,3.2367e+06,-339.65,10872,11561,1,11561,1,-0.00033237,-7.9858e-10,0,0.00017768,-5.9292e-05,-1.3518e+08,-262.93,0,6.7151e+07,-24.348,11560,12795,1,12795,1,0.00031679,-1.1122e-11,0,0.00050225,6.2361e-05,1.1844e+08,-3.5047,0,1.9176e+08,4.513,12794,714.3,0,714.3,0,0.000375,5.653e-10,0,0.00018765,7.0279e-05,1.4511e+08,188.2,0,7.2097e+07,47.542,714.3,1
2468,2.29,12178,1,12178,1,1.4611e-05,-1.0148e-09,0,0.00032636,-2.6575e-06,-3.582e+05,-334.06,0,1.2645e+08,-23.822,12177,13439,1,13439,1,0.00064427,2.2769e-09,0,0.00064427,0.00011502,2.3484e+08,754.12,0,2.4943e+08,100.51,13438,12178,1,12178,1,-7.7694e-06,-9.2747e-10,0,0.00033377,1.5521e-06,-3.2293e+06,-310.94,0,1.3576e+08,-21.277,12177,10873,1,10873,1,-0.00061324,-4.2767e-09,0,7.7693e-06,-0.00012067,-2.4943e+08,-1384.5,0,3.2292e+06,-331,10872,11561,1,11561,1,-0.00033377,-2.2033e-09,0,0.00017852,-5.9565e-05,-1.3576e+08,-730.95,0,6.7467e+07,-56.757,11560,12795,1,12795,1,0.00031825,1.418e-10,0,0.00050452,6.2625e-05,1.1897e+08,46.448,0,1.9258e+08,15.487,12794,714.3,0,714.3,0,0.00037665,1.4851e-09,0,0.00018848,7.0589e-05,1.4573e+08,489.54,0,7.2395e+07,58.46,714.3,1
2468,2.3,12178,1,12178,1,1.473e-05,-8.2443e-10,0,0.00032779,-2.6794e-06,-3.5965e+05,-272.17,0,1.2698e+08,-26.245,12177,13439,1,13439,1,0.00064715,3.6084e-09,0,0.00064715,0.00011551,2.3576e+08,1171.2,0,2.505e+08,115.6,13438,12178,1,12178,1,-7.748e-06,-5.9418e-10,0,0.00033518,1.5483e-06,-3.2215e+06,-196.06,0,1.3633e+08,-26.347,12177,10873,1,10873,1,-0.00061587,-4.7265e-09,0,7.7479e-06,-0.00012121,-2.505e+08,-1530.1,0,3.2214e+06,-323.77,10872,11561,1,11561,1,-0.00033518,-2.3347e-09,0,0.00017936,-5.9837e-05,-1.3633e+08,-764.73,0,6.7784e+07,-63.743,11560,12795,1,12795,1,0.0003197,4.3401e-10,0,0.00050679,6.289e-05,1.1949e+08,140.15,0,1.9341e+08,16.667,12794,714.3,0,714.3,0,0.0003783,1.9333e-09,0,0.00018931,7.0898e-05,1.4633e+08,638.08,0,7.2692e+07,62.222,714.3,1
2468,2.31,12178,1,12178,1,1.4851e-05,-1.7439e-09,0,0.00032924,-2.7016e-06,-3.6119e+05,-574.05,0,1.2752e+08,-37.218,12177,13439,1,13439,1,0.00065008,8.0025e-10,0,0.00065008,0.00011601,2.3669e+08,269.31,0,2.5159e+08,79.981,13438,12178,1,12178,1,-7.7267e-06,-1.6282e-09,0,0.00033661,1.5444e-06,-3.2136e+06,-534.99,0,1.3691e+08,-32.694,12177,10873,1,10873,1,-0.00061854,-5.2443e-09,0,7.7265e-06,-0.00012175,-2.5159e+08,-1697.7,0,3.2136e+06,-340.47,10872,11561,1,11561,1,-0.00033661,-2.9982e-09,0,0.0001802,-6.0112e-05,-1.3691e+08,-981.01,0,6.8104e+07,-71.987,11560,12795,1,12795,1,0.00032117,-3.4086e-10,0,0.00050908,6.3157e-05,1.2002e+08,-111.9,0,1.9424e+08,5.6557,12794,714.3,0,714.3,0,0.00037998,1.5354e-09,0,0.00019015,7.1212e-05,1.4695e+08,506.49,0,7.2992e+07,59.8,714.3,1
2468,2.32,12178,1,12178,1,1.4972e-05,-1.3887e-09,0,0.00033067,-2.7238e-06,-3.627e+05,-457.82,0,1.2805e+08,-30.801,12177,13439,1,13439,1,0.00065295,2.8489e-09,0,0.00065295,0.00011651,2.376e+08,927.64,0,2.5265e+08,109.37,13438,12178,1,12178,1,-7.7035e-06,-1.0353e-09,0,0.00033801,1.5402e-06,-3.2051e+06,-342.61,0,1.3748e+08,-28.512,12177,10873,1,10873,1,-0.00062117,-5.9661e-09,0,7.7033e-06,-0.00012229,-2.5265e+08,-1931.3,0,3.205e+06,-332.12,10872,11561,1,11561,1,-0.00033801,-3.05e-09,0,0.00018104,-6.0383e-05,-1.3748e+08,-987.66,0,6.8421e+07,-69.202,11560,12795,1,12795,1,0.00032263,1.8799e-10,0,0.00051135,6.3421e-05,1.2055e+08,61.74,0,1.9506e+08,14.128,12794,714.3,0,714.3,0,0.00038162,2.1396e-09,0,0.00019098,7.152e-05,1.4756e+08,706.22,0,7.3287e+07,62.349,714.3,1
2468,2.33,12178,1,12178,1,1.5093e-05,8.7501e-11,0,0.00033211,-2.746e-06,-3.6439e+05,27.551,0,1.2858e+08,-10.672,12177,13439,1,13439,1,0.00065583,1.4491e-09,0,0.00065583,0.000117,2.3852e+08,472.92,0,2.5373e+08,66.88,13438,12178,1,12178,1,-7.6805e-06,6.9316e-11,0,0.00033944,1.536e-06,-3.1966e+06,22.676,0,1.3806e+08,0.15462,12177,10873,1,10873,1,-0.0006238,-2.1687e-09,0,7.6804e-06,-0.00012283,-2.5373e+08,-742.59,0,3.1966e+06,-331.63,10872,11561,1,11561,1,-0.00033944,-2.8385e-10,0,0.00018189,-6.0655e-05,-1.3806e+08,-92.91,0,6.8742e+07,-21.522,11560,12795,1,12795,1,0.00032408,5.9953e-10,0,0.00051365,6.3688e-05,1.2107e+08,195.79,0,1.9589e+08,18.944,12794,714.3,0,714.3,0,0.00038329,7.2182e-10,0,0.00019182,7.1832e-05,1.4817e+08,239.2,0,7.3586e+07,49.581,714.3,1
2468,2.34,12178,1,12178,1,1.5216e-05,-7.3367e-10,0,0.00033355,-2.7685e-06,-3.6588e+05,-241.62,0,1.2911e+08,-21.101,12177,13439,1,13439,1,0.00065874,3.5318e-09,0,0.00065874,0.0001175,2.3944e+08,1172.4,0,2.5481e+08,129.51,13438,12178,1,12178,1,-7.6569e-06,-2.2832e-10,0,0.00034084,1.5317e-06,-3.1879e+06,-73.334,0,1.3863e+08,-12.644,12177,10873,1,10873,1,-0.00062646,-5.4673e-09,0,7.6567e-06,-0.00012338,-2.5481e+08,-1769.9,0,3.1879e+06,-365.74,10872,11561,1,11561,1,-0.00034084,-2.3612e-09,0,0.00018273,-6.0929e-05,-1.3863e+08,-767.06,0,6.906e+07,-61.026,11560,12795,1,12795,1,0.00032554,7.6857e-10,0,0.00051592,6.3952e-05,1.216e+08,249.15,0,1.9671e+08,32.247,12794,714.3,0,714.3,0,0.00038495,2.1369e-09,0,0.00019265,7.2142e-05,1.4878e+08,704.81,0,7.3882e+07,73.463,714.3,1
2468,2.35,12178,1,12178,1,1.534e-05,-1.0606e-09,0,0.00033498,-2.7911e-06,-3.6725e+05,-349.99,0,1.2965e+08,-33.826,12177,13439,1,13439,1,0.00066165,6.9655e-09,0,0.00066165,0.00011799,2.4035e+08,2254.9,0,2.5588e+08,255.05,13438,12178,1,12178,1,-7.6319e-06,-8.3151e-10,0,0.00034224,1.5271e-06,-3.1787e+06,-271.76,0,1.392e+08,-42.454,12177,10873,1,10873,1,-0.00062911,-7.8188e-09,0,7.6317e-06,-0.00012392,-2.5588e+08,-2531,0,3.1786e+06,-341.61,10872,11561,1,11561,1,-0.00034224,-3.638e-09,0,0.00018357,-6.1202e-05,-1.392e+08,-1197.5,0,6.9378e+07,-110.48,11560,12795,1,12795,1,0.00032701,9.4405e-10,0,0.00051819,6.4215e-05,1.2213e+08,310.5,0,1.9753e+08,32.468,12794,714.3,0,714.3,0,0.0003866,3.3227e-09,0,0.00019349,7.2452e-05,1.4939e+08,1095.3,0,7.4178e+07,103.91,714.3,1
2468,2.36,12178,1,12178,1,1.5463e-05,1.4205e-09,0,0.00033643,-2.8137e-06,-3.6898e+05,464.87,0,1.3018e+08,14.982,12177,13439,1,13439,1,0.00066456,7.1317e-09,0,0.00066456,0.00011849,2.4127e+08,2308.5,0,2.5696e+08,276.26,13438,12178,1,12178,1,-7.6064e-06,8.2419e-10,0,0.00034367,1.5225e-06,-3.1692e+06,272.09,0,1.3978e+08,14.842,12177,10873,1,10873,1,-0.00063176,-2.8179e-09,0,7.6062e-06,-0.00012446,-2.5696e+08,-964.69,0,3.1691e+06,-355.6,10872,11561,1,11561,1,-0.00034367,-1.7053e-10,0,0.00018443,-6.1476e-05,-1.3978e+08,-56.292,0,6.97e+07,-35.702,11560,12795,1,12795,1,0.00032847,2.9822e-09,0,0.00052049,6.4482e-05,1.2266e+08,979.59,0,1.9836e+08,72.396,12794,714.3,0,714.3,0,0.00038827,2.1709e-09,0,0.00019433,7.2765e-05,1.5e+08,713.86,0,7.4477e+07,99.976,714.3,1
2468,2.37,12178,1,12178,1,1.5589e-05,-3.9005e-10,0,0.00033788,-2.8369e-06,-3.7052e+05,-127.74,0,1.3072e+08,-24.373,12177,13439,1,13439,1,0.00066746,7.92e-10,0,0.00066746,0.00011899,2.4218e+08,247.93,0,2.5804e+08,31.688,13438,12178,1,12178,1,-7.5807e-06,-3.5815e-10,0,0.0003451,1.5178e-06,-3.1597e+06,-118.95,0,1.4036e+08,-15.215,12177,10873,1,10873,1,-0.00063441,-1.3144e-09,0,7.5807e-06,-0.00012501,-2.5804e+08,-425.49,0,3.1597e+06,-348.13,10872,11561,1,11561,1,-0.0003451,-7.5211e-10,0,0.00018529,-6.1751e-05,-1.4036e+08,-246.1,0,7.0024e+07,-28.761,11560,12795,1,12795,1,0.00032994,-3.1343e-11,0,0.0005228,6.475e-05,1.2319e+08,-10.164,0,1.992e+08,0.030586,12794,714.3,0,714.3,0,0.00038995,4.4231e-10,0,0.00019517,7.3079e-05,1.5062e+08,144.88,0,7.4776e+07,46.145,714.3,1
2468,2.38,12178,1,12178,1,1.5715e-05,-7.4375e-10,0,0.00033931,-2.8599e-06,-3.7204e+05,-245.12,0,1.3125e+08,-17.156,12177,13439,1,13439,1,0.00067035,2.4784e-09,0,0.00067035,0.00011948,2.4309e+08,802.22,0,2.5911e+08,108.97,13438,12178,1,12178,1,-7.5533e-06,-5.743e-10,0,0.00034649,1.5128e-06,-3.1495e+06,-190.65,0,1.4093e+08,-17.678,12177,10873,1,10873,1,-0.00063704,-3.6486e-09,0,7.5531e-06,-0.00012555,-2.5911e+08,-1181.1,0,3.1494e+06,-334.11,10872,11561,1,11561,1,-0.00034649,-1.896e-09,0,0.00018613,-6.2024e-05,-1.4093e+08,-618.13,0,7.0342e+07,-44.091,11560,12795,1,12795,1,0.0003314,2.1148e-10,0,0.00052507,6.5013e-05,1.2372e+08,69.036,0,2.0001e+08,17.541,12794,714.3,0,714.3,0,0.0003916,1.4394e-09,0,0.000196,7.3388e-05,1.5122e+08,474.67,0,7.507e+07,56.545,714.3,1
2468,2.39,12178,1,12178,1,1.5841e-05,-2.6122e-10,0,0.00034076,-2.8831e-06,-3.736e+05,-86.464,0,1.3178e+08,-23.696,12177,13439,1,13439,1,0.00067326,3.4537e-10,0,0.00067326,0.00011998,2.44e+08,115.4,0,2.6018e+08,7.8955,13438,12178,1,12178,1,-7.5257e-06,-2.1466e-10,0,0.00034791,1.5077e-06,-3.1392e+06,-69.336,0,1.4151e+08,-11.527,12177,10873,1,10873,1,-0.00063968,-1.1783e-09,0,7.5255e-06,-0.00012609,-2.6018e+08,-403.51,0,3.1391e+06,-343.44,10872,11561,1,11561,1,-0.00034791,-4.5993e-10,0,0.00018698,-6.2298e-05,-1.4151e+08,-151.67,0,7.0665e+07,-22.065,11560,12795,1,12795,1,0.00033287,-4.6561e-11,0,0.00052737,6.5279e-05,1.2425e+08,-15.447,0,2.0084e+08,-4.2038,12794,714.3,0,714.3,0,0.00039327,2.7089e-10,0,0.00019684,7.37e-05,1.5184e+08,90.517,0,7.5367e+07,41.6,714.3,1
2468,2.4,12178,1,12178,1,1.5968e-05,1.8928e-09,0,0.00034219,-2.9063e-06,-3.752e+05,621.48,0,1.3231e+08,-7.3179,12177,13439,1,13439,1,0.00067616,4.0939e-09,0,0.00067616,0.00012047,2.4491e+08,1325.1,0,2.6126e+08,124.69,13438,12178,1,12178,1,-7.497e-06,2.0194e-09,0,0.00034931,1.5025e-06,-3.1285e+06,655.62,0,1.4208e+08,1.7768,12177,10873,1,10873,1,-0.00064233,-5.9386e-10,0,7.4968e-06,-0.00012663,-2.6126e+08,-203.38,0,3.1284e+06,-338.61,10872,11561,1,11561,1,-0.00034931,7.7446e-10,0,0.00018782,-6.2572e-05,-1.4208e+08,252.08,0,7.0983e+07,-28.008,11560,12795,1,12795,1,0.00033433,3.0545e-09,0,0.00052963,6.554e-05,1.2478e+08,1008.3,0,2.0166e+08,24.022,12794,714.3,0,714.3,0,0.00039492,1.2682e-09,0,0.00019767,7.401e-05,1.5244e+08,418.06,0,7.5661e+07,58.638,714.3,1
2468,2.41,12178,1,12178,1,1.6097e-05,-1.291e-09,0,0.00034364,-2.93e-06,-3.7664e+05,-423.44,0,1.3285e+08,-36.315,12177,13439,1,13439,1,0.00067908,5.3376e-10,0,0.00067908,0.00012097,2.4582e+08,182.81,0,2.6234e+08,47.131,13438,12178,1,12178,1,-7.4682e-06,-1.3084e-09,0,0.00035073,1.4972e-06,-3.1177e+06,-430.72,0,1.4265e+08,-26.191,12177,10873,1,10873,1,-0.00064498,-3.1392e-09,0,7.4682e-06,-0.00012718,-2.6234e+08,-1016.1,0,3.1177e+06,-367.05,10872,11561,1,11561,1,-0.00035073,-2.0556e-09,0,0.00018868,-6.2848e-05,-1.4265e+08,-685.79,0,7.1307e+07,-51.442,11560,12795,1,12795,1,0.00033581,-5.6744e-10,0,0.00053194,6.5807e-05,1.2531e+08,-185.56,0,2.0249e+08,-3.3374,12794,714.3,0,714.3,0,0.00039659,9.306e-10,0,0.00019852,7.4323e-05,1.5306e+08,304.48,0,7.5959e+07,51.571,714.3,1
2468,2.42,12178,1,12178,1,1.6225e-05,-9.0422e-10,0,0.00034507,-2.9536e-06,-3.7814e+05,-297.85,0,1.3338e+08,-32.021,12177,13439,1,13439,1,0.00068198,2.0743e-09,0,0.00068198,0.00012147,2.4672e+08,692.96,0,2.6341e+08,99.237,13438,12178,1,12178,1,-7.4377e-06,-8.7653e-10,0,0.00035213,1.4914e-06,-3.1063e+06,-287.02,0,1.4322e+08,-24.458,12177,10873,1,10873,1,-0.00064761,-3.6913e-09,0,7.4376e-06,-0.00012772,-2.6341e+08,-1194.8,0,3.1063e+06,-364.11,10872,11561,1,11561,1,-0.00035213,-1.9869e-09,0,0.00018953,-6.3122e-05,-1.4322e+08,-658.63,0,7.1628e+07,-63.103,11560,12795,1,12795,1,0.00033727,1.7942e-10,0,0.00053422,6.607e-05,1.2584e+08,58.125,0,2.0331e+08,9.8193,12794,714.3,0,714.3,0,0.00039824,1.3273e-09,0,0.00019935,7.4633e-05,1.5366e+08,436.98,0,7.6253e+07,63.2,714.3,1
2468,2.43,12178,1,12178,1,1.6354e-05,-1.2284e-09,0,0.0003465,-2.9772e-06,-3.7969e+05,-404.59,0,1.3391e+08,-25.438,12177,13439,1,13439,1,0.00068488,1.4893e-09,0,0.00068488,0.00012196,2.4762e+08,500.33,0,2.6448e+08,75.023,13438,12178,1,12178,1,-7.4071e-06,-1.0247e-09,0,0.00035353,1.4858e-06,-3.0949e+06,-334.74,0,1.4379e+08,-19.809,12177,10873,1,10873,1,-0.00065024,-4.1515e-09,0,7.4069e-06,-0.00012826,-2.6448e+08,-1362.5,0,3.0948e+06,-359.93,10872,11561,1,11561,1,-0.00035353,-2.3975e-09,0,0.00019038,-6.3396e-05,-1.4379e+08,-783.01,0,7.1948e+07,-50.505,11560,12795,1,12795,1,0.00033873,1.1335e-11,0,0.0005365,6.6333e-05,1.2636e+08,3.711,0,2.0413e+08,11.971,12794,714.3,0,714.3,0,0.0003999,1.4843e-09,0,0.00020018,7.4942e-05,1.5427e+08,490.43,0,7.6546e+07,57.844,714.3,1
2468,2.44,12178,1,12178,1,1.6497e-05,-9.2263e-10,0,0.00034794,-3.0034e-06,-3.8096e+05,-303.91,0,1.3443e+08,-38.442,12177,13439,1,13439,1,0.00068779,3.4105e-09,0,0.00068779,0.00012245,2.4851e+08,1166.8,0,2.6555e+08,110.29,13438,12178,1,12178,1,-7.3624e-06,-8.7415e-10,0,0.00035492,1.4773e-06,-3.0778e+06,-278.58,0,1.4436e+08,-35.913,12177,10873,1,10873,1,-0.00065287,-4.6241e-09,0,7.3623e-06,-0.00012881,-2.6555e+08,-1496.7,0,3.0778e+06,-429.37,10872,11561,1,11561,1,-0.00035492,-2.506e-09,0,0.00019124,-6.3673e-05,-1.4436e+08,-827.4,0,7.2273e+07,-76.912,11560,12795,1,12795,1,0.00034021,3.5317e-10,0,0.0005388,6.6594e-05,1.2689e+08,113.74,0,2.0494e+08,9.1981,12794,714.3,0,714.3,0,0.00040156,1.8519e-09,0,0.00020102,7.5253e-05,1.5487e+08,610.68,0,7.6838e+07,72.347,714.3,1
2468,2.45,12178,1,12178,1,1.6647e-05,7.9219e-12,0,0.00034938,-3.0309e-06,-3.8279e+05,1.7085,0,1.3496e+08,-27.989,12177,13439,1,13439,1,0.00069072,6.0876e-09,0,0.00069072,0.00012294,2.494e+08,1981.4,0,2.6661e+08,138.24,13438,12178,1,12178,1,-7.3112e-06,1.6446e-10,0,0.00035631,1.4677e-06,-3.0582e+06,51.773,0,1.4492e+08,-28.67,12177,10873,1,10873,1,-0.00065549,-4.8225e-09,0,7.311e-06,-0.00012936,-2.6661e+08,-1620.4,0,3.0582e+06,-434.54,10872,11561,1,11561,1,-0.00035631,-1.9197e-09,0,0.00019212,-6.3951e-05,-1.4492e+08,-638.37,0,7.26e+07,-69.273,11560,12795,1,12795,1,0.00034171,1.5896e-09,0,0.00054112,6.6855e-05,1.274e+08,515.23,0,2.0576e+08,21.968,12794,714.3,0,714.3,0,0.00040322,2.6509e-09,0,0.00020186,7.5564e-05,1.5546e+08,874.14,0,7.7128e+07,77.96,714.3,1
2468,2.46,12178,1,12178,1,1.68e-05,6.35e-10,0,0.00035083,-3.059e-06,-3.8429e+05,207.91,0,1.3548e+08,-27.84,12177,13439,1,13439,1,0.00069367,4.0176e-09,0,0.00069367,0.00012344,2.5028e+08,1315.6,0,2.6768e+08,54.682,13438,12178,1,12178,1,-7.2576e-06,3.2972e-10,0,0.00035771,1.4577e-06,-3.0376e+06,106.28,0,1.4549e+08,-17.376,12177,10873,1,10873,1,-0.00065812,-2.4278e-09,0,7.2574e-06,-0.00012991,-2.6768e+08,-831.14,0,3.0376e+06,-406.63,10872,11561,1,11561,1,-0.00035771,-1.8563e-10,0,0.000193,-6.4231e-05,-1.4549e+08,-59.46,0,7.2931e+07,-44.117,11560,12795,1,12795,1,0.0003432,1.501e-09,0,0.00054346,6.7118e-05,1.2792e+08,489.66,0,2.0658e+08,8.8082,12794,714.3,0,714.3,0,0.0004049,1.3612e-09,0,0.00020271,7.5878e-05,1.5607e+08,450.5,0,7.7421e+07,58.245,714.3,1
2468,2.47,12178,1,12178,1,1.6955e-05,-2.053e-10,0,0.00035228,-3.0874e-06,-3.8574e+05,-67.548,0,1.3601e+08,-25.607,12177,13439,1,13439,1,0.00069661,3.0062e-09,0,0.00069661,0.00012393,2.5116e+08,1006.4,0,2.6875e+08,80.226,13438,12178,1,12178,1,-7.2026e-06,1.1488e-10,0,0.0003591,1.4473e-06,-3.0165e+06,37.902,0,1.4606e+08,-12.315,12177,10873,1,10873,1,-0.00066075,-3.2868e-09,0,7.2024e-06,-0.00013046,-2.6875e+08,-1104.6,0,3.0165e+06,-455.55,10872,11561,1,11561,1,-0.0003591,-1.2532e-09,0,0.00019388,-6.4512e-05,-1.4606e+08,-417.08,0,7.326e+07,-45.023,11560,12795,1,12795,1,0.00034471,7.8257e-10,0,0.00054578,6.7378e-05,1.2844e+08,258.99,0,2.074e+08,11.933,12794,714.3,0,714.3,0,0.00040657,1.509e-09,0,0.00020355,7.6191e-05,1.5667e+08,498.2,0,7.7711e+07,67.059,714.3,1
2468,2.48,12178,1,12178,1,1.711e-05,3.5404e-10,0,0.00035373,-3.1159e-06,-3.8742e+05,115.61,0,1.3653e+08,-21.931,12177,13439,1,13439,1,0.00069957,2.7143e-09,0,0.00069957,0.00012442,2.5205e+08,883.5,0,2.6982e+08,57.977,13438,12178,1,12178,1,-7.1471e-06,2.5553e-10,0,0.0003605,1.4369e-06,-2.9952e+06,82.832,0,1.4663e+08,-11.604,12177,10873,1,10873,1,-0.00066338,-1.575e-09,0,7.147e-06,-0.00013101,-2.6982e+08,-539.35,0,2.9952e+06,-408.34,10872,11561,1,11561,1,-0.0003605,-3.7549e-10,0,0.00019477,-6.4793e-05,-1.4663e+08,-122.62,0,7.3591e+07,-36.371,11560,12795,1,12795,1,0.00034621,1.0829e-09,0,0.00054812,6.7641e-05,1.2896e+08,358.47,0,2.0822e+08,9.9578,12794,714.3,0,714.3,0,0.00040824,1.0515e-09,0,0.0002044,7.6505e-05,1.5727e+08,347.77,0,7.8003e+07,58.21,714.3,1
2468,2.49,12178,1,12178,1,1.7266e-05,-3.836e-10,0,0.00035517,-3.1446e-06,-3.8875e+05,-126.2,0,1.3705e+08,-34.502,12177,13439,1,13439,1,0.00070251,4.7893e-09,0,0.00070251,0.00012492,2.5292e+08,1556.3,0,2.7089e+08,144.88,13438,12178,1,12178,1,-7.0895e-06,-4.0833e-12,0,0.00036188,1.4259e-06,-2.9731e+06,-1.3381,0,1.4719e+08,-31.641,12177,10873,1,10873,1,-0.00066601,-5.3483e-09,0,7.0893e-06,-0.00013156,-2.7089e+08,-1731,0,2.973e+06,-452.5,10872,11561,1,11561,1,-0.00036188,-2.2741e-09,0,0.00019564,-6.5074e-05,-1.4719e+08,-737.46,0,7.3919e+07,-83.73,11560,12795,1,12795,1,0.00034771,1.2625e-09,0,0.00055043,6.7899e-05,1.2948e+08,414.35,0,2.0903e+08,21.411,12794,714.3,0,714.3,0,0.0004099,2.5743e-09,0,0.00020523,7.6816e-05,1.5786e+08,848.04,0,7.8291e+07,87.949,714.3,1
2468,2.5,12178,1,12178,1,1.7423e-05,-1.4622e-09,0,0.00035662,-3.1734e-06,-3.9042e+05,-480.72,0,1.3758e+08,-29.066,12177,13439,1,13439,1,0.00070548,8.801e-10,0,0.00070548,0.00012541,2.538e+08,301.35,0,2.7197e+08,76.354,13438,12178,1,12178,1,-7.0319e-06,-1.3065e-09,0,0.00036327,1.4151e-06,-2.951e+06,-423.36,0,1.4775e+08,-21.9,12177,10873,1,10873,1,-0.00066865,-4.4849e-09,0,7.0317e-06,-0.00013211,-2.7197e+08,-1451.5,0,2.9509e+06,-418.13,10872,11561,1,11561,1,-0.00036327,-2.6575e-09,0,0.00019653,-6.5356e-05,-1.4775e+08,-877.43,0,7.425e+07,-45.847,11560,12795,1,12795,1,0.00034922,-1.5202e-10,0,0.00055277,6.816e-05,1.3e+08,-48.843,0,2.0985e+08,10.714,12794,714.3,0,714.3,0,0.00041158,1.4015e-09,0,0.00020608,7.713e-05,1.5846e+08,463.3,0,7.8583e+07,63.32,714.3,1
2468,2.51,12178,1,12178,1,1.7581e-05,-3.0429e-10,0,0.00035805,-3.2023e-06,-3.9188e+05,-101.11,0,1.3809e+08,-29.45,12177,13439,1,13439,1,0.00070838,6.5009e-09,0,0.00070838,0.00012589,2.5466e+08,2105.8,0,2.7301e+08,147.25,13438,12178,1,12178,1,-6.972e-06,-3.1105e-11,0,0.00036463,1.4039e-06,-2.9279e+06,-10.565,0,1.4831e+08,-27.01,12177,10873,1,10873,1,-0.00067123,-7.8048e-09,0,6.9719e-06,-0.00013266,-2.7301e+08,-2573,0,2.9278e+06,-430.33,10872,11561,1,11561,1,-0.00036463,-2.4635e-09,0,0.0001974,-6.5633e-05,-1.4831e+08,-802.38,0,7.4577e+07,-88.704,11560,12795,1,12795,1,0.0003507,1.6683e-09,0,0.00055506,6.8416e-05,1.3051e+08,541.08,0,2.1065e+08,40.415,12794,714.3,0,714.3,0,0.00041322,3.1921e-09,0,0.00020691,7.7437e-05,1.5905e+08,1051.6,0,7.8867e+07,90.943,714.3,1
2468,2.52,12178,1,12178,1,1.774e-05,-6.9653e-10,0,0.00035951,-3.2315e-06,-3.934e+05,-229.32,0,1.3862e+08,-33.861,12177,13439,1,13439,1,0.00071136,1.1761e-09,0,0.00071136,0.00012639,2.5555e+08,402.69,0,2.7409e+08,35.027,13438,12178,1,12178,1,-6.9134e-06,-3.5732e-10,0,0.00036604,1.3928e-06,-2.9054e+06,-117.74,0,1.4888e+08,-16.245,12177,10873,1,10873,1,-0.00067389,-3.6527e-09,0,6.9132e-06,-0.00013321,-2.7409e+08,-1249.9,0,2.9053e+06,-443.73,10872,11561,1,11561,1,-0.00036604,-1.347e-09,0,0.0001983,-6.5917e-05,-1.4888e+08,-432.41,0,7.4911e+07,-46.881,11560,12795,1,12795,1,0.00035222,1.6578e-10,0,0.00055742,6.868e-05,1.3104e+08,52.934,0,2.1148e+08,0.64888,12794,714.3,0,714.3,0,0.00041492,1.1381e-09,0,0.00020777,7.7754e-05,1.5966e+08,377.24,0,7.916e+07,61.782,714.3,1
2468,2.53,12178,1,12178,1,1.7901e-05,-1.0618e-09,0,0.00036096,-3.2611e-06,-3.9504e+05,-349.52,0,1.3914e+08,-24.451,12177,13439,1,13439,1,0.00071431,1.7863e-09,0,0.00071431,0.00012688,2.5641e+08,611.53,0,2.7516e+08,82.327,13438,12178,1,12178,1,-6.8515e-06,-9.773e-10,0,0.00036742,1.3811e-06,-2.8816e+06,-314.01,0,1.4944e+08,-13.332,12177,10873,1,10873,1,-0.00067651,-3.8161e-09,0,6.8513e-06,-0.00013377,-2.7516e+08,-1235,0,2.8815e+06,-427.37,10872,11561,1,11561,1,-0.00036742,-2.1325e-09,0,0.00019918,-6.6198e-05,-1.4944e+08,-700.66,0,7.5242e+07,-41.227,11560,12795,1,12795,1,0.00035373,7.8831e-11,0,0.00055975,6.8939e-05,1.3156e+08,26.255,0,2.1229e+08,13.662,12794,714.3,0,714.3,0,0.00041658,1.309e-09,0,0.00020861,7.8066e-05,1.6025e+08,432.11,0,7.9448e+07,66.537,714.3,1
2468,2.54,12178,1,12178,1,1.8062e-05,-7.3176e-10,0,0.0003624,-3.2907e-06,-3.9648e+05,-241.14,0,1.3966e+08,-27.253,12177,13439,1,13439,1,0.00071726,3.0163e-09,0,0.00071726,0.00012737,2.5728e+08,1007.9,0,2.7622e+08,98.145,13438,12178,1,12178,1,-6.789e-06,-3.7285e-10,0,0.0003688,1.3694e-06,-2.8575e+06,-122.14,0,1.5e+08,-16.422,12177,10873,1,10873,1,-0.00067912,-4.9104e-09,0,6.7888e-06,-0.00013432,-2.7622e+08,-1653.7,0,2.8574e+06,-410.59,10872,11561,1,11561,1,-0.0003688,-1.9902e-09,0,0.00020007,-6.6479e-05,-1.5e+08,-633.51,0,7.5573e+07,-56.246,11560,12795,1,12795,1,0.00035523,4.6854e-10,0,0.00056207,6.9197e-05,1.3207e+08,151.59,0,2.1311e+08,20.209,12794,714.3,0,714.3,0,0.00041824,1.8187e-09,0,0.00020945,7.8377e-05,1.6084e+08,599.84,0,7.9735e+07,68.68,714.3,1
2468,2.55,12178,1,12178,1,1.8224e-05,4.4693e-10,0,0.00036385,-3.3205e-06,-3.9799e+05,145.29,0,1.4019e+08,-28.601,12177,13439,1,13439,1,0.0007202,3.8271e-09,0,0.0007202,0.00012786,2.5815e+08,1247.9,0,2.7729e+08,66.733,13438,12178,1,12178,1,-6.7258e-06,3.103e-10,0,0.00037018,1.3576e-06,-2.8331e+06,99.691,0,1.5057e+08,-12.611,12177,10873,1,10873,1,-0.00068173,-3.1398e-09,0,6.7256e-06,-0.00013487,-2.7729e+08,-1074.9,0,2.8331e+06,-418.58,10872,11561,1,11561,1,-0.00037018,-3.2272e-10,0,0.00020096,-6.676e-05,-1.5057e+08,-103.94,0,7.5906e+07,-45.184,11560,12795,1,12795,1,0.00035674,1.2289e-09,0,0.00056442,6.9458e-05,1.3259e+08,408.99,0,2.1392e+08,13.051,12794,714.3,0,714.3,0,0.00041992,1.3748e-09,0,0.0002103,7.8691e-05,1.6144e+08,454.2,0,8.0024e+07,65.418,714.3,1
2468,2.56,12178,1,12178,1,1.8388e-05,2.4077e-11,0,0.00036529,-3.3506e-06,-3.9946e+05,7.5865,0,1.407e+08,-33.338,12177,13439,1,13439,1,0.00072315,6.3982e-09,0,0.00072315,0.00012835,2.5901e+08,2074.7,0,2.7835e+08,113.84,13438,12178,1,12178,1,-6.6615e-06,9.0441e-11,0,0.00037155,1.3453e-06,-2.8084e+06,29.755,0,1.5112e+08,-22.789,12177,10873,1,10873,1,-0.00068435,-5.7886e-09,0,6.6614e-06,-0.00013542,-2.7835e+08,-1934.4,0,2.8083e+06,-454.01,10872,11561,1,11561,1,-0.00037155,-1.8639e-09,0,0.00020185,-6.7042e-05,-1.5112e+08,-607.08,0,7.6237e+07,-76.226,11560,12795,1,12795,1,0.00035824,1.6538e-09,0,0.00056674,6.9715e-05,1.3311e+08,536,0,2.1473e+08,27.068,12794,714.3,0,714.3,0,0.00042158,2.7467e-09,0,0.00021114,7.9001e-05,1.6203e+08,905.12,0,8.031e+07,86.761,714.3,1
2468,2.57,12178,1,12178,1,1.8552e-05,-3.698e-10,0,0.00036675,-3.3808e-06,-4.0114e+05,-121.85,0,1.4123e+08,-25.686,12177,13439,1,13439,1,0.00072612,1.0866e-09,0,0.00072612,0.00012885,2.5988e+08,372.07,0,2.7942e+08,31.844,13438,12178,1,12178,1,-6.5968e-06,-6.3273e-11,0,0.00037295,1.3331e-06,-2.7834e+06,-20.272,0,1.5169e+08,-11.62,12177,10873,1,10873,1,-0.00068698,-2.7623e-09,0,6.5966e-06,-0.00013597,-2.7942e+08,-945.63,0,2.7834e+06,-411.57,10872,11561,1,11561,1,-0.00037295,-8.5371e-10,0,0.00020275,-6.7325e-05,-1.5169e+08,-278.4,0,7.6573e+07,-31.414,11560,12795,1,12795,1,0.00035976,1.7848e-10,0,0.0005691,6.9977e-05,1.3363e+08,59.253,0,2.1555e+08,3.1136,12794,714.3,0,714.3,0,0.00042326,8.1853e-10,0,0.00021199,7.9317e-05,1.6263e+08,272.37,0,8.06e+07,55.211,714.3,1
2468,2.58,12178,1,12178,1,1.8719e-05,-3.6779e-10,0,0.00036818,-3.4113e-06,-4.025e+05,-121.35,0,1.4174e+08,-31.694,12177,13439,1,13439,1,0.00072906,5.5161e-09,0,0.00072906,0.00012934,2.6073e+08,1808.4,0,2.8048e+08,131.17,13438,12178,1,12178,1,-6.5289e-06,-1.3947e-10,0,0.00037431,1.3203e-06,-2.7573e+06,-47.265,0,1.5224e+08,-32.249,12177,10873,1,10873,1,-0.00068958,-4.9945e-09,0,6.5288e-06,-0.00013652,-2.8048e+08,-1691.3,0,2.7572e+06,-447.26,10872,11561,1,11561,1,-0.00037431,-2.2289e-09,0,0.00020363,-6.7606e-05,-1.5224e+08,-724.27,0,7.6903e+07,-74.448,11560,12795,1,12795,1,0.00036127,9.0572e-10,0,0.00057141,7.0232e-05,1.3414e+08,300.88,0,2.1636e+08,22.642,12794,714.3,0,714.3,0,0.00042492,2.4818e-09,0,0.00021282,7.9626e-05,1.6322e+08,817.46,0,8.0883e+07,79.533,714.3,1
2468,2.59,12178,1,12178,1,1.8885e-05,-1.0721e-09,0,0.00036964,-3.4419e-06,-4.0412e+05,-352.31,0,1.4227e+08,-28.9,12177,13439,1,13439,1,0.00073205,2.085e-09,0,0.00073205,0.00012983,2.616e+08,713.77,0,2.8156e+08,124.47,13438,12178,1,12178,1,-6.4623e-06,-1.0715e-09,0,0.0003757,1.3077e-06,-2.7316e+06,-346.48,0,1.5281e+08,-14.655,12177,10873,1,10873,1,-0.00069223,-3.735e-09,0,6.4621e-06,-0.00013708,-2.8156e+08,-1208.6,0,2.7315e+06,-446.03,10872,11561,1,11561,1,-0.0003757,-2.2539e-09,0,0.00020453,-6.7892e-05,-1.5281e+08,-741.01,0,7.7239e+07,-58.179,11560,12795,1,12795,1,0.0003628,7.7067e-11,0,0.00057377,7.0493e-05,1.3467e+08,24.824,0,2.1718e+08,9.0816,12794,714.3,0,714.3,0,0.00042661,1.3342e-09,0,0.00021368,7.9942e-05,1.6382e+08,440.07,0,8.1174e+07,74.302,714.3,1
2468,2.6,12178,1,12178,1,1.9054e-05,-9.8062e-10,0,0.00037108,-3.4729e-06,-4.0563e+05,-322.89,0,1.4278e+08,-29.722,12177,13439,1,13439,1,0.000735,1.6575e-09,0,0.000735,0.00013032,2.6245e+08,556.45,0,2.8261e+08,90.936,13438,12178,1,12178,1,-6.3924e-06,-7.0455e-10,0,0.00037708,1.2945e-06,-2.7046e+06,-229.25,0,1.5337e+08,-23.438,12177,10873,1,10873,1,-0.00069483,-3.9903e-09,0,6.3923e-06,-0.00013763,-2.8261e+08,-1291.2,0,2.7045e+06,-410.89,10872,11561,1,11561,1,-0.00037708,-2.1684e-09,0,0.00020542,-6.8174e-05,-1.5337e+08,-712.21,0,7.7572e+07,-55.701,11560,12795,1,12795,1,0.0003643,1.524e-10,0,0.00057611,7.0751e-05,1.3518e+08,49.894,0,2.1799e+08,13.544,12794,714.3,0,714.3,0,0.00042827,1.4865e-09,0,0.00021452,8.0254e-05,1.6441e+08,490.84,0,8.1459e+07,64.937,714.3,1
2468,2.61,12178,1,12178,1,1.9223e-05,7.1532e-10,0,0.00037253,-3.5039e-06,-4.0717e+05,233.23,0,1.433e+08,-24.313,12177,13439,1,13439,1,0.00073795,3.1448e-09,0,0.00073795,0.00013081,2.6331e+08,1029.5,0,2.8368e+08,42.328,13438,12178,1,12178,1,-6.3228e-06,4.6092e-10,0,0.00037846,1.2815e-06,-2.6777e+06,147.45,0,1.5393e+08,-13.077,12177,10873,1,10873,1,-0.00069744,-1.7244e-09,0,6.3226e-06,-0.00013818,-2.8368e+08,-590.5,0,2.6777e+06,-394.8,10872,11561,1,11561,1,-0.00037846,5.864e-11,0,0.00020632,-6.8455e-05,-1.5393e+08,19.27,0,7.7908e+07,-34.508,11560,12795,1,12795,1,0.00036581,1.3233e-09,0,0.00057846,7.101e-05,1.357e+08,431.76,0,2.188e+08,6.3316,12794,714.3,0,714.3,0,0.00042994,9.6687e-10,0,0.00021537,8.0567e-05,1.65e+08,319.32,0,8.1745e+07,54.758,714.3,1
2468,2.62,12178,1,12178,1,1.9394e-05,1.0529e-09,0,0.00037398,-3.5353e-06,-4.0867e+05,344.71,0,1.4382e+08,-16.426,12177,13439,1,13439,1,0.00074094,3.4133e-09,0,0.00074094,0.0001313,2.6417e+08,1140.2,0,2.8475e+08,113.14,13438,12178,1,12178,1,-6.2524e-06,8.8925e-10,0,0.00037983,1.2682e-06,-2.6505e+06,295.34,0,1.5449e+08,0.5117,12177,10873,1,10873,1,-0.00070007,-1.1757e-09,0,6.2523e-06,-0.00013874,-2.8475e+08,-402.64,0,2.6505e+06,-451.19,10872,11561,1,11561,1,-0.00037983,2.2385e-10,0,0.00020722,-6.8741e-05,-1.5449e+08,71.018,0,7.8243e+07,-24.962,11560,12795,1,12795,1,0.00036734,1.774e-09,0,0.0005808,7.1268e-05,1.3622e+08,584.59,0,2.1961e+08,22.852,12794,714.3,0,714.3,0,0.00043162,1.0043e-09,0,0.00021622,8.0881e-05,1.656e+08,330.45,0,8.2032e+07,69.681,714.3,1
2468,2.63,12178,1,12178,1,1.9565e-05,-5.4316e-10,0,0.00037542,-3.5668e-06,-4.1008e+05,-177.4,0,1.4433e+08,-34.91,12177,13439,1,13439,1,0.00074387,4.3809e-09,0,0.00074387,0.00013179,2.6501e+08,1443.6,0,2.858e+08,109.29,13438,12178,1,12178,1,-6.1794e-06,-2.4787e-10,0,0.00038119,1.2543e-06,-2.6223e+06,-80.364,0,1.5504e+08,-22.674,12177,10873,1,10873,1,-0.00070266,-5.2304e-09,0,6.1793e-06,-0.00013929,-2.858e+08,-1748.7,0,2.6223e+06,-465.51,10872,11561,1,11561,1,-0.00038119,-2.1016e-09,0,0.00020811,-6.9023e-05,-1.5504e+08,-691.01,0,7.8576e+07,-71.191,11560,12795,1,12795,1,0.00036885,7.1363e-10,0,0.00058313,7.1523e-05,1.3673e+08,231.61,0,2.2042e+08,17.363,12794,714.3,0,714.3,0,0.00043327,2.192e-09,0,0.00021705,8.119e-05,1.6618e+08,721.54,0,8.2314e+07,80.245,714.3,1
2468,2.64,12178,1,12178,1,1.9736e-05,7.0657e-10,0,0.00037686,-3.5982e-06,-4.1169e+05,230.49,0,1.4485e+08,-29.146,12177,13439,1,13439,1,0.00074683,5.7367e-09,0,0.00074683,0.00013228,2.6586e+08,1874.5,0,2.8686e+08,106.17,13438,12178,1,12178,1,-6.1066e-06,5.707e-10,0,0.00038257,1.2405e-06,-2.5942e+06,187.56,0,1.556e+08,-20.655,12177,10873,1,10873,1,-0.00070527,-3.9123e-09,0,6.1064e-06,-0.00013984,-2.8686e+08,-1338.7,0,2.5942e+06,-428.3,10872,11561,1,11561,1,-0.00038257,-5.6156e-10,0,0.00020901,-6.9305e-05,-1.556e+08,-179.31,0,7.8911e+07,-61.839,11560,12795,1,12795,1,0.00037036,1.9085e-09,0,0.00058547,7.1781e-05,1.3725e+08,628.92,0,2.2123e+08,24.122,12794,714.3,0,714.3,0,0.00043494,2.0422e-09,0,0.0002179,8.1503e-05,1.6677e+08,673.82,0,8.26e+07,73.227,714.3,1
2468,2.65,12178,1,12178,1,1.991e-05,-4.4069e-10,0,0.00037832,-3.6302e-06,-4.1328e+05,-144.83,0,1.4537e+08,-27.532,12177,13439,1,13439,1,0.00074982,8.5857e-10,0,0.00074982,0.00013277,2.6671e+08,294.03,0,2.8793e+08,50.234,13438,12178,1,12178,1,-6.033e-06,-3.7572e-10,0,0.00038395,1.2266e-06,-2.5658e+06,-122.49,0,1.5616e+08,-11.433,12177,10873,1,10873,1,-0.0007079,-2.0035e-09,0,6.0328e-06,-0.0001404,-2.8793e+08,-686.02,0,2.5657e+06,-411.05,10872,11561,1,11561,1,-0.00038395,-8.0315e-10,0,0.00020992,-6.9591e-05,-1.5616e+08,-261.49,0,7.9249e+07,-33.639,11560,12795,1,12795,1,0.00037189,1.2499e-11,0,0.00058784,7.204e-05,1.3777e+08,4.0215,0,2.2204e+08,4.5074,12794,714.3,0,714.3,0,0.00043663,5.6442e-10,0,0.00021875,8.1818e-05,1.6737e+08,187.48,0,8.2887e+07,57.55,714.3,1
2468,2.66,12178,1,12178,1,2.0086e-05,-2.4504e-10,0,0.00037977,-3.6625e-06,-4.146e+05,-81.351,0,1.4589e+08,-30.971,12177,13439,1,13439,1,0.00075279,2.592e-09,0,0.00075279,0.00013326,2.6756e+08,865.64,0,2.8899e+08,78.287,13438,12178,1,12178,1,-5.9561e-06,-4.194e-11,0,0.00038532,1.212e-06,-2.5361e+06,-13.626,0,1.5672e+08,-22.786,12177,10873,1,10873,1,-0.00071051,-2.931e-09,0,5.9559e-06,-0.00014096,-2.8899e+08,-948.34,0,2.536e+06,-438.06,10872,11561,1,11561,1,-0.00038532,-1.2058e-09,0,0.00021082,-6.9876e-05,-1.5672e+08,-392.31,0,7.9586e+07,-48.965,11560,12795,1,12795,1,0.00037342,5.7602e-10,0,0.00059018,7.2297e-05,1.3828e+08,182.7,0,2.2285e+08,11.923,12794,714.3,0,714.3,0,0.0004383,1.3015e-09,0,0.0002196,8.2131e-05,1.6796e+08,428.98,0,8.3171e+07,68.044,714.3,1
2468,2.67,12178,1,12178,1,2.0262e-05,-2.1002e-10,0,0.00038122,-3.6948e-06,-4.1624e+05,-69.977,0,1.464e+08,-30.778,12177,13439,1,13439,1,0.00075576,2.1524e-09,0,0.00075576,0.00013375,2.684e+08,736.51,0,2.9005e+08,50.473,13438,12178,1,12178,1,-5.8797e-06,-6.0201e-11,0,0.00038669,1.1975e-06,-2.5065e+06,-18.547,0,1.5728e+08,-21.104,12177,10873,1,10873,1,-0.00071312,-2.2674e-09,0,5.8795e-06,-0.00014151,-2.9005e+08,-776.36,0,2.5065e+06,-419.88,10872,11561,1,11561,1,-0.00038669,-9.259e-10,0,0.00021172,-7.016e-05,-1.5728e+08,-304.92,0,7.9923e+07,-43.309,11560,12795,1,12795,1,0.00037494,3.9608e-10,0,0.00059253,7.2555e-05,1.388e+08,127.61,0,2.2366e+08,6.4626,12794,714.3,0,714.3,0,0.00043997,1.0335e-09,0,0.00022045,8.2443e-05,1.6855e+08,341.86,0,8.3455e+07,60.009,714.3,1
2468,2.68,12178,1,12178,1,2.0439e-05,-8.2696e-10,0,0.00038267,-3.7274e-06,-4.178e+05,-272.23,0,1.4692e+08,-29.302,12177,13439,1,13439,1,0.00075875,2.2508e-09,0,0.00075875,0.00013424,2.6925e+08,770.17,0,2.9112e+08,113.9,13438,12178,1,12178,1,-5.8022e-06,-4.3626e-10,0,0.00038806,1.1828e-06,-2.4766e+06,-140.1,0,1.5784e+08,-21.061,12177,10873,1,10873,1,-0.00071574,-4.8078e-09,0,5.802e-06,-0.00014207,-2.9112e+08,-1555.6,0,2.4765e+06,-489,10872,11561,1,11561,1,-0.00038806,-2.1952e-09,0,0.00021263,-7.0446e-05,-1.5784e+08,-717.34,0,8.026e+07,-57.793,11560,12795,1,12795,1,0.00037647,4.2668e-10,0,0.00059488,7.2811e-05,1.3932e+08,137.74,0,2.2447e+08,14.723,12794,714.3,0,714.3,0,0.00044164,1.7356e-09,0,0.00022129,8.2757e-05,1.6913e+08,572.36,0,8.3739e+07,74.703,714.3,1
2468,2.69,12178,1,12178,1,2.0636e-05,3.7291e-10,0,0.00038411,-3.7634e-06,-4.1931e+05,120.48,0,1.4743e+08,-25.533,12177,13439,1,13439,1,0.00076172,5.2958e-09,0,0.00076172,0.00013473,2.7007e+08,1743.6,0,2.9217e+08,130.75,13438,12178,1,12178,1,-5.7043e-06,3.1358e-10,0,0.00038941,1.1643e-06,-2.4386e+06,100.26,0,1.5838e+08,-26.858,12177,10873,1,10873,1,-0.00071832,-2.9375e-09,0,5.7042e-06,-0.00014263,-2.9217e+08,-951.94,0,2.4385e+06,-528.72,10872,11561,1,11561,1,-0.00038941,-1.1239e-09,0,0.00021355,-7.0733e-05,-1.5838e+08,-365.6,0,8.0592e+07,-67.015,11560,12795,1,12795,1,0.00037801,1.4647e-09,0,0.00059725,7.3065e-05,1.3983e+08,476.53,0,2.2527e+08,22.648,12794,714.3,0,714.3,0,0.00044331,1.9624e-09,0,0.00022214,8.3069e-05,1.6971e+08,647.14,0,8.4019e+07,76.192,714.3,1
2468,2.7,12178,1,12178,1,2.0836e-05,-6.0472e-10,0,0.00038558,-3.8002e-06,-4.208e+05,-198.68,0,1.4794e+08,-38.982,12177,13439,1,13439,1,0.00076476,1.6289e-09,0,0.00076476,0.00013522,2.7091e+08,557.74,0,2.9324e+08,62.087,13438,12178,1,12178,1,-5.6056e-06,-4.6387e-10,0,0.00039077,1.1456e-06,-2.4002e+06,-150.24,0,1.5894e+08,-30.048,12177,10873,1,10873,1,-0.00072094,-3.1048e-09,0,5.6054e-06,-0.00014319,-2.9324e+08,-1005.6,0,2.4002e+06,-531.1,10872,11561,1,11561,1,-0.00039077,-1.4223e-09,0,0.00021449,-7.1026e-05,-1.5894e+08,-466.74,0,8.0929e+07,-58.439,11560,12795,1,12795,1,0.00037957,2.3127e-10,0,0.00059966,7.3321e-05,1.4034e+08,75.244,0,2.2608e+08,-0.61572,12794,714.3,0,714.3,0,0.000445,1.0423e-09,0,0.000223,8.3386e-05,1.703e+08,343.92,0,8.4304e+07,62.782,714.3,1
2468,2.71,12178,1,12178,1,2.1042e-05,-4.8018e-11,0,0.00038704,-3.838e-06,-4.2239e+05,-16.967,0,1.4845e+08,-19.707,12177,13439,1,13439,1,0.00076776,1.4228e-09,0,0.00076776,0.0001357,2.7173e+08,475.73,0,2.9428e+08,72.582,13438,12178,1,12178,1,-5.4989e-06,-5.1917e-11,0,0.00039213,1.1248e-06,-2.3588e+06,-16.594,0,1.5949e+08,-6.2031,12177,10873,1,10873,1,-0.00072352,-1.0875e-09,0,5.4987e-06,-0.00014375,-2.9428e+08,-372.42,0,2.3587e+06,-1452,10872,11561,1,11561,1,-0.00039213,-2.8738e-10,0,0.00021543,-7.1316e-05,-1.5949e+08,-95.762,0,8.1263e+07,-22.788,11560,12795,1,12795,1,0.00038113,8.3456e-11,0,0.00060205,7.3575e-05,1.4085e+08,26.763,0,2.2689e+08,5.3939,12794,714.3,0,714.3,0,0.00044669,3.391e-10,0,0.00022386,8.37e-05,1.7088e+08,113.21,0,8.4584e+07,62.732,714.3,1
2468,2.72,12178,1,12178,1,2.1252e-05,-2.5917e-10,0,0.00038848,-3.8766e-06,-4.2385e+05,-85.2,0,1.4895e+08,-17.952,12177,13439,1,13439,1,0.00077076,3.4125e-09,0,0.00077076,0.00013619,2.7254e+08,1103.9,0,2.9533e+08,94.471,13438,12178,1,12178,1,-5.3887e-06,-1.7863e-10,0,0.00039346,1.1014e-06,-2.316e+06,-59.063,0,1.6003e+08,-9.6836,12177,10873,1,10873,1,-0.00072611,-2.9205e-09,0,5.3885e-06,-0.00014431,-2.9533e+08,-997.22,0,2.316e+06,-1656,10872,11561,1,11561,1,-0.00039346,-1.3239e-09,0,0.00021636,-7.1607e-05,-1.6003e+08,-432.58,0,8.1594e+07,-38.135,11560,12795,1,12795,1,0.00038269,4.5825e-10,0,0.00060443,7.3825e-05,1.4135e+08,151.18,0,2.2768e+08,23.078,12794,714.3,0,714.3,0,0.00044835,1.4528e-09,0,0.0002247,8.4013e-05,1.7145e+08,478.06,0,8.4862e+07,98.27,714.3,1
2468,2.73,12178,1,12178,1,2.1463e-05,2.1943e-11,0,0.00038994,-3.9154e-06,-4.2533e+05,6.6444,0,1.4946e+08,-25.944,12177,13439,1,13439,1,0.00077379,3.8503e-09,0,0.00077379,0.00013667,2.7335e+08,1245.5,0,2.9639e+08,106.86,13438,12178,1,12178,1,-5.2771e-06,-1.0823e-10,0,0.0003948,1.0804e-06,-2.2726e+06,-35.842,0,1.6058e+08,-13.047,12177,10873,1,10873,1,-0.00072869,-2.3035e-09,0,5.2769e-06,-0.00014488,-2.9639e+08,-786.26,0,2.2725e+06,-1541.2,10872,11561,1,11561,1,-0.0003948,-9.5073e-10,0,0.00021731,-7.1899e-05,-1.6058e+08,-307.08,0,8.1927e+07,-37.549,11560,12795,1,12795,1,0.00038425,6.1894e-10,0,0.00060683,7.4077e-05,1.4186e+08,201.06,0,2.2848e+08,10.924,12794,714.3,0,714.3,0,0.00045004,1.3486e-09,0,0.00022556,8.4327e-05,1.7203e+08,444.67,0,8.5142e+07,108.32,714.3,1
2468,2.74,12178,1,12178,1,2.1677e-05,2.5338e-10,0,0.00039141,-3.9547e-06,-4.2683e+05,82.619,0,1.4996e+08,-30.119,12177,13439,1,13439,1,0.00077682,1.8187e-09,0,0.00077682,0.00013716,2.7417e+08,620.76,0,2.9745e+08,112.2,13438,12178,1,12178,1,-5.1637e-06,1.8738e-10,0,0.00039615,1.0592e-06,-2.2284e+06,59.721,0,1.6113e+08,-9.7392,12177,10873,1,10873,1,-0.00073129,-1.6111e-09,0,5.1635e-06,-0.00014545,-2.9745e+08,-551.67,0,2.2283e+06,-1402.4,10872,11561,1,11561,1,-0.00039615,-5.7792e-11,0,0.00021826,-7.2193e-05,-1.6113e+08,-18.933,0,8.2263e+07,-23.948,11560,12795,1,12795,1,0.00038583,6.4041e-10,0,0.00060925,7.433e-05,1.4236e+08,209.39,0,2.2929e+08,4.7837,12794,714.3,0,714.3,0,0.00045173,5.8727e-10,0,0.00022642,8.4644e-05,1.7261e+08,195.22,0,8.5422e+07,116.46,714.3,1
2468,2.75,12178,1,12178,1,2.1893e-05,-3.6045e-10,0,0.00039286,-3.9944e-06,-4.2826e+05,-117.94,0,1.5046e+08,-34.223,12177,13439,1,13439,1,0.00077985,2.4561e-09,0,0.00077985,0.00013765,2.7498e+08,840.42,0,2.985e+08,117.51,13438,12178,1,12178,1,-5.048e-06,-3.6123e-10,0,0.00039749,1.0374e-06,-2.1833e+06,-114.92,0,1.6167e+08,-14.767,12177,10873,1,10873,1,-0.00073388,-2.3569e-09,0,5.0478e-06,-0.00014601,-2.985e+08,-778.37,0,2.1833e+06,-1308.7,10872,11561,1,11561,1,-0.00039749,-1.2267e-09,0,0.0002192,-7.2486e-05,-1.6167e+08,-396.69,0,8.2596e+07,-38.274,11560,12795,1,12795,1,0.0003874,3.0154e-10,0,0.00061164,7.4581e-05,1.4287e+08,97.026,0,2.3008e+08,9.2069,12794,714.3,0,714.3,0,0.0004534,1.05e-09,0,0.00022728,8.4958e-05,1.7319e+08,344.67,0,8.57e+07,127.71,714.3,1
2468,2.76,12178,1,12178,1,2.2109e-05,-3.1417e-11,0,0.00039432,-4.0341e-06,-4.2984e+05,-11.06,0,1.5097e+08,-34.829,12177,13439,1,13439,1,0.00078287,1.7447e-09,0,0.00078287,0.00013813,2.7579e+08,597.26,0,2.9955e+08,72.773,13438,12178,1,12178,1,-4.9311e-06,-5.1656e-11,0,0.00039883,1.0156e-06,-2.1378e+06,-16.614,0,1.6222e+08,-9.6067,12177,10873,1,10873,1,-0.00073647,-1.1659e-09,0,4.9309e-06,-0.00014658,-2.9955e+08,-397.89,0,2.1378e+06,-1157.1,10872,11561,1,11561,1,-0.00039883,-5.2191e-10,0,0.00022015,-7.2779e-05,-1.6222e+08,-173.52,0,8.2931e+07,-32.869,11560,12795,1,12795,1,0.00038897,2.7997e-10,0,0.00061405,7.4833e-05,1.4337e+08,88.87,0,2.3088e+08,1.8733,12794,714.3,0,714.3,0,0.00045509,5.993e-10,0,0.00022813,8.5273e-05,1.7376e+08,197.92,0,8.5979e+07,112.81,714.3,1
2468,2.77,12178,1,12178,1,2.2327e-05,1.0801e-09,0,0.00039577,-4.0741e-06,-4.3129e+05,352.65,0,1.5147e+08,-22.407,12177,13439,1,13439,1,0.0007859,3.883e-09,0,0.0007859,0.00013862,2.7659e+08,1255.8,0,3.006e+08,101.71,13438,12178,1,12178,1,-4.8129e-06,8.4939e-10,0,0.00040016,9.9358e-07,-2.0917e+06,275.21,0,1.6276e+08,-0.85478,12177,10873,1,10873,1,-0.00073905,-1.6872e-09,0,4.8127e-06,-0.00014714,-3.006e+08,-577.72,0,2.0917e+06,-980.24,10872,11561,1,11561,1,-0.00040016,8.7588e-11,0,0.0002211,-7.3072e-05,-1.6276e+08,28.147,0,8.3265e+07,-25.869,11560,12795,1,12795,1,0.00039054,2.0396e-09,0,0.00061645,7.5082e-05,1.4388e+08,668.21,0,2.3167e+08,24.816,12794,714.3,0,714.3,0,0.00045676,1.2134e-09,0,0.00022899,8.5586e-05,1.7433e+08,399.37,0,8.6256e+07,110.89,714.3,1
2468,2.78,12178,1,12178,1,2.2547e-05,1.3674e-09,0,0.00039723,-4.1145e-06,-4.3282e+05,447.6,0,1.5197e+08,-24.844,12177,13439,1,13439,1,0.00078895,4.2342e-09,0,0.00078895,0.0001391,2.774e+08,1369.3,0,3.0166e+08,137.06,13438,12178,1,12178,1,-4.6938e-06,1.1763e-09,0,0.0004015,9.7124e-07,-2.0453e+06,385.27,0,1.633e+08,-5.7234,12177,10873,1,10873,1,-0.00074165,-7.1014e-10,0,4.6937e-06,-0.00014771,-3.0166e+08,-243.2,0,2.0453e+06,-888.56,10872,11561,1,11561,1,-0.0004015,5.1355e-10,0,0.00022205,-7.3368e-05,-1.633e+08,159.7,0,8.36e+07,-27.066,11560,12795,1,12795,1,0.00039213,2.1387e-09,0,0.00061886,7.5333e-05,1.4438e+08,709.57,0,2.3247e+08,18.067,12794,714.3,0,714.3,0,0.00045845,1.1061e-09,0,0.00022985,8.5902e-05,1.7491e+08,365.81,0,8.6535e+07,100.17,714.3,1
2468,2.79,12178,1,12178,1,2.2768e-05,-1.4758e-09,0,0.00039868,-4.1551e-06,-4.344e+05,-481.28,0,1.5247e+08,-35.203,12177,13439,1,13439,1,0.00079197,2.3429e-09,0,0.00079197,0.00013959,2.782e+08,802.06,0,3.0271e+08,116.72,13438,12178,1,12178,1,-4.5718e-06,-1.3115e-09,0,0.00040283,9.4838e-07,-1.9978e+06,-423.75,0,1.6384e+08,-15.392,12177,10873,1,10873,1,-0.00074423,-5.4843e-09,0,4.5717e-06,-0.00014828,-3.0271e+08,-1773.4,0,1.9977e+06,-821.63,10872,11561,1,11561,1,-0.00040283,-3.0444e-09,0,0.000223,-7.3662e-05,-1.6384e+08,-996.54,0,8.3934e+07,-57.079,11560,12795,1,12795,1,0.0003937,4.1643e-11,0,0.00062126,7.5583e-05,1.4489e+08,13.808,0,2.3327e+08,20.885,12794,714.3,0,714.3,0,0.00046013,1.8552e-09,0,0.0002307,8.6215e-05,1.7548e+08,607.96,0,8.681e+07,101.92,714.3,1
2468,2.8,12178,1,12178,1,2.2991e-05,-5.1271e-10,0,0.00040015,-4.1961e-06,-4.3581e+05,-169.28,0,1.5298e+08,-32.505,12177,13439,1,13439,1,0.00079501,1.0519e-09,0,0.00079501,0.00014007,2.79e+08,360.18,0,3.0375e+08,34.079,13438,12178,1,12178,1,-4.4489e-06,-4.8165e-10,0,0.00040417,9.2527e-07,-1.9499e+06,-153.78,0,1.6439e+08,-13.177,12177,10873,1,10873,1,-0.00074681,-1.7655e-09,0,4.4487e-06,-0.00014884,-3.0375e+08,-581.89,0,1.9498e+06,-628.19,10872,11561,1,11561,1,-0.00040417,-1.0518e-09,0,0.00022396,-7.3956e-05,-1.6439e+08,-346.96,0,8.4272e+07,-37.521,11560,12795,1,12795,1,0.00039528,5.5701e-11,0,0.00062368,7.5835e-05,1.4539e+08,16.976,0,2.3407e+08,2.2536,12794,714.3,0,714.3,0,0.00046182,6.2871e-10,0,0.00023156,8.6531e-05,1.7605e+08,208.62,0,8.7089e+07,69.224,714.3,1
2468,2.81,12178,1,12178,1,2.3215e-05,7.5294e-11,0,0.00040159,-4.2373e-06,-4.3731e+05,23.36,0,1.5347e+08,-22.265,12177,13439,1,13439,1,0.00079803,5.9958e-09,0,0.00079803,0.00014055,2.7979e+08,1938.6,0,3.048e+08,147.51,13438,12178,1,12178,1,-4.3242e-06,-8.1491e-11,0,0.00040549,9.0191e-07,-1.9013e+06,-26.642,0,1.6493e+08,-16.649,12177,10873,1,10873,1,-0.00074937,-3.2349e-09,0,4.324e-06,-0.00014941,-3.048e+08,-1068.6,0,1.9012e+06,-487.27,10872,11561,1,11561,1,-0.00040549,-1.4897e-09,0,0.00022491,-7.425e-05,-1.6493e+08,-481.3,0,8.4606e+07,-59.452,11560,12795,1,12795,1,0.00039685,9.5995e-10,0,0.00062608,7.6083e-05,1.4589e+08,312.93,0,2.3486e+08,27.936,12794,714.3,0,714.3,0,0.00046349,2.1424e-09,0,0.00023241,8.6844e-05,1.7662e+08,703.39,0,8.7363e+07,76.358,714.3,1
2468,2.82,12178,1,12178,1,2.3441e-05,-2.67e-10,0,0.00040306,-4.2787e-06,-4.3889e+05,-87.911,0,1.5398e+08,-22.236,12177,13439,1,13439,1,0.00080108,1.4549e-09,0,0.00080108,0.00014104,2.8059e+08,498.16,0,3.0585e+08,40.321,13438,12178,1,12178,1,-4.1991e-06,-2.0203e-10,0,0.00040684,8.7843e-07,-1.8525e+06,-65.453,0,1.6547e+08,-9.0528,12177,10873,1,10873,1,-0.00075196,-1.5927e-09,0,4.1989e-06,-0.00014998,-3.0585e+08,-545.4,0,1.8524e+06,-410.75,10872,11561,1,11561,1,-0.00040684,-7.5176e-10,0,0.00022588,-7.4546e-05,-1.6547e+08,-247.71,0,8.4944e+07,-26.533,11560,12795,1,12795,1,0.00039844,1.159e-10,0,0.00062851,7.6335e-05,1.464e+08,37.213,0,2.3566e+08,5.6462,12794,714.3,0,714.3,0,0.00046518,6.3252e-10,0,0.00023328,8.7161e-05,1.772e+08,210.15,0,8.7641e+07,54.46,714.3,1
2468,2.83,12178,1,12178,1,2.3669e-05,-9.7075e-10,0,0.00040453,-4.3208e-06,-4.4039e+05,-317.62,0,1.5448e+08,-29.667,12177,13439,1,13439,1,0.00080414,3.1566e-10,0,0.00080414,0.00014152,2.8139e+08,105.61,0,3.0691e+08,31.555,13438,12178,1,12178,1,-4.071e-06,-1.0159e-09,0,0.00040817,8.5435e-07,-1.8026e+06,-332.68,0,1.6601e+08,-7.9899,12177,10873,1,10873,1,-0.00075456,-2.3723e-09,0,4.0707e-06,-0.00015055,-3.0691e+08,-789.31,0,1.8025e+06,-534.05,10872,11561,1,11561,1,-0.00040817,-1.5282e-09,0,0.00022684,-7.4843e-05,-1.6601e+08,-502.23,0,8.5282e+07,-31.616,11560,12795,1,12795,1,0.00040003,-4.1831e-10,0,0.00063093,7.6584e-05,1.469e+08,-136.26,0,2.3646e+08,0.96569,12794,714.3,0,714.3,0,0.00046687,6.774e-10,0,0.00023414,8.7477e-05,1.7777e+08,222.88,0,8.7918e+07,62.365,714.3,1
2468,2.84,12178,1,12178,1,2.3899e-05,-2.0265e-10,0,0.00040598,-4.363e-06,-4.4186e+05,-67.639,0,1.5497e+08,-32.093,12177,13439,1,13439,1,0.00080717,1.0165e-09,0,0.00080717,0.000142,2.8217e+08,314.33,0,3.0795e+08,30.309,13438,12178,1,12178,1,-3.9409e-06,-1.624e-10,0,0.00040949,8.3001e-07,-1.7519e+06,-52.736,0,1.6655e+08,-9.7968,12177,10873,1,10873,1,-0.00075712,-8.9798e-10,0,3.9407e-06,-0.00015111,-3.0795e+08,-291.64,0,1.7519e+06,-647.96,10872,11561,1,11561,1,-0.00040949,-4.1837e-10,0,0.0002278,-7.5138e-05,-1.6655e+08,-137.7,0,8.5619e+07,-29.983,11560,12795,1,12795,1,0.00040162,1.0323e-11,0,0.00063335,7.6834e-05,1.474e+08,3.3283,0,2.3725e+08,0.84819,12794,714.3,0,714.3,0,0.00046855,3.213e-10,0,0.000235,8.7792e-05,1.7834e+08,104.88,0,8.8193e+07,70.53,714.3,1
2468,2.85,12178,1,12178,1,2.4129e-05,-7.2491e-10,0,0.00040743,-4.4053e-06,-4.4323e+05,-237.21,0,1.5547e+08,-27.632,12177,13439,1,13439,1,0.00081021,4.6607e-09,0,0.00081021,0.00014249,2.8296e+08,1550.8,0,3.0899e+08,169.65,13438,12178,1,12178,1,-3.8101e-06,-5.1889e-10,0,0.0004108,8.0543e-07,-1.701e+06,-167.4,0,1.6709e+08,-10.578,12177,10873,1,10873,1,-0.00075969,-5.3729e-09,0,3.81e-06,-0.00015168,-3.0899e+08,-1787.6,0,1.701e+06,-809.91,10872,11561,1,11561,1,-0.0004108,-2.3812e-09,0,0.00022876,-7.5434e-05,-1.6709e+08,-781.68,0,8.5953e+07,-59.729,11560,12795,1,12795,1,0.0004032,6.2465e-10,0,0.00063575,7.7079e-05,1.479e+08,201.16,0,2.3803e+08,31.475,12794,714.3,0,714.3,0,0.00047022,2.1564e-09,0,0.00023585,8.8103e-05,1.789e+08,705.46,0,8.8464e+07,104.01,714.3,1
2468,2.86,12178,1,12178,1,2.436e-05,5.8556e-10,0,0.00040888,-4.4477e-06,-4.4472e+05,189.44,0,1.5596e+08,-29.306,12177,13439,1,13439,1,0.00081323,4.8123e-09,0,0.00081323,0.00014297,2.8374e+08,1601.1,0,3.1003e+08,133.16,13438,12178,1,12178,1,-3.6779e-06,3.0591e-10,0,0.00041213,7.8073e-07,-1.6495e+06,95.476,0,1.6763e+08,-12.122,12177,10873,1,10873,1,-0.00076224,-2.2253e-09,0,3.6776e-06,-0.00015224,-3.1003e+08,-740.41,0,1.6494e+06,-903.26,10872,11561,1,11561,1,-0.00041213,-3.8717e-10,0,0.00022972,-7.5728e-05,-1.6763e+08,-123.95,0,8.629e+07,-52.397,11560,12795,1,12795,1,0.00040478,1.4096e-09,0,0.00063817,7.7328e-05,1.484e+08,457.03,0,2.3883e+08,23.148,12794,714.3,0,714.3,0,0.0004719,1.4057e-09,0,0.00023671,8.8417e-05,1.7947e+08,463.19,0,8.8739e+07,110.36,714.3,1
2468,2.87,12178,1,12178,1,2.4594e-05,-9.3478e-10,0,0.00041035,-4.4906e-06,-4.4635e+05,-305.32,0,1.5646e+08,-35.209,12177,13439,1,13439,1,0.00081631,3.7416e-09,0,0.00081631,0.00014345,2.8453e+08,1245.1,0,3.1109e+08,84.122,13438,12178,1,12178,1,-3.5455e-06,-8.5134e-10,0,0.00041345,7.5585e-07,-1.5979e+06,-275.27,0,1.6817e+08,-15.981,12177,10873,1,10873,1,-0.00076484,-4.9694e-09,0,3.5453e-06,-0.00015282,-3.1109e+08,-1653.4,0,1.5978e+06,-1074.9,10872,11561,1,11561,1,-0.00041345,-2.2031e-09,0,0.00023069,-7.6027e-05,-1.6817e+08,-724.28,0,8.6629e+07,-50.361,11560,12795,1,12795,1,0.00040638,2.4951e-10,0,0.00064059,7.7577e-05,1.4891e+08,81.547,0,2.3962e+08,19.649,12794,714.3,0,714.3,0,0.00047359,1.5752e-09,0,0.00023757,8.8734e-05,1.8004e+08,516.99,0,8.9014e+07,113.22,714.3,1
2468,2.88,12178,1,12178,1,2.483e-05,-1.3947e-09,0,0.0004118,-4.5339e-06,-4.4787e+05,-456.3,0,1.5696e+08,-29.928,12177,13439,1,13439,1,0.00081935,3.3862e-09,0,0.00081935,0.00014393,2.8531e+08,1128,0,3.1213e+08,99.509,13438,12178,1,12178,1,-3.4087e-06,-8.9764e-10,0,0.00041477,7.3022e-07,-1.5446e+06,-294.19,0,1.687e+08,-10.5,12177,10873,1,10873,1,-0.0007674,-6.5798e-09,0,3.4085e-06,-0.00015339,-3.1213e+08,-2189.2,0,1.5445e+06,-1197.2,10872,11561,1,11561,1,-0.00041477,-2.8712e-09,0,0.00023165,-7.6324e-05,-1.687e+08,-943.33,0,8.6966e+07,-58.635,11560,12795,1,12795,1,0.00040797,1.025e-10,0,0.00064301,7.7824e-05,1.4941e+08,31.739,0,2.4041e+08,30.718,12794,714.3,0,714.3,0,0.00047527,1.9913e-09,0,0.00023843,8.9047e-05,1.806e+08,654.72,0,8.9287e+07,115.45,714.3,1
2468,2.89,12178,1,12178,1,2.5067e-05,-1.0763e-09,0,0.00041326,-4.5775e-06,-4.4932e+05,-353.05,0,1.5745e+08,-23.675,12177,13439,1,13439,1,0.00082241,2.7228e-09,0,0.00082241,0.00014442,2.8609e+08,926.91,0,3.1318e+08,81.335,13438,12178,1,12178,1,-3.2716e-06,-8.2167e-10,0,0.0004161,7.0451e-07,-1.4911e+06,-262.6,0,1.6924e+08,-11.028,12177,10873,1,10873,1,-0.00076998,-5.5765e-09,0,3.2714e-06,-0.00015396,-3.1318e+08,-1855.5,0,1.4911e+06,-1334.8,10872,11561,1,11561,1,-0.0004161,-2.4433e-09,0,0.00023262,-7.6622e-05,-1.6924e+08,-792.99,0,8.7306e+07,-46.548,11560,12795,1,12795,1,0.00040957,1.6124e-10,0,0.00064545,7.8073e-05,1.4991e+08,52.076,0,2.412e+08,25.903,12794,714.3,0,714.3,0,0.00047696,1.7495e-09,0,0.00023929,8.9363e-05,1.8117e+08,575.82,0,8.9561e+07,99.239,714.3,1
2468,2.9,12178,1,12178,1,2.5306e-05,-3.9222e-10,0,0.00041472,-4.6215e-06,-4.5079e+05,-129.92,0,1.5795e+08,-32.12,12177,13439,1,13439,1,0.00082545,4.6252e-09,0,0.00082545,0.0001449,2.8686e+08,1539.3,0,3.1422e+08,108.85,13438,12178,1,12178,1,-3.1323e-06,-2.2916e-10,0,0.00041742,6.7852e-07,-1.4368e+06,-72.995,0,1.6978e+08,-12.405,12177,10873,1,10873,1,-0.00077254,-4.4773e-09,0,3.1321e-06,-0.00015453,-3.1422e+08,-1489.9,0,1.4367e+06,-1405.5,10872,11561,1,11561,1,-0.00041742,-1.5357e-09,0,0.0002336,-7.6919e-05,-1.6978e+08,-500.55,0,8.7645e+07,-49.107,11560,12795,1,12795,1,0.00041116,5.0567e-10,0,0.00064788,7.832e-05,1.5041e+08,162.27,0,2.4199e+08,15.503,12794,714.3,0,714.3,0,0.00047864,1.5249e-09,0,0.00024015,8.9678e-05,1.8173e+08,501.79,0,8.9834e+07,120.35,714.3,1
2468,2.91,12178,1,12178,1,2.5548e-05,-2.8445e-10,0,0.00041619,-4.6658e-06,-4.5227e+05,-94.264,0,1.5845e+08,-34.467,12177,13439,1,13439,1,0.00082853,2.0123e-09,0,0.00082853,0.00014538,2.8764e+08,669.85,0,3.1527e+08,87.453,13438,12178,1,12178,1,-2.9921e-06,-2.5661e-10,0,0.00041874,6.5222e-07,-1.3821e+06,-85.358,0,1.7032e+08,-13.666,12177,10873,1,10873,1,-0.00077512,-1.66e-09,0,2.9918e-06,-0.0001551,-3.1527e+08,-544.84,0,1.3821e+06,-1609.4,10872,11561,1,11561,1,-0.00041874,-8.7711e-10,0,0.00023458,-7.7218e-05,-1.7032e+08,-289.59,0,8.7987e+07,-45.641,11560,12795,1,12795,1,0.00041277,2.1878e-10,0,0.00065033,7.857e-05,1.5092e+08,68.74,0,2.4279e+08,0.32699,12794,714.3,0,714.3,0,0.00048034,7.4348e-10,0,0.00024102,8.9996e-05,1.823e+08,243.97,0,9.0109e+07,87.007,714.3,1
2468,2.92,12178,1,12178,1,2.5791e-05,7.3142e-10,0,0.00041765,-4.7105e-06,-4.5369e+05,237.15,0,1.5894e+08,-23.065,12177,13439,1,13439,1,0.00083158,5.5312e-09,0,0.00083158,0.00014586,2.8841e+08,1839.9,0,3.1631e+08,117.75,13438,12178,1,12178,1,-2.8492e-06,3.0676e-10,0,0.00042006,6.263e-07,-1.3262e+06,97.77,0,1.7085e+08,-8.8224,12177,10873,1,10873,1,-0.00077768,-3.7275e-10,0,2.849e-06,-0.00015567,-3.1631e+08,-120.32,0,1.3261e+06,-1355.3,10872,11561,1,11561,1,-0.00042006,1.2527e-10,0,0.00023556,-7.7517e-05,-1.7085e+08,41.337,0,8.8328e+07,-30.396,11560,12795,1,12795,1,0.00041437,9.8438e-10,0,0.00065277,7.8816e-05,1.5142e+08,314.23,0,2.4358e+08,7.6119,12794,714.3,0,714.3,0,0.00048202,9.4207e-10,0,0.00024188,9.0311e-05,1.8287e+08,309.25,0,9.0381e+07,90.715,714.3,1
2468,2.93,12178,1,12178,1,2.6035e-05,-1.4013e-09,0,0.0004191,-4.7552e-06,-4.5531e+05,-456.43,0,1.5943e+08,-29.847,12177,13439,1,13439,1,0.00083465,3.6431e-09,0,0.00083465,0.00014634,2.8918e+08,1221.7,0,3.1736e+08,178.28,13438,12178,1,12178,1,-2.706e-06,-1.2101e-09,0,0.00042136,6.0179e-07,-1.2703e+06,-397.34,0,1.7138e+08,-11.726,12177,10873,1,10873,1,-0.00078025,-5.8133e-09,0,2.7059e-06,-0.00015624,-3.1736e+08,-1878.3,0,1.2703e+06,-544.84,10872,11561,1,11561,1,-0.00042136,-3.1377e-09,0,0.00023652,-7.7816e-05,-1.7138e+08,-1028.2,0,8.8665e+07,-70.065,11560,12795,1,12795,1,0.00041597,1.9474e-10,0,0.00065518,7.9061e-05,1.5192e+08,62.937,0,2.4436e+08,29.572,12794,714.3,0,714.3,0,0.0004837,2.1914e-09,0,0.00024274,9.0624e-05,1.8343e+08,716.2,0,9.0651e+07,102.42,714.3,1
2468,2.94,12178,1,12178,1,2.628e-05,-1.8599e-10,0,0.00042057,-4.8003e-06,-4.5673e+05,-62.763,0,1.5993e+08,-21.069,12177,13439,1,13439,1,0.00083771,1.2287e-09,0,0.00083771,0.00014682,2.8994e+08,420.71,0,3.184e+08,36.991,13438,12178,1,12178,1,-2.5598e-06,-1.3887e-10,0,0.00042269,5.7504e-07,-1.2132e+06,-45.989,0,1.7192e+08,-4.7503,12177,10873,1,10873,1,-0.00078281,-1.2976e-09,0,2.5596e-06,-0.00015681,-3.184e+08,-444.35,0,1.2132e+06,-390.56,10872,11561,1,11561,1,-0.00042269,-6.2334e-10,0,0.00023751,-7.8115e-05,-1.7192e+08,-202.62,0,8.9008e+07,-29.19,11560,12795,1,12795,1,0.00041757,1.0377e-10,0,0.00065764,7.931e-05,1.5242e+08,31.102,0,2.4516e+08,8.7587,12794,714.3,0,714.3,0,0.00048539,5.4423e-10,0,0.00024361,9.0941e-05,1.8399e+08,181.25,0,9.0924e+07,53.532,714.3,1
2468,2.95,12178,1,12178,1,2.6528e-05,1.026e-09,0,0.00042202,-4.8457e-06,-4.5811e+05,333.47,0,1.6041e+08,-1.5551,12177,13439,1,13439,1,0.00084077,4.3891e-09,0,0.00084077,0.0001473,2.9071e+08,1414.5,0,3.1944e+08,152.62,13438,12178,1,12178,1,-2.4126e-06,7.985e-10,0,0.00042399,5.4786e-07,-1.1558e+06,256.34,0,1.7245e+08,5.197,12177,10873,1,10873,1,-0.00078537,-2.4164e-09,0,2.4124e-06,-0.00015739,-3.1944e+08,-827.38,0,1.1557e+06,-383.87,10872,11561,1,11561,1,-0.00042399,-1.6806e-10,0,0.00023849,-7.8414e-05,-1.7245e+08,-52.561,0,8.9347e+07,-25.65,11560,12795,1,12795,1,0.00041918,2.1953e-09,0,0.00066006,7.9553e-05,1.5292e+08,710.28,0,2.4594e+08,41.194,12794,714.3,0,714.3,0,0.00048707,1.479e-09,0,0.00024447,9.1255e-05,1.8455e+08,484.62,0,9.1193e+07,68.174,714.3,1
2468,2.96,12178,1,12178,1,2.6775e-05,-1.5375e-09,0,0.00042347,-4.8912e-06,-4.597e+05,-499.02,0,1.609e+08,-27.687,12177,13439,1,13439,1,0.00084383,4.138e-09,0,0.00084383,0.00014778,2.9147e+08,1402.7,0,3.2048e+08,154.98,13438,12178,1,12178,1,-2.2649e-06,-9.5127e-10,0,0.00042529,5.2008e-07,-1.0981e+06,-303.07,0,1.7298e+08,-22.529,12177,10873,1,10873,1,-0.00078793,-7.541e-09,0,2.2648e-06,-0.00015796,-3.2048e+08,-2436.1,0,1.098e+06,-552.72,10872,11561,1,11561,1,-0.00042529,-3.7357e-09,0,0.00023946,-7.8713e-05,-1.7298e+08,-1205.7,0,8.9685e+07,-75.108,11560,12795,1,12795,1,0.00042078,5.1449e-10,0,0.00066248,7.9797e-05,1.5341e+08,162.8,0,2.4672e+08,38.556,12794,714.3,0,714.3,0,0.00048874,2.8534e-09,0,0.00024532,9.1568e-05,1.8511e+08,932.31,0,9.1462e+07,100.57,714.3,1
2468,2.97,12178,1,12178,1,2.7025e-05,-3.9998e-10,0,0.00042494,-4.9372e-06,-4.6118e+05,-132.56,0,1.614e+08,-30.349,12177,13439,1,13439,1,0.0008469,3.2503e-09,0,0.0008469,0.00014826,2.9223e+08,1112.1,0,3.2152e+08,95.172,13438,12178,1,12178,1,-2.1139e-06,-3.4159e-10,0,0.00042661,4.9229e-07,-1.0392e+06,-111.26,0,1.7352e+08,-20.077,12177,10873,1,10873,1,-0.00079048,-2.8692e-09,0,2.1136e-06,-0.00015853,-3.2152e+08,-942.44,0,1.0391e+06,-451.83,10872,11561,1,11561,1,-0.00042661,-1.4259e-09,0,0.00024045,-7.9013e-05,-1.7352e+08,-463.99,0,9.0029e+07,-52.057,11560,12795,1,12795,1,0.00042239,3.3651e-10,0,0.00066494,8.0045e-05,1.5391e+08,105.43,0,2.4751e+08,7.4118,12794,714.3,0,714.3,0,0.00049044,1.3101e-09,0,0.00024619,9.1885e-05,1.8567e+08,432.07,0,9.1734e+07,67.222,714.3,1
2468,2.98,12178,1,12178,1,2.7278e-05,-1.6315e-09,0,0.00042639,-4.9836e-06,-4.6267e+05,-532.42,0,1.6188e+08,-32.158,12177,13439,1,13439,1,0.00084997,3.8302e-09,0,0.00084997,0.00014874,2.9298e+08,1300.2,0,3.2256e+08,134.98,13438,12178,1,12178,1,-1.9617e-06,-1.5406e-09,0,0.0004279,4.6398e-07,-9.7974e+05,-487.32,0,1.7404e+08,-17.454,12177,10873,1,10873,1,-0.00079304,-5.9407e-09,0,1.9615e-06,-0.0001591,-3.2256e+08,-1924.5,0,9.7967e+05,-487.17,10872,11561,1,11561,1,-0.0004279,-3.5851e-09,0,0.00024143,-7.9314e-05,-1.7404e+08,-1166.3,0,9.0368e+07,-65.977,11560,12795,1,12795,1,0.000424,1.6366e-10,0,0.00066737,8.0288e-05,1.5441e+08,50.356,0,2.4829e+08,17.411,12794,714.3,0,714.3,0,0.00049211,2.2598e-09,0,0.00024705,9.2198e-05,1.8623e+08,741.08,0,9.2002e+07,84.124,714.3,1
2468,2.99,12178,1,12178,1,2.753e-05,-1.3e-09,0,0.00042784,-5.0299e-06,-4.6416e+05,-425.31,0,1.6237e+08,-17.627,12177,13439,1,13439,1,0.00085302,8.1412e-09,0,0.00085302,0.00014922,2.9373e+08,2680,0,3.2359e+08,256.1,13438,12178,1,12178,1,-1.8078e-06,-1.05e-09,0,0.00042919,4.3542e-07,-9.1965e+05,-336.05,0,1.7457e+08,-16.44,12177,10873,1,10873,1,-0.00079558,-8.0854e-09,0,1.8076e-06,-0.00015967,-3.2359e+08,-2641,0,9.1958e+05,-508.63,10872,11561,1,11561,1,-0.00042919,-4.1781e-09,0,0.00024241,-7.9613e-05,-1.7457e+08,-1381.3,0,9.0706e+07,-85.37,11560,12795,1,12795,1,0.0004256,9.3027e-10,0,0.00066979,8.053e-05,1.5491e+08,300.14,0,2.4907e+08,69.236,12794,714.3,0,714.3,0,0.00049378,3.7612e-09,0,0.00024791,9.251e-05,1.8678e+08,1230.9,0,9.2268e+07,112.45,714.3,1
2468,3,12178,1,12178,1,2.7786e-05,-1.0258e-09,0,0.00042931,-5.0769e-06,-4.6557e+05,-337.02,0,1.6286e+08,-40.384,12177,13439,1,13439,1,0.00085611,5.0596e-09,0,0.00085611,0.0001497,2.9449e+08,1728.3,0,3.2464e+08,157.49,13438,12178,1,12178,1,-1.653e-06,-9.3866e-10,0,0.00043051,4.0675e-07,-8.5919e+05,-296.57,0,1.751e+08,-29.847,12177,10873,1,10873,1,-0.00079815,-5.4268e-09,0,1.6527e-06,-0.00016025,-3.2464e+08,-1776,0,8.5909e+05,-503.87,10872,11561,1,11561,1,-0.00043051,-2.9163e-09,0,0.0002434,-7.9915e-05,-1.751e+08,-960.63,0,9.1052e+07,-83.01,11560,12795,1,12795,1,0.00042723,4.225e-10,0,0.00067226,8.0778e-05,1.5541e+08,130.4,0,2.4986e+08,19.142,12794,714.3,0,714.3,0,0.00049549,2.2965e-09,0,0.00024878,9.2829e-05,1.8735e+08,755.47,0,9.2541e+07,87.77,714.3,1
2468,3.01,12178,1,12178,1,2.8045e-05,-2.0775e-09,0,0.00043077,-5.1245e-06,-4.669e+05,-678.14,0,1.6335e+08,-48.524,12177,13439,1,13439,1,0.0008592,5.0122e-09,0,0.0008592,0.00015018,2.9524e+08,1691.6,0,3.2568e+08,261.79,13438,12178,1,12178,1,-1.4944e-06,-2.0175e-09,0,0.00043181,3.7724e-07,-7.9724e+05,-641.31,0,1.7563e+08,-29.873,12177,10873,1,10873,1,-0.00080071,-7.9065e-09,0,1.4942e-06,-0.00016083,-3.2568e+08,-2563.7,0,7.9717e+05,-554.49,10872,11561,1,11561,1,-0.00043181,-4.6213e-09,0,0.00024439,-8.0218e-05,-1.7563e+08,-1523.3,0,9.1394e+07,-97.88,11560,12795,1,12795,1,0.00042885,2.3509e-10,0,0.0006747,8.1021e-05,1.5591e+08,74.143,0,2.5064e+08,12.994,12794,714.3,0,714.3,0,0.00049717,3.0223e-09,0,0.00024965,9.3144e-05,1.879e+08,990.64,0,9.2809e+07,107.96,714.3,1
2468,3.02,12178,1,12178,1,2.8303e-05,-1.3834e-09,0,0.00043224,-5.172e-06,-4.6858e+05,-454.2,0,1.6384e+08,-33.508,12177,13439,1,13439,1,0.00086228,5.2201e-09,0,0.00086228,0.00015066,2.9599e+08,1760.9,0,3.2672e+08,167.34,13438,12178,1,12178,1,-1.3355e-06,-1.0982e-09,0,0.00043312,3.478e-07,-7.3514e+05,-353.77,0,1.7616e+08,-18.89,12177,10873,1,10873,1,-0.00080327,-7.4526e-09,0,1.3352e-06,-0.0001614,-3.2672e+08,-2422.4,0,7.3505e+05,-548.22,10872,11561,1,11561,1,-0.00043312,-3.8081e-09,0,0.00024539,-8.052e-05,-1.7616e+08,-1241.9,0,9.1738e+07,-90.08,11560,12795,1,12795,1,0.00043047,6.148e-10,0,0.00067716,8.1266e-05,1.564e+08,197.55,0,2.5143e+08,31.495,12794,714.3,0,714.3,0,0.00049886,2.9478e-09,0,0.00025051,9.346e-05,1.8846e+08,966.58,0,9.3078e+07,105.78,714.3,1
2468,3.03,12178,1,12178,1,2.8565e-05,-4.163e-10,0,0.00043371,-5.2201e-06,-4.7001e+05,-138.82,0,1.6433e+08,-38.485,12177,13439,1,13439,1,0.00086536,4.3373e-09,0,0.00086536,0.00015114,2.9673e+08,1483.4,0,3.2775e+08,116.48,13438,12178,1,12178,1,-1.1746e-06,-1.9974e-10,0,0.00043442,3.1805e-07,-6.7227e+05,-68.295,0,1.7669e+08,-27.644,12177,10873,1,10873,1,-0.00080581,-4.4213e-09,0,1.1743e-06,-0.00016197,-3.2775e+08,-1447.4,0,6.7217e+05,-495.28,10872,11561,1,11561,1,-0.00043442,-1.9658e-09,0,0.00024639,-8.0822e-05,-1.7669e+08,-644.88,0,9.2084e+07,-78.021,11560,12795,1,12795,1,0.00043209,7.4477e-10,0,0.00067964,8.1512e-05,1.569e+08,235.08,0,2.5222e+08,16.521,12794,714.3,0,714.3,0,0.00050055,1.9673e-09,0,0.00025138,9.3777e-05,1.8902e+08,646.52,0,9.3347e+07,81.943,714.3,1
2468,3.04,12178,1,12178,1,2.8829e-05,-6.4485e-10,0,0.00043516,-5.2684e-06,-4.7147e+05,-211.5,0,1.6481e+08,-22.416,12177,13439,1,13439,1,0.00086843,2.899e-09,0,0.00086843,0.00015161,2.9747e+08,957.33,0,3.2879e+08,98.099,13438,12178,1,12178,1,-1.0123e-06,-2.7713e-10,0,0.00043572,2.8808e-07,-6.0882e+05,-87.843,0,1.7722e+08,-17.655,12177,10873,1,10873,1,-0.00080835,-4.2765e-09,0,1.012e-06,-0.00016255,-3.2879e+08,-1413.5,0,6.0875e+05,-439.17,10872,11561,1,11561,1,-0.00043572,-1.9294e-09,0,0.00024739,-8.1124e-05,-1.7722e+08,-641.36,0,9.2428e+07,-58.583,11560,12795,1,12795,1,0.00043371,5.3825e-10,0,0.00068209,8.1755e-05,1.574e+08,172.11,0,2.53e+08,30.716,12794,714.3,0,714.3,0,0.00050224,1.7709e-09,0,0.00025225,9.4091e-05,1.8957e+08,581.75,0,9.3614e+07,74.327,714.3,1
2468,3.05,12178,1,12178,1,2.9093e-05,-8.9252e-10,0,0.00043663,-5.3171e-06,-4.7298e+05,-291.74,0,1.653e+08,-31.436,12177,13439,1,13439,1,0.00087153,2.232e-09,0,0.00087153,0.00015209,2.9822e+08,764.09,0,3.2983e+08,89.721,13438,12178,1,12178,1,-8.4853e-07,-6.9473e-10,0,0.00043702,2.5759e-07,-5.4485e+05,-221.23,0,1.7775e+08,-18.001,12177,10873,1,10873,1,-0.00081092,-3.9835e-09,0,8.4829e-07,-0.00016313,-3.2983e+08,-1294.4,0,5.4477e+05,-488.95,10872,11561,1,11561,1,-0.00043702,-2.0832e-09,0,0.00024839,-8.1428e-05,-1.7775e+08,-676.56,0,9.2773e+07,-52.501,11560,12795,1,12795,1,0.00043534,1.6179e-10,0,0.00068456,8.2e-05,1.579e+08,50.992,0,2.5378e+08,10.951,12794,714.3,0,714.3,0,0.00050393,1.4521e-09,0,0.00025312,9.4409e-05,1.9013e+08,477.11,0,9.3883e+07,73.377,714.3,1
2468,3.06,12178,1,12178,1,2.936e-05,-1.6338e-10,0,0.00043808,-5.366e-06,-4.744e+05,-55.329,0,1.6578e+08,-31.499,12177,13439,1,13439,1,0.00087459,5.1851e-09,0,0.00087459,0.00015257,2.9895e+08,1719.5,0,3.3086e+08,162.32,13438,12178,1,12178,1,-6.8154e-07,-1.7549e-10,0,0.00043831,2.2667e-07,-4.7956e+05,-56.9,0,1.7827e+08,-26.23,12177,10873,1,10873,1,-0.00081344,-3.5335e-09,0,6.813e-07,-0.0001637,-3.3086e+08,-1152,0,4.7948e+05,-466.56,10872,11561,1,11561,1,-0.00043831,-1.7472e-09,0,0.00024939,-8.1729e-05,-1.7827e+08,-568.8,0,9.3116e+07,-75.024,11560,12795,1,12795,1,0.00043695,7.6196e-10,0,0.00068701,8.2241e-05,1.5839e+08,239.71,0,2.5456e+08,15.339,12794,714.3,0,714.3,0,0.00050561,2.0566e-09,0,0.00025398,9.4722e-05,1.9068e+08,674.23,0,9.4147e+07,85.395,714.3,1
2468,3.07,12178,1,12178,1,2.9628e-05,-1.2724e-09,0,0.00043957,-5.4154e-06,-4.7585e+05,-414.71,0,1.6627e+08,-44.857,12177,13439,1,13439,1,0.00087772,6.1639e-10,0,0.00087772,0.00015305,2.997e+08,191.8,0,3.3191e+08,52.827,13438,12178,1,12178,1,-5.1525e-07,-1.1924e-09,0,0.00043962,1.9576e-07,-4.1458e+05,-379.75,0,1.7881e+08,-25.82,12177,10873,1,10873,1,-0.00081603,-3.3839e-09,0,5.1501e-07,-0.00016428,-3.3191e+08,-1103.7,0,4.145e+05,-493.85,10872,11561,1,11561,1,-0.00043962,-2.1756e-09,0,0.0002504,-8.2036e-05,-1.7881e+08,-703.8,0,9.3465e+07,-60.565,11560,12795,1,12795,1,0.0004386,-4.0547e-10,0,0.0006895,8.2486e-05,1.5889e+08,-125.37,0,2.5535e+08,-5.6859,12794,714.3,0,714.3,0,0.00050732,1.0622e-09,0,0.00025486,9.5042e-05,1.9124e+08,348.53,0,9.4418e+07,68.866,714.3,1
2468,3.08,12178,1,12178,1,2.9897e-05,-1.263e-09,0,0.00044101,-5.4648e-06,-4.7766e+05,-412.49,0,1.6675e+08,-9.9814,12177,13439,1,13439,1,0.00088079,7.3387e-09,0,0.00088079,0.00015353,3.0042e+08,2396.1,0,3.3293e+08,247.53,13438,12178,1,12178,1,-3.4434e-07,-1.0296e-09,0,0.00044088,1.64e-07,-3.4775e+05,-319.32,0,1.7932e+08,-12.059,12177,10873,1,10873,1,-0.00081854,-8.113e-09,0,3.4418e-07,-0.00016485,-3.3293e+08,-2619,0,3.4769e+05,-518.76,10872,11561,1,11561,1,-0.00044088,-4.1733e-09,0,0.00025139,-8.2338e-05,-1.7932e+08,-1370.4,0,9.3805e+07,-65.82,11560,12795,1,12795,1,0.00044022,1.005e-09,0,0.00069192,8.2724e-05,1.5938e+08,317.07,0,2.5612e+08,55.898,12794,714.3,0,714.3,0,0.00050898,3.6264e-09,0,0.00025572,9.5352e-05,1.9178e+08,1183,0,9.4678e+07,107.98,714.3,1
2468,3.09,12178,1,12178,1,3.0167e-05,-1.1257e-09,0,0.00044247,-5.5144e-06,-4.7881e+05,-368.53,0,1.6723e+08,-25.867,12177,13439,1,13439,1,0.00088387,4.4287e-09,0,0.00088387,0.000154,3.0115e+08,1498.7,0,3.3396e+08,143.72,13438,12178,1,12178,1,-1.7379e-07,-6.7557e-10,0,0.00044218,1.3255e-07,-2.8105e+05,-209.17,0,1.7985e+08,-23.554,12177,10873,1,10873,1,-0.00082107,-6.6477e-09,0,1.7365e-07,-0.00016543,-3.3396e+08,-2217.1,0,2.8097e+05,-435.78,10872,11561,1,11561,1,-0.00044218,-3.1303e-09,0,0.00025239,-8.2641e-05,-1.7985e+08,-1021.4,0,9.415e+07,-79.244,11560,12795,1,12795,1,0.00044185,6.1243e-10,0,0.00069439,8.2966e-05,1.5988e+08,192.99,0,2.569e+08,34.124,12794,714.3,0,714.3,0,0.00051067,2.6846e-09,0,0.00025658,9.5667e-05,1.9233e+08,881.9,0,9.4943e+07,83.583,714.3,1
2468,3.1,12178,1,12178,1,3.044e-05,-6.1907e-10,0,0.00044394,-5.5646e-06,-4.8042e+05,-203.51,0,1.6772e+08,-36.009,12177,13439,1,13439,1,0.00088697,3.2707e-09,0,0.00088697,0.00015448,3.0188e+08,1119.6,0,3.35e+08,115.53,13438,12178,1,12178,1,-1.8032e-09,-3.7923e-10,0,0.00044348,1.0057e-07,-2.1381e+05,-120.32,0,1.8038e+08,-29.593,12177,10873,1,10873,1,-0.00082363,-4.0066e-09,0,3.2842e-09,-0.00016601,-3.35e+08,-1312,0,2.1372e+05,-454.46,10872,11561,1,11561,1,-0.00044348,-1.9941e-09,0,0.00025341,-8.2947e-05,-1.8038e+08,-637.77,0,9.4498e+07,-61.781,11560,12795,1,12795,1,0.00044349,5.0674e-10,0,0.00069688,8.321e-05,1.6037e+08,158.6,0,2.5768e+08,5.2164,12794,714.3,0,714.3,0,0.00051237,1.6673e-09,0,0.00025746,9.5985e-05,1.9289e+08,548.95,0,9.5211e+07,72.514,714.3,1
2468,3.11,12178,1,12178,1,3.073e-05,-7.8704e-10,0,0.00044542,-5.6178e-06,-4.817e+05,-258.13,0,1.682e+08,-37.466,12177,13439,1,13439,1,0.0008901,3.7674e-09,0,0.0008901,0.00015495,3.026e+08,1257.8,0,3.3603e+08,104.04,13438,12178,1,12178,1,1.8659e-07,-6.0521e-10,0,0.00044512,6.5762e-08,-1.405e+05,-195.54,0,1.809e+08,-28.48,12177,10873,1,10873,1,-0.00082616,-4.2109e-09,0,1.8377e-07,-0.00016659,-3.3603e+08,-1374.2,0,1.4041e+05,-462.43,10872,11561,1,11561,1,-0.00044475,-2.1428e-09,0,0.00025407,-8.3255e-05,-1.809e+08,-696.03,0,9.4843e+07,-67.465,11560,12795,1,12795,1,0.00044514,3.6312e-10,0,0.000699,8.345e-05,1.6086e+08,111.82,0,2.5846e+08,12.04,12794,714.3,0,714.3,0,0.00051406,1.7415e-09,0,0.00025831,9.6302e-05,1.9343e+08,572.12,0,9.5475e+07,78.186,714.3,1
2468,3.12,12178,1,12178,1,3.1023e-05,-4.2224e-10,0,0.00044691,-5.6717e-06,-4.8317e+05,-139.7,0,1.6868e+08,-38.601,12177,13439,1,13439,1,0.00089323,1.3296e-09,0,0.00089323,0.00015543,3.0332e+08,455.26,0,3.3706e+08,56.432,13438,12178,1,12178,1,3.7872e-07,-2.2258e-10,0,0.00044679,3.0274e-08,-65765,-70.979,0,1.8142e+08,-23.291,12177,10873,1,10873,1,-0.0008287,-2.2496e-09,0,3.7603e-07,-0.00016718,-3.3706e+08,-770.27,0,65676,-468.98,10872,11561,1,11561,1,-0.00044604,-9.9887e-10,0,0.00025472,-8.3565e-05,-1.8142e+08,-326.38,0,9.5189e+07,-48.995,11560,12795,1,12795,1,0.0004468,1.977e-10,0,0.00070113,8.3691e-05,1.6135e+08,59.283,0,2.5924e+08,0.099072,12794,714.3,0,714.3,0,0.00051576,8.1769e-10,0,0.00025917,9.662e-05,1.9398e+08,270.57,0,9.574e+07,68.052,714.3,1
2468,3.13,12178,1,12178,1,3.1319e-05,-1.5432e-09,0,0.00044839,-5.7261e-06,-4.8467e+05,-503.17,0,1.6915e+08,-36.029,12177,13439,1,13439,1,0.00089637,7.462e-10,0,0.00089637,0.00015591,3.0403e+08,255.57,0,3.381e+08,77.571,13438,12178,1,12178,1,5.7347e-07,-1.4933e-09,0,0.00044845,-5.7264e-09,9988.1,-479.97,0,1.8193e+08,-19.976,12177,10873,1,10873,1,-0.00083124,-4.2444e-09,0,5.7139e-07,-0.00016776,-3.381e+08,-1382.3,0,9268.6,-495.47,10872,11561,1,11561,1,-0.00044731,-2.7187e-09,0,0.00025536,-8.3876e-05,-1.8193e+08,-887.3,0,9.5533e+07,-49.995,11560,12795,1,12795,1,0.00044847,-3.65e-10,0,0.00070324,8.3929e-05,1.6185e+08,-113.53,0,2.6001e+08,5.3626,12794,714.3,0,714.3,0,0.00051746,1.3292e-09,0,0.00026002,9.6938e-05,1.9453e+08,436.82,0,9.6002e+07,71.354,714.3,1
2468,3.14,12178,1,12178,1,3.1617e-05,-1.1017e-09,0,0.00044988,-5.7807e-06,-4.8627e+05,-361.58,0,1.6963e+08,-32.11,12177,13439,1,13439,1,0.00089951,7.8042e-10,0,0.00089951,0.00015638,3.0474e+08,258.19,0,3.3913e+08,66.725,13438,12178,1,12178,1,7.7076e-07,-1.0557e-09,0,0.00045012,-4.212e-08,86735,-339.18,0,1.8245e+08,-14.5,12177,10873,1,10873,1,-0.00083378,-3.2388e-09,0,7.6675e-07,-0.00016835,-3.3913e+08,-1070.6,0,85229,-484.44,10872,11561,1,11561,1,-0.00044858,-1.9706e-09,0,0.000256,-8.4186e-05,-1.8245e+08,-648.52,0,9.5878e+07,-46.56,11560,12795,1,12795,1,0.00045014,-2.416e-10,0,0.00070536,8.4169e-05,1.6234e+08,-78.962,0,2.6078e+08,8.7591,12794,714.3,0,714.3,0,0.00051916,1.026e-09,0,0.00026087,9.7256e-05,1.9507e+08,337.54,0,9.6256e+07,69.221,714.3,1
2468,3.15,12178,1,12178,1,3.1916e-05,-1.4233e-09,0,0.00045135,-5.8356e-06,-4.8758e+05,-464.85,0,1.7011e+08,-24.397,12177,13439,1,13439,1,0.00090263,4.4775e-09,0,0.00090263,0.00015685,3.0544e+08,1478,0,3.4015e+08,152.64,13438,12178,1,12178,1,9.6983e-07,-9.8516e-10,0,0.00045177,-7.9009e-08,1.6417e+05,-305.18,0,1.8296e+08,-24.583,12177,10873,1,10873,1,-0.00083629,-7.208e-09,0,9.6611e-07,-0.00016893,-3.4015e+08,-2343.4,0,1.6278e+05,-528.71,10872,11561,1,11561,1,-0.00044984,-3.6973e-09,0,0.00025664,-8.4496e-05,-1.8296e+08,-1210.3,0,9.6221e+07,-74.557,11560,12795,1,12795,1,0.0004518,5.8092e-10,0,0.00070744,8.4404e-05,1.6282e+08,183.82,0,2.6155e+08,40.658,12794,714.3,0,714.3,0,0.00052084,2.8569e-09,0,0.00026172,9.757e-05,1.9561e+08,932.9,0,9.6505e+07,97.723,714.3,1
2468,3.16,12178,1,12178,1,3.2216e-05,-1.208e-09,0,0.00045284,-5.8907e-06,-4.8892e+05,-395.81,0,1.7059e+08,-44.634,12177,13439,1,13439,1,0.00090578,5.1759e-09,0,0.00090578,0.00015733,3.0615e+08,1728,0,3.4118e+08,202.94,13438,12178,1,12178,1,1.1695e-06,-9.9999e-10,0,0.00045344,-1.1585e-07,2.4181e+05,-324.4,0,1.8348e+08,-34.49,12177,10873,1,10873,1,-0.00083883,-6.6033e-09,0,1.1653e-06,-0.00016952,-3.4118e+08,-2169.6,0,2.4026e+05,-524.33,10872,11561,1,11561,1,-0.00045111,-3.4981e-09,0,0.00025728,-8.4807e-05,-1.8348e+08,-1132.4,0,9.6567e+07,-104.96,11560,12795,1,12795,1,0.00045347,5.9874e-10,0,0.00070955,8.4643e-05,1.6331e+08,186.04,0,2.6232e+08,20.828,12794,714.3,0,714.3,0,0.00052254,2.7531e-09,0,0.00026257,9.7887e-05,1.9615e+08,901.94,0,9.6759e+07,100.48,714.3,1
2468,3.17,12178,1,12178,1,3.2519e-05,-9.6151e-10,0,0.00045432,-5.9464e-06,-4.9054e+05,-315.55,0,1.7107e+08,-35.009,12177,13439,1,13439,1,0.00090891,4.8741e-09,0,0.00090891,0.0001578,3.0685e+08,1643.5,0,3.4221e+08,165.38,13438,12178,1,12178,1,1.3721e-06,-8.7868e-10,0,0.00045511,-1.5323e-07,3.2065e+05,-277.53,0,1.84e+08,-20.652,12177,10873,1,10873,1,-0.00084134,-5.0703e-09,0,1.3673e-06,-0.0001701,-3.4221e+08,-1680.2,0,3.1885e+05,-502.84,10872,11561,1,11561,1,-0.00045238,-2.7278e-09,0,0.00025792,-8.5118e-05,-1.84e+08,-898.55,0,9.6913e+07,-74.525,11560,12795,1,12795,1,0.00045514,3.934e-10,0,0.00071166,8.4881e-05,1.638e+08,124.38,0,2.6309e+08,22.89,12794,714.3,0,714.3,0,0.00052424,2.2188e-09,0,0.00026343,9.8205e-05,1.9669e+08,728.41,0,9.701e+07,91.293,714.3,1
2468,3.18,12178,1,12178,1,3.2824e-05,-1.9098e-09,0,0.0004558,-6.0023e-06,-4.9203e+05,-622.01,0,1.7154e+08,-39.18,12177,13439,1,13439,1,0.00091205,4.8595e-09,0,0.00091205,0.00015827,3.0755e+08,1657.7,0,3.4323e+08,182.41,13438,12178,1,12178,1,1.5761e-06,-1.6545e-09,0,0.00045677,-1.9096e-07,3.9996e+05,-527.44,0,1.8451e+08,-34.571,12177,10873,1,10873,1,-0.00084386,-8.013e-09,0,1.5719e-06,-0.00017069,-3.4323e+08,-2612.7,0,3.9841e+05,-513.72,10872,11561,1,11561,1,-0.00045363,-4.4922e-09,0,0.00025854,-8.5429e-05,-1.8451e+08,-1450.3,0,9.7257e+07,-100.37,11560,12795,1,12795,1,0.00045681,2.9123e-10,0,0.00071374,8.5116e-05,1.6428e+08,89.875,0,2.6386e+08,26.71,12794,714.3,0,714.3,0,0.00052593,3.0658e-09,0,0.00026427,9.852e-05,1.9723e+08,1003.9,0,9.7259e+07,100.64,714.3,1
2468,3.19,12178,1,12178,1,3.3131e-05,-1.1089e-09,0,0.00045729,-6.0587e-06,-4.9348e+05,-363.93,0,1.7203e+08,-35.926,12177,13439,1,13439,1,0.0009152,3.2731e-09,0,0.0009152,0.00015875,3.0825e+08,1119.9,0,3.4426e+08,91.282,13438,12178,1,12178,1,1.7822e-06,-8.1736e-10,0,0.00045846,-2.2898e-07,4.8013e+05,-265.08,0,1.8503e+08,-24.951,12177,10873,1,10873,1,-0.0008464,-5.2683e-09,0,1.7771e-06,-0.00017127,-3.4426e+08,-1745.4,0,4.7819e+05,-485.04,10872,11561,1,11561,1,-0.00045491,-2.7078e-09,0,0.00025919,-8.5742e-05,-1.8503e+08,-883.39,0,9.7606e+07,-77.544,11560,12795,1,12795,1,0.00045849,3.1854e-10,0,0.00071587,8.5356e-05,1.6477e+08,97.456,0,2.6464e+08,16.571,12794,714.3,0,714.3,0,0.00052764,1.982e-09,0,0.00026514,9.884e-05,1.9777e+08,652,0,9.7513e+07,81.651,714.3,1
2468,3.2,12178,1,12178,1,3.3443e-05,-8.1925e-10,0,0.00045879,-6.116e-06,-4.9489e+05,-269.13,0,1.7251e+08,-41.179,12177,13439,1,13439,1,0.00091836,8.9598e-10,0,0.00091836,0.00015922,3.0894e+08,306.81,0,3.4529e+08,34.739,13438,12178,1,12178,1,1.9916e-06,-7.4346e-10,0,0.00046016,-2.6761e-07,5.6155e+05,-236.32,0,1.8554e+08,-20.754,12177,10873,1,10873,1,-0.00084892,-2.5165e-09,0,1.9877e-06,-0.00017186,-3.4529e+08,-854.17,0,5.6008e+05,-475.77,10872,11561,1,11561,1,-0.00045618,-1.5254e-09,0,0.00025982,-8.6056e-05,-1.8554e+08,-497.66,0,9.7956e+07,-56.49,11560,12795,1,12795,1,0.00046017,-1.1192e-10,0,0.00071799,8.5594e-05,1.6526e+08,-33.8,0,2.6541e+08,-3.4947,12794,714.3,0,714.3,0,0.00052935,8.166e-10,0,0.000266,9.9159e-05,1.9831e+08,270.92,0,9.7764e+07,64.595,714.3,1
2468,3.21,12178,1,12178,1,3.3755e-05,-9.5965e-10,0,0.00046027,-6.1734e-06,-4.9632e+05,-313.4,0,1.7298e+08,-28.727,12177,13439,1,13439,1,0.0009215,1.3035e-09,0,0.0009215,0.00015969,3.0963e+08,446.23,0,3.4631e+08,80.79,13438,12178,1,12178,1,2.2027e-06,-6.4736e-10,0,0.00046183,-3.0674e-07,6.4366e+05,-207.38,0,1.8605e+08,-17.455,12177,10873,1,10873,1,-0.00085143,-3.9247e-09,0,2.1999e-06,-0.00017245,-3.4631e+08,-1281.7,0,6.4265e+05,-539.05,10872,11561,1,11561,1,-0.00045743,-2.0757e-09,0,0.00026045,-8.6368e-05,-1.8605e+08,-670.68,0,9.8303e+07,-45.304,11560,12795,1,12795,1,0.00046185,1.3621e-10,0,0.00072008,8.5829e-05,1.6574e+08,43.061,0,2.6618e+08,10.93,12794,714.3,0,714.3,0,0.00053104,1.3687e-09,0,0.00026685,9.9475e-05,1.9885e+08,448.61,0,9.8012e+07,74.714,714.3,1
2468,3.22,12178,1,12178,1,3.4067e-05,-1.074e-09,0,0.00046174,-6.2306e-06,-4.978e+05,-349.87,0,1.7345e+08,-33.023,12177,13439,1,13439,1,0.00092464,7.242e-09,0,0.00092464,0.00016016,3.1031e+08,2344.2,0,3.4733e+08,208.21,13438,12178,1,12178,1,2.415e-06,-8.1318e-10,0,0.0004635,-3.4893e-07,7.2598e+05,-251.06,0,1.8656e+08,-30.991,12177,10873,1,10873,1,-0.00085394,-7.52e-09,0,2.4116e-06,-0.00017303,-3.4733e+08,-2430.2,0,7.2496e+05,-1710.5,10872,11561,1,11561,1,-0.00045867,-3.8222e-09,0,0.00026106,-8.668e-05,-1.8656e+08,-1228,0,9.8646e+07,-87.686,11560,12795,1,12795,1,0.00046353,1.0981e-09,0,0.00072215,8.6062e-05,1.6623e+08,329.34,0,2.6693e+08,45.236,12794,714.3,0,714.3,0,0.00053272,3.4961e-09,0,0.00026769,9.9789e-05,1.9938e+08,1139.4,0,9.8258e+07,144.91,714.3,1
2468,3.23,12178,1,12178,1,3.4382e-05,-9.3683e-10,0,0.00046324,-6.2885e-06,-4.9919e+05,-306.89,0,1.7393e+08,-54.638,12177,13439,1,13439,1,0.00092781,1.6762e-09,0,0.00092781,0.00016064,3.11e+08,573.93,0,3.4836e+08,68.046,13438,12178,1,12178,1,2.6289e-06,-6.3645e-10,0,0.0004652,-3.8798e-07,8.092e+05,-201.53,0,1.8707e+08,-31.929,12177,10873,1,10873,1,-0.00085647,-4.002e-09,0,2.6245e-06,-0.00017362,-3.4836e+08,-1337.9,0,8.0771e+05,-1505.7,10872,11561,1,11561,1,-0.00045995,-1.9775e-09,0,0.0002617,-8.6995e-05,-1.8707e+08,-640.8,0,9.8997e+07,-71.998,11560,12795,1,12795,1,0.00046522,6.3442e-11,0,0.00072427,8.6301e-05,1.6672e+08,20.858,0,2.6771e+08,-0.57864,12794,714.3,0,714.3,0,0.00053443,1.3189e-09,0,0.00026856,0.00010011,1.9992e+08,435.88,0,9.851e+07,136.59,714.3,1
2468,3.24,12178,1,12178,1,3.4701e-05,-2.228e-10,0,0.00046473,-6.3472e-06,-5.007e+05,-75.67,0,1.7441e+08,-52.764,12177,13439,1,13439,1,0.00093096,1.7007e-09,0,0.00093096,0.00016111,3.1168e+08,582.18,0,3.4938e+08,53.002,13438,12178,1,12178,1,2.8464e-06,-1.9593e-10,0,0.00046689,-4.2768e-07,8.9378e+05,-62.592,0,1.8759e+08,-22.369,12177,10873,1,10873,1,-0.00085898,-1.5066e-09,0,2.843e-06,-0.00017421,-3.4938e+08,-515.9,0,8.9257e+05,-1310.3,10872,11561,1,11561,1,-0.0004612,-6.908e-10,0,0.00026233,-8.7309e-05,-1.8759e+08,-224.62,0,9.9347e+07,-46.455,11560,12795,1,12795,1,0.0004669,2.5832e-10,0,0.00072638,8.6537e-05,1.672e+08,78.483,0,2.6848e+08,-5.917,12794,714.3,0,714.3,0,0.00053614,5.7913e-10,0,0.00026941,0.00010043,2.0046e+08,191.15,0,9.8759e+07,127.84,714.3,1
2468,3.25,12178,1,12178,1,3.5021e-05,1.0068e-09,0,0.00046621,-6.4059e-06,-5.0215e+05,324.53,0,1.7488e+08,-21.062,12177,13439,1,13439,1,0.00093411,5.3684e-09,0,0.00093411,0.00016158,3.1236e+08,1727.7,0,3.504e+08,156.13,13438,12178,1,12178,1,3.0652e-06,6.0867e-10,0,0.00046857,-4.6765e-07,9.7892e+05,197.15,0,1.8809e+08,0.68643,12177,10873,1,10873,1,-0.00086148,-2.3872e-09,0,3.0628e-06,-0.0001748,-3.504e+08,-817.39,0,9.7808e+05,-1114.9,10872,11561,1,11561,1,-0.00046245,-1.3328e-10,0,0.00026294,-8.7622e-05,-1.8809e+08,-43.584,0,9.9694e+07,-27.604,11560,12795,1,12795,1,0.00046859,2.0486e-09,0,0.00072845,8.677e-05,1.6768e+08,663,0,2.6924e+08,31.207,12794,714.3,0,714.3,0,0.00053783,1.515e-09,0,0.00027026,0.00010074,2.0099e+08,495.57,0,9.9004e+07,124.63,714.3,1
2468,3.26,12178,1,12178,1,3.5343e-05,3.337e-10,0,0.00046772,-6.4652e-06,-5.0361e+05,108.57,0,1.7536e+08,-49.999,12177,13439,1,13439,1,0.00093729,2.5013e-09,0,0.00093729,0.00016205,3.1304e+08,831.26,0,3.5143e+08,60.998,13438,12178,1,12178,1,3.2849e-06,2.3744e-10,0,0.00047028,-5.0778e-07,1.0644e+06,77.618,0,1.8861e+08,-24.369,12177,10873,1,10873,1,-0.00086401,-2.118e-09,0,3.2833e-06,-0.00017539,-3.5143e+08,-703.99,0,1.0638e+06,-977.81,10872,11561,1,11561,1,-0.00046372,-1.2158e-10,0,0.00026357,-8.7939e-05,-1.8861e+08,-37.663,0,1.0005e+08,-52.711,11560,12795,1,12795,1,0.00047029,8.2759e-10,0,0.00073057,8.7008e-05,1.6817e+08,267.95,0,2.7002e+08,-5.0086,12794,714.3,0,714.3,0,0.00053955,8.0166e-10,0,0.00027113,0.00010107,2.0153e+08,256.49,0,9.9255e+07,104.21,714.3,1
2468,3.27,12178,1,12178,1,3.5668e-05,-1.0382e-09,0,0.00046918,-6.5247e-06,-5.05e+05,-334.82,0,1.7582e+08,-33.628,12177,13439,1,13439,1,0.00094043,5.8865e-09,0,0.00094043,0.00016252,3.137e+08,1935.2,0,3.5244e+08,186.47,13438,12178,1,12178,1,3.5093e-06,-8.572e-10,0,0.00047195,-5.4914e-07,1.1516e+06,-276.54,0,1.891e+08,-27.223,12177,10873,1,10873,1,-0.00086649,-6.3676e-09,0,3.5084e-06,-0.00017598,-3.5244e+08,-2048.5,0,1.1513e+06,-867.68,10872,11561,1,11561,1,-0.00046493,-3.3981e-09,0,0.00026417,-8.8252e-05,-1.891e+08,-1086.7,0,1.0039e+08,-82.751,11560,12795,1,12795,1,0.00047197,7.2341e-10,0,0.00073261,8.7237e-05,1.6865e+08,222.44,0,2.7076e+08,41.2,12794,714.3,0,714.3,0,0.00054122,2.8668e-09,0,0.00027197,0.00010138,2.0205e+08,929.84,0,9.9495e+07,119.96,714.3,1
2468,3.28,12178,1,12178,1,3.5992e-05,-8.7436e-10,0,0.00047068,-6.5843e-06,-5.0648e+05,-285.08,0,1.763e+08,-47.15,12177,13439,1,13439,1,0.00094362,1.0855e-09,0,0.00094362,0.00016299,3.1438e+08,371.73,0,3.5346e+08,45.8,13438,12178,1,12178,1,3.7332e-06,-7.0609e-10,0,0.00047366,-5.8992e-07,1.2387e+06,-226.1,0,1.8962e+08,-24.455,12177,10873,1,10873,1,-0.00086902,-3.018e-09,0,3.7299e-06,-0.00017657,-3.5346e+08,-1008,0,1.2375e+06,-617.08,10872,11561,1,11561,1,-0.0004662,-1.6762e-09,0,0.0002648,-8.857e-05,-1.8962e+08,-545.56,0,1.0074e+08,-67.401,11560,12795,1,12795,1,0.00047368,-9.0468e-11,0,0.00073473,8.7474e-05,1.6914e+08,-27.616,0,2.7154e+08,-1.8287,12794,714.3,0,714.3,0,0.00054293,9.5071e-10,0,0.00027284,0.0001017,2.0259e+08,313.91,0,9.9745e+07,75.056,714.3,1
2468,3.29,12178,1,12178,1,3.6322e-05,1.7426e-09,0,0.00047217,-6.6448e-06,-5.0792e+05,560.55,0,1.7677e+08,-10.459,12177,13439,1,13439,1,0.0009468,5.7993e-09,0,0.0009468,0.00016346,3.1506e+08,1868.5,0,3.5449e+08,121.88,13438,12178,1,12178,1,3.962e-06,1.6746e-09,0,0.00047536,-6.3163e-07,1.3277e+06,529.95,0,1.9012e+08,-2.4488,12177,10873,1,10873,1,-0.00087154,-1.3237e-09,0,3.9591e-06,-0.00017717,-3.5449e+08,-453.31,0,1.3266e+06,-451.27,10872,11561,1,11561,1,-0.00046744,5.5021e-10,0,0.00026541,-8.8887e-05,-1.9012e+08,171.57,0,1.0109e+08,-24.802,11560,12795,1,12795,1,0.00047538,2.7931e-09,0,0.00073681,8.7707e-05,1.6962e+08,897.48,0,2.723e+08,26.739,12794,714.3,0,714.3,0,0.00054464,1.4894e-09,0,0.00027369,0.00010202,2.0312e+08,486.52,0,9.999e+07,73.624,714.3,1
2468,3.3,12178,1,12178,1,3.6662e-05,2.9437e-09,0,0.00047366,-6.7072e-06,-5.0921e+05,951.29,0,1.7723e+08,-16.88,12177,13439,1,13439,1,0.00095001,7.8644e-09,0,0.00095001,0.00016394,3.1572e+08,2589.5,0,3.5551e+08,196.71,13438,12178,1,12178,1,4.2018e-06,2.864e-09,0,0.00047706,-6.7502e-07,1.4205e+06,922.3,0,1.9062e+08,-4.5189,12177,10873,1,10873,1,-0.00087405,-1.9847e-09,0,4.198e-06,-0.00017776,-3.5551e+08,-679.61,0,1.4191e+06,-609.21,10872,11561,1,11561,1,-0.00046866,6.6587e-10,0,0.00026601,-8.9208e-05,-1.9062e+08,210.05,0,1.0144e+08,-59.734,11560,12795,1,12795,1,0.0004771,5.0852e-09,0,0.00073887,8.7937e-05,1.701e+08,1646.8,0,2.7305e+08,46.791,12794,714.3,0,714.3,0,0.00054633,2.5185e-09,0,0.00027455,0.00010233,2.0364e+08,822.51,0,1.0023e+08,104.3,714.3,1
2468,3.31,12178,1,12178,1,3.7024e-05,-6.596e-10,0,0.00047517,-6.7734e-06,-5.1075e+05,-206.43,0,1.777e+08,-41.84,12177,13439,1,13439,1,0.0009532,8.3955e-10,0,0.0009532,0.0001644,3.1636e+08,287.51,0,3.5651e+08,48.052,13438,12178,1,12178,1,4.4622e-06,-6.8044e-10,0,0.00047882,-7.2203e-07,1.5206e+06,-207.62,0,1.9113e+08,-15.869,12177,10873,1,10873,1,-0.00087651,-2.2532e-09,0,4.4564e-06,-0.00017836,-3.5651e+08,-742.18,0,1.5183e+06,-938.87,10872,11561,1,11561,1,-0.00046991,-1.2025e-09,0,0.0002666,-8.9529e-05,-1.9113e+08,-371.64,0,1.0179e+08,-34.751,11560,12795,1,12795,1,0.00047883,-6.3075e-11,0,0.00074097,8.817e-05,1.7057e+08,-20.946,0,2.7382e+08,-0.25266,12794,714.3,0,714.3,0,0.00054805,6.4216e-10,0,0.00027542,0.00010265,2.0417e+08,204.56,0,1.0048e+08,97.919,714.3,1
2468,3.32,12178,1,12178,1,3.7392e-05,1.422e-09,0,0.00047667,-6.8406e-06,-5.1226e+05,457.91,0,1.7816e+08,-21.657,12177,13439,1,13439,1,0.00095644,4.3306e-09,0,0.00095644,0.00016487,3.17e+08,1424.8,0,3.5753e+08,154.67,13438,12178,1,12178,1,4.726e-06,1.3965e-09,0,0.00048056,-7.7016e-07,1.6219e+06,436.44,0,1.9162e+08,-0.13935,12177,10873,1,10873,1,-0.00087901,-2.129e-09,0,4.7244e-06,-0.00017896,-3.5753e+08,-701.13,0,1.6214e+06,-1069.7,10872,11561,1,11561,1,-0.00047111,2.4782e-10,0,0.00026718,-8.9855e-05,-1.9162e+08,76.088,0,1.0213e+08,-32.01,11560,12795,1,12795,1,0.00048058,2.5524e-09,0,0.00074302,8.8397e-05,1.7104e+08,829.53,0,2.7456e+08,35.593,12794,714.3,0,714.3,0,0.00054976,1.315e-09,0,0.00027628,0.00010297,2.0468e+08,429.21,0,1.0072e+08,122.41,714.3,1
2468,3.33,12178,1,12178,1,3.7762e-05,-1.9123e-09,0,0.00047817,-6.9084e-06,-5.1364e+05,-613.08,0,1.7861e+08,-53.833,12177,13439,1,13439,1,0.00095968,4.6431e-09,0,0.00095968,0.00016534,3.1765e+08,1527.6,0,3.5854e+08,190.71,13438,12178,1,12178,1,4.9941e-06,-1.5474e-09,0,0.00048231,-8.1926e-07,1.7249e+06,-479.35,0,1.9211e+08,-27.455,12177,10873,1,10873,1,-0.00088151,-8.728e-09,0,4.9922e-06,-0.00017957,-3.5854e+08,-2870.8,0,1.7243e+06,-1494.5,10872,11561,1,11561,1,-0.00047233,-3.8664e-09,0,0.00026776,-9.0182e-05,-1.9211e+08,-1242.3,0,1.0248e+08,-79.172,11560,12795,1,12795,1,0.00048234,1.663e-10,0,0.00074508,8.8625e-05,1.7151e+08,54.762,0,2.7532e+08,33.288,12794,714.3,0,714.3,0,0.00055148,2.6068e-09,0,0.00027715,0.00010329,2.052e+08,843.13,0,1.0096e+08,175.63,714.3,1
2468,3.34,12178,1,12178,1,3.8134e-05,-2.8883e-09,0,0.00047967,-6.9766e-06,-5.1495e+05,-933.95,0,1.7907e+08,-66.053,12177,13439,1,13439,1,0.00096293,2.5184e-09,0,0.00096293,0.0001658,3.1828e+08,862.3,0,3.5955e+08,236.36,13438,12178,1,12178,1,5.268e-06,-2.6353e-09,0,0.00048405,-8.6883e-07,1.8299e+06,-822.35,0,1.926e+08,-47.189,12177,10873,1,10873,1,-0.00088399,-9.64e-09,0,5.263e-06,-0.00018017,-3.5955e+08,-3123.8,0,1.8283e+06,-1706.9,10872,11561,1,11561,1,-0.00047352,-5.1901e-09,0,0.00026833,-9.051e-05,-1.926e+08,-1670.7,0,1.0282e+08,-136.89,11560,12795,1,12795,1,0.0004841,-2.601e-10,0,0.00074711,8.8851e-05,1.7198e+08,-78.622,0,2.7606e+08,24.921,12794,714.3,0,714.3,0,0.00055318,2.9393e-09,0,0.00027801,0.00010361,2.0572e+08,957.4,0,1.0119e+08,156.38,714.3,1
2468,3.35,12178,1,12178,1,3.8509e-05,-2.3247e-09,0,0.00048119,-7.0451e-06,-5.1652e+05,-755.5,0,1.7953e+08,-45.838,12177,13439,1,13439,1,0.00096619,1.884e-09,0,0.00096619,0.00016627,3.1892e+08,645.09,0,3.6057e+08,177.1,13438,12178,1,12178,1,5.5421e-06,-1.8905e-09,0,0.00048582,-9.1672e-07,1.9352e+06,-598.01,0,1.931e+08,-24.001,12177,10873,1,10873,1,-0.00088649,-8.8072e-09,0,5.5337e-06,-0.00018078,-3.6057e+08,-2873.4,0,1.9322e+06,-1824.8,10872,11561,1,11561,1,-0.00047475,-4.1831e-09,0,0.00026891,-9.0838e-05,-1.931e+08,-1360.1,0,1.0317e+08,-102.74,11560,12795,1,12795,1,0.00048587,-6.677e-12,0,0.0007492,8.9081e-05,1.7246e+08,-2.2837,0,2.768e+08,30.55,12794,714.3,0,714.3,0,0.00055491,2.593e-09,0,0.00027888,0.00010394,2.0624e+08,846.98,0,1.0144e+08,128.21,714.3,1
2468,3.36,12178,1,12178,1,3.8888e-05,-1.8449e-09,0,0.00048267,-7.1144e-06,-5.1792e+05,-600.14,0,1.7998e+08,-44.462,12177,13439,1,13439,1,0.00096941,6.6454e-09,0,0.00096941,0.00016673,3.1954e+08,2171.7,0,3.6157e+08,246.16,13438,12178,1,12178,1,5.8199e-06,-1.2354e-09,0,0.00048757,-9.6426e-07,2.042e+06,-400.12,0,1.9358e+08,-38.112,12177,10873,1,10873,1,-0.00088895,-9.6836e-09,0,5.8118e-06,-0.00018138,-3.6157e+08,-3143.8,0,2.0389e+06,-504.36,10872,11561,1,11561,1,-0.00047594,-4.9067e-09,0,0.00026948,-9.1164e-05,-1.9358e+08,-1591.4,0,1.0351e+08,-118.91,11560,12795,1,12795,1,0.00048761,7.6511e-10,0,0.00075123,8.9305e-05,1.7292e+08,239.91,0,2.7737e+08,42.545,12794,714.3,0,714.3,0,0.00055661,3.8686e-09,0,0.00027974,0.00010425,2.0675e+08,1257.4,0,1.0167e+08,122.93,714.3,1
2468,3.37,12178,1,12178,1,3.9268e-05,-7.9602e-10,0,0.00048419,-7.1838e-06,-5.1941e+05,-262.73,0,1.8044e+08,-34.713,12177,13439,1,13439,1,0.00097266,3.4223e-09,0,0.00097266,0.0001672,3.2017e+08,1143.5,0,3.6258e+08,111.07,13438,12178,1,12178,1,6.0972e-06,-2.1029e-10,0,0.00048934,-1.0137e-06,2.1483e+06,-65.237,0,1.9408e+08,-23.559,12177,10873,1,10873,1,-0.00089142,-5.246e-09,0,6.0893e-06,-0.00018198,-3.6258e+08,-1725.3,0,2.1453e+06,-461.4,10872,11561,1,11561,1,-0.00047717,-2.221e-09,0,0.00027006,-9.1492e-05,-1.9408e+08,-706.26,0,1.0386e+08,-75.741,11560,12795,1,12795,1,0.00048938,5.5038e-10,0,0.00075331,8.9535e-05,1.7339e+08,170.5,0,2.7796e+08,17.635,12794,714.3,0,714.3,0,0.00055833,2.0505e-09,0,0.00028061,0.00010458,2.0727e+08,671.37,0,1.0191e+08,80.368,714.3,1
2468,3.38,12178,1,12178,1,3.9653e-05,-1.4323e-09,0,0.00048569,-7.2543e-06,-5.2053e+05,-464.46,0,1.809e+08,-40.056,12177,13439,1,13439,1,0.0009759,5.2375e-09,0,0.0009759,0.00016766,3.2079e+08,1713.7,0,3.6358e+08,186.27,13438,12178,1,12178,1,6.3793e-06,-9.3481e-10,0,0.0004911,-1.0641e-06,2.2565e+06,-310.24,0,1.9456e+08,-44.076,12177,10873,1,10873,1,-0.0008939,-7.4668e-09,0,6.3739e-06,-0.00018259,-3.6358e+08,-2418,0,2.2545e+06,-472.55,10872,11561,1,11561,1,-0.00047836,-3.7639e-09,0,0.00027061,-9.182e-05,-1.9456e+08,-1205.1,0,1.0421e+08,-92.621,11560,12795,1,12795,1,0.00049114,5.9971e-10,0,0.00075534,8.9759e-05,1.7386e+08,187.29,0,2.7853e+08,29.182,12794,714.3,0,714.3,0,0.00056004,3.0701e-09,0,0.00028147,0.00010489,2.0777e+08,998.25,0,1.0215e+08,95.389,714.3,1
2468,3.39,12178,1,12178,1,4.0037e-05,-2.2877e-09,0,0.00048719,-7.3244e-06,-5.2232e+05,-739.94,0,1.8135e+08,-45.165,12177,13439,1,13439,1,0.00097916,7.5539e-09,0,0.00097916,0.00016813,3.2141e+08,2521.6,0,3.6459e+08,302.88,13438,12178,1,12178,1,6.6629e-06,-1.911e-09,0,0.00049286,-1.1148e-06,2.3651e+06,-612.63,0,1.9505e+08,-42.906,12177,10873,1,10873,1,-0.00089637,-1.1331e-08,0,6.6554e-06,-0.0001832,-3.6459e+08,-3667.2,0,2.3623e+06,-594.97,10872,11561,1,11561,1,-0.00047955,-5.629e-09,0,0.00027117,-9.2149e-05,-1.9505e+08,-1821.4,0,1.0455e+08,-136.67,11560,12795,1,12795,1,0.00049291,6.1432e-10,0,0.00075738,8.9983e-05,1.7432e+08,193.51,0,2.7909e+08,55.223,12794,714.3,0,714.3,0,0.00056175,4.2718e-09,0,0.00028234,0.00010521,2.0828e+08,1388.3,0,1.0238e+08,150.46,714.3,1
2468,3.4,12178,1,12178,1,4.0426e-05,-8.2537e-10,0,0.00048872,-7.3956e-06,-5.2364e+05,-272.13,0,1.8181e+08,-52.805,12177,13439,1,13439,1,0.00098243,1.5825e-09,0,0.00098243,0.00016859,3.2204e+08,541.88,0,3.656e+08,77.846,13438,12178,1,12178,1,6.9479e-06,-6.1751e-10,0,0.00049466,-1.1653e-06,2.4744e+06,-189.45,0,1.9555e+08,-38.059,12177,10873,1,10873,1,-0.00089886,-3.4998e-09,0,6.9414e-06,-0.00018381,-3.656e+08,-1148.4,0,2.4719e+06,-412.4,10872,11561,1,11561,1,-0.00048078,-1.6884e-09,0,0.00027176,-9.248e-05,-1.9555e+08,-552.78,0,1.0491e+08,-91.582,11560,12795,1,12795,1,0.00049469,4.7149e-11,0,0.00075948,9.0215e-05,1.7479e+08,15.156,0,2.7968e+08,-5.3221,12794,714.3,0,714.3,0,0.00056349,1.0902e-09,0,0.00028322,0.00010554,2.0881e+08,361.64,0,1.0262e+08,64.923,714.3,1
2468,3.41,12178,1,12178,1,4.0822e-05,-1.0629e-09,0,0.00049022,-7.468e-06,-5.2499e+05,-344.37,0,1.8226e+08,-36.179,12177,13439,1,13439,1,0.00098569,4.7682e-09,0,0.00098569,0.00016906,3.2264e+08,1579.8,0,3.666e+08,139.79,13438,12178,1,12178,1,7.241e-06,-5.7536e-10,0,0.00049644,-1.2178e-06,2.5865e+06,-184.08,0,1.9603e+08,-36.113,12177,10873,1,10873,1,-0.00090132,-6.6113e-09,0,7.2364e-06,-0.00018441,-3.666e+08,-2123.5,0,2.5848e+06,-519.1,10872,11561,1,11561,1,-0.00048196,-3.0126e-09,0,0.00027231,-9.2811e-05,-1.9603e+08,-948.86,0,1.0525e+08,-84.353,11560,12795,1,12795,1,0.00049647,6.4484e-10,0,0.0007615,9.0437e-05,1.7526e+08,198.92,0,2.8024e+08,32.133,12794,714.3,0,714.3,0,0.0005652,2.6324e-09,0,0.00028409,0.00010586,2.0931e+08,853.32,0,1.0286e+08,98.605,714.3,1
2468,3.42,12178,1,12178,1,4.1215e-05,1.7777e-09,0,0.00049173,-7.5397e-06,-5.2655e+05,566.88,0,1.8271e+08,6.3034,12177,13439,1,13439,1,0.00098895,8.78e-09,0,0.00098895,0.00016952,3.2326e+08,2819.1,0,3.6761e+08,329.57,13438,12178,1,12178,1,7.5322e-06,1.058e-09,0,0.00049821,-1.2692e-06,2.698e+06,335.8,0,1.9651e+08,12.109,12177,10873,1,10873,1,-0.00090379,-4.0472e-09,0,7.5269e-06,-0.00018502,-3.6761e+08,-1385.7,0,2.696e+06,-468.39,10872,11561,1,11561,1,-0.00048315,-4.7375e-10,0,0.00027286,-9.314e-05,-1.9651e+08,-146.31,0,1.056e+08,-45.426,11560,12795,1,12795,1,0.00049824,3.9772e-09,0,0.00076354,9.0661e-05,1.7572e+08,1262.6,0,2.808e+08,63.313,12794,714.3,0,714.3,0,0.00056691,2.8849e-09,0,0.00028495,0.00010618,2.0982e+08,935.65,0,1.0309e+08,111.36,714.3,1
2468,3.43,12178,1,12178,1,4.1611e-05,-3.6342e-10,0,0.00049323,-7.6123e-06,-5.2794e+05,-112.87,0,1.8316e+08,-34.736,12177,13439,1,13439,1,0.00099218,5.0658e-09,0,0.00099218,0.00016998,3.2386e+08,1702.5,0,3.686e+08,145.26,13438,12178,1,12178,1,7.8261e-06,-2.4851e-10,0,0.00049999,-1.3215e-06,2.8104e+06,-76.429,0,1.97e+08,-27.53,12177,10873,1,10873,1,-0.00090623,-4.0991e-09,0,7.8219e-06,-0.00018562,-3.686e+08,-1331,0,2.8088e+06,-517.55,10872,11561,1,11561,1,-0.00048435,-1.8416e-09,0,0.00027342,-9.3469e-05,-1.97e+08,-593.63,0,1.0595e+08,-70.894,11560,12795,1,12795,1,0.0005,6.5726e-10,0,0.00076558,9.0885e-05,1.7618e+08,218.51,0,2.8137e+08,19.642,12794,714.3,0,714.3,0,0.00056863,2.0716e-09,0,0.00028582,0.0001065,2.1033e+08,674.63,0,1.0333e+08,88.289,714.3,1
2468,3.44,12178,1,12178,1,4.2011e-05,-2.9548e-10,0,0.00049476,-7.6854e-06,-5.2923e+05,-95.221,0,1.8362e+08,-40.46,12177,13439,1,13439,1,0.00099549,2.2023e-09,0,0.00099549,0.00017044,3.2447e+08,754.11,0,3.6961e+08,64.415,13438,12178,1,12178,1,8.1215e-06,-1.3375e-10,0,0.00050179,-1.3742e-06,2.9233e+06,-39.81,0,1.9749e+08,-25.593,12177,10873,1,10873,1,-0.00090872,-2.6039e-09,0,8.119e-06,-0.00018624,-3.6961e+08,-835.97,0,2.9224e+06,-444.3,10872,11561,1,11561,1,-0.00048556,-9.9286e-10,0,0.00027398,-9.3803e-05,-1.9749e+08,-316.76,0,1.063e+08,-61.141,11560,12795,1,12795,1,0.0005018,3.1284e-10,0,0.00076765,9.1112e-05,1.7665e+08,98.77,0,2.8194e+08,4.7031,12794,714.3,0,714.3,0,0.00057037,9.5727e-10,0,0.0002867,0.00010682,2.1084e+08,314.71,0,1.0356e+08,71.617,714.3,1
2468,3.45,12178,1,12178,1,4.2415e-05,-7.6604e-10,0,0.00049625,-7.7593e-06,-5.3063e+05,-246.73,0,1.8406e+08,-37.772,12177,13439,1,13439,1,0.00099875,4.0919e-09,0,0.00099875,0.0001709,3.2506e+08,1382.4,0,3.706e+08,123.48,13438,12178,1,12178,1,8.4251e-06,-5.2956e-10,0,0.00050356,-1.4282e-06,3.0393e+06,-169.68,0,1.9797e+08,-33.999,12177,10873,1,10873,1,-0.00091116,-4.8464e-09,0,8.4204e-06,-0.00018684,-3.706e+08,-1643.8,0,3.0377e+06,-441.19,10872,11561,1,11561,1,-0.00048672,-2.3489e-09,0,0.00027452,-9.4135e-05,-1.9797e+08,-750.61,0,1.0665e+08,-72.77,11560,12795,1,12795,1,0.00050359,4.4535e-10,0,0.00076966,9.1332e-05,1.7711e+08,137.97,0,2.8249e+08,18.32,12794,714.3,0,714.3,0,0.00057207,2.1076e-09,0,0.00028756,0.00010714,2.1134e+08,685.02,0,1.0379e+08,77.555,714.3,1
2468,3.46,12178,1,12178,1,4.2819e-05,-1.3774e-09,0,0.00049778,-7.8333e-06,-5.3219e+05,-442.99,0,1.8451e+08,-41.313,12177,13439,1,13439,1,0.0010021,2.3506e-09,0,0.0010021,0.00017137,3.2568e+08,804.61,0,3.7162e+08,138.4,13438,12178,1,12178,1,8.727e-06,-8.838e-10,0,0.00050537,-1.4821e-06,3.1546e+06,-280.86,0,1.9845e+08,-33.084,12177,10873,1,10873,1,-0.00091366,-6.2753e-09,0,8.723e-06,-0.00018746,-3.7162e+08,-2018.3,0,3.1531e+06,-531.29,10872,11561,1,11561,1,-0.00048792,-3.0443e-09,0,0.00027507,-9.4471e-05,-1.9845e+08,-983.75,0,1.07e+08,-92.225,11560,12795,1,12795,1,0.00050539,2.625e-10,0,0.00077171,9.1557e-05,1.7758e+08,82.634,0,2.8305e+08,27.535,12794,714.3,0,714.3,0,0.0005738,2.1111e-09,0,0.00028844,0.00010747,2.1185e+08,685.27,0,1.0403e+08,103.64,714.3,1
2468,3.47,12178,1,12178,1,4.3227e-05,-2.2561e-09,0,0.00049926,-7.9079e-06,-5.3343e+05,-725.93,0,1.8495e+08,-36.234,12177,13439,1,13439,1,0.0010053,5.9667e-09,0,0.0010053,0.00017183,3.2626e+08,1946.4,0,3.7261e+08,278.79,13438,12178,1,12178,1,9.0358e-06,-1.4655e-09,0,0.00050713,-1.537e-06,3.2725e+06,-451.69,0,1.9892e+08,-27.671,12177,10873,1,10873,1,-0.00091609,-1.1402e-08,0,9.0297e-06,-0.00018807,-3.7261e+08,-3663,0,3.2702e+06,-566.58,10872,11561,1,11561,1,-0.00048907,-5.8083e-09,0,0.0002756,-9.4803e-05,-1.9892e+08,-1862.9,0,1.0734e+08,-114.33,11560,12795,1,12795,1,0.00050718,9.9844e-10,0,0.0007737,9.1774e-05,1.7804e+08,303.02,0,2.8358e+08,48.617,12794,714.3,0,714.3,0,0.00057549,4.3984e-09,0,0.0002893,0.00010778,2.1234e+08,1421.4,0,1.0425e+08,142.71,714.3,1
2468,3.48,12178,1,12178,1,4.3634e-05,-2.3358e-09,0,0.00050079,-7.9823e-06,-5.3481e+05,-754.96,0,1.854e+08,-71.429,12177,13439,1,13439,1,0.0010086,3.4255e-09,0,0.0010086,0.00017229,3.2686e+08,1172.5,0,3.7362e+08,219.54,13438,12178,1,12178,1,9.3405e-06,-2.075e-09,0,0.00050894,-1.5909e-06,3.3888e+06,-651.16,0,1.9941e+08,-57.223,12177,10873,1,10873,1,-0.00091857,-9.359e-09,0,9.3342e-06,-0.00018868,-3.7362e+08,-3036.7,0,3.3864e+06,-479.45,10872,11561,1,11561,1,-0.00049027,-4.4415e-09,0,0.00027615,-9.5138e-05,-1.9941e+08,-1448.4,0,1.0769e+08,-143.43,11560,12795,1,12795,1,0.00050898,7.2252e-11,0,0.00077575,9.1998e-05,1.785e+08,21.367,0,2.8414e+08,27.08,12794,714.3,0,714.3,0,0.00057722,2.8327e-09,0,0.00029018,0.00010811,2.1285e+08,924.29,0,1.0449e+08,129.56,714.3,1
2468,3.49,12178,1,12178,1,4.4049e-05,-2.0886e-09,0,0.0005023,-8.0582e-06,-5.363e+05,-674.72,0,1.8585e+08,-33.894,12177,13439,1,13439,1,0.0010119,5.7754e-09,0,0.0010119,0.00017275,3.2745e+08,1942.6,0,3.7461e+08,248.98,13438,12178,1,12178,1,9.6549e-06,-1.5288e-09,0,0.00051073,-1.6468e-06,3.5086e+06,-490.56,0,1.9988e+08,-40.321,12177,10873,1,10873,1,-0.00092102,-1.0235e-08,0,9.6449e-06,-0.0001893,-3.7461e+08,-3299.8,0,3.5049e+06,-549.32,10872,11561,1,11561,1,-0.00049144,-4.9763e-09,0,0.00027669,-9.5473e-05,-1.9988e+08,-1592.4,0,1.0804e+08,-103.59,11560,12795,1,12795,1,0.00051079,6.0119e-10,0,0.00077777,9.2219e-05,1.7896e+08,182.54,0,2.8469e+08,56.613,12794,714.3,0,714.3,0,0.00057894,3.7925e-09,0,0.00029105,0.00010843,2.1335e+08,1228.4,0,1.0472e+08,130.59,714.3,1
2468,3.5,12178,1,12178,1,4.4467e-05,1.6984e-09,0,0.00050383,-8.1346e-06,-5.3786e+05,533.76,0,1.863e+08,-28.698,12177,13439,1,13439,1,0.0010152,4.9621e-09,0,0.0010152,0.00017321,3.2804e+08,1562.2,0,3.7561e+08,145.96,13438,12178,1,12178,1,9.9689e-06,1.5949e-09,0,0.00051257,-1.7021e-06,3.6283e+06,508.95,0,2.0037e+08,-19.886,12177,10873,1,10873,1,-0.00092348,-2.2405e-09,0,9.9598e-06,-0.00018991,-3.7561e+08,-767.25,0,3.6248e+06,-372.7,10872,11561,1,11561,1,-0.00049264,3.4701e-10,0,0.00027724,-9.5807e-05,-2.0037e+08,111.67,0,1.084e+08,-74.562,11560,12795,1,12795,1,0.00051258,3.0068e-09,0,0.00077985,9.2445e-05,1.7943e+08,951.56,0,2.8525e+08,26.851,12794,714.3,0,714.3,0,0.00058069,1.6295e-09,0,0.00029194,0.00010875,2.1386e+08,522.84,0,1.0495e+08,80.035,714.3,1
2468,3.51,12178,1,12178,1,4.4888e-05,-1.8208e-09,0,0.00050531,-8.2115e-06,-5.3902e+05,-579.8,0,1.8673e+08,-40.251,12177,13439,1,13439,1,0.0010185,7.2786e-09,0,0.0010185,0.00017367,3.2861e+08,2399.3,0,3.7659e+08,271.47,13438,12178,1,12178,1,1.0285e-05,-1.3261e-09,0,0.00051434,-1.7588e-06,3.7487e+06,-422.33,0,2.0083e+08,-43.126,12177,10873,1,10873,1,-0.00092589,-1.0162e-08,0,1.0282e-05,-0.00019052,-3.7659e+08,-3235.1,0,3.7476e+06,-614.48,10872,11561,1,11561,1,-0.00049378,-5.3267e-09,0,0.00027775,-9.6141e-05,-2.0083e+08,-1680.1,0,1.0874e+08,-121.86,11560,12795,1,12795,1,0.00051438,1.1009e-09,0,0.00078181,9.2659e-05,1.7988e+08,338.6,0,2.8577e+08,55.509,12794,714.3,0,714.3,0,0.00058237,4.2372e-09,0,0.0002928,0.00010907,2.1434e+08,1363.3,0,1.0518e+08,140.79,714.3,1
2468,3.52,12178,1,12178,1,4.5303e-05,-5.262e-10,0,0.00050684,-8.2875e-06,-5.4048e+05,-173.15,0,1.8718e+08,-48.697,12177,13439,1,13439,1,0.0010218,2.4307e-09,0,0.0010218,0.00017413,3.2919e+08,832.32,0,3.7759e+08,117.3,13438,12178,1,12178,1,1.0599e-05,-2.2313e-10,0,0.00051617,-1.8141e-06,3.8685e+06,-69.113,0,2.0132e+08,-42.541,12177,10873,1,10873,1,-0.00092835,-3.8244e-09,0,1.0594e-05,-0.00019113,-3.7759e+08,-1309.5,0,3.8664e+06,-382.05,10872,11561,1,11561,1,-0.00049498,-1.4753e-09,0,0.00027831,-9.6478e-05,-2.0132e+08,-470.08,0,1.091e+08,-92.344,11560,12795,1,12795,1,0.00051619,2.112e-10,0,0.00078388,9.2885e-05,1.8034e+08,63.221,0,2.8633e+08,7.992,12794,714.3,0,714.3,0,0.00058412,1.3591e-09,0,0.00029368,0.00010939,2.1485e+08,450.11,0,1.0541e+08,77.152,714.3,1
2468,3.53,12178,1,12178,1,4.5732e-05,2.1334e-09,0,0.00050835,-8.3657e-06,-5.4199e+05,680.31,0,1.8762e+08,-4.3068,12177,13439,1,13439,1,0.0010251,1.4538e-08,0,0.0010251,0.00017459,3.2977e+08,4652.7,0,3.7859e+08,446.18,13438,12178,1,12178,1,1.0925e-05,5.6475e-10,0,0.00051797,-1.8721e-06,3.9921e+06,180.05,0,2.0179e+08,-7.3927,12177,10873,1,10873,1,-0.00093081,-5.3353e-09,0,1.0921e-05,-0.00019175,-3.7859e+08,-1818.2,0,3.9909e+06,-507.86,10872,11561,1,11561,1,-0.00049613,-1.2735e-09,0,0.00027882,-9.6816e-05,-2.0179e+08,-393.63,0,1.0944e+08,-94.031,11560,12795,1,12795,1,0.00051801,5.4603e-09,0,0.00078587,9.31e-05,1.808e+08,1728,0,2.8685e+08,94.858,12794,714.3,0,714.3,0,0.00058582,4.9588e-09,0,0.00029455,0.00010971,2.1534e+08,1598.5,0,1.0564e+08,150.9,714.3,1
2468,3.54,12178,1,12178,1,4.6158e-05,2.2708e-09,0,0.00050988,-8.4436e-06,-5.4308e+05,731.43,0,1.8807e+08,-14.426,12177,13439,1,13439,1,0.0010284,1.0705e-08,0,0.0010284,0.00017505,3.3035e+08,3484.8,0,3.796e+08,287.71,13438,12178,1,12178,1,1.1253e-05,1.5084e-09,0,0.00051979,-1.9298e-06,4.1168e+06,477.89,0,2.0227e+08,-7.2966,12177,10873,1,10873,1,-0.00093329,-4.3005e-09,0,1.124e-05,-0.00019238,-3.796e+08,-1472,0,4.1124e+06,-428.74,10872,11561,1,11561,1,-0.00049731,-3.8174e-10,0,0.00027936,-9.7158e-05,-2.0227e+08,-117.01,0,1.098e+08,-80.428,11560,12795,1,12795,1,0.00051985,4.6756e-09,0,0.00078791,9.3322e-05,1.8126e+08,1502.5,0,2.874e+08,60.128,12794,714.3,0,714.3,0,0.00058756,3.4916e-09,0,0.00029544,0.00011004,2.1585e+08,1135.1,0,1.0587e+08,124.38,714.3,1
2468,3.55,12178,1,12178,1,4.6592e-05,-4.6889e-10,0,0.0005114,-8.5231e-06,-5.4481e+05,-141.02,0,1.8851e+08,-44.86,12177,13439,1,13439,1,0.0010317,1.3564e-09,0,0.0010317,0.00017551,3.3092e+08,464.44,0,3.8058e+08,83.355,13438,12178,1,12178,1,1.158e-05,-4.5603e-10,0,0.00052164,-1.9873e-06,4.2412e+06,-135.13,0,2.0275e+08,-31.412,12177,10873,1,10873,1,-0.0009357,-2.5785e-09,0,1.1575e-05,-0.00019299,-3.8058e+08,-822.35,0,4.239e+06,-475.76,10872,11561,1,11561,1,-0.00049849,-1.1449e-09,0,0.00027989,-9.7493e-05,-2.0275e+08,-353.31,0,1.1015e+08,-76.085,11560,12795,1,12795,1,0.00052165,2.8096e-10,0,0.00078995,9.3544e-05,1.8172e+08,91.385,0,2.8794e+08,3.2084,12794,714.3,0,714.3,0,0.0005893,1.015e-09,0,0.00029632,0.00011036,2.1635e+08,329.09,0,1.061e+08,72.089,714.3,1
2468,3.56,12178,1,12178,1,4.7026e-05,9.4946e-10,0,0.00051291,-8.6023e-06,-5.4626e+05,303.39,0,1.8894e+08,-4.2037,12177,13439,1,13439,1,0.001035,4.3104e-09,0,0.001035,0.00017596,3.3147e+08,1394.2,0,3.8157e+08,137.23,13438,12178,1,12178,1,1.1909e-05,7.5518e-10,0,0.00052345,-2.0459e-06,4.3662e+06,236.93,0,2.0322e+08,-2.2756,12177,10873,1,10873,1,-0.00093812,-3.336e-09,0,1.1907e-05,-0.0001936,-3.8157e+08,-1142.1,0,4.3654e+06,-340.44,10872,11561,1,11561,1,-0.00049963,-2.794e-10,0,0.0002804,-9.783e-05,-2.0322e+08,-85.57,0,1.105e+08,-38.877,11560,12795,1,12795,1,0.00052347,2.304e-09,0,0.00079194,9.3759e-05,1.8217e+08,731.01,0,2.8846e+08,40.729,12794,714.3,0,714.3,0,0.00059101,1.6825e-09,0,0.00029719,0.00011068,2.1684e+08,544.35,0,1.0632e+08,62.903,714.3,1
2468,3.57,12178,1,12178,1,4.7463e-05,-1.3826e-09,0,0.00051443,-8.6823e-06,-5.4753e+05,-437.27,0,1.8938e+08,-45.195,12177,13439,1,13439,1,0.0010384,2.262e-09,0,0.0010384,0.00017642,3.3205e+08,763.71,0,3.8257e+08,95.192,13438,12178,1,12178,1,1.2244e-05,-1.2298e-09,0,0.00052528,-2.1055e-06,4.4931e+06,-386.72,0,2.0369e+08,-33.525,12177,10873,1,10873,1,-0.00094058,-4.7508e-09,0,1.2241e-05,-0.00019422,-3.8257e+08,-1508.1,0,4.492e+06,-542.66,10872,11561,1,11561,1,-0.0005008,-2.8962e-09,0,0.00028092,-9.8172e-05,-2.0369e+08,-919.46,0,1.1085e+08,-79.236,11560,12795,1,12795,1,0.0005253,3.1065e-11,0,0.00079397,9.3979e-05,1.8263e+08,9.6332,0,2.8899e+08,4.6546,12794,714.3,0,714.3,0,0.00059274,1.7213e-09,0,0.00029808,0.000111,2.1733e+08,551.67,0,1.0655e+08,82.867,714.3,1
2468,3.58,12178,1,12178,1,4.7904e-05,-1.1509e-09,0,0.00051596,-8.7629e-06,-5.4897e+05,-369.3,0,1.8982e+08,-25.075,12177,13439,1,13439,1,0.0010417,2.3334e-09,0,0.0010417,0.00017688,3.3261e+08,772.73,0,3.8357e+08,130.84,13438,12178,1,12178,1,1.2584e-05,-1.136e-09,0,0.00052712,-2.1658e-06,4.6218e+06,-354.68,0,2.0416e+08,-14.34,12177,10873,1,10873,1,-0.00094303,-4.2743e-09,0,1.2579e-05,-0.00019484,-3.8357e+08,-1378.2,0,4.6201e+06,-543.19,10872,11561,1,11561,1,-0.00050196,-2.3551e-09,0,0.00028144,-9.8514e-05,-2.0416e+08,-757.09,0,1.1121e+08,-63.581,11560,12795,1,12795,1,0.00052714,4.0319e-11,0,0.00079598,9.4197e-05,1.8309e+08,13.047,0,2.8952e+08,38.757,12794,714.3,0,714.3,0,0.00059447,1.4969e-09,0,0.00029896,0.00011133,2.1783e+08,483.57,0,1.0678e+08,92.641,714.3,1
2468,3.59,12178,1,12178,1,4.8343e-05,-1.449e-09,0,0.00051744,-8.8433e-06,-5.5003e+05,-464.98,0,1.9025e+08,-63.73,12177,13439,1,13439,1,0.001045,1.0978e-08,0,0.001045,0.00017733,3.3315e+08,3599.6,0,3.8454e+08,301.48,13438,12178,1,12178,1,1.2925e-05,-1.5839e-09,0,0.0005289,-2.2265e-06,4.7512e+06,-463.18,0,2.0462e+08,-56.148,12177,10873,1,10873,1,-0.00094543,-9.6036e-09,0,1.2913e-05,-0.00019546,-3.8454e+08,-3064.8,0,4.747e+06,-628.49,10872,11561,1,11561,1,-0.00050307,-5.2524e-09,0,0.00028194,-9.8852e-05,-2.0462e+08,-1684.2,0,1.1155e+08,-157.14,11560,12795,1,12795,1,0.00052896,1.1712e-09,0,0.00079792,9.4407e-05,1.8353e+08,355.42,0,2.9002e+08,37.036,12794,714.3,0,714.3,0,0.00059616,4.811e-09,0,0.00029982,0.00011164,2.183e+08,1545.2,0,1.07e+08,155.07,714.3,1
2468,3.6,12178,1,12178,1,4.8784e-05,8.9819e-10,0,0.00051899,-8.9238e-06,-5.5179e+05,276.17,0,1.9069e+08,-57.028,12177,13439,1,13439,1,0.0010483,3.5417e-09,0,0.0010483,0.00017779,3.3372e+08,1212.7,0,3.8554e+08,84.391,13438,12178,1,12178,1,1.3263e-05,9.1217e-10,0,0.00053077,-2.2857e-06,4.8793e+06,279.37,0,2.051e+08,-35.497,12177,10873,1,10873,1,-0.00094788,-1.864e-09,0,1.3249e-05,-0.00019608,-3.8554e+08,-638.32,0,4.8741e+06,-359.32,10872,11561,1,11561,1,-0.00050427,-1.0288e-10,0,0.00028247,-9.9193e-05,-2.051e+08,-32.429,0,1.1191e+08,-105.92,11560,12795,1,12795,1,0.0005308,1.8145e-09,0,0.0008,9.4631e-05,1.8399e+08,549.85,0,2.9057e+08,9.2549,12794,714.3,0,714.3,0,0.00059792,1.1095e-09,0,0.00030071,0.00011197,2.1881e+08,358.81,0,1.0723e+08,88.236,714.3,1
2468,3.61,12178,1,12178,1,4.9236e-05,-1.6125e-09,0,0.00052051,-9.0064e-06,-5.5312e+05,-513.08,0,1.9113e+08,-55.717,12177,13439,1,13439,1,0.0010517,3.6436e-09,0,0.0010517,0.00017825,3.3427e+08,1247.6,0,3.8653e+08,242.45,13438,12178,1,12178,1,1.361e-05,-1.6273e-09,0,0.0005326,-2.3476e-06,5.0103e+06,-516.17,0,2.0556e+08,-33.397,12177,10873,1,10873,1,-0.00095033,-6.1312e-09,0,1.3597e-05,-0.0001967,-3.8653e+08,-1967.9,0,5.0063e+06,-602.06,10872,11561,1,11561,1,-0.0005054,-3.146e-09,0,0.00028297,-9.9538e-05,-2.0556e+08,-1001.1,0,1.1226e+08,-138.54,11560,12795,1,12795,1,0.00053265,9.8755e-11,0,0.00080198,9.4845e-05,1.8445e+08,27.786,0,2.9108e+08,29.557,12794,714.3,0,714.3,0,0.00059965,2.045e-09,0,0.0003016,0.00011229,2.1929e+08,663.07,0,1.0745e+08,135.88,714.3,1
2468,3.62,12178,1,12178,1,4.9688e-05,-1.7439e-09,0,0.00052204,-9.0891e-06,-5.5459e+05,-561.94,0,1.9156e+08,-38.808,12177,13439,1,13439,1,0.001055,1.54e-09,0,0.001055,0.00017871,3.3481e+08,527.36,0,3.8752e+08,148.79,13438,12178,1,12178,1,1.3961e-05,-1.7318e-09,0,0.00053445,-2.4094e-06,5.143e+06,-530.99,0,2.0603e+08,-19.352,12177,10873,1,10873,1,-0.00095276,-4.9865e-09,0,1.3948e-05,-0.00019733,-3.8752e+08,-1617.7,0,5.1385e+06,-477.21,10872,11561,1,11561,1,-0.00050656,-2.9703e-09,0,0.00028348,-9.9882e-05,-2.0603e+08,-966.36,0,1.1262e+08,-97.824,11560,12795,1,12795,1,0.0005345,-4.1083e-10,0,0.00080399,9.5062e-05,1.849e+08,-129.24,0,2.9159e+08,33.726,12794,714.3,0,714.3,0,0.00060138,1.5638e-09,0,0.00030248,0.00011262,2.1978e+08,515.58,0,1.0768e+08,102.09,714.3,1
2468,3.63,12178,1,12178,1,5.0144e-05,-1.6173e-09,0,0.00052355,-9.1724e-06,-5.5595e+05,-520.96,0,1.9199e+08,-52.078,12177,13439,1,13439,1,0.0010584,2.2069e-09,0,0.0010584,0.00017916,3.3535e+08,755.58,0,3.885e+08,156.6,13438,12178,1,12178,1,1.4313e-05,-1.1853e-09,0,0.0005363,-2.472e-06,5.2761e+06,-372.37,0,2.0649e+08,-39.64,12177,10873,1,10873,1,-0.00095516,-6.0125e-09,0,1.4305e-05,-0.00019795,-3.885e+08,-1936.7,0,5.2729e+06,-565.5,10872,11561,1,11561,1,-0.00050769,-3.1814e-09,0,0.00028398,-0.00010022,-2.0649e+08,-1022.3,0,1.1297e+08,-108.69,11560,12795,1,12795,1,0.00053634,-5.6032e-12,0,0.00080597,9.5275e-05,1.8535e+08,-1.5448,0,2.921e+08,9.0177,12794,714.3,0,714.3,0,0.00060309,1.9171e-09,0,0.00030336,0.00011294,2.2026e+08,621.47,0,1.079e+08,98.934,714.3,1
2468,3.64,12178,1,12178,1,5.0599e-05,2.3077e-10,0,0.00052506,-9.2555e-06,-5.5704e+05,66.509,0,1.9242e+08,-31.74,12177,13439,1,13439,1,0.0010617,7.4764e-09,0,0.0010617,0.00017961,3.3588e+08,2404.1,0,3.8947e+08,190.55,13438,12178,1,12178,1,1.4666e-05,-4.9779e-11,0,0.00053815,-2.5342e-06,5.409e+06,-15.778,0,2.0696e+08,-23.249,12177,10873,1,10873,1,-0.00095756,-3.5044e-09,0,1.4659e-05,-0.00019856,-3.8947e+08,-1137.7,0,5.4065e+06,-506.76,10872,11561,1,11561,1,-0.00050883,-1.5943e-09,0,0.00028448,-0.00010056,-2.0696e+08,-515.52,0,1.1332e+08,-74.158,11560,12795,1,12795,1,0.00053817,1.289e-09,0,0.00080796,9.5489e-05,1.8579e+08,393.38,0,2.9261e+08,19.189,12794,714.3,0,714.3,0,0.00060481,2.4849e-09,0,0.00030424,0.00011326,2.2075e+08,798.14,0,1.0812e+08,93.725,714.3,1
2468,3.65,12178,1,12178,1,5.1056e-05,-2.5851e-09,0,0.00052658,-9.3392e-06,-5.5863e+05,-821.49,0,1.9285e+08,-52.032,12177,13439,1,13439,1,0.001065,6.5336e-09,0,0.001065,0.00018007,3.3643e+08,2144.4,0,3.9047e+08,232.44,13438,12178,1,12178,1,1.502e-05,-2.5492e-09,0,0.00053998,-2.5971e-06,5.5426e+06,-764.75,0,2.0741e+08,-39.981,12177,10873,1,10873,1,-0.00096001,-1.0205e-08,0,1.5014e-05,-0.00019919,-3.9047e+08,-3254.1,0,5.5405e+06,-586.64,10872,11561,1,11561,1,-0.00050996,-5.9252e-09,0,0.00028497,-0.00010091,-2.0741e+08,-1881.5,0,1.1367e+08,-132.19,11560,12795,1,12795,1,0.00054003,2.6991e-10,0,0.00080994,9.5702e-05,1.8625e+08,78.216,0,2.9311e+08,32.491,12794,714.3,0,714.3,0,0.00060654,3.9093e-09,0,0.00030512,0.00011358,2.2123e+08,1255.1,0,1.0834e+08,126.86,714.3,1
2468,3.66,12178,1,12178,1,5.1518e-05,-1.512e-09,0,0.00052811,-9.4237e-06,-5.6024e+05,-488.53,0,1.9328e+08,-39.502,12177,13439,1,13439,1,0.0010684,3.9951e-09,0,0.0010684,0.00018053,3.3696e+08,1367.3,0,3.9146e+08,202.54,13438,12178,1,12178,1,1.5381e-05,-1.4505e-09,0,0.00054185,-2.6607e-06,5.6787e+06,-453.92,0,2.0788e+08,-17.961,12177,10873,1,10873,1,-0.00096243,-5.5456e-09,0,1.5371e-05,-0.00019982,-3.9146e+08,-1796,0,5.675e+06,-431.99,10872,11561,1,11561,1,-0.00051111,-3.1936e-09,0,0.00028547,-0.00010126,-2.0788e+08,-1042.6,0,1.1403e+08,-92.861,11560,12795,1,12795,1,0.00054189,1.2833e-10,0,0.00081195,9.5919e-05,1.867e+08,37.64,0,2.9362e+08,33.628,12794,714.3,0,714.3,0,0.00060828,2.0664e-09,0,0.00030601,0.0001139,2.2172e+08,675.34,0,1.0856e+08,95.728,714.3,1
2468,3.67,12178,1,12178,1,5.1988e-05,9.9107e-10,0,0.00052965,-9.5096e-06,-5.6157e+05,305.5,0,1.9372e+08,-27.956,12177,13439,1,13439,1,0.0010718,2.9361e-09,0,0.0010718,0.00018098,3.375e+08,950.3,0,3.9244e+08,98.7,13438,12178,1,12178,1,1.5745e-05,9.8408e-10,0,0.00054375,-2.7251e-06,5.8157e+06,303.55,0,2.0835e+08,-18.082,12177,10873,1,10873,1,-0.00096486,-1.178e-09,0,1.5738e-05,-0.00020044,-3.9244e+08,-403.43,0,5.8131e+06,-362.42,10872,11561,1,11561,1,-0.00051226,1.6956e-10,0,0.00028597,-0.0001016,-2.0835e+08,56.53,0,1.1439e+08,-54.633,11560,12795,1,12795,1,0.00054375,1.7763e-09,0,0.00081398,9.6135e-05,1.8715e+08,537.07,0,2.9413e+08,11.956,12794,714.3,0,714.3,0,0.00061003,9.4038e-10,0,0.00030691,0.00011423,2.2221e+08,297.72,0,1.0879e+08,64.314,714.3,1
2468,3.68,12178,1,12178,1,5.2462e-05,-7.9145e-10,0,0.00053118,-9.5961e-06,-5.6288e+05,-250.32,0,1.9415e+08,-37.966,12177,13439,1,13439,1,0.0010751,1.3992e-09,0,0.0010751,0.00018144,3.3803e+08,479.07,0,3.9343e+08,119.28,13438,12178,1,12178,1,1.6112e-05,-6.2755e-10,0,0.00054561,-2.7905e-06,5.9537e+06,-195.44,0,2.0881e+08,-27.407,12177,10873,1,10873,1,-0.00096728,-3.2412e-09,0,1.611e-05,-0.00020107,-3.9343e+08,-1033.7,0,5.953e+06,-538.86,10872,11561,1,11561,1,-0.00051339,-1.4975e-09,0,0.00028646,-0.00010195,-2.0881e+08,-473.16,0,1.1474e+08,-60.019,11560,12795,1,12795,1,0.00054563,2.7507e-11,0,0.00081596,9.6348e-05,1.876e+08,9.0925,0,2.9463e+08,6.083,12794,714.3,0,714.3,0,0.00061176,1.0075e-09,0,0.00030779,0.00011455,2.2269e+08,321.1,0,1.0901e+08,76.003,714.3,1
2468,3.69,12178,1,12178,1,5.2934e-05,-8.7455e-10,0,0.0005327,-9.6825e-06,-5.6404e+05,-280.16,0,1.9457e+08,-22.517,12177,13439,1,13439,1,0.0010785,1.5775e-09,0,0.0010785,0.00018189,3.3854e+08,540.06,0,3.944e+08,88.133,13438,12178,1,12178,1,1.6484e-05,-7.4946e-10,0,0.00054747,-2.8561e-06,6.0933e+06,-225.81,0,2.0927e+08,-16.667,12177,10873,1,10873,1,-0.00096968,-3.4021e-09,0,1.648e-05,-0.00020169,-3.944e+08,-1097.3,0,6.0918e+06,-467.29,10872,11561,1,11561,1,-0.00051451,-1.7327e-09,0,0.00028695,-0.0001023,-2.0927e+08,-561.83,0,1.151e+08,-54.378,11560,12795,1,12795,1,0.00054749,2.0539e-11,0,0.00081794,9.6559e-05,1.8805e+08,6.2939,0,2.9513e+08,26.568,12794,714.3,0,714.3,0,0.00061349,1.1149e-09,0,0.00030868,0.00011488,2.2317e+08,359.49,0,1.0922e+08,70.019,714.3,1
2468,3.7,12178,1,12178,1,5.3408e-05,-2.2886e-09,0,0.00053422,-9.769e-06,-5.6575e+05,-726.77,0,1.95e+08,-35.258,12177,13439,1,13439,1,0.0010819,4.043e-09,0,0.0010819,0.00018234,3.3907e+08,1308.7,0,3.954e+08,190.02,13438,12178,1,12178,1,1.6855e-05,-2.0771e-09,0,0.00054933,-2.9222e-06,6.2327e+06,-628.99,0,2.0972e+08,-21.363,12177,10873,1,10873,1,-0.00097212,-9.0612e-09,0,1.6849e-05,-0.00020233,-3.954e+08,-2888.1,0,6.2306e+06,-551.8,10872,11561,1,11561,1,-0.00051563,-4.6744e-09,0,0.00028742,-0.00010264,-2.0972e+08,-1477.6,0,1.1545e+08,-105.68,11560,12795,1,12795,1,0.00054937,2.237e-10,0,0.0008199,9.6769e-05,1.885e+08,66.513,0,2.9561e+08,42.637,12794,714.3,0,714.3,0,0.00061521,3.0955e-09,0,0.00030956,0.0001152,2.2364e+08,988.12,0,1.0944e+08,115.16,714.3,1
2468,3.71,12178,1,12178,1,5.3886e-05,2.7203e-09,0,0.00053576,-9.8563e-06,-5.6697e+05,850.31,0,1.9542e+08,1.7418,12177,13439,1,13439,1,0.0010853,8.2221e-09,0,0.0010853,0.0001828,3.396e+08,2600.7,0,3.9638e+08,300.84,13438,12178,1,12178,1,1.7231e-05,2.5723e-09,0,0.00055122,-2.9883e-06,6.3737e+06,806.32,0,2.1018e+08,0.50019,12177,10873,1,10873,1,-0.00097453,-2.4144e-09,0,1.7224e-05,-0.00020295,-3.9638e+08,-826.78,0,6.3709e+06,-528.45,10872,11561,1,11561,1,-0.00051676,2.9587e-10,0,0.00028791,-0.00010299,-2.1018e+08,91.553,0,1.1581e+08,-50.964,11560,12795,1,12795,1,0.00055124,4.9896e-09,0,0.00082189,9.6981e-05,1.8895e+08,1570.4,0,2.961e+08,69.823,12794,714.3,0,714.3,0,0.00061695,2.7182e-09,0,0.00031045,0.00011552,2.2412e+08,862.1,0,1.0966e+08,120.34,714.3,1
2468,3.72,12178,1,12178,1,5.437e-05,-1.2572e-09,0,0.0005373,-9.945e-06,-5.6833e+05,-391.53,0,1.9585e+08,-51.183,12177,13439,1,13439,1,0.0010887,1.2584e-09,0,0.0010887,0.00018325,3.4011e+08,368.41,0,3.9736e+08,107.13,13438,12178,1,12178,1,1.7609e-05,-1.1317e-09,0,0.00055312,-3.0555e-06,6.5154e+06,-357.11,0,2.1064e+08,-30.33,12177,10873,1,10873,1,-0.00097694,-3.881e-09,0,1.7606e-05,-0.00020358,-3.9736e+08,-1218,0,6.5139e+06,-539.62,10872,11561,1,11561,1,-0.0005179,-2.268e-09,0,0.0002884,-0.00010334,-2.1064e+08,-715.17,0,1.1617e+08,-87.313,11560,12795,1,12795,1,0.00055313,-1.2529e-10,0,0.0008239,9.7196e-05,1.8939e+08,-42.112,0,2.966e+08,-1.2865,12794,714.3,0,714.3,0,0.0006187,1.2964e-09,0,0.00031135,0.00011585,2.2461e+08,405.15,0,1.0988e+08,83.803,714.3,1
2468,3.73,12178,1,12178,1,5.4857e-05,-1.3703e-09,0,0.00053882,-1.0034e-05,-5.6975e+05,-435.32,0,1.9627e+08,-24.414,12177,13439,1,13439,1,0.001092,9.4568e-10,0,0.001092,0.0001837,3.4061e+08,323.65,0,3.9833e+08,103.01,13438,12178,1,12178,1,1.7993e-05,-1.1996e-09,0,0.00055499,-3.1239e-06,6.659e+06,-388.01,0,2.111e+08,-17.079,12177,10873,1,10873,1,-0.00097933,-4.4596e-09,0,1.799e-05,-0.00020421,-3.9833e+08,-1424.3,0,6.6577e+06,-445.35,10872,11561,1,11561,1,-0.00051901,-2.5334e-09,0,0.00028887,-0.00010369,-2.111e+08,-801.79,0,1.1652e+08,-51.375,11560,12795,1,12795,1,0.00055501,-5.0854e-11,0,0.00082587,9.7405e-05,1.8984e+08,-15.55,0,2.9709e+08,13.37,12794,714.3,0,714.3,0,0.00062043,1.4084e-09,0,0.00031224,0.00011617,2.2508e+08,450.64,0,1.101e+08,63.357,714.3,1
2468,3.74,12178,1,12178,1,5.5345e-05,1.2906e-10,0,0.00054036,-1.0123e-05,-5.7085e+05,34.398,0,1.967e+08,-41.188,12177,13439,1,13439,1,0.0010954,1.3468e-09,0,0.0010954,0.00018415,3.4111e+08,388.91,0,3.993e+08,51.94,13438,12178,1,12178,1,1.8379e-05,1.4105e-10,0,0.00055689,-3.1922e-06,6.803e+06,45.116,0,2.1155e+08,-31.518,12177,10873,1,10873,1,-0.00098173,-6.9013e-10,0,1.8374e-05,-0.00020484,-3.993e+08,-236.26,0,6.8015e+06,-424.03,10872,11561,1,11561,1,-0.00052014,-1.3459e-10,0,0.00028935,-0.00010404,-2.1155e+08,-44.256,0,1.1688e+08,-58.811,11560,12795,1,12795,1,0.0005569,4.0103e-10,0,0.00082786,9.7617e-05,1.9028e+08,113.95,0,2.9758e+08,-11.12,12794,714.3,0,714.3,0,0.00062217,4.0099e-10,0,0.00031314,0.0001165,2.2555e+08,126.28,0,1.1032e+08,54.92,714.3,1
2468,3.75,12178,1,12178,1,5.5835e-05,1.8573e-09,0,0.00054187,-1.0213e-05,-5.7234e+05,585.69,0,1.9711e+08,12.441,12177,13439,1,13439,1,0.0010988,9.983e-09,0,0.0010988,0.0001846,3.4162e+08,3142.9,0,4.0029e+08,400.26,13438,12178,1,12178,1,1.8765e-05,7.9236e-10,0,0.00055876,-3.2612e-06,6.9473e+06,241.54,0,2.12e+08,10.431,12177,10873,1,10873,1,-0.00098414,-2.8061e-09,0,1.8763e-05,-0.00020547,-4.0029e+08,-908.39,0,6.9466e+06,-502.31,10872,11561,1,11561,1,-0.00052123,-5.076e-10,0,0.00028981,-0.00010439,-2.12e+08,-152.4,0,1.1723e+08,-49.877,11560,12795,1,12795,1,0.00055879,4.1384e-09,0,0.0008298,9.7823e-05,1.9072e+08,1297.1,0,2.9804e+08,92.503,12794,714.3,0,714.3,0,0.00062389,3.114e-09,0,0.00031402,0.00011682,2.2602e+08,988.46,0,1.1053e+08,132.94,714.3,1
2468,3.76,12178,1,12178,1,5.6324e-05,1.1709e-09,0,0.00054338,-1.0302e-05,-5.7394e+05,377.61,0,1.9753e+08,4.7772,12177,13439,1,13439,1,0.0011022,1.0989e-08,0,0.0011022,0.00018504,3.421e+08,3535.2,0,4.0124e+08,327.94,13438,12178,1,12178,1,1.9156e-05,1.4185e-10,0,0.00056063,-3.3301e-06,7.093e+06,44.227,0,2.1245e+08,9.8236,12177,10873,1,10873,1,-0.0009865,-3.6314e-09,0,1.915e-05,-0.0002061,-4.0124e+08,-1168.1,0,7.0908e+06,-521.69,10872,11561,1,11561,1,-0.00052233,-9.5002e-10,0,0.00029027,-0.00010474,-2.1245e+08,-286.91,0,1.1758e+08,-55.666,11560,12795,1,12795,1,0.00056066,2.6735e-09,0,0.00083175,9.803e-05,1.9116e+08,825.24,0,2.9851e+08,62.289,12794,714.3,0,714.3,0,0.0006256,3.2297e-09,0,0.0003149,0.00011714,2.2649e+08,1035.6,0,1.1074e+08,116.25,714.3,1
2468,3.77,12178,1,12178,1,5.682e-05,-5.7614e-10,0,0.00054494,-1.0393e-05,-5.7532e+05,-176.84,0,1.9796e+08,-35.51,12177,13439,1,13439,1,0.0011056,1.3299e-09,0,0.0011056,0.0001855,3.4261e+08,455.35,0,4.0223e+08,67.498,13438,12178,1,12178,1,1.9545e-05,-6.428e-10,0,0.00056255,-3.3993e-06,7.2383e+06,-196.2,0,2.1291e+08,-24.487,12177,10873,1,10873,1,-0.00098891,-2.5167e-09,0,1.9541e-05,-0.00020673,-4.0223e+08,-861.65,0,7.2365e+06,-429.88,10872,11561,1,11561,1,-0.00052347,-1.0561e-09,0,0.00029075,-0.00010509,-2.1291e+08,-315.83,0,1.1795e+08,-51.564,11560,12795,1,12795,1,0.00056256,-9.9982e-11,0,0.00083376,9.8244e-05,1.916e+08,-27.421,0,2.9901e+08,-6.1905,12794,714.3,0,714.3,0,0.00062736,6.7588e-10,0,0.00031581,0.00011747,2.2697e+08,219.98,0,1.1096e+08,54.833,714.3,1
2468,3.78,12178,1,12178,1,5.7325e-05,1.7963e-10,0,0.00054648,-1.0485e-05,-5.7671e+05,56.978,0,1.9838e+08,-17.818,12177,13439,1,13439,1,0.001109,1.299e-09,0,0.001109,0.00018595,3.4311e+08,418.63,0,4.032e+08,50.389,13438,12178,1,12178,1,1.9944e-05,7.4807e-11,0,0.00056446,-3.4707e-06,7.3867e+06,21.838,0,2.1336e+08,-4.0648,12177,10873,1,10873,1,-0.00099132,-1.2873e-09,0,1.9943e-05,-0.00020737,-4.032e+08,-440.8,0,7.3861e+06,-411.21,10872,11561,1,11561,1,-0.00052458,-1.4814e-10,0,0.00029121,-0.00010545,-2.1336e+08,-46.091,0,1.1831e+08,-27.681,11560,12795,1,12795,1,0.00056447,5.3243e-10,0,0.00083573,9.8452e-05,1.9205e+08,171.01,0,2.9948e+08,11.007,12794,714.3,0,714.3,0,0.00062911,5.0462e-10,0,0.00031671,0.00011779,2.2744e+08,165.8,0,1.1118e+08,54.702,714.3,1
2468,3.79,12178,1,12178,1,5.783e-05,8.0462e-10,0,0.000548,-1.0577e-05,-5.7778e+05,255.64,0,1.9879e+08,-6.7938,12177,13439,1,13439,1,0.0011124,5.9008e-09,0,0.0011124,0.0001864,3.4359e+08,1866.3,0,4.0418e+08,206.05,13438,12178,1,12178,1,2.0348e-05,1.1517e-10,0,0.00056636,-3.5426e-06,7.5366e+06,34.23,0,2.138e+08,3.091,12177,10873,1,10873,1,-0.0009937,-1.7601e-09,0,2.0346e-05,-0.000208,-4.0418e+08,-602.67,0,7.5359e+06,-460.9,10872,11561,1,11561,1,-0.00052567,-4.2704e-10,0,0.00029166,-0.0001058,-2.138e+08,-127.23,0,1.1862e+08,-42.34,11560,12795,1,12795,1,0.00056637,1.8095e-09,0,0.00083767,9.8658e-05,1.9249e+08,559.72,0,2.9994e+08,42.148,12794,714.3,0,714.3,0,0.00063083,1.736e-09,0,0.0003176,0.00011812,2.279e+08,554.05,0,1.1139e+08,88.365,714.3,1
2468,3.8,12178,1,12178,1,5.8337e-05,-1.3776e-09,0,0.00054955,-1.067e-05,-5.7919e+05,-430.69,0,1.9921e+08,-35.183,12177,13439,1,13439,1,0.0011158,1.6947e-09,0,0.0011158,0.00018685,3.4409e+08,580.17,0,4.0516e+08,132.81,13438,12178,1,12178,1,2.0751e-05,-1.2522e-09,0,0.00056828,-3.6145e-06,7.6863e+06,-379.37,0,2.1425e+08,-20.843,12177,10873,1,10873,1,-0.00099612,-4.3824e-09,0,2.0748e-05,-0.00020864,-4.0516e+08,-1375.1,0,7.6853e+06,-503.71,10872,11561,1,11561,1,-0.00052678,-2.6322e-09,0,0.00029212,-0.00010616,-2.1425e+08,-819.08,0,1.1881e+08,-69.641,11560,12795,1,12795,1,0.00056829,-8.0806e-11,0,0.00083965,9.8867e-05,1.9293e+08,-22.08,0,3.0041e+08,6.6518,12794,714.3,0,714.3,0,0.00063259,1.5039e-09,0,0.0003185,0.00011844,2.2838e+08,476.37,0,1.1161e+08,78.06,714.3,1
2468,3.81,12178,1,12178,1,5.8848e-05,-8.0838e-10,0,0.00055108,-1.0764e-05,-5.8096e+05,-258.29,0,1.9962e+08,-10.731,12177,13439,1,13439,1,0.0011193,4.652e-09,0,0.0011193,0.0001873,3.4456e+08,1484.6,0,4.0613e+08,193.04,13438,12178,1,12178,1,2.116e-05,-6.2701e-10,0,0.00057018,-3.6876e-06,7.8381e+06,-204.53,0,2.147e+08,2.7689,12177,10873,1,10873,1,-0.0009985,-5.5372e-09,0,2.1156e-05,-0.00020928,-4.0613e+08,-1760.8,0,7.8364e+06,-472.9,10872,11561,1,11561,1,-0.00052787,-2.3854e-09,0,0.00029257,-0.00010651,-2.147e+08,-747.35,0,1.1899e+08,-71.392,11560,12795,1,12795,1,0.0005702,5.2481e-10,0,0.00084159,9.9072e-05,1.9337e+08,155.89,0,3.0087e+08,55.197,12794,714.3,0,714.3,0,0.00063432,2.1708e-09,0,0.0003194,0.00011877,2.2884e+08,690.77,0,1.1182e+08,97.851,714.3,1
2468,3.82,12178,1,12178,1,5.9363e-05,4.0678e-10,0,0.00055263,-1.0858e-05,-5.8193e+05,121.71,0,2.0004e+08,-26.156,12177,13439,1,13439,1,0.0011227,1.3021e-09,0,0.0011227,0.00018774,3.4505e+08,445.76,0,4.071e+08,119.78,13438,12178,1,12178,1,2.1571e-05,4.1009e-10,0,0.00057211,-3.7608e-06,7.9902e+06,125.59,0,2.1515e+08,-22.878,12177,10873,1,10873,1,-0.0010009,-3.2552e-10,0,2.1566e-05,-0.00020991,-4.071e+08,-111.48,0,7.9885e+06,-373.91,10872,11561,1,11561,1,-0.00052898,4.2416e-11,0,0.00029303,-0.00010687,-2.1515e+08,13.92,0,1.1918e+08,-57.867,11560,12795,1,12795,1,0.00057212,7.4394e-10,0,0.00084358,9.9281e-05,1.9381e+08,223.93,0,3.0135e+08,8.4279,12794,714.3,0,714.3,0,0.00063607,3.9717e-10,0,0.0003203,0.00011909,2.2931e+08,121.11,0,1.1203e+08,60.211,714.3,1
2468,3.83,12178,1,12178,1,5.9882e-05,1.8455e-09,0,0.00055416,-1.0953e-05,-5.8328e+05,580.16,0,2.0045e+08,-20.033,12177,13439,1,13439,1,0.0011261,5.5651e-09,0,0.0011261,0.0001882,3.4553e+08,1753.4,0,4.0807e+08,148.29,13438,12178,1,12178,1,2.1984e-05,1.8314e-09,0,0.00057403,-3.8347e-06,8.1433e+06,560.33,0,2.1559e+08,-12.818,12177,10873,1,10873,1,-0.0010033,-1.7419e-09,0,2.1983e-05,-0.00021055,-4.0807e+08,-596.43,0,8.1428e+06,-294.86,10872,11561,1,11561,1,-0.00053006,1.1073e-10,0,0.00029347,-0.00010723,-2.1559e+08,34.196,0,1.1936e+08,-67.438,11560,12795,1,12795,1,0.00057405,3.3959e-09,0,0.00084551,9.9484e-05,1.9425e+08,1066.4,0,3.018e+08,30.342,12794,714.3,0,714.3,0,0.00063781,1.845e-09,0,0.0003212,0.00011942,2.2977e+08,587.19,0,1.1224e+08,75.823,714.3,1
2468,3.84,12178,1,12178,1,6.0401e-05,2.2687e-09,0,0.00055569,-1.1048e-05,-5.8472e+05,721.17,0,2.0086e+08,-10.414,12177,13439,1,13439,1,0.0011296,8.5699e-09,0,0.0011296,0.00018864,3.46e+08,2709.9,0,4.0904e+08,317.89,13438,12178,1,12178,1,2.2404e-05,1.786e-09,0,0.00057594,-3.9096e-06,8.2983e+06,550.49,0,2.1603e+08,-5.8178,12177,10873,1,10873,1,-0.0010057,-2.1063e-09,0,2.2397e-05,-0.00021119,-4.0904e+08,-721.2,0,8.2958e+06,-395.73,10872,11561,1,11561,1,-0.00053114,-6.6155e-11,0,0.00029391,-0.00010759,-2.1603e+08,-21.847,0,1.1954e+08,-76.287,11560,12795,1,12795,1,0.00057598,4.4267e-09,0,0.00084745,9.9688e-05,1.9469e+08,1383.7,0,3.0225e+08,66.673,12794,714.3,0,714.3,0,0.00063954,2.6171e-09,0,0.0003221,0.00011974,2.3023e+08,838.76,0,1.1245e+08,107.13,714.3,1
2468,3.85,12178,1,12178,1,6.0923e-05,1.9476e-09,0,0.00055722,-1.1143e-05,-5.8603e+05,625.13,0,2.0127e+08,-14.979,12177,13439,1,13439,1,0.001133,1.0669e-08,0,0.001133,0.00018909,3.4646e+08,3388.8,0,4.1001e+08,324.2,13438,12178,1,12178,1,2.2825e-05,9.7864e-10,0,0.00057786,-3.9852e-06,8.4537e+06,308.12,0,2.1647e+08,-11.918,12177,10873,1,10873,1,-0.001008,-2.6599e-09,0,2.2815e-05,-0.00021183,-4.1001e+08,-910.58,0,8.45e+06,-443.5,10872,11561,1,11561,1,-0.00053223,-3.6663e-10,0,0.00029435,-0.00010794,-2.1647e+08,-106.76,0,1.1971e+08,-89.663,11560,12795,1,12795,1,0.0005779,3.9484e-09,0,0.00084939,9.9892e-05,1.9512e+08,1268.7,0,3.027e+08,57.323,12794,714.3,0,714.3,0,0.00064127,2.9974e-09,0,0.00032299,0.00012006,2.3069e+08,962.45,0,1.1266e+08,117.16,714.3,1
2468,3.86,12178,1,12178,1,6.1448e-05,-8.2939e-10,0,0.00055877,-1.1239e-05,-5.8748e+05,-246.94,0,2.0169e+08,-19.025,12177,13439,1,13439,1,0.0011364,3.5424e-09,0,0.0011364,0.00018953,3.4693e+08,1194.1,0,4.1097e+08,182.42,13438,12178,1,12178,1,2.3246e-05,-8.4367e-10,0,0.0005798,-4.06e-06,8.6088e+06,-260.42,0,2.1692e+08,-13.895,12177,10873,1,10873,1,-0.0010104,-4.0966e-09,0,2.3237e-05,-0.00021246,-4.1097e+08,-1271.5,0,8.6056e+06,-512.11,10872,11561,1,11561,1,-0.00053332,-2.191e-09,0,0.0002948,-0.0001083,-2.1692e+08,-680.35,0,1.199e+08,-55.327,11560,12795,1,12795,1,0.00057982,3.2238e-10,0,0.00085136,0.0001001,1.9556e+08,102.82,0,3.0316e+08,27.49,12794,714.3,0,714.3,0,0.00064303,1.7529e-09,0,0.0003239,0.00012039,2.3116e+08,553.96,0,1.1288e+08,85.859,714.3,1
2468,3.87,12178,1,12178,1,6.1979e-05,-1.6649e-09,0,0.0005603,-1.1336e-05,-5.8897e+05,-519.89,0,2.0209e+08,0.48699,12177,13439,1,13439,1,0.0011398,4.8834e-09,0,0.0011398,0.00018998,3.4739e+08,1578,0,4.1193e+08,264.98,13438,12178,1,12178,1,2.3669e-05,-1.4147e-09,0,0.00058172,-4.137e-06,8.7648e+06,-447.35,0,2.1735e+08,-0.35843,12177,10873,1,10873,1,-0.0010128,-7.6908e-09,0,2.3666e-05,-0.0002131,-4.1193e+08,-2421,0,8.7636e+06,-489.27,10872,11561,1,11561,1,-0.00053439,-4.0793e-09,0,0.00029522,-0.00010866,-2.1735e+08,-1278.7,0,1.2007e+08,-69.75,11560,12795,1,12795,1,0.00058176,3.453e-10,0,0.00085328,0.0001003,1.9599e+08,112.72,0,3.0359e+08,67.62,12794,714.3,0,714.3,0,0.00064476,2.9415e-09,0,0.0003248,0.00012071,2.3161e+08,932.64,0,1.1308e+08,111.27,714.3,1
2468,3.88,12178,1,12178,1,6.2512e-05,4.0272e-10,0,0.00056185,-1.1433e-05,-5.9015e+05,119.14,0,2.025e+08,-20.937,12177,13439,1,13439,1,0.0011433,3.6724e-09,0,0.0011433,0.00019042,3.4784e+08,1197.8,0,4.1289e+08,151.41,13438,12178,1,12178,1,2.4101e-05,3.1656e-10,0,0.00058367,-4.2142e-06,8.9234e+06,88.112,0,2.178e+08,-14.468,12177,10873,1,10873,1,-0.0010151,-1.1594e-09,0,2.4094e-05,-0.00021374,-4.1289e+08,-396.96,0,8.9209e+06,-369.3,10872,11561,1,11561,1,-0.00053549,-3.228e-10,0,0.00029566,-0.00010902,-2.178e+08,-108.07,0,1.2025e+08,-50.152,11560,12795,1,12795,1,0.00058369,6.9495e-10,0,0.00085525,0.00010051,1.9642e+08,201.02,0,3.0405e+08,12.915,12794,714.3,0,714.3,0,0.00064651,9.9878e-10,0,0.00032571,0.00012104,2.3207e+08,323.62,0,1.1329e+08,57.8,714.3,1
2468,3.89,12178,1,12178,1,6.3051e-05,-2.5445e-10,0,0.0005634,-1.1532e-05,-5.9142e+05,-82.584,0,2.0291e+08,-16.276,12177,13439,1,13439,1,0.0011468,2.1543e-09,0,0.0011468,0.00019087,3.483e+08,724.73,0,4.1387e+08,135.88,13438,12178,1,12178,1,2.4534e-05,-7.8523e-11,0,0.00058563,-4.2922e-06,9.0824e+06,-22.481,0,2.1824e+08,-1.8699,12177,10873,1,10873,1,-0.0010175,-2.5488e-09,0,2.4531e-05,-0.00021439,-4.1387e+08,-810.53,0,9.0813e+06,-474.57,10872,11561,1,11561,1,-0.00053657,-9.4938e-10,0,0.0002961,-0.00010938,-2.1824e+08,-296.14,0,1.2042e+08,-58.807,11560,12795,1,12795,1,0.00058565,3.9504e-10,0,0.0008572,0.00010071,1.9686e+08,120.59,0,3.045e+08,41.571,12794,714.3,0,714.3,0,0.00064827,1.001e-09,0,0.00032662,0.00012137,2.3254e+08,319.85,0,1.135e+08,83.96,714.3,1
2468,3.9,12178,1,12178,1,6.3592e-05,-2.2218e-09,0,0.00056492,-1.1631e-05,-5.9262e+05,-698.72,0,2.0331e+08,12.1,12177,13439,1,13439,1,0.0011502,6.3535e-09,0,0.0011502,0.00019132,3.4875e+08,1983,0,4.1483e+08,432.83,13438,12178,1,12178,1,2.4973e-05,-2.0166e-09,0,0.00058755,-4.3714e-06,9.2435e+06,-604.92,0,2.1866e+08,15.061,12177,10873,1,10873,1,-0.0010199,-1.0089e-08,0,2.4968e-05,-0.00021503,-4.1483e+08,-3171.8,0,9.2418e+06,-544.57,10872,11561,1,11561,1,-0.00053761,-5.1204e-09,0,0.00029651,-0.00010974,-2.1866e+08,-1594.3,0,1.2059e+08,-87.959,11560,12795,1,12795,1,0.0005876,4.1701e-10,0,0.00085908,0.00010091,1.9729e+08,121.57,0,3.0492e+08,103.68,12794,714.3,0,714.3,0,0.00064999,3.6887e-09,0,0.00032751,0.00012169,2.3298e+08,1163.4,0,1.1371e+08,157.34,714.3,1
2468,3.91,12178,1,12178,1,6.4131e-05,-2.0766e-09,0,0.00056645,-1.173e-05,-5.9372e+05,-661.4,0,2.0371e+08,0.1364,12177,13439,1,13439,1,0.0011537,7.4216e-09,0,0.0011537,0.00019176,3.492e+08,2337.6,0,4.1579e+08,316.1,13438,12178,1,12178,1,2.5414e-05,-1.3703e-09,0,0.00058948,-4.451e-06,9.4051e+06,-439.82,0,2.1909e+08,-2.1195,12177,10873,1,10873,1,-0.0010223,-1.1894e-08,0,2.5402e-05,-0.00021568,-4.1579e+08,-3750.6,0,9.4009e+06,-598.33,10872,11561,1,11561,1,-0.00053867,-5.771e-09,0,0.00029693,-0.0001101,-2.1909e+08,-1817.9,0,1.2076e+08,-105.84,11560,12795,1,12795,1,0.00058954,1.0181e-09,0,0.000861,0.00010111,1.9772e+08,308.19,0,3.0535e+08,108.95,12794,714.3,0,714.3,0,0.00065172,4.5429e-09,0,0.00032841,0.00012201,2.3343e+08,1438.6,0,1.1391e+08,150.78,714.3,1
2468,3.92,12178,1,12178,1,6.4675e-05,-8.53e-10,0,0.000568,-1.1829e-05,-5.9566e+05,-284.02,0,2.0412e+08,-37.545,12177,13439,1,13439,1,0.0011571,3.163e-09,0,0.0011571,0.0001922,3.4963e+08,1074.8,0,4.1674e+08,137.63,13438,12178,1,12178,1,2.5855e-05,-4.2003e-10,0,0.00059144,-4.53e-06,9.5663e+06,-130.04,0,2.1953e+08,-16.522,12177,10873,1,10873,1,-0.0010246,-4.131e-09,0,2.5841e-05,-0.00021632,-4.1674e+08,-1413.6,0,9.5613e+06,-361.2,10872,11561,1,11561,1,-0.00053976,-2.2749e-09,0,0.00029736,-0.00011046,-2.1953e+08,-744.67,0,1.2094e+08,-109.85,11560,12795,1,12795,1,0.00059148,3.7745e-10,0,0.00086296,0.00010131,1.9815e+08,104,0,3.0579e+08,38.558,12794,714.3,0,714.3,0,0.00065347,1.7359e-09,0,0.00032932,0.00012234,2.3389e+08,567.84,0,1.1412e+08,94.819,714.3,1
2468,3.93,12178,1,12178,1,6.5224e-05,1.2706e-09,0,0.00056955,-1.1929e-05,-5.9688e+05,387.51,0,2.0452e+08,22.647,12177,13439,1,13439,1,0.0011606,1.0779e-08,0,0.0011606,0.00019264,3.5009e+08,3377.1,0,4.1771e+08,327.93,13438,12178,1,12178,1,2.6299e-05,3.1837e-10,0,0.00059341,-4.61e-06,9.7285e+06,95.207,0,2.1997e+08,31.444,12177,10873,1,10873,1,-0.001027,-5.7451e-09,0,2.6284e-05,-0.00021696,-4.1771e+08,-1872.8,0,9.7236e+06,-405.51,10872,11561,1,11561,1,-0.00054083,-1.2968e-09,0,0.00029778,-0.00011082,-2.1997e+08,-420.71,0,1.2111e+08,-58.483,11560,12795,1,12795,1,0.00059343,3.9666e-09,0,0.00086489,0.00010151,1.9858e+08,1212.4,0,3.0622e+08,110.18,12794,714.3,0,714.3,0,0.00065522,3.829e-09,0,0.00033024,0.00012267,2.3435e+08,1213.3,0,1.1433e+08,122.85,714.3,1
2468,3.94,12178,1,12178,1,6.5782e-05,-1.7911e-09,0,0.0005711,-1.2031e-05,-5.9823e+05,-559.82,0,2.0493e+08,-10.656,12177,13439,1,13439,1,0.0011641,6.6221e-09,0,0.0011641,0.00019309,3.5052e+08,2176.5,0,4.1867e+08,351.04,13438,12178,1,12178,1,2.6748e-05,-1.9246e-09,0,0.00059537,-4.6914e-06,9.8925e+06,-562.16,0,2.204e+08,-5.3096,12177,10873,1,10873,1,-0.0010293,-7.6874e-09,0,2.6742e-05,-0.00021761,-4.1867e+08,-2432.4,0,9.8904e+06,-443.15,10872,11561,1,11561,1,-0.00054189,-4.2972e-09,0,0.00029819,-0.00011119,-2.204e+08,-1349.6,0,1.2127e+08,-96.927,11560,12795,1,12795,1,0.00059541,2.2847e-10,0,0.00086682,0.00010171,1.9901e+08,71.07,0,3.0665e+08,63.473,12794,714.3,0,714.3,0,0.00065698,3.1912e-09,0,0.00033115,0.00012299,2.348e+08,1018.4,0,1.1453e+08,126.26,714.3,1
2468,3.95,12178,1,12178,1,6.6341e-05,3.7191e-10,0,0.00057265,-1.2134e-05,-5.9973e+05,107.63,0,2.0533e+08,-51.169,12177,13439,1,13439,1,0.0011675,2.5634e-09,0,0.0011675,0.00019353,3.5095e+08,749.87,0,4.1962e+08,188.94,13438,12178,1,12178,1,2.7204e-05,5.09e-10,0,0.00059736,-4.7736e-06,1.0059e+07,159.63,0,2.2084e+08,-51.811,12177,10873,1,10873,1,-0.0010317,-3.714e-09,0,2.7197e-05,-0.00021825,-4.1962e+08,-1271.6,0,1.0056e+07,-298.43,10872,11561,1,11561,1,-0.00054296,-2.9021e-10,0,0.00029861,-0.00011156,-2.2084e+08,-80.627,0,1.2144e+08,-126.93,11560,12795,1,12795,1,0.00059737,1.2311e-09,0,0.00086877,0.00010191,1.9944e+08,393.27,0,3.0708e+08,15.852,12794,714.3,0,714.3,0,0.00065873,1.2336e-09,0,0.00033207,0.00012332,2.3525e+08,390.29,0,1.1474e+08,95.02,714.3,1
2468,3.96,12178,1,12178,1,6.6904e-05,-2.4476e-09,0,0.00057419,-1.2237e-05,-6.0101e+05,-765.53,0,2.0573e+08,-12.532,12177,13439,1,13439,1,0.001171,4.0266e-09,0,0.001171,0.00019397,3.5138e+08,1278,0,4.2059e+08,310.7,13438,12178,1,12178,1,2.7661e-05,-2.4588e-09,0,0.00059932,-4.8566e-06,1.0225e+07,-741.28,0,2.2126e+08,-2.137,12177,10873,1,10873,1,-0.0010341,-8.0761e-09,0,2.7657e-05,-0.00021891,-4.2059e+08,-2526.5,0,1.0224e+07,-496.77,10872,11561,1,11561,1,-0.000544,-4.6639e-09,0,0.000299,-0.00011192,-2.2126e+08,-1448.8,0,1.2161e+08,-98.286,11560,12795,1,12795,1,0.00059935,-6.9664e-11,0,0.00087066,0.00010211,1.9987e+08,-21.946,0,3.0749e+08,72.73,12794,714.3,0,714.3,0,0.00066047,2.7908e-09,0,0.00033297,0.00012365,2.357e+08,880.48,0,1.1494e+08,129.29,714.3,1
2468,3.97,12178,1,12178,1,6.7469e-05,6.0733e-12,0,0.00057576,-1.234e-05,-6.0211e+05,-10.516,0,2.0613e+08,-29.109,12177,13439,1,13439,1,0.0011746,1.6675e-09,0,0.0011746,0.00019442,3.5181e+08,531.37,0,4.2155e+08,64.876,13438,12178,1,12178,1,2.8125e-05,1.2623e-10,0,0.00060131,-4.9403e-06,1.0394e+07,40.111,0,2.217e+08,-15.562,12177,10873,1,10873,1,-0.0010364,-1.3436e-09,0,2.8115e-05,-0.00021956,-4.2155e+08,-459.94,0,1.039e+07,-351.91,10872,11561,1,11561,1,-0.00054509,-5.7528e-10,0,0.00029943,-0.00011229,-2.217e+08,-188.42,0,1.2178e+08,-62.767,11560,12795,1,12795,1,0.00060134,5.4576e-10,0,0.00087263,0.00010231,2.003e+08,150.4,0,3.0793e+08,14.537,12794,714.3,0,714.3,0,0.00066225,6.625e-10,0,0.0003339,0.00012398,2.3615e+08,210.85,0,1.1515e+08,63.243,714.3,1
2468,3.98,12178,1,12178,1,6.8041e-05,-5.2988e-10,0,0.00057731,-1.2445e-05,-6.0368e+05,-171.91,0,2.0653e+08,-18.01,12177,13439,1,13439,1,0.001178,1.7824e-09,0,0.001178,0.00019486,3.5223e+08,565.72,0,4.225e+08,86.57,13438,12178,1,12178,1,2.859e-05,-4.2995e-10,0,0.0006033,-5.0247e-06,1.0563e+07,-130.97,0,2.2212e+08,-9.1454,12177,10873,1,10873,1,-0.0010388,-2.3834e-09,0,2.8585e-05,-0.00022021,-4.225e+08,-757.16,0,1.0561e+07,-368.21,10872,11561,1,11561,1,-0.00054613,-1.2749e-09,0,0.00029982,-0.00011266,-2.2212e+08,-404.11,0,1.2194e+08,-41.653,11560,12795,1,12795,1,0.00060332,2.1504e-10,0,0.00087453,0.00010251,2.0072e+08,62.919,0,3.0834e+08,20.216,12794,714.3,0,714.3,0,0.00066399,8.9727e-10,0,0.00033481,0.0001243,2.3659e+08,286.42,0,1.1535e+08,60.383,714.3,1
2468,3.99,12178,1,12178,1,6.8616e-05,9.926e-10,0,0.00057887,-1.255e-05,-6.0479e+05,302.93,0,2.0693e+08,-31.713,12177,13439,1,13439,1,0.0011816,2.7781e-09,0,0.0011816,0.0001953,3.5266e+08,844.8,0,4.2346e+08,101.67,13438,12178,1,12178,1,2.9058e-05,8.6018e-10,0,0.0006053,-5.1093e-06,1.0732e+07,263.62,0,2.2255e+08,-28.558,12177,10873,1,10873,1,-0.0010411,-9.2892e-10,0,2.9055e-05,-0.00022086,-4.2346e+08,-318.12,0,1.0731e+07,-281.65,10872,11561,1,11561,1,-0.00054719,2.8928e-10,0,0.00030022,-0.00011303,-2.2255e+08,86.393,0,1.221e+08,-70.868,11560,12795,1,12795,1,0.00060531,1.7299e-09,0,0.00087647,0.00010271,2.0115e+08,534.82,0,3.0876e+08,6.5833,12794,714.3,0,714.3,0,0.00066576,9.1343e-10,0,0.00033574,0.00012463,2.3705e+08,281.21,0,1.1556e+08,58.907,714.3,1
2468,4,12178,1,12178,1,6.9192e-05,1.249e-09,0,0.00058041,-1.2655e-05,-6.0642e+05,391.86,0,2.0732e+08,-4.6714,12177,13439,1,13439,1,0.0011851,4.3597e-09,0,0.0011851,0.00019574,3.5306e+08,1355.4,0,4.2441e+08,141.48,13438,12178,1,12178,1,2.953e-05,1.0973e-09,0,0.00060728,-5.1949e-06,1.0903e+07,331.94,0,2.2298e+08,-2.7431,12177,10873,1,10873,1,-0.0010435,-1.3187e-09,0,2.9528e-05,-0.00022151,-4.2441e+08,-451.54,0,1.0902e+07,-309.19,10872,11561,1,11561,1,-0.00054822,-4.0546e-11,0,0.00030061,-0.0001134,-2.2298e+08,-12.394,0,1.2226e+08,-40.749,11560,12795,1,12795,1,0.0006073,2.3975e-09,0,0.00087836,0.0001029,2.0157e+08,756.18,0,3.0916e+08,37.945,12794,714.3,0,714.3,0,0.0006675,1.3659e-09,0,0.00033665,0.00012496,2.3748e+08,432.35,0,1.1576e+08,60.97,714.3,1
2468,4.01,12178,1,12178,1,6.9769e-05,1.5225e-09,0,0.00058197,-1.2761e-05,-6.0766e+05,482.35,0,2.0772e+08,8.7706,12177,13439,1,13439,1,0.0011886,9.7151e-09,0,0.0011886,0.00019618,3.5348e+08,3049.9,0,4.2537e+08,294.45,13438,12178,1,12178,1,3.0006e-05,3.6352e-10,0,0.00060927,-5.2814e-06,1.1075e+07,111.26,0,2.234e+08,1.5757,12177,10873,1,10873,1,-0.0010458,-2.4597e-09,0,3.0001e-05,-0.00022217,-4.2537e+08,-775.09,0,1.1073e+07,-394.42,10872,11561,1,11561,1,-0.00054926,-6.407e-10,0,0.00030101,-0.00011377,-2.234e+08,-189.88,0,1.2242e+08,-47.987,11560,12795,1,12795,1,0.0006093,3.4627e-09,0,0.00088027,0.0001031,2.02e+08,1075.1,0,3.0957e+08,59.979,12794,714.3,0,714.3,0,0.00066926,2.9575e-09,0,0.00033757,0.00012528,2.3793e+08,932.14,0,1.1596e+08,102.29,714.3,1
2468,4.02,12178,1,12178,1,7.0353e-05,-1.3304e-09,0,0.00058352,-1.2868e-05,-6.0853e+05,-406.04,0,2.0811e+08,-54.042,12177,13439,1,13439,1,0.0011921,9.2755e-10,0,0.0011921,0.00019662,3.5388e+08,317.62,0,4.2632e+08,140.78,13438,12178,1,12178,1,3.0486e-05,-1.2004e-09,0,0.00061127,-5.3684e-06,1.1248e+07,-364.18,0,2.2382e+08,-43.807,12177,10873,1,10873,1,-0.0010482,-3.9183e-09,0,3.048e-05,-0.00022282,-4.2632e+08,-1213.6,0,1.1247e+07,-457.23,10872,11561,1,11561,1,-0.0005503,-2.3174e-09,0,0.00030139,-0.00011414,-2.2382e+08,-701.18,0,1.2258e+08,-85.233,11560,12795,1,12795,1,0.00061128,-2.9024e-10,0,0.00088218,0.0001033,2.0242e+08,-89.637,0,3.0997e+08,-6.5938,12794,714.3,0,714.3,0,0.00067101,1.2247e-09,0,0.00033849,0.00012561,2.3837e+08,377.01,0,1.1616e+08,77.917,714.3,1
2468,4.03,12178,1,12178,1,7.0939e-05,-1.0479e-09,0,0.00058507,-1.2974e-05,-6.1033e+05,-326.97,0,2.085e+08,17.701,12177,13439,1,13439,1,0.0011956,6.5895e-09,0,0.0011956,0.00019706,3.5429e+08,2065.4,0,4.2727e+08,329.22,13438,12178,1,12178,1,3.0965e-05,-1.2604e-09,0,0.00061326,-5.4562e-06,1.1421e+07,-365.99,0,2.2424e+08,25.623,12177,10873,1,10873,1,-0.0010505,-5.8414e-09,0,3.0962e-05,-0.00022347,-4.2727e+08,-1827.3,0,1.142e+07,-404.5,10872,11561,1,11561,1,-0.00055134,-3.1115e-09,0,0.00030178,-0.00011451,-2.2424e+08,-955.26,0,1.2273e+08,-44.106,11560,12795,1,12795,1,0.00061329,5.125e-10,0,0.00088408,0.00010349,2.0284e+08,144.66,0,3.1037e+08,76.689,12794,714.3,0,714.3,0,0.00067276,2.6698e-09,0,0.00033941,0.00012594,2.3881e+08,837.44,0,1.1636e+08,110.36,714.3,1
2468,4.04,12178,1,12178,1,7.1528e-05,1.3795e-10,0,0.00058662,-1.3082e-05,-6.1135e+05,35.598,0,2.0889e+08,-7.774,12177,13439,1,13439,1,0.0011991,7.4378e-09,0,0.0011991,0.00019749,3.5468e+08,2346.1,0,4.2821e+08,340.79,13438,12178,1,12178,1,3.1452e-05,-2.8406e-10,0,0.00061526,-5.5448e-06,1.1597e+07,-83.486,0,2.2466e+08,4.7555,12177,10873,1,10873,1,-0.0010528,-2.4154e-09,0,3.1446e-05,-0.00022412,-4.2821e+08,-778.79,0,1.1595e+07,-316.5,10872,11561,1,11561,1,-0.00055237,-1.4045e-09,0,0.00030216,-0.00011488,-2.2466e+08,-446.67,0,1.2289e+08,-50.099,11560,12795,1,12795,1,0.00061528,6.128e-10,0,0.00088597,0.00010369,2.0326e+08,179.34,0,3.1077e+08,38.531,12794,714.3,0,714.3,0,0.00067451,2.118e-09,0,0.00034032,0.00012626,2.3925e+08,672.52,0,1.1656e+08,98.642,714.3,1
2468,4.05,12178,1,12178,1,7.2119e-05,8.0301e-10,0,0.00058817,-1.319e-05,-6.1266e+05,246.03,0,2.0928e+08,-36.794,12177,13439,1,13439,1,0.0012026,5.4505e-09,0,0.0012026,0.00019793,3.5508e+08,1729.8,0,4.2916e+08,106.83,13438,12178,1,12178,1,3.1938e-05,5.1471e-10,0,0.00061727,-5.6333e-06,1.1772e+07,150.88,0,2.2508e+08,-25.687,12177,10873,1,10873,1,-0.0010551,-2.9678e-09,0,3.1934e-05,-0.00022478,-4.2916e+08,-980.78,0,1.177e+07,-337.28,10872,11561,1,11561,1,-0.0005534,-3.153e-10,0,0.00030254,-0.00011525,-2.2508e+08,-100.1,0,1.2304e+08,-75.939,11560,12795,1,12795,1,0.00061728,1.9127e-09,0,0.00088788,0.00010388,2.0368e+08,574.01,0,3.1117e+08,10.394,12794,714.3,0,714.3,0,0.00067626,1.7047e-09,0,0.00034125,0.00012659,2.3968e+08,542.23,0,1.1676e+08,75.809,714.3,1
2468,4.06,12178,1,12178,1,7.2717e-05,-9.7317e-10,0,0.00058975,-1.33e-05,-6.1422e+05,-299.9,0,2.0967e+08,-18.899,12177,13439,1,13439,1,0.0012062,2.6843e-09,0,0.0012062,0.00019838,3.5548e+08,917.75,0,4.3012e+08,126.5,13438,12178,1,12178,1,3.243e-05,-9.5893e-10,0,0.0006193,-5.7231e-06,1.1948e+07,-288.2,0,2.2551e+08,-7.5901,12177,10873,1,10873,1,-0.0010575,-4.028e-09,0,3.2427e-05,-0.00022544,-4.3012e+08,-1257.5,0,1.1947e+07,-439.48,10872,11561,1,11561,1,-0.00055444,-2.0884e-09,0,0.00030292,-0.00011563,-2.2551e+08,-649.54,0,1.232e+08,-55.451,11560,12795,1,12795,1,0.00061931,8.6284e-11,0,0.00088979,0.00010408,2.0411e+08,26.35,0,3.1157e+08,29.76,12794,714.3,0,714.3,0,0.00067804,1.4739e-09,0,0.00034218,0.00012692,2.4013e+08,465.49,0,1.1696e+08,75.922,714.3,1
2468,4.07,12178,1,12178,1,7.3323e-05,-8.6897e-10,0,0.00059132,-1.3411e-05,-6.1558e+05,-274.1,0,2.1007e+08,-18.24,12177,13439,1,13439,1,0.0012098,5.9554e-10,0,0.0012098,0.00019882,3.5587e+08,203.45,0,4.3108e+08,72.796,13438,12178,1,12178,1,3.2931e-05,-8.4851e-10,0,0.00062133,-5.8146e-06,1.2128e+07,-261.79,0,2.2593e+08,-7.8552,12177,10873,1,10873,1,-0.0010598,-2.5526e-09,0,3.2927e-05,-0.0002261,-4.3108e+08,-813.06,0,1.2127e+07,-352.3,10872,11561,1,11561,1,-0.00055547,-1.5062e-09,0,0.0003033,-0.000116,-2.2593e+08,-474.76,0,1.2335e+08,-48.526,11560,12795,1,12795,1,0.00062135,-2.2969e-10,0,0.0008917,0.00010427,2.0453e+08,-65.78,0,3.1196e+08,26.04,12794,714.3,0,714.3,0,0.00067981,7.8078e-10,0,0.00034311,0.00012725,2.4057e+08,249.91,0,1.1716e+08,59.264,714.3,1
2468,4.08,12178,1,12178,1,7.3929e-05,1.0788e-09,0,0.00059286,-1.3521e-05,-6.1693e+05,329.75,0,2.1044e+08,9.0775,12177,13439,1,13439,1,0.0012133,8.9828e-09,0,0.0012133,0.00019925,3.5625e+08,2791.6,0,4.3201e+08,248.16,13438,12178,1,12178,1,3.3434e-05,2.5558e-10,0,0.00062334,-5.9062e-06,1.2308e+07,70.711,0,2.2633e+08,12.201,12177,10873,1,10873,1,-0.0010622,-4.1734e-09,0,3.343e-05,-0.00022676,-4.3201e+08,-1301.2,0,1.2307e+07,-293.27,10872,11561,1,11561,1,-0.00055648,-1.0743e-09,0,0.00030366,-0.00011638,-2.2633e+08,-328.73,0,1.235e+08,-49.925,11560,12795,1,12795,1,0.00062336,3.0758e-09,0,0.00089357,0.00010446,2.0494e+08,929.94,0,3.1233e+08,65.233,12794,714.3,0,714.3,0,0.00068155,3.0341e-09,0,0.00034403,0.00012758,2.4099e+08,946.18,0,1.1736e+08,86.861,714.3,1
2468,4.09,12178,1,12178,1,7.4535e-05,-2.005e-09,0,0.00059443,-1.3632e-05,-6.1835e+05,-619.33,0,2.1083e+08,-8.197,12177,13439,1,13439,1,0.0012169,1.8247e-09,0,0.0012169,0.00019969,3.5664e+08,624.62,0,4.3297e+08,185.43,13438,12178,1,12178,1,3.3935e-05,-1.8167e-09,0,0.00062537,-5.998e-06,1.2488e+07,-538.12,0,2.2675e+08,3.0245,12177,10873,1,10873,1,-0.0010645,-6.7479e-09,0,3.3931e-05,-0.00022742,-4.3297e+08,-2109.1,0,1.2487e+07,-434.34,10872,11561,1,11561,1,-0.00055751,-3.6446e-09,0,0.00030403,-0.00011675,-2.2675e+08,-1126.5,0,1.2365e+08,-59.207,11560,12795,1,12795,1,0.0006254,-1.5536e-10,0,0.00089547,0.00010465,2.0536e+08,-44.875,0,3.1272e+08,45.703,12794,714.3,0,714.3,0,0.00068332,2.1045e-09,0,0.00034496,0.00012791,2.4143e+08,663.08,0,1.1756e+08,84.245,714.3,1
2468,4.1,12178,1,12178,1,7.5149e-05,8.1041e-10,0,0.00059598,-1.3745e-05,-6.1941e+05,242.94,0,2.1122e+08,-13.873,12177,13439,1,13439,1,0.0012204,6.9628e-09,0,0.0012204,0.00020012,3.5701e+08,2172.9,0,4.3391e+08,205.91,13438,12178,1,12178,1,3.4446e-05,2.8601e-10,0,0.0006274,-6.0911e-06,1.267e+07,78.375,0,2.2716e+08,-10.702,12177,10873,1,10873,1,-0.0010668,-2.8853e-09,0,3.444e-05,-0.00022808,-4.3391e+08,-951.73,0,1.2668e+07,-265.5,10872,11561,1,11561,1,-0.00055852,-6.0404e-10,0,0.00030439,-0.00011713,-2.2716e+08,-198.36,0,1.238e+08,-66.353,11560,12795,1,12795,1,0.00062742,1.9668e-09,0,0.00089736,0.00010484,2.0577e+08,590.02,0,3.131e+08,42.935,12794,714.3,0,714.3,0,0.00068508,2.1066e-09,0,0.00034589,0.00012824,2.4186e+08,663.78,0,1.1775e+08,78.506,714.3,1
2468,4.11,12178,1,12178,1,7.5765e-05,-6.1887e-10,0,0.00059755,-1.3857e-05,-6.2067e+05,-189.7,0,2.116e+08,-13.964,12177,13439,1,13439,1,0.001224,4.4296e-09,0,0.001224,0.00020056,3.5738e+08,1408.7,0,4.3485e+08,165.04,13438,12178,1,12178,1,3.4955e-05,-5.6335e-10,0,0.00062944,-6.1844e-06,1.2852e+07,-178.7,0,2.2758e+08,-5.9752,12177,10873,1,10873,1,-0.0010691,-4.2951e-09,0,3.4951e-05,-0.00022874,-4.3485e+08,-1347.5,0,1.2851e+07,-419.6,10872,11561,1,11561,1,-0.00055954,-2.0039e-09,0,0.00030476,-0.00011751,-2.2758e+08,-620.86,0,1.2394e+08,-54.727,11560,12795,1,12795,1,0.00062946,4.115e-10,0,0.00089924,0.00010504,2.0619e+08,122.02,0,3.1348e+08,33.436,12794,714.3,0,714.3,0,0.00068684,1.8771e-09,0,0.00034682,0.00012856,2.4229e+08,593.77,0,1.1795e+08,77.345,714.3,1
2468,4.12,12178,1,12178,1,7.6385e-05,-3.3437e-10,0,0.00059912,-1.3971e-05,-6.223e+05,-106.08,0,2.1199e+08,-6.8734,12177,13439,1,13439,1,0.0012275,3.5619e-09,0,0.0012275,0.000201,3.5776e+08,1140,0,4.358e+08,136.5,13438,12178,1,12178,1,3.5471e-05,-2.3221e-10,0,0.00063149,-6.2788e-06,1.3036e+07,-69.554,0,2.2799e+08,-0.17078,12177,10873,1,10873,1,-0.0010715,-3.37e-09,0,3.5467e-05,-0.0002294,-4.358e+08,-1070.1,0,1.3035e+07,-385.01,10872,11561,1,11561,1,-0.00056056,-1.3312e-09,0,0.00030512,-0.00011789,-2.2799e+08,-413.27,0,1.2409e+08,-52.71,11560,12795,1,12795,1,0.00063151,4.1731e-10,0,0.00090114,0.00010523,2.0661e+08,127.44,0,3.1386e+08,46.453,12794,714.3,0,714.3,0,0.00068861,1.419e-09,0,0.00034776,0.00012889,2.4272e+08,450.84,0,1.1815e+08,73.404,714.3,1
2468,4.13,12178,1,12178,1,7.7011e-05,-1.7686e-09,0,0.00060067,-1.4085e-05,-6.2333e+05,-549.19,0,2.1236e+08,-5.538,12177,13439,1,13439,1,0.0012311,4.5166e-09,0,0.0012311,0.00020143,3.5812e+08,1424.2,0,4.3674e+08,255.86,13438,12178,1,12178,1,3.5993e-05,-1.2227e-09,0,0.00063352,-6.3746e-06,1.3222e+07,-383.98,0,2.2839e+08,3.4472,12177,10873,1,10873,1,-0.0010738,-8.4782e-09,0,3.5987e-05,-0.00023007,-4.3674e+08,-2646.9,0,1.322e+07,-510.91,10872,11561,1,11561,1,-0.00056154,-4.0811e-09,0,0.00030546,-0.00011827,-2.2839e+08,-1260.6,0,1.2423e+08,-78.822,11560,12795,1,12795,1,0.00063356,3.9288e-10,0,0.00090299,0.00010541,2.0702e+08,123.97,0,3.1422e+08,70.225,12794,714.3,0,714.3,0,0.00069037,2.9486e-09,0,0.00034869,0.00012922,2.4315e+08,922.81,0,1.1834e+08,111.78,714.3,1
2468,4.14,12178,1,12178,1,7.7638e-05,-1.7875e-09,0,0.00060225,-1.42e-05,-6.2455e+05,-564.39,0,2.1275e+08,-18.895,12177,13439,1,13439,1,0.0012347,1.7921e-09,0,0.0012347,0.00020187,3.5849e+08,599.27,0,4.3769e+08,144.16,13438,12178,1,12178,1,3.6517e-05,-1.4471e-09,0,0.00063557,-6.4703e-06,1.3409e+07,-442.1,0,2.2881e+08,-9.3204,12177,10873,1,10873,1,-0.0010761,-6.5551e-09,0,3.6508e-05,-0.00023074,-4.3769e+08,-2078.9,0,1.3405e+07,-364.9,10872,11561,1,11561,1,-0.00056256,-3.3693e-09,0,0.00030582,-0.00011865,-2.2881e+08,-1060.2,0,1.2438e+08,-77.977,11560,12795,1,12795,1,0.00063562,1.9901e-11,0,0.00090488,0.00010561,2.0744e+08,5.4156,0,3.146e+08,42.758,12794,714.3,0,714.3,0,0.00069214,2.0525e-09,0,0.00034963,0.00012955,2.4358e+08,657.54,0,1.1854e+08,83.312,714.3,1
2468,4.15,12178,1,12178,1,7.827e-05,-1.5124e-09,0,0.00060382,-1.4315e-05,-6.2605e+05,-481.23,0,2.1313e+08,-6.4694,12177,13439,1,13439,1,0.0012383,3.2276e-09,0,0.0012383,0.0002023,3.5884e+08,1008.1,0,4.3863e+08,170.86,13438,12178,1,12178,1,3.7046e-05,-1.314e-09,0,0.00063763,-6.567e-06,1.3597e+07,-390.21,0,2.2921e+08,-1.2899,12177,10873,1,10873,1,-0.0010784,-6.3387e-09,0,3.7034e-05,-0.0002314,-4.3863e+08,-2008.9,0,1.3592e+07,-302.95,10872,11561,1,11561,1,-0.00056356,-3.2486e-09,0,0.00030616,-0.00011903,-2.2921e+08,-1019.9,0,1.2452e+08,-59.62,11560,12795,1,12795,1,0.00063768,2.527e-10,0,0.00090676,0.00010579,2.0785e+08,72.235,0,3.1496e+08,43.439,12794,714.3,0,714.3,0,0.00069391,2.1824e-09,0,0.00035056,0.00012988,2.44e+08,693.53,0,1.1873e+08,74.352,714.3,1
2468,4.16,12178,1,12178,1,7.8907e-05,-1.2614e-09,0,0.00060539,-1.4432e-05,-6.2748e+05,-405.24,0,2.1351e+08,0.0020158,12177,13439,1,13439,1,0.0012419,1.614e-09,0,0.0012419,0.00020274,3.592e+08,495.77,0,4.3957e+08,94.394,13438,12178,1,12178,1,3.7577e-05,-1.0383e-09,0,0.0006397,-6.6642e-06,1.3785e+07,-315.95,0,2.2963e+08,6.2019,12177,10873,1,10873,1,-0.0010807,-4.6509e-09,0,3.7565e-05,-0.00023207,-4.3957e+08,-1479.7,0,1.3781e+07,-267.24,10872,11561,1,11561,1,-0.00056457,-2.4772e-09,0,0.00030651,-0.00011941,-2.2963e+08,-792.24,0,1.2466e+08,-32.933,11560,12795,1,12795,1,0.00063974,4.9464e-11,0,0.00090865,0.00010599,2.0826e+08,15.167,0,3.1533e+08,35.033,12794,714.3,0,714.3,0,0.00069569,1.5088e-09,0,0.00035151,0.00013021,2.4443e+08,485.55,0,1.1893e+08,49.554,714.3,1
2468,4.17,12178,1,12178,1,7.9549e-05,6.9152e-10,0,0.00060696,-1.4549e-05,-6.2873e+05,198.66,0,2.1388e+08,-12.026,12177,13439,1,13439,1,0.0012455,5.3696e-09,0,0.0012455,0.00020317,3.5955e+08,1648.5,0,4.405e+08,153.67,13438,12178,1,12178,1,3.8112e-05,3.092e-10,0,0.00064177,-6.7623e-06,1.3975e+07,83.445,0,2.3003e+08,-9.6769,12177,10873,1,10873,1,-0.001083,-1.6175e-09,0,3.8103e-05,-0.00023273,-4.405e+08,-553.78,0,1.3972e+07,-232.28,10872,11561,1,11561,1,-0.00056556,-5.0761e-10,0,0.00030685,-0.00011979,-2.3003e+08,-160.62,0,1.2479e+08,-51.258,11560,12795,1,12795,1,0.00064179,1.6414e-09,0,0.00091052,0.00010617,2.0867e+08,478.33,0,3.1569e+08,31.582,12794,714.3,0,714.3,0,0.00069745,1.6455e-09,0,0.00035245,0.00013054,2.4485e+08,511.66,0,1.1912e+08,62.011,714.3,1
2468,4.18,12178,1,12178,1,8.0193e-05,-1.6545e-09,0,0.00060854,-1.4667e-05,-6.3e+05,-513.25,0,2.1426e+08,-14.421,12177,13439,1,13439,1,0.0012491,5.5998e-10,0,0.0012491,0.0002036,3.599e+08,160.87,0,4.4145e+08,69.384,13438,12178,1,12178,1,3.8647e-05,-1.6813e-09,0,0.00064385,-6.8605e-06,1.4164e+07,-511.08,0,2.3043e+08,-7.1856,12177,10873,1,10873,1,-0.0010853,-3.8468e-09,0,3.8644e-05,-0.00023341,-4.4145e+08,-1213.2,0,1.4163e+07,-249.16,10872,11561,1,11561,1,-0.00056656,-2.5864e-09,0,0.00030719,-0.00012018,-2.3043e+08,-812.63,0,1.2493e+08,-39.525,11560,12795,1,12795,1,0.00064387,-7.6289e-10,0,0.00091239,0.00010636,2.0908e+08,-224.93,0,3.1604e+08,22.311,12794,714.3,0,714.3,0,0.00069923,1.1394e-09,0,0.00035339,0.00013087,2.4528e+08,362.3,0,1.1931e+08,47.741,714.3,1
2468,4.19,12178,1,12178,1,8.0842e-05,1.0513e-09,0,0.0006101,-1.4786e-05,-6.3107e+05,314.61,0,2.1463e+08,5.1135,12177,13439,1,13439,1,0.0012527,6.2327e-09,0,0.0012527,0.00020403,3.6024e+08,1910.2,0,4.4238e+08,272.82,13438,12178,1,12178,1,3.9192e-05,5.9297e-10,0,0.00064593,-6.9605e-06,1.4357e+07,173.3,0,2.3083e+08,3.0338,12177,10873,1,10873,1,-0.0010876,-1.4406e-09,0,3.9187e-05,-0.00023407,-4.4238e+08,-454.7,0,1.4355e+07,-219.66,10872,11561,1,11561,1,-0.00056755,-1.8481e-10,0,0.00030752,-0.00012056,-2.3083e+08,-58.27,0,1.2507e+08,-37.168,11560,12795,1,12795,1,0.00064593,1.9248e-09,0,0.00091425,0.00010655,2.0949e+08,569.06,0,3.1639e+08,46.273,12794,714.3,0,714.3,0,0.00070099,1.6296e-09,0,0.00035433,0.0001312,2.4569e+08,500.31,0,1.195e+08,71.195,714.3,1
2468,4.2,12178,1,12178,1,8.1493e-05,1.6119e-09,0,0.00061168,-1.4905e-05,-6.3248e+05,498.23,0,2.1501e+08,-12.721,12177,13439,1,13439,1,0.0012563,4.7311e-09,0,0.0012563,0.00020447,3.6058e+08,1471.1,0,4.4332e+08,150.88,13438,12178,1,12178,1,3.9737e-05,1.5988e-09,0,0.000648,-7.0602e-06,1.4549e+07,476.94,0,2.3124e+08,-8.6181,12177,10873,1,10873,1,-0.0010899,-1.1716e-09,0,3.9734e-05,-0.00023475,-4.4332e+08,-401.17,0,1.4548e+07,-230.82,10872,11561,1,11561,1,-0.00056853,1.5782e-10,0,0.00030785,-0.00012095,-2.3124e+08,46.213,0,1.252e+08,-59.523,11560,12795,1,12795,1,0.00064802,2.9607e-09,0,0.00091611,0.00010673,2.099e+08,916.03,0,3.1675e+08,34.709,12794,714.3,0,714.3,0,0.00070276,1.5216e-09,0,0.00035527,0.00013153,2.4611e+08,479.34,0,1.1969e+08,68.59,714.3,1
2468,4.21,12178,1,12178,1,8.2148e-05,-1.8017e-09,0,0.00061326,-1.5025e-05,-6.3404e+05,-544.1,0,2.1538e+08,13.974,12177,13439,1,13439,1,0.0012599,6.1978e-10,0,0.0012599,0.0002049,3.6092e+08,212.27,0,4.4425e+08,195.45,13438,12178,1,12178,1,4.0285e-05,-1.7631e-09,0,0.00065009,-7.1609e-06,1.4743e+07,-525.42,0,2.3164e+08,11.319,12177,10873,1,10873,1,-0.0010922,-4.2641e-09,0,4.0283e-05,-0.00023542,-4.4425e+08,-1292.5,0,1.4742e+07,-318.15,10872,11561,1,11561,1,-0.00056952,-2.8998e-09,0,0.00030818,-0.00012133,-2.3164e+08,-882.75,0,1.2533e+08,-17.385,11560,12795,1,12795,1,0.0006501,-6.418e-10,0,0.00091798,0.00010692,2.103e+08,-195.97,0,3.1709e+08,48.711,12794,714.3,0,714.3,0,0.00070454,1.3339e-09,0,0.00035622,0.00013186,2.4654e+08,403.13,0,1.1989e+08,67.119,714.3,1
2468,4.22,12178,1,12178,1,8.281e-05,8.1374e-10,0,0.00061484,-1.5146e-05,-6.3518e+05,244.28,0,2.1575e+08,-12.502,12177,13439,1,13439,1,0.0012636,2.7027e-09,0,0.0012636,0.00020533,3.6126e+08,795.64,0,4.4519e+08,192.14,13438,12178,1,12178,1,4.0842e-05,8.2361e-10,0,0.00065219,-7.2633e-06,1.4939e+07,243.24,0,2.3204e+08,-13.064,12177,10873,1,10873,1,-0.0010945,-1.119e-09,0,4.0839e-05,-0.00023609,-4.4519e+08,-383.19,0,1.4938e+07,-183.64,10872,11561,1,11561,1,-0.00057051,-6.5105e-11,0,0.0003085,-0.00012172,-2.3204e+08,-19.86,0,1.2547e+08,-54.889,11560,12795,1,12795,1,0.0006522,1.6531e-09,0,0.00091985,0.0001071,2.1071e+08,498.84,0,3.1744e+08,33.655,12794,714.3,0,714.3,0,0.00070632,9.7998e-10,0,0.00035717,0.0001322,2.4695e+08,299.22,0,1.2008e+08,66.282,714.3,1
2468,4.23,12178,1,12178,1,8.3473e-05,-1.6095e-09,0,0.0006164,-1.5267e-05,-6.3674e+05,-489.47,0,2.1612e+08,22.344,12177,13439,1,13439,1,0.0012672,2.8961e-09,0,0.0012672,0.00020576,3.6158e+08,887.69,0,4.4612e+08,224.46,13438,12178,1,12178,1,4.1399e-05,-1.5401e-09,0,0.00065427,-7.366e-06,1.5135e+07,-467.6,0,2.3243e+08,23.566,12177,10873,1,10873,1,-0.0010968,-5.6475e-09,0,4.1398e-05,-0.00023676,-4.4612e+08,-1726.3,0,1.5135e+07,-369.97,10872,11561,1,11561,1,-0.00057147,-3.1811e-09,0,0.00030881,-0.00012211,-2.3243e+08,-967.6,0,1.2559e+08,-20.343,11560,12795,1,12795,1,0.00065429,9.0334e-11,0,0.00092167,0.00010729,2.1111e+08,28.722,0,3.1777e+08,71.445,12794,714.3,0,714.3,0,0.00070808,1.9442e-09,0,0.00035811,0.00013252,2.4736e+08,592.38,0,1.2026e+08,84.386,714.3,1
2468,4.24,12178,1,12178,1,8.4143e-05,-9.334e-10,0,0.00061801,-1.539e-05,-6.3779e+05,-295.77,0,2.165e+08,-19.446,12177,13439,1,13439,1,0.0012709,2.2203e-09,0,0.0012709,0.0002062,3.6192e+08,659.82,0,4.4707e+08,78.84,13438,12178,1,12178,1,4.1964e-05,-7.9809e-10,0,0.00065639,-7.4695e-06,1.5333e+07,-238.51,0,2.3284e+08,-12.275,12177,10873,1,10873,1,-0.0010992,-4.2631e-09,0,4.1958e-05,-0.00023745,-4.4707e+08,-1313.3,0,1.5331e+07,-244.72,10872,11561,1,11561,1,-0.00057247,-2.062e-09,0,0.00030915,-0.0001225,-2.3284e+08,-640.12,0,1.2573e+08,-43.468,11560,12795,1,12795,1,0.00065641,2.085e-10,0,0.00092358,0.00010747,2.1153e+08,65.922,0,3.1813e+08,15.09,12794,714.3,0,714.3,0,0.00070989,1.399e-09,0,0.00035908,0.00013286,2.4779e+08,436.19,0,1.2046e+08,48.117,714.3,1
2468,4.25,12178,1,12178,1,8.4818e-05,7.8411e-11,0,0.00061955,-1.5513e-05,-6.3854e+05,16.337,0,2.1685e+08,15.66,12177,13439,1,13439,1,0.0012744,6.9327e-09,0,0.0012744,0.00020662,3.6221e+08,2081,0,4.4797e+08,289.72,13438,12178,1,12178,1,4.2536e-05,-2.0693e-10,0,0.00065847,-7.5745e-06,1.5534e+07,-63.58,0,2.3322e+08,11.401,12177,10873,1,10873,1,-0.0011014,-4.1944e-09,0,4.253e-05,-0.00023811,-4.4797e+08,-1243.8,0,1.5532e+07,-245.08,10872,11561,1,11561,1,-0.00057341,-1.5645e-09,0,0.00030943,-0.00012289,-2.3322e+08,-484.42,0,1.2585e+08,-39.384,11560,12795,1,12795,1,0.00065849,1.2744e-09,0,0.00092537,0.00010765,2.1191e+08,374.13,0,3.1844e+08,72.048,12794,714.3,0,714.3,0,0.00071163,2.3939e-09,0,0.00036001,0.00013318,2.4819e+08,724.42,0,1.2064e+08,83.022,714.3,1
2468,4.26,12178,1,12178,1,8.5486e-05,-1.5183e-09,0,0.00062113,-1.5635e-05,-6.4032e+05,-466.78,0,2.1722e+08,9.435,12177,13439,1,13439,1,0.0012781,3.7575e-09,0,0.0012781,0.00020705,3.6254e+08,1164,0,4.4891e+08,217.32,13438,12178,1,12178,1,4.3098e-05,-1.3392e-09,0,0.00066057,-7.6781e-06,1.5731e+07,-391.14,0,2.3362e+08,9.4589,12177,10873,1,10873,1,-0.0011037,-6.4629e-09,0,4.3094e-05,-0.00023879,-4.4891e+08,-1999.1,0,1.573e+07,-304.44,10872,11561,1,11561,1,-0.00057438,-3.4667e-09,0,0.00030975,-0.00012328,-2.3362e+08,-1062.7,0,1.2597e+08,-40.382,11560,12795,1,12795,1,0.0006606,2.628e-10,0,0.00092723,0.00010783,2.1232e+08,72.899,0,3.1878e+08,53.261,12794,714.3,0,714.3,0,0.00071341,2.3542e-09,0,0.00036097,0.00013352,2.486e+08,729.46,0,1.2083e+08,78.103,714.3,1
2468,4.27,12178,1,12178,1,8.6165e-05,8.948e-10,0,0.00062272,-1.5759e-05,-6.4179e+05,264.22,0,2.1759e+08,-10.043,12177,13439,1,13439,1,0.0012817,5.1914e-09,0,0.0012817,0.00020748,3.6285e+08,1604.4,0,4.4984e+08,152.72,13438,12178,1,12178,1,4.3674e-05,4.0525e-10,0,0.00066269,-7.7839e-06,1.5933e+07,108.81,0,2.3401e+08,-6.6455,12177,10873,1,10873,1,-0.001106,-1.8299e-09,0,4.3666e-05,-0.00023947,-4.4984e+08,-626.31,0,1.593e+07,-297.02,10872,11561,1,11561,1,-0.00057536,-4.272e-10,0,0.00031006,-0.00012367,-2.3401e+08,-137.88,0,1.261e+08,-52.078,11560,12795,1,12795,1,0.00066271,2.1476e-09,0,0.00092909,0.00010802,2.1272e+08,641.17,0,3.1911e+08,37.921,12794,714.3,0,714.3,0,0.00071519,1.742e-09,0,0.00036192,0.00013385,2.4902e+08,543.38,0,1.2102e+08,67.716,714.3,1
2468,4.28,12178,1,12178,1,8.685e-05,3.1166e-09,0,0.0006243,-1.5885e-05,-6.4297e+05,955.59,0,2.1795e+08,-3.559,12177,13439,1,13439,1,0.0012854,1.5166e-08,0,0.0012854,0.00020792,3.6317e+08,4621.3,0,4.5078e+08,380.96,13438,12178,1,12178,1,4.425e-05,1.9634e-09,0,0.0006648,-7.8903e-06,1.6135e+07,576.14,0,2.344e+08,-2.4888,12177,10873,1,10873,1,-0.0011083,-4.1557e-09,0,4.4247e-05,-0.00024016,-4.5078e+08,-1272.2,0,1.6133e+07,-518.63,10872,11561,1,11561,1,-0.00057631,-3.8013e-10,0,0.00031036,-0.00012407,-2.344e+08,-118.82,0,1.2622e+08,-86.337,11560,12795,1,12795,1,0.00066485,6.2129e-09,0,0.00093091,0.0001082,2.1313e+08,1877.1,0,3.1943e+08,88.122,12794,714.3,0,714.3,0,0.00071697,4.4028e-09,0,0.00036288,0.00013418,2.4942e+08,1367.2,0,1.2121e+08,141.66,714.3,1
2468,4.29,12178,1,12178,1,8.7541e-05,1.5119e-09,0,0.00062589,-1.6011e-05,-6.4409e+05,481.43,0,2.1832e+08,-10.29,12177,13439,1,13439,1,0.0012891,8.1785e-09,0,0.0012891,0.00020834,3.6347e+08,2566.8,0,4.5171e+08,279.9,13438,12178,1,12178,1,4.484e-05,6.3883e-10,0,0.00066615,-7.9979e-06,1.6341e+07,190.76,0,2.3479e+08,-21.853,12177,10873,1,10873,1,-0.0011106,-1.184e-09,0,4.4037e-05,-0.00024084,-4.5171e+08,-311.03,0,1.6337e+07,-225.87,10872,11561,1,11561,1,-0.00057728,-1.4882e-10,0,0.00031145,-0.00012446,-2.3479e+08,-41.312,0,1.2635e+08,-74.328,11560,12795,1,12795,1,0.00066698,2.7508e-09,0,0.00093356,0.00010838,2.1353e+08,852.88,0,3.1976e+08,30.008,12794,714.3,0,714.3,0,0.00071876,2.1477e-09,0,0.00036384,0.00013451,2.4984e+08,688.05,0,1.214e+08,97.23,714.3,1
2468,4.3,12178,1,12178,1,8.8236e-05,1.1483e-09,0,0.00062748,-1.6138e-05,-6.4532e+05,367.71,0,2.1868e+08,-8.8426,12177,13439,1,13439,1,0.0012928,4.4388e-09,0,0.0012928,0.00020877,3.6377e+08,1354.2,0,4.5263e+08,319.53,13438,12178,1,12178,1,4.5425e-05,1.0711e-09,0,0.00066733,-8.1053e-06,1.6545e+07,319.55,0,2.3518e+08,-13.136,12177,10873,1,10873,1,-0.0011128,-6.9832e-10,0,4.3672e-05,-0.00024152,-4.5263e+08,-170.9,0,1.6542e+07,-169.37,10872,11561,1,11561,1,-0.00057824,2.1513e-10,0,0.0003127,-0.00012485,-2.3518e+08,61.733,0,1.2646e+08,-59.968,11560,12795,1,12795,1,0.0006691,2.0915e-09,0,0.00093635,0.00010856,2.1393e+08,665.27,0,3.2008e+08,24.993,12794,714.3,0,714.3,0,0.00072055,1.0908e-09,0,0.00036481,0.00013485,2.5024e+08,349.79,0,1.2158e+08,78.043,714.3,1
2468,4.31,12178,1,12178,1,8.8935e-05,-5.3177e-10,0,0.00062907,-1.6266e-05,-6.4654e+05,-149.93,0,2.1904e+08,-1.2938,12177,13439,1,13439,1,0.0012964,1.0285e-09,0,0.0012964,0.00020919,3.6407e+08,286,0,4.5355e+08,145.58,13438,12178,1,12178,1,4.6017e-05,-3.3141e-10,0,0.00066851,-8.2144e-06,1.6751e+07,-103.47,0,2.3557e+08,4.812,12177,10873,1,10873,1,-0.0011151,-2.2479e-09,0,4.3298e-05,-0.0002422,-4.5355e+08,-651.02,0,1.6749e+07,-303.06,10872,11561,1,11561,1,-0.00057919,-1.1611e-09,0,0.00031396,-0.00012525,-2.3557e+08,-334.06,0,1.2658e+08,-26.455,11560,12795,1,12795,1,0.00067123,9.5256e-11,0,0.00093917,0.00010874,2.1432e+08,29.694,0,3.204e+08,29.859,12794,714.3,0,714.3,0,0.00072233,7.9229e-10,0,0.00036577,0.00013518,2.5065e+08,230.13,0,1.2177e+08,59.55,714.3,1
2468,4.32,12178,1,12178,1,8.9633e-05,6.4954e-10,0,0.00063065,-1.6394e-05,-6.4795e+05,197.65,0,2.194e+08,1.5635,12177,13439,1,13439,1,0.0013001,3.4941e-09,0,0.0013001,0.00020962,3.6436e+08,1090.5,0,4.5447e+08,227.57,13438,12178,1,12178,1,4.661e-05,3.7664e-10,0,0.00066968,-8.3235e-06,1.6958e+07,113.41,0,2.3596e+08,4.6857,12177,10873,1,10873,1,-0.0011174,-1.046e-09,0,4.2926e-05,-0.00024288,-4.5447e+08,-275.09,0,1.6956e+07,-269.73,10872,11561,1,11561,1,-0.00058014,-1.3337e-10,0,0.0003152,-0.00012564,-2.3596e+08,-42.008,0,1.267e+08,-28.588,11560,12795,1,12795,1,0.00067336,1.253e-09,0,0.00094195,0.00010892,2.1472e+08,379.53,0,3.2071e+08,38.572,12794,714.3,0,714.3,0,0.00072411,9.7828e-10,0,0.00036673,0.00013551,2.5105e+08,297.9,0,1.2195e+08,65.951,714.3,1
2468,4.33,12178,1,12178,1,9.0339e-05,-5.2408e-10,0,0.00063224,-1.6523e-05,-6.4933e+05,-155.28,0,2.1976e+08,-0.32023,12177,13439,1,13439,1,0.0013038,5.5534e-10,0,0.0013038,0.00021005,3.6465e+08,190.17,0,4.554e+08,143.16,13438,12178,1,12178,1,4.7208e-05,-4.2166e-10,0,0.00067085,-8.4336e-06,1.7166e+07,-127.02,0,2.3634e+08,2.5316,12177,10873,1,10873,1,-0.0011196,-2.6382e-09,0,4.2549e-05,-0.00024357,-4.554e+08,-757.77,0,1.7164e+07,-237.96,10872,11561,1,11561,1,-0.00058109,-8.1692e-10,0,0.00031647,-0.00012604,-2.3634e+08,-256.86,0,1.2682e+08,-42.57,11560,12795,1,12795,1,0.00067551,7.9839e-12,0,0.00094476,0.0001091,2.1511e+08,2.7455,0,3.2102e+08,47.559,12794,714.3,0,714.3,0,0.0007259,6.8472e-10,0,0.0003677,0.00013584,2.5145e+08,201.33,0,1.2214e+08,74.061,714.3,1
2468,4.34,12178,1,12178,1,9.1051e-05,9.532e-10,0,0.00063382,-1.6653e-05,-6.5023e+05,289.04,0,2.2011e+08,-8.629,12177,13439,1,13439,1,0.0013075,4.4263e-09,0,0.0013075,0.00021047,3.6493e+08,1358,0,4.5632e+08,139.94,13438,12178,1,12178,1,4.7814e-05,5.4831e-10,0,0.00067199,-8.5452e-06,1.7376e+07,162.72,0,2.3672e+08,-4.1465,12177,10873,1,10873,1,-0.0011219,-1.2411e-09,0,4.2162e-05,-0.00024425,-4.5632e+08,-333.38,0,1.7147e+07,-206.48,10872,11561,1,11561,1,-0.00058202,-1.8414e-10,0,0.00031774,-0.00012644,-2.3672e+08,-56.927,0,1.2693e+08,-52.534,11560,12795,1,12795,1,0.00067766,2.0562e-09,0,0.00094757,0.00010927,2.155e+08,609.11,0,3.2132e+08,34.072,12794,714.3,0,714.3,0,0.00072767,1.37e-09,0,0.00036866,0.00013618,2.5185e+08,417.19,0,1.2232e+08,60.175,714.3,1
2468,4.35,12178,1,12178,1,9.1759e-05,-1.4542e-09,0,0.00063541,-1.6783e-05,-6.5189e+05,-434.41,0,2.2046e+08,21.908,12177,13439,1,13439,1,0.0013112,4.2146e-09,0,0.0013112,0.0002109,3.6521e+08,1294.2,0,4.5724e+08,282.58,13438,12178,1,12178,1,4.8416e-05,-1.2821e-09,0,0.00067315,-8.6563e-06,1.7585e+07,-383.75,0,2.371e+08,14.617,12177,10873,1,10873,1,-0.0011242,-6.2407e-09,0,4.1781e-05,-0.00024494,-4.5724e+08,-1836.1,0,1.6992e+07,-209.82,10872,11561,1,11561,1,-0.00058295,-3.4272e-09,0,0.000319,-0.00012684,-2.371e+08,-1038.1,0,1.2704e+08,-31.241,11560,12795,1,12795,1,0.00067981,3.1264e-10,0,0.00095036,0.00010945,2.159e+08,103.12,0,3.2162e+08,61.163,12794,714.3,0,714.3,0,0.00072945,2.4537e-09,0,0.00036962,0.00013651,2.5225e+08,745.34,0,1.225e+08,79.193,714.3,1
2468,4.36,12178,1,12178,1,9.2477e-05,7.0199e-10,0,0.000637,-1.6914e-05,-6.5293e+05,204.48,0,2.2082e+08,2.2766,12177,13439,1,13439,1,0.0013149,5.5498e-09,0,0.0013149,0.00021132,3.6549e+08,1703.8,0,4.5816e+08,154.45,13438,12178,1,12178,1,4.903e-05,3.3929e-10,0,0.00067431,-8.769e-06,1.7798e+07,96.232,0,2.3748e+08,1.1562,12177,10873,1,10873,1,-0.0011264,-3.2682e-09,0,4.1388e-05,-0.00024562,-4.5816e+08,-998.8,0,1.6834e+07,-204.97,10872,11561,1,11561,1,-0.00058389,-6.1279e-10,0,0.00032028,-0.00012724,-2.3748e+08,-193,0,1.2715e+08,-39.543,11560,12795,1,12795,1,0.00068196,2.0783e-09,0,0.0009532,0.00010963,2.1629e+08,610.38,0,3.2192e+08,45.131,12794,714.3,0,714.3,0,0.00073124,1.8688e-09,0,0.00037059,0.00013684,2.5265e+08,576.12,0,1.2269e+08,63.724,714.3,1
2468,4.37,12178,1,12178,1,9.3201e-05,9.0185e-10,0,0.0006386,-1.7046e-05,-6.544e+05,277.24,0,2.2117e+08,17.426,12177,13439,1,13439,1,0.0013186,5.6262e-09,0,0.0013186,0.00021175,3.6576e+08,1739.6,0,4.5908e+08,262.1,13438,12178,1,12178,1,4.9646e-05,6.2404e-10,0,0.00067547,-8.8824e-06,1.8011e+07,180.52,0,2.3786e+08,8.2819,12177,10873,1,10873,1,-0.0011287,-1.4371e-09,0,4.0995e-05,-0.00024632,-4.5908e+08,-433.69,0,1.6675e+07,-148.76,10872,11561,1,11561,1,-0.00058483,-2.4912e-10,0,0.00032156,-0.00012764,-2.3786e+08,-67.908,0,1.2726e+08,-31.102,11560,12795,1,12795,1,0.00068414,1.6594e-09,0,0.00095604,0.00010981,2.1668e+08,508.77,0,3.2222e+08,64.703,12794,714.3,0,714.3,0,0.00073304,1.4251e-09,0,0.00037157,0.00013718,2.5305e+08,445.31,0,1.2287e+08,69.463,714.3,1
2468,4.38,12178,1,12178,1,9.3931e-05,9.1721e-10,0,0.00064021,-1.718e-05,-6.558e+05,287.77,0,2.2153e+08,3.5694,12177,13439,1,13439,1,0.0013224,3.2221e-09,0,0.0013224,0.00021217,3.6603e+08,994.8,0,4.6e+08,151.58,13438,12178,1,12178,1,5.0269e-05,9.3504e-10,0,0.00067663,-8.997e-06,1.8226e+07,286.89,0,2.3825e+08,2.6493,12177,10873,1,10873,1,-0.001131,-3.8791e-10,0,4.0596e-05,-0.00024701,-4.6e+08,-129.06,0,1.6513e+07,-89.499,10872,11561,1,11561,1,-0.00058577,3.2551e-10,0,0.00032285,-0.00012804,-2.3825e+08,94.036,0,1.2737e+08,-23.883,11560,12795,1,12795,1,0.00068632,1.4413e-09,0,0.00095888,0.00010998,2.1708e+08,460.62,0,3.2252e+08,26.942,12794,714.3,0,714.3,0,0.00073484,7.2835e-10,0,0.00037255,0.00013751,2.5345e+08,232.13,0,1.2306e+08,43.508,714.3,1
2468,4.39,12178,1,12178,1,9.4665e-05,1.836e-09,0,0.00064179,-1.7314e-05,-6.5657e+05,569.56,0,2.2187e+08,34.712,12177,13439,1,13439,1,0.0013261,8.8078e-09,0,0.0013261,0.0002126,3.6629e+08,2691.7,0,4.6092e+08,291.4,13438,12178,1,12178,1,5.0899e-05,1.3873e-09,0,0.00067776,-9.1132e-06,1.8444e+07,417.1,0,2.3861e+08,16.104,12177,10873,1,10873,1,-0.0011332,-3.3724e-09,0,4.0187e-05,-0.0002477,-4.6092e+08,-970.37,0,1.6348e+07,-165.15,10872,11561,1,11561,1,-0.00058668,-2.6851e-10,0,0.00032413,-0.00012845,-2.3861e+08,-81.303,0,1.2747e+08,-37.135,11560,12795,1,12795,1,0.0006885,3.8343e-09,0,0.0009617,0.00011015,2.1747e+08,1182.9,0,3.228e+08,104.11,12794,714.3,0,714.3,0,0.00073662,2.6615e-09,0,0.00037352,0.00013784,2.5384e+08,814.28,0,1.2323e+08,96.649,714.3,1
2468,4.4,12178,1,12178,1,9.5395e-05,6.5831e-10,0,0.00064338,-1.7448e-05,-6.5834e+05,219.26,0,2.2222e+08,-3.7618,12177,13439,1,13439,1,0.0013298,1.1438e-08,0,0.0013298,0.00021302,3.6655e+08,3479.9,0,4.6182e+08,315.02,13438,12178,1,12178,1,5.1522e-05,-2.7712e-10,0,0.0006789,-9.228e-06,1.8659e+07,-84.783,0,2.3899e+08,-12.261,12177,10873,1,10873,1,-0.0011354,-3.2458e-09,0,3.9782e-05,-0.00024839,-4.6182e+08,-956.84,0,1.6185e+07,-224.66,10872,11561,1,11561,1,-0.0005876,-1.5958e-09,0,0.00032542,-0.00012885,-2.3899e+08,-473.77,0,1.2758e+08,-69.598,11560,12795,1,12795,1,0.00069066,2.0054e-09,0,0.00096454,0.00011033,2.1785e+08,609.03,0,3.2308e+08,47.588,12794,714.3,0,714.3,0,0.0007384,3.2388e-09,0,0.00037449,0.00013817,2.5423e+08,988.68,0,1.2341e+08,95.897,714.3,1
2468,4.41,12178,1,12178,1,9.6134e-05,-1.8448e-09,0,0.00064498,-1.7583e-05,-6.5947e+05,-549.01,0,2.2257e+08,8.0339,12177,13439,1,13439,1,0.0013335,4.5031e-09,0,0.0013335,0.00021344,3.6682e+08,1383.4,0,4.6275e+08,245.51,13438,12178,1,12178,1,5.2153e-05,-1.7413e-09,0,0.00068005,-9.344e-06,1.8876e+07,-528.57,0,2.3936e+08,8.4973,12177,10873,1,10873,1,-0.0011377,-6.9403e-09,0,3.9372e-05,-0.00024908,-4.6275e+08,-2109.8,0,1.602e+07,-205.43,10872,11561,1,11561,1,-0.00058852,-4.0301e-09,0,0.00032672,-0.00012925,-2.3936e+08,-1197,0,1.2768e+08,-51.002,11560,12795,1,12795,1,0.00069285,1.6056e-10,0,0.0009674,0.0001105,2.1824e+08,43.517,0,3.2337e+08,53.555,12794,714.3,0,714.3,0,0.0007402,2.6416e-09,0,0.00037547,0.00013851,2.5462e+08,804.24,0,1.236e+08,79.708,714.3,1
2468,4.42,12178,1,12178,1,9.6881e-05,-1.2889e-10,0,0.00064659,-1.772e-05,-6.6066e+05,-45.753,0,2.2292e+08,-23.381,12177,13439,1,13439,1,0.0013373,2.2696e-09,0,0.0013373,0.00021386,3.6706e+08,705.31,0,4.6366e+08,164.38,13438,12178,1,12178,1,5.2794e-05,6.072e-11,0,0.0006812,-9.4623e-06,1.9097e+07,16.805,0,2.3974e+08,-24.104,12177,10873,1,10873,1,-0.00114,-2.6417e-09,0,3.8956e-05,-0.00024978,-4.6366e+08,-824.62,0,1.5852e+07,-189.37,10872,11561,1,11561,1,-0.00058945,-7.6249e-10,0,0.00032803,-0.00012966,-2.3974e+08,-235.81,0,1.2778e+08,-76.279,11560,12795,1,12795,1,0.00069505,5.1093e-10,0,0.00097027,0.00011068,2.1863e+08,143.64,0,3.2366e+08,30.531,12794,714.3,0,714.3,0,0.00074201,1.0271e-09,0,0.00037645,0.00013885,2.5502e+08,327.62,0,1.2378e+08,71.29,714.3,1
2468,4.43,12178,1,12178,1,9.7632e-05,-1.0557e-09,0,0.00064819,-1.7857e-05,-6.6202e+05,-323.91,0,2.2326e+08,25.95,12177,13439,1,13439,1,0.0013411,5.4533e-09,0,0.0013411,0.00021429,3.6731e+08,1647.6,0,4.6458e+08,216.24,13438,12178,1,12178,1,5.3438e-05,-7.3065e-10,0,0.00068233,-9.5808e-06,1.9318e+07,-212.96,0,2.4011e+08,28.035,12177,10873,1,10873,1,-0.0011422,-6.2124e-09,0,3.8535e-05,-0.00025048,-4.6458e+08,-1919.4,0,1.5682e+07,-156.04,10872,11561,1,11561,1,-0.00059036,-3.0101e-09,0,0.00032934,-0.00013007,-2.4011e+08,-884.47,0,1.2788e+08,-50.031,11560,12795,1,12795,1,0.00069725,5.5578e-10,0,0.00097313,0.00011085,2.1901e+08,159.29,0,3.2393e+08,96.884,12794,714.3,0,714.3,0,0.00074381,2.4365e-09,0,0.00037744,0.00013918,2.5541e+08,743.53,0,1.2396e+08,87.336,714.3,1
2468,4.44,12178,1,12178,1,9.8388e-05,1.7217e-09,0,0.0006498,-1.7995e-05,-6.628e+05,507.09,0,2.2361e+08,16.103,12177,13439,1,13439,1,0.0013448,7.064e-09,0,0.0013448,0.00021471,3.6756e+08,2128.5,0,4.6549e+08,276.9,13438,12178,1,12178,1,5.4088e-05,1.3063e-09,0,0.00068346,-9.7e-06,1.9541e+07,365.42,0,2.4048e+08,10.901,12177,10873,1,10873,1,-0.0011445,-1.5552e-09,0,3.8105e-05,-0.00025117,-4.6549e+08,-413.58,0,1.5509e+07,-264.1,10872,11561,1,11561,1,-0.00059126,7.0996e-11,0,0.00033066,-0.00013047,-2.4048e+08,22.627,0,1.2798e+08,-46.664,11560,12795,1,12795,1,0.00069944,3.0054e-09,0,0.00097601,0.00011102,2.194e+08,875.92,0,3.242e+08,76.628,12794,714.3,0,714.3,0,0.0007456,1.8955e-09,0,0.00037842,0.00013952,2.5579e+08,562.98,0,1.2414e+08,90.33,714.3,1
2468,4.45,12178,1,12178,1,9.9146e-05,1.1659e-09,0,0.00065141,-1.8134e-05,-6.645e+05,356.16,0,2.2395e+08,22.06,12177,13439,1,13439,1,0.0013486,5.9442e-09,0,0.0013486,0.00021513,3.678e+08,1791.7,0,4.664e+08,248.74,13438,12178,1,12178,1,5.4735e-05,1.0529e-09,0,0.00068459,-9.8198e-06,1.9763e+07,325.95,0,2.4085e+08,3.8654,12177,10873,1,10873,1,-0.0011467,-1.0334e-09,0,3.7681e-05,-0.00025187,-4.664e+08,-264.05,0,1.5339e+07,-119.9,10872,11561,1,11561,1,-0.00059218,3.3832e-10,0,0.00033198,-0.00013088,-2.4085e+08,96.027,0,1.2808e+08,-39.144,11560,12795,1,12795,1,0.00070166,1.6131e-09,0,0.00097889,0.00011119,2.1978e+08,479.34,0,3.2448e+08,69.568,12794,714.3,0,714.3,0,0.00074741,1.2122e-09,0,0.00037941,0.00013985,2.5618e+08,367.58,0,1.2432e+08,82.694,714.3,1
2468,4.46,12178,1,12178,1,9.9912e-05,-1.3217e-09,0,0.00065301,-1.8274e-05,-6.6583e+05,-388.67,0,2.2429e+08,34.634,12177,13439,1,13439,1,0.0013524,2.0033e-09,0,0.0013524,0.00021555,3.6804e+08,559.01,0,4.6731e+08,197.32,13438,12178,1,12178,1,5.5394e-05,-1.097e-09,0,0.00068572,-9.9409e-06,1.9988e+07,-321.86,0,2.4122e+08,28.824,12177,10873,1,10873,1,-0.0011489,-4.5531e-09,0,3.7245e-05,-0.00025257,-4.6731e+08,-1365.1,0,1.5163e+07,-86.8,10872,11561,1,11561,1,-0.00059308,-2.7026e-09,0,0.00033331,-0.00013129,-2.4122e+08,-793.49,0,1.2817e+08,-10.268,11560,12795,1,12795,1,0.00070388,3.3386e-11,0,0.00098178,0.00011136,2.2016e+08,10.382,0,3.2474e+08,73.861,12794,714.3,0,714.3,0,0.00074921,1.5997e-09,0,0.0003804,0.00014019,2.5657e+08,471.05,0,1.2449e+08,56.081,714.3,1
2468,4.47,12178,1,12178,1,0.00010068,6.1667e-10,0,0.00065461,-1.8414e-05,-6.6714e+05,184.08,0,2.2463e+08,48.324,12177,13439,1,13439,1,0.0013561,8.3949e-09,0,0.0013561,0.00021597,3.6826e+08,2524.4,0,4.6821e+08,284.33,13438,12178,1,12178,1,5.6054e-05,-2.2561e-11,0,0.00068683,-1.0062e-05,2.0214e+07,-5.566,0,2.4158e+08,49.304,12177,10873,1,10873,1,-0.0011512,-4.4882e-09,0,3.6806e-05,-0.00025327,-4.6821e+08,-1252.7,0,1.4987e+07,-177.65,10872,11561,1,11561,1,-0.00059397,-1.3276e-09,0,0.00033463,-0.0001317,-2.4158e+08,-408.67,0,1.2826e+08,-5.3934,11560,12795,1,12795,1,0.00070609,2.3544e-09,0,0.00098465,0.00011153,2.2054e+08,683.27,0,3.2499e+08,96.787,12794,714.3,0,714.3,0,0.000751,2.8091e-09,0,0.00038139,0.00014052,2.5695e+08,842.39,0,1.2467e+08,78.128,714.3,1
2468,4.48,12178,1,12178,1,0.00010145,1.8876e-09,0,0.00065621,-1.8554e-05,-6.682e+05,576.99,0,2.2497e+08,29.31,12177,13439,1,13439,1,0.0013599,1.0352e-08,0,0.0013599,0.00021639,3.6849e+08,3149.7,0,4.6913e+08,318.7,13438,12178,1,12178,1,5.6719e-05,1.277e-09,0,0.00068794,-1.0185e-05,2.0441e+07,372.43,0,2.4194e+08,14.891,12177,10873,1,10873,1,-0.0011534,-4.742e-09,0,3.6367e-05,-0.00025397,-4.6913e+08,-1370.7,0,1.4811e+07,-255.27,10872,11561,1,11561,1,-0.00059485,-4.1896e-10,0,0.00033596,-0.00013211,-2.4194e+08,-128.19,0,1.2836e+08,-50.897,11560,12795,1,12795,1,0.00070832,4.0291e-09,0,0.00098753,0.0001117,2.2092e+08,1209.7,0,3.2525e+08,107.82,12794,714.3,0,714.3,0,0.00075279,3.1045e-09,0,0.00038237,0.00014085,2.5733e+08,952.73,0,1.2485e+08,106.03,714.3,1
2468,4.49,12178,1,12178,1,0.00010222,1.6481e-09,0,0.00065782,-1.8696e-05,-6.6942e+05,520.91,0,2.2531e+08,16.241,12177,13439,1,13439,1,0.0013637,8.1238e-09,0,0.0013637,0.00021681,3.6871e+08,2508.7,0,4.7004e+08,363.08,13438,12178,1,12178,1,5.739e-05,8.8784e-10,0,0.00068906,-1.0309e-05,2.067e+07,255.82,0,2.423e+08,10.514,12177,10873,1,10873,1,-0.0011556,-3.5357e-09,0,3.5919e-05,-0.00025468,-4.7004e+08,-1018.5,0,1.4631e+07,-195.21,10872,11561,1,11561,1,-0.00059575,-5.2775e-10,0,0.00033729,-0.00013253,-2.423e+08,-152.31,0,1.2845e+08,-52.851,11560,12795,1,12795,1,0.00071056,4.0559e-09,0,0.00099042,0.00011187,2.213e+08,1232.4,0,3.2551e+08,64.53,12794,714.3,0,714.3,0,0.0007546,2.9106e-09,0,0.00038337,0.00014119,2.5771e+08,908.58,0,1.2502e+08,98.078,714.3,1
2468,4.5,12178,1,12178,1,0.000103,1.3973e-09,0,0.00065945,-1.8839e-05,-6.7075e+05,445.26,0,2.2565e+08,7.0488,12177,13439,1,13439,1,0.0013675,8.5073e-09,0,0.0013675,0.00021723,3.6894e+08,2626.2,0,4.7095e+08,333.31,13438,12178,1,12178,1,5.8067e-05,4.5001e-10,0,0.00069018,-1.0433e-05,2.09e+07,136.35,0,2.4267e+08,-1.3781,12177,10873,1,10873,1,-0.0011579,-1.295e-09,0,3.5467e-05,-0.00025539,-4.7095e+08,-356.38,0,1.445e+07,-207.39,10872,11561,1,11561,1,-0.00059665,-1.0408e-10,0,0.00033864,-0.00013295,-2.4267e+08,-29.962,0,1.2854e+08,-50.332,11560,12795,1,12795,1,0.00071281,2.4274e-09,0,0.00099335,0.00011204,2.2168e+08,769.4,0,3.2578e+08,52.47,12794,714.3,0,714.3,0,0.00075642,2.1435e-09,0,0.00038437,0.00014153,2.5809e+08,677.03,0,1.252e+08,89.513,714.3,1
2468,4.51,12178,1,12178,1,0.00010379,8.9773e-10,0,0.00066107,-1.8984e-05,-6.7215e+05,295.39,0,2.2598e+08,16.389,12177,13439,1,13439,1,0.0013714,6.4194e-09,0,0.0013714,0.00021765,3.6915e+08,1986.7,0,4.7186e+08,228.61,13438,12178,1,12178,1,5.8748e-05,2.4411e-10,0,0.0006913,-1.0558e-05,2.1132e+07,75.726,0,2.4303e+08,10.266,12177,10873,1,10873,1,-0.0011601,-1.5617e-09,0,3.501e-05,-0.0002561,-4.7186e+08,-459.65,0,1.4267e+07,-166.71,10872,11561,1,11561,1,-0.00059755,-5.072e-10,0,0.00034,-0.00013336,-2.4303e+08,-131.53,0,1.2863e+08,-33.826,11560,12795,1,12795,1,0.00071506,2.036e-09,0,0.00099628,0.00011221,2.2206e+08,640.97,0,3.2602e+08,59.184,12794,714.3,0,714.3,0,0.00075824,1.9218e-09,0,0.00038538,0.00014187,2.5847e+08,602.77,0,1.2538e+08,71.731,714.3,1
2468,4.52,12178,1,12178,1,0.00010459,1.5156e-09,0,0.00066267,-1.9129e-05,-6.7333e+05,477.27,0,2.2631e+08,25.607,12177,13439,1,13439,1,0.0013752,6.3435e-09,0,0.0013752,0.00021807,3.6936e+08,1954.7,0,4.7276e+08,239.46,13438,12178,1,12178,1,5.9433e-05,9.8257e-10,0,0.00069239,-1.0685e-05,2.1365e+07,294.73,0,2.4339e+08,14.966,12177,10873,1,10873,1,-0.0011623,-1.9117e-09,0,3.4548e-05,-0.0002568,-4.7276e+08,-492.49,0,1.4082e+07,-152.14,10872,11561,1,11561,1,-0.00059842,2.7456e-10,0,0.00034135,-0.00013378,-2.4339e+08,79.669,0,1.2871e+08,-27.986,11560,12795,1,12795,1,0.0007173,2.6689e-09,0,0.00099919,0.00011237,2.2243e+08,828.59,0,3.2626e+08,79.722,12794,714.3,0,714.3,0,0.00076004,1.7058e-09,0,0.00038637,0.0001422,2.5885e+08,538.26,0,1.2555e+08,74.974,714.3,1
2468,4.53,12178,1,12178,1,0.00010538,-5.0773e-11,0,0.00066428,-1.9274e-05,-6.7471e+05,9.6523,0,2.2664e+08,40.706,12177,13439,1,13439,1,0.001379,6.8994e-09,0,0.001379,0.00021848,3.6956e+08,2124.4,0,4.7365e+08,263.79,13438,12178,1,12178,1,6.0119e-05,-3.133e-10,0,0.00069349,-1.0811e-05,2.1598e+07,-83.668,0,2.4374e+08,26.794,12177,10873,1,10873,1,-0.0011645,-4.546e-09,0,3.4084e-05,-0.0002575,-4.7365e+08,-1245.8,0,1.3896e+07,-112.5,10872,11561,1,11561,1,-0.00059929,-1.8796e-09,0,0.00034271,-0.00013419,-2.4374e+08,-553.11,0,1.2879e+08,-7.4177,11560,12795,1,12795,1,0.00071954,1.2624e-09,0,0.0010021,0.00011254,2.228e+08,395.78,0,3.265e+08,75.341,12794,714.3,0,714.3,0,0.00076184,2.5587e-09,0,0.00038737,0.00014254,2.5922e+08,774.27,0,1.2573e+08,73.593,714.3,1
2468,4.54,12178,1,12178,1,0.00010618,1.1028e-09,0,0.00066591,-1.942e-05,-6.7593e+05,344.81,0,2.2698e+08,17.726,12177,13439,1,13439,1,0.0013828,3.6636e-09,0,0.0013828,0.0002189,3.6977e+08,1252.9,0,4.7456e+08,198.89,13438,12178,1,12178,1,6.0809e-05,8.5635e-10,0,0.0006946,-1.0938e-05,2.1832e+07,243.36,0,2.441e+08,19.209,12177,10873,1,10873,1,-0.0011668,-1.049e-09,0,3.362e-05,-0.00025822,-4.7456e+08,-264.55,0,1.3711e+07,-191.6,10872,11561,1,11561,1,-0.00060018,1.8138e-10,0,0.00034408,-0.00013461,-2.441e+08,50.604,0,1.2888e+08,-32.941,11560,12795,1,12795,1,0.00072181,2.017e-09,0,0.0010051,0.0001127,2.2318e+08,615.9,0,3.2675e+08,67.785,12794,714.3,0,714.3,0,0.00076366,1.154e-09,0,0.00038839,0.00014288,2.596e+08,364.86,0,1.259e+08,71.818,714.3,1
2468,4.55,12178,1,12178,1,0.00010699,4.0822e-10,0,0.00066754,-1.9569e-05,-6.7701e+05,140.5,0,2.2731e+08,17.352,12177,13439,1,13439,1,0.0013867,1.6086e-09,0,0.0013867,0.00021932,3.6997e+08,550.49,0,4.7546e+08,229.84,13438,12178,1,12178,1,6.1511e-05,4.3287e-10,0,0.0006957,-1.1067e-05,2.207e+07,134.2,0,2.4446e+08,4.7909,12177,10873,1,10873,1,-0.001169,-1.6246e-09,0,3.3142e-05,-0.00025893,-4.7546e+08,-412.46,0,1.3521e+07,-77.385,10872,11561,1,11561,1,-0.00060105,-1.9261e-11,0,0.00034545,-0.00013503,-2.4446e+08,-5.0791,0,1.2896e+08,-24.246,11560,12795,1,12795,1,0.00072408,8.5093e-10,0,0.001008,0.00011287,2.2356e+08,277.54,0,3.2699e+08,39.955,12794,714.3,0,714.3,0,0.00076548,5.8803e-10,0,0.0003894,0.00014322,2.5997e+08,183.85,0,1.2608e+08,59.981,714.3,1
2468,4.56,12178,1,12178,1,0.0001078,-5.3865e-10,0,0.00066915,-1.9717e-05,-6.7804e+05,-146.21,0,2.2764e+08,41.911,12177,13439,1,13439,1,0.0013905,2.9932e-09,0,0.0013905,0.00021973,3.7016e+08,894.12,0,4.7635e+08,226.97,13438,12178,1,12178,1,6.2213e-05,-3.4734e-10,0,0.00069678,-1.1197e-05,2.2307e+07,-101.14,0,2.4481e+08,37.605,12177,10873,1,10873,1,-0.0011712,-5.8324e-09,0,3.2662e-05,-0.00025964,-4.7635e+08,-1612.3,0,1.3329e+07,-117.47,10872,11561,1,11561,1,-0.00060191,-1.4827e-09,0,0.00034683,-0.00013545,-2.4481e+08,-448.42,0,1.2904e+08,-9.5963,11560,12795,1,12795,1,0.00072634,6.8614e-10,0,0.0010109,0.00011303,2.2392e+08,213.05,0,3.2721e+08,86.17,12794,714.3,0,714.3,0,0.00076728,1.7959e-09,0,0.0003904,0.00014355,2.6034e+08,524.18,0,1.2625e+08,67.299,714.3,1
2468,4.57,12178,1,12178,1,0.00010862,-7.68e-10,0,0.00067077,-1.9866e-05,-6.7958e+05,-221.67,0,2.2796e+08,24.931,12177,13439,1,13439,1,0.0013943,1.4164e-09,0,0.0013943,0.00022014,3.7035e+08,379.91,0,4.7725e+08,300.59,13438,12178,1,12178,1,6.2916e-05,-6.7045e-10,0,0.00069787,-1.1327e-05,2.2545e+07,-189.05,0,2.4516e+08,13.049,12177,10873,1,10873,1,-0.0011734,-2.4969e-09,0,3.2182e-05,-0.00026035,-4.7725e+08,-752.96,0,1.3139e+07,-100.89,10872,11561,1,11561,1,-0.00060277,-1.4654e-09,0,0.00034821,-0.00013587,-2.4516e+08,-419.64,0,1.2911e+08,-14.481,11560,12795,1,12795,1,0.00072861,-6.6358e-12,0,0.0010139,0.00011319,2.2429e+08,-2.2718,0,3.2744e+08,42.99,12794,714.3,0,714.3,0,0.0007691,8.6668e-10,0,0.00039141,0.00014389,2.6071e+08,251.75,0,1.2642e+08,67.405,714.3,1
2468,4.58,12178,1,12178,1,0.00010944,3.0967e-09,0,0.0006724,-2.0016e-05,-6.8065e+05,929.25,0,2.2829e+08,77.419,12177,13439,1,13439,1,0.0013982,9.5686e-09,0,0.0013982,0.00022057,3.7055e+08,2853.8,0,4.7817e+08,379.05,13438,12178,1,12178,1,6.363e-05,2.8178e-09,0,0.00069895,-1.1458e-05,2.2786e+07,813.12,0,2.4551e+08,55.747,12177,10873,1,10873,1,-0.0011756,-2.8836e-09,0,3.1695e-05,-0.00026107,-4.7817e+08,-775.72,0,1.2945e+07,-173.98,10872,11561,1,11561,1,-0.00060363,3.1222e-10,0,0.00034959,-0.0001363,-2.4551e+08,87.686,0,1.2919e+08,-7.3263,11560,12795,1,12795,1,0.00073092,5.6623e-09,0,0.0010168,0.00011336,2.2467e+08,1704.5,0,3.2767e+08,159.02,12794,714.3,0,714.3,0,0.00077092,3.0206e-09,0,0.00039243,0.00014423,2.6108e+08,910.3,0,1.266e+08,109.3,714.3,1
2468,4.59,12178,1,12178,1,0.00011026,-8.3984e-10,0,0.00067403,-2.0167e-05,-6.8209e+05,-224.55,0,2.2862e+08,24.563,12177,13439,1,13439,1,0.001402,1.935e-09,0,0.001402,0.00022097,3.7072e+08,570.07,0,4.7905e+08,313.72,13438,12178,1,12178,1,6.4351e-05,-6.4577e-10,0,0.00070004,-1.159e-05,2.3028e+07,-182.44,0,2.4586e+08,8.3521,12177,10873,1,10873,1,-0.0011778,-3.5404e-09,0,3.1199e-05,-0.00026178,-4.7905e+08,-1016.1,0,1.2748e+07,-90.876,10872,11561,1,11561,1,-0.00060449,-2.0858e-09,0,0.00035099,-0.00013672,-2.4586e+08,-585.18,0,1.2926e+08,-21.695,11560,12795,1,12795,1,0.0007332,3.9197e-10,0,0.0010198,0.00011352,2.2503e+08,120.97,0,3.2789e+08,42.652,12794,714.3,0,714.3,0,0.00077274,1.4216e-09,0,0.00039345,0.00014457,2.6145e+08,409.62,0,1.2677e+08,73.565,714.3,1
2468,4.6,12178,1,12178,1,0.00011109,-1.0776e-10,0,0.00067563,-2.0319e-05,-6.8302e+05,-23.914,0,2.2893e+08,10.682,12177,13439,1,13439,1,0.0014059,6.7906e-09,0,0.0014059,0.00022138,3.7088e+08,2018.8,0,4.7993e+08,308.91,13438,12178,1,12178,1,6.5068e-05,-2.4093e-10,0,0.0007011,-1.1723e-05,2.327e+07,-69.755,0,2.462e+08,1.7262,12177,10873,1,10873,1,-0.00118,-4.2809e-09,0,3.0703e-05,-0.00026249,-4.7993e+08,-1274.9,0,1.2551e+07,-214.69,10872,11561,1,11561,1,-0.00060533,-2.111e-09,0,0.00035238,-0.00013714,-2.462e+08,-626.31,0,1.2933e+08,-50.129,11560,12795,1,12795,1,0.00073547,1.3114e-09,0,0.0010228,0.00011368,2.2539e+08,391.96,0,3.281e+08,54.608,12794,714.3,0,714.3,0,0.00077454,2.6041e-09,0,0.00039445,0.0001449,2.6181e+08,778.64,0,1.2694e+08,89.789,714.3,1
2468,4.61,12178,1,12178,1,0.00011192,3.9438e-10,0,0.00067727,-2.0471e-05,-6.8451e+05,124.43,0,2.2926e+08,52.429,12177,13439,1,13439,1,0.0014098,5.3484e-09,0,0.0014098,0.0002218,3.7107e+08,1615.8,0,4.8084e+08,247.01,13438,12178,1,12178,1,6.5791e-05,1.9226e-10,0,0.00070219,-1.1856e-05,2.3513e+07,54.932,0,2.4655e+08,49.26,12177,10873,1,10873,1,-0.0011822,-3.5641e-09,0,3.0208e-05,-0.00026322,-4.8084e+08,-1076.3,0,1.2356e+07,-137.09,10872,11561,1,11561,1,-0.0006062,-1.2382e-09,0,0.00035378,-0.00013757,-2.4655e+08,-367.8,0,1.2941e+08,4.1715,11560,12795,1,12795,1,0.00073779,1.9393e-09,0,0.0010258,0.00011384,2.2577e+08,568.92,0,3.2833e+08,105.33,12794,714.3,0,714.3,0,0.00077638,2.2604e-09,0,0.00039548,0.00014524,2.6218e+08,685.12,0,1.2711e+08,75.7,714.3,1
2468,4.62,12178,1,12178,1,0.00011277,1.8166e-09,0,0.00067892,-2.0626e-05,-6.857e+05,546.48,0,2.2958e+08,40.001,12177,13439,1,13439,1,0.0014137,4.7805e-09,0,0.0014137,0.00022222,3.7124e+08,1413.6,0,4.8175e+08,441.56,13438,12178,1,12178,1,6.6527e-05,1.7032e-09,0,0.00070327,-1.1992e-05,2.376e+07,509.42,0,2.469e+08,17.261,12177,10873,1,10873,1,-0.0011844,-9.9148e-10,0,2.9699e-05,-0.00026395,-4.8175e+08,-310.37,0,1.2154e+07,-210.58,10872,11561,1,11561,1,-0.00060704,5.8964e-10,0,0.0003552,-0.000138,-2.469e+08,165.74,0,1.2948e+08,-35.715,11560,12795,1,12795,1,0.00074012,3.0206e-09,0,0.0010288,0.000114,2.2614e+08,909.72,0,3.2854e+08,97.341,12794,714.3,0,714.3,0,0.00077822,1.493e-09,0,0.00039651,0.00014559,2.6255e+08,447.45,0,1.2728e+08,130.48,714.3,1
2468,4.63,12178,1,12178,1,0.00011362,2.8367e-10,0,0.00068055,-2.0781e-05,-6.8682e+05,104.21,0,2.299e+08,54.312,12177,13439,1,13439,1,0.0014176,1.6363e-09,0,0.0014176,0.00022263,3.714e+08,538.34,0,4.8264e+08,309.66,13438,12178,1,12178,1,6.7272e-05,3.8419e-10,0,0.00070434,-1.2129e-05,2.401e+07,118.94,0,2.4724e+08,24.184,12177,10873,1,10873,1,-0.0011866,-3.3096e-09,0,2.9181e-05,-0.00026467,-4.8264e+08,-845.26,0,1.195e+07,-64.499,10872,11561,1,11561,1,-0.00060789,-2.3008e-10,0,0.00035661,-0.00013843,-2.4724e+08,-59.467,0,1.2954e+08,-8.761,11560,12795,1,12795,1,0.00074244,9.2524e-10,0,0.0010318,0.00011416,2.265e+08,292.65,0,3.2875e+08,103.82,12794,714.3,0,714.3,0,0.00078004,8.4298e-10,0,0.00039754,0.00014593,2.6291e+08,245.3,0,1.2745e+08,85.663,714.3,1
2468,4.64,12178,1,12178,1,0.00011446,2.6155e-09,0,0.00068215,-2.0936e-05,-6.881e+05,801.83,0,2.3021e+08,113.62,12177,13439,1,13439,1,0.0014215,1.1682e-08,0,0.0014215,0.00022304,3.7155e+08,3475.6,0,4.8352e+08,450.94,13438,12178,1,12178,1,6.8012e-05,1.9025e-09,0,0.00070536,-1.2265e-05,2.4258e+07,528.15,0,2.4756e+08,111.58,12177,10873,1,10873,1,-0.0011888,-6.6382e-09,0,2.8663e-05,-0.00026539,-4.8352e+08,-1813.3,0,1.1746e+07,-187.91,10872,11561,1,11561,1,-0.00060869,-3.152e-10,0,0.00035801,-0.00013885,-2.4756e+08,-85.151,0,1.296e+08,7.1825,11560,12795,1,12795,1,0.00074475,5.9032e-09,0,0.0010347,0.00011431,2.2685e+08,1807.2,0,3.2893e+08,215.94,12794,714.3,0,714.3,0,0.00078183,4.1352e-09,0,0.00039855,0.00014626,2.6325e+08,1232.1,0,1.2761e+08,126.11,714.3,1
2468,4.65,12178,1,12178,1,0.00011531,1.4834e-10,0,0.00068381,-2.1091e-05,-6.8951e+05,77.207,0,2.3054e+08,45.417,12177,13439,1,13439,1,0.0014254,3.7607e-09,0,0.0014254,0.00022345,3.7172e+08,1116.9,0,4.8441e+08,361.2,13438,12178,1,12178,1,6.8753e-05,1.0925e-10,0,0.00070646,-1.2401e-05,2.4506e+07,37.246,0,2.4792e+08,18.422,12177,10873,1,10873,1,-0.001191,-2.9186e-09,0,2.815e-05,-0.00026611,-4.8441e+08,-749.01,0,1.1544e+07,-137.84,10872,11561,1,11561,1,-0.00060956,-9.2818e-10,0,0.00035944,-0.00013929,-2.4792e+08,-236.38,0,1.2967e+08,-11.848,11560,12795,1,12795,1,0.00074708,9.9968e-10,0,0.0010377,0.00011448,2.2722e+08,327.81,0,3.2916e+08,88.681,12794,714.3,0,714.3,0,0.00078368,1.2757e-09,0,0.00039959,0.0001466,2.6362e+08,379.05,0,1.2779e+08,93.571,714.3,1
2468,4.66,12178,1,12178,1,0.00011618,-7.684e-10,0,0.00068545,-2.125e-05,-6.9064e+05,-206.67,0,2.3085e+08,63.926,12177,13439,1,13439,1,0.0014293,2.5198e-09,0,0.0014293,0.00022386,3.7187e+08,716.24,0,4.853e+08,318.24,13438,12178,1,12178,1,6.9507e-05,-4.6676e-10,0,0.00070751,-1.254e-05,2.4757e+07,-127.95,0,2.4826e+08,44.7,12177,10873,1,10873,1,-0.0011932,-4.7346e-09,0,2.7621e-05,-0.00026684,-4.853e+08,-1235.8,0,1.1336e+07,-74.18,10872,11561,1,11561,1,-0.00061039,-2.0069e-09,0,0.00036088,-0.00013972,-2.4826e+08,-569.02,0,1.2973e+08,8.985,11560,12795,1,12795,1,0.00074941,4.1278e-10,0,0.0010408,0.00011463,2.2758e+08,127.66,0,3.2935e+08,103.55,12794,714.3,0,714.3,0,0.00078551,1.61e-09,0,0.00040063,0.00014694,2.6398e+08,461.51,0,1.2796e+08,81.761,714.3,1
2468,4.67,12178,1,12178,1,0.00011704,2.3345e-09,0,0.00068707,-2.1408e-05,-6.9162e+05,703.43,0,2.3116e+08,78.28,12177,13439,1,13439,1,0.0014332,8.9418e-09,0,0.0014332,0.00022427,3.7201e+08,2665,0,4.8619e+08,381.22,13438,12178,1,12178,1,7.0265e-05,1.8103e-09,0,0.00070855,-1.268e-05,2.501e+07,521.78,0,2.4858e+08,53.529,12177,10873,1,10873,1,-0.0011954,-3.4077e-09,0,2.709e-05,-0.00026756,-4.8619e+08,-882.09,0,1.1128e+07,-165.98,10872,11561,1,11561,1,-0.00061119,4.821e-10,0,0.00036231,-0.00014015,-2.4858e+08,141.72,0,1.2979e+08,-13.876,11560,12795,1,12795,1,0.00075175,4.1451e-09,0,0.0010438,0.00011479,2.2794e+08,1243.6,0,3.2953e+08,166.5,12794,714.3,0,714.3,0,0.00078732,2.4839e-09,0,0.00040165,0.00014728,2.6433e+08,743.99,0,1.2812e+08,120.06,714.3,1
2468,4.68,12178,1,12178,1,0.00011791,3.1611e-09,0,0.0006887,-2.1567e-05,-6.9263e+05,967.72,0,2.3147e+08,79.242,12177,13439,1,13439,1,0.0014372,1.093e-08,0,0.0014372,0.00022468,3.7215e+08,3291,0,4.8708e+08,481.17,13438,12178,1,12178,1,7.1029e-05,2.9252e-09,0,0.00070958,-1.2821e-05,2.5265e+07,863.09,0,2.4891e+08,51.494,12177,10873,1,10873,1,-0.0011975,-5.9119e-09,0,2.6553e-05,-0.0002683,-4.8708e+08,-1576.6,0,1.0918e+07,-196.01,10872,11561,1,11561,1,-0.000612,-3.1451e-11,0,0.00036373,-0.00014058,-2.4891e+08,-9.2847,0,1.2985e+08,-42.005,11560,12795,1,12795,1,0.00075411,6.3117e-09,0,0.0010468,0.00011494,2.283e+08,1919.1,0,3.2972e+08,207,12794,714.3,0,714.3,0,0.00078914,3.6578e-09,0,0.00040268,0.00014762,2.6468e+08,1116.8,0,1.2829e+08,151.9,714.3,1
2468,4.69,12178,1,12178,1,0.00011878,-9.6669e-10,0,0.00069037,-2.1727e-05,-6.9381e+05,-243.42,0,2.3179e+08,-5.717,12177,13439,1,13439,1,0.0014411,2.474e-09,0,0.0014411,0.00022509,3.7231e+08,846.82,0,4.8797e+08,532.78,13438,12178,1,12178,1,7.1791e-05,-6.405e-10,0,0.00071068,-1.2961e-05,2.5519e+07,-184.62,0,2.4926e+08,-18.04,12177,10873,1,10873,1,-0.0011997,-5.678e-09,0,2.6018e-05,-0.00026902,-4.8797e+08,-1509.2,0,1.0709e+07,-487.96,10872,11561,1,11561,1,-0.00061287,-1.806e-09,0,0.0003652,-0.00014102,-2.4926e+08,-491.06,0,1.2991e+08,-61.319,11560,12795,1,12795,1,0.00075645,2.3354e-10,0,0.0010499,0.0001151,2.2866e+08,78.004,0,3.2993e+08,27.221,12794,714.3,0,714.3,0,0.00079101,1.6675e-09,0,0.00040374,0.00014797,2.6505e+08,460.38,0,1.2846e+08,118.92,714.3,1
2468,4.7,12178,1,12178,1,0.00011968,-1.148e-09,0,0.00069202,-2.189e-05,-6.9507e+05,-326.88,0,2.321e+08,34.968,12177,13439,1,13439,1,0.0014451,2.3329e-09,0,0.0014451,0.00022551,3.7243e+08,642.64,0,4.8886e+08,373.86,13438,12178,1,12178,1,7.2568e-05,-7.0148e-10,0,0.00071171,-1.3104e-05,2.5776e+07,-199.6,0,2.4959e+08,22.013,12177,10873,1,10873,1,-0.0012019,-5.1213e-09,0,2.5468e-05,-0.00026976,-4.8886e+08,-1500.4,0,1.0494e+07,-248.12,10872,11561,1,11561,1,-0.00061367,-2.6821e-09,0,0.00036666,-0.00014146,-2.4959e+08,-795.87,0,1.2996e+08,-42.62,11560,12795,1,12795,1,0.00075882,3.1278e-10,0,0.0010529,0.00011525,2.2901e+08,89.941,0,3.301e+08,120.39,12794,714.3,0,714.3,0,0.00079285,1.9065e-09,0,0.00040479,0.00014831,2.654e+08,557.39,0,1.2863e+08,116.41,714.3,1
2468,4.71,12178,1,12178,1,0.00012056,1.1561e-09,0,0.00069363,-2.2052e-05,-6.9574e+05,340.55,0,2.3239e+08,93.72,12177,13439,1,13439,1,0.001449,1.3354e-08,0,0.001449,0.0002259,3.7254e+08,4021.5,0,4.8972e+08,565.93,13438,12178,1,12178,1,7.3348e-05,3.4116e-10,0,0.0007127,-1.3248e-05,2.6035e+07,87.52,0,2.4991e+08,51.156,12177,10873,1,10873,1,-0.001204,-9.3773e-09,0,2.4908e-05,-0.00027048,-4.8972e+08,-2557,0,1.0276e+07,-272.73,10872,11561,1,11561,1,-0.00061445,-1.2405e-09,0,0.00036811,-0.00014189,-2.4991e+08,-374.08,0,1.3001e+08,-18.073,11560,12795,1,12795,1,0.00076116,3.4179e-09,0,0.0010559,0.0001154,2.2936e+08,959.66,0,3.3026e+08,198.76,12794,714.3,0,714.3,0,0.00079464,4.1374e-09,0,0.00040581,0.00014864,2.6573e+08,1221.7,0,1.2879e+08,156.2,714.3,1
2468,4.72,12178,1,12178,1,0.00012145,1.0971e-09,0,0.0006953,-2.2214e-05,-6.9806e+05,341.24,0,2.3271e+08,30.621,12177,13439,1,13439,1,0.001453,3.8343e-09,0,0.001453,0.00022632,3.7268e+08,1265.2,0,4.9062e+08,455.85,13438,12178,1,12178,1,7.4123e-05,9.932e-10,0,0.00071378,-1.3391e-05,2.6292e+07,292.75,0,2.5025e+08,10.037,12177,10873,1,10873,1,-0.0012062,-8.5603e-10,0,2.4367e-05,-0.00027122,-4.9062e+08,-204.16,0,1.0066e+07,-158.43,10872,11561,1,11561,1,-0.0006153,4.8803e-10,0,0.00036958,-0.00014233,-2.5025e+08,127.52,0,1.3007e+08,-50.824,11560,12795,1,12795,1,0.00076355,1.43e-09,0,0.001059,0.00011556,2.2972e+08,450.28,0,3.3046e+08,77.143,12794,714.3,0,714.3,0,0.00079651,9.1976e-10,0,0.00040688,0.00014899,2.661e+08,299.61,0,1.2896e+08,117.08,714.3,1
2468,4.73,12178,1,12178,1,0.00012235,2.5117e-09,0,0.00069692,-2.238e-05,-6.9801e+05,766.75,0,2.33e+08,89.75,12177,13439,1,13439,1,0.001457,1.6099e-08,0,0.001457,0.00022673,3.7279e+08,4845.3,0,4.915e+08,587.71,13438,12178,1,12178,1,7.4919e-05,1.2714e-09,0,0.00071476,-1.3537e-05,2.6556e+07,350.86,0,2.5056e+08,55.066,12177,10873,1,10873,1,-0.0012084,-7.46e-09,0,2.3797e-05,-0.00027196,-4.915e+08,-1986.6,0,9.8449e+06,-267.41,10872,11561,1,11561,1,-0.00061606,-6.7771e-10,0,0.00037104,-0.00014277,-2.5056e+08,-205.99,0,1.3011e+08,-37.331,11560,12795,1,12795,1,0.00076594,5.4373e-09,0,0.001062,0.00011571,2.3006e+08,1621.4,0,3.3086e+08,194.13,12794,714.3,0,714.3,0,0.00079832,4.7304e-09,0,0.00040791,0.00014933,2.6643e+08,1414.2,0,1.2912e+08,165.5,714.3,1
2468,4.74,12178,1,12178,1,0.00012325,-1.7377e-10,0,0.0006986,-2.2544e-05,-7.0037e+05,-12.656,0,2.3332e+08,44.873,12177,13439,1,13439,1,0.0014609,5.3049e-09,0,0.0014609,0.00022713,3.7293e+08,1572.5,0,4.9238e+08,523.9,13438,12178,1,12178,1,7.5705e-05,-3.0901e-10,0,0.00071585,-1.3682e-05,2.6816e+07,-81.966,0,2.5091e+08,11.408,12177,10873,1,10873,1,-0.0012106,-2.6046e-09,0,2.3239e-05,-0.00027269,-4.9238e+08,-641.14,0,9.6292e+06,-190.44,10872,11561,1,11561,1,-0.0006169,-1.4084e-09,0,0.00037252,-0.00014321,-2.5091e+08,-366.93,0,1.3017e+08,-27.564,11560,12795,1,12795,1,0.00076832,6.8488e-10,0,0.0010651,0.00011587,2.3042e+08,227.99,0,3.314e+08,80.916,12794,714.3,0,714.3,0,0.0008002,1.4348e-09,0,0.00040898,0.00014968,2.6679e+08,423.73,0,1.2929e+08,130.73,714.3,1
2468,4.75,12178,1,12178,1,0.00012416,4.5584e-10,0,0.00070026,-2.2712e-05,-7.0134e+05,149.87,0,2.3362e+08,74.053,12177,13439,1,13439,1,0.0014649,3.2563e-09,0,0.0014649,0.00022754,3.7303e+08,941.42,0,4.9326e+08,579.25,13438,12178,1,12178,1,7.6509e-05,4.3199e-10,0,0.00071687,-1.3831e-05,2.7081e+07,129.47,0,2.5123e+08,24.044,12177,10873,1,10873,1,-0.0012127,-4.1123e-09,0,2.2664e-05,-0.00027344,-4.9326e+08,-1027.5,0,9.4068e+06,-113.4,10872,11561,1,11561,1,-0.0006177,7.3976e-12,0,0.00037402,-0.00014366,-2.5123e+08,2.0494,0,1.3021e+08,-14.849,11560,12795,1,12795,1,0.00077072,1.0828e-09,0,0.0010682,0.00011602,2.3077e+08,343.38,0,3.3191e+08,135.22,12794,714.3,0,714.3,0,0.00080205,1.0055e-09,0,0.00041004,0.00015002,2.6713e+08,287.34,0,1.2946e+08,129.77,714.3,1
2468,4.76,12178,1,12178,1,0.00012508,1.0197e-09,0,0.00070191,-2.288e-05,-7.02e+05,313.55,0,2.3392e+08,87.47,12177,13439,1,13439,1,0.0014689,6.4171e-09,0,0.0014689,0.00022795,3.7313e+08,1847.2,0,4.9414e+08,558,13438,12178,1,12178,1,7.7318e-05,7.0322e-10,0,0.00071787,-1.3979e-05,2.7347e+07,215.83,0,2.5154e+08,47.838,12177,10873,1,10873,1,-0.0012149,-5.4516e-09,0,2.2082e-05,-0.00027418,-4.9414e+08,-1381.9,0,9.1825e+06,-151.33,10872,11561,1,11561,1,-0.00061847,-1.034e-10,0,0.0003755,-0.0001441,-2.5154e+08,-28.793,0,1.3025e+08,-20.04,11560,12795,1,12795,1,0.00077312,2.1354e-09,0,0.0010713,0.00011616,2.3111e+08,653.06,0,3.324e+08,184.84,12794,714.3,0,714.3,0,0.00080388,1.98e-09,0,0.0004111,0.00015036,2.6747e+08,559.52,0,1.2962e+08,134.44,714.3,1
2468,4.77,12178,1,12178,1,0.000126,-4.0781e-13,0,0.00070355,-2.3047e-05,-7.0406e+05,24.072,0,2.3421e+08,151.03,12177,13439,1,13439,1,0.0014729,8.9586e-09,0,0.0014729,0.00022835,3.7323e+08,2649.5,0,4.9501e+08,580.03,13438,12178,1,12178,1,7.8125e-05,-3.3467e-10,0,0.00071888,-1.4127e-05,2.7613e+07,-109.37,0,2.5186e+08,116.6,12177,10873,1,10873,1,-0.001217,-7.9612e-09,0,2.1502e-05,-0.00027491,-4.9501e+08,-2084.2,0,8.9593e+06,-135.51,10872,11561,1,11561,1,-0.00061925,-1.8106e-09,0,0.00037699,-0.00014454,-2.5186e+08,-522.77,0,1.3029e+08,35.627,11560,12795,1,12795,1,0.00077552,1.679e-09,0,0.0010744,0.00011631,2.3146e+08,508.66,0,3.3291e+08,252.52,12794,714.3,0,714.3,0,0.00080571,3.2044e-09,0,0.00041215,0.0001507,2.6781e+08,923.51,0,1.2978e+08,150.06,714.3,1
2468,4.78,12178,1,12178,1,0.00012692,2.3127e-11,0,0.00070524,-2.3217e-05,-7.0466e+05,27.623,0,2.3452e+08,24.876,12177,13439,1,13439,1,0.001477,2.5239e-09,0,0.001477,0.00022876,3.7334e+08,864.04,0,4.959e+08,557.26,13438,12178,1,12178,1,7.894e-05,1.891e-10,0,0.00071992,-1.4278e-05,2.7881e+07,53.881,0,2.5219e+08,-7.8617,12177,10873,1,10873,1,-0.0012192,-2.517e-09,0,2.0919e-05,-0.00027566,-4.959e+08,-612.96,0,8.7352e+06,-219.21,10872,11561,1,11561,1,-0.00062007,-4.4434e-10,0,0.0003785,-0.00014499,-2.5219e+08,-114.97,0,1.3034e+08,-66.642,11560,12795,1,12795,1,0.00077795,5.9852e-10,0,0.0010775,0.00011647,2.3181e+08,189.93,0,3.3343e+08,85.899,12794,714.3,0,714.3,0,0.00080759,7.7933e-10,0,0.00041323,0.00015105,2.6816e+08,221.93,0,1.2995e+08,151.82,714.3,1
2468,4.79,12178,1,12178,1,0.00012786,1.2386e-09,0,0.0007069,-2.3389e-05,-7.0631e+05,381.57,0,2.3481e+08,97.137,12177,13439,1,13439,1,0.001481,5.3198e-09,0,0.001481,0.00022917,3.7343e+08,1551.3,0,4.9678e+08,696.84,13438,12178,1,12178,1,7.9767e-05,1.0681e-09,0,0.00072092,-1.443e-05,2.8153e+07,324.04,0,2.5251e+08,53.756,12177,10873,1,10873,1,-0.0012214,-4.6316e-09,0,2.0321e-05,-0.00027641,-4.9678e+08,-1140,0,8.506e+06,-115.72,10872,11561,1,11561,1,-0.00062084,1.3752e-10,0,0.00038001,-0.00014544,-2.5251e+08,41.496,0,1.3037e+08,-0.58635,11560,12795,1,12795,1,0.00078039,2.4379e-09,0,0.0010806,0.00011661,2.3215e+08,741.2,0,3.3392e+08,165.01,12794,714.3,0,714.3,0,0.00080944,1.6861e-09,0,0.0004143,0.0001514,2.6849e+08,484.39,0,1.3011e+08,137.03,714.3,1
2468,4.8,12178,1,12178,1,0.0001288,2.3992e-10,0,0.00070856,-2.3561e-05,-7.0743e+05,99.112,0,2.3511e+08,85.757,12177,13439,1,13439,1,0.001485,2.6832e-09,0,0.001485,0.00022957,3.7352e+08,918.71,0,4.9765e+08,705.73,13438,12178,1,12178,1,8.0597e-05,4.135e-10,0,0.00072194,-1.4583e-05,2.8425e+07,131.71,0,2.5282e+08,23.214,12177,10873,1,10873,1,-0.0012235,-5.4204e-09,0,1.972e-05,-0.00027716,-4.9765e+08,-1348.3,0,8.276e+06,-61.123,10872,11561,1,11561,1,-0.00062162,-2.5937e-10,0,0.00038153,-0.00014589,-2.5282e+08,-61.942,0,1.3041e+08,-6.3484,11560,12795,1,12795,1,0.00078282,9.8627e-10,0,0.0010837,0.00011676,2.325e+08,315.15,0,3.3443e+08,123.36,12794,714.3,0,714.3,0,0.0008113,1.108e-09,0,0.00041537,0.00015174,2.6883e+08,312.41,0,1.3027e+08,144.4,714.3,1
2468,4.81,12178,1,12178,1,0.00012975,4.4059e-10,0,0.00071023,-2.3734e-05,-7.0832e+05,151.39,0,2.354e+08,84.721,12177,13439,1,13439,1,0.0014891,3.7232e-09,0,0.0014891,0.00022997,3.736e+08,948.03,0,4.9852e+08,653.95,13438,12178,1,12178,1,8.1431e-05,5.5179e-10,0,0.00072293,-1.4737e-05,2.8698e+07,172.73,0,2.5314e+08,27.653,12177,10873,1,10873,1,-0.0012257,-5.3794e-09,0,1.9116e-05,-0.00027791,-4.9852e+08,-1328.1,0,8.0449e+06,-99.6,10872,11561,1,11561,1,-0.00062239,-1.4708e-10,0,0.00038305,-0.00014634,-2.5314e+08,-36.572,0,1.3044e+08,-5.438,11560,12795,1,12795,1,0.00078526,1.3271e-09,0,0.0010869,0.0001169,2.3284e+08,410.37,0,3.3493e+08,132.26,12794,714.3,0,714.3,0,0.00081315,1.2997e-09,0,0.00041645,0.00015209,2.6916e+08,360.1,0,1.3044e+08,140.11,714.3,1
2468,4.82,12178,1,12178,1,0.00013069,-2.3186e-11,0,0.00071188,-2.3907e-05,-7.0974e+05,13.203,0,2.3569e+08,110.82,12177,13439,1,13439,1,0.0014931,4.8032e-09,0,0.0014931,0.00023037,3.7367e+08,1343.1,0,4.9939e+08,731.8,13438,12178,1,12178,1,8.2266e-05,3.0416e-11,0,0.00072392,-1.4891e-05,2.8971e+07,7.873,0,2.5344e+08,70.003,12177,10873,1,10873,1,-0.0012278,-6.3962e-09,0,1.8508e-05,-0.00027865,-4.9939e+08,-1588.8,0,7.8132e+06,-190.53,10872,11561,1,11561,1,-0.00062315,-9.1098e-10,0,0.00038457,-0.00014679,-2.5344e+08,-256.64,0,1.3047e+08,3.4388,11560,12795,1,12795,1,0.00078769,1.1476e-09,0,0.00109,0.00011705,2.3317e+08,353.06,0,3.3542e+08,169.54,12794,714.3,0,714.3,0,0.00081499,1.8527e-09,0,0.00041752,0.00015243,2.6949e+08,509.53,0,1.306e+08,159.69,714.3,1
2468,4.83,12178,1,12178,1,0.00013164,-2.7367e-10,0,0.00071354,-2.4082e-05,-7.0997e+05,-64.898,0,2.3598e+08,93.482,12177,13439,1,13439,1,0.0014972,6.2674e-09,0,0.0014972,0.00023077,3.7375e+08,1794,0,5.0025e+08,768.36,13438,12178,1,12178,1,8.3107e-05,-3.3e-10,0,0.0007249,-1.5045e-05,2.9246e+07,-89.842,0,2.5375e+08,50.425,12177,10873,1,10873,1,-0.0012299,-9.7339e-09,0,1.7896e-05,-0.0002794,-5.0025e+08,-2510.2,0,7.5799e+06,-222.42,10872,11561,1,11561,1,-0.0006239,-1.4186e-09,0,0.0003861,-0.00014724,-2.5375e+08,-422.01,0,1.305e+08,-25.414,11560,12795,1,12795,1,0.00079013,1.1986e-09,0,0.0010931,0.00011719,2.3351e+08,361.07,0,3.3592e+08,186.51,12794,714.3,0,714.3,0,0.00081684,2.7682e-09,0,0.00041859,0.00015277,2.6982e+08,765.97,0,1.3075e+08,170.48,714.3,1
2468,4.84,12178,1,12178,1,0.0001326,1.5576e-09,0,0.00071522,-2.4256e-05,-7.1236e+05,470.64,0,2.3627e+08,109.04,12177,13439,1,13439,1,0.0015012,7.2797e-09,0,0.0015012,0.00023118,3.7383e+08,2083.8,0,5.0114e+08,901.65,13438,12178,1,12178,1,8.3951e-05,1.451e-09,0,0.00072591,-1.5201e-05,2.9521e+07,427.26,0,2.5407e+08,53.375,12177,10873,1,10873,1,-0.0012321,-4.8235e-09,0,1.7284e-05,-0.00028016,-5.0114e+08,-1185.1,0,7.3473e+06,-147.46,10872,11561,1,11561,1,-0.00062468,3.6663e-10,0,0.00038764,-0.0001477,-2.5407e+08,105.58,0,1.3053e+08,-8.4589,11560,12795,1,12795,1,0.0007926,2.6531e-09,0,0.0010963,0.00011734,2.3386e+08,804.34,0,3.3642e+08,188.74,12794,714.3,0,714.3,0,0.00081871,1.8072e-09,0,0.00041968,0.00015312,2.7016e+08,521.12,0,1.3092e+08,171.88,714.3,1
2468,4.85,12178,1,12178,1,0.00013357,8.8971e-10,0,0.00071688,-2.4434e-05,-7.123e+05,284.87,0,2.3656e+08,101.41,12177,13439,1,13439,1,0.0015053,8.974e-09,0,0.0015053,0.00023158,3.7389e+08,2588.7,0,5.02e+08,801.72,13438,12178,1,12178,1,8.4812e-05,3.2464e-10,0,0.00072688,-1.5359e-05,2.9802e+07,100.8,0,2.5437e+08,58.369,12177,10873,1,10873,1,-0.0012342,-8.1669e-09,0,1.6652e-05,-0.00028091,-5.02e+08,-2062.8,0,7.1072e+06,-266.87,10872,11561,1,11561,1,-0.00062542,-8.0932e-10,0,0.00038918,-0.00014816,-2.5437e+08,-221.77,0,1.3056e+08,-26.141,11560,12795,1,12795,1,0.00079507,2.7721e-09,0,0.0010994,0.00011748,2.3419e+08,841.54,0,3.3691e+08,215.3,12794,714.3,0,714.3,0,0.00082056,3.0427e-09,0,0.00042076,0.00015346,2.7049e+08,855.13,0,1.3108e+08,170.41,714.3,1
2468,4.86,12178,1,12178,1,0.00013454,1.1447e-09,0,0.00071858,-2.4612e-05,-7.1446e+05,367.14,0,2.3685e+08,94.166,12177,13439,1,13439,1,0.0015094,3.719e-09,0,0.0015094,0.00023199,3.7395e+08,1074.7,0,5.0288e+08,962.84,13438,12178,1,12178,1,8.5673e-05,1.3895e-09,0,0.00072788,-1.5518e-05,3.0081e+07,408.84,0,2.5468e+08,24.896,12177,10873,1,10873,1,-0.0012364,-5.1675e-09,0,1.6024e-05,-0.00028168,-5.0288e+08,-1250.9,0,6.8694e+06,-176.76,10872,11561,1,11561,1,-0.00062619,1.4092e-10,0,0.00039073,-0.00014862,-2.5468e+08,35.421,0,1.3059e+08,-22.103,11560,12795,1,12795,1,0.00079755,2.279e-09,0,0.0011026,0.00011763,2.3453e+08,715.67,0,3.3741e+08,158.98,12794,714.3,0,714.3,0,0.00082245,1.389e-09,0,0.00042186,0.00015382,2.7082e+08,411.22,0,1.3124e+08,187.86,714.3,1
2468,4.87,12178,1,12178,1,0.00013552,4.9158e-10,0,0.00072026,-2.4792e-05,-7.154e+05,182.26,0,2.3713e+08,102.13,12177,13439,1,13439,1,0.0015135,4.4096e-09,0,0.0015135,0.00023239,3.7401e+08,1220.7,0,5.0374e+08,858.24,13438,12178,1,12178,1,8.6545e-05,4.9594e-10,0,0.00072886,-1.5678e-05,3.0365e+07,157.79,0,2.5499e+08,48.78,12177,10873,1,10873,1,-0.0012385,-5.9661e-09,0,1.5382e-05,-0.00028244,-5.0374e+08,-1433.2,0,6.6265e+06,-150.57,10872,11561,1,11561,1,-0.00062694,-6.4631e-10,0,0.0003923,-0.00014908,-2.5499e+08,-154.22,0,1.3061e+08,-3.8697,11560,12795,1,12795,1,0.00080004,1.719e-09,0,0.0011058,0.00011777,2.3486e+08,540.13,0,3.379e+08,168.71,12794,714.3,0,714.3,0,0.00082431,1.7342e-09,0,0.00042295,0.00015416,2.7115e+08,487.03,0,1.314e+08,164.54,714.3,1
2468,4.88,12178,1,12178,1,0.0001365,1.2517e-10,0,0.0007219,-2.4971e-05,-7.173e+05,73.528,0,2.374e+08,147.69,12177,13439,1,13439,1,0.0015176,1.1496e-08,0,0.0015176,0.00023278,3.7404e+08,3255.2,0,5.0459e+08,952.05,13438,12178,1,12178,1,8.7413e-05,-3.6075e-10,0,0.0007298,-1.5838e-05,3.0646e+07,-113.59,0,2.5527e+08,96.194,12177,10873,1,10873,1,-0.0012406,-1.1485e-08,0,1.4741e-05,-0.00028318,-5.0459e+08,-2896.8,0,6.3842e+06,-213.85,10872,11561,1,11561,1,-0.00062765,-2.125e-09,0,0.00039385,-0.00014953,-2.5527e+08,-602.5,0,1.3062e+08,16.419,11560,12795,1,12795,1,0.00080249,2.4534e-09,0,0.0011089,0.0001179,2.3518e+08,717.05,0,3.3838e+08,235.63,12794,714.3,0,714.3,0,0.00082614,4.0782e-09,0,0.00042403,0.0001545,2.7146e+08,1150.3,0,1.3155e+08,196.81,714.3,1
2468,4.89,12178,1,12178,1,0.00013748,1.6883e-09,0,0.0007236,-2.5151e-05,-7.1807e+05,529.7,0,2.3769e+08,112.03,12177,13439,1,13439,1,0.0015217,1.0168e-08,0,0.0015217,0.00023319,3.7412e+08,2979.8,0,5.0548e+08,1073.2,13438,12178,1,12178,1,8.8281e-05,8.3026e-10,0,0.0007308,-1.5998e-05,3.0928e+07,248.64,0,2.5558e+08,66.488,12177,10873,1,10873,1,-0.0012428,-8.5051e-09,0,1.4108e-05,-0.00028395,-5.0548e+08,-2126.9,0,6.1451e+06,-272.71,10872,11561,1,11561,1,-0.00062841,-3.9153e-10,0,0.00039542,-0.00014999,-2.5558e+08,-108.28,0,1.3065e+08,-4.6835,11560,12795,1,12795,1,0.00080501,4.0516e-09,0,0.0011121,0.00011805,2.3553e+08,1199.3,0,3.3887e+08,170.43,12794,714.3,0,714.3,0,0.00082803,3.3716e-09,0,0.00042513,0.00015485,2.7179e+08,985.16,0,1.3172e+08,203.73,714.3,1
2468,4.9,12178,1,12178,1,0.00013847,-1.2979e-09,0,0.00072526,-2.5333e-05,-7.1878e+05,-332.59,0,2.3797e+08,125.49,12177,13439,1,13439,1,0.0015258,9.7242e-09,0,0.0015258,0.00023358,3.7415e+08,2865,0,5.0632e+08,848.65,13438,12178,1,12178,1,8.9168e-05,-1.1757e-09,0,0.00073174,-1.6161e-05,3.1214e+07,-294.84,0,2.5588e+08,70.166,12177,10873,1,10873,1,-0.0012448,-1.2323e-08,0,1.3447e-05,-0.0002847,-5.0632e+08,-3186.5,0,5.8962e+06,-284.67,10872,11561,1,11561,1,-0.00062913,-3.5908e-09,0,0.000397,-0.00015045,-2.5588e+08,-1023.2,0,1.3066e+08,-19.294,11560,12795,1,12795,1,0.00080748,7.1118e-10,0,0.0011153,0.00011818,2.3585e+08,224.17,0,3.3935e+08,243.84,12794,714.3,0,714.3,0,0.00082988,3.9088e-09,0,0.00042622,0.0001552,2.721e+08,1111.4,0,1.3187e+08,209.89,714.3,1
2468,4.91,12178,1,12178,1,0.00013947,6.9733e-10,0,0.00072697,-2.5517e-05,-7.2051e+05,226.3,0,2.3826e+08,102.31,12177,13439,1,13439,1,0.00153,4.6304e-09,0,0.00153,0.00023398,3.742e+08,1356.3,0,5.072e+08,1022.6,13438,12178,1,12178,1,9.0054e-05,2.8476e-10,0,0.00073274,-1.6324e-05,3.15e+07,80.72,0,2.5619e+08,44.716,12177,10873,1,10873,1,-0.001247,-4.6231e-09,0,1.2797e-05,-0.00028548,-5.072e+08,-1121.4,0,5.6513e+06,-195.71,10872,11561,1,11561,1,-0.00062989,-2.5281e-10,0,0.00039859,-0.00015092,-2.5619e+08,-65.835,0,1.3074e+08,-12.712,11560,12795,1,12795,1,0.00081001,1.6714e-09,0,0.0011185,0.00011833,2.3618e+08,525.7,0,3.3986e+08,147.74,12794,714.3,0,714.3,0,0.00083178,1.5376e-09,0,0.00042734,0.00015555,2.7244e+08,453.57,0,1.3203e+08,195.89,714.3,1
2468,4.92,12178,1,12178,1,0.00014049,-3.333e-10,0,0.00072867,-2.5703e-05,-7.2165e+05,-67.502,0,2.3853e+08,119.24,12177,13439,1,13439,1,0.0015341,3.7539e-09,0,0.0015341,0.00023438,3.7423e+08,1285.3,0,5.0806e+08,1057.7,13438,12178,1,12178,1,9.0957e-05,-8.0554e-11,0,0.0007337,-1.6491e-05,3.1792e+07,-22.873,0,2.5648e+08,42.56,12177,10873,1,10873,1,-0.0012491,-6.5935e-09,0,1.2125e-05,-0.00028624,-5.0806e+08,-1601,0,5.3988e+06,-170.98,10872,11561,1,11561,1,-0.00063062,-1.0618e-09,0,0.00040019,-0.00015138,-2.5648e+08,-274.68,0,1.3112e+08,-13.492,11560,12795,1,12795,1,0.00081254,7.4626e-10,0,0.0011218,0.00011846,2.3651e+08,236.38,0,3.4034e+08,171.31,12794,714.3,0,714.3,0,0.00083366,1.5525e-09,0,0.00042846,0.0001559,2.7275e+08,432.61,0,1.3219e+08,214.26,714.3,1
2468,4.93,12178,1,12178,1,0.00014151,1.9252e-09,0,0.00073036,-2.589e-05,-7.2251e+05,573.89,0,2.3881e+08,141.1,12177,13439,1,13439,1,0.0015383,5.691e-09,0,0.0015383,0.00023478,3.7426e+08,1618,0,5.0893e+08,1326.9,13438,12178,1,12178,1,9.1863e-05,2.059e-09,0,0.00073465,-1.6658e-05,3.2083e+07,620.27,0,2.5677e+08,57.443,12177,10873,1,10873,1,-0.0012513,-6.0403e-09,0,1.1454e-05,-0.00028702,-5.0893e+08,-1434.2,0,5.1468e+06,-181.12,10872,11561,1,11561,1,-0.00063134,6.1811e-10,0,0.00040179,-0.00015185,-2.5677e+08,162.94,0,1.3149e+08,-7.5642,11560,12795,1,12795,1,0.00081509,3.3491e-09,0,0.001125,0.0001186,2.3684e+08,980.51,0,3.4082e+08,207.69,12794,714.3,0,714.3,0,0.00083555,1.9285e-09,0,0.00042957,0.00015625,2.7307e+08,553.24,0,1.3235e+08,236.64,714.3,1
2468,4.94,12178,1,12178,1,0.00014253,2.3599e-09,0,0.00073204,-2.6077e-05,-7.2327e+05,722.2,0,2.3907e+08,200.16,12177,13439,1,13439,1,0.0015425,1.6481e-08,0,0.0015425,0.00023518,3.7428e+08,4765.4,0,5.0979e+08,1283.6,13438,12178,1,12178,1,9.2779e-05,9.1343e-10,0,0.00073558,-1.6825e-05,3.2378e+07,289.65,0,2.5706e+08,132.99,12177,10873,1,10873,1,-0.0012534,-1.1916e-08,0,1.0771e-05,-0.00028779,-5.0979e+08,-2950.5,0,4.8905e+06,-324.07,10872,11561,1,11561,1,-0.00063203,-7.8962e-10,0,0.00040339,-0.00015232,-2.5706e+08,-183.82,0,1.3187e+08,-3.3773,11560,12795,1,12795,1,0.00081763,5.4581e-09,0,0.0011282,0.00011873,2.3716e+08,1636.5,0,3.4129e+08,374.93,12794,714.3,0,714.3,0,0.00083741,5.1784e-09,0,0.00043068,0.0001566,2.7338e+08,1466.3,0,1.325e+08,262.26,714.3,1
2468,4.95,12178,1,12178,1,0.00014355,-1.2303e-09,0,0.00073375,-2.6264e-05,-7.2494e+05,-301.03,0,2.3936e+08,138.07,12177,13439,1,13439,1,0.0015466,5.1335e-09,0,0.0015466,0.00023558,3.7431e+08,1572.7,0,5.1064e+08,1217.6,13438,12178,1,12178,1,9.3689e-05,-8.9727e-10,0,0.00073656,-1.6994e-05,3.267e+07,-253.44,0,2.5736e+08,25.65,12177,10873,1,10873,1,-0.0012555,-8.1177e-09,0,1.0092e-05,-0.00028856,-5.1064e+08,-1968,0,4.6364e+06,-141.67,10872,11561,1,11561,1,-0.00063278,-3.0312e-09,0,0.00040501,-0.00015279,-2.5736e+08,-777.14,0,1.3225e+08,-20.757,11560,12795,1,12795,1,0.00082016,4.4153e-10,0,0.0011315,0.00011888,2.3749e+08,148.09,0,3.4179e+08,214.1,12794,714.3,0,714.3,0,0.00083932,2.1817e-09,0,0.00043181,0.00015695,2.737e+08,590.12,0,1.3266e+08,258.73,714.3,1
2468,4.96,12178,1,12178,1,0.00014459,-9.187e-10,0,0.00073545,-2.6454e-05,-7.2647e+05,-245.5,0,2.3962e+08,192.59,12177,13439,1,13439,1,0.0015508,7.0046e-09,0,0.0015508,0.00023597,3.7431e+08,1710.8,0,5.115e+08,1432.5,13438,12178,1,12178,1,9.461e-05,-3.0994e-10,0,0.0007375,-1.7163e-05,3.2965e+07,-88.354,0,2.5765e+08,107.78,12177,10873,1,10873,1,-0.0012576,-1.0611e-08,0,9.4039e-06,-0.00028934,-5.115e+08,-2588.9,0,4.3788e+06,-1124.2,10872,11561,1,11561,1,-0.00063349,-2.5835e-09,0,0.00040664,-0.00015326,-2.5765e+08,-724.86,0,1.3263e+08,29.604,11560,12795,1,12795,1,0.00082272,8.0902e-10,0,0.0011347,0.00011901,2.3781e+08,254.18,0,3.4226e+08,284.25,12794,714.3,0,714.3,0,0.0008412,2.9207e-09,0,0.00043293,0.0001573,2.7401e+08,785.24,0,1.3282e+08,274.65,714.3,1
2468,4.97,12178,1,12178,1,0.00014563,-1.2151e-09,0,0.00073714,-2.6645e-05,-7.2676e+05,-342.63,0,2.3989e+08,152.54,12177,13439,1,13439,1,0.001555,9.2501e-09,0,0.001555,0.00023637,3.7432e+08,2331.9,0,5.1235e+08,1374.4,13438,12178,1,12178,1,9.554e-05,-3.8837e-10,0,0.00073842,-1.7334e-05,3.3263e+07,-108.06,0,2.5793e+08,78.841,12177,10873,1,10873,1,-0.0012597,-1.1112e-08,0,8.7068e-06,-0.00029011,-5.1235e+08,-2726.9,0,4.1182e+06,-236.05,10872,11561,1,11561,1,-0.00063417,-3.896e-09,0,0.00040827,-0.00015374,-2.5793e+08,-1123.5,0,1.3301e+08,-22.536,11560,12795,1,12795,1,0.00082528,1.1757e-09,0,0.001138,0.00011914,2.3813e+08,342.32,0,3.4273e+08,240.89,12794,714.3,0,714.3,0,0.00084308,3.8582e-09,0,0.00043405,0.00015765,2.7432e+08,1069.7,0,1.3297e+08,263.96,714.3,1
2468,4.98,12178,1,12178,1,0.00014667,1.5877e-09,0,0.00073882,-2.6835e-05,-7.2809e+05,450.71,0,2.4015e+08,130.1,12177,13439,1,13439,1,0.0015592,1.1963e-08,0,0.0015592,0.00023676,3.7432e+08,3744.8,0,5.132e+08,1662.3,13438,12178,1,12178,1,9.6468e-05,9.5356e-10,0,0.00073934,-1.7505e-05,3.356e+07,255.74,0,2.5821e+08,44.039,12177,10873,1,10873,1,-0.0012618,-1.1023e-08,0,8.0085e-06,-0.00029088,-5.132e+08,-2709,0,3.8577e+06,-957.68,10872,11561,1,11561,1,-0.00063487,-8.815e-10,0,0.00040989,-0.0001542,-2.5821e+08,-273.79,0,1.3338e+08,-57.726,11560,12795,1,12795,1,0.00082782,3.9799e-09,0,0.0011412,0.00011927,2.3844e+08,1115.9,0,3.432e+08,232.17,12794,714.3,0,714.3,0,0.00084495,3.9684e-09,0,0.00043517,0.000158,2.7462e+08,1109.5,0,1.3313e+08,330.71,714.3,1
2468,4.99,12178,1,12178,1,0.00014772,-1.5291e-09,0,0.00074055,-2.7027e-05,-7.2975e+05,-421.73,0,2.4043e+08,147.35,12177,13439,1,13439,1,0.0015634,4.8409e-09,0,0.0015634,0.00023716,3.7433e+08,1314.9,0,5.1407e+08,1549.7,13438,12178,1,12178,1,9.74e-05,-1.1979e-09,0,0.0007403,-1.7677e-05,3.3857e+07,-335.9,0,2.585e+08,42.204,12177,10873,1,10873,1,-0.0012639,-1.0009e-08,0,7.3136e-06,-0.00029167,-5.1407e+08,-2679.8,0,3.5985e+06,-1990.4,10872,11561,1,11561,1,-0.00063559,-3.1355e-09,0,0.00041154,-0.00015468,-2.585e+08,-907.94,0,1.3376e+08,-19.942,11560,12795,1,12795,1,0.00083041,2.2202e-10,0,0.0011445,0.00011941,2.3876e+08,66.171,0,3.4369e+08,242.34,12794,714.3,0,714.3,0,0.00084686,2.4889e-09,0,0.00043631,0.00015835,2.7494e+08,697.48,0,1.3329e+08,317.29,714.3,1
2468,5,12178,1,12178,1,0.00014878,1.0426e-09,0,0.00074225,-2.7221e-05,-7.3095e+05,298.01,0,2.4069e+08,161.35,12177,13439,1,13439,1,0.0015676,6.2927e-09,0,0.0015676,0.00023755,3.7432e+08,1548.2,0,5.1492e+08,1774.9,13438,12178,1,12178,1,9.8351e-05,1.028e-09,0,0.00074122,-1.7853e-05,3.416e+07,292.97,0,2.5878e+08,45.203,12177,10873,1,10873,1,-0.001266,-9.1051e-09,0,6.5966e-06,-0.00029245,-5.1492e+08,-2178.6,0,3.3313e+06,-267.07,10872,11561,1,11561,1,-0.00063628,-1.0717e-10,0,0.00041318,-0.00015516,-2.5878e+08,-32.483,0,1.3414e+08,-31.021,11560,12795,1,12795,1,0.00083299,2.3146e-09,0,0.0011478,0.00011954,2.3908e+08,635.02,0,3.4416e+08,265.45,12794,714.3,0,714.3,0,0.00084875,2.0383e-09,0,0.00043745,0.0001587,2.7525e+08,541.95,0,1.3344e+08,333.37,714.3,1
2468,5.01,12178,1,12178,1,0.00014985,1.7621e-09,0,0.00074397,-2.7416e-05,-7.3145e+05,527.72,0,2.4095e+08,160.2,12177,13439,1,13439,1,0.0015719,7.9775e-09,0,0.0015719,0.00023795,3.7431e+08,2195.6,0,5.1577e+08,1727.1,13438,12178,1,12178,1,9.9305e-05,1.9363e-09,0,0.00074214,-1.8028e-05,3.4464e+07,578.62,0,2.5906e+08,46.113,12177,10873,1,10873,1,-0.0012681,-9.6225e-09,0,5.8778e-06,-0.00029323,-5.1577e+08,-2276.6,0,3.0636e+06,-330.57,10872,11561,1,11561,1,-0.00063696,2.7915e-10,0,0.00041483,-0.00015564,-2.5906e+08,76.034,0,1.3452e+08,-42.642,11560,12795,1,12795,1,0.0008356,3.335e-09,0,0.0011511,0.00011967,2.394e+08,984.05,0,3.4463e+08,247.08,12794,714.3,0,714.3,0,0.00085065,2.4563e-09,0,0.00043859,0.00015906,2.7555e+08,674.26,0,1.336e+08,332.54,714.3,1
2468,5.02,12178,1,12178,1,0.00015092,1.0116e-09,0,0.00074569,-2.7613e-05,-7.3304e+05,325.84,0,2.4121e+08,209.53,12177,13439,1,13439,1,0.0015762,9.4651e-09,0,0.0015762,0.00023834,3.743e+08,2303.5,0,5.1663e+08,1698.2,13438,12178,1,12178,1,0.00010027,1.0076e-09,0,0.00074308,-1.8205e-05,3.477e+07,318.88,0,2.5934e+08,92.865,12177,10873,1,10873,1,-0.0012702,-1.0688e-08,0,5.151e-06,-0.00029402,-5.1663e+08,-2523.2,0,2.7932e+06,-150.46,10872,11561,1,11561,1,-0.00063766,-4.2335e-10,0,0.0004165,-0.00015612,-2.5934e+08,-97.13,0,1.3491e+08,7.5703,11560,12795,1,12795,1,0.00083821,2.5648e-09,0,0.0011544,0.0001198,2.3971e+08,794.91,0,3.451e+08,313.49,12794,714.3,0,714.3,0,0.00085256,2.8019e-09,0,0.00043974,0.00015941,2.7586e+08,742.28,0,1.3375e+08,303.88,714.3,1
2468,5.03,12178,1,12178,1,0.00015201,2.7691e-10,0,0.00074741,-2.7811e-05,-7.3388e+05,123.6,0,2.4147e+08,192.92,12177,13439,1,13439,1,0.0015804,9.1334e-09,0,0.0015804,0.00023874,3.7428e+08,2248.1,0,5.1748e+08,1689.2,13438,12178,1,12178,1,0.00010124,2.5989e-10,0,0.000744,-1.8383e-05,3.5078e+07,81.267,0,2.5962e+08,80.581,12177,10873,1,10873,1,-0.0012723,-1.1018e-08,0,4.416e-06,-0.00029481,-5.1748e+08,-2594.7,0,2.5198e+06,-144.26,10872,11561,1,11561,1,-0.00063834,-1.1919e-09,0,0.00041817,-0.00015661,-2.5962e+08,-313.39,0,1.3529e+08,5.4451,11560,12795,1,12795,1,0.00084083,1.8792e-09,0,0.0011577,0.00011993,2.4002e+08,582.12,0,3.4557e+08,278.73,12794,714.3,0,714.3,0,0.00085447,3.023e-09,0,0.00044089,0.00015977,2.7616e+08,802.4,0,1.3391e+08,295.41,714.3,1
2468,5.04,12178,1,12178,1,0.00015309,7.1783e-10,0,0.00074912,-2.801e-05,-7.3493e+05,246.83,0,2.4173e+08,190.07,12177,13439,1,13439,1,0.0015847,7.1423e-09,0,0.0015847,0.00023913,3.7425e+08,2445.3,0,5.1833e+08,1981.4,13438,12178,1,12178,1,0.00010221,1.0139e-09,0,0.0007449,-1.8563e-05,3.5387e+07,290.31,0,2.5989e+08,43.808,12177,10873,1,10873,1,-0.0012744,-1.1109e-08,0,3.6774e-06,-0.0002956,-5.1833e+08,-2591.5,0,2.2453e+06,-225.53,10872,11561,1,11561,1,-0.00063901,-2.4334e-10,0,0.00041985,-0.00015709,-2.5989e+08,-59.673,0,1.3567e+08,-40.472,11560,12795,1,12795,1,0.00084346,1.9368e-09,0,0.0011611,0.00012006,2.4033e+08,608.19,0,3.4603e+08,284.14,12794,714.3,0,714.3,0,0.00085637,2.0778e-09,0,0.00044205,0.00016012,2.7646e+08,573.92,0,1.3406e+08,371.22,714.3,1
2468,5.05,12178,1,12178,1,0.00015419,1.9964e-10,0,0.00075085,-2.821e-05,-7.3656e+05,105.98,0,2.4199e+08,232.71,12177,13439,1,13439,1,0.001589,8.261e-09,0,0.001589,0.00023952,3.7422e+08,2828.3,0,5.1918e+08,2024.5,13438,12178,1,12178,1,0.00010319,3.5181e-10,0,0.00074582,-1.8743e-05,3.5697e+07,100.42,0,2.6017e+08,71.076,12177,10873,1,10873,1,-0.0012765,-1.1773e-08,0,2.9342e-06,-0.00029639,-5.1918e+08,-2730.3,0,1.9693e+06,-38.696,10872,11561,1,11561,1,-0.00063969,-5.8694e-10,0,0.00042154,-0.00015758,-2.6017e+08,-145.3,0,1.3606e+08,4.1078,11560,12795,1,12795,1,0.00084609,1.1187e-09,0,0.0011644,0.00012019,2.4064e+08,367.17,0,3.465e+08,308.16,12794,714.3,0,714.3,0,0.00085829,2.2374e-09,0,0.00044321,0.00016048,2.7676e+08,619.52,0,1.3421e+08,360.28,714.3,1
2468,5.06,12178,1,12178,1,0.00015529,-3.4031e-10,0,0.00075257,-2.8411e-05,-7.3756e+05,-52.409,0,2.4224e+08,257.97,12177,13439,1,13439,1,0.0015933,8.267e-09,0,0.0015933,0.00023991,3.7419e+08,2466.5,0,5.2002e+08,2017.1,13438,12178,1,12178,1,0.00010418,-1.8969e-11,0,0.00074672,-1.8925e-05,3.6008e+07,-6.3232,0,2.6044e+08,117.53,12177,10873,1,10873,1,-0.0012785,-1.4195e-08,0,2.1832e-06,-0.00029718,-5.2002e+08,-3320.8,0,1.6906e+06,-49.276,10872,11561,1,11561,1,-0.00064035,-1.4367e-09,0,0.00042323,-0.00015806,-2.6044e+08,-365.83,0,1.3644e+08,33.622,11560,12795,1,12795,1,0.00084872,9.3937e-10,0,0.0011678,0.00012031,2.4094e+08,292.87,0,3.4697e+08,326.04,12794,714.3,0,714.3,0,0.00086019,2.9617e-09,0,0.00044436,0.00016083,2.7705e+08,760.75,0,1.3437e+08,348.29,714.3,1
2468,5.07,12178,1,12178,1,0.00015639,-6.3109e-10,0,0.00075429,-2.8613e-05,-7.3877e+05,-142.02,0,2.4249e+08,264.36,12177,13439,1,13439,1,0.0015975,7.6808e-09,0,0.0015975,0.0002403,3.7415e+08,2629.6,0,5.2086e+08,2061.4,13438,12178,1,12178,1,0.00010517,-2.1553e-10,0,0.00074762,-1.9107e-05,3.632e+07,-60.206,0,2.6071e+08,103.96,12177,10873,1,10873,1,-0.0012806,-1.3801e-08,0,1.4304e-06,-0.00029798,-5.2086e+08,-3229.8,0,1.4114e+06,-36.135,10872,11561,1,11561,1,-0.00064102,-1.4302e-09,0,0.00042493,-0.00015855,-2.6071e+08,-387.2,0,1.3683e+08,30.466,11560,12795,1,12795,1,0.00085135,2.838e-10,0,0.0011711,0.00012044,2.4125e+08,89.923,0,3.4743e+08,338.55,12794,714.3,0,714.3,0,0.0008621,2.662e-09,0,0.00044553,0.00016118,2.7735e+08,695.14,0,1.3452e+08,369.65,714.3,1
2468,5.08,12178,1,12178,1,0.0001575,1.1379e-09,0,0.00075602,-2.8816e-05,-7.3993e+05,351.24,0,2.4275e+08,256.04,12177,13439,1,13439,1,0.0016019,8.9961e-09,0,0.0016019,0.0002407,3.741e+08,3079.5,0,5.2171e+08,2259.8,13438,12178,1,12178,1,0.00010617,1.4476e-09,0,0.0007485,-1.9291e-05,3.6634e+07,415.33,0,2.6098e+08,83.367,12177,10873,1,10873,1,-0.0012827,-1.2058e-08,0,6.7011e-07,-0.00029878,-5.2171e+08,-2779.7,0,1.1296e+06,-48.932,10872,11561,1,11561,1,-0.00064167,8.5211e-11,0,0.00042664,-0.00015904,-2.6098e+08,21.929,0,1.3721e+08,13.891,11560,12795,1,12795,1,0.00085401,2.3413e-09,0,0.0011745,0.00012057,2.4156e+08,700.6,0,3.4788e+08,336.33,12794,714.3,0,714.3,0,0.00086401,2.4947e-09,0,0.0004467,0.00016154,2.7764e+08,678.41,0,1.3467e+08,392.03,714.3,1
2468,5.09,12178,1,12178,1,0.00015862,3.263e-10,0,0.00075775,-2.902e-05,-7.4109e+05,131.94,0,2.4299e+08,311.53,12177,13439,1,13439,1,0.0016062,1.1751e-08,0,0.0016062,0.00024108,3.7405e+08,2949.4,0,5.2255e+08,2300.1,13438,12178,1,12178,1,0.00010717,1.0798e-10,0,0.00074956,-1.9475e-05,3.695e+07,33.935,0,2.6124e+08,154.11,12177,10873,1,10873,1,-0.0012848,-1.6679e-08,0,7.3079e-08,-0.00029957,-5.2255e+08,-3931.4,0,8.4518e+05,-148.3,10872,11561,1,11561,1,-0.00064232,-1.194e-09,0,0.00042818,-0.00015953,-2.6124e+08,-330,0,1.3759e+08,39.724,11560,12795,1,12795,1,0.00085667,2.196e-09,0,0.0011777,0.00012069,2.4186e+08,656.02,0,3.4834e+08,459.1,12794,714.3,0,714.3,0,0.00086592,4.1539e-09,0,0.00044785,0.00016189,2.7793e+08,1072.9,0,1.3482e+08,406.01,714.3,1
2468,5.1,12178,1,12178,1,0.00015974,1.1592e-09,0,0.00075954,-2.9226e-05,-7.4218e+05,367.88,0,2.4324e+08,285.45,12177,13439,1,13439,1,0.0016105,7.9291e-09,0,0.0016105,0.00024148,3.74e+08,2662.9,0,5.234e+08,2530.8,13438,12178,1,12178,1,0.00010818,1.7899e-09,0,0.00075198,-1.9662e-05,3.7267e+07,498.81,0,2.615e+08,107.77,12177,10873,1,10873,1,-0.0012869,-1.5598e-08,0,8.4565e-07,-0.00030038,-5.234e+08,-3620.2,0,5.5947e+05,-306.48,10872,11561,1,11561,1,-0.00064297,-4.1568e-10,0,0.00042836,-0.00016002,-2.615e+08,-101.66,0,1.3798e+08,-18.615,11560,12795,1,12795,1,0.00085935,3.2353e-09,0,0.0011795,0.00012081,2.4216e+08,962.95,0,3.4879e+08,449.86,12794,714.3,0,714.3,0,0.00086784,3.1106e-09,0,0.00044893,0.00016225,2.7822e+08,835.04,0,1.3498e+08,480.97,714.3,1
2468,5.11,12178,1,12178,1,0.00016088,7.6666e-10,0,0.00076133,-2.9433e-05,-7.4307e+05,280.6,0,2.4349e+08,290.2,12177,13439,1,13439,1,0.0016149,1.156e-08,0,0.0016149,0.00024187,3.7395e+08,3231.8,0,5.2425e+08,2262.5,13438,12178,1,12178,1,0.0001092,8.8889e-10,0,0.00075443,-1.9849e-05,3.7587e+07,269.32,0,2.6177e+08,141.69,12177,10873,1,10873,1,-0.0012889,-1.4378e-08,0,1.6233e-06,-0.00030118,-5.2425e+08,-3294,0,2.6937e+05,-132.33,10872,11561,1,11561,1,-0.00064362,-1.032e-09,0,0.00042853,-0.00016052,-2.6177e+08,-247.58,0,1.3837e+08,31.807,11560,12795,1,12795,1,0.00086204,2.5491e-09,0,0.0011813,0.00012094,2.4246e+08,792.67,0,3.4926e+08,406.08,12794,714.3,0,714.3,0,0.00086977,3.6565e-09,0,0.00045002,0.00016261,2.7851e+08,957.14,0,1.3513e+08,392.2,714.3,1
2468,5.12,12178,1,12178,1,0.00016202,1.7613e-09,0,0.00076312,-2.9641e-05,-7.4453e+05,568.72,0,2.4373e+08,298.86,12177,13439,1,13439,1,0.0016192,1.2234e-08,0,0.0016192,0.00024226,3.7388e+08,2978.3,0,5.2509e+08,2612.7,13438,12178,1,12178,1,0.00011023,2.047e-09,0,0.00075687,-2.0038e-05,3.7909e+07,610.07,0,2.6202e+08,121.82,12177,10873,1,10873,1,-0.001291,-1.6642e-08,0,2.4107e-06,-0.00030199,-5.2509e+08,-3830,0,10851,-190.3,10872,11561,1,11561,1,-0.00064425,-3.0999e-10,0,0.00042869,-0.00016102,-2.6202e+08,-73.957,0,1.3875e+08,-1.0121,11560,12795,1,12795,1,0.00086474,4.0115e-09,0,0.0011831,0.00012106,2.4276e+08,1246.4,0,3.497e+08,391.38,12794,714.3,0,714.3,0,0.00087168,4.0268e-09,0,0.00045111,0.00016296,2.788e+08,1064.5,0,1.3528e+08,460.65,714.3,1
2468,5.13,12178,1,12178,1,0.00016316,1.7131e-09,0,0.00076492,-2.9851e-05,-7.4557e+05,573,0,2.44e+08,288.11,12177,13439,1,13439,1,0.0016236,1.079e-08,0,0.0016236,0.00024265,3.7381e+08,3342.4,0,5.2593e+08,2575.3,13438,12178,1,12178,1,0.00011126,2.0146e-09,0,0.00075933,-2.0227e-05,3.8231e+07,629.41,0,2.6229e+08,140.05,12177,10873,1,10873,1,-0.0012931,-1.5912e-08,0,3.2002e-06,-0.0003028,-5.2593e+08,-3637.6,0,3.0186e+05,-2204.4,10872,11561,1,11561,1,-0.00064489,-5.6866e-10,0,0.00042886,-0.00016152,-2.6229e+08,-131.57,0,1.3914e+08,23.15,11560,12795,1,12795,1,0.00086744,4.4701e-09,0,0.001185,0.00012118,2.4306e+08,1379,0,3.5016e+08,408.57,12794,714.3,0,714.3,0,0.00087361,4.0063e-09,0,0.0004522,0.00016332,2.7909e+08,1077.9,0,1.3539e+08,468.04,714.3,1
2468,5.14,12178,1,12178,1,0.00016431,1.0549e-09,0,0.0007667,-3.0061e-05,-7.464e+05,396.82,0,2.4425e+08,314.43,12177,13439,1,13439,1,0.001628,1.3683e-08,0,0.001628,0.00024303,3.7373e+08,3588.4,0,5.2676e+08,2660.1,13438,12178,1,12178,1,0.0001123,1.1113e-09,0,0.00076178,-2.0419e-05,3.8556e+07,346.59,0,2.6253e+08,138.86,12177,10873,1,10873,1,-0.0012951,-2.2054e-08,0,4.0012e-06,-0.0003036,-5.2676e+08,-5188.1,0,5.9792e+05,-1340.7,10872,11561,1,11561,1,-0.0006455,-1.2516e-09,0,0.00042899,-0.00016201,-2.6253e+08,-302.41,0,1.3952e+08,14.739,11560,12795,1,12795,1,0.00087013,4.3156e-09,0,0.0011868,0.00012129,2.4335e+08,1328.4,0,3.506e+08,442.24,12794,714.3,0,714.3,0,0.00087551,5.4708e-09,0,0.00045328,0.00016368,2.7936e+08,1448.5,0,1.355e+08,496.9,714.3,1
2468,5.15,12178,1,12178,1,0.00016547,-2.752e-09,0,0.00076852,-3.0273e-05,-7.4743e+05,-678.96,0,2.4452e+08,269.66,12177,13439,1,13439,1,0.0016323,9.0016e-09,0,0.0016323,0.00024342,3.7368e+08,3081.8,0,5.2759e+08,2418.5,13438,12178,1,12178,1,0.00011334,-1.8924e-09,0,0.00076429,-2.061e-05,3.8879e+07,-550.98,0,2.6279e+08,101.56,12177,10873,1,10873,1,-0.0012972,-1.7646e-08,0,4.8018e-06,-0.00030441,-5.2759e+08,-4100.6,0,8.934e+05,-214.69,10872,11561,1,11561,1,-0.00064614,-5.6622e-09,0,0.00042915,-0.00016251,-2.6279e+08,-1438.8,0,1.3992e+08,1.8649,11560,12795,1,12795,1,0.00087283,3.3307e-10,0,0.0011886,0.00012142,2.4364e+08,102.78,0,3.5106e+08,332.25,12794,714.3,0,714.3,0,0.00087746,4.1349e-09,0,0.00045439,0.00016404,2.7965e+08,1087.4,0,1.3562e+08,440.98,714.3,1
2468,5.16,12178,1,12178,1,0.00016664,-5.5861e-10,0,0.00077033,-3.0487e-05,-7.4875e+05,-115.93,0,2.4478e+08,288.74,12177,13439,1,13439,1,0.0016367,9.6189e-09,0,0.0016367,0.0002438,3.7358e+08,3293.1,0,5.2843e+08,2873.8,13438,12178,1,12178,1,0.00011439,-3.382e-10,0,0.00076679,-2.0804e-05,3.9205e+07,-87.6,0,2.6305e+08,67.322,12177,10873,1,10873,1,-0.0012992,-1.685e-08,0,5.6267e-06,-0.00030522,-5.2843e+08,-3871.3,0,1.1973e+06,-1127.8,10872,11561,1,11561,1,-0.00064678,-1.555e-09,0,0.0004293,-0.00016301,-2.6305e+08,-437.06,0,1.4031e+08,4.6016,11560,12795,1,12795,1,0.00087556,6.5281e-10,0,0.0011905,0.00012154,2.4393e+08,208.92,0,3.5151e+08,393.91,12794,714.3,0,714.3,0,0.0008794,3.0655e-09,0,0.0004555,0.0001644,2.7993e+08,805.2,0,1.3573e+08,501.41,714.3,1
2468,5.17,12178,1,12178,1,0.00016781,3.2368e-10,0,0.00077213,-3.0701e-05,-7.501e+05,125.22,0,2.4503e+08,352.31,12177,13439,1,13439,1,0.0016411,1.2249e-08,0,0.0016411,0.00024419,3.7348e+08,2912.7,0,5.2926e+08,2954.5,13438,12178,1,12178,1,0.00011545,3.3157e-10,0,0.00076927,-2.0999e-05,3.9534e+07,99.994,0,2.6329e+08,144.47,12177,10873,1,10873,1,-0.0013012,-1.9825e-08,0,6.4495e-06,-0.00030603,-5.2926e+08,-4597.5,0,1.5006e+06,-244.94,10872,11561,1,11561,1,-0.00064737,-9.8607e-10,0,0.00042943,-0.00016352,-2.6329e+08,-303.33,0,1.407e+08,-2.6851,11560,12795,1,12795,1,0.00087829,2.6101e-09,0,0.0011922,0.00012165,2.4422e+08,766.59,0,3.5195e+08,522.01,12794,714.3,0,714.3,0,0.00088132,4.3036e-09,0,0.0004566,0.00016476,2.8021e+08,1101.1,0,1.3584e+08,538.02,714.3,1
2468,5.18,12178,1,12178,1,0.000169,-2.5973e-10,0,0.00077396,-3.0917e-05,-7.5126e+05,-29.379,0,2.453e+08,332.24,12177,13439,1,13439,1,0.0016456,1.1404e-08,0,0.0016456,0.00024458,3.734e+08,3904.3,0,5.301e+08,3135.2,13438,12178,1,12178,1,0.00011651,-2.5583e-11,0,0.00077179,-2.1196e-05,3.9865e+07,-7.3507,0,2.6355e+08,73.113,12177,10873,1,10873,1,-0.0013033,-1.6062e-08,0,7.2701e-06,-0.00030686,-5.301e+08,-3626.4,0,1.8024e+06,-169.39,10872,11561,1,11561,1,-0.00064802,-7.8091e-10,0,0.00042958,-0.00016403,-2.6355e+08,-184.38,0,1.4109e+08,-15.896,11560,12795,1,12795,1,0.00088105,4.6359e-10,0,0.0011941,0.00012177,2.4451e+08,151.8,0,3.524e+08,471.89,12794,714.3,0,714.3,0,0.00088329,2.7753e-09,0,0.00045772,0.00016512,2.8049e+08,767.93,0,1.3595e+08,563.18,714.3,1
2468,5.19,12178,1,12178,1,0.0001702,-1.0998e-09,0,0.00077579,-3.1136e-05,-7.5238e+05,-275.38,0,2.4555e+08,388.82,12177,13439,1,13439,1,0.00165,1.1686e-08,0,0.00165,0.00024496,3.733e+08,4000.9,0,5.3094e+08,3250.8,13438,12178,1,12178,1,0.0001176,-1.149e-09,0,0.00077432,-2.1395e-05,4.02e+07,-325.02,0,2.638e+08,117.47,12177,10873,1,10873,1,-0.0013054,-1.9033e-08,0,8.1101e-06,-0.00030768,-5.3094e+08,-4312.2,0,2.1111e+06,-44.27,10872,11561,1,11561,1,-0.00064861,-2.0189e-09,0,0.0004297,-0.00016454,-2.638e+08,-554.07,0,1.4148e+08,26.168,11560,12795,1,12795,1,0.00088382,1.9112e-10,0,0.0011959,0.00012189,2.448e+08,49.034,0,3.5255e+08,536.81,12794,714.3,0,714.3,0,0.00088524,3.4267e-09,0,0.00045884,0.00016548,2.8077e+08,924.2,0,1.3606e+08,569.71,714.3,1
2468,5.2,12178,1,12178,1,0.0001714,8.6487e-10,0,0.00077761,-3.1356e-05,-7.5305e+05,265.71,0,2.458e+08,401.77,12177,13439,1,13439,1,0.0016545,1.409e-08,0,0.0016545,0.00024535,3.7319e+08,4094.4,0,5.3177e+08,3467.2,13438,12178,1,12178,1,0.00011868,7.0295e-10,0,0.00077684,-2.1595e-05,4.0535e+07,215.06,0,2.6404e+08,167.24,12177,10873,1,10873,1,-0.0013074,-1.9982e-08,0,8.9558e-06,-0.00030851,-5.3177e+08,-4508.3,0,2.4216e+06,-128.93,10872,11561,1,11561,1,-0.00064921,-5.5961e-10,0,0.00042981,-0.00016505,-2.6404e+08,-134.38,0,1.4187e+08,37.917,11560,12795,1,12795,1,0.00088659,2.5071e-09,0,0.0011977,0.000122,2.4509e+08,718.38,0,3.5248e+08,520.69,12794,714.3,0,714.3,0,0.00088718,4.1751e-09,0,0.00045996,0.00016584,2.8104e+08,1057.9,0,1.3617e+08,581.84,714.3,1
2468,5.21,12178,1,12178,1,0.0001726,4.1846e-10,0,0.00077944,-3.1576e-05,-7.5467e+05,167.09,0,2.4605e+08,414.72,12177,13439,1,13439,1,0.001659,1.3569e-08,0,0.001659,0.00024574,3.7308e+08,4645.3,0,5.3261e+08,3537.4,13438,12178,1,12178,1,0.00011978,6.5683e-10,0,0.00077938,-2.1795e-05,4.0872e+07,190.1,0,2.6429e+08,151.92,12177,10873,1,10873,1,-0.0013095,-2.0602e-08,0,9.7993e-06,-0.00030933,-5.3261e+08,-4621.3,0,2.7309e+06,-50.892,10872,11561,1,11561,1,-0.00064982,-4.3193e-10,0,0.00042994,-0.00016556,-2.6429e+08,-108.6,0,1.4227e+08,28.832,11560,12795,1,12795,1,0.00088938,1.6602e-09,0,0.0011995,0.00012212,2.4537e+08,499.71,0,3.5242e+08,536.74,12794,714.3,0,714.3,0,0.00088914,3.9638e-09,0,0.00046109,0.00016621,2.8132e+08,1037.5,0,1.3628e+08,607.62,714.3,1
2468,5.22,12178,1,12178,1,0.00017382,-9.2901e-10,0,0.00078126,-3.1797e-05,-7.5545e+05,-203.17,0,2.463e+08,457.83,12177,13439,1,13439,1,0.0016634,1.3846e-08,0,0.0016634,0.00024611,3.7297e+08,4230.9,0,5.3343e+08,3668.2,13438,12178,1,12178,1,0.00012087,-4.0615e-10,0,0.00078193,-2.1997e-05,4.121e+07,-119.91,0,2.6452e+08,192.59,12177,10873,1,10873,1,-0.0013115,-2.5171e-08,0,1.0655e-05,-0.00031016,-5.3343e+08,-5756.1,0,3.0444e+06,-120.48,10872,11561,1,11561,1,-0.0006504,-2.3673e-09,0,0.00043004,-0.00016608,-2.6452e+08,-643.1,0,1.4266e+08,57.365,11560,12795,1,12795,1,0.00089215,7.2964e-10,0,0.0012013,0.00012223,2.4565e+08,210.84,0,3.5233e+08,596.27,12794,714.3,0,714.3,0,0.00089108,4.8481e-09,0,0.00046221,0.00016657,2.8158e+08,1226.4,0,1.3639e+08,627.93,714.3,1
2468,5.23,12178,1,12178,1,0.00017504,-1.5549e-09,0,0.0007831,-3.202e-05,-7.5634e+05,-398.33,0,2.4655e+08,452.01,12177,13439,1,13439,1,0.0016679,1.374e-08,0,0.0016679,0.0002465,3.7285e+08,4704.1,0,5.3426e+08,3784.6,13438,12178,1,12178,1,0.00012198,-1.5902e-09,0,0.00078449,-2.2201e-05,4.155e+07,-448,0,2.6476e+08,154.64,12177,10873,1,10873,1,-0.0013136,-2.3774e-08,0,1.1519e-05,-0.00031099,-5.3426e+08,-5353,0,3.3603e+06,-97.795,10872,11561,1,11561,1,-0.00065099,-2.8546e-09,0,0.00043014,-0.00016659,-2.6476e+08,-822.08,0,1.4305e+08,44.19,11560,12795,1,12795,1,0.00089496,1.8234e-10,0,0.0012031,0.00012234,2.4593e+08,50.867,0,3.5226e+08,601.71,12794,714.3,0,714.3,0,0.00089305,4.308e-09,0,0.00046334,0.00016693,2.8186e+08,1137.1,0,1.365e+08,661.43,714.3,1
2468,5.24,12178,1,12178,1,0.00017627,-1.0266e-09,0,0.00078495,-3.2245e-05,-7.577e+05,-266.01,0,2.468e+08,488.01,12177,13439,1,13439,1,0.0016725,1.5143e-08,0,0.0016725,0.00024689,3.7273e+08,5184.3,0,5.351e+08,3947.7,13438,12178,1,12178,1,0.0001231,-1.2411e-09,0,0.00078707,-2.2406e-05,4.1893e+07,-354.69,0,2.6501e+08,187.64,12177,10873,1,10873,1,-0.0013156,-2.342e-08,0,1.2392e-05,-0.00031183,-5.351e+08,-5247.4,0,3.6791e+06,-111.13,10872,11561,1,11561,1,-0.00065158,-2.5563e-09,0,0.00043025,-0.00016712,-2.6501e+08,-791.05,0,1.4345e+08,69.359,11560,12795,1,12795,1,0.00089779,5.8212e-10,0,0.0012049,0.00012245,2.4621e+08,141.98,0,3.5218e+08,654.23,12794,714.3,0,714.3,0,0.00089502,4.5738e-09,0,0.00046448,0.0001673,2.8213e+08,1208.6,0,1.3661e+08,674.88,714.3,1
2468,5.25,12178,1,12178,1,0.00017751,1.8995e-09,0,0.00078678,-3.2471e-05,-7.5899e+05,549.47,0,2.4704e+08,497.47,12177,13439,1,13439,1,0.001677,1.8698e-08,0,0.001677,0.00024727,3.7259e+08,4883.4,0,5.3592e+08,4348.1,13438,12178,1,12178,1,0.00012422,1.7198e-09,0,0.00078963,-2.2613e-05,4.2236e+07,538.66,0,2.6523e+08,215.01,12177,10873,1,10873,1,-0.0013176,-2.6804e-08,0,1.3273e-05,-0.00031266,-5.3592e+08,-6002,0,4.0005e+06,-122.63,10872,11561,1,11561,1,-0.00065215,-4.9782e-10,0,0.00043033,-0.00016763,-2.6523e+08,-132.51,0,1.4384e+08,44.163,11560,12795,1,12795,1,0.00090059,4.6943e-09,0,0.0012067,0.00012256,2.4649e+08,1287.3,0,3.5208e+08,606.12,12794,714.3,0,714.3,0,0.00089697,5.8855e-09,0,0.00046562,0.00016766,2.8239e+08,1464,0,1.3671e+08,732.44,714.3,1
2468,5.26,12178,1,12178,1,0.00017876,-1.2634e-09,0,0.00078864,-3.2699e-05,-7.6025e+05,-291.58,0,2.4729e+08,522.14,12177,13439,1,13439,1,0.0016815,1.7352e-08,0,0.0016815,0.00024765,3.7247e+08,5940.3,0,5.3675e+08,4124.5,13438,12178,1,12178,1,0.00012534,-1.1786e-09,0,0.00079223,-2.282e-05,4.2581e+07,-351.25,0,2.6547e+08,237.96,12177,10873,1,10873,1,-0.0013197,-2.4182e-08,0,1.4149e-05,-0.0003135,-5.3675e+08,-5365.7,0,4.3196e+06,-137.64,10872,11561,1,11561,1,-0.00065274,-3.3757e-09,0,0.00043043,-0.00016816,-2.6547e+08,-944.05,0,1.4424e+08,85.475,11560,12795,1,12795,1,0.00090343,5.133e-10,0,0.0012085,0.00012267,2.4677e+08,142.1,0,3.5199e+08,680.41,12794,714.3,0,714.3,0,0.00089895,4.9207e-09,0,0.00046677,0.00016803,2.8266e+08,1309.1,0,1.3682e+08,702.35,714.3,1
2468,5.27,12178,1,12178,1,0.00018001,8.1347e-10,0,0.00079049,-3.2928e-05,-7.6103e+05,271.69,0,2.4752e+08,513.98,12177,13439,1,13439,1,0.0016861,1.7115e-08,0,0.0016861,0.00024804,3.7231e+08,5859.2,0,5.3758e+08,4605.2,13438,12178,1,12178,1,0.00012649,1.5202e-09,0,0.00079481,-2.303e-05,4.2929e+07,426.86,0,2.657e+08,163.94,12177,10873,1,10873,1,-0.0013217,-2.7866e-08,0,1.5046e-05,-0.00031434,-5.3758e+08,-6168.8,0,4.646e+06,-123.11,10872,11561,1,11561,1,-0.0006533,-5.326e-10,0,0.00043051,-0.00016868,-2.657e+08,-148.99,0,1.4463e+08,4.5304,11560,12795,1,12795,1,0.00090628,2.9913e-09,0,0.0012103,0.00012278,2.4704e+08,808.35,0,3.5189e+08,698.21,12794,714.3,0,714.3,0,0.00090092,5.1244e-09,0,0.00046792,0.00016839,2.8292e+08,1340.8,0,1.3693e+08,802.65,714.3,1
2468,5.28,12178,1,12178,1,0.00018128,6.7091e-12,0,0.00079235,-3.3159e-05,-7.6217e+05,69.778,0,2.4777e+08,564.55,12177,13439,1,13439,1,0.0016906,1.8017e-08,0,0.0016906,0.00024842,3.7217e+08,6168.1,0,5.384e+08,4512.4,13438,12178,1,12178,1,0.00012763,2.3379e-10,0,0.00079743,-2.3241e-05,4.3279e+07,66.771,0,2.6594e+08,226.77,12177,10873,1,10873,1,-0.0013237,-2.8231e-08,0,1.5942e-05,-0.00031519,-5.384e+08,-6240.7,0,4.971e+06,-67.569,10872,11561,1,11561,1,-0.00065387,-1.1904e-09,0,0.00043059,-0.00016921,-2.6594e+08,-314.17,0,1.4503e+08,64.839,11560,12795,1,12795,1,0.00090914,1.6243e-09,0,0.0012121,0.00012289,2.4731e+08,459.69,0,3.5179e+08,757.57,12794,714.3,0,714.3,0,0.0009029,5.4307e-09,0,0.00046907,0.00016876,2.8318e+08,1411.1,0,1.3704e+08,776.44,714.3,1
2468,5.29,12178,1,12178,1,0.00018255,-1.4594e-09,0,0.00079421,-3.3391e-05,-7.6324e+05,-340.84,0,2.48e+08,573.84,12177,13439,1,13439,1,0.0016952,1.8376e-08,0,0.0016952,0.0002488,3.7202e+08,6291,0,5.3923e+08,4564.8,13438,12178,1,12178,1,0.00012879,-1.1116e-09,0,0.00080006,-2.3454e-05,4.3631e+07,-297.2,0,2.6616e+08,228.62,12177,10873,1,10873,1,-0.0013258,-2.9527e-08,0,1.6852e-05,-0.00031603,-5.3923e+08,-6513,0,5.3009e+06,-54.609,10872,11561,1,11561,1,-0.00065443,-2.9235e-09,0,0.00043066,-0.00016974,-2.6616e+08,-802.03,0,1.4543e+08,65.067,11560,12795,1,12795,1,0.00091201,3.5988e-10,0,0.0012138,0.000123,2.4758e+08,110.89,0,3.5168e+08,774.25,12794,714.3,0,714.3,0,0.00090488,5.4994e-09,0,0.00047024,0.00016913,2.8344e+08,1482.8,0,1.3714e+08,789.4,714.3,1
2468,5.3,12178,1,12178,1,0.00018383,-1.6155e-09,0,0.00079607,-3.3625e-05,-7.6407e+05,-404.93,0,2.4824e+08,590.61,12177,13439,1,13439,1,0.0016998,1.8964e-08,0,0.0016998,0.00024918,3.7186e+08,6492.1,0,5.4005e+08,4685.6,13438,12178,1,12178,1,0.00012995,-1.4239e-09,0,0.00080269,-2.3667e-05,4.3984e+07,-412.19,0,2.6638e+08,263.74,12177,10873,1,10873,1,-0.0013278,-3.0584e-08,0,1.7772e-05,-0.00031688,-5.4005e+08,-6758,0,5.6338e+06,-172.69,10872,11561,1,11561,1,-0.00065497,-3.9232e-09,0,0.00043071,-0.00017027,-2.6638e+08,-1092.9,0,1.4583e+08,79.752,11560,12795,1,12795,1,0.00091489,8.6434e-10,0,0.0012156,0.0001231,2.4785e+08,209.98,0,3.5156e+08,782.4,12794,714.3,0,714.3,0,0.00090685,6.0878e-09,0,0.00047139,0.0001695,2.837e+08,1613.4,0,1.3725e+08,809.09,714.3,1
2468,5.31,12178,1,12178,1,0.00018511,2.5537e-09,0,0.00079793,-3.3859e-05,-7.6518e+05,732.27,0,2.4847e+08,627.74,12177,13439,1,13439,1,0.0017044,2.26e-08,0,0.0017044,0.00024956,3.717e+08,6271.9,0,5.4087e+08,5202,13438,12178,1,12178,1,0.00013112,3.4386e-09,0,0.00080531,-2.3882e-05,4.4337e+07,972.64,0,2.666e+08,252.51,12177,10873,1,10873,1,-0.0013298,-3.1707e-08,0,1.8695e-05,-0.00031773,-5.4087e+08,-6989.3,0,5.967e+06,-145.62,10872,11561,1,11561,1,-0.00065551,-4.6004e-10,0,0.00043076,-0.0001708,-2.666e+08,-113.5,0,1.4622e+08,68.717,11560,12795,1,12795,1,0.00091776,6.2235e-09,0,0.0012174,0.0001232,2.4812e+08,1740.1,0,3.5143e+08,827.33,12794,714.3,0,714.3,0,0.00090883,6.6628e-09,0,0.00047256,0.00016986,2.8395e+08,1694.6,0,1.3735e+08,892.97,714.3,1
2468,5.32,12178,1,12178,1,0.00018641,2.4366e-09,0,0.00079981,-3.4095e-05,-7.666e+05,750.36,0,2.4871e+08,638,12177,13439,1,13439,1,0.0017091,1.9817e-08,0,0.0017091,0.00024995,3.7154e+08,6784.4,0,5.4171e+08,5191.6,13438,12178,1,12178,1,0.0001323,3.5031e-09,0,0.00080794,-2.4099e-05,4.4694e+07,922.21,0,2.6682e+08,272.37,12177,10873,1,10873,1,-0.0013319,-3.1168e-08,0,1.9613e-05,-0.00031859,-5.4171e+08,-6822.7,0,6.2976e+06,-179.35,10872,11561,1,11561,1,-0.00065606,-7.4698e-10,0,0.00043083,-0.00017134,-2.6682e+08,-206.73,0,1.4662e+08,73.386,11560,12795,1,12795,1,0.00092069,6.6903e-09,0,0.0012191,0.00012331,2.4839e+08,1907.1,0,3.5132e+08,844.68,12794,714.3,0,714.3,0,0.00091083,6.6021e-09,0,0.00047373,0.00017023,2.8421e+08,1761.6,0,1.3746e+08,896.32,714.3,1
2468,5.33,12178,1,12178,1,0.00018771,-1.8366e-09,0,0.00080167,-3.4332e-05,-7.681e+05,-389.99,0,2.4893e+08,722.11,12177,13439,1,13439,1,0.0017137,2.0812e-08,0,0.0017137,0.00025032,3.7137e+08,6508,0,5.425e+08,5107.6,13438,12178,1,12178,1,0.00013348,-6.391e-10,0,0.00081061,-2.4316e-05,4.5052e+07,-191.15,0,2.6704e+08,426.74,12177,10873,1,10873,1,-0.0013338,-3.7416e-08,0,2.0547e-05,-0.00031944,-5.425e+08,-8295.2,0,6.6331e+06,-67.925,10872,11561,1,11561,1,-0.0006566,-5.0342e-09,0,0.00043086,-0.00017187,-2.6704e+08,-1296.6,0,1.4702e+08,164.03,11560,12795,1,12795,1,0.00092357,1.2238e-09,0,0.0012209,0.00012341,2.4864e+08,354.6,0,3.5118e+08,900.03,12794,714.3,0,714.3,0,0.00091281,7.4485e-09,0,0.0004749,0.0001706,2.8446e+08,1874.3,0,1.3756e+08,858.82,714.3,1
2468,5.34,12178,1,12178,1,0.00018902,-2.0323e-09,0,0.00080356,-3.4572e-05,-7.6895e+05,-488.02,0,2.4917e+08,707.58,12177,13439,1,13439,1,0.0017183,2.4696e-08,0,0.0017183,0.0002507,3.712e+08,7505.9,0,5.4334e+08,5125.7,13438,12178,1,12178,1,0.00013467,-1.7633e-09,0,0.00081331,-2.4535e-05,4.541e+07,-529.86,0,2.6726e+08,415.12,12177,10873,1,10873,1,-0.0013359,-3.2645e-08,0,2.1498e-05,-0.0003203,-5.4334e+08,-7129,0,6.9742e+06,-150.66,10872,11561,1,11561,1,-0.00065714,-6.6674e-09,0,0.00043091,-0.00017241,-2.6726e+08,-1810.4,0,1.4743e+08,147.38,11560,12795,1,12795,1,0.00092649,1.3341e-09,0,0.0012227,0.00012352,2.4891e+08,363.85,0,3.5105e+08,879.95,12794,714.3,0,714.3,0,0.00091482,7.7192e-09,0,0.00047609,0.00017097,2.8471e+08,1991.7,0,1.3767e+08,870.33,714.3,1
2468,5.35,12178,1,12178,1,0.00019035,1.6883e-09,0,0.00080546,-3.4814e-05,-7.6979e+05,506.03,0,2.494e+08,690.69,12177,13439,1,13439,1,0.001723,2.2447e-08,0,0.001723,0.00025108,3.71e+08,7684.7,0,5.4416e+08,5774.3,13438,12178,1,12178,1,0.00013588,2.5959e-09,0,0.00081599,-2.4758e-05,4.5774e+07,704.22,0,2.6748e+08,258.82,12177,10873,1,10873,1,-0.0013379,-3.3444e-08,0,2.2462e-05,-0.00032116,-5.4416e+08,-7270.3,0,7.3188e+06,-131.04,10872,11561,1,11561,1,-0.00065767,-6.0294e-10,0,0.00043095,-0.00017295,-2.6748e+08,-178.49,0,1.4783e+08,47.74,11560,12795,1,12795,1,0.00092944,4.7317e-09,0,0.0012245,0.00012362,2.4917e+08,1324.2,0,3.5092e+08,923.62,12794,714.3,0,714.3,0,0.00091683,6.6449e-09,0,0.00047728,0.00017135,2.8497e+08,1742.2,0,1.3777e+08,1001.1,714.3,1
2468,5.36,12178,1,12178,1,0.00019168,-3.6818e-09,0,0.00080733,-3.5057e-05,-7.706e+05,-943.12,0,2.4962e+08,752.95,12177,13439,1,13439,1,0.0017277,2.2177e-08,0,0.0017277,0.00025146,3.7082e+08,7592,0,5.4497e+08,5689.9,13438,12178,1,12178,1,0.00013709,-3.2222e-09,0,0.0008187,-2.4981e-05,4.6139e+07,-973.55,0,2.6768e+08,393.49,12177,10873,1,10873,1,-0.0013399,-3.9314e-08,0,2.3423e-05,-0.00032203,-5.4497e+08,-8625.5,0,7.6618e+06,-164.23,10872,11561,1,11561,1,-0.00065817,-8.2382e-09,0,0.00043096,-0.00017349,-2.6768e+08,-2316,0,1.4823e+08,124.31,11560,12795,1,12795,1,0.00093239,7.0665e-10,0,0.0012262,0.00012371,2.4943e+08,167.33,0,3.5076e+08,975.2,12794,714.3,0,714.3,0,0.00091882,8.0814e-09,0,0.00047846,0.00017172,2.8521e+08,2098.1,0,1.3787e+08,983.67,714.3,1
2468,5.37,12178,1,12178,1,0.00019302,-1.1854e-09,0,0.00080924,-3.5301e-05,-7.72e+05,-315.36,0,2.4985e+08,785.21,12177,13439,1,13439,1,0.0017324,2.408e-08,0,0.0017324,0.00025184,3.7062e+08,7872.7,0,5.4579e+08,6215.8,13438,12178,1,12178,1,0.00013831,-1.474e-09,0,0.00082141,-2.5205e-05,4.6505e+07,-426.48,0,2.679e+08,345.01,12177,10873,1,10873,1,-0.0013419,-3.8617e-08,0,2.4399e-05,-0.0003229,-5.4579e+08,-8417.5,0,8.0087e+06,-72.345,10872,11561,1,11561,1,-0.00065872,-3.6199e-09,0,0.000431,-0.00017404,-2.679e+08,-1130,0,1.4863e+08,126.27,11560,12795,1,12795,1,0.00093536,1.6084e-09,0,0.001228,0.00012382,2.4969e+08,392.9,0,3.5062e+08,1013.8,12794,714.3,0,714.3,0,0.00092084,7.5102e-09,0,0.00047967,0.00017209,2.8546e+08,1932.5,0,1.3798e+08,1041.8,714.3,1
2468,5.38,12178,1,12178,1,0.00019437,1.0654e-09,0,0.00081114,-3.5548e-05,-7.7317e+05,305.64,0,2.5007e+08,777.12,12177,13439,1,13439,1,0.0017371,2.5107e-08,0,0.0017371,0.00025222,3.7041e+08,8594.9,0,5.4661e+08,6602.3,13438,12178,1,12178,1,0.00013955,1.696e-09,0,0.00082414,-2.5433e-05,4.6874e+07,467.39,0,2.6811e+08,280.3,12177,10873,1,10873,1,-0.0013439,-3.7376e-08,0,2.538e-05,-0.00032377,-5.4661e+08,-8068.2,0,8.3566e+06,-74.877,10872,11561,1,11561,1,-0.00065923,-1.0283e-09,0,0.00043101,-0.00017459,-2.6811e+08,-325.41,0,1.4904e+08,66.739,11560,12795,1,12795,1,0.00093833,4.1209e-09,0,0.0012297,0.00012392,2.4994e+08,1009.8,0,3.5047e+08,1028.1,12794,714.3,0,714.3,0,0.00092286,7.3785e-09,0,0.00048087,0.00017247,2.857e+08,1943.5,0,1.3808e+08,1126.2,714.3,1
2468,5.39,12178,1,12178,1,0.00019573,4.513e-09,0,0.00081303,-3.5795e-05,-7.7465e+05,1300.1,0,2.5029e+08,856.19,12177,13439,1,13439,1,0.0017418,3.0861e-08,0,0.0017418,0.00025259,3.7021e+08,9192.4,0,5.4742e+08,6705.8,13438,12178,1,12178,1,0.00014078,5.9468e-09,0,0.00082682,-2.566e-05,4.7244e+07,1621.7,0,2.6831e+08,399.2,12177,10873,1,10873,1,-0.0013459,-3.9409e-08,0,2.636e-05,-0.00032464,-5.4742e+08,-8487.3,0,8.7032e+06,-183.73,10872,11561,1,11561,1,-0.00065971,-1.0214e-10,0,0.000431,-0.00017514,-2.6831e+08,-29.109,0,1.4943e+08,138.71,11560,12795,1,12795,1,0.00094131,9.9074e-09,0,0.0012314,0.00012401,2.502e+08,2777.5,0,3.5029e+08,1134.5,12794,714.3,0,714.3,0,0.00092485,8.9327e-09,0,0.00048207,0.00017284,2.8594e+08,2295.1,0,1.3818e+08,1136.1,714.3,1
2468,5.4,12178,1,12178,1,0.00019709,-1.6608e-09,0,0.00081495,-3.6045e-05,-7.7552e+05,-326.91,0,2.5051e+08,891.94,12177,13439,1,13439,1,0.0017466,2.7152e-08,0,0.0017466,0.00025297,3.7001e+08,9294.9,0,5.4824e+08,6715.3,13438,12178,1,12178,1,0.00014203,-1.0621e-09,0,0.00082958,-2.5889e-05,4.7616e+07,-280.94,0,2.6852e+08,409.12,12177,10873,1,10873,1,-0.0013479,-4.4825e-08,0,2.7339e-05,-0.00032552,-5.4824e+08,-9656.9,0,9.0481e+06,-59.182,10872,11561,1,11561,1,-0.00066024,-4.4664e-09,0,0.00043102,-0.00017569,-2.6852e+08,-1101.4,0,1.4984e+08,149.65,11560,12795,1,12795,1,0.00094431,1.432e-09,0,0.0012332,0.00012411,2.5045e+08,419.22,0,3.5014e+08,1160.7,12794,714.3,0,714.3,0,0.00092689,8.6033e-09,0,0.00048329,0.00017321,2.8619e+08,2242.7,0,1.3829e+08,1151.4,714.3,1
2468,5.41,12178,1,12178,1,0.00019847,3.0191e-09,0,0.00081686,-3.6296e-05,-7.7618e+05,939.41,0,2.5072e+08,945.64,12177,13439,1,13439,1,0.0017514,3.4108e-08,0,0.0017514,0.00025335,3.6978e+08,9422.9,0,5.4905e+08,7161.3,13438,12178,1,12178,1,0.00014329,4.1807e-09,0,0.00083231,-2.6121e-05,4.7992e+07,1184.2,0,2.6872e+08,461.82,12177,10873,1,10873,1,-0.0013499,-4.7396e-08,0,2.835e-05,-0.0003264,-5.4905e+08,-10217,0,9.4033e+06,-157.74,10872,11561,1,11561,1,-0.00066072,-9.9345e-10,0,0.00043101,-0.00017625,-2.6872e+08,-219.92,0,1.5024e+08,152.68,11560,12795,1,12795,1,0.00094733,7.9551e-09,0,0.0012349,0.0001242,2.507e+08,2349.4,0,3.4996e+08,1250.3,12794,714.3,0,714.3,0,0.00092891,1.0085e-08,0,0.0004845,0.00017359,2.8642e+08,2514.9,0,1.3839e+08,1221.4,714.3,1
2468,5.42,12178,1,12178,1,0.00019986,-2.2481e-09,0,0.00081879,-3.655e-05,-7.7737e+05,-455.26,0,2.5094e+08,937.72,12177,13439,1,13439,1,0.0017561,2.9356e-08,0,0.0017561,0.00025372,3.6957e+08,10049,0,5.4986e+08,7166.1,13438,12178,1,12178,1,0.00014456,-1.4958e-09,0,0.00083511,-2.6354e-05,4.8368e+07,-434.2,0,2.6892e+08,427.19,12177,10873,1,10873,1,-0.0013519,-4.8682e-08,0,2.9355e-05,-0.00032728,-5.4986e+08,-10496,0,9.7547e+06,-57.3,10872,11561,1,11561,1,-0.00066123,-5.7007e-09,0,0.00043101,-0.0001768,-2.6892e+08,-1425.8,0,1.5065e+08,163.98,11560,12795,1,12795,1,0.00095035,1.3114e-09,0,0.0012367,0.0001243,2.5094e+08,386.5,0,3.4979e+08,1188.2,12794,714.3,0,714.3,0,0.00093095,9.4798e-09,0,0.00048573,0.00017397,2.8667e+08,2430.3,0,1.3849e+08,1222.7,714.3,1
2468,5.43,12178,1,12178,1,0.00020126,1.9639e-09,0,0.00082071,-3.6805e-05,-7.7843e+05,667.93,0,2.5116e+08,973.36,12177,13439,1,13439,1,0.001761,3.1896e-08,0,0.001761,0.0002541,3.6932e+08,10421,0,5.5068e+08,7883.1,13438,12178,1,12178,1,0.00014584,3.1861e-09,0,0.00083787,-2.659e-05,4.8748e+07,864.72,0,2.6911e+08,405.24,12177,10873,1,10873,1,-0.0013539,-5.0521e-08,0,3.0385e-05,-0.00032817,-5.5068e+08,-10786,0,1.0114e+07,-126.27,10872,11561,1,11561,1,-0.0006617,-1.4205e-09,0,0.00043098,-0.00017737,-2.6912e+08,-372.08,0,1.5106e+08,137.51,11560,12795,1,12795,1,0.0009534,6.3517e-09,0,0.0012384,0.00012439,2.5119e+08,1895.4,0,3.4961e+08,1253.5,12794,714.3,0,714.3,0,0.00093298,9.9869e-09,0,0.00048696,0.00017434,2.869e+08,2539.2,0,1.3859e+08,1341.9,714.3,1
2468,5.44,12178,1,12178,1,0.00020267,-7.1028e-10,0,0.00082264,-3.7062e-05,-7.7954e+05,-19.147,0,2.5137e+08,1030.2,12177,13439,1,13439,1,0.0017658,3.1265e-08,0,0.0017658,0.00025447,3.691e+08,10703,0,5.5148e+08,7756.2,13438,12178,1,12178,1,0.00014712,5.0845e-10,0,0.00084067,-2.6826e-05,4.9129e+07,145.16,0,2.6932e+08,478.78,12177,10873,1,10873,1,-0.0013559,-5.3528e-08,0,3.1409e-05,-0.00032906,-5.5148e+08,-11450,0,1.047e+07,-62.845,10872,11561,1,11561,1,-0.00066219,-3.6736e-09,0,0.00043096,-0.00017793,-2.6932e+08,-884.74,0,1.5147e+08,172.58,11560,12795,1,12795,1,0.00095645,3.1258e-09,0,0.0012402,0.00012448,2.5143e+08,959.41,0,3.4942e+08,1324.3,12794,714.3,0,714.3,0,0.00093502,1.0387e-08,0,0.0004882,0.00017472,2.8713e+08,2632.1,0,1.3869e+08,1332.2,714.3,1
2468,5.45,12178,1,12178,1,0.00020408,-1.4454e-11,0,0.00082458,-3.732e-05,-7.8107e+05,149.66,0,2.5158e+08,1088.4,12177,13439,1,13439,1,0.0017706,3.5059e-08,0,0.0017706,0.00025485,3.6885e+08,10893,0,5.5229e+08,8149,13438,12178,1,12178,1,0.00014842,4.7818e-10,0,0.00084347,-2.7064e-05,4.951e+07,144.16,0,2.6951e+08,525.24,12177,10873,1,10873,1,-0.0013579,-5.4859e-08,0,3.2449e-05,-0.00032995,-5.5229e+08,-11688,0,1.083e+07,-111.63,10872,11561,1,11561,1,-0.00066266,-3.0046e-09,0,0.00043093,-0.00017849,-2.6951e+08,-751.05,0,1.5187e+08,202.91,11560,12795,1,12795,1,0.00095951,3.6229e-09,0,0.0012419,0.00012458,2.5167e+08,1110.8,0,3.4923e+08,1411.5,12794,714.3,0,714.3,0,0.00093706,1.0845e-08,0,0.00048944,0.0001751,2.8737e+08,2700.2,0,1.3879e+08,1378.8,714.3,1
2468,5.46,12178,1,12178,1,0.0002055,-2.384e-09,0,0.00082651,-3.758e-05,-7.8174e+05,-481.76,0,2.5178e+08,1145.8,12177,13439,1,13439,1,0.0017754,3.3348e-08,0,0.0017754,0.00025522,3.6862e+08,10958,0,5.5309e+08,8149.8,13438,12178,1,12178,1,0.00014972,-9.5091e-10,0,0.00084631,-2.7303e-05,4.9894e+07,-292.7,0,2.697e+08,597.11,12177,10873,1,10873,1,-0.0013599,-6.0103e-08,0,3.3498e-05,-0.00033084,-5.5309e+08,-12883,0,1.1192e+07,-115.98,10872,11561,1,11561,1,-0.00066313,-6.4643e-09,0,0.00043089,-0.00017905,-2.697e+08,-1674,0,1.5229e+08,221.68,11560,12795,1,12795,1,0.00096257,2.0818e-09,0,0.0012437,0.00012466,2.5191e+08,600.47,0,3.4903e+08,1478.2,12794,714.3,0,714.3,0,0.0009391,1.1821e-08,0,0.00049068,0.00017548,2.8759e+08,2932.6,0,1.3889e+08,1405.2,714.3,1
2468,5.47,12178,1,12178,1,0.00020694,-1.95e-10,0,0.00082845,-3.7842e-05,-7.827e+05,56.446,0,2.5199e+08,1144,12177,13439,1,13439,1,0.0017803,4.0363e-08,0,0.0017803,0.00025559,3.6836e+08,11507,0,5.539e+08,8635.5,13438,12178,1,12178,1,0.00015103,1.188e-10,0,0.00084915,-2.7544e-05,5.028e+07,38.194,0,2.6989e+08,569.33,12177,10873,1,10873,1,-0.0013618,-5.8812e-08,0,3.4562e-05,-0.00033173,-5.539e+08,-12521,0,1.1557e+07,-122.36,10872,11561,1,11561,1,-0.00066359,-3.6639e-09,0,0.00043084,-0.00017962,-2.6989e+08,-958.97,0,1.527e+08,199.77,11560,12795,1,12795,1,0.00096565,3.7294e-09,0,0.0012454,0.00012475,2.5215e+08,972.76,0,3.4883e+08,1481.4,12794,714.3,0,714.3,0,0.00094115,1.1987e-08,0,0.00049193,0.00017586,2.8782e+08,2936.8,0,1.3899e+08,1450.9,714.3,1
2468,5.48,12178,1,12178,1,0.00020839,2.0273e-09,0,0.00083042,-3.8106e-05,-7.8351e+05,663.77,0,2.522e+08,1156.6,12177,13439,1,13439,1,0.0017852,3.9551e-08,0,0.0017852,0.00025597,3.681e+08,12321,0,5.5472e+08,9131.6,13438,12178,1,12178,1,0.00015236,2.9566e-09,0,0.00085199,-2.7789e-05,5.067e+07,802.9,0,2.7007e+08,495.69,12177,10873,1,10873,1,-0.0013639,-5.778e-08,0,3.563e-05,-0.00033265,-5.5472e+08,-12195,0,1.1923e+07,-123.55,10872,11561,1,11561,1,-0.00066405,-1.268e-09,0,0.0004308,-0.0001802,-2.7007e+08,-350,0,1.531e+08,169.45,11560,12795,1,12795,1,0.00096878,5.9454e-09,0,0.0012471,0.00012484,2.5239e+08,1689.7,0,3.4863e+08,1520.9,12794,714.3,0,714.3,0,0.00094323,1.1537e-08,0,0.0004932,0.00017624,2.8806e+08,2900.6,0,1.3909e+08,1558.8,714.3,1
2468,5.49,12178,1,12178,1,0.00020985,-9.6666e-10,0,0.00083239,-3.8374e-05,-7.8485e+05,-102.9,0,2.524e+08,1194.9,12177,13439,1,13439,1,0.0017901,3.8419e-08,0,0.0017901,0.00025635,3.6785e+08,13152,0,5.5553e+08,9135.2,13438,12178,1,12178,1,0.0001537,-2.9999e-10,0,0.00085487,-2.8035e-05,5.1064e+07,-89.728,0,2.7026e+08,535.65,12177,10873,1,10873,1,-0.0013658,-6.0151e-08,0,3.6705e-05,-0.00033356,-5.5553e+08,-12646,0,1.229e+07,-96.801,10872,11561,1,11561,1,-0.00066452,-4.3351e-09,0,0.00043074,-0.00018078,-2.7026e+08,-1107,0,1.5352e+08,182.42,11560,12795,1,12795,1,0.00097192,2.7381e-09,0,0.0012489,0.00012493,2.5263e+08,769.3,0,3.4842e+08,1571.4,12794,714.3,0,714.3,0,0.00094531,1.1912e-08,0,0.00049447,0.00017663,2.8828e+08,3021.9,0,1.3919e+08,1568.2,714.3,1
2468,5.5,12178,1,12178,1,0.00021132,-2.4671e-09,0,0.00083434,-3.8642e-05,-7.8596e+05,-528.46,0,2.526e+08,1302.2,12177,13439,1,13439,1,0.001795,3.8805e-08,0,0.001795,0.00025672,3.6757e+08,12818,0,5.5633e+08,9696.2,13438,12178,1,12178,1,0.00015505,-1.808e-09,0,0.00085776,-2.8283e-05,5.1458e+07,-528.79,0,2.7044e+08,615.64,12177,10873,1,10873,1,-0.0013678,-6.8519e-08,0,3.7797e-05,-0.00033446,-5.5633e+08,-14500,0,1.2661e+07,-95.137,10872,11561,1,11561,1,-0.00066495,-6.3745e-09,0,0.00043066,-0.00018135,-2.7044e+08,-1663.5,0,1.5393e+08,223.52,11560,12795,1,12795,1,0.00097505,2.2496e-09,0,0.0012506,0.00012502,2.5286e+08,603.13,0,3.4819e+08,1712.1,12794,714.3,0,714.3,0,0.00094736,1.3235e-08,0,0.00049574,0.00017701,2.885e+08,3287.6,0,1.3929e+08,1657.9,714.3,1
2468,5.51,12178,1,12178,1,0.0002128,-1.3035e-09,0,0.00083631,-3.8912e-05,-7.8668e+05,-264.92,0,2.528e+08,1359.1,12177,13439,1,13439,1,0.0018,4.6952e-08,0,0.0018,0.00025709,3.673e+08,13389,0,5.5713e+08,10161,13438,12178,1,12178,1,0.0001564,-1.3729e-09,0,0.00086066,-2.8532e-05,5.1853e+07,-400.43,0,2.7062e+08,638.5,12177,10873,1,10873,1,-0.0013698,-6.9638e-08,0,3.8895e-05,-0.00033537,-5.5713e+08,-14731,0,1.3033e+07,-114.04,10872,11561,1,11561,1,-0.00066539,-5.3096e-09,0,0.0004306,-0.00018193,-2.7062e+08,-1432.2,0,1.5435e+08,229.93,11560,12795,1,12795,1,0.0009782,3.4403e-09,0,0.0012523,0.0001251,2.5309e+08,875.31,0,3.4797e+08,1800.5,12794,714.3,0,714.3,0,0.00094944,1.4024e-08,0,0.00049702,0.0001774,2.8873e+08,3437.5,0,1.3939e+08,1729.1,714.3,1
2468,5.52,12178,1,12178,1,0.00021429,1.1057e-09,0,0.00083831,-3.9184e-05,-7.8777e+05,387.67,0,2.53e+08,1393.5,12177,13439,1,13439,1,0.001805,4.6317e-08,0,0.001805,0.00025747,3.6701e+08,14652,0,5.5795e+08,10799,13438,12178,1,12178,1,0.00015777,1.8239e-09,0,0.00086356,-2.8784e-05,5.2252e+07,494.69,0,2.708e+08,633.33,12177,10873,1,10873,1,-0.0013718,-6.9929e-08,0,4.0003e-05,-0.0003363,-5.5795e+08,-14618,0,1.3406e+07,-82.486,10872,11561,1,11561,1,-0.00066584,-2.4969e-09,0,0.00043052,-0.00018252,-2.708e+08,-723.32,0,1.5476e+08,220.1,11560,12795,1,12795,1,0.00098138,5.6518e-09,0,0.001254,0.00012519,2.5332e+08,1485.2,0,3.4774e+08,1817,12794,714.3,0,714.3,0,0.00095153,1.3859e-08,0,0.00049831,0.00017778,2.8895e+08,3469.3,0,1.3949e+08,1833,714.3,1
2468,5.53,12178,1,12178,1,0.0002158,-1.3007e-09,0,0.0008403,-3.946e-05,-7.8905e+05,-221.77,0,2.532e+08,1442.8,12177,13439,1,13439,1,0.00181,4.4516e-08,0,0.00181,0.00025784,3.6673e+08,15135,0,5.5876e+08,10970,13438,12178,1,12178,1,0.00015915,-6.5617e-10,0,0.0008665,-2.9039e-05,5.2655e+07,-182.69,0,2.7097e+08,666.18,12177,10873,1,10873,1,-0.0013738,-7.4135e-08,0,4.1118e-05,-0.00033722,-5.5876e+08,-15487,0,1.3781e+07,-62.078,10872,11561,1,11561,1,-0.00066627,-4.8923e-09,0,0.00043044,-0.00018311,-2.7097e+08,-1303.6,0,1.5518e+08,235.89,11560,12795,1,12795,1,0.00098459,3.4172e-09,0,0.0012558,0.00012527,2.5355e+08,910.1,0,3.4751e+08,1868.2,12794,714.3,0,714.3,0,0.00095363,1.4379e-08,0,0.00049961,0.00017817,2.8917e+08,3621.8,0,1.3959e+08,1873.5,714.3,1
2468,5.54,12178,1,12178,1,0.00021732,-1.0082e-09,0,0.0008423,-3.9737e-05,-7.9055e+05,-145.83,0,2.5339e+08,1530.8,12177,13439,1,13439,1,0.0018151,4.7843e-08,0,0.0018151,0.00025822,3.6644e+08,16010,0,5.5957e+08,11370,13438,12178,1,12178,1,0.00016055,-4.957e-10,0,0.00086945,-2.9295e-05,5.3061e+07,-139.1,0,2.7115e+08,716.47,12177,10873,1,10873,1,-0.0013758,-7.6602e-08,0,4.2249e-05,-0.00033815,-5.5957e+08,-15928,0,1.4159e+07,-45.268,10872,11561,1,11561,1,-0.0006667,-4.9308e-09,0,0.00043034,-0.0001837,-2.7115e+08,-1318.6,0,1.5559e+08,261.22,11560,12795,1,12795,1,0.00098781,3.9925e-09,0,0.0012575,0.00012535,2.5377e+08,1051.7,0,3.4726e+08,1996.6,12794,714.3,0,714.3,0,0.00095574,1.5108e-08,0,0.00050092,0.00017856,2.8939e+08,3812.4,0,1.3969e+08,1951.4,714.3,1
2468,5.55,12178,1,12178,1,0.00021885,-3.2606e-10,0,0.00084431,-4.0017e-05,-7.9125e+05,35.816,0,2.5358e+08,1578.8,12177,13439,1,13439,1,0.0018201,5.2414e-08,0,0.0018201,0.00025859,3.6613e+08,17184,0,5.6037e+08,11821,13438,12178,1,12178,1,0.00016196,-3.4092e-10,0,0.00087241,-2.9554e-05,5.3469e+07,-95.103,0,2.7132e+08,746.94,12177,10873,1,10873,1,-0.0013778,-7.7836e-08,0,4.3391e-05,-0.00033909,-5.6037e+08,-16111,0,1.454e+07,-48.009,10872,11561,1,11561,1,-0.00066712,-4.7693e-09,0,0.00043024,-0.0001843,-2.7132e+08,-1287.9,0,1.5601e+08,263.79,11560,12795,1,12795,1,0.00099104,4.8214e-09,0,0.0012592,0.00012543,2.5399e+08,1260.2,0,3.4701e+08,2063.4,12794,714.3,0,714.3,0,0.00095784,1.5792e-08,0,0.00050223,0.00017895,2.896e+08,3995.9,0,1.3979e+08,2017.9,714.3,1
2468,5.56,12178,1,12178,1,0.00022039,-1.6512e-09,0,0.00084631,-4.0299e-05,-7.9216e+05,-307.33,0,2.5377e+08,1648.6,12177,13439,1,13439,1,0.0018252,5.4635e-08,0,0.0018252,0.00025896,3.6582e+08,17660,0,5.6117e+08,12371,13438,12178,1,12178,1,0.00016337,-1.9804e-09,0,0.00087537,-2.9815e-05,5.3878e+07,-534.84,0,2.7148e+08,743.39,12177,10873,1,10873,1,-0.0013797,-8.4789e-08,0,4.4539e-05,-0.00034002,-5.6117e+08,-17534,0,1.4922e+07,-64.879,10872,11561,1,11561,1,-0.00066751,-6.336e-09,0,0.00043012,-0.00018489,-2.7148e+08,-1702,0,1.5643e+08,265.31,11560,12795,1,12795,1,0.00099427,4.1105e-09,0,0.0012609,0.00012551,2.5421e+08,1061.7,0,3.4675e+08,2172,12794,714.3,0,714.3,0,0.00095994,1.6874e-08,0,0.00050354,0.00017934,2.8981e+08,4245.6,0,1.3988e+08,2135.1,714.3,1
2468,5.57,12178,1,12178,1,0.00022194,1.5687e-09,0,0.00084831,-4.0581e-05,-7.9288e+05,551.87,0,2.5396e+08,1750.3,12177,13439,1,13439,1,0.0018302,5.8499e-08,0,0.0018302,0.00025933,3.655e+08,18259,0,5.6197e+08,12880,13438,12178,1,12178,1,0.0001648,3.0053e-09,0,0.00087833,-3.0076e-05,5.4288e+07,813.44,0,2.7164e+08,888.29,12177,10873,1,10873,1,-0.0013817,-8.8094e-08,0,4.5694e-05,-0.00034096,-5.6197e+08,-18159,0,1.5305e+07,-64.774,10872,11561,1,11561,1,-0.00066792,-3.3941e-09,0,0.00043,-0.00018549,-2.7164e+08,-958.43,0,1.5684e+08,320.83,11560,12795,1,12795,1,0.00099752,8.1524e-09,0,0.0012626,0.00012559,2.5443e+08,2147,0,3.4649e+08,2261.9,12794,714.3,0,714.3,0,0.00096205,1.7846e-08,0,0.00050486,0.00017973,2.9003e+08,4436.1,0,1.3998e+08,2197.5,714.3,1
2468,5.58,12178,1,12178,1,0.0002235,-1.2604e-09,0,0.00085035,-4.0867e-05,-7.9367e+05,-154.64,0,2.5415e+08,1748.9,12177,13439,1,13439,1,0.0018354,5.8237e-08,0,0.0018354,0.00025971,3.652e+08,19935,0,5.6279e+08,13146,13438,12178,1,12178,1,0.00016624,-1.0119e-09,0,0.00088135,-3.0341e-05,5.4703e+07,-269.22,0,2.7181e+08,820.82,12177,10873,1,10873,1,-0.0013837,-8.9841e-08,0,4.6853e-05,-0.00034191,-5.6279e+08,-18451,0,1.5688e+07,-113.4,10872,11561,1,11561,1,-0.00066834,-6.454e-09,0,0.00042989,-0.0001861,-2.7181e+08,-1702.6,0,1.5726e+08,274.87,11560,12795,1,12795,1,0.0010008,4.978e-09,0,0.0012643,0.00012567,2.5465e+08,1330.8,0,3.4624e+08,2298.3,12794,714.3,0,714.3,0,0.00096419,1.8195e-08,0,0.0005062,0.00018013,2.9024e+08,4647.1,0,1.4008e+08,2264.1,714.3,1
2468,5.59,12178,1,12178,1,0.00022508,-2.7311e-10,0,0.00085239,-4.1155e-05,-7.9568e+05,114.79,0,2.5433e+08,1955,12177,13439,1,13439,1,0.0018405,6.2439e-08,0,0.0018405,0.00026008,3.6487e+08,20786,0,5.6359e+08,14070,13438,12178,1,12178,1,0.00016769,8.4687e-10,0,0.00088437,-3.0607e-05,5.5121e+07,224.97,0,2.7197e+08,1028,12177,10873,1,10873,1,-0.0013857,-9.9151e-08,0,4.8033e-05,-0.00034286,-5.6359e+08,-20308,0,1.6076e+07,-35.425,10872,11561,1,11561,1,-0.00066873,-5.9285e-09,0,0.00042976,-0.0001867,-2.7197e+08,-1605,0,1.5768e+08,377.41,11560,12795,1,12795,1,0.0010041,6.8188e-09,0,0.001266,0.00012575,2.5487e+08,1802.3,0,3.4596e+08,2518,12794,714.3,0,714.3,0,0.00096632,2e-08,0,0.00050755,0.00018053,2.9045e+08,4995,0,1.4018e+08,2399.1,714.3,1
2468,5.6,12178,1,12178,1,0.00022667,-2.815e-09,0,0.00085441,-4.1445e-05,-7.9601e+05,-548.03,0,2.5451e+08,2003.9,12177,13439,1,13439,1,0.0018457,6.772e-08,0,0.0018457,0.00026045,3.6454e+08,21557,0,5.6438e+08,14407,13438,12178,1,12178,1,0.00016915,-3.2417e-09,0,0.00088741,-3.0877e-05,5.554e+07,-908.2,0,2.7212e+08,996.72,12177,10873,1,10873,1,-0.0013876,-1.0509e-07,0,4.9227e-05,-0.0003438,-5.6438e+08,-21535,0,1.6468e+07,-123.8,10872,11561,1,11561,1,-0.0006691,-9.9667e-09,0,0.0004296,-0.00018731,-2.7212e+08,-2585.7,0,1.5811e+08,357.05,11560,12795,1,12795,1,0.0010074,4.9184e-09,0,0.0012678,0.00012582,2.5508e+08,1281.6,0,3.4567e+08,2650.5,12794,714.3,0,714.3,0,0.00096845,2.1537e-08,0,0.00050889,0.00018092,2.9065e+08,5322.6,0,1.4028e+08,2488.8,714.3,1
2468,5.61,12178,1,12178,1,0.00022827,-5.687e-10,0,0.00085647,-4.1737e-05,-7.9758e+05,21.762,0,2.5469e+08,2136.2,12177,13439,1,13439,1,0.0018509,6.5607e-08,0,0.0018509,0.00026082,3.642e+08,22131,0,5.6519e+08,15375,13438,12178,1,12178,1,0.00017062,1.1166e-09,0,0.00089046,-3.1147e-05,5.5961e+07,303.21,0,2.7229e+08,1091.6,12177,10873,1,10873,1,-0.0013896,-1.097e-07,0,5.0429e-05,-0.00034476,-5.6519e+08,-22397,0,1.6861e+07,-46.246,10872,11561,1,11561,1,-0.0006695,-6.2536e-09,0,0.00042947,-0.00018793,-2.7229e+08,-1711.5,0,1.5853e+08,402.12,11560,12795,1,12795,1,0.0010108,7.272e-09,0,0.0012695,0.0001259,2.5529e+08,1864.9,0,3.454e+08,2782.8,12794,714.3,0,714.3,0,0.0009706,2.1643e-08,0,0.00051025,0.00018132,2.9086e+08,5395.3,0,1.4038e+08,2641,714.3,1
2468,5.62,12178,1,12178,1,0.00022988,8.1646e-11,0,0.00085853,-4.2032e-05,-7.9866e+05,227.28,0,2.5487e+08,2219,12177,13439,1,13439,1,0.0018561,7.3404e-08,0,0.0018561,0.0002612,3.6386e+08,23689,0,5.66e+08,15790,13438,12178,1,12178,1,0.00017211,9.9655e-10,0,0.00089353,-3.1421e-05,5.6386e+07,268.51,0,2.7244e+08,1144.1,12177,10873,1,10873,1,-0.0013916,-1.1164e-07,0,5.164e-05,-0.00034573,-5.66e+08,-22673,0,1.7256e+07,-27.982,10872,11561,1,11561,1,-0.00066988,-6.3909e-09,0,0.00042931,-0.00018854,-2.7244e+08,-1706.4,0,1.5895e+08,424.43,11560,12795,1,12795,1,0.0010141,8.0701e-09,0,0.0012711,0.00012597,2.555e+08,2120.8,0,3.4511e+08,2917.7,12794,714.3,0,714.3,0,0.00097275,2.2783e-08,0,0.00051162,0.00018172,2.9107e+08,5673.5,0,1.4048e+08,2719.1,714.3,1
2468,5.63,12178,1,12178,1,0.00023151,-1.3796e-09,0,0.00086058,-4.2329e-05,-7.9928e+05,-132.16,0,2.5504e+08,2296.8,12177,13439,1,13439,1,0.0018613,7.8902e-08,0,0.0018613,0.00026156,3.6351e+08,24679,0,5.6679e+08,16149,13438,12178,1,12178,1,0.00017361,-7.39e-10,0,0.00089662,-3.1696e-05,5.6813e+07,-222.8,0,2.7258e+08,1220.6,12177,10873,1,10873,1,-0.0013935,-1.1836e-07,0,5.2864e-05,-0.00034669,-5.6679e+08,-23991,0,1.7654e+07,-99.964,10872,11561,1,11561,1,-0.00067023,-9.0198e-09,0,0.00042914,-0.00018916,-2.7258e+08,-2331.3,0,1.5937e+08,438.57,11560,12795,1,12795,1,0.0010175,7.2905e-09,0,0.0012728,0.00012604,2.557e+08,1860.1,0,3.4481e+08,3002.5,12794,714.3,0,714.3,0,0.0009749,2.4573e-08,0,0.00051299,0.00018212,2.9126e+08,6009.9,0,1.4057e+08,2785.8,714.3,1
2468,5.64,12178,1,12178,1,0.00023314,-3.7898e-09,0,0.00086262,-4.2627e-05,-8.0027e+05,-781.37,0,2.5521e+08,2376.5,12177,13439,1,13439,1,0.0018665,8.2058e-08,0,0.0018665,0.00026193,3.6315e+08,24411,0,5.6758e+08,16864,13438,12178,1,12178,1,0.00017512,-3.434e-09,0,0.00089972,-3.1973e-05,5.724e+07,-959.59,0,2.7272e+08,1177.5,12177,10873,1,10873,1,-0.0013955,-1.2851e-07,0,5.4099e-05,-0.00034765,-5.6758e+08,-26125,0,1.8055e+07,-197.3,10872,11561,1,11561,1,-0.00067058,-1.1335e-08,0,0.00042895,-0.00018978,-2.7272e+08,-3045.5,0,1.598e+08,408.37,11560,12795,1,12795,1,0.0010208,5.4859e-09,0,0.0012745,0.00012611,2.5591e+08,1373.3,0,3.445e+08,3202.4,12794,714.3,0,714.3,0,0.00097704,2.59e-08,0,0.00051435,0.00018251,2.9146e+08,6259.5,0,1.4067e+08,2950.3,714.3,1
2468,5.65,12178,1,12178,1,0.00023478,3.0563e-11,0,0.0008647,-4.2927e-05,-8.0131e+05,182.57,0,2.5539e+08,2466.2,12177,13439,1,13439,1,0.0018718,8.6468e-08,0,0.0018718,0.0002623,3.6278e+08,26500,0,5.6838e+08,17630,13438,12178,1,12178,1,0.00017663,-6.2268e-11,0,0.00090283,-3.2251e-05,5.767e+07,-15.625,0,2.7288e+08,1230.2,12177,10873,1,10873,1,-0.0013975,-1.2585e-07,0,5.5345e-05,-0.00034862,-5.6838e+08,-25341,0,1.8458e+07,-111.26,10872,11561,1,11561,1,-0.00067095,-7.3528e-09,0,0.00042879,-0.0001904,-2.7288e+08,-1989.6,0,1.6022e+08,427.66,11560,12795,1,12795,1,0.0010242,9.1203e-09,0,0.0012762,0.00012618,2.5611e+08,2273,0,3.442e+08,3290.3,12794,714.3,0,714.3,0,0.00097921,2.5937e-08,0,0.00051574,0.00018291,2.9166e+08,6338.7,0,1.4077e+08,3058.1,714.3,1
2468,5.66,12178,1,12178,1,0.00023644,-4.4551e-09,0,0.00086677,-4.323e-05,-8.0196e+05,-983.86,0,2.5556e+08,2534.1,12177,13439,1,13439,1,0.0018771,8.6954e-08,0,0.0018771,0.00026267,3.6242e+08,26496,0,5.6918e+08,18335,13438,12178,1,12178,1,0.00017816,-4.402e-09,0,0.00090598,-3.2534e-05,5.8104e+07,-1221.6,0,2.7301e+08,1200.8,12177,10873,1,10873,1,-0.0013994,-1.3892e-07,0,5.6599e-05,-0.0003496,-5.6918e+08,-28092,0,1.8863e+07,-284.56,10872,11561,1,11561,1,-0.00067129,-1.2831e-08,0,0.00042859,-0.00019103,-2.7301e+08,-3513.2,0,1.6065e+08,408.1,11560,12795,1,12795,1,0.0010276,5.7681e-09,0,0.0012779,0.00012625,2.5631e+08,1426.1,0,3.4388e+08,3428.4,12794,714.3,0,714.3,0,0.00098138,2.7909e-08,0,0.00051713,0.00018332,2.9185e+08,6754.6,0,1.4087e+08,3213.5,714.3,1
2468,5.67,12178,1,12178,1,0.00023811,9.2084e-10,0,0.00086888,-4.3536e-05,-8.0363e+05,366.05,0,2.5573e+08,2728.5,12177,13439,1,13439,1,0.0018825,9.3123e-08,0,0.0018825,0.00026305,3.6203e+08,28256,0,5.6999e+08,19377,13438,12178,1,12178,1,0.00017971,1.2788e-09,0,0.00090914,-3.2817e-05,5.8541e+07,354.28,0,2.7316e+08,1408.6,12177,10873,1,10873,1,-0.0014014,-1.3897e-07,0,5.7872e-05,-0.00035059,-5.6999e+08,-27884,0,1.9272e+07,-46.867,10872,11561,1,11561,1,-0.00067166,-7.192e-09,0,0.00042841,-0.00019167,-2.7316e+08,-2009.2,0,1.6108e+08,513.31,11560,12795,1,12795,1,0.0010311,1.1775e-08,0,0.0012796,0.00012632,2.5651e+08,2922,0,3.4357e+08,3596.5,12794,714.3,0,714.3,0,0.00098358,2.85e-08,0,0.00051855,0.00018372,2.9205e+08,6938.5,0,1.4097e+08,3332.7,714.3,1
2468,5.68,12178,1,12178,1,0.00023982,-7.0374e-10,0,0.00087101,-4.3847e-05,-8.0429e+05,12.081,0,2.559e+08,2789.4,12177,13439,1,13439,1,0.0018879,9.2173e-08,0,0.0018879,0.00026343,3.6166e+08,30478,0,5.7081e+08,19984,13438,12178,1,12178,1,0.00018129,2.3356e-10,0,0.00091233,-3.3107e-05,5.8985e+07,56.622,0,2.733e+08,1378.6,12177,10873,1,10873,1,-0.0014034,-1.4338e-07,0,5.9151e-05,-0.00035159,-5.7081e+08,-28563,0,1.9682e+07,-66.204,10872,11561,1,11561,1,-0.00067201,-8.9583e-09,0,0.00042822,-0.00019231,-2.733e+08,-2452.2,0,1.6151e+08,485.75,11560,12795,1,12795,1,0.0010346,9.5695e-09,0,0.0012813,0.00012639,2.5671e+08,2407.8,0,3.4325e+08,3718.7,12794,714.3,0,714.3,0,0.00098581,2.8985e-08,0,0.00051998,0.00018414,2.9225e+08,7251.5,0,1.4107e+08,3478.2,714.3,1
2468,5.69,12178,1,12178,1,0.00024154,2.7309e-09,0,0.00087313,-4.4161e-05,-8.0563e+05,969.45,0,2.5606e+08,3013.9,12177,13439,1,13439,1,0.0018933,1.0164e-07,0,0.0018933,0.0002638,3.6125e+08,32787,0,5.7161e+08,20885,13438,12178,1,12178,1,0.00018288,4.2159e-09,0,0.0009155,-3.34e-05,5.9433e+07,1113.2,0,2.7343e+08,1621,12177,10873,1,10873,1,-0.0014054,-1.5118e-07,0,6.0446e-05,-0.00035259,-5.7161e+08,-29985,0,2.0097e+07,-108.2,10872,11561,1,11561,1,-0.00067232,-6.8301e-09,0,0.00042799,-0.00019296,-2.7343e+08,-1860.4,0,1.6193e+08,586.1,11560,12795,1,12795,1,0.0010381,1.4764e-08,0,0.001283,0.00012645,2.5691e+08,3871.2,0,3.4291e+08,3974.4,12794,714.3,0,714.3,0,0.00098802,3.1553e-08,0,0.00052142,0.00018455,2.9244e+08,7835.7,0,1.4117e+08,3622,714.3,1
2468,5.7,12178,1,12178,1,0.00024327,-8.6693e-10,0,0.00087526,-4.4477e-05,-8.0686e+05,94.475,0,2.5623e+08,3208.5,12177,13439,1,13439,1,0.0018988,1.0711e-07,0,0.0018988,0.00026417,3.6087e+08,33942,0,5.7241e+08,21498,13438,12178,1,12178,1,0.00018449,9.0869e-10,0,0.00091747,-3.3694e-05,5.9883e+07,235.66,0,2.7357e+08,1814.3,12177,10873,1,10873,1,-0.0014074,-1.6502e-07,0,6.0416e-05,-0.0003536,-5.7241e+08,-32695,0,2.0512e+07,-73.209,10872,11561,1,11561,1,-0.00067266,-1.129e-08,0,0.00042899,-0.00019361,-2.7357e+08,-2945.1,0,1.6237e+08,652.26,11560,12795,1,12795,1,0.0010416,1.216e-08,0,0.0012854,0.00012652,2.5709e+08,3194.5,0,3.4256e+08,4269.6,12794,714.3,0,714.3,0,0.00099024,3.4226e-08,0,0.00052286,0.00018496,2.9263e+08,8420.2,0,1.4126e+08,3732.9,714.3,1
2468,5.71,12178,1,12178,1,0.00024502,-1.8971e-10,0,0.00087741,-4.4796e-05,-8.0762e+05,313.96,0,2.5639e+08,3348.3,12177,13439,1,13439,1,0.0019043,1.1372e-07,0,0.0019043,0.00026455,3.6046e+08,36225,0,5.7322e+08,22457,13438,12178,1,12178,1,0.0001861,1.3042e-09,0,0.00091834,-3.3992e-05,6.0336e+07,348.1,0,2.737e+08,1896.3,12177,10873,1,10873,1,-0.0014094,-1.7203e-07,0,5.9352e-05,-0.00035462,-5.7322e+08,-33946,0,2.0932e+07,-78.905,10872,11561,1,11561,1,-0.00067298,-1.1406e-08,0,0.00043114,-0.00019427,-2.737e+08,-2973.6,0,1.628e+08,667.99,11560,12795,1,12795,1,0.0010452,1.3557e-08,0,0.0012883,0.00012658,2.5729e+08,3615.2,0,3.4222e+08,4465.6,12794,714.3,0,714.3,0,0.00099248,3.5977e-08,0,0.00052432,0.00018537,2.9282e+08,8890.7,0,1.4136e+08,3912.4,714.3,1
2468,5.72,12178,1,12178,1,0.00024678,-2.8321e-09,0,0.00087955,-4.5118e-05,-8.0862e+05,-334.64,0,2.5654e+08,3529.3,12177,13439,1,13439,1,0.0019098,1.214e-07,0,0.0019098,0.00026491,3.6005e+08,36991,0,5.7402e+08,23275,13438,12178,1,12178,1,0.00018774,-1.5921e-09,0,0.00091921,-3.4291e-05,6.0792e+07,-433.88,0,2.7382e+08,2058.9,12177,10873,1,10873,1,-0.0014113,-1.8722e-07,0,5.8272e-05,-0.00035563,-5.7402e+08,-37028,0,2.1356e+07,-99.354,10872,11561,1,11561,1,-0.00067329,-1.5116e-08,0,0.0004333,-0.00019492,-2.7382e+08,-3892.3,0,1.6323e+08,732.34,11560,12795,1,12795,1,0.0010488,1.2254e-08,0,0.0012912,0.00012664,2.5747e+08,3203.1,0,3.4185e+08,4722,12794,714.3,0,714.3,0,0.00099471,3.9146e-08,0,0.00052578,0.00018579,2.93e+08,9458,0,1.4146e+08,4071.2,714.3,1
2468,5.73,12178,1,12178,1,0.00024855,7.986e-10,0,0.00088172,-4.5442e-05,-8.0931e+05,612.74,0,2.567e+08,3716.5,12177,13439,1,13439,1,0.0019154,1.2816e-07,0,0.0019154,0.00026529,3.5962e+08,38683,0,5.7483e+08,24386,13438,12178,1,12178,1,0.00018938,3.1056e-09,0,0.00092004,-3.4593e-05,6.1249e+07,840.78,0,2.7394e+08,2211.8,12177,10873,1,10873,1,-0.0014133,-1.9349e-07,0,5.7188e-05,-0.00035665,-5.7483e+08,-38058,0,2.1784e+07,-109.23,10872,11561,1,11561,1,-0.00067359,-1.1672e-08,0,0.00043548,-0.00019558,-2.7394e+08,-2995.2,0,1.6367e+08,787.14,11560,12795,1,12795,1,0.0010524,1.6891e-08,0,0.0012941,0.0001267,2.5766e+08,4458.9,0,3.4149e+08,4929.3,12794,714.3,0,714.3,0,0.00099696,4.0617e-08,0,0.00052726,0.0001862,2.9319e+08,9821,0,1.4156e+08,4257.4,714.3,1
2468,5.74,12178,1,12178,1,0.00025035,-2.1026e-09,0,0.00088389,-4.5769e-05,-8.1049e+05,-64.84,0,2.5685e+08,3842.5,12177,13439,1,13439,1,0.0019209,1.315e-07,0,0.0019209,0.00026566,3.5921e+08,40568,0,5.7563e+08,25182,13438,12178,1,12178,1,0.00019104,2.6567e-10,0,0.00092092,-3.4898e-05,6.1711e+07,72.604,0,2.7407e+08,2221.9,12177,10873,1,10873,1,-0.0014153,-2.0347e-07,0,5.6087e-05,-0.00035768,-5.7563e+08,-39941,0,2.2213e+07,-113.05,10872,11561,1,11561,1,-0.0006739,-1.5236e-08,0,0.00043767,-0.00019625,-2.7407e+08,-3853.4,0,1.641e+08,768.59,11560,12795,1,12795,1,0.001056,1.4272e-08,0,0.001297,0.00012676,2.5784e+08,3825.7,0,3.4113e+08,5156.9,12794,714.3,0,714.3,0,0.00099923,4.2403e-08,0,0.00052875,0.00018662,2.9337e+08,10284,0,1.4166e+08,4449.1,714.3,1
2468,5.75,12178,1,12178,1,0.00025215,1.4603e-09,0,0.00088607,-4.6099e-05,-8.1141e+05,883.33,0,2.57e+08,4061,12177,13439,1,13439,1,0.0019266,1.4169e-07,0,0.0019266,0.00026604,3.5876e+08,43210,0,5.7644e+08,26372,13438,12178,1,12178,1,0.00019272,4.5269e-09,0,0.00092173,-3.5207e-05,6.2176e+07,1187.7,0,2.7418e+08,2381.6,12177,10873,1,10873,1,-0.0014173,-2.1072e-07,0,5.4971e-05,-0.00035872,-5.7644e+08,-41075,0,2.2362e+07,-171.54,10872,11561,1,11561,1,-0.00067417,-1.253e-08,0,0.00043987,-0.00019692,-2.7418e+08,-3180.3,0,1.6454e+08,838.35,11560,12795,1,12795,1,0.0010596,1.9128e-08,0,0.0013,0.00012682,2.5802e+08,5106.6,0,3.4075e+08,5428.4,12794,714.3,0,714.3,0,0.0010015,4.4496e-08,0,0.00053024,0.00018704,2.9355e+08,10834,0,1.4176e+08,4662.8,714.3,1
2468,5.76,12178,1,12178,1,0.00025398,-3.5852e-09,0,0.00088828,-4.6432e-05,-8.1248e+05,-346.99,0,2.5716e+08,4236.4,12177,13439,1,13439,1,0.0019323,1.4753e-07,0,0.0019323,0.00026641,3.5834e+08,45606,0,5.7725e+08,27261,13438,12178,1,12178,1,0.00019442,-1.7222e-09,0,0.00092262,-3.5518e-05,6.2645e+07,-452.92,0,2.7431e+08,2465.5,12177,10873,1,10873,1,-0.0014193,-2.2446e-07,0,5.3844e-05,-0.00035976,-5.7725e+08,-43666,0,2.1909e+07,-89.36,10872,11561,1,11561,1,-0.00067448,-1.9083e-08,0,0.0004421,-0.0001976,-2.7431e+08,-4793.5,0,1.6498e+08,864.06,11560,12795,1,12795,1,0.0010633,1.4773e-08,0,0.0013029,0.00012688,2.582e+08,3975.5,0,3.4037e+08,5694.9,12794,714.3,0,714.3,0,0.0010038,4.7335e-08,0,0.00053176,0.00018747,2.9374e+08,11524,0,1.4186e+08,4860.5,714.3,1
2468,5.77,12178,1,12178,1,0.00025583,-1.8797e-09,0,0.0008905,-4.6769e-05,-8.1403e+05,87.294,0,2.5731e+08,4541,12177,13439,1,13439,1,0.001938,1.5757e-07,0,0.001938,0.00026679,3.5788e+08,48039,0,5.7806e+08,28683,13438,12178,1,12178,1,0.00019613,7.089e-10,0,0.00092346,-3.5833e-05,6.3118e+07,194.66,0,2.744e+08,2801.4,12177,10873,1,10873,1,-0.0014213,-2.3793e-07,0,5.2698e-05,-0.00036082,-5.7806e+08,-46132,0,2.145e+07,-50.866,10872,11561,1,11561,1,-0.00067477,-1.8442e-08,0,0.00044436,-0.00019828,-2.7442e+08,-4658.6,0,1.6542e+08,982.84,11560,12795,1,12795,1,0.001067,1.8033e-08,0,0.0013059,0.00012693,2.5838e+08,4851.7,0,3.3997e+08,6067.9,12794,714.3,0,714.3,0,0.0010061,5.0563e-08,0,0.00053329,0.00018789,2.9391e+08,12212,0,1.4196e+08,5078.2,714.3,1
2468,5.78,12178,1,12178,1,0.00025769,-4.8508e-09,0,0.00089269,-4.7109e-05,-8.1452e+05,-659.61,0,2.5744e+08,4727.5,12177,13439,1,13439,1,0.0019436,1.6498e-07,0,0.0019436,0.00026715,3.5742e+08,49903,0,5.7885e+08,29976,13438,12178,1,12178,1,0.00019786,-3.0629e-09,0,0.00092429,-3.6151e-05,6.3594e+07,-812.53,0,2.7447e+08,2797.4,12177,10873,1,10873,1,-0.0014232,-2.5434e-07,0,5.1534e-05,-0.00036186,-5.7885e+08,-49402,0,2.0983e+07,-192.16,10872,11561,1,11561,1,-0.00067501,-2.2821e-08,0,0.00044663,-0.00019896,-2.7452e+08,-5707.8,0,1.6586e+08,968.81,11560,12795,1,12795,1,0.0010708,1.6432e-08,0,0.0013088,0.00012698,2.5854e+08,4320.4,0,3.3956e+08,6419.5,12794,714.3,0,714.3,0,0.0010084,5.3794e-08,0,0.00053481,0.00018831,2.9408e+08,12930,0,1.4206e+08,5355,714.3,1
2468,5.79,12178,1,12178,1,0.00025956,9.3175e-10,0,0.00089494,-4.7451e-05,-8.1561e+05,791.75,0,2.5759e+08,5067.8,12177,13439,1,13439,1,0.0019494,1.7939e-07,0,0.0019494,0.00026754,3.5694e+08,53194,0,5.7968e+08,31908,13438,12178,1,12178,1,0.0001996,4.4329e-09,0,0.00092509,-3.647e-05,6.4072e+07,1155.4,0,2.7455e+08,3115.8,12177,10873,1,10873,1,-0.0014252,-2.6483e-07,0,5.0372e-05,-0.00036293,-5.7968e+08,-50972,0,2.0518e+07,-158.9,10872,11561,1,11561,1,-0.00067528,-1.7376e-08,0,0.00044891,-0.00019966,-2.7463e+08,-4426,0,1.663e+08,1075,11560,12795,1,12795,1,0.0010745,2.3699e-08,0,0.0013118,0.00012704,2.5872e+08,6248.4,0,3.3917e+08,6823.1,12794,714.3,0,714.3,0,0.0010107,5.6439e-08,0,0.00053636,0.00018875,2.9426e+08,13672,0,1.4216e+08,5673,714.3,1
2468,5.8,12178,1,12178,1,0.00026147,-4.217e-09,0,0.0008972,-4.7798e-05,-8.171e+05,-439.16,0,2.5774e+08,5314.2,12177,13439,1,13439,1,0.0019553,1.9028e-07,0,0.0019553,0.00026792,3.565e+08,56912,0,5.805e+08,32584,13438,12178,1,12178,1,0.00020138,-2.4355e-09,0,0.00092598,-3.6795e-05,6.4558e+07,-661.2,0,2.7463e+08,3322.2,12177,10873,1,10873,1,-0.0014272,-2.7811e-07,0,4.9182e-05,-0.00036401,-5.805e+08,-53317,0,2.0044e+07,-100.94,10872,11561,1,11561,1,-0.00067557,-2.5133e-08,0,0.00045122,-0.00020036,-2.7475e+08,-6323.7,0,1.6675e+08,1150.6,11560,12795,1,12795,1,0.0010783,1.9714e-08,0,0.0013149,0.00012709,2.5889e+08,5227.4,0,3.3876e+08,7238.7,12794,714.3,0,714.3,0,0.0010131,6.0292e-08,0,0.00053794,0.00018918,2.9444e+08,14562,0,1.4226e+08,5847.4,714.3,1
2468,5.81,12178,1,12178,1,0.0002634,-1.1817e-10,0,0.00089947,-4.815e-05,-8.176e+05,619.12,0,2.5788e+08,5669.8,12177,13439,1,13439,1,0.0019612,2.0448e-07,0,0.0019612,0.00026829,3.5599e+08,59976,0,5.813e+08,34553,13438,12178,1,12178,1,0.00020317,3.3651e-09,0,0.00092676,-3.7125e-05,6.5048e+07,867.26,0,2.7469e+08,3619.3,12177,10873,1,10873,1,-0.0014292,-2.963e-07,0,4.7968e-05,-0.0003651,-5.813e+08,-56598,0,1.956e+07,-77.571,10872,11561,1,11561,1,-0.0006758,-2.1814e-08,0,0.00045355,-0.00020106,-2.7484e+08,-5521,0,1.6719e+08,1254.6,11560,12795,1,12795,1,0.0010822,2.6111e-08,0,0.0013179,0.00012714,2.5906e+08,6808.7,0,3.3833e+08,7632.3,12794,714.3,0,714.3,0,0.0010154,6.4165e-08,0,0.00053952,0.00018962,2.9461e+08,15426,0,1.4236e+08,6197.8,714.3,1
2468,5.82,12178,1,12178,1,0.00026534,-1.1127e-09,0,0.00090173,-4.8504e-05,-8.1814e+05,465.14,0,2.5801e+08,6006.5,12177,13439,1,13439,1,0.0019671,2.1634e-07,0,0.0019671,0.00026867,3.555e+08,61770,0,5.8211e+08,36050,13438,12178,1,12178,1,0.00020498,2.7408e-09,0,0.00092756,-3.7457e-05,6.5541e+07,698.3,0,2.7475e+08,3950.6,12177,10873,1,10873,1,-0.0014312,-3.2041e-07,0,4.6741e-05,-0.00036618,-5.8211e+08,-61202,0,1.9072e+07,-225.29,10872,11561,1,11561,1,-0.00067603,-2.3916e-08,0,0.00045588,-0.00020177,-2.7493e+08,-6021,0,1.6764e+08,1363.3,11560,12795,1,12795,1,0.001086,2.7426e-08,0,0.0013209,0.00012719,2.5922e+08,7295.9,0,3.3789e+08,8162.3,12794,714.3,0,714.3,0,0.0010177,6.9087e-08,0,0.0005411,0.00019005,2.9477e+08,16329,0,1.4246e+08,6470.7,714.3,1
2468,5.83,12178,1,12178,1,0.0002673,-2.2658e-09,0,0.00090404,-4.8861e-05,-8.1978e+05,272.69,0,2.5815e+08,6259.3,12177,13439,1,13439,1,0.0019731,2.2554e-07,0,0.0019731,0.00026905,3.5502e+08,66721,0,5.8293e+08,37560,13438,12178,1,12178,1,0.00020681,1.4056e-09,0,0.0009284,-3.7791e-05,6.6036e+07,360.98,0,2.7482e+08,4065.7,12177,10873,1,10873,1,-0.0014332,-3.318e-07,0,4.5511e-05,-0.00036728,-5.8293e+08,-62963,0,1.8585e+07,-50.496,10872,11561,1,11561,1,-0.00067629,-2.6852e-08,0,0.00045825,-0.00020249,-2.7504e+08,-6719.6,0,1.6809e+08,1394.4,11560,12795,1,12795,1,0.0010899,2.71e-08,0,0.001324,0.00012724,2.5938e+08,7172.6,0,3.3746e+08,8459.7,12794,714.3,0,714.3,0,0.0010201,7.1931e-08,0,0.00054272,0.00019049,2.9494e+08,17206,0,1.4257e+08,6786.7,714.3,1
2468,5.84,12178,1,12178,1,0.00026928,4.0959e-10,0,0.00090635,-4.9223e-05,-8.2106e+05,1036.8,0,2.5828e+08,6701.5,12177,13439,1,13439,1,0.0019791,2.3667e-07,0,0.0019791,0.00026943,3.5451e+08,69286,0,5.8376e+08,39558,13438,12178,1,12178,1,0.00020866,5.8834e-09,0,0.00092919,-3.8131e-05,6.6539e+07,1524,0,2.7487e+08,4484.4,12177,10873,1,10873,1,-0.0014353,-3.5773e-07,0,4.4252e-05,-0.0003684,-5.8376e+08,-67811,0,1.8087e+07,-95.869,10872,11561,1,11561,1,-0.0006765,-2.4931e-08,0,0.00046062,-0.00020321,-2.7512e+08,-6217.6,0,1.6853e+08,1560.9,11560,12795,1,12795,1,0.0010939,3.2988e-08,0,0.001327,0.00012728,2.5955e+08,8753.2,0,3.3701e+08,9040.9,12794,714.3,0,714.3,0,0.0010225,7.708e-08,0,0.00054434,0.00019094,2.9511e+08,18307,0,1.4267e+08,7160.4,714.3,1
2468,5.85,12178,1,12178,1,0.00027129,-1.7963e-09,0,0.00090866,-4.9589e-05,-8.2154e+05,568.16,0,2.584e+08,7047.9,12177,13439,1,13439,1,0.0019851,2.5837e-07,0,0.0019851,0.0002698,3.5399e+08,72970,0,5.8456e+08,41186,13438,12178,1,12178,1,0.00021053,3.6248e-09,0,0.00092998,-3.8474e-05,6.7045e+07,972.82,0,2.7492e+08,4713.7,12177,10873,1,10873,1,-0.0014372,-3.7971e-07,0,4.2972e-05,-0.0003695,-5.8456e+08,-71715,0,1.7582e+07,-346.84,10872,11561,1,11561,1,-0.00067671,-3.0388e-08,0,0.00046302,-0.00020394,-2.7521e+08,-7250.4,0,1.6898e+08,1603.1,11560,12795,1,12795,1,0.0010978,3.3538e-08,0,0.0013301,0.00012733,2.597e+08,8984.4,0,3.3654e+08,9603.4,12794,714.3,0,714.3,0,0.0010249,8.285e-08,0,0.00054597,0.00019138,2.9526e+08,19571,0,1.4277e+08,7493.5,714.3,1
2468,5.86,12178,1,12178,1,0.00027331,-2.6498e-09,0,0.00091101,-4.9958e-05,-8.2266e+05,464.76,0,2.5854e+08,7378,12177,13439,1,13439,1,0.0019912,2.6729e-07,0,0.0019912,0.00027019,3.5348e+08,76835,0,5.8539e+08,42857,13438,12178,1,12178,1,0.00021242,3.3838e-09,0,0.0009308,-3.8821e-05,6.7554e+07,911.58,0,2.7497e+08,4925.3,12177,10873,1,10873,1,-0.0014393,-4.0004e-07,0,4.1688e-05,-0.00037064,-5.8539e+08,-75310,0,1.7078e+07,-253.22,10872,11561,1,11561,1,-0.00067694,-3.2853e-08,0,0.00046544,-0.00020467,-2.753e+08,-7730.1,0,1.6944e+08,1694.9,11560,12795,1,12795,1,0.0011018,3.4472e-08,0,0.0013332,0.00012737,2.5986e+08,9244.6,0,3.3609e+08,10008,12794,714.3,0,714.3,0,0.0010274,8.7016e-08,0,0.00054763,0.00019183,2.9543e+08,20591,0,1.4287e+08,7823.6,714.3,1
2468,5.87,12178,1,12178,1,0.00027536,-2.241e-09,0,0.00091337,-5.0333e-05,-8.2326e+05,680.91,0,2.5866e+08,7806.5,12177,13439,1,13439,1,0.0019974,2.8433e-07,0,0.0019974,0.00027057,3.5295e+08,81509,0,5.8621e+08,44680,13438,12178,1,12178,1,0.00021434,4.1986e-09,0,0.00093158,-3.9173e-05,6.8071e+07,1098.6,0,2.7502e+08,5318.6,12177,10873,1,10873,1,-0.0014413,-4.2183e-07,0,4.0372e-05,-0.00037177,-5.8621e+08,-79043,0,1.6563e+07,-234.02,10872,11561,1,11561,1,-0.00067714,-3.4998e-08,0,0.00046789,-0.00020542,-2.7538e+08,-8278.9,0,1.6989e+08,1803.1,11560,12795,1,12795,1,0.0011059,3.7683e-08,0,0.0013363,0.00012741,2.6001e+08,10212,0,3.3561e+08,10637,12794,714.3,0,714.3,0,0.0010298,9.2599e-08,0,0.00054931,0.00019228,2.9559e+08,21861,0,1.4297e+08,8202.3,714.3,1
2468,5.88,12178,1,12178,1,0.00027744,-4.7765e-09,0,0.00091578,-5.0712e-05,-8.2522e+05,133.55,0,2.5879e+08,8267.7,12177,13439,1,13439,1,0.0020037,3.0516e-07,0,0.0020037,0.00027096,3.5243e+08,87107,0,5.8705e+08,46470,13438,12178,1,12178,1,0.00021629,1.2102e-09,0,0.00093242,-3.953e-05,6.8593e+07,338.88,0,2.7507e+08,5701.6,12177,10873,1,10873,1,-0.0014434,-4.4429e-07,0,3.9044e-05,-0.00037293,-5.8705e+08,-82929,0,1.6045e+07,-44.399,10872,11561,1,11561,1,-0.00067737,-4.0948e-08,0,0.00047037,-0.00020617,-2.7548e+08,-9692.2,0,1.7035e+08,1945.6,11560,12795,1,12795,1,0.00111,3.7126e-08,0,0.0013395,0.00012746,2.6016e+08,9966.7,0,3.3513e+08,11332,12794,714.3,0,714.3,0,0.0010323,9.85e-08,0,0.00055101,0.00019274,2.9576e+08,23255,0,1.4308e+08,8577.1,714.3,1
2468,5.89,12178,1,12178,1,0.00027956,-2.7234e-09,0,0.00091819,-5.1099e-05,-8.2645e+05,756.15,0,2.5892e+08,8764.5,12177,13439,1,13439,1,0.00201,3.2139e-07,0,0.00201,0.00027135,3.5186e+08,92056,0,5.8789e+08,49189,13438,12178,1,12178,1,0.00021827,4.7397e-09,0,0.00093319,-3.9893e-05,6.9123e+07,1256.6,0,2.751e+08,6064.4,12177,10873,1,10873,1,-0.0014454,-4.7651e-07,0,3.7683e-05,-0.0003741,-5.8789e+08,-88604,0,1.5517e+07,-232.57,10872,11561,1,11561,1,-0.00067754,-4.0047e-08,0,0.00047289,-0.00020693,-2.7555e+08,-9507.5,0,1.7081e+08,2065.3,11560,12795,1,12795,1,0.0011142,4.2657e-08,0,0.0013427,0.0001275,2.6031e+08,11463,0,3.3463e+08,12001,12794,714.3,0,714.3,0,0.0010348,1.0498e-07,0,0.00055274,0.0001932,2.9592e+08,24774,0,1.4319e+08,9094.3,714.3,1
2468,5.9,12178,1,12178,1,0.00028171,-7.9516e-09,0,0.00092064,-5.149e-05,-8.2686e+05,-471.2,0,2.5904e+08,9262.7,12177,13439,1,13439,1,0.0020164,3.4319e-07,0,0.0020164,0.00027174,3.5132e+08,98128,0,5.8873e+08,51117,13438,12178,1,12178,1,0.00022029,-1.6975e-09,0,0.00093401,-4.0262e-05,6.966e+07,-454.59,0,2.7514e+08,6472.2,12177,10873,1,10873,1,-0.0014475,-5.033e-07,0,3.6297e-05,-0.00037528,-5.8873e+08,-93197,0,1.4981e+07,-18.464,10872,11561,1,11561,1,-0.00067774,-4.9136e-08,0,0.00047545,-0.00020771,-2.7563e+08,-11802,0,1.7126e+08,2186.6,11560,12795,1,12795,1,0.0011184,3.9687e-08,0,0.0013459,0.00012754,2.6046e+08,10836,0,3.3413e+08,12814,12794,714.3,0,714.3,0,0.0010373,1.1175e-07,0,0.00055449,0.00019367,2.9608e+08,26394,0,1.433e+08,9544.5,714.3,1
2468,5.91,12178,1,12178,1,0.00028389,-8.5422e-09,0,0.0009231,-5.1887e-05,-8.2794e+05,-599.58,0,2.5916e+08,9869.9,12177,13439,1,13439,1,0.0020229,3.6972e-07,0,0.0020229,0.00027213,3.5074e+08,1.0425e+05,0,5.8957e+08,53730,13438,12178,1,12178,1,0.00022233,-3.3447e-09,0,0.0009348,-4.0636e-05,7.0202e+07,-881.29,0,2.7517e+08,7036.5,12177,10873,1,10873,1,-0.0014496,-5.3602e-07,0,3.4888e-05,-0.00037647,-5.8957e+08,-98886,0,1.4439e+07,-49.338,10872,11561,1,11561,1,-0.00067791,-5.2877e-08,0,0.00047804,-0.00020849,-2.757e+08,-12862,0,1.7107e+08,2368.3,11560,12795,1,12795,1,0.0011226,4.3276e-08,0,0.0013492,0.00012757,2.606e+08,11301,0,3.3361e+08,13649,12794,714.3,0,714.3,0,0.0010398,1.1979e-07,0,0.00055625,0.00019414,2.9623e+08,28190,0,1.434e+08,10060,714.3,1
2468,5.92,12178,1,12178,1,0.00028609,-1.0032e-08,0,0.00092558,-5.2289e-05,-8.2834e+05,-968.54,0,2.5927e+08,10525,12177,13439,1,13439,1,0.0020294,3.9812e-07,0,0.0020294,0.00027252,3.5016e+08,1.1011e+05,0,5.9041e+08,56483,13438,12178,1,12178,1,0.0002244,-4.1739e-09,0,0.0009356,-4.1014e-05,7.0751e+07,-1102.2,0,2.7519e+08,7627.8,12177,10873,1,10873,1,-0.0014516,-5.744e-07,0,3.3457e-05,-0.00037767,-5.9041e+08,-1.0569e+05,0,1.3891e+07,-122.29,10872,11561,1,11561,1,-0.00067807,-5.8042e-08,0,0.00048067,-0.00020928,-2.7576e+08,-14235,0,1.7088e+08,2556,11560,12795,1,12795,1,0.0011269,4.5633e-08,0,0.0013525,0.00012761,2.6074e+08,12058,0,3.3308e+08,14534,12794,714.3,0,714.3,0,0.0010424,1.2905e-07,0,0.00055804,0.00019461,2.9638e+08,30131,0,1.4351e+08,10603,714.3,1
2468,5.93,12178,1,12178,1,0.00028832,-7.1748e-09,0,0.00092811,-5.2696e-05,-8.3055e+05,-235.35,0,2.5939e+08,11235,12177,13439,1,13439,1,0.0020361,4.2307e-07,0,0.0020361,0.00027292,3.4956e+08,1.1797e+05,0,5.9128e+08,60039,13438,12178,1,12178,1,0.00022649,1.3732e-10,0,0.00093638,-4.1398e-05,7.1305e+07,33.166,0,2.7522e+08,8180.7,12177,10873,1,10873,1,-0.0014538,-6.0996e-07,0,3.2011e-05,-0.0003789,-5.9128e+08,-1.1168e+05,0,1.3341e+07,57.792,10872,11561,1,11561,1,-0.00067825,-5.8158e-08,0,0.00048331,-0.00021008,-2.7583e+08,-14202,0,1.7069e+08,2753.1,11560,12795,1,12795,1,0.0011313,5.2529e-08,0,0.0013558,0.00012765,2.6088e+08,13682,0,3.3255e+08,15471,12794,714.3,0,714.3,0,0.001045,1.3723e-07,0,0.00055986,0.00019509,2.9654e+08,32135,0,1.4362e+08,11253,714.3,1
2468,5.94,12178,1,12178,1,0.00029059,-3.8062e-09,0,0.00093063,-5.3109e-05,-8.3187e+05,658.01,0,2.5949e+08,12011,12177,13439,1,13439,1,0.0020428,4.6089e-07,0,0.0020428,0.00027331,3.4894e+08,1.2468e+05,0,5.9212e+08,63376,13438,12178,1,12178,1,0.00022863,4.2276e-09,0,0.00093711,-4.1788e-05,7.1867e+07,1112.4,0,2.7523e+08,8873.2,12177,10873,1,10873,1,-0.0014558,-6.5451e-07,0,3.0524e-05,-0.00038012,-5.9212e+08,-1.194e+05,0,1.2778e+07,-171.91,10872,11561,1,11561,1,-0.00067837,-5.9017e-08,0,0.00048597,-0.00021089,-2.7588e+08,-14286,0,1.7048e+08,2973.6,11560,12795,1,12795,1,0.0011357,6.2516e-08,0,0.0013591,0.00012768,2.6101e+08,16125,0,3.3198e+08,16513,12794,714.3,0,714.3,0,0.0010476,1.4852e-07,0,0.00056169,0.00019557,2.9668e+08,34479,0,1.4373e+08,11897,714.3,1
2468,5.95,12178,1,12178,1,0.00029289,-8.4855e-09,0,0.00093322,-5.3529e-05,-8.3252e+05,-336.58,0,2.5961e+08,12771,12177,13439,1,13439,1,0.0020496,4.8642e-07,0,0.0020496,0.00027372,3.4835e+08,1.3317e+05,0,5.93e+08,66072,13438,12178,1,12178,1,0.00023079,8.1625e-11,0,0.00093793,-4.2184e-05,7.2437e+07,23.051,0,2.7525e+08,9541.9,12177,10873,1,10873,1,-0.001458,-6.9663e-07,0,2.9022e-05,-0.00038139,-5.93e+08,-1.2662e+05,0,1.2212e+07,17.027,10872,11561,1,11561,1,-0.00067855,-6.8029e-08,0,0.00048867,-0.00021171,-2.7595e+08,-16609,0,1.7027e+08,3188.4,11560,12795,1,12795,1,0.0011402,6.1509e-08,0,0.0013625,0.00012771,2.6115e+08,16063,0,3.3144e+08,17769,12794,714.3,0,714.3,0,0.0010503,1.5834e-07,0,0.00056357,0.00019606,2.9684e+08,36870,0,1.4384e+08,12538,714.3,1
2468,5.96,12178,1,12178,1,0.00029525,-1.1332e-08,0,0.00093582,-5.3958e-05,-8.3225e+05,-1017.2,0,2.5972e+08,13629,12177,13439,1,13439,1,0.0020565,5.3246e-07,0,0.0020565,0.00027412,3.4773e+08,1.4257e+05,0,5.9386e+08,69431,13438,12178,1,12178,1,0.00023301,-5.6752e-09,0,0.00093871,-4.2589e-05,7.3018e+07,-1456.5,0,2.7526e+08,10371,12177,10873,1,10873,1,-0.0014601,-7.4564e-07,0,2.7471e-05,-0.00038266,-5.9386e+08,-1.3493e+05,0,1.1631e+07,-102.7,10872,11561,1,11561,1,-0.00067865,-7.7674e-08,0,0.00049143,-0.00021255,-2.76e+08,-19119,0,1.7005e+08,3394.5,11560,12795,1,12795,1,0.0011448,6.427e-08,0,0.0013659,0.00012774,2.6128e+08,16668,0,3.3085e+08,18914,12794,714.3,0,714.3,0,0.0010529,1.7114e-07,0,0.00056547,0.00019656,2.9699e+08,39746,0,1.4395e+08,13263,714.3,1
2468,5.97,12178,1,12178,1,0.00029763,-1.0997e-08,0,0.00093846,-5.4392e-05,-8.3429e+05,-908.24,0,2.5982e+08,14610,12177,13439,1,13439,1,0.0020635,5.7148e-07,0,0.0020635,0.00027453,3.4708e+08,1.5207e+05,0,5.9474e+08,73518,13438,12178,1,12178,1,0.00023526,-4.6925e-09,0,0.00093948,-4.3e-05,7.3606e+07,-1233.3,0,2.7526e+08,11292,12177,10873,1,10873,1,-0.0014623,-7.9914e-07,0,2.5901e-05,-0.00038395,-5.9474e+08,-1.4402e+05,0,1.1045e+07,-122.77,10872,11561,1,11561,1,-0.00067878,-8.2074e-08,0,0.00049422,-0.0002134,-2.7605e+08,-20372,0,1.6982e+08,3727.8,11560,12795,1,12795,1,0.0011494,7.158e-08,0,0.0013693,0.00012777,2.6141e+08,18405,0,3.3026e+08,20292,12794,714.3,0,714.3,0,0.0010556,1.8437e-07,0,0.00056739,0.00019706,2.9714e+08,42656,0,1.4407e+08,14058,714.3,1
2468,5.98,12178,1,12178,1,0.00030006,-9.3707e-09,0,0.00094113,-5.4834e-05,-8.3438e+05,-503.81,0,2.5992e+08,15612,12177,13439,1,13439,1,0.0020707,6.2228e-07,0,0.0020707,0.00027494,3.4643e+08,1.6252e+05,0,5.9562e+08,77596,13438,12178,1,12178,1,0.00023756,-3.6486e-09,0,0.00094023,-4.3418e-05,7.4203e+07,-901.38,0,2.7526e+08,12165,12177,10873,1,10873,1,-0.0014644,-8.5445e-07,0,2.4294e-05,-0.00038526,-5.9562e+08,-1.5331e+05,0,1.0449e+07,-65.348,10872,11561,1,11561,1,-0.0006789,-8.7756e-08,0,0.00049705,-0.00021426,-2.7609e+08,-21793,0,1.6959e+08,3989.8,11560,12795,1,12795,1,0.0011541,8.0292e-08,0,0.0013728,0.00012779,2.6153e+08,20484,0,3.2966e+08,21822,12794,714.3,0,714.3,0,0.0010584,1.9881e-07,0,0.00056935,0.00019756,2.9728e+08,45874,0,1.4418e+08,14890,714.3,1
2468,5.99,12178,1,12178,1,0.00030252,-5.8833e-09,0,0.00094383,-5.5282e-05,-8.3625e+05,480.47,0,2.6002e+08,16720,12177,13439,1,13439,1,0.0020779,6.6918e-07,0,0.0020779,0.00027535,3.4575e+08,1.7356e+05,0,5.9651e+08,81802,13438,12178,1,12178,1,0.00023989,3.7387e-09,0,0.00094096,-4.3843e-05,7.4808e+07,975.73,0,2.7525e+08,13147,12177,10873,1,10873,1,-0.0014666,-9.1423e-07,0,2.2656e-05,-0.00038659,-5.9651e+08,-1.6333e+05,0,9.8435e+06,-63.099,10872,11561,1,11561,1,-0.00067899,-8.9639e-08,0,0.00049988,-0.00021514,-2.7613e+08,-22305,0,1.6934e+08,4343.3,11560,12795,1,12795,1,0.0011589,9.1905e-08,0,0.0013763,0.00012782,2.6165e+08,23377,0,3.2945e+08,23325,12794,714.3,0,714.3,0,0.0010612,2.1433e-07,0,0.00057134,0.00019808,2.9742e+08,49232,0,1.443e+08,15740,714.3,1
2468,6,12178,1,12178,1,0.00030502,-1.2951e-08,0,0.00094656,-5.5737e-05,-8.3736e+05,-1082.1,0,2.6012e+08,17952,12177,13439,1,13439,1,0.0020852,7.1985e-07,0,0.0020852,0.00027577,3.451e+08,1.8426e+05,0,5.974e+08,85901,13438,12178,1,12178,1,0.00024226,-5.2934e-09,0,0.00094176,-4.4275e-05,7.5422e+07,-1334.2,0,2.7524e+08,14248,12177,10873,1,10873,1,-0.0014688,-9.8953e-07,0,2.099e-05,-0.00038793,-5.974e+08,-1.7622e+05,0,9.231e+06,-23.577,10872,11561,1,11561,1,-0.00067909,-1.0454e-07,0,0.00050277,-0.00021603,-2.7617e+08,-26154,0,1.691e+08,4719.8,11560,12795,1,12795,1,0.0011637,9.3362e-08,0,0.0013798,0.00012784,2.6177e+08,23568,0,3.2961e+08,25181,12794,714.3,0,714.3,0,0.001064,2.3212e-07,0,0.00057336,0.00019859,2.9757e+08,53040,0,1.4442e+08,16697,714.3,1
2468,6.01,12178,1,12178,1,0.00030757,-1.3477e-08,0,0.00094932,-5.6201e-05,-8.3708e+05,-1140.4,0,2.6021e+08,19150,12177,13439,1,13439,1,0.0020926,7.786e-07,0,0.0020926,0.00027618,3.444e+08,1.9662e+05,0,5.9829e+08,90570,13438,12178,1,12178,1,0.00024468,-6.4382e-09,0,0.00094249,-4.4715e-05,7.6044e+07,-1644.1,0,2.7521e+08,15373,12177,10873,1,10873,1,-0.001471,-1.0609e-06,0,1.9279e-05,-0.00038929,-5.9829e+08,-1.8825e+05,0,8.6042e+06,-298.35,10872,11561,1,11561,1,-0.00067913,-1.1335e-07,0,0.0005057,-0.00021692,-2.7619e+08,-28311,0,1.6883e+08,5101.2,11560,12795,1,12795,1,0.0011686,1.0173e-07,0,0.0013834,0.00012786,2.6188e+08,25542,0,3.2977e+08,26881,12794,714.3,0,714.3,0,0.0010668,2.5027e-07,0,0.00057541,0.00019912,2.977e+08,56990,0,1.4453e+08,17694,714.3,1
2468,6.02,12178,1,12178,1,0.00031016,-1.2547e-08,0,0.00095216,-5.6673e-05,-8.3971e+05,-839.41,0,2.6031e+08,20542,12177,13439,1,13439,1,0.0021002,8.3234e-07,0,0.0021002,0.00027661,3.4371e+08,2.1152e+05,0,5.9923e+08,95920,13438,12178,1,12178,1,0.00024714,-5.1448e-09,0,0.00094327,-4.5164e-05,7.6678e+07,-1298.4,0,2.752e+08,16601,12177,10873,1,10873,1,-0.0014733,-1.1327e-06,0,1.7551e-05,-0.0003907,-5.9923e+08,-1.9992e+05,0,7.9738e+06,-69.99,10872,11561,1,11561,1,-0.00067925,-1.1994e-07,0,0.00050867,-0.00021785,-2.7624e+08,-30107,0,1.6858e+08,5518.4,11560,12795,1,12795,1,0.0011737,1.1217e-07,0,0.0013871,0.00012789,2.6201e+08,27922,0,3.2995e+08,29027,12794,714.3,0,714.3,0,0.0010697,2.6844e-07,0,0.00057751,0.00019965,2.9785e+08,61210,0,1.4466e+08,18826,714.3,1
2468,6.03,12178,1,12178,1,0.00031283,-1.5012e-08,0,0.00095503,-5.7157e-05,-8.3991e+05,-1386,0,2.604e+08,22056,12177,13439,1,13439,1,0.002108,9.1104e-07,0,0.002108,0.00027705,3.43e+08,2.2708e+05,0,6.0016e+08,1.0082e+05,13438,12178,1,12178,1,0.00024968,-9.3477e-09,0,0.00094403,-4.5626e-05,7.7329e+07,-2387.5,0,2.7518e+08,18075,12177,10873,1,10873,1,-0.0014756,-1.2179e-06,0,1.5754e-05,-0.00039213,-6.0016e+08,-2.1399e+05,0,7.3201e+06,-124.2,10872,11561,1,11561,1,-0.00067929,-1.3435e-07,0,0.00051171,-0.00021879,-2.7625e+08,-33613,0,1.683e+08,6029.7,11560,12795,1,12795,1,0.0011788,1.2115e-07,0,0.0013907,0.0001279,2.6212e+08,30006,0,3.3011e+08,31106,12794,714.3,0,714.3,0,0.0010726,2.9184e-07,0,0.00057966,0.0002002,2.9799e+08,66302,0,1.4478e+08,19942,714.3,1
2468,6.04,12178,1,12178,1,0.00031555,-1.4101e-08,0,0.00095797,-5.7651e-05,-8.4126e+05,-1070.7,0,2.6049e+08,23709,12177,13439,1,13439,1,0.0021159,9.8318e-07,0,0.0021159,0.00027749,3.4226e+08,2.4343e+05,0,6.0111e+08,1.0675e+05,13438,12178,1,12178,1,0.00025228,-6.6619e-09,0,0.00094478,-4.6098e-05,7.7992e+07,-1721.7,0,2.7515e+08,19653,12177,10873,1,10873,1,-0.0014779,-1.3124e-06,0,1.3915e-05,-0.00039359,-6.0111e+08,-2.2958e+05,0,6.6536e+06,-91.644,10872,11561,1,11561,1,-0.00067936,-1.4517e-07,0,0.00051479,-0.00021976,-2.7628e+08,-36071,0,1.6801e+08,6535.3,11560,12795,1,12795,1,0.0011841,1.3529e-07,0,0.0013945,0.00012792,2.6223e+08,33550,0,3.3028e+08,33631,12794,714.3,0,714.3,0,0.0010756,3.1628e-07,0,0.00058186,0.00020075,2.9813e+08,71617,0,1.4491e+08,21222,714.3,1
2468,6.05,12178,1,12178,1,0.00031833,-1.0821e-08,0,0.00096096,-5.8156e-05,-8.4242e+05,-147.78,0,2.6058e+08,25524,12177,13439,1,13439,1,0.002124,1.0727e-06,0,0.002124,0.00027793,3.415e+08,2.6156e+05,0,6.0207e+08,1.129e+05,13438,12178,1,12178,1,0.00025495,-9.3009e-10,0,0.0009455,-4.6581e-05,7.867e+07,-248.07,0,2.7511e+08,21561,12177,10873,1,10873,1,-0.0014803,-1.4149e-06,0,1.2025e-05,-0.00039509,-6.0207e+08,-2.4636e+05,0,5.9707e+06,73.859,10872,11561,1,11561,1,-0.00067942,-1.54e-07,0,0.0005179,-0.00022074,-2.763e+08,-38247,0,1.6771e+08,7096.5,11560,12795,1,12795,1,0.0011895,1.5368e-07,0,0.0013983,0.00012794,2.6234e+08,37422,0,3.3043e+08,36412,12794,714.3,0,714.3,0,0.0010787,3.4418e-07,0,0.0005841,0.00020132,2.9827e+08,77606,0,1.4504e+08,22559,714.3,1
2468,6.06,12178,1,12178,1,0.00032118,-1.3596e-08,0,0.000964,-5.8672e-05,-8.4367e+05,-549.85,0,2.6066e+08,27524,12177,13439,1,13439,1,0.0021323,1.1626e-06,0,0.0021323,0.00027839,3.4075e+08,2.8157e+05,0,6.0304e+08,1.1926e+05,13438,12178,1,12178,1,0.00025768,-3.6083e-09,0,0.00094625,-4.7075e-05,7.9362e+07,-868.52,0,2.7506e+08,23581,12177,10873,1,10873,1,-0.0014827,-1.5282e-06,0,1.0082e-05,-0.00039661,-6.0304e+08,-2.649e+05,0,5.271e+06,-13.443,10872,11561,1,11561,1,-0.00067944,-1.7163e-07,0,0.00052107,-0.00022175,-2.7631e+08,-42608,0,1.674e+08,7685.9,11560,12795,1,12795,1,0.001195,1.6564e-07,0,0.0014021,0.00012795,2.6244e+08,40590,0,3.3059e+08,39103,12794,714.3,0,714.3,0,0.0010818,3.7453e-07,0,0.0005864,0.00020189,2.9841e+08,84105,0,1.4517e+08,23989,714.3,1
2468,6.07,12178,1,12178,1,0.0003241,-1.265e-08,0,0.00096711,-5.92e-05,-8.4527e+05,-91.839,0,2.6074e+08,29701,12177,13439,1,13439,1,0.0021408,1.2614e-06,0,0.0021408,0.00027885,3.3997e+08,3.0378e+05,0,6.0404e+08,1.2584e+05,13438,12178,1,12178,1,0.00026049,-9.0618e-10,0,0.00094698,-4.7583e-05,8.007e+07,-255.24,0,2.7501e+08,25559,12177,10873,1,10873,1,-0.0014851,-1.6516e-06,0,8.0842e-06,-0.00039818,-6.0404e+08,-2.8491e+05,0,4.5528e+06,217.28,10872,11561,1,11561,1,-0.00067947,-1.8506e-07,0,0.00052427,-0.00022278,-2.7632e+08,-45772,0,1.6708e+08,8357,11560,12795,1,12795,1,0.0012006,1.8392e-07,0,0.001406,0.00012796,2.6255e+08,44683,0,3.3074e+08,42355,12794,714.3,0,714.3,0,0.001085,4.0696e-07,0,0.00058875,0.00020248,2.9854e+08,91251,0,1.4531e+08,25632,714.3,1
2468,6.08,12178,1,12178,1,0.0003271,-1.3782e-08,0,0.00097029,-5.9741e-05,-8.459e+05,-40.267,0,2.6082e+08,32056,12177,13439,1,13439,1,0.0021496,1.3694e-06,0,0.0021496,0.00027932,3.3918e+08,3.2753e+05,0,6.0506e+08,1.3291e+05,13438,12178,1,12178,1,0.00026338,9.7439e-10,0,0.0009477,-4.8106e-05,8.0799e+07,205.99,0,2.7496e+08,27891,12177,10873,1,10873,1,-0.0014876,-1.7922e-06,0,6.0204e-06,-0.00039979,-6.0506e+08,-3.0778e+05,0,3.8118e+06,178.22,10872,11561,1,11561,1,-0.00067948,-2.0273e-07,0,0.00052752,-0.00022385,-2.7632e+08,-50081,0,1.6675e+08,9086.2,11560,12795,1,12795,1,0.0012065,2.0223e-07,0,0.00141,0.00012798,2.6265e+08,49671,0,3.3089e+08,45926,12794,714.3,0,714.3,0,0.0010883,4.4425e-07,0,0.00059117,0.00020308,2.9868e+08,99346,0,1.4545e+08,27356,714.3,1
2468,6.09,12178,1,12178,1,0.00033018,-1.3418e-08,0,0.00097354,-6.0297e-05,-8.4664e+05,476.94,0,2.609e+08,34792,12177,13439,1,13439,1,0.0021586,1.5018e-06,0,0.0021586,0.0002798,3.3837e+08,3.5464e+05,0,6.0608e+08,1.4021e+05,13438,12178,1,12178,1,0.00026637,3.2559e-09,0,0.00094842,-4.8643e-05,8.1546e+07,860.87,0,2.7489e+08,30499,12177,10873,1,10873,1,-0.0014902,-1.9477e-06,0,3.8867e-06,-0.00040144,-6.0608e+08,-3.3285e+05,0,3.0467e+06,244.77,10872,11561,1,11561,1,-0.00067946,-2.2396e-07,0,0.00053083,-0.00022494,-2.7632e+08,-54457,0,1.664e+08,9939.9,11560,12795,1,12795,1,0.0012124,2.2561e-07,0,0.001414,0.00012798,2.6274e+08,55492,0,3.3103e+08,50106,12794,714.3,0,714.3,0,0.0010916,4.8765e-07,0,0.00059365,0.0002037,2.9882e+08,1.0848e+05,0,1.4559e+08,29217,714.3,1
2468,6.1,12178,1,12178,1,0.00033335,-1.8649e-08,0,0.00097688,-6.0868e-05,-8.483e+05,-311,0,2.6097e+08,37681,12177,13439,1,13439,1,0.0021678,1.6333e-06,0,0.0021678,0.00028029,3.3756e+08,3.8323e+05,0,6.0714e+08,1.4778e+05,13438,12178,1,12178,1,0.00026944,-1.3091e-09,0,0.00094917,-4.9196e-05,8.2313e+07,-336.17,0,2.7482e+08,33356,12177,10873,1,10873,1,-0.0014928,-2.1195e-06,0,1.6891e-06,-0.00040315,-6.0714e+08,-3.6053e+05,0,2.2598e+06,256.34,10872,11561,1,11561,1,-0.00067945,-2.5038e-07,0,0.0005342,-0.00022606,-2.7631e+08,-61086,0,1.6604e+08,10795,11560,12795,1,12795,1,0.0012186,2.4515e-07,0,0.0014181,0.00012799,2.6284e+08,60849,0,3.3119e+08,54435,12794,714.3,0,714.3,0,0.001095,5.34e-07,0,0.00059621,0.00020433,2.9896e+08,1.1838e+05,0,1.4574e+08,31207,714.3,1
2468,6.11,12178,1,12178,1,0.0003366,-2.4492e-08,0,0.00098031,-6.1454e-05,-8.4917e+05,-1282.9,0,2.6105e+08,40885,12177,13439,1,13439,1,0.0021773,1.7879e-06,0,0.0021773,0.0002808,3.3673e+08,4.1597e+05,0,6.0823e+08,1.5568e+05,13438,12178,1,12178,1,0.00027262,-8.814e-09,0,0.00095114,-4.9766e-05,8.3103e+07,-2254.5,0,2.7474e+08,36562,12177,10873,1,10873,1,-0.0014954,-2.3026e-06,0,1.452e-07,-0.0004049,-6.0823e+08,-3.8974e+05,0,1.4458e+06,280.58,10872,11561,1,11561,1,-0.00067941,-2.8053e-07,0,0.00053765,-0.00022722,-2.7629e+08,-69150,0,1.6566e+08,11879,11560,12795,1,12795,1,0.001225,2.6768e-07,0,0.0014231,0.000128,2.6293e+08,65890,0,3.3134e+08,59241,12794,714.3,0,714.3,0,0.0010985,5.8559e-07,0,0.00059882,0.00020497,2.9909e+08,1.2948e+05,0,1.4589e+08,33388,714.3,1
2468,6.12,12178,1,12178,1,0.00033997,-2.3501e-08,0,0.00098395,-6.206e-05,-8.4981e+05,-670.45,0,2.6112e+08,44365,12177,13439,1,13439,1,0.0021872,1.9552e-06,0,0.0021872,0.00028131,3.3585e+08,4.5084e+05,0,6.0934e+08,1.6464e+05,13438,12178,1,12178,1,0.00027591,-4.7395e-09,0,0.00095227,-5.0357e-05,8.3918e+07,-1181.8,0,2.7465e+08,40263,12177,10873,1,10873,1,-0.0014982,-2.5089e-06,0,4.3383e-07,-0.00040672,-6.0934e+08,-4.2251e+05,0,6.0137e+05,360.64,10872,11561,1,11561,1,-0.00067937,-3.0839e-07,0,0.00054117,-0.00022842,-2.7628e+08,-75390,0,1.6526e+08,12957,11560,12795,1,12795,1,0.0012315,3.0072e-07,0,0.0014297,0.000128,2.6302e+08,74102,0,3.3147e+08,64650,12794,714.3,0,714.3,0,0.0011021,6.4312e-07,0,0.00060135,0.00020563,2.9923e+08,1.4172e+05,0,1.4605e+08,35773,714.3,1
2468,6.13,12178,1,12178,1,0.00034345,-2.5303e-08,0,0.00098774,-6.2685e-05,-8.519e+05,-598.8,0,2.6119e+08,48299,12177,13439,1,13439,1,0.0021975,2.1513e-06,0,0.0021975,0.00028185,3.3497e+08,4.8984e+05,0,6.1049e+08,1.7396e+05,13438,12178,1,12178,1,0.00027934,-5.4485e-09,0,0.0009538,-5.0968e-05,8.4761e+07,-1305.3,0,2.7455e+08,44448,12177,10873,1,10873,1,-0.001501,-2.7381e-06,0,7.6689e-07,-0.00040861,-6.1049e+08,-4.5879e+05,0,59428,399.45,10872,11561,1,11561,1,-0.00067931,-3.4333e-07,0,0.00054238,-0.00022966,-2.7625e+08,-83442,0,1.6484e+08,14306,11560,12795,1,12795,1,0.0012384,3.3605e-07,0,0.0014353,0.00012801,2.631e+08,82391,0,3.3161e+08,70866,12794,714.3,0,714.3,0,0.0011058,7.0914e-07,0,0.0006039,0.00020632,2.9937e+08,1.5561e+05,0,1.4621e+08,38321,714.3,1
2468,6.14,12178,1,12178,1,0.00034705,-2.5052e-08,0,0.00099164,-6.3329e-05,-8.5322e+05,57.735,0,2.6129e+08,52770,12177,13439,1,13439,1,0.0022081,2.3722e-06,0,0.0022081,0.00028239,3.3406e+08,5.3308e+05,0,6.1166e+08,1.8358e+05,13438,12178,1,12178,1,0.0002829,1.1695e-09,0,0.0009587,-5.1601e-05,8.5634e+07,303.22,0,2.7444e+08,49266,12177,10873,1,10873,1,-0.0015039,-2.9962e-06,0,2.5359e-06,-0.00041056,-6.1166e+08,-4.9945e+05,0,1.4933e+05,500.11,10872,11561,1,11561,1,-0.00067922,-3.7842e-07,0,0.00054179,-0.00023095,-2.7622e+08,-92406,0,1.644e+08,15884,11560,12795,1,12795,1,0.0012455,3.7665e-07,0,0.0014402,0.000128,2.6318e+08,91870,0,3.3173e+08,77899,12794,714.3,0,714.3,0,0.0011096,7.8449e-07,0,0.00060653,0.00020702,2.995e+08,1.7127e+05,0,1.463e+08,41240,714.3,1
2468,6.15,12178,1,12178,1,0.00035078,-2.7444e-08,0,0.00099568,-6.3995e-05,-8.5423e+05,202.1,0,2.6141e+08,57615,12177,13439,1,13439,1,0.0022191,2.6131e-06,0,0.0022191,0.00028296,3.3313e+08,5.8017e+05,0,6.1288e+08,1.9343e+05,13438,12178,1,12178,1,0.0002866,4.3804e-09,0,0.00096368,-5.2259e-05,8.6539e+07,1135.4,0,2.7432e+08,54346,12177,10873,1,10873,1,-0.0015069,-3.2799e-06,0,4.5715e-06,-0.00041259,-6.1288e+08,-5.4389e+05,0,2.3968e+05,523.75,10872,11561,1,11561,1,-0.00067912,-4.2375e-07,0,0.00054118,-0.00023229,-2.7618e+08,-1.0279e+05,0,1.6394e+08,17378,11560,12795,1,12795,1,0.0012528,4.2105e-07,0,0.0014453,0.000128,2.6326e+08,1.0207e+05,0,3.3074e+08,85621,12794,714.3,0,714.3,0,0.0011135,8.6776e-07,0,0.00060926,0.00020775,2.9964e+08,1.8864e+05,0,1.4637e+08,44364,714.3,1
2468,6.16,12178,1,12178,1,0.00035465,-3.1455e-08,0,0.00099985,-6.4685e-05,-8.5529e+05,91.916,0,2.6153e+08,63018,12177,13439,1,13439,1,0.0022306,2.89e-06,0,0.0022306,0.00028354,3.3219e+08,6.325e+05,0,6.1413e+08,2.0345e+05,13438,12178,1,12178,1,0.00029047,3.2434e-09,0,0.00096875,-5.2942e-05,8.7478e+07,838.34,0,2.7418e+08,59894,12177,10873,1,10873,1,-0.00151,-3.5986e-06,0,6.6716e-06,-0.0004147,-6.1413e+08,-5.9361e+05,0,7.7214e+05,535.82,10872,11561,1,11561,1,-0.00067899,-4.7338e-07,0,0.00054052,-0.00023368,-2.7612e+08,-1.1498e+05,0,1.6346e+08,19071,11560,12795,1,12795,1,0.0012605,4.6994e-07,0,0.0014505,0.000128,2.6333e+08,1.1445e+05,0,3.2953e+08,94225,12794,714.3,0,714.3,0,0.0011176,9.63e-07,0,0.00061209,0.00020849,2.9978e+08,2.0821e+05,0,1.4644e+08,47767,714.3,1
2468,6.17,12178,1,12178,1,0.00035868,-3.8974e-08,0,0.0010042,-6.5403e-05,-8.5533e+05,-778.86,0,2.6165e+08,68919,12177,13439,1,13439,1,0.0022427,3.189e-06,0,0.0022427,0.00028415,3.3123e+08,6.9036e+05,0,6.1543e+08,2.1371e+05,13438,12178,1,12178,1,0.00029453,-2.2205e-09,0,0.00097395,-5.3657e-05,8.8458e+07,-537.13,0,2.7404e+08,66053,12177,10873,1,10873,1,-0.0015132,-3.9525e-06,0,8.8299e-06,-0.00041692,-6.1543e+08,-6.4853e+05,0,1.5231e+06,568.61,10872,11561,1,11561,1,-0.00067885,-5.345e-07,0,0.00053982,-0.00023514,-2.7606e+08,-1.2925e+05,0,1.6294e+08,20727,11560,12795,1,12795,1,0.0012685,5.2208e-07,0,0.001456,0.00012799,2.634e+08,1.2738e+05,0,3.2828e+08,1.0384e+05,12794,714.3,0,714.3,0,0.0011218,1.0689e-06,0,0.00061504,0.00020927,2.9992e+08,2.3017e+05,0,1.4651e+08,51496,714.3,1
2468,6.18,12178,1,12178,1,0.00036287,-4.1095e-08,0,0.0010087,-6.6148e-05,-8.5761e+05,-271.66,0,2.6177e+08,75612,12177,13439,1,13439,1,0.0022553,3.5319e-06,0,0.0022553,0.00028478,3.3024e+08,7.5655e+05,0,6.168e+08,2.2467e+05,13438,12178,1,12178,1,0.00029878,2.198e-09,0,0.00097924,-5.4404e-05,8.9483e+07,503.78,0,2.7388e+08,72766,12177,10873,1,10873,1,-0.0015165,-4.3416e-06,0,1.1043e-05,-0.00041925,-6.168e+08,-7.0838e+05,0,2.3032e+06,776.08,10872,11561,1,11561,1,-0.0006787,-6.0078e-07,0,0.00053908,-0.00023666,-2.76e+08,-1.4536e+05,0,1.624e+08,22900,11560,12795,1,12795,1,0.001277,5.8664e-07,0,0.0014617,0.00012799,2.6347e+08,1.4322e+05,0,3.2696e+08,1.1546e+05,12794,714.3,0,714.3,0,0.0011261,1.1892e-06,0,0.00061813,0.00021008,3.0006e+08,2.5504e+05,0,1.4658e+08,55673,714.3,1
2468,6.19,12178,1,12178,1,0.00036728,-4.5411e-08,0,0.0010134,-6.693e-05,-8.5799e+05,-253.71,0,2.6189e+08,83077,12177,13439,1,13439,1,0.0022687,3.9214e-06,0,0.0022687,0.00028545,3.2923e+08,8.2969e+05,0,6.1823e+08,2.359e+05,13438,12178,1,12178,1,0.00030329,1.3838e-09,0,0.00098464,-5.5189e-05,9.0559e+07,378.24,0,2.7372e+08,80967,12177,10873,1,10873,1,-0.0015201,-4.7848e-06,0,1.3309e-05,-0.00042171,-6.1823e+08,-7.7623e+05,0,3.1019e+06,884.57,10872,11561,1,11561,1,-0.00067852,-6.7996e-07,0,0.00053829,-0.00023828,-2.7592e+08,-1.6367e+05,0,1.6183e+08,25488,11560,12795,1,12795,1,0.0012859,6.6413e-07,0,0.0014676,0.00012798,2.6353e+08,1.6222e+05,0,3.2558e+08,1.2829e+05,12794,714.3,0,714.3,0,0.0011307,1.3275e-06,0,0.00062137,0.00021093,3.0021e+08,2.8352e+05,0,1.4667e+08,60319,714.3,1
2468,6.2,12178,1,12178,1,0.00037189,-4.8551e-08,0,0.0010183,-6.7746e-05,-8.6021e+05,325.77,0,2.62e+08,91599,12177,13439,1,13439,1,0.0022828,4.3707e-06,0,0.0022828,0.00028614,3.2817e+08,9.113e+05,0,6.1972e+08,2.4668e+05,13438,12178,1,12178,1,0.00030805,8.2158e-09,0,0.00099009,-5.6016e-05,9.1692e+07,1995.1,0,2.7352e+08,90741,12177,10873,1,10873,1,-0.0015237,-5.2847e-06,0,1.562e-05,-0.0004243,-6.1972e+08,-8.5247e+05,0,3.9152e+06,960.9,10872,11561,1,11561,1,-0.00067829,-7.6783e-07,0,0.00053741,-0.00023997,-2.7583e+08,-1.8428e+05,0,1.6121e+08,28398,11560,12795,1,12795,1,0.0012953,7.5967e-07,0,0.0014738,0.00012797,2.6358e+08,1.8365e+05,0,3.241e+08,1.4368e+05,12794,714.3,0,714.3,0,0.0011355,1.4874e-06,0,0.00062476,0.0002118,3.0035e+08,3.1614e+05,0,1.4675e+08,65556,714.3,1
2468,6.21,12178,1,12178,1,0.0003767,-6.1331e-08,0,0.0010234,-6.8596e-05,-8.6158e+05,-1148.8,0,2.6212e+08,1.0116e+05,12177,13439,1,13439,1,0.0022977,4.8886e-06,0,0.0022977,0.00028687,3.2714e+08,1.0033e+06,0,6.2129e+08,2.5672e+05,13438,12178,1,12178,1,0.00031309,-3.2988e-09,0,0.00099568,-5.6884e-05,9.2887e+07,-934.28,0,2.7331e+08,1.0156e+05,12177,10873,1,10873,1,-0.0015276,-5.8462e-06,0,1.7961e-05,-0.00042705,-6.2129e+08,-9.3768e+05,0,4.7358e+06,1130.2,10872,11561,1,11561,1,-0.00067805,-8.7836e-07,0,0.0005365,-0.00024177,-2.7573e+08,-2.1081e+05,0,1.6115e+08,31715,11560,12795,1,12795,1,0.0013053,8.4673e-07,0,0.0014804,0.00012796,2.6364e+08,2.0631e+05,0,3.2254e+08,1.6211e+05,12794,714.3,0,714.3,0,0.0011404,1.6725e-06,0,0.00062833,0.00021272,3.005e+08,3.5335e+05,0,1.4685e+08,71407,714.3,1
2468,6.22,12178,1,12178,1,0.00038181,-7.0577e-08,0,0.0010288,-6.9498e-05,-8.6271e+05,-1875.9,0,2.6223e+08,1.118e+05,12177,13439,1,13439,1,0.0023137,5.4502e-06,0,0.0023137,0.00028764,3.2605e+08,1.1063e+06,0,6.2293e+08,2.6659e+05,13438,12178,1,12178,1,0.00031847,-8.6385e-09,0,0.0010014,-5.7802e-05,9.4147e+07,-2214.9,0,2.7307e+08,1.1328e+05,12177,10873,1,10873,1,-0.0015316,-6.4845e-06,0,2.038e-05,-0.00042999,-6.2293e+08,-1.0339e+06,0,5.5803e+06,962.93,10872,11561,1,11561,1,-0.00067775,-9.9678e-07,0,0.00053547,-0.00024368,-2.756e+08,-2.4103e+05,0,1.611e+08,35736,11560,12795,1,12795,1,0.001316,9.6551e-07,0,0.0014872,0.00012795,2.6368e+08,2.3282e+05,0,3.2089e+08,1.8254e+05,12794,714.3,0,714.3,0,0.0011457,1.8831e-06,0,0.00063211,0.00021369,3.0064e+08,3.9569e+05,0,1.4695e+08,78003,714.3,1
2468,6.23,12178,1,12178,1,0.0003872,-7.1064e-08,0,0.0010344,-7.0445e-05,-8.6328e+05,-368.95,0,2.6233e+08,1.2395e+05,12177,13439,1,13439,1,0.0023307,6.1284e-06,0,0.0023307,0.00028845,3.249e+08,1.2216e+06,0,6.2468e+08,2.7677e+05,13438,12178,1,12178,1,0.00032423,4.7606e-09,0,0.0010071,-5.8783e-05,9.5493e+07,1383.5,0,2.7281e+08,1.2443e+05,12177,10873,1,10873,1,-0.0015359,-7.1985e-06,0,2.2841e-05,-0.00043312,-6.2468e+08,-1.1409e+06,0,6.4356e+06,1518,10872,11561,1,11561,1,-0.0006774,-1.1354e-06,0,0.00053436,-0.00024572,-2.7546e+08,-2.7351e+05,0,1.6104e+08,40219,11560,12795,1,12795,1,0.0013273,1.1175e-06,0,0.0014944,0.00012793,2.6371e+08,2.6687e+05,0,3.1912e+08,2.0588e+05,12794,714.3,0,714.3,0,0.0011511,2.1281e-06,0,0.00063609,0.00021469,3.0079e+08,4.4471e+05,0,1.4706e+08,85717,714.3,1
2468,6.24,12178,1,12178,1,0.00039291,-8.6328e-08,0,0.0010404,-7.1446e-05,-8.6536e+05,-1761.7,0,2.6244e+08,1.3772e+05,12177,13439,1,13439,1,0.0023491,6.8935e-06,0,0.0023491,0.00028932,3.238e+08,1.3525e+06,0,6.2654e+08,2.8854e+05,13438,12178,1,12178,1,0.00033042,-6.7752e-09,0,0.0010128,-5.9822e-05,9.6926e+07,-1658.1,0,2.7253e+08,1.3823e+05,12177,10873,1,10873,1,-0.0015405,-8.0129e-06,0,2.5302e-05,-0.0004365,-6.2654e+08,-1.2625e+06,0,7.2849e+06,1666.9,10872,11561,1,11561,1,-0.00067702,-1.3051e-06,0,0.00053316,-0.0002479,-2.753e+08,-3.1599e+05,0,1.6103e+08,45330,11560,12795,1,12795,1,0.0013396,1.2784e-06,0,0.0015021,0.00012792,2.6374e+08,3.0559e+05,0,3.1724e+08,2.2996e+05,12794,714.3,0,714.3,0,0.0011569,2.4151e-06,0,0.00064034,0.00021576,3.0094e+08,5.0158e+05,0,1.4718e+08,94523,714.3,1
2468,6.25,12178,1,12178,1,0.00039897,-9.3729e-08,0,0.0010467,-7.2508e-05,-8.6659e+05,-1239.2,0,2.6254e+08,1.533e+05,12177,13439,1,13439,1,0.0023689,7.7834e-06,0,0.0023689,0.00029025,3.2263e+08,1.4999e+06,0,6.2853e+08,3.1091e+05,13438,12178,1,12178,1,0.00033712,-3.3373e-09,0,0.0010186,-6.0937e-05,9.8466e+07,-767.51,0,2.7221e+08,1.5479e+05,12177,10873,1,10873,1,-0.0015454,-8.9283e-06,0,2.7814e-05,-0.00044015,-6.2853e+08,-1.3982e+06,0,8.1461e+06,2094.1,10872,11561,1,11561,1,-0.00067658,-1.5055e-06,0,0.00053182,-0.00025026,-2.7511e+08,-3.6303e+05,0,1.6142e+08,48168,11560,12795,1,12795,1,0.0013528,1.4859e-06,0,0.0015103,0.00012789,2.6376e+08,3.5178e+05,0,3.152e+08,2.599e+05,12794,714.3,0,714.3,0,0.001163,2.7493e-06,0,0.00064487,0.00021689,3.0109e+08,5.6739e+05,0,1.4731e+08,1.0487e+05,714.3,1
2468,6.26,12178,1,12178,1,0.00040543,-1.0273e-07,0,0.0010534,-7.3636e-05,-8.6688e+05,-700.23,0,2.6262e+08,1.7095e+05,12177,13439,1,13439,1,0.0023904,8.8047e-06,0,0.0023904,0.00029124,3.2145e+08,1.6649e+06,0,6.3066e+08,3.4757e+05,13438,12178,1,12178,1,0.00034438,1.7572e-09,0,0.0010243,-6.2132e-05,1.0012e+08,502.5,0,2.7184e+08,1.7447e+05,12177,10873,1,10873,1,-0.0015506,-9.9678e-06,0,3.0331e-05,-0.00044411,-6.3066e+08,-1.5516e+06,0,9.002e+06,2207,10872,11561,1,11561,1,-0.00067605,-1.7289e-06,0,0.00053034,-0.0002528,-2.7489e+08,-4.1716e+05,0,1.6208e+08,52913,11560,12795,1,12795,1,0.0013672,1.723e-06,0,0.001519,0.00012782,2.6376e+08,4.0814e+05,0,3.13e+08,2.8472e+05,12794,714.3,0,714.3,0,0.0011695,3.1422e-06,0,0.00064969,0.00021808,3.0123e+08,6.4403e+05,0,1.4745e+08,1.1715e+05,714.3,1
2468,6.27,12178,1,12178,1,0.00041233,-1.1662e-07,0,0.0010605,-7.4837e-05,-8.6853e+05,-920.96,0,2.627e+08,1.9097e+05,12177,13439,1,13439,1,0.002414,9.986e-06,0,0.002414,0.00029231,3.2027e+08,1.851e+06,0,6.3297e+08,4.0217e+05,13438,12178,1,12178,1,0.00035231,8.7735e-10,0,0.0010299,-6.3419e-05,1.0192e+08,168.78,0,2.7144e+08,1.9602e+05,12177,10873,1,10873,1,-0.0015563,-1.1138e-05,0,3.2824e-05,-0.00044844,-6.3297e+08,-1.7236e+06,0,9.8414e+06,2113.3,10872,11561,1,11561,1,-0.00067546,-2.0035e-06,0,0.00052872,-0.00025558,-2.7464e+08,-4.8451e+05,0,1.6272e+08,59959,11560,12795,1,12795,1,0.0013829,1.9929e-06,0,0.0015302,0.00012772,2.6375e+08,4.7456e+05,0,3.1063e+08,3.1602e+05,12794,714.3,0,714.3,0,0.0011764,3.6039e-06,0,0.00065488,0.00021935,3.0138e+08,7.3382e+05,0,1.4761e+08,1.3194e+05,714.3,1
2468,6.28,12178,1,12178,1,0.00041972,-1.2676e-07,0,0.001068,-7.612e-05,-8.692e+05,213.73,0,2.6276e+08,2.1366e+05,12177,13439,1,13439,1,0.0024399,1.1353e-05,0,0.0024399,0.00029347,3.1908e+08,2.0579e+06,0,6.3544e+08,4.7434e+05,13438,12178,1,12178,1,0.000361,1.0012e-08,0,0.0010353,-6.4807e-05,1.0386e+08,2602.5,0,2.7098e+08,2.1031e+05,12177,10873,1,10873,1,-0.0015624,-1.2457e-05,0,3.5295e-05,-0.0004532,-6.3544e+08,-1.9166e+06,0,1.0664e+07,1822.2,10872,11561,1,11561,1,-0.00067474,-2.3321e-06,0,0.00052688,-0.00025861,-2.7434e+08,-5.6594e+05,0,1.6332e+08,68992,11560,12795,1,12795,1,0.0014001,2.3345e-06,0,0.0015434,0.0001276,2.6371e+08,5.557e+05,0,3.0801e+08,3.4601e+05,12794,714.3,0,714.3,0,0.0011837,4.1535e-06,0,0.00066045,0.0002207,3.0151e+08,8.391e+05,0,1.4778e+08,1.5017e+05,714.3,1
2468,6.29,12178,1,12178,1,0.00042767,-1.4795e-07,0,0.0010761,-7.7497e-05,-8.706e+05,-606.38,0,2.6282e+08,2.3907e+05,12177,13439,1,13439,1,0.0024686,1.2914e-05,0,0.0024686,0.00029474,3.1792e+08,2.2884e+06,0,6.3817e+08,5.6409e+05,13438,12178,1,12178,1,0.00037061,3.2487e-09,0,0.0010403,-6.6314e-05,1.0599e+08,865.57,0,2.7047e+08,2.2887e+05,12177,10873,1,10873,1,-0.0015691,-1.3928e-05,0,3.7689e-05,-0.0004585,-6.3817e+08,-2.1313e+06,0,1.1452e+07,1633,10872,11561,1,11561,1,-0.00067395,-2.7655e-06,0,0.00052485,-0.00026195,-2.7401e+08,-6.6274e+05,0,1.6388e+08,76441,11560,12795,1,12795,1,0.0014192,2.7108e-06,0,0.0015538,0.00012745,2.6366e+08,6.544e+05,0,3.0517e+08,3.8676e+05,12794,714.3,0,714.3,0,0.0011915,4.8034e-06,0,0.00066648,0.00022214,3.0166e+08,9.6289e+05,0,1.4798e+08,1.7296e+05,714.3,1
2468,6.3,12178,1,12178,1,0.00043625,-1.7315e-07,0,0.0010848,-7.8982e-05,-8.7155e+05,-1892,0,2.6285e+08,2.6729e+05,12177,13439,1,13439,1,0.0025008,1.4701e-05,0,0.0025008,0.00029613,3.1675e+08,2.5385e+06,0,6.4116e+08,6.7654e+05,13438,12178,1,12178,1,0.00038131,-3.5771e-09,0,0.0010451,-6.7958e-05,1.0834e+08,-533.41,0,2.6987e+08,2.4193e+05,12177,10873,1,10873,1,-0.0015764,-1.5533e-05,0,4.0039e-05,-0.00046441,-6.4116e+08,-2.3728e+06,0,1.2214e+07,1227.3,10872,11561,1,11561,1,-0.00067299,-3.2898e-06,0,0.00052375,-0.00026565,-2.736e+08,-7.8036e+05,0,1.6439e+08,79193,11560,12795,1,12795,1,0.0014405,3.1937e-06,0,0.0015632,0.00012725,2.6358e+08,7.655e+05,0,3.021e+08,4.2933e+05,12794,714.3,0,714.3,0,0.0011999,5.5787e-06,0,0.00067304,0.00022369,3.0179e+08,1.1087e+06,0,1.4819e+08,2.0236e+05,714.3,1
2468,6.31,12178,1,12178,1,0.00044556,-1.9473e-07,0,0.0010942,-8.0589e-05,-8.7217e+05,-2141.8,0,2.6286e+08,2.9849e+05,12177,13439,1,13439,1,0.0025371,1.6754e-05,0,0.0025371,0.00029768,3.156e+08,2.8108e+06,0,6.4448e+08,8.1747e+05,13438,12178,1,12178,1,0.00039332,-5.8375e-09,0,0.0010493,-6.9758e-05,1.1094e+08,-1511.6,0,2.6919e+08,2.4901e+05,12177,10873,1,10873,1,-0.0015846,-1.7273e-05,0,4.2308e-05,-0.00047109,-6.4448e+08,-2.6825e+06,0,1.2938e+07,628.36,10872,11561,1,11561,1,-0.00067189,-3.8847e-06,0,0.00052313,-0.0002698,-2.7314e+08,-9.2133e+05,0,1.6483e+08,79247,11560,12795,1,12795,1,0.0014645,3.7832e-06,0,0.0015723,0.00012699,2.6346e+08,8.9953e+05,0,2.9889e+08,4.8955e+05,12794,714.3,0,714.3,0,0.001209,6.508e-06,0,0.00068021,0.00022536,3.0191e+08,1.2813e+06,0,1.4843e+08,2.41e+05,714.3,1
2468,6.32,12178,1,12178,1,0.00045572,-2.1423e-07,0,0.0011043,-8.2343e-05,-8.7278e+05,-1562.4,0,2.6283e+08,3.3237e+05,12177,13439,1,13439,1,0.0025785,1.905e-05,0,0.0025785,0.00029942,3.1444e+08,3.1004e+06,0,6.4819e+08,9.9591e+05,13438,12178,1,12178,1,0.00040694,-8.4613e-10,0,0.0010529,-7.1744e-05,1.1385e+08,153.14,0,2.6839e+08,2.5427e+05,12177,10873,1,10873,1,-0.0015937,-1.9289e-05,0,4.4473e-05,-0.00047872,-6.4819e+08,-3.0292e+06,0,1.3617e+07,-30006,10872,11561,1,11561,1,-0.00067056,-4.7096e-06,0,0.00052238,-0.00027448,-2.7258e+08,-1.0769e+06,0,1.6519e+08,71414,11560,12795,1,12795,1,0.0014915,4.5144e-06,0,0.0015817,0.00012665,2.633e+08,1.0727e+06,0,2.9559e+08,5.5132e+05,12794,714.3,0,714.3,0,0.0012188,7.621e-06,0,0.00068811,0.00022716,3.0203e+08,1.4852e+06,0,1.487e+08,2.9268e+05,714.3,1
2468,6.33,12178,1,12178,1,0.00046687,-2.372e-07,0,0.0011153,-8.4271e-05,-8.726e+05,-1268.2,0,2.6278e+08,3.6824e+05,12177,13439,1,13439,1,0.0026265,2.1643e-05,0,0.0026265,0.00030138,3.133e+08,3.4519e+06,0,6.5239e+08,1.2239e+06,13438,12178,1,12178,1,0.00042255,4.8411e-10,0,0.0010556,-7.395e-05,1.1713e+08,195.25,0,2.6746e+08,2.5425e+05,12177,10873,1,10873,1,-0.0016041,-2.1854e-05,0,4.5918e-05,-0.00048754,-6.5239e+08,-3.4138e+06,0,1.424e+07,-1.8239e+05,10872,11561,1,11561,1,-0.00066899,-5.6417e-06,0,0.00052147,-0.0002796,-2.7191e+08,-1.2765e+06,0,1.6545e+08,49688,11560,12795,1,12795,1,0.0015204,5.4755e-06,0,0.0015917,0.00012623,2.6309e+08,1.2774e+06,0,2.9212e+08,6.2849e+05,12794,714.3,0,714.3,0,0.0012296,8.9608e-06,0,0.00069689,0.00022913,3.0213e+08,1.7272e+06,0,1.4901e+08,3.628e+05,714.3,1
2468,6.34,12178,1,12178,1,0.00047923,-2.6585e-07,0,0.0011274,-8.6409e-05,-8.7252e+05,-2525.6,0,2.6267e+08,4.0658e+05,12177,13439,1,13439,1,0.0026827,2.501e-05,0,0.0026827,0.00030362,3.1217e+08,3.8938e+06,0,6.5719e+08,1.5197e+06,13438,12178,1,12178,1,0.0004407,-1.0546e-08,0,0.0010783,-7.6421e-05,1.2088e+08,-2526.5,0,2.6635e+08,2.5097e+05,12177,10873,1,10873,1,-0.0016159,-2.5166e-05,0,3.4886e-05,-0.00049789,-6.5719e+08,-3.8675e+06,0,1.4558e+07,-3.8468e+05,10872,11561,1,11561,1,-0.00066707,-6.6982e-06,0,0.00052031,-0.00028486,-2.711e+08,-1.4962e+06,0,1.6561e+08,30891,11560,12795,1,12795,1,0.0015491,6.5989e-06,0,0.0016023,0.0001257,2.6279e+08,1.4974e+06,0,2.8901e+08,7.2436e+05,12794,714.3,0,714.3,0,0.0012414,1.0599e-05,0,0.00070679,0.00023129,3.022e+08,2.0171e+06,0,1.4937e+08,4.5849e+05,714.3,1
2468,6.35,12178,1,12178,1,0.00049308,-2.8635e-07,0,0.0011408,-8.8815e-05,-8.719e+05,-1563.2,0,2.6249e+08,4.448e+05,12177,13439,1,13439,1,0.00275,2.9255e-05,0,0.00275,0.00030623,3.1095e+08,4.4582e+06,0,6.6277e+08,1.9043e+06,13438,12178,1,12178,1,0.00046212,-3.7289e-09,0,0.0011032,-7.9224e-05,1.2522e+08,-3048.3,0,2.648e+08,2.3764e+05,12177,10873,1,10873,1,-0.0016296,-2.9432e-05,0,2.1853e-05,-0.00051027,-6.6277e+08,-4.4275e+06,0,9.8223e+06,-6.2412e+05,10872,11561,1,11561,1,-0.0006647,-7.9407e-06,0,0.00051891,-0.00029031,-2.7009e+08,-1.8136e+06,0,1.6565e+08,10651,11560,12795,1,12795,1,0.0015796,7.7694e-06,0,0.0016139,0.00012504,2.6241e+08,1.7906e+06,0,2.8583e+08,8.1672e+05,12794,714.3,0,714.3,0,0.0012547,1.2589e-05,0,0.00071809,0.00023371,3.0226e+08,2.3622e+06,0,1.4978e+08,5.884e+05,714.3,1
2468,6.36,12178,1,12178,1,0.00050881,-3.1712e-07,0,0.0011558,-9.1554e-05,-8.7033e+05,-2629.8,0,2.6223e+08,4.8256e+05,12177,13439,1,13439,1,0.002832,3.4858e-05,0,0.002832,0.0003093,3.0964e+08,5.1771e+06,0,6.6933e+08,2.4189e+06,13438,12178,1,12178,1,0.00048746,-8.9173e-08,0,0.0011119,-8.242e-05,1.303e+08,-22997,0,2.6147e+08,2.1105e+05,12177,10873,1,10873,1,-0.0016457,-3.508e-05,0,6.2026e-06,-0.00052538,-6.6933e+08,-5.1446e+06,0,4.2806e+06,-8.9462e+05,10872,11561,1,11561,1,-0.00066173,-9.5848e-06,0,0.00051714,-0.00029592,-2.6882e+08,-2.1773e+06,0,1.6555e+08,-8060.1,11560,12795,1,12795,1,0.0016106,9.2727e-06,0,0.0016383,0.00012423,2.6145e+08,2.1651e+06,0,2.8279e+08,9.6037e+05,12794,714.3,0,714.3,0,0.0012697,1.5063e-05,0,0.00073127,0.00023643,3.0227e+08,2.7797e+06,0,1.5027e+08,7.6554e+05,714.3,1
2468,6.37,12178,1,12178,1,0.00052698,-3.3433e-07,0,0.0011732,-9.4684e-05,-8.6879e+05,-1470.7,0,2.6188e+08,5.2124e+05,12177,13439,1,13439,1,0.0029348,4.2502e-05,0,0.0029348,0.00031299,3.0816e+08,6.1097e+06,0,6.772e+08,3.1024e+06,13438,12178,1,12178,1,0.00051374,-1.8039e-07,0,0.0011179,-8.58e-05,1.3614e+08,-37813,0,2.5835e+08,1.7727e+05,12177,10873,1,10873,1,-0.0016651,-4.2705e-05,0,6.9276e-06,-0.0005443,-6.772e+08,-6.0715e+06,0,1.4486e+06,-1.1916e+06,10872,11561,1,11561,1,-0.00065796,-1.2051e-05,0,0.00051753,-0.00030132,-2.672e+08,-2.6821e+06,0,1.7016e+08,-85277,11560,12795,1,12795,1,0.0016351,1.1278e-05,0,0.0016608,0.00012328,2.5822e+08,2.6793e+06,0,2.7997e+08,1.1117e+06,12794,714.3,0,714.3,0,0.001287,1.8219e-05,0,0.00074676,0.00023957,3.0223e+08,3.2939e+06,0,1.5082e+08,1.0053e+06,714.3,1
2468,6.38,12178,1,12178,1,0.00054839,-3.5985e-07,0,0.0011938,-9.8305e-05,-8.6653e+05,-2298.8,0,2.6152e+08,5.6058e+05,12177,13439,1,13439,1,0.0030675,5.3139e-05,0,0.0030675,0.00031755,3.0651e+08,7.3509e+06,0,6.8691e+08,4.0606e+06,13438,12178,1,12178,1,0.00053968,-2.7926e-07,0,0.0011228,-8.9334e-05,1.4176e+08,-50149,0,2.5509e+08,1.237e+05,12177,10873,1,10873,1,-0.001689,-5.3308e-05,0,1.2113e-05,-0.00056874,-6.8691e+08,-7.319e+06,0,3.2593e+06,-1.5893e+06,10872,11561,1,11561,1,-0.00065312,-1.4794e-05,0,0.00054353,-0.00030577,-2.6512e+08,-3.2911e+06,0,1.7483e+08,-2.4576e+05,11560,12795,1,12795,1,0.0016562,1.3782e-05,0,0.0016828,0.0001221,2.5493e+08,3.2859e+06,0,2.769e+08,1.28e+06,12794,714.3,0,714.3,0,0.0013078,2.2352e-05,0,0.00076542,0.00024324,3.0215e+08,3.942e+06,0,1.5129e+08,1.333e+06,714.3,1
2468,6.39,12178,1,12178,1,0.00057461,-3.7542e-07,0,0.0012188,-0.00010266,-8.6252e+05,-925.95,0,2.6099e+08,5.9903e+05,12177,13439,1,13439,1,0.0032453,6.8333e-05,0,0.0032453,0.0003233,3.0436e+08,9.0244e+06,0,6.9916e+08,5.4223e+06,13438,12178,1,12178,1,0.00056703,-3.996e-07,0,0.0011404,-9.3263e-05,1.4678e+08,-70392,0,2.5085e+08,48100,12177,10873,1,10873,1,-0.0017191,-6.8542e-05,0,1.6157e-05,-0.0006015,-6.9916e+08,-8.9832e+06,0,4.6713e+06,-2.1305e+06,10872,11561,1,11561,1,-0.00064645,-1.7942e-05,0,0.00057261,-0.00030963,-2.6225e+08,-4.0158e+06,0,1.7935e+08,-5.0769e+05,11560,12795,1,12795,1,0.0017028,1.6812e-05,0,0.0017154,0.00012049,2.5067e+08,4.0034e+06,0,2.7362e+08,1.531e+06,12794,714.3,0,714.3,0,0.0013335,2.7902e-05,0,0.00078943,0.00024771,3.0195e+08,4.7644e+06,0,1.5184e+08,1.7835e+06,714.3,1
2468,6.4,12178,1,12178,1,0.00060768,-3.9491e-07,0,0.0012501,-0.00010802,-8.5718e+05,-706.77,0,2.6022e+08,6.3724e+05,12177,13439,1,13439,1,0.003496,9.125e-05,0,0.003496,0.00033087,3.0164e+08,1.1349e+07,0,7.1528e+08,7.3968e+06,13438,12178,1,12178,1,0.00059718,-6.1649e-07,0,0.0011599,-9.8442e-05,1.5209e+08,-1.0029e+05,0,2.4708e+08,11169,12177,10873,1,10873,1,-0.0017588,-9.1434e-05,0,1.9362e-05,-0.00064772,-7.1528e+08,-1.1308e+07,0,5.8392e+06,-2.9407e+06,10872,11561,1,11561,1,-0.00063701,-2.2344e-05,0,0.00060459,-0.00031633,-2.5813e+08,-4.8725e+06,0,1.8233e+08,-9.3649e+05,11560,12795,1,12795,1,0.0017446,2.0812e-05,0,0.0017569,0.00011819,2.4673e+08,4.9319e+06,0,2.7021e+08,1.7646e+06,12794,714.3,0,714.3,0,0.001367,3.577e-05,0,0.00082223,0.00025336,3.0166e+08,5.8521e+06,0,1.5262e+08,2.4214e+06,714.3,1
2468,6.41,12178,1,12178,1,0.00065154,-4.0318e-07,0,0.0012911,-0.00011485,-8.4969e+05,1907.7,0,2.59e+08,6.7622e+05,12177,13439,1,13439,1,0.0038736,0.00012792,0,0.0038736,0.00034126,2.9804e+08,1.47e+07,0,7.3735e+08,1.038e+07,13438,12178,1,12178,1,0.00062365,-9.8956e-07,0,0.0011844,-0.0001066,1.5783e+08,-1.4241e+05,0,2.4365e+08,-34677,12177,10873,1,10873,1,-0.0018131,-0.00012799,0,2.1689e-05,-0.00071738,-7.3735e+08,-1.4647e+07,0,6.8151e+06,-4.1766e+06,10872,11561,1,11561,1,-0.00062262,-2.8217e-05,0,0.00062272,-0.00032539,-2.5185e+08,-5.9736e+06,0,1.789e+08,-1.5975e+06,11560,12795,1,12795,1,0.0017967,2.6528e-05,0,0.0018098,0.00011478,2.4326e+08,6.0551e+06,0,2.6593e+08,2.1077e+06,12794,714.3,0,714.3,0,0.0014138,4.7659e-05,0,0.00087063,0.00026091,3.012e+08,7.3447e+06,0,1.5385e+08,3.3544e+06,714.3,1
2468,6.42,12178,1,12178,1,0.00071346,-4.2789e-07,0,0.0013489,-0.00012378,-8.3941e+05,1364.6,0,2.5713e+08,7.1497e+05,12177,13439,1,13439,1,0.0044964,0.00019232,0,0.0044964,0.00035633,2.9287e+08,1.9767e+07,0,7.6927e+08,1.5104e+07,13438,12178,1,12178,1,0.00067304,-1.3586e-06,0,0.0012061,-0.00011776,1.6443e+08,-2.1481e+05,0,2.3845e+08,-1.8558e+05,12177,10873,1,10873,1,-0.0018916,-0.00019268,0,2.2977e-05,-0.00083241,-7.6927e+08,-1.9723e+07,0,7.49e+06,-6.1619e+06,10872,11561,1,11561,1,-0.00059915,-3.624e-05,0,0.00061529,-0.00033019,-2.4157e+08,-7.4472e+06,0,1.8007e+08,-2.5367e+06,11560,12795,1,12795,1,0.0018552,3.5324e-05,0,0.0018716,0.00010933,2.3801e+08,7.4637e+06,0,2.6332e+08,2.5022e+06,12794,714.3,0,714.3,0,0.0014853,6.7207e-05,0,0.00094853,0.00027167,3.0047e+08,9.4894e+06,0,1.5566e+08,4.7813e+06,714.3,1
2468,6.43,12178,1,12178,1,0.00080834,-4.7018e-07,0,0.0014379,-0.00013579,-8.1845e+05,-2249.7,0,2.5431e+08,7.5387e+05,12177,13439,1,13439,1,0.0056685,0.00032455,0,0.0056685,0.00037998,2.8502e+08,2.8144e+07,0,8.1923e+08,2.2951e+07,13438,12178,1,12178,1,0.00073085,-1.967e-06,0,0.0012344,-0.00012942,1.5791e+08,-3.0686e+05,0,2.3183e+08,-4.532e+05,12177,10873,1,10873,1,-0.0020146,-0.00032473,0,2.3445e-05,-0.0010492,-8.1923e+08,-2.8073e+07,0,7.8708e+06,-9.5295e+06,10872,11561,1,11561,1,-0.00055601,-4.7706e-05,0,0.00060934,-0.00033807,-2.2268e+08,-9.2015e+06,0,1.6668e+08,-3.8876e+06,11560,12795,1,12795,1,0.0019178,4.8049e-05,0,0.0019535,0.00010208,2.3253e+08,9.3356e+06,0,2.6497e+08,2.866e+06,12794,714.3,0,714.3,0,0.0016109,0.00010344,0,0.0010913,0.00028861,2.9945e+08,1.2746e+07,0,1.5854e+08,7.0748e+06,714.3,1
2468,6.44,12178,1,12178,1,0.00096954,-4.4215e-07,0,0.0015896,-0.00015104,-7.8133e+05,3532.5,0,2.4921e+08,7.9174e+05,12177,13439,1,13439,1,0.0083467,0.00065181,0,0.0083467,0.00041982,2.996e+08,4.2497e+07,0,9.0294e+08,3.6188e+07,13438,12178,1,12178,1,0.00081287,-2.0303e-06,0,0.0012697,-0.00014249,1.4559e+08,-3.5787e+05,0,2.2137e+08,-9.6784e+05,12177,10873,1,10873,1,-0.0022206,-0.00065133,0,2.3016e-05,-0.0015431,-9.0294e+08,-4.2465e+07,0,8.0339e+06,-1.55e+07,10872,11561,1,11561,1,-0.00046259,-6.6526e-05,0,0.0006463,-0.00033299,-1.8434e+08,-1.1965e+07,0,1.5516e+08,-5.9705e+06,11560,12795,1,12795,1,0.001969,6.7067e-05,0,0.0020161,9.132e-05,2.221e+08,1.202e+07,0,2.7327e+08,3.6182e+06,12794,714.3,0,714.3,0,0.0018764,0.0001826,0,0.0014024,0.00031813,2.9781e+08,1.79e+07,0,1.6396e+08,1.088e+07,714.3,1
2468,6.45,12178,1,12178,1,0.0012758,-3.595e-07,0,0.0018826,-0.00015983,-7.1677e+05,8797,0,2.39e+08,8.1459e+05,12177,13439,1,13439,1,0.016544,0.001721,0,0.016544,0.00049038,3.4333e+08,6.6939e+07,0,1.0498e+09,5.6867e+07,13438,12178,1,12178,1,0.00090404,-1.8677e-06,0,0.0012795,-0.00015884,1.2893e+08,-2.6909e+05,0,2.038e+08,-1.7166e+06,12177,10873,1,10873,1,-0.0025822,-0.0017132,0,2.2093e-05,-0.0030266,-1.0498e+09,-6.6898e+07,0,7.8243e+06,-2.583e+07,10872,11561,1,11561,1,-0.00037542,-9.61e-05,0,0.00066505,-0.00031058,-1.543e+08,-1.5528e+07,0,1.3417e+08,-9.0772e+06,11560,12795,1,12795,1,0.0019569,9.5694e-05,0,0.0020552,7.8477e-05,2.0424e+08,1.5758e+07,0,2.7352e+08,4.3425e+06,12794,714.3,0,714.3,0,0.002597,0.00039401,0,0.0022321,0.00037487,2.9464e+08,2.5831e+07,0,1.7417e+08,1.6823e+07,714.3,1
2468,6.45,12178,1,12178,1,0.0013327,-3.4677e-07,0,0.0019395,-0.00015538,-7.0448e+05,10003,0,2.3725e+08,8.1722e+05,12177,13439,1,13439,1,0.019639,0.0021203,0,0.01964,0.00050345,3.5435e+08,7.1414e+07,0,1.0769e+09,6.0845e+07,13438,12178,1,12178,1,0.00091751,-2.1589e-06,0,0.0012777,-0.00016095,1.2625e+08,-3.7633e+05,0,2.0074e+08,-1.8163e+06,12177,10873,1,10873,1,-0.002649,-0.0021265,0,2.1739e-05,-0.003535,-1.0769e+09,-7.1328e+07,0,7.7711e+06,-2.7833e+07,10872,11561,1,11561,1,-0.00036299,-0.0001011,0,0.00065684,-0.00030323,-1.4925e+08,-1.6183e+07,0,1.332e+08,-9.7033e+06,11560,12795,1,12795,1,0.001943,0.00010114,0,0.0020468,7.7806e-05,2.0101e+08,1.6124e+07,0,2.7286e+08,4.3163e+06,12794,714.3,0,714.3,0,0.0027891,0.00045791,0,0.0024501,0.00038233,2.9439e+08,2.7287e+07,0,1.7635e+08,1.793e+07,714.3,1
